"Displacements:0","Displacements:1","Displacements:2","Stress/Strain:0","Stress/Strain:1","Stress/Strain:2","Stress/Strain:3","Stress/Strain:4","Stress/Strain:5","Stress/Strain:6","Stress/Strain:7","Stress/Strain:8","Stress/Strain:9","Stress/Strain:10","Stress/Strain:11","Stress/Strain:12","Stress/Strain:13","Stress/Strain:14","Stress/Strain:15","Principal Stress:0","Principal Stress:1","Principal Stress:2","Principal Stress:3","Principal Stress:4","Principal Stress:5","Principal Stress:6","nodes:0","nodes:1","nodes:2"
0,0,1,-0.9062,-1.4381,-1.7033,3.4694e-18,0,0,1.0362,0.34473,0,8.6736e-18,0,0,0.88542,-9.7969e-16,0,0.88542,-0.9062,-1.4381,-1.7033,3.7371e-16,-1.3492,0.70307,0.0096707,0,0,0
0.020724,0,0.98229,-0.88721,-1.3978,-1.6678,0.00042673,0,0,1.0147,0.35103,0,0.0011095,0,0,0.89038,-0.0051141,0,0.89039,-0.88721,-1.3978,-1.6678,0.047889,-1.3176,0.68661,0.0083785,0.02,0,0
0.04059,0,0.96439,-0.89734,-1.3538,-1.6397,0.0011717,0,0,0.96511,0.37169,0,0.0030465,0,0,0.90475,-0.0097506,0,0.9048,-0.89734,-1.3538,-1.6397,0.14707,-1.297,0.64856,0.0054001,0.04,0,0
0.059329,0,0.9461,-0.9162,-1.2933,-1.6089,0.0023524,0,0,0.90056,0.41038,0,0.0061162,0,0,0.92704,-0.01338,0,0.92714,-0.91619,-1.2933,-1.6089,0.35743,-1.2728,0.60073,0.0017021,0.06,0,0
0.076612,0,0.9273,-0.94432,-1.2125,-1.5744,0.0038307,0,0,0.81905,0.47038,0,0.0099598,0,0,0.95483,-0.015506,0,0.95496,-0.94427,-1.2126,-1.5744,0.81811,-1.2437,0.54767,-0.0021387,0.08,0,0
0.092091,0,0.90791,-0.98031,-1.112,-1.5356,0.0050479,0,0,0.72189,0.55067,0,0.013124,0,0,0.98507,-0.015861,0,0.98519,-0.98011,-1.1122,-1.5356,2.1917,-1.2093,0.50264,-0.0050351,0.1,0,0
0.10549,0,0.8879,-1.0205,-0.99922,-1.4938,0.0054333,0,0,0.6153,0.64298,0,0.014127,0,0,1.0146,-0.014582,0,1.0147,-0.99791,-1.0218,-1.4938,76.483,-1.1712,0.4844,-0.0057896,0.12,0,0
0.1167,0,0.86733,-1.0599,-0.88744,-1.4515,0.004777,0,0,0.50909,0.73332,0,0.01242,0,0,1.0408,-0.012171,0,1.0409,-0.88731,-1.0601,-1.4515,88.415,-1.133,0.50072,-0.003956,0.14,0,0
0.12585,0,0.84627,-1.0935,-0.78969,-1.4112,0.0035574,0,0,0.41301,0.80801,0,0.0092493,0,0,1.0621,-0.0092614,0,1.0621,-0.78965,-1.0936,-1.4112,89.329,-1.0981,0.53836,-0.00030648,0.16,0,0
0.13322,0,0.82484,-1.1177,-0.71366,-1.3742,0.0023733,0,0,0.33351,0.85877,0,0.0061705,0,0,1.0777,-0.0063415,0,1.0777,-0.71364,-1.1177,-1.3742,89.663,-1.0685,0.57684,0.0036999,0.18,0,0
0.13919,0,0.80316,-1.131,-0.66131,-1.3408,0.0016112,0,0,0.27283,0.8834,0,0.004189,0,0,1.0878,-0.0036272,0,1.0878,-0.6613,-1.131,-1.3408,89.803,-1.0444,0.60267,0.0068195,0.2,0,0
0.14414,0,0.78133,-1.1335,-0.63129,-1.3108,0.0011941,0,0,0.23046,0.88331,0,0.0031047,0,0,1.0926,-0.0010901,0,1.0926,-0.63129,-1.1335,-1.3108,89.864,-1.0252,0.61046,0.0084475,0.22,0,0
0.14841,0,0.75945,-1.1261,-0.62157,-1.2838,0.00082287,0,0,0.20495,0.86084,0,0.0021395,0,0,1.0922,0.0014206,0,1.0922,-0.62157,-1.1261,-1.2838,89.907,-1.0105,0.59912,0.0085205,0.24,0,0
0.15233,0,0.73764,-1.1097,-0.6304,-1.2597,0.00021174,0,0,0.19492,0.81807,0,0.00055051,0,0,1.0867,0.0040517,0,1.0867,-0.6304,-1.1097,-1.2597,89.975,-0.99994,0.56932,0.0073077,0.26,0,0
0.15621,0,0.71599,-1.0856,-0.65578,-1.2384,-0.00070938,0,0,0.19861,0.75742,0,-0.0018444,0,0,1.0758,0.0068248,0,1.0758,-0.65578,-1.0856,-1.2384,-89.905,-0.99328,0.52325,0.005298,0.28,0,0
0.16028,0,0.69461,-1.0558,-0.69383,-1.2195,-0.001656,0,0,0.21283,0.68336,0,-0.0043056,0,0,1.0596,0.0095274,0,1.0597,-0.69383,-1.0558,-1.2195,-89.738,-0.9897,0.46591,0.0031153,0.3,0,0
0.16472,0,0.6736,-1.0232,-0.73759,-1.2018,-0.0022437,0,0,0.23225,0.60352,0,-0.0058335,0,0,1.039,0.011701,0,1.039,-0.73757,-1.0232,-1.2018,-89.55,-0.98754,0.4056,0.0013246,0.32,0,0
0.16957,0,0.65305,-0.9913,-0.778,-1.1838,-0.0021913,0,0,0.2503,0.52759,0,-0.0056974,0,0,1.0153,0.012782,0,1.0154,-0.77798,-0.99133,-1.1838,-89.412,-0.98438,0.35164,0.00019826,0.34,0,0
0.17473,0,0.63299,-0.9632,-0.80745,-1.1642,-0.0016747,0,0,0.26128,0.46375,0,-0.0043543,0,0,0.99115,0.01238,0,0.99123,-0.80744,-0.96322,-1.1642,-89.384,-0.97828,0.30978,-0.00033168,0.36,0,0
0.18002,0,0.6134,-0.94089,-0.82295,-1.1425,-0.00098995,0,0,0.26217,0.41549,0,-0.0025739,0,0,0.96914,0.010491,0,0.96919,-0.82294,-0.9409,-1.1425,-89.519,-0.9688,0.27994,-0.00049027,0.38,0,0
0.18522,0,0.59422,-0.92501,-0.82556,-1.1194,-0.00037106,0,0,0.2527,0.38199,0,-0.00096476,0,0,0.95164,0.0075215,0,0.95167,-0.82556,-0.92501,-1.1194,-89.786,-0.95666,0.25886,-0.00046806,0.4,0,0
0.19013,0,0.57534,-0.91524,-0.81781,-1.0953,0.00021525,0,0,0.23401,0.36068,0,0.00055965,0,0,0.94015,0.0040835,0,0.94016,-0.81781,-0.91524,-1.0953,89.873,-0.94277,0.2438,-0.00036365,0.42,0,0
0.19458,0,0.55662,-0.9109,-0.80156,-1.0704,0.00085056,0,0,0.20729,0.34943,0,0.0022114,0,0,0.9351,0.00076159,0,0.93509,-0.80155,-0.91091,-1.0704,89.554,-0.92761,0.23413,-0.00020834,0.44,0,0
0.19842,0,0.53794,-0.91144,-0.77767,-1.0447,0.0015783,0,0,0.1732,0.34709,0,0.0041036,0,0,0.93596,-0.0020399,0,0.93596,-0.77765,-0.91146,-1.0447,89.324,-0.91126,0.23124,2.4148e-06,0.46,0,0
0.20151,0,0.51918,-0.91638,-0.74658,-1.0181,0.0023368,0,0,0.13219,0.35293,0,0.0060756,0,0,0.94162,-0.004117,0,0.94163,-0.74655,-0.91641,-1.0181,89.212,-0.89368,0.2376,0.0002885,0.48,0,0
0.20371,0,0.50027,-0.92512,-0.70906,-0.99052,0.0030092,0,0,0.085026,0.3659,0,0.0078238,0,0,0.95067,-0.0054263,0,0.95069,-0.70902,-0.92516,-0.99052,89.202,-0.8749,0.25518,0.00066836,0.5,0,0
0.20491,0,0.48115,-0.9367,-0.66666,-0.96216,0.003478,0,0,0.033094,0.38416,0,0.0090429,0,0,0.96171,-0.0060338,0,0.96173,-0.66661,-0.93675,-0.96216,89.262,-0.85517,0.2837,0.001141,0.52,0,0
0.20503,0,0.4618,-0.94987,-0.62162,-0.93325,0.0036785,0,0,-0.021606,0.40511,0,0.0095641,0,0,0.97349,-0.0060735,0,0.97351,-0.62158,-0.94991,-0.93325,89.358,-0.83491,0.32032,0.0016727,0.54,0,0
0.20404,0,0.44221,-0.96323,-0.57652,-0.90414,0.0036202,0,0,-0.07682,0.4259,0,0.0094125,0,0,0.98506,-0.0057089,0,0.98507,-0.57649,-0.96326,-0.90414,89.464,-0.81463,0.36087,0.0021968,0.56,0,0
0.20196,0,0.4224,-0.97553,-0.53365,-0.87515,0.0033754,0,0,-0.13049,0.44396,0,0.008776,0,0,0.99574,-0.0050989,0,0.99576,-0.53362,-0.97555,-0.87515,89.562,-0.79478,0.40126,0.002631,0.58,0,0
0.19882,0,0.40238,-0.98582,-0.49465,-0.84652,0.0030408,0,0,-0.18109,0.45744,0,0.007906,0,0,1.0052,-0.0043728,0,1.0052,-0.49463,-0.98584,-0.84652,89.645,-0.77567,0.43848,0.002902,0.6,0,0
0.19471,0,0.38219,-0.99359,-0.46039,-0.81839,0.0027006,0,0,-0.22777,0.4654,0,0.0070217,0,0,1.0132,-0.0036196,0,1.0132,-0.46037,-0.99361,-0.81839,89.71,-0.75746,0.47075,0.0029639,0.62,0,0
0.18971,0,0.36186,-0.9987,-0.43105,-0.79078,0.0024054,0,0,-0.2703,0.46765,0,0.006254,0,0,1.0197,-0.0028892,0,1.0197,-0.43104,-0.99871,-0.79078,89.757,-0.74018,0.49745,0.0028043,0.64,0,0
0.1839,0,0.34141,-1.0013,-0.40637,-0.7637,0.00217,0,0,-0.30885,0.46453,0,0.0056419,0,0,1.0248,-0.002201,0,1.0248,-0.40636,-1.0013,-0.7637,89.791,-0.72378,0.51868,0.0024379,0.66,0,0
0.17736,0,0.32087,-1.0016,-0.38584,-0.73709,0.0019838,0,0,-0.34384,0.45663,0,0.0051578,0,0,1.0286,-0.0015543,0,1.0286,-0.38583,-1.0016,-0.73709,89.815,-0.70817,0.53502,0.0018966,0.68,0,0
0.17015,0,0.30026,-0.99993,-0.36886,-0.7109,0.0018229,0,0,-0.37574,0.44465,0,0.0047396,0,0,1.0311,-0.00093673,0,1.0311,-0.36885,-0.99993,-0.7109,89.835,-0.69323,0.54717,0.0012189,0.7,0,0
0.16233,0,0.27962,-0.9966,-0.35483,-0.68505,0.0016605,0,0,-0.40501,0.42928,0,0.0043174,0,0,1.0324,-0.00033054,0,1.0324,-0.35483,-0.9966,-0.68505,89.852,-0.67883,0.55587,0.00044426,0.72,0,0
0.15395,0,0.25897,-0.99182,-0.3432,-0.65947,0.0014736,0,0,-0.43205,0.41116,0,0.0038313,0,0,1.0324,0.00028389,0,1.0324,-0.34319,-0.99182,-0.65947,89.87,-0.66483,0.56179,-0.00039066,0.74,0,0
0.14505,0,0.23833,-0.98579,-0.33341,-0.63408,0.0012471,0,0,-0.45721,0.39088,0,0.0032425,0,0,1.0312,0.00092476,0,1.0312,-0.3334,-0.98579,-0.63408,89.891,-0.65109,0.56556,-0.001254,0.76,0,0
0.13566,0,0.21772,-0.97869,-0.32492,-0.6088,0.00097815,0,0,-0.48085,0.36905,0,0.0025432,0,0,1.0286,0.0016053,0,1.0286,-0.32491,-0.97869,-0.6088,89.914,-0.63747,0.56782,-0.0021198,0.78,0,0
0.12581,0,0.19718,-0.97075,-0.31712,-0.58354,0.00067836,0,0,-0.50337,0.34635,0,0.0017637,0,0,1.0247,0.0023285,0,1.0247,-0.31712,-0.97075,-0.58354,89.941,-0.6238,0.56927,-0.0029703,0.8,0,0
0.11553,0,0.17674,-0.96227,-0.3093,-0.55821,0.00037496,0,0,-0.52528,0.32357,0,0.00097489,0,0,1.0192,0.0030801,0,1.0192,-0.3093,-0.96227,-0.55821,89.967,-0.60993,0.57078,-0.0037984,0.82,0,0
0.1048,0,0.15641,-0.95366,-0.30062,-0.53269,0.00010657,0,0,-0.54725,0.3017,0,0.00027709,0,0,1.0124,0.0038201,0,1.0124,-0.30062,-0.95366,-0.53269,89.991,-0.59566,0.57338,-0.0046111,0.84,0,0
0.093636,0,0.13624,-0.94539,-0.29012,-0.50689,-8.7399e-05,0,0,-0.57005,0.28181,0,-0.00022724,0,0,1.0042,0.0044776,0,1.0042,-0.29012,-0.94539,-0.50689,-89.992,-0.5808,0.57821,-0.005431,0.86,0,0
0.082001,0,0.11625,-0.93797,-0.2769,-0.4807,-0.00018329,0,0,-0.59444,0.26495,0,-0.00047655,0,0,0.99489,0.0049531,0,0.9949,-0.2769,-0.93797,-0.4807,-89.984,-0.56519,0.58636,-0.0062954,0.88,0,0
0.069858,0,0.096445,-0.93176,-0.26029,-0.45406,-0.00018581,0,0,-0.62101,0.2519,0,-0.0004831,0,0,0.98503,0.0051327,0,0.98504,-0.26029,-0.93176,-0.45406,-89.984,-0.5487,0.59859,-0.0072499,0.9,0,0
0.05716,0,0.076844,-0.92695,-0.24013,-0.42697,-0.00012925,0,0,-0.64998,0.24289,0,-0.00033605,0,0,0.97527,0.0049152,0,0.97528,-0.24013,-0.92695,-0.42697,-89.989,-0.53135,0.61507,-0.0083382,0.92,0,0
0.043859,0,0.057434,-0.9235,-0.21683,-0.39953,-6.0448e-05,0,0,-0.68115,0.23751,0,-0.00015716,0,0,0.96641,0.0042433,0,0.96642,-0.21683,-0.9235,-0.39953,-89.995,-0.51329,0.63533,-0.0095917,0.94,0,0
0.029914,0,0.038188,-0.92113,-0.19128,-0.37191,-1.5477e-05,0,0,-0.71399,0.23482,0,-4.0241e-05,0,0,0.9593,0.0031288,0,0.9593,-0.19128,-0.92113,-0.37191,-89.999,-0.49477,0.65839,-0.011023,0.96,0,0
0.015299,0,0.019062,-0.91953,-0.16445,-0.34425,-2.0542e-06,0,0,-0.74785,0.23374,0,-5.3408e-06,0,0,0.95469,0.001662,0,0.95469,-0.16445,-0.91953,-0.34425,-90,-0.47608,0.68315,-0.012631,0.98,0,0
0,0,0,-0.89507,-0.12706,-0.30664,-1.8323e-17,0,0,-0.76496,0.23345,0,-4.7597e-17,0,0,0.95309,1.9082e-17,0,0.95309,-0.12706,-0.89507,-0.30664,-90,-0.44293,0.69583,-0.013496,1,0,0
0,0.0068946,1,-0.90605,-1.4406,-1.704,0.0024222,0,0,1.0373,0.3424,0,0.0062976,0,0,0.88031,-1.5374e-15,0,0.8803,-0.90604,-1.4406,-1.704,0.2596,-1.3502,0.70424,0.0098505,0,0.02,0
0.020747,0.0070206,0.98239,-0.88701,-1.4008,-1.6687,0.0060217,0,0,1.0163,0.34828,0,0.015656,0,0,0.8855,-0.010448,0,0.88557,-0.88693,-1.4009,-1.6687,0.67133,-1.3189,0.68817,0.0085974,0.02,0.02,0
0.040651,0.0074337,0.96458,-0.89673,-1.3581,-1.641,0.013676,0,0,0.96761,0.36776,0,0.035558,0,0,0.90061,-0.019998,0,0.90089,-0.89632,-1.3586,-1.641,1.6962,-1.2986,0.65118,0.0057229,0.04,0.02,0
0.059451,0.0082075,0.94637,-0.91525,-1.299,-1.6106,0.02357,0,0,0.90402,0.40512,0,0.061282,0,0,0.92416,-0.027554,0,0.92468,-0.91381,-1.3005,-1.6106,3.5014,-1.275,0.60469,0.0021424,0.06,0.02,0
0.076812,0.0094076,0.92761,-0.9435,-1.2186,-1.5762,0.034525,0,0,0.82255,0.46496,0,0.089764,0,0,0.95359,-0.031977,0,0.95427,-0.93924,-1.2228,-1.5762,7.0458,-1.2461,0.55276,-0.0016341,0.08,0.02,0
0.092353,0.011013,0.90823,-0.98005,-1.1157,-1.537,0.043265,0,0,0.72397,0.54763,0,0.11249,0,0,0.98553,-0.032617,0,0.98621,-0.96742,-1.1283,-1.537,16.267,-1.2109,0.50854,-0.0045454,0.1,0.02,0
0.10577,0.01286,0.88819,-1.021,-0.99837,-1.494,0.045854,0,0,0.61495,0.64431,0,0.11922,0,0,1.0164,-0.029752,0,1.017,-0.96243,-1.0569,-1.494,51.918,-1.1711,0.49119,-0.0053358,0.12,0.02,0
0.11695,0.014667,0.86757,-1.0609,-0.88259,-1.4506,0.040979,0,0,0.50665,0.73843,0,0.10655,0,0,1.0435,-0.024558,0,1.0438,-0.87362,-1.0698,-1.4506,77.656,-1.1314,0.50813,-0.0035093,0.14,0.02,0
0.12604,0.01616,0.84645,-1.0945,-0.78322,-1.4098,0.030741,0,0,0.40989,0.8145,0,0.079926,0,0,1.065,-0.018468,0,1.0652,-0.78022,-1.0975,-1.4098,84.413,-1.0958,0.54521,0.00011364,0.16,0.02,0
0.13335,0.017175,0.82497,-1.1181,-0.70768,-1.3727,0.018832,0,0,0.33098,0.86454,0,0.048963,0,0,1.0805,-0.012538,0,1.0806,-0.70681,-1.119,-1.3727,87.378,-1.0662,0.58209,0.0040331,0.18,0.02,0
0.13928,0.017668,0.80323,-1.1307,-0.65643,-1.3394,0.0077517,0,0,0.2713,0.88781,0,0.020154,0,0,1.0904,-0.0071467,0,1.0905,-0.65631,-1.1308,-1.3394,89.064,-1.0422,0.6063,0.0070483,0.2,0.02,0
0.1442,0.017666,0.78135,-1.1329,-0.62719,-1.3094,-0.0018381,0,0,0.22944,0.88684,0,-0.0047791,0,0,1.0951,-0.0021677,0,1.0951,-0.62718,-1.1329,-1.3094,-89.792,-1.0232,0.6133,0.0086237,0.22,0.02,0
0.14845,0.017217,0.75943,-1.1257,-0.61754,-1.2824,-0.010529,0,0,0.20368,0.86433,0,-0.027375,0,0,1.0948,0.0027608,0,1.0948,-0.61732,-1.126,-1.2824,-88.814,-1.0086,0.6023,0.0087207,0.24,0.02,0
0.15235,0.016361,0.73756,-1.11,-0.62614,-1.2584,-0.018961,0,0,0.19293,0.82194,0,-0.049299,0,0,1.0894,0.0079908,0,1.0894,-0.6254,-1.1107,-1.2584,-87.759,-0.99817,0.57361,0.0075705,0.26,0.02,0
0.15617,0.015148,0.71585,-1.0864,-0.65172,-1.2373,-0.026826,0,0,0.19618,0.76122,0,-0.069748,0,0,1.0785,0.01363,0,1.0786,-0.65008,-1.088,-1.2373,-86.481,-0.99179,0.52862,0.0055969,0.28,0.02,0
0.16019,0.013667,0.69442,-1.0566,-0.69133,-1.2188,-0.03263,0,0,0.21083,0.68572,0,-0.084837,0,0,1.0621,0.019293,0,1.0623,-0.68844,-1.0595,-1.2188,-84.936,-0.98892,0.47136,0.0033813,0.3,0.02,0
0.1646,0.01207,0.67337,-1.0237,-0.73789,-1.2019,-0.034341,0,0,0.23155,0.60316,0,-0.089287,0,0,1.0406,0.023977,0,1.0409,-0.73383,-1.0278,-1.2019,-83.245,-0.98783,0.40974,0.001507,0.32,0.02,0
0.16945,0.010552,0.65279,-0.9914,-0.78096,-1.1845,-0.031306,0,0,0.25104,0.5246,0,-0.081396,0,0,1.0157,0.02639,0,1.0161,-0.77641,-0.99596,-1.1845,-81.715,-0.98562,0.35376,0.00029817,0.34,0.02,0
0.17464,0.009275,0.63274,-0.96284,-0.81143,-1.165,-0.024941,0,0,0.26284,0.45967,0,-0.064845,0,0,0.99001,0.025583,0,0.99042,-0.80743,-0.96684,-1.165,-80.883,-0.97976,0.31029,-0.00028611,0.36,0.02,0
0.17997,0.0083098,0.61319,-0.94024,-0.82647,-1.1432,-0.017796,0,0,0.26386,0.41176,0,-0.04627,0,0,0.96671,0.021562,0,0.96701,-0.82375,-0.94295,-1.1432,-81.314,-0.96997,0.27961,-0.00047448,0.38,0.02,0
0.1852,0.0076398,0.59407,-0.92428,-0.82837,-1.1199,-0.01141,0,0,0.25426,0.37895,0,-0.029665,0,0,0.94844,0.015262,0,0.94859,-0.82704,-0.92562,-1.1199,-83.308,-0.95751,0.25807,-0.00046836,0.4,0.02,0
0.19014,0.0072135,0.57526,-0.91443,-0.82026,-1.0957,-0.0059847,0,0,0.2356,0.35803,0,-0.01556,0,0,0.93677,0.0080713,0,0.93681,-0.81988,-0.91481,-1.0957,-86.378,-0.94345,0.24267,-0.00037352,0.42,0.02,0
0.19462,0.0069887,0.5566,-0.90998,-0.804,-1.0708,-0.0010312,0,0,0.20906,0.34683,0,-0.0026812,0,0,0.93203,0.0012262,0,0.93203,-0.80399,-0.90999,-1.0708,-89.442,-0.92826,0.23268,-0.00022439,0.44,0.02,0
0.1985,0.0069418,0.53797,-0.91042,-0.78013,-1.0451,0.0037664,0,0,0.17513,0.34452,0,0.0097927,0,0,0.93352,-0.0044677,0,0.93353,-0.78002,-0.91053,-1.0451,88.346,-0.9119,0.22961,-1.6641e-05,0.46,0.02,0
0.20163,0.0070586,0.51926,-0.91542,-0.74883,-1.0185,0.0082857,0,0,0.13405,0.35062,0,0.021543,0,0,0.93992,-0.0086358,0,0.93997,-0.74842,-0.91583,-1.0185,87.16,-0.89426,0.23615,0.00027103,0.48,0.02,0
0.20386,0.007318,0.50038,-0.92438,-0.71077,-0.99092,0.012058,0,0,0.08651,0.3642,0,0.03135,0,0,0.94971,-0.011215,0,0.9498,-0.71009,-0.92505,-0.99092,86.779,-0.87536,0.25438,0.00065814,0.5,0.02,0
0.20509,0.0076831,0.48127,-0.9363,-0.66753,-0.96242,0.014545,0,0,0.033965,0.38335,0,0.037818,0,0,0.96139,-0.012356,0,0.96149,-0.66675,-0.93708,-0.96242,86.911,-0.85542,0.28385,0.0011431,0.52,0.02,0
0.20522,0.0081023,0.46192,-0.94983,-0.62159,-0.93335,0.015418,0,0,-0.021421,0.40529,0,0.040087,0,0,0.97365,-0.012348,0,0.97375,-0.62087,-0.95055,-0.93335,87.317,-0.83492,0.32143,0.0016891,0.54,0.02,0
0.20423,0.0085181,0.44233,-0.96348,-0.57572,-0.90409,0.014712,0,0,-0.077214,0.42688,0,0.03825,0,0,0.98555,-0.011535,0,0.98563,-0.57516,-0.96404,-0.90409,87.83,-0.81443,0.36264,0.0022254,0.56,0.02,0
0.20213,0.0088791,0.4225,-0.97595,-0.53236,-0.87499,0.012787,0,0,-0.13124,0.44542,0,0.033246,0,0,0.99641,-0.010248,0,0.99648,-0.53199,-0.97632,-0.87499,88.35,-0.79444,0.40332,0.0026662,0.58,0.02,0
0.19898,0.0091488,0.40247,-0.98628,-0.49318,-0.84631,0.010162,0,0,-0.18196,0.45907,0,0.026422,0,0,1.0059,-0.0087522,0,1.006,-0.49297,-0.98649,-0.84631,88.82,-0.77526,0.44049,0.0029376,0.6,0.02,0
0.19486,0.009308,0.38227,-0.99399,-0.45895,-0.81815,0.0073255,0,0,-0.2286,0.46696,0,0.019046,0,0,1.0139,-0.0072228,0,1.0139,-0.45885,-0.99409,-0.81815,89.216,-0.75703,0.47251,0.0029955,0.62,0.02,0
0.18984,0.0093531,0.36191,-0.99899,-0.42977,-0.79054,0.0046193,0,0,-0.27099,0.46901,0,0.01201,0,0,1.0204,-0.0057542,0,1.0204,-0.42973,-0.99903,-0.79054,89.535,-0.73977,0.49888,0.0028298,0.64,0.02,0
0.18402,0.0092906,0.34145,-1.0015,-0.40528,-0.76348,0.002219,0,0,-0.3094,0.46565,0,0.0057693,0,0,1.0255,-0.0043796,0,1.0255,-0.40527,-1.0015,-0.76348,89.787,-0.72341,0.51982,0.0024576,0.66,0.02,0
0.17746,0.0091325,0.3209,-1.0017,-0.38493,-0.73689,0.00016799,0,0,-0.34429,0.45756,0,0.00043678,0,0,1.0292,-0.0030931,0,1.0292,-0.38493,-1.0017,-0.73689,89.984,-0.70785,0.53594,0.001911,0.68,0.02,0
0.17024,0.008893,0.30028,-1.0001,-0.36809,-0.71073,-0.0015692,0,0,-0.37616,0.44544,0,-0.0040798,0,0,1.0317,-0.0018675,0,1.0317,-0.36808,-1.0001,-0.71073,-89.858,-0.69297,0.54798,0.001229,0.7,0.02,0
0.16242,0.0085856,0.27963,-0.99682,-0.35416,-0.68492,-0.0030592,0,0,-0.40547,0.42999,0,-0.0079538,0,0,1.033,-0.0006654,0,1.033,-0.35414,-0.99683,-0.68492,-89.727,-0.67863,0.55666,0.00045017,0.72,0.02,0
0.15403,0.0082232,0.25896,-0.99214,-0.34259,-0.65938,-0.0043657,0,0,-0.43259,0.41183,0,-0.011351,0,0,1.033,0.00055383,0,1.033,-0.34256,-0.99217,-0.65938,-89.615,-0.6647,0.56263,-0.00038937,0.74,0.02,0
0.14511,0.0078176,0.23831,-0.98623,-0.33286,-0.63403,-0.0055255,0,0,-0.45786,0.39153,0,-0.014366,0,0,1.0318,0.0018281,0,1.0318,-0.33281,-0.98628,-0.63403,-89.516,-0.65104,0.56649,-0.001258,0.76,0.02,0
0.13571,0.007381,0.21769,-0.97925,-0.32444,-0.60879,-0.0065324,0,0,-0.48159,0.36967,0,-0.016984,0,0,1.0293,0.0031864,0,1.0293,-0.32437,-0.97931,-0.60879,-89.428,-0.63749,0.56883,-0.0021298,0.78,0.02,0
0.12585,0.006927,0.19713,-0.97139,-0.31675,-0.58358,-0.0073263,0,0,-0.50415,0.34687,0,-0.019048,0,0,1.0254,0.0046385,0,1.0254,-0.31667,-0.97147,-0.58358,-89.359,-0.6239,0.57029,-0.0029859,0.8,0.02,0
0.11554,0.0064715,0.17667,-0.96292,-0.30912,-0.55829,-0.0077973,0,0,-0.52602,0.32391,0,-0.020273,0,0,1.02,0.0061604,0,1.02,-0.30903,-0.96301,-0.55829,-89.317,-0.61011,0.57168,-0.0038179,0.82,0.02,0
0.10481,0.006034,0.15634,-0.95425,-0.30071,-0.53282,-0.0078111,0,0,-0.54785,0.30175,0,-0.020309,0,0,1.0131,0.0076759,0,1.0131,-0.30061,-0.95434,-0.53282,-89.315,-0.59592,0.574,-0.0046311,0.84,0.02,0
0.093631,0.0056361,0.13615,-0.94585,-0.29052,-0.50706,-0.0072663,0,0,-0.57043,0.2815,0,-0.018892,0,0,1.0047,0.0090431,0,1.0048,-0.29045,-0.94593,-0.50706,-89.365,-0.58115,0.57845,-0.0054472,0.86,0.02,0
0.081991,0.005299,0.11615,-0.93826,-0.27759,-0.4809,-0.006167,0,0,-0.59457,0.26431,0,-0.016034,0,0,0.99521,0.010056,0,0.99528,-0.27753,-0.93832,-0.4809,-89.465,-0.56559,0.58619,-0.0063042,0.88,0.02,0
0.069848,0.005038,0.096342,-0.9319,-0.26114,-0.45425,-0.0046747,0,0,-0.62094,0.25105,0,-0.012154,0,0,0.98501,0.010472,0,0.98508,-0.26111,-0.93193,-0.45425,-89.601,-0.5491,0.59812,-0.0072504,0.9,0.02,0
0.057154,0.0048579,0.076746,-0.92699,-0.24095,-0.42712,-0.0030854,0,0,-0.64982,0.24203,0,-0.008022,0,0,0.97482,0.01007,0,0.97489,-0.24093,-0.927,-0.42712,-89.742,-0.53169,0.6145,-0.0083329,0.92,0.02,0
0.043856,0.0047502,0.057349,-0.92348,-0.21744,-0.39963,-0.0017222,0,0,-0.68101,0.23683,0,-0.0044778,0,0,0.96551,0.0087221,0,0.96556,-0.21744,-0.92348,-0.39963,-89.86,-0.51352,0.63487,-0.009585,0.94,0.02,0
0.029913,0.0046965,0.038125,-0.9211,-0.19162,-0.37194,-0.0007907,0,0,-0.71391,0.23442,0,-0.0020558,0,0,0.95801,0.0064459,0,0.95804,-0.19162,-0.92111,-0.37194,-89.938,-0.49489,0.65812,-0.011019,0.96,0.02,0
0.015299,0.0046749,0.019029,-0.91951,-0.16459,-0.34426,-0.00028639,0,0,-0.74783,0.23357,0,-0.00074462,0,0,0.95313,0.0034286,0,0.95313,-0.16459,-0.91951,-0.34426,-89.978,-0.47612,0.68305,-0.012629,0.98,0.02,0
0,0.0046691,0,-0.89512,-0.12718,-0.30669,-0.00011146,0,0,-0.76496,0.23336,0,-0.0002898,0,0,0.95143,8.6736e-18,0,0.95143,-0.12718,-0.89512,-0.30669,-89.992,-0.44299,0.69578,-0.013495,1,0.02,0
0,0.013696,1,-0.90564,-1.448,-1.7061,0.004524,0,0,1.0406,0.33552,0,0.011762,0,0,0.86452,-1.0738e-15,0,0.86448,-0.90561,-1.448,-1.7061,0.47788,-1.3533,0.70767,0.010381,0,0.04,0
0.020812,0.013931,0.98271,-0.88653,-1.4099,-1.6716,0.011488,0,0,1.0206,0.34028,0,0.029869,0,0,0.87038,-0.021671,0,0.87062,-0.88628,-1.4101,-1.6716,1.2569,-1.3227,0.69267,0.0092332,0.02,0.04,0
0.040825,0.01471,0.96518,-0.895,-1.3707,-1.6449,0.026282,0,0,0.97486,0.35646,0,0.068333,0,0,0.88764,-0.041918,0,0.88867,-0.89355,-1.3721,-1.6449,3.1528,-1.3035,0.65877,0.0066582,0.04,0.04,0
0.059806,0.016205,0.9472,-0.91266,-1.3165,-1.616,0.046128,0,0,0.9143,0.38925,0,0.11993,0,0,0.91506,-0.058388,0,0.91705,-0.90746,-1.3217,-1.616,6.4334,-1.2817,0.61651,0.0034713,0.06,0.04,0
0.077397,0.018599,0.92858,-0.94139,-1.238,-1.5824,0.069566,0,0,0.8333,0.44774,0,0.18087,0,0,0.94977,-0.068155,0,0.95241,-0.92588,-1.2535,-1.5824,12.566,-1.2539,0.56855,-3.276e-05,0.08,0.04,0
0.093138,0.021905,0.90921,-0.9799,-1.1279,-1.5416,0.088885,0,0,0.73016,0.53771,0,0.2311,0,0,0.98729,-0.069105,0,0.9899,-0.93825,-1.1696,-1.5416,25.107,-1.2165,0.5272,-0.0029399,0.1,0.04,0
0.1066,0.025772,0.88909,-1.0227,-0.99478,-1.4943,0.09435,0,0,0.61314,0.64942,0,0.24531,0,0,1.0227,-0.061947,0,1.0247,-0.91336,-1.1041,-1.4943,49.206,-1.1706,0.51293,-0.0038392,0.12,0.04,0
0.11766,0.029537,0.86831,-1.0639,-0.86602,-1.4473,0.082266,0,0,0.49839,0.75564,0,0.21389,0,0,1.0521,-0.049791,0,1.0533,-0.83629,-1.0936,-1.4473,70.129,-1.1257,0.53132,-0.0020714,0.14,0.04,0
0.12654,0.03258,0.84701,-1.0972,-0.76308,-1.4051,0.059578,0,0,0.40025,0.83462,0,0.1549,0,0,1.0741,-0.036506,0,1.0747,-0.75277,-1.1075,-1.4051,80.186,-1.0885,0.56565,0.0014042,0.16,0.04,0
0.13367,0.034581,0.82534,-1.1186,-0.69013,-1.368,0.035067,0,0,0.32419,0.88117,0,0.091175,0,0,1.0891,-0.02435,0,1.0893,-0.68728,-1.1214,-1.368,85.352,-1.0589,0.5969,0.0049803,0.18,0.04,0
0.13951,0.035512,0.80344,-1.1287,-0.64287,-1.3349,0.013974,0,0,0.26806,0.89967,0,0.036333,0,0,1.0982,-0.013829,0,1.0983,-0.64247,-1.1291,-1.3349,88.354,-1.0355,0.61591,0.007639,0.2,0.04,0
0.1444,0.035473,0.78142,-1.1299,-0.61579,-1.3051,-0.0035267,0,0,0.22782,0.89612,0,-0.0091694,0,0,1.1025,-0.0042889,0,1.1025,-0.61577,-1.1299,-1.3051,-89.607,-1.0169,0.62057,0.0090554,0.22,0.04,0
0.14862,0.034573,0.75935,-1.1239,-0.60625,-1.2784,-0.019406,0,0,0.20087,0.87377,0,-0.050456,0,0,1.1024,0.0051621,0,1.1024,-0.60553,-1.1246,-1.2784,-87.856,-1.0028,0.61066,0.0092424,0.24,0.04,0
0.15243,0.032877,0.73732,-1.1104,-0.61345,-1.2545,-0.035575,0,0,0.18729,0.83334,0,-0.092495,0,0,1.0976,0.01539,0,1.0977,-0.61091,-1.1129,-1.2545,-85.926,-0.99278,0.58577,0.0083264,0.26,0.04,0
0.15611,0.030449,0.71544,-1.0889,-0.63878,-1.2337,-0.052083,0,0,0.18831,0.77345,0,-0.13542,0,0,1.0871,0.026984,0,1.0874,-0.63284,-1.0948,-1.2337,-83.485,-0.98714,0.5449,0.0065244,0.28,0.04,0
0.15996,0.027429,0.69384,-1.0596,-0.68231,-1.2164,-0.065417,0,0,0.20381,0.69435,0,-0.17008,0,0,1.07,0.039379,0,1.0708,-0.67129,-1.0707,-1.2164,-80.438,-0.98613,0.48883,0.00425,0.3,0.04,0
0.16426,0.024126,0.67264,-1.0261,-0.73821,-1.2019,-0.070469,0,0,0.22862,0.60283,0,-0.18322,0,0,1.046,0.050375,0,1.0473,-0.72188,-1.0424,-1.2019,-76.957,-0.98873,0.42345,0.0021165,0.32,0.04,0
0.16911,0.020984,0.65199,-0.99235,-0.79067,-1.1869,-0.064153,0,0,0.25291,0.5151,0,-0.1668,0,0,1.0169,0.056383,0,1.0186,-0.77199,-1.011,-1.1869,-73.768,-0.98997,0.36071,0.00062674,0.34,0.04,0
0.17438,0.018387,0.63197,-0.96206,-0.82391,-1.1678,-0.050494,0,0,0.26741,0.447,0,-0.13129,0,0,0.98632,0.054799,0,0.98797,-0.80743,-0.97855,-1.1678,-71.916,-0.98458,0.31219,-0.00013562,0.36,0.04,0
0.1798,0.01647,0.61254,-0.93851,-0.83703,-1.1452,-0.035607,0,0,0.2687,0.40063,0,-0.092579,0,0,0.95881,0.045534,0,0.95997,-0.82578,-0.94976,-1.1452,-72.471,-0.97358,0.27893,-0.00041899,0.38,0.04,0
0.18513,0.015158,0.59361,-0.92212,-0.8365,-1.1212,-0.023067,0,0,0.2588,0.37011,0,-0.059973,0,0,0.93815,0.031318,0,0.93869,-0.83068,-0.92794,-1.1212,-75.842,-0.95994,0.25613,-0.00046249,0.4,0.04,0
0.19016,0.014321,0.57502,-0.91198,-0.82761,-1.0969,-0.012454,0,0,0.24038,0.35007,0,-0.03238,0,0,0.92612,0.015607,0,0.92623,-0.82581,-0.91378,-1.0969,-81.776,-0.9455,0.23953,-0.00039844,0.42,0.04,0
0.19474,0.013873,0.55657,-0.90703,-0.81148,-1.0721,-0.0024998,0,0,0.21462,0.33884,0,-0.0064994,0,0,0.92256,0.001157,0,0.92254,-0.81141,-0.90709,-1.0721,-88.502,-0.93021,0.22843,-0.00027019,0.44,0.04,0
0.19874,0.013781,0.53811,-0.90719,-0.78774,-1.0466,0.0074299,0,0,0.18123,0.3365,0,0.019318,0,0,0.9261,-0.010559,0,0.92615,-0.78728,-0.90765,-1.0466,86.454,-0.91384,0.22476,-7.2158e-05,0.46,0.04,0
0.20199,0.014025,0.51953,-0.91239,-0.75584,-1.02,0.016923,0,0,0.13989,0.3434,0,0.043999,0,0,0.93487,-0.01893,0,0.93507,-0.75403,-0.91419,-1.02,83.9,-0.89607,0.23193,0.00022116,0.48,0.04,0
0.20434,0.014568,0.50072,-0.92209,-0.71605,-0.99216,0.024866,0,0,0.091098,0.35894,0,0.064653,0,0,0.94695,-0.023914,0,0.94728,-0.7131,-0.92504,-0.99216,83.215,-0.87677,0.25229,0.0006322,0.5,0.04,0
0.20564,0.015334,0.48165,-0.9351,-0.67017,-0.96323,0.030016,0,0,0.036568,0.38098,0,0.078041,0,0,0.96057,-0.025882,0,0.96095,-0.66681,-0.93846,-0.96323,83.616,-0.85616,0.28484,0.0011567,0.52,0.04,0
0.2058,0.016211,0.4623,-0.94977,-0.62133,-0.93362,0.031648,0,0,-0.020987,0.40599,0,0.082285,0,0,0.97431,-0.025492,0,0.97467,-0.6183,-0.95279,-0.93362,84.546,-0.83491,0.32533,0.0017477,0.54,0.04,0
0.2048,0.017075,0.44267,-0.96432,-0.57308,-0.9039,0.029909,0,0,-0.078555,0.43006,0,0.077764,0,0,0.98716,-0.023516,0,0.98745,-0.57081,-0.9666,-0.9039,85.654,-0.81377,0.36846,0.0023204,0.56,0.04,0
0.20266,0.017817,0.42281,-0.97727,-0.52832,-0.87448,0.02569,0,0,-0.13362,0.45002,0,0.066794,0,0,0.99853,-0.020673,0,0.99875,-0.52685,-0.97873,-0.87448,86.736,-0.79336,0.40982,0.002779,0.58,0.04,0
0.19945,0.018363,0.40273,-0.98765,-0.48867,-0.84563,0.020168,0,0,-0.18463,0.46405,0,0.052436,0,0,1.0082,-0.017509,0,1.0084,-0.48785,-0.98846,-0.84563,87.689,-0.77398,0.44666,0.0030486,0.6,0.04,0
0.19527,0.018678,0.38248,-0.99512,-0.45464,-0.81741,0.014376,0,0,-0.23102,0.4716,0,0.037377,0,0,1.0162,-0.014365,0,1.0163,-0.45426,-0.9955,-0.81741,88.478,-0.75572,0.47778,0.0030917,0.62,0.04,0
0.19021,0.01876,0.36209,-0.99978,-0.42598,-0.78981,0.0089795,0,0,-0.27295,0.47299,0,0.023347,0,0,1.0225,-0.011402,0,1.0226,-0.42584,-0.99992,-0.78981,89.104,-0.73852,0.50309,0.0029067,0.64,0.04,0
0.18435,0.018626,0.34158,-1.002,-0.40209,-0.7628,0.0042777,0,0,-0.31092,0.46892,0,0.011122,0,0,1.0275,-0.0086645,0,1.0275,-0.40206,-1.002,-0.7628,89.591,-0.72228,0.5231,0.0025161,0.66,0.04,0
0.17777,0.018302,0.32099,-1.0021,-0.38226,-0.73629,0.00030601,0,0,-0.34553,0.46024,0,0.00079563,0,0,1.0311,-0.0061224,0,1.0311,-0.38226,-1.0021,-0.73629,89.972,-0.70688,0.53859,0.0019543,0.68,0.04,0
0.17053,0.017818,0.30034,-1.0005,-0.36583,-0.71023,-0.0030408,0,0,-0.37732,0.44772,0,-0.007906,0,0,1.0335,-0.0037108,0,1.0335,-0.36582,-1.0005,-0.71023,-89.725,-0.69218,0.55031,0.0012593,0.7,0.04,0
0.16268,0.017199,0.27965,-0.99742,-0.35218,-0.68453,-0.0059158,0,0,-0.40675,0.43205,0,-0.015381,0,0,1.0348,-0.0013486,0,1.0348,-0.35213,-0.99747,-0.68453,-89.475,-0.67804,0.55897,0.00046811,0.72,0.04,0
0.15426,0.016473,0.25894,-0.99307,-0.3408,-0.65911,-0.0084587,0,0,-0.43416,0.4138,0,-0.021993,0,0,1.0349,0.0010499,0,1.0349,-0.34069,-0.99318,-0.65911,-89.257,-0.66433,0.56513,-0.00038521,0.74,0.04,0
0.14531,0.015661,0.23825,-0.98756,-0.33121,-0.63388,-0.010754,0,0,-0.45978,0.39348,0,-0.027961,0,0,1.0338,0.0035665,0,1.0338,-0.33103,-0.98774,-0.63388,-89.061,-0.65089,0.56929,-0.0012701,0.76,0.04,0
0.13587,0.014787,0.21759,-0.98096,-0.32297,-0.60877,-0.012802,0,0,-0.48385,0.37155,0,-0.033286,0,0,1.0314,0.0062683,0,1.0314,-0.32272,-0.98121,-0.60877,-88.886,-0.63757,0.57191,-0.0021602,0.78,0.04,0
0.12596,0.013875,0.197,-0.97337,-0.31559,-0.58368,-0.014493,0,0,-0.5066,0.34853,0,-0.037683,0,0,1.0276,0.0091899,0,1.0277,-0.31527,-0.97369,-0.58368,-88.738,-0.62421,0.57345,-0.0030343,0.8,0.04,0
0.11561,0.012956,0.17649,-0.96499,-0.30848,-0.55853,-0.015602,0,0,-0.5284,0.32506,0,-0.040564,0,0,1.0223,0.012303,0,1.0224,-0.30811,-0.96536,-0.55853,-88.639,-0.61066,0.57454,-0.0038794,0.82,0.04,0
0.10483,0.01207,0.1561,-0.95614,-0.30085,-0.5332,-0.015826,0,0,-0.54982,0.30206,0,-0.041147,0,0,1.0152,0.015475,0,1.0154,-0.30047,-0.95653,-0.5332,-88.617,-0.59673,0.5761,-0.0046953,0.84,0.04,0
0.093615,0.01126,0.13588,-0.94736,-0.29166,-0.50758,-0.014897,0,0,-0.57171,0.2807,0,-0.038731,0,0,1.0065,0.018425,0,1.0067,-0.29132,-0.9477,-0.50758,-88.699,-0.5822,0.57935,-0.0055004,0.86,0.04,0
0.081957,0.010572,0.11584,-0.93925,-0.27967,-0.48152,-0.012755,0,0,-0.59505,0.26241,0,-0.033164,0,0,0.99631,0.020713,0,0.99654,-0.27942,-0.93949,-0.48152,-88.892,-0.56681,0.58578,-0.0063341,0.88,0.04,0
0.069813,0.010042,0.096026,-0.93237,-0.26377,-0.45487,-0.009698,0,0,-0.62075,0.24843,0,-0.025215,0,0,0.98504,0.021793,0,0.9853,-0.26363,-0.93251,-0.45487,-89.169,-0.55034,0.59671,-0.0072531,0.9,0.04,0
0.057127,0.0096813,0.076441,-0.92707,-0.2435,-0.42762,-0.0063655,0,0,-0.6493,0.23935,0,-0.01655,0,0,0.97352,0.021141,0,0.97376,-0.24344,-0.92714,-0.42762,-89.466,-0.53273,0.61273,-0.0083157,0.92,0.04,0
0.043841,0.0094734,0.057085,-0.92336,-0.21935,-0.3999,-0.0034906,0,0,-0.6805,0.23471,0,-0.0090755,0,0,0.96278,0.018434,0,0.96297,-0.21934,-0.92338,-0.3999,-89.716,-0.5142,0.63337,-0.0095622,0.94,0.04,0
0.029907,0.0093768,0.03793,-0.92094,-0.19267,-0.37201,-0.0015511,0,0,-0.7136,0.23315,0,-0.0040327,0,0,0.95401,0.013685,0,0.95411,-0.19266,-0.92094,-0.37201,-89.878,-0.49521,0.65722,-0.011002,0.96,0.04,0
0.015297,0.0093428,0.018925,-0.91938,-0.165,-0.34424,-0.00053953,0,0,-0.74768,0.23301,0,-0.0014028,0,0,0.94825,0.0072976,0,0.94827,-0.165,-0.91938,-0.34424,-89.959,-0.4762,0.68264,-0.01262,0.98,0.04,0
0,0.0093346,0,-0.89514,-0.12751,-0.30679,-0.00015657,0,0,-0.76484,0.23307,0,-0.00040708,0,0,0.94624,-9.541e-18,0,0.94623,-0.12751,-0.89514,-0.30679,-89.988,-0.44315,0.69554,-0.013488,1,0.04,0
0,0.020316,1,-0.90462,-1.4604,-1.7095,0.0060847,0,0,1.0463,0.32384,0,0.01582,0,0,0.83696,-2.1198e-15,0,0.83685,-0.90456,-1.4605,-1.7095,0.62718,-1.3582,0.71379,0.011303,0,0.06,0
0.020927,0.020632,0.98326,-0.88575,-1.4245,-1.6763,0.01651,0,0,1.0277,0.32741,0,0.042926,0,0,0.84358,-0.033952,0,0.84418,-0.88524,-1.425,-1.6763,1.7537,-1.3289,0.70011,0.010274,0.02,0.06,0
0.04111,0.021692,0.96626,-0.89294,-1.3904,-1.6513,0.037444,0,0,0.98583,0.33907,0,0.097353,0,0,0.8639,-0.067053,0,0.8665,-0.89014,-1.3933,-1.6513,4.2801,-1.3115,0.67046,0.0081096,0.04,0.06,0
0.06036,0.023778,0.94871,-0.9088,-1.3451,-1.6249,0.06692,0,0,0.9309,0.36371,0,0.17399,0,0,0.89793,-0.096284,0,0.90326,-0.89877,-1.3551,-1.6249,8.5271,-1.2929,0.63571,0.0056434,0.06,0.06,0
0.078346,0.027317,0.93034,-0.93989,-1.2755,-1.595,0.10511,0,0,0.85158,0.41532,0,0.27328,0,0,0.94288,-0.11416,0,0.95011,-0.90969,-1.3057,-1.595,16.032,-1.2701,0.59585,0.0028876,0.08,0.06,0
0.094423,0.032522,0.91099,-0.98234,-1.1532,-1.5517,0.14056,0,0,0.74012,0.51795,0,0.36545,0,0,0.99174,-0.11516,0,0.99873,-0.90329,-1.2323,-1.5517,29.351,-1.2291,0.56153,0.00023356,0.1,0.06,0
0.10795,0.038836,0.89067,-1.027,-0.98345,-1.4938,0.14794,0,0,0.60689,0.66344,0,0.38464,0,0,1.0357,-0.099072,0,1.0406,-0.85567,-1.1547,-1.4938,49.182,-1.1681,0.55299,-0.00094081,0.12,0.06,0
0.1187,0.044892,0.86956,-1.0699,-0.83107,-1.4399,0.12299,0,0,0.48093,0.79142,0,0.31977,0,0,1.0689,-0.075525,0,1.0716,-0.77906,-1.1219,-1.4399,67.078,-1.1136,0.5724,0.00062867,0.14,0.06,0
0.12719,0.049545,0.84791,-1.101,-0.72724,-1.3964,0.082116,0,0,0.38404,0.86987,0,0.2135,0,0,1.0904,-0.052498,0,1.0917,-0.70999,-1.1182,-1.3964,78.138,-1.0749,0.59797,0.0035257,0.16,0.06,0
0.13406,0.052422,0.82594,-1.1171,-0.6641,-1.3603,0.045421,0,0,0.31621,0.90504,0,0.1181,0,0,1.1032,-0.034322,0,1.1037,-0.6596,-1.1216,-1.3603,84.33,-1.0472,0.617,0.0062614,0.18,0.06,0
0.13984,0.053655,0.80378,-1.1212,-0.62345,-1.3272,0.017311,0,0,0.26775,0.91486,0,0.045008,0,0,1.1105,-0.019492,0,1.1107,-0.62285,-1.1218,-1.3272,88.011,-1.024,0.62739,0.0082538,0.2,0.06,0
0.14477,0.053511,0.78152,-1.1209,-0.59965,-1.2977,-0.0045518,0,0,0.22985,0.90744,0,-0.011835,0,0,1.1141,-0.0063292,0,1.1141,-0.59961,-1.1209,-1.2977,-89.5,-1.0061,0.62861,0.0094381,0.22,0.06,0
0.14903,0.052167,0.75922,-1.1176,-0.58987,-1.2715,-0.024504,0,0,0.19998,0.88608,0,-0.06371,0,0,1.1145,0.006731,0,1.1145,-0.58874,-1.1188,-1.2715,-87.347,-0.993,0.62064,0.0098181,0.24,0.06,0
0.15277,0.049695,0.73694,-1.1104,-0.59407,-1.2483,-0.046468,0,0,0.17929,0.85046,0,-0.12082,0,0,1.1112,0.02121,0,1.1114,-0.58992,-1.1145,-1.2483,-84.898,-0.98423,0.60271,0.0094043,0.26,0.06,0
0.1562,0.046086,0.71477,-1.0937,-0.61439,-1.2272,-0.072104,0,0,0.17355,0.79665,0,-0.18747,0,0,1.1025,0.038655,0,1.1032,-0.60378,-1.1043,-1.2272,-81.628,-0.97843,0.57197,0.0081348,0.28,0.06,0
0.15971,0.041441,0.69284,-1.0668,-0.66163,-1.2114,-0.097908,0,0,0.18793,0.71467,0,-0.25456,0,0,1.0855,0.060321,0,1.0872,-0.63922,-1.0892,-1.2114,-77.103,-0.97994,0.52192,0.0059757,0.3,0.06,0
0.16372,0.036184,0.67135,-1.0322,-0.73536,-1.2016,-0.1102,0,0,0.22026,0.60613,0,-0.28653,0,0,1.0576,0.081794,0,1.0609,-0.69892,-1.0686,-1.2016,-71.702,-0.98972,0.45115,0.0033713,0.32,0.06,0
0.16852,0.031156,0.65054,-0.99666,-0.81015,-1.1926,-0.10143,0,0,0.2547,0.49716,0,-0.26371,0,0,1.0201,0.095467,0,1.0248,-0.76562,-1.0412,-1.1926,-66.299,-0.9998,0.37493,0.0012956,0.34,0.06,0
0.17391,0.027155,0.63055,-0.96245,-0.8472,-1.1735,-0.077156,0,0,0.27429,0.42411,0,-0.20061,0,0,0.97916,0.092681,0,0.98376,-0.80853,-1.0011,-1.1735,-63.377,-0.99437,0.31619,0.00015597,0.36,0.06,0
0.17949,0.024335,0.61137,-0.9358,-0.85345,-1.1482,-0.054057,0,0,0.27606,0.3831,0,-0.14055,0,0,0.94323,0.074789,0,0.94628,-0.82668,-0.96258,-1.1482,-63.647,-0.97913,0.27951,-0.00029582,0.38,0.06,0
0.18495,0.022444,0.59282,-0.91889,-0.84969,-1.1234,-0.035731,0,0,0.26585,0.35582,0,-0.092902,0,0,0.91851,0.04828,0,0.91975,-0.83455,-0.93403,-1.1234,-67.04,-0.96399,0.25415,-0.00042864,0.4,0.06,0
0.19013,0.021216,0.57463,-0.90747,-0.84008,-1.0989,-0.020171,0,0,0.24886,0.33646,0,-0.052445,0,0,0.90661,0.021439,0,0.90681,-0.83451,-0.91304,-1.0989,-74.546,-0.94881,0.23517,-0.00042551,0.42,0.06,0
0.1949,0.020542,0.55656,-0.90135,-0.82455,-1.0743,-0.0047995,0,0,0.22487,0.32471,0,-0.012479,0,0,0.90587,-0.0018966,0,0.90583,-0.82425,-0.90165,-1.0743,-86.438,-0.93341,0.22175,-0.00033873,0.44,0.06,0
0.19912,0.020402,0.5384,-0.90105,-0.80123,-1.0491,0.011033,0,0,0.19244,0.32221,0,0.028686,0,0,0.91343,-0.020165,0,0.91365,-0.80002,-0.90226,-1.0491,83.768,-0.91712,0.21684,-0.00015924,0.46,0.06,0
0.2026,0.020795,0.52002,-0.90688,-0.76838,-1.0226,0.026457,0,0,0.15043,0.33048,0,0.068787,0,0,0.92657,-0.032755,0,0.92717,-0.7635,-0.91176,-1.0226,79.546,-0.89928,0.22517,0.00014485,0.48,0.06,0
0.20514,0.021676,0.50133,-0.91815,-0.72545,-0.99441,0.03939,0,0,0.099147,0.34965,0,0.10241,0,0,0.94276,-0.039732,0,0.94364,-0.71771,-0.92589,-0.99441,78.882,-0.87934,0.2496,0.00060034,0.5,0.06,0
0.20657,0.022922,0.48231,-0.93324,-0.67451,-0.96464,0.047522,0,0,0.040809,0.37716,0,0.12356,0,0,0.95981,-0.041807,0,0.96076,-0.66606,-0.9417,-0.96464,79.915,-0.85747,0.28779,0.001198,0.52,0.06,0
0.20677,0.024342,0.46294,-0.94997,-0.62026,-0.93401,0.049558,0,0,-0.020748,0.40788,0,0.12885,0,0,0.97602,-0.040195,0,0.97688,-0.61297,-0.95726,-0.93401,81.634,-0.83475,0.33327,0.0018701,0.54,0.06,0
0.20574,0.02572,0.44327,-0.96603,-0.56787,-0.90344,0.045996,0,0,-0.081368,0.43623,0,0.11959,0,0,0.99036,-0.036296,0,0.99105,-0.56263,-0.97127,-0.90344,83.495,-0.81245,0.3793,0.0025033,0.56,0.06,0
0.20352,0.02688,0.42333,-0.97963,-0.52095,-0.8735,0.038661,0,0,-0.13796,0.45831,0,0.10052,0,0,1.0024,-0.031343,0,1.0029,-0.51772,-0.98286,-0.8735,85.216,-0.79136,0.42125,0.0029846,0.58,0.06,0
0.20022,0.027711,0.40317,-0.98989,-0.48089,-0.8444,0.029709,0,0,-0.18913,0.47257,0,0.077245,0,0,1.0122,-0.026186,0,1.0126,-0.47916,-0.99162,-0.8444,86.671,-0.77173,0.45699,0.0032418,0.6,0.06,0
0.19595,0.028172,0.38284,-0.99677,-0.44748,-0.81611,0.020787,0,0,-0.23485,0.47923,0,0.054047,0,0,1.02,-0.021285,0,1.0202,-0.44669,-0.99755,-0.81611,87.836,-0.75345,0.48623,0.0032533,0.62,0.06,0
0.19082,0.028272,0.36237,-1.0007,-0.41985,-0.78855,0.0128,0,0,-0.27585,0.47931,0,0.033279,0,0,1.0261,-0.016804,0,1.0262,-0.41957,-1.001,-0.78855,88.738,-0.73638,0.5096,0.0030327,0.64,0.06,0
0.18492,0.028047,0.3418,-1.0024,-0.39701,-0.76162,0.0060349,0,0,-0.31304,0.474,0,0.015691,0,0,1.0308,-0.012743,0,1.0308,-0.39695,-1.0025,-0.76162,89.429,-0.72035,0.52805,0.0026111,0.66,0.06,0
0.1783,0.027542,0.32114,-1.0023,-0.37806,-0.73526,0.00042046,0,0,-0.3472,0.46436,0,0.0010932,0,0,1.0342,-0.0090168,0,1.0342,-0.37806,-1.0023,-0.73526,89.961,-0.70522,0.54251,0.0020247,0.68,0.06,0
0.17103,0.026802,0.30043,-1.0009,-0.36227,-0.70937,-0.0042775,0,0,-0.37894,0.45123,0,-0.011121,0,0,1.0365,-0.0055035,0,1.0365,-0.36224,-1.0009,-0.70937,-89.616,-0.69083,0.55378,0.0013094,0.7,0.06,0
0.16315,0.025868,0.27968,-0.99821,-0.34904,-0.68386,-0.0083273,0,0,-0.40866,0.43526,0,-0.021651,0,0,1.0377,-0.0020692,0,1.0377,-0.34894,-0.99832,-0.68386,-89.265,-0.67704,0.56247,0.00049848,0.72,0.06,0
0.15468,0.024775,0.25892,-0.9945,-0.33791,-0.65865,-0.011961,0,0,-0.43662,0.41695,0,-0.0311,0,0,1.0379,0.0014239,0,1.0379,-0.3377,-0.99472,-0.65865,-88.957,-0.66369,0.56905,-0.00037731,0.74,0.06,0
0.14568,0.023557,0.23816,-0.98975,-0.32849,-0.63364,-0.015331,0,0,-0.46295,0.39669,0,-0.03986,0,0,1.037,0.0051103,0,1.0371,-0.32813,-0.99011,-0.63364,-88.673,-0.65063,0.57386,-0.0012897,0.76,0.06,0
0.13617,0.022243,0.21744,-0.98391,-0.32043,-0.60874,-0.018467,0,0,-0.48772,0.3748,0,-0.048015,0,0,1.0349,0.0091114,0,1.035,-0.31992,-0.98442,-0.60874,-88.407,-0.63769,0.57712,-0.002212,0.78,0.06,0
0.12617,0.020868,0.19677,-0.97692,-0.31342,-0.58387,-0.021241,0,0,-0.51097,0.35158,0,-0.055228,0,0,1.0314,0.013515,0,1.0315,-0.31274,-0.9776,-0.58387,-88.168,-0.62474,0.57904,-0.0031196,0.8,0.06,0
0.11573,0.019474,0.17618,-0.96881,-0.30705,-0.55894,-0.023324,0,0,-0.53283,0.32746,0,-0.060644,0,0,1.0263,0.018336,0,1.0264,-0.30622,-0.96963,-0.55894,-87.984,-0.61159,0.57993,-0.003992,0.82,0.06,0
0.10486,0.018116,0.15572,-0.95977,-0.30067,-0.53385,-0.024195,0,0,-0.5537,0.30313,0,-0.062907,0,0,1.0192,0.023435,0,1.0195,-0.29978,-0.96066,-0.53385,-87.9,-0.5981,0.58039,-0.004818,0.84,0.06,0
0.09358,0.016864,0.13541,-0.95033,-0.29323,-0.50848,-0.023287,0,0,-0.5744,0.27983,0,-0.060547,0,0,1.01,0.028423,0,1.0104,-0.2924,-0.95115,-0.50848,-87.973,-0.58401,0.58164,-0.0056069,0.86,0.06,0
0.081883,0.015795,0.11532,-0.94125,-0.28308,-0.48262,-0.020292,0,0,-0.59622,0.2594,0,-0.05276,0,0,0.99858,0.03258,0,0.99913,-0.28245,-0.94187,-0.48262,-88.236,-0.56898,0.58558,-0.006398,0.88,0.06,0
0.069731,0.014975,0.09547,-0.93336,-0.26841,-0.456,-0.015559,0,0,-0.62057,0.24387,0,-0.040453,0,0,0.98544,0.034914,0,0.98608,-0.26804,-0.93372,-0.456,-88.66,-0.55259,0.59442,-0.007263,0.9,0.06,0
0.05706,0.014432,0.0759,-0.92722,-0.24811,-0.4285,-0.010154,0,0,-0.64834,0.23451,0,-0.026401,0,0,0.97146,0.034395,0,0.9721,-0.24796,-0.92738,-0.4285,-89.144,-0.53461,0.60954,-0.0082834,0.92,0.06,0
0.043797,0.014139,0.056612,-0.92298,-0.22276,-0.40033,-0.005451,0,0,-0.67944,0.23084,0,-0.014173,0,0,0.95806,0.030332,0,0.95856,-0.22272,-0.92302,-0.40033,-89.554,-0.51536,0.63054,-0.0095143,0.94,0.06,0
0.029882,0.014022,0.037578,-0.92032,-0.19448,-0.37202,-0.0023312,0,0,-0.7128,0.2308,0,-0.0060611,0,0,0.94687,0.022681,0,0.94715,-0.19447,-0.92033,-0.37202,-89.816,-0.49561,0.65538,-0.01096,0.96,0.06,0
0.015285,0.013995,0.018737,-0.91872,-0.16567,-0.34405,-0.00078083,0,0,-0.74706,0.2319,0,-0.0020302,0,0,0.93944,0.012141,0,0.93951,-0.16567,-0.91872,-0.34405,-89.941,-0.47615,0.68159,-0.012585,0.98,0.06,0
0,0.013992,0,-0.89474,-0.12807,-0.30684,-6.3659e-05,0,0,-0.76426,0.2324,0,-0.00016551,0,0,0.93684,6.9389e-18,0,0.93682,-0.12807,-0.89474,-0.30684,-89.995,-0.44322,0.69475,-0.013455,1,0.06,0
0,0.026649,1,-0.90006,-1.4786,-1.7136,0.0072721,0,0,1.0576,0.30548,0,0.018907,0,0,0.79662,6.3144e-16,0,0.79639,-0.89996,-1.4787,-1.7136,0.72001,-1.3641,0.7253,0.012892,0,0.08,0
0.021152,0.027027,0.98407,-0.88323,-1.4456,-1.6827,0.022328,0,0,1.0393,0.30824,0,0.058053,0,0,0.80333,-0.046548,0,0.80446,-0.88234,-1.4465,-1.6827,2.27,-1.3372,0.71228,0.011912,0.02,0.08,0
0.041574,0.028273,0.96787,-0.89105,-1.4162,-1.6601,0.049277,0,0,0.99971,0.31696,0,0.12812,0,0,0.82531,-0.094425,0,0.83057,-0.88646,-1.4208,-1.6601,5.3141,-1.3224,0.68601,0.01004,0.04,0.08,0
0.061141,0.030753,0.95105,-0.90739,-1.3836,-1.6384,0.086495,0,0,0.95025,0.33117,0,0.22489,0,0,0.86795,-0.14324,0,0.87986,-0.89217,-1.3988,-1.6384,9.982,-1.3098,0.65988,0.0084719,0.06,0.08,0
0.079584,0.035211,0.93315,-0.94002,-1.3327,-1.615,0.14279,0,0,0.87743,0.36695,0,0.37126,0,0,0.9309,-0.18293,0,0.94956,-0.89358,-1.3791,-1.615,18.014,-1.2959,0.63709,0.007408,0.08,0.08,0
0.096238,0.042623,0.91382,-0.99896,-1.2102,-1.5766,0.20119,0,0,0.75088,0.4763,0,0.52308,0,0,1.0024,-0.18002,0,1.0191,-0.87735,-1.3318,-1.5766,31.152,-1.2619,0.61454,0.0058636,0.1,0.08,0
0.10962,0.05231,0.89305,-1.0343,-0.94338,-1.4864,0.21245,0,0,0.58771,0.70585,0,0.55236,0,0,1.0623,-0.14588,0,1.0724,-0.77157,-1.2061,-1.4864,51.036,-1.1547,0.6238,0.0045292,0.12,0.08,0
0.11975,0.061194,0.87133,-1.0783,-0.7611,-1.4232,0.15224,0,0,0.44826,0.86069,0,0.39582,0,0,1.0987,-0.09515,0,1.1026,-0.69986,-1.1396,-1.4232,68.089,-1.0875,0.63124,0.0046955,0.14,0.08,0
0.12755,0.067375,0.84911,-1.1071,-0.68504,-1.3867,0.090985,0,0,0.36355,0.91222,0,0.23656,0,0,1.1153,-0.063357,0,1.117,-0.66626,-1.1259,-1.3867,78.338,-1.0596,0.63182,0.0059106,0.16,0.08,0
0.13429,0.070783,0.82672,-1.1049,-0.63454,-1.3485,0.046815,0,0,0.31673,0.92822,0,0.12172,0,0,1.1221,-0.040986,0,1.1228,-0.62992,-1.1095,-1.3485,84.371,-1.0293,0.63387,0.007089,0.18,0.08,0
0.14022,0.072107,0.80422,-1.1014,-0.60222,-1.3153,0.017846,0,0,0.27805,0.92703,0,0.046399,0,0,1.1262,-0.023556,0,1.1264,-0.60158,-1.1021,-1.3153,87.955,-1.0063,0.63458,0.0083026,0.2,0.08,0
0.14541,0.071771,0.78167,-1.1004,-0.58193,-1.2864,-0.0037518,0,0,0.24172,0.91579,0,-0.0097548,0,0,1.1287,-0.0082789,0,1.1287,-0.5819,-1.1005,-1.2864,-89.585,-0.98958,0.63236,0.0093028,0.22,0.08,0
0.14989,0.070016,0.75908,-1.1022,-0.57155,-1.2612,-0.023731,0,0,0.20673,0.89653,0,-0.061701,0,0,1.13,0.0069185,0,1.13,-0.57049,-1.1032,-1.2612,-87.444,-0.9783,0.62683,0.0099926,0.24,0.08,0
0.15368,0.066896,0.73647,-1.1051,-0.57115,-1.2394,-0.047261,0,0,0.17448,0.86867,0,-0.12288,0,0,1.1295,0.024064,0,1.1297,-0.567,-1.1093,-1.2394,-84.981,-0.97188,0.61769,0.010318,0.26,0.08,0
0.15687,0.062315,0.7139,-1.1051,-0.58386,-1.2206,-0.080015,0,0,0.15011,0.82775,0,-0.20804,0,0,1.1262,0.045774,0,1.1271,-0.57185,-1.1171,-1.2206,-81.467,-0.96986,0.60369,0.01019,0.28,0.08,0
0.15968,0.056015,0.69142,-1.0798,-0.61351,-1.1994,-0.12197,0,0,0.15552,0.76167,0,-0.31711,0,0,1.1131,0.076119,0,1.1156,-0.58353,-1.1098,-1.1994,-76.192,-0.96423,0.5763,0.0090338,0.3,0.08,0
0.16309,0.048372,0.66937,-1.0458,-0.7157,-1.1978,-0.15953,0,0,0.19762,0.62676,0,-0.41478,0,0,1.0812,0.12349,0,1.0884,-0.65121,-1.1103,-1.1978,-67.988,-0.98644,0.50854,0.0060856,0.32,0.08,0
0.16759,0.040871,0.64818,-1.0142,-0.85263,-1.2082,-0.14576,0,0,0.25224,0.46227,0,-0.37897,0,0,1.0278,0.15282,0,1.0396,-0.76677,-1.1001,-1.2082,-59.498,-1.025,0.39854,0.0024617,0.34,0.08,0
0.17318,0.035351,0.62826,-0.96371,-0.87912,-1.1811,-0.10864,0,0,0.28262,0.39258,0,-0.28247,0,0,0.96565,0.1514,0,0.97804,-0.80483,-1.038,-1.1811,-55.635,-1.008,0.32896,0.00073211,0.36,0.08,0
0.17889,0.031794,0.60955,-0.9346,-0.87671,-1.1529,-0.075311,0,0,0.28385,0.3591,0,-0.19581,0,0,0.91441,0.11026,0,0.92104,-0.82497,-0.98633,-1.1529,-55.511,-0.98808,0.28404,-3.26e-05,0.38,0.08,0
0.18453,0.02939,0.59168,-0.91343,-0.86852,-1.1263,-0.051337,0,0,0.27669,0.33507,0,-0.13348,0,0,0.8848,0.064045,0,0.88696,-0.83495,-0.94701,-1.1263,-56.813,-0.96941,0.25452,-0.00032754,0.4,0.08,0
0.18996,0.027779,0.57416,-0.89907,-0.85883,-1.1015,-0.029741,0,0,0.26319,0.31551,0,-0.077326,0,0,0.87594,0.023249,0,0.87611,-0.84304,-0.91486,-1.1015,-62.042,-0.95314,0.2311,-0.00043367,0.42,0.08,0
0.19506,0.026862,0.55664,-0.8911,-0.84399,-1.0772,-0.0078778,0,0,0.24189,0.30314,0,-0.020482,0,0,0.88095,-0.010245,0,0.88094,-0.84271,-0.89239,-1.0772,-80.755,-0.93742,0.214,-0.00041332,0.44,0.08,0
0.19964,0.026669,0.53892,-0.89089,-0.82158,-1.0527,0.015063,0,0,0.2103,0.30041,0,0.039163,0,0,0.89524,-0.035658,0,0.89595,-0.81845,-0.89402,-1.0527,78.254,-0.92171,0.20704,-0.00025959,0.46,0.08,0
0.20347,0.027244,0.52084,-0.89845,-0.78779,-1.0267,0.037809,0,0,0.16674,0.31059,0,0.098303,0,0,0.9153,-0.052433,0,0.91686,-0.77611,-0.91013,-1.0267,72.826,-0.90432,0.2172,6.3272e-05,0.48,0.08,0
0.20631,0.028554,0.50231,-0.91265,-0.73991,-0.99808,0.057057,0,0,0.11105,0.33562,0,0.14835,0,0,0.9379,-0.060652,0,0.93993,-0.72277,-0.9298,-0.99808,73.276,-0.88355,0.24832,0.00059053,0.5,0.08,0
0.20791,0.03042,0.48332,-0.9312,-0.68029,-0.96677,0.068526,0,0,0.046238,0.37241,0,0.17817,0,0,0.96011,-0.061483,0,0.96214,-0.6628,-0.94869,-0.96677,75.678,-0.85942,0.29535,0.0013065,0.52,0.08,0
0.20816,0.032527,0.4639,-0.95106,-0.61703,-0.93433,0.070086,0,0,-0.021747,0.41249,0,0.18222,0,0,0.97982,-0.057106,0,0.98152,-0.60292,-0.96517,-0.93433,78.618,-0.83414,0.34785,0.0021046,0.54,0.08,0
0.20704,0.034525,0.44413,-0.96913,-0.55859,-0.90244,0.063082,0,0,-0.086689,0.447,0,0.16401,0,0,0.99601,-0.049976,0,0.99728,-0.54912,-0.9786,-0.90244,81.459,-0.81005,0.39692,0.0028173,0.56,0.08,0
0.20469,0.03615,0.42406,-0.98325,-0.50938,-0.87185,0.051253,0,0,-0.14482,0.47121,0,0.13326,0,0,1.0086,-0.04207,0,1.0095,-0.5039,-0.98873,-0.87185,83.897,-0.78816,0.43824,0.0033084,0.58,0.08,0
0.20125,0.037266,0.40378,-0.9928,-0.4696,-0.8425,0.038163,0,0,-0.19539,0.48477,0,0.099225,0,0,1.0183,-0.034512,0,1.0188,-0.46683,-0.99557,-0.8425,85.85,-0.7683,0.47123,0.0035249,0.6,0.08,0
0.19687,0.037847,0.38333,-0.99845,-0.43768,-0.81417,0.02606,0,0,-0.23957,0.48944,0,0.067757,0,0,1.0255,-0.027733,0,1.0259,-0.43647,-0.99966,-0.81417,87.345,-0.7501,0.49712,0.0034771,0.62,0.08,0
0.19167,0.037933,0.36276,-1.0013,-0.41176,-0.78667,0.015796,0,0,-0.279,0.48739,0,0.04107,0,0,1.0311,-0.021764,0,1.0313,-0.41133,-1.0017,-0.78667,88.466,-0.73324,0.51753,0.0032018,0.64,0.08,0
0.18571,0.037586,0.34209,-1.0023,-0.39044,-0.7599,0.0074151,0,0,-0.31508,0.48031,0,0.019279,0,0,1.0353,-0.016479,0,1.0354,-0.39035,-1.0024,-0.7599,89.306,-0.71754,0.53382,0.0027375,0.66,0.08,0
0.17906,0.036877,0.32135,-1.002,-0.37267,-0.73375,0.00060113,0,0,-0.34874,0.46941,0,0.0015629,0,0,1.0383,-0.011694,0,1.0384,-0.37267,-1.002,-0.73375,89.945,-0.70281,0.547,0.0021192,0.68,0.08,0
0.17176,0.035867,0.30056,-1.0008,-0.35769,-0.70812,-0.0050635,0,0,-0.38054,0.45555,0,-0.013165,0,0,1.0405,-0.0072166,0,1.0405,-0.35765,-1.0009,-0.70812,-89.549,-0.68888,0.5578,0.0013781,0.7,0.08,0
0.16384,0.03461,0.27973,-0.99891,-0.34496,-0.68289,-0.0099804,0,0,-0.41083,0.43931,0,-0.025949,0,0,1.0417,-0.0028495,0,1.0417,-0.34481,-0.99906,-0.68289,-89.126,-0.67559,0.56671,0.00054185,0.72,0.08,0
0.15533,0.033151,0.25889,-0.99623,-0.33408,-0.65798,-0.014482,0,0,-0.43973,0.42108,0,-0.037653,0,0,1.0421,0.0016015,0,1.0421,-0.33376,-0.99655,-0.65798,-88.748,-0.66276,0.57404,-0.00036415,0.74,0.08,0
0.14625,0.031529,0.23805,-0.99271,-0.32475,-0.63328,-0.018801,0,0,-0.46726,0.4011,0,-0.048881,0,0,1.0415,0.0063306,0,1.0415,-0.32422,-0.99324,-0.63328,-88.389,-0.65025,0.57995,-0.0013152,0.76,0.08,0
0.13664,0.029779,0.21723,-0.98817,-0.31677,-0.60871,-0.023036,0,0,-0.4933,0.37952,0,-0.059894,0,0,1.0398,0.01153,0,1.0399,-0.31598,-0.98896,-0.60871,-88.037,-0.63788,0.58446,-0.002286,0.78,0.08,0
0.12652,0.027938,0.19645,-0.98235,-0.31,-0.58416,-0.027103,0,0,-0.51764,0.35641,0,-0.070467,0,0,1.0369,0.01738,0,1.037,-0.30891,-0.98344,-0.58416,-87.695,-0.6255,0.58744,-0.0032484,0.8,0.08,0
0.11593,0.026055,0.17575,-0.97495,-0.3043,-0.55953,-0.030635,0,0,-0.54005,0.3318,0,-0.079652,0,0,1.0322,0.024005,0,1.0325,-0.3029,-0.97635,-0.55953,-87.39,-0.61293,0.5887,-0.0041714,0.82,0.08,0
0.10492,0.024195,0.15517,-0.96592,-0.29942,-0.53477,-0.032905,0,0,-0.5605,0.30595,0,-0.085553,0,0,1.0253,0.031384,0,1.0258,-0.2978,-0.96754,-0.53477,-87.18,-0.60004,0.58822,-0.0050265,0.84,0.08,0
0.093514,0.022453,0.13474,-0.9556,-0.2945,-0.50977,-0.032836,0,0,-0.57958,0.27985,0,-0.085374,0,0,1.0157,0.03913,0,1.0165,-0.29288,-0.95723,-0.50977,-87.163,-0.58663,0.58678,-0.005801,0.86,0.08,0
0.081736,0.020948,0.11454,-0.94499,-0.28757,-0.48431,-0.029538,0,0,-0.59889,0.25576,0,-0.0768,0,0,1.0028,0.04624,0,1.0039,-0.28624,-0.94632,-0.48431,-87.433,-0.57229,0.58668,-0.0065267,0.88,0.08,0
0.069558,0.019797,0.094629,-0.93531,-0.27539,-0.45784,-0.023054,0,0,-0.62071,0.23719,0,-0.059941,0,0,0.98686,0.051005,0,0.98822,-0.27458,-0.93612,-0.45784,-88.002,-0.55618,0.59159,-0.0072951,0.9,0.08,0
0.056907,0.019062,0.075065,-0.92753,-0.25536,-0.42993,-0.015073,0,0,-0.64687,0.22694,0,-0.039191,0,0,0.96893,0.051444,0,0.97035,-0.25503,-0.92787,-0.42993,-88.716,-0.53761,0.60467,-0.0082333,0.92,0.08,0
0.043684,0.018707,0.055872,-0.92202,-0.22801,-0.40088,-0.007991,0,0,-0.67749,0.22473,0,-0.020777,0,0,0.95107,0.046097,0,0.95222,-0.22792,-0.92212,-0.40088,-89.34,-0.51697,0.6259,-0.0094264,0.94,0.08,0
0.029808,0.018609,0.037023,-0.91862,-0.19713,-0.37175,-0.003435,0,0,-0.71093,0.227,0,-0.0089309,0,0,0.93581,0.034777,0,0.93647,-0.19712,-0.91863,-0.37175,-89.727,-0.49583,0.65199,-0.010866,0.96,0.08,0
0.015246,0.018619,0.018439,-0.9167,-0.16674,-0.34347,-0.0012,0,0,-0.7452,0.22975,0,-0.00312,0,0,0.92556,0.018684,0,0.92573,-0.16674,-0.91671,-0.34347,-89.908,-0.47564,0.67908,-0.012486,0.98,0.08,0
0,0.018631,0,-0.89302,-0.12908,-0.30663,0.0002324,0,0,-0.76231,0.23082,0,0.00060424,0,0,0.92196,9.541e-18,0,0.92192,-0.12908,-0.89302,-0.30663,89.983,-0.44291,0.69246,-0.013348,1,0.08,0
0,0.032535,1,-0.88498,-1.5041,-1.7167,0.0082099,0,0,1.0813,0.27642,0,0.021346,0,0,0.74387,2.9143e-16,0,0.7435,-0.88487,-1.5042,-1.7167,0.75961,-1.3686,0.74857,0.015832,0,0.1,0
0.021625,0.032961,0.98512,-0.87145,-1.4746,-1.6889,0.030764,0,0,1.0627,0.27865,0,0.079986,0,0,0.74916,-0.057469,0,0.75097,-0.86989,-1.4762,-1.6889,2.9124,-1.345,0.73609,0.014861,0.02,0.1,0
0.042509,0.03437,0.97003,-0.88781,-1.453,-1.6723,0.065829,0,0,1.0198,0.28504,0,0.17116,0,0,0.76721,-0.11948,0,0.77605,-0.88025,-1.4606,-1.6723,6.5563,-1.3377,0.71026,0.01304,0.04,0.1,0
0.062418,0.037024,0.95443,-0.9094,-1.4288,-1.6559,0.11318,0,0,0.97043,0.29525,0,0.29427,0,0,0.80942,-0.19138,0,0.83135,-0.8858,-1.4524,-1.6559,11.775,-1.3314,0.69117,0.012132,0.06,0.1,0
0.081326,0.041995,0.93766,-0.9666,-1.4267,-1.6556,0.18947,0,0,0.89575,0.29765,0,0.49263,0,0,0.9061,-0.28019,0,0.9493,-0.89861,-1.4947,-1.6556,19.738,-1.3496,0.69075,0.013877,0.08,0.1,0
0.098248,0.051574,0.91819,-1.0471,-1.3153,-1.6269,0.30007,0,0,0.75371,0.40513,0,0.78017,0,0,1.0288,-0.34304,0,1.0887,-0.85255,-1.5099,-1.6269,32.963,-1.3298,0.72298,0.017706,0.1,0.1,0
0.11148,0.06707,0.8965,-1.0282,-0.77103,-1.4363,0.24998,0,0,0.53049,0.86482,0,0.64995,0,0,1.1206,-0.15971,0,1.13,-0.6185,-1.1807,-1.4363,58.611,-1.0785,0.72463,0.011666,0.12,0.1,0
0.11947,0.07932,0.87337,-1.1229,-0.70801,-1.4226,0.15133,0,0,0.38967,0.92901,0,0.39346,0,0,1.1514,-0.09937,0,1.1555,-0.65868,-1.1722,-1.4226,71.944,-1.0845,0.67456,0.0087566,0.14,0.1,0
0.12706,0.086034,0.85045,-1.0864,-0.64433,-1.3697,0.079694,0,0,0.36826,0.94294,0,0.2072,0,0,1.1446,-0.06579,0,1.1464,-0.6304,-1.1003,-1.3697,80.087,-1.0335,0.64803,0.0062818,0.16,0.1,0
0.1342,0.089551,0.82758,-1.0676,-0.60702,-1.33,0.042613,0,0,0.34108,0.93983,0,0.11079,0,0,1.143,-0.043215,0,1.1438,-0.60311,-1.0715,-1.33,84.758,-1.0015,0.63817,0.0063495,0.18,0.1,0
0.1407,0.090736,0.80473,-1.0619,-0.58207,-1.2979,0.018634,0,0,0.30684,0.9306,0,0.048449,0,0,1.1432,-0.025659,0,1.1435,-0.58135,-1.0626,-1.2979,87.779,-0.98062,0.63263,0.0072017,0.2,0.1,0
0.14647,0.090143,0.78185,-1.0641,-0.56487,-1.2706,0.00068986,0,0,0.26833,0.9174,0,0.0017936,0,0,1.1446,-0.010162,0,1.1446,-0.56487,-1.0641,-1.2706,89.921,-0.96653,0.62845,0.0082661,0.22,0.1,0
0.15144,0.088029,0.75894,-1.0719,-0.55368,-1.2466,-0.016328,0,0,0.22714,0.90081,0,-0.042454,0,0,1.1468,0.0053185,0,1.1468,-0.55317,-1.0724,-1.2466,-88.197,-0.9574,0.62483,0.0093228,0.24,0.1,0
0.15556,0.084442,0.73598,-1.0854,-0.54886,-1.2263,-0.03701,0,0,0.18309,0.88063,0,-0.096226,0,0,1.1501,0.022795,0,1.1503,-0.54632,-1.088,-1.2263,-86.073,-0.95352,0.62243,0.010354,0.26,0.1,0
0.15876,0.079196,0.71294,-1.1067,-0.55283,-1.2108,-0.066835,0,0,0.13536,0.85535,0,-0.17377,0,0,1.1546,0.045112,0,1.1554,-0.54487,-1.1146,-1.2108,-83.216,-0.95676,0.62342,0.011452,0.28,0.1,0
0.16097,0.071908,0.6898,-1.1349,-0.57396,-1.2025,-0.12079,0,0,0.08779,0.81706,0,-0.31404,0,0,1.1632,0.077919,0,1.1656,-0.54906,-1.1598,-1.2025,-78.351,-0.97045,0.63317,0.012838,0.3,0.1,0
0.16227,0.061254,0.66641,-1.0556,-0.58871,-1.1597,-0.18994,0,0,0.13533,0.7423,0,-0.49385,0,0,1.1343,0.13589,0,1.1407,-0.5212,-1.1231,-1.1597,-70.434,-0.93468,0.62102,0.012157,0.32,0.1,0
0.16638,0.049647,0.64443,-1.0602,-0.92903,-1.2412,-0.23251,0,0,0.23529,0.40582,0,-0.60452,0,0,1.048,0.30758,0,1.0962,-0.75303,-1.2362,-1.2412,-52.877,-1.0768,0.48568,0.0058821,0.34,0.1,0
0.17168,0.042858,0.62449,-0.98608,-0.93962,-1.2022,-0.15477,0,0,0.28096,0.34136,0,-0.4024,0,0,0.9366,0.23424,0,0.96573,-0.80635,-1.1194,-1.2022,-49.268,-1.0426,0.36162,0.0020056,0.36,0.1,0
0.17762,0.038699,0.60696,-0.92864,-0.90906,-1.1583,-0.10568,0,0,0.29852,0.32398,0,-0.27476,0,0,0.85588,0.14333,0,0.86723,-0.81272,-1.025,-1.1583,-47.647,-0.99866,0.30185,0.00054163,0.38,0.1,0
0.18363,0.035847,0.59026,-0.89987,-0.89765,-1.1295,-0.070385,0,0,0.29854,0.30142,0,-0.183,0,0,0.8315,0.073321,0,0.83432,-0.82837,-0.96916,-1.1295,-45.451,-0.97568,0.26099,-0.00010251,0.4,0.1,0
0.18956,0.033837,0.5737,-0.88092,-0.88479,-1.1034,-0.03999,0,0,0.28924,0.28421,0,-0.10397,0,0,0.83232,0.017687,0,0.83227,-0.84282,-0.92289,-1.1034,-43.616,-0.95638,0.2312,-0.00038765,0.42,0.1,0
0.1952,0.032668,0.55697,-0.87342,-0.8701,-1.08,-0.010134,0,0,0.26858,0.2729,0,-0.026347,0,0,0.84696,-0.026638,0,0.84729,-0.86149,-0.88203,-1.08,-49.659,-0.94118,0.20902,-0.00045378,0.44,0.1,0
0.20031,0.032418,0.53982,-0.8756,-0.84965,-1.0574,0.020737,0,0,0.23634,0.27008,0,0.053916,0,0,0.87124,-0.059978,0,0.87335,-0.83816,-0.88709,-1.0574,61.018,-0.92755,0.19933,-0.00032563,0.46,0.1,0
0.20465,0.033218,0.52212,-0.88708,-0.81604,-1.0331,0.052497,0,0,0.18976,0.28212,0,0.13649,0,0,0.90157,-0.08115,0,0.90536,-0.78817,-0.91495,-1.0331,62.042,-0.91206,0.21211,3.0022e-05,0.48,0.1,0
0.2079,0.0351,0.50376,-0.90654,-0.76125,-1.0041,0.07992,0,0,0.12682,0.3157,0,0.20779,0,0,0.93371,-0.089377,0,0.93812,-0.7259,-0.9419,-1.0041,66.135,-0.89063,0.25291,0.00066445,0.5,0.1,0
0.20972,0.037819,0.48477,-0.93014,-0.68647,-0.96975,0.09517,0,0,0.051497,0.36827,0,0.24744,0,0,0.96335,-0.086483,0,0.96732,-0.6537,-0.9629,-0.96975,71.002,-0.86212,0.31268,0.0015675,0.52,0.1,0
0.20996,0.040841,0.46523,-0.95419,-0.6086,-0.93406,0.093921,0,0,-0.026162,0.4231,0,0.24419,0,0,0.98753,-0.076508,0,0.99053,-0.58472,-0.97806,-0.93406,75.737,-0.83228,0.37329,0.0025468,0.54,0.1,0
0.20867,0.043601,0.44527,-0.97451,-0.54283,-0.90047,0.080536,0,0,-0.096257,0.46493,0,0.20939,0,0,1.0054,-0.064098,0,1.0074,-0.52829,-0.98905,-0.90047,79.769,-0.80593,0.42347,0.0033323,0.56,0.1,0
0.20611,0.045728,0.42501,-0.9882,-0.49263,-0.86926,0.062174,0,0,-0.15463,0.48962,0,0.16165,0,0,1.0179,-0.052196,0,1.0192,-0.48495,-0.99588,-0.86926,82.957,-0.78336,0.46086,0.0037771,0.58,0.1,0
0.20249,0.047101,0.40455,-0.99579,-0.45506,-0.83981,0.044498,0,0,-0.20278,0.50017,0,0.1157,0,0,1.0266,-0.041953,0,1.0274,-0.45143,-0.99943,-0.83981,85.327,-0.76356,0.48817,0.0038925,0.6,0.1,0
0.198,0.04775,0.38395,-0.99916,-0.42581,-0.81144,0.029628,0,0,-0.24403,0.50132,0,0.077034,0,0,1.0328,-0.033331,0,1.0333,-0.42428,-1.0007,-0.81144,87.05,-0.74547,0.50889,0.0037495,0.62,0.1,0
0.19273,0.047768,0.36324,-1.0004,-0.40232,-0.78406,0.0178,0,0,-0.28126,0.49626,0,0.046281,0,0,1.0373,-0.026029,0,1.0377,-0.40179,-1.0009,-0.78406,88.297,-0.72893,0.52543,0.0034014,0.64,0.1,0
0.18675,0.04726,0.34246,-1.0007,-0.38292,-0.75753,0.0085019,0,0,-0.31608,0.48699,0,0.022105,0,0,1.0408,-0.01971,0,1.041,-0.38281,-1.0008,-0.75753,89.212,-0.71371,0.53921,0.0028865,0.66,0.1,0
0.18008,0.046318,0.32161,-1.0005,-0.36654,-0.73171,0.0010814,0,0,-0.34937,0.47472,0,0.0028115,0,0,1.0434,-0.014066,0,1.0435,-0.36654,-1.0005,-0.73171,89.902,-0.69957,0.5511,0.002233,0.68,0.1,0
0.17277,0.045024,0.30072,-0.99994,-0.35246,-0.70644,-0.005074,0,0,-0.38155,0.46017,0,-0.013192,0,0,1.0453,-0.0088197,0,1.0454,-0.35242,-0.99998,-0.70644,-89.551,-0.68628,0.56161,0.0014638,0.7,0.1,0
0.16482,0.04344,0.2798,-0.99914,-0.34022,-0.6816,-0.010481,0,0,-0.41279,0.44379,0,-0.027252,0,0,1.0466,-0.0037133,0,1.0466,-0.34006,-0.9993,-0.6816,-89.089,-0.67366,0.57105,0.00059872,0.72,0.1,0
0.15626,0.041618,0.25886,-0.99796,-0.32951,-0.6571,-0.015556,0,0,-0.44312,0.42586,0,-0.040445,0,0,1.0471,0.0015012,0,1.0471,-0.32915,-0.99833,-0.6571,-88.668,-0.66152,0.57956,-0.00034356,0.74,0.1,0
0.1471,0.039601,0.23791,-0.99625,-0.32013,-0.63282,-0.020611,0,0,-0.47245,0.4065,0,-0.053588,0,0,1.047,0.0070777,0,1.047,-0.3195,-0.99687,-0.63282,-88.255,-0.64973,0.58717,-0.0013441,0.76,0.1,0
0.13736,0.037424,0.21698,-0.99371,-0.312,-0.60869,-0.025846,0,0,-0.50052,0.3857,0,-0.067199,0,0,1.046,0.013288,0,1.0461,-0.31102,-0.99469,-0.60869,-87.832,-0.63813,0.59371,-0.002381,0.78,0.1,0
0.12708,0.035124,0.19607,-0.98991,-0.30514,-0.58459,-0.031302,0,0,-0.52692,0.36328,0,-0.081385,0,0,1.0439,0.02043,0,1.0441,-0.30371,-0.99134,-0.58459,-87.388,-0.62655,0.59882,-0.0034262,0.8,0.1,0
0.11628,0.032746,0.17522,-0.98422,-0.29969,-0.56039,-0.036753,0,0,-0.55097,0.33891,0,-0.095557,0,0,1.0403,0.028821,0,1.0407,-0.29773,-0.98619,-0.56039,-86.936,-0.61477,0.60178,-0.0044395,0.82,0.1,0
0.10504,0.030354,0.15446,-0.97584,-0.29587,-0.53597,-0.041436,0,0,-0.57182,0.31213,0,-0.10773,0,0,1.0343,0.038735,0,1.035,-0.29336,-0.97835,-0.53597,-86.526,-0.60256,0.60157,-0.0053646,0.84,0.1,0
0.093412,0.028058,0.13385,-0.96477,-0.294,-0.51148,-0.043795,0,0,-0.58928,0.28273,0,-0.11387,0,0,1.0248,0.050185,0,1.026,-0.29115,-0.96762,-0.51148,-86.28,-0.59008,0.59758,-0.0061508,0.86,0.1,0
0.081467,0.026026,0.11347,-0.9519,-0.29211,-0.48667,-0.041497,0,0,-0.6048,0.25293,0,-0.10789,0,0,1.0105,0.062058,0,1.0124,-0.28951,-0.9545,-0.48667,-86.415,-0.57689,0.59158,-0.0067885,0.88,0.1,0
0.06922,0.024463,0.09343,-0.93934,-0.28515,-0.46078,-0.033688,0,0,-0.62213,0.22831,0,-0.087589,0,0,0.99064,0.071624,0,0.99329,-0.28342,-0.94107,-0.46078,-87.06,-0.56176,0.58933,-0.0073918,0.9,0.1,0
0.056582,0.023509,0.073842,-0.92846,-0.26635,-0.43229,-0.022269,0,0,-0.64503,0.21571,0,-0.057899,0,0,0.96656,0.074782,0,0.96954,-0.26561,-0.92921,-0.43229,-88.076,-0.54237,0.59795,-0.0081716,0.92,0.1,0
0.043419,0.023128,0.054768,-0.92002,-0.23543,-0.4014,-0.012127,0,0,-0.6742,0.21577,0,-0.031531,0,0,0.94139,0.068408,0,0.94395,-0.23521,-0.92024,-0.4014,-88.986,-0.51895,0.6189,-0.0092799,0.94,0.1,0
0.029614,0.023102,0.036187,-0.91465,-0.20074,-0.3708,-0.0057521,0,0,-0.707,0.22109,0,-0.014956,0,0,0.91946,0.051956,0,0.92094,-0.20069,-0.9147,-0.3708,-89.538,-0.4954,0.64597,-0.010675,0.96,0.1,0
0.015139,0.023185,0.017989,-0.91156,-0.1687,-0.34207,-0.0024821,0,0,-0.74035,0.22538,0,-0.0064536,0,0,0.90467,0.027916,0,0.90505,-0.16869,-0.91157,-0.34207,-89.809,-0.47411,0.67315,-0.012232,0.98,0.1,0
0,0.023224,0,-0.88819,-0.13158,-0.30593,0.00075357,0,0,-0.75693,0.22665,0,0.0019593,0,0,0.89947,-1.7347e-18,0,0.89939,-0.13158,-0.88819,-0.30593,89.943,-0.4419,0.68625,-0.013056,1,0.1,0
0,0.037706,1,-0.85007,-1.5368,-1.7161,0.0089859,0,0,1.1258,0.23301,0,0.023363,0,0,0.68168,-1.9464e-15,0,0.68118,-0.84996,-1.537,-1.7161,0.74952,-1.3677,0.7919,0.021172,0,0.12,0
0.022516,0.038174,0.98637,-0.83838,-1.5117,-1.6914,0.040376,0,0,1.1089,0.23357,0,0.10498,0,0,0.68384,-0.064138,0,0.68629,-0.83597,-1.5141,-1.6914,3.4193,-1.3472,0.78202,0.020373,0.02,0.12,0
0.044357,0.039675,0.97265,-0.85693,-1.499,-1.6794,0.088111,0,0,1.0693,0.23453,0,0.22909,0,0,0.6914,-0.13515,0,0.70375,-0.84506,-1.5109,-1.6794,7.6735,-1.3451,0.76417,0.019214,0.04,0.12,0
0.065286,0.042563,0.95871,-0.90433,-1.503,-1.6809,0.14842,0,0,1.0096,0.23128,0,0.3859,0,0,0.70725,-0.22352,0,0.74046,-0.86955,-1.5378,-1.6809,13.187,-1.3627,0.75011,0.019044,0.06,0.12,0
0.084739,0.047117,0.94436,-0.99099,-1.5416,-1.7041,0.27677,0,0,0.92709,0.21129,0,0.71961,0,0,0.77923,-0.35207,0,0.85051,-0.87591,-1.6567,-1.7041,22.576,-1.4122,0.80554,0.026532,0.08,0.12,0
0.10237,0.058829,0.92754,-0.88349,-1.1479,-1.166,0.34474,0,0,0.47723,-0.12277,0,1.845,0,0,0.65491,-0.36465,0,0.7552,-0.64581,-1.3856,-1.166,35.473,-1.0658,0.66487,0.020754,0.1,0.12,0
0.10787,0.086903,0.89944,-0.8156,-0.64848,-0.97889,0.22429,0,0,0.35379,0.16441,0,1.2998,0,0,0.78357,-0.1319,0,0.79856,-0.45484,-1.0092,-0.97889,47.179,-0.81432,0.56729,0.015052,0.12,0.12,0
0.11652,0.098354,0.8753,-0.71638,-0.60304,-0.92101,0.10146,0,0,0.44337,0.1633,0,0.70412,0,0,0.71554,-0.089025,0,0.72402,-0.48646,-0.83296,-0.92101,48.673,-0.74681,0.43581,0.0024628,0.14,0.12,0
0.12561,0.10509,0.85174,-0.68519,-0.56823,-0.88707,0.062815,0,0,0.43741,0.16661,0,0.46104,0,0,0.70286,-0.061408,0,0.70722,-0.47212,-0.7813,-0.88707,49.031,-0.71349,0.40964,0.0014776,0.16,0.12,0
0.13402,0.10838,0.82844,-0.68339,-0.5515,-0.86754,0.037198,0,0,0.39898,0.17168,0,0.28963,0,0,0.69731,-0.041917,0,0.69942,-0.46891,-0.76598,-0.86754,48.92,-0.70081,0.39055,0.0018056,0.18,0.12,0
0.14156,0.10933,0.80525,-0.68678,-0.53704,-0.8503,0.019468,0,0,0.35429,0.17669,0,0.1625,0,0,0.69554,-0.026042,0,0.69637,-0.46353,-0.76029,-0.8503,48.057,-0.69137,0.37825,0.0025108,0.2,0.12,0
0.14819,0.10847,0.78208,-0.69197,-0.52446,-0.83417,0.0047384,0,0,0.30812,0.18069,0,0.05386,0,0,0.69583,-0.011659,0,0.69598,-0.45783,-0.75859,-0.83417,46.624,-0.68353,0.36927,0.0032529,0.22,0.12,0
0.15389,0.10605,0.75886,-0.69771,-0.51309,-0.81856,-0.0095333,0,0,0.26184,0.18352,0,-0.051845,0,0,0.69774,0.0027753,0,0.6977,-0.45156,-0.75923,-0.81856,-45.408,-0.67645,0.36322,0.0039515,0.24,0.12,0
0.15866,0.10212,0.73556,-0.70505,-0.50325,-0.80383,-0.02576,0,0,0.21401,0.18585,0,-0.1695,0,0,0.70156,0.018801,0,0.70189,-0.44471,-0.76358,-0.80383,-48.101,-0.67071,0.36102,0.0046267,0.26,0.12,0
0.16245,0.096529,0.71209,-0.71706,-0.49518,-0.79093,-0.047933,0,0,0.16004,0.18911,0,-0.32083,0,0,0.70879,0.038534,0,0.71034,-0.43589,-0.77635,-0.79093,-51.258,-0.66772,0.36692,0.0054452,0.28,0.12,0
0.16506,0.088698,0.68831,-0.75266,-0.50054,-0.78895,-0.080175,0,0,0.078612,0.19565,0,-0.52837,0,0,0.72234,0.066413,0,0.72675,-0.43533,-0.81788,-0.78895,-54.492,-0.68071,0.38588,0.0066208,0.3,0.12,0
0.16559,0.078064,0.66394,-0.84372,-0.51539,-0.8061,-0.17189,0,0,-0.08153,0.20864,0,-0.98698,0,0,0.78651,0.10959,0,0.79627,-0.41191,-0.9472,-0.8061,-55.43,-0.72174,0.49327,0.011627,0.32,0.12,0
0.1618,0.057103,0.63587,-0.83562,-0.81446,-0.87655,-0.27496,0,0,-0.022612,0.015357,0,-1.4703,0,0,0.65724,0.32951,0,0.73903,-0.54985,-1.1002,-0.87655,-45.876,-0.84221,0.48337,0.0047485,0.34,0.12,0
0.16803,0.049006,0.61889,-0.9599,-1.0172,-1.212,-0.22942,0,0,0.32778,0.25322,0,-0.59648,0,0,0.8014,0.28716,0,0.84643,-0.75737,-1.2198,-1.212,-41.438,-1.0631,0.45858,0.0049483,0.36,0.12,0
0.17491,0.044753,0.60382,-0.88987,-0.96393,-1.16,-0.13726,0,0,0.35111,0.25483,0,-0.35688,0,0,0.75349,0.15703,0,0.76837,-0.78474,-1.0691,-1.16,-37.451,-1.0046,0.33904,0.0015272,0.38,0.12,0
0.18207,0.041447,0.58875,-0.85547,-0.93532,-1.126,-0.086791,0,0,0.35167,0.24787,0,-0.22566,0,0,0.75916,0.069196,0,0.76166,-0.79986,-0.99093,-1.126,-32.649,-0.97226,0.28382,0.00034305,0.4,0.12,0
0.18898,0.039148,0.57345,-0.84578,-0.91774,-1.1025,-0.044824,0,0,0.33374,0.2402,0,-0.11654,0,0,0.77598,0.001771,0,0.77565,-0.82428,-0.93924,-1.1025,-25.623,-0.95534,0.24216,-0.00021538,0.42,0.12,0
0.19542,0.037778,0.55771,-0.84647,-0.90206,-1.0823,-0.0075803,0,0,0.30654,0.23427,0,-0.019709,0,0,0.80329,-0.053202,0,0.80495,-0.84546,-0.90308,-1.0823,-7.6277,-0.9436,0.21391,-0.00038241,0.44,0.12,0
0.20124,0.037472,0.54132,-0.85495,-0.88441,-1.0631,0.030556,0,0,0.27063,0.23233,0,0.079445,0,0,0.84073,-0.096728,0,0.84642,-0.83576,-0.9036,-1.0631,32.131,-0.93416,0.20217,-0.00026891,0.46,0.12,0
0.20625,0.038529,0.52408,-0.87466,-0.85639,-1.0434,0.072148,0,0,0.21936,0.24311,0,0.18759,0,0,0.8859,-0.12377,0,0.89483,-0.7928,-0.93825,-1.0434,48.608,-0.92482,0.21796,0.00014581,0.48,0.12,0
0.21002,0.041182,0.50588,-0.90274,-0.79325,-1.0147,0.11166,0,0,0.14552,0.28786,0,0.29032,0,0,0.93257,-0.1306,0,0.94197,-0.72364,-0.97236,-1.0147,58.059,-0.90356,0.27236,0.00095369,0.5,0.12,0
0.21207,0.045151,0.48678,-0.93242,-0.68925,-0.97328,0.12987,0,0,0.053114,0.36924,0,0.33766,0,0,0.97298,-0.11844,0,0.9803,-0.63294,-0.98874,-0.97328,66.557,-0.86499,0.34833,0.0021563,0.52,0.12,0
0.21214,0.049451,0.46696,-0.9616,-0.58862,-0.93203,0.12103,0,0,-0.038446,0.44644,0,0.31467,0,0,1.0022,-0.097689,0,1.007,-0.55279,-0.99743,-0.93203,73.509,-0.82742,0.41582,0.0033868,0.54,0.12,0
0.21053,0.053122,0.44669,-0.98303,-0.51705,-0.89672,0.095356,0,0,-0.11221,0.49356,0,0.24793,0,0,1.0203,-0.076788,0,1.0232,-0.4983,-1.0018,-0.89672,78.871,-0.79893,0.46005,0.0041348,0.56,0.12,0
0.20765,0.055734,0.42615,-0.99424,-0.47151,-0.86588,0.069025,0,0,-0.16688,0.51268,0,0.17947,0,0,1.0308,-0.060445,0,1.0325,-0.46255,-1.0032,-0.86588,82.603,-0.77721,0.48674,0.0043718,0.58,0.12,0
0.20386,0.057272,0.40546,-0.99692,-0.43835,-0.83604,0.047481,0,0,-0.20915,0.517,0,0.12345,0,0,1.0371,-0.047726,0,1.0382,-0.43434,-1.0009,-0.83604,85.176,-0.75711,0.50477,0.0043073,0.6,0.12,0
0.19929,0.0579,0.38467,-0.99704,-0.41294,-0.80766,0.031208,0,0,-0.24619,0.51313,0,0.08114,0,0,1.0415,-0.037613,0,1.0421,-0.41128,-0.9987,-0.80766,86.95,-0.73921,0.51898,0.0040385,0.62,0.12,0
0.19401,0.057783,0.3638,-0.9967,-0.39239,-0.78053,0.01899,0,0,-0.28102,0.50457,0,0.049374,0,0,1.0447,-0.029322,0,1.0451,-0.3918,-0.99729,-0.78053,88.202,-0.72321,0.53138,0.0036101,0.64,0.12,0
0.18805,0.057066,0.34288,-0.99664,-0.37512,-0.75441,0.0096694,0,0,-0.31491,0.49307,0,0.02514,0,0,1.0472,-0.022278,0,1.0474,-0.37497,-0.99679,-0.75441,89.109,-0.70873,0.54286,0.0030454,0.66,0.12,0
0.18141,0.055865,0.32191,-0.99699,-0.36017,-0.72906,0.0022947,0,0,-0.34831,0.47955,0,0.0059662,0,0,1.0492,-0.016049,0,1.0494,-0.36017,-0.997,-0.72906,89.793,-0.69541,0.55382,0.0023591,0.68,0.12,0
0.17411,0.054273,0.30091,-0.99765,-0.34697,-0.7043,-0.0038653,0,0,-0.38136,0.46452,0,-0.01005,0,0,1.0508,-0.010285,0,1.0509,-0.34695,-0.99767,-0.7043,-89.66,-0.68297,0.56445,0.0015635,0.7,0.12,0
0.16616,0.052362,0.27988,-0.99848,-0.33515,-0.67997,-0.0093782,0,0,-0.41407,0.44826,0,-0.024383,0,0,1.052,-0.0046835,0,1.052,-0.33502,-0.99861,-0.67997,-89.19,-0.6712,0.57484,0.0006692,0.72,0.12,0
0.15755,0.050186,0.25883,-0.99932,-0.32449,-0.65597,-0.014694,0,0,-0.44635,0.43092,0,-0.038203,0,0,1.0529,0.0010451,0,1.0529,-0.32417,-0.99964,-0.65597,-88.753,-0.65993,0.585,-0.00031287,0.74,0.12,0
0.1483,0.047789,0.23776,-0.99998,-0.31488,-0.63222,-0.020177,0,0,-0.47808,0.41254,0,-0.05246,0,0,1.0533,0.0072008,0,1.0533,-0.31429,-1.0006,-0.63222,-88.314,-0.64903,0.59487,-0.0013712,0.76,0.12,0
0.13843,0.045206,0.2167,-1.0002,-0.30632,-0.60865,-0.026128,0,0,-0.50901,0.39303,0,-0.067934,0,0,1.0532,0.014124,0,1.0533,-0.30534,-1.0012,-0.60865,-87.847,-0.63839,0.60427,-0.0024913,0.78,0.12,0
0.12794,0.042469,0.19564,-0.99952,-0.29892,-0.58517,-0.032781,0,0,-0.53866,0.37213,0,-0.08523,0,0,1.0524,0.022231,0,1.0526,-0.29739,-1.001,-0.58517,-87.327,-0.62787,0.61275,-0.0036515,0.8,0.12,0
0.11688,0.039611,0.1746,-0.99713,-0.29299,-0.56164,-0.040224,0,0,-0.56614,0.34924,0,-0.10458,0,0,1.0505,0.032063,0,1.051,-0.2907,-0.99942,-0.56164,-86.741,-0.61725,0.61942,-0.0048124,0.82,0.12,0
0.1053,0.03668,0.15362,-0.99156,-0.28917,-0.53784,-0.04821,0,0,-0.58984,0.32327,0,-0.12535,0,0,1.0467,0.044339,0,1.0476,-0.28588,-0.99486,-0.53784,-86.092,-0.60619,0.6225,-0.0059002,0.84,0.12,0
0.093288,0.033762,0.13273,-0.98027,-0.28832,-0.51331,-0.055198,0,0,-0.60704,0.29248,0,-0.14352,0,0,1.039,0.059957,0,1.0407,-0.28395,-0.98464,-0.51331,-85.468,-0.59397,0.61876,-0.0067733,0.86,0.12,0
0.081016,0.031065,0.11206,-0.96503,-0.29382,-0.48971,-0.057636,0,0,-0.61791,0.25466,0,-0.14985,0,0,1.0242,0.079641,0,1.0273,-0.28891,-0.96995,-0.48971,-85.128,-0.58286,0.60612,-0.0073484,0.88,0.12,0
0.068571,0.028929,0.091764,-0.94785,-0.29744,-0.46535,-0.049731,0,0,-0.62725,0.21828,0,-0.1293,0,0,0.99958,0.09868,0,1.0045,-0.29366,-0.95163,-0.46535,-85.653,-0.57022,0.59113,-0.0076695,0.9,0.12,0
0.055926,0.02769,0.072074,-0.9315,-0.28312,-0.43646,-0.034618,0,0,-0.64355,0.19934,0,-0.090007,0,0,0.96572,0.10914,0,0.97208,-0.28128,-0.93335,-0.43646,-86.952,-0.55036,0.58999,-0.0081387,0.92,0.12,0
0.042829,0.027338,0.053135,-0.91656,-0.24525,-0.40168,-0.019805,0,0,-0.66934,0.20336,0,-0.051492,0,0,0.92824,0.10186,0,0.934,-0.24466,-0.91714,-0.40168,-88.312,-0.52116,0.60933,-0.0090704,0.94,0.12,0
0.029153,0.027452,0.034944,-0.90592,-0.20481,-0.36816,-0.011892,0,0,-0.69908,0.21236,0,-0.03092,0,0,0.89532,0.077206,0,0.89868,-0.20461,-0.90612,-0.36816,-89.028,-0.49296,0.63571,-0.010309,0.96,0.12,0
0.014866,0.027634,0.017323,-0.90008,-0.17369,-0.33945,-0.0063279,0,0,-0.72881,0.21549,0,-0.016453,0,0,0.87361,0.040703,0,0.87444,-0.17363,-0.90013,-0.33945,-89.501,-0.47107,0.65942,-0.011647,0.98,0.12,0
0,0.027697,0,-0.87606,-0.13826,-0.3043,0.001211,0,0,-0.7433,0.21585,0,0.0031487,0,0,0.86613,1.0408e-17,0,0.86596,-0.13826,-0.87606,-0.3043,89.906,-0.43954,0.67039,-0.012333,1,0.12,0
0,0.041855,1,-0.79274,-1.5748,-1.7103,0.0086384,0,0,1.1928,0.17608,0,0.02246,0,0,0.61559,-6.1409e-16,0,0.61503,-0.79264,-1.5749,-1.7103,0.63275,-1.3593,0.858,0.029737,0,0.14,0
0.023856,0.042304,0.98769,-0.77788,-1.5537,-1.6872,0.046294,0,0,1.1821,0.1735,0,0.12036,0,0,0.614,-0.06477,0,0.61679,-0.77513,-1.5565,-1.6872,3.4028,-1.3396,0.85421,0.029502,0.02,0.14,0
0.047283,0.043752,0.97544,-0.77757,-1.5472,-1.6729,0.099219,0,0,1.1639,0.16338,0,0.25797,0,0,0.60782,-0.13623,0,0.62206,-0.76498,-1.5598,-1.6729,7.229,-1.3325,0.85695,0.030432,0.04,0.14,0
0.070411,0.046275,0.96337,-0.7633,-1.5546,-1.6587,0.16952,0,0,1.1641,0.13541,0,0.44075,0,0,0.5925,-0.22424,0,0.63208,-0.72851,-1.5894,-1.6587,11.597,-1.3255,0.89755,0.036389,0.06,0.14,0
0.093845,0.050447,0.95174,-0.61944,-1.5625,-1.6063,0.22609,0,0,1.2829,0.056998,0,0.58784,0,0,0.50434,-0.34942,0,0.61011,-0.56803,-1.6139,-1.6063,12.809,-1.2627,1.0421,0.05811,0.08,0.14,0
0.12173,0.051518,0.9432,-0.54957,-1.2117,-1.0943,0.21715,0,0,0.75242,-0.25436,0,1.292,0,0,0.37377,-0.34771,0,0.53252,-0.45976,-1.3015,-1.0943,25.889,-0.95186,0.76755,0.047301,0.1,0.14,0
0.12394,0.073647,0.91114,-0.46547,-0.57756,-0.49514,0.11501,0,0,0.19285,-0.53578,0,1.4952,0,0,0.2989,-0.099415,0,0.31531,-0.39357,-0.64946,-0.49514,32.01,-0.51272,0.22317,-0.00019865,0.12,0.14,0
0.12944,0.085852,0.88342,-0.42767,-0.55688,-0.47205,0.077438,0,0,0.28847,-0.55138,0,1.0067,0,0,0.26785,-0.074257,0,0.27788,-0.39142,-0.59312,-0.47205,25.081,-0.48553,0.17584,-9.465e-05,0.14,0.14,0
0.13548,0.092698,0.85757,-0.41154,-0.54369,-0.45808,0.053022,0,0,0.30253,-0.55645,0,0.68929,0,0,0.25454,-0.054857,0,0.2603,-0.3929,-0.56233,-0.45808,19.373,-0.4711,0.14803,-6.4418e-05,0.16,0.14,0
0.14154,0.096418,0.83252,-0.40114,-0.53012,-0.44588,0.03539,0,0,0.29082,-0.54756,0,0.46007,0,0,0.24864,-0.03905,0,0.25162,-0.39207,-0.53919,-0.44588,14.378,-0.45905,0.12893,-4.9005e-05,0.18,0.14,0
0.14711,0.097804,0.80784,-0.39564,-0.51745,-0.4355,0.021001,0,0,0.25908,-0.53273,0,0.27302,0,0,0.24608,-0.025302,0,0.24732,-0.39212,-0.52097,-0.4355,9.5122,-0.44953,0.11356,-3.991e-05,0.2,0.14,0
0.15191,0.09737,0.7833,-0.39312,-0.50529,-0.42618,0.0083469,0,0,0.2149,-0.51421,0,0.10851,0,0,0.24564,-0.012452,0,0.2459,-0.39251,-0.50591,-0.42618,4.2325,-0.44153,0.10087,-3.3591e-05,0.22,0.14,0
0.15571,0.09537,0.75871,-0.39317,-0.49351,-0.41775,-0.003947,0,0,0.15974,-0.49247,0,-0.051311,0,0,0.24698,0.00048171,0,0.24692,-0.39302,-0.49367,-0.41775,-2.2492,-0.43481,0.090846,-2.9102e-05,0.24,0.14,0
0.1583,0.091876,0.7339,-0.39624,-0.482,-0.41025,-0.017167,0,0,0.091055,-0.46633,0,-0.22317,0,0,0.25041,0.014492,0,0.25076,-0.39293,-0.4853,-0.41025,-10.91,-0.4295,0.085043,-2.7226e-05,0.26,0.14,0
0.15935,0.086761,0.70863,-0.40423,-0.47084,-0.40425,-0.032589,0,0,0.00011992,-0.43287,0,-0.42365,0,0,0.25712,0.030783,0,0.25887,-0.39094,-0.48413,-0.40425,-22.188,-0.42644,0.087306,-3.1518e-05,0.28,0.14,0
0.1583,0.079734,0.68248,-0.41904,-0.45913,-0.39995,-0.052736,0,0,-0.1241,-0.38469,0,-0.68557,0,0,0.27112,0.050997,0,0.27579,-0.38267,-0.4955,-0.39995,-34.594,-0.42604,0.10526,-5.4504e-05,0.3,0.14,0
0.15439,0.069599,0.65441,-0.45406,-0.4526,-0.40288,-0.081515,0,0,-0.33268,-0.32316,0,-1.0597,0,0,0.30313,0.077611,0,0.31319,-0.37181,-0.53485,-0.40288,-45.257,-0.43651,0.14994,-0.00014837,0.32,0.14,0
0.14499,0.053836,0.62185,-0.51523,-0.81121,-0.77104,-0.16732,0,0,0.14469,-0.087028,0,-0.97364,0,0,0.38388,0.29377,0,0.50448,-0.40983,-0.91661,-0.77104,-35.31,-0.69916,0.46469,0.0089591,0.34,0.14,0
0.16018,0.052987,0.61301,-0.60075,-1.0194,-1.099,-0.18049,0,0,0.64778,0.10358,0,-0.46928,0,0,0.52926,0.26364,0,0.5878,-0.53367,-1.0864,-1.099,-20.386,-0.90639,0.55918,0.0089645,0.36,0.14,0
0.17091,0.048892,0.60068,-0.73718,-1.0017,-1.1223,-0.13982,0,0,0.50072,0.15682,0,-0.36353,0,0,0.63791,0.13748,0,0.65134,-0.67698,-1.0619,-1.1223,-23.295,-0.95375,0.41844,0.0034998,0.38,0.14,0
0.1802,0.045762,0.58749,-0.77232,-0.97625,-1.1121,-0.081954,0,0,0.44166,0.17656,0,-0.21308,0,0,0.67624,0.047846,0,0.67728,-0.74347,-1.0051,-1.1121,-19.395,-0.95355,0.32844,0.0011904,0.4,0.14,0
0.18857,0.043445,0.57363,-0.79292,-0.95589,-1.0983,-0.035589,0,0,0.39696,0.1851,0,-0.092532,0,0,0.70992,-0.024892,0,0.70998,-0.78549,-0.96333,-1.0983,-11.797,-0.94903,0.27173,0.00024192,0.42,0.14,0
0.19608,0.042039,0.55909,-0.81186,-0.93852,-1.0842,0.0062366,0,0,0.35405,0.1894,0,0.016215,0,0,0.74846,-0.089151,0,0.75359,-0.81155,-0.93882,-1.0842,2.8122,-0.94486,0.2363,-7.7771e-05,0.44,0.14,0
0.20273,0.041711,0.54369,-0.83356,-0.92492,-1.0712,0.048618,0,0,0.30898,0.19021,0,0.12641,0,0,0.80068,-0.14769,0,0.81441,-0.81253,-0.94595,-1.0712,23.392,-0.94324,0.22408,3.146e-05,0.46,0.14,0
0.20844,0.042942,0.52707,-0.86278,-0.90715,-1.058,0.10078,0,0,0.25385,0.19616,0,0.26202,0,0,0.8677,-0.19224,0,0.88966,-0.78177,-0.98816,-1.058,38.792,-0.94266,0.2488,0.00058562,0.48,0.14,0
0.21289,0.046614,0.50899,-0.91262,-0.8506,-1.0379,0.15553,0,0,0.16293,0.24356,0,0.40439,0,0,0.93904,-0.19239,0,0.95921,-0.72301,-1.0402,-1.0379,50.638,-0.93372,0.31607,0.0016214,0.5,0.14,0
0.21496,0.052588,0.48951,-0.94139,-0.67293,-0.9738,0.17871,0,0,0.04214,0.39113,0,0.46464,0,0,0.99626,-0.16096,0,1.0093,-0.58366,-1.0307,-0.9738,63.455,-0.86271,0.42146,0.0036101,0.52,0.14,0
0.21457,0.058699,0.46914,-0.97496,-0.54123,-0.92399,0.14329,0,0,-0.066262,0.49759,0,0.37256,0,0,1.0292,-0.11356,0,1.0353,-0.49817,-1.018,-0.92399,73.273,-0.8134,0.4798,0.0049466,0.54,0.14,0
0.21231,0.063343,0.44834,-0.99839,-0.48653,-0.89382,0.1014,0,0,-0.13595,0.52947,0,0.26364,0,0,1.0426,-0.084678,0,1.046,-0.46718,-1.0177,-0.89382,79.193,-0.79291,0.50026,0.0051238,0.56,0.14,0
0.20914,0.066235,0.42743,-0.99643,-0.44855,-0.86092,0.068879,0,0,-0.17615,0.53608,0,0.17908,0,0,1.047,-0.065134,0,1.049,-0.44003,-1.005,-0.86092,82.943,-0.76863,0.50845,0.0049692,0.58,0.14,0
0.20526,0.067781,0.40646,-0.9922,-0.42151,-0.83057,0.046854,0,0,-0.21011,0.53178,0,0.12182,0,0,1.0494,-0.050989,0,1.0506,-0.41769,-0.99602,-0.83057,85.338,-0.7481,0.5159,0.0046846,0.6,0.14,0
0.20073,0.068275,0.38545,-0.9894,-0.40039,-0.80239,0.03139,0,0,-0.24312,0.5226,0,0.081614,0,0,1.0512,-0.040143,0,1.0519,-0.39872,-0.99107,-0.80239,86.958,-0.73073,0.52413,0.0042949,0.62,0.14,0
0.19554,0.067951,0.36441,-0.98857,-0.38285,-0.77584,0.020185,0,0,-0.27655,0.51088,0,0.052481,0,0,1.0527,-0.031411,0,1.0532,-0.38218,-0.98924,-0.77584,88.094,-0.71576,0.5334,0.0038007,0.64,0.14,0
0.18967,0.066983,0.34335,-0.98928,-0.36762,-0.75042,0.011687,0,0,-0.31053,0.49764,0,0.030385,0,0,1.0541,-0.024058,0,1.0544,-0.3674,-0.9895,-0.75042,88.923,-0.70244,0.54354,0.0031994,0.66,0.14,0
0.18312,0.065501,0.32225,-0.99109,-0.35398,-0.72577,0.0048907,0,0,-0.34491,0.48333,0,0.012716,0,0,1.0554,-0.01758,0,1.0556,-0.35395,-0.99113,-0.72577,89.56,-0.69028,0.55438,0.0024899,0.68,0.14,0
0.17587,0.063605,0.30113,-0.99362,-0.34153,-0.70167,-0.0009041,0,0,-0.37953,0.46818,0,-0.0023507,0,0,1.0567,-0.011593,0,1.0568,-0.34153,-0.99362,-0.70167,-89.921,-0.67894,0.56575,0.0016735,0.7,0.14,0
0.16794,0.06137,0.27998,-0.99661,-0.33002,-0.67797,-0.0062183,0,0,-0.41423,0.45233,0,-0.016168,0,0,1.0579,-0.0057769,0,1.0579,-0.32997,-0.99666,-0.67797,-89.466,-0.6682,0.57756,0.00075268,0.72,0.14,0
0.1593,0.058855,0.25881,-0.99989,-0.31931,-0.65458,-0.011468,0,0,-0.44891,0.43584,0,-0.029817,0,0,1.059,0.00017437,0,1.059,-0.31912,-1.0001,-0.65458,-89.035,-0.65793,0.58976,-0.00026941,0.74,0.14,0
0.14998,0.056102,0.23762,-1.0034,-0.30934,-0.63143,-0.017016,0,0,-0.48351,0.41872,0,-0.044241,0,0,1.06,0.0065802,0,1.0601,-0.30892,-1.0038,-0.63143,-88.596,-0.64804,0.60228,-0.0013895,0.76,0.14,0
0.13996,0.053145,0.21641,-1.0069,-0.30012,-0.60852,-0.023214,0,0,-0.51789,0.40092,0,-0.060355,0,0,1.061,0.013816,0,1.0611,-0.29936,-1.0077,-0.60852,-88.121,-0.63851,0.61505,-0.0026037,0.78,0.14,0
0.12926,0.050009,0.19518,-1.0103,-0.2918,-0.58581,-0.030446,0,0,-0.55183,0.38221,0,-0.079159,0,0,1.0618,0.022369,0,1.0621,-0.29051,-1.0116,-0.58581,-87.578,-0.6293,0.62787,-0.0039055,0.8,0.14,0
0.11789,0.046716,0.17394,-1.0131,-0.28471,-0.56327,-0.039186,0,0,-0.58474,0.36213,0,-0.10189,0,0,1.0624,0.03294,0,1.0629,-0.28261,-1.0152,-0.56327,-86.929,-0.62035,0.64017,-0.0052776,0.82,0.14,0
0.10587,0.043285,0.15269,-1.0138,-0.27948,-0.54068,-0.049933,0,0,-0.6151,0.33956,0,-0.12983,0,0,1.0622,0.046634,0,1.0632,-0.2761,-1.0172,-0.54068,-86.128,-0.61133,0.65051,-0.0066654,0.84,0.14,0
0.093286,0.039758,0.13145,-1.0091,-0.27748,-0.51743,-0.063198,0,0,-0.63919,0.31193,0,-0.16431,0,0,1.0601,0.065377,0,1.0621,-0.27207,-1.0145,-0.51743,-85.099,-0.60134,0.6552,-0.0079159,0.86,0.14,0
0.080306,0.036212,0.11028,-0.98797,-0.27976,-0.4906,-0.075485,0,0,-0.64658,0.27409,0,-0.19626,0,0,1.0492,0.092685,0,1.0532,-0.27181,-0.99592,-0.4906,-83.983,-0.58611,0.64326,-0.0085299,0.88,0.14,0
0.067423,0.033194,0.089483,-0.96701,-0.30854,-0.47215,-0.078495,0,0,-0.64332,0.21269,0,-0.20409,0,0,1.0201,0.13656,0,1.0294,-0.29931,-0.97624,-0.47215,-83.295,-0.58257,0.60918,-0.0085371,0.9,0.14,0
0.054573,0.031483,0.069477,-0.94284,-0.31285,-0.44619,-0.055839,0,0,-0.64566,0.17333,0,-0.14518,0,0,0.96973,0.16295,0,0.98385,-0.30794,-0.94776,-0.44619,-84.974,-0.56729,0.58311,-0.0082858,0.92,0.14,0
0.041597,0.031262,0.050693,-0.90814,-0.25182,-0.39868,-0.038271,0,0,-0.6623,0.19092,0,-0.099504,0,0,0.90946,0.15826,0,0.92371,-0.2496,-0.91037,-0.39868,-86.674,-0.51955,0.60028,-0.0088416,0.94,0.14,0
0.028081,0.031597,0.033098,-0.89056,-0.21375,-0.36439,-0.027224,0,0,-0.68402,0.19583,0,-0.070781,0,0,0.8583,0.11217,0,0.86556,-0.21266,-0.89165,-0.36439,-87.7,-0.48957,0.61728,-0.0096635,0.96,0.14,0
0.014236,0.031805,0.016361,-0.87459,-0.18609,-0.33457,-0.015606,0,0,-0.70203,0.19301,0,-0.040576,0,0,0.82746,0.056377,0,0.82909,-0.18574,-0.87494,-0.33457,-88.702,-0.46508,0.62815,-0.010361,0.98,0.14,0
0,0.031858,0,-0.84799,-0.1535,-0.30045,0.0010263,0,0,-0.71181,0.19103,0,0.0026683,0,0,0.81806,6.9389e-18,0,0.81773,-0.15349,-0.84799,-0.30045,89.915,-0.43398,0.63392,-0.010751,1,0.14,0
0,0.044749,1,-0.72294,-1.6143,-1.7012,0.0069987,0,0,1.2717,0.11293,0,0.018197,0,0,0.55214,3.7123e-16,0,0.55161,-0.72289,-1.6144,-1.7012,0.44983,-1.3461,0.9379,0.041152,0,0.16,0
0.025434,0.045113,0.98896,-0.70406,-1.5966,-1.6791,0.04368,0,0,1.2676,0.10735,0,0.11357,0,0,0.54761,-0.059487,0,0.55027,-0.70193,-1.5987,-1.6791,2.7952,-1.3266,0.93959,0.041551,0.02,0.16,0
0.050704,0.04621,0.9781,-0.68567,-1.5951,-1.6623,0.090482,0,0,1.2697,0.087374,0,0.23525,0,0,0.53192,-0.12315,0,0.54537,-0.67675,-1.604,-1.6623,5.6269,-1.3144,0.95776,0.04456,0.04,0.16,0
0.076221,0.04798,0.96768,-0.63392,-1.6065,-1.6398,0.13319,0,0,1.3076,0.043323,0,0.3463,0,0,0.49406,-0.19538,0,0.53071,-0.61601,-1.6244,-1.6398,7.6588,-1.2934,1.0162,0.05385,0.06,0.16,0
0.10301,0.049397,0.95833,-0.58875,-1.6811,-1.6393,0.15142,0,0,1.3657,-0.05437,0,0.39369,0,0,0.42395,-0.27904,0,0.50913,-0.56815,-1.7017,-1.6393,7.7475,-1.3031,1.1037,0.068304,0.08,0.16,0
0.13085,0.048654,0.95072,-0.5079,-1.1002,-1.0529,0.11477,0,0,0.75834,-0.10251,0,0.79003,0,0,0.34726,-0.18977,0,0.4086,-0.46075,-1.1473,-1.0529,23.185,-0.88697,0.65155,0.036828,0.1,0.16,0
0.13334,0.065472,0.91932,-0.45323,-0.53296,-0.47972,0.083308,0,0,0.17221,-0.34606,0,1.083,0,0,0.30284,-0.068455,0,0.31074,-0.40074,-0.58545,-0.47972,32.213,-0.48864,0.16052,-5.2602e-05,0.12,0.16,0
0.13774,0.076299,0.89015,-0.43189,-0.53311,-0.46753,0.060347,0,0,0.23168,-0.42627,0,0.78451,0,0,0.28307,-0.059269,0,0.28928,-0.40374,-0.56126,-0.46753,25.007,-0.47751,0.13724,-4.275e-05,0.14,0.16,0
0.14261,0.082834,0.86271,-0.41903,-0.52541,-0.45587,0.042987,0,0,0.23945,-0.45195,0,0.55883,0,0,0.26949,-0.046975,0,0.27355,-0.40383,-0.54061,-0.45587,19.473,-0.46677,0.11957,-3.5111e-05,0.16,0.16,0
0.14732,0.086474,0.83625,-0.41115,-0.51624,-0.44547,0.02936,0,0,0.22307,-0.46003,0,0.38167,0,0,0.26199,-0.035065,0,0.2643,-0.40351,-0.52389,-0.44547,14.597,-0.45762,0.10584,-3.0216e-05,0.18,0.16,0
0.15153,0.088022,0.81031,-0.40624,-0.50574,-0.43566,0.01792,0,0,0.1912,-0.45555,0,0.23296,0,0,0.25844,-0.023826,0,0.2595,-0.40311,-0.50887,-0.43566,9.9044,-0.44921,0.093819,-2.585e-05,0.2,0.16,0
0.15496,0.087899,0.78457,-0.40424,-0.49451,-0.42654,0.0076245,0,0,0.14493,-0.44182,0,0.099118,0,0,0.25773,-0.012949,0,0.25801,-0.4036,-0.49515,-0.42654,4.7941,-0.44177,0.082508,-2.1508e-05,0.22,0.16,0
0.15733,0.08635,0.75877,-0.40503,-0.48258,-0.41804,-0.0022576,0,0,0.084541,-0.41955,0,-0.029349,0,0,0.25953,-0.001983,0,0.25949,-0.40497,-0.48265,-0.41804,-1.666,-0.43522,0.072042,-1.7092e-05,0.24,0.16,0
0.15835,0.083468,0.73266,-0.40896,-0.46984,-0.41017,-0.012379,0,0,0.0078774,-0.38784,0,-0.16093,0,0,0.26416,0.0095347,0,0.2643,-0.40654,-0.47226,-0.41017,-11.065,-0.42966,0.063982,-1.3306e-05,0.26,0.16,0
0.15765,0.079214,0.70593,-0.41648,-0.45575,-0.40286,-0.023441,0,0,-0.088559,-0.3438,0,-0.30474,0,0,0.27277,0.021949,0,0.27365,-0.40554,-0.46669,-0.40286,-25.026,-0.42503,0.062539,-1.2485e-05,0.28,0.16,0
0.1548,0.07331,0.67811,-0.42932,-0.44017,-0.39647,-0.036203,0,0,-0.21355,-0.28404,0,-0.47064,0,0,0.28761,0.03506,0,0.28982,-0.39814,-0.47135,-0.39647,-40.74,-0.42198,0.074063,-2.083e-05,0.3,0.16,0
0.1491,0.065137,0.64841,-0.44894,-0.41868,-0.38997,-0.051752,0,0,-0.38332,-0.18661,0,-0.67278,0,0,0.3091,0.045605,0,0.31275,-0.37989,-0.48773,-0.38997,-53.149,-0.4192,0.10317,-5.4588e-05,0.32,0.16,0
0.13947,0.053622,0.61629,-0.48991,-0.73133,-0.73615,-0.071426,0,0,0.12741,0.010435,0,-0.49353,0,0,0.35925,0.1264,0,0.38881,-0.42972,-0.79152,-0.73615,-34.819,-0.65246,0.35398,0.0049945,0.34,0.16,0
0.1542,0.053149,0.60834,-0.57182,-1.1096,-1.1128,-0.10082,0,0,0.70322,0.0041554,0,-0.26212,0,0,0.44926,0.17407,0,0.48456,-0.55354,-1.1278,-1.1128,-10.277,-0.93138,0.56691,0.0093352,0.36,0.16,0
0.1676,0.051026,0.59832,-0.622,-1.0465,-1.0989,-0.08741,0,0,0.61992,0.068097,0,-0.22727,0,0,0.5377,0.088761,0,0.54472,-0.6047,-1.0638,-1.0989,-11.192,-0.92245,0.47758,0.0054928,0.38,0.16,0
0.179,0.04851,0.58684,-0.68728,-1.0196,-1.0989,-0.051192,0,0,0.53511,0.10307,0,-0.1331,0,0,0.59678,0.012122,0,0.5965,-0.67958,-1.0273,-1.0989,-8.5613,-0.93527,0.38852,0.0026706,0.4,0.16,0
0.189,0.046552,0.57445,-0.73151,-0.99762,-1.0932,-0.0078423,0,0,0.47017,0.12424,0,-0.02039,0,0,0.63898,-0.058695,0,0.64128,-0.73128,-0.99785,-1.0932,-1.6866,-0.94077,0.3249,0.0012636,0.42,0.16,0
0.19781,0.045354,0.56128,-0.77231,-0.98191,-1.0875,0.035581,0,0,0.4098,0.13732,0,0.092509,0,0,0.68049,-0.12902,0,0.69225,-0.76644,-0.98779,-1.0875,9.3765,-0.94726,0.28465,0.00071285,0.44,0.16,0
0.20539,0.045081,0.54723,-0.81253,-0.97062,-1.0822,0.083368,0,0,0.35053,0.14502,0,0.21676,0,0,0.73763,-0.20475,0,0.76529,-0.77669,-1.0065,-1.0822,23.262,-0.95511,0.27554,0.0008072,0.46,0.16,0
0.21183,0.046375,0.53177,-0.87489,-0.98368,-1.0893,0.1477,0,0,0.27879,0.13736,0,0.38403,0,0,0.84121,-0.29267,0,0.89187,-0.77188,-1.0867,-1.0893,34.891,-0.98264,0.31614,0.0016224,0.48,0.16,0
0.21655,0.050924,0.51358,-0.95318,-0.94449,-1.0829,0.24285,0,0,0.16861,0.17991,0,0.63141,0,0,0.96385,-0.34934,0,1.0293,-0.70595,-1.1917,-1.0829,45.513,-0.99352,0.44153,0.0035316,0.5,0.16,0
0.21857,0.060796,0.49322,-0.94679,-0.54862,-0.94184,0.21211,0,0,-0.0064304,0.51118,0,0.55148,0,0,1.0518,-0.17105,0,1.0637,-0.4568,-1.0386,-0.94184,66.593,-0.81242,0.53996,0.007218,0.52,0.16,0
0.21629,0.069354,0.47151,-1.0279,-0.50431,-0.93117,0.14391,0,0,-0.12575,0.55491,0,0.37417,0,0,1.0785,-0.11458,0,1.0844,-0.46737,-1.0649,-0.93117,75.601,-0.82113,0.54313,0.0065784,0.54,0.16,0
0.21354,0.074301,0.45008,-1.0012,-0.45692,-0.88751,0.091115,0,0,-0.14778,0.55977,0,0.2369,0,0,1.0688,-0.084274,0,1.072,-0.44207,-1.016,-0.88751,80.744,-0.78187,0.52172,0.005828,0.56,0.16,0
0.21038,0.077177,0.42876,-0.98402,-0.42769,-0.85227,0.063011,0,0,-0.17128,0.55195,0,0.16383,0,0,1.0645,-0.06496,0,1.0664,-0.42064,-0.99107,-0.85227,83.618,-0.75466,0.51524,0.0053441,0.58,0.16,0
0.20669,0.078544,0.4075,-0.97597,-0.40638,-0.8222,0.044777,0,0,-0.1999,0.54058,0,0.11642,0,0,1.0621,-0.051208,0,1.0633,-0.40288,-0.97947,-0.8222,85.532,-0.73485,0.51625,0.0049185,0.6,0.16,0
0.20238,0.078804,0.38627,-0.9738,-0.38919,-0.79517,0.032238,0,0,-0.23222,0.52778,0,0.083818,0,0,1.061,-0.040686,0,1.0618,-0.38741,-0.97557,-0.79517,86.853,-0.71938,0.52189,0.0044688,0.62,0.16,0
0.1974,0.078218,0.36506,-0.97504,-0.37426,-0.76985,0.022956,0,0,-0.26675,0.51426,0,0.059685,0,0,1.0608,-0.032188,0,1.0613,-0.37339,-0.97591,-0.76985,87.815,-0.70638,0.53041,0.0039495,0.64,0.16,0
0.19171,0.076971,0.34384,-0.97827,-0.36074,-0.74555,0.015689,0,0,-0.30254,0.50024,0,0.040791,0,0,1.0611,-0.024999,0,1.0613,-0.36035,-0.97867,-0.74555,88.546,-0.69485,0.54085,0.0033369,0.66,0.16,0
0.1853,0.075198,0.32261,-0.98268,-0.34818,-0.72187,0.0096611,0,0,-0.33905,0.4858,0,0.025119,0,0,1.0617,-0.018636,0,1.0618,-0.34803,-0.98283,-0.72187,89.128,-0.68424,0.55264,0.0026191,0.68,0.16,0
0.17815,0.073001,0.30137,-0.9878,-0.33632,-0.69861,0.0043497,0,0,-0.37595,0.47097,0,0.011309,0,0,1.0626,-0.012738,0,1.0627,-0.3363,-0.98783,-0.69861,89.618,-0.67425,0.56543,0.0017903,0.7,0.16,0
0.17026,0.070455,0.28011,-0.9934,-0.32503,-0.67564,-0.00063778,0,0,-0.41309,0.45579,0,-0.0016582,0,0,1.0638,-0.0070001,0,1.0638,-0.32503,-0.9934,-0.67564,-89.945,-0.66469,0.57905,0.00084764,0.72,0.16,0
0.16163,0.067619,0.25882,-0.99938,-0.31422,-0.6529,-0.0056249,0,0,-0.45042,0.44029,0,-0.014625,0,0,1.0652,-0.0011342,0,1.0652,-0.31417,-0.99942,-0.6529,-89.53,-0.6555,0.59346,-0.00021148,0.74,0.16,0
0.15224,0.064538,0.2375,-1.0058,-0.30384,-0.63038,-0.01091,0,0,-0.488,0.42451,0,-0.028366,0,0,1.0669,0.0051635,0,1.0669,-0.30367,-1.0059,-0.63038,-89.11,-0.64667,0.60867,-0.0013911,0.76,0.16,0
0.14211,0.061243,0.21614,-1.0127,-0.29393,-0.60813,-0.016809,0,0,-0.52594,0.40847,0,-0.043702,0,0,1.069,0.012252,0,1.069,-0.29353,-1.0131,-0.60813,-88.661,-0.63825,0.62479,-0.0026985,0.78,0.16,0
0.13121,0.057758,0.19474,-1.0204,-0.28458,-0.58623,-0.023717,0,0,-0.5644,0.39215,0,-0.061665,0,0,1.0715,0.020605,0,1.0717,-0.28381,-1.0212,-0.58623,-88.156,-0.6304,0.64198,-0.0041472,0.8,0.16,0
0.11953,0.054096,0.17328,-1.0291,-0.27604,-0.56484,-0.032212,0,0,-0.60359,0.37543,0,-0.083752,0,0,1.0748,0.030921,0,1.0752,-0.27467,-1.0305,-0.56484,-87.555,-0.62334,0.66043,-0.0057585,0.82,0.16,0
0.10706,0.050263,0.15175,-1.0393,-0.26892,-0.5442,-0.043341,0,0,-0.64356,0.35787,0,-0.11269,0,0,1.0791,0.044357,0,1.08,-0.26649,-1.0417,-0.5442,-86.79,-0.61746,0.68027,-0.0075624,0.84,0.16,0
0.093788,0.046239,0.13012,-1.05,-0.26424,-0.52441,-0.058694,0,0,-0.68334,0.33821,0,-0.1526,0,0,1.0851,0.063121,0,1.0869,-0.25988,-1.0544,-0.52441,-85.752,-0.6129,0.70077,-0.0095634,0.86,0.16,0
0.079729,0.042029,0.10835,-1.0551,-0.26408,-0.5041,-0.083407,0,0,-0.71628,0.31202,0,-0.21686,0,0,1.0954,0.092283,0,1.0992,-0.25538,-1.0638,-0.5041,-84.046,-0.60776,0.71715,-0.011549,0.88,0.16,0
0.065137,0.037437,0.086302,-0.9924,-0.25363,-0.46011,-0.10719,0,0,-0.69198,0.26843,0,-0.2787,0,0,1.0698,0.14586,0,1.0781,-0.23839,-1.0076,-0.46011,-81.909,-0.56871,0.68582,-0.010918,0.9,0.16,0
0.05205,0.034623,0.065556,-0.97254,-0.35831,-0.46481,-0.12672,0,0,-0.66005,0.13845,0,-0.32947,0,0,0.98742,0.31123,0,1.0391,-0.3332,-0.99766,-0.46481,-78.789,-0.59856,0.6094,-0.0098208,0.92,0.16,0
0.038735,0.034975,0.046805,-0.9076,-0.2776,-0.40237,-0.081271,0,0,-0.65681,0.16219,0,-0.2113,0,0,0.87746,0.24203,0,0.91066,-0.26729,-0.91792,-0.40237,-82.766,-0.52919,0.59471,-0.0089525,0.94,0.16,0
0.025778,0.035286,0.030457,-0.85241,-0.23653,-0.35714,-0.057929,0,0,-0.64385,0.1568,0,-0.15062,0,0,0.79344,0.14949,0,0.8068,-0.23112,-0.85781,-0.35714,-84.673,-0.48202,0.57415,-0.0081643,0.96,0.16,0
0.012981,0.035354,0.015067,-0.82002,-0.21071,-0.32429,-0.030759,0,0,-0.64446,0.14765,0,-0.079974,0,0,0.76144,0.071448,0,0.7642,-0.20916,-0.82157,-0.32429,-87.117,-0.45167,0.56373,-0.0079232,0.98,0.16,0
0,0.035338,0,-0.79044,-0.18011,-0.29116,-0.00031177,0,0,-0.64906,0.14437,0,-0.00081061,0,0,0.75337,1.0408e-17,0,0.7528,-0.18011,-0.79044,-0.29116,-89.971,-0.42057,0.56308,-0.0079801,1,0.16,0
0,0.046372,1,-0.65583,-1.6505,-1.6919,0.0043473,0,0,1.3469,0.053805,0,0.011303,0,0,0.49662,2.0591e-15,0,0.49619,-0.65581,-1.6505,-1.6919,0.25041,-1.3328,1.016,0.05357,0,0.18,0
0.026938,0.046598,0.99007,-0.63645,-1.6352,-1.6716,0.03453,0,0,1.3457,0.047253,0,0.089778,0,0,0.49086,-0.050211,0,0.49301,-0.63526,-1.6364,-1.6716,1.9777,-1.3144,1.0192,0.054155,0.02,0.18,0
0.053826,0.047246,0.98037,-0.61389,-1.6349,-1.655,0.066732,0,0,1.3535,0.026107,0,0.1735,0,0,0.47193,-0.10153,0,0.48241,-0.60955,-1.6393,-1.655,3.7236,-1.3013,1.0377,0.057343,0.04,0.18,0
0.081076,0.048008,0.97119,-0.58165,-1.6515,-1.6411,0.089182,0,0,1.3773,-0.013449,0,0.23187,0,0,0.43661,-0.15333,0,0.46286,-0.57427,-1.6589,-1.6411,4.7327,-1.2914,1.0758,0.063894,0.06,0.18,0
0.10892,0.048272,0.9629,-0.54739,-1.6688,-1.6278,0.089925,0,0,1.4045,-0.05335,0,0.2338,0,0,0.38344,-0.19609,0,0.43164,-0.54022,-1.676,-1.6278,4.5557,-1.2813,1.1124,0.070254,0.08,0.18,0
0.13725,0.047418,0.95585,-0.48225,-1.0603,-1.0363,0.077307,0,0,0.76747,-0.052012,0,0.55569,0,0,0.33133,-0.13082,0,0.36449,-0.45079,-1.0917,-1.0363,21.959,-0.8596,0.62043,0.035917,0.1,0.18,0
0.13962,0.059804,0.92483,-0.44887,-0.51036,-0.47274,0.061842,0,0,0.15515,-0.24459,0,0.80395,0,0,0.30288,-0.047179,0,0.30663,-0.41055,-0.54868,-0.47274,31.781,-0.47732,0.11982,-1.5154e-05,0.12,0.18,0
0.14346,0.068801,0.89528,-0.43259,-0.51562,-0.46352,0.047502,0,0,0.20104,-0.33867,0,0.61752,0,0,0.28933,-0.044753,0,0.29284,-0.41102,-0.53719,-0.46352,24.423,-0.47058,0.10978,-1.9416e-05,0.14,0.18,0
0.14766,0.07462,0.86696,-0.42239,-0.51225,-0.45378,0.034612,0,0,0.20407,-0.38001,0,0.44995,0,0,0.27874,-0.038258,0,0.28137,-0.4106,-0.52403,-0.45378,18.805,-0.46281,0.099162,-1.9996e-05,0.16,0.18,0
0.15162,0.078017,0.83953,-0.41602,-0.50522,-0.44428,0.02413,0,0,0.1837,-0.39613,0,0.31368,0,0,0.27179,-0.030295,0,0.27346,-0.40991,-0.51133,-0.44428,14.207,-0.45517,0.089341,-1.9201e-05,0.18,0.18,0
0.15501,0.079582,0.81261,-0.41233,-0.49626,-0.4351,0.015276,0,0,0.14798,-0.39755,0,0.19859,0,0,0.2682,-0.02196,0,0.26908,-0.40964,-0.49896,-0.4351,10.001,-0.4479,0.079697,-1.7335e-05,0.2,0.18,0
0.15754,0.079697,0.78589,-0.41098,-0.48579,-0.42621,0.0074086,0,0,0.098975,-0.38728,0,0.096312,0,0,0.26748,-0.013532,0,0.2678,-0.41026,-0.48652,-0.42621,5.6018,-0.44099,0.069668,-1.4344e-05,0.22,0.18,0
0.15897,0.078588,0.75911,-0.41204,-0.47399,-0.41763,4.9198e-05,0,0,0.036321,-0.36633,0,0.00063957,0,0,0.26946,-0.0050183,0,0.26949,-0.41204,-0.47399,-0.41763,0.045505,-0.43456,0.059349,-1.0416e-05,0.24,0.18,0
0.159,0.076363,0.73199,-0.41564,-0.46074,-0.40931,-0.0071887,0,0,-0.041142,-0.33427,0,-0.093453,0,0,0.27434,0.0035797,0,0.27436,-0.41453,-0.46186,-0.40931,-8.8415,-0.42857,0.050142,-6.2398e-06,0.26,0.18,0
0.15732,0.073009,0.70424,-0.42217,-0.44579,-0.40124,-0.014662,0,0,-0.13608,-0.28958,0,-0.19061,0,0,0.28264,0.011995,0,0.28292,-0.41515,-0.4528,-0.40124,-25.577,-0.42306,0.04621,-3.5612e-06,0.28,0.18,0
0.15355,0.068372,0.67547,-0.43226,-0.42808,-0.3932,-0.022775,0,0,-0.2539,-0.22677,0,-0.29607,0,0,0.29477,0.019149,0,0.29547,-0.4073,-0.45304,-0.3932,-47.618,-0.41785,0.054187,-6.3432e-06,0.3,0.18,0
0.14716,0.062135,0.64529,-0.4476,-0.4051,-0.38487,-0.030828,0,0,-0.40778,-0.13152,0,-0.40077,0,0,0.31021,0.02239,0,0.31114,-0.38891,-0.4638,-0.38487,-62.289,-0.41253,0.076986,-2.3217e-05,0.32,0.18,0
0.13724,0.054253,0.61342,-0.47112,-0.70963,-0.72228,-0.036808,0,0,0.12805,0.027415,0,-0.27253,0,0,0.34382,0.058727,0,0.35175,-0.42323,-0.75752,-0.72228,-36.977,-0.63434,0.33534,0.0047805,0.34,0.18,0
0.15229,0.053153,0.60604,-0.53424,-1.099,-1.096,-0.038255,0,0,0.7303,-0.0038695,0,-0.099463,0,0,0.40736,0.075354,0,0.4159,-0.53166,-1.1016,-1.096,-3.8576,-0.90975,0.56715,0.0093665,0.36,0.18,0
0.16645,0.051616,0.59713,-0.5747,-1.0857,-1.0952,-0.031123,0,0,0.6767,0.012457,0,-0.080919,0,0,0.47596,0.029194,0,0.47731,-0.57281,-1.0875,-1.0952,-3.4728,-0.91853,0.51862,0.0071591,0.38,0.18,0
0.17935,0.049885,0.58701,-0.62045,-1.0589,-1.0908,-0.0063077,0,0,0.61146,0.041499,0,-0.0164,0,0,0.52878,-0.029621,0,0.52944,-0.62036,-1.059,-1.0908,-0.82408,-0.92338,0.45537,0.0047698,0.4,0.18,0
0.19091,0.048414,0.57598,-0.66677,-1.0397,-1.0879,0.030311,0,0,0.5475,0.062677,0,0.07881,0,0,0.56878,-0.093097,0,0.57593,-0.66433,-1.0422,-1.0879,4.6165,-0.93147,0.40267,0.0032078,0.42,0.18,0
0.20125,0.047531,0.56425,-0.7119,-1.0284,-1.0863,0.075957,0,0,0.48676,0.075376,0,0.19749,0,0,0.60241,-0.16375,0,0.62362,-0.69461,-1.0456,-1.0863,12.822,-0.94219,0.37304,0.0025595,0.44,0.18,0
0.21038,0.047512,0.55188,-0.77323,-1.0354,-1.0945,0.13084,0,0,0.41761,0.076791,0,0.34019,0,0,0.63702,-0.25014,0,0.68325,-0.71911,-1.0895,-1.0945,22.473,-0.9677,0.37292,0.002662,0.46,0.18,0
0.21796,0.048437,0.53877,-0.86474,-1.077,-1.1213,0.23229,0,0,0.33351,0.057601,0,0.60396,0,0,0.72311,-0.37333,0,0.80974,-0.71548,-1.2263,-1.1213,32.724,-1.021,0.46722,0.0043603,0.48,0.18,0
0.22372,0.053811,0.52296,-0.7816,-0.8486,-0.80283,0.28744,0,0,-0.075105,-0.22089,0,1.5546,0,0,0.6184,-0.36806,0,0.72607,-0.52561,-1.1046,-0.80283,42.07,-0.81101,0.50401,0.00080615,0.5,0.18,0
0.21859,0.073036,0.49635,-0.75655,-0.47691,-0.66785,0.19262,0,0,-0.19219,0.017133,0,1.148,0,0,0.73862,-0.14107,0,0.75712,-0.35048,-0.88298,-0.66785,54.116,-0.63377,0.47423,0.0057802,0.52,0.18,0
0.21604,0.080895,0.47372,-0.66925,-0.43618,-0.61586,0.1021,0,0,-0.11567,0.013801,0,0.71774,0,0,0.66958,-0.10206,0,0.68154,-0.3606,-0.74483,-0.61586,56.316,-0.57376,0.35187,0.0032321,0.54,0.18,0
0.21396,0.085734,0.45171,-0.63701,-0.40641,-0.58405,0.073343,0,0,-0.11474,0.011409,0,0.54047,0,0,0.65536,-0.077635,0,0.66285,-0.34632,-0.6971,-0.58405,56.714,-0.54249,0.32427,0.0028842,0.56,0.18,0
0.21145,0.088313,0.43003,-0.62982,-0.3915,-0.56441,0.054311,0,0,-0.14172,0.01034,0,0.41569,0,0,0.64801,-0.061379,0,0.65289,-0.34302,-0.6783,-0.56441,57.093,-0.52858,0.3095,0.0026327,0.58,0.18,0
0.20829,0.089404,0.40851,-0.62836,-0.3785,-0.54716,0.04157,0,0,-0.17593,0.010236,0,0.32645,0,0,0.6442,-0.049299,0,0.64742,-0.33877,-0.66809,-0.54716,57.281,-0.51801,0.30297,0.0024516,0.6,0.18,0
0.20441,0.089386,0.38708,-0.62963,-0.36672,-0.53115,0.031974,0,0,-0.21337,0.010635,0,0.25711,0,0,0.64211,-0.039782,0,0.64425,-0.33437,-0.66197,-0.53115,57.452,-0.50917,0.30067,0.0022523,0.62,0.18,0
0.19976,0.088521,0.3657,-0.63208,-0.35545,-0.51568,0.024381,0,0,-0.2522,0.011202,0,0.20094,0,0,0.64102,-0.031933,0,0.64242,-0.32963,-0.65789,-0.51568,57.676,-0.50107,0.30129,0.0020121,0.64,0.18,0
0.19432,0.086992,0.34435,-0.63509,-0.34452,-0.50049,0.018075,0,0,-0.29164,0.011754,0,0.15354,0,0,0.64059,-0.025192,0,0.64147,-0.32467,-0.65494,-0.50049,58.037,-0.49337,0.30408,0.0017181,0.66,0.18,0
0.18809,0.084933,0.323,-0.63836,-0.33382,-0.48545,0.012604,0,0,-0.33131,0.01219,0,0.11196,0,0,0.64061,-0.019165,0,0.64112,-0.31957,-0.65261,-0.48545,58.671,-0.48588,0.30862,0.0013645,0.68,0.18,0
0.18107,0.082444,0.30164,-0.64175,-0.3233,-0.4705,0.0076379,0,0,-0.37104,0.012479,0,0.07399,0,0,0.64099,-0.013545,0,0.64125,-0.31438,-0.65067,-0.4705,59.943,-0.47852,0.31468,0.00094829,0.7,0.18,0
0.17325,0.079602,0.28026,-0.64521,-0.31293,-0.4556,0.0029184,0,0,-0.41082,0.012639,0,0.037842,0,0,0.64169,-0.0080654,0,0.64178,-0.30909,-0.64905,-0.4556,63.575,-0.47125,0.32215,0.00046749,0.72,0.18,0
0.16464,0.076467,0.25886,-0.6488,-0.30269,-0.44076,-0.0017789,0,0,-0.45075,0.012738,0,0.0019469,0,0,0.6427,-0.0024742,0,0.6427,-0.30253,-0.64896,-0.44076,-6.2702,-0.46408,0.33098,-8.0451e-05,0.74,0.18,0
0.15522,0.073082,0.23742,-0.65263,-0.29257,-0.42601,-0.0066663,0,0,-0.49101,0.012887,0,-0.035182,0,0,0.64406,0.0034956,0,0.64407,-0.2921,-0.65311,-0.42601,-82.977,-0.45707,0.34119,-0.00069997,0.76,0.18,0
0.145,0.069484,0.21592,-0.65691,-0.28258,-0.4114,-0.01197,0,0,-0.53194,0.013259,0,-0.075111,0,0,0.64587,0.010154,0,0.64599,-0.281,-0.65848,-0.4114,-80.162,-0.45029,0.35289,-0.0013991,0.78,0.18,0
0.13394,0.065696,0.19436,-0.66194,-0.27273,-0.39702,-0.017967,0,0,-0.574,0.014105,0,-0.1197,0,0,0.6483,0.017898,0,0.64869,-0.26974,-0.66493,-0.39702,-78.755,-0.44389,0.36634,-0.0021926,0.8,0.18,0
0.12204,0.061733,0.1727,-0.66826,-0.26311,-0.38304,-0.025067,0,0,-0.618,0.015804,0,-0.17154,0,0,0.65168,0.02729,0,0.65259,-0.25833,-0.67305,-0.38304,-77.697,-0.43814,0.38203,-0.0031076,0.82,0.18,0
0.10922,0.0576,0.15091,-0.67703,-0.25409,-0.36989,-0.033912,0,0,-0.66548,0.018949,0,-0.23451,0,0,0.65664,0.03923,0,0.65852,-0.24693,-0.68419,-0.36989,-76.726,-0.43367,0.4009,-0.0042023,0.84,0.18,0
0.095416,0.053286,0.12893,-0.69057,-0.24621,-0.35839,-0.046109,0,0,-0.71973,0.024461,0,-0.31683,0,0,0.66483,0.055321,0,0.66844,-0.23564,-0.70114,-0.35839,-75.677,-0.43173,0.4253,-0.0056086,0.86,0.18,0
0.080434,0.048693,0.10659,-0.71992,-0.24605,-0.35375,-0.063423,0,0,-0.79338,0.033608,0,-0.42719,0,0,0.67915,0.079472,0,0.68612,-0.23063,-0.73535,-0.35375,-74.702,-0.43991,0.46048,-0.0078416,0.88,0.18,0
0.063681,0.043931,0.083648,-0.78365,-0.25439,-0.3616,-0.105,0,0,-0.91444,0.047472,0,-0.6357,0,0,0.74345,0.11813,0,0.75593,-0.22692,-0.81112,-0.3616,-72.665,-0.46655,0.53249,-0.012777,0.9,0.18,0
0.043856,0.037021,0.057027,-0.69433,-0.34222,-0.34518,-0.17118,0,0,-0.85037,-0.050319,0,-0.92605,0,0,0.62186,0.33072,0,0.70884,-0.27152,-0.76503,-0.34518,-66.081,-0.46058,0.46118,-0.0084531,0.92,0.18,0
0.032482,0.03775,0.041012,-0.80402,-0.31755,-0.37748,-0.14201,0,0,-0.55449,0.07791,0,-0.36922,0,0,0.74771,0.30206,0,0.80176,-0.27913,-0.84244,-0.37748,-74.861,-0.49968,0.52114,-0.0064051,0.94,0.18,0
0.021677,0.037869,0.027119,-0.74633,-0.27299,-0.33292,-0.089846,0,0,-0.53744,0.077902,0,-0.2336,0,0,0.68772,0.17326,0,0.70779,-0.25651,-0.76281,-0.33292,-79.606,-0.45075,0.47275,-0.0049522,0.96,0.18,0
0.010985,0.037711,0.013503,-0.71955,-0.2444,-0.30269,-0.044625,0,0,-0.54192,0.075774,0,-0.11603,0,0,0.67797,0.08029,0,0.6818,-0.24025,-0.72371,-0.30269,-84.681,-0.42221,0.45546,-0.0045466,0.98,0.18,0
0,0.037633,0,-0.69627,-0.21634,-0.27378,-0.0014959,0,0,-0.54923,0.074675,0,-0.0038893,0,0,0.67517,6.9389e-18,0,0.67437,-0.21634,-0.69627,-0.27378,-89.821,-0.39547,0.45395,-0.0045461,1,0.18,0
0,0.046902,1,-0.60162,-1.6795,-1.6844,0.0019581,0,0,1.4075,0.0062569,0,0.0050911,0,0,0.45172,1.1258e-15,0,0.45143,-0.60162,-1.6795,-1.6844,0.10408,-1.3218,1.0803,0.064754,0,0.2,0
0.028151,0.047003,0.99097,-0.58431,-1.6649,-1.6657,0.023402,0,0,1.4059,0.0010351,0,0.060847,0,0,0.44608,-0.039461,0,0.44756,-0.5838,-1.6655,-1.6657,1.24,-1.305,1.0818,0.065022,0.02,0.2,0
0.056235,0.047254,0.98216,-0.56845,-1.6627,-1.6515,0.043373,0,0,1.408,-0.014566,0,0.11277,0,0,0.42881,-0.078062,0,0.43574,-0.56673,-1.6644,-1.6515,2.2663,-1.2942,1.0913,0.066717,0.04,0.2,0
0.08447,0.047442,0.97381,-0.54627,-1.6644,-1.637,0.054759,0,0,1.418,-0.035594,0,0.14237,0,0,0.3995,-0.1132,0,0.41542,-0.54359,-1.6671,-1.637,2.7971,-1.2826,1.1087,0.069832,0.06,0.2,0
0.11295,0.047263,0.96618,-0.52325,-1.659,-1.6208,0.056286,0,0,1.4269,-0.049563,0,0.14634,0,0,0.35924,-0.14017,0,0.38624,-0.52047,-1.6618,-1.6208,2.8303,-1.2677,1.1214,0.0721,0.08,0.2,0
0.14154,0.046574,0.95944,-0.47362,-1.052,-1.0333,0.052522,0,0,0.77913,-0.040398,0,0.391,0,0,0.32175,-0.091997,0,0.33953,-0.45342,-1.0722,-1.0333,20.195,-0.85299,0.60385,0.035947,0.1,0.2,0
0.14412,0.055688,0.92876,-0.44484,-0.49672,-0.46822,0.045906,0,0,0.15195,-0.18522,0,0.59678,0,0,0.30169,-0.033876,0,0.30364,-0.41805,-0.52351,-0.46822,30.267,-0.46993,0.09136,-3.2884e-06,0.12,0.2,0
0.14762,0.062752,0.89911,-0.43259,-0.50324,-0.46057,0.036914,0,0,0.18186,-0.27734,0,0.47988,0,0,0.29199,-0.03355,0,0.29395,-0.41682,-0.51901,-0.46057,23.131,-0.46547,0.088798,-8.8418e-06,0.14,0.2,0
0.15139,0.067634,0.87036,-0.4239,-0.50218,-0.45189,0.027802,0,0,0.18198,-0.32683,0,0.36143,0,0,0.28395,-0.030463,0,0.2856,-0.41503,-0.51104,-0.45189,17.694,-0.45932,0.083896,-1.1799e-05,0.16,0.2,0
0.1549,0.070629,0.84231,-0.41843,-0.4969,-0.44306,0.019906,0,0,0.1601,-0.34997,0,0.25878,0,0,0.27829,-0.025694,0,0.27947,-0.41367,-0.50167,-0.44306,13.45,-0.4528,0.077591,-1.2908e-05,0.18,0.2,0
0.1578,0.072119,0.8147,-0.4154,-0.48905,-0.43427,0.013267,0,0,0.12271,-0.35603,0,0.17247,0,0,0.27521,-0.020117,0,0.27593,-0.41308,-0.49137,-0.43427,9.9059,-0.44624,0.070134,-1.2415e-05,0.2,0.2,0
0.15981,0.072408,0.78727,-0.41444,-0.47928,-0.42557,0.0075369,0,0,0.072352,-0.34912,0,0.09798,0,0,0.27467,-0.014201,0,0.27503,-0.41358,-0.48015,-0.42557,6.5436,-0.43976,0.061457,-1.0407e-05,0.22,0.2,0
0.16069,0.071697,0.75977,-0.4155,-0.46781,-0.41695,0.0023921,0,0,0.0094112,-0.3306,0,0.031097,0,0,0.27664,-0.0082048,0,0.27675,-0.41539,-0.46792,-0.41695,2.6128,-0.43342,0.051767,-7.1034e-06,0.24,0.2,0
0.16019,0.070097,0.73194,-0.41868,-0.45461,-0.40837,-0.0024347,0,0,-0.066964,-0.30052,0,-0.031652,0,0,0.28117,-0.0023908,0,0.28118,-0.41851,-0.45477,-0.40837,-3.8589,-0.42722,0.042251,-3.1347e-06,0.26,0.2,0
0.15801,0.067631,0.70354,-0.42421,-0.43936,-0.39978,-0.0071632,0,0,-0.15882,-0.25727,0,-0.093122,0,0,0.28834,0.0027565,0,0.28838,-0.42136,-0.44221,-0.39978,-21.703,-0.42112,0.036748,7.6308e-08,0.28,0.2,0
0.15383,0.064239,0.67428,-0.43264,-0.42125,-0.39102,-0.011754,0,0,-0.27051,-0.19649,0,-0.1528,0,0,0.298,0.00632,0,0.29812,-0.41389,-0.44001,-0.39102,-57.923,-0.41497,0.042452,-4.5136e-07,0.3,0.2,0
0.14719,0.059876,0.64394,-0.44412,-0.39823,-0.38149,-0.015399,0,0,-0.40708,-0.10881,0,-0.20019,0,0,0.30952,0.0071154,0,0.30967,-0.39354,-0.44881,-0.38149,-73.066,-0.40795,0.062173,-1.0797e-05,0.32,0.2,0
0.13755,0.054719,0.61237,-0.46405,-0.71578,-0.72137,-0.013229,0,0,0.14168,0.012115,0,-0.11453,0,0,0.33391,0.012493,0,0.33495,-0.42443,-0.75541,-0.72137,-40.029,-0.63374,0.33212,0.0051115,0.34,0.2,0
0.15286,0.052994,0.60533,-0.51025,-1.101,-1.0887,-0.0024335,0,0,0.752,-0.016019,0,-0.006327,0,0,0.38058,0.0063892,0,0.38164,-0.51024,-1.1011,-1.0887,-0.236,-0.9,0.58474,0.010253,0.36,0.2,0
0.16763,0.051525,0.59715,-0.53782,-1.1031,-1.0894,0.012046,0,0,0.71711,-0.017818,0,0.03132,0,0,0.43272,-0.024945,0,0.43383,-0.53756,-1.1034,-1.0894,1.2202,-0.91013,0.55899,0.0089521,0.38,0.2,0
0.18154,0.05017,0.58802,-0.56917,-1.091,-1.0861,0.033386,0,0,0.67196,-0.0063681,0,0.086804,0,0,0.47449,-0.06858,0,0.47934,-0.56704,-1.0931,-1.0861,3.6462,-0.91539,0.52256,0.0073246,0.4,0.2,0
0.19451,0.049059,0.57817,-0.59913,-1.0773,-1.0811,0.064961,0,0,0.62656,0.0049224,0,0.1689,0,0,0.50486,-0.12173,0,0.51892,-0.59047,-1.086,-1.0811,7.6001,-0.91919,0.4931,0.0061558,0.42,0.2,0
0.20661,0.048369,0.56783,-0.62193,-1.0705,-1.0756,0.10618,0,0,0.58971,0.0065734,0,0.27608,0,0,0.52344,-0.18551,0,0.55459,-0.59806,-1.0944,-1.0756,12.667,-0.92266,0.48717,0.0059084,0.44,0.2,0
0.2181,0.048152,0.55723,-0.62316,-1.076,-1.067,0.16161,0,0,0.57698,-0.011761,0,0.42018,0,0,0.52805,-0.26703,0,0.59032,-0.5714,-1.1278,-1.067,17.758,-0.92206,0.52862,0.0072493,0.46,0.2,0
0.22969,0.048679,0.5467,-0.51041,-1.0842,-1.0251,0.20222,0,0,0.66909,-0.076876,0,0.52577,0,0,0.45987,-0.38508,0,0.59648,-0.4463,-1.1483,-1.0251,17.588,-0.87325,0.64924,0.012366,0.48,0.2,0
0.24486,0.045741,0.53884,-0.45611,-0.8638,-0.71927,0.19146,0,0,0.19302,-0.31313,0,1.141,0,0,0.34631,-0.36369,0,0.52364,-0.35457,-0.96534,-0.71927,31.071,-0.67973,0.54076,0.0090829,0.5,0.2,0
0.23741,0.061482,0.50891,-0.39515,-0.42173,-0.34685,0.1064,0,0,-0.314,-0.48674,0,1.3833,0,0,0.27884,-0.10868,0,0.29962,-0.30121,-0.51567,-0.34685,41.441,-0.38791,0.19568,-0.00031539,0.52,0.2,0
0.2323,0.069906,0.48307,-0.36349,-0.40219,-0.32632,0.079457,0,0,-0.24164,-0.49314,0,1.033,0,0,0.24915,-0.086575,0,0.26373,-0.30106,-0.46462,-0.32632,38.158,-0.364,0.15251,-0.00016545,0.54,0.2,0
0.22774,0.074757,0.45908,-0.34751,-0.38985,-0.31302,0.062317,0,0,-0.22416,-0.49937,0,0.81013,0,0,0.23561,-0.069878,0,0.24571,-0.30286,-0.43449,-0.31302,35.618,-0.35013,0.12686,-0.00010258,0.56,0.2,0
0.22334,0.077591,0.43595,-0.33631,-0.37787,-0.30144,0.049963,0,0,-0.22666,-0.49675,0,0.64951,0,0,0.2288,-0.056951,0,0.23574,-0.30298,-0.4112,-0.30144,33.71,-0.33854,0.109,-6.6462e-05,0.58,0.2,0
0.21868,0.078953,0.41332,-0.32904,-0.36677,-0.29141,0.040195,0,0,-0.24463,-0.48986,0,0.52254,0,0,0.22478,-0.046652,0,0.22954,-0.30351,-0.39231,-0.29141,32.429,-0.32907,0.095429,-4.2226e-05,0.6,0.2,0
0.21355,0.079229,0.39099,-0.32388,-0.35606,-0.28218,0.032289,0,0,-0.27106,-0.48022,0,0.41976,0,0,0.22226,-0.038193,0,0.2255,-0.3039,-0.37605,-0.28218,31.757,-0.32071,0.085113,-2.4853e-05,0.62,0.2,0
0.20783,0.078667,0.36886,-0.32002,-0.34558,-0.27345,0.025672,0,0,-0.30268,-0.46883,0,0.33373,0,0,0.22067,-0.031035,0,0.22283,-0.30412,-0.36148,-0.27345,31.766,-0.31302,0.07739,-1.1825e-05,0.64,0.2,0
0.20144,0.077441,0.34686,-0.31699,-0.33523,-0.26504,0.01997,0,0,-0.33766,-0.45627,0,0.25961,0,0,0.2197,-0.024786,0,0.22108,-0.30415,-0.34807,-0.26504,32.723,-0.30575,0.071944,-1.9093e-06,0.66,0.2,0
0.19433,0.075686,0.32492,-0.31454,-0.32497,-0.25684,0.014902,0,0,-0.37505,-0.44288,0,0.19373,0,0,0.21919,-0.019141,0,0.22001,-0.30397,-0.33554,-0.25684,35.352,-0.29878,0.068603,5.5417e-06,0.68,0.2,0
0.18644,0.0735,0.30302,-0.31255,-0.31477,-0.2488,0.010244,0,0,-0.41435,-0.42881,0,0.13317,0,0,0.21906,-0.013847,0,0.21949,-0.30335,-0.32396,-0.2488,41.902,-0.29204,0.067269,1.083e-05,0.7,0.2,0
0.17775,0.07096,0.28111,-0.31095,-0.3046,-0.24089,0.0058071,0,0,-0.45541,-0.41413,0,0.075492,0,0,0.21928,-0.0086768,0,0.21944,-0.30116,-0.31439,-0.24089,59.335,-0.28548,0.067863,1.4015e-05,0.72,0.2,0
0.16822,0.068129,0.25916,-0.30976,-0.29445,-0.23309,0.0014265,0,0,-0.4983,-0.39879,0,0.018544,0,0,0.21985,-0.0034115,0,0.21986,-0.29431,-0.30989,-0.23309,84.722,-0.2791,0.070313,1.4944e-05,0.74,0.2,0
0.15782,0.065053,0.23714,-0.30901,-0.28428,-0.22542,-0.0030525,0,0,-0.54337,-0.38263,0,-0.039682,0,0,0.22079,0.0021775,0,0.22079,-0.28391,-0.30938,-0.22542,-83.066,-0.27291,0.074568,1.3222e-05,0.76,0.2,0
0.14649,0.061773,0.21501,-0.30884,-0.27409,-0.21788,-0.0077823,0,0,-0.59125,-0.36538,0,-0.10117,0,0,0.2222,0.0083488,0,0.22234,-0.27243,-0.31051,-0.21788,-77.936,-0.26694,0.080637,8.1366e-06,0.78,0.2,0
0.13417,0.058322,0.1927,-0.30948,-0.26385,-0.21054,-0.012926,0,0,-0.64311,-0.34652,0,-0.16804,0,0,0.22424,0.015416,0,0.22475,-0.26044,-0.31289,-0.21054,-75.233,-0.26129,0.088644,-1.5374e-06,0.8,0.2,0
0.12076,0.054729,0.17016,-0.31134,-0.25353,-0.20349,-0.01867,0,0,-0.70099,-0.32526,0,-0.24271,0,0,0.22719,0.023786,0,0.22841,-0.24803,-0.31684,-0.20349,-73.569,-0.25612,0.098912,-1.7934e-05,0.82,0.2,0
0.10613,0.051021,0.14726,-0.3152,-0.24315,-0.19696,-0.025256,0,0,-0.76858,-0.30025,0,-0.32832,0,0,0.23164,0.034024,0,0.23409,-0.23518,-0.32317,-0.19696,-72.484,-0.25177,0.1121,-4.5019e-05,0.84,0.2,0
0.090022,0.047218,0.12383,-0.32274,-0.23291,-0.19146,-0.032901,0,0,-0.85331,-0.26943,0,-0.42771,0,0,0.23886,0.046971,0,0.24339,-0.22215,-0.3335,-0.19146,-71.888,-0.24904,0.12945,-9.0658e-05,0.86,0.2,0
0.071998,0.043373,0.099491,-0.33625,-0.22287,-0.18764,-0.042134,0,0,-0.96601,-0.22905,0,-0.54775,0,0,0.2527,0.063886,0,0.26061,-0.20893,-0.3502,-0.18764,-71.689,-0.24892,0.15303,-0.0001721,0.88,0.2,0
0.051381,0.039336,0.07329,-0.36258,-0.21665,-0.18843,-0.05407,0,0,-1.132,-0.18346,0,-0.70291,0,0,0.28304,0.086726,0,0.29634,-0.1988,-0.38043,-0.18843,-71.73,-0.25589,0.18703,-0.00033255,0.9,0.2,0
0.026718,0.034313,0.042884,-0.38689,-0.27009,-0.22282,-0.10877,0,0,-0.70656,-0.10241,0,-0.61805,0,0,0.35606,0.30696,0,0.49043,-0.19638,-0.4606,-0.22282,-61.12,-0.29327,0.25248,-0.00082805,0.92,0.2,0
0.023119,0.038091,0.034723,-0.46166,-0.30477,-0.26465,-0.11424,0,0,-0.25612,-0.052148,0,-0.29702,0,0,0.48392,0.29267,0,0.56201,-0.24463,-0.5218,-0.26465,-62.239,-0.34369,0.26772,-0.00096692,0.94,0.2,0
0.016473,0.038402,0.023527,-0.56083,-0.2979,-0.28114,-0.089355,0,0,-0.36359,-0.021779,0,-0.23232,0,0,0.57167,0.16939,0,0.59473,-0.27041,-0.58832,-0.28114,-72.898,-0.37996,0.31268,-0.0015639,0.96,0.2,0
0.0085753,0.038385,0.011856,-0.58961,-0.28028,-0.27282,-0.04453,0,0,-0.41182,-0.009696,0,-0.11578,0,0,0.58818,0.078731,0,0.59243,-0.274,-0.59589,-0.27282,-81.969,-0.38091,0.32248,-0.0017224,0.98,0.2,0
0,0.038325,0,-0.58086,-0.25593,-0.25104,-0.0011571,0,0,-0.42876,-0.0063657,0,-0.0030086,0,0,0.59279,3.4694e-18,0,0.59192,-0.25593,-0.58086,-0.25104,-89.796,-0.36261,0.3274,-0.0018012,1,0.2,0
0,0.046622,1,-0.56257,-1.6997,-1.6787,0.00033053,0,0,1.4509,-0.027339,0,0.00085937,0,0,0.4177,-8.6736e-16,0,0.41752,-0.56257,-1.6997,-1.6787,0.016654,-1.3137,1.1268,0.073389,0,0.22,0
0.029019,0.04664,0.99165,-0.54816,-1.685,-1.6616,0.014195,0,0,1.4475,-0.030416,0,0.036907,0,0,0.41279,-0.029118,0,0.41368,-0.54799,-1.6852,-1.6616,0.71527,-1.2982,1.1256,0.073132,0.02,0.22,0
0.057898,0.046664,0.98349,-0.53764,-1.6777,-1.6481,0.025839,0,0,1.4436,-0.038481,0,0.067182,0,0,0.3982,-0.056767,0,0.4022,-0.53706,-1.6783,-1.6481,1.2977,-1.2878,1.1264,0.073229,0.04,0.22,0
0.086762,0.046585,0.97572,-0.52327,-1.67,-1.6337,0.032654,0,0,1.4436,-0.047214,0,0.0849,0,0,0.3745,-0.080881,0,0.38331,-0.52234,-1.6709,-1.6337,1.6297,-1.2757,1.1304,0.073924,0.06,0.22,0
0.11564,0.04629,0.96851,-0.50775,-1.6556,-1.6175,0.035155,0,0,1.4427,-0.049542,0,0.091402,0,0,0.34331,-0.09873,0,0.35762,-0.50668,-1.6567,-1.6175,1.7525,-1.2603,1.1309,0.073993,0.08,0.22,0
0.14447,0.045802,0.96199,-0.46755,-1.0514,-1.0329,0.036082,0,0,0.79173,-0.040158,0,0.27439,0,0,0.31496,-0.064644,0,0.32426,-0.45522,-1.0637,-1.0329,17.946,-0.85062,0.59589,0.036607,0.1,0.22,0
0.14731,0.052395,0.93161,-0.44155,-0.48922,-0.46555,0.033329,0,0,0.15602,-0.15384,0,0.43328,0,0,0.3,-0.024468,0,0.30102,-0.42441,-0.50636,-0.46555,27.214,-0.46544,0.070972,1.3001e-07,0.12,0.22,0
0.15071,0.057707,0.90199,-0.43166,-0.49473,-0.45831,0.027905,0,0,0.17325,-0.23671,0,0.36276,0,0,0.29275,-0.02524,0,0.29385,-0.42109,-0.50531,-0.45831,20.752,-0.46157,0.073098,-3.9947e-06,0.14,0.22,0
0.15424,0.061547,0.87306,-0.42425,-0.49478,-0.45032,0.021835,0,0,0.16946,-0.28897,0,0.28386,0,0,0.28659,-0.02416,0,0.28762,-0.41803,-0.50099,-0.45032,15.883,-0.45645,0.072426,-7.2708e-06,0.16,0.22,0
0.15749,0.064018,0.84467,-0.41931,-0.49076,-0.44195,0.016308,0,0,0.14717,-0.31722,0,0.212,0,0,0.28214,-0.021754,0,0.28298,-0.41577,-0.4943,-0.44195,12.269,-0.45067,0.069261,-9.2085e-06,0.18,0.22,0
0.16013,0.06534,0.81663,-0.41655,-0.48388,-0.43346,0.011654,0,0,0.10987,-0.32777,0,0.1515,0,0,0.27969,-0.018548,0,0.28031,-0.41459,-0.48584,-0.43346,9.5475,-0.44463,0.06394,-9.5908e-06,0.2,0.22,0
0.16188,0.065732,0.78873,-0.41568,-0.4748,-0.42489,0.007797,0,0,0.059839,-0.3244,0,0.10136,0,0,0.2794,-0.01495,0,0.27979,-0.41467,-0.47581,-0.42489,7.389,-0.43846,0.056721,-8.3567e-06,0.22,0.22,0
0.16252,0.065364,0.76075,-0.4166,-0.46378,-0.41626,0.0045467,0,0,-0.0022019,-0.30884,0,0.059108,0,0,0.28127,-0.011276,0,0.2815,-0.41617,-0.46421,-0.41626,5.4554,-0.43221,0.047995,-5.6782e-06,0.24,0.22,0
0.1618,0.064342,0.73247,-0.41934,-0.45082,-0.40754,0.0017264,0,0,-0.076667,-0.28132,0,0.022444,0,0,0.2853,-0.0078493,0,0.28542,-0.41924,-0.45092,-0.40754,3.1292,-0.4259,0.038868,-2.12e-06,0.26,0.22,0
0.15945,0.062718,0.70369,-0.42405,-0.43569,-0.39866,-0.00074701,0,0,-0.16503,-0.24069,0,-0.0097111,0,0,0.29136,-0.0051086,0,0.29142,-0.424,-0.43573,-0.39866,-3.6568,-0.41946,0.032822,1.0644e-06,0.28,0.22,0
0.15519,0.060512,0.6742,-0.43088,-0.41774,-0.38943,-0.0027038,0,0,-0.26942,-0.18406,0,-0.035149,0,0,0.29913,-0.0036424,0,0.29919,-0.41721,-0.43141,-0.38943,-78.809,-0.41268,0.036988,1.3671e-06,0.3,0.22,0
0.14868,0.057783,0.64386,-0.43976,-0.3962,-0.37956,-0.0034168,0,0,-0.39131,-0.10817,0,-0.044418,0,0,0.30805,-0.0040941,0,0.30812,-0.39594,-0.44003,-0.37956,-85.542,-0.40518,0.054169,-5.7187e-06,0.32,0.22,0
0.13954,0.054738,0.61259,-0.45715,-0.72982,-0.72365,0.0024659,0,0,0.16376,-0.013374,0,-0.0029772,0,0,0.32643,-0.020816,0,0.32776,-0.42299,-0.76398,-0.72365,-43.928,-0.63687,0.33895,0.0057739,0.34,0.22,0
0.15523,0.052513,0.60579,-0.49159,-1.1141,-1.0875,0.020251,0,0,0.77469,-0.034624,0,0.052654,0,0,0.36159,-0.045123,0,0.365,-0.49094,-1.1148,-1.0875,1.8612,-0.89775,0.61068,0.011618,0.36,0.22,0
0.17053,0.050903,0.59813,-0.50845,-1.1198,-1.0866,0.039393,0,0,0.75161,-0.043171,0,0.10242,0,0,0.40099,-0.067373,0,0.40687,-0.50592,-1.1223,-1.0866,3.6716,-0.90496,0.59935,0.010925,0.38,0.22,0
0.18529,0.04963,0.58975,-0.52556,-1.1155,-1.0821,0.060023,0,0,0.72346,-0.043464,0,0.15606,0,0,0.432,-0.099805,0,0.44332,-0.51951,-1.1216,-1.0821,5.751,-0.90771,0.5833,0.010035,0.4,0.22,0
0.19947,0.048611,0.58085,-0.53811,-1.1087,-1.0749,0.085337,0,0,0.69781,-0.043939,0,0.22188,0,0,0.45185,-0.14126,0,0.47309,-0.52562,-1.1212,-1.0749,8.3267,-0.90723,0.57381,0.009491,0.42,0.22,0
0.2132,0.047794,0.57168,-0.53793,-1.1067,-1.0651,0.11529,0,0,0.68526,-0.054095,0,0.29975,0,0,0.45711,-0.1922,0,0.49532,-0.51545,-1.1292,-1.0651,11.034,-0.90322,0.58429,0.0098307,0.44,0.22,0
0.22688,0.047042,0.56256,-0.50669,-1.1145,-1.0489,0.14114,0,0,0.70492,-0.0853,0,0.36695,0,0,0.43745,-0.25487,0,0.50562,-0.47552,-1.1457,-1.0489,12.454,-0.89006,0.62744,0.011675,0.46,0.22,0
0.2414,0.045362,0.55418,-0.47881,-1.1726,-1.0496,0.14497,0,0,0.74203,-0.1599,0,0.37693,0,0,0.38398,-0.33133,0,0.50808,-0.44974,-1.2017,-1.0496,11.34,-0.90034,0.68862,0.014053,0.48,0.22,0
0.25656,0.041286,0.54721,-0.42098,-0.77237,-0.68633,0.10665,0,0,0.2088,-0.18642,0,0.73478,0,0,0.31991,-0.21979,0,0.4036,-0.36017,-0.83318,-0.68633,29.176,-0.62656,0.42995,0.0071566,0.5,0.22,0
0.24975,0.053566,0.51809,-0.38347,-0.38933,-0.33546,0.080089,0,0,-0.31207,-0.35018,0,1.0412,0,0,0.28086,-0.079198,0,0.29206,-0.30625,-0.46654,-0.33546,43.952,-0.36942,0.14786,-0.00014445,0.52,0.22,0
0.24408,0.06117,0.49103,-0.36614,-0.38504,-0.32356,0.063578,0,0,-0.27678,-0.3996,0,0.82652,0,0,0.262,-0.071589,0,0.27169,-0.31131,-0.43987,-0.32356,40.774,-0.35825,0.12289,-9.2129e-05,0.54,0.22,0
0.23868,0.065759,0.46569,-0.35413,-0.37678,-0.31241,0.051617,0,0,-0.27118,-0.41839,0,0.67103,0,0,0.24808,-0.061149,0,0.25551,-0.31261,-0.4183,-0.31241,38.813,-0.34777,0.10579,-6.0807e-05,0.56,0.22,0
0.23323,0.068444,0.44142,-0.34503,-0.36814,-0.30223,0.042309,0,0,-0.27815,-0.42841,0,0.55002,0,0,0.23923,-0.051475,0,0.2447,-0.31273,-0.40044,-0.30223,37.36,-0.33847,0.093407,-4.0082e-05,0.58,0.22,0
0.22756,0.06981,0.41784,-0.33776,-0.35896,-0.29258,0.034631,0,0,-0.29363,-0.43144,0,0.4502,0,0,0.23349,-0.043054,0,0.23741,-0.31214,-0.38457,-0.29258,36.49,-0.32976,0.08394,-2.4906e-05,0.6,0.22,0
0.22149,0.070177,0.39472,-0.33216,-0.34957,-0.28346,0.028087,0,0,-0.31652,-0.42969,0,0.36513,0,0,0.22965,-0.035791,0,0.23241,-0.31146,-0.37027,-0.28346,36.39,-0.32173,0.076738,-1.3228e-05,0.62,0.22,0
0.2149,0.069768,0.37191,-0.3278,-0.34001,-0.27473,0.02242,0,0,-0.345,-0.42436,0,0.29146,0,0,0.22708,-0.029463,0,0.22897,-0.31067,-0.35714,-0.27473,37.384,-0.31418,0.07157,-4.1247e-06,0.64,0.22,0
0.20769,0.068741,0.3493,-0.3244,-0.33033,-0.26628,0.017419,0,0,-0.3778,-0.4163,0,0.22644,0,0,0.22542,-0.023837,0,0.22667,-0.3097,-0.34503,-0.26628,40.175,-0.307,0.068322,2.8919e-06,0.66,0.22,0
0.19978,0.067218,0.32682,-0.32176,-0.32052,-0.25805,0.012907,0,0,-0.41413,-0.40605,0,0.16779,0,0,0.22448,-0.018696,0,0.22525,-0.30822,-0.33406,-0.25805,46.378,-0.30011,0.066943,8.0286e-06,0.68,0.22,0
0.19112,0.065291,0.30441,-0.31977,-0.31059,-0.24999,0.0087324,0,0,-0.45355,-0.39393,0,0.11352,0,0,0.22413,-0.013845,0,0.22455,-0.30532,-0.32504,-0.24999,58.854,-0.29345,0.067392,1.1297e-05,0.7,0.22,0
0.18164,0.063037,0.282,-0.31837,-0.30056,-0.24208,0.0047601,0,0,-0.4959,-0.38011,0,0.061881,0,0,0.22433,-0.0090992,0,0.22451,-0.29936,-0.31956,-0.24208,75.941,-0.287,0.069619,1.2538e-05,0.72,0.22,0
0.17128,0.060515,0.25954,-0.31758,-0.2904,-0.2343,0.00087089,0,0,-0.54131,-0.36462,0,0.011322,0,0,0.22509,-0.0042794,0,0.22512,-0.29037,-0.31761,-0.2343,88.167,-0.28076,0.073571,1.1406e-05,0.74,0.22,0
0.15999,0.057777,0.23698,-0.31745,-0.28011,-0.22667,-0.0030382,0,0,-0.59012,-0.34739,0,-0.039496,0,0,0.22645,0.00080063,0,0.22644,-0.27986,-0.3177,-0.22667,-85.379,-0.27474,0.079211,7.334e-06,0.76,0.22,0
0.14768,0.054869,0.21425,-0.31812,-0.26968,-0.21919,-0.0070514,0,0,-0.64306,-0.32817,0,-0.091669,0,0,0.22853,0.0063423,0,0.22861,-0.26867,-0.31913,-0.21919,-81.884,-0.269,0.08655,-5.6115e-07,0.78,0.22,0
0.13427,0.051835,0.19128,-0.31981,-0.25908,-0.21192,-0.011226,0,0,-0.70129,-0.30652,0,-0.14594,0,0,0.23154,0.01257,0,0.23187,-0.25707,-0.32182,-0.21192,-79.856,-0.2636,0.095678,-1.3632e-05,0.8,0.22,0
0.11963,0.048723,0.16794,-0.32288,-0.24827,-0.20493,-0.015579,0,0,-0.76663,-0.2817,0,-0.20253,0,0,0.23583,0.019733,0,0.23665,-0.24515,-0.326,-0.20493,-78.666,-0.25869,0.1068,-3.3982e-05,0.82,0.22,0
0.1036,0.04559,0.14411,-0.32786,-0.23722,-0.19835,-0.020038,0,0,-0.84183,-0.2527,0,-0.2605,0,0,0.24207,0.028081,0,0.24369,-0.23299,-0.33209,-0.19835,-78.073,-0.25448,0.12023,-6.49e-05,0.84,0.22,0
0.085955,0.042509,0.11953,-0.3353,-0.22582,-0.19224,-0.024433,0,0,-0.92987,-0.21827,0,-0.31763,0,0,0.25147,0.037759,0,0.25431,-0.22062,-0.34051,-0.19224,-77.973,-0.25112,0.13631,-0.00011131,0.86,0.22,0
0.066406,0.039531,0.093814,-0.34573,-0.21429,-0.18677,-0.028458,0,0,-1.0333,-0.17889,0,-0.36995,0,0,0.26614,0.048382,0,0.2706,-0.20839,-0.35163,-0.18677,-78.293,-0.24893,0.15518,-0.00017942,0.88,0.22,0
0.044625,0.036592,0.066303,-0.35841,-0.202,-0.18138,-0.032618,0,0,-1.1507,-0.13401,0,-0.42403,0,0,0.28625,0.056588,0,0.29208,-0.19547,-0.36494,-0.18138,-78.68,-0.24727,0.17693,-0.00027841,0.9,0.22,0
0.020379,0.032925,0.036563,-0.37192,-0.23596,-0.2043,-0.037833,0,0,-0.70282,-0.068596,0,-0.27073,0,0,0.33014,0.15436,0,0.37459,-0.22488,-0.383,-0.2043,-74.452,-0.27073,0.17013,-0.00024615,0.92,0.22,0
0.016512,0.035664,0.029306,-0.4225,-0.35676,-0.26308,-0.055949,0,0,-0.20724,-0.12178,0,-0.14547,0,0,0.40549,0.2212,0,0.46365,-0.32474,-0.45452,-0.26308,-60.217,-0.34745,0.16925,-0.00014222,0.94,0.22,0
0.01209,0.036997,0.020343,-0.44741,-0.32986,-0.25352,-0.052447,0,0,-0.25205,-0.099232,0,-0.13636,0,0,0.47379,0.13976,0,0.49332,-0.30986,-0.46741,-0.25352,-69.129,-0.3436,0.19202,-0.00026088,0.96,0.22,0
0.0064301,0.037323,0.010354,-0.48149,-0.31399,-0.249,-0.031082,0,0,-0.30224,-0.084485,0,-0.080814,0,0,0.50858,0.067148,0,0.51226,-0.3084,-0.48707,-0.249,-79.82,-0.34816,0.21463,-0.00037969,0.98,0.22,0
0,0.037379,0,-0.4787,-0.2926,-0.23139,0.0010658,0,0,-0.3215,-0.079573,0,0.0027712,0,0,0.5177,2.0817e-17,0,0.51697,-0.29259,-0.47871,-0.23139,89.672,-0.33423,0.2231,-0.00042894,1,0.22,0
0,0.045808,1,-0.53672,-1.7121,-1.6746,-0.00040904,0,0,1.4793,-0.048647,0,-0.0010635,0,0,0.39349,-1.4745e-17,0,0.3934,-0.53672,-1.7121,-1.6746,-0.01994,-1.3078,1.1571,0.079282,0,0.24,0
0.029586,0.045787,0.99213,-0.52429,-1.6968,-1.6585,0.007775,0,0,1.4744,-0.049849,0,0.020215,0,0,0.38931,-0.019964,0,0.38976,-0.52424,-1.6968,-1.6585,0.37991,-1.2932,1.1539,0.078615,0.02,0.24,0
0.058977,0.045715,0.98443,-0.51754,-1.686,-1.6455,0.014274,0,0,1.4664,-0.052695,0,0.037113,0,0,0.37705,-0.03869,0,0.37905,-0.51736,-1.6862,-1.6455,0.69977,-1.283,1.149,0.077585,0.04,0.24,0
0.08824,0.045554,0.97705,-0.50815,-1.6734,-1.6315,0.018544,0,0,1.4604,-0.054486,0,0.048213,0,0,0.35754,-0.054767,0,0.36186,-0.50785,-1.6737,-1.6315,0.91145,-1.271,1.1454,0.076817,0.06,0.24,0
0.11739,0.045282,0.97013,-0.49752,-1.6563,-1.6163,0.021476,0,0,1.4544,-0.052006,0,0.055837,0,0,0.33238,-0.066668,0,0.33928,-0.49712,-1.6567,-1.6163,1.0614,-1.2567,1.1399,0.075746,0.08,0.24,0
0.14641,0.044967,0.96375,-0.46316,-1.0537,-1.0333,0.024002,0,0,0.80379,-0.044188,0,0.18536,0,0,0.30982,-0.043857,0,0.3143,-0.4565,-1.0604,-1.0333,14.822,-0.85006,0.59203,0.037372,0.1,0.24,0
0.14954,0.049535,0.93365,-0.43856,-0.48505,-0.46381,0.023158,0,0,0.16417,-0.13806,0,0.30105,0,0,0.298,-0.017386,0,0.29852,-0.42899,-0.49462,-0.46381,22.444,-0.46248,0.056871,9.9914e-07,0.12,0.24,0
0.15298,0.053284,0.90415,-0.43022,-0.48943,-0.45672,0.020056,0,0,0.1723,-0.21259,0,0.26073,0,0,0.2923,-0.018859,0,0.29292,-0.42406,-0.49558,-0.45672,17.057,-0.45879,0.062018,-1.8305e-06,0.14,0.24,0
0.15644,0.056075,0.87519,-0.42366,-0.48978,-0.44907,0.016401,0,0,0.16519,-0.26464,0,0.21322,0,0,0.28744,-0.019162,0,0.28809,-0.41981,-0.49363,-0.44907,13.192,-0.45417,0.064382,-4.7936e-06,0.16,0.24,0
0.15959,0.05794,0.84667,-0.41908,-0.48659,-0.44104,0.012989,0,0,0.14268,-0.29611,0,0.16886,0,0,0.2839,-0.018554,0,0.28451,-0.41667,-0.489,-0.44104,10.524,-0.4489,0.063743,-7.0513e-06,0.18,0.24,0
0.16214,0.059009,0.81841,-0.41641,-0.48052,-0.43276,0.010175,0,0,0.1063,-0.31045,0,0.13228,0,0,0.28201,-0.017334,0,0.28254,-0.41483,-0.4821,-0.43276,8.8046,-0.44323,0.060335,-8.0127e-06,0.2,0.24,0
0.16384,0.059432,0.79026,-0.41546,-0.4721,-0.42432,0.0080123,0,0,0.057565,-0.31054,0,0.10416,0,0,0.28194,-0.015779,0,0.28238,-0.41435,-0.47321,-0.42432,7.8997,-0.43729,0.054559,-7.4113e-06,0.22,0.24,0
0.16445,0.059344,0.76202,-0.41615,-0.46158,-0.41572,0.0064276,0,0,-0.0027743,-0.29804,0,0.083559,0,0,0.28374,-0.014144,0,0.28409,-0.41526,-0.46247,-0.41572,7.9006,-0.43115,0.046979,-5.3234e-06,0.24,0.24,0
0.16373,0.058845,0.73352,-0.41844,-0.44899,-0.40693,0.0053339,0,0,-0.074796,-0.2734,0,0.06934,0,0,0.28734,-0.012692,0,0.28763,-0.41754,-0.4499,-0.40693,9.6232,-0.42479,0.038767,-2.2549e-06,0.26,0.24,0
0.16145,0.058003,0.70456,-0.42237,-0.43419,-0.39788,0.0047161,0,0,-0.15918,-0.23601,0,0.06131,0,0,0.29255,-0.011735,0,0.2928,-0.42072,-0.43584,-0.39788,19.294,-0.41814,0.0331,6.3942e-07,0.28,0.24,0
0.15736,0.056877,0.67501,-0.42791,-0.41685,-0.38843,0.0047427,0,0,-0.2566,-0.18475,0,0.061655,0,0,0.29902,-0.011636,0,0.29927,-0.41509,-0.42966,-0.38843,69.685,-0.41106,0.036218,1.1773e-06,0.3,0.24,0
0.15119,0.055549,0.64475,-0.43482,-0.39678,-0.37843,0.0058612,0,0,-0.36653,-0.11927,0,0.076196,0,0,0.30623,-0.012757,0,0.30651,-0.3959,-0.4357,-0.37843,81.437,-0.40334,0.050841,-4.1624e-06,0.32,0.24,0
0.1427,0.054184,0.61376,-0.45069,-0.74723,-0.72763,0.0134,0,0,0.19025,-0.042453,0,0.078229,0,0,0.32063,-0.046135,0,0.32547,-0.42047,-0.77745,-0.72763,41.847,-0.64185,0.35044,0.0065683,0.34,0.24,0
0.1588,0.051609,0.60713,-0.47651,-1.1335,-1.0901,0.033758,0,0,0.79771,-0.056377,0,0.087771,0,0,0.3479,-0.084416,0,0.35837,-0.47478,-1.1352,-1.0901,2.9337,-0.90005,0.6391,0.013182,0.36,0.24,0
0.17461,0.049798,0.59984,-0.48514,-1.1376,-1.0867,0.05463,0,0,0.78197,-0.066181,0,0.14204,0,0,0.37804,-0.099873,0,0.39118,-0.4806,-1.1421,-1.0867,4.7535,-0.90312,0.6356,0.01285,0.38,0.24,0
0.19008,0.048431,0.59201,-0.49169,-1.136,-1.0803,0.073382,0,0,0.76523,-0.072423,0,0.19079,0,0,0.4006,-0.12263,0,0.41891,-0.48344,-1.1443,-1.0803,6.4157,-0.90269,0.63131,0.012476,0.4,0.24,0
0.20522,0.047302,0.58382,-0.49283,-1.1325,-1.0714,0.091804,0,0,0.75218,-0.079434,0,0.23869,0,0,0.41246,-0.15205,0,0.4394,-0.47992,-1.1455,-1.0714,8.0073,-0.89893,0.63178,0.012354,0.42,0.24,0
0.22017,0.046205,0.57551,-0.48323,-1.1315,-1.0599,0.10746,0,0,0.74972,-0.093047,0,0.27938,0,0,0.40984,-0.18759,0,0.45048,-0.46588,-1.1489,-1.0599,9.1704,-0.89156,0.64314,0.012787,0.44,0.24,0
0.23521,0.04474,0.56743,-0.46573,-1.141,-1.0494,0.11351,0,0,0.75883,-0.11901,0,0.29514,0,0,0.38892,-0.2276,0,0.45061,-0.44716,-1.1596,-1.0494,9.2915,-0.88539,0.66423,0.013667,0.46,0.24,0
0.25052,0.042283,0.55996,-0.44453,-1.1476,-1.0376,0.10024,0,0,0.77099,-0.14302,0,0.26063,0,0,0.34841,-0.26257,0,0.43688,-0.43051,-1.1616,-1.0376,7.9578,-0.87658,0.67766,0.014196,0.48,0.24,0
0.26605,0.038284,0.55349,-0.40065,-0.73511,-0.67282,0.079147,0,0,0.21624,-0.13496,0,0.5628,0,0,0.30539,-0.16864,0,0.36102,-0.35171,-0.78404,-0.67282,29.381,-0.60286,0.40054,0.0070385,0.5,0.24,0
0.25917,0.047475,0.52475,-0.38034,-0.37251,-0.3308,0.063161,0,0,-0.32197,-0.27108,0,0.8211,0,0,0.28051,-0.059145,0,0.28678,-0.31314,-0.4397,-0.3308,46.773,-0.36122,0.11872,-7.9571e-05,0.52,0.24,0
0.25317,0.053922,0.49739,-0.36699,-0.37266,-0.32137,0.052,0,0,-0.2965,-0.33339,0,0.67601,0,0,0.2672,-0.056881,0,0.27327,-0.31775,-0.4219,-0.32137,43.438,-0.35368,0.10239,-5.4901e-05,0.54,0.24,0
0.24731,0.058021,0.47131,-0.35744,-0.36745,-0.31173,0.042585,0,0,-0.29713,-0.36221,0,0.55361,0,0,0.25573,-0.051206,0,0.26084,-0.31957,-0.40533,-0.31173,41.647,-0.34554,0.089933,-3.6403e-05,0.56,0.24,0
0.24128,0.060455,0.44624,-0.34986,-0.36039,-0.30232,0.035136,0,0,-0.30899,-0.37744,0,0.45677,0,0,0.24689,-0.044633,0,0.2509,-0.3196,-0.39065,-0.30232,40.738,-0.33753,0.081086,-2.3248e-05,0.58,0.24,0
0.23495,0.061695,0.42193,-0.34353,-0.35251,-0.2932,0.028939,0,0,-0.32719,-0.3855,0,0.37621,0,0,0.24046,-0.038277,0,0.24349,-0.31873,-0.3773,-0.2932,40.595,-0.32975,0.074688,-1.327e-05,0.6,0.24,0
0.2282,0.062042,0.39815,-0.33825,-0.34405,-0.28432,0.023598,0,0,-0.35055,-0.38823,0,0.30677,0,0,0.23586,-0.032458,0,0.23807,-0.31737,-0.36492,-0.28432,41.499,-0.32221,0.070181,-5.4225e-06,0.62,0.24,0
0.22093,0.061692,0.37476,-0.33395,-0.3352,-0.2757,0.018894,0,0,-0.37865,-0.38676,0,0.24562,0,0,0.23262,-0.027198,0,0.2342,-0.31567,-0.35348,-0.2757,44.054,-0.31495,0.06737,7.5653e-07,0.64,0.24,0
0.21305,0.060789,0.35163,-0.33052,-0.32603,-0.26729,0.01469,0,0,-0.41098,-0.38183,0,0.19097,0,0,0.23047,-0.022408,0,0.23155,-0.31342,-0.34314,-0.26729,49.34,-0.30795,0.066195,5.4245e-06,0.66,0.24,0
0.20449,0.059444,0.32866,-0.32788,-0.3166,-0.25908,0.01087,0,0,-0.44721,-0.37392,0,0.14132,0,0,0.22918,-0.017965,0,0.22988,-0.31,-0.33449,-0.25908,58.706,-0.30119,0.066629,8.5646e-06,0.68,0.24,0
0.19516,0.057743,0.30579,-0.32597,-0.30693,-0.25103,0.0073333,0,0,-0.48711,-0.36336,0,0.095333,0,0,0.22866,-0.013738,0,0.22907,-0.30443,-0.32846,-0.25103,71.195,-0.29464,0.068652,1.0014e-05,0.7,0.24,0
0.185,0.055756,0.28293,-0.32476,-0.29703,-0.24312,0.0039865,0,0,-0.53065,-0.35038,0,0.051825,0,0,0.22885,-0.0095938,0,0.22904,-0.29646,-0.32532,-0.24312,81.98,-0.2883,0.072232,9.465e-06,0.72,0.24,0
0.17394,0.053544,0.26002,-0.32427,-0.28691,-0.23536,0.00075216,0,0,-0.57793,-0.33508,0,0.009778,0,0,0.22974,-0.0054024,0,0.2298,-0.28689,-0.32429,-0.23536,88.847,-0.28218,0.077338,6.4447e-06,0.74,0.24,0
0.16189,0.051158,0.23698,-0.32455,-0.27659,-0.22774,-0.0024279,0,0,-0.62928,-0.31752,0,-0.031563,0,0,0.23141,-0.0010298,0,0.23141,-0.27646,-0.32467,-0.22774,-87.11,-0.27629,0.083949,2.8091e-07,0.76,0.24,0
0.14877,0.048647,0.21374,-0.32569,-0.26606,-0.22027,-0.005582,0,0,-0.6852,-0.29764,0,-0.072566,0,0,0.23397,0.0036595,0,0.234,-0.26554,-0.32621,-0.22027,-84.697,-0.27067,0.092063,-9.9544e-06,0.78,0.24,0
0.13448,0.046061,0.19019,-0.32782,-0.25534,-0.21299,-0.0086947,0,0,-0.74641,-0.27531,0,-0.11303,0,0,0.23763,0.0087962,0,0.23779,-0.25431,-0.32885,-0.21299,-83.254,-0.26538,0.1017,-2.552e-05,0.8,0.24,0
0.11891,0.043461,0.16621,-0.33111,-0.24442,-0.2059,-0.011686,0,0,-0.81384,-0.25039,0,-0.15192,0,0,0.2427,0.01448,0,0.24314,-0.24288,-0.33266,-0.2059,-82.455,-0.26048,0.1129,-4.8078e-05,0.82,0.24,0
0.10192,0.040913,0.14165,-0.3357,-0.23331,-0.19903,-0.014404,0,0,-0.88834,-0.22279,0,-0.18725,0,0,0.24967,0.020708,0,0.25054,-0.23132,-0.33769,-0.19903,-82.143,-0.25601,0.12566,-7.9682e-05,0.84,0.24,0
0.083375,0.038487,0.11628,-0.34162,-0.22206,-0.19236,-0.016643,0,0,-0.9702,-0.19304,0,-0.21636,0,0,0.25916,0.027186,0,0.26063,-0.21978,-0.34389,-0.19236,-82.221,-0.25201,0.13985,-0.00012248,0.86,0.24,0
0.063116,0.036218,0.089815,-0.34866,-0.21073,-0.18578,-0.018386,0,0,-1.0587,-0.16217,0,-0.23902,0,0,0.27153,0.032834,0,0.27359,-0.20832,-0.35107,-0.18578,-82.536,-0.24839,0.15525,-0.0001786,0.88,0.24,0
0.041027,0.033975,0.061973,-0.35757,-0.19944,-0.1795,-0.01962,0,0,-1.1575,-0.12963,0,-0.25506,0,0,0.28611,0.035104,0,0.28837,-0.19704,-0.35997,-0.1795,-83.032,-0.24551,0.17237,-0.00025386,0.9,0.24,0
0.016817,0.031569,0.032594,-0.35937,-0.23286,-0.19722,-0.019649,0,0,-0.69499,-0.077205,0,-0.15277,0,0,0.31487,0.095991,0,0.33462,-0.22944,-0.36279,-0.19722,-80.177,-0.26315,0.15423,-0.00017727,0.92,0.24,0
0.013227,0.03322,0.025875,-0.38713,-0.33898,-0.24371,-0.020241,0,0,-0.18645,-0.12386,0,-0.052626,0,0,0.36642,0.13961,0,0.39318,-0.3316,-0.39451,-0.24371,-69.971,-0.32327,0.13119,3.2739e-05,0.94,0.24,0
0.009359,0.034432,0.017937,-0.40213,-0.34864,-0.24317,-0.022448,0,0,-0.20665,-0.13711,0,-0.058365,0,0,0.41762,0.099351,0,0.42937,-0.34047,-0.4103,-0.24317,-69.995,-0.33131,0.14539,4.42e-05,0.96,0.24,0
0.0049614,0.035006,0.0091699,-0.41493,-0.33766,-0.23494,-0.015134,0,0,-0.23398,-0.13353,0,-0.039348,0,0,0.44842,0.049959,0,0.45082,-0.3348,-0.41779,-0.23494,-79.304,-0.32918,0.15857,3.2554e-05,0.98,0.24,0
0,0.035142,0,-0.40974,-0.31999,-0.21892,0.0026212,0,0,-0.24807,-0.13139,0,0.006815,0,0,0.45849,1.3878e-17,0,0.45803,-0.31992,-0.40982,-0.21892,88.329,-0.31622,0.16542,2.3342e-05,1,0.24,0
0,0.044677,1,-0.52107,-1.7185,-1.6719,-0.00059358,0,0,1.496,-0.06059,0,-0.0015433,0,0,0.37777,2.174e-15,0,0.37773,-0.52107,-1.7185,-1.6719,-0.028403,-1.3038,1.1748,0.082831,0,0.26,0
0.029921,0.044646,0.99245,-0.50984,-1.703,-1.6563,0.0035574,0,0,1.4904,-0.060736,0,0.0092493,0,0,0.3741,-0.011959,0,0.37428,-0.50983,-1.703,-1.6563,0.17082,-1.2897,1.1705,0.08193,0.02,0.26,0
0.059616,0.044556,0.98504,-0.50523,-1.6905,-1.6438,0.0067349,0,0,1.4801,-0.060789,0,0.017511,0,0,0.3634,-0.023178,0,0.36418,-0.50519,-1.6906,-1.6438,0.32554,-1.2798,1.1627,0.080283,0.04,0.26,0
0.089124,0.044405,0.97791,-0.49867,-1.676,-1.6303,0.0092992,0,0,1.4711,-0.059357,0,0.024178,0,0,0.34653,-0.032888,0,0.34821,-0.4986,-1.676,-1.6303,0.45254,-1.2683,1.1552,0.078767,0.06,0.26,0
0.11846,0.04421,0.97118,-0.49079,-1.6584,-1.6159,0.01188,0,0,1.4627,-0.055225,0,0.030889,0,0,0.32498,-0.040333,0,0.32769,-0.49067,-1.6585,-1.6159,0.58289,-1.255,1.1472,0.077174,0.08,0.26,0
0.14763,0.044034,0.96491,-0.45971,-1.0564,-1.0338,0.014493,0,0,0.81437,-0.049029,0,0.11305,0,0,0.30577,-0.026949,0,0.30756,-0.45693,-1.0592,-1.0338,10.528,-0.84996,0.5906,0.038062,0.1,0.26,0
0.15104,0.046873,0.93508,-0.43584,-0.4829,-0.46264,0.014506,0,0,0.17421,-0.13171,0,0.18858,0,0,0.29576,-0.011675,0,0.296,-0.43172,-0.48701,-0.46264,15.826,-0.46046,0.047992,1.153e-06,0.12,0.26,0
0.1546,0.049204,0.90576,-0.42841,-0.48651,-0.45563,0.013036,0,0,0.17694,-0.20076,0,0.16947,0,0,0.29097,-0.013695,0,0.2913,-0.42562,-0.4893,-0.45563,12.082,-0.45685,0.055187,-8.5866e-07,0.14,0.26,0
0.15811,0.050962,0.87689,-0.42237,-0.48696,-0.44818,0.011314,0,0,0.16775,-0.2521,0,0.14708,0,0,0.2869,-0.015084,0,0.2873,-0.42045,-0.48889,-0.44818,9.6532,-0.4525,0.059625,-3.4984e-06,0.16,0.26,0
0.16131,0.052174,0.84838,-0.418,-0.48429,-0.44036,0.0097787,0,0,0.14533,-0.2855,0,0.12712,0,0,0.28397,-0.015952,0,0.28441,-0.41659,-0.4857,-0.44036,8.2197,-0.44755,0.060812,-5.8862e-06,0.18,0.26,0
0.16393,0.052922,0.8201,-0.41532,-0.47884,-0.43227,0.0086714,0,0,0.11014,-0.30271,0,0.11273,0,0,0.28247,-0.01644,0,0.28295,-0.41416,-0.48,-0.43227,7.6361,-0.44214,0.058913,-7.2539e-06,0.2,0.26,0
0.16572,0.053311,0.79188,-0.41424,-0.47099,-0.42395,0.0080783,0,0,0.063101,-0.3058,0,0.10502,0,0,0.28259,-0.016691,0,0.28308,-0.41311,-0.47212,-0.42395,7.9452,-0.43639,0.054406,-7.1779e-06,0.22,0.26,0
0.16645,0.053442,0.76358,-0.41465,-0.46098,-0.41541,0.0080029,0,0,0.0048726,-0.29621,0,0.10404,0,0,0.28436,-0.016848,0,0.28486,-0.41331,-0.46232,-0.41541,9.5312,-0.43034,0.047995,-5.6419e-06,0.24,0.26,0
0.16591,0.053406,0.73501,-0.41652,-0.44884,-0.40661,0.0084275,0,0,-0.064398,-0.2745,0,0.10956,0,0,0.28771,-0.017064,0,0.28822,-0.41445,-0.45091,-0.40661,13.77,-0.42399,0.040943,-3.0935e-06,0.26,0.26,0
0.16387,0.053277,0.70604,-0.41978,-0.4345,-0.39749,0.0093602,0,0,-0.14488,-0.24054,0,0.12168,0,0,0.29241,-0.01751,0,0.29295,-0.41523,-0.43904,-0.39749,25.914,-0.41725,0.036114,-6.0427e-07,0.28,0.26,0
0.16012,0.053122,0.67653,-0.42431,-0.41781,-0.38794,0.010881,0,0,-0.23642,-0.19413,0,0.14145,0,0,0.29811,-0.018378,0,0.29869,-0.40971,-0.43242,-0.38794,53.322,-0.41002,0.03852,-1.0877e-07,0.3,0.26,0
0.15442,0.053012,0.64641,-0.42981,-0.39885,-0.37788,0.013175,0,0,-0.33756,-0.13629,0,0.17128,0,0,0.30431,-0.019862,0,0.30497,-0.394,-0.43466,-0.37788,69.801,-0.40218,0.05068,-4.4759e-06,0.32,0.26,0
0.14661,0.05304,0.61567,-0.44481,-0.76493,-0.73232,0.021017,0,0,0.21768,-0.070653,0,0.1379,0,0,0.31629,-0.066388,0,0.326,-0.41735,-0.79238,-0.73232,37.81,-0.64735,0.3637,0.0073849,0.34,0.26,0
0.16312,0.050258,0.60917,-0.46479,-1.155,-1.0951,0.041147,0,0,0.81942,-0.077915,0,0.10698,0,0,0.33861,-0.11562,0,0.35807,-0.46235,-1.1575,-1.0951,3.3994,-0.90499,0.66616,0.014735,0.36,0.26,0
0.17939,0.048256,0.60212,-0.46814,-1.1555,-1.0892,0.061315,0,0,0.80738,-0.086125,0,0.15942,0,0,0.36278,-0.12511,0,0.38387,-0.46271,-1.1609,-1.0892,5.0581,-0.90426,0.66523,0.014529,0.38,0.26,0
0.19542,0.046733,0.59465,-0.46855,-1.153,-1.0811,0.077429,0,0,0.79633,-0.093413,0,0.20132,0,0,0.37982,-0.13891,0,0.40442,-0.4599,-1.1616,-1.0811,6.3747,-0.90087,0.66513,0.014369,0.4,0.26,0
0.21124,0.045434,0.58693,-0.46467,-1.1484,-1.0709,0.089726,0,0,0.78803,-0.1008,0,0.23329,0,0,0.38688,-0.15663,0,0.41731,-0.45309,-1.16,-1.0709,7.3532,-0.89464,0.6668,0.014314,0.42,0.26,0
0.22694,0.044073,0.57918,-0.456,-1.1439,-1.0592,0.096055,0,0,0.7841,-0.11018,0,0.24974,0,0,0.38156,-0.17741,0,0.42073,-0.44283,-1.1571,-1.0592,7.8017,-0.88635,0.67065,0.014385,0.44,0.26,0
0.24261,0.042281,0.57167,-0.44337,-1.1381,-1.0461,0.092492,0,0,0.78354,-0.11954,0,0.24048,0,0,0.36248,-0.1987,0,0.4135,-0.43127,-1.1502,-1.0461,7.4556,-0.87584,0.67292,0.014396,0.46,0.26,0
0.25828,0.039641,0.56468,-0.4292,-1.124,-1.0306,0.078177,0,0,0.78186,-0.12134,0,0.20326,0,0,0.33052,-0.21615,0,0.39537,-0.42051,-1.1326,-1.0306,6.3415,-0.86126,0.66701,0.014047,0.48,0.26,0
0.27388,0.035887,0.55845,-0.39657,-0.71959,-0.66992,0.06116,0,0,0.2169,-0.10763,0,0.44151,0,0,0.29848,-0.1347,0,0.3367,-0.35537,-0.76079,-0.66992,29.982,-0.59536,0.38064,0.0067713,0.5,0.26,0
0.26696,0.042723,0.52991,-0.37927,-0.36106,-0.32808,0.050524,0,0,-0.33275,-0.21435,0,0.65681,0,0,0.28019,-0.046212,0,0.28403,-0.31883,-0.42151,-0.32808,50.109,-0.35614,0.098377,-4.7443e-05,0.52,0.26,0
0.26057,0.047834,0.50241,-0.36879,-0.36319,-0.32008,0.042494,0,0,-0.31662,-0.28027,0,0.55242,0,0,0.26994,-0.044905,0,0.2737,-0.3234,-0.40858,-0.32008,46.882,-0.35069,0.086884,-3.3519e-05,0.54,0.26,0
0.25429,0.05127,0.47593,-0.36027,-0.35997,-0.31126,0.035033,0,0,-0.31859,-0.31664,0,0.45543,0,0,0.26032,-0.04164,0,0.26367,-0.32509,-0.39516,-0.31126,45.123,-0.34384,0.077908,-2.1729e-05,0.56,0.26,0
0.24783,0.053346,0.45034,-0.35344,-0.35425,-0.30237,0.028801,0,0,-0.33192,-0.33717,0,0.37442,0,0,0.25216,-0.037379,0,0.25493,-0.32504,-0.38265,-0.30237,44.598,-0.33669,0.07168,-1.2736e-05,0.58,0.26,0
0.24102,0.05439,0.4255,-0.34769,-0.34725,-0.29358,0.023632,0,0,-0.35169,-0.34887,0,0.30722,0,0,0.24566,-0.032888,0,0.24787,-0.32384,-0.3711,-0.29358,45.263,-0.32951,0.067673,-5.8753e-06,0.6,0.26,0
0.23376,0.054648,0.40121,-0.34279,-0.3395,-0.28493,0.019224,0,0,-0.37611,-0.3547,0,0.24991,0,0,0.24073,-0.02854,0,0.24242,-0.32185,-0.36044,-0.28493,47.449,-0.32241,0.065399,-5.4907e-07,0.62,0.26,0
0.22597,0.054297,0.37735,-0.3387,-0.3312,-0.27644,0.015377,0,0,-0.40468,-0.35594,0,0.1999,0,0,0.23713,-0.024455,0,0.23839,-0.31912,-0.35077,-0.27644,51.852,-0.31544,0.064613,3.5121e-06,0.64,0.26,0
0.21757,0.053468,0.35379,-0.33538,-0.32246,-0.26811,0.011961,0,0,-0.43726,-0.35329,0,0.1555,0,0,0.23466,-0.020632,0,0.23556,-0.31533,-0.34251,-0.26811,59.185,-0.30865,0.06521,6.3552e-06,0.66,0.26,0
0.20848,0.052261,0.33042,-0.33282,-0.31335,-0.25994,0.0088825,0,0,-0.47378,-0.34719,0,0.11547,0,0,0.23315,-0.01702,0,0.23376,-0.30991,-0.33627,-0.25994,68.815,-0.30204,0.067151,7.8641e-06,0.68,0.26,0
0.19862,0.050757,0.30716,-0.33102,-0.3039,-0.25191,0.0060609,0,0,-0.51424,-0.33796,0,0.078791,0,0,0.2325,-0.013547,0,0.23289,-0.30261,-0.33232,-0.25191,77.959,-0.29561,0.070421,7.7836e-06,0.7,0.26,0
0.18791,0.049022,0.28392,-0.32997,-0.29415,-0.24402,0.0034292,0,0,-0.55868,-0.32584,0,0.044579,0,0,0.23267,-0.010135,0,0.23288,-0.29382,-0.3303,-0.24402,84.581,-0.28938,0.075015,5.7185e-06,0.72,0.26,0
0.17627,0.047112,0.26062,-0.32968,-0.28412,-0.23626,0.00093471,0,0,-0.60722,-0.31104,0,0.012151,0,0,0.23365,-0.006705,0,0.23374,-0.2841,-0.3297,-0.23626,88.825,-0.28335,0.080927,1.1233e-06,0.74,0.26,0
0.16362,0.045076,0.23719,-0.33019,-0.27383,-0.22864,-0.0014543,0,0,-0.66003,-0.29373,0,-0.018906,0,0,0.23551,-0.0031769,0,0.23553,-0.2738,-0.33022,-0.22864,-88.523,-0.27755,0.088151,-6.7132e-06,0.76,0.26,0
0.14987,0.042963,0.21352,-0.33152,-0.26334,-0.22116,-0.0037399,0,0,-0.71732,-0.27415,0,-0.048618,0,0,0.23836,0.00052288,0,0.23836,-0.26313,-0.33172,-0.22116,-86.87,-0.272,0.09667,-1.8679e-05,0.78,0.26,0
0.13493,0.040822,0.18952,-0.33372,-0.25267,-0.21382,-0.0058835,0,0,-0.77933,-0.25254,0,-0.076485,0,0,0.24236,0.0044504,0,0.2424,-0.25225,-0.33414,-0.21382,-85.869,-0.26674,0.10644,-3.5833e-05,0.8,0.26,0
0.1187,0.038707,0.16505,-0.33679,-0.24189,-0.20662,-0.0078011,0,0,-0.84615,-0.22931,0,-0.10142,0,0,0.24775,0.0086115,0,0.24791,-0.24126,-0.33743,-0.20662,-85.332,-0.26177,0.11739,-5.934e-05,0.82,0.26,0
0.10108,0.036678,0.13997,-0.3407,-0.23108,-0.19953,-0.009377,0,0,-0.9176,-0.20512,0,-0.1219,0,0,0.25477,0.012892,0,0.25512,-0.23029,-0.34149,-0.19953,-85.146,-0.2571,0.12936,-9.0339e-05,0.84,0.26,0
0.081996,0.034787,0.11409,-0.34531,-0.22032,-0.19251,-0.010535,0,0,-0.9932,-0.18078,0,-0.13695,0,0,0.2636,0.016921,0,0.26418,-0.21944,-0.34619,-0.19251,-85.216,-0.25271,0.14214,-0.00012983,0.86,0.26,0
0.061357,0.033044,0.087247,-0.35062,-0.20963,-0.18552,-0.011277,0,0,-1.0731,-0.1567,0,-0.1466,0,0,0.27406,0.019909,0,0.27484,-0.20874,-0.35151,-0.18552,-85.456,-0.24859,0.15569,-0.00017938,0.88,0.26,0
0.039072,0.031407,0.059282,-0.35645,-0.19817,-0.17824,-0.011578,0,0,-1.1583,-0.12953,0,-0.15052,0,0,0.28542,0.020824,0,0.28624,-0.19733,-0.35729,-0.17824,-85.838,-0.24429,0.17031,-0.00024299,0.9,0.26,0
0.015024,0.029836,0.030164,-0.35676,-0.24071,-0.19734,-0.0096459,0,0,-0.6882,-0.093968,0,-0.082531,0,0,0.30665,0.056532,0,0.31422,-0.23981,-0.35766,-0.19734,-84.407,-0.26493,0.14807,-0.00014098,0.92,0.26,0
0.011543,0.03071,0.023721,-0.37039,-0.33295,-0.23472,-0.0071826,0,0,-0.17637,-0.12769,0,-0.018675,0,0,0.34486,0.083718,0,0.3556,-0.33162,-0.37173,-0.23472,-79.505,-0.31269,0.122,6.0412e-05,0.94,0.26,0
0.007969,0.031513,0.016369,-0.37627,-0.34921,-0.23401,-0.0070989,0,0,-0.18493,-0.14976,0,-0.018457,0,0,0.38414,0.061353,0,0.38923,-0.34747,-0.37802,-0.23401,-76.154,-0.31983,0.13142,9.5672e-05,0.96,0.26,0
0.0041464,0.031982,0.0083557,-0.38068,-0.34958,-0.22743,-0.0054855,0,0,-0.19923,-0.15879,0,-0.014262,0,0,0.40923,0.032063,0,0.41037,-0.34864,-0.38162,-0.22743,-80.287,-0.31923,0.14063,0.00011678,0.98,0.26,0
0,0.032123,0,-0.37169,-0.3357,-0.21222,0.0027079,0,0,-0.20732,-0.16052,0,0.0070405,0,0,0.41779,-5.2042e-18,0,0.41757,-0.33549,-0.37189,-0.21222,85.722,-0.30654,0.14495,0.00012378,1,0.26,0
0,0.043385,1,-0.51349,-1.7207,-1.6703,-0.0005213,0,0,1.5038,-0.065596,0,-0.0013554,0,0,0.36957,-1.0104e-15,0,0.36956,-0.51349,-1.7207,-1.6703,-0.024741,-1.3015,1.1828,0.084469,0,0.28,0
0.030076,0.043358,0.99261,-0.50279,-1.7053,-1.655,0.00054492,0,0,1.4979,-0.065394,0,0.0014168,0,0,0.36613,-0.0046718,0,0.36617,-0.50279,-1.7053,-1.655,0.025962,-1.2877,1.1782,0.083489,0.02,0.28,0
0.059918,0.043284,0.98535,-0.49902,-1.6925,-1.6428,0.0013065,0,0,1.4869,-0.064592,0,0.0033969,0,0,0.35612,-0.0091672,0,0.35629,-0.49902,-1.6925,-1.6428,0.062722,-1.2781,1.1694,0.081638,0.04,0.28,0
0.089553,0.043179,0.97836,-0.49357,-1.6777,-1.6298,0.0024506,0,0,1.477,-0.062348,0,0.0063716,0,0,0.34039,-0.013318,0,0.34077,-0.49356,-1.6777,-1.6298,0.11857,-1.267,1.1609,0.079894,0.06,0.28,0
0.119,0.043073,0.97174,-0.48677,-1.6607,-1.616,0.0042663,0,0,1.468,-0.058168,0,0.011092,0,0,0.32036,-0.016978,0,0.321,-0.48676,-1.6607,-1.616,0.20821,-1.2545,1.1523,0.078175,0.08,0.28,0
0.14827,0.043006,0.96555,-0.45703,-1.0585,-1.034,0.0062556,0,0,0.82296,-0.053168,0,0.049212,0,0,0.30254,-0.012022,0,0.303,-0.45647,-1.0591,-1.034,4.9726,-0.84985,0.59082,0.038581,0.1,0.28,0
0.15192,0.044266,0.93599,-0.43338,-0.48209,-0.46184,0.0066701,0,0,0.18496,-0.13161,0,0.086711,0,0,0.29329,-0.0066715,0,0.29337,-0.43249,-0.48298,-0.46184,7.659,-0.4591,0.043924,1.2056e-06,0.12,0.28,0
0.15567,0.045254,0.90689,-0.42634,-0.48548,-0.45493,0.0064846,0,0,0.18578,-0.19861,0,0.084299,0,0,0.28889,-0.0091833,0,0.28904,-0.42564,-0.48618,-0.45493,6.1847,-0.45558,0.052441,-4.1798e-07,0.14,0.28,0
0.15935,0.045991,0.87821,-0.42053,-0.48606,-0.44762,0.0064243,0,0,0.17606,-0.24986,0,0.083516,0,0,0.28518,-0.011535,0,0.28542,-0.41991,-0.48668,-0.44762,5.547,-0.45141,0.058106,-2.9158e-06,0.16,0.28,0
0.16271,0.04652,0.84986,-0.41624,-0.48373,-0.43996,0.0065958,0,0,0.15417,-0.28448,0,0.085746,0,0,0.28254,-0.013731,0,0.28288,-0.41561,-0.48437,-0.43996,5.5302,-0.44665,0.060387,-5.4252e-06,0.18,0.28,0
0.16552,0.0469,0.8217,-0.41352,-0.47872,-0.43201,0.0070848,0,0,0.12021,-0.30362,0,0.092102,0,0,0.28127,-0.01578,0,0.28171,-0.41276,-0.47948,-0.43201,6.1302,-0.44142,0.059483,-7.1146e-06,0.2,0.28,0
0.16752,0.0472,0.7936,-0.41229,-0.47135,-0.42381,0.0079598,0,0,0.074902,-0.309,0,0.10348,0,0,0.28153,-0.017698,0,0.28209,-0.41123,-0.4724,-0.42381,7.5425,-0.43582,0.055952,-7.4866e-06,0.22,0.28,0
0.16851,0.047495,0.7654,-0.41246,-0.46182,-0.41536,0.0092756,0,0,0.018877,-0.30197,0,0.12058,0,0,0.28336,-0.019503,0,0.28404,-0.41077,-0.4635,-0.41536,10.299,-0.42988,0.050593,-6.4669e-06,0.24,0.28,0
0.16828,0.047864,0.73693,-0.41396,-0.45017,-0.40662,0.011069,0,0,-0.047667,-0.28305,0,0.14389,0,0,0.28668,-0.021216,0,0.28747,-0.41084,-0.45328,-0.40662,15.719,-0.42358,0.044701,-4.4501e-06,0.26,0.28,0
0.16661,0.048382,0.70806,-0.41671,-0.43631,-0.39752,0.013347,0,0,-0.12476,-0.25216,0,0.1735,0,0,0.29123,-0.022865,0,0.29214,-0.40996,-0.44307,-0.39752,26.856,-0.41685,0.040781,-2.4226e-06,0.28,0.28,0
0.16329,0.049111,0.67868,-0.42058,-0.42015,-0.38796,0.016078,0,0,-0.21205,-0.20929,0,0.20902,0,0,0.29667,-0.024494,0,0.29769,-0.40429,-0.43645,-0.38796,45.378,-0.40956,0.042733,-2.1251e-06,0.3,0.28,0
0.15812,0.050098,0.64873,-0.42521,-0.4018,-0.37785,0.019191,0,0,-0.30785,-0.15569,0,0.24949,0,0,0.30247,-0.026165,0,0.30362,-0.39103,-0.43599,-0.37785,60.69,-0.40162,0.052795,-6.0001e-06,0.32,0.28,0
0.15097,0.051358,0.61819,-0.4399,-0.7811,-0.73721,0.026585,0,0,0.24348,-0.09509,0,0.18397,0,0,0.31339,-0.083876,0,0.32869,-0.41417,-0.80682,-0.73721,34.337,-0.65274,0.37683,0.008144,0.34,0.28,0
0.16786,0.048492,0.61176,-0.45661,-1.1762,-1.1016,0.044835,0,0,0.83848,-0.096943,0,0.11657,0,0,0.33344,-0.14226,0,0.36273,-0.45382,-1.1789,-1.1016,3.5517,-0.91145,0.6897,0.016138,0.36,0.28,0
0.18451,0.046353,0.60485,-0.45736,-1.1722,-1.0937,0.063017,0,0,0.82728,-0.10206,0,0.16384,0,0,0.35475,-0.146,0,0.38374,-0.45185,-1.1778,-1.0937,4.9992,-0.90777,0.68775,0.01587,0.38,0.28,0
0.20095,0.044694,0.59757,-0.45517,-1.1663,-1.084,0.07647,0,0,0.81751,-0.10702,0,0.19882,0,0,0.36908,-0.15116,0,0.39886,-0.44704,-1.1745,-1.084,6.0684,-0.90185,0.68669,0.015662,0.4,0.28,0
0.21721,0.04327,0.59009,-0.45027,-1.1577,-1.0725,0.084654,0,0,0.80886,-0.11077,0,0.2201,0,0,0.37396,-0.15779,0,0.40587,-0.44028,-1.1677,-1.0725,6.7299,-0.89347,0.68476,0.015422,0.42,0.28,0
0.23331,0.041798,0.58261,-0.44288,-1.1457,-1.0592,0.086092,0,0,0.80118,-0.11245,0,0.22384,0,0,0.36777,-0.16553,0,0.40333,-0.43249,-1.1561,-1.0592,6.8832,-0.88258,0.68032,0.015072,0.44,0.28,0
0.24926,0.039959,0.57537,-0.43381,-1.1286,-1.0441,0.079355,0,0,0.79338,-0.10986,0,0.20632,0,0,0.35017,-0.17333,0,0.39089,-0.42486,-1.1376,-1.0441,6.4336,-0.86884,0.67087,0.014498,0.46,0.28,0
0.26504,0.03743,0.5686,-0.4235,-1.1036,-1.0267,0.064607,0,0,0.7842,-0.099916,0,0.16798,0,0,0.32261,-0.17943,0,0.36952,-0.41742,-1.1097,-1.0267,5.3789,-0.85128,0.65473,0.013638,0.48,0.28,0
0.28063,0.033979,0.56247,-0.39604,-0.70664,-0.66829,0.048806,0,0,0.21127,-0.083108,0,0.35103,0,0,0.29573,-0.1092,0,0.32206,-0.35931,-0.74337,-0.66829,31.338,-0.59032,0.36523,0.0064798,0.5,0.28,0
0.27349,0.038901,0.53399,-0.38052,-0.35358,-0.32703,0.039874,0,0,-0.34771,-0.17258,0,0.51837,0,0,0.28051,-0.03624,0,0.28288,-0.32496,-0.40914,-0.32703,54.333,-0.35371,0.083163,-2.9479e-05,0.52,0.28,0
0.26672,0.042712,0.50637,-0.37122,-0.35576,-0.31937,0.033921,0,0,-0.33701,-0.23658,0,0.44097,0,0,0.27178,-0.035018,0,0.27406,-0.3287,-0.39828,-0.31937,51.415,-0.34878,0.074683,-2.0272e-05,0.54,0.28,0
0.26001,0.045356,0.47963,-0.36327,-0.3538,-0.31105,0.028056,0,0,-0.33943,-0.2779,0,0.36473,0,0,0.26325,-0.032894,0,0.26533,-0.33008,-0.38699,-0.31105,49.788,-0.3427,0.068437,-1.227e-05,0.56,0.28,0
0.25314,0.046968,0.45372,-0.35663,-0.34916,-0.30248,0.022935,0,0,-0.35196,-0.30341,0,0.29816,0,0,0.25564,-0.030208,0,0.25744,-0.32965,-0.37613,-0.30248,49.624,-0.33609,0.064509,-6.0023e-06,0.58,0.28,0
0.24593,0.047741,0.42851,-0.35104,-0.34297,-0.2939,0.018634,0,0,-0.37139,-0.31892,0,0.24225,0,0,0.2493,-0.027281,0,0.2508,-0.32794,-0.36607,-0.2939,51.111,-0.32931,0.062533,-1.2329e-06,0.6,0.28,0
0.23828,0.047854,0.40386,-0.3463,-0.33582,-0.28541,0.015023,0,0,-0.39581,-0.32768,0,0.1953,0,0,0.24429,-0.024325,0,0.2455,-0.32515,-0.35697,-0.28541,54.616,-0.32251,0.062102,2.3406e-06,0.62,0.28,0
0.2301,0.047454,0.37965,-0.34233,-0.328,-0.27703,0.011949,0,0,-0.42445,-0.33131,0,0.15534,0,0,0.24053,-0.021435,0,0.24149,-0.32123,-0.3491,-0.27703,60.474,-0.31578,0.062946,4.8748e-06,0.64,0.28,0
0.22131,0.046658,0.35575,-0.3391,-0.31964,-0.26877,0.0092952,0,0,-0.45713,-0.33064,0,0.12084,0,0,0.2379,-0.018641,0,0.23863,-0.31591,-0.34283,-0.26877,68.156,-0.30917,0.064925,6.3562e-06,0.66,0.28,0
0.21182,0.045556,0.33207,-0.33662,-0.31082,-0.26065,0.0069683,0,0,-0.49385,-0.32613,0,0.090588,0,0,0.23627,-0.015935,0,0.2368,-0.30906,-0.33838,-0.26065,75.813,-0.3027,0.067997,6.6199e-06,0.68,0.28,0
0.20155,0.044224,0.3085,-0.33491,-0.30159,-0.25265,0.0048958,0,0,-0.53466,-0.31814,0,0.063645,0,0,0.23555,-0.013295,0,0.23592,-0.30089,-0.33561,-0.25265,81.81,-0.29638,0.072163,5.36e-06,0.7,0.28,0
0.19043,0.042723,0.28496,-0.33395,-0.292,-0.24478,0.0030197,0,0,-0.57964,-0.30694,0,0.039256,0,0,0.23569,-0.010695,0,0.23593,-0.29178,-0.33417,-0.24478,85.904,-0.29024,0.077449,2.1324e-06,0.72,0.28,0
0.17837,0.041103,0.26136,-0.33377,-0.28208,-0.23703,0.0012972,0,0,-0.62884,-0.29284,0,0.016864,0,0,0.2367,-0.0081062,0,0.23684,-0.28205,-0.33381,-0.23703,88.563,-0.28429,0.083879,-3.6449e-06,0.74,0.28,0
0.16528,0.039408,0.23762,-0.33437,-0.27189,-0.2294,-0.0002963,0,0,-0.68232,-0.27615,0,-0.0038519,0,0,0.23864,-0.0054999,0,0.2387,-0.27188,-0.33438,-0.2294,-89.728,-0.27855,0.091459,-1.2688e-05,0.76,0.28,0
0.15107,0.037681,0.21363,-0.33576,-0.26148,-0.2219,-0.0017632,0,0,-0.74008,-0.2573,0,-0.022922,0,0,0.2416,-0.0028543,0,0.24162,-0.26144,-0.3358,-0.2219,-88.641,-0.27305,0.10017,-2.5826e-05,0.78,0.28,0
0.13567,0.03596,0.1893,-0.33789,-0.25095,-0.21451,-0.0030803,0,0,-0.80197,-0.23685,0,-0.040044,0,0,0.24572,-0.00016204,0,0.24573,-0.25084,-0.338,-0.21451,-87.973,-0.26779,0.10992,-4.3943e-05,0.8,0.28,0
0.119,0.034288,0.16449,-0.34071,-0.24039,-0.20723,-0.0042004,0,0,-0.86765,-0.21555,0,-0.054605,0,0,0.25114,0.0025492,0,0.25117,-0.24022,-0.34089,-0.20723,-87.607,-0.26278,0.1206,-6.7881e-05,0.82,0.28,0
0.10097,0.032708,0.13907,-0.34411,-0.22991,-0.20002,-0.005071,0,0,-0.93661,-0.19426,0,-0.065923,0,0,0.25798,0.0051786,0,0.25806,-0.22968,-0.34434,-0.20002,-87.463,-0.25801,0.13201,-9.8346e-05,0.84,0.28,0
0.081531,0.031256,0.11289,-0.34797,-0.21955,-0.19283,-0.0056626,0,0,-1.0084,-0.17363,0,-0.073614,0,0,0.26618,0.0075015,0,0.26632,-0.2193,-0.34822,-0.19283,-87.48,-0.25345,0.14399,-0.00013604,0.86,0.28,0
0.060632,0.02995,0.085833,-0.35215,-0.20911,-0.18555,-0.0059753,0,0,-1.0829,-0.15318,0,-0.077679,0,0,0.27543,0.0091599,0,0.27563,-0.20886,-0.3524,-0.18555,-87.612,-0.24894,0.15651,-0.00018224,0.88,0.28,0
0.038214,0.028794,0.057808,-0.35645,-0.19807,-0.17792,-0.0059073,0,0,-1.1605,-0.13099,0,-0.076795,0,0,0.28504,0.0097459,0,0.28525,-0.19785,-0.35667,-0.17792,-87.867,-0.24415,0.16967,-0.00023923,0.9,0.28,0
0.014213,0.02781,0.028825,-0.35586,-0.24646,-0.19799,-0.004573,0,0,-0.68525,-0.10501,0,-0.041253,0,0,0.30239,0.026982,0,0.30444,-0.24624,-0.35608,-0.19799,-87.063,-0.26677,0.14605,-0.00012466,0.92,0.28,0
0.010804,0.028112,0.022526,-0.36302,-0.33189,-0.231,-0.0025667,0,0,-0.17162,-0.13116,0,-0.0066734,0,0,0.33355,0.040288,0,0.33652,-0.33168,-0.36323,-0.231,-85.317,-0.30864,0.11962,6.7725e-05,0.94,0.28,0
0.0073481,0.028442,0.015483,-0.36446,-0.34859,-0.2294,-0.00213,0,0,-0.17558,-0.15496,0,-0.005538,0,0,0.36596,0.02997,0,0.36743,-0.34831,-0.36474,-0.2294,-82.485,-0.31415,0.12792,0.00010156,0.96,0.28,0
0.0037807,0.028654,0.0078874,-0.36462,-0.35345,-0.22331,-0.0016843,0,0,-0.1837,-0.16919,0,-0.0043791,0,0,0.38706,0.01587,0,0.3874,-0.3532,-0.36487,-0.22331,-81.606,-0.31379,0.1361,0.00012628,0.98,0.28,0
0,0.028721,0,-0.35462,-0.34274,-0.20921,0.0012836,0,0,-0.18903,-0.17359,0,0.0033373,0,0,0.39437,-2.6021e-18,0,0.3943,-0.3426,-0.35475,-0.20921,83.902,-0.30219,0.13987,0.00013696,1,0.28,0
0,0.042053,1,-0.51291,-1.7196,-1.6698,-0.00043773,0,0,1.5039,-0.064827,0,-0.0011381,0,0,0.36843,-1.0651e-15,0,0.36842,-0.51291,-1.7196,-1.6698,-0.020784,-1.3008,1.1826,0.084431,0,0.3,0
0.030078,0.04203,0.99263,-0.50213,-1.7045,-1.6546,-0.0022162,0,0,1.4983,-0.06488,0,-0.005762,0,0,0.36494,0.0024369,0,0.36496,-0.50213,-1.7045,-1.6546,-0.1056,-1.2871,1.1783,0.083504,0.02,0.3,0
0.05993,0.041972,0.9854,-0.49808,-1.6924,-1.6425,-0.0037074,0,0,1.4878,-0.064803,0,-0.0096391,0,0,0.35475,0.0044932,0,0.35484,-0.49807,-1.6924,-1.6425,-0.17785,-1.2777,1.1702,0.081797,0.04,0.3,0
0.08959,0.041911,0.97844,-0.49226,-1.6786,-1.6297,-0.0039585,0,0,1.4787,-0.063596,0,-0.010292,0,0,0.33872,0.0057471,0,0.3389,-0.49225,-1.6786,-1.6297,-0.19118,-1.2669,1.1627,0.080246,0.06,0.3,0
0.11908,0.041883,0.97185,-0.48511,-1.6627,-1.6162,-0.0029952,0,0,1.4704,-0.060448,0,-0.0077874,0,0,0.31826,0.005757,0,0.31852,-0.4851,-1.6627,-1.6162,-0.14573,-1.2547,1.155,0.078713,0.08,0.3,0
0.14841,0.041907,0.96571,-0.45503,-1.0598,-1.0339,-0.0017296,0,0,0.82947,-0.056108,0,-0.012882,0,0,0.30004,0.0024965,0,0.30018,-0.455,-1.0598,-1.0339,-1.2501,-0.84955,0.59255,0.038896,0.1,0.3,0
0.15226,0.041609,0.93642,-0.4312,-0.48238,-0.46136,-0.00098008,0,0,0.19602,-0.13664,0,-0.012741,0,0,0.29058,-0.0018245,0,0.2906,-0.43118,-0.4824,-0.46136,-1.0967,-0.45831,0.04459,1.3797e-06,0.12,0.3,0
0.15625,0.041259,0.9076,-0.42408,-0.48613,-0.45458,5.8505e-05,0,0,0.19827,-0.20505,0,0.00076057,0,0,0.28611,-0.0048359,0,0.28615,-0.42408,-0.48613,-0.45458,0.054023,-0.45493,0.053739,-2.3216e-07,0.14,0.3,0
0.16019,0.040967,0.87919,-0.41823,-0.48695,-0.44739,0.0015964,0,0,0.18957,-0.25713,0,0.020753,0,0,0.28235,-0.0081456,0,0.28247,-0.41819,-0.48699,-0.44739,1.33,-0.45086,0.059806,-2.8355e-06,0.16,0.3,0
0.16383,0.040795,0.85112,-0.41391,-0.48484,-0.43985,0.0034084,0,0,0.16859,-0.29241,0,0.04431,0,0,0.27972,-0.011656,0,0.27996,-0.41375,-0.485,-0.43985,2.7451,-0.4462,0.062435,-5.5436e-06,0.18,0.3,0
0.16693,0.040778,0.82325,-0.41114,-0.48009,-0.43202,0.005419,0,0,0.13573,-0.31248,0,0.070446,0,0,0.2785,-0.015252,0,0.27892,-0.41071,-0.48052,-0.43202,4.4662,-0.44108,0.06196,-7.526e-06,0.2,0.3,0
0.16926,0.040951,0.79542,-0.4098,-0.47307,-0.42395,0.0076752,0,0,0.091968,-0.31932,0,0.099777,0,0,0.27886,-0.018821,0,0.27949,-0.40888,-0.47399,-0.42395,6.8182,-0.4356,0.059037,-8.2931e-06,0.22,0.3,0
0.17061,0.041363,0.76748,-0.40978,-0.46398,-0.41562,0.010285,0,0,0.038009,-0.31434,0,0.13371,0,0,0.28084,-0.022253,0,0.28172,-0.40789,-0.46587,-0.41562,10.39,-0.42979,0.054526,-7.7643e-06,0.24,0.3,0
0.17078,0.042084,0.73925,-0.41102,-0.45284,-0.40701,0.013348,0,0,-0.026038,-0.29793,0,0.17353,0,0,0.28435,-0.025434,0,0.28549,-0.40712,-0.45674,-0.40701,16.273,-0.42362,0.049678,-6.2967e-06,0.26,0.3,0
0.16957,0.043191,0.71061,-0.41347,-0.43949,-0.39801,0.016881,0,0,-0.10049,-0.2696,0,0.21945,0,0,0.28913,-0.028246,0,0.29052,-0.40516,-0.44779,-0.39801,26.191,-0.41699,0.046616,-4.7917e-06,0.28,0.3,0
0.16676,0.044751,0.68143,-0.41702,-0.42368,-0.3885,0.020743,0,0,-0.18543,-0.22868,0,0.26965,0,0,0.29481,-0.030577,0,0.29641,-0.39934,-0.44136,-0.3885,40.443,-0.40973,0.04836,-4.8383e-06,0.3,0.3,0
0.16215,0.046784,0.65165,-0.42137,-0.40539,-0.37836,0.024595,0,0,-0.27957,-0.17572,0,0.31974,0,0,0.30084,-0.032351,0,0.30259,-0.38752,-0.43924,-0.37836,53.997,-0.40171,0.056858,-8.6201e-06,0.32,0.3,0
0.15558,0.049236,0.62126,-0.43626,-0.7947,-0.74205,0.031283,0,0,0.26605,-0.1141,0,0.22402,0,0,0.31202,-0.10071,0,0.33373,-0.41118,-0.81979,-0.74205,31.595,-0.65767,0.38889,0.0087979,0.34,0.3,0
0.17279,0.04638,0.61486,-0.45214,-1.1955,-1.1092,0.047031,0,0,0.8541,-0.11225,0,0.12228,0,0,0.33241,-0.16765,0,0.3725,-0.44918,-1.1985,-1.1092,3.6059,-0.91893,0.70885,0.017318,0.36,0.3,0
0.18974,0.044174,0.60796,-0.45254,-1.1873,-1.0999,0.062844,0,0,0.84158,-0.11358,0,0.16339,0,0,0.35388,-0.16545,0,0.39076,-0.4472,-1.1926,-1.0999,4.8536,-0.91324,0.70366,0.016851,0.38,0.3,0
0.20646,0.042452,0.6007,-0.45024,-1.1766,-1.0888,0.07396,0,0,0.83006,-0.11418,0,0.1923,0,0,0.36803,-0.16184,0,0.40206,-0.44278,-1.184,-1.0888,5.7555,-0.90519,0.6985,0.01641,0.4,0.3,0
0.22294,0.041003,0.59324,-0.44582,-1.1621,-1.0756,0.079362,0,0,0.81874,-0.11243,0,0.20634,0,0,0.37251,-0.15756,0,0.40445,-0.43713,-1.1708,-1.0756,6.2472,-0.89451,0.69101,0.015868,0.42,0.3,0
0.23921,0.039575,0.5858,-0.43974,-1.1429,-1.0606,0.07828,0,0,0.80711,-0.10701,0,0.20353,0,0,0.36601,-0.15329,0,0.39686,-0.43113,-1.1515,-1.0606,6.2761,-0.88108,0.6795,0.015145,0.44,0.3,0
0.25523,0.037887,0.5786,-0.43249,-1.1174,-1.0436,0.070204,0,0,0.7944,-0.095968,0,0.18253,0,0,0.34858,-0.14955,0,0.37947,-0.42537,-1.1245,-1.0436,5.7927,-0.86448,0.66239,0.014178,0.46,0.3,0
0.27098,0.035644,0.57186,-0.42398,-1.0846,-1.0244,0.055054,0,0,0.78059,-0.07823,0,0.14314,0,0,0.32186,-0.14662,0,0.35404,-0.41943,-1.0892,-1.0244,4.7313,-0.84435,0.63984,0.01299,0.48,0.3,0
0.28645,0.032563,0.56573,-0.39811,-0.69311,-0.6668,0.038543,0,0,0.19948,-0.056994,0,0.27265,0,0,0.29608,-0.086776,0,0.31322,-0.3638,-0.72742,-0.6668,33.552,-0.58601,0.35072,0.006072,0.5,0.3,0
0.27896,0.035819,0.53716,-0.38345,-0.34819,-0.32693,0.030135,0,0,-0.36742,-0.13823,0,0.39175,0,0,0.28158,-0.02747,0,0.28294,-0.33091,-0.40073,-0.32693,60.165,-0.35286,0.0719,-1.8893e-05,0.52,0.3,0
0.27176,0.038371,0.50941,-0.3744,-0.35021,-0.31927,0.02558,0,0,-0.35835,-0.20116,0,0.33254,0,0,0.27328,-0.026089,0,0.27456,-0.33401,-0.3906,-0.31927,57.65,-0.34796,0.065222,-1.1831e-05,0.54,0.3,0
0.26463,0.040154,0.48251,-0.36641,-0.34886,-0.31108,0.0211,0,0,-0.35964,-0.24555,0,0.2743,0,0,0.26513,-0.024692,0,0.26631,-0.33478,-0.38049,-0.31108,56.292,-0.34212,0.061105,-6.0562e-06,0.56,0.3,0
0.25737,0.041209,0.45639,-0.35961,-0.34502,-0.30267,0.017086,0,0,-0.37014,-0.27528,0,0.22212,0,0,0.25777,-0.023224,0,0.25884,-0.33373,-0.37089,-0.30267,56.563,-0.33576,0.059165,-1.6361e-06,0.58,0.3,0
0.24982,0.041633,0.43095,-0.35387,-0.33953,-0.29421,0.013679,0,0,-0.38778,-0.29457,0,0.17783,0,0,0.25155,-0.021666,0,0.2525,-0.33125,-0.36214,-0.29421,58.831,-0.3292,0.058912,1.6398e-06,0.6,0.3,0
0.24186,0.041541,0.40608,-0.34903,-0.33295,-0.28581,0.010864,0,0,-0.41096,-0.30639,0,0.14123,0,0,0.24658,-0.020022,0,0.2474,-0.32747,-0.35451,-0.28581,63.258,-0.3226,0.059943,3.9688e-06,0.62,0.3,0
0.23338,0.041045,0.38164,-0.34502,-0.32558,-0.27751,0.0085583,0,0,-0.43884,-0.31247,0,0.11126,0,0,0.24282,-0.018312,0,0.24351,-0.32235,-0.34825,-0.27751,69.319,-0.31604,0.061993,5.4331e-06,0.64,0.3,0
0.22431,0.040243,0.35751,-0.34179,-0.31758,-0.26931,0.0066658,0,0,-0.47107,-0.31374,0,0.086656,0,0,0.24016,-0.016557,0,0.24073,-0.31587,-0.3435,-0.26931,75.577,-0.30956,0.064941,5.9734e-06,0.66,0.3,0
0.21454,0.039216,0.3336,-0.33932,-0.30904,-0.26123,0.0051006,0,0,-0.50759,-0.31079,0,0.066308,0,0,0.23849,-0.014781,0,0.23895,-0.30821,-0.34016,-0.26123,80.69,-0.3032,0.068764,5.3876e-06,0.68,0.3,0
0.204,0.038031,0.30981,-0.33763,-0.30003,-0.25326,0.0037922,0,0,-0.54838,-0.30403,0,0.049298,0,0,0.23774,-0.013003,0,0.23809,-0.29966,-0.33801,-0.25326,84.297,-0.29697,0.073501,3.3353e-06,0.7,0.3,0
0.1926,0.036744,0.28606,-0.33671,-0.29061,-0.24541,0.0026856,0,0,-0.59345,-0.29382,0,0.034913,0,0,0.23786,-0.011245,0,0.23812,-0.29045,-0.33686,-0.24541,86.677,-0.29091,0.079206,-6.5747e-07,0.72,0.3,0
0.18026,0.035398,0.26224,-0.33656,-0.28082,-0.23766,0.0017406,0,0,-0.64282,-0.28054,0,0.022628,0,0,0.23885,-0.0095259,0,0.23904,-0.28077,-0.33661,-0.23766,88.213,-0.28502,0.085929,-7.1926e-06,0.74,0.3,0
0.16689,0.03403,0.23829,-0.33718,-0.27075,-0.23004,0.00092926,0,0,-0.69646,-0.26461,0,0.01208,0,0,0.24076,-0.0078661,0,0.24089,-0.27073,-0.3372,-0.23004,89.199,-0.27932,0.093694,-1.6988e-05,0.76,0.3,0
0.15241,0.032671,0.21409,-0.33856,-0.26045,-0.22252,0.00023466,0,0,-0.75425,-0.24654,0,0.0030506,0,0,0.24369,-0.0062878,0,0.24378,-0.26045,-0.33856,-0.22252,89.828,-0.27385,0.10248,-3.0846e-05,0.78,0.3,0
0.13672,0.031348,0.18955,-0.34064,-0.25005,-0.21512,-0.00035095,0,0,-0.81593,-0.22704,0,-0.0045624,0,0,0.24776,-0.0048149,0,0.24782,-0.25004,-0.34064,-0.21512,-89.778,-0.2686,0.11222,-4.9581e-05,0.8,0.3,0
0.11977,0.030085,0.16454,-0.34335,-0.23964,-0.2078,-0.00082789,0,0,-0.88102,-0.20695,0,-0.010763,0,0,0.25309,-0.0034732,0,0.25313,-0.23964,-0.34335,-0.2078,-89.543,-0.2636,0.12277,-7.3927e-05,0.82,0.3,0
0.10148,0.028908,0.13893,-0.34655,-0.22936,-0.20056,-0.00119,0,0,-0.94894,-0.1872,0,-0.01547,0,0,0.25972,-0.0022887,0,0.25976,-0.22935,-0.34656,-0.20056,-89.418,-0.25882,0.13395,-0.00010448,0.84,0.3,0
0.08181,0.027842,0.11259,-0.35012,-0.21921,-0.19332,-0.0014236,0,0,-1.0192,-0.16828,0,-0.018506,0,0,0.26758,-0.0012847,0,0.26761,-0.21919,-0.35014,-0.19332,-89.377,-0.25422,0.14562,-0.00014186,0.86,0.3,0
0.060711,0.026917,0.085415,-0.35391,-0.20899,-0.18595,-0.0015056,0,0,-1.0917,-0.14971,0,-0.019573,0,0,0.2763,-0.00047567,0,0.27634,-0.20897,-0.35393,-0.18595,-89.405,-0.24962,0.15773,-0.00018717,0.88,0.3,0
0.03814,0.026167,0.057333,-0.35769,-0.19824,-0.17824,-0.0014019,0,0,-1.1664,-0.12995,0,-0.018224,0,0,0.28525,0.00013781,0,0.28529,-0.19823,-0.3577,-0.17824,-89.496,-0.24472,0.17035,-0.00024215,0.9,0.3,0
0.014056,0.025636,0.028365,-0.35682,-0.24843,-0.19859,-0.0013132,0,0,-0.68738,-0.10798,0,-0.011665,0,0,0.30122,0.0017229,0,0.30156,-0.24841,-0.35684,-0.19859,-89.112,-0.26795,0.14626,-0.00012233,0.92,0.3,0
0.010645,0.025463,0.02211,-0.36202,-0.33187,-0.23028,-0.0015322,0,0,-0.17127,-0.13207,0,-0.0039836,0,0,0.32986,0.0028916,0,0.33036,-0.33179,-0.36209,-0.23028,-87.098,-0.30805,0.11958,6.9175e-05,0.94,0.3,0
0.0072051,0.025315,0.01517,-0.36207,-0.34856,-0.22836,-0.0014288,0,0,-0.17382,-0.15626,0,-0.003715,0,0,0.35972,0.0023053,0,0.35997,-0.34841,-0.36221,-0.22836,-84.026,-0.31299,0.12752,0.0001023,0.96,0.3,0
0.0036919,0.025215,0.0077209,-0.36104,-0.35483,-0.22248,-0.00084616,0,0,-0.18013,-0.17205,0,-0.0022,0,0,0.37926,0.0012713,0,0.37932,-0.35471,-0.36115,-0.22248,-82.382,-0.31278,0.13557,0.00012699,0.98,0.3,0
0,0.025179,0,-0.35073,-0.34504,-0.20873,-0.00067991,0,0,-0.18459,-0.17721,0,-0.0017678,0,0,0.38605,6.9389e-18,0,0.38604,-0.34496,-0.35081,-0.20873,-83.272,-0.3015,0.13925,0.00013784,1,0.3,0
0,0.040792,1,-0.51931,-1.715,-1.6703,-0.00056244,0,0,1.4963,-0.058155,0,-0.0014624,0,0,0.37444,1.766e-15,0,0.37442,-0.5193,-1.715,-1.6703,-0.026951,-1.3015,1.174,0.0827,0,0.32,0
0.029926,0.040762,0.99251,-0.50786,-1.7004,-1.655,-0.0056007,0,0,1.4913,-0.059036,0,-0.014562,0,0,0.37063,0.0099027,0,0.37076,-0.50783,-1.7004,-1.655,-0.26908,-1.2877,1.1705,0.081954,0.02,0.32,0
0.059651,0.040691,0.98518,-0.50243,-1.69,-1.6429,-0.0098642,0,0,1.4826,-0.061255,0,-0.025647,0,0,0.35943,0.018938,0,0.35999,-0.50235,-1.6901,-1.6429,-0.47585,-1.2785,1.1649,0.080735,0.04,0.32,0
0.089231,0.040635,0.97813,-0.49476,-1.6786,-1.6302,-0.011731,0,0,1.476,-0.063042,0,-0.030501,0,0,0.34165,0.026079,0,0.3428,-0.49465,-1.6788,-1.6302,-0.56767,-1.2679,1.1606,0.079813,0.06,0.32,0
0.11869,0.040655,0.97151,-0.4858,-1.6644,-1.6166,-0.011418,0,0,1.47,-0.062226,0,-0.029687,0,0,0.31877,0.030174,0,0.32045,-0.48569,-1.6646,-1.6166,-0.55498,-1.2556,1.1556,0.078804,0.08,0.32,0
0.14803,0.040762,0.96538,-0.45371,-1.0603,-1.0334,-0.01043,0,0,0.83412,-0.058166,0,-0.079674,0,0,0.29829,0.018138,0,0.29922,-0.45245,-1.0615,-1.0334,-6.9784,-0.84913,0.59596,0.039024,0.1,0.32,0
0.15206,0.038801,0.93635,-0.42924,-0.48388,-0.46121,-0.009046,0,0,0.20777,-0.14737,0,-0.1176,0,0,0.28762,0.0033998,0,0.28765,-0.42778,-0.48534,-0.46121,-9.1606,-0.45811,0.05006,1.7735e-06,0.12,0.32,0
0.15634,0.037052,0.90786,-0.42158,-0.48853,-0.4546,-0.0065627,0,0,0.21468,-0.22052,0,-0.085315,0,0,0.28257,-0.00017547,0,0.28258,-0.42094,-0.48917,-0.4546,-5.5457,-0.4549,0.059089,-2.4171e-07,0.14,0.32,0
0.16064,0.035705,0.87984,-0.41545,-0.48965,-0.4475,-0.0032778,0,0,0.20832,-0.27399,0,-0.042612,0,0,0.27836,-0.0045514,0,0.2784,-0.4153,-0.48979,-0.4475,-2.5245,-0.45086,0.064708,-3.2323e-06,0.16,0.32,0
0.16467,0.034824,0.85219,-0.41104,-0.48757,-0.44002,0.0002195,0,0,0.18836,-0.30905,0,0.0028535,0,0,0.27544,-0.0094971,0,0.2756,-0.41104,-0.48757,-0.44002,0.16434,-0.44621,0.066921,-6.2419e-06,0.18,0.32,0
0.16818,0.034401,0.82475,-0.40824,-0.48287,-0.43228,0.0037158,0,0,0.15628,-0.32883,0,0.048305,0,0,0.27411,-0.014753,0,0.2745,-0.40806,-0.48306,-0.43228,2.8433,-0.44113,0.066295,-8.5077e-06,0.2,0.32,0
0.17093,0.034427,0.79736,-0.40685,-0.47606,-0.42435,0.0072786,0,0,0.11372,-0.33615,0,0.094622,0,0,0.27453,-0.020079,0,0.27526,-0.4061,-0.47682,-0.42435,5.939,-0.43576,0.063595,-9.6331e-06,0.22,0.32,0
0.17273,0.034922,0.76985,-0.40673,-0.46738,-0.4162,0.011103,0,0,0.06158,-0.33267,0,0.14434,0,0,0.27675,-0.025249,0,0.2779,-0.40476,-0.46935,-0.4162,10.054,-0.43011,0.059698,-9.588e-06,0.24,0.32,0
0.17339,0.035947,0.74201,-0.40783,-0.4568,-0.40779,0.015384,0,0,-0.00024604,-0.31856,0,0.2,0,0,0.28068,-0.030023,0,0.28229,-0.4034,-0.46123,-0.40779,16.071,-0.42414,0.055768,-8.7216e-06,0.26,0.32,0
0.17272,0.037598,0.71371,-0.41019,-0.444,-0.399,0.020193,0,0,-0.072772,-0.29249,0,0.26251,0,0,0.28609,-0.034121,0,0.28813,-0.40076,-0.45343,-0.399,25.036,-0.41773,0.053569,-7.8664e-06,0.28,0.32,0
0.17048,0.039964,0.6848,-0.41383,-0.42845,-0.38964,0.025312,0,0,-0.15723,-0.25223,0,0.32906,0,0,0.29256,-0.037241,0,0.29494,-0.3948,-0.44749,-0.38964,36.948,-0.41064,0.055448,-8.5011e-06,0.3,0.32,0
0.16643,0.043069,0.6552,-0.41852,-0.40972,-0.37951,0.030115,0,0,-0.25354,-0.19636,0,0.3915,0,0,0.29948,-0.03913,0,0.30205,-0.38368,-0.44455,-0.37951,49.155,-0.40258,0.06306,-1.2689e-05,0.32,0.32,0
0.16034,0.046794,0.6249,-0.43414,-0.80554,-0.74685,0.03633,0,0,0.28471,-0.12718,0,0.26604,0,0,0.31236,-0.11903,0,0.34191,-0.40845,-0.83123,-0.74685,29.585,-0.66218,0.39978,0.0093285,0.34,0.32,0
0.17782,0.044002,0.61847,-0.45178,-1.2129,-1.1179,0.049921,0,0,0.86592,-0.12356,0,0.12979,0,0,0.33583,-0.19517,0,0.38869,-0.44852,-1.2162,-1.1179,3.7366,-0.92753,0.72353,0.018249,0.36,0.32,0
0.19498,0.041809,0.61147,-0.45394,-1.2005,-1.1078,0.063632,0,0,0.85001,-0.12048,0,0.16544,0,0,0.36057,-0.18633,0,0.40599,-0.44855,-1.2059,-1.1078,4.8372,-0.92073,0.71334,0.017461,0.38,0.32,0
0.21182,0.040127,0.60404,-0.4535,-1.1837,-1.0952,0.07245,0,0,0.83421,-0.11503,0,0.18837,0,0,0.37696,-0.17315,0,0.41482,-0.44638,-1.1908,-1.0952,5.612,-0.91079,0.70152,0.016627,0.4,0.32,0
0.22834,0.038772,0.59639,-0.45058,-1.1627,-1.0804,0.074998,0,0,0.81873,-0.10703,0,0.195,0,0,0.3825,-0.15725,0,0.4135,-0.44277,-1.1705,-1.0804,5.9473,-0.89788,0.68712,0.0157,0.42,0.32,0
0.24457,0.037518,0.58874,-0.44528,-1.1373,-1.0635,0.071433,0,0,0.80369,-0.095884,0,0.18573,0,0,0.37578,-0.14046,0,0.40117,-0.43799,-1.1446,-1.0635,5.8327,-0.88202,0.66974,0.01467,0.44,0.32,0
0.26049,0.03612,0.58136,-0.43823,-1.1056,-1.0445,0.0621,0,0,0.78817,-0.079444,0,0.16146,0,0,0.35685,-0.12487,0,0.37823,-0.4325,-1.1114,-1.0445,5.271,-0.86279,0.64802,0.013476,0.46,0.32,0
0.27609,0.0343,0.57447,-0.42946,-1.0659,-1.0231,0.046339,0,0,0.77168,-0.05564,0,0.12048,0,0,0.32753,-0.11282,0,0.34684,-0.42611,-1.0692,-1.0231,4.1428,-0.83947,0.62133,0.01209,0.48,0.32,0
0.29136,0.031699,0.56826,-0.40201,-0.67747,-0.6648,0.028561,0,0,0.18159,-0.027453,0,0.19499,0,0,0.29918,-0.063794,0,0.3087,-0.36829,-0.71118,-0.6648,36.839,-0.58142,0.33635,0.0055333,0.5,0.32,0
0.28336,0.033371,0.53948,-0.38778,-0.34423,-0.3275,0.020268,0,0,-0.39183,-0.10874,0,0.26349,0,0,0.28335,-0.018632,0,0.28399,-0.33626,-0.39575,-0.3275,68.527,-0.35317,0.064325,-1.282e-05,0.52,0.32,0
0.27569,0.034665,0.51159,-0.37813,-0.34625,-0.31963,0.016906,0,0,-0.38021,-0.17305,0,0.21978,0,0,0.27455,-0.01719,0,0.27513,-0.33896,-0.38542,-0.31963,66.654,-0.348,0.058571,-6.6591e-06,0.54,0.32,0
0.26815,0.035534,0.48457,-0.36957,-0.34522,-0.31135,0.013759,0,0,-0.37844,-0.22014,0,0.17887,0,0,0.26612,-0.016575,0,0.26666,-0.33902,-0.37577,-0.31135,65.754,-0.34205,0.055972,-2.1716e-06,0.56,0.32,0
0.26055,0.035957,0.45836,-0.36227,-0.34189,-0.30292,0.010916,0,0,-0.38577,-0.25329,0,0.14191,0,0,0.25867,-0.01634,0,0.25921,-0.33714,-0.36701,-0.30292,66.516,-0.33569,0.055548,1.0334e-06,0.58,0.32,0
0.25272,0.035958,0.43284,-0.35613,-0.33697,-0.2945,0.0085082,0,0,-0.40061,-0.27605,0,0.11061,0,0,0.2525,-0.016139,0,0.25303,-0.33373,-0.35936,-0.2945,69.198,-0.3292,0.056586,3.2926e-06,0.6,0.32,0
0.24452,0.035598,0.40786,-0.35101,-0.3309,-0.28615,0.0065811,0,0,-0.42162,-0.2909,0,0.085555,0,0,0.24764,-0.015787,0,0.24815,-0.32894,-0.35297,-0.28615,73.398,-0.32268,0.058629,4.7975e-06,0.62,0.32,0
0.23585,0.034956,0.38331,-0.34682,-0.32396,-0.27789,0.0051055,0,0,-0.44799,-0.29941,0,0.066371,0,0,0.244,-0.015232,0,0.24448,-0.32287,-0.34791,-0.27789,77.965,-0.31622,0.061445,5.5961e-06,0.64,0.32,0
0.2266,0.034108,0.35906,-0.34348,-0.3163,-0.26975,0.0040121,0,0,-0.47926,-0.3026,0,0.052158,0,0,0.24143,-0.014495,0,0.24187,-0.31572,-0.34406,-0.26975,81.775,-0.30984,0.064958,5.5919e-06,0.66,0.32,0
0.21668,0.033125,0.33502,-0.34096,-0.30803,-0.2617,0.003228,0,0,-0.51515,-0.30116,0,0.041964,0,0,0.23982,-0.013627,0,0.24021,-0.30772,-0.34127,-0.2617,84.453,-0.30356,0.069189,4.5491e-06,0.68,0.32,0
0.206,0.032063,0.3111,-0.33922,-0.29924,-0.25376,0.0026908,0,0,-0.55552,-0.29563,0,0.034981,0,0,0.23908,-0.012692,0,0.23942,-0.29906,-0.3394,-0.25376,86.167,-0.29741,0.074212,2.1002e-06,0.7,0.32,0
0.19446,0.03097,0.28721,-0.33826,-0.28999,-0.24592,0.0023533,0,0,-0.60026,-0.28646,0,0.030592,0,0,0.23917,-0.011756,0,0.23946,-0.28987,-0.33838,-0.24592,87.216,-0.29139,0.080107,-2.2465e-06,0.72,0.32,0
0.18199,0.029881,0.26327,-0.33808,-0.28035,-0.23818,0.0021797,0,0,-0.64933,-0.27409,0,0.028337,0,0,0.24008,-0.010887,0,0.24033,-0.28027,-0.33816,-0.23818,87.841,-0.28554,0.086944,-9.1045e-06,0.74,0.32,0
0.16849,0.028824,0.23919,-0.33866,-0.27039,-0.23055,0.0021415,0,0,-0.70268,-0.25896,0,0.027839,0,0,0.24188,-0.010152,0,0.24209,-0.27033,-0.33873,-0.23055,88.205,-0.27987,0.094767,-1.9203e-05,0.76,0.32,0
0.15388,0.027819,0.21489,-0.34,-0.26021,-0.22304,0.002209,0,0,-0.76024,-0.24159,0,0.028717,0,0,0.24465,-0.0096167,0,0.24485,-0.26015,-0.34006,-0.22304,88.415,-0.27442,0.10358,-3.3369e-05,0.78,0.32,0
0.13808,0.026878,0.19026,-0.34208,-0.24989,-0.21564,0.0023458,0,0,-0.82184,-0.2226,0,0.030495,0,0,0.24853,-0.0093369,0,0.24872,-0.24983,-0.34214,-0.21564,88.543,-0.26921,0.11334,-5.2479e-05,0.8,0.32,0
0.12101,0.02601,0.16518,-0.34484,-0.23955,-0.20835,0.002506,0,0,-0.88713,-0.2028,0,0.032578,0,0,0.25367,-0.0093375,0,0.25386,-0.23949,-0.34489,-0.20835,88.637,-0.26425,0.12394,-7.7368e-05,0.82,0.32,0
0.10259,0.02522,0.13953,-0.34816,-0.22931,-0.20114,0.0026502,0,0,-0.95558,-0.18305,0,0.034453,0,0,0.26017,-0.0095731,0,0.26037,-0.22925,-0.34821,-0.20114,88.723,-0.25954,0.13523,-0.00010875,0.84,0.32,0
0.082782,0.024525,0.11315,-0.35193,-0.21922,-0.19397,0.0027734,0,0,-1.0267,-0.16407,0,0.036055,0,0,0.26799,-0.0098707,0,0.26821,-0.21916,-0.35199,-0.19397,88.803,-0.25504,0.14705,-0.00014729,0.86,0.32,0
0.061524,0.023961,0.085929,-0.35602,-0.2091,-0.18672,0.0029178,0,0,-1.1004,-0.14548,0,0.037931,0,0,0.27685,-0.0099089,0,0.27707,-0.20905,-0.35607,-0.18672,88.863,-0.25061,0.15937,-0.00019421,0.88,0.32,0
0.038766,0.023596,0.05778,-0.36021,-0.19846,-0.17916,0.0030465,0,0,-1.1768,-0.12549,0,0.039604,0,0,0.28609,-0.0092862,0,0.28628,-0.1984,-0.36027,-0.17916,88.921,-0.24594,0.17229,-0.00025165,0.9,0.32,0
0.014451,0.023491,0.02871,-0.35935,-0.24595,-0.19882,0.0018761,0,0,-0.69499,-0.10212,0,0.017402,0,0,0.30285,-0.023103,0,0.30443,-0.24592,-0.35939,-0.19882,88.904,-0.26804,0.14821,-0.00013342,0.92,0.32,0
0.010966,0.022829,0.02241,-0.36651,-0.33159,-0.23184,-0.00056377,0,0,-0.17507,-0.12968,0,-0.0014658,0,0,0.33299,-0.033873,0,0.33522,-0.33159,-0.36652,-0.23184,-89.075,-0.30998,0.12105,6.6173e-05,0.94,0.32,0
0.0074479,0.022191,0.01539,-0.36787,-0.3495,-0.2306,-0.00074714,0,0,-0.17845,-0.15457,0,-0.0019426,0,0,0.36434,-0.024894,0,0.36542,-0.34947,-0.3679,-0.2306,-87.675,-0.31599,0.12907,0.00010289,0.96,0.32,0
0.0038279,0.021773,0.0078365,-0.36797,-0.35504,-0.22474,9.6103e-08,0,0,-0.1862,-0.1694,0,2.4987e-07,0,0,0.38476,-0.013081,0,0.38501,-0.35504,-0.36797,-0.22474,90,-0.31592,0.13722,0.00012875,0.98,0.32,0
0,0.021633,0,-0.35802,-0.34462,-0.21079,-0.0026826,0,0,-0.1914,-0.17398,0,-0.0069748,0,0,0.39183,1.301e-18,0,0.39178,-0.34411,-0.35854,-0.21079,-79.088,-0.30448,0.14108,0.00013915,1,0.32,0
0,0.039726,1,-0.53358,-1.706,-1.6719,-0.0011149,0,0,1.4798,-0.04437,0,-0.0028987,0,0,0.38823,2.1797e-15,0,0.38816,-0.53358,-1.706,-1.6719,-0.054484,-1.3038,1.1557,0.079055,0,0.34,0
0.029596,0.039669,0.99223,-0.52087,-1.6919,-1.6561,-0.010379,0,0,1.4758,-0.046624,0,-0.026985,0,0,0.38388,0.018156,0,0.38426,-0.52077,-1.692,-1.6561,-0.50773,-1.2896,1.1537,0.078611,0.02,0.34,0
0.059031,0.039522,0.98464,-0.51285,-1.6845,-1.6438,-0.018666,0,0,1.4703,-0.052802,0,-0.048533,0,0,0.37093,0.035198,0,0.37263,-0.51255,-1.6847,-1.6438,-0.91255,-1.2804,1.1523,0.078245,0.04,0.34,0
0.088407,0.03939,0.9774,-0.5017,-1.6775,-1.6312,-0.022852,0,0,1.4683,-0.060271,0,-0.059414,0,0,0.34995,0.049493,0,0.35363,-0.50125,-1.678,-1.6312,-1.1129,-1.2701,1.154,0.078498,0.06,0.34,0
0.11776,0.039394,0.97065,-0.48927,-1.6668,-1.6175,-0.022741,0,0,1.4667,-0.064178,0,-0.059127,0,0,0.32241,0.058828,0,0.3281,-0.48883,-1.6673,-1.6175,-1.1059,-1.2579,1.1544,0.078508,0.08,0.34,0
0.14707,0.039581,0.9645,-0.45309,-1.0608,-1.0329,-0.020971,0,0,0.83748,-0.060513,0,-0.15844,0,0,0.29745,0.036658,0,0.30082,-0.44886,-1.065,-1.0329,-11.511,-0.84892,0.60157,0.039036,0.1,0.34,0
0.15126,0.035714,0.93574,-0.42745,-0.48711,-0.46152,-0.018153,0,0,0.2214,-0.16634,0,-0.23599,0,0,0.28436,0.0096147,0,0.28454,-0.42236,-0.4922,-0.46152,-15.663,-0.45869,0.060626,2.3831e-06,0.12,0.34,0
0.15593,0.032438,0.90763,-0.41873,-0.49307,-0.45507,-0.013667,0,0,0.2362,-0.24705,0,-0.17768,0,0,0.27815,0.0053222,0,0.27821,-0.4163,-0.49551,-0.45507,-10.094,-0.45562,0.068604,-6.0528e-07,0.14,0.34,0
0.16071,0.030008,0.88011,-0.4121,-0.4943,-0.44794,-0.0082589,0,0,0.23297,-0.30134,0,-0.10737,0,0,0.27303,-0.00038332,0,0.27303,-0.41128,-0.49512,-0.44794,-5.681,-0.45145,0.072802,-4.265e-06,0.16,0.34,0
0.16525,0.028433,0.85302,-0.40757,-0.49191,-0.44045,-0.0029442,0,0,0.21371,-0.33448,0,-0.038275,0,0,0.26952,-0.0070401,0,0.2696,-0.40747,-0.49201,-0.44045,-1.9969,-0.44664,0.073803,-7.6321e-06,0.18,0.34,0
0.16926,0.027624,0.8262,-0.4048,-0.487,-0.43278,0.0020312,0,0,0.18187,-0.35243,0,0.026406,0,0,0.26792,-0.014195,0,0.26828,-0.40475,-0.48705,-0.43278,1.4146,-0.44153,0.072472,-1.0154e-05,0.2,0.34,0
0.17252,0.027505,0.79944,-0.40345,-0.48026,-0.425,0.0068434,0,0,0.14009,-0.35918,0,0.088965,0,0,0.26837,-0.021488,0,0.26921,-0.40284,-0.48086,-0.425,5.0517,-0.43623,0.069638,-1.1609e-05,0.22,0.34,0
0.17486,0.028057,0.77253,-0.40332,-0.47195,-0.41709,0.011825,0,0,0.089502,-0.35663,0,0.15373,0,0,0.2709,-0.028623,0,0.2724,-0.40134,-0.47393,-0.41709,9.5067,-0.43079,0.066143,-1.2069e-05,0.24,0.34,0
0.1761,0.029342,0.74526,-0.40441,-0.46202,-0.40898,0.017314,0,0,0.029707,-0.34474,0,0.22509,0,0,0.27547,-0.035271,0,0.27773,-0.39961,-0.46682,-0.40898,15.505,-0.42513,0.063052,-1.1921e-05,0.26,0.34,0
0.17605,0.031492,0.71743,-0.40691,-0.44998,-0.40055,0.023512,0,0,-0.041311,-0.32126,0,0.30566,0,0,0.28191,-0.040984,0,0.28489,-0.39656,-0.46033,-0.40055,23.757,-0.41915,0.061868,-1.1992e-05,0.28,0.34,0
0.17445,0.034661,0.68888,-0.41103,-0.43482,-0.39153,0.030239,0,0,-0.12676,-0.28138,0,0.39311,0,0,0.2898,-0.045191,0,0.29333,-0.39043,-0.45542,-0.39153,34.264,-0.41246,0.064446,-1.3734e-05,0.3,0.34,0
0.17098,0.03893,0.65947,-0.41677,-0.4153,-0.38152,0.036548,0,0,-0.22914,-0.21961,0,0.47512,0,0,0.29841,-0.047332,0,0.30217,-0.37948,-0.45259,-0.38152,45.575,-0.40453,0.072114,-1.921e-05,0.32,0.34,0
0.16529,0.044149,0.62919,-0.43378,-0.8143,-0.75194,0.043177,0,0,0.29971,-0.13512,0,0.31927,0,0,0.31469,-0.14132,0,0.35473,-0.40593,-0.84215,-0.75194,28.224,-0.66667,0.41036,0.0097518,0.34,0.34,0
0.18297,0.041438,0.62266,-0.45637,-1.2296,-1.1284,0.056047,0,0,0.87371,-0.13149,0,0.14572,0,0,0.34446,-0.22856,0,0.41376,-0.45233,-1.2336,-1.1284,4.1243,-0.93814,0.73439,0.018943,0.36,0.34,0
0.20023,0.039355,0.61542,-0.46286,-1.2119,-1.1178,0.068524,0,0,0.85147,-0.12224,0,0.17816,0,0,0.3759,-0.21163,0,0.43152,-0.45664,-1.2181,-1.1178,5.1844,-0.93085,0.7166,0.017659,0.38,0.34,0
0.21703,0.037851,0.60763,-0.4668,-1.1868,-1.1037,0.07438,0,0,0.82798,-0.10803,0,0.19339,0,0,0.3971,-0.18718,0,0.43893,-0.4592,-1.1944,-1.1037,5.8368,-0.91911,0.69432,0.016206,0.4,0.34,0
0.23335,0.036722,0.59953,-0.46652,-1.158,-1.0869,0.072252,0,0,0.80648,-0.092447,0,0.18786,0,0,0.4052,-0.15796,0,0.43471,-0.45905,-1.1655,-1.0869,5.9018,-0.9038,0.67059,0.014774,0.42,0.34,0
0.24929,0.035739,0.59142,-0.46134,-1.1275,-1.0681,0.063831,0,0,0.78876,-0.077271,0,0.16596,0,0,0.3984,-0.12658,0,0.41789,-0.45528,-1.1336,-1.0681,5.4241,-0.88564,0.64803,0.013497,0.44,0.34,0
0.2649,0.034709,0.5836,-0.45219,-1.0928,-1.0471,0.051818,0,0,0.77336,-0.059377,0,0.13473,0,0,0.37622,-0.096634,0,0.38857,-0.44802,-1.0969,-1.0471,4.5951,-0.86401,0.62547,0.012299,0.46,0.34,0
0.28022,0.033419,0.57637,-0.4407,-1.0479,-1.0229,0.03531,0,0,0.75692,-0.03241,0,0.091807,0,0,0.3404,-0.072987,0,0.34875,-0.43865,-1.0499,-1.0229,3.3171,-0.83717,0.59823,0.010921,0.48,0.34,0
0.29518,0.031465,0.56998,-0.40781,-0.65965,-0.66223,0.017083,0,0,0.15782,0.0055849,0,0.10667,0,0,0.30521,-0.036561,0,0.30869,-0.37267,-0.6948,-0.66223,41.22,-0.57656,0.32228,0.0048596,0.5,0.34,0
0.28653,0.03147,0.54089,-0.39328,-0.34171,-0.32867,0.0092027,0,0,-0.41992,-0.084732,0,0.11964,0,0,0.28565,-0.0084888,0,0.28583,-0.34012,-0.39487,-0.32867,80.179,-0.35455,0.061281,-1.0444e-05,0.52,0.34,0
0.27838,0.031449,0.51285,-0.3821,-0.34398,-0.3204,0.0073096,0,0,-0.4011,-0.15331,0,0.095025,0,0,0.27534,-0.0074454,0,0.27549,-0.34263,-0.38346,-0.3204,79.51,-0.34883,0.055399,-4.2319e-06,0.54,0.34,0
0.27049,0.031349,0.48582,-0.3724,-0.34298,-0.31178,0.0056669,0,0,-0.39403,-0.20281,0,0.07367,0,0,0.26598,-0.008126,0,0.26614,-0.34192,-0.37345,-0.31178,79.466,-0.34238,0.053416,-3.0339e-07,0.56,0.34,0
0.26262,0.031078,0.45965,-0.36431,-0.33995,-0.30321,0.0041801,0,0,-0.39716,-0.23883,0,0.054342,0,0,0.25821,-0.0094902,0,0.2584,-0.33925,-0.36501,-0.30321,80.528,-0.33582,0.053766,2.264e-06,0.58,0.34,0
0.2546,0.030591,0.43418,-0.35759,-0.33543,-0.29474,0.0029507,0,0,-0.40849,-0.26449,0,0.038359,0,0,0.2521,-0.010806,0,0.25235,-0.33505,-0.35797,-0.29474,82.542,-0.32925,0.055445,3.9811e-06,0.6,0.34,0
0.24628,0.029905,0.40923,-0.35208,-0.32977,-0.2864,0.0020676,0,0,-0.42691,-0.28191,0,0.026879,0,0,0.24749,-0.011775,0,0.24777,-0.32959,-0.35227,-0.2864,84.749,-0.32275,0.057957,5.0824e-06,0.62,0.34,0
0.23753,0.029069,0.38468,-0.34765,-0.32319,-0.27819,0.0015279,0,0,-0.45151,-0.29249,0,0.019863,0,0,0.24411,-0.012343,0,0.24442,-0.32309,-0.34775,-0.27819,86.44,-0.31634,0.061084,5.6074e-06,0.64,0.34,0
0.22822,0.028139,0.36041,-0.34417,-0.31582,-0.27008,0.0012904,0,0,-0.48161,-0.2973,0,0.016775,0,0,0.24176,-0.012565,0,0.24209,-0.31576,-0.34423,-0.27008,87.4,-0.31002,0.064791,5.4343e-06,0.66,0.34,0
0.21826,0.027169,0.33633,-0.34156,-0.30779,-0.26207,0.0013058,0,0,-0.51667,-0.29718,0,0.016975,0,0,0.2403,-0.012541,0,0.24062,-0.30774,-0.34161,-0.26207,87.789,-0.30381,0.069134,4.3031e-06,0.68,0.34,0
0.20755,0.026206,0.31235,-0.33974,-0.29919,-0.25415,0.0015337,0,0,-0.55632,-0.29279,0,0.019938,0,0,0.23961,-0.012382,0,0.23993,-0.29914,-0.3398,-0.25415,87.837,-0.29769,0.074203,1.8338e-06,0.7,0.34,0
0.19601,0.025285,0.28841,-0.33868,-0.29012,-0.24632,0.0019462,0,0,-0.60033,-0.28468,0,0.025301,0,0,0.23966,-0.0122,0,0.23997,-0.29004,-0.33876,-0.24632,87.709,-0.2917,0.080091,-2.4659e-06,0.72,0.34,0
0.18354,0.024435,0.26442,-0.33837,-0.28064,-0.23858,0.0025246,0,0,-0.64858,-0.27333,0,0.032821,0,0,0.24045,-0.012113,0,0.24076,-0.28053,-0.33848,-0.23858,87.501,-0.28586,0.086878,-9.2044e-06,0.74,0.34,0
0.17007,0.023672,0.24032,-0.33881,-0.27082,-0.23095,0.0032526,0,0,-0.70108,-0.25915,0,0.042284,0,0,0.24203,-0.012235,0,0.24234,-0.27067,-0.33897,-0.23095,87.267,-0.2802,0.094628,-1.912e-05,0.76,0.34,0
0.1555,0.023008,0.21601,-0.34005,-0.26076,-0.22345,0.0041057,0,0,-0.75793,-0.24255,0,0.053374,0,0,0.24451,-0.012682,0,0.24484,-0.26055,-0.34026,-0.22345,87.044,-0.27475,0.10339,-3.31e-05,0.78,0.34,0
0.13975,0.022444,0.19142,-0.34212,-0.25053,-0.21608,0.0050387,0,0,-0.81925,-0.22394,0,0.065503,0,0,0.24804,-0.013558,0,0.24842,-0.25025,-0.34239,-0.21608,86.861,-0.26957,0.11317,-5.2188e-05,0.8,0.34,0
0.12273,0.021973,0.16641,-0.34503,-0.24021,-0.20885,0.0059763,0,0,-0.88514,-0.2038,0,0.077692,0,0,0.25285,-0.014925,0,0.2533,-0.23987,-0.34537,-0.20885,86.747,-0.26469,0.12395,-7.7554e-05,0.82,0.34,0
0.10434,0.021586,0.14084,-0.34875,-0.22989,-0.20176,0.0068199,0,0,-0.95545,-0.18282,0,0.088659,0,0,0.25919,-0.01673,0,0.25975,-0.2295,-0.34914,-0.20176,86.727,-0.26014,0.13566,-0.00011037,0.84,0.34,0
0.084511,0.021279,0.11457,-0.35318,-0.21967,-0.19477,0.0075131,0,0,-1.0297,-0.16184,0,0.09767,0,0,0.26724,-0.018675,0,0.26793,-0.21924,-0.3536,-0.19477,86.789,-0.25587,0.14812,-0.00015165,0.86,0.34,0
0.063157,0.021098,0.087397,-0.3583,-0.20961,-0.18785,0.0080832,0,0,-1.1079,-0.14143,0,0.10508,0,0,0.27689,-0.020029,0,0.27766,-0.20917,-0.35874,-0.18785,86.897,-0.25192,0.16129,-0.00020285,0.88,0.34,0
0.040194,0.021148,0.05919,-0.36392,-0.19893,-0.18069,0.0085592,0,0,-1.191,-0.11854,0,0.11127,0,0,0.28746,-0.019788,0,0.28819,-0.19849,-0.36436,-0.18069,87.038,-0.24785,0.17545,-0.00026779,0.9,0.34,0
0.015518,0.021551,0.029905,-0.36372,-0.23962,-0.19894,0.0067589,0,0,-0.70772,-0.088133,0,0.057257,0,0,0.30743,-0.051297,0,0.31373,-0.23922,-0.36412,-0.19894,86.439,-0.26743,0.15267,-0.00016006,0.92,0.34,0
0.011885,0.020276,0.023465,-0.37752,-0.33253,-0.23648,0.0039248,0,0,-0.18335,-0.12487,0,0.010204,0,0,0.34347,-0.075332,0,0.35229,-0.33219,-0.37786,-0.23648,85.052,-0.31551,0.12497,5.6988e-05,0.94,0.34,0
0.0081842,0.019132,0.016166,-0.38334,-0.35115,-0.23652,0.0042614,0,0,-0.19088,-0.14903,0,0.01108,0,0,0.38051,-0.054827,0,0.38465,-0.3506,-0.3839,-0.23652,82.586,-0.32367,0.13388,9.8002e-05,0.96,0.34,0
0.0042502,0.018439,0.0082442,-0.38777,-0.35269,-0.23038,0.0039035,0,0,-0.2046,-0.159,0,0.010149,0,0,0.40415,-0.028507,0,0.40507,-0.35226,-0.3882,-0.23038,83.727,-0.32361,0.14327,0.0001196,0.98,0.34,0
0,0.01822,0,-0.37894,-0.3393,-0.21547,-0.0042059,0,0,-0.21251,-0.16097,0,-0.010935,0,0,0.41221,-3.4694e-18,0,0.41203,-0.33886,-0.37939,-0.21547,-84.01,-0.31124,0.14787,0.00012498,1,0.34,0
0,0.039017,1,-0.55734,-1.6916,-1.6747,-0.0022958,0,0,1.4525,-0.021995,0,-0.0059691,0,0,0.41075,-3.7123e-16,0,0.4106,-0.55734,-1.6916,-1.6747,-0.11597,-1.3079,1.1259,0.073248,0,0.36,0
0.029051,0.038897,0.99179,-0.54268,-1.6775,-1.6579,-0.016841,0,0,1.4497,-0.025577,0,-0.043788,0,0,0.40582,0.027281,0,0.40661,-0.54243,-1.6778,-1.6579,-0.85004,-1.2927,1.1255,0.073149,0.02,0.36,0
0.057988,0.038579,0.98377,-0.53109,-1.6736,-1.6452,-0.031401,0,0,1.4483,-0.036919,0,-0.081642,0,0,0.39077,0.053927,0,0.39446,-0.53022,-1.6744,-1.6452,-1.5732,-1.2833,1.1299,0.07391,0.04,0.36,0
0.086983,0.038225,0.97615,-0.51446,-1.6739,-1.6327,-0.039593,0,0,1.4537,-0.053626,0,-0.10294,0,0,0.36528,0.077806,0,0.3737,-0.51311,-1.6753,-1.6327,-1.9535,-1.2737,1.1415,0.076025,0.06,0.36,0
0.11614,0.038088,0.96916,-0.49668,-1.6715,-1.6196,-0.039602,0,0,1.4598,-0.067412,0,-0.10297,0,0,0.33037,0.094994,0,0.34432,-0.49535,-1.6728,-1.6196,-1.9285,-1.2626,1.1518,0.077908,0.08,0.36,0
0.14537,0.038341,0.96294,-0.45369,-1.0632,-1.0328,-0.034842,0,0,0.84059,-0.065852,0,-0.25845,0,0,0.29795,0.06045,0,0.30663,-0.44454,-1.0724,-1.0328,-14.863,-0.84992,0.61059,0.039054,0.1,0.36,0
0.14976,0.032147,0.93443,-0.42578,-0.49319,-0.46258,-0.029053,0,0,0.23918,-0.19897,0,-0.37768,0,0,0.28072,0.017664,0,0.28131,-0.41498,-0.50398,-0.46258,-20.381,-0.46051,0.077133,2.8296e-06,0.12,0.36,0
0.15494,0.02717,0.9068,-0.41537,-0.5005,-0.45612,-0.021465,0,0,0.26489,-0.2885,0,-0.27904,0,0,0.27257,0.012291,0,0.27287,-0.41026,-0.50561,-0.45612,-13.38,-0.45733,0.082593,-1.9076e-06,0.14,0.36,0
0.16035,0.023652,0.87992,-0.40799,-0.50109,-0.44871,-0.013369,0,0,0.26466,-0.3405,0,-0.1738,0,0,0.266,0.0047179,0,0.26604,-0.40611,-0.50298,-0.44871,-8.0119,-0.4526,0.084091,-6.3157e-06,0.16,0.36,0
0.16553,0.021444,0.85359,-0.40336,-0.49786,-0.44109,-0.0060631,0,0,0.2452,-0.36904,0,-0.078821,0,0,0.26163,-0.0041339,0,0.26164,-0.40298,-0.49825,-0.44109,-3.6562,-0.44744,0.083056,-9.9478e-06,0.18,0.36,0
0.17016,0.020304,0.82759,-0.40066,-0.49244,-0.43345,0.00039407,0,0,0.21314,-0.38346,0,0.0051229,0,0,0.25966,-0.013524,0,0.25998,-0.40066,-0.49244,-0.43345,0.24599,-0.44218,0.080563,-1.2641e-05,0.2,0.36,0
0.17405,0.02006,0.80166,-0.39939,-0.48563,-0.42584,0.0064399,0,0,0.1719,-0.38865,0,0.083718,0,0,0.2601,-0.023044,0,0.2611,-0.39892,-0.48611,-0.42584,4.2471,-0.43696,0.077333,-1.4411e-05,0.22,0.36,0
0.17704,0.020656,0.77557,-0.39937,-0.47769,-0.41823,0.01258,0,0,0.12262,-0.38648,0,0.16354,0,0,0.26297,-0.032436,0,0.26494,-0.39739,-0.47966,-0.41823,8.9042,-0.43176,0.074079,-1.5444e-05,0.24,0.36,0
0.17896,0.022158,0.74907,-0.40061,-0.46853,-0.41056,0.019311,0,0,0.064637,-0.37683,0,0.25105,0,0,0.26832,-0.04139,0,0.27149,-0.39551,-0.47364,-0.41056,14.813,-0.42657,0.0718,-1.623e-05,0.26,0.36,0
0.17962,0.024747,0.72191,-0.40343,-0.45759,-0.40269,0.027079,0,0,-0.0048315,-0.35687,0,0.35202,0,0,0.27617,-0.049339,0,0.28057,-0.39221,-0.46881,-0.40269,22.5,-0.42124,0.071929,-1.7755e-05,0.28,0.36,0
0.17877,0.028709,0.69383,-0.40852,-0.44348,-0.39437,0.035941,0,0,-0.091975,-0.31925,0,0.46723,0,0,0.28621,-0.055293,0,0.29155,-0.38603,-0.46597,-0.39437,32.03,-0.41546,0.076111,-2.1731e-05,0.3,0.36,0
0.17594,0.034285,0.66466,-0.41616,-0.42327,-0.38476,0.044842,0,0,-0.2041,-0.2503,0,0.58295,0,0,0.29757,-0.058087,0,0.30325,-0.37473,-0.4647,-0.38476,42.734,-0.40807,0.085393,-3.0499e-05,0.32,0.36,0
0.1706,0.041389,0.63432,-0.43582,-0.82325,-0.75831,0.053695,0,0,0.31237,-0.1407,0,0.3952,0,0,0.31955,-0.1708,0,0.3747,-0.40378,-0.8553,-0.75831,27.385,-0.67246,0.4226,0.010123,0.34,0.36,0
0.18844,0.038743,0.62761,-0.46761,-1.2482,-1.1423,0.069133,0,0,0.87716,-0.13761,0,0.17975,0,0,0.35973,-0.27242,0,0.45183,-0.46153,-1.2543,-1.1423,5.0223,-0.95272,0.74313,0.019475,0.36,0.36,0
0.20569,0.03692,0.61993,-0.48181,-1.2209,-1.1307,0.0815,0,0,0.84362,-0.11722,0,0.2119,0,0,0.40195,-0.24439,0,0.47057,-0.47293,-1.2298,-1.1307,6.2183,-0.9445,0.71253,0.017375,0.38,0.36,0
0.22218,0.035806,0.61153,-0.49408,-1.1837,-1.1149,0.08284,0,0,0.80702,-0.089499,0,0.21538,0,0,0.43063,-0.20582,0,0.47709,-0.48427,-1.1935,-1.1149,6.7545,-0.93088,0.67338,0.014963,0.4,0.36,0
0.23797,0.035074,0.60271,-0.4992,-1.1451,-1.096,0.072271,0,0,0.77582,-0.063795,0,0.1879,0,0,0.4431,-0.16094,0,0.47103,-0.49121,-1.153,-1.096,6.3074,-0.91341,0.63523,0.012807,0.42,0.36,0
0.25322,0.034427,0.59381,-0.49275,-1.1083,-1.0741,0.054258,0,0,0.75578,-0.044443,0,0.14107,0,0,0.43711,-0.11227,0,0.45088,-0.48801,-1.1131,-1.0741,4.9989,-0.89173,0.60652,0.0113,0.44,0.36,0
0.2682,0.033745,0.58522,-0.47868,-1.0759,-1.0516,0.034449,0,0,0.74479,-0.031587,0,0.089567,0,0,0.41045,-0.062271,0,0.41513,-0.4767,-1.0779,-1.0516,3.2904,-0.86872,0.58847,0.010396,0.46,0.36,0
0.28301,0.033004,0.57739,-0.46046,-1.0327,-1.0253,0.017543,0,0,0.73434,-0.0095779,0,0.045611,0,0,0.36323,-0.020807,0,0.36482,-0.45992,-1.0332,-1.0253,1.7543,-0.8395,0.56941,0.0094758,0.48,0.36,0
0.29757,0.031923,0.57069,-0.4153,-0.64059,-0.65918,0.00079658,0,0,0.12872,0.040294,0,-0.010864,0,0,0.31493,0.00045408,0,0.3159,-0.37593,-0.67996,-0.65918,-43.874,-0.57169,0.31062,0.00411,0.5,0.36,0
0.28816,0.029982,0.54118,-0.39981,-0.34174,-0.3307,-0.0042525,0,0,-0.44918,-0.071776,0,-0.055282,0,0,0.28809,0.0045811,0,0.28822,-0.34143,-0.40012,-0.3307,-85.833,-0.35742,0.06472,-1.2642e-05,0.52,0.36,0
0.27961,0.028533,0.51308,-0.38559,-0.34365,-0.32138,-0.0039533,0,0,-0.4173,-0.14471,0,-0.051393,0,0,0.27492,0.0040767,0,0.27502,-0.34328,-0.38595,-0.32138,-84.662,-0.35021,0.056877,-4.9491e-06,0.54,0.36,0
0.27147,0.027422,0.4862,-0.37433,-0.34255,-0.3123,-0.0034966,0,0,-0.40319,-0.19661,0,-0.045455,0,0,0.26407,0.00079049,0,0.26411,-0.34217,-0.37471,-0.3123,-83.795,-0.34306,0.054064,-6.0193e-07,0.56,0.36,0
0.26348,0.026404,0.46026,-0.36514,-0.33949,-0.30344,-0.0032579,0,0,-0.40104,-0.23432,0,-0.042353,0,0,0.25599,-0.0028354,0,0.25602,-0.33908,-0.36555,-0.30344,-82.873,-0.33602,0.05398,2.0403e-06,0.58,0.36,0
0.25542,0.025378,0.435,-0.3578,-0.33515,-0.29489,-0.0030046,0,0,-0.40897,-0.26171,0,-0.03906,0,0,0.25022,-0.0058915,0,0.25029,-0.33476,-0.3582,-0.29489,-82.573,-0.32928,0.055441,3.7768e-06,0.6,0.36,0
0.24712,0.024322,0.41022,-0.35197,-0.3297,-0.28654,-0.0026462,0,0,-0.42528,-0.28049,0,-0.0344,0,0,0.2461,-0.0081935,0,0.24625,-0.32939,-0.35228,-0.28654,-83.318,-0.32274,0.057797,4.9295e-06,0.62,0.36,0
0.23841,0.023256,0.38578,-0.3474,-0.32332,-0.27837,-0.0021402,0,0,-0.44867,-0.29216,0,-0.027822,0,0,0.24321,-0.0098087,0,0.24341,-0.32313,-0.34758,-0.27837,-84.96,-0.31636,0.060795,5.5659e-06,0.64,0.36,0
0.22917,0.022216,0.36158,-0.34385,-0.31614,-0.27031,-0.0014836,0,0,-0.47799,-0.29789,0,-0.019286,0,0,0.24123,-0.010885,0,0.24148,-0.31606,-0.34393,-0.27031,-86.944,-0.3101,0.064378,5.5628e-06,0.66,0.36,0
0.21929,0.021237,0.33753,-0.34117,-0.30829,-0.26234,-0.00067886,0,0,-0.51238,-0.29863,0,-0.0088252,0,0,0.24,-0.011591,0,0.24028,-0.30827,-0.34119,-0.26234,-88.818,-0.30394,0.068589,4.6613e-06,0.68,0.36,0
0.20868,0.020351,0.31358,-0.33925,-0.29986,-0.25445,0.00027416,0,0,-0.55122,-0.29517,0,0.003564,0,0,0.23942,-0.012093,0,0.23973,-0.29986,-0.33925,-0.25445,89.601,-0.29785,0.073505,2.4976e-06,0.7,0.36,0
0.19724,0.019582,0.28965,-0.33803,-0.29095,-0.24662,0.0013831,0,0,-0.59413,-0.28812,0,0.01798,0,0,0.23944,-0.012552,0,0.23976,-0.29091,-0.33807,-0.24662,88.319,-0.29187,0.079207,-1.3884e-06,0.72,0.36,0
0.18491,0.018948,0.26569,-0.33748,-0.28164,-0.23888,0.0026619,0,0,-0.64096,-0.27797,0,0.034605,0,0,0.24005,-0.01313,0,0.24041,-0.28151,-0.33761,-0.23888,87.277,-0.286,0.085772,-7.5654e-06,0.74,0.36,0
0.17161,0.018458,0.24164,-0.33765,-0.27201,-0.23123,0.0041263,0,0,-0.69176,-0.2651,0,0.053642,0,0,0.24131,-0.013992,0,0.24171,-0.27175,-0.33791,-0.23123,86.417,-0.2803,0.093275,-1.6746e-05,0.76,0.36,0
0.15724,0.018117,0.21743,-0.3386,-0.26213,-0.22371,0.0057847,0,0,-0.74684,-0.24977,0,0.075202,0,0,0.24333,-0.01531,0,0.24381,-0.2617,-0.33904,-0.22371,85.698,-0.27481,0.1018,-2.9853e-05,0.78,0.36,0
0.14173,0.017921,0.19297,-0.34048,-0.25206,-0.21636,0.0076251,0,0,-0.80678,-0.2321,0,0.099127,0,0,0.24629,-0.01726,0,0.2469,-0.25141,-0.34113,-0.21636,85.107,-0.26963,0.11146,-4.8124e-05,0.8,0.36,0
0.12497,0.017858,0.16817,-0.34345,-0.24185,-0.20922,0.0095914,0,0,-0.87248,-0.21208,0,0.12469,0,0,0.2505,-0.019999,0,0.2513,-0.24096,-0.34435,-0.20922,84.654,-0.26484,0.12238,-7.3242e-05,0.82,0.36,0
0.10683,0.017907,0.14287,-0.3477,-0.23152,-0.20234,0.011566,0,0,-0.94484,-0.18966,0,0.15035,0,0,0.25642,-0.0236,0,0.25752,-0.23038,-0.34884,-0.20234,84.37,-0.26052,0.13469,-0.00010739,0.84,0.36,0
0.087177,0.018051,0.11689,-0.3533,-0.22113,-0.19571,0.013366,0,0,-1.0244,-0.16526,0,0.17376,0,0,0.26469,-0.027863,0,0.26619,-0.21979,-0.35464,-0.19571,84.283,-0.25672,0.14836,-0.00015293,0.86,0.36,0
0.065858,0.018304,0.089934,-0.36004,-0.21072,-0.18922,0.014976,0,0,-1.1103,-0.1398,0,0.19469,0,0,0.27574,-0.031824,0,0.27764,-0.20924,-0.36153,-0.18922,84.329,-0.25333,0.16322,-0.00021206,0.88,0.36,0
0.042763,0.018854,0.061738,-0.36867,-0.20055,-0.18312,0.016376,0,0,-1.2061,-0.11334,0,0.21288,0,0,0.28902,-0.033019,0,0.291,-0.19897,-0.37026,-0.18312,84.488,-0.25078,0.17974,-0.0002904,0.9,0.36,0
0.017613,0.019966,0.03213,-0.36968,-0.23102,-0.19949,0.016562,0,0,-0.72425,-0.068323,0,0.1258,0,0,0.3157,-0.088302,0,0.3326,-0.22881,-0.37189,-0.19949,82.522,-0.26673,0.16139,-0.00020863,0.92,0.36,0
0.013793,0.017835,0.025424,-0.39821,-0.33897,-0.24658,0.017015,0,0,-0.19712,-0.12011,0,0.04424,0,0,0.36366,-0.12767,0,0.38635,-0.33443,-0.40275,-0.24658,75.062,-0.32792,0.1356,2.7479e-05,0.94,0.36,0
0.0097282,0.01623,0.017583,-0.41349,-0.35187,-0.24719,0.020068,0,0,-0.21619,-0.13608,0,0.052177,0,0,0.41117,-0.090222,0,0.42104,-0.34591,-0.41945,-0.24719,73.46,-0.33752,0.14971,4.3075e-05,0.96,0.36,0
0.0051457,0.015412,0.0089768,-0.42664,-0.34196,-0.23956,0.013974,0,0,-0.24321,-0.13313,0,0.036332,0,0,0.43959,-0.045031,0,0.44157,-0.33972,-0.42889,-0.23956,80.867,-0.33605,0.16405,2.2758e-05,0.98,0.36,0
0,0.015194,0,-0.42194,-0.32483,-0.22403,-0.0042003,0,0,-0.25728,-0.13104,0,-0.010921,0,0,0.44884,-1.0408e-17,0,0.44845,-0.32465,-0.42212,-0.22403,-87.528,-0.3236,0.17156,7.1218e-06,1,0.36,0
0,0.038847,1,-0.59114,-1.6718,-1.6789,-0.0038705,0,0,1.4141,0.0091954,0,-0.010063,0,0,0.44279,-1.4381e-15,0,0.44254,-0.59113,-1.6718,-1.6789,-0.20521,-1.3139,1.0842,0.065456,0,0.38,0
0.028281,0.038645,0.99114,-0.57546,-1.6567,-1.6608,-0.023991,0,0,1.4109,0.0052874,0,-0.062377,0,0,0.4378,0.036646,0,0.43909,-0.57492,-1.6573,-1.6608,-1.2704,-1.2977,1.0841,0.065439,0.02,0.38,0
0.056438,0.038045,0.98249,-0.55966,-1.6527,-1.6462,-0.04738,0,0,1.4125,-0.0084496,0,-0.12319,0,0,0.42145,0.07432,0,0.42779,-0.55761,-1.6547,-1.6462,-2.4774,-1.2862,1.0929,0.067028,0.04,0.38,0
0.084781,0.037244,0.97429,-0.53629,-1.6633,-1.6342,-0.064916,0,0,1.4272,-0.037907,0,-0.16878,0,0,0.39102,0.11252,0,0.40708,-0.53256,-1.6671,-1.6342,-3.2856,-1.2779,1.1184,0.071642,0.06,0.38,0
0.11353,0.036697,0.96685,-0.51042,-1.6794,-1.6238,-0.06584,0,0,1.4474,-0.072287,0,-0.17118,0,0,0.34535,0.14317,0,0.37474,-0.50672,-1.6831,-1.6238,-3.2135,-1.2712,1.1479,0.07698,0.08,0.38,0
0.14268,0.036947,0.96047,-0.45605,-1.0713,-1.0345,-0.055357,0,0,0.84498,-0.079732,0,-0.39723,0,0,0.30072,0.093772,0,0.32034,-0.43928,-1.088,-1.0345,-17.434,-0.85394,0.62639,0.039464,0.1,0.38,0
0.14733,0.027755,0.9322,-0.42446,-0.50467,-0.46518,-0.042523,0,0,0.26467,-0.25667,0,-0.5528,0,0,0.2765,0.028896,0,0.27808,-0.40611,-0.52301,-0.46518,-23.339,-0.46477,0.10124,9.7169e-07,0.12,0.38,0
0.15326,0.020899,0.90517,-0.41107,-0.51157,-0.45783,-0.030151,0,0,0.30392,-0.34933,0,-0.39196,0,0,0.26521,0.021565,0,0.26611,-0.40272,-0.51992,-0.45783,-15.482,-0.46015,0.10156,-5.543e-06,0.14,0.38,0
0.15948,0.016388,0.87916,-0.40293,-0.51024,-0.44978,-0.018625,0,0,0.30452,-0.39295,0,-0.24213,0,0,0.25661,0.010933,0,0.25682,-0.39979,-0.51338,-0.44978,-9.5723,-0.45432,0.098603,-1.0126e-05,0.16,0.38,0
0.16544,0.013671,0.85385,-0.39813,-0.50543,-0.44184,-0.0092149,0,0,0.28411,-0.41335,0,-0.11979,0,0,0.25128,-0.0008109,0,0.25124,-0.39734,-0.50622,-0.44184,-4.8729,-0.44847,0.09481,-1.3568e-05,0.18,0.38,0
0.17085,0.012286,0.82891,-0.39543,-0.49923,-0.43418,-0.0012314,0,0,0.25188,-0.42284,0,-0.016008,0,0,0.24901,-0.012769,0,0.24929,-0.39541,-0.49924,-0.43418,-0.67955,-0.44294,0.090878,-1.6267e-05,0.2,0.38,0
0.17552,0.011958,0.80405,-0.39421,-0.49223,-0.42674,0.0061041,0,0,0.21146,-0.42568,0,0.079353,0,0,0.24946,-0.024713,0,0.25063,-0.39383,-0.49261,-0.42674,3.5496,-0.43773,0.087119,-1.8351e-05,0.22,0.38,0
0.17931,0.012597,0.77902,-0.3944,-0.4847,-0.41953,0.013503,0,0,0.16338,-0.42359,0,0.17553,0,0,0.25255,-0.036608,0,0.25516,-0.39242,-0.48668,-0.41953,8.3246,-0.43288,0.084046,-2.0138e-05,0.24,0.38,0
0.18205,0.014269,0.75354,-0.39602,-0.47648,-0.41246,0.021632,0,0,0.10685,-0.41616,0,0.28121,0,0,0.25857,-0.048354,0,0.26304,-0.39057,-0.48193,-0.41246,14.133,-0.42832,0.082617,-2.2256e-05,0.26,0.38,0
0.18358,0.017217,0.7273,-0.39949,-0.46713,-0.40545,0.031189,0,0,0.038712,-0.40095,0,0.40545,0,0,0.26801,-0.05951,0,0.27456,-0.38731,-0.47932,-0.40545,21.341,-0.42402,0.084416,-2.615e-05,0.28,0.38,0
0.1836,0.021891,0.69993,-0.40579,-0.45504,-0.39824,0.042901,0,0,-0.04908,-0.36925,0,0.55771,0,0,0.28105,-0.068723,0,0.28942,-0.38095,-0.47988,-0.39824,30.07,-0.41969,0.091524,-3.4688e-05,0.3,0.38,0
0.18162,0.028918,0.67109,-0.41692,-0.43609,-0.39012,0.05599,0,0,-0.1742,-0.29878,0,0.72787,0,0,0.29677,-0.073176,0,0.30578,-0.3697,-0.48331,-0.39012,40.144,-0.41437,0.1049,-5.1793e-05,0.32,0.38,0
0.17663,0.038521,0.64058,-0.44082,-0.83694,-0.76767,0.071682,0,0,0.32527,-0.15007,0,0.51379,0,0,0.32808,-0.21283,0,0.40659,-0.40133,-0.87643,-0.76767,27.04,-0.68181,0.44159,0.010649,0.34,0.38,0
0.19463,0.035933,0.63356,-0.48849,-1.2723,-1.1618,0.09451,0,0,0.87528,-0.14361,0,0.24572,0,0,0.38473,-0.33264,0,0.50954,-0.47725,-1.2835,-1.1618,6.7795,-0.97417,0.7528,0.019994,0.36,0.38,0
0.21165,0.034666,0.62519,-0.51516,-1.2245,-1.1471,0.1081,0,0,0.82149,-0.1006,0,0.28107,0,0,0.4425,-0.28727,0,0.5277,-0.49905,-1.2406,-1.1471,8.476,-0.96224,0.69948,0.016523,0.38,0.38,0
0.22749,0.034271,0.61586,-0.5404,-1.1697,-1.1289,0.1002,0,0,0.76505,-0.053079,0,0.26052,0,0,0.48054,-0.22956,0,0.53216,-0.52483,-1.1853,-1.1289,8.8317,-0.94634,0.63415,0.012749,0.4,0.38,0
0.24225,0.03417,0.60597,-0.55612,-1.122,-1.1094,0.077538,0,0,0.71928,-0.016381,0,0.2016,0,0,0.49875,-0.16764,0,0.52552,-0.54568,-1.1324,-1.1094,7.6625,-0.92918,0.57559,0.0097409,0.42,0.38,0
0.25626,0.033962,0.59591,-0.55302,-1.0771,-1.085,0.044342,0,0,0.6915,0.0102,0,0.11529,0,0,0.49707,-0.10053,0,0.50631,-0.54929,-1.0808,-1.085,4.8023,-0.90502,0.5336,0.0078017,0.44,0.38,0
0.26991,0.033445,0.58609,-0.52269,-1.0358,-1.0536,0.0081248,0,0,0.69022,0.023212,0,0.021125,0,0,0.46769,-0.025638,0,0.46752,-0.52256,-1.0359,-1.0536,0.90699,-0.87069,0.52243,0.0072948,0.46,0.38,0
0.28387,0.033036,0.5772,-0.49765,-1.023,-1.0334,-0.020869,0,0,0.69647,0.013535,0,-0.054258,0,0,0.40343,0.057279,0,0.40942,-0.49682,-1.0238,-1.0334,-2.2713,-0.85134,0.53184,0.0077179,0.48,0.38,0
0.29777,0.033077,0.56995,-0.43345,-0.63356,-0.66207,-0.023859,0,0,0.096109,0.061778,0,-0.17871,0,0,0.3312,0.056384,0,0.33944,-0.38665,-0.68037,-0.66207,-39.651,-0.57636,0.30278,0.0033817,0.5,0.38,0
0.28771,0.028599,0.53997,-0.40607,-0.34547,-0.33346,-0.022714,0,0,-0.47199,-0.078107,0,-0.29528,0,0,0.28958,0.024235,0,0.29083,-0.33791,-0.41364,-0.33346,-71.571,-0.36167,0.078053,-2.4156e-05,0.52,0.38,0
0.27889,0.025661,0.51204,-0.38801,-0.34719,-0.32297,-0.017558,0,0,-0.42279,-0.15746,0,-0.22825,0,0,0.27155,0.017513,0,0.27219,-0.34068,-0.39453,-0.32297,-69.648,-0.35273,0.064551,-1.0388e-05,0.54,0.38,0
0.2708,0.023485,0.48566,-0.37386,-0.34451,-0.31264,-0.013901,0,0,-0.39791,-0.20713,0,-0.18071,0,0,0.25907,0.0095548,0,0.25926,-0.33897,-0.3794,-0.31264,-68.276,-0.34367,0.05824,-3.6129e-06,0.56,0.38,0
0.26297,0.021705,0.46022,-0.36376,-0.34096,-0.30346,-0.011173,0,0,-0.39194,-0.24374,0,-0.14524,0,0,0.25152,0.0030769,0,0.25155,-0.33639,-0.36832,-0.30346,-67.789,-0.33606,0.056173,2.4581e-07,0.58,0.38,0
0.25512,0.020123,0.43536,-0.35611,-0.33629,-0.29479,-0.0090787,0,0,-0.39858,-0.26973,0,-0.11802,0,0,0.24674,-0.0017912,0,0.24675,-0.33276,-0.35964,-0.29479,-68.756,-0.32906,0.056434,2.6848e-06,0.6,0.38,0
0.24703,0.018686,0.41087,-0.35036,-0.33073,-0.2865,-0.0073131,0,0,-0.41508,-0.2875,0,-0.09507,0,0,0.24357,-0.0053169,0,0.24363,-0.32831,-0.35279,-0.2865,-71.654,-0.32253,0.058053,4.3651e-06,0.62,0.38,0
0.23852,0.017382,0.38664,-0.34595,-0.32435,-0.27842,-0.0057273,0,0,-0.43898,-0.29854,0,-0.074455,0,0,0.24142,-0.0078157,0,0.24154,-0.32292,-0.34738,-0.27842,-76.035,-0.31624,0.060556,5.4571e-06,0.64,0.38,0
0.22947,0.016223,0.36259,-0.34255,-0.31722,-0.27045,-0.0042126,0,0,-0.46863,-0.30403,0,-0.054764,0,0,0.23998,-0.0095746,0,0.24017,-0.31654,-0.34323,-0.27045,-80.799,-0.31007,0.063772,5.892e-06,0.66,0.38,0
0.21977,0.015224,0.33865,-0.33991,-0.30945,-0.26254,-0.0026961,0,0,-0.50291,-0.30495,0,-0.035049,0,0,0.23909,-0.010844,0,0.23933,-0.30922,-0.34015,-0.26254,-84.98,-0.30397,0.06767,5.4564e-06,0.68,0.38,0
0.20935,0.014399,0.31477,-0.33791,-0.30114,-0.25467,-0.0011185,0,0,-0.54104,-0.30209,0,-0.014541,0,0,0.23865,-0.011846,0,0.23894,-0.30111,-0.33794,-0.25467,-88.259,-0.29791,0.072275,3.8448e-06,0.7,0.38,0
0.19813,0.013761,0.29092,-0.33646,-0.29239,-0.24684,0.00057597,0,0,-0.58255,-0.29607,0,0.0074877,0,0,0.23863,-0.012786,0,0.23897,-0.29238,-0.33647,-0.24684,89.251,-0.2919,0.077626,6.7366e-07,0.72,0.38,0
0.18605,0.013316,0.26705,-0.33556,-0.28327,-0.23906,0.0024457,0,0,-0.62724,-0.2874,0,0.031794,0,0,0.23901,-0.013866,0,0.23941,-0.28316,-0.33567,-0.23906,87.328,-0.28596,0.083775,-4.5324e-06,0.74,0.38,0
0.17304,0.013068,0.24311,-0.33523,-0.27389,-0.23136,0.0045537,0,0,-0.67517,-0.27644,0,0.059198,0,0,0.23985,-0.015295,0,0.24034,-0.27355,-0.33557,-0.23136,85.778,-0.28016,0.090789,-1.2387e-05,0.76,0.38,0
0.15904,0.013017,0.21908,-0.33559,-0.2643,-0.22378,0.0069687,0,0,-0.72673,-0.26338,0,0.090593,0,0,0.24124,-0.017302,0,0.24186,-0.26362,-0.33626,-0.22378,84.469,-0.27456,0.098781,-2.3745e-05,0.78,0.38,0
0.14397,0.01316,0.19487,-0.33683,-0.25457,-0.2164,0.0097611,0,0,-0.78285,-0.24815,0,0.12689,0,0,0.24335,-0.020152,0,0.24418,-0.25343,-0.33798,-0.2164,83.325,-0.26927,0.10794,-3.9891e-05,0.8,0.38,0
0.12773,0.01349,0.17041,-0.33934,-0.24474,-0.20931,0.012993,0,0,-0.84522,-0.23035,0,0.1689,0,0,0.24651,-0.024149,0,0.24769,-0.24299,-0.34109,-0.20931,82.32,-0.26446,0.11859,-6.2921e-05,0.82,0.38,0
0.11017,0.013999,0.14556,-0.34369,-0.23483,-0.20267,0.016663,0,0,-0.91665,-0.20904,0,0.21662,0,0,0.25133,-0.029622,0,0.25307,-0.23234,-0.34619,-0.20267,81.489,-0.2604,0.13122,-9.6355e-05,0.84,0.38,0
0.091064,0.014669,0.12014,-0.35054,-0.22471,-0.19661,0.020675,0,0,-1.0006,-0.1827,0,0.26878,0,0,0.25902,-0.036838,0,0.26164,-0.2214,-0.35385,-0.19661,80.904,-0.25729,0.14644,-0.0001458,0.86,0.38,0
0.070141,0.015506,0.093762,-0.36057,-0.21453,-0.19129,0.024717,0,0,-1.1004,-0.15111,0,0.32133,0,0,0.27173,-0.045587,0,0.2756,-0.21046,-0.36464,-0.19129,80.65,-0.25546,0.16461,-0.00021864,0.88,0.38,0
0.047049,0.016615,0.065794,-0.37288,-0.20348,-0.18607,0.029208,0,0,-1.2143,-0.11319,0,0.3797,0,0,0.28985,-0.052791,0,0.29485,-0.19859,-0.37777,-0.18607,80.487,-0.25414,0.18576,-0.0003242,0.9,0.38,0
0.02157,0.018818,0.035792,-0.38553,-0.23339,-0.20715,0.034684,0,0,-0.74146,-0.056861,0,0.2428,0,0,0.33051,-0.1428,0,0.36928,-0.22496,-0.39396,-0.20715,77.056,-0.27536,0.17908,-0.0002915,0.92,0.38,0
0.01739,0.015472,0.028572,-0.43837,-0.35861,-0.26766,0.053659,0,0,-0.22191,-0.11823,0,0.13951,0,0,0.40042,-0.20371,0,0.4508,-0.33163,-0.46534,-0.26766,63.31,-0.35488,0.17471,-0.00015529,0.94,0.38,0
0.012693,0.013689,0.019775,-0.46405,-0.33416,-0.25924,0.051512,0,0,-0.26626,-0.097397,0,0.13393,0,0,0.46316,-0.12663,0,0.47953,-0.31621,-0.482,-0.25924,70.79,-0.35248,0.20044,-0.00030373,0.96,0.38,0
0.0067398,0.013114,0.010045,-0.49966,-0.3187,-0.25555,0.030939,0,0,-0.31734,-0.08209,0,0.080442,0,0,0.49438,-0.060058,0,0.49738,-0.31355,-0.5048,-0.25555,80.561,-0.35797,0.2259,-0.00046311,0.98,0.38,0
0,0.012979,0,-0.49793,-0.29776,-0.23871,-0.0025976,0,0,-0.33699,-0.07677,0,-0.0067538,0,0,0.50227,-1.7347e-17,0,0.50167,-0.29773,-0.49796,-0.23871,-89.257,-0.3448,0.23536,-0.00053035,1,0.38,0
0,0.039385,1,-0.63213,-1.6489,-1.6843,-0.0053019,0,0,1.3679,0.045988,0,-0.013785,0,0,0.48405,1.419e-15,0,0.4837,-0.6321,-1.649,-1.6843,-0.29874,-1.3218,1.035,0.05672,0,0.4,0
0.027357,0.039109,0.99032,-0.61758,-1.6311,-1.6649,-0.028396,0,0,1.3615,0.043977,0,-0.073828,0,0,0.48014,0.044657,0,0.48185,-0.61678,-1.6319,-1.6649,-1.6036,-1.3045,1.032,0.056258,0.02,0.4,0
0.054462,0.038241,0.98079,-0.60734,-1.6236,-1.6501,-0.061533,0,0,1.3556,0.034412,0,-0.15999,0,0,0.46664,0.092982,0,0.4754,-0.60363,-1.6273,-1.6501,-3.4524,-1.2937,1.0353,0.056894,0.04,0.4,0
0.081579,0.036708,0.97165,-0.5702,-1.6252,-1.6303,-0.095441,0,0,1.3781,0.0065839,0,-0.24815,0,0,0.43413,0.14875,0,0.45854,-0.56164,-1.6338,-1.6303,-5.1277,-1.2752,1.0704,0.062986,0.06,0.4,0
0.10959,0.035196,0.96343,-0.53688,-1.6854,-1.6301,-0.11356,0,0,1.4212,-0.071873,0,-0.29526,0,0,0.37415,0.21418,0,0.43262,-0.52576,-1.6965,-1.6301,-5.593,-1.2841,1.139,0.075024,0.08,0.4,0
0.13843,0.035152,0.95669,-0.472,-1.1043,-1.0469,-0.086084,0,0,0.85274,-0.12438,0,-0.5935,0,0,0.3087,0.14407,0,0.35019,-0.44415,-1.1322,-1.0469,-19.191,-0.8744,0.6536,0.040387,0.1,0.4,0
0.14369,0.02188,0.92865,-0.42312,-0.52463,-0.47006,-0.060343,0,0,0.30508,-0.35475,0,-0.78446,0,0,0.27103,0.046747,0,0.27523,-0.39503,-0.55273,-0.47006,-24.966,-0.4726,0.13663,-1.0978e-05,0.12,0.4,0
0.15063,0.013196,0.90248,-0.40594,-0.52761,-0.46056,-0.039845,0,0,0.35503,-0.43583,0,-0.51799,0,0,0.25461,0.033471,0,0.25681,-0.39405,-0.5395,-0.46056,-16.612,-0.46471,0.12611,-1.518e-05,0.14,0.4,0
0.1579,0.0079337,0.87773,-0.39633,-0.52177,-0.45098,-0.024307,0,0,0.35518,-0.46017,0,-0.31599,0,0,0.24362,0.0178,0,0.24421,-0.39179,-0.52632,-0.45098,-10.592,-0.45636,0.11678,-1.6862e-05,0.16,0.4,0
0.16484,0.0049101,0.85376,-0.3913,-0.51487,-0.4426,-0.012526,0,0,0.33346,-0.46973,0,-0.16284,0,0,0.23792,0.0025628,0,0.23787,-0.39004,-0.51612,-0.4426,-5.7304,-0.44959,0.10969,-1.9197e-05,0.18,0.4,0
0.17123,0.0033902,0.83015,-0.38827,-0.50738,-0.43472,-0.0029217,0,0,0.30196,-0.47228,0,-0.037982,0,0,0.23576,-0.012074,0,0.23599,-0.3882,-0.50745,-0.43472,-1.4042,-0.44346,0.10411,-2.1417e-05,0.2,0.4,0
0.17692,0.0030326,0.80661,-0.38701,-0.50009,-0.42745,0.005805,0,0,0.26287,-0.47216,0,0.075465,0,0,0.23627,-0.026412,0,0.23766,-0.38671,-0.50039,-0.42745,2.931,-0.43818,0.099753,-2.3827e-05,0.22,0.4,0
0.18175,0.0037127,0.78289,-0.38738,-0.49311,-0.42073,0.014631,0,0,0.21676,-0.47052,0,0.19021,0,0,0.23933,-0.040835,0,0.24272,-0.38539,-0.4951,-0.42073,7.7348,-0.43374,0.096996,-2.6768e-05,0.24,0.4,0
0.18559,0.005511,0.75874,-0.38966,-0.48634,-0.41455,0.024472,0,0,0.16175,-0.46664,0,0.31814,0,0,0.24542,-0.055676,0,0.25161,-0.38382,-0.49218,-0.41455,13.426,-0.43018,0.096728,-3.116e-05,0.26,0.4,0
0.18822,0.0087092,0.73381,-0.39418,-0.47909,-0.40874,0.036396,0,0,0.09463,-0.45723,0,0.47315,0,0,0.2558,-0.071038,0,0.26547,-0.38072,-0.49255,-0.40874,20.304,-0.42734,0.10079,-3.9198e-05,0.28,0.4,0
0.18937,0.013938,0.70758,-0.40283,-0.47092,-0.40364,0.051752,0,0,0.0052705,-0.43731,0,0.67278,0,0,0.27255,-0.086263,0,0.28598,-0.37493,-0.49882,-0.40364,28.331,-0.4258,0.11232,-5.7065e-05,0.3,0.4,0
0.18843,0.022333,0.6793,-0.41831,-0.45609,-0.39818,0.072105,0,0,-0.13086,-0.3764,0,0.93736,0,0,0.29535,-0.09708,0,0.31122,-0.36266,-0.51174,-0.39818,37.661,-0.42419,0.13487,-9.7156e-05,0.32,0.4,0
0.18414,0.035386,0.64851,-0.46112,-0.87685,-0.7905,0.10112,0,0,0.34234,-0.1871,0,0.69553,0,0,0.34386,-0.27627,0,0.45984,-0.41014,-0.92783,-0.7905,26.84,-0.70949,0.47413,0.011374,0.34,0.4,0
0.20212,0.032998,0.64091,-0.52646,-1.3007,-1.189,0.14684,0,0,0.86137,-0.1451,0,0.38178,0,0,0.42717,-0.42213,0,0.60206,-0.49954,-1.3276,-1.189,10.386,-1.0054,0.7682,0.020754,0.36,0.4,0
0.21859,0.032896,0.63142,-0.56642,-1.2026,-1.1621,0.14804,0,0,0.77442,-0.052618,0,0.38492,0,0,0.50503,-0.33507,0,0.60565,-0.53366,-1.2354,-1.1621,12.479,-0.97706,0.66811,0.014698,0.38,0.4,0
0.2331,0.033683,0.62071,-0.61594,-1.147,-1.1496,0.12485,0,0,0.69373,0.0034097,0,0.32462,0,0,0.55026,-0.25616,0,0.60628,-0.58805,-1.1748,-1.1496,12.592,-0.97083,0.57458,0.0096793,0.4,0.4,0
0.24634,0.034419,0.60941,-0.63898,-1.0912,-1.1285,0.089796,0,0,0.63632,0.04847,0,0.23347,0,0,0.57213,-0.17917,0,0.59869,-0.6218,-1.1083,-1.1285,10.831,-0.95287,0.49691,0.0062668,0.42,0.4,0
0.25855,0.034835,0.59783,-0.64863,-1.0354,-1.103,0.044653,0,0,0.59072,0.087939,0,0.1161,0,0,0.57912,-0.096712,0,0.58598,-0.64354,-1.0405,-1.103,6.5011,-0.92902,0.43162,0.003839,0.44,0.4,0
0.26997,0.034673,0.58625,-0.63608,-0.9822,-1.0717,-0.017619,0,0,0.56634,0.1164,0,-0.045809,0,0,0.56825,0.00044981,0,0.56639,-0.63519,-0.98309,-1.0717,-2.9066,-0.89667,0.39966,0.0027429,0.46,0.4,0
0.28121,0.033545,0.5751,-0.53289,-0.92203,-1.0116,-0.075931,0,0,0.62229,0.1164,0,-0.19742,0,0,0.48284,0.12976,0,0.49487,-0.5186,-0.93632,-1.0116,-10.659,-0.82216,0.45999,0.0045512,0.48,0.4,0
0.29486,0.034394,0.56693,-0.45566,-0.66237,-0.67557,-0.10314,0,0,0.063871,0.028602,0,-0.58666,0,0,0.35706,0.2052,0,0.42945,-0.37584,-0.74219,-0.67557,-39.05,-0.59787,0.35511,0.0047547,0.5,0.4,0
0.28376,0.026858,0.53633,-0.41616,-0.3664,-0.34203,-0.048978,0,0,-0.48181,-0.15837,0,-0.63672,0,0,0.2868,0.050363,0,0.29134,-0.33634,-0.44621,-0.34203,-58.465,-0.37486,0.10714,-6.2562e-05,0.52,0.4,0
0.27559,0.022234,0.50957,-0.38347,-0.35544,-0.32359,-0.033739,0,0,-0.38925,-0.20704,0,-0.43861,0,0,0.26024,0.029997,0,0.26191,-0.33292,-0.40599,-0.32359,-56.28,-0.35417,0.078155,-2.3344e-05,0.54,0.4,0
0.26819,0.019137,0.48429,-0.36834,-0.34994,-0.31234,-0.024371,0,0,-0.36397,-0.2444,0,-0.31682,0,0,0.24964,0.016504,0,0.25015,-0.33309,-0.38519,-0.31234,-55.338,-0.34354,0.065005,-9.414e-06,0.56,0.4,0
0.26103,0.016654,0.45965,-0.35842,-0.34438,-0.30277,-0.018604,0,0,-0.36174,-0.27048,0,-0.24185,0,0,0.24464,0.0073157,0,0.24474,-0.33152,-0.37129,-0.30277,-55.337,-0.33519,0.059592,-2.9807e-06,0.58,0.4,0
0.25372,0.014589,0.43536,-0.35187,-0.33881,-0.29428,-0.014511,0,0,-0.37435,-0.2895,0,-0.18864,0,0,0.24182,0.00096864,0,0.24182,-0.32943,-0.36125,-0.29428,-57.109,-0.32832,0.058027,8.6328e-07,0.6,0.4,0
0.24606,0.012822,0.41128,-0.34708,-0.33278,-0.28622,-0.011437,0,0,-0.39565,-0.30268,0,-0.14868,0,0,0.24008,-0.0034535,0,0.2401,-0.32645,-0.35342,-0.28622,-61.009,-0.32203,0.058578,3.4435e-06,0.62,0.4,0
0.2379,0.011315,0.38734,-0.3434,-0.32616,-0.27833,-0.0089263,0,0,-0.42291,-0.31085,0,-0.11604,0,0,0.23895,-0.0065497,0,0.23904,-0.32237,-0.34719,-0.27833,-67,-0.31596,0.060396,5.2179e-06,0.64,0.4,0
0.22914,0.010055,0.36349,-0.34044,-0.31893,-0.27051,-0.0067298,0,0,-0.45455,-0.31472,0,-0.087487,0,0,0.23821,-0.0087436,0,0.23836,-0.317,-0.34237,-0.27051,-73.983,-0.30996,0.063123,6.2391e-06,0.66,0.4,0
0.21971,0.0090392,0.3397,-0.338,-0.31115,-0.26268,-0.0046823,0,0,-0.48954,-0.31501,0,-0.06087,0,0,0.23773,-0.010358,0,0.23796,-0.31035,-0.33879,-0.26268,-80.387,-0.30394,0.066608,6.3908e-06,0.68,0.4,0
0.20956,0.0082679,0.31594,-0.33595,-0.3029,-0.25484,-0.0026629,0,0,-0.5272,-0.31235,0,-0.034618,0,0,0.23748,-0.011659,0,0.23777,-0.30268,-0.33616,-0.25484,-85.423,-0.2979,0.070791,5.4687e-06,0.7,0.4,0
0.19863,0.0077396,0.2922,-0.33423,-0.29428,-0.24699,-0.00056747,0,0,-0.56706,-0.30735,0,-0.0073771,0,0,0.23741,-0.012884,0,0.23776,-0.29427,-0.33424,-0.24699,-89.186,-0.29184,0.075647,3.2102e-06,0.72,0.4,0
0.18688,0.0074517,0.26846,-0.33283,-0.28538,-0.23916,0.0017056,0,0,-0.60886,-0.30048,0,0.022173,0,0,0.23754,-0.01426,0,0.23797,-0.28532,-0.33289,-0.23916,87.944,-0.28579,0.081178,-7.1105e-07,0.74,0.4,0
0.17427,0.0074004,0.2447,-0.33175,-0.2763,-0.23136,0.0042668,0,0,-0.65258,-0.29214,0,0.055469,0,0,0.23787,-0.016029,0,0.23841,-0.27597,-0.33208,-0.23136,85.626,-0.2798,0.087418,-6.7237e-06,0.76,0.4,0
0.16077,0.0075819,0.22089,-0.3311,-0.26712,-0.22364,0.0072497,0,0,-0.69844,-0.28262,0,0.094246,0,0,0.23847,-0.018467,0,0.23918,-0.26631,-0.33191,-0.22364,83.615,-0.27395,0.094458,-1.545e-05,0.78,0.4,0
0.14633,0.0079948,0.197,-0.33105,-0.25795,-0.2161,0.010832,0,0,-0.74716,-0.27202,0,0.14082,0,0,0.23944,-0.021914,0,0.24044,-0.25638,-0.33262,-0.2161,81.746,-0.26837,0.1025,-2.7914e-05,0.8,0.4,0
0.13089,0.0086439,0.173,-0.332,-0.24888,-0.20886,0.015264,0,0,-0.80037,-0.26011,0,0.19843,0,0,0.24103,-0.026819,0,0.2425,-0.24617,-0.33471,-0.20886,79.916,-0.26325,0.11196,-4.6029e-05,0.82,0.4,0
0.11432,0.0095456,0.1488,-0.33476,-0.24004,-0.2022,0.020911,0,0,-0.86163,-0.24595,0,0.27185,0,0,0.24373,-0.033822,0,0.24604,-0.23563,-0.33917,-0.2022,78.088,-0.259,0.12369,-7.379e-05,0.84,0.4,0
0.096422,0.010743,0.12425,-0.34112,-0.23165,-0.19668,0.028168,0,0,-0.93885,-0.22731,0,0.36618,0,0,0.24873,-0.043887,0,0.25253,-0.22483,-0.34794,-0.19668,76.384,-0.25649,0.13934,-0.00012005,0.86,0.4,0
0.076766,0.01226,0.099052,-0.35375,-0.22369,-0.19304,0.037722,0,0,-1.0446,-0.19922,0,0.49038,0,0,0.25978,-0.058495,0,0.26623,-0.21354,-0.3639,-0.19304,74.941,-0.25683,0.16158,-0.00020497,0.88,0.4,0
0.054639,0.014327,0.072296,-0.3801,-0.2195,-0.19434,0.050528,0,0,-1.2074,-0.16354,0,0.65686,0,0,0.28701,-0.079982,0,0.29816,-0.20492,-0.39467,-0.19434,73.91,-0.26465,0.19526,-0.00037856,0.9,0.4,0
0.028468,0.017691,0.04165,-0.40293,-0.2672,-0.22603,0.10782,0,0,-0.75339,-0.089209,0,0.59971,0,0,0.35518,-0.28916,0,0.47791,-0.1991,-0.47103,-0.22603,62.998,-0.29872,0.26002,-0.00089836,0.92,0.4,0
0.024503,0.013106,0.033572,-0.48272,-0.30774,-0.27071,0.1145,0,0,-0.27561,-0.048137,0,0.29771,0,0,0.47503,-0.26778,0,0.5415,-0.25112,-0.53933,-0.27071,63.691,-0.35372,0.27893,-0.001096,0.94,0.4,0
0.017443,0.012334,0.022649,-0.58595,-0.30262,-0.28922,0.091048,0,0,-0.38575,-0.017418,0,0.23672,0,0,0.55482,-0.15029,0,0.5734,-0.27588,-0.61268,-0.28922,73.636,-0.39259,0.33033,-0.0018412,0.96,0.4,0
0.0090733,0.012129,0.011379,-0.61734,-0.28436,-0.28189,0.04587,0,0,-0.43608,-0.0032126,0,0.11926,0,0,0.56622,-0.068291,0,0.5695,-0.27816,-0.62354,-0.28189,82.298,-0.39453,0.34353,-0.0020814,0.98,0.4,0
0,0.012123,0,-0.61005,-0.26022,-0.26108,-0.00010762,0,0,-0.45366,0.0011244,0,-0.00027981,0,0,0.56896,-6.9389e-18,0,0.56828,-0.26022,-0.61005,-0.26108,-89.982,-0.37712,0.34941,-0.0021908,1,0.4,0
0,0.040686,1,-0.67144,-1.6271,-1.6896,-0.0054174,0,0,1.3236,0.081184,0,-0.014085,0,0,0.53211,-1.1727e-15,0,0.53173,-0.67141,-1.6272,-1.6896,-0.32477,-1.3294,0.98843,0.048931,0,0.42,0
0.026471,0.040405,0.98936,-0.66076,-1.6054,-1.6692,-0.02644,0,0,1.311,0.082958,0,-0.068743,0,0,0.53078,0.049131,0,0.53263,-0.66002,-1.6061,-1.6692,-1.602,-1.3118,0.97917,0.047542,0.02,0.42,0
0.052439,0.039422,0.97877,-0.66679,-1.59,-1.6558,-0.06106,0,0,1.2857,0.085513,0,-0.15876,0,0,0.52554,0.10418,0,0.53517,-0.66277,-1.5941,-1.6558,-3.7674,-1.3042,0.96365,0.045324,0.04,0.42,0
0.077901,0.037508,0.96834,-0.66529,-1.5832,-1.6429,-0.11632,0,0,1.2709,0.077581,0,-0.30244,0,0,0.51222,0.17366,0,0.53978,-0.65078,-1.5977,-1.6429,-7.111,-1.2971,0.97031,0.046577,0.06,0.42,0
0.10327,0.033822,0.95828,-0.55092,-1.5753,-1.5961,-0.16892,0,0,1.3588,0.027087,0,-0.43918,0,0,0.43672,0.27497,0,0.5132,-0.52379,-1.6024,-1.5961,-9.1259,-1.2408,1.0755,0.063891,0.08,0.42,0
0.13225,0.031971,0.95087,-0.49987,-1.1947,-1.0789,-0.17012,0,0,0.86577,-0.2509,0,-1.0131,0,0,0.32538,0.2784,0,0.44693,-0.44207,-1.2525,-1.0789,-22.23,-0.92448,0.74453,0.048672,0.1,0.42,0
0.1379,0.013565,0.92285,-0.42816,-0.56632,-0.48291,-0.085401,0,0,0.35594,-0.54217,0,-1.1102,0,0,0.26195,0.072392,0,0.27192,-0.38739,-0.60709,-0.48291,-25.515,-0.49246,0.1908,-7.9747e-05,0.12,0.42,0
0.14649,0.0034655,0.89848,-0.39708,-0.54838,-0.46333,-0.051582,0,0,0.43066,-0.5528,0,-0.67057,0,0,0.23626,0.04557,0,0.24047,-0.38117,-0.56429,-0.46333,-17.144,-0.4696,0.15887,-3.637e-05,0.14,0.42,0
0.15513,-0.0020189,0.8756,-0.38704,-0.53709,-0.45236,-0.030222,0,0,0.42461,-0.55077,0,-0.39289,0,0,0.2257,0.023865,0,0.22682,-0.38118,-0.54295,-0.45236,-10.97,-0.45883,0.14044,-2.9304e-05,0.16,0.42,0
0.16347,-0.005118,0.85334,-0.38092,-0.52602,-0.44275,-0.01585,0,0,0.40189,-0.54128,0,-0.20605,0,0,0.2214,0.0052478,0,0.22135,-0.37921,-0.52774,-0.44275,-6.1616,-0.4499,0.12907,-2.7269e-05,0.18,0.42,0
0.17121,-0.0066051,0.83132,-0.37798,-0.51674,-0.43468,-0.0045502,0,0,0.36854,-0.53338,0,-0.059153,0,0,0.22003,-0.01169,0,0.22024,-0.37783,-0.51689,-0.43468,-1.8762,-0.44313,0.12109,-2.8228e-05,0.2,0.42,0
0.17822,-0.0069281,0.80933,-0.3767,-0.50903,-0.42758,0.005425,0,0,0.33076,-0.52939,0,0.070524,0,0,0.22069,-0.02801,0,0.22236,-0.37648,-0.50925,-0.42758,2.3436,-0.43777,0.116,-3.0945e-05,0.22,0.42,0
0.18444,-0.0062236,0.78718,-0.37686,-0.50287,-0.42136,0.015607,0,0,0.2892,-0.52984,0,0.20289,0,0,0.22329,-0.044596,0,0.2276,-0.37496,-0.50477,-0.42136,6.9566,-0.4337,0.11394,-3.5722e-05,0.24,0.42,0
0.18978,-0.0043969,0.76467,-0.37902,-0.49822,-0.41611,0.027462,0,0,0.24106,-0.53373,0,0.35701,0,0,0.22837,-0.062315,0,0.23661,-0.373,-0.50424,-0.41611,12.37,-0.43111,0.11587,-4.4226e-05,0.26,0.42,0
0.19408,-0.0010722,0.74151,-0.38504,-0.4952,-0.41237,0.042535,0,0,0.17766,-0.53837,0,0.55296,0,0,0.23742,-0.082156,0,0.25113,-0.37053,-0.50971,-0.41237,18.839,-0.43087,0.12369,-6.1017e-05,0.28,0.42,0
0.19689,0.0043988,0.71719,-0.39626,-0.49244,-0.41005,0.063994,0,0,0.089625,-0.53556,0,0.83193,0,0,0.25501,-0.10531,0,0.27585,-0.3643,-0.5244,-0.41005,26.538,-0.43292,0.14283,-9.9535e-05,0.3,0.42,0
0.19766,0.013862,0.69051,-0.42679,-0.49578,-0.41487,0.097139,0,0,-0.077468,-0.5259,0,1.2628,0,0,0.29094,-0.13311,0,0.32047,-0.3582,-0.56437,-0.41487,35.225,-0.44582,0.18448,-0.00022283,0.32,0.42,0
0.19379,0.031037,0.659,-0.49348,-0.97605,-0.83626,0.18979,0,0,0.36816,-0.30288,0,1.1238,0,0,0.37139,-0.44108,0,0.59989,-0.40402,-1.0655,-0.83626,28.654,-0.76859,0.58988,0.015764,0.34,0.42,0
0.21239,0.030129,0.65045,-0.55739,-1.2201,-1.1837,0.21529,0,0,0.81418,-0.047299,0,0.55976,0,0,0.51012,-0.49814,0,0.71066,-0.49359,-1.2839,-1.1837,16.507,-0.98705,0.74525,0.01997,0.36,0.42,0
0.22636,0.032561,0.6386,-0.68743,-1.1778,-1.1982,0.18698,0,0,0.66397,0.026441,0,0.48615,0,0,0.60848,-0.37364,0,0.71283,-0.62427,-1.241,-1.1982,18.664,-1.0212,0.59647,0.01071,0.38,0.42,0
0.23895,0.034407,0.62611,-0.71387,-1.1221,-1.1769,0.14493,0,0,0.60192,0.071264,0,0.37682,0,0,0.63644,-0.28099,0,0.69487,-0.66765,-1.1683,-1.1769,17.689,-1.0043,0.505,0.006608,0.4,0.42,0
0.25044,0.036109,0.61314,-0.73398,-1.0598,-1.1513,0.10976,0,0,0.5425,0.11887,0,0.28538,0,0,0.65819,-0.19591,0,0.68587,-0.70046,-1.0934,-1.1513,16.983,-0.98171,0.42484,0.0036928,0.42,0.42,0
0.26065,0.037479,0.59978,-0.76128,-0.99052,-1.1253,0.064386,0,0,0.47325,0.17524,0,0.1674,0,0,0.67669,-0.10584,0,0.68379,-0.74443,-1.0074,-1.1253,14.662,-0.95904,0.33773,0.0011957,0.44,0.42,0
0.26937,0.038101,0.58607,-0.80608,-0.9274,-1.1061,0.00088804,0,0,0.39004,0.23233,0,0.0023089,0,0,0.69416,0.00057903,0,0.69232,-0.80608,-0.92741,-1.1061,0.41937,-0.94653,0.26142,-0.00029723,0.46,0.42,0
0.27625,0.037692,0.57201,-0.87829,-0.8877,-1.1018,-0.10411,0,0,0.29057,0.27835,0,-0.27068,0,0,0.74499,0.14469,0,0.75356,-0.77878,-0.98721,-1.1018,-43.707,-0.95593,0.28366,0.00056042,0.48,0.42,0
0.28099,0.034221,0.55627,-0.7612,-0.64092,-0.7544,-0.18704,0,0,-0.14056,0.14406,0,-1.0029,0,0,0.61398,0.24762,0,0.66383,-0.50443,-0.89769,-0.7544,-53.283,-0.71884,0.3501,0.0024721,0.5,0.42,0
0.2744,0.022264,0.5299,-0.82388,-0.40397,-0.6863,-0.10852,0,0,-0.2981,0.27513,0,-0.63775,0,0,0.75351,0.069689,0,0.75758,-0.35939,-0.86846,-0.6863,-63.669,-0.63805,0.45534,0.0081054,0.52,0.42,0
0.26906,0.017379,0.50604,-0.77335,-0.38106,-0.64994,-0.047773,0,0,-0.26738,0.25244,0,-0.34027,0,0,0.71307,0.038012,0,0.71461,-0.35935,-0.79506,-0.64994,-66.184,-0.60145,0.3946,0.0064552,0.54,0.42,0
0.26371,0.013709,0.48236,-0.75439,-0.364,-0.62493,-0.031544,0,0,-0.28048,0.23065,0,-0.23662,0,0,0.70917,0.019789,0,0.70961,-0.34877,-0.76962,-0.62493,-66.613,-0.58111,0.38307,0.0060073,0.56,0.42,0
0.25785,0.010886,0.45876,-0.74873,-0.35652,-0.60683,-0.021793,0,0,-0.30745,0.21004,0,-0.17204,0,0,0.70797,0.0088965,0,0.70805,-0.34584,-0.75941,-0.60683,-67.661,-0.57069,0.3775,0.0053622,0.58,0.42,0
0.25141,0.0085427,0.43516,-0.74512,-0.34945,-0.58947,-0.015892,0,0,-0.33725,0.1911,0,-0.13065,0,0,0.70792,0.0018021,0,0.70792,-0.34196,-0.75261,-0.58947,-69.191,-0.56135,0.3759,0.0047125,0.6,0.42,0
0.24436,0.0065784,0.41156,-0.74287,-0.34237,-0.57251,-0.011611,0,0,-0.36911,0.17431,0,-0.10017,0,0,0.70815,-0.002964,0,0.70815,-0.33742,-0.74782,-0.57251,-71.654,-0.55258,0.37663,0.0040359,0.62,0.42,0
0.23664,0.0049484,0.38795,-0.7416,-0.33486,-0.55571,-0.0082638,0,0,-0.40276,0.15978,0,-0.075952,0,0,0.70838,-0.0062255,0,0.70842,-0.33192,-0.74453,-0.55571,-75.235,-0.54406,0.37931,0.0033322,0.64,0.42,0
0.22825,0.0036343,0.36434,-0.74116,-0.32689,-0.53902,-0.0054647,0,0,-0.43797,0.14736,0,-0.055371,0,0,0.70851,-0.0085006,0,0.7086,-0.32539,-0.74266,-0.53902,-79.557,-0.53569,0.38363,0.0025904,0.66,0.42,0
0.21913,0.0026236,0.34072,-0.74136,-0.31851,-0.52239,-0.0029872,0,0,-0.47444,0.13674,0,-0.036825,0,0,0.70852,-0.010155,0,0.70865,-0.31788,-0.74199,-0.52239,-83.66,-0.52742,0.38932,0.0018004,0.68,0.42,0
0.20927,0.001905,0.3171,-0.74203,-0.30979,-0.50581,-0.00066132,0,0,-0.51181,0.12756,0,-0.019118,0,0,0.70837,-0.011475,0,0.70854,-0.3096,-0.74221,-0.50581,3.0953,-0.51921,0.39617,0.0009545,0.7,0.42,0
0.19865,0.0014668,0.29349,-0.74298,-0.30082,-0.48924,0.0016583,0,0,-0.54977,0.11948,0,-0.0012267,0,0,0.70807,-0.012707,0,0.70828,-0.3008,-0.74301,-0.48924,0.6909,-0.51101,0.40396,4.7671e-05,0.72,0.42,0
0.18728,0.0012967,0.2699,-0.74409,-0.2917,-0.47267,0.0041088,0,0,-0.58806,0.11217,0,0.017833,0,0,0.7076,-0.014086,0,0.70786,-0.29165,-0.74413,-0.47267,88.86,-0.50282,0.41252,-0.00092247,0.74,0.42,0
0.17513,0.0013822,0.24632,-0.74524,-0.2825,-0.45611,0.0068339,0,0,-0.62643,0.10533,0,0.039113,0,0,0.70693,-0.015863,0,0.70726,-0.28228,-0.74546,-0.45611,87.36,-0.49462,0.42168,-0.001956,0.76,0.42,0
0.16222,0.0017122,0.22277,-0.74634,-0.27334,-0.43957,0.010008,0,0,-0.66468,0.098697,0,0.063904,0,0,0.70607,-0.018332,0,0.70651,-0.27279,-0.74689,-0.43957,86.011,-0.48641,0.43133,-0.003051,0.78,0.42,0
0.14855,0.0022791,0.19925,-0.74732,-0.26436,-0.42305,0.013886,0,0,-0.70258,0.091992,0,0.094045,0,0,0.705,-0.021876,0,0.70562,-0.26327,-0.74842,-0.42305,84.681,-0.47824,0.44137,-0.0042039,0.8,0.42,0
0.13412,0.0030859,0.17577,-0.74826,-0.25578,-0.40667,0.018919,0,0,-0.74011,0.085004,0,0.13259,0,0,0.70381,-0.027049,0,0.70476,-0.25379,-0.75025,-0.40667,83.247,-0.47024,0.45184,-0.0054141,0.82,0.42,0
0.11894,0.0041613,0.15233,-0.74988,-0.24817,-0.39081,0.025937,0,0,-0.77798,0.077752,0,0.18476,0,0,0.70278,-0.034751,0,0.70433,-0.24468,-0.75336,-0.39081,81.603,-0.46295,0.46326,-0.0067065,0.84,0.42,0
0.103,0.0055764,0.12892,-0.75453,-0.24243,-0.37644,0.036963,0,0,-0.8192,0.070888,0,0.26136,0,0,0.70304,-0.046624,0,0.70575,-0.23626,-0.7607,-0.37644,79.622,-0.4578,0.47787,-0.0081924,0.86,0.42,0
0.086172,0.0075371,0.10546,-0.77421,-0.24535,-0.36914,0.054447,0,0,-0.87763,0.066474,0,0.37466,0,0,0.70691,-0.066716,0,0.71207,-0.23456,-0.785,-0.36914,77.534,-0.4629,0.50211,-0.010459,0.88,0.42,0
0.067892,0.010073,0.081791,-0.82981,-0.25754,-0.37528,0.098018,0,0,-0.98482,0.06799,0,0.59704,0,0,0.75588,-0.10192,0,0.76551,-0.23477,-0.85258,-0.37528,74.455,-0.48754,0.56384,-0.015605,0.9,0.42,0
0.04678,0.01525,0.055069,-0.72618,-0.34435,-0.3542,0.17017,0,0,-0.90582,-0.03602,0,0.9122,0,0,0.61939,-0.30879,0,0.69679,-0.27843,-0.79209,-0.3542,67.4,-0.47491,0.48039,-0.0096995,0.92,0.42,0
0.034655,0.013546,0.039283,-0.84465,-0.3245,-0.39003,0.14354,0,0,-0.59101,0.085186,0,0.37322,0,0,0.73205,-0.26652,0,0.77462,-0.28752,-0.88163,-0.39003,75.552,-0.51973,0.55007,-0.0075574,0.94,0.42,0
0.023139,0.012992,0.025787,-0.78638,-0.27883,-0.34535,0.093284,0,0,-0.57334,0.086479,0,0.24254,0,0,0.66265,-0.14486,0,0.67712,-0.26222,-0.80298,-0.34535,79.909,-0.47019,0.50436,-0.0059904,0.96,0.42,0
0.011721,0.012985,0.012777,-0.75984,-0.2471,-0.31486,0.047065,0,0,-0.57848,0.088092,0,0.12237,0,0,0.64467,-0.064485,0,0.64723,-0.24281,-0.76413,-0.31486,84.799,-0.4406,0.48929,-0.0055789,0.98,0.42,0
0,0.013024,0,-0.73777,-0.21872,-0.28695,0.00073854,0,0,-0.58607,0.088698,0,0.0019202,0,0,0.63885,0,0,0.63831,-0.21871,-0.73777,-0.28695,89.918,-0.41448,0.48853,-0.0055963,1,0.42,0
0,0.042632,1,-0.69755,-1.6112,-1.6926,-0.0039375,0,0,1.2936,0.10589,0,-0.010238,0,0,0.58231,-3.119e-15,0,0.58197,-0.69753,-1.6112,-1.6926,-0.24693,-1.3338,0.95696,0.043913,0,0.44,0
0.025872,0.042427,0.98835,-0.68972,-1.5846,-1.6706,-0.016748,0,0,1.2752,0.11188,0,-0.043545,0,0,0.58432,0.04832,0,0.58594,-0.68941,-1.5849,-1.6706,-1.0718,-1.315,0.9413,0.04164,0.02,0.44,0
0.051008,0.041662,0.97663,-0.71144,-1.5591,-1.6578,-0.043193,0,0,1.2302,0.12832,0,-0.1123,0,0,0.59116,0.10291,0,0.59952,-0.70924,-1.5613,-1.6578,-2.9096,-1.3094,0.90415,0.036507,0.04,0.44,0
0.075081,0.039812,0.96471,-0.75948,-1.5402,-1.6546,-0.087142,0,0,1.1637,0.14873,0,-0.22657,0,0,0.60493,0.17301,0,0.62821,-0.74987,-1.5498,-1.6546,-6.292,-1.3181,0.85716,0.030721,0.06,0.44,0
0.097555,0.03628,0.95243,-0.83969,-1.5459,-1.6681,-0.20591,0,0,1.077,0.15883,0,-0.53536,0,0,0.66449,0.27827,0,0.71664,-0.78404,-1.6016,-1.6681,-15.123,-1.3513,0.85276,0.031197,0.08,0.44,0
0.11816,0.025116,0.93813,-0.75488,-1.095,-1.1178,-0.2829,0,0,0.6645,-0.1074,0,-1.5158,0,0,0.55776,0.29606,0,0.63584,-0.59378,-1.2561,-1.1178,-30.861,-0.98924,0.6126,0.020333,0.1,0.44,0
0.12779,0.00019328,0.91417,-0.70173,-0.62564,-0.94671,-0.17413,0,0,0.5308,0.14996,0,-0.9953,0,0,0.6714,0.097555,0,0.68068,-0.44586,-0.88151,-0.94671,-43.282,-0.75803,0.50676,0.0067353,0.12,0.44,0
0.13939,-0.0089159,0.89337,-0.63946,-0.58886,-0.90452,-0.063217,0,0,0.57429,0.16272,0,-0.44923,0,0,0.61825,0.056437,0,0.62205,-0.48101,-0.74731,-0.90452,-46.029,-0.71095,0.41565,-0.0016975,0.14,0.44,0
0.15076,-0.014097,0.87296,-0.62887,-0.55954,-0.8803,-0.03263,0,0,0.54475,0.17542,0,-0.25042,0,0,0.6099,0.02815,0,0.61085,-0.46665,-0.72176,-0.8803,-46.963,-0.68957,0.40175,-0.0014722,0.16,0.44,0
0.16118,-0.016741,0.85271,-0.63694,-0.54672,-0.86672,-0.013889,0,0,0.49786,0.18354,0,-0.12043,0,0,0.60711,0.0065117,0,0.60708,-0.46274,-0.72092,-0.86672,-46.809,-0.68346,0.38944,-0.00055481,0.18,0.44,0
0.17068,-0.017945,0.83248,-0.64392,-0.53651,-0.85362,-0.0017724,0,0,0.45434,0.18545,0,-0.029183,0,0,0.6075,-0.012392,0,0.60763,-0.45787,-0.72256,-0.85362,44.048,-0.67802,0.38075,0.00032547,0.2,0.44,0
0.17936,-0.018143,0.81221,-0.64824,-0.52873,-0.84042,0.0083887,0,0,0.41638,0.18089,0,0.049254,0,0,0.61008,-0.030482,0,0.61127,-0.4533,-0.72367,-0.84042,45.159,-0.67246,0.37342,0.0010049,0.22,0.44,0
0.18733,-0.017481,0.79181,-0.64961,-0.52291,-0.82684,0.018991,0,0,0.384,0.16997,0,0.13037,0,0,0.61507,-0.049224,0,0.61822,-0.44862,-0.7239,-0.82684,46.416,-0.66646,0.36732,0.0014811,0.24,0.44,0
0.19472,-0.015838,0.7712,-0.64954,-0.51965,-0.81348,0.032464,0,0,0.3552,0.15315,0,0.2296,0,0,0.62358,-0.070165,0,0.62983,-0.444,-0.72519,-0.81348,47.739,-0.66089,0.36295,0.0018248,0.26,0.44,0
0.20154,-0.012826,0.75024,-0.65139,-0.51938,-0.80137,0.053324,0,0,0.32497,0.13153,0,0.37144,0,0,0.63843,-0.095503,0,0.6494,-0.43802,-0.73275,-0.80137,48.878,-0.65738,0.36377,0.002267,0.28,0.44,0
0.20772,-0.0074841,0.72864,-0.67654,-0.53525,-0.80072,0.086535,0,0,0.26906,0.10745,0,0.5827,0,0,0.66476,-0.13001,0,0.68317,-0.44189,-0.7699,-0.80072,49.838,-0.67084,0.37269,0.0032927,0.3,0.44,0
0.2123,0.0012972,0.70592,-0.76168,-0.56185,-0.82061,0.19119,0,0,0.12768,0.08509,0,1.0974,0,0,0.76089,-0.1809,0,0.78896,-0.41152,-0.91201,-0.82061,49.323,-0.71471,0.48112,0.010037,0.32,0.44,0
0.21282,0.023271,0.67792,-0.79415,-0.94943,-0.92982,0.29942,0,0,0.18672,-0.1808,0,1.5986,0,0,0.65803,-0.44573,0,0.80183,-0.56231,-1.1813,-0.92982,38.237,-0.89114,0.54321,0.0067379,0.34,0.44,0
0.22299,0.031106,0.66084,-0.89478,-1.2273,-1.2974,0.26128,0,0,0.52347,0.091243,0,0.67933,0,0,0.78866,-0.50679,0,0.93349,-0.75134,-1.3707,-1.2974,28.767,-1.1398,0.58619,0.0098024,0.36,0.44,0
0.23376,0.033953,0.64637,-0.82688,-1.1617,-1.2429,0.17863,0,0,0.54088,0.10561,0,0.46445,0,0,0.72218,-0.38874,0,0.81906,-0.74948,-1.2391,-1.2429,23.428,-1.0772,0.49157,0.0060994,0.38,0.44,0
0.24463,0.036533,0.63195,-0.80226,-1.1068,-1.2047,0.15477,0,0,0.52312,0.12726,0,0.4024,0,0,0.72798,-0.3011,0,0.78707,-0.73741,-1.1716,-1.2047,22.734,-1.0379,0.45164,0.0046462,0.4,0.44,0
0.25469,0.039174,0.61725,-0.81438,-1.0371,-1.1727,0.13538,0,0,0.46579,0.17629,0,0.35199,0,0,0.74729,-0.21817,0,0.7778,-0.75044,-1.101,-1.1727,25.282,-1.008,0.39136,0.0027339,0.42,0.44,0
0.26326,0.041844,0.60206,-0.84893,-0.94608,-1.1406,0.10471,0,0,0.37913,0.25283,0,0.27224,0,0,0.77561,-0.12918,0,0.78548,-0.78208,-1.0129,-1.1406,32.556,-0.97852,0.31472,0.00075939,0.44,0.44,0
0.26985,0.043966,0.58622,-0.90085,-0.85323,-1.1124,0.05163,0,0,0.27508,0.33698,0,0.13424,0,0,0.81878,-0.028569,0,0.81829,-0.82019,-0.9339,-1.1124,57.379,-0.95551,0.25518,-0.00031826,0.46,0.44,0
0.27426,0.044679,0.56931,-0.98464,-0.79054,-1.1019,-0.021278,0,0,0.15239,0.40472,0,-0.055322,0,0,0.90701,0.090025,0,0.91117,-0.78823,-0.98695,-1.1019,-83.817,-0.95901,0.27482,0.00047248,0.48,0.44,0
0.27595,0.04321,0.54994,-1.0673,-0.71063,-1.0833,-0.11552,0,0,0.020832,0.4845,0,-0.30036,0,0,1.0228,0.19853,0,1.0465,-0.67648,-1.1014,-1.0833,-73.533,-0.95375,0.4162,0.0036791,0.5,0.44,0
0.27509,0.037863,0.5284,-1.0922,-0.44032,-0.98816,-0.10257,0,0,-0.13529,0.7122,0,-0.26669,0,0,1.118,0.074363,0,1.1194,-0.42456,-1.108,-0.98816,-81.266,-0.84024,0.63209,0.011415,0.52,0.44,0
0.27054,0.032332,0.50522,-1.1722,-0.41806,-0.98229,-0.0682,0,0,-0.24684,0.7335,0,-0.17732,0,0,1.1611,0.036793,0,1.1616,-0.41194,-1.1783,-0.98229,-84.874,-0.85751,0.68957,0.012366,0.54,0.44,0
0.26522,0.028363,0.48196,-1.1646,-0.39181,-0.94889,-0.04091,0,0,-0.28047,0.7242,0,-0.10637,0,0,1.1661,0.01796,0,1.1662,-0.38965,-1.1668,-0.94889,-86.978,-0.83511,0.69433,0.011656,0.56,0.44,0
0.25932,0.025056,0.45858,-1.1578,-0.3771,-0.91905,-0.027928,0,0,-0.31039,0.70454,0,-0.072612,0,0,1.1706,0.0070856,0,1.1706,-0.3761,-1.1588,-0.91905,-87.954,-0.81799,0.69459,0.010554,0.58,0.44,0
0.2528,0.022233,0.43513,-1.1542,-0.3664,-0.89131,-0.019531,0,0,-0.34177,0.68239,0,-0.050781,0,0,1.1739,0.00029653,0,1.1739,-0.36592,-1.1547,-0.89131,-88.581,-0.80398,0.69555,0.0093037,0.6,0.44,0
0.24565,0.019794,0.41163,-1.1532,-0.3571,-0.86472,-0.013604,0,0,-0.37504,0.6599,0,-0.03537,0,0,1.1763,-0.0040954,0,1.1763,-0.35687,-1.1535,-0.86472,-89.021,-0.79168,0.6985,0.0079663,0.62,0.44,0
0.2378,0.017706,0.38808,-1.154,-0.34806,-0.83868,-0.0090455,0,0,-0.40985,0.63781,0,-0.023518,0,0,1.1779,-0.0069833,0,1.1779,-0.34796,-1.1541,-0.83868,-89.357,-0.78023,0.70359,0.0065492,0.64,0.44,0
0.22925,0.015949,0.36451,-1.1559,-0.33891,-0.81294,-0.0053995,0,0,-0.44579,0.61624,0,-0.014039,0,0,1.179,-0.0089072,0,1.179,-0.33887,-1.1559,-0.81294,-89.621,-0.76923,0.71059,0.0050424,0.66,0.44,0
0.21997,0.014509,0.34092,-1.1585,-0.32958,-0.78734,-0.0023734,0,0,-0.48249,0.59509,0,-0.0061709,0,0,1.1795,-0.010232,0,1.1795,-0.32958,-1.1585,-0.78734,-89.836,-0.75847,0.71917,0.0034346,0.68,0.44,0
0.20995,0.01337,0.31733,-1.1615,-0.32011,-0.76182,0.00025864,0,0,-0.51962,0.57423,0,0.00067247,0,0,1.1794,-0.011232,0,1.1795,-0.32011,-1.1615,-0.76182,89.982,-0.74782,0.729,0.0017179,0.7,0.44,0
0.19919,0.012519,0.29374,-1.1647,-0.31055,-0.73632,0.0026937,0,0,-0.55691,0.55351,0,0.0070036,0,0,1.1789,-0.012135,0,1.179,-0.31054,-1.1647,-0.73632,89.819,-0.73719,0.73975,-0.00011023,0.72,0.44,0
0.18768,0.011938,0.27017,-1.1678,-0.30098,-0.71082,0.0051091,0,0,-0.59412,0.53279,0,0.013284,0,0,1.1779,-0.013157,0,1.1779,-0.30095,-1.1679,-0.71082,89.662,-0.72654,0.75114,-0.002048,0.74,0.44,0
0.17542,0.011614,0.24663,-1.1707,-0.29151,-0.6853,0.0076734,0,0,-0.63105,0.51193,0,0.019951,0,0,1.1762,-0.014526,0,1.1763,-0.29144,-1.1708,-0.6853,89.5,-0.71584,0.76291,-0.004089,0.76,0.44,0
0.16243,0.01153,0.22313,-1.1732,-0.28228,-0.65977,0.010573,0,0,-0.66747,0.49074,0,0.02749,0,0,1.1739,-0.016519,0,1.174,-0.28216,-1.1733,-0.65977,89.32,-0.70509,0.77477,-0.0062222,0.78,0.44,0
0.14872,0.011674,0.19968,-1.1751,-0.27358,-0.63429,0.014086,0,0,-0.70311,0.46893,0,0.036624,0,0,1.1707,-0.01951,0,1.1709,-0.27336,-1.1754,-0.63429,89.105,-0.69434,0.78633,-0.0084309,0.8,0.44,0
0.13431,0.012044,0.1763,-1.1764,-0.26595,-0.60899,0.018742,0,0,-0.73758,0.44595,0,0.048728,0,0,1.1666,-0.024071,0,1.1668,-0.26556,-1.1767,-0.60899,88.821,-0.68377,0.79704,-0.010689,0.82,0.44,0
0.11922,0.012656,0.15301,-1.1766,-0.26051,-0.58415,0.025772,0,0,-0.7702,0.42073,0,0.067007,0,0,1.1612,-0.031192,0,1.1616,-0.25979,-1.1773,-0.58415,88.39,-0.67376,0.80591,-0.012952,0.84,0.44,0
0.1035,0.013578,0.12985,-1.1747,-0.25914,-0.56,0.037492,0,0,-0.7991,0.39111,0,0.097479,0,0,1.1542,-0.042867,0,1.1549,-0.25761,-1.1762,-0.56,87.659,-0.66461,0.81087,-0.015103,0.86,0.44,0
0.087256,0.014919,0.10685,-1.1644,-0.2651,-0.5357,0.060556,0,0,-0.81733,0.35179,0,0.15745,0,0,1.147,-0.063974,0,1.1487,-0.26104,-1.1685,-0.5357,86.165,-0.65507,0.80601,-0.016744,0.88,0.44,0
0.070808,0.017046,0.083969,-1.0846,-0.26255,-0.48811,0.086655,0,0,-0.77544,0.29324,0,0.2253,0,0,1.0997,-0.10876,0,1.1035,-0.25351,-1.0936,-0.48811,84.047,-0.61175,0.75084,-0.014799,0.9,0.44,0
0.056238,0.017971,0.062861,-1.0492,-0.37193,-0.48918,0.11422,0,0,-0.72795,0.15243,0,0.29697,0,0,0.99339,-0.26226,0,1.033,-0.35319,-1.0679,-0.48918,80.68,-0.63675,0.65734,-0.012509,0.92,0.44,0
0.04169,0.016513,0.044233,-0.97244,-0.29259,-0.42374,0.077051,0,0,-0.71331,0.1705,0,0.20033,0,0,0.86045,-0.18905,0,0.88212,-0.28396,-0.98107,-0.42374,83.614,-0.56292,0.63879,-0.011257,0.94,0.44,0
0.027706,0.015794,0.028443,-0.90814,-0.24511,-0.37442,0.059303,0,0,-0.69383,0.16809,0,0.15419,0,0,0.75686,-0.10571,0,0.76407,-0.23985,-0.9134,-0.37442,84.929,-0.50922,0.61736,-0.010176,0.96,0.44,0
0.013936,0.015652,0.013959,-0.872,-0.21212,-0.3392,0.032824,0,0,-0.69264,0.16519,0,0.085343,0,0,0.71108,-0.046728,0,0.71237,-0.21049,-0.87363,-0.3392,87.159,-0.47444,0.60907,-0.0098802,0.98,0.44,0
0,0.015671,0,-0.84299,-0.18027,-0.30698,0.00035921,0,0,-0.69681,0.16472,0,0.00093393,0,0,0.69793,-1.7347e-17,0,0.69765,-0.18027,-0.84299,-0.30698,89.969,-0.44342,0.60933,-0.0099466,1,0.44,0
0,0.044922,1,-0.70446,-1.6052,-1.6929,-0.00081344,0,0,1.285,0.114,0,-0.0021149,0,0,0.62875,-9.1593e-16,0,0.62851,-0.70446,-1.6052,-1.6929,-0.051742,-1.3342,0.94764,0.042447,0,0.46,0
0.025699,0.04488,0.98742,-0.69566,-1.573,-1.668,-0.0032762,0,0,1.2641,0.12355,0,-0.008518,0,0,0.63369,0.041917,0,0.63484,-0.69565,-1.573,-1.668,-0.21396,-1.3122,0.92851,0.039664,0.02,0.46,0
0.050562,0.044555,0.97465,-0.71664,-1.5336,-1.6497,-0.014822,0,0,1.213,0.15093,0,-0.038538,0,0,0.65024,0.088424,0,0.65596,-0.71637,-1.5339,-1.6497,-1.039,-1.3,0.88118,0.033103,0.04,0.46,0
0.07422,0.043457,0.96142,-0.74431,-1.4802,-1.6288,-0.046658,0,0,1.1498,0.19311,0,-0.12131,0,0,0.68758,0.14464,0,0.70238,-0.74136,-1.4832,-1.6288,-3.6133,-1.2844,0.82432,0.025768,0.06,0.46,0
0.096555,0.040176,0.94715,-0.81119,-1.4396,-1.6224,-0.1158,0,0,1.0546,0.23758,0,-0.30108,0,0,0.77148,0.21706,0,0.80222,-0.79053,-1.4603,-1.6224,-10.115,-1.2911,0.76383,0.019459,0.08,0.46,0
0.1164,0.032382,0.93056,-0.89635,-1.2697,-1.5804,-0.21808,0,0,0.88924,0.40384,0,-0.567,0,0,0.87854,0.27104,0,0.92331,-0.79597,-1.3701,-1.5804,-24.717,-1.2488,0.70327,0.012628,0.1,0.46,0
0.13212,0.019564,0.91201,-0.89571,-0.74281,-1.4036,-0.1758,0,0,0.66021,0.85898,0,-0.45707,0,0,0.96061,0.11612,0,0.96595,-0.62756,-1.011,-1.4036,-56.752,-1.014,0.67205,-0.00032026,0.12,0.46,0
0.14281,0.0099744,0.89213,-0.99349,-0.67865,-1.3938,-0.091886,0,0,0.52037,0.92966,0,-0.2389,0,0,0.99119,0.061992,0,0.99296,-0.6538,-1.0184,-1.3938,-74.864,-1.022,0.64086,-0.00034418,0.14,0.46,0
0.15294,0.0049979,0.87236,-0.97073,-0.61957,-1.3495,-0.036833,0,0,0.49234,0.94884,0,-0.095765,0,0,0.98898,0.029566,0,0.98935,-0.61575,-0.97455,-1.3495,-84.076,-0.97991,0.63545,-0.00050065,0.16,0.46,0
0.16251,0.0022237,0.85257,-0.96185,-0.58846,-1.3177,-0.012924,0,0,0.46256,0.94797,0,-0.033602,0,0,0.99034,0.0056738,0,0.99032,-0.58801,-0.9623,-1.3177,-88.02,-0.95599,0.63197,0.00058203,0.18,0.46,0
0.17144,0.00081276,0.83275,-0.96107,-0.57033,-1.2922,0.00086454,0,0,0.43043,0.93838,0,0.0022478,0,0,0.99304,-0.014824,0,0.99312,-0.57033,-0.96107,-1.2922,89.873,-0.94119,0.62584,0.0017943,0.2,0.46,0
0.17972,0.00030743,0.81285,-0.96437,-0.56025,-1.2702,0.010973,0,0,0.39763,0.92298,0,0.02853,0,0,0.9973,-0.034615,0,0.99787,-0.55996,-0.96467,-1.2702,88.446,-0.93162,0.61712,0.0028838,0.22,0.46,0
0.18735,0.00057522,0.79285,-0.97046,-0.55684,-1.251,0.021807,0,0,0.36476,0.90246,0,0.056699,0,0,1.0037,-0.055756,0,1.0052,-0.5557,-0.9716,-1.251,86.99,-0.92611,0.60604,0.0037962,0.24,0.46,0
0.19431,0.0017292,0.7727,-0.9809,-0.56157,-1.2354,0.037867,0,0,0.33091,0.87603,0,0.098455,0,0,1.0135,-0.080554,0,1.0167,-0.55818,-0.98429,-1.2354,84.881,-0.92597,0.59302,0.0046025,0.26,0.46,0
0.20058,0.0041889,0.75231,-0.9996,-0.57874,-1.2258,0.065673,0,0,0.29408,0.84119,0,0.17075,0,0,1.0288,-0.11256,0,1.0349,-0.56873,-1.0096,-1.2258,81.334,-0.93472,0.58003,0.005532,0.28,0.46,0
0.20608,0.008697,0.73155,-1.0299,-0.62001,-1.2265,0.12415,0,0,0.25559,0.78848,0,0.32279,0,0,1.056,-0.15903,0,1.0676,-0.58534,-1.0646,-1.2265,74.397,-0.95882,0.57751,0.0073327,0.3,0.46,0
0.21081,0.017266,0.71008,-0.9453,-0.66041,-1.1918,0.20722,0,0,0.32044,0.69079,0,0.53877,0,0,1.0506,-0.23879,0,1.075,-0.55139,-1.0543,-1.1918,62.253,-0.9325,0.58392,0.0083459,0.32,0.46,0
0.21889,0.027954,0.68953,-0.95867,-1.0972,-1.3063,0.25951,0,0,0.4519,0.27183,0,0.67471,0,0,0.98395,-0.46635,0,1.091,-0.75934,-1.2965,-1.3063,37.529,-1.1207,0.54213,0.0081743,0.34,0.46,0
0.22888,0.033779,0.67072,-0.88764,-1.157,-1.2841,0.18718,0,0,0.51541,0.16523,0,0.48668,0,0,0.88454,-0.44655,0,0.99163,-0.79172,-1.2529,-1.2841,27.132,-1.1096,0.47756,0.0055135,0.36,0.46,0
0.23951,0.036785,0.65414,-0.84482,-1.1332,-1.2475,0.15676,0,0,0.52356,0.14864,0,0.40757,0,0,0.81417,-0.38255,0,0.89914,-0.77602,-1.202,-1.2475,23.695,-1.0752,0.45049,0.004534,0.38,0.46,0
0.24982,0.039498,0.63815,-0.84624,-1.1099,-1.225,0.15919,0,0,0.49237,0.14965,0,0.4139,0,0,0.80702,-0.32019,0,0.86782,-0.77137,-1.1847,-1.225,25.187,-1.0604,0.43488,0.0041024,0.4,0.46,0
0.2592,0.043161,0.62186,-0.86669,-1.0341,-1.1921,0.16966,0,0,0.42304,0.20539,0,0.44112,0,0,0.83011,-0.24855,0,0.8661,-0.76121,-1.1396,-1.1921,31.869,-1.031,0.40719,0.0032737,0.42,0.46,0
0.26675,0.047592,0.60494,-0.90338,-0.90525,-1.1475,0.15585,0,0,0.3174,0.31497,0,0.4052,0,0,0.8663,-0.16362,0,0.8811,-0.74847,-1.0602,-1.1475,44.828,-0.98539,0.36335,0.0019918,0.44,0.46,0
0.2719,0.051581,0.58721,-0.95331,-0.7829,-1.1081,0.10937,0,0,0.2012,0.42272,0,0.28436,0,0,0.91336,-0.073333,0,0.91594,-0.72947,-1.0067,-1.1081,63.96,-0.9481,0.33948,0.0014223,0.46,0.46,0
0.27479,0.053881,0.56841,-1.0026,-0.69413,-1.0774,0.041135,0,0,0.097252,0.4983,0,0.10695,0,0,0.97208,0.008123,0,0.97245,-0.68874,-1.008,-1.0774,82.534,-0.92473,0.35906,0.0020811,0.48,0.46,0
0.27579,0.053601,0.54833,-1.0587,-0.63086,-1.0552,-0.02279,0,0,-0.0045099,0.55162,0,-0.059253,0,0,1.0372,0.045431,0,1.0387,-0.62965,-1.0599,-1.0552,-86.959,-0.9149,0.42789,0.0040221,0.5,0.46,0
0.27461,0.050752,0.52692,-1.0923,-0.51556,-1.0093,-0.062432,0,0,-0.10794,0.64185,0,-0.16232,0,0,1.0941,0.046675,0,1.0954,-0.50888,-1.099,-1.0093,-83.892,-0.87239,0.55077,0.0078191,0.52,0.46,0
0.27147,0.046719,0.50456,-1.1228,-0.43264,-0.9712,-0.056581,0,0,-0.1971,0.70013,0,-0.14711,0,0,1.1321,0.023519,0,1.1323,-0.42803,-1.1274,-0.9712,-85.344,-0.84222,0.63584,0.010564,0.54,0.46,0
0.26673,0.042677,0.48164,-1.1471,-0.4044,-0.94711,-0.04112,0,0,-0.26005,0.70552,0,-0.10691,0,0,1.1522,0.010018,0,1.1523,-0.40213,-1.1494,-0.94711,-86.841,-0.83288,0.66946,0.010798,0.56,0.46,0
0.26107,0.039068,0.45847,-1.1526,-0.38611,-0.92007,-0.027409,0,0,-0.30223,0.69416,0,-0.071263,0,0,1.1623,0.0016926,0,1.1623,-0.38513,-1.1535,-0.92007,-87.954,-0.81958,0.68232,0.01011,0.58,0.46,0
0.25464,0.035838,0.43515,-1.1553,-0.37321,-0.8937,-0.017754,0,0,-0.34007,0.67664,0,-0.046161,0,0,1.1687,-0.003495,0,1.1687,-0.37281,-1.1557,-0.8937,-88.7,-0.8074,0.69025,0.0090573,0.6,0.46,0
0.24747,0.032974,0.41173,-1.158,-0.36228,-0.86781,-0.010603,0,0,-0.37726,0.6572,0,-0.027568,0,0,1.173,-0.0067336,0,1.173,-0.36213,-1.1582,-0.86781,-89.237,-0.79603,0.69773,0.0078198,0.62,0.46,0
0.23955,0.030461,0.38823,-1.1612,-0.35205,-0.8422,-0.0052349,0,0,-0.41468,0.6372,0,-0.013611,0,0,1.1758,-0.0087243,0,1.1759,-0.35202,-1.1612,-0.8422,-89.629,-0.78515,0.706,0.0064441,0.64,0.46,0
0.23088,0.028284,0.36469,-1.1646,-0.34205,-0.81669,-0.0011348,0,0,-0.4523,0.61703,0,-0.0029504,0,0,1.1776,-0.0099121,0,1.1777,-0.34205,-1.1646,-0.81669,-89.921,-0.77446,0.71518,0.004941,0.66,0.46,0
0.22146,0.026427,0.34113,-1.168,-0.33215,-0.79119,0.0020569,0,0,-0.48991,0.59674,0,0.0053479,0,0,1.1785,-0.010599,0,1.1786,-0.33215,-1.168,-0.79119,89.859,-0.76379,0.72507,0.0033143,0.68,0.46,0
0.21129,0.024874,0.31755,-1.1712,-0.32233,-0.76562,0.0046318,0,0,-0.52729,0.57628,0,0.012043,0,0,1.1787,-0.011009,0,1.1788,-0.3223,-1.1713,-0.76562,89.687,-0.75306,0.73546,0.0015688,0.7,0.46,0
0.20037,0.023607,0.29398,-1.174,-0.31261,-0.73998,0.0068332,0,0,-0.56428,0.55557,0,0.017766,0,0,1.1782,-0.011323,0,1.1783,-0.31256,-1.1741,-0.73998,89.546,-0.74221,0.74611,-0.00028735,0.72,0.46,0
0.18871,0.022608,0.27043,-1.1763,-0.30306,-0.71424,0.0088664,0,0,-0.60069,0.53452,0,0.023053,0,0,1.1769,-0.011708,0,1.177,-0.30297,-1.1764,-0.71424,89.418,-0.7312,0.75684,-0.0022428,0.74,0.46,0
0.17634,0.021859,0.2469,-1.1779,-0.29376,-0.68841,0.010907,0,0,-0.63637,0.51304,0,0.028358,0,0,1.1749,-0.012342,0,1.1749,-0.29363,-1.1781,-0.68841,89.293,-0.72003,0.76741,-0.0042824,0.76,0.46,0
0.16326,0.021342,0.22343,-1.1787,-0.28486,-0.6625,0.013117,0,0,-0.67108,0.49094,0,0.034105,0,0,1.1718,-0.013439,0,1.1719,-0.28466,-1.1789,-0.6625,89.159,-0.70869,0.77753,-0.0063854,0.78,0.46,0
0.1495,0.021036,0.20003,-1.1783,-0.27665,-0.63653,0.01568,0,0,-0.70436,0.46784,0,0.040768,0,0,1.1674,-0.015291,0,1.1675,-0.27638,-1.1786,-0.63653,89.004,-0.69717,0.78663,-0.0085187,0.8,0.46,0
0.13508,0.020924,0.17673,-1.176,-0.26981,-0.61049,0.018886,0,0,-0.73522,0.44289,0,0.049103,0,0,1.1613,-0.018343,0,1.1615,-0.26941,-1.1764,-0.61049,88.807,-0.68544,0.79351,-0.010616,0.82,0.46,0
0.12009,0.02099,0.15358,-1.1698,-0.2656,-0.58419,0.023194,0,0,-0.76128,0.41418,0,0.060305,0,0,1.1525,-0.023337,0,1.1527,-0.265,-1.1704,-0.58419,88.531,-0.67319,0.79537,-0.012524,0.84,0.46,0
0.10463,0.021221,0.13063,-1.1549,-0.26671,-0.55711,0.029483,0,0,-0.77711,0.37752,0,0.076657,0,0,1.1389,-0.031656,0,1.1394,-0.26573,-1.1559,-0.55711,88.101,-0.65957,0.78605,-0.013886,0.86,0.46,0
0.089002,0.021609,0.10802,-1.1183,-0.2761,-0.52634,0.035892,0,0,-0.76954,0.32531,0,0.093319,0,0,1.1123,-0.046046,0,1.1133,-0.27457,-1.1198,-0.52634,87.564,-0.64024,0.75167,-0.01385,0.88,0.46,0
0.073852,0.021802,0.086141,-1.0793,-0.32023,-0.50599,0.037627,0,0,-0.74526,0.24149,0,0.097829,0,0,1.0615,-0.073593,0,1.0646,-0.31837,-1.0811,-0.50599,87.169,-0.63516,0.6884,-0.012653,0.9,0.46,0
0.059192,0.021347,0.065559,-1.0358,-0.33904,-0.47802,0.023476,0,0,-0.72515,0.18068,0,0.061037,0,0,0.98239,-0.085189,0,0.98732,-0.33825,-1.0366,-0.47802,88.073,-0.61762,0.64003,-0.011331,0.92,0.46,0
0.044846,0.020366,0.046845,-0.98421,-0.27979,-0.42605,0.020571,0,0,-0.72561,0.19013,0,0.053484,0,0,0.8886,-0.0753,0,0.89342,-0.27919,-0.98481,-0.42605,88.329,-0.56335,0.64486,-0.011401,0.94,0.46,0
0.030167,0.019716,0.030015,-0.95335,-0.22775,-0.38435,0.021754,0,0,-0.73971,0.20358,0,0.05656,0,0,0.80497,-0.042301,0,0.80677,-0.2271,-0.954,-0.38435,88.284,-0.52182,0.66243,-0.012141,0.96,0.46,0
0.015258,0.019593,0.014646,-0.93005,-0.1875,-0.34991,0.014305,0,0,-0.75418,0.21114,0,0.037194,0,0,0.75038,-0.016469,0,0.75069,-0.18722,-0.93033,-0.34991,88.897,-0.48915,0.67659,-0.01286,0.98,0.46,0
0,0.019612,0,-0.90464,-0.15474,-0.31782,0.00037224,0,0,-0.76287,0.21199,0,0.00096781,0,0,0.73231,1.4637e-18,0,0.73224,-0.15474,-0.90464,-0.31782,89.972,-0.45907,0.68312,-0.01328,1,0.46,0
0,0.047192,1,-0.69658,-1.6123,-1.6926,0.0034069,0,0,1.2949,0.10451,0,0.008858,0,0,0.66614,-8.2573e-16,0,0.66602,-0.69656,-1.6123,-1.6926,0.21317,-1.3338,0.95843,0.044147,0,0.48,0
0.025898,0.047369,0.98668,-0.68636,-1.5747,-1.665,0.010767,0,0,1.2722,0.11738,0,0.027994,0,0,0.67275,0.031114,0,0.67336,-0.68623,-1.5748,-1.665,0.69429,-1.3087,0.93695,0.040928,0.02,0.48,0
0.050889,0.047699,0.97309,-0.70373,-1.5209,-1.6405,0.01171,0,0,1.2178,0.1555,0,0.030445,0,0,0.69389,0.064569,0,0.69686,-0.70356,-1.521,-1.6405,0.82086,-1.2883,0.88326,0.033218,0.04,0.48,0
0.074608,0.047536,0.95892,-0.73514,-1.4483,-1.6139,-0.0073902,0,0,1.1424,0.21538,0,-0.019214,0,0,0.73356,0.1009,0,0.74071,-0.73506,-1.4483,-1.6139,-0.59368,-1.2658,0.80889,0.023388,0.06,0.48,0
0.096587,0.045783,0.94375,-0.7854,-1.346,-1.5832,-0.055792,0,0,1.0371,0.30832,0,-0.14506,0,0,0.79088,0.13201,0,0.80266,-0.7799,-1.3515,-1.5832,-5.6286,-1.2382,0.71611,0.012421,0.08,0.48,0
0.11609,0.04127,0.92729,-0.85632,-1.1719,-1.5358,-0.11233,0,0,0.88327,0.47298,0,-0.29205,0,0,0.85548,0.1288,0,0.86577,-0.82043,-1.2078,-1.5358,-17.722,-1.188,0.62021,0.0017569,0.1,0.48,0
0.13192,0.034553,0.90953,-0.90337,-0.89082,-1.4478,-0.12789,0,0,0.70774,0.72406,0,-0.33252,0,0,0.90996,0.099489,0,0.91556,-0.76905,-1.0251,-1.4478,-46.404,-1.0807,0.59367,-0.0044038,0.12,0.48,0
0.1444,0.028271,0.89089,-0.95336,-0.71429,-1.3912,-0.083543,0,0,0.56917,0.87996,0,-0.21721,0,0,0.94386,0.055138,0,0.94535,-0.68799,-0.97966,-1.3912,-72.525,-1.0196,0.61193,-0.0034131,0.14,0.48,0
0.15468,0.023857,0.87177,-0.98294,-0.64542,-1.3603,-0.041207,0,0,0.49055,0.92932,0,-0.10714,0,0,0.96019,0.025332,0,0.96047,-0.64046,-0.9879,-1.3603,-83.139,-0.99621,0.62351,-0.00074687,0.16,0.48,0
0.16402,0.021178,0.85248,-0.98249,-0.60475,-1.3287,-0.013542,0,0,0.45002,0.94107,0,-0.035208,0,0,0.96746,0.0021296,0,0.96743,-0.60427,-0.98297,-1.3287,-87.95,-0.97196,0.62755,0.0010009,0.18,0.48,0
0.17269,0.019591,0.83308,-0.98062,-0.58244,-1.302,0.0030637,0,0,0.41778,0.93542,0,0.0079656,0,0,0.97221,-0.018332,0,0.97235,-0.58242,-0.98065,-1.302,89.559,-0.95502,0.62436,0.0022972,0.2,0.48,0
0.18074,0.018776,0.81359,-0.98145,-0.57134,-1.2794,0.015632,0,0,0.38738,0.92051,0,0.040643,0,0,0.97586,-0.038615,0,0.97659,-0.57075,-0.98204,-1.2794,87.82,-0.94407,0.61637,0.0032958,0.22,0.48,0
0.18818,0.018618,0.79404,-0.98558,-0.56991,-1.2607,0.028788,0,0,0.35764,0.89801,0,0.07485,0,0,0.97917,-0.06092,0,0.98101,-0.56793,-0.98757,-1.2607,86.057,-0.93873,0.6044,0.0040426,0.24,0.48,0
0.19504,0.019203,0.77443,-0.99174,-0.58033,-1.2461,0.047389,0,0,0.3306,0.86542,0,0.12321,0,0,0.98249,-0.087826,0,0.98633,-0.57495,-0.99712,-1.2461,83.513,-0.93937,0.58761,0.0044752,0.26,0.48,0
0.2014,0.020822,0.75474,-0.99566,-0.60925,-1.2362,0.078686,0,0,0.31272,0.81505,0,0.20458,0,0,0.98558,-0.12315,0,0.99309,-0.59384,-1.0111,-1.2362,78.92,-0.94704,0.56454,0.004534,0.28,0.48,0
0.20755,0.024055,0.735,-0.97506,-0.65154,-1.223,0.11406,0,0,0.3223,0.74287,0,0.29656,0,0,0.98347,-0.17305,0,0.99818,-0.61537,-1.0112,-1.223,72.405,-0.94986,0.5342,0.0038872,0.3,0.48,0
0.2146,0.028929,0.71547,-0.91375,-0.79195,-1.2272,0.17551,0,0,0.40747,0.56581,0,0.45633,0,0,0.95562,-0.25773,0,0.98933,-0.66707,-1.0386,-1.2272,54.568,-0.97762,0.49363,0.0032779,0.32,0.48,0
0.2233,0.034144,0.69657,-0.91049,-1.0224,-1.2764,0.17672,0,0,0.47573,0.33026,0,0.45946,0,0,0.91931,-0.32284,0,0.97447,-0.78108,-1.1518,-1.2764,36.216,-1.0698,0.44629,0.0033933,0.34,0.48,0
0.23363,0.037716,0.6787,-0.86616,-1.1079,-1.2709,0.15227,0,0,0.52619,0.21193,0,0.39589,0,0,0.87246,-0.36908,0,0.94763,-0.79261,-1.1814,-1.2709,25.779,-1.0817,0.44043,0.0037844,0.36,0.48,0
0.24435,0.039899,0.66167,-0.85072,-1.1371,-1.258,0.1451,0,0,0.52948,0.1572,0,0.37727,0,0,0.84853,-0.37287,0,0.92676,-0.79005,-1.1978,-1.258,22.691,-1.0819,0.44093,0.0041271,0.38,0.48,0
0.25481,0.042519,0.64476,-0.86278,-1.139,-1.2453,0.17384,0,0,0.49728,0.13815,0,0.45198,0,0,0.86199,-0.35512,0,0.93236,-0.77888,-1.2229,-1.2453,25.765,-1.0824,0.45566,0.0048196,0.4,0.48,0
0.26424,0.04739,0.62719,-0.90998,-1.0737,-1.2223,0.21623,0,0,0.40599,0.19321,0,0.5622,0,0,0.90386,-0.29444,0,0.95052,-0.76062,-1.223,-1.2223,34.635,-1.0686,0.46203,0.0050657,0.42,0.48,0
0.27105,0.054443,0.6086,-0.94094,-0.85277,-1.1467,0.2194,0,0,0.26751,0.38213,0,0.57044,0,0,0.95083,-0.20659,0,0.97257,-0.67307,-1.1206,-1.1467,50.681,-0.98014,0.46116,0.0049829,0.44,0.48,0
0.27494,0.060875,0.58916,-0.98865,-0.69381,-1.0939,0.15109,0,0,0.13682,0.52011,0,0.39283,0,0,0.99052,-0.11015,0,0.99615,-0.63014,-1.0523,-1.0939,67.148,-0.92545,0.44443,0.0043759,0.46,0.48,0
0.27652,0.064611,0.56898,-1.0335,-0.6283,-1.0675,0.07572,0,0,0.044211,0.571,0,0.19687,0,0,1.0258,-0.046709,0,1.0268,-0.61461,-1.0472,-1.0675,79.754,-0.90978,0.44311,0.0044367,0.48,0.48,0
0.2767,0.065275,0.54813,-1.056,-0.57054,-1.0361,0.014363,0,0,-0.025893,0.60522,0,0.037345,0,0,1.0613,-0.010243,0,1.0615,-0.57011,-1.0564,-1.0361,88.307,-0.88755,0.47647,0.0055216,0.5,0.48,0
0.27548,0.063537,0.52653,-1.0787,-0.50666,-1.0021,-0.021175,0,0,-0.099495,0.64411,0,-0.055054,0,0,1.0961,0.002689,0,1.0962,-0.50587,-1.0795,-1.0021,-87.883,-0.86248,0.53909,0.0074913,0.52,0.48,0
0.27272,0.060337,0.50428,-1.1032,-0.45172,-0.97077,-0.032744,0,0,-0.1722,0.67476,0,-0.085134,0,0,1.1244,0.0023159,0,1.1245,-0.45008,-1.1049,-0.97077,-87.13,-0.84191,0.5991,0.0092059,0.54,0.48,0
0.26859,0.056583,0.48155,-1.1249,-0.41573,-0.94375,-0.02804,0,0,-0.23553,0.68643,0,-0.072904,0,0,1.1442,-0.0026621,0,1.1443,-0.41462,-1.126,-0.94375,-87.739,-0.82814,0.64005,0.0098749,0.56,0.48,0
0.2633,0.052822,0.45851,-1.1415,-0.39524,-0.91954,-0.019098,0,0,-0.28858,0.68159,0,-0.049655,0,0,1.1571,-0.0065641,0,1.1571,-0.39475,-1.142,-0.91954,-88.535,-0.81877,0.66457,0.0095767,0.58,0.48,0
0.25705,0.049299,0.43527,-1.1524,-0.38013,-0.89504,-0.010673,0,0,-0.33461,0.66938,0,-0.027749,0,0,1.1654,-0.0090977,0,1.1655,-0.37998,-1.1526,-0.89504,-89.208,-0.8092,0.68136,0.0087719,0.6,0.48,0
0.24992,0.046082,0.41189,-1.1608,-0.3675,-0.87039,-0.004073,0,0,-0.37756,0.65376,0,-0.01059,0,0,1.171,-0.010544,0,1.1711,-0.36748,-1.1608,-0.87039,-89.706,-0.79957,0.69523,0.0076652,0.62,0.48,0
0.24195,0.043194,0.38843,-1.1677,-0.35595,-0.84552,0.00084598,0,0,-0.41882,0.63644,0,0.0021995,0,0,1.1747,-0.011225,0,1.1748,-0.35595,-1.1677,-0.84552,89.94,-0.78972,0.70795,0.0063432,0.64,0.48,0
0.23317,0.04063,0.3649,-1.1734,-0.34498,-0.82041,0.0044234,0,0,-0.45886,0.61807,0,0.011501,0,0,1.1771,-0.011393,0,1.1771,-0.34495,-1.1734,-0.82041,89.694,-0.77959,0.72007,0.0048448,0.66,0.48,0
0.22359,0.038378,0.34135,-1.178,-0.33438,-0.79507,0.0070162,0,0,-0.49784,0.59889,0,0.018242,0,0,1.1784,-0.011232,0,1.1784,-0.33432,-1.1781,-0.79507,89.523,-0.76916,0.73175,0.0031944,0.68,0.48,0
0.21325,0.036422,0.31777,-1.1816,-0.3241,-0.7695,0.0089254,0,0,-0.53579,0.57901,0,0.023206,0,0,1.1787,-0.010878,0,1.1787,-0.32401,-1.1817,-0.7695,89.404,-0.75841,0.743,0.0014129,0.7,0.48,0
0.20216,0.034742,0.2942,-1.1843,-0.31413,-0.74371,0.010393,0,0,-0.5727,0.55846,0,0.027021,0,0,1.1782,-0.010442,0,1.1783,-0.31401,-1.1844,-0.74371,89.316,-0.74736,0.75378,-0.00047961,0.72,0.48,0
0.19034,0.033319,0.27064,-1.1858,-0.30448,-0.71773,0.011608,0,0,-0.60851,0.53723,0,0.030181,0,0,1.1768,-0.010022,0,1.1769,-0.30433,-1.186,-0.71773,89.246,-0.73601,0.76402,-0.0024617,0.74,0.48,0
0.17782,0.032135,0.24712,-1.1863,-0.2952,-0.69157,0.012716,0,0,-0.64311,0.51527,0,0.033062,0,0,1.1745,-0.0097185,0,1.1745,-0.29502,-1.1865,-0.69157,89.183,-0.72435,0.77356,-0.0045091,0.76,0.48,0
0.16462,0.031167,0.22366,-1.1854,-0.28643,-0.66522,0.013809,0,0,-0.67628,0.49244,0,0.035904,0,0,1.1709,-0.0096473,0,1.171,-0.28621,-1.1857,-0.66522,89.12,-0.71236,0.78214,-0.0065922,0.78,0.48,0
0.15077,0.030388,0.20029,-1.183,-0.27843,-0.63871,0.014894,0,0,-0.70755,0.46836,0,0.038725,0,0,1.1658,-0.0099567,0,1.1659,-0.27818,-1.1832,-0.63871,89.057,-0.70004,0.78917,-0.0086677,0.8,0.48,0
0.13632,0.02976,0.17703,-1.1781,-0.27182,-0.612,0.01578,0,0,-0.73591,0.44224,0,0.041028,0,0,1.1585,-0.010843,0,1.1586,-0.27154,-1.1784,-0.612,89.003,-0.68731,0.79341,-0.01066,0.82,0.48,0
0.12133,0.029223,0.15395,-1.1691,-0.26793,-0.58505,0.015839,0,0,-0.75924,0.41226,0,0.041182,0,0,1.1479,-0.012542,0,1.148,-0.26765,-1.1694,-0.58505,88.993,-0.67402,0.79222,-0.012417,0.84,0.48,0
0.10595,0.028679,0.13112,-1.1522,-0.26899,-0.55749,0.013163,0,0,-0.77319,0.37505,0,0.034224,0,0,1.1314,-0.015181,0,1.1316,-0.26879,-1.1524,-0.55749,89.146,-0.65958,0.78044,-0.013633,0.86,0.48,0
0.090407,0.027931,0.10869,-1.1264,-0.28091,-0.53088,0.0039841,0,0,-0.77416,0.32496,0,0.010359,0,0,1.1051,-0.018109,0,1.1054,-0.28089,-1.1264,-0.53088,89.73,-0.64606,0.75234,-0.014008,0.88,0.48,0
0.074982,0.026706,0.086912,-1.0838,-0.29746,-0.5013,-0.013696,0,0,-0.75728,0.26498,0,-0.03561,0,0,1.0605,-0.014229,0,1.0609,-0.29723,-1.0841,-0.5013,-89.002,-0.62753,0.70723,-0.013198,0.9,0.48,0
0.060116,0.025198,0.066269,-1.0442,-0.32304,-0.47643,-0.028761,0,0,-0.73806,0.19941,0,-0.074779,0,0,0.99169,0.0098177,0,0.99271,-0.32189,-1.0453,-0.47643,-87.72,-0.61455,0.65987,-0.012072,0.92,0.48,0
0.04546,0.024118,0.047245,-1.0012,-0.2971,-0.43675,-0.016235,0,0,-0.73384,0.18154,0,-0.04221,0,0,0.91929,0.014579,0,0.92063,-0.29673,-1.0016,-0.43675,-88.68,-0.57836,0.64635,-0.011704,0.94,0.48,0
0.030741,0.023937,0.030135,-0.96666,-0.22575,-0.38786,-0.0024973,0,0,-0.75245,0.21074,0,-0.0064929,0,0,0.80242,0.024962,0,0.80398,-0.22574,-0.96667,-0.38786,-89.807,-0.52676,0.67464,-0.012753,0.96,0.48,0
0.015527,0.024098,0.014617,-0.9442,-0.18382,-0.35302,-0.0051786,0,0,-0.76853,0.21997,0,-0.013464,0,0,0.75338,0.022554,0,0.75391,-0.18378,-0.94424,-0.35302,-89.61,-0.49368,0.69155,-0.013617,0.98,0.48,0
0,0.024151,0,-0.91807,-0.15147,-0.32086,0.0010187,0,0,-0.77637,0.22021,0,0.0026487,0,0,0.73086,4.8789e-18,0,0.73076,-0.15147,-0.91807,-0.32086,89.924,-0.46347,0.69751,-0.014024,1,0.48,0
0,0.049102,1,-0.68302,-1.6337,-1.695,0.009088,0,0,1.3156,0.079683,0,0.023629,0,0,0.69098,-1.9785e-15,0,0.69093,-0.68294,-1.6338,-1.695,0.54764,-1.3373,0.98291,0.048135,0,0.5,0
0.026312,0.049575,0.98618,-0.67282,-1.5912,-1.6654,0.024811,0,0,1.2903,0.096456,0,0.064509,0,0,0.69826,0.017539,0,0.69848,-0.67215,-1.5918,-1.6654,1.5465,-1.3098,0.95859,0.044343,0.02,0.5,0
0.051613,0.050775,0.97207,-0.69419,-1.5241,-1.6376,0.039358,0,0,1.2264,0.14745,0,0.10233,0,0,0.72003,0.036463,0,0.72105,-0.69233,-1.526,-1.6376,2.7089,-1.2853,0.8947,0.034862,0.04,0.5,0
0.075368,0.052073,0.95738,-0.73039,-1.4236,-1.6036,0.033338,0,0,1.1351,0.23399,0,0.08668,0,0,0.75501,0.055549,0,0.75733,-0.72879,-1.4252,-1.6036,2.7471,-1.2525,0.80063,0.022011,0.06,0.5,0
0.097019,0.052508,0.94187,-0.78251,-1.2878,-1.563,0.0032528,0,0,1.0146,0.35771,0,0.0084574,0,0,0.79938,0.068517,0,0.80271,-0.78249,-1.2878,-1.563,0.36883,-1.2111,0.68564,0.0080234,0.08,0.5,0
0.11595,0.051301,0.9254,-0.81104,-1.1042,-1.5,-0.033698,0,0,0.89562,0.5145,0,-0.087616,0,0,0.83843,0.077721,0,0.84231,-0.80722,-1.108,-1.5,-6.4736,-1.1384,0.60168,-0.0025224,0.1,0.5,0
0.13182,0.048526,0.90803,-0.92796,-0.92749,-1.4647,-0.062284,0,0,0.69772,0.69832,0,-0.16194,0,0,0.89299,0.062793,0,0.89533,-0.86544,-0.99001,-1.4647,-45.107,-1.1067,0.54767,-0.0069877,0.12,0.5,0
0.14482,0.045173,0.88993,-0.94019,-0.76088,-1.4002,-0.055594,0,0,0.59807,0.83118,0,-0.14454,0,0,0.91703,0.036612,0,0.91779,-0.74504,-0.95603,-1.4002,-74.099,-1.0338,0.57928,-0.0057038,0.14,0.5,0
0.15575,0.042171,0.87135,-0.96733,-0.66953,-1.3624,-0.034896,0,0,0.5136,0.90074,0,-0.090729,0,0,0.93597,0.015315,0,0.93608,-0.66549,-0.97136,-1.3624,-83.405,-0.99975,0.60504,-0.0023862,0.16,0.5,0
0.16536,0.039866,0.85249,-0.97849,-0.62204,-1.3326,-0.013976,0,0,0.4604,0.92379,0,-0.036338,0,0,0.94668,-0.0037686,0,0.94666,-0.62149,-0.97904,-1.3326,-87.758,-0.97773,0.61588,0.00011532,0.18,0.5,0
0.17416,0.03823,0.83348,-0.98022,-0.59596,-1.3063,0.0035662,0,0,0.42395,0.92349,0,0.0092721,0,0,0.9523,-0.021926,0,0.95252,-0.59592,-0.98025,-1.3063,89.468,-0.96084,0.61592,0.0016975,0.2,0.5,0
0.18232,0.037128,0.8144,-0.98093,-0.58388,-1.2838,0.018728,0,0,0.39378,0.90995,0,0.048694,0,0,0.95471,-0.04071,0,0.95554,-0.583,-0.98181,-1.2838,87.305,-0.94955,0.60887,0.0027411,0.22,0.5,0
0.18991,0.036496,0.79529,-0.98206,-0.58383,-1.2651,0.033915,0,0,0.3679,0.8856,0,0.088178,0,0,0.95448,-0.06184,0,0.95644,-0.58096,-0.98493,-1.2651,85.167,-0.94365,0.59567,0.0033365,0.24,0.5,0
0.19704,0.036346,0.77622,-0.98106,-0.59925,-1.2503,0.051977,0,0,0.35003,0.84637,0,0.13514,0,0,0.9513,-0.087447,0,0.95523,-0.5923,-0.988,-1.2503,82.385,-0.94354,0.57374,0.0033221,0.26,0.5,0
0.20391,0.036791,0.75724,-0.9701,-0.63817,-1.2397,0.075478,0,0,0.35051,0.78202,0,0.19624,0,0,0.94335,-0.12037,0,0.95088,-0.62181,-0.98646,-1.2397,77.772,-0.94933,0.53801,0.0024483,0.28,0.5,0
0.21106,0.037911,0.73848,-0.95998,-0.73211,-1.2461,0.10537,0,0,0.37197,0.6682,0,0.27396,0,0,0.93093,-0.16082,0,0.94459,-0.69085,-1.0012,-1.2461,68.618,-0.9794,0.48198,0.001165,0.3,0.5,0
0.21909,0.039551,0.72014,-0.90081,-0.84769,-1.2447,0.12827,0,0,0.44704,0.5161,0,0.33351,0,0,0.89572,-0.21111,0,0.92017,-0.74326,-1.0052,-1.2447,50.849,-0.99773,0.4344,0.00032749,0.32,0.5,0
0.22848,0.041165,0.70244,-0.88423,-0.99567,-1.2664,0.13411,0,0,0.49683,0.35196,0,0.34868,0,0,0.8665,-0.27197,0,0.90818,-0.79473,-1.0852,-1.2664,33.719,-1.0488,0.41212,0.0013955,0.34,0.5,0
0.23896,0.042256,0.68548,-0.86542,-1.1005,-1.2753,0.13538,0,0,0.5328,0.22715,0,0.35198,0,0,0.83452,-0.32168,0,0.8943,-0.80368,-1.1623,-1.2753,24.515,-1.0804,0.42647,0.0030608,0.36,0.5,0
0.2498,0.043073,0.66906,-0.86193,-1.1559,-1.2744,0.1531,0,0,0.53624,0.15403,0,0.39806,0,0,0.82813,-0.36786,0,0.90585,-0.79668,-1.2212,-1.2744,23.082,-1.0974,0.45347,0.0045675,0.38,0.5,0
0.26041,0.045024,0.65236,-0.90189,-1.2101,-1.286,0.20722,0,0,0.4993,0.098569,0,0.53877,0,0,0.88544,-0.41988,0,0.98043,-0.79776,-1.3143,-1.286,26.679,-1.1327,0.50295,0.0064647,0.4,0.5,0
0.26977,0.050889,0.63364,-0.97655,-1.1706,-1.2778,0.30557,0,0,0.39163,0.1393,0,0.79447,0,0,0.97864,-0.43463,0,1.073,-0.75299,-1.3942,-1.2778,36.19,-1.1417,0.59166,0.009265,0.42,0.5,0
0.27608,0.062877,0.61321,-0.9583,-0.68409,-1.1059,0.25776,0,0,0.19191,0.54839,0,0.67019,0,0,1.0506,-0.20693,0,1.0682,-0.52924,-1.1132,-1.1059,59.005,-0.91611,0.58034,0.010033,0.44,0.5,0
0.27744,0.072385,0.59162,-1.0554,-0.64252,-1.101,0.18407,0,0,0.059302,0.596,0,0.47857,0,0,1.0754,-0.12171,0,1.0817,-0.57237,-1.1255,-1.101,69.138,-0.93296,0.54129,0.0080891,0.46,0.5,0
0.27827,0.076721,0.57028,-1.0468,-0.58442,-1.0596,0.073476,0,0,0.016705,0.61779,0,0.19104,0,0,1.0737,-0.068948,0,1.0758,-0.57302,-1.0582,-1.0596,81.184,-0.89695,0.4859,0.0058917,0.48,0.5,0
0.27836,0.07781,0.54874,-1.0256,-0.52841,-1.0149,0.042507,0,0,-0.013854,0.63249,0,0.11052,0,0,1.0834,-0.03779,0,1.084,-0.5248,-1.0292,-1.0149,85.148,-0.85632,0.49743,0.0063038,0.5,0.5,0
0.27735,0.076516,0.52682,-1.069,-0.49618,-0.99637,0.00038356,0,0,-0.094427,0.65025,0,0.00099725,0,0,1.1102,-0.021901,0,1.1105,-0.49618,-1.069,-0.99637,89.962,-0.85386,0.54019,0.0076046,0.52,0.5,0
0.27502,0.073709,0.50447,-1.0639,-0.44405,-0.95685,-0.0050732,0,0,-0.13915,0.66664,0,-0.01319,0,0,1.1236,-0.015875,0,1.1237,-0.44401,-1.0639,-0.95685,-89.531,-0.8216,0.57392,0.0085811,0.54,0.5,0
0.27133,0.070134,0.48175,-1.1205,-0.42705,-0.94602,-0.0099142,0,0,-0.22685,0.67466,0,-0.025777,0,0,1.1458,-0.014535,0,1.1459,-0.42691,-1.1207,-0.94602,-89.181,-0.8312,0.62501,0.009317,0.56,0.5,0
0.26637,0.066332,0.45874,-1.1178,-0.39452,-0.91243,-0.0056002,0,0,-0.26696,0.67328,0,-0.014561,0,0,1.1541,-0.014604,0,1.1542,-0.39448,-1.1178,-0.91243,-89.556,-0.80824,0.64564,0.0092532,0.58,0.5,0
0.26027,0.062613,0.43551,-1.1616,-0.38943,-0.90083,0.00031451,0,0,-0.33902,0.66482,0,0.00081773,0,0,1.1659,-0.014604,0,1.166,-0.38943,-1.1616,-0.90083,89.977,-0.81729,0.68037,0.0085331,0.6,0.5,0
0.25315,0.059125,0.41215,-1.1544,-0.36678,-0.86851,0.0029066,0,0,-0.37169,0.65225,0,0.0075572,0,0,1.17,-0.014292,0,1.1701,-0.36677,-1.1544,-0.86851,89.789,-0.79658,0.69062,0.0076719,0.62,0.5,0
0.24509,0.055919,0.38868,-1.1858,-0.36339,-0.85345,0.0078808,0,0,-0.43211,0.63708,0,0.02049,0,0,1.1755,-0.013691,0,1.1756,-0.36331,-1.1859,-0.85345,89.451,-0.8009,0.71674,0.0061395,0.64,0.5,0
0.23616,0.053006,0.36515,-1.1838,-0.34683,-0.82435,0.011477,0,0,-0.46734,0.62078,0,0.029839,0,0,1.1776,-0.013189,0,1.1777,-0.34667,-1.184,-0.82435,89.215,-0.78501,0.72754,0.0047709,0.66,0.5,0
0.2264,0.050383,0.34158,-1.1897,-0.33564,-0.79918,0.01262,0,0,-0.50767,0.6026,0,0.032811,0,0,1.179,-0.012047,0,1.1791,-0.33545,-1.1899,-0.79918,89.154,-0.77484,0.74085,0.0030777,0.68,0.5,0
0.21585,0.048035,0.31799,-1.1937,-0.32494,-0.77359,0.013239,0,0,-0.54618,0.58324,0,0.034423,0,0,1.1795,-0.010825,0,1.1796,-0.32474,-1.1939,-0.77359,89.127,-0.76408,0.75287,0.0012444,0.7,0.5,0
0.20455,0.045946,0.2944,-1.1962,-0.31468,-0.74765,0.013484,0,0,-0.58307,0.56286,0,0.035058,0,0,1.179,-0.009545,0,1.1791,-0.31447,-1.1964,-0.74765,89.124,-0.75283,0.76379,-0.00069847,0.72,0.5,0
0.19253,0.044097,0.27082,-1.1971,-0.30484,-0.72141,0.013458,0,0,-0.61841,0.54154,0,0.03499,0,0,1.1777,-0.0082244,0,1.1777,-0.30464,-1.1973,-0.72141,89.136,-0.74112,0.77364,-0.0027211,0.74,0.5,0
0.17981,0.04247,0.24729,-1.1965,-0.29545,-0.69488,0.013223,0,0,-0.65212,0.51926,0,0.034379,0,0,1.1752,-0.0068729,0,1.1753,-0.29525,-1.1967,-0.69488,89.159,-0.72894,0.78235,-0.0047917,0.76,0.5,0
0.16644,0.041039,0.22382,-1.1942,-0.28658,-0.66806,0.012776,0,0,-0.68402,0.49593,0,0.033218,0,0,1.1716,-0.0054918,0,1.1716,-0.2864,-1.1944,-0.66806,89.194,-0.71629,0.78968,-0.0068734,0.78,0.5,0
0.15245,0.039771,0.20043,-1.19,-0.27843,-0.64097,0.011982,0,0,-0.71379,0.4713,0,0.031154,0,0,1.1663,-0.0040661,0,1.1663,-0.27827,-1.1902,-0.64097,89.247,-0.70314,0.79524,-0.008921,0.8,0.5,0
0.13789,0.038614,0.17717,-1.1837,-0.27146,-0.61371,0.010401,0,0,-0.74095,0.44492,0,0.027042,0,0,1.1587,-0.0025327,0,1.1587,-0.27135,-1.1838,-0.61371,89.347,-0.68961,0.79836,-0.010879,0.82,0.5,0
0.12281,0.037481,0.15408,-1.1749,-0.26656,-0.58652,0.006912,0,0,-0.76492,0.41595,0,0.017971,0,0,1.1482,-0.0006745,0,1.1482,-0.26651,-1.175,-0.58652,89.564,-0.676,0.79812,-0.012677,0.84,0.5,0
0.10729,0.036223,0.13124,-1.1645,-0.26542,-0.56023,-0.00083296,0,0,-0.78561,0.38325,0,-0.0021657,0,0,1.1334,0.0022324,0,1.1334,-0.26542,-1.1645,-0.56023,-89.947,-0.6634,0.7939,-0.014267,0.86,0.5,0
0.09139,0.034607,0.10874,-1.1531,-0.26822,-0.53514,-0.016404,0,0,-0.80334,0.34699,0,-0.042649,0,0,1.1133,0.0086853,0,1.1133,-0.26792,-1.1534,-0.53514,-88.938,-0.65215,0.78667,-0.015625,0.88,0.5,0
0.07516,0.032402,0.08671,-1.1365,-0.27288,-0.50951,-0.044921,0,0,-0.81503,0.30762,0,-0.11679,0,0,1.0894,0.024912,0,1.0897,-0.27055,-1.1388,-0.50951,-87.03,-0.63962,0.77683,-0.016619,0.9,0.5,0
0.058788,0.029323,0.065167,-1.0591,-0.25915,-0.46064,-0.074328,0,0,-0.778,0.26194,0,-0.19325,0,0,1.0285,0.065692,0,1.0293,-0.2523,-1.0659,-0.46064,-84.736,-0.59296,0.73206,-0.014783,0.92,0.5,0
0.044041,0.027506,0.04557,-1.0176,-0.33181,-0.4504,-0.12372,0,0,-0.7374,0.15417,0,-0.32166,0,0,0.9798,0.20439,0,1.0052,-0.31018,-1.0393,-0.4504,-80.081,-0.59995,0.67007,-0.0132,0.94,0.5,0
0.029063,0.028139,0.028398,-0.94469,-0.24323,-0.38477,-0.061634,0,0,-0.72789,0.18401,0,-0.16025,0,0,0.73269,0.13736,0,0.74633,-0.23786,-0.95007,-0.38477,-85.017,-0.52423,0.6513,-0.011792,0.96,0.5,0
0.014505,0.028392,0.013744,-0.90112,-0.19268,-0.34188,-0.026274,0,0,-0.72701,0.19397,0,-0.068312,0,0,0.71753,0.055491,0,0.71926,-0.1917,-0.90209,-0.34188,-87.879,-0.47856,0.64847,-0.011513,0.98,0.5,0
0,0.028421,0,-0.85311,-0.13101,-0.29523,0.00055884,0,0,-0.72523,0.21349,0,0.001453,0,0,0.6872,-1.3878e-17,0,0.68697,-0.13101,-0.85311,-0.29523,89.956,-0.42645,0.6556,-0.011468,1,0.5,0
0,0.050379,1,-0.67095,-1.6688,-1.7019,0.016309,0,0,1.3403,0.043054,0,0.042403,0,0,0.70122,-7.88e-16,0,0.70121,-0.67068,-1.6691,-1.7019,0.9361,-1.3472,1.0152,0.053551,0,0.52,0
0.026805,0.051228,0.98598,-0.64593,-1.6091,-1.6625,0.035147,0,0,1.3215,0.069445,0,0.091383,0,0,0.70655,0.0046395,0,0.70659,-0.64465,-1.6103,-1.6625,2.0872,-1.3058,0.99278,0.049788,0.02,0.52,0
0.052485,0.053597,0.97163,-0.70626,-1.5456,-1.6472,0.074229,0,0,1.2232,0.13203,0,0.193,0,0,0.7368,0.011515,0,0.73703,-0.69975,-1.5521,-1.6472,5.015,-1.2997,0.90369,0.036493,0.04,0.52,0
0.076342,0.056896,0.9567,-0.73052,-1.4137,-1.6,0.082224,0,0,1.1303,0.24211,0,0.21378,0,0,0.76562,0.013869,0,0.766,-0.72077,-1.4235,-1.6,6.7668,-1.2481,0.8056,0.022569,0.06,0.52,0
0.097696,0.060091,0.94101,-0.78337,-1.244,-1.5492,0.064864,0,0,0.99559,0.3968,0,0.16864,0,0,0.80486,0.021736,0,0.80544,-0.77441,-1.2529,-1.5492,7.8648,-1.1922,0.67716,0.0062828,0.08,0.52,0
0.11617,0.062108,0.92451,-0.80342,-1.0387,-1.4771,0.033077,0,0,0.87584,0.56996,0,0.086001,0,0,0.83745,0.019333,0,0.83788,-0.79886,-1.0433,-1.4771,7.8519,-1.1064,0.595,-0.0049927,0.1,0.52,0
0.13178,0.062479,0.90726,-0.91418,-0.90405,-1.4527,-0.012047,0,0,0.70011,0.71329,0,-0.031323,0,0,0.882,0.018247,0,0.88229,-0.89605,-0.92219,-1.4527,-56.407,-1.0903,0.54409,-0.008208,0.12,0.52,0
0.14497,0.061518,0.88942,-0.92578,-0.77134,-1.3986,-0.024473,0,0,0.61461,0.81538,0,-0.063628,0,0,0.9025,0.014818,0,0.90267,-0.76756,-0.92957,-1.3986,-81.208,-1.0319,0.56761,-0.0068767,0.14,0.52,0
0.15636,0.059886,0.87116,-0.94783,-0.68828,-1.362,-0.023164,0,0,0.53841,0.87583,0,-0.060227,0,0,0.91981,0.0028625,0,0.91982,-0.68623,-0.94989,-1.362,-84.94,-0.99937,0.58992,-0.003896,0.16,0.52,0
0.16651,0.05813,0.85263,-0.95793,-0.63877,-1.3316,-0.011165,0,0,0.48582,0.90074,0,-0.029028,0,0,0.93022,-0.010604,0,0.93027,-0.63838,-0.95832,-1.3316,-87.999,-0.97611,0.60098,-0.0014812,0.18,0.52,0
0.1758,0.05653,0.83395,-0.96153,-0.6115,-1.3059,0.0045804,0,0,0.44764,0.90267,0,0.011909,0,0,0.93527,-0.024927,0,0.93558,-0.61144,-0.96159,-1.3059,89.25,-0.95963,0.60139,0.00016356,0.2,0.52,0
0.18442,0.055174,0.81522,-0.96252,-0.59863,-1.2836,0.020855,0,0,0.41736,0.89041,0,0.054223,0,0,0.93595,-0.040584,0,0.9368,-0.59744,-0.96371,-1.2836,86.731,-0.94824,0.59466,0.001262,0.22,0.52,0
0.19249,0.054042,0.79651,-0.96217,-0.59861,-1.2648,0.036382,0,0,0.39335,0.86598,0,0.094593,0,0,0.93243,-0.058532,0,0.93424,-0.59501,-0.96577,-1.2648,84.341,-0.94184,0.58112,0.0018583,0.24,0.52,0
0.20015,0.053058,0.77792,-0.95729,-0.61497,-1.2496,0.050476,0,0,0.38001,0.82502,0,0.13124,0,0,0.92396,-0.080085,0,0.92738,-0.60768,-0.96457,-1.2496,81.784,-0.94062,0.55708,0.0017087,0.26,0.52,0
0.20769,0.052103,0.75956,-0.94328,-0.65828,-1.24,0.06251,0,0,0.38577,0.75627,0,0.16253,0,0,0.9089,-0.10685,0,0.91512,-0.64517,-0.95639,-1.24,78.157,-0.94719,0.51534,0.00056371,0.28,0.52,0
0.21558,0.051029,0.74157,-0.91725,-0.74061,-1.2389,0.072386,0,0,0.41817,0.64782,0,0.18821,0,0,0.88542,-0.14022,0,0.89643,-0.71473,-0.94313,-1.2389,70.332,-0.96559,0.45521,-0.0010682,0.3,0.52,0
0.22442,0.049723,0.72414,-0.88387,-0.86383,-1.2485,0.082369,0,0,0.47396,0.5,0,0.21416,0,0,0.85298,-0.1808,0,0.87195,-0.79087,-0.95682,-1.2485,48.467,-0.99872,0.40122,-0.0015076,0.32,0.52,0
0.23454,0.048223,0.70745,-0.8532,-1.0032,-1.2644,0.097801,0,0,0.53453,0.33949,0,0.25428,0,0,0.8143,-0.22849,0,0.84577,-0.80496,-1.0515,-1.2644,26.255,-1.0403,0.39822,0.00040963,0.34,0.52,0
0.2458,0.046802,0.69157,-0.83766,-1.1212,-1.2792,0.12689,0,0,0.57401,0.20548,0,0.32992,0,0,0.77656,-0.28455,0,0.82687,-0.78916,-1.1697,-1.2792,20.918,-1.0793,0.44549,0.0036317,0.36,0.52,0
0.2575,0.04606,0.67639,-0.86191,-1.2144,-1.2993,0.17444,0,0,0.56859,0.11033,0,0.45355,0,0,0.75033,-0.35576,0,0.82962,-0.79018,-1.2861,-1.2993,22.352,-1.1252,0.50266,0.0065081,0.38,0.52,0
0.26854,0.046462,0.66155,-0.93975,-1.312,-1.3371,0.28684,0,0,0.51652,0.032619,0,0.74579,0,0,0.79522,-0.46398,0,0.91664,-0.78393,-1.4678,-1.3371,28.511,-1.1963,0.62878,0.010931,0.4,0.52,0
0.27816,0.052962,0.64458,-0.84807,-1.0391,-0.95291,0.34329,0,0,0.1002,-0.33205,0,1.8591,0,0,0.65223,-0.41743,0,0.78043,-0.58682,-1.3004,-0.95291,37.989,-0.94671,0.62107,0.003899,0.42,0.52,0
0.27636,0.076379,0.61688,-0.78301,-0.57904,-0.77875,0.23162,0,0,-0.0092505,-0.052036,0,1.375,0,0,0.75864,-0.16135,0,0.78115,-0.39594,-0.96612,-0.77875,49.546,-0.7136,0.51944,0.0091749,0.44,0.52,0
0.27779,0.085126,0.594,-0.69033,-0.53622,-0.72436,0.1379,0,0,0.077839,-0.051118,0,0.88335,0,0,0.68467,-0.11001,0,0.69823,-0.41418,-0.81236,-0.72436,49.772,-0.6503,0.38365,0.0042229,0.46,0.52,0
0.27972,0.08957,0.57183,-0.66747,-0.50242,-0.69406,0.062044,0,0,0.064636,-0.03922,0,0.5499,0,0,0.66162,-0.076957,0,0.66932,-0.42083,-0.74906,-0.69406,54.591,-0.62132,0.32848,0.0027238,0.48,0.52,0
0.2808,0.09069,0.54978,-0.6386,-0.46542,-0.66107,0.061807,0,0,0.037884,-0.016239,0,0.44752,0,0,0.66174,-0.055759,0,0.66619,-0.39502,-0.709,-0.66107,52.244,-0.58836,0.31652,0.0029226,0.5,0.52,0
0.28058,0.089573,0.52756,-0.70465,-0.46387,-0.66709,0.026613,0,0,-0.068536,0.015239,0,0.28353,0,0,0.67472,-0.042046,0,0.67744,-0.41152,-0.75699,-0.66709,55.166,-0.61187,0.32808,0.0037797,0.52,0.52,0
0.27883,0.086964,0.50504,-0.67514,-0.42006,-0.63159,0.0274,0,0,-0.10751,0.049476,0,0.23653,0,0,0.6762,-0.033404,0,0.67796,-0.37969,-0.71551,-0.63159,54.717,-0.57559,0.32214,0.0039856,0.54,0.52,0
0.27549,0.083512,0.48223,-0.74885,-0.42257,-0.64077,0.016467,0,0,-0.22191,0.080409,0,0.17781,0,0,0.6914,-0.027915,0,0.69262,-0.39333,-0.77809,-0.64077,56.697,-0.60406,0.35476,0.0045351,0.56,0.52,0
0.27069,0.07971,0.45916,-0.72083,-0.38552,-0.6074,0.016279,0,0,-0.25663,0.10447,0,0.16009,0,0,0.69252,-0.024166,0,0.69341,-0.36484,-0.74151,-0.6074,58.988,-0.57125,0.35051,0.0045428,0.58,0.52,0
0.26458,0.075873,0.4359,-0.77585,-0.38811,-0.61073,0.016248,0,0,-0.34827,0.12107,0,0.15042,0,0,0.70173,-0.021305,0,0.70239,-0.37376,-0.7902,-0.61073,62.626,-0.59157,0.38123,0.0041175,0.6,0.52,0
0.25733,0.072174,0.4125,-0.74923,-0.35903,-0.57998,0.014443,0,0,-0.37512,0.13121,0,0.13985,0,0,0.70232,-0.018896,0,0.70283,-0.34905,-0.75921,-0.57998,67.031,-0.56275,0.37717,0.0038948,0.62,0.52,0
0.24907,0.068694,0.389,-0.78769,-0.36027,-0.57778,0.016571,0,0,-0.44718,0.13634,0,0.14088,0,0,0.70679,-0.016736,0,0.70718,-0.35304,-0.79491,-0.57778,70.99,-0.57525,0.40255,0.0028484,0.64,0.52,0
0.2399,0.065461,0.36543,-0.77603,-0.34183,-0.55462,0.015082,0,0,-0.47973,0.13764,0,0.13267,0,0,0.70755,-0.014714,0,0.70784,-0.3365,-0.78136,-0.55462,74.467,-0.55749,0.4049,0.0022837,0.66,0.52,0
0.22988,0.062482,0.34183,-0.77802,-0.33062,-0.53769,0.014558,0,0,-0.52072,0.136,0,0.12651,0,0,0.70843,-0.01276,0,0.70864,-0.32658,-0.78206,-0.53769,77.167,-0.54878,0.41356,0.0014039,0.68,0.52,0
0.21907,0.059751,0.3182,-0.77872,-0.31997,-0.52053,0.013802,0,0,-0.55942,0.13199,0,0.11897,0,0,0.70872,-0.010822,0,0.70887,-0.31689,-0.7818,-0.52053,79.331,-0.53974,0.42152,0.00045469,0.7,0.52,0
0.2075,0.057256,0.29458,-0.77836,-0.3098,-0.50319,0.012811,0,0,-0.59618,0.126,0,0.10978,0,0,0.70848,-0.008852,0,0.70858,-0.30748,-0.78068,-0.50319,81.132,-0.53045,0.42884,-0.00054663,0.72,0.52,0
0.19522,0.054981,0.27097,-0.77702,-0.30008,-0.48571,0.011569,0,0,-0.63116,0.11826,0,0.098616,0,0,0.7077,-0.0067995,0,0.70775,-0.29839,-0.77871,-0.48571,82.708,-0.52094,0.43551,-0.0015835,0.74,0.52,0
0.18226,0.052906,0.2474,-0.77466,-0.29077,-0.46807,0.010034,0,0,-0.66428,0.10889,0,0.084996,0,0,0.70632,-0.0046016,0,0.70634,-0.28961,-0.77581,-0.46807,84.167,-0.51116,0.44146,-0.0026376,0.76,0.52,0
0.16865,0.051004,0.22388,-0.77115,-0.28186,-0.45023,0.0081117,0,0,-0.69532,0.097917,0,0.068074,0,0,0.70424,-0.0021711,0,0.70424,-0.28117,-0.77184,-0.45023,85.615,-0.50108,0.44653,-0.0036875,0.78,0.52,0
0.15444,0.04924,0.20045,-0.76631,-0.27336,-0.43217,0.0056164,0,0,-0.72397,0.085326,0,0.046368,0,0,0.70127,0.00062538,0,0.70127,-0.27306,-0.76661,-0.43217,87.171,-0.49062,0.4505,-0.0047079,0.8,0.52,0
0.13969,0.047556,0.17713,-0.76005,-0.26538,-0.41391,0.0021703,0,0,-0.74997,0.071186,0,0.017224,0,0,0.69714,0.0040133,0,0.69718,-0.26534,-0.76009,-0.41391,89.004,-0.47978,0.45326,-0.0056747,0.82,0.52,0
0.12444,0.045861,0.15397,-0.75284,-0.25815,-0.39568,-0.0029422,0,0,-0.77385,0.055956,0,-0.023895,0,0,0.69158,0.0084109,0,0.69173,-0.25808,-0.75291,-0.39568,-88.671,-0.46889,0.45513,-0.0065845,0.84,0.52,0
0.10874,0.044009,0.13103,-0.74651,-0.25204,-0.37818,-0.010928,0,0,-0.79805,0.041283,0,-0.083808,0,0,0.68448,0.014698,0,0.68487,-0.25123,-0.74731,-0.37818,-85.713,-0.45891,0.45777,-0.0074967,0.86,0.52,0
0.092522,0.041811,0.10834,-0.74505,-0.24709,-0.36265,-0.023792,0,0,-0.82854,0.030747,0,-0.17261,0,0,0.67666,0.024705,0,0.67766,-0.2441,-0.74805,-0.36265,-82.28,-0.4516,0.46557,-0.0086072,0.88,0.52,0
0.075594,0.039011,0.085916,-0.76076,-0.24783,-0.35413,-0.04314,0,0,-0.88103,0.029994,0,-0.2975,0,0,0.67051,0.042694,0,0.67305,-0.24047,-0.76812,-0.35413,-79.151,-0.45424,0.48708,-0.010561,0.9,0.52,0
0.057281,0.035676,0.063641,-0.81197,-0.25319,-0.35773,-0.084767,0,0,-0.98419,0.044286,0,-0.51495,0,0,0.7027,0.075501,0,0.70853,-0.23538,-0.82978,-0.35773,-75.754,-0.4743,0.54696,-0.015298,0.92,0.52,0
0.036227,0.030285,0.039069,-0.76454,-0.36362,-0.36189,-0.176,0,0,-0.94453,-0.044514,0,-0.88338,0,0,0.61036,0.28065,0,0.67794,-0.2968,-0.83136,-0.36189,-68.048,-0.49669,0.50522,-0.012583,0.94,0.52,0
0.023827,0.031297,0.024641,-0.8346,-0.31747,-0.37026,-0.12727,0,0,-0.60364,0.068627,0,-0.33089,0,0,0.65646,0.20916,0,0.68369,-0.28785,-0.86423,-0.37026,-76.897,-0.50745,0.53991,-0.0074522,0.96,0.52,0
0.011918,0.031442,0.012161,-0.78917,-0.27368,-0.33102,-0.058905,0,0,-0.5956,0.074534,0,-0.15315,0,0,0.61867,0.089684,0,0.62361,-0.26704,-0.79582,-0.33102,-83.563,-0.46462,0.49987,-0.0060621,0.98,0.52,0
0,0.03137,0,-0.77773,-0.2868,-0.31936,-0.0013877,0,0,-0.59588,0.042329,0,-0.0036081,0,0,0.60806,-1.3878e-17,0,0.60683,-0.2868,-0.77774,-0.31936,-89.838,-0.4613,0.4755,-0.0054343,1,0.52,0
0,0.050824,1,-0.66682,-1.7143,-1.7143,0.024315,0,0,1.3618,1.5925e-05,0,0.063218,0,0,0.69465,1.5769e-15,0,0.6946,-0.66625,-1.7149,-1.7143,1.329,-1.3652,1.0484,0.059179,0,0.54,0
0.027236,0.052089,0.98611,-0.65104,-1.6761,-1.6843,0.045165,0,0,1.3432,0.010578,0,0.11743,0,0,0.70128,-0.020997,0,0.70161,-0.64905,-1.6781,-1.6843,2.5179,-1.3371,1.0321,0.056467,0.02,0.54,0
0.053355,0.055875,0.97182,-0.71714,-1.6074,-1.6692,0.11237,0,0,1.2376,0.080313,0,0.29217,0,0,0.7379,-0.034574,0,0.73892,-0.70318,-1.6214,-1.6692,7.0842,-1.3312,0.943,0.042696,0.04,0.54,0
0.077425,0.061757,0.95683,-0.73534,-1.4236,-1.6045,0.14048,0,0,1.1299,0.23519,0,0.36526,0,0,0.77043,-0.029018,0,0.7713,-0.70777,-1.4512,-1.6045,11.103,-1.2545,0.83075,0.026097,0.06,0.54,0
0.098552,0.068381,0.941,-0.78777,-1.2022,-1.538,0.13034,0,0,0.97528,0.43653,0,0.33889,0,0,0.81125,-0.020379,0,0.81176,-0.75019,-1.2398,-1.538,16.086,-1.176,0.68894,0.0068181,0.08,0.54,0
0.11644,0.073804,0.92437,-0.84155,-1.0032,-1.4778,0.08302,0,0,0.82712,0.61699,0,0.21585,0,0,0.84755,-0.0099168,0,0.84776,-0.80651,-1.0382,-1.4778,22.885,-1.1075,0.59057,-0.0053539,0.1,0.54,0
0.13164,0.076901,0.9071,-0.88318,-0.85954,-1.4299,0.02977,0,0,0.71075,0.74149,0,0.077403,0,0,0.87602,-0.0035267,0,0.8761,-0.83933,-0.90339,-1.4299,55.829,-1.0575,0.5613,-0.008685,0.12,0.54,0
0.14487,0.077788,0.88933,-0.90805,-0.76256,-1.3905,-0.0030715,0,0,0.62721,0.81634,0,-0.0079858,0,0,0.89663,-0.0038093,0,0.89668,-0.7625,-0.90812,-1.3905,-88.791,-1.0204,0.56935,-0.0074297,0.14,0.54,0
0.15673,0.077204,0.87123,-0.9195,-0.69597,-1.3559,-0.013083,0,0,0.56729,0.85787,0,-0.034017,0,0,0.91055,-0.0088442,0,0.9106,-0.69521,-0.92026,-1.3559,-86.662,-0.99045,0.58176,-0.0052502,0.16,0.54,0
0.16756,0.075896,0.85291,-0.92513,-0.65337,-1.3265,-0.0073438,0,0,0.52173,0.87502,0,-0.019094,0,0,0.91889,-0.01682,0,0.91904,-0.65317,-0.92533,-1.3265,-88.453,-0.96832,0.58664,-0.0033646,0.18,0.54,0
0.17759,0.074336,0.83448,-0.92766,-0.62784,-1.3011,0.006356,0,0,0.48551,0.87527,0,0.016526,0,0,0.92231,-0.02672,0,0.92269,-0.62771,-0.9278,-1.3011,88.786,-0.95221,0.58435,-0.0019166,0.2,0.54,0
0.18698,0.072744,0.81602,-0.92872,-0.61479,-1.2791,0.02255,0,0,0.45546,0.86356,0,0.058631,0,0,0.9211,-0.038281,0,0.92189,-0.61318,-0.93033,-1.2791,85.912,-0.94086,0.5769,-0.00080919,0.22,0.54,0
0.19581,0.071135,0.79763,-0.92842,-0.61309,-1.2601,0.03739,0,0,0.43117,0.8411,0,0.097214,0,0,0.91498,-0.051737,0,0.91643,-0.60871,-0.93279,-1.2601,83.329,-0.93386,0.5641,-7.8895e-05,0.24,0.54,0
0.20422,0.069347,0.77942,-0.92484,-0.62604,-1.2447,0.047068,0,0,0.4158,0.80423,0,0.12238,0,0,0.90298,-0.067571,0,0.9055,-0.61881,-0.93207,-1.2447,81.256,-0.93185,0.54203,1.4941e-05,0.26,0.54,0
0.21244,0.067042,0.76151,-0.9113,-0.66104,-1.2332,0.047841,0,0,0.4185,0.74382,0,0.12438,0,0,0.88323,-0.086326,0,0.88747,-0.65221,-0.92013,-1.2332,79.538,-0.93519,0.50367,-0.00088036,0.28,0.54,0
0.22096,0.063824,0.74409,-0.88363,-0.73652,-1.2301,0.039491,0,0,0.45045,0.6417,0,0.10268,0,0,0.85353,-0.10868,0,0.86053,-0.72659,-0.89357,-1.2301,75.885,-0.9501,0.44425,-0.0024534,0.3,0.54,0
0.23046,0.059552,0.72737,-0.84391,-0.86591,-1.2403,0.035348,0,0,0.51533,0.48673,0,0.091904,0,0,0.81279,-0.13789,0,0.82461,-0.81789,-0.89193,-1.2403,36.358,-0.98338,0.39071,-0.0026961,0.32,0.54,0
0.24158,0.054744,0.71158,-0.80237,-1.0298,-1.2612,0.054436,0,0,0.59652,0.30087,0,0.14153,0,0,0.76276,-0.17838,0,0.78358,-0.79001,-1.0421,-1.2612,12.79,-1.0311,0.40842,0.00042396,0.34,0.54,0
0.25432,0.050475,0.69686,-0.76287,-1.1687,-1.2764,0.10508,0,0,0.66752,0.13987,0,0.27321,0,0,0.70725,-0.23602,0,0.7456,-0.73728,-1.1944,-1.2764,13.687,-1.0693,0.50311,0.0059588,0.36,0.54,0
0.26828,0.047486,0.68329,-0.72084,-1.2645,-1.2789,0.1814,0,0,0.72548,0.018671,0,0.47164,0,0,0.6487,-0.31621,0,0.72108,-0.66588,-1.3195,-1.2789,16.857,-1.0881,0.63431,0.012927,0.38,0.54,0
0.28334,0.046328,0.67091,-0.57029,-1.3246,-1.2394,0.23932,0,0,0.86981,-0.11078,0,0.62224,0,0,0.52686,-0.43594,0,0.68208,-0.50077,-1.3941,-1.2394,16.199,-1.0448,0.82691,0.025646,0.4,0.54,0
0.30307,0.041964,0.66221,-0.50876,-1.074,-0.87215,0.22757,0,0,0.38926,-0.43731,0,1.3728,0,0,0.3746,-0.40031,0,0.57085,-0.40237,-1.1804,-0.87215,28.103,-0.8183,0.68627,0.018673,0.42,0.54,0
0.29891,0.060796,0.63079,-0.43026,-0.51119,-0.40859,0.12832,0,0,-0.14086,-0.66686,0,1.6681,0,0,0.29063,-0.11894,0,0.3145,-0.33618,-0.60527,-0.40859,36.249,-0.45001,0.24118,-0.00050757,0.44,0.54,0
0.29744,0.07034,0.60409,-0.39635,-0.4894,-0.38655,0.093993,0,0,-0.063748,-0.66859,0,1.2219,0,0,0.25651,-0.093024,0,0.2728,-0.338,-0.54776,-0.38655,31.832,-0.4241,0.19019,-0.00027724,0.46,0.54,0
0.29636,0.075152,0.57949,-0.38118,-0.47364,-0.37234,0.071579,0,0,-0.057467,-0.65841,0,0.93052,0,0,0.24188,-0.073162,0,0.25262,-0.3422,-0.51262,-0.37234,28.573,-0.40906,0.15752,-0.00017623,0.48,0.54,0
0.29514,0.07716,0.55571,-0.37184,-0.4561,-0.35952,0.055302,0,0,-0.080022,-0.62777,0,0.71893,0,0,0.23615,-0.058117,0,0.24314,-0.34445,-0.48349,-0.35952,26.348,-0.39582,0.13216,-0.00011336,0.5,0.54,0
0.29316,0.077126,0.53226,-0.36739,-0.43809,-0.34809,0.043008,0,0,-0.12539,-0.58498,0,0.5591,0,0,0.23428,-0.046858,0,0.23889,-0.34707,-0.45841,-0.34809,25.29,-0.38452,0.11084,-6.991e-05,0.52,0.54,0
0.29012,0.075688,0.50886,-0.36541,-0.4199,-0.33737,0.034198,0,0,-0.18229,-0.5365,0,0.44458,0,0,0.23424,-0.038496,0,0.23737,-0.34893,-0.43638,-0.33737,25.727,-0.37422,0.093771,-4.0183e-05,0.54,0.54,0
0.28587,0.07335,0.48541,-0.36455,-0.40232,-0.32714,0.028213,0,0,-0.24316,-0.48866,0,0.36677,0,0,0.23496,-0.032257,0,0.23715,-0.34949,-0.41739,-0.32714,28.102,-0.36467,0.081405,-2.083e-05,0.56,0.54,0
0.2804,0.070511,0.46187,-0.36394,-0.38592,-0.31733,0.024333,0,0,-0.30295,-0.44584,0,0.31633,0,0,0.23586,-0.027498,0,0.23745,-0.34823,-0.40163,-0.31733,32.846,-0.35573,0.073867,-9.166e-06,0.58,0.54,0
0.27375,0.067456,0.43823,-0.36309,-0.3709,-0.30785,0.021832,0,0,-0.35911,-0.40988,0,0.28381,0,0,0.23668,-0.023725,0,0.23787,-0.34482,-0.38918,-0.30785,39.929,-0.34728,0.070531,-2.8189e-06,0.6,0.54,0
0.26603,0.064373,0.41453,-0.36184,-0.35719,-0.29861,0.020126,0,0,-0.41096,-0.38073,0,0.26164,0,0,0.23735,-0.020594,0,0.23824,-0.33925,-0.37977,-0.29861,48.296,-0.33921,0.070286,4.5205e-08,0.62,0.54,0
0.25732,0.061372,0.39076,-0.36018,-0.34457,-0.28958,0.018815,0,0,-0.45891,-0.35746,0,0.24459,0,0,0.23784,-0.017875,0,0.23851,-0.33201,-0.37275,-0.28958,56.264,-0.33144,0.072029,6.7582e-07,0.64,0.54,0
0.24768,0.058512,0.36696,-0.3582,-0.33286,-0.28071,0.01765,0,0,-0.50369,-0.33897,0,0.22945,0,0,0.23817,-0.015413,0,0.23867,-0.3238,-0.36726,-0.28071,62.837,-0.32392,0.074952,-1.5609e-07,0.66,0.54,0
0.23717,0.055823,0.34313,-0.35599,-0.32188,-0.27199,0.016484,0,0,-0.546,-0.32432,0,0.2143,0,0,0.23837,-0.013097,0,0.23873,-0.31522,-0.36265,-0.27199,67.985,-0.31662,0.078547,-1.9961e-06,0.68,0.54,0
0.22584,0.053314,0.31929,-0.35362,-0.31152,-0.2634,0.015226,0,0,-0.58641,-0.3128,0,0.19794,0,0,0.23845,-0.010841,0,0.2387,-0.30659,-0.35855,-0.2634,72.058,-0.30951,0.082516,-4.5781e-06,0.7,0.54,0
0.21371,0.050985,0.29544,-0.35114,-0.30168,-0.25494,0.013805,0,0,-0.62532,-0.30387,0,0.17946,0,0,0.23843,-0.0085681,0,0.23858,-0.29809,-0.35473,-0.25494,75.413,-0.30258,0.086688,-7.7422e-06,0.72,0.54,0
0.20082,0.048828,0.2716,-0.34859,-0.2923,-0.24659,0.012154,0,0,-0.66303,-0.29715,0,0.158,0,0,0.23831,-0.0062002,0,0.23839,-0.28979,-0.35111,-0.24659,78.322,-0.29583,0.090966,-1.1393e-05,0.74,0.54,0
0.18719,0.046826,0.24778,-0.34602,-0.28333,-0.23836,0.010193,0,0,-0.69978,-0.29232,0,0.13251,0,0,0.2381,-0.0036471,0,0.23812,-0.28172,-0.34764,-0.23836,80.993,-0.28924,0.095304,-1.5492e-05,0.76,0.54,0
0.17283,0.044956,0.22398,-0.34346,-0.27473,-0.23025,0.0078094,0,0,-0.73586,-0.28911,0,0.10152,0,0,0.23779,-0.00079216,0,0.23779,-0.27386,-0.34434,-0.23025,83.599,-0.28282,0.099711,-2.0091e-05,0.78,0.54,0
0.15776,0.043184,0.20022,-0.34103,-0.26647,-0.22229,0.0048392,0,0,-0.7718,-0.28713,0,0.062909,0,0,0.23741,0.0025292,0,0.23742,-0.26615,-0.34135,-0.22229,86.302,-0.2766,0.10429,-2.546e-05,0.8,0.54,0
0.14196,0.041461,0.1765,-0.33895,-0.25847,-0.21453,0.0010408,0,0,-0.80875,-0.28565,0,0.013531,0,0,0.237,0.006565,0,0.23709,-0.25846,-0.33896,-0.21453,89.259,-0.27065,0.10931,-3.2406e-05,0.82,0.54,0
0.1254,0.039719,0.15282,-0.3377,-0.25061,-0.20706,-0.0039085,0,0,-0.84918,-0.2831,0,-0.050811,0,0,0.23673,0.011707,0,0.23701,-0.25044,-0.33787,-0.20706,-87.436,-0.26512,0.11541,-4.3018e-05,0.84,0.54,0
0.10799,0.037874,0.12915,-0.33825,-0.24261,-0.20009,-0.010385,0,0,-0.89803,-0.27639,0,-0.135,0,0,0.23703,0.018585,0,0.23774,-0.24149,-0.33936,-0.20009,-83.874,-0.26031,0.12387,-6.2124e-05,0.86,0.54,0
0.089484,0.035837,0.10541,-0.34253,-0.23413,-0.19408,-0.018611,0,0,-0.96491,-0.26033,0,-0.24194,0,0,0.23902,0.028205,0,0.24063,-0.23102,-0.34563,-0.19408,-80.524,-0.25691,0.13687,-0.00010006,0.88,0.54,0
0.069395,0.033601,0.081348,-0.35341,-0.22465,-0.18969,-0.028798,0,0,-1.0642,-0.22725,0,-0.37438,0,0,0.24621,0.042107,0,0.2497,-0.2185,-0.35956,-0.18969,-77.95,-0.25591,0.15745,-0.00017806,0.9,0.54,0
0.046916,0.031095,0.056169,-0.3787,-0.21713,-0.18998,-0.040729,0,0,-1.2267,-0.17645,0,-0.52948,0,0,0.26836,0.062661,0,0.27566,-0.20744,-0.38839,-0.18998,-76.622,-0.26194,0.19028,-0.00034379,0.92,0.54,0
0.020328,0.028172,0.027676,-0.39887,-0.24848,-0.21081,-0.090925,0,0,-0.77624,-0.081612,0,-0.50281,0,0,0.32825,0.2396,0,0.42389,-0.19853,-0.44883,-0.21081,-66.131,-0.28606,0.24457,-0.00076509,0.94,0.54,0
0.015867,0.031777,0.020244,-0.47546,-0.28416,-0.24813,-0.086375,0,0,-0.29552,-0.046844,0,-0.22457,0,0,0.43535,0.20409,0,0.47678,-0.25094,-0.50869,-0.24813,-68.958,-0.33592,0.25916,-0.00089366,0.96,0.54,0
0.0085074,0.032153,0.010262,-0.5703,-0.2794,-0.26517,-0.053532,0,0,-0.39666,-0.018499,0,-0.13918,0,0,0.50611,0.089701,0,0.51234,-0.26987,-0.57984,-0.26517,-79.897,-0.37162,0.31235,-0.0015639,0.98,0.54,0
0,0.032217,0,-0.57859,-0.25936,-0.25138,0.0012235,0,0,-0.42537,-0.010363,0,0.003181,0,0,0.5131,1.0408e-17,0,0.51181,-0.25935,-0.5786,-0.25138,89.78,-0.36311,0.3233,-0.0017321,1,0.54,0
0,0.05038,1,-0.67957,-1.7634,-1.7329,0.03068,0,0,1.3693,-0.039631,0,0.079768,0,0,0.66644,-3.6776e-16,0,0.6662,-0.6787,-1.7642,-1.7329,1.6202,-1.3919,1.0702,0.062772,0,0.56,0
0.027386,0.051975,0.98667,-0.67015,-1.7305,-1.7069,0.063073,0,0,1.3477,-0.030737,0,0.16399,0,0,0.68097,-0.041831,0,0.68218,-0.66641,-1.7343,-1.7069,3.3921,-1.3692,1.0544,0.060072,0.02,0.56,0
0.053909,0.057145,0.97276,-0.69928,-1.6622,-1.6812,0.14118,0,0,1.2765,0.024727,0,0.36708,0,0,0.72027,-0.077211,0,0.72493,-0.67901,-1.6825,-1.6812,8.1718,-1.3476,1.0028,0.051796,0.04,0.56,0
0.078446,0.066303,0.95786,-0.75494,-1.4722,-1.626,0.20769,0,0,1.1324,0.19993,0,0.54001,0,0,0.77348,-0.082507,0,0.77845,-0.69914,-1.528,-1.626,15.038,-1.2844,0.88196,0.033773,0.06,0.56,0
0.099205,0.077553,0.94182,-0.79043,-1.1301,-1.518,0.20185,0,0,0.94583,0.5042,0,0.52482,0,0,0.82396,-0.065735,0,0.82688,-0.69648,-1.2241,-1.518,24.96,-1.1462,0.72099,0.0090326,0.08,0.56,0
0.11628,0.086788,0.9249,-0.84222,-0.9132,-1.4515,0.11837,0,0,0.7921,0.69983,0,0.30775,0,0,0.86049,-0.037199,0,0.8613,-0.75413,-1.0013,-1.4515,36.655,-1.069,0.61244,-0.0056536,0.1,0.56,0
0.13089,0.092138,0.9074,-0.87466,-0.81573,-1.4145,0.046213,0,0,0.70182,0.77843,0,0.12015,0,0,0.88315,-0.023232,0,0.88348,-0.79039,-0.9,-1.4145,61.26,-1.035,0.57718,-0.0086873,0.12,0.56,0
0.14435,0.094171,0.88958,-0.87609,-0.74591,-1.3762,0.0061407,0,0,0.65011,0.81935,0,0.015966,0,0,0.89718,-0.017876,0,0.89738,-0.74562,-0.87638,-1.3762,87.305,-0.99939,0.57641,-0.0081553,0.14,0.56,0
0.15689,0.094201,0.87152,-0.87751,-0.69779,-1.3441,-0.0066724,0,0,0.60657,0.84021,0,-0.017348,0,0,0.9068,-0.017941,0,0.90698,-0.69754,-0.87776,-1.3441,-87.877,-0.97314,0.57793,-0.0067611,0.16,0.56,0
0.16861,0.09313,0.8533,-0.87993,-0.66485,-1.3167,-0.0032533,0,0,0.56785,0.84745,0,-0.0084586,0,0,0.91235,-0.021385,0,0.9126,-0.6648,-0.87998,-1.3167,-89.134,-0.95384,0.57536,-0.0053716,0.18,0.56,0
0.17961,0.091541,0.83502,-0.88208,-0.64324,-1.2926,0.0087522,0,0,0.5337,0.84419,0,0.022756,0,0,0.91381,-0.027,0,0.9142,-0.64292,-0.8824,-1.2926,87.904,-0.93931,0.56909,-0.0041324,0.2,0.56,0
0.18996,0.089716,0.81675,-0.88294,-0.63048,-1.2708,0.02376,0,0,0.50419,0.83238,0,0.061777,0,0,0.91093,-0.034161,0,0.91157,-0.62827,-0.88516,-1.2708,84.67,-0.92807,0.56014,-0.0030569,0.22,0.56,0
0.19978,0.087685,0.79858,-0.88241,-0.62621,-1.2512,0.037266,0,0,0.47939,0.81245,0,0.096891,0,0,0.90314,-0.042587,0,0.90415,-0.62089,-0.88772,-1.2512,81.89,-0.91993,0.54797,-0.0022121,0.24,0.56,0
0.20914,0.085227,0.78063,-0.88042,-0.63256,-1.2345,0.044373,0,0,0.46033,0.78255,0,0.11537,0,0,0.88937,-0.052095,0,0.89092,-0.62486,-0.88813,-1.2345,80.15,-0.91583,0.52962,-0.0017816,0.26,0.56,0
0.21819,0.081856,0.76301,-0.87543,-0.6557,-1.2224,0.037472,0,0,0.451,0.73664,0,0.097426,0,0,0.86779,-0.062355,0,0.87011,-0.64949,-0.88164,-1.2224,80.583,-0.91783,0.49907,-0.0020501,0.28,0.56,0
0.22718,0.076697,0.74591,-0.84508,-0.70238,-1.2102,0.011317,0,0,0.47459,0.6601,0,0.029424,0,0,0.83386,-0.072756,0,0.8372,-0.70149,-0.84597,-1.2102,85.494,-0.91921,0.454,-0.0032163,0.3,0.56,0
0.23717,0.069193,0.72966,-0.79504,-0.83947,-1.22,-0.023831,0,0,0.55246,0.4947,0,-0.061959,0,0,0.78328,-0.082249,0,0.78817,-0.78468,-0.84983,-1.22,-23.506,-0.95151,0.40669,-0.0031578,0.32,0.56,0
0.24928,0.060258,0.71458,-0.74731,-1.0805,-1.2629,-0.0084454,0,0,0.6703,0.23716,0,-0.021958,0,0,0.71617,-0.11152,0,0.72561,-0.74709,-1.0807,-1.2629,-1.4511,-1.0302,0.45309,0.0023051,0.34,0.56,0
0.26398,0.052397,0.70101,-0.67724,-1.2458,-1.2779,0.059548,0,0,0.7809,0.041714,0,0.15482,0,0,0.63873,-0.16554,0,0.66054,-0.67107,-1.252,-1.2779,5.9149,-1.067,0.59433,0.010713,0.36,0.56,0
0.28051,0.046807,0.68903,-0.59465,-1.3324,-1.2671,0.13323,0,0,0.87424,-0.084804,0,0.3464,0,0,0.55041,-0.24766,0,0.6039,-0.57133,-1.3557,-1.2671,9.9296,-1.0647,0.74405,0.020149,0.38,0.56,0
0.29895,0.042031,0.67899,-0.54013,-1.4387,-1.2727,0.16522,0,0,0.95227,-0.2159,0,0.42957,0,0,0.44425,-0.34024,0,0.56217,-0.51072,-1.4681,-1.2727,10.095,-1.0838,0.87619,0.028834,0.4,0.56,0
0.3186,0.035469,0.67126,-0.46842,-0.96014,-0.83133,0.13051,0,0,0.39379,-0.27909,0,0.91215,0,0,0.34618,-0.2293,0,0.43057,-0.40503,-1.0235,-0.83133,25.977,-0.7533,0.55769,0.015537,0.42,0.56,0
0.3147,0.049704,0.64067,-0.41966,-0.47142,-0.39546,0.099143,0,0,-0.1573,-0.49377,0,1.2889,0,0,0.29329,-0.083937,0,0.3054,-0.34308,-0.54801,-0.39546,37.685,-0.42885,0.18441,-0.00023661,0.44,0.56,0
0.31231,0.058382,0.61261,-0.40054,-0.46739,-0.3829,0.078033,0,0,-0.11468,-0.54916,0,1.0144,0,0,0.27106,-0.076166,0,0.28167,-0.34908,-0.51885,-0.3829,33.407,-0.41694,0.15565,-0.00016325,0.46,0.56,0
0.31012,0.063233,0.58646,-0.38913,-0.45636,-0.37094,0.062289,0,0,-0.11825,-0.55524,0,0.80975,0,0,0.256,-0.064853,0,0.26409,-0.35197,-0.49353,-0.37094,30.823,-0.40548,0.13309,-0.00011283,0.48,0.56,0
0.30758,0.065579,0.56141,-0.38172,-0.44335,-0.3598,0.050094,0,0,-0.14247,-0.54307,0,0.65123,0,0,0.24763,-0.054371,0,0.25351,-0.35373,-0.47135,-0.3598,29.201,-0.39496,0.11471,-7.6786e-05,0.5,0.56,0
0.30442,0.066174,0.53693,-0.37665,-0.42865,-0.34898,0.040481,0,0,-0.1799,-0.51786,0,0.52625,0,0,0.24331,-0.045535,0,0.24751,-0.35454,-0.45076,-0.34898,28.645,-0.38476,0.099119,-4.9483e-05,0.52,0.56,0
0.30039,0.065504,0.51274,-0.37348,-0.41327,-0.33857,0.033056,0,0,-0.2269,-0.48552,0,0.42973,0,0,0.24125,-0.038365,0,0.24427,-0.3548,-0.43196,-0.33857,29.479,-0.37511,0.086421,-2.9253e-05,0.54,0.56,0
0.29534,0.063966,0.48868,-0.37141,-0.39788,-0.32853,0.027561,0,0,-0.27877,-0.45083,0,0.35829,0,0,0.24041,-0.032617,0,0.2426,-0.35407,-0.41522,-0.32853,32.174,-0.36594,0.077163,-1.5171e-05,0.56,0.56,0
0.28924,0.061876,0.46466,-0.36985,-0.38301,-0.31879,0.023622,0,0,-0.3319,-0.41742,0,0.30709,0,0,0.24018,-0.027986,0,0.2418,-0.35191,-0.40095,-0.31879,37.219,-0.35722,0.071597,-6.185e-06,0.58,0.56,0
0.28207,0.059478,0.44065,-0.3684,-0.36893,-0.30933,0.020825,0,0,-0.38397,-0.3874,0,0.27073,0,0,0.24023,-0.024181,0,0.24144,-0.34783,-0.38949,-0.30933,44.637,-0.34888,0.069441,-1.1678e-06,0.6,0.56,0
0.27388,0.056945,0.41662,-0.36684,-0.35572,-0.30009,0.018782,0,0,-0.43386,-0.36157,0,0.24416,0,0,0.24036,-0.020961,0,0.24127,-0.34169,-0.38086,-0.30009,53.246,-0.34088,0.069963,9.1365e-07,0.62,0.56,0
0.26471,0.054396,0.39257,-0.36509,-0.34334,-0.29104,0.017183,0,0,-0.48133,-0.3399,0,0.22338,0,0,0.24051,-0.018144,0,0.24119,-0.33388,-0.37455,-0.29104,61.17,-0.33316,0.072329,8.6972e-07,0.64,0.56,0
0.25462,0.051902,0.36851,-0.36318,-0.33169,-0.28216,0.015806,0,0,-0.52659,-0.32193,0,0.20548,0,0,0.24063,-0.015591,0,0.24113,-0.32512,-0.36974,-0.28216,67.443,-0.32568,0.07585,-7.3362e-07,0.66,0.56,0
0.24365,0.049509,0.34445,-0.36113,-0.32068,-0.27343,0.014499,0,0,-0.57002,-0.30711,0,0.18848,0,0,0.24072,-0.013196,0,0.24107,-0.31602,-0.36579,-0.27343,72.181,-0.31841,0.080063,-3.5364e-06,0.68,0.56,0
0.23182,0.047239,0.32037,-0.359,-0.31021,-0.26484,0.013155,0,0,-0.61205,-0.29492,0,0.17101,0,0,0.24077,-0.010872,0,0.24101,-0.30689,-0.36232,-0.26484,75.832,-0.31135,0.084687,-7.3306e-06,0.7,0.56,0
0.21917,0.045101,0.29629,-0.35684,-0.3002,-0.25637,0.011694,0,0,-0.65307,-0.28489,0,0.15202,0,0,0.2408,-0.0085404,0,0.24095,-0.29788,-0.35916,-0.25637,78.782,-0.30447,0.089567,-1.2021e-05,0.72,0.56,0
0.2057,0.043095,0.27221,-0.35472,-0.29059,-0.24804,0.010046,0,0,-0.69347,-0.27659,0,0.13059,0,0,0.24082,-0.0061218,0,0.2409,-0.28905,-0.35626,-0.24804,81.303,-0.29778,0.094635,-1.7611e-05,0.74,0.56,0
0.19143,0.041213,0.24813,-0.35271,-0.28131,-0.23983,0.0081381,0,0,-0.7337,-0.2696,0,0.1058,0,0,0.24085,-0.0035289,0,0.24087,-0.28039,-0.35362,-0.23983,83.579,-0.29128,0.099891,-2.4219e-05,0.76,0.56,0
0.17635,0.03944,0.22404,-0.3509,-0.27229,-0.23176,0.0058879,0,0,-0.77436,-0.26343,0,0.076542,0,0,0.24092,-0.00065509,0,0.24092,-0.27185,-0.35134,-0.23176,85.74,-0.28498,0.10541,-3.2149e-05,0.78,0.56,0
0.16045,0.037755,0.19994,-0.34947,-0.26347,-0.22387,0.0031967,0,0,-0.81639,-0.25738,0,0.041557,0,0,0.24111,0.0026378,0,0.24112,-0.26335,-0.34959,-0.22387,87.874,-0.27893,0.11136,-4.2047e-05,0.8,0.56,0
0.1437,0.03613,0.17582,-0.34871,-0.2547,-0.21619,-4.0225e-05,0,0,-0.86139,-0.25035,0,-0.00052293,0,0,0.24156,0.0065361,0,0.24164,-0.2547,-0.34871,-0.21619,-89.975,-0.2732,0.11807,-5.5211e-05,0.82,0.56,0
0.126,0.034537,0.15163,-0.3491,-0.24581,-0.2088,-0.0038982,0,0,-0.91194,-0.24059,0,-0.050677,0,0,0.24255,0.01129,0,0.2428,-0.24567,-0.34925,-0.2088,-87.842,-0.2679,0.12612,-7.4126e-05,0.84,0.56,0
0.10722,0.032954,0.12731,-0.35137,-0.23652,-0.20183,-0.0083235,0,0,-0.97202,-0.22548,0,-0.10821,0,0,0.24466,0.01721,0,0.24525,-0.23592,-0.35197,-0.20183,-85.876,-0.26324,0.13633,-0.00010322,0.86,0.56,0
0.087118,0.031398,0.1027,-0.35635,-0.2264,-0.19537,-0.013024,0,0,-1.0464,-0.20172,0,-0.16931,0,0,0.24908,0.024584,0,0.25028,-0.22511,-0.35765,-0.19537,-84.333,-0.25937,0.14964,-0.00014944,0.88,0.56,0
0.065362,0.029921,0.077494,-0.36492,-0.21538,-0.18959,-0.017242,0,0,-1.1397,-0.16763,0,-0.22415,0,0,0.25796,0.0333,0,0.26013,-0.21341,-0.36688,-0.18959,-83.507,-0.25663,0.16666,-0.00022146,0.9,0.56,0
0.041532,0.028618,0.051109,-0.37572,-0.2025,-0.18369,-0.020653,0,0,-1.2482,-0.12225,0,-0.26849,0,0,0.27199,0.040668,0,0.27518,-0.20007,-0.37815,-0.18369,-83.294,-0.25397,0.18681,-0.00032618,0.92,0.56,0
0.015432,0.02702,0.023096,-0.38615,-0.2273,-0.19789,-0.02152,0,0,-0.76673,-0.063711,0,-0.15992,0,0,0.30554,0.10969,0,0.33132,-0.22423,-0.38922,-0.19789,-82.047,-0.27045,0.18058,-0.00028326,0.94,0.56,0
0.010863,0.029423,0.016477,-0.43109,-0.3406,-0.24798,-0.031103,0,0,-0.23804,-0.1204,0,-0.080868,0,0,0.36308,0.14975,0,0.39377,-0.33094,-0.44075,-0.24798,-72.747,-0.33989,0.16748,-5.7536e-05,0.96,0.56,0
0.0059107,0.030702,0.0085731,-0.44641,-0.31672,-0.23751,-0.0226,0,0,-0.27157,-0.10297,0,-0.05876,0,0,0.41193,0.072883,0,0.41732,-0.31289,-0.45023,-0.23751,-80.393,-0.33355,0.18681,-0.00016047,0.98,0.56,0
0,0.030956,0,-0.45284,-0.29884,-0.22551,0.0048709,0,0,-0.29554,-0.09534,0,0.012664,0,0,0.42865,3.4694e-18,0,0.42761,-0.29869,-0.45299,-0.22551,88.19,-0.32573,0.20114,-0.00023914,1,0.56,0
0,0.049239,1,-0.72516,-1.8241,-1.7648,0.031157,0,0,1.3515,-0.077122,0,0.081007,0,0,0.61099,-1.0061e-15,0,0.61035,-0.72428,-1.825,-1.7648,1.6227,-1.438,1.0719,0.062577,0,0.58,0
0.02703,0.050859,0.98778,-0.70401,-1.7931,-1.7369,0.069119,0,0,1.3428,-0.073011,0,0.17971,0,0,0.62738,-0.067389,0,0.63037,-0.69964,-1.7974,-1.7369,3.617,-1.4113,1.0688,0.062032,0.02,0.58,0
0.053711,0.056864,0.97491,-0.73974,-1.7833,-1.7318,0.17175,0,0,1.2897,-0.066905,0,0.44654,0,0,0.69138,-0.14442,0,0.70651,-0.7122,-1.8108,-1.7318,9.1098,-1.4183,1.0613,0.060253,0.04,0.58,0
0.078618,0.069754,0.96013,-0.80288,-1.58,-1.675,0.29569,0,0,1.1337,0.12351,0,0.76879,0,0,0.7819,-0.20689,0,0.8124,-0.70317,-1.6797,-1.675,18.636,-1.3526,0.97418,0.047479,0.06,0.58,0
0.09906,0.088549,0.94363,-0.7687,-0.92661,-1.4522,0.23739,0,0,0.88858,0.6833,0,0.6172,0,0,0.85656,-0.088162,0,0.85991,-0.59749,-1.0978,-1.4522,35.801,-1.0492,0.74381,0.0061408,0.08,0.58,0
0.11416,0.1018,0.92586,-0.86326,-0.85114,-1.4402,0.11899,0,0,0.74999,0.76576,0,0.30939,0,0,0.89005,-0.051806,0,0.89149,-0.73805,-0.97635,-1.4402,46.459,-1.0515,0.61843,-0.0063507,0.1,0.58,0
0.12906,0.10804,0.90803,-0.82504,-0.77536,-1.3881,0.042292,0,0,0.73204,0.79663,0,0.10996,0,0,0.89534,-0.034834,0,0.89601,-0.75115,-0.84925,-1.3881,60.215,-0.99618,0.59405,-0.0097848,0.12,0.58,0
0.14344,0.11056,0.89005,-0.81443,-0.72918,-1.3531,0.011662,0,0,0.70031,0.81114,0,0.030322,0,0,0.90192,-0.02689,0,0.90233,-0.72761,-0.816,-1.3531,82.349,-0.96558,0.58634,-0.0095651,0.14,0.58,0
0.15707,0.11081,0.87195,-0.81783,-0.69645,-1.3262,0.001755,0,0,0.66093,0.81872,0,0.0045631,0,0,0.90704,-0.023933,0,0.90736,-0.69643,-0.81785,-1.3262,89.172,-0.94684,0.57873,-0.0084966,0.16,0.58,0
0.16988,0.10979,0.85377,-0.82527,-0.67247,-1.3031,0.0040583,0,0,0.62116,0.81981,0,0.010552,0,0,0.90983,-0.023973,0,0.91015,-0.67236,-0.82538,-1.3031,88.48,-0.93361,0.56984,-0.0072436,0.18,0.58,0
0.18192,0.1081,0.83556,-0.83077,-0.65487,-1.2812,0.012667,0,0,0.58563,0.81429,0,0.032935,0,0,0.90954,-0.025846,0,0.9099,-0.65397,-0.83167,-1.2812,85.902,-0.9223,0.55999,-0.006052,0.2,0.58,0
0.19331,0.10604,0.81739,-0.83158,-0.64257,-1.2596,0.02357,0,0,0.55647,0.80218,0,0.061281,0,0,0.90552,-0.028812,0,0.90598,-0.63967,-0.83447,-1.2596,82.998,-0.91126,0.54911,-0.0050372,0.22,0.58,0
0.20418,0.10363,0.79934,-0.82733,-0.6355,-1.2382,0.033351,0,0,0.53411,0.78349,0,0.086712,0,0,0.89705,-0.032308,0,0.89765,-0.62987,-0.83296,-1.2382,80.413,-0.90034,0.53643,-0.0042688,0.24,0.58,0
0.21467,0.10065,0.7815,-0.82011,-0.63519,-1.2181,0.037861,0,0,0.51738,0.75777,0,0.09844,0,0,0.88321,-0.035734,0,0.88397,-0.62774,-0.82756,-1.2181,78.866,-0.89113,0.52008,-0.0037958,0.26,0.58,0
0.22487,0.096507,0.76401,-0.81493,-0.64555,-1.2022,0.031107,0,0,0.50339,0.72358,0,0.080878,0,0,0.86256,-0.038138,0,0.86348,-0.64002,-0.82046,-1.2022,79.916,-0.88754,0.49711,-0.0036221,0.28,0.58,0
0.23481,0.090228,0.747,-0.82114,-0.67931,-1.1971,-0.0055691,0,0,0.4888,0.67317,0,-0.01448,0,0,0.83364,-0.037541,0,0.83464,-0.67909,-0.82136,-1.1971,-87.755,-0.89919,0.46358,-0.0035392,0.3,0.58,0
0.24442,0.07934,0.73066,-0.72705,-0.71541,-1.1634,-0.072677,0,0,0.56726,0.58239,0,-0.18896,0,0,0.77402,-0.028873,0,0.77446,-0.64832,-0.79414,-1.1634,-47.289,-0.86862,0.45985,-0.0033537,0.32,0.58,0
0.25749,0.064231,0.71604,-0.71149,-1.1672,-1.2796,-0.10277,0,0,0.73859,0.14622,0,-0.26719,0,0,0.67946,0.017646,0,0.68453,-0.68939,-1.1893,-1.2796,-12.139,-1.0528,0.55065,0.0078026,0.34,0.58,0
0.27397,0.052144,0.70348,-0.62653,-1.3608,-1.2997,-0.0017847,0,0,0.87512,-0.079495,0,-0.0046401,0,0,0.5711,-0.080842,0,0.57701,-0.62652,-1.3608,-1.2997,-0.13925,-1.0957,0.70574,0.017597,0.36,0.58,0
0.2925,0.044094,0.6932,-0.54822,-1.3977,-1.277,0.077142,0,0,0.9474,-0.15699,0,0.20057,0,0,0.47401,-0.17137,0,0.50441,-0.54127,-1.4047,-1.277,5.1467,-1.0743,0.80718,0.024747,0.38,0.58,0
0.31186,0.037692,0.68452,-0.51072,-1.4345,-1.2681,0.1021,0,0,0.9846,-0.21638,0,0.26546,0,0,0.39235,-0.23511,0,0.45882,-0.49957,-1.4457,-1.2681,6.2321,-1.0711,0.87102,0.02924,0.4,0.58,0
0.33188,0.0308,0.6775,-0.44728,-0.91651,-0.81564,0.094404,0,0,0.39229,-0.21856,0,0.6947,0,0,0.32516,-0.15973,0,0.37299,-0.39864,-0.96515,-0.81564,25.552,-0.72648,0.51885,0.015277,0.42,0.58,0
0.32755,0.041045,0.64758,-0.41885,-0.45072,-0.39038,0.079662,0,0,-0.185,-0.39217,0,1.0356,0,0,0.2909,-0.060224,0,0.29719,-0.35354,-0.51602,-0.39038,39.344,-0.41998,0.14755,-0.00013095,0.44,0.58,0
0.32448,0.048374,0.61932,-0.40348,-0.45168,-0.38041,0.066312,0,0,-0.14996,-0.46323,0,0.86206,0,0,0.2756,-0.060025,0,0.28214,-0.35703,-0.49814,-0.38041,35.014,-0.41186,0.13099,-0.00010315,0.46,0.58,0
0.32156,0.052942,0.59246,-0.39393,-0.44423,-0.36994,0.054426,0,0,-0.15594,-0.48288,0,0.70754,0,0,0.26368,-0.055163,0,0.26942,-0.35912,-0.47903,-0.36994,32.599,-0.4027,0.11489,-7.5557e-05,0.48,0.58,0
0.31825,0.055437,0.56659,-0.38755,-0.43337,-0.35959,0.044863,0,0,-0.18173,-0.47956,0,0.58321,0,0,0.25547,-0.048797,0,0.26009,-0.36009,-0.46084,-0.35959,31.474,-0.39351,0.101,-5.2905e-05,0.5,0.58,0
0.31429,0.056411,0.54136,-0.38299,-0.42083,-0.34942,0.037116,0,0,-0.21819,-0.4642,0,0.48251,0,0,0.25029,-0.042484,0,0.25386,-0.36025,-0.44357,-0.34942,31.493,-0.38441,0.089233,-3.4687e-05,0.52,0.58,0
0.30952,0.056267,0.51653,-0.37961,-0.40735,-0.33939,0.030903,0,0,-0.26142,-0.4417,0,0.40174,0,0,0.24716,-0.036795,0,0.24988,-0.35961,-0.42735,-0.33939,32.916,-0.37545,0.079795,-2.0558e-05,0.54,0.58,0
0.30383,0.055317,0.49193,-0.37708,-0.39356,-0.32958,0.026034,0,0,-0.30878,-0.41586,0,0.33845,0,0,0.24533,-0.031872,0,0.24739,-0.35801,-0.41263,-0.32958,36.221,-0.36674,0.073103,-1.0317e-05,0.56,0.58,0
0.29717,0.053814,0.46746,-0.37504,-0.3799,-0.31998,0.02231,0,0,-0.35794,-0.38951,0,0.29003,0,0,0.24429,-0.02767,0,0.24585,-0.35503,-0.39991,-0.31998,41.894,-0.35831,0.069402,-3.6229e-06,0.58,0.58,0
0.28951,0.05196,0.44307,-0.37322,-0.36666,-0.31058,0.019487,0,0,-0.40719,-0.36453,0,0.25332,0,0,0.24371,-0.02407,0,0.24489,-0.35018,-0.3897,-0.31058,49.78,-0.35015,0.068523,2.9069e-08,0.6,0.58,0
0.28088,0.04991,0.41872,-0.37146,-0.35398,-0.30138,0.017316,0,0,-0.45552,-0.34194,0,0.2251,0,0,0.24339,-0.020941,0,0.24428,-0.34332,-0.38211,-0.30138,58.387,-0.34227,0.069939,1.1896e-06,0.62,0.58,0
0.27129,0.047776,0.39439,-0.36965,-0.3419,-0.29234,0.015575,0,0,-0.50249,-0.32211,0,0.20247,0,0,0.24321,-0.018158,0,0.24388,-0.33492,-0.37663,-0.29234,65.848,-0.33463,0.072998,3.5075e-07,0.64,0.58,0
0.26078,0.045635,0.37008,-0.36778,-0.33039,-0.28347,0.014085,0,0,-0.54806,-0.30499,0,0.1831,0,0,0.24312,-0.015617,0,0.24362,-0.32568,-0.3725,-0.28347,71.505,-0.32721,0.077135,-2.1102e-06,0.66,0.58,0
0.24937,0.043538,0.34577,-0.36588,-0.3194,-0.27474,0.012709,0,0,-0.59242,-0.2903,0,0.16522,0,0,0.24309,-0.013228,0,0.24345,-0.31615,-0.36913,-0.27474,75.663,-0.32,0.081948,-5.9423e-06,0.68,0.58,0
0.23708,0.041517,0.32146,-0.36397,-0.30887,-0.26614,0.011347,0,0,-0.63586,-0.27771,0,0.14751,0,0,0.24311,-0.010912,0,0.24335,-0.30662,-0.36621,-0.26614,78.807,-0.31299,0.087188,-1.1013e-05,0.7,0.58,0
0.22394,0.03959,0.29715,-0.3621,-0.29873,-0.25768,0.00992,0,0,-0.67874,-0.26684,0,0.12896,0,0,0.24318,-0.0085967,0,0.24333,-0.29722,-0.36362,-0.25768,81.308,-0.30617,0.092723,-1.7297e-05,0.72,0.58,0
0.20993,0.037764,0.27282,-0.36034,-0.28893,-0.24935,0.0083665,0,0,-0.72148,-0.2573,0,0.10876,0,0,0.24333,-0.0062117,0,0.2434,-0.28797,-0.36131,-0.24935,83.406,-0.29954,0.098506,-2.4886e-05,0.74,0.58,0
0.19508,0.036042,0.24848,-0.35878,-0.2794,-0.24115,0.0066329,0,0,-0.76458,-0.24863,0,0.086228,0,0,0.24357,-0.0036813,0,0.24359,-0.27885,-0.35933,-0.24115,85.256,-0.29311,0.10456,-3.4016e-05,0.76,0.58,0
0.17935,0.034419,0.22411,-0.35752,-0.27007,-0.2331,0.0046738,0,0,-0.80873,-0.24032,0,0.06076,0,0,0.24396,-0.00092152,0,0.24396,-0.26982,-0.35777,-0.2331,86.949,-0.2869,0.11096,-4.5136e-05,0.78,0.58,0
0.16273,0.032889,0.19969,-0.35673,-0.26085,-0.22521,0.0024576,0,0,-0.85486,-0.23164,0,0.031948,0,0,0.2446,0.0021631,0,0.24461,-0.26079,-0.35679,-0.22521,88.533,-0.28093,0.11789,-5.9037e-05,0.8,0.58,0
0.14516,0.031447,0.17519,-0.35664,-0.25162,-0.21752,-1.4142e-05,0,0,-0.90432,-0.22165,0,-0.00018384,0,0,0.24566,0.0056777,0,0.24572,-0.25162,-0.35664,-0.21752,-89.992,-0.27526,0.1256,-7.7032e-05,0.82,0.58,0
0.12656,0.030096,0.15056,-0.35756,-0.24222,-0.21005,-0.0026656,0,0,-0.95884,-0.20914,0,-0.034653,0,0,0.24741,0.0097195,0,0.24759,-0.24216,-0.35762,-0.21005,-88.677,-0.26994,0.13443,-0.00010116,0.84,0.58,0
0.1068,0.028855,0.12571,-0.35979,-0.23249,-0.20283,-0.0052964,0,0,-1.0203,-0.19281,0,-0.068854,0,0,0.25033,0.014318,0,0.25074,-0.23227,-0.36001,-0.20283,-87.622,-0.26503,0.14472,-0.00013422,0.86,0.58,0
0.085744,0.027768,0.10049,-0.36352,-0.22232,-0.19585,-0.0075321,0,0,-1.0898,-0.17206,0,-0.097917,0,0,0.25511,0.01927,0,0.25584,-0.22192,-0.36392,-0.19585,-86.955,-0.26056,0.15667,-0.0001792,0.88,0.58,0
0.063209,0.026896,0.074688,-0.36848,-0.2117,-0.18899,-0.0090171,0,0,-1.1667,-0.14758,0,-0.11722,0,0,0.2623,0.023677,0,0.26339,-0.21118,-0.369,-0.18899,-86.719,-0.25639,0.17,-0.00023791,0.9,0.58,0
0.039077,0.026204,0.048035,-0.37518,-0.2013,-0.18255,-0.0093315,0,0,-1.2521,-0.12187,0,-0.12131,0,0,0.27162,0.025231,0,0.27284,-0.2008,-0.37568,-0.18255,-86.937,-0.25301,0.18468,-0.00031287,0.92,0.58,0
0.013126,0.025623,0.020363,-0.37461,-0.23297,-0.19449,-0.0065509,0,0,-0.75317,-0.083372,0,-0.060368,0,0,0.29108,0.065808,0,0.30153,-0.23267,-0.37491,-0.19449,-87.314,-0.26736,0.16717,-0.00020967,0.94,0.58,0
0.0089502,0.026961,0.014254,-0.39455,-0.32812,-0.23105,-0.0019065,0,0,-0.21254,-0.12618,0,-0.0049568,0,0,0.32542,0.089722,0,0.33798,-0.32806,-0.3946,-0.23105,-88.357,-0.31791,0.14245,4.6916e-05,0.96,0.58,0
0.0046246,0.028034,0.0073467,-0.40071,-0.33676,-0.22859,-0.0025835,0,0,-0.22375,-0.14063,0,-0.0067172,0,0,0.35636,0.049796,0,0.35951,-0.33666,-0.40081,-0.22859,-87.69,-0.32202,0.15076,7.4727e-05,0.98,0.58,0
0,0.028403,0,-0.39218,-0.32219,-0.21431,0.0070926,0,0,-0.23123,-0.14024,0,0.018441,0,0,0.36734,5.2042e-18,0,0.36675,-0.32148,-0.39289,-0.21431,84.272,-0.30956,0.15569,6.5591e-05,1,0.58,0
0,0.047295,1,-0.76015,-1.8954,-1.7967,0.033842,0,0,1.3475,-0.12839,0,0.087989,0,0,0.53166,5.5511e-16,0,0.53056,-0.75914,-1.8964,-1.7967,1.7059,-1.4841,1.0909,0.064791,0,0.6,0
0.02695,0.049055,0.98937,-0.77057,-1.8896,-1.7874,0.081331,0,0,1.3219,-0.13284,0,0.21146,0,0,0.53655,-0.084005,0,0.5417,-0.76468,-1.8955,-1.7874,4.1353,-1.4825,1.0808,0.062666,0.02,0.6,0
0.052876,0.054469,0.97854,-0.8334,-1.924,-1.8058,0.24313,0,0,1.2641,-0.15372,0,0.63214,0,0,0.58077,-0.19164,0,0.60764,-0.78165,-1.9757,-1.8058,12.015,-1.5211,1.1188,0.066367,0.04,0.6,0
0.077512,0.071243,0.96614,-0.74674,-1.3531,-1.2096,0.3359,0,0,0.88853,-0.50358,0,1.7916,0,0,0.48386,-0.23544,0,0.5411,-0.59584,-1.504,-1.2096,25.49,-1.1032,0.80807,0.035558,0.06,0.6,0
0.09185,0.10489,0.94535,-0.61478,-0.7612,-0.98,0.2147,0,0,0.79132,-0.21139,0,1.2033,0,0,0.58743,-0.079401,0,0.59485,-0.43549,-0.94048,-0.98,32.573,-0.78533,0.58061,0.0069495,0.08,0.6,0
0.10916,0.11742,0.92697,-0.53456,-0.72689,-0.93462,0.075929,0,0,0.86679,-0.21192,0,0.53068,0,0,0.54829,-0.053143,0,0.55249,-0.49796,-0.76349,-0.93462,22.83,-0.73203,0.47646,-0.0054273,0.1,0.6,0
0.12652,0.124,0.9088,-0.52312,-0.69631,-0.91111,0.039166,0,0,0.84063,-0.20035,0,0.30298,0,0,0.54484,-0.038642,0,0.54727,-0.50749,-0.71194,-0.91111,20.379,-0.71018,0.45797,-0.00633,0.12,0.6,0
0.14279,0.12662,0.89065,-0.53939,-0.68196,-0.90079,0.020093,0,0,0.78305,-0.18301,0,0.17908,0,0,0.54485,-0.030883,0,0.54646,-0.52586,-0.69548,-0.90079,31.208,-0.70738,0.43789,-0.0059412,0.14,0.6,0
0.15784,0.12695,0.87247,-0.55687,-0.66807,-0.89096,0.01302,0,0,0.72388,-0.16491,0,0.12676,0,0,0.54583,-0.026754,0,0.54704,-0.52388,-0.70105,-0.89096,43.188,-0.7053,0.42167,-0.0052448,0.16,0.6,0
0.17175,0.12592,0.85426,-0.5707,-0.65522,-0.88033,0.012341,0,0,0.67088,-0.14961,0,0.11567,0,0,0.54626,-0.024823,0,0.54727,-0.51774,-0.70818,-0.88033,44.333,-0.70208,0.40809,-0.0044894,0.18,0.6,0
0.18468,0.12411,0.83605,-0.57783,-0.64307,-0.86791,0.015227,0,0,0.62849,-0.13947,0,0.12783,0,0,0.54538,-0.024176,0,0.5463,-0.51048,-0.71043,-0.86791,43.959,-0.69627,0.39696,-0.0038239,0.2,0.6,0
0.19689,0.1218,0.8179,-0.57691,-0.63165,-0.85331,0.019358,0,0,0.59888,-0.13562,0,0.14793,0,0,0.54268,-0.02412,0,0.54355,-0.50206,-0.7065,-0.85331,43.263,-0.68729,0.3877,-0.0033313,0.22,0.6,0
0.20863,0.11903,0.79988,-0.56737,-0.62089,-0.8364,0.022607,0,0,0.58291,-0.13839,0,0.16145,0,0,0.53773,-0.024017,0,0.53855,-0.4926,-0.69566,-0.8364,42.356,-0.67489,0.37966,-0.0030485,0.24,0.6,0
0.2202,0.11554,0.78205,-0.54987,-0.61114,-0.81754,0.023848,0,0,0.57932,-0.14738,0,0.16804,0,0,0.53088,-0.023116,0,0.53158,-0.48305,-0.67796,-0.81754,41.483,-0.65952,0.37226,-0.0029682,0.26,0.6,0
0.23184,0.1108,0.76453,-0.52373,-0.60113,-0.79618,0.012761,0,0,0.59264,-0.16136,0,0.064411,0,0,0.51859,-0.020292,0,0.51907,-0.47351,-0.65136,-0.79618,40.179,-0.64035,0.36499,-0.0030468,0.28,0.6,0
0.24377,0.10362,0.74742,-0.50708,-0.60244,-0.7813,-0.0046572,0,0,0.59415,-0.17697,0,-0.041247,0,0,0.50587,-0.013233,0,0.506,-0.4778,-0.63171,-0.7813,-43.828,-0.63027,0.35354,-0.0029713,0.3,0.6,0
0.25561,0.092488,0.73081,-0.52152,-0.60208,-0.77557,-0.097979,0,0,0.55044,-0.1872,0,-0.51646,0,0,0.50308,0.0021464,0,0.5028,-0.42028,-0.70332,-0.77557,-32.061,-0.63306,0.38226,-0.00026305,0.32,0.6,0
0.26578,0.066106,0.71388,-0.55548,-0.99185,-0.89253,-0.18581,0,0,0.64165,-0.36968,0,-0.99278,0,0,0.38636,0.095466,0,0.39782,-0.48616,-1.0612,-0.89253,-21.719,-0.81329,0.51701,0.010802,0.34,0.6,0
0.28393,0.049217,0.70424,-0.61413,-1.4703,-1.3296,-0.087035,0,0,0.93007,-0.18293,0,-0.22629,0,0,0.44971,-0.020868,0,0.44676,-0.60537,-1.479,-1.3296,-5.7462,-1.138,0.80935,0.024128,0.36,0.6,0
0.30299,0.040527,0.69589,-0.54825,-1.4552,-1.2969,0.028172,0,0,0.97328,-0.20577,0,0.073247,0,0,0.39614,-0.1129,0,0.41133,-0.54738,-1.4561,-1.2969,1.7774,-1.1001,0.8405,0.026847,0.38,0.6,0
0.32287,0.033376,0.6884,-0.50041,-1.4404,-1.2706,0.059597,0,0,1.0013,-0.22068,0,0.15495,0,0,0.3494,-0.16784,0,0.38809,-0.49665,-1.4442,-1.2706,3.6134,-1.0705,0.87377,0.029759,0.4,0.6,0
0.34304,0.026727,0.68191,-0.44392,-0.90768,-0.81463,0.068182,0,0,0.39224,-0.20162,0,0.52778,0,0,0.30809,-0.11551,0,0.33612,-0.4068,-0.94481,-0.81463,24.976,-0.72208,0.49674,0.015085,0.42,0.6,0
0.33855,0.034017,0.65272,-0.41911,-0.43839,-0.3878,0.064379,0,0,-0.20355,-0.3289,0,0.83693,0,0,0.28651,-0.045673,0,0.29018,-0.36366,-0.49385,-0.3878,40.741,-0.4151,0.11996,-7.6701e-05,0.44,0.6,0
0.3349,0.039853,0.62461,-0.40673,-0.44033,-0.37904,0.056361,0,0,-0.17998,-0.39839,0,0.73269,0,0,0.27612,-0.047812,0,0.28027,-0.36472,-0.48234,-0.37904,36.701,-0.4087,0.11116,-6.6607e-05,0.46,0.6,0
0.33136,0.043918,0.59749,-0.39803,-0.43482,-0.36935,0.047762,0,0,-0.1864,-0.42552,0,0.62091,0,0,0.26722,-0.046367,0,0.27125,-0.36524,-0.4676,-0.36935,34.469,-0.40073,0.10037,-5.164e-05,0.48,0.6,0
0.32744,0.046397,0.57117,-0.3921,-0.42556,-0.35953,0.04012,0,0,-0.21168,-0.4292,0,0.52156,0,0,0.26031,-0.042912,0,0.26383,-0.36536,-0.4523,-0.35953,33.68,-0.39239,0.089995,-3.6906e-05,0.5,0.6,0
0.32289,0.047606,0.54543,-0.38778,-0.41439,-0.34974,0.033695,0,0,-0.24729,-0.42022,0,0.43803,0,0,0.25531,-0.038691,0,0.25823,-0.36486,-0.43731,-0.34974,34.228,-0.38397,0.081077,-2.4194e-05,0.52,0.6,0
0.31755,0.047836,0.5201,-0.38446,-0.4022,-0.34002,0.028388,0,0,-0.28886,-0.4042,0,0.36904,0,0,0.25186,-0.034407,0,0.2542,-0.36359,-0.42307,-0.34002,36.322,-0.37556,0.074135,-1.4017e-05,0.54,0.6,0
0.31133,0.047331,0.49506,-0.38179,-0.38956,-0.33042,0.024081,0,0,-0.33391,-0.38445,0,0.31306,0,0,0.24954,-0.030388,0,0.25138,-0.36128,-0.41007,-0.33042,40.415,-0.36725,0.06956,-6.5324e-06,0.56,0.6,0
0.30419,0.046296,0.4702,-0.37953,-0.37685,-0.32095,0.020644,0,0,-0.38077,-0.36331,0,0.26838,0,0,0.24799,-0.026749,0,0.24942,-0.3575,-0.39888,-0.32095,46.861,-0.35911,0.067528,-1.6927e-06,0.58,0.6,0
0.2961,0.044896,0.44546,-0.37752,-0.36432,-0.31165,0.017924,0,0,-0.42821,-0.3424,0,0.23302,0,0,0.24696,-0.023495,0,0.24807,-0.35182,-0.39002,-0.31165,55.109,-0.35116,0.067885,7.0036e-07,0.6,0.6,0
0.28707,0.043267,0.4208,-0.37563,-0.35214,-0.30249,0.015757,0,0,-0.47542,-0.32269,0,0.20484,0,0,0.24628,-0.020581,0,0.24713,-0.34423,-0.38354,-0.30249,63.354,-0.34342,0.0702,9.2163e-07,0.62,0.6,0
0.27709,0.041511,0.3962,-0.37379,-0.34037,-0.29349,0.013984,0,0,-0.52199,-0.3047,0,0.18179,0,0,0.24583,-0.017937,0,0.24648,-0.33529,-0.37887,-0.29349,70.041,-0.33588,0.07395,-7.5224e-07,0.64,0.6,0
0.26619,0.039703,0.37164,-0.37198,-0.32903,-0.28463,0.012466,0,0,-0.56777,-0.28858,0,0.16206,0,0,0.24556,-0.015496,0,0.24605,-0.32567,-0.37533,-0.28463,74.933,-0.32854,0.078671,-4.0945e-06,0.66,0.6,0
0.25438,0.037897,0.34709,-0.37019,-0.3181,-0.27591,0.011091,0,0,-0.61285,-0.27427,0,0.14418,0,0,0.24542,-0.013188,0,0.24577,-0.31584,-0.37245,-0.27591,78.467,-0.3214,0.084028,-8.9559e-06,0.68,0.6,0
0.24167,0.036131,0.32255,-0.36846,-0.30756,-0.26732,0.0097696,0,0,-0.65744,-0.26156,0,0.12701,0,0,0.2454,-0.01095,0,0.24564,-0.30603,-0.36999,-0.26732,81.106,-0.31444,0.089809,-1.5276e-05,0.7,0.6,0
0.22808,0.034427,0.29801,-0.36683,-0.29735,-0.25885,0.0084353,0,0,-0.70182,-0.2502,0,0.10966,0,0,0.2455,-0.0087216,0,0.24565,-0.29634,-0.36784,-0.25885,83.176,-0.30767,0.095901,-2.3092e-05,0.72,0.6,0
0.2136,0.032803,0.27345,-0.36535,-0.28742,-0.25052,0.0070384,0,0,-0.74638,-0.23984,0,0.091499,0,0,0.24574,-0.006444,0,0.24582,-0.28679,-0.36598,-0.25052,84.88,-0.3011,0.10227,-3.2552e-05,0.74,0.6,0
0.19822,0.031268,0.24887,-0.3641,-0.27773,-0.24232,0.0055451,0,0,-0.79157,-0.23013,0,0.072086,0,0,0.24614,-0.0040587,0,0.24617,-0.27737,-0.36446,-0.24232,86.342,-0.29472,0.10892,-4.3944e-05,0.76,0.6,0
0.18194,0.029827,0.22423,-0.36318,-0.2682,-0.23426,0.0039404,0,0,-0.83799,-0.22061,0,0.051225,0,0,0.24677,-0.0015084,0,0.24677,-0.26804,-0.36334,-0.23426,87.629,-0.28855,0.11595,-5.7745e-05,0.78,0.6,0
0.1647,0.028489,0.19951,-0.3627,-0.25877,-0.22634,0.0022354,0,0,-0.88634,-0.21075,0,0.02906,0,0,0.24771,0.0012593,0,0.24771,-0.25872,-0.36275,-0.22634,88.769,-0.2826,0.12345,-7.4681e-05,0.8,0.6,0
0.14648,0.027264,0.17468,-0.36281,-0.24935,-0.21859,0.00048312,0,0,-0.93749,-0.19995,0,0.0062805,0,0,0.24912,0.0042789,0,0.24915,-0.24935,-0.36282,-0.21859,89.756,-0.27692,0.13158,-9.5783e-05,0.82,0.6,0
0.1272,0.026171,0.14969,-0.36364,-0.23986,-0.21099,-0.0012039,0,0,-0.99224,-0.18768,0,-0.01565,0,0,0.25119,0.0075373,0,0.2513,-0.23985,-0.36365,-0.21099,-89.443,-0.2715,0.14047,-0.00012236,0.84,0.6,0
0.10679,0.025241,0.12445,-0.36525,-0.23026,-0.20355,-0.0026427,0,0,-1.0511,-0.17368,0,-0.034355,0,0,0.25421,0.010908,0,0.25444,-0.23021,-0.36531,-0.20355,-88.879,-0.26636,0.15021,-0.00015575,0.86,0.6,0
0.08516,0.024515,0.098847,-0.36759,-0.22059,-0.19622,-0.0036274,0,0,-1.1139,-0.15837,0,-0.047156,0,0,0.25844,0.014028,0,0.25883,-0.2205,-0.36768,-0.19622,-88.587,-0.26147,0.1607,-0.00019685,0.88,0.6,0
0.062236,0.024017,0.072759,-0.37061,-0.21103,-0.18904,-0.0039797,0,0,-1.1802,-0.1429,0,-0.051736,0,0,0.26392,0.016132,0,0.26443,-0.21093,-0.37071,-0.18904,-88.572,-0.25689,0.17177,-0.00024612,0.9,0.6,0
0.037952,0.023743,0.046062,-0.37398,-0.20121,-0.18177,-0.0035654,0,0,-1.2494,-0.12635,0,-0.046351,0,0,0.27025,0.016201,0,0.27076,-0.20114,-0.37405,-0.18177,-88.818,-0.25232,0.18337,-0.0003048,0.92,0.6,0
0.012261,0.023686,0.018709,-0.37279,-0.24616,-0.19691,3.5453e-05,0,0,-0.74247,-0.1067,0,-0.012303,0,0,0.28229,0.040102,0,0.28643,-0.2461,-0.37285,-0.19691,-0.59759,-0.27195,0.16182,-0.000165,0.94,0.6,0
0.0082536,0.024376,0.012888,-0.37957,-0.32597,-0.22455,0.0051576,0,0,-0.20153,-0.13185,0,0.01341,0,0,0.30319,0.055096,0,0.30834,-0.32548,-0.38007,-0.22455,84.553,-0.31003,0.13666,6.4121e-05,0.96,0.6,0
0.0042001,0.025077,0.0065812,-0.38003,-0.33571,-0.2213,0.0043753,0,0,-0.20634,-0.14873,0,0.011376,0,0,0.3222,0.030914,0,0.32356,-0.33528,-0.38045,-0.2213,84.415,-0.31235,0.14206,9.8618e-05,0.98,0.6,0
0,0.025346,0,-0.37146,-0.32827,-0.20992,0.0051674,0,0,-0.21,-0.15386,0,0.013435,0,0,0.32906,1.0408e-17,0,0.32881,-0.32766,-0.37207,-0.20992,83.271,-0.30322,0.14513,0.00010888,1,0.6,0
0,0.044103,1,-0.71575,-1.9668,-1.8048,0.027737,0,0,1.4157,-0.21067,0,0.072115,0,0,0.44298,5.343e-16,0,0.4417,-0.71513,-1.9674,-1.8048,1.2694,-1.4958,1.1794,0.078884,0,0.62,0
0.028315,0.045546,0.99114,-0.69773,-1.9658,-1.7902,0.097713,0,0,1.4202,-0.22824,0,0.25405,0,0,0.43573,-0.082735,0,0.44195,-0.69025,-1.9732,-1.7902,4.3807,-1.4846,1.202,0.082257,0.02,0.62,0
0.056808,0.050715,0.98257,-0.56399,-1.9811,-1.7461,0.18361,0,0,1.5368,-0.30552,0,0.47738,0,0,0.37151,-0.18586,0,0.41198,-0.54059,-2.0045,-1.7461,7.2637,-1.4304,1.3534,0.11182,0.04,0.62,0
0.089785,0.055391,0.97628,-0.51645,-1.5104,-1.1938,0.19422,0,0,1.1053,-0.68593,0,1.1754,0,0,0.27552,-0.21479,0,0.3644,-0.4657,-1.5612,-1.1938,17.364,-1.0736,0.96969,0.073426,0.06,0.62,0
0.10102,0.080093,0.95263,-0.42498,-0.69609,-0.52685,0.10063,0,0,0.66212,-1.1001,0,1.3082,0,0,0.22117,-0.061058,0,0.22964,-0.39171,-0.72936,-0.52685,18.295,-0.54931,0.29435,-0.00044187,0.08,0.62,0
0.11627,0.09332,0.93205,-0.38962,-0.6847,-0.50871,0.060107,0,0,0.77406,-1.144,0,0.7814,0,0,0.19976,-0.046323,0,0.20504,-0.37785,-0.69648,-0.50871,11.083,-0.52768,0.27741,-0.00033267,0.1,0.62,0
0.13198,0.10002,0.91268,-0.37877,-0.67778,-0.4995,0.037111,0,0,0.78475,-1.1588,0,0.48244,0,0,0.19115,-0.036714,0,0.19463,-0.37423,-0.68232,-0.4995,6.9703,-0.51868,0.26836,-0.00031439,0.12,0.62,0
0.14766,0.10324,0.89382,-0.37198,-0.66766,-0.49065,0.024838,0,0,0.77141,-1.1505,0,0.32289,0,0,0.18734,-0.030547,0,0.18981,-0.3699,-0.66973,-0.49065,4.7684,-0.5101,0.26129,-0.0003017,0.14,0.62,0
0.16284,0.10422,0.87521,-0.36846,-0.65684,-0.48263,0.01865,0,0,0.74211,-1.1324,0,0.24245,0,0,0.18533,-0.026711,0,0.18724,-0.36726,-0.65804,-0.48263,3.6849,-0.50265,0.25361,-0.00029194,0.16,0.62,0
0.17734,0.10381,0.85675,-0.36592,-0.64564,-0.47482,0.016521,0,0,0.70785,-1.1103,0,0.21477,0,0,0.18406,-0.024394,0,0.18567,-0.36494,-0.64661,-0.47482,3.3683,-0.49546,0.24589,-0.00028233,0.18,0.62,0
0.19115,0.10253,0.8384,-0.36328,-0.63443,-0.46699,0.016666,0,0,0.67414,-1.0884,0,0.21666,0,0,0.18307,-0.022958,0,0.1845,-0.36226,-0.63545,-0.46699,3.5041,-0.48823,0.23873,-0.00027316,0.2,0.62,0
0.20431,0.10061,0.82014,-0.36002,-0.62342,-0.45906,0.017555,0,0,0.64374,-1.0683,0,0.22821,0,0,0.1821,-0.021835,0,0.1834,-0.35886,-0.62458,-0.45906,3.7962,-0.48083,0.23243,-0.00026472,0.22,0.62,0
0.2169,0.098097,0.80198,-0.35608,-0.61264,-0.45101,0.017667,0,0,0.61704,-1.0506,0,0.22967,0,0,0.18108,-0.020449,0,0.18223,-0.35487,-0.61385,-0.45101,3.9209,-0.47324,0.22675,-0.00025656,0.24,0.62,0
0.22899,0.094754,0.78392,-0.35051,-0.60097,-0.44223,0.015119,0,0,0.59618,-1.0318,0,0.19654,0,0,0.18025,-0.017944,0,0.18114,-0.3496,-0.60188,-0.44223,3.4419,-0.46457,0.22104,-0.00024454,0.26,0.62,0
0.24058,0.090053,0.76596,-0.34938,-0.5897,-0.43491,0.0059658,0,0,0.556,-1.0061,0,0.077555,0,0,0.17966,-0.013861,0,0.18017,-0.34923,-0.58985,-0.43491,1.4211,-0.458,0.21124,-0.00022954,0.28,0.62,0
0.25147,0.083149,0.74799,-0.34777,-0.57822,-0.4274,-0.0072322,0,0,0.51757,-0.98038,0,-0.094019,0,0,0.18158,-0.0065468,0,0.18164,-0.34754,-0.57845,-0.4274,-1.7957,-0.45113,0.20312,-0.00021704,0.3,0.62,0
0.26128,0.071852,0.72964,-0.36825,-0.56792,-0.42678,-0.034889,0,0,0.38043,-0.91743,0,-0.45356,0,0,0.19284,0.0064871,0,0.19287,-0.36233,-0.57384,-0.42678,-9.6314,-0.45432,0.18777,-0.00020993,0.32,0.62,0
0.26668,0.054078,0.70942,-0.41826,-1.1527,-0.89694,-0.090433,0,0,0.73029,-0.55417,0,-0.53391,0,0,0.22866,0.06763,0,0.24702,-0.40155,-1.1694,-0.89694,-13.152,-0.82264,0.67834,0.025924,0.34,0.62,0
0.2905,0.044827,0.70432,-0.43435,-1.5239,-1.2918,-0.066968,0,0,1.1147,-0.30177,0,-0.17412,0,0,0.29273,-0.011968,0,0.28884,-0.43025,-1.528,-1.2918,-3.5039,-1.0834,1.0008,0.041973,0.36,0.62,0
0.31127,0.035864,0.69771,-0.50129,-1.4957,-1.2968,-0.012113,0,0,1.0342,-0.25856,0,-0.031495,0,0,0.32704,-0.085702,0,0.33718,-0.50115,-1.4958,-1.2968,-0.6978,-1.0979,0.91163,0.032746,0.38,0.62,0
0.33186,0.028865,0.69124,-0.48285,-1.4561,-1.2729,0.029888,0,0,1.0271,-0.2381,0,0.077708,0,0,0.31272,-0.12948,0,0.3384,-0.48194,-1.457,-1.2729,1.7574,-1.0706,0.89728,0.031904,0.4,0.62,0
0.35235,0.022735,0.6852,-0.4396,-0.91188,-0.81656,0.048953,0,0,0.40111,-0.20651,0,0.40018,0,0,0.29331,-0.089635,0,0.31166,-0.41165,-0.93982,-0.81656,24.203,-0.72268,0.48933,0.015634,0.42,0.62,0
0.34791,0.027889,0.65671,-0.41941,-0.43232,-0.38686,0.051838,0,0,-0.21158,-0.29549,0,0.6739,0,0,0.28159,-0.036417,0,0.28395,-0.37363,-0.47811,-0.38686,41.451,-0.41287,0.09853,-4.6154e-05,0.44,0.62,0
0.34389,0.032439,0.62889,-0.40928,-0.43242,-0.37829,0.047585,0,0,-0.20143,-0.35188,0,0.6186,0,0,0.2749,-0.039278,0,0.27771,-0.37188,-0.46982,-0.37829,38.165,-0.40666,0.094901,-4.3223e-05,0.46,0.62,0
0.33985,0.035921,0.60173,-0.40165,-0.42746,-0.36908,0.041668,0,0,-0.21174,-0.37946,0,0.54168,0,0,0.26858,-0.039352,0,0.27146,-0.37094,-0.45818,-0.36908,36.398,-0.3994,0.088182,-3.5166e-05,0.48,0.62,0
0.33542,0.038269,0.57517,-0.39606,-0.41917,-0.3596,0.035709,0,0,-0.23697,-0.38717,0,0.46421,0,0,0.26315,-0.037597,0,0.26583,-0.37008,-0.44515,-0.3596,36.035,-0.39161,0.080814,-2.5577e-05,0.5,0.62,0
0.33037,0.039602,0.5491,-0.39186,-0.40897,-0.35007,0.030352,0,0,-0.27165,-0.38286,0,0.39457,0,0,0.25879,-0.034845,0,0.26113,-0.36888,-0.43195,-0.35007,37.13,-0.38364,0.074283,-1.6588e-05,0.52,0.62,0
0.32455,0.0401,0.52341,-0.38855,-0.39772,-0.34057,0.025762,0,0,-0.31191,-0.37153,0,0.33491,0,0,0.25546,-0.031691,0,0.25742,-0.36697,-0.4193,-0.34057,39.953,-0.37561,0.069412,-9.177e-06,0.54,0.62,0
0.31789,0.039939,0.49801,-0.38581,-0.38594,-0.33113,0.02193,0,0,-0.35544,-0.35629,0,0.28509,0,0,0.25299,-0.02849,0,0.25459,-0.36395,-0.4078,-0.33113,44.914,-0.36762,0.066635,-3.7425e-06,0.56,0.62,0
0.31034,0.039281,0.47281,-0.38344,-0.37396,-0.32178,0.018784,0,0,-0.40078,-0.33917,0,0.24419,0,0,0.25118,-0.025428,0,0.25247,-0.35933,-0.39808,-0.32178,52.08,-0.35973,0.066073,-4.0305e-07,0.58,0.62,0
0.30186,0.038264,0.44777,-0.38132,-0.36203,-0.31256,0.016225,0,0,-0.44696,-0.32156,0,0.21092,0,0,0.24988,-0.022577,0,0.25089,-0.3528,-0.39055,-0.31256,60.367,-0.35197,0.067555,8.7503e-07,0.6,0.62,0
0.29246,0.037003,0.42284,-0.37936,-0.35029,-0.30346,0.014138,0,0,-0.49335,-0.30437,0,0.1838,0,0,0.24894,-0.019948,0,0.24974,-0.34455,-0.3851,-0.30346,67.898,-0.34437,0.070703,2.0322e-07,0.62,0.62,0
0.28213,0.035588,0.39798,-0.3775,-0.33882,-0.29449,0.012409,0,0,-0.53957,-0.28813,0,0.16131,0,0,0.24829,-0.017516,0,0.24891,-0.33518,-0.38114,-0.29449,73.659,-0.33694,0.075086,-2.2853e-06,0.64,0.62,0
0.27088,0.034092,0.37318,-0.37573,-0.32767,-0.28565,0.01093,0,0,-0.58547,-0.2731,0,0.14209,0,0,0.24787,-0.015242,0,0.24834,-0.3253,-0.3781,-0.28565,77.77,-0.32969,0.080326,-6.4774e-06,0.66,0.62,0
0.25871,0.032567,0.34841,-0.37403,-0.31684,-0.27694,0.0096107,0,0,-0.63107,-0.25934,0,0.12494,0,0,0.24764,-0.013079,0,0.24798,-0.31527,-0.3756,-0.27694,80.711,-0.32261,0.086148,-1.2308e-05,0.68,0.62,0
0.24563,0.031055,0.32365,-0.37244,-0.30633,-0.26836,0.0083777,0,0,-0.67651,-0.24678,0,0.10891,0,0,0.24758,-0.010979,0,0.24782,-0.30528,-0.37348,-0.26836,82.889,-0.31571,0.092373,-1.9777e-05,0.7,0.62,0
0.23165,0.029582,0.29889,-0.37097,-0.29609,-0.2599,0.0071758,0,0,-0.722,-0.23525,0,0.093286,0,0,0.24769,-0.0088958,0,0.24785,-0.29541,-0.37166,-0.2599,84.575,-0.30899,0.098905,-2.8964e-05,0.72,0.62,0
0.21675,0.028171,0.27411,-0.36969,-0.2861,-0.25156,0.0059675,0,0,-0.76784,-0.22453,0,0.077577,0,0,0.24799,-0.0067839,0,0.24808,-0.28568,-0.37011,-0.25156,85.937,-0.30245,0.10571,-4.0043e-05,0.74,0.62,0
0.20094,0.026837,0.24929,-0.36864,-0.27632,-0.24335,0.0047336,0,0,-0.81439,-0.21435,0,0.061536,0,0,0.2485,-0.0046022,0,0.24854,-0.27608,-0.36888,-0.24335,87.072,-0.2961,0.11279,-5.3297e-05,0.76,0.62,0
0.18418,0.025594,0.22441,-0.36789,-0.26671,-0.23526,0.0034761,0,0,-0.86206,-0.20442,0,0.045189,0,0,0.24928,-0.0023169,0,0.24929,-0.26659,-0.36801,-0.23526,88.035,-0.28995,0.12018,-6.9145e-05,0.78,0.62,0
0.16645,0.024459,0.19944,-0.36751,-0.25722,-0.22731,0.0022232,0,0,-0.91131,-0.19443,0,0.028901,0,0,0.25039,9.0959e-05,0,0.25039,-0.25717,-0.36755,-0.22731,88.846,-0.28401,0.12795,-8.8148e-05,0.8,0.62,0
0.14773,0.023449,0.17434,-0.36756,-0.2478,-0.21948,0.0010348,0,0,-0.96255,-0.18413,0,0.013452,0,0,0.25193,0.0026103,0,0.25195,-0.24779,-0.36757,-0.21948,89.505,-0.27828,0.13616,-0.00011098,0.82,0.62,0
0.12795,0.022589,0.14905,-0.36808,-0.23844,-0.21177,3.8522e-06,0,0,-1.016,-0.17339,0,5.0079e-05,0,0,0.25404,0.0051733,0,0.25409,-0.23844,-0.36808,-0.21177,89.998,-0.27276,0.14483,-0.00013835,0.84,0.62,0
0.10708,0.021908,0.12353,-0.36905,-0.22916,-0.20417,-0.00075871,0,0,-1.0717,-0.16243,0,-0.0098633,0,0,0.25682,0.0076122,0,0.25694,-0.22915,-0.36905,-0.20417,-89.689,-0.26746,0.15392,-0.00017078,0.86,0.62,0
0.085082,0.021433,0.097689,-0.3704,-0.22001,-0.19666,-0.0011525,0,0,-1.1293,-0.15177,0,-0.014983,0,0,0.26033,0.0096089,0,0.26052,-0.22,-0.37041,-0.19666,-89.561,-0.26236,0.16333,-0.00020847,0.88,0.62,0
0.061912,0.02118,0.071461,-0.37198,-0.21099,-0.18918,-0.0011132,0,0,-1.1882,-0.14175,0,-0.014471,0,0,0.26447,0.010694,0,0.2647,-0.21099,-0.37199,-0.18918,-89.604,-0.25739,0.17294,-0.00025147,0.9,0.62,0
0.037555,0.02115,0.044795,-0.37359,-0.20195,-0.18162,-0.00052147,0,0,-1.2478,-0.13217,0,-0.0067791,0,0,0.26886,0.010349,0,0.26906,-0.20195,-0.37359,-0.18162,-89.826,-0.25239,0.18265,-0.00029993,0.92,0.62,0
0.012001,0.021355,0.01769,-0.37242,-0.2556,-0.19902,0.0020547,0,0,-0.73649,-0.12259,0,0.0067862,0,0,0.27651,0.024673,0,0.27814,-0.25547,-0.37255,-0.19902,88.005,-0.27568,0.15976,-0.00014003,0.94,0.62,0
0.0080951,0.021687,0.012051,-0.37419,-0.32708,-0.22243,0.0057997,0,0,-0.19729,-0.13604,0,0.015079,0,0,0.28949,0.033737,0,0.29152,-0.32637,-0.3749,-0.22243,83.085,-0.3079,0.13492,7.3343e-05,0.96,0.62,0
0.0041096,0.022085,0.0061102,-0.37332,-0.33179,-0.21764,0.0047793,0,0,-0.20238,-0.14839,0,0.012426,0,0,0.30126,0.018961,0,0.30181,-0.33125,-0.37386,-0.21764,83.519,-0.30758,0.13987,9.7804e-05,0.98,0.62,0
0,0.022249,0,-0.36482,-0.32436,-0.20675,0.0031486,0,0,-0.20548,-0.15289,0,0.0081863,0,0,0.30551,8.6736e-19,0,0.3054,-0.32411,-0.36506,-0.20675,85.576,-0.29864,0.14232,0.00010779,1,0.62,0
0,0.038868,1,-0.62572,-2.037,-1.7988,0.020323,0,0,1.525,-0.3096,0,0.05284,0,0,0.36619,-7.9797e-17,0,0.3652,-0.62542,-2.0372,-1.7988,0.82488,-1.4872,1.309,0.10243,0,0.64,0
0.0305,0.039925,0.99268,-0.58425,-2.0367,-1.779,0.071083,0,0,1.5532,-0.3351,0,0.18482,0,0,0.35069,-0.065644,0,0.35585,-0.58078,-2.0402,-1.779,2.795,-1.4667,1.3479,0.11003,0.02,0.64,0
0.062126,0.042248,0.98597,-0.54375,-2.1264,-1.787,0.11731,0,0,1.6162,-0.44116,0,0.30501,0,0,0.30552,-0.13473,0,0.33493,-0.53511,-2.135,-1.787,4.2164,-1.4857,1.4574,0.12895,0.04,0.64,0
0.095149,0.043806,0.98045,-0.47244,-1.4007,-1.1502,0.099065,0,0,1.1031,-0.54267,0,0.68792,0,0,0.2524,-0.099752,0,0.27768,-0.45162,-1.4215,-1.1502,13.052,-1.0078,0.87013,0.069481,0.06,0.64,0
0.10625,0.060882,0.95756,-0.41124,-0.64607,-0.50871,0.070023,0,0,0.63352,-0.89289,0,0.9103,0,0,0.22108,-0.039825,0,0.22483,-0.39195,-0.66537,-0.50871,15.405,-0.52201,0.23763,-0.00017195,0.08,0.64,0
0.12049,0.071659,0.93624,-0.38819,-0.66172,-0.50222,0.045894,0,0,0.74118,-1.0367,0,0.59662,0,0,0.20711,-0.036316,0,0.21033,-0.3807,-0.66921,-0.50222,9.2753,-0.51738,0.25089,-0.00021808,0.1,0.64,0
0.1359,0.077651,0.91614,-0.37554,-0.66323,-0.49486,0.029897,0,0,0.77559,-1.0944,0,0.38866,0,0,0.19739,-0.031378,0,0.19988,-0.37246,-0.66631,-0.49486,5.8705,-0.51121,0.25566,-0.00024397,0.12,0.64,0
0.15151,0.080595,0.89676,-0.36846,-0.66032,-0.48799,0.020598,0,0,0.7769,-1.1201,0,0.26777,0,0,0.19162,-0.027479,0,0.19358,-0.36702,-0.66177,-0.48799,4.0171,-0.50559,0.25662,-0.00026414,0.14,0.64,0
0.16697,0.081655,0.87782,-0.3634,-0.65391,-0.48075,0.015883,0,0,0.76283,-1.1255,0,0.20648,0,0,0.1881,-0.024797,0,0.18973,-0.36253,-0.65477,-0.48075,3.1201,-0.49935,0.25462,-0.00027422,0.16,0.64,0
0.18203,0.081509,0.85914,-0.35828,-0.6446,-0.47269,0.015211,0,0,0.74366,-1.1174,0,0.19774,0,0,0.18614,-0.023354,0,0.1876,-0.35748,-0.64541,-0.47269,3.0325,-0.49186,0.25101,-0.0002742,0.18,0.64,0
0.19654,0.080578,0.84065,-0.35569,-0.6338,-0.46498,0.016041,0,0,0.71037,-1.0974,0,0.20853,0,0,0.18435,-0.02251,0,0.18572,-0.35477,-0.63472,-0.46498,3.2901,-0.48482,0.24427,-0.00026826,0.2,0.64,0
0.21044,0.07907,0.82227,-0.35275,-0.62287,-0.45714,0.016712,0,0,0.67855,-1.0772,0,0.21726,0,0,0.1834,-0.021344,0,0.18464,-0.35172,-0.62389,-0.45714,3.5269,-0.47758,0.2377,-0.00026106,0.22,0.64,0
0.22368,0.077002,0.80397,-0.35225,-0.61285,-0.45032,0.014548,0,0,0.63747,-1.0564,0,0.18912,0,0,0.18293,-0.01981,0,0.18399,-0.35144,-0.61366,-0.45032,3.1853,-0.47181,0.22936,-0.00025436,0.24,0.64,0
0.23619,0.074191,0.78568,-0.3486,-0.59874,-0.44134,0.01207,0,0,0.60278,-1.0231,0,0.15692,0,0,0.18321,-0.017813,0,0.18407,-0.34802,-0.59932,-0.44134,2.7563,-0.46289,0.22002,-0.00023421,0.26,0.64,0
0.24779,0.070242,0.76733,-0.34791,-0.58256,-0.43261,0.0064874,0,0,0.55053,-0.97472,0,0.084336,0,0,0.18477,-0.014628,0,0.18535,-0.34773,-0.58274,-0.43261,1.5824,-0.45436,0.20613,-0.00020648,0.28,0.64,0
0.25821,0.064409,0.74872,-0.3522,-0.56297,-0.4243,-0.004003,0,0,0.46864,-0.90139,0,-0.05204,0,0,0.18906,-0.0098515,0,0.18932,-0.35212,-0.56305,-0.4243,-1.0877,-0.44649,0.18568,-0.00016925,0.3,0.64,0
0.26654,0.055791,0.72951,-0.36312,-0.53075,-0.41406,-0.019457,0,0,0.33114,-0.75845,0,-0.25294,0,0,0.19678,-0.0044762,0,0.19691,-0.36089,-0.53297,-0.41406,-6.5347,-0.43598,0.15261,-0.00011066,0.32,0.64,0
0.27145,0.04394,0.70937,-0.40691,-1.1149,-0.88218,-0.033121,0,0,0.71614,-0.49913,0,-0.22823,0,0,0.21691,-0.0012876,0,0.2169,-0.40321,-1.1186,-0.88218,-7.2888,-0.80134,0.63532,0.025246,0.34,0.64,0
0.29518,0.037146,0.70472,-0.42734,-1.6119,-1.3165,-0.042077,0,0,1.1559,-0.38403,0,-0.1094,0,0,0.25129,-0.020125,0,0.25147,-0.42585,-1.6134,-1.3165,-2.0318,-1.1186,1.0704,0.047038,0.36,0.64,0
0.31769,0.030185,0.69932,-0.45571,-1.5242,-1.2933,-0.0088482,0,0,1.0888,-0.30017,0,-0.023005,0,0,0.28143,-0.083314,0,0.29299,-0.45564,-1.5243,-1.2933,-0.47443,-1.0911,0.9739,0.038596,0.38,0.64,0
0.3391,0.023852,0.69358,-0.46101,-1.4774,-1.2751,0.014707,0,0,1.0583,-0.26304,0,0.038239,0,0,0.28571,-0.11414,0,0.30753,-0.4608,-1.4777,-1.2751,0.82881,-1.0712,0.93225,0.035081,0.4,0.64,0
0.36002,0.018466,0.68789,-0.43394,-0.92378,-0.82005,0.036517,0,0,0.41765,-0.22475,0,0.31019,0,0,0.28164,-0.077085,0,0.29606,-0.41326,-0.94446,-0.82005,23.053,-0.72592,0.4922,0.016692,0.42,0.64,0
0.35581,0.022198,0.66,-0.41896,-0.4297,-0.3866,0.042081,0,0,-0.21035,-0.28018,0,0.54705,0,0,0.27711,-0.030933,0,0.27883,-0.38191,-0.46675,-0.3866,41.362,-0.41175,0.0826,-2.863e-05,0.44,0.64,0
0.35161,0.025778,0.63247,-0.41118,-0.42732,-0.37804,0.04007,0,0,-0.21539,-0.3203,0,0.52091,0,0,0.27319,-0.033559,0,0.27525,-0.37838,-0.46012,-0.37804,39.307,-0.40551,0.081916,-2.8229e-05,0.46,0.64,0
0.34719,0.02874,0.60536,-0.40473,-0.42183,-0.36904,0.036078,0,0,-0.232,-0.34313,0,0.46902,0,0,0.26891,-0.034111,0,0.27107,-0.3762,-0.45036,-0.36904,38.335,-0.39853,0.077983,-2.3665e-05,0.48,0.64,0
0.34233,0.03091,0.57869,-0.3996,-0.4139,-0.35979,0.031486,0,0,-0.25878,-0.35175,0,0.40932,0,0,0.26482,-0.033181,0,0.26689,-0.37446,-0.43904,-0.35979,38.602,-0.3911,0.073028,-1.7311e-05,0.5,0.64,0
0.33684,0.032292,0.5524,-0.39551,-0.40435,-0.35044,0.027042,0,0,-0.293,-0.3504,0,0.35155,0,0,0.26122,-0.031318,0,0.26309,-0.37253,-0.42733,-0.35044,40.363,-0.38343,0.06857,-1.095e-05,0.52,0.64,0
0.33061,0.032975,0.52644,-0.39217,-0.39379,-0.34108,0.023068,0,0,-0.33213,-0.34263,0,0.29989,0,0,0.25821,-0.028963,0,0.25983,-0.3699,-0.41607,-0.34108,43.997,-0.37568,0.065517,-5.6011e-06,0.54,0.64,0
0.32356,0.03308,0.50075,-0.38935,-0.38267,-0.33176,0.019657,0,0,-0.37434,-0.33096,0,0.25554,0,0,0.2558,-0.026421,0,0.25716,-0.36607,-0.40595,-0.33176,49.818,-0.36793,0.064312,-1.7677e-06,0.56,0.64,0
0.31563,0.032729,0.47528,-0.38688,-0.3713,-0.32251,0.016797,0,0,-0.41842,-0.31711,0,0.21836,0,0,0.2539,-0.023876,0,0.25502,-0.36057,-0.39761,-0.32251,57.445,-0.36023,0.065037,3.3485e-07,0.58,0.64,0
0.30682,0.032034,0.44998,-0.38467,-0.35986,-0.31335,0.014429,0,0,-0.46356,-0.30229,0,0.18758,0,0,0.25244,-0.021428,0,0.25334,-0.35324,-0.3913,-0.31335,65.344,-0.35263,0.067505,6.4006e-07,0.6,0.64,0
0.29709,0.031093,0.42479,-0.38265,-0.34851,-0.30431,0.012473,0,0,-0.50923,-0.28732,0,0.16215,0,0,0.25134,-0.019113,0,0.25206,-0.34444,-0.38672,-0.30431,71.922,-0.34515,0.071381,-8.4457e-07,0.62,0.64,0
0.28645,0.029986,0.39971,-0.38077,-0.33733,-0.29537,0.010842,0,0,-0.55509,-0.27273,0,0.14095,0,0,0.25054,-0.016936,0,0.25111,-0.33477,-0.38333,-0.29537,76.736,-0.33782,0.076308,-4.0845e-06,0.64,0.64,0
0.27489,0.028779,0.37469,-0.37901,-0.32638,-0.28656,0.0094534,0,0,-0.60099,-0.25883,0,0.12289,0,0,0.25,-0.014877,0,0.25044,-0.32473,-0.38066,-0.28656,80.121,-0.33065,0.081981,-9.0508e-06,0.66,0.64,0
0.26241,0.027523,0.34971,-0.37738,-0.31567,-0.27786,0.0082336,0,0,-0.64691,-0.24577,0,0.10704,0,0,0.24968,-0.012907,0,0.25001,-0.31459,-0.37846,-0.27786,82.53,-0.32364,0.088177,-1.5744e-05,0.68,0.64,0
0.24901,0.026259,0.32475,-0.37588,-0.30521,-0.26928,0.007123,0,0,-0.69292,-0.23357,0,0.092599,0,0,0.24958,-0.010993,0,0.24982,-0.3045,-0.37659,-0.26928,84.301,-0.31679,0.094747,-2.4211e-05,0.7,0.64,0
0.23469,0.025018,0.29979,-0.37453,-0.29499,-0.26082,0.0060768,0,0,-0.73915,-0.22215,0,0.078998,0,0,0.2497,-0.0090997,0,0.24986,-0.29453,-0.37499,-0.26082,85.656,-0.31011,0.10161,-3.4555e-05,0.72,0.64,0
0.21945,0.023822,0.27481,-0.37337,-0.285,-0.25247,0.0050664,0,0,-0.78582,-0.21143,0,0.065864,0,0,0.25003,-0.0071957,0,0.25013,-0.28471,-0.37366,-0.25247,86.729,-0.30361,0.10871,-4.6949e-05,0.74,0.64,0
0.20326,0.022694,0.24979,-0.37242,-0.2752,-0.24424,0.0040806,0,0,-0.83315,-0.20124,0,0.053048,0,0,0.25061,-0.0052536,0,0.25066,-0.27503,-0.37259,-0.24424,87.601,-0.29729,0.11606,-6.1642e-05,0.76,0.64,0
0.18612,0.02165,0.22469,-0.37173,-0.26559,-0.23613,0.0031269,0,0,-0.88139,-0.19144,0,0.04065,0,0,0.25146,-0.0032566,0,0.25148,-0.26549,-0.37182,-0.23613,88.314,-0.29115,0.12365,-7.8957e-05,0.78,0.64,0
0.168,0.020712,0.19949,-0.37133,-0.25612,-0.22814,0.002233,0,0,-0.93078,-0.18192,0,0.029029,0,0,0.25264,-0.0012059,0,0.25264,-0.25608,-0.37138,-0.22814,88.89,-0.2852,0.13151,-9.9277e-05,0.8,0.64,0
0.14889,0.019899,0.17416,-0.37124,-0.2468,-0.22024,0.0014458,0,0,-0.98145,-0.17263,0,0.018795,0,0,0.2542,0.00086688,0,0.2542,-0.24679,-0.37125,-0.22024,89.334,-0.27943,0.13964,-0.000123,0.82,0.64,0
0.12875,0.019235,0.14865,-0.37144,-0.23763,-0.21245,0.00082434,0,0,-1.0334,-0.16367,0,0.010717,0,0,0.25619,0.0028818,0,0.25621,-0.23763,-0.37144,-0.21245,89.647,-0.27384,0.14802,-0.00015045,0.84,0.64,0
0.10755,0.018744,0.12292,-0.3719,-0.22864,-0.20475,0.00042646,0,0,-1.0865,-0.15531,0,0.0055439,0,0,0.25864,0.0046909,0,0.25869,-0.22864,-0.3719,-0.20475,89.829,-0.26843,0.15658,-0.00018178,0.86,0.64,0
0.085288,0.018445,0.096925,-0.37254,-0.21985,-0.1971,0.00029229,0,0,-1.1403,-0.14786,0,0.0037998,0,0,0.26152,0.0060691,0,0.26159,-0.21985,-0.37254,-0.1971,89.89,-0.26316,0.16524,-0.00021699,0.88,0.64,0
0.06194,0.018347,0.07062,-0.37324,-0.21124,-0.18947,0.00045172,0,0,-1.1946,-0.1415,0,0.0058724,0,0,0.26466,0.0067366,0,0.26475,-0.21124,-0.37325,-0.18947,89.84,-0.25798,0.17392,-0.00025597,0.9,0.64,0
0.037506,0.018456,0.043993,-0.37387,-0.20272,-0.18177,0.00095021,0,0,-1.2486,-0.13613,0,0.012353,0,0,0.26778,0.0064296,0,0.26786,-0.20271,-0.37387,-0.18177,89.682,-0.25278,0.18253,-0.00029854,0.92,0.64,0
0.011996,0.018782,0.017064,-0.37313,-0.26146,-0.20061,0.0025285,0,0,-0.73447,-0.13182,0,0.013851,0,0,0.27278,0.015014,0,0.2734,-0.26131,-0.37328,-0.20061,87.579,-0.2784,0.15937,-0.00012747,0.94,0.64,0
0.0081271,0.018934,0.011539,-0.37319,-0.32845,-0.22203,0.0045727,0,0,-0.19651,-0.13835,0,0.011889,0,0,0.28103,0.020458,0,0.28181,-0.32799,-0.37365,-0.22203,84.223,-0.30789,0.13472,7.8684e-05,0.96,0.64,0
0.0041357,0.019141,0.0058228,-0.37213,-0.32793,-0.21584,0.0036066,0,0,-0.20318,-0.14571,0,0.0093771,0,0,0.28847,0.011483,0,0.28868,-0.32764,-0.37243,-0.21584,85.366,-0.3053,0.13968,9.2996e-05,0.98,0.64,0
0,0.01923,0,-0.36414,-0.31944,-0.20507,0.001708,0,0,-0.20678,-0.14868,0,0.0044409,0,0,0.29114,-5.6378e-18,0,0.2911,-0.31938,-0.3642,-0.20507,87.815,-0.29622,0.14212,9.9497e-05,1,0.64,0
0,0.031719,1,-0.55032,-2.0953,-1.7937,0.0081206,0,0,1.6164,-0.39207,0,0.021113,0,0,0.31169,2.3939e-16,0,0.31116,-0.55028,-2.0953,-1.7937,0.30115,-1.4798,1.4185,0.12453,0,0.66,0
0.032327,0.032142,0.99377,-0.53205,-2.1037,-1.7845,0.039972,0,0,1.6282,-0.41499,0,0.10393,0,0,0.30101,-0.043275,0,0.30386,-0.53104,-2.1047,-1.7845,1.4559,-1.4734,1.4405,0.12832,0.02,0.66,0
0.065127,0.033069,0.98796,-0.50604,-2.1402,-1.7818,0.059614,0,0,1.6585,-0.46584,0,0.155,0,0,0.27091,-0.078557,0,0.28258,-0.50387,-2.1423,-1.7818,2.0865,-1.476,1.4913,0.13735,0.04,0.66,0
0.098668,0.033684,0.98293,-0.4452,-1.3628,-1.1322,0.057798,0,0,1.1112,-0.49978,0,0.41841,0,0,0.23742,-0.058505,0,0.24748,-0.43642,-1.3716,-1.1322,9.2617,-0.98007,0.84435,0.071407,0.06,0.66,0
0.10958,0.044378,0.96059,-0.40515,-0.62159,-0.50014,0.045345,0,0,0.61743,-0.7894,0,0.58948,0,0,0.21811,-0.024694,0,0.21957,-0.39603,-0.6307,-0.50014,11.367,-0.50896,0.20366,-8.4061e-05,0.08,0.66,0
0.12337,0.051851,0.93931,-0.38522,-0.64461,-0.49681,0.031974,0,0,0.72534,-0.9607,0,0.41565,0,0,0.20821,-0.02586,0,0.20986,-0.38134,-0.6485,-0.49681,6.9244,-0.50888,0.23207,-0.00014902,0.1,0.66,0
0.13859,0.056247,0.91895,-0.37233,-0.65358,-0.49156,0.021345,0,0,0.775,-1.0531,0,0.27749,0,0,0.19999,-0.024676,0,0.20153,-0.37072,-0.65519,-0.49156,4.3156,-0.50582,0.24728,-0.00019954,0.12,0.66,0
0.15437,0.058436,0.89931,-0.36406,-0.65495,-0.48557,0.014977,0,0,0.78979,-1.101,0,0.1947,0,0,0.19393,-0.023109,0,0.19531,-0.36329,-0.65572,-0.48557,2.9396,-0.50153,0.25438,-0.00023588,0.14,0.66,0
0.17018,0.059196,0.88017,-0.35838,-0.65177,-0.47908,0.011865,0,0,0.78456,-1.1225,0,0.15425,0,0,0.18973,-0.021902,0,0.191,-0.3579,-0.65225,-0.47908,2.3121,-0.49641,0.25624,-0.00025939,0.16,0.66,0
0.18575,0.059067,0.86136,-0.35323,-0.64521,-0.4718,0.010682,0,0,0.77074,-1.1271,0,0.13886,0,0,0.18729,-0.020799,0,0.18845,-0.35284,-0.6456,-0.4718,2.0924,-0.49008,0.25502,-0.00027048,0.18,0.66,0
0.20086,0.058373,0.84278,-0.3514,-0.63794,-0.46536,0.0092274,0,0,0.74071,-1.1218,0,0.11996,0,0,0.18516,-0.020093,0,0.18625,-0.35111,-0.63823,-0.46536,1.8426,-0.4849,0.25038,-0.00027796,0.2,0.66,0
0.21538,0.057279,0.82433,-0.34871,-0.62685,-0.45754,0.009721,0,0,0.70735,-1.1005,0,0.12637,0,0,0.18427,-0.020126,0,0.18537,-0.34837,-0.62719,-0.45754,1.9992,-0.4777,0.24335,-0.0002703,0.22,0.66,0
0.22915,0.055806,0.80593,-0.34835,-0.61333,-0.44969,0.011034,0,0,0.65872,-1.0636,0,0.14344,0,0,0.18431,-0.019858,0,0.18538,-0.34789,-0.61378,-0.44969,2.3804,-0.47045,0.23237,-0.00025294,0.24,0.66,0
0.24203,0.05383,0.78748,-0.34551,-0.59634,-0.44005,0.011031,0,0,0.61454,-1.0159,0,0.1434,0,0,0.18524,-0.018745,0,0.18619,-0.34503,-0.59683,-0.44005,2.5131,-0.46064,0.22024,-0.0002247,0.26,0.66,0
0.25374,0.051064,0.76888,-0.3471,-0.57689,-0.43097,0.007725,0,0,0.5452,-0.94848,0,0.10043,0,0,0.18762,-0.017046,0,0.1884,-0.34684,-0.57715,-0.43097,1.9232,-0.45165,0.20186,-0.00018863,0.28,0.66,0
0.26383,0.047093,0.74996,-0.35224,-0.55138,-0.42108,0.0016517,0,0,0.44745,-0.84697,0,0.021472,0,0,0.19173,-0.014947,0,0.19233,-0.35223,-0.5514,-0.42108,0.47517,-0.44157,0.1752,-0.00013939,0.3,0.66,0
0.27164,0.041514,0.73054,-0.36215,-0.51617,-0.4096,-0.0056843,0,0,0.30846,-0.69271,0,-0.073896,0,0,0.19749,-0.013707,0,0.19799,-0.36194,-0.51638,-0.4096,-2.1107,-0.42931,0.13698,-8.0148e-05,0.32,0.66,0
0.27617,0.034425,0.71046,-0.39093,-1.0868,-0.86959,-0.012035,0,0,0.71304,-0.47151,0,-0.079428,0,0,0.21041,-0.052812,0,0.21973,-0.39045,-1.0873,-0.86959,-2.7696,-0.78243,0.62179,0.026146,0.34,0.66,0
0.30016,0.029011,0.70606,-0.42368,-1.643,-1.3261,-0.013328,0,0,1.1731,-0.41206,0,-0.034653,0,0,0.23392,-0.096382,0,0.25303,-0.42353,-1.6432,-1.3261,-0.62617,-1.1309,1.0961,0.049031,0.36,0.66,0
0.3231,0.023532,0.70111,-0.44846,-1.5711,-1.307,-0.0030287,0,0,1.1161,-0.34338,0,-0.0078747,0,0,0.25937,-0.10097,0,0.27843,-0.44845,-1.5711,-1.307,-0.15457,-1.1088,1.0167,0.041939,0.38,0.66,0
0.34511,0.018344,0.6958,-0.4458,-1.4976,-1.2788,0.014095,0,0,1.0829,-0.2844,0,0.036647,0,0,0.2691,-0.11418,0,0.29229,-0.44561,-1.4978,-1.2788,0.76765,-1.0741,0.96157,0.037803,0.4,0.66,0
0.36642,0.013745,0.69034,-0.42989,-0.93765,-0.82447,0.030034,0,0,0.43418,-0.24523,0,0.25572,0,0,0.27374,-0.073778,0,0.28748,-0.41423,-0.95331,-0.82447,21.684,-0.73067,0.49895,0.017755,0.42,0.66,0
0.36248,0.016682,0.6629,-0.4184,-0.42882,-0.38675,0.035015,0,0,-0.20578,-0.27347,0,0.4552,0,0,0.27372,-0.028111,0,0.27516,-0.38821,-0.45901,-0.38675,40.771,-0.41132,0.071544,-1.8782e-05,0.44,0.66,0
0.35818,0.019627,0.6356,-0.41276,-0.42399,-0.37814,0.03393,0,0,-0.225,-0.29799,0,0.44108,0,0,0.27172,-0.029936,0,0.27337,-0.38398,-0.45276,-0.37814,40.302,-0.40496,0.071879,-1.865e-05,0.46,0.66,0
0.35348,0.022196,0.60855,-0.40745,-0.41756,-0.36921,0.031054,0,0,-0.24856,-0.31423,0,0.4037,0,0,0.26896,-0.030335,0,0.27066,-0.38104,-0.44397,-0.36921,40.381,-0.39807,0.069597,-1.5641e-05,0.48,0.66,0
0.34824,0.024199,0.58181,-0.40281,-0.40957,-0.36007,0.027426,0,0,-0.27775,-0.32174,0,0.35653,0,0,0.26594,-0.029652,0,0.26759,-0.37856,-0.43382,-0.36007,41.483,-0.39082,0.066464,-1.1241e-05,0.5,0.66,0
0.34237,0.025586,0.55536,-0.39884,-0.40038,-0.35084,0.023717,0,0,-0.312,-0.32201,0,0.30832,0,0,0.26301,-0.028235,0,0.26452,-0.37588,-0.42334,-0.35084,44.07,-0.38335,0.063778,-6.7358e-06,0.52,0.66,0
0.33576,0.026394,0.5292,-0.39544,-0.39033,-0.34157,0.02028,0,0,-0.35016,-0.31692,0,0.26365,0,0,0.26036,-0.026384,0,0.2617,-0.37245,-0.41333,-0.34157,48.593,-0.37578,0.062343,-2.9713e-06,0.54,0.66,0
0.32836,0.026701,0.50329,-0.3925,-0.37975,-0.33233,0.017263,0,0,-0.39112,-0.30818,0,0.22442,0,0,0.25808,-0.024324,0,0.25922,-0.36772,-0.40453,-0.33233,55.141,-0.36819,0.062528,-4.2814e-07,0.56,0.66,0
0.32012,0.026597,0.47759,-0.38992,-0.36886,-0.32315,0.014695,0,0,-0.43398,-0.29712,0,0.19103,0,0,0.25618,-0.022211,0,0.25714,-0.36131,-0.39747,-0.32315,62.81,-0.36064,0.064367,6.4056e-07,0.58,0.66,0
0.311,0.026173,0.45206,-0.3876,-0.35785,-0.31405,0.012545,0,0,-0.47811,-0.28474,0,0.16309,0,0,0.25464,-0.020133,0,0.25544,-0.35327,-0.39219,-0.31405,69.927,-0.35317,0.067671,1.0771e-07,0.6,0.66,0
0.30099,0.02551,0.42666,-0.38551,-0.34685,-0.30504,0.010759,0,0,-0.52304,-0.27178,0,0.13986,0,0,0.25344,-0.018136,0,0.25408,-0.34406,-0.3883,-0.30504,75.448,-0.3458,0.072152,-2.0897e-06,0.62,0.66,0
0.29008,0.024679,0.40137,-0.38359,-0.33594,-0.29613,0.0092692,0,0,-0.56847,-0.25876,0,0.1205,0,0,0.25253,-0.016234,0,0.25305,-0.3342,-0.38533,-0.29613,79.37,-0.33856,0.077522,-5.9878e-06,0.64,0.66,0
0.27825,0.023738,0.37615,-0.38183,-0.32519,-0.28734,0.0080108,0,0,-0.61424,-0.24602,0,0.10414,0,0,0.2519,-0.014421,0,0.25231,-0.32407,-0.38295,-0.28734,82.104,-0.33145,0.083536,-1.1621e-05,0.66,0.66,0
0.26551,0.022736,0.35099,-0.38023,-0.31461,-0.27865,0.0069244,0,0,-0.66028,-0.23374,0,0.090016,0,0,0.25152,-0.012679,0,0.25184,-0.31389,-0.38095,-0.27865,84.042,-0.3245,0.090016,-1.9041e-05,0.68,0.66,0
0.25184,0.021712,0.32585,-0.37878,-0.30424,-0.27008,0.0059606,0,0,-0.7066,-0.22205,0,0.077487,0,0,0.25138,-0.010986,0,0.25162,-0.30377,-0.37926,-0.27008,85.457,-0.3177,0.096837,-2.8326e-05,0.7,0.66,0
0.23725,0.020696,0.30071,-0.3775,-0.29407,-0.26161,0.0050825,0,0,-0.75328,-0.21096,0,0.066072,0,0,0.25149,-0.0093164,0,0.25166,-0.29376,-0.37781,-0.26161,86.527,-0.31106,0.10392,-3.9595e-05,0.72,0.66,0
0.22171,0.019714,0.27555,-0.37641,-0.28411,-0.25327,0.0042668,0,0,-0.80043,-0.20047,0,0.055468,0,0,0.25183,-0.0076487,0,0.25195,-0.28391,-0.3766,-0.25327,87.359,-0.30459,0.11123,-5.3006e-05,0.74,0.66,0
0.20523,0.018787,0.25034,-0.37551,-0.27434,-0.24502,0.0035047,0,0,-0.84816,-0.19055,0,0.045561,0,0,0.25244,-0.0059654,0,0.25251,-0.27422,-0.37563,-0.24502,88.018,-0.29829,0.11873,-6.8762e-05,0.76,0.66,0
0.18779,0.017937,0.22506,-0.37483,-0.26476,-0.23689,0.0028023,0,0,-0.89659,-0.18117,0,0.036429,0,0,0.25333,-0.0042594,0,0.25336,-0.26469,-0.3749,-0.23689,88.543,-0.29216,0.12642,-8.7093e-05,0.78,0.66,0
0.16937,0.017182,0.19968,-0.37436,-0.25537,-0.22886,0.0021791,0,0,-0.94579,-0.17235,0,0.028328,0,0,0.25451,-0.0025402,0,0.25452,-0.25533,-0.3744,-0.22886,88.951,-0.2862,0.13428,-0.00010824,0.8,0.66,0
0.14995,0.016543,0.17416,-0.37411,-0.24617,-0.22092,0.0016651,0,0,-0.99577,-0.16415,0,0.021646,0,0,0.25602,-0.00084195,0,0.25602,-0.24615,-0.37414,-0.22092,89.254,-0.2804,0.14229,-0.00013241,0.82,0.66,0
0.12954,0.016042,0.14848,-0.37406,-0.23718,-0.21307,0.0012928,0,0,-1.0464,-0.15674,0,0.016807,0,0,0.25786,0.00076662,0,0.25786,-0.23717,-0.37407,-0.21307,89.459,-0.27477,0.15041,-0.00015973,0.84,0.66,0
0.1081,0.015695,0.12259,-0.37415,-0.22841,-0.20528,0.0010883,0,0,-1.0976,-0.1503,0,0.014148,0,0,0.26001,0.002176,0,0.26002,-0.2284,-0.37416,-0.20528,89.572,-0.26928,0.15858,-0.00019023,0.86,0.66,0
0.085631,0.015519,0.096475,-0.37432,-0.21986,-0.19755,0.0010658,0,0,-1.149,-0.14502,0,0.013855,0,0,0.26238,0.0032394,0,0.2624,-0.21985,-0.37433,-0.19755,89.605,-0.26391,0.16675,-0.00022384,0.88,0.66,0
0.062136,0.01552,0.070114,-0.37451,-0.21152,-0.18983,0.0012321,0,0,-1.2004,-0.14095,0,0.016018,0,0,0.26483,0.0037948,0,0.26486,-0.21151,-0.37452,-0.18983,89.567,-0.25862,0.17486,-0.00026043,0.9,0.66,0
0.037614,0.015705,0.043509,-0.37461,-0.20332,-0.18208,0.0016034,0,0,-1.2514,-0.13804,0,0.020844,0,0,0.26713,0.0037078,0,0.26715,-0.2033,-0.37463,-0.18208,89.464,-0.25334,0.18286,-0.00029983,0.92,0.66,0
0.012077,0.016082,0.016689,-0.37422,-0.26458,-0.20165,0.0024552,0,0,-0.73507,-0.13634,0,0.01574,0,0,0.27052,0.0087762,0,0.27074,-0.26446,-0.37434,-0.20165,87.686,-0.28015,0.15966,-0.00012247,0.94,0.66,0
0.0082113,0.016153,0.011232,-0.37385,-0.32919,-0.22214,0.0033042,0,0,-0.19722,-0.13916,0,0.0085908,0,0,0.27595,0.01198,0,0.27623,-0.32894,-0.37409,-0.22214,85.792,-0.30839,0.13515,8.0742e-05,0.96,0.66,0
0.0041887,0.016256,0.0056508,-0.37299,-0.3251,-0.21508,0.0024188,0,0,-0.20528,-0.14303,0,0.006289,0,0,0.28081,0.0067296,0,0.28088,-0.32498,-0.37311,-0.21508,87.116,-0.30439,0.1403,8.7625e-05,0.98,0.66,0
0,0.016301,0,-0.3654,-0.31559,-0.2043,0.00086913,0,0,-0.20943,-0.14468,0,0.0022597,0,0,0.28254,1.0842e-18,0,0.28253,-0.31558,-0.36542,-0.2043,89.001,-0.2951,0.14287,9.0668e-05,1,0.66,0
0,0.023186,1,-0.51342,-2.1349,-1.7945,0.0026911,0,0,1.6654,-0.44254,0,0.0069969,0,0,0.27964,-4.4496e-16,0,0.27945,-0.51342,-2.1349,-1.7945,0.09509,-1.4809,1.4809,0.13756,0,0.68,0
0.033308,0.023325,0.99441,-0.49984,-2.1326,-1.7841,0.017497,0,0,1.6696,-0.45295,0,0.045492,0,0,0.27214,-0.02399,0,0.27315,-0.49965,-2.1327,-1.7841,0.61391,-1.4722,1.4897,0.13895,0.02,0.68,0
0.066783,0.023615,0.98911,-0.48373,-2.1437,-1.7774,0.027256,0,0,1.6817,-0.4763,0,0.070867,0,0,0.25129,-0.04328,0,0.25531,-0.48328,-2.1442,-1.7774,0.94042,-1.4683,1.5113,0.14268,0.04,0.68,0
0.10058,0.023815,0.98436,-0.43538,-1.3556,-1.1279,0.028305,0,0,1.122,-0.49333,0,0.21084,0,0,0.22826,-0.032266,0,0.23168,-0.433,-1.358,-1.1279,5.0488,-0.97296,0.83659,0.072575,0.06,0.68,0
0.11166,0.029306,0.9625,-0.40042,-0.60894,-0.49531,0.024018,0,0,0.61677,-0.73863,0,0.31223,0,0,0.21473,-0.014941,0,0.21528,-0.39769,-0.61167,-0.49531,6.4862,-0.50156,0.18555,-4.9556e-05,0.08,0.68,0
0.12525,0.033231,0.94141,-0.38281,-0.63421,-0.49339,0.017486,0,0,0.71874,-0.91534,0,0.22732,0,0,0.20713,-0.017106,0,0.20787,-0.3816,-0.63542,-0.49339,3.9598,-0.50347,0.22033,-0.00011241,0.1,0.68,0
0.14041,0.035527,0.92107,-0.36965,-0.64725,-0.48929,0.011888,0,0,0.77762,-1.0268,0,0.15455,0,0,0.20014,-0.01794,0,0.20097,-0.36914,-0.64776,-0.48929,2.4478,-0.50206,0.24205,-0.00017156,0.12,0.68,0
0.15635,0.036555,0.90138,-0.36055,-0.65189,-0.48401,0.0085167,0,0,0.80249,-1.0913,0,0.11072,0,0,0.19439,-0.018221,0,0.19526,-0.3603,-0.65214,-0.48401,1.673,-0.49882,0.25372,-0.00021806,0.14,0.68,0
0.17251,0.036755,0.88219,-0.3542,-0.65086,-0.47796,0.0072276,0,0,0.80444,-1.1239,0,0.093958,0,0,0.19005,-0.018481,0,0.19095,-0.35402,-0.65104,-0.47796,1.3948,-0.49434,0.2584,-0.00024975,0.16,0.68,0
0.18853,0.036473,0.86337,-0.34959,-0.6458,-0.47129,0.0074039,0,0,0.79104,-1.1343,0,0.096251,0,0,0.18701,-0.018897,0,0.18797,-0.34941,-0.64599,-0.47129,1.431,-0.4889,0.2582,-0.00026744,0.18,0.68,0
0.20415,0.035937,0.84479,-0.34618,-0.63759,-0.46409,0.0084513,0,0,0.76642,-1.1278,0,0.10987,0,0,0.18514,-0.019439,0,0.18616,-0.34593,-0.63784,-0.46409,1.6598,-0.48262,0.25432,-0.00027259,0.2,0.68,0
0.21919,0.035268,0.82634,-0.34377,-0.62662,-0.45639,0.009832,0,0,0.73201,-1.1065,0,0.12782,0,0,0.18433,-0.019977,0,0.18541,-0.34343,-0.62696,-0.45639,1.9884,-0.47559,0.24723,-0.00026642,0.22,0.68,0
0.23344,0.034495,0.80793,-0.34249,-0.61281,-0.44817,0.011024,0,0,0.68693,-1.0701,0,0.14332,0,0,0.18458,-0.020346,0,0.1857,-0.34204,-0.61325,-0.44817,2.3316,-0.46782,0.23672,-0.00024922,0.24,0.68,0
0.24666,0.033556,0.78943,-0.34283,-0.5956,-0.43941,0.011502,0,0,0.6278,-1.0152,0,0.14952,0,0,0.18596,-0.02041,0,0.18708,-0.34231,-0.59612,-0.43941,2.6,-0.45928,0.22182,-0.00022048,0.26,0.68,0
0.25855,0.032303,0.77073,-0.34553,-0.57385,-0.42996,0.01079,0,0,0.54881,-0.9353,0,0.14028,0,0,0.18857,-0.020152,0,0.18965,-0.34502,-0.57436,-0.42996,2.6997,-0.44978,0.20083,-0.00017935,0.28,0.68,0
0.26862,0.03053,0.75171,-0.35146,-0.54592,-0.41956,0.0088211,0,0,0.44262,-0.82136,0,0.11467,0,0,0.1924,-0.019821,0,0.19343,-0.35106,-0.54632,-0.41956,2.592,-0.43898,0.17159,-0.00012709,0.3,0.68,0
0.27625,0.028083,0.73225,-0.36073,-0.50995,-0.40765,0.0063291,0,0,0.30502,-0.66491,0,0.082279,0,0,0.19715,-0.019897,0,0.19817,-0.36046,-0.51021,-0.40765,2.4244,-0.42611,0.13261,-7.0658e-05,0.32,0.68,0
0.28082,0.025023,0.71228,-0.3896,-1.0874,-0.87047,0.0052279,0,0,0.71645,-0.46999,0,0.042542,0,0,0.20723,-0.062632,0,0.21995,-0.38944,-1.0875,-0.87047,1.588,-0.78248,0.62309,0.026499,0.34,0.68,0
0.30491,0.02077,0.70799,-0.41748,-1.6442,-1.3265,0.0076256,0,0,1.1817,-0.413,0,0.019827,0,0,0.22608,-0.10826,0,0.25093,-0.41744,-1.6442,-1.3265,0.35615,-1.1294,1.1028,0.050093,0.36,0.68,0
0.32809,0.016557,0.70324,-0.43127,-1.5753,-1.3052,0.012781,0,0,1.1361,-0.35114,0,0.03323,0,0,0.24614,-0.11546,0,0.27199,-0.43112,-1.5755,-1.3052,0.63997,-1.1039,1.036,0.044276,0.38,0.68,0
0.35036,0.012476,0.69814,-0.44124,-1.5119,-1.2841,0.020199,0,0,1.0957,-0.29615,0,0.052516,0,0,0.26085,-0.12262,0,0.28828,-0.44086,-1.5123,-1.2841,1.0804,-1.0791,0.9775,0.0393,0.4,0.68,0
0.37191,0.0086569,0.69281,-0.42848,-0.94768,-0.82853,0.027988,0,0,0.4445,-0.25816,0,0.2283,0,0,0.26934,-0.076108,0,0.28425,-0.41562,-0.96054,-0.82853,20.702,-0.7349,0.5041,0.018482,0.42,0.68,0
0.36813,0.011259,0.66562,-0.41868,-0.42836,-0.38724,0.030127,0,0,-0.2044,-0.26731,0,0.39165,0,0,0.27177,-0.02704,0,0.27311,-0.39301,-0.45404,-0.38724,40.437,-0.41143,0.064107,-1.3162e-05,0.44,0.68,0
0.36374,0.013858,0.63845,-0.41453,-0.42152,-0.37851,0.028998,0,0,-0.23417,-0.27959,0,0.37697,0,0,0.27096,-0.027764,0,0.27238,-0.38882,-0.44723,-0.37851,41.565,-0.40485,0.064196,-1.2414e-05,0.46,0.68,0
0.35877,0.016171,0.61143,-0.41008,-0.41415,-0.36956,0.02655,0,0,-0.26342,-0.28989,0,0.34515,0,0,0.26919,-0.027637,0,0.27061,-0.38549,-0.43875,-0.36956,42.808,-0.39793,0.062759,-9.9897e-06,0.48,0.68,0
0.3532,0.01804,0.58461,-0.4058,-0.40597,-0.36045,0.023492,0,0,-0.29473,-0.29586,0,0.3054,0,0,0.26692,-0.026836,0,0.26827,-0.38239,-0.42938,-0.36045,44.894,-0.39074,0.060988,-6.7737e-06,0.5,0.68,0
0.34698,0.019411,0.55805,-0.40188,-0.39697,-0.35126,0.020329,0,0,-0.32901,-0.29709,0,0.26428,0,0,0.26449,-0.025559,0,0.26572,-0.37895,-0.4199,-0.35126,48.444,-0.38337,0.059812,-3.5971e-06,0.52,0.68,0
0.34004,0.020298,0.53172,-0.39839,-0.3873,-0.34205,0.017359,0,0,-0.36621,-0.29413,0,0.22567,0,0,0.26212,-0.023985,0,0.26322,-0.37463,-0.41107,-0.34205,53.857,-0.37592,0.059804,-1.0658e-06,0.54,0.68,0
0.33233,0.020753,0.50562,-0.39531,-0.37715,-0.33286,0.014722,0,0,-0.40589,-0.28789,0,0.19139,0,0,0.25997,-0.022262,0,0.26092,-0.36893,-0.40353,-0.33286,60.828,-0.36844,0.061201,4.2728e-07,0.56,0.68,0
0.3238,0.020844,0.47972,-0.39257,-0.36669,-0.32372,0.01246,0,0,-0.44751,-0.27928,0,0.16198,0,0,0.25809,-0.020493,0,0.2589,-0.36166,-0.39759,-0.32372,68.042,-0.36099,0.063982,6.347e-07,0.58,0.68,0
0.31443,0.020644,0.454,-0.39013,-0.35605,-0.31466,0.01056,0,0,-0.49057,-0.26909,0,0.13728,0,0,0.25651,-0.018746,0,0.2572,-0.35305,-0.39313,-0.31466,74.105,-0.35361,0.067971,-6.0369e-07,0.6,0.68,0
0.30418,0.020221,0.42842,-0.38794,-0.34536,-0.30567,0.0089797,0,0,-0.5347,-0.25798,0,0.11674,0,0,0.25524,-0.017057,0,0.25581,-0.34355,-0.38975,-0.30567,78.564,-0.34632,0.072933,-3.3999e-06,0.62,0.68,0
0.29304,0.019635,0.40295,-0.38596,-0.3347,-0.29679,0.0076695,0,0,-0.57961,-0.24644,0,0.099703,0,0,0.25425,-0.01544,0,0.25472,-0.33358,-0.38709,-0.29679,81.67,-0.33915,0.078642,-7.8429e-06,0.64,0.68,0
0.281,0.018938,0.37757,-0.38418,-0.32414,-0.28801,0.0065761,0,0,-0.62511,-0.23483,0,0.085489,0,0,0.25355,-0.013892,0,0.25393,-0.32343,-0.38489,-0.28801,83.823,-0.33211,0.084908,-1.4016e-05,0.66,0.68,0
0.26804,0.018174,0.35224,-0.38258,-0.3137,-0.27933,0.0056511,0,0,-0.67111,-0.2234,0,0.073464,0,0,0.25312,-0.012402,0,0.25342,-0.31324,-0.38304,-0.27933,85.341,-0.32521,0.091589,-2.2009e-05,0.68,0.68,0
0.25415,0.017377,0.32695,-0.38116,-0.30343,-0.27077,0.0048531,0,0,-0.71756,-0.21231,0,0.063091,0,0,0.25295,-0.010955,0,0.25318,-0.30313,-0.38146,-0.27077,86.441,-0.31845,0.098583,-3.1926e-05,0.7,0.68,0
0.23933,0.016579,0.30166,-0.37991,-0.29333,-0.2623,0.0041506,0,0,-0.76446,-0.20167,0,0.053957,0,0,0.25303,-0.0095332,0,0.25321,-0.29313,-0.38011,-0.2623,87.262,-0.31185,0.10582,-4.3894e-05,0.72,0.68,0
0.22357,0.015803,0.27634,-0.37885,-0.28342,-0.25395,0.0035225,0,0,-0.81186,-0.19155,0,0.045792,0,0,0.25338,-0.0081204,0,0.25351,-0.28329,-0.37898,-0.25395,87.889,-0.30541,0.11325,-5.8057e-05,0.74,0.68,0
0.20686,0.015072,0.25098,-0.37797,-0.2737,-0.2457,0.0029592,0,0,-0.85977,-0.18202,0,0.038469,0,0,0.254,-0.0067051,0,0.25408,-0.27362,-0.37805,-0.2457,88.376,-0.29912,0.12084,-7.4575e-05,0.76,0.68,0
0.18918,0.014404,0.22554,-0.37727,-0.26418,-0.23754,0.0024621,0,0,-0.90822,-0.17315,0,0.032007,0,0,0.25489,-0.0052837,0,0.25494,-0.26413,-0.37732,-0.23754,88.753,-0.293,0.12857,-9.3607e-05,0.78,0.68,0
0.17053,0.013818,0.2,-0.37674,-0.25487,-0.22949,0.0020418,0,0,-0.95719,-0.16502,0,0.026543,0,0,0.25606,-0.0038651,0,0.25609,-0.25484,-0.37678,-0.22949,89.04,-0.28703,0.1364,-0.00011529,0.8,0.68,0
0.1509,0.013333,0.17433,-0.37638,-0.24579,-0.22151,0.0017143,0,0,-1.0066,-0.15776,0,0.022285,0,0,0.2575,-0.0024758,0,0.25752,-0.24576,-0.3764,-0.22151,89.248,-0.28123,0.1443,-0.00013973,0.82,0.68,0
0.13027,0.012966,0.1485,-0.37613,-0.23693,-0.21362,0.0014957,0,0,-1.0563,-0.15152,0,0.019444,0,0,0.25921,-0.001164,0,0.25921,-0.23691,-0.37615,-0.21362,89.385,-0.27556,0.15222,-0.00016696,0.84,0.68,0
0.10864,0.012732,0.12249,-0.37598,-0.22832,-0.20579,0.0013968,0,0,-1.1063,-0.14644,0,0.018159,0,0,0.26112,-9.0737e-07,0,0.26112,-0.2283,-0.37599,-0.20579,89.458,-0.27003,0.16014,-0.00019694,0.86,0.68,0
0.086017,0.012644,0.096277,-0.37588,-0.21993,-0.198,0.0014207,0,0,-1.1562,-0.14258,0,0.01847,0,0,0.26314,0.000925,0,0.26314,-0.21992,-0.37589,-0.198,89.478,-0.2646,0.168,-0.00022963,0.88,0.68,0
0.062394,0.012709,0.069861,-0.37576,-0.21176,-0.19023,0.0015665,0,0,-1.206,-0.13993,0,0.020364,0,0,0.26513,0.0015236,0,0.26514,-0.21174,-0.37578,-0.19023,89.453,-0.25925,0.17578,-0.00026494,0.9,0.68,0
0.037778,0.012935,0.043251,-0.37559,-0.20375,-0.18245,0.0018358,0,0,-1.2554,-0.13841,0,0.023865,0,0,0.26691,0.0017276,0,0.26692,-0.20373,-0.37561,-0.18245,89.388,-0.25393,0.18345,-0.00030276,0.92,0.68,0
0.012177,0.013328,0.016479,-0.37541,-0.26603,-0.20232,0.00225,0,0,-0.73703,-0.13803,0,0.015654,0,0,0.26935,0.0045614,0,0.26941,-0.26594,-0.3755,-0.20232,87.962,-0.28125,0.16019,-0.0001217,0.94,0.68,0
0.0082967,0.013368,0.011059,-0.37503,-0.32932,-0.22236,0.0023948,0,0,-0.19846,-0.13904,0,0.0062264,0,0,0.27314,0.0063318,0,0.27322,-0.3292,-0.37515,-0.22236,87.009,-0.3089,0.13577,8.0663e-05,0.96,0.68,0
0.004239,0.01342,0.0055536,-0.37437,-0.32318,-0.21482,0.0015919,0,0,-0.20742,-0.14087,0,0.004139,0,0,0.27649,0.0035845,0,0.27651,-0.32313,-0.37442,-0.21482,88.221,-0.30412,0.14113,8.273e-05,0.98,0.68,0
0,0.013443,0,-0.36706,-0.31301,-0.20402,0.00043731,0,0,-0.21195,-0.14169,0,0.001137,0,0,0.27768,1.7347e-18,0,0.27768,-0.31301,-0.36706,-0.20402,89.536,-0.2947,0.14384,8.3309e-05,1,0.68,0
0,0.014018,1,-0.49726,-2.1497,-1.7941,0.00011483,0,0,1.6859,-0.4623,0,0.00029856,0,0,0.26371,-6.85e-16,0,0.26367,-0.49726,-2.1497,-1.7941,0.0039816,-1.4804,1.5065,0.14315,0,0.7,0
0.033718,0.014023,0.99473,-0.48606,-2.1436,-1.7836,0.0036678,0,0,1.6868,-0.46793,0,0.0095361,0,0,0.25773,-0.0094748,0,0.25795,-0.48605,-2.1436,-1.7836,0.12679,-1.4711,1.5101,0.14355,0.02,0.7,0
0.067473,0.014016,0.98969,-0.47343,-2.145,-1.7752,0.0055095,0,0,1.6923,-0.48069,0,0.014325,0,0,0.24112,-0.017335,0,0.24199,-0.47341,-2.145,-1.7752,0.18885,-1.4645,1.5208,0.14527,0.04,0.7,0
0.10141,0.013951,0.98508,-0.43058,-1.3541,-1.1264,0.0055806,0,0,1.1294,-0.49325,0,0.039954,0,0,0.22274,-0.013396,0,0.22351,-0.43049,-1.3542,-1.1264,0.96903,-0.97038,0.83584,0.073384,0.06,0.7,0
0.11265,0.014833,0.96358,-0.39778,-0.60406,-0.49327,0.0043573,0,0,0.62067,-0.72013,0,0.056644,0,0,0.21176,-0.007418,0,0.21191,-0.39769,-0.60415,-0.49327,1.2096,-0.49837,0.17896,-3.7666e-05,0.08,0.7,0
0.12624,0.015237,0.94273,-0.38095,-0.62962,-0.49172,0.0027461,0,0,0.71998,-0.89635,0,0.035699,0,0,0.20521,-0.0097287,0,0.20547,-0.38092,-0.62965,-0.49172,0.63263,-0.50076,0.21583,-9.6865e-05,0.1,0.7,0
0.14145,0.015176,0.92254,-0.36771,-0.64462,-0.48821,0.0016013,0,0,0.78324,-1.0167,0,0.020817,0,0,0.19887,-0.011587,0,0.19923,-0.3677,-0.64463,-0.48821,0.33132,-0.50018,0.2405,-0.00015884,0.12,0.7,0
0.15757,0.014786,0.90295,-0.35805,-0.65109,-0.48333,0.0014056,0,0,0.81432,-1.0904,0,0.018273,0,0,0.19339,-0.013234,0,0.19385,-0.35805,-0.65109,-0.48333,0.27483,-0.49749,0.25467,-0.00021027,0.14,0.7,0
0.17402,0.014241,0.88386,-0.35121,-0.65139,-0.47755,0.00216,0,0,0.82122,-1.1299,0,0.02808,0,0,0.18906,-0.014842,0,0.18965,-0.3512,-0.65141,-0.47755,0.41225,-0.49339,0.26107,-0.00024664,0.16,0.7,0
0.19042,0.013695,0.86514,-0.34632,-0.64721,-0.47109,0.0036748,0,0,0.81099,-1.1448,0,0.047773,0,0,0.18596,-0.016484,0,0.1867,-0.34627,-0.64725,-0.47109,0.69963,-0.4882,0.26192,-0.00026792,0.18,0.7,0
0.20646,0.013262,0.84667,-0.34281,-0.63951,-0.46403,0.0057187,0,0,0.78791,-1.1406,0,0.074343,0,0,0.18408,-0.018144,0,0.18497,-0.3427,-0.63962,-0.46403,1.1038,-0.48212,0.25856,-0.00027536,0.2,0.7,0
0.22193,0.013017,0.82833,-0.3405,-0.62868,-0.45642,0.0080701,0,0,0.75348,-1.1197,0,0.10491,0,0,0.18336,-0.019755,0,0.18442,-0.34027,-0.62891,-0.45642,1.6028,-0.4752,0.25154,-0.00027005,0.22,0.7,0
0.2366,0.013002,0.81,-0.33952,-0.61464,-0.44825,0.010517,0,0,0.70672,-1.0815,0,0.13672,0,0,0.18381,-0.021227,0,0.18503,-0.33912,-0.61504,-0.44825,2.186,-0.46747,0.24069,-0.00025243,0.24,0.7,0
0.2502,0.013222,0.79157,-0.34032,-0.5968,-0.43945,0.012853,0,0,0.64433,-1.0228,0,0.16709,0,0,0.18543,-0.02248,0,0.18679,-0.33968,-0.59745,-0.43945,2.8617,-0.45886,0.22512,-0.00022226,0.26,0.7,0
0.26237,0.013652,0.77291,-0.34357,-0.5741,-0.42988,0.014906,0,0,0.56105,-0.93741,0,0.19378,0,0,0.18821,-0.023482,0,0.18967,-0.3426,-0.57506,-0.42988,3.6842,-0.44918,0.20338,-0.00017953,0.28,0.7,0
0.27264,0.014239,0.75392,-0.34981,-0.54513,-0.41927,0.016565,0,0,0.45149,-0.81813,0,0.21535,0,0,0.19199,-0.024289,0,0.19353,-0.34841,-0.54653,-0.41927,4.8133,-0.43807,0.17388,-0.00012677,0.3,0.7,0
0.28043,0.014917,0.73452,-0.35908,-0.50902,-0.40733,0.017865,0,0,0.31365,-0.66095,0,0.23225,0,0,0.19643,-0.025044,0,0.19803,-0.35698,-0.51111,-0.40733,6.7018,-0.42514,0.13614,-7.237e-05,0.32,0.7,0
0.28519,0.015625,0.71464,-0.38804,-1.0901,-0.87223,0.019875,0,0,0.72455,-0.47208,0,0.15016,0,0,0.20555,-0.077731,0,0.2247,-0.38628,-1.0919,-0.87223,5.2423,-0.78346,0.6296,0.026972,0.34,0.7,0
0.30941,0.012491,0.71039,-0.41568,-1.6489,-1.3298,0.024901,0,0,1.1883,-0.41489,0,0.064743,0,0,0.22285,-0.13099,0,0.25871,-0.41517,-1.6494,-1.3298,1.1563,-1.1315,1.1095,0.051015,0.36,0.7,0
0.33272,0.0094868,0.70573,-0.43005,-1.5802,-1.3088,0.028465,0,0,1.1424,-0.35284,0,0.07401,0,0,0.24211,-0.13302,0,0.27638,-0.42934,-1.5809,-1.3088,1.4168,-1.1064,1.0425,0.045099,0.38,0.7,0
0.35511,0.0064976,0.70071,-0.44065,-1.5158,-1.2876,0.029101,0,0,1.1011,-0.29658,0,0.075661,0,0,0.25772,-0.13483,0,0.29093,-0.43986,-1.5166,-1.2876,1.5493,-1.0814,0.98245,0.039931,0.4,0.7,0
0.37677,0.0034191,0.69542,-0.42956,-0.95055,-0.83128,0.028113,0,0,0.44578,-0.25841,0,0.21597,0,0,0.26784,-0.081338,0,0.28489,-0.41776,-0.96234,-0.83128,20.631,-0.73713,0.50441,0.018733,0.42,0.7,0
0.37294,0.0059894,0.66831,-0.42034,-0.42739,-0.38798,0.02662,0,0,-0.21033,-0.25615,0,0.34606,0,0,0.27133,-0.026969,0,0.27267,-0.39701,-0.45071,-0.38798,41.229,-0.4119,0.058743,-9.5868e-06,0.44,0.7,0
0.36835,0.0084429,0.64115,-0.41692,-0.41922,-0.37907,0.024844,0,0,-0.24603,-0.26095,0,0.32297,0,0,0.27113,-0.026464,0,0.27242,-0.3932,-0.44294,-0.37907,43.677,-0.40507,0.058107,-8.1036e-06,0.46,0.7,0
0.3631,0.010601,0.61408,-0.41286,-0.41121,-0.37004,0.022354,0,0,-0.27835,-0.26764,0,0.2906,0,0,0.26988,-0.025618,0,0.2711,-0.38967,-0.4344,-0.37004,46.055,-0.39804,0.05714,-5.9091e-06,0.48,0.7,0
0.35722,0.012365,0.58717,-0.40867,-0.40289,-0.3609,0.019574,0,0,-0.3105,-0.2729,0,0.25446,0,0,0.26802,-0.024491,0,0.26913,-0.38599,-0.42557,-0.3609,49.202,-0.39082,0.056466,-3.4793e-06,0.5,0.7,0
0.35068,0.013703,0.56048,-0.40468,-0.39405,-0.35171,0.016813,0,0,-0.34425,-0.2752,0,0.21857,0,0,0.26586,-0.023166,0,0.26687,-0.38173,-0.417,-0.35171,53.766,-0.38348,0.056597,-1.2906e-06,0.52,0.7,0
0.34345,0.014629,0.534,-0.40102,-0.3847,-0.34252,0.014258,0,0,-0.38026,-0.27419,0,0.18536,0,0,0.26366,-0.021723,0,0.26455,-0.37643,-0.40929,-0.34252,59.89,-0.37608,0.057827,2.7296e-07,0.54,0.7,0
0.33547,0.015185,0.50774,-0.39774,-0.37491,-0.33334,0.012002,0,0,-0.41856,-0.27018,0,0.15603,0,0,0.26157,-0.020231,0,0.26235,-0.36976,-0.40289,-0.33334,66.78,-0.36866,0.060249,9.1988e-07,0.56,0.7,0
0.32671,0.015426,0.48169,-0.39482,-0.3648,-0.32422,0.010071,0,0,-0.45887,-0.26376,0,0.13092,0,0,0.25969,-0.018744,0,0.26037,-0.36174,-0.39788,-0.32422,73.069,-0.36128,0.063796,4.2751e-07,0.58,0.7,0
0.31711,0.015409,0.45581,-0.39223,-0.35449,-0.31518,0.0084534,0,0,-0.50083,-0.25555,0,0.10989,0,0,0.25808,-0.017295,0,0.25866,-0.35269,-0.39404,-0.31518,77.933,-0.35397,0.06832,-1.3804e-06,0.6,0.7,0
0.30667,0.015191,0.43007,-0.38992,-0.34408,-0.30622,0.0071174,0,0,-0.5441,-0.24612,0,0.092527,0,0,0.25674,-0.015903,0,0.25723,-0.343,-0.391,-0.30622,81.375,-0.34674,0.073642,-4.6501e-06,0.62,0.7,0
0.29535,0.014821,0.40446,-0.38787,-0.33365,-0.29735,0.0060224,0,0,-0.5884,-0.23596,0,0.078291,0,0,0.2557,-0.014573,0,0.25611,-0.33299,-0.38853,-0.29735,83.738,-0.33962,0.079592,-9.5107e-06,0.64,0.7,0
0.28314,0.014345,0.37893,-0.38604,-0.32326,-0.28858,0.0051258,0,0,-0.63353,-0.22544,0,0.066635,0,0,0.25494,-0.013303,0,0.25528,-0.32285,-0.38646,-0.28858,85.363,-0.33263,0.086029,-1.6083e-05,0.66,0.7,0
0.27001,0.013801,0.35347,-0.38443,-0.31296,-0.27991,0.0043875,0,0,-0.67935,-0.21485,0,0.057038,0,0,0.25446,-0.012082,0,0.25474,-0.3127,-0.3847,-0.27991,86.5,-0.32577,0.092839,-2.449e-05,0.68,0.7,0
0.25596,0.01322,0.32804,-0.38301,-0.30279,-0.27135,0.0037726,0,0,-0.72578,-0.2044,0,0.049044,0,0,0.25425,-0.0109,0,0.25449,-0.30262,-0.38318,-0.27135,87.313,-0.31905,0.09994,-3.4857e-05,0.7,0.7,0
0.24098,0.012629,0.30262,-0.38177,-0.29277,-0.26289,0.0032527,0,0,-0.77277,-0.19425,0,0.042286,0,0,0.25432,-0.0097423,0,0.25451,-0.29265,-0.38189,-0.26289,87.91,-0.31248,0.10727,-4.7318e-05,0.72,0.7,0
0.22505,0.012051,0.27718,-0.38073,-0.28292,-0.25453,0.0028075,0,0,-0.82028,-0.18454,0,0.036497,0,0,0.25466,-0.0085972,0,0.25481,-0.28284,-0.38081,-0.25453,88.357,-0.30606,0.11477,-6.2008e-05,0.74,0.7,0
0.20817,0.011506,0.25169,-0.37985,-0.27326,-0.24627,0.0024248,0,0,-0.86829,-0.17541,0,0.031522,0,0,0.25528,-0.0074549,0,0.25538,-0.2732,-0.37991,-0.24627,88.698,-0.29979,0.12241,-7.906e-05,0.76,0.7,0
0.19032,0.011011,0.22612,-0.37914,-0.2638,-0.23811,0.0021007,0,0,-0.91674,-0.16699,0,0.027309,0,0,0.25616,-0.0063109,0,0.25624,-0.26376,-0.37918,-0.23811,88.957,-0.29368,0.13016,-9.8585e-05,0.78,0.7,0
0.1715,0.010581,0.20045,-0.37858,-0.25456,-0.23003,0.0018379,0,0,-0.96555,-0.15943,0,0.023893,0,0,0.25732,-0.0051684,0,0.25737,-0.25453,-0.37861,-0.23003,89.151,-0.28772,0.13796,-0.00012066,0.8,0.7,0
0.1517,0.010233,0.17466,-0.37813,-0.24556,-0.22204,0.0016433,0,0,-1.0146,-0.15287,0,0.021363,0,0,0.25872,-0.0040405,0,0.25875,-0.24554,-0.37815,-0.22204,89.29,-0.28191,0.14579,-0.00014532,0.82,0.7,0
0.13091,0.0099808,0.14871,-0.37778,-0.2368,-0.21412,0.0015246,0,0,-1.0638,-0.14745,0,0.01982,0,0,0.26034,-0.0029527,0,0.26035,-0.23678,-0.3778,-0.21412,89.38,-0.27623,0.15361,-0.00017256,0.84,0.7,0
0.10915,0.0098376,0.12259,-0.37749,-0.22829,-0.20625,0.001487,0,0,-1.113,-0.14327,0,0.019331,0,0,0.2621,-0.0019425,0,0.2621,-0.22828,-0.3775,-0.20625,89.429,-0.27068,0.16137,-0.00020232,0.86,0.7,0
0.086392,0.0098152,0.09629,-0.37722,-0.22002,-0.19843,0.0015317,0,0,-1.1622,-0.14033,0,0.019912,0,0,0.26391,-0.0010551,0,0.26391,-0.22001,-0.37724,-0.19843,89.442,-0.26522,0.16906,-0.00023457,0.88,0.7,0
0.062659,0.0099229,0.069809,-0.37695,-0.21195,-0.19063,0.0016567,0,0,-1.2111,-0.13857,0,0.021537,0,0,0.26563,-0.00033537,0,0.26563,-0.21193,-0.37697,-0.19063,89.425,-0.25984,0.17665,-0.00026929,0.9,0.7,0
0.037949,0.010169,0.043163,-0.37664,-0.20405,-0.18284,0.0018598,0,0,-1.2597,-0.13786,0,0.024177,0,0,0.26712,0.00018466,0,0.26712,-0.20403,-0.37666,-0.18284,89.383,-0.25451,0.18415,-0.00030643,0.92,0.7,0
0.01227,0.010561,0.016385,-0.37656,-0.26655,-0.20277,0.0020328,0,0,-0.73952,-0.1382,0,0.014838,0,0,0.26904,0.0014976,0,0.26905,-0.26648,-0.37663,-0.20277,88.247,-0.28196,0.16078,-0.0001231,0.94,0.7,0
0.0083687,0.010591,0.010979,-0.37624,-0.32906,-0.22257,0.0018139,0,0,-0.19978,-0.13843,0,0.0047162,0,0,0.27193,0.0022859,0,0.27195,-0.32899,-0.37631,-0.22257,87.802,-0.30929,0.13639,7.9379e-05,0.96,0.7,0
0.0042792,0.010622,0.0055075,-0.37572,-0.32187,-0.21479,0.0010838,0,0,-0.20922,-0.13921,0,0.002818,0,0,0.27447,0.0013488,0,0.27448,-0.32185,-0.37574,-0.21479,88.847,-0.30413,0.14191,7.8633e-05,0.98,0.7,0
0,0.010634,0,-0.36856,-0.31135,-0.20397,0.00023786,0,0,-0.21396,-0.13959,0,0.00061843,0,0,0.27537,2.575e-18,0,0.27537,-0.31135,-0.36856,-0.20397,89.762,-0.29463,0.14473,7.7707e-05,1,0.7,0
0,0.0046934,1,-0.49773,-2.1473,-1.7935,-0.0016386,0,0,1.6845,-0.45997,0,-0.0042604,0,0,0.26069,-7.9537e-16,0,0.26068,-0.49773,-2.1473,-1.7935,-0.056913,-1.4795,1.5043,0.14274,0,0.72,0
0.033691,0.0046082,0.99479,-0.48651,-2.1415,-1.7832,-0.0077643,0,0,1.6857,-0.46583,0,-0.020187,0,0,0.2548,0.0033473,0,0.25489,-0.48647,-2.1416,-1.7832,-0.26879,-1.4704,1.5082,0.14322,0.02,0.72,0
0.067428,0.0043873,0.98981,-0.47361,-2.1434,-1.7749,-0.01312,0,0,1.6917,-0.47905,0,-0.034112,0,0,0.23844,0.0054597,0,0.23876,-0.47351,-2.1435,-1.7749,-0.45015,-1.464,1.5196,0.14511,0.04,0.72,0
0.10136,0.0040849,0.98525,-0.43027,-1.3532,-1.1262,-0.015612,0,0,1.1304,-0.49184,0,-0.12235,0,0,0.22031,0.0032187,0,0.22056,-0.42945,-1.354,-1.1262,-3.0023,-0.96988,0.83668,0.073345,0.06,0.72,0
0.11264,0.00050068,0.96398,-0.39721,-0.60435,-0.49326,-0.01488,0,0,0.62435,-0.72204,0,-0.19344,0,0,0.20946,-0.00060766,0,0.20949,-0.39615,-0.60541,-0.49326,-4.088,-0.49827,0.18138,-3.8008e-05,0.08,0.72,0
0.12633,-0.0026231,0.94336,-0.38005,-0.63038,-0.4918,-0.012256,0,0,0.72636,-0.90077,0,-0.15933,0,0,0.20296,-0.0028133,0,0.203,-0.37946,-0.63098,-0.4918,-2.7963,-0.50075,0.21824,-9.796e-05,0.1,0.72,0
0.1417,-0.0051399,0.92339,-0.36651,-0.64581,-0.48837,-0.0091632,0,0,0.79214,-1.0233,0,-0.11912,0,0,0.19663,-0.0054164,0,0.19673,-0.36621,-0.64611,-0.48837,-1.877,-0.50023,0.24306,-0.00016074,0.12,0.72,0
0.15802,-0.0070617,0.90403,-0.35656,-0.65273,-0.48359,-0.0061531,0,0,0.82572,-1.0994,0,-0.079991,0,0,0.19114,-0.0082395,0,0.19133,-0.35643,-0.65285,-0.48359,-1.1897,-0.49762,0.25757,-0.00021327,0.14,0.72,0
0.17473,-0.0084429,0.88516,-0.34944,-0.65348,-0.47791,-0.0032355,0,0,0.83505,-1.1412,0,-0.042062,0,0,0.1868,-0.011141,0,0.18714,-0.3494,-0.65351,-0.47791,-0.60964,-0.49361,0.26442,-0.00025101,0.16,0.72,0
0.19142,-0.009318,0.86667,-0.34431,-0.6497,-0.47154,-0.00025734,0,0,0.82697,-1.1581,0,-0.0033454,0,0,0.18371,-0.014038,0,0.18425,-0.34431,-0.6497,-0.47154,-0.048281,-0.48852,0.2657,-0.00027364,0.18,0.72,0
0.2078,-0.0096865,0.84842,-0.34064,-0.64234,-0.46458,0.0029183,0,0,0.80558,-1.1554,0,0.037938,0,0,0.18187,-0.016891,0,0.18265,-0.34062,-0.64237,-0.46458,0.55416,-0.48252,0.26271,-0.00028217,0.2,0.72,0
0.22364,-0.0095198,0.8303,-0.33824,-0.63177,-0.45706,0.0063799,0,0,0.77233,-1.1356,0,0.082939,0,0,0.18125,-0.019672,0,0.18231,-0.3381,-0.6319,-0.45706,1.2446,-0.47569,0.25597,-0.0002776,0.22,0.72,0
0.2387,-0.0087671,0.81217,-0.33722,-0.61791,-0.44897,0.010208,0,0,0.72637,-1.0981,0,0.13271,0,0,0.18186,-0.022342,0,0.18322,-0.33686,-0.61828,-0.44897,2.0802,-0.46804,0.24539,-0.00026048,0.24,0.72,0
0.2527,-0.0073558,0.79392,-0.33801,-0.60022,-0.44025,0.014505,0,0,0.66456,-1.0398,0,0.18857,0,0,0.18371,-0.024836,0,0.18538,-0.33721,-0.60102,-0.44025,3.1568,-0.45949,0.23028,-0.00023087,0.26,0.72,0
0.26528,-0.0051935,0.77543,-0.34126,-0.57763,-0.43075,0.019336,0,0,0.58169,-0.95468,0,0.25136,0,0,0.18676,-0.027045,0,0.18872,-0.33969,-0.5792,-0.43075,4.6459,-0.44988,0.20939,-0.00018898,0.28,0.72,0
0.27597,-0.0021954,0.75657,-0.34758,-0.54862,-0.42018,0.024541,0,0,0.47186,-0.83491,0,0.31903,0,0,0.19084,-0.028823,0,0.19301,-0.34463,-0.55158,-0.42018,6.8598,-0.43879,0.18138,-0.00013709,0.3,0.72,0
0.28415,0.0016445,0.73726,-0.35708,-0.512,-0.40818,0.029405,0,0,0.33212,-0.67485,0,0.38226,0,0,0.19553,-0.030044,0,0.19784,-0.35169,-0.51739,-0.40818,10.394,-0.42575,0.14591,-8.2714e-05,0.32,0.72,0
0.28925,0.0061396,0.71747,-0.38698,-1.0966,-0.87556,0.034626,0,0,0.73704,-0.47896,0,0.25773,0,0,0.20493,-0.092083,0,0.23108,-0.38217,-1.1014,-0.87556,8.2467,-0.78639,0.64116,0.027562,0.34,0.72,0
0.31364,0.0041739,0.71323,-0.41549,-1.6555,-1.3345,0.042618,0,0,1.1947,-0.41723,0,0.11081,0,0,0.22261,-0.1529,0,0.27028,-0.41403,-1.6569,-1.3345,1.9662,-1.1352,1.1171,0.05201,0.36,0.72,0
0.33704,0.0024433,0.70856,-0.43103,-1.5805,-1.312,0.045354,0,0,1.1453,-0.34904,0,0.11792,0,0,0.2423,-0.15085,0,0.28556,-0.42925,-1.5823,-1.312,2.2559,-1.1079,1.0445,0.045578,0.38,0.72,0
0.35945,0.00061271,0.70354,-0.44277,-1.5099,-1.2893,0.039282,0,0,1.1005,-0.28673,0,0.10213,0,0,0.25831,-0.14827,0,0.29791,-0.44133,-1.5113,-1.2893,2.1053,-1.0807,0.97809,0.039838,0.4,0.72,0
0.38106,-0.0016795,0.69823,-0.43207,-0.9444,-0.83188,0.029145,0,0,0.43761,-0.2438,0,0.20937,0,0,0.26875,-0.087587,0,0.2883,-0.4201,-0.95637,-0.83188,21.774,-0.73612,0.4987,0.018518,0.42,0.72,0
0.37695,0.0010128,0.67101,-0.42355,-0.42535,-0.38887,0.023579,0,0,-0.2254,-0.2371,0,0.30653,0,0,0.27242,-0.027283,0,0.27378,-0.40085,-0.44805,-0.38887,43.907,-0.41259,0.054185,-6.8437e-06,0.44,0.72,0
0.37205,0.0034199,0.64375,-0.42009,-0.41665,-0.37977,0.020877,0,0,-0.26209,-0.23972,0,0.2714,0,0,0.27231,-0.02552,0,0.27351,-0.39743,-0.43932,-0.37977,47.355,-0.40551,0.052976,-4.8757e-06,0.46,0.72,0
0.36647,0.0054654,0.61655,-0.41587,-0.40846,-0.37061,0.018125,0,0,-0.29418,-0.24605,0,0.23562,0,0,0.27116,-0.023884,0,0.27221,-0.39367,-0.43067,-0.37061,50.773,-0.39831,0.052474,-2.8877e-06,0.48,0.72,0
0.36028,0.0071241,0.58951,-0.41145,-0.4002,-0.3614,0.01549,0,0,-0.32532,-0.25222,0,0.20137,0,0,0.26937,-0.022345,0,0.2703,-0.38934,-0.4223,-0.3614,54.975,-0.39102,0.052806,-1.0733e-06,0.5,0.72,0
0.35346,0.0084031,0.56268,-0.40719,-0.39158,-0.35217,0.013074,0,0,-0.35764,-0.25619,0,0.16996,0,0,0.26726,-0.020886,0,0.26807,-0.38416,-0.41461,-0.35217,60.416,-0.38364,0.054083,3.4735e-07,0.52,0.72,0
0.34597,0.0093302,0.53606,-0.40327,-0.38252,-0.34295,0.010928,0,0,-0.39208,-0.2572,0,0.14206,0,0,0.26506,-0.019502,0,0.26578,-0.37782,-0.40796,-0.34295,66.757,-0.37624,0.056353,1.1565e-06,0.54,0.72,0
0.33777,0.0099452,0.50967,-0.39975,-0.37304,-0.33377,0.0090737,0,0,-0.42886,-0.25527,0,0.11796,0,0,0.26295,-0.01819,0,0.26358,-0.37025,-0.40254,-0.33377,72.902,-0.36885,0.059593,1.1448e-06,0.56,0.72,0
0.32882,0.010294,0.48347,-0.39663,-0.36324,-0.32466,0.0075077,0,0,-0.46783,-0.2508,0,0.0976,0,0,0.26103,-0.01695,0,0.26158,-0.36163,-0.39824,-0.32466,77.893,-0.36151,0.063726,1.1407e-07,0.58,0.72,0
0.31906,0.010423,0.45746,-0.39387,-0.35321,-0.31562,0.0062112,0,0,-0.50867,-0.24435,0,0.080746,0,0,0.25935,-0.015783,0,0.25983,-0.35228,-0.3948,-0.31562,81.507,-0.35423,0.068638,-2.1202e-06,0.6,0.72,0
0.30847,0.010377,0.4316,-0.39144,-0.34304,-0.30666,0.0051564,0,0,-0.55105,-0.23643,0,0.067034,0,0,0.25796,-0.014683,0,0.25838,-0.3425,-0.39198,-0.30666,83.986,-0.34705,0.074204,-5.7284e-06,0.62,0.72,0
0.29702,0.010197,0.40587,-0.3893,-0.33281,-0.29781,0.004311,0,0,-0.59469,-0.22753,0,0.056043,0,0,0.25685,-0.013645,0,0.25722,-0.33248,-0.38962,-0.29781,85.661,-0.33997,0.080306,-1.0869e-05,0.64,0.72,0
0.28468,0.0099207,0.38023,-0.38741,-0.32259,-0.28905,0.0036411,0,0,-0.63937,-0.21803,0,0.047334,0,0,0.25604,-0.012662,0,0.25635,-0.32238,-0.38761,-0.28905,86.795,-0.33302,0.08684,-1.7695e-05,0.66,0.72,0
0.27144,0.0095798,0.35466,-0.38576,-0.31242,-0.28039,0.0031141,0,0,-0.68493,-0.20823,0,0.040483,0,0,0.25552,-0.011724,0,0.25579,-0.31229,-0.38589,-0.28039,87.573,-0.32619,0.093719,-2.6354e-05,0.68,0.72,0
0.25729,0.0092016,0.32913,-0.38433,-0.30235,-0.27183,0.0026999,0,0,-0.73124,-0.19839,0,0.035099,0,0,0.25529,-0.01082,0,0.25551,-0.30226,-0.38442,-0.27183,88.116,-0.3195,0.10088,-3.6994e-05,0.7,0.72,0
0.24219,0.008809,0.3036,-0.3831,-0.2924,-0.26337,0.0023727,0,0,-0.77823,-0.18871,0,0.030845,0,0,0.25534,-0.0099399,0,0.25553,-0.29234,-0.38316,-0.26337,88.502,-0.31296,0.10825,-4.9761e-05,0.72,0.72,0
0.22616,0.0084214,0.27806,-0.38206,-0.28261,-0.25501,0.0021116,0,0,-0.82581,-0.17938,0,0.02745,0,0,0.25567,-0.0090727,0,0.25583,-0.28256,-0.3821,-0.25501,88.784,-0.30656,0.1158,-6.4792e-05,0.74,0.72,0
0.20916,0.008055,0.25247,-0.3812,-0.27299,-0.24675,0.0019014,0,0,-0.87391,-0.17057,0,0.024718,0,0,0.25628,-0.0082089,0,0.25641,-0.27296,-0.38123,-0.24675,88.994,-0.30031,0.12348,-8.2206e-05,0.76,0.72,0
0.1912,0.0077239,0.2268,-0.38049,-0.26358,-0.23858,0.0017329,0,0,-0.92243,-0.16247,0,0.022527,0,0,0.25717,-0.0073403,0,0.25728,-0.26355,-0.38052,-0.23858,89.151,-0.29422,0.13125,-0.00010209,0.78,0.72,0
0.17227,0.0074409,0.20103,-0.37992,-0.25439,-0.2305,0.0016024,0,0,-0.97124,-0.15526,0,0.020832,0,0,0.25833,-0.0064612,0,0.25841,-0.25437,-0.37994,-0.2305,89.269,-0.28827,0.13905,-0.00012449,0.8,0.72,0
0.15235,0.0072182,0.17514,-0.37945,-0.24544,-0.22249,0.0015111,0,0,-1.0202,-0.14913,0,0.019644,0,0,0.25972,-0.0055694,0,0.25978,-0.24542,-0.37947,-0.22249,89.354,-0.28246,0.14686,-0.0001494,0.82,0.72,0
0.13146,0.0070677,0.14909,-0.37906,-0.23675,-0.21456,0.0014631,0,0,-1.0693,-0.14421,0,0.01902,0,0,0.26131,-0.0046673,0,0.26135,-0.23673,-0.37907,-0.21456,89.411,-0.27679,0.15463,-0.00017679,0.84,0.72,0
0.10958,0.0070011,0.12288,-0.37871,-0.22831,-0.20668,0.0014636,0,0,-1.1182,-0.14058,0,0.019027,0,0,0.26301,-0.0037616,0,0.26304,-0.22829,-0.37872,-0.20668,89.442,-0.27123,0.16232,-0.00020658,0.86,0.72,0
0.086728,0.0070303,0.096488,-0.37838,-0.22011,-0.19884,0.0015171,0,0,-1.167,-0.13822,0,0.019722,0,0,0.26474,-0.0028634,0,0.26476,-0.22009,-0.37839,-0.19884,89.451,-0.26577,0.16992,-0.00023875,0.88,0.72,0
0.062902,0.0071664,0.069928,-0.37803,-0.21211,-0.19103,0.0016248,0,0,-1.2155,-0.13701,0,0.021123,0,0,0.26637,-0.0019855,0,0.26638,-0.21209,-0.37805,-0.19103,89.439,-0.26039,0.17743,-0.0002733,0.9,0.72,0
0.038107,0.00742,0.043214,-0.37766,-0.20427,-0.18322,0.0017843,0,0,-1.2638,-0.13683,0,0.023196,0,0,0.26775,-0.0011398,0,0.26775,-0.20425,-0.37768,-0.18322,89.41,-0.25505,0.18484,-0.00031024,0.92,0.72,0
0.012348,0.0078003,0.016379,-0.37761,-0.2666,-0.20309,0.0018219,0,0,-0.74205,-0.13759,0,0.013729,0,0,0.26945,-0.00099884,0,0.26946,-0.26655,-0.37766,-0.20309,88.506,-0.28243,0.16134,-0.0001255,0.94,0.72,0
0.0084247,0.0078306,0.010968,-0.37733,-0.32856,-0.22274,0.0014221,0,0,-0.20097,-0.13757,0,0.0036975,0,0,0.27199,-0.00097177,0,0.27199,-0.32852,-0.37737,-0.22274,88.331,-0.30954,0.13691,7.7477e-05,0.96,0.72,0
0.0043092,0.0078516,0.0054997,-0.37686,-0.32097,-0.21485,0.00076039,0,0,-0.21062,-0.13796,0,0.001977,0,0,0.2742,-0.00043982,0,0.2742,-0.32096,-0.37687,-0.21485,89.221,-0.30423,0.14254,7.5327e-05,0.98,0.72,0
0,0.0078593,0,-0.36975,-0.31028,-0.20401,0.00014821,0,0,-0.21546,-0.13816,0,0.00038534,0,0,0.27498,-1.8974e-18,0,0.27498,-0.31028,-0.36975,-0.20401,89.857,-0.29468,0.14543,7.3635e-05,1,0.72,0
0,-0.0043815,1,-0.51522,-2.1273,-1.7928,-0.004393,0,0,1.6608,-0.43495,0,-0.011422,0,0,0.2704,1.0677e-15,0,0.27029,-0.51521,-2.1274,-1.7928,-0.15613,-1.4785,1.4736,0.13623,0,0.74,0
0.033216,-0.0046099,0.99459,-0.50151,-2.1261,-1.7829,-0.022293,0,0,1.6658,-0.44621,0,-0.057962,0,0,0.26319,0.017452,0,0.26379,-0.5012,-2.1264,-1.7829,-0.78602,-1.4702,1.4836,0.13787,0.02,0.74,0
0.066631,-0.0051457,0.98947,-0.48453,-2.1391,-1.7766,-0.035826,0,0,1.6797,-0.47134,0,-0.093147,0,0,0.24314,0.030676,0,0.24542,-0.48375,-2.1399,-1.7766,-1.2398,-1.4667,1.5077,0.14215,0.04,0.74,0
0.1004,-0.0057222,0.98487,-0.43462,-1.353,-1.1272,-0.039124,0,0,1.1247,-0.48927,0,-0.29871,0,0,0.22096,0.021584,0,0.22272,-0.42992,-1.3577,-1.1272,-6.9709,-0.97163,0.83931,0.072463,0.06,0.74,0
0.11162,-0.014049,0.9637,-0.39879,-0.60985,-0.49533,-0.035179,0,0,0.62754,-0.74436,0,-0.45733,0,0,0.20787,0.0067864,0,0.20802,-0.39308,-0.61556,-0.49533,-9.2181,-0.50132,0.19288,-5.1366e-05,0.08,0.74,0
0.1255,-0.020793,0.94329,-0.38019,-0.63648,-0.49366,-0.027612,0,0,0.73757,-0.92834,0,-0.35896,0,0,0.2004,0.00451,0,0.20048,-0.37724,-0.63942,-0.49366,-6.0799,-0.50344,0.22752,-0.0001164,0.1,0.74,0
0.14112,-0.025758,0.92362,-0.36607,-0.6508,-0.48979,-0.020104,0,0,0.80414,-1.0466,0,-0.26135,0,0,0.19345,0.00095547,0,0.19347,-0.36466,-0.65221,-0.48979,-4.0189,-0.50222,0.24972,-0.00017786,0.12,0.74,0
0.15767,-0.02919,0.9046,-0.35604,-0.65682,-0.48478,-0.013927,0,0,0.83682,-1.1183,0,-0.18105,0,0,0.18766,-0.0031947,0,0.1877,-0.35539,-0.65746,-0.48478,-2.6454,-0.49921,0.2625,-0.00022778,0.14,0.74,0
0.1746,-0.031407,0.88609,-0.3488,-0.65719,-0.47902,-0.0088914,0,0,0.84638,-1.1581,0,-0.11559,0,0,0.18326,-0.0074567,0,0.18341,-0.34855,-0.65744,-0.47902,-1.6502,-0.495,0.26858,-0.00026369,0.16,0.74,0
0.19153,-0.032627,0.86795,-0.34347,-0.65338,-0.47265,-0.0044224,0,0,0.83963,-1.1748,0,-0.057491,0,0,0.18021,-0.011638,0,0.18058,-0.34341,-0.65345,-0.47265,-0.81738,-0.48984,0.26973,-0.0002855,0.18,0.74,0
0.20818,-0.032955,0.85005,-0.33957,-0.6462,-0.46574,-5.7428e-05,0,0,0.82012,-1.173,0,-0.00074657,0,0,0.17845,-0.015707,0,0.17913,-0.33957,-0.6462,-0.46574,-0.010731,-0.48384,0.26693,-0.00029391,0.2,0.74,0
0.22433,-0.032406,0.83226,-0.33692,-0.63598,-0.45832,0.0045587,0,0,0.7891,-1.1548,0,0.059263,0,0,0.17791,-0.019691,0,0.17899,-0.33685,-0.63605,-0.45832,0.87312,-0.47708,0.26063,-0.00028984,0.22,0.74,0
0.23975,-0.030921,0.81447,-0.33561,-0.62267,-0.45038,0.0097623,0,0,0.74599,-1.1199,0,0.12691,0,0,0.17865,-0.023618,0,0.18019,-0.33528,-0.623,-0.45038,1.9455,-0.46955,0.25083,-0.00027393,0.24,0.74,0
0.25417,-0.028368,0.79653,-0.33599,-0.60581,-0.44185,0.01594,0,0,0.68807,-1.0658,0,0.20722,0,0,0.18073,-0.027457,0,0.1828,-0.33505,-0.60675,-0.44185,3.3692,-0.46122,0.23709,-0.0002466,0.26,0.74,0
0.26727,-0.024535,0.77832,-0.33878,-0.58438,-0.43261,0.023498,0,0,0.60991,-0.98648,0,0.30548,0,0,0.18422,-0.031039,0,0.18682,-0.33655,-0.58661,-0.43261,5.4165,-0.45192,0.21848,-0.00020806,0.28,0.74,0
0.27857,-0.019157,0.75969,-0.34498,-0.55646,-0.42237,0.032422,0,0,0.50302,-0.87159,0,0.42149,0,0,0.18899,-0.033954,0,0.19203,-0.34013,-0.56132,-0.42237,8.5234,-0.44127,0.19365,-0.00015914,0.3,0.74,0
0.28739,-0.012077,0.74052,-0.35497,-0.51922,-0.41036,0.041476,0,0,0.36007,-0.70759,0,0.53918,0,0,0.19456,-0.035691,0,0.19783,-0.34509,-0.5291,-0.41036,13.397,-0.42818,0.16159,-0.00010362,0.32,0.74,0
0.29297,-0.0035337,0.72078,-0.38679,-1.1079,-0.88086,0.050759,0,0,0.75388,-0.49182,0,0.37342,0,0,0.20548,-0.10783,0,0.24,-0.37764,-1.117,-0.88086,10.706,-0.79183,0.65802,0.028282,0.34,0.74,0
0.31754,-0.0041982,0.71651,-0.41731,-1.6643,-1.341,0.062736,0,0,1.2008,-0.42029,0,0.16311,0,0,0.22546,-0.17644,0,0.28655,-0.41416,-1.6674,-1.341,2.8729,-1.1409,1.1261,0.053098,0.36,0.74,0
0.341,-0.004475,0.71176,-0.43454,-1.5757,-1.3148,0.064049,0,0,1.1444,-0.33912,0,0.16653,0,0,0.24673,-0.16913,0,0.29926,-0.43095,-1.5793,-1.3148,3.2024,-1.1083,1.0416,0.045669,0.38,0.74,0
0.36332,-0.0049715,0.70664,-0.44791,-1.4935,-1.2891,0.050152,0,0,1.0935,-0.26579,0,0.13039,0,0,0.26259,-0.16124,0,0.3082,-0.44551,-1.4959,-1.2891,2.7397,-1.0768,0.96378,0.038934,0.4,0.74,0
0.38474,-0.0063329,0.70125,-0.43605,-0.92863,-0.83016,0.029906,0,0,0.41963,-0.21336,0,0.19959,0,0,0.27205,-0.09333,0,0.29379,-0.42294,-0.94175,-0.83016,24.419,-0.73161,0.48617,0.017781,0.42,0.74,0
0.3801,-0.0034945,0.67376,-0.42827,-0.42211,-0.38987,0.020066,0,0,-0.24961,-0.20959,0,0.26086,0,0,0.27501,-0.027436,0,0.27637,-0.40489,-0.44549,-0.38987,49.362,-0.41341,0.049841,-4.4654e-06,0.44,0.74,0
0.37476,-0.0011461,0.64625,-0.42395,-0.41373,-0.38055,0.016445,0,0,-0.28206,-0.21563,0,0.21378,0,0,0.27453,-0.024453,0,0.27561,-0.40162,-0.43606,-0.38055,53.631,-0.40608,0.048532,-2.3659e-06,0.46,0.74,0
0.36882,0.00075898,0.61886,-0.41899,-0.40585,-0.37123,0.013478,0,0,-0.3105,-0.22507,0,0.17521,0,0,0.27306,-0.022056,0,0.27395,-0.39743,-0.42742,-0.37123,57.996,-0.39869,0.048701,-6.9019e-07,0.48,0.74,0
0.36234,0.0022758,0.59164,-0.41401,-0.39789,-0.3619,0.01104,0,0,-0.33871,-0.23396,0,0.14352,0,0,0.27101,-0.020121,0,0.27176,-0.39228,-0.41962,-0.3619,63.062,-0.39127,0.050009,5.8685e-07,0.5,0.74,0
0.35527,0.0034548,0.56465,-0.40931,-0.38957,-0.35259,0.0090168,0,0,-0.36867,-0.24032,0,0.11722,0,0,0.2687,-0.018535,0,0.26934,-0.38607,-0.41281,-0.35259,68.798,-0.38383,0.052258,1.4087e-06,0.52,0.74,0
0.34759,0.0043409,0.5379,-0.40506,-0.38079,-0.34334,0.0073277,0,0,-0.4012,-0.24346,0,0.09526,0,0,0.26636,-0.017209,0,0.26691,-0.37875,-0.4071,-0.34334,74.436,-0.37639,0.055335,1.6575e-06,0.54,0.74,0
0.33922,0.0049745,0.51138,-0.40127,-0.37159,-0.33414,0.005921,0,0,-0.43641,-0.24345,0,0.076973,0,0,0.26412,-0.016075,0,0.26461,-0.37045,-0.40241,-0.33414,79.126,-0.369,0.059169,1.1726e-06,0.56,0.74,0
0.33013,0.0053938,0.48508,-0.39794,-0.36204,-0.32501,0.0047625,0,0,-0.47406,-0.2407,0,0.061913,0,0,0.2621,-0.015085,0,0.26254,-0.36142,-0.39856,-0.32501,82.571,-0.36167,0.0637,-2.2972e-07,0.58,0.74,0
0.32026,0.0056353,0.45896,-0.39502,-0.35224,-0.31597,0.0038262,0,0,-0.51382,-0.23575,0,0.049741,0,0,0.26034,-0.014201,0,0.26073,-0.3519,-0.39536,-0.31597,84.929,-0.35441,0.068856,-2.7391e-06,0.6,0.74,0
0.30958,0.0057333,0.43301,-0.39246,-0.34227,-0.30702,0.0030882,0,0,-0.55534,-0.22914,0,0.040146,0,0,0.25888,-0.0134,0,0.25923,-0.34208,-0.39265,-0.30702,86.492,-0.34725,0.074558,-6.5421e-06,0.62,0.74,0
0.29805,0.0057199,0.40719,-0.39022,-0.33222,-0.29817,0.0025242,0,0,-0.59831,-0.22134,0,0.032814,0,0,0.25772,-0.012663,0,0.25803,-0.33211,-0.39033,-0.29817,87.513,-0.3402,0.080729,-1.1819e-05,0.64,0.74,0
0.28565,0.0056241,0.38146,-0.38826,-0.32214,-0.28941,0.002109,0,0,-0.64251,-0.21274,0,0.027417,0,0,0.25686,-0.011977,0,0.25714,-0.32208,-0.38833,-0.28941,88.175,-0.33327,0.087294,-1.8747e-05,0.66,0.74,0
0.27235,0.0054715,0.35581,-0.38657,-0.31209,-0.28076,0.0018171,0,0,-0.68775,-0.20366,0,0.023622,0,0,0.2563,-0.011331,0,0.25655,-0.31205,-0.38661,-0.28076,88.603,-0.32647,0.094189,-2.7496e-05,0.68,0.74,0
0.25814,0.0052842,0.33021,-0.38511,-0.30211,-0.27221,0.0016231,0,0,-0.73389,-0.19437,0,0.0211,0,0,0.25604,-0.010717,0,0.25626,-0.30208,-0.38515,-0.27221,88.88,-0.31981,0.10136,-3.8238e-05,0.7,0.74,0
0.24299,0.0050808,0.30461,-0.38388,-0.29223,-0.26376,0.001503,0,0,-0.78083,-0.18509,0,0.019539,0,0,0.25607,-0.010125,0,0.25627,-0.29221,-0.38391,-0.26376,89.061,-0.31329,0.10876,-5.1137e-05,0.72,0.74,0
0.2269,0.0048765,0.27899,-0.38286,-0.28248,-0.2554,0.0014351,0,0,-0.82847,-0.17604,0,0.018656,0,0,0.25639,-0.0095455,0,0.25657,-0.28246,-0.38288,-0.2554,89.181,-0.30691,0.11633,-6.6342e-05,0.74,0.74,0
0.20985,0.0046835,0.25333,-0.38202,-0.2729,-0.24714,0.0014007,0,0,-0.87671,-0.16743,0,0.018209,0,0,0.25701,-0.0089686,0,0.25717,-0.27288,-0.38204,-0.24714,89.265,-0.30069,0.12405,-8.3981e-05,0.76,0.74,0
0.19184,0.004512,0.22759,-0.38135,-0.26351,-0.23897,0.0013853,0,0,-0.92542,-0.15947,0,0.018009,0,0,0.25791,-0.0083813,0,0.25805,-0.26349,-0.38136,-0.23897,89.326,-0.29461,0.13185,-0.00010414,0.78,0.74,0
0.17284,0.0043707,0.20175,-0.38081,-0.25433,-0.23089,0.0013794,0,0,-0.97445,-0.15238,0,0.017933,0,0,0.25909,-0.0077681,0,0.25921,-0.25432,-0.38082,-0.23089,89.375,-0.28868,0.1397,-0.00012685,0.8,0.74,0
0.15286,0.0042678,0.17577,-0.38037,-0.24541,-0.22289,0.0013794,0,0,-1.0236,-0.14638,0,0.017933,0,0,0.26052,-0.0071105,0,0.26061,-0.24539,-0.38038,-0.22289,89.415,-0.28289,0.14754,-0.00015208,0.82,0.74,0
0.13189,0.0042122,0.14964,-0.38,-0.23674,-0.21495,0.001388,0,0,-1.0728,-0.14164,0,0.018044,0,0,0.26214,-0.0063868,0,0.26222,-0.23673,-0.38002,-0.21495,89.445,-0.27723,0.15532,-0.00017977,0.84,0.74,0
0.10994,0.0042144,0.12334,-0.37967,-0.22834,-0.20707,0.0014129,0,0,-1.1219,-0.13824,0,0.018368,0,0,0.2639,-0.0055741,0,0.26396,-0.22833,-0.37968,-0.20707,89.465,-0.27169,0.16303,-0.00020984,0.86,0.74,0
0.087016,0.0042866,0.096863,-0.37934,-0.22018,-0.19923,0.0014645,0,0,-1.1707,-0.13618,0,0.019039,0,0,0.26568,-0.004651,0,0.26572,-0.22016,-0.37935,-0.19923,89.473,-0.26625,0.17062,-0.00024221,0.88,0.74,0
0.063114,0.0044424,0.070206,-0.379,-0.21222,-0.19141,0.0015505,0,0,-1.2193,-0.13532,0,0.020157,0,0,0.26736,-0.003602,0,0.26738,-0.21221,-0.37901,-0.19141,89.467,-0.26088,0.17811,-0.00027691,0.9,0.74,0
0.038243,0.0046956,0.043391,-0.37861,-0.20444,-0.18359,0.0016704,0,0,-1.2676,-0.13548,0,0.021715,0,0,0.26877,-0.0024224,0,0.26879,-0.20442,-0.37863,-0.18359,89.451,-0.25555,0.1855,-0.00031396,0.92,0.74,0
0.012409,0.0050571,0.016451,-0.37854,-0.26635,-0.20334,0.0016023,0,0,-0.74445,-0.13653,0,0.012445,0,0,0.27054,-0.0033713,0,0.27057,-0.26632,-0.37858,-0.20334,88.755,-0.28274,0.16185,-0.00012844,0.94,0.74,0
0.0084653,0.0050885,0.011018,-0.37824,-0.32793,-0.22287,0.0010741,0,0,-0.20198,-0.13658,0,0.0027927,0,0,0.27316,-0.0040537,0,0.27319,-0.3279,-0.37826,-0.22287,88.778,-0.30968,0.13733,7.5236e-05,0.96,0.74,0
0.0043296,0.0051033,0.0055251,-0.37776,-0.32037,-0.21496,0.00048349,0,0,-0.21163,-0.13703,0,0.0012571,0,0,0.27544,-0.0021278,0,0.27545,-0.32036,-0.37776,-0.21496,89.517,-0.30436,0.14302,7.2798e-05,0.98,0.74,0
0,0.0051077,0,-0.3706,-0.30966,-0.20408,8.4536e-05,0,0,-0.21648,-0.13725,0,0.00021979,0,0,0.27625,-2.8189e-18,0,0.27625,-0.30966,-0.3706,-0.20408,89.921,-0.29478,0.14593,7.0943e-05,1,0.74,0
0,-0.012705,1,-0.55461,-2.0808,-1.7906,-0.010305,0,0,1.6068,-0.37723,0,-0.026792,0,0,0.2956,8.691e-16,0,0.29521,-0.55454,-2.0809,-1.7906,-0.38683,-1.4753,1.4039,0.12189,0,0.76,0
0.032136,-0.01324,0.99409,-0.536,-2.0918,-1.7824,-0.046423,0,0,1.6204,-0.40219,0,-0.1207,0,0,0.28548,0.03584,0,0.28759,-0.53462,-2.0932,-1.7824,-1.7076,-1.4701,1.4288,0.12624,0.02,0.76,0
0.064814,-0.014466,0.98858,-0.50822,-2.1327,-1.7809,-0.070385,0,0,1.6544,-0.4574,0,-0.183,0,0,0.25696,0.064293,0,0.26544,-0.50517,-2.1357,-1.7809,-2.4763,-1.4739,1.4853,0.13644,0.04,0.76,0
0.098314,-0.015486,0.98381,-0.44449,-1.3593,-1.1314,-0.070317,0,0,1.1152,-0.49378,0,-0.51752,0,0,0.2252,0.046608,0,0.2322,-0.43149,-1.3723,-1.1314,-10.949,-0.97842,0.84956,0.071271,0.06,0.76,0
0.10942,-0.029274,0.96262,-0.40273,-0.62321,-0.50031,-0.057784,0,0,0.63424,-0.79885,0,-0.75119,0,0,0.20678,0.016239,0,0.20748,-0.3885,-0.63743,-0.50031,-13.831,-0.50875,0.21595,-9.0569e-05,0.08,0.76,0
0.12368,-0.039757,0.94245,-0.38104,-0.6482,-0.49726,-0.043393,0,0,0.75547,-0.98111,0,-0.56411,0,0,0.19712,0.013159,0,0.19761,-0.37417,-0.65507,-0.49726,-8.9979,-0.50883,0.24389,-0.00015801,0.1,0.76,0
0.13964,-0.047003,0.9232,-0.36646,-0.65936,-0.49239,-0.031,0,0,0.81854,-1.0853,0,-0.403,0,0,0.18893,0.0077771,0,0.18911,-0.36321,-0.66261,-0.49239,-5.9757,-0.50607,0.26009,-0.00021215,0.12,0.76,0
0.15643,-0.051793,0.90467,-0.35646,-0.66325,-0.48685,-0.021839,0,0,0.84753,-1.1466,0,-0.28391,0,0,0.18273,0.0018613,0,0.18274,-0.35491,-0.6648,-0.48685,-4.0514,-0.50219,0.26936,-0.00025471,0.14,0.76,0
0.17354,-0.054767,0.88665,-0.34913,-0.66257,-0.48084,-0.014792,0,0,0.85611,-1.1812,0,-0.19229,0,0,0.17836,-0.0038983,0,0.17839,-0.34844,-0.66327,-0.48084,-2.6959,-0.49752,0.2738,-0.00028566,0.16,0.76,0
0.19067,-0.056309,0.869,-0.34354,-0.65831,-0.47435,-0.0088503,0,0,0.85031,-1.1957,0,-0.11505,0,0,0.17546,-0.0093656,0,0.1757,-0.34329,-0.65856,-0.47435,-1.6093,-0.49207,0.27432,-0.00030423,0.18,0.76,0
0.20755,-0.056606,0.85156,-0.33934,-0.65114,-0.46746,-0.0032855,0,0,0.83274,-1.1939,0,-0.042712,0,0,0.17381,-0.014606,0,0.17441,-0.33931,-0.65118,-0.46746,-0.60365,-0.48598,0.27151,-0.00031118,0.2,0.76,0
0.22398,-0.055711,0.83423,-0.33638,-0.64134,-0.46016,0.0024674,0,0,0.80459,-1.1776,0,0.032077,0,0,0.17334,-0.019752,0,0.17445,-0.33636,-0.64136,-0.46016,0.46354,-0.47929,0.26569,-0.00030727,0.22,0.76,0
0.23974,-0.053563,0.8169,-0.33467,-0.62888,-0.45244,0.0089559,0,0,0.76556,-1.1469,0,0.11643,0,0,0.17409,-0.02494,0,0.17586,-0.33439,-0.62916,-0.45244,1.7419,-0.472,0.25695,-0.0002932,0.24,0.76,0
0.2546,-0.049987,0.79942,-0.33441,-0.6134,-0.44423,0.016834,0,0,0.71381,-1.0996,0,0.21884,0,0,0.17629,-0.030251,0,0.17886,-0.3334,-0.61442,-0.44423,3.4404,-0.46401,0.24517,-0.00026951,0.26,0.76,0
0.26829,-0.044653,0.78164,-0.3364,-0.59418,-0.4355,0.026902,0,0,0.64414,-1.0314,0,0.34972,0,0,0.18027,-0.035589,0,0.18375,-0.33363,-0.59695,-0.4355,5.8949,-0.45536,0.22998,-0.00023734,0.28,0.76,0
0.28037,-0.037059,0.76336,-0.34212,-0.56897,-0.426,0.039902,0,0,0.54523,-0.92931,0,0.51872,0,0,0.18618,-0.040354,0,0.19053,-0.3353,-0.57578,-0.426,9.6906,-0.44569,0.21035,-0.00019612,0.3,0.76,0
0.2901,-0.026659,0.7444,-0.35341,-0.53274,-0.41473,0.054499,0,0,0.39854,-0.76709,0,0.70849,0,0,0.19354,-0.043047,0,0.19831,-0.33815,-0.548,-0.41473,15.646,-0.43363,0.18394,-0.00014311,0.32,0.76,0
0.29631,-0.013533,0.72466,-0.38859,-1.1264,-0.88929,0.070921,0,0,0.7751,-0.51376,0,0.51117,0,0,0.20795,-0.12801,0,0.25385,-0.37335,-1.1417,-0.88929,12.857,-0.80143,0.68211,0.029168,0.34,0.76,0
0.3211,-0.012637,0.72029,-0.42329,-1.6742,-1.3495,0.087658,0,0,1.2041,-0.4221,0,0.22791,0,0,0.2332,-0.20441,0,0.31042,-0.41717,-1.6804,-1.3495,3.9889,-1.149,1.1345,0.054063,0.36,0.76,0
0.34447,-0.011121,0.71533,-0.44319,-1.5612,-1.3166,0.085262,0,0,1.1355,-0.31793,0,0.22168,0,0,0.25749,-0.18772,0,0.31872,-0.43673,-1.5677,-1.3166,4.3361,-1.107,1.0287,0.04488,0.38,0.76,0
0.36652,-0.010019,0.70999,-0.45802,-1.4645,-1.2867,0.059427,0,0,1.0773,-0.23108,0,0.15451,0,0,0.27188,-0.17118,0,0.32126,-0.45452,-1.468,-1.2867,3.3674,-1.0697,0.93609,0.036862,0.4,0.76,0
0.38757,-0.010214,0.70445,-0.44279,-0.90448,-0.82685,0.028795,0,0,0.39196,-0.16819,0,0.17541,0,0,0.27812,-0.09677,0,0.30081,-0.42776,-0.91952,-0.82685,29.093,-0.72471,0.46649,0.016417,0.42,0.76,0
0.3822,-0.0073706,0.6765,-0.43408,-0.41795,-0.39091,0.015095,0,0,-0.28061,-0.17576,0,0.19624,0,0,0.27907,-0.026872,0,0.28036,-0.4089,-0.44313,-0.39091,59.058,-0.41431,0.045948,-2.5312e-06,0.44,0.76,0
0.37634,-0.0052055,0.64864,-0.42805,-0.41066,-0.38134,0.010948,0,0,-0.30361,-0.19057,0,0.14232,0,0,0.27769,-0.022798,0,0.27863,-0.40537,-0.43333,-0.38134,64.23,-0.40668,0.045072,-6.1315e-07,0.46,0.76,0
0.37006,-0.0035375,0.62096,-0.4219,-0.40353,-0.37182,0.0080847,0,0,-0.32551,-0.20609,0,0.1051,0,0,0.2755,-0.019775,0,0.2762,-0.40047,-0.42495,-0.37182,69.325,-0.39908,0.046059,6.8135e-07,0.48,0.76,0
0.36332,-0.0022344,0.59354,-0.41611,-0.39607,-0.36236,0.006067,0,0,-0.34939,-0.21908,0,0.07887,0,0,0.27289,-0.017556,0,0.27346,-0.39437,-0.41781,-0.36236,74.409,-0.39151,0.048209,1.5193e-06,0.5,0.76,0
0.35608,-0.0012098,0.56639,-0.41089,-0.38809,-0.35297,0.0045829,0,0,-0.37649,-0.22826,0,0.059578,0,0,0.27017,-0.015931,0,0.27064,-0.3872,-0.41178,-0.35297,79.052,-0.38398,0.051157,1.923e-06,0.52,0.76,0
0.34826,-0.00040832,0.5395,-0.40627,-0.37957,-0.34365,0.0034441,0,0,-0.40702,-0.23347,0,0.044773,0,0,0.26752,-0.01473,0,0.26793,-0.37914,-0.40671,-0.34365,82.767,-0.3765,0.054751,1.8136e-06,0.54,0.76,0
0.3398,0.00020733,0.51288,-0.40223,-0.37059,-0.33442,0.0025477,0,0,-0.44074,-0.23511,0,0.03312,0,0,0.26507,-0.013823,0,0.26544,-0.37039,-0.40243,-0.33442,85.425,-0.36908,0.058931,1.0479e-06,0.56,0.76,0
0.33063,0.00066592,0.48649,-0.3987,-0.36124,-0.32528,0.0018424,0,0,-0.47723,-0.23375,0,0.023952,0,0,0.2629,-0.013115,0,0.26323,-0.36115,-0.39879,-0.32528,87.191,-0.36174,0.063667,-5.5199e-07,0.58,0.76,0
0.32071,0.00099254,0.4603,-0.39562,-0.35162,-0.31623,0.0013026,0,0,-0.51603,-0.23002,0,0.016934,0,0,0.26104,-0.01254,0,0.26134,-0.35158,-0.39566,-0.31623,88.306,-0.35449,0.068924,-3.1781e-06,0.6,0.76,0
0.30999,0.0012108,0.43428,-0.39294,-0.34182,-0.30728,0.00091226,0,0,-0.55676,-0.22447,0,0.011859,0,0,0.2595,-0.012054,0,0.25978,-0.3418,-0.39295,-0.30728,88.978,-0.34735,0.074658,-7.0257e-06,0.62,0.76,0
0.29844,0.0013433,0.4084,-0.3906,-0.33191,-0.29843,0.00065726,0,0,-0.5991,-0.21758,0,0.0085444,0,0,0.25828,-0.01163,0,0.25854,-0.3319,-0.39061,-0.29843,89.359,-0.34031,0.080818,-1.2289e-05,0.64,0.76,0
0.28603,0.0014111,0.38263,-0.38858,-0.32195,-0.28968,0.00052186,0,0,-0.6428,-0.20974,0,0.0067842,0,0,0.25737,-0.011252,0,0.25762,-0.32195,-0.38858,-0.28968,89.551,-0.3334,0.087354,-1.9161e-05,0.66,0.76,0
0.27273,0.0014334,0.35693,-0.38683,-0.312,-0.28104,0.00048786,0,0,-0.68769,-0.20128,0,0.0063422,0,0,0.25678,-0.010908,0,0.25701,-0.312,-0.38684,-0.28104,89.626,-0.32662,0.094216,-2.7836e-05,0.68,0.76,0
0.25852,0.001427,0.33127,-0.38536,-0.3021,-0.27249,0.00053489,0,0,-0.73363,-0.19245,0,0.0069535,0,0,0.25649,-0.010591,0,0.25671,-0.30209,-0.38536,-0.27249,89.632,-0.31998,0.10136,-3.8507e-05,0.7,0.76,0
0.24338,0.0014055,0.30563,-0.38412,-0.29227,-0.26404,0.00064101,0,0,-0.7805,-0.18348,0,0.0083332,0,0,0.25651,-0.010296,0,0.25671,-0.29227,-0.38412,-0.26404,89.6,-0.31348,0.10875,-5.1364e-05,0.72,0.76,0
0.2273,0.0013798,0.27997,-0.38311,-0.28256,-0.2557,0.0007836,0,0,-0.82822,-0.1746,0,0.010187,0,0,0.25682,-0.010015,0,0.25702,-0.28255,-0.38312,-0.2557,89.554,-0.30712,0.11635,-6.6584e-05,0.74,0.76,0
0.21025,0.0013579,0.25426,-0.38231,-0.27299,-0.24744,0.00094033,0,0,-0.87667,-0.16603,0,0.012224,0,0,0.25745,-0.0097377,0,0.25763,-0.27298,-0.38232,-0.24744,89.507,-0.30091,0.1241,-8.4318e-05,0.76,0.76,0
0.19223,0.0013452,0.22848,-0.3817,-0.26359,-0.23928,0.0010907,0,0,-0.92571,-0.158,0,0.014179,0,0,0.25837,-0.0094471,0,0.25855,-0.26358,-0.38171,-0.23928,89.471,-0.29486,0.13197,-0.00010468,0.78,0.76,0
0.17323,0.0013457,0.20259,-0.38124,-0.2544,-0.23121,0.0012184,0,0,-0.97518,-0.15076,0,0.015839,0,0,0.2596,-0.0091186,0,0.25976,-0.25439,-0.38125,-0.23121,89.45,-0.28895,0.1399,-0.0001277,0.8,0.76,0
0.15323,0.001363,0.17656,-0.38089,-0.24546,-0.22322,0.0013137,0,0,-1.0249,-0.14456,0,0.017078,0,0,0.2611,-0.0087169,0,0.26125,-0.24544,-0.3809,-0.22322,89.444,-0.28319,0.14783,-0.00015337,0.82,0.76,0
0.13223,0.0014023,0.15037,-0.38062,-0.23678,-0.21529,0.0013767,0,0,-1.0746,-0.13965,0,0.017897,0,0,0.26284,-0.0081955,0,0.26297,-0.23677,-0.38064,-0.21529,89.452,-0.27756,0.15572,-0.00018157,0.84,0.76,0
0.11024,0.0014715,0.12399,-0.38038,-0.22837,-0.20742,0.0014177,0,0,-1.1242,-0.13616,0,0.01843,0,0,0.26475,-0.0074988,0,0.26486,-0.22836,-0.3804,-0.20742,89.466,-0.27206,0.16351,-0.00021217,0.86,0.76,0
0.087262,0.0015831,0.097419,-0.38014,-0.22023,-0.19959,0.0014539,0,0,-1.1735,-0.13412,0,0.018901,0,0,0.26672,-0.0065684,0,0.2668,-0.22021,-0.38015,-0.19959,89.479,-0.26665,0.17118,-0.00024507,0.88,0.76,0
0.063299,0.0017537,0.070649,-0.37986,-0.2123,-0.19178,0.0015017,0,0,-1.2225,-0.1334,0,0.019522,0,0,0.2686,-0.0053544,0,0.26865,-0.21229,-0.37987,-0.19178,89.487,-0.26131,0.17872,-0.00028023,0.9,0.76,0
0.038361,0.002001,0.043699,-0.37952,-0.20453,-0.18395,0.0015649,0,0,-1.2712,-0.13375,0,0.020344,0,0,0.27022,-0.0038306,0,0.27025,-0.20452,-0.37953,-0.18395,89.488,-0.256,0.18615,-0.0003177,0.92,0.76,0
0.012453,0.0023392,0.016604,-0.37937,-0.2658,-0.20351,0.0013494,0,0,-0.74676,-0.13496,0,0.011013,0,0,0.27232,-0.0060297,0,0.27242,-0.26578,-0.37939,-0.20351,89.029,-0.2829,0.16232,-0.000132,0.94,0.76,0
0.0084903,0.0023675,0.01113,-0.37898,-0.32714,-0.22297,0.00062459,0,0,-0.20282,-0.13542,0,0.001624,0,0,0.27548,-0.0075238,0,0.27559,-0.32713,-0.37899,-0.22297,89.31,-0.3097,0.13763,7.2654e-05,0.96,0.76,0
0.0043403,0.0023705,0.0055848,-0.3784,-0.32008,-0.21513,0.00011614,0,0,-0.21226,-0.13644,0,0.00030196,0,0,0.27825,-0.0040333,0,0.27828,-0.32008,-0.3784,-0.21513,89.886,-0.30454,0.14331,7.1168e-05,0.98,0.76,0
0,0.0023692,0,-0.37112,-0.3095,-0.20418,-2.6129e-05,0,0,-0.21701,-0.1369,0,-6.7936e-05,0,0,0.27924,2.1684e-18,0,0.27923,-0.3095,-0.37112,-0.20418,-89.976,-0.29493,0.14621,6.981e-05,1,0.76,0
0,-0.019471,1,-0.63492,-2.0135,-1.7945,-0.023591,0,0,1.5075,-0.28471,0,-0.061337,0,0,0.34208,-8.0838e-16,0,0.34127,-0.63452,-2.0139,-1.7945,-0.98007,-1.481,1.2839,0.098074,0,0.78,0
0.03015,-0.020698,0.99316,-0.59199,-2.0167,-1.7758,-0.080177,0,0,1.5389,-0.31325,0,-0.20846,0,0,0.32748,0.057176,0,0.3317,-0.5875,-2.0212,-1.7758,-3.2108,-1.4615,1.3281,0.1066,0.02,0.78,0
0.061557,-0.023442,0.9869,-0.54856,-2.1159,-1.7862,-0.13225,0,0,1.609,-0.42857,0,-0.34386,0,0,0.28498,0.11712,0,0.3092,-0.53748,-2.127,-1.7862,-4.7895,-1.4836,1.4495,0.12775,0.04,0.78,0
0.094509,-0.025473,0.98176,-0.47337,-1.3987,-1.1507,-0.11431,0,0,1.1072,-0.53734,0,-0.80366,0,0,0.23505,0.085457,0,0.25542,-0.44613,-1.4259,-1.1507,-14.447,-1.0076,0.87884,0.069411,0.06,0.78,0
0.10584,-0.046003,0.96046,-0.40849,-0.64822,-0.50911,-0.084373,0,0,0.65399,-0.90425,0,-1.0969,0,0,0.20549,0.030706,0,0.20796,-0.38177,-0.67494,-0.50911,-17.571,-0.52194,0.25462,-0.00019083,0.08,0.78,0
0.12067,-0.060038,0.94066,-0.38282,-0.6661,-0.50281,-0.059557,0,0,0.7799,-1.0614,0,-0.77424,0,0,0.19194,0.023536,0,0.19343,-0.37081,-0.67811,-0.50281,-11.403,-0.51724,0.26701,-0.00023576,0.1,0.78,0
0.13704,-0.069172,0.92207,-0.36754,-0.67119,-0.49603,-0.042093,0,0,0.83521,-1.1385,0,-0.54721,0,0,0.18215,0.014763,0,0.18274,-0.36181,-0.67692,-0.49603,-7.7478,-0.51159,0.27389,-0.00026707,0.12,0.78,0
0.15408,-0.075055,0.90423,-0.35754,-0.67223,-0.48978,-0.029945,0,0,0.85954,-1.1859,0,-0.38928,0,0,0.17599,0.0066257,0,0.1761,-0.35472,-0.67505,-0.48978,-5.3877,-0.50651,0.27855,-0.00029691,0.14,0.78,0
0.17142,-0.078656,0.88687,-0.3498,-0.66963,-0.48321,-0.020897,0,0,0.86711,-1.2118,0,-0.27165,0,0,0.17203,-0.00068198,0,0.17202,-0.34845,-0.67099,-0.48321,-3.7224,-0.50088,0.28059,-0.0003178,0.16,0.78,0
0.18876,-0.080457,0.86982,-0.34399,-0.66446,-0.4765,-0.013481,0,0,0.86132,-1.2217,0,-0.17525,0,0,0.16951,-0.0073364,0,0.16965,-0.34342,-0.66503,-0.4765,-2.4045,-0.49499,0.27989,-0.00033029,0.18,0.78,0
0.20587,-0.080713,0.85297,-0.33956,-0.6571,-0.46959,-0.0067738,0,0,0.84519,-1.2188,0,-0.08806,0,0,0.16806,-0.013601,0,0.16859,-0.33942,-0.65724,-0.46959,-1.2215,-0.48875,0.27674,-0.00033423,0.2,0.78,0
0.22257,-0.079511,0.83621,-0.33628,-0.64774,-0.46245,1.6707e-05,0,0,0.82012,-1.2044,0,0.00021719,0,0,0.16758,-0.019758,0,0.16872,-0.33628,-0.64774,-0.46245,0.0030733,-0.48216,0.27135,-0.00033008,0.22,0.78,0
0.23868,-0.076795,0.81946,-0.33412,-0.63643,-0.45505,0.007668,0,0,0.78608,-1.1789,0,0.099684,0,0,0.16815,-0.026095,0,0.17014,-0.33393,-0.63662,-0.45505,1.4521,-0.4752,0.26388,-0.00031854,0.24,0.78,0
0.25401,-0.072354,0.80258,-0.33338,-0.62297,-0.44742,0.01705,0,0,0.74126,-1.1411,0,0.22165,0,0,0.17008,-0.032897,0,0.17321,-0.33238,-0.62397,-0.44742,3.3579,-0.46793,0.25439,-0.00030068,0.26,0.78,0
0.26833,-0.06579,0.78544,-0.33432,-0.60657,-0.43936,0.029449,0,0,0.68271,-1.0869,0,0.38283,0,0,0.17412,-0.040374,0,0.17872,-0.33117,-0.60972,-0.43936,6.1036,-0.46008,0.24322,-0.00027722,0.28,0.78,0
0.28132,-0.05633,0.76776,-0.33966,-0.58677,-0.43148,0.046566,0,0,0.59683,-1.0094,0,0.60536,0,0,0.18153,-0.048382,0,0.18789,-0.33118,-0.59526,-0.43148,10.325,-0.45264,0.23089,-0.00025411,0.3,0.78,0
0.2922,-0.04276,0.74913,-0.35285,-0.55558,-0.42235,0.069569,0,0,0.45181,-0.86597,0,0.9044,0,0,0.19224,-0.054753,0,0.20001,-0.33127,-0.57716,-0.42235,17.231,-0.44359,0.21532,-0.00022093,0.32,0.78,0
0.29939,-0.024084,0.72931,-0.40372,-1.1689,-0.90937,0.09804,0,0,0.80116,-0.56227,0,0.68608,0,0,0.2148,-0.15789,0,0.27803,-0.38005,-1.1926,-0.90937,14.68,-0.82732,0.71788,0.029426,0.34,0.78,0
0.32425,-0.021082,0.72468,-0.43859,-1.6754,-1.3589,0.12634,0,0,1.1964,-0.41146,0,0.32849,0,0,0.2511,-0.24404,0,0.35056,-0.42581,-1.6882,-1.3589,5.7735,-1.1576,1.1341,0.054178,0.36,0.78,0
0.34725,-0.017192,0.71927,-0.46064,-1.5198,-1.3134,0.10371,0,0,1.1086,-0.2683,0,0.26965,0,0,0.27996,-0.20172,0,0.34479,-0.45058,-1.5298,-1.3134,5.5403,-1.0979,0.98896,0.041768,0.38,0.78,0
0.36859,-0.014215,0.71349,-0.4811,-1.4276,-1.2861,0.061581,0,0,1.0465,-0.18394,0,0.16011,0,0,0.28903,-0.17361,0,0.33704,-0.47711,-1.4316,-1.2861,3.707,-1.0649,0.89068,0.03305,0.4,0.78,0
0.38911,-0.013061,0.70771,-0.45218,-0.8758,-0.82302,0.022964,0,0,0.35883,-0.11436,0,0.12254,0,0,0.28732,-0.095497,0,0.30865,-0.43448,-0.8935,-0.82302,36.346,-0.717,0.44254,0.014565,0.42,0.78,0
0.38294,-0.010525,0.67914,-0.43994,-0.4136,-0.39189,0.0078739,0,0,-0.31233,-0.14112,0,0.10236,0,0,0.28447,-0.024991,0,0.28555,-0.41142,-0.44211,-0.39189,74.563,-0.41514,0.043852,-1.6164e-06,0.44,0.78,0
0.37661,-0.008769,0.65081,-0.4316,-0.40793,-0.38202,0.0039977,0,0,-0.32226,-0.1684,0,0.05197,0,0,0.28163,-0.020102,0,0.28234,-0.40727,-0.43226,-0.38202,80.668,-0.40718,0.043506,3.8872e-08,0.46,0.78,0
0.37005,-0.0074846,0.62281,-0.42406,-0.40179,-0.37232,0.0017872,0,0,-0.33632,-0.19159,0,0.023233,0,0,0.2783,-0.016702,0,0.2788,-0.40165,-0.4242,-0.37232,85.44,-0.39939,0.04506,1.053e-06,0.48,0.78,0
0.36316,-0.0064873,0.59515,-0.41744,-0.3949,-0.36273,0.00052846,0,0,-0.35561,-0.2091,0,0.0068699,0,0,0.27486,-0.014411,0,0.27524,-0.39489,-0.41746,-0.36273,88.658,-0.39169,0.047632,1.6539e-06,0.5,0.78,0
0.35583,-0.0056755,0.56784,-0.41172,-0.38725,-0.35326,-0.00021773,0,0,-0.38,-0.22093,0,-0.0028305,0,0,0.27153,-0.012917,0,0.27184,-0.38725,-0.41172,-0.35326,-89.49,-0.38407,0.050854,1.8727e-06,0.52,0.78,0
0.34796,-0.0049981,0.54085,-0.40679,-0.37893,-0.34388,-0.00069429,0,0,-0.40886,-0.2278,0,-0.0090257,0,0,0.26846,-0.011969,0,0.26874,-0.37892,-0.40681,-0.34388,-88.573,-0.37654,0.054607,1.6307e-06,0.54,0.78,0
0.33948,-0.0044297,0.51415,-0.40253,-0.3701,-0.33462,-0.0010165,0,0,-0.44143,-0.23062,0,-0.013214,0,0,0.26574,-0.011381,0,0.26599,-0.37006,-0.40256,-0.33462,-88.207,-0.36908,0.05886,7.8709e-07,0.56,0.78,0
0.3303,-0.0039561,0.4877,-0.39884,-0.36087,-0.32545,-0.0012291,0,0,-0.47701,-0.23023,0,-0.015978,0,0,0.26338,-0.011019,0,0.26362,-0.36083,-0.39888,-0.32545,-88.148,-0.36172,0.063603,-8.3073e-07,0.58,0.78,0
0.32039,-0.0035653,0.46147,-0.39564,-0.35137,-0.3164,-0.0013444,0,0,-0.51505,-0.22735,0,-0.017478,0,0,0.2614,-0.010793,0,0.26163,-0.35133,-0.39568,-0.3164,-88.262,-0.35447,0.068819,-3.4106e-06,0.6,0.78,0
0.3097,-0.0032454,0.43542,-0.39285,-0.34169,-0.30745,-0.001364,0,0,-0.55511,-0.22259,0,-0.017732,0,0,0.25979,-0.01065,0,0.26001,-0.34165,-0.39288,-0.30745,-88.474,-0.34733,0.07448,-7.1476e-06,0.62,0.78,0
0.29819,-0.0029834,0.40951,-0.39042,-0.33189,-0.2986,-0.001289,0,0,-0.59688,-0.21641,0,-0.016757,0,0,0.25852,-0.010555,0,0.25873,-0.33186,-0.39045,-0.2986,-88.739,-0.3403,0.08055,-1.2241e-05,0.64,0.78,0
0.28583,-0.0027657,0.38371,-0.38833,-0.32204,-0.28985,-0.0011243,0,0,-0.6401,-0.20919,0,-0.014616,0,0,0.25758,-0.010493,0,0.25779,-0.32202,-0.38835,-0.28985,-89.029,-0.33341,0.086994,-1.8897e-05,0.66,0.78,0
0.27259,-0.0025796,0.358,-0.38654,-0.31217,-0.28121,-0.00087989,0,0,-0.68462,-0.20122,0,-0.011439,0,0,0.25696,-0.010457,0,0.25717,-0.31216,-0.38655,-0.28121,-89.322,-0.32664,0.093775,-2.7326e-05,0.68,0.78,0
0.25844,-0.0024136,0.33232,-0.38503,-0.30233,-0.27267,-0.00057053,0,0,-0.73032,-0.19276,0,-0.0074169,0,0,0.25665,-0.010443,0,0.25686,-0.30232,-0.38503,-0.27267,-89.605,-0.32001,0.10086,-3.7745e-05,0.7,0.78,0
0.24337,-0.0022584,0.30667,-0.38379,-0.29254,-0.26423,-0.00021535,0,0,-0.77711,-0.18403,0,-0.0027995,0,0,0.25664,-0.010452,0,0.25686,-0.29254,-0.38379,-0.26423,-89.865,-0.31352,0.10821,-5.0375e-05,0.72,0.78,0
0.22736,-0.0021076,0.28099,-0.3828,-0.28285,-0.25589,0.00016272,0,0,-0.8249,-0.17521,0,0.0021153,0,0,0.25695,-0.010479,0,0.25716,-0.28285,-0.3828,-0.25589,89.907,-0.30718,0.11581,-6.5432e-05,0.74,0.78,0
0.21038,-0.0019577,0.25528,-0.38205,-0.27327,-0.24765,0.00053781,0,0,-0.8736,-0.16653,0,0.0069915,0,0,0.25758,-0.010517,0,0.25779,-0.27327,-0.38206,-0.24765,89.717,-0.30099,0.1236,-8.3115e-05,0.76,0.78,0
0.19241,-0.0018079,0.22948,-0.38153,-0.26385,-0.23951,0.0008827,0,0,-0.92312,-0.15821,0,0.011475,0,0,0.25853,-0.010547,0,0.25875,-0.26384,-0.38153,-0.23951,89.57,-0.29496,0.13156,-0.00010358,0.78,0.78,0
0.17345,-0.0016596,0.20357,-0.38119,-0.25461,-0.23145,0.0011717,0,0,-0.97327,-0.15052,0,0.015232,0,0,0.25982,-0.010538,0,0.26004,-0.2546,-0.3812,-0.23145,89.47,-0.28908,0.13962,-0.00012693,0.8,0.78,0
0.15348,-0.0015148,0.17752,-0.381,-0.2456,-0.22348,0.0013854,0,0,-1.0238,-0.14377,0,0.018011,0,0,0.26144,-0.010439,0,0.26165,-0.24559,-0.38101,-0.22348,89.414,-0.28336,0.14772,-0.00015314,0.82,0.78,0
0.1325,-0.0013737,0.15128,-0.38091,-0.23686,-0.21558,0.0015165,0,0,-1.0746,-0.13827,0,0.019714,0,0,0.26336,-0.010178,0,0.26356,-0.23684,-0.38092,-0.21558,89.397,-0.27778,0.1558,-0.00018211,0.84,0.78,0
0.1105,-0.001232,0.12484,-0.38086,-0.2284,-0.20775,0.0015736,0,0,-1.1252,-0.13426,0,0.020457,0,0,0.26553,-0.0096596,0,0.26571,-0.22839,-0.38088,-0.20775,89.409,-0.27234,0.16379,-0.00021363,0.86,0.78,0
0.08749,-0.0010783,0.098176,-0.3808,-0.22023,-0.19995,0.0015801,0,0,-1.1756,-0.13187,0,0.020541,0,0,0.26783,-0.0087772,0,0.26797,-0.22022,-0.38082,-0.19995,89.436,-0.26699,0.17164,-0.00024751,0.88,0.78,0
0.063477,-0.00089339,0.071277,-0.38068,-0.2123,-0.19215,0.0015615,0,0,-1.2255,-0.13098,0,0.020299,0,0,0.27009,-0.0074302,0,0.2702,-0.21229,-0.3807,-0.19215,89.469,-0.26171,0.17933,-0.00028363,0.9,0.78,0
0.038471,-0.00065427,0.044157,-0.38046,-0.20453,-0.18433,0.0015284,0,0,-1.2749,-0.1313,0,0.019869,0,0,0.27212,-0.0055535,0,0.27218,-0.20451,-0.38047,-0.18433,89.502,-0.25644,0.18687,-0.00032201,0.92,0.78,0
0.012483,-0.00034137,0.016853,-0.38015,-0.26473,-0.20357,0.0010402,0,0,-0.74931,-0.1325,0,0.0095078,0,0,0.27489,-0.0094473,0,0.27513,-0.26471,-0.38016,-0.20357,89.36,-0.28281,0.16283,-0.00013695,0.94,0.78,0
0.008499,-0.00032851,0.011319,-0.37964,-0.32611,-0.22304,-8.9873e-05,0,0,-0.20357,-0.13398,0,-0.00023367,0,0,0.27918,-0.012035,0,0.27944,-0.32611,-0.37964,-0.22304,-89.904,-0.3096,0.13786,6.9406e-05,0.96,0.78,0
0.00434,-0.00035413,0.0056864,-0.37887,-0.32027,-0.21543,-0.00049478,0,0,-0.21247,-0.13629,0,-0.0012864,0,0,0.28297,-0.0065259,0,0.28304,-0.32026,-0.37887,-0.21543,-89.516,-0.30485,0.14342,7.0718e-05,0.98,0.78,0
0,-0.0003685,0,-0.37134,-0.31003,-0.20441,-0.00027645,0,0,-0.217,-0.13731,0,-0.00071878,0,0,0.28432,-8.6736e-19,0,0.28431,-0.31003,-0.37134,-0.20441,-89.742,-0.29526,0.14625,7.0791e-05,1,0.78,0
0,-0.024093,1,-0.73121,-1.933,-1.7993,-0.03226,0,0,1.3884,-0.17382,0,-0.083877,0,0,0.40995,-1.7347e-16,0,0.40884,-0.73035,-1.9338,-1.7993,-1.5366,-1.4878,1.1421,0.072954,0,0.8,0
0.027769,-0.02577,0.9918,-0.71271,-1.9362,-1.7865,-0.10943,0,0,1.3959,-0.19466,0,-0.28451,0,0,0.4026,0.074086,0,0.40801,-0.703,-1.9459,-1.7865,-5.0708,-1.4785,1.1714,0.077416,0.02,0.8,0
0.055836,-0.031609,0.9839,-0.57162,-1.9618,-1.7439,-0.20358,0,0,1.524,-0.28323,0,-0.52932,0,0,0.34221,0.16607,0,0.37743,-0.54241,-1.991,-1.7439,-8.1625,-1.4258,1.3422,0.11014,0.04,0.8,0
0.088729,-0.03698,0.97811,-0.52144,-1.5149,-1.1978,-0.21493,0,0,1.1069,-0.68713,0,-1.3162,0,0,0.25273,0.19163,0,0.33089,-0.46038,-1.576,-1.1978,-18.505,-1.078,0.98674,0.073985,0.06,0.8,0
0.10011,-0.065444,0.95648,-0.42294,-0.69734,-0.52738,-0.11825,0,0,0.67885,-1.1047,0,-1.5372,0,0,0.20183,0.050988,0,0.20834,-0.37902,-0.74126,-0.52738,-20.378,-0.54922,0.31542,-0.00049494,0.08,0.8,0
0.11588,-0.082212,0.93775,-0.38408,-0.6897,-0.50968,-0.077607,0,0,0.81643,-1.1701,0,-1.0089,0,0,0.18118,0.03383,0,0.18426,-0.3655,-0.70828,-0.50968,-13.462,-0.52782,0.2981,-0.00036839,0.1,0.8,0
0.13277,-0.092544,0.92025,-0.36849,-0.68805,-0.50101,-0.053424,0,0,0.86138,-1.2157,0,-0.69451,0,0,0.17202,0.020828,0,0.17323,-0.35979,-0.69674,-0.50101,-9.2439,-0.51918,0.29307,-0.00035658,0.12,0.8,0
0.15034,-0.09923,0.90334,-0.35708,-0.68363,-0.49288,-0.037972,0,0,0.88268,-1.2398,0,-0.49364,0,0,0.16728,0.01049,0,0.16757,-0.35273,-0.68798,-0.49288,-6.5463,-0.5112,0.29164,-0.00035578,0.14,0.8,0
0.16808,-0.10324,0.88679,-0.34965,-0.67823,-0.48572,-0.026746,0,0,0.88445,-1.2513,0,-0.3477,0,0,0.16439,0.001867,0,0.16437,-0.34749,-0.68039,-0.48572,-4.6233,-0.50454,0.28968,-0.00036024,0.16,0.8,0
0.18572,-0.10518,0.87047,-0.34417,-0.67161,-0.47883,-0.018025,0,0,0.87524,-1.2531,0,-0.23433,0,0,0.16254,-0.0056992,0,0.16262,-0.34319,-0.6726,-0.47883,-3.1415,-0.4982,0.28675,-0.00036318,0.18,0.8,0
0.20309,-0.10536,0.85428,-0.33981,-0.66381,-0.47194,-0.010438,0,0,0.85884,-1.2471,0,-0.1357,0,0,0.16139,-0.012706,0,0.16187,-0.33948,-0.66414,-0.47194,-1.8434,-0.49185,0.28275,-0.00036244,0.2,0.8,0
0.22007,-0.10389,0.83819,-0.3362,-0.65491,-0.46497,-0.0029113,0,0,0.83703,-1.2346,0,-0.037846,0,0,0.16084,-0.019585,0,0.16201,-0.33617,-0.65494,-0.46497,-0.5233,-0.48536,0.27775,-0.00035768,0.22,0.8,0
0.23657,-0.10072,0.82212,-0.33335,-0.64502,-0.45793,0.0056071,0,0,0.80982,-1.2161,0,0.072892,0,0,0.16095,-0.026778,0,0.16313,-0.33325,-0.64512,-0.45793,1.0303,-0.47877,0.2719,-0.00034971,0.24,0.8,0
0.25246,-0.09563,0.806,-0.33169,-0.63421,-0.45097,0.01639,0,0,0.7753,-1.191,0,0.21307,0,0,0.16201,-0.034802,0,0.16567,-0.33081,-0.63509,-0.45097,3.0921,-0.47229,0.26545,-0.0003405,0.26,0.8,0
0.26758,-0.088128,0.78971,-0.33266,-0.62266,-0.44454,0.030984,0,0,0.72723,-1.1578,0,0.4028,0,0,0.16478,-0.044347,0,0.17059,-0.32938,-0.62593,-0.44454,6.0309,-0.46662,0.25895,-0.00033473,0.28,0.8,0
0.28155,-0.077435,0.77304,-0.33643,-0.60876,-0.43816,0.053231,0,0,0.66126,-1.1088,0,0.69201,0,0,0.1718,-0.056372,0,0.18075,-0.3264,-0.61879,-0.43816,10.676,-0.46112,0.25555,-0.00033806,0.3,0.8,0
0.29403,-0.061298,0.75535,-0.35976,-0.59898,-0.43869,0.088697,0,0,0.51305,-1.0418,0,1.1531,0,0,0.18929,-0.072221,0,0.20275,-0.33046,-0.62827,-0.43869,18.28,-0.46581,0.2611,-0.00041345,0.32,0.8,0
0.30207,-0.036024,0.73518,-0.4324,-1.262,-0.94944,0.16613,0,0,0.83303,-0.67729,0,1.0257,0,0,0.22918,-0.24705,0,0.35175,-0.38773,-1.3067,-0.94944,17.564,-0.88129,0.8057,0.031152,0.34,0.8,0
0.32735,-0.029096,0.73005,-0.44213,-1.5673,-1.3329,0.16439,0,0,1.158,-0.30474,0,0.42742,0,0,0.29463,-0.26959,0,0.39716,-0.41861,-1.5908,-1.3329,8.1445,-1.1141,1.0669,0.050293,0.36,0.8,0
0.34839,-0.021853,0.7234,-0.52783,-1.477,-1.3249,0.10646,0,0,1.0361,-0.19783,0,0.2768,0,0,0.32792,-0.20062,0,0.38382,-0.51604,-1.4888,-1.3249,6.3216,-1.1099,0.90205,0.033537,0.38,0.8,0
0.3688,-0.017377,0.71693,-0.50948,-1.3879,-1.2862,0.047131,0,0,1.0097,-0.13232,0,0.12254,0,0,0.31444,-0.16256,0,0.3539,-0.50696,-1.3905,-1.2862,3.0623,-1.0612,0.83624,0.028465,0.4,0.8,0
0.38878,-0.014788,0.71082,-0.46172,-0.84982,-0.81995,0.011097,0,0,0.3302,-0.064717,0,0.034494,0,0,0.29941,-0.086795,0,0.3164,-0.44036,-0.87119,-0.81995,45.002,-0.7105,0.42172,0.01275,0.42,0.8,0
0.382,-0.013015,0.6815,-0.44403,-0.40996,-0.3925,-0.0018215,0,0,-0.33495,-0.11352,0,-0.02368,0,0,0.2908,-0.021194,0,0.29157,-0.40986,-0.44412,-0.3925,-86.948,-0.4155,0.045502,-2.5709e-06,0.44,0.8,0
0.37538,-0.011942,0.65266,-0.43361,-0.40616,-0.38246,-0.0043814,0,0,-0.33249,-0.154,0,-0.056959,0,0,0.28598,-0.015939,0,0.28643,-0.40547,-0.4343,-0.38246,-81.151,-0.40741,0.044984,-9.0122e-07,0.46,0.8,0
0.3687,-0.011201,0.6243,-0.42493,-0.40103,-0.37265,-0.0053267,0,0,-0.33982,-0.18449,0,-0.069247,0,0,0.28119,-0.012541,0,0.28147,-0.3999,-0.42606,-0.37265,-77.986,-0.39954,0.046261,1.7906e-07,0.48,0.8,0
0.36179,-0.010598,0.59642,-0.41769,-0.39462,-0.36298,-0.0054732,0,0,-0.35564,-0.20567,0,-0.071151,0,0,0.27668,-0.010492,0,0.27688,-0.39339,-0.41892,-0.36298,-77.309,-0.39176,0.048513,8.8043e-07,0.5,0.8,0
0.35448,-0.010047,0.56897,-0.41163,-0.38716,-0.35343,-0.0052939,0,0,-0.3783,-0.21923,0,-0.068821,0,0,0.27261,-0.0093764,0,0.27278,-0.38606,-0.41273,-0.35343,-78.302,-0.38407,0.051439,1.2111e-06,0.52,0.8,0
0.34666,-0.0095204,0.5419,-0.4065,-0.37892,-0.34401,-0.0050151,0,0,-0.40622,-0.22695,0,-0.065197,0,0,0.26905,-0.0088679,0,0.26921,-0.37804,-0.40739,-0.34401,-80.008,-0.37648,0.054938,1.0862e-06,0.54,0.8,0
0.33823,-0.0090174,0.51516,-0.40212,-0.37013,-0.33471,-0.0047182,0,0,-0.43816,-0.23028,0,-0.061337,0,0,0.26602,-0.0087283,0,0.26617,-0.36945,-0.4028,-0.33471,-81.781,-0.36899,0.058972,3.7518e-07,0.56,0.8,0
0.32913,-0.0085431,0.48869,-0.39832,-0.36096,-0.32552,-0.0044149,0,0,-0.4732,-0.23033,0,-0.057394,0,0,0.26349,-0.0087969,0,0.26364,-0.36045,-0.39884,-0.32552,-83.352,-0.3616,0.063517,-1.0784e-06,0.58,0.8,0
0.3193,-0.0081016,0.46246,-0.39503,-0.35152,-0.31646,-0.0040908,0,0,-0.51072,-0.22792,0,-0.053181,0,0,0.26141,-0.0089735,0,0.26156,-0.35114,-0.39541,-0.31646,-84.675,-0.35434,0.068544,-3.4473e-06,0.6,0.8,0
0.3087,-0.0076929,0.43641,-0.39216,-0.34191,-0.3075,-0.0037272,0,0,-0.55026,-0.22364,0,-0.048454,0,0,0.25973,-0.0092008,0,0.2599,-0.34164,-0.39243,-0.3075,-85.781,-0.34719,0.074023,-6.9168e-06,0.62,0.8,0
0.29729,-0.0073132,0.41051,-0.38966,-0.33219,-0.29866,-0.0033097,0,0,-0.59152,-0.21795,0,-0.043026,0,0,0.25843,-0.00945,0,0.25861,-0.332,-0.38985,-0.29866,-86.715,-0.34017,0.079921,-1.1683e-05,0.64,0.8,0
0.28504,-0.0069565,0.38473,-0.3875,-0.32241,-0.28992,-0.0028312,0,0,-0.63429,-0.21119,0,-0.036806,0,0,0.25747,-0.0097108,0,0.25766,-0.32229,-0.38762,-0.28992,-87.514,-0.33328,0.086207,-1.7957e-05,0.66,0.8,0
0.27192,-0.0066155,0.35902,-0.38566,-0.31261,-0.28128,-0.0022925,0,0,-0.67842,-0.20362,0,-0.029802,0,0,0.25683,-0.0099833,0,0.25703,-0.31254,-0.38573,-0.28128,-88.204,-0.32652,0.092851,-2.5959e-05,0.68,0.8,0
0.2579,-0.0062836,0.33336,-0.38411,-0.30282,-0.27275,-0.0017014,0,0,-0.72383,-0.19546,0,-0.022118,0,0,0.2565,-0.010273,0,0.2567,-0.30279,-0.38415,-0.27275,-88.802,-0.31989,0.099825,-3.593e-05,0.7,0.8,0
0.24297,-0.0059555,0.30772,-0.38286,-0.29307,-0.26432,-0.0010729,0,0,-0.77046,-0.18689,0,-0.013947,0,0,0.25647,-0.010587,0,0.25669,-0.29306,-0.38287,-0.26432,-89.315,-0.31342,0.10711,-4.8122e-05,0.72,0.8,0
0.22708,-0.0056286,0.28207,-0.38188,-0.28339,-0.25599,-0.00042853,0,0,-0.81827,-0.17807,0,-0.0055709,0,0,0.25676,-0.01093,0,0.25699,-0.28339,-0.38189,-0.25599,-89.751,-0.30709,0.11467,-6.2802e-05,0.74,0.8,0
0.21024,-0.0053032,0.25637,-0.38119,-0.2738,-0.24777,0.00020344,0,0,-0.86724,-0.16917,0,0.0026447,0,0,0.25738,-0.011299,0,0.25763,-0.2738,-0.38119,-0.24777,89.891,-0.30092,0.1225,-8.0235e-05,0.76,0.8,0
0.1924,-0.0049832,0.23059,-0.38077,-0.26432,-0.23964,0.000789,0,0,-0.9173,-0.1604,0,0.010257,0,0,0.25835,-0.01168,0,0.25862,-0.26432,-0.38077,-0.23964,89.612,-0.29491,0.13055,-0.00010067,0.78,0.8,0
0.17354,-0.0046752,0.2047,-0.38059,-0.255,-0.23162,0.0012907,0,0,-0.96834,-0.15199,0,0.016779,0,0,0.25971,-0.01204,0,0.25999,-0.25499,-0.38061,-0.23162,89.411,-0.28907,0.13879,-0.00012428,0.8,0.8,0
0.15366,-0.0043878,0.17865,-0.38063,-0.24588,-0.22368,0.0016731,0,0,-1.0201,-0.14427,0,0.02175,0,0,0.26146,-0.012316,0,0.26175,-0.24586,-0.38065,-0.22368,89.289,-0.2834,0.14714,-0.00015115,0.82,0.8,0
0.13274,-0.0041284,0.1524,-0.38082,-0.23701,-0.21583,0.0019123,0,0,-1.0724,-0.13767,0,0.02486,0,0,0.26362,-0.012412,0,0.26392,-0.23698,-0.38084,-0.21583,89.238,-0.27788,0.15552,-0.00018119,0.84,0.8,0
0.11076,-0.0038991,0.12592,-0.38109,-0.22844,-0.20804,0.0020063,0,0,-1.1248,-0.13257,0,0.026082,0,0,0.26615,-0.012185,0,0.26643,-0.22841,-0.38111,-0.20804,89.247,-0.27252,0.16384,-0.00021416,0.86,0.8,0
0.087745,-0.0036918,0.099174,-0.38136,-0.22018,-0.2003,0.001978,0,0,-1.1769,-0.12925,0,0.025714,0,0,0.26895,-0.011462,0,0.26919,-0.22016,-0.38139,-0.2003,89.297,-0.26728,0.17202,-0.00024972,0.88,0.8,0
0.063687,-0.0034857,0.072135,-0.38156,-0.2122,-0.19255,0.0018616,0,0,-1.2285,-0.12769,0,0.024201,0,0,0.27182,-0.010059,0,0.27201,-0.21218,-0.38158,-0.19255,89.37,-0.2621,0.18002,-0.00028765,0.9,0.8,0
0.038604,-0.003251,0.044809,-0.3816,-0.20436,-0.18475,0.0016716,0,0,-1.2795,-0.1275,0,0.021731,0,0,0.2745,-0.0078363,0,0.27462,-0.20435,-0.38161,-0.18475,89.46,-0.2569,0.18783,-0.00032788,0.92,0.8,0
0.012508,-0.0029607,0.017234,-0.38098,-0.2626,-0.20342,0.00067885,0,0,-0.75275,-0.12825,0,0.0083004,0,0,0.27843,-0.014274,0,0.27897,-0.2626,-0.38098,-0.20342,89.749,-0.28233,0.16353,-0.00014503,0.94,0.8,0
0.0084937,-0.0029919,0.011612,-0.38041,-0.32464,-0.22313,-0.0012442,0,0,-0.20447,-0.13196,0,-0.0032349,0,0,0.2847,-0.018495,0,0.28531,-0.32461,-0.38044,-0.22313,-88.723,-0.30939,0.13814,6.4667e-05,0.96,0.8,0
0.0043288,-0.0030811,0.0058458,-0.37936,-0.32121,-0.21602,-0.0015123,0,0,-0.21234,-0.13676,0,-0.0039321,0,0,0.29029,-0.01012,0,0.29045,-0.32117,-0.3794,-0.21602,-88.511,-0.30553,0.14342,7.1727e-05,0.98,0.8,0
0,-0.0031232,0,-0.37143,-0.31169,-0.20494,-0.00080903,0,0,-0.21644,-0.13878,0,-0.0021035,0,0,0.29229,8.6736e-19,0,0.29226,-0.31168,-0.37144,-0.20494,-89.224,-0.29602,0.1461,7.4593e-05,1,0.8,0
0,-0.026423,1,-0.77713,-1.85,-1.7881,-0.039621,0,0,1.3143,-0.080382,0,-0.10301,0,0,0.49025,-6.2103e-16,0,0.48925,-0.77567,-1.8514,-1.7881,-2.1122,-1.4717,1.0455,0.057977,0,0.82,0
0.026286,-0.028484,0.9902,-0.7901,-1.8502,-1.7823,-0.0932,0,0,1.2898,-0.088257,0,-0.24232,0,0,0.49356,0.077224,0,0.49829,-0.78197,-1.8583,-1.7823,-4.9864,-1.4742,1.0404,0.0568,0.02,0.82,0
0.051593,-0.034771,0.98026,-0.85739,-1.9003,-1.8076,-0.26584,0,0,1.2352,-0.12054,0,-0.69118,0,0,0.53027,0.1751,0,0.55489,-0.79354,-1.9641,-1.8076,-13.507,-1.5217,1.1007,0.063842,0.04,0.82,0
0.075695,-0.052959,0.96898,-0.7716,-1.3674,-1.2231,-0.36243,0,0,0.8648,-0.50717,0,-1.9476,0,0,0.43756,0.21363,0,0.48935,-0.59865,-1.5403,-1.2231,-26.785,-1.1207,0.83525,0.036531,0.06,0.82,0
0.089588,-0.090192,0.95026,-0.61964,-0.76527,-0.98563,-0.24546,0,0,0.79298,-0.20849,0,-1.3875,0,0,0.52634,0.071014,0,0.53254,-0.41271,-0.9722,-0.98563,-33.609,-0.79018,0.61675,0.010775,0.08,0.82,0
0.10741,-0.10684,0.9339,-0.51023,-0.73388,-0.93357,-0.10709,0,0,0.91723,-0.23302,0,-0.72391,0,0,0.48533,0.043765,0,0.48821,-0.4584,-0.78571,-0.93357,-23.244,-0.72589,0.5076,-0.0041753,0.1,0.82,0
0.12628,-0.1178,0.9179,-0.47064,-0.70895,-0.90462,-0.068936,0,0,0.94029,-0.25078,0,-0.48713,0,0,0.47642,0.026237,0,0.47749,-0.44777,-0.73182,-0.90462,-17.017,-0.69474,0.49548,-0.0057302,0.12,0.82,0
0.14503,-0.12465,0.90213,-0.46094,-0.70146,-0.89,-0.045456,0,0,0.92962,-0.26327,0,-0.33349,0,0,0.47107,0.013996,0,0.47135,-0.45069,-0.71171,-0.89,-12.136,-0.68413,0.48207,-0.0059181,0.14,0.82,0
0.16346,-0.12871,0.8865,-0.45592,-0.69397,-0.87687,-0.031169,0,0,0.91205,-0.27163,0,-0.23262,0,0,0.46753,0.0043638,0,0.46753,-0.45093,-0.69896,-0.87687,-8.8064,-0.67558,0.47128,-0.0057836,0.16,0.82,0
0.18151,-0.13058,0.87096,-0.45238,-0.68636,-0.8642,-0.021006,0,0,0.89228,-0.2768,0,-0.15768,0,0,0.4648,-0.0038107,0,0.46482,-0.45002,-0.68872,-0.8642,-6.2392,-0.66765,0.46123,-0.0055452,0.18,0.82,0
0.19915,-0.1306,0.85551,-0.44843,-0.678,-0.85124,-0.012847,0,0,0.87275,-0.27961,0,-0.095233,0,0,0.46252,-0.011244,0,0.46278,-0.44749,-0.67894,-0.85124,-4.0164,-0.65922,0.45184,-0.0052764,0.2,0.82,0
0.21642,-0.1289,0.84013,-0.44334,-0.66894,-0.83776,-0.0050408,0,0,0.85458,-0.28071,0,-0.034546,0,0,0.46052,-0.018494,0,0.46122,-0.44318,-0.66911,-0.83776,-1.7012,-0.65002,0.44307,-0.0049966,0.22,0.82,0
0.23334,-0.12544,0.82481,-0.43689,-0.65926,-0.82373,0.0039905,0,0,0.83815,-0.28057,0,0.034769,0,0,0.45879,-0.026127,0,0.46016,-0.43682,-0.65934,-0.82373,1.1705,-0.63997,0.43509,-0.0047073,0.24,0.82,0
0.24994,-0.12,0.80954,-0.42982,-0.64957,-0.80954,0.016143,0,0,0.82273,-0.27935,0,0.12497,0,0,0.45754,-0.034885,0,0.45993,-0.42838,-0.65102,-0.80954,5.097,-0.62965,0.42805,-0.0043793,0.26,0.82,0
0.26625,-0.1121,0.79431,-0.42387,-0.63991,-0.79572,0.03567,0,0,0.80568,-0.27692,0,0.25919,0,0,0.45764,-0.04598,0,0.46167,-0.4165,-0.64728,-0.79572,11.044,-0.61983,0.42329,-0.0039387,0.28,0.82,0
0.28217,-0.10068,0.77903,-0.43815,-0.64385,-0.79202,0.067104,0,0,0.76672,-0.27236,0,0.46354,0,0,0.46096,-0.062231,0,0.46784,-0.41313,-0.66888,-0.79202,18.612,-0.62468,0.41733,-0.0028882,0.3,0.82,0
0.29691,-0.084434,0.76358,-0.50433,-0.6514,-0.80486,0.17997,0,0,0.65116,-0.26322,0,1.0207,0,0,0.49879,-0.088178,0,0.51002,-0.36346,-0.79227,-0.80486,31.397,-0.65353,0.48304,0.0039868,0.32,0.82,0
0.30822,-0.051176,0.74578,-0.60801,-1.1237,-0.96699,0.27595,0,0,0.69273,-0.50678,0,1.5055,0,0,0.40918,-0.24137,0,0.48018,-0.48666,-1.2451,-0.96699,25.041,-0.89957,0.66865,0.016259,0.34,0.82,0
0.32717,-0.033272,0.73547,-0.65034,-1.5264,-1.3885,0.19226,0,0,0.95958,-0.17925,0,0.49988,0,0,0.46223,-0.2468,0,0.52193,-0.61,-1.5667,-1.3885,11.849,-1.1884,0.88121,0.030356,0.36,0.82,0
0.3466,-0.025105,0.72729,-0.57324,-1.4295,-1.3281,0.065989,0,0,0.98134,-0.1318,0,0.17157,0,0,0.38699,-0.17358,0,0.42401,-0.56818,-1.4345,-1.3281,4.3811,-1.1103,0.81836,0.02655,0.38,0.82,0
0.36643,-0.019507,0.71999,-0.52193,-1.3516,-1.282,0.020052,0,0,0.98813,-0.090376,0,0.052135,0,0,0.34499,-0.13306,0,0.37008,-0.52145,-1.352,-1.282,1.3838,-1.0518,0.79789,0.025413,0.4,0.82,0
0.38613,-0.015649,0.71349,-0.46534,-0.83208,-0.81732,-0.0058486,0,0,0.31807,-0.031977,0,-0.079918,0,0,0.31297,-0.068467,0,0.32334,-0.43948,-0.85795,-0.81732,-38.209,-0.70491,0.41296,0.011689,0.42,0.82,0
0.37915,-0.015066,0.68337,-0.4448,-0.40788,-0.39248,-0.013278,0,0,-0.3401,-0.10009,0,-0.17262,0,0,0.29746,-0.014977,0,0.29785,-0.4036,-0.44908,-0.39248,-72.138,-0.41505,0.051943,-6.1007e-06,0.44,0.82,0
0.37252,-0.014929,0.654,-0.4334,-0.40592,-0.3826,-0.013738,0,0,-0.33024,-0.15159,0,-0.17859,0,0,0.29028,-0.0099528,0,0.29046,-0.40023,-0.43909,-0.3826,-67.505,-0.40731,0.050065,-3.8539e-06,0.46,0.82,0
0.36594,-0.014864,0.62532,-0.42418,-0.40159,-0.37279,-0.012936,0,0,-0.33402,-0.18715,0,-0.16817,0,0,0.28375,-0.0070576,0,0.28385,-0.39571,-0.43006,-0.37279,-65.565,-0.39952,0.049921,-2.1568e-06,0.48,0.82,0
0.35916,-0.014714,0.59725,-0.4167,-0.39538,-0.36307,-0.011716,0,0,-0.34855,-0.21002,0,-0.1523,0,0,0.27802,-0.0056702,0,0.27809,-0.39021,-0.42188,-0.36307,-66.145,-0.39172,0.050976,-9.0737e-07,0.5,0.82,0
0.352,-0.014445,0.56971,-0.41054,-0.3879,-0.35347,-0.010496,0,0,-0.37093,-0.22375,0,-0.13645,0,0,0.27315,-0.0052603,0,0.27321,-0.38378,-0.41466,-0.35347,-68.583,-0.38397,0.052987,-1.237e-07,0.52,0.82,0
0.34432,-0.014076,0.54262,-0.40537,-0.37957,-0.34401,-0.0094194,0,0,-0.39887,-0.23118,0,-0.12245,0,0,0.26911,-0.005424,0,0.26917,-0.3765,-0.40845,-0.34401,-71.93,-0.37632,0.055805,1.3185e-07,0.54,0.82,0
0.33604,-0.013641,0.51589,-0.40095,-0.37072,-0.33468,-0.008491,0,0,-0.43078,-0.23424,0,-0.11038,0,0,0.26581,-0.0058871,0,0.26588,-0.36849,-0.40317,-0.33468,-75.34,-0.36878,0.05932,-2.344e-07,0.56,0.82,0
0.32709,-0.013169,0.48946,-0.39712,-0.36151,-0.32548,-0.0076697,0,0,-0.46568,-0.23416,0,-0.099706,0,0,0.26314,-0.006481,0,0.26322,-0.35992,-0.3987,-0.32548,-78.35,-0.36137,0.063451,-1.3431e-06,0.58,0.82,0
0.31742,-0.012682,0.46326,-0.39378,-0.35207,-0.31641,-0.0069065,0,0,-0.50293,-0.23179,0,-0.089785,0,0,0.261,-0.0071121,0,0.2611,-0.35095,-0.39489,-0.31641,-80.839,-0.35409,0.068134,-3.3385e-06,0.6,0.82,0
0.30698,-0.012191,0.43726,-0.39086,-0.34248,-0.30745,-0.0061594,0,0,-0.54211,-0.22769,0,-0.080072,0,0,0.25931,-0.0077357,0,0.25943,-0.34171,-0.39163,-0.30745,-82.856,-0.34693,0.073316,-6.3857e-06,0.62,0.82,0
0.29573,-0.011702,0.4114,-0.3883,-0.33281,-0.29861,-0.0053972,0,0,-0.58296,-0.22227,0,-0.070164,0,0,0.25801,-0.0083367,0,0.25815,-0.33229,-0.38882,-0.29861,-84.496,-0.33991,0.078952,-1.0669e-05,0.64,0.82,0
0.28366,-0.011213,0.38566,-0.38608,-0.32308,-0.28988,-0.0046001,0,0,-0.62529,-0.21582,0,-0.059801,0,0,0.25705,-0.0089181,0,0.2572,-0.32275,-0.38641,-0.28988,-85.846,-0.33301,0.085006,-1.6393e-05,0.66,0.82,0
0.27072,-0.010724,0.35999,-0.38417,-0.31334,-0.28125,-0.0037584,0,0,-0.66899,-0.20856,0,-0.048859,0,0,0.2564,-0.0094927,0,0.25657,-0.31314,-0.38437,-0.28125,-86.971,-0.32626,0.091446,-2.3784e-05,0.68,0.82,0
0.2569,-0.010232,0.33438,-0.38258,-0.3036,-0.27273,-0.0028717,0,0,-0.71402,-0.20067,0,-0.037332,0,0,0.25604,-0.010078,0,0.25624,-0.3035,-0.38268,-0.27273,-87.92,-0.31964,0.098252,-3.3094e-05,0.7,0.82,0
0.24216,-0.009734,0.30878,-0.38129,-0.29389,-0.26431,-0.0019482,0,0,-0.76037,-0.19226,0,-0.025326,0,0,0.25599,-0.010692,0,0.25621,-0.29384,-0.38133,-0.26431,-88.724,-0.31316,0.10541,-4.4607e-05,0.72,0.82,0
0.22648,-0.0092305,0.28318,-0.38031,-0.28422,-0.25599,-0.0010051,0,0,-0.80807,-0.18344,0,-0.013066,0,0,0.25624,-0.011351,0,0.25649,-0.28421,-0.38032,-0.25599,-89.401,-0.30684,0.1129,-5.8639e-05,0.74,0.82,0
0.20984,-0.0087247,0.25754,-0.37966,-0.2746,-0.24779,-6.9544e-05,0,0,-0.85717,-0.17432,0,-0.00090407,0,0,0.25683,-0.012064,0,0.25711,-0.2746,-0.37966,-0.24779,-89.962,-0.30068,0.12072,-7.5539e-05,0.76,0.82,0
0.1922,-0.0082237,0.23181,-0.37934,-0.26507,-0.23969,0.00082003,0,0,-0.90773,-0.16501,0,0.01066,0,0,0.25779,-0.012826,0,0.25811,-0.26506,-0.37934,-0.23969,89.589,-0.2947,0.12886,-9.5672e-05,0.78,0.82,0
0.17353,-0.007739,0.20598,-0.37934,-0.25564,-0.23169,0.001614,0,0,-0.95974,-0.15569,0,0.020983,0,0,0.25918,-0.013612,0,0.25954,-0.25562,-0.37937,-0.23169,89.253,-0.28889,0.13728,-0.00011938,0.8,0.82,0
0.15381,-0.0072858,0.17998,-0.37967,-0.24637,-0.22381,0.0022553,0,0,-1.0131,-0.14664,0,0.029319,0,0,0.26107,-0.014359,0,0.26146,-0.24633,-0.3797,-0.22381,89.031,-0.28328,0.14595,-0.00014693,0.82,0.82,0
0.13301,-0.0068803,0.15376,-0.38025,-0.2373,-0.21602,0.00269,0,0,-1.0675,-0.13833,0,0.03497,0,0,0.26349,-0.014953,0,0.26392,-0.23725,-0.3803,-0.21602,88.922,-0.27785,0.15476,-0.00017836,0.84,0.82,0
0.11111,-0.0065347,0.12728,-0.381,-0.22852,-0.20831,0.0028864,0,0,-1.1225,-0.13133,0,0.037524,0,0,0.26648,-0.015203,0,0.26692,-0.22846,-0.38106,-0.20831,88.916,-0.27261,0.1636,-0.00021345,0.86,0.82,0
0.088105,-0.0062484,0.10047,-0.38183,-0.22008,-0.20067,0.0028536,0,0,-1.1776,-0.1262,0,0.037096,0,0,0.26995,-0.014839,0,0.27037,-0.22003,-0.38188,-0.20067,88.99,-0.26753,0.17235,-0.00025177,0.88,0.82,0
0.064005,-0.0060008,0.073289,-0.3826,-0.21196,-0.19303,0.0026259,0,0,-1.2322,-0.12307,0,0.034136,0,0,0.27372,-0.013543,0,0.27406,-0.21192,-0.38264,-0.19303,89.119,-0.26253,0.18091,-0.00029294,0.9,0.82,0
0.038816,-0.0057542,0.045725,-0.38316,-0.20397,-0.18529,0.0022167,0,0,-1.2862,-0.12145,0,0.028817,0,0,0.27742,-0.01103,0,0.27764,-0.20394,-0.38319,-0.18529,89.291,-0.25747,0.18927,-0.00033684,0.92,0.82,0
0.012556,-0.0054712,0.017805,-0.38206,-0.25857,-0.20287,0.00037147,0,0,-0.75814,-0.12068,0,0.0085895,0,0,0.28326,-0.021503,0,0.28446,-0.25856,-0.38207,-0.20287,0.096989,-0.28117,0.16481,-0.00015943,0.94,0.82,0
0.00849,-0.005607,0.012058,-0.38186,-0.3225,-0.22337,-0.0029121,0,0,-0.20604,-0.12887,0,-0.0075715,0,0,0.29285,-0.028295,0,0.29424,-0.32236,-0.38201,-0.22337,-87.198,-0.30924,0.13879,5.6819e-05,0.96,0.82,0
0.0043141,-0.0058244,0.0060912,-0.3805,-0.3233,-0.21723,-0.0030126,0,0,-0.21225,-0.13789,0,-0.0078327,0,0,0.30146,-0.015607,0,0.30183,-0.32314,-0.38066,-0.21723,-86.993,-0.30701,0.14359,7.3955e-05,0.98,0.82,0
0,-0.0059197,0,-0.37201,-0.31494,-0.20608,-0.0018329,0,0,-0.21571,-0.14151,0,-0.0047656,0,0,0.30456,2.6021e-18,0,0.30449,-0.31488,-0.37207,-0.20608,-88.162,-0.29768,0.14605,8.126e-05,1,0.82,0
0,-0.027308,1,-0.73316,-1.765,-1.7494,-0.038318,0,0,1.3212,-0.020228,0,-0.099626,0,0,0.5644,-6.8695e-16,0,0.56377,-0.73174,-1.7664,-1.7494,-2.1238,-1.4159,1.0263,0.05547,0,0.84,0
0.026424,-0.029301,0.98871,-0.71115,-1.7395,-1.7239,-0.081744,0,0,1.3166,-0.02029,0,-0.21254,0,0,0.57769,0.064916,0,0.58069,-0.70469,-1.746,-1.7239,-4.5166,-1.3915,1.0304,0.056106,0.02,0.84,0
0.052664,-0.036431,0.97689,-0.73809,-1.7437,-1.7214,-0.19765,0,0,1.2784,-0.028972,0,-0.5139,0,0,0.63107,0.13762,0,0.64591,-0.70064,-1.7812,-1.7214,-10.73,-1.4011,1.0519,0.059136,0.04,0.84,0
0.077558,-0.051431,0.96347,-0.79058,-1.5711,-1.672,-0.33866,0,0,1.1458,0.13117,0,-0.88053,0,0,0.70572,0.19538,0,0.735,-0.66412,-1.6975,-1.672,-20.476,-1.3445,1.0209,0.054527,0.06,0.84,0
0.098495,-0.073784,0.94866,-0.73252,-0.91741,-1.4436,-0.29336,0,0,0.92446,0.6841,0,-0.76274,0,0,0.76387,0.08709,0,0.76776,-0.51738,-1.1325,-1.4436,-36.254,-1.0312,0.81645,0.014894,0.08,0.84,0
0.11454,-0.091533,0.93291,-0.80336,-0.85417,-1.4302,-0.18087,0,0,0.81485,0.74881,0,-0.47027,0,0,0.78352,0.051316,0,0.78511,-0.64612,-1.0114,-1.4302,-41.003,-1.0292,0.67954,-0.0018981,0.1,0.84,0
0.13109,-0.10257,0.91732,-0.73333,-0.79238,-1.375,-0.10308,0,0,0.83422,0.75745,0,-0.26801,0,0,0.77748,0.031216,0,0.77808,-0.65563,-0.87008,-1.375,-37.008,-0.96692,0.63973,-0.0085296,0.12,0.84,0
0.14791,-0.10976,0.90182,-0.69085,-0.76052,-1.3372,-0.065484,0,0,0.84029,0.74971,0,-0.17026,0,0,0.77351,0.017692,0,0.7737,-0.65151,-0.79986,-1.3372,-30.993,-0.92953,0.62489,-0.010191,0.14,0.84,0
0.1647,-0.1141,0.88638,-0.66611,-0.74026,-1.3083,-0.043222,0,0,0.83484,0.73845,0,-0.11238,0,0,0.76996,0.0074353,0,0.76999,-0.64624,-0.76013,-1.3083,-24.689,-0.90489,0.61309,-0.010473,0.16,0.84,0
0.1813,-0.11625,0.87102,-0.65167,-0.72568,-1.2842,-0.029191,0,0,0.82232,0.72611,0,-0.075898,0,0,0.76667,-0.0010377,0,0.76666,-0.64154,-0.73581,-1.2842,-19.134,-0.88719,0.60112,-0.010237,0.18,0.84,0
0.19759,-0.11654,0.85572,-0.64314,-0.7143,-1.263,-0.01901,0,0,0.80575,0.71324,0,-0.049427,0,0,0.7634,-0.0085764,0,0.76345,-0.63838,-0.71906,-1.263,-14.057,-0.87346,0.58839,-0.0098022,0.2,0.84,0
0.21353,-0.11512,0.84048,-0.63867,-0.70547,-1.2437,-0.0098547,0,0,0.78657,0.69973,0,-0.025622,0,0,0.75999,-0.01581,0,0.76015,-0.63725,-0.70689,-1.2437,-8.22,-0.86262,0.57483,-0.0092742,0.22,0.84,0
0.22906,-0.11194,0.82532,-0.63832,-0.69965,-1.2267,0.0009537,0,0,0.7649,0.68517,0,0.0024796,0,0,0.75628,-0.02337,0,0.75664,-0.6383,-0.69966,-1.2267,0.89068,-0.85489,0.56025,-0.0086674,0.24,0.84,0
0.24413,-0.1068,0.81023,-0.64442,-0.69888,-1.2132,0.017211,0,0,0.73944,0.66864,0,0.044749,0,0,0.75221,-0.032133,0,0.75288,-0.63943,-0.70387,-1.2132,16.146,-0.85217,0.54444,-0.0078983,0.26,0.84,0
0.25864,-0.099205,0.79523,-0.66195,-0.70794,-1.2062,0.04485,0,0,0.70752,0.64773,0,0.11661,0,0,0.74763,-0.043683,0,0.74888,-0.63455,-0.73535,-1.2062,31.428,-0.8587,0.52851,-0.0066618,0.28,0.84,0
0.27242,-0.088329,0.78032,-0.69871,-0.74173,-1.2125,0.10425,0,0,0.66787,0.61194,0,0.27104,0,0,0.74423,-0.061681,0,0.74669,-0.61378,-0.82666,-1.2125,39.171,-0.8843,0.52563,-0.0035476,0.3,0.84,0
0.28535,-0.071827,0.76546,-0.61807,-0.77614,-1.1837,0.19161,0,0,0.73535,0.52986,0,0.49818,0,0,0.71354,-0.096373,0,0.71876,-0.48984,-0.90437,-1.1837,33.792,-0.85931,0.60471,0.0037449,0.32,0.84,0
0.30184,-0.051279,0.75178,-0.64075,-1.2921,-1.3316,0.22523,0,0,0.89814,0.051435,0,0.58561,0,0,0.6385,-0.21148,0,0.67655,-0.57044,-1.3624,-1.3316,17.334,-1.0881,0.777,0.023966,0.34,0.84,0
0.32127,-0.036266,0.73992,-0.57194,-1.4099,-1.3345,0.11292,0,0,0.99128,-0.098025,0,0.2936,0,0,0.53611,-0.17293,0,0.56511,-0.55699,-1.4248,-1.3345,7.5422,-1.1054,0.82636,0.027818,0.36,0.84,0
0.34149,-0.027125,0.73034,-0.52441,-1.3629,-1.2965,0.030668,0,0,1.0038,-0.086291,0,0.079737,0,0,0.44166,-0.11939,0,0.45834,-0.52329,-1.364,-1.2965,2.0919,-1.0613,0.80911,0.026567,0.38,0.84,0
0.36142,-0.020992,0.72225,-0.50822,-1.32,-1.2707,-0.00858,0,0,0.99126,-0.064088,0,-0.022308,0,0,0.37391,-0.083699,0,0.38414,-0.50813,-1.3201,-1.2707,-0.60547,-1.033,0.78845,0.024841,0.4,0.84,0
0.38114,-0.016067,0.71538,-0.46173,-0.82371,-0.81486,-0.023036,0,0,0.32384,-0.019174,0,-0.19775,0,0,0.3262,-0.039488,0,0.33001,-0.43116,-0.85428,-0.81486,-33.919,-0.7001,0.41742,0.011542,0.42,0.84,0
0.37438,-0.017019,0.68449,-0.44244,-0.40802,-0.39204,-0.025423,0,0,-0.32762,-0.10389,0,-0.3305,0,0,0.30367,-0.0059665,0,0.30377,-0.39453,-0.45593,-0.39204,-62.048,-0.41417,0.062685,-1.2583e-05,0.44,0.84,0
0.36804,-0.018005,0.65465,-0.4311,-0.40771,-0.38257,-0.02344,0,0,-0.31542,-0.16338,0,-0.30472,0,0,0.2939,-0.001848,0,0.29394,-0.39321,-0.4456,-0.38257,-58.258,-0.40712,0.058439,-9.1166e-06,0.46,0.84,0
0.36176,-0.018687,0.62572,-0.4219,-0.4037,-0.37282,-0.020638,0,0,-0.31898,-0.20072,0,-0.2683,0,0,0.28547,-9.9396e-05,0,0.28549,-0.39025,-0.43535,-0.37282,-56.894,-0.39948,0.055895,-6.1188e-06,0.48,0.84,0
0.35528,-0.018999,0.59755,-0.41452,-0.39729,-0.36305,-0.017949,0,0,-0.33451,-0.22253,0,-0.23333,0,0,0.27847,8.155e-05,0,0.27849,-0.38599,-0.42581,-0.36305,-57.818,-0.39162,0.055001,-3.8097e-06,0.5,0.84,0
0.34838,-0.018997,0.57002,-0.40848,-0.38949,-0.3534,-0.015673,0,0,-0.35806,-0.23461,0,-0.20374,0,0,0.27286,-0.00061676,0,0.27287,-0.38066,-0.41731,-0.3534,-60.606,-0.38379,0.055551,-2.2101e-06,0.52,0.84,0
0.34095,-0.018768,0.54298,-0.4034,-0.3809,-0.34389,-0.01381,0,0,-0.38686,-0.24057,0,-0.17954,0,0,0.26843,-0.0017163,0,0.26844,-0.37433,-0.40996,-0.34389,-64.587,-0.37606,0.057284,-1.3061e-06,0.54,0.84,0
0.33291,-0.018387,0.51633,-0.39903,-0.37184,-0.33453,-0.012268,0,0,-0.41928,-0.24252,0,-0.15948,0,0,0.26497,-0.0029391,0,0.26499,-0.36712,-0.40375,-0.33453,-68.971,-0.36847,0.059981,-1.1157e-06,0.56,0.84,0
0.32418,-0.01791,0.48999,-0.39522,-0.36251,-0.32532,-0.010944,0,0,-0.4544,-0.24173,0,-0.14228,0,0,0.26226,-0.0041431,0,0.2623,-0.35918,-0.39855,-0.32532,-73.108,-0.36102,0.063479,-1.7029e-06,0.58,0.84,0
0.31473,-0.017373,0.46388,-0.39188,-0.35301,-0.31624,-0.0097565,0,0,-0.49163,-0.23897,0,-0.12684,0,0,0.26015,-0.0052677,0,0.26021,-0.35069,-0.39419,-0.31624,-76.672,-0.35371,0.067656,-3.1697e-06,0.6,0.84,0
0.30452,-0.016801,0.43796,-0.38893,-0.3434,-0.30729,-0.008638,0,0,-0.53063,-0.23473,0,-0.11229,0,0,0.25851,-0.0062985,0,0.25859,-0.34182,-0.39051,-0.30729,-79.609,-0.34654,0.072418,-5.6493e-06,0.62,0.84,0
0.29351,-0.016204,0.41218,-0.38633,-0.33374,-0.29846,-0.0075409,0,0,-0.57116,-0.22936,0,-0.098032,0,0,0.25725,-0.0072459,0,0.25735,-0.33268,-0.38739,-0.29846,-81.998,-0.33951,0.077694,-9.3029e-06,0.64,0.84,0
0.28167,-0.015589,0.38651,-0.38405,-0.32406,-0.28974,-0.0064319,0,0,-0.61307,-0.22309,0,-0.083614,0,0,0.25632,-0.0081337,0,0.25644,-0.32337,-0.38473,-0.28974,-83.949,-0.33261,0.083432,-1.4319e-05,0.66,0.84,0
0.26898,-0.014958,0.36092,-0.38208,-0.31436,-0.28112,-0.0052898,0,0,-0.65629,-0.21608,0,-0.068768,0,0,0.25567,-0.0089918,0,0.25583,-0.31395,-0.38249,-0.28112,-85.561,-0.32585,0.089594,-2.0915e-05,0.68,0.84,0
0.25542,-0.01431,0.33537,-0.38042,-0.30467,-0.2726,-0.0041039,0,0,-0.70081,-0.20845,0,-0.053351,0,0,0.2553,-0.009853,0,0.25549,-0.30445,-0.38064,-0.2726,-86.908,-0.31923,0.096155,-2.9346e-05,0.7,0.84,0
0.24095,-0.013646,0.30986,-0.37906,-0.295,-0.26419,-0.0028725,0,0,-0.74667,-0.20027,0,-0.037343,0,0,0.2552,-0.01075,0,0.25542,-0.2949,-0.37916,-0.26419,-88.045,-0.31275,0.1031,-3.9909e-05,0.72,0.84,0
0.22555,-0.012966,0.28434,-0.3757,-0.284,-0.25478,-0.0013912,0,0,-0.78597,-0.18998,0,-0.018085,0,0,0.25533,-0.01166,0,0.2556,-0.28398,-0.37572,-0.25478,-89.131,-0.30483,0.1093,-5.1274e-05,0.74,0.84,0
0.20919,-0.012276,0.25878,-0.37942,-0.27627,-0.24846,-0.00015196,0,0,-0.85122,-0.18076,0,-0.0019755,0,0,0.25602,-0.01266,0,0.25633,-0.27627,-0.37942,-0.24846,-89.916,-0.30139,0.11951,-7.191e-05,0.76,0.84,0
0.19184,-0.011583,0.23315,-0.37461,-0.26476,-0.23844,0.0010593,0,0,-0.88507,-0.17109,0,0.013771,0,0,0.25662,-0.013757,0,0.25699,-0.26475,-0.37462,-0.23844,89.448,-0.2926,0.12511,-8.5778e-05,0.78,0.84,0
0.17344,-0.010903,0.20742,-0.37954,-0.25731,-0.23254,0.0021545,0,0,-0.95549,-0.16101,0,0.028008,0,0,0.25844,-0.01494,0,0.25888,-0.25727,-0.37957,-0.23254,88.99,-0.28979,0.13636,-0.00011592,0.8,0.84,0
0.15398,-0.010254,0.18152,-0.37526,-0.24581,-0.22263,0.0031744,0,0,-0.99214,-0.1507,0,0.041267,0,0,0.25974,-0.016161,0,0.26025,-0.24573,-0.37534,-0.22263,88.596,-0.28123,0.14257,-0.00013576,0.82,0.84,0
0.13339,-0.0096615,0.1554,-0.38151,-0.23879,-0.21717,0.0037951,0,0,-1.0682,-0.14054,0,0.049336,0,0,0.26329,-0.017306,0,0.26386,-0.23869,-0.38161,-0.21717,88.478,-0.27916,0.15481,-0.0001782,0.84,0.84,0
0.11163,-0.0091525,0.12896,-0.37775,-0.22758,-0.20739,0.0042876,0,0,-1.1074,-0.13121,0,0.055738,0,0,0.26561,-0.018156,0,0.26624,-0.22746,-0.37788,-0.20739,88.366,-0.27091,0.16139,-0.00020469,0.86,0.84,0
0.088695,-0.0087398,0.10214,-0.38487,-0.22129,-0.20227,0.0041906,0,0,-1.1868,-0.12359,0,0.054478,0,0,0.2714,-0.018346,0,0.27203,-0.22118,-0.38497,-0.20227,88.534,-0.26948,0.17402,-0.00025991,0.88,0.84,0
0.064559,-0.0084085,0.074843,-0.38132,-0.21076,-0.19259,0.0039601,0,0,-1.2267,-0.11809,0,0.051481,0,0,0.27475,-0.017379,0,0.27531,-0.21067,-0.38142,-0.19259,88.671,-0.26156,0.18046,-0.00029166,0.9,0.84,0
0.039227,-0.008109,0.047015,-0.38836,-0.20495,-0.1874,0.0033324,0,0,-1.3063,-0.11408,0,0.043322,0,0,0.28175,-0.014748,0,0.28214,-0.20489,-0.38842,-0.1874,88.96,-0.26024,0.19288,-0.00035833,0.92,0.84,0
0.012704,-0.0077877,0.018667,-0.38614,-0.25694,-0.20413,-0.00084711,0,0,-0.76707,-0.11168,0,0.010072,0,0,0.28984,-0.027013,0,0.29149,-0.25682,-0.38627,-0.20413,1.2704,-0.2824,0.16768,-0.0001767,0.94,0.84,0
0.008544,-0.0081468,0.012743,-0.3865,-0.32124,-0.22507,-0.005678,0,0,-0.20986,-0.12503,0,-0.014763,0,0,0.30784,-0.04054,0,0.31053,-0.32075,-0.38699,-0.22507,-85.064,-0.31094,0.141,4.4448e-05,0.96,0.84,0
0.0043282,-0.0085967,0.0064701,-0.38264,-0.32598,-0.21906,-0.0058757,0,0,-0.21266,-0.139,0,-0.015277,0,0,0.31694,-0.02249,0,0.31768,-0.32537,-0.38325,-0.21906,-84.142,-0.30923,0.14424,7.4732e-05,0.98,0.84,0
0,-0.0087835,0,-0.37393,-0.31761,-0.20746,-0.0035916,0,0,-0.21641,-0.14319,0,-0.0093381,0,0,0.3235,1.0408e-17,0,0.32341,-0.31738,-0.37416,-0.20746,-86.366,-0.29966,0.14679,8.4355e-05,1,0.84,0
0,-0.027233,1,-0.67393,-1.6888,-1.7088,-0.039669,0,0,1.3454,0.026037,0,-0.10314,0,0,0.62009,1.9967e-15,0,0.6198,-0.67238,-1.6903,-1.7088,-2.235,-1.3572,1.0273,0.055625,0,0.86,0
0.026907,-0.029295,0.9876,-0.66075,-1.6717,-1.6873,-0.063293,0,0,1.3346,0.020292,0,-0.16456,0,0,0.62748,0.048877,0,0.62914,-0.6568,-1.6757,-1.6873,-3.5684,-1.3399,1.0248,0.055246,0.02,0.86,0
0.053167,-0.03593,0.97475,-0.70923,-1.6356,-1.6782,-0.19014,0,0,1.2596,0.055422,0,-0.49437,0,0,0.66689,0.091601,0,0.67341,-0.67172,-1.6731,-1.6782,-11.16,-1.341,1.0039,0.051961,0.04,0.86,0
0.077826,-0.047712,0.96117,-0.69574,-1.4397,-1.6018,-0.25099,0,0,1.1779,0.21076,0,-0.65257,0,0,0.69269,0.10026,0,0.70016,-0.61898,-1.5164,-1.6018,-17.005,-1.2457,0.94303,0.041884,0.06,0.86,0
0.09918,-0.062828,0.94678,-0.76957,-1.1091,-1.5104,-0.2732,0,0,0.96306,0.52163,0,-0.71033,0,0,0.73767,0.084039,0,0.74252,-0.61769,-1.261,-1.5104,-29.071,-1.1297,0.7978,0.017747,0.08,0.86,0
0.11739,-0.076891,0.93184,-0.74122,-0.88062,-1.4184,-0.21157,0,0,0.88033,0.6991,0,-0.55009,0,0,0.7509,0.051748,0,0.7526,-0.58816,-1.0337,-1.4184,-35.883,-1.0134,0.71965,0.0024202,0.1,0.86,0
0.13378,-0.087503,0.91665,-0.78054,-0.83017,-1.3999,-0.12098,0,0,0.80513,0.7406,0,-0.31455,0,0,0.76077,0.032957,0,0.76146,-0.68186,-0.92885,-1.3999,-39.204,-1.0035,0.63182,-0.0066008,0.12,0.86,0
0.14974,-0.09466,0.90143,-0.75598,-0.7895,-1.3651,-0.089067,0,0,0.79182,0.74824,0,-0.23158,0,0,0.76134,0.019796,0,0.76158,-0.68211,-0.86337,-1.3651,-39.671,-0.97018,0.61278,-0.0084248,0.14,0.86,0
0.16546,-0.09917,0.8862,-0.73538,-0.75971,-1.3347,-0.058373,0,0,0.77915,0.74752,0,-0.15177,0,0,0.76048,0.0098411,0,0.76054,-0.68792,-0.80717,-1.3347,-39.114,-0.94327,0.5962,-0.009433,0.16,0.86,0
0.18091,-0.10154,0.87101,-0.72099,-0.73943,-1.3091,-0.038303,0,0,0.76458,0.74062,0,-0.099587,0,0,0.75865,0.0016525,0,0.75865,-0.69081,-0.7696,-1.3091,-38.235,-0.92318,0.58293,-0.0095499,0.18,0.86,0
0.19604,-0.10207,0.85586,-0.71256,-0.72544,-1.2873,-0.023867,0,0,0.7471,0.73036,0,-0.062053,0,0,0.75609,-0.0055184,0,0.75611,-0.69428,-0.74372,-1.2873,-37.453,-0.90842,0.56987,-0.009264,0.2,0.86,0
0.21079,-0.10091,0.84076,-0.70927,-0.71667,-1.2685,-0.011152,0,0,0.72706,0.71743,0,-0.028996,0,0,0.75274,-0.012232,0,0.75284,-0.70122,-0.72472,-1.2685,-35.813,-0.89816,0.55595,-0.008772,0.22,0.86,0
0.22512,-0.098032,0.82574,-0.71074,-0.71378,-1.2531,0.0035567,0,0,0.70508,0.70111,0,0.0092475,0,0,0.74833,-0.019037,0,0.74857,-0.70839,-0.71613,-1.2531,33.405,-0.89254,0.54088,-0.0081215,0.24,0.86,0
0.239,-0.09325,0.81083,-0.71627,-0.7193,-1.2415,0.024669,0,0,0.6828,0.67887,0,0.064139,0,0,0.74225,-0.026666,0,0.74273,-0.69307,-0.7425,-1.2415,43.247,-0.89236,0.52546,-0.0072297,0.26,0.86,0
0.25244,-0.086193,0.79605,-0.72245,-0.73974,-1.2347,0.059147,0,0,0.66594,0.64346,0,0.15378,0,0,0.73319,-0.036385,0,0.73409,-0.67132,-0.79087,-1.2347,40.843,-0.89897,0.51415,-0.0057286,0.28,0.86,0
0.26563,-0.076206,0.7815,-0.70044,-0.78297,-1.2265,0.10982,0,0,0.68391,0.57662,0,0.28552,0,0,0.71558,-0.050645,0,0.71736,-0.62439,-0.85902,-1.2265,34.703,-0.90331,0.52568,-0.0027686,0.3,0.86,0
0.27979,-0.06324,0.76743,-0.65776,-0.92837,-1.2433,0.16083,0,0,0.76116,0.40937,0,0.41815,0,0,0.68152,-0.075464,0,0.686,-0.5829,-1.0032,-1.2433,24.963,-0.94314,0.57897,0.004506,0.32,0.86,0
0.29608,-0.049118,0.75424,-0.62186,-1.1788,-1.2944,0.14336,0,0,0.87434,0.15036,0,0.37272,0,0,0.62619,-0.088428,0,0.63332,-0.58712,-1.2135,-1.2944,13.62,-1.0317,0.67051,0.014725,0.34,0.86,0
0.31477,-0.037193,0.74238,-0.56236,-1.3013,-1.3015,0.070836,0,0,0.96088,0.00020093,0,0.18417,0,0,0.55432,-0.080772,0,0.56168,-0.55563,-1.3081,-1.3015,5.4263,-1.0551,0.74917,0.02159,0.36,0.86,0
0.33452,-0.028557,0.73207,-0.5208,-1.3207,-1.2845,0.0037658,0,0,0.99283,-0.047028,0,0.009791,0,0,0.47622,-0.047924,0,0.48,-0.52078,-1.3207,-1.2845,0.26973,-1.042,0.78246,0.024427,0.38,0.86,0
0.35448,-0.022071,0.72334,-0.49859,-1.2989,-1.2626,-0.029994,0,0,0.99318,-0.047176,0,-0.077985,0,0,0.39857,-0.016389,0,0.40058,-0.49747,-1.3,-1.2626,-2.1435,-1.02,0.78448,0.024605,0.4,0.86,0
0.37424,-0.016416,0.71613,-0.45852,-0.8229,-0.8141,-0.039245,0,0,0.33477,-0.019065,0,-0.31106,0,0,0.33805,0.00040614,0,0.33905,-0.42288,-0.85854,-0.8141,-31.369,-0.6985,0.42743,0.011716,0.42,0.86,0
0.36787,-0.019221,0.68457,-0.43964,-0.41034,-0.39191,-0.03716,0,0,-0.31027,-0.11981,0,-0.48307,0,0,0.31104,0.0039198,0,0.31112,-0.38505,-0.46493,-0.39191,-55.759,-0.41396,0.076687,-2.2539e-05,0.44,0.86,0
0.362,-0.021465,0.65437,-0.42566,-0.4074,-0.38079,-0.030269,0,0,-0.29164,-0.17297,0,-0.39349,0,0,0.29614,0.0027671,0,0.29616,-0.38492,-0.44815,-0.38079,-53.391,-0.40462,0.06539,-1.4167e-05,0.46,0.86,0
0.3562,-0.022893,0.62534,-0.41679,-0.40351,-0.37116,-0.025518,0,0,-0.29661,-0.21029,0,-0.33174,0,0,0.28568,0.0037619,0,0.2857,-0.38378,-0.43652,-0.37116,-52.293,-0.39715,0.060052,-9.4868e-06,0.48,0.86,0
0.35014,-0.023616,0.59723,-0.40996,-0.39707,-0.36155,-0.021564,0,0,-0.31462,-0.23083,0,-0.28034,0,0,0.2775,0.0031859,0,0.27752,-0.381,-0.42602,-0.36155,-53.32,-0.38953,0.057272,-6.0309e-06,0.5,0.86,0
0.34362,-0.023829,0.56984,-0.40437,-0.38921,-0.35204,-0.018481,0,0,-0.34012,-0.24162,0,-0.24025,0,0,0.27136,0.0018234,0,0.27136,-0.37682,-0.41676,-0.35204,-56.147,-0.38188,0.056562,-3.6499e-06,0.52,0.86,0
0.33653,-0.023699,0.54296,-0.40171,-0.38273,-0.34392,-0.017285,0,0,-0.37561,-0.25222,0,-0.2247,0,0,0.26614,0.0014437,0,0.26615,-0.3725,-0.41194,-0.34392,-59.386,-0.37612,0.059152,-2.8954e-06,0.54,0.86,0
0.32881,-0.023342,0.51648,-0.3945,-0.37216,-0.3333,-0.015454,0,0,-0.39783,-0.25264,0,-0.2009,0,0,0.26387,-0.00050743,0,0.26387,-0.36427,-0.4024,-0.3333,-62.928,-0.36665,0.059953,-1.9746e-06,0.56,0.86,0
0.32039,-0.022839,0.49029,-0.39186,-0.36218,-0.32427,-0.012476,0,0,-0.43931,-0.24644,0,-0.16219,0,0,0.26081,-0.0029804,0,0.26083,-0.35763,-0.3964,-0.32427,-69.969,-0.35944,0.062529,-1.6235e-06,0.58,0.86,0
0.31123,-0.022241,0.46432,-0.3908,-0.35451,-0.31646,-0.012035,0,0,-0.48323,-0.24736,0,-0.15645,0,0,0.25856,-0.0038026,0,0.25859,-0.35088,-0.39443,-0.31646,-73.222,-0.35392,0.067679,-3.1977e-06,0.6,0.86,0
0.30131,-0.02158,0.43852,-0.38638,-0.34465,-0.30701,-0.011133,0,0,-0.51587,-0.24466,0,-0.14474,0,0,0.25733,-0.0049485,0,0.25738,-0.34187,-0.38916,-0.30701,-75.956,-0.34601,0.071415,-4.838e-06,0.62,0.86,0
0.2906,-0.020876,0.41285,-0.38376,-0.33498,-0.29819,-0.0097258,0,0,-0.5562,-0.23912,0,-0.12643,0,0,0.25617,-0.0062168,0,0.25625,-0.33311,-0.38563,-0.29819,-79.13,-0.33898,0.076232,-7.7376e-06,0.64,0.86,0
0.27907,-0.020137,0.38728,-0.38144,-0.32532,-0.28948,-0.0083266,0,0,-0.59772,-0.23291,0,-0.10824,0,0,0.2553,-0.0073796,0,0.25541,-0.32411,-0.38265,-0.28948,-81.737,-0.33208,0.081566,-1.1909e-05,0.66,0.86,0
0.26669,-0.019368,0.36179,-0.3794,-0.31566,-0.28088,-0.0069024,0,0,-0.64038,-0.22611,0,-0.089731,0,0,0.25468,-0.0084877,0,0.25482,-0.31492,-0.38014,-0.28088,-83.889,-0.32531,0.087362,-1.7547e-05,0.68,0.86,0
0.25345,-0.01857,0.33635,-0.37763,-0.30603,-0.27237,-0.00543,0,0,-0.68422,-0.2188,0,-0.070591,0,0,0.25429,-0.0095913,0,0.25447,-0.30562,-0.37804,-0.27237,-85.688,-0.31868,0.093588,-2.4887e-05,0.7,0.86,0
0.23932,-0.017745,0.31093,-0.37616,-0.29642,-0.26396,-0.0038946,0,0,-0.7293,-0.21099,0,-0.05063,0,0,0.25412,-0.01074,0,0.25435,-0.29623,-0.37635,-0.26396,-87.21,-0.31218,0.10023,-3.422e-05,0.72,0.86,0
0.22428,-0.016893,0.28552,-0.37314,-0.28649,-0.25499,-0.0025414,0,0,-0.76794,-0.20474,0,-0.033038,0,0,0.25418,-0.012017,0,0.25446,-0.28642,-0.37321,-0.25499,-88.321,-0.30488,0.10606,-4.3622e-05,0.74,0.86,0
0.20829,-0.016019,0.26009,-0.37671,-0.27881,-0.24867,-0.00078929,0,0,-0.83225,-0.19586,0,-0.010261,0,0,0.2547,-0.013452,0,0.25505,-0.2788,-0.37672,-0.24867,-89.538,-0.3014,0.11595,-6.2221e-05,0.76,0.86,0
0.19132,-0.015129,0.2346,-0.37189,-0.26733,-0.23868,0.00098425,0,0,-0.86581,-0.18618,0,0.012795,0,0,0.2552,-0.015086,0,0.25564,-0.26732,-0.37189,-0.23868,89.461,-0.29263,0.12145,-7.5052e-05,0.78,0.86,0
0.17331,-0.014236,0.20902,-0.37687,-0.2598,-0.2328,0.0027789,0,0,-0.93641,-0.17547,0,0.036126,0,0,0.25684,-0.016956,0,0.2574,-0.25973,-0.37693,-0.2328,88.641,-0.28982,0.13273,-0.00010363,0.8,0.86,0
0.15422,-0.01336,0.18328,-0.37269,-0.24802,-0.22287,0.0045626,0,0,-0.97384,-0.16348,0,0.059314,0,0,0.25809,-0.019076,0,0.25879,-0.24786,-0.37286,-0.22287,87.907,-0.2812,0.13919,-0.00012359,0.82,0.86,0
0.13398,-0.012532,0.15732,-0.37962,-0.24063,-0.21754,0.0060267,0,0,-1.0535,-0.1501,0,0.078348,0,0,0.26176,-0.021401,0,0.26263,-0.24037,-0.37989,-0.21754,87.522,-0.27927,0.15222,-0.00016749,0.84,0.86,0
0.11249,-0.011789,0.13104,-0.3762,-0.22848,-0.20761,0.0073331,0,0,-1.0958,-0.13564,0,0.09533,0,0,0.26437,-0.023751,0,0.26544,-0.22812,-0.37656,-0.20761,87.165,-0.27076,0.15969,-0.00019756,0.86,0.86,0
0.089708,-0.011172,0.1043,-0.38494,-0.22141,-0.20277,0.0077892,0,0,-1.1841,-0.12121,0,0.10126,0,0,0.27148,-0.025661,0,0.27271,-0.22104,-0.38531,-0.20277,87.279,-0.26971,0.17413,-0.0002611,0.88,0.86,0
0.065577,-0.010678,0.076948,-0.38209,-0.20967,-0.19292,0.0078656,0,0,-1.2296,-0.10889,0,0.10225,0,0,0.27597,-0.02617,0,0.27723,-0.20931,-0.38245,-0.19292,87.394,-0.26156,0.18189,-0.00030061,0.9,0.86,0
0.040062,-0.010244,0.048858,-0.39174,-0.20322,-0.18826,0.0071985,0,0,-1.3226,-0.097248,0,0.09358,0,0,0.28611,-0.024009,0,0.28713,-0.20295,-0.39202,-0.18826,87.816,-0.26107,0.19682,-0.00038426,0.92,0.86,0
0.013141,-0.0097727,0.019987,-0.38317,-0.23129,-0.19633,0.0055398,0,0,-0.78132,-0.080013,0,0.039429,0,0,0.29889,-0.059882,0,0.30743,-0.23105,-0.38341,-0.19633,87.664,-0.27026,0.17403,-0.00024865,0.94,0.86,0
0.0088092,-0.010569,0.013806,-0.39314,-0.31532,-0.22634,-0.002838,0,0,-0.21683,-0.11567,0,-0.0073788,0,0,0.32784,-0.073519,0,0.33616,-0.31522,-0.39324,-0.22634,-87.914,-0.3116,0.14464,1.7454e-05,0.96,0.86,0
0.00447,-0.011392,0.0070617,-0.39205,-0.32935,-0.22348,-0.0050813,0,0,-0.21914,-0.13763,0,-0.013211,0,0,0.34251,-0.040918,0,0.3447,-0.32894,-0.39246,-0.22348,-85.397,-0.31496,0.14783,6.8717e-05,0.98,0.86,0
0,-0.011709,0,-0.3835,-0.32176,-0.21158,-0.0061022,0,0,-0.2235,-0.14323,0,-0.015866,0,0,0.35308,-1.7347e-17,0,0.35257,-0.32116,-0.3841,-0.21158,-84.409,-0.30561,0.15122,7.9565e-05,1,0.86,0
0,-0.026267,1,-0.6497,-1.6219,-1.6815,-0.035034,0,0,1.3413,0.077459,0,-0.091088,0,0,0.65534,1.2889e-15,0,0.65523,-0.64844,-1.6232,-1.6815,-2.0611,-1.3177,1.0051,0.051565,0,0.88,0
0.026826,-0.028088,0.98689,-0.62343,-1.5634,-1.6429,-0.064873,0,0,1.3254,0.10338,0,-0.16867,0,0,0.65952,0.025906,0,0.65998,-0.61897,-1.5679,-1.6429,-3.9294,-1.2766,0.98858,0.048657,0.02,0.88,0
0.052696,-0.033606,0.97354,-0.67674,-1.5009,-1.6268,-0.16487,0,0,1.2351,0.16371,0,-0.42866,0,0,0.68202,0.045143,0,0.68358,-0.64499,-1.5327,-1.6268,-10.903,-1.2682,0.93831,0.040991,0.04,0.88,0
0.076815,-0.042504,0.95975,-0.66631,-1.3408,-1.5619,-0.20835,0,0,1.1643,0.28743,0,-0.54171,0,0,0.69681,0.053398,0,0.69896,-0.60713,-1.4,-1.5619,-15.854,-1.1897,0.88496,0.031616,0.06,0.88,0
0.098433,-0.053442,0.94551,-0.76539,-1.1801,-1.5292,-0.23121,0,0,0.99288,0.4538,0,-0.60115,0,0,0.72498,0.050126,0,0.72676,-0.66217,-1.2833,-1.5292,-24.058,-1.1582,0.77392,0.015959,0.08,0.88,0
0.11741,-0.064229,0.93088,-0.74966,-0.99638,-1.4547,-0.20864,0,0,0.91655,0.59581,0,-0.54246,0,0,0.73538,0.040279,0,0.73649,-0.63064,-1.1154,-1.4547,-29.703,-1.0669,0.71735,0.0056876,0.1,0.88,0
0.13445,-0.073211,0.91601,-0.80239,-0.90256,-1.4275,-0.1456,0,0,0.81265,0.68242,0,-0.37855,0,0,0.74748,0.02883,0,0.74803,-0.6985,-1.0064,-1.4275,-35.508,-1.0441,0.63386,-0.003464,0.12,0.88,0
0.15031,-0.079831,0.90102,-0.78712,-0.82402,-1.3844,-0.10406,0,0,0.77642,0.72845,0,-0.27056,0,0,0.75061,0.019201,0,0.75085,-0.69989,-0.91126,-1.3844,-39.973,-0.9985,0.60705,-0.0069703,0.14,0.88,0
0.16551,-0.084203,0.88599,-0.77991,-0.78341,-1.355,-0.070249,0,0,0.7476,0.74304,0,-0.18265,0,0,0.75181,0.010609,0,0.75188,-0.71139,-0.85193,-1.355,-44.286,-0.97277,0.5861,-0.0083703,0.16,0.88,0
0.18021,-0.086627,0.87095,-0.77231,-0.75652,-1.3296,-0.046025,0,0,0.72448,0.745,0,-0.11966,0,0,0.75131,0.0033794,0,0.75131,-0.71772,-0.81111,-1.3296,-49.866,-0.95281,0.57094,-0.0087028,0.18,0.88,0
0.19448,-0.087327,0.85594,-0.76707,-0.73923,-1.3078,-0.027575,0,0,0.70299,0.73917,0,-0.071696,0,0,0.74952,-0.0029129,0,0.74952,-0.72226,-0.78404,-1.3078,-58.39,-0.93804,0.55725,-0.0085202,0.2,0.88,0
0.20833,-0.086419,0.84097,-0.76475,-0.73022,-1.2895,-0.011257,0,0,0.68213,0.72701,0,-0.029268,0,0,0.74647,-0.0086106,0,0.74652,-0.72688,-0.76809,-1.2895,-73.446,-0.92814,0.54315,-0.0080701,0.22,0.88,0
0.22177,-0.083898,0.82608,-0.76448,-0.73016,-1.2745,0.0064586,0,0,0.66298,0.70761,0,0.016792,0,0,0.74185,-0.014018,0,0.74198,-0.72898,-0.76566,-1.2745,79.689,-0.92304,0.52811,-0.0074417,0.24,0.88,0
0.23485,-0.079649,0.8113,-0.76356,-0.7422,-1.263,0.029084,0,0,0.6493,0.67707,0,0.07562,0,0,0.73486,-0.019453,0,0.73512,-0.7219,-0.78387,-1.263,55.081,-0.92293,0.51296,-0.0065923,0.26,0.88,0
0.24774,-0.073467,0.79668,-0.75378,-0.77257,-1.2546,0.058406,0,0,0.65105,0.62663,0,0.15185,0,0,0.72365,-0.025251,0,0.72411,-0.70402,-0.82233,-1.2546,40.432,-0.92698,0.50198,-0.0053,0.28,0.88,0
0.26089,-0.065264,0.78235,-0.72936,-0.84057,-1.2533,0.090042,0,0,0.68116,0.53658,0,0.23411,0,0,0.70515,-0.031569,0,0.70593,-0.67914,-0.89079,-1.2533,29.151,-0.94109,0.50295,-0.0028522,0.3,0.88,0
0.27499,-0.055452,0.76848,-0.69062,-0.96058,-1.2638,0.10401,0,0,0.74518,0.39424,0,0.27042,0,0,0.67576,-0.034757,0,0.67687,-0.6552,-0.996,-1.2638,18.808,-0.97168,0.52836,0.0015593,0.32,0.88,0
0.2907,-0.045264,0.75532,-0.64497,-1.1085,-1.2814,0.081004,0,0,0.82731,0.22471,0,0.21061,0,0,0.63319,-0.028777,0,0.6343,-0.63122,-1.1222,-1.2814,9.6325,-1.0116,0.58699,0.0078716,0.34,0.88,0
0.30808,-0.036258,0.74315,-0.59237,-1.2165,-1.2858,0.02558,0,0,0.90148,0.090089,0,0.066508,0,0,0.57661,-0.0068678,0,0.57737,-0.59133,-1.2176,-1.2858,2.343,-1.0316,0.663,0.014435,0.36,0.88,0
0.32676,-0.029006,0.73225,-0.54538,-1.2731,-1.2778,-0.029082,0,0,0.95213,0.0061543,0,-0.075614,0,0,0.50605,0.029622,0,0.50819,-0.54422,-1.2742,-1.2778,-2.285,-1.0321,0.73179,0.020125,0.38,0.88,0
0.34617,-0.022879,0.72291,-0.51157,-1.2897,-1.2633,-0.0556,0,0,0.97723,-0.034308,0,-0.14456,0,0,0.42251,0.06704,0,0.43007,-0.50762,-1.2936,-1.2633,-4.0666,-1.0215,0.77128,0.023442,0.4,0.88,0
0.36585,-0.01683,0.71535,-0.46027,-0.82692,-0.81537,-0.058436,0,0,0.33982,-0.025031,0,-0.44028,0,0,0.34937,0.053026,0,0.35626,-0.41737,-0.86983,-0.81537,-30.046,-0.70086,0.44015,0.011858,0.42,0.88,0
0.35976,-0.022005,0.68325,-0.44006,-0.42215,-0.39531,-0.053345,0,0,-0.29087,-0.17443,0,-0.69348,0,0,0.31516,0.02558,0,0.31632,-0.37701,-0.4852,-0.39531,-49.766,-0.41917,0.10029,-4.6053e-05,0.44,0.88,0
0.35449,-0.025607,0.65292,-0.42662,-0.42558,-0.38624,-0.046197,0,0,-0.26243,-0.2557,0,-0.60056,0,0,0.29603,0.029366,0,0.29748,-0.3799,-0.4723,-0.38624,-45.321,-0.41281,0.089397,-3.6071e-05,0.46,0.88,0
0.34926,-0.027688,0.62404,-0.41679,-0.41848,-0.37539,-0.038539,0,0,-0.26911,-0.28008,0,-0.50101,0,0,0.28344,0.023212,0,0.28437,-0.37909,-0.45618,-0.37539,-44.373,-0.40355,0.07901,-2.5145e-05,0.48,0.88,0
0.34372,-0.02872,0.59623,-0.40924,-0.40902,-0.36472,-0.032587,0,0,-0.28936,-0.28792,0,-0.42363,0,0,0.27446,0.016977,0,0.27497,-0.37654,-0.44172,-0.36472,-45.098,-0.39433,0.071817,-1.73e-05,0.5,0.88,0
0.33769,-0.029066,0.56915,-0.40322,-0.39891,-0.35447,-0.027935,0,0,-0.31687,-0.28888,0,-0.36316,0,0,0.2683,0.011655,0,0.26855,-0.37305,-0.42908,-0.35447,-47.203,-0.38553,0.067277,-1.1712e-05,0.52,0.88,0
0.33105,-0.02897,0.54257,-0.39882,-0.38716,-0.34431,-0.022747,0,0,-0.35434,-0.27852,0,-0.29571,0,0,0.26345,0.0061983,0,0.26352,-0.36951,-0.41647,-0.34431,-52.19,-0.37676,0.063437,-6.4834e-06,0.54,0.88,0
0.32374,-0.028591,0.51634,-0.39156,-0.37579,-0.33347,-0.020281,0,0,-0.37755,-0.27506,0,-0.26365,0,0,0.26142,0.0030164,0,0.26144,-0.36191,-0.40543,-0.33347,-55.621,-0.36694,0.062774,-4.4889e-06,0.56,0.88,0
0.31571,-0.028028,0.49037,-0.3902,-0.36799,-0.32553,-0.019001,0,0,-0.42035,-0.27597,0,-0.24702,0,0,0.25877,0.0010188,0,0.25877,-0.35708,-0.4011,-0.32553,-60.153,-0.36124,0.065743,-4.1007e-06,0.58,0.88,0
0.30692,-0.027348,0.46459,-0.38811,-0.35736,-0.31656,-0.015837,0,0,-0.46506,-0.26524,0,-0.20589,0,0,0.25686,-0.0017521,0,0.25687,-0.35067,-0.39481,-0.31656,-67.072,-0.35401,0.067949,-3.5426e-06,0.6,0.88,0
0.29736,-0.026587,0.43895,-0.38322,-0.34619,-0.30661,-0.013605,0,0,-0.49794,-0.25726,0,-0.17687,0,0,0.25582,-0.003755,0,0.25584,-0.34173,-0.38768,-0.30661,-71.845,-0.34534,0.070415,-4.1055e-06,0.62,0.88,0
0.28701,-0.025769,0.41342,-0.38063,-0.33648,-0.29782,-0.01193,0,0,-0.53826,-0.25133,0,-0.15509,0,0,0.25482,-0.005293,0,0.25487,-0.33347,-0.38364,-0.29782,-75.804,-0.33831,0.074682,-6.1639e-06,0.64,0.88,0
0.27583,-0.024906,0.38799,-0.37827,-0.32683,-0.28913,-0.010281,0,0,-0.57945,-0.24505,0,-0.13366,0,0,0.25405,-0.00668,0,0.25413,-0.32485,-0.38025,-0.28913,-79.107,-0.33141,0.079527,-9.394e-06,0.66,0.88,0
0.26383,-0.024002,0.36261,-0.37615,-0.31722,-0.28053,-0.0086134,0,0,-0.6215,-0.23845,0,-0.11197,0,0,0.25346,-0.007988,0,0.25359,-0.31598,-0.37738,-0.28053,-81.853,-0.32463,0.084871,-1.395e-05,0.68,0.88,0
0.25097,-0.023062,0.33729,-0.37425,-0.30765,-0.27203,-0.0068895,0,0,-0.66445,-0.23154,0,-0.089564,0,0,0.25305,-0.0092845,0,0.25322,-0.30695,-0.37496,-0.27203,-84.156,-0.31798,0.090662,-2.0026e-05,0.7,0.88,0
0.23725,-0.022085,0.312,-0.37261,-0.29813,-0.26362,-0.0050795,0,0,-0.70841,-0.22431,0,-0.066033,0,0,0.25281,-0.010635,0,0.25303,-0.29779,-0.37295,-0.26362,-86.116,-0.31145,0.096877,-2.7876e-05,0.72,0.88,0
0.22264,-0.021072,0.28673,-0.37125,-0.28865,-0.25532,-0.0031574,0,0,-0.75358,-0.21668,0,-0.041046,0,0,0.25276,-0.012108,0,0.25305,-0.28853,-0.37137,-0.25532,-87.814,-0.30507,0.10353,-3.7837e-05,0.74,0.88,0
0.20711,-0.020023,0.26145,-0.37025,-0.2792,-0.24713,-0.0011017,0,0,-0.80031,-0.20849,0,-0.014321,0,0,0.25295,-0.013773,0,0.25333,-0.27919,-0.37026,-0.24713,-89.307,-0.29886,0.11065,-5.0383e-05,0.76,0.88,0
0.19062,-0.018942,0.23614,-0.36971,-0.26976,-0.23907,0.0011006,0,0,-0.84914,-0.19949,0,0.014308,0,0,0.25345,-0.015707,0,0.25394,-0.26975,-0.36972,-0.23907,89.369,-0.29284,0.11833,-6.6203e-05,0.78,0.88,0
0.17314,-0.017834,0.21076,-0.36977,-0.26029,-0.23117,0.0034444,0,0,-0.90089,-0.18928,0,0.044777,0,0,0.25439,-0.017992,0,0.25502,-0.26018,-0.36988,-0.23117,88.2,-0.28708,0.12672,-8.6319e-05,0.8,0.88,0
0.15459,-0.016711,0.18526,-0.37065,-0.25075,-0.22347,0.0058869,0,0,-0.95667,-0.17728,0,0.07653,0,0,0.25596,-0.020707,0,0.25679,-0.25046,-0.37094,-0.22347,87.196,-0.28162,0.136,-0.00011223,0.82,0.88,0
0.13487,-0.015599,0.15957,-0.37262,-0.24107,-0.21602,0.0083127,0,0,-1.0179,-0.16283,0,0.10806,0,0,0.25849,-0.023904,0,0.25959,-0.24055,-0.37315,-0.21602,86.398,-0.27657,0.14641,-0.00014605,0.84,0.88,0
0.11387,-0.01454,0.13356,-0.37592,-0.23122,-0.20885,0.010497,0,0,-1.0859,-0.14536,0,0.13646,0,0,0.2625,-0.027544,0,0.26395,-0.23046,-0.37668,-0.20885,85.873,-0.272,0.15813,-0.00019036,0.86,0.88,0
0.091437,-0.013592,0.10707,-0.38062,-0.22125,-0.20197,0.012081,0,0,-1.1612,-0.12528,0,0.15705,0,0,0.26872,-0.031309,0,0.27056,-0.22034,-0.38153,-0.20197,85.689,-0.26795,0.17111,-0.00024736,0.88,0.88,0
0.067425,-0.01281,0.079821,-0.38631,-0.21134,-0.19526,0.01283,0,0,-1.2418,-0.10451,0,0.16679,0,0,0.27766,-0.03411,0,0.2798,-0.2104,-0.38725,-0.19526,85.829,-0.2643,0.18488,-0.00031725,0.9,0.88,0
0.041763,-0.012094,0.051538,-0.39354,-0.20234,-0.18907,0.012587,0,0,-1.329,-0.086233,0,0.16364,0,0,0.28888,-0.033333,0,0.29087,-0.20151,-0.39436,-0.18907,86.25,-0.26165,0.19936,-0.00040163,0.92,0.88,0
0.014263,-0.011245,0.022045,-0.39193,-0.22383,-0.19796,0.0087815,0,0,-0.80217,-0.056063,0,0.078599,0,0,0.31158,-0.080434,0,0.32588,-0.22337,-0.39239,-0.19796,87.027,-0.27124,0.18396,-0.00031046,0.94,0.88,0
0.0096763,-0.012828,0.01548,-0.41345,-0.3183,-0.235,0.0021854,0,0,-0.23197,-0.10829,0,0.0056821,0,0,0.35129,-0.10842,0,0.36811,-0.31825,-0.4135,-0.235,88.685,-0.32225,0.15469,-2.2066e-05,0.96,0.88,0
0.0049842,-0.014123,0.0079934,-0.41953,-0.33198,-0.23344,0.0024227,0,0,-0.24191,-0.12809,0,0.0062991,0,0,0.38701,-0.059873,0,0.39118,-0.33191,-0.41959,-0.23344,88.416,-0.32832,0.1613,2.1575e-05,0.98,0.88,0
0,-0.014574,0,-0.4099,-0.31744,-0.2182,-0.0086681,0,0,-0.24921,-0.12901,0,-0.022537,0,0,0.39967,-3.4694e-18,0,0.39889,-0.31663,-0.41071,-0.2182,-84.691,-0.31518,0.16673,9.3194e-06,1,0.88,0
0,-0.024134,1,-0.64546,-1.5557,-1.6603,-0.028004,0,0,1.3194,0.13603,0,-0.072811,0,0,0.67657,-1.4181e-15,0,0.67654,-0.6446,-1.5566,-1.6603,-1.7605,-1.2872,0.96805,0.044792,0,0.9,0
0.026387,-0.02559,0.98647,-0.63621,-1.5122,-1.631,-0.06445,0,0,1.2932,0.15441,0,-0.16757,0,0,0.68025,0.017163,0,0.68045,-0.6315,-1.5169,-1.631,-4.1854,-1.2598,0.94763,0.041579,0.02,0.9,0
0.051729,-0.029857,0.97279,-0.658,-1.4368,-1.6012,-0.12418,0,0,1.2262,0.21373,0,-0.32288,0,0,0.69023,0.030322,0,0.69091,-0.63868,-1.4562,-1.6012,-8.8436,-1.232,0.89885,0.034045,0.04,0.9,0
0.075436,-0.036485,0.95886,-0.69054,-1.3188,-1.5617,-0.16795,0,0,1.1325,0.31569,0,-0.43668,0,0,0.70379,0.036846,0,0.70479,-0.64846,-1.3609,-1.5617,-14.065,-1.1904,0.83122,0.023796,0.06,0.9,0
0.097028,-0.044521,0.94464,-0.72703,-1.174,-1.5149,-0.18391,0,0,1.0243,0.44326,0,-0.47817,0,0,0.71764,0.036586,0,0.71861,-0.66109,-1.2399,-1.5149,-19.727,-1.1386,0.7549,0.012618,0.08,0.9,0
0.11641,-0.052686,0.93015,-0.76126,-1.0376,-1.4698,-0.17043,0,0,0.9211,0.56191,0,-0.44311,0,0,0.72923,0.031438,0,0.72992,-0.68003,-1.1188,-1.4698,-25.486,-1.0895,0.68537,0.003159,0.1,0.9,0
0.13387,-0.059885,0.91547,-0.78687,-0.93226,-1.4312,-0.13943,0,0,0.83764,0.64863,0,-0.36252,0,0,0.73741,0.024177,0,0.73781,-0.70232,-1.0168,-1.4312,-31.232,-1.0501,0.63321,-0.0030607,0.12,0.9,0
0.14991,-0.065522,0.90066,-0.80103,-0.85888,-1.3986,-0.10447,0,0,0.77688,0.70167,0,-0.27163,0,0,0.74231,0.016754,0,0.7425,-0.72155,-0.93836,-1.3986,-37.262,-1.0195,0.59887,-0.0063563,0.14,0.9,0
0.16495,-0.069449,0.88578,-0.80638,-0.8094,-1.3705,-0.07381,0,0,0.73337,0.72944,0,-0.19191,0,0,0.74466,0.010055,0,0.74472,-0.73406,-0.88171,-1.3705,-44.413,-0.99543,0.57697,-0.0077295,0.16,0.9,0
0.17925,-0.071735,0.87087,-0.80701,-0.77615,-1.3458,-0.049129,0,0,0.70045,0.74057,0,-0.12773,0,0,0.74513,0.0041974,0,0.74514,-0.74008,-0.84308,-1.3458,-53.719,-0.97632,0.56137,-0.0080648,0.18,0.9,0
0.19296,-0.072501,0.85597,-0.80629,-0.75542,-1.3245,-0.029056,0,0,0.67366,0.73978,0,-0.075547,0,0,0.7441,-0.00088894,0,0.7441,-0.74224,-0.81947,-1.3245,-65.597,-0.96206,0.54773,-0.0078769,0.2,0.9,0
0.20619,-0.071827,0.84111,-0.80526,-0.74579,-1.3064,-0.011171,0,0,0.65151,0.72882,0,-0.029046,0,0,0.74164,-0.0052832,0,0.74165,-0.74377,-0.80729,-1.3064,-79.704,-0.95249,0.53374,-0.0074375,0.22,0.9,0
0.21902,-0.069727,0.82631,-0.80326,-0.74789,-1.2916,0.0069388,0,0,0.63491,0.70689,0,0.018041,0,0,0.73749,-0.0089944,0,0.73755,-0.74703,-0.80411,-1.2916,82.964,-0.9476,0.51844,-0.0068651,0.24,0.9,0
0.23159,-0.066167,0.81161,-0.79753,-0.76444,-1.2802,0.026762,0,0,0.62747,0.67049,0,0.06958,0,0,0.73102,-0.011872,0,0.73112,-0.74952,-0.81244,-1.2802,60.862,-0.94739,0.50218,-0.0061614,0.26,0.9,0
0.24412,-0.061128,0.79707,-0.78458,-0.80161,-1.2729,0.047227,0,0,0.63485,0.6127,0,0.12279,0,0,0.72108,-0.013399,0,0.72122,-0.74511,-0.84109,-1.2729,39.889,-0.95304,0.48697,-0.0051631,0.28,0.9,0
0.25698,-0.054742,0.78276,-0.76189,-0.86622,-1.2712,0.061907,0,0,0.6621,0.52647,0,0.16096,0,0,0.70608,-0.012018,0,0.70623,-0.7331,-0.89501,-1.2712,24.94,-0.96643,0.47816,-0.0035217,0.3,0.9,0
0.27061,-0.047471,0.76882,-0.73082,-0.95832,-1.2756,0.060008,0,0,0.70817,0.41242,0,0.15602,0,0,0.68431,-0.0046294,0,0.68441,-0.71596,-0.97317,-1.2756,13.907,-0.98823,0.48516,-0.00081676,0.32,0.9,0
0.28531,-0.04013,0.75539,-0.6942,-1.0607,-1.2819,0.032331,0,0,0.76397,0.28747,0,0.084061,0,0,0.65408,0.01347,0,0.65434,-0.69137,-1.0636,-1.2819,5.0024,-1.0123,0.51714,0.0030771,0.34,0.9,0
0.30117,-0.033589,0.74266,-0.65148,-1.1472,-1.2823,-0.0186,0,0,0.82003,0.17555,0,-0.048359,0,0,0.61271,0.047233,0,0.61467,-0.65079,-1.1479,-1.2823,-2.1456,-1.027,0.57619,0.0080531,0.36,0.9,0
0.31811,-0.028311,0.73088,-0.59042,-1.2075,-1.2703,-0.073757,0,0,0.8838,0.081563,0,-0.19177,0,0,0.55012,0.10063,0,0.55951,-0.58173,-1.2162,-1.2703,-6.7219,-1.0227,0.66317,0.014644,0.38,0.9,0
0.33652,-0.023443,0.72065,-0.5469,-1.2871,-1.2709,-0.10554,0,0,0.94114,-0.021122,0,-0.27439,0,0,0.45732,0.17403,0,0.49247,-0.53215,-1.3019,-1.2709,-7.9578,-1.035,0.75468,0.02195,0.4,0.9,0
0.35576,-0.017417,0.71259,-0.47914,-0.85205,-0.82691,-0.086929,0,0,0.33664,-0.054475,0,-0.61759,0,0,0.3642,0.12438,0,0.39271,-0.4253,-0.90589,-0.82691,-29.401,-0.71937,0.45867,0.011984,0.42,0.9,0
0.34998,-0.025846,0.68007,-0.43726,-0.43304,-0.3971,-0.068511,0,0,-0.261,-0.23359,0,-0.89064,0,0,0.31305,0.046015,0,0.31672,-0.36661,-0.50369,-0.3971,-45.881,-0.42247,0.12467,-7.9795e-05,0.44,0.9,0
0.34532,-0.030721,0.64998,-0.42052,-0.4301,-0.38518,-0.053965,0,0,-0.22969,-0.29197,0,-0.70154,0,0,0.29176,0.037753,0,0.29428,-0.37113,-0.47949,-0.38518,-42.463,-0.41193,0.10206,-5.1125e-05,0.46,0.9,0
0.3408,-0.03329,0.62172,-0.40949,-0.42075,-0.37342,-0.043407,0,0,-0.23448,-0.30768,0,-0.56429,0,0,0.27724,0.028015,0,0.27867,-0.37135,-0.45889,-0.37342,-41.304,-0.40122,0.086527,-3.3208e-05,0.48,0.9,0
0.33594,-0.034478,0.59453,-0.40207,-0.41041,-0.36265,-0.035769,0,0,-0.25623,-0.31046,0,-0.465,0,0,0.26868,0.019894,0,0.26942,-0.37023,-0.44226,-0.36265,-41.674,-0.39171,0.076097,-2.1877e-05,0.5,0.9,0
0.33055,-0.034843,0.56798,-0.3964,-0.39952,-0.35237,-0.030196,0,0,-0.28618,-0.30645,0,-0.39254,0,0,0.26347,0.013519,0,0.26382,-0.36772,-0.42819,-0.35237,-43.522,-0.38276,0.069431,-1.4398e-05,0.52,0.9,0
0.32449,-0.03469,0.54184,-0.392,-0.38873,-0.34259,-0.02602,0,0,-0.32117,-0.29995,0,-0.33825,0,0,0.26012,0.0085767,0,0.26026,-0.36429,-0.41643,-0.34259,-46.794,-0.37444,0.06574,-9.4092e-06,0.54,0.9,0
0.3177,-0.034218,0.51596,-0.38833,-0.37819,-0.33315,-0.022803,0,0,-0.35869,-0.29279,0,-0.29644,0,0,0.25785,0.0047259,0,0.25789,-0.3599,-0.40662,-0.33315,-51.266,-0.36656,0.064408,-6.1766e-06,0.56,0.9,0
0.31014,-0.033548,0.49027,-0.38512,-0.36792,-0.32396,-0.020205,0,0,-0.39751,-0.28569,0,-0.26266,0,0,0.25622,0.0016848,0,0.25622,-0.35456,-0.39848,-0.32396,-56.53,-0.359,0.064873,-4.2597e-06,0.58,0.9,0
0.3018,-0.032751,0.46471,-0.3822,-0.35785,-0.31496,-0.01799,0,0,-0.43707,-0.27882,0,-0.23387,0,0,0.25499,-0.00076442,0,0.25499,-0.34831,-0.39175,-0.31496,-62.042,-0.35167,0.066693,-3.4329e-06,0.6,0.9,0
0.29266,-0.031871,0.43927,-0.3795,-0.34796,-0.30609,-0.015998,0,0,-0.47715,-0.27215,0,-0.20797,0,0,0.25403,-0.0027884,0,0.25404,-0.34127,-0.3862,-0.30609,-67.294,-0.34452,0.069542,-3.6092e-06,0.62,0.9,0
0.28271,-0.030929,0.41391,-0.37698,-0.3382,-0.29734,-0.014123,0,0,-0.51769,-0.26562,0,-0.1836,0,0,0.25325,-0.0045177,0,0.25329,-0.3336,-0.38158,-0.29734,-71.966,-0.3375,0.07319,-4.7914e-06,0.64,0.9,0
0.27195,-0.029939,0.38862,-0.37462,-0.32854,-0.28867,-0.012289,0,0,-0.55865,-0.25915,0,-0.15975,0,0,0.25261,-0.0060579,0,0.25268,-0.32547,-0.37769,-0.28867,-75.962,-0.33061,0.077478,-7.0388e-06,0.66,0.9,0
0.26037,-0.028906,0.36339,-0.37241,-0.31897,-0.28009,-0.010438,0,0,-0.60006,-0.25273,0,-0.1357,0,0,0.25207,-0.0074994,0,0.25218,-0.31701,-0.37438,-0.28009,-79.33,-0.32383,0.08229,-1.045e-05,0.68,0.9,0
0.24795,-0.027832,0.3382,-0.37035,-0.30949,-0.27159,-0.0085245,0,0,-0.64194,-0.24632,0,-0.11082,0,0,0.25164,-0.0089237,0,0.2518,-0.30832,-0.37153,-0.27159,-82.176,-0.31715,0.087551,-1.5162e-05,0.7,0.9,0
0.23469,-0.026717,0.31306,-0.36847,-0.30009,-0.26318,-0.0065017,0,0,-0.6844,-0.2399,0,-0.084522,0,0,0.2513,-0.01041,0,0.25152,-0.29947,-0.36908,-0.26318,-84.617,-0.31058,0.093217,-2.1354e-05,0.72,0.9,0
0.22058,-0.02556,0.28795,-0.3668,-0.29076,-0.25486,-0.0043235,0,0,-0.72761,-0.23337,0,-0.056206,0,0,0.25108,-0.012043,0,0.25137,-0.29052,-0.36704,-0.25486,-86.756,-0.30414,0.099281,-2.9281e-05,0.74,0.9,0
0.20559,-0.024359,0.26284,-0.36539,-0.2815,-0.24663,-0.0019387,0,0,-0.7719,-0.22662,0,-0.025203,0,0,0.25101,-0.013913,0,0.25139,-0.28145,-0.36543,-0.24663,-88.677,-0.29784,0.10578,-3.9325e-05,0.76,0.9,0
0.1897,-0.023109,0.23774,-0.36436,-0.27229,-0.23854,0.00071088,0,0,-0.8178,-0.21934,0,0.0092415,0,0,0.25114,-0.016131,0,0.25166,-0.27228,-0.36436,-0.23854,89.558,-0.29173,0.1128,-5.209e-05,0.78,0.9,0
0.17288,-0.021808,0.21262,-0.36388,-0.26309,-0.23061,0.0036877,0,0,-0.86623,-0.21108,0,0.047939,0,0,0.25159,-0.018833,0,0.25229,-0.26295,-0.36401,-0.23061,87.907,-0.28586,0.12053,-6.858e-05,0.8,0.9,0
0.15505,-0.020452,0.18743,-0.36425,-0.25384,-0.22291,0.0070459,0,0,-0.91872,-0.20101,0,0.091597,0,0,0.25255,-0.022191,0,0.25352,-0.25339,-0.3647,-0.22291,86.363,-0.28034,0.12927,-9.0507e-05,0.82,0.9,0
0.13613,-0.019045,0.16211,-0.36595,-0.24444,-0.21554,0.010801,0,0,-0.97766,-0.18787,0,0.14041,0,0,0.25438,-0.026421,0,0.25574,-0.24349,-0.3669,-0.21554,84.96,-0.27531,0.1395,-0.00012078,0.84,0.9,0
0.11594,-0.017604,0.13655,-0.36966,-0.23477,-0.20864,0.014842,0,0,-1.0467,-0.16983,0,0.19295,0,0,0.25772,-0.031771,0,0.25967,-0.23315,-0.37127,-0.20864,83.795,-0.27102,0.15187,-0.00016422,0.86,0.9,0
0.09426,-0.016183,0.11056,-0.37617,-0.22461,-0.20235,0.018853,0,0,-1.1299,-0.14473,0,0.24509,0,0,0.2639,-0.038423,0,0.26669,-0.2223,-0.37848,-0.20235,83.014,-0.26771,0.16705,-0.00022795,0.88,0.9,0
0.07075,-0.014859,0.08377,-0.38613,-0.21413,-0.19683,0.022131,0,0,-1.2305,-0.11243,0,0.28771,0,0,0.27518,-0.046088,0,0.27907,-0.21133,-0.38894,-0.19683,82.784,-0.2657,0.18528,-0.00031994,0.9,0.9,0
0.045042,-0.013694,0.055525,-0.39801,-0.2028,-0.19135,0.024678,0,0,-1.3433,-0.074439,0,0.32082,0,0,0.2921,-0.051583,0,0.29684,-0.19973,-0.40108,-0.19135,82.905,-0.26405,0.20567,-0.00044432,0.92,0.9,0
0.017019,-0.012015,0.02535,-0.40815,-0.21521,-0.20222,0.024384,0,0,-0.82818,-0.028151,0,0.18173,0,0,0.33105,-0.13104,0,0.36427,-0.2121,-0.41126,-0.20222,82.813,-0.27519,0.20441,-0.00043835,0.94,0.9,0
0.011915,-0.014901,0.018143,-0.45787,-0.33155,-0.25497,0.033405,0,0,-0.26377,-0.099556,0,0.086853,0,0,0.39733,-0.1774,0,0.43627,-0.32326,-0.46616,-0.25497,76.063,-0.34813,0.18666,-0.00018961,0.96,0.9,0
0.0064678,-0.016515,0.0094566,-0.47393,-0.31054,-0.2448,0.024091,0,0,-0.29787,-0.085464,0,0.062638,0,0,0.45357,-0.086662,0,0.4605,-0.30706,-0.47741,-0.2448,81.785,-0.34309,0.20857,-0.00032981,0.98,0.9,0
0,-0.016869,0,-0.48057,-0.29212,-0.23181,-0.0068059,0,0,-0.32339,-0.07841,0,-0.017695,0,0,0.47283,0,0,0.47149,-0.29188,-0.48082,-0.23181,-87.934,-0.33483,0.22507,-0.00044795,1,0.9,0
0,-0.020826,1,-0.6504,-1.4978,-1.6445,-0.020891,0,0,1.2923,0.19061,0,-0.054316,0,0,0.68967,1.955e-15,0,0.68965,-0.64989,-1.4984,-1.6445,-1.4113,-1.2642,0.93018,0.03792,0,0.92,0
0.025846,-0.021912,0.98621,-0.64008,-1.4546,-1.6146,-0.05065,0,0,1.2669,0.20799,0,-0.13169,0,0,0.69193,0.010617,0,0.69201,-0.63694,-1.4578,-1.6146,-3.5446,-1.2364,0.90945,0.034791,0.02,0.92,0
0.050676,-0.025057,0.97232,-0.65996,-1.3864,-1.5862,-0.095709,0,0,1.2041,0.25981,0,-0.24884,0,0,0.69817,0.019048,0,0.69844,-0.64756,-1.3988,-1.5862,-7.3813,-1.2108,0.86039,0.02755,0.04,0.92,0
0.074011,-0.029877,0.95828,-0.68979,-1.289,-1.5519,-0.12815,0,0,1.1208,0.34181,0,-0.3332,0,0,0.70692,0.02385,0,0.70734,-0.66353,-1.3152,-1.5519,-11.579,-1.1769,0.79686,0.018467,0.06,0.92,0
0.095506,-0.035712,0.94405,-0.72456,-1.1745,-1.5138,-0.14204,0,0,1.0259,0.44106,0,-0.3693,0,0,0.71639,0.024729,0,0.71683,-0.68348,-1.2156,-1.5138,-16.134,-1.1376,0.7285,0.0092349,0.08,0.92,0
0.11505,-0.041752,0.92962,-0.75878,-1.0614,-1.4757,-0.13685,0,0,0.93196,0.53858,0,-0.3558,0,0,0.72499,0.022454,0,0.72534,-0.70607,-1.1141,-1.4757,-21.064,-1.0986,0.6669,0.0015879,0.1,0.92,0
0.13278,-0.047266,0.91505,-0.78762,-0.96441,-1.4407,-0.11797,0,0,0.84894,0.61912,0,-0.30673,0,0,0.73178,0.018293,0,0.73201,-0.7286,-1.0234,-1.4407,-26.578,-1.0642,0.61969,-0.0035741,0.12,0.92,0
0.14901,-0.051764,0.90035,-0.80856,-0.88909,-1.4097,-0.093231,0,0,0.78141,0.67673,0,-0.2424,0,0,0.73649,0.01343,0,0.73661,-0.74727,-0.95038,-1.4097,-33.321,-1.0358,0.58776,-0.0063859,0.14,0.92,0
0.16404,-0.055025,0.88559,-0.8218,-0.83408,-1.3823,-0.068544,0,0,0.72871,0.71276,0,-0.17822,0,0,0.73926,0.0086233,0,0.7393,-0.75912,-0.89676,-1.3823,-42.442,-1.0127,0.56708,-0.0075386,0.16,0.92,0
0.17816,-0.057004,0.87078,-0.82928,-0.79604,-1.3584,-0.046664,0,0,0.68783,0.73104,0,-0.12133,0,0,0.74036,0.0042478,0,0.74037,-0.76312,-0.86219,-1.3584,-54.802,-0.99457,0.55242,-0.0077281,0.18,0.92,0
0.19155,-0.057736,0.85597,-0.8329,-0.77229,-1.3375,-0.027767,0,0,0.65602,0.73481,0,-0.072195,0,0,0.74004,0.00046566,0,0.74004,-0.76149,-0.8437,-1.3375,-68.752,-0.98091,0.53965,-0.0074441,0.2,0.92,0
0.2044,-0.057266,0.84118,-0.83371,-0.7617,-1.3198,-0.01083,0,0,0.63193,0.72553,0,-0.028158,0,0,0.73836,-0.002595,0,0.73837,-0.76011,-0.8353,-1.3198,-81.629,-0.97174,0.52614,-0.0069684,0.22,0.92,0
0.21683,-0.055622,0.82644,-0.83143,-0.76461,-1.3053,0.0052471,0,0,0.61596,0.70283,0,0.013642,0,0,0.73526,-0.0047109,0,0.73528,-0.7642,-0.83184,-1.3053,85.537,-0.9671,0.5106,-0.0064343,0.24,0.92,0
0.22903,-0.05283,0.81177,-0.82495,-0.78287,-1.2941,0.020592,0,0,0.60992,0.66463,0,0.053538,0,0,0.73045,-0.0054127,0,0.73048,-0.77446,-0.83335,-1.2941,67.81,-0.96731,0.49285,-0.0058538,0.26,0.92,0
0.24123,-0.048959,0.79722,-0.81301,-0.81908,-1.2869,0.033182,0,0,0.61599,0.60809,0,0.086272,0,0,0.7235,-0.0037344,0,0.72352,-0.78272,-0.84936,-1.2869,42.384,-0.97298,0.47433,-0.0051181,0.28,0.92,0
0.25367,-0.044205,0.78283,-0.79568,-0.87459,-1.2839,0.038301,0,0,0.6347,0.53212,0,0.099583,0,0,0.71391,0.0021165,0,0.71393,-0.78015,-0.89013,-1.2839,22.075,-0.98473,0.45877,-0.0040149,0.3,0.92,0
0.26662,-0.038955,0.76866,-0.77512,-0.94557,-1.2849,0.029484,0,0,0.66268,0.44109,0,0.076659,0,0,0.70125,0.015082,0,0.7014,-0.77016,-0.95053,-1.2849,9.5414,-1.0018,0.45235,-0.0023335,0.32,0.92,0
0.28018,-0.033765,0.75478,-0.75471,-1.0214,-1.2876,0.0016571,0,0,0.69276,0.34611,0,0.0043084,0,0,0.68505,0.039417,0,0.6861,-0.7547,-1.0214,-1.2876,0.35603,-1.0212,0.46151,7.4647e-06,0.34,0.92,0
0.29433,-0.029236,0.74126,-0.73571,-1.0895,-1.2888,-0.045811,0,0,0.71903,0.25915,0,-0.11911,0,0,0.66377,0.081059,0,0.6684,-0.72988,-1.0953,-1.2888,-7.2602,-1.038,0.49163,0.0030706,0.36,0.92,0
0.30894,-0.025744,0.72823,-0.70775,-1.1451,-1.2841,-0.11428,0,0,0.74925,0.18065,0,-0.29712,0,0,0.63284,0.14931,0,0.64931,-0.67969,-1.1732,-1.2841,-13.795,-1.0457,0.55729,0.0077158,0.38,0.92,0
0.3243,-0.023724,0.71595,-0.57641,-1.1767,-1.2419,-0.1708,0,0,0.86512,0.084706,0,-0.44407,0,0,0.52917,0.26364,0,0.58782,-0.53122,-1.2219,-1.2419,-14.82,-0.99834,0.7009,0.017636,0.4,0.92,0
0.34355,-0.019009,0.70706,-0.50941,-0.93019,-0.85612,-0.17525,0,0,0.32847,-0.16049,0,-1.0437,0,0,0.3872,0.29178,0,0.50607,-0.41654,-1.0231,-0.85612,-31.109,-0.76524,0.5539,0.016462,0.42,0.92,0
0.33744,-0.031349,0.67404,-0.44554,-0.46613,-0.40831,-0.094077,0,0,-0.24197,-0.37586,0,-1.223,0,0,0.30849,0.077011,0,0.31819,-0.36119,-0.55047,-0.40831,-41.876,-0.43999,0.17067,-0.00019124,0.44,0.92,0
0.33387,-0.037286,0.64537,-0.41408,-0.44635,-0.3872,-0.067488,0,0,-0.17472,-0.38445,0,-0.87735,0,0,0.27803,0.052517,0,0.28288,-0.36083,-0.49961,-0.3872,-38.278,-0.41588,0.12765,-9.1647e-05,0.46,0.92,0
0.33045,-0.039996,0.61844,-0.40139,-0.43207,-0.37373,-0.051189,0,0,-0.17983,-0.37923,0,-0.66545,0,0,0.26558,0.035926,0,0.26795,-0.36329,-0.47017,-0.37373,-36.66,-0.4024,0.10206,-5.268e-05,0.48,0.92,0
0.32668,-0.041138,0.59225,-0.39356,-0.41769,-0.36182,-0.040892,0,0,-0.20626,-0.36313,0,-0.5316,0,0,0.25996,0.024455,0,0.26109,-0.36299,-0.44826,-0.36182,-36.779,-0.39102,0.085859,-3.2487e-05,0.5,0.92,0
0.3222,-0.041323,0.56644,-0.38897,-0.40453,-0.35134,-0.033897,0,0,-0.24459,-0.34576,0,-0.44067,0,0,0.25699,0.016342,0,0.25749,-0.36197,-0.43153,-0.35134,-38.535,-0.38161,0.075439,-2.0581e-05,0.52,0.92,0
0.31689,-0.040968,0.54085,-0.38565,-0.39237,-0.34158,-0.029059,0,0,-0.28649,-0.33015,0,-0.37777,0,0,0.25524,0.01045,0,0.25545,-0.35976,-0.41826,-0.34158,-41.704,-0.3732,0.069405,-1.3281e-05,0.54,0.92,0
0.31074,-0.040302,0.5154,-0.38286,-0.38102,-0.33224,-0.025504,0,0,-0.32899,-0.31704,0,-0.33155,0,0,0.25411,0.0060564,0,0.25417,-0.35641,-0.40746,-0.33224,-46.032,-0.36537,0.066509,-8.6579e-06,0.56,0.92,0
0.30373,-0.039456,0.49003,-0.38026,-0.37026,-0.32316,-0.022709,0,0,-0.37113,-0.30613,0,-0.29522,0,0,0.25328,0.002693,0,0.25329,-0.35201,-0.39851,-0.32316,-51.209,-0.35789,0.06585,-5.759e-06,0.58,0.92,0
0.29589,-0.0385,0.46474,-0.37776,-0.35992,-0.31425,-0.020354,0,0,-0.41278,-0.29686,0,-0.2646,0,0,0.25263,4.4412e-05,0,0.25263,-0.34662,-0.39106,-0.31425,-56.829,-0.35064,0.066792,-4.1056e-06,0.6,0.92,0
0.28722,-0.037473,0.43951,-0.37531,-0.34988,-0.30546,-0.018246,0,0,-0.45405,-0.28873,0,-0.2372,0,0,0.25206,-0.0021087,0,0.25207,-0.34036,-0.38484,-0.30546,-62.437,-0.34355,0.06891,-3.4839e-06,0.62,0.92,0
0.27773,-0.036394,0.41433,-0.37292,-0.34005,-0.29676,-0.016267,0,0,-0.49507,-0.2814,0,-0.21147,0,0,0.25155,-0.0039264,0,0.25158,-0.33336,-0.37961,-0.29676,-67.648,-0.33658,0.071915,-3.8201e-06,0.64,0.92,0
0.26742,-0.035272,0.3892,-0.37058,-0.33039,-0.28813,-0.014335,0,0,-0.53593,-0.27467,0,-0.18636,0,0,0.25106,-0.005532,0,0.25112,-0.3258,-0.37517,-0.28813,-72.25,-0.3297,0.075606,-5.1131e-06,0.66,0.92,0
0.25629,-0.034112,0.36411,-0.36829,-0.32086,-0.27957,-0.012389,0,0,-0.57669,-0.26841,0,-0.16105,0,0,0.25059,-0.007027,0,0.25069,-0.31782,-0.37133,-0.27957,-76.208,-0.32291,0.079834,-7.4001e-06,0.68,0.92,0
0.24435,-0.032915,0.33908,-0.36606,-0.31147,-0.27107,-0.010373,0,0,-0.61738,-0.26258,0,-0.13484,0,0,0.25013,-0.0085017,0,0.25028,-0.30956,-0.36796,-0.27107,-79.595,-0.3162,0.084494,-1.0743e-05,0.7,0.92,0
0.2316,-0.031681,0.31409,-0.36388,-0.30221,-0.26264,-0.0082324,0,0,-0.65804,-0.25715,0,-0.10702,0,0,0.24969,-0.010044,0,0.24989,-0.30112,-0.36496,-0.26264,-82.526,-0.30958,0.089511,-1.5231e-05,0.72,0.92,0
0.21803,-0.030407,0.28914,-0.36179,-0.29307,-0.25428,-0.0059062,0,0,-0.69876,-0.2521,0,-0.076781,0,0,0.24926,-0.011745,0,0.24954,-0.29257,-0.36229,-0.25428,-85.123,-0.30305,0.094847,-2.0992e-05,0.74,0.92,0
0.20365,-0.029088,0.26423,-0.35981,-0.28407,-0.24601,-0.0033173,0,0,-0.73968,-0.24738,0,-0.043125,0,0,0.24887,-0.013713,0,0.24924,-0.28392,-0.35995,-0.24601,-87.497,-0.29663,0.1005,-2.8237e-05,0.76,0.92,0
0.18844,-0.027716,0.23937,-0.35802,-0.2752,-0.23784,-0.00036456,0,0,-0.78116,-0.24285,0,-0.0047392,0,0,0.24853,-0.016083,0,0.24905,-0.2752,-0.35802,-0.23784,-89.748,-0.29035,0.10653,-3.7334e-05,0.78,0.92,0
0.1724,-0.026277,0.21453,-0.35655,-0.26645,-0.22981,0.0030896,0,0,-0.82382,-0.23821,0,0.040165,0,0,0.24833,-0.019033,0,0.24905,-0.26635,-0.35665,-0.22981,88.038,-0.28427,0.1131,-4.8986e-05,0.8,0.92,0
0.15549,-0.024752,0.1897,-0.35567,-0.2578,-0.22198,0.0072322,0,0,-0.86896,-0.23284,0,0.094019,0,0,0.24837,-0.022819,0,0.24941,-0.25727,-0.3562,-0.22198,85.796,-0.27848,0.12051,-6.4583e-05,0.82,0.92,0
0.13764,-0.023114,0.16485,-0.35587,-0.24918,-0.21449,0.012302,0,0,-0.91902,-0.22548,0,0.15992,0,0,0.24891,-0.027819,0,0.25045,-0.24777,-0.35727,-0.21449,83.507,-0.27318,0.1294,-8.6933e-05,0.84,0.92,0
0.11873,-0.021333,0.13992,-0.35813,-0.24046,-0.20756,0.018587,0,0,-0.97868,-0.21386,0,0.24163,0,0,0.2505,-0.034615,0,0.25286,-0.2376,-0.36099,-0.20756,81.234,-0.26872,0.14084,-0.00012177,0.86,0.92,0
0.098495,-0.019381,0.11475,-0.3644,-0.23166,-0.20177,0.026269,0,0,-1.0571,-0.19427,0,0.34149,0,0,0.2544,-0.044132,0,0.25817,-0.22665,-0.36941,-0.20177,79.204,-0.26594,0.15669,-0.00018092,0.88,0.92,0
0.076444,-0.017307,0.089039,-0.37769,-0.22265,-0.19791,0.035608,0,0,-1.1686,-0.16082,0,0.4629,0,0,0.2645,-0.057816,0,0.27069,-0.21487,-0.38548,-0.19791,77.664,-0.26609,0.17969,-0.00028907,0.9,0.92,0
0.051752,-0.015072,0.061855,-0.4057,-0.21688,-0.19914,0.046733,0,0,-1.3426,-0.11527,0,0.60753,0,0,0.29129,-0.077994,0,0.30175,-0.20595,-0.41663,-0.19914,76.832,-0.27391,0.21417,-0.00050283,0.92,0.92,0
0.022739,-0.012371,0.030781,-0.42636,-0.23513,-0.21692,0.10012,0,0,-0.85254,-0.03947,0,0.55287,0,0,0.36048,-0.2785,0,0.47515,-0.1866,-0.4749,-0.21692,68.117,-0.2928,0.2749,-0.0010404,0.94,0.92,0
0.017651,-0.01681,0.022576,-0.51307,-0.27059,-0.25767,0.094165,0,0,-0.33201,-0.01679,0,0.24483,0,0,0.48302,-0.24065,0,0.53511,-0.23831,-0.54534,-0.25767,71.082,-0.34711,0.29782,-0.0013374,0.96,0.92,0
0.0094586,-0.017542,0.01146,-0.61682,-0.2696,-0.27739,0.058481,0,0,-0.44127,0.010123,0,0.15205,0,0,0.56441,-0.10696,0,0.57241,-0.26001,-0.62641,-0.27739,80.692,-0.38794,0.35802,-0.0023383,0.98,0.92,0
0,-0.01771,0,-0.62631,-0.24875,-0.26252,-0.0032419,0,0,-0.47293,0.0179,0,-0.0084288,0,0,0.573,6.9389e-18,0,0.57135,-0.24872,-0.62634,-0.26252,-89.508,-0.37919,0.37091,-0.0026086,1,0.92,0
0,-0.01651,1,-0.65813,-1.4525,-1.6332,-0.014635,0,0,1.2676,0.23492,0,-0.038051,0,0,0.69781,2.3211e-15,0,0.6978,-0.65786,-1.4527,-1.6332,-1.0552,-1.2479,0.89879,0.032282,0,0.94,0
0.025351,-0.017271,0.98604,-0.6469,-1.4111,-1.6034,-0.036822,0,0,1.2435,0.25006,0,-0.095737,0,0,0.6993,0.0065328,0,0.69933,-0.64514,-1.4128,-1.6034,-2.7523,-1.2205,0.87865,0.02939,0.02,0.94,0
0.04974,-0.019464,0.97203,-0.66483,-1.3503,-1.5766,-0.069161,0,0,1.1853,0.29411,0,-0.17982,0,0,0.70346,0.01187,0,0.70356,-0.65792,-1.3572,-1.5766,-5.7039,-1.1972,0.83099,0.022696,0.04,0.94,0
0.072762,-0.022813,0.95791,-0.69209,-1.2674,-1.5458,-0.092476,0,0,1.1098,0.36181,0,-0.24044,0,0,0.70947,0.015182,0,0.70964,-0.67759,-1.2819,-1.5458,-8.9101,-1.1684,0.7709,0.014577,0.06,0.94,0
0.094131,-0.026878,0.94365,-0.72464,-1.1714,-1.5125,-0.10359,0,0,1.0242,0.44338,0,-0.26934,0,0,0.71625,0.016215,0,0.71644,-0.70179,-1.1943,-1.5125,-12.44,-1.1362,0.70745,0.0065832,0.08,0.94,0
0.11373,-0.031142,0.92926,-0.75801,-1.074,-1.4788,-0.10218,0,0,0.93709,0.52636,0,-0.26568,0,0,0.7228,0.015259,0,0.72296,-0.72784,-1.1041,-1.4788,-16.448,-1.1036,0.65039,5.0937e-05,0.1,0.94,0
0.13162,-0.03512,0.91474,-0.78824,-0.98542,-1.4468,-0.091043,0,0,0.85617,0.59984,0,-0.23671,0,0,0.72839,0.012932,0,0.7285,-0.75263,-1.021,-1.4468,-21.361,-1.0735,0.60633,-0.0043584,0.12,0.94,0
0.14798,-0.038454,0.90012,-0.81281,-0.91174,-1.4175,-0.074491,0,0,0.78607,0.65747,0,-0.19368,0,0,0.73264,0.0099008,0,0.73271,-0.77286,-0.95169,-1.4175,-28.208,-1.0473,0.57641,-0.0067382,0.14,0.94,0
0.16306,-0.040938,0.88543,-0.83094,-0.8547,-1.3911,-0.056438,0,0,0.72824,0.69735,0,-0.14674,0,0,0.73548,0.0067032,0,0.73551,-0.78514,-0.90049,-1.3911,-39.057,-1.0256,0.55733,-0.0076232,0.16,0.94,0
0.17711,-0.042493,0.8707,-0.8431,-0.81372,-1.3678,-0.039235,0,0,0.68204,0.72023,0,-0.10201,0,0,0.73698,0.0036983,0,0.73698,-0.78651,-0.8703,-1.3678,-55.263,-1.0082,0.5442,-0.00762,0.18,0.94,0
0.19034,-0.043109,0.85595,-0.85025,-0.7877,-1.3473,-0.023695,0,0,0.64622,0.72752,0,-0.061607,0,0,0.73726,0.0011285,0,0.73726,-0.77974,-0.85821,-1.3473,-71.424,-0.9951,0.53272,-0.0071997,0.2,0.94,0
0.20295,-0.042806,0.84121,-0.85309,-0.77594,-1.3299,-0.0097078,0,0,0.61988,0.72017,0,-0.02524,0,0,0.73646,-0.00077955,0,0.73646,-0.77474,-0.85429,-1.3299,-82.937,-0.98632,0.51999,-0.0066549,0.22,0.94,0
0.21513,-0.041614,0.82649,-0.85186,-0.77847,-1.3156,0.0029345,0,0,0.60285,0.69826,0,0.0076297,0,0,0.73467,-0.0016975,0,0.73467,-0.77835,-0.85198,-1.3156,87.714,-0.98198,0.50447,-0.006123,0.24,0.94,0
0.22707,-0.039582,0.81182,-0.84653,-0.79583,-1.3045,0.013754,0,0,0.5954,0.66131,0,0.035759,0,0,0.73199,-0.0010528,0,0.73199,-0.79234,-0.85002,-1.3045,75.76,-0.9823,0.48593,-0.005614,0.26,0.94,0
0.23895,-0.036804,0.79722,-0.8374,-0.82836,-1.2969,0.021011,0,0,0.59741,0.60916,0,0.054628,0,0,0.72861,0.0021588,0,0.72861,-0.81139,-0.85437,-1.2969,51.07,-0.98757,0.46555,-0.0050337,0.28,0.94,0
0.25096,-0.033458,0.78268,-0.82588,-0.87479,-1.2929,0.021637,0,0,0.6071,0.54351,0,0.056257,0,0,0.72489,0.0096031,0,0.72494,-0.81768,-0.88299,-1.2929,20.75,-0.99785,0.44614,-0.0042333,0.3,0.94,0
0.26323,-0.029827,0.76822,-0.81508,-0.93083,-1.292,0.012039,0,0,0.61999,0.46951,0,0.031303,0,0,0.72161,0.023868,0,0.72196,-0.81384,-0.93207,-1.292,5.8757,-1.0126,0.43137,-0.0031022,0.32,0.94,0
0.27576,-0.026285,0.75382,-0.81002,-0.9893,-1.2936,-0.010512,0,0,0.62866,0.3956,0,-0.02733,0,0,0.72006,0.048827,0,0.72158,-0.80941,-0.98992,-1.2936,-3.3442,-1.031,0.42383,-0.0016568,0.34,0.94,0
0.28838,-0.023223,0.73942,-0.81799,-1.0433,-1.2978,-0.048127,0,0,0.62378,0.33081,0,-0.12513,0,0,0.72261,0.090428,0,0.72788,-0.80814,-1.0532,-1.2978,-11.564,-1.0531,0.42407,6.0549e-06,0.36,0.94,0
0.30072,-0.021084,0.72491,-0.85578,-1.0958,-1.3104,-0.10137,0,0,0.591,0.27892,0,-0.26356,0,0,0.7327,0.15915,0,0.74879,-0.8187,-1.1329,-1.3104,-20.091,-1.0873,0.43127,0.0018936,0.38,0.94,0
0.31202,-0.020055,0.71011,-0.93652,-1.1593,-1.3389,-0.20767,0,0,0.52303,0.23343,0,-0.53994,0,0,0.79432,0.27832,0,0.8371,-0.81225,-1.2836,-1.3389,-30.897,-1.1449,0.50125,0.0062036,0.4,0.94,0
0.32164,-0.023837,0.69314,-0.83614,-0.89717,-0.93588,-0.27528,0,0,0.083758,-0.046243,0,-1.4948,0,0,0.66244,0.32294,0,0.74133,-0.58958,-1.1437,-0.93588,-42.247,-0.88973,0.49032,0.0059967,0.42,0.94,0
0.31934,-0.04088,0.66467,-0.84003,-0.52436,-0.80812,-0.17114,0,0,-0.069141,0.17825,0,-1.0295,0,0,0.80492,0.10201,0,0.81362,-0.41573,-0.94866,-0.80812,-55.224,-0.72417,0.49248,0.010984,0.44,0.94,0
0.31887,-0.046099,0.63948,-0.77665,-0.48284,-0.76153,-0.077956,0,0,-0.032746,0.18603,0,-0.57844,0,0,0.75201,0.061906,0,0.75609,-0.42247,-0.83702,-0.76153,-58.026,-0.67367,0.39781,0.0070725,0.46,0.94,0
0.31803,-0.048459,0.61453,-0.76682,-0.44987,-0.73373,-0.051535,0,0,-0.071702,0.19975,0,-0.41134,0,0,0.74754,0.038949,0,0.74931,-0.40466,-0.81202,-0.73373,-58.723,-0.65014,0.38903,0.0074153,0.48,0.94,0
0.316,-0.049004,0.58964,-0.77766,-0.4322,-0.71674,-0.037,0,0,-0.13199,0.2126,0,-0.31182,0,0,0.74729,0.025407,0,0.74807,-0.39839,-0.81147,-0.71674,-59.764,-0.6422,0.38889,0.0077285,0.5,0.94,0
0.31275,-0.048674,0.56471,-0.78889,-0.41736,-0.7007,-0.029583,0,0,-0.19107,0.22134,0,-0.25473,0,0,0.7484,0.016612,0,0.74874,-0.39177,-0.81448,-0.7007,-61.161,-0.63565,0.39321,0.0078382,0.52,0.94,0
0.30836,-0.047896,0.53975,-0.79796,-0.40453,-0.6846,-0.02517,0,0,-0.24562,0.22553,0,-0.21836,0,0,0.74951,0.010572,0,0.74965,-0.38518,-0.81732,-0.6846,-63.062,-0.62903,0.39854,0.0076634,0.54,0.94,0
0.30293,-0.0469,0.51475,-0.80446,-0.39272,-0.668,-0.022189,0,0,-0.29566,0.22591,0,-0.19286,0,0,0.75027,0.0062262,0,0.75032,-0.37814,-0.81904,-0.668,-65.419,-0.62173,0.4042,0.0072606,0.56,0.94,0
0.29653,-0.045793,0.48973,-0.80898,-0.38153,-0.65099,-0.019854,0,0,-0.34231,0.22356,0,-0.17287,0,0,0.75061,0.0029769,0,0.75062,-0.37065,-0.81986,-0.65099,-68.149,-0.61383,0.41003,0.0066834,0.58,0.94,0
0.28924,-0.044626,0.46471,-0.81215,-0.37073,-0.63369,-0.017823,0,0,-0.38667,0.21934,0,-0.15575,0,0,0.75056,0.00045908,0,0.75056,-0.36273,-0.82015,-0.63369,-71.115,-0.60552,0.41611,0.0059708,0.6,0.94,0
0.28107,-0.04342,0.43969,-0.81443,-0.3602,-0.6162,-0.015941,0,0,-0.42949,0.21387,0,-0.14014,0,0,0.75017,-0.0015648,0,0.75017,-0.35442,-0.8202,-0.6162,-74.126,-0.59694,0.42252,0.0051467,0.62,0.94,0
0.27205,-0.042185,0.41469,-0.8161,-0.34988,-0.59861,-0.014129,0,0,-0.47122,0.20751,0,-0.12528,0,0,0.74948,-0.0032598,0,0.74949,-0.34578,-0.82019,-0.59861,-76.986,-0.5882,0.42927,0.0042259,0.64,0.94,0
0.26222,-0.040926,0.38973,-0.81731,-0.33975,-0.58095,-0.012336,0,0,-0.51211,0.20049,0,-0.11066,0,0,0.74852,-0.0047491,0,0.74855,-0.3369,-0.82015,-0.58095,-79.558,-0.57934,0.43635,0.0032182,0.66,0.94,0
0.25157,-0.039642,0.36479,-0.81814,-0.32978,-0.56325,-0.010518,0,0,-0.55226,0.19291,0,-0.095872,0,0,0.74731,-0.0061315,0,0.74736,-0.32787,-0.82005,-0.56325,-81.796,-0.57039,0.4437,0.0021315,0.68,0.94,0
0.24013,-0.038335,0.33991,-0.81861,-0.31997,-0.54552,-0.008629,0,0,-0.5917,0.18481,0,-0.080523,0,0,0.74587,-0.0074937,0,0.74594,-0.31875,-0.81984,-0.54552,-83.726,-0.56137,0.45124,0.00097309,0.7,0.94,0
0.2279,-0.037003,0.31507,-0.81871,-0.31033,-0.52775,-0.0066207,0,0,-0.6304,0.17621,0,-0.064198,0,0,0.74418,-0.0089196,0,0.74429,-0.30961,-0.81943,-0.52775,-85.407,-0.55227,0.45891,-0.00024919,0.72,0.94,0
0.21491,-0.035645,0.29029,-0.81841,-0.30087,-0.50996,-0.0044307,0,0,-0.66831,0.16707,0,-0.046394,0,0,0.74223,-0.010499,0,0.74238,-0.30051,-0.81876,-0.50996,-86.91,-0.54308,0.4666,-0.0015266,0.74,0.94,0
0.20117,-0.034254,0.26559,-0.81765,-0.29159,-0.49213,-0.001975,0,0,-0.70531,0.15737,0,-0.02645,0,0,0.74,-0.012339,0,0.74021,-0.29147,-0.81778,-0.49213,1.6952,-0.53379,0.47424,-0.0028489,0.76,0.94,0
0.1867,-0.032823,0.24096,-0.8164,-0.28254,-0.47426,0.00087251,0,0,-0.74131,0.14708,0,-0.0034179,0,0,0.73746,-0.014578,0,0.73775,-0.28253,-0.81641,-0.47426,0.33704,-0.5244,0.48173,-0.0042049,0.78,0.94,0
0.17152,-0.031336,0.21642,-0.81465,-0.27376,-0.45638,0.0043141,0,0,-0.77626,0.13622,0,0.024144,0,0,0.73456,-0.017411,0,0.73498,-0.2737,-0.81471,-0.45638,88.941,-0.51493,0.48907,-0.005584,0.8,0.94,0
0.15565,-0.029765,0.19199,-0.81256,-0.26533,-0.43856,0.0086865,0,0,-0.81034,0.12494,0,0.058489,0,0,0.7313,-0.02114,0,0.73191,-0.265,-0.81289,-0.43856,87.425,-0.50548,0.49637,-0.0069819,0.82,0.94,0
0.1391,-0.028064,0.16767,-0.81071,-0.2574,-0.42103,0.014562,0,0,-0.8443,0.11372,0,0.10317,0,0,0.72774,-0.02626,0,0.72867,-0.25642,-0.81169,-0.42103,85.707,-0.49638,0.5042,-0.0084169,0.84,0.94,0
0.12188,-0.026159,0.14347,-0.81065,-0.25034,-0.40438,0.022844,0,0,-0.88025,0.10375,0,0.16346,0,0,0.72424,-0.033668,0,0.72573,-0.24806,-0.81293,-0.40438,83.743,-0.48846,0.51397,-0.0099695,0.86,0.94,0
0.10389,-0.023954,0.11939,-0.81571,-0.24455,-0.38971,0.035346,0,0,-0.923,0.097258,0,0.24855,0,0,0.72209,-0.04508,0,0.72466,-0.2398,-0.82046,-0.38971,81.524,-0.48332,0.52907,-0.011861,0.88,0.94,0
0.084957,-0.021291,0.095334,-0.83797,-0.24584,-0.38234,0.053804,0,0,-0.98719,0.097772,0,0.36664,0,0,0.72396,-0.064645,0,0.72878,-0.23689,-0.84692,-0.38234,79.35,-0.48872,0.55657,-0.014888,0.9,0.94,0
0.064407,-0.018305,0.071124,-0.89672,-0.25454,-0.38805,0.094586,0,0,-1.1021,0.10891,0,0.57598,0,0,0.77126,-0.099267,0,0.78021,-0.23574,-0.91552,-0.38805,76.574,-0.5131,0.6206,-0.021507,0.92,0.94,0
0.040872,-0.013594,0.043916,-0.77435,-0.31638,-0.35357,0.16548,0,0,-1.0177,0.023877,0,0.88712,0,0,0.63189,-0.30333,0,0.70496,-0.2617,-0.82903,-0.35357,70.293,-0.48143,0.52761,-0.012863,0.94,0.94,0
0.026879,-0.015572,0.027769,-0.91204,-0.27768,-0.38468,0.12639,0,0,-0.68556,0.13911,0,0.32862,0,0,0.75454,-0.24455,0,0.78814,-0.25342,-0.93629,-0.38468,79.137,-0.5248,0.62762,-0.010849,0.96,0.94,0
0.01345,-0.016111,0.013735,-0.85859,-0.23457,-0.34168,0.063488,0,0,-0.67198,0.13924,0,0.16507,0,0,0.69422,-0.10641,0,0.70059,-0.22818,-0.86498,-0.34168,84.249,-0.47828,0.58832,-0.0091601,0.98,0.94,0
0,-0.016153,0,-0.82487,-0.20034,-0.30756,-0.00082385,0,0,-0.67249,0.13938,0,-0.002142,0,0,0.68675,-4.1633e-17,0,0.68538,-0.20034,-0.82487,-0.30756,-89.924,-0.44426,0.57842,-0.0087989,1,0.94,0
0,-0.011429,1,-0.66538,-1.4206,-1.6258,-0.0092405,0,0,1.2486,0.26673,0,-0.024025,0,0,0.70273,-1.0508e-15,0,0.70273,-0.66526,-1.4207,-1.6258,-0.70088,-1.2373,0.87619,0.028271,0,0.96,0
0.024971,-0.011909,0.98594,-0.65346,-1.3809,-1.5962,-0.023849,0,0,1.2256,0.27996,0,-0.062008,0,0,0.7038,0.0037868,0,0.70381,-0.65268,-1.3817,-1.5962,-1.8757,-1.2102,0.85669,0.025591,0.02,0.96,0
0.049025,-0.013293,0.97185,-0.66986,-1.3259,-1.5706,-0.044732,0,0,1.1709,0.31809,0,-0.1163,0,0,0.70682,0.0069406,0,0.70685,-0.66683,-1.3289,-1.5706,-3.8828,-1.1888,0.81041,0.019365,0.04,0.96,0
0.071808,-0.015404,0.95767,-0.69509,-1.2525,-1.5419,-0.059919,0,0,1.1009,0.37629,0,-0.15579,0,0,0.71127,0.0090045,0,0.71133,-0.68872,-1.2589,-1.5419,-6.0668,-1.1632,0.75273,0.011923,0.06,0.96,0
0.093062,-0.017977,0.9434,-0.72579,-1.1678,-1.5115,-0.067646,0,0,1.0214,0.44676,0,-0.17588,0,0,0.71646,0.0098028,0,0.71654,-0.71566,-1.1779,-1.5115,-8.5089,-1.135,0.69219,0.0046967,0.08,0.96,0
0.11266,-0.020698,0.92901,-0.75818,-1.0804,-1.4806,-0.067722,0,0,0.93914,0.52022,0,-0.17608,0,0,0.7217,0.0094397,0,0.72177,-0.74453,-1.0941,-1.4806,-11.399,-1.1064,0.63772,-0.0011567,0.1,0.96,0
0.13063,-0.023272,0.91453,-0.78885,-0.9983,-1.4507,-0.061555,0,0,0.86037,0.58808,0,-0.16004,0,0,0.72642,0.0082086,0,0.72647,-0.7721,-1.0151,-1.4507,-15.223,-1.0793,0.59551,-0.0050801,0.12,0.96,0
0.14708,-0.025465,0.89996,-0.81529,-0.92709,-1.4227,-0.051477,0,0,0.78959,0.64426,0,-0.13384,0,0,0.73026,0.0064685,0,0.73029,-0.7952,-0.94718,-1.4227,-21.321,-1.055,0.56697,-0.0071423,0.14,0.96,0
0.16221,-0.027131,0.88532,-0.83621,-0.86977,-1.3971,-0.039789,0,0,0.72917,0.68555,0,-0.10345,0,0,0.73306,0.0045483,0,0.73307,-0.80981,-0.89617,-1.3971,-33.569,-1.0344,0.54924,-0.007805,0.16,0.96,0
0.17625,-0.028194,0.87064,-0.85133,-0.82735,-1.3742,-0.02811,0,0,0.67978,0.71095,0,-0.073086,0,0,0.73479,0.0027088,0,0.73479,-0.80878,-0.8699,-1.3742,-56.55,-1.0176,0.53751,-0.0076294,0.18,0.96,0
0.1894,-0.028635,0.85593,-0.86097,-0.79985,-1.3542,-0.017237,0,0,0.64116,0.72062,0,-0.044816,0,0,0.73556,0.0011609,0,0.73556,-0.79532,-0.8655,-1.3542,-75.289,-1.005,0.52728,-0.0070815,0.2,0.96,0
0.20189,-0.028459,0.84121,-0.86563,-0.78698,-1.337,-0.0074244,0,0,0.61277,0.71502,0,-0.019303,0,0,0.73554,0.00012107,0,0.73554,-0.78628,-0.86633,-1.337,-84.654,-0.99654,0.51537,-0.0064626,0.22,0.96,0
0.21391,-0.027692,0.82651,-0.86582,-0.7885,-1.3228,0.0011599,0,0,0.59408,0.69459,0,0.0030156,0,0,0.73499,-0.000109,0,0.73499,-0.78848,-0.86584,-1.3228,89.141,-0.99238,0.50015,-0.0059109,0.24,0.96,0
0.22565,-0.026377,0.81181,-0.86216,-0.80408,-1.3117,0.0079835,0,0,0.58438,0.65989,0,0.020757,0,0,0.73431,0.00095846,0,0.73431,-0.803,-0.86324,-1.3117,82.314,-0.99264,0.4814,-0.0054286,0.26,0.96,0
0.23729,-0.024592,0.79713,-0.85574,-0.83275,-1.3037,0.011885,0,0,0.58232,0.61221,0,0.0309,0,0,0.73416,0.0041253,0,0.73417,-0.82771,-0.86078,-1.3037,67.023,-0.99739,0.46033,-0.0049227,0.28,0.96,0
0.24895,-0.022465,0.78245,-0.84852,-0.87221,-1.2987,0.011172,0,0,0.58518,0.5544,0,0.029046,0,0,0.73562,0.010667,0,0.73569,-0.84408,-0.87664,-1.2987,21.666,-1.0065,0.43921,-0.0042709,0.3,0.96,0
0.2607,-0.020175,0.76771,-0.84367,-0.91829,-1.2963,0.0041593,0,0,0.58841,0.49141,0,0.010814,0,0,0.74047,0.022541,0,0.74079,-0.84344,-0.91852,-1.2963,3.1807,-1.0194,0.42037,-0.0034087,0.32,0.96,0
0.27248,-0.017941,0.75283,-0.84562,-0.96526,-1.2961,-0.01023,0,0,0.58561,0.43008,0,-0.026599,0,0,0.75161,0.042692,0,0.75277,-0.84476,-0.96613,-1.2961,-4.8525,-1.0357,0.40454,-0.0023968,0.34,0.96,0
0.28412,-0.016004,0.73764,-0.86064,-1.0076,-1.2981,-0.0319,0,0,0.5687,0.37771,0,-0.082939,0,0,0.7741,0.075531,0,0.77768,-0.85401,-1.0142,-1.2981,-11.737,-1.0554,0.38954,-0.001398,0.36,0.96,0
0.29523,-0.014587,0.72186,-0.8899,-1.0376,-1.3001,-0.063963,0,0,0.53328,0.34127,0,-0.1663,0,0,0.82073,0.12743,0,0.83044,-0.86605,-1.0615,-1.3001,-20.448,-1.0759,0.37653,-0.00047053,0.38,0.96,0
0.30545,-0.014386,0.70481,-0.96021,-1.071,-1.3142,-0.11639,0,0,0.46015,0.31616,0,-0.30262,0,0,0.92405,0.20752,0,0.94806,-0.8867,-1.1445,-1.3142,-32.277,-1.1151,0.37282,0.00092596,0.4,0.96,0
0.31364,-0.016955,0.6849,-1.056,-1.0186,-1.3073,-0.20176,0,0,0.32667,0.37527,0,-0.52458,0,0,1.0588,0.27916,0,1.1005,-0.83469,-1.2399,-1.3073,-47.647,-1.1273,0.44278,0.004113,0.42,0.96,0
0.31852,-0.024219,0.66246,-1.078,-0.60651,-1.1678,-0.16049,0,0,0.1168,0.72968,0,-0.41726,0,0,1.1681,0.1106,0,1.1716,-0.55707,-1.1274,-1.1678,-72.876,-0.95076,0.59157,0.010466,0.44,0.96,0
0.31831,-0.029844,0.63818,-1.1922,-0.55065,-1.161,-0.09064,0,0,-0.040512,0.7935,0,-0.23566,0,0,1.2177,0.058824,0,1.219,-0.53809,-1.2047,-1.161,-82.111,-0.96796,0.64591,0.013627,0.46,0.96,0
0.3169,-0.032006,0.61376,-1.195,-0.49292,-1.1201,-0.044403,0,0,-0.097306,0.81537,0,-0.11545,0,0,1.2258,0.034313,0,1.2263,-0.49012,-1.1978,-1.1201,-86.395,-0.936,0.6722,0.0149,0.48,0.96,0
0.31442,-0.032634,0.58915,-1.2028,-0.45831,-1.0875,-0.027123,0,0,-0.14996,0.81793,0,-0.07052,0,0,1.234,0.021224,0,1.2342,-0.45733,-1.2038,-1.0875,-87.916,-0.91622,0.69567,0.015674,0.5,0.96,0
0.3109,-0.03247,0.5644,-1.2136,-0.43549,-1.0591,-0.02027,0,0,-0.20084,0.81074,0,-0.052701,0,0,1.24,0.013475,0,1.2401,-0.43496,-1.2142,-1.0591,-88.509,-0.90275,0.71441,0.015795,0.52,0.96,0
0.30638,-0.031947,0.53955,-1.2245,-0.4189,-1.0326,-0.017707,0,0,-0.24951,0.79776,0,-0.046039,0,0,1.2442,0.0084695,0,1.2442,-0.41851,-1.2249,-1.0326,-88.741,-0.89198,0.72948,0.015363,0.54,0.96,0
0.30092,-0.031266,0.51463,-1.2342,-0.40528,-1.0065,-0.016452,0,0,-0.296,0.78153,0,-0.042776,0,0,1.2469,0.0050104,0,1.2469,-0.40495,-1.2345,-1.0065,-88.863,-0.88196,0.74226,0.014515,0.56,0.96,0
0.29454,-0.030513,0.48967,-1.2425,-0.39309,-0.98034,-0.015465,0,0,-0.34077,0.76342,0,-0.040208,0,0,1.2483,0.0024891,0,1.2483,-0.39281,-1.2428,-0.98034,-88.957,-0.87197,0.75381,0.01335,0.58,0.96,0
0.28729,-0.029727,0.4647,-1.2496,-0.38161,-0.95406,-0.014432,0,0,-0.38422,0.74419,0,-0.037525,0,0,1.2488,0.00056743,0,1.2488,-0.38137,-1.2498,-0.95406,-89.048,-0.86176,0.76476,0.011931,0.6,0.96,0
0.27918,-0.028918,0.43972,-1.2558,-0.37052,-0.92761,-0.01331,0,0,-0.42662,0.72421,0,-0.034605,0,0,1.2486,-0.00096048,0,1.2486,-0.37032,-1.256,-0.92761,-89.139,-0.8513,0.77549,0.010298,0.62,0.96,0
0.27022,-0.028093,0.41475,-1.2611,-0.3597,-0.901,-0.012115,0,0,-0.46816,0.70369,0,-0.031498,0,0,1.2477,-0.0022309,0,1.2477,-0.35953,-1.2613,-0.901,-89.23,-0.84061,0.78617,0.0084742,0.64,0.96,0
0.26045,-0.027252,0.38981,-1.2657,-0.34908,-0.87426,-0.010866,0,0,-0.50892,0.68272,0,-0.028252,0,0,1.2462,-0.0033417,0,1.2462,-0.34896,-1.2659,-0.87426,-89.321,-0.82969,0.79687,0.006479,0.66,0.96,0
0.24987,-0.026395,0.3649,-1.2697,-0.33867,-0.8474,-0.0095664,0,0,-0.54894,0.66136,0,-0.024873,0,0,1.2443,-0.00437,0,1.2443,-0.33857,-1.2698,-0.8474,-89.411,-0.81858,0.80759,0.0043284,0.68,0.96,0
0.23849,-0.025523,0.34004,-1.2729,-0.32845,-0.82045,-0.0082028,0,0,-0.5882,0.6396,0,-0.021327,0,0,1.2418,-0.0053825,0,1.2418,-0.32838,-1.273,-0.82045,-89.502,-0.80727,0.81829,0.0020379,0.7,0.96,0
0.22634,-0.024633,0.31523,-1.2755,-0.31844,-0.7934,-0.0067491,0,0,-0.62667,0.61744,0,-0.017548,0,0,1.2389,-0.0064438,0,1.2389,-0.3184,-1.2755,-0.7934,-89.596,-0.79577,0.82889,-0.00037586,0.72,0.96,0
0.21343,-0.023724,0.29048,-1.2772,-0.30868,-0.76626,-0.0051631,0,0,-0.66428,0.59485,0,-0.013424,0,0,1.2355,-0.0076237,0,1.2355,-0.30866,-1.2773,-0.76626,-89.695,-0.78407,0.83927,-0.0028943,0.74,0.96,0
0.19977,-0.022793,0.26581,-1.2782,-0.29923,-0.73904,-0.0033751,0,0,-0.70092,0.57176,0,-0.0087752,0,0,1.2315,-0.0090071,0,1.2315,-0.29922,-1.2782,-0.73904,-89.802,-0.77216,0.8493,-0.0054961,0.76,0.96,0
0.18539,-0.021832,0.24122,-1.2783,-0.29018,-0.71176,-0.0012584,0,0,-0.73647,0.54806,0,-0.0032718,0,0,1.2267,-0.010709,0,1.2268,-0.29018,-1.2783,-0.71176,-89.927,-0.76007,0.85879,-0.0081567,0.78,0.96,0
0.17031,-0.020828,0.21674,-1.2774,-0.28173,-0.68447,0.0014311,0,0,-0.77077,0.52357,0,0.0037209,0,0,1.2212,-0.0129,0,1.2212,-0.28173,-1.2774,-0.68447,89.918,-0.74786,0.86748,-0.010848,0.8,0.96,0
0.15456,-0.019755,0.19238,-1.2755,-0.27421,-0.65729,0.0051714,0,0,-0.80365,0.49799,0,0.013446,0,0,1.2146,-0.015865,0,1.2147,-0.27419,-1.2755,-0.65729,89.704,-0.73566,0.8751,-0.013538,0.82,0.96,0
0.13816,-0.018565,0.16816,-1.2728,-0.26818,-0.63044,0.010861,0,0,-0.835,0.47093,0,0.028238,0,0,1.2067,-0.020119,0,1.2069,-0.26806,-1.2729,-0.63044,89.381,-0.72379,0.88138,-0.016196,0.84,0.96,0
0.12116,-0.017183,0.14411,-1.2695,-0.26447,-0.60432,0.020153,0,0,-0.8648,0.4418,0,0.052398,0,0,1.1973,-0.026706,0,1.1976,-0.26407,-1.2699,-0.60432,88.852,-0.71278,0.88618,-0.018802,0.86,0.96,0
0.10357,-0.015491,0.12026,-1.2655,-0.26368,-0.57901,0.035376,0,0,-0.89241,0.40993,0,0.091979,0,0,1.1862,-0.037922,0,1.1868,-0.26243,-1.2667,-0.57901,87.98,-0.70273,0.88932,-0.021301,0.88,0.96,0
0.08546,-0.013396,0.09666,-1.2541,-0.26578,-0.55262,0.061439,0,0,-0.9119,0.37289,0,0.15974,0,0,1.1756,-0.05924,0,1.177,-0.26197,-1.2579,-0.55262,86.456,-0.69083,0.88705,-0.023304,0.9,0.96,0
0.067094,-0.010715,0.073241,-1.1765,-0.25295,-0.50208,0.086487,0,0,-0.87676,0.32386,0,0.22487,0,0,1.1263,-0.10507,0,1.1297,-0.24493,-1.1845,-0.50208,84.696,-0.64385,0.84106,-0.021202,0.92,0.96,0
0.05039,-0.0097149,0.051608,-1.1434,-0.33047,-0.49378,0.11116,0,0,-0.84455,0.2123,0,0.289,0,0,1.0221,-0.25841,0,1.0594,-0.31555,-1.1583,-0.49378,82.353,-0.65589,0.76933,-0.019222,0.94,0.96,0
0.033312,-0.011246,0.032358,-1.074,-0.23483,-0.42501,0.065747,0,0,-0.84368,0.24722,0,0.17094,0,0,0.89728,-0.17763,0,0.91519,-0.22971,-1.0791,-0.42501,85.547,-0.57795,0.77054,-0.018507,0.96,0.96,0
0.016643,-0.011972,0.015716,-1.0184,-0.18838,-0.37774,0.037565,0,0,-0.83281,0.24617,0,0.09767,0,0,0.80895,-0.081483,0,0.81236,-0.18668,-1.02,-0.37774,87.414,-0.52816,0.75617,-0.017519,0.98,0.96,0
0,-0.012135,0,-0.97985,-0.15266,-0.33975,-0.0031347,0,0,-0.83213,0.24322,0,-0.0081502,0,0,0.78581,1.0408e-17,0,0.78508,-0.15265,-0.97987,-0.33975,-89.783,-0.49076,0.75135,-0.017314,1,0.96,0
0,-0.0058404,1,-0.67031,-1.4019,-1.6217,-0.0044643,0,0,1.2367,0.28572,0,-0.011607,0,0,0.70538,-2.2575e-15,0,0.70538,-0.67029,-1.4019,-1.6217,-0.34963,-1.2313,0.86274,0.025907,0,0.98,0
0.024735,-0.0060726,0.98589,-0.65797,-1.3632,-1.5922,-0.011695,0,0,1.2146,0.29774,0,-0.030406,0,0,0.70624,0.001742,0,0.70624,-0.65778,-1.3634,-1.5922,-0.94975,-1.2045,0.84366,0.023362,0.02,0.98,0
0.048582,-0.0067408,0.97175,-0.67344,-1.3116,-1.5673,-0.021937,0,0,1.162,0.33232,0,-0.057038,0,0,0.70868,0.0032089,0,0.70869,-0.67268,-1.3124,-1.5673,-1.9664,-1.1841,0.79828,0.017429,0.04,0.98,0
0.071215,-0.0077614,0.95754,-0.6974,-1.2436,-1.5398,-0.029439,0,0,1.0952,0.3851,0,-0.07654,0,0,0.71233,0.0041969,0,0.71235,-0.69582,-1.2452,-1.5398,-3.0761,-1.1603,0.74197,0.010379,0.06,0.98,0
0.09239,-0.0090079,0.94326,-0.72691,-1.1652,-1.5109,-0.033395,0,0,1.0192,0.44941,0,-0.086828,0,0,0.71668,0.0046187,0,0.7167,-0.72437,-1.1677,-1.5109,-4.3325,-1.1343,0.68297,0.0035735,0.08,0.98,0
0.11198,-0.010333,0.92888,-0.75859,-1.0835,-1.4815,-0.033708,0,0,0.93977,0.51745,0,-0.08764,0,0,0.7212,0.0045057,0,0.72122,-0.75513,-1.0869,-1.4815,-5.8619,-1.1079,0.62983,-0.0019128,0.1,0.98,0
0.12998,-0.011596,0.91441,-0.78932,-1.0052,-1.4528,-0.030973,0,0,0.8625,0.5818,0,-0.08053,0,0,0.72542,0.0039762,0,0.72543,-0.78496,-1.0096,-1.4528,-8.0038,-1.0824,0.58858,-0.0055646,0.12,0.98,0
0.14648,-0.012683,0.89986,-0.81661,-0.93589,-1.4256,-0.026215,0,0,0.7917,0.63664,0,-0.068158,0,0,0.72898,0.0031867,0,0.72899,-0.81111,-0.9414,-1.4256,-11.864,-1.0594,0.56083,-0.0074376,0.14,0.98,0
0.16165,-0.013516,0.88525,-0.83896,-0.87885,-1.4006,-0.020495,0,0,0.73013,0.67827,0,-0.053287,0,0,0.73172,0.0022925,0,0.73172,-0.8303,-0.8875,-1.4006,-22.89,-1.0395,0.54395,-0.0079587,0.16,0.98,0
0.17569,-0.014055,0.87059,-0.85569,-0.83586,-1.3781,-0.014623,0,0,0.67908,0.70486,0,-0.038019,0,0,0.73359,0.0014277,0,0.73359,-0.8281,-0.86344,-1.3781,-62.07,-1.0232,0.53316,-0.0076688,0.18,0.98,0
0.18881,-0.014284,0.85591,-0.8668,-0.80754,-1.3582,-0.0090641,0,0,0.63883,0.71587,0,-0.023567,0,0,0.73467,0.00071117,0,0.73467,-0.80619,-0.86816,-1.3582,-81.496,-1.0109,0.52379,-0.0070337,0.2,0.98,0
0.20124,-0.014205,0.84121,-0.87269,-0.79388,-1.3412,-0.0040394,0,0,0.60904,0.71148,0,-0.010502,0,0,0.73519,0.00027091,0,0.73519,-0.79368,-0.87289,-1.3412,-87.073,-1.0026,0.5125,-0.0063605,0.22,0.98,0
0.21317,-0.013831,0.8265,-0.87397,-0.7945,-1.327,0.00027825,0,0,0.58899,0.6923,0,0.00072345,0,0,0.73551,0.0002832,0,0.73551,-0.7945,-0.87397,-1.327,89.799,-0.9985,0.49759,-0.0057872,0.24,0.98,0
0.2248,-0.013187,0.81178,-0.87158,-0.80858,-1.3158,0.0035703,0,0,0.57753,0.65943,0,0.0092828,0,0,0.73623,0.0010242,0,0.73623,-0.80838,-0.87179,-1.3158,86.767,-0.99867,0.47891,-0.0053095,0.26,0.98,0
0.23627,-0.012316,0.79705,-0.86692,-0.83456,-1.3075,0.0052796,0,0,0.57275,0.61481,0,0.013727,0,0,0.73832,0.0029354,0,0.73832,-0.83372,-0.86776,-1.3075,80.963,-1.003,0.4577,-0.0048329,0.28,0.98,0
0.24771,-0.011282,0.78225,-0.86197,-0.86976,-1.3018,0.0046967,0,0,0.57174,0.56162,0,0.012211,0,0,0.74331,0.0067083,0,0.74334,-0.85977,-0.87197,-1.3018,25.173,-1.0112,0.43603,-0.0042466,0.3,0.98,0
0.25914,-0.010171,0.76732,-0.85933,-0.91019,-1.2982,0.0012293,0,0,0.57049,0.50438,0,0.0031962,0,0,0.75363,0.013397,0,0.75377,-0.8593,-0.91022,-1.2982,1.3837,-1.0226,0.41576,-0.003505,0.32,0.98,0
0.27053,-0.0090823,0.75211,-0.86208,-0.95101,-1.296,-0.0052151,0,0,0.56414,0.44853,0,-0.013559,0,0,0.77305,0.024567,0,0.7735,-0.86178,-0.95132,-1.296,-3.3447,-1.0364,0.39713,-0.0026738,0.34,0.98,0
0.28171,-0.0081148,0.7364,-0.87258,-0.98629,-1.2941,-0.014615,0,0,0.54792,0.40009,0,-0.037999,0,0,0.80735,0.042375,0,0.80864,-0.87073,-0.98814,-1.2941,-7.2078,-1.051,0.37853,-0.0019089,0.36,0.98,0
0.29245,-0.0074337,0.71981,-0.8967,-1.0119,-1.2924,-0.02827,0,0,0.51439,0.36467,0,-0.073502,0,0,0.86469,0.068776,0,0.86798,-0.89013,-1.0184,-1.2924,-13.074,-1.067,0.35589,-0.0013419,0.38,0.98,0
0.30229,-0.0074087,0.70181,-0.93991,-1.0102,-1.2868,-0.052688,0,0,0.451,0.35966,0,-0.13699,0,0,0.94605,0.09735,0,0.95247,-0.91171,-1.0384,-1.2868,-28.152,-1.079,0.33052,-0.00097878,0.4,0.98,0
0.31049,-0.0088261,0.68197,-1.0143,-0.94313,-1.2692,-0.082226,0,0,0.33137,0.42389,0,-0.21379,0,0,1.0391,0.095916,0,1.0447,-0.88912,-1.0683,-1.2692,-56.7,-1.0756,0.32934,-0.00018105,0.42,0.98,0
0.31554,-0.011693,0.66024,-1.0743,-0.73827,-1.204,-0.090626,0,0,0.16864,0.60546,0,-0.23563,0,0,1.1212,0.072702,0,1.1241,-0.71539,-1.0972,-1.204,-75.829,-1.0055,0.44493,0.0036595,0.44,0.98,0
0.31723,-0.014359,0.63712,-1.14,-0.57886,-1.1528,-0.056236,0,0,0.0166,0.74611,0,-0.14621,0,0,1.1771,0.037111,0,1.1777,-0.57328,-1.1456,-1.1528,-84.333,-0.95722,0.57595,0.0098072,0.46,0.98,0
0.3162,-0.015844,0.61316,-1.192,-0.5075,-1.123,-0.027775,0,0,-0.089635,0.80014,0,-0.072215,0,0,1.2083,0.020449,0,1.2085,-0.50638,-1.1931,-1.123,-87.68,-0.94081,0.65448,0.013843,0.48,0.98,0
0.31365,-0.016286,0.58879,-1.2115,-0.46381,-1.0914,-0.013603,0,0,-0.15617,0.81586,0,-0.035368,0,0,1.2246,0.012119,0,1.2247,-0.46356,-1.2118,-1.0914,-88.958,-0.92224,0.69587,0.015575,0.5,0.98,0
0.30996,-0.016244,0.56417,-1.2225,-0.43788,-1.0623,-0.0089465,0,0,-0.20829,0.81174,0,-0.023261,0,0,1.2346,0.0074922,0,1.2346,-0.43778,-1.2226,-1.0623,-89.347,-0.90756,0.71823,0.015879,0.52,0.98,0
0.30531,-0.015985,0.53941,-1.2302,-0.42012,-1.0345,-0.0077012,0,0,-0.25437,0.79868,0,-0.020023,0,0,1.2407,0.0046499,0,1.2407,-0.42005,-1.2302,-1.0345,-89.455,-0.89492,0.7322,0.015409,0.54,0.98,0
0.29978,-0.015638,0.51455,-1.2368,-0.40619,-1.0075,-0.0074422,0,0,-0.2982,0.78164,0,-0.01935,0,0,1.2445,0.0027524,0,1.2445,-0.40613,-1.2369,-1.0075,-89.487,-0.8835,0.74311,0.0145,0.56,0.98,0
0.29339,-0.015256,0.48963,-1.2431,-0.39396,-0.98076,-0.0072768,0,0,-0.3411,0.76284,0,-0.01892,0,0,1.2466,0.0014006,0,1.2466,-0.3939,-1.2432,-0.98076,-89.509,-0.87262,0.75319,0.013302,0.58,0.98,0
0.28614,-0.014858,0.46468,-1.2491,-0.3825,-0.95417,-0.0069784,0,0,-0.38343,0.74317,0,-0.018144,0,0,1.2475,0.00038531,0,1.2475,-0.38245,-1.2492,-0.95417,-89.539,-0.86193,0.76325,0.011875,0.6,0.98,0
0.27805,-0.014452,0.43973,-1.2547,-0.37144,-0.92756,-0.0065393,0,0,-0.42524,0.72296,0,-0.017002,0,0,1.2475,-0.00041415,0,1.2475,-0.37139,-1.2547,-0.92756,-89.576,-0.85123,0.77351,0.010248,0.62,0.98,0
0.26913,-0.014038,0.41478,-1.2597,-0.36064,-0.90089,-0.0060014,0,0,-0.46647,0.70233,0,-0.015604,0,0,1.2468,-0.0010746,0,1.2468,-0.3606,-1.2597,-0.90089,-89.618,-0.84041,0.78396,0.008437,0.64,0.98,0
0.25939,-0.013617,0.38986,-1.2642,-0.35005,-0.87413,-0.005401,0,0,-0.50706,0.6813,0,-0.014042,0,0,1.2454,-0.0016498,0,1.2454,-0.35001,-1.2642,-0.87413,-89.662,-0.82945,0.79454,0.0064569,0.66,0.98,0
0.24885,-0.013188,0.36497,-1.268,-0.33966,-0.84727,-0.004757,0,0,-0.54695,0.65989,0,-0.012368,0,0,1.2435,-0.002181,0,1.2435,-0.33964,-1.268,-0.84727,-89.706,-0.81831,0.80518,0.004322,0.68,0.98,0
0.23751,-0.012751,0.34012,-1.2712,-0.3295,-0.82032,-0.0040732,0,0,-0.5861,0.63807,0,-0.01059,0,0,1.241,-0.0027037,0,1.241,-0.32948,-1.2712,-0.82032,-89.752,-0.807,0.81578,0.0020479,0.7,0.98,0
0.2254,-0.012306,0.31533,-1.2736,-0.31957,-0.79329,-0.0033418,0,0,-0.62443,0.61582,0,-0.0086886,0,0,1.2381,-0.0032522,0,1.2381,-0.31956,-1.2736,-0.79329,-89.799,-0.79549,0.82625,-0.00034834,0.72,0.98,0
0.21254,-0.01185,0.2906,-1.2753,-0.30993,-0.76617,-0.0025425,0,0,-0.66187,0.59311,0,-0.0066105,0,0,1.2345,-0.0038641,0,1.2345,-0.30993,-1.2753,-0.76617,-89.849,-0.7838,0.83647,-0.0028475,0.74,0.98,0
0.19893,-0.011384,0.26595,-1.2761,-0.30065,-0.73898,-0.0016345,0,0,-0.69829,0.56983,0,-0.0042498,0,0,1.2303,-0.0045857,0,1.2303,-0.30065,-1.2761,-0.73898,-89.904,-0.77192,0.84623,-0.0054268,0.76,0.98,0
0.1846,-0.010901,0.24139,-1.2759,-0.29188,-0.71173,-0.00053317,0,0,-0.73346,0.54581,0,-0.0013862,0,0,1.2252,-0.005482,0,1.2252,-0.29188,-1.2759,-0.71173,-89.969,-0.75985,0.85527,-0.0080571,0.78,0.98,0
0.16959,-0.010393,0.21694,-1.2744,-0.2839,-0.68444,0.00093984,0,0,-0.76699,0.5207,0,0.0024436,0,0,1.2191,-0.0066545,0,1.2191,-0.2839,-1.2744,-0.68444,89.946,-0.74759,0.86304,-0.010697,0.8,0.98,0
0.15392,-0.0098456,0.19262,-1.2711,-0.27722,-0.65712,0.0031498,0,0,-0.79816,0.49386,0,0.0081894,0,0,1.2116,-0.0082804,0,1.2116,-0.27721,-1.2711,-0.65712,89.818,-0.73514,0.86865,-0.013278,0.82,0.98,0
0.13766,-0.009227,0.16848,-1.2648,-0.27272,-0.62974,0.0068102,0,0,-0.82562,0.46413,0,0.017707,0,0,1.2021,-0.010705,0,1.2021,-0.27267,-1.2649,-0.62974,89.607,-0.72243,0.87045,-0.015679,0.84,0.98,0
0.1209,-0.0084866,0.14454,-1.2536,-0.27167,-0.60211,0.013127,0,0,-0.8469,0.42958,0,0.034131,0,0,1.1893,-0.014667,0,1.1894,-0.27149,-1.2537,-0.60211,89.234,-0.70912,0.86567,-0.017684,0.86,0.98,0
0.10379,-0.0075566,0.1209,-1.2341,-0.27604,-0.57395,0.023821,0,0,-0.85819,0.38727,0,0.061936,0,0,1.1709,-0.021884,0,1.1712,-0.27545,-1.2347,-0.57395,88.576,-0.69469,0.85024,-0.018954,0.88,0.98,0
0.086571,-0.0063758,0.097703,-1.1975,-0.28477,-0.54239,0.036821,0,0,-0.85167,0.33491,0,0.095735,0,0,1.1394,-0.036539,0,1.1401,-0.28328,-1.199,-0.54239,87.694,-0.67489,0.81756,-0.018857,0.9,0.98,0
0.06972,-0.0053501,0.075327,-1.1648,-0.31243,-0.5185,0.04408,0,0,-0.8402,0.26788,0,0.11461,0,0,1.0863,-0.068191,0,1.0889,-0.31016,-1.1671,-0.5185,87.047,-0.66524,0.77407,-0.018131,0.92,0.98,0
0.052963,-0.005102,0.054253,-1.1312,-0.29541,-0.48223,0.029209,0,0,-0.84365,0.24287,0,0.075943,0,0,1.0113,-0.086262,0,1.016,-0.29439,-1.1322,-0.48223,88.001,-0.63628,0.76148,-0.01811,0.94,0.98,0
0.035974,-0.0056832,0.034874,-1.0934,-0.20945,-0.42572,0.020382,0,0,-0.86793,0.28115,0,0.052993,0,0,0.93147,-0.080784,0,0.93595,-0.20898,-1.0938,-0.42572,88.68,-0.57617,0.79884,-0.019829,0.96,0.98,0
0.018246,-0.0062638,0.016994,-1.0805,-0.15844,-0.38867,0.012464,0,0,-0.89934,0.2993,0,0.032408,0,0,0.87185,-0.042487,0,0.87294,-0.15827,-1.0806,-0.38867,89.226,-0.54253,0.83147,-0.022059,0.98,0.98,0
0,-0.0064245,0,-1.0531,-0.11793,-0.35129,-0.0030893,0,0,-0.91228,0.30337,0,-0.0080322,0,0,0.84971,-8.6736e-18,0,0.84949,-0.11792,-1.0531,-0.35129,-89.811,-0.50742,0.84304,-0.023007,1,0.98,0
0,0,1,-0.67205,-1.3957,-1.6203,6.7654e-17,0,0,1.2328,0.29202,0,1.8041e-16,0,0,0.70622,-1.6317e-15,0,0.70622,-0.67205,-1.3957,-1.6203,5.3567e-15,-1.2293,0.85829,0.025129,0,1,0
0.024655,0,0.98588,-0.65957,-1.3574,-1.591,-0.0015342,0,0,1.2108,0.30363,0,-0.0039888,0,0,0.70701,0.00083584,0,0.70701,-0.65957,-1.3574,-1.591,-0.12596,-1.2026,0.83936,0.02263,0.02,1,0
0.048433,0,0.97172,-0.67471,-1.307,-1.5662,-0.002879,0,0,1.159,0.33704,0,-0.0074854,0,0,0.70927,0.0015433,0,0.70927,-0.6747,-1.307,-1.5662,-0.26089,-1.1826,0.79429,0.016797,0.04,1,0
0.071013,0,0.95751,-0.69825,-1.2407,-1.5392,-0.0038654,0,0,1.0932,0.38807,0,-0.01005,0,0,0.71268,0.0020264,0,0.71268,-0.69822,-1.2407,-1.5392,-0.40828,-1.1594,0.73843,0.0098764,0.06,1,0
0.092161,0,0.94321,-0.72735,-1.1642,-1.5107,-0.0044008,0,0,1.0183,0.45039,0,-0.011442,0,0,0.71677,0.0022416,0,0.71678,-0.72731,-1.1643,-1.5107,-0.57708,-1.1341,0.67994,0.0032061,0.08,1,0
0.11175,0,0.92883,-0.75878,-1.0843,-1.4818,-0.0045068,0,0,0.93988,0.51667,0,-0.011718,0,0,0.72106,0.0022004,0,0.72106,-0.75872,-1.0844,-1.4818,-0.79299,-1.1083,0.6272,-0.0021637,0.1,1,0
0.12976,0,0.91437,-0.78949,-1.0074,-1.4534,-0.0043145,0,0,0.86314,0.57983,0,-0.011218,0,0,0.7251,0.0019556,0,0.72511,-0.78941,-1.0075,-1.4534,-1.1337,-1.0835,0.58625,-0.0057287,0.12,1,0
0.14627,0,0.89983,-0.81703,-0.93876,-1.4266,-0.0040139,0,0,0.79239,0.63415,0,-0.010436,0,0,0.72858,0.0015805,0,0.72858,-0.8169,-0.93889,-1.4266,-1.8866,-1.0608,0.55875,-0.0075398,0.14,1,0
0.16145,0,0.88523,-0.83981,-0.88187,-1.4017,-0.0037808,0,0,0.7305,0.67582,0,-0.0098301,0,0,0.7313,0.0011501,0,0.7313,-0.83947,-0.88221,-1.4017,-5.0957,-1.0411,0.54216,-0.0080133,0.16,1,0
0.17549,0,0.87058,-0.85705,-0.83874,-1.3793,-0.003726,0,0,0.67894,0.70275,0,-0.0096877,0,0,0.73321,0.0007323,0,0.73321,-0.83801,-0.85778,-1.3793,-78.928,-1.025,0.5317,-0.007684,0.18,1,0
0.18861,0,0.8559,-0.86865,-0.81017,-1.3595,-0.0038841,0,0,0.63816,0.71419,0,-0.010099,0,0,0.7344,0.00038963,0,0.7344,-0.80991,-0.86891,-1.3595,-86.217,-1.0128,0.52264,-0.007018,0.2,1,0
0.20102,0,0.8412,-0.87496,-0.79623,-1.3426,-0.0042408,0,0,0.60788,0.71023,0,-0.011026,0,0,0.73511,0.000191,0,0.73511,-0.796,-0.87519,-1.3426,-86.926,-1.0046,0.51158,-0.0063246,0.22,1,0
0.21293,0,0.82649,-0.87665,-0.79649,-1.3284,-0.0047794,0,0,0.58732,0.69153,0,-0.012426,0,0,0.73574,0.00023098,0,0.73574,-0.79621,-0.87693,-1.3284,-86.6,-1.0005,0.49681,-0.0057414,0.24,1,0
0.22451,0,0.81177,-0.87472,-0.81001,-1.3172,-0.0055245,0,0,0.57521,0.65934,0,-0.014364,0,0,0.73696,0.0006558,0,0.73696,-0.80954,-0.87519,-1.3172,-85.156,-1.0006,0.47822,-0.0052618,0.26,1,0
0.23593,0,0.79702,-0.87064,-0.83504,-1.3087,-0.0065635,0,0,0.5695,0.61578,0,-0.017065,0,0,0.73984,0.0016967,0,0.73984,-0.83387,-0.87182,-1.3087,-79.88,-1.0048,0.45706,-0.0047902,0.28,1,0
0.24729,0,0.78218,-0.86635,-0.86881,-1.3027,-0.0080233,0,0,0.56729,0.56409,0,-0.020861,0,0,0.74609,0.0037132,0,0.74609,-0.85946,-0.8757,-1.3027,-40.635,-1.0126,0.43537,-0.0042186,0.3,1,0
0.25862,0,0.76717,-0.86415,-0.90747,-1.2987,-0.009984,0,0,0.56486,0.50854,0,-0.025958,0,0,0.75833,0.0072522,0,0.75836,-0.86196,-0.90966,-1.2987,-12.374,-1.0234,0.41491,-0.0035055,0.32,1,0
0.26989,0,0.75184,-0.86622,-0.94627,-1.2956,-0.012359,0,0,0.55819,0.45411,0,-0.032135,0,0,0.78059,0.013109,0,0.78069,-0.86435,-0.94814,-1.2956,-8.5796,-1.036,0.39605,-0.0027155,0.34,1,0
0.28095,0,0.73595,-0.87549,-0.9807,-1.2928,-0.014563,0,0,0.54251,0.40574,0,-0.037863,0,0,0.81831,0.022329,0,0.8186,-0.87352,-0.98268,-1.2928,-7.7372,-1.0497,0.37676,-0.0019893,0.36,1,0
0.29159,0,0.71911,-0.89639,-1.003,-1.2889,-0.016525,0,0,0.51031,0.37169,0,-0.042965,0,0,0.87571,0.03503,0,0.8764,-0.89389,-1.0055,-1.2889,-8.6101,-1.0628,0.35274,-0.0015164,0.38,1,0
0.30136,0,0.70092,-0.94006,-0.99713,-1.2821,-0.017701,0,0,0.44462,0.37044,0,-0.046023,0,0,0.95119,0.044374,0,0.95222,-0.93502,-1.0022,-1.2821,-15.907,-1.0731,0.31883,-0.0014188,0.4,1,0
0.30937,0,0.68107,-1.0018,-0.91732,-1.2568,-0.021433,0,0,0.33154,0.44131,0,-0.055725,0,0,1.0341,0.04531,0,1.0351,-0.91219,-1.0069,-1.2568,-76.542,-1.0586,0.30835,-0.0010409,0.42,1,0
0.31463,0,0.65956,-1.0679,-0.75741,-1.2071,-0.01757,0,0,0.18104,0.58465,0,-0.045682,0,0,1.1093,0.034466,0,1.1098,-0.75641,-1.0689,-1.2071,-86.771,-1.0108,0.39994,0.0020106,0.44,1,0
0.31661,0,0.63669,-1.1334,-0.60637,-1.1586,-0.011892,0,0,0.032762,0.71795,0,-0.03092,0,0,1.1654,0.021492,0,1.1656,-0.6061,-1.1337,-1.1586,-88.708,-0.96614,0.5405,0.0080516,0.46,1,0
0.31594,0,0.61294,-1.1833,-0.5122,-1.1216,-0.0051374,0,0,-0.080242,0.79221,0,-0.013357,0,0,1.2008,0.011136,0,1.2009,-0.51216,-1.1834,-1.1216,-89.561,-0.93904,0.64255,0.013201,0.48,1,0
0.3134,0,0.58866,-1.2128,-0.46587,-1.0923,-0.0046669,0,0,-0.1567,0.81431,0,-0.012134,0,0,1.2211,0.0065026,0,1.2211,-0.46584,-1.2128,-1.0923,-89.642,-0.92365,0.6946,0.015478,0.5,1,0
0.30967,0,0.5641,-1.2252,-0.43841,-1.0632,-0.0055445,0,0,-0.21064,0.81221,0,-0.014416,0,0,1.2326,0.0039581,0,1.2326,-0.43837,-1.2252,-1.0632,-89.596,-0.90894,0.71967,0.015919,0.52,1,0
0.30498,0,0.53936,-1.2323,-0.42033,-1.0352,-0.0064719,0,0,-0.25631,0.79927,0,-0.016827,0,0,1.2395,0.0024388,0,1.2395,-0.42028,-1.2324,-1.0352,-89.543,-0.89593,0.73364,0.015447,0.54,1,0
0.29942,0,0.51452,-1.238,-0.40636,-1.0078,-0.0070443,0,0,-0.29926,0.78192,0,-0.018315,0,0,1.2436,0.0014425,0,1.2436,-0.4063,-1.2381,-1.0078,-89.515,-0.88408,0.74389,0.014514,0.56,1,0
0.29301,0,0.48961,-1.2436,-0.39417,-0.98094,-0.0072866,0,0,-0.34143,0.7628,0,-0.018945,0,0,1.246,0.00074149,0,1.246,-0.39411,-1.2436,-0.98094,-89.508,-0.8729,0.75336,0.013298,0.58,1,0
0.28576,0,0.46468,-1.2491,-0.38276,-0.95423,-0.0073036,0,0,-0.38331,0.74291,0,-0.018989,0,0,1.247,0.00021919,0,1.247,-0.3827,-1.2491,-0.95423,-89.517,-0.86203,0.763,0.011863,0.6,1,0
0.27768,0,0.43973,-1.2544,-0.37173,-0.92756,-0.0071889,0,0,-0.42485,0.72259,0,-0.018691,0,0,1.2471,-0.00018993,0,1.2471,-0.37167,-1.2544,-0.92756,-89.533,-0.85122,0.77302,0.010235,0.62,1,0
0.26876,0,0.4148,-1.2593,-0.36094,-0.90086,-0.0070033,0,0,-0.46594,0.70189,0,-0.018209,0,0,1.2464,-0.00052677,0,1.2464,-0.36089,-1.2593,-0.90086,-89.553,-0.84036,0.78335,0.0084268,0.64,1,0
0.25904,0,0.38988,-1.2637,-0.35037,-0.87409,-0.0067802,0,0,-0.50645,0.68083,0,-0.017629,0,0,1.2451,-0.00081945,0,1.2451,-0.35032,-1.2637,-0.87409,-89.575,-0.82937,0.79386,0.0064508,0.66,1,0
0.24851,0,0.36499,-1.2674,-0.34,-0.84723,-0.0065352,0,0,-0.54629,0.65939,0,-0.016991,0,0,1.2432,-0.0010894,0,1.2432,-0.33995,-1.2675,-0.84723,-89.596,-0.81822,0.80446,0.0043206,0.68,1,0
0.23719,0,0.34015,-1.2706,-0.32985,-0.82028,-0.0062736,0,0,-0.5854,0.63755,0,-0.016311,0,0,1.2408,-0.001355,0,1.2408,-0.32981,-1.2706,-0.82028,-89.618,-0.8069,0.81502,0.0020515,0.7,1,0
0.22509,0,0.31536,-1.273,-0.31995,-0.79325,-0.0059959,0,0,-0.62369,0.61528,0,-0.015589,0,0,1.2378,-0.0016339,0,1.2378,-0.31992,-1.2731,-0.79325,-89.64,-0.7954,0.82544,-0.00033935,0.72,1,0
0.21224,0,0.29064,-1.2747,-0.31035,-0.76614,-0.0056997,0,0,-0.66107,0.59253,0,-0.014819,0,0,1.2342,-0.0019456,0,1.2342,-0.31032,-1.2747,-0.76614,-89.661,-0.78371,0.83559,-0.0028324,0.74,1,0
0.19865,0,0.26599,-1.2754,-0.30112,-0.73896,-0.005379,0,0,-0.6974,0.56918,0,-0.013985,0,0,1.2298,-0.0023143,0,1.2298,-0.3011,-1.2754,-0.73896,-89.684,-0.77183,0.84526,-0.0054042,0.76,1,0
0.18434,0,0.24144,-1.2751,-0.29245,-0.71171,-0.0050184,0,0,-0.73242,0.54504,0,-0.013048,0,0,1.2247,-0.0027748,0,1.2247,-0.29242,-1.2751,-0.71171,-89.707,-0.75976,0.8541,-0.0080235,0.78,1,0
0.16935,0,0.21701,-1.2733,-0.28465,-0.6844,-0.0045774,0,0,-0.76561,0.51968,0,-0.011901,0,0,1.2184,-0.0033823,0,1.2184,-0.28463,-1.2733,-0.6844,-89.735,-0.74746,0.86147,-0.010642,0.8,1,0
0.15372,0,0.19271,-1.2693,-0.27831,-0.65699,-0.0039523,0,0,-0.79599,0.49228,0,-0.010276,0,0,1.2105,-0.0042363,0,1.2105,-0.27829,-1.2693,-0.65699,-89.772,-0.73486,0.86615,-0.013175,0.82,1,0
0.13751,0,0.16859,-1.2614,-0.27445,-0.62933,-0.0029032,0,0,-0.82166,0.46135,0,-0.0075484,0,0,1.2003,-0.0055346,0,1.2003,-0.27444,-1.2614,-0.62933,-89.832,-0.72172,0.86588,-0.015462,0.84,1,0
0.12085,0,0.1447,-1.2469,-0.27478,-0.60119,-0.00090365,0,0,-0.83937,0.42433,0,-0.0023495,0,0,1.1862,-0.0077226,0,1.1862,-0.27478,-1.2469,-0.60119,-89.947,-0.70761,0.85685,-0.017222,0.86,1,0
0.10394,0,0.12114,-1.2213,-0.28127,-0.57191,0.0028888,0,0,-0.84421,0.37783,0,0.0075109,0,0,1.1643,-0.011752,0,1.1644,-0.28127,-1.2213,-0.57191,89.824,-0.6915,0.83363,-0.018021,0.88,1,0
0.087083,0,0.098122,-1.1899,-0.2998,-0.54502,0.0098552,0,0,-0.8383,0.31879,0,0.025624,0,0,1.1293,-0.02094,0,1.1295,-0.29969,-1.19,-0.54502,89.366,-0.67823,0.79648,-0.017892,0.9,1,0
0.070405,0,0.075968,-1.157,-0.31043,-0.5162,0.013171,0,0,-0.83306,0.26751,0,0.034246,0,0,1.0766,-0.032078,0,1.0771,-0.31022,-1.1572,-0.5162,89.109,-0.66122,0.7651,-0.017505,0.92,1,0
0.053761,0,0.055058,-1.1283,-0.2819,-0.47813,0.015342,0,0,-0.84527,0.2551,0,0.039889,0,0,1.0095,-0.040262,0,1.0103,-0.28162,-1.1286,-0.47813,88.962,-0.62945,0.76784,-0.018217,0.94,1,0
0.036594,0,0.03559,-1.1056,-0.21242,-0.43101,0.011924,0,0,-0.87701,0.28416,0,0.031001,0,0,0.94106,-0.035773,0,0.94173,-0.21226,-1.1058,-0.43101,89.235,-0.58302,0.80671,-0.020429,0.96,1,0
0.01868,0,0.017416,-1.0944,-0.14973,-0.39065,0.0083572,0,0,-0.91485,0.31319,0,0.021729,0,0,0.88974,-0.021077,0,0.88996,-0.14966,-1.0944,-0.39065,89.493,-0.54492,0.85031,-0.023234,0.98,1,0
0,0,0,-1.072,-0.10644,-0.35353,3.4694e-17,0,0,-0.93401,0.32122,0,8.6736e-17,0,0,0.87079,1.0408e-17,0,0.87075,-0.10644,-1.072,-0.35353,90,-0.51065,0.86878,-0.02472,1,1,0
