"Displacements:0","Displacements:1","Displacements:2","Stress/Strain:0","Stress/Strain:1","Stress/Strain:2","Stress/Strain:3","Stress/Strain:4","Stress/Strain:5","Stress/Strain:6","Stress/Strain:7","Stress/Strain:8","Stress/Strain:9","Stress/Strain:10","Stress/Strain:11","Stress/Strain:12","Stress/Strain:13","Stress/Strain:14","Stress/Strain:15","Principal Stress:0","Principal Stress:1","Principal Stress:2","Principal Stress:3","Principal Stress:4","Principal Stress:5","Principal Stress:6","nodes:0","nodes:1","nodes:2"
0,0,1,-0.89013,-1.3983,-1.6865,-3.5562e-17,0,0,1.0353,0.37467,0,-9.541e-17,0,0,0.88394,2.1402e-15,0,0.88394,-0.89013,-1.3983,-1.6865,-4.0094e-15,-1.325,0.69842,0.0079937,0,0,0
0.020707,0,0.98232,-0.87118,-1.3581,-1.6511,0.00034753,0,0,1.0139,0.38093,0,0.00090356,0,0,0.88919,-0.0054259,0,0.88921,-0.87118,-1.3581,-1.6511,0.040895,-1.2934,0.68235,0.0067672,0.02,0,0
0.040556,0,0.96443,-0.88138,-1.3141,-1.6231,0.0010463,0,0,0.96419,0.40171,0,0.0027203,0,0,0.9044,-0.010327,0,0.90446,-0.88137,-1.3141,-1.6231,0.13855,-1.2728,0.64529,0.0039192,0.04,0,0
0.059274,0,0.94615,-0.90064,-1.2527,-1.5921,0.0022408,0,0,0.89894,0.44132,0,0.005826,0,0,0.92795,-0.014128,0,0.92806,-0.90063,-1.2527,-1.5921,0.36469,-1.2485,0.5989,0.00034785,0.06,0,0
0.076514,0,0.92731,-0.92979,-1.1695,-1.5571,0.0038019,0,0,0.81551,0.50386,0,0.009885,0,0,0.9572,-0.0163,0,0.95734,-0.92973,-1.1696,-1.5571,0.90834,-1.2188,0.54832,-0.0033376,0.08,0,0
0.091895,0,0.90786,-0.96753,-1.0645,-1.5175,0.0051261,0,0,0.71493,0.58883,0,0.013328,0,0,0.98887,-0.016577,0,0.98901,-0.96726,-1.0648,-1.5175,3.0165,-1.1832,0.50851,-0.0059245,0.1,0,0
0.10511,0,0.88776,-1.01,-0.94548,-1.4744,0.0055734,0,0,0.60369,0.68762,0,0.014491,0,0,1.0196,-0.01513,0,1.0197,-0.945,-1.0105,-1.4744,85.102,-1.1433,0.49989,-0.0060456,0.12,0,0
0.11604,0,0.86707,-1.0519,-0.82686,-1.4307,0.0048888,0,0,0.49239,0.78502,0,0.012711,0,0,1.0467,-0.012519,0,1.0468,-0.82675,-1.0521,-1.4307,88.756,-1.1032,0.52864,-0.0032089,0.14,0,0
0.12481,0,0.84589,-1.0878,-0.72312,-1.3892,0.0035869,0,0,0.39181,0.86584,0,0.0093259,0,0,1.0685,-0.0094344,0,1.0686,-0.72309,-1.0878,-1.3892,89.436,-1.0667,0.5777,0.0016223,0.16,0,0
0.13171,0,0.82433,-1.1135,-0.64297,-1.3513,0.0023276,0,0,0.30914,0.92078,0,0.0060518,0,0,1.0845,-0.0063935,0,1.0845,-0.64296,-1.1135,-1.3513,89.717,-1.0359,0.62435,0.0066653,0.18,0,0
0.13717,0,0.80251,-1.1274,-0.58872,-1.3174,0.0015421,0,0,0.24693,0.94722,0,0.0040094,0,0,1.0946,-0.0036116,0,1.0946,-0.58871,-1.1274,-1.3174,89.836,-1.0111,0.65467,0.010426,0.2,0,0
0.14159,0,0.78055,-1.1297,-0.55892,-1.2871,0.0011427,0,0,0.20468,0.94667,0,0.0029709,0,0,1.0994,-0.0010401,0,1.0994,-0.55892,-1.1297,-1.2871,89.885,-0.99191,0.66365,0.012211,0.22,0,0
0.14536,0,0.75854,-1.1213,-0.55136,-1.2603,0.00079109,0,0,0.1808,0.92165,0,0.0020568,0,0,1.0989,0.0014996,0,1.0989,-0.55136,-1.1213,-1.2603,89.921,-0.97764,0.65067,0.011998,0.24,0,0
0.14882,0,0.73659,-1.1031,-0.56411,-1.2368,0.00016386,0,0,0.17375,0.87444,0,0.00042605,0,0,1.0931,0.0041816,0,1.0931,-0.56411,-1.1031,-1.2368,89.983,-0.96799,0.61678,0.010169,0.26,0,0
0.15231,0,0.71482,-1.0766,-0.59493,-1.2163,-0.00081889,0,0,0.18157,0.80775,0,-0.0021291,0,0,1.0818,0.0070474,0,1.0818,-0.59493,-1.0766,-1.2163,-89.903,-0.96261,0.56462,0.0073724,0.28,0,0
0.15609,0,0.69332,-1.044,-0.63939,-1.1983,-0.001839,0,0,0.20065,0.72663,0,-0.0047815,0,0,1.065,0.0098862,0,1.0651,-0.63938,-1.044,-1.1983,-89.74,-0.96057,0.49998,0.0044176,0.3,0,0
0.16034,0,0.67221,-1.0086,-0.68958,-1.1817,-0.0024718,0,0,0.22501,0.63971,0,-0.0064266,0,0,1.0435,0.012216,0,1.0435,-0.68956,-1.0086,-1.1817,-89.556,-0.95994,0.43238,0.0020226,0.32,0,0
0.16509,0,0.65158,-0.97415,-0.73536,-1.1644,-0.0024184,0,0,0.24737,0.5578,0,-0.0062878,0,0,1.0187,0.013426,0,1.0188,-0.73534,-0.97418,-1.1644,-89.42,-0.95798,0.3724,0.00051614,0.34,0,0
0.17023,0,0.63147,-0.94398,-0.76842,-1.1452,-0.0018931,0,0,0.26157,0.4898,0,-0.0049219,0,0,0.99325,0.013083,0,0.99334,-0.7684,-0.944,-1.1452,-89.382,-0.95253,0.32656,-0.00020975,0.36,0,0
0.17555,0,0.61185,-0.92012,-0.78579,-1.1236,-0.0012302,0,0,0.26455,0.43919,0,-0.0031985,0,0,0.96993,0.011159,0,0.96999,-0.78578,-0.92014,-1.1236,-89.475,-0.94318,0.29462,-0.00045381,0.38,0,0
0.18081,0,0.59267,-0.90313,-0.78909,-1.1003,-0.0006712,0,0,0.25637,0.40461,0,-0.0017451,0,0,0.95125,0.0080728,0,0.95129,-0.78909,-0.90313,-1.1003,-89.663,-0.93085,0.27274,-0.00046179,0.4,0,0
0.1858,0,0.5738,-0.8925,-0.78141,-1.076,-0.00014927,0,0,0.23852,0.38293,0,-0.0003881,0,0,0.93884,0.0044726,0,0.93885,-0.78141,-0.8925,-1.076,-89.923,-0.91663,0.25766,-0.00036045,0.42,0,0
0.19035,0,0.55512,-0.88746,-0.76487,-1.0508,0.000451,0,0,0.21236,0.37173,0,0.0011726,0,0,0.93316,0.00098533,0,0.93316,-0.76487,-0.88746,-1.0508,89.789,-0.90105,0.24848,-0.00019209,0.44,0,0
0.1943,0,0.53648,-0.88746,-0.74034,-1.0248,0.0011877,0,0,0.17856,0.36982,0,0.003088,0,0,0.93369,-0.0019531,0,0.93369,-0.74033,-0.88747,-1.0248,89.537,-0.88421,0.24642,4.584e-05,0.46,0,0
0.1975,0,0.51777,-0.89208,-0.70815,-0.99784,0.0019912,0,0,0.13748,0.37659,0,0.0051772,0,0,0.93924,-0.0041232,0,0.93925,-0.70813,-0.89211,-0.99784,89.38,-0.86603,0.25392,0.00037633,0.48,0,0
0.1998,0,0.4989,-0.90075,-0.66906,-0.96985,0.002725,0,0,0.089824,0.39103,0,0.007085,0,0,0.94833,-0.0054797,0,0.94834,-0.66902,-0.90078,-0.96985,89.326,-0.84655,0.27293,0.00082306,0.5,0,0
0.20109,0,0.47983,-0.91251,-0.62466,-0.94098,0.0032512,0,0,0.037021,0.41122,0,0.0084533,0,0,0.95946,-0.0060965,0,0.95948,-0.62462,-0.91254,-0.94098,89.353,-0.82605,0.30314,0.0013884,0.52,0,0
0.20128,0,0.46053,-0.92601,-0.57742,-0.91156,0.003492,0,0,-0.018785,0.43437,0,0.0090792,0,0,0.97134,-0.0061201,0,0.97136,-0.57739,-0.92604,-0.91156,89.426,-0.805,0.34164,0.0020356,0.54,0,0
0.20034,0,0.44098,-0.93976,-0.53018,-0.88196,0.0034544,0,0,-0.075136,0.45732,0,0.0089813,0,0,0.98296,-0.0057271,0,0.98298,-0.53015,-0.93979,-0.88196,89.517,-0.78397,0.384,0.0026873,0.56,0,0
0.19827,0,0.42121,-0.95239,-0.48547,-0.85257,0.003217,0,0,-0.12977,0.47723,0,0.0083643,0,0,0.99366,-0.0050874,0,0.99367,-0.48545,-0.95241,-0.85257,89.605,-0.76347,0.42591,0.0032449,0.58,0,0
0.19515,0,0.40123,-0.96288,-0.44511,-0.82363,0.0028867,0,0,-0.18102,0.49208,0,0.0075056,0,0,1.003,-0.0043373,0,1.003,-0.4451,-0.96289,-0.82363,89.681,-0.74387,0.46411,0.0036188,0.6,0,0
0.19103,0,0.38109,-0.97067,-0.41005,-0.7953,0.0025566,0,0,-0.22798,0.50083,0,0.0066471,0,0,1.011,-0.0035691,0,1.011,-0.41004,-0.97068,-0.7953,89.739,-0.72534,0.49674,0.0037525,0.62,0,0
0.18603,0,0.3608,-0.97562,-0.38048,-0.76763,0.0022813,0,0,-0.2704,0.50329,0,0.0059315,0,0,1.0174,-0.0028329,0,1.0174,-0.38047,-0.97563,-0.76763,89.78,-0.70791,0.52315,0.0036298,0.64,0,0
0.18022,0,0.34039,-0.97789,-0.35608,-0.74058,0.0020764,0,0,-0.3085,0.49986,0,0.0053987,0,0,1.0224,-0.0021468,0,1.0224,-0.35607,-0.9779,-0.74058,89.809,-0.69152,0.54353,0.0032682,0.66,0,0
0.17369,0,0.3199,-0.97779,-0.33627,-0.71412,0.0019285,0,0,-0.34277,0.4912,0,0.005014,0,0,1.0261,-0.0015079,0,1.0261,-0.33626,-0.9778,-0.71412,89.828,-0.67606,0.55851,0.0027056,0.68,0,0
0.16651,0,0.29935,-0.97566,-0.32039,-0.68816,0.0018096,0,0,-0.37375,0.47811,0,0.004705,0,0,1.0285,-0.00090174,0,1.0285,-0.32038,-0.97567,-0.68816,89.842,-0.6614,0.56891,0.0019884,0.7,0,0
0.15874,0,0.27876,-0.97181,-0.30777,-0.66263,0.0016887,0,0,-0.40193,0.46132,0,0.0043906,0,0,1.0297,-0.00030844,0,1.0297,-0.30777,-0.97181,-0.66263,89.854,-0.64741,0.57553,0.0011634,0.72,0,0
0.15043,0,0.25816,-0.96648,-0.29781,-0.63745,0.0015386,0,0,-0.42774,0.44153,0,0.0040004,0,0,1.0297,0.00029367,0,1.0297,-0.29781,-0.96649,-0.63745,89.868,-0.63392,0.57912,0.00027388,0.74,0,0
0.14163,0,0.23757,-0.95988,-0.28993,-0.61251,0.0013414,0,0,-0.45157,0.41936,0,0.0034875,0,0,1.0285,0.00092483,0,1.0285,-0.28993,-0.95988,-0.61251,89.885,-0.62077,0.58033,-0.00064255,0.76,0,0
0.13237,0,0.21702,-0.95218,-0.28355,-0.58774,0.0010917,0,0,-0.47377,0.39545,0,0.0028385,0,0,1.0259,0.0016004,0,1.0259,-0.28355,-0.95218,-0.58774,89.906,-0.60782,0.57984,-0.0015549,0.78,0,0
0.12268,0,0.19653,-0.9436,-0.27803,-0.56303,0.00080058,0,0,-0.49475,0.37049,0,0.0020815,0,0,1.022,0.0023254,0,1.022,-0.27803,-0.9436,-0.56303,89.931,-0.59489,0.57838,-0.0024409,0.8,0,0
0.11258,0,0.17614,-0.93445,-0.27264,-0.53827,0.00049632,0,0,-0.51504,0.34532,0,0.0012904,0,0,1.0165,0.0030872,0,1.0165,-0.27264,-0.93446,-0.53827,89.957,-0.58179,0.57686,-0.0032897,0.82,0,0
0.10207,0,0.15587,-0.92515,-0.26644,-0.51335,0.00022059,0,0,-0.53534,0.32098,0,0.00057354,0,0,1.0096,0.0038462,0,1.0096,-0.26644,-0.92515,-0.51335,89.981,-0.56831,0.57639,-0.0041051,0.84,0,0
0.091162,0,0.13576,-0.9162,-0.25841,-0.48814,1.707e-05,0,0,-0.55648,0.29865,0,4.4382e-05,0,0,1.0013,0.0045299,0,1.0013,-0.25841,-0.9162,-0.48814,89.999,-0.55425,0.57823,-0.0049083,0.86,0,0
0.079815,0,0.11582,-0.90813,-0.24751,-0.46251,-8.6832e-05,0,0,-0.5793,0.2795,0,-0.00022576,0,0,0.99193,0.0050344,0,0.99195,-0.24751,-0.90813,-0.46251,-89.993,-0.53938,0.58361,-0.0057364,0.88,0,0
0.06799,0,0.09608,-0.90136,-0.23297,-0.43638,-9.4592e-05,0,0,-0.60448,0.26444,0,-0.00024594,0,0,0.98189,0.0052394,0,0.98191,-0.23297,-0.90136,-0.43638,-89.992,-0.52357,0.59344,-0.0066372,0.9,0,0
0.055636,0,0.076544,-0.89612,-0.2145,-0.40973,-4.288e-05,0,0,-0.63231,0.2538,0,-0.00011149,0,0,0.97191,0.005036,0,0.97193,-0.2145,-0.89612,-0.40973,-89.996,-0.50678,0.60799,-0.0076577,0.92,0,0
0.042698,0,0.057204,-0.89236,-0.19249,-0.38266,1.676e-05,0,0,-0.66261,0.24722,0,4.3575e-05,0,0,0.96283,0.0043605,0,0.96284,-0.19249,-0.89236,-0.38266,89.999,-0.48917,0.6268,-0.0088337,0.94,0,0
0.029132,0,0.038031,-0.8898,-0.16782,-0.35532,4.4044e-05,0,0,-0.69483,0.24374,0,0.00011452,0,0,0.95552,0.0032222,0,0.95553,-0.16782,-0.8898,-0.35532,89.996,-0.47098,0.64887,-0.010182,0.96,0,0
0.014905,0,0.018983,-0.8881,-0.14155,-0.32788,3.0534e-05,0,0,-0.72829,0.24223,0,7.9387e-05,0,0,0.95078,0.0017139,0,0.95078,-0.14155,-0.8881,-0.32788,89.998,-0.45251,0.67302,-0.011705,0.98,0,0
0,0,0,-0.86372,-0.10445,-0.29045,9.3784e-18,0,0,-0.74525,0.2418,0,2.4395e-17,0,0,0.94913,-1.713e-17,0,0.94913,-0.10445,-0.86372,-0.29045,90,-0.41954,0.68547,-0.012527,1,0,0
0,0.0074935,1,-0.89016,-1.4007,-1.6873,0.0024057,0,0,1.0362,0.37251,0,0.006255,0,0,0.87852,-1.396e-15,0,0.8785,-0.89015,-1.4007,-1.6873,0.26997,-1.326,0.69935,0.008153,0,0.02,0
0.020725,0.0076186,0.98243,-0.87113,-1.3611,-1.6521,0.0058883,0,0,1.0153,0.3783,0,0.015309,0,0,0.88403,-0.011095,0,0.8841,-0.87106,-1.3612,-1.6521,0.68843,-1.2948,0.68369,0.0069696,0.02,0.02,0
0.04061,0.0080341,0.96464,-0.88087,-1.3185,-1.6244,0.013632,0,0,0.96666,0.39774,0,0.035443,0,0,0.90005,-0.021198,0,0.90036,-0.88044,-1.3189,-1.6244,1.7824,-1.2746,0.64775,0.0042369,0.04,0.02,0
0.059391,0.0088263,0.94643,-0.89973,-1.2588,-1.594,0.024007,0,0,0.90253,0.43577,0,0.062418,0,0,0.92496,-0.029118,0,0.92554,-0.89813,-1.2604,-1.594,3.8084,-1.2508,0.60279,0.0008008,0.06,0.02,0
0.076711,0.010077,0.92764,-0.92897,-1.1762,-1.5592,0.035839,0,0,0.81927,0.49793,0,0.09318,0,0,0.95598,-0.033638,0,0.95673,-0.92388,-1.1812,-1.5592,8.0855,-1.2214,0.55348,-0.0028005,0.08,0.02,0
0.092161,0.011777,0.90819,-0.96727,-1.0687,-1.519,0.045555,0,0,0.71724,0.58534,0,0.11844,0,0,0.98946,-0.034099,0,0.9902,-0.94981,-1.0862,-1.519,20.962,-1.185,0.51472,-0.0053816,0.1,0.02,0
0.1054,0.013752,0.88806,-1.0105,-0.94474,-1.4746,0.048712,0,0,0.60338,0.68886,0,0.12665,0,0,1.0216,-0.030861,0,1.0222,-0.91885,-1.0364,-1.4746,62.009,-1.1433,0.50733,-0.0055122,0.12,0.02,0
0.1163,0.0157,0.86732,-1.0529,-0.82168,-1.4297,0.043694,0,0,0.48981,0.79044,0,0.1136,0,0,1.0496,-0.025236,0,1.0499,-0.8137,-1.0609,-1.4297,79.65,-1.1014,0.53693,-0.0026542,0.14,0.02,0
0.12499,0.017317,0.84608,-1.0887,-0.71613,-1.3875,0.032713,0,0,0.38848,0.87282,0,0.085054,0,0,1.0716,-0.018781,0,1.0718,-0.71328,-1.0915,-1.3875,85.02,-1.0641,0.58536,0.0021578,0.16,0.02,0
0.13184,0.018416,0.82446,-1.1138,-0.6365,-1.3496,0.019835,0,0,0.30648,0.92696,0,0.051572,0,0,1.0874,-0.012612,0,1.0875,-0.63567,-1.1146,-1.3496,87.624,-1.0333,0.63015,0.0070918,0.18,0.02,0
0.13725,0.018944,0.80258,-1.1269,-0.58346,-1.3157,0.0078466,0,0,0.24539,0.95192,0,0.020401,0,0,1.0973,-0.007098,0,1.0973,-0.58334,-1.1271,-1.3157,89.173,-1.0087,0.65862,0.010716,0.2,0.02,0
0.14165,0.018933,0.78057,-1.1289,-0.55451,-1.2856,-0.0025077,0,0,0.2037,0.9504,0,-0.0065201,0,0,1.1019,-0.0020653,0,1.1019,-0.5545,-1.1289,-1.2856,-89.75,-0.98967,0.6667,0.012433,0.22,0.02,0
0.1454,0.018433,0.75851,-1.1207,-0.54702,-1.2588,-0.011886,0,0,0.17952,0.92536,0,-0.030904,0,0,1.1015,0.0029068,0,1.1015,-0.54677,-1.121,-1.2588,-88.814,-0.97553,0.65412,0.012251,0.24,0.02,0
0.14883,0.017489,0.73651,-1.1033,-0.5595,-1.2353,-0.021,0,0,0.17166,0.8786,0,-0.0546,0,0,1.0958,0.008227,0,1.0959,-0.55869,-1.1041,-1.2353,-87.792,-0.96605,0.62152,0.010501,0.26,0.02,0
0.15227,0.016155,0.71467,-1.0774,-0.59055,-1.2151,-0.029489,0,0,0.17897,0.81186,0,-0.07667,0,0,1.0846,0.014048,0,1.0848,-0.58877,-1.0792,-1.2151,-86.546,-0.961,0.57061,0.0077483,0.28,0.02,0
0.15599,0.014533,0.69312,-1.0449,-0.63675,-1.1976,-0.035665,0,0,0.1985,0.72914,0,-0.092728,0,0,1.0676,0.019996,0,1.0678,-0.63366,-1.048,-1.1976,-85.044,-0.95977,0.50604,0.0047468,0.3,0.02,0
0.16021,0.012794,0.67197,-1.0093,-0.69007,-1.1818,-0.037281,0,0,0.22425,0.63921,0,-0.096931,0,0,1.0452,0.025018,0,1.0456,-0.68577,-1.0136,-1.1818,-83.426,-0.96037,0.43689,0.0022424,0.32,0.02,0
0.16496,0.011156,0.65131,-0.97439,-0.73874,-1.1652,-0.033698,0,0,0.24812,0.55447,0,-0.087615,0,0,1.0192,0.027719,0,1.0196,-0.73401,-0.97911,-1.1652,-82.02,-0.95946,0.37463,0.00063227,0.34,0.02,0
0.17013,0.0097959,0.6312,-0.94377,-0.77277,-1.1462,-0.02662,0,0,0.26311,0.48542,0,-0.069213,0,0,0.99212,0.027044,0,0.99259,-0.76872,-0.94782,-1.1462,-81.353,-0.95423,0.32702,-0.00015836,0.36,0.02,0
0.17549,0.0087838,0.61163,-0.91964,-0.78948,-1.1244,-0.018946,0,0,0.26614,0.43535,0,-0.04926,0,0,0.96742,0.022944,0,0.96776,-0.78678,-0.92234,-1.1244,-81.885,-0.94449,0.29424,-0.00043572,0.38,0.02,0
0.18078,0.0080923,0.59251,-0.90257,-0.79193,-1.1009,-0.012317,0,0,0.25777,0.40161,0,-0.032023,0,0,0.94791,0.016387,0,0.94808,-0.79057,-0.90392,-1.1009,-83.724,-0.93178,0.27194,-0.00046122,0.4,0.02,0
0.1858,0.0076587,0.57371,-0.89182,-0.78386,-1.0764,-0.0068151,0,0,0.23997,0.38032,0,-0.017719,0,0,0.9353,0.0088486,0,0.93534,-0.78343,-0.89225,-1.0764,-86.402,-0.91736,0.25651,-0.00037098,0.42,0.02,0
0.19038,0.0074346,0.5551,-0.8866,-0.76738,-1.0513,-0.0017726,0,0,0.21409,0.36909,0,-0.0046089,0,0,0.92995,0.0016563,0,0.92995,-0.76735,-0.88663,-1.0513,-89.148,-0.90175,0.24694,-0.00021081,0.44,0.02,0
0.19436,0.0073964,0.53651,-0.88643,-0.74294,-1.0253,0.0032236,0,0,0.18056,0.3671,0,0.0083814,0,0,0.93114,-0.0043185,0,0.93115,-0.74287,-0.88651,-1.0253,88.714,-0.8849,0.24463,2.2223e-05,0.46,0.02,0
0.1976,0.0075318,0.51785,-0.89105,-0.71059,-0.99834,0.008043,0,0,0.13948,0.37407,0,0.020912,0,0,0.93748,-0.0086723,0,0.93753,-0.71023,-0.89141,-0.99834,87.453,-0.86666,0.25225,0.00035342,0.48,0.02,0
0.19994,0.0078206,0.49901,-0.89991,-0.67093,-0.97027,0.01214,0,0,0.091462,0.38914,0,0.031564,0,0,0.94734,-0.011341,0,0.94743,-0.67029,-0.90055,-0.97027,86.974,-0.84704,0.27191,0.0008082,0.5,0.02,0
0.20126,0.0082245,0.47996,-0.912,-0.62564,-0.94125,0.014883,0,0,0.038018,0.41029,0,0.038697,0,0,0.95914,-0.012495,0,0.95924,-0.62487,-0.91278,-0.94125,87.033,-0.8263,0.30315,0.0013884,0.52,0.02,0
0.20146,0.0086874,0.46065,-0.92588,-0.57741,-0.91164,0.015879,0,0,-0.018521,0.4345,0,0.041285,0,0,0.97152,-0.012446,0,0.97162,-0.57669,-0.92661,-0.91164,87.397,-0.80498,0.34268,0.0020535,0.54,0.02,0
0.20052,0.0091464,0.4411,-0.93995,-0.52932,-0.88187,0.015147,0,0,-0.075493,0.45832,0,0.039381,0,0,0.98348,-0.011571,0,0.98357,-0.52876,-0.9405,-0.88187,87.89,-0.78371,0.38578,0.0027207,0.56,0.02,0
0.19844,0.0095445,0.42131,-0.95275,-0.48408,-0.85236,0.013082,0,0,-0.13051,0.47876,0,0.034014,0,0,0.99435,-0.010222,0,0.99442,-0.48372,-0.95312,-0.85236,88.402,-0.76306,0.42801,0.0032871,0.58,0.02,0
0.1953,0.0098415,0.40132,-0.96327,-0.44353,-0.82336,0.010261,0,0,-0.18188,0.49378,0,0.026678,0,0,1.0038,-0.0086763,0,1.0038,-0.44333,-0.96347,-0.82336,88.869,-0.74339,0.46616,0.0036619,0.6,0.02,0
0.19117,0.010017,0.38116,-0.97098,-0.40852,-0.79501,0.0072231,0,0,-0.22876,0.50244,0,0.01878,0,0,1.0117,-0.0071169,0,1.0117,-0.40842,-0.97107,-0.79501,89.264,-0.72484,0.49851,0.0037908,0.62,0.02,0
0.18615,0.010066,0.36085,-0.97581,-0.37913,-0.76733,0.0043483,0,0,-0.27102,0.50467,0,0.011305,0,0,1.0181,-0.0056375,0,1.0181,-0.37909,-0.97584,-0.76733,89.582,-0.70742,0.52455,0.0036609,0.64,0.02,0
0.18033,0.0099972,0.34043,-0.97797,-0.35494,-0.74031,0.0018263,0,0,-0.30896,0.50098,0,0.0047485,0,0,1.0231,-0.0042681,0,1.0231,-0.35494,-0.97798,-0.74031,89.832,-0.69107,0.5446,0.0032921,0.66,0.02,0
0.17379,0.0098241,0.31993,-0.97781,-0.33533,-0.71388,-0.00030071,0,0,-0.34312,0.4921,0,-0.00078184,0,0,1.0267,-0.0029985,0,1.0267,-0.33533,-0.97781,-0.71388,-89.973,-0.67567,0.55935,0.0027237,0.68,0.02,0
0.1666,0.0095622,0.29937,-0.97569,-0.3196,-0.68796,-0.0020791,0,0,-0.37406,0.47886,0,-0.0054057,0,0,1.0291,-0.0017969,0,1.0291,-0.3196,-0.9757,-0.68796,-89.818,-0.66109,0.56963,0.0020017,0.7,0.02,0
0.15882,0.0092264,0.27877,-0.97191,-0.3071,-0.66247,-0.00359,0,0,-0.40228,0.46198,0,-0.0093341,0,0,1.0303,-0.00062148,0,1.0303,-0.30708,-0.97193,-0.66247,-89.691,-0.64716,0.57624,0.0011724,0.72,0.02,0
0.15051,0.0088305,0.25815,-0.96671,-0.2972,-0.63733,-0.0049112,0,0,-0.4282,0.44216,0,-0.012769,0,0,1.0303,0.0005721,0,1.0303,-0.29717,-0.96674,-0.63733,-89.58,-0.63375,0.5799,0.0002783,0.74,0.02,0
0.1417,0.0083872,0.23755,-0.96025,-0.28937,-0.61244,-0.0060907,0,0,-0.45215,0.41999,0,-0.015836,0,0,1.0291,0.0018259,0,1.0291,-0.28931,-0.96031,-0.61244,-89.48,-0.62069,0.58123,-0.00064354,0.76,0.02,0
0.13242,0.007909,0.21699,-0.95269,-0.28305,-0.58771,-0.0071285,0,0,-0.47447,0.39606,0,-0.018534,0,0,1.0266,0.0031732,0,1.0266,-0.28297,-0.95277,-0.58771,-89.39,-0.60782,0.58084,-0.0015621,0.78,0.02,0
0.12272,0.0074098,0.19649,-0.94422,-0.27764,-0.56305,-0.0079639,0,0,-0.49552,0.37102,0,-0.020706,0,0,1.0227,0.0046279,0,1.0227,-0.27755,-0.94432,-0.56305,-89.316,-0.59497,0.57942,-0.0024544,0.8,0.02,0
0.1126,0.0069065,0.17608,-0.93511,-0.27243,-0.53834,-0.0084773,0,0,-0.51579,0.34568,0,-0.022041,0,0,1.0173,0.0061697,0,1.0173,-0.27232,-0.93522,-0.53834,-89.267,-0.58196,0.5778,-0.003308,0.82,0.02,0
0.10208,0.0064196,0.1558,-0.92576,-0.26652,-0.51348,-0.008517,0,0,-0.53596,0.32105,0,-0.022144,0,0,1.0104,0.0077239,0,1.0104,-0.26641,-0.92587,-0.51348,-89.26,-0.56859,0.57706,-0.004125,0.84,0.02,0
0.091163,0.005973,0.13567,-0.91669,-0.25883,-0.48832,-0.0079605,0,0,-0.55688,0.29834,0,-0.020697,0,0,1.0019,0.0091457,0,1.002,-0.25873,-0.91678,-0.48832,-89.307,-0.55461,0.5785,-0.0049254,0.86,0.02,0
0.079811,0.00559,0.11572,-0.90846,-0.24825,-0.46273,-0.0067968,0,0,-0.57944,0.27882,0,-0.017672,0,0,0.99229,0.01022,0,0.99235,-0.24818,-0.90853,-0.46273,-89.41,-0.53982,0.58345,-0.005747,0.88,0.02,0
0.067985,0.0052887,0.095975,-0.90155,-0.23389,-0.43661,-0.0051884,0,0,-0.60442,0.26353,0,-0.01349,0,0,0.9819,0.010691,0,0.98197,-0.23385,-0.90159,-0.43661,-89.555,-0.52402,0.59295,-0.0066398,0.9,0.02,0
0.055634,0.005076,0.076444,-0.8962,-0.2154,-0.40992,-0.0034522,0,0,-0.63216,0.25288,0,-0.0089758,0,0,0.97147,0.010321,0,0.97154,-0.21538,-0.89622,-0.40992,-89.71,-0.50718,0.6074,-0.0076547,0.92,0.02,0
0.042699,0.0049443,0.057116,-0.8924,-0.19317,-0.38279,-0.0019451,0,0,-0.66249,0.2465,0,-0.0050573,0,0,0.96192,0.0089676,0,0.96197,-0.19317,-0.8924,-0.38279,-89.841,-0.48945,0.62634,-0.0088297,0.94,0.02,0
0.029134,0.0048749,0.037967,-0.88985,-0.16821,-0.35539,-0.00090209,0,0,-0.69481,0.24333,0,-0.0023454,0,0,0.9542,0.0066426,0,0.95423,-0.16821,-0.88985,-0.35539,-89.928,-0.47115,0.64864,-0.010181,0.96,0.02,0
0.014907,0.0048446,0.018948,-0.88818,-0.1417,-0.32791,-0.00032843,0,0,-0.72835,0.24207,0,-0.00085392,0,0,0.94917,0.0035381,0,0.94917,-0.1417,-0.88818,-0.32791,-89.975,-0.4526,0.67298,-0.011707,0.98,0.02,0
0,0.0048361,0,-0.86386,-0.10458,-0.29053,-0.00016417,0,0,-0.74533,0.24174,0,-0.00042685,0,0,0.94742,1.7564e-17,0,0.94742,-0.10458,-0.86386,-0.29053,-89.988,-0.41966,0.68549,-0.012531,1,0.02,0
0,0.014901,1,-0.89024,-1.4078,-1.6894,0.0044538,0,0,1.0389,0.36611,0,0.01158,0,0,0.86175,6.9042e-16,0,0.8617,-0.8902,-1.4078,-1.6894,0.49303,-1.3291,0.70212,0.0086265,0,0.04,0
0.020778,0.015132,0.98276,-0.87113,-1.37,-1.6551,0.011205,0,0,1.0192,0.37068,0,0.029134,0,0,0.86799,-0.023051,0,0.86827,-0.87088,-1.3702,-1.6551,1.2862,-1.2987,0.68756,0.0075563,0.02,0.04,0
0.040766,0.01591,0.96528,-0.87946,-1.3313,-1.6285,0.026098,0,0,0.97374,0.38642,0,0.067855,0,0,0.88638,-0.044512,0,0.88755,-0.87796,-1.3328,-1.6285,3.2952,-1.2797,0.65483,0.0051509,0.04,0.04,0
0.059728,0.017431,0.94731,-0.89729,-1.2773,-1.5997,0.04682,0,0,0.91312,0.41909,0,0.12173,0,0,0.91551,-0.061804,0,0.91774,-0.89161,-1.283,-1.5997,6.9211,-1.2581,0.61435,0.0021613,0.06,0.04,0
0.077291,0.019917,0.92866,-0.92692,-1.1974,-1.5659,0.072085,0,0,0.83074,0.47914,0,0.18742,0,0,0.95222,-0.071791,0,0.95515,-0.90891,-1.2154,-1.5659,14.03,-1.2301,0.56944,-0.0010988,0.08,0.04,0
0.092957,0.023414,0.90922,-0.96723,-1.0827,-1.5242,0.093558,0,0,0.72406,0.57395,0,0.24325,0,0,0.99165,-0.072288,0,0.99449,-0.91502,-1.1349,-1.5242,29.16,-1.1914,0.53432,-0.0036014,0.1,0.04,0
0.10625,0.027554,0.88899,-1.0124,-0.94144,-1.4751,0.10026,0,0,0.60161,0.6938,0,0.26067,0,0,1.0285,-0.064216,0,1.0306,-0.87055,-1.0832,-1.4751,54.738,-1.143,0.53119,-0.0037478,0.12,0.04,0
0.11702,0.031617,0.86808,-1.0561,-0.80392,-1.4261,0.087675,0,0,0.48101,0.8088,0,0.22795,0,0,1.0588,-0.051048,0,1.0601,-0.77644,-1.0836,-1.4261,72.592,-1.0954,0.56289,-0.00086276,0.14,0.04,0
0.12549,0.034913,0.84664,-1.0914,-0.69429,-1.3824,0.063266,0,0,0.3782,0.89449,0,0.16449,0,0,1.0812,-0.036981,0,1.0818,-0.68446,-1.1013,-1.3824,81.164,-1.056,0.6082,0.0038034,0.16,0.04,0
0.13215,0.037079,0.82484,-1.114,-0.61751,-1.3443,0.036742,0,0,0.29941,0.94479,0,0.095529,0,0,1.0961,-0.02437,0,1.0964,-0.61481,-1.1167,-1.3443,85.79,-1.0252,0.64645,0.0082994,0.18,0.04,0
0.13747,0.038077,0.8028,-1.1244,-0.56889,-1.3108,0.013974,0,0,0.24232,0.96445,0,0.036333,0,0,1.1052,-0.013663,0,1.1053,-0.56854,-1.1247,-1.3108,88.56,-1.0013,0.66891,0.011457,0.2,0.04,0
0.14184,0.038016,0.78063,-1.1252,-0.54233,-1.2809,-0.0048296,0,0,0.20244,0.96011,0,-0.012557,0,0,1.1094,-0.0040741,0,1.1094,-0.54229,-1.1252,-1.2809,-89.525,-0.98279,0.67436,0.012965,0.22,0.04,0
0.14557,0.037014,0.75842,-1.1183,-0.53492,-1.2544,-0.021877,0,0,0.17688,0.93532,0,-0.05688,0,0,1.1092,0.0054065,0,1.1092,-0.5341,-1.1192,-1.2544,-87.856,-0.96922,0.6631,0.0129,0.24,0.04,0
0.14892,0.035144,0.73626,-1.1035,-0.54578,-1.2311,-0.039306,0,0,0.16577,0.89086,0,-0.10219,0,0,1.1042,0.01576,0,1.1043,-0.54302,-1.1063,-1.2311,-85.989,-0.96013,0.63492,0.011453,0.26,0.04,0
0.1522,0.032474,0.71425,-1.0801,-0.57654,-1.2112,-0.057144,0,0,0.17051,0.82511,0,-0.14857,0,0,1.0936,0.027695,0,1.0939,-0.57014,-1.0865,-1.2112,-83.606,-0.95595,0.58872,0.0089139,0.28,0.04,0
0.15574,0.029166,0.69252,-1.0483,-0.62718,-1.1952,-0.071414,0,0,0.1909,0.73839,0,-0.18568,0,0,1.076,0.040705,0,1.0768,-0.6154,-1.0601,-1.1952,-80.633,-0.95689,0.52543,0.0058233,0.3,0.04,0
0.15983,0.025569,0.67121,-1.0121,-0.69093,-1.1821,-0.076424,0,0,0.22106,0.63854,0,-0.1987,0,0,1.0512,0.052503,0,1.0526,-0.67367,-1.0293,-1.1821,-77.274,-0.9617,0.45186,0.0029768,0.32,0.04,0
0.16458,0.022179,0.65047,-0.9759,-0.74981,-1.1682,-0.068933,0,0,0.24997,0.54389,0,-0.17922,0,0,1.0208,0.059223,0,1.0226,-0.73045,-0.99526,-1.1682,-74.313,-0.96463,0.38186,0.0010123,0.34,0.04,0
0.16983,0.019417,0.63038,-0.94354,-0.78637,-1.1494,-0.053754,0,0,0.26756,0.47189,0,-0.13976,0,0,0.98848,0.057965,0,0.99032,-0.76974,-0.96017,-1.1494,-72.814,-0.95976,0.32876,1.0317e-05,0.36,0.04,0
0.17528,0.017414,0.61093,-0.91848,-0.80044,-1.1266,-0.037847,0,0,0.27056,0.42403,0,-0.098402,0,0,0.95927,0.048497,0,0.96058,-0.78934,-0.92957,-1.1266,-73.666,-0.94851,0.29346,-0.00037216,0.38,0.04,0
0.18066,0.016064,0.59201,-0.90095,-0.80002,-1.1023,-0.024971,0,0,0.26176,0.39297,0,-0.064924,0,0,0.93716,0.03366,0,0.93778,-0.79418,-0.90679,-1.1023,-76.837,-0.93442,0.27004,-0.00045113,0.4,0.04,0
0.18575,0.015213,0.57345,-0.88977,-0.7912,-1.0777,-0.014308,0,0,0.24436,0.3725,0,-0.0372,0,0,0.92411,0.017147,0,0.92425,-0.78917,-0.89181,-1.0777,-81.906,-0.91957,0.25336,-0.00039707,0.42,0.04,0
0.19043,0.014764,0.55505,-0.8838,-0.77509,-1.0527,-0.0041838,0,0,0.21959,0.36092,0,-0.010878,0,0,0.92,0.0019382,0,0.91998,-0.77492,-0.88396,-1.0527,-87.799,-0.90387,0.24242,-0.00026488,0.44,0.04,0
0.19454,0.014684,0.53665,-0.88311,-0.75104,-1.0269,0.0061994,0,0,0.18692,0.35861,0,0.016119,0,0,0.92336,-0.010365,0,0.92342,-0.75074,-0.8834,-1.0269,87.318,-0.88701,0.23921,-4.776e-05,0.46,0.04,0
0.19791,0.014963,0.51811,-0.88777,-0.7182,-0.99991,0.016373,0,0,0.14578,0.36621,0,0.042569,0,0,0.93222,-0.019106,0,0.93243,-0.71664,-0.88934,-0.99991,84.535,-0.86863,0.24728,0.00028652,0.48,0.04,0
0.20037,0.015565,0.49936,-0.89732,-0.67676,-0.97159,0.025038,0,0,0.096541,0.38327,0,0.0651,0,0,0.9445,-0.024248,0,0.94484,-0.67396,-0.90013,-0.97159,83.604,-0.84856,0.26911,0.00076811,0.5,0.04,0
0.20177,0.016412,0.48033,-0.91053,-0.6286,-0.94207,0.030741,0,0,0.04101,0.40751,0,0.079926,0,0,0.95835,-0.02621,0,0.95874,-0.62529,-0.91384,-0.94207,83.849,-0.82707,0.30365,0.0013962,0.52,0.04,0
0.20201,0.01738,0.46103,-0.9256,-0.57719,-0.91186,0.032619,0,0,-0.017857,0.43507,0,0.084808,0,0,0.97226,-0.02571,0,0.97263,-0.57416,-0.92863,-0.91186,84.697,-0.80488,0.34638,0.0021177,0.54,0.04,0
0.20105,0.018333,0.44144,-0.9406,-0.52649,-0.88157,0.0308,0,0,-0.076737,0.4616,0,0.08008,0,0,0.98519,-0.023586,0,0.98549,-0.52421,-0.94288,-0.88157,85.769,-0.78289,0.39163,0.0028317,0.56,0.04,0
0.19894,0.019151,0.42162,-0.95389,-0.47972,-0.8517,0.026265,0,0,-0.13285,0.48357,0,0.06829,0,0,0.99655,-0.020604,0,0.99678,-0.47827,-0.95534,-0.8517,86.839,-0.76177,0.43462,0.0034218,0.58,0.04,0
0.19574,0.019751,0.40158,-0.96443,-0.43868,-0.82251,0.020324,0,0,-0.18449,0.49898,0,0.052842,0,0,1.0062,-0.017336,0,1.0063,-0.4379,-0.96521,-0.82251,87.79,-0.74187,0.47241,0.0037958,0.6,0.04,0
0.19156,0.020098,0.38137,-0.97184,-0.40392,-0.7941,0.014124,0,0,-0.23106,0.50723,0,0.036721,0,0,1.014,-0.014132,0,1.0141,-0.40357,-0.97219,-0.7941,88.576,-0.72329,0.50377,0.0039073,0.62,0.04,0
0.1865,0.020187,0.36102,-0.97627,-0.37513,-0.76644,0.0083984,0,0,-0.27277,0.5087,0,0.021836,0,0,1.0202,-0.011153,0,1.0203,-0.37501,-0.97638,-0.76644,89.2,-0.70595,0.52865,0.0037539,0.64,0.04,0
0.18065,0.020039,0.34056,-0.97809,-0.35163,-0.73948,0.0034699,0,0,-0.3102,0.50421,0,0.0090218,0,0,1.025,-0.0084302,0,1.0251,-0.35161,-0.97811,-0.73948,89.683,-0.68973,0.54768,0.0033633,0.66,0.04,0
0.17409,0.019684,0.32002,-0.97777,-0.33261,-0.71313,-0.00063486,0,0,-0.34403,0.49468,0,-0.0016506,0,0,1.0286,-0.0059263,0,1.0286,-0.33261,-0.97777,-0.71313,-89.944,-0.67451,0.56173,0.0027771,0.68,0.04,0
0.16689,0.019154,0.29942,-0.9757,-0.31733,-0.68733,-0.0040462,0,0,-0.37488,0.481,0,-0.01052,0,0,1.0309,-0.0035666,0,1.0309,-0.3173,-0.97572,-0.68733,-89.648,-0.66012,0.57167,0.0020412,0.7,0.04,0
0.15909,0.018479,0.27879,-0.97216,-0.30512,-0.66197,-0.0069474,0,0,-0.40325,0.46391,0,-0.018063,0,0,1.0321,-0.0012618,0,1.0321,-0.30504,-0.97223,-0.66197,-89.403,-0.64641,0.57827,0.0011995,0.72,0.04,0
0.15076,0.017687,0.25814,-0.96734,-0.2954,-0.63696,-0.0095066,0,0,-0.4295,0.44403,0,-0.024717,0,0,1.0322,0.0010814,0,1.0322,-0.29527,-0.96748,-0.63696,-89.19,-0.63324,0.58218,0.00029176,0.74,0.04,0
0.14192,0.0168,0.2375,-0.96135,-0.28769,-0.61221,-0.011832,0,0,-0.45388,0.42187,0,-0.030763,0,0,1.0311,0.0035528,0,1.0311,-0.28749,-0.96156,-0.61221,-88.994,-0.62042,0.5839,-0.00064634,0.76,0.04,0
0.1326,0.015842,0.21689,-0.95426,-0.28153,-0.58763,-0.013937,0,0,-0.47662,0.39794,0,-0.036236,0,0,1.0287,0.0062279,0,1.0287,-0.28124,-0.95455,-0.58763,-88.814,-0.6078,0.58389,-0.001584,0.78,0.04,0
0.12285,0.014841,0.19635,-0.94614,-0.2764,-0.56311,-0.015712,0,0,-0.49794,0.37273,0,-0.040851,0,0,1.025,0.0091507,0,1.025,-0.27603,-0.94651,-0.56311,-88.657,-0.59522,0.58265,-0.0024961,0.8,0.04,0
0.11268,0.013827,0.1759,-0.93718,-0.27171,-0.53856,-0.016914,0,0,-0.5182,0.34691,0,-0.043978,0,0,1.0196,0.012302,0,1.0197,-0.27128,-0.93761,-0.53856,-88.545,-0.58249,0.58081,-0.0033656,0.82,0.04,0
0.10212,0.012842,0.15557,-0.92772,-0.26662,-0.51387,-0.017206,0,0,-0.53801,0.32142,0,-0.044737,0,0,1.0126,0.015553,0,1.0127,-0.26617,-0.92817,-0.51387,-88.51,-0.5694,0.57932,-0.004189,0.84,0.04,0
0.091164,0.011934,0.13539,-0.91829,-0.26,-0.48888,-0.016271,0,0,-0.55824,0.29754,0,-0.042305,0,0,1.0038,0.018621,0,1.004,-0.2596,-0.91869,-0.48888,-88.585,-0.55572,0.57953,-0.0049816,0.86,0.04,0
0.079792,0.011153,0.11541,-0.90956,-0.25047,-0.46342,-0.014011,0,0,-0.57998,0.27684,0,-0.036429,0,0,0.99348,0.021047,0,0.99372,-0.25017,-0.90986,-0.46342,-88.783,-0.54115,0.58308,-0.0057822,0.88,0.04,0
0.067965,0.010541,0.095653,-0.90215,-0.23675,-0.43732,-0.010718,0,0,-0.60428,0.26075,0,-0.027866,0,0,0.982,0.022256,0,0.98227,-0.23658,-0.90233,-0.43732,-89.077,-0.52541,0.5915,-0.006649,0.9,0.04,0
0.055621,0.010115,0.076131,-0.89645,-0.21821,-0.41053,-0.0070774,0,0,-0.6317,0.25001,0,-0.018401,0,0,0.97019,0.021684,0,0.97045,-0.21814,-0.89653,-0.41053,-89.402,-0.5084,0.60556,-0.0076446,0.92,0.04,0
0.042697,0.0098599,0.056845,-0.89248,-0.1953,-0.38318,-0.0039008,0,0,-0.66209,0.24425,0,-0.010142,0,0,0.95915,0.018973,0,0.95935,-0.19528,-0.8925,-0.38318,-89.679,-0.49032,0.62484,-0.008815,0.94,0.04,0
0.029138,0.0097331,0.037766,-0.88993,-0.16939,-0.35556,-0.0017366,0,0,-0.69468,0.24203,0,-0.0045151,0,0,0.95009,0.014121,0,0.9502,-0.16938,-0.88993,-0.35556,-89.862,-0.47163,0.64785,-0.010174,0.96,0.04,0
0.01491,0.0096829,0.018841,-0.88832,-0.14216,-0.32799,-0.00060001,0,0,-0.72844,0.24157,0,-0.00156,0,0,0.94414,0.0075414,0,0.94416,-0.14216,-0.88832,-0.32799,-89.954,-0.45282,0.67278,-0.011711,0.98,0.04,0
0,0.0096697,0,-0.86418,-0.10493,-0.29073,-0.00025358,0,0,-0.74548,0.24155,0,-0.0006593,0,0,0.94206,1.9082e-17,0,0.94205,-0.10493,-0.86418,-0.29073,-89.981,-0.41995,0.6855,-0.012538,1,0.04,0
0,0.022138,1,-0.88978,-1.4199,-1.6929,0.0059207,0,0,1.044,0.35495,0,0.015394,0,0,0.83241,3.0583e-15,0,0.83228,-0.88971,-1.4199,-1.6929,0.63987,-1.3342,0.70736,0.0094786,0,0.06,0
0.020881,0.022446,0.98335,-0.87099,-1.3843,-1.66,0.016178,0,0,1.0256,0.3583,0,0.042062,0,0,0.83952,-0.036203,0,0.84019,-0.87048,-1.3848,-1.66,1.8033,-1.3051,0.69408,0.0085282,0.02,0.06,0
0.041026,0.023491,0.96642,-0.87803,-1.3512,-1.6352,0.037129,0,0,0.98429,0.36922,0,0.096536,0,0,0.8613,-0.071402,0,0.86426,-0.87513,-1.354,-1.6352,4.46,-1.2881,0.66561,0.0065523,0.04,0.06,0
0.060253,0.02559,0.9489,-0.89382,-1.3072,-1.6092,0.067611,0,0,0.92999,0.39264,0,0.17579,0,0,0.89768,-0.10222,0,0.90371,-0.88304,-1.3179,-1.6092,9.0574,-1.2701,0.63296,0.0043578,0.06,0.06,0
0.078225,0.029243,0.93051,-0.92587,-1.2383,-1.5797,0.10855,0,0,0.85005,0.44393,0,0.28223,0,0,0.94549,-0.12055,0,0.95354,-0.89186,-1.2723,-1.5797,17.398,-1.248,0.59685,0.0019922,0.08,0.06,0
0.094254,0.034734,0.91108,-0.97029,-1.1116,-1.5356,0.14791,0,0,0.73495,0.55128,0,0.38456,0,0,0.99703,-0.12061,0,1.0047,-0.87702,-1.2048,-1.5356,32.235,-1.2058,0.57038,-7.4495e-05,0.1,0.06,0
0.10762,0.041504,0.89063,-1.0171,-0.93014,-1.4748,0.15724,0,0,0.59505,0.70804,0,0.40882,0,0,1.0429,-0.10254,0,1.0481,-0.81047,-1.1367,-1.4748,52.725,-1.1407,0.57535,-0.00030073,0.12,0.06,0
0.11806,0.048052,0.86937,-1.0624,-0.76615,-1.4179,0.1309,0,0,0.4622,0.84731,0,0.34034,0,0,1.0768,-0.077049,0,1.0796,-0.7166,-1.1119,-1.4179,69.266,-1.0822,0.60901,0.002535,0.14,0.06,0
0.12611,0.053096,0.84756,-1.0951,-0.65537,-1.3727,0.086671,0,0,0.36091,0.93252,0,0.22534,0,0,1.0983,-0.052726,0,1.0995,-0.6389,-1.1115,-1.3727,79.242,-1.041,0.64422,0.0065188,0.16,0.06,0
0.13249,0.056207,0.82543,-1.1116,-0.58951,-1.3358,0.046998,0,0,0.29141,0.97014,0,0.1222,0,0,1.1107,-0.034023,0,1.1112,-0.58531,-1.1158,-1.3358,84.897,-1.0123,0.66821,0.0099127,0.18,0.06,0
0.13777,0.057522,0.80313,-1.1153,-0.54823,-1.3022,0.016849,0,0,0.24297,0.98015,0,0.043808,0,0,1.1176,-0.019079,0,1.1177,-0.54773,-1.1158,-1.3022,88.299,-0.98857,0.68068,0.012195,0.2,0.06,0
0.14221,0.057338,0.78073,-1.1144,-0.52527,-1.2726,-0.0063785,0,0,0.20572,0.97156,0,-0.016584,0,0,1.121,-0.0059843,0,1.121,-0.5252,-1.1144,-1.2726,-89.38,-0.97076,0.68223,0.0134,0.22,0.06,0
0.146,0.055846,0.75829,-1.1107,-0.51752,-1.2468,-0.027549,0,0,0.17683,0.94803,0,-0.071628,0,0,1.1213,0.006983,0,1.1213,-0.51624,-1.112,-1.2468,-87.347,-0.95835,0.67334,0.013587,0.24,0.06,0
0.14929,0.053123,0.73588,-1.103,-0.52496,-1.2243,-0.05106,0,0,0.15763,0.90911,0,-0.13276,0,0,1.1181,0.021499,0,1.1183,-0.52048,-1.1075,-1.2243,-84.991,-0.95075,0.65328,0.01279,0.26,0.06,0
0.1523,0.049159,0.71357,-1.0852,-0.55004,-1.2041,-0.078749,0,0,0.15463,0.85033,0,-0.20475,0,0,1.1096,0.039316,0,1.1103,-0.53869,-1.0965,-1.2041,-81.8,-0.94645,0.6187,0.010934,0.28,0.06,0
0.15547,0.044068,0.69149,-1.0563,-0.60491,-1.1899,-0.10662,0,0,0.17358,0.76045,0,-0.27721,0,0,1.0924,0.06201,0,1.0942,-0.58099,-1.0803,-1.1899,-77.358,-0.95037,0.56214,0.0079669,0.3,0.06,0
0.15924,0.038336,0.66987,-1.0193,-0.68873,-1.1823,-0.1193,0,0,0.21185,0.64163,0,-0.31017,0,0,1.0638,0.085051,0,1.0673,-0.65017,-1.0579,-1.1823,-72.091,-0.96344,0.4821,0.0044888,0.32,0.06,0
0.16394,0.032912,0.64894,-0.98158,-0.77208,-1.175,-0.10867,0,0,0.2515,0.52385,0,-0.28255,0,0,1.0246,0.10031,0,1.0298,-0.72589,-1.0278,-1.175,-66.973,-0.97623,0.39658,0.0017784,0.34,0.06,0
0.16931,0.028671,0.62889,-0.94518,-0.81159,-1.1559,-0.081759,0,0,0.27396,0.44763,0,-0.21257,0,0,0.9814,0.098183,0,0.98655,-0.77281,-0.98396,-1.1559,-64.624,-0.97089,0.33236,0.00033203,0.36,0.06,0
0.1749,0.025745,0.60969,-0.91688,-0.81706,-1.1299,-0.057379,0,0,0.27689,0.40665,0,-0.14919,0,0,0.94312,0.079808,0,0.9466,-0.79092,-0.94302,-1.1299,-65.509,-0.9546,0.29405,-0.00023046,0.38,0.06,0
0.18038,0.023811,0.59116,-0.89876,-0.81294,-1.1047,-0.038961,0,0,0.26768,0.37925,0,-0.1013,0,0,0.91656,0.051987,0,0.918,-0.79789,-0.91381,-1.1047,-68.881,-0.93879,0.26831,-0.00040483,0.4,0.06,0
0.18561,0.022559,0.57303,-0.88589,-0.80369,-1.0799,-0.023503,0,0,0.25221,0.35907,0,-0.061109,0,0,0.90358,0.023661,0,0.90382,-0.79745,-0.89214,-1.0799,-75.118,-0.92316,0.249,-0.00042387,0.42,0.06,0
0.19047,0.021871,0.55502,-0.87824,-0.78866,-1.0551,-0.0078244,0,0,0.2299,0.34635,0,-0.020343,0,0,0.90244,-0.00096089,0,0.9024,-0.78799,-0.87892,-1.0551,-85.045,-0.90733,0.23521,-0.00034741,0.44,0.06,0
0.19481,0.021741,0.53693,-0.87669,-0.76546,-1.0296,0.0088531,0,0,0.19875,0.34335,0,0.023018,0,0,0.91009,-0.020163,0,0.91031,-0.76476,-0.87738,-1.0296,85.478,-0.89057,0.23019,-0.00015989,0.46,0.06,0
0.19842,0.02218,0.51861,-0.88176,-0.73189,-1.0027,0.0255,0,0,0.15723,0.35206,0,0.066299,0,0,0.9236,-0.033292,0,0.92422,-0.72767,-0.88598,-1.0027,80.603,-0.87212,0.23909,0.00018128,0.48,0.06,0
0.20109,0.023151,0.49999,-0.89284,-0.68717,-0.97399,0.039696,0,0,0.10549,0.37286,0,0.10321,0,0,0.94024,-0.040445,0,0.94115,-0.67977,-0.90024,-0.97399,79.446,-0.85133,0.26515,0.0007135,0.5,0.06,0
0.20264,0.024525,0.481,-0.9082,-0.63351,-0.94352,0.048755,0,0,0.045912,0.40301,0,0.12676,0,0,0.95768,-0.042425,0,0.95866,-0.62511,-0.9166,-0.94352,80.228,-0.82841,0.30583,0.0014309,0.52,0.06,0
0.20293,0.02609,0.46168,-0.92544,-0.57613,-0.91215,0.051144,0,0,-0.017272,0.43682,0,0.13297,0,0,0.97415,-0.040566,0,0.97502,-0.5688,-0.93277,-0.91215,81.839,-0.80457,0.35411,0.0022545,0.54,0.06,0
0.20195,0.02761,0.44204,-0.94201,-0.52088,-0.88091,0.047374,0,0,-0.079438,0.46803,0,0.12317,0,0,0.98859,-0.036383,0,0.98928,-0.51562,-0.94727,-0.88091,83.66,-0.78126,0.4026,0.0030467,0.56,0.06,0
0.19975,0.028887,0.42213,-0.95595,-0.47176,-0.85045,0.039467,0,0,-0.13715,0.49229,0,0.10261,0,0,1.0006,-0.031187,0,1.0011,-0.46857,-0.95915,-0.85045,85.371,-0.75939,0.44627,0.003668,0.58,0.06,0
0.19646,0.029801,0.40201,-0.96629,-0.43032,-0.821,0.029826,0,0,-0.18888,0.50788,0,0.077548,0,0,1.0103,-0.025867,0,1.0106,-0.42866,-0.96795,-0.821,86.825,-0.7392,0.48288,0.0040286,0.6,0.06,0
0.1922,0.030306,0.38172,-0.973,-0.3963,-0.79251,0.020283,0,0,-0.23464,0.51508,0,0.052736,0,0,1.0179,-0.020883,0,1.0181,-0.39558,-0.97371,-0.79251,87.988,-0.7206,0.51216,0.0041017,0.62,0.06,0
0.18708,0.030414,0.3613,-0.97664,-0.36869,-0.7649,0.011831,0,0,-0.27526,0.51507,0,0.03076,0,0,1.0238,-0.016389,0,1.0239,-0.36846,-0.97687,-0.7649,88.886,-0.70341,0.53491,0.003905,0.64,0.06,0
0.18119,0.030166,0.34077,-0.97789,-0.34637,-0.73805,0.004772,0,0,-0.31179,0.50918,0,0.012407,0,0,1.0283,-0.012364,0,1.0284,-0.34634,-0.97792,-0.73805,89.567,-0.68744,0.55221,0.0034772,0.66,0.06,0
0.17461,0.029611,0.32017,-0.97734,-0.32833,-0.71187,-0.00099386,0,0,-0.34511,0.4986,0,-0.002584,0,0,1.0316,-0.0087058,0,1.0316,-0.32833,-0.97734,-0.71187,-89.912,-0.67251,0.56515,0.0028629,0.68,0.06,0
0.16738,0.028802,0.29951,-0.97541,-0.31376,-0.68626,-0.005745,0,0,-0.3759,0.48425,0,-0.014937,0,0,1.0338,-0.0052806,0,1.0338,-0.31371,-0.97546,-0.68626,-89.503,-0.65848,0.57461,0.0021053,0.7,0.06,0
0.15957,0.027783,0.27882,-0.97235,-0.30199,-0.66112,-0.009797,0,0,-0.4046,0.46687,0,-0.025472,0,0,1.035,-0.0019417,0,1.035,-0.30184,-0.97249,-0.66112,-89.163,-0.64515,0.58129,0.0012441,0.72,0.06,0
0.1512,0.026592,0.25811,-0.96826,-0.29252,-0.63634,-0.013425,0,0,-0.43149,0.44697,0,-0.034904,0,0,1.0352,0.0014589,0,1.0352,-0.29225,-0.96852,-0.63634,-88.862,-0.63237,0.5857,0.00031477,0.74,0.06,0
0.14231,0.025262,0.23741,-0.96315,-0.28494,-0.61184,-0.016814,0,0,-0.4567,0.42497,0,-0.043717,0,0,1.0343,0.0050668,0,1.0343,-0.28452,-0.96356,-0.61184,-88.581,-0.61997,0.58819,-0.00065027,0.76,0.06,0
0.13293,0.023826,0.21674,-0.95695,-0.27891,-0.5875,-0.020021,0,0,-0.48029,0.40116,0,-0.052054,0,0,1.0322,0.0090159,0,1.0322,-0.27832,-0.95754,-0.5875,-88.31,-0.60779,0.58901,-0.0016209,0.78,0.06,0
0.1231,0.022319,0.19612,-0.94958,-0.2741,-0.56323,-0.022921,0,0,-0.50226,0.37586,0,-0.059595,0,0,1.0288,0.01341,0,1.0289,-0.27333,-0.95035,-0.56323,-88.059,-0.59564,0.58834,-0.0025691,0.8,0.06,0
0.11284,0.020783,0.17559,-0.94102,-0.27013,-0.53893,-0.025166,0,0,-0.52271,0.34945,0,-0.065432,0,0,1.0237,0.018279,0,1.0239,-0.26919,-0.94197,-0.53893,-87.855,-0.58336,0.58644,-0.0034706,0.82,0.06,0
0.10219,0.019276,0.15518,-0.93147,-0.26633,-0.51452,-0.02618,0,0,-0.54204,0.32264,0,-0.068068,0,0,1.0167,0.023501,0,1.017,-0.26531,-0.9325,-0.51452,-87.749,-0.57077,0.58393,-0.0043101,0.84,0.06,0
0.09116,0.017875,0.13492,-0.92145,-0.26159,-0.48983,-0.025312,0,0,-0.5611,0.29672,0,-0.065811,0,0,1.0074,0.028685,0,1.0078,-0.26062,-0.92242,-0.48983,-87.806,-0.55762,0.58209,-0.0050926,0.86,0.06,0
0.079746,0.016664,0.11488,-0.91178,-0.25409,-0.46464,-0.02217,0,0,-0.58129,0.27371,0,-0.057642,0,0,0.99592,0.033091,0,0.99649,-0.25334,-0.91253,-0.46464,-88.072,-0.5435,0.583,-0.0058551,0.88,0.06,0
0.067908,0.015719,0.095085,-0.90338,-0.24178,-0.43863,-0.017077,0,0,-0.60417,0.25591,0,-0.0444,0,0,0.98253,0.03567,0,0.98321,-0.24134,-0.90382,-0.43863,-88.522,-0.52793,0.58916,-0.0066701,0.9,0.06,0
0.055579,0.015076,0.075576,-0.89688,-0.22329,-0.41163,-0.011171,0,0,-0.63083,0.24484,0,-0.029044,0,0,0.96819,0.035319,0,0.96886,-0.2231,-0.89707,-0.41163,-89.05,-0.5106,0.60225,-0.0076246,0.92,0.06,0
0.042675,0.014714,0.056357,-0.89244,-0.19908,-0.38381,-0.0059762,0,0,-0.66121,0.24015,0,-0.015538,0,0,0.95436,0.031273,0,0.95489,-0.19903,-0.89249,-0.38381,-89.506,-0.49178,0.62201,-0.0087814,0.94,0.06,0
0.02913,0.014556,0.037402,-0.88974,-0.1714,-0.35574,-0.002513,0,0,-0.69419,0.23965,0,-0.0065338,0,0,0.94277,0.023453,0,0.94307,-0.17139,-0.88974,-0.35574,-89.8,-0.47229,0.64621,-0.010151,0.96,0.06,0
0.014908,0.014507,0.018647,-0.88815,-0.14287,-0.32795,-0.00081078,0,0,-0.72826,0.24061,0,-0.002108,0,0,0.93505,0.012576,0,0.93512,-0.14287,-0.88815,-0.32795,-89.938,-0.45299,0.67213,-0.0117,0.98,0.06,0
0,0.014498,0,-0.8643,-0.10548,-0.29094,-0.00018568,0,0,-0.74538,0.24109,0,-0.00048276,0,0,0.93234,-2.2551e-17,0,0.93232,-0.10548,-0.8643,-0.29094,-89.986,-0.42024,0.68519,-0.012531,1,0.06,0
0,0.029099,1,-0.8851,-1.4381,-1.6969,0.0070292,0,0,1.0554,0.33656,0,0.018276,0,0,0.78934,-1.6063e-15,0,0.78908,-0.88501,-1.4381,-1.6969,0.7282,-1.34,0.71839,0.011047,0,0.08,0
0.021108,0.029464,0.98421,-0.86876,-1.4056,-1.6665,0.02235,0,0,1.0371,0.33921,0,0.05811,0,0,0.79659,-0.049773,0,0.7979,-0.86783,-1.4065,-1.6665,2.38,-1.3136,0.70558,0.010133,0.02,0.08,0
0.041483,0.030679,0.96814,-0.87713,-1.3772,-1.6444,0.049419,0,0,0.99749,0.34743,0,0.12849,0,0,0.82036,-0.10089,0,0.8264,-0.87229,-1.382,-1.6444,5.5904,-1.2996,0.68003,0.0084222,0.04,0.08,0
0.061008,0.033136,0.9514,-0.8936,-1.3465,-1.6234,0.087392,0,0,0.94879,0.35997,0,0.22722,0,0,0.86636,-0.15276,0,0.87993,-0.87732,-1.3628,-1.6234,10.55,-1.2879,0.65587,0.0071601,0.06,0.08,0
0.079435,0.037674,0.93348,-0.92702,-1.2996,-1.6015,0.14688,0,0,0.87676,0.39247,0,0.38188,0,0,0.93384,-0.19409,0,0.95478,-0.87608,-1.3505,-1.6015,19.128,-1.276,0.63805,0.0067223,0.08,0.08,0
0.096078,0.045465,0.91404,-0.98994,-1.1767,-1.564,0.21147,0,0,0.74632,0.50357,0,0.54982,0,0,1.0097,-0.18884,0,1.0279,-0.85214,-1.3145,-1.564,33.089,-1.2435,0.62562,0.0061683,0.1,0.08,0
0.10929,0.055876,0.89309,-1.0253,-0.8876,-1.467,0.22597,0,0,0.57414,0.75318,0,0.58751,0,0,1.072,-0.15055,0,1.0827,-0.72024,-1.1927,-1.467,53.474,-1.1266,0.65424,0.0063348,0.12,0.08,0
0.11904,0.06551,0.87116,-1.0713,-0.68971,-1.3995,0.16093,0,0,0.42662,0.92268,0,0.41842,0,0,1.1086,-0.095701,0,1.1126,-0.6309,-1.1301,-1.3995,69.926,-1.0535,0.67544,0.0077664,0.14,0.08,0
0.12635,0.072213,0.84875,-1.1012,-0.60995,-1.3621,0.094554,0,0,0.3392,0.97777,0,0.24584,0,0,1.1242,-0.062635,0,1.1259,-0.59238,-1.1187,-1.3621,79.472,-1.0244,0.68144,0.0095421,0.16,0.08,0
0.13261,0.075884,0.8262,-1.097,-0.55811,-1.3227,0.047114,0,0,0.29348,0.99399,0,0.1225,0,0,1.1298,-0.04,0,1.1305,-0.55402,-1.1011,-1.3227,85.041,-0.9926,0.6853,0.010887,0.18,0.08,0
0.13809,0.077283,0.80356,-1.0919,-0.52602,-1.289,0.016563,0,0,0.2561,0.99181,0,0.043065,0,0,1.1332,-0.022731,0,1.1334,-0.52554,-1.0924,-1.289,88.325,-0.96897,0.68658,0.012146,0.2,0.08,0
0.14286,0.076879,0.78087,-1.0903,-0.5069,-1.26,-0.0058556,0,0,0.22062,0.97908,0,-0.015225,0,0,1.1354,-0.0077821,0,1.1354,-0.50684,-1.0904,-1.26,-89.425,-0.95242,0.68433,0.013112,0.22,0.08,0
0.14692,0.074936,0.75814,-1.0923,-0.49841,-1.2354,-0.026558,0,0,0.18596,0.95804,0,-0.069051,0,0,1.1366,0.0070655,0,1.1366,-0.49722,-1.0935,-1.2354,-87.445,-0.94203,0.67842,0.013703,0.24,0.08,0
0.15029,0.071508,0.7354,-1.0963,-0.50067,-1.2145,-0.051308,0,0,0.15366,0.92797,0,-0.1334,0,0,1.1365,0.023974,0,1.1368,-0.49628,-1.1007,-1.2145,-85.112,-0.93715,0.66861,0.013863,0.26,0.08,0
0.15306,0.066487,0.71268,-1.0975,-0.5172,-1.1971,-0.086449,0,0,0.12948,0.88386,0,-0.22477,0,0,1.1341,0.045789,0,1.1349,-0.50459,-1.1101,-1.1971,-81.704,-0.93726,0.65336,0.013472,0.28,0.08,0
0.15547,0.059584,0.69004,-1.0708,-0.55229,-1.177,-0.13189,0,0,0.13802,0.81208,0,-0.34292,0,0,1.1217,0.077093,0,1.1242,-0.52067,-1.1024,-1.177,-76.518,-0.93335,0.62238,0.011785,0.3,0.08,0
0.15858,0.051234,0.66781,-1.0352,-0.66828,-1.1789,-0.17232,0,0,0.18674,0.66375,0,-0.44802,0,0,1.0895,0.12793,0,1.0971,-0.60005,-1.1035,-1.1789,-68.398,-0.96079,0.54503,0.0077815,0.32,0.08,0
0.16294,0.043133,0.64646,-1.003,-0.82085,-1.1936,-0.15548,0,0,0.24782,0.48458,0,-0.40425,0,0,1.0339,0.16064,0,1.0469,-0.73173,-1.0921,-1.1936,-60.178,-1.0058,0.42042,0.0030795,0.34,0.08,0
0.1685,0.037322,0.62646,-0.94852,-0.84508,-1.1645,-0.1145,0,0,0.28082,0.41529,0,-0.29771,0,0,0.96798,0.16095,0,0.98196,-0.77116,-1.0224,-1.1645,-57.154,-0.98605,0.34502,0.00096798,0.36,0.08,0
0.17418,0.03368,0.60774,-0.91784,-0.83974,-1.135,-0.080265,0,0,0.28233,0.38386,0,-0.20869,0,0,0.91307,0.11808,0,0.9207,-0.78953,-0.96805,-1.135,-57.972,-0.9642,0.29926,7.9687e-05,0.38,0.08,0
0.17979,0.031234,0.58993,-0.89489,-0.83145,-1.1078,-0.056747,0,0,0.27682,0.3593,0,-0.14754,0,0,0.88101,0.069151,0,0.88354,-0.79816,-0.92819,-1.1078,-59.603,-0.94473,0.26933,-0.00027421,0.4,0.08,0
0.18525,0.029576,0.5725,-0.87803,-0.8227,-1.0827,-0.035273,0,0,0.2661,0.33802,0,-0.09171,0,0,0.87116,0.025897,0,0.8714,-0.80554,-0.89519,-1.0827,-64.053,-0.92782,0.24498,-0.00042846,0.42,0.08,0
0.19043,0.028618,0.55509,-0.86773,-0.80902,-1.0581,-0.012749,0,0,0.24749,0.32382,0,-0.033147,0,0,0.87617,-0.0095355,0,0.87615,-0.80637,-0.87038,-1.0581,-78.263,-0.91162,0.22662,-0.00044088,0.44,0.08,0
0.19515,0.028418,0.53745,-0.86583,-0.78737,-1.0334,0.011635,0,0,0.21786,0.31986,0,0.03025,0,0,0.89103,-0.036267,0,0.89178,-0.78568,-0.86752,-1.0334,81.74,-0.89554,0.21862,-0.00029426,0.46,0.08,0
0.19915,0.029045,0.51945,-0.87248,-0.75321,-1.0071,0.03637,0,0,0.17508,0.33012,0,0.094561,0,0,0.91194,-0.053716,0,0.91358,-0.743,-0.8827,-1.0071,74.311,-0.87762,0.22889,6.1424e-05,0.48,0.08,0
0.20215,0.03048,0.50098,-0.88655,-0.70328,-0.97793,0.057637,0,0,0.11879,0.35704,0,0.14986,0,0,0.93537,-0.062029,0,0.93751,-0.68666,-0.90317,-0.97793,73.916,-0.85592,0.26201,0.00067657,0.5,0.08,0
0.2039,0.032532,0.48203,-0.90552,-0.6401,-0.94572,0.070502,0,0,0.052254,0.3973,0,0.1833,0,0,0.95823,-0.062539,0,0.96034,-0.62253,-0.92309,-0.94572,76.01,-0.83044,0.31248,0.0015394,0.52,0.08,0
0.20424,0.034853,0.46265,-0.92606,-0.57276,-0.91229,0.072455,0,0,-0.017901,0.4414,0,0.18838,0,0,0.9783,-0.057652,0,0.98004,-0.55848,-0.94035,-0.91229,78.849,-0.80371,0.36864,0.0025229,0.54,0.08,0
0.20318,0.037054,0.4429,-0.94474,-0.51082,-0.87957,0.064949,0,0,-0.08472,0.47936,0,0.16887,0,0,0.99457,-0.050022,0,0.99584,-0.50131,-0.95425,-0.87957,81.667,-0.77838,0.4206,0.0034189,0.56,0.08,0
0.20085,0.038842,0.42286,-0.95915,-0.45924,-0.84838,0.052156,0,0,-0.144,0.50588,0,0.13561,0,0,1.0071,-0.04174,0,1.0079,-0.45386,-0.96454,-0.84838,84.107,-0.75559,0.46364,0.0040562,0.58,0.08,0
0.19742,0.040066,0.40262,-0.96861,-0.4182,-0.81866,0.038055,0,0,-0.19494,0.52059,0,0.098943,0,0,1.0165,-0.033961,0,1.017,-0.41559,-0.97123,-0.81866,86.064,-0.73516,0.49724,0.0043679,0.6,0.08,0
0.19306,0.040701,0.38221,-0.97391,-0.3859,-0.79015,0.025139,0,0,-0.23888,0.52552,0,0.065363,0,0,1.0235,-0.027094,0,1.0238,-0.38483,-0.97498,-0.79015,87.556,-0.71665,0.52284,0.0043682,0.62,0.08,0
0.18787,0.040789,0.36168,-0.97624,-0.36024,-0.76262,0.014332,0,0,-0.27771,0.52309,0,0.037264,0,0,1.0288,-0.021134,0,1.029,-0.35991,-0.97658,-0.76262,88.668,-0.6997,0.54233,0.0041044,0.64,0.08,0
0.18195,0.040406,0.34106,-0.97671,-0.33963,-0.73596,0.005654,0,0,-0.31297,0.51523,0,0.0147,0,0,1.0327,-0.015921,0,1.0328,-0.33958,-0.97676,-0.73596,89.492,-0.6841,0.55727,0.0036254,0.66,0.08,0
0.17535,0.039628,0.32037,-0.97597,-0.3229,-0.71003,-0.0012728,0,0,-0.34572,0.50327,0,-0.0033093,0,0,1.0356,-0.01125,0,1.0357,-0.3229,-0.97597,-0.71003,-89.888,-0.66963,0.56881,0.0029751,0.68,0.08,0
0.16812,0.038524,0.29963,-0.9744,-0.30922,-0.68471,-0.0069327,0,0,-0.37659,0.48815,0,-0.018025,0,0,1.0376,-0.0069077,0,1.0377,-0.30914,-0.97447,-0.68471,-89.403,-0.65611,0.57778,0.0021909,0.7,0.08,0
0.16029,0.037154,0.27886,-0.97214,-0.29796,-0.6599,-0.011789,0,0,-0.40592,0.47051,0,-0.030652,0,0,1.0388,-0.0026841,0,1.0388,-0.29776,-0.97235,-0.6599,-88.999,-0.64333,0.58474,0.0013056,0.72,0.08,0
0.15188,0.035565,0.25808,-0.96921,-0.28872,-0.63546,-0.016229,0,0,-0.43388,0.45076,0,-0.042196,0,0,1.0392,0.0016266,0,1.0392,-0.28834,-0.9696,-0.63546,-88.635,-0.63113,0.59003,0.00034815,0.74,0.08,0
0.14293,0.033798,0.2373,-0.96551,-0.28118,-0.6113,-0.020529,0,0,-0.46047,0.42916,0,-0.053377,0,0,1.0386,0.0062315,0,1.0387,-0.28057,-0.96612,-0.6113,-88.283,-0.61933,0.59383,-0.00065394,0.76,0.08,0
0.13346,0.031889,0.21653,-0.96081,-0.27515,-0.58732,-0.024825,0,0,-0.48553,0.40582,0,-0.064545,0,0,1.0371,0.011339,0,1.0371,-0.27426,-0.96171,-0.58732,-87.929,-0.60776,0.59614,-0.0016729,0.78,0.08,0
0.12351,0.029875,0.19581,-0.95483,-0.27051,-0.56341,-0.029048,0,0,-0.50884,0.38078,0,-0.075524,0,0,1.0342,0.017149,0,1.0344,-0.26927,-0.95606,-0.56341,-87.574,-0.59625,0.59681,-0.0026785,0.8,0.08,0
0.11311,0.027805,0.17516,-0.94721,-0.26714,-0.53947,-0.032823,0,0,-0.53006,0.35403,0,-0.085339,0,0,1.0297,0.023816,0,1.03,-0.26556,-0.94879,-0.53947,-87.243,-0.58461,0.59556,-0.0036364,0.82,0.08,0
0.10231,0.025747,0.15463,-0.93784,-0.26486,-0.51543,-0.03536,0,0,-0.54913,0.32575,0,-0.091935,0,0,1.023,0.031353,0,1.0235,-0.26301,-0.93969,-0.51543,-87.001,-0.57271,0.59229,-0.0045137,0.84,0.08,0
0.091144,0.023802,0.13424,-0.92705,-0.2628,-0.4912,-0.035451,0,0,-0.56661,0.29692,0,-0.092172,0,0,1.0134,0.039394,0,1.0142,-0.26091,-0.92894,-0.4912,-86.954,-0.56035,0.58775,-0.0052918,0.86,0.08,0
0.079643,0.022101,0.11409,-0.9159,-0.25883,-0.46651,-0.032043,0,0,-0.58421,0.26998,0,-0.083311,0,0,1.0005,0.046919,0,1.0016,-0.25727,-0.91746,-0.46651,-87.215,-0.54708,0.58438,-0.0059967,0.88,0.08,0
0.067776,0.020778,0.094226,-0.90573,-0.24936,-0.44075,-0.025078,0,0,-0.60447,0.24881,0,-0.065202,0,0,0.98423,0.052134,0,0.98565,-0.2484,-0.90669,-0.44075,-87.815,-0.53195,0.58628,-0.0067188,0.9,0.08,0
0.055464,0.019909,0.074719,-0.89762,-0.23129,-0.41339,-0.016348,0,0,-0.6295,0.23673,0,-0.042504,0,0,0.96579,0.052914,0,0.96729,-0.23089,-0.89802,-0.41339,-88.596,-0.5141,0.59718,-0.0075925,0.92,0.08,0
0.042596,0.019466,0.055594,-0.892,-0.20492,-0.38467,-0.0085213,0,0,-0.65953,0.23367,0,-0.022155,0,0,0.94728,0.047648,0,0.94852,-0.20481,-0.8921,-0.38467,-89.29,-0.49386,0.61733,-0.0087151,0.94,0.08,0
0.029083,0.019319,0.036827,-0.88864,-0.1743,-0.35571,-0.0034944,0,0,-0.69281,0.23583,0,-0.0090854,0,0,0.9314,0.036074,0,0.9321,-0.17429,-0.88866,-0.35571,-89.72,-0.47289,0.64315,-0.010086,0.96,0.08,0
0.014883,0.019307,0.018338,-0.88685,-0.14391,-0.32757,-0.0011264,0,0,-0.72707,0.23875,0,-0.0029286,0,0,0.92068,0.019421,0,0.92087,-0.14391,-0.88685,-0.32757,-89.913,-0.45278,0.67026,-0.01164,0.98,0.08,0
0,0.019313,0,-0.86336,-0.10638,-0.29092,0.00011963,0,0,-0.74417,0.23991,0,0.00031103,0,0,0.9169,-1.1276e-17,0,0.91687,-0.10638,-0.86336,-0.29092,89.991,-0.42022,0.68365,-0.012468,1,0.08,0
0,0.035601,1,-0.8679,-1.4642,-1.6996,0.0079566,0,0,1.0813,0.30604,0,0.020687,0,0,0.73287,-1.3739e-15,0,0.73243,-0.86779,-1.4643,-1.6996,0.76431,-1.3439,0.74269,0.01414,0,0.1,0
0.021625,0.036014,0.98534,-0.85542,-1.4354,-1.6726,0.031807,0,0,1.0623,0.30832,0,0.082699,0,0,0.73863,-0.061612,0,0.74075,-0.85368,-1.4372,-1.6726,3.1296,-1.3212,0.73024,0.013216,0.02,0.1,0
0.042493,0.037388,0.97045,-0.87418,-1.4152,-1.6573,0.067882,0,0,1.018,0.31472,0,0.17649,0,0,0.75831,-0.12808,0,0.76858,-0.86579,-1.4236,-1.6573,7.0438,-1.3155,0.70432,0.011511,0.04,0.1,0
0.062345,0.039989,0.95501,-0.89872,-1.3931,-1.6425,0.1163,0,0,0.96697,0.32433,0,0.30238,0,0,0.80448,-0.20505,0,0.82977,-0.87273,-1.4191,-1.6425,12.599,-1.3114,0.68595,0.010839,0.06,0.1,0
0.081172,0.044941,0.93828,-0.95838,-1.3971,-1.6449,0.19589,0,0,0.8925,0.32217,0,0.50932,0,0,0.90941,-0.29982,0,0.95868,-0.88364,-1.4718,-1.6449,20.883,-1.3335,0.69119,0.013441,0.08,0.1,0
0.098046,0.054877,0.91863,-1.0462,-1.296,-1.6213,0.31638,0,0,0.74767,0.42282,0,0.82258,0,0,1.0406,-0.36285,0,1.1067,-0.83095,-1.5113,-1.6213,34.225,-1.3212,0.74148,0.019392,0.1,0.1,0
0.11108,0.071632,0.89665,-1.0194,-0.69806,-1.4119,0.2627,0,0,0.51026,0.92797,0,0.68302,0,0,1.136,-0.15973,0,1.145,-0.55079,-1.1666,-1.4119,60.724,-1.0431,0.76841,0.015552,0.12,0.1,0
0.11846,0.08496,0.87319,-1.1209,-0.63384,-1.3996,0.15637,0,0,0.36229,0.99552,0,0.40656,0,0,1.1647,-0.097063,0,1.1686,-0.58797,-1.1668,-1.3996,73.649,-1.0515,0.7239,0.012906,0.14,0.1,0
0.12557,0.092207,0.85006,-1.0765,-0.56719,-1.3432,0.079595,0,0,0.34669,1.0088,0,0.20695,0,0,1.154,-0.063318,0,1.1557,-0.55504,-1.0886,-1.3432,81.321,-0.99561,0.69665,0.0098759,0.16,0.1,0
0.13232,0.095967,0.82703,-1.0534,-0.52962,-1.3019,0.040966,0,0,0.32313,1.004,0,0.10651,0,0,1.1506,-0.0412,0,1.1513,-0.52644,-1.0566,-1.3019,85.555,-0.96164,0.68652,0.0097458,0.18,0.1,0
0.1385,0.097195,0.80404,-1.0459,-0.50549,-1.2694,0.016608,0,0,0.29065,0.99315,0,0.043181,0,0,1.1498,-0.024288,0,1.1501,-0.50498,-1.0464,-1.2694,88.241,-0.94027,0.68091,0.010542,0.2,0.1,0
0.14395,0.096501,0.78104,-1.0479,-0.48967,-1.2423,-0.0012473,0,0,0.25272,0.97845,0,-0.003243,0,0,1.1508,-0.0094938,0,1.1508,-0.48967,-1.0479,-1.2423,-89.872,-0.92664,0.67673,0.011601,0.22,0.1,0
0.1486,0.094167,0.75801,-1.0566,-0.48026,-1.2191,-0.018161,0,0,0.21119,0.96046,0,-0.047219,0,0,1.1531,0.0052706,0,1.153,-0.47969,-1.0572,-1.2191,-88.197,-0.91865,0.67321,0.012668,0.24,0.1,0
0.1524,0.090242,0.73492,-1.0724,-0.47768,-1.2,-0.039123,0,0,0.16578,0.93896,0,-0.10172,0,0,1.1568,0.022057,0,1.157,-0.47512,-1.075,-1.2,-86.253,-0.91669,0.67114,0.01373,0.26,0.1,0
0.15524,0.084514,0.71174,-1.0978,-0.4847,-1.1865,-0.070147,0,0,0.11525,0.91234,0,-0.18238,0,0,1.1627,0.043814,0,1.1635,-0.47678,-1.1058,-1.1865,-83.556,-0.92302,0.673,0.014899,0.28,0.1,0
0.15701,0.076551,0.68841,-1.1326,-0.51076,-1.1814,-0.12791,0,0,0.063488,0.87185,0,-0.33256,0,0,1.1746,0.076553,0,1.1769,-0.48547,-1.1579,-1.1814,-78.819,-0.94158,0.68446,0.016404,0.3,0.1,0
0.15777,0.064886,0.66475,-1.0477,-0.52865,-1.1377,-0.20225,0,0,0.11696,0.7917,0,-0.52586,0,0,1.1473,0.13629,0,1.1534,-0.45915,-1.1172,-1.1377,-71.034,-0.90466,0.66851,0.015296,0.32,0.1,0
0.16169,0.052295,0.64252,-1.0577,-0.90795,-1.2322,-0.24783,0,0,0.22685,0.42155,0,-0.64436,0,0,1.0576,0.32547,0,1.111,-0.72394,-1.2417,-1.2322,-53.406,-1.066,0.5131,0.0069301,0.34,0.1,0
0.16685,0.045283,0.62245,-0.97645,-0.90591,-1.1872,-0.16392,0,0,0.27392,0.36562,0,-0.42618,0,0,0.93883,0.25096,0,0.97222,-0.77351,-1.1088,-1.1872,-51.072,-1.0232,0.38058,0.002432,0.36,0.1,0
0.17264,0.041099,0.60497,-0.91561,-0.87206,-1.1413,-0.11432,0,0,0.29336,0.34996,0,-0.29723,0,0,0.85132,0.15412,0,0.86453,-0.77746,-1.0102,-1.1413,-50.391,-0.97631,0.31914,0.00077091,0.38,0.1,0
0.17858,0.038183,0.5884,-0.88221,-0.861,-1.1114,-0.079277,0,0,0.29789,0.32546,0,-0.20612,0,0,0.82438,0.07945,0,0.82774,-0.79162,-0.95159,-1.1114,-48.809,-0.95152,0.2769,1.1588e-06,0.4,0.1,0
0.18456,0.036079,0.57199,-0.85925,-0.84941,-1.0846,-0.048345,0,0,0.29294,0.30573,0,-0.1257,0,0,0.82489,0.020214,0,0.82486,-0.80574,-0.90293,-1.0846,-47.904,-0.93108,0.24516,-0.00037566,0.42,0.1,0
0.1903,0.034824,0.5554,-0.84892,-0.83652,-1.061,-0.017173,0,0,0.27575,0.29186,0,-0.044651,0,0,0.84027,-0.02679,0,0.8406,-0.82446,-0.86098,-1.061,-54.923,-0.91549,0.22059,-0.00050074,0.44,0.1,0
0.19559,0.034535,0.53838,-0.84926,-0.8177,-1.0385,0.015867,0,0,0.24597,0.287,0,0.041254,0,0,0.86591,-0.061875,0,0.86818,-0.8111,-0.85586,-1.0385,67.421,-0.90181,0.20862,-0.00039494,0.46,0.1,0
0.20014,0.035385,0.52076,-0.85992,-0.78438,-1.014,0.050595,0,0,0.20037,0.29858,0,0.13155,0,0,0.89783,-0.083802,0,0.90189,-0.75901,-0.88529,-1.014,63.371,-0.88612,0.22088,-9.347e-06,0.48,0.1,0
0.2036,0.037433,0.50247,-0.8795,-0.72719,-0.98447,0.081069,0,0,0.13647,0.33447,0,0.21078,0,0,0.93141,-0.091853,0,0.93609,-0.69212,-0.91457,-0.98447,66.605,-0.86372,0.26443,0.00073061,0.5,0.1,0
0.2056,0.040417,0.48351,-0.90378,-0.64725,-0.94881,0.098297,0,0,0.058549,0.39203,0,0.25557,0,0,0.96205,-0.088156,0,0.96618,-0.61392,-0.93711,-0.94881,71.267,-0.83328,0.3292,0.0018246,0.52,0.1,0
0.20594,0.043746,0.46398,-0.92873,-0.56368,-0.91171,0.097256,0,0,-0.022133,0.45243,0,0.25287,0,0,0.98666,-0.077184,0,0.98972,-0.53939,-0.95303,-0.91171,75.975,-0.80138,0.39461,0.0030395,0.54,0.1,0
0.20471,0.046785,0.44404,-0.94972,-0.49367,-0.87706,0.082771,0,0,-0.094465,0.4984,0,0.2152,0,0,1.0045,-0.063944,0,1.0065,-0.47912,-0.96428,-0.87706,80.025,-0.77348,0.44797,0.0040334,0.56,0.1,0
0.20217,0.049123,0.4238,-0.9635,-0.44113,-0.84519,0.062864,0,0,-0.1538,0.52529,0,0.16345,0,0,1.0167,-0.05152,0,1.018,-0.43367,-0.97096,-0.84519,83.234,-0.74994,0.48675,0.0046167,0.58,0.1,0
0.19856,0.050625,0.40337,-0.97068,-0.40267,-0.81538,0.043857,0,0,-0.20189,0.53652,0,0.11403,0,0,1.0249,-0.041035,0,1.0257,-0.39931,-0.97405,-0.81538,85.611,-0.72958,0.51411,0.0048034,0.6,0.1,0
0.19409,0.051327,0.38281,-0.97337,-0.37341,-0.78684,0.028075,0,0,-0.24249,0.53746,0,0.072996,0,0,1.0307,-0.03236,0,1.0312,-0.3721,-0.97468,-0.78684,87.327,-0.71121,0.53404,0.0046855,0.62,0.1,0
0.18886,0.051338,0.36214,-0.97395,-0.35049,-0.75947,0.015734,0,0,-0.27882,0.53168,0,0.040909,0,0,1.035,-0.025122,0,1.0353,-0.35009,-0.97435,-0.75947,88.555,-0.69464,0.5493,0.0043326,0.64,0.1,0
0.18294,0.050775,0.34141,-0.97362,-0.33202,-0.7331,0.0062255,0,0,-0.31268,0.52141,0,0.016186,0,0,1.0382,-0.018938,0,1.0383,-0.33196,-0.97369,-0.7331,89.444,-0.67958,0.56152,0.0037939,0.66,0.1,0
0.17636,0.049742,0.32062,-0.97296,-0.31682,-0.70755,-0.0012016,0,0,-0.34503,0.50795,0,-0.0031241,0,0,1.0406,-0.013468,0,1.0407,-0.31682,-0.97296,-0.70755,-89.895,-0.66578,0.57168,0.0031049,0.68,0.1,0
0.16914,0.048328,0.29979,-0.97213,-0.30411,-0.68266,-0.0072451,0,0,-0.37631,0.49211,0,-0.018837,0,0,1.0423,-0.0084169,0,1.0424,-0.30403,-0.9722,-0.68266,-89.379,-0.65296,0.58037,0.0022934,0.7,0.1,0
0.1613,0.046603,0.27892,-0.97114,-0.29336,-0.65828,-0.012492,0,0,-0.40672,0.47438,0,-0.03248,0,0,1.0435,-0.0035133,0,1.0435,-0.29313,-0.97137,-0.65828,-88.945,-0.64092,0.58794,0.0013825,0.72,0.1,0
0.15287,0.044622,0.25805,-0.96989,-0.28426,-0.63429,-0.017416,0,0,-0.43628,0.45504,0,-0.045281,0,0,1.0441,0.0015016,0,1.0441,-0.28382,-0.97033,-0.63429,-88.546,-0.62948,0.59458,0.00039293,0.74,0.1,0
0.14385,0.042428,0.23716,-0.9682,-0.2766,-0.6106,-0.022379,0,0,-0.46487,0.4342,0,-0.058185,0,0,1.044,0.0068934,0,1.044,-0.27588,-0.96892,-0.6106,-88.149,-0.61847,0.6003,-0.00065478,0.76,0.1,0
0.13427,0.040059,0.21629,-0.96576,-0.27031,-0.58711,-0.027625,0,0,-0.49225,0.41183,0,-0.071826,0,0,1.0431,0.01295,0,1.0432,-0.26922,-0.96686,-0.58711,-87.729,-0.60773,0.60496,-0.001738,0.78,0.1,0
0.12416,0.03755,0.19544,-0.9621,-0.26544,-0.5637,-0.033232,0,0,-0.51792,0.38773,0,-0.086404,0,0,1.0413,0.019995,0,1.0414,-0.26386,-0.96369,-0.5637,-87.275,-0.59708,0.60813,-0.0028275,0.8,0.1,0
0.11356,0.034944,0.17464,-0.95652,-0.2622,-0.54025,-0.038992,0,0,-0.54115,0.36147,0,-0.10138,0,0,1.0379,0.028385,0,1.0383,-0.26002,-0.95871,-0.54025,-86.796,-0.58633,0.60902,-0.0038817,0.82,0.1,0
0.10251,0.032306,0.15392,-0.9481,-0.26089,-0.51662,-0.044107,0,0,-0.56093,0.33245,0,-0.11468,0,0,1.0322,0.038458,0,1.033,-0.25807,-0.95092,-0.51662,-86.343,-0.5752,0.60642,-0.0048399,0.84,0.1,0
0.091119,0.029752,0.13335,-0.93676,-0.262,-0.49297,-0.04687,0,0,-0.57693,0.30027,0,-0.12186,0,0,1.023,0.050305,0,1.0242,-0.25876,-0.94,-0.49297,-86.046,-0.56391,0.5995,-0.0056448,0.86,0.1,0
0.079438,0.027463,0.113,-0.92343,-0.26354,-0.46909,-0.044633,0,0,-0.59064,0.26722,0,-0.11604,0,0,1.0087,0.062842,0,1.0106,-0.26053,-0.92644,-0.46909,-86.148,-0.55202,0.58996,-0.0062755,0.88,0.1,0
0.067493,0.025671,0.093,-0.91041,-0.25995,-0.44411,-0.036279,0,0,-0.60619,0.2394,0,-0.094326,0,0,0.98853,0.073232,0,0.9913,-0.25794,-0.91243,-0.44411,-86.817,-0.53816,0.5841,-0.0068391,0.9,0.1,0
0.05519,0.024546,0.07346,-0.89923,-0.24346,-0.41627,-0.023765,0,0,-0.62786,0.22465,0,-0.061788,0,0,0.96371,0.077083,0,0.96688,-0.2426,-0.90009,-0.41627,-87.927,-0.51965,0.59015,-0.0075557,0.92,0.1,0
0.042379,0.024061,0.054451,-0.89071,-0.21318,-0.38562,-0.012529,0,0,-0.65662,0.22417,0,-0.032574,0,0,0.93752,0.070952,0,0.94029,-0.21295,-0.89094,-0.38562,-88.941,-0.4965,0.61026,-0.0085989,0.94,0.1,0
0.028926,0.023989,0.035959,-0.88549,-0.17816,-0.35505,-0.0055481,0,0,-0.68957,0.22997,0,-0.014425,0,0,0.91454,0.054118,0,0.91616,-0.17811,-0.88553,-0.35505,-89.551,-0.4729,0.63764,-0.0099392,0.96,0.1,0
0.014796,0.024057,0.01787,-0.88264,-0.14571,-0.32638,-0.0022338,0,0,-0.72314,0.23486,0,-0.0058078,0,0,0.89897,0.029149,0,0.89939,-0.14571,-0.88265,-0.32638,-89.826,-0.45158,0.66527,-0.011446,0.98,0.1,0
0,0.024094,0,-0.85953,-0.10863,-0.29045,0.00070278,0,0,-0.73981,0.23636,0,0.0018272,0,0,0.89349,1.7347e-18,0,0.89341,-0.10863,-0.85953,-0.29045,89.946,-0.41953,0.67851,-0.012244,1,0.1,0
0,0.04134,1,-0.82748,-1.4985,-1.6978,0.0087824,0,0,1.1314,0.25904,0,0.022834,0,0,0.66612,8.4655e-16,0,0.66553,-0.82736,-1.4987,-1.6978,0.74967,-1.3413,0.78993,0.019994,0,0.12,0
0.022628,0.041797,0.98668,-0.817,-1.4744,-1.6741,0.042772,0,0,1.1142,0.25962,0,0.11121,0,0,0.66851,-0.068908,0,0.67141,-0.81423,-1.4772,-1.6741,3.707,-1.3218,0.78026,0.019258,0.02,0.12,0
0.044569,0.043267,0.97326,-0.83839,-1.4634,-1.6638,0.093272,0,0,1.073,0.26054,0,0.24251,0,0,0.67692,-0.14525,0,0.69146,-0.82476,-1.477,-1.6638,8.3095,-1.3218,0.76297,0.018285,0.04,0.12,0
0.065549,0.046109,0.9596,-0.89307,-1.4718,-1.669,0.15673,0,0,1.0088,0.25648,0,0.40749,0,0,0.69462,-0.24038,0,0.73355,-0.85335,-1.5115,-1.669,14.222,-1.3446,0.74944,0.018438,0.06,0.12,0
0.084919,0.050561,0.94547,-0.99277,-1.5201,-1.6993,0.29173,0,0,0.91854,0.23301,0,0.7585,0,0,0.77603,-0.3791,0,0.85833,-0.86321,-1.6497,-1.6993,23.946,-1.4041,0.81243,0.027194,0.08,0.12,0
0.10229,0.062378,0.92856,-0.87937,-1.1244,-1.1428,0.35525,0,0,0.43069,-0.14467,0,2.0169,0,0,0.64536,-0.37911,0,0.75546,-0.62554,-1.3783,-1.1428,36.506,-1.0489,0.6731,0.022128,0.1,0.12,0
0.10653,0.092995,0.89948,-0.79353,-0.56774,-0.93308,0.22675,0,0,0.311,0.17924,0,1.4219,0,0,0.7804,-0.12466,0,0.79461,-0.39038,-0.9709,-0.93308,48.69,-0.76479,0.58713,0.019427,0.12,0.12,0
0.11473,0.10533,0.87505,-0.67872,-0.52152,-0.87051,0.09768,0,0,0.42744,0.1758,0,0.76637,0,0,0.70293,-0.083702,0,0.71124,-0.41962,-0.78062,-0.87051,50.299,-0.69025,0.44706,0.0039324,0.14,0.12,0
0.12362,0.11256,0.85128,-0.64286,-0.48619,-0.8353,0.059361,0,0,0.42885,0.17844,0,0.49988,0,0,0.68836,-0.057328,0,0.69265,-0.40271,-0.72633,-0.8353,50.282,-0.65478,0.42152,0.0027021,0.16,0.12,0
0.13189,0.11604,0.82784,-0.64085,-0.47127,-0.81655,0.03427,0,0,0.39155,0.1835,0,0.31167,0,0,0.68181,-0.039019,0,0.68389,-0.39992,-0.7122,-0.81655,49.79,-0.64289,0.40318,0.0030357,0.18,0.12,0
0.13928,0.11701,0.80453,-0.64472,-0.45857,-0.8003,0.017253,0,0,0.34672,0.18872,0,0.17226,0,0,0.67953,-0.024207,0,0.68035,-0.39529,-0.708,-0.8003,48.556,-0.63453,0.39173,0.0038081,0.2,0.12,0
0.14575,0.11602,0.78125,-0.6506,-0.44775,-0.78523,0.0032143,0,0,0.30004,0.19294,0,0.053057,0,0,0.67957,-0.010831,0,0.67972,-0.3905,-0.70785,-0.78523,-43.257,-0.62786,0.38357,0.0046122,0.22,0.12,0
0.15129,0.11335,0.75793,-0.65708,-0.43808,-0.77067,-0.010395,0,0,0.25315,0.19593,0,-0.063062,0,0,0.68144,0.002594,0,0.6814,-0.38511,-0.71005,-0.77067,-45.701,-0.62194,0.37837,0.005359,0.24,0.12,0
0.15588,0.10907,0.73452,-0.66541,-0.42996,-0.75708,-0.025995,0,0,0.20429,0.19847,0,-0.1925,0,0,0.68546,0.017545,0,0.68578,-0.37918,-0.7162,-0.75708,-48.807,-0.61749,0.37711,0.0060805,0.26,0.12,0
0.15946,0.10298,0.71093,-0.67916,-0.42368,-0.74556,-0.047725,0,0,0.14797,0.20225,0,-0.35929,0,0,0.69333,0.036067,0,0.69484,-0.37139,-0.73145,-0.74556,-52.252,-0.61613,0.38428,0.0069911,0.28,0.12,0
0.1618,0.094458,0.68698,-0.72034,-0.4328,-0.74668,-0.079726,0,0,0.058692,0.21001,0,-0.58769,0,0,0.70829,0.062616,0,0.71262,-0.37405,-0.77909,-0.74668,-55.566,-0.63327,0.40511,0.0083479,0.3,0.12,0
0.16181,0.082902,0.66236,-0.82639,-0.45235,-0.77,-0.17582,0,0,-0.12567,0.22573,0,-1.0927,0,0,0.78073,0.10371,0,0.78997,-0.3547,-0.92403,-0.77,-56.32,-0.68291,0.52146,0.014415,0.32,0.12,0
0.15677,0.059995,0.63344,-0.82922,-0.7928,-0.85611,-0.28562,0,0,-0.069923,0.0055934,0,-1.6202,0,0,0.64521,0.34254,0,0.73542,-0.52477,-1.0973,-0.85611,-46.511,-0.82605,0.5012,0.0050645,0.34,0.12,0
0.16265,0.051947,0.61642,-0.95742,-0.98792,-1.2,-0.24688,0,0,0.31538,0.27573,0,-0.64188,0,0,0.79663,0.30953,0,0.84893,-0.72532,-1.22,-1.2,-43.233,-1.0485,0.48501,0.005826,0.36,0.12,0
0.16939,0.047679,0.60158,-0.87525,-0.92929,-1.1429,-0.15169,0,0,0.34799,0.27775,0,-0.3944,0,0,0.74156,0.1695,0,0.75916,-0.74819,-1.0563,-1.1429,-39.95,-0.98249,0.35936,0.0019251,0.38,0.12,0
0.17656,0.044253,0.58676,-0.83393,-0.89982,-1.1069,-0.099431,0,0,0.35484,0.26918,0,-0.25852,0,0,0.74711,0.075331,0,0.75015,-0.76213,-0.97162,-1.1069,-35.834,-0.94687,0.30086,0.00050715,0.4,0.12,0
0.18358,0.041805,0.57169,-0.82103,-0.88364,-1.0831,-0.055627,0,0,0.34068,0.25929,0,-0.14463,0,0,0.76492,0.0033168,0,0.76455,-0.78851,-0.91616,-1.0831,-30.317,-0.92925,0.25588,-0.00019653,0.42,0.12,0
0.19019,0.040292,0.55616,-0.8197,-0.87015,-1.0631,-0.016444,0,0,0.31644,0.25085,0,-0.042754,0,0,0.79408,-0.055109,0,0.79588,-0.81481,-0.87504,-1.0631,-16.548,-0.91765,0.22434,-0.00044202,0.44,0.12,0
0.19624,0.039898,0.53993,-0.82682,-0.85515,-1.0445,0.024352,0,0,0.28301,0.24618,0,0.063316,0,0,0.83402,-0.10096,0,0.84029,-0.81281,-0.86916,-1.0445,29.906,-0.90883,0.2093,-0.00035837,0.46,0.12,0
0.20151,0.040988,0.5228,-0.84628,-0.829,-1.0254,0.069882,0,0,0.23283,0.2553,0,0.18169,0,0,0.88196,-0.12882,0,0.89169,-0.76723,-0.90806,-1.0254,48.525,-0.90022,0.22388,9.0421e-05,0.48,0.12,0
0.20555,0.043859,0.50465,-0.87504,-0.76323,-0.99613,0.11394,0,0,0.15742,0.30277,0,0.29625,0,0,0.93102,-0.13489,0,0.94107,-0.69222,-0.94605,-0.99613,58.066,-0.87813,0.28223,0.0010331,0.5,0.12,0
0.20781,0.048213,0.48556,-0.9056,-0.65081,-0.95248,0.13472,0,0,0.060942,0.39217,0,0.35026,0,0,0.9729,-0.12087,0,0.98052,-0.59279,-0.96362,-0.95248,66.7,-0.8363,0.36538,0.0024975,0.52,0.12,0
0.20799,0.05295,0.46574,-0.93587,-0.54186,-0.90905,0.12539,0,0,-0.034857,0.47735,0,0.32603,0,0,1.0025,-0.098236,0,1.0073,-0.50534,-0.97239,-0.90905,73.761,-0.79559,0.43882,0.0040369,0.54,0.12,0
0.20641,0.05699,0.44546,-0.95781,-0.4656,-0.87248,0.097416,0,0,-0.11093,0.52894,0,0.25328,0,0,1.0202,-0.076051,0,1.023,-0.44702,-0.97639,-0.87248,79.202,-0.76529,0.48582,0.004993,0.56,0.12,0
0.20355,0.059854,0.42492,-0.96862,-0.41843,-0.84104,0.068908,0,0,-0.16585,0.54939,0,0.17916,0,0,1.03,-0.059145,0,1.0317,-0.40993,-0.97712,-0.84104,82.969,-0.7427,0.51287,0.0053191,0.58,0.12,0
0.19978,0.061527,0.40426,-0.97023,-0.38498,-0.81082,0.045894,0,0,-0.20723,0.55359,0,0.11932,0,0,1.0356,-0.046261,0,1.0366,-0.3814,-0.97381,-0.81082,85.543,-0.72201,0.53005,0.0052812,0.6,0.12,0
0.19526,0.062199,0.3835,-0.9693,-0.36003,-0.7823,0.028824,0,0,-0.2431,0.54895,0,0.074942,0,0,1.0394,-0.0362,0,1.04,-0.35867,-0.97066,-0.7823,87.297,-0.70388,0.5429,0.0050078,0.62,0.12,0
0.19006,0.062057,0.36268,-0.96816,-0.34038,-0.75524,0.016279,0,0,-0.27679,0.53932,0,0.042327,0,0,1.0422,-0.028074,0,1.0426,-0.33996,-0.96858,-0.75524,88.516,-0.68793,0.55369,0.0045582,0.64,0.12,0
0.18419,0.061262,0.34181,-0.96755,-0.32426,-0.72936,0.0069357,0,0,-0.30965,0.52663,0,0.018033,0,0,1.0444,-0.021254,0,1.0446,-0.32418,-0.96763,-0.72936,89.382,-0.67372,0.56346,0.0039629,0.66,0.12,0
0.17767,0.059946,0.32091,-0.96757,-0.31062,-0.70436,-0.00028032,0,0,-0.34216,0.51187,0,-0.00072882,0,0,1.0461,-0.015278,0,1.0463,-0.31062,-0.96757,-0.70436,-89.976,-0.66085,0.57266,0.003241,0.68,0.12,0
0.1705,0.058209,0.29997,-0.96807,-0.29884,-0.68004,-0.0061866,0,0,-0.37444,0.49556,0,-0.016085,0,0,1.0476,-0.0097817,0,1.0476,-0.29878,-0.96813,-0.68004,-89.47,-0.64899,0.58154,0.0024067,0.7,0.12,0
0.16269,0.056129,0.279,-0.9689,-0.28853,-0.65623,-0.011415,0,0,-0.40647,0.47802,0,-0.029679,0,0,1.0487,-0.0044516,0,1.0488,-0.28834,-0.96909,-0.65623,-89.039,-0.63789,0.5902,0.0014726,0.72,0.12,0
0.15424,0.053767,0.25802,-0.96987,-0.27944,-0.63281,-0.016467,0,0,-0.43818,0.45938,0,-0.042813,0,0,1.0496,0.0010073,0,1.0496,-0.27905,-0.97027,-0.63281,-88.635,-0.62738,0.59867,0.00045022,0.74,0.12,0
0.14517,0.051166,0.23702,-0.97079,-0.27148,-0.6097,-0.021752,0,0,-0.46942,0.43969,0,-0.056555,0,0,1.0501,0.0069029,0,1.0501,-0.2708,-0.97147,-0.6097,-88.22,-0.61732,0.6069,-0.00064861,0.76,0.12,0
0.13547,0.048362,0.21602,-0.97139,-0.26463,-0.58682,-0.027618,0,0,-0.49994,0.41885,0,-0.071806,0,0,1.0502,0.013588,0,1.0502,-0.26355,-0.97247,-0.58682,-87.766,-0.60762,0.61473,-0.0018098,0.78,0.12,0
0.12517,0.045385,0.19501,-0.97122,-0.25906,-0.5641,-0.034348,0,0,-0.52926,0.39655,0,-0.089305,0,0,1.0497,0.021502,0,1.0499,-0.25741,-0.97287,-0.5641,-87.245,-0.59813,0.62171,-0.0030125,0.8,0.12,0
0.1143,0.042264,0.17403,-0.96939,-0.25513,-0.54139,-0.042089,0,0,-0.55641,0.37213,0,-0.10943,0,0,1.0482,0.031231,0,1.0486,-0.25266,-0.97186,-0.54139,-86.639,-0.58864,0.62687,-0.0042182,0.82,0.12,0
0.10291,0.039045,0.15309,-0.96432,-0.25361,-0.51847,-0.050637,0,0,-0.57961,0.34431,0,-0.13166,0,0,1.0449,0.043579,0,1.0458,-0.25002,-0.96791,-0.51847,-85.945,-0.5788,0.62826,-0.0053518,0.84,0.12,0
0.091114,0.035813,0.13223,-0.95312,-0.25556,-0.49484,-0.058375,0,0,-0.59577,0.31106,0,-0.15177,0,0,1.0378,0.0596,0,1.0395,-0.25071,-0.95797,-0.49484,-85.249,-0.56784,0.62222,-0.0062626,0.86,0.12,0
0.079081,0.032791,0.11157,-0.93762,-0.26499,-0.47236,-0.061382,0,0,-0.60484,0.26958,0,-0.15959,0,0,1.0234,0.080299,0,1.0265,-0.25943,-0.94318,-0.47236,-84.828,-0.55832,0.60602,-0.0068563,0.88,0.12,0
0.06692,0.030354,0.091296,-0.92004,-0.27325,-0.44928,-0.053026,0,0,-0.61198,0.22884,0,-0.13787,0,0,0.99847,0.10085,0,1.0036,-0.26893,-0.92435,-0.44928,-85.344,-0.54752,0.58643,-0.007151,0.9,0.12,0
0.054602,0.028895,0.071635,-0.90342,-0.26213,-0.4213,-0.036397,0,0,-0.62675,0.20692,0,-0.094633,0,0,0.96351,0.11281,0,0.97032,-0.26007,-0.90548,-0.4213,-86.762,-0.52895,0.58179,-0.0075566,0.92,0.12,0
0.041849,0.028433,0.052756,-0.88826,-0.22414,-0.38648,-0.019941,0,0,-0.65232,0.21104,0,-0.051847,0,0,0.92432,0.10612,0,0.9306,-0.22354,-0.88886,-0.38648,-88.282,-0.49963,0.60066,-0.0084308,0.94,0.12,0
0.028509,0.028518,0.034663,-0.87773,-0.18228,-0.35267,-0.011373,0,0,-0.68259,0.2215,0,-0.029571,0,0,0.88959,0.080846,0,0.8933,-0.18209,-0.87792,-0.35267,-89.063,-0.47089,0.62815,-0.0096359,0.96,0.12,0
0.014546,0.028702,0.017172,-0.87221,-0.15039,-0.32395,-0.0059398,0,0,-0.71273,0.22563,0,-0.015444,0,0,0.86657,0.04273,0,0.86749,-0.15035,-0.87226,-0.32395,-89.529,-0.44885,0.65266,-0.010945,0.98,0.12,0
0,0.028768,0,-0.84853,-0.11501,-0.28906,0.0012756,0,0,-0.72731,0.22627,0,0.0033165,0,0,0.85861,-1.3878e-17,0,0.85842,-0.11501,-0.84853,-0.28906,89.9,-0.41753,0.66383,-0.011614,1,0.12,0
0,0.045962,1,-0.76133,-1.5388,-1.69,0.0083996,0,0,1.2073,0.19662,0,0.021839,0,0,0.59505,3.6013e-15,0,0.59437,-0.76123,-1.5389,-1.69,0.61893,-1.33,0.8632,0.029648,0,0.14,0
0.024146,0.046399,0.9881,-0.74706,-1.5188,-1.6679,0.049473,0,0,1.197,0.19379,0,0.12863,0,0,0.59338,-0.069682,0,0.59671,-0.7439,-1.5219,-1.6679,3.6531,-1.3112,0.86033,0.029559,0.02,0.14,0
0.047881,0.047809,0.97627,-0.74666,-1.5139,-1.6544,0.10593,0,0,1.1801,0.18266,0,0.27542,0,0,0.58684,-0.14664,0,0.60388,-0.7323,-1.5283,-1.6544,7.718,-1.305,0.86598,0.030981,0.04,0.14,0
0.071351,0.050248,0.96462,-0.73001,-1.524,-1.6408,0.18067,0,0,1.1841,0.15189,0,0.46975,0,0,0.57063,-0.24167,0,0.61798,-0.69083,-1.5632,-1.6408,12.235,-1.2983,0.91365,0.038217,0.06,0.14,0
0.095244,0.054262,0.95344,-0.56907,-1.5342,-1.5844,0.23679,0,0,1.32,0.06529,0,0.61566,0,0,0.47429,-0.37742,0,0.60248,-0.5141,-1.5892,-1.5844,13.069,-1.2292,1.0727,0.063391,0.08,0.14,0
0.12415,0.054287,0.94565,-0.49301,-1.1736,-1.0516,0.21869,0,0,0.744,-0.27192,0,1.412,0,0,0.33316,-0.36757,0,0.51976,-0.40337,-1.2633,-1.0516,26.535,-0.90609,0.78407,0.05295,0.1,0.14,0
0.125,0.078801,0.91241,-0.40481,-0.49527,-0.42209,0.10678,0,0,0.1348,-0.57076,0,1.6657,0,0,0.25683,-0.091148,0,0.27287,-0.33408,-0.566,-0.42209,33.522,-0.44072,0.20279,-0.00017259,0.12,0.14,0
0.12954,0.091992,0.88401,-0.36925,-0.4757,-0.40082,0.071589,0,0,0.24622,-0.58405,0,1.1168,0,0,0.22786,-0.068187,0,0.23778,-0.33327,-0.51168,-0.40082,26.686,-0.41526,0.15602,-7.9136e-05,0.14,0.14,0
0.13485,0.099345,0.85772,-0.35345,-0.46362,-0.38808,0.04896,0,0,0.27011,-0.58928,0,0.76377,0,0,0.21529,-0.050421,0,0.22104,-0.33483,-0.48224,-0.38808,20.814,-0.40171,0.12928,-5.0931e-05,0.16,0.14,0
0.14035,0.10331,0.83235,-0.34329,-0.45143,-0.37714,0.032518,0,0,0.26404,-0.57948,0,0.50728,0,0,0.2097,-0.035926,0,0.21269,-0.33426,-0.46046,-0.37714,15.511,-0.39062,0.11114,-3.6787e-05,0.18,0.14,0
0.14541,0.10474,0.8074,-0.33797,-0.44026,-0.36804,0.01906,0,0,0.23451,-0.56337,0,0.29734,0,0,0.20724,-0.02331,0,0.20849,-0.33453,-0.4437,-0.36804,10.219,-0.38209,0.096861,-2.8549e-05,0.2,0.14,0
0.14973,0.10422,0.78261,-0.3356,-0.42968,-0.36002,0.0071979,0,0,0.19044,-0.54334,0,0.11229,0,0,0.20676,-0.011508,0,0.20702,-0.33506,-0.43023,-0.36002,4.3501,-0.3751,0.085468,-2.3083e-05,0.22,0.14,0
0.15303,0.102,0.75777,-0.33576,-0.41954,-0.35289,-0.0043403,0,0,0.13359,-0.51993,0,-0.067709,0,0,0.20795,0.00037906,0,0.20789,-0.33554,-0.41977,-0.35289,-2.9575,-0.3694,0.077037,-1.9525e-05,0.24,0.14,0
0.15507,0.098181,0.7327,-0.33888,-0.40976,-0.34671,-0.016745,0,0,0.061036,-0.49178,0,-0.26123,0,0,0.21109,0.013262,0,0.21144,-0.33513,-0.41351,-0.34671,-12.646,-0.36512,0.073286,-1.8525e-05,0.26,0.14,0
0.15547,0.092603,0.70711,-0.34681,-0.40046,-0.34203,-0.03119,0,0,-0.037285,-0.45571,0,-0.48656,0,0,0.2173,0.028243,0,0.21905,-0.3325,-0.41477,-0.34203,-24.653,-0.3631,0.077944,-2.3099e-05,0.28,0.14,0
0.15358,0.084952,0.68055,-0.36133,-0.39082,-0.33907,-0.049947,0,0,-0.17362,-0.40366,0,-0.77918,0,0,0.23036,0.046816,0,0.23498,-0.32399,-0.42815,-0.33907,-36.776,-0.36374,0.097498,-4.379e-05,0.3,0.14,0
0.14853,0.073915,0.65183,-0.39417,-0.38637,-0.3428,-0.077049,0,0,-0.40066,-0.33986,0,-1.202,0,0,0.26002,0.071194,0,0.2699,-0.31312,-0.46742,-0.3428,-46.448,-0.37444,0.1418,-0.0001251,0.32,0.14,0
0.13755,0.056313,0.61814,-0.4571,-0.76901,-0.72842,-0.17197,0,0,0.12404,-0.090474,0,-1.0808,0,0,0.34222,0.31071,0,0.4853,-0.35165,-0.87446,-0.72842,-35.651,-0.65151,0.4796,0.010517,0.34,0.14,0
0.15349,0.056312,0.61007,-0.55027,-0.98169,-1.0696,-0.19494,0,0,0.6752,0.11436,0,-0.50684,0,0,0.49888,0.28522,0,0.57095,-0.47524,-1.0567,-1.0696,-21.052,-0.86721,0.58806,0.010427,0.36,0.14,0
0.16456,0.052209,0.59819,-0.70198,-0.96623,-1.0986,-0.15623,0,0,0.51567,0.17214,0,-0.40619,0,0,0.61713,0.14885,0,0.63338,-0.6295,-1.0387,-1.0986,-24.889,-0.92229,0.44224,0.0041683,0.38,0.14,0
0.17412,0.048951,0.58538,-0.74073,-0.94207,-1.0902,-0.095535,0,0,0.45434,0.19259,0,-0.24839,0,0,0.6582,0.052514,0,0.65953,-0.70261,-0.98019,-1.0902,-21.75,-0.92434,0.34597,0.0014242,0.4,0.14,0
0.18273,0.046451,0.57186,-0.76265,-0.92343,-1.0777,-0.046846,0,0,0.40954,0.20053,0,-0.1218,0,0,0.69445,-0.025315,0,0.69448,-0.75,-0.93608,-1.0777,-15.116,-0.92125,0.28465,0.00027541,0.42,0.14,0
0.1905,0.044858,0.5576,-0.78229,-0.90836,-1.0648,-0.0029345,0,0,0.36726,0.20337,0,-0.0076296,0,0,0.736,-0.09376,0,0.74177,-0.78223,-0.90843,-1.0648,-1.3327,-0.91848,0.24518,-0.00013901,0.44,0.14,0
0.19742,0.044382,0.54242,-0.80401,-0.89802,-1.053,0.041887,0,0,0.32372,0.20151,0,0.10891,0,0,0.7922,-0.1557,0,0.80764,-0.78805,-0.91397,-1.053,20.853,-0.91835,0.22957,-5.3273e-05,0.46,0.14,0
0.20345,0.045597,0.52592,-0.83369,-0.88477,-1.0414,0.098382,0,0,0.2701,0.20368,0,0.25579,0,0,0.8639,-0.20184,0,0.88822,-0.75758,-0.96087,-1.0414,37.723,-0.91997,0.25338,0.00055946,0.48,0.14,0
0.20823,0.049544,0.50786,-0.88621,-0.8282,-1.0222,0.15957,0,0,0.17677,0.25218,0,0.4149,0,0,0.93937,-0.19965,0,0.96108,-0.69501,-1.0194,-1.0222,50.151,-0.9122,0.32578,0.0017754,0.5,0.14,0
0.21052,0.056104,0.48834,-0.91457,-0.63316,-0.95266,0.18621,0,0,0.049519,0.41535,0,0.48414,0,0,0.99871,-0.16415,0,1.0122,-0.54047,-1.0072,-0.95266,63.538,-0.83346,0.44202,0.0042082,0.52,0.14,0
0.21021,0.06284,0.46791,-0.94918,-0.48985,-0.89962,0.14756,0,0,-0.064421,0.5327,0,0.38365,0,0,1.0315,-0.11283,0,1.0375,-0.44653,-0.99249,-0.89962,73.64,-0.77955,0.50596,0.0059038,0.54,0.14,0
0.20794,0.067943,0.44708,-0.97287,-0.43278,-0.86878,0.10199,0,0,-0.13533,0.5668,0,0.26518,0,0,1.0436,-0.082704,0,1.0468,-0.41416,-0.99149,-0.86878,79.655,-0.75814,0.52681,0.0061573,0.56,0.14,0
0.2048,0.071098,0.42617,-0.96872,-0.39413,-0.83502,0.067114,0,0,-0.17381,0.57317,0,0.1745,0,0,1.0465,-0.062852,0,1.0483,-0.38639,-0.97646,-0.83502,83.426,-0.73262,0.5336,0.0059941,0.58,0.14,0
0.20099,0.072768,0.40522,-0.96267,-0.36747,-0.80427,0.044004,0,0,-0.20593,0.56783,0,0.11441,0,0,1.0479,-0.04879,0,1.049,-0.36424,-0.96591,-0.80427,85.794,-0.71147,0.53933,0.0056845,0.6,0.14,0
0.19656,0.073285,0.38426,-0.95867,-0.34725,-0.77603,0.028153,0,0,-0.23743,0.55742,0,0.073197,0,0,1.0489,-0.03819,0,1.0496,-0.34595,-0.95996,-0.77603,87.369,-0.69398,0.5458,0.0052661,0.62,0.14,0
0.19149,0.072911,0.36327,-0.95715,-0.33088,-0.74967,0.016959,0,0,-0.26971,0.54444,0,0.044094,0,0,1.0499,-0.029771,0,1.0503,-0.33042,-0.95761,-0.74967,88.45,-0.67923,0.55334,0.0047425,0.64,0.14,0
0.18577,0.07184,0.34226,-0.95754,-0.31696,-0.72461,0.0086893,0,0,-0.30282,0.52994,0,0.022592,0,0,1.051,-0.022757,0,1.0512,-0.31684,-0.95766,-0.72461,89.223,-0.66637,0.5618,0.0041113,0.66,0.14,0
0.17938,0.070217,0.32123,-0.95928,-0.30473,-0.70043,0.0022368,0,0,-0.3365,0.51441,0,0.0058158,0,0,1.052,-0.016625,0,1.0522,-0.30472,-0.95929,-0.70043,89.804,-0.65481,0.57099,0.0033715,0.68,0.14,0
0.17231,0.068151,0.30018,-0.96191,-0.29374,-0.67687,-0.0031637,0,0,-0.37055,0.49807,0,-0.0082257,0,0,1.0532,-0.010985,0,1.0532,-0.29373,-0.96192,-0.67687,-89.729,-0.64417,0.58075,0.0025245,0.7,0.14,0
0.16456,0.065724,0.2791,-0.96513,-0.28374,-0.65376,-0.0080761,0,0,-0.40478,0.48103,0,-0.020998,0,0,1.0543,-0.0055148,0,1.0543,-0.28364,-0.96523,-0.65376,-89.321,-0.63421,0.591,0.0015732,0.72,0.14,0
0.15612,0.062997,0.258,-0.96877,-0.27456,-0.63101,-0.01295,0,0,-0.43909,0.46337,0,-0.03367,0,0,1.0554,9.0333e-05,0,1.0554,-0.27432,-0.96901,-0.63101,-88.932,-0.62478,0.60169,0.00052079,0.74,0.14,0
0.14699,0.060016,0.23689,-0.97271,-0.26616,-0.60855,-0.018179,0,0,-0.47341,0.4451,0,-0.047264,0,0,1.0566,0.0061499,0,1.0566,-0.26569,-0.97318,-0.60855,-88.527,-0.6158,0.6128,-0.0006297,0.76,0.14,0
0.13718,0.056813,0.21574,-0.97687,-0.25855,-0.58637,-0.02415,0,0,-0.50765,0.42616,0,-0.062789,0,0,1.0577,0.013043,0,1.0578,-0.25774,-0.97768,-0.58637,-88.077,-0.60726,0.62427,-0.0018756,0.78,0.14,0
0.12669,0.053412,0.19458,-0.98109,-0.25191,-0.56448,-0.031296,0,0,-0.5416,0.40633,0,-0.081369,0,0,1.0589,0.021268,0,1.0591,-0.25057,-0.98243,-0.56448,-87.547,-0.59916,0.63594,-0.0032128,0.8,0.14,0
0.11552,0.049829,0.17339,-0.98493,-0.24662,-0.54285,-0.040168,0,0,-0.5747,0.3851,0,-0.10444,0,0,1.06,0.031559,0,1.0604,-0.24444,-0.9871,-0.54285,-86.895,-0.59146,0.64729,-0.0046279,0.82,0.14,0
0.1037,0.046079,0.15218,-0.98697,-0.24339,-0.52128,-0.05138,0,0,-0.60539,0.36127,0,-0.13359,0,0,1.0606,0.045097,0,1.0615,-0.23985,-0.9905,-0.52128,-86.066,-0.58388,0.65682,-0.0060713,0.84,0.14,0
0.091303,0.042194,0.13096,-0.9835,-0.24382,-0.49916,-0.065631,0,0,-0.62964,0.33194,0,-0.17064,0,0,1.0597,0.063994,0,1.0616,-0.23804,-0.98928,-0.49916,-84.969,-0.57549,0.66059,-0.0073903,0.86,0.14,0
0.078514,0.038246,0.10979,-0.96222,-0.24918,-0.47321,-0.079238,0,0,-0.63572,0.29124,0,-0.20602,0,0,1.0499,0.092228,0,1.0538,-0.24049,-0.97092,-0.47321,-83.735,-0.56154,0.64631,-0.0080496,0.88,0.14,0
0.065874,0.034825,0.088966,-0.94114,-0.28485,-0.45676,-0.082962,0,0,-0.62969,0.22349,0,-0.2157,0,0,1.021,0.13934,0,1.0306,-0.27452,-0.95147,-0.45676,-82.906,-0.56092,0.60671,-0.0080776,0.9,0.14,0
0.053326,0.032823,0.068947,-0.91725,-0.29556,-0.43279,-0.058027,0,0,-0.62979,0.1784,0,-0.15087,0,0,0.96898,0.16897,0,0.98416,-0.29019,-0.92261,-0.43279,-84.713,-0.54853,0.57456,-0.0077556,0.92,0.14,0
0.040682,0.032503,0.050207,-0.88114,-0.23146,-0.38399,-0.038284,0,0,-0.6463,0.19829,0,-0.099538,0,0,0.90555,0.16597,0,0.92131,-0.22921,-0.88339,-0.38399,-86.639,-0.49886,0.59216,-0.0082587,0.94,0.14,0
0.027474,0.032849,0.032725,-0.86358,-0.19093,-0.34908,-0.026807,0,0,-0.66885,0.20559,0,-0.069697,0,0,0.85115,0.11822,0,0.85929,-0.18986,-0.86465,-0.34908,-87.722,-0.46786,0.61094,-0.0090849,0.96,0.14,0
0.013928,0.033083,0.016161,-0.84758,-0.16266,-0.31923,-0.015438,0,0,-0.68685,0.20354,0,-0.040138,0,0,0.81813,0.059508,0,0.81997,-0.16232,-0.84793,-0.31923,-88.71,-0.44316,0.62218,-0.0097677,0.98,0.14,0
0,0.033145,0,-0.82111,-0.13027,-0.28541,0.001194,0,0,-0.69641,0.20169,0,0.0031045,0,0,0.80803,1.0408e-17,0,0.80766,-0.13027,-0.82111,-0.28541,89.901,-0.41226,0.62782,-0.010141,1,0.14,0
0,0.049205,1,-0.68148,-1.5807,-1.6786,0.0065996,0,0,1.2963,0.12734,0,0.017159,0,0,0.52676,3.0982e-15,0,0.52611,-0.68143,-1.5808,-1.6786,0.42047,-1.3136,0.95206,0.042745,0,0.16,0
0.025927,0.049549,0.98947,-0.66256,-1.5642,-1.6575,0.046434,0,0,1.2934,0.12126,0,0.12073,0,0,0.52187,-0.064029,0,0.52511,-0.66018,-1.5666,-1.6575,2.9402,-1.2948,0.95513,0.043388,0.02,0.16,0
0.051737,0.050574,0.97913,-0.64173,-1.5644,-1.641,0.09589,0,0,1.299,0.099521,0,0.24931,0,0,0.50494,-0.13262,0,0.52131,-0.63187,-1.5743,-1.641,5.8709,-1.2824,0.97746,0.047212,0.04,0.16,0
0.077887,0.052185,0.96927,-0.58377,-1.578,-1.6178,0.13967,0,0,1.3442,0.051733,0,0.36314,0,0,0.46384,-0.21061,0,0.50873,-0.56452,-1.5973,-1.6178,7.8467,-1.2599,1.0432,0.058225,0.06,0.16,0
0.10551,0.053173,0.96057,-0.53582,-1.6602,-1.6194,0.15463,0,0,1.4086,-0.053061,0,0.40204,0,0,0.38758,-0.30131,0,0.49283,-0.51495,-1.6811,-1.6194,7.6896,-1.2718,1.1365,0.074651,0.08,0.16,0
0.13423,0.051501,0.95376,-0.44829,-1.0459,-1.0046,0.10969,0,0,0.74861,-0.091942,0,0.85202,0,0,0.3052,-0.19872,0,0.3798,-0.40198,-1.0922,-1.0046,24.065,-0.83292,0.65828,0.039819,0.1,0.16,0
0.13545,0.070164,0.92136,-0.39274,-0.45395,-0.40757,0.076591,0,0,0.11568,-0.36182,0,1.1948,0,0,0.2598,-0.062199,0,0.26741,-0.34086,-0.50583,-0.40757,34.108,-0.41809,0.14373,-4.9416e-05,0.12,0.16,0
0.13886,0.081968,0.89141,-0.37268,-0.45351,-0.39643,0.055187,0,0,0.18521,-0.44526,0,0.86092,0,0,0.24156,-0.054146,0,0.24763,-0.34469,-0.4815,-0.39643,26.892,-0.40754,0.11965,-3.5817e-05,0.14,0.16,0
0.14286,0.088993,0.86338,-0.3607,-0.44658,-0.38608,0.039213,0,0,0.19798,-0.47187,0,0.61172,0,0,0.22894,-0.043013,0,0.23293,-0.34549,-0.46179,-0.38608,21.202,-0.39778,0.10224,-2.7165e-05,0.16,0.16,0
0.14678,0.092865,0.83647,-0.35317,-0.4385,-0.37691,0.026679,0,0,0.1852,-0.48039,0,0.41619,0,0,0.22192,-0.032155,0,0.2242,-0.34551,-0.44615,-0.37691,16.009,-0.38953,0.089188,-2.18e-05,0.18,0.16,0
0.15027,0.094474,0.81012,-0.34847,-0.42933,-0.36836,0.0161,0,0,0.15515,-0.47556,0,0.25116,0,0,0.21857,-0.021877,0,0.21962,-0.34538,-0.43242,-0.36836,10.857,-0.38205,0.078123,-1.7534e-05,0.2,0.16,0
0.15298,0.094283,0.78401,-0.34658,-0.4196,-0.36052,0.0065423,0,0,0.10872,-0.46078,0,0.10206,0,0,0.21785,-0.011913,0,0.21814,-0.346,-0.42018,-0.36052,5.08,-0.37557,0.068088,-1.3759e-05,0.22,0.16,0
0.15462,0.092557,0.75784,-0.3474,-0.40931,-0.35332,-0.0026465,0,0,0.046196,-0.43675,0,-0.041285,0,0,0.21947,-0.0018576,0,0.21944,-0.34729,-0.40943,-0.35332,-2.4431,-0.37001,0.059355,-1.0366e-05,0.24,0.16,0
0.15483,0.089396,0.73134,-0.35123,-0.39837,-0.34677,-0.012049,0,0,-0.034773,-0.40251,0,-0.18796,0,0,0.22371,0.0087055,0,0.22385,-0.34833,-0.40128,-0.34677,-13.536,-0.36546,0.053743,-7.9498e-06,0.26,0.16,0
0.15323,0.084752,0.70415,-0.35845,-0.38631,-0.34079,-0.022289,0,0,-0.1378,-0.35505,0,-0.3477,0,0,0.23165,0.020077,0,0.23251,-0.3461,-0.39866,-0.34079,-29.001,-0.36185,0.05541,-8.4675e-06,0.28,0.16,0
0.14932,0.078311,0.67574,-0.37047,-0.37301,-0.33567,-0.034126,0,0,-0.27145,-0.29129,0,-0.53237,0,0,0.24532,0.032039,0,0.24749,-0.33759,-0.40589,-0.33567,-43.933,-0.35972,0.069281,-1.7035e-05,0.3,0.16,0
0.14237,0.069307,0.64527,-0.38897,-0.35489,-0.3307,-0.048799,0,0,-0.45446,-0.18867,0,-0.76127,0,0,0.26503,0.041463,0,0.26855,-0.32024,-0.42362,-0.3307,-54.623,-0.35819,0.098563,-4.7314e-05,0.32,0.16,0
0.13114,0.056376,0.61214,-0.42964,-0.67528,-0.68856,-0.070333,0,0,0.10271,0.029589,0,-0.54699,0,0,0.31624,0.13242,0,0.35286,-0.37071,-0.73421,-0.68856,-35.172,-0.59783,0.35951,0.0054242,0.34,0.16,0
0.14648,0.056521,0.60501,-0.51895,-1.0762,-1.0836,-0.10776,0,0,0.73399,0.0095364,0,-0.28018,0,0,0.41283,0.18844,0,0.45726,-0.49884,-1.0963,-1.0836,-10.572,-0.89291,0.59122,0.010597,0.36,0.16,0
0.1605,0.054565,0.59562,-0.5728,-1.0122,-1.0711,-0.098152,0,0,0.6478,0.076647,0,-0.2552,0,0,0.50886,0.096318,0,0.51761,-0.55187,-1.0331,-1.0711,-12.038,-0.88535,0.5013,0.0063449,0.38,0.16,0
0.17239,0.051957,0.58466,-0.64565,-0.98714,-1.0745,-0.061728,0,0,0.55749,0.11356,0,-0.16049,0,0,0.57294,0.01397,0,0.57263,-0.63484,-0.99796,-1.0745,-9.9381,-0.90243,0.40682,0.0030497,0.4,0.16,0
0.1828,0.049826,0.57271,-0.69501,-0.96707,-1.0713,-0.016601,0,0,0.48922,0.13554,0,-0.043164,0,0,0.61865,-0.061855,0,0.62128,-0.694,-0.96808,-1.0713,-3.4791,-0.91113,0.33775,0.0013733,0.42,0.16,0
0.19196,0.048427,0.55991,-0.74017,-0.95394,-1.0681,0.028717,0,0,0.42636,0.14847,0,0.074664,0,0,0.6637,-0.13693,0,0.67728,-0.73638,-0.95773,-1.0681,7.5195,-0.92075,0.29262,0.00069671,0.44,0.16,0
0.19986,0.047958,0.54616,-0.78382,-0.94603,-1.0651,0.07853,0,0,0.36568,0.15481,0,0.20418,0,0,0.72594,-0.21753,0,0.7576,-0.75203,-0.97782,-1.0651,22.038,-0.93166,0.27984,0.00076731,0.46,0.16,0
0.20658,0.049136,0.53087,-0.8485,-0.96571,-1.0751,0.14691,0,0,0.29462,0.14225,0,0.38197,0,0,0.83801,-0.31066,0,0.89524,-0.74894,-1.0653,-1.0751,34.126,-0.96312,0.32138,0.0016995,0.48,0.16,0
0.21164,0.053946,0.51264,-0.93241,-0.9345,-1.0727,0.25107,0,0,0.18238,0.17968,0,0.65279,0,0,0.9687,-0.36649,0,1.0401,-0.68238,-1.1845,-1.0727,44.881,-0.97987,0.45663,0.0039191,0.5,0.16,0
0.21388,0.064827,0.49212,-0.91961,-0.4961,-0.91683,0.2186,0,0,-0.0036028,0.54696,0,0.56836,0,0,1.0597,-0.16946,0,1.071,-0.40351,-1.0122,-0.91683,67.044,-0.77751,0.56705,0.0084788,0.52,0.16,0
0.2115,0.074258,0.47025,-1.0056,-0.45119,-0.9073,0.14484,0,0,-0.12785,0.59294,0,0.37657,0,0,1.084,-0.1108,0,1.0895,-0.41564,-1.0412,-0.9073,76.208,-0.78805,0.57052,0.0077954,0.54,0.16,0
0.20876,0.079662,0.44877,-0.97235,-0.40179,-0.86101,0.088359,0,0,-0.14475,0.59698,0,0.22973,0,0,1.0702,-0.08033,0,1.0732,-0.38842,-0.98572,-0.86101,81.395,-0.74505,0.54574,0.0069008,0.56,0.16,0
0.20571,0.08278,0.42744,-0.95145,-0.37263,-0.82466,0.059249,0,0,-0.16482,0.58764,0,0.15405,0,0,1.0639,-0.061391,0,1.0656,-0.36663,-0.95745,-0.82466,84.215,-0.71625,0.53689,0.0063391,0.58,0.16,0
0.20217,0.084241,0.40621,-0.94162,-0.35215,-0.79434,0.040847,0,0,-0.19146,0.57484,0,0.1062,0,0,1.0603,-0.048142,0,1.0614,-0.34934,-0.94444,-0.79434,86.055,-0.69604,0.53605,0.0058698,0.6,0.16,0
0.19805,0.084496,0.38503,-0.93876,-0.33614,-0.7675,0.028527,0,0,-0.22264,0.56076,0,0.07417,0,0,1.0584,-0.038139,0,1.0591,-0.3348,-0.94011,-0.7675,87.296,-0.6808,0.54011,0.0053935,0.62,0.16,0
0.19327,0.083834,0.36387,-0.9399,-0.32255,-0.74261,0.019624,0,0,-0.25648,0.54607,0,0.051023,0,0,1.0576,-0.030138,0,1.058,-0.32193,-0.94052,-0.74261,88.181,-0.66835,0.54718,0.0048544,0.64,0.16,0
0.18779,0.08246,0.34272,-0.94334,-0.31044,-0.71886,0.012807,0,0,-0.29183,0.53095,0,0.033297,0,0,1.0575,-0.023417,0,1.0578,-0.31018,-0.9436,-0.71886,88.841,-0.65755,0.55622,0.0042242,0.66,0.16,0
0.18159,0.080522,0.32157,-0.94812,-0.29933,-0.69581,0.007254,0,0,-0.32801,0.51542,0,0.01886,0,0,1.0579,-0.017498,0,1.0581,-0.29925,-0.9482,-0.69581,89.359,-0.64775,0.56661,0.0034888,0.68,0.16,0
0.17467,0.078132,0.30041,-0.95369,-0.28895,-0.6732,0.0024212,0,0,-0.36464,0.49953,0,0.0062951,0,0,1.0587,-0.012027,0,1.0588,-0.28894,-0.9537,-0.6732,89.791,-0.63861,0.57803,0.0026422,0.7,0.16,0
0.16701,0.075371,0.27922,-0.95979,-0.27915,-0.6509,-0.0020978,0,0,-0.40155,0.48328,0,-0.0054544,0,0,1.0598,-0.0067076,0,1.0598,-0.27914,-0.95979,-0.6509,-89.823,-0.62995,0.5903,0.0016814,0.72,0.16,0
0.15861,0.072302,0.25801,-0.96631,-0.26984,-0.62886,-0.0066363,0,0,-0.43869,0.46672,0,-0.017254,0,0,1.0612,-0.0012633,0,1.0612,-0.26978,-0.96638,-0.62886,-89.454,-0.62167,0.60337,0.00060462,0.74,0.16,0
0.14946,0.06897,0.23677,-0.97333,-0.261,-0.60707,-0.011502,0,0,-0.47613,0.4499,0,-0.029906,0,0,1.063,0.0045999,0,1.063,-0.26081,-0.97351,-0.60707,-89.075,-0.6138,0.6173,-0.00059222,0.76,0.16,0
0.13956,0.065409,0.21549,-0.981,-0.25263,-0.58558,-0.017024,0,0,-0.51404,0.43284,0,-0.044262,0,0,1.0653,0.011232,0,1.0653,-0.25223,-0.9814,-0.58558,-88.662,-0.6064,0.63225,-0.0019174,0.78,0.16,0
0.1289,0.061638,0.19416,-0.98965,-0.24485,-0.56451,-0.023621,0,0,-0.55268,0.41556,0,-0.061416,0,0,1.0682,0.019097,0,1.0683,-0.2441,-0.9904,-0.56451,-88.185,-0.59967,0.64846,-0.0033867,0.8,0.16,0
0.11745,0.057668,0.17277,-0.99973,-0.23797,-0.54408,-0.031915,0,0,-0.59235,0.39794,0,-0.082978,0,0,1.072,0.028895,0,1.0724,-0.23663,-1.0011,-0.54408,-87.605,-0.59393,0.66622,-0.0050278,0.82,0.16,0
0.1052,0.053496,0.15128,-1.0118,-0.23265,-0.52461,-0.043059,0,0,-0.63333,0.37956,0,-0.11195,0,0,1.0774,0.041803,0,1.0782,-0.23027,-1.0142,-0.52461,-86.846,-0.58968,0.68585,-0.0068831,0.84,0.16,0
0.092121,0.049091,0.12967,-1.0255,-0.23011,-0.50634,-0.058845,0,0,-0.67485,0.3591,0,-0.153,0,0,1.0849,0.060115,0,1.0866,-0.22578,-1.0298,-0.50634,-85.791,-0.5873,0.7068,-0.0089798,0.86,0.16,0
0.07821,0.04444,0.10788,-1.0343,-0.23289,-0.48804,-0.085158,0,0,-0.71014,0.3317,0,-0.22141,0,0,1.0987,0.089231,0,1.1022,-0.22394,-1.0433,-0.48804,-84.001,-0.58508,0.72432,-0.011133,0.88,0.16,0
0.063715,0.039294,0.085723,-0.9691,-0.2242,-0.44371,-0.11092,0,0,-0.68301,0.28537,0,-0.28839,0,0,1.0752,0.1444,0,1.0829,-0.20803,-0.98527,-0.44371,-81.708,-0.54567,0.69026,-0.010493,0.9,0.16,0
0.05089,0.036031,0.064877,-0.95209,-0.34671,-0.45452,-0.13162,0,0,-0.64684,0.14014,0,-0.34221,0,0,0.99014,0.32592,0,1.0466,-0.31934,-0.97947,-0.45452,-78.249,-0.58444,0.60399,-0.0094337,0.92,0.16,0
0.037841,0.036364,0.046117,-0.88355,-0.25736,-0.38839,-0.082837,0,0,-0.6437,0.17034,0,-0.21538,0,0,0.87357,0.25634,0,0.911,-0.24659,-0.89432,-0.38839,-82.59,-0.50977,0.58976,-0.0085173,0.94,0.16,0
0.025142,0.036741,0.029934,-0.82673,-0.21411,-0.34219,-0.059066,0,0,-0.62991,0.1665,0,-0.15357,0,0,0.78314,0.15849,0,0.79834,-0.20847,-0.83237,-0.34219,-84.543,-0.46101,0.56895,-0.0077266,0.96,0.16,0
0.012645,0.036843,0.014792,-0.79236,-0.1879,-0.30887,-0.031549,0,0,-0.62854,0.15726,0,-0.082027,0,0,0.74834,0.075775,0,0.7515,-0.18626,-0.79401,-0.30887,-87.02,-0.42971,0.55666,-0.0074308,0.98,0.16,0
0,0.036836,0,-0.76233,-0.15761,-0.27598,-0.00015023,0,0,-0.63226,0.15388,0,-0.00039058,0,0,0.73959,1.7347e-17,0,0.73894,-0.15761,-0.76233,-0.27598,-89.986,-0.39865,0.55508,-0.0074553,1,0.16,0
0,0.051056,1,-0.60553,-1.6189,-1.6673,0.0037245,0,0,1.3803,0.062933,0,0.0096837,0,0,0.46699,-1.7347e-15,0,0.46647,-0.60551,-1.6189,-1.6673,0.21057,-1.2973,1.0385,0.057097,0,0.18,0
0.027607,0.05125,0.99066,-0.5861,-1.605,-1.648,0.036085,0,0,1.3804,0.05593,0,0.093821,0,0,0.46076,-0.05402,0,0.46341,-0.58483,-1.6062,-1.648,2.0259,-1.2797,1.0429,0.057944,0.02,0.18,0
0.055217,0.05179,0.98157,-0.56109,-1.606,-1.6317,0.069189,0,0,1.3918,0.033435,0,0.17989,0,0,0.44026,-0.10926,0,0.45322,-0.55653,-1.6105,-1.6317,3.7721,-1.2663,1.0647,0.061912,0.04,0.18,0
0.083278,0.052317,0.97305,-0.52603,-1.6244,-1.6182,0.090821,0,0,1.4198,-0.0080911,0,0.23613,0,0,0.40194,-0.16505,0,0.43467,-0.51857,-1.6319,-1.6182,4.6951,-1.2562,1.1065,0.069546,0.06,0.18,0
0.11201,0.052139,0.96549,-0.48996,-1.6404,-1.6046,0.088122,0,0,1.449,-0.046518,0,0.22912,0,0,0.34425,-0.21093,0,0.40494,-0.48325,-1.6471,-1.6046,4.355,-1.245,1.1432,0.076373,0.08,0.18,0
0.14124,0.05061,0.95928,-0.42047,-1.0011,-0.98606,0.07248,0,0,0.75799,-0.033616,0,0.59535,0,0,0.28839,-0.13652,0,0.32966,-0.38893,-1.0327,-0.98606,23.249,-0.80256,0.62757,0.038579,0.1,0.18,0
0.14233,0.064329,0.92734,-0.38831,-0.43266,-0.40085,0.05661,0,0,0.097773,-0.24813,0,0.88312,0,0,0.25946,-0.042624,0,0.26304,-0.34969,-0.47129,-0.40085,34.305,-0.40727,0.10575,-1.6423e-05,0.12,0.18,0
0.14515,0.074181,0.89701,-0.37316,-0.4375,-0.3927,0.043177,0,0,0.15241,-0.34942,0,0.67357,0,0,0.24705,-0.04068,0,0.25044,-0.35148,-0.45917,-0.3927,26.656,-0.40112,0.094111,-1.6821e-05,0.14,0.18,0
0.14843,0.08047,0.86805,-0.36374,-0.43446,-0.38414,0.03129,0,0,0.15907,-0.39255,0,0.48812,0,0,0.23728,-0.034898,0,0.23985,-0.35189,-0.44632,-0.38414,20.753,-0.39411,0.08314,-1.5251e-05,0.16,0.18,0
0.15151,0.084091,0.84006,-0.35786,-0.42832,-0.37586,0.021691,0,0,0.14044,-0.40916,0,0.33838,0,0,0.23083,-0.027693,0,0.23248,-0.35172,-0.43446,-0.37586,15.81,-0.38735,0.073701,-1.3367e-05,0.18,0.18,0
0.15404,0.085721,0.81265,-0.35443,-0.42055,-0.36794,0.013579,0,0,0.10533,-0.4104,0,0.21183,0,0,0.22748,-0.020104,0,0.22835,-0.35175,-0.42323,-0.36794,11.165,-0.38097,0.064918,-1.1162e-05,0.2,0.18,0
0.15573,0.085787,0.78547,-0.35319,-0.4115,-0.36032,0.0063495,0,0,0.055619,-0.39924,0,0.099051,0,0,0.22678,-0.012407,0,0.2271,-0.3525,-0.41219,-0.36032,6.1426,-0.375,0.056184,-8.5178e-06,0.22,0.18,0
0.15627,0.084535,0.75822,-0.35422,-0.40133,-0.35303,-0.00042469,0,0,-0.009236,-0.37671,0,-0.0066251,0,0,0.22857,-0.0046206,0,0.22859,-0.35422,-0.40133,-0.35303,-0.51643,-0.36953,0.047721,-5.57e-06,0.24,0.18,0
0.15536,0.08208,0.73061,-0.35763,-0.38993,-0.34604,-0.0070869,0,0,-0.090449,-0.34235,0,-0.11056,0,0,0.23302,0.0032423,0,0.23304,-0.35615,-0.39142,-0.34604,-11.848,-0.36453,0.041263,-2.8912e-06,0.26,0.18,0
0.15265,0.078401,0.7023,-0.36374,-0.37707,-0.33929,-0.01398,0,0,-0.19067,-0.29468,0,-0.21808,0,0,0.24064,0.010919,0,0.24091,-0.35491,-0.38589,-0.33929,-32.252,-0.36003,0.04108,-1.903e-06,0.28,0.18,0
0.14773,0.073301,0.67286,-0.37315,-0.36188,-0.33265,-0.021548,0,0,-0.31591,-0.22795,0,-0.33615,0,0,0.25174,0.017392,0,0.25242,-0.34524,-0.38979,-0.33265,-52.331,-0.35589,0.051997,-5.8182e-06,0.3,0.18,0
0.14001,0.066368,0.64188,-0.38757,-0.34185,-0.3258,-0.02927,0,0,-0.48176,-0.12513,0,-0.45661,0,0,0.26582,0.020208,0,0.26671,-0.32757,-0.40185,-0.3258,-63.996,-0.35174,0.075177,-2.178e-05,0.32,0.18,0
0.12846,0.057496,0.60906,-0.40925,-0.64943,-0.67289,-0.035819,0,0,0.10202,0.052272,0,-0.30375,0,0,0.30003,0.061058,0,0.31007,-0.3618,-0.69688,-0.67289,-37.304,-0.57719,0.34102,0.0050829,0.34,0.18,0
0.14409,0.056694,0.60253,-0.47769,-1.0586,-1.0634,-0.03982,0,0,0.76143,0.0062739,0,-0.10353,0,0,0.36819,0.081066,0,0.37915,-0.47498,-1.0613,-1.0634,-3.9032,-0.86656,0.58739,0.010408,0.36,0.18,0
0.15892,0.055275,0.59433,-0.52132,-1.052,-1.0663,-0.035642,0,0,0.70853,0.018584,0,-0.092668,0,0,0.44266,0.031759,0,0.4444,-0.51894,-1.0544,-1.0663,-3.8249,-0.8799,0.54155,0.0081438,0.38,0.18,0
0.17244,0.053493,0.58482,-0.57208,-1.0278,-1.0648,-0.011546,0,0,0.64052,0.048087,0,-0.03002,0,0,0.50003,-0.031278,0,0.50081,-0.57179,-1.0281,-1.0648,-1.4504,-0.88822,0.47571,0.0054183,0.4,0.18,0
0.18454,0.051873,0.57433,-0.62419,-1.0111,-1.0649,0.026067,0,0,0.57293,0.06999,0,0.067775,0,0,0.54355,-0.099234,0,0.55205,-0.62244,-1.0128,-1.0649,3.8373,-0.90006,0.41886,0.0035782,0.42,0.18,0
0.19535,0.050797,0.56308,-0.6752,-1.0027,-1.0664,0.073753,0,0,0.50862,0.082874,0,0.19176,0,0,0.58033,-0.17481,0,0.60533,-0.65936,-1.0186,-1.0664,12.123,-0.91479,0.38538,0.0027871,0.44,0.18,0
0.20488,0.050575,0.55112,-0.74472,-1.0151,-1.0791,0.13129,0,0,0.43464,0.083168,0,0.34134,0,0,0.61848,-0.26724,0,0.67246,-0.69146,-1.0683,-1.0791,22.081,-0.94629,0.38236,0.0028633,0.46,0.18,0
0.21274,0.051287,0.53834,-0.84799,-1.0666,-1.1127,0.23884,0,0,0.34415,0.059946,0,0.62099,0,0,0.71495,-0.39928,0,0.81422,-0.69463,-1.22,-1.1127,32.704,-1.0091,0.48077,0.0047638,0.48,0.18,0
0.21865,0.056731,0.52252,-0.76386,-0.83593,-0.78474,0.29199,0,0,-0.091777,-0.2548,0,1.6786,0,0,0.6062,-0.37995,0,0.72328,-0.50559,-1.0942,-0.78474,41.947,-0.79484,0.5121,0.00056477,0.5,0.18,0
0.21294,0.077982,0.49512,-0.7237,-0.41885,-0.63158,0.19144,0,0,-0.20529,0.014983,0,1.2397,0,0,0.73173,-0.13235,0,0.74916,-0.29907,-0.84347,-0.63158,54.414,-0.59138,0.48501,0.0070351,0.52,0.18,0
0.21044,0.086558,0.47235,-0.62502,-0.37795,-0.57643,0.096109,0,0,-0.1083,0.010622,0,0.76672,0,0,0.65369,-0.09522,0,0.66531,-0.30872,-0.69426,-0.57643,56.643,-0.52647,0.3549,0.0037942,0.54,0.18,0
0.20861,0.091822,0.4503,-0.58941,-0.348,-0.5439,0.067827,0,0,-0.10143,0.0080055,0,0.57474,0,0,0.63759,-0.071981,0,0.64489,-0.29286,-0.64455,-0.5439,56.899,-0.49377,0.32724,0.003365,0.56,0.18,0
0.20638,0.094604,0.42862,-0.58215,-0.3347,-0.52509,0.049376,0,0,-0.12717,0.0070368,0,0.43986,0,0,0.62921,-0.056782,0,0.63399,-0.29,-0.62685,-0.52509,57.133,-0.48064,0.31258,0.003079,0.58,0.18,0
0.20352,0.095762,0.40715,-0.58117,-0.32328,-0.50884,0.037319,0,0,-0.16119,0.0071982,0,0.34398,0,0,0.62482,-0.045576,0,0.628,-0.28634,-0.61811,-0.50884,57.148,-0.47109,0.30612,0.0028906,0.6,0.18,0
0.19993,0.095715,0.38578,-0.58312,-0.31309,-0.4939,0.028354,0,0,-0.19883,0.0079019,0,0.26982,0,0,0.62236,-0.036798,0,0.62448,-0.28266,-0.61355,-0.4939,57.115,-0.46337,0.30375,0.0026897,0.62,0.18,0
0.19557,0.094754,0.36447,-0.58629,-0.3034,-0.47952,0.021342,0,0,-0.23795,0.008744,0,0.21001,0,0,0.62104,-0.029585,0,0.62243,-0.2787,-0.611,-0.47952,57.083,-0.4564,0.30413,0.0024489,0.64,0.18,0
0.19041,0.093078,0.34319,-0.59,-0.29404,-0.46541,0.015571,0,0,-0.27765,0.0095066,0,0.15975,0,0,0.62043,-0.023406,0,0.62132,-0.27455,-0.60949,-0.46541,57.088,-0.44982,0.30649,0.0021534,0.66,0.18,0
0.18446,0.090834,0.32193,-0.5939,-0.2849,-0.45143,0.010601,0,0,-0.31751,0.010077,0,0.11584,0,0,0.62034,-0.01789,0,0.62086,-0.27028,-0.60852,-0.45143,57.154,-0.44341,0.31041,0.0017969,0.68,0.18,0
0.17771,0.088132,0.30066,-0.59786,-0.27592,-0.43752,0.0061135,0,0,-0.35733,0.010425,0,0.075868,0,0,0.62064,-0.012749,0,0.6209,-0.26597,-0.60781,-0.43752,57.309,-0.4371,0.31568,0.001377,0.7,0.18,0
0.17017,0.085055,0.27937,-0.60184,-0.26709,-0.42364,0.0018571,0,0,-0.39711,0.010578,0,0.03788,0,0,0.62128,-0.0077355,0,0.62138,-0.26167,-0.60726,-0.42364,-32.376,-0.43086,0.32219,0.00089242,0.72,0.18,0
0.16183,0.081666,0.25806,-0.60589,-0.25838,-0.40981,-0.0023837,0,0,-0.43696,0.010623,0,0.00016535,0,0,0.62226,-0.0026147,0,0.62226,-0.25745,-0.60682,-0.40981,-30.57,-0.4247,0.32995,0.00034137,0.74,0.18,0
0.15269,0.078012,0.2367,-0.61016,-0.24979,-0.39606,-0.0068135,0,0,-0.47713,0.010697,0,-0.038903,0,0,0.62362,0.0028621,0,0.62362,-0.249,-0.61095,-0.39606,-77.686,-0.41867,0.33902,-0.00027982,0.76,0.18,0
0.14274,0.074127,0.21529,-0.61486,-0.24132,-0.38244,-0.011652,0,0,-0.51797,0.011009,0,-0.081039,0,0,0.62547,0.0089843,0,0.62557,-0.23936,-0.61683,-0.38244,-77.025,-0.41287,0.34956,-0.00097879,0.78,0.18,0
0.13197,0.070034,0.19381,-0.62038,-0.233,-0.36907,-0.017169,0,0,-0.56006,0.01186,0,-0.12828,0,0,0.62799,0.016124,0,0.62835,-0.22964,-0.62374,-0.36907,-76.496,-0.40748,0.36188,-0.0017705,0.8,0.18,0
0.12034,0.065747,0.17223,-0.6273,-0.22491,-0.35613,-0.023773,0,0,-0.60432,0.013697,0,-0.18347,0,0,0.63157,0.024814,0,0.63243,-0.21981,-0.6324,-0.35613,-75.927,-0.40278,0.37652,-0.0026836,0.82,0.18,0
0.1078,0.061261,0.1505,-0.63693,-0.21747,-0.34411,-0.032104,0,0,-0.65256,0.017214,0,-0.25087,0,0,0.63691,0.035912,0,0.63869,-0.21007,-0.64432,-0.34411,-75.287,-0.3995,0.39455,-0.0037814,0.84,0.18,0
0.094239,0.056558,0.12856,-0.6519,-0.21126,-0.33394,-0.043845,0,0,-0.7086,0.023487,0,-0.33956,0,0,0.64583,0.050963,0,0.64931,-0.20059,-0.66257,-0.33394,-74.492,-0.39903,0.41851,-0.0052093,0.86,0.18,0
0.079455,0.051514,0.10622,-0.68483,-0.21384,-0.33156,-0.060778,0,0,-0.78728,0.033985,0,-0.45883,0,0,0.66161,0.073896,0,0.66833,-0.19854,-0.70013,-0.33156,-73.764,-0.41008,0.45421,-0.0075639,0.88,0.18,0
0.062748,0.04624,0.08319,-0.75717,-0.22562,-0.34336,-0.10427,0,0,-0.9222,0.050139,0,-0.68778,0,0,0.73368,0.11053,0,0.74535,-0.19813,-0.78466,-0.34336,-71.887,-0.44205,0.53137,-0.013065,0.9,0.18,0
0.042567,0.038428,0.05591,-0.67138,-0.33194,-0.33361,-0.17404,0,0,-0.85953,-0.06082,0,-1.0002,0,0,0.60695,0.34062,0,0.70163,-0.25737,-0.74595,-0.33361,-65.071,-0.44564,0.45531,-0.0088077,0.92,0.18,0
0.031357,0.039316,0.039953,-0.78232,-0.30027,-0.36473,-0.14836,0,0,-0.54287,0.083797,0,-0.38575,0,0,0.73812,0.32212,0,0.79991,-0.25827,-0.82432,-0.36473,-74.193,-0.48244,0.52104,-0.006255,0.94,0.18,0
0.020852,0.039509,0.026385,-0.71743,-0.25248,-0.31736,-0.094016,0,0,-0.52009,0.084341,0,-0.24444,0,0,0.67058,0.18453,0,0.69386,-0.23419,-0.73572,-0.31736,-78.99,-0.42909,0.46555,-0.0046298,0.96,0.18,0
0.010553,0.039373,0.01313,-0.68717,-0.22296,-0.28617,-0.04677,0,0,-0.52131,0.082171,0,-0.1216,0,0,0.65964,0.085456,0,0.66409,-0.2183,-0.69184,-0.28617,-84.304,-0.39877,0.44352,-0.0041293,0.98,0.18,0
0,0.0393,0,-0.66356,-0.19538,-0.25768,-0.0014026,0,0,-0.52765,0.080995,0,-0.0036469,0,0,0.65648,2.7756e-17,0,0.65556,-0.19537,-0.66357,-0.25768,-89.828,-0.37221,0.44036,-0.0040913,1,0.18,0
0,0.051723,1,-0.54496,-1.6491,-1.6582,0.0012124,0,0,1.4472,0.011835,0,0.0031523,0,0,0.41872,-1.2507e-15,0,0.41835,-0.54496,-1.6491,-1.6582,0.062913,-1.2841,1.1087,0.069987,0,0.2,0
0.028945,0.051786,0.99163,-0.52796,-1.6358,-1.6407,0.023738,0,0,1.4466,0.0064813,0,0.061719,0,0,0.41261,-0.042395,0,0.41446,-0.52745,-1.6363,-1.6407,1.227,-1.2682,1.1111,0.070439,0.02,0.2,0
0.057865,0.051911,0.9835,-0.51091,-1.6342,-1.627,0.043463,0,0,1.451,-0.0093276,0,0.113,0,0,0.39391,-0.083853,0,0.4026,-0.50923,-1.6359,-1.627,2.2125,-1.2574,1.1223,0.072579,0.04,0.2,0
0.086983,0.051861,0.97587,-0.48747,-1.6354,-1.6127,0.053514,0,0,1.4628,-0.02949,0,0.13914,0,0,0.36218,-0.12152,0,0.38226,-0.48498,-1.6379,-1.6127,2.6633,-1.2452,1.1405,0.076077,0.06,0.2,0
0.11638,0.051312,0.96901,-0.46392,-1.6264,-1.5961,0.053121,0,0,1.4718,-0.039342,0,0.13811,0,0,0.31859,-0.15028,0,0.35304,-0.4615,-1.6288,-1.5961,2.6111,-1.2288,1.1513,0.078161,0.08,0.2,0
0.14586,0.050156,0.96313,-0.41203,-0.99265,-0.98323,0.048345,0,0,0.77064,-0.021004,0,0.41617,0,0,0.27847,-0.095643,0,0.30094,-0.39117,-1.0135,-0.98323,21.985,-0.79597,0.61177,0.038563,0.1,0.2,0
0.1472,0.060239,0.93159,-0.38428,-0.41974,-0.39647,0.04187,0,0,0.095094,-0.18149,0,0.65317,0,0,0.25813,-0.030483,0,0.25997,-0.35654,-0.44748,-0.39647,33.525,-0.40016,0.078949,-5.2836e-06,0.12,0.2,0
0.14966,0.067991,0.90117,-0.37301,-0.42602,-0.38991,0.033452,0,0,0.13175,-0.28169,0,0.52185,0,0,0.24929,-0.030378,0,0.25117,-0.35684,-0.4422,-0.38991,25.806,-0.39631,0.074543,-8.0468e-06,0.14,0.2,0
0.15247,0.073291,0.87176,-0.36507,-0.42524,-0.38239,0.025014,0,0,0.13505,-0.33426,0,0.39021,0,0,0.24192,-0.027696,0,0.24352,-0.35603,-0.43428,-0.38239,19.871,-0.3909,0.068958,-8.9285e-06,0.16,0.2,0
0.15506,0.076498,0.84311,-0.36012,-0.4207,-0.37476,0.01777,0,0,0.11426,-0.35832,0,0.27721,0,0,0.23671,-0.023424,0,0.23786,-0.35529,-0.42553,-0.37476,15.198,-0.38519,0.06281,-8.7233e-06,0.18,0.2,0
0.15704,0.078058,0.81495,-0.35737,-0.41393,-0.36722,0.011707,0,0,0.076768,-0.36435,0,0.18263,0,0,0.23386,-0.018374,0,0.23457,-0.35504,-0.41625,-0.36722,11.245,-0.3795,0.056123,-7.6596e-06,0.2,0.2,0
0.15813,0.078313,0.78699,-0.35653,-0.40551,-0.35978,0.0064783,0,0,0.02533,-0.35674,0,0.10106,0,0,0.23333,-0.012991,0,0.23369,-0.35569,-0.40636,-0.35978,7.4081,-0.37394,0.048751,-5.8099e-06,0.22,0.2,0
0.15806,0.077489,0.75895,-0.35754,-0.39564,-0.35245,0.0017794,0,0,-0.039745,-0.3369,0,0.027759,0,0,0.23512,-0.0075226,0,0.23523,-0.35746,-0.39572,-0.35245,2.6684,-0.36854,0.041,-3.362e-06,0.24,0.2,0
0.15654,0.075702,0.73056,-0.3605,-0.38428,-0.34519,-0.0026406,0,0,-0.1194,-0.30487,0,-0.041193,0,0,0.23925,-0.0022208,0,0.23927,-0.36021,-0.38457,-0.34519,-6.261,-0.36333,0.034418,-8.3151e-07,0.26,0.2,0
0.15328,0.072966,0.70153,-0.36564,-0.37115,-0.33796,-0.0070068,0,0,-0.2159,-0.25888,0,-0.10931,0,0,0.2458,0.0024578,0,0.24583,-0.36086,-0.37592,-0.33796,-34.268,-0.35825,0.033111,6.5043e-07,0.28,0.2,0
0.14791,0.069193,0.67157,-0.37347,-0.35545,-0.33061,-0.011328,0,0,-0.33437,-0.1938,0,-0.17671,0,0,0.25461,0.0056618,0,0.25472,-0.34999,-0.37894,-0.33061,-64.252,-0.35318,0.042129,-1.2856e-06,0.3,0.2,0
0.13991,0.064302,0.64042,-0.3842,-0.33512,-0.32254,-0.014866,0,0,-0.48102,-0.098171,0,-0.23192,0,0,0.26508,0.0063077,0,0.26522,-0.33097,-0.38836,-0.32254,-74.397,-0.34729,0.062035,-1.1501e-05,0.32,0.2,0
0.12867,0.058467,0.60795,-0.40266,-0.6559,-0.6722,-0.012549,0,0,0.11622,0.036342,0,-0.12987,0,0,0.28987,0.012329,0,0.29119,-0.3628,-0.69575,-0.6722,-40.171,-0.57692,0.3384,0.0054373,0.34,0.2,0
0.14456,0.056772,0.60177,-0.45221,-1.0575,-1.0547,-0.0017338,0,0,0.78323,-0.0037139,0,-0.0045078,0,0,0.33992,0.0062304,0,0.34132,-0.4522,-1.0576,-1.0547,-0.1641,-0.85482,0.60393,0.011312,0.36,0.2,0
0.15999,0.055308,0.59435,-0.48176,-1.0681,-1.0593,0.012017,0,0,0.75083,-0.011457,0,0.031244,0,0,0.39652,-0.027038,0,0.39795,-0.48151,-1.0684,-1.0593,1.1735,-0.86974,0.58239,0.010137,0.38,0.2,0
0.17459,0.05388,0.58591,-0.51647,-1.0606,-1.059,0.032961,0,0,0.70532,-0.0020282,0,0.0857,0,0,0.44195,-0.073638,0,0.44796,-0.51448,-1.0626,-1.059,3.4541,-0.87869,0.54632,0.0083737,0.4,0.2,0
0.18821,0.052626,0.57668,-0.55037,-1.0501,-1.0568,0.065286,0,0,0.65839,0.0086978,0,0.16974,0,0,0.47512,-0.13051,0,0.49223,-0.54198,-1.0585,-1.0568,7.3211,-0.88578,0.5157,0.0070435,0.42,0.2,0
0.20092,0.051742,0.5669,-0.5768,-1.0466,-1.0539,0.10829,0,0,0.62026,0.0094929,0,0.28156,0,0,0.49569,-0.19883,0,0.53319,-0.55305,-1.0704,-1.0539,12.374,-0.89245,0.50931,0.0067616,0.44,0.2,0
0.21302,0.051285,0.55685,-0.57954,-1.0565,-1.0476,0.16672,0,0,0.60855,-0.011481,0,0.43348,0,0,0.50147,-0.28633,0,0.57579,-0.52704,-1.109,-1.0476,17.479,-0.89456,0.55384,0.0083653,0.46,0.2,0
0.22527,0.051534,0.54684,-0.45634,-1.0695,-1.0046,0.2072,0,0,0.71273,-0.084363,0,0.53871,0,0,0.42773,-0.41359,0,0.59141,-0.39289,-1.1329,-1.0046,17.026,-0.84347,0.68495,0.014571,0.48,0.2,0
0.24153,0.047694,0.53974,-0.40034,-0.8427,-0.68776,0.1899,0,0,0.20928,-0.3453,0,1.2316,0,0,0.30607,-0.38202,0,0.51213,-0.30522,-0.93781,-0.68776,30.614,-0.6436,0.55957,0.010913,0.5,0.2,0
0.23364,0.065427,0.50891,-0.337,-0.36256,-0.29469,0.097667,0,0,-0.33006,-0.5294,0,1.5236,0,0,0.23802,-0.099039,0,0.25817,-0.25128,-0.44828,-0.29469,41.273,-0.33142,0.17928,-0.00023849,0.52,0.2,0
0.22833,0.074683,0.48261,-0.30794,-0.34431,-0.27611,0.072436,0,0,-0.24826,-0.53195,0,1.13,0,0,0.21049,-0.079063,0,0.22482,-0.25144,-0.40081,-0.27611,37.953,-0.30945,0.13869,-0.00012252,0.54,0.2,0
0.22371,0.079982,0.45839,-0.29295,-0.33311,-0.26422,0.056677,0,0,-0.22411,-0.53739,0,0.88416,0,0,0.19781,-0.063915,0,0.20783,-0.2529,-0.37316,-0.26422,35.245,-0.29676,0.11502,-7.5607e-05,0.56,0.2,0
0.21936,0.083062,0.43514,-0.28247,-0.3224,-0.25399,0.04532,0,0,-0.2222,-0.53364,0,0.70699,0,0,0.19143,-0.052173,0,0.19837,-0.25291,-0.35196,-0.25399,33.113,-0.28629,0.098514,-4.9084e-05,0.58,0.2,0
0.21482,0.084529,0.41245,-0.27574,-0.31264,-0.24526,0.036357,0,0,-0.2378,-0.52558,0,0.56717,0,0,0.18766,-0.042814,0,0.19246,-0.25342,-0.33496,-0.24526,31.549,-0.27788,0.085913,-3.1579e-05,0.6,0.2,0
0.20985,0.084812,0.3901,-0.27102,-0.30331,-0.23732,0.02912,0,0,-0.2629,-0.51475,0,0.45427,0,0,0.1853,-0.035128,0,0.18858,-0.25387,-0.32046,-0.23732,30.498,-0.27055,0.076228,-1.9183e-05,0.62,0.2,0
0.2043,0.084184,0.36797,-0.26752,-0.29424,-0.22986,0.023079,0,0,-0.29375,-0.50221,0,0.36004,0,0,0.1838,-0.028625,0,0.186,-0.25421,-0.30755,-0.22986,29.965,-0.26387,0.068826,-9.952e-06,0.64,0.2,0
0.1981,0.08284,0.34599,-0.26479,-0.28534,-0.2227,0.017892,0,0,-0.32829,-0.48856,0,0.27911,0,0,0.18288,-0.022946,0,0.1843,-0.25444,-0.2957,-0.2227,30.068,-0.25761,0.063394,-2.9291e-06,0.66,0.2,0
0.19117,0.080926,0.32408,-0.26261,-0.27655,-0.21576,0.013295,0,0,-0.36542,-0.47414,0,0.2074,0,0,0.18238,-0.017816,0,0.18324,-0.25457,-0.28459,-0.21576,31.168,-0.25164,0.05977,2.4006e-06,0.68,0.2,0
0.18348,0.078549,0.30222,-0.26084,-0.26784,-0.20897,0.0090812,0,0,-0.4046,-0.45912,0,0.14167,0,0,0.18224,-0.013002,0,0.18269,-0.25461,-0.27407,-0.20897,34.475,-0.24588,0.057875,6.2939e-06,0.7,0.2,0
0.17499,0.075794,0.28035,-0.25944,-0.25917,-0.20231,0.0050757,0,0,-0.44564,-0.44354,0,0.079181,0,0,0.18241,-0.0082966,0,0.18259,-0.25423,-0.26438,-0.20231,45.76,-0.24031,0.057673,8.8313e-06,0.72,0.2,0
0.16566,0.072727,0.25844,-0.2584,-0.25054,-0.19575,0.0011237,0,0,-0.48863,-0.4273,0,0.01753,0,0,0.1829,-0.0035003,0,0.18293,-0.25038,-0.25856,-0.19575,82.024,-0.2349,0.059139,9.9418e-06,0.74,0.2,0
0.15544,0.069398,0.23645,-0.25777,-0.2419,-0.18931,-0.002919,0,0,-0.53397,-0.41023,0,-0.045536,0,0,0.18375,0.0015965,0,0.18374,-0.24138,-0.25829,-0.18931,-79.898,-0.22966,0.062271,9.3895e-06,0.76,0.2,0
0.1443,0.065849,0.21434,-0.25766,-0.23325,-0.183,-0.0071949,0,0,-0.5824,-0.39198,0,-0.11224,0,0,0.18502,0.00723,0,0.18515,-0.23129,-0.25963,-0.183,-74.741,-0.22464,0.067109,6.7193e-06,0.78,0.2,0
0.13215,0.062113,0.19204,-0.2583,-0.22456,-0.17686,-0.011857,0,0,-0.63521,-0.37199,0,-0.18497,0,0,0.18687,0.013686,0,0.18735,-0.22081,-0.26205,-0.17686,-72.452,-0.21991,0.073786,1.1305e-06,0.8,0.2,0
0.11889,0.058216,0.16949,-0.26008,-0.2158,-0.17101,-0.017079,0,0,-0.69472,-0.34933,0,-0.26643,0,0,0.18956,0.021336,0,0.19073,-0.20997,-0.2659,-0.17101,-71.177,-0.21563,0.082612,-8.7919e-06,0.82,0.2,0
0.10436,0.054184,0.14655,-0.26372,-0.20699,-0.16564,-0.023087,0,0,-0.76508,-0.32251,0,-0.36016,0,0,0.19365,0.030694,0,0.19603,-0.19878,-0.27193,-0.16564,-70.431,-0.21212,0.094202,-2.5709e-05,0.84,0.2,0
0.088285,0.05003,0.12301,-0.2708,-0.19833,-0.16124,-0.030085,0,0,-0.85457,-0.28929,0,-0.46933,0,0,0.20031,0.04252,0,0.20472,-0.18747,-0.28166,-0.16124,-70.149,-0.21013,0.10969,-5.4935e-05,0.86,0.2,0
0.070175,0.045799,0.098476,-0.28337,-0.18987,-0.15839,-0.038562,0,0,-0.9749,-0.24558,0,-0.60157,0,0,0.21313,0.057947,0,0.22084,-0.17602,-0.29722,-0.15839,-70.242,-0.21054,0.13092,-0.00010822,0.88,0.2,0
0.049289,0.041299,0.071862,-0.30741,-0.18502,-0.15971,-0.049825,0,0,-1.1521,-0.19745,0,-0.77728,0,0,0.24109,0.078695,0,0.25394,-0.1673,-0.32513,-0.15971,-70.424,-0.21738,0.16176,-0.00021578,0.9,0.2,0
0.024091,0.035405,0.040616,-0.33058,-0.24626,-0.19674,-0.1095,0,0,-0.69897,-0.11034,0,-0.67031,0,0,0.31477,0.32148,0,0.47172,-0.1611,-0.41574,-0.19674,-58.744,-0.25786,0.23955,-0.0007073,0.92,0.2,0
0.021331,0.039716,0.033232,-0.41018,-0.28328,-0.24127,-0.1194,0,0,-0.21958,-0.05461,0,-0.31045,0,0,0.45158,0.31319,0,0.5458,-0.21151,-0.48195,-0.24127,-58.993,-0.31158,0.25685,-0.00083105,0.94,0.2,0
0.015307,0.040115,0.022553,-0.51768,-0.27759,-0.26114,-0.094553,0,0,-0.33351,-0.021395,0,-0.24584,0,0,0.54647,0.18087,0,0.57383,-0.24483,-0.55045,-0.26114,-70.887,-0.35214,0.2978,-0.0013428,0.96,0.2,0
0.0079901,0.04013,0.011374,-0.5484,-0.26046,-0.25403,-0.047115,0,0,-0.38268,-0.0083553,0,-0.1225,0,0,0.56381,0.083982,0,0.56886,-0.25294,-0.55591,-0.25403,-80.939,-0.3543,0.30243,-0.0014206,0.98,0.2,0
0,0.040075,0,-0.54056,-0.23692,-0.23324,-0.0010549,0,0,-0.39951,-0.004779,0,-0.0027427,0,0,0.56868,3.4694e-17,0,0.56765,-0.23691,-0.54056,-0.23324,-89.801,-0.33691,0.3055,-0.0014636,1,0.2,0
0,0.051529,1,-0.50195,-1.6696,-1.6515,-0.00039389,0,0,1.4944,-0.023561,0,-0.0010241,0,0,0.3822,-1.3028e-15,0,0.38199,-0.50195,-1.6696,-1.6515,-0.019328,-1.2743,1.1587,0.079828,0,0.22,0
0.029887,0.051509,0.99236,-0.48827,-1.6559,-1.6356,0.013789,0,0,1.4915,-0.026416,0,0.035853,0,0,0.3769,-0.03121,0,0.37802,-0.48811,-1.6561,-1.6356,0.67651,-1.2599,1.1579,0.079646,0.02,0.22,0
0.059662,0.051417,0.98492,-0.47741,-1.6485,-1.6227,0.024712,0,0,1.4889,-0.033574,0,0.064251,0,0,0.36113,-0.060813,0,0.36618,-0.47689,-1.6491,-1.6227,1.2083,-1.2495,1.1592,0.079865,0.04,0.22,0
0.089443,0.051138,0.97791,-0.46287,-1.6393,-1.6086,0.030417,0,0,1.4894,-0.039999,0,0.079084,0,0,0.33552,-0.086553,0,0.34672,-0.46208,-1.6401,-1.6086,1.48,-1.2369,1.1626,0.080506,0.06,0.22,0
0.11924,0.050566,0.9715,-0.44758,-1.6211,-1.5921,0.031961,0,0,1.4879,-0.03773,0,0.0831,0,0,0.30181,-0.10545,0,0.32022,-0.44671,-1.622,-1.5921,1.5589,-1.2203,1.1606,0.080122,0.08,0.22,0
0.14896,0.04977,0.96584,-0.40621,-0.99268,-0.98307,0.032829,0,0,0.78453,-0.021409,0,0.29089,0,0,0.27155,-0.066916,0,0.28338,-0.3929,-1.006,-0.98307,20.35,-0.79399,0.60451,0.039323,0.1,0.22,0
0.15062,0.057069,0.93466,-0.38102,-0.41266,-0.39388,0.03033,0,0,0.10033,-0.1465,0,0.47315,0,0,0.25641,-0.02194,0,0.25737,-0.36263,-0.43105,-0.39388,31.225,-0.39585,0.059326,-1.5997e-06,0.12,0.22,0
0.15297,0.062914,0.9043,-0.37202,-0.41809,-0.38775,0.02525,0,0,0.12266,-0.23664,0,0.39391,0,0,0.24984,-0.022788,0,0.25089,-0.36088,-0.42923,-0.38775,23.815,-0.39262,0.059645,-3.9249e-06,0.14,0.22,0
0.15553,0.0671,0.8747,-0.36532,-0.41843,-0.38091,0.019607,0,0,0.12155,-0.29265,0,0.30587,0,0,0.24423,-0.021914,0,0.24522,-0.35887,-0.42488,-0.38091,18.222,-0.38822,0.058211,-5.4551e-06,0.16,0.22,0
0.15783,0.069759,0.84568,-0.3609,-0.41508,-0.37374,0.014512,0,0,0.10017,-0.32242,0,0.22639,0,0,0.24016,-0.019795,0,0.24097,-0.35725,-0.41872,-0.37374,14.089,-0.38324,0.055102,-6.0711e-06,0.18,0.22,0
0.15953,0.071147,0.81706,-0.35845,-0.4092,-0.36647,0.010252,0,0,0.062598,-0.33331,0,0.15993,0,0,0.23791,-0.016917,0,0.23851,-0.35645,-0.41119,-0.36647,10.998,-0.37804,0.050484,-5.7409e-06,0.2,0.22,0
0.16034,0.071518,0.78858,-0.3577,-0.40141,-0.35917,0.0067357,0,0,0.011398,-0.32952,0,0.10508,0,0,0.23763,-0.013659,0,0.23802,-0.35669,-0.40243,-0.35917,8.5651,-0.37276,0.04455,-4.4939e-06,0.22,0.22,0
0.15999,0.071058,0.76003,-0.35858,-0.39195,-0.35183,0.0037753,0,0,-0.052656,-0.31293,0,0.058895,0,0,0.23934,-0.01032,0,0.23956,-0.35816,-0.39237,-0.35183,6.3751,-0.36745,0.037776,-2.5088e-06,0.24,0.22,0
0.15823,0.069886,0.73114,-0.36111,-0.38081,-0.34443,0.0011954,0,0,-0.13009,-0.28372,0,0.018649,0,0,0.243,-0.0072036,0,0.24312,-0.36104,-0.38088,-0.34443,3.4606,-0.36212,0.031605,-2.4804e-07,0.26,0.22,0
0.15479,0.068046,0.70171,-0.36546,-0.36773,-0.33691,-0.0010978,0,0,-0.22268,-0.24045,0,-0.017126,0,0,0.24852,-0.0047191,0,0.24859,-0.36501,-0.36818,-0.33691,-21.971,-0.3567,0.029814,1.3095e-06,0.28,0.22,0
0.14933,0.065549,0.6715,-0.37178,-0.3521,-0.32908,-0.0029612,0,0,-0.33306,-0.17953,0,-0.046194,0,0,0.25559,-0.0034096,0,0.25565,-0.35166,-0.37222,-0.32908,-81.627,-0.35098,0.037371,2.1778e-07,0.3,0.22,0
0.14146,0.062442,0.64036,-0.38005,-0.33306,-0.32066,-0.0037061,0,0,-0.46325,-0.096724,0,-0.057815,0,0,0.26368,-0.0038614,0,0.26374,-0.33277,-0.38034,-0.32066,-85.518,-0.34459,0.054642,-7.0119e-06,0.32,0.22,0
0.13079,0.05895,0.60821,-0.39627,-0.67148,-0.67512,0.0026423,0,0,0.14024,0.0081111,0,-0.0076335,0,0,0.28234,-0.02274,0,0.28419,-0.36147,-0.70627,-0.67512,-43.733,-0.58095,0.34607,0.0062027,0.34,0.22,0
0.14707,0.056545,0.60228,-0.4328,-1.0704,-1.0533,0.021959,0,0,0.80658,-0.022332,0,0.057093,0,0,0.32002,-0.049636,0,0.32465,-0.43204,-1.0712,-1.0533,1.9701,-0.85216,0.63036,0.012829,0.36,0.22,0
0.16306,0.054817,0.59541,-0.45063,-1.0842,-1.0559,0.041892,0,0,0.78682,-0.036882,0,0.10892,0,0,0.36279,-0.073132,0,0.37043,-0.44787,-1.087,-1.0559,3.7662,-0.86359,0.62415,0.012383,0.38,0.22,0
0.17855,0.053412,0.58777,-0.46946,-1.0854,-1.0542,0.062824,0,0,0.76019,-0.040501,0,0.16334,0,0,0.39656,-0.10768,0,0.41086,-0.46312,-1.0917,-1.0542,5.7652,-0.86968,0.61071,0.01155,0.4,0.22,0
0.19346,0.052221,0.57955,-0.48389,-1.0825,-1.0495,0.088703,0,0,0.73526,-0.042953,0,0.23063,0,0,0.41836,-0.152,0,0.44472,-0.47102,-1.0954,-1.0495,8.2537,-0.87196,0.60272,0.011025,0.42,0.22,0
0.20796,0.051176,0.57103,-0.48468,-1.0841,-1.0417,0.11956,0,0,0.7241,-0.055199,0,0.31085,0,0,0.4245,-0.20659,0,0.47144,-0.46171,-1.1071,-1.0417,10.873,-0.87016,0.61529,0.011509,0.44,0.22,0
0.22243,0.050115,0.56257,-0.45143,-1.0962,-1.0269,0.14548,0,0,0.74805,-0.090126,0,0.37824,0,0,0.40372,-0.27391,0,0.48709,-0.42013,-1.1275,-1.0269,12.144,-0.85816,0.6628,0.013799,0.46,0.22,0
0.23788,0.047912,0.55488,-0.42346,-1.1635,-1.031,0.14633,0,0,0.78976,-0.17227,0,0.38045,0,0,0.34639,-0.3564,0,0.49802,-0.39558,-1.1914,-1.031,10.788,-0.87264,0.72895,0.016693,0.48,0.22,0
0.25402,0.042919,0.54872,-0.36317,-0.73906,-0.65075,0.10134,0,0,0.22544,-0.1968,0,0.78886,0,0,0.2785,-0.22932,0,0.37892,-0.30794,-0.79429,-0.65075,28.68,-0.58433,0.44251,0.0085081,0.5,0.22,0
0.2469,0.056806,0.51889,-0.3253,-0.33252,-0.28383,0.073273,0,0,-0.32348,-0.3798,0,1.1431,0,0,0.23915,-0.071651,0,0.24989,-0.25555,-0.40227,-0.28383,43.59,-0.31388,0.13483,-0.00010745,0.52,0.22,0
0.24108,0.06528,0.49132,-0.30945,-0.32837,-0.27323,0.057772,0,0,-0.2825,-0.43008,0,0.90124,0,0,0.22189,-0.065138,0,0.23135,-0.26037,-0.37745,-0.27323,40.35,-0.30368,0.11121,-6.7464e-05,0.54,0.22,0
0.2356,0.070326,0.46563,-0.29867,-0.32103,-0.26351,0.046755,0,0,-0.27419,-0.44859,0,0.72938,0,0,0.20906,-0.055801,0,0.21639,-0.26177,-0.35792,-0.26351,38.276,-0.2944,0.095287,-4.4386e-05,0.56,0.22,0
0.23011,0.073259,0.44115,-0.29037,-0.31346,-0.25467,0.038256,0,0,-0.27844,-0.45854,0,0.59679,0,0,0.20087,-0.047081,0,0.20631,-0.26196,-0.34188,-0.25467,36.603,-0.28617,0.083799,-2.9455e-05,0.58,0.22,0
0.22446,0.074739,0.41742,-0.28372,-0.30548,-0.24633,0.031253,0,0,-0.29166,-0.46135,0,0.48755,0,0,0.19556,-0.039466,0,0.1995,-0.26151,-0.32769,-0.24633,35.405,-0.27851,0.074935,-1.8657e-05,0.6,0.22,0
0.21845,0.075125,0.39421,-0.27862,-0.29738,-0.2385,0.025289,0,0,-0.31292,-0.45923,0,0.39451,0,0,0.19201,-0.032889,0,0.19479,-0.26103,-0.31497,-0.2385,34.826,-0.2715,0.068062,-1.0416e-05,0.62,0.22,0
0.21194,0.074665,0.37134,-0.27466,-0.28917,-0.23104,0.020132,0,0,-0.34025,-0.45343,0,0.31406,0,0,0.18962,-0.027153,0,0.19154,-0.26052,-0.30332,-0.23104,35.091,-0.26496,0.062947,-4.0054e-06,0.64,0.22,0
0.20484,0.073535,0.3487,-0.27159,-0.28089,-0.22386,0.015589,0,0,-0.37228,-0.44482,0,0.24319,0,0,0.18808,-0.022049,0,0.18935,-0.25997,-0.29251,-0.22386,36.696,-0.25878,0.059476,9.7308e-07,0.66,0.22,0
0.19705,0.071868,0.3262,-0.26921,-0.27252,-0.21689,0.011501,0,0,-0.40813,-0.43394,0,0.17942,0,0,0.18718,-0.017383,0,0.18798,-0.25925,-0.28248,-0.21689,40.907,-0.25287,0.057608,4.7089e-06,0.68,0.22,0
0.18851,0.069767,0.30378,-0.26742,-0.26407,-0.21008,0.0077275,0,0,-0.4473,-0.42112,0,0.12055,0,0,0.18684,-0.012976,0,0.18729,-0.25784,-0.27365,-0.21008,51.126,-0.24719,0.057328,7.2512e-06,0.7,0.22,0
0.17916,0.067314,0.28136,-0.26618,-0.25553,-0.20341,0.004143,0,0,-0.48965,-0.40653,0,0.06463,0,0,0.18701,-0.0086608,0,0.1872,-0.2541,-0.2676,-0.20341,71.065,-0.2417,0.058625,8.5278e-06,0.72,0.22,0
0.16893,0.064574,0.2589,-0.26549,-0.24689,-0.19686,0.00063705,0,0,-0.53529,-0.39019,0,0.009938,0,0,0.18768,-0.0042733,0,0.18772,-0.24687,-0.26551,-0.19686,88.041,-0.23641,0.061484,8.3405e-06,0.74,0.22,0
0.15775,0.061603,0.23632,-0.2654,-0.23814,-0.19045,-0.0028864,0,0,-0.58465,-0.37198,0,-0.045027,0,0,0.18891,0.0003563,0,0.1889,-0.23784,-0.26571,-0.19045,-84.023,-0.23133,0.065901,6.3392e-06,0.76,0.22,0
0.14554,0.058447,0.21356,-0.26605,-0.22926,-0.18419,-0.0065061,0,0,-0.63851,-0.3516,0,-0.10149,0,0,0.19079,0.0054114,0,0.19086,-0.22815,-0.26716,-0.18419,-80.259,-0.2265,0.071903,1.9659e-06,0.78,0.22,0
0.13221,0.055155,0.19053,-0.26762,-0.22023,-0.17811,-0.010276,0,0,-0.69818,-0.32855,0,-0.16031,0,0,0.19353,0.011096,0,0.19384,-0.2181,-0.26975,-0.17811,-78.277,-0.22199,0.079579,-5.6501e-06,0.8,0.22,0
0.11761,0.051774,0.16711,-0.27046,-0.21101,-0.17229,-0.014213,0,0,-0.7657,-0.302,0,-0.22172,0,0,0.19745,0.017633,0,0.19823,-0.20779,-0.27368,-0.17229,-77.222,-0.21792,0.089112,-1.7876e-05,0.82,0.22,0
0.10158,0.04836,0.14314,-0.27505,-0.20157,-0.16684,-0.018254,0,0,-0.84404,-0.27085,0,-0.28476,0,0,0.20316,0.025246,0,0.20472,-0.19728,-0.27934,-0.16684,-76.791,-0.21449,0.10078,-3.6859e-05,0.84,0.22,0
0.083851,0.044986,0.11835,-0.28187,-0.19179,-0.16183,-0.022252,0,0,-0.93637,-0.23376,0,-0.34713,0,0,0.21178,0.034051,0,0.21452,-0.1866,-0.28707,-0.16183,-76.854,-0.21183,0.11488,-6.5825e-05,0.86,0.22,0
0.064123,0.041691,0.092312,-0.29133,-0.1819,-0.15735,-0.025988,0,0,-1.045,-0.19144,0,-0.40541,0,0,0.22521,0.04366,0,0.2295,-0.17604,-0.29718,-0.15735,-77.297,-0.21019,0.13149,-0.00010885,0.88,0.22,0
0.042051,0.038342,0.064303,-0.30301,-0.17145,-0.15305,-0.030049,0,0,-1.1697,-0.14347,0,-0.46876,0,0,0.24353,0.050877,0,0.24906,-0.16491,-0.30955,-0.15305,-77.724,-0.20917,0.15091,-0.00017286,0.9,0.22,0
0.017337,0.034015,0.033866,-0.31532,-0.20658,-0.17633,-0.036041,0,0,-0.69556,-0.067427,0,-0.29357,0,0,0.28784,0.16003,0,0.34171,-0.19376,-0.32814,-0.17633,-71.748,-0.23274,0.14467,-0.00015193,0.92,0.22,0
0.014228,0.037132,0.027426,-0.36923,-0.33855,-0.23976,-0.057334,0,0,-0.16831,-0.12843,0,-0.14907,0,0,0.36789,0.2367,0,0.43957,-0.29454,-0.41324,-0.23976,-52.49,-0.31584,0.1536,-0.00010948,0.94,0.22,0
0.010605,0.038653,0.019151,-0.39515,-0.311,-0.23099,-0.05501,0,0,-0.2134,-0.10401,0,-0.14303,0,0,0.44138,0.14931,0,0.46518,-0.28382,-0.42233,-0.23099,-63.705,-0.31238,0.17115,-0.00017721,0.96,0.22,0
0.0056926,0.039039,0.0097704,-0.43211,-0.29589,-0.22817,-0.032852,0,0,-0.26512,-0.088038,0,-0.085416,0,0,0.47877,0.071684,0,0.48321,-0.28838,-0.43962,-0.22817,-77.125,-0.31872,0.18869,-0.0002303,0.98,0.22,0
0,0.039109,0,-0.43089,-0.27558,-0.21194,0.0013484,0,0,-0.28463,-0.082732,0,0.0035058,0,0,0.48852,1.0408e-17,0,0.48764,-0.27557,-0.4309,-0.21194,89.503,-0.30614,0.19509,-0.00024908,1,0.22,0
0,0.05078,1,-0.47394,-1.6816,-1.6467,-0.00098404,0,0,1.5246,-0.04545,0,-0.0025585,0,0,0.3563,5.2215e-16,0,0.35619,-0.47394,-1.6816,-1.6467,-0.046685,-1.2674,1.1906,0.086428,0,0.24,0
0.030491,0.050729,0.99287,-0.46248,-1.6673,-1.6318,0.007132,0,0,1.5201,-0.046177,0,0.018543,0,0,0.3518,-0.021324,0,0.35236,-0.46244,-1.6674,-1.6318,0.33914,-1.2539,1.1876,0.085759,0.02,0.24,0
0.060806,0.050568,0.98593,-0.45592,-1.6561,-1.6195,0.012891,0,0,1.5127,-0.047495,0,0.033517,0,0,0.33857,-0.041292,0,0.3411,-0.45578,-1.6562,-1.6195,0.61535,-1.2438,1.1825,0.084649,0.04,0.24,0
0.090998,0.050261,0.97933,-0.44697,-1.6416,-1.6059,0.016387,0,0,1.5066,-0.046414,0,0.042607,0,0,0.31754,-0.058357,0,0.32304,-0.44674,-1.6418,-1.6059,0.78576,-1.2315,1.1775,0.083596,0.06,0.24,0
0.12107,0.049803,0.97323,-0.43702,-1.6211,-1.5907,0.018924,0,0,1.4997,-0.039589,0,0.049202,0,0,0.29043,-0.070855,0,0.29931,-0.43672,-1.6214,-1.5907,0.91537,-1.2163,1.1696,0.08199,0.08,0.24,0
0.15099,0.0493,0.96771,-0.40212,-0.99575,-0.98386,0.021704,0,0,0.7979,-0.026496,0,0.19641,0,0,0.26639,-0.045136,0,0.27209,-0.39446,-1.0034,-0.98386,17.88,-0.79391,0.60088,0.040209,0.1,0.24,0
0.15299,0.054379,0.93686,-0.3781,-0.40873,-0.39219,0.021085,0,0,0.10993,-0.12899,0,0.32893,0,0,0.25446,-0.015539,0,0.25495,-0.36735,-0.41947,-0.39219,27.003,-0.393,0.045155,-3.8335e-07,0.12,0.24,0
0.15538,0.058526,0.90664,-0.37058,-0.41312,-0.38622,0.01816,0,0,0.12194,-0.20983,0,0.2833,0,0,0.24932,-0.016993,0,0.24991,-0.36389,-0.41982,-0.38622,20.247,-0.38998,0.048766,-2.0276e-06,0.14,0.24,0
0.15786,0.061585,0.87702,-0.3647,-0.41379,-0.37972,0.014731,0,0,0.11711,-0.26576,0,0.2298,0,0,0.24491,-0.017361,0,0.24554,-0.36062,-0.41787,-0.37972,15.486,-0.38607,0.050486,-3.5645e-06,0.16,0.24,0
0.16007,0.063602,0.84786,-0.36063,-0.41124,-0.37287,0.011551,0,0,0.095457,-0.29925,0,0.1802,0,0,0.24171,-0.016873,0,0.2423,-0.35812,-0.41375,-0.37287,12.27,-0.38158,0.049915,-4.5568e-06,0.18,0.24,0
0.16168,0.064726,0.81901,-0.35827,-0.40612,-0.36582,0.0089467,0,0,0.058866,-0.31436,0,0.13957,0,0,0.23999,-0.015804,0,0.24051,-0.35666,-0.40774,-0.36582,10.252,-0.37674,0.047175,-4.7136e-06,0.2,0.24,0
0.16242,0.065132,0.79027,-0.35747,-0.39894,-0.35863,0.0069562,0,0,0.0090736,-0.31439,0,0.10852,0,0,0.23993,-0.014412,0,0.24036,-0.35634,-0.40008,-0.35863,9.2728,-0.37168,0.042638,-3.9423e-06,0.22,0.24,0
0.16204,0.064971,0.76143,-0.35813,-0.38993,-0.35132,0.0055011,0,0,-0.053087,-0.30116,0,0.085817,0,0,0.24157,-0.012935,0,0.24192,-0.3572,-0.39086,-0.35132,9.541,-0.36646,0.036947,-2.3707e-06,0.24,0.24,0
0.1603,0.064353,0.73229,-0.36024,-0.37912,-0.34386,0.004491,0,0,-0.12779,-0.27507,0,0.07006,0,0,0.24485,-0.011618,0,0.24513,-0.35923,-0.38014,-0.34386,12.72,-0.36107,0.031541,-4.2029e-07,0.26,0.24,0
0.15693,0.063348,0.70266,-0.36384,-0.36632,-0.33616,0.0039035,0,0,-0.21594,-0.23525,0,0.060894,0,0,0.24959,-0.010751,0,0.24984,-0.36099,-0.36918,-0.33616,36.201,-0.35544,0.029779,1.0184e-06,0.28,0.24,0
0.15166,0.062012,0.67239,-0.36894,-0.3512,-0.32811,0.0038935,0,0,-0.31852,-0.18012,0,0.060739,0,0,0.25547,-0.010669,0,0.25571,-0.35038,-0.36976,-0.32811,78.153,-0.34942,0.036102,2.9041e-07,0.3,0.24,0
0.14419,0.060433,0.64135,-0.37534,-0.33351,-0.31955,0.0048938,0,0,-0.43517,-0.10893,0,0.076343,0,0,0.26199,-0.011703,0,0.26228,-0.33295,-0.3759,-0.31955,83.415,-0.3428,0.050993,-5.2576e-06,0.32,0.24,0
0.13426,0.058791,0.60951,-0.39035,-0.69103,-0.67996,0.013035,0,0,0.16949,-0.02467,0,0.08079,0,0,0.27659,-0.049364,0,0.28317,-0.35939,-0.72199,-0.67996,42.463,-0.58711,0.35842,0.0071364,0.34,0.24,0
0.15097,0.055879,0.60375,-0.4173,-1.0912,-1.0563,0.035658,0,0,0.83071,-0.045398,0,0.09271,0,0,0.30577,-0.092222,0,0.31987,-0.41542,-1.0931,-1.0563,3.0203,-0.85495,0.66006,0.014615,0.36,0.24,0
0.16748,0.053833,0.59728,-0.42611,-1.1024,-1.0558,0.058224,0,0,0.81865,-0.060562,0,0.15138,0,0,0.33847,-0.10845,0,0.35565,-0.42113,-1.1074,-1.0558,4.8847,-0.86145,0.662,0.014596,0.38,0.24,0
0.18372,0.05226,0.59021,-0.43315,-1.1063,-1.052,0.077765,0,0,0.80457,-0.07054,0,0.20219,0,0,0.36308,-0.13262,0,0.38651,-0.42429,-1.1152,-1.052,6.5048,-0.86384,0.6616,0.014417,0.4,0.24,0
0.19967,0.050908,0.58275,-0.43479,-1.107,-1.0453,0.096567,0,0,0.79363,-0.080192,0,0.25107,0,0,0.37621,-0.16404,0,0.41018,-0.4212,-1.1206,-1.0453,8.0154,-0.86235,0.66493,0.014449,0.42,0.24,0
0.21546,0.049534,0.57517,-0.42509,-1.1095,-1.0355,0.11201,0,0,0.79359,-0.096158,0,0.29124,0,0,0.37378,-0.20209,0,0.42461,-0.40723,-1.1274,-1.0355,9.0622,-0.85672,0.67891,0.015085,0.44,0.24,0
0.23141,0.04768,0.5678,-0.40734,-1.123,-1.0269,0.11651,0,0,0.80543,-0.1249,0,0.30292,0,0,0.35167,-0.24503,0,0.4286,-0.38884,-1.1415,-1.0269,9.0179,-0.8524,0.70237,0.016212,0.46,0.24,0
0.24768,0.044643,0.5611,-0.38628,-1.1321,-1.0166,0.099408,0,0,0.81941,-0.15008,0,0.25846,0,0,0.30851,-0.28242,0,0.41898,-0.37326,-1.1451,-1.0166,7.4638,-0.84498,0.71627,0.016845,0.48,0.24,0
0.26419,0.039822,0.55546,-0.34118,-0.69736,-0.63558,0.074724,0,0,0.23295,-0.13768,0,0.60508,0,0,0.26321,-0.17611,0,0.33171,-0.29673,-0.74181,-0.63558,28.946,-0.55804,0.41323,0.0083359,0.5,0.24,0
0.257,0.050235,0.5261,-0.32195,-0.31647,-0.27921,0.057947,0,0,-0.33335,-0.29064,0,0.90397,0,0,0.23841,-0.053371,0,0.2444,-0.2612,-0.37722,-0.27921,46.353,-0.30588,0.10815,-5.8936e-05,0.52,0.24,0
0.25085,0.05748,0.49825,-0.30986,-0.31698,-0.27109,0.047355,0,0,-0.30238,-0.35793,0,0.73874,0,0,0.22634,-0.051617,0,0.23223,-0.26593,-0.36091,-0.27109,42.85,-0.29931,0.092505,-4.0229e-05,0.54,0.24,0
0.2449,0.062039,0.47178,-0.30134,-0.31246,-0.26277,0.038582,0,0,-0.30085,-0.38756,0,0.60187,0,0,0.21586,-0.046646,0,0.22088,-0.26792,-0.34588,-0.26277,40.901,-0.29219,0.080658,-2.658e-05,0.56,0.24,0
0.23882,0.06472,0.44644,-0.29459,-0.30636,-0.25469,0.031732,0,0,-0.31123,-0.40299,0,0.49503,0,0,0.20776,-0.040775,0,0.21174,-0.2682,-0.33275,-0.25469,39.749,-0.28521,0.072255,-1.7113e-05,0.58,0.24,0
0.23245,0.066074,0.42192,-0.28891,-0.29958,-0.24687,0.026072,0,0,-0.32795,-0.41115,0,0.40672,0,0,0.20185,-0.03506,0,0.20488,-0.26763,-0.32086,-0.24687,39.219,-0.27845,0.066101,-1.0047e-05,0.6,0.24,0
0.2257,0.066443,0.39799,-0.28415,-0.29234,-0.23928,0.021205,0,0,-0.34997,-0.41388,0,0.3308,0,0,0.19762,-0.02981,0,0.19985,-0.26665,-0.30984,-0.23928,39.533,-0.27192,0.061619,-4.5276e-06,0.62,0.24,0
0.21846,0.066047,0.37449,-0.28026,-0.28479,-0.23193,0.016927,0,0,-0.37697,-0.41232,0,0.26407,0,0,0.19464,-0.025055,0,0.19624,-0.26545,-0.29961,-0.23193,41.187,-0.26566,0.058608,-1.6933e-07,0.64,0.24,0
0.21062,0.065048,0.35128,-0.27716,-0.27699,-0.22479,0.013112,0,0,-0.40847,-0.40717,0,0.20455,0,0,0.19265,-0.02072,0,0.19375,-0.26397,-0.29019,-0.22479,45.183,-0.25965,0.057004,3.1855e-06,0.66,0.24,0
0.20212,0.063568,0.32826,-0.27478,-0.26898,-0.21784,0.0096546,0,0,-0.44414,-0.39891,0,0.15061,0,0,0.19145,-0.016694,0,0.19217,-0.2618,-0.28196,-0.21784,53.359,-0.25386,0.056792,5.5676e-06,0.68,0.24,0
0.19286,0.061704,0.30533,-0.27305,-0.26076,-0.21103,0.0064602,0,0,-0.48377,-0.38786,0,0.10078,0,0,0.19096,-0.012859,0,0.19139,-0.25799,-0.27582,-0.21103,66.791,-0.24828,0.05797,6.9048e-06,0.7,0.24,0
0.18277,0.059533,0.28242,-0.27197,-0.25235,-0.20437,0.0034439,0,0,-0.52733,-0.37424,0,0.053725,0,0,0.19111,-0.0090957,0,0.19132,-0.25176,-0.27256,-0.20437,80.331,-0.24289,0.060535,7.0246e-06,0.72,0.24,0
0.17176,0.057119,0.25946,-0.27154,-0.24375,-0.19783,0.00053288,0,0,-0.57495,-0.35815,0,0.008313,0,0,0.19192,-0.0052838,0,0.19199,-0.24374,-0.27155,-0.19783,88.902,-0.23771,0.064482,5.6429e-06,0.74,0.24,0
0.15977,0.054519,0.23636,-0.27181,-0.23497,-0.19143,-0.0023274,0,0,-0.62699,-0.3396,0,-0.036308,0,0,0.19343,-0.0013022,0,0.19343,-0.23482,-0.27196,-0.19143,-86.4,-0.23273,0.06981,2.3424e-06,0.76,0.24,0
0.14669,0.051785,0.21304,-0.27286,-0.226,-0.18516,-0.0051642,0,0,-0.68399,-0.31854,0,-0.080562,0,0,0.19576,0.0029721,0,0.19578,-0.22544,-0.27342,-0.18516,-83.784,-0.22801,0.076527,-3.4633e-06,0.78,0.24,0
0.13241,0.048971,0.18938,-0.2748,-0.21686,-0.17906,-0.0079647,0,0,-0.74678,-0.2948,0,-0.12425,0,0,0.19909,0.0076568,0,0.19923,-0.21578,-0.27588,-0.17906,-82.314,-0.22357,0.084656,-1.2578e-05,0.8,0.24,0
0.11681,0.046136,0.16526,-0.2778,-0.20753,-0.17314,-0.010659,0,0,-0.81635,-0.2682,0,-0.16628,0,0,0.20371,0.012839,0,0.20412,-0.20594,-0.27938,-0.17314,-81.563,-0.21949,0.094225,-2.607e-05,0.82,0.24,0
0.099754,0.04335,0.14049,-0.28197,-0.198,-0.16741,-0.013114,0,0,-0.8936,-0.23865,0,-0.20458,0,0,0.21007,0.018509,0,0.2109,-0.196,-0.28397,-0.16741,-81.327,-0.21579,0.10522,-4.5269e-05,0.84,0.24,0
0.08107,0.04068,0.11484,-0.28733,-0.18835,-0.16184,-0.015166,0,0,-0.97878,-0.20673,0,-0.23659,0,0,0.21872,0.024383,0,0.22012,-0.18607,-0.2896,-0.16184,-81.481,-0.2125,0.11753,-7.1578e-05,0.86,0.24,0
0.060603,0.038142,0.087998,-0.29372,-0.1786,-0.15636,-0.016848,0,0,-1.0714,-0.17346,0,-0.26283,0,0,0.22996,0.029448,0,0.23192,-0.17619,-0.29613,-0.15636,-81.842,-0.20956,0.13099,-0.00010658,0.88,0.24,0
0.038215,0.03556,0.059651,-0.30191,-0.1687,-0.15113,-0.018185,0,0,-1.1761,-0.13709,0,-0.28368,0,0,0.24315,0.031359,0,0.24527,-0.16626,-0.30435,-0.15113,-82.365,-0.20725,0.14624,-0.00015485,0.9,0.24,0
0.013558,0.032708,0.029642,-0.30215,-0.20263,-0.16872,-0.018355,0,0,-0.68714,-0.07556,0,-0.16616,0,0,0.27198,0.099162,0,0.29651,-0.19851,-0.30626,-0.16872,-77.519,-0.2245,0.12812,-0.00010201,0.92,0.24,0
0.010729,0.034579,0.023765,-0.3315,-0.31746,-0.21845,-0.019531,0,0,-0.14696,-0.12871,0,-0.05078,0,0,0.32655,0.14878,0,0.36019,-0.30373,-0.34524,-0.21845,-54.888,-0.28914,0.11196,4.0106e-05,0.94,0.24,0
0.0076792,0.035955,0.01658,-0.34699,-0.33057,-0.21985,-0.022834,0,0,-0.16528,-0.14394,0,-0.059369,0,0,0.38146,0.10601,0,0.39605,-0.31451,-0.36304,-0.21985,-54.887,-0.29914,0.12614,5.4032e-05,0.96,0.24,0
0.004118,0.036609,0.0085062,-0.3606,-0.32078,-0.21292,-0.015716,0,0,-0.19198,-0.14022,0,-0.04086,0,0,0.4145,0.0533,0,0.41745,-0.31533,-0.36605,-0.21292,-70.856,-0.2981,0.13511,6.9135e-05,0.98,0.24,0
0,0.036766,0,-0.35676,-0.30449,-0.19838,0.0030266,0,0,-0.2059,-0.13795,0,0.0078692,0,0,0.42531,1.3878e-17,0,0.42474,-0.30432,-0.35694,-0.19838,86.697,-0.28654,0.13988,7.6486e-05,1,0.24,0
0,0.049711,1,-0.45726,-1.6876,-1.6435,-0.00095343,0,0,1.542,-0.057362,0,-0.0024789,0,0,0.33955,1.1258e-15,0,0.33951,-0.45726,-1.6876,-1.6435,-0.044401,-1.2628,1.2089,0.090322,0,0.26,0
0.030841,0.049662,0.99321,-0.44714,-1.673,-1.6293,0.0030259,0,0,1.5368,-0.056917,0,0.0078674,0,0,0.33561,-0.012699,0,0.33583,-0.44713,-1.673,-1.6293,0.14142,-1.2498,1.2046,0.08938,0.02,0.26,0
0.061471,0.049517,0.98658,-0.44299,-1.6599,-1.6174,0.005678,0,0,1.5268,-0.055183,0,0.014763,0,0,0.3241,-0.024581,0,0.32508,-0.44296,-1.6599,-1.6174,0.26733,-1.2401,1.1963,0.087553,0.04,0.26,0
0.091912,0.049281,0.98025,-0.43718,-1.6435,-1.6044,0.0078061,0,0,1.5174,-0.050758,0,0.020296,0,0,0.30595,-0.034795,0,0.3081,-0.43713,-1.6435,-1.6044,0.37074,-1.2284,1.1873,0.085657,0.06,0.26,0
0.12217,0.048982,0.97434,-0.43022,-1.6232,-1.5903,0.010273,0,0,1.5082,-0.042652,0,0.02671,0,0,0.2828,-0.042515,0,0.28626,-0.43013,-1.6233,-1.5903,0.49335,-1.2146,1.177,0.083527,0.08,0.26,0
0.15224,0.04871,0.96893,-0.39891,-0.99907,-0.9846,0.01315,0,0,0.80958,-0.032239,0,0.12061,0,0,0.26239,-0.027466,0,0.26465,-0.39541,-1.0026,-0.9846,13.944,-0.79419,0.59908,0.041002,0.1,0.26,0
0.15455,0.05191,0.93839,-0.37546,-0.40666,-0.39104,0.013293,0,0,0.12146,-0.1219,0,0.20738,0,0,0.25232,-0.010401,0,0.25254,-0.37057,-0.41156,-0.39104,20.218,-0.39105,0.035499,-5.4271e-09,0.12,0.26,0
0.1571,0.05452,0.90838,-0.36883,-0.41035,-0.38515,0.011862,0,0,0.12729,-0.19653,0,0.18505,0,0,0.24801,-0.012331,0,0.24833,-0.36568,-0.4135,-0.38515,14.873,-0.38811,0.041648,-1.1683e-06,0.14,0.26,0
0.15964,0.056469,0.87886,-0.36345,-0.41112,-0.37885,0.010193,0,0,0.12009,-0.25173,0,0.15901,0,0,0.24435,-0.013672,0,0.24474,-0.36136,-0.41321,-0.37885,11.577,-0.38448,0.045686,-2.5902e-06,0.16,0.26,0
0.1619,0.057789,0.84973,-0.35958,-0.40907,-0.37222,0.0087068,0,0,0.098559,-0.28744,0,0.13583,0,0,0.24171,-0.01452,0,0.24215,-0.35809,-0.41056,-0.37222,9.6931,-0.38029,0.047018,-3.7595e-06,0.18,0.26,0
0.16359,0.058573,0.82085,-0.35722,-0.40454,-0.36534,0.0076296,0,0,0.063294,-0.30579,0,0.11902,0,0,0.24038,-0.015003,0,0.24084,-0.35602,-0.40574,-0.36534,8.9365,-0.3757,0.045778,-4.2476e-06,0.2,0.26,0
0.16443,0.058942,0.79204,-0.35629,-0.39791,-0.35827,0.0070391,0,0,0.015405,-0.30918,0,0.10981,0,0,0.2405,-0.015254,0,0.24098,-0.35513,-0.39906,-0.35827,9.3456,-0.37082,0.042451,-3.8569e-06,0.22,0.26,0
0.1642,0.059012,0.76313,-0.3567,-0.38937,-0.35101,0.0069345,0,0,-0.044381,-0.2992,0,0.10818,0,0,0.24213,-0.015407,0,0.24262,-0.35529,-0.39078,-0.35101,11.502,-0.36569,0.037812,-2.6572e-06,0.24,0.26,0
0.16266,0.058883,0.73393,-0.3584,-0.37896,-0.34353,0.0072949,0,0,-0.11598,-0.27636,0,0.1138,0,0,0.24519,-0.015603,0,0.24569,-0.35607,-0.38129,-0.34353,17.68,-0.3603,0.033305,-1.0303e-06,0.26,0.26,0
0.15956,0.058636,0.70429,-0.36137,-0.36657,-0.33576,0.008126,0,0,-0.19973,-0.24031,0,0.12676,0,0,0.24947,-0.016003,0,0.24999,-0.35544,-0.3725,-0.33576,36.125,-0.35457,0.031844,2.0353e-07,0.28,0.26,0
0.15467,0.058344,0.67406,-0.36551,-0.35204,-0.32761,0.0095055,0,0,-0.29562,-0.1906,0,0.14829,0,0,0.25464,-0.016783,0,0.25521,-0.34713,-0.37043,-0.32761,62.654,-0.34839,0.037128,-3.9966e-07,0.3,0.26,0
0.14774,0.058084,0.64317,-0.37054,-0.3354,-0.31898,0.011618,0,0,-0.4022,-0.1281,0,0.18124,0,0,0.26025,-0.018124,0,0.26089,-0.33191,-0.37404,-0.31898,73.263,-0.34164,0.049866,-4.9542e-06,0.32,0.26,0
0.13858,0.057963,0.6116,-0.38492,-0.71102,-0.68555,0.020068,0,0,0.20005,-0.056758,0,0.14503,0,0,0.27234,-0.070621,0,0.28538,-0.35688,-0.73905,-0.68555,38.786,-0.59383,0.3725,0.0081052,0.34,0.26,0
0.15574,0.054729,0.60597,-0.40535,-1.1151,-1.0621,0.042698,0,0,0.85377,-0.06888,0,0.11102,0,0,0.29619,-0.12601,0,0.32222,-0.40279,-1.1176,-1.0621,3.4305,-0.86084,0.68876,0.016414,0.36,0.26,0
0.17273,0.052394,0.59975,-0.40833,-1.1215,-1.0587,0.064992,0,0,0.84547,-0.081599,0,0.16898,0,0,0.32239,-0.13588,0,0.35002,-0.40245,-1.1273,-1.0587,5.1651,-0.86282,0.69311,0.016537,0.38,0.26,0
0.18956,0.05059,0.59307,-0.4085,-1.1239,-1.0528,0.082219,0,0,0.83757,-0.092424,0,0.21377,0,0,0.34098,-0.15045,0,0.3727,-0.39917,-1.1332,-1.0528,6.4726,-0.86172,0.69731,0.016636,0.4,0.26,0
0.20624,0.049013,0.58611,-0.40449,-1.1231,-1.0444,0.094833,0,0,0.83187,-0.10233,0,0.24657,0,0,0.34889,-0.16933,0,0.38771,-0.39219,-1.1354,-1.0444,7.3925,-0.85733,0.70215,0.016777,0.42,0.26,0
0.22283,0.04733,0.57912,-0.39581,-1.1216,-1.0343,0.10053,0,0,0.83007,-0.11339,0,0.26137,0,0,0.34351,-0.19153,0,0.39323,-0.38214,-1.1352,-1.0343,7.7422,-0.85056,0.70804,0.016989,0.44,0.26,0
0.23944,0.045119,0.57237,-0.38342,-1.1176,-1.0227,0.094993,0,0,0.83103,-0.12339,0,0.24698,0,0,0.32339,-0.21432,0,0.38811,-0.37133,-1.1297,-1.0227,7.2542,-0.84123,0.71092,0.017053,0.46,0.26,0
0.25607,0.041909,0.56618,-0.36987,-1.1036,-1.0082,0.077499,0,0,0.82984,-0.12395,0,0.2015,0,0,0.28952,-0.23296,0,0.37214,-0.36177,-1.1117,-1.0082,5.9644,-0.82721,0.70388,0.016615,0.48,0.26,0
0.27263,0.037412,0.56079,-0.3371,-0.68018,-0.63231,0.057749,0,0,0.23305,-0.10667,0,0.47644,0,0,0.25597,-0.14102,0,0.30414,-0.29959,-0.71769,-0.63231,29.584,-0.54987,0.39355,0.0079883,0.5,0.26,0
0.2654,0.04518,0.5317,-0.32073,-0.3055,-0.27649,0.046551,0,0,-0.34513,-0.22631,0,0.7262,0,0,0.23785,-0.041709,0,0.24153,-0.26595,-0.36029,-0.27649,49.646,-0.30091,0.089537,-3.515e-05,0.52,0.26,0
0.25883,0.050963,0.50371,-0.31133,-0.30807,-0.26977,0.038901,0,0,-0.32415,-0.29874,0,0.60686,0,0,0.22862,-0.04072,0,0.23226,-0.27077,-0.34864,-0.26977,46.199,-0.29639,0.078373,-2.4711e-05,0.54,0.26,0
0.25243,0.054824,0.47683,-0.30376,-0.30554,-0.26226,0.031868,0,0,-0.3237,-0.33755,0,0.49714,0,0,0.2199,-0.037903,0,0.22318,-0.27277,-0.33653,-0.26226,44.202,-0.29052,0.069612,-1.6002e-05,0.56,0.26,0
0.24588,0.057139,0.45093,-0.29771,-0.3007,-0.25468,0.026064,0,0,-0.33565,-0.35898,0,0.40659,0,0,0.21246,-0.03413,0,0.2152,-0.2731,-0.32532,-0.25468,43.358,-0.28437,0.063462,-9.4938e-06,0.58,0.26,0
0.239,0.058293,0.42584,-0.29261,-0.29477,-0.24718,0.021293,0,0,-0.35429,-0.37113,0,0.33218,0,0,0.20653,-0.030115,0,0.20872,-0.27237,-0.31501,-0.24718,43.549,-0.27819,0.059381,-4.6064e-06,0.6,0.26,0
0.23171,0.05857,0.40137,-0.28824,-0.28819,-0.23982,0.01725,0,0,-0.37764,-0.37725,0,0.2691,0,0,0.20201,-0.02621,0,0.20371,-0.27096,-0.30546,-0.23982,45.041,-0.27208,0.056871,-8.3636e-07,0.62,0.26,0
0.2239,0.058173,0.37736,-0.28456,-0.28115,-0.23261,0.013738,0,0,-0.40523,-0.37866,0,0.21431,0,0,0.19871,-0.02253,0,0.19998,-0.26901,-0.2967,-0.23261,48.534,-0.2661,0.055676,2.0652e-06,0.64,0.26,0
0.2155,0.057249,0.35368,-0.28157,-0.27375,-0.22554,0.010633,0,0,-0.43701,-0.37604,0,0.16587,0,0,0.19644,-0.01908,0,0.19736,-0.26633,-0.28899,-0.22554,55.091,-0.26029,0.055689,4.1794e-06,0.66,0.26,0
0.20642,0.055912,0.33021,-0.27926,-0.26604,-0.21863,0.0078445,0,0,-0.47298,-0.36981,0,0.12237,0,0,0.19504,-0.015815,0,0.19568,-0.26239,-0.28291,-0.21863,65.067,-0.25464,0.056873,5.4696e-06,0.68,0.26,0
0.19658,0.054252,0.30686,-0.27764,-0.25803,-0.21184,0.0052984,0,0,-0.51317,-0.36026,0,0.082655,0,0,0.19444,-0.012672,0,0.19485,-0.25669,-0.27898,-0.21184,75.803,-0.24917,0.059222,5.8013e-06,0.7,0.26,0
0.18589,0.052344,0.28354,-0.27669,-0.24976,-0.20519,0.0029304,0,0,-0.55766,-0.34762,0,0.045715,0,0,0.19458,-0.0095781,0,0.19482,-0.24944,-0.277,-0.20519,83.861,-0.24388,0.062747,4.944e-06,0.72,0.26,0
0.17427,0.050248,0.26016,-0.27643,-0.24124,-0.19866,0.00069029,0,0,-0.60659,-0.33209,0,0.010769,0,0,0.19547,-0.0064628,0,0.19558,-0.24122,-0.27644,-0.19866,88.877,-0.23877,0.067461,2.5647e-06,0.74,0.26,0
0.16163,0.048018,0.23663,-0.27688,-0.23249,-0.19225,-0.0014531,0,0,-0.66014,-0.31387,0,-0.022669,0,0,0.19716,-0.0032537,0,0.19719,-0.23244,-0.27693,-0.19225,-88.127,-0.23387,0.073368,-1.7802e-06,0.76,0.26,0
0.14787,0.045706,0.21285,-0.27809,-0.22355,-0.18597,-0.0035033,0,0,-0.71857,-0.29315,0,-0.054652,0,0,0.19975,0.0001162,0,0.19975,-0.22333,-0.27831,-0.18597,-86.34,-0.2292,0.080461,-8.6518e-06,0.78,0.26,0
0.13289,0.043362,0.18869,-0.28008,-0.21445,-0.17981,-0.0054272,0,0,-0.78211,-0.27024,0,-0.084664,0,0,0.2034,0.0036967,0,0.20344,-0.21401,-0.28052,-0.17981,-85.304,-0.22478,0.088707,-1.8724e-05,0.8,0.26,0
0.11658,0.041045,0.16403,-0.28285,-0.20525,-0.17377,-0.0071517,0,0,-0.85086,-0.24553,0,-0.11157,0,0,0.20831,0.0074903,0,0.20845,-0.20459,-0.28351,-0.17377,-84.778,-0.22062,0.09803,-3.2746e-05,0.82,0.26,0
0.098851,0.038814,0.1387,-0.28637,-0.19599,-0.16782,-0.0085808,0,0,-0.92465,-0.2197,0,-0.13386,0,0,0.2147,0.011387,0,0.21503,-0.19518,-0.28718,-0.16782,-84.624,-0.21673,0.1083,-5.1466e-05,0.84,0.26,0
0.079596,0.036718,0.1125,-0.29052,-0.18674,-0.16193,-0.0096633,0,0,-1.003,-0.19353,0,-0.15075,0,0,0.22271,0.015041,0,0.22326,-0.18585,-0.29141,-0.16193,-84.725,-0.21306,0.11934,-7.5602e-05,0.86,0.26,0
0.05873,0.034752,0.085245,-0.29534,-0.17747,-0.15605,-0.010423,0,0,-1.0865,-0.16708,0,-0.16259,0,0,0.23218,0.017722,0,0.23292,-0.17656,-0.29626,-0.15605,-84.985,-0.20962,0.13116,-0.0001064,0.88,0.26,0
0.036137,0.032858,0.056777,-0.30068,-0.16729,-0.14985,-0.010817,0,0,-1.1764,-0.13599,0,-0.16875,0,0,0.24241,0.01849,0,0.24318,-0.16642,-0.30155,-0.14985,-85.394,-0.20594,0.14413,-0.00014696,0.9,0.26,0
0.011672,0.030992,0.027067,-0.29988,-0.21127,-0.16913,-0.0088223,0,0,-0.67967,-0.093896,0,-0.090345,0,0,0.2636,0.058165,0,0.27313,-0.21012,-0.30103,-0.16913,-81.923,-0.22676,0.12294,-7.7611e-05,0.92,0.26,0
0.0089505,0.031983,0.021474,-0.31387,-0.31005,-0.20865,-0.0062938,0,0,-0.13678,-0.13182,0,-0.016364,0,0,0.3039,0.088901,0,0.31758,-0.30538,-0.31853,-0.20865,-53.437,-0.27752,0.10393,5.4562e-05,0.94,0.26,0
0.0062006,0.032896,0.01491,-0.3196,-0.33042,-0.20992,-0.006645,0,0,-0.14259,-0.15666,0,-0.017277,0,0,0.3459,0.065262,0,0.35228,-0.31644,-0.33358,-0.20992,-25.419,-0.28665,0.11605,7.4397e-05,0.96,0.26,0
0.003247,0.03343,0.0076384,-0.32403,-0.33315,-0.20479,-0.0054424,0,0,-0.15501,-0.16686,0,-0.01415,0,0,0.37276,0.034131,0,0.37418,-0.32149,-0.33569,-0.20479,-25.032,-0.28732,0.12441,9.4563e-05,0.98,0.26,0
0,0.033591,0,-0.31597,-0.32097,-0.19108,0.003094,0,0,-0.16235,-0.16886,0,0.0080444,0,0,0.38192,-1.0408e-17,0,0.38165,-0.31449,-0.32245,-0.19108,25.51,-0.27601,0.12757,0.00010524,1,0.26,0
0,0.048486,1,-0.44936,-1.6895,-1.6417,-0.00064167,0,0,1.55,-0.062169,0,-0.0016683,0,0,0.3309,-3.6944e-16,0,0.33089,-0.44936,-1.6895,-1.6417,-0.029647,-1.2602,1.2169,0.092072,0,0.28,0
0.030999,0.048452,0.99338,-0.43982,-1.675,-1.6278,0.00030339,0,0,1.5444,-0.061345,0,0.00078881,0,0,0.32721,-0.0048685,0,0.32726,-0.43982,-1.675,-1.6278,0.014073,-1.2476,1.2123,0.091039,0.02,0.28,0
0.061777,0.048361,0.98691,-0.43662,-1.6615,-1.6163,0.00086011,0,0,1.5336,-0.058706,0,0.0022363,0,0,0.31647,-0.0095283,0,0.31669,-0.43662,-1.6615,-1.6163,0.040233,-1.2382,1.2029,0.08898,0.04,0.28,0
0.092345,0.048231,0.98072,-0.43204,-1.645,-1.6038,0.0018838,0,0,1.5233,-0.053511,0,0.0048978,0,0,0.2996,-0.013781,0,0.30008,-0.43203,-1.645,-1.6038,0.088981,-1.2269,1.1929,0.086837,0.06,0.28,0
0.12271,0.048097,0.97493,-0.42624,-1.6256,-1.5905,0.0037327,0,0,1.5135,-0.045611,0,0.0097051,0,0,0.27814,-0.017453,0,0.27894,-0.42623,-1.6256,-1.5905,0.17833,-1.2141,1.1822,0.084601,0.08,0.28,0
0.15288,0.04801,0.9696,-0.39641,-1.0015,-0.98498,0.005866,0,0,0.81902,-0.0369,0,0.054344,0,0,0.25927,-0.01191,0,0.25982,-0.39561,-1.0024,-0.98498,7.4996,-0.79431,0.59853,0.041584,0.1,0.28,0
0.15547,0.049503,0.93935,-0.37312,-0.40583,-0.39024,0.0062861,0,0,0.13356,-0.12157,0,0.098063,0,0,0.24998,-0.0059172,0,0.25006,-0.37195,-0.407,-0.39024,10.512,-0.38973,0.030357,1.0905e-07,0.12,0.28,0
0.15823,0.050665,0.9096,-0.36687,-0.40929,-0.38445,0.0060158,0,0,0.13714,-0.19378,0,0.093847,0,0,0.24605,-0.0082809,0,0.24619,-0.36603,-0.41013,-0.38445,7.9165,-0.38687,0.038363,-8.1354e-07,0.14,0.28,0
0.16096,0.051516,0.8803,-0.36171,-0.41019,-0.37829,0.0058484,0,0,0.12929,-0.24885,0,0.091235,0,0,0.24273,-0.010485,0,0.24296,-0.36102,-0.41089,-0.37829,6.7823,-0.3834,0.043864,-2.1795e-06,0.16,0.28,0
0.1634,0.052104,0.85135,-0.35792,-0.40847,-0.37181,0.0058933,0,0,0.10834,-0.28595,0,0.091936,0,0,0.24038,-0.012532,0,0.2407,-0.35724,-0.40914,-0.37181,6.5626,-0.3794,0.046371,-3.4688e-06,0.18,0.28,0
0.16529,0.052494,0.82261,-0.35552,-0.40436,-0.36506,0.0062372,0,0,0.074463,-0.30649,0,0.0973,0,0,0.23926,-0.014431,0,0.23969,-0.35474,-0.40514,-0.36506,7.1638,-0.37498,0.046119,-4.1985e-06,0.2,0.28,0
0.16638,0.052765,0.79393,-0.35445,-0.39817,-0.35811,0.0069478,0,0,0.028546,-0.3125,0,0.10838,0,0,0.23953,-0.016197,0,0.24007,-0.35337,-0.39925,-0.35811,8.8153,-0.37024,0.043703,-4.1176e-06,0.22,0.28,0
0.16643,0.053003,0.76512,-0.35461,-0.39009,-0.35093,0.0080781,0,0,-0.028729,-0.30542,0,0.12602,0,0,0.24122,-0.017844,0,0.24188,-0.35286,-0.39184,-0.35093,12.244,-0.36521,0.039979,-3.256e-06,0.24,0.28,0
0.16523,0.053298,0.73603,-0.35597,-0.38014,-0.3435,0.0096641,0,0,-0.097208,-0.28575,0,0.15076,0,0,0.24426,-0.019394,0,0.24503,-0.35258,-0.38353,-0.3435,19.323,-0.35987,0.036346,-1.9575e-06,0.26,0.28,0
0.16254,0.053735,0.7065,-0.35845,-0.36821,-0.33575,0.011716,0,0,-0.17705,-0.25321,0,0.18277,0,0,0.24841,-0.020875,0,0.2493,-0.35064,-0.37602,-0.33575,33.689,-0.35413,0.035271,-9.7627e-07,0.28,0.28,0
0.15815,0.054388,0.67641,-0.36193,-0.35419,-0.32757,0.01421,0,0,-0.26801,-0.20759,0,0.22167,0,0,0.25335,-0.022328,0,0.25434,-0.34333,-0.37279,-0.32757,52.623,-0.3479,0.039752,-1.6014e-06,0.3,0.28,0
0.15182,0.055309,0.6457,-0.36611,-0.33813,-0.31889,0.017084,0,0,-0.36834,-0.15008,0,0.26652,0,0,0.2586,-0.023813,0,0.25971,-0.33004,-0.37421,-0.31889,64.658,-0.34104,0.050668,-5.6055e-06,0.32,0.28,0
0.14341,0.056521,0.61435,-0.38036,-0.7293,-0.69127,0.025003,0,0,0.22898,-0.084754,0,0.19375,0,0,0.26959,-0.088936,0,0.28988,-0.35436,-0.7553,-0.69127,35.509,-0.60031,0.38632,0.0090114,0.34,0.28,0
0.16098,0.053123,0.60879,-0.39703,-1.1388,-1.0696,0.04567,0,0,0.87427,-0.090052,0,0.11874,0,0,0.29096,-0.1548,0,0.32985,-0.39423,-1.1416,-1.0696,3.5099,-0.86847,0.71408,0.018061,0.36,0.28,0
0.17838,0.050569,0.60271,-0.3971,-1.1399,-1.0638,0.066139,0,0,0.86671,-0.098872,0,0.17196,0,0,0.31402,-0.15856,0,0.35193,-0.39126,-1.1457,-1.0638,5.049,-0.86692,0.71701,0.018102,0.38,0.28,0
0.19565,0.048563,0.59623,-0.3943,-1.1382,-1.056,0.08098,0,0,0.86018,-0.10686,0,0.21055,0,0,0.32963,-0.1639,0,0.36816,-0.38558,-1.1469,-1.056,6.1415,-0.86281,0.72016,0.018156,0.4,0.28,0
0.21279,0.046815,0.58953,-0.38906,-1.1326,-1.046,0.089681,0,0,0.85405,-0.11253,0,0.23317,0,0,0.33513,-0.17087,0,0.37616,-0.3784,-1.1433,-1.046,6.7813,-0.85589,0.72117,0.018089,0.42,0.28,0
0.22981,0.044998,0.58283,-0.38174,-1.1224,-1.0341,0.090624,0,0,0.84803,-0.11483,0,0.23562,0,0,0.32878,-0.1791,0,0.37443,-0.37081,-1.1333,-1.0341,6.8754,-0.84606,0.71805,0.017796,0.44,0.28,0
0.24671,0.042744,0.57638,-0.37318,-1.1057,-1.02,0.082233,0,0,0.84091,-0.11135,0,0.2138,0,0,0.31024,-0.18745,0,0.36267,-0.36406,-1.1148,-1.02,6.3272,-0.83297,0.70813,0.017141,0.46,0.28,0
0.26345,0.039685,0.57042,-0.36371,-1.0795,-1.0034,0.064775,0,0,0.83156,-0.098928,0,0.16841,0,0,0.28109,-0.194,0,0.34197,-0.3579,-1.0853,-1.0034,5.1296,-0.81552,0.69009,0.01608,0.48,0.28,0
0.27997,0.035555,0.56513,-0.33647,-0.66565,-0.6303,0.04651,0,0,0.22618,-0.078795,0,0.38152,0,0,0.25301,-0.1148,0,0.28695,-0.30285,-0.69928,-0.6303,30.977,-0.54414,0.37816,0.0076149,0.5,0.28,0
0.2725,0.041182,0.53611,-0.32184,-0.29832,-0.2754,0.036981,0,0,-0.36223,-0.17879,0,0.57691,0,0,0.23798,-0.032775,0,0.24026,-0.27128,-0.34889,-0.2754,53.82,-0.29852,0.075634,-2.1999e-05,0.52,0.28,0
0.26549,0.04553,0.50802,-0.31352,-0.30101,-0.26903,0.031278,0,0,-0.34706,-0.24943,0,0.48794,0,0,0.23015,-0.031784,0,0.23237,-0.27537,-0.33916,-0.26903,50.657,-0.29452,0.06719,-1.5112e-05,0.54,0.28,0
0.25861,0.048537,0.48088,-0.30646,-0.29973,-0.262,0.025693,0,0,-0.34675,-0.29429,0,0.40081,0,0,0.22245,-0.029955,0,0.22449,-0.27718,-0.32901,-0.262,48.728,-0.2894,0.060852,-9.1901e-06,0.56,0.28,0
0.25161,0.050361,0.45463,-0.30057,-0.29597,-0.25473,0.020854,0,0,-0.35756,-0.32161,0,0.32532,0,0,0.21555,-0.027593,0,0.21733,-0.27729,-0.31925,-0.25473,48.153,-0.28376,0.05671,-4.6205e-06,0.58,0.28,0
0.24431,0.051229,0.42915,-0.29562,-0.2908,-0.24745,0.016825,0,0,-0.37572,-0.33814,0,0.26247,0,0,0.20977,-0.024993,0,0.21127,-0.27622,-0.31021,-0.24745,49.074,-0.27796,0.054412,-1.189e-06,0.6,0.28,0
0.23659,0.051353,0.40428,-0.2914,-0.2848,-0.24024,0.01347,0,0,-0.39903,-0.34759,0,0.21013,0,0,0.2052,-0.022352,0,0.20642,-0.27423,-0.30197,-0.24024,51.878,-0.27215,0.053549,1.376e-06,0.62,0.28,0
0.22835,0.050901,0.3799,-0.28784,-0.27823,-0.23314,0.010637,0,0,-0.42668,-0.3517,0,0.16594,0,0,0.20177,-0.019762,0,0.20274,-0.27136,-0.2947,-0.23314,57.157,-0.2664,0.053837,3.2376e-06,0.64,0.28,0
0.21952,0.050006,0.35586,-0.28493,-0.27119,-0.22615,0.0082102,0,0,-0.45854,-0.35132,0,0.12808,0,0,0.19936,-0.017251,0,0.20011,-0.26735,-0.28877,-0.22615,64.967,-0.26076,0.055128,4.4348e-06,0.66,0.28,0
0.21001,0.048776,0.33205,-0.2827,-0.26375,-0.21928,0.0060979,0,0,-0.49469,-0.3469,0,0.095128,0,0,0.19786,-0.014814,0,0.19842,-0.26196,-0.28449,-0.21928,73.616,-0.25524,0.057369,4.8984e-06,0.68,0.28,0
0.19973,0.047293,0.30837,-0.28114,-0.25595,-0.21252,0.0042286,0,0,-0.53523,-0.33875,0,0.065966,0,0,0.1972,-0.012433,0,0.19759,-0.25526,-0.28183,-0.21252,80.721,-0.24987,0.060566,4.46e-06,0.7,0.28,0
0.1886,0.045628,0.28472,-0.28028,-0.24783,-0.20589,0.0025446,0,0,-0.58026,-0.32715,0,0.039696,0,0,0.19732,-0.010082,0,0.19758,-0.24763,-0.28048,-0.20589,85.543,-0.24466,0.064751,2.8554e-06,0.72,0.28,0
0.17652,0.043835,0.26101,-0.28012,-0.23941,-0.19936,0.0010031,0,0,-0.62988,-0.3124,0,0.015649,0,0,0.19825,-0.0077366,0,0.19839,-0.23939,-0.28014,-0.19936,88.589,-0.23963,0.069958,-2.7365e-07,0.74,0.28,0
0.1634,0.041965,0.23714,-0.28066,-0.23075,-0.19295,-0.00042159,0,0,-0.68415,-0.29485,0,-0.0065768,0,0,0.20001,-0.0053701,0,0.20008,-0.23074,-0.28066,-0.19295,-89.516,-0.23478,0.076204,-5.376e-06,0.76,0.28,0
0.14916,0.040059,0.21301,-0.2819,-0.22189,-0.18664,-0.0017344,0,0,-0.74303,-0.27495,0,-0.027056,0,0,0.20271,-0.0029625,0,0.20273,-0.22184,-0.28195,-0.18664,-88.346,-0.23014,0.083476,-1.2976e-05,0.78,0.28,0
0.13368,0.038161,0.18849,-0.28382,-0.21291,-0.18043,-0.0029162,0,0,-0.80639,-0.2533,0,-0.045492,0,0,0.20646,-0.00050747,0,0.20647,-0.21279,-0.28394,-0.18043,-87.649,-0.22572,0.091711,-2.3638e-05,0.8,0.28,0
0.1169,0.036315,0.16346,-0.28635,-0.20389,-0.17431,-0.0039272,0,0,-0.87386,-0.23068,0,-0.061264,0,0,0.2114,0.0019688,0,0.21143,-0.2037,-0.28653,-0.17431,-87.279,-0.22152,0.10079,-3.7908e-05,0.82,0.28,0
0.098728,0.034563,0.13776,-0.2894,-0.19491,-0.16825,-0.0047251,0,0,-0.94493,-0.20795,0,-0.073712,0,0,0.21762,0.0043723,0,0.21769,-0.19468,-0.28963,-0.16825,-87.144,-0.21752,0.11056,-5.6272e-05,0.84,0.28,0
0.079102,0.032939,0.11123,-0.29287,-0.186,-0.1622,-0.0052909,0,0,-1.0192,-0.18563,0,-0.082538,0,0,0.22506,0.0064956,0,0.22518,-0.18574,-0.29313,-0.1622,-87.173,-0.21369,0.1209,-7.928e-05,0.86,0.28,0
0.057958,0.031458,0.083745,-0.29666,-0.17691,-0.15603,-0.0056267,0,0,-1.0969,-0.16285,0,-0.087777,0,0,0.23341,0.0080108,0,0.23359,-0.17664,-0.29692,-0.15603,-87.316,-0.20986,0.13181,-0.00010797,0.88,0.28,0
0.035225,0.03012,0.055214,-0.3006,-0.16709,-0.14951,-0.0056219,0,0,-1.1785,-0.13712,0,-0.087702,0,0,0.24205,0.0085494,0,0.24224,-0.16685,-0.30083,-0.14951,-87.593,-0.20573,0.14344,-0.00014414,0.9,0.28,0
0.010819,0.028952,0.025654,-0.29912,-0.2176,-0.16998,-0.0042507,0,0,-0.67633,-0.10612,0,-0.046137,0,0,0.2593,0.027576,0,0.26189,-0.21726,-0.29945,-0.16998,-84.648,-0.2289,0.12197,-6.7571e-05,0.92,0.28,0
0.0081714,0.029306,0.020208,-0.30608,-0.30855,-0.2046,-0.0021216,0,0,-0.13193,-0.13514,0,-0.0055163,0,0,0.29211,0.042504,0,0.29589,-0.30486,-0.30977,-0.2046,-29.897,-0.27308,0.10281,5.5377e-05,0.94,0.28,0
0.0055418,0.029688,0.01397,-0.30708,-0.3293,-0.20488,-0.001829,0,0,-0.13286,-0.16174,0,-0.0047554,0,0,0.32669,0.031681,0,0.32853,-0.30694,-0.32944,-0.20488,-4.6761,-0.28042,0.11497,6.8077e-05,0.96,0.28,0
0.002857,0.029934,0.007141,-0.30687,-0.33699,-0.2003,-0.0015917,0,0,-0.13855,-0.1777,0,-0.0041383,0,0,0.34924,0.016792,0,0.34966,-0.30679,-0.33708,-0.2003,-3.0167,-0.28139,0.12443,7.9529e-05,0.98,0.28,0
0,0.030012,0,-0.29767,-0.32829,-0.18779,0.0014893,0,0,-0.14285,-0.18265,0,0.0038721,0,0,0.35705,1.7347e-18,0,0.35697,-0.2976,-0.32836,-0.18779,2.778,-0.27125,0.128,8.7085e-05,1,0.28,0
0,0.047224,1,-0.44897,-1.6883,-1.6412,-0.00031965,0,0,1.5499,-0.061234,0,-0.00083109,0,0,0.32982,-3.6863e-17,0,0.32981,-0.44897,-1.6883,-1.6412,-0.014778,-1.2595,1.2164,0.091981,0,0.3,0
0.030997,0.047208,0.9934,-0.43934,-1.6741,-1.6275,-0.0021277,0,0,1.5445,-0.060695,0,-0.0055321,0,0,0.32608,0.0027506,0,0.32611,-0.43934,-1.6741,-1.6275,-0.098728,-1.247,1.2121,0.091011,0.02,0.3,0
0.061781,0.047169,0.98696,-0.43584,-1.6614,-1.6161,-0.0034817,0,0,1.5344,-0.058855,0,-0.0090524,0,0,0.31518,0.0051092,0,0.31531,-0.43583,-1.6614,-1.6161,-0.16277,-1.2378,1.2036,0.089119,0.04,0.3,0
0.092372,0.047141,0.9808,-0.43086,-1.646,-1.6038,-0.0035435,0,0,1.5249,-0.054786,0,-0.0092131,0,0,0.29803,0.0066383,0,0.29828,-0.43085,-1.646,-1.6038,-0.16708,-1.2269,1.1946,0.087198,0.06,0.3,0
0.12278,0.047158,0.97503,-0.42469,-1.6276,-1.5907,-0.0024244,0,0,1.5159,-0.047978,0,-0.0063035,0,0,0.27616,0.0068779,0,0.27652,-0.42468,-1.6277,-1.5907,-0.11547,-1.2144,1.1849,0.08517,0.08,0.3,0
0.15301,0.047234,0.96975,-0.39453,-1.0028,-0.98489,-0.0011556,0,0,0.82607,-0.039911,0,-0.0098499,0,0,0.25691,0.0031794,0,0.2571,-0.39451,-1.0028,-0.98489,-1.3299,-0.79407,0.59973,0.041918,0.1,0.3,0
0.15582,0.047047,0.93981,-0.37106,-0.40599,-0.38975,-0.00053012,0,0,0.14579,-0.1267,0,-0.0082699,0,0,0.24744,-0.0015886,0,0.24745,-0.37105,-0.406,-0.38975,-0.86919,-0.38893,0.030293,1.7271e-07,0.12,0.3,0
0.15884,0.046769,0.91036,-0.36474,-0.40976,-0.38408,0.00029794,0,0,0.15083,-0.20032,0,0.0046478,0,0,0.24345,-0.0043939,0,0.24349,-0.36474,-0.40976,-0.38408,0.37916,-0.38619,0.03912,-7.414e-07,0.14,0.3,0
0.16185,0.046516,0.88138,-0.35956,-0.41087,-0.37802,0.0015672,0,0,0.14406,-0.25622,0,0.024448,0,0,0.2401,-0.0074578,0,0.24022,-0.35951,-0.41092,-0.37802,1.7476,-0.38282,0.045102,-2.1771e-06,0.16,0.3,0
0.1646,0.046351,0.85274,-0.35574,-0.40935,-0.37165,0.0030776,0,0,0.12409,-0.29403,0,0.048011,0,0,0.23777,-0.010693,0,0.238,-0.35557,-0.40952,-0.37165,3.2752,-0.37891,0.047982,-3.5988e-06,0.18,0.3,0
0.16682,0.046313,0.82431,-0.3533,-0.40549,-0.36502,0.0047693,0,0,0.091459,-0.31565,0,0.0744,0,0,0.23671,-0.013994,0,0.23712,-0.35286,-0.40592,-0.36502,5.1784,-0.3746,0.048144,-4.5228e-06,0.2,0.3,0
0.16826,0.046442,0.79593,-0.35211,-0.39964,-0.35818,0.0066958,0,0,0.047314,-0.32335,0,0.10445,0,0,0.23709,-0.017258,0,0.23771,-0.35119,-0.40056,-0.35818,7.869,-0.36998,0.046274,-4.6998e-06,0.22,0.3,0
0.16871,0.046795,0.76741,-0.3521,-0.39198,-0.35113,0.0089662,0,0,-0.0075714,-0.31867,0,0.13987,0,0,0.23893,-0.020381,0,0.2398,-0.35017,-0.3939,-0.35113,12.104,-0.36507,0.043263,-4.152e-06,0.24,0.3,0
0.16796,0.047453,0.73859,-0.35319,-0.38252,-0.34381,0.01168,0,0,-0.07314,-0.30196,0,0.18221,0,0,0.24216,-0.023259,0,0.24328,-0.34911,-0.38661,-0.34381,19.265,-0.35984,0.040409,-3.1936e-06,0.26,0.3,0
0.16578,0.048508,0.7093,-0.35536,-0.37108,-0.33615,0.01486,0,0,-0.14986,-0.27248,0,0.23182,0,0,0.24654,-0.025782,0,0.24789,-0.34641,-0.38003,-0.33615,31.062,-0.3542,0.039759,-2.5176e-06,0.28,0.3,0
0.16196,0.05004,0.67942,-0.35853,-0.35741,-0.32802,0.018382,0,0,-0.23796,-0.22929,0,0.28676,0,0,0.2517,-0.027849,0,0.25325,-0.33958,-0.37636,-0.32802,45.866,-0.34799,0.043724,-3.3026e-06,0.3,0.3,0
0.15626,0.052081,0.64889,-0.3624,-0.34146,-0.3193,0.021933,0,0,-0.33614,-0.17278,0,0.34215,0,0,0.25716,-0.029397,0,0.25885,-0.32762,-0.37623,-0.3193,57.761,-0.34105,0.053257,-7.1243e-06,0.32,0.3,0
0.14852,0.054573,0.6177,-0.37692,-0.74465,-0.6968,0.029001,0,0,0.2544,-0.10665,0,0.23529,0,0,0.26841,-0.10652,0,0.29682,-0.35196,-0.76961,-0.6968,32.786,-0.60612,0.39886,0.0097962,0.34,0.3,0
0.16644,0.051127,0.61216,-0.3925,-1.1608,-1.0782,0.046921,0,0,0.89135,-0.10746,0,0.122,0,0,0.2901,-0.1822,0,0.34284,-0.38965,-1.1637,-1.0782,3.4818,-0.87716,0.73501,0.019466,0.36,0.3,0
0.18417,0.048439,0.6061,-0.39204,-1.1568,-1.0708,0.065068,0,0,0.88233,-0.1119,0,0.16918,0,0,0.31329,-0.17963,0,0.36128,-0.38655,-1.1623,-1.0708,4.8285,-0.87321,0.73429,0.019272,0.38,0.3,0
0.20173,0.046316,0.59963,-0.38897,-1.1496,-1.0612,0.077873,0,0,0.8739,-0.11493,0,0.20247,0,0,0.32866,-0.17558,0,0.37265,-0.38108,-1.1575,-1.0612,5.7859,-0.86659,0.73303,0.019058,0.4,0.3,0
0.21913,0.044512,0.59295,-0.38414,-1.1374,-1.0494,0.084176,0,0,0.86484,-0.11436,0,0.21886,0,0,0.33368,-0.17087,0,0.37487,-0.37484,-1.1467,-1.0494,6.2995,-0.85697,0.72807,0.018635,0.42,0.3,0
0.23633,0.042737,0.58628,-0.37816,-1.1189,-1.0354,0.083052,0,0,0.85442,-0.10856,0,0.21593,0,0,0.32693,-0.16623,0,0.36681,-0.36896,-1.1281,-1.0354,6.3193,-0.84416,0.7173,0.017892,0.44,0.3,0
0.2533,0.040666,0.57987,-0.37153,-1.0925,-1.0191,0.073834,0,0,0.84181,-0.095432,0,0.19197,0,0,0.30849,-0.16223,0,0.34876,-0.36404,-1.1,-1.0191,5.7877,-0.8277,0.699,0.016751,0.46,0.3,0
0.27,0.037952,0.57394,-0.36395,-1.0574,-1.0003,0.056347,0,0,0.82729,-0.074124,0,0.1465,0,0,0.28018,-0.15921,0,0.32269,-0.35941,-1.0619,-1.0003,4.6156,-0.80721,0.67383,0.015272,0.48,0.3,0
0.2864,0.03426,0.56866,-0.33834,-0.65027,-0.6283,0.037343,0,0,0.21244,-0.048957,0,0.29968,0,0,0.2532,-0.091762,0,0.27581,-0.30672,-0.68189,-0.6283,33.212,-0.53897,0.36333,0.0070998,0.5,0.3,0
0.2785,0.038029,0.53956,-0.32463,-0.29313,-0.27526,0.028238,0,0,-0.38514,-0.13942,0,0.44051,0,0,0.23886,-0.024941,0,0.24019,-0.27655,-0.34122,-0.27526,59.577,-0.29767,0.065324,-1.4297e-05,0.52,0.3,0
0.27099,0.040986,0.51134,-0.31653,-0.29567,-0.26888,0.023836,0,0,-0.37164,-0.20895,0,0.37184,0,0,0.23144,-0.023741,0,0.23268,-0.28008,-0.33212,-0.26888,56.815,-0.29369,0.058445,-8.9976e-06,0.54,0.3,0
0.26363,0.043052,0.48402,-0.3094,-0.29501,-0.26199,0.01951,0,0,-0.36976,-0.25755,0,0.30435,0,0,0.22409,-0.022527,0,0.22525,-0.28141,-0.323,-0.26199,55.119,-0.2888,0.053983,-4.697e-06,0.56,0.3,0
0.2562,0.044274,0.45755,-0.30334,-0.29204,-0.25487,0.015647,0,0,-0.37803,-0.2899,0,0.2441,0,0,0.21742,-0.021246,0,0.21848,-0.28105,-0.31432,-0.25487,54.925,-0.28342,0.051609,-1.4461e-06,0.58,0.3,0
0.24851,0.044767,0.43184,-0.29821,-0.28757,-0.24771,0.012392,0,0,-0.39395,-0.31091,0,0.19331,0,0,0.21177,-0.019876,0,0.21271,-0.2794,-0.30638,-0.24771,56.624,-0.27783,0.050864,9.3874e-07,0.6,0.3,0
0.24044,0.044666,0.40673,-0.29389,-0.28213,-0.24059,0.0097262,0,0,-0.41571,-0.32397,0,0.15173,0,0,0.20724,-0.018424,0,0.20807,-0.27664,-0.29937,-0.24059,60.579,-0.2722,0.051339,2.6435e-06,0.62,0.3,0
0.23188,0.044104,0.3821,-0.29028,-0.27599,-0.23357,0.0075673,0,0,-0.44238,-0.33095,0,0.11805,0,0,0.20381,-0.016906,0,0.20452,-0.27273,-0.29354,-0.23357,66.673,-0.26661,0.052747,3.7753e-06,0.64,0.3,0
0.22274,0.043196,0.35781,-0.28736,-0.26931,-0.22664,0.005818,0,0,-0.47366,-0.33284,0,0.090761,0,0,0.20138,-0.015343,0,0.20197,-0.2676,-0.28908,-0.22664,73.599,-0.2611,0.054943,4.3405e-06,0.66,0.3,0
0.21294,0.042036,0.33377,-0.28513,-0.26215,-0.21981,0.0043903,0,0,-0.50951,-0.3302,0,0.068489,0,0,0.19986,-0.013756,0,0.20034,-0.26133,-0.28594,-0.21981,79.548,-0.2557,0.057893,4.2434e-06,0.68,0.3,0
0.20236,0.040703,0.30985,-0.2836,-0.25456,-0.21309,0.0032116,0,0,-0.54998,-0.32346,0,0.0501,0,0,0.19917,-0.012163,0,0.19954,-0.25421,-0.28395,-0.21309,83.764,-0.25041,0.06163,3.2906e-06,0.7,0.3,0
0.19094,0.039258,0.28597,-0.28276,-0.24659,-0.20647,0.0022247,0,0,-0.5951,-0.31296,0,0.034706,0,0,0.19928,-0.010582,0,0.19956,-0.24645,-0.2829,-0.20647,86.494,-0.24527,0.066215,1.1957e-06,0.72,0.3,0
0.17856,0.037752,0.26202,-0.28263,-0.2383,-0.19995,0.001387,0,0,-0.6449,-0.29912,0,0.021637,0,0,0.20019,-0.0090324,0,0.20039,-0.23825,-0.28267,-0.19995,88.21,-0.24029,0.071705,-2.4156e-06,0.74,0.3,0
0.16514,0.036224,0.23792,-0.28319,-0.22973,-0.19353,0.00066818,0,0,-0.69934,-0.28236,0,0.010424,0,0,0.20194,-0.0075311,0,0.20208,-0.22972,-0.2832,-0.19353,89.284,-0.23548,0.078134,-7.996e-06,0.76,0.3,0
0.15059,0.034708,0.21356,-0.28443,-0.22096,-0.18721,4.948e-05,0,0,-0.75829,-0.26328,0,0.00077189,0,0,0.20462,-0.0060976,0,0.20471,-0.22096,-0.28443,-0.18721,89.955,-0.23087,0.085492,-1.6055e-05,0.78,0.3,0
0.13481,0.033231,0.18881,-0.2863,-0.21209,-0.18099,-0.00047837,0,0,-0.82144,-0.24262,0,-0.0074626,0,0,0.20833,-0.0047528,0,0.20839,-0.21209,-0.2863,-0.18099,-89.631,-0.22646,0.093719,-2.7114e-05,0.8,0.3,0
0.11773,0.031818,0.16356,-0.28872,-0.20321,-0.17484,-0.00091635,0,0,-0.88829,-0.22128,0,-0.014295,0,0,0.21319,-0.0035187,0,0.21323,-0.2032,-0.28873,-0.17484,-89.386,-0.22226,0.10269,-4.1653e-05,0.82,0.3,0
0.099278,0.030496,0.13765,-0.2916,-0.1944,-0.16874,-0.0012579,0,0,-0.95828,-0.20016,0,-0.019624,0,0,0.21923,-0.0024175,0,0.21927,-0.19439,-0.29161,-0.16874,-89.259,-0.21825,0.11227,-6.009e-05,0.84,0.3,0
0.079398,0.029292,0.11094,-0.29481,-0.18566,-0.16263,-0.0014881,0,0,-1.031,-0.1796,0,-0.023214,0,0,0.22635,-0.0014684,0,0.22639,-0.18564,-0.29484,-0.16263,-89.219,-0.21437,0.12233,-8.293e-05,0.86,0.3,0
0.058037,0.028238,0.083322,-0.29826,-0.17675,-0.15639,-0.0015811,0,0,-1.1066,-0.15879,0,-0.024665,0,0,0.23424,-0.00068285,0,0.23428,-0.17672,-0.29828,-0.15639,-89.255,-0.21046,0.13289,-0.00011108,0.88,0.3,0
0.035136,0.027374,0.054725,-0.30171,-0.1672,-0.14979,-0.0014992,0,0,-1.1849,-0.13577,0,-0.023387,0,0,0.24228,-5.979e-05,0,0.24231,-0.16718,-0.30172,-0.14979,-89.362,-0.20623,0.14402,-0.00014592,0.9,0.3,0
0.01064,0.026747,0.025176,-0.30002,-0.21971,-0.17061,-0.0014676,0,0,-0.67855,-0.10944,0,-0.014697,0,0,0.25816,0.0014634,0,0.2586,-0.21966,-0.30007,-0.17061,-87.628,-0.23011,0.1224,-6.6076e-05,0.92,0.3,0
0.0079934,0.026578,0.019774,-0.30486,-0.30839,-0.20375,-0.0017835,0,0,-0.13145,-0.13603,0,-0.0046371,0,0,0.28831,0.002597,0,0.28896,-0.30412,-0.30914,-0.20375,-22.653,-0.27233,0.10297,5.5622e-05,0.94,0.3,0
0.0053825,0.026426,0.013643,-0.30437,-0.32913,-0.20369,-0.0016934,0,0,-0.13088,-0.16307,0,-0.0044028,0,0,0.32019,0.0020986,0,0.3205,-0.30425,-0.32924,-0.20369,-3.8943,-0.27906,0.11511,6.6059e-05,0.96,0.3,0
0.0027582,0.026322,0.0069667,-0.30286,-0.33841,-0.19935,-0.0010097,0,0,-0.13456,-0.18079,0,-0.0026252,0,0,0.34108,0.001165,0,0.34115,-0.30283,-0.33844,-0.19935,-1.6254,-0.28021,0.12515,7.3863e-05,0.98,0.3,0
0,0.026285,0,-0.2933,-0.33074,-0.18721,-0.00071684,0,0,-0.13791,-0.18659,0,-0.0018638,0,0,0.34834,-4.7705e-18,0,0.34832,-0.29329,-0.33076,-0.18721,-1.0964,-0.27042,0.12896,7.9601e-05,1,0.3,0
0,0.046036,1,-0.45606,-1.6838,-1.642,-0.00022674,0,0,1.5417,-0.054414,0,-0.00058952,0,0,0.3364,-2.2335e-15,0,0.33637,-0.45606,-1.6838,-1.642,-0.010581,-1.2606,1.2074,0.09003,0,0.32,0
0.030833,0.046025,0.99327,-0.44569,-1.6702,-1.628,-0.0052635,0,0,1.5371,-0.054788,0,-0.013685,0,0,0.33232,0.010736,0,0.33249,-0.44566,-1.6702,-1.628,-0.24628,-1.248,1.204,0.089271,0.02,0.32,0
0.061482,0.046007,0.98671,-0.44066,-1.6594,-1.6167,-0.0090977,0,0,1.5289,-0.055451,0,-0.023654,0,0,0.32036,0.020556,0,0.3211,-0.44059,-1.6594,-1.6167,-0.42768,-1.2389,1.1981,0.087941,0.04,0.32,0
0.091989,0.046039,0.98046,-0.43366,-1.6464,-1.6045,-0.010455,0,0,1.5221,-0.054536,0,-0.027182,0,0,0.30137,0.02837,0,0.30291,-0.43357,-1.6465,-1.6045,-0.49386,-1.2282,1.1925,0.08673,0.06,0.32,0
0.12237,0.046178,0.97465,-0.42557,-1.6296,-1.5912,-0.0097903,0,0,1.5153,-0.049947,0,-0.025455,0,0,0.27695,0.032956,0,0.27924,-0.42549,-1.6297,-1.5912,-0.46583,-1.2155,1.1854,0.085254,0.08,0.32,0
0.1526,0.046414,0.96938,-0.39326,-1.003,-0.98436,-0.0088617,0,0,0.831,-0.041629,0,-0.07905,0,0,0.25534,0.019402,0,0.25662,-0.39186,-1.0044,-0.98436,-8.9753,-0.79355,0.60316,0.042024,0.1,0.32,0
0.1556,0.044435,0.93973,-0.36924,-0.40725,-0.38957,-0.0077211,0,0,0.15857,-0.13789,0,-0.12045,0,0,0.24468,0.0030685,0,0.2447,-0.36773,-0.40875,-0.38957,-11.056,-0.38868,0.035554,2.5769e-07,0.12,0.32,0
0.15895,0.042652,0.91066,-0.36242,-0.41182,-0.38405,-0.0055918,0,0,0.16869,-0.2166,0,-0.087232,0,0,0.24018,-0.00023446,0,0.24018,-0.36179,-0.41244,-0.38405,-6.3785,-0.38609,0.043969,-9.0882e-07,0.14,0.32,0
0.16235,0.041267,0.88209,-0.35698,-0.41318,-0.37806,-0.002752,0,0,0.16443,-0.27389,0,-0.042932,0,0,0.23643,-0.0042554,0,0.23647,-0.35685,-0.41331,-0.37806,-2.797,-0.38274,0.049401,-2.5674e-06,0.16,0.32,0
0.16552,0.040343,0.85391,-0.35308,-0.41167,-0.37174,0.00026049,0,0,0.14555,-0.3114,0,0.0040636,0,0,0.23384,-0.008788,0,0.234,-0.35308,-0.41167,-0.37174,0.25476,-0.37883,0.051839,-4.155e-06,0.18,0.32,0
0.16817,0.039868,0.82597,-0.35061,-0.40786,-0.3652,0.0032628,0,0,0.1138,-0.33271,0,0.050899,0,0,0.23269,-0.013596,0,0.23308,-0.35043,-0.40804,-0.3652,3.2517,-0.37456,0.051832,-5.2411e-06,0.2,0.32,0
0.17007,0.039831,0.79807,-0.34938,-0.40221,-0.35849,0.0063325,0,0,0.071032,-0.34104,0,0.098786,0,0,0.23314,-0.018457,0,0.23386,-0.34864,-0.40296,-0.35849,6.7406,-0.37003,0.050131,-5.6368e-06,0.22,0.32,0
0.17102,0.040256,0.77002,-0.34926,-0.39496,-0.3516,0.0096637,0,0,0.018273,-0.33819,0,0.15075,0,0,0.23522,-0.02316,0,0.23636,-0.3473,-0.39692,-0.3516,11.462,-0.36527,0.047614,-5.3916e-06,0.24,0.32,0
0.17081,0.04122,0.74162,-0.35021,-0.38605,-0.34448,0.013451,0,0,-0.044668,-0.32425,0,0.20983,0,0,0.23886,-0.02748,0,0.24044,-0.34572,-0.39054,-0.34448,18.444,-0.36024,0.045449,-4.8095e-06,0.26,0.32,0
0.16923,0.042836,0.71269,-0.35227,-0.37517,-0.33701,0.017771,0,0,-0.11903,-0.2976,0,0.27722,0,0,0.24382,-0.031156,0,0.24582,-0.34258,-0.38486,-0.33701,28.606,-0.35482,0.045318,-4.5376e-06,0.28,0.32,0
0.16604,0.045216,0.6831,-0.35548,-0.36179,-0.32903,0.022431,0,0,-0.20633,-0.2555,0,0.34992,0,0,0.24973,-0.033913,0,0.25204,-0.33598,-0.38129,-0.32903,41,-0.34877,0.049149,-5.6885e-06,0.3,0.32,0
0.16098,0.048398,0.65275,-0.35963,-0.34546,-0.32032,0.026845,0,0,-0.30663,-0.19607,0,0.41878,0,0,0.25601,-0.035525,0,0.25849,-0.32478,-0.38031,-0.32032,52.395,-0.3418,0.057888,-9.7639e-06,0.32,0.32,0
0.15378,0.052255,0.62166,-0.37486,-0.75675,-0.70212,0.033268,0,0,0.27548,-0.12176,0,0.27841,0,0,0.26897,-0.12567,0,0.30712,-0.34974,-0.78186,-0.70212,30.666,-0.61124,0.40997,0.010435,0.34,0.32,0
0.172,0.048825,0.61608,-0.39214,-1.1809,-1.088,0.048764,0,0,0.90459,-0.12075,0,0.12679,0,0,0.29395,-0.21187,0,0.36267,-0.38914,-1.1839,-1.088,3.5245,-0.887,0.75139,0.020597,0.36,0.32,0
0.18996,0.046093,0.6099,-0.39342,-1.1723,-1.0796,0.064869,0,0,0.89203,-0.12045,0,0.16866,0,0,0.32064,-0.20222,0,0.37923,-0.38806,-1.1776,-1.0796,4.7288,-0.88176,0.7454,0.020037,0.38,0.32,0
0.20768,0.043966,0.60325,-0.3922,-1.1583,-1.0684,0.0757,0,0,0.87904,-0.11682,0,0.19682,0,0,0.33839,-0.18791,0,0.38706,-0.38479,-1.1657,-1.0684,5.5899,-0.87295,0.73706,0.019363,0.4,0.32,0
0.22512,0.04224,0.59636,-0.38886,-1.1386,-1.0546,0.079562,0,0,0.86548,-0.10924,0,0.20686,0,0,0.34449,-0.17072,0,0.38439,-0.38051,-1.147,-1.0546,5.9909,-0.86071,0.72473,0.018483,0.42,0.32,0
0.2423,0.040656,0.58947,-0.38362,-1.113,-1.0385,0.076454,0,0,0.85129,-0.096901,0,0.19878,0,0,0.33742,-0.15264,0,0.37033,-0.3757,-1.1209,-1.0385,5.92,-0.84503,0.70761,0.017367,0.44,0.32,0
0.25918,0.038927,0.58286,-0.37716,-1.0794,-1.0198,0.066546,0,0,0.83546,-0.077395,0,0.17302,0,0,0.31725,-0.13596,0,0.34537,-0.3709,-1.0856,-1.0198,5.3662,-0.82544,0.68418,0.015937,0.46,0.32,0
0.27571,0.03672,0.57678,-0.3693,-1.0358,-0.99832,0.048821,0,0,0.81773,-0.048738,0,0.12693,0,0,0.28601,-0.12326,0,0.31198,-0.36574,-1.0394,-0.99832,4.1672,-0.80114,0.65407,0.01418,0.48,0.32,0
0.29189,0.033597,0.57142,-0.34185,-0.63235,-0.62559,0.028466,0,0,0.1919,-0.015056,0,0.21851,0,0,0.25619,-0.068075,0,0.26906,-0.31057,-0.66363,-0.62559,36.501,-0.53326,0.3483,0.0064246,0.5,0.32,0
0.28339,0.035605,0.5421,-0.32882,-0.28928,-0.27578,0.019357,0,0,-0.41373,-0.10528,0,0.30197,0,0,0.24045,-0.017038,0,0.24109,-0.28138,-0.33672,-0.27578,67.805,-0.29796,0.058343,-9.8834e-06,0.52,0.32,0
0.27533,0.037172,0.51372,-0.32014,-0.2918,-0.2692,0.016051,0,0,-0.39729,-0.17628,0,0.2504,0,0,0.23256,-0.015724,0,0.23313,-0.28456,-0.32738,-0.2692,65.717,-0.29371,0.05222,-5.2372e-06,0.54,0.32,0
0.2675,0.038234,0.48629,-0.31244,-0.29145,-0.26222,0.01293,0,0,-0.39177,-0.22805,0,0.20171,0,0,0.22495,-0.01518,0,0.22549,-0.2853,-0.3186,-0.26222,64.532,-0.2887,0.049098,-1.8721e-06,0.56,0.32,0
0.25966,0.038765,0.45973,-0.30587,-0.28899,-0.25508,0.010109,0,0,-0.39618,-0.26451,0,0.15771,0,0,0.2182,-0.014993,0,0.21874,-0.28426,-0.3106,-0.25508,64.93,-0.28332,0.048104,5.0622e-07,0.58,0.32,0
0.25165,0.038793,0.43392,-0.30035,-0.2851,-0.24795,0.0077317,0,0,-0.40866,-0.28974,0,0.12061,0,0,0.2126,-0.014846,0,0.21313,-0.28186,-0.30358,-0.24795,67.298,-0.2778,0.048559,2.1688e-06,0.6,0.32,0
0.24332,0.038394,0.40871,-0.29572,-0.28018,-0.24089,0.0058482,0,0,-0.42772,-0.30646,0,0.091231,0,0,0.20817,-0.014563,0,0.20869,-0.27822,-0.29768,-0.24089,71.521,-0.27226,0.049988,3.2954e-06,0.62,0.32,0
0.23454,0.037663,0.38395,-0.29193,-0.27448,-0.23391,0.004427,0,0,-0.4525,-0.31639,0,0.069062,0,0,0.20485,-0.014096,0,0.20534,-0.27342,-0.29298,-0.23391,76.548,-0.26677,0.05212,3.9687e-06,0.64,0.32,0
0.22522,0.036693,0.35954,-0.2889,-0.26813,-0.22703,0.0033949,0,0,-0.48255,-0.32057,0,0.052961,0,0,0.20251,-0.01346,0,0.20296,-0.26759,-0.28944,-0.22703,80.947,-0.26135,0.054849,4.168e-06,0.66,0.32,0
0.21524,0.035568,0.33535,-0.2866,-0.26123,-0.22024,0.0026734,0,0,-0.51762,-0.31972,0,0.041705,0,0,0.20104,-0.012702,0,0.20145,-0.26095,-0.28688,-0.22024,84.05,-0.25603,0.058184,3.7721e-06,0.68,0.32,0
0.20451,0.034355,0.31129,-0.28503,-0.25385,-0.21355,0.0021952,0,0,-0.55758,-0.31438,0,0.034245,0,0,0.20037,-0.011879,0,0.20072,-0.2537,-0.28519,-0.21355,85.992,-0.25081,0.062191,2.5654e-06,0.7,0.32,0
0.19294,0.033109,0.28726,-0.28416,-0.24605,-0.20694,0.0019075,0,0,-0.60233,-0.30504,0,0.029757,0,0,0.20045,-0.011052,0,0.20076,-0.24595,-0.28426,-0.20694,87.142,-0.24572,0.066959,2.45e-07,0.72,0.32,0
0.18042,0.031871,0.26318,-0.28399,-0.23788,-0.20043,0.0017703,0,0,-0.65182,-0.29217,0,0.027616,0,0,0.2013,-0.01028,0,0.20156,-0.23782,-0.28406,-0.20043,87.805,-0.24077,0.072565,-3.5749e-06,0.74,0.32,0
0.16687,0.03067,0.23895,-0.28452,-0.22943,-0.19401,0.001751,0,0,-0.70601,-0.27624,0,0.027316,0,0,0.20294,-0.009625,0,0.20318,-0.22937,-0.28458,-0.19401,88.182,-0.23599,0.079061,-9.3579e-06,0.76,0.32,0
0.15218,0.029528,0.21447,-0.28574,-0.22075,-0.18769,0.0018185,0,0,-0.76479,-0.25783,0,0.028368,0,0,0.20549,-0.0091447,0,0.2057,-0.2207,-0.28579,-0.18769,88.399,-0.23139,0.086459,-1.7632e-05,0.78,0.32,0
0.13627,0.028456,0.18964,-0.28762,-0.21194,-0.18148,0.0019372,0,0,-0.82795,-0.23765,0,0.030221,0,0,0.20904,-0.0088875,0,0.20924,-0.21189,-0.28767,-0.18148,88.535,-0.22701,0.094725,-2.8959e-05,0.8,0.32,0
0.11906,0.027463,0.16431,-0.29011,-0.20311,-0.17535,0.0020672,0,0,-0.89512,-0.21652,0,0.032249,0,0,0.21374,-0.0088725,0,0.21394,-0.20306,-0.29016,-0.17535,88.64,-0.22285,0.10377,-4.3884e-05,0.82,0.32,0
0.10047,0.026556,0.13834,-0.2931,-0.19434,-0.16929,0.0021796,0,0,-0.96575,-0.19537,0,0.034002,0,0,0.21967,-0.0090529,0,0.21988,-0.19429,-0.29315,-0.16929,88.736,-0.21891,0.11345,-6.2888e-05,0.84,0.32,0
0.080432,0.025755,0.11158,-0.29651,-0.18565,-0.16325,0.0022827,0,0,-1.0395,-0.17478,0,0.03561,0,0,0.22679,-0.0092644,0,0.22701,-0.18561,-0.29656,-0.16325,88.821,-0.21514,0.12366,-8.6504e-05,0.86,0.32,0
0.058891,0.025107,0.083909,-0.30022,-0.17686,-0.15711,0.0024258,0,0,-1.1163,-0.15403,0,0.037842,0,0,0.23482,-0.0092082,0,0.23504,-0.17681,-0.30027,-0.15711,88.874,-0.2114,0.1344,-0.00011571,0.88,0.32,0
0.03578,0.02469,0.055228,-0.30406,-0.16742,-0.15065,0.0025705,0,0,-1.1966,-0.13082,0,0.0401,0,0,0.24315,-0.0085179,0,0.24333,-0.16737,-0.30411,-0.15065,88.923,-0.20738,0.14582,-0.0001522,0.9,0.32,0
0.011027,0.024574,0.025553,-0.30227,-0.21682,-0.17063,0.0012389,0,0,-0.68683,-0.10292,0,0.01613,0,0,0.25987,-0.024244,0,0.26195,-0.2168,-0.30229,-0.17063,89.055,-0.2299,0.12352,-7.2386e-05,0.92,0.32,0
0.008307,0.023865,0.020105,-0.30924,-0.30808,-0.2053,-0.0015342,0,0,-0.13512,-0.13361,0,-0.0039889,0,0,0.29169,-0.036699,0,0.29467,-0.30702,-0.3103,-0.2053,-55.369,-0.27421,0.1034,5.6586e-05,0.94,0.32,0
0.0056217,0.023166,0.013886,-0.31013,-0.33033,-0.20602,-0.0015988,0,0,-0.13534,-0.1616,0,-0.0041568,0,0,0.32525,-0.027031,0,0.32667,-0.31,-0.33045,-0.20602,-4.497,-0.28216,0.11557,7.0983e-05,0.96,0.32,0
0.0028936,0.022703,0.0070944,-0.30982,-0.33891,-0.20171,-0.00042994,0,0,-0.14054,-0.17835,0,-0.0011178,0,0,0.34714,-0.014221,0,0.34746,-0.30982,-0.33891,-0.20171,-0.84674,-0.28348,0.12521,8.2765e-05,0.98,0.32,0
0,0.022548,0,-0.30066,-0.33056,-0.18936,-0.0029753,0,0,-0.14468,-0.18355,0,-0.0077357,0,0,0.35472,-1.0408e-17,0,0.35466,-0.30036,-0.33085,-0.18936,-5.6276,-0.27353,0.12897,8.9774e-05,1,0.32,0
0,0.045048,1,-0.47173,-1.675,-1.644,-0.00060726,0,0,1.524,-0.040278,0,-0.0015789,0,0,0.35129,1.7347e-17,0,0.35119,-0.47173,-1.675,-1.644,-0.028916,-1.2636,1.1881,0.085935,0,0.34,0
0.03048,0.045016,0.99297,-0.45994,-1.662,-1.6296,-0.0099963,0,0,1.5205,-0.042189,0,-0.02599,0,0,0.34664,0.019553,0,0.34713,-0.45985,-1.6621,-1.6296,-0.47642,-1.2505,1.1863,0.085529,0.02,0.34,0
0.06082,0.044951,0.98613,-0.45199,-1.6544,-1.618,-0.017699,0,0,1.5159,-0.047221,0,-0.046017,0,0,0.33282,0.037923,0,0.33502,-0.45173,-1.6546,-1.618,-0.84315,-1.2415,1.185,0.085194,0.04,0.34,0
0.091114,0.044959,0.97966,-0.44115,-1.6461,-1.6058,-0.021048,0,0,1.5141,-0.052376,0,-0.054726,0,0,0.31043,0.053369,0,0.31523,-0.44078,-1.6465,-1.6058,-1.0004,-1.231,1.1859,0.085322,0.06,0.34,0
0.12139,0.04516,0.97372,-0.42936,-1.6326,-1.5923,-0.020207,0,0,1.5118,-0.052372,0,-0.052539,0,0,0.28105,0.063527,0,0.28861,-0.42902,-1.6329,-1.5923,-0.96187,-1.2181,1.1841,0.084934,0.08,0.34,0
0.15159,0.045569,0.96842,-0.39263,-1.0031,-0.98363,-0.018362,0,0,0.83448,-0.043382,0,-0.16124,0,0,0.25474,0.038589,0,0.25922,-0.38808,-1.0076,-0.98363,-13.815,-0.79312,0.60877,0.041987,0.1,0.34,0
0.15476,0.041531,0.93907,-0.3676,-0.41007,-0.38981,-0.015874,0,0,0.17325,-0.15802,0,-0.24763,0,0,0.24166,0.0086099,0,0.24183,-0.36233,-0.41535,-0.38981,-18.39,-0.38916,0.045931,3.1717e-07,0.12,0.34,0
0.15852,0.038105,0.91042,-0.3598,-0.41582,-0.38442,-0.011923,0,0,0.19203,-0.24487,0,-0.186,0,0,0.23612,0.0046777,0,0.23618,-0.35737,-0.41825,-0.38442,-11.53,-0.38668,0.052831,-1.4487e-06,0.14,0.34,0
0.16245,0.03556,0.8824,-0.3539,-0.41724,-0.37841,-0.0071677,0,0,0.19114,-0.30285,0,-0.11182,0,0,0.23155,-0.00053619,0,0.23154,-0.3531,-0.41804,-0.37841,-6.3771,-0.38318,0.056689,-3.4704e-06,0.16,0.34,0
0.16616,0.033895,0.85485,-0.34989,-0.41541,-0.37207,-0.0025357,0,0,0.17298,-0.33812,0,-0.039557,0,0,0.22842,-0.006618,0,0.22851,-0.34979,-0.41551,-0.37207,-2.2128,-0.37912,0.057892,-5.2228e-06,0.18,0.34,0
0.16936,0.033005,0.82758,-0.34745,-0.41141,-0.36559,0.0017683,0,0,0.14149,-0.35743,0,0.027586,0,0,0.22704,-0.013154,0,0.22741,-0.3474,-0.41146,-0.36559,1.5824,-0.37482,0.05718,-6.4283e-06,0.2,0.34,0
0.17182,0.032801,0.80036,-0.34624,-0.40584,-0.35902,0.0059275,0,0,0.099651,-0.36521,0,0.09247,0,0,0.22752,-0.01981,0,0.22837,-0.34566,-0.40642,-0.35902,5.6252,-0.37037,0.055309,-7.0104e-06,0.22,0.34,0
0.17335,0.033268,0.77297,-0.3461,-0.39896,-0.35235,0.010265,0,0,0.048689,-0.36356,0,0.16013,0,0,0.22991,-0.026305,0,0.2314,-0.34418,-0.40088,-0.35235,10.614,-0.3658,0.05309,-7.0761e-06,0.24,0.34,0
0.17377,0.034483,0.74518,-0.34703,-0.39069,-0.34551,0.015107,0,0,-0.011857,-0.35235,0,0.23568,0,0,0.23416,-0.03233,0,0.23639,-0.34231,-0.3954,-0.34551,17.345,-0.36108,0.051565,-6.9507e-06,0.26,0.34,0
0.17288,0.036604,0.71677,-0.3492,-0.38057,-0.33839,0.020662,0,0,-0.084322,-0.32897,0,0.32233,0,0,0.2401,-0.037463,0,0.24302,-0.33895,-0.39083,-0.33839,26.401,-0.35606,0.052158,-7.2848e-06,0.28,0.34,0
0.1704,0.03982,0.68756,-0.35284,-0.36762,-0.33073,0.026778,0,0,-0.17246,-0.28775,0,0.41773,0,0,0.24733,-0.041175,0,0.25077,-0.33246,-0.38801,-0.33073,37.285,-0.3504,0.056438,-9.2041e-06,0.3,0.34,0
0.16598,0.044238,0.65741,-0.35794,-0.35062,-0.32214,0.03257,0,0,-0.27929,-0.22214,0,0.50809,0,0,0.25517,-0.042959,0,0.25879,-0.3215,-0.38705,-0.32214,48.209,-0.34357,0.065237,-1.4255e-05,0.32,0.34,0
0.15923,0.049702,0.62632,-0.3744,-0.76628,-0.70756,0.039243,0,0,0.29243,-0.13087,0,0.3333,0,0,0.27159,-0.14898,0,0.32248,-0.34766,-0.79302,-0.70756,29.119,-0.61608,0.4204,0.010945,0.34,0.34,0
0.17767,0.046297,0.62064,-0.3969,-1.2003,-1.0998,0.053904,0,0,0.91375,-0.13064,0,0.14015,0,0,0.30331,-0.24788,0,0.39217,-0.3933,-1.2039,-1.0998,3.8215,-0.89899,0.76387,0.021466,0.36,0.34,0
0.19578,0.043621,0.61418,-0.40269,-1.1863,-1.0909,0.068994,0,0,0.89463,-0.124,0,0.17938,0,0,0.33725,-0.22957,0,0.40814,-0.39666,-1.1923,-1.0909,4.9938,-0.89327,0.75007,0.020344,0.38,0.34,0
0.21346,0.041643,0.60715,-0.40608,-1.1632,-1.0779,0.077164,0,0,0.87339,-0.11084,0,0.20063,0,0,0.36016,-0.20313,0,0.4134,-0.3983,-1.171,-1.0779,5.7607,-0.8824,0.7306,0.018939,0.4,0.34,0
0.23071,0.040142,0.59978,-0.40547,-1.1348,-1.0619,0.076576,0,0,0.85331,-0.094836,0,0.1991,0,0,0.36895,-0.17157,0,0.40666,-0.39752,-1.1428,-1.0619,5.9295,-0.86738,0.70827,0.017448,0.42,0.34,0
0.24759,0.038861,0.59239,-0.40021,-1.1033,-1.0434,0.068876,0,0,0.83621,-0.077855,0,0.17908,0,0,0.36169,-0.1378,0,0.38688,-0.39353,-1.11,-1.0434,5.5423,-0.849,0.68564,0.016029,0.44,0.34,0
0.26416,0.03757,0.58531,-0.39137,-1.0658,-1.0225,0.056794,0,0,0.8204,-0.056307,0,0.14767,0,0,0.33787,-0.10571,0,0.35419,-0.38662,-1.0705,-1.0225,4.7804,-0.82653,0.66117,0.01458,0.46,0.34,0
0.28041,0.036002,0.57887,-0.3806,-1.0155,-0.99771,0.038842,0,0,0.80225,-0.023168,0,0.10099,0,0,0.29944,-0.080628,0,0.3109,-0.37823,-1.0179,-0.99771,3.4877,-0.79795,0.62982,0.012787,0.48,0.34,0
0.29625,0.033658,0.57333,-0.34712,-0.6118,-0.62212,0.018141,0,0,0.16483,0.022997,0,0.12559,0,0,0.26217,-0.039833,0,0.26705,-0.31438,-0.64454,-0.62212,40.872,-0.52701,0.3332,0.0055842,0.5,0.34,0
0.287,0.033818,0.54365,-0.33418,-0.28676,-0.27689,0.0093404,0,0,-0.44685,-0.076982,0,0.14571,0,0,0.24259,-0.0079297,0,0.24277,-0.28499,-0.33595,-0.27689,79.249,-0.29928,0.05546,-8.1351e-06,0.52,0.34,0
0.27838,0.033934,0.51511,-0.32405,-0.28946,-0.2699,0.0073746,0,0,-0.42233,-0.15253,0,0.11504,0,0,0.2333,-0.0069215,0,0.23345,-0.28795,-0.32556,-0.2699,78.453,-0.29447,0.049177,-3.4511e-06,0.54,0.34,0
0.27011,0.03393,0.48766,-0.31524,-0.28914,-0.26259,0.0056067,0,0,-0.41068,-0.20707,0,0.087464,0,0,0.22482,-0.0075176,0,0.22498,-0.28799,-0.3164,-0.26259,78.377,-0.28899,0.046621,-5.0446e-07,0.56,0.34,0
0.26195,0.033694,0.46115,-0.3079,-0.28701,-0.25533,0.003995,0,0,-0.41004,-0.24707,0,0.062322,0,0,0.21776,-0.0087662,0,0.21795,-0.28627,-0.30864,-0.25533,79.537,-0.28341,0.046364,1.4028e-06,0.58,0.34,0
0.25371,0.033177,0.4354,-0.30178,-0.28354,-0.24816,0.0026701,0,0,-0.4182,-0.27596,0,0.041653,0,0,0.2122,-0.0099899,0,0.21245,-0.28316,-0.30216,-0.24816,81.839,-0.27783,0.047443,2.6686e-06,0.6,0.34,0
0.24522,0.032408,0.41023,-0.29675,-0.27906,-0.24111,0.0017246,0,0,-0.434,-0.29595,0,0.026904,0,0,0.20799,-0.010906,0,0.20829,-0.27889,-0.29692,-0.24111,84.486,-0.27231,0.049328,3.5035e-06,0.62,0.34,0
0.23635,0.031449,0.38548,-0.2927,-0.27372,-0.23417,0.0011502,0,0,-0.45653,-0.30847,0,0.017944,0,0,0.20492,-0.011461,0,0.20524,-0.27365,-0.29278,-0.23417,86.545,-0.26687,0.051759,3.985e-06,0.64,0.34,0
0.22696,0.030373,0.36105,-0.28953,-0.26768,-0.22734,0.00089679,0,0,-0.4851,-0.31467,0,0.01399,0,0,0.20278,-0.011701,0,0.20312,-0.26764,-0.28957,-0.22734,87.654,-0.26151,0.05467,4.0731e-06,0.66,0.34,0
0.21694,0.029247,0.33681,-0.28714,-0.26102,-0.22058,0.00090579,0,0,-0.51914,-0.31541,0,0.01413,0,0,0.20144,-0.011714,0,0.20178,-0.26099,-0.28717,-0.22058,88.016,-0.25625,0.058103,3.6254e-06,0.68,0.34,0
0.20619,0.028127,0.3127,-0.28548,-0.25383,-0.21391,0.001128,0,0,-0.55826,-0.31139,0,0.017597,0,0,0.20083,-0.011602,0,0.20116,-0.25379,-0.28552,-0.21391,87.962,-0.25108,0.062152,2.4121e-06,0.7,0.34,0
0.19461,0.027056,0.28862,-0.28452,-0.24619,-0.20732,0.001527,0,0,-0.60221,-0.30322,0,0.023821,0,0,0.20088,-0.011466,0,0.20121,-0.24613,-0.28459,-0.20732,87.722,-0.24601,0.066916,1.2425e-07,0.72,0.34,0
0.1821,0.026065,0.26449,-0.28425,-0.23817,-0.20081,0.0020768,0,0,-0.65087,-0.29141,0,0.032398,0,0,0.20161,-0.011411,0,0.20194,-0.23808,-0.28435,-0.20081,87.425,-0.24108,0.072487,-3.6263e-06,0.74,0.34,0
0.16858,0.025175,0.24023,-0.28468,-0.22983,-0.19439,0.002755,0,0,-0.70423,-0.27643,0,0.042978,0,0,0.20307,-0.011542,0,0.2034,-0.22969,-0.28481,-0.19439,87.132,-0.2363,0.078934,-9.3134e-06,0.76,0.34,0
0.15393,0.024394,0.21575,-0.28582,-0.22125,-0.18808,0.003534,0,0,-0.76236,-0.25875,0,0.05513,0,0,0.20535,-0.011961,0,0.2057,-0.22106,-0.28601,-0.18808,86.876,-0.23172,0.086305,-1.7507e-05,0.78,0.34,0
0.13808,0.023725,0.19095,-0.28771,-0.21251,-0.18189,0.0043699,0,0,-0.8254,-0.23883,0,0.06817,0,0,0.2086,-0.012761,0,0.209,-0.21226,-0.28796,-0.18189,86.686,-0.22737,0.094618,-2.8878e-05,0.8,0.34,0
0.12092,0.023157,0.16569,-0.29036,-0.20367,-0.17583,0.0051962,0,0,-0.89339,-0.21723,0,0.08106,0,0,0.21302,-0.013991,0,0.21349,-0.20336,-0.29067,-0.17583,86.582,-0.22329,0.10385,-4.4181e-05,0.82,0.34,0
0.10235,0.022682,0.13982,-0.29375,-0.19484,-0.16988,0.0059337,0,0,-0.96618,-0.19467,0,0.092566,0,0,0.21884,-0.015598,0,0.21941,-0.19448,-0.2941,-0.16988,86.579,-0.21949,0.11393,-6.4179e-05,0.84,0.34,0
0.082272,0.022301,0.11317,-0.29776,-0.18606,-0.16401,0.0065538,0,0,-1.0433,-0.17201,0,0.10224,0,0,0.2262,-0.017292,0,0.22689,-0.18568,-0.29814,-0.16401,86.654,-0.21594,0.12472,-8.9588e-05,0.86,0.34,0
0.060616,0.022077,0.085532,-0.30243,-0.17737,-0.15819,0.0071097,0,0,-1.125,-0.14955,0,0.11091,0,0,0.23498,-0.018395,0,0.23575,-0.17696,-0.30283,-0.15819,86.757,-0.21266,0.13622,-0.00012156,0.88,0.34,0
0.037272,0.022141,0.056769,-0.30758,-0.16792,-0.15211,0.0076213,0,0,-1.2127,-0.12332,0,0.11889,0,0,0.24456,-0.017985,0,0.24527,-0.16751,-0.308,-0.15211,86.886,-0.20921,0.14878,-0.00016306,0.9,0.34,0
0.01211,0.022631,0.026838,-0.30617,-0.20956,-0.17037,0.0056043,0,0,-0.70073,-0.087325,0,0.058671,0,0,0.26461,-0.053563,0,0.27277,-0.20918,-0.30654,-0.17037,85.81,-0.2287,0.12651,-8.8704e-05,0.92,0.34,0
0.0092425,0.021233,0.021242,-0.32036,-0.30929,-0.21014,0.0024541,0,0,-0.14329,-0.1289,0,0.0063806,0,0,0.30284,-0.081185,0,0.31439,-0.30877,-0.32088,-0.21014,78.046,-0.27993,0.10521,5.7151e-05,0.94,0.34,0
0.0063785,0.019962,0.014724,-0.326,-0.33265,-0.21232,0.0032107,0,0,-0.14778,-0.15643,0,0.0083477,0,0,0.34267,-0.059196,0,0.348,-0.3247,-0.33395,-0.21232,21.993,-0.29032,0.11728,8.1113e-05,0.96,0.34,0
0.0033312,0.019188,0.0075356,-0.33039,-0.33692,-0.20773,0.0035069,0,0,-0.15946,-0.16795,0,0.009118,0,0,0.36811,-0.030807,0,0.36928,-0.32887,-0.33844,-0.20773,23.533,-0.29168,0.1262,0.00010122,0.98,0.34,0
0,0.018943,0,-0.32246,-0.32533,-0.19434,-0.004716,0,0,-0.16656,-0.17029,0,-0.012261,0,0,0.37678,3.4694e-18,0,0.37655,-0.31896,-0.32882,-0.19434,-36.535,-0.28071,0.12984,0.00011024,1,0.34,0
0,0.044425,1,-0.49795,-1.6607,-1.6476,-0.0016969,0,0,1.4945,-0.017012,0,-0.0044118,0,0,0.37551,2.0314e-15,0,0.37531,-0.49794,-1.6607,-1.6476,-0.083616,-1.2687,1.1562,0.079357,0,0.36,0
0.029891,0.044337,0.99249,-0.48395,-1.6477,-1.632,-0.016712,0,0,1.4925,-0.020459,0,-0.043451,0,0,0.37025,0.029291,0,0.37124,-0.48371,-1.648,-1.632,-0.82255,-1.2546,1.1563,0.079363,0.02,0.36,0
0.059698,0.044118,0.98519,-0.47191,-1.6441,-1.62,-0.030813,0,0,1.4925,-0.03133,0,-0.080113,0,0,0.35418,0.057916,0,0.35886,-0.4711,-1.6449,-1.62,-1.5047,-1.2453,1.1616,0.080364,0.04,0.36,0
0.089591,0.043944,0.97832,-0.45495,-1.6438,-1.6079,-0.037907,0,0,1.4989,-0.046606,0,-0.098559,0,0,0.32698,0.083593,0,0.33777,-0.45374,-1.645,-1.6079,-1.8244,-1.2356,1.1732,0.082651,0.06,0.36,0
0.11965,0.044083,0.97211,-0.43739,-1.6385,-1.5949,-0.036531,0,0,1.5048,-0.056728,0,-0.094981,0,0,0.28973,0.10211,0,0.30792,-0.43628,-1.6396,-1.5949,-1.7404,-1.2236,1.1816,0.084324,0.08,0.36,0
0.14978,0.044679,0.96673,-0.39321,-1.0051,-0.98341,-0.031135,0,0,0.83773,-0.048255,0,-0.26663,0,0,0.25555,0.063235,0,0.26684,-0.38381,-1.0145,-0.98341,-16.806,-0.79389,0.61738,0.041957,0.1,0.36,0
0.15316,0.038115,0.93767,-0.36611,-0.41553,-0.39077,-0.025691,0,0,0.19238,-0.19316,0,-0.40078,0,0,0.23833,0.015804,0,0.23888,-0.35517,-0.42647,-0.39077,-23.055,-0.3908,0.061744,-2.9433e-08,0.12,0.36,0
0.15748,0.032857,0.90953,-0.35673,-0.42245,-0.38534,-0.018894,0,0,0.22317,-0.2894,0,-0.29475,0,0,0.23103,0.010928,0,0.2313,-0.35169,-0.42749,-0.38534,-14.95,-0.38817,0.065786,-2.8155e-06,0.14,0.36,0
0.16209,0.029153,0.88222,-0.35013,-0.4232,-0.37904,-0.011707,0,0,0.22548,-0.34451,0,-0.18263,0,0,0.22513,0.0040375,0,0.22516,-0.3483,-0.42503,-0.37904,-8.8829,-0.38412,0.066891,-5.1692e-06,0.16,0.36,0
0.1665,0.026818,0.8555,-0.34602,-0.42059,-0.37257,-0.0053006,0,0,0.20706,-0.37458,0,-0.08269,0,0,0.22122,-0.0040368,0,0.22123,-0.34565,-0.42096,-0.37257,-4.0457,-0.37973,0.066105,-6.976e-06,0.18,0.36,0
0.17037,0.025571,0.82913,-0.34363,-0.41612,-0.36611,0.00031058,0,0,0.17537,-0.39004,0,0.004845,0,0,0.2195,-0.012615,0,0.21983,-0.34363,-0.41612,-0.36611,0.24548,-0.37528,0.06427,-8.2229e-06,0.2,0.36,0
0.17351,0.025222,0.80282,-0.34251,-0.4105,-0.35971,0.0055517,0,0,0.13417,-0.39621,0,0.086606,0,0,0.21999,-0.021312,0,0.22099,-0.34206,-0.41095,-0.35971,4.6371,-0.3709,0.061986,-8.971e-06,0.22,0.36,0
0.17574,0.025714,0.77633,-0.34247,-0.40397,-0.35332,0.0109,0,0,0.084662,-0.3951,0,0.17004,0,0,0.2227,-0.029879,0,0.22468,-0.34059,-0.40585,-0.35332,9.7576,-0.36659,0.059916,-9.3884e-06,0.24,0.36,0
0.1769,0.027126,0.74938,-0.34354,-0.39646,-0.3469,0.016827,0,0,0.026159,-0.38658,0,0.26249,0,0,0.2277,-0.038016,0,0.23085,-0.33864,-0.40136,-0.3469,16.228,-0.3623,0.059019,-9.8664e-06,0.26,0.36,0
0.17678,0.029677,0.72168,-0.34601,-0.38743,-0.34031,0.023768,0,0,-0.044436,-0.3675,0,0.37079,0,0,0.23498,-0.045182,0,0.23931,-0.33519,-0.39824,-0.34031,24.467,-0.35791,0.060652,-1.1185e-05,0.28,0.36,0
0.17512,0.033706,0.69298,-0.35053,-0.37556,-0.33332,0.031818,0,0,-0.1342,-0.32943,0,0.49637,0,0,0.24423,-0.05045,0,0.24944,-0.32885,-0.39723,-0.33332,34.265,-0.35313,0.06626,-1.4711e-05,0.3,0.36,0
0.17142,0.039512,0.66307,-0.3574,-0.358,-0.32513,0.040005,0,0,-0.25169,-0.25637,0,0.62408,0,0,0.25462,-0.052749,0,0.26009,-0.31769,-0.3977,-0.32513,44.785,-0.34684,0.076564,-2.232e-05,0.32,0.36,0
0.16505,0.04702,0.63187,-0.3763,-0.77569,-0.71419,0.048807,0,0,0.30663,-0.13707,0,0.4127,0,0,0.27686,-0.17988,0,0.34571,-0.34601,-0.80598,-0.71419,28.059,-0.62206,0.43213,0.011388,0.34,0.36,0
0.18368,0.043599,0.626,-0.40874,-1.2222,-1.1153,0.066385,0,0,0.91851,-0.13903,0,0.1726,0,0,0.31977,-0.29528,0,0.43596,-0.40336,-1.2276,-1.1153,4.6347,-0.91542,0.77423,0.022154,0.36,0.36,0
0.20179,0.041133,0.61908,-0.42273,-1.1983,-1.1054,0.081886,0,0,0.88746,-0.1208,0,0.2129,0,0,0.3654,-0.26498,0,0.45155,-0.41418,-1.2069,-1.1054,5.9617,-0.90881,0.74714,0.020095,0.38,0.36,0
0.21918,0.039533,0.61138,-0.43514,-1.1619,-1.0905,0.085742,0,0,0.85195,-0.092824,0,0.22293,0,0,0.39638,-0.22326,0,0.4547,-0.42516,-1.1719,-1.0905,6.6383,-0.89584,0.70953,0.017535,0.4,0.36,0
0.23587,0.038447,0.60323,-0.44034,-1.1225,-1.0721,0.076481,0,0,0.82126,-0.065555,0,0.19885,0,0,0.40981,-0.17478,0,0.44505,-0.43187,-1.131,-1.0721,6.3192,-0.87831,0.6716,0.015155,0.42,0.36,0
0.25203,0.037541,0.59499,-0.43347,-1.084,-1.0502,0.058881,0,0,0.80177,-0.043867,0,0.15309,0,0,0.40328,-0.12235,0,0.42092,-0.42819,-1.0893,-1.0502,5.1307,-0.85588,0.64244,0.013449,0.44,0.36,0
0.26794,0.036675,0.58709,-0.41906,-1.0487,-1.0274,0.039052,0,0,0.79087,-0.027652,0,0.10154,0,0,0.37442,-0.068642,0,0.38066,-0.41665,-1.0511,-1.0274,3.5357,-0.83172,0.62295,0.012356,0.46,0.36,0
0.28367,0.035793,0.58001,-0.40101,-0.99927,-1.0001,0.021598,0,0,0.77881,0.0010744,0,0.056156,0,0,0.32344,-0.024431,0,0.32567,-0.40024,-1.0001,-1.0001,2.0649,-0.80013,0.59984,0.011085,0.48,0.36,0
0.29909,0.034517,0.57416,-0.35383,-0.58963,-0.61796,0.0029844,0,0,0.1319,0.063134,0,0.00054189,0,0,0.27199,-0.0011845,0,0.27326,-0.31719,-0.62627,-0.61796,-44.193,-0.52048,0.32012,0.0046501,0.5,0.36,0
0.28894,0.032526,0.544,-0.34058,-0.28661,-0.27883,-0.0029192,0,0,-0.48171,-0.060743,0,-0.04554,0,0,0.24491,0.0038746,0,0.24504,-0.28646,-0.34074,-0.27883,-86.913,-0.30201,0.058474,-9.682e-06,0.52,0.36,0
0.27982,0.031071,0.51538,-0.32757,-0.28886,-0.27082,-0.0028876,0,0,-0.4426,-0.14065,0,-0.045046,0,0,0.23297,0.0035415,0,0.23307,-0.28864,-0.32778,-0.27082,-85.757,-0.29575,0.050466,-3.9346e-06,0.54,0.36,0
0.27124,0.029952,0.48809,-0.31728,-0.28845,-0.26307,-0.0027771,0,0,-0.42286,-0.19797,0,-0.043324,0,0,0.2231,0.00060181,0,0.22314,-0.28818,-0.31754,-0.26307,-84.548,-0.2896,0.047227,-7.2765e-07,0.56,0.36,0
0.26291,0.028882,0.46183,-0.30885,-0.28635,-0.25553,-0.0028382,0,0,-0.41585,-0.2404,0,-0.044276,0,0,0.21573,-0.0026991,0,0.21576,-0.286,-0.3092,-0.25553,-82.919,-0.28358,0.046619,1.207e-06,0.58,0.36,0
0.2546,0.027755,0.43632,-0.30209,-0.28312,-0.24828,-0.0028156,0,0,-0.41969,-0.27176,0,-0.043923,0,0,0.21046,-0.0055065,0,0.21053,-0.28271,-0.3025,-0.24828,-81.732,-0.27783,0.04752,2.4674e-06,0.6,0.36,0
0.24612,0.026556,0.41132,-0.29671,-0.27889,-0.24123,-0.0026232,0,0,-0.43271,-0.29371,0,-0.040922,0,0,0.2067,-0.0076387,0,0.20685,-0.27851,-0.29709,-0.24123,-81.797,-0.27228,0.049266,3.329e-06,0.62,0.36,0
0.2373,0.025324,0.38671,-0.29249,-0.2738,-0.23434,-0.0022348,0,0,-0.45359,-0.3078,0,-0.034863,0,0,0.20406,-0.0091497,0,0.20426,-0.27353,-0.29275,-0.23434,-83.276,-0.26687,0.051566,3.8881e-06,0.64,0.36,0
0.22798,0.024106,0.36235,-0.28923,-0.26797,-0.22755,-0.0016626,0,0,-0.4811,-0.31524,0,-0.025936,0,0,0.20226,-0.010171,0,0.20251,-0.26784,-0.28936,-0.22755,-85.556,-0.26158,0.054344,4.0996e-06,0.66,0.36,0
0.21805,0.022951,0.33816,-0.28678,-0.26149,-0.22084,-0.00092358,0,0,-0.51429,-0.31708,0,-0.014408,0,0,0.20114,-0.010853,0,0.20144,-0.26146,-0.28681,-0.22084,-87.911,-0.25637,0.057638,3.816e-06,0.68,0.36,0
0.20741,0.021899,0.31407,-0.28502,-0.25447,-0.21419,-3.0637e-05,0,0,-0.55248,-0.31415,0,-0.00047794,0,0,0.20062,-0.011347,0,0.20094,-0.25447,-0.28502,-0.21419,-89.943,-0.25123,0.061533,2.8115e-06,0.7,0.36,0
0.19595,0.02098,0.29002,-0.28392,-0.24698,-0.20761,0.0010119,0,0,-0.59526,-0.30712,0,0.015786,0,0,0.20064,-0.011799,0,0.20099,-0.24696,-0.28395,-0.20761,88.432,-0.24617,0.066125,7.9181e-07,0.72,0.36,0
0.1836,0.020214,0.26592,-0.28345,-0.23911,-0.20109,0.0022073,0,0,-0.64243,-0.29657,0,0.034435,0,0,0.20122,-0.012356,0,0.2016,-0.239,-0.28356,-0.20109,87.157,-0.24122,0.071501,-2.6113e-06,0.74,0.36,0
0.17025,0.019613,0.24172,-0.28364,-0.23093,-0.19466,0.0035618,0,0,-0.69406,-0.28291,0,0.055565,0,0,0.20239,-0.013167,0,0.20282,-0.23069,-0.28388,-0.19466,86.152,-0.23641,0.077743,-7.8603e-06,0.76,0.36,0
0.15584,0.019178,0.21735,-0.28455,-0.2225,-0.18834,0.005077,0,0,-0.75044,-0.26645,0,0.079201,0,0,0.20427,-0.014388,0,0.20478,-0.22209,-0.28496,-0.18834,85.353,-0.2318,0.084936,-1.5553e-05,0.78,0.36,0
0.14024,0.018903,0.1927,-0.2863,-0.21389,-0.18217,0.006738,0,0,-0.8122,-0.24738,0,0.10511,0,0,0.20701,-0.016175,0,0.20765,-0.21327,-0.28692,-0.18217,84.729,-0.22745,0.093178,-2.6489e-05,0.8,0.36,0
0.12335,0.018774,0.16766,-0.28905,-0.20514,-0.1762,0.0084943,0,0,-0.88025,-0.22571,0,0.13251,0,0,0.2109,-0.018667,0,0.21174,-0.20429,-0.28991,-0.1762,84.278,-0.22346,0.10258,-4.1753e-05,0.82,0.36,0
0.10503,0.01877,0.14208,-0.29296,-0.19628,-0.17045,0.010247,0,0,-0.95554,-0.20146,0,0.15985,0,0,0.21637,-0.021917,0,0.21749,-0.1952,-0.29403,-0.17045,84.016,-0.2199,0.11325,-6.2751e-05,0.84,0.36,0
0.085126,0.018874,0.11574,-0.29806,-0.18737,-0.16492,0.011857,0,0,-1.0385,-0.17513,0,0.18498,0,0,0.22399,-0.025726,0,0.2255,-0.18612,-0.29932,-0.16492,83.954,-0.21678,0.12515,-9.1024e-05,0.86,0.36,0
0.063487,0.019124,0.088323,-0.30421,-0.17845,-0.15952,0.013364,0,0,-1.1286,-0.14769,0,0.20848,0,0,0.23413,-0.029176,0,0.23601,-0.17705,-0.30562,-0.15952,84,-0.21406,0.13817,-0.00012815,0.88,0.36,0
0.039982,0.019757,0.059544,-0.31217,-0.1696,-0.15446,0.014792,0,0,-1.2302,-0.11815,0,0.23075,0,0,0.24624,-0.029991,0,0.24815,-0.16808,-0.31369,-0.15446,84.138,-0.21208,0.15287,-0.00017858,0.9,0.36,0
0.014281,0.021081,0.029226,-0.31143,-0.1997,-0.17039,0.014925,0,0,-0.7188,-0.065332,0,0.13254,0,0,0.27318,-0.092263,0,0.29466,-0.19736,-0.31378,-0.17039,81.211,-0.22717,0.13403,-0.0001211,0.92,0.36,0
0.01123,0.018709,0.023352,-0.34173,-0.31698,-0.22097,0.015673,0,0,-0.157,-0.12482,0,0.04075,0,0,0.32432,-0.13762,0,0.35351,-0.30939,-0.34933,-0.22097,64.147,-0.29323,0.11378,4.5424e-05,0.94,0.36,0
0.0080011,0.016908,0.016254,-0.3575,-0.33432,-0.2238,0.019856,0,0,-0.17381,-0.14368,0,0.051626,0,0,0.37563,-0.09739,0,0.38817,-0.32292,-0.3689,-0.2238,60.136,-0.30521,0.12844,6.3679e-05,0.96,0.36,0
0.004278,0.015985,0.0083267,-0.37145,-0.32606,-0.21758,0.014226,0,0,-0.20003,-0.14102,0,0.036989,0,0,0.40634,-0.048618,0,0.40884,-0.32197,-0.37554,-0.21758,73.959,-0.30503,0.13914,7.2422e-05,0.98,0.36,0
0,0.015736,0,-0.36809,-0.31041,-0.20355,-0.0047794,0,0,-0.2139,-0.13892,0,-0.012426,0,0,0.41634,6.9389e-18,0,0.41585,-0.31002,-0.36848,-0.20355,-85.295,-0.29402,0.14484,7.4742e-05,1,0.36,0
0,0.044367,1,-0.53562,-1.6407,-1.6529,-0.0032591,0,0,1.4524,0.015886,0,-0.0084736,0,0,0.40987,-1.6272e-15,0,0.40956,-0.53561,-1.6407,-1.6529,-0.16898,-1.2764,1.1112,0.070445,0,0.38,0
0.029049,0.044198,0.9918,-0.5204,-1.6267,-1.6359,-0.024373,0,0,1.4502,0.011964,0,-0.063371,0,0,0.40456,0.039271,0,0.40616,-0.51986,-1.6273,-1.6359,-1.2614,-1.261,1.1118,0.070565,0.02,0.38,0
0.058008,0.043698,0.98382,-0.50339,-1.6233,-1.6218,-0.047837,0,0,1.454,-0.0018862,0,-0.12438,0,0,0.38712,0.079665,0,0.39503,-0.50135,-1.6253,-1.6218,-2.4415,-1.2495,1.1222,0.072583,0.04,0.38,0
0.087207,0.043095,0.97632,-0.47874,-1.6346,-1.6103,-0.064507,0,0,1.4711,-0.031611,0,-0.16772,0,0,0.35463,0.12066,0,0.37483,-0.47515,-1.6382,-1.6103,-3.1843,-1.2412,1.1494,0.077833,0.06,0.38,0
0.11685,0.042891,0.96963,-0.45239,-1.6493,-1.6001,-0.06301,0,0,1.4921,-0.063927,0,-0.16382,0,0,0.30586,0.15356,0,0.34335,-0.44908,-1.6526,-1.6001,-3.0051,-1.234,1.1782,0.083435,0.08,0.38,0
0.14689,0.043638,0.96408,-0.39555,-1.0131,-0.98497,-0.05062,0,0,0.84258,-0.062624,0,-0.41457,0,0,0.25877,0.097787,0,0.28363,-0.3789,-1.0297,-0.98497,-18.895,-0.79786,0.63248,0.042404,0.1,0.38,0
0.15055,0.033805,0.93527,-0.36498,-0.42603,-0.39318,-0.037901,0,0,0.21995,-0.2562,0,-0.59126,0,0,0.23452,0.025884,0,0.23601,-0.34684,-0.44417,-0.39318,-25.578,-0.39473,0.08432,-2.5426e-06,0.12,0.38,0
0.15569,0.026529,0.9078,-0.35279,-0.43236,-0.38684,-0.026692,0,0,0.26561,-0.35501,0,-0.4164,0,0,0.22436,0.019298,0,0.22521,-0.34467,-0.44049,-0.38684,-16.929,-0.39067,0.083178,-6.0703e-06,0.14,0.38,0
0.16118,0.021779,0.88143,-0.34548,-0.43127,-0.37993,-0.01641,0,0,0.26872,-0.40045,0,-0.25599,0,0,0.21658,0.0096497,0,0.21678,-0.34244,-0.4343,-0.37993,-10.467,-0.38556,0.079995,-8.202e-06,0.16,0.38,0
0.16644,0.018912,0.85582,-0.34119,-0.42721,-0.37316,-0.0081225,0,0,0.24936,-0.42163,0,-0.12671,0,0,0.21177,-0.0010623,0,0.21173,-0.34042,-0.42797,-0.37316,-5.347,-0.38052,0.076616,-9.7108e-06,0.18,0.38,0
0.17115,0.017403,0.83061,-0.33877,-0.42203,-0.36667,-0.0011465,0,0,0.21765,-0.43176,0,-0.017885,0,0,0.20977,-0.011996,0,0.21006,-0.33875,-0.42204,-0.36667,-0.78875,-0.37582,0.073425,-1.087e-05,0.2,0.38,0
0.17514,0.016952,0.80548,-0.33769,-0.41625,-0.36043,0.0052483,0,0,0.17737,-0.43543,0,0.081873,0,0,0.21026,-0.022928,0,0.21146,-0.33734,-0.4166,-0.36043,3.805,-0.37146,0.070608,-1.1777e-05,0.22,0.38,0
0.17825,0.017464,0.78014,-0.33788,-0.41012,-0.35442,0.011717,0,0,0.12907,-0.43446,0,0.18278,0,0,0.21321,-0.033807,0,0.21583,-0.33602,-0.41197,-0.35442,8.9853,-0.36747,0.068628,-1.2665e-05,0.24,0.38,0
0.18031,0.01902,0.75431,-0.33934,-0.4035,-0.34857,0.018878,0,0,0.071968,-0.42845,0,0.2945,0,0,0.21886,-0.044523,0,0.22332,-0.3342,-0.40864,-0.34857,15.239,-0.3638,0.068398,-1.4021e-05,0.26,0.38,0
0.18113,0.021904,0.72762,-0.34244,-0.39598,-0.34279,0.027399,0,0,0.0027699,-0.41482,0,0.42742,0,0,0.22767,-0.054639,0,0.23416,-0.3309,-0.40751,-0.34279,22.833,-0.3604,0.071411,-1.6968e-05,0.28,0.38,0
0.18042,0.026643,0.69966,-0.34809,-0.38612,-0.33687,0.038014,0,0,-0.087507,-0.3841,0,0.59301,0,0,0.23977,-0.062864,0,0.24796,-0.3246,-0.40961,-0.33687,31.714,-0.35703,0.079583,-2.3825e-05,0.3,0.38,0
0.17763,0.033983,0.67007,-0.35825,-0.36994,-0.33014,0.050089,0,0,-0.21929,-0.31048,0,0.78138,0,0,0.25423,-0.066565,0,0.26292,-0.31367,-0.41452,-0.33014,41.672,-0.35278,0.093714,-3.7908e-05,0.32,0.38,0
0.17165,0.04422,0.63865,-0.38111,-0.78997,-0.72387,0.065927,0,0,0.32097,-0.14731,0,0.53886,0,0,0.28603,-0.22409,0,0.38207,-0.34421,-0.82688,-0.72387,27.491,-0.63165,0.4504,0.012011,0.34,0.38,0
0.19047,0.040736,0.63245,-0.43109,-1.2511,-1.1371,0.092097,0,0,0.91782,-0.1482,0,0.23945,0,0,0.34669,-0.36051,0,0.50129,-0.42087,-1.2613,-1.1371,6.3298,-0.93977,0.78574,0.02283,0.36,0.38,0
0.20836,0.038789,0.62478,-0.45854,-1.2051,-1.1239,0.10986,0,0,0.86493,-0.10557,0,0.28564,0,0,0.40927,-0.31139,0,0.5144,-0.4427,-1.2209,-1.1239,8.2001,-0.92916,0.7345,0.01916,0.38,0.38,0
0.22506,0.03793,0.61608,-0.48527,-1.1491,-1.1064,0.10418,0,0,0.80745,-0.055524,0,0.27087,0,0,0.45036,-0.24881,0,0.51403,-0.4693,-1.1651,-1.1064,8.7131,-0.91358,0.66836,0.014936,0.4,0.38,0
0.24066,0.03752,0.60677,-0.50221,-1.0996,-1.0873,0.082053,0,0,0.76062,-0.015933,0,0.21334,0,0,0.46986,-0.18186,0,0.50304,-0.49114,-1.1106,-1.0873,7.6808,-0.89635,0.60815,0.011495,0.42,0.38,0
0.25549,0.037106,0.59728,-0.49874,-1.0518,-1.0625,0.048176,0,0,0.73283,0.013795,0,0.12526,0,0,0.46783,-0.10949,0,0.47946,-0.49457,-1.056,-1.0625,4.941,-0.87101,0.56468,0.0092439,0.44,0.38,0
0.26997,0.036464,0.58805,-0.46592,-1.0068,-1.0299,0.011003,0,0,0.73312,0.030014,0,0.028609,0,0,0.43579,-0.028934,0,0.43568,-0.4657,-1.007,-1.0299,1.165,-0.83419,0.55309,0.0086397,0.46,0.38,0
0.28481,0.036046,0.57985,-0.44067,-0.99085,-1.0093,-0.018353,0,0,0.73922,0.023997,0,-0.047718,0,0,0.36605,0.060212,0,0.37354,-0.44006,-0.99146,-1.0093,-1.9085,-0.81361,0.56053,0.0090145,0.48,0.38,0
0.29954,0.036183,0.57341,-0.37223,-0.58094,-0.62044,-0.020526,0,0,0.095326,0.088028,0,-0.17957,0,0,0.28878,0.0575,0,0.29888,-0.32894,-0.62423,-0.62044,-39.853,-0.52454,0.31018,0.0037582,0.5,0.38,0
0.28863,0.031388,0.54272,-0.3468,-0.28984,-0.28145,-0.019833,0,0,-0.50977,-0.065479,0,-0.3094,0,0,0.24647,0.02176,0,0.24766,-0.28362,-0.35303,-0.28145,-72.574,-0.30603,0.07052,-1.7955e-05,0.52,0.38,0
0.27915,0.028308,0.51426,-0.33015,-0.29169,-0.27226,-0.015409,0,0,-0.45154,-0.15156,0,-0.24037,0,0,0.23002,0.015837,0,0.23064,-0.28628,-0.33557,-0.27226,-70.647,-0.29804,0.057586,-7.883e-06,0.54,0.38,0
0.27056,0.026011,0.48752,-0.31714,-0.28994,-0.26338,-0.012413,0,0,-0.41934,-0.20719,0,-0.19364,0,0,0.21858,0.0086271,0,0.21877,-0.28513,-0.32195,-0.26338,-68.806,-0.29015,0.051284,-2.9664e-06,0.56,0.38,0
0.26237,0.024078,0.4618,-0.30774,-0.28747,-0.25553,-0.010196,0,0,-0.40722,-0.24915,0,-0.15906,0,0,0.21165,0.0027135,0,0.21167,-0.28323,-0.31198,-0.25553,-67.41,-0.28358,0.04889,-1.932e-07,0.58,0.38,0
0.25427,0.022307,0.43672,-0.30061,-0.28402,-0.24818,-0.0084674,0,0,-0.40901,-0.27957,0,-0.13209,0,0,0.20726,-0.0017553,0,0.20727,-0.28046,-0.30417,-0.24818,-67.209,-0.2776,0.048682,1.5495e-06,0.6,0.38,0
0.24601,0.020659,0.41206,-0.29526,-0.27975,-0.24118,-0.0069637,0,0,-0.42183,-0.30087,0,-0.10863,0,0,0.20435,-0.0050099,0,0.20441,-0.27709,-0.29793,-0.24118,-69.037,-0.27207,0.04972,2.7806e-06,0.62,0.38,0
0.2374,0.019137,0.38768,-0.29117,-0.27471,-0.23438,-0.0055662,0,0,-0.44301,-0.31459,0,-0.086832,0,0,0.20238,-0.0073316,0,0.20252,-0.273,-0.29288,-0.23438,-72.968,-0.26675,0.051524,3.6658e-06,0.64,0.38,0
0.22829,0.017763,0.36349,-0.28802,-0.26896,-0.22768,-0.0041907,0,0,-0.47072,-0.322,0,-0.065375,0,0,0.20107,-0.008979,0,0.20128,-0.26808,-0.28891,-0.22768,-78.135,-0.26155,0.053922,4.192e-06,0.66,0.38,0
0.21857,0.016564,0.33942,-0.2856,-0.26259,-0.22103,-0.0027848,0,0,-0.50371,-0.32415,0,-0.043443,0,0,0.20027,-0.010179,0,0.20053,-0.26225,-0.28594,-0.22103,-83.2,-0.25641,0.056894,4.2358e-06,0.68,0.38,0
0.20814,0.015561,0.31542,-0.28378,-0.25568,-0.21441,-0.0013067,0,0,-0.54111,-0.32192,0,-0.020384,0,0,0.19988,-0.011133,0,0.20019,-0.25562,-0.28384,-0.21441,-87.343,-0.25129,0.060481,3.6039e-06,0.7,0.38,0
0.19693,0.014771,0.29145,-0.28249,-0.24834,-0.20782,0.00028382,0,0,-0.58239,-0.31601,0,0.0044275,0,0,0.19987,-0.012029,0,0.20023,-0.24833,-0.28249,-0.20782,89.524,-0.24621,0.064742,2.0459e-06,0.72,0.38,0
0.18485,0.014203,0.26745,-0.2817,-0.24064,-0.20128,0.0020307,0,0,-0.62731,-0.307,0,0.031679,0,0,0.20025,-0.013049,0,0.20067,-0.24054,-0.2818,-0.20128,87.176,-0.2412,0.069743,-7.5158e-07,0.74,0.38,0
0.17184,0.013858,0.24339,-0.28146,-0.23266,-0.1948,0.0039836,0,0,-0.67592,-0.29531,0,0.062144,0,0,0.20104,-0.014385,0,0.20155,-0.23234,-0.28178,-0.1948,85.364,-0.2363,0.075561,-5.1937e-06,0.76,0.38,0
0.15781,0.013736,0.2192,-0.28185,-0.22448,-0.18843,0.0061985,0,0,-0.72865,-0.28116,0,0.096696,0,0,0.20234,-0.016245,0,0.203,-0.22382,-0.28251,-0.18843,83.903,-0.23159,0.082304,-1.184e-05,0.78,0.38,0
0.14269,0.01383,0.19483,-0.28307,-0.21616,-0.18224,0.0087352,0,0,-0.78648,-0.26455,0,0.13627,0,0,0.20432,-0.018867,0,0.20519,-0.21503,-0.28419,-0.18224,82.684,-0.22715,0.090146,-2.153e-05,0.8,0.38,0
0.12635,0.014129,0.17017,-0.28545,-0.20774,-0.17632,0.011649,0,0,-0.85122,-0.24508,0,0.18172,0,0,0.20728,-0.022522,0,0.2085,-0.20603,-0.28716,-0.17632,81.656,-0.22317,0.099373,-3.5625e-05,0.82,0.38,0
0.10864,0.014623,0.14508,-0.28952,-0.19925,-0.17081,0.014945,0,0,-0.92592,-0.22183,0,0.23314,0,0,0.21178,-0.027505,0,0.21356,-0.19684,-0.29193,-0.17081,80.84,-0.21986,0.11043,-5.6421e-05,0.84,0.38,0
0.089317,0.015296,0.11934,-0.29585,-0.1906,-0.16583,0.018549,0,0,-1.0142,-0.19324,0,0.28936,0,0,0.21894,-0.034037,0,0.22158,-0.18743,-0.29903,-0.16583,80.292,-0.21743,0.12382,-8.7584e-05,0.86,0.38,0
0.068073,0.01617,0.092535,-0.305,-0.18192,-0.1615,0.022244,0,0,-1.1193,-0.15931,0,0.34701,0,0,0.23072,-0.041886,0,0.23457,-0.17803,-0.30889,-0.1615,80.063,-0.21614,0.13987,-0.00013394,0.88,0.38,0
0.044545,0.017415,0.063967,-0.31638,-0.17262,-0.15736,0.026538,0,0,-1.2403,-0.11901,0,0.414,0,0,0.24738,-0.048097,0,0.25224,-0.16788,-0.32112,-0.15736,79.868,-0.21545,0.15876,-0.0002025,0.9,0.38,0
0.018459,0.020017,0.033165,-0.32757,-0.20233,-0.17832,0.032557,0,0,-0.73749,-0.053506,0,0.25902,0,0,0.28879,-0.14952,0,0.33672,-0.19311,-0.33679,-0.17832,75.288,-0.23607,0.15212,-0.0001801,0.92,0.38,0
0.015045,0.016241,0.026747,-0.38425,-0.34003,-0.24403,0.054502,0,0,-0.18228,-0.1248,0,0.14171,0,0,0.36362,-0.22014,0,0.42696,-0.30332,-0.42095,-0.24403,56.04,-0.32277,0.15597,-0.00010424,0.94,0.38,0
0.011168,0.014215,0.01862,-0.41101,-0.31603,-0.23673,0.053644,0,0,-0.22656,-0.10309,0,0.13948,0,0,0.43167,-0.13672,0,0.45204,-0.29187,-0.43517,-0.23673,65.759,-0.32126,0.17741,-0.00019615,0.96,0.38,0
0.0059828,0.013547,0.0094803,-0.44969,-0.30179,-0.23493,0.032508,0,0,-0.2792,-0.086929,0,0.084522,0,0,0.4655,-0.064828,0,0.46921,-0.29496,-0.45652,-0.23493,78.135,-0.3288,0.19851,-0.00028132,0.98,0.38,0
0,0.013386,0,-0.4496,-0.28204,-0.21949,-0.0030984,0,0,-0.29914,-0.081309,0,-0.0080557,0,0,0.47401,-1.3878e-17,0,0.47327,-0.28198,-0.44966,-0.21949,-88.941,-0.31704,0.20615,-0.00031451,1,0.38,0
0,0.045061,1,-0.5819,-1.6174,-1.6598,-0.0047133,0,0,1.4013,0.055092,0,-0.012254,0,0,0.45405,-2.3558e-15,0,0.45363,-0.58188,-1.6174,-1.6598,-0.26078,-1.2864,1.0574,0.060389,0,0.4,0
0.028025,0.044816,0.99092,-0.56788,-1.6006,-1.6415,-0.029178,0,0,1.3957,0.053142,0,-0.075862,0,0,0.44991,0.047784,0,0.452,-0.56705,-1.6014,-1.6415,-1.6171,-1.27,1.055,0.060007,0.02,0.4,0
0.055826,0.044042,0.982,-0.5566,-1.5936,-1.6271,-0.063258,0,0,1.3916,0.043493,0,-0.16447,0,0,0.43557,0.099515,0,0.44629,-0.55276,-1.5975,-1.6271,-3.4779,-1.2591,1.0598,0.060977,0.04,0.4,0
0.08369,0.04268,0.9735,-0.51604,-1.5957,-1.607,-0.097433,0,0,1.4183,0.014682,0,-0.25332,0,0,0.40087,0.15928,0,0.43092,-0.50731,-1.6044,-1.607,-5.1153,-1.2396,1.0984,0.068067,0.06,0.4,0
0.11256,0.041526,0.96597,-0.4818,-1.6603,-1.6086,-0.1133,0,0,1.4648,-0.067243,0,-0.29459,0,0,0.3367,0.22967,0,0.40936,-0.471,-1.6711,-1.6086,-5.4419,-1.2503,1.1701,0.081492,0.08,0.4,0
0.14228,0.042174,0.96003,-0.41314,-1.0492,-0.9987,-0.080393,0,0,0.85162,-0.11241,0,-0.62538,0,0,0.26757,0.15,0,0.31848,-0.3862,-1.0761,-0.9987,-20.174,-0.82033,0.65883,0.043536,0.1,0.4,0
0.14662,0.027867,0.93146,-0.36386,-0.44436,-0.39771,-0.054149,0,0,0.26404,-0.3639,0,-0.84472,0,0,0.22969,0.04203,0,0.23369,-0.33664,-0.47158,-0.39771,-26.687,-0.40198,0.11704,-1.3456e-05,0.12,0.4,0
0.15285,0.018656,0.9049,-0.34809,-0.44671,-0.38926,-0.035501,0,0,0.32113,-0.44815,0,-0.55382,0,0,0.2148,0.030147,0,0.21691,-0.33664,-0.45816,-0.38926,-17.875,-0.39469,0.10556,-1.3868e-05,0.14,0.4,0
0.15947,0.013135,0.8799,-0.3394,-0.44153,-0.38093,-0.021583,0,0,0.32394,-0.47267,0,-0.3367,0,0,0.20477,0.015903,0,0.20533,-0.33502,-0.4459,-0.38093,-11.456,-0.38728,0.096495,-1.3501e-05,0.16,0.4,0
0.1658,0.0099529,0.85576,-0.33478,-0.43554,-0.37372,-0.011135,0,0,0.30373,-0.48217,0,-0.17371,0,0,0.19958,0.0019835,0,0.19951,-0.33357,-0.43676,-0.37372,-6.232,-0.38135,0.090092,-1.3998e-05,0.18,0.4,0
0.17162,0.0083005,0.83201,-0.33202,-0.42918,-0.36703,-0.002668,0,0,0.27303,-0.48476,0,-0.041621,0,0,0.19764,-0.011425,0,0.19789,-0.33195,-0.42925,-0.36703,-1.5719,-0.37608,0.08535,-1.472e-05,0.2,0.4,0
0.17672,0.0078054,0.80833,-0.33092,-0.42314,-0.36094,0.0050018,0,0,0.23415,-0.48518,0,0.078029,0,0,0.19818,-0.024577,0,0.19962,-0.33065,-0.42341,-0.36094,3.0954,-0.37167,0.081931,-1.5787e-05,0.22,0.4,0
0.18098,0.0083357,0.78444,-0.33132,-0.41754,-0.3554,0.012773,0,0,0.1878,-0.48468,0,0.19925,0,0,0.20111,-0.037811,0,0.20456,-0.32947,-0.41939,-0.3554,8.2521,-0.36808,0.080165,-1.7428e-05,0.24,0.4,0
0.18424,0.009988,0.76006,-0.3335,-0.41227,-0.35041,0.021489,0,0,0.1319,-0.48254,0,0.33523,0,0,0.20687,-0.05141,0,0.21311,-0.32802,-0.41775,-0.35041,14.308,-0.36539,0.080899,-2.0333e-05,0.26,0.4,0
0.18626,0.013085,0.73479,-0.3377,-0.40672,-0.34579,0.03214,0,0,0.063096,-0.47522,0,0.50139,0,0,0.21664,-0.065439,0,0.2263,-0.32505,-0.41937,-0.34579,21.483,-0.3634,0.085844,-2.6208e-05,0.28,0.4,0
0.18676,0.018342,0.70807,-0.34555,-0.40049,-0.34182,0.046034,0,0,-0.029085,-0.45759,0,0.71813,0,0,0.23231,-0.07923,0,0.24557,-0.31942,-0.42663,-0.34182,29.588,-0.36262,0.097949,-3.988e-05,0.3,0.4,0
0.1851,0.027093,0.67904,-0.35984,-0.38859,-0.3377,0.064786,0,0,-0.17268,-0.39689,0,1.0107,0,0,0.25346,-0.088654,0,0.26884,-0.30785,-0.44057,-0.3377,38.746,-0.36204,0.1206,-7.1823e-05,0.32,0.4,0
0.17985,0.041128,0.64724,-0.40305,-0.83351,-0.74852,0.094633,0,0,0.33989,-0.1894,0,0.73414,0,0,0.30304,-0.29104,0,0.44169,-0.35574,-0.88083,-0.74852,27.064,-0.6617,0.48234,0.012877,0.34,0.4,0
0.19869,0.037671,0.64042,-0.47262,-1.2867,-1.1682,0.14755,0,0,0.90427,-0.15403,0,0.38362,0,0,0.39253,-0.45803,0,0.60494,-0.4467,-1.3126,-1.1682,9.9625,-0.97584,0.8035,0.023768,0.36,0.4,0
0.21602,0.03691,0.63154,-0.51423,-1.1841,-1.141,0.15285,0,0,0.81487,-0.056024,0,0.3974,0,0,0.4771,-0.36298,0,0.59899,-0.481,-1.2174,-1.141,12.264,-0.94647,0.70133,0.017011,0.38,0.4,0
0.23129,0.037312,0.62133,-0.5683,-1.127,-1.1299,0.13078,0,0,0.7301,0.0038242,0,0.34003,0,0,0.52591,-0.27727,0,0.59371,-0.5392,-1.1561,-1.1299,12.544,-0.94173,0.60422,0.011258,0.4,0.4,0
0.24523,0.03781,0.6105,-0.59343,-1.0684,-1.1091,0.09526,0,0,0.67031,0.052822,0,0.24768,0,0,0.54913,-0.19394,0,0.58135,-0.57504,-1.0868,-1.1091,10.928,-0.92364,0.52325,0.0073131,0.42,0.4,0
0.2581,0.038093,0.59937,-0.60394,-1.0086,-1.0831,0.048482,0,0,0.62296,0.09685,0,0.12605,0,0,0.55621,-0.105,0,0.56464,-0.59821,-1.0144,-1.0831,6.7369,-0.89857,0.45446,0.0044509,0.44,0.4,0
0.27015,0.037875,0.58825,-0.58998,-0.9504,-1.0504,-0.01696,0,0,0.5985,0.12996,0,-0.044095,0,0,0.54413,-0.00044135,0,0.5419,-0.58919,-0.9512,-1.0504,-2.6882,-0.86358,0.42046,0.0031134,0.46,0.4,0
0.28204,0.036753,0.5776,-0.47796,-0.8836,-0.98607,-0.077014,0,0,0.66055,0.13321,0,-0.20023,0,0,0.45094,0.13867,0,0.46595,-0.46383,-0.89773,-0.98607,-10.396,-0.78254,0.48416,0.0051808,0.48,0.4,0
0.29657,0.038038,0.57021,-0.39424,-0.61299,-0.63479,-0.10251,0,0,0.060071,0.048599,0,-0.62505,0,0,0.31568,0.21521,0,0.40189,-0.31859,-0.68864,-0.63479,-39.292,-0.54734,0.36271,0.0055122,0.5,0.4,0
0.28444,0.029907,0.53878,-0.35658,-0.30854,-0.28933,-0.044205,0,0,-0.52453,-0.1498,0,-0.6896,0,0,0.24432,0.045886,0,0.24876,-0.28225,-0.38287,-0.28933,-59.26,-0.31815,0.097273,-4.6427e-05,0.52,0.4,0
0.27559,0.025008,0.51158,-0.32649,-0.29899,-0.27291,-0.030488,0,0,-0.41796,-0.20342,0,-0.47561,0,0,0.21984,0.027364,0,0.22149,-0.27929,-0.34618,-0.27291,-57.139,-0.29946,0.070303,-1.735e-05,0.54,0.4,0
0.26772,0.021664,0.48602,-0.31222,-0.29467,-0.26307,-0.022238,0,0,-0.38336,-0.24648,0,-0.34691,0,0,0.20998,0.015039,0,0.21049,-0.27954,-0.32735,-0.26307,-55.766,-0.28999,0.057833,-7.2857e-06,0.56,0.4,0
0.26025,0.018916,0.46118,-0.30288,-0.29042,-0.25485,-0.01717,0,0,-0.37459,-0.27743,0,-0.26785,0,0,0.20535,0.006619,0,0.20544,-0.27838,-0.31492,-0.25485,-54.968,-0.28272,0.052419,-2.6951e-06,0.58,0.4,0
0.25274,0.016571,0.43674,-0.29672,-0.28621,-0.24767,-0.013562,0,0,-0.38261,-0.30063,0,-0.21156,0,0,0.20273,0.00078168,0,0.20272,-0.27692,-0.30601,-0.24767,-55.59,-0.27687,0.050526,3.2517e-08,0.6,0.4,0
0.24495,0.014521,0.41253,-0.29225,-0.28157,-0.2409,-0.010823,0,0,-0.40052,-0.31723,0,-0.16884,0,0,0.20113,-0.0033023,0,0.20115,-0.27484,-0.29898,-0.2409,-58.127,-0.27157,0.050535,1.9048e-06,0.62,0.4,0
0.23672,0.01274,0.38847,-0.28881,-0.27635,-0.2343,-0.0085506,0,0,-0.42526,-0.32805,0,-0.13339,0,0,0.20009,-0.0061765,0,0.20018,-0.272,-0.29316,-0.2343,-63.041,-0.26649,0.05165,3.2847e-06,0.64,0.4,0
0.22794,0.011226,0.3645,-0.28608,-0.27054,-0.22773,-0.0065276,0,0,-0.45507,-0.33386,0,-0.10183,0,0,0.19941,-0.0082259,0,0.19958,-0.26816,-0.28846,-0.22773,-69.983,-0.26145,0.05354,4.2355e-06,0.66,0.4,0
0.21852,0.0099852,0.34061,-0.28384,-0.26417,-0.22117,-0.0046159,0,0,-0.48881,-0.33541,0,-0.072008,0,0,0.19899,-0.009745,0,0.19923,-0.26314,-0.28487,-0.22117,-77.427,-0.25639,0.056084,4.693e-06,0.68,0.4,0
0.20838,0.0090226,0.31675,-0.28198,-0.25734,-0.21459,-0.0027158,0,0,-0.52568,-0.33344,0,-0.042367,0,0,0.19877,-0.010976,0,0.19907,-0.25704,-0.28228,-0.21459,-83.786,-0.2513,0.059251,4.5253e-06,0.7,0.4,0
0.19749,0.0083397,0.2929,-0.28045,-0.25012,-0.20799,-0.00074201,0,0,-0.56519,-0.32863,0,-0.011575,0,0,0.19873,-0.012136,0,0.1991,-0.2501,-0.28047,-0.20799,-88.599,-0.24618,0.063042,3.5556e-06,0.72,0.4,0
0.18578,0.0079341,0.26905,-0.27921,-0.24261,-0.20139,0.0013898,0,0,-0.60703,-0.32151,0,0.021681,0,0,0.19886,-0.013433,0,0.19932,-0.24255,-0.27926,-0.20139,87.829,-0.24107,0.06748,1.5615e-06,0.74,0.4,0
0.17321,0.0078003,0.24518,-0.2783,-0.23489,-0.19482,0.0037731,0,0,-0.65114,-0.31257,0,0.058861,0,0,0.1992,-0.015089,0,0.19977,-0.23457,-0.27863,-0.19482,85.069,-0.236,0.072609,-1.7488e-06,0.76,0.4,0
0.15973,0.0079312,0.22124,-0.27779,-0.22707,-0.18833,0.0065233,0,0,-0.69779,-0.30213,0,0.10176,0,0,0.19979,-0.017353,0,0.20054,-0.22624,-0.27862,-0.18833,82.788,-0.23106,0.078523,-6.7941e-06,0.78,0.4,0
0.1453,0.0083211,0.19723,-0.27786,-0.21923,-0.182,0.0097984,0,0,-0.74773,-0.29038,0,0.15285,0,0,0.20073,-0.020536,0,0.20178,-0.21763,-0.27945,-0.182,80.76,-0.22636,0.085409,-1.4256e-05,0.8,0.4,0
0.12982,0.0089713,0.17307,-0.27886,-0.21148,-0.17595,0.013825,0,0,-0.80274,-0.27715,0,0.21567,0,0,0.20227,-0.025047,0,0.2038,-0.20875,-0.28159,-0.17595,78.845,-0.2221,0.093652,-2.5401e-05,0.82,0.4,0
0.11319,0.0098963,0.14868,-0.28155,-0.20397,-0.17044,0.018946,0,0,-0.86672,-0.26152,0,0.29556,0,0,0.20485,-0.031463,0,0.20724,-0.19959,-0.28593,-0.17044,76.985,-0.21865,0.10403,-4.2885e-05,0.84,0.4,0
0.095154,0.011145,0.1239,-0.28761,-0.19694,-0.16601,0.025536,0,0,-0.94843,-0.24121,0,0.39837,0,0,0.20961,-0.040658,0,0.21348,-0.19024,-0.29431,-0.16601,75.304,-0.21685,0.11806,-7.2657e-05,0.86,0.4,0
0.075249,0.012752,0.098376,-0.29942,-0.19037,-0.16333,0.03425,0,0,-1.0615,-0.21088,0,0.53429,0,0,0.22007,-0.053962,0,0.22653,-0.1805,-0.30928,-0.16333,73.933,-0.21771,0.13817,-0.00012845,0.88,0.4,0
0.052694,0.014996,0.071088,-0.32359,-0.18742,-0.16515,0.046252,0,0,-1.2358,-0.17369,0,0.72153,0,0,0.2454,-0.073444,0,0.2564,-0.17319,-0.33781,-0.16515,72.905,-0.22538,0.16878,-0.00024506,0.9,0.4,0
0.025816,0.018941,0.039479,-0.34485,-0.241,-0.19878,0.10853,0,0,-0.74985,-0.094078,0,0.64747,0,0,0.31474,-0.30533,0,0.4602,-0.16269,-0.42316,-0.19878,60.836,-0.26154,0.24527,-0.00074839,0.92,0.4,0
0.022701,0.013717,0.032158,-0.43062,-0.2859,-0.24712,0.11954,0,0,-0.23856,-0.050424,0,0.3108,0,0,0.44392,-0.28929,0,0.52575,-0.21853,-0.498,-0.24712,60.594,-0.32121,0.26632,-0.00093262,0.94,0.4,0
0.016274,0.012785,0.021722,-0.54281,-0.28312,-0.2695,0.096233,0,0,-0.3553,-0.017699,0,0.25021,0,0,0.53095,-0.1622,0,0.55347,-0.25134,-0.57458,-0.2695,71.728,-0.36514,0.31456,-0.0015806,0.96,0.4,0
0.0084884,0.012508,0.01092,-0.57659,-0.26579,-0.26364,0.048489,0,0,-0.40685,-0.0028027,0,0.12607,0,0,0.54306,-0.073687,0,0.54704,-0.2584,-0.58398,-0.26364,81.335,-0.36867,0.32299,-0.0017291,0.98,0.4,0
0,0.012484,0,-0.57034,-0.24253,-0.24386,-0.00045592,0,0,-0.42442,0.00173,0,-0.0011854,0,0,0.54599,3.4694e-18,0,0.54517,-0.24253,-0.57034,-0.24386,-89.92,-0.35224,0.32715,-0.0017981,1,0.4,0
0,0.046571,1,-0.62701,-1.5954,-1.6667,-0.0047585,0,0,1.3516,0.092706,0,-0.012372,0,0,0.50544,4.7184e-16,0,0.50499,-0.62699,-1.5954,-1.6667,-0.28153,-1.2964,1.006,0.051404,0,0.42,0
0.027033,0.046324,0.98989,-0.61734,-1.5745,-1.6474,-0.026987,0,0,1.3391,0.094851,0,-0.070166,0,0,0.50407,0.052499,0,0.50629,-0.61657,-1.5752,-1.6474,-1.6138,-1.2797,0.99672,0.049957,0.02,0.42,0
0.053565,0.045438,0.97984,-0.62413,-1.5593,-1.6349,-0.062694,0,0,1.3139,0.098258,0,-0.16301,0,0,0.49862,0.11132,0,0.51018,-0.61994,-1.5635,-1.6349,-3.8184,-1.2728,0.98117,0.047647,0.04,0.42,0
0.079591,0.043682,0.96995,-0.62226,-1.5527,-1.6224,-0.1203,0,0,1.3002,0.090666,0,-0.31278,0,0,0.48478,0.18563,0,0.51782,-0.60695,-1.568,-1.6224,-7.2492,-1.2658,0.98938,0.049233,0.06,0.42,0
0.10557,0.040201,0.96045,-0.49706,-1.5444,-1.5729,-0.17261,0,0,1.3986,0.037001,0,-0.44879,0,0,0.40372,0.29425,0,0.49655,-0.46934,-1.5721,-1.5729,-9.1213,-1.2048,1.1032,0.068954,0.08,0.42,0
0.13553,0.039142,0.9538,-0.44306,-1.1504,-1.0344,-0.16794,0,0,0.86772,-0.25855,0,-1.0849,0,0,0.28541,0.29119,0,0.42779,-0.38658,-1.2069,-1.0344,-22.896,-0.87598,0.7547,0.053648,0.1,0.42,0
0.14028,0.019249,0.92519,-0.36872,-0.48239,-0.40953,-0.077462,0,0,0.31832,-0.56831,0,-1.2084,0,0,0.22181,0.065631,0,0.23149,-0.32948,-0.52163,-0.40953,-26.866,-0.42022,0.16718,-6.8163e-05,0.12,0.42,0
0.14827,0.0086029,0.90056,-0.34012,-0.46564,-0.39182,-0.046407,0,0,0.40329,-0.5758,0,-0.72394,0,0,0.19823,0.041293,0,0.20234,-0.32483,-0.48094,-0.39182,-18.24,-0.3992,0.13565,-3.1075e-05,0.14,0.42,0
0.15641,0.0028725,0.87761,-0.33059,-0.45535,-0.38205,-0.027083,0,0,0.40142,-0.57173,0,-0.4225,0,0,0.18842,0.021485,0,0.1895,-0.32496,-0.46097,-0.38205,-11.734,-0.38933,0.1183,-2.3273e-05,0.16,0.42,0
0.16432,-0.00037497,0.85534,-0.32487,-0.44547,-0.37366,-0.01417,0,0,0.38055,-0.56012,0,-0.22105,0,0,0.18444,0.0044332,0,0.18438,-0.32323,-0.44711,-0.37366,-6.6121,-0.38133,0.1079,-2.0337e-05,0.18,0.42,0
0.17164,-0.0019875,0.83335,-0.32221,-0.43743,-0.36679,-0.0041097,0,0,0.34764,-0.55104,0,-0.064111,0,0,0.18321,-0.01112,0,0.18344,-0.32207,-0.43758,-0.36679,-2.0402,-0.37548,0.10088,-1.9989e-05,0.2,0.42,0
0.17823,-0.002455,0.81137,-0.32113,-0.43101,-0.36087,0.0047168,0,0,0.30999,-0.54708,0,0.073583,0,0,0.18387,-0.026131,0,0.18562,-0.32092,-0.43121,-0.36087,2.4535,-0.371,0.096712,-2.1181e-05,0.22,0.42,0
0.18404,-0.0019236,0.78922,-0.32139,-0.42617,-0.3558,0.013737,0,0,0.26843,-0.54886,0,0.21429,0,0,0.18637,-0.0414,0,0.19081,-0.31962,-0.42794,-0.3558,7.3461,-0.36779,0.095518,-2.4077e-05,0.24,0.42,0
0.18897,-0.00028212,0.76664,-0.32352,-0.4229,-0.3517,0.024322,0,0,0.21981,-0.55535,0,0.37942,0,0,0.19123,-0.05771,0,0.19964,-0.31788,-0.42853,-0.3517,13.04,-0.36604,0.098206,-2.9919e-05,0.26,0.42,0
0.19283,0.002895,0.74332,-0.32932,-0.42135,-0.34909,0.037919,0,0,0.15418,-0.56362,0,0.59153,0,0,0.19985,-0.075953,0,0.2137,-0.31571,-0.43496,-0.34909,19.746,-0.36658,0.10655,-4.2202e-05,0.28,0.42,0
0.19513,0.0083392,0.71868,-0.34005,-0.42025,-0.34787,0.057444,0,0,0.060993,-0.56458,0,0.89613,0,0,0.21655,-0.097186,0,0.23733,-0.3101,-0.45021,-0.34787,27.541,-0.36939,0.12556,-7.1507e-05,0.3,0.42,0
0.19527,0.018107,0.69135,-0.36834,-0.42514,-0.35327,0.088156,0,0,-0.11753,-0.56061,0,1.3752,0,0,0.2503,-0.12254,0,0.27925,-0.30412,-0.48936,-0.35327,36.071,-0.38225,0.1662,-0.00016815,0.32,0.42,0
0.19043,0.036644,0.65861,-0.43738,-0.94441,-0.79872,0.18766,0,0,0.36901,-0.32466,0,1.2044,0,0,0.33242,-0.46784,0,0.5982,-0.352,-1.0298,-0.79872,28.773,-0.72684,0.60459,0.018239,0.34,0.42,0
0.21003,0.034575,0.65077,-0.5057,-1.2018,-1.163,0.22112,0,0,0.85453,-0.050449,0,0.57492,0,0,0.48263,-0.54007,0,0.72188,-0.44139,-1.2661,-1.163,16.214,-0.95685,0.77832,0.02279,0.36,0.42,0
0.22461,0.036548,0.6393,-0.64852,-1.1602,-1.1819,0.19495,0,0,0.69341,0.028245,0,0.50686,0,0,0.59003,-0.40421,0,0.71376,-0.58271,-1.226,-1.1819,18.654,-0.99688,0.62242,0.012175,0.38,0.42,0
0.23777,0.038083,0.62717,-0.67721,-1.1029,-1.1612,0.15217,0,0,0.6292,0.075762,0,0.39565,0,0,0.6194,-0.30355,0,0.68876,-0.62841,-1.1517,-1.1612,17.78,-0.98045,0.52812,0.0075572,0.4,0.42,0
0.24978,0.039633,0.61453,-0.69881,-1.0372,-1.1353,0.11683,0,0,0.56747,0.12756,0,0.30376,0,0,0.64214,-0.2114,0,0.67501,-0.6624,-1.0736,-1.1353,17.312,-0.95712,0.4453,0.0042429,0.42,0.42,0
0.26046,0.04098,0.60148,-0.72874,-0.9624,-1.1088,0.070196,0,0,0.49411,0.19035,0,0.18251,0,0,0.66133,-0.11417,0,0.66978,-0.70927,-0.98186,-1.1088,15.499,-0.93332,0.3536,0.0013235,0.44,0.42,0
0.26955,0.041662,0.58807,-0.77872,-0.89376,-1.0898,0.0036848,0,0,0.40443,0.25488,0,0.0095805,0,0,0.67946,0.00027339,0,0.67729,-0.7786,-0.89387,-1.0898,1.8327,-0.92076,0.27252,-0.00044806,0.46,0.42,0
0.27664,0.041374,0.5743,-0.85993,-0.85091,-1.0876,-0.10593,0,0,0.29591,0.30764,0,-0.27542,0,0,0.73542,0.15491,0,0.7453,-0.74939,-0.96145,-1.0876,-46.219,-0.9328,0.29599,0.00056381,0.48,0.42,0
0.28138,0.038127,0.55866,-0.73808,-0.60421,-0.72857,-0.18853,0,0,-0.1647,0.16352,0,-1.0717,0,0,0.5976,0.25576,0,0.65247,-0.47089,-0.87141,-0.72857,-53.952,-0.69029,0.35647,0.0029117,0.5,0.42,0
0.27407,0.025396,0.53171,-0.80058,-0.34742,-0.65457,-0.10681,0,0,-0.32541,0.30532,0,-0.68079,0,0,0.74321,0.06516,0,0.74699,-0.30694,-0.84107,-0.65457,-64.287,-0.60086,0.47702,0.0098802,0.52,0.42,0
0.26837,0.020171,0.50769,-0.74329,-0.32499,-0.61664,-0.044996,0,0,-0.28226,0.27837,0,-0.3637,0,0,0.69712,0.035506,0,0.69862,-0.30564,-0.76264,-0.61664,-66.692,-0.56164,0.41315,0.0078451,0.54,0.42,0
0.26278,0.016152,0.48391,-0.72157,-0.30846,-0.59129,-0.029652,0,0,-0.29034,0.25285,0,-0.25496,0,0,0.69242,0.018318,0,0.69285,-0.29462,-0.7354,-0.59129,-66.887,-0.54044,0.40011,0.0072804,0.56,0.42,0
0.25675,0.012981,0.46021,-0.71464,-0.30248,-0.57359,-0.020519,0,0,-0.31433,0.2288,0,-0.1874,0,0,0.69087,0.0081645,0,0.69095,-0.29246,-0.72466,-0.57359,-67.571,-0.53024,0.39284,0.0064979,0.58,0.42,0
0.25021,0.010282,0.43653,-0.70992,-0.29684,-0.55667,-0.015069,0,0,-0.34153,0.20675,0,-0.14412,0,0,0.69069,0.0015668,0,0.69068,-0.28946,-0.71729,-0.55667,-68.545,-0.52114,0.38941,0.0057347,0.6,0.42,0
0.24309,0.00797,0.41285,-0.70674,-0.29118,-0.54021,-0.011073,0,0,-0.37114,0.18725,0,-0.1119,0,0,0.69087,-0.0028645,0,0.69088,-0.28597,-0.71194,-0.54021,-70.256,-0.51271,0.38828,0.0049623,0.62,0.42,0
0.23536,0.0060148,0.38916,-0.70474,-0.28506,-0.52395,-0.0079015,0,0,-0.40291,0.17045,0,-0.085904,0,0,0.69111,-0.0059021,0,0.69116,-0.28171,-0.70809,-0.52395,-73.056,-0.50458,0.38915,0.0041791,0.64,0.42,0
0.22698,0.0044089,0.36546,-0.7038,-0.27848,-0.50787,-0.0052104,0,0,-0.43664,0.15618,0,-0.063451,0,0,0.69127,-0.0080283,0,0.69136,-0.27663,-0.70565,-0.50787,-77.068,-0.49672,0.39174,0.0033701,0.66,0.42,0
0.2179,0.0031476,0.34176,-0.7037,-0.27148,-0.49191,-0.002806,0,0,-0.47198,0.14411,0,-0.042964,0,0,0.69131,-0.0095818,0,0.69144,-0.27066,-0.70452,-0.49191,-81.659,-0.48903,0.39582,0.0025221,0.68,0.42,0
0.2081,0.0022236,0.31806,-0.70425,-0.26415,-0.47605,-0.00054201,0,0,-0.50855,0.13383,0,-0.023271,0,0,0.69121,-0.010826,0,0.69138,-0.26389,-0.7045,-0.47605,4.2456,-0.48148,0.40118,0.001624,0.7,0.42,0
0.19755,0.0016263,0.29436,-0.70525,-0.25655,-0.46025,0.0017081,0,0,-0.546,0.12495,0,-0.0033655,0,0,0.69095,-0.01199,0,0.69116,-0.25651,-0.70529,-0.46025,1.1207,-0.47401,0.4076,0.00066863,0.72,0.42,0
0.18626,0.0013422,0.27068,-0.70655,-0.24877,-0.44449,0.0040646,0,0,-0.58401,0.11711,0,0.017729,0,0,0.69052,-0.013289,0,0.69079,-0.24872,-0.70659,-0.44449,88.806,-0.4666,0.41492,-0.00034858,0.74,0.42,0
0.17419,0.0013557,0.24701,-0.70802,-0.2409,-0.42877,0.0066535,0,0,-0.62234,0.10996,0,0.041067,0,0,0.68992,-0.014954,0,0.69026,-0.24068,-0.70825,-0.42877,87.001,-0.45923,0.42298,-0.0014294,0.76,0.42,0
0.16136,0.0016509,0.22337,-0.70956,-0.23303,-0.41307,0.0096282,0,0,-0.66073,0.10322,0,0.067956,0,0,0.68914,-0.017259,0,0.68959,-0.23246,-0.71012,-0.41307,85.464,-0.45189,0.43165,-0.0025731,0.78,0.42,0
0.14777,0.0022143,0.19976,-0.71105,-0.2253,-0.39743,0.013218,0,0,-0.69893,0.096545,0,0.1003,0,0,0.68821,-0.020559,0,0.68885,-0.22417,-0.71218,-0.39743,84.018,-0.44459,0.44082,-0.003777,0.8,0.42,0
0.1334,0.0030428,0.17618,-0.71255,-0.21792,-0.38191,0.017848,0,0,-0.73685,0.08968,0,0.14134,0,0,0.68724,-0.02537,0,0.68821,-0.2159,-0.71457,-0.38191,82.514,-0.43746,0.4505,-0.0050405,0.82,0.42,0
0.11829,0.0041622,0.15263,-0.71479,-0.21151,-0.36693,0.024327,0,0,-0.77524,0.082576,0,0.19673,0,0,0.68658,-0.032541,0,0.68815,-0.20803,-0.71827,-0.36693,80.834,-0.43107,0.46116,-0.0063904,0.84,0.42,0
0.1024,0.0056477,0.1291,-0.72032,-0.20706,-0.35352,0.034755,0,0,-0.81743,0.075877,0,0.27845,0,0,0.68754,-0.043636,0,0.69026,-0.20097,-0.72641,-0.35352,78.849,-0.42697,0.47514,-0.007948,0.86,0.42,0
0.085593,0.0077343,0.10548,-0.74271,-0.21244,-0.34808,0.051656,0,0,-0.87947,0.071796,0,0.40002,0,0,0.69277,-0.062695,0,0.69789,-0.20191,-0.75324,-0.34808,76.831,-0.43441,0.49932,-0.010397,0.88,0.42,0
0.067217,0.010467,0.081594,-0.80605,-0.22802,-0.35782,0.096932,0,0,-0.99891,0.074382,0,0.64332,0,0,0.74935,-0.095974,0,0.75852,-0.20549,-0.82858,-0.35782,73.811,-0.46396,0.56521,-0.01622,0.9,0.42,0
0.045637,0.016254,0.054101,-0.70387,-0.33251,-0.34247,0.17304,0,0,-0.91941,-0.04303,0,0.9834,0,0,0.6067,-0.32049,0,0.69204,-0.26329,-0.77309,-0.34247,66.519,-0.45962,0.47525,-0.010167,0.92,0.42,0
0.033633,0.014224,0.038319,-0.82518,-0.30722,-0.37804,0.15008,0,0,-0.58128,0.09206,0,0.3902,0,0,0.72484,-0.28723,0,0.77445,-0.26688,-0.86552,-0.37804,74.954,-0.50348,0.55153,-0.0074501,0.94,0.42,0
0.022385,0.013507,0.025108,-0.75981,-0.25928,-0.33083,0.097837,0,0,-0.55766,0.09302,0,0.25438,0,0,0.64727,-0.15618,0,0.66447,-0.24084,-0.77825,-0.33083,79.324,-0.44997,0.49855,-0.0056714,0.96,0.42,0
0.011327,0.013435,0.012428,-0.72996,-0.22684,-0.29947,0.049471,0,0,-0.55964,0.094417,0,0.12862,0,0,0.6277,-0.06956,0,0.63076,-0.22202,-0.73477,-0.29947,84.437,-0.41875,0.47875,-0.0051422,0.98,0.42,0
0,0.013455,0,-0.70759,-0.19891,-0.27195,0.00038831,0,0,-0.56633,0.094952,0,0.0010096,0,0,0.62139,-1.3878e-17,0,0.62074,-0.19891,-0.70759,-0.27195,89.956,-0.39282,0.47638,-0.0051151,1,0.42,0
0,0.048769,1,-0.6578,-1.58,-1.6713,-0.0030637,0,0,1.3176,0.11874,0,-0.0079657,0,0,0.55905,1.02e-15,0,0.55865,-0.65779,-1.58,-1.6713,-0.19034,-1.3031,0.97111,0.045636,0,0.44,0
0.026352,0.04861,0.98882,-0.65144,-1.5539,-1.6504,-0.016136,0,0,1.2987,0.12546,0,-0.041953,0,0,0.56124,0.051573,0,0.56316,-0.65116,-1.5542,-1.6504,-1.024,-1.2853,0.95481,0.04318,0.02,0.44,0
0.051947,0.047973,0.97755,-0.67602,-1.5281,-1.6388,-0.042606,0,0,1.2516,0.14393,0,-0.11077,0,0,0.5687,0.1098,0,0.57858,-0.67389,-1.5302,-1.6388,-2.8556,-1.281,0.91543,0.037537,0.04,0.44,0
0.076415,0.046307,0.96607,-0.73046,-1.5098,-1.6381,-0.087574,0,0,1.18,0.16689,0,-0.22769,0,0,0.5838,0.18451,0,0.61113,-0.72074,-1.5195,-1.6381,-6.3334,-1.2928,0.8642,0.031052,0.06,0.44,0
0.099146,0.043006,0.9542,-0.82119,-1.5192,-1.6563,-0.21135,0,0,1.0857,0.17827,0,-0.54952,0,0,0.65025,0.29667,0,0.71037,-0.76218,-1.5782,-1.6563,-15.6,-1.3322,0.85774,0.031506,0.08,0.44,0
0.11984,0.031832,0.94006,-0.73452,-1.0583,-1.0862,-0.28629,0,0,0.64437,-0.11603,0,-1.6275,0,0,0.5401,0.30404,0,0.62525,-0.56651,-1.2263,-1.0862,-31.774,-0.95969,0.60916,0.021555,0.1,0.44,0
0.12882,0.0051344,0.9157,-0.66771,-0.54112,-0.89681,-0.17279,0,0,0.51056,0.16834,0,-1.0651,0,0,0.65724,0.09122,0,0.66596,-0.38123,-0.8276,-0.89681,-44.937,-0.70188,0.51604,0.0089462,0.12,0.44,0
0.14026,-0.0043758,0.89499,-0.59819,-0.50511,-0.85307,-0.058192,0,0,0.56801,0.18196,0,-0.47291,0,0,0.59728,0.052546,0,0.60098,-0.4136,-0.68969,-0.85307,-47.757,-0.65212,0.42317,-0.0010399,0.14,0.44,0
0.15155,-0.0097338,0.87475,-0.58754,-0.4761,-0.82936,-0.028919,0,0,0.53892,0.19661,0,-0.26076,0,0,0.58769,0.025896,0,0.5886,-0.39738,-0.66626,-0.82936,-47.98,-0.631,0.41155,-0.00063751,0.16,0.44,0
0.16182,-0.012452,0.85469,-0.5977,-0.46515,-0.81743,-0.011517,0,0,0.48967,0.20636,0,-0.12383,0,0,0.58439,0.0057036,0,0.58435,-0.39422,-0.66863,-0.81743,-47.304,-0.62676,0.40085,0.00050706,0.18,0.44,0
0.17113,-0.013741,0.83467,-0.60623,-0.45652,-0.80572,-0.00081235,0,0,0.44457,0.2091,0,-0.02955,0,0,0.58475,-0.011921,0,0.58489,-0.39027,-0.67248,-0.80572,43.915,-0.62282,0.39341,0.0015424,0.2,0.44,0
0.1796,-0.014078,0.8146,-0.61133,-0.45012,-0.79362,0.0079683,0,0,0.40624,0.20441,0,0.050616,0,0,0.58764,-0.028819,0,0.58887,-0.3866,-0.67485,-0.79362,45.316,-0.61836,0.38689,0.0022846,0.22,0.44,0
0.18738,-0.013619,0.79438,-0.61266,-0.44546,-0.78082,0.017179,0,0,0.37477,0.19232,0,0.13365,0,0,0.59335,-0.046393,0,0.59655,-0.38273,-0.67538,-0.78082,46.846,-0.61298,0.38113,0.0027401,0.24,0.44,0
0.19459,-0.012226,0.77391,-0.61185,-0.44323,-0.76797,0.029225,0,0,0.34793,0.17333,0,0.23654,0,0,0.60309,-0.066142,0,0.6094,-0.37899,-0.67609,-0.76797,48.451,-0.60769,0.37654,0.0029979,0.26,0.44,0
0.2013,-0.0094604,0.75302,-0.61263,-0.44384,-0.75621,0.048778,0,0,0.31996,0.14867,0,0.38648,0,0,0.62006,-0.090223,0,0.63102,-0.37413,-0.68234,-0.75621,49.87,-0.60423,0.3766,0.0033414,0.28,0.44,0
0.20739,-0.0042409,0.73139,-0.63936,-0.46237,-0.75716,0.080849,0,0,0.26253,0.12115,0,0.61278,0,0,0.65001,-0.12355,0,0.66824,-0.38147,-0.72026,-0.75716,51.056,-0.61963,0.38396,0.0043609,0.3,0.44,0
0.2118,0.0046685,0.70845,-0.73434,-0.49175,-0.78109,0.1898,0,0,0.10419,0.096161,0,1.1752,0,0,0.75943,-0.1728,0,0.78634,-0.35442,-0.87167,-0.78109,50.35,-0.66906,0.49635,0.012415,0.32,0.44,0
0.21156,0.028141,0.67932,-0.77997,-0.92822,-0.90873,0.30385,0,0,0.16239,-0.20247,0,1.7192,0,0,0.65248,-0.46511,0,0.80988,-0.54118,-1.167,-0.90873,38.706,-0.8723,0.54838,0.0071208,0.34,0.44,0
0.22178,0.035653,0.66202,-0.88343,-1.2154,-1.2917,0.2698,0,0,0.53072,0.099122,0,0.70149,0,0,0.79032,-0.54772,0,0.95696,-0.73265,-1.3662,-1.2917,29.199,-1.1302,0.59978,0.010507,0.36,0.44,0
0.23279,0.03804,0.6477,-0.80559,-1.1466,-1.2334,0.18405,0,0,0.55611,0.11278,0,0.47854,0,0,0.71362,-0.41962,0,0.82657,-0.7252,-1.227,-1.2334,23.594,-1.0619,0.50501,0.0066114,0.38,0.44,0
0.24403,0.040342,0.63347,-0.77617,-1.0899,-1.1933,0.16166,0,0,0.54227,0.13439,0,0.4203,0,0,0.71873,-0.32447,0,0.78771,-0.70778,-1.1583,-1.1933,22.93,-1.0198,0.469,0.0051991,0.4,0.44,0
0.25448,0.042912,0.61896,-0.78829,-1.016,-1.1603,0.14432,0,0,0.48355,0.1875,0,0.37523,0,0,0.73851,-0.2345,0,0.77402,-0.71832,-1.086,-1.1603,25.864,-0.98818,0.40987,0.0031486,0.42,0.44,0
0.26337,0.045707,0.60393,-0.82564,-0.91691,-1.1267,0.11444,0,0,0.39138,0.27272,0,0.29753,0,0,0.76788,-0.13828,0,0.77927,-0.74807,-0.99448,-1.1267,34.129,-0.95642,0.33283,0.00093622,0.44,0.44,0
0.27014,0.048071,0.58824,-0.88243,-0.81529,-1.0976,0.059854,0,0,0.27967,0.36694,0,0.15562,0,0,0.81321,-0.030098,0,0.81262,-0.78023,-0.91748,-1.0976,59.642,-0.93176,0.27564,-0.00024866,0.46,0.44,0
0.27456,0.049058,0.57141,-0.97115,-0.74727,-1.0869,-0.016418,0,0,0.15051,0.44156,0,-0.042686,0,0,0.90655,0.096591,0,0.91138,-0.74607,-0.97235,-1.0869,-85.828,-0.93512,0.30043,0.00074089,0.48,0.44,0
0.27616,0.04776,0.55198,-1.0596,-0.6714,-1.0713,-0.11725,0,0,0.015212,0.51983,0,-0.30486,0,0,1.0281,0.20947,0,1.0542,-0.63873,-1.0922,-1.0713,-74.431,-0.93408,0.4434,0.0044434,0.5,0.44,0
0.27516,0.042119,0.53028,-1.0831,-0.38304,-0.97011,-0.10467,0,0,-0.14684,0.7632,0,-0.27214,0,0,1.1265,0.07386,0,1.1276,-0.36772,-1.0984,-0.97011,-81.675,-0.81207,0.67572,0.013941,0.52,0.44,0
0.27028,0.036144,0.50692,-1.1666,-0.36242,-0.96562,-0.069501,0,0,-0.26124,0.78416,0,-0.1807,0,0,1.1689,0.035707,0,1.1694,-0.35646,-1.1725,-0.96562,-85.097,-0.83154,0.7348,0.015061,0.54,0.44,0
0.26471,0.031778,0.48353,-1.1553,-0.33674,-0.93114,-0.041511,0,0,-0.2914,0.77271,0,-0.10793,0,0,1.1718,0.01715,0,1.1719,-0.33465,-1.1574,-0.93114,-87.104,-0.80773,0.73618,0.014155,0.56,0.44,0
0.25863,0.028068,0.46005,-1.1455,-0.32341,-0.90073,-0.028579,0,0,-0.31825,0.75052,0,-0.074306,0,0,1.1756,0.0066573,0,1.1756,-0.32242,-1.1465,-0.90073,-88.011,-0.78989,0.73281,0.012813,0.58,0.44,0
0.25199,0.024841,0.4365,-1.1398,-0.31427,-0.87272,-0.020228,0,0,-0.34719,0.72599,0,-0.052593,0,0,1.1784,0.00019111,0,1.1784,-0.31377,-1.1403,-0.87272,-88.597,-0.7756,0.73047,0.011343,0.6,0.44,0
0.24474,0.022011,0.41291,-1.1372,-0.30651,-0.84603,-0.014265,0,0,-0.37854,0.70137,0,-0.037089,0,0,1.1806,-0.0039553,0,1.1806,-0.30626,-1.1375,-0.84603,-89.016,-0.76325,0.73046,0.009815,0.62,0.44,0
0.23684,0.019558,0.38928,-1.1368,-0.29895,-0.82,-0.0095967,0,0,-0.41181,0.67736,0,-0.024952,0,0,1.1822,-0.0066651,0,1.1822,-0.29884,-1.1369,-0.82,-89.344,-0.7519,0.73292,0.0082346,0.64,0.44,0
0.22827,0.017473,0.36562,-1.1378,-0.29123,-0.79434,-0.0058069,0,0,-0.44653,0.65404,0,-0.015098,0,0,1.1833,-0.0084629,0,1.1833,-0.29119,-1.1379,-0.79434,-89.607,-0.74113,0.73757,0.0065856,0.66,0.44,0
0.21898,0.01575,0.34195,-1.1399,-0.28328,-0.7689,-0.0026339,0,0,-0.48227,0.6313,0,-0.0068481,0,0,1.1838,-0.0096981,0,1.1838,-0.28327,-1.1399,-0.7689,-89.824,-0.73069,0.74406,0.0048507,0.68,0.44,0
0.20897,0.014376,0.31827,-1.1426,-0.27515,-0.74359,0.00012873,0,0,-0.51868,0.60897,0,0.0003347,0,0,1.1838,-0.01063,0,1.1839,-0.27515,-1.1426,-0.74359,89.992,-0.72044,0.75201,0.0030173,0.7,0.44,0
0.19823,0.013338,0.2946,-1.1456,-0.2669,-0.71836,0.0026658,0,0,-0.55546,0.58689,0,0.0069311,0,0,1.1833,-0.011472,0,1.1834,-0.26689,-1.1456,-0.71836,89.826,-0.7103,0.76111,0.0010789,0.72,0.44,0
0.18676,0.012618,0.27094,-1.1488,-0.2586,-0.69317,0.0051455,0,0,-0.59235,0.56493,0,0.013378,0,0,1.1824,-0.012428,0,1.1824,-0.25857,-1.1488,-0.69317,89.669,-0.7002,0.77107,-0.00096586,0.74,0.44,0
0.17454,0.012199,0.2473,-1.152,-0.25036,-0.668,0.0077251,0,0,-0.62914,0.54293,0,0.020085,0,0,1.1808,-0.013712,0,1.1809,-0.25029,-1.152,-0.668,89.509,-0.6901,0.78162,-0.0031139,0.76,0.44,0
0.16159,0.01206,0.2237,-1.1549,-0.2423,-0.64286,0.010575,0,0,-0.66563,0.52073,0,0.027496,0,0,1.1787,-0.015589,0,1.1788,-0.24218,-1.155,-0.64286,89.336,-0.68002,0.7925,-0.0053578,0.78,0.44,0
0.14792,0.012183,0.20016,-1.1575,-0.23471,-0.61782,0.013955,0,0,-0.70158,0.49804,0,0.036284,0,0,1.1758,-0.018418,0,1.1759,-0.2345,-1.1577,-0.61782,89.134,-0.67001,0.80334,-0.0076859,0.8,0.44,0
0.13353,0.012559,0.17667,-1.1597,-0.22817,-0.59303,0.018389,0,0,-0.73664,0.47431,0,0.047811,0,0,1.1721,-0.02276,0,1.1723,-0.22781,-1.16,-0.59303,88.87,-0.66029,0.81361,-0.01008,0.82,0.44,0
0.11845,0.013199,0.15327,-1.1613,-0.22393,-0.56885,0.025172,0,0,-0.77022,0.4484,0,0.065448,0,0,1.1674,-0.029607,0,1.1678,-0.22326,-1.162,-0.56885,88.463,-0.65137,0.82234,-0.012508,0.84,0.44,0
0.10272,0.01418,0.12998,-1.1614,-0.22417,-0.54566,0.036842,0,0,-0.80051,0.41793,0,0.09579,0,0,1.1617,-0.040999,0,1.1624,-0.22273,-1.1629,-0.54566,87.752,-0.64376,0.82739,-0.014866,0.86,0.44,0
0.08643,0.015624,0.10681,-1.1538,-0.23288,-0.52282,0.060947,0,0,-0.82029,0.37692,0,0.15846,0,0,1.1574,-0.062077,0,1.159,-0.22887,-1.1578,-0.52282,86.23,-0.6365,0.82238,-0.016751,0.88,0.44,0
0.069908,0.017971,0.083682,-1.0701,-0.23246,-0.47445,0.088728,0,0,-0.77433,0.31458,0,0.23069,0,0,1.1111,-0.10828,0,1.1145,-0.22317,-1.0794,-0.47445,84.019,-0.59233,0.7623,-0.014697,0.9,0.44,0
0.055456,0.019046,0.062364,-1.036,-0.35986,-0.48111,0.11802,0,0,-0.72131,0.15763,0,0.30684,0,0,1.0009,-0.27763,0,1.0447,-0.33985,-1.056,-0.48111,80.378,-0.62565,0.65699,-0.012325,0.92,0.44,0
0.041055,0.0174,0.043647,-0.95469,-0.27322,-0.41202,0.078362,0,0,-0.70547,0.18044,0,0.20374,0,0,0.85987,-0.20304,0,0.88492,-0.26432,-0.96358,-0.41202,83.524,-0.54664,0.63836,-0.010987,0.94,0.44,0
0.027238,0.016506,0.02797,-0.88787,-0.22401,-0.36153,0.060804,0,0,-0.68424,0.17878,0,0.15809,0,0,0.74862,-0.11394,0,0.75709,-0.21849,-0.89339,-0.36153,84.81,-0.49114,0.61597,-0.0098558,0.96,0.44,0
0.013686,0.016284,0.013702,-0.84942,-0.19031,-0.32562,0.033993,0,0,-0.68094,0.17591,0,0.088382,0,0,0.69924,-0.050471,0,0.70077,-0.18856,-0.85117,-0.32562,87.055,-0.45512,0.60582,-0.009479,0.98,0.44,0
0,0.016282,0,-0.8199,-0.15853,-0.29353,-4.3701e-05,0,0,-0.68428,0.1755,0,-0.00011362,0,0,0.68511,-1.2143e-17,0,0.68478,-0.15853,-0.8199,-0.29353,-89.996,-0.42399,0.60527,-0.0095065,1,0.44,0
0,0.051321,1,-0.66704,-1.5757,-1.6728,0.00040792,0,0,1.3075,0.12621,0,0.0010606,0,0,0.60859,2.0053e-15,0,0.60831,-0.66704,-1.5757,-1.6728,0.02572,-1.3052,0.96094,0.044008,0,0.46,0
0.026151,0.051342,0.98783,-0.65964,-1.5436,-1.6488,-0.0010337,0,0,1.2859,0.13673,0,-0.0026876,0,0,0.61387,0.04472,0,0.61521,-0.65963,-1.5436,-1.6488,-0.066997,-1.284,0.94101,0.040999,0.02,0.46,0
0.051437,0.051195,0.97545,-0.68327,-1.503,-1.6313,-0.01079,0,0,1.2325,0.1668,0,-0.028053,0,0,0.63155,0.094241,0,0.63824,-0.68313,-1.5032,-1.6313,-0.75396,-1.2725,0.89106,0.033816,0.04,0.46,0
0.07545,0.050358,0.96257,-0.71437,-1.4475,-1.6111,-0.041868,0,0,1.1658,0.21274,0,-0.10885,0,0,0.67165,0.15389,0,0.68879,-0.71198,-1.4499,-1.6111,-3.258,-1.2576,0.83033,0.025704,0.06,0.46,0
0.098068,0.047332,0.94858,-0.78498,-1.4067,-1.6061,-0.11324,0,0,1.0674,0.25921,0,-0.29442,0,0,0.76113,0.23026,0,0.79617,-0.76499,-1.4267,-1.6061,-10.008,-1.2659,0.76728,0.018992,0.08,0.46,0
0.11815,0.03949,0.93212,-0.87786,-1.2372,-1.5667,-0.22321,0,0,0.89543,0.42823,0,-0.58034,0,0,0.87359,0.28376,0,0.92272,-0.77101,-1.3441,-1.5667,-25.582,-1.2273,0.711,0.012546,0.1,0.46,0
0.13389,0.025982,0.91363,-0.87386,-0.66483,-1.3752,-0.17893,0,0,0.65179,0.92354,0,-0.46522,0,0,0.95754,0.11529,0,0.96255,-0.56212,-0.97657,-1.3752,-60.145,-0.97131,0.70422,0.00060224,0.12,0.46,0
0.14422,0.015881,0.89382,-0.97943,-0.59922,-1.3674,-0.09024,0,0,0.50438,0.99865,0,-0.23463,0,0,0.98616,0.06027,0,0.98783,-0.57889,-0.99977,-1.3674,-77.303,-0.98203,0.6834,0.001911,0.14,0.46,0
0.15406,0.010737,0.87419,-0.95302,-0.53787,-1.3215,-0.033031,0,0,0.47896,1.0187,0,-0.085881,0,0,0.98114,0.02831,0,0.98148,-0.53526,-0.95564,-1.3215,-85.479,-0.93745,0.68141,0.0019471,0.16,0.46,0
0.16338,0.0078793,0.85457,-0.943,-0.50687,-1.2895,-0.0097941,0,0,0.45049,1.0175,0,-0.025465,0,0,0.98148,0.0051768,0,0.98145,-0.50665,-0.94322,-1.2895,-88.714,-0.91314,0.6795,0.003192,0.18,0.46,0
0.17208,0.0063764,0.83493,-0.94232,-0.48964,-1.2645,0.0025551,0,0,0.41885,1.0073,0,0.0066432,0,0,0.98404,-0.014551,0,0.98411,-0.48962,-0.94234,-1.2645,89.677,-0.89883,0.67424,0.0045145,0.2,0.46,0
0.18013,0.0057212,0.81521,-0.94616,-0.48075,-1.2433,0.01097,0,0,0.38626,0.9913,0,0.028521,0,0,0.98889,-0.033647,0,0.98944,-0.48049,-0.94642,-1.2433,88.651,-0.89007,0.66599,0.005653,0.22,0.46,0
0.18753,0.0057693,0.79537,-0.953,-0.47872,-1.2249,0.020131,0,0,0.35346,0.97003,0,0.05234,0,0,0.99669,-0.054222,0,0.99813,-0.47786,-0.95385,-1.2249,87.574,-0.88553,0.65501,0.0065532,0.24,0.46,0
0.19427,0.0066509,0.77534,-0.96473,-0.48524,-1.2103,0.034851,0,0,0.31929,0.94263,0,0.090612,0,0,1.009,-0.078669,0,1.012,-0.48272,-0.96725,-1.2103,85.865,-0.88677,0.6416,0.0072956,0.26,0.46,0
0.2003,0.0088417,0.75502,-0.98614,-0.50517,-1.2024,0.062249,0,0,0.28115,0.90641,0,0.16185,0,0,1.0282,-0.11075,0,1.0341,-0.49725,-0.99406,-1.2024,82.744,-0.89791,0.62749,0.0081341,0.28,0.46,0
0.20552,0.013185,0.73422,-1.0218,-0.55171,-1.2063,0.12339,0,0,0.23981,0.85093,0,0.32081,0,0,1.0626,-0.15836,0,1.0741,-0.52129,-1.0522,-1.2063,76.151,-0.92659,0.62242,0.0098736,0.3,0.46,0
0.20989,0.021954,0.71251,-0.9305,-0.59629,-1.1705,0.21173,0,0,0.31207,0.74653,0,0.55049,0,0,1.0631,-0.24241,0,1.0876,-0.49367,-1.0331,-1.1705,64.141,-0.89911,0.6197,0.010226,0.32,0.46,0
0.218,0.032998,0.69169,-0.94881,-1.081,-1.3007,0.267,0,0,0.45738,0.28549,0,0.69421,0,0,0.99592,-0.49616,0,1.1147,-0.73986,-1.29,-1.3007,38.047,-1.1102,0.55554,0.0087947,0.34,0.46,0
0.22819,0.03854,0.67268,-0.87091,-1.1404,-1.2761,0.18808,0,0,0.52669,0.17639,0,0.48902,0,0,0.89011,-0.48053,0,1.0125,-0.77428,-1.237,-1.2761,27.192,-1.0958,0.48344,0.0056752,0.36,0.46,0
0.23907,0.04106,0.65609,-0.82538,-1.1181,-1.2391,0.15771,0,0,0.53789,0.15732,0,0.41004,0,0,0.81328,-0.41207,0,0.91124,-0.75658,-1.1869,-1.2391,23.567,-1.0609,0.45868,0.0047403,0.38,0.46,0
0.24971,0.043459,0.64014,-0.82553,-1.0975,-1.2171,0.16456,0,0,0.50899,0.15541,0,0.42787,0,0,0.80451,-0.34431,0,0.87462,-0.74804,-1.175,-1.2171,25.215,-1.0467,0.44947,0.0045263,0.4,0.46,0
0.25943,0.047133,0.62391,-0.84656,-1.0175,-1.1831,0.1809,0,0,0.43754,0.2153,0,0.47034,0,0,0.82833,-0.2661,0,0.86951,-0.73196,-1.1321,-1.1831,32.355,-1.0157,0.42795,0.0038331,0.42,0.46,0
0.26721,0.051889,0.60701,-0.88542,-0.87554,-1.1353,0.17014,0,0,0.32485,0.33769,0,0.44235,0,0,0.86574,-0.17375,0,0.88238,-0.71027,-1.0507,-1.1353,45.831,-0.96542,0.38967,0.0025626,0.44,0.46,0
0.27242,0.05634,0.58928,-0.93834,-0.74041,-1.0929,0.12221,0,0,0.20093,0.45824,0,0.31774,0,0,0.91433,-0.076473,0,0.91707,-0.68212,-0.99663,-1.0929,64.5,-0.92388,0.37211,0.0020611,0.46,0.46,0
0.27524,0.059036,0.57044,-0.98991,-0.64597,-1.0612,0.04927,0,0,0.092684,0.5398,0,0.1281,0,0,0.97498,0.010118,0,0.97539,-0.63905,-0.99683,-1.0612,82.006,-0.89903,0.39393,0.002859,0.48,0.46,0
0.27613,0.05892,0.55028,-1.0483,-0.58352,-1.0398,-0.020525,0,0,-0.011047,0.59321,0,-0.053365,0,0,1.0421,0.048649,0,1.0438,-0.58261,-1.0492,-1.0398,-87.477,-0.89056,0.46199,0.0050573,0.5,0.46,0
0.2748,0.055924,0.52876,-1.0815,-0.46299,-0.99209,-0.064986,0,0,-0.11619,0.68784,0,-0.16896,0,0,1.1003,0.048908,0,1.1017,-0.45623,-1.0882,-0.99209,-84.066,-0.84552,0.58983,0.0096024,0.52,0.46,0
0.27148,0.051538,0.50626,-1.1116,-0.37652,-0.9527,-0.059941,0,0,-0.20657,0.74904,0,-0.15585,0,0,1.1383,0.023936,0,1.1386,-0.37166,-1.1165,-0.9527,-85.369,-0.81361,0.67792,0.012908,0.54,0.46,0
0.26654,0.047061,0.48322,-1.1357,-0.34927,-0.92871,-0.044128,0,0,-0.26907,0.75327,0,-0.11473,0,0,1.158,0.010042,0,1.158,-0.3468,-1.1381,-0.92871,-86.798,-0.80456,0.71018,0.013145,0.56,0.46,0
0.26072,0.043002,0.45995,-1.1396,-0.33248,-0.90158,-0.029909,0,0,-0.30948,0.73984,0,-0.077763,0,0,1.1674,0.0017063,0,1.1674,-0.33137,-1.1407,-0.90158,-87.881,-0.79123,0.72022,0.012297,0.58,0.46,0
0.25416,0.039322,0.43653,-1.1411,-0.32123,-0.87522,-0.019842,0,0,-0.34563,0.72019,0,-0.051588,0,0,1.1734,-0.0033763,0,1.1734,-0.32075,-1.1416,-0.87522,-88.615,-0.77918,0.7253,0.011063,0.6,0.46,0
0.24689,0.036025,0.41301,-1.1429,-0.31189,-0.84943,-0.012289,0,0,-0.38145,0.69881,0,-0.03195,0,0,1.1775,-0.0064916,0,1.1775,-0.3117,-1.143,-0.84943,-89.153,-0.76806,0.73023,0.0096551,0.62,0.46,0
0.2389,0.033109,0.38943,-1.1454,-0.30316,-0.82398,-0.0065297,0,0,-0.4178,0.67707,0,-0.016977,0,0,1.1803,-0.0083733,0,1.1803,-0.30311,-1.1454,-0.82398,-89.556,-0.7575,0.73625,0.0081251,0.64,0.46,0
0.23018,0.030571,0.3658,-1.1483,-0.29458,-0.79867,-0.0020626,0,0,-0.45456,0.65532,0,-0.0053629,0,0,1.182,-0.0094745,0,1.182,-0.29457,-1.1483,-0.79867,-89.862,-0.74719,0.7434,0.0064807,0.66,0.46,0
0.22072,0.0284,0.34215,-1.1514,-0.28603,-0.77339,0.0014596,0,0,-0.49146,0.63356,0,0.0037951,0,0,1.1829,-0.010096,0,1.183,-0.28603,-1.1514,-0.77339,89.903,-0.73695,0.75145,0.0047216,0.68,0.46,0
0.21052,0.026582,0.31848,-1.1544,-0.27753,-0.74807,0.0043236,0,0,-0.52826,0.6117,0,0.011241,0,0,1.1831,-0.010455,0,1.1832,-0.27751,-1.1544,-0.74807,89.718,-0.72667,0.76013,0.0028502,0.7,0.46,0
0.19959,0.025102,0.29482,-1.1571,-0.26909,-0.72269,0.0067726,0,0,-0.56478,0.58967,0,0.017609,0,0,1.1827,-0.010726,0,1.1827,-0.26904,-1.1572,-0.72269,89.563,-0.7163,0.76921,0.00087277,0.72,0.46,0
0.18793,0.023939,0.27117,-1.1594,-0.26078,-0.69723,0.0090142,0,0,-0.60084,0.56739,0,0.023437,0,0,1.1815,-0.011071,0,1.1816,-0.26069,-1.1595,-0.69723,89.425,-0.70581,0.7785,-0.0012009,0.74,0.46,0
0.17556,0.023073,0.24756,-1.1612,-0.25267,-0.67171,0.011226,0,0,-0.6363,0.54476,0,0.029187,0,0,1.1796,-0.011661,0,1.1796,-0.25253,-1.1613,-0.67171,89.292,-0.69518,0.78781,-0.003358,0.76,0.46,0
0.16248,0.02248,0.22399,-1.1623,-0.24489,-0.64614,0.013569,0,0,-0.67096,0.52162,0,0.03528,0,0,1.1767,-0.012707,0,1.1767,-0.24469,-1.1625,-0.64614,89.153,-0.68443,0.79688,-0.005581,0.78,0.46,0
0.14872,0.022136,0.20049,-1.1624,-0.23774,-0.62054,0.016228,0,0,-0.70443,0.49763,0,0.042194,0,0,1.1726,-0.014507,0,1.1727,-0.23746,-1.1627,-0.62054,88.995,-0.67356,0.80521,-0.0078424,0.8,0.46,0
0.1343,0.022015,0.17709,-1.1609,-0.23192,-0.59493,0.019507,0,0,-0.73576,0.47192,0,0.050719,0,0,1.1669,-0.017522,0,1.1671,-0.23151,-1.1613,-0.59493,88.798,-0.66258,0.8116,-0.010084,0.82,0.46,0
0.11929,0.022098,0.15382,-1.1557,-0.22883,-0.56917,0.023914,0,0,-0.76246,0.44244,0,0.062175,0,0,1.1587,-0.022547,0,1.159,-0.22821,-1.1563,-0.56917,88.523,-0.65122,0.81311,-0.012156,0.84,0.46,0
0.1038,0.022365,0.13074,-1.1417,-0.23154,-0.54271,0.030475,0,0,-0.77868,0.40452,0,0.079236,0,0,1.1462,-0.031092,0,1.1466,-0.23052,-1.1427,-0.54271,88.084,-0.63865,0.80298,-0.013685,0.86,0.46,0
0.08814,0.022811,0.10797,-1.1042,-0.24359,-0.51232,0.037259,0,0,-0.76951,0.34935,0,0.096873,0,0,1.1203,-0.046252,0,1.1213,-0.24198,-1.1059,-0.51232,87.526,-0.62005,0.7654,-0.01372,0.88,0.46,0
0.073022,0.023051,0.085925,-1.0641,-0.29542,-0.49379,0.038977,0,0,-0.74144,0.25788,0,0.10134,0,0,1.069,-0.076423,0,1.0723,-0.29345,-1.0661,-0.49379,87.105,-0.61778,0.6945,-0.0125,0.9,0.46,0
0.058482,0.022559,0.065207,-1.0198,-0.32243,-0.46787,0.022929,0,0,-0.71748,0.18907,0,0.059616,0,0,0.98712,-0.090202,0,0.99257,-0.32168,-1.0205,-0.46787,88.119,-0.60336,0.63843,-0.011039,0.92,0.46,0
0.044323,0.021441,0.04644,-0.96583,-0.26176,-0.41471,0.019321,0,0,-0.71644,0.19885,0,0.050233,0,0,0.88853,-0.080956,0,0.89405,-0.26123,-0.96635,-0.41471,88.429,-0.54743,0.64229,-0.011033,0.94,0.46,0
0.029824,0.020659,0.029666,-0.93426,-0.20684,-0.372,0.021452,0,0,-0.73094,0.2147,0,0.055776,0,0,0.79984,-0.046028,0,0.80196,-0.20621,-0.93489,-0.372,88.312,-0.50437,0.66156,-0.011781,0.96,0.46,0
0.015086,0.020471,0.014447,-0.91058,-0.16471,-0.33703,0.014549,0,0,-0.74561,0.22402,0,0.037828,0,0,0.74164,-0.018064,0,0.74201,-0.16443,-0.91086,-0.33703,88.883,-0.47078,0.67684,-0.012502,0.98,0.46,0
0,0.020475,0,-0.88532,-0.1317,-0.30511,7.1292e-05,0,0,-0.75428,0.22542,0,0.00018536,0,0,0.72233,-3.6863e-17,0,0.72225,-0.1317,-0.88532,-0.30511,89.995,-0.44071,0.68361,-0.012918,1,0.46,0
0,0.053817,1,-0.65932,-1.5859,-1.6736,0.0050237,0,0,1.3185,0.11398,0,0.013062,0,0,0.64849,2.4182e-15,0,0.64834,-0.65929,-1.5859,-1.6736,0.31064,-1.3062,0.97341,0.046078,0,0.48,0
0.02637,0.054079,0.98703,-0.65019,-1.5481,-1.6465,0.014508,0,0,1.2952,0.12794,0,0.03772,0,0,0.65548,0.033259,0,0.6562,-0.64995,-1.5483,-1.6465,0.92541,-1.2816,0.95128,0.042629,0.02,0.48,0
0.051809,0.054645,0.97378,-0.66916,-1.492,-1.6221,0.018565,0,0,1.2389,0.1692,0,0.048268,0,0,0.67787,0.068889,0,0.68133,-0.66874,-1.4924,-1.6221,1.2919,-1.2611,0.89559,0.034298,0.04,0.48,0
0.075924,0.054816,0.95992,-0.70262,-1.4159,-1.5955,0.00098156,0,0,1.1607,0.23347,0,0.0025521,0,0,0.71982,0.10729,0,0.72805,-0.70262,-1.4159,-1.5955,0.078848,-1.238,0.81798,0.023606,0.06,0.48,0
0.098237,0.053374,0.94499,-0.75608,-1.3099,-1.5648,-0.049117,0,0,1.0513,0.33132,0,-0.1277,0,0,0.78012,0.13945,0,0.79342,-0.75176,-1.3142,-1.5648,-5.0289,-1.2103,0.72118,0.01172,0.08,0.48,0
0.11798,0.048961,0.92871,-0.83243,-1.1279,-1.5168,-0.11056,0,0,0.8897,0.50557,0,-0.28746,0,0,0.84741,0.13461,0,0.85873,-0.79564,-1.1647,-1.5168,-18.404,-1.159,0.62461,0.00050926,0.1,0.48,0
0.13382,0.042076,0.91109,-0.88174,-0.82473,-1.423,-0.12917,0,0,0.70369,0.77779,0,-0.33583,0,0,0.90321,0.10254,0,0.90918,-0.72096,-0.98551,-1.423,-51.221,-1.0432,0.61413,-0.0048931,0.12,0.48,0
0.14613,0.03557,0.89258,-0.93495,-0.63494,-1.3636,-0.082569,0,0,0.55718,0.94719,0,-0.21468,0,0,0.93692,0.055628,0,0.93844,-0.61372,-0.95618,-1.3636,-75.585,-0.97781,0.65019,-0.0021071,0.14,0.48,0
0.15611,0.031012,0.87362,-0.96643,-0.56333,-1.3325,-0.038459,0,0,0.47595,0.99998,0,-0.099994,0,0,0.95238,0.025241,0,0.95266,-0.55969,-0.97007,-1.3325,-84.599,-0.9541,0.66974,0.0016524,0.16,0.48,0
0.16516,0.028247,0.85449,-0.96524,-0.52213,-1.3007,-0.010612,0,0,0.43609,1.0121,0,-0.02759,0,0,0.95896,0.0020438,0,0.95892,-0.52187,-0.96549,-1.3007,-88.629,-0.92936,0.67666,0.0037916,0.18,0.48,0
0.17356,0.026553,0.83526,-0.96296,-0.50046,-1.2743,0.0050311,0,0,0.40472,1.006,0,0.013081,0,0,0.9636,-0.018267,0,0.96374,-0.5004,-0.96301,-1.2743,89.377,-0.91256,0.67446,0.0052146,0.2,0.48,0
0.18135,0.025574,0.81594,-0.96404,-0.49047,-1.2523,0.01623,0,0,0.37474,0.99037,0,0.042198,0,0,0.96772,-0.038475,0,0.96845,-0.48992,-0.96459,-1.2523,88.039,-0.90227,0.66683,0.0062372,0.22,0.48,0
0.18854,0.025182,0.79655,-0.96916,-0.49051,-1.2345,0.02805,0,0,0.34487,0.96712,0,0.07293,0,0,0.97214,-0.060946,0,0.974,-0.48887,-0.9708,-1.2345,86.658,-0.89804,0.65485,0.0069443,0.24,0.48,0
0.19515,0.025479,0.77706,-0.97698,-0.50308,-1.2211,0.045838,0,0,0.31733,0.9334,0,0.11918,0,0,0.97734,-0.088478,0,0.98125,-0.49868,-0.98137,-1.2211,84.526,-0.90038,0.6373,0.0072345,0.26,0.48,0
0.20124,0.026796,0.75745,-0.98289,-0.53567,-1.213,0.077708,0,0,0.29917,0.88055,0,0.20204,0,0,0.98327,-0.12529,0,0.99105,-0.52256,-0.99601,-1.213,80.418,-0.91053,0.61155,0.0069556,0.28,0.48,0
0.20711,0.029796,0.73773,-0.96245,-0.58338,-1.2015,0.11435,0,0,0.31073,0.80353,0,0.29731,0,0,0.98389,-0.17758,0,0.99933,-0.55155,-0.99427,-1.2015,74.448,-0.91577,0.57503,0.0056642,0.3,0.48,0
0.21401,0.03453,0.71815,-0.89665,-0.73961,-1.209,0.17947,0,0,0.40608,0.61025,0,0.46663,0,0,0.95911,-0.27002,0,0.99584,-0.62223,-1.014,-1.209,56.815,-0.94843,0.51762,0.0038666,0.32,0.48,0
0.22274,0.039561,0.69916,-0.89602,-0.99571,-1.2667,0.17919,0,0,0.48186,0.35227,0,0.46588,0,0,0.92268,-0.34354,0,0.98462,-0.75988,-1.1319,-1.2667,37.228,-1.0528,0.45464,0.0034339,0.34,0.48,0
0.23328,0.042709,0.68124,-0.84868,-1.0895,-1.2627,0.15104,0,0,0.53823,0.22512,0,0.3927,0,0,0.8744,-0.39631,0,0.96034,-0.77594,-1.1623,-1.2627,25.717,-1.067,0.44514,0.0037644,0.36,0.48,0
0.24427,0.044333,0.66419,-0.832,-1.124,-1.251,0.14395,0,0,0.54468,0.1651,0,0.37427,0,0,0.84984,-0.40175,0,0.93993,-0.77297,-1.183,-1.251,22.299,-1.069,0.44792,0.0042594,0.38,0.48,0
0.25507,0.046559,0.64725,-0.84466,-1.1334,-1.2407,0.17832,0,0,0.51478,0.13949,0,0.46362,0,0,0.8647,-0.38188,0,0.94536,-0.75959,-1.2184,-1.2407,25.505,-1.0729,0.47034,0.0053037,0.4,0.48,0
0.26486,0.051524,0.6296,-0.89594,-1.068,-1.2188,0.23043,0,0,0.41969,0.19601,0,0.59913,0,0,0.90907,-0.31414,0,0.96166,-0.73601,-1.2279,-1.2188,34.763,-1.0609,0.48742,0.0059406,0.42,0.48,0
0.27186,0.059215,0.61088,-0.92665,-0.82043,-1.135,0.23886,0,0,0.27087,0.40895,0,0.62103,0,0,0.9575,-0.21743,0,0.9813,-0.62885,-1.1182,-1.135,51.268,-0.96069,0.49798,0.0063182,0.44,0.48,0
0.2757,0.0664,0.5913,-0.97654,-0.64369,-1.0774,0.16526,0,0,0.13107,0.56378,0,0.42968,0,0,0.99708,-0.11298,0,1.0029,-0.57558,-1.0447,-1.0774,67.601,-0.8992,0.48626,0.0058151,0.46,0.48,0
0.2771,0.07065,0.571,-1.0229,-0.57536,-1.0505,0.083065,0,0,0.035881,0.61764,0,0.21597,0,0,1.0317,-0.045957,0,1.0326,-0.56044,-1.0378,-1.0505,79.817,-0.8829,0.48382,0.0058031,0.48,0.48,0
0.27713,0.071489,0.55003,-1.0434,-0.5171,-1.0182,0.015904,0,0,-0.032777,0.6514,0,0.041351,0,0,1.0669,-0.0082544,0,1.067,-0.51662,-1.0439,-1.0182,88.271,-0.85956,0.51489,0.0069518,0.5,0.48,0
0.27579,0.069633,0.52833,-1.0645,-0.45225,-0.98336,-0.023342,0,0,-0.10553,0.69045,0,-0.060688,0,0,1.1017,0.0044605,0,1.1019,-0.45136,-1.0654,-0.98336,-87.82,-0.83339,0.57743,0.0092184,0.52,0.48,0
0.27291,0.066105,0.50596,-1.0885,-0.39653,-0.95148,-0.036523,0,0,-0.17817,0.72144,0,-0.094959,0,0,1.13,0.0034333,0,1.1301,-0.3946,-1.0905,-0.95148,-86.987,-0.81218,0.63783,0.011224,0.54,0.48,0
0.26866,0.061909,0.48313,-1.1102,-0.36101,-0.92449,-0.031823,0,0,-0.24143,0.73253,0,-0.082741,0,0,1.1496,-0.0020749,0,1.1496,-0.35966,-1.1116,-0.92449,-87.572,-0.79857,0.678,0.011994,0.56,0.48,0
0.26326,0.057661,0.45998,-1.1269,-0.34203,-0.90065,-0.02234,0,0,-0.29409,0.72621,0,-0.058084,0,0,1.1621,-0.006181,0,1.1622,-0.34139,-1.1275,-0.90065,-88.371,-0.78985,0.70079,0.011633,0.58,0.48,0
0.2569,0.053649,0.43664,-1.1377,-0.32855,-0.87652,-0.013284,0,0,-0.33955,0.71236,0,-0.03454,0,0,1.1702,-0.0087578,0,1.1702,-0.32833,-1.1379,-0.87652,-89.06,-0.78093,0.71564,0.010709,0.6,0.48,0
0.24967,0.049964,0.41317,-1.1461,-0.3175,-0.85224,-0.0061129,0,0,-0.38198,0.69517,0,-0.015894,0,0,1.1756,-0.01018,0,1.1757,-0.31745,-1.1461,-0.85224,-89.577,-0.77194,0.72769,0.009469,0.62,0.48,0
0.24162,0.046641,0.38961,-1.1529,-0.30741,-0.82772,-0.00069527,0,0,-0.42279,0.6764,0,-0.0018077,0,0,1.1792,-0.010816,0,1.1793,-0.30741,-1.1529,-0.82772,-89.953,-0.76269,0.73872,0.0080111,0.64,0.48,0
0.23276,0.043686,0.366,-1.1586,-0.29782,-0.80294,0.0033126,0,0,-0.46241,0.65666,0,0.0086129,0,0,1.1815,-0.010941,0,1.1816,-0.29781,-1.1586,-0.80294,89.779,-0.75313,0.74925,0.0063765,0.66,0.48,0
0.22312,0.041092,0.34235,-1.1633,-0.28854,-0.7779,0.0062784,0,0,-0.50097,0.63615,0,0.016324,0,0,1.1828,-0.010743,0,1.1828,-0.2885,-1.1633,-0.7779,89.589,-0.74323,0.75938,0.0045908,0.68,0.48,0
0.21272,0.038844,0.31869,-1.1668,-0.27955,-0.7526,0.0085134,0,0,-0.53849,0.61497,0,0.022135,0,0,1.1832,-0.010364,0,1.1832,-0.27947,-1.1669,-0.7526,89.45,-0.73299,0.76911,0.0026757,0.7,0.48,0
0.20158,0.036925,0.29503,-1.1694,-0.27082,-0.72708,0.010271,0,0,-0.57497,0.59314,0,0.026703,0,0,1.1827,-0.0099106,0,1.1828,-0.27071,-1.1695,-0.72708,89.345,-0.72243,0.7784,0.00065233,0.72,0.48,0
0.18972,0.035314,0.27138,-1.1709,-0.26239,-0.70136,0.011751,0,0,-0.61037,0.57066,0,0.030554,0,0,1.1814,-0.0094813,0,1.1815,-0.26223,-1.171,-0.70136,89.259,-0.71154,0.78718,-0.0014573,0.74,0.48,0
0.17717,0.033989,0.24777,-1.1713,-0.25428,-0.67544,0.013115,0,0,-0.6446,0.54751,0,0.034098,0,0,1.1792,-0.0091769,0,1.1792,-0.25409,-1.1715,-0.67544,89.181,-0.70034,0.79535,-0.0036291,0.76,0.48,0
0.16394,0.032925,0.22421,-1.1705,-0.24662,-0.64935,0.014469,0,0,-0.67749,0.52355,0,0.03762,0,0,1.1758,-0.0091194,0,1.1759,-0.24639,-1.1707,-0.64935,89.103,-0.68882,0.80268,-0.0058351,0.78,0.48,0
0.15007,0.032088,0.20074,-1.1682,-0.23967,-0.6231,0.015839,0,0,-0.70862,0.49845,0,0.041182,0,0,1.171,-0.0094726,0,1.171,-0.2394,-1.1685,-0.6231,89.023,-0.67699,0.80864,-0.008036,0.8,0.48,0
0.13559,0.031435,0.17738,-1.1636,-0.23409,-0.59669,0.017042,0,0,-0.73703,0.47139,0,0.044309,0,0,1.164,-0.010466,0,1.1641,-0.23377,-1.164,-0.59669,88.95,-0.6648,0.81201,-0.010161,0.82,0.48,0
0.12059,0.030897,0.15418,-1.1551,-0.23134,-0.5701,0.017421,0,0,-0.76047,0.44039,0,0.045296,0,0,1.1539,-0.012402,0,1.1539,-0.23101,-1.1554,-0.5701,88.92,-0.65217,0.80996,-0.012061,0.84,0.48,0
0.10518,0.03036,0.13122,-1.1385,-0.23402,-0.54298,0.014886,0,0,-0.77421,0.40166,0,0.038703,0,0,1.138,-0.015522,0,1.1381,-0.23377,-1.1388,-0.54298,89.057,-0.63851,0.79674,-0.013411,0.86,0.48,0
0.089619,0.029598,0.10866,-1.1126,-0.24908,-0.51716,0.0051542,0,0,-0.77407,0.34851,0,0.013401,0,0,1.1121,-0.019334,0,1.1123,-0.24905,-1.1126,-0.51716,89.658,-0.62628,0.76559,-0.013881,0.88,0.48,0
0.074213,0.028286,0.086738,-1.0686,-0.27038,-0.48844,-0.014343,0,0,-0.75422,0.28347,0,-0.037291,0,0,1.0672,-0.016289,0,1.0675,-0.27013,-1.0689,-0.48844,-88.971,-0.60914,0.71503,-0.013044,0.9,0.48,0
0.05945,0.026609,0.065972,-1.0278,-0.30344,-0.46535,-0.031562,0,0,-0.7312,0.21047,0,-0.082061,0,0,0.99634,0.0086818,0,0.99741,-0.30207,-1.0292,-0.46535,-87.51,-0.59887,0.66078,-0.011823,0.92,0.48,0
0.044965,0.025354,0.046885,-0.98422,-0.2814,-0.42657,-0.018645,0,0,-0.72495,0.18873,0,-0.048476,0,0,0.92082,0.014126,0,0.92227,-0.2809,-0.98472,-0.42657,-88.481,-0.56406,0.64347,-0.011355,0.94,0.48,0
0.030439,0.025094,0.029811,-0.94834,-0.20577,-0.37604,-0.0028229,0,0,-0.74398,0.22136,0,-0.0073395,0,0,0.79744,0.025716,0,0.79919,-0.20576,-0.94835,-0.37604,-89.782,-0.51005,0.67378,-0.012392,0.96,0.48,0
0.015383,0.025245,0.014425,-0.92578,-0.16087,-0.34042,-0.0053665,0,0,-0.76097,0.23341,0,-0.013953,0,0,0.74527,0.023733,0,0.74587,-0.16084,-0.92582,-0.34042,-89.598,-0.47569,0.69287,-0.013293,0.98,0.48,0
0,0.025299,0,-0.90016,-0.12826,-0.30852,0.0010387,0,0,-0.76912,0.23434,0,0.0027007,0,0,0.72124,-2.6563e-17,0,0.72111,-0.12826,-0.90016,-0.30852,89.923,-0.44565,0.69941,-0.013715,1,0.48,0
0,0.05588,1,-0.645,-1.6117,-1.677,0.011148,0,0,1.3416,0.084909,0,0.028986,0,0,0.6751,-1.3691e-15,0,0.67505,-0.64487,-1.6118,-1.677,0.66064,-1.3112,1.0011,0.050799,0,0.5,0
0.026832,0.05646,0.9865,-0.63568,-1.5687,-1.6478,0.029653,0,0,1.3158,0.10288,0,0.077099,0,0,0.68276,0.018957,0,0.68301,-0.63474,-1.5696,-1.6478,1.8186,-1.284,0.97631,0.046763,0.02,0.5,0
0.05263,0.057963,0.97269,-0.65842,-1.4985,-1.6198,0.048289,0,0,1.2498,0.15761,0,0.12555,0,0,0.70559,0.039267,0,0.70679,-0.65565,-1.5013,-1.6198,3.2789,-1.2589,0.91069,0.036588,0.04,0.5,0
0.076823,0.059696,0.95827,-0.69686,-1.3923,-1.585,0.044428,0,0,1.1546,0.25049,0,0.11551,0,0,0.74221,0.059485,0,0.7449,-0.69404,-1.3952,-1.585,3.6404,-1.2248,0.81288,0.022595,0.06,0.5,0
0.098815,0.060585,0.943,-0.75238,-1.2484,-1.5432,0.013403,0,0,1.0281,0.38328,0,0.034847,0,0,0.78845,0.072876,0,0.79224,-0.75202,-1.2488,-1.5432,1.5467,-1.1813,0.69264,0.0072635,0.08,0.5,0
0.11795,0.059713,0.92674,-0.78331,-1.0531,-1.4776,-0.026416,0,0,0.90265,0.55195,0,-0.068682,0,0,0.82887,0.081832,0,0.8332,-0.78074,-1.0556,-1.4776,-5.5404,-1.1047,0.60801,-0.0041083,0.1,0.5,0
0.13384,0.057094,0.90953,-0.9072,-0.86282,-1.4405,-0.059102,0,0,0.69334,0.75103,0,-0.15366,0,0,0.88469,0.065524,0,0.88725,-0.82188,-0.94814,-1.4405,-55.288,-1.0702,0.56619,-0.007782,0.12,0.5,0
0.14669,0.053769,0.89159,-0.92012,-0.68405,-1.3728,-0.053414,0,0,0.58854,0.89543,0,-0.13888,0,0,0.90885,0.038074,0,0.90968,-0.67253,-0.93164,-1.3728,-77.826,-0.99234,0.61329,-0.0051212,0.14,0.5,0
0.15738,0.050736,0.87318,-0.94866,-0.58747,-1.334,-0.032635,0,0,0.50097,0.97051,0,-0.084852,0,0,0.92755,0.015958,0,0.92767,-0.58454,-0.95159,-1.334,-84.878,-0.95672,0.64911,-0.00049955,0.16,0.5,0
0.16673,0.048365,0.85449,-0.96007,-0.53877,-1.3041,-0.011731,0,0,0.44729,0.99499,0,-0.0305,0,0,0.93797,-0.0035325,0,0.93795,-0.53844,-0.9604,-1.3041,-88.406,-0.93433,0.66427,0.0026464,0.18,0.5,0
0.17528,0.046615,0.83566,-0.96156,-0.513,-1.278,0.0054057,0,0,0.41141,0.99454,0,0.014055,0,0,0.94352,-0.021985,0,0.94374,-0.51293,-0.96163,-1.278,89.31,-0.91753,0.66589,0.0044596,0.2,0.5,0
0.18319,0.045336,0.81675,-0.96249,-0.50194,-1.2561,0.019904,0,0,0.38167,0.98038,0,0.051751,0,0,0.94622,-0.041169,0,0.94707,-0.50108,-0.96335,-1.2561,87.53,-0.90684,0.65932,0.0055524,0.22,0.5,0
0.19054,0.044454,0.79781,-0.96446,-0.50344,-1.2382,0.034426,0,0,0.35584,0.95516,0,0.089509,0,0,0.94668,-0.063012,0,0.94872,-0.50089,-0.96702,-1.2382,85.753,-0.90203,0.64592,0.0060762,0.24,0.5,0
0.19742,0.043987,0.77888,-0.96465,-0.52146,-1.2247,0.052146,0,0,0.33809,0.91424,0,0.13558,0,0,0.94462,-0.089899,0,0.9488,-0.51541,-0.9707,-1.2247,83.379,-0.90361,0.62247,0.0057989,0.26,0.5,0
0.20407,0.044064,0.76003,-0.95433,-0.56513,-1.2159,0.075961,0,0,0.33999,0.84596,0,0.1975,0,0,0.93813,-0.12504,0,0.94628,-0.55083,-0.96863,-1.2159,79.339,-0.91177,0.58222,0.0043269,0.28,0.5,0
0.21102,0.044786,0.74136,-0.94545,-0.66961,-1.2259,0.10752,0,0,0.36456,0.72315,0,0.27955,0,0,0.92692,-0.16945,0,0.9421,-0.63265,-0.9824,-1.2259,71.03,-0.94698,0.51649,0.0021534,0.3,0.5,0
0.21898,0.045992,0.72308,-0.88251,-0.79865,-1.2274,0.13051,0,0,0.44839,0.55741,0,0.33932,0,0,0.8929,-0.22477,0,0.92061,-0.7035,-0.97766,-1.2274,53.905,-0.96953,0.4539,0.00038671,0.32,0.5,0
0.22845,0.047088,0.70543,-0.86758,-0.96414,-1.255,0.13522,0,0,0.50358,0.37805,0,0.35157,0,0,0.86379,-0.29157,0,0.91161,-0.77228,-1.0594,-1.255,35.175,-1.0289,0.42051,0.0012287,0.34,0.5,0
0.23913,0.047545,0.68853,-0.85006,-1.0815,-1.268,0.1353,0,0,0.54333,0.24241,0,0.35179,0,0,0.8319,-0.34692,0,0.90122,-0.78775,-1.1439,-1.268,24.728,-1.0665,0.43178,0.003011,0.36,0.5,0
0.25019,0.047664,0.67216,-0.84862,-1.1455,-1.2704,0.15379,0,0,0.54832,0.16233,0,0.39986,0,0,0.82771,-0.3979,0,0.91802,-0.78332,-1.2108,-1.2704,23.006,-1.0882,0.4602,0.0047241,0.38,0.5,0
0.26106,0.049038,0.65542,-0.89109,-1.2116,-1.2862,0.2137,0,0,0.51367,0.097036,0,0.55561,0,0,0.89212,-0.45404,0,1.0017,-0.78423,-1.3184,-1.2862,26.567,-1.1296,0.51885,0.0070806,0.4,0.5,0
0.27074,0.054973,0.63647,-0.97413,-1.1843,-1.284,0.32634,0,0,0.40282,0.12965,0,0.84849,0,0,0.99278,-0.46471,0,1.0983,-0.73635,-1.422,-1.284,36.077,-1.1475,0.62814,0.010686,0.42,0.5,0
0.27717,0.068247,0.61571,-0.94626,-0.63228,-1.0893,0.27634,0,0,0.18591,0.59409,0,0.71848,0,0,1.0669,-0.21088,0,1.0845,-0.47145,-1.1071,-1.0893,59.801,-0.88927,0.62692,0.01262,0.44,0.5,0
0.27817,0.078891,0.5938,-1.0532,-0.59013,-1.0868,0.19756,0,0,0.043718,0.64564,0,0.51367,0,0,1.0891,-0.1219,0,1.0954,-0.51729,-1.126,-1.0868,69.762,-0.91002,0.59007,0.010395,0.46,0.5,0
0.27879,0.083742,0.57228,-1.0318,-0.52708,-1.04,0.075983,0,0,0.010536,0.66674,0,0.19756,0,0,1.081,-0.067299,0,1.0829,-0.51589,-1.043,-1.04,81.623,-0.8663,0.52562,0.0074573,0.48,0.5,0
0.2788,0.084976,0.55061,-1.0076,-0.47163,-0.99438,0.043346,0,0,-0.017194,0.67957,0,0.1127,0,0,1.0895,-0.035748,0,1.0901,-0.46815,-1.0111,-0.99438,85.406,-0.82454,0.53478,0.0078292,0.5,0.5,0
0.27776,0.083542,0.52858,-1.0488,-0.43963,-0.97509,-0.0025484,0,0,-0.095764,0.69611,0,-0.0066258,0,0,1.1155,-0.020145,0,1.1157,-0.43961,-1.0488,-0.97509,-89.76,-0.82116,0.57586,0.0092689,0.52,0.5,0
0.27541,0.080395,0.50613,-1.0439,-0.38816,-0.93576,-0.0079109,0,0,-0.14062,0.71187,0,-0.020568,0,0,1.1287,-0.01462,0,1.1288,-0.38807,-1.044,-0.93576,-89.309,-0.78928,0.60908,0.01038,0.54,0.5,0
0.27167,0.076362,0.4833,-1.1023,-0.37254,-0.92577,-0.013327,0,0,-0.22954,0.7192,0,-0.034651,0,0,1.1507,-0.0137,0,1.1508,-0.37229,-1.1026,-0.92577,-88.954,-0.80021,0.65989,0.011264,0.56,0.5,0
0.26665,0.07205,0.46019,-1.1008,-0.34141,-0.89285,-0.0083936,0,0,-0.27029,0.71686,0,-0.021823,0,0,1.159,-0.014016,0,1.1591,-0.34132,-1.1009,-0.89285,-89.367,-0.77834,0.67983,0.01119,0.58,0.5,0
0.26048,0.067816,0.43688,-1.1464,-0.3382,-0.88224,-0.0019063,0,0,-0.34335,0.70725,0,-0.0049565,0,0,1.1706,-0.014118,0,1.1707,-0.3382,-1.1464,-0.88224,-89.865,-0.78893,0.71375,0.010423,0.6,0.5,0
0.25326,0.063832,0.41342,-1.1401,-0.31709,-0.85056,0.00098592,0,0,-0.37634,0.69351,0,0.0025634,0,0,1.1746,-0.013835,0,1.1747,-0.31709,-1.1401,-0.85056,89.931,-0.76923,0.72307,0.0094543,0.62,0.5,0
0.24511,0.060165,0.38986,-1.1724,-0.31524,-0.83613,0.0066129,0,0,-0.43708,0.67717,0,0.017194,0,0,1.18,-0.01323,0,1.1801,-0.31519,-1.1724,-0.83613,89.558,-0.77457,0.74809,0.0078008,0.64,0.5,0
0.23607,0.056837,0.36624,-1.1708,-0.29994,-0.80745,0.010531,0,0,-0.47231,0.65976,0,0.027382,0,0,1.1821,-0.012711,0,1.1821,-0.29981,-1.1709,-0.80745,89.307,-0.75939,0.75782,0.0063024,0.66,0.5,0
0.22621,0.053846,0.34258,-1.1769,-0.29005,-0.78265,0.011932,0,0,-0.51248,0.64038,0,0.031023,0,0,1.1835,-0.011564,0,1.1836,-0.28989,-1.177,-0.78265,89.229,-0.74986,0.76986,0.0044679,0.68,0.5,0
0.21557,0.051181,0.3189,-1.181,-0.28061,-0.75737,0.012785,0,0,-0.55069,0.61979,0,0.033241,0,0,1.184,-0.010342,0,1.184,-0.28043,-1.1812,-0.75737,89.187,-0.73965,0.78051,0.002491,0.7,0.5,0
0.20419,0.048828,0.29522,-1.1833,-0.27158,-0.7317,0.013251,0,0,-0.58715,0.59815,0,0.034451,0,0,1.1836,-0.0090721,0,1.1836,-0.27139,-1.1835,-0.7317,89.168,-0.72888,0.78996,0.00040673,0.72,0.5,0
0.19209,0.046766,0.27155,-1.1841,-0.26295,-0.70567,0.013445,0,0,-0.62197,0.57554,0,0.034958,0,0,1.1823,-0.0077731,0,1.1823,-0.26276,-1.1843,-0.70567,89.164,-0.71758,0.79829,-0.0017523,0.74,0.5,0
0.17931,0.044973,0.24793,-1.1832,-0.25473,-0.67932,0.013447,0,0,-0.65509,0.55196,0,0.034962,0,0,1.1799,-0.0064597,0,1.1799,-0.25454,-1.1834,-0.67932,89.17,-0.70576,0.80542,-0.0039519,0.76,0.5,0
0.16588,0.043422,0.22436,-1.1806,-0.24699,-0.65264,0.013275,0,0,-0.68637,0.52734,0,0.034515,0,0,1.1764,-0.0051435,0,1.1764,-0.2468,-1.1808,-0.65264,89.186,-0.69341,0.81117,-0.0061541,0.78,0.5,0
0.15185,0.042074,0.20087,-1.176,-0.23994,-0.62567,0.012819,0,0,-0.71548,0.50144,0,0.033329,0,0,1.1713,-0.0038284,0,1.1713,-0.23977,-1.1762,-0.62567,89.216,-0.68055,0.81515,-0.0083139,0.8,0.5,0
0.13726,0.040871,0.17751,-1.1693,-0.23407,-0.59851,0.01165,0,0,-0.74201,0.47378,0,0.030289,0,0,1.164,-0.0024872,0,1.164,-0.23392,-1.1694,-0.59851,89.286,-0.66729,0.81672,-0.010377,0.82,0.5,0
0.12217,0.039714,0.15431,-1.1603,-0.23038,-0.5715,0.0085955,0,0,-0.76537,0.44346,0,0.022348,0,0,1.1537,-0.00096374,0,1.1537,-0.2303,-1.1603,-0.5715,89.47,-0.65404,0.81489,-0.012278,0.84,0.5,0
0.10665,0.038431,0.13136,-1.1499,-0.23089,-0.5456,0.0010901,0,0,-0.7856,0.40912,0,0.0028343,0,0,1.1392,0.0013812,0,1.1393,-0.23089,-1.1499,-0.5456,89.932,-0.64213,0.80895,-0.013977,0.86,0.5,0
0.09075,0.036751,0.10874,-1.1393,-0.23614,-0.52136,-0.014901,0,0,-0.80326,0.37078,0,-0.038744,0,0,1.1196,0.0070324,0,1.1196,-0.2359,-1.1395,-0.52136,-89.055,-0.63225,0.80002,-0.015458,0.88,0.5,0
0.07452,0.034389,0.086576,-1.1245,-0.2443,-0.4972,-0.045414,0,0,-0.81543,0.32877,0,-0.11808,0,0,1.0971,0.022495,0,1.0973,-0.24196,-1.1268,-0.4972,-87.054,-0.62199,0.78881,-0.016598,0.9,0.5,0
0.058133,0.030978,0.064859,-1.0433,-0.23254,-0.44762,-0.077546,0,0,-0.77441,0.2796,0,-0.20162,0,0,1.0357,0.063692,0,1.0361,-0.22519,-1.0507,-0.44762,-84.585,-0.57449,0.73978,-0.014632,0.92,0.5,0
0.043543,0.028853,0.045148,-1.0036,-0.32086,-0.44249,-0.13215,0,0,-0.72947,0.15813,0,-0.34359,0,0,0.98559,0.21482,0,1.0134,-0.29617,-1.0283,-0.44249,-79.419,-0.58899,0.67105,-0.013067,0.94,0.5,0
0.028727,0.029505,0.027978,-0.92735,-0.22382,-0.37333,-0.063613,0,0,-0.72023,0.19436,0,-0.16539,0,0,0.72403,0.14629,0,0.73969,-0.21811,-0.93305,-0.37333,-84.875,-0.50817,0.65136,-0.011522,0.96,0.5,0
0.014322,0.029808,0.013497,-0.8823,-0.1705,-0.32934,-0.027038,0,0,-0.71885,0.20649,0,-0.070299,0,0,0.70764,0.059105,0,0.70964,-0.16947,-0.88333,-0.32934,-87.828,-0.46071,0.64886,-0.011212,0.98,0.5,0
0,0.029849,0,-0.83275,-0.10692,-0.2819,0.00078979,0,0,-0.71611,0.22748,0,0.0020535,0,0,0.67487,-1.3878e-17,0,0.6746,-0.10692,-0.83275,-0.2819,89.938,-0.40719,0.65609,-0.011101,1,0.5,0
0,0.057214,1,-0.63258,-1.6518,-1.6853,0.01885,0,0,1.3686,0.043543,0,0.049011,0,0,0.6864,-6.5833e-16,0,0.68639,-0.63223,-1.6522,-1.6853,1.0592,-1.3232,1.0369,0.057063,0,0.52,0
0.027371,0.058194,0.98627,-0.60768,-1.5904,-1.6457,0.039972,0,0,1.3494,0.071872,0,0.10393,0,0,0.69196,0.0054361,0,0.69202,-0.60606,-1.592,-1.6457,2.3253,-1.2813,1.0139,0.053023,0.02,0.52,0
0.053594,0.060949,0.97221,-0.67052,-1.5239,-1.6305,0.085706,0,0,1.248,0.13866,0,0.22284,0,0,0.7235,0.013147,0,0.72377,-0.662,-1.5324,-1.6305,5.679,-1.275,0.92337,0.038899,0.04,0.52,0
0.077923,0.064836,0.95754,-0.69691,-1.3843,-1.5819,0.096283,0,0,1.1505,0.25684,0,0.25033,0,0,0.75343,0.016008,0,0.75388,-0.68368,-1.3976,-1.5819,7.8244,-1.221,0.82172,0.023733,0.06,0.52,0
0.099614,0.068705,0.94207,-0.753,-1.2017,-1.5285,0.078955,0,0,1.0081,0.42479,0,0.20528,0,0,0.79402,0.024364,0,0.7947,-0.73951,-1.2152,-1.5285,9.6937,-1.1611,0.68808,0.0058144,0.08,0.52,0
0.11825,0.071325,0.92578,-0.77426,-0.98039,-1.4522,0.044273,0,0,0.88128,0.61332,0,0.11511,0,0,0.82754,0.021856,0,0.82804,-0.76516,-0.98949,-1.4522,11.623,-1.0689,0.60679,-0.0064129,0.1,0.52,0
0.13386,0.07212,0.90872,-0.89134,-0.83492,-1.4266,-0.0063466,0,0,0.69583,0.76918,0,-0.016501,0,0,0.87292,0.020466,0,0.87326,-0.83422,-0.89205,-1.4266,-83.661,-1.051,0.56569,-0.0089704,0.12,0.52,0
0.14693,0.071388,0.89106,-0.90364,-0.69377,-1.3703,-0.020986,0,0,0.60664,0.87947,0,-0.054563,0,0,0.89355,0.016466,0,0.89375,-0.69169,-0.90572,-1.3703,-84.345,-0.98923,0.60088,-0.0065651,0.14,0.52,0
0.15812,0.069833,0.87298,-0.92629,-0.60627,-1.3328,-0.021152,0,0,0.52839,0.94441,0,-0.054995,0,0,0.91077,0.0038816,0,0.91078,-0.60488,-0.92768,-1.3328,-86.235,-0.9551,0.63169,-0.0025145,0.16,0.52,0
0.16806,0.068046,0.85463,-0.93623,-0.55532,-1.3021,-0.0095631,0,0,0.47562,0.97081,0,-0.024864,0,0,0.92102,-0.010134,0,0.92106,-0.55507,-0.93647,-1.3021,-88.563,-0.93121,0.64698,0.00050859,0.18,0.52,0
0.17715,0.066334,0.83614,-0.93958,-0.52825,-1.2765,0.0061707,0,0,0.43798,0.9727,0,0.016044,0,0,0.92596,-0.024999,0,0.92628,-0.52816,-0.93967,-1.2765,89.141,-0.91477,0.64914,0.0024141,0.2,0.52,0
0.18558,0.064789,0.81759,-0.9407,-0.51634,-1.2547,0.022511,0,0,0.4082,0.95988,0,0.058528,0,0,0.92669,-0.041346,0,0.92759,-0.51514,-0.94189,-1.2547,86.972,-0.90391,0.643,0.0035913,0.22,0.52,0
0.19348,0.063389,0.79907,-0.94102,-0.51787,-1.2367,0.038043,0,0,0.38443,0.93452,0,0.098913,0,0,0.92341,-0.06032,0,0.92534,-0.51448,-0.94441,-1.2367,84.903,-0.89854,0.62927,0.0041309,0.24,0.52,0
0.20096,0.062048,0.78065,-0.93697,-0.53691,-1.2228,0.051999,0,0,0.3716,0.89168,0,0.1352,0,0,0.91531,-0.083462,0,0.91906,-0.53026,-0.94362,-1.2228,82.714,-0.8989,0.60351,0.0037024,0.26,0.52,0
0.20834,0.060634,0.76245,-0.9234,-0.5855,-1.2151,0.063674,0,0,0.37924,0.81852,0,0.16555,0,0,0.90068,-0.11265,0,0.90763,-0.5739,-0.935,-1.2151,79.675,-0.90801,0.55679,0.0019205,0.28,0.52,0
0.21613,0.058986,0.74463,-0.89706,-0.67748,-1.217,0.072998,0,0,0.41591,0.70136,0,0.18979,0,0,0.87746,-0.14946,0,0.89005,-0.65543,-0.91911,-1.217,73.19,-0.93051,0.48662,-0.00062287,0.3,0.52,0
0.22498,0.056983,0.72736,-0.8631,-0.81528,-1.2309,0.082612,0,0,0.4781,0.54027,0,0.21479,0,0,0.84499,-0.19453,0,0.86708,-0.75319,-0.92519,-1.2309,53.072,-0.96975,0.41905,-0.001747,0.32,0.52,0
0.23525,0.054683,0.71083,-0.83279,-0.97136,-1.2521,0.098576,0,0,0.54507,0.36492,0,0.2563,0,0,0.80599,-0.24748,0,0.84309,-0.78158,-1.0226,-1.2521,27.449,-1.0187,0.40749,0.00014673,0.34,0.52,0
0.24678,0.052406,0.69512,-0.81996,-1.1039,-1.2723,0.12995,0,0,0.58799,0.21893,0,0.33786,0,0,0.76808,-0.30939,0,0.82778,-0.76946,-1.1543,-1.2723,21.236,-1.0654,0.45544,0.0037776,0.36,0.52,0
0.25877,0.050826,0.6801,-0.85287,-1.2106,-1.2991,0.18154,0,0,0.58014,0.11515,0,0.472,0,0,0.74272,-0.38744,0,0.83675,-0.77687,-1.2865,-1.2991,22.715,-1.1208,0.51608,0.0070452,0.38,0.52,0
0.26998,0.05044,0.66541,-0.94672,-1.3257,-1.3471,0.3042,0,0,0.52054,0.027869,0,0.79091,0,0,0.7979,-0.50545,0,0.93978,-0.77782,-1.4946,-1.3471,29.04,-1.2065,0.6556,0.012041,0.4,0.52,0
0.27959,0.05671,0.64819,-0.85371,-1.0489,-0.94888,0.35938,0,0,0.062969,-0.39485,0,2.0715,0,0,0.64787,-0.43837,0,0.78983,-0.57845,-1.3241,-0.94888,38.266,-0.95048,0.64832,0.0030113,0.42,0.52,0
0.27668,0.082978,0.61932,-0.7655,-0.51882,-0.74656,0.23882,0,0,-0.042197,-0.064984,0,1.5411,0,0,0.75937,-0.15516,0,0.78126,-0.34152,-0.9428,-0.74656,50.31,-0.67696,0.54616,0.011718,0.44,0.52,0
0.27791,0.092648,0.59612,-0.65974,-0.47643,-0.68858,0.13886,0,0,0.071463,-0.064848,0,0.99064,0,0,0.67496,-0.1053,0,0.68868,-0.36109,-0.77507,-0.68858,50.588,-0.60825,0.39848,0.005295,0.46,0.52,0
0.27994,0.097563,0.57376,-0.62418,-0.4389,-0.65362,0.058764,0,0,0.07253,-0.052855,0,0.62221,0,0,0.64673,-0.073219,0,0.65465,-0.36282,-0.70026,-0.65362,55.354,-0.57223,0.34015,0.0033379,0.48,0.52,0
0.28119,0.098775,0.5516,-0.59565,-0.40432,-0.62176,0.061545,0,0,0.046553,-0.028798,0,0.50908,0,0,0.64666,-0.052987,0,0.65133,-0.33786,-0.66211,-0.62176,52.769,-0.54057,0.32864,0.0035371,0.5,0.52,0
0.28115,0.09749,0.52928,-0.66359,-0.40525,-0.6294,0.024327,0,0,-0.061987,0.0048734,0,0.32599,0,0,0.65879,-0.040053,0,0.66169,-0.35558,-0.71327,-0.6294,55.688,-0.56608,0.34066,0.0045447,0.52,0.52,0
0.27951,0.094527,0.50667,-0.63393,-0.36269,-0.59455,0.026661,0,0,-0.10245,0.042036,0,0.27305,0,0,0.66002,-0.031989,0,0.66192,-0.32389,-0.67273,-0.59455,55.062,-0.53039,0.33499,0.0047578,0.54,0.52,0
0.27623,0.090608,0.48377,-0.71203,-0.36823,-0.60628,0.015059,0,0,-0.22193,0.07602,0,0.20591,0,0,0.67502,-0.026891,0,0.67635,-0.33955,-0.7407,-0.60628,56.881,-0.56218,0.36883,0.0054697,0.56,0.52,0
0.27141,0.086284,0.46061,-0.68394,-0.33225,-0.57354,0.015295,0,0,-0.25813,0.10279,0,0.18504,0,0,0.67596,-0.023379,0,0.67692,-0.31139,-0.7048,-0.57354,58.795,-0.52991,0.36427,0.0054638,0.58,0.52,0
0.26522,0.081918,0.43725,-0.74196,-0.33725,-0.57883,0.015405,0,0,-0.35306,0.12155,0,0.17304,0,0,0.68497,-0.02065,0,0.68569,-0.32226,-0.75696,-0.57883,61.848,-0.55268,0.39522,0.0050505,0.6,0.52,0
0.25787,0.077707,0.41376,-0.71548,-0.30936,-0.54881,0.013436,0,0,-0.38062,0.13334,0,0.16023,0,0,0.68546,-0.018313,0,0.68601,-0.29856,-0.72629,-0.54881,65.641,-0.52455,0.39035,0.0047802,0.62,0.52,0
0.24949,0.073747,0.39016,-0.75523,-0.3123,-0.54786,0.015992,0,0,-0.4539,0.13965,0,0.161,0,0,0.6898,-0.016193,0,0.69022,-0.30428,-0.76326,-0.54786,69.17,-0.53846,0.41503,0.0036686,0.64,0.52,0
0.24018,0.070076,0.36651,-0.74389,-0.29517,-0.52551,0.014369,0,0,-0.48666,0.14176,0,0.15127,0,0,0.6905,-0.014198,0,0.69082,-0.28914,-0.74991,-0.52551,72.534,-0.52152,0.41638,0.0030357,0.66,0.52,0
0.23002,0.066707,0.34282,-0.74618,-0.28527,-0.50941,0.013922,0,0,-0.52765,0.14059,0,0.14423,0,0,0.69135,-0.012268,0,0.69157,-0.28065,-0.7508,-0.50941,75.29,-0.51362,0.42394,0.002079,0.68,0.52,0
0.21907,0.063636,0.3191,-0.74703,-0.2759,-0.49302,0.013256,0,0,-0.56607,0.13677,0,0.13581,0,0,0.69163,-0.010358,0,0.69179,-0.27234,-0.75058,-0.49302,77.589,-0.50531,0.4307,0.0010524,0.7,0.52,0
0.20738,0.060851,0.29539,-0.7467,-0.26698,-0.47641,0.012373,0,0,-0.60234,0.13072,0,0.1257,0,0,0.69142,-0.0084248,0,0.69152,-0.26427,-0.74941,-0.47641,79.55,-0.4967,0.43674,-2.3996e-05,0.72,0.52,0
0.19498,0.058335,0.27169,-0.74529,-0.25848,-0.45962,0.01126,0,0,-0.63664,0.12271,0,0.11352,0,0,0.69069,-0.0064232,0,0.69074,-0.25647,-0.7473,-0.45962,81.291,-0.48779,0.44207,-0.0011313,0.74,0.52,0
0.18191,0.056068,0.24803,-0.74278,-0.25036,-0.44263,0.0098815,0,0,-0.66892,0.11287,0,0.098746,0,0,0.6894,-0.0042971,0,0.68942,-0.24896,-0.74418,-0.44263,82.92,-0.47859,0.44663,-0.0022492,0.76,0.52,0
0.16822,0.054018,0.22442,-0.73903,-0.24261,-0.4254,0.0081606,0,0,-0.69894,0.10124,0,0.08048,0,0,0.68743,-0.0019706,0,0.68743,-0.24174,-0.7399,-0.4254,84.546,-0.46901,0.45024,-0.003354,0.78,0.52,0
0.15395,0.052146,0.20089,-0.73382,-0.23524,-0.4079,0.0059291,0,0,-0.72633,0.087803,0,0.057143,0,0,0.68461,0.00067111,0,0.68461,-0.23482,-0.73423,-0.4079,86.307,-0.45899,0.4527,-0.004418,0.8,0.52,0
0.13917,0.050386,0.17747,-0.72704,-0.22833,-0.39014,0.0028301,0,0,-0.7508,0.072614,0,0.025873,0,0,0.68068,0.0038223,0,0.68072,-0.22825,-0.72711,-0.39014,88.406,-0.4485,0.45383,-0.005414,0.82,0.52,0
0.12392,0.048635,0.15421,-0.71916,-0.22219,-0.37237,-0.0018458,0,0,-0.77286,0.05614,0,-0.018322,0,0,0.67533,0.0078498,0,0.67548,-0.22215,-0.7192,-0.37237,-88.894,-0.43791,0.45393,-0.0063377,0.84,0.52,0
0.10825,0.046725,0.13117,-0.71219,-0.2173,-0.35536,-0.0093413,0,0,-0.79523,0.040157,0,-0.083068,0,0,0.66847,0.01356,0,0.66888,-0.21657,-0.71292,-0.35536,-85.448,-0.42828,0.4547,-0.0072541,0.86,0.52,0
0.092111,0.044429,0.10838,-0.71063,-0.21384,-0.34056,-0.021801,0,0,-0.82472,0.028654,0,-0.17982,0,0,0.66102,0.022684,0,0.66202,-0.21092,-0.71356,-0.34056,-81.571,-0.42168,0.4609,-0.0083795,0.88,0.52,0
0.075263,0.041437,0.085839,-0.72858,-0.21728,-0.33383,-0.040929,0,0,-0.87973,0.028073,0,-0.31662,0,0,0.65556,0.03946,0,0.65806,-0.20997,-0.73589,-0.33383,-78.297,-0.42657,0.48197,-0.01046,0.9,0.52,0
0.056922,0.037793,0.063425,-0.78742,-0.2261,-0.34105,-0.084558,0,0,-0.99476,0.044808,0,-0.55786,0,0,0.69339,0.070148,0,0.69887,-0.20807,-0.80545,-0.34105,-74.917,-0.45153,0.54626,-0.015807,0.92,0.52,0
0.035472,0.031678,0.038292,-0.74571,-0.35608,-0.35288,-0.18276,0,0,-0.95755,-0.053541,0,-0.96161,0,0,0.59804,0.29157,0,0.67297,-0.28327,-0.81853,-0.35288,-66.937,-0.48489,0.50411,-0.013529,0.94,0.52,0
0.023217,0.032868,0.023959,-0.81463,-0.30241,-0.35907,-0.13519,0,0,-0.59223,0.073661,0,-0.3515,0,0,0.64399,0.22417,0,0.67557,-0.26892,-0.84812,-0.35907,-76.086,-0.49204,0.5398,-0.0073247,0.96,0.52,0
0.011578,0.033072,0.011806,-0.76533,-0.25683,-0.31845,-0.062409,0,0,-0.58094,0.080116,0,-0.16226,0,0,0.60188,0.096069,0,0.6077,-0.24928,-0.77288,-0.31845,-83.104,-0.44687,0.49267,-0.0057356,0.98,0.52,0
0,0.033007,0,-0.75284,-0.27225,-0.30752,-0.0012441,0,0,-0.5789,0.045859,0,-0.0032345,0,0,0.5903,0,0,0.58885,-0.27225,-0.75284,-0.30752,-89.852,-0.4442,0.46396,-0.0050295,1,0.52,0
0,0.057622,1,-0.62987,-1.7021,-1.6996,0.027228,0,0,1.3906,-0.0032956,0,0.070793,0,0,0.68012,3.3922e-15,0,0.68006,-0.62918,-1.7028,-1.6996,1.4537,-1.3439,1.072,0.063277,0,0.54,0
0.027813,0.059037,0.9864,-0.61506,-1.6651,-1.6704,0.049433,0,0,1.372,0.0069254,0,0.12853,0,0,0.68703,-0.021388,0,0.6874,-0.61273,-1.6675,-1.6704,2.6893,-1.3169,1.0562,0.060517,0.02,0.54,0
0.054508,0.063296,0.97238,-0.68352,-1.5946,-1.6558,0.12494,0,0,1.264,0.079576,0,0.32486,0,0,0.72516,-0.034894,0,0.72624,-0.6667,-1.6114,-1.6558,7.6688,-1.3113,0.96769,0.046211,0.04,0.54,0
0.07908,0.06997,0.95763,-0.70266,-1.398,-1.5878,0.15798,0,0,1.1507,0.24675,0,0.41075,0,0,0.75884,-0.028439,0,0.75973,-0.66845,-1.4322,-1.5878,12.218,-1.2295,0.85231,0.02826,0.06,0.54,0
0.10054,0.077577,0.94203,-0.75775,-1.1571,-1.5165,0.14872,0,0,0.98635,0.46721,0,0.38666,0,0,0.80085,-0.018929,0,0.80134,-0.70845,-1.2064,-1.5165,18.34,-1.1438,0.70604,0.0070435,0.08,0.54,0
0.11853,0.083919,0.9256,-0.81446,-0.94022,-1.452,0.097062,0,0,0.82881,0.66531,0,0.25236,0,0,0.83787,-0.0078881,0,0.83806,-0.76169,-0.99299,-1.452,28.531,-1.0689,0.60858,-0.006194,0.1,0.54,0
0.13369,0.087682,0.90851,-0.85796,-0.78541,-1.4015,0.03765,0,0,0.70664,0.80094,0,0.09789,0,0,0.86661,-0.0014177,0,0.86669,-0.76941,-0.87396,-1.4015,66.966,-1.015,0.58687,-0.00928,0.12,0.54,0
0.1468,0.088948,0.89094,-0.88307,-0.68276,-1.3607,0.0003511,0,0,0.6209,0.88131,0,0.00091287,0,0,0.8872,-0.0020495,0,0.88723,-0.68276,-0.88307,-1.3607,89.9,-0.9755,0.60325,-0.0072267,0.14,0.54,0
0.15853,0.088512,0.87302,-0.89363,-0.61343,-1.3251,-0.011801,0,0,0.56097,0.92522,0,-0.030682,0,0,0.90095,-0.0075956,0,0.90099,-0.61294,-0.89413,-1.3251,-87.593,-0.94407,0.62132,-0.0043696,0.16,0.54,0
0.16924,0.087197,0.8549,-0.89833,-0.57011,-1.2954,-0.0065248,0,0,0.51623,0.94292,0,-0.016965,0,0,0.90909,-0.016134,0,0.90923,-0.56998,-0.89846,-1.2954,-88.862,-0.92129,0.62919,-0.0020806,0.18,0.54,0
0.17918,0.085523,0.83666,-0.90025,-0.54497,-1.2702,0.007583,0,0,0.48097,0.94283,0,0.019716,0,0,0.91231,-0.026665,0,0.91268,-0.54481,-0.90042,-1.2702,88.778,-0.90515,0.62827,-0.00043193,0.2,0.54,0
0.18848,0.083731,0.81841,-0.90123,-0.5329,-1.2486,0.024496,0,0,0.45164,0.93047,0,0.063691,0,0,0.9109,-0.039024,0,0.91172,-0.53128,-0.90285,-1.2486,86.212,-0.89426,0.62139,0.00076655,0.22,0.54,0
0.19724,0.081835,0.80022,-0.90141,-0.53262,-1.2304,0.039967,0,0,0.42774,0.90715,0,0.10391,0,0,0.90457,-0.053596,0,0.90614,-0.52834,-0.90569,-1.2304,83.885,-0.88815,0.6086,0.0014971,0.24,0.54,0
0.20559,0.079654,0.78222,-0.89869,-0.54794,-1.2162,0.049748,0,0,0.41278,0.86875,0,0.12934,0,0,0.89229,-0.071052,0,0.89511,-0.54102,-0.90561,-1.2162,82.082,-0.88762,0.58535,0.0014211,0.26,0.54,0
0.21375,0.076804,0.76453,-0.88563,-0.58726,-1.2064,0.049604,0,0,0.417,0.80489,0,0.12897,0,0,0.87213,-0.092128,0,0.87701,-0.57923,-0.89367,-1.2064,80.804,-0.8931,0.54315,3.8712e-05,0.28,0.54,0
0.22227,0.07284,0.74734,-0.85747,-0.67153,-1.206,0.039248,0,0,0.45314,0.69486,0,0.10204,0,0,0.8418,-0.11765,0,0.85008,-0.66359,-0.86542,-1.206,78.556,-0.91168,0.47488,-0.0023426,0.3,0.54,0
0.23188,0.067603,0.73086,-0.81656,-0.81644,-1.2208,0.033654,0,0,0.52547,0.52561,0,0.0875,0,0,0.80014,-0.15094,0,0.81444,-0.78285,-0.85015,-1.2208,45.047,-0.95125,0.40844,-0.0031816,0.32,0.54,0
0.24329,0.061685,0.71533,-0.77419,-1.0002,-1.2477,0.054308,0,0,0.61551,0.32166,0,0.1412,0,0,0.74892,-0.19639,0,0.77445,-0.76181,-1.0126,-1.2477,12.832,-1.0074,0.42083,0.00021452,0.34,0.54,0
0.2565,0.056302,0.7009,-0.73435,-1.1559,-1.268,0.11016,0,0,0.69372,0.14569,0,0.28642,0,0,0.69195,-0.25991,0,0.73908,-0.7073,-1.183,-1.268,13.796,-1.0528,0.52338,0.0067131,0.36,0.54,0
0.27103,0.05227,0.68765,-0.69114,-1.2637,-1.2741,0.19406,0,0,0.75784,0.013554,0,0.50457,0,0,0.63165,-0.34753,0,0.72017,-0.63156,-1.3233,-1.2741,17.067,-1.0763,0.66847,0.015062,0.38,0.54,0
0.28681,0.050153,0.67564,-0.52357,-1.3331,-1.2326,0.25406,0,0,0.92178,-0.13057,0,0.66056,0,0,0.50046,-0.47837,0,0.69059,-0.45044,-1.4062,-1.2326,16.058,-1.0298,0.88188,0.030676,0.4,0.54,0
0.3079,0.043996,0.66764,-0.45993,-1.0734,-0.84946,0.23332,0,0,0.40162,-0.49911,0,1.5365,0,0,0.33646,-0.42848,0,0.5687,-0.35491,-1.1784,-0.84946,28.025,-0.79427,0.72512,0.022331,0.42,0.54,0
0.30288,0.065648,0.6349,-0.37566,-0.44828,-0.353,0.12262,0,0,-0.17675,-0.74321,0,1.9129,0,0,0.25071,-0.11073,0,0.27459,-0.28408,-0.53986,-0.353,36.752,-0.39231,0.22922,-0.00043529,0.44,0.54,0
0.30084,0.076297,0.60747,-0.34357,-0.42712,-0.33245,0.089857,0,0,-0.086707,-0.73843,0,1.4018,0,0,0.21865,-0.087074,0,0.2353,-0.28625,-0.48444,-0.33245,32.532,-0.36771,0.1796,-0.00023248,0.46,0.54,0
0.29941,0.081628,0.58242,-0.32846,-0.41241,-0.31933,0.068845,0,0,-0.071196,-0.72601,0,1.074,0,0,0.20464,-0.068846,0,0.21583,-0.2898,-0.45106,-0.31933,29.315,-0.3534,0.14871,-0.00014672,0.48,0.54,0
0.29799,0.083824,0.55835,-0.31893,-0.39635,-0.30764,0.053508,0,0,-0.088063,-0.69191,0,0.83472,0,0,0.19902,-0.054997,0,0.20642,-0.2916,-0.42368,-0.30764,27.059,-0.34097,0.12484,-9.4378e-05,0.5,0.54,0
0.29589,0.083737,0.53466,-0.31423,-0.38003,-0.29739,0.041849,0,0,-0.13137,-0.64459,0,0.65284,0,0,0.19701,-0.044599,0,0.20196,-0.2939,-0.40036,-0.29739,25.914,-0.33055,0.10476,-5.8831e-05,0.52,0.54,0
0.29273,0.082077,0.51107,-0.31199,-0.36359,-0.28785,0.033427,0,0,-0.18828,-0.59076,0,0.52146,0,0,0.19674,-0.036835,0,0.20014,-0.29557,-0.38002,-0.28785,26.169,-0.32115,0.08856,-3.4761e-05,0.54,0.54,0
0.28835,0.079403,0.48744,-0.31092,-0.34773,-0.27883,0.027646,0,0,-0.25024,-0.53739,0,0.43128,0,0,0.19718,-0.030998,0,0.19959,-0.29611,-0.36254,-0.27883,28.172,-0.31249,0.076541,-1.9135e-05,0.56,0.54,0
0.28272,0.076161,0.46374,-0.31015,-0.33297,-0.27023,0.023853,0,0,-0.31141,-0.48938,0,0.37211,0,0,0.19783,-0.0265,0,0.19959,-0.29512,-0.348,-0.27023,32.22,-0.30445,0.068793,-9.6414e-06,0.58,0.54,0
0.2759,0.072678,0.43996,-0.30923,-0.31949,-0.26194,0.021376,0,0,-0.36883,-0.44888,0,0.33346,0,0,0.19845,-0.022898,0,0.19976,-0.29238,-0.33634,-0.26194,38.25,-0.29689,0.064787,-4.3123e-06,0.6,0.54,0
0.26797,0.069165,0.41612,-0.30797,-0.30723,-0.25391,0.019671,0,0,-0.42162,-0.41591,0,0.30687,0,0,0.19895,-0.01988,0,0.19994,-0.28793,-0.32728,-0.25391,45.532,-0.2897,0.06359,-1.6585e-06,0.62,0.54,0
0.25903,0.065751,0.39222,-0.30636,-0.29602,-0.24608,0.018362,0,0,-0.47015,-0.3895,0,0.28644,0,0,0.19932,-0.01724,0,0.20006,-0.28211,-0.32026,-0.24608,52.863,-0.28282,0.064252,-6.7428e-07,0.64,0.54,0
0.24916,0.062507,0.36828,-0.30447,-0.28566,-0.23842,0.017213,0,0,-0.51519,-0.36846,0,0.26852,0,0,0.19957,-0.01484,0,0.20012,-0.27545,-0.31468,-0.23842,59.327,-0.27618,0.066052,-7.3942e-07,0.66,0.54,0
0.23842,0.059469,0.34432,-0.30238,-0.276,-0.2309,0.016084,0,0,-0.55752,-0.35179,0,0.25091,0,0,0.19972,-0.012579,0,0.20011,-0.26839,-0.30999,-0.2309,64.674,-0.26976,0.068524,-1.4844e-06,0.68,0.54,0
0.22686,0.056652,0.32035,-0.30015,-0.26694,-0.22352,0.014884,0,0,-0.59773,-0.3387,0,0.2322,0,0,0.19978,-0.010379,0,0.20004,-0.26125,-0.30585,-0.22352,69.063,-0.26354,0.07138,-2.6883e-06,0.7,0.54,0
0.21452,0.054057,0.29637,-0.29784,-0.25839,-0.21627,0.013546,0,0,-0.63628,-0.3286,0,0.21131,0,0,0.19976,-0.0081699,0,0.19993,-0.25419,-0.30205,-0.21627,72.759,-0.2575,0.074452,-4.2146e-06,0.72,0.54,0
0.20141,0.051674,0.27241,-0.29548,-0.2503,-0.20913,0.012004,0,0,-0.6735,-0.32107,0,0.18726,0,0,0.19968,-0.0058806,0,0.19976,-0.2473,-0.29847,-0.20913,76.008,-0.25164,0.077641,-5.9785e-06,0.74,0.54,0
0.18757,0.049488,0.24845,-0.2931,-0.2426,-0.20212,0.010183,0,0,-0.70966,-0.31575,0,0.15886,0,0,0.19952,-0.0034292,0,0.19955,-0.24062,-0.29508,-0.20212,79.018,-0.24594,0.080898,-7.9372e-06,0.76,0.54,0
0.17303,0.047471,0.22452,-0.29075,-0.23527,-0.19523,0.0079799,0,0,-0.7451,-0.31235,0,0.12449,0,0,0.19931,-0.00071093,0,0.1993,-0.23415,-0.29188,-0.19523,81.976,-0.24042,0.084228,-1.011e-05,0.78,0.54,0
0.15777,0.045586,0.20062,-0.28852,-0.22828,-0.18848,0.0052412,0,0,-0.78037,-0.31045,0,0.081762,0,0,0.19904,0.0024212,0,0.19905,-0.22783,-0.28898,-0.18848,85.065,-0.23509,0.087716,-1.2657e-05,0.8,0.54,0
0.14181,0.043775,0.17675,-0.28663,-0.22157,-0.18192,0.0017416,0,0,-0.81674,-0.30928,0,0.027169,0,0,0.19878,0.0061885,0,0.19887,-0.22152,-0.28667,-0.18192,88.468,-0.23004,0.091617,-1.6091e-05,0.82,0.54,0
0.1251,0.041959,0.15291,-0.28551,-0.21502,-0.17564,-0.0028248,0,0,-0.85692,-0.30716,0,-0.044066,0,0,0.19867,0.010941,0,0.19896,-0.21491,-0.28562,-0.17564,-87.709,-0.22539,0.09653,-2.1773e-05,0.84,0.54,0
0.10753,0.040038,0.12907,-0.28605,-0.20839,-0.16984,-0.00882,0,0,-0.90643,-0.30065,0,-0.13759,0,0,0.19912,0.017246,0,0.19984,-0.2074,-0.28704,-0.16984,-83.602,-0.22143,0.10365,-3.2923e-05,0.86,0.54,0
0.088845,0.037897,0.10512,-0.29009,-0.20136,-0.16495,-0.016468,0,0,-0.97605,-0.28395,0,-0.25689,0,0,0.20114,0.026013,0,0.20277,-0.1984,-0.29305,-0.16495,-79.818,-0.2188,0.11507,-5.6548e-05,0.88,0.54,0
0.068491,0.035512,0.080794,-0.30023,-0.19338,-0.16155,-0.025974,0,0,-1.0817,-0.24831,0,-0.4052,0,0,0.20802,0.038632,0,0.21149,-0.1874,-0.30621,-0.16155,-77.035,-0.21839,0.13362,-0.00010723,0.9,0.54,0
0.045577,0.032771,0.055198,-0.32347,-0.1872,-0.1624,-0.037353,0,0,-1.2563,-0.19341,0,-0.5827,0,0,0.22856,0.05722,0,0.23572,-0.17763,-0.33304,-0.1624,-75.634,-0.22435,0.16356,-0.00021815,0.92,0.54,0
0.018238,0.029309,0.02594,-0.34225,-0.22468,-0.18521,-0.092258,0,0,-0.77372,-0.087958,0,-0.54601,0,0,0.28931,0.25168,0,0.40272,-0.16521,-0.40171,-0.18521,-63.66,-0.25071,0.22756,-0.0006244,0.94,0.54,0
0.014628,0.033396,0.019244,-0.42462,-0.26465,-0.22602,-0.090953,0,0,-0.25817,-0.050213,0,-0.23648,0,0,0.40426,0.21922,0,0.45541,-0.22351,-0.46575,-0.22602,-65.664,-0.3051,0.24099,-0.00071859,0.96,0.54,0
0.0079108,0.033843,0.0097695,-0.52795,-0.2616,-0.24663,-0.057126,0,0,-0.36571,-0.019456,0,-0.14853,0,0,0.48109,0.096212,0,0.48862,-0.24987,-0.53968,-0.24663,-78.391,-0.34539,0.29145,-0.0012709,0.98,0.54,0
0,0.033925,0,-0.53863,-0.2426,-0.23437,0.0015621,0,0,-0.39554,-0.0107,0,0.0040616,0,0,0.48848,2.4286e-17,0,0.48691,-0.24259,-0.53864,-0.23437,89.698,-0.33853,0.30024,-0.0013866,1,0.54,0
0,0.057082,1,-0.6476,-1.755,-1.7208,0.033491,0,0,1.3951,-0.044482,0,0.087077,0,0,0.65118,2.7721e-15,0,0.65091,-0.64659,-1.756,-1.7208,1.7307,-1.3745,1.0922,0.066687,0,0.56,0
0.027903,0.058824,0.98698,-0.63776,-1.7234,-1.6953,0.06759,0,0,1.3748,-0.036495,0,0.17573,0,0,0.66645,-0.043329,0,0.66778,-0.63357,-1.7276,-1.6953,3.5488,-1.3522,1.0782,0.06419,0.02,0.56,0
0.054993,0.06451,0.97334,-0.66704,-1.6562,-1.6703,0.15304,0,0,1.3042,0.018349,0,0.39791,0,0,0.70757,-0.079511,0,0.71261,-0.6439,-1.6793,-1.6703,8.5971,-1.3312,1.031,0.056264,0.04,0.56,0
0.080073,0.074706,0.95867,-0.72603,-1.4561,-1.6133,0.2287,0,0,1.1535,0.20438,0,0.59462,0,0,0.7628,-0.083729,0,0.76801,-0.6603,-1.5218,-1.6133,16.034,-1.2651,0.91072,0.037478,0.06,0.56,0
0.10113,0.087394,0.94283,-0.76067,-1.0786,-1.4946,0.22485,0,0,0.95411,0.54085,0,0.58462,0,0,0.81458,-0.065151,0,0.81748,-0.64425,-1.195,-1.4946,27.372,-1.1113,0.74705,0.010389,0.08,0.56,0
0.11824,0.097938,0.92609,-0.81454,-0.84,-1.4224,0.13279,0,0,0.79029,0.75719,0,0.34525,0,0,0.85138,-0.035003,0,0.8521,-0.69387,-0.96067,-1.4224,42.262,-1.0257,0.63846,-0.005933,0.1,0.56,0
0.13274,0.10416,0.90877,-0.84751,-0.73654,-1.384,0.052597,0,0,0.69742,0.84169,0,0.13675,0,0,0.87374,-0.020916,0,0.87401,-0.71557,-0.86848,-1.384,68.266,-0.98935,0.6066,-0.0090545,0.12,0.56,0
0.14613,0.10664,0.89114,-0.84593,-0.66375,-1.344,0.0078623,0,0,0.64755,0.88438,0,0.020442,0,0,0.88737,-0.015899,0,0.88753,-0.66341,-0.84627,-1.344,87.534,-0.95124,0.61012,-0.008229,0.14,0.56,0
0.15865,0.10684,0.87328,-0.84507,-0.61473,-1.3112,-0.006684,0,0,0.606,0.90544,0,-0.017378,0,0,0.89669,-0.016454,0,0.89685,-0.61454,-0.84526,-1.3112,-88.339,-0.92367,0.6147,-0.0065134,0.16,0.56,0
0.17037,0.10576,0.85527,-0.84607,-0.582,-1.2837,-0.0033353,0,0,0.56891,0.9122,0,-0.0086719,0,0,0.90195,-0.020441,0,0.90218,-0.58196,-0.84611,-1.2837,-89.276,-0.90392,0.61388,-0.0049011,0.18,0.56,0
0.1814,0.10405,0.8372,-0.84738,-0.56119,-1.2598,0.0094751,0,0,0.53611,0.90816,0,0.024635,0,0,0.90307,-0.026665,0,0.90346,-0.56087,-0.8477,-1.2598,88.106,-0.88945,0.6085,-0.0035225,0.2,0.56,0
0.19182,0.10201,0.81915,-0.84784,-0.5495,-1.2384,0.025644,0,0,0.50767,0.89551,0,0.066675,0,0,0.89976,-0.034578,0,0.90042,-0.54731,-0.85003,-1.2384,85.123,-0.87856,0.59999,-0.0023582,0.22,0.56,0
0.20171,0.099675,0.80121,-0.84733,-0.54652,-1.2194,0.040266,0,0,0.48365,0.8747,0,0.10469,0,0,0.89138,-0.044021,0,0.89247,-0.54122,-0.85262,-1.2194,82.506,-0.87107,0.58794,-0.0014694,0.24,0.56,0
0.21116,0.096798,0.7835,-0.84593,-0.55469,-1.2037,0.047952,0,0,0.46507,0.84369,0,0.12467,0,0,0.87678,-0.054967,0,0.87853,-0.547,-0.85363,-1.2037,80.887,-0.8681,0.56912,-0.0010815,0.26,0.56,0
0.22031,0.09283,0.76614,-0.84213,-0.58094,-1.1931,0.040173,0,0,0.45621,0.79576,0,0.10445,0,0,0.85408,-0.067271,0,0.8568,-0.5749,-0.84817,-1.1931,81.451,-0.87205,0.53654,-0.0015789,0.28,0.56,0
0.22941,0.08678,0.74933,-0.81103,-0.63302,-1.1825,0.010889,0,0,0.48297,0.71439,0,0.028312,0,0,0.81865,-0.080515,0,0.8228,-0.63236,-0.8117,-1.1825,86.513,-0.87553,0.48601,-0.0033046,0.3,0.56,0
0.23963,0.078008,0.73339,-0.75852,-0.78617,-1.1968,-0.028522,0,0,0.56976,0.53382,0,-0.074157,0,0,0.76626,-0.093748,0,0.77259,-0.74065,-0.80404,-1.1968,-32.072,-0.91383,0.42799,-0.0037305,0.32,0.56,0
0.2522,0.067549,0.71868,-0.70989,-1.057,-1.2487,-0.011489,0,0,0.70051,0.2493,0,-0.029872,0,0,0.69702,-0.12774,0,0.70946,-0.70951,-1.0574,-1.2487,-1.8939,-1.0052,0.47349,0.002604,0.34,0.56,0
0.26765,0.058233,0.70551,-0.63576,-1.2408,-1.2685,0.064111,0,0,0.82254,0.035993,0,0.16669,0,0,0.61694,-0.18734,0,0.64545,-0.62904,-1.2475,-1.2685,5.9827,-1.0483,0.62922,0.012747,0.36,0.56,0
0.2851,0.051368,0.694,-0.54682,-1.3362,-1.2589,0.1437,0,0,0.92573,-0.10049,0,0.37361,0,0,0.52426,-0.27598,0,0.59282,-0.52147,-1.3616,-1.2589,10.002,-1.0473,0.79376,0.024244,0.38,0.56,0
0.30468,0.045217,0.68454,-0.49085,-1.4569,-1.2689,0.17406,0,0,1.0114,-0.24441,0,0.45256,0,0,0.41088,-0.37632,0,0.56015,-0.46045,-1.4873,-1.2689,9.9089,-1.0722,0.93691,0.034625,0.4,0.56,0
0.32556,0.036745,0.67757,-0.41493,-0.93934,-0.80153,0.12933,0,0,0.40536,-0.30712,0,1.0224,0,0,0.30633,-0.24534,0,0.41078,-0.35342,-1.0009,-0.80153,25.962,-0.7186,0.58325,0.018554,0.42,0.56,0
0.32089,0.05325,0.64589,-0.36441,-0.41065,-0.34017,0.094699,0,0,-0.18909,-0.54979,0,1.4773,0,0,0.25231,-0.077824,0,0.26437,-0.29005,-0.48501,-0.34017,38.139,-0.37174,0.17536,-0.00020258,0.44,0.56,0
0.318,0.063111,0.61701,-0.3463,-0.40624,-0.3286,0.074362,0,0,-0.1381,-0.6056,0,1.1601,0,0,0.23171,-0.071126,0,0.24249,-0.2961,-0.45645,-0.3286,34.025,-0.36038,0.14682,-0.00013608,0.46,0.56,0
0.31537,0.068523,0.59028,-0.33557,-0.39607,-0.31787,0.059527,0,0,-0.13806,-0.60992,0,0.92863,0,0,0.21755,-0.060871,0,0.22592,-0.29905,-0.43259,-0.31787,31.532,-0.34984,0.1252,-9.3153e-05,0.48,0.56,0
0.31248,0.071099,0.5648,-0.32829,-0.38429,-0.30791,0.04811,0,0,-0.159,-0.59576,0,0.75052,0,0,0.20958,-0.051276,0,0.21574,-0.30062,-0.41195,-0.30791,29.901,-0.34016,0.10787,-6.3477e-05,0.5,0.56,0
0.30901,0.071707,0.53999,-0.32316,-0.37104,-0.29826,0.039068,0,0,-0.19426,-0.5677,0,0.60946,0,0,0.20536,-0.04314,0,0.20982,-0.30129,-0.39292,-0.29826,29.251,-0.33082,0.093186,-4.1413e-05,0.52,0.56,0
0.3047,0.070896,0.51552,-0.31987,-0.35723,-0.28905,0.032038,0,0,-0.24039,-0.53182,0,0.49979,0,0,0.20325,-0.036501,0,0.20649,-0.30146,-0.37564,-0.28905,29.877,-0.32205,0.081096,-2.5242e-05,0.54,0.56,0
0.2994,0.069112,0.49121,-0.31767,-0.34343,-0.2802,0.026796,0,0,-0.29227,-0.49323,0,0.41802,0,0,0.20229,-0.031145,0,0.20466,-0.30082,-0.36028,-0.2802,32.163,-0.31377,0.072023,-1.4018e-05,0.56,0.56,0
0.29301,0.066709,0.46697,-0.31601,-0.33011,-0.27166,0.023009,0,0,-0.34588,-0.45591,0,0.35895,0,0,0.20192,-0.026796,0,0.20369,-0.299,-0.34713,-0.27166,36.479,-0.30593,0.066175,-6.7869e-06,0.58,0.56,0
0.28556,0.063962,0.44275,-0.3145,-0.31754,-0.2634,0.020301,0,0,-0.39855,-0.42226,0,0.31669,0,0,0.20183,-0.023194,0,0.20315,-0.29566,-0.33637,-0.2634,42.859,-0.29848,0.063338,-2.598e-06,0.6,0.56,0
0.27707,0.06107,0.41853,-0.31293,-0.30578,-0.25537,0.018312,0,0,-0.44897,-0.39321,0,0.28567,0,0,0.20185,-0.020122,0,0.20284,-0.29069,-0.32801,-0.25537,50.522,-0.29136,0.06292,-6.0595e-07,0.62,0.56,0
0.2676,0.058167,0.3943,-0.31122,-0.2948,-0.24752,0.016758,0,0,-0.49681,-0.36878,0,0.26143,0,0,0.2019,-0.017418,0,0.20264,-0.28435,-0.32167,-0.24752,58.047,-0.28451,0.064213,-1.5675e-07,0.64,0.56,0
0.2572,0.055338,0.37007,-0.30937,-0.28452,-0.23985,0.015429,0,0,-0.54226,-0.34849,0,0.24069,0,0,0.20195,-0.014957,0,0.2025,-0.27714,-0.31675,-0.23985,64.418,-0.27791,0.066613,-7.9382e-07,0.66,0.56,0
0.24591,0.052636,0.34584,-0.30741,-0.27485,-0.23232,0.014181,0,0,-0.58571,-0.33178,0,0.22123,0,0,0.20199,-0.012644,0,0.20238,-0.26954,-0.31272,-0.23232,69.469,-0.27153,0.069694,-2.2221e-06,0.68,0.56,0
0.23377,0.050088,0.32159,-0.30539,-0.26571,-0.22493,0.012913,0,0,-0.62761,-0.31807,0,0.20145,0,0,0.20202,-0.010401,0,0.20228,-0.26187,-0.30922,-0.22493,73.472,-0.26534,0.073186,-4.2638e-06,0.7,0.56,0
0.22081,0.047706,0.29735,-0.30336,-0.25701,-0.21767,0.011548,0,0,-0.66839,-0.30685,0,0.18016,0,0,0.20205,-0.0081554,0,0.20221,-0.25429,-0.30608,-0.21767,76.756,-0.25935,0.076938,-6.826e-06,0.72,0.56,0
0.20703,0.045493,0.2731,-0.30137,-0.2487,-0.21054,0.010019,0,0,-0.70847,-0.29767,0,0.1563,0,0,0.20208,-0.0058375,0,0.20216,-0.24686,-0.30321,-0.21054,79.585,-0.25354,0.080878,-9.8867e-06,0.74,0.56,0
0.19247,0.043438,0.24885,-0.29948,-0.24072,-0.20354,0.0082577,0,0,-0.74836,-0.29007,0,0.12882,0,0,0.20214,-0.0033682,0,0.20217,-0.23959,-0.30062,-0.20354,82.15,-0.24791,0.084998,-1.3504e-05,0.76,0.56,0
0.1771,0.041524,0.22459,-0.29779,-0.23302,-0.19667,0.0061854,0,0,-0.7887,-0.2835,0,0.096492,0,0,0.20226,-0.00065265,0,0.20226,-0.23244,-0.29838,-0.19667,84.594,-0.24249,0.089359,-1.7859e-05,0.78,0.56,0
0.16092,0.039728,0.20031,-0.29646,-0.22551,-0.18998,0.0037096,0,0,-0.83054,-0.2772,0,0.057869,0,0,0.2025,0.0024321,0,0.20251,-0.22532,-0.29665,-0.18998,87.015,-0.23731,0.094117,-2.3358e-05,0.8,0.56,0
0.14388,0.038015,0.17599,-0.29574,-0.2181,-0.18348,0.00073001,0,0,-0.8756,-0.26999,0,0.011388,0,0,0.203,0.0060511,0,0.20308,-0.21809,-0.29574,-0.18348,89.461,-0.23244,0.099577,-3.0836e-05,0.82,0.56,0
0.1259,0.036349,0.15159,-0.29608,-0.21059,-0.17727,-0.0028294,0,0,-0.92674,-0.25993,0,-0.044139,0,0,0.20401,0.010426,0,0.20427,-0.21049,-0.29617,-0.17727,-88.106,-0.22798,0.10626,-4.1919e-05,0.84,0.56,0
0.10681,0.034699,0.12703,-0.29815,-0.20273,-0.17143,-0.0069291,0,0,-0.98836,-0.24411,0,-0.10809,0,0,0.20606,0.015832,0,0.20666,-0.20223,-0.29865,-0.17143,-85.868,-0.2241,0.11495,-5.9546e-05,0.86,0.56,0
0.086361,0.033071,0.10213,-0.3027,-0.19412,-0.16607,-0.011312,0,0,-1.0657,-0.21881,0,-0.17648,0,0,0.21025,0.022517,0,0.21144,-0.19295,-0.30386,-0.16607,-84.115,-0.22096,0.12651,-8.8372e-05,0.88,0.56,0
0.064182,0.031505,0.076567,-0.31048,-0.18465,-0.1613,-0.015327,0,0,-1.1636,-0.18211,0,-0.23911,0,0,0.21851,0.030352,0,0.22064,-0.18281,-0.31232,-0.1613,-83.154,-0.21881,0.1415,-0.00013423,0.9,0.56,0
0.039817,0.030056,0.049692,-0.32051,-0.1735,-0.15649,-0.018736,0,0,-1.2794,-0.13272,0,-0.29228,0,0,0.23139,0.036779,0,0.23445,-0.17115,-0.32286,-0.15649,-82.85,-0.21683,0.15955,-0.00020266,0.92,0.56,0
0.013006,0.02816,0.021034,-0.32968,-0.19945,-0.17101,-0.020055,0,0,-0.76484,-0.063377,0,-0.17145,0,0,0.2655,0.11402,0,0.29742,-0.1961,-0.33303,-0.17101,-80.786,-0.23338,0.1523,-0.00016731,0.94,0.56,0
0.0092237,0.03086,0.01519,-0.37798,-0.32508,-0.22611,-0.031687,0,0,-0.19744,-0.12866,0,-0.082387,0,0,0.32692,0.16077,0,0.3656,-0.31025,-0.39281,-0.22611,-64.927,-0.30972,0.14437,2.5505e-06,0.96,0.56,0
0.0051088,0.032294,0.0079574,-0.39378,-0.30105,-0.21641,-0.023633,0,0,-0.23059,-0.11003,0,-0.061446,0,0,0.37976,0.078155,0,0.38648,-0.29537,-0.39946,-0.21641,-76.497,-0.30374,0.15903,-4.8549e-05,0.98,0.56,0
0,0.032579,0,-0.40259,-0.28442,-0.2061,0.0054914,0,0,-0.25544,-0.10181,0,0.014278,0,0,0.39787,1.7347e-17,0,0.39658,-0.28416,-0.40285,-0.2061,87.345,-0.2977,0.17159,-9.0443e-05,1,0.56,0
0,0.055842,1,-0.70236,-1.8202,-1.7568,0.033371,0,0,1.3707,-0.082423,0,0.086766,0,0,0.59346,1.6237e-15,0,0.59275,-0.70136,-1.8212,-1.7568,1.7085,-1.4264,1.089,0.065552,0,0.58,0
0.027414,0.057578,0.98813,-0.68045,-1.7902,-1.7293,0.072857,0,0,1.3636,-0.079157,0,0.18943,0,0,0.61098,-0.070424,0,0.61434,-0.67569,-1.795,-1.7293,3.7401,-1.4,1.088,0.065328,0.02,0.58,0
0.054542,0.06403,0.97556,-0.71483,-1.7857,-1.7257,0.18314,0,0,1.3142,-0.078004,0,0.47617,0,0,0.67869,-0.15079,0,0.69554,-0.68437,-1.8162,-1.7257,9.4411,-1.4088,1.0894,0.064862,0.04,0.58,0
0.079981,0.078146,0.96098,-0.78293,-1.5818,-1.6704,0.32078,0,0,1.1537,0.1152,0,0.83402,0,0,0.7732,-0.21347,0,0.80602,-0.67006,-1.6946,-1.6704,19.384,-1.345,1.0127,0.053234,0.06,0.58,0
0.10069,0.09921,0.94463,-0.73664,-0.85203,-1.4212,0.25829,0,0,0.88997,0.73996,0,0.67156,0,0,0.84957,-0.085249,0,0.85249,-0.52968,-1.059,-1.4212,38.704,-1.0033,0.77662,0.0076435,0.08,0.58,0
0.11558,0.11421,0.927,-0.83783,-0.77313,-1.4103,0.12849,0,0,0.7442,0.82831,0,0.33407,0,0,0.8821,-0.048502,0,0.88336,-0.67298,-0.93797,-1.4103,52.066,-1.0071,0.64689,-0.0064547,0.1,0.58,0
0.13046,0.12135,0.90935,-0.78954,-0.69266,-1.354,0.044461,0,0,0.73381,0.85975,0,0.1156,0,0,0.88571,-0.03197,0,0.88628,-0.67535,-0.80685,-1.354,68.726,-0.94541,0.6234,-0.010601,0.12,0.58,0
0.14493,0.12432,0.89157,-0.77424,-0.64548,-1.3175,0.011426,0,0,0.70623,0.87361,0,0.029709,0,0,0.89166,-0.0246,0,0.892,-0.64447,-0.77524,-1.3175,84.968,-0.9124,0.61809,-0.010322,0.14,0.58,0
0.15871,0.12473,0.87368,-0.7759,-0.61308,-1.2904,0.00090217,0,0,0.66882,0.88048,0,0.0023456,0,0,0.89641,-0.022187,0,0.89669,-0.61308,-0.7759,-1.2904,89.683,-0.89312,0.61234,-0.0090416,0.16,0.58,0
0.17169,0.12369,0.85572,-0.78279,-0.59002,-1.2676,0.0035216,0,0,0.6302,0.8808,0,0.009156,0,0,0.89888,-0.022727,0,0.89917,-0.58996,-0.78285,-1.2676,88.954,-0.88012,0.60469,-0.007582,0.18,0.58,0
0.18391,0.12185,0.83773,-0.78787,-0.57356,-1.2462,0.0129,0,0,0.59577,0.87438,0,0.033539,0,0,0.89817,-0.025103,0,0.89852,-0.57278,-0.78864,-1.2462,86.568,-0.86919,0.59554,-0.0062406,0.2,0.58,0
0.19552,0.11955,0.81979,-0.78792,-0.56243,-1.2249,0.024788,0,0,0.56806,0.8612,0,0.064449,0,0,0.89354,-0.028647,0,0.894,-0.55974,-0.79062,-1.2249,83.8,-0.85842,0.58495,-0.0051457,0.22,0.58,0
0.20664,0.11682,0.80199,-0.78252,-0.55657,-1.2037,0.035606,0,0,0.54755,0.84128,0,0.092575,0,0,0.88418,-0.032903,0,0.88481,-0.5511,-0.788,-1.2037,81.254,-0.8476,0.57221,-0.0043636,0.24,0.58,0
0.21742,0.1134,0.78442,-0.77417,-0.55771,-1.184,0.040944,0,0,0.53275,0.81416,0,0.10645,0,0,0.86904,-0.037401,0,0.86989,-0.55022,-0.78166,-1.184,79.639,-0.83862,0.55547,-0.0039339,0.26,0.58,0
0.22795,0.10863,0.76722,-0.76896,-0.57028,-1.169,0.034283,0,0,0.52004,0.77833,0,0.089136,0,0,0.84659,-0.041367,0,0.84769,-0.56453,-0.77471,-1.169,80.48,-0.83608,0.53151,-0.0038467,0.28,0.58,0
0.23822,0.10142,0.75056,-0.77837,-0.60878,-1.1667,-0.0051459,0,0,0.50483,0.7253,0,-0.013379,0,0,0.81532,-0.043082,0,0.81666,-0.60862,-0.77853,-1.1667,-88.264,-0.85128,0.49548,-0.0038612,0.3,0.58,0
0.24814,0.088956,0.73461,-0.67829,-0.64965,-1.133,-0.0782,0,0,0.59111,0.62834,0,-0.20332,0,0,0.75291,-0.037929,0,0.75383,-0.58447,-0.74347,-1.133,-50.188,-0.82032,0.48882,-0.0039289,0.32,0.58,0
0.26187,0.071657,0.72044,-0.66703,-1.1553,-1.2671,-0.1093,0,0,0.78012,0.14544,0,-0.28417,0,0,0.65532,0.0042574,0,0.66054,-0.64368,-1.1786,-1.2671,-12.06,-1.0298,0.58424,0.0094543,0.34,0.58,0
0.27935,0.057742,0.7084,-0.57657,-1.3641,-1.2906,0.00080349,0,0,0.92823,-0.095518,0,0.0020891,0,0,0.54371,-0.099913,0,0.553,-0.57657,-1.3641,-1.2906,0.058459,-1.0771,0.75345,0.021265,0.36,0.58,0
0.29899,0.04825,0.69869,-0.49627,-1.4053,-1.2692,0.084377,0,0,1.0048,-0.17696,0,0.21938,0,0,0.44267,-0.19556,0,0.48439,-0.4885,-1.413,-1.2692,5.2585,-1.0569,0.86166,0.029792,0.38,0.58,0
0.31954,0.040377,0.69069,-0.45829,-1.4449,-1.2617,0.10635,0,0,1.0444,-0.23826,0,0.27652,0,0,0.35586,-0.2629,0,0.44414,-0.44695,-1.4563,-1.2617,6.0829,-1.055,0.92745,0.034969,0.4,0.58,0
0.34077,0.031711,0.68446,-0.39083,-0.88693,-0.7826,0.09322,0,0,0.40165,-0.23251,0,0.78354,0,0,0.28447,-0.17215,0,0.34629,-0.34308,-0.93469,-0.7826,25.713,-0.68679,0.54203,0.018163,0.42,0.58,0
0.3356,0.043656,0.65358,-0.3632,-0.3903,-0.33498,0.076452,0,0,-0.22014,-0.4315,0,1.1926,0,0,0.24968,-0.055931,0,0.25599,-0.29911,-0.4544,-0.33498,39.975,-0.36283,0.14082,-0.00011266,0.44,0.58,0
0.33196,0.052073,0.62453,-0.34868,-0.39145,-0.32613,0.063297,0,0,-0.17593,-0.50949,0,0.98743,0,0,0.2356,-0.056023,0,0.24226,-0.30325,-0.43688,-0.32613,35.667,-0.35542,0.12378,-8.6298e-05,0.46,0.58,0
0.32856,0.057231,0.59703,-0.33969,-0.38465,-0.31681,0.051902,0,0,-0.17849,-0.52916,0,0.80968,0,0,0.22449,-0.051708,0,0.2304,-0.30561,-0.41873,-0.31681,33.291,-0.34705,0.10796,-6.2287e-05,0.48,0.58,0
0.32482,0.059994,0.57066,-0.33362,-0.37488,-0.30766,0.042875,0,0,-0.20248,-0.52434,0,0.66884,0,0,0.21675,-0.045919,0,0.22157,-0.30667,-0.40183,-0.30766,32.151,-0.33872,0.09467,-4.3562e-05,0.5,0.58,0
0.32047,0.061029,0.54501,-0.32914,-0.36365,-0.29867,0.035594,0,0,-0.23764,-0.50684,0,0.55526,0,0,0.21179,-0.040125,0,0.21555,-0.30684,-0.38595,-0.29867,32.067,-0.33049,0.083496,-2.8934e-05,0.52,0.58,0
0.31532,0.060804,0.51983,-0.32576,-0.3516,-0.28985,0.029741,0,0,-0.2801,-0.48171,0,0.46397,0,0,0.20873,-0.03487,0,0.21162,-0.30625,-0.37111,-0.28985,33.257,-0.3224,0.074427,-1.7756e-05,0.54,0.58,0
0.30926,0.059673,0.49492,-0.32318,-0.33929,-0.28123,0.025136,0,0,-0.32721,-0.45292,0,0.39212,0,0,0.20689,-0.030295,0,0.20909,-0.30484,-0.35763,-0.28123,36.112,-0.31457,0.067757,-9.683e-06,0.56,0.58,0
0.30223,0.057925,0.47018,-0.32109,-0.32712,-0.27283,0.021596,0,0,-0.37645,-0.42352,0,0.33689,0,0,0.20578,-0.026365,0,0.20746,-0.3023,-0.34591,-0.27283,41.023,-0.30701,0.063687,-4.3447e-06,0.58,0.58,0
0.2942,0.055788,0.44553,-0.31924,-0.31535,-0.26463,0.0189,0,0,-0.42595,-0.39559,0,0.29485,0,0,0.20512,-0.022976,0,0.2064,-0.29829,-0.3363,-0.26463,47.939,-0.29974,0.0621,-1.2867e-06,0.6,0.58,0
0.28519,0.053437,0.42095,-0.31747,-0.3041,-0.25663,0.016823,0,0,-0.47456,-0.37029,0,0.26244,0,0,0.20472,-0.020012,0,0.2057,-0.29268,-0.32889,-0.25663,55.834,-0.29273,0.062578,-4.5366e-08,0.62,0.58,0
0.27522,0.051,0.3964,-0.31569,-0.29342,-0.2488,0.015159,0,0,-0.52174,-0.34804,0,0.23649,0,0,0.20448,-0.017362,0,0.20522,-0.28574,-0.32336,-0.2488,63.149,-0.28597,0.064576,-2.1604e-07,0.64,0.58,0
0.26432,0.048568,0.37187,-0.31387,-0.28328,-0.24113,0.013742,0,0,-0.56744,-0.32882,0,0.21438,0,0,0.20434,-0.014932,0,0.20488,-0.27802,-0.31914,-0.24113,69.031,-0.27943,0.067596,-1.4886e-06,0.66,0.58,0
0.25252,0.046198,0.34735,-0.31203,-0.27364,-0.2336,0.012444,0,0,-0.61182,-0.31238,0,0.19413,0,0,0.20427,-0.012643,0,0.20466,-0.26996,-0.31572,-0.2336,73.522,-0.27309,0.071272,-3.6513e-06,0.68,0.58,0
0.23985,0.043929,0.32284,-0.3102,-0.26445,-0.2262,0.01117,0,0,-0.65519,-0.29833,0,0.17425,0,0,0.20427,-0.010424,0,0.20453,-0.26187,-0.31278,-0.2262,76.987,-0.26695,0.075367,-6.5811e-06,0.7,0.58,0
0.22632,0.041782,0.29833,-0.30842,-0.25565,-0.21894,0.0098451,0,0,-0.69793,-0.28629,0,0.15358,0,0,0.20433,-0.0082112,0,0.20449,-0.25387,-0.3102,-0.21894,79.77,-0.261,0.079751,-1.0234e-05,0.72,0.58,0
0.21193,0.039767,0.27381,-0.30675,-0.24717,-0.21181,0.0084106,0,0,-0.7405,-0.27583,0,0.1312,0,0,0.20446,-0.0059404,0,0.20455,-0.24601,-0.30791,-0.21181,82.116,-0.25524,0.084371,-1.4648e-05,0.74,0.58,0
0.1967,0.037885,0.24926,-0.30525,-0.23897,-0.20481,0.0068154,0,0,-0.78345,-0.26645,0,0.10632,0,0,0.20471,-0.0035446,0,0.20474,-0.23828,-0.30595,-0.20481,84.19,-0.24968,0.08924,-1.9957e-05,0.76,0.58,0
0.1806,0.036131,0.22468,-0.30405,-0.23098,-0.19795,0.0050152,0,0,-0.82752,-0.25759,0,0.078237,0,0,0.20511,-0.00094975,0,0.20511,-0.23064,-0.30439,-0.19795,86.092,-0.24432,0.094436,-2.6439e-05,0.78,0.58,0
0.1636,0.034498,0.20003,-0.30327,-0.22311,-0.19125,0.002978,0,0,-0.87375,-0.24847,0,0.046458,0,0,0.20575,0.0019282,0,0.20575,-0.223,-0.30338,-0.19125,87.875,-0.23921,0.10011,-3.4598e-05,0.8,0.58,0
0.14564,0.032975,0.1753,-0.30314,-0.21525,-0.18473,0.0007012,0,0,-0.92358,-0.23803,0,0.010939,0,0,0.20678,0.0051808,0,0.20684,-0.21524,-0.30315,-0.18473,89.543,-0.23438,0.10649,-4.5283e-05,0.82,0.58,0
0.12665,0.031562,0.15041,-0.30393,-0.20727,-0.17843,-0.0017522,0,0,-0.97893,-0.22494,0,-0.027335,0,0,0.20846,0.0088908,0,0.20864,-0.20723,-0.30396,-0.17843,-88.962,-0.22987,0.1139,-5.9835e-05,0.84,0.58,0
0.10649,0.030273,0.12527,-0.30591,-0.19898,-0.17234,-0.0042075,0,0,-1.0418,-0.20773,0,-0.065638,0,0,0.21121,0.013077,0,0.21161,-0.19881,-0.30607,-0.17234,-87.75,-0.22574,0.12266,-8.0105e-05,0.86,0.58,0
0.08498,0.029145,0.099717,-0.30926,-0.19028,-0.16648,-0.006338,0,0,-1.1136,-0.18565,0,-0.098872,0,0,0.21566,0.017542,0,0.21638,-0.18995,-0.30959,-0.16648,-86.959,-0.22201,0.13294,-0.00010811,0.88,0.58,0
0.061942,0.028227,0.07351,-0.31377,-0.18115,-0.16073,-0.0078412,0,0,-1.1937,-0.15928,0,-0.12232,0,0,0.22228,0.021444,0,0.22334,-0.18069,-0.31423,-0.16073,-86.628,-0.21855,0.14456,-0.00014524,0.9,0.58,0
0.037231,0.027462,0.046371,-0.31995,-0.17202,-0.15532,-0.0083245,0,0,-1.2841,-0.13026,0,-0.12986,0,0,0.23078,0.022669,0,0.23195,-0.17155,-0.32042,-0.15532,-86.789,-0.21577,0.15761,-0.00019392,0.92,0.58,0
0.010576,0.026774,0.018121,-0.31795,-0.2054,-0.16758,-0.0054529,0,0,-0.75079,-0.084294,0,-0.06295,0,0,0.25042,0.068019,0,0.26363,-0.20514,-0.31821,-0.16758,-87.168,-0.23031,0.13944,-0.00011675,0.94,0.58,0
0.0071992,0.02825,0.012813,-0.33918,-0.31006,-0.20758,-0.00061269,0,0,-0.17107,-0.13322,0,-0.001593,0,0,0.28695,0.095778,0,0.30307,-0.31005,-0.33919,-0.20758,-88.795,-0.28561,0.11972,7.0847e-05,0.96,0.58,0
0.0037333,0.029442,0.0066433,-0.34532,-0.32212,-0.20688,-0.002015,0,0,-0.17998,-0.14982,0,-0.005239,0,0,0.32032,0.053262,0,0.32434,-0.32195,-0.3455,-0.20688,-85.073,-0.29144,0.12848,9.6697e-05,0.98,0.58,0
0,0.029852,0,-0.33756,-0.30901,-0.19397,0.0078876,0,0,-0.18666,-0.14955,0,0.020508,0,0,0.33217,1.2143e-17,0,0.33142,-0.30697,-0.33959,-0.19397,75.539,-0.28018,0.13236,9.5159e-05,1,0.58,0
0,0.053785,1,-0.74196,-1.8968,-1.7916,0.036003,0,0,1.3646,-0.13676,0,0.093608,0,0,0.51033,6.6266e-16,0,0.50907,-0.74083,-1.898,-1.7916,1.7839,-1.4768,1.1078,0.06766,0,0.6,0
0.027292,0.055657,0.98979,-0.75703,-1.8948,-1.7853,0.087115,0,0,1.3368,-0.1423,0,0.2265,0,0,0.51566,-0.088241,0,0.52157,-0.7504,-1.9014,-1.7853,4.3531,-1.4791,1.0976,0.065359,0.02,0.6,0
0.053472,0.06139,0.97937,-0.83023,-1.9394,-1.8103,0.26086,0,0,1.274,-0.16789,0,0.67823,0,0,0.56452,-0.20153,0,0.59489,-0.77195,-1.9977,-1.8103,12.595,-1.5266,1.1436,0.069913,0.04,0.6,0
0.078254,0.079314,0.96721,-0.74057,-1.3448,-1.1898,0.35227,0,0,0.86903,-0.56971,0,1.9925,0,0,0.46484,-0.23899,0,0.52642,-0.57697,-1.5084,-1.1898,26.421,-1.0917,0.82494,0.037766,0.06,0.6,0
0.091934,0.11699,0.94624,-0.57629,-0.6717,-0.92637,0.22353,0,0,0.78017,-0.2363,0,1.3468,0,0,0.5714,-0.073002,0,0.57827,-0.36759,-0.88041,-0.92637,34.47,-0.72479,0.58867,0.0092707,0.08,0.6,0
0.10946,0.13107,0.92803,-0.48047,-0.6372,-0.87665,0.075612,0,0,0.88292,-0.24028,0,0.5973,0,0,0.52772,-0.048694,0,0.53177,-0.43625,-0.68142,-0.87665,25.967,-0.66478,0.47552,-0.0064022,0.1,0.6,0
0.12725,0.13855,0.91005,-0.46562,-0.60627,-0.85243,0.038535,0,0,0.86204,-0.22965,0,0.34497,0,0,0.52362,-0.035296,0,0.526,-0.44383,-0.62806,-0.85243,25.965,-0.64144,0.45915,-0.0073631,0.12,0.6,0
0.14394,0.14158,0.89212,-0.48325,-0.59421,-0.84364,0.019434,0,0,0.80316,-0.212,0,0.20734,0,0,0.52334,-0.028358,0,0.52494,-0.45698,-0.62047,-0.84364,39.396,-0.64037,0.44022,-0.00678,0.14,0.6,0
0.15938,0.14206,0.87417,-0.50246,-0.58238,-0.83538,0.012575,0,0,0.74195,-0.19301,0,0.14924,0,0,0.52416,-0.024819,0,0.52539,-0.45363,-0.63121,-0.83538,44.854,-0.64007,0.42517,-0.0058699,0.16,0.6,0
0.17362,0.141,0.85618,-0.51767,-0.57143,-0.82617,0.012098,0,0,0.68752,-0.17675,0,0.1368,0,0,0.52443,-0.02334,0,0.52549,-0.44846,-0.64065,-0.82617,45.224,-0.63843,0.41267,-0.0049356,0.18,0.6,0
0.18688,0.13902,0.83821,-0.52539,-0.5609,-0.81484,0.015183,0,0,0.64506,-0.16587,0,0.1502,0,0,0.52334,-0.023079,0,0.52432,-0.44209,-0.6442,-0.81484,44.755,-0.63371,0.40245,-0.0041551,0.2,0.6,0
0.19942,0.13646,0.8203,-0.52405,-0.55077,-0.80095,0.01954,0,0,0.61709,-0.16169,0,0.17258,0,0,0.52031,-0.023422,0,0.52126,-0.43438,-0.64045,-0.80095,44.06,-0.62526,0.39383,-0.003623,0.22,0.6,0
0.21156,0.13333,0.80253,-0.51298,-0.54096,-0.78432,0.023093,0,0,0.6047,-0.16462,0,0.18798,0,0,0.51487,-0.023819,0,0.51579,-0.42532,-0.62862,-0.78432,43.136,-0.61276,0.38622,-0.0033737,0.24,0.6,0
0.22361,0.12937,0.78499,-0.49316,-0.53196,-0.76545,0.024716,0,0,0.605,-0.17421,0,0.19676,0,0,0.50723,-0.023623,0,0.50806,-0.41615,-0.60897,-0.76545,42.173,-0.59686,0.37904,-0.0033849,0.26,0.6,0
0.23586,0.12396,0.7678,-0.46271,-0.52185,-0.74325,0.014272,0,0,0.62914,-0.18909,0,0.08156,0,0,0.49395,-0.021866,0,0.49458,-0.40562,-0.57893,-0.74325,40.466,-0.57593,0.37245,-0.0035911,0.28,0.6,0
0.24856,0.11579,0.75106,-0.44374,-0.52453,-0.7286,-0.0027163,0,0,0.63483,-0.20532,0,-0.03299,0,0,0.47955,-0.016483,0,0.47982,-0.41139,-0.55688,-0.7286,-44.865,-0.56562,0.36109,-0.0035912,0.3,0.6,0
0.26126,0.10314,0.73491,-0.46063,-0.52435,-0.72419,-0.10074,0,0,0.58737,-0.21441,0,-0.55935,0,0,0.4746,-0.0040847,0,0.47428,-0.35133,-0.63365,-0.72419,-32.307,-0.56972,0.39153,-0.00025253,0.32,0.6,0
0.27205,0.073367,0.71851,-0.51715,-0.97139,-0.86569,-0.19041,0,0,0.678,-0.41391,0,-1.0766,0,0,0.35502,0.085285,0,0.36482,-0.44693,-1.0416,-0.86569,-21.731,-0.78474,0.53371,0.012733,0.34,0.6,0
0.29114,0.054412,0.70951,-0.57208,-1.4822,-1.3258,-0.089752,0,0,0.97984,-0.20336,0,-0.23336,0,0,0.41712,-0.037901,0,0.41494,-0.56331,-1.491,-1.3258,-5.5785,-1.1267,0.85711,0.028333,0.36,0.6,0
0.31124,0.04429,0.70183,-0.50009,-1.4645,-1.2912,0.031609,0,0,1.0285,-0.22528,0,0.082183,0,0,0.36128,-0.13353,0,0.38452,-0.49906,-1.4655,-1.2912,1.8752,-1.0853,0.89218,0.03183,0.38,0.6,0
0.33228,0.035687,0.69506,-0.44834,-1.4458,-1.2633,0.061343,0,0,1.0595,-0.23726,0,0.15949,0,0,0.31132,-0.19057,0,0.36563,-0.44458,-1.4496,-1.2633,3.506,-1.0525,0.92601,0.035285,0.4,0.6,0
0.35362,0.027445,0.68937,-0.38754,-0.87446,-0.78074,0.067037,0,0,0.39898,-0.20888,0,0.59856,0,0,0.26736,-0.12572,0,0.30523,-0.35052,-0.91149,-0.78074,25.343,-0.68091,0.5185,0.017785,0.42,0.6,0
0.34824,0.03599,0.65932,-0.36337,-0.37792,-0.33228,0.06202,0,0,-0.24257,-0.35606,0,0.96752,0,0,0.24547,-0.042593,0,0.24919,-0.3082,-0.4331,-0.33228,41.655,-0.35786,0.11477,-6.6266e-05,0.44,0.6,0
0.34392,0.042732,0.63046,-0.35163,-0.38044,-0.3247,0.053949,0,0,-0.21005,-0.4348,0,0.84161,0,0,0.23593,-0.04468,0,0.24017,-0.31019,-0.42187,-0.3247,37.524,-0.35225,0.10518,-5.5952e-05,0.46,0.6,0
0.33984,0.047357,0.60269,-0.3434,-0.37573,-0.31619,0.04556,0,0,-0.21224,-0.46442,0,0.71073,0,0,0.22766,-0.043447,0,0.23179,-0.31122,-0.4079,-0.31619,35.232,-0.3451,0.094299,-4.2665e-05,0.48,0.6,0
0.33543,0.050125,0.57582,-0.33776,-0.36752,-0.30756,0.038248,0,0,-0.23564,-0.4677,0,0.59667,0,0,0.22116,-0.040323,0,0.22482,-0.3116,-0.39368,-0.30756,34.374,-0.33761,0.084174,-3.0393e-05,0.5,0.6,0
0.33041,0.051433,0.54962,-0.33361,-0.35758,-0.29896,0.032168,0,0,-0.27029,-0.45721,0,0.50181,0,0,0.21641,-0.036459,0,0.21946,-0.31127,-0.37992,-0.29896,34.785,-0.33005,0.075563,-2.0192e-05,0.52,0.6,0
0.32462,0.051628,0.52388,-0.33035,-0.34674,-0.29044,0.027165,0,0,-0.3113,-0.43914,0,0.42378,0,0,0.21308,-0.03251,0,0.21554,-0.31017,-0.36692,-0.29044,36.607,-0.32251,0.068771,-1.2185e-05,0.54,0.6,0
0.31796,0.050995,0.49848,-0.32769,-0.33551,-0.28204,0.023107,0,0,-0.3561,-0.41704,0,0.36047,0,0,0.2108,-0.028783,0,0.21275,-0.30817,-0.35503,-0.28204,40.202,-0.31508,0.064061,-6.3292e-06,0.56,0.6,0
0.31038,0.049768,0.47329,-0.32544,-0.32422,-0.27378,0.019863,0,0,-0.40292,-0.39344,0,0.30986,0,0,0.20924,-0.02539,0,0.21077,-0.30496,-0.3447,-0.27378,45.876,-0.30781,0.061569,-2.486e-06,0.58,0.6,0
0.30184,0.048139,0.44826,-0.32342,-0.31312,-0.26567,0.017292,0,0,-0.45046,-0.37008,0,0.26975,0,0,0.20818,-0.02234,0,0.20938,-0.30023,-0.33631,-0.26567,53.296,-0.30074,0.061182,-4.4142e-07,0.6,0.6,0
0.29236,0.046259,0.42333,-0.32154,-0.30234,-0.25772,0.015242,0,0,-0.49781,-0.34805,0,0.23777,0,0,0.20746,-0.019592,0,0.20838,-0.29393,-0.32996,-0.25772,61.102,-0.29387,0.062558,5.5198e-08,0.62,0.6,0
0.28193,0.044245,0.39847,-0.31973,-0.29196,-0.24992,0.013567,0,0,-0.54451,-0.32795,0,0.21164,0,0,0.20698,-0.01709,0,0.20768,-0.28643,-0.32526,-0.24992,67.829,-0.2872,0.065254,-7.561e-07,0.64,0.6,0
0.27058,0.042185,0.37366,-0.31795,-0.282,-0.24226,0.012139,0,0,-0.59038,-0.30995,0,0.18937,0,0,0.20667,-0.01477,0,0.20719,-0.27828,-0.32166,-0.24226,72.985,-0.28074,0.068865,-2.6791e-06,0.66,0.6,0
0.25831,0.04014,0.34887,-0.31621,-0.27243,-0.23474,0.010853,0,0,-0.6355,-0.294,0,0.16931,0,0,0.2065,-0.012573,0,0.20688,-0.26989,-0.31875,-0.23474,76.814,-0.27446,0.073083,-5.5778e-06,0.68,0.6,0
0.24516,0.038154,0.3241,-0.31453,-0.26323,-0.22735,0.0096257,0,0,-0.68006,-0.27992,0,0.15016,0,0,0.20645,-0.010442,0,0.20671,-0.26149,-0.31628,-0.22735,79.715,-0.26837,0.077708,-9.3821e-06,0.7,0.6,0
0.23111,0.036255,0.29932,-0.31295,-0.25437,-0.22008,0.0083933,0,0,-0.72439,-0.2674,0,0.13094,0,0,0.20653,-0.0083238,0,0.2067,-0.25319,-0.31413,-0.22008,82.006,-0.26247,0.08263,-1.4091e-05,0.72,0.6,0
0.21618,0.03446,0.27453,-0.31152,-0.24578,-0.21295,0.0071084,0,0,-0.76889,-0.25612,0,0.11089,0,0,0.20675,-0.0061658,0,0.20684,-0.24502,-0.31228,-0.21295,83.899,-0.25675,0.087808,-1.9781e-05,0.74,0.6,0
0.20036,0.032779,0.2497,-0.31031,-0.23743,-0.20594,0.005738,0,0,-0.81407,-0.24565,0,0.089512,0,0,0.20713,-0.0039166,0,0.20717,-0.23698,-0.31076,-0.20594,85.525,-0.25123,0.093254,-2.6623e-05,0.76,0.6,0
0.18362,0.031221,0.22482,-0.30939,-0.22926,-0.19906,0.0042654,0,0,-0.86055,-0.23551,0,0.06654,0,0,0.20773,-0.0015263,0,0.20774,-0.22903,-0.30962,-0.19906,86.962,-0.24591,0.099031,-3.4915e-05,0.78,0.6,0
0.16593,0.029789,0.19985,-0.30889,-0.22119,-0.19233,0.0026976,0,0,-0.90913,-0.22511,0,0.042083,0,0,0.20863,0.0010501,0,0.20863,-0.22111,-0.30897,-0.19233,88.24,-0.2408,0.10524,-4.512e-05,0.8,0.6,0
0.14725,0.028494,0.17475,-0.30892,-0.21315,-0.18575,0.0010787,0,0,-0.96074,-0.21379,0,0.016827,0,0,0.20996,0.0038404,0,0.20999,-0.21314,-0.30893,-0.18575,89.355,-0.23594,0.11203,-5.7908e-05,0.82,0.6,0
0.1275,0.027351,0.14946,-0.3096,-0.20507,-0.17931,-0.00049431,0,0,-1.0163,-0.20092,0,-0.0077113,0,0,0.21191,0.0068278,0,0.21202,-0.20507,-0.3096,-0.17931,-89.729,-0.23133,0.11951,-7.4135e-05,0.84,0.6,0
0.1066,0.02639,0.12389,-0.311,-0.19688,-0.17301,-0.0018623,0,0,-1.0763,-0.18618,0,-0.029052,0,0,0.21471,0.0098914,0,0.21494,-0.19685,-0.31103,-0.17301,-89.065,-0.22697,0.12778,-9.4703e-05,0.86,0.6,0
0.084452,0.025645,0.097924,-0.31308,-0.18861,-0.16683,-0.0028466,0,0,-1.1407,-0.1699,0,-0.044407,0,0,0.21862,0.012691,0,0.21899,-0.18854,-0.31314,-0.16683,-88.691,-0.22284,0.13676,-0.00012027,0.88,0.6,0
0.060972,0.025134,0.07142,-0.31581,-0.18037,-0.16076,-0.0032847,0,0,-1.2094,-0.15301,0,-0.051242,0,0,0.22364,0.014527,0,0.22412,-0.18029,-0.31589,-0.16076,-88.612,-0.21898,0.14634,-0.00015134,0.9,0.6,0
0.036077,0.024846,0.044251,-0.3189,-0.17174,-0.15457,-0.0030111,0,0,-1.2818,-0.13393,0,-0.046973,0,0,0.22938,0.014474,0,0.22985,-0.17167,-0.31896,-0.15457,-88.828,-0.21507,0.15654,-0.00018912,0.92,0.6,0
0.0097,0.024789,0.01637,-0.31688,-0.22008,-0.17064,0.00079479,0,0,-0.73963,-0.11019,0,-0.010747,0,0,0.24144,0.041173,0,0.24671,-0.2199,-0.31705,-0.17064,-2.2465,-0.23586,0.13601,-8.7761e-05,0.94,0.6,0
0.0064916,0.025531,0.011359,-0.32378,-0.30718,-0.20065,0.0064322,0,0,-0.16008,-0.13849,0,0.016724,0,0,0.26357,0.058492,0,0.27023,-0.30498,-0.32598,-0.20065,71.116,-0.2772,0.11626,7.1918e-05,0.96,0.6,0
0.0032969,0.026301,0.005827,-0.32393,-0.32029,-0.19909,0.0053048,0,0,-0.16229,-0.15756,0,0.013793,0,0,0.28398,0.0329,0,0.28572,-0.3165,-0.32772,-0.19909,54.471,-0.28111,0.1234,9.3828e-05,0.98,0.6,0
0,0.026597,0,-0.31615,-0.315,-0.18934,0.0057005,0,0,-0.16485,-0.16335,0,0.014821,0,0,0.29135,1.0408e-17,0,0.29102,-0.30984,-0.3213,-0.18934,47.88,-0.2735,0.12662,0.00010139,1,0.6,0
0,0.050372,1,-0.68804,-1.9733,-1.7984,0.02911,0,0,1.4435,-0.22737,0,0.075686,0,0,0.41698,-9.2981e-16,0,0.41548,-0.68738,-1.974,-1.7984,1.2968,-1.4866,1.2084,0.084215,0,0.62,0
0.028869,0.051886,0.99166,-0.6693,-1.975,-1.785,0.10594,0,0,1.4504,-0.24708,0,0.27543,0,0,0.40946,-0.087126,0,0.41678,-0.66076,-1.9835,-1.785,4.6084,-1.4764,1.2355,0.088489,0.02,0.62,0
0.058014,0.057315,0.98362,-0.51866,-1.9945,-1.7376,0.19538,0,0,1.5846,-0.33399,0,0.50798,0,0,0.34087,-0.19607,0,0.38955,-0.49323,-2.0199,-1.7376,7.415,-1.4169,1.4069,0.12384,0.04,0.62,0
0.092252,0.061638,0.97803,-0.46872,-1.4995,-1.161,0.1986,0,0,1.1198,-0.75441,0,1.3101,0,0,0.23953,-0.22169,0,0.34247,-0.41667,-1.5515,-1.161,18.058,-1.0431,1.0026,0.081674,0.06,0.62,0
0.10281,0.089759,0.95412,-0.36974,-0.60686,-0.452,0.095697,0,0,0.64162,-1.2079,0,1.4929,0,0,0.18538,-0.054825,0,0.19352,-0.33594,-0.64066,-0.452,19.455,-0.4762,0.26638,-0.00038708,0.08,0.62,0
0.11792,0.10459,0.93353,-0.33616,-0.59625,-0.43531,0.057319,0,0,0.77339,-1.2553,0,0.89418,0,0,0.16593,-0.041838,0,0.1711,-0.32409,-0.60832,-0.43531,11.893,-0.45591,0.24808,-0.0002869,0.1,0.62,0
0.13374,0.11216,0.91429,-0.3251,-0.59031,-0.42701,0.035829,0,0,0.79488,-1.2738,0,0.55893,0,0,0.15802,-0.033397,0,0.16149,-0.32034,-0.59507,-0.42701,7.5598,-0.44747,0.23989,-0.00026627,0.12,0.62,0
0.14971,0.11584,0.89561,-0.31813,-0.58153,-0.41917,0.02432,0,0,0.78807,-1.2664,0,0.37939,0,0,0.15451,-0.02803,0,0.15702,-0.31591,-0.58376,-0.41917,5.2312,-0.43961,0.23398,-0.00025275,0.14,0.62,0
0.16527,0.11701,0.87721,-0.3145,-0.57217,-0.4122,0.018506,0,0,0.76209,-1.2477,0,0.28869,0,0,0.15263,-0.024754,0,0.15462,-0.31318,-0.57349,-0.4122,4.0869,-0.43296,0.22758,-0.00024224,0.16,0.62,0
0.1802,0.11662,0.85898,-0.31188,-0.56244,-0.40546,0.0165,0,0,0.72991,-1.2244,0,0.2574,0,0,0.15143,-0.022847,0,0.15314,-0.3108,-0.56352,-0.40546,3.7516,-0.42659,0.22115,-0.00023233,0.18,0.62,0
0.19446,0.11521,0.84087,-0.30922,-0.55265,-0.39871,0.016637,0,0,0.698,-1.2008,0,0.25953,0,0,0.15046,-0.021746,0,0.15202,-0.30809,-0.55378,-0.39871,3.8916,-0.42019,0.21521,-0.00022312,0.2,0.62,0
0.20812,0.11308,0.82287,-0.30599,-0.543,-0.39184,0.017482,0,0,0.66965,-1.179,0,0.27272,0,0,0.1495,-0.02095,0,0.15096,-0.30471,-0.54428,-0.39184,4.1959,-0.41361,0.21003,-0.00021478,0.22,0.62,0
0.22125,0.11024,0.80499,-0.30211,-0.5335,-0.38485,0.017614,0,0,0.64539,-1.1595,0,0.27477,0,0,0.14845,-0.019954,0,0.14979,-0.30077,-0.53483,-0.38485,4.328,-0.40682,0.20537,-0.00020681,0.24,0.62,0
0.23393,0.10643,0.78724,-0.29691,-0.52326,-0.37726,0.015238,0,0,0.62672,-1.1388,0,0.23771,0,0,0.14757,-0.01797,0,0.14866,-0.29588,-0.52428,-0.37726,3.8342,-0.39914,0.2005,-0.00019605,0.26,0.62,0
0.24617,0.10107,0.76961,-0.29524,-0.51306,-0.37076,0.0066653,0,0,0.58908,-1.11,0,0.10398,0,0,0.14668,-0.01465,0,0.14739,-0.29503,-0.51326,-0.37076,1.751,-0.39302,0.19192,-0.00018185,0.28,0.62,0
0.25772,0.093203,0.75203,-0.29374,-0.50291,-0.36434,-0.0055891,0,0,0.55061,-1.0809,0,-0.08719,0,0,0.14803,-0.0085728,0,0.14823,-0.29359,-0.50306,-0.36434,-1.5295,-0.387,0.18456,-0.00017035,0.3,0.62,0
0.26819,0.08038,0.73409,-0.31228,-0.49378,-0.36417,-0.031618,0,0,0.40473,-1.011,0,-0.49323,0,0,0.15735,0.0025994,0,0.15729,-0.30693,-0.49913,-0.36417,-9.604,-0.39007,0.17093,-0.0001629,0.32,0.62,0
0.27391,0.060095,0.71426,-0.36639,-1.1411,-0.8689,-0.08995,0,0,0.77241,-0.60663,0,-0.57587,0,0,0.19131,0.057995,0,0.20953,-0.35053,-1.157,-0.8689,-13.165,-0.79214,0.71151,0.030353,0.34,0.62,0
0.29909,0.049607,0.70991,-0.37913,-1.5372,-1.2848,-0.068843,0,0,1.1774,-0.32809,0,-0.17899,0,0,0.25569,-0.028251,0,0.25224,-0.37505,-1.5413,-1.2848,-3.3902,-1.067,1.0615,0.049549,0.36,0.62,0
0.32101,0.039239,0.70403,-0.45088,-1.5048,-1.2907,-0.012986,0,0,1.0918,-0.27827,0,-0.033762,0,0,0.29,-0.10412,0,0.30708,-0.45072,-1.505,-1.2907,-0.70582,-1.0821,0.96511,0.038613,0.38,0.62,0
0.34276,0.030886,0.69831,-0.43046,-1.4588,-1.2651,0.029505,0,0,1.085,-0.25187,0,0.076712,0,0,0.27387,-0.14902,0,0.31174,-0.42962,-1.4597,-1.2651,1.642,-1.0515,0.94788,0.037602,0.4,0.62,0
0.36441,0.023356,0.69308,-0.38336,-0.87688,-0.78237,0.047757,0,0,0.40638,-0.21062,0,0.4555,0,0,0.25285,-0.098486,0,0.27863,-0.35491,-0.90532,-0.78237,24.84,-0.68087,0.51062,0.018332,0.42,0.62,0
0.35902,0.029414,0.6638,-0.36378,-0.37163,-0.33126,0.050048,0,0,-0.25367,-0.31494,0,0.78075,0,0,0.24092,-0.034107,0,0.24334,-0.3175,-0.41791,-0.33126,42.756,-0.35556,0.094283,-3.9975e-05,0.44,0.62,0
0.35426,0.034681,0.63526,-0.35406,-0.37262,-0.32388,0.045622,0,0,-0.23539,-0.38019,0,0.71171,0,0,0.23475,-0.036762,0,0.23763,-0.31678,-0.4099,-0.32388,39.25,-0.35019,0.089776,-3.638e-05,0.46,0.62,0
0.3496,0.038654,0.60746,-0.34679,-0.36863,-0.31587,0.039762,0,0,-0.24116,-0.41155,0,0.62029,0,0,0.22885,-0.03687,0,0.23182,-0.31648,-0.39895,-0.31587,37.32,-0.34376,0.082775,-2.9123e-05,0.48,0.62,0
0.34462,0.041286,0.58034,-0.34145,-0.36144,-0.30759,0.033994,0,0,-0.26413,-0.42003,0,0.5303,0,0,0.22374,-0.035288,0,0.22651,-0.31601,-0.38688,-0.30759,36.809,-0.33683,0.07543,-2.1118e-05,0.5,0.62,0
0.33904,0.042741,0.55376,-0.33743,-0.35246,-0.29926,0.028881,0,0,-0.29769,-0.41497,0,0.45054,0,0,0.2196,-0.032772,0,0.22204,-0.3151,-0.37479,-0.29926,37.704,-0.32972,0.068984,-1.391e-05,0.52,0.62,0
0.33271,0.043238,0.52763,-0.33421,-0.34252,-0.29096,0.024538,0,0,-0.33739,-0.40217,0,0.38279,0,0,0.21641,-0.029868,0,0.21846,-0.31348,-0.36325,-0.29096,40.197,-0.32256,0.064074,-8.0996e-06,0.54,0.62,0
0.32554,0.042992,0.50183,-0.33152,-0.33209,-0.28272,0.020926,0,0,-0.38065,-0.38508,0,0.32645,0,0,0.21401,-0.026907,0,0.21569,-0.31088,-0.35274,-0.28272,44.611,-0.31545,0.061019,-3.8635e-06,0.56,0.62,0
0.31748,0.042187,0.47627,-0.32919,-0.3215,-0.27458,0.017967,0,0,-0.4259,-0.36594,0,0.28029,0,0,0.21223,-0.024059,0,0.21358,-0.30697,-0.34372,-0.27458,51.038,-0.30842,0.059911,-1.2041e-06,0.58,0.62,0
0.3085,0.040985,0.45089,-0.32709,-0.31095,-0.26656,0.015563,0,0,-0.47211,-0.34627,0,0.24278,0,0,0.21092,-0.021395,0,0.212,-0.30149,-0.33655,-0.26656,58.699,-0.30153,0.060612,-3.5801e-08,0.6,0.62,0
0.2986,0.039515,0.42565,-0.32515,-0.3006,-0.25866,0.013604,0,0,-0.51857,-0.32708,0,0.21223,0,0,0.20997,-0.018927,0,0.21083,-0.29455,-0.3312,-0.25866,66.029,-0.2948,0.062815,-2.3165e-07,0.62,0.62,0
0.28776,0.037882,0.4005,-0.32332,-0.29051,-0.2509,0.011985,0,0,-0.56487,-0.30898,0,0.18697,0,0,0.2093,-0.016636,0,0.20996,-0.2866,-0.32723,-0.2509,71.923,-0.28824,0.066151,-1.6592e-06,0.64,0.62,0
0.276,0.03617,0.37541,-0.32157,-0.28073,-0.24326,0.010606,0,0,-0.61085,-0.29225,0,0.16545,0,0,0.20886,-0.014486,0,0.20936,-0.27814,-0.32416,-0.24326,76.278,-0.28185,0.070286,-4.2063e-06,0.66,0.62,0
0.26333,0.034438,0.35037,-0.31991,-0.27126,-0.23575,0.0093808,0,0,-0.6565,-0.277,0,0.14634,0,0,0.2086,-0.012438,0,0.20897,-0.26951,-0.32166,-0.23575,79.456,-0.27564,0.074968,-7.7986e-06,0.68,0.62,0
0.24974,0.032733,0.32535,-0.31835,-0.2621,-0.22836,0.0082422,0,0,-0.70196,-0.26313,0,0.12858,0,0,0.20852,-0.010448,0,0.20877,-0.26091,-0.31954,-0.22836,81.835,-0.2696,0.080031,-1.241e-05,0.7,0.62,0
0.23525,0.031086,0.30033,-0.31692,-0.25321,-0.22109,0.0071374,0,0,-0.74746,-0.2505,0,0.11134,0,0,0.2086,-0.0084762,0,0.20877,-0.25242,-0.31771,-0.22109,83.686,-0.26374,0.08538,-1.8069e-05,0.72,0.62,0
0.21984,0.029523,0.27529,-0.31566,-0.24457,-0.21395,0.00603,0,0,-0.79332,-0.23886,0,0.094068,0,0,0.20887,-0.0064824,0,0.20897,-0.24407,-0.31617,-0.21395,85.186,-0.25806,0.090977,-2.4871e-05,0.74,0.62,0
0.20352,0.028059,0.2502,-0.31461,-0.23615,-0.20693,0.0049003,0,0,-0.83994,-0.22792,0,0.076445,0,0,0.20935,-0.004431,0,0.20939,-0.23584,-0.31492,-0.20693,86.44,-0.25256,0.096825,-3.2987e-05,0.76,0.62,0
0.18625,0.026711,0.22504,-0.31384,-0.22789,-0.20003,0.0037475,0,0,-0.88775,-0.21735,0,0.058461,0,0,0.21007,-0.0022929,0,0.21008,-0.22773,-0.31401,-0.20003,87.508,-0.24726,0.10296,-4.2675e-05,0.78,0.62,0
0.16801,0.025493,0.19978,-0.31341,-0.21976,-0.19325,0.0025941,0,0,-0.93727,-0.20682,0,0.040468,0,0,0.21111,-5.3594e-05,0,0.21111,-0.21969,-0.31349,-0.19325,88.415,-0.24214,0.10944,-5.4294e-05,0.8,0.62,0
0.14875,0.024424,0.17438,-0.31338,-0.21172,-0.18659,0.0014907,0,0,-0.98895,-0.196,0,0.023254,0,0,0.21255,0.0022742,0,0.21257,-0.2117,-0.3134,-0.18659,89.16,-0.23723,0.11631,-6.8285e-05,0.82,0.62,0
0.12845,0.023526,0.14877,-0.31378,-0.20374,-0.18005,0.00051727,0,0,-1.0431,-0.18476,0,0.0080693,0,0,0.21451,0.0046251,0,0.21456,-0.20373,-0.31378,-0.18005,89.731,-0.23252,0.1236,-8.5109e-05,0.84,0.62,0
0.10703,0.022826,0.12289,-0.31459,-0.19581,-0.1736,-0.00022984,0,0,-1.0997,-0.17322,0,-0.0035855,0,0,0.21707,0.0068427,0,0.21718,-0.19581,-0.31459,-0.1736,-89.889,-0.228,0.1313,-0.00010514,0.86,0.62,0
0.08446,0.022349,0.096671,-0.31577,-0.18799,-0.16724,-0.00066066,0,0,-1.1585,-0.16185,0,-0.010306,0,0,0.22029,0.0086344,0,0.22047,-0.18798,-0.31577,-0.16724,-89.704,-0.22366,0.13932,-0.00012857,0.88,0.62,0
0.060691,0.022107,0.070023,-0.31718,-0.18022,-0.16089,-0.00070489,0,0,-1.2191,-0.15079,0,-0.010996,0,0,0.22406,0.009573,0,0.22427,-0.18022,-0.31719,-0.16089,-89.705,-0.21943,0.14758,-0.00015558,0.9,0.62,0
0.035697,0.022104,0.042897,-0.31864,-0.17234,-0.15444,-0.00021776,0,0,-1.2807,-0.13959,0,-0.003397,0,0,0.22802,0.0091921,0,0.22821,-0.17234,-0.31864,-0.15444,-89.915,-0.21514,0.15602,-0.00018644,0.92,0.62,0
0.0094615,0.022366,0.015298,-0.31702,-0.23057,-0.1732,0.0025021,0,0,-0.73354,-0.12785,0,0.0096821,0,0,0.23562,0.025162,0,0.23769,-0.23011,-0.31748,-0.1732,84.117,-0.24026,0.13566,-7.2822e-05,0.94,0.62,0
0.0063556,0.02271,0.010473,-0.31859,-0.30829,-0.19854,0.0066749,0,0,-0.15607,-0.14267,0,0.017355,0,0,0.24927,0.035603,0,0.2519,-0.30501,-0.32187,-0.19854,63.836,-0.27514,0.11583,7.4137e-05,0.96,0.62,0
0.0032185,0.02314,0.0053273,-0.31747,-0.31561,-0.19525,0.0054842,0,0,-0.15889,-0.15646,0,0.014259,0,0,0.26183,0.020069,0,0.26254,-0.31098,-0.3221,-0.19525,49.836,-0.27611,0.12167,8.9905e-05,0.98,0.62,0
0,0.023318,0,-0.3098,-0.31024,-0.18601,0.0034305,0,0,-0.16093,-0.1615,0,0.0089192,0,0,0.26637,8.6736e-18,0,0.26623,-0.30658,-0.31346,-0.18601,43.175,-0.26869,0.12415,9.7267e-05,1,0.62,0
0,0.04469,1,-0.58317,-2.0487,-1.7896,0.020842,0,0,1.5683,-0.33691,0,0.05419,0,0,0.33608,1.6653e-15,0,0.33488,-0.58288,-2.049,-1.7896,0.8146,-1.4738,1.3552,0.11219,0,0.64,0
0.031366,0.045774,0.99328,-0.53861,-2.0509,-1.7701,0.075817,0,0,1.601,-0.36497,0,0.19712,0,0,0.31959,-0.069135,0,0.32587,-0.53482,-2.0547,-1.7701,2.8629,-1.4532,1.3994,0.12138,0.02,0.64,0
0.064039,0.04803,0.98722,-0.49578,-2.1513,-1.7813,0.12224,0,0,1.6712,-0.48093,0,0.31782,0,0,0.27161,-0.14204,0,0.30776,-0.4868,-2.1603,-1.7813,4.2002,-1.4761,1.5198,0.14323,0.04,0.64,0
0.098215,0.049138,0.98241,-0.41938,-1.371,-1.1102,0.097062,0,0,1.1163,-0.58129,0,0.76174,0,0,0.21596,-0.10172,0,0.2464,-0.3982,-1.3922,-1.1102,13.844,-0.96687,0.89084,0.077,0.06,0.64,0
0.10869,0.068676,0.9594,-0.35576,-0.56,-0.43462,0.066182,0,0,0.61518,-0.97789,0,1.0324,0,0,0.18476,-0.035499,0,0.18832,-0.33619,-0.57957,-0.43462,16.473,-0.45013,0.21205,-0.00015851,0.08,0.64,0
0.12282,0.080858,0.93807,-0.33375,-0.57458,-0.42884,0.04339,0,0,0.7417,-1.1367,0,0.67689,0,0,0.1722,-0.032726,0,0.17535,-0.32617,-0.58216,-0.42884,9.9084,-0.44572,0.22313,-0.0001909,0.1,0.64,0
0.13836,0.087596,0.91807,-0.32172,-0.57664,-0.42252,0.028541,0,0,0.78624,-1.2022,0,0.44524,0,0,0.16341,-0.028527,0,0.1659,-0.31856,-0.5798,-0.42252,6.3107,-0.44029,0.2278,-0.00020928,0.12,0.64,0
0.15427,0.090927,0.89885,-0.31473,-0.57466,-0.41663,0.019976,0,0,0.7948,-1.2327,0,0.31163,0,0,0.15817,-0.025214,0,0.16017,-0.3132,-0.57619,-0.41663,4.3691,-0.43534,0.22948,-0.0002232,0.14,0.64,0
0.17015,0.092151,0.88011,-0.30964,-0.56943,-0.41041,0.015638,0,0,0.78596,-1.2404,0,0.24396,0,0,0.15494,-0.022974,0,0.15664,-0.3087,-0.57037,-0.41041,3.4325,-0.42982,0.22847,-0.0002292,0.16,0.64,0
0.18571,0.092018,0.86167,-0.30481,-0.56156,-0.40352,0.015079,0,0,0.76996,-1.2327,0,0.23523,0,0,0.15313,-0.021857,0,0.15468,-0.30392,-0.56244,-0.40352,3.3496,-0.42329,0.22584,-0.00022773,0.18,0.64,0
0.20079,0.090991,0.84343,-0.30188,-0.55202,-0.39674,0.015922,0,0,0.73994,-1.2112,0,0.24839,0,0,0.15142,-0.021304,0,0.15291,-0.30087,-0.55303,-0.39674,3.6275,-0.41688,0.22046,-0.00022056,0.2,0.64,0
0.21531,0.089296,0.82532,-0.29889,-0.54244,-0.38995,0.016569,0,0,0.7103,-1.1894,0,0.25847,0,0,0.15045,-0.020459,0,0.15184,-0.29777,-0.54356,-0.38995,3.874,-0.41043,0.21507,-0.00021293,0.22,0.64,0
0.2292,0.086946,0.80732,-0.298,-0.53362,-0.38404,0.014481,0,0,0.67111,-1.1667,0,0.2259,0,0,0.14983,-0.019252,0,0.15106,-0.29711,-0.5345,-0.38404,3.5037,-0.40522,0.20803,-0.00020525,0.24,0.64,0
0.24239,0.083735,0.78935,-0.29459,-0.52108,-0.37626,0.012161,0,0,0.63703,-1.1296,0,0.18971,0,0,0.1499,-0.017663,0,0.15093,-0.29394,-0.52173,-0.37626,3.0646,-0.39731,0.19979,-0.00018772,0.26,0.64,0
0.25468,0.079218,0.77134,-0.29369,-0.50645,-0.3686,0.0069639,0,0,0.58427,-1.0752,0,0.10864,0,0,0.15099,-0.015064,0,0.15174,-0.29347,-0.50668,-0.3686,1.8727,-0.38958,0.18731,-0.00016373,0.28,0.64,0
0.26576,0.072555,0.75311,-0.29736,-0.48859,-0.3613,-0.002863,0,0,0.49877,-0.99282,0,-0.044663,0,0,0.15439,-0.011055,0,0.15479,-0.29732,-0.48863,-0.3613,-0.85756,-0.38242,0.16868,-0.00013232,0.3,0.64,0
0.27464,0.062701,0.73429,-0.30736,-0.45912,-0.35232,-0.017466,0,0,0.35073,-0.83298,0,-0.27246,0,0,0.16074,-0.006461,0,0.16094,-0.30537,-0.4611,-0.35232,-6.4812,-0.37293,0.13836,-8.5115e-05,0.32,0.64,0
0.27979,0.049102,0.71454,-0.3542,-1.0978,-0.85243,-0.031135,0,0,0.75508,-0.54017,0,-0.24373,0,0,0.17967,-0.01036,0,0.17991,-0.35076,-1.1013,-0.85243,-7.3584,-0.76816,0.66575,0.029579,0.34,0.64,0
0.30484,0.041288,0.71064,-0.37337,-1.6323,-1.3123,-0.042735,0,0,1.2207,-0.41594,0,-0.11111,0,0,0.21358,-0.036315,0,0.21593,-0.37193,-1.6337,-1.3123,-1.942,-1.106,1.1358,0.055424,0.36,0.64,0
0.32861,0.033159,0.70599,-0.40178,-1.5333,-1.2865,-0.010292,0,0,1.1501,-0.32077,0,-0.02676,0,0,0.2432,-0.10063,0,0.26259,-0.40169,-1.5333,-1.2865,-0.52113,-1.0738,1.0306,0.04554,0.38,0.64,0
0.35123,0.025612,0.70102,-0.40741,-1.4793,-1.267,0.01307,0,0,1.1175,-0.27591,0,0.033981,0,0,0.24661,-0.13176,0,0.27945,-0.40725,-1.4794,-1.267,0.6985,-1.0512,0.98333,0.041257,0.4,0.64,0
0.37332,0.01902,0.69613,-0.37783,-0.88845,-0.78596,0.035248,0,0,0.42284,-0.22841,0,0.3529,0,0,0.24159,-0.085072,0,0.26228,-0.3563,-0.90999,-0.78596,24.034,-0.68408,0.51367,0.019532,0.42,0.64,0
0.36814,0.023393,0.6675,-0.36351,-0.36874,-0.33093,0.040608,0,0,-0.25417,-0.29495,0,0.63349,0,0,0.23685,-0.029033,0,0.23863,-0.32543,-0.40682,-0.33093,43.158,-0.35439,0.078782,-2.4702e-05,0.44,0.64,0
0.36315,0.027524,0.63928,-0.35596,-0.3675,-0.32358,0.0384,0,0,-0.25252,-0.34252,0,0.59903,0,0,0.23317,-0.031424,0,0.23528,-0.3229,-0.40056,-0.32358,40.728,-0.34901,0.07732,-2.3735e-05,0.46,0.64,0
0.35804,0.030895,0.61154,-0.34974,-0.36314,-0.31579,0.034398,0,0,-0.26481,-0.36935,0,0.5366,0,0,0.22913,-0.031939,0,0.23136,-0.32139,-0.39148,-0.31579,39.488,-0.34289,0.073054,-1.9627e-05,0.48,0.64,0
0.35256,0.033324,0.58429,-0.3448,-0.35639,-0.30774,0.029917,0,0,-0.28908,-0.37949,0,0.46671,0,0,0.22526,-0.031099,0,0.2274,-0.32012,-0.38107,-0.30774,39.518,-0.33631,0.06799,-1.4354e-05,0.5,0.64,0
0.34648,0.034834,0.55748,-0.34086,-0.34807,-0.29959,0.025651,0,0,-0.32191,-0.37811,0,0.40015,0,0,0.22183,-0.029397,0,0.22377,-0.31856,-0.37037,-0.29959,41.003,-0.32951,0.063454,-9.2761e-06,0.52,0.64,0
0.33968,0.035541,0.53105,-0.33763,-0.33881,-0.29144,0.021875,0,0,-0.3603,-0.36945,0,0.34125,0,0,0.21894,-0.027233,0,0.22063,-0.31634,-0.3601,-0.29144,44.233,-0.32263,0.060207,-5.097e-06,0.54,0.64,0
0.33207,0.035592,0.50494,-0.33488,-0.32902,-0.28333,0.018657,0,0,-0.40214,-0.3564,0,0.29105,0,0,0.2166,-0.024886,0,0.21803,-0.31306,-0.35084,-0.28333,49.466,-0.31574,0.058603,-2.1121e-06,0.56,0.64,0
0.32359,0.035131,0.47907,-0.33247,-0.31899,-0.27528,0.015971,0,0,-0.44605,-0.34093,0,0.24915,0,0,0.21475,-0.022526,0,0.21593,-0.3084,-0.34306,-0.27528,56.438,-0.30891,0.058706,-4.1287e-07,0.58,0.64,0
0.31423,0.034288,0.45339,-0.3303,-0.30892,-0.26733,0.013754,0,0,-0.49114,-0.32439,0,0.21457,0,0,0.21331,-0.020246,0,0.21427,-0.30219,-0.33703,-0.26733,63.926,-0.30218,0.060359,5.446e-09,0.6,0.64,0
0.30395,0.033175,0.42787,-0.32831,-0.29893,-0.25949,0.011928,0,0,-0.53682,-0.30771,0,0.18608,0,0,0.21222,-0.018082,0,0.21299,-0.2947,-0.33254,-0.25949,70.459,-0.29558,0.063283,-8.0965e-07,0.62,0.64,0
0.29275,0.031886,0.40246,-0.32646,-0.28912,-0.25175,0.010411,0,0,-0.58274,-0.29147,0,0.16241,0,0,0.21142,-0.016039,0,0.21202,-0.28641,-0.32917,-0.25175,75.428,-0.28911,0.067166,-2.7988e-06,0.64,0.64,0
0.28064,0.030495,0.37713,-0.32474,-0.27953,-0.24413,0.0091236,0,0,-0.6287,-0.27605,0,0.14233,0,0,0.21086,-0.014101,0,0.21133,-0.27775,-0.32651,-0.24413,79.011,-0.2828,0.071739,-5.9117e-06,0.66,0.64,0
0.2676,0.02906,0.35185,-0.32313,-0.27017,-0.23663,0.0079981,0,0,-0.67468,-0.26161,0,0.12477,0,0,0.21053,-0.012244,0,0.21089,-0.26899,-0.32431,-0.23663,81.596,-0.27665,0.076795,-1.0121e-05,0.68,0.64,0
0.25365,0.027629,0.3266,-0.32165,-0.26107,-0.22925,0.0069781,0,0,-0.72073,-0.24819,0,0.10886,0,0,0.21041,-0.010437,0,0.21067,-0.26028,-0.32245,-0.22925,83.514,-0.27066,0.082198,-1.5434e-05,0.7,0.64,0
0.23878,0.026235,0.30136,-0.32032,-0.25221,-0.22198,0.0060209,0,0,-0.76702,-0.23573,0,0.093926,0,0,0.2105,-0.0086515,0,0.21067,-0.25168,-0.32085,-0.22198,84.987,-0.26484,0.087865,-2.1899e-05,0.72,0.64,0
0.22297,0.024905,0.27609,-0.31916,-0.24356,-0.21483,0.0050986,0,0,-0.81376,-0.22412,0,0.079539,0,0,0.21079,-0.0068588,0,0.2109,-0.24322,-0.3195,-0.21483,86.159,-0.25918,0.093757,-2.9611e-05,0.74,0.64,0
0.20622,0.023663,0.25077,-0.3182,-0.23512,-0.20779,0.0041989,0,0,-0.86121,-0.21318,0,0.065502,0,0,0.21132,-0.0050358,0,0.21138,-0.23491,-0.31842,-0.20779,87.114,-0.25371,0.099864,-3.8717e-05,0.76,0.64,0
0.18852,0.022527,0.22537,-0.31749,-0.22686,-0.20086,0.0033261,0,0,-0.90963,-0.20277,0,0.051887,0,0,0.21211,-0.003169,0,0.21213,-0.22674,-0.31761,-0.20086,87.901,-0.2484,0.10619,-4.9417e-05,0.78,0.64,0
0.16984,0.021517,0.19986,-0.31703,-0.21875,-0.19405,0.0025026,0,0,-0.95929,-0.19273,0,0.03904,0,0,0.2132,-0.0012614,0,0.2132,-0.21869,-0.3171,-0.19405,88.542,-0.24328,0.11277,-6.1954e-05,0.8,0.64,0
0.15015,0.020654,0.1742,-0.31686,-0.21079,-0.18733,0.0017679,0,0,-1.0104,-0.18299,0,0.027579,0,0,0.21464,0.00065613,0,0.21464,-0.21076,-0.31689,-0.18733,89.045,-0.23833,0.11958,-7.6584e-05,0.82,0.64,0
0.12943,0.019961,0.14835,-0.31697,-0.20296,-0.1807,0.0011727,0,0,-1.0629,-0.17361,0,0.018295,0,0,0.21648,0.0025086,0,0.21649,-0.20295,-0.31698,-0.1807,89.411,-0.23354,0.12663,-9.3529e-05,0.84,0.64,0
0.10764,0.019461,0.12225,-0.31732,-0.19529,-0.17416,0.00076797,0,0,-1.1167,-0.16481,0,0.01198,0,0,0.21872,0.0041595,0,0.21877,-0.19528,-0.31733,-0.17416,89.639,-0.22892,0.13386,-0.00011292,0.86,0.64,0
0.084758,0.019171,0.095852,-0.31785,-0.18777,-0.16766,0.00059316,0,0,-1.1715,-0.15685,0,0.0092533,0,0,0.22135,0.0054031,0,0.22142,-0.18777,-0.31785,-0.16766,89.739,-0.22443,0.14122,-0.00013481,0.88,0.64,0
0.060776,0.019102,0.069123,-0.31847,-0.18038,-0.16118,0.00068805,0,0,-1.2269,-0.14978,0,0.010734,0,0,0.22419,0.0059865,0,0.22428,-0.18037,-0.31847,-0.16118,89.715,-0.22001,0.14863,-0.0001592,0.9,0.64,0
0.035682,0.019263,0.042045,-0.31903,-0.17301,-0.15462,0.001119,0,0,-1.2824,-0.14346,0,0.017457,0,0,0.22699,0.0056751,0,0.22707,-0.173,-0.31903,-0.15462,89.561,-0.21555,0.15604,-0.00018603,0.92,0.64,0
0.0094813,0.019674,0.014645,-0.31808,-0.23704,-0.17508,0.0027733,0,0,-0.73174,-0.13809,0,0.017042,0,0,0.23191,0.015216,0,0.23269,-0.23641,-0.31871,-0.17508,81.133,-0.2434,0.13634,-6.5709e-05,0.94,0.64,0
0.0064122,0.019824,0.009935,-0.31791,-0.30984,-0.19826,0.0050647,0,0,-0.15555,-0.14505,0,0.013168,0,0,0.24051,0.021469,0,0.24151,-0.3074,-0.32035,-0.19826,64.284,-0.27533,0.11616,7.7128e-05,0.96,0.64,0
0.0032594,0.020043,0.0050242,-0.31671,-0.31121,-0.1934,0.0040225,0,0,-0.16031,-0.15315,0,0.010459,0,0,0.24838,0.01209,0,0.24865,-0.30909,-0.31883,-0.1934,62.184,-0.27377,0.12086,8.8675e-05,0.98,0.64,0
0,0.020138,0,-0.30963,-0.3046,-0.18427,0.0018268,0,0,-0.16297,-0.15643,0,0.0047498,0,0,0.25121,-1.7347e-18,0,0.25116,-0.30401,-0.31022,-0.18427,71.996,-0.26617,0.12297,9.467e-05,1,0.64,0
0,0.036896,1,-0.49749,-2.1114,-1.7827,0.0075248,0,0,1.6707,-0.42734,0,0.019564,0,0,0.27871,3.0618e-15,0,0.27805,-0.49745,-2.1114,-1.7827,0.26713,-1.4639,1.4773,0.13834,0,0.66,0
0.033415,0.037287,0.99443,-0.47963,-2.1225,-1.7751,0.041403,0,0,1.6841,-0.45171,0,0.10765,0,0,0.26742,-0.045486,0,0.27097,-0.47859,-2.1236,-1.7751,1.4427,-1.4591,1.5014,0.14275,0.02,0.66,0
0.067363,0.038078,0.9893,-0.45295,-2.1606,-1.7734,0.059832,0,0,1.7166,-0.50341,0,0.15556,0,0,0.23563,-0.082364,0,0.25027,-0.45085,-2.1627,-1.7734,2.0042,-1.4623,1.5542,0.15279,0.04,0.66,0
0.10208,0.038387,0.985,-0.38884,-1.3274,-1.0894,0.0558,0,0,1.1255,-0.5302,0,0.46205,0,0,0.20075,-0.059332,0,0.21316,-0.37977,-1.3364,-1.0894,10.04,-0.93521,0.86319,0.079246,0.06,0.66,0
0.11238,0.050643,0.96264,-0.3493,-0.5366,-0.42621,0.042839,0,0,0.5999,-0.86103,0,0.66828,0,0,0.18172,-0.021954,0,0.1831,-0.33996,-0.54593,-0.42621,12.29,-0.43737,0.17915,-8.1818e-05,0.08,0.66,0
0.12607,0.059127,0.94139,-0.33037,-0.55876,-0.42364,0.030121,0,0,0.72746,-1.054,0,0.46989,0,0,0.1729,-0.023298,0,0.17452,-0.32647,-0.56267,-0.42364,7.3882,-0.43759,0.20562,-0.00013447,0.1,0.66,0
0.14148,0.064078,0.92114,-0.31817,-0.56772,-0.41929,0.020231,0,0,0.78874,-1.1578,0,0.3156,0,0,0.16553,-0.022468,0,0.16707,-0.31654,-0.56935,-0.41929,4.6048,-0.43506,0.22021,-0.00017403,0.12,0.66,0
0.15762,0.066536,0.90166,-0.31027,-0.56971,-0.41427,0.014401,0,0,0.81123,-1.2124,0,0.22465,0,0,0.16006,-0.021244,0,0.16148,-0.30947,-0.57051,-0.41427,3.1673,-0.43142,0.22753,-0.00020165,0.14,0.66,0
0.17393,0.067394,0.88273,-0.30472,-0.56747,-0.40878,0.011591,0,0,0.81165,-1.2378,0,0.18081,0,0,0.15625,-0.020318,0,0.15757,-0.30421,-0.56798,-0.40878,2.5209,-0.42699,0.23006,-0.00021858,0.16,0.66,0
0.19009,0.067252,0.86416,-0.2999,-0.56218,-0.40265,0.010511,0,0,0.80145,-1.2443,0,0.16397,0,0,0.15401,-0.019462,0,0.15523,-0.29948,-0.5626,-0.40265,2.2913,-0.42158,0.22963,-0.00022595,0.18,0.66,0
0.20586,0.066468,0.84585,-0.29772,-0.556,-0.39709,0.0091004,0,0,0.7751,-1.2395,0,0.14197,0,0,0.15198,-0.018932,0,0.15316,-0.2974,-0.55632,-0.39709,2.0154,-0.41694,0.2262,-0.00022927,0.2,0.66,0
0.22109,0.06522,0.82769,-0.29495,-0.54628,-0.39032,0.0095629,0,0,0.74387,-1.2165,0,0.14918,0,0,0.15106,-0.01909,0,0.15226,-0.29459,-0.54665,-0.39032,2.1758,-0.41052,0.22038,-0.00022103,0.22,0.66,0
0.23562,0.063527,0.80959,-0.29412,-0.53411,-0.3834,0.01086,0,0,0.69642,-1.1756,0,0.16942,0,0,0.15089,-0.019046,0,0.15208,-0.29363,-0.5346,-0.3834,2.5857,-0.40388,0.21094,-0.00020462,0.24,0.66,0
0.24925,0.061249,0.79148,-0.29143,-0.51886,-0.375,0.010924,0,0,0.65186,-1.1221,0,0.17042,0,0,0.15152,-0.018244,0,0.15261,-0.2909,-0.51938,-0.375,2.7436,-0.3951,0.20015,-0.00018044,0.26,0.66,0
0.26169,0.058062,0.77323,-0.29264,-0.50117,-0.36701,0.0078402,0,0,0.58011,-1.0464,0,0.12231,0,0,0.15334,-0.016886,0,0.15427,-0.29235,-0.50146,-0.36701,2.1502,-0.38694,0.18355,-0.00014967,0.28,0.66,0
0.27245,0.05349,0.75468,-0.2972,-0.47778,-0.35827,0.0021226,0,0,0.47636,-0.93213,0,0.033112,0,0,0.15663,-0.015153,0,0.15737,-0.29718,-0.4778,-0.35827,0.67336,-0.37775,0.15913,-0.00010887,0.3,0.66,0
0.28075,0.047061,0.73564,-0.30628,-0.4452,-0.34805,-0.0048813,0,0,0.32581,-0.75777,0,-0.076149,0,0,0.16133,-0.014122,0,0.16197,-0.30611,-0.44537,-0.34805,-2.0099,-0.36651,0.12374,-6.0967e-05,0.32,0.66,0
0.28548,0.038867,0.71596,-0.33585,-1.0641,-0.83763,-0.012083,0,0,0.751,-0.50606,0,-0.085464,0,0,0.17326,-0.061069,0,0.1882,-0.3354,-1.0646,-0.83763,-2.8035,-0.74586,0.65025,0.03069,0.34,0.66,0
0.31079,0.032541,0.71231,-0.36823,-1.66,-1.3208,-0.015115,0,0,1.2383,-0.44095,0,-0.039298,0,0,0.19614,-0.11244,0,0.22616,-0.36805,-1.6601,-1.3208,-0.6703,-1.1163,1.1602,0.057683,0.36,0.66,0
0.33502,0.026072,0.70812,-0.39414,-1.5813,-1.3007,-0.0052144,0,0,1.1786,-0.3647,0,-0.013557,0,0,0.22093,-0.11724,0,0.25021,-0.39411,-1.5813,-1.3007,-0.25166,-1.092,1.0747,0.049409,0.38,0.66,0
0.35826,0.01985,0.70359,-0.39142,-1.4993,-1.2708,0.012401,0,0,1.1432,-0.29702,0,0.032241,0,0,0.23004,-0.13064,0,0.26451,-0.39128,-1.4994,-1.2708,0.64122,-1.0538,1.0133,0.044412,0.4,0.66,0
0.38074,0.01422,0.69891,-0.37401,-0.90274,-0.79073,0.028739,0,0,0.4398,-0.24963,0,0.28928,0,0,0.23405,-0.081178,0,0.25377,-0.35739,-0.91936,-0.79073,23.023,-0.68916,0.52068,0.020769,0.42,0.66,0
0.37585,0.017616,0.67077,-0.36314,-0.3676,-0.33102,0.033651,0,0,-0.25058,-0.28536,0,0.52495,0,0,0.23381,-0.026342,0,0.23528,-0.33165,-0.3991,-0.33102,43.105,-0.35392,0.067767,-1.5979e-05,0.44,0.66,0
0.37072,0.02098,0.6428,-0.35757,-0.36411,-0.32364,0.032408,0,0,-0.26467,-0.31567,0,0.50557,0,0,0.23184,-0.027987,0,0.23353,-0.32826,-0.39341,-0.32364,42.12,-0.34843,0.067579,-1.5601e-05,0.46,0.66,0
0.36527,0.02388,0.61513,-0.35238,-0.35894,-0.31592,0.029517,0,0,-0.28441,-0.33559,0,0.46046,0,0,0.22917,-0.02835,0,0.23092,-0.32596,-0.38536,-0.31592,41.829,-0.34241,0.065004,-1.2979e-05,0.48,0.66,0
0.35934,0.026106,0.5878,-0.34786,-0.35222,-0.30799,0.025972,0,0,-0.31101,-0.34497,0,0.40515,0,0,0.22628,-0.027732,0,0.22798,-0.32398,-0.3761,-0.30799,42.605,-0.33603,0.061693,-9.3841e-06,0.5,0.66,0
0.35282,0.027616,0.56082,-0.34402,-0.34429,-0.29996,0.022404,0,0,-0.34363,-0.34575,0,0.3495,0,0,0.22347,-0.02644,0,0.22503,-0.32175,-0.36656,-0.29996,44.826,-0.32942,0.058811,-5.821e-06,0.52,0.66,0
0.3456,0.028461,0.53417,-0.34073,-0.33554,-0.29191,0.019135,0,0,-0.38081,-0.3403,0,0.29851,0,0,0.22092,-0.024744,0,0.2223,-0.31882,-0.35744,-0.29191,48.864,-0.32272,0.057056,-2.8946e-06,0.54,0.66,0
0.33759,0.028736,0.5078,-0.33787,-0.32627,-0.28387,0.016288,0,0,-0.42119,-0.33065,0,0.25409,0,0,0.21871,-0.02285,0,0.2199,-0.31478,-0.34936,-0.28387,54.807,-0.316,0.056742,-9.1113e-07,0.56,0.66,0
0.32875,0.02855,0.48168,-0.33535,-0.31671,-0.2759,0.013879,0,0,-0.46375,-0.31835,0,0.2165,0,0,0.21687,-0.020897,0,0.21787,-0.30932,-0.34275,-0.2759,61.942,-0.30932,0.057896,-4.9163e-09,0.58,0.66,0
0.31904,0.028009,0.45575,-0.33309,-0.30705,-0.268,0.011872,0,0,-0.50772,-0.30457,0,0.1852,0,0,0.21537,-0.01897,0,0.2162,-0.30245,-0.33769,-0.268,68.823,-0.30271,0.060356,-2.2342e-07,0.6,0.66,0
0.30844,0.027206,0.42999,-0.33104,-0.29739,-0.2602,0.010211,0,0,-0.5526,-0.29015,0,0.15929,0,0,0.21418,-0.017111,0,0.21486,-0.29454,-0.3339,-0.2602,74.372,-0.29621,0.063878,-1.5741e-06,0.62,0.66,0
0.29694,0.026223,0.40435,-0.32916,-0.28784,-0.25249,0.0088319,0,0,-0.59805,-0.27569,0,0.13778,0,0,0.21329,-0.015334,0,0.21384,-0.28603,-0.33097,-0.25249,78.429,-0.28983,0.068205,-4.0506e-06,0.64,0.66,0
0.28452,0.025128,0.3788,-0.32744,-0.27843,-0.24489,0.0076718,0,0,-0.64386,-0.26157,0,0.11968,0,0,0.21265,-0.013635,0,0.21309,-0.27725,-0.32861,-0.24489,81.308,-0.28359,0.073122,-7.6484e-06,0.66,0.66,0
0.27118,0.023973,0.35331,-0.32586,-0.26921,-0.23741,0.0066749,0,0,-0.68996,-0.24804,0,0.10413,0,0,0.21226,-0.011998,0,0.2126,-0.26843,-0.32664,-0.23741,83.371,-0.27749,0.078463,-1.2377e-05,0.68,0.66,0
0.25692,0.022805,0.32786,-0.32443,-0.26018,-0.23003,0.0057946,0,0,-0.73635,-0.23522,0,0.090396,0,0,0.21211,-0.010406,0,0.21236,-0.25966,-0.32495,-0.23003,84.887,-0.27155,0.084115,-1.8268e-05,0.7,0.66,0
0.24173,0.021657,0.3024,-0.32316,-0.25137,-0.22276,0.0049956,0,0,-0.78312,-0.22315,0,0.077931,0,0,0.21218,-0.0088354,0,0.21236,-0.25102,-0.3235,-0.22276,86.038,-0.26576,0.090006,-2.5378e-05,0.72,0.66,0
0.2256,0.020558,0.27693,-0.32206,-0.24275,-0.2156,0.0042549,0,0,-0.83037,-0.21181,0,0.066377,0,0,0.21249,-0.0072682,0,0.21261,-0.24253,-0.32228,-0.2156,86.938,-0.26014,0.096094,-3.3796e-05,0.74,0.66,0
0.20852,0.019532,0.25141,-0.32114,-0.23434,-0.20854,0.0035628,0,0,-0.87824,-0.20118,0,0.055579,0,0,0.21304,-0.0056896,0,0.21311,-0.23419,-0.32128,-0.20854,87.654,-0.25467,0.10236,-4.3639e-05,0.76,0.66,0
0.19047,0.0186,0.2258,-0.32042,-0.22611,-0.20159,0.0029225,0,0,-0.92687,-0.19122,0,0.045592,0,0,0.21385,-0.0040946,0,0.21389,-0.22602,-0.32051,-0.20159,88.227,-0.24937,0.10878,-5.5048e-05,0.78,0.66,0
0.17144,0.017784,0.20009,-0.31991,-0.21806,-0.19474,0.0023499,0,0,-0.97634,-0.18191,0,0.036659,0,0,0.21494,-0.0024932,0,0.21495,-0.21801,-0.31996,-0.19474,88.679,-0.24424,0.11537,-6.8172e-05,0.8,0.66,0
0.15141,0.017105,0.17422,-0.3196,-0.2102,-0.18798,0.0018698,0,0,-1.0267,-0.17332,0,0.02917,0,0,0.21632,-0.00091794,0,0.21633,-0.21016,-0.31963,-0.18798,89.021,-0.23926,0.12209,-8.3148e-05,0.82,0.66,0
0.13037,0.016581,0.14817,-0.31948,-0.20252,-0.18129,0.0015103,0,0,-1.0778,-0.16556,0,0.02356,0,0,0.21801,0.00056729,0,0.21801,-0.2025,-0.31949,-0.18129,89.26,-0.23443,0.12891,-0.00010007,0.84,0.66,0
0.1083,0.016233,0.1219,-0.3195,-0.19503,-0.17467,0.0012952,0,0,-1.1296,-0.1588,0,0.020205,0,0,0.21997,0.001862,0,0.21998,-0.19502,-0.31951,-0.17467,89.404,-0.22973,0.13581,-0.00011898,0.86,0.66,0
0.085188,0.016075,0.095375,-0.31961,-0.18774,-0.1681,0.0012416,0,0,-1.1818,-0.15316,0,0.019369,0,0,0.22212,0.0028328,0,0.22214,-0.18772,-0.31962,-0.1681,89.461,-0.22515,0.14273,-0.00013986,0.88,0.66,0
0.061029,0.016116,0.068586,-0.31976,-0.18059,-0.16154,0.0013661,0,0,-1.2341,-0.14864,0,0.021311,0,0,0.22433,0.0033341,0,0.22436,-0.18058,-0.31977,-0.16154,89.438,-0.22063,0.14962,-0.00016268,0.9,0.66,0
0.035824,0.016366,0.041535,-0.31984,-0.17356,-0.15494,0.0016991,0,0,-1.2862,-0.14521,0,0.026506,0,0,0.22638,0.0032475,0,0.22641,-0.17354,-0.31986,-0.15494,89.335,-0.21611,0.15645,-0.00018733,0.92,0.66,0
0.0095817,0.016843,0.014255,-0.31936,-0.24045,-0.17626,0.0025829,0,0,-0.73274,-0.14306,0,0.018847,0,0,0.22968,0.0088579,0,0.22995,-0.23985,-0.31997,-0.17626,79.71,-0.24536,0.13712,-6.2938e-05,0.94,0.66,0
0.0065141,0.016908,0.0096144,-0.31883,-0.31071,-0.19848,0.0035449,0,0,-0.15646,-0.14591,0,0.0092166,0,0,0.23528,0.012523,0,0.23563,-0.30938,-0.32016,-0.19848,69.436,-0.27601,0.11667,7.9219e-05,0.96,0.66,0
0.0033233,0.017014,0.0048437,-0.31791,-0.30808,-0.19264,0.0026258,0,0,-0.16285,-0.15007,0,0.006827,0,0,0.24036,0.0070592,0,0.24046,-0.30743,-0.31857,-0.19264,75.943,-0.27288,0.12074,8.7815e-05,0.98,0.66,0
0,0.017061,0,-0.3113,-0.30031,-0.18348,0.00090617,0,0,-0.16616,-0.15187,0,0.0023561,0,0,0.24219,-3.4694e-18,0,0.24217,-0.30023,-0.31138,-0.18348,85.32,-0.26503,0.1227,9.2246e-05,1,0.66,0
0,0.027597,1,-0.45645,-2.1536,-1.783,0.0020996,0,0,1.7245,-0.48171,0,0.005459,0,0,0.24511,-2.3896e-15,0,0.24487,-0.45644,-2.1536,-1.783,0.070885,-1.4643,1.5455,0.15349,0,0.68,0
0.03449,0.027706,0.9951,-0.44382,-2.152,-1.7738,0.017456,0,0,1.729,-0.49161,0,0.045385,0,0,0.23723,-0.025139,0,0.23851,-0.44364,-2.1522,-1.7738,0.58541,-1.4566,1.5543,0.15501,0.02,0.68,0
0.069162,0.027894,0.99051,-0.42816,-2.1615,-1.7674,0.026545,0,0,1.741,-0.51234,0,0.069018,0,0,0.21539,-0.045211,0,0.2205,-0.42775,-2.1619,-1.7674,0.87717,-1.4524,1.5744,0.15882,0.04,0.68,0
0.10413,0.02793,0.98648,-0.3785,-1.3194,-1.0848,0.026961,0,0,1.138,-0.5228,0,0.23211,0,0,0.19161,-0.032558,0,0.19588,-0.37602,-1.3219,-1.0848,5.5537,-0.92758,0.85499,0.080551,0.06,0.68,0
0.11468,0.034234,0.96467,-0.34431,-0.52443,-0.4214,0.022683,0,0,0.60129,-0.80362,0,0.35385,0,0,0.17841,-0.01331,0,0.17894,-0.3415,-0.52724,-0.4214,7.0685,-0.43005,0.16138,-5.1597e-05,0.08,0.68,0
0.12818,0.038699,0.94366,-0.32769,-0.54903,-0.42029,0.016468,0,0,0.72229,-1.0042,0,0.2569,0,0,0.17169,-0.01548,0,0.17242,-0.32648,-0.55025,-0.42029,4.2318,-0.43234,0.19464,-0.00010425,0.1,0.68,0
0.14358,0.041286,0.92346,-0.31529,-0.56193,-0.41707,0.011239,0,0,0.79395,-1.1299,0,0.17532,0,0,0.16547,-0.016421,0,0.16631,-0.31478,-0.56244,-0.41707,2.6035,-0.43143,0.21556,-0.00015212,0.12,0.68,0
0.15994,0.042429,0.90395,-0.30667,-0.56694,-0.41274,0.0081542,0,0,0.82734,-1.2027,0,0.12721,0,0,0.16032,-0.016832,0,0.16121,-0.30642,-0.5672,-0.41274,1.7927,-0.42879,0.22712,-0.0001884,0.14,0.68,0
0.17667,0.042639,0.88499,-0.30058,-0.56666,-0.40767,0.0070144,0,0,0.83529,-1.2401,0,0.10942,0,0,0.15639,-0.0172,0,0.15734,-0.3004,-0.56685,-0.40767,1.509,-0.42497,0.23221,-0.00021202,0.16,0.68,0
0.19335,0.042305,0.86642,-0.29608,-0.56262,-0.40201,0.0072169,0,0,0.82628,-1.2528,0,0.11258,0,0,0.15361,-0.017694,0,0.15463,-0.29589,-0.56282,-0.40201,1.5498,-0.42024,0.23278,-0.00022405,0.18,0.68,0
0.20972,0.041678,0.84812,-0.29265,-0.55563,-0.39584,0.0082092,0,0,0.80483,-1.2464,0,0.12806,0,0,0.15183,-0.018292,0,0.15293,-0.2924,-0.55588,-0.39584,1.7863,-0.41471,0.22993,-0.00022591,0.2,0.68,0
0.22555,0.040889,0.82998,-0.29015,-0.54602,-0.38918,0.0095021,0,0,0.77246,-1.2234,0,0.14823,0,0,0.15098,-0.018882,0,0.15216,-0.2898,-0.54638,-0.38918,2.1238,-0.40845,0.22408,-0.00021866,0.22,0.68,0
0.24062,0.03997,0.81188,-0.28869,-0.53371,-0.38203,0.01062,0,0,0.72811,-1.1831,0,0.16567,0,0,0.15103,-0.019318,0,0.15226,-0.28823,-0.53417,-0.38203,2.4772,-0.40148,0.21498,-0.0002026,0.24,0.68,0
0.25467,0.03885,0.79373,-0.28873,-0.51818,-0.37436,0.011076,0,0,0.66795,-1.1218,0,0.17278,0,0,0.15204,-0.019476,0,0.15328,-0.28819,-0.51871,-0.37436,2.7571,-0.39376,0.20175,-0.00017739,0.26,0.68,0
0.26734,0.037363,0.77539,-0.29099,-0.49834,-0.36603,0.010417,0,0,0.58536,-1.032,0,0.16251,0,0,0.15408,-0.019335,0,0.1553,-0.29046,-0.49887,-0.36603,2.8688,-0.38512,0.18274,-0.00014251,0.28,0.68,0
0.27809,0.03527,0.75675,-0.2963,-0.47262,-0.3568,0.008557,0,0,0.47189,-0.90339,0,0.13349,0,0,0.15716,-0.019103,0,0.15832,-0.29589,-0.47304,-0.3568,2.772,-0.37524,0.15589,-9.9221e-05,0.3,0.68,0
0.28621,0.032391,0.73768,-0.3048,-0.43922,-0.34615,0.0061657,0,0,0.32254,-0.72592,0,0.096185,0,0,0.16102,-0.019196,0,0.16217,-0.30452,-0.4395,-0.34615,2.6208,-0.36339,0.11972,-5.3557e-05,0.32,0.68,0
0.29099,0.028784,0.71811,-0.33479,-1.0649,-0.8388,0.0049993,0,0,0.7547,-0.50386,0,0.048268,0,0,0.17023,-0.070174,0,0.18946,-0.33463,-1.0651,-0.8388,1.7216,-0.74616,0.65154,0.031082,0.34,0.68,0
0.3164,0.023722,0.71456,-0.36246,-1.6613,-1.3217,0.0071658,0,0,1.247,-0.44147,0,0.018631,0,0,0.18838,-0.12403,0,0.22582,-0.36242,-1.6613,-1.3217,0.3161,-1.1151,1.1667,0.058874,0.36,0.68,0
0.34087,0.018675,0.71057,-0.37645,-1.5851,-1.299,0.011897,0,0,1.1993,-0.37184,0,0.030931,0,0,0.20782,-0.1312,0,0.24589,-0.37634,-1.5852,-1.299,0.56391,-1.0868,1.0942,0.052089,0.38,0.68,0
0.36437,0.013731,0.70625,-0.38689,-1.5136,-1.2764,0.018983,0,0,1.1563,-0.30834,0,0.049355,0,0,0.22192,-0.13831,0,0.26154,-0.38657,-1.5139,-1.2764,0.96498,-1.059,1.0293,0.046117,0.4,0.68,0
0.38712,0.0090348,0.70169,-0.37285,-0.91309,-0.7951,0.026722,0,0,0.45022,-0.26294,0,0.25552,0,0,0.22992,-0.08305,0,0.25096,-0.35906,-0.92688,-0.7951,22.325,-0.69368,0.52582,0.021611,0.42,0.68,0
0.38238,0.011978,0.67383,-0.36356,-0.36698,-0.33146,0.028714,0,0,-0.25032,-0.277,0,0.44794,0,0,0.23206,-0.02521,0,0.23342,-0.3365,-0.39403,-0.33146,43.295,-0.354,0.060207,-1.0945e-05,0.44,0.68,0
0.37711,0.014897,0.646,-0.35936,-0.3616,-0.32396,0.02751,0,0,-0.27616,-0.29366,0,0.42916,0,0,0.23116,-0.025857,0,0.2326,-0.33295,-0.38802,-0.32396,43.833,-0.34831,0.06007,-1.0296e-05,0.46,0.68,0
0.37134,0.017471,0.61835,-0.35495,-0.35561,-0.31622,0.025083,0,0,-0.30203,-0.3072,0,0.3913,0,0,0.22939,-0.025744,0,0.23083,-0.33019,-0.38036,-0.31622,44.621,-0.34226,0.058421,-8.3006e-06,0.48,0.68,0
0.36503,0.019525,0.59095,-0.35074,-0.34874,-0.30834,0.022116,0,0,-0.33073,-0.31519,0,0.345,0,0,0.22717,-0.025022,0,0.22854,-0.3276,-0.37188,-0.30834,46.29,-0.33594,0.056433,-5.7342e-06,0.5,0.68,0
0.35811,0.021004,0.56383,-0.34692,-0.34105,-0.30036,0.019086,0,0,-0.36315,-0.31734,0,0.29774,0,0,0.22481,-0.023864,0,0.22608,-0.32467,-0.36329,-0.30036,49.373,-0.32944,0.054968,-3.2556e-06,0.52,0.68,0
0.3505,0.021929,0.53699,-0.34353,-0.33268,-0.29236,0.016268,0,0,-0.3991,-0.31448,0,0.25377,0,0,0.22253,-0.02243,0,0.22366,-0.32095,-0.35525,-0.29236,54.22,-0.32286,0.054539,-1.3019e-06,0.54,0.68,0
0.34214,0.022366,0.51042,-0.34053,-0.32383,-0.28438,0.013785,0,0,-0.43797,-0.30774,0,0.21505,0,0,0.22045,-0.020853,0,0.22144,-0.31606,-0.3483,-0.28438,60.599,-0.31625,0.055356,-1.2864e-07,0.56,0.68,0
0.33298,0.022397,0.48408,-0.33787,-0.31468,-0.27645,0.011669,0,0,-0.4791,-0.29825,0,0.18204,0,0,0.21863,-0.019228,0,0.21948,-0.30983,-0.34273,-0.27645,67.406,-0.30967,0.057399,1.2291e-07,0.58,0.68,0
0.32298,0.022105,0.45795,-0.33549,-0.30537,-0.26858,0.0099004,0,0,-0.52188,-0.28695,0,0.15445,0,0,0.2171,-0.017617,0,0.21781,-0.30241,-0.33846,-0.26858,73.339,-0.30315,0.06052,-6.2579e-07,0.6,0.68,0
0.31211,0.021569,0.43198,-0.33336,-0.29601,-0.26081,0.0084374,0,0,-0.56588,-0.27462,0,0.13162,0,0,0.21586,-0.016052,0,0.21645,-0.2942,-0.33517,-0.26081,77.841,-0.29673,0.064515,-2.4216e-06,0.62,0.68,0
0.30034,0.020858,0.40614,-0.33143,-0.28669,-0.25313,0.0072299,0,0,-0.61074,-0.26182,0,0.11279,0,0,0.2149,-0.014548,0,0.21539,-0.28555,-0.33256,-0.25313,81.043,-0.29041,0.069182,-5.2978e-06,0.64,0.68,0
0.28768,0.020032,0.3804,-0.32968,-0.27747,-0.24554,0.0062273,0,0,-0.65625,-0.24899,0,0.097146,0,0,0.2142,-0.013103,0,0.2146,-0.27673,-0.33041,-0.24554,83.292,-0.28423,0.074353,-9.2858e-06,0.66,0.68,0
0.27409,0.019139,0.35473,-0.3281,-0.26838,-0.23807,0.0053835,0,0,-0.7023,-0.23641,0,0.083983,0,0,0.21376,-0.011709,0,0.21408,-0.26789,-0.32859,-0.23807,84.891,-0.27818,0.079897,-1.4423e-05,0.68,0.68,0
0.25958,0.01822,0.3291,-0.3267,-0.25945,-0.23069,0.0046595,0,0,-0.74882,-0.22428,0,0.072688,0,0,0.21357,-0.010353,0,0.21382,-0.25913,-0.32702,-0.23069,86.055,-0.27228,0.085721,-2.076e-05,0.7,0.68,0
0.24414,0.017309,0.30348,-0.32545,-0.2507,-0.22342,0.0040249,0,0,-0.79583,-0.21272,0,0.062788,0,0,0.21363,-0.0090179,0,0.21382,-0.25048,-0.32567,-0.22342,86.927,-0.26653,0.09176,-2.8359e-05,0.72,0.68,0
0.22775,0.016433,0.27783,-0.32438,-0.24213,-0.21626,0.0034592,0,0,-0.84335,-0.20181,0,0.053963,0,0,0.21394,-0.0076918,0,0.21408,-0.24199,-0.32453,-0.21626,87.596,-0.26092,0.097971,-3.7301e-05,0.74,0.68,0
0.21041,0.015615,0.25213,-0.32348,-0.23376,-0.20919,0.0029522,0,0,-0.89143,-0.19161,0,0.046055,0,0,0.21449,-0.0063647,0,0.21459,-0.23366,-0.32358,-0.20919,88.117,-0.25548,0.10432,-4.7676e-05,0.76,0.68,0
0.19209,0.014878,0.22635,-0.32275,-0.22558,-0.20222,0.0025037,0,0,-0.94009,-0.18218,0,0.039057,0,0,0.21531,-0.0050341,0,0.21537,-0.22552,-0.32281,-0.20222,88.525,-0.25018,0.11079,-5.9578e-05,0.78,0.68,0
0.1728,0.01424,0.20046,-0.32218,-0.2176,-0.19534,0.0021215,0,0,-0.98932,-0.17362,0,0.033096,0,0,0.21638,-0.0037093,0,0.21641,-0.21756,-0.32222,-0.19534,88.838,-0.24504,0.11736,-7.3093e-05,0.8,0.68,0
0.15252,0.013721,0.17442,-0.32176,-0.20983,-0.18855,0.0018192,0,0,-1.0391,-0.16601,0,0.028379,0,0,0.2177,-0.0024152,0,0.21771,-0.2098,-0.32179,-0.18855,89.069,-0.24005,0.12399,-8.8285e-05,0.82,0.68,0
0.13124,0.013339,0.14821,-0.32147,-0.20227,-0.18183,0.0016106,0,0,-1.0893,-0.15949,0,0.025125,0,0,0.21926,-0.0011965,0,0.21926,-0.20225,-0.3215,-0.18183,89.226,-0.23519,0.13066,-0.00010519,0.84,0.68,0
0.10895,0.013109,0.1218,-0.32128,-0.19493,-0.17516,0.0015066,0,0,-1.1397,-0.15416,0,0.023503,0,0,0.22099,-0.00011826,0,0.22099,-0.19491,-0.3213,-0.17516,89.317,-0.23046,0.13733,-0.0001238,0.86,0.68,0
0.08565,0.013045,0.095172,-0.32114,-0.18778,-0.16854,0.0015138,0,0,-1.1903,-0.15007,0,0.023615,0,0,0.22282,0.00073943,0,0.22282,-0.18776,-0.32116,-0.16854,89.35,-0.22582,0.14398,-0.00014411,0.88,0.68,0
0.061338,0.013156,0.068323,-0.32102,-0.1808,-0.16193,0.0016383,0,0,-1.2409,-0.14716,0,0.025557,0,0,0.22461,0.0012959,0,0.22461,-0.18078,-0.32104,-0.16193,89.331,-0.22125,0.15057,-0.00016609,0.9,0.68,0
0.036016,0.013454,0.041266,-0.32085,-0.17396,-0.15532,0.0018915,0,0,-1.2911,-0.1454,0,0.029507,0,0,0.22619,0.0014925,0,0.2262,-0.17394,-0.32087,-0.15532,89.262,-0.21671,0.15707,-0.00018964,0.92,0.68,0
0.009693,0.013952,0.014037,-0.32065,-0.24201,-0.17699,0.0023177,0,0,-0.73515,-0.14491,0,0.01858,0,0,0.22853,0.0046124,0,0.22861,-0.24154,-0.32111,-0.17699,80.322,-0.24655,0.13779,-6.244e-05,0.94,0.68,0
0.0066097,0.013988,0.0094341,-0.32017,-0.31093,-0.19876,0.0025009,0,0,-0.15783,-0.14582,0,0.0065024,0,0,0.23238,0.0066275,0,0.23249,-0.31029,-0.3208,-0.19876,75.784,-0.27662,0.11714,8.0317e-05,0.96,0.68,0
0.00338,0.01404,0.0047418,-0.31951,-0.30601,-0.1924,0.0016815,0,0,-0.16524,-0.1477,0,0.004372,0,0,0.23585,0.0037638,0,0.23588,-0.30581,-0.31972,-0.1924,83.003,-0.27264,0.12096,8.6867e-05,0.98,0.68,0
0,0.014063,0,-0.31321,-0.29749,-0.18321,0.00044352,0,0,-0.169,-0.14857,0,0.0011531,0,0,0.23709,-2.06e-18,0,0.23709,-0.29748,-0.31322,-0.18321,88.385,-0.26464,0.1229,9.0086e-05,1,0.68,0
0,0.017627,1,-0.4387,-2.1689,-1.7823,-8.8797e-05,0,0,1.7466,-0.50258,0,-0.00023087,0,0,0.22843,-6.0086e-16,0,0.22838,-0.4387,-2.1689,-1.7823,-0.0029406,-1.4633,1.5729,0.1599,0,0.7,0
0.034933,0.017622,0.99543,-0.42872,-2.163,-1.773,0.0035861,0,0,1.7475,-0.50708,0,0.0093239,0,0,0.22221,-0.0099412,0,0.22249,-0.42871,-2.163,-1.773,0.11847,-1.4549,1.5759,0.16025,0.02,0.7,0
0.0699,0.017584,0.99111,-0.41686,-2.1618,-1.7647,0.0052713,0,0,1.7522,-0.51619,0,0.013706,0,0,0.20495,-0.018108,0,0.20607,-0.41685,-2.1618,-1.7647,0.17309,-1.4478,1.5842,0.16175,0.04,0.7,0
0.10502,0.017475,0.98723,-0.3735,-1.318,-1.0833,0.005307,0,0,1.1467,-0.523,0,0.043874,0,0,0.18614,-0.01349,0,0.18711,-0.37341,-1.3181,-1.0833,1.0713,-0.92495,0.85431,0.08148,0.06,0.7,0
0.11577,0.018498,0.96583,-0.34154,-0.51973,-0.41935,0.0041385,0,0,0.60692,-0.78295,0,0.064561,0,0,0.17554,-0.0066963,0,0.17569,-0.34145,-0.51983,-0.41935,1.3298,-0.42688,0.15489,-4.1418e-05,0.08,0.7,0
0.1293,0.018961,0.9451,-0.3257,-0.54471,-0.41864,0.0026111,0,0,0.72491,-0.98334,0,0.040733,0,0,0.16979,-0.0089408,0,0.17005,-0.32567,-0.54474,-0.41864,0.68297,-0.42968,0.19044,-9.1636e-05,0.1,0.7,0
0.14477,0.018883,0.92508,-0.31326,-0.55952,-0.41601,0.001544,0,0,0.80149,-1.1193,0,0.024086,0,0,0.16418,-0.010754,0,0.16455,-0.31325,-0.55953,-0.41601,0.35921,-0.4296,0.21425,-0.00014238,0.12,0.7,0
0.16136,0.018426,0.9057,-0.30417,-0.56624,-0.41207,0.0013751,0,0,0.84167,-1.2025,0,0.021451,0,0,0.15928,-0.012353,0,0.15977,-0.30416,-0.56625,-0.41207,0.30062,-0.42749,0.22815,-0.00018297,0.14,0.7,0
0.17843,0.017789,0.88685,-0.29766,-0.56718,-0.40726,0.0020871,0,0,0.8549,-1.2474,0,0.032559,0,0,0.15539,-0.013899,0,0.15602,-0.29764,-0.56719,-0.40726,0.44365,-0.42403,0.23479,-0.00021042,0.16,0.7,0
0.19555,0.017142,0.86841,-0.29291,-0.56393,-0.40179,0.0034952,0,0,0.84924,-1.2647,0,0.054526,0,0,0.15257,-0.015461,0,0.15335,-0.29287,-0.56398,-0.40179,0.73875,-0.41955,0.2363,-0.00022526,0.18,0.7,0
0.2124,0.016613,0.85024,-0.28942,-0.5574,-0.39575,0.0053872,0,0,0.82942,-1.2609,0,0.08404,0,0,0.15079,-0.017027,0,0.15175,-0.28931,-0.55751,-0.39575,1.1512,-0.41419,0.23391,-0.00022882,0.2,0.7,0
0.22873,0.016285,0.83222,-0.287,-0.54793,-0.38918,0.0075654,0,0,0.79704,-1.2383,0,0.11802,0,0,0.15003,-0.018538,0,0.15117,-0.28678,-0.54815,-0.38918,1.6593,-0.40804,0.22812,-0.00022212,0.22,0.7,0
0.24428,0.016203,0.81423,-0.2858,-0.53543,-0.38207,0.0098412,0,0,0.75092,-1.1962,0,0.15352,0,0,0.15026,-0.019915,0,0.15158,-0.28541,-0.53581,-0.38207,2.2541,-0.4011,0.21872,-0.0002056,0.24,0.7,0
0.25877,0.016377,0.79615,-0.28626,-0.51932,-0.37437,0.01203,0,0,0.68724,-1.1307,0,0.18766,0,0,0.1515,-0.021081,0,0.15296,-0.28564,-0.51994,-0.37437,2.9469,-0.39332,0.20489,-0.00017914,0.26,0.7,0
0.27177,0.01678,0.77787,-0.28901,-0.49859,-0.36593,0.013969,0,0,0.59993,-1.0348,0,0.21791,0,0,0.15371,-0.022005,0,0.15528,-0.28809,-0.49952,-0.36593,3.7965,-0.38451,0.18522,-0.0001429,0.28,0.7,0
0.28276,0.017354,0.75926,-0.29461,-0.47189,-0.35649,0.015549,0,0,0.48268,-0.90007,0,0.24257,0,0,0.15677,-0.022732,0,0.15842,-0.29326,-0.47324,-0.35649,4.9749,-0.37433,0.15815,-9.9174e-05,0.3,0.7,0
0.29108,0.018024,0.74025,-0.30311,-0.43831,-0.3458,0.016787,0,0,0.33301,-0.72159,0,0.26188,0,0,0.16038,-0.023393,0,0.16209,-0.30105,-0.44037,-0.3458,6.9728,-0.36241,0.12319,-5.5072e-05,0.32,0.7,0
0.29608,0.018713,0.72077,-0.33328,-1.0679,-0.84081,0.018925,0,0,0.76403,-0.50615,0,0.16508,0,0,0.16867,-0.084474,0,0.19572,-0.33155,-1.0697,-0.84081,5.4649,-0.74734,0.65822,0.031646,0.34,0.7,0
0.32164,0.014882,0.71727,-0.36067,-1.6661,-1.3253,0.024592,0,0,1.254,-0.44301,0,0.063939,0,0,0.18524,-0.14614,0,0.23617,-0.36021,-1.6665,-1.3253,1.0789,-1.1173,1.1735,0.059953,0.36,0.7,0
0.34624,0.011199,0.71336,-0.37534,-1.5897,-1.3029,0.028367,0,0,1.2058,-0.37285,0,0.073753,0,0,0.20385,-0.14812,0,0.25212,-0.37468,-1.5903,-1.3029,1.3374,-1.0893,1.1005,0.053022,0.38,0.7,0
0.36987,0.0075159,0.70912,-0.38639,-1.5169,-1.2801,0.028525,0,0,1.1618,-0.30784,0,0.074166,0,0,0.21887,-0.1499,0,0.26536,-0.38567,-1.5176,-1.2801,1.4445,-1.0611,1.0339,0.046814,0.4,0.7,0
0.39272,0.003702,0.70461,-0.37404,-0.91567,-0.79793,0.026836,0,0,0.45083,-0.26238,0,0.23833,0,0,0.22851,-0.087859,0,0.25205,-0.3614,-0.92831,-0.79793,22.462,-0.69588,0.52575,0.021886,0.42,0.7,0
0.38791,0.006536,0.67682,-0.36525,-0.36594,-0.33216,0.025052,0,0,-0.25809,-0.2635,0,0.39081,0,0,0.23168,-0.024961,0,0.23302,-0.34054,-0.39065,-0.33216,44.603,-0.35445,0.054782,-7.7819e-06,0.44,0.7,0
0.38239,0.009234,0.64901,-0.36172,-0.35933,-0.32448,0.023308,0,0,-0.29045,-0.27182,0,0.36361,0,0,0.23131,-0.024508,0,0.2326,-0.33719,-0.38386,-0.32448,46.466,-0.34851,0.054158,-6.67e-06,0.46,0.7,0
0.37629,0.011592,0.6213,-0.35764,-0.35276,-0.31667,0.020904,0,0,-0.31955,-0.2815,0,0.32611,0,0,0.23001,-0.023751,0,0.23123,-0.33415,-0.37625,-0.31667,48.327,-0.34236,0.05304,-4.951e-06,0.48,0.7,0
0.36961,0.013499,0.5938,-0.3535,-0.3458,-0.30876,0.018247,0,0,-0.34898,-0.28892,0,0.28466,0,0,0.22816,-0.022743,0,0.22929,-0.331,-0.36829,-0.30876,50.957,-0.33602,0.05211,-3.0619e-06,0.5,0.7,0
0.36233,0.014922,0.56655,-0.34958,-0.33828,-0.30078,0.015629,0,0,-0.38062,-0.29248,0,0.24382,0,0,0.22606,-0.021551,0,0.22709,-0.32731,-0.36055,-0.30078,54.937,-0.32955,0.051868,-1.3829e-06,0.52,0.7,0
0.35439,0.015881,0.53955,-0.34602,-0.33023,-0.2928,0.013224,0,0,-0.4151,-0.29195,0,0.2063,0,0,0.22393,-0.020247,0,0.22484,-0.32272,-0.35352,-0.2928,60.417,-0.32301,0.052591,-1.8742e-07,0.54,0.7,0
0.34573,0.016426,0.5128,-0.34283,-0.32174,-0.28484,0.011113,0,0,-0.45234,-0.28782,0,0.17337,0,0,0.22192,-0.018893,0,0.22272,-0.31696,-0.3476,-0.28484,66.75,-0.31647,0.054363,3.3754e-07,0.56,0.7,0
0.33629,0.01662,0.48629,-0.34,-0.31293,-0.27693,0.0093168,0,0,-0.49196,-0.28083,0,0.14534,0,0,0.2201,-0.017537,0,0.2208,-0.31003,-0.3429,-0.27693,72.728,-0.30995,0.05713,6.162e-08,0.58,0.7,0
0.32605,0.016531,0.45998,-0.33748,-0.30393,-0.26909,0.0078195,0,0,-0.53349,-0.27177,0,0.12198,0,0,0.21854,-0.01621,0,0.21914,-0.3022,-0.33922,-0.26909,77.505,-0.3035,0.060765,-1.1109e-06,0.6,0.7,0
0.31495,0.016222,0.43384,-0.33524,-0.29483,-0.26133,0.006589,0,0,-0.57652,-0.26133,0,0.10279,0,0,0.21725,-0.014928,0,0.21776,-0.29379,-0.33629,-0.26133,80.969,-0.29713,0.065111,-3.2551e-06,0.62,0.7,0
0.30299,0.015751,0.40784,-0.33324,-0.28573,-0.25366,0.0055857,0,0,-0.6207,-0.25009,0,0.087137,0,0,0.21624,-0.013699,0,0.21667,-0.28508,-0.33389,-0.25366,83.385,-0.29088,0.070019,-6.435e-06,0.64,0.7,0
0.29013,0.015168,0.38194,-0.33145,-0.27667,-0.24609,0.004769,0,0,-0.6658,-0.23849,0,0.074397,0,0,0.21549,-0.01252,0,0.21585,-0.27626,-0.33187,-0.24609,85.062,-0.28474,0.075362,-1.071e-05,0.66,0.7,0
0.27636,0.014517,0.35612,-0.32986,-0.26771,-0.23863,0.004101,0,0,-0.71165,-0.22685,0,0.063975,0,0,0.21501,-0.011383,0,0.21532,-0.26744,-0.33013,-0.23863,86.241,-0.27873,0.081038,-1.6142e-05,0.68,0.7,0
0.26166,0.013834,0.33034,-0.32846,-0.25888,-0.23126,0.0035484,0,0,-0.75816,-0.21544,0,0.055356,0,0,0.2148,-0.010278,0,0.21504,-0.2587,-0.32864,-0.23126,87.088,-0.27286,0.08697,-2.2794e-05,0.7,0.7,0
0.24603,0.013148,0.30457,-0.32723,-0.2502,-0.22399,0.0030845,0,0,-0.80526,-0.20443,0,0.048119,0,0,0.21484,-0.0091932,0,0.21504,-0.25007,-0.32735,-0.22399,87.711,-0.26714,0.093101,-3.0739e-05,0.72,0.7,0
0.22945,0.012486,0.27878,-0.32617,-0.24169,-0.21682,0.0026896,0,0,-0.85292,-0.19397,0,0.041958,0,0,0.21514,-0.0081189,0,0.21529,-0.2416,-0.32625,-0.21682,88.178,-0.26156,0.099387,-4.0049e-05,0.74,0.7,0
0.21191,0.011867,0.25294,-0.32527,-0.23336,-0.20975,0.0023516,0,0,-0.90111,-0.18421,0,0.036686,0,0,0.21569,-0.0070467,0,0.21581,-0.2333,-0.32533,-0.20975,88.535,-0.25613,0.10579,-5.0797e-05,0.76,0.7,0
0.1934,0.011313,0.22701,-0.32453,-0.22524,-0.20277,0.002066,0,0,-0.94978,-0.17527,0,0.03223,0,0,0.2165,-0.0059732,0,0.21658,-0.22519,-0.32458,-0.20277,88.808,-0.25084,0.11229,-6.3048e-05,0.78,0.7,0
0.17392,0.01084,0.20097,-0.32393,-0.21732,-0.19587,0.0018343,0,0,-0.99887,-0.1673,0,0.028615,0,0,0.21756,-0.0049016,0,0.21761,-0.21729,-0.32396,-0.19587,89.015,-0.24571,0.11884,-7.6846e-05,0.8,0.7,0
0.15345,0.010464,0.1748,-0.32345,-0.20962,-0.18906,0.0016622,0,0,-1.0483,-0.16044,0,0.025931,0,0,0.21884,-0.0038446,0,0.21887,-0.2096,-0.32347,-0.18906,89.163,-0.24071,0.12541,-9.2216e-05,0.82,0.7,0
0.13199,0.010202,0.14845,-0.32306,-0.20215,-0.18231,0.0015568,0,0,-1.0979,-0.15479,0,0.024286,0,0,0.22031,-0.0028258,0,0.22033,-0.20213,-0.32308,-0.18231,89.262,-0.23584,0.13198,-0.00010916,0.84,0.7,0
0.10953,0.010067,0.12192,-0.32274,-0.1949,-0.17561,0.0015238,0,0,-1.1476,-0.15043,0,0.023772,0,0,0.2219,-0.0018793,0,0.22191,-0.19488,-0.32276,-0.17561,89.317,-0.23109,0.13852,-0.00012766,0.86,0.7,0
0.086085,0.010072,0.095197,-0.32246,-0.18785,-0.16896,0.001567,0,0,-1.1973,-0.14734,0,0.024446,0,0,0.22354,-0.001046,0,0.22354,-0.18783,-0.32248,-0.16896,89.333,-0.22642,0.14501,-0.0001477,0.88,0.7,0
0.061642,0.01023,0.068275,-0.32219,-0.18098,-0.16233,0.0016888,0,0,-1.2469,-0.14545,0,0.026345,0,0,0.22509,-0.00036593,0,0.22509,-0.18096,-0.32221,-0.16233,89.315,-0.22183,0.15143,-0.00016928,0.9,0.7,0
0.036208,0.01055,0.041177,-0.3219,-0.17426,-0.15571,0.0018921,0,0,-1.2963,-0.14469,0,0.029516,0,0,0.2264,0.00013292,0,0.2264,-0.17424,-0.32192,-0.15571,89.266,-0.21729,0.15777,-0.00019235,0.92,0.7,0
0.0097912,0.011046,0.013938,-0.32183,-0.24257,-0.17745,0.0020727,0,0,-0.73805,-0.14512,0,0.017564,0,0,0.22822,0.0015644,0,0.22823,-0.24225,-0.32215,-0.17745,82.073,-0.24728,0.13833,-6.3087e-05,0.94,0.7,0
0.0066864,0.011076,0.0093493,-0.32146,-0.3107,-0.199,0.0018608,0,0,-0.1592,-0.14521,0,0.0048381,0,0,0.23113,0.0024531,0,0.23115,-0.31039,-0.32177,-0.199,80.459,-0.27705,0.1175,8.0678e-05,0.96,0.7,0
0.0034232,0.011106,0.0046932,-0.32096,-0.30465,-0.19237,0.0011198,0,0,-0.16716,-0.14595,0,0.0029114,0,0,0.23373,0.0014471,0,0.23374,-0.30457,-0.32104,-0.19237,86.091,-0.27266,0.12127,8.5931e-05,0.98,0.7,0
0,0.011118,0,-0.31483,-0.29572,-0.18317,0.00023962,0,0,-0.17116,-0.14633,0,0.00062301,0,0,0.23466,1.4366e-18,0,0.23466,-0.29572,-0.31483,-0.18317,89.281,-0.26457,0.12323,8.8362e-05,1,0.7,0
0,0.0074935,1,-0.43917,-2.1666,-1.7817,-0.0013587,0,0,1.7453,-0.50031,0,-0.0035327,0,0,0.22522,2.3015e-15,0,0.2252,-0.43916,-2.1666,-1.7817,-0.045067,-1.4625,1.5708,0.15948,0,0.72,0
0.034907,0.0074228,0.9955,-0.42915,-2.1611,-1.7726,-0.0075052,0,0,1.7464,-0.50506,0,-0.019513,0,0,0.21912,0.0033933,0,0.21923,-0.42912,-2.1611,-1.7726,-0.24828,-1.4543,1.5741,0.15992,0.02,0.72,0
0.069857,0.0072463,0.99123,-0.41703,-2.1604,-1.7645,-0.012479,0,0,1.7516,-0.51468,0,-0.032447,0,0,0.2022,0.0055347,0,0.20261,-0.41694,-2.1604,-1.7645,-0.41012,-1.4473,1.5831,0.16159,0.04,0.72,0
0.10497,0.00701,0.98741,-0.37316,-1.3172,-1.0831,-0.014734,0,0,1.1481,-0.52168,0,-0.13455,0,0,0.18375,0.0031734,0,0.18405,-0.3723,-1.318,-1.0831,-3.3074,-0.92447,0.85528,0.081448,0.06,0.72,0
0.11578,0.0029163,0.96627,-0.34096,-0.52003,-0.41934,-0.013985,0,0,0.61139,-0.78537,0,-0.21817,0,0,0.17333,-0.00074611,0,0.17335,-0.33987,-0.52112,-0.41934,-4.4388,-0.42678,0.15736,-4.2264e-05,0.08,0.72,0
0.12943,-0.00063441,0.94581,-0.32483,-0.54544,-0.41872,-0.011472,0,0,0.73234,-0.98848,0,-0.17896,0,0,0.16763,-0.0028431,0,0.16768,-0.32423,-0.54604,-0.41872,-2.9686,-0.42966,0.19279,-9.3121e-05,0.1,0.72,0
0.14507,-0.003488,0.92604,-0.31211,-0.56063,-0.41616,-0.0085702,0,0,0.81164,-1.1269,0,-0.1337,0,0,0.16206,-0.0052752,0,0.16216,-0.31181,-0.56093,-0.41616,-1.9727,-0.42963,0.21669,-0.00014449,0.12,0.72,0
0.16189,-0.0056714,0.90692,-0.30274,-0.56775,-0.4123,-0.0057917,0,0,0.85453,-1.2125,0,-0.09035,0,0,0.15717,-0.0078878,0,0.15738,-0.30262,-0.56787,-0.4123,-1.2514,-0.4276,0.23086,-0.00018595,0.14,0.72,0
0.17925,-0.0072556,0.88832,-0.29599,-0.56909,-0.40758,-0.0031239,0,0,0.87041,-1.2598,0,-0.048733,0,0,0.15328,-0.010557,0,0.15365,-0.29595,-0.56913,-0.40758,-0.65527,-0.42422,0.23789,-0.00021447,0.16,0.72,0
0.19671,-0.008284,0.87013,-0.29103,-0.56622,-0.4022,-0.00040554,0,0,0.86711,-1.2794,0,-0.0063265,0,0,0.15048,-0.01321,0,0.15106,-0.29103,-0.56622,-0.4022,-0.084435,-0.41982,0.23979,-0.00023035,0.18,0.72,0
0.21394,-0.0087569,0.8522,-0.28738,-0.56001,-0.39625,0.0025012,0,0,0.84918,-1.2773,0,0.039019,0,0,0.14876,-0.01581,0,0.14959,-0.28736,-0.56003,-0.39625,0.52561,-0.41454,0.23773,-0.00023472,0.2,0.72,0
0.23068,-0.0086411,0.83443,-0.28487,-0.55078,-0.38977,0.0056856,0,0,0.81819,-1.2559,0,0.088696,0,0,0.14809,-0.01833,0,0.14922,-0.28475,-0.5509,-0.38977,1.2243,-0.40847,0.2322,-0.00022856,0.22,0.72,0
0.24667,-0.0078763,0.81666,-0.28363,-0.53846,-0.38274,0.0092303,0,0,0.77308,-1.2147,0,0.14399,0,0,0.14849,-0.020733,0,0.14993,-0.28329,-0.5388,-0.38274,2.0716,-0.40161,0.22308,-0.00021239,0.24,0.72,0
0.2616,-0.0063759,0.79879,-0.28405,-0.52252,-0.3751,0.013241,0,0,0.71022,-1.1499,0,0.20655,0,0,0.14995,-0.022959,0,0.15169,-0.28332,-0.52326,-0.3751,3.1682,-0.39389,0.2097,-0.00018635,0.26,0.72,0
0.27508,-0.0040293,0.78068,-0.28678,-0.50193,-0.36673,0.017791,0,0,0.62359,-1.0546,0,0.27753,0,0,0.15243,-0.024906,0,0.15446,-0.28532,-0.50339,-0.36673,4.6951,-0.38515,0.19087,-0.00015076,0.28,0.72,0
0.28654,-0.0007326,0.76221,-0.29241,-0.47522,-0.35732,0.022736,0,0,0.5063,-0.91958,0,0.35469,0,0,0.15577,-0.026447,0,0.15801,-0.28963,-0.478,-0.35732,6.9845,-0.37499,0.16528,-0.00010768,0.3,0.72,0
0.29533,0.003527,0.74329,-0.30109,-0.44117,-0.34656,0.027394,0,0,0.35468,-0.73799,0,0.42735,0,0,0.15961,-0.027477,0,0.16198,-0.29592,-0.44634,-0.34656,10.68,-0.36294,0.13256,-6.3483e-05,0.32,0.72,0
0.30073,0.0085379,0.7239,-0.33229,-1.0755,-0.84461,0.032958,0,0,0.7786,-0.51455,0,0.28167,0,0,0.16816,-0.098012,0,0.20328,-0.32766,-1.0801,-0.84461,8.473,-0.7508,0.67035,0.032369,0.34,0.72,0
0.32647,0.0060015,0.7204,-0.36045,-1.6737,-1.3307,0.042471,0,0,1.2613,-0.44601,0,0.11042,0,0,0.18507,-0.16737,0,0.24975,-0.35907,-1.6751,-1.3307,1.8503,-1.1216,1.1821,0.061176,0.36,0.72,0
0.35118,0.0037606,0.71649,-0.37628,-1.59,-1.3064,0.046086,0,0,1.2091,-0.3687,0,0.11982,0,0,0.20406,-0.16528,0,0.26274,-0.37454,-1.5917,-1.3064,2.1714,-1.0909,1.1026,0.053608,0.38,0.72,0
0.37484,0.0014176,0.71224,-0.38849,-1.5099,-1.2818,0.03937,0,0,1.1612,-0.29658,0,0.10236,0,0,0.21943,-0.16273,0,0.27326,-0.3871,-1.5113,-1.2818,2.0082,-1.06,1.0288,0.046679,0.4,0.72,0
0.39763,-0.0014602,0.70772,-0.37637,-0.90837,-0.79826,0.027819,0,0,0.44115,-0.24538,0,0.22714,0,0,0.22934,-0.093667,0,0.25573,-0.36359,-0.92114,-0.79826,23.822,-0.69433,0.51937,0.0216,0.42,0.72,0
0.39248,0.0014382,0.67982,-0.36839,-0.36398,-0.33302,0.021795,0,0,-0.27593,-0.24155,0,0.34001,0,0,0.23265,-0.025047,0,0.234,-0.34428,-0.38809,-0.33302,47.887,-0.35513,0.050399,-5.4836e-06,0.44,0.72,0
0.3866,0.0040246,0.65188,-0.36479,-0.35689,-0.32515,0.019249,0,0,-0.30919,-0.24754,0,0.30029,0,0,0.23237,-0.023474,0,0.23355,-0.34119,-0.38049,-0.32515,50.8,-0.34894,0.049316,-4.0356e-06,0.46,0.72,0
0.38011,0.006211,0.62405,-0.36052,-0.35016,-0.31721,0.016665,0,0,-0.33784,-0.25696,0,0.25998,0,0,0.23115,-0.022017,0,0.2322,-0.33789,-0.37279,-0.31721,53.641,-0.34263,0.048658,-2.5216e-06,0.48,0.72,0
0.37308,0.0079682,0.5964,-0.35614,-0.34326,-0.30922,0.014202,0,0,-0.36595,-0.26554,0,0.22154,0,0,0.22937,-0.020647,0,0.2303,-0.33411,-0.36529,-0.30922,57.192,-0.33621,0.048662,-1.1423e-06,0.5,0.72,0
0.36548,0.0093042,0.569,-0.35196,-0.33597,-0.30121,0.01195,0,0,-0.39584,-0.27108,0,0.18642,0,0,0.22731,-0.019347,0,0.22813,-0.32958,-0.35834,-0.30121,61.896,-0.32971,0.049477,-7.2869e-08,0.52,0.72,0
0.35725,0.010251,0.54185,-0.34814,-0.3282,-0.29321,0.0099588,0,0,-0.42847,-0.27289,0,0.15536,0,0,0.22519,-0.018108,0,0.22592,-0.32407,-0.35226,-0.29321,67.52,-0.32318,0.051159,5.3935e-07,0.54,0.72,0
0.34834,0.010854,0.51495,-0.34473,-0.32,-0.28525,0.0082446,0,0,-0.46396,-0.27113,0,0.12862,0,0,0.22316,-0.01693,0,0.22381,-0.31751,-0.34722,-0.28525,73.148,-0.31666,0.053691,5.6505e-07,0.56,0.72,0
0.33869,0.011164,0.48829,-0.3417,-0.31149,-0.27734,0.0068024,0,0,-0.50204,-0.26636,0,0.10612,0,0,0.22132,-0.015812,0,0.22188,-0.31003,-0.34317,-0.27734,77.88,-0.31018,0.057007,-1.1253e-07,0.58,0.72,0
0.32826,0.011234,0.46184,-0.33904,-0.30275,-0.26951,0.0056133,0,0,-0.54231,-0.25928,0,0.087567,0,0,0.21971,-0.014752,0,0.2202,-0.3019,-0.33988,-0.26951,81.404,-0.30376,0.061011,-1.5989e-06,0.6,0.72,0
0.317,0.011116,0.43556,-0.33668,-0.29388,-0.26176,0.0046504,0,0,-0.58435,-0.25054,0,0.072547,0,0,0.21837,-0.01375,0,0.2188,-0.29338,-0.33718,-0.26176,83.869,-0.29744,0.065595,-3.9892e-06,0.62,0.72,0
0.30488,0.010855,0.40943,-0.33459,-0.28497,-0.25411,0.0038831,0,0,-0.6278,-0.2407,0,0.060577,0,0,0.2173,-0.012799,0,0.21768,-0.28466,-0.33489,-0.25411,85.553,-0.29122,0.070653,-7.3706e-06,0.64,0.72,0
0.29189,0.010492,0.38341,-0.33275,-0.27606,-0.24654,0.0032798,0,0,-0.6724,-0.23023,0,0.051164,0,0,0.21652,-0.011893,0,0.21684,-0.27587,-0.33294,-0.24654,86.7,-0.28512,0.076094,-1.1826e-05,0.66,0.72,0
0.27799,0.010065,0.35747,-0.33113,-0.26722,-0.23908,0.0028097,0,0,-0.71796,-0.21949,0,0.043831,0,0,0.21601,-0.011024,0,0.21629,-0.2671,-0.33125,-0.23908,87.487,-0.27914,0.08184,-1.7435e-05,0.68,0.72,0
0.26317,0.0096027,0.33157,-0.32971,-0.25848,-0.23172,0.0024448,0,0,-0.76433,-0.20875,0,0.038139,0,0,0.21576,-0.010182,0,0.216,-0.2584,-0.3298,-0.23172,88.037,-0.27331,0.087829,-2.4278e-05,0.7,0.72,0
0.24741,0.0091319,0.30568,-0.32849,-0.24987,-0.22445,0.0021608,0,0,-0.81144,-0.19827,0,0.033709,0,0,0.21579,-0.0093591,0,0.21599,-0.24981,-0.32854,-0.22445,88.427,-0.2676,0.094011,-3.2436e-05,0.72,0.72,0
0.23071,0.0086739,0.27978,-0.32744,-0.24142,-0.21729,0.0019381,0,0,-0.85918,-0.18822,0,0.030234,0,0,0.21608,-0.0085454,0,0.21625,-0.24137,-0.32748,-0.21729,88.71,-0.26205,0.10034,-4.1983e-05,0.74,0.72,0
0.21305,0.0082469,0.25382,-0.32655,-0.23314,-0.21021,0.0017621,0,0,-0.90748,-0.17882,0,0.027489,0,0,0.21664,-0.0077325,0,0.21678,-0.2331,-0.32659,-0.21021,88.92,-0.25663,0.10679,-5.2984e-05,0.76,0.72,0
0.19441,0.0078669,0.22778,-0.32582,-0.22505,-0.20322,0.0016241,0,0,-0.95625,-0.17023,0,0.025337,0,0,0.21745,-0.0069134,0,0.21756,-0.22502,-0.32585,-0.20322,89.077,-0.25137,0.11331,-6.5488e-05,0.78,0.72,0
0.1748,0.0075479,0.20163,-0.32521,-0.21718,-0.19632,0.0015206,0,0,-1.0054,-0.16265,0,0.02372,0,0,0.21851,-0.0060831,0,0.21859,-0.21715,-0.32524,-0.19632,89.194,-0.24624,0.11986,-7.9519e-05,0.8,0.72,0
0.1542,0.0073035,0.17534,-0.32471,-0.20953,-0.1895,0.0014524,0,0,-1.0547,-0.15624,0,0.022657,0,0,0.21978,-0.0052398,0,0.21984,-0.20951,-0.32473,-0.1895,89.278,-0.24124,0.12642,-9.5072e-05,0.82,0.72,0
0.13261,0.007147,0.14889,-0.32429,-0.20211,-0.18274,0.0014238,0,0,-1.1041,-0.15112,0,0.022211,0,0,0.22122,-0.0043858,0,0.22126,-0.20209,-0.32431,-0.18274,89.332,-0.23638,0.13295,-0.00011213,0.84,0.72,0
0.11003,0.0070917,0.12225,-0.32392,-0.19492,-0.17603,0.0014405,0,0,-1.1536,-0.14736,0,0.022471,0,0,0.22277,-0.0035272,0,0.2228,-0.1949,-0.32394,-0.17603,89.36,-0.23162,0.13943,-0.00013066,0.86,0.72,0
0.086465,0.0071511,0.095423,-0.32358,-0.18794,-0.16936,0.0015076,0,0,-1.2029,-0.14492,0,0.023518,0,0,0.22433,-0.0026741,0,0.22435,-0.18792,-0.3236,-0.16936,89.363,-0.22696,0.14584,-0.00015066,0.88,0.72,0
0.061914,0.0073385,0.068411,-0.32325,-0.18114,-0.16272,0.001628,0,0,-1.2521,-0.14368,0,0.025397,0,0,0.22579,-0.0018382,0,0.2258,-0.18112,-0.32326,-0.16272,89.344,-0.22237,0.15218,-0.00017213,0.9,0.72,0
0.03638,0.0076666,0.041234,-0.32289,-0.17449,-0.15609,0.0018008,0,0,-1.3011,-0.14354,0,0.028092,0,0,0.227,-0.00103,0,0.22701,-0.17447,-0.32292,-0.15609,89.305,-0.21782,0.15844,-0.00019504,0.92,0.72,0
0.0098699,0.008147,0.01393,-0.32286,-0.24262,-0.17777,0.0018492,0,0,-0.74091,-0.14452,0,0.016245,0,0,0.22861,-0.00089547,0,0.22862,-0.24241,-0.32307,-0.17777,83.882,-0.24775,0.13876,-6.4264e-05,0.94,0.72,0
0.0067436,0.0081792,0.009336,-0.32255,-0.31021,-0.19916,0.001448,0,0,-0.1604,-0.14436,0,0.0037648,0,0,0.23115,-0.00087748,0,0.23115,-0.31004,-0.32271,-0.19916,83.394,-0.27731,0.11773,8.054e-05,0.96,0.72,0
0.0034539,0.0082015,0.004684,-0.32212,-0.30372,-0.19243,0.00077631,0,0,-0.16859,-0.14467,0,0.0020184,0,0,0.2334,-0.00038999,0,0.2334,-0.30368,-0.32215,-0.19243,87.588,-0.27276,0.12154,8.5078e-05,0.98,0.72,0
0,0.0082097,0,-0.31604,-0.29462,-0.1832,0.00015694,0,0,-0.1727,-0.14484,0,0.00040804,0,0,0.2342,-2.3852e-18,0,0.2342,-0.29462,-0.31604,-0.1832,89.58,-0.26462,0.12353,8.7084e-05,1,0.72,0
0,-0.0023852,1,-0.45824,-2.1461,-1.7813,-0.0037469,0,0,1.72,-0.47423,0,-0.0097419,0,0,0.23522,-9.4195e-16,0,0.23508,-0.45823,-2.1461,-1.7813,-0.12719,-1.4619,1.5383,0.15209,0,0.74,0
0.034399,-0.0025801,0.9953,-0.44548,-2.1458,-1.7727,-0.022138,0,0,1.7254,-0.48509,0,-0.05756,0,0,0.22774,0.018027,0,0.22848,-0.44519,-2.1461,-1.7727,-0.74582,-1.4547,1.5484,0.15391,0.02,0.74,0
0.069015,-0.0030032,0.99089,-0.42892,-2.1574,-1.7668,-0.034764,0,0,1.7392,-0.50778,0,-0.090386,0,0,0.207,0.031634,0,0.20985,-0.42822,-2.1581,-1.7668,-1.1518,-1.451,1.5712,0.15833,0.04,0.74,0
0.10397,-0.0033923,0.98702,-0.37766,-1.3171,-1.0842,-0.03715,0,0,1.1418,-0.51908,0,-0.32871,0,0,0.18439,0.021559,0,0.18657,-0.3728,-1.322,-1.0842,-7.5925,-0.92632,0.85806,0.080464,0.06,0.74,0
0.11469,-0.012917,0.96601,-0.34264,-0.52536,-0.4214,-0.033109,0,0,0.61438,-0.81091,0,-0.5165,0,0,0.17179,0.0056999,0,0.17192,-0.33682,-0.53118,-0.4214,-9.9598,-0.4298,0.16879,-5.4893e-05,0.08,0.74,0
0.12854,-0.020578,0.94579,-0.32512,-0.5512,-0.42053,-0.025877,0,0,0.7442,-1.0193,0,-0.40369,0,0,0.16526,0.0035994,0,0.16533,-0.32219,-0.55413,-0.42053,-6.4469,-0.43228,0.20163,-0.00010933,0.1,0.74,0
0.14446,-0.026192,0.92635,-0.31185,-0.56524,-0.41752,-0.018849,0,0,0.82418,-1.1522,0,-0.29404,0,0,0.15913,0.00036846,0,0.15915,-0.31046,-0.56663,-0.41752,-4.2312,-0.43154,0.22284,-0.00015898,0.12,0.74,0
0.16151,-0.030073,0.9076,-0.3024,-0.57148,-0.41343,-0.01317,0,0,0.86602,-1.2328,0,-0.20546,0,0,0.154,-0.0033898,0,0.15405,-0.30176,-0.57212,-0.41343,-2.7955,-0.4291,0.23532,-0.00019793,0.14,0.74,0
0.1791,-0.032604,0.88939,-0.29551,-0.57247,-0.40862,-0.0085896,0,0,0.88227,-1.278,0,-0.134,0,0,0.15007,-0.0072421,0,0.15024,-0.29525,-0.57273,-0.40862,-1.7747,-0.42553,0.24164,-0.00022485,0.16,0.74,0
0.1968,-0.034034,0.87158,-0.29034,-0.56958,-0.40324,-0.0045318,0,0,0.8806,-1.2975,0,-0.070695,0,0,0.14732,-0.011012,0,0.14772,-0.29027,-0.56965,-0.40324,-0.92953,-0.42105,0.24343,-0.00024005,0.18,0.74,0
0.21432,-0.034479,0.85403,-0.28646,-0.56354,-0.39734,-0.00055426,0,0,0.86489,-1.2964,0,-0.0086465,0,0,0.14567,-0.014668,0,0.1464,-0.28645,-0.56354,-0.39734,-0.11461,-0.41578,0.24156,-0.00024434,0.2,0.74,0
0.2314,-0.033952,0.83662,-0.28371,-0.55466,-0.39095,0.0036763,0,0,0.83646,-1.277,0,0.057351,0,0,0.14511,-0.01823,0,0.14624,-0.28366,-0.55471,-0.39095,0.77721,-0.40977,0.23643,-0.00023859,0.22,0.74,0
0.24778,-0.032384,0.81921,-0.28217,-0.54287,-0.38405,0.0084777,0,0,0.79463,-1.2388,0,0.13225,0,0,0.14563,-0.021717,0,0.14724,-0.2819,-0.54315,-0.38405,1.8606,-0.40303,0.22803,-0.0002234,0.24,0.74,0
0.26318,-0.029618,0.80166,-0.28219,-0.52775,-0.37659,0.014224,0,0,0.73632,-1.179,0,0.22189,0,0,0.14733,-0.025098,0,0.14945,-0.28137,-0.52857,-0.37659,3.3041,-0.39551,0.21595,-0.00019921,0.26,0.74,0
0.27723,-0.025404,0.78385,-0.28445,-0.50829,-0.36846,0.021318,0,0,0.65533,-1.0907,0,0.33256,0,0,0.15022,-0.028215,0,0.15286,-0.28243,-0.51031,-0.36846,5.392,-0.38707,0.19931,-0.00016634,0.28,0.74,0
0.2894,-0.019429,0.76561,-0.28992,-0.48268,-0.35938,0.02978,0,0,0.54182,-0.96175,0,0.46457,0,0,0.1542,-0.030708,0,0.15724,-0.28542,-0.48718,-0.35938,8.5849,-0.37733,0.17679,-0.00012562,0.3,0.74,0
0.2989,-0.011496,0.74684,-0.29899,-0.44812,-0.3486,0.038447,0,0,0.38704,-0.77622,0,0.59977,0,0,0.15882,-0.032136,0,0.16206,-0.28966,-0.45745,-0.3486,13.638,-0.36524,0.14744,-8.0369e-05,0.32,0.74,0
0.30488,-0.0018687,0.72749,-0.33226,-1.0886,-0.85063,0.048293,0,0,0.79829,-0.53034,0,0.40662,0,0,0.1688,-0.1129,0,0.21323,-0.32356,-1.0973,-0.85063,10.869,-0.75716,0.68812,0.033261,0.34,0.74,0
0.33084,-0.002958,0.72397,-0.36221,-1.6848,-1.3381,0.062777,0,0,1.2686,-0.45077,0,0.16322,0,0,0.18798,-0.19021,0,0.26767,-0.35924,-1.6878,-1.3381,2.7114,-1.1284,1.1928,0.062563,0.36,0.74,0
0.35562,-0.0035492,0.71997,-0.37963,-1.5854,-1.3095,0.065621,0,0,1.2088,-0.3587,0,0.17061,0,0,0.20849,-0.18281,0,0.27741,-0.37607,-1.589,-1.3095,3.1059,-1.0915,1.1001,0.05379,0.38,0.74,0
0.37919,-0.0043475,0.71563,-0.3935,-1.4918,-1.2812,0.050863,0,0,1.154,-0.27375,0,0.13225,0,0,0.22358,-0.17496,0,0.28395,-0.39115,-1.4941,-1.2812,2.6459,-1.0555,1.0134,0.045606,0.4,0.74,0
0.40178,-0.0061134,0.71103,-0.37985,-0.89054,-0.79589,0.028487,0,0,0.42084,-0.21094,0,0.21185,0,0,0.23238,-0.098904,0,0.26112,-0.36588,-0.90451,-0.79589,26.772,-0.68876,0.50595,0.020682,0.42,0.74,0
0.39602,-0.0031261,0.68283,-0.37291,-0.36097,-0.33397,0.01805,0,0,-0.30374,-0.21063,0,0.28158,0,0,0.23497,-0.024982,0,0.23629,-0.34793,-0.38595,-0.33397,54.149,-0.35595,0.046599,-3.6676e-06,0.44,0.74,0
0.38963,-0.00066773,0.65464,-0.36845,-0.35418,-0.3259,0.01472,0,0,-0.33194,-0.2206,0,0.22964,0,0,0.23434,-0.022327,0,0.2354,-0.34496,-0.37767,-0.3259,57.933,-0.34951,0.045359,-2.0996e-06,0.46,0.74,0
0.38275,0.0013135,0.62659,-0.36348,-0.34775,-0.3178,0.012012,0,0,-0.3563,-0.2336,0,0.18738,0,0,0.23283,-0.0202,0,0.23371,-0.34126,-0.36997,-0.3178,61.609,-0.34301,0.045259,-8.2624e-07,0.48,0.74,0
0.37538,0.0028776,0.59876,-0.35855,-0.34114,-0.3097,0.0097971,0,0,-0.38102,-0.24525,0,0.15283,0,0,0.23083,-0.018486,0,0.23157,-0.33674,-0.36295,-0.3097,65.807,-0.33647,0.046117,1.3643e-07,0.5,0.74,0
0.3675,0.004079,0.57119,-0.35396,-0.33412,-0.30162,0.0079647,0,0,-0.40821,-0.25349,0,0.12425,0,0,0.2286,-0.017083,0,0.22924,-0.33132,-0.35676,-0.30162,70.617,-0.3299,0.047797,7.4696e-07,0.52,0.74,0
0.35905,0.0049657,0.5439,-0.34982,-0.32661,-0.29358,0.0064366,0,0,-0.43866,-0.25768,0,0.10041,0,0,0.22635,-0.01591,0,0.22691,-0.32495,-0.35148,-0.29358,75.489,-0.32334,0.050205,9.3608e-07,0.54,0.74,0
0.34996,0.0055809,0.51687,-0.34615,-0.31868,-0.28559,0.0051649,0,0,-0.47237,-0.25805,0,0.080572,0,0,0.22421,-0.014906,0,0.22471,-0.31774,-0.34709,-0.28559,79.698,-0.31681,0.053278,6.0972e-07,0.56,0.74,0
0.34016,0.0059658,0.49008,-0.34293,-0.3104,-0.27768,0.0041187,0,0,-0.50898,-0.25519,0,0.064252,0,0,0.22228,-0.014026,0,0.22273,-0.30988,-0.34345,-0.27768,82.897,-0.31034,0.05696,-3.4027e-07,0.58,0.74,0
0.3296,0.0061596,0.46352,-0.34011,-0.30187,-0.26985,0.0032752,0,0,-0.54805,-0.24978,0,0.051093,0,0,0.2206,-0.013238,0,0.221,-0.30159,-0.34039,-0.26985,85.14,-0.30394,0.061192,-2.0253e-06,0.6,0.74,0
0.31824,0.0062001,0.43714,-0.33763,-0.29319,-0.2621,0.0026134,0,0,-0.58912,-0.24249,0,0.040769,0,0,0.21921,-0.012519,0,0.21956,-0.29304,-0.33779,-0.2621,86.646,-0.29764,0.065905,-4.5541e-06,0.62,0.74,0
0.30603,0.0061224,0.41091,-0.33546,-0.28444,-0.25445,0.0021118,0,0,-0.63183,-0.23387,0,0.032944,0,0,0.21809,-0.011854,0,0.21841,-0.28435,-0.33554,-0.25445,87.634,-0.29145,0.07103,-8.0303e-06,0.64,0.74,0
0.29296,0.0059586,0.3848,-0.33355,-0.27567,-0.2469,0.0017476,0,0,-0.6759,-0.2244,0,0.027263,0,0,0.21727,-0.011229,0,0.21756,-0.27562,-0.33361,-0.2469,88.272,-0.28537,0.076503,-1.2554e-05,0.66,0.74,0
0.279,0.0057374,0.35877,-0.33189,-0.26694,-0.23944,0.0014976,0,0,-0.7211,-0.21446,0,0.023363,0,0,0.21673,-0.010637,0,0.21699,-0.2669,-0.33193,-0.23944,88.68,-0.27942,0.082266,-1.8224e-05,0.68,0.74,0
0.26412,0.0054834,0.33278,-0.33046,-0.25828,-0.23209,0.0013384,0,0,-0.7673,-0.20433,0,0.020879,0,0,0.21646,-0.010068,0,0.2167,-0.25826,-0.33048,-0.23209,88.938,-0.27361,0.08827,-2.5136e-05,0.7,0.74,0
0.24831,0.0052174,0.30682,-0.32923,-0.24973,-0.22482,0.0012478,0,0,-0.81436,-0.19429,0,0.019466,0,0,0.21648,-0.0095159,0,0.21669,-0.24971,-0.32925,-0.22482,89.101,-0.26793,0.094472,-3.3383e-05,0.72,0.74,0
0.23154,0.0049565,0.28083,-0.3282,-0.24132,-0.21766,0.0012058,0,0,-0.86218,-0.18456,0,0.01881,0,0,0.21677,-0.0089714,0,0.21695,-0.2413,-0.32821,-0.21766,89.205,-0.26239,0.10083,-4.305e-05,0.74,0.74,0
0.21382,0.0047148,0.25479,-0.32734,-0.23307,-0.21059,0.0011952,0,0,-0.91065,-0.17536,0,0.018644,0,0,0.21733,-0.0084253,0,0.21749,-0.23306,-0.32735,-0.21059,89.274,-0.257,0.10731,-5.4207e-05,0.76,0.74,0
0.19512,0.0045039,0.22867,-0.32663,-0.225,-0.2036,0.0012027,0,0,-0.95964,-0.16693,0,0.018763,0,0,0.21815,-0.0078658,0,0.21829,-0.22499,-0.32665,-0.2036,89.322,-0.25175,0.11387,-6.69e-05,0.78,0.74,0
0.17543,0.0043339,0.20244,-0.32606,-0.21715,-0.1967,0.0012202,0,0,-1.009,-0.15948,0,0.019036,0,0,0.21923,-0.0072789,0,0.21935,-0.21713,-0.32607,-0.1967,89.358,-0.24664,0.12046,-8.1143e-05,0.8,0.74,0
0.15476,0.0042146,0.17605,-0.32559,-0.20952,-0.18987,0.001245,0,0,-1.0586,-0.15322,0,0.019421,0,0,0.22054,-0.0066473,0,0.22064,-0.2095,-0.3256,-0.18987,89.386,-0.24166,0.12706,-9.6919e-05,0.82,0.74,0
0.13309,0.0041566,0.14951,-0.32519,-0.20213,-0.18311,0.00128,0,0,-1.1082,-0.14831,0,0.019968,0,0,0.22202,-0.0059515,0,0.2221,-0.20211,-0.3252,-0.18311,89.404,-0.23681,0.13361,-0.00011419,0.84,0.74,0
0.11043,0.0041722,0.12277,-0.32483,-0.19497,-0.1764,0.0013331,0,0,-1.1578,-0.14483,0,0.020796,0,0,0.22362,-0.0051705,0,0.22368,-0.19496,-0.32485,-0.1764,89.412,-0.23207,0.14009,-0.0001329,0.86,0.74,0
0.086779,0.0042756,0.095839,-0.3245,-0.18803,-0.16973,0.0014135,0,0,-1.2072,-0.14274,0,0.022051,0,0,0.22523,-0.0042849,0,0.22527,-0.18802,-0.32451,-0.16973,89.407,-0.22742,0.1465,-0.00015303,0.88,0.74,0
0.062143,0.0044827,0.068716,-0.32416,-0.18128,-0.16308,0.0015276,0,0,-1.2564,-0.1419,0,0.023831,0,0,0.22673,-0.0032811,0,0.22675,-0.18126,-0.32418,-0.16308,89.388,-0.22284,0.15282,-0.00017458,0.9,0.74,0
0.036524,0.0048086,0.041424,-0.3238,-0.17467,-0.15644,0.001673,0,0,-1.3054,-0.14216,0,0.026099,0,0,0.22798,-0.0021563,0,0.228,-0.17465,-0.32382,-0.15644,89.357,-0.2183,0.15905,-0.00019755,0.92,0.74,0
0.0099284,0.0052651,0.014,-0.32374,-0.24238,-0.178,0.0016208,0,0,-0.74353,-0.14347,0,0.014731,0,0,0.22965,-0.0032283,0,0.22969,-0.24225,-0.32387,-0.178,85.448,-0.24804,0.13909,-6.5717e-05,0.94,0.74,0
0.0067825,0.0053013,0.0093844,-0.32341,-0.30956,-0.19928,0.0010892,0,0,-0.16137,-0.14338,0,0.0028318,0,0,0.23228,-0.0040222,0,0.23232,-0.30948,-0.32349,-0.19928,85.529,-0.27742,0.11784,8.0042e-05,0.96,0.74,0
0.0034735,0.0053191,0.0047088,-0.32296,-0.3031,-0.19253,0.00048839,0,0,-0.16956,-0.14375,0,0.0012698,0,0,0.23461,-0.0021205,0,0.23462,-0.30309,-0.32297,-0.19253,88.592,-0.27286,0.12173,8.4368e-05,0.98,0.74,0
0,0.0053245,0,-0.31684,-0.29398,-0.18325,0.00010328,0,0,-0.17368,-0.14395,0,0.00026854,0,0,0.23544,-6.1799e-18,0,0.23544,-0.29398,-0.31684,-0.18325,89.741,-0.26469,0.12376,8.6259e-05,1,0.74,0
0,-0.011476,1,-0.50186,-2.0969,-1.7796,-0.0097153,0,0,1.6611,-0.41247,0,-0.02526,0,0,0.26128,6.9389e-18,0,0.2608,-0.5018,-2.097,-1.7796,-0.34896,-1.4595,1.4626,0.13553,0,0.76,0
0.033222,-0.011981,0.99477,-0.48365,-2.1109,-1.7732,-0.047895,0,0,1.6764,-0.43913,0,-0.12453,0,0,0.25076,0.037143,0,0.25334,-0.48224,-2.1124,-1.7732,-1.6844,-1.4559,1.4898,0.14059,0.02,0.76,0
0.067054,-0.013065,0.98997,-0.45512,-2.154,-1.7727,-0.070387,0,0,1.7129,-0.49572,0,-0.18301,0,0,0.22113,0.066512,0,0.23162,-0.45221,-2.157,-1.7727,-2.3684,-1.4606,1.5488,0.15195,0.04,0.76,0
0.10174,-0.013753,0.98593,-0.38801,-1.3245,-1.0889,-0.067653,0,0,1.1313,-0.52504,0,-0.5708,0,0,0.18861,0.046704,0,0.19715,-0.37476,-1.3377,-1.0889,-11.72,-0.93378,0.86892,0.079166,0.06,0.76,0
0.11231,-0.02952,0.96491,-0.3468,-0.53829,-0.42634,-0.054418,0,0,0.62046,-0.87317,0,-0.84892,0,0,0.17077,0.013959,0,0.1714,-0.33241,-0.55267,-0.42634,-14.806,-0.43714,0.19144,-9.06e-05,0.08,0.76,0
0.12656,-0.041405,0.94495,-0.32627,-0.5622,-0.42403,-0.040683,0,0,0.76254,-1.0777,0,-0.63465,0,0,0.1623,0.01122,0,0.16273,-0.31945,-0.56902,-0.42403,-9.5139,-0.4375,0.21707,-0.000145,0.1,0.76,0
0.14281,-0.049576,0.92595,-0.31255,-0.5731,-0.42002,-0.029136,0,0,0.83827,-1.194,0,-0.45452,0,0,0.15507,0.0064121,0,0.15522,-0.30933,-0.57631,-0.42002,-6.3034,-0.43522,0.23234,-0.00018722,0.12,0.76,0
0.16009,-0.054983,0.90773,-0.30308,-0.57734,-0.41542,-0.020738,0,0,0.87619,-1.263,0,-0.32351,0,0,0.14956,0.0011126,0,0.14957,-0.30152,-0.5789,-0.41542,-4.2998,-0.43195,0.24149,-0.00021969,0.14,0.76,0
0.17785,-0.058374,0.89006,-0.29604,-0.57737,-0.41036,-0.014325,0,0,0.89175,-1.3026,0,-0.22347,0,0,0.14566,-0.0040495,0,0.14571,-0.29531,-0.57809,-0.41036,-2.9075,-0.42792,0.24631,-0.00024245,0.16,0.76,0
0.19576,-0.060182,0.87277,-0.29057,-0.57407,-0.40485,-0.0089234,0,0,0.89142,-1.3199,0,-0.1392,0,0,0.14305,-0.0089434,0,0.14332,-0.29029,-0.57435,-0.40485,-1.8011,-0.42317,0.24753,-0.00025505,0.18,0.76,0
0.21351,-0.060613,0.85573,-0.2864,-0.56806,-0.39896,-0.0038508,0,0,0.87799,-1.319,0,-0.060073,0,0,0.14154,-0.01362,0,0.14218,-0.28634,-0.56811,-0.39896,-0.78313,-0.4178,0.24565,-0.00025821,0.2,0.76,0
0.23088,-0.05972,0.8388,-0.28335,-0.55958,-0.39268,0.0014159,0,0,0.85278,-1.3018,0,0.022088,0,0,0.14105,-0.01819,0,0.1422,-0.28334,-0.55959,-0.39268,0.29367,-0.41187,0.24096,-0.00025263,0.22,0.76,0
0.24762,-0.05743,0.82188,-0.28145,-0.54861,-0.386,0.0073883,0,0,0.8155,-1.2684,0,0.11526,0,0,0.14162,-0.02277,0,0.14343,-0.28124,-0.54882,-0.386,1.5829,-0.40535,0.23354,-0.00023896,0.24,0.76,0
0.2635,-0.053536,0.80481,-0.28086,-0.5348,-0.37883,0.014686,0,0,0.76416,-1.2165,0,0.22911,0,0,0.14345,-0.027424,0,0.14604,-0.28002,-0.53565,-0.37883,3.299,-0.39817,0.22327,-0.00021772,0.26,0.76,0
0.27819,-0.047656,0.78745,-0.28233,-0.51746,-0.37118,0.024089,0,0,0.69304,-1.141,0,0.37579,0,0,0.14682,-0.032057,0,0.15028,-0.27988,-0.5199,-0.37118,5.7896,-0.39032,0.20984,-0.00018996,0.28,0.76,0
0.29122,-0.039203,0.76958,-0.28726,-0.49454,-0.3628,0.036353,0,0,0.58922,-1.0276,0,0.56711,0,0,0.15185,-0.036125,0,0.15611,-0.28107,-0.50073,-0.3628,9.6647,-0.38154,0.19229,-0.00015553,0.3,0.76,0
0.30176,-0.027522,0.751,-0.2975,-0.46112,-0.35275,0.050303,0,0,0.431,-0.84525,0,0.78472,0,0,0.15807,-0.038306,0,0.16268,-0.28327,-0.47534,-0.35275,15.793,-0.37045,0.16845,-0.00011225,0.32,0.76,0
0.30846,-0.012675,0.73164,-0.33437,-1.1101,-0.86013,0.067619,0,0,0.82307,-0.55705,0,0.55496,0,0,0.17137,-0.13219,0,0.22812,-0.32007,-1.1244,-0.86013,12.92,-0.7682,0.7135,0.034355,0.34,0.76,0
0.33468,-0.012029,0.72801,-0.36839,-1.6982,-1.348,0.088018,0,0,1.2735,-0.45523,0,0.22885,0,0,0.19581,-0.21751,0,0.29298,-0.36259,-1.704,-1.348,3.7705,-1.1382,1.2035,0.063834,0.36,0.76,0
0.3594,-0.010587,0.72381,-0.38831,-1.5709,-1.3116,0.087663,0,0,1.2002,-0.33713,0,0.22792,0,0,0.21931,-0.20053,0,0.29722,-0.38184,-1.5774,-1.3116,4.2165,-1.0903,1.0873,0.052951,0.38,0.76,0
0.38269,-0.0095325,0.71924,-0.40366,-1.4604,-1.2784,0.060468,0,0,1.1372,-0.23647,0,0.15722,0,0,0.23269,-0.18387,0,0.29653,-0.40021,-1.4638,-1.2784,3.2645,-1.0475,0.98409,0.043152,0.4,0.76,0
0.40488,-0.0098979,0.7145,-0.386,-0.86377,-0.79172,0.027211,0,0,0.39024,-0.16056,0,0.17979,0,0,0.23803,-0.10171,0,0.26751,-0.36989,-0.87988,-0.79172,31.804,-0.6805,0.48532,0.019009,0.42,0.76,0
0.3983,-0.0069869,0.68581,-0.37839,-0.3572,-0.33498,0.012886,0,0,-0.3386,-0.17334,0,0.20102,0,0,0.23858,-0.02427,0,0.23981,-0.35112,-0.38448,-0.33498,64.711,-0.35686,0.043723,-2.4059e-06,0.44,0.76,0
0.39134,-0.0047995,0.65724,-0.37228,-0.35143,-0.32665,0.0091668,0,0,-0.35588,-0.19328,0,0.143,0,0,0.23715,-0.020653,0,0.23805,-0.34797,-0.37574,-0.32665,69.335,-0.35012,0.042629,-8.9478e-07,0.46,0.76,0
0.38406,-0.0031329,0.6289,-0.36617,-0.34569,-0.31837,0.006648,0,0,-0.37279,-0.21306,0,0.10371,0,0,0.23499,-0.017976,0,0.23568,-0.34372,-0.36813,-0.31837,73.503,-0.34341,0.043098,1.3306e-07,0.48,0.76,0
0.37643,-0.001842,0.60084,-0.36049,-0.33953,-0.31015,0.0049009,0,0,-0.39266,-0.22921,0,0.076454,0,0,0.23249,-0.01602,0,0.23304,-0.33844,-0.36158,-0.31015,77.466,-0.33672,0.044615,7.881e-07,0.5,0.76,0
0.36836,-0.00083524,0.5731,-0.3554,-0.33281,-0.30198,0.0036275,0,0,-0.41668,-0.24049,0,0.056589,0,0,0.22989,-0.014595,0,0.23035,-0.33224,-0.35597,-0.30198,81.097,-0.33006,0.04687,1.0994e-06,0.52,0.76,0
0.35976,-5.6334e-05,0.54567,-0.35093,-0.32554,-0.29389,0.0026517,0,0,-0.44494,-0.24689,0,0.041367,0,0,0.22737,-0.013549,0,0.22777,-0.32526,-0.3512,-0.29389,84.101,-0.32345,0.049713,1.0317e-06,0.54,0.76,0
0.35056,0.00053156,0.51853,-0.34703,-0.31779,-0.28587,0.0018815,0,0,-0.47704,-0.24902,0,0.029351,0,0,0.22505,-0.012763,0,0.22541,-0.31767,-0.34715,-0.28587,86.332,-0.3169,0.053082,5.0566e-07,0.56,0.76,0
0.34068,0.00095645,0.49166,-0.34363,-0.30969,-0.27794,0.0012738,0,0,-0.51238,-0.24765,0,0.019872,0,0,0.22298,-0.012152,0,0.22332,-0.30964,-0.34367,-0.27794,87.854,-0.31042,0.056942,-5.8252e-07,0.58,0.76,0
0.33006,0.0012434,0.46502,-0.34066,-0.30132,-0.2701,0.00080953,0,0,-0.55039,-0.24355,0,0.012629,0,0,0.22122,-0.011657,0,0.22152,-0.30131,-0.34068,-0.2701,88.822,-0.30403,0.06126,-2.3464e-06,0.6,0.76,0
0.31866,0.0014166,0.43857,-0.33807,-0.29279,-0.26235,0.00047746,0,0,-0.5906,-0.23742,0,0.0074484,0,0,0.21975,-0.011237,0,0.22004,-0.29279,-0.33808,-0.26235,89.396,-0.29774,0.065997,-4.9011e-06,0.62,0.76,0
0.30644,0.0014999,0.41228,-0.33581,-0.28417,-0.25471,0.00026713,0,0,-0.63261,-0.22981,0,0.0041672,0,0,0.21859,-0.010868,0,0.21886,-0.28417,-0.33581,-0.25471,89.704,-0.29156,0.07111,-8.3612e-06,0.64,0.76,0
0.29336,0.0015162,0.3861,-0.33384,-0.27551,-0.24716,0.00016563,0,0,-0.67614,-0.22118,0,0.0025839,0,0,0.21773,-0.010534,0,0.21799,-0.27551,-0.33384,-0.24716,89.837,-0.2855,0.076552,-1.284e-05,0.66,0.76,0
0.2794,0.0014866,0.36002,-0.33214,-0.26687,-0.23971,0.0001571,0,0,-0.72096,-0.21191,0,0.0024508,0,0,0.21717,-0.010226,0,0.21741,-0.26687,-0.33214,-0.23971,89.862,-0.27957,0.082283,-1.8451e-05,0.68,0.76,0
0.26452,0.0014294,0.33398,-0.33068,-0.25829,-0.23236,0.0002232,0,0,-0.76694,-0.20229,0,0.0034819,0,0,0.21688,-0.0099381,0,0.21711,-0.25829,-0.33068,-0.23236,89.823,-0.27378,0.088265,-2.5309e-05,0.7,0.76,0
0.24872,0.0013603,0.30797,-0.32945,-0.24979,-0.2251,0.00034397,0,0,-0.81394,-0.19259,0,0.0053659,0,0,0.21689,-0.0096644,0,0.2171,-0.24979,-0.32945,-0.2251,89.753,-0.26812,0.09446,-3.3522e-05,0.72,0.76,0
0.23196,0.0012915,0.28193,-0.32844,-0.24141,-0.21794,0.00049878,0,0,-0.86186,-0.18305,0,0.007781,0,0,0.21718,-0.0093985,0,0.21738,-0.24141,-0.32844,-0.21794,89.672,-0.2626,0.10083,-4.3196e-05,0.74,0.76,0
0.21424,0.0012324,0.25584,-0.32762,-0.23317,-0.21088,0.00066752,0,0,-0.91057,-0.1739,0,0.010413,0,0,0.21774,-0.0091304,0,0.21794,-0.23317,-0.32762,-0.21088,89.595,-0.25722,0.10735,-5.4417e-05,0.76,0.76,0
0.19554,0.0011898,0.22967,-0.32697,-0.2251,-0.2039,0.00083204,0,0,-0.95994,-0.16539,0,0.01298,0,0,0.2186,-0.0088447,0,0.21878,-0.2251,-0.32698,-0.2039,89.532,-0.25199,0.11397,-6.7244e-05,0.78,0.76,0
0.17585,0.0011688,0.20338,-0.32647,-0.21724,-0.19701,0.00097828,0,0,-1.0098,-0.15778,0,0.015261,0,0,0.21972,-0.0085183,0,0.21989,-0.21723,-0.32648,-0.19701,89.487,-0.24691,0.12064,-8.1698e-05,0.8,0.76,0
0.15515,0.0011748,0.17694,-0.32608,-0.20959,-0.19019,0.0010987,0,0,-1.0599,-0.15133,0,0.01714,0,0,0.2211,-0.0081186,0,0.22125,-0.20958,-0.32609,-0.19019,89.46,-0.24196,0.12732,-9.7757e-05,0.82,0.76,0
0.13345,0.0012146,0.15032,-0.32577,-0.20219,-0.18344,0.0011944,0,0,-1.1102,-0.14626,0,0.018633,0,0,0.2227,-0.0076028,0,0.22283,-0.20218,-0.32578,-0.18344,89.446,-0.23714,0.13396,-0.00011536,0.84,0.76,0
0.11074,0.0012986,0.12349,-0.3255,-0.19504,-0.17675,0.0012753,0,0,-1.1603,-0.14271,0,0.019894,0,0,0.22444,-0.00692,0,0.22454,-0.19503,-0.32551,-0.17675,89.44,-0.23243,0.14052,-0.00013442,0.86,0.76,0
0.087037,0.0014417,0.096451,-0.32524,-0.18812,-0.17008,0.001356,0,0,-1.2102,-0.14068,0,0.021154,0,0,0.22622,-0.0060174,0,0.2263,-0.1881,-0.32525,-0.17008,89.433,-0.22781,0.14699,-0.00015488,0.88,0.76,0
0.062334,0.0016625,0.069198,-0.32496,-0.18139,-0.16344,0.0014483,0,0,-1.2599,-0.14001,0,0.022594,0,0,0.22792,-0.0048505,0,0.22797,-0.18137,-0.32497,-0.16344,89.422,-0.22326,0.15336,-0.00017673,0.9,0.76,0
0.036641,0.0019801,0.041751,-0.32463,-0.1748,-0.15679,0.0015507,0,0,-1.3092,-0.14047,0,0.024192,0,0,0.22936,-0.0033978,0,0.22939,-0.17478,-0.32465,-0.15679,89.407,-0.21874,0.15963,-0.00019998,0.92,0.76,0
0.0099664,0.0024081,0.014151,-0.32449,-0.24184,-0.17815,0.0013533,0,0,-0.74596,-0.14193,0,0.013027,0,0,0.23136,-0.0058602,0,0.23148,-0.24177,-0.32456,-0.17815,86.911,-0.24816,0.13932,-6.7506e-05,0.94,0.76,0
0.0068029,0.0024443,0.0094969,-0.32404,-0.30875,-0.19934,0.00061325,0,0,-0.16212,-0.14224,0,0.0015945,0,0,0.23456,-0.007587,0,0.23469,-0.30872,-0.32407,-0.19934,87.708,-0.27738,0.11781,7.9204e-05,0.96,0.76,0
0.0034816,0.0024516,0.0047688,-0.32349,-0.30283,-0.19266,9.5861e-05,0,0,-0.17007,-0.14321,0,0.00024924,0,0,0.23742,-0.0040872,0,0.23745,-0.30283,-0.32349,-0.19266,89.734,-0.27299,0.12182,8.3905e-05,0.98,0.76,0
0,0.0024516,0,-0.31723,-0.29385,-0.18332,-8.9031e-07,0,0,-0.17408,-0.14368,0,-2.3148e-06,0,0,0.23844,4.5536e-18,0,0.23843,-0.29385,-0.31723,-0.18332,-89.998,-0.2648,0.12388,8.6036e-05,1,0.76,0
0,-0.018884,1,-0.59273,-2.0251,-1.7853,-0.024254,0,0,1.5504,-0.31165,0,-0.063061,0,0,0.3095,-1.4294e-15,0,0.30854,-0.59232,-2.0255,-1.7853,-0.96984,-1.4677,1.3295,0.10753,0,0.78,0
0.031008,-0.020145,0.99381,-0.54655,-2.031,-1.7671,-0.085171,0,0,1.5867,-0.34309,0,-0.22145,0,0,0.29425,0.059318,0,0.2993,-0.54168,-2.0359,-1.7671,-3.2731,-1.4482,1.3796,0.11778,0.02,0.78,0
0.063467,-0.022832,0.98823,-0.50064,-2.1422,-1.7811,-0.13726,0,0,1.6646,-0.46947,0,-0.35688,0,0,0.24992,0.12165,0,0.27927,-0.48924,-2.1536,-1.7811,-4.7469,-1.4747,1.5129,0.14216,0.04,0.78,0
0.097591,-0.024394,0.98381,-0.4203,-1.3705,-1.1111,-0.1116,0,0,1.1229,-0.57796,0,-0.88827,0,0,0.19856,0.085924,0,0.2228,-0.39294,-1.3978,-1.1111,-15.148,-0.96729,0.90027,0.077026,0.06,0.78,0
0.10838,-0.047843,0.96266,-0.35287,-0.5623,-0.43499,-0.07947,0,0,0.64054,-0.99295,0,-1.2397,0,0,0.16967,0.026687,0,0.17192,-0.32613,-0.58904,-0.43499,-18.598,-0.45005,0.2288,-0.00017985,0.08,0.78,0
0.12321,-0.063687,0.94309,-0.3285,-0.57877,-0.42936,-0.055965,0,0,0.78675,-1.1654,0,-0.87305,0,0,0.15771,0.020414,0,0.15908,-0.31655,-0.59071,-0.42936,-12.048,-0.44554,0.23867,-0.00021008,0.1,0.78,0
0.13985,-0.073952,0.92481,-0.3141,-0.58401,-0.42357,-0.039755,0,0,0.85387,-1.2515,0,-0.62017,0,0,0.14902,0.012616,0,0.14956,-0.30837,-0.58975,-0.42357,-8.2067,-0.44056,0.24501,-0.00023235,0.12,0.78,0
0.15737,-0.080595,0.90733,-0.30443,-0.58559,-0.41823,-0.028592,0,0,0.88762,-1.3054,0,-0.44603,0,0,0.14354,0.0053556,0,0.14362,-0.30155,-0.58847,-0.41823,-5.7481,-0.43608,0.24991,-0.0002538,0.14,0.78,0
0.17536,-0.084708,0.89036,-0.29689,-0.58383,-0.41261,-0.020299,0,0,0.90261,-1.3355,0,-0.31666,0,0,0.14001,-0.0011705,0,0.14,-0.29546,-0.58526,-0.41261,-4.0265,-0.43111,0.2525,-0.00026823,0.16,0.78,0
0.19347,-0.086829,0.87372,-0.29118,-0.57969,-0.40688,-0.013515,0,0,0.90246,-1.3479,0,-0.21083,0,0,0.13775,-0.0071064,0,0.13791,-0.29055,-0.58032,-0.40688,-2.6761,-0.42592,0.25257,-0.00027587,0.18,0.78,0
0.21146,-0.087239,0.8573,-0.28679,-0.5735,-0.40097,-0.0073828,0,0,0.89061,-1.3457,0,-0.11517,0,0,0.13643,-0.012678,0,0.137,-0.2866,-0.57369,-0.40097,-1.4741,-0.42042,0.25033,-0.00027661,0.2,0.78,0
0.2291,-0.086025,0.84098,-0.28346,-0.56546,-0.39484,-0.0011649,0,0,0.86874,-1.3308,0,-0.018172,0,0,0.13596,-0.01813,0,0.13714,-0.28346,-0.56546,-0.39484,-0.23668,-0.41459,0.24601,-0.00027087,0.22,0.78,0
0.24621,-0.08312,0.82467,-0.28117,-0.55557,-0.38847,0.0058678,0,0,0.83689,-1.3034,0,0.091537,0,0,0.1364,-0.02371,0,0.13843,-0.28105,-0.55569,-0.38847,1.2245,-0.4084,0.23972,-0.00025928,0.24,0.78,0
0.26257,-0.078279,0.80825,-0.28018,-0.54368,-0.38187,0.014535,0,0,0.79312,-1.2621,0,0.22675,0,0,0.13804,-0.029664,0,0.14117,-0.27938,-0.54448,-0.38187,3.1479,-0.40191,0.23154,-0.00024275,0.26,0.78,0
0.27793,-0.071045,0.79154,-0.2807,-0.52903,-0.37484,0.026053,0,0,0.73431,-1.2026,0,0.40643,0,0,0.14152,-0.036164,0,0.14606,-0.27799,-0.53173,-0.37484,5.9252,-0.39486,0.22178,-0.00022197,0.28,0.78,0
0.29195,-0.060531,0.77428,-0.28514,-0.51121,-0.36795,0.042092,0,0,0.64592,-1.1174,0,0.65664,0,0,0.14795,-0.043058,0,0.15411,-0.27756,-0.51879,-0.36795,10.212,-0.3881,0.21109,-0.00020183,0.3,0.78,0
0.30377,-0.045306,0.75603,-0.29709,-0.48301,-0.36004,0.0639,0,0,0.49094,-0.95917,0,0.99684,0,0,0.15718,-0.048354,0,0.16456,-0.27725,-0.50285,-0.36004,17.253,-0.38005,0.19767,-0.00017514,0.32,0.78,0
0.31158,-0.024151,0.73656,-0.35155,-1.1587,-0.88274,0.093851,0,0,0.85339,-0.61506,0,0.7428,0,0,0.17843,-0.16114,0,0.2535,-0.32955,-1.1807,-0.88274,14.615,-0.79767,0.75126,0.034599,0.34,0.78,0
0.3379,-0.021167,0.73267,-0.38473,-1.7028,-1.3589,0.128,0,0,1.2665,-0.44708,0,0.33281,0,0,0.21405,-0.25693,0,0.33478,-0.37241,-1.7152,-1.3589,5.4957,-1.1488,1.2048,0.064055,0.36,0.78,0
0.36224,-0.017034,0.72799,-0.40647,-1.5273,-1.3081,0.10629,0,0,1.1722,-0.28493,0,0.27637,0,0,0.24214,-0.21325,0,0.32233,-0.39648,-1.5373,-1.3081,5.3699,-1.0806,1.0453,0.049281,0.38,0.78,0
0.38479,-0.013806,0.72298,-0.42798,-1.4212,-1.2777,0.062059,0,0,1.1047,-0.18649,0,0.16135,0,0,0.24975,-0.18474,0,0.31051,-0.42412,-1.425,-1.2777,3.5616,-1.0423,0.936,0.038623,0.4,0.78,0
0.40643,-0.012536,0.71801,-0.39487,-0.83269,-0.7871,0.020981,0,0,0.35442,-0.10159,0,0.11503,0,0,0.24667,-0.099599,0,0.27396,-0.37571,-0.85185,-0.7871,38.995,-0.67155,0.46081,0.016775,0.42,0.78,0
0.39897,-0.01006,0.68866,-0.38377,-0.35339,-0.33592,0.005573,0,0,-0.37324,-0.13621,0,0.086938,0,0,0.24337,-0.02238,0,0.2444,-0.3524,-0.38477,-0.33592,79.929,-0.3577,0.043037,-2.1651e-06,0.44,0.78,0
0.3915,-0.0083987,0.6596,-0.37548,-0.34912,-0.32731,0.0022469,0,0,-0.37573,-0.17008,0,0.035052,0,0,0.24063,-0.018045,0,0.24131,-0.34893,-0.37567,-0.32731,85.164,-0.35064,0.04196,-6.9267e-07,0.46,0.78,0
0.38394,-0.0072088,0.6309,-0.36808,-0.34427,-0.31885,0.00044752,0,0,-0.38394,-0.19823,0,0.0069814,0,0,0.23747,-0.015043,0,0.23795,-0.34426,-0.36809,-0.31885,88.924,-0.34373,0.042643,2.2126e-07,0.48,0.78,0
0.37614,-0.0062908,0.6026,-0.36164,-0.3386,-0.31051,-0.00051002,0,0,-0.39884,-0.21915,0,-0.0079562,0,0,0.23421,-0.013035,0,0.23458,-0.33859,-0.36165,-0.31051,-88.732,-0.33692,0.044364,7.5888e-07,0.5,0.78,0
0.36798,-0.0055405,0.57469,-0.35611,-0.33215,-0.30226,-0.0010392,0,0,-0.42003,-0.23312,0,-0.016211,0,0,0.23107,-0.011741,0,0.23137,-0.3321,-0.35615,-0.30226,-87.521,-0.33017,0.046764,9.7066e-07,0.52,0.78,0
0.35934,-0.0049101,0.54715,-0.35136,-0.32503,-0.29411,-0.001361,0,0,-0.44657,-0.24116,0,-0.021232,0,0,0.22818,-0.010937,0,0.22845,-0.32495,-0.35143,-0.29411,-87.049,-0.3235,0.049692,8.2975e-07,0.54,0.78,0
0.35012,-0.0043799,0.51993,-0.34727,-0.31739,-0.28605,-0.0015734,0,0,-0.47749,-0.24445,0,-0.024546,0,0,0.22561,-0.010454,0,0.22585,-0.31731,-0.34735,-0.28605,-86.994,-0.31691,0.05309,2.6372e-07,0.56,0.78,0
0.34024,-0.0039401,0.493,-0.34373,-0.30939,-0.2781,-0.0017083,0,0,-0.51189,-0.24405,0,-0.02665,0,0,0.22339,-0.01017,0,0.22362,-0.30931,-0.34381,-0.2781,-87.159,-0.31041,0.056932,-8.2441e-07,0.58,0.78,0
0.32964,-0.0035825,0.46632,-0.34065,-0.30113,-0.27025,-0.0017689,0,0,-0.54909,-0.24084,0,-0.027595,0,0,0.22152,-0.010004,0,0.22175,-0.30105,-0.34073,-0.27025,-87.442,-0.30401,0.061194,-2.5436e-06,0.6,0.78,0
0.31828,-0.0032966,0.43984,-0.33796,-0.2927,-0.26251,-0.0017505,0,0,-0.58857,-0.23554,0,-0.027307,0,0,0.21999,-0.0099068,0,0.22022,-0.29264,-0.33803,-0.26251,-87.788,-0.29773,0.065851,-5.0085e-06,0.62,0.78,0
0.3061,-0.0030699,0.41352,-0.33562,-0.28418,-0.25486,-0.00165,0,0,-0.62995,-0.22869,0,-0.02574,0,0,0.21879,-0.0098483,0,0.21902,-0.28413,-0.33568,-0.25486,-88.165,-0.29156,0.07087,-8.3377e-06,0.64,0.78,0
0.29308,-0.0028887,0.38732,-0.33359,-0.27562,-0.24732,-0.0014697,0,0,-0.67295,-0.22073,0,-0.022926,0,0,0.21791,-0.0098135,0,0.21813,-0.27558,-0.33363,-0.24732,-88.549,-0.28551,0.076219,-1.2653e-05,0.66,0.78,0
0.27918,-0.002739,0.36122,-0.33185,-0.26705,-0.23987,-0.0012171,0,0,-0.71738,-0.21201,0,-0.018988,0,0,0.21732,-0.0097958,0,0.21754,-0.26703,-0.33187,-0.23987,-88.924,-0.27959,0.081867,-1.8082e-05,0.68,0.78,0
0.26438,-0.0026084,0.33517,-0.33036,-0.25853,-0.23253,-0.00090542,0,0,-0.76311,-0.2028,0,-0.014125,0,0,0.21702,-0.009793,0,0.21724,-0.25852,-0.33037,-0.23253,-89.278,-0.27381,0.087786,-2.4754e-05,0.7,0.78,0
0.24866,-0.0024864,0.30913,-0.32913,-0.25007,-0.22528,-0.00055172,0,0,-0.81002,-0.19334,0,-0.0086069,0,0,0.21702,-0.0098042,0,0.21724,-0.25007,-0.32914,-0.22528,-89.6,-0.26816,0.093946,-3.2803e-05,0.72,0.78,0
0.23198,-0.0023655,0.28308,-0.32814,-0.24171,-0.21813,-0.00017676,0,0,-0.85804,-0.18386,0,-0.0027574,0,0,0.2173,-0.0098261,0,0.21752,-0.24171,-0.32814,-0.21813,-89.883,-0.26266,0.10032,-4.2359e-05,0.74,0.78,0
0.21434,-0.0022411,0.25698,-0.32737,-0.23346,-0.21108,0.00019632,0,0,-0.90706,-0.17459,0,0.0030627,0,0,0.21788,-0.0098506,0,0.2181,-0.23346,-0.32737,-0.21108,89.88,-0.25731,0.10687,-5.3539e-05,0.76,0.78,0
0.1957,-0.0021117,0.23079,-0.32681,-0.22537,-0.20412,0.00054357,0,0,-0.95696,-0.16577,0,0.0084796,0,0,0.21876,-0.009861,0,0.21899,-0.22537,-0.32681,-0.20412,89.693,-0.2521,0.11357,-6.6437e-05,0.78,0.78,0
0.17606,-0.0019773,0.20448,-0.32642,-0.21746,-0.19724,0.00084296,0,0,-1.0076,-0.15768,0,0.01315,0,0,0.21996,-0.0098273,0,0.22018,-0.21745,-0.32643,-0.19724,89.557,-0.24704,0.12036,-8.11e-05,0.8,0.78,0
0.1554,-0.0018385,0.178,-0.32618,-0.20976,-0.19045,0.0010786,0,0,-1.0587,-0.15065,0,0.016827,0,0,0.22145,-0.0097027,0,0.22166,-0.20975,-0.32619,-0.19045,89.469,-0.24213,0.12719,-9.7517e-05,0.82,0.78,0
0.13371,-0.0016939,0.15133,-0.32603,-0.20231,-0.18372,0.0012457,0,0,-1.11,-0.14498,0,0.019432,0,0,0.22322,-0.0094198,0,0.22342,-0.2023,-0.32604,-0.18372,89.423,-0.23736,0.134,-0.00011561,0.84,0.78,0
0.111,-0.0015363,0.12443,-0.32593,-0.19512,-0.17705,0.0013529,0,0,-1.1612,-0.14092,0,0.021106,0,0,0.2252,-0.008892,0,0.22538,-0.19511,-0.32595,-0.17705,89.407,-0.2327,0.14074,-0.00013526,0.86,0.78,0
0.087262,-0.0013514,0.097283,-0.32584,-0.18818,-0.17042,0.0014199,0,0,-1.2123,-0.13854,0,0.022151,0,0,0.22729,-0.0080216,0,0.22744,-0.18817,-0.32585,-0.17042,89.409,-0.22815,0.14736,-0.00015635,0.88,0.78,0
0.062508,-0.0011175,0.06988,-0.3257,-0.18144,-0.16379,0.001465,0,0,-1.2629,-0.1377,0,0.022854,0,0,0.22935,-0.0067184,0,0.22945,-0.18143,-0.32571,-0.16379,89.418,-0.22365,0.15387,-0.00017882,0.9,0.78,0
0.036746,-0.00081034,0.042239,-0.32548,-0.17484,-0.15713,0.0014886,0,0,-1.3131,-0.13809,0,0.023223,0,0,0.23116,-0.0049265,0,0.23121,-0.17482,-0.32549,-0.15713,89.434,-0.21915,0.16024,-0.00020268,0.92,0.78,0
0.0099853,-0.00041216,0.014402,-0.32514,-0.24074,-0.17816,0.0010106,0,0,-0.74857,-0.13945,0,0.011187,0,0,0.23384,-0.0092856,0,0.23412,-0.24071,-0.32516,-0.17816,88.426,-0.24801,0.13947,-7.0079e-05,0.94,0.78,0
0.0068027,-0.00038822,0.0096879,-0.32451,-0.30765,-0.19934,-0.0001755,0,0,-0.16273,-0.14081,0,-0.0004563,0,0,0.23824,-0.012278,0,0.23856,-0.30765,-0.32452,-0.19934,-89.404,-0.27717,0.11765,7.7885e-05,0.96,0.78,0
0.0034761,-0.00040936,0.0048722,-0.32373,-0.30307,-0.19291,-0.0005827,0,0,-0.17007,-0.1432,0,-0.001515,0,0,0.2422,-0.00669,0,0.24228,-0.30305,-0.32375,-0.19291,-88.386,-0.27324,0.12181,8.387e-05,0.98,0.78,0
0,-0.00042279,0,-0.31721,-0.29449,-0.18351,-0.00025828,0,0,-0.17381,-0.14428,0,-0.00067153,0,0,0.24361,-4.3368e-19,0,0.2436,-0.29449,-0.31721,-0.18351,-89.349,-0.26507,0.12391,8.6747e-05,1,0.78,0
0,-0.023942,1,-0.70392,-1.9389,-1.7929,-0.033901,0,0,1.4156,-0.1899,0,-0.088142,0,0,0.37991,-3.5701e-15,0,0.37863,-0.70299,-1.9399,-1.7929,-1.5712,-1.4786,1.1703,0.077963,0,0.8,0
0.028312,-0.025705,0.9924,-0.68479,-1.9454,-1.7815,-0.11803,0,0,1.4257,-0.21317,0,-0.30688,0,0,0.37241,0.076796,0,0.37869,-0.67384,-1.9564,-1.7815,-5.3029,-1.4706,1.2047,0.083442,0.02,0.8,0
0.057027,-0.031844,0.9851,-0.52606,-1.9762,-1.7358,-0.2157,0,0,1.5727,-0.31256,0,-0.56082,0,0,0.30911,0.17244,0,0.35084,-0.49466,-2.0076,-1.7358,-8.2835,-1.4127,1.397,0.12236,0.04,0.8,0
0.091218,-0.036872,0.98004,-0.47385,-1.507,-1.166,-0.21878,0,0,1.1245,-0.7601,0,-1.4633,0,0,0.21639,0.19464,0,0.30554,-0.41195,-1.5689,-1.166,-19.084,-1.0489,1.0212,0.082404,0.06,0.8,0
0.10201,-0.069238,0.9585,-0.36751,-0.60841,-0.45253,-0.11195,0,0,0.66311,-1.2159,0,-1.7464,0,0,0.16663,0.044802,0,0.17272,-0.32353,-0.6524,-0.45253,-21.452,-0.47615,0.28701,-0.00044063,0.08,0.8,0
0.11774,-0.08802,0.94005,-0.33077,-0.60102,-0.43621,-0.07339,0,0,0.82245,-1.2855,0,-1.1449,0,0,0.14823,0.029597,0,0.15111,-0.31213,-0.61967,-0.43621,-14.254,-0.456,0.26799,-0.00032311,0.1,0.8,0
0.13491,-0.099635,0.92293,-0.31535,-0.59979,-0.42836,-0.050828,0,0,0.88149,-1.3371,0,-0.79291,0,0,0.14001,0.018021,0,0.14112,-0.30654,-0.6086,-0.42836,-9.8332,-0.44783,0.26321,-0.00030667,0.12,0.8,0
0.153,-0.1072,0.90644,-0.30412,-0.59616,-0.42116,-0.036432,0,0,0.91287,-1.365,0,-0.56833,0,0,0.13578,0.0087982,0,0.13602,-0.29965,-0.60064,-0.42116,-7.0046,-0.44048,0.26227,-0.00030218,0.14,0.8,0
0.17142,-0.1118,0.89034,-0.29686,-0.59175,-0.41497,-0.026024,0,0,0.92129,-1.3788,0,-0.40598,0,0,0.1332,0.0011046,0,0.13317,-0.29458,-0.59403,-0.41497,-5.0049,-0.43452,0.26098,-0.00030264,0.16,0.8,0
0.18985,-0.1141,0.87448,-0.29151,-0.58623,-0.40907,-0.017993,0,0,0.91695,-1.3819,0,-0.28069,0,0,0.13155,-0.005636,0,0.13164,-0.29041,-0.58732,-0.40907,-3.4807,-0.42893,0.25885,-0.00030223,0.18,0.8,0
0.2081,-0.11444,0.85877,-0.28723,-0.57963,-0.40319,-0.011044,0,0,0.90443,-1.3762,0,-0.17229,0,0,0.13052,-0.011858,0,0.13103,-0.28682,-0.58004,-0.40319,-2.16,-0.42335,0.25574,-0.00029909,0.2,0.8,0
0.22603,-0.11295,0.84315,-0.28364,-0.57201,-0.39722,-0.0041609,0,0,0.88592,-1.3634,0,-0.064909,0,0,0.13001,-0.017941,0,0.13122,-0.28358,-0.57207,-0.39722,-0.82649,-0.41763,0.25171,-0.00029288,0.22,0.8,0
0.24354,-0.10956,0.82757,-0.28074,-0.56347,-0.39119,0.0036529,0,0,0.86151,-1.3438,0,0.056985,0,0,0.13009,-0.024269,0,0.1323,-0.28069,-0.56352,-0.39119,0.7401,-0.4118,0.24688,-0.00028425,0.24,0.8,0
0.26049,-0.10402,0.81193,-0.27894,-0.55408,-0.38523,0.013604,0,0,0.82903,-1.317,0,0.21222,0,0,0.131,-0.031295,0,0.13465,-0.27827,-0.55475,-0.38523,2.8238,-0.40608,0.24147,-0.00027477,0.26,0.8,0
0.2767,-0.095762,0.79613,-0.27962,-0.54406,-0.37979,0.027156,0,0,0.78133,-1.2813,0,0.42363,0,0,0.13343,-0.039619,0,0.13914,-0.27686,-0.54682,-0.37979,5.8032,-0.40116,0.23597,-0.0002682,0.28,0.8,0
0.29174,-0.083899,0.77991,-0.2829,-0.53186,-0.37441,0.0479,0,0,0.71381,-1.2281,0,0.74724,0,0,0.13966,-0.050068,0,0.14831,-0.274,-0.54076,-0.37441,10.523,-0.39639,0.23336,-0.00026926,0.3,0.8,0
0.30525,-0.065888,0.76261,-0.30395,-0.52366,-0.37538,0.081391,0,0,0.55718,-1.1565,0,1.2697,0,0,0.15508,-0.063771,0,0.16783,-0.27708,-0.55052,-0.37538,18.267,-0.401,0.2399,-0.00032904,0.32,0.8,0
0.31403,-0.037278,0.74269,-0.38356,-1.2655,-0.92795,0.16361,0,0,0.89065,-0.75225,0,1.1086,0,0,0.193,-0.25093,0,0.33162,-0.34175,-1.3073,-0.92795,17.354,-0.859,0.84549,0.036245,0.34,0.8,0
0.34088,-0.029912,0.73829,-0.38718,-1.5873,-1.3306,0.16681,0,0,1.2265,-0.33362,0,0.43372,0,0,0.25881,-0.28114,0,0.37979,-0.36442,-1.61,-1.3306,7.7682,-1.1017,1.1321,0.059489,0.36,0.8,0
0.36309,-0.021984,0.73234,-0.47947,-1.4833,-1.3212,0.10734,0,0,1.0942,-0.2108,0,0.27908,0,0,0.2915,-0.20997,0,0.35859,-0.46812,-1.4947,-1.3212,6.0355,-1.0947,0.95175,0.039364,0.38,0.8,0
0.38465,-0.016992,0.72663,-0.45788,-1.3802,-1.2781,0.045304,0,0,1.0662,-0.13282,0,0.11779,0,0,0.27519,-0.17128,0,0.3241,-0.45567,-1.3824,-1.2781,2.8053,-1.0387,0.87925,0.033258,0.4,0.8,0
0.40574,-0.013962,0.72133,-0.40402,-0.8058,-0.78372,0.0085099,0,0,0.32488,-0.049206,0,0.011071,0,0,0.2581,-0.089761,0,0.27952,-0.38098,-0.82885,-0.78372,-43.303,-0.66452,0.44034,0.014656,0.42,0.8,0
0.39764,-0.012435,0.69118,-0.3873,-0.3504,-0.33651,-0.0040433,0,0,-0.39618,-0.10836,0,-0.063075,0,0,0.249,-0.018779,0,0.2497,-0.34996,-0.38774,-0.33651,-83.82,-0.35807,0.046004,-3.596e-06,0.44,0.8,0
0.38989,-0.011602,0.66157,-0.37712,-0.34782,-0.32774,-0.0059736,0,0,-0.38512,-0.15659,0,-0.093188,0,0,0.24449,-0.014126,0,0.2449,-0.34665,-0.37829,-0.32774,-78.907,-0.35089,0.044234,-1.8667e-06,0.46,0.8,0
0.38224,-0.011062,0.63251,-0.3687,-0.34385,-0.31918,-0.006475,0,0,-0.38623,-0.19239,0,-0.10101,0,0,0.24,-0.011134,0,0.24027,-0.34226,-0.37028,-0.31918,-76.238,-0.34391,0.044325,-7.4528e-07,0.48,0.8,0
0.37444,-0.010608,0.60397,-0.36173,-0.33855,-0.31075,-0.0063177,0,0,-0.39767,-0.21689,0,-0.098555,0,0,0.23579,-0.009355,0,0.23598,-0.33694,-0.36334,-0.31075,-75.701,-0.33701,0.045547,-3.2049e-08,0.5,0.8,0
0.36633,-0.01016,0.57592,-0.35592,-0.33222,-0.30243,-0.0059364,0,0,-0.41726,-0.23235,0,-0.092608,0,0,0.23198,-0.0084158,0,0.23214,-0.33081,-0.35733,-0.30243,-76.698,-0.33019,0.047552,3.2589e-07,0.52,0.8,0
0.35775,-0.0097029,0.54829,-0.35102,-0.32512,-0.29423,-0.0055268,0,0,-0.44301,-0.24099,0,-0.086218,0,0,0.22865,-0.0080221,0,0.2288,-0.32399,-0.35215,-0.29423,-78.444,-0.32346,0.050172,3.1159e-07,0.54,0.8,0
0.34861,-0.0092464,0.52104,-0.34683,-0.3175,-0.28614,-0.0051468,0,0,-0.47338,-0.24463,0,-0.080291,0,0,0.22581,-0.0079583,0,0.22596,-0.31662,-0.34771,-0.28614,-80.329,-0.31682,0.053319,-1.3025e-07,0.56,0.8,0
0.33882,-0.0088054,0.4941,-0.3432,-0.30952,-0.27817,-0.0047921,0,0,-0.50727,-0.24458,0,-0.074757,0,0,0.22343,-0.0080783,0,0.22358,-0.30886,-0.34387,-0.27817,-82.057,-0.3103,0.056942,-1.0786e-06,0.58,0.8,0
0.32832,-0.0083903,0.46742,-0.34004,-0.30131,-0.27031,-0.0044376,0,0,-0.54393,-0.24181,0,-0.069227,0,0,0.22148,-0.0082905,0,0.22163,-0.30081,-0.34054,-0.27031,-83.547,-0.30389,0.061002,-2.6283e-06,0.6,0.8,0
0.31706,-0.008005,0.44094,-0.33728,-0.29294,-0.26256,-0.0040581,0,0,-0.58286,-0.237,0,-0.063307,0,0,0.21991,-0.0085424,0,0.22007,-0.29257,-0.33765,-0.26256,-84.814,-0.29759,0.065467,-4.8854e-06,0.62,0.8,0
0.305,-0.0076478,0.41464,-0.33487,-0.28449,-0.25492,-0.0036352,0,0,-0.62369,-0.23066,0,-0.056709,0,0,0.21869,-0.0088079,0,0.21887,-0.28423,-0.33514,-0.25492,-85.895,-0.29143,0.070308,-7.9663e-06,0.64,0.8,0
0.29211,-0.0073131,0.38846,-0.33278,-0.27599,-0.24738,-0.0031596,0,0,-0.66619,-0.2232,0,-0.049289,0,0,0.21779,-0.0090773,0,0.21798,-0.27582,-0.33296,-0.24738,-86.826,-0.28538,0.075495,-1.1997e-05,0.66,0.8,0
0.27836,-0.0069937,0.36237,-0.33099,-0.26749,-0.23994,-0.0026303,0,0,-0.7102,-0.2149,0,-0.041032,0,0,0.21719,-0.0093509,0,0.21739,-0.26738,-0.3311,-0.23994,-87.632,-0.27947,0.081004,-1.7112e-05,0.68,0.8,0
0.26371,-0.0066824,0.33633,-0.32948,-0.25901,-0.2326,-0.002054,0,0,-0.75562,-0.206,0,-0.032043,0,0,0.21688,-0.0096336,0,0.21709,-0.25895,-0.32954,-0.2326,-88.332,-0.2737,0.086813,-2.346e-05,0.7,0.8,0
0.24813,-0.0063732,0.31032,-0.32824,-0.25059,-0.22537,-0.0014442,0,0,-0.80239,-0.19672,0,-0.022529,0,0,0.21686,-0.0099315,0,0.21708,-0.25056,-0.32826,-0.22537,-88.935,-0.26806,0.092899,-3.1195e-05,0.72,0.8,0
0.23161,-0.0060629,0.28429,-0.32726,-0.24223,-0.21823,-0.0008202,0,0,-0.85046,-0.18722,0,-0.012795,0,0,0.21713,-0.010248,0,0.21737,-0.24223,-0.32727,-0.21823,-89.447,-0.26258,0.099244,-4.0482e-05,0.74,0.8,0
0.21411,-0.0057511,0.25821,-0.32655,-0.23397,-0.21119,-0.00020738,0,0,-0.8998,-0.1777,0,-0.0032352,0,0,0.21771,-0.010581,0,0.21797,-0.23397,-0.32655,-0.21119,-89.872,-0.25724,0.10582,-5.1484e-05,0.76,0.8,0
0.19562,-0.0054409,0.23204,-0.32609,-0.22584,-0.20425,0.00036427,0,0,-0.95033,-0.16838,0,0.0056827,0,0,0.21862,-0.010915,0,0.21889,-0.22584,-0.32609,-0.20425,89.792,-0.25206,0.11261,-6.435e-05,0.78,0.8,0
0.1761,-0.0051385,0.20574,-0.32586,-0.21785,-0.1974,0.00086232,0,0,-1.0019,-0.15951,0,0.013452,0,0,0.21988,-0.01122,0,0.22017,-0.21785,-0.32586,-0.1974,89.543,-0.24704,0.11956,-7.9188e-05,0.8,0.8,0
0.15554,-0.0048512,0.17927,-0.32582,-0.21006,-0.19064,0.001257,0,0,-1.0544,-0.15146,0,0.01961,0,0,0.22151,-0.011438,0,0.22181,-0.21005,-0.32583,-0.19064,89.378,-0.24217,0.12661,-9.6033e-05,0.82,0.8,0
0.13392,-0.0045847,0.15258,-0.32593,-0.2025,-0.18396,0.0015294,0,0,-1.1074,-0.14464,0,0.023859,0,0,0.22351,-0.011477,0,0.22381,-0.20248,-0.32595,-0.18396,89.29,-0.23746,0.13369,-0.00011482,0.84,0.8,0
0.11124,-0.0043382,0.12562,-0.32612,-0.19522,-0.17734,0.0016797,0,0,-1.1605,-0.13945,0,0.026204,0,0,0.22584,-0.011208,0,0.22612,-0.1952,-0.32614,-0.17734,89.265,-0.23289,0.14073,-0.0001354,0.86,0.8,0
0.087504,-0.0041,0.098376,-0.32633,-0.18821,-0.17076,0.0017276,0,0,-1.2134,-0.13611,0,0.02695,0,0,0.22839,-0.010469,0,0.22864,-0.18818,-0.32635,-0.17076,89.284,-0.22843,0.14765,-0.00015758,0.88,0.8,0
0.062707,-0.0038456,0.07081,-0.32647,-0.18142,-0.16417,0.0016972,0,0,-1.266,-0.13454,0,0.026477,0,0,0.23101,-0.009097,0,0.23119,-0.1814,-0.32649,-0.16417,89.33,-0.22402,0.15443,-0.00018125,0.9,0.8,0
0.036865,-0.0035436,0.042934,-0.32648,-0.17474,-0.15752,0.0015876,0,0,-1.3179,-0.13431,0,0.024767,0,0,0.23343,-0.006967,0,0.23353,-0.17472,-0.3265,-0.15752,89.401,-0.21958,0.16106,-0.00020636,0.92,0.8,0
0.0099918,-0.0031699,0.014788,-0.32576,-0.23849,-0.1779,0.000577,0,0,-0.75208,-0.13502,0,0.0095707,0,0,0.23727,-0.014189,0,0.23793,-0.23848,-0.32577,-0.1779,-0.10149,-0.24738,0.13961,-7.4482e-05,0.94,0.8,0
0.0067818,-0.0031881,0.009988,-0.325,-0.30606,-0.19931,-0.0014976,0,0,-0.16341,-0.13877,0,-0.0038938,0,0,0.24379,-0.019079,0,0.24455,-0.30594,-0.32512,-0.19931,-85.509,-0.27679,0.1174,7.569e-05,0.96,0.8,0
0.0034556,-0.0032764,0.0050364,-0.32387,-0.30417,-0.19345,-0.0017476,0,0,-0.16955,-0.14394,0,-0.0045438,0,0,0.2497,-0.010489,0,0.2499,-0.30402,-0.32402,-0.19345,-84.969,-0.27383,0.12181,8.4448e-05,0.98,0.8,0
0,-0.0033195,0,-0.3169,-0.29642,-0.184,-0.00083038,0,0,-0.17278,-0.14615,0,-0.002159,0,0,0.25182,-3.4694e-18,0,0.25178,-0.29639,-0.31694,-0.184,-87.682,-0.26577,0.12395,8.8807e-05,1,0.8,0
0,-0.02648,1,-0.75826,-1.8507,-1.7827,-0.042157,0,0,1.3317,-0.088407,0,-0.10961,0,0,0.4631,1.301e-15,0,0.46196,-0.75664,-1.8523,-1.7827,-2.2067,-1.4639,1.0626,0.060726,0,0.82,0
0.026635,-0.028672,0.99074,-0.77639,-1.8554,-1.7803,-0.099055,0,0,1.305,-0.097621,0,-0.25754,0,0,0.46669,0.079818,0,0.47204,-0.76738,-1.8644,-1.7803,-5.2021,-1.4707,1.0575,0.059437,0.02,0.82,0
0.052201,-0.035334,0.98133,-0.85499,-1.9173,-1.813,-0.28393,0,0,1.2454,-0.13556,0,-0.73821,0,0,0.50679,0.18114,0,0.53418,-0.78387,-1.9884,-1.813,-14.063,-1.5284,1.1271,0.06758,0.04,0.82,0
0.076452,-0.054798,0.97047,-0.7671,-1.3631,-1.2052,-0.37879,0,0,0.84497,-0.57877,0,-2.1608,0,0,0.4131,0.21332,0,0.46794,-0.58141,-1.5488,-1.2052,-27.6,-1.1118,0.85425,0.038675,0.06,0.82,0
0.089676,-0.09648,0.95191,-0.58074,-0.67685,-0.93256,-0.25389,0,0,0.78404,-0.23511,0,-1.5453,0,0,0.50278,0.064357,0,0.50838,-0.34505,-0.91254,-0.93256,-35.269,-0.73005,0.62553,0.013631,0.08,0.82,0
0.10781,-0.11511,0.93599,-0.45292,-0.64428,-0.87515,-0.10603,0,0,0.94098,-0.2642,0,-0.805,0,0,0.45826,0.039395,0,0.46092,-0.39555,-0.70164,-0.87515,-25.065,-0.65745,0.50643,-0.0052459,0.1,0.82,0
0.12732,-0.12744,0.92048,-0.40724,-0.61799,-0.84452,-0.067715,0,0,0.9745,-0.28473,0,-0.54346,0,0,0.44879,0.02329,0,0.44976,-0.38242,-0.64282,-0.84452,-18.396,-0.62325,0.49636,-0.0070607,0.12,0.82,0
0.14679,-0.1352,0.90522,-0.39639,-0.61191,-0.83053,-0.044481,0,0,0.96752,-0.29903,0,-0.37441,0,0,0.44318,0.012192,0,0.44341,-0.38545,-0.62285,-0.83053,-13.08,-0.61294,0.48388,-0.007229,0.14,0.82,0
0.16602,-0.13986,0.89009,-0.39079,-0.60573,-0.81818,-0.030785,0,0,0.95246,-0.30856,0,-0.26463,0,0,0.43952,0.003514,0,0.43951,-0.38542,-0.6111,-0.81818,-9.5192,-0.6049,0.47399,-0.0070356,0.16,0.82,0
0.18489,-0.1421,0.87508,-0.38674,-0.59943,-0.80631,-0.021275,0,0,0.93505,-0.31449,0,-0.18394,0,0,0.43674,-0.0038084,0,0.43677,-0.3841,-0.60207,-0.80631,-6.8495,-0.59749,0.46484,-0.0067348,0.18,0.82,0
0.20342,-0.14229,0.86015,-0.38201,-0.5923,-0.79405,-0.013817,0,0,0.91824,-0.31784,0,-0.1174,0,0,0.43443,-0.010428,0,0.43471,-0.38084,-0.59347,-0.79405,-4.6221,-0.58945,0.45643,-0.0064091,0.2,0.82,0
0.22162,-0.14056,0.84529,-0.37578,-0.58438,-0.78113,-0.0067589,0,0,0.90336,-0.31938,0,-0.053002,0,0,0.43241,-0.016847,0,0.43312,-0.37547,-0.58469,-0.78113,-2.3802,-0.58043,0.44876,-0.0060791,0.22,0.82,0
0.23955,-0.13687,0.83049,-0.36773,-0.57575,-0.7675,0.0014729,0,0,0.89091,-0.31962,0,0.02081,0,0,0.43066,-0.023575,0,0.43202,-0.36772,-0.57576,-0.7675,0.33407,-0.57033,0.44197,-0.0057465,0.24,0.82,0
0.25726,-0.13096,0.81576,-0.3587,-0.56701,-0.75357,0.012773,0,0,0.88001,-0.31872,0,0.11769,0,0,0.42941,-0.031287,0,0.43174,-0.3578,-0.5679,-0.75357,4.0095,-0.55976,0.43614,-0.0053801,0.26,0.82,0
0.27475,-0.1223,0.80105,-0.35058,-0.55805,-0.73987,0.031588,0,0,0.86756,-0.31643,0,0.26353,0,0,0.42963,-0.0411,0,0.43349,-0.34484,-0.56379,-0.73987,9.7627,-0.5495,0.43237,-0.0049089,0.28,0.82,0
0.29196,-0.10966,0.7863,-0.36542,-0.56447,-0.73764,0.062455,0,0,0.82951,-0.31147,0,0.48699,0,0,0.43329,-0.05574,0,0.43981,-0.34357,-0.58632,-0.73764,17.505,-0.55584,0.42579,-0.0037383,0.3,0.82,0
0.30793,-0.091567,0.77134,-0.43999,-0.57345,-0.75398,0.18198,0,0,0.69975,-0.30028,0,1.1063,0,0,0.47444,-0.079175,0,0.48469,-0.29332,-0.72013,-0.75398,31.524,-0.58914,0.4922,0.004654,0.32,0.82,0
0.31995,-0.05424,0.75376,-0.57576,-1.118,-0.94781,0.28119,0,0,0.73403,-0.57458,0,1.6321,0,0,0.38388,-0.23952,0,0.45856,-0.45462,-1.2391,-0.94781,24.875,-0.88051,0.69057,0.018831,0.34,0.82,0
0.33996,-0.034512,0.74391,-0.61185,-1.5462,-1.3913,0.1961,0,0,1.0133,-0.20137,0,0.50987,0,0,0.43425,-0.25461,0,0.50124,-0.57236,-1.5857,-1.3913,11.385,-1.1831,0.93151,0.035495,0.36,0.82,0
0.36048,-0.025467,0.73639,-0.52626,-1.4348,-1.3247,0.06122,0,0,1.038,-0.14311,0,0.15917,0,0,0.35199,-0.17946,0,0.39506,-0.52216,-1.4389,-1.3247,3.8377,-1.0953,0.86533,0.031333,0.38,0.82,0
0.38148,-0.019119,0.72983,-0.46943,-1.344,-1.2738,0.015236,0,0,1.0457,-0.091146,0,0.039613,0,0,0.30584,-0.13834,0,0.33615,-0.46916,-1.3442,-1.2738,0.99779,-1.0291,0.84208,0.029947,0.4,0.82,0
0.40231,-0.014504,0.72416,-0.40702,-0.7894,-0.78135,-0.0090153,0,0,0.31515,-0.017937,0,-0.12064,0,0,0.27095,-0.069947,0,0.28377,-0.37973,-0.81669,-0.78135,-37.445,-0.65926,0.43311,0.013551,0.42,0.82,0
0.39408,-0.014394,0.69316,-0.3875,-0.34903,-0.33648,-0.0152,0,0,-0.3979,-0.097834,0,-0.23712,0,0,0.25489,-0.013019,0,0.25524,-0.34375,-0.39278,-0.33648,-70.842,-0.35767,0.053037,-7.1802e-06,0.44,0.82,0
0.3864,-0.014663,0.66299,-0.37654,-0.34807,-0.32788,-0.015012,0,0,-0.37955,-0.15749,0,-0.23419,0,0,0.24828,-0.0085715,0,0.24844,-0.34162,-0.383,-0.32788,-66.738,-0.35083,0.04969,-4.7151e-06,0.46,0.82,0
0.3789,-0.014904,0.63357,-0.36774,-0.34473,-0.31933,-0.013782,0,0,-0.37753,-0.19805,0,-0.215,0,0,0.24224,-0.0060363,0,0.24233,-0.33828,-0.37418,-0.31933,-64.927,-0.34393,0.048253,-2.9174e-06,0.48,0.82,0
0.3713,-0.014967,0.60485,-0.36062,-0.33953,-0.31085,-0.012293,0,0,-0.38821,-0.22364,0,-0.19177,0,0,0.23693,-0.0048622,0,0.23699,-0.33387,-0.36627,-0.31085,-65.318,-0.337,0.048224,-1.6584e-06,0.5,0.82,0
0.36337,-0.014834,0.57671,-0.35478,-0.33308,-0.30248,-0.010915,0,0,-0.40799,-0.23869,0,-0.17027,0,0,0.2324,-0.0045725,0,0.23246,-0.32854,-0.35932,-0.30248,-67.418,-0.33011,0.049286,-8.8074e-07,0.52,0.82,0
0.35498,-0.01455,0.54907,-0.34988,-0.32585,-0.29423,-0.0097496,0,0,-0.43406,-0.24662,0,-0.15209,0,0,0.22864,-0.004801,0,0.22869,-0.32239,-0.35334,-0.29423,-70.472,-0.32332,0.051207,-5.6232e-07,0.54,0.82,0
0.34601,-0.014165,0.52184,-0.34568,-0.31813,-0.28611,-0.0087764,0,0,-0.46458,-0.2497,0,-0.13691,0,0,0.22555,-0.0052974,0,0.22562,-0.31557,-0.34823,-0.28611,-73.749,-0.31664,0.053822,-7.1601e-07,0.56,0.82,0
0.33639,-0.013723,0.49494,-0.34202,-0.31009,-0.27812,-0.0079362,0,0,-0.4984,-0.24935,0,-0.1238,0,0,0.22306,-0.0059075,0,0.22314,-0.30823,-0.34388,-0.27812,-76.783,-0.31008,0.057018,-1.386e-06,0.58,0.82,0
0.32607,-0.013255,0.46831,-0.33882,-0.30186,-0.27026,-0.0071697,0,0,-0.5348,-0.24654,0,-0.11185,0,0,0.22106,-0.0065454,0,0.22115,-0.30052,-0.34016,-0.27026,-79.397,-0.30365,0.060722,-2.6422e-06,0.6,0.82,0
0.315,-0.012776,0.44189,-0.33601,-0.29352,-0.2625,-0.0064294,0,0,-0.57334,-0.24188,0,-0.1003,0,0,0.21948,-0.0071697,0,0.21959,-0.29256,-0.33696,-0.2625,-81.582,-0.29734,0.064879,-4.5745e-06,0.62,0.82,0
0.30314,-0.012297,0.41563,-0.33355,-0.2851,-0.25487,-0.0056814,0,0,-0.61372,-0.23581,0,-0.08863,0,0,0.21826,-0.0077666,0,0.2184,-0.28444,-0.3342,-0.25487,-83.4,-0.29117,0.069447,-7.2901e-06,0.64,0.82,0
0.29045,-0.011817,0.3895,-0.3314,-0.27665,-0.24733,-0.0049047,0,0,-0.65574,-0.22867,0,-0.076513,0,0,0.21737,-0.0083386,0,0.21753,-0.27621,-0.33184,-0.24733,-84.921,-0.28513,0.074396,-1.0912e-05,0.66,0.82,0
0.27691,-0.011335,0.36346,-0.32956,-0.2682,-0.2399,-0.0040892,0,0,-0.6993,-0.22069,0,-0.063792,0,0,0.21677,-0.0088972,0,0.21695,-0.26793,-0.32983,-0.2399,-86.204,-0.27922,0.079698,-1.558e-05,0.68,0.82,0
0.26248,-0.010849,0.33748,-0.328,-0.25977,-0.23258,-0.0032341,0,0,-0.74433,-0.21207,0,-0.050452,0,0,0.21644,-0.0094582,0,0.21665,-0.25961,-0.32816,-0.23258,-87.293,-0.27345,0.085336,-2.1451e-05,0.7,0.82,0
0.24714,-0.010355,0.31152,-0.32674,-0.25137,-0.22535,-0.0023468,0,0,-0.79082,-0.20294,0,-0.036611,0,0,0.2164,-0.010038,0,0.21663,-0.2513,-0.32681,-0.22535,-88.218,-0.26782,0.091296,-2.8702e-05,0.72,0.82,0
0.23085,-0.0098543,0.28554,-0.32577,-0.24303,-0.21823,-0.0014431,0,0,-0.83881,-0.19342,0,-0.022512,0,0,0.21665,-0.010651,0,0.21691,-0.243,-0.32579,-0.21823,-89.001,-0.26234,0.097566,-3.7533e-05,0.74,0.82,0
0.21358,-0.0093493,0.25952,-0.3251,-0.23475,-0.21121,-0.00054733,0,0,-0.88834,-0.18363,0,-0.0085383,0,0,0.21721,-0.011303,0,0.21751,-0.23475,-0.3251,-0.21121,-89.653,-0.25702,0.10414,-4.8162e-05,0.76,0.82,0
0.19531,-0.0088467,0.23341,-0.32474,-0.22656,-0.20429,0.00030642,0,0,-0.93947,-0.17371,0,0.0047801,0,0,0.21813,-0.011991,0,0.21846,-0.22656,-0.32474,-0.20429,89.821,-0.25186,0.111,-6.0818e-05,0.78,0.82,0
0.17601,-0.0083579,0.20717,-0.32468,-0.21849,-0.19748,0.0010747,0,0,-0.99218,-0.16385,0,0.016766,0,0,0.21943,-0.012689,0,0.2198,-0.21847,-0.32469,-0.19748,89.42,-0.24688,0.11812,-7.5715e-05,0.8,0.82,0
0.15563,-0.0078972,0.18075,-0.32491,-0.21055,-0.19076,0.0017084,0,0,-1.0463,-0.15437,0,0.026651,0,0,0.22119,-0.013338,0,0.2216,-0.21053,-0.32494,-0.19076,89.144,-0.24208,0.12546,-9.3002e-05,0.82,0.82,0
0.13415,-0.0074795,0.15409,-0.32538,-0.20283,-0.18414,0.0021625,0,0,-1.1017,-0.14573,0,0.033734,0,0,0.22345,-0.01383,0,0.22388,-0.20279,-0.32542,-0.18414,88.99,-0.23745,0.13294,-0.0001127,0.84,0.82,0
0.11156,-0.0071141,0.12712,-0.32602,-0.19536,-0.1776,0.0024122,0,0,-1.1577,-0.13854,0,0.03763,0,0,0.22621,-0.013988,0,0.22665,-0.19532,-0.32606,-0.1776,88.943,-0.23299,0.14044,-0.00013467,0.86,0.82,0
0.087847,-0.006796,0.099796,-0.32672,-0.1882,-0.17111,0.0024668,0,0,-1.2138,-0.1333,0,0.038482,0,0,0.22941,-0.013564,0,0.22981,-0.18815,-0.32677,-0.17111,88.98,-0.22868,0.14787,-0.00015865,0.88,0.82,0
0.06301,-0.0064992,0.072064,-0.32739,-0.18129,-0.16461,0.0023501,0,0,-1.2697,-0.13004,0,0.036661,0,0,0.23285,-0.012267,0,0.23318,-0.18125,-0.32743,-0.16461,89.079,-0.22443,0.15517,-0.00018446,0.9,0.82,0
0.037061,-0.0061828,0.043911,-0.32788,-0.17444,-0.15801,0.0020528,0,0,-1.325,-0.12813,0,0.032024,0,0,0.2362,-0.0098419,0,0.23641,-0.17441,-0.32791,-0.15801,89.234,-0.22011,0.16231,-0.00021209,0.92,0.82,0
0.010013,-0.0058129,0.015375,-0.32652,-0.23409,-0.17715,0.00012884,0,0,-0.75768,-0.12689,0,0.0094361,0,0,0.24199,-0.021623,0,0.24347,-0.23406,-0.32655,-0.17715,0.92183,-0.24592,0.13996,-8.2811e-05,0.94,0.82,0
0.0067534,-0.0059392,0.010451,-0.32605,-0.30371,-0.19938,-0.0034802,0,0,-0.16467,-0.13563,0,-0.0090485,0,0,0.25207,-0.029515,0,0.25383,-0.30318,-0.32658,-0.19938,-81.346,-0.27638,0.11726,7.183e-05,0.96,0.82,0
0.0034259,-0.0061669,0.0052918,-0.3245,-0.30661,-0.19462,-0.0035123,0,0,-0.16884,-0.14558,0,-0.0091319,0,0,0.26128,-0.016352,0,0.26174,-0.30594,-0.32516,-0.19462,-79.281,-0.27524,0.12207,8.5666e-05,0.98,0.82,0
0,-0.0062688,0,-0.3169,-0.30021,-0.18513,-0.0019579,0,0,-0.17129,-0.1496,0,-0.0050906,0,0,0.26459,7.8063e-18,0,0.2645,-0.29999,-0.31712,-0.18513,-83.396,-0.26741,0.12431,9.2371e-05,1,0.82,0
0,-0.027478,1,-0.70686,-1.7603,-1.7401,-0.040989,0,0,1.3433,-0.026165,0,-0.10657,0,0,0.53955,6.2797e-16,0,0.53885,-0.70527,-1.7619,-1.7401,-2.2249,-1.4024,1.0459,0.058676,0,0.84,0
0.026865,-0.029609,0.98921,-0.6841,-1.7364,-1.7153,-0.085391,0,0,1.3406,-0.027329,0,-0.22202,0,0,0.55355,0.066769,0,0.55687,-0.67722,-1.7433,-1.7153,-4.6093,-1.3786,1.0524,0.059716,0.02,0.84,0
0.053625,-0.037266,0.97786,-0.70898,-1.747,-1.7147,-0.2092,0,0,1.3074,-0.042065,0,-0.54391,0,0,0.6091,0.1414,0,0.62536,-0.66841,-1.7876,-1.7147,-10.976,-1.3902,1.0845,0.064522,0.04,0.84,0
0.07916,-0.053671,0.96484,-0.76571,-1.5758,-1.6673,-0.36498,0,0,1.1721,0.11893,0,-0.94896,0,0,0.68566,0.19845,0,0.71669,-0.62553,-1.716,-1.6673,-21.011,-1.3363,1.067,0.061945,0.06,0.84,0
0.10051,-0.078643,0.95043,-0.69316,-0.84283,-1.4112,-0.31622,0,0,0.93349,0.73892,0,-0.82216,0,0,0.74387,0.083625,0,0.74738,-0.44304,-1.093,-1.4112,-38.343,-0.98241,0.85471,0.017727,0.08,0.84,0
0.1165,-0.098588,0.93509,-0.7686,-0.77565,-1.3984,-0.19267,0,0,0.81869,0.80953,0,-0.50095,0,0,0.76182,0.04818,0,0.76326,-0.57942,-0.96483,-1.3984,-44.476,-0.98087,0.70964,-0.0018643,0.1,0.84,0
0.13326,-0.11102,0.91996,-0.68517,-0.70856,-1.3381,-0.10776,0,0,0.84878,0.81837,0,-0.28018,0,0,0.75393,0.028893,0,0.75446,-0.58847,-0.80526,-1.3381,-41.903,-0.9106,0.66813,-0.010058,0.12,0.84,0
0.15045,-0.11916,0.90493,-0.63463,-0.67523,-1.2979,-0.067881,0,0,0.86224,0.80946,0,-0.17649,0,0,0.74911,0.016221,0,0.74927,-0.58408,-0.72578,-1.2979,-36.674,-0.86925,0.65457,-0.01216,0.14,0.84,0
0.16775,-0.12414,0.88999,-0.6051,-0.6549,-1.268,-0.044961,0,0,0.86177,0.79702,0,-0.1169,0,0,0.74508,0.0067716,0,0.74511,-0.5786,-0.68139,-1.268,-30.51,-0.84266,0.64418,-0.012559,0.16,0.84,0
0.18492,-0.12668,0.87513,-0.58761,-0.64091,-1.2437,-0.031086,0,0,0.8529,0.78361,0,-0.080824,0,0,0.74151,-0.00092683,0,0.74151,-0.57331,-0.6552,-1.2437,-24.697,-0.82407,0.63341,-0.01232,0.18,0.84,0
0.20186,-0.12716,0.86033,-0.57691,-0.63045,-1.2225,-0.021449,0,0,0.83932,0.76972,0,-0.055767,0,0,0.73809,-0.0076948,0,0.73813,-0.56938,-0.63798,-1.2225,-19.352,-0.80997,0.62171,-0.011837,0.2,0.84,0
0.21849,-0.12573,0.84561,-0.57082,-0.62278,-1.2037,-0.013001,0,0,0.82273,0.75518,0,-0.033802,0,0,0.73459,-0.014126,0,0.73472,-0.56775,-0.62585,-1.2037,-13.292,-0.79909,0.60897,-0.011243,0.22,0.84,0
0.23477,-0.12235,0.83095,-0.56944,-0.61841,-1.1873,-0.0028564,0,0,0.80322,0.73957,0,-0.0074267,0,0,0.73088,-0.020817,0,0.73117,-0.56927,-0.61857,-1.1873,-3.3272,-0.79172,0.59491,-0.010564,0.24,0.84,0
0.25062,-0.11677,0.81637,-0.57564,-0.6196,-1.1749,0.013131,0,0,0.7791,0.72195,0,0.034141,0,0,0.72692,-0.028608,0,0.72748,-0.57201,-0.62322,-1.1749,15.427,-0.79006,0.57903,-0.009708,0.26,0.84,0
0.26593,-0.10842,0.80187,-0.59562,-0.63171,-1.1701,0.041551,0,0,0.74679,0.69987,0,0.10803,0,0,0.72272,-0.03907,0,0.72376,-0.56837,-0.65896,-1.1701,33.264,-0.79913,0.56191,-0.0083194,0.28,0.84,0
0.28049,-0.096357,0.78746,-0.63939,-0.6717,-1.1808,0.10539,0,0,0.70382,0.66181,0,0.27402,0,0,0.72057,-0.055956,0,0.72266,-0.54892,-0.76217,-1.1808,40.642,-0.83063,0.55676,-0.0046822,0.3,0.84,0
0.29409,-0.0779,0.77305,-0.55334,-0.71171,-1.1526,0.20076,0,0,0.77899,0.57312,0,0.52198,0,0,0.69082,-0.090033,0,0.69522,-0.41671,-0.84834,-1.1526,34.238,-0.80587,0.64044,0.0039727,0.32,0.84,0
0.31165,-0.05479,0.75983,-0.58523,-1.295,-1.3239,0.23551,0,0,0.96026,0.037591,0,0.61232,0,0,0.61441,-0.21183,0,0.65417,-0.51419,-1.366,-1.3239,16.785,-1.068,0.83156,0.029277,0.34,0.84,0
0.3325,-0.037967,0.74847,-0.51246,-1.4194,-1.328,0.11138,0,0,1.0602,-0.1188,0,0.2896,0,0,0.50783,-0.17517,0,0.53941,-0.49899,-1.4329,-1.328,6.8999,-1.0866,0.88615,0.034058,0.36,0.84,0
0.35406,-0.027709,0.73952,-0.46636,-1.3648,-1.2889,0.023282,0,0,1.0692,-0.098697,0,0.060534,0,0,0.40777,-0.12068,0,0.42634,-0.46576,-1.3654,-1.2889,1.4835,-1.04,0.86391,0.03224,0.38,0.84,0
0.37527,-0.020638,0.73216,-0.45174,-1.3138,-1.2618,-0.015121,0,0,1.0531,-0.067578,0,-0.039313,0,0,0.33475,-0.084508,0,0.34656,-0.45148,-1.3141,-1.2618,-1.0045,-1.0091,0.8377,0.029796,0.4,0.84,0
0.39619,-0.014679,0.72613,-0.40252,-0.78432,-0.77963,-0.026166,0,0,0.32618,-0.010461,0,-0.25285,0,0,0.2835,-0.039117,0,0.28803,-0.3711,-0.81575,-0.77963,-33.549,-0.65549,0.43992,0.013624,0.42,0.84,0
0.38831,-0.016348,0.69431,-0.38465,-0.34988,-0.33608,-0.026801,0,0,-0.37886,-0.10768,0,-0.41809,0,0,0.26041,-0.0047628,0,0.26049,-0.33532,-0.39921,-0.33608,-61.484,-0.35687,0.063514,-1.3153e-05,0.44,0.84,0
0.38103,-0.017902,0.66363,-0.37396,-0.35032,-0.32789,-0.024226,0,0,-0.35937,-0.17495,0,-0.37792,0,0,0.25147,-0.0011104,0,0.2515,-0.33518,-0.3891,-0.32789,-58.006,-0.35072,0.057905,-9.4403e-06,0.46,0.84,0
0.37394,-0.018984,0.63396,-0.36533,-0.34711,-0.31939,-0.021068,0,0,-0.3583,-0.21621,0,-0.32867,0,0,0.24371,0.00039571,0,0.24374,-0.33326,-0.37917,-0.31939,-56.69,-0.34394,0.054192,-6.4033e-06,0.48,0.84,0
0.3667,-0.019554,0.60514,-0.35841,-0.34157,-0.31085,-0.018191,0,0,-0.37095,-0.23961,0,-0.28378,0,0,0.23725,0.00047314,0,0.23727,-0.32994,-0.37003,-0.31085,-57.418,-0.33694,0.052318,-4.1898e-06,0.5,0.84,0
0.3591,-0.019708,0.57701,-0.35274,-0.33474,-0.30241,-0.015831,0,0,-0.39257,-0.25213,0,-0.24697,0,0,0.23205,-0.00025281,0,0.23206,-0.32553,-0.36195,-0.30241,-59.812,-0.32997,0.05199,-2.7108e-06,0.52,0.84,0
0.351,-0.019568,0.54945,-0.34795,-0.3272,-0.29412,-0.013943,0,0,-0.4199,-0.25801,0,-0.21751,0,0,0.22793,-0.0013442,0,0.22794,-0.32019,-0.35496,-0.29412,-63.33,-0.32309,0.052865,-1.8538e-06,0.54,0.84,0
0.34231,-0.019234,0.52231,-0.34381,-0.31926,-0.28597,-0.012404,0,0,-0.45111,-0.25962,0,-0.1935,0,0,0.22471,-0.0025447,0,0.22473,-0.31408,-0.34898,-0.28597,-67.35,-0.31634,0.054675,-1.5563e-06,0.56,0.84,0
0.33296,-0.01878,0.49552,-0.34017,-0.31109,-0.27796,-0.011099,0,0,-0.48522,-0.25836,0,-0.17314,0,0,0.22219,-0.003723,0,0.22222,-0.30733,-0.34392,-0.27796,-71.325,-0.30974,0.057236,-1.8116e-06,0.58,0.84,0
0.3229,-0.018252,0.46899,-0.33697,-0.30279,-0.27009,-0.0099347,0,0,-0.52163,-0.25503,0,-0.15498,0,0,0.22022,-0.0048225,0,0.22027,-0.30011,-0.33964,-0.27009,-74.914,-0.30328,0.060422,-2.6544e-06,0.6,0.84,0
0.31209,-0.01768,0.44266,-0.33413,-0.29442,-0.26234,-0.0088444,0,0,-0.55996,-0.25018,0,-0.13797,0,0,0.21869,-0.0058294,0,0.21876,-0.29253,-0.33601,-0.26234,-77.996,-0.29696,0.064145,-4.1504e-06,0.62,0.84,0
0.3005,-0.01708,0.4165,-0.33163,-0.28601,-0.25471,-0.0077787,0,0,-0.59999,-0.24415,0,-0.12135,0,0,0.21752,-0.0067529,0,0.21762,-0.28472,-0.33292,-0.25471,-80.585,-0.29078,0.068341,-6.3902e-06,0.64,0.84,0
0.28809,-0.01646,0.39046,-0.32944,-0.27759,-0.24719,-0.0067053,0,0,-0.64156,-0.23718,0,-0.1046,0,0,0.21665,-0.0076144,0,0.21679,-0.27674,-0.33029,-0.24719,-82.749,-0.28474,0.072963,-9.4866e-06,0.66,0.84,0
0.27484,-0.015821,0.36451,-0.32754,-0.26918,-0.23977,-0.0056039,0,0,-0.6846,-0.22945,0,-0.087421,0,0,0.21607,-0.0084413,0,0.21623,-0.26865,-0.32807,-0.23977,-84.564,-0.27883,0.077981,-1.3574e-05,0.68,0.84,0
0.26071,-0.015165,0.3386,-0.32592,-0.26079,-0.23245,-0.0044647,0,0,-0.7291,-0.22109,0,-0.069649,0,0,0.21574,-0.0092631,0,0.21593,-0.26049,-0.32623,-0.23245,-86.097,-0.27305,0.083373,-1.8812e-05,0.7,0.84,0
0.24567,-0.014491,0.31273,-0.32461,-0.25244,-0.22523,-0.0032863,0,0,-0.7751,-0.21217,0,-0.051267,0,0,0.21566,-0.01011,0,0.2159,-0.25229,-0.32476,-0.22523,-87.398,-0.26743,0.089129,-2.539e-05,0.72,0.84,0
0.2297,-0.0138,0.28685,-0.32161,-0.24293,-0.21717,-0.0018707,0,0,-0.81465,-0.20092,0,-0.029184,0,0,0.21581,-0.010954,0,0.21608,-0.24288,-0.32166,-0.21717,-88.639,-0.26057,0.094297,-3.251e-05,0.74,0.84,0
0.21276,-0.013096,0.26092,-0.32464,-0.23624,-0.21175,-0.00069178,0,0,-0.88054,-0.19101,0,-0.010792,0,0,0.21648,-0.011876,0,0.21681,-0.23623,-0.32465,-0.21175,-89.552,-0.25754,0.10286,-4.5403e-05,0.76,0.84,0
0.19482,-0.012389,0.23492,-0.3205,-0.22638,-0.20322,0.00045692,0,0,-0.91483,-0.18066,0,0.007128,0,0,0.21706,-0.012874,0,0.21744,-0.22638,-0.3205,-0.20322,89.722,-0.25003,0.10759,-5.4115e-05,0.78,0.84,0
0.17582,-0.011693,0.20878,-0.32464,-0.21997,-0.19818,0.0015056,0,0,-0.98638,-0.16996,0,0.023487,0,0,0.21879,-0.013939,0,0.21924,-0.21995,-0.32466,-0.19818,89.176,-0.2476,0.11712,-7.3003e-05,0.8,0.84,0
0.15573,-0.011026,0.18247,-0.32101,-0.21016,-0.18976,0.0024781,0,0,-1.0237,-0.15909,0,0.038658,0,0,0.22001,-0.015024,0,0.22053,-0.2101,-0.32106,-0.18976,88.72,-0.24031,0.1224,-8.5492e-05,0.82,0.84,0
0.13449,-0.010414,0.1559,-0.32634,-0.20417,-0.18514,0.0031122,0,0,-1.1014,-0.14846,0,0.04855,0,0,0.22333,-0.01602,0,0.22391,-0.20409,-0.32642,-0.18514,88.542,-0.23855,0.13283,-0.00011214,0.84,0.84,0
0.11207,-0.0098798,0.12898,-0.32318,-0.19463,-0.17684,0.0036163,0,0,-1.1414,-0.13879,0,0.056415,0,0,0.22549,-0.016723,0,0.22612,-0.19453,-0.32328,-0.17684,88.39,-0.23155,0.13844,-0.00012881,0.86,0.84,0
0.088428,-0.0094321,0.10163,-0.32931,-0.18931,-0.17252,0.0036454,0,0,-1.2229,-0.13092,0,0.056868,0,0,0.23085,-0.016792,0,0.23147,-0.18921,-0.3294,-0.17252,88.509,-0.23038,0.14924,-0.00016352,0.88,0.84,0
0.06356,-0.0090474,0.073755,-0.32634,-0.18034,-0.16429,0.0035156,0,0,-1.2639,-0.12512,0,0.054844,0,0,0.23392,-0.015774,0,0.23447,-0.18025,-0.32642,-0.16429,88.621,-0.22366,0.15477,-0.00018359,0.9,0.84,0
0.037459,-0.0086687,0.045296,-0.33248,-0.17534,-0.15989,0.0030662,0,0,-1.3461,-0.12047,0,0.047833,0,0,0.2403,-0.013208,0,0.24067,-0.17528,-0.33253,-0.15989,88.883,-0.22257,0.16549,-0.00022599,0.92,0.84,0
0.010126,-0.0082456,0.016271,-0.33034,-0.23227,-0.17827,-0.0013543,0,0,-0.76714,-0.11707,0,0.010704,0,0,0.24849,-0.027156,0,0.25052,-0.23192,-0.33069,-0.17827,3.4822,-0.24696,0.1421,-9.316e-05,0.94,0.84,0
0.006774,-0.0086133,0.011169,-0.32961,-0.30195,-0.20064,-0.0068274,0,0,-0.16767,-0.13171,0,-0.017751,0,0,0.26764,-0.042661,0,0.27107,-0.30036,-0.33121,-0.20064,-76.863,-0.2774,0.1182,6.5745e-05,0.96,0.84,0
0.0034198,-0.0090995,0.0056904,-0.32646,-0.30994,-0.19661,-0.0068195,0,0,-0.1688,-0.14733,0,-0.017731,0,0,0.27744,-0.023761,0,0.27839,-0.30749,-0.32891,-0.19661,-70.225,-0.27767,0.123,8.5877e-05,0.98,0.84,0
0,-0.0093037,0,-0.31773,-0.30292,-0.18619,-0.0039252,0,0,-0.17099,-0.15174,0,-0.010205,0,0,0.28452,0,0,0.28441,-0.30195,-0.3187,-0.18619,-76.033,-0.26895,0.12498,9.4203e-05,1,0.84,0
0,-0.027526,1,-0.63504,-1.6796,-1.6944,-0.043052,0,0,1.3771,0.019276,0,-0.11194,0,0,0.59663,-2.2066e-15,0,0.59632,-0.63327,-1.6813,-1.6944,-2.3563,-1.3363,1.0546,0.060216,0,0.86,0
0.027543,-0.029765,0.98807,-0.62219,-1.6646,-1.6741,-0.066286,0,0,1.3675,0.012353,0,-0.17234,0,0,0.60427,0.050003,0,0.60608,-0.61799,-1.6688,-1.6741,-3.6239,-1.3203,1.0535,0.060042,0.02,0.86,0
0.054507,-0.037017,0.97568,-0.6701,-1.6315,-1.6661,-0.2041,0,0,1.2949,0.045102,0,-0.53066,0,0,0.64477,0.093247,0,0.65178,-0.62856,-1.673,-1.6661,-11.503,-1.3226,1.041,0.057935,0.04,0.86,0
0.07987,-0.050041,0.96253,-0.65714,-1.4259,-1.5874,-0.27159,0,0,1.2094,0.21,0,-0.70612,0,0,0.67104,0.1009,0,0.67885,-0.57087,-1.5122,-1.5874,-17.622,-1.2235,0.9811,0.047541,0.06,0.86,0
0.10171,-0.066923,0.94856,-0.73218,-1.0567,-1.4852,-0.29898,0,0,0.97897,0.55706,0,-0.77734,0,0,0.71608,0.083281,0,0.72096,-0.55427,-1.2346,-1.4852,-30.754,-1.0914,0.83437,0.021011,0.08,0.86,0
0.12016,-0.082727,0.93406,-0.70016,-0.80328,-1.3851,-0.23053,0,0,0.89041,0.75636,0,-0.59937,0,0,0.72888,0.049926,0,0.7305,-0.5155,-0.98794,-1.3851,-38.696,-0.96284,0.75403,0.0032871,0.1,0.86,0
0.13668,-0.094702,0.91933,-0.73933,-0.74862,-1.3657,-0.13035,0,0,0.81429,0.80222,0,-0.33892,0,0,0.7376,0.031391,0,0.73824,-0.61354,-0.87441,-1.3657,-43.98,-0.95122,0.66151,-0.0074541,0.12,0.86,0
0.15285,-0.10282,0.90457,-0.71078,-0.70585,-1.3296,-0.096263,0,0,0.80441,0.81082,0,-0.25028,0,0,0.73761,0.01885,0,0.73784,-0.61202,-0.80461,-1.3296,-45.734,-0.9154,0.64324,-0.0096515,0.14,0.86,0
0.16886,-0.10798,0.88982,-0.686,-0.67501,-1.2981,-0.063359,0,0,0.79577,0.81005,0,-0.16473,0,0,0.73631,0.0094892,0,0.73636,-0.61691,-0.7441,-1.2981,-47.477,-0.88638,0.62737,-0.010946,0.16,0.86,0
0.18468,-0.11076,0.87511,-0.66865,-0.6547,-1.2721,-0.042446,0,0,0.78451,0.80264,0,-0.11036,0,0,0.73422,0.0019436,0,0.73422,-0.61866,-0.70469,-1.2721,-49.666,-0.86516,0.61497,-0.011161,0.18,0.86,0
0.20024,-0.1115,0.86045,-0.65834,-0.64131,-1.2504,-0.0279,0,0,0.76961,0.79175,0,-0.072539,0,0,0.73153,-0.0045451,0,0.73154,-0.62066,-0.679,-1.2504,-53.484,-0.85,0.60264,-0.010887,0.2,0.86,0
0.21546,-0.11035,0.84585,-0.65411,-0.63365,-1.2322,-0.01534,0,0,0.7515,0.77809,0,-0.039883,0,0,0.72815,-0.010528,0,0.72822,-0.62545,-0.66232,-1.2322,-61.846,-0.83998,0.58917,-0.010365,0.22,0.86,0
0.2303,-0.10729,0.83133,-0.6556,-0.63243,-1.2177,-0.00059876,0,0,0.73077,0.7609,0,-0.0015568,0,0,0.7238,-0.016542,0,0.72399,-0.63241,-0.65562,-1.2177,-88.521,-0.83526,0.57407,-0.0096634,0.24,0.86,0
0.24469,-0.10208,0.8169,-0.66223,-0.64046,-1.2077,0.021315,0,0,0.70912,0.73742,0,0.055419,0,0,0.71789,-0.023321,0,0.71827,-0.62741,-0.67528,-1.2077,58.529,-0.8368,0.5579,-0.0086977,0.26,0.86,0
0.25866,-0.094301,0.80261,-0.67041,-0.66507,-1.2033,0.05838,0,0,0.6927,0.69964,0,0.15179,0,0,0.70915,-0.032184,0,0.70988,-0.6093,-0.72618,-1.2033,46.308,-0.84625,0.545,-0.0070421,0.28,0.86,0
0.2724,-0.083183,0.78853,-0.6477,-0.7151,-1.1974,0.11406,0,0,0.71457,0.62696,0,0.29656,0,0,0.69183,-0.045787,0,0.69332,-0.56247,-0.80034,-1.1974,36.77,-0.8534,0.55558,-0.0036815,0.3,0.86,0
0.28724,-0.068642,0.77494,-0.60227,-0.88045,-1.2197,0.17068,0,0,0.80273,0.4411,0,0.44377,0,0,0.65746,-0.071001,0,0.66162,-0.52118,-0.96153,-1.2197,25.412,-0.90082,0.6118,0.0050967,0.32,0.86,0
0.30451,-0.052737,0.76224,-0.56596,-1.1654,-1.2816,0.15062,0,0,0.93039,0.15111,0,0.39161,0,0,0.60052,-0.084743,0,0.60749,-0.53024,-1.2011,-1.2816,13.341,-1.0043,0.71456,0.017938,0.34,0.86,0
0.32446,-0.039264,0.75092,-0.50291,-1.3028,-1.2926,0.069349,0,0,1.0266,-0.013196,0,0.18031,0,0,0.5254,-0.077539,0,0.53286,-0.49694,-1.3087,-1.2926,4.9187,-1.0328,0.80386,0.026643,0.36,0.86,0
0.34558,-0.029414,0.74122,-0.46033,-1.3222,-1.276,-0.0031017,0,0,1.0603,-0.060079,0,-0.0080644,0,0,0.44266,-0.044036,0,0.44656,-0.46032,-1.3222,-1.276,-0.20619,-1.0195,0.83973,0.030101,0.38,0.86,0
0.36687,-0.021822,0.73321,-0.43973,-1.2957,-1.2538,-0.036136,0,0,1.0584,-0.054457,0,-0.093953,0,0,0.35946,-0.011737,0,0.36183,-0.43821,-1.2973,-1.2538,-2.4129,-0.99644,0.8382,0.029972,0.4,0.86,0
0.38791,-0.014922,0.72684,-0.39893,-0.78773,-0.77999,-0.041643,0,0,0.3427,-0.017255,0,-0.37631,0,0,0.29481,0.0030095,0,0.29615,-0.36321,-0.82346,-0.77999,-31.083,-0.65555,0.45199,0.014082,0.42,0.86,0
0.38058,-0.018701,0.6943,-0.38157,-0.35275,-0.33601,-0.037908,0,0,-0.35537,-0.13052,0,-0.59136,0,0,0.26702,0.004256,0,0.26712,-0.3266,-0.40772,-0.33601,-55.409,-0.35678,0.07684,-2.2128e-05,0.44,0.86,0
0.37392,-0.021661,0.66325,-0.36833,-0.35019,-0.3261,-0.030586,0,0,-0.32942,-0.18792,0,-0.47714,0,0,0.25344,0.0031283,0,0.25345,-0.32736,-0.39116,-0.3261,-53.259,-0.34821,0.064444,-1.3728e-05,0.46,0.86,0
0.36741,-0.023553,0.63348,-0.36022,-0.34704,-0.31776,-0.025574,0,0,-0.3312,-0.22842,0,-0.39896,0,0,0.24382,0.0039586,0,0.24385,-0.32722,-0.38004,-0.31776,-52.223,-0.34168,0.058131,-9.1941e-06,0.48,0.86,0
0.36067,-0.024551,0.60474,-0.35395,-0.34144,-0.30941,-0.021527,0,0,-0.34746,-0.24985,0,-0.33582,0,0,0.23628,0.0033486,0,0.2363,-0.32528,-0.37011,-0.30941,-53.103,-0.33493,0.054532,-6.0117e-06,0.5,0.86,0
0.35351,-0.02492,0.57677,-0.34876,-0.33453,-0.30112,-0.018442,0,0,-0.37166,-0.2606,0,-0.28769,0,0,0.23059,0.0020143,0,0.23059,-0.32188,-0.36141,-0.30112,-55.555,-0.32814,0.053056,-3.9017e-06,0.52,0.86,0
0.3458,-0.02487,0.54939,-0.34609,-0.3289,-0.29406,-0.017243,0,0,-0.4058,-0.27174,0,-0.269,0,0,0.22574,0.001598,0,0.22575,-0.31823,-0.35676,-0.29406,-58.245,-0.32302,0.054771,-3.244e-06,0.54,0.86,0
0.33748,-0.02455,0.52245,-0.33966,-0.31969,-0.28488,-0.015464,0,0,-0.42731,-0.27151,0,-0.24123,0,0,0.22363,-0.00027756,0,0.22363,-0.31127,-0.34809,-0.28488,-61.428,-0.31475,0.054984,-2.4e-06,0.56,0.86,0
0.32849,-0.024058,0.49583,-0.3369,-0.31078,-0.27694,-0.012569,0,0,-0.46766,-0.26391,0,-0.19608,0,0,0.22078,-0.0026379,0,0.22079,-0.30571,-0.34196,-0.27694,-68.049,-0.3082,0.056435,-1.8258e-06,0.58,0.86,0
0.31877,-0.023456,0.46946,-0.33564,-0.30414,-0.27018,-0.012148,0,0,-0.51063,-0.26488,0,-0.18952,0,0,0.21868,-0.0034577,0,0.21871,-0.3,-0.33978,-0.27018,-71.18,-0.30332,0.060486,-2.7839e-06,0.6,0.86,0
0.30831,-0.022784,0.44329,-0.33164,-0.29563,-0.26206,-0.011276,0,0,-0.54272,-0.26182,0,-0.17591,0,0,0.21755,-0.0045761,0,0.21759,-0.29239,-0.33488,-0.26206,-73.972,-0.29644,0.063355,-3.7151e-06,0.62,0.86,0
0.29707,-0.022062,0.41725,-0.32913,-0.28721,-0.25444,-0.0099128,0,0,-0.58253,-0.25558,0,-0.15464,0,0,0.21648,-0.005803,0,0.21655,-0.28498,-0.33135,-0.25444,-77.343,-0.29026,0.067074,-5.384e-06,0.64,0.86,0
0.28501,-0.021304,0.39133,-0.32689,-0.27881,-0.24693,-0.00856,0,0,-0.62369,-0.24865,0,-0.13354,0,0,0.21568,-0.0069256,0,0.21579,-0.27733,-0.32837,-0.24693,-80.201,-0.28421,0.071278,-7.8529e-06,0.66,0.86,0
0.27212,-0.020513,0.36549,-0.32493,-0.27044,-0.23952,-0.007187,0,0,-0.66615,-0.24112,0,-0.11212,0,0,0.21512,-0.0079903,0,0.21526,-0.26951,-0.32586,-0.23952,-82.611,-0.2783,0.075923,-1.1241e-05,0.68,0.86,0
0.25837,-0.019692,0.3397,-0.32323,-0.2621,-0.23222,-0.005773,0,0,-0.70994,-0.23307,0,-0.090058,0,0,0.21477,-0.0090426,0,0.21496,-0.26156,-0.32377,-0.23222,-84.653,-0.27252,0.080977,-1.5697e-05,0.7,0.86,0
0.24372,-0.018842,0.31394,-0.32182,-0.25379,-0.22501,-0.0043049,0,0,-0.75515,-0.22451,0,-0.067156,0,0,0.21466,-0.010128,0,0.21489,-0.25352,-0.32209,-0.22501,-86.394,-0.26687,0.086431,-2.1405e-05,0.72,0.86,0
0.22816,-0.017964,0.28819,-0.31917,-0.2453,-0.21737,-0.0030173,0,0,-0.79403,-0.21782,0,-0.047069,0,0,0.21474,-0.011329,0,0.21503,-0.24517,-0.31929,-0.21737,-87.665,-0.26061,0.091254,-2.7161e-05,0.74,0.86,0
0.21164,-0.017063,0.2624,-0.32208,-0.23864,-0.21195,-0.0013581,0,0,-0.859,-0.20819,0,-0.021186,0,0,0.21527,-0.012659,0,0.21564,-0.23862,-0.3221,-0.21195,-89.068,-0.25755,0.099532,-3.865e-05,0.76,0.86,0
0.19413,-0.016144,0.23654,-0.31794,-0.2288,-0.20344,0.00031681,0,0,-0.89304,-0.19777,0,0.0049422,0,0,0.21576,-0.014159,0,0.21623,-0.2288,-0.31794,-0.20344,89.796,-0.25006,0.10416,-4.6646e-05,0.78,0.86,0
0.17557,-0.015221,0.21058,-0.32215,-0.22232,-0.19844,0.0020098,0,0,-0.96494,-0.1863,0,0.031353,0,0,0.21735,-0.015863,0,0.21793,-0.22228,-0.32219,-0.19844,88.847,-0.24764,0.11372,-6.4478e-05,0.8,0.86,0
0.1559,-0.014314,0.18444,-0.31861,-0.21225,-0.19,0.0036856,0,0,-1.0032,-0.17355,0,0.057496,0,0,0.21854,-0.01778,0,0.21926,-0.21212,-0.31874,-0.19,88.018,-0.24029,0.11923,-7.7051e-05,0.82,0.86,0
0.13505,-0.013453,0.15804,-0.3246,-0.20594,-0.1855,0.0050865,0,0,-1.085,-0.15939,0,0.07935,0,0,0.222,-0.019862,0,0.22289,-0.20572,-0.32482,-0.1855,87.55,-0.23868,0.13039,-0.00010469,0.84,0.86,0
0.11293,-0.012676,0.13128,-0.32175,-0.19556,-0.17707,0.0063292,0,0,-1.1285,-0.14417,0,0.098735,0,0,0.22445,-0.021937,0,0.22552,-0.19524,-0.32207,-0.17707,87.136,-0.23146,0.13682,-0.00012376,0.86,0.86,0
0.089461,-0.012015,0.10401,-0.32939,-0.18957,-0.17302,0.0068639,0,0,-1.2197,-0.12907,0,0.10708,0,0,0.23106,-0.023567,0,0.23228,-0.18923,-0.32972,-0.17302,87.196,-0.23066,0.14926,-0.00016401,0.88,0.86,0
0.064603,-0.011459,0.076051,-0.32708,-0.17954,-0.16466,0.0070209,0,0,-1.2669,-0.11605,0,0.10953,0,0,0.23521,-0.023859,0,0.23644,-0.1792,-0.32741,-0.16466,87.282,-0.22376,0.15599,-0.00018923,0.9,0.86,0
0.038307,-0.010925,0.047282,-0.33564,-0.17394,-0.16075,0.0065871,0,0,-1.3641,-0.10283,0,0.10276,0,0,0.24449,-0.021648,0,0.24547,-0.17367,-0.33591,-0.16075,87.671,-0.22344,0.16907,-0.00024331,0.92,0.86,0
0.010532,-0.010313,0.017658,-0.32601,-0.20371,-0.16922,0.0048874,0,0,-0.78247,-0.081971,0,0.041493,0,0,0.25755,-0.062034,0,0.26841,-0.20347,-0.32625,-0.16922,87.287,-0.23298,0.14549,-0.000142,0.94,0.86,0
0.007008,-0.011168,0.012293,-0.33576,-0.29585,-0.20178,-0.0043651,0,0,-0.17418,-0.12229,0,-0.011349,0,0,0.28856,-0.07835,0,0.29927,-0.29537,-0.33623,-0.20178,-83.831,-0.27779,0.11939,5.4151e-05,0.96,0.86,0
0.0035446,-0.012074,0.0063188,-0.3357,-0.31473,-0.20145,-0.0063373,0,0,-0.17452,-0.14727,0,-0.016477,0,0,0.30446,-0.043743,0,0.30728,-0.31296,-0.33746,-0.20145,-74.423,-0.28396,0.12557,8.8786e-05,0.98,0.86,0
0,-0.012426,0,-0.32752,-0.30977,-0.19119,-0.0067651,0,0,-0.17723,-0.15416,0,-0.017589,0,0,0.31594,1.3878e-17,0,0.31529,-0.30749,-0.3298,-0.19119,-71.338,-0.27616,0.12892,9.9013e-05,1,0.86,0
0,-0.026707,1,-0.60286,-1.6088,-1.6635,-0.038567,0,0,1.3788,0.071124,0,-0.10027,0,0,0.63248,1.4225e-15,0,0.63236,-0.60139,-1.6103,-1.6635,-2.1924,-1.2917,1.0365,0.056686,0,0.88,0
0.027576,-0.028712,0.98735,-0.57704,-1.5501,-1.6255,-0.069806,0,0,1.363,0.098024,0,-0.18149,0,0,0.63675,0.026244,0,0.63724,-0.57206,-1.5551,-1.6255,-4.0825,-1.2509,1.02,0.053635,0.02,0.88,0
0.054203,-0.03481,0.97445,-0.63182,-1.4845,-1.6093,-0.17984,0,0,1.2708,0.16232,0,-0.46759,0,0,0.65967,0.045551,0,0.66131,-0.59545,-1.5209,-1.6093,-11.436,-1.2419,0.97267,0.045946,0.04,0.88,0
0.079012,-0.044702,0.96111,-0.62094,-1.3121,-1.541,-0.22821,0,0,1.1961,0.29758,0,-0.59334,0,0,0.67463,0.053539,0,0.67686,-0.55239,-1.3807,-1.541,-16.719,-1.158,0.91901,0.035807,0.06,0.88,0
0.10116,-0.056939,0.9473,-0.72675,-1.1344,-1.5057,-0.25514,0,0,1.0126,0.48259,0,-0.66337,0,0,0.7028,0.049818,0,0.70461,-0.60402,-1.2572,-1.5057,-25.689,-1.1223,0.80663,0.018582,0.08,0.88,0
0.12046,-0.069068,0.93312,-0.70964,-0.93193,-1.4256,-0.23051,0,0,0.93073,0.64177,0,-0.59932,0,0,0.71301,0.03965,0,0.71411,-0.56488,-1.0767,-1.4256,-32.129,-1.0224,0.74984,0.0069454,0.1,0.88,0
0.1377,-0.079213,0.91871,-0.7648,-0.82797,-1.3965,-0.16081,0,0,0.82126,0.73913,0,-0.41811,0,0,0.72451,0.028162,0,0.72505,-0.6325,-0.96027,-1.3965,-39.444,-0.99643,0.6639,-0.0036515,0.12,0.88,0
0.15372,-0.086728,0.90418,-0.74762,-0.74322,-1.3514,-0.11478,0,0,0.78495,0.79067,0,-0.29842,0,0,0.72729,0.018704,0,0.72752,-0.63062,-0.86022,-1.3514,-45.549,-0.94742,0.6378,-0.0077389,0.14,0.88,0
0.1691,-0.091735,0.88962,-0.73839,-0.70019,-1.3212,-0.077946,0,0,0.75764,0.8073,0,-0.20266,0,0,0.72817,0.010533,0,0.72824,-0.63904,-0.79954,-1.3212,-51.884,-0.91992,0.61774,-0.0094077,0.16,0.88,0
0.18402,-0.094572,0.87505,-0.72903,-0.67242,-1.2955,-0.052025,0,0,0.7364,0.80998,0,-0.13527,0,0,0.72748,0.0038167,0,0.72749,-0.6415,-0.75995,-1.2955,-59.274,-0.89898,0.60354,-0.0098414,0.18,0.88,0
0.19855,-0.095487,0.86052,-0.72268,-0.6553,-1.2739,-0.032679,0,0,0.7166,0.80419,0,-0.084964,0,0,0.72562,-0.001895,0,0.72562,-0.64205,-0.73593,-1.2739,-67.937,-0.88396,0.59054,-0.0096825,0.2,0.88,0
0.21269,-0.094604,0.84603,-0.71998,-0.64731,-1.2562,-0.015762,0,0,0.6971,0.79157,0,-0.040981,0,0,0.72259,-0.0069498,0,0.72263,-0.64404,-0.72325,-1.2562,-78.274,-0.8745,0.57666,-0.0092256,0.22,0.88,0
0.22644,-0.091913,0.83161,-0.72001,-0.64923,-1.2424,0.0027564,0,0,0.67909,0.7711,0,0.0071667,0,0,0.71809,-0.011653,0,0.71818,-0.64913,-0.72012,-1.2424,87.773,-0.87054,0.56114,-0.0085871,0.24,0.88,0
0.23985,-0.087272,0.8173,-0.71979,-0.66463,-1.2326,0.026934,0,0,0.66669,0.7384,0,0.070029,0,0,0.71128,-0.016331,0,0.71147,-0.65366,-0.73076,-1.2326,67.839,-0.87235,0.54453,-0.007735,0.26,0.88,0
0.25311,-0.080434,0.80316,-0.71009,-0.70056,-1.2264,0.058942,0,0,0.67115,0.68354,0,0.15325,0,0,0.70026,-0.021364,0,0.7006,-0.64619,-0.76446,-1.2264,47.311,-0.879,0.531,-0.0064225,0.28,0.88,0
0.2667,-0.071279,0.78929,-0.68432,-0.779,-1.2283,0.09399,0,0,0.70716,0.58408,0,0.24437,0,0,0.68176,-0.02703,0,0.68237,-0.62642,-0.8369,-1.2283,31.633,-0.8972,0.52902,-0.0037486,0.3,0.88,0
0.28139,-0.060256,0.77589,-0.64293,-0.9166,-1.2437,0.10956,0,0,0.78106,0.4253,0,0.28487,0,0,0.65186,-0.029658,0,0.65277,-0.60447,-0.95506,-1.2437,19.342,-0.93443,0.55449,0.00146,0.32,0.88,0
0.29794,-0.048745,0.76322,-0.59423,-1.0858,-1.2672,0.083837,0,0,0.87488,0.23589,0,0.21798,0,0,0.60787,-0.022973,0,0.60881,-0.58032,-1.0997,-1.2672,9.418,-0.9824,0.62033,0.0093109,0.34,0.88,0
0.31639,-0.038495,0.75158,-0.53794,-1.2089,-1.2756,0.022496,0,0,0.95899,0.086758,0,0.058491,0,0,0.54854,0.00025693,0,0.54937,-0.53719,-1.2096,-1.2756,1.9182,-1.0075,0.70776,0.017676,0.36,0.88,0
0.3363,-0.030112,0.74128,-0.4884,-1.2731,-1.2697,-0.036308,0,0,1.0157,-0.0044111,0,-0.0944,0,0,0.47357,0.038858,0,0.47673,-0.48672,-1.2748,-1.2697,-2.6434,-1.0104,0.78556,0.024894,0.38,0.88,0
0.35702,-0.022816,0.73263,-0.4541,-1.2915,-1.2563,-0.061331,0,0,1.0429,-0.045769,0,-0.15946,0,0,0.38394,0.078231,0,0.39473,-0.44963,-1.296,-1.2563,-4.1666,-1.0007,0.82724,0.028849,0.4,0.88,0
0.37802,-0.015369,0.72592,-0.40091,-0.79595,-0.78251,-0.059916,0,0,0.35164,-0.029953,0,-0.51535,0,0,0.30591,0.058414,0,0.31539,-0.35881,-0.83806,-0.78251,-29.746,-0.65979,0.46594,0.014449,0.42,0.88,0
0.37108,-0.021827,0.69278,-0.38193,-0.36522,-0.33961,-0.052875,0,0,-0.3301,-0.19978,0,-0.82485,0,0,0.27078,0.024008,0,0.27196,-0.32004,-0.42711,-0.33961,-49.489,-0.36225,0.098744,-4.2979e-05,0.44,0.88,0
0.36514,-0.026269,0.66158,-0.36943,-0.36858,-0.33166,-0.045288,0,0,-0.29453,-0.28792,0,-0.70649,0,0,0.25331,0.027572,0,0.2548,-0.32371,-0.41429,-0.33166,-45.268,-0.35656,0.086876,-3.2727e-05,0.46,0.88,0
0.3593,-0.028831,0.63199,-0.36034,-0.36174,-0.32195,-0.037764,0,0,-0.29938,-0.31034,0,-0.58911,0,0,0.24172,0.021927,0,0.2427,-0.32327,-0.39881,-0.32195,-44.467,-0.34801,0.076206,-2.2707e-05,0.48,0.88,0
0.35317,-0.030123,0.60357,-0.35337,-0.35305,-0.31252,-0.032,0,0,-0.3186,-0.31613,0,-0.4992,0,0,0.23341,0.016134,0,0.23396,-0.32121,-0.38521,-0.31252,-45.142,-0.33964,0.068758,-1.58e-05,0.5,0.88,0
0.34656,-0.030604,0.57597,-0.34771,-0.3439,-0.30348,-0.027525,0,0,-0.34503,-0.31529,0,-0.42939,0,0,0.2277,0.011153,0,0.22796,-0.31822,-0.3734,-0.30348,-46.981,-0.3317,0.063839,-1.1e-05,0.52,0.88,0
0.33937,-0.03057,0.54892,-0.34332,-0.33318,-0.29444,-0.022514,0,0,-0.38127,-0.30221,0,-0.35121,0,0,0.22318,0.006026,0,0.22326,-0.31517,-0.36133,-0.29444,-51.343,-0.32365,0.059306,-6.4658e-06,0.54,0.88,0
0.33152,-0.030209,0.52227,-0.33682,-0.3232,-0.28505,-0.020139,0,0,-0.40381,-0.29756,0,-0.31417,0,0,0.22129,0.0030068,0,0.22131,-0.30875,-0.35127,-0.28505,-54.343,-0.31503,0.058115,-4.7256e-06,0.56,0.88,0
0.32298,-0.029641,0.49591,-0.33528,-0.31641,-0.27816,-0.018923,0,0,-0.44556,-0.29835,0,-0.29521,0,0,0.21882,0.0010866,0,0.21882,-0.3047,-0.34699,-0.27816,-58.251,-0.30995,0.060128,-4.2866e-06,0.58,0.88,0
0.3137,-0.028941,0.46975,-0.33301,-0.30691,-0.27027,-0.015855,0,0,-0.48936,-0.28581,0,-0.24733,0,0,0.21705,-0.0015533,0,0.21705,-0.29942,-0.34049,-0.27027,-64.727,-0.3034,0.061107,-3.3825e-06,0.6,0.88,0
0.30366,-0.028153,0.44376,-0.32855,-0.29712,-0.26166,-0.013686,0,0,-0.52171,-0.2766,0,-0.21351,0,0,0.21608,-0.0034736,0,0.21611,-0.292,-0.33367,-0.26166,-69.471,-0.29578,0.06262,-3.3874e-06,0.62,0.88,0
0.29283,-0.027304,0.4179,-0.32605,-0.28867,-0.25407,-0.012062,0,0,-0.56151,-0.2699,0,-0.18816,0,0,0.21517,-0.0049574,0,0.21522,-0.28512,-0.32961,-0.25407,-73.584,-0.2896,0.065765,-4.4171e-06,0.64,0.88,0
0.2812,-0.026406,0.39212,-0.3238,-0.28027,-0.24657,-0.010464,0,0,-0.60233,-0.26286,0,-0.16324,0,0,0.21447,-0.0062946,0,0.21456,-0.27789,-0.32618,-0.24657,-77.159,-0.28355,0.069462,-6.1855e-06,0.66,0.88,0
0.26874,-0.025466,0.36642,-0.32177,-0.27194,-0.23918,-0.0088522,0,0,-0.64416,-0.2555,0,-0.13809,0,0,0.21395,-0.0075512,0,0.21408,-0.27041,-0.32329,-0.23918,-80.22,-0.27763,0.073642,-8.7846e-06,0.68,0.88,0
0.25543,-0.024488,0.34077,-0.31996,-0.26365,-0.23188,-0.0071931,0,0,-0.68704,-0.24784,0,-0.11221,0,0,0.2136,-0.008789,0,0.21378,-0.26275,-0.32087,-0.23188,-82.834,-0.27183,0.078259,-1.2336e-05,0.7,0.88,0
0.24126,-0.023471,0.31516,-0.3184,-0.25543,-0.22468,-0.0054599,0,0,-0.73108,-0.23986,0,-0.085175,0,0,0.21342,-0.010068,0,0.21365,-0.25496,-0.31887,-0.22468,-85.082,-0.26617,0.083294,-1.7001e-05,0.72,0.88,0
0.22619,-0.022417,0.28956,-0.31712,-0.24725,-0.21757,-0.0036298,0,0,-0.77652,-0.23148,0,-0.056625,0,0,0.21342,-0.01145,0,0.21373,-0.24706,-0.31731,-0.21757,-87.034,-0.26065,0.088751,-2.2997e-05,0.74,0.88,0
0.2102,-0.021325,0.26394,-0.31618,-0.23911,-0.21058,-0.0016837,0,0,-0.82371,-0.22255,0,-0.026266,0,0,0.21365,-0.012998,0,0.21404,-0.23907,-0.31622,-0.21058,-88.749,-0.25529,0.094665,-3.0631e-05,0.76,0.88,0
0.19324,-0.0202,0.23828,-0.31566,-0.23099,-0.20371,0.00039035,0,0,-0.87324,-0.21281,0,0.0060895,0,0,0.21417,-0.014783,0,0.21468,-0.23099,-0.31567,-0.20371,89.736,-0.25012,0.10111,-4.035e-05,0.78,0.88,0
0.17527,-0.019046,0.21254,-0.31572,-0.22288,-0.197,0.0025885,0,0,-0.92598,-0.20183,0,0.040381,0,0,0.21511,-0.016875,0,0.21577,-0.2228,-0.31579,-0.197,88.404,-0.2452,0.10822,-5.2825e-05,0.8,0.88,0
0.1562,-0.017876,0.18665,-0.31653,-0.21471,-0.19048,0.0048737,0,0,-0.98315,-0.18901,0,0.076029,0,0,0.21663,-0.019345,0,0.21749,-0.21448,-0.31676,-0.19048,87.266,-0.24057,0.11615,-6.9045e-05,0.82,0.88,0
0.13594,-0.016715,0.16054,-0.31833,-0.20645,-0.18419,0.0071439,0,0,-1.0463,-0.17362,0,0.11145,0,0,0.21906,-0.022236,0,0.22018,-0.206,-0.31879,-0.18419,86.361,-0.23633,0.12512,-9.0398e-05,0.84,0.88,0
0.11435,-0.015603,0.13408,-0.32134,-0.19805,-0.17816,0.0091999,0,0,-1.1168,-0.15509,0,0.14352,0,0,0.22285,-0.025502,0,0.22431,-0.19737,-0.32203,-0.17816,85.756,-0.23252,0.13529,-0.00011859,0.86,0.88,0
0.09127,-0.014596,0.10706,-0.32563,-0.18956,-0.1724,0.010732,0,0,-1.1952,-0.13383,0,0.16742,0,0,0.22867,-0.028837,0,0.23051,-0.18871,-0.32647,-0.1724,85.518,-0.22919,0.14659,-0.00015506,0.88,0.88,0
0.066544,-0.013734,0.079198,-0.33084,-0.18113,-0.16679,0.011558,0,0,-1.2796,-0.11187,0,0.1803,0,0,0.23698,-0.031212,0,0.23908,-0.18025,-0.33173,-0.16679,85.611,-0.22626,0.15863,-0.00020007,0.9,0.88,0
0.040087,-0.012882,0.050186,-0.33754,-0.17339,-0.16164,0.011546,0,0,-1.372,-0.091648,0,0.18011,0,0,0.24732,-0.030201,0,0.24922,-0.17258,-0.33835,-0.16164,85.996,-0.22419,0.17149,-0.00025549,0.92,0.88,0
0.011665,-0.01181,0.019842,-0.33419,-0.19522,-0.1704,0.0075604,0,0,-0.80506,-0.055314,0,0.084087,0,0,0.27043,-0.08347,0,0.28843,-0.19481,-0.3346,-0.1704,86.939,-0.23327,0.15468,-0.00018476,0.94,0.88,0
0.0078845,-0.013559,0.014081,-0.35728,-0.2999,-0.21124,0.00052888,0,0,-0.18986,-0.11526,0,0.0013751,0,0,0.31311,-0.11633,0,0.33466,-0.2999,-0.35729,-0.21124,89.472,-0.28947,0.12745,3.834e-05,0.96,0.88,0
0.0040704,-0.015005,0.0073169,-0.36331,-0.31793,-0.21169,0.0016088,0,0,-0.19711,-0.13811,0,0.004183,0,0,0.35203,-0.064408,0,0.35735,-0.31787,-0.36337,-0.21169,87.972,-0.29764,0.13482,7.9228e-05,0.98,0.88,0
0,-0.015509,0,-0.35435,-0.30496,-0.19779,-0.0096982,0,0,-0.20352,-0.13932,0,-0.025215,0,0,0.36584,-1.7347e-17,0,0.36487,-0.30313,-0.35618,-0.19779,-79.278,-0.2857,0.13964,7.4864e-05,1,0.88,0
0,-0.024681,1,-0.5948,-1.5377,-1.6398,-0.031087,0,0,1.3584,0.13267,0,-0.080827,0,0,0.65392,1.7469e-15,0,0.65388,-0.59377,-1.5387,-1.6398,-1.8863,-1.2574,0.9993,0.049489,0,0.9,0
0.027169,-0.026298,0.98692,-0.58666,-1.4937,-1.611,-0.070409,0,0,1.3317,0.1525,0,-0.18307,0,0,0.65765,0.017306,0,0.65786,-0.58122,-1.4992,-1.611,-4.4122,-1.2305,0.97868,0.04603,0.02,0.9,0
0.053268,-0.031044,0.97369,-0.61005,-1.4139,-1.5809,-0.13619,0,0,1.2621,0.21707,0,-0.3541,0,0,0.66774,0.030488,0,0.66846,-0.5876,-1.4364,-1.5809,-9.3596,-1.2016,0.92948,0.037902,0.04,0.9,0
0.077652,-0.038444,0.96021,-0.64516,-1.2862,-1.5396,-0.18505,0,0,1.1628,0.32944,0,-0.48113,0,0,0.68139,0.036876,0,0.68243,-0.59558,-1.3358,-1.5396,-15,-1.157,0.86043,0.02663,0.06,0.9,0
0.09978,-0.047453,0.94644,-0.68464,-1.1274,-1.49,-0.20342,0,0,1.047,0.47148,0,-0.52888,0,0,0.69522,0.036405,0,0.69621,-0.60537,-1.2066,-1.49,-21.29,-1.1007,0.78246,0.014168,0.08,0.9,0
0.11953,-0.056645,0.9324,-0.72176,-0.97707,-1.4421,-0.18898,0,0,0.93638,0.60448,0,-0.49135,0,0,0.70666,0.031099,0,0.70735,-0.62136,-1.0775,-1.4421,-27.981,-1.047,0.71221,0.0035573,0.1,0.9,0
0.13723,-0.064783,0.91817,-0.74946,-0.86133,-1.4014,-0.1549,0,0,0.84754,0.7021,0,-0.40274,0,0,0.7146,0.023831,0,0.715,-0.64071,-0.97009,-1.4014,-35.072,-1.0041,0.66076,-0.0034017,0.12,0.9,0
0.15343,-0.07119,0.90382,-0.76453,-0.78139,-1.3676,-0.1164,0,0,0.78399,0.76206,0,-0.30265,0,0,0.71926,0.01657,0,0.71945,-0.65625,-0.88967,-1.3676,-42.928,-0.97117,0.62805,-0.007055,0.14,0.9,0
0.16859,-0.07569,0.8894,-0.7699,-0.72826,-1.3389,-0.082827,0,0,0.73963,0.79377,0,-0.21535,0,0,0.72142,0.010175,0,0.72149,-0.66368,-0.83449,-1.3389,-52.056,-0.94567,0.60804,-0.0085475,0.16,0.9,0
0.18302,-0.078359,0.87496,-0.77022,-0.69326,-1.314,-0.056084,0,0,0.70692,0.80697,0,-0.14582,0,0,0.7218,0.0047192,0,0.72181,-0.66373,-0.79976,-1.314,-62.227,-0.92583,0.59406,-0.0088937,0.18,0.9,0
0.19687,-0.079331,0.86053,-0.76931,-0.67223,-1.293,-0.034591,0,0,0.68079,0.80699,0,-0.089936,0,0,0.72077,0.00011325,0,0.72076,-0.66117,-0.78037,-1.293,-72.262,-0.91151,0.58146,-0.0086836,0.2,0.9,0
0.21025,-0.07869,0.84613,-0.76839,-0.66355,-1.2757,-0.015563,0,0,0.65952,0.79581,0,-0.040463,0,0,0.71839,-0.0037299,0,0.7184,-0.66129,-0.77065,-1.2757,-81.732,-0.90255,0.5677,-0.0082336,0.22,0.9,0
0.22325,-0.076445,0.83179,-0.76672,-0.66797,-1.2622,0.0037987,0,0,0.64412,0.7725,0,0.0098766,0,0,0.71442,-0.0068193,0,0.71445,-0.66782,-0.76687,-1.2622,87.8,-0.89896,0.55157,-0.0076899,0.24,0.9,0
0.23602,-0.072547,0.81756,-0.76123,-0.68861,-1.2525,0.025273,0,0,0.63866,0.73306,0,0.06571,0,0,0.70817,-0.0090022,0,0.70824,-0.68068,-0.76916,-1.2525,72.579,-0.90078,0.53312,-0.0070651,0.26,0.9,0
0.2488,-0.06696,0.80347,-0.74794,-0.73257,-1.2476,0.047767,0,0,0.64958,0.66957,0,0.12419,0,0,0.69845,-0.009761,0,0.69854,-0.69187,-0.78863,-1.2476,49.57,-0.90938,0.51424,-0.006159,0.28,0.9,0
0.262,-0.059819,0.78962,-0.72399,-0.8077,-1.2491,0.064107,0,0,0.68268,0.57385,0,0.16668,0,0,0.68353,-0.0074992,0,0.68362,-0.68928,-0.84241,-1.2491,28.429,-0.92694,0.50114,-0.0044877,0.3,0.9,0
0.27611,-0.05163,0.77613,-0.6909,-0.91418,-1.2576,0.062136,0,0,0.73677,0.44651,0,0.16155,0,0,0.66151,0.0010111,0,0.6616,-0.67478,-0.93031,-1.2576,14.55,-0.95425,0.50606,-0.0014075,0.32,0.9,0
0.29147,-0.043301,0.76316,-0.65189,-1.0325,-1.2685,0.031575,0,0,0.80154,0.30681,0,0.082094,0,0,0.63044,0.020761,0,0.63091,-0.64928,-1.0351,-1.2685,4.7107,-0.98426,0.54161,0.0033525,0.34,0.9,0
0.30817,-0.035794,0.75091,-0.60612,-1.1325,-1.2725,-0.024417,0,0,0.8663,0.18197,0,-0.063484,0,0,0.58723,0.05713,0,0.59014,-0.60499,-1.1337,-1.2725,-2.65,-1.0037,0.61006,0.0096558,0.36,0.9,0
0.32612,-0.029591,0.73967,-0.53961,-1.2029,-1.2624,-0.083656,0,0,0.93964,0.077405,0,-0.21751,0,0,0.52063,0.1146,0,0.53339,-0.52922,-1.2133,-1.2624,-7.079,-1.0016,0.70989,0.018077,0.38,0.9,0
0.34575,-0.023653,0.73008,-0.49424,-1.2956,-1.267,-0.11428,0,0,1.0047,-0.037167,0,-0.29712,0,0,0.42074,0.19396,0,0.46716,-0.47826,-1.3116,-1.267,-7.9588,-1.019,0.81199,0.027217,0.4,0.9,0
0.36631,-0.01612,0.72284,-0.42251,-0.82805,-0.79682,-0.087846,0,0,0.35031,-0.069594,0,-0.70708,0,0,0.32121,0.13353,0,0.35799,-0.37044,-0.88012,-0.79682,-29.057,-0.68246,0.48534,0.01474,0.42,0.9,0
0.35977,-0.026257,0.68922,-0.37933,-0.37622,-0.34153,-0.066687,0,0,-0.29481,-0.27053,0,-1.0403,0,0,0.26902,0.042761,0,0.2727,-0.31107,-0.44448,-0.34153,-45.668,-0.36569,0.12109,-7.2094e-05,0.44,0.9,0
0.35452,-0.032028,0.65827,-0.36375,-0.37279,-0.33067,-0.052383,0,0,-0.25799,-0.3285,0,-0.81718,0,0,0.24945,0.035362,0,0.25203,-0.31569,-0.42085,-0.33067,-42.534,-0.35574,0.098522,-4.5312e-05,0.46,0.9,0
0.34945,-0.035038,0.62935,-0.35366,-0.36396,-0.32018,-0.042238,0,0,-0.26113,-0.34153,0,-0.65892,0,0,0.236,0.026397,0,0.23748,-0.31626,-0.40136,-0.32018,-41.522,-0.34593,0.083213,-2.9372e-05,0.48,0.9,0
0.34407,-0.036446,0.60163,-0.34666,-0.35441,-0.3106,-0.034971,0,0,-0.28133,-0.34178,0,-0.54555,0,0,0.22802,0.018856,0,0.2288,-0.31535,-0.38572,-0.3106,-41.839,-0.33722,0.072866,-1.9585e-05,0.5,0.9,0
0.33819,-0.03691,0.57463,-0.34123,-0.34449,-0.30149,-0.029666,0,0,-0.31,-0.33542,0,-0.46279,0,0,0.22316,0.012897,0,0.22353,-0.31315,-0.37257,-0.30149,-43.428,-0.32907,0.066029,-1.3244e-05,0.52,0.9,0
0.33167,-0.036786,0.54807,-0.33698,-0.33479,-0.29288,-0.025683,0,0,-0.34401,-0.32693,0,-0.40065,0,0,0.22003,0.008248,0,0.22018,-0.31018,-0.36159,-0.29288,-46.22,-0.32155,0.061904,-9.0508e-06,0.54,0.9,0
0.32443,-0.036306,0.52182,-0.33343,-0.32541,-0.28462,-0.022603,0,0,-0.3807,-0.31815,0,-0.3526,0,0,0.2179,0.004603,0,0.21795,-0.30646,-0.35238,-0.28462,-50.03,-0.31449,0.059898,-6.2944e-06,0.56,0.9,0
0.31644,-0.035608,0.49578,-0.33031,-0.31633,-0.27662,-0.020101,0,0,-0.41879,-0.30973,0,-0.31358,0,0,0.21638,0.0017065,0,0.21638,-0.30204,-0.3446,-0.27662,-54.588,-0.30776,0.059495,-4.5464e-06,0.58,0.9,0
0.30768,-0.034773,0.46989,-0.32749,-0.3075,-0.26881,-0.017957,0,0,-0.45768,-0.30176,0,-0.28013,0,0,0.21524,-0.00063951,0,0.21524,-0.29694,-0.33804,-0.26881,-59.551,-0.30127,0.060308,-3.5785e-06,0.6,0.9,0
0.29813,-0.033848,0.44412,-0.32488,-0.29885,-0.26114,-0.016021,0,0,-0.4972,-0.29413,0,-0.24992,0,0,0.21436,-0.0025872,0,0.21437,-0.29122,-0.33251,-0.26114,-64.547,-0.29496,0.06206,-3.2876e-06,0.62,0.9,0
0.28779,-0.032858,0.41844,-0.32246,-0.29034,-0.25358,-0.014194,0,0,-0.53727,-0.28671,0,-0.22143,0,0,0.21365,-0.004256,0,0.2137,-0.28497,-0.32783,-0.25358,-69.266,-0.28879,0.064562,-3.6489e-06,0.64,0.9,0
0.27664,-0.031818,0.39284,-0.32021,-0.28194,-0.24612,-0.012408,0,0,-0.57789,-0.27942,0,-0.19357,0,0,0.21308,-0.0057428,0,0.21316,-0.27827,-0.32388,-0.24612,-73.517,-0.28275,0.067677,-4.6853e-06,0.66,0.9,0
0.26468,-0.030733,0.3673,-0.31811,-0.27364,-0.23874,-0.010612,0,0,-0.61906,-0.2722,0,-0.16554,0,0,0.21262,-0.0071306,0,0.21274,-0.27124,-0.32051,-0.23874,-77.243,-0.27683,0.07131,-6.4519e-06,0.68,0.9,0
0.25188,-0.029606,0.34181,-0.31617,-0.26543,-0.23145,-0.0087616,0,0,-0.66085,-0.26503,0,-0.13668,0,0,0.21226,-0.0084944,0,0.21243,-0.26396,-0.31764,-0.23145,-80.475,-0.27102,0.075394,-9.0303e-06,0.7,0.9,0
0.23824,-0.028436,0.31636,-0.31441,-0.2573,-0.22424,-0.0068178,0,0,-0.70333,-0.25786,0,-0.10636,0,0,0.21199,-0.0099072,0,0.21223,-0.25649,-0.31521,-0.22424,-83.286,-0.26532,0.079889,-1.2535e-05,0.72,0.9,0
0.22375,-0.027223,0.29093,-0.31285,-0.24925,-0.21712,-0.0047387,0,0,-0.74671,-0.25062,0,-0.073924,0,0,0.21185,-0.011445,0,0.21215,-0.2489,-0.3132,-0.21712,-85.762,-0.25974,0.084785,-1.7128e-05,0.74,0.9,0
0.20838,-0.025965,0.26552,-0.31156,-0.24128,-0.2101,-0.0024779,0,0,-0.79133,-0.24318,0,-0.038655,0,0,0.21184,-0.013192,0,0.21225,-0.24119,-0.31164,-0.2101,-87.983,-0.25431,0.090111,-2.3057e-05,0.76,0.9,0
0.19209,-0.024656,0.24009,-0.31062,-0.23337,-0.20321,1.7556e-05,0,0,-0.83777,-0.23524,0,0.00027387,0,0,0.21204,-0.015248,0,0.21259,-0.23337,-0.31062,-0.20321,89.987,-0.24907,0.09595,-3.0717e-05,0.78,0.9,0
0.17486,-0.023294,0.21463,-0.3102,-0.22549,-0.19648,0.0028057,0,0,-0.88703,-0.22631,0,0.04377,0,0,0.21255,-0.017735,0,0.21328,-0.2254,-0.31029,-0.19648,88.105,-0.24406,0.10246,-4.0769e-05,0.8,0.9,0
0.15661,-0.021874,0.18908,-0.31058,-0.2176,-0.18997,0.0059388,0,0,-0.94078,-0.21552,0,0.092646,0,0,0.21353,-0.02081,0,0.21454,-0.21722,-0.31096,-0.18997,86.36,-0.23938,0.10993,-5.4347e-05,0.82,0.9,0
0.13723,-0.020398,0.16338,-0.31218,-0.20959,-0.18376,0.0094346,0,0,-1.0016,-0.20149,0,0.14718,0,0,0.21533,-0.024665,0,0.21674,-0.20873,-0.31304,-0.18376,84.789,-0.23518,0.11878,-7.3401e-05,0.84,0.9,0
0.11655,-0.018879,0.1374,-0.31565,-0.20137,-0.17801,0.013199,0,0,-1.0736,-0.18225,0,0.2059,0,0,0.21856,-0.029521,0,0.22054,-0.19987,-0.31715,-0.17801,83.496,-0.23167,0.12961,-0.00010118,0.86,0.9,0
0.094289,-0.017368,0.11093,-0.32168,-0.19273,-0.17281,0.016949,0,0,-1.1612,-0.1554,0,0.2644,0,0,0.22441,-0.035531,0,0.22721,-0.19054,-0.32387,-0.17281,82.636,-0.22908,0.14302,-0.00014249,0.88,0.9,0
0.070101,-0.015934,0.083542,-0.33082,-0.18381,-0.16831,0.020087,0,0,-1.2676,-0.12087,0,0.31336,0,0,0.23498,-0.042394,0,0.23884,-0.18111,-0.33352,-0.16831,82.358,-0.22765,0.15919,-0.00020267,0.9,0.9,0
0.043587,-0.014591,0.05453,-0.3419,-0.17422,-0.16392,0.022707,0,0,-1.3882,-0.080302,0,0.35424,0,0,0.25067,-0.047057,0,0.25526,-0.1712,-0.34492,-0.16392,82.423,-0.22668,0.17747,-0.00028545,0.92,0.9,0
0.014573,-0.012525,0.023381,-0.3505,-0.18581,-0.17453,0.022818,0,0,-0.8332,-0.025139,0,0.19667,0,0,0.29065,-0.13706,0,0.33171,-0.18261,-0.3537,-0.17453,82.124,-0.23695,0.1754,-0.0002781,0.94,0.9,0
0.010258,-0.015778,0.016947,-0.40449,-0.3161,-0.23312,0.033996,0,0,-0.22278,-0.10787,0,0.08839,0,0,0.36215,-0.19183,0,0.41128,-0.30454,-0.41605,-0.23312,71.216,-0.3179,0.15968,-7.712e-05,0.96,0.9,0
0.0056619,-0.017598,0.0088952,-0.42112,-0.29536,-0.22384,0.025193,0,0,-0.25646,-0.092984,0,0.065501,0,0,0.42367,-0.093617,0,0.43232,-0.29051,-0.42597,-0.22384,79.082,-0.31344,0.1784,-0.00016034,0.98,0.9,0
0,-0.017999,0,-0.43035,-0.27826,-0.21258,-0.0076994,0,0,-0.2831,-0.085383,0,-0.020019,0,0,0.44476,-6.9389e-18,0,0.4431,-0.27787,-0.43074,-0.21258,-87.109,-0.30707,0.19393,-0.0002365,1,0.9,0
0,-0.0214,1,-0.59813,-1.4746,-1.6218,-0.023312,0,0,1.3308,0.19138,0,-0.060612,0,0,0.66709,-4.1525e-15,0,0.66707,-0.59751,-1.4752,-1.6218,-1.5225,-1.2315,0.95944,0.041813,0,0.92,0
0.026616,-0.022612,0.98666,-0.58901,-1.4306,-1.5925,-0.055772,0,0,1.3046,0.21049,0,-0.14501,0,0,0.66937,0.010664,0,0.66945,-0.58532,-1.4343,-1.5925,-3.7748,-1.2041,0.93817,0.038374,0.02,0.92,0
0.052184,-0.026127,0.97323,-0.61073,-1.3579,-1.5638,-0.10562,0,0,1.239,0.26768,0,-0.2746,0,0,0.67565,0.019095,0,0.67592,-0.59608,-1.3725,-1.5638,-7.893,-1.1775,0.88769,0.03038,0.04,0.92,0
0.076176,-0.031524,0.95963,-0.64336,-1.2525,-1.5284,-0.14183,0,0,1.1505,0.3587,0,-0.36877,0,0,0.68442,0.023838,0,0.68486,-0.61195,-1.2839,-1.5284,-12.486,-1.1414,0.82191,0.020238,0.06,0.92,0
0.098205,-0.038079,0.94585,-0.68151,-1.1273,-1.4885,-0.15766,0,0,1.0491,0.46955,0,-0.40993,0,0,0.69386,0.024632,0,0.69431,-0.63138,-1.1774,-1.4885,-17.637,-1.0991,0.75152,0.0098907,0.08,0.92,0
0.11814,-0.044889,0.93188,-0.71914,-1.0032,-1.4486,-0.1523,0,0,0.94826,0.57903,0,-0.39599,0,0,0.70237,0.022301,0,0.70274,-0.65291,-1.0694,-1.4486,-23.501,-1.057,0.68931,0.0013643,0.1,0.92,0
0.13614,-0.051129,0.91775,-0.7509,-0.89681,-1.4121,-0.13166,0,0,0.85951,0.66984,0,-0.34232,0,0,0.70905,0.018164,0,0.70928,-0.67334,-0.97437,-1.4121,-30.505,-1.0199,0.6434,-0.0042925,0.12,0.92,0
0.15252,-0.056246,0.90352,-0.77398,-0.81461,-1.3801,-0.10447,0,0,0.78795,0.73513,0,-0.27162,0,0,0.71364,0.013427,0,0.71376,-0.68787,-0.90072,-1.3801,-39.498,-0.98956,0.61412,-0.0072574,0.14,0.92,0
0.16765,-0.059985,0.88921,-0.7886,-0.75515,-1.3523,-0.0774,0,0,0.73285,0.77634,0,-0.20124,0,0,0.71632,0.0088457,0,0.71638,-0.69269,-0.85106,-1.3523,-51.097,-0.96536,0.59644,-0.0083623,0.16,0.92,0
0.18183,-0.062293,0.87486,-0.79695,-0.71469,-1.3284,-0.053548,0,0,0.69083,0.79776,0,-0.13922,0,0,0.71742,0.0047807,0,0.71743,-0.6883,-0.82334,-1.3284,-63.763,-0.94666,0.58436,-0.0084325,0.18,0.92,0
0.19529,-0.063207,0.86051,-0.80121,-0.69023,-1.3079,-0.033085,0,0,0.65875,0.80303,0,-0.086022,0,0,0.71717,0.0013838,0,0.71717,-0.68111,-0.81033,-1.3079,-74.598,-0.93313,0.57325,-0.0080427,0.2,0.92,0
0.20818,-0.062772,0.84618,-0.80258,-0.6805,-1.2911,-0.014808,0,0,0.63508,0.79378,0,-0.038502,0,0,0.71566,-0.0012196,0,0.71566,-0.67873,-0.80435,-1.2911,-83.181,-0.92473,0.56022,-0.0075225,0.22,0.92,0
0.22069,-0.061013,0.83188,-0.80076,-0.68595,-1.2779,0.0025951,0,0,0.62028,0.76953,0,0.0067473,0,0,0.71281,-0.0027997,0,0.71282,-0.68589,-0.80082,-1.2779,88.706,-0.92153,0.54373,-0.0070288,0.24,0.92,0
0.233,-0.05795,0.81766,-0.79446,-0.70874,-1.2686,0.019352,0,0,0.61641,0.72785,0,0.050314,0,0,0.70834,-0.0028692,0,0.70835,-0.70457,-0.79863,-1.2686,77.851,-0.92394,0.5234,-0.0065698,0.26,0.92,0
0.24535,-0.053651,0.80355,-0.78226,-0.75195,-1.2638,0.033263,0,0,0.62602,0.66543,0,0.086483,0,0,0.70176,-0.00042055,0,0.70177,-0.73055,-0.80366,-1.2638,57.249,-0.93268,0.50073,-0.0059873,0.28,0.92,0
0.25804,-0.048325,0.78959,-0.76423,-0.81721,-1.264,0.039075,0,0,0.64974,0.58086,0,0.1016,0,0,0.69253,0.006429,0,0.69256,-0.74351,-0.83793,-1.264,27.931,-0.94849,0.48032,-0.004958,0.3,0.92,0
0.27134,-0.042395,0.77585,-0.74277,-0.90029,-1.2688,0.029564,0,0,0.68379,0.47902,0,0.076867,0,0,0.68012,0.0208,0,0.68042,-0.73741,-0.90565,-1.2688,10.288,-0.97061,0.47037,-0.0031315,0.32,0.92,0
0.28539,-0.036473,0.76239,-0.72176,-0.9891,-1.2756,-0.00086693,0,0,0.72006,0.37251,0,-0.002254,0,0,0.66399,0.047259,0,0.66556,-0.72175,-0.9891,-1.2756,-0.18579,-0.9955,0.47978,-0.00034018,0.34,0.92,0
0.30014,-0.031216,0.74929,-0.70263,-1.0695,-1.2809,-0.052673,0,0,0.75179,0.27485,0,-0.13695,0,0,0.64238,0.092259,0,0.64859,-0.69521,-1.0769,-1.2809,-8.0106,-1.0177,0.51497,0.0034862,0.36,0.92,0
0.31546,-0.027016,0.73669,-0.67332,-1.1362,-1.2795,-0.12698,0,0,0.78809,0.18636,0,-0.33015,0,0,0.6104,0.16602,0,0.63147,-0.64078,-1.1687,-1.2795,-14.376,-1.0297,0.59121,0.0093688,0.38,0.92,0
0.33166,-0.024303,0.72487,-0.52677,-1.1768,-1.236,-0.18494,0,0,0.92194,0.076861,0,-0.48086,0,0,0.49826,0.29006,0,0.57293,-0.47784,-1.2258,-1.236,-14.82,-0.97985,0.75308,0.021922,0.4,0.92,0
0.35234,-0.018153,0.71676,-0.45635,-0.92209,-0.83164,-0.18199,0,0,0.34288,-0.20157,0,-1.1798,0,0,0.34547,0.31199,0,0.48891,-0.36498,-1.0135,-0.83164,-30.796,-0.73669,0.58989,0.020583,0.42,0.92,0
0.34538,-0.032648,0.68252,-0.38808,-0.40775,-0.3525,-0.090858,0,0,-0.27753,-0.43092,0,-1.4174,0,0,0.26529,0.071659,0,0.27506,-0.30653,-0.4893,-0.3525,-41.912,-0.38278,0.16467,-0.00017051,0.44,0.92,0
0.34124,-0.039409,0.65309,-0.35867,-0.38845,-0.33299,-0.06521,0,0,-0.20035,-0.43263,0,-1.0173,0,0,0.23695,0.049147,0,0.24192,-0.30667,-0.44045,-0.33299,-38.569,-0.36004,0.12275,-8.0482e-05,0.46,0.92,0
0.33736,-0.042492,0.62565,-0.34632,-0.37483,-0.32062,-0.049763,0,0,-0.20046,-0.42286,0,-0.7763,0,0,0.22521,0.033802,0,0.22768,-0.30881,-0.41234,-0.32062,-37.007,-0.34726,0.098159,-4.6214e-05,0.48,0.92,0
0.33322,-0.043795,0.59904,-0.33861,-0.36138,-0.30984,-0.039969,0,0,-0.22442,-0.40201,0,-0.62351,0,0,0.21991,0.023138,0,0.2211,-0.30843,-0.39155,-0.30984,-37.051,-0.33661,0.082425,-2.8732e-05,0.5,0.92,0
0.32839,-0.044021,0.57287,-0.33408,-0.34929,-0.30049,-0.033306,0,0,-0.26201,-0.38063,0,-0.51957,0,0,0.21709,0.015553,0,0.21763,-0.30752,-0.37585,-0.30049,-38.57,-0.32795,0.072099,-1.8633e-05,0.52,0.92,0
0.32274,-0.043647,0.54694,-0.33081,-0.33828,-0.29188,-0.028684,0,0,-0.30361,-0.36189,0,-0.44747,0,0,0.21543,0.010011,0,0.21565,-0.30562,-0.36347,-0.29188,-41.29,-0.32032,0.065804,-1.2512e-05,0.54,0.92,0
0.31624,-0.042935,0.52117,-0.32805,-0.32813,-0.28372,-0.025271,0,0,-0.34584,-0.34643,0,-0.39423,0,0,0.21435,0.0058515,0,0.21443,-0.30282,-0.35336,-0.28372,-44.957,-0.3133,0.062331,-8.6119e-06,0.56,0.92,0
0.3089,-0.04203,0.4955,-0.32551,-0.31861,-0.27582,-0.022569,0,0,-0.38762,-0.33374,0,-0.35208,0,0,0.21358,0.0026451,0,0.21359,-0.29923,-0.34489,-0.27582,-49.351,-0.30665,0.060845,-6.0646e-06,0.58,0.92,0
0.30074,-0.041011,0.46991,-0.32308,-0.30951,-0.2681,-0.020276,0,0,-0.42887,-0.32306,0,-0.31631,0,0,0.21298,0.00010412,0,0.21297,-0.29492,-0.33768,-0.2681,-54.248,-0.30023,0.060784,-4.4335e-06,0.6,0.92,0
0.29175,-0.039918,0.44438,-0.32072,-0.30072,-0.2605,-0.018213,0,0,-0.46975,-0.31376,0,-0.28413,0,0,0.21247,-0.0019726,0,0.21247,-0.28995,-0.3315,-0.2605,-59.384,-0.29398,0.061788,-3.5154e-06,0.62,0.92,0
0.28195,-0.038772,0.41892,-0.31843,-0.29215,-0.253,-0.016271,0,0,-0.51043,-0.30541,0,-0.25383,0,0,0.21201,-0.003732,0,0.21205,-0.28438,-0.32621,-0.253,-64.464,-0.28786,0.063619,-3.2287e-06,0.64,0.92,0
0.27133,-0.037583,0.3935,-0.31621,-0.28374,-0.24557,-0.014376,0,0,-0.55101,-0.29775,0,-0.22426,0,0,0.21159,-0.0052876,0,0.21166,-0.27829,-0.32166,-0.24557,-69.237,-0.28184,0.066112,-3.5537e-06,0.66,0.92,0
0.25991,-0.036354,0.36813,-0.31406,-0.27548,-0.23822,-0.012472,0,0,-0.59155,-0.29065,0,-0.19457,0,0,0.2112,-0.0067331,0,0.2113,-0.2718,-0.31774,-0.23822,-73.556,-0.27592,0.069144,-4.5035e-06,0.68,0.92,0
0.24767,-0.035089,0.34281,-0.31197,-0.26734,-0.23093,-0.010511,0,0,-0.6321,-0.28403,0,-0.16398,0,0,0.21082,-0.0081518,0,0.21098,-0.26499,-0.31432,-0.23093,-77.388,-0.27008,0.072621,-6.1111e-06,0.7,0.92,0
0.23462,-0.033786,0.31754,-0.30995,-0.25933,-0.22371,-0.0084429,0,0,-0.6727,-0.27788,0,-0.13171,0,0,0.21047,-0.0096242,0,0.21068,-0.25796,-0.31132,-0.22371,-80.776,-0.26433,0.076476,-8.4296e-06,0.72,0.92,0
0.22076,-0.032441,0.2923,-0.30803,-0.25146,-0.21656,-0.0062118,0,0,-0.71344,-0.27217,0,-0.096905,0,0,0.21014,-0.011235,0,0.21044,-0.25078,-0.3087,-0.21656,-83.807,-0.25868,0.080671,-1.1541e-05,0.74,0.92,0
0.20608,-0.031052,0.2671,-0.30623,-0.24371,-0.2095,-0.0037485,0,0,-0.75448,-0.26687,0,-0.058477,0,0,0.20985,-0.013084,0,0.21025,-0.24349,-0.30645,-0.2095,-86.581,-0.25315,0.085204,-1.5579e-05,0.76,0.92,0
0.19058,-0.029609,0.24194,-0.30462,-0.23611,-0.20254,-0.00096077,0,0,-0.79619,-0.26185,0,-0.014988,0,0,0.20963,-0.015291,0,0.21019,-0.2361,-0.30463,-0.20254,-89.197,-0.24776,0.090124,-2.0787e-05,0.78,0.92,0
0.17424,-0.028098,0.21679,-0.30332,-0.22864,-0.19572,0.0022786,0,0,-0.83925,-0.25681,0,0.035547,0,0,0.20955,-0.018022,0,0.21031,-0.22858,-0.30339,-0.19572,88.254,-0.24256,0.095572,-2.7627e-05,0.8,0.92,0
0.15701,-0.026497,0.19165,-0.30257,-0.22129,-0.1891,0.0061449,0,0,-0.88506,-0.25111,0,0.095861,0,0,0.2097,-0.021507,0,0.2108,-0.22083,-0.30303,-0.1891,85.701,-0.23765,0.10184,-3.7026e-05,0.82,0.92,0
0.13883,-0.024775,0.16646,-0.30284,-0.21401,-0.1828,0.010865,0,0,-0.93636,-0.24341,0,0.1695,0,0,0.21035,-0.026091,0,0.21195,-0.2127,-0.30416,-0.1828,83.128,-0.23322,0.10951,-5.0886e-05,0.84,0.92,0
0.11956,-0.022893,0.14117,-0.30504,-0.20669,-0.17705,0.016717,0,0,-0.99836,-0.23123,0,0.26079,0,0,0.21198,-0.032306,0,0.21441,-0.20393,-0.30781,-0.17705,80.612,-0.22959,0.11961,-7.3137e-05,0.86,0.92,0
0.0989,-0.020812,0.11559,-0.31102,-0.19936,-0.17238,0.023885,0,0,-1.0814,-0.21043,0,0.37261,0,0,0.2158,-0.040997,0,0.21963,-0.19446,-0.31592,-0.17238,78.42,-0.22759,0.13387,-0.000112,0.88,0.92,0
0.076301,-0.018569,0.089372,-0.32353,-0.19187,-0.16952,0.03262,0,0,-1.2013,-0.1744,0,0.50886,0,0,0.22545,-0.053479,0,0.23166,-0.18424,-0.33117,-0.16952,76.82,-0.22831,0.15482,-0.00018479,0.9,0.92,0
0.050848,-0.016094,0.061479,-0.34948,-0.18747,-0.17133,0.043299,0,0,-1.3895,-0.12588,0,0.67546,0,0,0.25055,-0.071842,0,0.26088,-0.17662,-0.36032,-0.17133,75.937,-0.23609,0.1864,-0.00033174,0.92,0.92,0
0.020719,-0.012815,0.02924,-0.36829,-0.20971,-0.19046,0.10237,0,0,-0.85887,-0.042914,0,0.60517,0,0,0.32147,-0.2951,0,0.45798,-0.15245,-0.42555,-0.19046,65.981,-0.25615,0.25704,-0.00083619,0.94,0.92,0
0.016493,-0.017874,0.021755,-0.46274,-0.25029,-0.23566,0.099744,0,0,-0.29519,-0.019019,0,0.25933,0,0,0.45447,-0.26068,0,0.5189,-0.2108,-0.50223,-0.23566,68.401,-0.31623,0.27982,-0.0010954,0.96,0.92,0
0.0089112,-0.018724,0.011062,-0.57685,-0.25185,-0.25967,0.062773,0,0,-0.41233,0.010168,0,0.16321,0,0,0.54387,-0.11568,0,0.55357,-0.24015,-0.58855,-0.25967,79.439,-0.36279,0.33907,-0.0019797,0.98,0.92,0
0,-0.018925,0,-0.58911,-0.23213,-0.24637,-0.0038514,0,0,-0.44556,0.018516,0,-0.010014,0,0,0.55308,-6.9389e-18,0,0.55109,-0.23209,-0.58915,-0.24637,-89.382,-0.35587,0.35014,-0.0021924,1,0.92,0
0,-0.017026,1,-0.60537,-1.4247,-1.609,-0.016388,0,0,1.3048,0.23962,0,-0.042608,0,0,0.67525,-3.3318e-15,0,0.67524,-0.60504,-1.425,-1.609,-1.1454,-1.213,0.9258,0.035389,0,0.94,0
0.026095,-0.017878,0.9865,-0.59536,-1.3826,-1.5799,-0.040748,0,0,1.2799,0.25644,0,-0.10595,0,0,0.67675,0.0065458,0,0.67677,-0.59326,-1.3847,-1.5799,-2.9551,-1.186,0.90497,0.032178,0.02,0.94,0
0.051195,-0.020337,0.97293,-0.61517,-1.3179,-1.5528,-0.076643,0,0,1.219,0.30546,0,-0.19927,0,0,0.68092,0.011879,0,0.68102,-0.60691,-1.3261,-1.5528,-6.1528,-1.162,0.85541,0.024696,0.04,0.94,0
0.074854,-0.024096,0.95926,-0.64531,-1.2282,-1.5213,-0.10269,0,0,1.1388,0.38105,0,-0.267,0,0,0.68693,0.015166,0,0.6871,-0.62774,-1.2458,-1.5213,-9.7053,-1.1316,0.79257,0.015542,0.06,0.94,0
0.096748,-0.028671,0.94545,-0.68136,-1.1235,-1.4869,-0.11531,0,0,1.0472,0.47246,0,-0.29981,0,0,0.69369,0.016167,0,0.69388,-0.65309,-1.1517,-1.4869,-13.774,-1.0972,0.72671,0.0065393,0.08,0.94,0
0.11674,-0.033484,0.93151,-0.7184,-1.0168,-1.4521,-0.11404,0,0,0.95378,0.56583,0,-0.2965,0,0,0.70019,0.015201,0,0.70036,-0.67981,-1.0554,-1.4521,-18.695,-1.0624,0.66889,-0.00072583,0.1,0.94,0
0.1349,-0.03799,0.91745,-0.75205,-0.9199,-1.419,-0.10192,0,0,0.86708,0.64887,0,-0.26499,0,0,0.70573,0.01291,0,0.70585,-0.70395,-0.968,-1.419,-25.265,-1.0303,0.6263,-0.0054823,0.12,0.94,0
0.15143,-0.041785,0.90328,-0.7795,-0.83951,-1.389,-0.083766,0,0,0.79233,0.71432,0,-0.21779,0,0,0.70994,0.0099773,0,0.71001,-0.72052,-0.89848,-1.389,-35.146,-1.0027,0.59962,-0.0078734,0.14,0.94,0
0.16659,-0.044636,0.88905,-0.79988,-0.77771,-1.3623,-0.063965,0,0,0.73118,0.76,0,-0.16631,0,0,0.71278,0.0069453,0,0.71281,-0.72387,-0.85371,-1.3623,-49.916,-0.97997,0.58445,-0.0085721,0.16,0.94,0
0.18067,-0.046449,0.87477,-0.81374,-0.73389,-1.3391,-0.045153,0,0,0.68292,0.78672,0,-0.1174,0,0,0.71433,0.0041706,0,0.71435,-0.71355,-0.83409,-1.3391,-65.741,-0.96223,0.5748,-0.0083262,0.18,0.94,0
0.19391,-0.04721,0.86047,-0.82218,-0.70687,-1.3192,-0.028221,0,0,0.64611,0.79602,0,-0.073374,0,0,0.71476,0.0018934,0,0.71477,-0.70033,-0.82871,-1.3192,-76.96,-0.94941,0.5657,-0.0077079,0.2,0.94,0
0.20652,-0.046939,0.84618,-0.82599,-0.69587,-1.3027,-0.013005,0,0,0.61977,0.78893,0,-0.033812,0,0,0.71421,0.00034275,0,0.71421,-0.69458,-0.82727,-1.3027,-84.348,-0.94153,0.55386,-0.0070665,0.22,0.94,0
0.2187,-0.045664,0.83191,-0.82543,-0.70101,-1.2898,0.00078412,0,0,0.60373,0.76548,0,0.0020387,0,0,0.71277,-0.00014121,0,0.71277,-0.701,-0.82544,-1.2898,89.639,-0.93876,0.53753,-0.0065586,0.24,0.94,0
0.23067,-0.043433,0.81767,-0.82045,-0.72299,-1.2807,0.01267,0,0,0.59833,0.72502,0,0.032941,0,0,0.71056,0.0010414,0,0.71056,-0.72137,-0.82207,-1.2807,82.713,-0.94138,0.5164,-0.0061759,0.26,0.94,0
0.24263,-0.040343,0.80348,-0.81134,-0.76232,-1.2756,0.020757,0,0,0.60352,0.66724,0,0.053968,0,0,0.70775,0.0049487,0,0.70777,-0.75471,-0.81894,-1.2756,69.868,-0.94975,0.49191,-0.0057634,0.28,0.94,0
0.25481,-0.036585,0.78936,-0.79966,-0.81768,-1.2746,0.02166,0,0,0.61737,0.59394,0,0.056315,0,0,0.70475,0.013348,0,0.70486,-0.78521,-0.83213,-1.2746,33.705,-0.96397,0.46766,-0.0050752,0.3,0.94,0
0.26733,-0.032469,0.77529,-0.78892,-0.88433,-1.2773,0.011428,0,0,0.63485,0.51082,0,0.029712,0,0,0.70234,0.029005,0,0.70288,-0.78757,-0.88568,-1.2773,6.7358,-0.9835,0.44876,-0.0039042,0.32,0.94,0
0.2802,-0.028401,0.76127,-0.78483,-0.95426,-1.283,-0.01284,0,0,0.64761,0.42735,0,-0.033383,0,0,0.7019,0.056085,0,0.70397,-0.78386,-0.95522,-1.283,-4.3092,-1.0074,0.43928,-0.0022268,0.34,0.94,0
0.29323,-0.024799,0.74722,-0.79571,-1.0199,-1.2919,-0.053233,0,0,0.64503,0.35364,0,-0.13841,0,0,0.70599,0.10102,0,0.71275,-0.78371,-1.0319,-1.2919,-12.703,-1.0358,0.44013,-0.00017727,0.36,0.94,0
0.306,-0.022136,0.73303,-0.84121,-1.085,-1.3109,-0.10997,0,0,0.61058,0.29365,0,-0.28593,0,0,0.71844,0.1752,0,0.73832,-0.79893,-1.1273,-1.3109,-21.028,-1.079,0.44923,0.0021724,0.38,0.94,0
0.31766,-0.020579,0.71848,-0.93605,-1.1647,-1.3487,-0.22412,0,0,0.53644,0.23923,0,-0.58271,0,0,0.78955,0.30395,0,0.84065,-0.79877,-1.3019,-1.3487,-31.488,-1.1498,0.52811,0.0073651,0.4,0.94,0
0.32746,-0.024183,0.70144,-0.83362,-0.89974,-0.92918,-0.28983,0,0,0.058949,-0.087353,0,-1.6741,0,0,0.65172,0.33819,0,0.73991,-0.57487,-1.1585,-0.92918,-42.214,-0.88752,0.51402,0.0067304,0.42,0.94,0
0.32433,-0.043494,0.67202,-0.82189,-0.46927,-0.77936,-0.17733,0,0,-0.094785,0.17715,0,-1.1616,0,0,0.8016,0.097104,0,0.81001,-0.36268,-0.92848,-0.77936,-55.543,-0.69017,0.52127,0.01384,0.44,0.94,0
0.32367,-0.049333,0.64648,-0.74603,-0.42586,-0.72868,-0.076797,0,0,-0.038672,0.18692,0,-0.65376,0,0,0.74056,0.05886,0,0.74469,-0.36837,-0.80353,-0.72868,-58.438,-0.63353,0.41772,0.0086611,0.46,0.94,0
0.32278,-0.051952,0.62124,-0.73382,-0.39172,-0.70005,-0.050063,0,0,-0.075261,0.20375,0,-0.46725,0,0,0.73495,0.036895,0,0.73676,-0.3485,-0.77704,-0.70005,-59.085,-0.60853,0.40952,0.0090506,0.48,0.94,0
0.32066,-0.052526,0.59608,-0.74602,-0.37536,-0.68413,-0.035645,0,0,-0.13793,0.21948,0,-0.35624,0,0,0.73421,0.024112,0,0.73502,-0.34277,-0.77862,-0.68413,-60.054,-0.60184,0.41012,0.0094228,0.5,0.94,0
0.31726,-0.052135,0.5709,-0.75863,-0.36194,-0.66919,-0.028589,0,0,-0.19932,0.23039,0,-0.2929,0,0,0.73513,0.015828,0,0.73549,-0.33692,-0.78365,-0.66919,-61.309,-0.59659,0.41485,0.0095545,0.52,0.94,0
0.31268,-0.051262,0.54567,-0.7687,-0.35056,-0.65409,-0.024486,0,0,-0.25542,0.23594,0,-0.25254,0,0,0.73615,0.010126,0,0.7363,-0.33124,-0.78802,-0.65409,-62.968,-0.59111,0.42004,0.0093447,0.54,0.94,0
0.30705,-0.050163,0.52042,-0.77577,-0.34014,-0.63835,-0.021725,0,0,-0.30626,0.23708,0,-0.22406,0,0,0.73688,0.0060024,0,0.73693,-0.32518,-0.79073,-0.63835,-64.971,-0.58475,0.4251,0.0088686,0.56,0.94,0
0.30044,-0.048957,0.49514,-0.78059,-0.33027,-0.62209,-0.019526,0,0,-0.35322,0.23505,0,-0.20149,0,0,0.73722,0.0028989,0,0.73723,-0.31875,-0.7921,-0.62209,-67.266,-0.57765,0.43,0.008196,0.58,0.94,0
0.29292,-0.047695,0.46986,-0.78389,-0.32075,-0.60548,-0.017573,0,0,-0.3976,0.2309,0,-0.18194,0,0,0.73719,0.00047817,0,0.73719,-0.31199,-0.79264,-0.60548,-69.8,-0.57004,0.43495,0.0073763,0.6,0.94,0
0.28453,-0.046398,0.44459,-0.78623,-0.31147,-0.58866,-0.015735,0,0,-0.44031,0.22534,0,-0.16399,0,0,0.73683,-0.0014788,0,0.73683,-0.30494,-0.79276,-0.58866,-72.489,-0.56212,0.4401,0.0064392,0.62,0.94,0
0.2753,-0.045075,0.41934,-0.78794,-0.30239,-0.57171,-0.013952,0,0,-0.48188,0.21881,0,-0.14684,0,0,0.73619,-0.0031245,0,0.7362,-0.29763,-0.7927,-0.57171,-75.207,-0.55402,0.44554,0.0054022,0.64,0.94,0
0.26526,-0.043728,0.39411,-0.7892,-0.29349,-0.5547,-0.012183,0,0,-0.52258,0.21155,0,-0.12996,0,0,0.73529,-0.0045724,0,0.73532,-0.29011,-0.79258,-0.5547,-77.822,-0.5458,0.4513,0.0042768,0.66,0.94,0
0.2544,-0.042359,0.36892,-0.79008,-0.28474,-0.53765,-0.010394,0,0,-0.56256,0.20369,0,-0.11295,0,0,0.73415,-0.0059141,0,0.73421,-0.28243,-0.7924,-0.53765,-80.235,-0.53749,0.45732,0.0030716,0.68,0.94,0
0.24275,-0.040967,0.34377,-0.79061,-0.27615,-0.52056,-0.0085462,0,0,-0.60183,0.19528,0,-0.095397,0,0,0.73279,-0.0072299,0,0.73287,-0.27464,-0.79212,-0.52056,-82.407,-0.52911,0.46357,0.0017948,0.7,0.94,0
0.23033,-0.039551,0.31867,-0.79079,-0.26772,-0.50345,-0.0065967,0,0,-0.64037,0.18632,0,-0.076861,0,0,0.73119,-0.0085973,0,0.73131,-0.26682,-0.7917,-0.50345,-84.348,-0.52065,0.46996,0.00045498,0.72,0.94,0
0.21714,-0.03811,0.29363,-0.79058,-0.25946,-0.4863,-0.0044907,0,0,-0.67811,0.17678,0,-0.056819,0,0,0.72935,-0.010099,0,0.72952,-0.25899,-0.79104,-0.4863,-86.105,-0.51211,0.47641,-0.00093847,0.74,0.94,0
0.2032,-0.036639,0.26866,-0.78991,-0.25138,-0.4691,-0.0021536,0,0,-0.71494,0.16664,0,-0.034577,0,0,0.72726,-0.011834,0,0.72748,-0.25121,-0.79009,-0.4691,2.2637,-0.50347,0.48282,-0.0023744,0.76,0.94,0
0.18854,-0.03513,0.24376,-0.78873,-0.24351,-0.45187,0.0005288,0,0,-0.75073,0.15584,0,-0.0091358,0,0,0.72487,-0.013929,0,0.72518,-0.24349,-0.78876,-0.45187,0.68607,-0.49471,0.48911,-0.0038404,0.78,0.94,0
0.17317,-0.033566,0.21895,-0.78703,-0.2359,-0.4346,0.0037454,0,0,-0.78541,0.14439,0,0.021049,0,0,0.72216,-0.016563,0,0.72259,-0.23586,-0.78707,-0.4346,89.082,-0.48584,0.49524,-0.0053239,0.8,0.94,0
0.15712,-0.031918,0.19424,-0.78495,-0.22864,-0.41739,0.0078217,0,0,-0.81914,0.13242,0,0.058428,0,0,0.71913,-0.020014,0,0.71976,-0.22836,-0.78524,-0.41739,87.364,-0.47699,0.50131,-0.0068195,0.82,0.94,0
0.14041,-0.030134,0.16964,-0.78308,-0.22192,-0.40046,0.013331,0,0,-0.8527,0.12044,0,0.10693,0,0,0.71587,-0.024744,0,0.71682,-0.221,-0.784,-0.40046,85.444,-0.46849,0.50787,-0.0083459,0.84,0.94,0
0.12302,-0.028128,0.14515,-0.78316,-0.2162,-0.38448,0.021201,0,0,-0.88848,0.1097,0,0.17248,0,0,0.71278,-0.031602,0,0.71429,-0.21398,-0.78537,-0.38448,83.289,-0.46128,0.51641,-0.0099932,0.86,0.94,0
0.10487,-0.025786,0.12076,-0.7889,-0.21198,-0.37071,0.033373,0,0,-0.93197,0.10273,0,0.26549,0,0,0.71133,-0.042244,0,0.7139,-0.2073,-0.79358,-0.37071,80.918,-0.4572,0.53061,-0.012014,0.88,0.94,0
0.085738,-0.022909,0.096377,-0.81427,-0.21613,-0.36534,0.051673,0,0,-1.0005,0.10355,0,0.39512,0,0,0.71448,-0.060846,0,0.71926,-0.20729,-0.82312,-0.36534,78.7,-0.46525,0.55833,-0.015369,0.9,0.94,0
0.064851,-0.019626,0.071772,-0.88185,-0.22873,-0.37504,0.094712,0,0,-1.1295,0.11662,0,0.62825,0,0,0.76942,-0.093722,0,0.77794,-0.20977,-0.90081,-0.37504,75.915,-0.49521,0.62749,-0.023093,0.92,0.94,0
0.04056,-0.014242,0.043617,-0.75843,-0.3072,-0.34513,0.17052,0,0,-1.0433,0.019587,0,0.96886,0,0,0.62266,-0.31623,0,0.70351,-0.24883,-0.8168,-0.34513,69.411,-0.47025,0.5266,-0.013821,0.94,0.94,0
0.026541,-0.016539,0.027374,-0.90162,-0.26131,-0.37625,0.13411,0,0,-0.68297,0.14943,0,0.34869,0,0,0.75237,-0.26433,0,0.79148,-0.23435,-0.92857,-0.37625,78.636,-0.51306,0.63527,-0.010985,0.96,0.94,0
0.013241,-0.017192,0.013522,-0.84084,-0.21554,-0.33044,0.067604,0,0,-0.66352,0.14936,0,0.17577,0,0,0.68435,-0.11494,0,0.69189,-0.20832,-0.84806,-0.33044,83.899,-0.46227,0.58827,-0.0089557,0.98,0.94,0
0,-0.017258,0,-0.805,-0.1808,-0.29574,-0.0012776,0,0,-0.66204,0.14942,0,-0.0033219,0,0,0.67611,-2.7756e-17,0,0.67449,-0.1808,-0.80501,-0.29574,-89.883,-0.42718,0.57541,-0.0084838,1,0.94,0
0,-0.011815,1,-0.61261,-1.3895,-1.6006,-0.01037,0,0,1.2844,0.27449,0,-0.026961,0,0,0.68018,-1.4895e-15,0,0.68018,-0.61247,-1.3896,-1.6006,-0.76461,-1.2009,0.90137,0.030776,0,0.96,0
0.025688,-0.012354,0.9864,-0.60191,-1.3492,-1.5717,-0.026475,0,0,1.2608,0.28927,0,-0.068835,0,0,0.68125,0.0037891,0,0.68126,-0.60097,-1.3501,-1.5717,-2.0264,-1.1743,0.88112,0.027785,0.02,0.96,0
0.050431,-0.013908,0.97275,-0.62019,-1.2907,-1.546,-0.049709,0,0,1.2036,0.33195,0,-0.12924,0,0,0.68427,0.0069391,0,0.6843,-0.61652,-1.2943,-1.546,-4.2172,-1.1523,0.83268,0.020775,0.04,0.96,0
0.073831,-0.016282,0.95903,-0.64828,-1.2114,-1.5169,-0.066694,0,0,1.1292,0.39721,0,-0.17341,0,0,0.68871,0.008993,0,0.68878,-0.64049,-1.2192,-1.5169,-6.6634,-1.1255,0.7719,0.012326,0.06,0.96,0
0.0956,-0.019181,0.9452,-0.6825,-1.1192,-1.4857,-0.075451,0,0,1.0442,0.47645,0,-0.19617,0,0,0.69389,0.0097825,0,0.69397,-0.66983,-1.1319,-1.4857,-9.5309,-1.0958,0.70865,0.0041545,0.08,0.96,0
0.1156,-0.022256,0.93127,-0.71869,-1.0238,-1.454,-0.075723,0,0,0.95592,0.5593,0,-0.19688,0,0,0.69912,0.0094246,0,0.69918,-0.70093,-1.0415,-1.454,-13.2,-1.0655,0.65318,-0.0023522,0.1,0.96,0
0.13384,-0.025174,0.91724,-0.75304,-0.93403,-1.4234,-0.069047,0,0,0.87141,0.63613,0,-0.17952,0,0,0.70383,0.0082257,0,0.70388,-0.72971,-0.95736,-1.4234,-18.672,-1.0368,0.61242,-0.0065392,0.12,0.96,0
0.15046,-0.027673,0.90312,-0.7828,-0.85637,-1.3949,-0.058015,0,0,0.79569,0.70005,0,-0.15084,0,0,0.70767,0.0065549,0,0.7077,-0.75089,-0.88828,-1.3949,-28.811,-1.0113,0.58746,-0.0085237,0.14,0.96,0
0.16567,-0.029585,0.88893,-0.8065,-0.79422,-1.3692,-0.045197,0,0,0.73144,0.74741,0,-0.11751,0,0,0.71052,0.0047456,0,0.71053,-0.75475,-0.84597,-1.3692,-48.87,-0.98996,0.57425,-0.0089039,0.16,0.96,0
0.17971,-0.030825,0.8747,-0.82386,-0.74877,-1.3465,-0.032403,0,0,0.67941,0.77703,0,-0.084247,0,0,0.71237,0.00306,0,0.71237,-0.73672,-0.83591,-1.3465,-69.603,-0.97304,0.56672,-0.0083909,0.18,0.96,0
0.19284,-0.031366,0.86043,-0.83524,-0.72007,-1.327,-0.020514,0,0,0.63932,0.78905,0,-0.053338,0,0,0.71334,0.0017104,0,0.71334,-0.71652,-0.83879,-1.327,-80.196,-0.96078,0.55948,-0.0075669,0.2,0.96,0
0.20528,-0.031215,0.84616,-0.84119,-0.70787,-1.3109,-0.00979,0,0,0.6106,0.78392,0,-0.025454,0,0,0.71363,0.0009181,0,0.71363,-0.70715,-0.84191,-1.3109,-85.823,-0.95331,0.5489,-0.0067991,0.22,0.96,0
0.21727,-0.030394,0.83189,-0.84227,-0.71198,-1.2982,-0.00038265,0,0,0.59266,0.76204,0,-0.00099489,0,0,0.71351,0.00099684,0,0.71351,-0.71198,-0.84227,-1.2982,-89.832,-0.9508,0.53312,-0.0062429,0.24,0.96,0
0.22899,-0.028949,0.81762,-0.83915,-0.73211,-1.289,0.0071514,0,0,0.58481,0.72396,0,0.018594,0,0,0.71343,0.0024598,0,0.71343,-0.73163,-0.83962,-1.289,86.195,-0.95342,0.51199,-0.0058724,0.26,0.96,0
0.24066,-0.026961,0.80335,-0.83299,-0.7673,-1.2834,0.011554,0,0,0.58559,0.67099,0,0.030041,0,0,0.71407,0.0061563,0,0.71409,-0.76532,-0.83496,-1.2834,80.31,-0.96124,0.48704,-0.005527,0.28,0.96,0
0.25242,-0.024567,0.78906,-0.82594,-0.81507,-1.2814,0.010989,0,0,0.59205,0.60618,0,0.02857,0,0,0.71659,0.013445,0,0.7167,-0.80825,-0.83277,-1.2814,58.156,-0.97413,0.46135,-0.0049952,0.3,0.96,0
0.26434,-0.021962,0.77469,-0.82149,-0.87089,-1.2824,0.0036673,0,0,0.59918,0.53497,0,0.0095351,0,0,0.72286,0.026422,0,0.72332,-0.82122,-0.87116,-1.2824,4.2228,-0.9916,0.43835,-0.0041373,0.32,0.96,0
0.27638,-0.019379,0.76014,-0.82454,-0.92844,-1.286,-0.011432,0,0,0.59995,0.46488,0,-0.029724,0,0,0.73601,0.048249,0,0.73753,-0.8233,-0.92968,-1.286,-6.2057,-1.013,0.41979,-0.0029925,0.34,0.96,0
0.28834,-0.017071,0.74525,-0.84198,-0.98165,-1.2923,-0.033911,0,0,0.58547,0.40389,0,-0.088167,0,0,0.76149,0.083663,0,0.76597,-0.83418,-0.98945,-1.2923,-12.95,-1.0387,0.40359,-0.0017697,0.36,0.96,0
0.2998,-0.01527,0.72969,-0.8744,-1.0222,-1.2987,-0.066855,0,0,0.55156,0.35938,0,-0.17382,0,0,0.81332,0.13945,0,0.82508,-0.84865,-1.048,-1.2987,-21.064,-1.0651,0.39058,-0.00060022,0.38,0.96,0
0.3104,-0.014734,0.71272,-0.94864,-1.068,-1.3177,-0.1225,0,0,0.47979,0.32463,0,-0.31851,0,0,0.9261,0.22515,0,0.95436,-0.87205,-1.1446,-1.3177,-32.014,-1.1115,0.38914,0.0011345,0.4,0.96,0
0.31899,-0.017364,0.69264,-1.0541,-1.0267,-1.3169,-0.21748,0,0,0.34158,0.37729,0,-0.56544,0,0,1.0707,0.29782,0,1.1175,-0.82248,-1.2583,-1.3169,-46.807,-1.1325,0.46787,0.0049832,0.42,0.96,0
0.32406,-0.025562,0.66989,-1.0718,-0.55958,-1.1593,-0.17242,0,0,0.11375,0.77964,0,-0.44831,0,0,1.1854,0.11109,0,1.1886,-0.50694,-1.1244,-1.1593,-73.025,-0.93022,0.63564,0.013057,0.44,0.96,0
0.32354,-0.031932,0.64523,-1.1966,-0.50042,-1.1543,-0.094682,0,0,-0.054908,0.85007,0,-0.24617,0,0,1.2347,0.057509,0,1.2359,-0.48777,-1.2092,-1.1543,-82.391,-0.95043,0.69561,0.016925,0.46,0.96,0
0.32187,-0.034342,0.6205,-1.195,-0.43841,-1.1105,-0.043686,0,0,-0.10981,0.87374,0,-0.11359,0,0,1.2404,0.033009,0,1.2408,-0.4359,-1.1975,-1.1105,-86.706,-0.91464,0.72205,0.018392,0.48,0.96,0
0.31915,-0.035015,0.59561,-1.201,-0.4029,-1.0768,-0.025493,0,0,-0.16153,0.87606,0,-0.066283,0,0,1.2477,0.020282,0,1.2479,-0.40208,-1.2019,-1.0768,-88.172,-0.89358,0.74516,0.019248,0.5,0.96,0
0.3154,-0.034805,0.57059,-1.2114,-0.38065,-1.0482,-0.018839,0,0,-0.21217,0.86783,0,-0.048982,0,0,1.2533,0.01287,0,1.2533,-0.38023,-1.2119,-1.0482,-88.702,-0.8801,0.76308,0.019331,0.52,0.96,0
0.31066,-0.034209,0.54548,-1.2224,-0.36527,-1.0218,-0.016747,0,0,-0.26077,0.85345,0,-0.043541,0,0,1.2572,0.008112,0,1.2573,-0.36494,-1.2227,-1.0218,-88.881,-0.8698,0.77702,0.018772,0.54,0.96,0
0.30497,-0.033452,0.5203,-1.2322,-0.35302,-0.99586,-0.015888,0,0,-0.3072,0.83569,0,-0.041308,0,0,1.2598,0.0048213,0,1.2598,-0.35273,-1.2325,-0.99586,-88.965,-0.86035,0.78851,0.017747,0.56,0.96,0
0.29838,-0.032628,0.49509,-1.2406,-0.3422,-0.96992,-0.015159,0,0,-0.35187,0.81604,0,-0.039412,0,0,1.2612,0.0024119,0,1.2612,-0.34194,-1.2408,-0.96992,-89.034,-0.8509,0.79868,0.016378,0.58,0.96,0
0.2909,-0.031775,0.46985,-1.2478,-0.33203,-0.9438,-0.014272,0,0,-0.39517,0.79529,0,-0.037108,0,0,1.2617,0.00056454,0,1.2617,-0.33181,-1.248,-0.9438,-89.107,-0.8412,0.80823,0.01474,0.6,0.96,0
0.28257,-0.030905,0.44462,-1.2539,-0.32221,-0.91746,-0.013224,0,0,-0.43742,0.77382,0,-0.034383,0,0,1.2615,-0.00091269,0,1.2615,-0.32203,-1.2541,-0.91746,-89.187,-0.83121,0.81753,0.012879,0.62,0.96,0
0.2734,-0.03002,0.41939,-1.2593,-0.31262,-0.89096,-0.012067,0,0,-0.4788,0.75184,0,-0.031373,0,0,1.2606,-0.0021461,0,1.2606,-0.31247,-1.2594,-0.89096,-89.27,-0.82095,0.82678,0.010823,0.64,0.96,0
0.26342,-0.029121,0.39419,-1.2638,-0.30322,-0.86431,-0.01084,0,0,-0.5194,0.72943,0,-0.028185,0,0,1.2592,-0.0032264,0,1.2592,-0.30309,-1.264,-0.86431,-89.353,-0.81046,0.83606,0.0085917,0.66,0.96,0
0.25263,-0.028207,0.36902,-1.2677,-0.29399,-0.83755,-0.0095629,0,0,-0.55927,0.70662,0,-0.024864,0,0,1.2573,-0.004225,0,1.2573,-0.2939,-1.2678,-0.83755,-89.437,-0.79976,0.84537,0.0062034,0.68,0.96,0
0.24105,-0.027278,0.3439,-1.271,-0.28495,-0.81068,-0.0082299,0,0,-0.59839,0.68345,0,-0.021398,0,0,1.255,-0.0052037,0,1.255,-0.28488,-1.2711,-0.81068,-89.522,-0.78887,0.85467,0.0036747,0.7,0.96,0
0.22869,-0.026333,0.31883,-1.2735,-0.27611,-0.78371,-0.0068229,0,0,-0.63674,0.65988,0,-0.01774,0,0,1.2522,-0.0062223,0,1.2522,-0.27606,-1.2736,-0.78371,-89.608,-0.77778,0.8639,0.0010234,0.72,0.96,0
0.21558,-0.02537,0.29381,-1.2753,-0.2675,-0.75666,-0.0053087,0,0,-0.67425,0.6359,0,-0.013803,0,0,1.2488,-0.0073454,0,1.2489,-0.26747,-1.2753,-0.75666,-89.698,-0.76649,0.87296,-0.0017311,0.74,0.96,0
0.20172,-0.024387,0.26887,-1.2763,-0.25917,-0.72952,-0.0036282,0,0,-0.71082,0.61145,0,-0.0094334,0,0,1.245,-0.0086512,0,1.245,-0.25916,-1.2763,-0.72952,-89.796,-0.755,0.88171,-0.004567,0.76,0.96,0
0.18714,-0.023375,0.24402,-1.2764,-0.25124,-0.70231,-0.0016672,0,0,-0.74634,0.5864,0,-0.0043346,0,0,1.2404,-0.010245,0,1.2405,-0.25123,-1.2764,-0.70231,-89.907,-0.74332,0.88997,-0.0074596,0.78,0.96,0
0.17187,-0.022322,0.21926,-1.2756,-0.2439,-0.67511,0.00081016,0,0,-0.78066,0.56057,0,0.0021064,0,0,1.2351,-0.012288,0,1.2352,-0.2439,-1.2756,-0.67511,89.955,-0.73154,0.8975,-0.010381,0.8,0.96,0
0.15592,-0.0212,0.19461,-1.2739,-0.23754,-0.64805,0.0042918,0,0,-0.81364,0.53367,0,0.011159,0,0,1.2288,-0.015046,0,1.2289,-0.23752,-1.2739,-0.64805,89.763,-0.71984,0.90401,-0.013303,0.82,0.96,0
0.13932,-0.019957,0.1701,-1.2716,-0.2328,-0.62142,0.0097352,0,0,-0.84522,0.50521,0,0.025312,0,0,1.2214,-0.019018,0,1.2216,-0.2327,-1.2717,-0.62142,89.463,-0.7086,0.90923,-0.016199,0.84,0.96,0
0.12211,-0.018505,0.14575,-1.2692,-0.2307,-0.59572,0.01897,0,0,-0.87552,0.47453,0,0.049321,0,0,1.2127,-0.025239,0,1.213,-0.23036,-1.2695,-0.59572,88.954,-0.69854,0.91308,-0.019058,0.86,0.96,0
0.1043,-0.016703,0.12159,-1.2667,-0.23213,-0.57123,0.034656,0,0,-0.90407,0.44083,0,0.090107,0,0,1.2027,-0.036067,0,1.2033,-0.23097,-1.2678,-0.57123,88.084,-0.69001,0.91545,-0.021844,0.88,0.96,0
0.085946,-0.014427,0.097644,-1.2575,-0.23744,-0.54612,0.06258,0,0,-0.92475,0.40127,0,0.16271,0,0,1.1947,-0.057315,0,1.196,-0.23362,-1.2613,-0.54612,86.502,-0.68034,0.91248,-0.024153,0.9,0.96,0
0.067311,-0.011429,0.073805,-1.1752,-0.22647,-0.49431,0.089966,0,0,-0.88517,0.34819,0,0.23391,0,0,1.1459,-0.1047,0,1.1489,-0.21802,-1.1837,-0.49431,84.63,-0.632,0.8614,-0.021802,0.92,0.96,0
0.050539,-0.010213,0.051809,-1.1432,-0.3205,-0.49093,0.11682,0,0,-0.848,0.22156,0,0.30373,0,0,1.0369,-0.27445,0,1.0784,-0.30424,-1.1595,-0.49093,82.073,-0.65156,0.77888,-0.019648,0.94,0.96,0
0.033391,-0.011897,0.032328,-1.069,-0.21493,-0.41751,0.068035,0,0,-0.84694,0.26335,0,0.17689,0,0,0.90373,-0.19105,0,0.92436,-0.20955,-1.0744,-0.41751,85.474,-0.56715,0.78189,-0.01882,0.96,0.96,0
0.016661,-0.01275,0.015659,-1.0109,-0.16623,-0.36881,0.038989,0,0,-0.83477,0.26336,0,0.10137,0,0,0.8082,-0.087772,0,0.81217,-0.16443,-1.0127,-0.36881,87.363,-0.51533,0.76682,-0.017731,0.98,0.96,0
0,-0.012948,0,-0.97125,-0.13016,-0.33042,-0.0038053,0,0,-0.83307,0.26034,0,-0.0098938,0,0,0.78296,3.4694e-18,0,0.78211,-0.13015,-0.97127,-0.33042,-89.741,-0.47728,0.76101,-0.017461,1,0.96,0
0,-0.0060465,1,-0.61767,-1.3687,-1.5959,-0.0050162,0,0,1.2717,0.29538,0,-0.013042,0,0,0.68283,4.3721e-16,0,0.68283,-0.61764,-1.3687,-1.5959,-0.38267,-1.1941,0.88678,0.028047,0,0.98,0
0.025434,-0.0063074,0.98634,-0.60654,-1.3296,-1.5672,-0.013005,0,0,1.2488,0.30886,0,-0.033813,0,0,0.68368,0.0017419,0,0.68369,-0.60631,-1.3298,-1.5672,-1.0301,-1.1678,0.86692,0.025198,0.02,0.98,0
0.049953,-0.0070586,0.97265,-0.62385,-1.2748,-1.5422,-0.024416,0,0,1.1939,0.3477,0,-0.063482,0,0,0.68612,0.0032068,0,0.68613,-0.62294,-1.2757,-1.5422,-2.1451,-1.147,0.81923,0.01849,0.04,0.98,0
0.073191,-0.0082073,0.9589,-0.65065,-1.2014,-1.5145,-0.032812,0,0,1.123,0.40706,0,-0.085311,0,0,0.68977,0.0041917,0,0.68978,-0.6487,-1.2033,-1.5145,-3.3975,-1.1222,0.75963,0.010453,0.06,0.98,0
0.094874,-0.0096131,0.94506,-0.68367,-1.1161,-1.485,-0.037293,0,0,1.0417,0.47952,0,-0.096963,0,0,0.69412,0.0046121,0,0.69414,-0.68048,-1.1193,-1.485,-4.8927,-1.0949,0.6977,0.0027345,0.08,0.98,0
0.11486,-0.011112,0.93113,-0.71921,-1.027,-1.455,-0.037733,0,0,0.95653,0.55639,0,-0.098107,0,0,0.69863,0.0045048,0,0.69865,-0.71465,-1.0316,-1.455,-6.8882,-1.0671,0.64337,-0.003366,0.1,0.98,0
0.13314,-0.012545,0.91712,-0.75376,-0.94161,-1.4257,-0.034784,0,0,0.87356,0.62935,0,-0.090439,0,0,0.70286,0.0039938,0,0.70287,-0.74752,-0.94785,-1.4257,-10.161,-1.0404,0.60352,-0.0072392,0.12,0.98,0
0.1498,-0.013783,0.90302,-0.78459,-0.86603,-1.3982,-0.02958,0,0,0.7977,0.69183,0,-0.076909,0,0,0.70646,0.0032402,0,0.70647,-0.77498,-0.87564,-1.3982,-17.997,-1.0163,0.57949,-0.0089864,0.14,0.98,0
0.16504,-0.01474,0.88886,-0.81,-0.80417,-1.3731,-0.023308,0,0,0.73204,0.73962,0,-0.060602,0,0,0.70928,0.0024019,0,0.70929,-0.7836,-0.83058,-1.3731,-48.561,-0.99576,0.56748,-0.0091695,0.16,0.98,0
0.17908,-0.015368,0.87465,-0.82927,-0.75807,-1.3509,-0.01687,0,0,0.67806,0.77061,0,-0.043863,0,0,0.7113,0.0016146,0,0.7113,-0.75427,-0.83306,-1.3509,-77.322,-0.9794,0.56134,-0.0084844,0.18,0.98,0
0.19217,-0.015648,0.86041,-0.84238,-0.72846,-1.3317,-0.010781,0,0,0.63606,0.78416,0,-0.028032,0,0,0.71262,0.00099855,0,0.71262,-0.72745,-0.84339,-1.3317,-84.641,-0.9675,0.55539,-0.0075224,0.2,0.98,0
0.20453,-0.015582,0.84614,-0.84976,-0.71541,-1.3157,-0.0052764,0,0,0.60572,0.78037,0,-0.013719,0,0,0.71349,0.00068533,0,0.71349,-0.7152,-0.84996,-1.3157,-87.754,-0.96029,0.54574,-0.0066629,0.22,0.98,0
0.21639,-0.015182,0.83187,-0.85209,-0.71856,-1.3031,-0.00053181,0,0,0.58627,0.75985,0,-0.0013827,0,0,0.71431,0.00085874,0,0.71431,-0.71856,-0.85209,-1.3031,-89.772,-0.9579,0.5305,-0.006061,0.24,0.98,0
0.22798,-0.014474,0.81757,-0.85037,-0.7371,-1.2938,0.0031163,0,0,0.57647,0.72372,0,0.0081023,0,0,0.71571,0.0018099,0,0.71572,-0.73702,-0.85046,-1.2938,88.425,-0.96043,0.50963,-0.0056793,0.26,0.98,0
0.23945,-0.013503,0.80324,-0.8461,-0.7694,-1.2879,0.0050694,0,0,0.57432,0.67404,0,0.01318,0,0,0.71874,0.0040076,0,0.71875,-0.76906,-0.84643,-1.2879,86.235,-0.96779,0.48479,-0.0053528,0.28,0.98,0
0.25095,-0.012338,0.78882,-0.84141,-0.81256,-1.285,0.004572,0,0,0.57668,0.61419,0,0.011887,0,0,0.72502,0.0081894,0,0.72507,-0.81185,-0.84212,-1.285,81.207,-0.97966,0.45878,-0.0048867,0.3,0.98,0
0.26252,-0.011071,0.77424,-0.83906,-0.86229,-1.2846,0.0010311,0,0,0.57926,0.54905,0,0.0026807,0,0,0.73715,0.015484,0,0.73733,-0.83901,-0.86234,-1.2846,2.5355,-0.99533,0.43444,-0.0041703,0.32,0.98,0
0.27412,-0.0098054,0.75934,-0.84223,-0.91334,-1.286,-0.0055319,0,0,0.57691,0.48447,0,-0.014383,0,0,0.75914,0.02757,0,0.75971,-0.84181,-0.91377,-1.286,-4.4219,-1.0139,0.41295,-0.0032496,0.34,0.98,0
0.2856,-0.0086439,0.74387,-0.85318,-0.95935,-1.2876,-0.014912,0,0,0.56478,0.42677,0,-0.038771,0,0,0.79719,0.04674,0,0.79879,-0.85113,-0.9614,-1.2876,-7.8456,-1.0334,0.39314,-0.0023128,0.36,0.98,0
0.29671,-0.0077613,0.72745,-0.87776,-0.9959,-1.2895,-0.028638,0,0,0.53532,0.38174,0,-0.074459,0,0,0.85992,0.074988,0,0.86386,-0.87118,-1.0025,-1.2895,-12.933,-1.0544,0.37059,-0.0015512,0.38,0.98,0
0.30701,-0.0075936,0.70947,-0.92316,-1.0044,-1.2877,-0.054827,0,0,0.47396,0.36834,0,-0.14255,0,0,0.94793,0.1049,0,0.95536,-0.89554,-1.032,-1.2877,-26.731,-1.0718,0.34485,-0.001049,0.4,0.98,0
0.31567,-0.0090916,0.68953,-1.0038,-0.93822,-1.2721,-0.088678,0,0,0.34882,0.4341,0,-0.23056,0,0,1.0474,0.10183,0,1.0537,-0.87647,-1.0656,-1.2721,-55.149,-1.0714,0.34277,-0.00015803,0.42,0.98,0
0.32096,-0.012309,0.66758,-1.067,-0.70872,-1.2003,-0.098965,0,0,0.17328,0.63904,0,-0.25731,0,0,1.1339,0.075676,0,1.137,-0.6832,-1.0925,-1.2003,-75.541,-0.99201,0.47251,0.0044826,0.44,0.98,0
0.3226,-0.01533,0.64418,-1.1379,-0.53065,-1.1447,-0.060108,0,0,0.0089145,0.79831,0,-0.15628,0,0,1.1914,0.037154,0,1.1921,-0.52476,-1.1438,-1.1447,-84.401,-0.93776,0.61949,0.012211,0.46,0.98,0
0.32132,-0.017003,0.61992,-1.1935,-0.45366,-1.1141,-0.028114,0,0,-0.1033,0.85855,0,-0.073096,0,0,1.2227,0.019952,0,1.2229,-0.45259,-1.1946,-1.1141,-87.827,-0.92043,0.70521,0.017223,0.48,0.98,0
0.31847,-0.017484,0.59527,-1.2127,-0.40817,-1.0815,-0.012575,0,0,-0.17055,0.87538,0,-0.032695,0,0,1.2385,0.011661,0,1.2386,-0.40797,-1.2129,-1.0815,-89.105,-0.90081,0.74797,0.019275,0.5,0.98,0
0.3145,-0.017422,0.57038,-1.2228,-0.3827,-1.052,-0.0078753,0,0,-0.22199,0.87013,0,-0.020476,0,0,1.2481,0.0071721,0,1.2481,-0.38262,-1.2229,-1.052,-89.463,-0.88584,0.76918,0.019542,0.52,0.98,0
0.30959,-0.017124,0.54535,-1.2296,-0.36621,-1.0241,-0.0069378,0,0,-0.26713,0.85523,0,-0.018038,0,0,1.2539,0.0044523,0,1.2539,-0.36615,-1.2296,-1.0241,-89.54,-0.87328,0.78125,0.018894,0.54,0.98,0
0.30381,-0.016736,0.52022,-1.2357,-0.35375,-0.99705,-0.006986,0,0,-0.31021,0.83629,0,-0.018164,0,0,1.2575,0.0026437,0,1.2575,-0.35369,-1.2357,-0.99705,-89.546,-0.86216,0.79021,0.017766,0.56,0.98,0
0.29718,-0.016316,0.49505,-1.2416,-0.34297,-0.97043,-0.0070328,0,0,-0.35257,0.8157,0,-0.018285,0,0,1.2595,0.0013524,0,1.2595,-0.34291,-1.2417,-0.97043,-89.552,-0.85167,0.79849,0.016338,0.58,0.98,0
0.28971,-0.015883,0.46984,-1.2474,-0.33287,-0.94393,-0.0068575,0,0,-0.39454,0.79437,0,-0.01783,0,0,1.2604,0.0003778,0,1.2604,-0.33282,-1.2475,-0.94393,-89.57,-0.84141,0.8069,0.01468,0.6,0.98,0
0.2814,-0.015445,0.44463,-1.2529,-0.32311,-0.91742,-0.0064819,0,0,-0.43609,0.77261,0,-0.016853,0,0,1.2604,-0.00039379,0,1.2604,-0.32306,-1.2529,-0.91742,-89.601,-0.83113,0.81562,0.012821,0.62,0.98,0
0.27226,-0.015001,0.41942,-1.2579,-0.31355,-0.89085,-0.0059749,0,0,-0.47712,0.75049,0,-0.015535,0,0,1.2597,-0.0010339,0,1.2597,-0.31351,-1.2579,-0.89085,-89.638,-0.82075,0.8246,0.010777,0.64,0.98,0
0.26232,-0.014551,0.39424,-1.2623,-0.30416,-0.86418,-0.0053911,0,0,-0.51755,0.72801,0,-0.014017,0,0,1.2584,-0.0015923,0,1.2584,-0.30413,-1.2623,-0.86418,-89.678,-0.81021,0.83375,0.0085614,0.66,0.98,0
0.25156,-0.014094,0.36909,-1.2661,-0.29497,-0.83741,-0.0047607,0,0,-0.5573,0.70517,0,-0.012378,0,0,1.2566,-0.0021074,0,1.2566,-0.29495,-1.2661,-0.83741,-89.719,-0.79949,0.84299,0.0061895,0.68,0.98,0
0.24002,-0.013629,0.34398,-1.2693,-0.28597,-0.81055,-0.0040947,0,0,-0.59633,0.68195,0,-0.010646,0,0,1.2542,-0.002612,0,1.2542,-0.28596,-1.2693,-0.81055,-89.761,-0.7886,0.85222,0.0036777,0.7,0.98,0
0.22771,-0.013156,0.31892,-1.2717,-0.2772,-0.7836,-0.0033909,0,0,-0.63458,0.65832,0,-0.0088162,0,0,1.2513,-0.0031379,0,1.2513,-0.27719,-1.2717,-0.7836,-89.805,-0.77751,0.86137,0.0010437,0.72,0.98,0
0.21464,-0.012674,0.29392,-1.2735,-0.26869,-0.75657,-0.0026351,0,0,-0.67198,0.63425,0,-0.0068514,0,0,1.2479,-0.0037196,0,1.2479,-0.26868,-1.2735,-0.75657,-89.85,-0.76625,0.87031,-0.0016927,0.74,0.98,0
0.20083,-0.012182,0.269,-1.2744,-0.26051,-0.72948,-0.0017938,0,0,-0.70842,0.60967,0,-0.004664,0,0,1.2438,-0.0044002,0,1.2438,-0.2605,-1.2744,-0.72948,-89.899,-0.7548,0.8789,-0.0045093,0.76,0.98,0
0.1863,-0.011674,0.24417,-1.2744,-0.25281,-0.70234,-0.00078935,0,0,-0.74369,0.58438,0,-0.0020523,0,0,1.239,-0.0052398,0,1.239,-0.25281,-1.2744,-0.70234,-89.956,-0.74319,0.88685,-0.0073781,0.78,0.98,0
0.17108,-0.011143,0.21944,-1.2732,-0.2459,-0.67518,0.00055516,0,0,-0.77745,0.55806,0,0.0014434,0,0,1.2332,-0.006334,0,1.2332,-0.2459,-1.2732,-0.67518,89.969,-0.73143,0.89367,-0.01026,0.8,0.98,0
0.15521,-0.010572,0.19484,-1.2703,-0.24033,-0.64803,0.0026234,0,0,-0.80894,0.53001,0,0.0068208,0,0,1.2261,-0.0078528,0,1.2261,-0.24033,-1.2703,-0.64803,89.854,-0.71955,0.89841,-0.013088,0.82,0.98,0
0.13873,-0.009926,0.1704,-1.2646,-0.23712,-0.62091,0.006198,0,0,-0.83677,0.49893,0,0.016115,0,0,1.217,-0.010137,0,1.2171,-0.23708,-1.2646,-0.62091,89.654,-0.70754,0.89931,-0.015741,0.84,0.98,0
0.12173,-0.0091471,0.14616,-1.2538,-0.23778,-0.59365,0.012652,0,0,-0.85824,0.46263,0,0.032895,0,0,1.2049,-0.013945,0,1.2049,-0.23763,-1.254,-0.59365,89.287,-0.69509,0.89325,-0.017983,0.86,0.98,0
0.1044,-0.0081525,0.12221,-1.2345,-0.24479,-0.56599,0.024042,0,0,-0.86906,0.41757,0,0.062509,0,0,1.1873,-0.021096,0,1.1876,-0.2442,-1.2351,-0.56599,88.609,-0.68176,0.87552,-0.019434,0.88,0.98,0
0.086973,-0.0068585,0.09867,-1.1964,-0.25734,-0.53479,0.038333,0,0,-0.86008,0.36068,0,0.099665,0,0,1.1562,-0.036202,0,1.1568,-0.25578,-1.198,-0.53479,87.666,-0.66284,0.83825,-0.019339,0.9,0.98,0
0.069993,-0.0056984,0.07596,-1.1624,-0.2927,-0.5125,0.046681,0,0,-0.8449,0.28573,0,0.12137,0,0,1.1019,-0.070441,0,1.1047,-0.2902,-1.1649,-0.5125,86.936,-0.65587,0.78746,-0.018504,0.92,0.98,0
0.053177,-0.0053796,0.054595,-1.128,-0.28085,-0.47726,0.030293,0,0,-0.846,0.25533,0,0.078762,0,0,1.0236,-0.090858,0,1.0288,-0.27977,-1.1291,-0.47726,87.955,-0.62871,0.76983,-0.018336,0.94,0.98,0
0.036153,-0.0060049,0.035016,-1.0881,-0.18952,-0.41831,0.020365,0,0,-0.87076,0.29743,0,0.05295,0,0,0.93905,-0.086221,0,0.94412,-0.18906,-1.0886,-0.41831,88.702,-0.56532,0.80962,-0.020069,0.96,0.98,0
0.018346,-0.0066575,0.017033,-1.0754,-0.13494,-0.38013,0.012439,0,0,-0.90383,0.31875,0,0.032341,0,0,0.8754,-0.04563,0,0.87666,-0.13478,-1.0756,-0.38013,89.242,-0.53015,0.84524,-0.02243,0.98,0.98,0
0,-0.0068447,0,-1.0481,-0.09348,-0.34247,-0.0036004,0,0,-0.91732,0.32369,0,-0.0093611,0,0,0.85165,1.301e-17,0,0.8514,-0.093466,-1.0481,-0.34247,-89.784,-0.49469,0.8577,-0.023434,1,0.98,0
0,0,1,-0.61947,-1.3618,-1.5944,3.1225e-17,0,0,1.2674,0.30233,0,8.3267e-17,0,0,0.68366,4.8715e-15,0,0.68366,-0.61947,-1.3618,-1.5944,2.41e-15,-1.1919,0.88195,0.027147,0,1,0
0.025348,0,0.98633,-0.6082,-1.3231,-1.5657,-0.0016576,0,0,1.2448,0.31537,0,-0.0043098,0,0,0.68446,0.00083553,0,0.68446,-0.60819,-1.3231,-1.5657,-0.13284,-1.1657,0.86223,0.024348,0.02,1,0
0.049792,0,0.97262,-0.62518,-1.2696,-1.541,-0.0031126,0,0,1.1906,0.35293,0,-0.0080928,0,0,0.68671,0.0015421,0,0.68672,-0.62516,-1.2696,-1.541,-0.27675,-1.1453,0.8148,0.017743,0.04,1,0
0.072973,0,0.95886,-0.65154,-1.1981,-1.5137,-0.0041832,0,0,1.1209,0.41037,0,-0.010876,0,0,0.69012,0.002024,0,0.69012,-0.65151,-1.1981,-1.5137,-0.43851,-1.1211,0.7556,0.0098425,0.06,1,0
0.094626,0,0.94502,-0.68415,-1.115,-1.4848,-0.0047683,0,0,1.0408,0.48065,0,-0.012398,0,0,0.69421,0.0022392,0,0.69421,-0.6841,-1.1151,-1.4848,-0.63394,-1.0946,0.69408,0.0022697,0.08,1,0
0.11461,0,0.93109,-0.71944,-1.0279,-1.4553,-0.0048913,0,0,0.95662,0.55558,0,-0.012717,0,0,0.6985,0.0022016,0,0.6985,-0.71936,-1.028,-1.4553,-0.90817,-1.0676,0.6401,-0.0037024,0.1,1,0
0.13289,0,0.91708,-0.75402,-0.944,-1.4265,-0.0046971,0,0,0.87421,0.62723,0,-0.012212,0,0,0.70256,0.0019666,0,0.70256,-0.7539,-0.94412,-1.4265,-1.4154,-1.0415,0.60051,-0.0074761,0.12,1,0
0.14957,0,0.90299,-0.78516,-0.86917,-1.3993,-0.0043971,0,0,0.79836,0.68915,0,-0.011432,0,0,0.70608,0.0016098,0,0.70608,-0.78493,-0.8694,-1.3993,-2.9879,-1.0179,0.57678,-0.0091463,0.14,1,0
0.16483,0,0.88883,-0.81109,-0.80749,-1.3744,-0.0041876,0,0,0.73231,0.73699,0,-0.010888,0,0,0.70889,0.0012075,0,0.70889,-0.80473,-0.81385,-1.3744,-56.636,-0.99767,0.56517,-0.0092637,0.16,1,0
0.17887,0,0.87463,-0.83096,-0.76122,-1.3523,-0.0041917,0,0,0.67772,0.76838,0,-0.010899,0,0,0.71096,0.0008286,0,0.71096,-0.76097,-0.83122,-1.3523,-86.573,-0.98149,0.55951,-0.0085199,0.18,1,0
0.19193,0,0.8604,-0.84465,-0.73133,-1.3332,-0.0044461,0,0,0.6351,0.78242,0,-0.01156,0,0,0.71241,0.00053659,0,0.71241,-0.73116,-0.84482,-1.3332,-87.757,-0.96972,0.55401,-0.0075092,0.2,1,0
0.20427,0,0.84613,-0.85252,-0.71797,-1.3173,-0.0049311,0,0,0.60419,0.77911,0,-0.012821,0,0,0.71349,0.00040239,0,0.71349,-0.71779,-0.85271,-1.3173,-87.904,-0.96259,0.54471,-0.0066157,0.22,1,0
0.2161,0,0.83186,-0.85531,-0.72075,-1.3047,-0.0056231,0,0,0.58417,0.7591,0,-0.01462,0,0,0.71464,0.00052476,0,0.71464,-0.72051,-0.85555,-1.3047,-87.611,-0.96025,0.52971,-0.0059941,0.24,1,0
0.22764,0,0.81755,-0.8541,-0.73869,-1.2954,-0.0065436,0,0,0.57367,0.72371,0,-0.017013,0,0,0.71657,0.001058,0,0.71658,-0.73832,-0.85447,-1.2954,-86.766,-0.96273,0.50903,-0.0056032,0.26,1,0
0.23905,0,0.80319,-0.85045,-0.76996,-1.2893,-0.0077819,0,0,0.57052,0.67516,0,-0.020233,0,0,0.72045,0.0022478,0,0.72045,-0.76921,-0.8512,-1.2893,-84.528,-0.96991,0.48434,-0.0052763,0.28,1,0
0.25046,0,0.78873,-0.84642,-0.81159,-1.2861,-0.0094677,0,0,0.57163,0.61691,0,-0.024616,0,0,0.72806,0.0044781,0,0.72807,-0.80918,-0.84882,-1.2861,-75.734,-0.98138,0.45842,-0.0048232,0.3,1,0
0.26191,0,0.77407,-0.8444,-0.85943,-1.2852,-0.011667,0,0,0.57307,0.55353,0,-0.030333,0,0,0.74224,0.0083342,0,0.74228,-0.83804,-0.86579,-1.2852,-28.609,-0.99635,0.43397,-0.0041398,0.32,1,0
0.27338,0,0.75904,-0.84649,-0.90837,-1.2855,-0.014235,0,0,0.57071,0.49027,0,-0.037011,0,0,0.76726,0.014667,0,0.7674,-0.84337,-0.91149,-1.2855,-12.353,-1.0134,0.41231,-0.0032713,0.34,1,0
0.28474,0,0.74338,-0.85552,-0.95369,-1.2861,-0.016432,0,0,0.55981,0.43219,0,-0.042723,0,0,0.80891,0.024583,0,0.80927,-0.85284,-0.95636,-1.2861,-9.2548,-1.0318,0.39193,-0.0023801,0.36,1,0
0.29577,0,0.72669,-0.87649,-0.98732,-1.2858,-0.018062,0,0,0.53214,0.38806,0,-0.046962,0,0,0.87149,0.038096,0,0.87231,-0.87362,-0.99019,-1.2858,-9.0269,-1.0499,0.36804,-0.0017212,0.38,1,0
0.30603,0,0.70852,-0.92249,-0.9903,-1.2824,-0.018878,0,0,0.46782,0.37968,0,-0.049083,0,0,0.95294,0.047723,0,0.95413,-0.91759,-0.9952,-1.2824,-14.556,-1.0651,0.33282,-0.001552,0.4,1,0
0.31449,0,0.68857,-0.98865,-0.90784,-1.2575,-0.022785,0,0,0.34952,0.45458,0,-0.059241,0,0,1.0415,0.048116,0,1.0426,-0.90186,-0.99463,-1.2575,-75.291,-1.0513,0.31954,-0.0012117,0.42,1,0
0.32001,0,0.66686,-1.0597,-0.73049,-1.2039,-0.018339,0,0,0.18749,0.61545,0,-0.047681,0,0,1.1207,0.035933,0,1.1213,-0.72947,-1.0607,-1.2039,-86.821,-0.99803,0.4215,0.0024028,0.44,1,0
0.32199,0,0.64374,-1.1305,-0.56183,-1.1515,-0.011855,0,0,0.027185,0.76651,0,-0.030823,0,0,1.179,0.021869,0,1.1791,-0.56158,-1.1308,-1.1515,-88.806,-0.94794,0.57981,0.0099682,0.46,1,0
0.3211,0,0.6197,-1.1841,-0.45856,-1.1125,-0.0042842,0,0,-0.093081,0.85013,0,-0.011139,0,0,1.2149,0.010938,0,1.2149,-0.45853,-1.1841,-1.1125,-89.662,-0.91839,0.69256,0.016447,0.48,1,0
0.31826,0,0.59514,-1.2147,-0.41015,-1.0826,-0.0039931,0,0,-0.17175,0.87419,0,-0.010382,0,0,1.2349,0.0062836,0,1.2349,-0.41013,-1.2147,-1.0826,-89.716,-0.90249,0.74736,0.0192,0.5,1,0
0.31423,0,0.5703,-1.2263,-0.38304,-1.0531,-0.0052082,0,0,-0.22514,0.87108,0,-0.013541,0,0,1.2461,0.0037951,0,1.2461,-0.383,-1.2263,-1.0531,-89.646,-0.88748,0.77143,0.01963,0.52,1,0
0.30926,0,0.5453,-1.2323,-0.36626,-1.0249,-0.0064142,0,0,-0.26967,0.85619,0,-0.016677,0,0,1.2527,0.0023357,0,1.2527,-0.36621,-1.2324,-1.0249,-89.576,-0.87448,0.78329,0.018967,0.54,1,0
0.30344,0,0.5202,-1.2372,-0.35382,-0.9975,-0.0071601,0,0,-0.31161,0.83679,0,-0.018616,0,0,1.2567,0.0013846,0,1.2567,-0.35376,-1.2373,-0.9975,-89.536,-0.86284,0.79135,0.017797,0.56,1,0
0.29679,0,0.49503,-1.2422,-0.34312,-0.97064,-0.0074941,0,0,-0.35308,0.81577,0,-0.019485,0,0,1.259,0.00071494,0,1.259,-0.34306,-1.2423,-0.97064,-89.522,-0.852,0.79884,0.01634,0.58,1,0
0.28932,0,0.46984,-1.2475,-0.3331,-0.94401,-0.0075531,0,0,-0.39449,0.79417,0,-0.019638,0,0,1.26,0.00021386,0,1.26,-0.33304,-1.2475,-0.94401,-89.527,-0.84152,0.80674,0.014669,0.6,1,0
0.28101,0,0.44463,-1.2526,-0.32338,-0.91743,-0.0074547,0,0,-0.43572,0.77226,0,-0.019382,0,0,1.2601,-0.00018068,0,1.2601,-0.32332,-1.2527,-0.91743,-89.54,-0.83114,0.81517,0.012807,0.62,1,0
0.27189,0,0.41944,-1.2574,-0.31384,-0.89082,-0.0072742,0,0,-0.4766,0.75006,0,-0.018913,0,0,1.2594,-0.00050686,0,1.2594,-0.31379,-1.2575,-0.89082,-89.558,-0.8207,0.82401,0.010765,0.64,1,0
0.26195,0,0.39426,-1.2618,-0.30448,-0.86413,-0.0070527,0,0,-0.51694,0.72755,0,-0.018337,0,0,1.2581,-0.00079081,0,1.2581,-0.30443,-1.2618,-0.86413,-89.578,-0.81013,0.83308,0.0085531,0.66,1,0
0.25121,0,0.36911,-1.2656,-0.2953,-0.83737,-0.0068096,0,0,-0.55665,0.70469,0,-0.017705,0,0,1.2563,-0.0010524,0,1.2563,-0.29525,-1.2656,-0.83737,-89.598,-0.79941,0.84228,0.0061859,0.68,1,0
0.23968,0,0.344,-1.2687,-0.28632,-0.81051,-0.0065524,0,0,-0.59565,0.68145,0,-0.017036,0,0,1.2539,-0.0013086,0,1.2539,-0.28628,-1.2687,-0.81051,-89.618,-0.78851,0.85148,0.0036791,0.7,1,0
0.22738,0,0.31895,-1.2712,-0.27757,-0.78357,-0.0062832,0,0,-0.63387,0.6578,0,-0.016336,0,0,1.251,-0.0015758,0,1.251,-0.27753,-1.2712,-0.78357,-89.638,-0.77743,0.86059,0.0010505,0.72,1,0
0.21433,0,0.29396,-1.2729,-0.26908,-0.75655,-0.006002,0,0,-0.67123,0.63371,0,-0.015605,0,0,1.2476,-0.001872,0,1.2476,-0.26905,-1.2729,-0.75655,-89.657,-0.76617,0.8695,-0.0016804,0.74,1,0
0.20053,0,0.26905,-1.2738,-0.26095,-0.72947,-0.0057067,0,0,-0.70762,0.60908,0,-0.014837,0,0,1.2434,-0.0022196,0,1.2434,-0.26092,-1.2738,-0.72947,-89.677,-0.75474,0.87802,-0.0044907,0.76,1,0
0.18602,0,0.24422,-1.2737,-0.25334,-0.70234,-0.0053879,0,0,-0.74279,0.58371,0,-0.014008,0,0,1.2385,-0.002651,0,1.2385,-0.25331,-1.2737,-0.70234,-89.698,-0.74313,0.88584,-0.007351,0.78,1,0
0.17082,0,0.21951,-1.2723,-0.24658,-0.67517,-0.0050117,0,0,-0.77626,0.55717,0,-0.01303,0,0,1.2325,-0.0032184,0,1.2325,-0.24656,-1.2723,-0.67517,-89.72,-0.73135,0.89233,-0.010216,0.8,1,0
0.15497,0,0.19492,-1.2687,-0.24134,-0.64795,-0.0044787,0,0,-0.80703,0.52859,0,-0.011645,0,0,1.225,-0.0040182,0,1.225,-0.24132,-1.2688,-0.64795,-89.75,-0.71934,0.89621,-0.013001,0.82,1,0
0.13854,0,0.17051,-1.2614,-0.23878,-0.62055,-0.0035402,0,0,-0.83305,0.4963,0,-0.0092046,0,0,1.2153,-0.0052481,0,1.2153,-0.23876,-1.2614,-0.62055,-89.802,-0.70689,0.89502,-0.01554,0.84,1,0
0.12165,0,0.14631,-1.2471,-0.24091,-0.59272,-0.0016201,0,0,-0.85072,0.45736,0,-0.0042122,0,0,1.2018,-0.0073705,0,1.2018,-0.24091,-1.2471,-0.59272,-89.908,-0.69358,0.88445,-0.017524,0.86,1,0
0.10451,0,0.12244,-1.2209,-0.25023,-0.56379,0.0022437,0,0,-0.85431,0.40763,0,0.0058336,0,0,1.1805,-0.011402,0,1.1805,-0.25023,-1.221,-0.56379,89.868,-0.67833,0.85805,-0.018448,0.88,1,0
0.087478,0,0.099092,-1.1883,-0.27398,-0.53776,0.009723,0,0,-0.84565,0.34292,0,0.02528,0,0,1.1453,-0.021092,0,1.1455,-0.27387,-1.1884,-0.53776,89.391,-0.66666,0.81523,-0.018315,0.9,1,0
0.070687,0,0.076623,-1.154,-0.29093,-0.5101,0.013345,0,0,-0.83706,0.28492,0,0.034696,0,0,1.0912,-0.033153,0,1.0917,-0.29072,-1.1542,-0.5101,89.114,-0.65167,0.77736,-0.017805,0.92,1,0
0.053996,0,0.055443,-1.1243,-0.26546,-0.47237,0.015754,0,0,-0.8475,0.26898,0,0.040961,0,0,1.0212,-0.042384,0,1.022,-0.26517,-1.1246,-0.47237,88.949,-0.62071,0.77682,-0.018426,0.94,1,0
0.036787,0,0.035777,-1.1009,-0.19298,-0.42393,0.012186,0,0,-0.88003,0.30024,0,0.031683,0,0,0.94896,-0.038047,0,0.94971,-0.19281,-1.101,-0.42393,89.231,-0.5726,0.81755,-0.020687,0.96,1,0
0.018795,0,0.017484,-1.0897,-0.12619,-0.38225,0.0086263,0,0,-0.91967,0.33287,0,0.022429,0,0,0.89442,-0.022565,0,0.89467,-0.12611,-1.0898,-0.38225,89.487,-0.53271,0.86452,-0.023629,0.98,1,0
0,0,0,-1.0676,-0.081458,-0.34472,6.9389e-18,0,0,-0.93975,0.34224,0,1.7347e-17,0,0,0.87422,-2.0817e-17,0,0.87417,-0.081458,-1.0676,-0.34472,90,-0.49792,0.8844,-0.025203,1,1,0
