"Displacements:0","Displacements:1","Displacements:2","Stress/Strain:0","Stress/Strain:1","Stress/Strain:2","Stress/Strain:3","Stress/Strain:4","Stress/Strain:5","Stress/Strain:6","Stress/Strain:7","Stress/Strain:8","Stress/Strain:9","Stress/Strain:10","Stress/Strain:11","Stress/Strain:12","Stress/Strain:13","Stress/Strain:14","Stress/Strain:15","Principal Stress:0","Principal Stress:1","Principal Stress:2","Principal Stress:3","Principal Stress:4","Principal Stress:5","Principal Stress:6","nodes:0","nodes:1","nodes:2"
0,0,1,-0.87932,-1.3677,-1.6741,5.8113e-17,0,0,1.0332,0.39831,0,1.5266e-16,0,0,0.8834,1.3054e-16,0,0.8834,-0.87932,-1.3677,-1.6741,6.8175e-15,-1.3071,0.6943,0.0066042,0,0,0
0.020665,0,0.98233,-0.86035,-1.3276,-1.6387,0.0002795,0,0,1.0119,0.40448,0,0.0007267,0,0,0.88887,-0.005659,0,0.88889,-0.86035,-1.3276,-1.6387,0.034275,-1.2755,0.67858,0.0054393,0.02,0,0
0.040475,0,0.96444,-0.87052,-1.2836,-1.6107,0.00093546,0,0,0.96222,0.42519,0,0.0024322,0,0,0.90471,-0.010756,0,0.90477,-0.87052,-1.2836,-1.6107,0.12975,-1.2549,0.64245,0.0027193,0.04,0,0
0.059153,0,0.94614,-0.88999,-1.2218,-1.5797,0.0021344,0,0,0.89659,0.46526,0,0.0055494,0,0,0.92918,-0.014681,0,0.9293,-0.88998,-1.2218,-1.5797,0.36857,-1.2305,0.59744,-0.00071635,0.06,0,0
0.076338,0,0.92728,-0.9198,-1.137,-1.5443,0.0037559,0,0,0.81189,0.52948,0,0.0097654,0,0,0.9595,-0.016881,0,0.95965,-0.91973,-1.1371,-1.5443,0.99022,-1.2004,0.54918,-0.0042358,0.08,0,0
0.091629,0,0.90776,-0.95874,-1.0288,-1.504,0.0051626,0,0,0.70888,0.61778,0,0.013423,0,0,0.99221,-0.017088,0,0.99236,-0.95836,-1.0292,-1.504,4.1911,-1.1639,0.51393,-0.0065273,0.1,0,0
0.10469,0,0.88759,-1.0029,-0.90511,-1.46,0.0056602,0,0,0.59421,0.72135,0,0.014717,0,0,1.0238,-0.015506,0,1.0239,-0.90478,-1.0032,-1.46,86.699,-1.1227,0.51312,-0.0060865,0.12,0,0
0.1154,0,0.86681,-1.0466,-0.78133,-1.4152,0.0049568,0,0,0.47913,0.82403,0,0.012888,0,0,1.0515,-0.012741,0,1.0516,-0.78124,-1.0467,-1.4152,88.93,-1.0811,0.55144,-0.0023844,0.14,0,0
0.12386,0,0.84553,-1.0841,-0.67307,-1.3727,0.0035945,0,0,0.37518,0.90948,0,0.0093457,0,0,1.0737,-0.0095253,0,1.0737,-0.67304,-1.0841,-1.3727,89.499,-1.0433,0.60898,0.0034523,0.16,0,0
0.1304,0,0.82386,-1.1109,-0.58982,-1.3341,0.0022808,0,0,0.29014,0.96754,0,0.0059301,0,0,1.0897,-0.006399,0,1.0897,-0.58981,-1.1109,-1.3341,89.749,-1.0116,0.66155,0.0093656,0.18,0,0
0.13546,0,0.80194,-1.1253,-0.53414,-1.2998,0.0014816,0,0,0.22683,0.99531,0,0.0038522,0,0,1.0999,-0.0035759,0,1.0999,-0.53414,-1.1253,-1.2998,89.856,-0.9864,0.69501,0.013648,0.2,0,0
0.13948,0,0.77987,-1.1274,-0.50457,-1.2694,0.0011006,0,0,0.18472,0.99434,0,0.0028614,0,0,1.1045,-0.00099024,0,1.1045,-0.50457,-1.1274,-1.2694,89.899,-0.96713,0.70466,0.015536,0.22,0,0
0.14285,0,0.75776,-1.1181,-0.49875,-1.2428,0.00076783,0,0,0.16214,0.96728,0,0.0019964,0,0,1.1039,0.001559,0,1.1039,-0.49875,-1.1181,-1.2428,89.929,-0.95321,0.6902,0.015045,0.24,0,0
0.14596,0,0.73571,-1.0985,-0.5146,-1.2196,0.00012961,0,0,0.15745,0.91657,0,0.00033698,0,0,1.098,0.0042685,0,1.098,-0.5146,-1.0985,-1.2196,89.987,-0.94426,0.65298,0.012657,0.26,0,0
0.14915,0,0.71384,-1.0702,-0.54968,-1.1998,-0.00090172,0,0,0.16851,0.84515,0,-0.0023445,0,0,1.0864,0.007196,0,1.0864,-0.54968,-1.0702,-1.1998,-89.901,-0.93988,0.59598,0.0091622,0.28,0,0
0.1527,0,0.69226,-1.0354,-0.59912,-1.1826,-0.0019806,0,0,0.19137,0.75854,0,-0.0051497,0,0,1.0693,0.010134,0,1.0693,-0.59911,-1.0354,-1.1826,-89.74,-0.93905,0.5256,0.0055324,0.3,0,0
0.15681,0,0.67107,-0.99783,-0.65429,-1.1667,-0.0026501,0,0,0.21953,0.66614,0,-0.0068903,0,0,1.0471,0.012581,0,1.0472,-0.65427,-0.99785,-1.1667,-89.558,-0.93961,0.4523,0.0026169,0.32,0,0
0.16148,0,0.65037,-0.96146,-0.70414,-1.1501,-0.0025979,0,0,0.24517,0.57969,0,-0.0067545,0,0,1.0215,0.013895,0,1.0216,-0.70411,-0.96149,-1.1501,-89.422,-0.93855,0.38772,0.00078858,0.34,0,0
0.16661,0,0.63021,-0.92973,-0.73981,-1.1311,-0.00207,0,0,0.26174,0.50864,0,-0.0053821,0,0,0.99511,0.013604,0,0.9952,-0.73979,-0.92975,-1.1311,-89.376,-0.93354,0.33891,-0.00010045,0.36,0,0
0.17195,0,0.61057,-0.90473,-0.7584,-1.1095,-0.0014319,0,0,0.26622,0.45644,0,-0.003723,0,0,0.9708,0.011662,0,0.97087,-0.75839,-0.90474,-1.1095,-89.439,-0.92421,0.30548,-0.00041484,0.38,0,0
0.17726,0,0.59138,-0.88689,-0.762,-1.086,-0.00092966,0,0,0.2589,0.42126,0,-0.0024171,0,0,0.95123,0.0084941,0,0.95127,-0.76199,-0.8869,-1.086,-89.573,-0.91165,0.28308,-0.00044781,0.4,0,0
0.18231,0,0.57252,-0.87561,-0.75416,-1.0615,-0.00046782,0,0,0.24159,0.39948,0,-0.0012163,0,0,0.93811,0.0047773,0,0.93812,-0.75415,-0.87562,-1.0615,-89.779,-0.89707,0.26806,-0.00034952,0.42,0,0
0.18692,0,0.55385,-0.87001,-0.73721,-1.036,9.7423e-05,0,0,0.21581,0.38845,0,0.0002533,0,0,0.93194,0.0011701,0,0.93193,-0.73721,-0.87001,-1.036,89.958,-0.88108,0.25931,-0.00017109,0.44,0,0
0.19094,0,0.53524,-0.86954,-0.71206,-1.0097,0.00083634,0,0,0.18223,0.38696,0,0.0021745,0,0,0.93218,-0.0018675,0,0.93218,-0.71206,-0.86955,-1.0097,89.696,-0.86378,0.25793,8.8612e-05,0.46,0,0
0.19421,0,0.51657,-0.87383,-0.67895,-0.9824,0.0016729,0,0,0.14114,0.39448,0,0.0043496,0,0,0.9376,-0.0041038,0,0.93761,-0.67894,-0.87385,-0.9824,89.508,-0.84506,0.26633,0.00045535,0.48,0,0
0.19659,0,0.49774,-0.88235,-0.63858,-0.95402,0.0024546,0,0,0.093164,0.41007,0,0.0063819,0,0,0.94666,-0.0054925,0,0.94667,-0.63856,-0.88238,-0.95402,89.423,-0.82498,0.28644,0.00095726,0.5,0,0
0.19794,0,0.4787,-0.89413,-0.59262,-0.92473,0.003027,0,0,0.03977,0.43174,0,0.0078701,0,0,0.9578,-0.0061138,0,0.95782,-0.59259,-0.89416,-0.92473,89.425,-0.80383,0.31796,0.0015996,0.52,0,0
0.19818,0,0.45942,-0.90778,-0.54368,-0.89486,0.0033015,0,0,-0.016796,0.45654,0,0.008584,0,0,0.96969,-0.0061236,0,0.96971,-0.54365,-0.90781,-0.89486,89.481,-0.78211,0.35787,0.0023435,0.54,0,0
0.19727,0,0.43991,-0.92173,-0.49479,-0.86487,0.0032833,0,0,-0.073921,0.4811,0,0.0085365,0,0,0.9813,-0.0057088,0,0.98132,-0.49476,-0.92175,-0.86487,89.559,-0.76046,0.40158,0.0031023,0.56,0,0
0.19522,0,0.42017,-0.93451,-0.44869,-0.83513,0.0030556,0,0,-0.1292,0.50238,0,0.0079446,0,0,0.99194,-0.0050474,0,0.99196,-0.44867,-0.93453,-0.83513,89.64,-0.73945,0.44458,0.0037637,0.58,0,0
0.1921,0,0.40023,-0.94506,-0.40732,-0.80595,0.002733,0,0,-0.18085,0.51822,0,0.0071059,0,0,1.0012,-0.004281,0,1.0012,-0.4073,-0.94507,-0.80595,89.709,-0.71944,0.48346,0.0042243,0.6,0,0
0.18799,0,0.38012,-0.95278,-0.37168,-0.77746,0.0024151,0,0,-0.22791,0.52752,0,0.0062794,0,0,1.009,-0.0035041,0,1.009,-0.37167,-0.95279,-0.77746,89.762,-0.70064,0.51629,0.0044183,0.62,0,0
0.18298,0,0.35987,-0.95754,-0.34196,-0.74972,0.0021602,0,0,-0.27016,0.53009,0,0.0056164,0,0,1.0153,-0.0027668,0,1.0153,-0.34195,-0.95754,-0.74972,89.799,-0.68307,0.54241,0.0043267,0.64,0,0
0.17718,0,0.33951,-0.95951,-0.3178,-0.72271,0.0019835,0,0,-0.30785,0.52637,0,0.0051571,0,0,1.0202,-0.002086,0,1.0202,-0.3178,-0.95952,-0.72271,89.823,-0.66667,0.56206,0.0039692,0.66,0,0
0.17067,0,0.31906,-0.95904,-0.29858,-0.69635,0.0018697,0,0,-0.3415,0.5171,0,0.0048612,0,0,1.0238,-0.001457,0,1.0238,-0.29857,-0.95905,-0.69635,89.838,-0.65132,0.57596,0.0033889,0.68,0,0
0.16352,0,0.29856,-0.95651,-0.28356,-0.67058,0.0017876,0,0,-0.37171,0.50312,0,0.0046477,0,0,1.0261,-0.0008636,0,1.0261,-0.28356,-0.95651,-0.67058,89.848,-0.63688,0.58498,0.0026386,0.7,0,0
0.1558,0,0.27802,-0.95223,-0.27204,-0.6453,0.0017027,0,0,-0.39901,0.48524,0,0.004427,0,0,1.0273,-0.00028428,0,1.0273,-0.27204,-0.95224,-0.6453,89.857,-0.62319,0.59,0.0017713,0.72,0,0
0.14756,0,0.25747,-0.94647,-0.26338,-0.62042,0.0015848,0,0,-0.42387,0.46416,0,0.0041206,0,0,1.0272,0.0003042,0,1.0272,-0.26337,-0.94648,-0.62042,89.867,-0.61009,0.59179,0.00083553,0.74,0,0
0.13885,0,0.23693,-0.93943,-0.25696,-0.59585,0.0014135,0,0,-0.44666,0.44055,0,0.003675,0,0,1.026,0.0009237,0,1.026,-0.25695,-0.93943,-0.59585,89.881,-0.59741,0.59105,-0.00012639,0.76,0,0
0.1297,0,0.21643,-0.93127,-0.2522,-0.57147,0.0011816,0,0,-0.46775,0.41506,0,0.0030722,0,0,1.0234,0.0015912,0,1.0234,-0.25219,-0.93128,-0.57147,89.9,-0.58498,0.58845,-0.0010796,0.78,0,0
0.12014,0,0.19599,-0.92222,-0.24844,-0.54719,0.00089956,0,0,-0.48754,0.38838,0,0.0023389,0,0,1.0195,0.0023136,0,1.0195,-0.24844,-0.92222,-0.54719,89.924,-0.57262,0.58476,-0.0019981,0.8,0,0
0.11019,0,0.17565,-0.91257,-0.24491,-0.52289,0.00059639,0,0,-0.50658,0.36138,0,0.0015506,0,0,1.0141,0.0030794,0,1.0141,-0.24491,-0.91257,-0.52289,89.949,-0.56012,0.58091,-0.002868,0.82,0,0
0.099874,0,0.15543,-0.90275,-0.24064,-0.49844,0.0003161,0,0,-0.5256,0.33515,0,0.00082185,0,0,1.0072,0.0038498,0,1.0072,-0.24064,-0.90275,-0.49844,89.973,-0.54728,0.57806,-0.0036907,0.84,0,0
0.08917,0,0.13536,-0.89328,-0.23453,-0.4737,0.00010566,0,0,-0.54545,0.31093,0,0.00027472,0,0,0.99887,0.0045513,0,0.99888,-0.23453,-0.89328,-0.4737,89.991,-0.53384,0.57758,-0.0044857,0.86,0,0
0.078056,0,0.11547,-0.88472,-0.22545,-0.44853,-4.5173e-06,0,0,-0.56705,0.29,0,-1.1745e-05,0,0,0.9894,0.005077,0,0.98941,-0.22545,-0.88472,-0.44853,-90,-0.51957,0.5808,-0.0052901,0.88,0,0
0.066488,0,0.095785,-0.87753,-0.21253,-0.4228,-1.6853e-05,0,0,-0.59115,0.27336,0,-4.3817e-05,0,0,0.97926,0.0053017,0,0.97927,-0.21253,-0.87753,-0.4228,-89.999,-0.50429,0.58874,-0.0061526,0.9,0,0
0.05441,0,0.076303,-0.87196,-0.19541,-0.39651,3.0258e-05,0,0,-0.61808,0.26143,0,7.8672e-05,0,0,0.96915,0.0051108,0,0.96916,-0.19541,-0.87196,-0.39651,89.997,-0.48796,0.60175,-0.0071229,0.92,0,0
0.041765,0,0.057019,-0.86796,-0.17443,-0.36973,8.1654e-05,0,0,-0.64769,0.2539,0,0.0002123,0,0,0.95992,0.0044356,0,0.95993,-0.17443,-0.86796,-0.36973,89.993,-0.47071,0.61942,-0.00824,0.94,0,0
0.028503,0,0.037906,-0.86526,-0.15048,-0.34263,9.3802e-05,0,0,-0.67942,0.24979,0,0.00024389,0,0,0.95249,0.0032833,0,0.95249,-0.15048,-0.86526,-0.34263,89.993,-0.45279,0.64069,-0.0095242,0.96,0,0
0.014588,0,0.018919,-0.86348,-0.12464,-0.31536,5.7708e-05,0,0,-0.71256,0.24793,0,0.00015004,0,0,0.94765,0.0017482,0,0.94766,-0.12464,-0.86348,-0.31536,89.996,-0.43449,0.66434,-0.01098,0.98,0,0
0,0,0,-0.83916,-0.087779,-0.27808,-1.03e-17,0,0,-0.7294,0.24739,0,-2.6834e-17,0,0,0.94598,1.7781e-17,0,0.94598,-0.087779,-0.83916,-0.27808,-90,-0.40167,0.67661,-0.011768,1,0,0
0,0.0079663,1,-0.87949,-1.37,-1.6748,0.0023718,0,0,1.034,0.39631,0,0.0061668,0,0,0.87774,-6.4532e-16,0,0.87773,-0.87948,-1.37,-1.6748,0.27705,-1.3081,0.69503,0.0067454,0,0.02,0
0.020679,0.0080896,0.98245,-0.86044,-1.3305,-1.6397,0.0057314,0,0,1.0131,0.40198,0,0.014902,0,0,0.8835,-0.01158,0,0.88358,-0.86037,-1.3306,-1.6397,0.69843,-1.2769,0.67974,0.0056263,0.02,0.02,0
0.040523,0.0085038,0.96466,-0.8701,-1.2881,-1.6121,0.013494,0,0,0.96463,0.42122,0,0.035084,0,0,0.9002,-0.022093,0,0.90053,-0.86967,-1.2885,-1.6121,1.847,-1.2568,0.64475,0.0030295,0.04,0.02,0
0.059264,0.0093053,0.94644,-0.88911,-1.2281,-1.5816,0.024203,0,0,0.90026,0.45951,0,0.062928,0,0,0.92612,-0.030276,0,0.92674,-0.88739,-1.2299,-1.5816,4.0628,-1.233,0.60123,-0.00025836,0.06,0.02,0
0.076534,0.01059,0.92761,-0.91898,-1.1441,-1.5465,0.036697,0,0,0.81583,0.52317,0,0.095412,0,0,0.9583,-0.034852,0,0.9591,-0.91315,-1.1499,-1.5465,9.0284,-1.2032,0.55432,-0.0036785,0.08,0.02,0
0.091897,0.012356,0.90811,-0.95848,-1.0334,-1.5057,0.047178,0,0,0.71135,0.61394,0,0.12266,0,0,0.9929,-0.035159,0,0.99369,-0.9357,-1.0562,-1.5057,25.772,-1.1659,0.5203,-0.0059468,0.1,0.02,0
0.10499,0.014427,0.8879,-1.0034,-0.90448,-1.4603,0.050799,0,0,0.59394,0.72251,0,0.13208,0,0,1.026,-0.031622,0,1.0266,-0.88304,-1.0248,-1.4603,67.115,-1.1227,0.521,-0.0054906,0.12,0.02,0
0.11565,0.016481,0.86707,-1.0476,-0.77591,-1.4141,0.045697,0,0,0.47645,0.82968,0,0.11881,0,0,1.0545,-0.025663,0,1.0549,-0.76843,-1.0551,-1.4141,80.705,-1.0792,0.56036,-0.0017403,0.14,0.02,0
0.12405,0.01819,0.84572,-1.085,-0.66568,-1.3709,0.034164,0,0,0.37171,0.91682,0,0.088825,0,0,1.0768,-0.018935,0,1.077,-0.66291,-1.0878,-1.3709,85.373,-1.0405,0.61723,0.0040854,0.16,0.02,0
0.13052,0.019351,0.82399,-1.1112,-0.58296,-1.3322,0.020554,0,0,0.2874,0.97404,0,0.053439,0,0,1.0927,-0.012598,0,1.0928,-0.58217,-1.1119,-1.3322,87.775,-1.0088,0.66775,0.009871,0.18,0.02,0
0.13554,0.019906,0.80201,-1.1247,-0.5286,-1.298,0.0078773,0,0,0.22529,1.0002,0,0.020481,0,0,1.1026,-0.0070124,0,1.1026,-0.52849,-1.1248,-1.298,89.243,-0.98377,0.69919,0.01399,0.2,0.02,0
0.13953,0.019887,0.77989,-1.1264,-0.49994,-1.2678,-0.0030546,0,0,0.18379,0.99821,0,-0.0079419,0,0,1.1071,-0.0019634,0,1.1071,-0.49993,-1.1264,-1.2678,-89.721,-0.96472,0.70786,0.015795,0.22,0.02,0
0.14289,0.019346,0.75773,-1.1175,-0.49417,-1.2412,-0.012955,0,0,0.16088,0.97116,0,-0.033684,0,0,1.1065,0.0030162,0,1.1065,-0.4939,-1.1177,-1.2412,-88.81,-0.95095,0.69387,0.015342,0.24,0.02,0
0.14597,0.018332,0.73563,-1.0987,-0.50972,-1.2182,-0.022592,0,0,0.15528,0.92097,0,-0.05874,0,0,1.1008,0.0083815,0,1.1008,-0.50885,-1.0996,-1.2182,-87.807,-0.94219,0.65807,0.013049,0.26,0.02,0
0.1491,0.016903,0.7137,-1.071,-0.54504,-1.1985,-0.03156,0,0,0.16576,0.8495,0,-0.082057,0,0,1.0894,0.014322,0,1.0895,-0.54316,-1.0729,-1.1985,-86.578,-0.93818,0.60244,0.0096045,0.28,0.02,0
0.1526,0.015171,0.69205,-1.0365,-0.5964,-1.1819,-0.038017,0,0,0.18909,0.76116,0,-0.098844,0,0,1.0719,0.020477,0,1.0722,-0.59313,-1.0397,-1.1819,-85.099,-0.93825,0.53212,0.0059156,0.3,0.02,0
0.15667,0.013323,0.67082,-0.99864,-0.65494,-1.1669,-0.03954,0,0,0.21873,0.66553,0,-0.1028,0,0,1.049,0.025757,0,1.0494,-0.65045,-1.0031,-1.1669,-83.521,-0.94016,0.45711,0.0028679,0.32,0.02,0
0.16135,0.011594,0.65009,-0.96183,-0.70785,-1.151,-0.035507,0,0,0.24592,0.57609,0,-0.092317,0,0,1.022,0.028687,0,1.0225,-0.70298,-0.9667,-1.151,-82.189,-0.94023,0.39002,0.00091785,0.34,0.02,0
0.1665,0.010173,0.62994,-0.92966,-0.74445,-1.1322,-0.027861,0,0,0.26326,0.50404,0,-0.072438,0,0,0.99399,0.028126,0,0.99449,-0.74035,-0.93376,-1.1322,-81.628,-0.93543,0.33934,-4.429e-05,0.36,0.02,0
0.17188,0.0091287,0.61033,-0.90439,-0.76221,-1.1103,-0.019783,0,0,0.2677,0.45254,0,-0.051435,0,0,0.96824,0.023984,0,0.96862,-0.7595,-0.90709,-1.1103,-82.225,-0.92564,0.30508,-0.00039448,0.38,0.02,0
0.17721,0.0084251,0.59121,-0.88649,-0.76483,-1.0866,-0.012993,0,0,0.26015,0.4183,0,-0.033782,0,0,0.94779,0.017248,0,0.94798,-0.76346,-0.88786,-1.0866,-83.971,-0.91264,0.28231,-0.00044591,0.4,0.02,0
0.18229,0.0079896,0.57242,-0.87505,-0.75658,-1.0619,-0.0074704,0,0,0.24292,0.39693,0,-0.019423,0,0,0.93445,0.0094578,0,0.9345,-0.75611,-0.87552,-1.0619,-86.406,-0.89785,0.26694,-0.00036002,0.42,0.02,0
0.18693,0.007769,0.55383,-0.86921,-0.73976,-1.0365,-0.0023951,0,0,0.21751,0.38579,0,-0.0062274,0,0,0.92861,0.0020129,0,0.92861,-0.73972,-0.86925,-1.0365,-88.94,-0.88183,0.25773,-0.00019171,0.44,0.02,0
0.19099,0.0077392,0.53528,-0.8685,-0.71477,-1.0103,0.0027273,0,0,0.18428,0.38414,0,0.0070909,0,0,0.92954,-0.0041656,0,0.92955,-0.71472,-0.86855,-1.0103,88.984,-0.86451,0.25602,6.1198e-05,0.46,0.02,0
0.1943,0.0078896,0.51665,-0.87274,-0.68153,-0.98293,0.0077607,0,0,0.14324,0.39182,0,0.020178,0,0,0.93578,-0.0086517,0,0.93583,-0.68122,-0.87306,-0.98293,87.68,-0.84574,0.26449,0.0004276,0.48,0.02,0
0.19672,0.0082013,0.49785,-0.88143,-0.64059,-0.95445,0.012098,0,0,0.094925,0.40803,0,0.031456,0,0,0.94565,-0.011382,0,0.94574,-0.63998,-0.88204,-0.95445,87.132,-0.82549,0.28525,0.00093802,0.5,0.02,0
0.1981,0.0086348,0.47882,-0.89355,-0.59368,-0.92499,0.015035,0,0,0.040871,0.4307,0,0.039091,0,0,0.95749,-0.012538,0,0.95759,-0.59293,-0.89431,-0.92499,87.137,-0.80408,0.31783,0.0015973,0.52,0.02,0
0.19835,0.0091308,0.45955,-0.90759,-0.54368,-0.89493,0.016124,0,0,-0.016463,0.45663,0,0.041922,0,0,0.9699,-0.012457,0,0.97,-0.54297,-0.90831,-0.89493,87.468,-0.78207,0.35884,0.002362,0.54,0.02,0
0.19744,0.009622,0.44003,-0.92186,-0.49389,-0.86475,0.015374,0,0,-0.074241,0.48212,0,0.039973,0,0,0.98184,-0.011534,0,0.98193,-0.49334,-0.92241,-0.86475,87.945,-0.76017,0.40335,0.0031392,0.56,0.02,0
0.19538,0.010048,0.42027,-0.93482,-0.44723,-0.83489,0.013208,0,0,-0.12991,0.50396,0,0.03434,0,0,0.99266,-0.010138,0,0.99272,-0.44687,-0.93518,-0.83489,88.45,-0.73898,0.44669,0.0038112,0.58,0.02,0
0.19224,0.010364,0.40032,-0.94538,-0.40565,-0.80563,0.010242,0,0,-0.18168,0.51997,0,0.02663,0,0,1.002,-0.0085596,0,1.0021,-0.40546,-0.94558,-0.80563,88.913,-0.71889,0.48552,0.0042732,0.6,0.02,0
0.18811,0.01055,0.38019,-0.95301,-0.37008,-0.77712,0.0070609,0,0,-0.22866,0.52916,0,0.018358,0,0,1.0098,-0.0069829,0,1.0098,-0.36999,-0.9531,-0.77712,89.306,-0.70007,0.51804,0.0044619,0.62,0.02,0
0.1831,0.010602,0.35993,-0.95763,-0.34056,-0.74938,0.0040689,0,0,-0.27072,0.53147,0,0.010579,0,0,1.016,-0.0055021,0,1.0161,-0.34053,-0.95766,-0.74938,89.622,-0.68253,0.54377,0.004362,0.64,0.02,0
0.17729,0.010527,0.33955,-0.95949,-0.31664,-0.72239,0.0014672,0,0,-0.30822,0.52747,0,0.0038147,0,0,1.0209,-0.0041442,0,1.0209,-0.31664,-0.95949,-0.72239,89.869,-0.66617,0.56307,0.0039963,0.66,0.02,0
0.17077,0.010342,0.31909,-0.95896,-0.29763,-0.69607,-0.00070414,0,0,-0.34175,0.51797,0,-0.0018307,0,0,1.0244,-0.0028953,0,1.0244,-0.29763,-0.95896,-0.69607,-89.939,-0.65089,0.57672,0.0034094,0.68,0.02,0
0.16362,0.010063,0.29858,-0.95644,-0.28278,-0.67034,-0.0025004,0,0,-0.37192,0.50383,0,-0.0065011,0,0,1.0267,-0.00172,0,1.0267,-0.28277,-0.95644,-0.67034,-89.787,-0.63652,0.58562,0.0026541,0.7,0.02,0
0.15589,0.0097047,0.27803,-0.95224,-0.27137,-0.64511,-0.0040145,0,0,-0.39927,0.48586,0,-0.010438,0,0,1.0279,-0.00057334,0,1.0279,-0.27134,-0.95227,-0.64511,-89.662,-0.62291,0.59063,0.0017825,0.72,0.02,0
0.14764,0.0092832,0.25746,-0.94662,-0.26277,-0.62028,-0.0053356,0,0,-0.42424,0.46476,0,-0.013873,0,0,1.0278,0.00059221,0,1.0278,-0.26272,-0.94666,-0.62028,-89.553,-0.60989,0.59251,0.00084226,0.74,0.02,0
0.13892,0.0088111,0.23691,-0.93974,-0.25639,-0.59575,-0.006521,0,0,-0.44718,0.44116,0,-0.016955,0,0,1.0266,0.0018219,0,1.0266,-0.25633,-0.9398,-0.59575,-89.453,-0.59729,0.59191,-0.00012498,0.76,0.02,0
0.12976,0.0083011,0.2164,-0.93175,-0.25169,-0.57143,-0.0075759,0,0,-0.46842,0.41566,0,-0.019697,0,0,1.0241,0.0031522,0,1.0241,-0.2516,-0.93183,-0.57143,-89.362,-0.58495,0.58944,-0.0010845,0.78,0.02,0
0.12018,0.0077675,0.19595,-0.92282,-0.24803,-0.5472,-0.0084391,0,0,-0.4883,0.38892,0,-0.021942,0,0,1.0203,0.0046008,0,1.0203,-0.24793,-0.92292,-0.5472,-89.284,-0.57268,0.58581,-0.0020097,0.8,0.02,0
0.11023,0.0072276,0.17559,-0.91322,-0.24468,-0.52296,-0.008984,0,0,-0.50734,0.36176,0,-0.023358,0,0,1.0149,0.0061503,0,1.0149,-0.24456,-0.91334,-0.52296,-89.23,-0.56029,0.58188,-0.0028851,0.82,0.02,0
0.09989,0.006703,0.15535,-0.90337,-0.24071,-0.49857,-0.0090448,0,0,-0.52623,0.33523,0,-0.023517,0,0,1.0079,0.0077276,0,1.008,-0.24058,-0.90349,-0.49857,-89.218,-0.54755,0.57878,-0.0037103,0.84,0.02,0
0.089176,0.0062185,0.13527,-0.89379,-0.23496,-0.47389,-0.0084825,0,0,-0.54587,0.31062,0,-0.022055,0,0,0.99948,0.0091864,0,0.99953,-0.23485,-0.8939,-0.47389,-89.263,-0.53421,0.57788,-0.0045035,0.86,0.02,0
0.078056,0.0057999,0.11537,-0.88508,-0.22623,-0.44876,-0.0072733,0,0,-0.56722,0.2893,0,-0.01891,0,0,0.98977,0.010306,0,0.98984,-0.22615,-0.88516,-0.44876,-89.368,-0.52002,0.58065,-0.0053019,0.88,0.02,0
0.066487,0.0054671,0.095679,-0.87775,-0.21351,-0.42306,-0.0055791,0,0,-0.5911,0.27241,0,-0.014506,0,0,0.97928,0.010819,0,0.97935,-0.21346,-0.8778,-0.42306,-89.519,-0.50477,0.58824,-0.0061569,0.9,0.02,0
0.054412,0.0052286,0.076201,-0.87208,-0.19638,-0.39674,-0.0037323,0,0,-0.61795,0.26047,0,-0.0097041,0,0,0.96871,0.010477,0,0.96878,-0.19636,-0.87211,-0.39674,-89.683,-0.4884,0.60115,-0.0071218,0.92,0.02,0
0.041769,0.005078,0.05693,-0.86806,-0.17517,-0.3699,-0.0021157,0,0,-0.64761,0.25315,0,-0.0055008,0,0,0.959,0.0091258,0,0.95906,-0.17516,-0.86806,-0.3699,-89.825,-0.47104,0.61895,-0.0082381,0.94,0.02,0
0.028507,0.0049959,0.03784,-0.86538,-0.1509,-0.34272,-0.00098724,0,0,-0.67945,0.24937,0,-0.0025668,0,0,0.95114,0.0067718,0,0.95117,-0.1509,-0.86538,-0.34272,-89.921,-0.453,0.64049,-0.0095256,0.96,0.02,0
0.014591,0.0049586,0.018885,-0.86364,-0.12481,-0.31542,-0.00036041,0,0,-0.71269,0.24779,0,-0.00093708,0,0,0.94601,0.0036109,0,0.94602,-0.12481,-0.86364,-0.31542,-89.972,-0.43462,0.66436,-0.010986,0.98,0.02,0
0,0.0049479,0,-0.83939,-0.087915,-0.27819,-0.0002068,0,0,-0.72955,0.24736,0,-0.00053767,0,0,0.94423,9.9747e-18,0,0.94423,-0.087914,-0.83939,-0.27819,-89.984,-0.40183,0.6767,-0.011775,1,0.02,0
0,0.015853,1,-0.87997,-1.3767,-1.677,0.0043573,0,0,1.0362,0.39035,0,0.011329,0,0,0.86024,-3.296e-16,0,0.86018,-0.87993,-1.3768,-1.677,0.5025,-1.3112,0.69726,0.0071688,0,0.04,0
0.020723,0.016079,0.98279,-0.86082,-1.3392,-1.6428,0.010884,0,0,1.0166,0.39472,0,0.028299,0,0,0.86678,-0.024089,0,0.86708,-0.86057,-1.3394,-1.6428,1.3029,-1.2809,0.68307,0.0061679,0.02,0.04,0
0.040662,0.016849,0.96533,-0.86897,-1.301,-1.6163,0.025753,0,0,0.97153,0.40996,0,0.066958,0,0,0.88601,-0.046455,0,0.88728,-0.86744,-1.3025,-1.6163,3.3997,-1.2621,0.65136,0.0039164,0.04,0.04,0
0.059584,0.01838,0.94735,-0.88682,-1.2474,-1.5876,0.047069,0,0,0.91105,0.44226,0,0.12238,0,0,0.91642,-0.064347,0,0.91884,-0.88078,-1.2535,-1.5876,7.3154,-1.2406,0.61245,0.001112,0.06,0.04,0
0.077104,0.020927,0.92867,-0.917,-1.1667,-1.5538,0.07371,0,0,0.82783,0.50317,0,0.19165,0,0,0.95462,-0.074463,0,0.95776,-0.89686,-1.1869,-1.5538,15.276,-1.2125,0.57022,-0.001915,0.08,0.04,0
0.092698,0.024557,0.90917,-0.95853,-1.0488,-1.5114,0.096866,0,0,0.71867,0.60137,0,0.25185,0,0,0.99544,-0.074571,0,0.99845,-0.89679,-1.1105,-1.5114,32.513,-1.1729,0.54039,-0.0040419,0.1,0.04,0
0.10585,0.0289,0.88885,-1.0053,-0.90144,-1.4609,0.10458,0,0,0.59223,0.72728,0,0.2719,0,0,1.0333,-0.065768,0,1.0355,-0.83661,-1.0701,-1.4609,58.206,-1.1225,0.54632,-0.003515,0.12,0.04,0
0.11639,0.033187,0.86784,-1.0509,-0.75728,-1.4103,0.091661,0,0,0.46725,0.8489,0,0.23832,0,0,1.0642,-0.051816,0,1.0655,-0.73101,-1.0771,-1.4103,74.009,-1.0728,0.5883,0.00034533,0.14,0.04,0
0.12454,0.036673,0.84629,-1.0877,-0.64256,-1.3654,0.065961,0,0,0.36095,0.93965,0,0.1715,0,0,1.0867,-0.037163,0,1.0874,-0.63299,-1.0973,-1.3654,81.746,-1.0319,0.6418,0.006032,0.16,0.04,0
0.13082,0.038962,0.82437,-1.1111,-0.56289,-1.3265,0.037914,0,0,0.28015,0.99276,0,0.098576,0,0,1.1016,-0.02424,0,1.1019,-0.56028,-1.1137,-1.3265,86.062,-1.0002,0.6851,0.011298,0.18,0.04,0
0.13575,0.040009,0.80222,-1.1216,-0.51329,-1.2927,0.013886,0,0,0.22238,1.0132,0,0.036105,0,0,1.1105,-0.013436,0,1.1106,-0.51297,-1.122,-1.2927,88.693,-0.97587,0.70992,0.014854,0.2,0.04,0
0.13972,0.039928,0.77995,-1.1221,-0.48718,-1.2627,-0.0058906,0,0,0.18284,1.0082,0,-0.015315,0,0,1.1146,-0.0038621,0,1.1146,-0.48712,-1.1221,-1.2627,-89.469,-0.95733,0.71574,0.016409,0.22,0.04,0
0.14306,0.038846,0.75764,-1.1146,-0.48146,-1.2365,-0.023815,0,0,0.15839,0.98151,0,-0.06192,0,0,1.1143,0.0055875,0,1.1143,-0.48056,-1.1155,-1.2365,-87.849,-0.94418,0.70327,0.016098,0.24,0.04,0
0.14606,0.036839,0.73538,-1.0988,-0.4952,-1.2136,-0.042205,0,0,0.14921,0.93389,0,-0.10973,0,0,1.1093,0.015986,0,1.1094,-0.49226,-1.1017,-1.2136,-86.019,-0.93586,0.67241,0.014169,0.26,0.04,0
0.14903,0.03398,0.71327,-1.0738,-0.5302,-1.1945,-0.061071,0,0,0.15685,0.86356,0,-0.15878,0,0,1.0985,0.02814,0,1.0989,-0.52343,-1.0806,-1.1945,-83.668,-0.93283,0.62198,0.010975,0.28,0.04,0
0.15233,0.030447,0.69144,-1.0401,-0.5864,-1.1794,-0.076054,0,0,0.18103,0.7709,0,-0.19774,0,0,1.0807,0.041595,0,1.0815,-0.57399,-1.0526,-1.1794,-80.734,-0.93532,0.55301,0.0071692,0.3,0.04,0
0.15627,0.026621,0.67004,-1.0018,-0.65626,-1.1675,-0.080994,0,0,0.21531,0.66458,0,-0.21059,0,0,1.0553,0.054005,0,1.0568,-0.63821,-1.0199,-1.1675,-77.443,-0.94186,0.47306,0.0037063,0.32,0.04,0
0.16094,0.023044,0.64923,-0.96381,-0.72003,-1.1544,-0.072536,0,0,0.24773,0.56465,0,-0.18859,0,0,1.0239,0.06129,0,1.0259,-0.70008,-0.98377,-1.1544,-74.622,-0.94607,0.39748,0.0013391,0.34,0.04,0
0.16618,0.020161,0.62908,-0.92992,-0.75892,-1.1357,-0.056147,0,0,0.26756,0.48986,0,-0.14598,0,0,0.9904,0.060317,0,0.99239,-0.74213,-0.94671,-1.1357,-73.353,-0.94153,0.34096,0.0001391,0.36,0.04,0
0.17164,0.018102,0.60961,-0.90375,-0.77343,-1.1128,-0.039471,0,0,0.27172,0.44113,0,-0.10262,0,0,0.95992,0.050731,0,0.96135,-0.76241,-0.91477,-1.1128,-74.397,-0.92998,0.30427,-0.00032306,0.38,0.04,0
0.17705,0.016732,0.59069,-0.88535,-0.77282,-1.0881,-0.026402,0,0,0.26362,0.40991,0,-0.068646,0,0,0.93671,0.035453,0,0.9374,-0.76694,-0.89124,-1.0881,-77.431,-0.91544,0.28053,-0.00043032,0.4,0.04,0
0.18219,0.015877,0.57214,-0.87336,-0.76386,-1.0633,-0.015783,0,0,0.24693,0.38928,0,-0.041036,0,0,0.92288,0.018356,0,0.92304,-0.76163,-0.87559,-1.0633,-81.96,-0.90017,0.26385,-0.00038523,0.42,0.04,0
0.18693,0.015432,0.55377,-0.86656,-0.74761,-1.038,-0.0056,0,0,0.2229,0.37754,0,-0.01456,0,0,0.91831,0.0025924,0,0.9183,-0.74734,-0.86682,-1.038,-87.311,-0.88406,0.25306,-0.00025162,0.44,0.04,0
0.19111,0.015366,0.53541,-0.86512,-0.72321,-1.0119,0.0050823,0,0,0.19082,0.37531,0,0.013214,0,0,0.92151,-0.010137,0,0.92156,-0.72303,-0.8653,-1.0119,87.951,-0.86674,0.25019,-2.0887e-05,0.46,0.04,0
0.19456,0.015673,0.51691,-0.86927,-0.68959,-0.98457,0.015749,0,0,0.14989,0.38347,0,0.040948,0,0,0.93038,-0.019141,0,0.93059,-0.68822,-0.87064,-0.98457,85.028,-0.84781,0.25892,0.00034544,0.48,0.04,0
0.1971,0.016321,0.49819,-0.87859,-0.64683,-0.95582,0.024956,0,0,0.10039,0.40169,0,0.064885,0,0,0.94277,-0.024389,0,0.94311,-0.64418,-0.88125,-0.95582,83.923,-0.82708,0.28186,0.00088439,0.5,0.04,0
0.19857,0.017228,0.4792,-0.89183,-0.59689,-0.92582,0.031078,0,0,0.044182,0.42761,0,0.080804,0,0,0.95673,-0.026333,0,0.95712,-0.59365,-0.89507,-0.92582,84.05,-0.80485,0.31791,0.0015983,0.52,0.04,0
0.19887,0.018265,0.45992,-0.9071,-0.5435,-0.8951,0.033145,0,0,-0.015597,0.45709,0,0.086176,0,0,0.9707,-0.025745,0,0.97106,-0.5405,-0.9101,-0.8951,84.834,-0.7819,0.36233,0.002429,0.54,0.04,0
0.19795,0.019285,0.44037,-0.92234,-0.49092,-0.86435,0.03127,0,0,-0.07538,0.48546,0,0.081302,0,0,0.98362,-0.023507,0,0.98392,-0.48867,-0.92459,-0.86435,85.876,-0.7592,0.40914,0.003262,0.56,0.04,0
0.19585,0.020158,0.42058,-0.93578,-0.44263,-0.8341,0.026503,0,0,-0.13219,0.50892,0,0.068909,0,0,0.99492,-0.020423,0,0.99514,-0.44121,-0.9372,-0.8341,86.933,-0.7375,0.45333,0.0039631,0.58,0.04,0
0.19266,0.020799,0.40058,-0.94634,-0.40056,-0.80465,0.020256,0,0,-0.18421,0.52531,0,0.052665,0,0,1.0044,-0.017085,0,1.0045,-0.39981,-0.94709,-0.80465,87.877,-0.71718,0.49179,0.004425,0.6,0.04,0
0.18849,0.021166,0.3804,-0.95363,-0.36528,-0.77607,0.013763,0,0,-0.23082,0.53404,0,0.035783,0,0,1.0121,-0.013848,0,1.0122,-0.36495,-0.95395,-0.77607,88.661,-0.69833,0.52325,0.0045939,0.62,0.04,0
0.18343,0.021259,0.36009,-0.9578,-0.33643,-0.74836,0.0078103,0,0,-0.27227,0.53551,0,0.020307,0,0,1.0182,-0.010869,0,1.0182,-0.33633,-0.9579,-0.74836,89.28,-0.68086,0.54773,0.0044671,0.64,0.04,0
0.1776,0.021099,0.33968,-0.95929,-0.31325,-0.72144,0.0027356,0,0,-0.30921,0.53064,0,0.0071126,0,0,1.0228,-0.0081732,0,1.0229,-0.31324,-0.9593,-0.72144,89.757,-0.66466,0.56595,0.0040763,0.66,0.04,0
0.17106,0.020719,0.31918,-0.95859,-0.29488,-0.69522,-0.0014429,0,0,-0.34238,0.52044,0,-0.0037516,0,0,1.0262,-0.0057143,0,1.0262,-0.29488,-0.95859,-0.69522,-89.875,-0.64956,0.57886,0.0034698,0.68,0.04,0
0.1639,0.020153,0.29863,-0.95612,-0.2805,-0.66961,-0.0048762,0,0,-0.37245,0.50584,0,-0.012678,0,0,1.0285,-0.0034106,0,1.0285,-0.28047,-0.95615,-0.66961,-89.587,-0.63541,0.58741,0.0026998,0.7,0.04,0
0.15616,0.019435,0.27804,-0.95219,-0.2694,-0.64452,-0.0077718,0,0,-0.39997,0.48765,0,-0.020207,0,0,1.0296,-0.0011663,0,1.0296,-0.26931,-0.95228,-0.64452,-89.348,-0.62204,0.59243,0.0018158,0.72,0.04,0
0.1479,0.018591,0.25744,-0.947,-0.26098,-0.61984,-0.010321,0,0,-0.42531,0.46652,0,-0.026835,0,0,1.0296,0.0011179,0,1.0296,-0.26082,-0.94715,-0.61984,-89.138,-0.60927,0.59459,0.00086255,0.74,0.04,0
0.13915,0.017647,0.23686,-0.94064,-0.25471,-0.59546,-0.01265,0,0,-0.44874,0.44298,0,-0.032891,0,0,1.0286,0.0035375,0,1.0286,-0.25448,-0.94088,-0.59546,-88.944,-0.59694,0.59445,-0.00012056,0.76,0.04,0
0.12995,0.016626,0.2163,-0.93318,-0.25013,-0.57129,-0.014785,0,0,-0.47045,0.41752,0,-0.038441,0,0,1.0262,0.0061751,0,1.0262,-0.24981,-0.9335,-0.57129,-88.761,-0.58487,0.59244,-0.0010993,0.78,0.04,0
0.12033,0.015557,0.19581,-0.92467,-0.24673,-0.54723,-0.016616,0,0,-0.49068,0.39065,0,-0.043202,0,0,1.0225,0.0090821,0,1.0225,-0.24633,-0.92508,-0.54723,-88.597,-0.57288,0.58908,-0.0020454,0.8,0.04,0
0.11032,0.01447,0.1754,-0.91529,-0.2439,-0.52316,-0.017889,0,0,-0.50977,0.36303,0,-0.04651,0,0,1.0172,0.012247,0,1.0173,-0.24343,-0.91577,-0.52316,-88.475,-0.56078,0.58499,-0.0029389,0.82,0.04,0
0.099943,0.013409,0.15512,-0.90537,-0.24077,-0.49896,-0.018235,0,0,-0.52833,0.33565,0,-0.047411,0,0,1.0102,0.015545,0,1.0104,-0.24027,-0.90587,-0.49896,-88.43,-0.54837,0.58117,-0.0037732,0.84,0.04,0
0.089191,0.012425,0.13499,-0.89546,-0.23614,-0.47448,-0.017302,0,0,-0.54729,0.30983,0,-0.044984,0,0,1.0014,0.018693,0,1.0016,-0.23569,-0.89592,-0.47448,-88.498,-0.53536,0.57902,-0.0045613,0.86,0.04,0
0.078051,0.011572,0.11506,-0.88628,-0.22854,-0.4495,-0.014958,0,0,-0.5678,0.28726,0,-0.038891,0,0,0.99103,0.02122,0,0.99127,-0.2282,-0.88662,-0.4495,-88.698,-0.52144,0.58032,-0.005341,0.88,0.04,0
0.066479,0.010896,0.095352,-0.87847,-0.21654,-0.42385,-0.011491,0,0,-0.591,0.26951,0,-0.029876,0,0,0.97943,0.022527,0,0.97971,-0.21634,-0.87867,-0.42385,-89.006,-0.50629,0.58677,-0.0061712,0.9,0.04,0
0.054411,0.010419,0.075884,-0.87247,-0.19938,-0.39744,-0.0076183,0,0,-0.61753,0.25747,0,-0.019808,0,0,0.96745,0.022024,0,0.96772,-0.1993,-0.87255,-0.39744,-89.352,-0.48976,0.59928,-0.0071175,0.92,0.04,0
0.041778,0.010126,0.056654,-0.8683,-0.17745,-0.37038,-0.0042122,0,0,-0.6473,0.25081,0,-0.010952,0,0,0.95621,0.019323,0,0.95642,-0.17743,-0.86833,-0.37038,-89.651,-0.47205,0.61747,-0.0082299,0.94,0.04,0
0.028519,0.0099749,0.037635,-0.86566,-0.15217,-0.34298,-0.0018762,0,0,-0.67948,0.24806,0,-0.0048781,0,0,0.94697,0.01441,0,0.94709,-0.15216,-0.86566,-0.34298,-89.849,-0.4536,0.6398,-0.0095269,0.96,0.04,0
0.014599,0.0099116,0.018775,-0.86402,-0.1253,-0.31557,-0.00064464,0,0,-0.71298,0.24735,0,-0.0016761,0,0,0.94088,0.0077051,0,0.94091,-0.1253,-0.86402,-0.31557,-89.95,-0.43496,0.66434,-0.010998,0.98,0.04,0
0,0.0098943,0,-0.83996,-0.088283,-0.27847,-0.00033226,0,0,-0.72993,0.24724,0,-0.00086387,0,0,0.93876,1.3444e-17,0,0.93875,-0.088283,-0.83996,-0.27847,-89.975,-0.40224,0.67692,-0.011793,1,0.04,0
0,0.023581,1,-0.87995,-1.3884,-1.6805,0.0057323,0,0,1.0407,0.3797,0,0.014904,0,0,0.82956,1.8961e-15,0,0.82942,-0.87989,-1.3885,-1.6805,0.6458,-1.3163,0.70178,0.0079575,0,0.06,0
0.020815,0.023879,0.98341,-0.8612,-1.3533,-1.6478,0.015785,0,0,1.0225,0.38283,0,0.041041,0,0,0.83704,-0.037903,0,0.83779,-0.8607,-1.3538,-1.6478,1.8355,-1.2874,0.68884,0.0070754,0.02,0.06,0
0.0409,0.024902,0.96652,-0.86806,-1.3209,-1.6232,0.036604,0,0,0.98167,0.39304,0,0.095171,0,0,0.85994,-0.074678,0,0.86319,-0.86512,-1.3238,-1.6232,4.5921,-1.2707,0.66132,0.0052626,0.04,0.06,0
0.060082,0.026996,0.94901,-0.88368,-1.2782,-1.5976,0.06772,0,0,0.92805,0.41523,0,0.17607,0,0,0.89811,-0.10668,0,0.90467,-0.87238,-1.2895,-1.5976,9.4746,-1.2531,0.63039,0.0033032,0.06,0.06,0
0.078022,0.030716,0.93059,-0.91633,-1.2102,-1.5686,0.1107,0,0,0.8479,0.46584,0,0.28782,0,0,0.94808,-0.12528,0,0.95674,-0.8793,-1.2472,-1.5686,18.496,-1.2317,0.59737,0.0012797,0.08,0.06,0
0.093997,0.036411,0.91109,-0.96211,-1.0805,-1.5239,0.15311,0,0,0.73028,0.5764,0,0.39808,0,0,1.0016,-0.12454,0,1.0097,-0.85715,-1.1854,-1.5239,34.433,-1.1888,0.57742,-0.00025991,0.1,0.06,0
0.10723,0.043518,0.89053,-1.0104,-0.89027,-1.4607,0.16404,0,0,0.58545,0.74159,0,0.4265,0,0,1.0487,-0.10488,0,1.0541,-0.77564,-1.125,-1.4607,55.054,-1.1205,0.59334,0.00037021,0.12,0.06,0
0.11742,0.050437,0.86914,-1.0574,-0.71737,-1.4016,0.13671,0,0,0.44743,0.88946,0,0.35544,0,0,1.0831,-0.07789,0,1.0859,-0.66922,-1.1055,-1.4016,70.598,-1.0588,0.63809,0.0043296,0.14,0.06,0
0.12513,0.055775,0.84721,-1.0912,-0.60128,-1.355,0.089933,0,0,0.34286,0.97978,0,0.23383,0,0,1.1044,-0.052604,0,1.1056,-0.58529,-1.1072,-1.355,79.92,-1.0158,0.6805,0.0092517,0.16,0.06,0
0.13113,0.059061,0.82496,-1.108,-0.53341,-1.3174,0.048011,0,0,0.2722,1.0192,0,0.12483,0,0,1.1164,-0.033561,0,1.1169,-0.52942,-1.112,-1.3174,85.256,-0.98626,0.70798,0.013186,0.18,0.06,0
0.13602,0.060436,0.80255,-1.1112,-0.49172,-1.2834,0.016353,0,0,0.22387,1.0292,0,0.042517,0,0,1.1229,-0.018606,0,1.1231,-0.49129,-1.1117,-1.2834,88.489,-0.96212,0.72175,0.015685,0.2,0.06,0
0.14008,0.060215,0.78004,-1.1099,-0.46946,-1.2538,-0.0078607,0,0,0.18718,1.0197,0,-0.020438,0,0,1.1261,-0.005647,0,1.1261,-0.46937,-1.1099,-1.2538,-89.297,-0.94439,0.72334,0.016875,0.22,0.06,0
0.14351,0.058606,0.7575,-1.1059,-0.46331,-1.2283,-0.029916,0,0,0.15906,0.99445,0,-0.077781,0,0,1.1264,0.0071645,0,1.1264,-0.46192,-1.1073,-1.2283,-87.34,-0.9325,0.7136,0.01687,0.24,0.06,0
0.14645,0.055687,0.73499,-1.0979,-0.47327,-1.2063,-0.054591,0,0,0.14098,0.95298,0,-0.14194,0,0,1.1233,0.021624,0,1.1235,-0.46854,-1.1026,-1.2063,-85.043,-0.92583,0.6918,0.015724,0.26,0.06,0
0.14914,0.051445,0.71257,-1.0792,-0.50205,-1.1869,-0.083865,0,0,0.14007,0.89036,0,-0.21805,0,0,1.115,0.03965,0,1.1157,-0.49011,-1.0911,-1.1869,-81.898,-0.92273,0.65421,0.013347,0.28,0.06,0
0.15205,0.046007,0.69039,-1.0489,-0.5629,-1.1739,-0.11334,0,0,0.16256,0.79433,0,-0.29467,0,0,1.0978,0.063084,0,1.0996,-0.53777,-1.074,-1.1739,-77.497,-0.92857,0.59255,0.0096693,0.3,0.06,0
0.15565,0.039906,0.66866,-1.0101,-0.65463,-1.1681,-0.12626,0,0,0.20541,0.66746,0,-0.32829,0,0,1.0687,0.087321,0,1.0723,-0.61434,-1.0503,-1.1681,-72.303,-0.94425,0.50526,0.0054317,0.32,0.06,0
0.16027,0.03418,0.64764,-0.97068,-0.74457,-1.1622,-0.11412,0,0,0.249,0.54294,0,-0.29671,0,0,1.0283,0.10383,0,1.0338,-0.69698,-1.0183,-1.1622,-67.366,-0.95915,0.41254,0.0021817,0.34,0.06,0
0.16561,0.029767,0.62752,-0.93265,-0.78563,-1.143,-0.085098,0,0,0.27347,0.46459,0,-0.22126,0,0,0.98343,0.10228,0,0.98901,-0.74669,-0.97159,-1.143,-65.41,-0.95376,0.34426,0.00048438,0.36,0.06,0
0.1712,0.026774,0.60831,-0.90312,-0.7901,-1.1163,-0.059787,0,0,0.2771,0.42403,0,-0.15545,0,0,0.94338,0.083604,0,0.9472,-0.76434,-0.92888,-1.1163,-66.694,-0.9365,0.305,-0.0001635,0.38,0.06,0
0.17669,0.024822,0.58979,-0.88408,-0.7854,-1.0906,-0.04143,0,0,0.26852,0.3968,0,-0.10772,0,0,0.91542,0.054832,0,0.91703,-0.77032,-0.89917,-1.0906,-69.99,-0.92004,0.27916,-0.00036961,0.4,0.06,0
0.18194,0.023561,0.57169,-0.87006,-0.77626,-1.0656,-0.026187,0,0,0.25418,0.37612,0,-0.068085,0,0,0.90159,0.025411,0,0.90187,-0.76944,-0.87687,-1.0656,-75.411,-0.90397,0.25966,-0.00040843,0.42,0.06,0
0.18686,0.022871,0.55373,-0.86112,-0.7615,-1.0405,-0.010374,0,0,0.23321,0.36271,0,-0.026971,0,0,0.90012,-0.00015678,0,0.90007,-0.76044,-0.86219,-1.0405,-84.118,-0.88771,0.24556,-0.00034417,0.44,0.06,0
0.19127,0.022752,0.53568,-0.85848,-0.73832,-1.0147,0.0068897,0,0,0.20312,0.35933,0,0.017913,0,0,0.90781,-0.020039,0,0.90802,-0.73792,-0.85887,-1.0147,86.729,-0.87051,0.24035,-0.00015423,0.46,0.06,0
0.19498,0.023228,0.51741,-0.86286,-0.70415,-0.98752,0.024444,0,0,0.16206,0.36837,0,0.063553,0,0,0.92153,-0.03355,0,0.92217,-0.70047,-0.86654,-0.98752,81.439,-0.85151,0.2496,0.00021402,0.48,0.06,0
0.19776,0.024269,0.49882,-0.87366,-0.65801,-0.95832,0.039598,0,0,0.11007,0.3904,0,0.10296,0,0,0.93846,-0.040813,0,0.93939,-0.65097,-0.8807,-0.95832,79.917,-0.83,0.27683,0.00080762,0.5,0.06,0
0.19939,0.025739,0.47987,-0.8891,-0.60223,-0.92727,0.049366,0,0,0.049631,0.42255,0,0.12835,0,0,0.95613,-0.042701,0,0.95713,-0.59398,-0.89735,-0.92727,80.504,-0.8062,0.31939,0.0016239,0.52,0.06,0
0.19974,0.027414,0.46058,-0.9066,-0.54246,-0.89529,0.052029,0,0,-0.0147,0.45869,0,0.13528,0,0,0.97272,-0.040644,0,0.9736,-0.53517,-0.91389,-0.89529,82.026,-0.78145,0.36978,0.0025747,0.54,0.06,0
0.1988,0.02904,0.44097,-0.92346,-0.48501,-0.86351,0.048107,0,0,-0.077944,0.49205,0,0.12508,0,0,0.98716,-0.036244,0,0.98785,-0.47979,-0.92868,-0.86351,83.812,-0.75733,0.42011,0.0035012,0.56,0.06,0
0.19662,0.030404,0.42109,-0.93756,-0.43423,-0.83263,0.039777,0,0,-0.13641,0.51792,0,0.10342,0,0,0.99908,-0.030872,0,0.99957,-0.43111,-0.94068,-0.83263,85.509,-0.73481,0.46506,0.0042408,0.58,0.06,0
0.19334,0.031377,0.401,-0.94786,-0.39177,-0.80289,0.029633,0,0,-0.18846,0.53446,0,0.077046,0,0,1.0086,-0.025441,0,1.0089,-0.3902,-0.94943,-0.80289,86.958,-0.71418,0.50226,0.0046884,0.6,0.06,0
0.18909,0.031912,0.38075,-0.95436,-0.35733,-0.77425,0.019646,0,0,-0.23414,0.542,0,0.05108,0,0,1.016,-0.020414,0,1.0162,-0.35668,-0.955,-0.77425,88.117,-0.69531,0.53152,0.0048133,0.62,0.06,0
0.18398,0.032022,0.36036,-0.95766,-0.32979,-0.7466,0.010877,0,0,-0.27438,0.54185,0,0.02828,0,0,1.0217,-0.015931,0,1.0218,-0.3296,-0.95785,-0.7466,89.008,-0.67802,0.55372,0.0046363,0.64,0.06,0
0.17811,0.031753,0.33988,-0.95852,-0.3079,-0.71981,0.0036347,0,0,-0.31033,0.53547,0,0.0094503,0,0,1.026,-0.011956,0,1.0261,-0.30788,-0.95854,-0.71981,89.68,-0.66207,0.5701,0.0042031,0.66,0.06,0
0.17156,0.03116,0.31932,-0.95757,-0.29059,-0.69377,-0.0022045,0,0,-0.34294,0.52414,0,-0.0057317,0,0,1.0292,-0.0083746,0,1.0292,-0.29058,-0.95758,-0.69377,-89.811,-0.64731,0.58183,0.0035654,0.68,0.06,0
0.16439,0.030296,0.29871,-0.95527,-0.27696,-0.66838,-0.0069552,0,0,-0.37295,0.50885,0,-0.018083,0,0,1.0313,-0.005041,0,1.0313,-0.27689,-0.95534,-0.66838,-89.413,-0.63353,0.58988,0.0027729,0.7,0.06,0
0.15665,0.029211,0.27807,-0.95186,-0.26631,-0.64353,-0.01097,0,0,-0.40084,0.49037,0,-0.028523,0,0,1.0324,-0.0018,0,1.0324,-0.26614,-0.95204,-0.64353,-89.083,-0.62057,0.595,0.0018701,0.72,0.06,0
0.14836,0.027944,0.25742,-0.94747,-0.25812,-0.61909,-0.014559,0,0,-0.42689,0.46927,0,-0.037854,0,0,1.0326,0.0015046,0,1.0326,-0.25781,-0.94778,-0.61909,-88.791,-0.60823,0.59775,0.00089644,0.74,0.06,0
0.13957,0.02653,0.23677,-0.94209,-0.25195,-0.59498,-0.017936,0,0,-0.45124,0.44594,0,-0.046633,0,0,1.0317,0.0050266,0,1.0317,-0.25148,-0.94256,-0.59498,-88.512,-0.59634,0.59849,-0.00011252,0.76,0.06,0
0.13031,0.025002,0.21615,-0.93564,-0.24746,-0.57108,-0.021175,0,0,-0.47392,0.4207,0,-0.055054,0,0,1.0297,0.0089098,0,1.0297,-0.24681,-0.93629,-0.57108,-88.239,-0.58473,0.59745,-0.0011241,0.78,0.06,0
0.12061,0.023393,0.19558,-0.928,-0.24435,-0.54728,-0.024158,0,0,-0.49492,0.39382,0,-0.06281,0,0,1.0263,0.01327,0,1.0264,-0.24349,-0.92885,-0.54728,-87.979,-0.57321,0.59481,-0.0021077,0.8,0.06,0
0.11051,0.021749,0.1751,-0.91913,-0.24221,-0.5235,-0.026522,0,0,-0.51432,0.36568,0,-0.068957,0,0,1.0213,0.018152,0,1.0215,-0.24117,-0.92016,-0.5235,-87.76,-0.56161,0.5908,-0.0030362,0.82,0.06,0
0.10004,0.020129,0.15473,-0.9092,-0.2404,-0.49961,-0.027649,0,0,-0.53247,0.33697,0,-0.071886,0,0,1.0144,0.023444,0,1.0146,-0.23926,-0.91034,-0.49961,-87.637,-0.54974,0.58602,-0.0038914,0.84,0.06,0
0.089213,0.018612,0.13452,-0.89876,-0.23774,-0.47547,-0.026821,0,0,-0.55028,0.30905,0,-0.069735,0,0,1.0052,0.028762,0,1.0056,-0.23665,-0.89985,-0.47547,-87.68,-0.53733,0.58179,-0.0046746,0.86,0.06,0
0.078029,0.01729,0.11452,-0.88867,-0.23232,-0.45082,-0.023579,0,0,-0.56921,0.28405,0,-0.061305,0,0,0.99361,0.033349,0,0.99419,-0.23147,-0.88951,-0.45082,-87.945,-0.52394,0.58034,-0.0054204,0.88,0.06,0
0.066445,0.016248,0.094778,-0.87989,-0.22186,-0.4253,-0.01822,0,0,-0.59097,0.26448,0,-0.047373,0,0,0.98008,0.036118,0,0.98077,-0.22136,-0.8804,-0.4253,-88.415,-0.50902,0.5844,-0.0062011,0.9,0.06,0
0.05439,0.015527,0.07532,-0.87313,-0.20481,-0.3987,-0.011936,0,0,-0.61676,0.25206,0,-0.031034,0,0,0.96551,0.035906,0,0.9662,-0.2046,-0.87334,-0.3987,-88.977,-0.49221,0.59589,-0.0071074,0.92,0.06,0
0.041775,0.01511,0.056157,-0.86855,-0.18153,-0.37118,-0.0063673,0,0,-0.64658,0.24654,0,-0.016555,0,0,0.95139,0.031895,0,0.95195,-0.18147,-0.86861,-0.37118,-89.469,-0.47375,0.61465,-0.0082078,0.94,0.06,0
0.028527,0.014918,0.037264,-0.86582,-0.15434,-0.34331,-0.0026425,0,0,-0.67926,0.24567,0,-0.0068704,0,0,0.93953,0.023975,0,0.93984,-0.15433,-0.86583,-0.34331,-89.787,-0.45449,0.63835,-0.0095177,0.96,0.06,0
0.014605,0.014852,0.018576,-0.86426,-0.12604,-0.31567,-0.00082752,0,0,-0.71317,0.24651,0,-0.0021515,0,0,0.9316,0.012873,0,0.93168,-0.12604,-0.86426,-0.31567,-89.936,-0.43532,0.66403,-0.011006,0.98,0.06,0
0,0.014838,0,-0.84052,-0.08882,-0.2788,-0.00028529,0,0,-0.73023,0.24698,0,-0.00074175,0,0,0.92882,5.2042e-18,0,0.9288,-0.088819,-0.84052,-0.2788,-89.978,-0.40271,0.677,-0.011807,1,0.06,0
0,0.03104,1,-0.87515,-1.4065,-1.6845,0.0067662,0,0,1.0521,0.36138,0,0.017592,0,0,0.78444,5.343e-16,0,0.78414,-0.87506,-1.4066,-1.6845,0.72942,-1.322,0.71237,0.009497,0,0.08,0
0.021043,0.031392,0.98431,-0.85918,-1.3745,-1.6544,0.022228,0,0,1.0338,0.36391,0,0.057792,0,0,0.7921,-0.052217,0,0.79355,-0.85822,-1.3754,-1.6544,2.4654,-1.296,0.69973,0.0086391,0.02,0.08,0
0.041352,0.032571,0.96832,-0.86796,-1.3469,-1.6328,0.049219,0,0,0.99425,0.37165,0,0.12797,0,0,0.81724,-0.10578,0,0.82391,-0.86296,-1.3519,-1.6328,5.8074,-1.2825,0.67474,0.007066,0.04,0.08,0
0.060813,0.034989,0.95162,-0.88446,-1.318,-1.6124,0.087564,0,0,0.94626,0.38268,0,0.22767,0,0,0.86582,-0.15996,0,0.88072,-0.86744,-1.335,-1.6124,10.998,-1.2716,0.65209,0.0060541,0.06,0.08,0
0.079202,0.03956,0.93368,-0.91834,-1.2745,-1.5915,0.14933,0,0,0.87516,0.41213,0,0.38826,0,0,0.93676,-0.20245,0,0.95947,-0.86401,-1.3288,-1.5915,19.99,-1.2615,0.63811,0.0061285,0.08,0.08,0
0.09582,0.047613,0.91415,-0.98421,-1.1521,-1.555,0.21872,0,0,0.74207,0.52386,0,0.56868,0,0,1.0158,-0.19525,0,1.0352,-0.83387,-1.3024,-1.555,34.504,-1.2304,0.63381,0.0064237,0.1,0.08,0
0.10888,0.058564,0.89305,-1.0194,-0.84592,-1.4526,0.23588,0,0,0.5632,0.78876,0,0.61329,0,0,1.08,-0.15364,0,1.091,-0.68134,-1.184,-1.4526,55.096,-1.106,0.67814,0.0079616,0.12,0.08,0
0.11835,0.068765,0.87095,-1.0666,-0.63593,-1.3817,0.16717,0,0,0.40962,0.96953,0,0.43464,0,0,1.1165,-0.095601,0,1.1204,-0.57866,-1.1239,-1.3817,71.09,-1.0281,0.71016,0.010557,0.14,0.08,0
0.12527,0.075864,0.84839,-1.0972,-0.55347,-1.3436,0.096895,0,0,0.32028,1.0272,0,0.25193,0,0,1.1311,-0.061643,0,1.1327,-0.53672,-1.114,-1.3436,80.192,-0.9981,0.72008,0.012808,0.16,0.08,0
0.13116,0.079729,0.82571,-1.0913,-0.50069,-1.3033,0.047025,0,0,0.2756,1.0434,0,0.12226,0,0,1.1356,-0.038915,0,1.1363,-0.49697,-1.095,-1.3033,85.476,-0.9651,0.72499,0.014263,0.18,0.08,0
0.13629,0.081178,0.80297,-1.085,-0.46887,-1.2691,0.015373,0,0,0.23936,1.0403,0,0.03997,0,0,1.1384,-0.021884,0,1.1386,-0.46849,-1.0854,-1.2691,88.572,-0.941,0.72642,0.015522,0.2,0.08,0
0.14073,0.080716,0.78017,-1.0829,-0.45069,-1.2402,-0.0075586,0,0,0.20459,1.0264,0,-0.019652,0,0,1.1403,-0.0073009,0,1.1403,-0.4506,-1.083,-1.2402,-89.315,-0.92459,0.72393,0.016427,0.22,0.08,0
0.14448,0.078625,0.75735,-1.0851,-0.44367,-1.216,-0.028712,0,0,0.17017,1.004,0,-0.07465,0,0,1.1415,0.0071612,0,1.1415,-0.44239,-1.0864,-1.216,-87.442,-0.91491,0.71761,0.016912,0.24,0.08,0
0.14754,0.074958,0.73451,-1.0899,-0.44798,-1.1959,-0.054324,0,0,0.13775,0.97227,0,-0.14124,0,0,1.1418,0.023767,0,1.142,-0.44342,-1.0945,-1.1959,-85.197,-0.91126,0.70724,0.016917,0.26,0.08,0
0.14999,0.069595,0.71168,-1.0922,-0.46744,-1.1796,-0.091283,0,0,0.11357,0.92578,0,-0.23734,0,0,1.14,0.045539,0,1.1408,-0.45438,-1.1053,-1.1796,-81.856,-0.91308,0.69105,0.016291,0.28,0.08,0
0.15208,0.06222,0.68891,-1.0646,-0.50673,-1.1603,-0.13945,0,0,0.12446,0.84964,0,-0.36256,0,0,1.1284,0.077469,0,1.1309,-0.47382,-1.0975,-1.1603,-76.719,-0.91053,0.65733,0.014139,0.3,0.08,0
0.15497,0.05332,0.66655,-1.0279,-0.63364,-1.165,-0.18209,0,0,0.17827,0.69076,0,-0.47344,0,0,1.096,0.13095,0,1.1039,-0.56241,-1.0991,-1.165,-68.634,-0.94217,0.5725,0.0092079,0.32,0.08,0
0.15921,0.044761,0.64507,-0.99533,-0.79845,-1.1832,-0.16273,0,0,0.24424,0.50018,0,-0.42309,0,0,1.0389,0.16635,0,1.0527,-0.7067,-1.0871,-1.1832,-60.586,-0.99233,0.43645,0.0035815,0.34,0.08,0
0.16474,0.038745,0.62499,-0.93781,-0.82025,-1.1524,-0.1187,0,0,0.27898,0.43181,0,-0.30863,0,0,0.97018,0.16812,0,0.9854,-0.74657,-1.0115,-1.1524,-58.172,-0.97015,0.35689,0.0011678,0.36,0.08,0
0.17037,0.035063,0.60626,-0.90598,-0.81211,-1.1217,-0.083924,0,0,0.28043,0.40246,0,-0.2182,0,0,0.91247,0.12402,0,0.92089,-0.76289,-0.9552,-1.1217,-59.608,-0.94659,0.311,0.00019197,0.38,0.08,0
0.17595,0.032604,0.58849,-0.88163,-0.8035,-1.094,-0.060983,0,0,0.27613,0.37769,0,-0.15856,0,0,0.87851,0.073083,0,0.88136,-0.77014,-0.91499,-1.094,-61.321,-0.92639,0.28102,-0.00020706,0.4,0.08,0
0.18142,0.030922,0.57112,-0.8627,-0.79535,-1.0685,-0.039782,0,0,0.26759,0.35514,0,-0.10343,0,0,0.86789,0.027998,0,0.86817,-0.77691,-0.88115,-1.0685,-65.123,-0.90886,0.25596,-0.00040495,0.42,0.08,0
0.18666,0.02994,0.55378,-0.85045,-0.78249,-1.0437,-0.016864,0,0,0.25118,0.33952,0,-0.043847,0,0,0.87286,-0.0088707,0,0.87282,-0.77854,-0.8544,-1.0437,-76.801,-0.8922,0.2365,-0.00045119,0.44,0.08,0
0.19146,0.029739,0.53621,-0.84707,-0.76139,-1.0188,0.0085655,0,0,0.22318,0.33457,0,0.02227,0,0,0.88812,-0.036565,0,0.88888,-0.76054,-0.84792,-1.0188,84.347,-0.87574,0.22747,-0.00031773,0.46,0.08,0
0.19558,0.030408,0.51825,-0.85288,-0.72693,-0.9922,0.034804,0,0,0.18111,0.34485,0,0.090489,0,0,0.90961,-0.054485,0,0.91131,-0.71795,-0.86185,-0.9922,75.536,-0.85733,0.2376,5.8923e-05,0.48,0.08,0
0.19871,0.031937,0.49983,-0.86669,-0.67539,-0.96245,0.057619,0,0,0.12448,0.37318,0,0.14981,0,0,0.93362,-0.062832,0,0.93581,-0.65938,-0.88271,-0.96245,74.468,-0.83484,0.27211,0.00074308,0.5,0.08,0
0.20056,0.03413,0.48091,-0.88586,-0.60945,-0.9295,0.071559,0,0,0.056735,0.41607,0,0.18605,0,0,0.9569,-0.06307,0,0.95904,-0.59202,-0.90329,-0.9295,76.313,-0.80827,0.32517,0.0017271,0.52,0.08,0
0.20098,0.036613,0.46155,-0.9068,-0.53897,-0.89528,0.073823,0,0,-0.014976,0.4632,0,0.19194,0,0,0.97715,-0.057781,0,0.9789,-0.52471,-0.92107,-0.89528,79.065,-0.78035,0.38411,0.0028665,0.54,0.08,0
0.19996,0.038967,0.44182,-0.92582,-0.47437,-0.86188,0.065944,0,0,-0.083121,0.50376,0,0.17145,0,0,0.99339,-0.049769,0,0.99466,-0.46494,-0.93526,-0.86188,81.857,-0.75402,0.43826,0.003918,0.56,0.08,0
0.19765,0.040875,0.42181,-0.94035,-0.42101,-0.83022,0.052434,0,0,-0.14316,0.53197,0,0.13633,0,0,1.0057,-0.041215,0,1.0066,-0.41577,-0.94559,-0.83022,84.292,-0.73053,0.48259,0.0046791,0.58,0.08,0
0.19424,0.042177,0.40159,-0.94964,-0.37906,-0.80021,0.037594,0,0,-0.19426,0.54748,0,0.097744,0,0,1.0149,-0.03329,0,1.0154,-0.3766,-0.95211,-0.80021,86.246,-0.70964,0.51659,0.005071,0.6,0.08,0
0.18988,0.042846,0.38122,-0.95457,-0.34653,-0.77155,0.024103,0,0,-0.23793,0.55253,0,0.062668,0,0,1.0216,-0.026384,0,1.0219,-0.34557,-0.95552,-0.77155,87.734,-0.69088,0.54191,0.0051112,0.62,0.08,0
0.18472,0.042933,0.36073,-0.95646,-0.32111,-0.744,0.012934,0,0,-0.2762,0.54976,0,0.033629,0,0,1.0266,-0.020462,0,1.0268,-0.32085,-0.95672,-0.744,88.834,-0.67386,0.56064,0.0048564,0.64,0.08,0
0.17883,0.042518,0.34015,-0.95647,-0.30108,-0.71742,0.0040856,0,0,-0.31076,0.54124,0,0.010623,0,0,1.0304,-0.015338,0,1.0305,-0.30106,-0.95649,-0.71742,89.643,-0.65832,0.57451,0.0043649,0.66,0.08,0
0.17229,0.041684,0.31951,-0.95533,-0.28518,-0.69167,-0.0028704,0,0,-0.34276,0.52844,0,-0.0074631,0,0,1.0331,-0.010785,0,1.0332,-0.28516,-0.95534,-0.69167,-89.755,-0.64406,0.58477,0.0036878,0.68,0.08,0
0.16512,0.040507,0.29883,-0.95342,-0.27249,-0.6666,-0.0084721,0,0,-0.37286,0.51235,0,-0.022027,0,0,1.035,-0.0065787,0,1.035,-0.27238,-0.95352,-0.6666,-89.287,-0.63084,0.59232,0.0028683,0.7,0.08,0
0.15737,0.039049,0.27811,-0.9509,-0.26238,-0.6421,-0.013232,0,0,-0.40145,0.49364,0,-0.034404,0,0,1.0361,-0.0024979,0,1.0361,-0.26212,-0.95116,-0.6421,-88.899,-0.61846,0.59777,0.001943,0.72,0.08,0
0.14907,0.037361,0.25738,-0.94778,-0.25439,-0.61804,-0.01758,0,0,-0.42867,0.47274,0,-0.045707,0,0,1.0365,0.001672,0,1.0365,-0.25394,-0.94823,-0.61804,-88.549,-0.60674,0.60151,0.00094389,0.74,0.08,0
0.14023,0.035484,0.23666,-0.94394,-0.24821,-0.5943,-0.021828,0,0,-0.45453,0.44991,0,-0.056752,0,0,1.036,0.0061472,0,1.036,-0.24753,-0.94462,-0.5943,-88.205,-0.59549,0.6037,-9.9711e-05,0.76,0.08,0
0.13089,0.033454,0.21595,-0.93915,-0.24366,-0.57079,-0.026138,0,0,-0.47887,0.42527,0,-0.06796,0,0,1.0345,0.011148,0,1.0345,-0.24268,-0.94013,-0.57079,-87.851,-0.58453,0.60436,-0.0011584,0.78,0.08,0
0.12107,0.03131,0.19528,-0.93307,-0.24062,-0.54738,-0.03046,0,0,-0.50139,0.39879,0,-0.079196,0,0,1.0317,0.016892,0,1.0319,-0.23929,-0.9344,-0.54738,-87.486,-0.57369,0.60328,-0.0022002,0.8,0.08,0
0.11083,0.029097,0.17468,-0.92531,-0.23903,-0.52398,-0.034411,0,0,-0.52173,0.37043,0,-0.08947,0,0,1.0274,0.023556,0,1.0277,-0.23731,-0.92703,-0.52398,-87.137,-0.56278,0.60014,-0.0031889,0.82,0.08,0
0.1002,0.026888,0.15418,-0.91572,-0.23874,-0.50052,-0.037155,0,0,-0.53976,0.34031,0,-0.096603,0,0,1.0208,0.03118,0,1.0213,-0.23671,-0.91775,-0.50052,-86.868,-0.55166,0.59477,-0.0040885,0.84,0.08,0
0.08924,0.024787,0.13384,-0.9046,-0.23888,-0.47689,-0.037382,0,0,-0.55603,0.30941,0,-0.097193,0,0,1.0113,0.03942,0,1.0121,-0.23679,-0.9067,-0.47689,-86.796,-0.54013,0.58786,-0.0048754,0.86,0.08,0
0.077963,0.022934,0.11373,-0.89308,-0.23723,-0.45282,-0.033906,0,0,-0.57234,0.28026,0,-0.088157,0,0,0.99839,0.047247,0,0.99953,-0.23549,-0.89483,-0.45282,-87.048,-0.52771,0.58195,-0.0055707,0.88,0.08,0
0.066347,0.021476,0.093907,-0.88257,-0.22989,-0.42764,-0.026588,0,0,-0.5914,0.25708,0,-0.069129,0,0,0.98199,0.052806,0,0.98345,-0.22881,-0.88365,-0.42764,-87.671,-0.51337,0.5815,-0.0062626,0.9,0.08,0
0.054307,0.020501,0.074448,-0.87423,-0.21338,-0.40073,-0.017291,0,0,-0.61555,0.24355,0,-0.044957,0,0,0.96323,0.053863,0,0.96479,-0.21293,-0.87468,-0.40073,-88.502,-0.49611,0.59068,-0.00709,0.92,0.08,0
0.041725,0.019988,0.055378,-0.86854,-0.18782,-0.37228,-0.0088972,0,0,-0.64513,0.23981,0,-0.023133,0,0,0.94428,0.048692,0,0.94558,-0.1877,-0.86865,-0.37228,-89.251,-0.47621,0.60998,-0.0081589,0.94,0.08,0
0.028502,0.019802,0.036676,-0.86524,-0.15743,-0.34348,-0.0035132,0,0,-0.67829,0.24186,0,-0.0091344,0,0,0.92795,0.036965,0,0.9287,-0.15741,-0.86526,-0.34348,-89.716,-0.45538,0.63558,-0.0094763,0.96,0.08,0
0.014593,0.019772,0.01826,-0.86356,-0.12705,-0.31544,-0.0010535,0,0,-0.71255,0.24491,0,-0.0027392,0,0,0.91691,0.019933,0,0.9171,-0.12705,-0.86356,-0.31544,-89.918,-0.43535,0.66271,-0.010976,0.98,0.08,0
0,0.019773,0,-0.84022,-0.089617,-0.27895,2.6225e-05,0,0,-0.72965,0.24613,0,6.8184e-05,0,0,0.91301,3.4694e-18,0,0.91297,-0.089617,-0.84022,-0.27895,89.998,-0.40293,0.67612,-0.011777,1,0.08,0
0,0.038036,1,-0.85616,-1.4331,-1.6868,0.0076798,0,0,1.0798,0.32976,0,0.019967,0,0,0.72513,-1.9082e-16,0,0.72465,-0.85606,-1.4332,-1.6868,0.76247,-1.3254,0.7374,0.012686,0,0.1,0
0.021596,0.038435,0.9855,-0.8445,-1.4049,-1.6603,0.032504,0,0,1.0606,0.33208,0,0.08451,0,0,0.73126,-0.064763,0,0.73362,-0.84262,-1.4067,-1.6603,3.3087,-1.3032,0.72496,0.011805,0.02,0.1,0
0.042422,0.039768,0.97075,-0.86519,-1.3857,-1.646,0.069213,0,0,1.0151,0.33844,0,0.17995,0,0,0.7522,-0.13461,0,0.76363,-0.85615,-1.3947,-1.646,7.4468,-1.299,0.69896,0.010204,0.04,0.1,0
0.062199,0.042303,0.95541,-0.89214,-1.3654,-1.6327,0.11822,0,0,0.96267,0.3475,0,0.30737,0,0,0.80145,-0.21544,0,0.82944,-0.86425,-1.3932,-1.6327,13.274,-1.2967,0.68103,0.0097236,0.06,0.1,0
0.080929,0.047202,0.93869,-0.9536,-1.3744,-1.6371,0.20006,0,0,0.88855,0.34147,0,0.52016,0,0,0.91278,-0.31476,0,0.96685,-0.87367,-1.4544,-1.6371,21.777,-1.3217,0.69044,0.012996,0.08,0.1,0
0.097741,0.057365,0.9189,-1.0469,-1.2827,-1.6178,0.32814,0,0,0.7421,0.43562,0,0.85316,0,0,1.0504,-0.37766,0,1.1212,-0.81615,-1.5135,-1.6178,35.12,-1.3158,0.75491,0.020681,0.1,0.1,0
0.11061,0.075068,0.89668,-1.0136,-0.64289,-1.3936,0.27159,0,0,0.49402,0.97596,0,0.70612,0,0,1.1484,-0.1588,0,1.1568,-0.49944,-1.1571,-1.3936,62.157,-1.0167,0.8025,0.018974,0.12,0.1,0
0.1175,0.089218,0.87296,-1.1204,-0.57816,-1.3825,0.15945,0,0,0.34079,1.0457,0,0.41457,0,0,1.1751,-0.094516,0,1.1787,-0.53475,-1.1638,-1.3825,74.769,-1.027,0.76232,0.016596,0.14,0.1,0
0.12424,0.096862,0.84967,-1.0693,-0.5093,-1.3233,0.078868,0,0,0.33012,1.0581,0,0.20506,0,0,1.1611,-0.060829,0,1.1626,-0.4984,-1.0802,-1.3233,82.135,-0.96729,0.73415,0.013068,0.16,0.1,0
0.13071,0.1008,0.82652,-1.0426,-0.47163,-1.2808,0.039246,0,0,0.30963,1.0519,0,0.10204,0,0,1.1562,-0.039229,0,1.1568,-0.46894,-1.0453,-1.2808,86.086,-0.93168,0.72344,0.012726,0.18,0.1,0
0.13663,0.10205,0.80342,-1.0336,-0.44819,-1.248,0.014787,0,0,0.27864,1.0397,0,0.038446,0,0,1.1546,-0.022962,0,1.1548,-0.44782,-1.034,-1.248,88.554,-0.90993,0.71751,0.013439,0.2,0.1,0
0.14185,0.10127,0.78034,-1.0355,-0.43347,-1.221,-0.0028218,0,0,0.24119,1.0238,0,-0.0073367,0,0,1.1552,-0.0088513,0,1.1552,-0.43346,-1.0355,-1.221,-89.731,-0.89666,0.71314,0.014464,0.22,0.1,0
0.14628,0.098766,0.75722,-1.045,-0.42544,-1.1983,-0.019489,0,0,0.19938,1.0048,0,-0.050672,0,0,1.1575,0.0052171,0,1.1575,-0.42482,-1.0456,-1.1983,-88.2,-0.88958,0.70958,0.015522,0.24,0.1,0
0.14983,0.094578,0.73404,-1.0627,-0.42457,-1.1802,-0.040513,0,0,0.1528,0.98233,0,-0.10533,0,0,1.1617,0.021316,0,1.1619,-0.42201,-1.0652,-1.1802,-86.382,-0.88915,0.70775,0.016599,0.26,0.1,0
0.15239,0.088476,0.71075,-1.0916,-0.43394,-1.1684,-0.07233,0,0,0.099873,0.95481,0,-0.18806,0,0,1.1687,0.042461,0,1.1694,-0.42607,-1.0994,-1.1684,-83.797,-0.89797,0.71036,0.017827,0.28,0.1,0
0.15382,0.079992,0.68729,-1.1318,-0.4638,-1.166,-0.13298,0,0,0.044453,0.9128,0,-0.34575,0,0,1.1832,0.074939,0,1.1854,-0.4383,-1.1573,-1.166,-79.144,-0.92051,0.72335,0.019429,0.3,0.1,0
0.15417,0.067537,0.66342,-1.0426,-0.4839,-1.1214,-0.21133,0,0,0.10238,0.82872,0,-0.54946,0,0,1.1575,0.13581,0,1.1633,-0.41297,-1.1136,-1.1214,-71.447,-0.88263,0.70452,0.017953,0.32,0.1,0
0.15792,0.054187,0.64099,-1.0573,-0.89414,-1.2264,-0.25934,0,0,0.21982,0.43198,0,-0.67428,0,0,1.0655,0.3388,0,1.1227,-0.70387,-1.2476,-1.2264,-53.733,-1.0593,0.53347,0.007756,0.34,0.1,0
0.16296,0.047039,0.6208,-0.97046,-0.88099,-1.1762,-0.17064,0,0,0.2675,0.38382,0,-0.44367,0,0,0.9411,0.26368,0,0.97789,-0.74931,-1.1021,-1.1762,-52.346,-1.0092,0.39512,0.0027963,0.36,0.1,0
0.16862,0.042872,0.60335,-0.90699,-0.84417,-1.1287,-0.12096,0,0,0.28821,0.36988,0,-0.3145,0,0,0.84835,0.16237,0,0.86306,-0.7506,-1.0006,-1.1287,-52.278,-0.95995,0.33305,0.00099453,0.38,0.1,0
0.17449,0.039929,0.58687,-0.86978,-0.83319,-1.0978,-0.086392,0,0,0.29637,0.34393,0,-0.22462,0,0,0.8194,0.084188,0,0.8232,-0.76318,-0.93979,-1.0978,-50.978,-0.93358,0.2899,0.0001206,0.4,0.1,0
0.18047,0.037767,0.57057,-0.84347,-0.82251,-1.0704,-0.055224,0,0,0.29496,0.32221,0,-0.14358,0,0,0.81963,0.022249,0,0.81963,-0.77678,-0.8892,-1.0704,-50.373,-0.91212,0.25656,-0.00034026,0.42,0.1,0
0.18629,0.036451,0.55408,-0.83074,-0.81099,-1.0466,-0.023144,0,0,0.28062,0.30629,0,-0.060176,0,0,0.83556,-0.02675,0,0.83588,-0.7957,-0.84603,-1.0466,-56.552,-0.89611,0.2299,-0.0005247,0.44,0.1,0
0.1917,0.036134,0.53715,-0.82947,-0.79343,-1.024,0.011514,0,0,0.25291,0.29976,0,0.029937,0,0,0.86219,-0.063112,0,0.86456,-0.79007,-0.83283,-1.024,73.71,-0.88231,0.21577,-0.00044837,0.46,0.1,0
0.1964,0.037022,0.51959,-0.83932,-0.76034,-0.99949,0.048514,0,0,0.20822,0.3109,0,0.12614,0,0,0.89527,-0.085555,0,0.89951,-0.73727,-0.86238,-0.99949,64.573,-0.86638,0.22717,-4.7644e-05,0.48,0.1,0
0.20003,0.039196,0.50134,-0.85883,-0.70129,-0.96937,0.081348,0,0,0.1437,0.34851,0,0.2115,0,0,0.92987,-0.093415,0,0.93472,-0.66682,-0.89329,-0.96937,67.039,-0.84316,0.27259,0.00077358,0.5,0.1,0
0.20215,0.042382,0.4824,-0.88349,-0.61736,-0.93265,0.10011,0,0,0.063913,0.40988,0,0.26028,0,0,0.96118,-0.089065,0,0.9654,-0.58391,-0.91694,-0.93265,71.522,-0.81117,0.34116,0.0020248,0.52,0.1,0
0.20258,0.045942,0.46289,-0.90901,-0.52941,-0.89441,0.099239,0,0,-0.018974,0.47451,0,0.25802,0,0,0.98602,-0.07731,0,0.98909,-0.50503,-0.93339,-0.89441,76.198,-0.77761,0.41026,0.0034388,0.54,0.1,0
0.20139,0.049191,0.44296,-0.93038,-0.45618,-0.85893,0.083927,0,0,-0.092896,0.52357,0,0.21821,0,0,1.0037,-0.063443,0,1.0057,-0.44176,-0.9448,-0.85893,80.254,-0.7485,0.46607,0.0046103,0.56,0.1,0
0.19887,0.051683,0.42274,-0.94411,-0.40189,-0.82654,0.062869,0,0,-0.15285,0.55205,0,0.16346,0,0,1.0156,-0.050646,0,1.0168,-0.3947,-0.95131,-0.82654,83.472,-0.72418,0.5059,0.0053111,0.58,0.1,0
0.19528,0.053276,0.40233,-0.95088,-0.36282,-0.79644,0.042894,0,0,-0.20076,0.56371,0,0.11153,0,0,1.0234,-0.040012,0,1.0242,-0.35971,-0.95399,-0.79644,85.85,-0.70338,0.53326,0.0055575,0.6,0.1,0
0.19084,0.054013,0.3818,-0.95297,-0.33362,-0.76778,0.02648,0,0,-0.24075,0.56441,0,0.068848,0,0,1.0288,-0.031337,0,1.0293,-0.33249,-0.9541,-0.76778,87.556,-0.68479,0.55254,0.0054596,0.62,0.1,0
0.18565,0.054013,0.36118,-0.95296,-0.31117,-0.74042,0.013818,0,0,-0.27631,0.55802,0,0.035927,0,0,1.0328,-0.024189,0,1.033,-0.31088,-0.95326,-0.74042,88.767,-0.66819,0.56678,0.0051017,0.64,0.1,0
0.17978,0.053403,0.34049,-0.95215,-0.29346,-0.71418,0.0042217,0,0,-0.30937,0.54693,0,0.010977,0,0,1.0357,-0.018149,0,1.0359,-0.29343,-0.95218,-0.71418,89.633,-0.65326,0.57776,0.0045428,0.66,0.1,0
0.17328,0.052297,0.31975,-0.95111,-0.27919,-0.68884,-0.0031399,0,0,-0.34094,0.53255,0,-0.0081637,0,0,1.0379,-0.012854,0,1.038,-0.27917,-0.95112,-0.68884,-89.732,-0.63971,0.58657,0.0038246,0.68,0.1,0
0.16615,0.05079,0.29898,-0.95002,-0.26753,-0.66424,-0.0090316,0,0,-0.37151,0.51572,0,-0.023482,0,0,1.0395,-0.0079921,0,1.0396,-0.26741,-0.95014,-0.66424,-89.242,-0.62726,0.59386,0.0029789,0.7,0.1,0
0.15842,0.048956,0.27817,-0.94888,-0.25794,-0.64022,-0.014095,0,0,-0.40126,0.49696,0,-0.036647,0,0,1.0406,-0.0032843,0,1.0406,-0.25765,-0.94917,-0.64022,-88.832,-0.61568,0.6,0.0020315,0.72,0.1,0
0.1501,0.046854,0.25735,-0.94758,-0.25006,-0.61664,-0.018848,0,0,-0.43022,0.47655,0,-0.049005,0,0,1.0412,0.0015363,0,1.0412,-0.24955,-0.94808,-0.61664,-88.453,-0.60476,0.60521,0.0010047,0.74,0.1,0
0.14121,0.044527,0.23652,-0.94591,-0.2437,-0.59341,-0.023693,0,0,-0.45826,0.45462,0,-0.061601,0,0,1.0412,0.0067434,0,1.0412,-0.2429,-0.94671,-0.59341,-88.07,-0.59434,0.60952,-8.0144e-05,0.76,0.1,0
0.13176,0.042012,0.2157,-0.94358,-0.2388,-0.57042,-0.028908,0,0,-0.48511,0.4311,0,-0.07516,0,0,1.0404,0.012637,0,1.0405,-0.23761,-0.94476,-0.57042,-87.655,-0.58426,0.61276,-0.0011999,0.78,0.1,0
0.1218,0.039345,0.19491,-0.94006,-0.23543,-0.54755,-0.0346,0,0,-0.51026,0.40576,0,-0.089961,0,0,1.0387,0.01956,0,1.0389,-0.23373,-0.94176,-0.54755,-87.196,-0.57435,0.61448,-0.002325,0.8,0.1,0
0.11135,0.036566,0.17416,-0.93461,-0.23385,-0.52469,-0.040579,0,0,-0.53289,0.3781,0,-0.10551,0,0,1.0356,0.027901,0,1.036,-0.23151,-0.93695,-0.52469,-86.697,-0.56438,0.61383,-0.0034131,0.82,0.1,0
0.10049,0.033741,0.15348,-0.9262,-0.23444,-0.50167,-0.04602,0,0,-0.55188,0.3474,0,-0.11965,0,0,1.0302,0.038046,0,1.0309,-0.23139,-0.92925,-0.50167,-86.211,-0.5541,0.60945,-0.0044011,0.84,0.1,0
0.08928,0.030988,0.13295,-0.91472,-0.23784,-0.47871,-0.049106,0,0,-0.56681,0.31314,0,-0.12768,0,0,1.0212,0.050156,0,1.0225,-0.23429,-0.91826,-0.47871,-85.872,-0.54376,0.60031,-0.0052267,0.86,0.1,0
0.077814,0.028501,0.11263,-0.90108,-0.24204,-0.45557,-0.046939,0,0,-0.57917,0.27759,0,-0.12204,0,0,1.007,0.063175,0,1.009,-0.23871,-0.90441,-0.45557,-85.947,-0.5329,0.58807,-0.0058599,0.88,0.1,0
0.066113,0.026531,0.092665,-0.88776,-0.24111,-0.43132,-0.038188,0,0,-0.59336,0.24728,0,-0.09929,0,0,0.98669,0.074192,0,0.98955,-0.23886,-0.89,-0.43132,-86.632,-0.52006,0.5794,-0.0064006,0.9,0.1,0
0.054079,0.02527,0.073165,-0.8764,-0.22645,-0.40402,-0.024842,0,0,-0.61409,0.23084,0,-0.064591,0,0,0.96139,0.078597,0,0.96471,-0.22551,-0.87735,-0.40402,-87.814,-0.50229,0.58344,-0.0070732,0.92,0.1,0
0.041549,0.024702,0.05421,-0.86785,-0.19672,-0.37358,-0.012768,0,0,-0.64255,0.22992,0,-0.033198,0,0,0.93449,0.072699,0,0.93741,-0.19648,-0.86809,-0.37358,-88.91,-0.47938,0.6029,-0.0080672,0.94,0.1,0
0.028377,0.024593,0.035785,-0.86279,-0.16146,-0.34306,-0.0053316,0,0,-0.67565,0.23608,0,-0.013862,0,0,0.91077,0.055633,0,0.91249,-0.16142,-0.86283,-0.34306,-89.564,-0.45577,0.63053,-0.0093637,0.96,0.1,0
0.014523,0.024649,0.017779,-0.86015,-0.1287,-0.31443,-0.0020069,0,0,-0.70943,0.24145,0,-0.0052181,0,0,0.89464,0.030022,0,0.89509,-0.1287,-0.86016,-0.31443,-89.843,-0.43443,0.65854,-0.010829,0.98,0.1,0
0,0.024683,0,-0.83725,-0.091637,-0.27867,0.00065794,0,0,-0.72616,0.24314,0,0.0017106,0,0,0.88895,6.9389e-18,0,0.88886,-0.091636,-0.83726,-0.27867,89.949,-0.40252,0.67192,-0.011606,1,0.1,0
0,0.044231,1,-0.81121,-1.4686,-1.6839,0.008544,0,0,1.1345,0.27996,0,0.022214,0,0,0.65491,-1.4919e-16,0,0.65424,-0.8111,-1.4687,-1.6839,0.74451,-1.3212,0.7876,0.018916,0,0.12,0
0.022691,0.044675,0.9869,-0.80167,-1.4451,-1.6609,0.044551,0,0,1.1171,0.28055,0,0.11583,0,0,0.65749,-0.072541,0,0.66075,-0.7986,-1.4482,-1.6609,3.9419,-1.3026,0.7781,0.018235,0.02,0.12,0
0.044682,0.046108,0.9737,-0.82532,-1.4354,-1.6519,0.097095,0,0,1.0746,0.28143,0,0.25245,0,0,0.66656,-0.15295,0,0.68291,-0.81024,-1.4505,-1.6519,8.8277,-1.3042,0.76123,0.017422,0.04,0.12,0
0.065674,0.048889,0.96024,-0.88587,-1.4473,-1.6602,0.16282,0,0,1.0066,0.27674,0,0.42333,0,0,0.68568,-0.25325,0,0.72929,-0.84207,-1.4911,-1.6602,15.057,-1.3311,0.74806,0.017852,0.06,0.12,0
0.084947,0.053219,0.94627,-0.99601,-1.5034,-1.6961,0.30262,0,0,0.91012,0.25049,0,0.78682,0,0,0.77455,-0.3998,0,0.86564,-0.85482,-1.6446,-1.6961,25.012,-1.3985,0.81676,0.027609,0.08,0.12,0
0.10208,0.065038,0.92926,-0.87785,-1.1081,-1.1268,0.36195,0,0,0.39214,-0.1621,0,2.1503,0,0,0.63902,-0.38944,0,0.75646,-0.61264,-1.3733,-1.1268,37.236,-1.0376,0.67776,0.023031,0.1,0.12,0
0.10528,0.097603,0.8994,-0.77788,-0.50691,-0.89938,0.22706,0,0,0.27642,0.19133,0,1.5164,0,0,0.77891,-0.11777,0,0.79219,-0.34252,-0.94227,-0.89938,49.749,-0.72805,0.60166,0.023234,0.12,0.12,0
0.11314,0.11059,0.87473,-0.65054,-0.46038,-0.83313,0.093587,0,0,0.41538,0.18573,0,0.81404,0,0,0.69397,-0.078685,0,0.70197,-0.36982,-0.74111,-0.83313,51.429,-0.64802,0.45518,0.005237,0.14,0.12,0
0.12189,0.11819,0.85082,-0.611,-0.42473,-0.7969,0.055907,0,0,0.42294,0.18771,0,0.52938,0,0,0.67791,-0.053517,0,0.68205,-0.35096,-0.68476,-0.7969,51.156,-0.61087,0.43022,0.0037788,0.16,0.12,0
0.13005,0.1218,0.82728,-0.60884,-0.41132,-0.77878,0.031508,0,0,0.38662,0.19268,0,0.32806,0,0,0.67058,-0.036314,0,0.67259,-0.34855,-0.67161,-0.77878,50.404,-0.59965,0.41248,0.0041011,0.18,0.12,0
0.13736,0.12277,0.80388,-0.61309,-0.40004,-0.7633,0.015271,0,0,0.34172,0.19801,0,0.17906,0,0,0.66789,-0.022489,0,0.66868,-0.34452,-0.66862,-0.7633,48.902,-0.59215,0.40169,0.0049166,0.2,0.12,0
0.14372,0.12167,0.78053,-0.61952,-0.3906,-0.74905,0.0019683,0,0,0.29468,0.20235,0,0.051585,0,0,0.66772,-0.010043,0,0.66786,-0.34043,-0.66969,-0.74905,-43.197,-0.58639,0.39413,0.0057615,0.22,0.12,0
0.14914,0.11882,0.75714,-0.62658,-0.38223,-0.7353,-0.010935,0,0,0.24733,0.20542,0,-0.072729,0,0,0.66954,0.002446,0,0.66951,-0.33573,-0.67308,-0.7353,-45.958,-0.58137,0.38951,0.0065398,0.24,0.12,0
0.15362,0.11425,0.73366,-0.63568,-0.37541,-0.72256,-0.025844,0,0,0.19766,0.20809,0,-0.21147,0,0,0.67372,0.016396,0,0.67402,-0.33052,-0.68057,-0.72256,-49.371,-0.57788,0.38887,0.0072942,0.26,0.12,0
0.15705,0.10779,0.70998,-0.6508,-0.37045,-0.71208,-0.046993,0,0,0.13941,0.21225,0,-0.39049,0,0,0.68206,0.033774,0,0.68351,-0.32358,-0.69767,-0.71208,-52.999,-0.57778,0.39683,0.0082813,0.28,0.12,0
0.15919,0.098732,0.68592,-0.6965,-0.38246,-0.71564,-0.078503,0,0,0.043549,0.22099,0,-0.63533,0,0,0.69812,0.059031,0,0.7023,-0.32895,-0.75002,-0.71564,-56.338,-0.5982,0.41885,0.0097941,0.3,0.12,0
0.15879,0.086469,0.66111,-0.81479,-0.40556,-0.74388,-0.17776,0,0,-0.16131,0.23896,0,-1.1772,0,0,0.77709,0.098074,0,0.78569,-0.31297,-0.90738,-0.74388,-56.949,-0.65474,0.54213,0.01676,0.32,0.12,0
0.15274,0.06204,0.63152,-0.82656,-0.77875,-0.84246,-0.293,0,0,-0.10905,-0.0036829,0,-1.7394,0,0,0.63689,0.3518,0,0.73343,-0.50862,-1.0967,-0.84246,-46.944,-0.81592,0.51373,0.0051767,0.34,0.12,0
0.1583,0.054098,0.61445,-0.9577,-0.96618,-1.1916,-0.26032,0,0,0.30408,0.29306,0,-0.67684,0,0,0.79374,0.32666,0,0.85188,-0.70159,-1.2223,-1.1916,-44.534,-1.0385,0.50607,0.006574,0.36,0.12,0
0.1649,0.049858,0.59977,-0.86554,-0.90302,-1.1303,-0.16313,0,0,0.34424,0.29551,0,-0.42414,0,0,0.73297,0.17907,0,0.75282,-0.72008,-1.0485,-1.1303,-41.723,-0.9663,0.37607,0.0023015,0.38,0.12,0
0.17207,0.046361,0.58513,-0.81843,-0.87272,-1.0925,-0.1097,0,0,0.35625,0.28568,0,-0.28521,0,0,0.7384,0.080097,0,0.74189,-0.73257,-0.95859,-1.0925,-38.051,-0.92788,0.31507,0.00068445,0.4,0.12,0
0.17915,0.04381,0.57023,-0.8028,-0.8576,-1.0683,-0.064611,0,0,0.34522,0.27398,0,-0.16799,0,0,0.75695,0.0046242,0,0.75654,-0.76002,-0.90038,-1.0683,-33.511,-0.90958,0.26738,-0.00015155,0.42,0.12,0
0.18588,0.042192,0.55485,-0.79968,-0.84583,-1.0485,-0.02402,0,0,0.32347,0.26347,0,-0.062451,0,0,0.7875,-0.056383,0,0.7894,-0.78945,-0.85606,-1.0485,-23.074,-0.898,0.233,-0.0004751,0.44,0.12,0
0.19209,0.041729,0.53873,-0.80556,-0.83293,-1.0303,0.018782,0,0,0.29214,0.25656,0,0.048834,0,0,0.82931,-0.10394,0,0.836,-0.796,-0.84248,-1.0303,26.962,-0.88959,0.21484,-0.00043004,0.46,0.12,0
0.19757,0.042843,0.52168,-0.82465,-0.80826,-1.0115,0.067346,0,0,0.24297,0.26427,0,0.1751,0,0,0.87931,-0.13234,0,0.88961,-0.74861,-0.8843,-1.0115,48.468,-0.88149,0.22775,3.3685e-05,0.48,0.12,0
0.20181,0.045878,0.50356,-0.85374,-0.74047,-0.98183,0.11493,0,0,0.16651,0.31376,0,0.29883,0,0,0.93011,-0.13775,0,0.94061,-0.66898,-0.92524,-0.98183,58.116,-0.85868,0.28875,0.0010781,0.5,0.12,0
0.20423,0.050525,0.48447,-0.88482,-0.62153,-0.93638,0.13771,0,0,0.067019,0.4093,0,0.35804,0,0,0.973,-0.12223,0,0.98078,-0.56267,-0.94369,-0.93638,66.856,-0.81424,0.37742,0.0027577,0.52,0.12,0
0.20449,0.055593,0.46464,-0.91577,-0.50618,-0.89123,0.12803,0,0,-0.031908,0.50056,0,0.33287,0,0,1.0028,-0.098137,0,1.0076,-0.46945,-0.9525,-0.89123,73.994,-0.77106,0.45551,0.0045595,0.54,0.12,0
0.20295,0.05991,0.44436,-0.93798,-0.42637,-0.85367,0.098306,0,0,-0.1096,0.55548,0,0.2556,0,0,1.0201,-0.074991,0,1.0228,-0.40813,-0.95622,-0.85367,79.489,-0.73934,0.50468,0.005694,0.56,0.12,0
0.20011,0.062957,0.42384,-0.94836,-0.37806,-0.82176,0.068184,0,0,-0.16457,0.57682,0,0.17728,0,0,1.0292,-0.057699,0,1.0308,-0.37002,-0.9564,-0.82176,83.276,-0.71606,0.532,0.0060954,0.58,0.12,0
0.19637,0.064725,0.4032,-0.94905,-0.34446,-0.79125,0.044123,0,0,-0.20515,0.58083,0,0.11472,0,0,1.0341,-0.044745,0,1.0351,-0.34125,-0.95225,-0.79125,85.848,-0.69492,0.54852,0.0060786,0.6,0.12,0
0.1919,0.065423,0.38247,-0.94727,-0.31993,-0.76263,0.026533,0,0,-0.24002,0.57551,0,0.068985,0,0,1.0374,-0.034779,0,1.038,-0.31881,-0.94839,-0.76263,87.582,-0.67661,0.56029,0.0057999,0.62,0.12,0
0.18677,0.065254,0.3617,-0.94546,-0.30101,-0.73564,0.013829,0,0,-0.27276,0.56502,0,0.035955,0,0,1.0398,-0.026832,0,1.0402,-0.30071,-0.94575,-0.73564,88.771,-0.6607,0.56982,0.0053317,0.64,0.12,0
0.18099,0.064395,0.34088,-0.9444,-0.2858,-0.70994,0.0045542,0,0,-0.3048,0.55138,0,0.011841,0,0,1.0417,-0.020234,0,1.0419,-0.28577,-0.94443,-0.70994,89.604,-0.64671,0.57825,0.004711,0.66,0.12,0
0.17458,0.062986,0.32003,-0.94414,-0.27319,-0.68523,-0.0024595,0,0,-0.33659,0.53565,0,-0.0063948,0,0,1.0433,-0.0145,0,1.0434,-0.27318,-0.94415,-0.68523,-89.79,-0.63418,0.5861,0.0039603,0.68,0.12,0
0.16753,0.061136,0.29915,-0.94453,-0.2625,-0.66126,-0.0080974,0,0,-0.36825,0.51838,0,-0.021053,0,0,1.0446,-0.0092556,0,1.0446,-0.26241,-0.94462,-0.66126,-89.32,-0.62276,0.59363,0.0030958,0.7,0.12,0
0.15985,0.058928,0.27825,-0.94535,-0.25334,-0.63785,-0.01304,0,0,-0.39975,0.49987,0,-0.033905,0,0,1.0457,-0.0041809,0,1.0457,-0.25309,-0.9456,-0.63785,-88.921,-0.61218,0.60096,0.0021311,0.72,0.12,0
0.15154,0.056424,0.25732,-0.94643,-0.24545,-0.61489,-0.017827,0,0,-0.43101,0.48027,0,-0.046351,0,0,1.0465,0.0010228,0,1.0465,-0.24499,-0.94688,-0.61489,-88.544,-0.60225,0.60815,0.0010783,0.74,0.12,0
0.14261,0.053669,0.23639,-0.94756,-0.23872,-0.59227,-0.022905,0,0,-0.46188,0.45962,0,-0.059553,0,0,1.0471,0.006668,0,1.0471,-0.23798,-0.9483,-0.59227,-88.151,-0.59285,0.61516,-5.067e-05,0.76,0.12,0
0.13306,0.050699,0.21544,-0.94847,-0.23316,-0.56993,-0.028655,0,0,-0.4921,0.4378,0,-0.074502,0,0,1.0473,0.013116,0,1.0474,-0.23201,-0.94961,-0.56993,-87.71,-0.58385,0.62181,-0.0012424,0.78,0.12,0
0.12292,0.04754,0.19449,-0.94871,-0.22896,-0.54779,-0.035401,0,0,-0.52119,0.41449,0,-0.092044,0,0,1.047,0.020823,0,1.0472,-0.22722,-0.95044,-0.54779,-87.191,-0.57515,0.62767,-0.002477,0.8,0.12,0
0.11221,0.044221,0.17356,-0.94736,-0.22653,-0.52573,-0.043337,0,0,-0.54812,0.38896,0,-0.11268,0,0,1.0459,0.030407,0,1.0463,-0.22393,-0.94995,-0.52573,-86.572,-0.56654,0.63173,-0.0037171,0.82,0.12,0
0.101,0.040784,0.15266,-0.94274,-0.22673,-0.5035,-0.0523,0,0,-0.57101,0.3598,0,-0.13598,0,0,1.0431,0.042742,0,1.0439,-0.22293,-0.94654,-0.5035,-85.844,-0.55766,0.6319,-0.0048879,0.84,0.12,0
0.089374,0.037312,0.13184,-0.93169,-0.2308,-0.48058,-0.060617,0,0,-0.58644,0.32472,0,-0.1576,0,0,1.0365,0.059007,0,1.0381,-0.22559,-0.93689,-0.48058,-85.093,-0.54769,0.62417,-0.005833,0.86,0.12,0
0.077539,0.034038,0.1112,-0.91607,-0.24326,-0.459,-0.064085,0,0,-0.59419,0.28046,0,-0.16662,0,0,1.0224,0.080435,0,1.0256,-0.23721,-0.92212,-0.459,-84.607,-0.53944,0.60529,-0.0064509,0.88,0.12,0
0.065606,0.031367,0.09094,-0.89825,-0.25515,-0.43696,-0.055411,0,0,-0.59967,0.23635,0,-0.14407,0,0,0.99741,0.10213,0,1.0027,-0.25041,-0.90299,-0.43696,-85.111,-0.53012,0.58217,-0.0067367,0.9,0.12,0
0.053552,0.029735,0.071304,-0.88151,-0.2466,-0.40974,-0.037628,0,0,-0.61331,0.21208,0,-0.097833,0,0,0.96174,0.11528,0,0.96886,-0.24438,-0.88373,-0.40974,-86.62,-0.51262,0.5748,-0.0071011,0.92,0.12,0
0.041074,0.029185,0.05247,-0.86628,-0.20856,-0.37492,-0.019909,0,0,-0.63876,0.21627,0,-0.051763,0,0,0.92132,0.10911,0,0.92799,-0.20796,-0.86688,-0.37492,-88.268,-0.48325,0.59333,-0.0079328,0.94,0.12,0
0.028001,0.029245,0.034451,-0.8559,-0.16559,-0.3409,-0.010855,0,0,-0.6695,0.2279,0,-0.028224,0,0,0.88527,0.083449,0,0.88925,-0.16542,-0.85607,-0.3409,-89.099,-0.45413,0.62177,-0.0091105,0.96,0.12,0
0.014294,0.02943,0.017059,-0.85067,-0.13309,-0.31219,-0.0055718,0,0,-0.70003,0.23283,0,-0.014487,0,0,0.86128,0.044192,0,0.86227,-0.13305,-0.85072,-0.31219,-89.555,-0.43199,0.64697,-0.010397,0.98,0.12,0
0,0.029499,0,-0.82726,-0.097728,-0.2775,0.0013238,0,0,-0.71469,0.2337,0,0.003442,0,0,0.85296,-4.1633e-17,0,0.85277,-0.097725,-0.82726,-0.2775,89.896,-0.40083,0.65833,-0.011053,1,0.12,0
0,0.049234,1,-0.73789,-1.5105,-1.6745,0.0081338,0,0,1.2176,0.21324,0,0.021148,0,0,0.58005,1.3913e-15,0,0.57928,-0.7378,-1.5106,-1.6745,0.60312,-1.3076,0.86645,0.029417,0,0.14,0
0.024352,0.049657,0.9884,-0.72404,-1.4913,-1.653,0.051866,0,0,1.2076,0.2102,0,0.13485,0,0,0.57831,-0.073423,0,0.5821,-0.72055,-1.4948,-1.653,3.8498,-1.2894,0.86428,0.029448,0.02,0.14,0
0.048306,0.051026,0.97687,-0.72353,-1.4877,-1.6402,0.11097,0,0,1.1917,0.19829,0,0.28852,0,0,0.57149,-0.15458,0,0.59089,-0.70774,-1.5035,-1.6402,8.0975,-1.2838,0.87221,0.031274,0.04,0.14,0
0.072021,0.053373,0.96554,-0.70487,-1.4997,-1.6269,0.18901,0,0,1.1987,0.16534,0,0.49141,0,0,0.5546,-0.25497,0,0.60846,-0.66222,-1.5424,-1.6269,12.717,-1.2772,0.92534,0.039551,0.06,0.14,0
0.096253,0.057221,0.95468,-0.53022,-1.5115,-1.5672,0.24428,0,0,1.3481,0.072364,0,0.63513,0,0,0.45179,-0.39888,0,0.59892,-0.47277,-1.569,-1.5672,13.233,-1.203,1.0953,0.067493,0.08,0.14,0
0.12595,0.056339,0.94747,-0.44919,-1.1446,-1.0196,0.21839,0,0,0.73652,-0.28454,0,1.5049,0,0,0.30244,-0.38239,0,0.51168,-0.36112,-1.2327,-1.0196,26.96,-0.87112,0.79488,0.057507,0.1,0.14,0
0.12571,0.082721,0.9133,-0.35832,-0.43352,-0.36802,0.098918,0,0,0.088277,-0.59599,0,1.8003,0,0,0.22536,-0.0837,0,0.24075,-0.2901,-0.50174,-0.36802,34.594,-0.38662,0.1854,-0.00014329,0.12,0.14,0
0.12948,0.096647,0.88437,-0.32504,-0.41509,-0.34838,0.066098,0,0,0.21234,-0.60708,0,1.203,0,0,0.1984,-0.062683,0,0.20801,-0.29009,-0.45004,-0.34838,27.869,-0.36284,0.14021,-6.3599e-05,0.14,0.14,0
0.13421,0.10437,0.85774,-0.30981,-0.40397,-0.33667,0.045155,0,0,0.24439,-0.61243,0,0.82182,0,0,0.1866,-0.046381,0,0.19221,-0.29166,-0.42212,-0.33667,21.903,-0.35015,0.11478,-3.9351e-05,0.16,0.14,0
0.13925,0.1085,0.83212,-0.30006,-0.39291,-0.32677,0.029868,0,0,0.24303,-0.60193,0,0.5436,0,0,0.18135,-0.033069,0,0.18427,-0.29128,-0.40169,-0.32677,16.377,-0.33991,0.097629,-2.7386e-05,0.18,0.14,0
0.14393,0.10997,0.80697,-0.29499,-0.38293,-0.31866,0.017324,0,0,0.21537,-0.58486,0,0.3153,0,0,0.17901,-0.021476,0,0.18024,-0.2917,-0.38622,-0.31866,10.752,-0.33219,0.084334,-2.0529e-05,0.2,0.14,0
0.14787,0.10937,0.78199,-0.29278,-0.37357,-0.31162,0.0062478,0,0,0.17144,-0.56375,0,0.11371,0,0,0.17852,-0.010627,0,0.17878,-0.2923,-0.37405,-0.31162,4.396,-0.32599,0.074007,-1.6133e-05,0.22,0.14,0
0.15079,0.10698,0.75698,-0.29301,-0.3647,-0.30545,-0.0045368,0,0,0.11326,-0.53915,0,-0.082571,0,0,0.17959,0.00030656,0,0.17953,-0.29272,-0.36498,-0.30545,-3.6066,-0.32105,0.066815,-1.3464e-05,0.24,0.14,0
0.1524,0.1029,0.73171,-0.2961,-0.35622,-0.30023,-0.016131,0,0,0.037584,-0.50958,0,-0.29359,0,0,0.18247,0.01216,0,0.18281,-0.29204,-0.36028,-0.30023,-14.108,-0.31751,0.064535,-1.3059e-05,0.26,0.14,0
0.15229,0.096966,0.70589,-0.30381,-0.34831,-0.29648,-0.029613,0,0,-0.066748,-0.47167,0,-0.53896,0,0,0.18822,0.025946,0,0.18992,-0.28902,-0.3631,-0.29648,-26.541,-0.3162,0.070647,-1.7431e-05,0.28,0.14,0
0.14973,0.088832,0.67901,-0.31781,-0.34021,-0.29441,-0.047042,0,0,-0.21294,-0.41684,0,-0.85617,0,0,0.20035,0.043028,0,0.20484,-0.28065,-0.37737,-0.29441,-38.302,-0.31748,0.090625,-3.5276e-05,0.3,0.14,0
0.14377,0.077095,0.64979,-0.34848,-0.33721,-0.29854,-0.072451,0,0,-0.45452,-0.35195,0,-1.3186,0,0,0.22781,0.065399,0,0.23732,-0.27018,-0.41552,-0.29854,-47.224,-0.32808,0.13344,-0.0001037,0.32,0.14,0
0.13155,0.058003,0.61523,-0.41239,-0.73765,-0.69657,-0.17464,0,0,0.10745,-0.093466,0,-1.1668,0,0,0.31075,0.32335,0,0.47231,-0.30829,-0.84175,-0.69657,-35.848,-0.61554,0.48956,0.011826,0.34,0.14,0
0.14807,0.058762,0.60773,-0.51157,-0.95265,-1.047,-0.20604,0,0,0.69606,0.12265,0,-0.53571,0,0,0.47607,0.30178,0,0.55989,-0.4303,-1.0339,-1.047,-21.527,-0.83707,0.61027,0.011655,0.36,0.14,0
0.15939,0.054692,0.59618,-0.67556,-0.93894,-1.0805,-0.1694,0,0,0.52646,0.18407,0,-0.44045,0,0,0.60179,0.15761,0,0.62044,-0.59269,-1.0218,-1.0805,-26.07,-0.89835,0.4613,0.0047675,0.38,0.14,0
0.16913,0.051356,0.58366,-0.71711,-0.91581,-1.0735,-0.1067,0,0,0.46336,0.20504,0,-0.27742,0,0,0.64495,0.056175,0,0.64653,-0.67067,-0.96226,-1.0735,-23.521,-0.90216,0.36035,0.0016533,0.4,0.14,0
0.17792,0.048726,0.57038,-0.73995,-0.89852,-1.0619,-0.056343,0,0,0.41856,0.21243,0,-0.14649,0,0,0.68315,-0.025499,0,0.68315,-0.72197,-0.9165,-1.0619,-17.7,-0.90013,0.29543,0.00032714,0.42,0.14,0
0.18587,0.04699,0.55634,-0.76001,-0.8853,-1.0499,-0.010917,0,0,0.37689,0.21402,0,-0.028385,0,0,0.72699,-0.097083,0,0.73326,-0.75906,-0.88624,-1.0499,-4.943,-0.89841,0.25256,-0.00017816,0.44,0.14,0
0.193,0.046397,0.5413,-0.78155,-0.87754,-1.039,0.035719,0,0,0.33472,0.20994,0,0.092868,0,0,0.78623,-0.16154,0,0.80298,-0.76972,-0.88937,-1.039,18.329,-0.89938,0.23371,-0.00012557,0.46,0.14,0
0.19926,0.047593,0.52489,-0.81139,-0.86791,-1.0287,0.095538,0,0,0.28247,0.209,0,0.2484,0,0,0.86147,-0.20878,0,0.88757,-0.74002,-0.93928,-1.0287,36.761,-0.90266,0.25595,0.00052041,0.48,0.14,0
0.2043,0.051746,0.50685,-0.86579,-0.81138,-1.01,0.16173,0,0,0.18747,0.2582,0,0.42051,0,0,0.93999,-0.20465,0,0.96278,-0.67458,-1.0026,-1.01,49.774,-0.89572,0.33178,0.0018726,0.5,0.14,0
0.20676,0.058754,0.48729,-0.8936,-0.60283,-0.93622,0.19107,0,0,0.055398,0.4334,0,0.49677,0,0,1.0008,-0.16593,0,1.0146,-0.50813,-0.98831,-0.93622,63.634,-0.81088,0.45637,0.004668,0.52,0.14,0
0.20651,0.065965,0.46681,-0.92883,-0.45064,-0.88065,0.14994,0,0,-0.062634,0.55903,0,0.38984,0,0,1.0333,-0.11157,0,1.0391,-0.40751,-0.97196,-0.88065,73.954,-0.75338,0.52479,0.0066718,0.54,0.14,0
0.20425,0.07141,0.44596,-0.95259,-0.39188,-0.8493,0.10161,0,0,-0.13428,0.59464,0,0.2642,0,0,1.0442,-0.080563,0,1.0472,-0.37404,-0.97044,-0.8493,80.038,-0.73126,0.54601,0.0069929,0.56,0.14,0
0.20114,0.074756,0.42505,-0.94663,-0.35282,-0.81488,0.065031,0,0,-0.17128,0.60069,0,0.16908,0,0,1.0458,-0.060557,0,1.0475,-0.34578,-0.95367,-0.81488,83.823,-0.70478,0.55175,0.0068214,0.58,0.14,0
0.1974,0.076509,0.40412,-0.93911,-0.32654,-0.78382,0.041208,0,0,-0.20188,0.59446,0,0.10714,0,0,1.0463,-0.046637,0,1.0474,-0.32379,-0.94187,-0.78382,86.169,-0.68316,0.55617,0.0064892,0.6,0.14,0
0.19307,0.077033,0.38319,-0.93415,-0.30707,-0.75556,0.025177,0,0,-0.23217,0.58304,0,0.065459,0,0,1.0467,-0.036296,0,1.0474,-0.30606,-0.93516,-0.75556,87.705,-0.66559,0.56128,0.0060458,0.62,0.14,0
0.18812,0.076613,0.36225,-0.93209,-0.29163,-0.72937,0.014097,0,0,-0.26354,0.56906,0,0.036653,0,0,1.0473,-0.028183,0,1.0477,-0.29132,-0.9324,-0.72937,88.74,-0.65103,0.56749,0.0054976,0.64,0.14,0
0.18252,0.075458,0.3413,-0.93225,-0.27875,-0.7046,0.0060976,0,0,-0.29594,0.55361,0,0.015854,0,0,1.048,-0.021487,0,1.0482,-0.27869,-0.9323,-0.7046,89.465,-0.63853,0.57466,0.0048426,0.66,0.14,0
0.17628,0.073723,0.32033,-0.93393,-0.2676,-0.68079,-7.2185e-06,0,0,-0.32908,0.53715,0,-1.8768e-05,0,0,1.0489,-0.015675,0,1.049,-0.2676,-0.93393,-0.68079,-89.999,-0.62744,0.58258,0.0040797,0.68,0.14,0
0.16936,0.071525,0.29935,-0.93664,-0.25773,-0.65766,-0.0050297,0,0,-0.36268,0.5199,0,-0.013077,0,0,1.0499,-0.010355,0,1.0499,-0.2577,-0.93668,-0.65766,-89.576,-0.61734,0.59112,0.0032102,0.7,0.14,0
0.16177,0.068951,0.27834,-0.94004,-0.24887,-0.63501,-0.0095647,0,0,-0.39654,0.50199,0,-0.024868,0,0,1.0509,-0.0052024,0,1.0509,-0.24874,-0.94018,-0.63501,-89.207,-0.60798,0.60018,0.0022372,0.72,0.14,0
0.1535,0.066064,0.25731,-0.94395,-0.24085,-0.61275,-0.014086,0,0,-0.43056,0.48346,0,-0.036623,0,0,1.052,8.3117e-05,0,1.052,-0.24057,-0.94423,-0.61275,-88.853,-0.59918,0.60973,0.0011639,0.74,0.14,0
0.14455,0.062911,0.23626,-0.94825,-0.23363,-0.59082,-0.019009,0,0,-0.46466,0.46435,0,-0.049423,0,0,1.0533,0.0058194,0,1.0533,-0.23312,-0.94876,-0.59082,-88.477,-0.5909,0.61976,-7.0504e-06,0.76,0.14,0
0.13491,0.059524,0.21518,-0.9529,-0.22723,-0.56922,-0.024748,0,0,-0.49879,0.44459,0,-0.064344,0,0,1.0546,0.012386,0,1.0547,-0.22638,-0.95374,-0.56922,-88.049,-0.58311,0.63026,-0.001274,0.78,0.14,0
0.1246,0.055924,0.19407,-0.95777,-0.22183,-0.54795,-0.031772,0,0,-0.53276,0.42396,0,-0.082606,0,0,1.056,0.02029,0,1.0562,-0.22046,-0.95913,-0.54795,-87.533,-0.57585,0.64108,-0.0026348,0.8,0.14,0
0.1136,0.052125,0.17294,-0.96245,-0.21786,-0.52703,-0.040693,0,0,-0.56604,0.40192,0,-0.1058,0,0,1.0575,0.030285,0,1.058,-0.21565,-0.96467,-0.52703,-86.881,-0.56912,0.65174,-0.0040797,0.82,0.14,0
0.10196,0.048133,0.15177,-0.96554,-0.21613,-0.50627,-0.052216,0,0,-0.59705,0.37719,0,-0.13576,0,0,1.0588,0.043611,0,1.0597,-0.21251,-0.96916,-0.50627,-86.033,-0.56265,0.66072,-0.0055637,0.84,0.14,0
0.089722,0.043977,0.13059,-0.96315,-0.21839,-0.48505,-0.067199,0,0,-0.62153,0.34665,0,-0.17472,0,0,1.0589,0.062524,0,1.0607,-0.21237,-0.96916,-0.48505,-84.885,-0.55553,0.66387,-0.0069365,0.86,0.14,0
0.077094,0.039719,0.10942,-0.9419,-0.22608,-0.45981,-0.081825,0,0,-0.62671,0.30384,0,-0.21274,0,0,1.0501,0.091368,0,1.0539,-0.21685,-0.95113,-0.45981,-83.561,-0.5426,0.64792,-0.0076389,0.88,0.14,0
0.064653,0.035985,0.08858,-0.92085,-0.26709,-0.44496,-0.086134,0,0,-0.61865,0.23124,0,-0.22395,0,0,1.0215,0.14092,0,1.0313,-0.25593,-0.93201,-0.44496,-82.619,-0.5443,0.60416,-0.0077007,0.9,0.14,0
0.052348,0.033753,0.068554,-0.89733,-0.2829,-0.42262,-0.059455,0,0,-0.61712,0.18164,0,-0.15458,0,0,0.96837,0.17309,0,0.98431,-0.2772,-0.90303,-0.42262,-84.523,-0.53428,0.56727,-0.0073395,0.92,0.14,0
0.039969,0.033353,0.049845,-0.86027,-0.21644,-0.37286,-0.038031,0,0,-0.63363,0.20334,0,-0.098882,0,0,0.90266,0.17151,0,0.91955,-0.2142,-0.86251,-0.37286,-86.631,-0.48319,0.58533,-0.0078053,0.94,0.14,0
0.027003,0.033709,0.032447,-0.84285,-0.17394,-0.33748,-0.026274,0,0,-0.65697,0.21261,0,-0.068311,0,0,0.84585,0.12263,0,0.85466,-0.17291,-0.84388,-0.33748,-87.754,-0.45143,0.60569,-0.0086352,0.96,0.14,0
0.01369,0.033962,0.016011,-0.82692,-0.14516,-0.30763,-0.015192,0,0,-0.67507,0.21122,0,-0.0395,0,0,0.81119,0.061797,0,0.8132,-0.14482,-0.82726,-0.30763,-88.724,-0.42657,0.61735,-0.0093098,0.98,0.14,0
0,0.034031,0,-0.80057,-0.1129,-0.27404,0.0013298,0,0,-0.68449,0.20948,0,0.0034575,0,0,0.80057,-1.7347e-17,0,0.80016,-0.1129,-0.80057,-0.27404,89.889,-0.39584,0.62293,-0.0096706,1,0.14,0
0,0.052761,1,-0.64995,-1.5542,-1.6612,0.0062085,0,0,1.3147,0.13916,0,0.016142,0,0,0.50806,3.2613e-16,0,0.50732,-0.64991,-1.5542,-1.6612,0.39337,-1.2885,0.9623,0.043865,0,0.16,0
0.026294,0.053084,0.98984,-0.63096,-1.5386,-1.6407,0.048463,0,0,1.3127,0.1327,0,0.126,0,0,0.50291,-0.067483,0,0.50663,-0.62838,-1.5412,-1.6407,3.0476,-1.2701,0.96644,0.044708,0.02,0.16,0
0.052507,0.05404,0.97988,-0.60814,-1.54,-1.6243,0.099841,0,0,1.3211,0.1096,0,0.25959,0,0,0.48501,-0.13983,0,0.5039,-0.59756,-1.5506,-1.6243,6.0472,-1.2575,0.99196,0.049198,0.04,0.16,0
0.079136,0.055503,0.97044,-0.54519,-1.5552,-1.6006,0.14421,0,0,1.372,0.058962,0,0.37495,0,0,0.44139,-0.22222,0,0.49339,-0.52501,-1.5754,-1.6006,7.9688,-1.2336,1.0632,0.061608,0.06,0.16,0
0.10739,0.056114,0.96223,-0.49526,-1.643,-1.6037,0.15624,0,0,1.441,-0.051113,0,0.40622,0,0,0.36034,-0.3183,0,0.48295,-0.47437,-1.6639,-1.6037,7.6147,-1.2473,1.1606,0.079568,0.08,0.16,0
0.13678,0.053656,0.95603,-0.40251,-1.004,-0.96826,0.10452,0,0,0.73988,-0.081336,0,0.89866,0,0,0.27361,-0.20517,0,0.35952,-0.3579,-1.0486,-0.96826,24.647,-0.79159,0.6618,0.042029,0.1,0.16,0
0.13698,0.073763,0.92284,-0.34664,-0.3953,-0.35442,0.070418,0,0,0.070763,-0.37206,0,1.2816,0,0,0.22764,-0.056728,0,0.23486,-0.29647,-0.44547,-0.35442,35.469,-0.36545,0.1301,-4.2241e-05,0.12,0.16,0
0.13961,0.086309,0.89228,-0.32789,-0.39444,-0.34417,0.050532,0,0,0.14816,-0.4575,0,0.91969,0,0,0.21081,-0.049585,0,0.21664,-0.30066,-0.42167,-0.34417,28.317,-0.3555,0.10617,-2.851e-05,0.14,0.16,0
0.14291,0.093692,0.86381,-0.31675,-0.38812,-0.33486,0.035831,0,0,0.16482,-0.48465,0,0.65212,0,0,0.19909,-0.039456,0,0.20296,-0.30187,-0.40301,-0.33486,22.558,-0.34658,0.089335,-2.0494e-05,0.16,0.16,0
0.1462,0.097728,0.83654,-0.30963,-0.38089,-0.32666,0.024296,0,0,0.15499,-0.49348,0,0.44218,0,0,0.19255,-0.029527,0,0.19477,-0.30213,-0.38838,-0.32666,17.145,-0.33906,0.076976,-1.5658e-05,0.18,0.16,0
0.14911,0.099372,0.8099,-0.30518,-0.37275,-0.31908,0.014518,0,0,0.12646,-0.4884,0,0.26422,0,0,0.18941,-0.020108,0,0.19044,-0.30219,-0.37574,-0.31908,11.627,-0.33234,0.066722,-1.2025e-05,0.2,0.16,0
0.15126,0.099119,0.7835,-0.30342,-0.36417,-0.31221,0.0056566,0,0,0.07996,-0.47288,0,0.10295,0,0,0.18871,-0.010965,0,0.18899,-0.3029,-0.36469,-0.31221,5.2744,-0.3266,0.057708,-9.0104e-06,0.22,0.16,0
0.15231,0.09725,0.75706,-0.30423,-0.35515,-0.30597,-0.0028742,0,0,0.015778,-0.44759,0,-0.052311,0,0,0.19017,-0.001731,0,0.19015,-0.30407,-0.35531,-0.30597,-3.2205,-0.32178,0.050322,-6.5136e-06,0.24,0.16,0
0.15189,0.093868,0.73025,-0.30791,-0.3456,-0.30038,-0.011597,0,0,-0.06859,-0.41154,0,-0.21107,0,0,0.19407,0.00797,0,0.1942,-0.30463,-0.34888,-0.30038,-15.805,-0.31796,0.046526,-5.027e-06,0.26,0.16,0
0.14956,0.08892,0.70272,-0.31478,-0.33509,-0.29535,-0.021073,0,0,-0.17681,-0.36163,0,-0.38353,0,0,0.20138,0.018405,0,0.20222,-0.30154,-0.34832,-0.29535,-32.136,-0.31507,0.050169,-6.1533e-06,0.28,0.16,0
0.14482,0.082058,0.67387,-0.32598,-0.32356,-0.29113,-0.032046,0,0,-0.31713,-0.29513,0,-0.58323,0,0,0.21398,0.029348,0,0.21607,-0.2927,-0.35684,-0.29113,-46.08,-0.31355,0.064937,-1.4036e-05,0.3,0.16,0
0.13688,0.072391,0.6428,-0.34332,-0.30801,-0.28723,-0.045827,0,0,-0.5104,-0.18916,0,-0.83404,0,0,0.23208,0.037836,0,0.23543,-0.27656,-0.37477,-0.28723,-55.532,-0.31285,0.09334,-3.9931e-05,0.32,0.16,0
0.1244,0.058302,0.60889,-0.38342,-0.63255,-0.65273,-0.068742,0,0,0.082728,0.045895,0,-0.59011,0,0,0.28392,0.13678,0,0.32677,-0.32672,-0.68926,-0.65273,-35.353,-0.55624,0.36205,0.0057222,0.34,0.16,0
0.14019,0.059004,0.60237,-0.47853,-1.0503,-1.061,-0.11299,0,0,0.75724,0.013944,0,-0.29376,0,0,0.38549,0.19946,0,0.43808,-0.45701,-1.0718,-1.061,-10.782,-0.86328,0.60948,0.011616,0.36,0.16,0
0.15469,0.057221,0.59347,-0.5351,-0.98549,-1.0496,-0.10684,0,0,0.66891,0.083399,0,-0.2778,0,0,0.48737,0.10215,0,0.49765,-0.51104,-1.0095,-1.0496,-12.691,-0.85674,0.51972,0.0070654,0.38,0.16,0
0.16694,0.054563,0.58288,-0.61396,-0.96201,-1.0557,-0.070555,0,0,0.57423,0.12175,0,-0.18344,0,0,0.55529,0.015477,0,0.55497,-0.6002,-0.97577,-1.0557,-11.034,-0.87721,0.42124,0.0033782,0.4,0.16,0
0.17766,0.052307,0.57125,-0.66732,-0.94351,-1.0545,-0.024227,0,0,0.50333,0.1443,0,-0.062989,0,0,0.60369,-0.064128,0,0.60658,-0.66522,-0.94561,-1.0545,-4.9753,-0.88845,0.34787,0.0014694,0.42,0.16,0
0.18708,0.050752,0.55873,-0.71583,-0.93244,-1.0532,0.022415,0,0,0.4386,0.15701,0,0.058279,0,0,0.65146,-0.14277,0,0.66649,-0.71354,-0.93474,-1.0532,5.8465,-0.9005,0.29862,0.00067786,0.44,0.16,0
0.1952,0.050127,0.5452,-0.76201,-0.92723,-1.052,0.073663,0,0,0.37694,0.16216,0,0.19152,0,0,0.71762,-0.22702,0,0.75244,-0.73394,-0.9553,-1.052,20.862,-0.91374,0.28239,0.00071627,0.46,0.16,0
0.20215,0.051203,0.53003,-0.82824,-0.95215,-1.0641,0.14507,0,0,0.30667,0.14559,0,0.37718,0,0,0.8362,-0.32404,0,0.89854,-0.73245,-1.0479,-1.0641,33.437,-0.94818,0.3239,0.0017305,0.48,0.16,0
0.20747,0.056206,0.51175,-0.91622,-0.9273,-1.0648,0.25616,0,0,0.19316,0.17875,0,0.66601,0,0,0.97296,-0.37895,0,1.0488,-0.66554,-1.178,-1.0648,44.381,-0.96944,0.46627,0.0041903,0.5,0.16,0
0.20988,0.067862,0.49111,-0.89811,-0.45591,-0.89732,0.22235,0,0,-0.0010355,0.57383,0,0.57811,0,0,1.0661,-0.16716,0,1.0767,-0.36344,-0.99058,-0.89732,67.419,-0.75045,0.5861,0.0094637,0.52,0.16,0
0.20743,0.077954,0.4691,-0.98776,-0.41086,-0.88869,0.14443,0,0,-0.12879,0.62118,0,0.37551,0,0,1.0881,-0.10699,0,1.0932,-0.37672,-1.0219,-0.88869,76.701,-0.76244,0.58996,0.0087607,0.54,0.16,0
0.20473,0.083695,0.44758,-0.94913,-0.36,-0.84032,0.085297,0,0,-0.14145,0.62442,0,0.22177,0,0,1.0711,-0.076543,0,1.0738,-0.3479,-0.96123,-0.84032,81.925,-0.71648,0.56271,0.0077459,0.56,0.16,0
0.20177,0.086984,0.42626,-0.9253,-0.33099,-0.80315,0.055598,0,0,-0.15879,0.61381,0,0.14456,0,0,1.0631,-0.058016,0,1.0646,-0.32583,-0.93045,-0.80315,84.701,-0.68648,0.55209,0.0071178,0.58,0.16,0
0.19838,0.088504,0.40506,-0.9141,-0.31122,-0.77265,0.037225,0,0,-0.18388,0.59987,0,0.096785,0,0,1.0584,-0.04526,0,1.0594,-0.30893,-0.91639,-0.77265,86.48,-0.66599,0.54987,0.0066125,0.6,0.16,0
0.19442,0.088745,0.38393,-0.91076,-0.29615,-0.746,0.025204,0,0,-0.21419,0.5848,0,0.065529,0,0,1.0559,-0.03574,0,1.0565,-0.29512,-0.91179,-0.746,87.656,-0.65097,0.55275,0.0061154,0.62,0.16,0
0.18981,0.088016,0.36283,-0.91186,-0.2836,-0.72146,0.016701,0,0,-0.24752,0.56922,0,0.043421,0,0,1.0546,-0.028195,0,1.055,-0.28316,-0.9123,-0.72146,88.478,-0.63898,0.55873,0.0055624,0.64,0.16,0
0.18451,0.086539,0.34174,-0.9155,-0.27258,-0.69816,0.010318,0,0,-0.28253,0.55326,0,0.026828,0,0,1.0542,-0.021899,0,1.0545,-0.27242,-0.91566,-0.69816,89.081,-0.62875,0.56671,0.0049207,0.66,0.16,0
0.17851,0.084472,0.32066,-0.92058,-0.26258,-0.6756,0.0052087,0,0,-0.31847,0.53693,0,0.013543,0,0,1.0544,-0.01638,0,1.0545,-0.26254,-0.92062,-0.6756,89.546,-0.61959,0.57608,0.0041746,0.68,0.16,0
0.17178,0.081932,0.29956,-0.92651,-0.25332,-0.65351,0.00081208,0,0,-0.35489,0.52024,0,0.0021114,0,0,1.0551,-0.011293,0,1.0551,-0.25332,-0.92651,-0.65351,89.931,-0.61111,0.58645,0.0033173,0.7,0.16,0
0.16431,0.079007,0.27845,-0.93298,-0.24466,-0.63175,-0.0032844,0,0,-0.39161,0.50322,0,-0.0085393,0,0,1.0561,-0.0063518,0,1.0561,-0.24464,-0.933,-0.63175,-89.727,-0.60313,0.59768,0.0023464,0.72,0.16,0
0.15611,0.075762,0.25732,-0.93992,-0.23648,-0.61024,-0.0074186,0,0,-0.42859,0.48589,0,-0.019288,0,0,1.0575,-0.0012889,0,1.0575,-0.23641,-0.94,-0.61024,-89.396,-0.59555,0.60973,0.0012602,0.74,0.16,0
0.14717,0.072243,0.23615,-0.9474,-0.22878,-0.58901,-0.011903,0,0,-0.46591,0.4683,0,-0.030949,0,0,1.0594,0.0041787,0,1.0594,-0.22858,-0.9476,-0.58901,-89.051,-0.58839,0.62269,5.4816e-05,0.76,0.16,0
0.13748,0.068482,0.21494,-0.95563,-0.22156,-0.5681,-0.017075,0,0,-0.50379,0.4505,0,-0.044394,0,0,1.0617,0.01039,0,1.0618,-0.22116,-0.95603,-0.5681,-88.668,-0.58176,0.63674,-0.0012785,0.78,0.16,0
0.12702,0.064499,0.19368,-0.96501,-0.21496,-0.54767,-0.023368,0,0,-0.54254,0.43253,0,-0.060756,0,0,1.0649,0.017803,0,1.0651,-0.21423,-0.96574,-0.54767,-88.217,-0.57588,0.65219,-0.0027575,0.8,0.16,0
0.11577,0.060298,0.17235,-0.97611,-0.2093,-0.52797,-0.031434,0,0,-0.58258,0.41428,0,-0.081729,0,0,1.0692,0.027108,0,1.0695,-0.20801,-0.9774,-0.52797,-87.656,-0.57113,0.66945,-0.0044143,0.82,0.16,0
0.10371,0.055872,0.15091,-0.9897,-0.20532,-0.50942,-0.042511,0,0,-0.62436,0.39533,0,-0.11053,0,0,1.0753,0.039496,0,1.076,-0.20302,-0.99199,-0.50942,-86.907,-0.56815,0.68892,-0.0063014,0.84,0.16,0
0.090799,0.051179,0.12934,-1.0057,-0.20439,-0.49235,-0.058544,0,0,-0.66731,0.37435,0,-0.15221,0,0,1.0842,0.057317,0,1.0857,-0.20014,-1.0099,-0.49235,-85.843,-0.56747,0.71029,-0.0084651,0.86,0.16,0
0.077021,0.046192,0.10755,-1.0177,-0.20941,-0.47568,-0.086015,0,0,-0.70462,0.34614,0,-0.22364,0,0,1.1008,0.086218,0,1.1041,-0.20036,-1.0267,-0.47568,-83.992,-0.56759,0.72883,-0.010746,0.88,0.16,0
0.062614,0.040616,0.085303,-0.95076,-0.20197,-0.43112,-0.11326,0,0,-0.67553,0.2979,0,-0.29447,0,0,1.0791,0.14239,0,1.0864,-0.18521,-0.96752,-0.43112,-81.585,-0.52795,0.69289,-0.010115,0.9,0.16,0
0.05,0.037,0.06438,-0.93624,-0.33846,-0.44679,-0.13487,0,0,-0.63629,0.14083,0,-0.35066,0,0,0.99232,0.33648,0,1.0522,-0.30944,-0.96526,-0.44679,-77.857,-0.57383,0.59907,-0.009116,0.92,0.16,0
0.037163,0.037318,0.04561,-0.86514,-0.2423,-0.37784,-0.083597,0,0,-0.63349,0.17621,0,-0.21735,0,0,0.87086,0.2669,0,0.91158,-0.23128,-0.87617,-0.37784,-82.487,-0.4951,0.58553,-0.0081733,0.94,0.16,0
0.02466,0.037749,0.029546,-0.8073,-0.1973,-0.33093,-0.059624,0,0,-0.61928,0.17371,0,-0.15502,0,0,0.77556,0.16513,0,0.79222,-0.19153,-0.81307,-0.33093,-84.469,-0.44517,0.5649,-0.0073921,0.96,0.16,0
0.012391,0.037879,0.014587,-0.7715,-0.17076,-0.29726,-0.031999,0,0,-0.61651,0.16446,0,-0.083197,0,0,0.73864,0.078968,0,0.74212,-0.16906,-0.7732,-0.29726,-86.96,-0.41317,0.55134,-0.0070633,0.98,0.16,0
0,0.037878,0,-0.74114,-0.14068,-0.26454,-1.0456e-05,0,0,-0.61957,0.16103,0,-2.7185e-05,0,0,0.72937,-1.3878e-17,0,0.72866,-0.14068,-0.74114,-0.26454,-89.999,-0.38212,0.54911,-0.0070666,1,0.16,0
0,0.054801,1,-0.56698,-1.5939,-1.6483,0.0031618,0,0,1.4057,0.070701,0,0.0082206,0,0,0.44508,-9.9226e-16,0,0.44447,-0.56697,-1.5939,-1.6483,0.17641,-1.2697,1.0552,0.059794,0,0.18,0
0.028113,0.054965,0.9911,-0.54748,-1.5809,-1.6296,0.037143,0,0,1.4068,0.063362,0,0.096571,0,0,0.43848,-0.056907,0,0.44157,-0.54614,-1.5822,-1.6296,2.0558,-1.2527,1.0606,0.060852,0.02,0.18,0
0.05627,0.05541,0.98246,-0.52052,-1.5828,-1.6135,0.070765,0,0,1.4208,0.039877,0,0.18399,0,0,0.41676,-0.11512,0,0.43192,-0.51582,-1.5875,-1.6135,3.7946,-1.2389,1.0849,0.06545,0.04,0.18,0
0.084945,0.055731,0.97443,-0.48327,-1.6025,-1.6001,0.091524,0,0,1.4519,-0.0030148,0,0.23796,0,0,0.37613,-0.17393,0,0.41459,-0.47584,-1.6099,-1.6001,4.6443,-1.2286,1.1292,0.073936,0.06,0.18,0
0.11435,0.055177,0.96742,-0.44594,-1.6169,-1.5862,0.085908,0,0,1.4824,-0.03979,0,0.22336,0,0,0.31495,-0.22212,0,0.38683,-0.43966,-1.6231,-1.5862,4.1739,-1.2164,1.1655,0.081032,0.08,0.18,0
0.14424,0.053085,0.96183,-0.37314,-0.95566,-0.94826,0.067879,0,0,0.74942,-0.016834,0,0.6247,0,0,0.25625,-0.14058,0,0.30473,-0.34236,-0.98644,-0.94826,24.13,-0.75902,0.63189,0.04049,0.1,0.18,0
0.14433,0.067839,0.92918,-0.34229,-0.37536,-0.34803,0.05187,0,0,0.052301,-0.24868,0,0.94403,0,0,0.22707,-0.038704,0,0.23044,-0.30438,-0.41327,-0.34803,36.158,-0.35523,0.094912,-1.4718e-05,0.12,0.18,0
0.14633,0.078347,0.89825,-0.32822,-0.37976,-0.34071,0.039349,0,0,0.11373,-0.35531,0,0.71615,0,0,0.21567,-0.037111,0,0.2189,-0.30695,-0.40103,-0.34071,28.389,-0.34956,0.082545,-1.3455e-05,0.14,0.18,0
0.14887,0.084985,0.86879,-0.31953,-0.37697,-0.33306,0.028392,0,0,0.12313,-0.39953,0,0.51673,0,0,0.20666,-0.03192,0,0.20913,-0.30787,-0.38863,-0.33306,22.337,-0.34319,0.071575,-1.1268e-05,0.16,0.18,0
0.15126,0.088765,0.84039,-0.31411,-0.37149,-0.32573,0.019587,0,0,0.10581,-0.4164,0,0.35648,0,0,0.20069,-0.025369,0,0.20228,-0.30806,-0.37754,-0.32573,17.16,-0.33711,0.062546,-9.2651e-06,0.18,0.18,0
0.15311,0.090433,0.8126,-0.31093,-0.36463,-0.31875,0.012141,0,0,0.071192,-0.41745,0,0.22096,0,0,0.19757,-0.018438,0,0.19841,-0.30831,-0.36724,-0.31875,12.166,-0.33143,0.054468,-7.282e-06,0.2,0.18,0
0.15411,0.090451,0.78507,-0.30978,-0.35667,-0.31209,0.0054878,0,0,0.020955,-0.40566,0,0.099878,0,0,0.1969,-0.011391,0,0.19721,-0.30915,-0.3573,-0.31209,6.5882,-0.32618,0.04675,-5.1779e-06,0.22,0.18,0
0.15394,0.089079,0.75747,-0.31077,-0.34775,-0.30577,-0.00075584,0,0,-0.045582,-0.38202,0,-0.013756,0,0,0.19852,-0.0042541,0,0.19855,-0.31076,-0.34776,-0.30577,-1.1707,-0.32143,0.039735,-3.0512e-06,0.24,0.18,0
0.15228,0.08644,0.72948,-0.31399,-0.33776,-0.29974,-0.0068975,0,0,-0.12967,-0.34606,0,-0.12553,0,0,0.20261,0.0029519,0,0.20262,-0.31213,-0.33962,-0.29974,-15.06,-0.31716,0.035356,-1.3656e-06,0.26,0.18,0
0.14876,0.082501,0.70074,-0.31967,-0.32653,-0.29396,-0.013262,0,0,-0.23391,-0.29634,0,-0.24138,0,0,0.20959,0.0099753,0,0.20986,-0.3094,-0.3368,-0.29396,-37.75,-0.31339,0.037574,-1.2571e-06,0.28,0.18,0
0.14293,0.077027,0.67079,-0.32843,-0.31328,-0.28834,-0.020314,0,0,-0.36478,-0.22698,0,-0.36972,0,0,0.21978,0.015859,0,0.22043,-0.29918,-0.34253,-0.28834,-55.22,-0.31002,0.049671,-5.2984e-06,0.3,0.18,0
0.13417,0.069529,0.6392,-0.3419,-0.29559,-0.28256,-0.027658,0,0,-0.53997,-0.11858,0,-0.50338,0,0,0.23265,0.01834,0,0.23349,-0.28268,-0.35481,-0.28256,-64.966,-0.30668,0.072197,-1.9328e-05,0.32,0.18,0
0.12133,0.059839,0.60565,-0.3618,-0.6033,-0.63562,-0.034627,0,0,0.080852,0.073527,0,-0.32949,0,0,0.26719,0.062711,0,0.27919,-0.31589,-0.64921,-0.63562,-37.457,-0.53357,0.34376,0.0052607,0.34,0.18,0
0.1374,0.05932,0.59976,-0.43438,-1.0265,-1.038,-0.040887,0,0,0.78472,0.014996,0,-0.10631,0,0,0.33885,0.0854,0,0.35205,-0.43157,-1.0293,-1.038,-3.9316,-0.83296,0.60213,0.011204,0.36,0.18,0
0.15272,0.058028,0.5921,-0.48039,-1.0257,-1.0439,-0.039408,0,0,0.73258,0.023715,0,-0.10246,0,0,0.4178,0.033755,0,0.41991,-0.47756,-1.0285,-1.0439,-4.1124,-0.84999,0.55881,0.0089394,0.38,0.18,0
0.1667,0.056227,0.58304,-0.53508,-1.0035,-1.0446,-0.016186,0,0,0.66241,0.053415,0,-0.042083,0,0,0.47867,-0.03246,0,0.47956,-0.53452,-1.0041,-1.0446,-1.9765,-0.86108,0.4911,0.0059437,0.4,0.18,0
0.17921,0.054498,0.57295,-0.59176,-0.98882,-1.0471,0.021967,0,0,0.59197,0.07579,0,0.057115,0,0,0.5249,-0.10379,0,0.53453,-0.59055,-0.99004,-1.0471,3.157,-0.8759,0.43088,0.0038664,0.42,0.18,0
0.19038,0.05327,0.56205,-0.64738,-0.98286,-1.0511,0.071041,0,0,0.52486,0.088736,0,0.18471,0,0,0.5641,-0.18307,0,0.59223,-0.63296,-0.99728,-1.0511,11.477,-0.89379,0.39401,0.0029449,0.44,0.18,0
0.20021,0.052883,0.55039,-0.72324,-0.99945,-1.0672,0.13043,0,0,0.44714,0.088065,0,0.33912,0,0,0.60497,-0.28006,0,0.66523,-0.67139,-1.0513,-1.0672,21.682,-0.92996,0.38811,0.0029855,0.46,0.18,0
0.20827,0.053417,0.53785,-0.83553,-1.0588,-1.1061,0.2425,0,0,0.35178,0.06159,0,0.6305,0,0,0.70953,-0.4188,0,0.81876,-0.68019,-1.2141,-1.1061,32.643,-1.0001,0.48895,0.0050308,0.48,0.18,0
0.21428,0.058896,0.522,-0.75071,-0.82669,-0.77151,0.29384,0,0,-0.10463,-0.28159,0,1.7705,0,0,0.59776,-0.38812,0,0.72172,-0.4923,-1.0851,-0.77151,41.844,-0.78297,0.51552,0.00029915,0.5,0.18,0
0.20813,0.081707,0.49397,-0.69841,-0.37443,-0.60412,0.18897,0,0,-0.2145,0.013389,0,1.3073,0,0,0.72728,-0.12427,0,0.7435,-0.26111,-0.81172,-0.60412,54.647,-0.55898,0.49078,0.0080531,0.52,0.18,0
0.2057,0.090812,0.47109,-0.59107,-0.33381,-0.54666,0.090293,0,0,-0.10103,0.0081803,0,0.80163,0,0,0.64222,-0.088941,0,0.65332,-0.27044,-0.65444,-0.54666,56.917,-0.49051,0.35521,0.0042172,0.54,0.18,0
0.20409,0.096387,0.44902,-0.55303,-0.30385,-0.51365,0.062684,0,0,-0.089603,0.0054604,0,0.59876,0,0,0.62465,-0.06681,0,0.63166,-0.25335,-0.60353,-0.51365,57.07,-0.45684,0.32785,0.0037211,0.56,0.18,0
0.20212,0.099308,0.42737,-0.54587,-0.29188,-0.49554,0.044893,0,0,-0.11451,0.0046518,0,0.45642,0,0,0.61548,-0.052574,0,0.62008,-0.25083,-0.58692,-0.49554,57.202,-0.44443,0.31348,0.0034108,0.58,0.18,0
0.19951,0.1005,0.40593,-0.54537,-0.28172,-0.48009,0.033521,0,0,-0.14851,0.0050933,0,0.35572,0,0,0.61063,-0.042156,0,0.61371,-0.24762,-0.57947,-0.48009,57.095,-0.43572,0.30725,0.00322,0.6,0.18,0
0.19617,0.10043,0.38462,-0.54794,-0.27279,-0.466,0.025163,0,0,-0.1864,0.0060936,0,0.27808,0,0,0.60789,-0.034038,0,0.60994,-0.24449,-0.57624,-0.466,56.927,-0.42891,0.30496,0.0030212,0.62,0.18,0
0.19206,0.099382,0.36338,-0.55171,-0.26432,-0.45246,0.018693,0,0,-0.22581,0.0071915,0,0.21568,0,0,0.60637,-0.027391,0,0.60773,-0.2411,-0.57493,-0.45246,56.731,-0.42283,0.30528,0.0027831,0.64,0.18,0
0.18714,0.097588,0.34218,-0.556,-0.25615,-0.43917,0.013411,0,0,-0.26576,0.0081445,0,0.16342,0,0,0.60563,-0.021711,0,0.6065,-0.23755,-0.5746,-0.43917,56.521,-0.41711,0.30743,0.0024893,0.66,0.18,0
0.18143,0.095201,0.32099,-0.56042,-0.24819,-0.426,0.0088915,0,0,-0.30579,0.0088315,0,0.1179,0,0,0.60543,-0.016648,0,0.60595,-0.23388,-0.57473,-0.426,56.271,-0.41154,0.31101,0.0021334,0.68,0.18,0
0.17491,0.092335,0.2998,-0.56483,-0.24038,-0.41288,0.0048276,0,0,-0.34569,0.0092233,0,0.076554,0,0,0.60566,-0.011933,0,0.60593,-0.23016,-0.57505,-0.41288,55.874,-0.40603,0.31579,0.0017132,0.7,0.18,0
0.1676,0.08908,0.27859,-0.5692,-0.23271,-0.39977,0.0009794,0,0,-0.38545,0.0093599,0,0.037317,0,0,0.60624,-0.007335,0,0.60635,-0.22645,-0.57546,-0.39977,-35.093,-0.40056,0.3217,0.0012282,0.72,0.18,0
0.15949,0.0855,0.25736,-0.5736,-0.22515,-0.38669,-0.0028594,0,0,-0.42522,0.0093421,0,-0.0016361,0,0,0.60719,-0.0026342,0,0.6072,-0.2227,-0.57605,-0.38669,-40.368,-0.39515,0.32873,0.00067743,0.74,0.18,0
0.15059,0.081643,0.23609,-0.57818,-0.2177,-0.37367,-0.006885,0,0,-0.46526,0.0093321,0,-0.042035,0,0,0.60854,0.0024008,0,0.60854,-0.21641,-0.57947,-0.37367,-70.544,-0.38985,0.337,5.7878e-05,0.76,0.18,0
0.14088,0.077545,0.21476,-0.5832,-0.21036,-0.36079,-0.011309,0,0,-0.50599,0.0095664,0,-0.085706,0,0,0.6104,0.0080403,0,0.61049,-0.20806,-0.5855,-0.36079,-74.083,-0.38478,0.3467,-0.00063763,0.78,0.18,0
0.13035,0.073225,0.19336,-0.58905,-0.20316,-0.34816,-0.016392,0,0,-0.54804,0.010387,0,-0.13482,0,0,0.61299,0.014634,0,0.61332,-0.19957,-0.59265,-0.34816,-74.613,-0.38012,0.35817,-0.0014241,0.8,0.18,0
0.11896,0.068696,0.17185,-0.5964,-0.19621,-0.33598,-0.022536,0,0,-0.59244,0.012294,0,-0.19242,0,0,0.6167,0.022685,0,0.61751,-0.19098,-0.60162,-0.33598,-74.541,-0.3762,0.37201,-0.0023308,0.82,0.18,0
0.10665,0.063946,0.15019,-0.60664,-0.18994,-0.3248,-0.030376,0,0,-0.6412,0.016065,0,-0.26305,0,0,0.62231,0.033011,0,0.62399,-0.18256,-0.61403,-0.3248,-74.209,-0.37379,0.38933,-0.0034248,0.84,0.18,0
0.093313,0.058951,0.12829,-0.62266,-0.18496,-0.3156,-0.041642,0,0,-0.69857,0.022898,0,-0.35646,0,0,0.63179,0.047101,0,0.63509,-0.17449,-0.63314,-0.3156,-73.636,-0.37441,0.41288,-0.0048607,0.86,0.18,0
0.078711,0.053565,0.10597,-0.65831,-0.18961,-0.31493,-0.058113,0,0,-0.78119,0.034424,0,-0.48236,0,0,0.64868,0.068875,0,0.65506,-0.17476,-0.67315,-0.31493,-73.111,-0.38761,0.44884,-0.0072982,0.88,0.18,0
0.062066,0.047901,0.082885,-0.73733,-0.20391,-0.32973,-0.10289,0,0,-0.92729,0.052382,0,-0.72693,0,0,0.72674,0.10358,0,0.73753,-0.17692,-0.76431,-0.32973,-71.362,-0.42366,0.52985,-0.013234,0.9,0.18,0
0.041619,0.039386,0.055095,-0.65479,-0.32469,-0.32533,-0.17537,0,0,-0.86644,-0.069248,0,-1.0557,0,0,0.59626,0.34725,0,0.69655,-0.24776,-0.73172,-0.32533,-64.368,-0.43494,0.45024,-0.0090922,0.92,0.18,0
0.030526,0.040402,0.039169,-0.76642,-0.28736,-0.35531,-0.1527,0,0,-0.53445,0.088325,0,-0.39703,0,0,0.73132,0.33707,0,0.79919,-0.24283,-0.81096,-0.35531,-73.741,-0.4697,0.52108,-0.0061407,0.94,0.18,0
0.020241,0.040657,0.025842,-0.69599,-0.237,-0.30574,-0.096871,0,0,-0.50733,0.089358,0,-0.25187,0,0,0.65792,0.1929,0,0.68378,-0.2174,-0.7156,-0.30574,-78.558,-0.41291,0.46043,-0.0043976,0.96,0.18,0
0.010233,0.04054,0.012853,-0.66304,-0.20672,-0.27378,-0.048251,0,0,-0.50603,0.087179,0,-0.12545,0,0,0.64606,0.089288,0,0.65102,-0.20167,-0.66808,-0.27378,-84.029,-0.38118,0.43486,-0.0038351,0.98,0.18,0
0,0.040472,0,-0.63915,-0.17947,-0.24559,-0.0013103,0,0,-0.51163,0.08595,0,-0.0034068,0,0,0.64263,6.9389e-18,0,0.6416,-0.17947,-0.63915,-0.24559,-89.837,-0.35474,0.43045,-0.0037726,1,0.18,0
0,0.055589,1,-0.50145,-1.6248,-1.6379,0.00056287,0,0,1.4774,0.016965,0,0.0014635,0,0,0.39425,1.5092e-15,0,0.39382,-0.50145,-1.6248,-1.6379,0.028708,-1.2547,1.13,0.074068,0,0.2,0
0.029547,0.055618,0.99211,-0.48466,-1.6123,-1.6212,0.023829,0,0,1.4775,0.011538,0,0.061955,0,0,0.38778,-0.044607,0,0.38997,-0.48416,-1.6128,-1.6212,1.21,-1.2394,1.1329,0.074665,0.02,0.2,0
0.059101,0.055635,0.98449,-0.4667,-1.6112,-1.6079,0.04318,0,0,1.4835,-0.0043267,0,0.11227,0,0,0.36799,-0.088216,0,0.37826,-0.46507,-1.6128,-1.6079,2.1576,-1.2286,1.1453,0.077147,0.04,0.2,0
0.088887,0.055382,0.9774,-0.44237,-1.6118,-1.5936,0.052009,0,0,1.4967,-0.023571,0,0.13522,0,0,0.33439,-0.12778,0,0.35827,-0.44006,-1.6141,-1.5936,2.5415,-1.2159,1.1639,0.080902,0.06,0.2,0
0.11897,0.054522,0.97111,-0.41853,-1.5994,-1.5765,0.050016,0,0,1.5053,-0.029762,0,0.13004,0,0,0.28825,-0.15784,0,0.32958,-0.41642,-1.6015,-1.5765,2.421,-1.1981,1.1728,0.082718,0.08,0.2,0
0.1491,0.052983,0.96586,-0.36505,-0.94719,-0.94559,0.0445,0,0,0.76285,-0.0036276,0,0.43445,0,0,0.24616,-0.09819,0,0.27293,-0.34423,-0.968,-0.94559,23.248,-0.75261,0.61711,0.040435,0.1,0.2,0
0.14948,0.063816,0.93368,-0.33834,-0.36322,-0.34385,0.038255,0,0,0.050139,-0.17628,0,0.69624,0,0,0.22568,-0.027592,0,0.2274,-0.31056,-0.39101,-0.34385,35.993,-0.34847,0.070019,-5.1673e-06,0.12,0.2,0
0.15111,0.072097,0.90268,-0.32799,-0.36915,-0.33809,0.030416,0,0,0.09195,-0.28257,0,0.55357,0,0,0.2176,-0.02763,0,0.21938,-0.31184,-0.38529,-0.33809,27.96,-0.34508,0.064462,-6.4697e-06,0.14,0.2,0
0.15316,0.077711,0.87275,-0.32073,-0.36851,-0.33145,0.022613,0,0,0.097584,-0.33727,0,0.41155,0,0,0.21083,-0.02527,0,0.21236,-0.31172,-0.37752,-0.33145,21.712,-0.34023,0.058481,-6.4707e-06,0.16,0.2,0
0.15501,0.081072,0.84364,-0.31621,-0.3645,-0.32473,0.015959,0,0,0.077533,-0.36186,0,0.29046,0,0,0.20603,-0.021415,0,0.20714,-0.31142,-0.3693,-0.32473,16.733,-0.33515,0.052505,-5.8525e-06,0.18,0.2,0
0.15626,0.082674,0.81506,-0.31373,-0.35853,-0.31811,0.010406,0,0,0.039925,-0.36779,0,0.18939,0,0,0.20339,-0.016821,0,0.20408,-0.31143,-0.36083,-0.31811,12.458,-0.33012,0.046421,-4.7805e-06,0.2,0.2,0
0.15661,0.082892,0.78669,-0.31298,-0.35114,-0.31162,0.0056172,0,0,-0.012352,-0.35966,0,0.10223,0,0,0.2029,-0.011906,0,0.20323,-0.31217,-0.35195,-0.31162,8.2011,-0.32525,0.040061,-3.3001e-06,0.22,0.2,0
0.15577,0.081969,0.75825,-0.31394,-0.34249,-0.30525,0.0013084,0,0,-0.079039,-0.33892,0,0.023813,0,0,0.20452,-0.0069053,0,0.20463,-0.31388,-0.34255,-0.30525,2.6177,-0.32056,0.033826,-1.5605e-06,0.24,0.2,0
0.15344,0.080026,0.72943,-0.31668,-0.33255,-0.29897,-0.0027548,0,0,-0.16115,-0.30556,0,-0.050138,0,0,0.2083,-0.0020565,0,0.20831,-0.31622,-0.33302,-0.29897,-9.5728,-0.31607,0.029483,2.9774e-08,0.26,0.2,0
0.14932,0.077067,0.69993,-0.32143,-0.32106,-0.29274,-0.0067963,0,0,-0.26114,-0.25773,0,-0.12369,0,0,0.21429,0.0022122,0,0.21433,-0.31445,-0.32804,-0.29274,-45.791,-0.31174,0.030846,5.8094e-07,0.28,0.2,0
0.143,0.072979,0.66943,-0.3287,-0.30726,-0.28642,-0.010856,0,0,-0.38477,-0.18961,0,-0.19757,0,0,0.22235,0.0051118,0,0.22245,-0.30272,-0.33324,-0.28642,-67.324,-0.30746,0.041164,-1.7821e-06,0.3,0.2,0
0.13393,0.067648,0.63767,-0.33869,-0.2891,-0.27943,-0.014258,0,0,-0.53925,-0.08798,0,-0.2595,0,0,0.2319,0.0056487,0,0.23203,-0.28529,-0.3425,-0.27943,-75.049,-0.30241,0.060349,-1.093e-05,0.32,0.2,0
0.12143,0.061243,0.6045,-0.35571,-0.60995,-0.63513,-0.011826,0,0,0.095377,0.057267,0,-0.14316,0,0,0.25691,0.012154,0,0.2585,-0.31682,-0.64885,-0.63513,-40.196,-0.5336,0.34157,0.0056282,0.34,0.2,0
0.13775,0.059604,0.59896,-0.40782,-1.0227,-1.0281,-0.0011419,0,0,0.80637,0.0070764,0,-0.0029688,0,0,0.3095,0.0060687,0,0.31124,-0.40782,-1.0227,-1.0281,-0.10641,-0.81953,0.61758,0.012095,0.36,0.2,0
0.15368,0.058169,0.59211,-0.43885,-1.0403,-1.0359,0.011782,0,0,0.77613,-0.0058007,0,0.030633,0,0,0.36951,-0.028619,0,0.37124,-0.43862,-1.0406,-1.0359,1.1217,-0.83835,0.59961,0.01107,0.38,0.2,0
0.16879,0.0567,0.58418,-0.4762,-1.0367,-1.038,0.032145,0,0,0.73038,0.0017993,0,0.083578,0,0,0.41775,-0.077433,0,0.42478,-0.47436,-1.0385,-1.038,3.272,-0.85029,0.5639,0.0092094,0.4,0.2,0
0.1829,0.055339,0.57541,-0.51322,-1.0288,-1.038,0.06481,0,0,0.68223,0.011961,0,0.16851,0,0,0.45308,-0.13709,0,0.47282,-0.5052,-1.0368,-1.038,7.0559,-0.86002,0.53223,0.007743,0.42,0.2,0
0.19608,0.054302,0.56605,-0.54258,-1.028,-1.0372,0.10898,0,0,0.64304,0.012017,0,0.28335,0,0,0.47519,-0.20883,0,0.51804,-0.51923,-1.0513,-1.0372,12.091,-0.86926,0.52518,0.0074215,0.44,0.2,0
0.20862,0.053649,0.5564,-0.54658,-1.0413,-1.0328,0.16953,0,0,0.63202,-0.011056,0,0.44078,0,0,0.48188,-0.30085,0,0.56621,-0.49405,-1.0938,-1.0328,17.214,-0.87352,0.57166,0.0092269,0.46,0.2,0
0.22136,0.053667,0.54678,-0.41539,-1.058,-0.98881,0.20961,0,0,0.74544,-0.089998,0,0.54499,0,0,0.40378,-0.4351,0,0.58986,-0.35307,-1.1204,-0.98881,16.559,-0.82075,0.71071,0.016328,0.48,0.2,0
0.23844,0.049103,0.54025,-0.35835,-0.82697,-0.66431,0.18703,0,0,0.22239,-0.37005,0,1.2983,0,0,0.27592,-0.39539,0,0.50488,-0.26926,-0.91606,-0.66431,30.253,-0.61654,0.57178,0.012396,0.5,0.2,0
0.23026,0.068397,0.50872,-0.29347,-0.31776,-0.25604,0.089569,0,0,-0.34062,-0.56159,0,1.6302,0,0,0.20777,-0.090499,0,0.227,-0.21523,-0.396,-0.25604,41.14,-0.28909,0.16422,-0.00018095,0.52,0.2,0
0.22481,0.078281,0.48207,-0.2668,-0.30072,-0.23912,0.066075,0,0,-0.25183,-0.56057,0,1.2026,0,0,0.18228,-0.072356,0,0.19609,-0.21554,-0.35198,-0.23912,37.8,-0.26888,0.12631,-9.1451e-05,0.54,0.2,0
0.22018,0.083914,0.45768,-0.25284,-0.29048,-0.22838,0.051597,0,0,-0.22261,-0.56512,0,0.93907,0,0,0.17046,-0.05856,0,0.18019,-0.21674,-0.32658,-0.22838,34.981,-0.25723,0.10451,-5.6185e-05,0.56,0.2,0
0.21591,0.08717,0.43434,-0.2431,-0.28078,-0.21921,0.041168,0,0,-0.21737,-0.56028,0,0.74925,0,0,0.16451,-0.047856,0,0.1713,-0.21667,-0.30722,-0.21921,32.704,-0.2477,0.089303,-3.6477e-05,0.58,0.2,0
0.21149,0.088707,0.41162,-0.2369,-0.27205,-0.21149,0.032947,0,0,-0.23123,-0.55116,0,0.59964,0,0,0.161,-0.039324,0,0.16571,-0.21713,-0.29182,-0.21149,30.959,-0.24015,0.077663,-2.363e-05,0.6,0.2,0
0.20666,0.088988,0.38926,-0.23258,-0.26378,-0.20452,0.026322,0,0,-0.25537,-0.53932,0,0.47906,0,0,0.1588,-0.032317,0,0.16204,-0.21758,-0.27878,-0.20452,29.672,-0.23363,0.068668,-1.4621e-05,0.62,0.2,0
0.20127,0.088304,0.36715,-0.2294,-0.25579,-0.19801,0.020805,0,0,-0.28569,-0.52583,0,0.37865,0,0,0.1574,-0.026388,0,0.15958,-0.21796,-0.26723,-0.19801,28.808,-0.22773,0.061718,-7.9568e-06,0.64,0.2,0
0.19523,0.086865,0.34519,-0.22695,-0.24798,-0.19179,0.016078,0,0,-0.31991,-0.51133,0,0.29263,0,0,0.15652,-0.021213,0,0.15794,-0.21825,-0.25668,-0.19179,28.405,-0.22224,0.05651,-2.8997e-06,0.66,0.2,0
0.18848,0.084825,0.32332,-0.22499,-0.2403,-0.18577,0.0119,0,0,-0.35685,-0.49614,0,0.21658,0,0,0.15605,-0.016536,0,0.15691,-0.21849,-0.24679,-0.18577,28.627,-0.21702,0.052888,9.5079e-07,0.68,0.2,0
0.18096,0.082301,0.3015,-0.22341,-0.2327,-0.1799,0.0080779,0,0,-0.39592,-0.48043,0,0.14702,0,0,0.1559,-0.012145,0,0.15636,-0.21874,-0.23737,-0.1799,30.054,-0.212,0.050784,3.8015e-06,0.7,0.2,0
0.17264,0.079382,0.27967,-0.22216,-0.22516,-0.17415,0.0044501,0,0,-0.43691,-0.46421,0,0.080992,0,0,0.15604,-0.0078516,0,0.15623,-0.21897,-0.22836,-0.17415,35.687,-0.20716,0.050176,5.7291e-06,0.72,0.2,0
0.16348,0.076136,0.25781,-0.22124,-0.21766,-0.1685,0.00087292,0,0,-0.47995,-0.44737,0,0.015887,0,0,0.15647,-0.0034716,0,0.1565,-0.21746,-0.22144,-0.1685,77.001,-0.20247,0.051068,6.7001e-06,0.74,0.2,0
0.15344,0.072616,0.23586,-0.2207,-0.21018,-0.16296,-0.0027877,0,0,-0.52545,-0.42969,0,-0.050737,0,0,0.15723,0.0011868,0,0.15722,-0.20948,-0.22139,-0.16296,-76.041,-0.19794,0.053484,6.5636e-06,0.76,0.2,0
0.14246,0.068865,0.21378,-0.22064,-0.20268,-0.15753,-0.0066646,0,0,-0.57423,-0.41079,0,-0.1213,0,0,0.15838,0.0063397,0,0.15849,-0.20047,-0.22284,-0.15753,-71.71,-0.19362,0.057483,5.0136e-06,0.78,0.2,0
0.13047,0.064914,0.19151,-0.22126,-0.19514,-0.15228,-0.0109,0,0,-0.62772,-0.39003,0,-0.19837,0,0,0.16006,0.012249,0,0.16051,-0.19119,-0.22521,-0.15228,-70.076,-0.18956,0.063207,1.5016e-06,0.8,0.2,0
0.11736,0.06079,0.16897,-0.22293,-0.18755,-0.14728,-0.015655,0,0,-0.68842,-0.36641,0,-0.28492,0,0,0.16253,0.019253,0,0.16364,-0.18161,-0.22886,-0.14728,-69.249,-0.18592,0.070947,-4.953e-06,0.82,0.2,0
0.10294,0.056514,0.14601,-0.22634,-0.17991,-0.14274,-0.021141,0,0,-0.76084,-0.33832,0,-0.38477,0,0,0.16628,0.027822,0,0.16856,-0.17173,-0.23453,-0.14274,-68.839,-0.183,0.081272,-1.621e-05,0.84,0.2,0
0.086922,0.052094,0.12241,-0.23295,-0.17244,-0.1391,-0.027549,0,0,-0.85398,-0.30338,0,-0.50139,0,0,0.17241,0.038646,0,0.17665,-0.16178,-0.24361,-0.1391,-68.839,-0.1815,0.095218,-3.6005e-05,0.86,0.2,0
0.068777,0.047568,0.097731,-0.2446,-0.16516,-0.13689,-0.035325,0,0,-0.98016,-0.25726,0,-0.64292,0,0,0.18428,0.05275,0,0.19165,-0.15172,-0.25804,-0.13689,-69.176,-0.18222,0.11445,-7.2659e-05,0.88,0.2,0
0.047716,0.042711,0.07081,-0.26658,-0.16128,-0.13847,-0.045873,0,0,-1.1658,-0.2075,0,-0.83489,0,0,0.21002,0.071666,0,0.22225,-0.1441,-0.28376,-0.13847,-69.469,-0.18878,0.14256,-0.00014803,0.9,0.2,0
0.022145,0.036116,0.038925,-0.28867,-0.22845,-0.17738,-0.10927,0,0,-0.69262,-0.11619,0,-0.70966,0,0,0.28383,0.33192,0,0.45893,-0.13455,-0.38257,-0.17738,-57.055,-0.2315,0.2306,-0.00063032,0.92,0.2,0
0.020011,0.040851,0.032127,-0.37178,-0.26693,-0.22374,-0.12285,0,0,-0.19245,-0.056152,0,-0.31941,0,0,0.42739,0.32852,0,0.53522,-0.18579,-0.45292,-0.22374,-56.554,-0.28748,0.25033,-0.0007436,0.94,0.2,0
0.014447,0.041323,0.02183,-0.48562,-0.26211,-0.24615,-0.098248,0,0,-0.31131,-0.020747,0,-0.25544,0,0,0.52778,0.18942,0,0.55872,-0.22506,-0.52266,-0.24615,-69.34,-0.33129,0.28764,-0.0012002,0.96,0.2,0
0.0075583,0.041366,0.011016,-0.51776,-0.2453,-0.23994,-0.048954,0,0,-0.36117,-0.0069786,0,-0.12728,0,0,0.54575,0.087884,0,0.55145,-0.23678,-0.52629,-0.23994,-80.117,-0.33433,0.28795,-0.0012257,0.98,0.2,0
0,0.041316,0,-0.51058,-0.22235,-0.21988,-0.0009559,0,0,-0.37791,-0.0032155,0,-0.0024853,0,0,0.5508,-1.0408e-17,0,0.54964,-0.22235,-0.51059,-0.21988,-89.81,-0.31761,0.28948,-0.0012456,1,0.2,0
0,0.055479,1,-0.45543,-1.6454,-1.6302,-0.0010128,0,0,1.5272,-0.019669,0,-0.0026333,0,0,0.35587,6.6787e-16,0,0.35561,-0.45543,-1.6454,-1.6302,-0.048767,-1.2437,1.1825,0.084866,0,0.22,0
0.030545,0.055427,0.99288,-0.4423,-1.6325,-1.6153,0.013315,0,0,1.5249,-0.022312,0,0.03462,0,0,0.35026,-0.032776,0,0.35159,-0.44215,-1.6326,-1.6153,0.6409,-1.23,1.1819,0.084737,0.02,0.22,0
0.060997,0.055237,0.98599,-0.43123,-1.6248,-1.6028,0.023522,0,0,1.5231,-0.028636,0,0.061156,0,0,0.33358,-0.063837,0,0.33961,-0.43077,-1.6253,-1.6028,1.1285,-1.2196,1.1834,0.085025,0.04,0.22,0
0.091467,0.054788,0.97954,-0.41664,-1.6142,-1.5888,0.028237,0,0,1.5238,-0.033027,0,0.073416,0,0,0.30651,-0.090775,0,0.31995,-0.41597,-1.6149,-1.5888,1.35,-1.2065,1.1861,0.085555,0.06,0.22,0
0.12195,0.053986,0.97373,-0.40166,-1.5927,-1.572,0.028998,0,0,1.5215,-0.02683,0,0.075395,0,0,0.2709,-0.11042,0,0.29318,-0.40095,-1.5934,-1.572,1.3939,-1.1888,1.1819,0.084699,0.08,0.22,0
0.15233,0.05294,0.9687,-0.35957,-0.94784,-0.94577,0.029888,0,0,0.77779,-0.0047227,0,0.30275,0,0,0.2392,-0.068463,0,0.25343,-0.34583,-0.96158,-0.94577,22.127,-0.75106,0.61079,0.041277,0.1,0.22,0
0.15306,0.060788,0.93691,-0.33518,-0.3566,-0.34138,0.027668,0,0,0.05638,-0.13849,0,0.50355,0,0,0.22399,-0.019806,0,0.22488,-0.31622,-0.37556,-0.34138,34.422,-0.34438,0.051583,-1.8308e-06,0.12,0.22,0
0.15458,0.067044,0.90599,-0.32699,-0.36178,-0.33606,0.022936,0,0,0.082512,-0.23405,0,0.41743,0,0,0.218,-0.020681,0,0.21899,-0.3156,-0.37317,-0.33606,26.413,-0.34161,0.050547,-3.1592e-06,0.14,0.22,0
0.15636,0.071494,0.87587,-0.32091,-0.36223,-0.33007,0.017701,0,0,0.08333,-0.29271,0,0.32216,0,0,0.21288,-0.019958,0,0.21382,-0.31436,-0.36878,-0.33007,20.294,-0.33774,0.048508,-3.8582e-06,0.16,0.22,0
0.15791,0.07429,0.84638,-0.31692,-0.35934,-0.32379,0.013002,0,0,0.062523,-0.32349,0,0.23663,0,0,0.20914,-0.018073,0,0.20992,-0.31325,-0.363,-0.32379,15.754,-0.33335,0.045412,-3.9506e-06,0.18,0.22,0
0.15886,0.075722,0.81731,-0.31472,-0.3542,-0.31744,0.00909,0,0,0.02466,-0.33454,0,0.16544,0,0,0.20708,-0.015471,0,0.20766,-0.31273,-0.35619,-0.31744,12.365,-0.32879,0.041307,-3.4623e-06,0.2,0.22,0
0.1589,0.076064,0.7884,-0.31409,-0.34738,-0.31107,0.0058687,0,0,-0.027457,-0.33043,0,0.10681,0,0,0.20682,-0.012508,0,0.20719,-0.31308,-0.34838,-0.31107,9.7097,-0.32418,0.036351,-2.4415e-06,0.22,0.22,0
0.15776,0.075522,0.7594,-0.31491,-0.3391,-0.30469,0.0031552,0,0,-0.093025,-0.31315,0,0.057424,0,0,0.20837,-0.0094616,0,0.20859,-0.31451,-0.33951,-0.30469,7.3106,-0.31957,0.031093,-1.0408e-06,0.24,0.22,0
0.15518,0.074218,0.73006,-0.31725,-0.32935,-0.29827,0.00077955,0,0,-0.17267,-0.28282,0,0.014188,0,0,0.21172,-0.0066166,0,0.21183,-0.3172,-0.3294,-0.29827,3.67,-0.31496,0.027167,3.7436e-07,0.26,0.22,0
0.15086,0.072192,0.70012,-0.32125,-0.31788,-0.29176,-0.0013569,0,0,-0.26842,-0.23774,0,-0.024696,0,0,0.21676,-0.0043538,0,0.21682,-0.3174,-0.32173,-0.29176,-70.582,-0.3103,0.028062,1.0445e-06,0.28,0.22,0
0.14444,0.069443,0.66936,-0.3271,-0.30406,-0.28497,-0.003131,0,0,-0.38335,-0.17374,0,-0.056985,0,0,0.22321,-0.0031741,0,0.22327,-0.30365,-0.32752,-0.28497,-82.395,-0.30538,0.036936,-5.4251e-07,0.3,0.22,0
0.13552,0.066009,0.63762,-0.33477,-0.28706,-0.27764,-0.0038937,0,0,-0.51995,-0.085706,0,-0.070866,0,0,0.23058,-0.0036132,0,0.23064,-0.28674,-0.33509,-0.27764,-85.366,-0.29982,0.053485,-7.0972e-06,0.32,0.22,0
0.12365,0.06213,0.6048,-0.34986,-0.62673,-0.63858,0.0028014,0,0,0.12082,0.026951,0,-0.012611,0,0,0.24938,-0.024201,0,0.25177,-0.31565,-0.66094,-0.63858,-43.556,-0.53839,0.34984,0.0064744,0.34,0.22,0
0.14036,0.059603,0.59951,-0.38796,-1.0351,-1.0264,0.023243,0,0,0.83003,-0.011311,0,0.060431,0,0,0.28896,-0.053124,0,0.29481,-0.38712,-1.036,-1.0264,2.0542,-0.81651,0.64414,0.013716,0.36,0.22,0
0.15685,0.057796,0.59324,-0.4065,-1.0558,-1.0319,0.043632,0,0,0.81304,-0.030993,0,0.11344,0,0,0.3343,-0.077523,0,0.3436,-0.40358,-1.0587,-1.0319,3.8275,-0.83139,0.64214,0.013519,0.38,0.22,0
0.17288,0.056299,0.58614,-0.42669,-1.0614,-1.0326,0.064589,0,0,0.78763,-0.037476,0,0.16793,0,0,0.3702,-0.11364,0,0.38718,-0.42019,-1.0679,-1.0326,5.752,-0.84022,0.63079,0.012754,0.4,0.22,0
0.18835,0.054976,0.57843,-0.44266,-1.0618,-1.0298,0.09069,0,0,0.76323,-0.041613,0,0.23579,0,0,0.3935,-0.1601,0,0.42438,-0.42965,-1.0748,-1.0298,8.1644,-0.84473,0.62384,0.012251,0.42,0.22,0
0.20341,0.053751,0.5704,-0.44433,-1.0663,-1.0236,0.12204,0,0,0.75305,-0.055555,0,0.3173,0,0,0.40034,-0.21743,0,0.45482,-0.42124,-1.0894,-1.0236,10.713,-0.84475,0.63782,0.012849,0.44,0.22,0
0.21847,0.052441,0.56242,-0.40968,-1.0817,-1.0098,0.14781,0,0,0.78019,-0.093398,0,0.3843,0,0,0.37871,-0.28825,0,0.47505,-0.37861,-1.1127,-1.0098,11.873,-0.83373,0.68847,0.015505,0.46,0.22,0
0.23461,0.049817,0.55525,-0.38192,-1.1562,-1.0167,0.14615,0,0,0.82521,-0.18138,0,0.37999,0,0,0.31845,-0.37527,0,0.49329,-0.35525,-1.1829,-1.0167,10.341,-0.85161,0.75832,0.018821,0.48,0.22,0
0.25148,0.044094,0.54968,-0.32004,-0.71403,-0.62432,0.095971,0,0,0.23874,-0.20408,0,0.82801,0,0,0.24772,-0.23606,0,0.362,-0.26981,-0.76426,-0.62432,28.283,-0.5528,0.4503,0.009592,0.5,0.22,0
0.24416,0.059243,0.51931,-0.28205,-0.28998,-0.2458,0.067029,0,0,-0.32992,-0.40206,0,1.2199,0,0,0.20831,-0.065116,0,0.21848,-0.21887,-0.35316,-0.2458,43.308,-0.27261,0.12306,-8.0478e-05,0.52,0.22,0
0.23829,0.068389,0.49135,-0.26756,-0.28597,-0.23625,0.052572,0,0,-0.28489,-0.45243,0,0.95681,0,0,0.19249,-0.059449,0,0.20156,-0.22339,-0.33014,-0.23625,40.034,-0.26326,0.10093,-4.9929e-05,0.54,0.22,0
0.23277,0.073782,0.46542,-0.25784,-0.27933,-0.22764,0.042438,0,0,-0.27484,-0.47037,0,0.77238,0,0,0.18066,-0.051037,0,0.18775,-0.22481,-0.31236,-0.22764,37.897,-0.25494,0.086174,-3.2746e-05,0.56,0.22,0
0.22729,0.076897,0.44077,-0.25028,-0.27258,-0.21982,0.034671,0,0,-0.27717,-0.48003,0,0.63101,0,0,0.17311,-0.043135,0,0.17839,-0.22501,-0.29785,-0.21982,36.089,-0.24756,0.075564,-2.1808e-05,0.58,0.22,0
0.22168,0.078458,0.41695,-0.24421,-0.2655,-0.21247,0.028275,0,0,-0.28877,-0.4825,0,0.51461,0,0,0.1682,-0.036217,0,0.17204,-0.22464,-0.28507,-0.21247,34.685,-0.24073,0.067337,-1.3972e-05,0.6,0.22,0
0.21574,0.078853,0.39367,-0.23955,-0.25836,-0.20561,0.022832,0,0,-0.30886,-0.48,0,0.41554,0,0,0.16491,-0.030236,0,0.16765,-0.22426,-0.27365,-0.20561,33.807,-0.23451,0.060892,-8.0336e-06,0.62,0.22,0
0.20933,0.078349,0.37077,-0.23596,-0.25117,-0.19911,0.01813,0,0,-0.33536,-0.47379,0,0.32997,0,0,0.1627,-0.025016,0,0.1646,-0.2239,-0.26322,-0.19911,33.621,-0.22875,0.056002,-3.4307e-06,0.64,0.22,0
0.20233,0.077135,0.34812,-0.23317,-0.24393,-0.19286,0.013995,0,0,-0.36681,-0.46473,0,0.25472,0,0,0.16126,-0.02037,0,0.16253,-0.22356,-0.25355,-0.19286,34.486,-0.22332,0.052554,1.5047e-07,0.66,0.22,0
0.19465,0.075355,0.32562,-0.23102,-0.23664,-0.18682,0.010282,0,0,-0.40228,-0.45339,0,0.18713,0,0,0.16043,-0.01612,0,0.16123,-0.22317,-0.24449,-0.18682,37.361,-0.21816,0.050509,2.8685e-06,0.68,0.22,0
0.18624,0.073118,0.3032,-0.22941,-0.22928,-0.18092,0.0068598,0,0,-0.44124,-0.4401,0,0.12485,0,0,0.1601,-0.012104,0,0.16055,-0.22249,-0.23621,-0.18092,45.261,-0.21321,0.049861,4.7788e-06,0.7,0.22,0
0.177,0.070512,0.28079,-0.2283,-0.22186,-0.17516,0.0036142,0,0,-0.48353,-0.42499,0,0.065778,0,0,0.16023,-0.0081693,0,0.16043,-0.22024,-0.22992,-0.17516,65.835,-0.20844,0.050618,5.8487e-06,0.72,0.22,0
0.16689,0.067605,0.25833,-0.22768,-0.21436,-0.16952,0.00044239,0,0,-0.52931,-0.40808,0,0.0080516,0,0,0.16084,-0.0041646,0,0.16088,-0.21435,-0.2277,-0.16952,88.1,-0.20386,0.052787,5.9562e-06,0.74,0.22,0
0.15583,0.064456,0.23576,-0.22763,-0.20677,-0.164,-0.0027448,0,0,-0.57902,-0.3892,0,-0.049955,0,0,0.16195,6.4731e-05,0,0.16194,-0.20641,-0.22798,-0.164,-82.628,-0.19946,0.056383,4.8728e-06,0.76,0.22,0
0.14373,0.061113,0.21299,-0.22823,-0.19906,-0.15861,-0.0060206,0,0,-0.63352,-0.36805,0,-0.10958,0,0,0.16366,0.0046862,0,0.16372,-0.19787,-0.22943,-0.15861,-78.786,-0.1953,0.061445,2.2253e-06,0.78,0.22,0
0.13049,0.057624,0.18993,-0.22969,-0.19121,-0.1534,-0.0094356,0,0,-0.69423,-0.34404,0,-0.17173,0,0,0.16616,0.0098853,0,0.16645,-0.18902,-0.23188,-0.1534,-76.939,-0.19144,0.068061,-2.5754e-06,0.8,0.22,0
0.11596,0.054039,0.16646,-0.23231,-0.18319,-0.14843,-0.013006,0,0,-0.76333,-0.31628,0,-0.23671,0,0,0.16975,0.015865,0,0.17048,-0.17996,-0.23554,-0.14843,-76.049,-0.18798,0.076396,-1.0461e-05,0.82,0.22,0
0.099958,0.050413,0.1424,-0.23654,-0.17496,-0.14379,-0.016677,0,0,-0.84401,-0.2836,0,-0.30351,0,0,0.17497,0.022824,0,0.17645,-0.17073,-0.24077,-0.14379,-75.78,-0.1851,0.086703,-2.2904e-05,0.84,0.22,0
0.082204,0.046816,0.11747,-0.24279,-0.16643,-0.13955,-0.020317,0,0,-0.93953,-0.2446,0,-0.36977,0,0,0.18288,0.03086,0,0.18548,-0.16136,-0.24786,-0.13955,-75.991,-0.18292,0.099224,-4.2116e-05,0.86,0.22,0
0.062377,0.043275,0.091197,-0.25138,-0.15778,-0.13578,-0.023771,0,0,-1.052,-0.20021,0,-0.43263,0,0,0.19519,0.039593,0,0.19926,-0.15209,-0.25707,-0.13578,-76.537,-0.18165,0.11402,-7.0908e-05,0.88,0.22,0
0.040123,0.039601,0.062818,-0.26213,-0.14874,-0.13223,-0.02766,0,0,-1.1821,-0.15016,0,-0.50342,0,0,0.21192,0.046012,0,0.21712,-0.14235,-0.26852,-0.13223,-76.998,-0.18104,0.13152,-0.00011452,0.9,0.22,0
0.015093,0.034739,0.03186,-0.27339,-0.18442,-0.15555,-0.034176,0,0,-0.68954,-0.065683,0,-0.31073,0,0,0.25636,0.16392,0,0.31828,-0.17012,-0.28769,-0.15555,-69.31,-0.20445,0.1262,-0.00010136,0.92,0.22,0
0.012542,0.038156,0.026029,-0.32971,-0.32457,-0.22231,-0.058013,0,0,-0.13962,-0.13294,0,-0.15083,0,0,0.33987,0.24823,0,0.42327,-0.26907,-0.38521,-0.22231,-46.268,-0.2922,0.14528,-0.00010424,0.94,0.22,0
0.0095089,0.039827,0.018265,-0.35626,-0.29647,-0.21408,-0.056737,0,0,-0.18482,-0.10711,0,-0.14752,0,0,0.41729,0.15642,0,0.44477,-0.26224,-0.3905,-0.21408,-58.891,-0.28894,0.15794,-0.00014075,0.96,0.22,0
0.0051486,0.040261,0.0093373,-0.3954,-0.28193,-0.21254,-0.034094,0,0,-0.23772,-0.090214,0,-0.088644,0,0,0.45664,0.075054,0,0.46174,-0.27248,-0.40486,-0.21254,-74.498,-0.29662,0.17045,-0.00015237,0.98,0.22,0
0,0.040344,0,-0.39535,-0.26242,-0.19733,0.0015844,0,0,-0.25743,-0.08461,0,0.0041195,0,0,0.46686,2.0817e-17,0,0.46585,-0.2624,-0.39537,-0.19733,89.317,-0.28503,0.17484,-0.00015188,1,0.22,0
0,0.054802,1,-0.42584,-1.6571,-1.6249,-0.0014704,0,0,1.5587,-0.041849,0,-0.003823,0,0,0.3287,1.7295e-15,0,0.32857,-0.42583,-1.6571,-1.6249,-0.068424,-1.2359,1.2154,0.092005,0,0.24,0
0.031175,0.054726,0.99343,-0.41511,-1.6434,-1.611,0.006506,0,0,1.5546,-0.042166,0,0.016916,0,0,0.32395,-0.022332,0,0.32463,-0.41508,-1.6435,-1.611,0.30347,-1.2232,1.2125,0.091324,0.02,0.24,0
0.062185,0.05449,0.98704,-0.40877,-1.6316,-1.5992,0.011575,0,0,1.5475,-0.042167,0,0.030095,0,0,0.30999,-0.043213,0,0.31302,-0.40866,-1.6317,-1.5992,0.54229,-1.2132,1.2071,0.090111,0.04,0.24,0
0.093075,0.054061,0.98103,-0.40025,-1.6155,-1.5857,0.014388,0,0,1.5411,-0.038649,0,0.037408,0,0,0.2878,-0.060994,0,0.29443,-0.40008,-1.6156,-1.5857,0.67824,-1.2005,1.2009,0.088762,0.06,0.24,0
0.12383,0.053449,0.97553,-0.39095,-1.5921,-1.5705,0.016605,0,0,1.5334,-0.028194,0,0.043173,0,0,0.25921,-0.073902,0,0.26999,-0.39072,-1.5924,-1.5705,0.79184,-1.1845,1.1908,0.086636,0.08,0.24,0
0.15441,0.052794,0.97066,-0.3558,-0.95163,-0.94689,0.01964,0,0,0.7922,-0.010784,0,0.20443,0,0,0.23408,-0.045966,0,0.24096,-0.34746,-0.95997,-0.94689,20.351,-0.75144,0.60773,0.042265,0.1,0.24,0
0.15552,0.058276,0.93922,-0.33237,-0.35291,-0.33976,0.01925,0,0,0.067209,-0.11966,0,0.35035,0,0,0.22211,-0.013992,0,0.22257,-0.32082,-0.36446,-0.33976,30.963,-0.34168,0.037898,-6.3283e-07,0.12,0.24,0
0.1571,0.062735,0.90847,-0.32559,-0.35714,-0.3346,0.01651,0,0,0.082008,-0.20512,0,0.30049,0,0,0.21744,-0.015399,0,0.218,-0.31853,-0.3642,-0.3346,23.151,-0.33911,0.040127,-1.6146e-06,0.14,0.24,0
0.1588,0.066003,0.87834,-0.32029,-0.35793,-0.32894,0.013306,0,0,0.078748,-0.2638,0,0.24217,0,0,0.21344,-0.015798,0,0.21403,-0.31606,-0.36216,-0.32894,17.63,-0.33572,0.041198,-2.443e-06,0.16,0.24,0
0.16025,0.068132,0.8487,-0.31664,-0.35579,-0.32297,0.010347,0,0,0.057622,-0.29866,0,0.18831,0,0,0.21052,-0.015398,0,0.21108,-0.31408,-0.35836,-0.32297,13.929,-0.3318,0.040573,-2.882e-06,0.18,0.24,0
0.1611,0.069292,0.81939,-0.31455,-0.35136,-0.31683,0.0079311,0,0,0.020779,-0.31427,0,0.14435,0,0,0.20896,-0.014451,0,0.20946,-0.31291,-0.353,-0.31683,11.654,-0.32758,0.038281,-2.7796e-06,0.2,0.24,0
0.16108,0.069675,0.79019,-0.31385,-0.34511,-0.31057,0.006089,0,0,-0.02985,-0.31425,0,0.11082,0,0,0.20891,-0.013195,0,0.20932,-0.31271,-0.34625,-0.31057,10.644,-0.32318,0.034659,-2.1109e-06,0.22,0.24,0
0.15991,0.069443,0.7609,-0.31448,-0.33724,-0.30422,0.0047403,0,0,-0.09338,-0.30055,0,0.086274,0,0,0.21041,-0.011853,0,0.21074,-0.31353,-0.33819,-0.30422,11.304,-0.31865,0.030408,-1.0004e-06,0.24,0.24,0
0.15734,0.068713,0.73128,-0.31642,-0.32779,-0.29773,0.0037948,0,0,-0.17006,-0.27352,0,0.069066,0,0,0.21341,-0.010652,0,0.21368,-0.31527,-0.32894,-0.29773,16.864,-0.31398,0.027095,2.1736e-07,0.26,0.24,0
0.15311,0.067557,0.70114,-0.31973,-0.31654,-0.29104,0.0032261,0,0,-0.26102,-0.23203,0,0.058715,0,0,0.21773,-0.0098627,0,0.21797,-0.31454,-0.32173,-0.29104,58.139,-0.3091,0.027798,8.5899e-07,0.28,0.24,0
0.1469,0.06603,0.67032,-0.32442,-0.30317,-0.28404,0.0031778,0,0,-0.36749,-0.17412,0,0.057836,0,0,0.22309,-0.0097922,0,0.22332,-0.30271,-0.32488,-0.28404,81.674,-0.30388,0.035419,-3.3814e-07,0.3,0.24,0
0.13841,0.064219,0.63868,-0.33032,-0.2874,-0.27656,0.0040641,0,0,-0.48927,-0.098678,0,0.073967,0,0,0.22902,-0.010744,0,0.22929,-0.28702,-0.3307,-0.27656,84.638,-0.29809,0.049748,-5.3927e-06,0.32,0.24,0
0.12733,0.062321,0.60619,-0.34449,-0.64797,-0.64413,0.012652,0,0,0.15219,-0.0087293,0,0.0814,0,0,0.2437,-0.051777,0,0.25205,-0.31395,-0.67851,-0.64413,42.886,-0.54553,0.36284,0.0075206,0.34,0.24,0
0.1445,0.059152,0.60108,-0.37228,-1.057,-1.0299,0.03702,0,0,0.85485,-0.035256,0,0.096252,0,0,0.27433,-0.098222,0,0.292,-0.37029,-1.059,-1.0299,3.0859,-0.81971,0.6746,0.015669,0.36,0.24,0
0.16153,0.05693,0.59522,-0.38119,-1.0741,-1.0318,0.06082,0,0,0.84579,-0.054976,0,0.15813,0,0,0.30899,-0.11501,0,0.32998,-0.37589,-1.0794,-1.0318,4.9785,-0.82903,0.68095,0.01595,0.38,0.24,0
0.17833,0.055201,0.58872,-0.38865,-1.0825,-1.0301,0.080827,0,0,0.83382,-0.068119,0,0.21015,0,0,0.33517,-0.14021,0,0.36328,-0.37936,-1.0917,-1.0301,6.5579,-0.83372,0.68363,0.015959,0.4,0.24,0
0.19488,0.053675,0.58181,-0.39077,-1.0865,-1.025,0.099753,0,0,0.82449,-0.079975,0,0.25936,0,0,0.34929,-0.17311,0,0.38956,-0.37676,-1.1005,-1.025,8.0002,-0.8341,0.68912,0.016129,0.42,0.24,0
0.21131,0.05208,0.57475,-0.38113,-1.0919,-1.0167,0.11487,0,0,0.8262,-0.097843,0,0.29865,0,0,0.34703,-0.21305,0,0.40686,-0.36303,-1.11,-1.0167,8.9554,-0.82991,0.70498,0.016935,0.44,0.24,0
0.22793,0.049913,0.56793,-0.36337,-1.1085,-1.0095,0.11798,0,0,0.83998,-0.12876,0,0.30676,0,0,0.32404,-0.25816,0,0.41429,-0.34513,-1.1268,-1.0095,8.7854,-0.82714,0.73011,0.018262,0.46,0.24,0
0.24491,0.046412,0.56179,-0.34266,-1.1196,-1.0005,0.097789,0,0,0.85514,-0.15484,0,0.25425,0,0,0.27892,-0.29733,0,0.40848,-0.33054,-1.1317,-1.0005,7.065,-0.82089,0.74426,0.018974,0.48,0.24,0
0.26213,0.04094,0.55677,-0.29693,-0.66907,-0.60795,0.070337,0,0,0.2463,-0.13903,0,0.63591,0,0,0.23198,-0.18139,0,0.31153,-0.25652,-0.70948,-0.60795,28.594,-0.52465,0.42135,0.0093703,0.5,0.24,0
0.25476,0.052314,0.52695,-0.27865,-0.27484,-0.24133,0.053126,0,0,-0.33962,-0.30501,0,0.96689,0,0,0.20734,-0.048403,0,0.213,-0.22359,-0.3299,-0.24133,46.025,-0.26494,0.098653,-4.3985e-05,0.52,0.24,0
0.24855,0.060184,0.49872,-0.26768,-0.2755,-0.2342,0.043173,0,0,-0.3047,-0.37581,0,0.78576,0,0,0.19636,-0.047013,0,0.20198,-0.22824,-0.31494,-0.2342,42.415,-0.25912,0.083879,-2.9794e-05,0.54,0.24,0
0.24257,0.065099,0.47197,-0.26004,-0.27146,-0.22687,0.035033,0,0,-0.30184,-0.4057,0,0.63759,0,0,0.18677,-0.042606,0,0.1916,-0.23025,-0.30124,-0.22687,40.374,-0.25279,0.072738,-1.9622e-05,0.56,0.24,0
0.23647,0.067969,0.44642,-0.25401,-0.26606,-0.21979,0.028737,0,0,-0.31133,-0.42101,0,0.52302,0,0,0.17933,-0.037324,0,0.18319,-0.23067,-0.2894,-0.21979,39.078,-0.24662,0.064851,-1.269e-05,0.58,0.24,0
0.23012,0.069407,0.42175,-0.24889,-0.2601,-0.21295,0.023559,0,0,-0.32709,-0.42907,0,0.42878,0,0,0.1739,-0.032154,0,0.17685,-0.23028,-0.27871,-0.21295,38.311,-0.24065,0.059038,-7.5791e-06,0.6,0.24,0
0.22339,0.069788,0.39773,-0.24458,-0.25376,-0.20632,0.019116,0,0,-0.34818,-0.4317,0,0.34791,0,0,0.17,-0.027393,0,0.17219,-0.22951,-0.26883,-0.20632,38.25,-0.23489,0.054732,-3.6141e-06,0.62,0.24,0
0.21619,0.069353,0.37415,-0.24106,-0.24718,-0.19992,0.015217,0,0,-0.37438,-0.43001,0,0.27694,0,0,0.16726,-0.023076,0,0.16884,-0.2286,-0.25964,-0.19992,39.321,-0.22939,0.05173,-4.8711e-07,0.64,0.24,0
0.20842,0.068276,0.3509,-0.23826,-0.24039,-0.19372,0.011745,0,0,-0.40526,-0.42468,0,0.21375,0,0,0.16542,-0.019136,0,0.16652,-0.22753,-0.25112,-0.19372,42.404,-0.22412,0.049967,1.9387e-06,0.66,0.24,0
0.19998,0.06669,0.32784,-0.2361,-0.23342,-0.18769,0.0086046,0,0,-0.44049,-0.41618,0,0.1566,0,0,0.16431,-0.015475,0,0.16503,-0.22605,-0.24347,-0.18769,49.412,-0.21907,0.049427,3.7065e-06,0.68,0.24,0
0.1908,0.064697,0.30489,-0.23454,-0.22629,-0.1818,0.0057095,0,0,-0.47987,-0.40482,0,0.10391,0,0,0.16385,-0.011984,0,0.16428,-0.22337,-0.23746,-0.1818,62.919,-0.21421,0.050117,4.7847e-06,0.7,0.24,0
0.18078,0.062382,0.28196,-0.23356,-0.21899,-0.17604,0.0029806,0,0,-0.52339,-0.39079,0,0.054246,0,0,0.16398,-0.0085548,0,0.1642,-0.2184,-0.23415,-0.17604,78.875,-0.20953,0.052047,5.0702e-06,0.72,0.24,0
0.16986,0.059813,0.25897,-0.23318,-0.21152,-0.17041,0.00035005,0,0,-0.5712,-0.37418,0,0.0063709,0,0,0.16471,-0.0050781,0,0.16478,-0.21152,-0.23318,-0.17041,89.074,-0.20504,0.055228,4.3814e-06,0.74,0.24,0
0.15794,0.057048,0.23584,-0.23343,-0.2039,-0.16489,-0.002233,0,0,-0.62369,-0.35498,0,-0.040641,0,0,0.16608,-0.001443,0,0.16608,-0.20373,-0.23359,-0.16489,-85.7,-0.20074,0.05967,2.4439e-06,0.76,0.24,0
0.14491,0.054143,0.21247,-0.23439,-0.19611,-0.1595,-0.0047944,0,0,-0.68145,-0.33313,0,-0.087258,0,0,0.1682,0.0024625,0,0.16822,-0.19552,-0.23498,-0.1595,-82.968,-0.19667,0.065387,-1.1335e-06,0.78,0.24,0
0.13068,0.051152,0.18875,-0.23617,-0.18815,-0.15426,-0.0073234,0,0,-0.74536,-0.30843,0,-0.13328,0,0,0.17124,0.006745,0,0.17137,-0.18706,-0.23726,-0.15426,-81.518,-0.19286,0.072404,-6.8913e-06,0.8,0.24,0
0.1151,0.048138,0.16452,-0.2389,-0.18002,-0.14918,-0.0097576,0,0,-0.81647,-0.28066,0,-0.17759,0,0,0.17547,0.011482,0,0.17585,-0.17845,-0.24048,-0.14918,-80.831,-0.18937,0.080745,-1.5553e-05,0.82,0.24,0
0.098019,0.04517,0.13961,-0.2427,-0.17171,-0.14427,-0.011981,0,0,-0.89571,-0.24975,0,-0.21805,0,0,0.18127,0.016659,0,0.18205,-0.16975,-0.24466,-0.14427,-80.674,-0.18623,0.090393,-2.8019e-05,0.84,0.24,0
0.07927,0.042311,0.11377,-0.24755,-0.16327,-0.1395,-0.013859,0,0,-0.9833,-0.2163,0,-0.25224,0,0,0.18918,0.022007,0,0.1905,-0.16105,-0.24977,-0.1395,-80.898,-0.18344,0.10124,-4.5256e-05,0.86,0.24,0
0.058687,0.03956,0.086645,-0.25337,-0.15474,-0.13481,-0.015456,0,0,-1.0789,-0.18135,0,-0.28129,0,0,0.19943,0.02658,0,0.20128,-0.15237,-0.25573,-0.13481,-81.299,-0.18097,0.11317,-6.8434e-05,0.88,0.24,0
0.036115,0.036705,0.057926,-0.26089,-0.14594,-0.13032,-0.01682,0,0,-1.1882,-0.14211,0,-0.30612,0,0,0.21141,0.028221,0,0.21339,-0.14353,-0.2633,-0.13032,-81.844,-0.17905,0.12689,-0.00010111,0.9,0.24,0
0.011161,0.033488,0.027451,-0.25983,-0.17982,-0.14758,-0.017067,0,0,-0.68065,-0.073341,0,-0.17632,0,0,0.24016,0.1013,0,0.269,-0.17489,-0.26475,-0.14758,-74.319,-0.19574,0.10939,-6.4192e-05,0.92,0.24,0
0.0088887,0.035534,0.022198,-0.29029,-0.30079,-0.19952,-0.018719,0,0,-0.118,-0.13164,0,-0.04867,0,0,0.29694,0.15553,0,0.33678,-0.2761,-0.31498,-0.19952,-37.17,-0.26353,0.10175,2.869e-05,0.94,0.24,0
0.0064407,0.037039,0.015573,-0.30606,-0.31655,-0.20236,-0.022947,0,0,-0.13481,-0.14846,0,-0.059662,0,0,0.3546,0.11093,0,0.37172,-0.28777,-0.33485,-0.20236,-38.56,-0.27499,0.11633,3.8516e-05,0.96,0.24,0
0.0034962,0.037757,0.0080138,-0.32024,-0.30765,-0.19638,-0.01607,0,0,-0.16102,-0.14465,0,-0.041783,0,0,0.38933,0.055774,0,0.39277,-0.29669,-0.33121,-0.19638,-55.695,-0.27476,0.12131,6.7268e-05,0.98,0.24,0
0,0.037932,0,-0.31741,-0.29239,-0.18294,0.003355,0,0,-0.17481,-0.14228,0,0.008723,0,0,0.40069,8.6736e-18,0,0.40003,-0.29194,-0.31785,-0.18294,82.493,-0.26424,0.124,8.371e-05,1,0.24,0
0,0.053805,1,-0.40844,-1.6625,-1.6213,-0.0012564,0,0,1.5767,-0.05361,0,-0.0032667,0,0,0.3112,1.0916e-15,0,0.31115,-0.40844,-1.6625,-1.6213,-0.057402,-1.2308,1.234,0.096143,0,0.26,0
0.031534,0.05374,0.99378,-0.39917,-1.6486,-1.6081,0.0025308,0,0,1.5716,-0.052665,0,0.0065801,0,0,0.30705,-0.013237,0,0.30732,-0.39916,-1.6486,-1.6081,0.11605,-1.2186,1.2297,0.095157,0.02,0.26,0
0.062865,0.05355,0.98772,-0.39545,-1.6348,-1.5968,0.0047016,0,0,1.5617,-0.049424,0,0.012224,0,0,0.29492,-0.025594,0,0.2961,-0.39543,-1.6348,-1.5968,0.21735,-1.209,1.2208,0.093146,0.04,0.26,0
0.094004,0.053242,0.98198,-0.39032,-1.6168,-1.5841,0.0064415,0,0,1.5519,-0.042501,0,0.016748,0,0,0.27583,-0.03616,0,0.27839,-0.39029,-1.6168,-1.5841,0.30091,-1.1971,1.2105,0.090882,0.06,0.26,0
0.12494,0.052858,0.97669,-0.38417,-1.5941,-1.5702,0.0088149,0,0,1.5418,-0.031128,0,0.022919,0,0,0.25146,-0.044049,0,0.25564,-0.3841,-1.5942,-1.5702,0.41739,-1.1828,1.1983,0.088243,0.08,0.26,0
0.15568,0.052509,0.97192,-0.35286,-0.95551,-0.94789,0.011934,0,0,0.80477,-0.017327,0,0.12635,0,0,0.23016,-0.027751,0,0.23288,-0.34869,-0.95968,-0.94789,17.261,-0.75209,0.606,0.043143,0.1,0.26,0
0.15713,0.056002,0.94082,-0.32986,-0.35096,-0.33865,0.012209,0,0,0.079958,-0.112,0,0.22221,0,0,0.22008,-0.0093413,0,0.22029,-0.32427,-0.35654,-0.33865,24.589,-0.33982,0.028,-2.1153e-07,0.12,0.26,0
0.15887,0.05884,0.9103,-0.32391,-0.35452,-0.33357,0.010837,0,0,0.087933,-0.19063,0,0.19722,0,0,0.21619,-0.011168,0,0.21649,-0.32046,-0.35797,-0.33357,17.649,-0.33733,0.032968,-9.0807e-07,0.14,0.26,0
0.16065,0.060942,0.88029,-0.31909,-0.35542,-0.32811,0.009237,0,0,0.082069,-0.24854,0,0.16811,0,0,0.21288,-0.012446,0,0.21324,-0.31688,-0.35763,-0.32811,13.477,-0.33421,0.036463,-1.7166e-06,0.16,0.26,0
0.16216,0.062344,0.85069,-0.31564,-0.35376,-0.32235,0.00781,0,0,0.061059,-0.28585,0,0.14214,0,0,0.21049,-0.01326,0,0.21091,-0.3141,-0.3553,-0.32235,11.14,-0.33058,0.037755,-2.3257e-06,0.18,0.26,0
0.16309,0.063151,0.82135,-0.31355,-0.34988,-0.31636,0.0067684,0,0,0.025649,-0.30499,0,0.12319,0,0,0.20928,-0.013728,0,0.20973,-0.31233,-0.3511,-0.31636,10.217,-0.3266,0.036921,-2.4808e-06,0.2,0.26,0
0.16318,0.063494,0.79209,-0.31273,-0.34413,-0.31021,0.0061826,0,0,-0.02292,-0.3086,0,0.11252,0,0,0.20941,-0.013973,0,0.20988,-0.31156,-0.3453,-0.31021,10.749,-0.32236,0.034433,-2.086e-06,0.22,0.26,0
0.16218,0.0635,0.76272,-0.31312,-0.3367,-0.3039,0.0060488,0,0,-0.083872,-0.2984,0,0.11009,0,0,0.21091,-0.014119,0,0.21139,-0.31166,-0.33816,-0.3039,13.583,-0.31791,0.031109,-1.2282e-06,0.24,0.26,0
0.15983,0.063277,0.73304,-0.31468,-0.32761,-0.29741,0.0063449,0,0,-0.15719,-0.27484,0,0.11548,0,0,0.21371,-0.014297,0,0.2142,-0.31209,-0.3302,-0.29741,22.232,-0.31323,0.028454,-2.1329e-07,0.26,0.26,0
0.15589,0.062911,0.70288,-0.31739,-0.31674,-0.29065,0.0070754,0,0,-0.24334,-0.23739,0,0.12877,0,0,0.21762,-0.014656,0,0.21813,-0.30998,-0.32415,-0.29065,46.322,-0.30826,0.029124,3.3396e-07,0.28,0.26,0
0.1501,0.062478,0.6721,-0.32117,-0.30391,-0.28354,0.0083158,0,0,-0.34247,-0.18535,0,0.15135,0,0,0.22233,-0.01536,0,0.22288,-0.30055,-0.32453,-0.28354,68.036,-0.30287,0.035666,-6.7328e-07,0.3,0.26,0
0.14219,0.062062,0.64062,-0.32578,-0.28912,-0.27599,0.010247,0,0,-0.45314,-0.11947,0,0.1865,0,0,0.22743,-0.016574,0,0.22805,-0.28645,-0.32845,-0.27599,75.398,-0.29696,0.048096,-4.8156e-06,0.32,0.26,0
0.13197,0.061781,0.60842,-0.33955,-0.66976,-0.65046,0.019147,0,0,0.18518,-0.0439,0,0.14912,0,0,0.23957,-0.073763,0,0.25588,-0.31193,-0.69738,-0.65046,39.429,-0.55326,0.37757,0.0086138,0.34,0.26,0
0.1496,0.058192,0.60344,-0.36028,-1.0826,-1.0363,0.043738,0,0,0.87883,-0.060175,0,0.11372,0,0,0.26457,-0.13397,0,0.29696,-0.35764,-1.0852,-1.0363,3.4526,-0.82639,0.7044,0.017659,0.36,0.26,0
0.16712,0.055597,0.59784,-0.36295,-1.0939,-1.0349,0.067655,0,0,0.87353,-0.076713,0,0.1759,0,0,0.29231,-0.14411,0,0.32611,-0.35674,-1.1001,-1.0349,5.2437,-0.83059,0.71301,0.018093,0.38,0.26,0
0.18454,0.053574,0.59175,-0.36297,-1.1004,-1.0308,0.085657,0,0,0.86812,-0.090521,0,0.22271,0,0,0.3121,-0.15925,0,0.35039,-0.35315,-1.1102,-1.0308,6.5393,-0.83137,0.72062,0.018434,0.4,0.26,0
0.20185,0.051777,0.58536,-0.35895,-1.1027,-1.0239,0.098402,0,0,0.86439,-0.10253,0,0.25585,0,0,0.32067,-0.17897,0,0.36712,-0.34615,-1.1155,-1.0239,7.4104,-0.82851,0.72789,0.018752,0.42,0.26,0
0.21911,0.049837,0.57892,-0.3504,-1.1035,-1.0151,0.10348,0,0,0.86412,-0.11497,0,0.26904,0,0,0.31529,-0.20223,0,0.37449,-0.33644,-1.1175,-1.0151,7.6824,-0.82302,0.73523,0.019084,0.44,0.26,0
0.23641,0.04729,0.57275,-0.33837,-1.1011,-1.0046,0.096291,0,0,0.86609,-0.12549,0,0.25035,0,0,0.29442,-0.22612,0,0.3714,-0.3264,-1.1131,-1.0046,7.0849,-0.81469,0.73845,0.019185,0.46,0.26,0
0.25376,0.043623,0.56715,-0.3255,-1.0872,-0.99096,0.076236,0,0,0.8651,-0.12513,0,0.19821,0,0,0.25917,-0.24561,0,0.35765,-0.31794,-1.0948,-0.99096,5.6597,-0.80122,0.73047,0.018663,0.48,0.26,0
0.27102,0.038533,0.56238,-0.29294,-0.6507,-0.60445,0.054354,0,0,0.24594,-0.10522,0,0.50231,0,0,0.22456,-0.14553,0,0.28158,-0.25877,-0.68487,-0.60445,29.258,-0.51603,0.402,0.0089523,0.5,0.26,0
0.2636,0.047043,0.53287,-0.27737,-0.26446,-0.23867,0.042829,0,0,-0.35212,-0.2347,0,0.77949,0,0,0.20665,-0.037831,0,0.21013,-0.2276,-0.31423,-0.23867,49.283,-0.26017,0.081655,-2.6238e-05,0.52,0.26,0
0.25693,0.053357,0.50452,-0.26891,-0.26717,-0.2329,0.035619,0,0,-0.32771,-0.31188,0,0.64827,0,0,0.19829,-0.037066,0,0.20177,-0.23241,-0.30367,-0.2329,45.699,-0.25633,0.071017,-1.8393e-05,0.54,0.26,0
0.25049,0.057554,0.47735,-0.26215,-0.26507,-0.22636,0.029035,0,0,-0.32569,-0.35227,0,0.52844,0,0,0.19035,-0.034599,0,0.19351,-0.23453,-0.29268,-0.22636,43.56,-0.25119,0.062635,-1.1898e-05,0.56,0.26,0
0.2439,0.060057,0.45122,-0.25676,-0.26086,-0.21975,0.023647,0,0,-0.33684,-0.37413,0,0.43037,0,0,0.18356,-0.031228,0,0.18621,-0.23508,-0.28255,-0.21975,42.524,-0.24579,0.056711,-7.111e-06,0.58,0.26,0
0.23701,0.061295,0.42595,-0.25221,-0.25568,-0.21322,0.019246,0,0,-0.35479,-0.38645,0,0.35029,0,0,0.17813,-0.027613,0,0.18026,-0.23462,-0.27327,-0.21322,42.418,-0.24037,0.052717,-3.5609e-06,0.6,0.26,0
0.22971,0.061585,0.40134,-0.24828,-0.24996,-0.20681,0.015534,0,0,-0.37741,-0.39269,0,0.28272,0,0,0.17399,-0.024083,0,0.17565,-0.23356,-0.26468,-0.20681,43.454,-0.23502,0.050164,-8.4262e-07,0.62,0.26,0
0.22192,0.061149,0.37723,-0.24496,-0.24385,-0.20053,0.012321,0,0,-0.4043,-0.39418,0,0.22424,0,0,0.17095,-0.020751,0,0.17221,-0.23208,-0.25674,-0.20053,46.292,-0.22978,0.048797,1.2524e-06,0.64,0.26,0
0.21354,0.060148,0.35348,-0.24226,-0.23744,-0.19441,0.0094893,0,0,-0.43549,-0.39159,0,0.1727,0,0,0.16886,-0.017623,0,0.16978,-0.23006,-0.24964,-0.19441,52.13,-0.2247,0.048505,2.8063e-06,0.66,0.26,0
0.2045,0.058708,0.32995,-0.24017,-0.23076,-0.18841,0.0069551,0,0,-0.47101,-0.3853,0,0.12658,0,0,0.16758,-0.014659,0,0.16821,-0.22706,-0.24386,-0.18841,62.051,-0.21978,0.049248,3.815e-06,0.68,0.26,0
0.1947,0.056925,0.30655,-0.2387,-0.22382,-0.18255,0.0046481,0,0,-0.51095,-0.37558,0,0.084596,0,0,0.16702,-0.011802,0,0.16743,-0.22249,-0.24003,-0.18255,73.999,-0.21502,0.051024,4.2037e-06,0.7,0.26,0
0.18406,0.05488,0.28319,-0.23784,-0.21665,-0.1768,0.0025081,0,0,-0.55542,-0.36263,0,0.045647,0,0,0.16714,-0.0089872,0,0.16738,-0.21636,-0.23813,-0.1768,83.34,-0.21043,0.053851,3.8288e-06,0.72,0.26,0
0.17248,0.052638,0.25976,-0.2376,-0.20926,-0.17117,0.00048716,0,0,-0.60456,-0.34664,0,0.0088662,0,0,0.16795,-0.006149,0,0.16806,-0.20925,-0.23761,-0.17117,89.016,-0.20601,0.057747,2.4749e-06,0.74,0.26,0
0.15988,0.050256,0.23616,-0.23802,-0.20167,-0.16564,-0.0014445,0,0,-0.6586,-0.32782,0,-0.02629,0,0,0.16949,-0.0032217,0,0.16951,-0.20161,-0.23807,-0.16564,-87.728,-0.20177,0.062728,-1.5099e-07,0.76,0.26,0
0.14614,0.047788,0.2123,-0.23911,-0.1939,-0.16023,-0.0032914,0,0,-0.7178,-0.30636,0,-0.059903,0,0,0.17185,-0.00014429,0,0.17185,-0.19366,-0.23935,-0.16023,-85.858,-0.19775,0.068792,-4.4231e-06,0.78,0.26,0
0.13117,0.045287,0.18804,-0.24091,-0.18598,-0.15493,-0.0050247,0,0,-0.7824,-0.28257,0,-0.091449,0,0,0.17518,0.0031279,0,0.17521,-0.18553,-0.24136,-0.15493,-84.816,-0.19394,0.075911,-1.0794e-05,0.8,0.26,0
0.11484,0.042813,0.16325,-0.24342,-0.17796,-0.14973,-0.0065805,0,0,-0.85252,-0.25685,0,-0.11976,0,0,0.17966,0.0065953,0,0.17979,-0.1773,-0.24407,-0.14973,-84.316,-0.19037,0.084017,-1.9769e-05,0.82,0.26,0
0.097064,0.040424,0.13774,-0.24659,-0.16988,-0.14462,-0.0078774,0,0,-0.92796,-0.22989,0,-0.14337,0,0,0.1855,0.010154,0,0.1858,-0.16908,-0.2474,-0.14462,-84.197,-0.18703,0.092989,-3.1862e-05,0.84,0.26,0
0.077724,0.038164,0.11131,-0.25035,-0.16179,-0.13954,-0.0088817,0,0,-1.0083,-0.20245,0,-0.16165,0,0,0.1928,0.013481,0,0.19331,-0.16091,-0.25123,-0.13954,-84.329,-0.1839,0.10269,-4.7597e-05,0.86,0.26,0
0.05673,0.03602,0.083754,-0.25473,-0.15362,-0.13447,-0.0096301,0,0,-1.0944,-0.17429,0,-0.17527,0,0,0.2014,0.015904,0,0.20208,-0.15271,-0.25564,-0.13447,-84.607,-0.18094,0.11316,-6.7938e-05,0.88,0.26,0
0.03395,0.033917,0.054916,-0.25962,-0.14448,-0.12907,-0.010072,0,0,-1.188,-0.14017,0,-0.18332,0,0,0.21066,0.016563,0,0.21137,-0.1436,-0.26049,-0.12907,-85.038,-0.17772,0.12479,-9.5262e-05,0.9,0.26,0
0.0092122,0.031805,0.024769,-0.2579,-0.18908,-0.14825,-0.0080168,0,0,-0.67265,-0.092892,0,-0.096408,0,0,0.23171,0.059243,0,0.24309,-0.18734,-0.25965,-0.14825,-76.119,-0.19841,0.10553,-4.7728e-05,0.92,0.26,0
0.0070441,0.03289,0.019808,-0.27204,-0.29225,-0.18909,-0.0054436,0,0,-0.10783,-0.1341,0,-0.014153,0,0,0.27353,0.092687,0,0.28994,-0.27067,-0.29362,-0.18909,-14.159,-0.25113,0.095149,3.5715e-05,0.94,0.26,0
0.0048989,0.033889,0.013828,-0.2776,-0.31577,-0.19184,-0.0061706,0,0,-0.11149,-0.16111,0,-0.016043,0,0,0.31753,0.068134,0,0.3251,-0.27663,-0.31674,-0.19184,-8.9583,-0.26173,0.11045,3.9694e-05,0.96,0.26,0
0.0025846,0.034475,0.0071063,-0.282,-0.32029,-0.18779,-0.0053445,0,0,-0.12247,-0.17224,0,-0.013896,0,0,0.3457,0.035654,0,0.34737,-0.28127,-0.32102,-0.18779,-7.7999,-0.26336,0.11846,5.4105e-05,0.98,0.26,0
0,0.034652,0,-0.2746,-0.30939,-0.1752,0.0034054,0,0,-0.12923,-0.17445,0,0.0088542,0,0,0.35531,6.9389e-18,0,0.355,-0.27427,-0.30972,-0.1752,5.5395,-0.25306,0.12076,6.4878e-05,1,0.26,0
0,0.052658,1,-0.40036,-1.6641,-1.6193,-0.00074338,0,0,1.5847,-0.058187,0,-0.0019328,0,0,0.30223,-2.1654e-15,0,0.30222,-0.40035,-1.6641,-1.6193,-0.033704,-1.2279,1.242,0.09796,0,0.28,0
0.031693,0.052619,0.99396,-0.3917,-1.6503,-1.6065,8.2724e-05,0,0,1.5793,-0.056841,0,0.00021508,0,0,0.29835,-0.004997,0,0.29841,-0.3917,-1.6503,-1.6065,0.003766,-1.2162,1.2373,0.096873,0.02,0.28,0
0.063172,0.052513,0.98807,-0.38901,-1.6361,-1.5956,0.00044998,0,0,1.5686,-0.052665,0,0.0011699,0,0,0.28707,-0.0097584,0,0.28732,-0.38901,-1.6361,-1.5956,0.020674,-1.2069,1.2273,0.094609,0.04,0.28,0
0.094436,0.052361,0.98247,-0.3852,-1.6181,-1.5835,0.0013576,0,0,1.5577,-0.045024,0,0.0035297,0,0,0.26935,-0.01406,0,0.26992,-0.3852,-1.6181,-1.5835,0.063089,-1.1956,1.216,0.092084,0.06,0.28,0
0.12548,0.052204,0.97729,-0.38028,-1.5966,-1.5703,0.0032247,0,0,1.5471,-0.034091,0,0.0083843,0,0,0.24681,-0.017709,0,0.24776,-0.38027,-1.5966,-1.5703,0.15191,-1.1824,1.2034,0.089365,0.08,0.28,0
0.15632,0.052101,0.9726,-0.35056,-0.95829,-0.94842,0.0054784,0,0,0.81487,-0.022435,0,0.058643,0,0,0.22716,-0.01175,0,0.22781,-0.34942,-0.95942,-0.94842,10.929,-0.75242,0.60484,0.043775,0.1,0.28,0
0.15808,0.053796,0.94184,-0.32764,-0.35013,-0.33788,0.0059169,0,0,0.093156,-0.11146,0,0.10769,0,0,0.21788,-0.0052958,0,0.21795,-0.32618,-0.35159,-0.33788,13.879,-0.33855,0.022028,-7.4998e-08,0.12,0.28,0
0.16005,0.05511,0.91159,-0.32205,-0.35347,-0.33288,0.0055937,0,0,0.098569,-0.18734,0,0.10181,0,0,0.21434,-0.0075084,0,0.21448,-0.32109,-0.35444,-0.33288,9.7999,-0.33614,0.029292,-6.2096e-07,0.14,0.28,0
0.16202,0.056061,0.88182,-0.31745,-0.35449,-0.32756,0.0053538,0,0,0.091952,-0.24507,0,0.097438,0,0,0.21135,-0.0095655,0,0.21157,-0.31669,-0.35524,-0.32756,8.0627,-0.33316,0.034431,-1.4144e-06,0.16,0.28,0
0.16372,0.056698,0.85242,-0.31407,-0.35313,-0.32193,0.0053065,0,0,0.071552,-0.28388,0,0.096579,0,0,0.20924,-0.011469,0,0.20955,-0.31336,-0.35384,-0.32193,7.6007,-0.32971,0.036943,-2.1271e-06,0.18,0.28,0
0.16488,0.057093,0.82324,-0.31194,-0.34964,-0.31608,0.0055377,0,0,0.037653,-0.30542,0,0.10079,0,0,0.20824,-0.013226,0,0.20866,-0.31115,-0.35044,-0.31608,8.1856,-0.32589,0.037074,-2.4616e-06,0.2,0.28,0
0.16523,0.057331,0.79411,-0.311,-0.34431,-0.31004,0.0061129,0,0,-0.00876,-0.3119,0,0.11125,0,0,0.20852,-0.014851,0,0.20904,-0.30991,-0.3454,-0.31004,10.077,-0.32178,0.035423,-2.2827e-06,0.22,0.28,0
0.16453,0.057507,0.76485,-0.31116,-0.33731,-0.30381,0.0070829,0,0,-0.066958,-0.30486,0,0.12891,0,0,0.21008,-0.016359,0,0.21072,-0.30937,-0.3391,-0.30381,14.225,-0.31743,0.032871,-1.6494e-06,0.24,0.28,0
0.16255,0.057719,0.73528,-0.31239,-0.32865,-0.29735,0.0084826,0,0,-0.13684,-0.28478,0,0.15438,0,0,0.21287,-0.017768,0,0.21361,-0.30877,-0.33226,-0.29735,23.11,-0.31279,0.030834,-8.3956e-07,0.26,0.28,0
0.15906,0.058062,0.70525,-0.31463,-0.3182,-0.2906,0.010324,0,0,-0.21867,-0.2512,0,0.1879,0,0,0.21667,-0.019105,0,0.21752,-0.30594,-0.32689,-0.2906,40.089,-0.30781,0.031557,-4.2629e-07,0.28,0.28,0
0.1538,0.058616,0.67462,-0.31778,-0.30585,-0.28346,0.012589,0,0,-0.3123,-0.20371,0,0.22912,0,0,0.22117,-0.020409,0,0.22212,-0.29788,-0.32575,-0.28346,57.68,-0.30236,0.037231,-1.3731e-06,0.3,0.28,0
0.14657,0.059441,0.64332,-0.32157,-0.29163,-0.27586,0.015228,0,0,-0.41596,-0.14344,0,0.27716,0,0,0.22594,-0.021738,0,0.227,-0.28524,-0.32796,-0.27586,67.258,-0.29635,0.048094,-4.9889e-06,0.32,0.28,0
0.13717,0.060565,0.61135,-0.33537,-0.68973,-0.65687,0.02353,0,0,0.21656,-0.074741,0,0.19978,0,0,0.23695,-0.092675,0,0.26205,-0.30991,-0.71518,-0.65687,36.289,-0.56065,0.39198,0.0096417,0.34,0.28,0
0.15523,0.056745,0.60644,-0.35196,-1.1084,-1.0445,0.046111,0,0,0.90036,-0.082984,0,0.11989,0,0,0.25931,-0.1644,0,0.30736,-0.34916,-1.1112,-1.0445,3.4756,-0.83496,0.73098,0.019499,0.36,0.28,0
0.17318,0.053861,0.60098,-0.35147,-1.1135,-1.0405,0.068366,0,0,0.8957,-0.094944,0,0.17775,0,0,0.28371,-0.16816,0,0.32998,-0.34539,-1.1196,-1.0405,5.0862,-0.83515,0.73783,0.019832,0.38,0.28,0
0.19106,0.05158,0.59509,-0.34821,-1.1153,-1.0341,0.084251,0,0,0.89171,-0.10549,0,0.21905,0,0,0.30031,-0.17362,0,0.34692,-0.33907,-1.1244,-1.0341,6.1946,-0.83255,0.74434,0.020134,0.4,0.28,0
0.20885,0.049573,0.58897,-0.3428,-1.1122,-1.0255,0.093298,0,0,0.88749,-0.1128,0,0.24258,0,0,0.30631,-0.18084,0,0.35569,-0.33165,-1.1234,-1.0255,6.8157,-0.82685,0.74762,0.020226,0.42,0.28,0
0.22656,0.047481,0.58284,-0.33565,-1.1036,-1.0146,0.093785,0,0,0.88265,-0.11565,0,0.24384,0,0,0.29987,-0.18942,0,0.35472,-0.32436,-1.1148,-1.0146,6.8631,-0.81794,0.74544,0.019984,0.44,0.28,0
0.24416,0.044894,0.57697,-0.32766,-1.0872,-1.0014,0.084025,0,0,0.87591,-0.11151,0,0.21846,0,0,0.28066,-0.19816,0,0.34379,-0.31848,-1.0964,-1.0014,6.2378,-0.80544,0.73506,0.019255,0.46,0.28,0
0.26159,0.041407,0.57161,-0.31901,-1.0601,-0.98536,0.064372,0,0,0.86626,-0.097225,0,0.16737,0,0,0.25038,-0.20503,0,0.32411,-0.31346,-1.0657,-0.98536,4.9273,-0.78818,0.71546,0.018013,0.48,0.28,0
0.27881,0.036731,0.56696,-0.29224,-0.63498,-0.60214,0.044142,0,0,0.23805,-0.074706,0,0.40468,0,0,0.22147,-0.11884,0,0.2624,-0.26148,-0.66574,-0.60214,30.675,-0.50979,0.3867,0.0085071,0.5,0.28,0
0.27111,0.042926,0.53754,-0.27836,-0.25766,-0.2376,0.034211,0,0,-0.37095,-0.18259,0,0.62265,0,0,0.20666,-0.029773,0,0.20882,-0.23227,-0.30376,-0.2376,53.416,-0.25788,0.068975,-1.6515e-05,0.52,0.28,0
0.26397,0.047709,0.50909,-0.27091,-0.26051,-0.23215,0.02881,0,0,-0.35263,-0.25809,0,0.52435,0,0,0.19959,-0.02895,0,0.20171,-0.23644,-0.29498,-0.23215,50.111,-0.25452,0.060804,-1.1353e-05,0.54,0.28,0
0.25701,0.051008,0.48166,-0.26459,-0.25964,-0.22608,0.02354,0,0,-0.35048,-0.30543,0,0.42843,0,0,0.19261,-0.027352,0,0.19457,-0.23845,-0.28579,-0.22608,48.002,-0.25011,0.054585,-6.929e-06,0.56,0.28,0
0.24995,0.053004,0.45516,-0.25935,-0.25646,-0.21977,0.018996,0,0,-0.36021,-0.33391,0,0.34573,0,0,0.18632,-0.025253,0,0.18804,-0.23885,-0.27696,-0.21977,47.175,-0.24519,0.050432,-3.5492e-06,0.58,0.28,0
0.2426,0.053949,0.42949,-0.25493,-0.25202,-0.21344,0.015235,0,0,-0.37755,-0.35108,0,0.27728,0,0,0.18105,-0.022923,0,0.18251,-0.23817,-0.26878,-0.21344,47.727,-0.24013,0.048015,-1.039e-06,0.6,0.28,0
0.23485,0.05408,0.40447,-0.25115,-0.24685,-0.20718,0.012122,0,0,-0.4001,-0.36097,0,0.22062,0,0,0.17687,-0.020547,0,0.17806,-0.23669,-0.26131,-0.20718,50.029,-0.23506,0.04694,8.2581e-07,0.62,0.28,0
0.2266,0.053586,0.37996,-0.24794,-0.24117,-0.20101,0.00951,0,0,-0.42703,-0.36543,0,0.17308,0,0,0.17372,-0.01821,0,0.17467,-0.23446,-0.25465,-0.20101,54.795,-0.23004,0.046921,2.189e-06,0.64,0.28,0
0.21776,0.052612,0.35583,-0.24532,-0.2351,-0.19496,0.0072851,0,0,-0.45826,-0.3653,0,0.13259,0,0,0.17151,-0.015941,0,0.17225,-0.23131,-0.24911,-0.19496,62.519,-0.22512,0.047803,3.103e-06,0.66,0.28,0
0.20827,0.051278,0.33194,-0.24329,-0.22868,-0.18901,0.0053603,0,0,-0.49394,-0.36099,0,0.097557,0,0,0.17014,-0.013735,0,0.17069,-0.22692,-0.24505,-0.18901,71.865,-0.22033,0.049526,3.5409e-06,0.68,0.28,0
0.19801,0.049674,0.30819,-0.24188,-0.22194,-0.18317,0.0036661,0,0,-0.53421,-0.3528,0,0.066723,0,0,0.16952,-0.011577,0,0.16991,-0.22129,-0.24253,-0.18317,79.903,-0.21566,0.052093,3.4044e-06,0.7,0.28,0
0.1869,0.047877,0.28448,-0.24109,-0.21491,-0.17744,0.0021466,0,0,-0.57922,-0.34099,0,0.039068,0,0,0.16963,-0.009443,0,0.16989,-0.21474,-0.24127,-0.17744,85.343,-0.21115,0.055536,2.5264e-06,0.72,0.28,0
0.17484,0.045947,0.2607,-0.24094,-0.20762,-0.17181,0.00075973,0,0,-0.62907,-0.32586,0,0.013827,0,0,0.17047,-0.00731,0,0.17063,-0.2076,-0.24095,-0.17181,88.695,-0.20679,0.059894,6.7295e-07,0.74,0.28,0
0.16173,0.043936,0.23674,-0.24142,-0.2001,-0.16628,-0.00052044,0,0,-0.68383,-0.30776,0,-0.0094719,0,0,0.17208,-0.0051543,0,0.17216,-0.20009,-0.24143,-0.16628,-89.279,-0.2026,0.065193,-2.4532e-06,0.76,0.28,0
0.14749,0.041888,0.21251,-0.24254,-0.1924,-0.16084,-0.0017002,0,0,-0.74348,-0.28718,0,-0.030944,0,0,0.17455,-0.0029573,0,0.17458,-0.19234,-0.2426,-0.16084,-88.06,-0.19859,0.071423,-7.2024e-06,0.78,0.28,0
0.132,0.03985,0.18787,-0.24427,-0.18459,-0.1555,-0.002764,0,0,-0.80784,-0.26473,0,-0.050304,0,0,0.17798,-0.00071327,0,0.17799,-0.18446,-0.2444,-0.1555,-87.354,-0.19478,0.078534,-1.3954e-05,0.8,0.28,0
0.11517,0.037864,0.16268,-0.24655,-0.17673,-0.15022,-0.0036778,0,0,-0.87656,-0.24123,0,-0.066936,0,0,0.18249,0.0015532,0,0.18252,-0.17654,-0.24674,-0.15022,-86.993,-0.19117,0.086419,-2.308e-05,0.82,0.28,0
0.096933,0.035974,0.13677,-0.24929,-0.1689,-0.145,-0.0044071,0,0,-0.9491,-0.21753,0,-0.080209,0,0,0.18816,0.0037551,0,0.18822,-0.16866,-0.24954,-0.145,-86.872,-0.18773,0.094944,-3.4923e-05,0.84,0.28,0
0.077208,0.034212,0.10999,-0.25243,-0.16109,-0.13977,-0.0049402,0,0,-1.0252,-0.19401,0,-0.089912,0,0,0.19493,0.0057009,0,0.19505,-0.16082,-0.2527,-0.13977,-86.913,-0.18443,0.10401,-4.9905e-05,0.86,0.28,0
0.055924,0.032589,0.082192,-0.25587,-0.15304,-0.13442,-0.005281,0,0,-1.1053,-0.1695,0,-0.096114,0,0,0.20251,0.0070901,0,0.20268,-0.15277,-0.25614,-0.13442,-87.068,-0.18111,0.11367,-6.8841e-05,0.88,0.28,0
0.032997,0.031098,0.053289,-0.25947,-0.14422,-0.12872,-0.0053164,0,0,-1.1898,-0.14103,0,-0.096757,0,0,0.21032,0.007588,0,0.21049,-0.14397,-0.25971,-0.12872,-87.365,-0.17747,0.12407,-9.3117e-05,0.9,0.28,0
0.0083311,0.029773,0.023304,-0.25727,-0.19588,-0.14926,-0.003915,0,0,-0.66898,-0.10605,0,-0.050115,0,0,0.22742,0.027954,0,0.23052,-0.19411,-0.25903,-0.14926,-63.46,-0.2008,0.10579,-4.194e-05,0.92,0.28,0
0.0062385,0.03017,0.01849,-0.26398,-0.29039,-0.1848,-0.0016934,0,0,-0.10294,-0.13726,0,-0.0044029,0,0,0.26139,0.044105,0,0.26595,-0.26388,-0.2905,-0.1848,-3.6549,-0.24639,0.095216,3.2932e-05,0.94,0.28,0
0.0042136,0.030595,0.012848,-0.26459,-0.31421,-0.18649,-0.0015314,0,0,-0.10153,-0.16603,0,-0.0039816,0,0,0.29757,0.032924,0,0.29976,-0.26454,-0.31425,-0.18649,-1.7662,-0.25509,0.11155,2.659e-05,0.96,0.28,0
0.0021771,0.030868,0.0065876,-0.26405,-0.32406,-0.18302,-0.0014859,0,0,-0.10534,-0.18335,0,-0.0038634,0,0,0.3212,0.017463,0,0.32169,-0.26401,-0.32409,-0.18302,-1.4176,-0.25704,0.12262,2.3991e-05,0.98,0.28,0
0,0.030954,0,-0.25542,-0.31687,-0.17169,0.0016591,0,0,-0.10886,-0.18873,0,0.0043137,0,0,0.32938,5.2042e-18,0,0.32929,-0.25538,-0.31691,-0.17169,1.5456,-0.24799,0.12626,2.6931e-05,1,0.28,0
0,0.051478,1,-0.40012,-1.6628,-1.6189,-0.00022113,0,0,1.5844,-0.057112,0,-0.00057494,0,0,0.30121,-3.1671e-15,0,0.3012,-0.40012,-1.6628,-1.6189,-0.010034,-1.2273,1.2413,0.097819,0,0.3,0
0.031688,0.051466,0.99398,-0.39138,-1.6493,-1.6062,-0.0020403,0,0,1.5793,-0.056072,0,-0.0053047,0,0,0.29729,0.0030038,0,0.29733,-0.39137,-1.6493,-1.6062,-0.092929,-1.2156,1.2369,0.096803,0.02,0.3,0
0.06317,0.051444,0.98811,-0.38837,-1.636,-1.5954,-0.0032744,0,0,1.5692,-0.052751,0,-0.0085134,0,0,0.28586,0.0056089,0,0.28601,-0.38836,-1.636,-1.5954,-0.15037,-1.2066,1.2279,0.094724,0.04,0.3,0
0.094454,0.051442,0.98254,-0.38414,-1.6192,-1.5835,-0.0031869,0,0,1.5592,-0.046304,0,-0.0082858,0,0,0.26787,0.0073681,0,0.26819,-0.38413,-1.6192,-1.5835,-0.14785,-1.1956,1.2176,0.092445,0.06,0.3,0
0.12554,0.051495,0.97739,-0.37884,-1.5987,-1.5707,-0.0019609,0,0,1.5494,-0.036507,0,-0.0050984,0,0,0.24496,0.0078093,0,0.24542,-0.37884,-1.5988,-1.5707,-0.092099,-1.1828,1.2061,0.089951,0.08,0.3,0
0.15643,0.051611,0.97274,-0.34879,-0.95956,-0.94836,-0.00071042,0,0,0.82235,-0.025485,0,-0.006696,0,0,0.22495,0.0037399,0,0.2252,-0.34878,-0.95958,-0.94836,-1.3057,-0.75224,0.60537,0.04412,0.1,0.3,0
0.15843,0.051543,0.94231,-0.3257,-0.3502,-0.33738,-0.00018422,0,0,0.10632,-0.11659,0,-0.0033529,0,0,0.21551,-0.0014008,0,0.21552,-0.3257,-0.3502,-0.33738,-0.43088,-0.33776,0.021223,-3.915e-08,0.12,0.3,0
0.16068,0.051346,0.9124,-0.32006,-0.3538,-0.3325,0.00047957,0,0,0.1132,-0.19384,0,0.0087282,0,0,0.21192,-0.0040078,0,0.21196,-0.32006,-0.35381,-0.3325,0.81415,-0.33546,0.029566,-5.7889e-07,0.14,0.3,0
0.16296,0.051139,0.88297,-0.31544,-0.35501,-0.32727,0.0015346,0,0,0.10767,-0.25239,0,0.02793,0,0,0.20892,-0.0068419,0,0.20903,-0.31538,-0.35507,-0.32727,2.2178,-0.33257,0.035277,-1.4214e-06,0.16,0.3,0
0.16499,0.050989,0.85391,-0.31205,-0.35383,-0.32175,0.0028027,0,0,0.088304,-0.29195,0,0.051009,0,0,0.20683,-0.0098236,0,0.20706,-0.31186,-0.35402,-0.32175,3.8202,-0.32921,0.038188,-2.2265e-06,0.18,0.3,0
0.16649,0.050934,0.82506,-0.30987,-0.35058,-0.316,0.0042359,0,0,0.055761,-0.31466,0,0.077094,0,0,0.2059,-0.012858,0,0.2063,-0.30944,-0.35102,-0.316,5.8784,-0.32549,0.038716,-2.694e-06,0.2,0.3,0
0.16722,0.051018,0.79625,-0.30883,-0.34556,-0.31007,0.0058905,0,0,0.011298,-0.32302,0,0.10721,0,0,0.20628,-0.015849,0,0.20689,-0.3079,-0.34648,-0.31007,8.8898,-0.32149,0.037546,-2.6881e-06,0.22,0.3,0
0.16694,0.051306,0.7673,-0.30881,-0.33897,-0.30395,0.007873,0,0,-0.044255,-0.31867,0,0.14329,0,0,0.208,-0.0187,0,0.20884,-0.30688,-0.3409,-0.30395,13.786,-0.31724,0.035576,-2.2596e-06,0.24,0.3,0
0.16545,0.051886,0.73801,-0.30978,-0.33077,-0.2976,0.010281,0,0,-0.11089,-0.3019,0,0.18712,0,0,0.21097,-0.021315,0,0.21205,-0.30558,-0.33497,-0.2976,22.206,-0.31272,0.034087,-1.6637e-06,0.26,0.3,0
0.16251,0.052863,0.70823,-0.31172,-0.3208,-0.29093,0.013142,0,0,-0.1892,-0.27178,0,0.23918,0,0,0.21498,-0.023592,0,0.21628,-0.30236,-0.33016,-0.29093,35.476,-0.30782,0.034949,-1.4285e-06,0.28,0.3,0
0.15788,0.054329,0.67782,-0.31456,-0.30879,-0.28384,0.016344,0,0,-0.27954,-0.22713,0,0.29746,0,0,0.2197,-0.02544,0,0.22118,-0.29508,-0.32827,-0.28384,49.997,-0.3024,0.040016,-2.436e-06,0.3,0.3,0
0.15133,0.056324,0.64671,-0.31803,-0.29469,-0.2762,0.0196,0,0,-0.38061,-0.16821,0,0.35672,0,0,0.22467,-0.026806,0,0.22628,-0.28354,-0.32917,-0.2762,60.385,-0.2963,0.049703,-5.8449e-06,0.32,0.3,0
0.14266,0.058791,0.61491,-0.33217,-0.70647,-0.66297,0.026937,0,0,0.24425,-0.098954,0,0.24227,0,0,0.23592,-0.11081,0,0.27065,-0.30798,-0.73067,-0.66297,33.601,-0.5672,0.40497,0.010535,0.34,0.3,0
0.1611,0.054873,0.61002,-0.34744,-1.1325,-1.054,0.04658,0,0,0.91852,-0.10203,0,0.12111,0,0,0.25859,-0.19333,0,0.32319,-0.34469,-1.1352,-1.054,3.3838,-0.84464,0.75322,0.021089,0.36,0.3,0
0.1794,0.0518,0.60457,-0.34629,-1.132,-1.048,0.066575,0,0,0.91229,-0.10912,0,0.1731,0,0,0.2831,-0.19048,0,0.34138,-0.34069,-1.1376,-1.048,4.8092,-0.84211,0.75612,0.021156,0.38,0.3,0
0.19759,0.049354,0.59869,-0.34261,-1.1277,-1.0398,0.08071,0,0,0.90631,-0.11424,0,0.20985,0,0,0.29941,-0.1861,0,0.35257,-0.3344,-1.1359,-1.0398,5.8096,-0.83668,0.758,0.021161,0.4,0.3,0
0.21565,0.047265,0.59259,-0.33751,-1.1173,-1.029,0.087721,0,0,0.89898,-0.11473,0,0.22807,0,0,0.30487,-0.18104,0,0.35455,-0.32776,-1.127,-1.029,6.34,-0.82794,0.75505,0.020858,0.42,0.3,0
0.23355,0.045211,0.5865,-0.33172,-1.0995,-1.0159,0.086551,0,0,0.88938,-0.1087,0,0.22503,0,0,0.29797,-0.17611,0,0.34617,-0.32209,-1.1091,-1.0159,6.3529,-0.81568,0.74479,0.020102,0.44,0.3,0
0.25122,0.04283,0.58067,-0.32573,-1.0724,-1.0001,0.076401,0,0,0.87669,-0.093963,0,0.19864,0,0,0.27881,-0.17191,0,0.32779,-0.31799,-1.0801,-1.0001,5.7829,-0.79941,0.72544,0.018806,0.46,0.3,0
0.26861,0.039734,0.57535,-0.31904,-1.0355,-0.9817,0.057002,0,0,0.86147,-0.069919,0,0.14821,0,0,0.24935,-0.16882,0,0.30163,-0.31453,-1.04,-0.9817,4.5207,-0.77874,0.69815,0.017067,0.48,0.3,0
0.28568,0.035545,0.5707,-0.29389,-0.61812,-0.59972,0.035968,0,0,0.22272,-0.041876,0,0.32085,0,0,0.22155,-0.095421,0,0.24935,-0.2648,-0.64721,-0.59972,32.924,-0.50391,0.37169,0.0078988,0.5,0.3,0
0.27752,0.039739,0.5412,-0.281,-0.25272,-0.23743,0.026347,0,0,-0.39649,-0.13916,0,0.47952,0,0,0.20741,-0.022722,0,0.20868,-0.23696,-0.29677,-0.23743,59.11,-0.25705,0.059569,-1.0854e-05,0.52,0.3,0
0.26982,0.043034,0.51262,-0.27373,-0.25544,-0.23198,0.022146,0,0,-0.37987,-0.2135,0,0.40305,0,0,0.20071,-0.021664,0,0.20191,-0.24063,-0.28854,-0.23198,56.215,-0.25372,0.052772,-6.8704e-06,0.54,0.3,0
0.26233,0.045337,0.485,-0.26734,-0.25517,-0.22604,0.018016,0,0,-0.37581,-0.26511,0,0.3279,0,0,0.19405,-0.020595,0,0.19517,-0.24224,-0.28027,-0.22604,54.327,-0.24952,0.048217,-3.6429e-06,0.56,0.3,0
0.25479,0.0467,0.45829,-0.26191,-0.25276,-0.21987,0.014339,0,0,-0.38253,-0.2993,0,0.26097,0,0,0.18799,-0.019463,0,0.18901,-0.24228,-0.27238,-0.21987,53.845,-0.24485,0.045641,-1.2221e-06,0.58,0.3,0
0.24703,0.047252,0.43237,-0.25731,-0.24899,-0.21366,0.011252,0,0,-0.39726,-0.32152,0,0.20479,0,0,0.18283,-0.018247,0,0.18376,-0.24115,-0.26515,-0.21366,55.148,-0.23999,0.044627,5.3626e-07,0.6,0.3,0
0.2389,0.047146,0.4071,-0.25342,-0.24436,-0.20749,0.0087414,0,0,-0.41798,-0.33548,0,0.15909,0,0,0.1787,-0.016952,0,0.17951,-0.23904,-0.25874,-0.20749,58.705,-0.23509,0.044775,1.7887e-06,0.62,0.3,0
0.23031,0.046531,0.38233,-0.25017,-0.23911,-0.2014,0.0067242,0,0,-0.44374,-0.34317,0,0.12238,0,0,0.17556,-0.015594,0,0.17625,-0.23594,-0.25334,-0.2014,64.707,-0.23023,0.045789,2.6373e-06,0.64,0.3,0
0.22115,0.045536,0.35794,-0.24752,-0.23338,-0.1954,0.0051053,0,0,-0.47426,-0.34557,0,0.092916,0,0,0.17334,-0.014191,0,0.17392,-0.23173,-0.24917,-0.1954,72.085,-0.22543,0.047511,3.1108e-06,0.66,0.3,0
0.21134,0.044268,0.3338,-0.2455,-0.22722,-0.1895,0.0037977,0,0,-0.50956,-0.34326,0,0.069117,0,0,0.17194,-0.012763,0,0.17242,-0.22646,-0.24625,-0.1895,78.716,-0.22074,0.049894,3.1635e-06,0.68,0.3,0
0.20077,0.042813,0.30979,-0.2441,-0.22068,-0.18369,0.0027292,0,0,-0.54971,-0.33662,0,0.049671,0,0,0.17131,-0.011326,0,0.17168,-0.22037,-0.24441,-0.18369,83.439,-0.21616,0.052964,2.6785e-06,0.7,0.3,0
0.18935,0.04124,0.28583,-0.24333,-0.2138,-0.17797,0.0018426,0,0,-0.59479,-0.32602,0,0.033535,0,0,0.17141,-0.0098984,0,0.17169,-0.21369,-0.24345,-0.17797,86.444,-0.2117,0.056781,1.4719e-06,0.72,0.3,0
0.17698,0.039604,0.2618,-0.24321,-0.20662,-0.17235,0.0010945,0,0,-0.64482,-0.31185,0,0.019919,0,0,0.17224,-0.0084948,0,0.17244,-0.20658,-0.24324,-0.17235,88.288,-0.20739,0.061406,-7.023e-07,0.74,0.3,0
0.16356,0.037946,0.23761,-0.24371,-0.19919,-0.16681,0.00045384,0,0,-0.69977,-0.29459,0,0.0082599,0,0,0.17384,-0.0071316,0,0.17399,-0.19918,-0.24371,-0.16681,89.416,-0.20323,0.066877,-4.1458e-06,0.76,0.3,0
0.14899,0.036301,0.21313,-0.24483,-0.19157,-0.16137,-9.9203e-05,0,0,-0.75949,-0.27486,0,-0.0018055,0,0,0.17629,-0.0058257,0,0.17639,-0.19157,-0.24483,-0.16137,-89.893,-0.19925,0.073192,-9.1998e-06,0.78,0.3,0
0.13318,0.034698,0.18824,-0.24651,-0.18385,-0.156,-0.00057486,0,0,-0.82365,-0.25343,0,-0.010462,0,0,0.17969,-0.0045954,0,0.17976,-0.18384,-0.24652,-0.156,-89.474,-0.19545,0.080301,-1.6217e-05,0.8,0.3,0
0.11604,0.033163,0.16281,-0.24869,-0.17611,-0.1507,-0.00097484,0,0,-0.89173,-0.23125,0,-0.017742,0,0,0.18413,-0.0034599,0,0.18418,-0.1761,-0.24871,-0.1507,-89.231,-0.19184,0.088096,-2.5524e-05,0.82,0.3,0
0.097507,0.031722,0.13669,-0.25128,-0.16843,-0.14544,-0.001293,0,0,-0.96317,-0.20919,0,-0.023532,0,0,0.18964,-0.0024381,0,0.18968,-0.16841,-0.2513,-0.14544,-89.106,-0.18838,0.096453,-3.7424e-05,0.84,0.3,0
0.077514,0.030403,0.10971,-0.25419,-0.16076,-0.14016,-0.0015141,0,0,-1.0377,-0.18748,0,-0.027557,0,0,0.19613,-0.0015462,0,0.19617,-0.16074,-0.25421,-0.14016,-89.072,-0.18504,0.10529,-5.2308e-05,0.86,0.3,0
0.056,0.02924,0.081769,-0.25731,-0.15287,-0.13473,-0.0016119,0,0,-1.1155,-0.16499,0,-0.029336,0,0,0.20329,-0.00079323,0,0.20333,-0.15284,-0.25734,-0.13473,-89.116,-0.18164,0.11463,-7.0892e-05,0.88,0.3,0
0.032896,0.028275,0.052792,-0.26046,-0.14429,-0.12897,-0.0015472,0,0,-1.1966,-0.13943,0,-0.028159,0,0,0.21056,-0.00017733,0,0.21059,-0.14427,-0.26048,-0.12897,-89.237,-0.17791,0.12457,-9.4252e-05,0.9,0.3,0
0.008136,0.027563,0.022813,-0.25811,-0.1981,-0.1499,-0.0015646,0,0,-0.67124,-0.10966,0,-0.017413,0,0,0.2263,0.0012703,0,0.22683,-0.19588,-0.26033,-0.1499,-53.499,-0.20204,0.10647,-4.1162e-05,0.92,0.3,0
0.0060459,0.027399,0.018043,-0.26259,-0.29011,-0.18385,-0.001963,0,0,-0.10236,-0.13814,0,-0.0051038,0,0,0.25754,0.0023541,0,0.25832,-0.26245,-0.29025,-0.18385,-4.059,-0.24552,0.095579,3.2382e-05,0.94,0.3,0
0.0040418,0.027248,0.012511,-0.26162,-0.31392,-0.18517,-0.0018907,0,0,-0.09938,-0.16737,0,-0.0049158,0,0,0.29089,0.0019229,0,0.29127,-0.26155,-0.31399,-0.18517,-2.0678,-0.25357,0.1122,2.2867e-05,0.96,0.3,0
0.0020707,0.027141,0.0064078,-0.25969,-0.3255,-0.18196,-0.0011338,0,0,-0.10104,-0.18659,0,-0.0029479,0,0,0.31278,0.0010731,0,0.31287,-0.25967,-0.32552,-0.18196,-0.98676,-0.25572,0.12446,1.4112e-05,0.98,0.3,0
0,0.027103,0,-0.25067,-0.31941,-0.17103,-0.00073688,0,0,-0.10354,-0.19291,0,-0.0019159,0,0,0.32039,-3.4694e-18,0,0.32037,-0.25066,-0.31942,-0.17103,-0.61405,-0.24704,0.12863,1.3828e-05,1,0.3,0
0,0.050373,1,-0.40772,-1.6585,-1.6199,5.6802e-05,0,0,1.5758,-0.050232,0,0.00014769,0,0,0.30823,1.5751e-15,0,0.30819,-0.40772,-1.6585,-1.6199,0.002602,-1.2287,1.2319,0.095704,0,0.32,0
0.031516,0.050376,0.99384,-0.39817,-1.6455,-1.607,-0.0049295,0,0,1.5714,-0.050169,0,-0.012817,0,0,0.30396,0.011377,0,0.30417,-0.39815,-1.6456,-1.607,-0.22642,-1.2169,1.2286,0.094921,0.02,0.32,0
0.062856,0.050403,0.98784,-0.39352,-1.6342,-1.5962,-0.0083708,0,0,1.5634,-0.049497,0,-0.021764,0,0,0.29143,0.021801,0,0.29234,-0.39347,-1.6343,-1.5962,-0.38654,-1.208,1.2222,0.093464,0.04,0.32,0
0.094054,0.050509,0.98218,-0.38715,-1.6199,-1.5843,-0.0093012,0,0,1.5563,-0.046302,0,-0.024183,0,0,0.27155,0.030138,0,0.27346,-0.38708,-1.62,-1.5843,-0.43227,-1.1971,1.2154,0.091955,0.06,0.32,0
0.12511,0.050743,0.97698,-0.37986,-1.6009,-1.5712,-0.0083828,0,0,1.5488,-0.038597,0,-0.021795,0,0,0.24599,0.035116,0,0.2489,-0.37981,-1.601,-1.5712,-0.39333,-1.184,1.2066,0.090027,0.08,0.32,0
0.156,0.051082,0.97234,-0.34756,-0.95957,-0.94776,-0.0075515,0,0,0.82749,-0.026865,0,-0.07724,0,0,0.22356,0.020365,0,0.2252,-0.34603,-0.9611,-0.94776,-11.293,-0.75163,0.60883,0.044201,0.1,0.32,0
0.15821,0.049133,0.94223,-0.32401,-0.35125,-0.33718,-0.0066229,0,0,0.11989,-0.12803,0,-0.12054,0,0,0.21294,0.0027837,0,0.21297,-0.32248,-0.35278,-0.33718,-12.964,-0.33748,0.026239,-4.7452e-08,0.12,0.32,0
0.1608,0.047357,0.91272,-0.31791,-0.35558,-0.33243,-0.0047864,0,0,0.13216,-0.2106,0,-0.087112,0,0,0.2089,-0.00026735,0,0.2089,-0.31731,-0.35618,-0.33243,-7.1299,-0.33531,0.033931,-7.4815e-07,0.14,0.32,0
0.16349,0.045966,0.88374,-0.31306,-0.35699,-0.32726,-0.0023158,0,0,0.12926,-0.27052,0,-0.042147,0,0,0.20553,-0.0039663,0,0.20557,-0.31294,-0.35711,-0.32726,-3.0091,-0.33244,0.039037,-1.7264e-06,0.16,0.32,0
0.16597,0.04502,0.85517,-0.30959,-0.35582,-0.32179,0.00029813,0,0,0.11104,-0.3097,0,0.005426,0,0,0.20322,-0.0081274,0,0.20338,-0.30959,-0.35582,-0.32179,0.36944,-0.32907,0.041505,-2.63e-06,0.18,0.32,0
0.16794,0.044506,0.82683,-0.30739,-0.35262,-0.31612,0.0028962,0,0,0.079433,-0.33209,0,0.052712,0,0,0.20222,-0.012535,0,0.2026,-0.30721,-0.3528,-0.31612,3.6496,-0.32538,0.041853,-3.1971e-06,0.2,0.32,0
0.16915,0.04441,0.79854,-0.3063,-0.3478,-0.31031,0.0055604,0,0,0.036499,-0.34119,0,0.1012,0,0,0.20267,-0.016983,0,0.20338,-0.30556,-0.34853,-0.31031,7.4998,-0.32147,0.040804,-3.3309e-06,0.22,0.32,0
0.16939,0.04476,0.77009,-0.30617,-0.34158,-0.30434,0.0084788,0,0,-0.016684,-0.33892,0,0.15431,0,0,0.20462,-0.021275,0,0.20572,-0.30425,-0.34351,-0.30434,12.794,-0.31737,0.039216,-3.0975e-06,0.24,0.32,0
0.16848,0.045644,0.74125,-0.307,-0.33392,-0.29817,0.01184,0,0,-0.08036,-0.32532,0,0.21548,0,0,0.20798,-0.025202,0,0.2095,-0.30253,-0.33838,-0.29817,20.668,-0.31303,0.038221,-2.7421e-06,0.26,0.32,0
0.16618,0.04719,0.71185,-0.30883,-0.32449,-0.29169,0.015723,0,0,-0.15595,-0.2985,0,0.28616,0,0,0.21254,-0.028521,0,0.21446,-0.29909,-0.33422,-0.29169,31.76,-0.30833,0.03936,-2.7619e-06,0.28,0.32,0
0.16224,0.04953,0.68174,-0.31168,-0.31279,-0.28473,0.019957,0,0,-0.24521,-0.25532,0,0.36322,0,0,0.21795,-0.030979,0,0.22016,-0.29227,-0.3322,-0.28473,44.203,-0.30306,0.044183,-3.9987e-06,0.3,0.32,0
0.15637,0.052712,0.65083,-0.31537,-0.29837,-0.2771,0.023998,0,0,-0.34832,-0.19354,0,0.43676,0,0,0.22368,-0.032374,0,0.22603,-0.28141,-0.33233,-0.2771,54.757,-0.29695,0.053207,-7.5653e-06,0.32,0.32,0
0.14831,0.056607,0.61911,-0.3302,-0.71956,-0.6687,0.030542,0,0,0.26727,-0.1157,0,0.28594,0,0,0.23665,-0.13055,0,0.28272,-0.30615,-0.74362,-0.6687,31.425,-0.57282,0.41628,0.011265,0.34,0.32,0
0.16706,0.052663,0.61418,-0.34709,-1.1546,-1.0647,0.047539,0,0,0.93287,-0.1169,0,0.1236,0,0,0.26276,-0.22464,0,0.34607,-0.34431,-1.1574,-1.0647,3.3576,-0.85546,0.77093,0.022389,0.36,0.32,0
0.18562,0.049496,0.6086,-0.34764,-1.1492,-1.0576,0.065558,0,0,0.92301,-0.119,0,0.17045,0,0,0.29094,-0.21439,0,0.36158,-0.34231,-1.1545,-1.0576,4.645,-0.85149,0.76836,0.022055,0.38,0.32,0
0.20398,0.04701,0.60254,-0.34578,-1.1376,-1.0475,0.078025,0,0,0.91229,-0.11702,0,0.20287,0,0,0.30975,-0.19922,0,0.36828,-0.33816,-1.1452,-1.0475,5.5748,-0.84362,0.76289,0.02155,0.4,0.32,0
0.22212,0.044984,0.59621,-0.34213,-1.1191,-1.0346,0.082985,0,0,0.9002,-0.10992,0,0.21576,0,0,0.3163,-0.18103,0,0.36435,-0.33336,-1.1279,-1.0346,6.0286,-0.83195,0.75224,0.020732,0.42,0.32,0
0.23999,0.043133,0.58988,-0.33703,-1.0934,-1.019,0.080286,0,0,0.88657,-0.096678,0,0.20875,0,0,0.309,-0.16198,0,0.34886,-0.3286,-1.1018,-1.019,5.993,-0.81647,0.73531,0.019548,0.44,0.32,0
0.25758,0.041135,0.58385,-0.33116,-1.0581,-1.0006,0.069932,0,0,0.87032,-0.074752,0,0.18182,0,0,0.28795,-0.14449,0,0.32241,-0.3245,-1.0648,-1.0006,5.445,-0.79665,0.7104,0.017908,0.46,0.32,0
0.27481,0.03861,0.57837,-0.32417,-1.0116,-0.97911,0.050584,0,0,0.85142,-0.042281,0,0.13152,0,0,0.2553,-0.1313,0,0.28772,-0.32047,-1.0153,-0.97911,4.1859,-0.77164,0.67748,0.015816,0.48,0.32,0
0.29163,0.035056,0.57364,-0.297,-0.59833,-0.59639,0.028091,0,0,0.20002,-0.0044068,0,0.23765,0,0,0.22444,-0.071272,0,0.24061,-0.26806,-0.62726,-0.59639,36.211,-0.49724,0.35619,0.0071053,0.5,0.32,0
0.28281,0.03736,0.5439,-0.285,-0.24902,-0.23791,0.018343,0,0,-0.42856,-0.10115,0,0.33384,0,0,0.20885,-0.015604,0,0.20946,-0.24132,-0.29271,-0.23791,67.222,-0.25731,0.053173,-7.6142e-06,0.52,0.32,0
0.27449,0.039169,0.51516,-0.27717,-0.25171,-0.23226,0.015141,0,0,-0.4087,-0.17702,0,0.27556,0,0,0.20172,-0.014403,0,0.20227,-0.24466,-0.28422,-0.23226,65.028,-0.25371,0.047006,-4.1087e-06,0.54,0.32,0
0.26646,0.040403,0.48742,-0.27024,-0.25174,-0.22623,0.0121,0,0,-0.4005,-0.23219,0,0.22021,0,0,0.19481,-0.013915,0,0.19534,-0.24576,-0.27622,-0.22623,63.695,-0.2494,0.043638,-1.569e-06,0.56,0.32,0
0.25847,0.041031,0.46061,-0.26431,-0.24983,-0.22004,0.00935,0,0,-0.4028,-0.27108,0,0.17017,0,0,0.18867,-0.013764,0,0.18919,-0.24525,-0.26889,-0.22004,63.871,-0.24473,0.042313,2.144e-07,0.58,0.32,0
0.25035,0.041089,0.4346,-0.25931,-0.24663,-0.21387,0.0070401,0,0,-0.41354,-0.29815,0,0.12813,0,0,0.18356,-0.013653,0,0.18408,-0.2435,-0.26245,-0.21387,66.003,-0.23994,0.042407,1.4485e-06,0.6,0.32,0
0.24193,0.040661,0.40922,-0.25512,-0.24251,-0.20775,0.005222,0,0,-0.43111,-0.31632,0,0.095039,0,0,0.17952,-0.013421,0,0.18003,-0.24063,-0.25701,-0.20775,70.188,-0.23513,0.043448,2.2846e-06,0.62,0.32,0
0.2331,0.039859,0.38433,-0.25167,-0.23769,-0.20171,0.0038634,0,0,-0.45465,-0.32739,0,0.070314,0,0,0.17648,-0.013021,0,0.17697,-0.23669,-0.25267,-0.20171,75.539,-0.23036,0.045142,2.8071e-06,0.64,0.32,0
0.22374,0.038789,0.3598,-0.24892,-0.23229,-0.19576,0.0028901,0,0,-0.48371,-0.33241,0,0.0526,0,0,0.17434,-0.012466,0,0.17479,-0.2318,-0.24941,-0.19576,80.415,-0.22566,0.047362,3.0254e-06,0.66,0.32,0
0.21375,0.037547,0.33552,-0.24683,-0.22639,-0.1899,0.0022223,0,0,-0.51807,-0.33211,0,0.040446,0,0,0.173,-0.011798,0,0.1734,-0.22615,-0.24707,-0.1899,83.865,-0.22104,0.050102,2.8745e-06,0.68,0.32,0
0.20302,0.036209,0.31136,-0.24539,-0.22005,-0.18411,0.0017908,0,0,-0.55763,-0.32704,0,0.032592,0,0,0.17238,-0.011067,0,0.17274,-0.21993,-0.24552,-0.18411,85.977,-0.21652,0.053422,2.2201e-06,0.7,0.32,0
0.19145,0.034836,0.28725,-0.2446,-0.21332,-0.17841,0.0015409,0,0,-0.60229,-0.31769,0,0.028044,0,0,0.17246,-0.01033,0,0.17277,-0.21325,-0.24467,-0.17841,87.186,-0.21211,0.057409,8.6473e-07,0.72,0.32,0
0.17893,0.033473,0.26307,-0.24444,-0.20626,-0.17279,0.0014302,0,0,-0.65201,-0.30455,0,0.02603,0,0,0.17324,-0.0096396,0,0.17351,-0.2062,-0.24449,-0.17279,87.858,-0.20783,0.062145,-1.448e-06,0.74,0.32,0
0.16537,0.032152,0.23874,-0.24492,-0.19892,-0.16726,0.0014246,0,0,-0.70673,-0.28813,0,0.025928,0,0,0.17475,-0.009052,0,0.17499,-0.19888,-0.24496,-0.16726,88.228,-0.2037,0.067684,-5.029e-06,0.76,0.32,0
0.15066,0.030894,0.21414,-0.24603,-0.19138,-0.16181,0.0014921,0,0,-0.76633,-0.26905,0,0.027156,0,0,0.17709,-0.008619,0,0.1773,-0.19134,-0.24607,-0.16181,88.437,-0.19974,0.074045,-1.0234e-05,0.78,0.32,0
0.13471,0.029713,0.18916,-0.24773,-0.18371,-0.15646,0.0015985,0,0,-0.83058,-0.24806,0,0.029093,0,0,0.18035,-0.0083828,0,0.18055,-0.18367,-0.24777,-0.15646,88.57,-0.19597,0.0812,-1.7443e-05,0.8,0.32,0
0.11744,0.028614,0.16365,-0.24997,-0.17601,-0.15117,0.0017081,0,0,-0.89907,-0.22604,0,0.031087,0,0,0.18465,-0.0083584,0,0.18485,-0.17597,-0.25001,-0.15117,88.678,-0.19239,0.089066,-2.7026e-05,0.82,0.32,0
0.098751,0.027607,0.13745,-0.25268,-0.16836,-0.14595,0.0017989,0,0,-0.97125,-0.20392,0,0.032739,0,0,0.19007,-0.0084992,0,0.19029,-0.16832,-0.25272,-0.14595,88.778,-0.18899,0.097528,-3.9325e-05,0.84,0.32,0
0.078588,0.026713,0.11042,-0.25576,-0.16075,-0.14073,0.0018867,0,0,-1.0468,-0.18218,0,0.034338,0,0,0.19657,-0.0086503,0,0.1968,-0.16071,-0.2558,-0.14073,88.863,-0.18575,0.1065,-5.4744e-05,0.86,0.32,0
0.056879,0.025989,0.082414,-0.25914,-0.15297,-0.1354,0.002024,0,0,-1.126,-0.15982,0,0.036837,0,0,0.20388,-0.0085345,0,0.2041,-0.15293,-0.25918,-0.1354,88.908,-0.1825,0.11601,-7.4051e-05,0.88,0.32,0
0.033549,0.025521,0.053338,-0.26264,-0.1445,-0.12976,0.0021724,0,0,-1.2092,-0.1341,0,0.039538,0,0,0.21143,-0.0078166,0,0.21161,-0.14446,-0.26268,-0.12976,88.947,-0.17897,0.12621,-9.8561e-05,0.9,0.32,0
0.0085104,0.025386,0.023215,-0.26009,-0.19486,-0.14975,0.00070389,0,0,-0.67998,-0.10262,0,0.014592,0,0,0.22804,-0.025034,0,0.23063,-0.19484,-0.26011,-0.14975,1.1901,-0.20157,0.10672,-4.4474e-05,0.92,0.32,0
0.0063495,0.024644,0.018396,-0.26682,-0.28976,-0.18537,-0.0023423,0,0,-0.10588,-0.13571,0,-0.0060901,0,0,0.26109,-0.038811,0,0.26479,-0.26658,-0.29,-0.18537,-5.7701,-0.24732,0.095107,3.5317e-05,0.94,0.32,0
0.0042751,0.0239,0.012771,-0.26727,-0.31533,-0.18755,-0.0023123,0,0,-0.10364,-0.16611,0,-0.0060119,0,0,0.29629,-0.028642,0,0.29803,-0.26716,-0.31544,-0.18755,-2.7485,-0.25672,0.11186,2.9413e-05,0.96,0.32,0
0.002204,0.023404,0.0065447,-0.26661,-0.32622,-0.18439,-0.00079484,0,0,-0.10688,-0.18438,0,-0.0020666,0,0,0.31927,-0.015084,0,0.31966,-0.2666,-0.32623,-0.18439,-0.76377,-0.25907,0.12335,2.6161e-05,0.98,0.32,0
0,0.023238,0,-0.25799,-0.31943,-0.17323,-0.0031962,0,0,-0.1102,-0.19006,0,-0.0083102,0,0,0.32724,0,0,0.32716,-0.25783,-0.31959,-0.17323,-2.9703,-0.25022,0.12727,2.8194e-05,1,0.32,0
0,0.049469,1,-0.4244,-1.65,-1.6223,-0.00017222,0,0,1.5573,-0.035945,0,-0.00044776,0,0,0.32396,2.3922e-15,0,0.32385,-0.4244,-1.65,-1.6223,-0.0080513,-1.2322,1.212,0.091272,0,0.34,0
0.031146,0.04946,0.99352,-0.41332,-1.6377,-1.6088,-0.0095737,0,0,1.5542,-0.037541,0,-0.024892,0,0,0.31909,0.020611,0,0.31969,-0.41324,-1.6378,-1.6088,-0.44797,-1.22,1.2103,0.090884,0.02,0.34,0
0.062167,0.049464,0.98724,-0.40551,-1.6298,-1.5978,-0.016713,0,0,1.55,-0.041538,0,-0.043453,0,0,0.30462,0.039989,0,0.3073,-0.40528,-1.63,-1.5978,-0.78195,-1.211,1.2089,0.090535,0.04,0.34,0
0.093146,0.04959,0.98134,-0.39503,-1.6203,-1.5859,-0.019346,0,0,1.5482,-0.044666,0,-0.050301,0,0,0.28119,0.05631,0,0.28707,-0.39472,-1.6206,-1.5859,-0.90438,-1.2004,1.2089,0.090491,0.06,0.34,0
0.12409,0.049951,0.97599,-0.38386,-1.6042,-1.5724,-0.017951,0,0,1.5451,-0.041357,0,-0.046673,0,0,0.25046,0.067101,0,0.25986,-0.3836,-1.6045,-1.5724,-0.84256,-1.1868,1.2052,0.089689,0.08,0.34,0
0.15495,0.050537,0.97132,-0.34691,-0.95918,-0.94686,-0.016128,0,0,0.83105,-0.028018,0,-0.16152,0,0,0.22317,0.04001,0,0.22876,-0.34216,-0.96392,-0.94686,-15.945,-0.75098,0.61427,0.044115,0.1,0.34,0
0.15734,0.046422,0.94153,-0.3225,-0.35374,-0.33737,-0.013947,0,0,0.13535,-0.14888,0,-0.25383,0,0,0.21015,0.0077635,0,0.21031,-0.31718,-0.35906,-0.33737,-20.883,-0.33787,0.036273,-1.5063e-07,0.12,0.34,0
0.16037,0.042922,0.91248,-0.3155,-0.35912,-0.33274,-0.010456,0,0,0.15687,-0.24003,0,-0.19029,0,0,0.20517,0.0041537,0,0.20522,-0.31312,-0.36149,-0.33274,-12.808,-0.33578,0.042138,-1.2304e-06,0.14,0.34,0
0.16361,0.040318,0.88408,-0.31022,-0.36055,-0.32753,-0.006253,0,0,0.15751,-0.30051,0,-0.11381,0,0,0.20106,-0.0006229,0,0.20105,-0.30945,-0.36132,-0.32753,-6.9768,-0.33277,0.045597,-2.4173e-06,0.16,0.34,0
0.16667,0.038601,0.85618,-0.30664,-0.35908,-0.32203,-0.0021882,0,0,0.14002,-0.33719,0,-0.039825,0,0,0.19826,-0.0061931,0,0.19834,-0.30655,-0.35917,-0.32203,-2.3853,-0.32925,0.046842,-3.4015e-06,0.18,0.34,0
0.16921,0.037651,0.82857,-0.30447,-0.3557,-0.31642,0.0015649,0,0,0.10871,-0.35744,0,0.028481,0,0,0.19705,-0.012178,0,0.19741,-0.30442,-0.35574,-0.31642,1.7482,-0.32553,0.046498,-4.0284e-06,0.2,0.34,0
0.17101,0.037371,0.80101,-0.3034,-0.35096,-0.31074,0.0051883,0,0,0.0668,-0.36603,0,0.094427,0,0,0.19754,-0.018268,0,0.19837,-0.30284,-0.35152,-0.31074,6.1535,-0.3217,0.045253,-4.2746e-06,0.22,0.34,0
0.17188,0.037749,0.77326,-0.30326,-0.3451,-0.30497,0.0089901,0,0,0.015614,-0.36518,0,0.16362,0,0,0.19978,-0.024201,0,0.20123,-0.30141,-0.34695,-0.30497,11.626,-0.31778,0.043871,-4.2402e-06,0.24,0.34,0
0.17164,0.038873,0.74507,-0.30406,-0.33805,-0.29907,0.013282,0,0,-0.045373,-0.35472,0,0.24174,0,0,0.20372,-0.029684,0,0.20588,-0.29948,-0.34263,-0.29907,19.003,-0.31373,0.04335,-4.1828e-06,0.26,0.34,0
0.17007,0.040923,0.71621,-0.30597,-0.32937,-0.29292,0.018269,0,0,-0.11875,-0.33172,0,0.3325,0,0,0.2092,-0.034324,0,0.21202,-0.29597,-0.33936,-0.29292,28.68,-0.30942,0.044997,-4.6065e-06,0.28,0.34,0
0.16689,0.044117,0.68649,-0.3092,-0.31812,-0.28626,0.023822,0,0,-0.20869,-0.28987,0,0.43357,0,0,0.21585,-0.037631,0,0.21913,-0.28942,-0.3379,-0.28626,39.697,-0.30453,0.050126,-6.3821e-06,0.3,0.34,0
0.16172,0.048583,0.65578,-0.31376,-0.30311,-0.27874,0.029121,0,0,-0.31863,-0.22174,0,0.53001,0,0,0.22301,-0.039144,0,0.22645,-0.27883,-0.33804,-0.27874,50.18,-0.29854,0.059251,-1.0684e-05,0.32,0.34,0
0.15414,0.054163,0.62405,-0.32968,-0.72967,-0.6744,0.035762,0,0,0.28576,-0.12572,0,0.3417,0,0,0.23947,-0.1546,0,0.3001,-0.30438,-0.75496,-0.6744,29.759,-0.57791,0.42663,0.011847,0.34,0.34,0
0.17315,0.050197,0.619,-0.35195,-1.1762,-1.0774,0.051805,0,0,0.94314,-0.12836,0,0.13469,0,0,0.27266,-0.26267,0,0.37912,-0.34871,-1.1794,-1.0774,3.5824,-0.86853,0.78471,0.02341,0.36,0.34,0
0.19187,0.047039,0.61314,-0.3571,-1.1653,-1.0699,0.068995,0,0,0.92659,-0.12407,0,0.17939,0,0,0.30852,-0.24331,0,0.39311,-0.35125,-1.1711,-1.0699,4.8446,-0.86408,0.77424,0.022468,0.38,0.34,0
0.21022,0.044673,0.60666,-0.35999,-1.144,-1.0579,0.079095,0,0,0.90723,-0.11199,0,0.20565,0,0,0.33277,-0.21536,0,0.39627,-0.35209,-1.1519,-1.0579,5.7037,-0.85395,0.75718,0.021141,0.4,0.34,0
0.22816,0.042869,0.59983,-0.3591,-1.1161,-1.0424,0.079857,0,0,0.88828,-0.095815,0,0.20763,0,0,0.34211,-0.18204,0,0.38726,-0.35077,-1.1244,-1.0424,5.9569,-0.8392,0.73608,0.019628,0.42,0.34,0
0.24575,0.041344,0.59298,-0.35386,-1.0839,-1.0243,0.072851,0,0,0.87157,-0.077444,0,0.18941,0,0,0.33452,-0.14644,0,0.36497,-0.34666,-1.0911,-1.0243,5.6437,-0.82068,0.71337,0.018095,0.44,0.34,0
0.26302,0.03984,0.58645,-0.34541,-1.044,-1.0033,0.060779,0,0,0.85522,-0.052941,0,0.15802,0,0,0.30949,-0.11274,0,0.3296,-0.34016,-1.0493,-1.0033,4.9355,-0.79756,0.68725,0.01642,0.46,0.34,0
0.27996,0.038043,0.5806,-0.33536,-0.98944,-0.97804,0.041623,0,0,0.83548,-0.014818,0,0.10822,0,0,0.26911,-0.0866,0,0.28367,-0.33273,-0.99208,-0.97804,3.6266,-0.76761,0.65244,0.014242,0.48,0.34,0
0.29644,0.035369,0.57569,-0.30168,-0.5755,-0.59212,0.018825,0,0,0.17024,0.03781,0,0.14189,0,0,0.23034,-0.04234,0,0.23664,-0.27129,-0.60589,-0.59212,40.571,-0.48977,0.34034,0.0061205,0.5,0.34,0
0.28676,0.035693,0.54557,-0.29015,-0.24655,-0.23895,0.0092725,0,0,-0.4659,-0.069191,0,0.16876,0,0,0.21082,-0.0073732,0,0.211,-0.24466,-0.29204,-0.23895,78.478,-0.25855,0.050475,-6.3203e-06,0.52,0.34,0
0.2778,0.035953,0.51666,-0.28096,-0.24937,-0.23291,0.0072853,0,0,-0.43725,-0.14982,0,0.13259,0,0,0.2024,-0.0064107,0,0.20255,-0.24777,-0.28255,-0.23291,77.618,-0.25441,0.044136,-2.7865e-06,0.54,0.34,0
0.26927,0.036049,0.4889,-0.27296,-0.24942,-0.22656,0.0054606,0,0,-0.42225,-0.20807,0,0.099382,0,0,0.19469,-0.0069377,0,0.19485,-0.24822,-0.27416,-0.22656,77.554,-0.24965,0.041284,-5.6083e-07,0.56,0.34,0
0.26091,0.035857,0.46214,-0.26628,-0.24785,-0.22026,0.0037924,0,0,-0.41879,-0.25108,0,0.069021,0,0,0.18825,-0.0080819,0,0.18844,-0.2471,-0.26703,-0.22026,78.815,-0.2448,0.040652,8.7142e-07,0.58,0.34,0
0.25252,0.035326,0.43619,-0.2607,-0.24509,-0.21405,0.0024257,0,0,-0.42452,-0.28247,0,0.044148,0,0,0.18318,-0.0092167,0,0.18342,-0.24472,-0.26107,-0.21405,81.368,-0.23995,0.041344,1.8111e-06,0.6,0.34,0
0.24393,0.034493,0.41085,-0.25611,-0.24141,-0.20795,0.0014525,0,0,-0.43826,-0.30449,0,0.026435,0,0,0.17933,-0.010078,0,0.17962,-0.24127,-0.25625,-0.20795,84.411,-0.23516,0.042824,2.432e-06,0.62,0.34,0
0.23499,0.033436,0.38598,-0.2524,-0.23696,-0.20195,0.00086079,0,0,-0.45913,-0.31862,0,0.015666,0,0,0.17652,-0.010611,0,0.17684,-0.23691,-0.25245,-0.20195,86.819,-0.23044,0.044802,2.8159e-06,0.64,0.34,0
0.22557,0.03224,0.36143,-0.24949,-0.23186,-0.19604,0.0005961,0,0,-0.48643,-0.326,0,0.010849,0,0,0.17456,-0.010857,0,0.1749,-0.23184,-0.24951,-0.19604,88.066,-0.2258,0.047189,2.9578e-06,0.66,0.34,0
0.21554,0.030984,0.3371,-0.24731,-0.2262,-0.19021,0.00059544,0,0,-0.51959,-0.32753,0,0.010837,0,0,0.17334,-0.010895,0,0.17368,-0.22619,-0.24732,-0.19021,88.385,-0.22124,0.050016,2.7754e-06,0.68,0.34,0
0.20478,0.029732,0.31289,-0.24579,-0.22005,-0.18445,0.00080496,0,0,-0.5582,-0.32394,0,0.01465,0,0,0.17278,-0.010816,0,0.17312,-0.22002,-0.24582,-0.18445,88.211,-0.21677,0.053369,2.1218e-06,0.7,0.34,0
0.19321,0.028533,0.28872,-0.24492,-0.21347,-0.17876,0.0011837,0,0,-0.60201,-0.31585,0,0.021544,0,0,0.17283,-0.010713,0,0.17317,-0.21343,-0.24496,-0.17876,87.847,-0.21238,0.057351,7.9227e-07,0.72,0.34,0
0.1807,0.027422,0.2645,-0.24467,-0.20653,-0.17315,0.0017013,0,0,-0.65087,-0.30382,0,0.030963,0,0,0.17351,-0.010682,0,0.17384,-0.20646,-0.24475,-0.17315,87.451,-0.20812,0.062058,-1.4741e-06,0.74,0.34,0
0.16717,0.026421,0.24014,-0.24506,-0.1993,-0.16761,0.0023318,0,0,-0.70478,-0.28835,0,0.042438,0,0,0.17486,-0.010816,0,0.17519,-0.19918,-0.24518,-0.16761,87.091,-0.20399,0.067561,-4.9978e-06,0.76,0.34,0
0.15251,0.025539,0.21554,-0.24611,-0.19184,-0.16218,0.0030458,0,0,-0.7638,-0.26994,0,0.055433,0,0,0.17696,-0.011208,0,0.17732,-0.19167,-0.24628,-0.16218,86.798,-0.20004,0.073912,-1.0164e-05,0.78,0.34,0
0.13662,0.024776,0.19059,-0.24784,-0.18422,-0.15685,0.0038009,0,0,-0.82805,-0.24912,0,0.069177,0,0,0.17995,-0.011941,0,0.18035,-0.18399,-0.24807,-0.15685,86.593,-0.1963,0.081127,-1.7428e-05,0.8,0.34,0
0.11939,0.024122,0.16515,-0.25026,-0.17651,-0.15162,0.0045376,0,0,-0.89755,-0.22649,0,0.082585,0,0,0.18401,-0.013055,0,0.18449,-0.17624,-0.25054,-0.15162,86.492,-0.1928,0.089189,-2.73e-05,0.82,0.34,0
0.10072,0.023566,0.13907,-0.25333,-0.16879,-0.1465,0.0051904,0,0,-0.97213,-0.20283,0,0.094465,0,0,0.18935,-0.014496,0,0.18993,-0.16847,-0.25365,-0.1465,86.5,-0.18954,0.098023,-4.0302e-05,0.84,0.34,0
0.080505,0.023116,0.11213,-0.25698,-0.16111,-0.14145,0.0057481,0,0,-1.0513,-0.17898,0,0.10461,0,0,0.1961,-0.01599,0,0.19678,-0.16077,-0.25732,-0.14145,86.581,-0.18651,0.10752,-5.6951e-05,0.86,0.34,0
0.058666,0.022847,0.084159,-0.26123,-0.15346,-0.13643,0.0062782,0,0,-1.1357,-0.15502,0,0.11426,0,0,0.20413,-0.016905,0,0.20487,-0.1531,-0.26159,-0.13643,86.677,-0.18371,0.11772,-7.8141e-05,0.88,0.34,0
0.035079,0.022911,0.05498,-0.26595,-0.14501,-0.13114,0.0067949,0,0,-1.2267,-0.1262,0,0.12367,0,0,0.21283,-0.016397,0,0.21352,-0.14463,-0.26633,-0.13114,86.794,-0.1807,0.12897,-0.00010613,0.9,0.34,0
0.0095962,0.023458,0.024565,-0.26353,-0.18685,-0.14915,0.0045854,0,0,-0.69476,-0.085764,0,0.058999,0,0,0.23285,-0.055137,0,0.24279,-0.1865,-0.26388,-0.14915,84.831,-0.19984,0.10798,-5.4151e-05,0.92,0.34,0
0.0072889,0.021971,0.019596,-0.2779,-0.29117,-0.19032,0.0011694,0,0,-0.11386,-0.13111,0,0.0030404,0,0,0.2727,-0.08556,0,0.28685,-0.2778,-0.29128,-0.19032,4.9975,-0.25313,0.094939,4.0981e-05,0.94,0.34,0
0.0050418,0.020603,0.013657,-0.28331,-0.3182,-0.19411,0.0022706,0,0,-0.11596,-0.16131,0,0.0059036,0,0,0.31462,-0.062485,0,0.32108,-0.28317,-0.31834,-0.19411,3.7087,-0.26521,0.11091,4.7045e-05,0.96,0.34,0
0.0026503,0.019766,0.0070111,-0.28763,-0.32456,-0.19067,0.0031286,0,0,-0.12605,-0.17406,0,0.0081343,0,0,0.34142,-0.032544,0,0.34284,-0.28736,-0.32483,-0.19067,4.8073,-0.26762,0.1199,6.0265e-05,0.98,0.34,0
0,0.0195,0,-0.28034,-0.31433,-0.1784,-0.0051101,0,0,-0.13251,-0.17672,0,-0.013286,0,0,0.35056,8.6736e-18,0,0.35029,-0.27958,-0.31509,-0.1784,-8.365,-0.25769,0.12284,6.9082e-05,1,0.34,0
0,0.048935,1,-0.45243,-1.6358,-1.6265,-0.0011712,0,0,1.5263,-0.012159,0,-0.003045,0,0,0.34946,-3.5735e-16,0,0.34922,-0.45243,-1.6358,-1.6265,-0.056703,-1.2383,1.1788,0.084102,0,0.36,0
0.030525,0.048874,0.99301,-0.43894,-1.6237,-1.6118,-0.016438,0,0,1.5247,-0.015451,0,-0.042738,0,0,0.34395,0.030804,0,0.34514,-0.43872,-1.6239,-1.6118,-0.79475,-1.2248,1.1792,0.084182,0.02,0.36,0
0.060989,0.048741,0.98624,-0.42662,-1.6201,-1.6003,-0.03002,0,0,1.5257,-0.025795,0,-0.078053,0,0,0.32713,0.060919,0,0.33273,-0.42587,-1.6209,-1.6003,-1.44,-1.2157,1.1848,0.085338,0.04,0.36,0
0.091554,0.048722,0.97993,-0.40954,-1.619,-1.5885,-0.036145,0,0,1.5326,-0.039677,0,-0.093977,0,0,0.29866,0.087948,0,0.31167,-0.40846,-1.6201,-1.5885,-1.7102,-1.2057,1.1961,0.08769,0.06,0.36,0
0.12229,0.049089,0.9743,-0.3923,-1.6112,-1.5753,-0.03368,0,0,1.5379,-0.046561,0,-0.087569,0,0,0.25969,0.10747,0,0.2819,-0.39137,-1.6121,-1.5753,-1.5817,-1.1929,1.2027,0.089081,0.08,0.36,0
0.15307,0.049961,0.96954,-0.34743,-0.96065,-0.94645,-0.027892,0,0,0.83438,-0.032319,0,-0.27044,0,0,0.22424,0.065238,0,0.23804,-0.33806,-0.97003,-0.94645,-18.382,-0.75151,0.62222,0.044036,0.1,0.36,0
0.15567,0.043178,0.94005,-0.32114,-0.35864,-0.33823,-0.022811,0,0,0.15548,-0.18575,0,-0.41516,0,0,0.20709,0.014239,0,0.20761,-0.31037,-0.36942,-0.33823,-25.291,-0.33934,0.05117,-6.7004e-07,0.12,0.36,0
0.15929,0.037755,0.91155,-0.31267,-0.36504,-0.33354,-0.016714,0,0,0.18985,-0.28671,0,-0.30419,0,0,0.20051,0.0097954,0,0.20076,-0.3078,-0.36992,-0.33354,-16.275,-0.33709,0.054067,-2.3662e-06,0.14,0.36,0
0.16326,0.033945,0.88391,-0.30674,-0.36583,-0.32805,-0.010306,0,0,0.19384,-0.34385,0,-0.18758,0,0,0.19519,0.0035039,0,0.19521,-0.305,-0.36758,-0.32805,-9.6159,-0.33354,0.054818,-3.7012e-06,0.16,0.36,0
0.16704,0.031533,0.8569,-0.30308,-0.36362,-0.32242,-0.0046515,0,0,0.17604,-0.37486,0,-0.084656,0,0,0.19166,-0.003882,0,0.19168,-0.30272,-0.36397,-0.32242,-4.3681,-0.32971,0.054157,-4.6689e-06,0.18,0.36,0
0.17031,0.030209,0.83025,-0.30095,-0.3598,-0.31683,0.00026346,0,0,0.14454,-0.39102,0,0.0047949,0,0,0.19014,-0.011737,0,0.19048,-0.30095,-0.3598,-0.31683,0.25648,-0.32586,0.052739,-5.2936e-06,0.2,0.36,0
0.17283,0.029769,0.80366,-0.29995,-0.35503,-0.3113,0.0048435,0,0,0.10334,-0.39795,0,0.088152,0,0,0.19065,-0.019701,0,0.19164,-0.29952,-0.35546,-0.3113,4.9867,-0.32209,0.051072,-5.6342e-06,0.22,0.36,0
0.17444,0.030153,0.77686,-0.2999,-0.34952,-0.30581,0.0095353,0,0,0.053728,-0.39778,0,0.17354,0,0,0.1932,-0.027537,0,0.19514,-0.29813,-0.35129,-0.30581,10.512,-0.31841,0.049765,-5.8256e-06,0.24,0.36,0
0.17497,0.031455,0.74956,-0.30084,-0.34319,-0.30029,0.014782,0,0,-0.0050288,-0.39037,0,0.26904,0,0,0.19785,-0.034959,0,0.20092,-0.29619,-0.34784,-0.30029,17.461,-0.31477,0.049723,-6.1696e-06,0.26,0.36,0
0.17424,0.033922,0.72146,-0.30302,-0.33555,-0.29464,0.021004,0,0,-0.076266,-0.37232,0,0.38227,0,0,0.2046,-0.041456,0,0.20878,-0.29272,-0.34585,-0.29464,26.122,-0.31107,0.0522,-7.2718e-06,0.28,0.36,0
0.17192,0.037936,0.69228,-0.30706,-0.32537,-0.28862,0.028312,0,0,-0.16776,-0.33434,0,0.51527,0,0,0.21313,-0.04616,0,0.21812,-0.28646,-0.34597,-0.28862,36.042,-0.30702,0.058456,-1.0212e-05,0.3,0.36,0
0.16753,0.043842,0.66179,-0.31325,-0.30991,-0.28149,0.035812,0,0,-0.28904,-0.25861,0,0.65179,0,0,0.22266,-0.048089,0,0.22785,-0.27573,-0.34743,-0.28149,46.337,-0.30155,0.069003,-1.6479e-05,0.32,0.36,0
0.16036,0.051578,0.62993,-0.33141,-0.73934,-0.68119,0.044459,0,0,0.3012,-0.1323,0,0.42326,0,0,0.24502,-0.18654,0,0.32583,-0.30308,-0.76767,-0.68119,28.545,-0.58398,0.43792,0.012349,0.34,0.36,0
0.17958,0.047529,0.62468,-0.36416,-1.2008,-1.0942,0.063657,0,0,0.949,-0.13859,0,0.16551,0,0,0.28999,-0.31278,0,0.42733,-0.35934,-1.2056,-1.0942,4.3264,-0.88636,0.7964,0.02424,0.36,0.36,0
0.19832,0.044534,0.61833,-0.37783,-1.1799,-1.0856,0.081689,0,0,0.92015,-0.12248,0,0.21239,0,0,0.33825,-0.28078,0,0.43982,-0.36959,-1.1881,-1.0856,5.757,-0.88111,0.77238,0.022268,0.38,0.36,0
0.21638,0.042531,0.61115,-0.39024,-1.1443,-1.0715,0.087699,0,0,0.88566,-0.094634,0,0.22802,0,0,0.37103,-0.23667,0,0.43981,-0.38018,-1.1544,-1.0715,6.5471,-0.86869,0.73628,0.019627,0.4,0.36,0
0.23375,0.041152,0.60349,-0.39546,-1.1045,-1.0535,0.079689,0,0,0.85542,-0.066313,0,0.20719,0,0,0.38522,-0.18545,0,0.42697,-0.38662,-1.1133,-1.0535,6.3343,-0.85114,0.69871,0.017087,0.42,0.36,0
0.2506,0.040035,0.59574,-0.38831,-1.0645,-1.0316,0.06263,0,0,0.83626,-0.042803,0,0.16284,0,0,0.37829,-0.13015,0,0.39946,-0.38256,-1.0703,-1.0316,5.2473,-0.82814,0.66921,0.015219,0.44,0.36,0
0.2672,0.039018,0.58836,-0.37379,-1.0268,-1.0086,0.042934,0,0,0.82519,-0.023779,0,0.11163,0,0,0.34778,-0.073634,0,0.3555,-0.37098,-1.0296,-1.0086,3.7454,-0.80306,0.64838,0.01395,0.46,0.36,0
0.2836,0.038017,0.58183,-0.35608,-0.97219,-0.98031,0.025026,0,0,0.8115,0.010559,0,0.065067,0,0,0.29395,-0.027383,0,0.29685,-0.35506,-0.9732,-0.98031,2.3222,-0.76953,0.62172,0.012338,0.48,0.36,0
0.29966,0.036569,0.5766,-0.30757,-0.55068,-0.58696,0.0047634,0,0,0.13417,0.082537,0,0.01179,0,0,0.24016,-0.0025332,0,0.24174,-0.27359,-0.58466,-0.58696,-44.471,-0.48174,0.32616,0.005026,0.5,0.36,0
0.28897,0.034593,0.54597,-0.29632,-0.24626,-0.24077,-0.0018918,0,0,-0.5055,-0.049963,0,-0.034431,0,0,0.21302,0.0033414,0,0.21313,-0.24619,-0.29639,-0.24077,-87.839,-0.26112,0.053119,-7.4286e-06,0.52,0.36,0
0.27944,0.033176,0.51696,-0.28442,-0.24858,-0.23375,-0.0020663,0,0,-0.46107,-0.13496,0,-0.037607,0,0,0.20215,0.0031265,0,0.20224,-0.24846,-0.28453,-0.23375,-86.711,-0.25558,0.04526,-3.1208e-06,0.54,0.36,0
0.27053,0.03208,0.48937,-0.27501,-0.24856,-0.22698,-0.0022062,0,0,-0.43709,-0.19634,0,-0.040152,0,0,0.19314,0.00047946,0,0.19317,-0.24837,-0.27519,-0.22698,-85.266,-0.25018,0.041843,-7.2794e-07,0.56,0.36,0
0.26196,0.030988,0.46288,-0.26728,-0.24707,-0.22043,-0.0024774,0,0,-0.42634,-0.24242,0,-0.045088,0,0,0.18639,-0.002534,0,0.18642,-0.24677,-0.26758,-0.22043,-83.113,-0.24493,0.040927,7.0941e-07,0.58,0.36,0
0.25348,0.02979,0.43718,-0.26107,-0.24458,-0.21415,-0.0026194,0,0,-0.42696,-0.27693,0,-0.047673,0,0,0.18156,-0.0051147,0,0.18164,-0.24417,-0.26147,-0.21415,-81.186,-0.23993,0.041475,1.6338e-06,0.6,0.36,0
0.24488,0.028482,0.41204,-0.25611,-0.24118,-0.20805,-0.0025519,0,0,-0.43735,-0.30147,0,-0.046445,0,0,0.17813,-0.0070873,0,0.17827,-0.24075,-0.25653,-0.20805,-80.564,-0.23511,0.042833,2.2677e-06,0.62,0.36,0
0.23598,0.027114,0.3873,-0.25222,-0.23699,-0.20209,-0.0022598,0,0,-0.45618,-0.31757,0,-0.041128,0,0,0.1757,-0.008496,0,0.17591,-0.23666,-0.25255,-0.20209,-81.737,-0.23044,0.044685,2.7062e-06,0.64,0.36,0
0.22663,0.025749,0.36284,-0.24922,-0.23211,-0.19623,-0.0017647,0,0,-0.48217,-0.3265,0,-0.032118,0,0,0.17406,-0.0094582,0,0.17431,-0.23193,-0.2494,-0.19623,-84.171,-0.22586,0.046937,2.9388e-06,0.66,0.36,0
0.21669,0.024446,0.33857,-0.24697,-0.22664,-0.19045,-0.0010925,0,0,-0.51431,-0.32934,0,-0.019884,0,0,0.17304,-0.01011,0,0.17333,-0.22658,-0.24702,-0.19045,-86.932,-0.22135,0.04962,2.877e-06,0.68,0.36,0
0.20606,0.023252,0.31439,-0.24536,-0.22065,-0.18472,-0.00026424,0,0,-0.55188,-0.32697,0,-0.0048092,0,0,0.17257,-0.010588,0,0.17289,-0.22064,-0.24536,-0.18472,-89.388,-0.21691,0.052822,2.3729e-06,0.7,0.36,0
0.19462,0.022202,0.29025,-0.24436,-0.21421,-0.17904,0.000708,0,0,-0.59444,-0.32012,0,0.012886,0,0,0.1726,-0.011026,0,0.17295,-0.2142,-0.24438,-0.17904,88.655,-0.21254,0.056641,1.2284e-06,0.72,0.36,0
0.18228,0.02132,0.26606,-0.24394,-0.20741,-0.17342,0.00182,0,0,-0.64178,-0.30938,0,0.033124,0,0,0.17314,-0.011558,0,0.17352,-0.20732,-0.24403,-0.17342,87.155,-0.20826,0.061171,-8.0682e-07,0.74,0.36,0
0.16895,0.020618,0.24177,-0.24413,-0.20031,-0.16787,0.0030715,0,0,-0.69394,-0.29523,0,0.055901,0,0,0.17423,-0.012318,0,0.17466,-0.2001,-0.24434,-0.16787,86.009,-0.20411,0.066498,-4.0484e-06,0.76,0.36,0
0.15452,0.020097,0.21728,-0.24498,-0.19298,-0.16243,0.0044591,0,0,-0.75124,-0.27801,0,0.081155,0,0,0.17596,-0.013449,0,0.17648,-0.1926,-0.24536,-0.16243,85.134,-0.20013,0.072705,-8.9034e-06,0.78,0.36,0
0.1389,0.019748,0.1925,-0.2466,-0.18547,-0.15712,0.0059662,0,0,-0.8143,-0.25794,0,0.10858,0,0,0.1785,-0.01509,0,0.17914,-0.18489,-0.24718,-0.15712,84.478,-0.1964,0.079882,-1.5915e-05,0.8,0.36,0
0.12195,0.019555,0.1673,-0.24914,-0.17783,-0.15199,0.0075465,0,0,-0.88408,-0.2351,0,0.13735,0,0,0.1821,-0.017363,0,0.18293,-0.17704,-0.24993,-0.15199,84.025,-0.19299,0.088129,-2.5818e-05,0.82,0.36,0
0.10354,0.019494,0.14151,-0.25272,-0.17008,-0.14705,0.0091152,0,0,-0.96152,-0.20952,0,0.1659,0,0,0.18714,-0.020312,0,0.18826,-0.16909,-0.25371,-0.14705,83.78,-0.18995,0.097524,-3.9566e-05,0.84,0.36,0
0.08349,0.019554,0.1149,-0.25737,-0.16229,-0.14231,0.010564,0,0,-1.047,-0.1818,0,0.19226,0,0,0.19417,-0.023739,0,0.19565,-0.16113,-0.25853,-0.14231,83.736,-0.18733,0.10804,-5.8209e-05,0.86,0.36,0
0.061654,0.019788,0.087147,-0.26299,-0.1545,-0.1377,0.011963,0,0,-1.1401,-0.15295,0,0.21773,0,0,0.20347,-0.026782,0,0.2053,-0.1532,-0.26429,-0.1377,83.781,-0.18506,0.1196,-8.2903e-05,0.88,0.36,0
0.037885,0.020473,0.057929,-0.2703,-0.14667,-0.13337,0.013366,0,0,-1.2461,-0.12108,0,0.24326,0,0,0.21455,-0.027334,0,0.21637,-0.14525,-0.27173,-0.13337,83.9,-0.18345,0.13282,-0.00011711,0.9,0.36,0
0.01181,0.021956,0.027074,-0.26811,-0.17597,-0.1487,0.013407,0,0,-0.71397,-0.062054,0,0.13673,0,0,0.24159,-0.095051,0,0.26727,-0.17352,-0.27057,-0.1487,79.814,-0.19759,0.11396,-7.5989e-05,0.92,0.36,0
0.0093258,0.0194,0.021819,-0.29964,-0.29987,-0.20167,0.014367,0,0,-0.12736,-0.12765,0,0.037354,0,0,0.2951,-0.14509,0,0.33027,-0.28539,-0.31412,-0.20167,44.775,-0.26706,0.10119,3.9104e-05,0.94,0.36,0
0.0067161,0.017447,0.01527,-0.31566,-0.32067,-0.20617,0.019478,0,0,-0.14234,-0.14885,0,0.050643,0,0,0.3493,-0.10281,0,0.36426,-0.29853,-0.33781,-0.20617,41.338,-0.28084,0.11705,5.2186e-05,0.96,0.36,0
0.0036322,0.016441,0.0078465,-0.33016,-0.31369,-0.201,0.014306,0,0,-0.1679,-0.1465,0,0.037196,0,0,0.38176,-0.051334,0,0.38472,-0.30542,-0.33843,-0.201,59.958,-0.28162,0.12426,7.5588e-05,0.98,0.36,0
0,0.016169,0,-0.32779,-0.29917,-0.18809,-0.0052344,0,0,-0.18161,-0.14441,0,-0.01361,0,0,0.39232,3.4694e-18,0,0.39175,-0.29824,-0.32871,-0.18809,-79.952,-0.27168,0.12814,8.7807e-05,1,0.36,0
0,0.048982,1,-0.49304,-1.6159,-1.6327,-0.002704,0,0,1.4815,0.021864,0,-0.0070304,0,0,0.38557,-4.9613e-16,0,0.3852,-0.49303,-1.6159,-1.6327,-0.13798,-1.2472,1.1313,0.074312,0,0.38,0
0.02963,0.048842,0.99229,-0.47815,-1.6027,-1.6165,-0.024462,0,0,1.4799,0.017981,0,-0.063601,0,0,0.38001,0.041241,0,0.38189,-0.47762,-1.6033,-1.6165,-1.2455,-1.2325,1.1323,0.074533,0.02,0.38,0
0.059197,0.048432,0.9848,-0.46026,-1.5995,-1.6027,-0.047775,0,0,1.4852,0.0041991,0,-0.12422,0,0,0.36176,0.083675,0,0.37108,-0.45826,-1.6015,-1.6027,-2.3972,-1.2208,1.1439,0.076866,0.04,0.38,0
0.089039,0.048002,0.97782,-0.43475,-1.6111,-1.5916,-0.063587,0,0,1.5039,-0.025423,0,-0.16532,0,0,0.32774,0.12678,0,0.35169,-0.43132,-1.6146,-1.5916,-3.085,-1.2125,1.1719,0.082558,0.06,0.38,0
0.11935,0.048088,0.97169,-0.40821,-1.6242,-1.5814,-0.060126,0,0,1.5252,-0.055599,0,-0.15633,0,0,0.27668,0.16134,0,0.32156,-0.40524,-1.6271,-1.5814,-2.8239,-1.2046,1.1997,0.088245,0.08,0.38,0
0.15005,0.049244,0.96675,-0.34967,-0.96842,-0.94786,-0.046358,0,0,0.83957,-0.046784,0,-0.42482,0,0,0.22779,0.10064,0,0.25747,-0.33354,-0.98455,-0.94786,-19.992,-0.75532,0.63634,0.044501,0.1,0.38,0
0.15293,0.038992,0.93754,-0.32016,-0.36821,-0.34044,-0.033895,0,0,0.18461,-0.25267,0,-0.6169,0,0,0.20364,0.023343,0,0.20503,-0.30264,-0.38573,-0.34044,-27.335,-0.34294,0.072059,-2.9812e-06,0.12,0.38,0
0.15743,0.031454,0.90973,-0.30905,-0.37396,-0.33487,-0.023739,0,0,0.23488,-0.35573,0,-0.43206,0,0,0.19443,0.017387,0,0.19524,-0.3013,-0.38171,-0.33487,-18.093,-0.33929,0.069958,-4.947e-06,0.14,0.38,0
0.16233,0.026564,0.8831,-0.30245,-0.37299,-0.32879,-0.014528,0,0,0.23965,-0.40219,0,-0.26441,0,0,0.18738,0.0085954,0,0.18756,-0.29958,-0.37586,-0.32879,-11.195,-0.33474,0.066664,-5.9689e-06,0.16,0.38,0
0.16701,0.023606,0.85727,-0.29861,-0.36945,-0.32288,-0.0071828,0,0,0.22092,-0.42374,0,-0.13073,0,0,0.18302,-0.0012025,0,0.18298,-0.29788,-0.37017,-0.32288,-5.7317,-0.33031,0.063583,-6.6573e-06,0.18,0.38,0
0.17117,0.02201,0.83185,-0.29644,-0.36498,-0.31726,-0.0010422,0,0,0.18951,-0.43426,0,-0.018968,0,0,0.18123,-0.011222,0,0.18153,-0.29642,-0.365,-0.31726,-0.8709,-0.32623,0.060893,-7.1835e-06,0.2,0.38,0
0.1746,0.021453,0.80652,-0.29548,-0.36008,-0.31188,0.0045728,0,0,0.1493,-0.43856,0,0.083225,0,0,0.18174,-0.021245,0,0.18293,-0.29516,-0.3604,-0.31188,4.029,-0.32248,0.058696,-7.6119e-06,0.22,0.38,0
0.17714,0.021837,0.78097,-0.29566,-0.35494,-0.30675,0.010266,0,0,0.10088,-0.43858,0,0.18684,0,0,0.18452,-0.031217,0,0.18711,-0.29394,-0.35667,-0.30675,9.5515,-0.31912,0.057412,-8.1109e-06,0.24,0.38,0
0.17863,0.023258,0.75486,-0.29699,-0.34945,-0.30177,0.01661,0,0,0.043475,-0.43391,0,0.3023,0,0,0.1898,-0.041021,0,0.19417,-0.29218,-0.35427,-0.30177,16.172,-0.31607,0.057896,-9.0513e-06,0.26,0.38,0
0.17888,0.02603,0.72782,-0.29977,-0.34324,-0.29688,0.024236,0,0,-0.026312,-0.42188,0,0.44109,0,0,0.198,-0.050234,0,0.2043,-0.28895,-0.35406,-0.29688,24.057,-0.31329,0.061528,-1.1296e-05,0.28,0.38,0
0.17758,0.030743,0.69942,-0.30486,-0.335,-0.29187,0.033861,0,0,-0.1182,-0.39241,0,0.61626,0,0,0.20922,-0.057633,0,0.2171,-0.28287,-0.35699,-0.29187,33.006,-0.31058,0.070055,-1.6678e-05,0.3,0.38,0
0.17415,0.038238,0.66924,-0.31413,-0.32096,-0.28613,0.044954,0,0,-0.25479,-0.31693,0,0.81817,0,0,0.22254,-0.060767,0,0.2308,-0.27246,-0.36263,-0.28613,42.828,-0.30708,0.084169,-2.7921e-05,0.32,0.38,0
0.16739,0.048871,0.63711,-0.33596,-0.75387,-0.69101,0.060711,0,0,0.31665,-0.14301,0,0.55468,0,0,0.25459,-0.23236,0,0.36551,-0.30172,-0.78811,-0.69101,27.812,-0.59361,0.45547,0.01305,0.34,0.38,0
0.18682,0.044653,0.63151,-0.38752,-1.2335,-1.1178,0.089407,0,0,0.94938,-0.15036,0,0.23246,0,0,0.31832,-0.3819,0,0.49844,-0.37817,-1.2428,-1.1178,5.9676,-0.91294,0.80942,0.02506,0.36,0.38,0
0.20536,0.04214,0.62437,-0.41536,-1.1893,-1.1058,0.11057,0,0,0.89755,-0.10862,0,0.28749,0,0,0.38463,-0.32994,0,0.50692,-0.39988,-1.2048,-1.1058,7.9729,-0.9035,0.76028,0.021285,0.38,0.38,0
0.22272,0.040888,0.61613,-0.44312,-1.1327,-1.0889,0.1069,0,0,0.83948,-0.05698,0,0.27794,0,0,0.4281,-0.26363,0,0.5022,-0.42693,-1.1489,-1.0889,8.6127,-0.88823,0.69391,0.016728,0.4,0.38,0
0.23894,0.040216,0.60725,-0.46094,-1.0819,-1.0701,0.08549,0,0,0.79189,-0.015307,0,0.22227,0,0,0.44863,-0.19283,0,0.4874,-0.44939,-1.0934,-1.0701,7.6978,-0.87097,0.63269,0.012948,0.42,0.38,0
0.25439,0.039632,0.59818,-0.4572,-1.0319,-1.0449,0.051375,0,0,0.76404,0.016891,0,0.13357,0,0,0.44633,-0.11645,0,0.4601,-0.45264,-1.0365,-1.0449,5.0681,-0.84468,0.58811,0.01044,0.44,0.38,0
0.2695,0.038889,0.5894,-0.42257,-0.98372,-1.0113,0.013704,0,0,0.76532,0.035835,0,0.035631,0,0,0.41225,-0.031581,0,0.41221,-0.42224,-0.98405,-1.0113,1.3982,-0.80586,0.57591,0.0097366,0.46,0.38,0
0.28501,0.038466,0.58169,-0.39742,-0.96478,-0.99035,-0.015837,0,0,0.77082,0.033246,0,-0.041176,0,0,0.33832,0.062275,0,0.34717,-0.39698,-0.96522,-0.99035,-1.5977,-0.78418,0.58122,0.010021,0.48,0.38,0
0.30034,0.03867,0.57586,-0.32588,-0.54034,-0.58893,-0.017549,0,0,0.094338,0.11055,0,-0.17697,0,0,0.25726,0.058143,0,0.26902,-0.28594,-0.58028,-0.58893,-40.035,-0.48505,0.31454,0.0039922,0.5,0.38,0
0.28878,0.033695,0.54464,-0.30235,-0.24904,-0.24322,-0.017371,0,0,-0.53811,-0.0529,0,-0.31615,0,0,0.21458,0.019671,0,0.21571,-0.24388,-0.30751,-0.24322,-73.456,-0.26487,0.063969,-1.3439e-05,0.52,0.38,0
0.27881,0.030555,0.51578,-0.28705,-0.25087,-0.23506,-0.013568,0,0,-0.4731,-0.14388,0,-0.24693,0,0,0.19954,0.0144,0,0.20013,-0.24635,-0.29157,-0.23506,-71.564,-0.25766,0.051799,-6.0111e-06,0.54,0.38,0
0.26986,0.028195,0.48877,-0.27509,-0.24969,-0.22726,-0.011099,0,0,-0.43528,-0.20414,0,-0.202,0,0,0.18903,0.007842,0,0.18921,-0.24552,-0.27926,-0.22726,-69.424,-0.25068,0.045692,-2.3927e-06,0.56,0.38,0
0.2614,0.02616,0.46285,-0.26638,-0.24792,-0.22041,-0.0092892,0,0,-0.41833,-0.25034,0,-0.16906,0,0,0.18266,0.0024318,0,0.18267,-0.24406,-0.27025,-0.22041,-67.409,-0.24491,0.043177,-3.6524e-07,0.58,0.38,0
0.25312,0.024248,0.43762,-0.25977,-0.24528,-0.21403,-0.0078571,0,0,-0.41624,-0.28435,0,-0.143,0,0,0.17862,-0.0016742,0,0.17863,-0.24184,-0.26322,-0.21403,-66.344,-0.2397,0.042715,8.9661e-07,0.6,0.38,0
0.24475,0.022434,0.41284,-0.25481,-0.2419,-0.20799,-0.0065758,0,0,-0.42608,-0.30856,0,-0.11968,0,0,0.17595,-0.0046776,0,0.17601,-0.23914,-0.25757,-0.20799,-67.238,-0.2349,0.043407,1.7932e-06,0.62,0.38,0
0.23608,0.020733,0.38836,-0.25102,-0.23779,-0.20212,-0.0053473,0,0,-0.445,-0.32457,0,-0.097321,0,0,0.17414,-0.0068312,0,0.17428,-0.2359,-0.25292,-0.20212,-70.529,-0.23031,0.044778,2.4681e-06,0.64,0.38,0
0.22695,0.01918,0.36408,-0.24812,-0.23302,-0.19635,-0.0041056,0,0,-0.47105,-0.33367,0,-0.074721,0,0,0.17295,-0.008369,0,0.17315,-0.23197,-0.24916,-0.19635,-75.73,-0.22583,0.046653,2.9305e-06,0.66,0.38,0
0.21724,0.01781,0.33993,-0.24589,-0.22765,-0.19062,-0.0028126,0,0,-0.50289,-0.33697,0,-0.051189,0,0,0.17221,-0.0094971,0,0.17247,-0.22723,-0.24631,-0.19062,-81.427,-0.22139,0.049016,3.1054e-06,0.68,0.38,0
0.20683,0.016653,0.31586,-0.24422,-0.22178,-0.18492,-0.0014393,0,0,-0.53958,-0.33541,0,-0.026195,0,0,0.17186,-0.0104,0,0.17218,-0.22169,-0.24431,-0.18492,-86.345,-0.21697,0.051915,2.8643e-06,0.7,0.38,0
0.19565,0.015728,0.29181,-0.24304,-0.21548,-0.17924,4.3202e-05,0,0,-0.58056,-0.32975,0,0.00078627,0,0,0.17186,-0.011247,0,0.17223,-0.21548,-0.24304,-0.17924,89.91,-0.21259,0.055421,2.0356e-06,0.72,0.38,0
0.18361,0.015047,0.26774,-0.24234,-0.20883,-0.1736,0.0016679,0,0,-0.62555,-0.32061,0,0.030356,0,0,0.17222,-0.012207,0,0.17265,-0.20875,-0.24243,-0.1736,87.158,-0.20826,0.059609,4.0301e-07,0.74,0.38,0
0.17063,0.014611,0.24359,-0.24215,-0.20191,-0.16802,0.0034741,0,0,-0.67461,-0.30845,0,0.063228,0,0,0.17297,-0.013453,0,0.17349,-0.20161,-0.24245,-0.16802,85.101,-0.20403,0.06456,-2.3133e-06,0.76,0.38,0
0.15663,0.014418,0.21931,-0.24255,-0.19479,-0.16253,0.0055077,0,0,-0.72816,-0.29355,0,0.10024,0,0,0.17419,-0.015175,0,0.17485,-0.19416,-0.24318,-0.16253,83.506,-0.19996,0.070379,-6.4977e-06,0.78,0.38,0
0.1415,0.014458,0.19481,-0.24371,-0.18753,-0.1572,0.0078197,0,0,-0.78725,-0.27594,0,0.14232,0,0,0.17604,-0.017588,0,0.17691,-0.18646,-0.24478,-0.1572,82.223,-0.19615,0.077225,-1.2724e-05,0.8,0.38,0
0.12514,0.014717,0.17001,-0.24594,-0.18017,-0.15212,0.010459,0,0,-0.85377,-0.25525,0,0.19036,0,0,0.17879,-0.020938,0,0.18001,-0.17855,-0.24757,-0.15212,81.178,-0.19275,0.085356,-2.1922e-05,0.82,0.38,0
0.10736,0.015185,0.14475,-0.24973,-0.17276,-0.14743,0.013435,0,0,-0.93093,-0.23056,0,0.24451,0,0,0.18298,-0.025488,0,0.18474,-0.17048,-0.252,-0.14743,80.378,-0.18997,0.095167,-3.5659e-05,0.84,0.38,0
0.087901,0.015844,0.11878,-0.25556,-0.16522,-0.1432,0.016687,0,0,-1.0225,-0.20032,0,0.3037,0,0,0.18963,-0.031427,0,0.19223,-0.16223,-0.25855,-0.1432,79.863,-0.18799,0.1071,-5.6445e-05,0.86,0.38,0
0.066456,0.01673,0.091658,-0.2639,-0.15766,-0.13956,0.020065,0,0,-1.1315,-0.16471,0,0.36519,0,0,0.20053,-0.038514,0,0.20427,-0.154,-0.26757,-0.13956,79.653,-0.18704,0.12143,-8.7592e-05,0.88,0.38,0
0.042642,0.018068,0.062634,-0.2744,-0.14966,-0.13616,0.024117,0,0,-1.2579,-0.12278,0,0.43894,0,0,0.21585,-0.043946,0,0.22051,-0.14516,-0.2789,-0.13616,79.43,-0.18674,0.13846,-0.00013439,0.9,0.38,0
0.016138,0.020976,0.031218,-0.2843,-0.17871,-0.15674,0.030456,0,0,-0.73376,-0.049972,0,0.27018,0,0,0.25767,-0.15432,0,0.3136,-0.16895,-0.29406,-0.15674,73.756,-0.20658,0.13209,-0.00011899,0.92,0.38,0
0.013291,0.016865,0.0254,-0.34376,-0.32564,-0.22622,0.054721,0,0,-0.1528,-0.12925,0,0.14227,0,0,0.33624,-0.23262,0,0.41104,-0.27924,-0.39017,-0.22622,49.701,-0.29854,0.14491,-8.8699e-05,0.94,0.38,0
0.010026,0.014649,0.017769,-0.37119,-0.30206,-0.21974,0.054981,0,0,-0.19688,-0.10701,0,0.14295,0,0,0.40838,-0.14439,0,0.43228,-0.27168,-0.40157,-0.21974,61.078,-0.29766,0.16222,-0.00014586,0.96,0.38,0
0.0054164,0.013906,0.0090645,-0.41217,-0.2888,-0.21935,0.03356,0,0,-0.25066,-0.090277,0,0.087256,0,0,0.44423,-0.06845,0,0.44856,-0.28026,-0.4207,-0.21935,75.725,-0.30677,0.17885,-0.00018309,0.98,0.38,0
0,0.013724,0,-0.41329,-0.26993,-0.20496,-0.0035029,0,0,-0.27082,-0.084452,0,-0.0091077,0,0,0.45322,0,0,0.45236,-0.26984,-0.41337,-0.20496,-88.601,-0.29606,0.18472,-0.00019426,1,0.38,0
0,0.04981,1,-0.54339,-1.5925,-1.6408,-0.0041583,0,0,1.4266,0.062748,0,-0.010812,0,0,0.43194,-2.0817e-16,0,0.43145,-0.54338,-1.5925,-1.6408,-0.2271,-1.2589,1.0741,0.063207,0,0.4,0
0.028532,0.049594,0.99136,-0.52975,-1.5763,-1.6232,-0.029564,0,0,1.4215,0.060888,0,-0.076865,0,0,0.42763,0.050126,0,0.43004,-0.52891,-1.5772,-1.6232,-1.6167,-1.2431,1.072,0.062882,0.02,0.4,0
0.056859,0.048909,0.98289,-0.51768,-1.5696,-1.6091,-0.064141,0,0,1.4188,0.05131,0,-0.16677,0,0,0.41266,0.10441,0,0.42509,-0.51379,-1.5735,-1.6091,-3.4764,-1.2321,1.0779,0.064095,0.04,0.4,0
0.085285,0.047705,0.97486,-0.47453,-1.5718,-1.5888,-0.098264,0,0,1.4485,0.022014,0,-0.25549,0,0,0.37633,0.16717,0,0.41129,-0.4658,-1.5806,-1.5888,-5.0771,-1.2117,1.1189,0.071929,0.06,0.4,0
0.1148,0.046865,0.96784,-0.43983,-1.6393,-1.5916,-0.11217,0,0,1.4973,-0.06201,0,-0.29163,0,0,0.30903,0.24127,0,0.39406,-0.42943,-1.6497,-1.5916,-5.2968,-1.2236,1.1923,0.086345,0.08,0.4,0
0.14517,0.04809,0.96249,-0.36843,-1.0066,-0.9625,-0.075063,0,0,0.84961,-0.10027,0,-0.64609,0,0,0.23719,0.15418,0,0.29625,-0.34282,-1.0322,-0.9625,-20.874,-0.77916,0.66149,0.045805,0.1,0.4,0
0.14878,0.033071,0.93352,-0.31917,-0.385,-0.34461,-0.048716,0,0,0.23152,-0.36756,0,-0.88663,0,0,0.19932,0.038015,0,0.20309,-0.29329,-0.41088,-0.34461,-27.977,-0.3496,0.10211,-1.1923e-05,0.12,0.4,0
0.15444,0.023526,0.90668,-0.30471,-0.38685,-0.337,-0.031747,0,0,0.29376,-0.45369,0,-0.5778,0,0,0.18577,0.027298,0,0.18777,-0.29387,-0.39769,-0.337,-18.852,-0.34285,0.090337,-1.0909e-05,0.14,0.4,0
0.16053,0.017857,0.8815,-0.29684,-0.38216,-0.32963,-0.019232,0,0,0.29835,-0.478,0,-0.35002,0,0,0.1766,0.014305,0,0.17712,-0.29271,-0.38629,-0.32963,-12.134,-0.33621,0.081644,-9.94e-06,0.16,0.4,0
0.16637,0.014583,0.85724,-0.29263,-0.37684,-0.3233,-0.0099149,0,0,0.27913,-0.4872,0,-0.18045,0,0,0.17185,0.0015594,0,0.17178,-0.29148,-0.37799,-0.3233,-6.6251,-0.33093,0.075792,-9.8117e-06,0.18,0.4,0
0.1717,0.012838,0.83339,-0.29013,-0.37129,-0.31748,-0.0024076,0,0,0.24893,-0.48969,0,-0.043817,0,0,0.1701,-0.010743,0,0.17037,-0.29005,-0.37137,-0.31748,-1.6975,-0.3263,0.071649,-9.9879e-06,0.2,0.4,0
0.17633,0.012226,0.80961,-0.28915,-0.36615,-0.31225,0.0043709,0,0,0.21018,-0.49051,0,0.07955,0,0,0.17066,-0.022824,0,0.17211,-0.28891,-0.3664,-0.31225,3.2386,-0.32252,0.068856,-1.0501e-05,0.22,0.4,0
0.18011,0.01261,0.7856,-0.28957,-0.36151,-0.30755,0.011248,0,0,0.16368,-0.49102,0,0.20471,0,0,0.17343,-0.034982,0,0.17686,-0.28785,-0.36323,-0.30755,8.6816,-0.31954,0.067713,-1.1511e-05,0.24,0.4,0
0.18288,0.014098,0.76105,-0.29161,-0.35729,-0.30339,0.019004,0,0,0.10722,-0.49048,0,0.34587,0,0,0.17884,-0.047466,0,0.18498,-0.28651,-0.36239,-0.30339,15.028,-0.31743,0.06901,-1.3534e-05,0.26,0.4,0
0.1844,0.017046,0.73553,-0.2955,-0.35291,-0.2996,0.028554,0,0,0.0373,-0.48515,0,0.51968,0,0,0.18799,-0.060313,0,0.19742,-0.28372,-0.3647,-0.2996,22.424,-0.316,0.074321,-1.7881e-05,0.28,0.4,0
0.18437,0.022239,0.70841,-0.30264,-0.34803,-0.2964,0.041143,0,0,-0.056755,-0.46982,0,0.7488,0,0,0.2026,-0.072865,0,0.21543,-0.27835,-0.37232,-0.2964,30.559,-0.31569,0.086374,-2.8283e-05,0.3,0.4,0
0.18213,0.031165,0.6788,-0.3158,-0.33824,-0.29318,0.058372,0,0,-0.20579,-0.41001,0,1.0624,0,0,0.2222,-0.081182,0,0.23688,-0.26758,-0.38646,-0.29318,39.559,-0.31574,0.10837,-5.3269e-05,0.32,0.4,0
0.17614,0.045857,0.6462,-0.35899,-0.79992,-0.71693,0.088537,0,0,0.33696,-0.18881,0,0.75976,0,0,0.27243,-0.30193,0,0.42976,-0.31529,-0.84361,-0.71693,27.211,-0.62528,0.48666,0.014035,0.34,0.4,0
0.1956,0.041514,0.63996,-0.43168,-1.2749,-1.1519,0.14703,0,0,0.93632,-0.15985,0,0.38228,0,0,0.36668,-0.48573,0,0.61049,-0.40678,-1.2998,-1.1519,9.6129,-0.95283,0.82903,0.026154,0.36,0.4,0
0.21359,0.040189,0.63153,-0.47428,-1.1694,-1.1246,0.15579,0,0,0.84547,-0.058216,0,0.40505,0,0,0.45652,-0.38451,0,0.59633,-0.44097,-1.2027,-1.1246,12.072,-0.92278,0.72588,0.018879,0.38,0.4,0
0.22942,0.040252,0.6217,-0.5318,-1.1114,-1.1147,0.13495,0,0,0.75771,0.0042358,0,0.35086,0,0,0.50814,-0.29354,0,0.5859,-0.50193,-1.1413,-1.1147,12.485,-0.91929,0.62647,0.012551,0.4,0.4,0
0.2439,0.040539,0.6112,-0.55852,-1.0508,-1.094,0.099412,0,0,0.69613,0.056138,0,0.25847,0,0,0.5324,-0.20534,0,0.56947,-0.5392,-1.0701,-1.094,10.996,-0.90112,0.54326,0.0081813,0.42,0.4,0
0.25727,0.04071,0.6004,-0.56966,-0.98784,-1.0676,0.051689,0,0,0.64739,0.10375,0,0.13439,0,0,0.53954,-0.11142,0,0.54933,-0.56337,-0.99414,-1.0676,6.9428,-0.87505,0.47184,0.0049566,0.44,0.4,0
0.26979,0.040451,0.58962,-0.5546,-0.92537,-1.0336,-0.015902,0,0,0.62271,0.14072,0,-0.041347,0,0,0.52651,-0.0012276,0,0.52396,-0.55392,-0.92605,-1.0336,-2.4515,-0.83786,0.43598,0.0033986,0.46,0.4,0
0.28218,0.039347,0.57934,-0.43602,-0.85293,-0.96603,-0.077034,0,0,0.68901,0.14702,0,-0.20029,0,0,0.42728,0.14534,0,0.44499,-0.42224,-0.86671,-0.96603,-10.141,-0.75166,0.50156,0.0056332,0.48,0.4,0
0.29735,0.040991,0.57253,-0.3473,-0.5744,-0.60367,-0.10113,0,0,0.056629,0.066594,0,-0.65061,0,0,0.28477,0.22249,0,0.3824,-0.2758,-0.6459,-0.60367,-39.507,-0.50845,0.36657,0.0060579,0.5,0.4,0
0.28444,0.032477,0.54046,-0.31169,-0.26579,-0.25045,-0.039893,0,0,-0.55725,-0.13959,0,-0.72606,0,0,0.21288,0.041938,0,0.21715,-0.24272,-0.33476,-0.25045,-59.955,-0.27598,0.088432,-3.4604e-05,0.52,0.4,0
0.27506,0.027421,0.51292,-0.28403,-0.25733,-0.23568,-0.027545,0,0,-0.43995,-0.19697,0,-0.50131,0,0,0.19032,0.025039,0,0.19192,-0.24007,-0.30129,-0.23568,-57.929,-0.25901,0.063526,-1.2955e-05,0.54,0.4,0
0.26684,0.023915,0.48717,-0.27069,-0.25382,-0.22695,-0.020252,0,0,-0.39803,-0.24455,0,-0.36858,0,0,0.18117,0.01376,0,0.18166,-0.24032,-0.28419,-0.22695,-56.304,-0.25049,0.051868,-5.5938e-06,0.56,0.4,0
0.25914,0.020975,0.4622,-0.26196,-0.25047,-0.21976,-0.015789,0,0,-0.38406,-0.27947,0,-0.28736,0,0,0.17687,0.0060334,0,0.17696,-0.23941,-0.27302,-0.21976,-55,-0.24406,0.046649,-2.2689e-06,0.58,0.4,0
0.25148,0.018416,0.43765,-0.25622,-0.24718,-0.21354,-0.012607,0,0,-0.38836,-0.30615,0,-0.22944,0,0,0.17445,0.00066254,0,0.17444,-0.23831,-0.26509,-0.21354,-54.857,-0.23898,0.044656,-3.0941e-07,0.6,0.4,0
0.24361,0.016139,0.41335,-0.25205,-0.2435,-0.20772,-0.010173,0,0,-0.40344,-0.32566,0,-0.18515,0,0,0.17297,-0.0031077,0,0.17299,-0.23674,-0.25881,-0.20772,-56.394,-0.23442,0.044386,1.0474e-06,0.62,0.4,0
0.23534,0.014132,0.38921,-0.24886,-0.23927,-0.20204,-0.0081254,0,0,-0.42603,-0.33881,0,-0.14788,0,0,0.17201,-0.0057721,0,0.17211,-0.23463,-0.2535,-0.20204,-60.267,-0.23006,0.045089,2.083e-06,0.64,0.4,0
0.22656,0.012403,0.36519,-0.24632,-0.23447,-0.19641,-0.0062756,0,0,-0.45423,-0.34636,0,-0.11422,0,0,0.17139,-0.0076818,0,0.17156,-0.23176,-0.24903,-0.19641,-66.681,-0.22573,0.04646,2.8566e-06,0.66,0.4,0
0.21717,0.010967,0.34123,-0.24426,-0.22913,-0.19076,-0.0045059,0,0,-0.48681,-0.34913,0,-0.082007,0,0,0.17101,-0.0091055,0,0.17125,-0.22789,-0.2455,-0.19076,-74.61,-0.22138,0.048397,3.3308e-06,0.68,0.4,0
0.20709,0.0098356,0.3173,-0.24256,-0.22333,-0.1851,-0.0027335,0,0,-0.52293,-0.34791,0,-0.049751,0,0,0.17082,-0.010265,0,0.17112,-0.22295,-0.24294,-0.1851,-82.066,-0.21699,0.050886,3.4158e-06,0.7,0.4,0
0.19626,0.0090124,0.2934,-0.24117,-0.21715,-0.17941,-0.00088807,0,0,-0.56203,-0.34341,0,-0.016163,0,0,0.17079,-0.011358,0,0.17117,-0.21711,-0.2412,-0.17941,-87.886,-0.21257,0.053947,2.9877e-06,0.72,0.4,0
0.18461,0.008496,0.26948,-0.24007,-0.21067,-0.17372,0.0011008,0,0,-0.60379,-0.33624,0,0.020035,0,0,0.17093,-0.012575,0,0.17139,-0.21063,-0.24011,-0.17372,87.859,-0.20815,0.057616,1.8887e-06,0.74,0.4,0
0.17211,0.00828,0.24554,-0.23928,-0.20398,-0.16805,0.0033125,0,0,-0.64814,-0.32693,0,0.060288,0,0,0.17126,-0.01412,0,0.17184,-0.20367,-0.23958,-0.16805,84.685,-0.20377,0.061948,-8.7661e-08,0.76,0.4,0
0.15869,0.0083545,0.22153,-0.23887,-0.19717,-0.16246,0.0058472,0,0,-0.69534,-0.31585,0,0.10642,0,0,0.17183,-0.01622,0,0.17259,-0.19636,-0.23967,-0.16246,82.168,-0.1995,0.067035,-3.235e-06,0.78,0.4,0
0.14429,0.0087101,0.19742,-0.239,-0.19032,-0.157,0.0088454,0,0,-0.74619,-0.30325,0,0.16099,0,0,0.17274,-0.01916,0,0.17379,-0.18877,-0.24056,-0.157,80.013,-0.19544,0.073051,-8.0257e-06,0.8,0.4,0
0.12884,0.0093447,0.17316,-0.24,-0.18357,-0.15181,0.012513,0,0,-0.80257,-0.28902,0,0.22775,0,0,0.1742,-0.02331,0,0.17574,-0.18092,-0.24266,-0.15181,78.042,-0.19179,0.080347,-1.5334e-05,0.82,0.4,0
0.11219,0.010271,0.14865,-0.24258,-0.17704,-0.14712,0.017169,0,0,-0.86863,-0.27229,0,0.31248,0,0,0.17665,-0.029197,0,0.17903,-0.17282,-0.2468,-0.14712,76.173,-0.18891,0.089638,-2.6999e-05,0.84,0.4,0
0.094093,0.011541,0.1237,-0.24827,-0.17101,-0.14345,0.023167,0,0,-0.95378,-0.25074,0,0.42164,0,0,0.18114,-0.037615,0,0.18497,-0.16459,-0.25468,-0.14345,74.524,-0.18757,0.10231,-4.7179e-05,0.86,0.4,0
0.074038,0.0132,0.097931,-0.25925,-0.16544,-0.1414,0.031121,0,0,-1.0724,-0.21879,0,0.56641,0,0,0.19095,-0.049766,0,0.19729,-0.15605,-0.26863,-0.1414,73.217,-0.18869,0.12058,-8.5568e-05,0.88,0.4,0
0.051196,0.015562,0.070234,-0.2814,-0.1633,-0.14344,0.042301,0,0,-1.2554,-0.18068,0,0.76988,0,0,0.21448,-0.067506,0,0.2251,-0.14971,-0.29499,-0.14344,72.192,-0.19605,0.14851,-0.00016722,0.9,0.4,0
0.023821,0.019957,0.037877,-0.30117,-0.22109,-0.17832,0.10825,0,0,-0.74632,-0.097293,0,0.68232,0,0,0.28439,-0.3173,0,0.44843,-0.13506,-0.3872,-0.17832,59.301,-0.23353,0.23466,-0.00064877,0.92,0.4,0
0.021343,0.01423,0.031123,-0.39137,-0.26919,-0.22929,0.1228,0,0,-0.2107,-0.051868,0,0.31928,0,0,0.42077,-0.30571,0,0.51584,-0.19312,-0.46744,-0.22929,58.225,-0.29662,0.25814,-0.00082527,0.94,0.4,0
0.015393,0.013167,0.021046,-0.5103,-0.26826,-0.25461,0.099842,0,0,-0.33239,-0.017738,0,0.25959,0,0,0.51347,-0.17128,0,0.53934,-0.23239,-0.54617,-0.25461,70.239,-0.34439,0.30328,-0.0014068,0.96,0.4,0
0.0080476,0.01283,0.010585,-0.54586,-0.25168,-0.24985,0.050315,0,0,-0.38482,-0.0023833,0,0.13082,0,0,0.52614,-0.077794,0,0.53072,-0.24331,-0.55423,-0.24985,80.558,-0.34913,0.3077,-0.001494,0.98,0.4,0
0,0.012791,0,-0.54035,-0.22908,-0.23083,-0.0007533,0,0,-0.40238,0.0022767,0,-0.0019586,0,0,0.52922,-6.9389e-18,0,0.52828,-0.22908,-0.54036,-0.23083,-89.861,-0.33342,0.31041,-0.0015359,1,0.4,0
0,0.051492,1,-0.59307,-1.5706,-1.6491,-0.0041347,0,0,1.3728,0.10207,0,-0.01075,0,0,0.48582,-1.478e-15,0,0.48531,-0.59305,-1.5706,-1.6491,-0.24235,-1.2709,1.0191,0.053267,0,0.42,0
0.027457,0.051277,0.99028,-0.58414,-1.5502,-1.6306,-0.027193,0,0,1.3604,0.10454,0,-0.070701,0,0,0.48442,0.055018,0,0.48696,-0.58338,-1.5509,-1.6306,-1.6111,-1.255,1.0097,0.051765,0.02,0.42,0
0.054414,0.050484,0.98062,-0.5915,-1.5349,-1.6185,-0.063509,0,0,1.3352,0.10873,0,-0.16512,0,0,0.47881,0.11667,0,0.49201,-0.58725,-1.5392,-1.6185,-3.834,-1.2483,0.99399,0.049356,0.04,0.42,0
0.080863,0.048883,0.97113,-0.5893,-1.5282,-1.6064,-0.12264,0,0,1.3222,0.10162,0,-0.31887,0,0,0.4646,0.19458,0,0.50225,-0.57355,-1.544,-1.6064,-7.3204,-1.2413,1.0031,0.05116,0.06,0.42,0
0.1073,0.045608,0.96204,-0.45586,-1.5192,-1.5546,-0.17434,0,0,1.4283,0.045933,0,-0.45329,0,0,0.37931,0.30869,0,0.48598,-0.42801,-1.5471,-1.5546,-9.0773,-1.1765,1.1228,0.072697,0.08,0.42,0
0.138,0.045233,0.95596,-0.3996,-1.116,-1.0009,-0.16488,0,0,0.86826,-0.26175,0,-1.1359,0,0,0.2558,0.30038,0,0.41495,-0.34515,-1.1704,-1.0009,-23.349,-0.83885,0.76042,0.057464,0.1,0.42,0
0.14203,0.024289,0.9269,-0.32378,-0.41973,-0.35547,-0.070306,0,0,0.28837,-0.58481,0,-1.2796,0,0,0.19239,0.059734,0,0.20163,-0.28664,-0.45687,-0.35547,-27.845,-0.36632,0.14832,-5.4322e-05,0.12,0.42,0
0.14953,0.013306,0.90209,-0.29748,-0.40412,-0.33935,-0.041819,0,0,0.38098,-0.58938,0,-0.76111,0,0,0.17072,0.037562,0,0.17467,-0.28304,-0.41856,-0.33935,-19.055,-0.34698,0.11792,-2.4225e-05,0.14,0.42,0
0.15727,0.0074446,0.87909,-0.28855,-0.39465,-0.33054,-0.024299,0,0,0.38215,-0.58335,0,-0.44225,0,0,0.16164,0.01944,0,0.16267,-0.28325,-0.39995,-0.33054,-12.305,-0.33792,0.10167,-1.7329e-05,0.16,0.42,0
0.16482,0.0041183,0.85683,-0.28327,-0.38571,-0.3231,-0.012667,0,0,0.36248,-0.56981,0,-0.23053,0,0,0.15797,0.0037985,0,0.1579,-0.28172,-0.38726,-0.3231,-6.9447,-0.33069,0.092103,-1.4586e-05,0.18,0.42,0
0.17177,0.0024219,0.83486,-0.28087,-0.37861,-0.31711,-0.0036802,0,0,0.32975,-0.55962,0,-0.06698,0,0,0.15684,-0.010497,0,0.15709,-0.28074,-0.37874,-0.31711,-2.1535,-0.32553,0.085813,-1.3917e-05,0.2,0.42,0
0.17801,0.0018325,0.81291,-0.27995,-0.37311,-0.31205,0.0041584,0,0,0.29211,-0.55564,0,0.075682,0,0,0.1575,-0.024312,0,0.15927,-0.27976,-0.37329,-0.31205,2.5508,-0.3217,0.082283,-1.4481e-05,0.22,0.42,0
0.18346,0.0021966,0.79076,-0.28026,-0.36918,-0.3078,0.012176,0,0,0.25058,-0.55857,0,0.2216,0,0,0.15988,-0.038375,0,0.16432,-0.27863,-0.37082,-0.3078,7.6581,-0.31908,0.081614,-1.6372e-05,0.24,0.42,0
0.18803,0.0036387,0.76815,-0.28231,-0.36682,-0.30447,0.021653,0,0,0.20171,-0.56736,0,0.39408,0,0,0.16447,-0.053397,0,0.17282,-0.27708,-0.37205,-0.30447,13.565,-0.31787,0.084658,-2.052e-05,0.26,0.42,0
0.19152,0.006624,0.74471,-0.2878,-0.3662,-0.30259,0.033938,0,0,0.13456,-0.57889,0,0.61767,0,0,0.1726,-0.070189,0,0.18624,-0.27515,-0.37885,-0.30259,20.442,-0.31886,0.093067,-2.9592e-05,0.28,0.42,0
0.19341,0.01195,0.71982,-0.29793,-0.36616,-0.30206,0.051719,0,0,0.037568,-0.58332,0,0.94128,0,0,0.18835,-0.089699,0,0.20859,-0.27009,-0.394,-0.30206,28.295,-0.32205,0.11142,-5.1822e-05,0.3,0.42,0
0.19303,0.021838,0.69197,-0.32407,-0.37186,-0.30763,0.080084,0,0,-0.14958,-0.58449,0,1.4575,0,0,0.21992,-0.1129,0,0.24778,-0.26439,-0.43154,-0.30763,36.693,-0.33452,0.15027,-0.00012685,0.32,0.42,0
0.18743,0.041319,0.65824,-0.3944,-0.91952,-0.77031,0.18455,0,0,0.36873,-0.33944,0,1.2623,0,0,0.30294,-0.48805,0,0.59865,-0.31327,-1.0007,-0.77031,28.846,-0.69474,0.61339,0.020232,0.34,0.42,0
0.20778,0.038259,0.65094,-0.46615,-1.187,-1.1469,0.2244,0,0,0.88496,-0.052154,0,0.58344,0,0,0.46219,-0.57254,0,0.73336,-0.402,-1.2512,-1.1469,15.953,-0.93335,0.80212,0.025002,0.36,0.42,0
0.22283,0.039812,0.63975,-0.61883,-1.1464,-1.1693,0.20028,0,0,0.71565,0.029789,0,0.52073,0,0,0.57681,-0.42783,0,0.71651,-0.55141,-1.2138,-1.1693,18.604,-0.97819,0.64132,0.013328,0.38,0.42,0
0.2364,0.041057,0.62787,-0.64926,-1.0884,-1.1492,0.15731,0,0,0.64987,0.079024,0,0.40901,0,0,0.60727,-0.32094,0,0.68571,-0.59872,-1.1389,-1.1492,17.811,-0.96227,0.54539,0.0083219,0.4,0.42,0
0.24882,0.042462,0.61546,-0.67201,-1.0201,-1.1231,0.1222,0,0,0.5864,0.13393,0,0.31772,0,0,0.63075,-0.22332,0,0.66795,-0.63339,-1.0587,-1.1231,17.538,-0.93838,0.46088,0.0046986,0.42,0.42,0
0.25986,0.043782,0.60264,-0.70394,-0.94085,-1.0961,0.074934,0,0,0.50978,0.2018,0,0.19483,0,0,0.65045,-0.1206,0,0.66002,-0.68223,-0.96256,-1.0961,16.159,-0.91362,0.36584,0.0014326,0.44,0.42,0
0.26921,0.044517,0.58945,-0.75789,-0.86756,-1.0771,0.0063802,0,0,0.41494,0.27238,0,0.016589,0,0,0.66901,-1.0216e-05,0,0.66658,-0.75752,-0.86793,-1.0771,3.3185,-0.90085,0.28112,-0.00057647,0.46,0.42,0
0.27646,0.044346,0.57588,-0.84603,-0.82173,-1.0762,-0.10634,0,0,0.29923,0.33082,0,-0.27649,0,0,0.72891,0.16263,0,0.73981,-0.72685,-0.94091,-1.0762,-48.259,-0.91465,0.30511,0.00055238,0.48,0.42,0
0.28118,0.041334,0.56029,-0.72074,-0.57615,-0.70923,-0.1883,0,0,-0.1837,0.18037,0,-1.1194,0,0,0.58598,0.26139,0,0.64461,-0.44651,-0.85038,-0.70923,-54.508,-0.66871,0.35948,0.0032602,0.5,0.42,0
0.27331,0.028111,0.53289,-0.78357,-0.30557,-0.63125,-0.10436,0,0,-0.34653,0.32984,0,-0.70983,0,0,0.73599,0.061001,0,0.73945,-0.26872,-0.82042,-0.63125,-64.8,-0.57346,0.49219,0.011335,0.52,0.42,0
0.26732,0.022676,0.50877,-0.7213,-0.28357,-0.59219,-0.042202,0,0,-0.29374,0.29953,0,-0.37951,0,0,0.68544,0.033232,0,0.68688,-0.26633,-0.73854,-0.59219,-67.147,-0.53235,0.4264,0.0089897,0.54,0.42,0
0.26156,0.018414,0.48491,-0.6975,-0.26738,-0.56656,-0.027755,0,0,-0.2979,0.27104,0,-0.26786,0,0,0.6801,0.017017,0,0.68051,-0.25491,-0.70997,-0.56656,-67.201,-0.51048,0.41235,0.0083239,0.56,0.42,0
0.2554,0.014981,0.46116,-0.68952,-0.26245,-0.54911,-0.019232,0,0,-0.31943,0.24423,0,-0.19875,0,0,0.67823,0.0075489,0,0.67831,-0.25322,-0.69875,-0.54911,-67.663,-0.50036,0.40387,0.0074242,0.58,0.42,0
0.24878,0.012003,0.43744,-0.68383,-0.25778,-0.53245,-0.01422,0,0,-0.34439,0.21964,0,-0.15454,0,0,0.67792,0.0014125,0,0.67792,-0.25076,-0.69084,-0.53245,-68.285,-0.49135,0.39908,0.0065651,0.6,0.42,0
0.24163,0.0094081,0.41371,-0.67979,-0.25309,-0.51627,-0.010509,0,0,-0.37201,0.19789,0,-0.12136,0,0,0.67805,-0.0027061,0,0.67806,-0.24791,-0.68497,-0.51627,-69.493,-0.48305,0.39655,0.0057131,0.62,0.42,0
0.2339,0.0071807,0.38997,-0.67709,-0.24795,-0.50035,-0.0075228,0,0,-0.40207,0.17918,0,-0.094223,0,0,0.67828,-0.0055328,0,0.67833,-0.24441,-0.68062,-0.50035,-71.661,-0.47513,0.39603,0.0048652,0.64,0.42,0
0.22555,0.0053251,0.36623,-0.67561,-0.24235,-0.48466,-0.0049563,0,0,-0.4344,0.16334,0,-0.070462,0,0,0.67845,-0.0075164,0,0.67854,-0.24026,-0.6777,-0.48466,-75.15,-0.46754,0.39729,0.0040036,0.66,0.42,0
0.21652,0.0038444,0.34248,-0.67516,-0.23635,-0.46916,-0.0026433,0,0,-0.46866,0.15002,0,-0.048536,0,0,0.67851,-0.0089712,0,0.67865,-0.23536,-0.67616,-0.46916,10.205,-0.46022,0.40014,0.0031119,0.68,0.42,0
0.2068,0.0027361,0.31873,-0.67552,-0.23002,-0.4538,-0.00045823,0,0,-0.50443,0.13878,0,-0.027315,0,0,0.67844,-0.010141,0,0.67861,-0.22968,-0.67585,-0.4538,5.4673,-0.45311,0.40434,0.0021764,0.7,0.42,0
0.19635,0.0019914,0.29499,-0.67649,-0.22343,-0.43854,0.001709,0,0,-0.54134,0.1292,0,-0.0058288,0,0,0.67822,-0.011235,0,0.67843,-0.22337,-0.67655,-0.43854,1.6415,-0.44615,0.40972,0.0011876,0.72,0.42,0
0.18515,0.0015968,0.27126,-0.6779,-0.21665,-0.42337,0.0039641,0,0,-0.57905,0.12089,0,0.016874,0,0,0.67784,-0.012455,0,0.6781,-0.21661,-0.67794,-0.42337,88.837,-0.43931,0.41609,0.00013888,0.74,0.42,0
0.17319,0.0015343,0.24754,-0.6796,-0.20978,-0.40827,0.0064173,0,0,-0.61728,0.11348,0,0.041829,0,0,0.67729,-0.014013,0,0.67763,-0.20956,-0.67982,-0.40827,86.739,-0.43255,0.42332,-0.00097309,0.76,0.42,0
0.16045,0.0017843,0.22385,-0.68146,-0.20288,-0.39321,0.0092035,0,0,-0.65576,0.10664,0,0.070339,0,0,0.6766,-0.016161,0,0.67705,-0.20232,-0.68202,-0.39321,85.035,-0.42585,0.43126,-0.002149,0.78,0.42,0
0.14696,0.0023279,0.20018,-0.68336,-0.19608,-0.37822,0.012528,0,0,-0.69419,0.10002,0,0.10434,0,0,0.67579,-0.01923,0,0.67643,-0.19497,-0.68448,-0.37822,83.499,-0.41922,0.43979,-0.0033869,0.8,0.42,0
0.13269,0.0031568,0.17654,-0.6853,-0.18959,-0.36335,0.01679,0,0,-0.73243,0.093282,0,0.14718,0,0,0.67502,-0.023703,0,0.67598,-0.18762,-0.68728,-0.36335,81.953,-0.41275,0.44889,-0.0046862,0.82,0.42,0
0.11766,0.004293,0.15293,-0.68801,-0.18406,-0.34901,0.022774,0,0,-0.77123,0.086333,0,0.20486,0,0,0.67468,-0.030381,0,0.67623,-0.18067,-0.6914,-0.34901,80.262,-0.40703,0.45898,-0.0060748,0.84,0.42,0
0.10184,0.0058143,0.12931,-0.69417,-0.18052,-0.3363,0.032621,0,0,-0.81415,0.079796,0,0.29025,0,0,0.67624,-0.040755,0,0.6789,-0.17466,-0.70004,-0.3363,78.291,-0.40367,0.47242,-0.0076806,0.86,0.42,0
0.085091,0.0079778,0.10559,-0.71858,-0.18768,-0.33222,0.048889,0,0,-0.87897,0.076,0,0.41783,0,0,0.68255,-0.058839,0,0.68753,-0.17761,-0.72864,-0.33222,76.347,-0.41282,0.49644,-0.010262,0.88,0.42,0
0.06668,0.010841,0.081535,-0.78781,-0.20568,-0.34464,0.095236,0,0,-1.0082,0.079477,0,0.67697,0,0,0.74518,-0.090295,0,0.75377,-0.18378,-0.80971,-0.34464,73.384,-0.44604,0.56532,-0.016608,0.9,0.42,0
0.044763,0.017084,0.05343,-0.68722,-0.32376,-0.33382,0.17427,0,0,-0.92906,-0.048473,0,1.0356,0,0,0.59796,-0.32875,0,0.68925,-0.25264,-0.75833,-0.33382,65.915,-0.44827,0.47044,-0.010516,0.92,0.42,0
0.032853,0.01479,0.037628,-0.81042,-0.29419,-0.36901,0.15445,0,0,-0.57383,0.097267,0,0.40157,0,0,0.72023,-0.30303,0,0.77552,-0.25151,-0.8531,-0.36901,74.552,-0.49121,0.5523,-0.0073495,0.94,0.42,0
0.02181,0.01394,0.02462,-0.73965,-0.24458,-0.31989,0.10093,0,0,-0.54569,0.097905,0,0.26243,0,0,0.63629,-0.16481,0,0.65574,-0.22479,-0.75943,-0.31989,78.908,-0.4347,0.49401,-0.0054266,0.96,0.42,0
0.011025,0.013811,0.012176,-0.70725,-0.21161,-0.28783,0.051125,0,0,-0.54524,0.099095,0,0.13292,0,0,0.61551,-0.073428,0,0.61898,-0.20639,-0.71247,-0.28783,84.172,-0.40223,0.47067,-0.0048192,0.98,0.42,0
0,0.013815,0,-0.68464,-0.18401,-0.26059,8.169e-05,0,0,-0.55126,0.099563,0,0.00021239,0,0,0.60881,1.3878e-17,0,0.60807,-0.18401,-0.68464,-0.26059,89.991,-0.37641,0.46707,-0.0047625,1,0.42,0
0,0.053893,1,-0.62767,-1.5558,-1.655,-0.0022597,0,0,1.3356,0.129,0,-0.0058751,0,0,0.54197,-1.6168e-15,0,0.54153,-0.62766,-1.5558,-1.655,-0.13949,-1.2795,0.98154,0.046898,0,0.44,0
0.026712,0.053775,0.98916,-0.62243,-1.53,-1.6349,-0.01544,0,0,1.3162,0.13632,0,-0.040144,0,0,0.54429,0.054002,0,0.54647,-0.62217,-1.5303,-1.6349,-0.97434,-1.2625,0.9647,0.044287,0.02,0.44,0
0.052649,0.053258,0.97823,-0.64923,-1.5038,-1.6241,-0.041693,0,0,1.2674,0.15648,0,-0.1084,0,0,0.55223,0.11494,0,0.56336,-0.6472,-1.5058,-1.6241,-2.7867,-1.259,0.92346,0.038216,0.04,0.44,0
0.077406,0.05177,0.96707,-0.70866,-1.4857,-1.6254,-0.087177,0,0,1.1917,0.18161,0,-0.22666,0,0,0.56835,0.19309,0,0.59899,-0.699,-1.4953,-1.6254,-6.3236,-1.2732,0.86868,0.031139,0.06,0.44,0
0.10032,0.048703,0.95549,-0.80754,-1.4976,-1.647,-0.21431,0,0,1.0913,0.19429,0,-0.5572,0,0,0.64012,0.31041,0,0.70656,-0.7464,-1.5587,-1.647,-15.923,-1.3174,0.85988,0.031496,0.08,0.44,0
0.12106,0.037619,0.94147,-0.71955,-1.0306,-1.063,-0.28717,0,0,0.62797,-0.12098,0,-1.7083,0,0,0.52753,0.30932,0,0.61786,-0.54754,-1.2026,-1.063,-32.419,-0.93771,0.60422,0.022384,0.1,0.44,0
0.12953,0.0096785,0.91679,-0.64263,-0.47762,-0.85996,-0.17024,0,0,0.49442,0.18395,0,-1.1142,0,0,0.64714,0.085456,0,0.65521,-0.33323,-0.78702,-0.85996,-46.097,-0.66007,0.52247,0.010864,0.12,0.44,0
0.14084,-4.9103e-05,0.89617,-0.56795,-0.44257,-0.81525,-0.053418,0,0,0.56261,0.1983,0,-0.48756,0,0,0.58189,0.049045,0,0.58544,-0.36337,-0.64715,-0.81525,-48.907,-0.60859,0.42902,-0.0003567,0.14,0.44,0
0.15203,-0.0054766,0.87606,-0.55764,-0.41398,-0.79209,-0.025507,0,0,0.53337,0.21466,0,-0.26603,0,0,0.57133,0.023919,0,0.57219,-0.34597,-0.62566,-0.79209,-48.652,-0.58791,0.4193,0.00021683,0.16,0.44,0
0.16217,-0.0082089,0.85617,-0.56973,-0.40456,-0.78153,-0.0093725,0,0,0.48184,0.2259,0,-0.12465,0,0,0.56764,0.0050645,0,0.56759,-0.34351,-0.63079,-0.78153,-47.633,-0.58527,0.40995,0.0015642,0.18,0.44,0
0.17131,-0.0095462,0.83633,-0.57963,-0.39715,-0.77094,6.7106e-05,0,0,0.43522,0.22945,0,-0.028972,0,0,0.56796,-0.011371,0,0.56811,-0.34029,-0.6365,-0.77094,43.827,-0.58257,0.40352,0.002733,0.2,0.44,0
0.17958,-0.009999,0.81642,-0.5854,-0.39176,-0.75967,0.0076287,0,0,0.39647,0.22475,0,0.05156,0,0,0.57111,-0.027154,0,0.57233,-0.33727,-0.63989,-0.75967,45.425,-0.57895,0.39762,0.0035229,0.22,0.44,0
0.18716,-0.009733,0.79635,-0.58664,-0.38788,-0.74741,0.015607,0,0,0.36575,0.21176,0,0.13509,0,0,0.57737,-0.043627,0,0.58054,-0.33396,-0.64056,-0.74741,47.142,-0.57398,0.39205,0.0039482,0.24,0.44,0
0.19421,-0.0085963,0.776,-0.58509,-0.38624,-0.73483,0.026358,0,0,0.34065,0.19098,0,0.23981,0,0,0.58809,-0.062241,0,0.59429,-0.33076,-0.64057,-0.73483,48.946,-0.56872,0.38716,0.0041134,0.26,0.44,0
0.20079,-0.0061092,0.75518,-0.58474,-0.38724,-0.72313,0.044646,0,0,0.31483,0.1638,0,0.39504,0,0,0.60673,-0.085111,0,0.61745,-0.32659,-0.64538,-0.72313,50.57,-0.56503,0.38639,0.0043457,0.28,0.44,0
0.2068,-0.0010935,0.73353,-0.61225,-0.40746,-0.72507,0.075466,0,0,0.25668,0.13339,0,0.63205,0,0,0.63955,-0.11724,0,0.65724,-0.33644,-0.68326,-0.72507,51.937,-0.58159,0.39223,0.0053231,0.3,0.44,0
0.21106,0.0077853,0.71041,-0.71439,-0.43842,-0.75179,0.18719,0,0,0.085098,0.10625,0,1.2307,0,0,0.75955,-0.16481,0,0.78497,-0.31204,-0.84077,-0.75179,51.11,-0.63487,0.50679,0.014436,0.32,0.44,0
0.21021,0.03228,0.68036,-0.76979,-0.91193,-0.89329,0.30562,0,0,0.14233,-0.21792,0,1.8076,0,0,0.64947,-0.47927,0,0.817,-0.52695,-1.1548,-0.89329,39.054,-0.85834,0.54956,0.0073403,0.34,0.44,0
0.22045,0.039428,0.66286,-0.87554,-1.2059,-1.2873,0.27508,0,0,0.53528,0.10581,0,0.71521,0,0,0.79294,-0.57941,0,0.97696,-0.71985,-1.3616,-1.2873,29.508,-1.1229,0.608,0.010964,0.36,0.44,0
0.23162,0.04138,0.64864,-0.78993,-1.1352,-1.2262,0.18735,0,0,0.56711,0.1183,0,0.4871,0,0,0.70811,-0.44347,0,0.83408,-0.70781,-1.2173,-1.2262,23.672,-1.0504,0.51399,0.006967,0.38,0.44,0
0.24313,0.043412,0.63453,-0.75671,-1.0776,-1.1848,0.16645,0,0,0.55654,0.13943,0,0.43277,0,0,0.71264,-0.34249,0,0.78969,-0.68596,-1.1483,-1.1848,23.028,-1.0064,0.48164,0.0056275,0.4,0.44,0
0.25388,0.045897,0.62014,-0.76876,-1.0005,-1.1509,0.15112,0,0,0.4968,0.19553,0,0.39292,0,0,0.73274,-0.24704,0,0.77233,-0.6942,-1.0751,-1.1509,26.26,-0.9734,0.42391,0.0034939,0.42,0.44,0
0.263,0.048782,0.60523,-0.80828,-0.89489,-1.1162,0.12223,0,0,0.40026,0.28767,0,0.3178,0,0,0.76286,-0.14521,0,0.77547,-0.72191,-0.98126,-1.1162,35.246,-0.93978,0.34707,0.0011052,0.44,0.44,0
0.26989,0.051346,0.58962,-0.86888,-0.78604,-1.0861,0.066781,0,0,0.28238,0.39008,0,0.17363,0,0,0.80974,-0.031215,0,0.80906,-0.74887,-0.90604,-1.0861,60.905,-0.91367,0.29227,-0.0001503,0.46,0.44,0
0.2743,0.05258,0.57283,-0.96136,-0.7134,-1.0753,-0.011781,0,0,0.14808,0.47042,0,-0.030631,0,0,0.90682,0.10162,0,0.9122,-0.71285,-0.96191,-1.0753,-87.286,-0.91668,0.32111,0.001014,0.48,0.44,0
0.27581,0.05147,0.55335,-1.054,-0.64087,-1.0618,-0.11739,0,0,0.010153,0.54722,0,-0.3052,0,0,1.0325,0.21763,0,1.0605,-0.60985,-1.085,-1.0618,-75.196,-0.9189,0.46401,0.0050877,0.5,0.44,0
0.27471,0.045671,0.53153,-1.0764,-0.34007,-0.95647,-0.10521,0,0,-0.15588,0.80132,0,-0.27355,0,0,1.1329,0.073086,0,1.1338,-0.32533,-1.0911,-0.95647,-82.025,-0.79097,0.70813,0.016037,0.52,0.44,0
0.26958,0.039402,0.50803,-1.1623,-0.32089,-0.95298,-0.069824,0,0,-0.27207,0.82172,0,-0.18154,0,0,1.1745,0.034665,0,1.1749,-0.31513,-1.168,-0.95298,-85.288,-0.81205,0.76828,0.017285,0.54,0.44,0
0.26382,0.034757,0.48455,-1.148,-0.29571,-0.91766,-0.041602,0,0,-0.29943,0.80855,0,-0.10816,0,0,1.1756,0.01645,0,1.1757,-0.29368,-1.15,-0.91766,-87.212,-0.78712,0.76703,0.016208,0.56,0.44,0
0.2576,0.030744,0.46101,-1.1358,-0.28341,-0.88678,-0.0289,0,0,-0.32377,0.78438,0,-0.075139,0,0,1.1786,0.0063396,0,1.1786,-0.28243,-1.1368,-0.88678,-88.061,-0.76868,0.76083,0.014659,0.58,0.44,0
0.25087,0.027201,0.43741,-1.1283,-0.27541,-0.85852,-0.020706,0,0,-0.35069,0.75804,0,-0.053837,0,0,1.1811,0.00018305,0,1.1811,-0.27491,-1.1288,-0.85852,-88.61,-0.75407,0.75589,0.013003,0.6,0.44,0
0.24357,0.024055,0.41376,-1.1243,-0.26878,-0.83168,-0.014792,0,0,-0.38037,0.73178,0,-0.038459,0,0,1.1831,-0.0037327,0,1.1831,-0.26852,-1.1245,-0.83168,-89.01,-0.74158,0.75355,0.011318,0.62,0.44,0
0.23566,0.021299,0.39009,-1.1227,-0.2623,-0.80559,-0.010085,0,0,-0.41228,0.70629,0,-0.026221,0,0,1.1846,-0.0062774,0,1.1846,-0.26218,-1.1228,-0.80559,-89.329,-0.73021,0.75389,0.0096056,0.64,0.44,0
0.22708,0.018936,0.36638,-1.1229,-0.25562,-0.77995,-0.0062101,0,0,-0.44589,0.68163,0,-0.016146,0,0,1.1856,-0.0079594,0,1.1857,-0.25557,-1.123,-0.77995,-89.59,-0.7195,0.75665,0.0078452,0.66,0.44,0
0.21782,0.016968,0.34266,-1.1244,-0.24869,-0.75458,-0.0029363,0,0,-0.48075,0.65767,0,-0.0076345,0,0,1.1862,-0.0091127,0,1.1862,-0.24868,-1.1244,-0.75458,-89.808,-0.70922,0.76145,0.0060141,0.68,0.44,0
0.20785,0.015387,0.31893,-1.1267,-0.24155,-0.7294,-7.8352e-05,0,0,-0.51647,0.63422,0,-0.00020372,0,0,1.1862,-0.0099822,0,1.1863,-0.24155,-1.1267,-0.7294,-89.995,-0.69921,0.76789,0.0040955,0.7,0.44,0
0.19716,0.01418,0.29521,-1.1295,-0.23427,-0.70435,0.0025354,0,0,-0.55274,0.61111,0,0.006592,0,0,1.1858,-0.010769,0,1.1859,-0.23426,-1.1295,-0.70435,89.838,-0.68939,0.77566,0.002079,0.72,0.44,0
0.18574,0.013332,0.2715,-1.1327,-0.22692,-0.67939,0.0050621,0,0,-0.5893,0.58821,0,0.013162,0,0,1.1849,-0.011664,0,1.185,-0.22689,-1.1327,-0.67939,89.68,-0.67966,0.78447,-3.9718e-05,0.74,0.44,0
0.17359,0.012819,0.24782,-1.136,-0.21958,-0.65448,0.0076475,0,0,-0.62594,0.56537,0,0.019883,0,0,1.1835,-0.012869,0,1.1836,-0.21952,-1.136,-0.65448,89.522,-0.67001,0.79407,-0.0022606,0.76,0.44,0
0.16071,0.01262,0.22416,-1.1392,-0.21239,-0.62965,0.010446,0,0,-0.66245,0.54244,0,0.027159,0,0,1.1815,-0.014635,0,1.1816,-0.21227,-1.1394,-0.62965,89.354,-0.66042,0.8042,-0.0045796,0.78,0.44,0
0.14709,0.012711,0.20056,-1.1423,-0.20561,-0.60495,0.013697,0,0,-0.69863,0.51913,0,0.035612,0,0,1.1789,-0.017309,0,1.179,-0.20541,-1.1425,-0.60495,89.162,-0.65097,0.81452,-0.0069897,0.8,0.44,0
0.13276,0.013076,0.17701,-1.1453,-0.19986,-0.58056,0.017912,0,0,-0.73417,0.49491,0,0.04657,0,0,1.1756,-0.021441,0,1.1758,-0.19952,-1.1456,-0.58056,88.915,-0.6419,0.82452,-0.0094793,0.82,0.44,0
0.11773,0.013724,0.15353,-1.1481,-0.19646,-0.5569,0.024429,0,0,-0.76855,0.46857,0,0.063516,0,0,1.1716,-0.028014,0,1.172,-0.19583,-1.1487,-0.5569,88.53,-0.63381,0.83325,-0.012027,0.84,0.44,0
0.10202,0.014733,0.13014,-1.1499,-0.19783,-0.53445,0.035951,0,0,-0.80004,0.43761,0,0.093471,0,0,1.167,-0.039098,0,1.1677,-0.19648,-1.1512,-0.53445,87.841,-0.62739,0.83851,-0.014545,0.86,0.44,0
0.085724,0.01624,0.10685,-1.1445,-0.20857,-0.51277,0.060726,0,0,-0.82126,0.39547,0,0.15789,0,0,1.1652,-0.060032,0,1.1667,-0.20464,-1.1484,-0.51277,86.303,-0.62195,0.83359,-0.016632,0.88,0.44,0
0.069168,0.018741,0.083533,-1.058,-0.20963,-0.46384,0.089701,0,0,-0.77248,0.33047,0,0.23322,0,0,1.1202,-0.10718,0,1.1232,-0.20025,-1.0674,-0.46384,84.03,-0.57717,0.77,-0.014521,0.9,0.44,0
0.054825,0.019922,0.062045,-1.0252,-0.35096,-0.47491,0.1203,0,0,-0.71544,0.16113,0,0.31279,0,0,1.0072,-0.28908,0,1.0543,-0.33014,-1.0461,-0.47491,80.181,-0.61704,0.65565,-0.01213,0.92,0.44,0
0.040551,0.018121,0.043245,-0.9407,-0.25875,-0.40308,0.078873,0,0,-0.6989,0.18763,0,0.20507,0,0,0.86018,-0.21368,0,0.88794,-0.24975,-0.9497,-0.40308,83.488,-0.53418,0.63728,-0.010743,0.94,0.44,0
0.026869,0.017083,0.027638,-0.87219,-0.20827,-0.35178,0.061621,0,0,-0.67654,0.18655,0,0.16021,0,0,0.74308,-0.12022,0,0.75258,-0.2026,-0.87786,-0.35178,84.742,-0.47741,0.61441,-0.0095864,0.96,0.44,0
0.013489,0.016794,0.013522,-0.83207,-0.17404,-0.31535,0.034728,0,0,-0.67173,0.1837,0,0.090293,0,0,0.69095,-0.05333,0,0.69268,-0.17222,-0.83389,-0.31535,86.987,-0.44049,0.60299,-0.0091569,0.98,0.44,0
0,0.016774,0,-0.80215,-0.1423,-0.28334,-0.00039311,0,0,-0.67446,0.18334,0,-0.0010221,0,0,0.67608,0,0,0.67571,-0.1423,-0.80215,-0.28334,-89.966,-0.40926,0.60186,-0.009158,1,0.44,0
0,0.056652,1,-0.63894,-1.5531,-1.6576,0.0014952,0,0,1.3243,0.13586,0,0.0038876,0,0,0.59383,1.1415e-15,0,0.59352,-0.63893,-1.5531,-1.6576,0.093713,-1.2832,0.97066,0.045139,0,0.46,0
0.026486,0.05673,0.98812,-0.63261,-1.521,-1.6342,0.00094583,0,0,1.3021,0.14716,0,0.0024592,0,0,0.59936,0.046813,0,0.60086,-0.63261,-1.521,-1.6342,0.060999,-1.2626,0.95008,0.041945,0.02,0.46,0
0.052083,0.056743,0.97603,-0.65836,-1.4793,-1.6173,-0.0071628,0,0,1.2467,0.17943,0,-0.018623,0,0,0.6179,0.098581,0,0.62538,-0.65829,-1.4794,-1.6173,-0.49986,-1.2517,0.89803,0.034256,0.04,0.46,0
0.076352,0.056148,0.96341,-0.69223,-1.4219,-1.5977,-0.037334,0,0,1.1771,0.22843,0,-0.09707,0,0,0.66007,0.16077,0,0.67908,-0.69033,-1.4238,-1.5977,-2.9213,-1.2373,0.83412,0.025498,0.06,0.46,0
0.099166,0.05338,0.94962,-0.76576,-1.3808,-1.5936,-0.11001,0,0,1.0762,0.27663,0,-0.28602,0,0,0.75372,0.24005,0,0.79217,-0.74667,-1.3999,-1.5936,-9.8417,-1.2467,0.76859,0.01842,0.08,0.46,0
0.1194,0.045588,0.93326,-0.86464,-1.2123,-1.5563,-0.22553,0,0,0.8992,0.44728,0,-0.58639,0,0,0.87011,0.29294,0,0.9225,-0.75371,-1.3232,-1.5563,-26.189,-1.2111,0.71514,0.012275,0.1,0.46,0
0.13513,0.031647,0.91482,-0.85821,-0.60591,-1.354,-0.17975,0,0,0.6446,0.97259,0,-0.46735,0,0,0.95519,0.11399,0,0.95987,-0.51246,-0.95166,-1.354,-62.531,-0.93939,0.72907,0.0015057,0.12,0.46,0
0.14518,0.021238,0.89505,-0.96985,-0.53955,-1.3479,-0.087735,0,0,0.49143,1.0508,0,-0.22811,0,0,0.98202,0.058536,0,0.98359,-0.52235,-0.98705,-1.3479,-78.907,-0.95242,0.71681,0.0040832,0.14,0.46,0
0.15479,0.016031,0.87554,-0.94083,-0.47663,-1.3008,-0.029223,0,0,0.46793,1.0714,0,-0.075981,0,0,0.97466,0.027154,0,0.97498,-0.4748,-0.94267,-1.3008,-86.412,-0.90608,0.71742,0.0043181,0.16,0.46,0
0.1639,0.013154,0.85606,-0.93018,-0.44581,-1.2689,-0.006815,0,0,0.44029,1.07,0,-0.017719,0,0,0.97414,0.0048022,0,0.97411,-0.44571,-0.93027,-1.2689,-89.194,-0.88161,0.71659,0.0056951,0.18,0.46,0
0.1724,0.0116,0.83657,-0.92976,-0.42929,-1.2443,0.0041457,0,0,0.40888,1.0595,0,0.010779,0,0,0.97656,-0.014152,0,0.97664,-0.42925,-0.9298,-1.2443,89.525,-0.86778,0.71194,0.0070997,0.2,0.46,0
0.18025,0.010823,0.817,-0.93411,-0.42125,-1.2236,0.010989,0,0,0.37635,1.0431,0,0.028571,0,0,0.98191,-0.032539,0,0.98242,-0.42102,-0.93435,-1.2236,88.773,-0.85966,0.70404,0.0082673,0.22,0.46,0
0.18746,0.010667,0.7973,-0.94152,-0.42014,-1.2058,0.018587,0,0,0.34356,1.0213,0,0.048326,0,0,0.99084,-0.052505,0,0.9922,-0.41948,-0.94218,-1.2058,87.961,-0.85582,0.69318,0.0091438,0.24,0.46,0
0.194,0.011278,0.77737,-0.95415,-0.42784,-1.192,0.031975,0,0,0.30916,0.99337,0,0.083136,0,0,1.0051,-0.076507,0,1.008,-0.4259,-0.95608,-1.192,86.536,-0.85798,0.67955,0.0098156,0.26,0.46,0
0.19982,0.013176,0.75709,-0.97752,-0.44963,-1.1852,0.058725,0,0,0.27003,0.95628,0,0.15268,0,0,1.0277,-0.10847,0,1.0334,-0.44318,-0.98397,-1.1852,83.728,-0.87079,0.66468,0.010551,0.28,0.46,0
0.2048,0.017286,0.73626,-1.0172,-0.49993,-1.1914,0.12156,0,0,0.22641,0.89893,0,0.31606,0,0,1.068,-0.15678,0,1.0792,-0.47279,-1.0444,-1.1914,77.414,-0.90287,0.65756,0.012178,0.3,0.46,0
0.20888,0.026088,0.71437,-0.92072,-0.54726,-1.1548,0.21365,0,0,0.30425,0.78976,0,0.55549,0,0,1.0736,-0.24402,0,1.0979,-0.45023,-1.0177,-1.1548,65.577,-0.87425,0.64699,0.011834,0.32,0.46,0
0.21697,0.037282,0.69332,-0.94278,-1.0685,-1.2967,0.27122,0,0,0.4601,0.29666,0,0.70517,0,0,1.0063,-0.51884,0,1.1341,-0.72724,-1.284,-1.2967,38.475,-1.1027,0.56325,0.0091619,0.34,0.46,0
0.22728,0.042492,0.67412,-0.85949,-1.1274,-1.2702,0.18739,0,0,0.53392,0.18558,0,0.48721,0,0,0.89562,-0.50677,0,1.0302,-0.76311,-1.2238,-1.2702,27.218,-1.0857,0.48556,0.0056993,0.36,0.46,0
0.23833,0.044544,0.65749,-0.8117,-1.107,-1.2331,0.15735,0,0,0.54782,0.16396,0,0.40912,0,0,0.81374,-0.43488,0,0.92212,-0.74357,-1.1751,-1.2331,23.412,-1.0506,0.46327,0.0048377,0.38,0.46,0
0.2492,0.046635,0.64157,-0.8107,-1.0891,-1.2115,0.16804,0,0,0.52106,0.15913,0,0.4369,0,0,0.8037,-0.3629,0,0.88129,-0.73169,-1.1681,-1.2115,25.181,-1.0371,0.45965,0.0048382,0.4,0.46,0
0.25917,0.050283,0.62535,-0.83209,-1.006,-1.1768,0.18945,0,0,0.4481,0.22198,0,0.49258,0,0,0.82803,-0.27951,0,0.87334,-0.71059,-1.1275,-1.1768,32.671,-1.005,0.44361,0.0042977,0.42,0.46,0
0.26712,0.055289,0.60845,-0.87256,-0.85343,-1.1262,0.18151,0,0,0.32979,0.35466,0,0.47193,0,0,0.86627,-0.18135,0,0.88433,-0.68123,-1.0448,-1.1262,46.508,-0.95074,0.41038,0.0030832,0.44,0.46,0
0.27236,0.060121,0.59069,-0.92775,-0.70775,-1.0813,0.13272,0,0,0.19967,0.48568,0,0.34508,0,0,0.91585,-0.078648,0,0.9187,-0.64537,-0.99013,-1.0813,64.826,-0.90561,0.39828,0.0026801,0.46,0.46,0
0.27511,0.063163,0.57181,-0.98091,-0.60859,-1.0487,0.056293,0,0,0.088079,0.5721,0,0.14636,0,0,0.97775,0.011845,0,0.97818,-0.60027,-0.98924,-1.0487,81.588,-0.87939,0.42184,0.0035987,0.48,0.46,0
0.27588,0.063223,0.55158,-1.0409,-0.54701,-1.028,-0.017933,0,0,-0.016837,0.62523,0,-0.046627,0,0,1.0461,0.051218,0,1.048,-0.54636,-1.0416,-1.028,-87.923,-0.87196,0.48854,0.005973,0.5,0.46,0
0.27443,0.060164,0.52997,-1.0733,-0.42313,-0.97891,-0.066195,0,0,-0.12276,0.72252,0,-0.17211,0,0,1.105,0.050655,0,1.1065,-0.41646,-1.08,-0.97891,-84.246,-0.82513,0.61922,0.011107,0.52,0.46,0
0.27097,0.055544,0.50738,-1.1029,-0.33434,-0.93854,-0.062042,0,0,-0.2136,0.78546,0,-0.16131,0,0,1.1429,0.024288,0,1.1431,-0.32936,-1.1078,-0.93854,-85.414,-0.79191,0.70914,0.014856,0.54,0.46,0
0.26589,0.050756,0.48425,-1.1265,-0.30799,-0.9146,-0.046224,0,0,-0.27546,0.78859,0,-0.12018,0,0,1.1619,0.010139,0,1.1619,-0.30538,-1.1291,-0.9146,-86.778,-0.78302,0.74015,0.015079,0.56,0.46,0
0.25995,0.046357,0.46091,-1.1292,-0.29239,-0.88737,-0.031813,0,0,-0.31431,0.77347,0,-0.082712,0,0,1.1706,0.0018362,0,1.1706,-0.29118,-1.1303,-0.88737,-87.826,-0.76963,0.74789,0.014089,0.58,0.46,0
0.25332,0.042324,0.43743,-1.1295,-0.28241,-0.86099,-0.021558,0,0,-0.34902,0.75216,0,-0.05605,0,0,1.1763,-0.003136,0,1.1763,-0.28186,-1.13,-0.86099,-88.543,-0.75762,0.75071,0.012698,0.6,0.46,0
0.24599,0.038679,0.41386,-1.1304,-0.27426,-0.83525,-0.013773,0,0,-0.38366,0.72928,0,-0.03581,0,0,1.1801,-0.0061374,0,1.1802,-0.27404,-1.1306,-0.83525,-89.079,-0.74663,0.75362,0.01115,0.62,0.46,0
0.23797,0.035432,0.39022,-1.1322,-0.26664,-0.80989,-0.0077515,0,0,-0.41906,0.70622,0,-0.020154,0,0,1.1828,-0.0079247,0,1.1828,-0.26657,-1.1323,-0.80989,-89.487,-0.73626,0.75784,0.0094969,0.64,0.46,0
0.22923,0.03259,0.36655,-1.1347,-0.25911,-0.7847,-0.003013,0,0,-0.45504,0.68326,0,-0.0078337,0,0,1.1845,-0.0089551,0,1.1845,-0.2591,-1.1347,-0.7847,-89.803,-0.72618,0.76339,0.0077428,0.66,0.46,0
0.21977,0.030151,0.34285,-1.1375,-0.25158,-0.75957,0.0007707,0,0,-0.4913,0.66038,0,0.0020038,0,0,1.1854,-0.0095258,0,1.1854,-0.25158,-1.1375,-0.75957,89.95,-0.71621,0.76997,0.005884,0.68,0.46,0
0.20958,0.028105,0.31913,-1.1402,-0.24405,-0.73442,0.0038744,0,0,-0.52756,0.63748,0,0.010074,0,0,1.1856,-0.009848,0,1.1857,-0.24403,-1.1402,-0.73442,89.752,-0.70623,0.7773,0.00392,0.7,0.46,0
0.19867,0.026436,0.29542,-1.1428,-0.23656,-0.70923,0.0065358,0,0,-0.56363,0.61446,0,0.016993,0,0,1.1852,-0.01009,0,1.1852,-0.23652,-1.1428,-0.70923,89.587,-0.6962,0.78514,0.0018553,0.72,0.46,0
0.18703,0.025125,0.27172,-1.145,-0.22917,-0.68398,0.0089593,0,0,-0.59936,0.59126,0,0.023294,0,0,1.1841,-0.010405,0,1.1842,-0.22908,-1.1451,-0.68398,89.44,-0.68606,0.79331,-0.00030208,0.74,0.46,0
0.17469,0.024149,0.24806,-1.1468,-0.22193,-0.65869,0.01132,0,0,-0.6346,0.56778,0,0.029431,0,0,1.1823,-0.010959,0,1.1824,-0.22179,-1.147,-0.65869,89.299,-0.67582,0.80165,-0.0025413,0.76,0.46,0
0.16165,0.023482,0.22443,-1.1481,-0.21498,-0.63337,0.013776,0,0,-0.66921,0.54391,0,0.035817,0,0,1.1796,-0.011962,0,1.1797,-0.21477,-1.1483,-0.63337,89.154,-0.6655,0.80993,-0.004848,0.78,0.46,0
0.14792,0.023093,0.20087,-1.1487,-0.20859,-0.60806,0.016507,0,0,-0.70283,0.51931,0,0.042917,0,0,1.1758,-0.013711,0,1.1759,-0.2083,-1.149,-0.60806,88.994,-0.65512,0.81771,-0.0071998,0.8,0.46,0
0.13354,0.022953,0.1774,-1.1478,-0.20348,-0.58279,0.019823,0,0,-0.73456,0.49311,0,0.05154,0,0,1.1706,-0.016681,0,1.1707,-0.20306,-1.1482,-0.58279,88.798,-0.6447,0.82381,-0.0095461,0.82,0.46,0
0.11854,0.023036,0.15405,-1.1435,-0.20114,-0.55744,0.024268,0,0,-0.76187,0.46319,0,0.063098,0,0,1.163,-0.021703,0,1.1632,-0.20052,-1.1441,-0.55744,88.526,-0.63402,0.82522,-0.011742,0.84,0.46,0
0.10306,0.023318,0.13088,-1.1304,-0.20495,-0.53147,0.030989,0,0,-0.77856,0.42448,0,0.080573,0,0,1.1514,-0.030392,0,1.1518,-0.20391,-1.1314,-0.53147,88.084,-0.62226,0.81469,-0.013408,0.86,0.46,0
0.087399,0.023797,0.10799,-1.0925,-0.21889,-0.5014,0.038013,0,0,-0.76839,0.36726,0,0.098833,0,0,1.1264,-0.046117,0,1.1273,-0.21724,-1.0941,-0.5014,87.513,-0.60426,0.77491,-0.01352,0.88,0.46,0
0.072326,0.02406,0.085822,-1.0517,-0.2766,-0.48431,0.039694,0,0,-0.7376,0.27003,0,0.10321,0,0,1.075,-0.078349,0,1.0784,-0.27457,-1.0537,-0.48431,87.076,-0.6042,0.69832,-0.012318,0.9,0.46,0
0.057895,0.023529,0.064993,-1.0069,-0.31008,-0.46008,0.02219,0,0,-0.71081,0.19499,0,0.057693,0,0,0.99119,-0.093903,0,0.99704,-0.30938,-1.0076,-0.46008,88.178,-0.59234,0.63636,-0.010775,0.92,0.46,0
0.043894,0.022295,0.046175,-0.9513,-0.24849,-0.40611,0.01807,0,0,-0.70874,0.2049,0,0.046982,0,0,0.8891,-0.085256,0,0.89519,-0.24803,-0.95176,-0.40611,88.528,-0.5353,0.63952,-0.010716,0.94,0.46,0
0.029545,0.021402,0.029429,-0.91933,-0.19142,-0.36266,0.021022,0,0,-0.72368,0.2226,0,0.054658,0,0,0.79664,-0.048893,0,0.79902,-0.19082,-0.91994,-0.36266,88.347,-0.49114,0.66019,-0.011472,0.96,0.46,0
0.014947,0.021159,0.014309,-0.89548,-0.14783,-0.3273,0.014644,0,0,-0.73863,0.23331,0,0.038075,0,0,0.73572,-0.019294,0,0.73613,-0.14754,-0.89576,-0.3273,88.878,-0.45687,0.67649,-0.012196,0.98,0.46,0
0,0.021149,0,-0.87035,-0.11458,-0.29548,-0.00019563,0,0,-0.74733,0.23517,0,-0.00050864,0,0,0.71547,1.2631e-17,0,0.71538,-0.11458,-0.87035,-0.29548,-89.985,-0.4268,0.68351,-0.01261,1,0.46,0
0,0.059327,1,-0.63157,-1.5659,-1.6592,0.0064299,0,0,1.336,0.12137,0,0.016718,0,0,0.6356,-5.7246e-16,0,0.63544,-0.63153,-1.5659,-1.6592,0.39429,-1.2856,0.98437,0.047507,0,0.48,0
0.026719,0.059661,0.98729,-0.62328,-1.5278,-1.6326,0.017676,0,0,1.3122,0.1362,0,0.045957,0,0,0.64287,0.034867,0,0.64368,-0.62293,-1.5282,-1.6326,1.119,-1.2612,0.96174,0.043877,0.02,0.48,0
0.052486,0.060435,0.97428,-0.64354,-1.4699,-1.6083,0.024444,0,0,1.2542,0.17996,0,0.063555,0,0,0.66618,0.072118,0,0.67004,-0.64282,-1.4706,-1.6083,1.6929,-1.2406,0.90454,0.035059,0.04,0.48,0
0.076887,0.060908,0.96064,-0.67864,-1.391,-1.5815,0.0083843,0,0,1.1738,0.24773,0,0.021799,0,0,0.70982,0.11205,0,0.71891,-0.67854,-1.391,-1.5815,0.67427,-1.217,0.82442,0.023682,0.06,0.48,0
0.099436,0.059768,0.94589,-0.73458,-1.2821,-1.5509,-0.042646,0,0,1.0612,0.34941,0,-0.11088,0,0,0.77229,0.14492,0,0.78678,-0.73128,-1.2854,-1.5509,-4.4269,-1.1892,0.72434,0.01105,0.08,0.48,0
0.11934,0.05551,0.92975,-0.81512,-1.0943,-1.5026,-0.10761,0,0,0.8937,0.53076,0,-0.27977,0,0,0.84148,0.13876,0,0.85356,-0.77846,-1.131,-1.5026,-18.814,-1.1373,0.62718,-0.000579,0.1,0.48,0
0.13518,0.048582,0.91223,-0.86617,-0.77463,-1.4045,-0.12856,0,0,0.6998,0.81879,0,-0.33425,0,0,0.89809,0.10458,0,0.90431,-0.68394,-0.95686,-1.4045,-54.798,-1.0151,0.63009,-0.0052061,0.12,0.48,0
0.14733,0.041983,0.89382,-0.92186,-0.57497,-1.3429,-0.080442,0,0,0.54732,0.99828,0,-0.20915,0,0,0.93146,0.055774,0,0.93298,-0.55722,-0.9396,-1.3429,-77.559,-0.94656,0.68047,-0.00074496,0.14,0.48,0
0.15708,0.037379,0.87497,-0.95483,-0.50146,-1.3119,-0.035275,0,0,0.46414,1.0535,0,-0.091715,0,0,0.9461,0.025082,0,0.94637,-0.49873,-0.95756,-1.3119,-85.578,-0.92272,0.70613,0.0039858,0.16,0.48,0
0.16589,0.03459,0.85598,-0.95314,-0.45998,-1.2799,-0.0076208,0,0,0.42481,1.0659,0,-0.019814,0,0,0.95206,0.0020335,0,0.95203,-0.45986,-0.95326,-1.2799,-89.115,-0.89768,0.71507,0.0064493,0.18,0.48,0
0.17407,0.032834,0.83689,-0.95061,-0.43884,-1.2537,0.0069463,0,0,0.39406,1.0594,0,0.018061,0,0,0.95659,-0.018022,0,0.95672,-0.43875,-0.9507,-1.2537,89.222,-0.88106,0.71348,0.0079594,0.2,0.48,0
0.18166,0.031724,0.81772,-0.95195,-0.42965,-1.2322,0.016758,0,0,0.36433,1.0433,0,0.04357,0,0,0.96108,-0.038039,0,0.9618,-0.42912,-0.95248,-1.2322,88.164,-0.87127,0.70608,0.0089867,0.22,0.48,0
0.18864,0.031121,0.79845,-0.95788,-0.43067,-1.215,0.027211,0,0,0.33427,1.0196,0,0.070749,0,0,0.96642,-0.060516,0,0.96826,-0.42927,-0.95928,-1.215,87.053,-0.86786,0.69415,0.0096518,0.24,0.48,0
0.19503,0.031138,0.77906,-0.96702,-0.44466,-1.2026,0.044031,0,0,0.30621,0.98527,0,0.11448,0,0,0.97319,-0.088422,0,0.97711,-0.44098,-0.97071,-1.2026,85.215,-0.87142,0.67616,0.009813,0.26,0.48,0
0.20089,0.032142,0.75952,-0.97454,-0.4798,-1.1958,0.076007,0,0,0.28767,0.93083,0,0.19762,0,0,0.98151,-0.12629,0,0.98942,-0.46838,-0.98595,-1.1958,81.46,-0.88339,0.64849,0.0092209,0.28,0.48,0
0.20653,0.034864,0.7398,-0.95428,-0.53134,-1.1855,0.11338,0,0,0.30057,0.85039,0,0.29478,0,0,0.98445,-0.18034,0,1.0003,-0.50286,-0.98276,-1.1855,75.901,-0.89037,0.60719,0.0073256,0.3,0.48,0
0.21328,0.039376,0.72018,-0.88527,-0.69951,-1.1956,0.18106,0,0,0.40344,0.64492,0,0.47077,0,0,0.96244,-0.27892,0,1.0014,-0.5889,-0.99589,-1.1956,58.578,-0.9268,0.53555,0.0043513,0.32,0.48,0
0.22201,0.044146,0.70111,-0.88672,-0.97516,-1.2597,0.17958,0,0,0.48484,0.36988,0,0.46692,0,0,0.92612,-0.35922,0,0.99335,-0.74599,-1.1159,-1.2597,38.084,-1.0405,0.459,0.0033731,0.34,0.48,0
0.23267,0.046851,0.68313,-0.83711,-1.0755,-1.2569,0.14866,0,0,0.54574,0.23584,0,0.3865,0,0,0.87691,-0.41728,0,0.97145,-0.76576,-1.1468,-1.2569,25.638,-1.0565,0.44641,0.0036496,0.36,0.48,0
0.24384,0.047939,0.66604,-0.8194,-1.1145,-1.2462,0.1418,0,0,0.55487,0.17119,0,0.36868,0,0,0.85198,-0.42412,0,0.9516,-0.76231,-1.1716,-1.2462,21.929,-1.06,0.45126,0.004288,0.38,0.48,0
0.25487,0.049778,0.64905,-0.83238,-1.1305,-1.2379,0.18089,0,0,0.52721,0.13959,0,0.47032,0,0,0.86801,-0.40256,0,0.9569,-0.74706,-1.2159,-1.2379,25.253,-1.067,0.48023,0.0056476,0.4,0.48,0
0.26493,0.054776,0.63132,-0.88687,-1.0659,-1.2171,0.24122,0,0,0.42936,0.19662,0,0.62718,0,0,0.9143,-0.32915,0,0.97152,-0.71909,-1.2337,-1.2171,34.82,-1.0566,0.50653,0.0066509,0.42,0.48,0
0.27204,0.062969,0.61248,-0.91709,-0.79644,-1.1265,0.25429,0,0,0.27228,0.42913,0,0.66117,0,0,0.96372,-0.22537,0,0.98903,-0.59541,-1.1181,-1.1265,51.673,-0.94669,0.52697,0.0075093,0.44,0.48,0
0.27582,0.070773,0.59277,-0.96851,-0.60502,-1.0648,0.17661,0,0,0.12521,0.59775,0,0.45919,0,0,1.0029,-0.11462,0,1.0088,-0.53334,-1.0402,-1.0648,67.91,-0.87945,0.5196,0.0071506,0.46,0.48,0
0.27705,0.075464,0.57236,-1.0157,-0.53445,-1.0374,0.0891,0,0,0.028197,0.65385,0,0.23166,0,0,1.0367,-0.044891,0,1.0375,-0.51848,-1.0317,-1.0374,79.841,-0.86253,0.51609,0.0070571,0.48,0.48,0
0.27695,0.076479,0.5513,-1.0342,-0.47602,-1.0044,0.017459,0,0,-0.038802,0.68686,0,0.045394,0,0,1.0713,-0.0063343,0,1.0715,-0.47547,-1.0348,-1.0044,88.21,-0.8382,0.54473,0.0082148,0.5,0.48,0
0.2755,0.074571,0.52951,-1.0537,-0.4108,-0.96887,-0.024687,0,0,-0.11032,0.72549,0,-0.064185,0,0,1.106,0.0061325,0,1.1061,-0.40985,-1.0547,-0.96887,-87.804,-0.81113,0.60649,0.010688,0.52,0.48,0
0.27254,0.07082,0.50706,-1.0769,-0.35481,-0.93657,-0.03924,0,0,-0.18242,0.7563,0,-0.10203,0,0,1.134,0.0045555,0,1.134,-0.35268,-1.079,-0.93657,-86.899,-0.78942,0.66663,0.012904,0.54,0.48,0
0.2682,0.0663,0.48415,-1.0982,-0.31985,-0.90958,-0.034711,0,0,-0.24526,0.76664,0,-0.090249,0,0,1.1532,-0.0013788,0,1.1532,-0.31831,-1.0998,-0.90958,-87.452,-0.77589,0.70586,0.013738,0.56,0.48,0
0.26272,0.061683,0.46093,-1.1148,-0.30213,-0.88601,-0.024956,0,0,-0.2974,0.75904,0,-0.064887,0,0,1.1653,-0.0056466,0,1.1654,-0.30137,-1.1155,-0.88601,-88.243,-0.76764,0.72711,0.013314,0.58,0.48,0
0.25631,0.057288,0.43754,-1.1254,-0.28996,-0.86215,-0.01552,0,0,-0.34227,0.74385,0,-0.040351,0,0,1.1731,-0.0082603,0,1.1731,-0.28967,-1.1257,-0.86215,-88.936,-0.75918,0.74034,0.012287,0.6,0.48,0
0.24903,0.053226,0.41401,-1.1337,-0.28012,-0.83815,-0.00797,0,0,-0.3842,0.72544,0,-0.020722,0,0,1.1783,-0.0096697,0,1.1784,-0.28005,-1.1338,-0.83815,-89.465,-0.75066,0.7509,0.010938,0.62,0.48,0
0.24094,0.049548,0.3904,-1.1405,-0.27116,-0.8139,-0.0021963,0,0,-0.42458,0.70556,0,-0.0057104,0,0,1.1818,-0.010282,0,1.1819,-0.27115,-1.1405,-0.8139,-89.855,-0.74185,0.7606,0.0093739,0.64,0.48,0
0.23205,0.046267,0.36674,-1.1461,-0.2626,-0.78936,0.0021409,0,0,-0.46381,0.68479,0,0.0055664,0,0,1.184,-0.010384,0,1.1841,-0.2626,-1.1462,-0.78936,89.861,-0.7327,0.76988,0.0076357,0.66,0.48,0
0.22239,0.043383,0.34304,-1.1507,-0.25432,-0.76455,0.0054092,0,0,-0.50199,0.66329,0,0.014064,0,0,1.1853,-0.010174,0,1.1853,-0.25429,-1.1507,-0.76455,89.654,-0.72319,0.77881,0.0057489,0.68,0.48,0
0.21197,0.040886,0.31933,-1.1542,-0.24628,-0.73947,0.0079215,0,0,-0.53913,0.64114,0,0.020596,0,0,1.1856,-0.0097902,0,1.1857,-0.24621,-1.1542,-0.73947,89.5,-0.71331,0.78736,0.0037354,0.7,0.48,0
0.20082,0.038759,0.29562,-1.1566,-0.23848,-0.71415,0.009933,0,0,-0.57523,0.61837,0,0.025826,0,0,1.1852,-0.0093397,0,1.1853,-0.23838,-1.1567,-0.71415,89.38,-0.70309,0.7955,0.0016169,0.72,0.48,0
0.18896,0.036982,0.27192,-1.1581,-0.23094,-0.68862,0.011651,0,0,-0.61027,0.59498,0,0.030292,0,0,1.184,-0.0089183,0,1.1841,-0.2308,-1.1582,-0.68862,89.28,-0.69254,0.80317,-0.00058444,0.74,0.48,0
0.17641,0.035531,0.24825,-1.1584,-0.2237,-0.66289,0.01324,0,0,-0.64418,0.57095,0,0.034424,0,0,1.1819,-0.0086274,0,1.182,-0.22351,-1.1586,-0.66289,89.189,-0.68166,0.8103,-0.002845,0.76,0.48,0
0.1632,0.034377,0.22464,-1.1576,-0.21684,-0.63698,0.014821,0,0,-0.67684,0.54618,0,0.038534,0,0,1.1787,-0.0085928,0,1.1788,-0.21661,-1.1579,-0.63698,89.098,-0.67048,0.81669,-0.0051383,0.78,0.48,0
0.14934,0.033483,0.2011,-1.1555,-0.21064,-0.61093,0.016431,0,0,-0.70787,0.52038,0,0.042719,0,0,1.1742,-0.0089903,0,1.1742,-0.21036,-1.1557,-0.61093,89.004,-0.65901,0.82189,-0.0074288,0.8,0.48,0
0.13488,0.032801,0.17767,-1.1512,-0.20576,-0.58475,0.017893,0,0,-0.73634,0.49269,0,0.046523,0,0,1.1676,-0.010076,0,1.1676,-0.20542,-1.1515,-0.58475,88.916,-0.64723,0.82468,-0.0096508,0.82,0.48,0
0.11989,0.032252,0.1544,-1.143,-0.20377,-0.55844,0.018534,0,0,-0.75997,0.46107,0,0.048188,0,0,1.1579,-0.012206,0,1.158,-0.20341,-1.1434,-0.55844,88.87,-0.63508,0.82213,-0.01166,0.84,0.48,0
0.10448,0.031712,0.13136,-1.1268,-0.20756,-0.53167,0.016121,0,0,-0.7737,0.42135,0,0.041914,0,0,1.1426,-0.015716,0,1.1427,-0.20728,-1.1271,-0.53167,88.996,-0.62202,0.80804,-0.013122,0.86,0.48,0
0.088937,0.03093,0.1087,-1.101,-0.22491,-0.50648,0.0059756,0,0,-0.77293,0.36604,0,0.015536,0,0,1.1173,-0.020252,0,1.1176,-0.22487,-1.1011,-0.50648,89.609,-0.61081,0.77479,-0.013688,0.88,0.48,0
0.073564,0.029542,0.086667,-1.0561,-0.24979,-0.47844,-0.014928,0,0,-0.75099,0.29724,0,-0.038814,0,0,1.0724,-0.017926,0,1.0728,-0.24952,-1.0564,-0.47844,-88.94,-0.59479,0.72024,-0.012857,0.9,0.48,0
0.058897,0.027721,0.065801,-1.0146,-0.28875,-0.45682,-0.03384,0,0,-0.72516,0.21848,0,-0.087984,0,0,1.0003,0.0076993,0,1.0014,-0.28718,-1.0162,-0.45682,-87.337,-0.58673,0.66075,-0.011589,0.92,0.48,0
0.044558,0.026317,0.046655,-0.97074,-0.27,-0.41888,-0.020647,0,0,-0.71742,0.19354,0,-0.053683,0,0,0.92256,0.013694,0,0.92411,-0.26939,-0.97135,-0.41888,-88.314,-0.5532,0.64044,-0.011053,0.94,0.48,0
0.030191,0.025987,0.029594,-0.93407,-0.19118,-0.36717,-0.0031085,0,0,-0.73697,0.22879,0,-0.008082,0,0,0.79436,0.026236,0,0.79627,-0.19116,-0.93408,-0.36717,-89.76,-0.49747,0.67242,-0.012083,0.96,0.48,0
0.015265,0.026127,0.014293,-0.91153,-0.1439,-0.33092,-0.0055014,0,0,-0.75479,0.24313,0,-0.014304,0,0,0.73984,0.024607,0,0.7405,-0.14386,-0.91157,-0.33092,-89.589,-0.46212,0.69337,-0.013012,0.98,0.48,0
0,0.02618,0,-0.88634,-0.11103,-0.29921,0.0010329,0,0,-0.76326,0.24463,0,0.0026854,0,0,0.71467,2.266e-17,0,0.71453,-0.11103,-0.88634,-0.29921,89.924,-0.43219,0.70044,-0.013449,1,0.48,0
0,0.061507,1,-0.61688,-1.5953,-1.6637,0.012904,0,0,1.3608,0.088869,0,0.033551,0,0,0.66356,8.2226e-16,0,0.6635,-0.61671,-1.5955,-1.6637,0.75549,-1.2919,1.0146,0.05282,0,0.5,0
0.027216,0.062178,0.98673,-0.60822,-1.5518,-1.6347,0.033684,0,0,1.3345,0.10777,0,0.087578,0,0,0.67148,0.020033,0,0.67176,-0.60702,-1.5531,-1.6347,2.0418,-1.2649,0.98941,0.048603,0.02,0.5,0
0.053379,0.063942,0.97314,-0.63202,-1.4793,-1.6065,0.055805,0,0,1.2669,0.1654,0,0.14509,0,0,0.69508,0.041386,0,0.69643,-0.62836,-1.483,-1.6065,3.7521,-1.2393,0.92262,0.037908,0.04,0.5,0
0.077891,0.066057,0.95893,-0.67219,-1.3687,-1.5712,0.053972,0,0,1.1687,0.26323,0,0.14033,0,0,0.73288,0.062444,0,0.73586,-0.66804,-1.3729,-1.5712,4.4047,-1.204,0.82214,0.023038,0.06,0.5,0
0.10013,0.067356,0.94383,-0.73031,-1.2184,-1.5284,0.022552,0,0,1.0376,0.40304,0,0.058635,0,0,0.78043,0.076125,0,0.7846,-0.72927,-1.2194,-1.5284,2.6397,-1.1591,0.69801,0.0066486,0.08,0.5,0
0.11939,0.066818,0.92771,-0.76303,-1.0141,-1.4608,-0.019291,0,0,0.90716,0.58078,0,-0.050155,0,0,0.82181,0.084839,0,0.82649,-0.76156,-1.0156,-1.4608,-4.3682,-1.0793,0.61311,-0.0053593,0.1,0.5,0
0.13529,0.064399,0.91063,-0.89218,-0.81365,-1.4224,-0.055142,0,0,0.68926,0.79136,0,-0.14337,0,0,0.87838,0.067478,0,0.8811,-0.78522,-0.92061,-1.4224,-62.728,-1.0427,0.58142,-0.0082787,0.12,0.5,0
0.14802,0.061169,0.89282,-0.90558,-0.62573,-1.3522,-0.050388,0,0,0.58063,0.94442,0,-0.13101,0,0,0.90252,0.039129,0,0.90339,-0.61694,-0.91437,-1.3522,-80.097,-0.96117,0.64062,-0.0043682,0.14,0.5,0
0.15852,0.058172,0.87453,-0.93512,-0.52531,-1.3127,-0.02982,0,0,0.49081,1.0235,0,-0.077531,0,0,0.92092,0.016466,0,0.92104,-0.52316,-0.93727,-1.3127,-85.86,-0.92436,0.68401,0.0013945,0.16,0.5,0
0.16765,0.055791,0.85598,-0.94666,-0.47581,-1.2827,-0.0092399,0,0,0.43688,1.049,0,-0.024024,0,0,0.93103,-0.0032405,0,0.93101,-0.47563,-0.94685,-1.2827,-88.876,-0.90173,0.70224,0.0050782,0.18,0.5,0
0.17599,0.053974,0.83729,-0.94796,-0.45032,-1.2568,0.0072591,0,0,0.40146,1.0484,0,0.018874,0,0,0.93649,-0.021821,0,0.93671,-0.45022,-0.94807,-1.2568,89.165,-0.88502,0.70488,0.0070661,0.2,0.5,0
0.18371,0.052555,0.81852,-0.94908,-0.43999,-1.2352,0.02092,0,0,0.37202,1.0338,0,0.054393,0,0,0.93941,-0.041222,0,0.94028,-0.43913,-0.94994,-1.2352,87.651,-0.87477,0.69861,0.0081841,0.22,0.5,0
0.19087,0.051453,0.79972,-0.95177,-0.44254,-1.218,0.034606,0,0,0.34612,1.0081,0,0.089977,0,0,0.94046,-0.063537,0,0.94254,-0.4402,-0.95411,-1.218,86.13,-0.87077,0.6851,0.0086389,0.24,0.5,0
0.19756,0.050689,0.78091,-0.95299,-0.46232,-1.2055,0.051745,0,0,0.32826,0.96613,0,0.13454,0,0,0.93935,-0.091358,0,0.94369,-0.45692,-0.95838,-1.2055,84.045,-0.8736,0.66064,0.0081296,0.26,0.5,0
0.204,0.050409,0.76214,-0.94332,-0.50936,-1.198,0.075507,0,0,0.33101,0.89516,0,0.19632,0,0,0.93412,-0.12819,0,0.94271,-0.4966,-0.95608,-1.198,80.406,-0.88354,0.61706,0.0061189,0.28,0.5,0
0.2108,0.050732,0.74354,-0.93553,-0.62165,-1.2107,0.10817,0,0,0.35772,0.76576,0,0.28125,0,0,0.92399,-0.17574,0,0.94035,-0.58798,-0.9692,-1.2107,72.711,-0.92262,0.54379,0.003113,0.3,0.5,0
0.21867,0.051496,0.7253,-0.87009,-0.76097,-1.2146,0.13101,0,0,0.44789,0.58975,0,0.34064,0,0,0.89118,-0.23508,0,0.92147,-0.67361,-0.95745,-1.2146,56.305,-0.94856,0.46872,0.00045091,0.32,0.5,0
0.22817,0.052077,0.70769,-0.85667,-0.9399,-1.2467,0.1348,0,0,0.50699,0.39879,0,0.35049,0,0,0.86232,-0.30662,0,0.91511,-0.7572,-1.0394,-1.2467,36.422,-1.0144,0.42553,0.0010337,0.34,0.5,0
0.23895,0.051925,0.69081,-0.84049,-1.0672,-1.2631,0.13401,0,0,0.54941,0.2547,0,0.34843,0,0,0.83072,-0.36651,0,0.90782,-0.77832,-1.1294,-1.2631,24.888,-1.0569,0.43367,0.0028848,0.36,0.5,0
0.25015,0.051391,0.67446,-0.8409,-1.1383,-1.2682,0.15317,0,0,0.55552,0.16888,0,0.39824,0,0,0.82846,-0.42132,0,0.92904,-0.77613,-1.2031,-1.2682,22.923,-1.0825,0.46298,0.0047585,0.38,0.5,0
0.26117,0.052218,0.65767,-0.88541,-1.2146,-1.2877,0.2178,0,0,0.52294,0.095005,0,0.56629,0,0,0.89867,-0.48073,0,1.02,-0.777,-1.323,-1.2877,26.461,-1.1292,0.52922,0.0074983,0.4,0.5,0
0.27107,0.058148,0.63851,-0.97525,-1.1984,-1.2906,0.34239,0,0,0.40995,0.1199,0,0.89023,0,0,1.0052,-0.4879,0,1.1195,-0.72669,-1.4469,-1.2906,35.977,-1.1547,0.65618,0.011781,0.42,0.5,0
0.27757,0.072454,0.61746,-0.93898,-0.59222,-1.0768,0.29064,0,0,0.1792,0.62998,0,0.75567,0,0,1.0808,-0.21286,0,1.0982,-0.42717,-1.104,-1.0768,60.409,-0.86934,0.66367,0.014928,0.44,0.5,0
0.27823,0.084031,0.59528,-1.0538,-0.54997,-1.0764,0.20796,0,0,0.029356,0.68439,0,0.54069,0,0,1.1006,-0.12115,0,1.1067,-0.47523,-1.1286,-1.0764,70.231,-0.89341,0.6289,0.012479,0.46,0.5,0
0.27867,0.089317,0.57361,-1.0212,-0.48279,-1.0248,0.077686,0,0,0.0047239,0.70461,0,0.20198,0,0,1.0869,-0.065275,0,1.0887,-0.47181,-1.0321,-1.0248,81.951,-0.84292,0.5567,0.008856,0.48,0.5,0
0.27859,0.090697,0.55184,-0.99412,-0.42807,-0.9785,0.043868,0,0,-0.020312,0.71555,0,0.11406,0,0,1.0943,-0.033559,0,1.0948,-0.42469,-0.9975,-0.9785,85.595,-0.80023,0.56354,0.0091567,0.5,0.5,0
0.27753,0.089183,0.52973,-1.0327,-0.39639,-0.95845,-0.0049181,0,0,-0.096525,0.73068,0,-0.012787,0,0,1.1193,-0.018286,0,1.1195,-0.39636,-1.0327,-0.95845,-89.557,-0.79585,0.60269,0.01067,0.52,0.5,0
0.27516,0.085796,0.5072,-1.0279,-0.34581,-0.91932,-0.010164,0,0,-0.14118,0.74556,0,-0.026427,0,0,1.1323,-0.013225,0,1.1324,-0.34566,-1.0281,-0.91932,-89.147,-0.76435,0.63506,0.011864,0.54,0.5,0
0.27142,0.081421,0.48431,-1.0873,-0.33137,-0.90991,-0.016148,0,0,-0.23059,0.75209,0,-0.041984,0,0,1.154,-0.01268,0,1.1541,-0.33103,-1.0876,-0.90991,-88.777,-0.77619,0.68524,0.012854,0.56,0.5,0
0.26637,0.076718,0.46114,-1.0865,-0.30151,-0.87755,-0.010743,0,0,-0.27168,0.74885,0,-0.027932,0,0,1.1621,-0.013222,0,1.1622,-0.30136,-1.0867,-0.87755,-89.216,-0.7552,0.70444,0.012762,0.58,0.5,0
0.26016,0.072078,0.43776,-1.1334,-0.29979,-0.8677,-0.0039264,0,0,-0.34535,0.73829,0,-0.010209,0,0,1.1734,-0.013433,0,1.1735,-0.29977,-1.1334,-0.8677,-89.73,-0.76695,0.73757,0.011959,0.6,0.5,0
0.2529,0.067697,0.41424,-1.1277,-0.2799,-0.83653,-0.0007987,0,0,-0.37855,0.72362,0,-0.0020766,0,0,1.1773,-0.013198,0,1.1774,-0.2799,-1.1277,-0.83653,-89.946,-0.74805,0.74613,0.010904,0.62,0.5,0
0.2447,0.063655,0.39064,-1.1607,-0.27925,-0.82262,0.0052903,0,0,-0.4395,0.70638,0,0.013755,0,0,1.1826,-0.012618,0,1.1826,-0.27922,-1.1607,-0.82262,89.656,-0.75419,0.77028,0.0091617,0.64,0.5,0
0.23562,0.059982,0.36696,-1.1595,-0.26494,-0.79428,0.0094698,0,0,-0.47473,0.68814,0,0.024622,0,0,1.1846,-0.012108,0,1.1846,-0.26484,-1.1596,-0.79428,89.394,-0.73956,0.77918,0.0075649,0.66,0.5,0
0.22571,0.056683,0.34325,-1.1658,-0.25603,-0.76979,0.011083,0,0,-0.51477,0.66789,0,0.028816,0,0,1.186,-0.010987,0,1.186,-0.25589,-1.1659,-0.76979,89.302,-0.73053,0.79029,0.0056255,0.68,0.5,0
0.21503,0.05375,0.31952,-1.1699,-0.24753,-0.74477,0.012139,0,0,-0.55272,0.6464,0,0.031561,0,0,1.1864,-0.0097953,0,1.1865,-0.24737,-1.1701,-0.74477,89.246,-0.72074,0.79991,0.0035426,0.7,0.5,0
0.2036,0.051171,0.29579,-1.1723,-0.23943,-0.7193,0.012802,0,0,-0.58884,0.62383,0,0.033286,0,0,1.1861,-0.0085623,0,1.1861,-0.23925,-1.1724,-0.7193,89.214,-0.71032,0.80827,0.0013543,0.72,0.5,0
0.19147,0.048924,0.27208,-1.1728,-0.23169,-0.69344,0.013197,0,0,-0.62323,0.60028,0,0.034312,0,0,1.1848,-0.0073092,0,1.1848,-0.2315,-1.173,-0.69344,89.197,-0.69933,0.81544,-0.00090417,0.74,0.5,0
0.17867,0.046987,0.2484,-1.1717,-0.22433,-0.66722,0.013411,0,0,-0.65588,0.57576,0,0.034869,0,0,1.1826,-0.0060547,0,1.1826,-0.22414,-1.1719,-0.66722,89.189,-0.68777,0.82139,-0.0031972,0.76,0.5,0
0.16524,0.045329,0.22478,-1.1688,-0.21741,-0.64065,0.013481,0,0,-0.68664,0.55021,0,0.035051,0,0,1.1792,-0.0048183,0,1.1793,-0.21722,-1.169,-0.64065,89.188,-0.67563,0.82596,-0.005486,0.78,0.5,0
0.15121,0.043908,0.20123,-1.164,-0.21114,-0.61376,0.013317,0,0,-0.71525,0.52341,0,0.034625,0,0,1.1744,-0.0036199,0,1.1744,-0.21095,-1.1641,-0.61376,89.199,-0.66295,0.82877,-0.0077262,0.8,0.5,0
0.13663,0.042661,0.1778,-1.1569,-0.20602,-0.58668,0.012504,0,0,-0.74128,0.49485,0,0.032511,0,0,1.1674,-0.0024612,0,1.1674,-0.20586,-1.1571,-0.58668,89.247,-0.64986,0.8292,-0.0098662,0.82,0.5,0
0.12156,0.041479,0.15454,-1.1476,-0.20316,-0.55977,0.0098362,0,0,-0.76422,0.4636,0,0.025574,0,0,1.1574,-0.0012374,0,1.1574,-0.20305,-1.1477,-0.55977,89.403,-0.63685,0.82625,-0.011844,0.84,0.5,0
0.10606,0.040172,0.13151,-1.1374,-0.20482,-0.53417,0.0025852,0,0,-0.78417,0.42815,0,0.0067215,0,0,1.1434,0.00061698,0,1.1434,-0.20481,-1.1374,-0.53417,89.841,-0.62545,0.81915,-0.01363,0.86,0.5,0
0.09019,0.038438,0.1088,-1.1275,-0.21185,-0.5106,-0.013645,0,0,-0.80194,0.38838,0,-0.035476,0,0,1.1242,0.0055636,0,1.1242,-0.21165,-1.1277,-0.5106,-89.146,-0.61664,0.8091,-0.015217,0.88,0.5,0
0.073983,0.035949,0.08654,-1.1144,-0.22266,-0.48765,-0.045626,0,0,-0.81474,0.34449,0,-0.11863,0,0,1.103,0.020306,0,1.1032,-0.22033,-1.1167,-0.48765,-87.079,-0.60823,0.79707,-0.01649,0.9,0.5,0
0.0576,0.032269,0.064685,-1.0306,-0.21237,-0.43757,-0.079833,0,0,-0.7709,0.29275,0,-0.20757,0,0,1.0417,0.061646,0,1.0417,-0.20465,-1.0383,-0.43757,-84.479,-0.56017,0.745,-0.014449,0.92,0.5,0
0.043147,0.029886,0.044873,-0.9925,-0.31322,-0.43659,-0.13854,0,0,-0.72268,0.16038,0,-0.36021,0,0,0.99058,0.22254,0,1.0201,-0.28605,-1.0197,-0.43659,-78.904,-0.58077,0.67113,-0.012931,0.94,0.5,0
0.028465,0.030544,0.02769,-0.91422,-0.20968,-0.36486,-0.064872,0,0,-0.71417,0.20173,0,-0.16867,0,0,0.71823,0.15302,0,0.73553,-0.20376,-0.92014,-0.36486,-84.783,-0.49626,0.65096,-0.011296,0.96,0.5,0
0.014182,0.030884,0.013325,-0.86801,-0.15409,-0.31996,-0.027523,0,0,-0.71247,0.21563,0,-0.071559,0,0,0.70091,0.061832,0,0.70311,-0.15303,-0.86907,-0.31996,-87.796,-0.44735,0.64889,-0.010964,0.98,0.5,0
0,0.030934,0,-0.8174,-0.089104,-0.27195,0.00096426,0,0,-0.70908,0.2377,0,0.0025071,0,0,0.66626,1.3878e-17,0,0.66597,-0.089103,-0.8174,-0.27195,89.924,-0.39282,0.65626,-0.010807,1,0.5,0
0,0.062882,1,-0.60443,-1.6396,-1.6732,0.020972,0,0,1.3894,0.043733,0,0.054528,0,0,0.67567,2.0383e-16,0,0.67566,-0.60401,-1.64,-1.6732,1.1602,-1.3057,1.053,0.059761,0,0.52,0
0.027788,0.063973,0.98649,-0.57958,-1.5769,-1.6334,0.043904,0,0,1.37,0.073533,0,0.11415,0,0,0.6814,0.0060626,0,0.68146,-0.57765,-1.5788,-1.6334,2.5159,-1.2633,1.0295,0.055515,0.02,0.52,0
0.054412,0.067051,0.97263,-0.64427,-1.5079,-1.6183,0.095217,0,0,1.2662,0.14351,0,0.24756,0,0,0.71384,0.014422,0,0.71415,-0.63389,-1.5183,-1.6183,6.2176,-1.2568,0.93838,0.040817,0.04,0.52,0
0.079086,0.071437,0.95814,-0.67226,-1.3625,-1.5686,0.10808,0,0,1.1652,0.26789,0,0.28101,0,0,0.74456,0.017688,0,0.74507,-0.65573,-1.379,-1.5686,8.6945,-1.2011,0.83438,0.024723,0.06,0.52,0
0.10102,0.075889,0.94285,-0.73075,-1.1698,-1.513,0.091093,0,0,1.0169,0.44617,0,0.23684,0,0,0.78607,0.026414,0,0.78683,-0.7126,-1.188,-1.513,11.268,-1.1379,0.69724,0.005542,0.08,0.52,0
0.11976,0.079049,0.9267,-0.75286,-0.93596,-1.4333,0.054293,0,0,0.88463,0.6466,0,0.14116,0,0,0.8202,0.023842,0,0.82076,-0.73797,-0.95085,-1.4333,15.335,-1.0407,0.61712,-0.0074072,0.1,0.52,0
0.13535,0.080247,0.90978,-0.8746,-0.78212,-1.4068,-0.00062536,0,0,0.69186,0.81208,0,-0.0016259,0,0,0.86604,0.022224,0,0.86643,-0.78212,-0.8746,-1.4068,-89.613,-1.0212,0.58396,-0.0093686,0.12,0.52,0
0.14832,0.07976,0.89226,-0.88731,-0.63462,-1.3488,-0.017102,0,0,0.59999,0.92848,0,-0.044465,0,0,0.88667,0.017789,0,0.88689,-0.63347,-0.88846,-1.3488,-86.146,-0.95692,0.62798,-0.0060177,0.14,0.52,0
0.15935,0.078321,0.87432,-0.91025,-0.54388,-1.3106,-0.018649,0,0,0.5204,0.99668,0,-0.048487,0,0,0.90373,0.0047698,0,0.90375,-0.54293,-0.91119,-1.3106,-87.094,-0.92156,0.66496,-0.0010586,0.16,0.52,0
0.16913,0.07655,0.85611,-0.91992,-0.49192,-1.2797,-0.0076465,0,0,0.46767,1.0241,0,-0.019881,0,0,0.91377,-0.0096072,0,0.91381,-0.49179,-0.92005,-1.2797,-88.977,-0.89717,0.68318,0.0024603,0.18,0.52,0
0.17806,0.07477,0.83776,-0.92298,-0.46506,-1.2542,0.007803,0,0,0.43056,1.0258,0,0.020288,0,0,0.91861,-0.024825,0,0.91892,-0.46493,-0.92311,-1.2542,89.024,-0.88074,0.68646,0.004562,0.2,0.52,0
0.18635,0.073077,0.81937,-0.92418,-0.45383,-1.2328,0.023921,0,0,0.40116,1.0126,0,0.062194,0,0,0.91937,-0.041646,0,0.92028,-0.45261,-0.9254,-1.2328,87.096,-0.87026,0.68068,0.005788,0.22,0.52,0
0.19411,0.071445,0.80099,-0.92506,-0.45642,-1.2154,0.039194,0,0,0.37748,0.98672,0,0.1019,0,0,0.91629,-0.061369,0,0.91829,-0.45316,-0.92832,-1.2154,85.252,-0.86564,0.66681,0.0062707,0.24,0.52,0
0.20145,0.069783,0.78272,-0.9218,-0.4773,-1.2024,0.052791,0,0,0.36484,0.94269,0,0.13726,0,0,0.90853,-0.085726,0,0.91251,-0.47111,-0.92798,-1.2024,83.319,-0.86718,0.63988,0.0055978,0.26,0.52,0
0.2087,0.067949,0.76465,-0.90876,-0.52968,-1.1962,0.063957,0,0,0.37364,0.86645,0,0.16629,0,0,0.89431,-0.11681,0,0.90183,-0.51918,-0.91926,-1.1962,80.677,-0.87821,0.58952,0.0032496,0.28,0.52,0
0.2164,0.06577,0.74694,-0.88243,-0.62889,-1.2003,0.072662,0,0,0.41328,0.74288,0,0.18892,0,0,0.87143,-0.15638,0,0.88527,-0.60955,-0.90178,-1.2003,75.09,-0.90389,0.51165,-0.00012756,0.3,0.52,0
0.22523,0.063128,0.72979,-0.84836,-0.77785,-1.2176,0.081879,0,0,0.48008,0.57175,0,0.21288,0,0,0.8391,-0.20506,0,0.86373,-0.72396,-0.90225,-1.2176,56.649,-0.94795,0.43302,-0.0019144,0.32,0.52,0
0.2356,0.060097,0.71338,-0.81871,-0.94692,-1.2431,0.098259,0,0,0.55167,0.38499,0,0.25547,0,0,0.80004,-0.26227,0,0.84184,-0.7655,-1.0001,-1.2431,28.439,-1.0029,0.41361,-0.00010923,0.34,0.52,0
0.2473,0.057039,0.69779,-0.80849,-1.091,-1.2676,0.13151,0,0,0.59689,0.22964,0,0.34193,0,0,0.7622,-0.32887,0,0.82978,-0.75674,-1.1427,-1.2676,21.477,-1.0557,0.4613,0.0038232,0.36,0.52,0
0.25948,0.054694,0.68289,-0.84891,-1.2087,-1.3002,0.18639,0,0,0.58666,0.11889,0,0.48462,0,0,0.73775,-0.41236,0,0.84409,-0.76976,-1.2879,-1.3002,23.007,-1.1193,0.52437,0.0073916,0.38,0.52,0
0.27076,0.053578,0.66828,-0.95631,-1.3387,-1.3568,0.31738,0,0,0.52063,0.023468,0,0.8252,0,0,0.80144,-0.53813,0,0.96004,-0.77699,-1.5181,-1.3568,29.466,-1.2173,0.67504,0.01281,0.4,0.52,0
0.2803,0.059572,0.65083,-0.86213,-1.06,-0.94856,0.37129,0,0,0.028482,-0.44855,0,2.246,0,0,0.64602,-0.45406,0,0.79848,-0.5764,-1.3458,-0.94856,38.477,-0.95691,0.66856,0.0017516,0.42,0.52,0
0.27639,0.088168,0.62099,-0.75473,-0.47226,-0.72295,0.24323,0,0,-0.072305,-0.075775,0,1.6785,0,0,0.76151,-0.14872,0,0.78238,-0.30098,-0.92601,-0.72295,50.903,-0.64998,0.56631,0.013993,0.44,0.52,0
0.27741,0.098579,0.59753,-0.63815,-0.43069,-0.6621,0.13836,0,0,0.064576,-0.076396,0,1.0799,0,0,0.6687,-0.1004,0,0.68223,-0.32186,-0.74699,-0.6621,51.244,-0.57698,0.40875,0.006233,0.46,0.52,0
0.27951,0.10389,0.57503,-0.59144,-0.38993,-0.623,0.055289,0,0,0.078435,-0.064506,0,0.68393,0,0,0.63617,-0.069317,0,0.64408,-0.31903,-0.66235,-0.623,55.971,-0.53479,0.34807,0.0038632,0.48,0.52,0
0.2809,0.10519,0.55278,-0.56335,-0.35759,-0.59216,0.060688,0,0,0.053386,-0.039867,0,0.56211,0,0,0.63597,-0.050017,0,0.64069,-0.29503,-0.62592,-0.59216,53.208,-0.50437,0.33687,0.0040485,0.5,0.52,0
0.281,0.1038,0.53039,-0.63218,-0.36048,-0.60088,0.022054,0,0,-0.056014,-0.0047662,0,0.36368,0,0,0.64725,-0.037823,0,0.65022,-0.31354,-0.67913,-0.60088,56.13,-0.53118,0.34917,0.0051699,0.52,0.52,0
0.27947,0.10058,0.50772,-0.60249,-0.31919,-0.56663,0.025764,0,0,-0.097444,0.034436,0,0.30574,0,0,0.64829,-0.030308,0,0.65026,-0.28215,-0.63953,-0.56663,55.367,-0.4961,0.3437,0.0053781,0.54,0.52,0
0.27625,0.096305,0.48475,-0.6837,-0.32715,-0.58025,0.013624,0,0,-0.22046,0.070637,0,0.23125,0,0,0.66299,-0.025591,0,0.66438,-0.29937,-0.71148,-0.58025,57.078,-0.53037,0.37837,0.0062265,0.56,0.52,0
0.27145,0.091579,0.46153,-0.65561,-0.29217,-0.54807,0.014285,0,0,-0.25774,0.099452,0,0.20752,0,0,0.66378,-0.022326,0,0.6648,-0.27157,-0.67622,-0.54807,58.725,-0.49862,0.37363,0.0062043,0.58,0.52,0
0.26525,0.086795,0.43812,-0.71593,-0.29911,-0.55486,0.014436,0,0,-0.35515,0.11993,0,0.19298,0,0,0.67255,-0.019754,0,0.67331,-0.28394,-0.7311,-0.55486,61.386,-0.5233,0.40479,0.0058098,0.6,0.52,0
0.25784,0.082173,0.41457,-0.68959,-0.2722,-0.52543,0.012389,0,0,-0.38327,0.13308,0,0.1781,0,0,0.67296,-0.017521,0,0.67354,-0.26099,-0.70079,-0.52543,64.742,-0.49574,0.39937,0.0055001,0.62,0.52,0
0.24939,0.077823,0.39093,-0.73044,-0.2765,-0.52547,0.015239,0,0,-0.45756,0.14043,0,0.17821,0,0,0.67715,-0.015477,0,0.67759,-0.26802,-0.73892,-0.52547,67.91,-0.5108,0.42361,0.0043443,0.64,0.52,0
0.24001,0.073793,0.36722,-0.71938,-0.26037,-0.50377,0.013527,0,0,-0.49052,0.1433,0,0.16707,0,0,0.67781,-0.013546,0,0.67813,-0.25391,-0.72584,-0.50377,71.108,-0.4945,0.42427,0.0036586,0.66,0.52,0
0.22977,0.070099,0.34348,-0.72196,-0.25149,-0.48831,0.013146,0,0,-0.53155,0.14263,0,0.15913,0,0,0.67861,-0.011676,0,0.67885,-0.24649,-0.72696,-0.48831,73.832,-0.48725,0.43107,0.0026442,0.68,0.52,0
0.21875,0.066742,0.31972,-0.72297,-0.24308,-0.47251,0.012562,0,0,-0.56979,0.13908,0,0.14989,0,0,0.6789,-0.0098273,0,0.67906,-0.2392,-0.72686,-0.47251,76.18,-0.47952,0.43699,0.0015594,0.7,0.52,0
0.20698,0.063712,0.29596,-0.7227,-0.2351,-0.45646,0.011777,0,0,-0.60569,0.13311,0,0.13896,0,0,0.6787,-0.0079622,0,0.6788,-0.23211,-0.72569,-0.45646,78.228,-0.47142,0.44212,0.00042684,0.72,0.52,0
0.19452,0.060993,0.27221,-0.72126,-0.22751,-0.44018,0.010782,0,0,-0.63946,0.12498,0,0.12593,0,0,0.67802,-0.0060393,0,0.67808,-0.22526,-0.7235,-0.44018,80.076,-0.46298,0.44649,-0.00073268,0.74,0.52,0
0.1814,0.058561,0.2485,-0.71864,-0.22026,-0.42367,0.0095476,0,0,-0.67106,0.11486,0,0.11021,0,0,0.67682,-0.0040091,0,0.67683,-0.21867,-0.72023,-0.42367,81.822,-0.45419,0.45004,-0.0018973,0.76,0.52,0
0.16768,0.056385,0.22483,-0.7147,-0.21335,-0.40689,0.0080077,0,0,-0.70026,0.10279,0,0.090861,0,0,0.67497,-0.0018053,0,0.67497,-0.21234,-0.71571,-0.40689,83.581,-0.44498,0.4526,-0.0030416,0.78,0.52,0
0.15339,0.054419,0.20125,-0.7092,-0.20677,-0.38979,0.0060115,0,0,-0.72665,0.088768,0,0.066229,0,0,0.6723,0.00067145,0,0.6723,-0.20626,-0.70971,-0.38979,85.506,-0.43525,0.45395,-0.0041361,0.8,0.52,0
0.13861,0.052595,0.17777,-0.70199,-0.20062,-0.37237,0.0032225,0,0,-0.74989,0.072827,0,0.033294,0,0,0.66855,0.0035894,0,0.66859,-0.2005,-0.70211,-0.37237,87.83,-0.42499,0.45389,-0.0051516,0.82,0.52,0
0.1234,0.050796,0.15445,-0.69357,-0.19522,-0.35489,-0.0010556,0,0,-0.77049,0.055447,0,-0.013282,0,0,0.66342,0.0072718,0,0.66358,-0.1952,-0.69359,-0.35489,-89.13,-0.41456,0.45268,-0.0060831,0.84,0.52,0
0.10779,0.048838,0.13133,-0.68607,-0.19114,-0.33821,-0.0080819,0,0,-0.79137,0.038506,0,-0.081756,0,0,0.65681,0.01246,0,0.65721,-0.19048,-0.68672,-0.33821,-85.235,-0.40514,0.45207,-0.0070002,0.86,0.52,0
0.091741,0.046465,0.10847,-0.68437,-0.18871,-0.32391,-0.020097,0,0,-0.82005,0.026315,0,-0.18466,0,0,0.6497,0.020797,0,0.65068,-0.18589,-0.68719,-0.32391,-80.982,-0.39899,0.45704,-0.0081338,0.88,0.52,0
0.074988,0.043322,0.085855,-0.70404,-0.19414,-0.31851,-0.038867,0,0,-0.87708,0.02595,0,-0.33069,0,0,0.64483,0.036479,0,0.64726,-0.18702,-0.71116,-0.31851,-77.632,-0.40557,0.4777,-0.010309,0.9,0.52,0
0.056658,0.039431,0.063335,-0.76889,-0.20554,-0.32852,-0.08386,0,0,-1.0018,0.044751,0,-0.59065,0,0,0.68716,0.065231,0,0.69222,-0.18765,-0.78678,-0.32852,-74.307,-0.43432,0.54535,-0.016144,0.92,0.52,0
0.034915,0.032732,0.037754,-0.73219,-0.35108,-0.34656,-0.1874,0,0,-0.96725,-0.06116,0,-1.0218,0,0,0.58965,0.29939,0,0.67017,-0.27387,-0.8094,-0.34656,-66.134,-0.47661,0.50316,-0.014312,0.94,0.52,0
0.022764,0.034057,0.023473,-0.79998,-0.29138,-0.35088,-0.14102,0,0,-0.58383,0.07735,0,-0.36666,0,0,0.63538,0.23556,0,0.67044,-0.2549,-0.83647,-0.35088,-75.495,-0.48075,0.54001,-0.0072341,0.96,0.52,0
0.011324,0.034306,0.011552,-0.74766,-0.24435,-0.30915,-0.064966,0,0,-0.57005,0.084246,0,-0.16891,0,0,0.5899,0.10091,0,0.59645,-0.2361,-0.75591,-0.30915,-82.762,-0.43372,0.48741,-0.0054993,0.98,0.52,0
0,0.034248,0,-0.73424,-0.26138,-0.29868,-0.00113,0,0,-0.56622,0.048499,0,-0.002938,0,0,0.57758,2.7756e-17,0,0.57595,-0.26138,-0.73424,-0.29868,-89.863,-0.43143,0.45536,-0.0047398,1,0.52,0
0,0.063257,1,-0.60314,-1.6937,-1.689,0.029606,0,0,1.4117,-0.0060232,0,0.076976,0,0,0.66964,-2.3332e-16,0,0.66959,-0.60234,-1.6945,-1.689,1.5539,-1.3286,1.0894,0.066404,0,0.54,0
0.028234,0.064796,0.98661,-0.58903,-1.6577,-1.6606,0.052809,0,0,1.3931,0.0038064,0,0.1373,0,0,0.67677,-0.021618,0,0.67715,-0.58643,-1.6603,-1.6606,2.8221,-1.3025,1.074,0.063632,0.02,0.54,0
0.055351,0.069443,0.97279,-0.65914,-1.586,-1.6463,0.13512,0,0,1.2834,0.078379,0,0.3513,0,0,0.71596,-0.035009,0,0.71707,-0.63984,-1.6054,-1.6463,8.1268,-1.2972,0.98664,0.049042,0.04,0.54,0
0.080293,0.076772,0.95822,-0.67888,-1.3796,-1.5758,0.17233,0,0,1.166,0.25499,0,0.44805,0,0,0.75044,-0.027842,0,0.75134,-0.6388,-1.4197,-1.5758,13.095,-1.2114,0.86951,0.030131,0.06,0.54,0
0.10199,0.085203,0.94277,-0.73582,-1.1232,-1.5005,0.16406,0,0,0.99405,0.49046,0,0.42655,0,0,0.79323,-0.017651,0,0.79371,-0.67568,-1.1833,-1.5005,20.133,-1.1198,0.72062,0.0074445,0.08,0.54,0
0.12005,0.092332,0.92649,-0.79459,-0.89216,-1.4325,0.10914,0,0,0.8293,0.70246,0,0.28376,0,0,0.83067,-0.0061703,0,0.83085,-0.72383,-0.96292,-1.4325,32.958,-1.0398,0.62447,-0.0066104,0.1,0.54,0
0.13516,0.096685,0.90954,-0.8393,-0.72862,-1.3799,0.044845,0,0,0.7028,0.84669,0,0.1166,0,0,0.8595,0.0003564,0,0.85958,-0.71273,-0.85519,-1.3799,70.49,-0.98261,0.60859,-0.0094734,0.12,0.54,0
0.14817,0.098308,0.89211,-0.86433,-0.62169,-1.3379,0.0039169,0,0,0.61566,0.9311,0,0.010184,0,0,0.87997,-0.0005366,0,0.88001,-0.62162,-0.8644,-1.3379,89.075,-0.94131,0.63096,-0.0067617,0.14,0.54,0
0.15979,0.098039,0.87434,-0.87391,-0.5504,-1.3016,-0.01009,0,0,0.55605,0.97661,0,-0.026235,0,0,0.89352,-0.0064526,0,0.89355,-0.55008,-0.87422,-1.3016,-88.215,-0.90865,0.65291,-0.0033634,0.16,0.54,0
0.17041,0.096754,0.85637,-0.87764,-0.50662,-1.2716,-0.005377,0,0,0.5122,0.99453,0,-0.01398,0,0,0.90144,-0.015389,0,0.90156,-0.50654,-0.87772,-1.2716,-89.17,-0.8853,0.6627,-0.00076929,0.18,0.54,0
0.18027,0.095008,0.83829,-0.87894,-0.48184,-1.2465,0.0088422,0,0,0.47786,0.99408,0,0.02299,0,0,0.90445,-0.026366,0,0.90482,-0.48164,-0.87913,-1.2465,88.725,-0.8691,0.66257,0.0010176,0.2,0.54,0
0.18952,0.09306,0.82019,-0.87977,-0.47047,-1.2253,0.026116,0,0,0.44914,0.98122,0,0.067902,0,0,0.90287,-0.039305,0,0.9037,-0.46881,-0.88143,-1.2253,86.364,-0.8585,0.656,0.002272,0.22,0.54,0
0.19824,0.090922,0.80217,-0.88033,-0.47118,-1.2076,0.041895,0,0,0.42548,0.95738,0,0.10893,0,0,0.89638,-0.054721,0,0.89803,-0.46693,-0.88458,-1.2076,84.213,-0.85304,0.6432,0.0029933,0.24,0.54,0
0.20654,0.088397,0.78434,-0.8784,-0.4881,-1.1943,0.051595,0,0,0.41065,0.91804,0,0.13415,0,0,0.88391,-0.07344,0,0.88694,-0.4814,-0.88511,-1.1943,82.595,-0.8536,0.61919,0.0027704,0.26,0.54,0
0.21467,0.085067,0.76682,-0.86592,-0.53049,-1.1857,0.050595,0,0,0.41577,0.85182,0,0.13155,0,0,0.86347,-0.096372,0,0.86884,-0.52303,-0.87338,-1.1857,81.606,-0.86072,0.57424,0.00096397,0.28,0.54,0
0.22317,0.080447,0.7498,-0.83762,-0.62134,-1.1875,0.038551,0,0,0.45482,0.73599,0,0.10023,0,0,0.83271,-0.12448,0,0.84205,-0.61468,-0.84429,-1.1875,80.19,-0.88215,0.49931,-0.0021439,0.3,0.54,0
0.23286,0.074366,0.73351,-0.79609,-0.77824,-1.2058,0.031752,0,0,0.53263,0.55583,0,0.082555,0,0,0.79046,-0.16112,0,0.80689,-0.75418,-0.82015,-1.2058,52.85,-0.92671,0.42252,-0.0035578,0.32,0.54,0
0.24448,0.067477,0.71818,-0.75344,-0.97767,-1.2375,0.053668,0,0,0.62929,0.3378,0,0.13954,0,0,0.73851,-0.21062,0,0.76813,-0.74126,-0.98985,-1.2375,12.79,-0.98954,0.42977,1.3265e-05,0.34,0.54,0
0.25803,0.061111,0.70397,-0.71372,-1.1467,-1.2621,0.11374,0,0,0.71288,0.15003,0,0.29572,0,0,0.68063,-0.2789,0,0.73541,-0.68566,-1.1747,-1.2621,13.859,-1.0408,0.5381,0.0072965,0.36,0.54,0
0.27299,0.056147,0.69095,-0.66979,-1.2641,-1.2711,0.20378,0,0,0.78174,0.0090956,0,0.52984,0,0,0.6192,-0.3724,0,0.72162,-0.60663,-1.3273,-1.2711,17.22,-1.0683,0.69429,0.01681,0.38,0.54,0
0.2893,0.053157,0.6792,-0.48806,-1.3413,-1.228,0.26511,0,0,0.96193,-0.14729,0,0.68928,0,0,0.48071,-0.51202,0,0.70066,-0.4124,-1.417,-1.228,15.929,-1.0191,0.92469,0.03496,0.4,0.54,0
0.31147,0.045403,0.67172,-0.42292,-1.0756,-0.83341,0.2365,0,0,0.41001,-0.55107,0,1.6718,0,0,0.30755,-0.4503,0,0.56939,-0.32014,-1.1784,-0.83341,27.947,-0.77733,0.75466,0.025382,0.42,0.54,0
0.3057,0.069423,0.63793,-0.33416,-0.39982,-0.31133,0.11646,0,0,-0.20779,-0.80528,0,2.1197,0,0,0.22081,-0.10294,0,0.24415,-0.24599,-0.48799,-0.31133,37.129,-0.34843,0.21685,-0.00036787,0.44,0.54,0
0.30316,0.080975,0.6099,-0.30391,-0.3794,-0.29212,0.085412,0,0,-0.10725,-0.79426,0,1.5545,0,0,0.19078,-0.081272,0,0.20733,-0.24827,-0.43504,-0.29212,33.078,-0.32514,0.16916,-0.00019342,0.46,0.54,0
0.30141,0.086737,0.58451,-0.28912,-0.36563,-0.27993,0.065784,0,0,-0.083643,-0.77993,0,1.1973,0,0,0.1775,-0.06451,0,0.18879,-0.25128,-0.40347,-0.27993,29.91,-0.31156,0.14009,-0.00012153,0.48,0.54,0
0.29981,0.089103,0.5602,-0.27964,-0.35084,-0.26917,0.0514,0,0,-0.095256,-0.74319,0,0.93547,0,0,0.17207,-0.051747,0,0.17963,-0.25272,-0.37777,-0.26917,27.646,-0.29989,0.11769,-7.8227e-05,0.5,0.54,0
0.2976,0.088993,0.53633,-0.27483,-0.33595,-0.25985,0.040406,0,0,-0.13631,-0.69249,0,0.7354,0,0,0.17003,-0.04214,0,0.17514,-0.25473,-0.35605,-0.25985,26.45,-0.29021,0.098861,-4.9175e-05,0.52,0.54,0
0.29436,0.087174,0.51259,-0.27244,-0.321,-0.25126,0.032408,0,0,-0.19274,-0.63466,0,0.58982,0,0,0.1696,-0.034938,0,0.17314,-0.25623,-0.33722,-0.25126,26.579,-0.28157,0.083584,-2.9634e-05,0.54,0.54,0
0.28989,0.084247,0.48884,-0.27122,-0.30659,-0.24318,0.026865,0,0,-0.25517,-0.57707,0,0.48895,0,0,0.16986,-0.029491,0,0.17239,-0.25674,-0.32107,-0.24318,28.321,-0.27366,0.072074,-1.6956e-05,0.56,0.54,0
0.28415,0.080696,0.46503,-0.27035,-0.29319,-0.23549,0.023183,0,0,-0.31718,-0.52502,0,0.42194,0,0,0.17034,-0.025265,0,0.17219,-0.25593,-0.30761,-0.23549,31.888,-0.26634,0.064381,-9.1966e-06,0.58,0.54,0
0.2772,0.076876,0.44115,-0.26938,-0.28097,-0.22813,0.020747,0,0,-0.37542,-0.48091,0,0.37759,0,0,0.1708,-0.021853,0,0.17219,-0.25364,-0.29672,-0.22813,37.195,-0.2595,0.060048,-4.742e-06,0.6,0.54,0
0.26914,0.07302,0.4172,-0.26814,-0.26989,-0.22101,0.019052,0,0,-0.42885,-0.44483,0,0.34674,0,0,0.17119,-0.018975,0,0.17223,-0.24994,-0.28808,-0.22101,43.681,-0.25301,0.058272,-2.3897e-06,0.62,0.54,0
0.26005,0.069272,0.39321,-0.26659,-0.25977,-0.21408,0.017748,0,0,-0.4778,-0.4158,0,0.32301,0,0,0.17147,-0.016446,0,0.17225,-0.24511,-0.28125,-0.21408,50.433,-0.24682,0.058228,-1.333e-06,0.64,0.54,0
0.25002,0.065714,0.36919,-0.2648,-0.25046,-0.20732,0.016615,0,0,-0.52305,-0.3926,0,0.30239,0,0,0.17165,-0.014139,0,0.17223,-0.23953,-0.27572,-0.20732,56.667,-0.24086,0.059274,-1.0742e-06,0.66,0.54,0
0.23913,0.062388,0.34515,-0.26283,-0.24182,-0.2007,0.015518,0,0,-0.56538,-0.37417,0,0.28244,0,0,0.17177,-0.011965,0,0.17218,-0.23359,-0.27107,-0.2007,62.049,-0.23512,0.06098,-1.3146e-06,0.68,0.54,0
0.22741,0.059314,0.3211,-0.26075,-0.23375,-0.19422,0.014371,0,0,-0.60543,-0.35969,0,0.26156,0,0,0.17181,-0.0098508,0,0.17209,-0.22753,-0.26697,-0.19422,66.607,-0.22957,0.063076,-1.8727e-06,0.7,0.54,0
0.21491,0.056495,0.29704,-0.2586,-0.22617,-0.18786,0.013107,0,0,-0.64369,-0.34854,0,0.23854,0,0,0.1718,-0.0077328,0,0.17197,-0.22153,-0.26323,-0.18786,70.527,-0.22421,0.065395,-2.6342e-06,0.72,0.54,0
0.20166,0.053923,0.27299,-0.25641,-0.21902,-0.18163,0.011663,0,0,-0.6805,-0.34025,0,0.21226,0,0,0.17174,-0.005546,0,0.17183,-0.21568,-0.25975,-0.18163,74.021,-0.21902,0.067839,-3.5262e-06,0.74,0.54,0
0.18769,0.051582,0.24896,-0.25421,-0.21226,-0.1755,0.0099681,0,0,-0.71618,-0.33447,0,0.18142,0,0,0.17163,-0.003216,0,0.17166,-0.21001,-0.25645,-0.1755,77.29,-0.21399,0.070358,-4.5086e-06,0.76,0.54,0
0.17302,0.049441,0.22494,-0.25204,-0.20586,-0.1695,0.0079259,0,0,-0.75106,-0.33084,0,0.14425,0,0,0.17148,-0.00064831,0,0.17147,-0.20454,-0.25336,-0.1695,80.527,-0.20913,0.072949,-5.5859e-06,0.78,0.54,0
0.15765,0.047459,0.20094,-0.24999,-0.19979,-0.16364,0.0053946,0,0,-0.78577,-0.32896,0,0.098182,0,0,0.1713,0.0022896,0,0.17131,-0.19922,-0.25056,-0.16364,83.935,-0.20447,0.075689,-6.8592e-06,0.8,0.54,0
0.14158,0.045574,0.17697,-0.24824,-0.194,-0.15796,0.0021643,0,0,-0.82164,-0.328,0,0.03939,0,0,0.17114,0.0057964,0,0.17123,-0.19391,-0.24833,-0.15796,87.719,-0.20007,0.07881,-8.6713e-06,0.82,0.54,0
0.12478,0.043697,0.15302,-0.24722,-0.18839,-0.15254,-0.0020524,0,0,-0.86158,-0.32619,0,-0.037354,0,0,0.17113,0.010188,0,0.17142,-0.18832,-0.24729,-0.15254,-88.004,-0.19605,0.082872,-1.1956e-05,0.84,0.54,0
0.10712,0.041713,0.12906,-0.24775,-0.18273,-0.14758,-0.0075995,0,0,-0.91156,-0.31984,0,-0.13831,0,0,0.17166,0.015977,0,0.17237,-0.18185,-0.24863,-0.14758,-83.422,-0.19269,0.089006,-1.8956e-05,0.86,0.54,0
0.08832,0.039491,0.10496,-0.25153,-0.17673,-0.14347,-0.014695,0,0,-0.9833,-0.30265,0,-0.26745,0,0,0.17365,0.023991,0,0.17525,-0.17395,-0.25431,-0.14347,-79.274,-0.19057,0.099177,-3.4616e-05,0.88,0.54,0
0.067789,0.036987,0.080435,-0.26093,-0.16984,-0.14072,-0.023537,0,0,-1.0939,-0.265,0,-0.42838,0,0,0.18016,0.035491,0,0.18354,-0.16412,-0.26666,-0.14072,-76.335,-0.1905,0.11602,-6.9332e-05,0.9,0.54,0
0.044564,0.034059,0.054517,-0.2823,-0.16459,-0.14186,-0.034285,0,0,-1.278,-0.20692,0,-0.62399,0,0,0.19919,0.052386,0,0.20608,-0.15534,-0.29156,-0.14186,-74.888,-0.19625,0.14344,-0.00014706,0.92,0.54,0
0.016669,0.030152,0.024663,-0.29981,-0.20701,-0.16614,-0.092745,0,0,-0.77153,-0.092977,0,-0.57901,0,0,0.26033,0.26057,0,0.38833,-0.13972,-0.3671,-0.16614,-61.828,-0.22432,0.21602,-0.00054079,0.94,0.54,0
0.013703,0.034621,0.018514,-0.38647,-0.2501,-0.20949,-0.094204,0,0,-0.23008,-0.052799,0,-0.24493,0,0,0.38129,0.23071,0,0.44096,-0.202,-0.43458,-0.20949,-62.949,-0.28202,0.22893,-0.00061398,0.96,0.54,0
0.0074653,0.035123,0.0094111,-0.49632,-0.24832,-0.2328,-0.059792,0,0,-0.34257,-0.020177,0,-0.15546,0,0,0.46286,0.10115,0,0.47151,-0.23466,-0.50998,-0.2328,-77.128,-0.32582,0.27625,-0.0010826,0.98,0.54,0
0,0.035218,0,-0.50879,-0.23008,-0.22166,0.0018269,0,0,-0.37327,-0.010948,0,0.0047501,0,0,0.47055,1.3878e-17,0,0.46877,-0.23007,-0.5088,-0.22166,89.624,-0.32018,0.28303,-0.001161,1,0.54,0
0,0.062641,1,-0.62524,-1.7495,-1.7124,0.035722,0,0,1.4133,-0.04821,0,0.092876,0,0,0.64023,-4.1633e-16,0,0.63994,-0.6241,-1.7506,-1.7124,1.818,-1.3624,1.1079,0.069568,0,0.56,0
0.028267,0.064499,0.9872,-0.61491,-1.719,-1.6874,0.071056,0,0,1.3942,-0.04111,0,0.18474,0,0,0.65604,-0.044368,0,0.65746,-0.61036,-1.7235,-1.6874,3.6673,-1.3404,1.0955,0.067284,0.02,0.56,0
0.055768,0.070598,0.97376,-0.64406,-1.6532,-1.6629,0.16234,0,0,1.3245,0.012683,0,0.42209,0,0,0.69847,-0.081058,0,0.7038,-0.61858,-1.6786,-1.6629,8.9179,-1.32,1.0523,0.059801,0.04,0.56,0
0.081248,0.081636,0.95926,-0.70549,-1.4457,-1.6046,0.24554,0,0,1.1689,0.2066,0,0.6384,0,0,0.75513,-0.084373,0,0.7605,-0.63144,-1.5197,-1.6046,16.781,-1.2519,0.93363,0.040634,0.06,0.56,0
0.10252,0.095508,0.94355,-0.73904,-1.0397,-1.4772,0.24363,0,0,0.95959,0.56868,0,0.63344,0,0,0.80775,-0.064386,0,0.81061,-0.6031,-1.1757,-1.4772,29.16,-1.0853,0.76902,0.011838,0.08,0.56,0
0.11963,0.10715,0.92695,-0.79421,-0.78378,-1.4003,0.14481,0,0,0.78798,0.80153,0,0.37651,0,0,0.84462,-0.033023,0,0.84525,-0.64409,-0.9339,-1.4003,46.031,-0.99277,0.66087,-0.0058017,0.1,0.56,0
0.13404,0.11411,0.90977,-0.82726,-0.6757,-1.3607,0.058216,0,0,0.69341,0.89045,0,0.15136,0,0,0.86662,-0.018877,0,0.86685,-0.65592,-0.84704,-1.3607,71.234,-0.95454,0.63126,-0.0090391,0.12,0.56,0
0.14737,0.117,0.89228,-0.82286,-0.60073,-1.3194,0.0097205,0,0,0.64545,0.93422,0,0.025273,0,0,0.87986,-0.014134,0,0.87999,-0.6003,-0.82328,-1.3194,87.499,-0.91431,0.63752,-0.0080279,0.14,0.56,0
0.15986,0.11739,0.87457,-0.81982,-0.55114,-1.2859,-0.0062871,0,0,0.60586,0.95514,0,-0.016346,0,0,0.88888,-0.015062,0,0.88901,-0.55099,-0.81997,-1.2859,-88.66,-0.8856,0.64399,-0.0060956,0.16,0.56,0
0.1716,0.11633,0.85673,-0.8194,-0.51867,-1.2582,-0.0031151,0,0,0.57037,0.96132,0,-0.0080993,0,0,0.89386,-0.01945,0,0.89407,-0.51864,-0.81943,-1.2582,-89.407,-0.86541,0.64414,-0.0043412,0.18,0.56,0
0.18267,0.11453,0.83882,-0.81985,-0.49852,-1.2343,0.010193,0,0,0.53882,0.95656,0,0.026501,0,0,0.89469,-0.026119,0,0.89506,-0.49819,-0.82018,-1.2343,88.185,-0.8509,0.63918,-0.002881,0.2,0.56,0
0.19315,0.11233,0.82094,-0.81985,-0.48763,-1.2132,0.027143,0,0,0.51133,0.94322,0,0.070571,0,0,0.89101,-0.034589,0,0.89168,-0.48542,-0.82205,-1.2132,85.36,-0.84022,0.63084,-0.0016669,0.22,0.56,0
0.20313,0.10974,0.80318,-0.81929,-0.48554,-1.1946,0.042534,0,0,0.48794,0.92181,0,0.11059,0,0,0.88215,-0.044807,0,0.88329,-0.48021,-0.82463,-1.1946,82.85,-0.83316,0.61884,-0.00075424,0.24,0.56,0
0.21267,0.10651,0.78565,-0.8184,-0.49493,-1.1797,0.050607,0,0,0.46963,0.89014,0,0.13158,0,0,0.86688,-0.056882,0,0.86878,-0.4872,-0.82613,-1.1797,81.312,-0.831,0.59972,-0.00040419,0.26,0.56,0
0.22191,0.10202,0.7685,-0.81569,-0.52336,-1.1702,0.042112,0,0,0.46089,0.84091,0,0.10949,0,0,0.84327,-0.07083,0,0.84632,-0.51742,-0.82163,-1.1702,81.963,-0.83642,0.56578,-0.001092,0.28,0.56,0
0.23111,0.09521,0.75192,-0.78425,-0.57937,-1.161,0.010363,0,0,0.48979,0.75613,0,0.026944,0,0,0.80669,-0.086425,0,0.81151,-0.57885,-0.78477,-1.161,87.112,-0.84154,0.51131,-0.0033034,0.3,0.56,0
0.2415,0.085362,0.73624,-0.73008,-0.74489,-1.1787,-0.032408,0,0,0.58324,0.56399,0,-0.08426,0,0,0.75296,-0.10287,0,0.76059,-0.70425,-0.77073,-1.1787,-38.564,-0.88457,0.44498,-0.0041868,0.32,0.56,0
0.25444,0.073609,0.7218,-0.68112,-1.0393,-1.2379,-0.014054,0,0,0.72384,0.25826,0,-0.036542,0,0,0.68226,-0.14085,0,0.69749,-0.68057,-1.0398,-1.2379,-2.2439,-0.9861,0.48936,0.0028653,0.34,0.56,0
0.27046,0.063041,0.70895,-0.6041,-1.2378,-1.2615,0.067655,0,0,0.85465,0.030817,0,0.1759,0,0,0.60042,-0.20502,0,0.63513,-0.59696,-1.245,-1.2615,6.0264,-1.0345,0.65644,0.014497,0.36,0.56,0
0.28862,0.055058,0.69779,-0.51023,-1.3403,-1.253,0.15183,0,0,0.96555,-0.11359,0,0.39477,0,0,0.50463,-0.29877,0,0.58681,-0.48333,-1.3672,-1.253,10.047,-1.0345,0.83267,0.027778,0.38,0.56,0
0.30908,0.047686,0.68876,-0.45349,-1.4728,-1.2667,0.18042,0,0,1.0571,-0.26803,0,0.4691,0,0,0.38581,-0.40514,0,0.5627,-0.4225,-1.5038,-1.2667,9.7469,-1.0643,0.98441,0.039573,0.4,0.56,0
0.33091,0.037529,0.68236,-0.37443,-0.92468,-0.77965,0.12701,0,0,0.41308,-0.32993,0,1.1139,0,0,0.27636,-0.2577,0,0.39812,-0.31537,-0.98374,-0.77965,25.916,-0.69292,0.6017,0.021107,0.42,0.56,0
0.3256,0.055957,0.64982,-0.32266,-0.36438,-0.29894,0.089928,0,0,-0.21581,-0.59549,0,1.6367,0,0,0.22168,-0.07213,0,0.23344,-0.2512,-0.43584,-0.29894,38.47,-0.32866,0.16599,-0.00017106,0.44,0.56,0
0.32228,0.066809,0.62028,-0.3056,-0.35972,-0.28821,0.070531,0,0,-0.15825,-0.65076,0,1.2837,0,0,0.20259,-0.066274,0,0.21327,-0.25711,-0.4082,-0.28821,34.505,-0.31784,0.13819,-0.00011275,0.46,0.56,0
0.31927,0.07269,0.59309,-0.29553,-0.35026,-0.27847,0.056619,0,0,-0.15529,-0.65336,0,1.0305,0,0,0.18935,-0.056932,0,0.19773,-0.26001,-0.38578,-0.27847,32.102,-0.30809,0.11764,-7.6714e-05,0.48,0.56,0
0.31606,0.075466,0.56727,-0.28846,-0.33949,-0.26943,0.045962,0,0,-0.17325,-0.63761,0,0.8365,0,0,0.1818,-0.048125,0,0.18804,-0.26141,-0.36655,-0.26943,30.482,-0.29913,0.10137,-5.2368e-05,0.5,0.56,0
0.31234,0.0761,0.54219,-0.28338,-0.32746,-0.26071,0.037488,0,0,-0.20634,-0.60742,0,0.68227,0,0,0.17774,-0.040625,0,0.18231,-0.26193,-0.3489,-0.26071,29.776,-0.29052,0.08759,-3.4491e-05,0.52,0.56,0
0.30781,0.075191,0.5175,-0.28004,-0.31494,-0.25242,0.03086,0,0,-0.25134,-0.56891,0,0.56164,0,0,0.17565,-0.034479,0,0.17899,-0.26204,-0.33294,-0.25242,30.258,-0.28247,0.076168,-2.148e-05,0.54,0.56,0
0.30229,0.073223,0.49301,-0.27778,-0.30245,-0.2445,0.025881,0,0,-0.30287,-0.52737,0,0.47103,0,0,0.17463,-0.029497,0,0.1771,-0.26145,-0.31879,-0.2445,32.258,-0.27491,0.067431,-1.2457e-05,0.56,0.56,0
0.2957,0.070579,0.4686,-0.27607,-0.29041,-0.23689,0.022255,0,0,-0.35656,-0.48706,0,0.40504,0,0,0.17418,-0.025428,0,0.17602,-0.25986,-0.30662,-0.23689,36.071,-0.26779,0.061552,-6.5984e-06,0.58,0.56,0
0.28803,0.067558,0.44424,-0.27454,-0.27905,-0.22954,0.019639,0,0,-0.40949,-0.45056,0,0.35744,0,0,0.174,-0.022038,0,0.17539,-0.25703,-0.29656,-0.22954,41.723,-0.26104,0.058356,-3.1165e-06,0.6,0.56,0
0.27932,0.064379,0.41988,-0.27298,-0.26845,-0.22241,0.017708,0,0,-0.46019,-0.41894,0,0.32228,0,0,0.17394,-0.019131,0,0.17499,-0.25286,-0.28857,-0.22241,48.647,-0.25461,0.057353,-1.3275e-06,0.62,0.56,0
0.26962,0.061191,0.39553,-0.27132,-0.25858,-0.21547,0.016196,0,0,-0.50822,-0.39224,0,0.29476,0,0,0.17393,-0.016561,0,0.17471,-0.24755,-0.28236,-0.21547,55.739,-0.24846,0.057936,-7.0721e-07,0.64,0.56,0
0.25899,0.058089,0.37118,-0.26955,-0.24936,-0.2087,0.014909,0,0,-0.55375,-0.37002,0,0.27134,0,0,0.17393,-0.014215,0,0.17451,-0.24145,-0.27746,-0.2087,62.051,-0.24254,0.059571,-8.8979e-07,0.66,0.56,0
0.24747,0.055132,0.34683,-0.26769,-0.24072,-0.20207,0.013712,0,0,-0.59716,-0.3517,0,0.24956,0,0,0.17394,-0.012007,0,0.17435,-0.23497,-0.27344,-0.20207,67.263,-0.23683,0.06187,-1.6366e-06,0.68,0.56,0
0.2351,0.052354,0.32248,-0.26579,-0.23258,-0.19558,0.012509,0,0,-0.63892,-0.33668,0,0.22767,0,0,0.17396,-0.0098657,0,0.17423,-0.22839,-0.26997,-0.19558,71.506,-0.23131,0.064577,-2.7999e-06,0.7,0.56,0
0.22191,0.049771,0.29812,-0.26388,-0.22486,-0.18921,0.011227,0,0,-0.67948,-0.32443,0,0.20433,0,0,0.17398,-0.0077271,0,0.17415,-0.22186,-0.26688,-0.18921,75.04,-0.22598,0.067545,-4.2971e-06,0.72,0.56,0
0.20792,0.047383,0.27376,-0.26201,-0.21753,-0.18297,0.009801,0,0,-0.71928,-0.31448,0,0.17838,0,0,0.17402,-0.0055267,0,0.17411,-0.21547,-0.26408,-0.18297,78.109,-0.22084,0.0707,-6.0988e-06,0.74,0.56,0
0.19314,0.045183,0.2494,-0.26025,-0.21052,-0.17686,0.0081668,0,0,-0.75884,-0.30632,0,0.14863,0,0,0.1741,-0.0031935,0,0.17413,-0.20921,-0.26155,-0.17686,80.909,-0.21588,0.074027,-8.2335e-06,0.76,0.56,0
0.17757,0.043151,0.22501,-0.25867,-0.20378,-0.17088,0.0062506,0,0,-0.79889,-0.29938,0,0.11376,0,0,0.17425,-0.00064219,0,0.17425,-0.20307,-0.25937,-0.17088,83.585,-0.21111,0.077579,-1.0815e-05,0.78,0.56,0
0.16119,0.041261,0.20061,-0.25742,-0.19724,-0.16506,0.0039653,0,0,-0.84051,-0.29285,0,0.072168,0,0,0.17452,0.0022374,0,0.17453,-0.19698,-0.25768,-0.16506,86.246,-0.20657,0.081495,-1.4114e-05,0.8,0.56,0
0.14395,0.039475,0.17615,-0.25674,-0.19079,-0.15943,0.0012159,0,0,-0.88557,-0.28547,0,0.022129,0,0,0.17504,0.0055929,0,0.17512,-0.19077,-0.25676,-0.15943,88.944,-0.20232,0.086058,-1.8697e-05,0.82,0.56,0
0.12576,0.037748,0.1516,-0.25703,-0.18429,-0.15405,-0.0020722,0,0,-0.9371,-0.27515,0,-0.037715,0,0,0.17604,0.0096226,0,0.17629,-0.18423,-0.25709,-0.15405,-88.37,-0.19846,0.09175,-2.5683e-05,0.84,0.56,0
0.10646,0.036044,0.12686,-0.25892,-0.17748,-0.14904,-0.0058689,0,0,-0.99986,-0.25879,0,-0.10681,0,0,0.17801,0.014572,0,0.17859,-0.17706,-0.25934,-0.14904,-85.899,-0.19515,0.099297,-3.7114e-05,0.86,0.56,0
0.085768,0.034359,0.10176,-0.26307,-0.16998,-0.14445,-0.0099463,0,0,-1.0795,-0.23229,0,-0.18102,0,0,0.18194,0.02066,0,0.1831,-0.16893,-0.26412,-0.14445,-83.969,-0.1925,0.10951,-5.6249e-05,0.88,0.56,0
0.063285,0.032722,0.075917,-0.27016,-0.16166,-0.14039,-0.013734,0,0,-1.1809,-0.19356,0,-0.24996,0,0,0.1896,0.027748,0,0.19165,-0.15995,-0.27187,-0.14039,-82.897,-0.19074,0.12287,-8.7196e-05,0.9,0.56,0
0.038533,0.031154,0.048667,-0.27945,-0.15183,-0.13634,-0.017055,0,0,-1.3023,-0.14101,0,-0.31039,0,0,0.20144,0.033428,0,0.20435,-0.14959,-0.28169,-0.13634,-82.518,-0.18921,0.1392,-0.0001343,0.92,0.56,0
0.011192,0.029013,0.019514,-0.28753,-0.17852,-0.15097,-0.018672,0,0,-0.76341,-0.062684,0,-0.18008,0,0,0.23586,0.11706,0,0.27321,-0.17492,-0.29114,-0.15097,-79.505,-0.20567,0.13138,-0.00010576,0.94,0.56,0
0.0079965,0.031945,0.014244,-0.33832,-0.31352,-0.2098,-0.031966,0,0,-0.16708,-0.13484,0,-0.083112,0,0,0.30019,0.16908,0,0.34605,-0.29163,-0.36021,-0.2098,-55.599,-0.28721,0.13043,1.7326e-05,0.96,0.56,0
0.004509,0.033499,0.0075058,-0.3544,-0.28931,-0.20062,-0.024354,0,0,-0.19991,-0.1153,0,-0.06332,0,0,0.3561,0.082133,0,0.36402,-0.2812,-0.3625,-0.20062,-71.596,-0.28144,0.14019,-1.0703e-06,0.98,0.56,0
0,0.03381,0,-0.36501,-0.2736,-0.19158,0.0059695,0,0,-0.22545,-0.10662,0,0.015521,0,0,0.37529,-1.7347e-17,0,0.37378,-0.27321,-0.3654,-0.19158,86.279,-0.27673,0.15062,-1.8417e-05,1,0.56,0
0,0.061328,1,-0.68766,-1.8181,-1.7517,0.035068,0,0,1.3833,-0.086293,0,0.091177,0,0,0.58091,-3.1503e-15,0,0.58013,-0.68657,-1.8192,-1.7517,1.7751,-1.4192,1.1004,0.067576,0,0.58,0
0.027666,0.063152,0.98838,-0.66509,-1.7891,-1.7246,0.075635,0,0,1.3774,-0.083806,0,0.19665,0,0,0.59927,-0.072599,0,0.60291,-0.66002,-1.7942,-1.7246,3.8324,-1.3929,1.101,0.067631,0.02,0.58,0
0.055097,0.06995,0.97603,-0.69812,-1.7892,-1.7222,0.19185,0,0,1.3314,-0.087101,0,0.4988,0,0,0.66972,-0.15535,0,0.68789,-0.66537,-1.822,-1.7222,9.6872,-1.4032,1.1101,0.068352,0.04,0.58,0
0.08092,0.085036,0.96159,-0.77003,-1.5862,-1.6685,0.3406,0,0,1.168,0.10693,0,0.88555,0,0,0.76711,-0.21799,0,0.80159,-0.64658,-1.7097,-1.6685,19.924,-1.3416,1.0431,0.057985,0.06,0.58,0
0.10182,0.10795,0.94534,-0.71332,-0.79462,-1.3977,0.2748,0,0,0.88973,0.78404,0,0.71447,0,0,0.84458,-0.082482,0,0.84711,-0.47619,-1.0318,-1.3977,40.793,-0.96856,0.80369,0.0092597,0.08,0.58,0
0.11651,0.12439,0.92781,-0.81951,-0.71329,-1.3877,0.13599,0,0,0.73859,0.87666,0,0.35357,0,0,0.87618,-0.045552,0,0.87729,-0.62041,-0.91239,-1.3877,55.666,-0.97348,0.67074,-0.0061942,0.1,0.58,0
0.13136,0.1323,0.9103,-0.76242,-0.62913,-1.3278,0.046193,0,0,0.73495,0.90822,0,0.1201,0,0,0.87839,-0.029425,0,0.87887,-0.61469,-0.77686,-1.3278,72.636,-0.90644,0.64741,-0.011044,0.12,0.58,0
0.14591,0.13568,0.89267,-0.74281,-0.58123,-1.2899,0.011312,0,0,0.7112,0.92125,0,0.02941,0,0,0.88379,-0.02253,0,0.88408,-0.58045,-0.7436,-1.2899,86.015,-0.87131,0.64357,-0.010781,0.14,0.58,0
0.15981,0.13625,0.87495,-0.74268,-0.54918,-1.2625,0.00030387,0,0,0.67577,0.92732,0,0.00079006,0,0,0.88821,-0.020543,0,0.88845,-0.54918,-0.74269,-1.2625,89.91,-0.85146,0.63894,-0.0093708,0.16,0.58,0
0.17294,0.13521,0.85715,-0.74882,-0.5269,-1.2399,0.0031291,0,0,0.63835,0.92685,0,0.0081356,0,0,0.89038,-0.021462,0,0.89064,-0.52686,-0.74887,-1.2399,89.192,-0.83853,0.63196,-0.0077762,0.18,0.58,0
0.18534,0.13327,0.83933,-0.75333,-0.51135,-1.2187,0.01304,0,0,0.60503,0.9196,0,0.033904,0,0,0.88931,-0.024208,0,0.88964,-0.51065,-0.75403,-1.2187,86.924,-0.8278,0.62313,-0.0063421,0.2,0.58,0
0.19714,0.13079,0.82157,-0.7526,-0.50111,-1.1977,0.025627,0,0,0.57861,0.90555,0,0.066631,0,0,0.88418,-0.028179,0,0.88463,-0.49853,-0.75518,-1.1977,84.24,-0.81713,0.61258,-0.0052079,0.22,0.58,0
0.20849,0.12779,0.80396,-0.74614,-0.49611,-1.1766,0.037208,0,0,0.55965,0.88468,0,0.09674,0,0,0.87408,-0.033007,0,0.87472,-0.49069,-0.75156,-1.1766,81.713,-0.8063,0.59969,-0.004436,0.24,0.58,0
0.21952,0.124,0.78661,-0.7368,-0.49823,-1.1571,0.043196,0,0,0.54642,0.85655,0,0.11231,0,0,0.85789,-0.038335,0,0.85879,-0.49065,-0.74438,-1.1571,80.046,-0.79739,0.58263,-0.0040552,0.26,0.58,0
0.23034,0.1187,0.76965,-0.73155,-0.51235,-1.1428,0.036684,0,0,0.53465,0.81961,0,0.095379,0,0,0.83393,-0.043545,0,0.83517,-0.50637,-0.73753,-1.1428,80.747,-0.79557,0.55801,-0.0040417,0.28,0.58,0
0.24091,0.11069,0.75325,-0.74366,-0.55438,-1.1427,-0.0047572,0,0,0.51871,0.76477,0,-0.012369,0,0,0.80067,-0.047157,0,0.80229,-0.55426,-0.74378,-1.1427,-88.561,-0.81357,0.52022,-0.0041294,0.3,0.58,0
0.25109,0.096925,0.73762,-0.63928,-0.59878,-1.109,-0.082318,0,0,0.61068,0.66334,0,-0.21402,0,0,0.73604,-0.045015,0,0.73744,-0.53426,-0.70381,-1.109,-51.91,-0.78237,0.51153,-0.0044151,0.32,0.58,0
0.26534,0.077807,0.72381,-0.63185,-1.1468,-1.2574,-0.11399,0,0,0.81322,0.1438,0,-0.29637,0,0,0.63636,-0.0073172,0,0.64184,-0.60775,-1.1709,-1.2574,-11.94,-1.012,0.61101,0.010928,0.34,0.58,0
0.28362,0.062343,0.71217,-0.53751,-1.3675,-1.2837,0.0032235,0,0,0.97002,-0.10902,0,0.008381,0,0,0.52271,-0.11595,0,0.53558,-0.5375,-1.3676,-1.2837,0.22251,-1.0629,0.79146,0.024501,0.36,0.58,0
0.30414,0.051603,0.7029,-0.45619,-1.4121,-1.2634,0.09022,0,0,1.0494,-0.19334,0,0.23457,0,0,0.41908,-0.21537,0,0.47168,-0.44775,-1.4206,-1.2634,5.3446,-1.0439,0.90453,0.034173,0.38,0.58,0
0.32559,0.042436,0.6954,-0.41825,-1.4538,-1.257,0.10923,0,0,1.0904,-0.25583,0,0.28401,0,0,0.3285,-0.28533,0,0.43704,-0.40685,-1.4652,-1.257,5.9564,-1.043,0.97115,0.039851,0.4,0.58,0
0.34775,0.032206,0.68976,-0.34792,-0.86486,-0.75799,0.091242,0,0,0.4074,-0.24315,0,0.85817,0,0,0.254,-0.18186,0,0.32853,-0.30167,-0.91111,-0.75799,25.794,-0.65692,0.55856,0.020591,0.42,0.58,0
0.34189,0.045604,0.65812,-0.3212,-0.34468,-0.29378,0.072889,0,0,-0.24954,-0.46314,0,1.3266,0,0,0.21896,-0.051905,0,0.22514,-0.25911,-0.40677,-0.29378,40.426,-0.31989,0.13373,-9.5573e-05,0.44,0.58,0
0.33777,0.054944,0.62845,-0.30755,-0.34585,-0.2858,0.060128,0,0,-0.19792,-0.54644,0,1.0943,0,0,0.20598,-0.052182,0,0.21257,-0.26359,-0.3898,-0.2858,36.167,-0.31306,0.1167,-7.1769e-05,0.46,0.58,0
0.33397,0.060603,0.60045,-0.29911,-0.33956,-0.27738,0.049297,0,0,-0.19775,-0.56583,0,0.8972,0,0,0.19565,-0.048316,0,0.20156,-0.26605,-0.37262,-0.27738,33.847,-0.30535,0.10138,-5.1268e-05,0.48,0.58,0
0.32986,0.063598,0.57367,-0.29335,-0.33067,-0.26916,0.040812,0,0,-0.22016,-0.55974,0,0.74279,0,0,0.18838,-0.043029,0,0.19324,-0.26714,-0.35689,-0.26916,32.716,-0.29773,0.088756,-3.5847e-05,0.5,0.58,0
0.32517,0.064696,0.5477,-0.28901,-0.3205,-0.2611,0.03399,0,0,-0.254,-0.54059,0,0.61861,0,0,0.18367,-0.0377,0,0.1875,-0.2673,-0.34221,-0.2611,32.571,-0.2902,0.078204,-2.4045e-05,0.52,0.58,0
0.3197,0.064417,0.52224,-0.28567,-0.30962,-0.25319,0.028493,0,0,-0.29552,-0.51347,0,0.51856,0,0,0.18073,-0.032844,0,0.18368,-0.26673,-0.32855,-0.25319,33.602,-0.28282,0.069581,-1.5116e-05,0.54,0.58,0
0.31335,0.063152,0.4971,-0.28309,-0.29851,-0.24549,0.024147,0,0,-0.34209,-0.48246,0,0.43947,0,0,0.17891,-0.028597,0,0.18118,-0.26545,-0.31615,-0.24549,36.144,-0.2757,0.063088,-8.6798e-06,0.56,0.58,0
0.30602,0.061214,0.47215,-0.28099,-0.28754,-0.23801,0.020787,0,0,-0.39112,-0.45073,0,0.37833,0,0,0.1778,-0.024932,0,0.17953,-0.26322,-0.30531,-0.23801,40.523,-0.26885,0.058891,-4.3854e-06,0.58,0.58,0
0.2977,0.058853,0.44732,-0.27914,-0.27694,-0.23073,0.018216,0,0,-0.4406,-0.42052,0,0.33154,0,0,0.1771,-0.021756,0,0.17843,-0.25979,-0.29629,-0.23073,46.733,-0.26227,0.056901,-1.8441e-06,0.6,0.58,0
0.2884,0.056263,0.42256,-0.2774,-0.26683,-0.22363,0.016227,0,0,-0.48924,-0.39307,0,0.29534,0,0,0.17666,-0.018964,0,0.17767,-0.25505,-0.28918,-0.22363,54.019,-0.25595,0.05678,-6.7499e-07,0.62,0.58,0
0.27813,0.053583,0.39785,-0.27566,-0.25724,-0.21671,0.014632,0,0,-0.53647,-0.36888,0,0.26631,0,0,0.17638,-0.016459,0,0.17714,-0.24916,-0.28374,-0.21671,61.092,-0.24987,0.058062,-5.5099e-07,0.64,0.58,0
0.26694,0.050913,0.37317,-0.27391,-0.24817,-0.20993,0.013278,0,0,-0.58216,-0.34795,0,0.24166,0,0,0.17621,-0.014157,0,0.17677,-0.24255,-0.27953,-0.20993,67.052,-0.244,0.060311,-1.2218e-06,0.66,0.58,0
0.25484,0.04832,0.34851,-0.27215,-0.23957,-0.2033,0.012045,0,0,-0.62648,-0.33004,0,0.21922,0,0,0.17611,-0.011984,0,0.17652,-0.2356,-0.27612,-0.2033,71.758,-0.23834,0.063192,-2.5141e-06,0.68,0.58,0
0.24188,0.045847,0.32386,-0.2704,-0.23139,-0.1968,0.010844,0,0,-0.66973,-0.31477,0,0.19736,0,0,0.17609,-0.0098782,0,0.17637,-0.22858,-0.27321,-0.1968,75.463,-0.23287,0.066483,-4.3223e-06,0.7,0.58,0
0.22806,0.043518,0.29921,-0.26871,-0.22359,-0.19043,0.0096051,0,0,-0.71231,-0.30173,0,0.17481,0,0,0.17614,-0.0077812,0,0.17631,-0.22163,-0.27067,-0.19043,78.469,-0.22758,0.070056,-6.5999e-06,0.72,0.58,0
0.21338,0.041344,0.27454,-0.26712,-0.21611,-0.18419,0.0082715,0,0,-0.75469,-0.29047,0,0.15054,0,0,0.17627,-0.0056356,0,0.17636,-0.2148,-0.26843,-0.18419,81.016,-0.22247,0.073857,-9.3593e-06,0.74,0.58,0
0.19787,0.039329,0.24985,-0.26571,-0.2089,-0.17807,0.0067946,0,0,-0.79746,-0.28049,0,0.12366,0,0,0.17651,-0.0033813,0,0.17654,-0.2081,-0.26651,-0.17807,83.274,-0.21756,0.077891,-1.2682e-05,0.76,0.58,0
0.18149,0.037466,0.22512,-0.26455,-0.20189,-0.17209,0.0051318,0,0,-0.8414,-0.27115,0,0.093399,0,0,0.17691,-0.00095202,0,0.17691,-0.20147,-0.26497,-0.17209,85.349,-0.21285,0.082225,-1.6752e-05,0.78,0.58,0
0.16421,0.035745,0.20032,-0.2638,-0.19501,-0.16626,0.0032516,0,0,-0.88763,-0.26165,0,0.059178,0,0,0.17753,0.0017268,0,0.17754,-0.19486,-0.26396,-0.16626,87.3,-0.20836,0.086996,-2.1907e-05,0.8,0.58,0
0.14598,0.034155,0.17541,-0.26364,-0.18817,-0.1606,0.0011482,0,0,-0.93768,-0.25084,0,0.020897,0,0,0.17852,0.0047358,0,0.17858,-0.18815,-0.26366,-0.1606,89.129,-0.20414,0.092418,-2.8727e-05,0.82,0.58,0
0.1267,0.03269,0.15033,-0.26432,-0.18121,-0.15514,-0.0011245,0,0,-0.9936,-0.23729,0,-0.020465,0,0,0.18011,0.0081467,0,0.18029,-0.1812,-0.26434,-0.15514,-89.225,-0.20022,0.098785,-3.8137e-05,0.84,0.58,0
0.10624,0.031361,0.12498,-0.26609,-0.17399,-0.14988,-0.003412,0,0,-1.0576,-0.2194,0,-0.062098,0,0,0.18269,0.011972,0,0.18308,-0.17386,-0.26622,-0.14988,-87.881,-0.19665,0.1064,-5.1422e-05,0.86,0.58,0
0.084402,0.030199,0.099176,-0.26911,-0.16639,-0.14482,-0.0054254,0,0,-1.1311,-0.19629,0,-0.098743,0,0,0.18682,0.01602,0,0.18752,-0.1661,-0.26939,-0.14482,-86.985,-0.19344,0.11542,-6.9998e-05,0.88,0.58,0
0.060996,0.029245,0.072666,-0.27322,-0.15837,-0.13986,-0.0069029,0,0,-1.2136,-0.16843,0,-0.12563,0,0,0.19292,0.01951,0,0.19394,-0.15795,-0.27364,-0.13986,-86.573,-0.19048,0.12571,-9.4946e-05,0.9,0.58,0
0.035857,0.028418,0.045158,-0.27893,-0.15022,-0.1352,-0.0074777,0,0,-1.308,-0.13668,0,-0.13609,0,0,0.2007,0.020499,0,0.2018,-0.14978,-0.27937,-0.1352,-86.686,-0.18812,0.13746,-0.00012834,0.92,0.58,0
0.0086751,0.027645,0.016469,-0.27573,-0.18468,-0.14754,-0.0045132,0,0,-0.74913,-0.084513,0,-0.064693,0,0,0.2204,0.069527,0,0.23617,-0.18446,-0.27596,-0.14754,-87.097,-0.20265,0.11945,-7.0473e-05,0.94,0.58,0
0.0058919,0.029227,0.011751,-0.29789,-0.29644,-0.19005,0.00047561,0,0,-0.14019,-0.13831,0,0.0012366,0,0,0.25857,0.10028,0,0.27801,-0.2963,-0.29803,-0.19005,73.332,-0.26146,0.10712,6.3083e-05,0.96,0.58,0
0.0030675,0.030511,0.0061258,-0.30396,-0.31113,-0.19065,-0.0015271,0,0,-0.1473,-0.15662,0,-0.0039704,0,0,0.29378,0.055853,0,0.29859,-0.30365,-0.31145,-0.19065,-11.53,-0.26858,0.11709,8.1212e-05,0.98,0.58,0
0,0.030953,0,-0.29673,-0.29909,-0.17874,0.0085006,0,0,-0.15338,-0.15645,0,0.022102,0,0,0.30629,-3.4694e-18,0,0.3054,-0.28932,-0.30649,-0.17874,41.047,-0.25818,0.12009,8.2848e-05,1,0.58,0
0,0.059189,1,-0.73083,-1.899,-1.7889,0.037635,0,0,1.3756,-0.14304,0,0.09785,0,0,0.49503,-6.1062e-16,0,0.49364,-0.72961,-1.9002,-1.7889,1.8434,-1.4729,1.1191,0.06959,0,0.6,0
0.027511,0.061146,0.9901,-0.74974,-1.9001,-1.785,0.091628,0,0,1.3459,-0.14952,0,0.23823,0,0,0.50069,-0.091307,0,0.5072,-0.74249,-1.9073,-1.785,4.5259,-1.4783,1.1087,0.067142,0.02,0.6,0
0.053835,0.067114,0.97997,-0.83156,-1.9532,-1.8154,0.27467,0,0,1.279,-0.17911,0,0.71415,0,0,0.55308,-0.20871,0,0.58613,-0.76791,-2.0168,-1.8154,13.047,-1.5334,1.1614,0.072362,0.04,0.6,0
0.07867,0.085914,0.96798,-0.73932,-1.3417,-1.1774,0.36434,0,0,0.84969,-0.62423,0,2.1559,0,0,0.45141,-0.24105,0,0.51607,-0.56619,-1.5148,-1.1774,27.1,-1.0861,0.83741,0.039084,0.06,0.6,0
0.091743,0.12687,0.94685,-0.5485,-0.60273,-0.88643,0.22946,0,0,0.76879,-0.25622,0,1.4645,0,0,0.56011,-0.067443,0,0.5664,-0.31578,-0.83545,-0.88643,35.842,-0.67922,0.5949,0.011527,0.08,0.6,0
0.10942,0.14221,0.92877,-0.43941,-0.56821,-0.83301,0.074616,0,0,0.89544,-0.26345,0,0.65309,0,0,0.51296,-0.044814,0,0.51681,-0.38858,-0.61904,-0.83301,28.444,-0.61355,0.47452,-0.0071626,0.1,0.6,0
0.12756,0.15044,0.91095,-0.42146,-0.53697,-0.80807,0.037612,0,0,0.87953,-0.25396,0,0.38117,0,0,0.50837,-0.032343,0,0.51065,-0.39346,-0.56496,-0.80807,30.318,-0.58883,0.4599,-0.0081896,0.12,0.6,0
0.1446,0.15385,0.89318,-0.43997,-0.52677,-0.80041,0.018658,0,0,0.82001,-0.23639,0,0.23254,0,0,0.50785,-0.026073,0,0.50942,-0.40333,-0.5634,-0.80041,42.289,-0.58905,0.44184,-0.0074494,0.14,0.6,0
0.16036,0.15448,0.8754,-0.46036,-0.5166,-0.79331,0.012047,0,0,0.75748,-0.21696,0,0.16974,0,0,0.50854,-0.023003,0,0.50976,-0.4002,-0.57676,-0.79331,45.655,-0.59009,0.42765,-0.006368,0.16,0.6,0
0.1749,0.15341,0.85759,-0.47651,-0.50717,-0.78515,0.011739,0,0,0.70216,-0.20012,0,0.15608,0,0,0.50868,-0.021867,0,0.50974,-0.39585,-0.58783,-0.78515,45.752,-0.58961,0.41591,-0.0052939,0.18,0.6,0
0.18845,0.15132,0.83979,-0.48457,-0.49789,-0.77462,0.014948,0,0,0.65986,-0.18877,0,0.17029,0,0,0.50741,-0.021889,0,0.50841,-0.3902,-0.59226,-0.77462,45.255,-0.58569,0.40628,-0.0044296,0.2,0.6,0
0.2013,0.14855,0.82207,-0.48281,-0.48875,-0.76122,0.019439,0,0,0.63338,-0.18438,0,0.19431,0,0,0.50412,-0.022521,0,0.50511,-0.38303,-0.58853,-0.76122,44.567,-0.57759,0.39805,-0.0038787,0.22,0.6,0
0.21378,0.14513,0.8045,-0.47046,-0.47962,-0.74474,0.023202,0,0,0.62399,-0.18738,0,0.21111,0,0,0.49828,-0.023282,0,0.49927,-0.37429,-0.57578,-0.74474,43.626,-0.56493,0.39067,-0.0036723,0.24,0.6,0
0.22626,0.14077,0.78719,-0.44864,-0.47107,-0.72573,0.02513,0,0,0.6275,-0.19735,0,0.22179,0,0,0.49001,-0.023615,0,0.49093,-0.36532,-0.55439,-0.72573,42.585,-0.54848,0.38365,-0.0037738,0.26,0.6,0
0.23904,0.13481,0.77025,-0.41484,-0.46079,-0.70283,0.015342,0,0,0.66055,-0.21278,0,0.097327,0,0,0.47593,-0.02268,0,0.47669,-0.35411,-0.52151,-0.70283,40.564,-0.52615,0.37758,-0.0040986,0.28,0.6,0
0.25239,0.1258,0.75381,-0.39379,-0.46433,-0.68819,-0.0010917,0,0,0.66975,-0.22928,0,-0.023775,0,0,0.46013,-0.018629,0,0.46052,-0.36081,-0.49731,-0.68819,44.411,-0.51544,0.36646,-0.0041653,0.3,0.6,0
0.26583,0.11189,0.73804,-0.4124,-0.46394,-0.68464,-0.10234,0,0,0.61934,-0.23712,0,-0.59015,0,0,0.45303,-0.008648,0,0.45275,-0.2982,-0.57813,-0.68464,-32.313,-0.52033,0.39785,-0.00029445,0.32,0.6,0
0.27716,0.079361,0.7221,-0.48792,-0.95664,-0.846,-0.19287,0,0,0.70845,-0.44937,0,-1.1385,0,0,0.33164,0.076369,0,0.33982,-0.41781,-1.0268,-0.846,-21.656,-0.76352,0.54586,0.01438,0.34,0.6,0
0.297,0.05868,0.71358,-0.53954,-1.4924,-1.3232,-0.091016,0,0,1.0187,-0.22001,0,-0.23664,0,0,0.39237,-0.052765,0,0.39165,-0.53092,-1.501,-1.3232,-5.4077,-1.1184,0.89453,0.031919,0.36,0.6,0
0.31791,0.047324,0.7064,-0.46319,-1.4723,-1.287,0.034745,0,0,1.071,-0.2408,0,0.090336,0,0,0.33525,-0.15076,0,0.3669,-0.462,-1.4735,-1.287,1.9697,-1.0742,0.93234,0.036079,0.38,0.6,0
0.33984,0.037453,0.70017,-0.40867,-1.45,-1.2578,0.062527,0,0,1.1038,-0.2499,0,0.16257,0,0,0.28292,-0.20919,0,0.35257,-0.40493,-1.4538,-1.2578,3.4239,-1.0388,0.96586,0.039931,0.4,0.6,0
0.36207,0.027803,0.69508,-0.3447,-0.84915,-0.75535,0.065372,0,0,0.40226,-0.2134,0,0.65891,0,0,0.23699,-0.13382,0,0.28428,-0.30842,-0.88543,-0.75535,25.575,-0.64973,0.53388,0.020018,0.42,0.6,0
0.35593,0.037431,0.66435,-0.32132,-0.3325,-0.29105,0.059333,0,0,-0.27543,-0.37717,0,1.0798,0,0,0.21496,-0.039654,0,0.21863,-0.26732,-0.38651,-0.29105,42.309,-0.31496,0.10927,-5.6499e-05,0.44,0.6,0
0.35105,0.044951,0.63489,-0.31024,-0.33529,-0.28436,0.051377,0,0,-0.23552,-0.46347,0,0.93506,0,0,0.20618,-0.041657,0,0.21039,-0.26988,-0.37565,-0.28436,38.15,-0.30996,0.09932,-4.6735e-05,0.46,0.6,0
0.34651,0.050056,0.60662,-0.30249,-0.33115,-0.27675,0.043289,0,0,-0.2342,-0.49501,0,0.78786,0,0,0.1985,-0.040586,0,0.20263,-0.27122,-0.36242,-0.27675,35.842,-0.30346,0.088562,-3.5206e-05,0.48,0.6,0
0.34168,0.053076,0.57932,-0.29716,-0.32375,-0.26903,0.036343,0,0,-0.25596,-0.49793,0,0.66144,0,0,0.19242,-0.037747,0,0.19609,-0.27176,-0.34915,-0.26903,34.953,-0.29665,0.078794,-2.5024e-05,0.5,0.6,0
0.33627,0.054476,0.55274,-0.29318,-0.31479,-0.26136,0.030612,0,0,-0.28962,-0.48627,0,0.55714,0,0,0.18793,-0.0342,0,0.19102,-0.27152,-0.33645,-0.26136,35.279,-0.28978,0.070561,-1.6788e-05,0.52,0.6,0
0.3301,0.054653,0.5267,-0.29001,-0.30504,-0.25376,0.025909,0,0,-0.32993,-0.46664,0,0.47155,0,0,0.18475,-0.030555,0,0.18726,-0.27055,-0.3245,-0.25376,36.916,-0.28293,0.064021,-1.0417e-05,0.54,0.6,0
0.32307,0.053924,0.50101,-0.2874,-0.29493,-0.24627,0.02209,0,0,-0.37425,-0.44277,0,0.40205,0,0,0.18255,-0.027101,0,0.18454,-0.26875,-0.31357,-0.24627,40.164,-0.2762,0.059344,-5.7739e-06,0.56,0.6,0
0.31513,0.052549,0.47558,-0.28517,-0.28478,-0.23892,0.01903,0,0,-0.42079,-0.41729,0,0.34635,0,0,0.18102,-0.023943,0,0.1826,-0.26594,-0.304,-0.23892,45.289,-0.26962,0.056631,-2.6944e-06,0.58,0.6,0
0.30624,0.050738,0.45033,-0.28318,-0.27481,-0.23173,0.016598,0,0,-0.46817,-0.39204,0,0.30208,0,0,0.17997,-0.021093,0,0.1812,-0.26188,-0.29611,-0.23173,52.073,-0.26324,0.055794,-9.7813e-07,0.6,0.6,0
0.2964,0.048657,0.42519,-0.28133,-0.26515,-0.22468,0.014654,0,0,-0.51546,-0.36821,0,0.26671,0,0,0.17924,-0.018515,0,0.18019,-0.2565,-0.28998,-0.22468,59.452,-0.25705,0.056551,-4.1021e-07,0.62,0.6,0
0.28562,0.046436,0.40014,-0.27955,-0.25585,-0.21779,0.013066,0,0,-0.56211,-0.34641,0,0.2378,0,0,0.17874,-0.01616,0,0.17946,-0.25006,-0.28534,-0.21779,66.105,-0.25106,0.058527,-7.9134e-07,0.64,0.6,0
0.27392,0.044171,0.37515,-0.27783,-0.24695,-0.21103,0.011714,0,0,-0.60793,-0.32689,0,0.2132,0,0,0.17841,-0.013971,0,0.17895,-0.24301,-0.28177,-0.21103,71.407,-0.24527,0.061361,-1.9592e-06,0.66,0.6,0
0.2613,0.041931,0.35019,-0.27615,-0.23842,-0.2044,0.010502,0,0,-0.65296,-0.30962,0,0.19114,0,0,0.17822,-0.011896,0,0.17861,-0.2357,-0.27888,-0.2044,75.448,-0.23966,0.064775,-3.7986e-06,0.68,0.6,0
0.2478,0.039764,0.32524,-0.27454,-0.23025,-0.1979,0.0093521,0,0,-0.69743,-0.29439,0,0.17021,0,0,0.17816,-0.0098822,0,0.17843,-0.22836,-0.27644,-0.1979,78.552,-0.23423,0.068581,-6.244e-06,0.7,0.6,0
0.23341,0.037702,0.3003,-0.27303,-0.2224,-0.19153,0.0082039,0,0,-0.74164,-0.28092,0,0.14931,0,0,0.17822,-0.0078829,0,0.17839,-0.2211,-0.27432,-0.19153,81.022,-0.22898,0.072671,-9.2809e-06,0.72,0.6,0
0.21813,0.035764,0.27534,-0.27165,-0.21482,-0.18528,0.0070123,0,0,-0.78602,-0.26885,0,0.12762,0,0,0.17842,-0.0058511,0,0.17852,-0.21397,-0.2725,-0.18528,83.069,-0.22392,0.077002,-1.295e-05,0.74,0.6,0
0.20197,0.033963,0.25034,-0.27048,-0.20747,-0.17915,0.0057452,0,0,-0.83111,-0.25775,0,0.10456,0,0,0.17878,-0.003741,0,0.17882,-0.20695,-0.271,-0.17915,84.832,-0.21903,0.081582,-1.736e-05,0.76,0.6,0
0.18489,0.032305,0.22528,-0.26959,-0.2003,-0.17315,0.0043853,0,0,-0.87757,-0.24709,0,0.079812,0,0,0.17935,-0.0015083,0,0.17936,-0.20003,-0.26986,-0.17315,86.393,-0.21435,0.086466,-2.2708e-05,0.78,0.6,0
0.16686,0.030795,0.20012,-0.26907,-0.19324,-0.16728,0.0029366,0,0,-0.92625,-0.23625,0,0.053447,0,0,0.18021,0.00088593,0,0.18021,-0.19313,-0.26918,-0.16728,87.785,-0.20986,0.091748,-2.9308e-05,0.8,0.6,0
0.14784,0.029441,0.17482,-0.26904,-0.18623,-0.16156,0.0014365,0,0,-0.97813,-0.2245,0,0.026145,0,0,0.18146,0.0034646,0,0.18149,-0.1862,-0.26907,-0.16156,89.007,-0.20561,0.097552,-3.7616e-05,0.82,0.6,0
0.12774,0.028257,0.14932,-0.26961,-0.17917,-0.15597,-2.9951e-05,0,0,-1.0342,-0.21116,0,-0.00054512,0,0,0.18327,0.0062091,0,0.18338,-0.17917,-0.26961,-0.15597,-89.981,-0.20158,0.104,-4.8225e-05,0.84,0.6,0
0.10647,0.027268,0.12351,-0.27084,-0.17203,-0.1505,-0.0013226,0,0,-1.0951,-0.19585,0,-0.024071,0,0,0.18588,0.0090049,0,0.1861,-0.17201,-0.27086,-0.1505,-89.233,-0.19779,0.11117,-6.1767e-05,0.86,0.6,0
0.083935,0.026507,0.09727,-0.2727,-0.16479,-0.14514,-0.0022836,0,0,-1.1607,-0.1788,0,-0.041562,0,0,0.18948,0.011536,0,0.18984,-0.16474,-0.27274,-0.14514,-88.788,-0.19421,0.11902,-7.8733e-05,0.88,0.6,0
0.060041,0.025985,0.070454,-0.27517,-0.15754,-0.13988,-0.0027644,0,0,-1.2312,-0.16075,0,-0.050312,0,0,0.19408,0.013159,0,0.19454,-0.15748,-0.27524,-0.13988,-88.654,-0.19087,0.12747,-9.9578e-05,0.9,0.6,0
0.034689,0.025687,0.042928,-0.27801,-0.14982,-0.13448,-0.0025825,0,0,-1.3061,-0.13958,0,-0.047002,0,0,0.19931,0.013031,0,0.19976,-0.14977,-0.27807,-0.13448,-88.846,-0.18744,0.13658,-0.00012535,0.92,0.6,0
0.007796,0.025633,0.014647,-0.27531,-0.20054,-0.15113,0.0013905,0,0,-0.73771,-0.11243,0,-0.0093178,0,0,0.21134,0.041867,0,0.21769,-0.19989,-0.27596,-0.15113,-7.689,-0.20899,0.11833,-5.2173e-05,0.94,0.6,0
0.0051803,0.026412,0.010233,-0.28225,-0.29296,-0.1828,0.0074433,0,0,-0.12929,-0.14321,0,0.019353,0,0,0.23438,0.060973,0,0.24248,-0.27843,-0.29677,-0.1828,27.134,-0.25267,0.10601,5.5058e-05,0.96,0.6,0
0.0026244,0.027234,0.0052717,-0.28213,-0.30866,-0.18251,0.0060449,0,0,-0.12951,-0.164,0,0.015717,0,0,0.25583,0.034364,0,0.25794,-0.28082,-0.30997,-0.18251,12.25,-0.25777,0.11568,6.2795e-05,0.98,0.6,0
0,0.027552,0,-0.2749,-0.30497,-0.17396,0.0061067,0,0,-0.13122,-0.17031,0,0.015877,0,0,0.26359,5.2042e-18,0,0.26319,-0.27371,-0.30617,-0.17396,11.051,-0.25128,0.11933,6.5994e-05,1,0.6,0
0,0.055607,1,-0.66862,-1.9794,-1.7944,0.030086,0,0,1.4635,-0.24046,0,0.078225,0,0,0.39829,7.9103e-16,0,0.39661,-0.66793,-1.9801,-1.7944,1.3142,-1.4808,1.2299,0.088244,0,0.62,0
0.02927,0.057171,0.99203,-0.64914,-1.9832,-1.7817,0.11244,0,0,1.4724,-0.26192,0,0.29235,0,0,0.39056,-0.090307,0,0.3988,-0.63973,-1.9926,-1.7817,4.7842,-1.4714,1.2608,0.093291,0.02,0.62,0
0.058895,0.062786,0.98438,-0.48445,-2.0059,-1.7315,0.20428,0,0,1.6212,-0.35675,0,0.53113,0,0,0.31866,-0.20349,0,0.37428,-0.4575,-2.0329,-1.7315,7.5155,-1.4073,1.4484,0.13356,0.04,0.62,0
0.094116,0.066748,0.97929,-0.43254,-1.493,-1.1373,0.20089,0,0,1.1299,-0.80939,0,1.4201,0,0,0.21334,-0.22643,0,0.32747,-0.38026,-1.5453,-1.1373,18.547,-1.021,1.0279,0.088301,0.06,0.62,0
0.10409,0.097701,0.95518,-0.32782,-0.53849,-0.39635,0.090497,0,0,0.62357,-1.2935,0,1.647,0,0,0.15959,-0.049552,0,0.16731,-0.29429,-0.57203,-0.39635,20.334,-0.42089,0.24333,-0.00032556,0.08,0.62,0
0.11906,0.11385,0.9346,-0.29609,-0.52855,-0.3809,0.054365,0,0,0.77182,-1.3435,0,0.98945,0,0,0.14185,-0.037983,0,0.14683,-0.284,-0.54063,-0.3809,12.534,-0.40185,0.22445,-0.00023747,0.1,0.62,0
0.13497,0.12215,0.91546,-0.28508,-0.52334,-0.37331,0.034345,0,0,0.80287,-1.3653,0,0.62508,0,0,0.13458,-0.030488,0,0.13798,-0.28023,-0.52819,-0.37331,8.0411,-0.39391,0.21696,-0.00021806,0.12,0.62,0
0.15117,0.12622,0.89692,-0.27811,-0.51559,-0.36624,0.023593,0,0,0.802,-1.3591,0,0.4294,0,0,0.13135,-0.025762,0,0.13384,-0.27579,-0.51791,-0.36624,5.619,-0.38665,0.21191,-0.00020589,0.14,0.62,0
0.16705,0.12757,0.87869,-0.27443,-0.50736,-0.36006,0.01815,0,0,0.77922,-1.3403,0,0.33034,0,0,0.1296,-0.022924,0,0.13161,-0.27303,-0.50876,-0.36006,4.4292,-0.38062,0.20647,-0.00019648,0.16,0.62,0
0.18234,0.1272,0.86063,-0.27179,-0.49875,-0.35411,0.016264,0,0,0.7491,-1.3162,0,0.29601,0,0,0.12847,-0.021328,0,0.13023,-0.27063,-0.49991,-0.35411,4.0781,-0.37489,0.20099,-0.00018775,0.18,0.62,0
0.19701,0.12572,0.84271,-0.26915,-0.49007,-0.34815,0.016383,0,0,0.71896,-1.2914,0,0.29817,0,0,0.12754,-0.020472,0,0.12917,-0.26794,-0.49128,-0.34815,4.2181,-0.36912,0.19596,-0.00017971,0.2,0.62,0
0.2111,0.12341,0.82492,-0.26597,-0.48145,-0.34207,0.017172,0,0,0.69251,-1.2683,0,0.31253,0,0,0.1266,-0.01991,0,0.12816,-0.26461,-0.48281,-0.34207,4.528,-0.36317,0.19159,-0.00017244,0.22,0.62,0
0.22471,0.1203,0.80727,-0.26219,-0.47293,-0.33586,0.017307,0,0,0.67043,-1.2474,0,0.31499,0,0,0.12557,-0.019194,0,0.12702,-0.26077,-0.47435,-0.33586,4.6636,-0.35699,0.18765,-0.00016546,0.24,0.62,0
0.23792,0.11611,0.78976,-0.25731,-0.46376,-0.32914,0.015093,0,0,0.65368,-1.225,0,0.2747,0,0,0.12466,-0.017598,0,0.12589,-0.25621,-0.46486,-0.32914,4.1594,-0.35007,0.1834,-0.00015632,0.26,0.62,0
0.25072,0.11019,0.77241,-0.25531,-0.45441,-0.32326,0.007094,0,0,0.61832,-1.1934,0,0.12911,0,0,0.12358,-0.014855,0,0.12446,-0.25506,-0.45466,-0.32326,2.0381,-0.34433,0.17572,-0.00014386,0.28,0.62,0
0.26287,0.10152,0.75513,-0.25387,-0.44524,-0.31761,-0.0042445,0,0,0.58002,-1.1614,0,-0.07725,0,0,0.12451,-0.0097296,0,0.12485,-0.25378,-0.44533,-0.31761,-1.27,-0.33891,0.16894,-0.00013379,0.3,0.62,0
0.27392,0.087441,0.73755,-0.27067,-0.43696,-0.31765,-0.028587,0,0,0.42753,-1.0857,0,-0.52028,0,0,0.13233,-2.6062e-05,0,0.13225,-0.26589,-0.44173,-0.31765,-9.4871,-0.34176,0.15652,-0.00012678,0.32,0.62,0
0.27997,0.065103,0.71808,-0.32806,-1.1338,-0.84888,-0.088604,0,0,0.80665,-0.64813,0,-0.60524,0,0,0.16465,0.049319,0,0.18237,-0.31319,-1.1486,-0.84888,-13.087,-0.77024,0.73641,0.033987,0.34,0.62,0
0.30619,0.053543,0.71428,-0.33759,-1.5483,-1.2801,-0.069439,0,0,1.2252,-0.34877,0,-0.18054,0,0,0.22873,-0.0426,0,0.2269,-0.33362,-1.5523,-1.2801,-3.2717,-1.0553,1.1079,0.055887,0.36,0.62,0
0.32898,0.041971,0.70893,-0.41277,-1.512,-1.2864,-0.013146,0,0,1.1357,-0.29333,0,-0.034179,0,0,0.26265,-0.11966,0,0.28747,-0.41261,-1.5122,-1.2864,-0.68507,-1.0704,1.0058,0.043518,0.38,0.62,0
0.35162,0.03244,0.70377,-0.39076,-1.4603,-1.2591,0.029183,0,0,1.1288,-0.26161,0,0.075874,0,0,0.24506,-0.16519,0,0.29552,-0.38997,-1.4611,-1.2591,1.5617,-1.0367,0.9858,0.04232,0.4,0.62,0
0.37413,0.02367,0.69913,-0.34065,-0.84974,-0.75662,0.046277,0,0,0.40797,-0.21185,0,0.50337,0,0,0.22281,-0.10559,0,0.25602,-0.31235,-0.87805,-0.75662,25.271,-0.64901,0.52556,0.020526,0.42,0.62,0
0.36794,0.030517,0.66923,-0.32182,-0.32617,-0.29,0.047987,0,0,-0.28955,-0.32915,0,0.87337,0,0,0.21076,-0.031857,0,0.21317,-0.27596,-0.37203,-0.29,43.702,-0.31267,0.089878,-3.4242e-05,0.44,0.62,0
0.36255,0.036406,0.64012,-0.31257,-0.32768,-0.28352,0.043514,0,0,-0.26436,-0.40185,0,0.79197,0,0,0.20505,-0.034314,0,0.20792,-0.27596,-0.36429,-0.28352,40.075,-0.30792,0.084804,-3.0485e-05,0.46,0.62,0
0.35736,0.040802,0.61181,-0.30567,-0.32437,-0.27641,0.037798,0,0,-0.26624,-0.43638,0,0.68793,0,0,0.19956,-0.03444,0,0.20253,-0.27608,-0.35396,-0.27641,38.054,-0.30215,0.077709,-2.4099e-05,0.48,0.62,0
0.3519,0.043681,0.58424,-0.3006,-0.318,-0.26904,0.032265,0,0,-0.28716,-0.44554,0,0.58721,0,0,0.19477,-0.033005,0,0.19755,-0.27588,-0.34272,-0.26904,37.453,-0.29588,0.070504,-1.743e-05,0.5,0.62,0
0.34587,0.045246,0.55728,-0.29675,-0.30998,-0.26163,0.027412,0,0,-0.3196,-0.43995,0,0.4989,0,0,0.19087,-0.030697,0,0.19332,-0.27516,-0.33156,-0.26163,38.219,-0.28945,0.064243,-1.1606e-05,0.52,0.62,0
0.33912,0.045752,0.5308,-0.29365,-0.30106,-0.25424,0.023315,0,0,-0.35861,-0.42605,0,0.42434,0,0,0.18783,-0.02802,0,0.18991,-0.27375,-0.32096,-0.25424,40.485,-0.28298,0.05942,-6.991e-06,0.54,0.62,0
0.33153,0.045441,0.50469,-0.29103,-0.29171,-0.24692,0.019917,0,0,-0.40141,-0.40758,0,0.36249,0,0,0.18553,-0.02528,0,0.18724,-0.27145,-0.31129,-0.24692,44.513,-0.27655,0.056269,-3.6425e-06,0.56,0.62,0
0.32306,0.044522,0.47885,-0.28874,-0.28221,-0.23969,0.017135,0,0,-0.44636,-0.38691,0,0.31185,0,0,0.1838,-0.022635,0,0.18519,-0.26804,-0.30292,-0.23969,50.397,-0.27022,0.054854,-1.5101e-06,0.58,0.62,0
0.31368,0.043172,0.45322,-0.28669,-0.27276,-0.23258,0.014872,0,0,-0.49236,-0.36566,0,0.27067,0,0,0.18253,-0.020152,0,0.18364,-0.26331,-0.29615,-0.23258,57.542,-0.26401,0.055059,-4.9423e-07,0.6,0.62,0
0.30337,0.041534,0.42774,-0.28479,-0.26349,-0.22559,0.013028,0,0,-0.53869,-0.34492,0,0.23712,0,0,0.1816,-0.017844,0,0.18247,-0.25732,-0.29097,-0.22559,64.627,-0.25796,0.056625,-4.7538e-07,0.62,0.62,0
0.29213,0.039726,0.40238,-0.283,-0.25448,-0.21873,0.011504,0,0,-0.5849,-0.32535,0,0.20938,0,0,0.18093,-0.015695,0,0.1816,-0.25042,-0.28706,-0.21873,70.553,-0.25207,0.059233,-1.3363e-06,0.64,0.62,0
0.27997,0.037837,0.37709,-0.28131,-0.24575,-0.21199,0.010209,0,0,-0.6308,-0.30728,0,0.18579,0,0,0.18047,-0.013674,0,0.18099,-0.24303,-0.28403,-0.21199,75.066,-0.24635,0.062588,-2.9785e-06,0.66,0.62,0
0.2669,0.035935,0.35184,-0.2797,-0.23733,-0.20537,0.0090617,0,0,-0.67637,-0.29081,0,0.16492,0,0,0.1802,-0.011746,0,0.18058,-0.23547,-0.28155,-0.20537,78.421,-0.2408,0.066459,-5.3334e-06,0.68,0.62,0
0.25292,0.034071,0.32663,-0.27819,-0.22919,-0.19887,0.008,0,0,-0.72174,-0.27589,0,0.1456,0,0,0.1801,-0.0098726,0,0.18037,-0.22792,-0.27946,-0.19887,80.957,-0.23542,0.07069,-8.3684e-06,0.7,0.62,0
0.23803,0.032281,0.30141,-0.2768,-0.22133,-0.1925,0.0069743,0,0,-0.76716,-0.26235,0,0.12693,0,0,0.18017,-0.0080173,0,0.18035,-0.22046,-0.27766,-0.1925,82.943,-0.23021,0.075191,-1.2092e-05,0.72,0.62,0
0.22223,0.03059,0.27618,-0.27557,-0.2137,-0.18624,0.0059496,0,0,-0.81295,-0.24995,0,0.10828,0,0,0.18042,-0.0061451,0,0.18052,-0.21314,-0.27614,-0.18624,84.557,-0.22517,0.079923,-1.6558e-05,0.74,0.62,0
0.20551,0.029019,0.2509,-0.27455,-0.20629,-0.18009,0.0049063,0,0,-0.85953,-0.23838,0,0.089294,0,0,0.18086,-0.0042243,0,0.18091,-0.20594,-0.2749,-0.18009,85.91,-0.22031,0.084887,-2.1877e-05,0.76,0.62,0
0.18785,0.027582,0.22554,-0.27378,-0.19904,-0.17407,0.0038416,0,0,-0.90738,-0.22729,0,0.069917,0,0,0.18153,-0.00223,0,0.18155,-0.19885,-0.27398,-0.17407,87.065,-0.21563,0.090112,-2.822e-05,0.78,0.62,0
0.16921,0.026295,0.20007,-0.27332,-0.19193,-0.16816,0.0027739,0,0,-0.95703,-0.2163,0,0.050484,0,0,0.1825,-0.00015032,0,0.1825,-0.19183,-0.27342,-0.16816,88.05,-0.21113,0.095648,-3.5829e-05,0.8,0.62,0
0.14957,0.025175,0.17444,-0.27323,-0.1849,-0.16236,0.0017466,0,0,-1.009,-0.20508,0,0.031789,0,0,0.18384,0.0020009,0,0.18385,-0.18486,-0.27327,-0.16236,88.868,-0.20683,0.10155,-4.5005e-05,0.82,0.62,0
0.12885,0.024244,0.14859,-0.27354,-0.17792,-0.15667,0.00082995,0,0,-1.0635,-0.19343,0,0.015105,0,0,0.18565,0.0041618,0,0.1857,-0.17791,-0.27355,-0.15667,89.503,-0.20271,0.10784,-5.6071e-05,0.84,0.62,0
0.10702,0.023527,0.12245,-0.27423,-0.171,-0.15106,0.00010868,0,0,-1.1208,-0.18145,0,0.001978,0,0,0.18802,0.0061868,0,0.18813,-0.171,-0.27423,-0.15106,89.94,-0.19876,0.11451,-6.9293e-05,0.86,0.62,0
0.084023,0.023047,0.095946,-0.27526,-0.16416,-0.14553,-0.0003356,0,0,-1.1805,-0.1695,0,-0.0061078,0,0,0.19098,0.0078066,0,0.19115,-0.16416,-0.27526,-0.14553,-89.827,-0.19498,0.12149,-8.4851e-05,0.88,0.62,0
0.059803,0.022815,0.068981,-0.27653,-0.15733,-0.14001,-0.00043019,0,0,-1.2423,-0.15758,0,-0.0078294,0,0,0.19442,0.008631,0,0.19462,-0.15733,-0.27654,-0.14001,-89.793,-0.19129,0.12874,-0.00010294,0.9,0.62,0
0.034329,0.022835,0.041509,-0.27787,-0.15032,-0.13439,-1.7282e-05,0,0,-1.3056,-0.14503,0,-0.00031452,0,0,0.19801,0.0082385,0,0.19819,-0.15032,-0.27787,-0.13439,-89.992,-0.18753,0.13621,-0.00012382,0.92,0.62,0
0.007577,0.023148,0.013538,-0.27587,-0.21186,-0.15406,0.0028161,0,0,-0.73162,-0.1315,0,0.012108,0,0,0.20554,0.025451,0,0.20803,-0.20798,-0.27975,-0.15406,61.318,-0.21393,0.11984,-4.428e-05,0.94,0.62,0
0.0050642,0.023498,0.0093123,-0.27726,-0.29407,-0.18071,0.0073383,0,0,-0.12551,-0.14737,0,0.01908,0,0,0.21967,0.03694,0,0.22288,-0.2745,-0.29683,-0.18071,20.554,-0.25068,0.10672,5.3334e-05,0.96,0.62,0
0.0025567,0.023951,0.0047512,-0.27593,-0.30337,-0.17854,0.0060283,0,0,-0.1266,-0.16228,0,0.015673,0,0,0.23281,0.020872,0,0.23367,-0.27466,-0.30463,-0.17854,11.86,-0.25261,0.1141,5.8913e-05,0.98,0.62,0
0,0.02414,0,-0.26885,-0.29955,-0.17052,0.0036394,0,0,-0.12783,-0.16773,0,0.0094625,0,0,0.23756,-8.6736e-19,0,0.2374,-0.26843,-0.29997,-0.17052,6.6707,-0.24631,0.11692,6.2382e-05,1,0.62,0
0,0.049571,1,-0.5513,-2.0589,-1.7831,0.021122,0,0,1.6013,-0.35862,0,0.054918,0,0,0.31442,-4.5103e-17,0,0.31305,-0.551,-2.0592,-1.7831,0.80252,-1.4644,1.3909,0.12003,0,0.64,0
0.032026,0.050669,0.99371,-0.5041,-2.0628,-1.7638,0.079392,0,0,1.6376,-0.38873,0,0.20642,0,0,0.2972,-0.071647,0,0.30444,-0.50007,-2.0669,-1.7638,2.9083,-1.4436,1.4394,0.13057,0.02,0.64,0
0.065504,0.052844,0.98811,-0.45959,-2.1718,-1.7775,0.12557,0,0,1.7133,-0.51256,0,0.32647,0,0,0.24713,-0.1473,0,0.28914,-0.45043,-2.181,-1.7775,4.172,-1.4696,1.5682,0.15477,0.04,0.64,0
0.10056,0.053538,0.98383,-0.37918,-1.3491,-1.0807,0.094428,0,0,1.1254,-0.61075,0,0.82149,0,0,0.18964,-0.10289,0,0.22449,-0.35815,-1.3702,-1.0807,14.422,-0.93634,0.90633,0.083045,0.06,0.64,0
0.11052,0.07513,0.96073,-0.31391,-0.49472,-0.37983,0.062299,0,0,0.59993,-1.0454,0,1.1338,0,0,0.15865,-0.031909,0,0.162,-0.29452,-0.5141,-0.37983,17.286,-0.39615,0.19173,-0.00013563,0.08,0.64,0
0.12456,0.088473,0.9394,-0.29304,-0.50822,-0.37458,0.040889,0,0,0.74198,-1.2161,0,0.74418,0,0,0.1473,-0.029663,0,0.15032,-0.28553,-0.51572,-0.37458,10.405,-0.39194,0.20105,-0.00015861,0.1,0.64,0
0.1402,0.095831,0.91948,-0.28165,-0.51055,-0.36901,0.027128,0,0,0.79503,-1.288,0,0.49373,0,0,0.13931,-0.026034,0,0.14174,-0.27848,-0.51372,-0.36901,6.6673,-0.38707,0.20552,-0.00017219,0.12,0.64,0
0.15636,0.099491,0.9004,-0.27483,-0.50918,-0.36383,0.01924,0,0,0.80993,-1.3227,0,0.35017,0,0,0.13453,-0.023175,0,0.13651,-0.27326,-0.51075,-0.36383,4.6623,-0.38261,0.2076,-0.00018249,0.14,0.64,0
0.17259,0.10086,0.88182,-0.26981,-0.50479,-0.35835,0.015246,0,0,0.80579,-1.3326,0,0.27748,0,0,0.13157,-0.021273,0,0.13328,-0.26882,-0.50578,-0.35835,3.6967,-0.37765,0.20725,-0.00018658,0.16,0.64,0
0.18859,0.10075,0.86356,-0.26522,-0.49799,-0.35233,0.014776,0,0,0.7927,-1.3255,0,0.26892,0,0,0.12989,-0.020392,0,0.13148,-0.26428,-0.49892,-0.35233,3.6177,-0.37184,0.2053,-0.00018496,0.18,0.64,0
0.20416,0.099659,0.84552,-0.26211,-0.48944,-0.34625,0.015611,0,0,0.76573,-1.303,0,0.28412,0,0,0.12827,-0.020044,0,0.12983,-0.26104,-0.49051,-0.34625,3.9101,-0.36593,0.20091,-0.00017831,0.2,0.64,0
0.21922,0.097814,0.82764,-0.25913,-0.4809,-0.34024,0.016221,0,0,0.73814,-1.28,0,0.29523,0,0,0.12731,-0.019429,0,0.12878,-0.25795,-0.48208,-0.34024,4.1613,-0.36009,0.19637,-0.00017146,0.22,0.64,0
0.23369,0.095233,0.80987,-0.25798,-0.47298,-0.33498,0.014213,0,0,0.70077,-1.2558,0,0.25868,0,0,0.12661,-0.018464,0,0.12795,-0.25704,-0.47392,-0.33498,3.7658,-0.35531,0.19028,-0.0001643,0.24,0.64,0
0.24748,0.091688,0.79217,-0.25476,-0.46167,-0.3281,0.012042,0,0,0.66738,-1.2155,0,0.21917,0,0,0.12652,-0.017178,0,0.12768,-0.25406,-0.46237,-0.3281,3.3196,-0.34817,0.1829,-0.00014963,0.26,0.64,0
0.26038,0.086696,0.77445,-0.25372,-0.44829,-0.32124,0.0072163,0,0,0.61442,-1.1562,0,0.13134,0,0,0.12728,-0.015023,0,0.12815,-0.25345,-0.44856,-0.32124,2.1211,-0.34108,0.17157,-0.00012959,0.28,0.64,0
0.27205,0.079343,0.75653,-0.25686,-0.43187,-0.3147,-0.001946,0,0,0.52626,-1.0662,0,-0.035417,0,0,0.13001,-0.011602,0,0.13053,-0.25684,-0.43189,-0.3147,-0.63702,-0.33448,0.15447,-0.00010372,0.3,0.64,0
0.28143,0.068468,0.73804,-0.266,-0.40475,-0.30666,-0.015637,0,0,0.37001,-0.89262,0,-0.28459,0,0,0.13532,-0.007608,0,0.13558,-0.26426,-0.40649,-0.30666,-6.3509,-0.3258,0.12648,-6.5912e-05,0.32,0.64,0
0.28685,0.053436,0.71864,-0.31521,-1.0864,-0.83113,-0.028947,0,0,0.78682,-0.57257,0,-0.25326,0,0,0.15319,-0.018099,0,0.15439,-0.3121,-1.0895,-0.83113,-7.3191,-0.74423,0.68897,0.033171,0.34,0.64,0
0.31291,0.044729,0.71529,-0.33296,-1.6488,-1.3098,-0.042414,0,0,1.2699,-0.44069,0,-0.11028,0,0,0.18641,-0.050538,0,0.19238,-0.3316,-1.6502,-1.3098,-1.8443,-1.0972,1.1856,0.062414,0.36,0.64,0
0.33765,0.035591,0.71119,-0.36125,-1.5402,-1.2816,-0.010987,0,0,1.1965,-0.33611,0,-0.028567,0,0,0.21522,-0.11521,0,0.24345,-0.36115,-1.5403,-1.2816,-0.53393,-1.061,1.0734,0.051304,0.38,0.64,0
0.36117,0.026989,0.70678,-0.36695,-1.4794,-1.2607,0.011799,0,0,1.1619,-0.28437,0,0.030677,0,0,0.21779,-0.14636,0,0.26224,-0.36682,-1.4796,-1.2607,0.60757,-1.0357,1.0211,0.046318,0.4,0.64,0
0.38412,0.019329,0.70248,-0.33529,-0.86068,-0.76021,0.033856,0,0,0.42385,-0.22858,0,0.39022,0,0,0.21194,-0.091503,0,0.23907,-0.31346,-0.88251,-0.76021,24.728,-0.65206,0.52865,0.021814,0.42,0.64,0
0.37813,0.024265,0.67327,-0.32173,-0.32313,-0.28964,0.038939,0,0,-0.29203,-0.30476,0,0.70869,0,0,0.20705,-0.027158,0,0.20882,-0.28349,-0.36138,-0.28964,44.486,-0.3115,0.075003,-2.1179e-05,0.44,0.64,0
0.37244,0.028877,0.6445,-0.31446,-0.32262,-0.2832,0.03662,0,0,-0.28448,-0.35879,0,0.66648,0,0,0.20359,-0.029341,0,0.20571,-0.28169,-0.35539,-0.2832,41.819,-0.30676,0.072954,-1.9913e-05,0.46,0.64,0
0.36675,0.032601,0.61626,-0.30849,-0.31907,-0.27631,0.032676,0,0,-0.29291,-0.38912,0,0.59471,0,0,0.19981,-0.029819,0,0.20203,-0.28068,-0.34688,-0.27631,40.405,-0.30129,0.068494,-1.6277e-05,0.48,0.64,0
0.36073,0.035255,0.58856,-0.30377,-0.3132,-0.26917,0.028352,0,0,-0.31484,-0.40065,0,0.516,0,0,0.19616,-0.029054,0,0.19831,-0.27974,-0.33722,-0.26917,40.279,-0.29538,0.063432,-1.189e-05,0.5,0.64,0
0.35415,0.036878,0.56134,-0.29999,-0.30583,-0.26194,0.024282,0,0,-0.3463,-0.39939,0,0.44194,0,0,0.19291,-0.027495,0,0.19487,-0.27845,-0.32737,-0.26194,41.575,-0.28925,0.058933,-7.7956e-06,0.52,0.64,0
0.34688,0.037611,0.53454,-0.29688,-0.29757,-0.2547,0.020709,0,0,-0.38384,-0.39012,0,0.37691,0,0,0.19017,-0.025502,0,0.19187,-0.27651,-0.31793,-0.2547,44.523,-0.28304,0.055636,-4.4832e-06,0.54,0.64,0
0.3388,0.037621,0.50809,-0.29421,-0.28882,-0.24749,0.017679,0,0,-0.42512,-0.37607,0,0.32176,0,0,0.18793,-0.023334,0,0.18938,-0.27363,-0.3094,-0.24749,49.334,-0.27684,0.053827,-2.1263e-06,0.56,0.64,0
0.32987,0.037073,0.48192,-0.29186,-0.27986,-0.24036,0.015157,0,0,-0.46866,-0.3594,0,0.27586,0,0,0.18615,-0.021147,0,0.18735,-0.26956,-0.30216,-0.24036,55.804,-0.27069,0.053548,-7.5249e-07,0.58,0.64,0
0.32005,0.036111,0.45597,-0.28975,-0.27085,-0.23332,0.013079,0,0,-0.5135,-0.34155,0,0.23804,0,0,0.18476,-0.019028,0,0.18574,-0.26416,-0.29643,-0.23332,62.921,-0.26464,0.054664,-3.2734e-07,0.6,0.64,0
0.30933,0.03486,0.43019,-0.28781,-0.26193,-0.22638,0.011369,0,0,-0.55901,-0.32354,0,0.20691,0,0,0.18369,-0.01701,0,0.18448,-0.25765,-0.29209,-0.22638,69.347,-0.2587,0.056933,-7.9255e-07,0.62,0.64,0
0.29769,0.033422,0.40453,-0.28601,-0.25317,-0.21954,0.0099489,0,0,-0.6048,-0.30602,0,0.18107,0,0,0.18291,-0.0151,0,0.18353,-0.25039,-0.28879,-0.21954,74.391,-0.25291,0.060083,-2.0863e-06,0.64,0.64,0
0.28514,0.03188,0.37898,-0.28433,-0.24463,-0.21283,0.0087469,0,0,-0.65067,-0.2894,0,0.15919,0,0,0.18236,-0.013284,0,0.18284,-0.24279,-0.28617,-0.21283,78.11,-0.24726,0.063871,-4.1565e-06,0.66,0.64,0
0.27167,0.030298,0.35347,-0.28277,-0.23631,-0.20622,0.0076989,0,0,-0.69656,-0.27386,0,0.14012,0,0,0.18202,-0.011542,0,0.18239,-0.23507,-0.28401,-0.20622,80.83,-0.24177,0.068111,-6.9701e-06,0.68,0.64,0
0.25728,0.028728,0.32801,-0.28133,-0.22824,-0.19973,0.0067522,0,0,-0.74255,-0.25946,0,0.12289,0,0,0.18189,-0.0098455,0,0.18215,-0.2274,-0.28217,-0.19973,82.864,-0.23643,0.072674,-1.0519e-05,0.7,0.64,0
0.24197,0.027208,0.30255,-0.28003,-0.2204,-0.19335,0.0058667,0,0,-0.78878,-0.24615,0,0.10677,0,0,0.18195,-0.0081697,0,0.18213,-0.21983,-0.2806,-0.19335,84.434,-0.23126,0.077482,-1.4826e-05,0.72,0.64,0
0.22573,0.025766,0.27706,-0.27889,-0.21277,-0.18708,0.0050156,0,0,-0.83548,-0.23381,0,0.091284,0,0,0.18222,-0.0064896,0,0.18233,-0.21239,-0.27927,-0.18708,85.686,-0.22625,0.082498,-1.9947e-05,0.74,0.64,0
0.20855,0.024428,0.25153,-0.27794,-0.20534,-0.18092,0.004186,0,0,-0.88292,-0.22227,0,0.076185,0,0,0.1827,-0.0047849,0,0.18276,-0.2051,-0.27818,-0.18092,86.711,-0.2214,0.08771,-2.5977e-05,0.76,0.64,0
0.19041,0.023214,0.22591,-0.27722,-0.19809,-0.17486,0.0033802,0,0,-0.9314,-0.21135,0,0.061519,0,0,0.18343,-0.0030446,0,0.18345,-0.19795,-0.27736,-0.17486,87.558,-0.21672,0.093126,-3.3047e-05,0.78,0.64,0
0.17129,0.022143,0.20017,-0.27674,-0.19099,-0.16891,0.0026167,0,0,-0.98119,-0.20089,0,0.047624,0,0,0.18444,-0.0012725,0,0.18444,-0.19091,-0.27681,-0.16891,88.254,-0.21221,0.09876,-4.1319e-05,0.8,0.64,0
0.15116,0.021237,0.17426,-0.27652,-0.18402,-0.16306,0.0019295,0,0,-1.0325,-0.19079,0,0.035116,0,0,0.18577,0.00050142,0,0.18577,-0.18398,-0.27656,-0.16306,88.805,-0.20787,0.10462,-5.0972e-05,0.82,0.64,0
0.12999,0.020519,0.14815,-0.27656,-0.17719,-0.15729,0.0013627,0,0,-1.0854,-0.18107,0,0.024801,0,0,0.18746,0.0022074,0,0.18747,-0.17717,-0.27658,-0.15729,89.215,-0.20368,0.1107,-6.216e-05,0.84,0.64,0
0.10775,0.02001,0.12178,-0.27683,-0.17048,-0.15159,0.00096192,0,0,-1.1397,-0.17193,0,0.017507,0,0,0.18952,0.0037193,0,0.18956,-0.17047,-0.27684,-0.15159,89.482,-0.19964,0.11695,-7.4992e-05,0.86,0.64,0
0.084403,0.019727,0.095085,-0.27728,-0.16391,-0.14594,0.0007656,0,0,-1.1952,-0.16354,0,0.013934,0,0,0.19192,0.0048489,0,0.19199,-0.16391,-0.27728,-0.14594,89.613,-0.19571,0.12334,-8.9526e-05,0.88,0.64,0
0.05994,0.019682,0.068038,-0.27782,-0.15742,-0.14029,0.00081903,0,0,-1.2515,-0.15589,0,0.014906,0,0,0.19451,0.0053664,0,0.19459,-0.15742,-0.27783,-0.14029,89.61,-0.19185,0.12982,-0.00010581,0.9,0.64,0
0.034343,0.019886,0.040621,-0.27832,-0.15093,-0.13458,0.0012004,0,0,-1.3081,-0.14877,0,0.021848,0,0,0.19704,0.0050613,0,0.19711,-0.15091,-0.27833,-0.13458,89.46,-0.18794,0.13632,-0.00012383,0.92,0.64,0
0.0076171,0.020372,0.012865,-0.2772,-0.21881,-0.15616,0.0029136,0,0,-0.73006,-0.14254,0,0.019662,0,0,0.20187,0.015318,0,0.20281,-0.21102,-0.285,-0.15616,52.343,-0.21739,0.12158,-4.1107e-05,0.94,0.64,0
0.0051406,0.020518,0.0087555,-0.27684,-0.29578,-0.18054,0.0054111,0,0,-0.12519,-0.14981,0,0.014069,0,0,0.21071,0.022179,0,0.21193,-0.2754,-0.29722,-0.18054,14.874,-0.25105,0.10744,5.4956e-05,0.96,0.64,0
0.0026095,0.020743,0.0044368,-0.27552,-0.29857,-0.17666,0.0043291,0,0,-0.12851,-0.15848,0,0.011256,0,0,0.21889,0.012523,0,0.21922,-0.27474,-0.29935,-0.17666,10.295,-0.25025,0.11242,6.1342e-05,0.98,0.64,0
0,0.020843,0,-0.26911,-0.29336,-0.16874,0.0019088,0,0,-0.13048,-0.162,0,0.0049629,0,0,0.22184,4.3368e-18,0,0.22178,-0.26896,-0.29351,-0.16874,4.4732,-0.24373,0.11448,6.5279e-05,1,0.64,0
0,0.041262,1,-0.45718,-2.1249,-1.7746,0.0069198,0,0,1.7127,-0.45538,0,0.017992,0,0,0.255,1.0235e-15,0,0.25424,-0.45715,-2.125,-1.7746,0.23773,-1.4523,1.5232,0.14963,0,0.66,0
0.034254,0.041622,0.9949,-0.43966,-2.1381,-1.7682,0.042294,0,0,1.7271,-0.48083,0,0.10996,0,0,0.24326,-0.047052,0,0.24744,-0.43861,-2.1391,-1.7682,1.4256,-1.4487,1.5488,0.15453,0.02,0.66,0
0.069085,0.042283,0.99027,-0.41261,-2.177,-1.7671,0.059471,0,0,1.7609,-0.53279,0,0.15462,0,0,0.21025,-0.085021,0,0.22757,-0.41061,-2.179,-1.7671,1.9283,-1.4523,1.6026,0.16528,0.04,0.66,0
0.10469,0.042318,0.98649,-0.34609,-1.3008,-1.0578,0.053553,0,0,1.1356,-0.55283,0,0.49739,0,0,0.17439,-0.059741,0,0.18891,-0.33699,-1.3099,-1.0578,10.645,-0.90154,0.87754,0.085554,0.06,0.66,0
0.11451,0.055885,0.96412,-0.3073,-0.47254,-0.37168,0.040321,0,0,0.58588,-0.91779,0,0.73384,0,0,0.15565,-0.019693,0,0.15695,-0.29799,-0.48185,-0.37168,13.007,-0.38384,0.16027,-7.0934e-05,0.08,0.66,0
0.12812,0.065211,0.94291,-0.28943,-0.49361,-0.36961,0.028313,0,0,0.72966,-1.1283,0,0.51529,0,0,0.14772,-0.021116,0,0.14928,-0.28558,-0.49746,-0.36961,7.7502,-0.38422,0.1848,-0.00011311,0.1,0.66,0
0.1437,0.070625,0.92275,-0.27792,-0.50231,-0.36589,0.019129,0,0,0.80056,-1.2414,0,0.34814,0,0,0.14107,-0.02053,0,0.14258,-0.2763,-0.50393,-0.36589,4.8377,-0.38204,0.19862,-0.00014433,0.12,0.66,0
0.16015,0.073314,0.90341,-0.2704,-0.50462,-0.36157,0.013785,0,0,0.82958,-1.3018,0,0.25089,0,0,0.13611,-0.019555,0,0.13752,-0.26959,-0.50543,-0.36157,3.3569,-0.37886,0.20588,-0.00016586,0.14,0.66,0
0.17688,0.074261,0.88464,-0.26504,-0.50299,-0.35679,0.011237,0,0,0.83493,-1.3305,0,0.20451,0,0,0.13263,-0.018832,0,0.13397,-0.26451,-0.50352,-0.35679,2.6976,-0.37494,0.20878,-0.00017872,0.16,0.66,0
0.19354,0.074118,0.86627,-0.2605,-0.4986,-0.35148,0.010244,0,0,0.82794,-1.3388,0,0.18645,0,0,0.13056,-0.018155,0,0.13182,-0.26006,-0.49904,-0.35148,2.4591,-0.3702,0.20886,-0.0001841,0.18,0.66,0
0.20989,0.073265,0.84817,-0.25811,-0.49322,-0.34657,0.0088783,0,0,0.80497,-1.3345,0,0.16159,0,0,0.12866,-0.017752,0,0.12988,-0.25777,-0.49355,-0.34657,2.1595,-0.36596,0.20625,-0.00018567,0.2,0.66,0
0.22574,0.071893,0.83025,-0.25532,-0.48456,-0.34057,0.009304,0,0,0.77576,-1.3103,0,0.16933,0,0,0.12773,-0.017988,0,0.12899,-0.25494,-0.48493,-0.34057,2.3204,-0.36015,0.20133,-0.00017821,0.22,0.66,0
0.24092,0.070018,0.81241,-0.25418,-0.47348,-0.33436,0.010565,0,0,0.72959,-1.266,0,0.19229,0,0,0.12742,-0.018092,0,0.12869,-0.25367,-0.47398,-0.33436,2.7519,-0.35401,0.19306,-0.000164,0.24,0.66,0
0.25522,0.067487,0.79457,-0.25161,-0.45962,-0.32688,0.010675,0,0,0.68496,-1.2079,0,0.19429,0,0,0.12783,-0.017513,0,0.12903,-0.25106,-0.46016,-0.32688,2.9302,-0.34603,0.18335,-0.00014397,0.26,0.66,0
0.26832,0.063945,0.77662,-0.25252,-0.44338,-0.31972,0.0078066,0,0,0.6115,-1.1254,0,0.14208,0,0,0.12925,-0.016408,0,0.13029,-0.2522,-0.4437,-0.31972,2.3382,-0.33854,0.16823,-0.0001185,0.28,0.66,0
0.27968,0.05887,0.75838,-0.25656,-0.42182,-0.31185,0.0024589,0,0,0.50316,-1.0007,0,0.044752,0,0,0.13193,-0.014947,0,0.13278,-0.25653,-0.42185,-0.31185,0.85228,-0.33008,0.14577,-8.5296e-05,0.3,0.66,0
0.28845,0.051736,0.73968,-0.26486,-0.39161,-0.30261,-0.0041489,0,0,0.34355,-0.80992,0,-0.07551,0,0,0.13583,-0.014065,0,0.13657,-0.26472,-0.39175,-0.30261,-1.8727,-0.31969,0.11295,-4.6916e-05,0.32,0.66,0
0.29342,0.042632,0.72035,-0.29506,-1.0485,-0.81469,-0.01202,0,0,0.78212,-0.53352,0,-0.088911,0,0,0.14692,-0.067697,0,0.16795,-0.29465,-1.0489,-0.81469,-2.7685,-0.71941,0.67221,0.034478,0.34,0.66,0
0.31973,0.035509,0.71724,-0.32669,-1.6737,-1.3173,-0.016469,0,0,1.2878,-0.46321,0,-0.04282,0,0,0.16903,-0.1257,0,0.21077,-0.32649,-1.6739,-1.3173,-0.70041,-1.1059,1.2092,0.0649,0.36,0.66,0
0.34494,0.028185,0.71359,-0.35335,-1.5887,-1.2962,-0.0068037,0,0,1.2257,-0.38022,0,-0.01769,0,0,0.19293,-0.13068,0,0.23312,-0.35332,-1.5887,-1.2962,-0.31555,-1.0794,1.1182,0.055587,0.38,0.66,0
0.36911,0.021065,0.70963,-0.35044,-1.4989,-1.2644,0.011047,0,0,1.1882,-0.30484,0,0.028721,0,0,0.20138,-0.14417,0,0.24761,-0.35033,-1.499,-1.2644,0.55102,-1.0379,1.0512,0.049793,0.4,0.66,0
0.39247,0.014527,0.70554,-0.3317,-0.87499,-0.76517,0.027405,0,0,0.44074,-0.24984,0,0.31853,0,0,0.20475,-0.087099,0,0.23059,-0.31457,-0.89212,-0.76517,24.014,-0.65729,0.53577,0.023174,0.42,0.66,0
0.38674,0.018326,0.67683,-0.32154,-0.32183,-0.2897,0.032166,0,0,-0.28975,-0.29234,0,0.58543,0,0,0.20429,-0.024609,0,0.20577,-0.28952,-0.35385,-0.2897,44.873,-0.31102,0.064242,-1.3617e-05,0.44,0.66,0
0.38087,0.022054,0.64833,-0.31609,-0.31925,-0.28322,0.030824,0,0,-0.29908,-0.32785,0,0.561,0,0,0.20239,-0.026099,0,0.20407,-0.2868,-0.34853,-0.28322,43.532,-0.30618,0.063597,-1.307e-05,0.46,0.66,0
0.37477,0.025237,0.62016,-0.31105,-0.315,-0.27641,0.027967,0,0,-0.31525,-0.35113,0,0.50899,0,0,0.19984,-0.02643,0,0.20159,-0.28499,-0.34106,-0.27641,42.984,-0.30082,0.060817,-1.0782e-05,0.48,0.66,0
0.36826,0.027655,0.59238,-0.30669,-0.3092,-0.26939,0.02454,0,0,-0.33938,-0.36228,0,0.44663,0,0,0.19709,-0.025866,0,0.19879,-0.28337,-0.33252,-0.26939,43.532,-0.29509,0.057426,-7.817e-06,0.5,0.66,0
0.3612,0.02927,0.56498,-0.30297,-0.30224,-0.26228,0.021133,0,0,-0.37036,-0.36369,0,0.38462,0,0,0.19442,-0.024684,0,0.19598,-0.28147,-0.32374,-0.26228,45.497,-0.28916,0.054469,-4.9592e-06,0.52,0.66,0
0.35345,0.030147,0.53794,-0.2998,-0.29448,-0.25513,0.018038,0,0,-0.40645,-0.35809,0,0.32828,0,0,0.19199,-0.023127,0,0.19338,-0.27891,-0.31537,-0.25513,49.19,-0.28314,0.052554,-2.6475e-06,0.54,0.66,0
0.34494,0.030398,0.51122,-0.29704,-0.28624,-0.24801,0.015357,0,0,-0.44612,-0.34782,0,0.2795,0,0,0.18988,-0.021382,0,0.19108,-0.27536,-0.30792,-0.24801,54.688,-0.2771,0.051943,-1.0803e-06,0.56,0.66,0
0.3356,0.030146,0.48477,-0.29459,-0.27772,-0.24095,0.013099,0,0,-0.48819,-0.33463,0,0.23839,0,0,0.18811,-0.019578,0,0.18913,-0.27058,-0.30174,-0.24095,61.394,-0.27109,0.052652,-3.2735e-07,0.58,0.66,0
0.32541,0.02951,0.45855,-0.2924,-0.2691,-0.23396,0.011223,0,0,-0.53184,-0.31979,0,0.20425,0,0,0.18667,-0.017792,0,0.18751,-0.26457,-0.29693,-0.23396,68.036,-0.26515,0.05454,-3.9803e-07,0.6,0.66,0
0.31433,0.028593,0.43251,-0.29041,-0.26049,-0.22706,0.0096735,0,0,-0.57649,-0.30426,0,0.17606,0,0,0.18552,-0.016064,0,0.18622,-0.25764,-0.29326,-0.22706,73.554,-0.25932,0.057391,-1.2773e-06,0.62,0.66,0
0.30235,0.027485,0.4066,-0.28858,-0.25198,-0.22025,0.0083894,0,0,-0.62177,-0.28868,0,0.15269,0,0,0.18465,-0.014408,0,0.18521,-0.25014,-0.29041,-0.22025,77.687,-0.2536,0.06098,-2.9435e-06,0.64,0.66,0
0.28946,0.026261,0.3808,-0.2869,-0.24361,-0.21355,0.0073118,0,0,-0.66747,-0.27349,0,0.13307,0,0,0.18403,-0.012821,0,0.18448,-0.24241,-0.2881,-0.21355,80.668,-0.24802,0.065109,-5.379e-06,0.66,0.66,0
0.27565,0.024981,0.35507,-0.28536,-0.23542,-0.20696,0.0063882,0,0,-0.71349,-0.25896,0,0.11627,0,0,0.18364,-0.01129,0,0.18399,-0.23461,-0.28617,-0.20696,82.826,-0.24258,0.06963,-8.5777e-06,0.68,0.66,0
0.26092,0.023693,0.32938,-0.28397,-0.22742,-0.20047,0.0055751,0,0,-0.75982,-0.24524,0,0.10147,0,0,0.18348,-0.0097987,0,0.18374,-0.22688,-0.28451,-0.20047,84.423,-0.23729,0.074438,-1.255e-05,0.7,0.66,0
0.24526,0.022435,0.3037,-0.28272,-0.21962,-0.19409,0.0048391,0,0,-0.80654,-0.23237,0,0.088071,0,0,0.18353,-0.008328,0,0.18372,-0.21926,-0.28309,-0.19409,85.64,-0.23214,0.079464,-1.7326e-05,0.72,0.66,0
0.22866,0.021238,0.278,-0.28163,-0.21203,-0.18781,0.0041581,0,0,-0.85377,-0.22036,0,0.075677,0,0,0.1838,-0.0068611,0,0.18393,-0.21178,-0.28188,-0.18781,86.594,-0.22716,0.084669,-2.2958e-05,0.74,0.66,0
0.21111,0.020128,0.25224,-0.28072,-0.20462,-0.18164,0.0035219,0,0,-0.90167,-0.20915,0,0.064099,0,0,0.1843,-0.005386,0,0.18438,-0.20446,-0.28088,-0.18164,87.356,-0.22232,0.090032,-2.9519e-05,0.76,0.66,0
0.19259,0.019128,0.22639,-0.27999,-0.19739,-0.17556,0.0029322,0,0,-0.95036,-0.19871,0,0.053366,0,0,0.18505,-0.0038988,0,0.18509,-0.19729,-0.2801,-0.17556,87.969,-0.21765,0.095545,-3.7102e-05,0.78,0.66,0
0.17309,0.018259,0.20042,-0.27946,-0.19034,-0.16957,0.0024018,0,0,-0.99996,-0.18902,0,0.043713,0,0,0.18605,-0.0024096,0,0.18607,-0.19028,-0.27952,-0.16957,88.457,-0.21313,0.1012,-4.5806e-05,0.8,0.66,0
0.1526,0.017544,0.1743,-0.27911,-0.18347,-0.16367,0.0019519,0,0,-1.0505,-0.18011,0,0.035525,0,0,0.18732,-0.00094929,0,0.18733,-0.18343,-0.27915,-0.16367,88.831,-0.20875,0.10698,-5.5726e-05,0.82,0.66,0
0.13107,0.017001,0.14797,-0.27894,-0.17676,-0.15785,0.0016072,0,0,-1.1019,-0.17208,0,0.02925,0,0,0.18887,0.00042303,0,0.18887,-0.17674,-0.27897,-0.15785,89.099,-0.20452,0.11287,-6.6932e-05,0.84,0.66,0
0.10852,0.01665,0.12141,-0.27892,-0.17022,-0.15209,0.0013897,0,0,-1.1542,-0.16505,0,0.025292,0,0,0.19066,0.001615,0,0.19067,-0.17021,-0.27893,-0.15209,89.268,-0.20041,0.11883,-7.9463e-05,0.86,0.66,0
0.084908,0.016506,0.094588,-0.27899,-0.16385,-0.14636,0.0013181,0,0,-1.2069,-0.15911,0,0.02399,0,0,0.19263,0.002505,0,0.19265,-0.16383,-0.27901,-0.14636,89.344,-0.1964,0.12483,-9.3333e-05,0.88,0.66,0
0.060241,0.016579,0.067479,-0.2791,-0.1576,-0.14065,0.0014148,0,0,-1.2599,-0.15423,0,0.025749,0,0,0.19463,0.0029613,0,0.19465,-0.15758,-0.27912,-0.14065,89.333,-0.19245,0.13083,-0.00010854,0.9,0.66,0
0.034512,0.016884,0.040092,-0.27916,-0.15143,-0.1349,0.0017189,0,0,-1.3127,-0.15038,0,0.031283,0,0,0.19648,0.0028786,0,0.1965,-0.15141,-0.27919,-0.1349,89.229,-0.1885,0.13678,-0.000125,0.92,0.66,0
0.0077316,0.017447,0.012466,-0.27863,-0.22245,-0.15745,0.0026269,0,0,-0.7314,-0.14788,0,0.021377,0,0,0.19968,0.0088906,0,0.20001,-0.21286,-0.28821,-0.15745,49.613,-0.21951,0.12282,-4.0003e-05,0.94,0.66,0
0.005256,0.017506,0.0084251,-0.27796,-0.29679,-0.18085,0.0036887,0,0,-0.12624,-0.15072,0,0.0095905,0,0,0.20539,0.012901,0,0.20581,-0.27726,-0.29749,-0.18085,10.698,-0.25187,0.10795,5.7049e-05,0.96,0.66,0
0.0026818,0.017612,0.0042503,-0.27699,-0.29523,-0.17592,0.0027643,0,0,-0.1314,-0.1551,0,0.0071871,0,0,0.21063,0.0072919,0,0.21075,-0.27658,-0.29564,-0.17592,8.4333,-0.24938,0.11142,6.4099e-05,0.98,0.66,0
0,0.01766,0,-0.27109,-0.28873,-0.16795,0.00092565,0,0,-0.13409,-0.15701,0,0.0024067,0,0,0.21251,-1.9516e-18,0,0.21249,-0.27105,-0.28877,-0.16795,2.997,-0.24259,0.11301,6.8021e-05,1,0.66,0
0,0.031356,1,-0.41288,-2.169,-1.7746,0.0015513,0,0,1.7702,-0.51272,0,0.0040333,0,0,0.22031,2.3705e-15,0,0.22003,-0.41288,-2.169,-1.7746,0.050613,-1.4521,1.5958,0.16654,0,0.68,0
0.035403,0.031436,0.99559,-0.40101,-2.1678,-1.7663,0.017243,0,0,1.7748,-0.52206,0,0.044832,0,0,0.21218,-0.025933,0,0.2137,-0.40085,-2.168,-1.7663,0.5591,-1.445,1.6045,0.16813,0.02,0.68,0
0.070992,0.031532,0.99151,-0.3859,-2.1755,-1.7599,0.025659,0,0,1.7862,-0.54024,0,0.066715,0,0,0.18963,-0.046518,0,0.19576,-0.38553,-2.1759,-1.7599,0.82129,-1.4405,1.6229,0.17186,0.04,0.68,0
0.10685,0.031425,0.98801,-0.33549,-1.2924,-1.0529,0.025553,0,0,1.1497,-0.54475,0,0.24942,0,0,0.16536,-0.032638,0,0.17041,-0.33298,-1.2949,-1.0529,5.9673,-0.89361,0.8692,0.086953,0.06,0.68,0
0.11698,0.038418,0.96624,-0.30222,-0.46094,-0.36698,0.021359,0,0,0.58935,-0.85504,0,0.38874,0,0,0.15247,-0.011957,0,0.15297,-0.2994,-0.46377,-0.36698,7.5318,-0.37672,0.1431,-4.542e-05,0.08,0.68,0
0.13043,0.043339,0.94532,-0.2866,-0.48453,-0.36638,0.015488,0,0,0.72604,-1.0751,0,0.28188,0,0,0.14647,-0.014079,0,0.14717,-0.2854,-0.48573,-0.36638,4.4473,-0.37917,0.17456,-8.8601e-05,0.1,0.68,0
0.14602,0.046173,0.92523,-0.27494,-0.49701,-0.36376,0.010617,0,0,0.80826,-1.2126,0,0.19322,0,0,0.14088,-0.015066,0,0.1417,-0.27443,-0.49751,-0.36376,2.7309,-0.37857,0.19447,-0.00012719,0.12,0.68,0
0.16276,0.047419,0.90587,-0.26682,-0.5021,-0.36009,0.0077905,0,0,0.84876,-1.2924,0,0.14179,0,0,0.13623,-0.015551,0,0.13712,-0.26656,-0.50236,-0.36009,1.8943,-0.37633,0.20566,-0.00015587,0.14,0.68,0
0.17997,0.047645,0.88709,-0.261,-0.50228,-0.35571,0.0067737,0,0,0.86182,-1.3337,0,0.12328,0,0,0.13266,-0.015979,0,0.13362,-0.26082,-0.50247,-0.35571,1.6069,-0.373,0.21088,-0.00017408,0.16,0.68,0
0.19723,0.047273,0.86873,-0.25664,-0.49894,-0.35078,0.0069864,0,0,0.85665,-1.3483,0,0.12715,0,0,0.1301,-0.016512,0,0.13115,-0.25644,-0.49914,-0.35078,1.6502,-0.36878,0.21191,-0.00018285,0.18,0.68,0
0.21424,0.046574,0.85066,-0.25325,-0.49284,-0.34535,0.0079165,0,0,0.83807,-1.3421,0,0.14408,0,0,0.12843,-0.017134,0,0.12957,-0.25299,-0.4931,-0.34535,1.8905,-0.36381,0.20977,-0.00018342,0.2,0.68,0
0.23075,0.045688,0.83277,-0.25071,-0.48427,-0.33946,0.0091181,0,0,0.80766,-1.3178,0,0.16595,0,0,0.12756,-0.017745,0,0.12879,-0.25035,-0.48463,-0.33946,2.2322,-0.35815,0.20482,-0.00017665,0.22,0.68,0
0.24654,0.044646,0.81494,-0.24913,-0.47316,-0.3331,0.010158,0,0,0.76421,-1.2745,0,0.18487,0,0,0.12748,-0.018216,0,0.12877,-0.24867,-0.47362,-0.3331,2.5907,-0.3518,0.19682,-0.00016281,0.24,0.68,0
0.26132,0.043371,0.79707,-0.24894,-0.45899,-0.32625,0.010585,0,0,0.7035,-1.208,0,0.19265,0,0,0.12821,-0.018431,0,0.12953,-0.24841,-0.45952,-0.32625,2.8776,-0.34473,0.18492,-0.00014167,0.26,0.68,0
0.27468,0.041682,0.77904,-0.25083,-0.44077,-0.31877,0.0099761,0,0,0.61828,-1.1102,0,0.18156,0,0,0.12984,-0.018367,0,0.13114,-0.25031,-0.44129,-0.31877,2.9983,-0.33679,0.16759,-0.00011291,0.28,0.68,0
0.28605,0.039316,0.76072,-0.25559,-0.41699,-0.31045,0.0082346,0,0,0.49922,-0.96954,0,0.14987,0,0,0.13236,-0.018202,0,0.13361,-0.25517,-0.41741,-0.31045,2.9131,-0.32768,0.14286,-7.7719e-05,0.3,0.68,0
0.29465,0.036072,0.74198,-0.26335,-0.38595,-0.30079,0.0059762,0,0,0.34069,-0.77497,0,0.10877,0,0,0.13554,-0.018298,0,0.13679,-0.26306,-0.38624,-0.30079,2.7841,-0.31669,0.10931,-4.1143e-05,0.32,0.68,0
0.29968,0.032006,0.72276,-0.29423,-1.0495,-0.81612,0.0048287,0,0,0.78621,-0.53089,0,0.053758,0,0,0.14402,-0.076172,0,0.17003,-0.29406,-1.0496,-0.81612,1.8396,-0.71994,0.67357,0.034906,0.34,0.68,0
0.3261,0.026245,0.71975,-0.32129,-1.6751,-1.3187,0.0068947,0,0,1.2966,-0.4634,0,0.017926,0,0,0.16139,-0.1369,0,0.2119,-0.32125,-1.6752,-1.3187,0.29178,-1.105,1.2155,0.066195,0.36,0.68,0
0.35154,0.020481,0.71631,-0.33528,-1.592,-1.2945,0.011272,0,0,1.247,-0.38675,0,0.029308,0,0,0.18005,-0.14399,0,0.23066,-0.33518,-1.5921,-1.2945,0.51387,-1.0739,1.1377,0.058542,0.38,0.68,0
0.37598,0.014795,0.71255,-0.34598,-1.5129,-1.2702,0.017942,0,0,1.2015,-0.31553,0,0.04665,0,0,0.19341,-0.15102,0,0.24543,-0.34571,-1.5132,-1.2702,0.88066,-1.0431,1.067,0.051644,0.4,0.68,0
0.3996,0.0093357,0.70857,-0.33074,-0.88537,-0.76973,0.025442,0,0,0.45094,-0.26307,0,0.2788,0,0,0.20084,-0.088528,0,0.22807,-0.3164,-0.89971,-0.76973,23.58,-0.66195,0.54082,0.024099,0.42,0.68,0
0.39402,0.012572,0.68016,-0.32206,-0.32108,-0.29011,0.027255,0,0,-0.29079,-0.28183,0,0.49604,0,0,0.20272,-0.023457,0,0.20408,-0.29431,-0.34883,-0.29011,45.518,-0.31108,0.056737,-9.2072e-06,0.44,0.68,0
0.38797,0.015763,0.65181,-0.31788,-0.31676,-0.28351,0.026013,0,0,-0.31276,-0.30261,0,0.47343,0,0,0.20177,-0.024039,0,0.2032,-0.2913,-0.34334,-0.28351,45.614,-0.30605,0.056339,-8.595e-06,0.46,0.68,0
0.38151,0.018556,0.62366,-0.31354,-0.31177,-0.27669,0.02364,0,0,-0.33534,-0.31924,0,0.43025,0,0,0.20004,-0.023937,0,0.20147,-0.289,-0.33631,-0.27669,46.071,-0.30066,0.05452,-6.9145e-06,0.48,0.68,0
0.37456,0.020764,0.5958,-0.30943,-0.30588,-0.26971,0.020788,0,0,-0.36148,-0.32919,0,0.37834,0,0,0.1979,-0.023283,0,0.19927,-0.28679,-0.32852,-0.26971,47.439,-0.29501,0.052402,-4.8289e-06,0.5,0.68,0
0.36705,0.02233,0.56825,-0.30573,-0.29917,-0.26265,0.017906,0,0,-0.39202,-0.33234,0,0.32588,0,0,0.19565,-0.022228,0,0.19691,-0.28424,-0.32065,-0.26265,50.189,-0.28918,0.050775,-2.858e-06,0.52,0.68,0
0.35888,0.023287,0.54102,-0.30244,-0.2918,-0.25556,0.015244,0,0,-0.42664,-0.32974,0,0.27745,0,0,0.19347,-0.020918,0,0.1946,-0.28097,-0.31327,-0.25556,54.626,-0.28327,0.050094,-1.3222e-06,0.54,0.68,0
0.34998,0.023709,0.51408,-0.29954,-0.28396,-0.24849,0.012913,0,0,-0.46459,-0.32275,0,0.23502,0,0,0.19148,-0.019472,0,0.19247,-0.27667,-0.30683,-0.24849,60.556,-0.27733,0.050537,-3.9116e-07,0.56,0.68,0
0.3403,0.023688,0.4874,-0.29697,-0.27582,-0.24147,0.010935,0,0,-0.50508,-0.31265,0,0.19902,0,0,0.18974,-0.017977,0,0.19059,-0.27119,-0.30161,-0.24147,67.018,-0.27142,0.052085,-1.4696e-07,0.58,0.68,0
0.32978,0.023319,0.46095,-0.29467,-0.26754,-0.23451,0.0092877,0,0,-0.54744,-0.30053,0,0.16903,0,0,0.18827,-0.01649,0,0.18899,-0.26466,-0.29755,-0.23451,72.802,-0.26557,0.054605,-6.267e-07,0.6,0.68,0
0.3184,0.022689,0.43469,-0.2926,-0.25921,-0.22764,0.0079286,0,0,-0.59113,-0.28727,0,0.1443,0,0,0.18708,-0.015041,0,0.18768,-0.25742,-0.29439,-0.22764,77.299,-0.25982,0.057916,-1.8469e-06,0.62,0.68,0
0.30613,0.021875,0.40857,-0.29073,-0.25092,-0.22086,0.0068097,0,0,-0.63579,-0.27351,0,0.12394,0,0,0.18615,-0.013644,0,0.18665,-0.24978,-0.29186,-0.22086,80.557,-0.25417,0.061838,-3.8164e-06,0.64,0.68,0
0.29297,0.02094,0.38256,-0.28903,-0.24272,-0.21418,0.0058832,0,0,-0.68117,-0.25972,0,0.10708,0,0,0.18548,-0.012299,0,0.18588,-0.24198,-0.28976,-0.21418,82.872,-0.24864,0.06622,-6.5446e-06,0.66,0.68,0
0.27889,0.01994,0.35664,-0.2875,-0.23465,-0.20759,0.0051058,0,0,-0.72712,-0.24624,0,0.092925,0,0,0.18504,-0.010999,0,0.18537,-0.23416,-0.28798,-0.20759,84.531,-0.24325,0.070942,-1.0046e-05,0.68,0.68,0
0.26388,0.018919,0.33075,-0.28612,-0.22674,-0.20111,0.0044407,0,0,-0.77358,-0.23328,0,0.080821,0,0,0.18485,-0.0097316,0,0.1851,-0.22641,-0.28645,-0.20111,85.746,-0.23799,0.075918,-1.4345e-05,0.7,0.68,0
0.24794,0.017913,0.30488,-0.2849,-0.21901,-0.19473,0.0038595,0,0,-0.82056,-0.22098,0,0.070243,0,0,0.18489,-0.0084837,0,0.18508,-0.21878,-0.28512,-0.19473,86.659,-0.23288,0.08109,-1.9477e-05,0.72,0.68,0
0.23106,0.016952,0.27898,-0.28384,-0.21146,-0.18844,0.0033426,0,0,-0.86808,-0.20943,0,0.060835,0,0,0.18516,-0.0072437,0,0.1853,-0.2113,-0.28399,-0.18844,87.362,-0.22791,0.086416,-2.5489e-05,0.74,0.68,0
0.21322,0.016062,0.25303,-0.28293,-0.20409,-0.18226,0.0028796,0,0,-0.91619,-0.19869,0,0.052409,0,0,0.18566,-0.0060036,0,0.18576,-0.20398,-0.28304,-0.18226,87.911,-0.22309,0.091868,-3.2436e-05,0.76,0.68,0
0.19441,0.015265,0.227,-0.28219,-0.19691,-0.17616,0.0024693,0,0,-0.96492,-0.18883,0,0.044941,0,0,0.1864,-0.0047618,0,0.18647,-0.19684,-0.28227,-0.17616,88.343,-0.21842,0.097427,-4.0378e-05,0.78,0.68,0
0.17462,0.014582,0.20084,-0.28161,-0.18992,-0.17015,0.0021179,0,0,-1.0143,-0.17991,0,0.038545,0,0,0.18739,-0.0035275,0,0.18742,-0.18987,-0.28166,-0.17015,88.677,-0.21389,0.10307,-4.9372e-05,0.8,0.68,0
0.15384,0.014033,0.17453,-0.28117,-0.18313,-0.16422,0.0018367,0,0,-1.0642,-0.17203,0,0.033427,0,0,0.1886,-0.002324,0,0.18862,-0.18309,-0.2812,-0.16422,88.927,-0.2095,0.10878,-5.9464e-05,0.82,0.68,0
0.13205,0.013636,0.14803,-0.28085,-0.17652,-0.15836,0.0016382,0,0,-1.1147,-0.16528,0,0.029815,0,0,0.19002,-0.0011926,0,0.19003,-0.1765,-0.28088,-0.15836,89.101,-0.20525,0.11453,-7.0682e-05,0.84,0.68,0
0.10925,0.013408,0.12132,-0.28063,-0.17011,-0.15255,0.0015332,0,0,-1.1655,-0.15975,0,0.027903,0,0,0.19161,-0.000193,0,0.19161,-0.17009,-0.28065,-0.15255,89.205,-0.2011,0.12029,-8.3036e-05,0.86,0.68,0
0.085434,0.013363,0.094383,-0.28047,-0.16387,-0.14679,0.0015302,0,0,-1.2166,-0.15545,0,0.02785,0,0,0.19327,0.00060198,0,0.19327,-0.16385,-0.28049,-0.14679,89.248,-0.19704,0.12605,-9.6528e-05,0.88,0.68,0
0.060591,0.013513,0.067208,-0.28034,-0.15778,-0.14104,0.00164,0,0,-1.2677,-0.15234,0,0.029848,0,0,0.19489,0.0011197,0,0.19489,-0.15776,-0.28036,-0.14104,89.234,-0.19305,0.13176,-0.00011114,0.9,0.68,0
0.034727,0.01387,0.039815,-0.28018,-0.15181,-0.13528,0.0018797,0,0,-1.3185,-0.1504,0,0.03421,0,0,0.19631,0.0013084,0,0.19631,-0.15178,-0.2802,-0.13528,89.161,-0.18909,0.13741,-0.00012681,0.92,0.68,0
0.0078504,0.014457,0.012243,-0.27996,-0.22409,-0.15821,0.0023148,0,0,-0.7342,-0.14987,0,0.020945,0,0,0.19856,0.00464,0,0.19865,-0.21416,-0.28989,-0.15821,48.482,-0.22075,0.1236,-3.9791e-05,0.94,0.68,0
0.0053588,0.014489,0.0082395,-0.2794,-0.29709,-0.18119,0.0025394,0,0,-0.12768,-0.15067,0,0.0066023,0,0,0.20244,0.0068386,0,0.20257,-0.27905,-0.29745,-0.18119,8.0115,-0.25256,0.10824,5.8834e-05,0.96,0.68,0
0.0027431,0.014539,0.0041451,-0.27874,-0.29307,-0.17569,0.0017278,0,0,-0.13397,-0.15259,0,0.0044923,0,0,0.20599,0.0038928,0,0.20602,-0.27854,-0.29327,-0.17569,6.7812,-0.24917,0.11095,6.5999e-05,0.98,0.68,0
0,0.014562,0,-0.27319,-0.28575,-0.16768,0.00044042,0,0,-0.13715,-0.15349,0,0.0011451,0,0,0.20726,-4.9873e-18,0,0.20725,-0.27317,-0.28577,-0.16768,2.0048,-0.24221,0.11232,6.9697e-05,1,0.68,0
0,0.020753,1,-0.39394,-2.1846,-1.7736,-0.0002686,0,0,1.7935,-0.53436,0,-0.00069837,0,0,0.20313,5.4644e-17,0,0.20307,-0.39394,-2.1846,-1.7736,-0.0085945,-1.4507,1.6246,0.17362,0,0.7,0
0.03587,0.020739,0.99594,-0.38492,-2.1787,-1.765,0.003475,0,0,1.7941,-0.53779,0,0.009035,0,0,0.19675,-0.010258,0,0.19708,-0.38491,-2.1787,-1.765,0.11099,-1.4429,1.6269,0.17388,0.02,0.7,0
0.071766,0.020673,0.99213,-0.37387,-2.1749,-1.7568,0.0050127,0,0,1.7978,-0.54358,0,0.013033,0,0,0.17906,-0.018614,0,0.18041,-0.37385,-2.1749,-1.7568,0.15947,-1.4352,1.6326,0.17506,0.04,0.7,0
0.10778,0.020528,0.98877,-0.33042,-1.2912,-1.0515,0.005039,0,0,1.1595,-0.54526,0,0.047314,0,0,0.15999,-0.013485,0,0.16115,-0.33033,-1.2913,-1.0515,1.1635,-0.89102,0.86864,0.087974,0.06,0.7,0
0.11815,0.021683,0.96746,-0.29941,-0.45648,-0.36498,0.0039411,0,0,0.59662,-0.83266,0,0.071729,0,0,0.14973,-0.0060765,0,0.14987,-0.29931,-0.45658,-0.36498,1.4365,-0.37362,0.13681,-3.6952e-05,0.08,0.7,0
0.13165,0.022206,0.94685,-0.28456,-0.48048,-0.36478,0.0025005,0,0,0.73001,-1.0529,0,0.045509,0,0,0.14461,-0.0082267,0,0.14487,-0.28452,-0.48052,-0.36478,0.73106,-0.37661,0.17066,-7.8478e-05,0.1,0.7,0
0.14735,0.022123,0.92697,-0.27289,-0.49479,-0.36273,0.0015061,0,0,0.81754,-1.2018,0,0.027411,0,0,0.1396,-0.0099693,0,0.13997,-0.27288,-0.4948,-0.36273,0.38886,-0.37681,0.19335,-0.00011968,0.12,0.7,0
0.16435,0.021619,0.90776,-0.26434,-0.50148,-0.35943,0.0013566,0,0,0.86527,-1.2927,0,0.02469,0,0,0.1352,-0.011501,0,0.1357,-0.26433,-0.50149,-0.35943,0.32775,-0.37508,0.20672,-0.00015196,0.14,0.7,0
0.18196,0.020912,0.88912,-0.25817,-0.50277,-0.3553,0.0020223,0,0,0.88384,-1.3419,0,0.036805,0,0,0.13167,-0.012971,0,0.13231,-0.25816,-0.50278,-0.3553,0.47367,-0.37208,0.21334,-0.00017325,0.16,0.7,0
0.1997,0.020187,0.8709,-0.25361,-0.50015,-0.35054,0.0033251,0,0,0.88212,-1.3615,0,0.060516,0,0,0.12909,-0.014445,0,0.1299,-0.25356,-0.5002,-0.35054,0.77254,-0.3681,0.21521,-0.0001842,0.18,0.7,0
0.21724,0.01958,0.85297,-0.25016,-0.49447,-0.34524,0.0050704,0,0,0.86522,-1.358,0,0.09228,0,0,0.12743,-0.015915,0,0.12842,-0.25006,-0.49458,-0.34524,1.1884,-0.36329,0.21348,-0.00018604,0.2,0.7,0
0.23431,0.019181,0.83522,-0.2477,-0.48604,-0.33944,0.007081,0,0,0.83482,-1.3341,0,0.12887,0,0,0.12664,-0.017327,0,0.12782,-0.24749,-0.48625,-0.33944,1.7003,-0.35773,0.20858,-0.00017964,0.22,0.7,0
0.25063,0.01904,0.81751,-0.24636,-0.47475,-0.33312,0.0091888,0,0,0.78953,-1.2888,0,0.16723,0,0,0.12673,-0.01861,0,0.12809,-0.24599,-0.47512,-0.33312,2.3002,-0.35141,0.20032,-0.00016538,0.24,0.7,0
0.26589,0.019168,0.79973,-0.24655,-0.46007,-0.32623,0.011227,0,0,0.72511,-1.2179,0,0.20433,0,0,0.12768,-0.019693,0,0.12919,-0.24596,-0.46065,-0.32623,3.0016,-0.34428,0.18789,-0.0001432,0.26,0.7,0
0.27964,0.019538,0.78176,-0.24888,-0.44101,-0.31865,0.013046,0,0,0.63487,-1.1135,0,0.23744,0,0,0.12948,-0.020544,0,0.1311,-0.248,-0.4419,-0.31865,3.8668,-0.33618,0.16996,-0.00011332,0.28,0.7,0
0.29129,0.020089,0.76348,-0.25389,-0.41631,-0.31013,0.014539,0,0,0.51174,-0.96624,0,0.26462,0,0,0.132,-0.021202,0,0.1337,-0.2526,-0.4176,-0.31013,5.0753,-0.32678,0.14506,-7.7764e-05,0.3,0.7,0
0.30011,0.020737,0.7448,-0.26164,-0.38509,-0.30042,0.015713,0,0,0.35286,-0.77048,0,0.28597,0,0,0.13498,-0.021782,0,0.13674,-0.25967,-0.38706,-0.30042,7.1412,-0.31572,0.11268,-4.2405e-05,0.32,0.7,0
0.3054,0.021397,0.72568,-0.29278,-1.0529,-0.81838,0.017977,0,0,0.79665,-0.5335,0,0.1771,0,0,0.14257,-0.089697,0,0.17733,-0.29112,-1.0546,-0.81838,5.6008,-0.72135,0.68039,0.035549,0.34,0.7,0
0.33198,0.016973,0.72271,-0.31953,-1.6801,-1.3226,0.024233,0,0,1.304,-0.46471,0,0.063006,0,0,0.15834,-0.15821,0,0.22405,-0.3191,-1.6805,-1.3226,1.0201,-1.1074,1.2224,0.067408,0.36,0.7,0
0.35756,0.012715,0.71935,-0.33426,-1.5963,-1.2985,0.028202,0,0,1.2535,-0.38715,0,0.073325,0,0,0.17615,-0.16013,0,0.23819,-0.33363,-1.597,-1.2985,1.2795,-1.0764,1.1437,0.05956,0.38,0.7,0
0.38212,0.0084441,0.71567,-0.34556,-1.5156,-1.274,0.027912,0,0,1.207,-0.31411,0,0.072572,0,0,0.19044,-0.16188,0,0.25002,-0.34489,-1.5163,-1.274,1.3657,-1.0451,1.071,0.052379,0.4,0.7,0
0.40584,0.0040039,0.71173,-0.332,-0.88756,-0.77257,0.025554,0,0,0.45083,-0.2616,0,0.2567,0,0,0.19952,-0.092902,0,0.22945,-0.31883,-0.90072,-0.77257,23.924,-0.66404,0.54041,0.024382,0.42,0.7,0
0.40015,0.0070534,0.6834,-0.32376,-0.32002,-0.29076,0.023512,0,0,-0.3003,-0.26621,0,0.42791,0,0,0.20239,-0.023091,0,0.2037,-0.2983,-0.34547,-0.29076,47.278,-0.31151,0.05136,-6.4552e-06,0.44,0.7,0
0.39383,0.0099496,0.65506,-0.32017,-0.31455,-0.284,0.021821,0,0,-0.32921,-0.27801,0,0.39714,0,0,0.20191,-0.022683,0,0.20318,-0.29536,-0.33936,-0.284,48.673,-0.30624,0.050649,-5.5579e-06,0.46,0.7,0
0.38698,0.012468,0.62687,-0.31612,-0.30904,-0.2771,0.019523,0,0,-0.3551,-0.29063,0,0.35531,0,0,0.2006,-0.022003,0,0.20181,-0.29274,-0.33242,-0.2771,50.143,-0.30075,0.049395,-4.1626e-06,0.48,0.7,0
0.37962,0.014488,0.5989,-0.31206,-0.30308,-0.2701,0.017003,0,0,-0.38182,-0.30017,0,0.30945,0,0,0.1988,-0.021095,0,0.19992,-0.28999,-0.32516,-0.2701,52.391,-0.29508,0.048289,-2.6536e-06,0.5,0.7,0
0.37171,0.015976,0.5712,-0.30824,-0.29656,-0.26304,0.014535,0,0,-0.41134,-0.30503,0,0.26455,0,0,0.19678,-0.020018,0,0.1978,-0.28674,-0.31807,-0.26304,55.947,-0.28928,0.047807,-1.3329e-06,0.52,0.7,0
0.36317,0.016957,0.5438,-0.30479,-0.2895,-0.25597,0.012281,0,0,-0.44425,-0.30509,0,0.22351,0,0,0.19475,-0.018834,0,0.19566,-0.28268,-0.31161,-0.25597,60.953,-0.28342,0.048198,-3.9835e-07,0.54,0.7,0
0.35394,0.017488,0.51667,-0.30171,-0.282,-0.24892,0.010311,0,0,-0.48036,-0.301,0,0.18766,0,0,0.19282,-0.017601,0,0.19362,-0.27759,-0.30612,-0.24892,66.853,-0.27754,0.049532,2.6793e-08,0.56,0.7,0
0.34396,0.017641,0.48981,-0.29898,-0.27419,-0.24192,0.0086407,0,0,-0.51919,-0.29366,0,0.15726,0,0,0.19109,-0.01636,0,0.19179,-0.27148,-0.30169,-0.24192,72.556,-0.2717,0.051762,-1.3595e-07,0.58,0.7,0
0.33317,0.017488,0.46317,-0.29655,-0.2662,-0.23499,0.0072533,0,0,-0.56017,-0.28399,0,0.13201,0,0,0.1896,-0.015142,0,0.19021,-0.26455,-0.29819,-0.23499,77.227,-0.26591,0.054772,-9.3999e-07,0.6,0.7,0
0.32155,0.017102,0.43672,-0.29438,-0.25812,-0.22814,0.0061164,0,0,-0.60282,-0.2728,0,0.11132,0,0,0.18837,-0.013962,0,0.18888,-0.25711,-0.29539,-0.22814,80.68,-0.26021,0.058424,-2.4249e-06,0.62,0.7,0
0.30906,0.016545,0.41042,-0.29244,-0.25002,-0.22137,0.0051922,0,0,-0.64675,-0.26073,0,0.094498,0,0,0.18739,-0.012826,0,0.18783,-0.2494,-0.29307,-0.22137,83.122,-0.25461,0.062583,-4.6233e-06,0.64,0.7,0
0.29568,0.015872,0.38425,-0.29071,-0.24198,-0.2147,0.0044423,0,0,-0.69168,-0.24827,0,0.080849,0,0,0.18668,-0.011732,0,0.18704,-0.24158,-0.29111,-0.2147,84.833,-0.24913,0.067135,-7.5659e-06,0.66,0.7,0
0.28139,0.015131,0.35816,-0.28916,-0.23404,-0.20813,0.0038311,0,0,-0.73742,-0.23582,0,0.069726,0,0,0.18621,-0.010675,0,0.18652,-0.23377,-0.28942,-0.20813,86.043,-0.24377,0.071988,-1.1285e-05,0.68,0.7,0
0.26618,0.014361,0.33211,-0.28779,-0.22622,-0.20165,0.0033277,0,0,-0.78386,-0.22364,0,0.060565,0,0,0.18599,-0.0096451,0,0.18624,-0.22604,-0.28796,-0.20165,86.915,-0.23855,0.077072,-1.5815e-05,0.7,0.7,0
0.25004,0.013595,0.30608,-0.28658,-0.21855,-0.19526,0.002907,0,0,-0.83093,-0.21194,0,0.052908,0,0,0.18602,-0.0086327,0,0.18622,-0.21843,-0.2867,-0.19526,87.557,-0.23347,0.082334,-2.1198e-05,0.72,0.7,0
0.23294,0.012861,0.28003,-0.28553,-0.21105,-0.18898,0.0025504,0,0,-0.8786,-0.20089,0,0.046417,0,0,0.18628,-0.0076286,0,0.18644,-0.21097,-0.28562,-0.18898,88.041,-0.22852,0.087734,-2.7477e-05,0.74,0.7,0
0.21489,0.01218,0.25392,-0.28463,-0.20373,-0.18278,0.0022462,0,0,-0.92684,-0.19063,0,0.04088,0,0,0.18678,-0.0066261,0,0.1869,-0.20367,-0.2847,-0.18278,88.411,-0.22372,0.093241,-3.4695e-05,0.76,0.7,0
0.19587,0.011575,0.22773,-0.28389,-0.1966,-0.17668,0.0019895,0,0,-0.9756,-0.18128,0,0.03621,0,0,0.18752,-0.0056223,0,0.18761,-0.19655,-0.28393,-0.17668,88.695,-0.21905,0.098827,-4.2892e-05,0.78,0.7,0
0.17587,0.011063,0.20141,-0.28327,-0.18966,-0.17065,0.0017814,0,0,-1.0248,-0.17299,0,0.032421,0,0,0.18849,-0.0046207,0,0.18854,-0.18963,-0.2833,-0.17065,88.91,-0.21453,0.10446,-5.2098e-05,0.8,0.7,0
0.15488,0.010663,0.17495,-0.28277,-0.18293,-0.1647,0.0016265,0,0,-1.0744,-0.16588,0,0.029603,0,0,0.18966,-0.0036333,0,0.1897,-0.18291,-0.2828,-0.1647,89.067,-0.21014,0.11013,-6.2328e-05,0.82,0.7,0
0.13289,0.01039,0.14831,-0.28237,-0.17641,-0.15882,0.0015315,0,0,-1.1243,-0.16004,0,0.027873,0,0,0.191,-0.0026818,0,0.19102,-0.17638,-0.28239,-0.15882,89.172,-0.20586,0.11579,-7.3589e-05,0.84,0.7,0
0.10991,0.01026,0.12147,-0.28204,-0.17008,-0.15299,0.0015024,0,0,-1.1743,-0.15554,0,0.027344,0,0,0.19246,-0.0017974,0,0.19247,-0.17006,-0.28206,-0.15299,89.231,-0.2017,0.12144,-8.5879e-05,0.86,0.7,0
0.085918,0.010287,0.09442,-0.28175,-0.16393,-0.14719,0.0015445,0,0,-1.2245,-0.15233,0,0.02811,0,0,0.19394,-0.0010172,0,0.19394,-0.16391,-0.28177,-0.14719,89.249,-0.19763,0.12705,-9.9197e-05,0.88,0.7,0
0.060927,0.010486,0.067165,-0.28149,-0.15795,-0.14142,0.0016629,0,0,-1.2746,-0.15034,0,0.030264,0,0,0.19534,-0.00037753,0,0.19534,-0.15792,-0.28151,-0.14142,89.229,-0.19362,0.13261,-0.00011354,0.9,0.7,0
0.034936,0.010868,0.039725,-0.28121,-0.1521,-0.13567,0.0018638,0,0,-1.3244,-0.14955,0,0.033921,0,0,0.19651,9.7206e-05,0,0.19652,-0.15207,-0.28123,-0.13567,89.173,-0.18966,0.13809,-0.00012884,0.92,0.7,0
0.0079512,0.011452,0.012141,-0.28114,-0.22467,-0.15868,0.00205,0,0,-0.73744,-0.15013,0,0.01975,0,0,0.19825,0.0016193,0,0.19826,-0.21511,-0.2907,-0.15868,47.96,-0.2215,0.12408,-4.0012e-05,0.94,0.7,0
0.0054382,0.011479,0.0081516,-0.28073,-0.2969,-0.18144,0.0018556,0,0,-0.12907,-0.1501,0,0.0048246,0,0,0.20116,0.0025862,0,0.20118,-0.28052,-0.29711,-0.18144,6.4614,-0.25302,0.10833,6.0165e-05,0.96,0.7,0
0.0027882,0.011508,0.0040945,-0.28025,-0.29167,-0.17567,0.0011259,0,0,-0.13595,-0.1508,0,0.0029273,0,0,0.20379,0.0015246,0,0.2038,-0.28014,-0.29178,-0.17567,5.5774,-0.2492,0.11075,6.7177e-05,0.98,0.7,0
0,0.01152,0,-0.27488,-0.28392,-0.16764,0.00023437,0,0,-0.13941,-0.15117,0,0.00060937,0,0,0.20473,5.2042e-18,0,0.20473,-0.27487,-0.28393,-0.16764,1.4835,-0.24215,0.11204,7.0637e-05,1,0.7,0
0,0.0099815,1,-0.3944,-2.1824,-1.773,-0.0010944,0,0,1.7922,-0.53215,0,-0.0028453,0,0,0.1998,-1.5678e-15,0,0.19977,-0.3944,-2.1824,-1.773,-0.035069,-1.4499,1.6225,0.1732,0,0.72,0
0.035845,0.0099246,0.996,-0.38535,-2.1769,-1.7647,-0.0071959,0,0,1.7931,-0.53587,0,-0.018709,0,0,0.19356,0.0034192,0,0.19369,-0.38532,-2.1769,-1.7647,-0.23013,-1.4423,1.6252,0.17356,0.02,0.72,0
0.071725,0.0097895,0.99226,-0.37402,-2.1736,-1.7566,-0.011779,0,0,1.7973,-0.5422,0,-0.030626,0,0,0.17629,0.0055841,0,0.17678,-0.37395,-2.1737,-1.7566,-0.375,-1.4347,1.6317,0.17491,0.04,0.72,0
0.10774,0.0096143,0.98895,-0.33007,-1.2904,-1.0513,-0.013807,0,0,1.1611,-0.54405,0,-0.14395,0,0,0.15766,0.0031488,0,0.15803,-0.32921,-1.2913,-1.0513,-3.546,-0.89057,0.86969,0.087951,0.06,0.72,0
0.11817,0.0051122,0.96794,-0.29883,-0.45677,-0.36496,-0.013065,0,0,0.60178,-0.83551,0,-0.23778,0,0,0.14761,-0.00081218,0,0.14764,-0.29775,-0.45784,-0.36496,-4.6969,-0.37352,0.13923,-3.7926e-05,0.08,0.72,0
0.13181,0.0012215,0.94762,-0.2837,-0.48118,-0.36484,-0.010683,0,0,0.73832,-1.0587,0,-0.19443,0,0,0.14257,-0.002793,0,0.14262,-0.28313,-0.48175,-0.36484,-3.0876,-0.37657,0.17291,-7.9969e-05,0.1,0.72,0
0.1477,-0.0018984,0.92802,-0.27179,-0.49583,-0.36286,-0.0079748,0,0,0.82872,-1.21,0,-0.14514,0,0,0.1376,-0.0050601,0,0.13771,-0.27151,-0.49611,-0.36286,-2.0361,-0.37683,0.19564,-0.00012165,0.12,0.72,0
0.16496,-0.0042882,0.90909,-0.26301,-0.50287,-0.35963,-0.0054146,0,0,0.8793,-1.3034,0,-0.098545,0,0,0.13322,-0.0074776,0,0.13344,-0.26288,-0.50299,-0.35963,-1.2925,-0.37517,0.20924,-0.00015461,0.14,0.72,0
0.18288,-0.0060334,0.89072,-0.25661,-0.50452,-0.35558,-0.0029756,0,0,0.90067,-1.3553,0,-0.054156,0,0,0.12971,-0.0099356,0,0.1301,-0.25657,-0.50455,-0.35558,-0.68758,-0.37224,0.21621,-0.00017671,0.16,0.72,0
0.20098,-0.0071851,0.87277,-0.25185,-0.50225,-0.35091,-0.00049442,0,0,0.90148,-1.3772,0,-0.0089984,0,0,0.12716,-0.012369,0,0.12776,-0.25185,-0.50225,-0.35091,-0.11313,-0.36834,0.21843,-0.00018847,0.18,0.72,0
0.21893,-0.0077446,0.85511,-0.24826,-0.49686,-0.3457,0.0021646,0,0,0.88665,-1.3756,0,0.039395,0,0,0.12555,-0.014745,0,0.12641,-0.24824,-0.49688,-0.3457,0.49883,-0.36361,0.21699,-0.00019093,0.2,0.72,0
0.23645,-0.0076747,0.83762,-0.24571,-0.48866,-0.33997,0.0050895,0,0,0.85779,-1.3531,0,0.092628,0,0,0.12487,-0.017039,0,0.12602,-0.2456,-0.48877,-0.33997,1.1995,-0.35811,0.21234,-0.00018493,0.22,0.72,0
0.25325,-0.0069073,0.82015,-0.24431,-0.47756,-0.33372,0.0083628,0,0,0.81369,-1.3089,0,0.1522,0,0,0.12511,-0.019214,0,0.12657,-0.24401,-0.47786,-0.33372,2.0507,-0.35186,0.20434,-0.00017091,0.24,0.72,0
0.269,-0.0053442,0.80259,-0.24445,-0.46305,-0.3269,0.01209,0,0,0.75034,-1.2389,0,0.22004,0,0,0.12628,-0.021214,0,0.12805,-0.24378,-0.46371,-0.3269,3.1561,-0.3448,0.19235,-0.00014905,0.26,0.72,0
0.28326,-0.0028593,0.7848,-0.24674,-0.44415,-0.31938,0.016348,0,0,0.66103,-1.1354,0,0.29754,0,0,0.12833,-0.022946,0,0.13037,-0.24539,-0.44549,-0.31938,4.7022,-0.33676,0.17524,-0.00011969,0.28,0.72,0
0.29544,0.00066679,0.76665,-0.25176,-0.41946,-0.31089,0.021007,0,0,0.53808,-0.98801,0,0.38233,0,0,0.13112,-0.024297,0,0.13336,-0.24917,-0.42205,-0.31089,7.0324,-0.32737,0.15175,-8.4613e-05,0.3,0.72,0
0.30478,0.0052525,0.74808,-0.25965,-0.38781,-0.30111,0.025419,0,0,0.37727,-0.78899,0,0.46263,0,0,0.13432,-0.02518,0,0.13667,-0.25479,-0.39266,-0.30111,10.819,-0.31619,0.12153,-4.91e-05,0.32,0.72,0
0.31053,0.010666,0.72904,-0.2919,-1.0614,-0.82258,0.031227,0,0,0.813,-0.54325,0,0.30001,0,0,0.14214,-0.10245,0,0.18558,-0.28753,-1.0657,-0.82258,8.5758,-0.72528,0.69286,0.036387,0.34,0.72,0
0.3373,0.0076566,0.72608,-0.31928,-1.6887,-1.3285,0.042018,0,0,1.3119,-0.46831,0,0.10925,0,0,0.15823,-0.17858,0,0.23881,-0.31799,-1.69,-1.3285,1.7558,-1.1121,1.2317,0.06883,0.36,0.72,0
0.36301,0.0049948,0.72271,-0.33515,-1.5967,-1.3023,0.046397,0,0,1.2572,-0.38274,0,0.12063,0,0,0.17638,-0.17648,0,0.24964,-0.33345,-1.5984,-1.3023,2.1034,-1.078,1.1459,0.060238,0.38,0.72,0
0.38759,0.0022304,0.71902,-0.34758,-1.5077,-1.2756,0.039183,0,0,1.2064,-0.30172,0,0.10188,0,0,0.19096,-0.17397,0,0.2584,-0.34626,-1.509,-1.2756,1.9322,-1.0436,1.0654,0.052202,0.4,0.72,0
0.41126,-0.0011285,0.71508,-0.3341,-0.87926,-0.77263,0.026491,0,0,0.43987,-0.2426,0,0.24074,0,0,0.20028,-0.098255,0,0.23323,-0.32084,-0.89253,-0.77263,25.477,-0.662,0.53349,0.024027,0.42,0.72,0
0.40519,0.0019235,0.68663,-0.32679,-0.31815,-0.29157,0.02012,0,0,-0.32048,-0.24187,0,0.36619,0,0,0.20327,-0.02302,0,0.20456,-0.30189,-0.34305,-0.29157,51.057,-0.31217,0.047171,-4.5332e-06,0.44,0.72,0
0.39844,0.0046424,0.65816,-0.32311,-0.31223,-0.28463,0.017737,0,0,-0.35017,-0.25125,0,0.32282,0,0,0.20286,-0.021609,0,0.20401,-0.29912,-0.33622,-0.28463,53.519,-0.30666,0.046092,-3.4036e-06,0.46,0.72,0
0.39118,0.0069308,0.62982,-0.31886,-0.30658,-0.27761,0.015326,0,0,-0.37539,-0.26369,0,0.27894,0,0,0.20163,-0.020304,0,0.20265,-0.29621,-0.32923,-0.27761,55.912,-0.30102,0.045285,-2.2004e-06,0.48,0.72,0
0.38343,0.0087567,0.60171,-0.31455,-0.30071,-0.27054,0.013035,0,0,-0.40054,-0.2746,0,0.23724,0,0,0.19989,-0.019077,0,0.2008,-0.29288,-0.32239,-0.27054,58.98,-0.29527,0.045049,-1.1128e-06,0.5,0.72,0
0.37516,0.010129,0.57386,-0.31048,-0.2944,-0.26344,0.010947,0,0,-0.42805,-0.28171,0,0.19923,0,0,0.19791,-0.01791,0,0.19872,-0.28886,-0.31603,-0.26344,63.149,-0.28944,0.045544,-2.7948e-07,0.52,0.72,0
0.36631,0.011083,0.54629,-0.30678,-0.28761,-0.25636,0.0091051,0,0,-0.45887,-0.28437,0,0.16571,0,0,0.19589,-0.016795,0,0.19661,-0.28397,-0.31042,-0.25636,68.239,-0.28358,0.04682,1.9777e-07,0.54,0.72,0
0.3568,0.011669,0.51901,-0.30349,-0.2804,-0.24931,0.0075235,0,0,-0.49304,-0.28289,0,0.13693,0,0,0.19395,-0.015731,0,0.19459,-0.27816,-0.30573,-0.24931,73.456,-0.27773,0.048861,2.3711e-07,0.56,0.72,0
0.34659,0.011942,0.49198,-0.30058,-0.27286,-0.24232,0.006196,0,0,-0.53019,-0.27798,0,0.11277,0,0,0.1922,-0.014717,0,0.19276,-0.27154,-0.3019,-0.24232,77.955,-0.27192,0.051604,-2.3261e-07,0.58,0.72,0
0.3356,0.011959,0.46519,-0.29801,-0.26511,-0.23539,0.0051041,0,0,-0.56979,-0.27046,0,0.092895,0,0,0.19067,-0.013753,0,0.19117,-0.26434,-0.29878,-0.23539,81.379,-0.26617,0.054965,-1.2745e-06,0.6,0.72,0
0.32379,0.011777,0.4386,-0.29573,-0.25724,-0.22855,0.0042223,0,0,-0.61137,-0.2611,0,0.076845,0,0,0.18939,-0.012837,0,0.18983,-0.25678,-0.29619,-0.22855,83.813,-0.26051,0.058845,-2.9445e-06,0.62,0.72,0
0.31114,0.011446,0.41216,-0.29372,-0.24933,-0.22179,0.0035218,0,0,-0.65451,-0.25055,0,0.064097,0,0,0.18838,-0.011964,0,0.18876,-0.24905,-0.294,-0.22179,85.492,-0.25495,0.063151,-5.2935e-06,0.64,0.72,0
0.29761,0.011009,0.38585,-0.29193,-0.24143,-0.21513,0.0029734,0,0,-0.69891,-0.23933,0,0.054116,0,0,0.18763,-0.011128,0,0.18796,-0.24125,-0.29211,-0.21513,86.642,-0.2495,0.067801,-8.3691e-06,0.66,0.72,0
0.28319,0.010507,0.35963,-0.29036,-0.2336,-0.20856,0.0025487,0,0,-0.74433,-0.22784,0,0.046387,0,0,0.18713,-0.010323,0,0.18742,-0.23348,-0.29047,-0.20856,87.434,-0.24417,0.072725,-1.2218e-05,0.68,0.72,0
0.26784,0.0099733,0.33345,-0.28897,-0.22587,-0.20209,0.0022218,0,0,-0.79064,-0.2164,0,0.040436,0,0,0.18689,-0.0095413,0,0.18713,-0.22579,-0.28905,-0.20209,87.986,-0.23898,0.077865,-1.6888e-05,0.7,0.72,0
0.25156,0.0094352,0.3073,-0.28777,-0.21827,-0.19571,0.00197,0,0,-0.83772,-0.20527,0,0.035853,0,0,0.1869,-0.0087741,0,0.18711,-0.21821,-0.28782,-0.19571,88.378,-0.23391,0.083178,-2.2425e-05,0.72,0.72,0
0.23433,0.0089164,0.28112,-0.28673,-0.21081,-0.18942,0.001775,0,0,-0.88549,-0.19466,0,0.032305,0,0,0.18716,-0.0080134,0,0.18734,-0.21077,-0.28677,-0.18942,88.661,-0.22899,0.088623,-2.8875e-05,0.74,0.72,0
0.21614,0.0084369,0.25489,-0.28585,-0.20353,-0.18323,0.0016234,0,0,-0.93385,-0.18477,0,0.029546,0,0,0.18767,-0.0072519,0,0.18781,-0.2035,-0.28588,-0.18323,88.871,-0.2242,0.094167,-3.6277e-05,0.76,0.72,0
0.19698,0.0080138,0.22857,-0.28511,-0.19643,-0.17711,0.0015069,0,0,-0.98272,-0.1758,0,0.027425,0,0,0.18841,-0.0064833,0,0.18852,-0.19641,-0.28513,-0.17711,89.027,-0.21955,0.099779,-4.4658e-05,0.78,0.72,0
0.17683,0.0076626,0.20214,-0.28449,-0.18954,-0.17108,0.001422,0,0,-1.032,-0.16792,0,0.025881,0,0,0.18938,-0.0057032,0,0.18946,-0.18951,-0.28451,-0.17108,89.142,-0.21504,0.10543,-5.4033e-05,0.8,0.72,0
0.1557,0.007398,0.17555,-0.28397,-0.18285,-0.16512,0.0013698,0,0,-1.0815,-0.16129,0,0.024931,0,0,0.19054,-0.0049102,0,0.1906,-0.18283,-0.28399,-0.16512,89.224,-0.21065,0.11108,-6.4401e-05,0.82,0.72,0
0.13357,0.0072344,0.14878,-0.28354,-0.17637,-0.15923,0.0013544,0,0,-1.1312,-0.15603,0,0.02465,0,0,0.19186,-0.0041064,0,0.1919,-0.17636,-0.28356,-0.15923,89.276,-0.20638,0.11671,-7.5751e-05,0.84,0.72,0
0.11045,0.0071867,0.12183,-0.28316,-0.17011,-0.15338,0.0013815,0,0,-1.181,-0.15216,0,0.025144,0,0,0.19327,-0.0032974,0,0.1933,-0.17009,-0.28318,-0.15338,89.3,-0.20222,0.1223,-8.8072e-05,0.86,0.72,0
0.086332,0.0072698,0.094668,-0.28282,-0.16402,-0.14758,0.0014568,0,0,-1.2307,-0.14966,0,0.026513,0,0,0.19469,-0.0024924,0,0.1947,-0.16401,-0.28284,-0.14758,89.298,-0.19814,0.12784,-0.00010136,0.88,0.72,0
0.061221,0.0074988,0.067314,-0.2825,-0.1581,-0.1418,0.0015838,0,0,-1.2804,-0.1484,0,0.028826,0,0,0.196,-0.001702,0,0.19601,-0.15808,-0.28252,-0.1418,89.271,-0.19413,0.13332,-0.00011561,0.9,0.72,0
0.035118,0.0078884,0.039788,-0.28216,-0.15233,-0.13603,0.0017628,0,0,-1.3298,-0.14833,0,0.032082,0,0,0.19709,-0.00093586,0,0.19709,-0.15231,-0.28219,-0.13603,89.222,-0.19018,0.13873,-0.0001308,0.92,0.72,0
0.0080293,0.0084523,0.012129,-0.28214,-0.22473,-0.15899,0.0018194,0,0,-0.74056,-0.14955,0,0.018244,0,0,0.19862,-0.00079942,0,0.19862,-0.21583,-0.29105,-0.15899,47.684,-0.22196,0.12438,-4.0451e-05,0.94,0.72,0
0.0054953,0.0084847,0.008136,-0.28181,-0.29644,-0.18161,0.0014303,0,0,-0.13026,-0.14928,0,0.0037188,0,0,0.20113,-0.00078115,0,0.20114,-0.28167,-0.29658,-0.18161,5.5306,-0.25329,0.10829,6.1066e-05,0.96,0.72,0
0.0028191,0.0085071,0.0040841,-0.28141,-0.29074,-0.17573,0.00076954,0,0,-0.13738,-0.14952,0,0.0020008,0,0,0.2034,-0.00033991,0,0.2034,-0.28135,-0.2908,-0.17573,4.6814,-0.24929,0.11065,6.7866e-05,0.98,0.72,0
0,0.0085153,0,-0.2761,-0.2828,-0.16767,0.00015826,0,0,-0.14095,-0.14967,0,0.00041147,0,0,0.20421,2.4395e-18,0,0.20421,-0.27609,-0.28281,-0.16767,1.3508,-0.24219,0.11193,7.115e-05,1,0.72,0
0,-0.00053284,1,-0.41468,-2.1617,-1.7729,-0.0031329,0,0,1.7657,-0.50539,0,-0.0081455,0,0,0.20997,2.2647e-15,0,0.20981,-0.41468,-2.1617,-1.7729,-0.10275,-1.4498,1.5887,0.16511,0,0.74,0
0.035314,-0.00069575,0.9958,-0.40267,-2.162,-1.7652,-0.021776,0,0,1.7713,-0.5158,0,-0.056617,0,0,0.20233,0.018397,0,0.2032,-0.4024,-2.1622,-1.7652,-0.70904,-1.4433,1.5987,0.16703,0.02,0.74,0
0.070851,-0.0010145,0.99191,-0.38665,-2.1718,-1.7594,-0.033472,0,0,1.7847,-0.53611,0,-0.087028,0,0,0.18115,0.032244,0,0.18453,-0.38602,-2.1725,-1.7594,-1.0738,-1.4393,1.6199,0.17141,0.04,0.74,0
0.1067,-0.0012342,0.98855,-0.3346,-1.2904,-1.0524,-0.035054,0,0,1.1544,-0.54142,0,-0.35231,0,0,0.15832,0.02147,0,0.16088,-0.32976,-1.2952,-1.0524,-8.0705,-0.89245,0.87247,0.086893,0.06,0.74,0
0.11703,-0.011737,0.96769,-0.30054,-0.46187,-0.36696,-0.031008,0,0,0.60448,-0.86366,0,-0.56435,0,0,0.14615,0.0048795,0,0.14626,-0.29478,-0.46763,-0.36696,-10.513,-0.37646,0.15036,-4.9016e-05,0.08,0.74,0
0.13088,-0.020141,0.94763,-0.2841,-0.48658,-0.36658,-0.02416,0,0,0.75057,-1.092,0,-0.43972,0,0,0.14037,0.002936,0,0.14043,-0.28126,-0.48942,-0.36658,-6.7111,-0.37909,0.18125,-9.3607e-05,0.1,0.74,0
0.14705,-0.026277,0.92839,-0.27168,-0.50007,-0.36415,-0.017608,0,0,0.84153,-1.2369,0,-0.32046,0,0,0.13491,-1.4568e-05,0,0.13493,-0.27033,-0.50142,-0.36415,-4.3826,-0.37863,0.20131,-0.00013354,0.12,0.74,0
0.16454,-0.030518,0.90986,-0.26279,-0.50627,-0.3607,-0.01239,0,0,0.89094,-1.3247,0,-0.22549,0,0,0.13032,-0.0034347,0,0.13037,-0.26216,-0.5069,-0.3607,-2.9056,-0.37659,0.21328,-0.00016427,0.14,0.74,0
0.18269,-0.0333,0.8919,-0.25626,-0.50759,-0.35657,-0.0082176,0,0,0.9128,-1.3743,0,-0.14956,0,0,0.12678,-0.006934,0,0.12697,-0.25599,-0.50786,-0.35657,-1.8707,-0.37347,0.21959,-0.00018504,0.16,0.74,0
0.20105,-0.0349,0.87436,-0.25128,-0.50531,-0.35189,-0.0045289,0,0,0.91548,-1.3962,0,-0.082427,0,0,0.12428,-0.010352,0,0.1247,-0.2512,-0.50539,-0.35189,-1.0211,-0.3695,0.22171,-0.00019625,0.18,0.74,0
0.21931,-0.035444,0.8571,-0.24747,-0.5001,-0.34671,-0.00090343,0,0,0.90313,-1.3958,0,-0.016442,0,0,0.12276,-0.013655,0,0.12351,-0.24746,-0.5001,-0.34671,-0.20489,-0.36476,0.22046,-0.00019865,0.2,0.74,0
0.23718,-0.034943,0.83999,-0.24469,-0.49223,-0.34107,0.0029711,0,0,0.87713,-1.3755,0,0.054074,0,0,0.12218,-0.016861,0,0.12333,-0.24465,-0.49226,-0.34107,0.68755,-0.35933,0.21618,-0.00019297,0.22,0.74,0
0.25439,-0.033316,0.82289,-0.243,-0.48163,-0.33495,0.0073935,0,0,0.83668,-1.3348,0,0.13456,0,0,0.12255,-0.019982,0,0.12417,-0.24277,-0.48186,-0.33495,1.7729,-0.35319,0.20886,-0.00017975,0.24,0.74,0
0.27064,-0.030388,0.80567,-0.24275,-0.4679,-0.32829,0.01272,0,0,0.77844,-1.2705,0,0.2315,0,0,0.12395,-0.022988,0,0.12606,-0.24203,-0.46862,-0.32829,3.2232,-0.34631,0.19808,-0.00015937,0.26,0.74,0
0.28553,-0.025878,0.78819,-0.24456,-0.4501,-0.321,0.019343,0,0,0.69556,-1.1749,0,0.35204,0,0,0.12639,-0.025734,0,0.12899,-0.24276,-0.45191,-0.321,5.3296,-0.33855,0.18304,-0.00013219,0.28,0.74,0
0.29847,-0.019432,0.77028,-0.24939,-0.4265,-0.31281,0.0273,0,0,0.57713,-1.0346,0,0.49685,0,0,0.12976,-0.027897,0,0.13274,-0.24527,-0.43061,-0.31281,8.5665,-0.32956,0.16246,-9.8967e-05,0.3,0.74,0
0.30861,-0.010822,0.75185,-0.2576,-0.3944,-0.30301,0.035501,0,0,0.41324,-0.83168,0,0.64611,0,0,0.13367,-0.029094,0,0.13681,-0.24893,-0.40306,-0.30301,13.715,-0.31833,0.13545,-6.2495e-05,0.32,0.74,0
0.315,-0.0003332,0.73286,-0.29205,-1.076,-0.82919,0.045699,0,0,0.83503,-0.56148,0,0.43134,0,0,0.14284,-0.11652,0,0.19602,-0.28393,-1.0841,-0.82919,10.905,-0.73241,0.71118,0.037425,0.34,0.74,0
0.34202,-0.0017591,0.72986,-0.321,-1.7017,-1.3366,0.062213,0,0,1.3203,-0.47451,0,0.16176,0,0,0.16115,-0.20055,0,0.25751,-0.3182,-1.7045,-1.3366,2.5748,-1.1198,1.2438,0.070477,0.36,0.74,0
0.36781,-0.0025952,0.72641,-0.33832,-1.5924,-1.3056,0.06637,0,0,1.2575,-0.37278,0,0.17256,0,0,0.18076,-0.19314,0,0.26465,-0.33482,-1.5959,-1.3056,3.0211,-1.0788,1.1439,0.060508,0.38,0.74,0
0.39232,-0.0036247,0.72262,-0.35242,-1.4883,-1.2748,0.051047,0,0,1.1991,-0.27749,0,0.13272,0,0,0.19497,-0.18538,0,0.26908,-0.35013,-1.4906,-1.2748,2.568,-1.0385,1.0494,0.050991,0.4,0.74,0
0.41578,-0.0057001,0.71861,-0.33707,-0.85982,-0.7697,0.027083,0,0,0.41779,-0.20502,0,0.21987,0,0,0.20309,-0.10299,0,0.23841,-0.32261,-0.87428,-0.7697,28.644,-0.65553,0.51943,0.022952,0.42,0.74,0
0.40903,-0.0026216,0.68985,-0.33106,-0.31537,-0.29248,0.016241,0,0,-0.35108,-0.20832,0,0.29559,0,0,0.20534,-0.022809,0,0.2066,-0.30518,-0.34125,-0.29248,57.889,-0.31297,0.043825,-3.1303e-06,0.44,0.74,0
0.40173,-0.00010028,0.66112,-0.32654,-0.30974,-0.28533,0.013193,0,0,-0.37504,-0.22215,0,0.24011,0,0,0.20463,-0.020433,0,0.20564,-0.3025,-0.33378,-0.28533,61.244,-0.30721,0.042551,-1.8959e-06,0.46,0.74,0
0.39403,0.0019201,0.63255,-0.32162,-0.30438,-0.27816,0.010729,0,0,-0.39546,-0.23853,0,0.19527,0,0,0.20313,-0.018532,0,0.20398,-0.29923,-0.32676,-0.27816,64.393,-0.30139,0.042212,-8.797e-07,0.48,0.74,0
0.38592,0.0035036,0.60424,-0.3168,-0.29877,-0.27099,0.0087241,0,0,-0.41684,-0.25281,0,0.15878,0,0,0.2012,-0.017002,0,0.20191,-0.29524,-0.32033,-0.27099,67.966,-0.29552,0.042729,-1.1773e-07,0.5,0.74,0
0.37735,0.0047078,0.57622,-0.31234,-0.29271,-0.26383,0.0070685,0,0,-0.44139,-0.26282,0,0.12865,0,0,0.19906,-0.015752,0,0.19969,-0.29043,-0.31462,-0.26383,72.115,-0.28963,0.043999,3.5978e-07,0.52,0.74,0
0.36826,0.0055824,0.5485,-0.30834,-0.28617,-0.25671,0.0056888,0,0,-0.46985,-0.26805,0,0.10354,0,0,0.19692,-0.014707,0,0.19748,-0.28479,-0.30971,-0.25671,76.42,-0.28374,0.045932,5.1249e-07,0.54,0.74,0
0.35856,0.0061727,0.52108,-0.30481,-0.27918,-0.24964,0.0045402,0,0,-0.50209,-0.26886,0,0.082631,0,0,0.1949,-0.013811,0,0.19539,-0.2784,-0.3056,-0.24964,80.246,-0.27788,0.048465,2.8457e-07,0.56,0.74,0
0.34818,0.0065214,0.49393,-0.30172,-0.27187,-0.24264,0.0035953,0,0,-0.53766,-0.26598,0,0.065434,0,0,0.19307,-0.013024,0,0.19351,-0.27144,-0.30215,-0.24264,83.229,-0.27207,0.051546,-3.8996e-07,0.58,0.74,0
0.33705,0.0066698,0.46702,-0.29901,-0.26431,-0.23571,0.002834,0,0,-0.57598,-0.26026,0,0.05158,0,0,0.19148,-0.012316,0,0.19188,-0.26408,-0.29924,-0.23571,85.361,-0.26634,0.055118,-1.5799e-06,0.6,0.74,0
0.32514,0.0066578,0.44031,-0.29662,-0.25661,-0.22887,0.0022382,0,0,-0.61652,-0.25245,0,0.040736,0,0,0.19016,-0.011667,0,0.19051,-0.25649,-0.29675,-0.22887,86.808,-0.2607,0.05912,-3.352e-06,0.62,0.74,0
0.31239,0.0065228,0.41377,-0.29453,-0.24885,-0.22212,0.001789,0,0,-0.65887,-0.24321,0,0.032559,0,0,0.1891,-0.011063,0,0.18943,-0.24878,-0.2946,-0.22212,87.761,-0.25517,0.063491,-5.77e-06,0.64,0.74,0
0.29878,0.0062993,0.38736,-0.29269,-0.24108,-0.21547,0.0014659,0,0,-0.7027,-0.23306,0,0.02668,0,0,0.18832,-0.010493,0,0.18861,-0.24104,-0.29273,-0.21547,88.374,-0.24974,0.068173,-8.8952e-06,0.66,0.74,0
0.28428,0.006018,0.36105,-0.29107,-0.23335,-0.20891,0.001248,0,0,-0.74775,-0.22243,0,0.022713,0,0,0.1878,-0.0099486,0,0.18806,-0.23332,-0.2911,-0.20891,88.762,-0.24444,0.073114,-1.2787e-05,0.68,0.74,0
0.26887,0.0057056,0.33478,-0.28968,-0.22569,-0.20244,0.0011139,0,0,-0.79387,-0.21164,0,0.020273,0,0,0.18754,-0.0094229,0,0.18778,-0.22567,-0.28969,-0.20244,89.003,-0.23927,0.07827,-1.7506e-05,0.7,0.74,0
0.25253,0.0053848,0.30853,-0.28847,-0.21815,-0.19606,0.0010435,0,0,-0.84091,-0.201,0,0.018991,0,0,0.18754,-0.008909,0,0.18776,-0.21813,-0.28849,-0.19606,89.15,-0.23423,0.083602,-2.3106e-05,0.72,0.74,0
0.23523,0.0050742,0.28227,-0.28745,-0.21074,-0.18978,0.0010182,0,0,-0.88877,-0.19073,0,0.018531,0,0,0.1878,-0.0083994,0,0.18799,-0.21072,-0.28746,-0.18978,89.24,-0.22932,0.089074,-2.9642e-05,0.74,0.74,0
0.21698,0.0047892,0.25595,-0.28659,-0.20348,-0.18358,0.0010224,0,0,-0.93732,-0.18107,0,0.018608,0,0,0.18831,-0.0078855,0,0.18848,-0.20347,-0.2866,-0.18358,89.295,-0.22455,0.094651,-3.7154e-05,0.76,0.74,0
0.19774,0.0045428,0.22954,-0.28587,-0.1964,-0.17748,0.0010442,0,0,-0.98643,-0.17226,0,0.019004,0,0,0.18907,-0.0073567,0,0.18921,-0.19639,-0.28589,-0.17748,89.331,-0.21992,0.1003,-4.567e-05,0.78,0.74,0
0.17752,0.0043463,0.20301,-0.28529,-0.18952,-0.17144,0.0010762,0,0,-1.036,-0.16453,0,0.019588,0,0,0.19006,-0.0067999,0,0.19018,-0.18951,-0.2853,-0.17144,89.356,-0.21542,0.10598,-5.5197e-05,0.8,0.74,0
0.1563,0.0042109,0.17632,-0.2848,-0.18286,-0.16549,0.0011165,0,0,-1.0858,-0.15807,0,0.020321,0,0,0.19126,-0.0061995,0,0.19136,-0.18284,-0.28481,-0.16549,89.373,-0.21105,0.11166,-6.5723e-05,0.82,0.74,0
0.13409,0.0041486,0.14946,-0.28439,-0.17641,-0.15959,0.0011684,0,0,-1.1357,-0.15303,0,0.021264,0,0,0.19262,-0.0055373,0,0.1927,-0.17639,-0.2844,-0.15959,89.38,-0.20679,0.11732,-7.7221e-05,0.84,0.74,0
0.11088,0.0041734,0.12239,-0.28403,-0.17017,-0.15374,0.0012391,0,0,-1.1856,-0.14949,0,0.022551,0,0,0.19407,-0.0047942,0,0.19413,-0.17016,-0.28404,-0.15374,89.376,-0.20265,0.12291,-8.9664e-05,0.86,0.74,0
0.086667,0.0043012,0.095117,-0.28369,-0.16413,-0.14793,0.0013372,0,0,-1.2354,-0.14738,0,0.024338,0,0,0.19553,-0.0039527,0,0.19558,-0.16411,-0.2837,-0.14793,89.359,-0.19858,0.12845,-0.00010304,0.88,0.74,0
0.061462,0.0045495,0.067642,-0.28336,-0.15826,-0.14215,0.0014678,0,0,-1.285,-0.14658,0,0.026714,0,0,0.19689,-0.0030008,0,0.19692,-0.15824,-0.28338,-0.14215,89.328,-0.19459,0.13391,-0.00011735,0.9,0.74,0
0.035266,0.0049349,0.039987,-0.28301,-0.15252,-0.13637,0.0016272,0,0,-1.3344,-0.14696,0,0.029615,0,0,0.19802,-0.0019365,0,0.19803,-0.1525,-0.28303,-0.13637,89.286,-0.19064,0.1393,-0.00013257,0.92,0.74,0
0.0080846,0.0054695,0.012197,-0.28297,-0.22451,-0.15921,0.0015875,0,0,-0.74334,-0.14854,0,0.016523,0,0,0.1996,-0.0030891,0,0.19964,-0.21638,-0.29111,-0.15921,47.445,-0.22223,0.12454,-4.102e-05,0.94,0.74,0
0.0055321,0.0055081,0.0081828,-0.28261,-0.2958,-0.18171,0.0010674,0,0,-0.13118,-0.14832,0,0.0027752,0,0,0.20222,-0.0039554,0,0.20226,-0.28253,-0.29589,-0.18171,4.5965,-0.25337,0.10812,6.1587e-05,0.96,0.74,0
0.0028376,0.0055275,0.0041081,-0.28219,-0.29014,-0.17581,0.00047616,0,0,-0.1383,-0.14863,0,0.001238,0,0,0.20457,-0.0020935,0,0.20458,-0.28217,-0.29017,-0.17581,3.419,-0.24938,0.11058,6.8214e-05,0.98,0.74,0
0,0.0055334,0,-0.27684,-0.28218,-0.16771,0.00011359,0,0,-0.14188,-0.14881,0,0.00029533,0,0,0.20541,-2.1684e-18,0,0.20541,-0.27684,-0.28218,-0.16771,1.2196,-0.24224,0.1119,7.1412e-05,1,0.74,0
0,-0.010234,1,-0.46161,-2.1106,-1.7717,-0.0090954,0,0,1.7031,-0.44063,0,-0.023648,0,0,0.23659,1.6202e-15,0,0.23605,-0.46156,-2.1107,-1.7717,-0.31601,-1.448,1.5085,0.14672,0,0.76,0
0.034062,-0.010707,0.99527,-0.44372,-2.1269,-1.7665,-0.048747,0,0,1.7195,-0.46857,0,-0.12674,0,0,0.22581,0.037992,0,0.22881,-0.44231,-2.1283,-1.7665,-1.6575,-1.4457,1.5373,0.15233,0.02,0.76,0
0.068782,-0.011655,0.99097,-0.41477,-2.1713,-1.7668,-0.06971,0,0,1.7576,-0.52586,0,-0.18124,0,0,0.19547,0.067936,0,0.20776,-0.41201,-2.1741,-1.7668,-2.2691,-1.4509,1.5978,0.16452,0.04,0.76,0
0.10437,-0.012043,0.98745,-0.3452,-1.2985,-1.0574,-0.064669,0,0,1.143,-0.54856,0,-0.61307,0,0,0.16251,0.046597,0,0.17244,-0.33207,-1.3116,-1.0574,-12.286,-0.90035,0.88353,0.085532,0.06,0.76,0
0.1145,-0.029434,0.96658,-0.30477,-0.47423,-0.37178,-0.051011,0,0,0.60979,-0.93226,0,-0.92839,0,0,0.14518,0.012183,0,0.14575,-0.2906,-0.4884,-0.37178,-15.525,-0.3836,0.17221,-7.9819e-05,0.08,0.76,0
0.12876,-0.042459,0.9468,-0.28545,-0.49687,-0.36995,-0.038012,0,0,0.76894,-1.1549,0,-0.69182,0,0,0.13768,0.0097181,0,0.13806,-0.27883,-0.50349,-0.36995,-9.8894,-0.38409,0.19572,-0.00012321,0.1,0.76,0
0.14526,-0.051374,0.92803,-0.27258,-0.50729,-0.36653,-0.027283,0,0,0.85503,-1.2809,0,-0.49655,0,0,0.13123,0.0053879,0,0.13136,-0.26945,-0.51042,-0.36653,-6.5438,-0.38213,0.21,-0.00015635,0.12,0.76,0
0.16296,-0.057277,0.91005,-0.26365,-0.51162,-0.36259,-0.019582,0,0,0.90033,-1.3562,0,-0.3564,0,0,0.1263,0.00060693,0,0.12631,-0.26212,-0.51316,-0.36259,-4.4876,-0.37929,0.21885,-0.00018161,0.14,0.76,0
0.18127,-0.061004,0.89266,-0.25692,-0.51205,-0.35822,-0.01374,0,0,0.92176,-1.3999,0,-0.25007,0,0,0.1228,-0.0040504,0,0.12286,-0.25618,-0.51279,-0.35822,-3.0738,-0.37573,0.22378,-0.00019898,0.16,0.76,0
0.19983,-0.063032,0.87567,-0.25164,-0.5094,-0.35341,-0.0088244,0,0,0.92612,-1.4196,0,-0.1606,0,0,0.12044,-0.0084602,0,0.12072,-0.25133,-0.50971,-0.35341,-1.9584,-0.37148,0.22539,-0.00020813,0.18,0.76,0
0.21832,-0.063577,0.85894,-0.24754,-0.50423,-0.34823,-0.0042002,0,0,0.91635,-1.4195,0,-0.076444,0,0,0.11904,-0.012663,0,0.1197,-0.24747,-0.50429,-0.34823,-0.9372,-0.36667,0.22413,-0.00020965,0.2,0.76,0
0.23648,-0.062696,0.84234,-0.24447,-0.49674,-0.3427,0.00061785,0,0,0.89386,-1.4018,0,0.011245,0,0,0.11854,-0.016755,0,0.11971,-0.24447,-0.49674,-0.3427,0.14033,-0.3613,0.22025,-0.00020413,0.22,0.76,0
0.25407,-0.0603,0.82575,-0.24245,-0.48692,-0.33678,0.0061072,0,0,0.85837,-1.3663,0,0.11115,0,0,0.11898,-0.020834,0,0.12078,-0.2423,-0.48708,-0.33678,1.4301,-0.35538,0.21381,-0.00019214,0.24,0.76,0
0.27082,-0.056162,0.80902,-0.24163,-0.47444,-0.33039,0.012851,0,0,0.80777,-1.3108,0,0.23389,0,0,0.12053,-0.024954,0,0.12308,-0.24092,-0.47514,-0.33039,3.15,-0.34882,0.20472,-0.00017413,0.26,0.76,0
0.28639,-0.049854,0.792,-0.24267,-0.45865,-0.32354,0.021597,0,0,0.73593,-1.2295,0,0.39306,0,0,0.12342,-0.029024,0,0.12679,-0.24053,-0.46079,-0.32354,5.6545,-0.34162,0.19267,-0.00015102,0.28,0.76,0
0.30026,-0.040718,0.77447,-0.24694,-0.43766,-0.31602,0.033088,0,0,0.6286,-1.1069,0,0.6022,0,0,0.12776,-0.032549,0,0.13186,-0.24136,-0.44323,-0.31602,9.5681,-0.33354,0.17679,-0.00012283,0.3,0.76,0
0.31153,-0.028015,0.75623,-0.25618,-0.40673,-0.30691,0.046271,0,0,0.46157,-0.90839,0,0.84213,0,0,0.13309,-0.034355,0,0.13749,-0.2431,-0.41981,-0.30691,15.79,-0.32327,0.155,-8.7836e-05,0.32,0.76,0
0.31872,-0.011793,0.7372,-0.29446,-1.0998,-0.83952,0.064099,0,0,0.86265,-0.59204,0,0.587,0,0,0.14546,-0.13492,0,0.21133,-0.28123,-1.113,-0.83952,12.876,-0.74458,0.73732,0.038689,0.34,0.76,0
0.34603,-0.011324,0.7341,-0.3273,-1.7177,-1.3476,0.08739,0,0,1.3264,-0.48115,0,0.22721,0,0,0.16899,-0.227,0,0.28329,-0.32183,-1.7232,-1.3476,3.5823,-1.1309,1.2564,0.072012,0.36,0.76,0
0.37178,-0.0099162,0.73044,-0.34693,-1.578,-1.3079,0.088781,0,0,1.2493,-0.35111,0,0.23083,0,0,0.19155,-0.20991,0,0.2842,-0.34057,-1.5844,-1.3079,4.1037,-1.0776,1.1312,0.059643,0.38,0.76,0
0.39601,-0.0088693,0.72644,-0.3625,-1.4552,-1.2717,0.060762,0,0,1.182,-0.23847,0,0.15798,0,0,0.20387,-0.19325,0,0.28087,-0.35913,-1.4586,-1.2717,3.1731,-1.0298,1.0189,0.048236,0.4,0.76,0
0.41906,-0.0093292,0.72229,-0.3426,-0.83111,-0.76485,0.025694,0,0,0.38512,-0.15075,0,0.18028,0,0,0.20837,-0.10521,0,0.24411,-0.3259,-0.84781,-0.76485,33.841,-0.64619,0.49821,0.021021,0.42,0.76,0
0.41141,-0.0064093,0.69301,-0.33615,-0.31196,-0.29344,0.011005,0,0,-0.38869,-0.1686,0,0.20029,0,0,0.20858,-0.022014,0,0.20974,-0.3077,-0.34041,-0.29344,68.849,-0.31385,0.041709,-2.3096e-06,0.44,0.76,0
0.40351,-0.0042435,0.66388,-0.33007,-0.30729,-0.28605,0.0076785,0,0,-0.40059,-0.19331,0,0.13975,0,0,0.20714,-0.018781,0,0.20799,-0.30495,-0.33242,-0.28605,73.006,-0.3078,0.040384,-1.0611e-06,0.46,0.76,0
0.39539,-0.0026105,0.63501,-0.32408,-0.30255,-0.2787,0.0054667,0,0,-0.41287,-0.21702,0,0.099494,0,0,0.20506,-0.016394,0,0.20571,-0.30124,-0.32538,-0.2787,76.535,-0.30178,0.040433,-2.0157e-07,0.48,0.76,0
0.38699,-0.0013555,0.60647,-0.31856,-0.29735,-0.27141,0.0039569,0,0,-0.42903,-0.23605,0,0.072015,0,0,0.20267,-0.014655,0,0.2032,-0.29664,-0.31927,-0.27141,79.768,-0.29577,0.041469,3.4278e-07,0.5,0.76,0
0.37823,-0.0003836,0.57827,-0.31365,-0.29156,-0.26417,0.0028666,0,0,-0.45022,-0.24924,0,0.052172,0,0,0.20021,-0.013395,0,0.20066,-0.29119,-0.31401,-0.26417,82.724,-0.28979,0.043215,6.0321e-07,0.52,0.76,0
0.36898,0.00036125,0.55041,-0.30935,-0.28521,-0.257,0.0020322,0,0,-0.47638,-0.25676,0,0.036986,0,0,0.19783,-0.012474,0,0.19823,-0.28504,-0.30952,-0.257,85.22,-0.28385,0.045519,5.6871e-07,0.54,0.76,0
0.35917,0.00091437,0.52287,-0.30561,-0.2784,-0.2499,0.0013712,0,0,-0.50694,-0.25937,0,0.024956,0,0,0.19564,-0.011786,0,0.196,-0.27833,-0.30567,-0.2499,87.122,-0.27797,0.048307,1.9582e-07,0.56,0.76,0
0.34871,0.0013023,0.49563,-0.30235,-0.27124,-0.24288,0.00084781,0,0,-0.54117,-0.25804,0,0.01543,0,0,0.1937,-0.011253,0,0.19402,-0.27121,-0.30237,-0.24288,88.44,-0.27215,0.051541,-5.7789e-07,0.58,0.76,0
0.33752,0.0015492,0.46864,-0.29951,-0.26383,-0.23595,0.00044787,0,0,-0.57839,-0.25369,0,0.0081513,0,0,0.19203,-0.010821,0,0.19233,-0.26382,-0.29951,-0.23595,89.281,-0.26643,0.055188,-1.8227e-06,0.6,0.76,0
0.32557,0.0016794,0.44186,-0.29702,-0.25626,-0.22911,0.00016428,0,0,-0.61802,-0.2471,0,0.0029898,0,0,0.19065,-0.010454,0,0.19093,-0.25626,-0.29702,-0.22911,89.769,-0.2608,0.059208,-3.6107e-06,0.62,0.76,0
0.3128,0.0017173,0.41526,-0.29485,-0.24862,-0.22236,-1.0419e-05,0,0,-0.65963,-0.23892,0,-0.00018963,0,0,0.18955,-0.010129,0,0.18982,-0.24862,-0.29485,-0.22236,-89.987,-0.25528,0.063565,-6.0134e-06,0.64,0.76,0
0.29918,0.0016868,0.38879,-0.29295,-0.24095,-0.21571,-8.6603e-05,0,0,-0.70288,-0.22967,0,-0.0015762,0,0,0.18874,-0.0098323,0,0.189,-0.24095,-0.29295,-0.21571,-89.905,-0.24987,0.068216,-9.1021e-06,0.66,0.76,0
0.28469,0.0016102,0.36241,-0.2913,-0.2333,-0.20915,-7.7962e-05,0,0,-0.74753,-0.21976,0,-0.0014189,0,0,0.1882,-0.0095552,0,0.18844,-0.2333,-0.2913,-0.20915,-89.923,-0.24459,0.073126,-1.2948e-05,0.68,0.76,0
0.26928,0.0015075,0.33609,-0.28988,-0.22572,-0.20269,-8.3854e-07,0,0,-0.79342,-0.20952,0,-1.5261e-05,0,0,0.18793,-0.0092925,0,0.18816,-0.22572,-0.28988,-0.20269,-89.999,-0.23943,0.07826,-1.7623e-05,0.7,0.76,0
0.25295,0.0013954,0.30979,-0.28868,-0.21822,-0.19632,0.00012673,0,0,-0.84041,-0.19924,0,0.0023064,0,0,0.18793,-0.0090392,0,0.18815,-0.21822,-0.28868,-0.19632,89.897,-0.23441,0.083584,-2.3197e-05,0.72,0.76,0
0.23567,0.0012874,0.28347,-0.28767,-0.21084,-0.19005,0.00028605,0,0,-0.88837,-0.18917,0,0.005206,0,0,0.18819,-0.0087892,0,0.18839,-0.21083,-0.28767,-0.19005,89.787,-0.22952,0.089069,-2.9735e-05,0.74,0.76,0
0.21742,0.0011941,0.2571,-0.28685,-0.20359,-0.18386,0.00045896,0,0,-0.93719,-0.17957,0,0.008353,0,0,0.18871,-0.0085332,0,0.1889,-0.20359,-0.28685,-0.18386,89.684,-0.22477,0.09468,-3.729e-05,0.76,0.76,0
0.19818,0.0011233,0.23063,-0.28619,-0.19652,-0.17776,0.00062932,0,0,-0.98672,-0.17068,0,0.011454,0,0,0.1895,-0.0082571,0,0.18968,-0.19651,-0.28619,-0.17776,89.598,-0.22015,0.10038,-4.59e-05,0.78,0.76,0
0.17795,0.0010816,0.20404,-0.28567,-0.18963,-0.17174,0.00078492,0,0,-1.0368,-0.16279,0,0.014286,0,0,0.19053,-0.0079394,0,0.1907,-0.18962,-0.28568,-0.17174,89.532,-0.21568,0.10613,-5.5573e-05,0.8,0.76,0
0.15671,0.0010753,0.17728,-0.28526,-0.18295,-0.16579,0.0009197,0,0,-1.0872,-0.15614,0,0.016739,0,0,0.1918,-0.00755,0,0.19195,-0.18294,-0.28527,-0.16579,89.485,-0.21133,0.1119,-6.6293e-05,0.82,0.76,0
0.13446,0.0011131,0.15033,-0.28493,-0.17649,-0.1599,0.0010354,0,0,-1.1377,-0.15096,0,0.018844,0,0,0.19326,-0.0070494,0,0.19339,-0.17648,-0.28494,-0.1599,89.453,-0.20711,0.11763,-7.8017e-05,0.84,0.76,0
0.1112,0.0012073,0.12317,-0.28464,-0.17026,-0.15407,0.0011412,0,0,-1.1882,-0.14738,0,0.020769,0,0,0.19486,-0.006391,0,0.19496,-0.17025,-0.28465,-0.15407,89.428,-0.20299,0.1233,-9.0696e-05,0.86,0.76,0
0.08693,0.0013747,0.095775,-0.28437,-0.16424,-0.14827,0.0012497,0,0,-1.2386,-0.14535,0,0.022745,0,0,0.19648,-0.0055267,0,0.19656,-0.16423,-0.28439,-0.14827,89.404,-0.19896,0.12888,-0.00010429,0.88,0.76,0
0.061656,0.0016357,0.068154,-0.28409,-0.15839,-0.14248,0.0013694,0,0,-1.2887,-0.14474,0,0.024923,0,0,0.19802,-0.0044168,0,0.19807,-0.15837,-0.28411,-0.14248,89.376,-0.19499,0.13439,-0.0001188,0.9,0.76,0
0.035382,0.0020101,0.04033,-0.28378,-0.15267,-0.1367,0.0014951,0,0,-1.3385,-0.14534,0,0.027212,0,0,0.19932,-0.0030431,0,0.19934,-0.15265,-0.2838,-0.1367,89.347,-0.19105,0.13981,-0.00013421,0.92,0.76,0
0.008117,0.0025105,0.012346,-0.28365,-0.22398,-0.15934,0.001312,0,0,-0.74585,-0.14705,0,0.01458,0,0,0.20123,-0.005687,0,0.20136,-0.21676,-0.29086,-0.15934,47.056,-0.22232,0.12457,-4.1752e-05,0.94,0.76,0
0.0055483,0.0025517,0.0082942,-0.28315,-0.29498,-0.18174,0.00057525,0,0,-0.13184,-0.14722,0,0.0014957,0,0,0.20445,-0.007574,0,0.20459,-0.28312,-0.29501,-0.18174,2.7772,-0.25329,0.10783,6.1754e-05,0.96,0.76,0
0.0028433,0.002562,0.0041679,-0.28261,-0.28988,-0.17592,6.6975e-05,0,0,-0.13871,-0.14815,0,0.00017413,0,0,0.20736,-0.0040976,0,0.20739,-0.28261,-0.28988,-0.17592,0.52799,-0.24947,0.11051,6.8306e-05,0.98,0.76,0
0,0.0025628,0,-0.27712,-0.28208,-0.16776,1.597e-05,0,0,-0.14217,-0.14862,0,4.1523e-05,0,0,0.20839,-3.4694e-18,0,0.20839,-0.27712,-0.28208,-0.16776,0.18427,-0.24232,0.11192,7.153e-05,1,0.76,0
0,-0.018158,1,-0.56104,-2.0353,-1.7789,-0.024627,0,0,1.5832,-0.33334,0,-0.06403,0,0,0.28596,6.3491e-16,0,0.28486,-0.56063,-2.0357,-1.7789,-0.95674,-1.4584,1.3649,0.11517,0,0.78,0
0.031665,-0.019439,0.99428,-0.51213,-2.0433,-1.7609,-0.088853,0,0,1.6234,-0.3671,0,-0.23102,0,0,0.27027,0.060721,0,0.27603,-0.50699,-2.0484,-1.7609,-3.3101,-1.4388,1.4197,0.12688,0.02,0.78,0
0.064936,-0.022049,0.98919,-0.46444,-2.1641,-1.7777,-0.14047,0,0,1.7073,-0.50225,0,-0.36522,0,0,0.22471,0.12464,0,0.25844,-0.45291,-2.1756,-1.7777,-4.6928,-1.4688,1.5622,0.15384,0.04,0.78,0
0.099957,-0.023176,0.98529,-0.38011,-1.3498,-1.082,-0.10816,0,0,1.1343,-0.60933,0,-0.95569,0,0,0.17247,0.08593,0,0.19997,-0.35327,-1.3767,-1.082,-15.634,-0.93732,0.91613,0.083163,0.06,0.78,0
0.11031,-0.049027,0.96428,-0.31095,-0.49705,-0.38016,-0.074518,0,0,0.62973,-1.0637,0,-1.3562,0,0,0.14422,0.023496,0,0.14628,-0.28479,-0.52321,-0.38016,-19.345,-0.39605,0.20785,-0.00015595,0.08,0.78,0
0.12515,-0.066338,0.94491,-0.28794,-0.51218,-0.37502,-0.052392,0,0,0.79244,-1.2481,0,-0.95353,0,0,0.13357,0.017934,0,0.13482,-0.27631,-0.52382,-0.37502,-12.523,-0.39172,0.21581,-0.00017645,0.1,0.78,0
0.14201,-0.077511,0.92688,-0.27443,-0.51736,-0.36995,-0.037372,0,0,0.86923,-1.3414,0,-0.68017,0,0,0.1258,0.010942,0,0.12627,-0.26881,-0.52298,-0.36995,-8.5511,-0.38724,0.22164,-0.00019279,0.12,0.78,0
0.15992,-0.084766,0.90969,-0.26517,-0.5192,-0.36527,-0.027115,0,0,0.91086,-1.4008,0,-0.49349,0,0,0.12088,0.0044146,0,0.12095,-0.26231,-0.52206,-0.36527,-6.0253,-0.38321,0.22655,-0.00020888,0.14,0.78,0
0.17844,-0.089297,0.89303,-0.2579,-0.51797,-0.36034,-0.019516,0,0,0.93215,-1.4344,0,-0.35519,0,0,0.11771,-0.0014555,0,0.1177,-0.25645,-0.51942,-0.36034,-4.2678,-0.37874,0.22941,-0.00021948,0.16,0.78,0
0.1972,-0.091683,0.87673,-0.25237,-0.51453,-0.35532,-0.013312,0,0,0.93683,-1.4489,0,-0.24229,0,0,0.11567,-0.0067888,0,0.11585,-0.2517,-0.51521,-0.35532,-2.8995,-0.37407,0.22994,-0.00022462,0.18,0.78,0
0.21591,-0.092225,0.86065,-0.24807,-0.5092,-0.35013,-0.0077108,0,0,0.92875,-1.4475,0,-0.14034,0,0,0.11446,-0.011782,0,0.11505,-0.24784,-0.50942,-0.35013,-1.6899,-0.36913,0.22832,-0.00022419,0.2,0.78,0
0.23435,-0.091014,0.84468,-0.24475,-0.50212,-0.34473,-0.0020242,0,0,0.90979,-1.4322,0,-0.03684,0,0,0.114,-0.01665,0,0.1152,-0.24474,-0.50214,-0.34473,-0.4506,-0.36387,0.22475,-0.00021857,0.22,0.78,0
0.25231,-0.08797,0.82873,-0.24239,-0.49332,-0.3391,0.0044289,0,0,0.88008,-1.4034,0,0.080606,0,0,0.11435,-0.02161,0,0.11636,-0.24231,-0.4934,-0.3391,1.0109,-0.35827,0.21934,-0.00020825,0.24,0.78,0
0.26955,-0.08282,0.81266,-0.24121,-0.48265,-0.33325,0.012419,0,0,0.83758,-1.3595,0,0.22602,0,0,0.11576,-0.026874,0,0.11882,-0.24057,-0.48329,-0.33325,2.9367,-0.35237,0.21214,-0.00019401,0.26,0.78,0
0.28581,-0.075059,0.79631,-0.24138,-0.4694,-0.32699,0.023087,0,0,0.77905,-1.2959,0,0.42018,0,0,0.1188,-0.03259,0,0.12318,-0.23907,-0.47171,-0.32699,5.7239,-0.34592,0.20347,-0.00017643,0.28,0.78,0
0.30072,-0.063708,0.7794,-0.24509,-0.45319,-0.32083,0.038042,0,0,0.68918,-1.2045,0,0.69237,0,0,0.12443,-0.038605,0,0.13031,-0.23836,-0.45992,-0.32083,10.042,-0.3397,0.19396,-0.00015946,0.3,0.78,0
0.31338,-0.047158,0.76147,-0.25591,-0.42746,-0.31379,0.058543,0,0,0.52674,-1.0344,0,1.0655,0,0,0.13249,-0.043096,0,0.13942,-0.23784,-0.44554,-0.31379,17.157,-0.33239,0.18202,-0.00013794,0.32,0.78,0
0.32178,-0.024015,0.7423,-0.31324,-1.1531,-0.86408,0.0893,0,0,0.89631,-0.65757,0,0.78382,0,0,0.15259,-0.16294,0,0.23713,-0.29302,-1.1733,-0.86408,14.48,-0.77681,0.77634,0.038889,0.34,0.78,0
0.34923,-0.021005,0.73894,-0.34437,-1.7253,-1.3598,0.12799,0,0,1.3201,-0.47509,0,0.33277,0,0,0.18736,-0.26585,0,0.32557,-0.33261,-1.737,-1.3598,5.2508,-1.1432,1.259,0.072317,0.36,0.78,0
0.37459,-0.01664,0.73481,-0.36552,-1.533,-1.3044,0.10722,0,0,1.2205,-0.29723,0,0.27877,0,0,0.21451,-0.22137,0,0.3079,-0.35575,-1.5428,-1.3044,5.204,-1.0676,1.0876,0.055519,0.38,0.78,0
0.39805,-0.013164,0.73035,-0.38763,-1.4147,-1.2711,0.061755,0,0,1.1484,-0.18673,0,0.16056,0,0,0.22076,-0.19271,0,0.29291,-0.38393,-1.4184,-1.2711,3.4286,-1.0245,0.96923,0.043143,0.4,0.78,0
0.42053,-0.01173,0.72598,-0.3509,-0.79846,-0.75965,0.019215,0,0,0.34763,-0.088284,0,0.10489,0,0,0.21651,-0.10238,0,0.24923,-0.33103,-0.81833,-0.75965,40.806,-0.63634,0.47346,0.018481,0.42,0.78,0
0.41195,-0.0093654,0.69601,-0.34104,-0.30862,-0.29433,0.0037478,0,0,-0.42508,-0.13004,0,0.06821,0,0,0.21286,-0.020159,0,0.21381,-0.30819,-0.34147,-0.29433,83.491,-0.31466,0.041963,-2.4459e-06,0.44,0.78,0
0.40352,-0.0078328,0.66637,-0.33293,-0.30533,-0.28667,0.00089612,0,0,-0.42089,-0.16978,0,0.016309,0,0,0.21025,-0.016289,0,0.21088,-0.3053,-0.33295,-0.28667,88.142,-0.30831,0.040334,-1.1121e-06,0.46,0.78,0
0.39512,-0.0067606,0.63714,-0.32574,-0.3014,-0.27916,-0.00056078,0,0,-0.42389,-0.20233,0,-0.010206,0,0,0.20726,-0.013617,0,0.20771,-0.30138,-0.32576,-0.27916,-88.681,-0.3021,0.040366,-2.6983e-07,0.48,0.78,0
0.38657,-0.0059386,0.60834,-0.31954,-0.29662,-0.27175,-0.0012731,0,0,-0.43488,-0.22626,0,-0.023171,0,0,0.20419,-0.011841,0,0.20454,-0.29655,-0.31961,-0.27175,-86.831,-0.29597,0.041457,2.2845e-07,0.5,0.78,0
0.37772,-0.005262,0.57997,-0.31424,-0.29104,-0.26444,-0.0016277,0,0,-0.4532,-0.2421,0,-0.029624,0,0,0.20125,-0.010709,0,0.20153,-0.29093,-0.31435,-0.26444,-86.006,-0.28991,0.043256,4.4096e-07,0.52,0.78,0
0.36844,-0.0046878,0.55199,-0.3097,-0.28481,-0.25721,-0.0018254,0,0,-0.47767,-0.25115,0,-0.033223,0,0,0.19853,-0.010018,0,0.19879,-0.28467,-0.30983,-0.25721,-85.828,-0.28391,0.045589,3.6918e-07,0.54,0.78,0
0.35862,-0.004202,0.52438,-0.3058,-0.27808,-0.25007,-0.0019498,0,0,-0.50707,-0.25486,0,-0.035486,0,0,0.19612,-0.0096144,0,0.19636,-0.27794,-0.30593,-0.25007,-85.996,-0.27798,0.048375,-2.1433e-08,0.56,0.78,0
0.34816,-0.0038003,0.49708,-0.30242,-0.271,-0.24304,-0.0020225,0,0,-0.54036,-0.25447,0,-0.03681,0,0,0.19404,-0.0093885,0,0.19426,-0.27087,-0.30255,-0.24304,-86.332,-0.27215,0.051573,-7.86e-07,0.58,0.78,0
0.337,-0.0034777,0.47005,-0.29947,-0.26368,-0.23609,-0.0020401,0,0,-0.57675,-0.251,0,-0.037129,0,0,0.19228,-0.0092665,0,0.19251,-0.26356,-0.29959,-0.23609,-86.749,-0.26642,0.055154,-1.9902e-06,0.6,0.78,0
0.32509,-0.0032262,0.44324,-0.2969,-0.25621,-0.22925,-0.0019932,0,0,-0.61562,-0.24527,0,-0.036276,0,0,0.19085,-0.0092021,0,0.19107,-0.25611,-0.297,-0.22925,-87.203,-0.26079,0.05909,-3.705e-06,0.62,0.78,0
0.31238,-0.0030341,0.41661,-0.29466,-0.24865,-0.22251,-0.0018756,0,0,-0.65656,-0.23789,0,-0.034135,0,0,0.18972,-0.0091687,0,0.18995,-0.24857,-0.29473,-0.22251,-87.669,-0.25527,0.063352,-6.0051e-06,0.64,0.78,0
0.29883,-0.0028876,0.39012,-0.2927,-0.24106,-0.21586,-0.0016871,0,0,-0.69926,-0.22934,0,-0.030705,0,0,0.18889,-0.0091527,0,0.18911,-0.24101,-0.29276,-0.21586,-88.131,-0.24988,0.06791,-8.9681e-06,0.66,0.78,0
0.28441,-0.0027725,0.36372,-0.29101,-0.23349,-0.20931,-0.0014336,0,0,-0.7435,-0.22001,0,-0.026092,0,0,0.18834,-0.0091479,0,0.18856,-0.23345,-0.29105,-0.20931,-88.573,-0.2446,0.072738,-1.2675e-05,0.68,0.78,0
0.26909,-0.0026753,0.33738,-0.28957,-0.22595,-0.20286,-0.0011263,0,0,-0.78913,-0.2102,0,-0.020498,0,0,0.18806,-0.0091524,0,0.18828,-0.22593,-0.28959,-0.20286,-88.986,-0.23946,0.077809,-1.7211e-05,0.7,0.78,0
0.25284,-0.0025848,0.31106,-0.28837,-0.21849,-0.1965,-0.00078054,0,0,-0.83603,-0.20017,0,-0.014206,0,0,0.18805,-0.0091651,0,0.18827,-0.21848,-0.28838,-0.1965,-89.36,-0.23445,0.083098,-2.2661e-05,0.72,0.78,0
0.23564,-0.0024927,0.28473,-0.28739,-0.21113,-0.19023,-0.00041505,0,0,-0.88412,-0.19017,0,-0.0075539,0,0,0.18831,-0.0091831,0,0.18853,-0.21112,-0.28739,-0.19023,-89.688,-0.22958,0.088579,-2.9109e-05,0.74,0.78,0
0.21748,-0.0023934,0.25834,-0.28661,-0.20388,-0.18405,-5.0584e-05,0,0,-0.93329,-0.18043,0,-0.00092063,0,0,0.18885,-0.0091986,0,0.18907,-0.20388,-0.28661,-0.18405,-89.965,-0.22485,0.094223,-3.6632e-05,0.76,0.78,0
0.19831,-0.0022845,0.23185,-0.28603,-0.19678,-0.17797,0.0002916,0,0,-0.9834,-0.17122,0,0.0053071,0,0,0.18967,-0.009196,0,0.18989,-0.19678,-0.28603,-0.17797,89.813,-0.22026,0.099996,-4.5286e-05,0.78,0.78,0
0.17814,-0.0021652,0.20523,-0.28562,-0.18985,-0.17196,0.00059236,0,0,-1.0343,-0.16284,0,0.010781,0,0,0.19077,-0.0091472,0,0.19099,-0.18985,-0.28562,-0.17196,89.646,-0.21581,0.10586,-5.5101e-05,0.8,0.78,0
0.15694,-0.0020348,0.17844,-0.28534,-0.18313,-0.16603,0.00083843,0,0,-1.0857,-0.1556,0,0.01526,0,0,0.19215,-0.0090088,0,0.19236,-0.18312,-0.28535,-0.16603,89.53,-0.2115,0.11175,-6.6065e-05,0.82,0.78,0
0.13471,-0.0018899,0.15143,-0.28516,-0.17663,-0.16017,0.0010265,0,0,-1.1374,-0.14981,0,0.018682,0,0,0.19377,-0.0087183,0,0.19397,-0.17662,-0.28517,-0.16017,89.458,-0.20732,0.11764,-7.8123e-05,0.84,0.78,0
0.11145,-0.0017216,0.12418,-0.28503,-0.17037,-0.15436,0.0011651,0,0,-1.1891,-0.14572,0,0.021205,0,0,0.19559,-0.0081963,0,0.19577,-0.17036,-0.28504,-0.15436,89.418,-0.20325,0.12346,-9.1198e-05,0.86,0.78,0
0.087148,-0.001513,0.096665,-0.28491,-0.16434,-0.14858,0.0012709,0,0,-1.2406,-0.14336,0,0.02313,0,0,0.19751,-0.0073535,0,0.19765,-0.16432,-0.28492,-0.14858,89.396,-0.19928,0.12919,-0.00010522,0.88,0.78,0
0.061823,-0.0012403,0.068878,-0.28476,-0.15848,-0.14281,0.0013565,0,0,-1.2917,-0.14258,0,0.024689,0,0,0.19938,-0.0061085,0,0.19947,-0.15846,-0.28477,-0.14281,89.385,-0.19535,0.13482,-0.00012015,0.9,0.78,0
0.035479,-0.00087868,0.04084,-0.28453,-0.15274,-0.13702,0.0014162,0,0,-1.3424,-0.14306,0,0.025775,0,0,0.20101,-0.0044125,0,0.20106,-0.15272,-0.28455,-0.13702,89.384,-0.19143,0.14034,-0.00013599,0.92,0.78,0
0.0081262,-0.00041262,0.012595,-0.28418,-0.22287,-0.15931,0.00094675,0,0,-0.74847,-0.14459,0,0.01245,0,0,0.2036,-0.0091028,0,0.20393,-0.21696,-0.29009,-0.15931,46.214,-0.22212,0.12443,-4.2863e-05,0.94,0.78,0
0.0055405,-0.00038079,0.0084858,-0.28347,-0.29385,-0.18168,-0.00026803,0,0,-0.13232,-0.14582,0,-0.00069687,0,0,0.20807,-0.012382,0,0.20845,-0.28346,-0.29386,-0.18168,-1.4772,-0.253,0.10736,6.1541e-05,0.96,0.78,0
0.0028334,-0.00039865,0.004272,-0.28267,-0.29018,-0.17613,-0.00066248,0,0,-0.13851,-0.14826,0,-0.0017224,0,0,0.21214,-0.0067753,0,0.21224,-0.28262,-0.29023,-0.17613,-5.0083,-0.24966,0.11049,6.8178e-05,0.98,0.78,0
0,-0.00041139,0,-0.27689,-0.28283,-0.16792,-0.00024497,0,0,-0.14167,-0.14938,0,-0.00063692,0,0,0.2136,-3.0358e-18,0,0.21358,-0.27688,-0.28284,-0.16792,-2.3603,-0.24255,0.11206,7.1591e-05,1,0.78,0
0,-0.023568,1,-0.68456,-1.945,-1.7889,-0.03506,0,0,1.4356,-0.20294,0,-0.091157,0,0,0.35803,-2.7409e-16,0,0.35661,-0.68359,-1.946,-1.7889,-1.5921,-1.4728,1.1916,0.081831,0,0.8,0
0.028712,-0.025391,0.99284,-0.66481,-1.954,-1.7785,-0.12469,0,0,1.4478,-0.22819,0,-0.3242,0,0,0.35044,0.07857,0,0.35742,-0.65286,-1.966,-1.7785,-5.4741,-1.4658,1.2301,0.088165,0.02,0.8,0
0.057911,-0.031745,0.98598,-0.49153,-1.9889,-1.7301,-0.22462,0,0,1.6101,-0.33639,0,-0.58401,0,0,0.28512,0.17663,0,0.33222,-0.45856,-2.0218,-1.7301,-8.3504,-1.4035,1.4398,0.13231,0.04,0.8,0
0.093117,-0.036416,0.98143,-0.43775,-1.5031,-1.1431,-0.22033,0,0,1.1376,-0.8191,0,-1.5818,0,0,0.19026,0.19618,0,0.28786,-0.37621,-1.5647,-1.1431,-19.471,-1.028,1.0475,0.08915,0.06,0.8,0
0.10342,-0.071984,0.96,-0.32546,-0.5402,-0.39684,-0.1054,0,0,0.64958,-1.3046,0,-1.9182,0,0,0.14164,0.039776,0,0.14729,-0.28237,-0.58329,-0.39684,-22.234,-0.42083,0.26307,-0.00037419,0.08,0.8,0
0.1191,-0.092384,0.94178,-0.29088,-0.53306,-0.38172,-0.069041,0,0,0.82667,-1.3772,0,-1.2566,0,0,0.12512,0.02618,0,0.12779,-0.27258,-0.55136,-0.38172,-14.845,-0.40188,0.24332,-0.00027023,0.1,0.8,0
0.13648,-0.10503,0.92496,-0.27589,-0.53207,-0.37452,-0.048048,0,0,0.8976,-1.4336,0,-0.87447,0,0,0.11771,0.015792,0,0.11872,-0.26717,-0.54078,-0.37452,-10.281,-0.39416,0.23878,-0.00025349,0.12,0.8,0
0.15501,-0.11331,0.90882,-0.265,-0.52898,-0.36802,-0.034675,0,0,0.9375,-1.4647,0,-0.63108,0,0,0.11391,0.0075038,0,0.11412,-0.26052,-0.53346,-0.36802,-7.3598,-0.38733,0.23813,-0.00024809,0.14,0.8,0
0.17398,-0.11838,0.89307,-0.25799,-0.52524,-0.36255,-0.025051,0,0,0.95154,-1.4805,0,-0.45593,0,0,0.11159,0.00058968,0,0.11157,-0.25566,-0.52757,-0.36255,-5.309,-0.38193,0.23727,-0.00024707,0.16,0.8,0
0.19307,-0.12099,0.87757,-0.25282,-0.52051,-0.35737,-0.01767,0,0,0.95137,-1.4846,0,-0.32159,0,0,0.11011,-0.0054598,0,0.11022,-0.25166,-0.52167,-0.35737,-3.7602,-0.3769,0.23567,-0.00024556,0.18,0.8,0
0.21204,-0.12148,0.86224,-0.24867,-0.51478,-0.35221,-0.011315,0,0,0.94222,-1.4794,0,-0.20593,0,0,0.10918,-0.011029,0,0.10971,-0.24819,-0.51526,-0.35221,-2.4304,-0.37189,0.23316,-0.00024194,0.2,0.8,0
0.23075,-0.11998,0.847,-0.24515,-0.50811,-0.34697,-0.0050308,0,0,0.92666,-1.4663,0,-0.091561,0,0,0.10871,-0.016453,0,0.10993,-0.24505,-0.5082,-0.34697,-1.0956,-0.36674,0.22982,-0.00023593,0.22,0.8,0
0.2491,-0.11644,0.8318,-0.24224,-0.50057,-0.34167,0.0021218,0,0,0.90483,-1.446,0,0.038617,0,0,0.10876,-0.022072,0,0.11095,-0.24222,-0.50059,-0.34167,0.47055,-0.36149,0.22572,-0.00022802,0.24,0.8,0
0.26695,-0.11054,0.81655,-0.24034,-0.49225,-0.33643,0.01128,0,0,0.87442,-1.418,0,0.20529,0,0,0.10955,-0.028285,0,0.11311,-0.23983,-0.49276,-0.33643,2.5587,-0.35634,0.22107,-0.00021943,0.26,0.8,0
0.28408,-0.10169,0.80112,-0.24074,-0.48337,-0.33168,0.02382,0,0,0.82752,-1.3804,0,0.43352,0,0,0.11169,-0.035621,0,0.11719,-0.23843,-0.48569,-0.33168,5.5543,-0.35193,0.21628,-0.00021317,0.28,0.8,0
0.30005,-0.088898,0.78527,-0.24354,-0.47248,-0.32699,0.04309,0,0,0.75936,-1.3239,0,0.78424,0,0,0.11725,-0.044804,0,0.12547,-0.2357,-0.48032,-0.32699,10.314,-0.34767,0.2141,-0.00021298,0.3,0.8,0
0.31445,-0.069391,0.76829,-0.26256,-0.46537,-0.32814,0.074493,0,0,0.59673,-1.2489,0,1.3558,0,0,0.13096,-0.056804,0,0.1429,-0.23814,-0.48979,-0.32814,18.151,-0.35202,0.22086,-0.00025986,0.32,0.8,0
0.32392,-0.038096,0.74861,-0.34774,-1.2704,-0.9132,0.15982,0,0,0.9379,-0.81251,0,1.1683,0,0,0.16711,-0.25273,0,0.31767,-0.30889,-1.3092,-0.9132,17.118,-0.84376,0.8751,0.040324,0.34,0.8,0
0.35197,-0.030327,0.74473,-0.34573,-1.6041,-1.3297,0.16695,0,0,1.2791,-0.35673,0,0.43407,0,0,0.23276,-0.28874,0,0.36843,-0.32395,-1.6259,-1.3297,7.4305,-1.0932,1.182,0.067196,0.36,0.8,0
0.37508,-0.021805,0.7393,-0.44274,-1.4885,-1.3187,0.10664,0,0,1.1387,-0.22079,0,0.27725,0,0,0.26469,-0.21623,0,0.34109,-0.43197,-1.4993,-1.3187,5.7634,-1.0833,0.98944,0.044214,0.38,0.8,0
0.39752,-0.016339,0.73415,-0.41845,-1.3733,-1.2717,0.043113,0,0,1.1092,-0.13215,0,0.1121,0,0,0.24608,-0.17727,0,0.30329,-0.41651,-1.3753,-1.2717,2.5799,-1.0212,0.9114,0.037194,0.4,0.8,0
0.41945,-0.012861,0.72945,-0.35964,-0.77136,-0.75613,0.0064063,0,0,0.31807,-0.034639,0,-0.012631,0,0,0.22735,-0.091629,0,0.25278,-0.33594,-0.79506,-0.75613,-42.176,-0.62904,0.45347,0.016146,0.42,0.8,0
0.41024,-0.011611,0.69866,-0.34404,-0.30616,-0.29487,-0.005629,0,0,-0.44743,-0.10279,0,-0.10245,0,0,0.21789,-0.016768,0,0.21853,-0.30534,-0.34486,-0.29487,-81.722,-0.31502,0.045659,-4.0346e-06,0.44,0.8,0
0.40155,-0.011035,0.66844,-0.33421,-0.30441,-0.28708,-0.0070585,0,0,-0.42893,-0.1577,0,-0.12846,0,0,0.21368,-0.012617,0,0.21406,-0.30282,-0.3358,-0.28708,-77.328,-0.30857,0.043066,-2.3314e-06,0.46,0.8,0
0.39309,-0.010704,0.63883,-0.32614,-0.30123,-0.27947,-0.007221,0,0,-0.4247,-0.19801,0,-0.13142,0,0,0.2095,-0.0099607,0,0.20975,-0.29929,-0.32809,-0.27947,-74.948,-0.30228,0.042338,-1.221e-06,0.48,0.8,0
0.38457,-0.010406,0.60978,-0.3195,-0.29674,-0.27198,-0.0068389,0,0,-0.43236,-0.22532,0,-0.12447,0,0,0.20558,-0.0083995,0,0.20576,-0.29485,-0.32139,-0.27198,-74.494,-0.29607,0.04283,-5.194e-07,0.5,0.8,0
0.37579,-0.010067,0.58127,-0.31397,-0.29123,-0.2646,-0.0063116,0,0,-0.44931,-0.24235,0,-0.11487,0,0,0.20203,-0.0075978,0,0.20218,-0.2896,-0.31561,-0.2646,-75.484,-0.28993,0.044178,-1.5245e-07,0.52,0.8,0
0.3666,-0.0096849,0.55321,-0.30932,-0.28499,-0.25732,-0.0058088,0,0,-0.47316,-0.25174,0,-0.10572,0,0,0.19892,-0.0072892,0,0.19906,-0.28367,-0.31063,-0.25732,-77.239,-0.28387,0.04617,-1.0092e-07,0.54,0.8,0
0.35686,-0.0092799,0.52557,-0.30534,-0.27824,-0.25015,-0.0053709,0,0,-0.50214,-0.25561,0,-0.09775,0,0,0.19627,-0.0072773,0,0.19641,-0.27722,-0.30636,-0.25015,-79.186,-0.27791,0.048687,-3.7962e-07,0.56,0.8,0
0.34651,-0.0088763,0.49826,-0.30189,-0.27117,-0.2431,-0.0049816,0,0,-0.53498,-0.25546,0,-0.090666,0,0,0.19404,-0.0074289,0,0.19419,-0.27038,-0.30267,-0.2431,-81.014,-0.27205,0.051656,-1.026e-06,0.58,0.8,0
0.33547,-0.0084909,0.47123,-0.29887,-0.26388,-0.23614,-0.0046089,0,0,-0.57084,-0.25238,0,-0.083882,0,0,0.19221,-0.0076601,0,0.19237,-0.26328,-0.29947,-0.23614,-82.622,-0.2663,0.055028,-2.0928e-06,0.6,0.8,0
0.32368,-0.0081314,0.44444,-0.29624,-0.25645,-0.2293,-0.0042228,0,0,-0.60914,-0.24712,0,-0.076856,0,0,0.19074,-0.007923,0,0.19091,-0.25601,-0.29668,-0.2293,-84.007,-0.26066,0.05877,-3.6438e-06,0.62,0.8,0
0.3111,-0.0077982,0.41783,-0.29393,-0.24896,-0.22256,-0.0038025,0,0,-0.64951,-0.24026,0,-0.069205,0,0,0.1896,-0.0081936,0,0.18978,-0.24864,-0.29425,-0.22256,-85.201,-0.25515,0.062851,-5.7516e-06,0.64,0.8,0
0.2977,-0.0074868,0.39135,-0.29192,-0.24143,-0.21591,-0.0033367,0,0,-0.69168,-0.23222,0,-0.060728,0,0,0.18876,-0.008463,0,0.18895,-0.24121,-0.29214,-0.21591,-86.235,-0.24976,0.067248,-8.4966e-06,0.66,0.8,0
0.28343,-0.0071901,0.36497,-0.29019,-0.23391,-0.20937,-0.0028233,0,0,-0.73547,-0.22333,0,-0.051384,0,0,0.1882,-0.0087315,0,0.1884,-0.23377,-0.29033,-0.20937,-87.135,-0.24449,0.071936,-1.1967e-05,0.68,0.8,0
0.26828,-0.0069004,0.33865,-0.28873,-0.22642,-0.20292,-0.0022678,0,0,-0.78079,-0.21385,0,-0.041273,0,0,0.18791,-0.0090034,0,0.18813,-0.22634,-0.28881,-0.20292,-87.918,-0.23936,0.076897,-1.6259e-05,0.7,0.8,0
0.2522,-0.0066114,0.31236,-0.28751,-0.21899,-0.19657,-0.001682,0,0,-0.82756,-0.204,0,-0.030612,0,0,0.1879,-0.0092842,0,0.18813,-0.21895,-0.28756,-0.19657,-88.595,-0.23436,0.082113,-2.1477e-05,0.72,0.8,0
0.23517,-0.0063192,0.28604,-0.28655,-0.21163,-0.19032,-0.0010835,0,0,-0.87572,-0.19397,0,-0.01972,0,0,0.18815,-0.0095768,0,0.1884,-0.21162,-0.28657,-0.19032,-89.172,-0.2295,0.087564,-2.7726e-05,0.74,0.8,0
0.21717,-0.0060231,0.25967,-0.28584,-0.20438,-0.18416,-0.00049499,0,0,-0.92525,-0.18396,0,-0.0090088,0,0,0.1887,-0.0098784,0,0.18896,-0.20437,-0.28584,-0.18416,-89.652,-0.22479,0.093231,-3.5115e-05,0.76,0.8,0
0.19816,-0.0057256,0.23321,-0.28535,-0.19724,-0.17809,5.6801e-05,0,0,-0.97606,-0.17422,0,0.0010338,0,0,0.18955,-0.010176,0,0.18982,-0.19724,-0.28535,-0.17809,89.963,-0.22023,0.099084,-4.3741e-05,0.78,0.8,0
0.17813,-0.0054319,0.2066,-0.28508,-0.19024,-0.17211,0.00054343,0,0,-1.028,-0.16501,0,0.0098905,0,0,0.19072,-0.010438,0,0.19101,-0.19024,-0.28508,-0.17211,89.672,-0.21581,0.10509,-5.3671e-05,0.8,0.8,0
0.15704,-0.0051486,0.1798,-0.28499,-0.18344,-0.16622,0.00093941,0,0,-1.0809,-0.15671,0,0.017097,0,0,0.19223,-0.010613,0,0.19253,-0.18343,-0.285,-0.16622,89.47,-0.21155,0.11119,-6.4926e-05,0.82,0.8,0
0.13489,-0.0048794,0.15277,-0.28505,-0.17685,-0.16039,0.0012293,0,0,-1.1343,-0.14974,0,0.022373,0,0,0.19408,-0.010615,0,0.19437,-0.17683,-0.28506,-0.16039,89.349,-0.20743,0.11731,-7.7458e-05,0.84,0.8,0
0.11167,-0.0046215,0.12546,-0.28518,-0.17051,-0.15463,0.0014144,0,0,-1.188,-0.14449,0,0.025743,0,0,0.19622,-0.010324,0,0.1965,-0.17049,-0.2852,-0.15463,89.293,-0.20344,0.1234,-9.1164e-05,0.86,0.8,0
0.087374,-0.0043599,0.097834,-0.28533,-0.16441,-0.1489,0.0015118,0,0,-1.2415,-0.14117,0,0.027515,0,0,0.19857,-0.009593,0,0.1988,-0.16439,-0.28535,-0.1489,89.284,-0.19955,0.1294,-0.00010593,0.88,0.8,0
0.062009,-0.0040676,0.069865,-0.28544,-0.15851,-0.14316,0.0015383,0,0,-1.2947,-0.13961,0,0.027997,0,0,0.20096,-0.0082719,0,0.20113,-0.15849,-0.28546,-0.14316,89.306,-0.1957,0.13528,-0.00012168,0.9,0.8,0
0.035586,-0.0037123,0.041565,-0.28542,-0.15268,-0.13737,0.0014827,0,0,-1.3473,-0.13935,0,0.026986,0,0,0.20315,-0.0062508,0,0.20325,-0.15267,-0.28544,-0.13737,89.36,-0.19183,0.14105,-0.00013841,0.92,0.8,0
0.0081171,-0.003273,0.012983,-0.28464,-0.22053,-0.15897,0.00045885,0,0,-0.75198,-0.14006,0,0.010478,0,0,0.20691,-0.014047,0,0.20767,-0.21686,-0.28831,-0.15897,43.684,-0.22138,0.12406,-4.4901e-05,0.94,0.8,0
0.0055064,-0.0032812,0.0087896,-0.28371,-0.29217,-0.18155,-0.001721,0,0,-0.1328,-0.1438,0,-0.0044746,0,0,0.2136,-0.019426,0,0.2145,-0.28337,-0.29251,-0.18155,-11.068,-0.25248,0.10668,6.0816e-05,0.96,0.8,0
0.002805,-0.0033685,0.0044389,-0.28251,-0.29141,-0.17662,-0.0019435,0,0,-0.13766,-0.14924,0,-0.0050532,0,0,0.21974,-0.010722,0,0.21998,-0.2821,-0.29182,-0.17662,-11.789,-0.25018,0.11067,6.7803e-05,0.98,0.8,0
0,-0.0034125,0,-0.27625,-0.28497,-0.16837,-0.00084571,0,0,-0.14025,-0.15159,0,-0.0021988,0,0,0.22194,-8.6736e-19,0,0.2219,-0.27617,-0.28506,-0.16837,-5.4872,-0.2432,0.11251,7.1609e-05,1,0.8,0
0,-0.026276,1,-0.74609,-1.8528,-1.7797,-0.044049,0,0,1.3437,-0.095087,0,-0.11453,0,0,0.4431,-4.1391e-15,0,0.44186,-0.74434,-1.8546,-1.7797,-2.2757,-1.4595,1.0747,0.062715,0,0.82,0
0.026873,-0.028567,0.99114,-0.76845,-1.8611,-1.78,-0.10346,0,0,1.315,-0.10541,0,-0.26901,0,0,0.4469,0.081494,0,0.45273,-0.75874,-1.8708,-1.78,-5.3619,-1.4698,1.0696,0.061315,0.02,0.82,0
0.052601,-0.035505,0.98212,-0.85635,-1.9327,-1.8189,-0.29776,0,0,1.2512,-0.14806,0,-0.77418,0,0,0.48945,0.18507,0,0.51889,-0.77947,-2.0096,-1.8189,-14.477,-1.536,1.1467,0.070277,0.04,0.82,0
0.076923,-0.055941,0.97156,-0.76665,-1.3631,-1.1941,-0.39053,0,0,0.82624,-0.63809,0,-2.3325,0,0,0.39532,0.21224,0,0.45216,-0.57179,-1.558,-1.1941,-28.174,-1.1079,0.86814,0.039876,0.06,0.82,0
0.089549,-0.10121,0.95314,-0.55213,-0.60861,-0.89287,-0.25915,0,0,0.7752,-0.25675,0,-1.6725,0,0,0.4854,0.058808,0,0.49042,-0.2937,-0.86703,-0.89287,-36.459,-0.68454,0.63163,0.016254,0.08,0.82,0
0.10793,-0.12143,0.93758,-0.40908,-0.57527,-0.83107,-0.10405,0,0,0.96002,-0.28976,0,-0.87037,0,0,0.43835,0.035803,0,0.44081,-0.34784,-0.63651,-0.83107,-26.433,-0.60514,0.5048,-0.006149,0.1,0.82,0
0.12795,-0.13486,0.92246,-0.35844,-0.54782,-0.799,-0.06594,0,0,1.0023,-0.31259,0,-0.58923,0,0,0.4285,0.020916,0,0.42938,-0.33247,-0.57379,-0.799,-19.395,-0.56842,0.49655,-0.008189,0.12,0.82,0
0.14802,-0.14335,0.90759,-0.34666,-0.54284,-0.78547,-0.043122,0,0,0.99829,-0.3284,0,-0.40811,0,0,0.42272,0.010788,0,0.42292,-0.33544,-0.55406,-0.78547,-13.712,-0.55832,0.48485,-0.0083385,0.14,0.82,0
0.16788,-0.14852,0.89287,-0.34059,-0.53763,-0.77368,-0.030058,0,0,0.98528,-0.3389,0,-0.29154,0,0,0.41899,0.0029149,0,0.41898,-0.33506,-0.54316,-0.77368,-9.9712,-0.55063,0.47567,-0.0080976,0.16,0.82,0
0.18743,-0.15107,0.87826,-0.33607,-0.53229,-0.76237,-0.021191,0,0,0.96983,-0.34547,0,-0.20669,0,0,0.41619,-0.0036917,0,0.41623,-0.33327,-0.53509,-0.76237,-7.2434,-0.54358,0.4672,-0.0077481,0.18,0.82,0
0.20667,-0.1514,0.86373,-0.33065,-0.52605,-0.75057,-0.014395,0,0,0.95532,-0.3493,0,-0.13733,0,0,0.41387,-0.0096321,0,0.41415,-0.32931,-0.52739,-0.75057,-5.045,-0.53576,0.45954,-0.0073792,0.2,0.82,0
0.22565,-0.14966,0.84929,-0.32337,-0.51896,-0.73801,-0.0080361,0,0,0.94329,-0.35124,0,-0.070485,0,0,0.41184,-0.015363,0,0.41254,-0.32292,-0.51941,-0.73801,-2.9008,-0.52678,0.45273,-0.0070109,0.22,0.82,0
0.24441,-0.14581,0.83491,-0.31388,-0.51105,-0.72457,-0.00056384,0,0,0.93432,-0.35187,0,0.0063595,0,0,0.41009,-0.021345,0,0.41141,-0.31386,-0.51107,-0.72457,-0.35957,-0.5165,0.44691,-0.0066451,0.24,0.82,0
0.26302,-0.13954,0.82058,-0.30303,-0.50295,-0.71069,0.0098934,0,0,0.92744,-0.35131,0,0.10797,0,0,0.40885,-0.028198,0,0.41108,-0.30251,-0.50347,-0.71069,3.0531,-0.50556,0.4421,-0.0062486,0.26,0.82,0
0.2815,-0.13027,0.80629,-0.29285,-0.49437,-0.6969,0.027909,0,0,0.91921,-0.34924,0,0.26243,0,0,0.40912,-0.036959,0,0.41277,-0.28845,-0.49877,-0.6969,8.5395,-0.49471,0.43918,-0.0057585,0.28,0.82,0
0.29979,-0.11667,0.79194,-0.30769,-0.50252,-0.6956,0.057965,0,0,0.8825,-0.34404,0,0.5004,0,0,0.413,-0.050268,0,0.41909,-0.28891,-0.52131,-0.6956,16.297,-0.50194,0.43209,-0.0045048,0.3,0.82,0
0.3168,-0.097112,0.77738,-0.38837,-0.51214,-0.71437,0.18223,0,0,0.74165,-0.33113,0,1.1686,0,0,0.45643,-0.071613,0,0.46571,-0.23903,-0.66147,-0.71437,31.47,-0.53829,0.49774,0.0051106,0.32,0.82,0
0.32945,-0.056515,0.75999,-0.55073,-1.1144,-0.93384,0.28348,0,0,0.76908,-0.6295,0,1.7256,0,0,0.3654,-0.23693,0,0.44232,-0.43114,-1.234,-0.93384,24.666,-0.86634,0.70606,0.020975,0.34,0.82,0
0.3503,-0.035274,0.75048,-0.58159,-1.563,-1.3939,0.19739,0,0,1.0559,-0.21987,0,0.51322,0,0,0.41341,-0.2593,0,0.48582,-0.54338,-1.6012,-1.3939,10.957,-1.1795,0.9709,0.039875,0.36,0.82,0
0.37169,-0.025471,0.74345,-0.48986,-1.4396,-1.3223,0.0561,0,0,1.0822,-0.15249,0,0.14586,0,0,0.32598,-0.18301,0,0.37389,-0.48656,-1.4429,-1.3223,3.3688,-1.0839,0.9021,0.035443,0.38,0.82,0
0.39359,-0.01845,0.73745,-0.42899,-1.3379,-1.2675,0.010805,0,0,1.0901,-0.091499,0,0.028094,0,0,0.27664,-0.14163,0,0.31142,-0.42886,-1.338,-1.2675,0.68103,-1.0115,0.87604,0.033777,0.4,0.82,0
0.41529,-0.013116,0.73239,-0.36215,-0.75667,-0.75415,-0.011362,0,0,0.31106,-0.005717,0,-0.15849,0,0,0.23957,-0.070683,0,0.25457,-0.33451,-0.7843,-0.75415,-36.879,-0.62432,0.44767,0.015062,0.42,0.82,0
0.40603,-0.013477,0.70071,-0.34378,-0.30534,-0.29484,-0.016344,0,0,-0.44539,-0.095551,0,-0.29747,0,0,0.22315,-0.01144,0,0.22346,-0.29933,-0.34979,-0.29484,-69.813,-0.31465,0.052852,-7.398e-06,0.44,0.82,0
0.39748,-0.014141,0.66991,-0.33337,-0.30502,-0.28722,-0.015693,0,0,-0.41995,-0.16202,0,-0.28561,0,0,0.21705,-0.0074706,0,0.2172,-0.29805,-0.34034,-0.28722,-66.042,-0.30854,0.04862,-4.9296e-06,0.46,0.82,0
0.38923,-0.014681,0.63993,-0.32503,-0.30234,-0.27963,-0.014173,0,0,-0.41313,-0.20667,0,-0.25795,0,0,0.21148,-0.0052293,0,0.21156,-0.29553,-0.33184,-0.27963,-64.337,-0.30233,0.046351,-3.1594e-06,0.48,0.82,0
0.38095,-0.014951,0.61069,-0.31831,-0.29785,-0.27209,-0.012512,0,0,-0.42062,-0.23442,0,-0.22772,0,0,0.20656,-0.0042224,0,0.20661,-0.29192,-0.32425,-0.27209,-64.636,-0.29609,0.045596,-1.9512e-06,0.5,0.82,0
0.37241,-0.014956,0.5821,-0.31281,-0.29217,-0.26465,-0.011039,0,0,-0.43823,-0.25045,0,-0.20091,0,0,0.20236,-0.0040189,0,0.2024,-0.28738,-0.3176,-0.26465,-66.533,-0.28988,0.046008,-1.2105e-06,0.52,0.82,0
0.36342,-0.014757,0.55403,-0.30818,-0.28576,-0.25733,-0.0098264,0,0,-0.46274,-0.2587,0,-0.17884,0,0,0.19885,-0.0042855,0,0.1989,-0.28206,-0.31188,-0.25733,-69.383,-0.28375,0.047308,-8.7325e-07,0.54,0.82,0
0.3539,-0.014427,0.52642,-0.3042,-0.27889,-0.25013,-0.0088343,0,0,-0.49206,-0.26171,0,-0.16079,0,0,0.19598,-0.0047933,0,0.19604,-0.27611,-0.30698,-0.25013,-72.542,-0.27774,0.049295,-9.1193e-07,0.56,0.82,0
0.34374,-0.014019,0.49916,-0.30073,-0.27175,-0.24305,-0.0079922,0,0,-0.52491,-0.2611,0,-0.14546,0,0,0.19365,-0.0054011,0,0.19373,-0.26969,-0.30279,-0.24305,-75.564,-0.27184,0.051837,-1.3322e-06,0.58,0.82,0
0.3329,-0.013573,0.47219,-0.29769,-0.26443,-0.23609,-0.0072346,0,0,-0.56053,-0.25788,0,-0.13167,0,0,0.19179,-0.0060297,0,0.19188,-0.26293,-0.29919,-0.23609,-78.244,-0.26607,0.054851,-2.1653e-06,0.6,0.82,0
0.32132,-0.013111,0.44546,-0.29501,-0.25702,-0.22924,-0.0065106,0,0,-0.59843,-0.25274,0,-0.11849,0,0,0.19032,-0.0066411,0,0.19043,-0.25593,-0.29609,-0.22924,-80.54,-0.26042,0.058281,-3.4619e-06,0.62,0.82,0
0.30896,-0.012644,0.4189,-0.29265,-0.24955,-0.2225,-0.0057848,0,0,-0.63832,-0.24614,0,-0.10528,0,0,0.18918,-0.0072224,0,0.18932,-0.24879,-0.29341,-0.2225,-82.486,-0.2549,0.062089,-5.2877e-06,0.64,0.82,0
0.29579,-0.012176,0.39249,-0.29059,-0.24207,-0.21587,-0.0050358,0,0,-0.67999,-0.23843,0,-0.091651,0,0,0.18835,-0.0077758,0,0.18851,-0.24155,-0.29111,-0.21587,-84.137,-0.24951,0.066245,-7.7213e-06,0.66,0.82,0
0.28176,-0.011706,0.36617,-0.28882,-0.23459,-0.20933,-0.0042529,0,0,-0.72331,-0.22987,0,-0.077404,0,0,0.1878,-0.0083119,0,0.18798,-0.23426,-0.28915,-0.20933,-85.542,-0.24425,0.070727,-1.0854e-05,0.68,0.82,0
0.26686,-0.011229,0.3399,-0.28731,-0.22714,-0.20289,-0.0034351,0,0,-0.76822,-0.22066,0,-0.062518,0,0,0.18751,-0.0088448,0,0.18771,-0.22695,-0.28751,-0.20289,-86.743,-0.23912,0.075519,-1.4791e-05,0.7,0.82,0
0.25103,-0.010745,0.31366,-0.28609,-0.21974,-0.19656,-0.0025888,0,0,-0.81472,-0.21095,0,-0.047116,0,0,0.18747,-0.0093895,0,0.18771,-0.21964,-0.28619,-0.19656,-87.769,-0.23413,0.080608,-1.965e-05,0.72,0.82,0
0.23427,-0.010251,0.28741,-0.28513,-0.21239,-0.19032,-0.0017284,0,0,-0.86283,-0.20088,0,-0.031457,0,0,0.18771,-0.0099583,0,0.18798,-0.21235,-0.28517,-0.19032,-88.64,-0.22928,0.085985,-2.5564e-05,0.74,0.82,0
0.21652,-0.0097519,0.2611,-0.28446,-0.20512,-0.18417,-0.000876,0,0,-0.9126,-0.19058,0,-0.015943,0,0,0.18825,-0.010557,0,0.18854,-0.20511,-0.28447,-0.18417,-89.368,-0.22458,0.09164,-3.268e-05,0.76,0.82,0
0.19776,-0.0092531,0.2347,-0.28407,-0.19793,-0.17813,-6.1985e-05,0,0,-0.96408,-0.18018,0,-0.0011281,0,0,0.18911,-0.011182,0,0.18944,-0.19793,-0.28407,-0.17813,-89.959,-0.22004,0.097562,-4.115e-05,0.78,0.82,0
0.17796,-0.0087657,0.20816,-0.28397,-0.19086,-0.17219,0.0006752,0,0,-1.0172,-0.16992,0,0.012289,0,0,0.19033,-0.011807,0,0.1907,-0.19085,-0.28398,-0.17219,89.585,-0.21567,0.10372,-5.1115e-05,0.8,0.82,0
0.15707,-0.0083033,0.18141,-0.28413,-0.18393,-0.16633,0.0012925,0,0,-1.072,-0.1601,0,0.023524,0,0,0.19197,-0.012377,0,0.19237,-0.18391,-0.28415,-0.16633,89.261,-0.21146,0.11009,-6.267e-05,0.82,0.82,0
0.13508,-0.0078796,0.1544,-0.28452,-0.17719,-0.16057,0.0017516,0,0,-1.1279,-0.15124,0,0.031879,0,0,0.19406,-0.012792,0,0.19449,-0.17716,-0.28454,-0.16057,89.065,-0.20742,0.11657,-7.5826e-05,0.84,0.82,0
0.11196,-0.0075013,0.12707,-0.28505,-0.17069,-0.15488,0.0020326,0,0,-1.1846,-0.14393,0,0.036994,0,0,0.19662,-0.012888,0,0.19704,-0.17066,-0.28509,-0.15488,88.982,-0.20354,0.12308,-9.0482e-05,0.86,0.82,0
0.087695,-0.0071596,0.099351,-0.28566,-0.16447,-0.14923,0.0021444,0,0,-1.2415,-0.13864,0,0.039027,0,0,0.19956,-0.012435,0,0.19995,-0.16443,-0.2857,-0.14923,88.987,-0.19979,0.12954,-0.00010648,0.88,0.82,0
0.062296,-0.0068245,0.071194,-0.28624,-0.15845,-0.14358,0.0021027,0,0,-1.2983,-0.13529,0,0.03827,0,0,0.20272,-0.011167,0,0.20303,-0.15841,-0.28628,-0.14358,89.058,-0.19609,0.13589,-0.00012373,0.9,0.82,0
0.035764,-0.0064528,0.04259,-0.28667,-0.15245,-0.13782,0.0018841,0,0,-1.3545,-0.13314,0,0.034291,0,0,0.20577,-0.0088548,0,0.20597,-0.15243,-0.2867,-0.13782,89.196,-0.19232,0.14214,-0.00014225,0.92,0.82,0
0.0081142,-0.0060149,0.013578,-0.28512,-0.21587,-0.15806,-0.00010145,0,0,-0.75768,-0.13154,0,0.0099638,0,0,0.2115,-0.021614,0,0.21324,-0.21532,-0.28567,-0.15806,17.584,-0.21968,0.12349,-4.9139e-05,0.94,0.82,0
0.005457,-0.0061329,0.0092628,-0.2844,-0.28967,-0.18148,-0.0039566,0,0,-0.13379,-0.14064,0,-0.010287,0,0,0.22193,-0.030329,0,0.22405,-0.28228,-0.29179,-0.18148,-28.159,-0.25185,0.10587,5.9293e-05,0.96,0.82,0
0.0027626,-0.0063682,0.0047009,-0.28269,-0.29414,-0.17775,-0.0039217,0,0,-0.13642,-0.15131,0,-0.010196,0,0,0.23157,-0.016864,0,0.23213,-0.28148,-0.29536,-0.17775,-17.208,-0.25153,0.11132,6.7147e-05,0.98,0.82,0
0,-0.0064749,0,-0.27574,-0.28921,-0.16949,-0.0020526,0,0,-0.13813,-0.15565,0,-0.0053367,0,0,0.23505,8.6736e-19,0,0.23494,-0.27544,-0.28952,-0.16949,-8.4727,-0.24482,0.11365,7.15e-05,1,0.82,0
0,-0.027371,1,-0.6887,-1.7583,-1.7341,-0.043004,0,0,1.359,-0.031423,0,-0.11181,0,0,0.52102,5.343e-16,0,0.52027,-0.68697,-1.76,-1.7341,-2.2988,-1.3937,1.0603,0.0611,0,0.84,0
0.02718,-0.029608,0.98958,-0.66528,-1.7357,-1.7099,-0.087951,0,0,1.358,-0.033546,0,-0.22867,0,0,0.53552,0.067928,0,0.53906,-0.6581,-1.7429,-1.7099,-4.6662,-1.3703,1.0686,0.062477,0.02,0.84,0
0.054318,-0.037667,0.97858,-0.68829,-1.7517,-1.7106,-0.21775,0,0,1.329,-0.053508,0,-0.56614,0,0,0.59252,0.14375,0,0.60983,-0.64543,-1.7946,-1.7106,-11.135,-1.3835,1.1096,0.068803,0.04,0.84,0
0.08034,-0.055176,0.96588,-0.74829,-1.5828,-1.6652,-0.38536,0,0,1.192,0.10711,0,-1.0019,0,0,0.67025,0.20001,0,0.70245,-0.59757,-1.7335,-1.6652,-21.362,-1.3321,1.1034,0.068104,0.06,0.84,0
0.102,-0.082254,0.95177,-0.66354,-0.78546,-1.3865,-0.33372,0,0,0.93981,0.78131,0,-0.86767,0,0,0.72825,0.080515,0,0.73141,-0.38526,-1.0637,-1.3865,-39.824,-0.94515,0.88513,0.020316,0.08,0.84,0
0.11793,-0.10397,0.93675,-0.7425,-0.71536,-1.3741,-0.20139,0,0,0.82108,0.85637,0,-0.5236,0,0,0.74476,0.045514,0,0.74607,-0.52709,-0.93077,-1.3741,-46.928,-0.94399,0.73381,-0.0016433,0.1,0.84,0
0.13484,-0.11754,0.92198,-0.6478,-0.64394,-1.3095,-0.11088,0,0,0.86021,0.86523,0,-0.28829,0,0,0.73545,0.026978,0,0.73592,-0.53497,-0.75677,-1.3095,-45.498,-0.86708,0.69087,-0.011238,0.12,0.84,0
0.15234,-0.12644,0.90733,-0.59049,-0.60938,-1.2673,-0.069328,0,0,0.87984,0.85529,0,-0.18025,0,0,0.72998,0.015052,0,0.73013,-0.52996,-0.6699,-1.2673,-41.121,-0.82239,0.67827,-0.013755,0.14,0.84,0
0.17003,-0.13194,0.89278,-0.55691,-0.58893,-1.2365,-0.046027,0,0,0.88351,0.84188,0,-0.11967,0,0,0.7256,0.0062967,0,0.72562,-0.52419,-0.62165,-1.2365,-35.411,-0.79413,0.66896,-0.014281,0.16,0.84,0
0.18768,-0.13481,0.87831,-0.5368,-0.57533,-1.212,-0.032414,0,0,0.87769,0.8276,0,-0.084277,0,0,0.72184,-0.00074423,0,0.72184,-0.51836,-0.59377,-1.212,-29.637,-0.77469,0.65912,-0.01406,0.18,0.84,0
0.20514,-0.13545,0.86391,-0.52418,-0.56552,-1.1908,-0.023346,0,0,0.86663,0.81288,0,-0.0607,0,0,0.71831,-0.0068641,0,0.71834,-0.51367,-0.57603,-1.1908,-24.238,-0.76017,0.64822,-0.013553,0.2,0.84,0
0.22235,-0.13403,0.84957,-0.51657,-0.55868,-1.1722,-0.015607,0,0,0.85225,0.79751,0,-0.040578,0,0,0.71477,-0.012626,0,0.71488,-0.51142,-0.56384,-1.1722,-18.273,-0.74913,0.63615,-0.01292,0.22,0.84,0
0.23923,-0.13051,0.83532,-0.51412,-0.55535,-1.1562,-0.0061593,0,0,0.83465,0.78104,0,-0.016014,0,0,0.71106,-0.018593,0,0.7113,-0.51322,-0.55625,-1.1562,-8.3163,-0.74188,0.62254,-0.012192,0.24,0.84,0
0.25573,-0.12459,0.82113,-0.52012,-0.55797,-1.1446,0.0094119,0,0,0.81177,0.76257,0,0.024471,0,0,0.7072,-0.025574,0,0.70766,-0.51791,-0.56018,-1.1446,13.223,-0.74088,0.60662,-0.011277,0.26,0.84,0
0.2717,-0.11566,0.80703,-0.54184,-0.57235,-1.1413,0.038208,0,0,0.77928,0.73962,0,0.09934,0,0,0.70329,-0.035119,0,0.70415,-0.51595,-0.59823,-1.1413,34.118,-0.75182,0.58852,-0.0097827,0.28,0.84,0
0.2869,-0.10266,0.793,-0.59118,-0.61713,-1.1555,0.10531,0,0,0.7336,0.69987,0,0.27381,0,0,0.70209,-0.051033,0,0.70386,-0.49805,-0.71027,-1.1555,41.488,-0.78794,0.58116,-0.0057382,0.3,0.84,0
0.30105,-0.082636,0.77894,-0.50111,-0.66134,-1.1277,0.20685,0,0,0.81454,0.60624,0,0.53782,0,0,0.67314,-0.084431,0,0.67684,-0.3594,-0.80305,-1.1277,34.414,-0.76338,0.668,0.0040485,0.32,0.84,0
0.31949,-0.057446,0.76607,-0.54068,-1.2982,-1.3177,0.24235,0,0,1.0102,0.025368,0,0.63011,0,0,0.59593,-0.21086,0,0.63665,-0.46979,-1.3691,-1.3177,16.306,-1.0522,0.87479,0.033982,0.34,0.84,0
0.34146,-0.039122,0.75511,-0.46532,-1.4283,-1.3232,0.10899,0,0,1.1152,-0.13664,0,0.28337,0,0,0.48647,-0.17578,0,0.51981,-0.45314,-1.4405,-1.3232,6.3771,-1.0723,0.93423,0.039662,0.36,0.84,0
0.36409,-0.027905,0.74662,-0.42096,-1.3673,-1.2831,0.016508,0,0,1.1208,-0.1095,0,0.042922,0,0,0.38235,-0.12076,0,0.40229,-0.42067,-1.3676,-1.2831,0.99904,-1.0238,0.90765,0.037284,0.38,0.84,0
0.38629,-0.019999,0.73981,-0.40809,-1.3096,-1.2551,-0.020599,0,0,1.1012,-0.070847,0,-0.053558,0,0,0.3054,-0.084376,0,0.31847,-0.40762,-1.3101,-1.2551,-1.3082,-0.99094,0.87629,0.034101,0.4,0.84,0
0.40814,-0.013089,0.7344,-0.3571,-0.75487,-0.75325,-0.028227,0,0,0.32703,-0.0036824,0,-0.30192,0,0,0.25152,-0.038488,0,0.25665,-0.32581,-0.78615,-0.75325,-33.221,-0.62174,0.45653,0.015388,0.42,0.84,0
0.39937,-0.015433,0.70186,-0.34063,-0.30668,-0.29446,-0.027317,0,0,-0.42014,-0.11124,0,-0.49716,0,0,0.22809,-0.0038644,0,0.22815,-0.2915,-0.35581,-0.29446,-60.927,-0.31392,0.062891,-1.268e-05,0.44,0.84,0
0.39133,-0.017516,0.67054,-0.33063,-0.30755,-0.28724,-0.024372,0,0,-0.39477,-0.1848,0,-0.44357,0,0,0.21989,-0.00059918,0,0.21992,-0.29213,-0.34605,-0.28724,-57.666,-0.30847,0.056528,-9.0443e-06,0.46,0.84,0
0.38358,-0.01897,0.64029,-0.32256,-0.30487,-0.2797,-0.02102,0,0,-0.39003,-0.22908,0,-0.38256,0,0,0.21275,0.00071368,0,0.21278,-0.29091,-0.33652,-0.2797,-56.409,-0.30238,0.052128,-6.1555e-06,0.48,0.84,0
0.37573,-0.019783,0.61096,-0.31611,-0.29996,-0.2721,-0.018058,0,0,-0.40043,-0.25355,0,-0.32865,0,0,0.20679,0.00072085,0,0.20681,-0.28826,-0.32781,-0.2721,-57.04,-0.29606,0.049647,-4.1151e-06,0.5,0.84,0
0.36756,-0.020085,0.58239,-0.31081,-0.29385,-0.2646,-0.015678,0,0,-0.42053,-0.26624,0,-0.28534,0,0,0.20197,-7.6418e-06,0,0.20198,-0.28451,-0.32016,-0.2646,-59.201,-0.28975,0.048754,-2.7814e-06,0.52,0.84,0
0.35891,-0.020033,0.55441,-0.30631,-0.2871,-0.25723,-0.013802,0,0,-0.44667,-0.27188,0,-0.2512,0,0,0.19815,-0.0010698,0,0.19816,-0.27989,-0.31352,-0.25723,-62.415,-0.28355,0.04906,-1.9989e-06,0.54,0.84,0
0.34969,-0.019748,0.52691,-0.3024,-0.28001,-0.24999,-0.01229,0,0,-0.47687,-0.27311,0,-0.22368,0,0,0.19515,-0.0022296,0,0.19517,-0.27458,-0.30783,-0.24999,-66.166,-0.27747,0.050272,-1.6708e-06,0.56,0.84,0
0.33984,-0.019321,0.49977,-0.29895,-0.27272,-0.2429,-0.011018,0,0,-0.51009,-0.27137,0,-0.20053,0,0,0.19281,-0.0033653,0,0.19284,-0.2687,-0.30296,-0.2429,-69.984,-0.27152,0.052191,-1.7584e-06,0.58,0.84,0
0.32929,-0.018806,0.47292,-0.2959,-0.26533,-0.23593,-0.0098909,0,0,-0.54573,-0.26754,0,-0.18001,0,0,0.19097,-0.0044244,0,0.19103,-0.26241,-0.29882,-0.23593,-73.547,-0.26572,0.054691,-2.264e-06,0.6,0.84,0
0.31801,-0.018241,0.4463,-0.29319,-0.25789,-0.22908,-0.0088388,0,0,-0.58342,-0.26215,0,-0.16087,0,0,0.18955,-0.0053938,0,0.18963,-0.2558,-0.29528,-0.22908,-76.701,-0.26005,0.057686,-3.2192e-06,0.62,0.84,0
0.30595,-0.017644,0.41985,-0.2908,-0.25043,-0.22235,-0.0078138,0,0,-0.62293,-0.25555,0,-0.14221,0,0,0.18847,-0.0062815,0,0.18857,-0.24897,-0.29226,-0.22235,-79.419,-0.25453,0.061118,-4.6774e-06,0.64,0.84,0
0.29309,-0.017024,0.39353,-0.2887,-0.24297,-0.21572,-0.0067842,0,0,-0.66412,-0.24801,0,-0.12347,0,0,0.18767,-0.0071071,0,0.18781,-0.24199,-0.28969,-0.21572,-81.736,-0.24913,0.064945,-6.7102e-06,0.66,0.84,0
0.27939,-0.016385,0.3673,-0.28688,-0.23553,-0.20919,-0.0057308,0,0,-0.7069,-0.2397,0,-0.1043,0,0,0.18713,-0.0078955,0,0.1873,-0.2349,-0.28751,-0.20919,-83.708,-0.24387,0.069142,-9.4061e-06,0.68,0.84,0
0.26482,-0.015727,0.34113,-0.28532,-0.22812,-0.20277,-0.0046444,0,0,-0.75127,-0.23074,0,-0.084529,0,0,0.18684,-0.0086737,0,0.18704,-0.22775,-0.2857,-0.20277,-85.388,-0.23874,0.073689,-1.2872e-05,0.7,0.84,0
0.24934,-0.01505,0.31499,-0.28405,-0.22075,-0.19644,-0.003524,0,0,-0.79729,-0.22124,0,-0.064136,0,0,0.18678,-0.0094689,0,0.18702,-0.22056,-0.28425,-0.19644,-86.823,-0.23375,0.078578,-1.7234e-05,0.72,0.84,0
0.23292,-0.014355,0.28883,-0.28135,-0.21237,-0.18937,-0.0021785,0,0,-0.83694,-0.20921,0,-0.039648,0,0,0.18693,-0.010252,0,0.18721,-0.2123,-0.28142,-0.18937,-88.193,-0.2277,0.082989,-2.198e-05,0.74,0.84,0
0.21554,-0.013646,0.26263,-0.28387,-0.20646,-0.18462,-0.0010621,0,0,-0.90321,-0.19874,0,-0.01933,0,0,0.18758,-0.011102,0,0.18791,-0.20644,-0.28389,-0.18462,-89.214,-0.22498,0.090355,-3.0563e-05,0.76,0.84,0
0.19713,-0.012933,0.23634,-0.28024,-0.19783,-0.17718,2.3569e-05,0,0,-0.93779,-0.18788,0,0.00042896,0,0,0.18813,-0.012014,0,0.18851,-0.19783,-0.28024,-0.17718,89.984,-0.21841,0.094439,-3.6386e-05,0.78,0.84,0
0.17767,-0.012228,0.20991,-0.28378,-0.1922,-0.17278,0.0010216,0,0,-1.0101,-0.1767,0,0.018593,0,0,0.18977,-0.012979,0,0.19021,-0.19219,-0.28379,-0.17278,89.361,-0.21625,0.10269,-4.8994e-05,0.8,0.84,0
0.1571,-0.011553,0.18327,-0.28061,-0.18363,-0.16545,0.0019451,0,0,-1.0479,-0.16542,0,0.0354,0,0,0.19091,-0.01395,0,0.19142,-0.18359,-0.28065,-0.16545,88.852,-0.2099,0.10728,-5.7356e-05,0.82,0.84,0
0.13537,-0.010929,0.15636,-0.28525,-0.17841,-0.16144,0.0025763,0,0,-1.1268,-0.15446,0,0.046888,0,0,0.19401,-0.014828,0,0.19458,-0.17835,-0.28532,-0.16144,88.62,-0.20837,0.11635,-7.5168e-05,0.84,0.84,0
0.11243,-0.010379,0.12907,-0.28252,-0.17011,-0.15423,0.0030802,0,0,-1.1674,-0.14456,0,0.05606,0,0,0.19601,-0.015419,0,0.19663,-0.17003,-0.2826,-0.15423,88.431,-0.20229,0.12125,-8.6327e-05,0.86,0.84,0
0.088258,-0.0099055,0.10132,-0.28789,-0.16549,-0.15049,0.0031913,0,0,-1.2504,-0.13654,0,0.058082,0,0,0.20096,-0.01541,0,0.20156,-0.16541,-0.28798,-0.15049,88.507,-0.20129,0.13067,-0.00010956,0.88,0.84,0
0.062833,-0.0094794,0.072992,-0.28534,-0.15767,-0.14333,0.0031321,0,0,-1.2922,-0.13052,0,0.057005,0,0,0.2038,-0.014382,0,0.20432,-0.1576,-0.28541,-0.14333,88.595,-0.19545,0.13551,-0.00012305,0.9,0.84,0
0.036147,-0.0090379,0.044045,-0.29077,-0.15328,-0.1395,0.0028053,0,0,-1.3765,-0.12532,0,0.051057,0,0,0.20963,-0.011917,0,0.20997,-0.15322,-0.29082,-0.1395,88.832,-0.19452,0.14495,-0.0001517,0.92,0.84,0
0.0081957,-0.0085344,0.014496,-0.28868,-0.21389,-0.15906,-0.001792,0,0,-0.76748,-0.12108,0,0.011031,0,0,0.21786,-0.027143,0,0.22025,-0.21252,-0.29006,-0.15906,12.576,-0.22054,0.12484,-5.5092e-05,0.94,0.84,0
0.0054483,-0.0089069,0.010003,-0.28707,-0.28753,-0.18238,-0.0077765,0,0,-0.13609,-0.13669,0,-0.020219,0,0,0.23786,-0.044155,0,0.24198,-0.27952,-0.29508,-0.18238,-44.154,-0.25233,0.10578,5.6379e-05,0.96,0.84,0
0.0027392,-0.0094208,0.0051134,-0.28442,-0.298,-0.17984,-0.0075868,0,0,-0.13596,-0.15361,0,-0.019726,0,0,0.2482,-0.024673,0,0.24935,-0.28103,-0.30139,-0.17984,-24.089,-0.25409,0.11276,6.5612e-05,0.98,0.84,0
0,-0.0096384,0,-0.27562,-0.29194,-0.17027,-0.0041832,0,0,-0.13696,-0.15817,0,-0.010876,0,0,0.25567,6.9389e-18,0,0.25553,-0.27461,-0.29295,-0.17027,-13.573,-0.24594,0.11462,7.0708e-05,1,0.84,0
0,-0.027533,1,-0.60643,-1.6742,-1.6842,-0.045682,0,0,1.4011,0.012967,0,-0.11877,0,0,0.57895,1.8492e-15,0,0.57862,-0.60448,-1.6762,-1.6842,-2.4453,-1.3216,1.0757,0.063922,0,0.86,0
0.028022,-0.029908,0.98842,-0.59372,-1.6609,-1.6648,-0.068397,0,0,1.3924,0.0050562,0,-0.17783,0,0,0.58675,0.050669,0,0.58867,-0.58935,-1.6653,-1.6648,-3.6522,-1.3065,1.0757,0.063929,0.02,0.86,0
0.055524,-0.037645,0.97637,-0.64086,-1.6305,-1.6578,-0.21477,0,0,1.322,0.03547,0,-0.55841,0,0,0.62793,0.094136,0,0.63527,-0.59626,-1.6751,-1.6578,-11.731,-1.3097,1.0703,0.062913,0.04,0.86,0
0.081433,-0.051657,0.96356,-0.62836,-1.4178,-1.5774,-0.28753,0,0,1.2338,0.20745,0,-0.74758,0,0,0.65445,0.10097,0,0.66246,-0.53474,-1.5115,-1.5774,-18.035,-1.2079,1.0113,0.052362,0.06,0.86,0
0.10364,-0.069959,0.94992,-0.70399,-1.0174,-1.4663,-0.31926,0,0,0.99105,0.58364,0,-0.83007,0,0,0.69932,0.082329,0,0.7042,-0.50505,-1.2163,-1.4663,-31.929,-1.0626,0.86386,0.023999,0.08,0.86,0
0.12227,-0.08717,0.93576,-0.66884,-0.74371,-1.3595,-0.2453,0,0,0.89789,0.80056,0,-0.63778,0,0,0.71173,0.048291,0,0.71327,-0.45814,-0.95442,-1.3595,-40.662,-0.92403,0.78196,0.0042754,0.1,0.86,0
0.13889,-0.10025,0.92138,-0.70767,-0.68567,-1.3394,-0.13748,0,0,0.82123,0.84982,0,-0.35745,0,0,0.7195,0.030057,0,0.72011,-0.55875,-0.83459,-1.3394,-47.286,-0.91091,0.68567,-0.0079845,0.12,0.86,0
0.15521,-0.10914,0.90699,-0.67571,-0.64118,-1.302,-0.10175,0,0,0.81424,0.85914,0,-0.26456,0,0,0.71907,0.018076,0,0.71929,-0.55524,-0.76165,-1.302,-49.816,-0.87298,0.66797,-0.010524,0.14,0.86,0
0.17146,-0.11484,0.89262,-0.64737,-0.60945,-1.2697,-0.067191,0,0,0.80898,0.85828,0,-0.1747,0,0,0.71744,0.0092395,0,0.71749,-0.55859,-0.69822,-1.2697,-52.88,-0.84216,0.65255,-0.012098,0.16,0.86,0
0.18757,-0.11796,0.87829,-0.62749,-0.58904,-1.2432,-0.045732,0,0,0.80049,0.85046,0,-0.1189,0,0,0.71517,0.0022476,0,0.71517,-0.55866,-0.65787,-1.2432,-56.399,-0.81993,0.64077,-0.012427,0.18,0.86,0
0.20348,-0.11888,0.86401,-0.61552,-0.57605,-1.2215,-0.031243,0,0,0.78774,0.83906,0,-0.081232,0,0,0.71239,-0.0036618,0,0.7124,-0.55883,-0.63274,-1.2215,-61.142,-0.80435,0.62896,-0.012186,0.2,0.86,0
0.21908,-0.11776,0.84979,-0.6104,-0.56915,-1.2037,-0.018967,0,0,0.77124,0.82485,0,-0.049313,0,0,0.709,-0.0090289,0,0.70905,-0.56176,-0.61779,-1.2037,-68.698,-0.7944,0.6158,-0.011659,0.22,0.86,0
0.23433,-0.11457,0.83565,-0.61179,-0.56912,-1.1899,-0.0043766,0,0,0.75157,0.80704,0,-0.011379,0,0,0.70471,-0.014377,0,0.70486,-0.56868,-0.61224,-1.1899,-84.204,-0.79028,0.60065,-0.010933,0.24,0.86,0
0.24915,-0.10904,0.8216,-0.61921,-0.579,-1.1811,0.01799,0,0,0.73041,0.78268,0,0.046774,0,0,0.69895,-0.020437,0,0.69925,-0.57213,-0.62609,-1.1811,69.089,-0.79309,0.58383,-0.0099271,0.26,0.86,0
0.26354,-0.10069,0.80769,-0.62898,-0.60676,-1.1784,0.056942,0,0,0.71426,0.74315,0,0.14805,0,0,0.69049,-0.028557,0,0.69108,-0.55985,-0.67589,-1.1784,50.522,-0.80472,0.56948,-0.0081738,0.28,0.86,0
0.27772,-0.088671,0.79398,-0.60584,-0.66199,-1.1743,0.1165,0,0,0.73904,0.66604,0,0.30291,0,0,0.67343,-0.041542,0,0.67469,-0.51407,-0.75375,-1.1743,38.225,-0.81405,0.57891,-0.0045186,0.3,0.86,0
0.2931,-0.072862,0.78075,-0.55835,-0.84304,-1.2012,0.17761,0,0,0.83567,0.46557,0,0.4618,0,0,0.63893,-0.066894,0,0.64278,-0.47308,-0.92831,-1.2012,25.645,-0.86752,0.63711,0.0055472,0.32,0.86,0
0.31114,-0.055501,0.76843,-0.52195,-1.1558,-1.2717,0.15562,0,0,0.97473,0.15075,0,0.40461,0,0,0.58093,-0.081109,0,0.58767,-0.48581,-1.1919,-1.2717,13.076,-0.98316,0.74923,0.020776,0.34,0.86,0
0.33209,-0.04074,0.75752,-0.45641,-1.3054,-1.286,0.067484,0,0,1.0785,-0.025112,0,0.17546,0,0,0.50351,-0.074211,0,0.51094,-0.45107,-1.3107,-1.286,4.5167,-1.0159,0.84757,0.031182,0.36,0.86,0
0.35429,-0.029851,0.74828,-0.41332,-1.3249,-1.2698,-0.0090005,0,0,1.1134,-0.071719,0,-0.023401,0,0,0.41738,-0.040276,0,0.42134,-0.41323,-1.325,-1.2698,-0.56562,-1.0027,0.88545,0.035187,0.38,0.86,0
0.37663,-0.021284,0.74082,-0.39435,-1.2948,-1.2476,-0.040922,0,0,1.1092,-0.061384,0,-0.1064,0,0,0.33004,-0.0074832,0,0.3328,-0.3925,-1.2966,-1.2476,-2.5968,-0.9789,0.88063,0.034708,0.4,0.86,0
0.39865,-0.013263,0.73508,-0.35341,-0.76219,-0.75472,-0.042872,0,0,0.34851,-0.016973,0,-0.4329,0,0,0.26234,0.005257,0,0.26404,-0.31843,-0.79716,-0.75472,-30.804,-0.62344,0.47036,0.016142,0.42,0.86,0
0.39057,-0.017927,0.70179,-0.33741,-0.30987,-0.29444,-0.037752,0,0,-0.39102,-0.1404,0,-0.68709,0,0,0.23406,0.0043827,0,0.23416,-0.28345,-0.36382,-0.29444,-55.02,-0.3139,0.075479,-2.0517e-05,0.44,0.86,0
0.38327,-0.021533,0.67007,-0.32497,-0.30756,-0.28548,-0.030275,0,0,-0.35934,-0.20087,0,-0.551,0,0,0.22163,0.0032974,0,0.22165,-0.28476,-0.34776,-0.28548,-53.023,-0.306,0.062646,-1.2622e-05,0.46,0.86,0
0.3762,-0.023844,0.63973,-0.31755,-0.30491,-0.27813,-0.025171,0,0,-0.35878,-0.24368,0,-0.45812,0,0,0.2128,0.0040012,0,0.21283,-0.28528,-0.33719,-0.27813,-52.051,-0.3002,0.055826,-8.4439e-06,0.48,0.86,0
0.36892,-0.025094,0.61049,-0.31181,-0.29991,-0.27073,-0.021131,0,0,-0.37382,-0.26554,0,-0.38458,0,0,0.20583,0.003382,0,0.20586,-0.28391,-0.32781,-0.27073,-52.862,-0.29415,0.051767,-5.5987e-06,0.5,0.86,0
0.36124,-0.025605,0.5821,-0.307,-0.29369,-0.26336,-0.018097,0,0,-0.39708,-0.27599,0,-0.32937,0,0,0.20056,0.0020956,0,0.20058,-0.28106,-0.31963,-0.26336,-55.093,-0.28802,0.049829,-3.7576e-06,0.52,0.86,0
0.35304,-0.025633,0.55433,-0.30438,-0.2887,-0.25712,-0.016916,0,0,-0.43014,-0.28742,0,-0.30787,0,0,0.19607,0.0016641,0,0.19608,-0.2779,-0.31519,-0.25712,-57.435,-0.2834,0.050965,-3.1879e-06,0.54,0.86,0
0.34424,-0.025351,0.52704,-0.29858,-0.2805,-0.24902,-0.015204,0,0,-0.45106,-0.28652,0,-0.27671,0,0,0.19411,-0.00012051,0,0.19411,-0.27186,-0.30723,-0.24902,-60.369,-0.27603,0.050804,-2.4428e-06,0.56,0.86,0
0.33478,-0.024874,0.5001,-0.2958,-0.27242,-0.24191,-0.012419,0,0,-0.49042,-0.27765,0,-0.22603,0,0,0.19146,-0.0023551,0,0.19147,-0.26706,-0.30117,-0.24191,-66.635,-0.27004,0.051514,-1.8143e-06,0.58,0.86,0
0.32462,-0.024274,0.47343,-0.29445,-0.26656,-0.23594,-0.01202,0,0,-0.53251,-0.27864,0,-0.21876,0,0,0.18951,-0.0031554,0,0.18954,-0.26209,-0.29892,-0.23594,-69.624,-0.26565,0.054804,-2.4378e-06,0.6,0.86,0
0.31372,-0.023597,0.44697,-0.29079,-0.25906,-0.22881,-0.011184,0,0,-0.56406,-0.27527,0,-0.20354,0,0,0.18846,-0.0042314,0,0.18851,-0.25551,-0.29434,-0.22881,-72.412,-0.25955,0.057073,-2.9962e-06,0.62,0.86,0
0.30206,-0.022867,0.42066,-0.28839,-0.25158,-0.22209,-0.0098759,0,0,-0.60334,-0.26843,0,-0.17974,0,0,0.18747,-0.0054044,0,0.18755,-0.2491,-0.29087,-0.22209,-75.889,-0.25402,0.060023,-4.0126e-06,0.64,0.86,0
0.28959,-0.022097,0.39448,-0.28625,-0.24414,-0.21547,-0.00858,0,0,-0.64409,-0.26089,0,-0.15616,0,0,0.18674,-0.0064763,0,0.18685,-0.24246,-0.28793,-0.21547,-78.914,-0.24862,0.063429,-5.5667e-06,0.66,0.86,0
0.27629,-0.021294,0.36838,-0.28437,-0.23673,-0.20896,-0.0072675,0,0,-0.68628,-0.25277,0,-0.13227,0,0,0.18623,-0.0074892,0,0.18638,-0.23565,-0.28546,-0.20896,-81.516,-0.24335,0.067251,-7.7363e-06,0.68,0.86,0
0.26214,-0.020459,0.34233,-0.28275,-0.22937,-0.20254,-0.0059196,0,0,-0.72993,-0.24411,0,-0.10774,0,0,0.18593,-0.008485,0,0.18612,-0.22872,-0.2834,-0.20254,-83.748,-0.23822,0.071463,-1.062e-05,0.7,0.86,0
0.2471,-0.019594,0.31632,-0.2814,-0.22204,-0.19622,-0.0045247,0,0,-0.77514,-0.23496,0,-0.082349,0,0,0.18584,-0.0095049,0,0.18608,-0.2217,-0.28174,-0.19622,-85.666,-0.23322,0.076056,-1.4345e-05,0.72,0.86,0
0.23113,-0.018701,0.2903,-0.27903,-0.21461,-0.18956,-0.0033062,0,0,-0.81413,-0.22793,0,-0.060173,0,0,0.18594,-0.010629,0,0.18624,-0.21444,-0.2792,-0.18956,-87.07,-0.22773,0.080145,-1.8105e-05,0.74,0.86,0
0.21421,-0.017782,0.26424,-0.28145,-0.20873,-0.1848,-0.0017409,0,0,-0.87951,-0.21771,0,-0.031685,0,0,0.18647,-0.011862,0,0.18684,-0.20868,-0.28149,-0.1848,-88.629,-0.22499,0.087237,-2.5678e-05,0.76,0.86,0
0.19629,-0.016846,0.23811,-0.27782,-0.20011,-0.17739,-0.00016385,0,0,-0.91387,-0.20669,0,-0.0029821,0,0,0.18695,-0.013242,0,0.18741,-0.20011,-0.27782,-0.17739,-89.879,-0.21844,0.091215,-3.0981e-05,0.78,0.86,0
0.1773,-0.015905,0.21185,-0.28145,-0.19442,-0.17303,0.0014288,0,0,-0.98668,-0.19465,0,0.026003,0,0,0.18846,-0.014799,0,0.18904,-0.19439,-0.28147,-0.17303,89.06,-0.2163,0.099502,-4.2837e-05,0.8,0.86,0
0.1572,-0.014979,0.18541,-0.27838,-0.18561,-0.16568,0.0030009,0,0,-1.0255,-0.18132,0,0.054617,0,0,0.18959,-0.01654,0,0.19031,-0.18551,-0.27848,-0.16568,88.149,-0.20989,0.1043,-5.1254e-05,0.82,0.86,0
0.13588,-0.014098,0.15868,-0.28364,-0.1801,-0.16179,0.0043326,0,0,-1.1089,-0.16659,0,0.078853,0,0,0.19283,-0.018417,0,0.19371,-0.17991,-0.28382,-0.16179,87.608,-0.20851,0.11406,-6.9762e-05,0.84,0.86,0
0.11327,-0.013297,0.13155,-0.2812,-0.17104,-0.15446,0.0055101,0,0,-1.1533,-0.15083,0,0.10028,0,0,0.19512,-0.020268,0,0.19617,-0.17076,-0.28147,-0.15446,87.144,-0.20223,0.1197,-8.2596e-05,0.86,0.86,0
0.089291,-0.012606,0.10386,-0.28796,-0.16584,-0.15098,0.0060857,0,0,-1.2466,-0.13526,0,0.11076,0,0,0.20126,-0.021681,0,0.20244,-0.16554,-0.28826,-0.15098,87.154,-0.20159,0.13062,-0.00010967,0.88,0.86,0
0.063885,-0.012001,0.075438,-0.28602,-0.15708,-0.14371,0.0062949,0,0,-1.295,-0.12172,0,0.11457,0,0,0.20509,-0.021828,0,0.20627,-0.15678,-0.28632,-0.14371,87.212,-0.1956,0.13655,-0.00012674,0.9,0.86,0
0.036996,-0.011387,0.04614,-0.2937,-0.15212,-0.14034,0.0060191,0,0,-1.3956,-0.1072,0,0.10955,0,0,0.21362,-0.019636,0,0.21454,-0.15186,-0.29396,-0.14034,87.57,-0.19539,0.14819,-0.00016375,0.92,0.86,0
0.0085717,-0.010662,0.01593,-0.2832,-0.18306,-0.14898,0.0042711,0,0,-0.78357,-0.083302,0,0.042784,0,0,0.22683,-0.063518,0,0.23988,-0.18282,-0.28344,-0.14898,86.854,-0.20508,0.12457,-8.7087e-05,0.94,0.86,0
0.0056528,-0.01156,0.011172,-0.29273,-0.28132,-0.18339,-0.0056674,0,0,-0.14215,-0.12731,0,-0.014735,0,0,0.2594,-0.081924,0,0.27239,-0.27898,-0.29507,-0.18339,-67.598,-0.25248,0.10457,5.4074e-05,0.96,0.86,0
0.0028478,-0.012532,0.0057688,-0.29342,-0.30398,-0.18499,-0.0073817,0,0,-0.14096,-0.15469,0,-0.019193,0,0,0.27626,-0.045853,0,0.27968,-0.28963,-0.30778,-0.18499,-27.213,-0.2608,0.11479,7.119e-05,0.98,0.86,0
0,-0.012911,0,-0.28551,-0.30109,-0.17598,-0.0072841,0,0,-0.14239,-0.16264,0,-0.018939,0,0,0.28844,6.9389e-18,0,0.28765,-0.28264,-0.30397,-0.17598,-21.539,-0.2542,0.11877,7.677e-05,1,0.86,0
0,-0.026853,1,-0.56752,-1.6006,-1.6504,-0.041362,0,0,1.4078,0.064777,0,-0.10754,0,0,0.6151,-9.1854e-16,0,0.61498,-0.56587,-1.6023,-1.6504,-2.2891,-1.2729,1.0613,0.06097,0,0.88,0
0.028156,-0.029004,0.9877,-0.54203,-1.5418,-1.6129,-0.073579,0,0,1.3921,0.09232,0,-0.19131,0,0,0.61943,0.026396,0,0.61994,-0.53665,-1.5472,-1.6129,-4.1865,-1.2323,1.045,0.057822,0.02,0.88,0
0.055369,-0.035561,0.97514,-0.59779,-1.4739,-1.5966,-0.19156,0,0,1.2985,0.15959,0,-0.49806,0,0,0.64258,0.045676,0,0.64428,-0.55774,-1.5139,-1.5966,-11.81,-1.2228,1.0001,0.050195,0.04,0.88,0
0.080717,-0.046249,0.96214,-0.58647,-1.2919,-1.5256,-0.24384,0,0,1.2209,0.3039,0,-0.63398,0,0,0.6576,0.053425,0,0.65989,-0.51039,-1.3679,-1.5256,-17.329,-1.1347,0.94632,0.039481,0.06,0.88,0
0.10328,-0.059531,0.94868,-0.69747,-1.1005,-1.4881,-0.27415,0,0,1.0278,0.50384,0,-0.71279,0,0,0.68565,0.049372,0,0.68746,-0.55874,-1.2392,-1.4881,-26.841,-1.0953,0.83326,0.021024,0.08,0.88,0
0.12283,-0.072746,0.93484,-0.67914,-0.88275,-1.4034,-0.24789,0,0,0.94154,0.67686,0,-0.64452,0,0,0.69566,0.039004,0,0.69675,-0.51296,-1.0489,-1.4034,-33.837,-0.98843,0.77647,0.008276,0.1,0.88,0
0.14021,-0.083833,0.92078,-0.73608,-0.77053,-1.3728,-0.17289,0,0,0.82769,0.7829,0,-0.44951,0,0,0.70664,0.027547,0,0.70717,-0.57955,-0.92705,-1.3728,-42.155,-0.95978,0.68869,-0.0035645,0.12,0.88,0
0.15635,-0.092078,0.90661,-0.71725,-0.68074,-1.326,-0.12327,0,0,0.79138,0.83885,0,-0.32049,0,0,0.70914,0.018279,0,0.70937,-0.57438,-0.82361,-1.326,-49.212,-0.908,0.66312,-0.00816,0.14,0.88,0
0.17187,-0.097607,0.89241,-0.70626,-0.63569,-1.295,-0.084097,0,0,0.76536,0.8571,0,-0.21865,0,0,0.70977,0.010489,0,0.70985,-0.57977,-0.76217,-1.295,-56.381,-0.87898,0.6437,-0.010081,0.16,0.88,0
0.18697,-0.10079,0.87822,-0.69538,-0.60714,-1.269,-0.056927,0,0,0.74567,0.86038,0,-0.14801,0,0,0.70894,0.0042201,0,0.70895,-0.57924,-0.72328,-1.269,-63.888,-0.85716,0.63018,-0.010625,0.18,0.88,0
0.2017,-0.10189,0.86405,-0.68805,-0.59004,-1.2475,-0.036992,0,0,0.72726,0.85467,0,-0.09618,0,0,0.70703,-0.0009944,0,0.70703,-0.57764,-0.70044,-1.2475,-71.476,-0.84185,0.61766,-0.010508,0.2,0.88,0
0.21606,-0.10104,0.84994,-0.68498,-0.58275,-1.2303,-0.019741,0,0,0.70886,0.84176,0,-0.051326,0,0,0.70405,-0.0055039,0,0.70407,-0.57907,-0.68866,-1.2303,-79.441,-0.83266,0.60389,-0.010067,0.22,0.88,0
0.23005,-0.098229,0.83589,-0.68521,-0.58611,-1.2173,-0.00072995,0,0,0.6917,0.82053,0,-0.0018979,0,0,0.69966,-0.0096104,0,0.69972,-0.5861,-0.68522,-1.2173,-89.578,-0.82954,0.58793,-0.0094452,0.24,0.88,0
0.24372,-0.093287,0.82195,-0.68557,-0.60402,-1.2088,0.02455,0,0,0.68023,0.78625,0,0.063831,0,0,0.69302,-0.013645,0,0.69316,-0.5972,-0.69239,-1.2088,74.474,-0.83281,0.57002,-0.0086252,0.26,0.88,0
0.25726,-0.085933,0.80817,-0.67602,-0.64421,-1.2042,0.058605,0,0,0.68669,0.72803,0,0.15237,0,0,0.68219,-0.018017,0,0.68245,-0.59939,-0.72084,-1.2042,52.59,-0.84149,0.5542,-0.0073466,0.28,0.88,0
0.27119,-0.076018,0.79466,-0.6493,-0.73084,-1.2087,0.096356,0,0,0.72723,0.62122,0,0.25052,0,0,0.66376,-0.023092,0,0.66424,-0.58544,-0.79469,-1.2087,33.532,-0.86295,0.54938,-0.0045406,0.3,0.88,0
0.28635,-0.064013,0.78162,-0.60595,-0.88246,-1.2281,0.11329,0,0,0.80885,0.44939,0,0.29455,0,0,0.63357,-0.025195,0,0.63432,-0.56547,-0.92295,-1.2281,19.666,-0.90552,0.57449,0.0013258,0.32,0.88,0
0.30355,-0.051417,0.76932,-0.55499,-1.0688,-1.2565,0.085513,0,0,0.9119,0.24397,0,0.22234,0,0,0.58861,-0.017893,0,0.58944,-0.54113,-1.0826,-1.2565,9.2056,-0.96007,0.64619,0.010552,0.34,0.88,0
0.32282,-0.040126,0.75808,-0.49593,-1.2043,-1.2682,0.019622,0,0,1.0039,0.082969,0,0.051018,0,0,0.52731,0.0063846,0,0.52827,-0.49539,-1.2049,-1.2682,1.5854,-0.98947,0.74315,0.020565,0.36,0.88,0
0.3437,-0.030774,0.74823,-0.44455,-1.2751,-1.2641,-0.042199,0,0,1.0655,-0.014288,0,-0.10972,0,0,0.44908,0.046597,0,0.4533,-0.44242,-1.2773,-1.2641,-2.9011,-0.9946,0.82836,0.029168,0.38,0.88,0
0.36544,-0.022454,0.74011,-0.41008,-1.2953,-1.2517,-0.065495,0,0,1.0941,-0.056616,0,-0.17029,0,0,0.35487,0.087419,0,0.36896,-0.40526,-1.3001,-1.2517,-4.2088,-0.98569,0.87165,0.03366,0.4,0.88,0
0.38747,-0.013768,0.73403,-0.35571,-0.77412,-0.7584,-0.060195,0,0,0.36084,-0.035772,0,-0.57915,0,0,0.2732,0.062676,0,0.28527,-0.31508,-0.81475,-0.7584,-29.457,-0.62941,0.48537,0.016742,0.42,0.88,0
0.37988,-0.021363,0.70009,-0.33774,-0.32256,-0.2981,-0.051567,0,0,-0.36068,-0.22256,0,-0.93852,0,0,0.2375,0.022442,0,0.23867,-0.27803,-0.38227,-0.2981,-49.186,-0.31947,0.095798,-3.8553e-05,0.44,0.88,0
0.37342,-0.026548,0.66822,-0.32615,-0.32574,-0.29103,-0.043819,0,0,-0.31965,-0.31585,0,-0.79751,0,0,0.2215,0.025782,0,0.22299,-0.28213,-0.36976,-0.29103,-45.136,-0.31431,0.083545,-2.8806e-05,0.46,0.88,0
0.36709,-0.029533,0.63807,-0.31776,-0.31914,-0.28222,-0.036533,0,0,-0.32337,-0.33593,0,-0.6649,0,0,0.21082,0.020596,0,0.21182,-0.28191,-0.35498,-0.28222,-44.459,-0.30637,0.072922,-1.9915e-05,0.48,0.88,0
0.36048,-0.031055,0.60919,-0.31133,-0.31106,-0.27374,-0.031011,0,0,-0.342,-0.33958,0,-0.56439,0,0,0.20314,0.015222,0,0.2037,-0.28018,-0.3422,-0.27374,-45.123,-0.29871,0.065479,-1.395e-05,0.5,0.88,0
0.35341,-0.031655,0.58119,-0.30604,-0.30267,-0.26564,-0.026744,0,0,-0.36766,-0.33694,0,-0.48674,0,0,0.19785,0.010577,0,0.19812,-0.27756,-0.33115,-0.26564,-46.805,-0.29145,0.060441,-9.8703e-06,0.52,0.88,0
0.34578,-0.031678,0.5538,-0.30175,-0.2928,-0.25748,-0.021951,0,0,-0.40289,-0.3214,0,-0.39951,0,0,0.19365,0.0057799,0,0.19374,-0.27487,-0.31968,-0.25748,-50.764,-0.28401,0.055583,-5.9957e-06,0.54,0.88,0
0.33751,-0.031337,0.52683,-0.29587,-0.28387,-0.24918,-0.019687,0,0,-0.42486,-0.31564,0,-0.3583,0,0,0.1919,0.0029343,0,0.19192,-0.26929,-0.31045,-0.24918,-53.476,-0.27631,0.054094,-4.507e-06,0.56,0.88,0
0.32855,-0.030769,0.50017,-0.29425,-0.27783,-0.24308,-0.018539,0,0,-0.46565,-0.31628,0,-0.33741,0,0,0.1896,0.0011073,0,0.1896,-0.26577,-0.30632,-0.24308,-56.939,-0.27172,0.055489,-4.0903e-06,0.58,0.88,0
0.31888,-0.030057,0.47374,-0.29191,-0.26922,-0.23602,-0.015593,0,0,-0.5086,-0.30218,0,-0.28379,0,0,0.18795,-0.0013886,0,0.18796,-0.26128,-0.29984,-0.23602,-63.016,-0.26571,0.055677,-3.115e-06,0.6,0.88,0
0.30846,-0.029252,0.44748,-0.2878,-0.26049,-0.22841,-0.013509,0,0,-0.54042,-0.29191,0,-0.24587,0,0,0.18706,-0.0032128,0,0.18709,-0.25494,-0.29335,-0.22841,-67.653,-0.2589,0.056553,-2.8867e-06,0.62,0.88,0
0.29726,-0.028381,0.42136,-0.28542,-0.25298,-0.22171,-0.01195,0,0,-0.57969,-0.28455,0,-0.21749,0,0,0.18622,-0.0046286,0,0.18628,-0.24906,-0.28934,-0.22171,-71.806,-0.25337,0.058925,-3.407e-06,0.64,0.88,0
0.28527,-0.02746,0.39534,-0.28326,-0.24555,-0.21512,-0.010418,0,0,-0.62009,-0.27687,0,-0.1896,0,0,0.18559,-0.0059041,0,0.18568,-0.24286,-0.28595,-0.21512,-75.541,-0.24798,0.061817,-4.426e-06,0.66,0.88,0
0.27246,-0.026496,0.3694,-0.28133,-0.23817,-0.20862,-0.0088742,0,0,-0.66164,-0.26889,0,-0.16151,0,0,0.18512,-0.0070997,0,0.18526,-0.23641,-0.28308,-0.20862,-78.823,-0.24271,0.065172,-6.0023e-06,0.68,0.88,0
0.25881,-0.025491,0.34351,-0.27961,-0.23085,-0.20221,-0.0072902,0,0,-0.70436,-0.26061,0,-0.13268,0,0,0.18482,-0.0082721,0,0.18501,-0.22978,-0.28068,-0.20221,-81.677,-0.23756,0.06895,-8.2168e-06,0.7,0.88,0
0.24429,-0.024448,0.31765,-0.27814,-0.22359,-0.1959,-0.0056418,0,0,-0.74839,-0.25202,0,-0.10268,0,0,0.18468,-0.0094763,0,0.18492,-0.22301,-0.27871,-0.1959,-84.156,-0.23254,0.073132,-1.1178e-05,0.72,0.88,0
0.22887,-0.023366,0.2918,-0.27692,-0.21639,-0.18968,-0.0039085,0,0,-0.79394,-0.24304,0,-0.071135,0,0,0.18472,-0.010768,0,0.18503,-0.21613,-0.27718,-0.18968,-86.321,-0.22766,0.077723,-1.5033e-05,0.74,0.88,0
0.21253,-0.022245,0.26593,-0.27603,-0.20923,-0.18357,-0.0020732,0,0,-0.84142,-0.23352,0,-0.037733,0,0,0.18497,-0.012206,0,0.18537,-0.20916,-0.27609,-0.18357,-88.224,-0.22294,0.082753,-1.9993e-05,0.76,0.88,0
0.19521,-0.02109,0.24,-0.27554,-0.20211,-0.17758,-0.00012501,0,0,-0.89142,-0.22319,0,-0.0022752,0,0,0.18549,-0.013853,0,0.18601,-0.20211,-0.27554,-0.17758,-89.903,-0.21841,0.088289,-2.6365e-05,0.78,0.88,0
0.17687,-0.019906,0.21399,-0.27557,-0.19499,-0.17174,0.0019331,0,0,-0.94488,-0.21161,0,0.035183,0,0,0.1864,-0.015772,0,0.18707,-0.19495,-0.27562,-0.17174,88.626,-0.2141,0.094439,-3.461e-05,0.8,0.88,0
0.15742,-0.018705,0.18781,-0.27631,-0.18785,-0.16608,0.0040686,0,0,-1.0031,-0.19816,0,0.074049,0,0,0.18787,-0.018028,0,0.18873,-0.18767,-0.27649,-0.16608,87.372,-0.21008,0.10136,-4.5411e-05,0.82,0.88,0
0.13675,-0.017511,0.16139,-0.27796,-0.18065,-0.16064,0.0061906,0,0,-1.0676,-0.18208,0,0.11267,0,0,0.19017,-0.020654,0,0.19129,-0.18025,-0.27835,-0.16064,86.375,-0.20641,0.10923,-5.9731e-05,0.84,0.88,0
0.11471,-0.016363,0.13457,-0.28071,-0.17332,-0.15543,0.0081209,0,0,-1.14,-0.16276,0,0.1478,0,0,0.19373,-0.023605,0,0.19517,-0.17271,-0.28132,-0.15543,85.7,-0.20315,0.1182,-7.8749e-05,0.86,0.88,0
0.091146,-0.015314,0.10714,-0.28462,-0.16592,-0.15047,0.0095875,0,0,-1.2208,-0.14064,0,0.17449,0,0,0.19917,-0.026586,0,0.20096,-0.16515,-0.28539,-0.15047,85.412,-0.20034,0.12821,-0.00010346,0.88,0.88,0
0.065883,-0.014391,0.078799,-0.28939,-0.1586,-0.14566,0.010446,0,0,-1.308,-0.11783,0,0.19012,0,0,0.20687,-0.028632,0,0.20889,-0.15777,-0.29022,-0.14566,85.462,-0.19788,0.1389,-0.00013412,0.9,0.88,0
0.038826,-0.013429,0.049216,-0.29559,-0.1518,-0.14125,0.010584,0,0,-1.4045,-0.09603,0,0.19263,0,0,0.2164,-0.027495,0,0.21821,-0.15103,-0.29637,-0.14125,85.813,-0.19621,0.15047,-0.00017247,0.92,0.88,0
0.0097028,-0.012174,0.018205,-0.2908,-0.17372,-0.14976,0.0064358,0,0,-0.80742,-0.054512,0,0.088026,0,0,0.23976,-0.085596,0,0.26116,-0.17336,-0.29115,-0.14976,86.978,-0.20476,0.13276,-0.00011723,0.94,0.88,0
0.0065293,-0.014053,0.013045,-0.31505,-0.28625,-0.19344,-0.00092643,0,0,-0.1581,-0.12066,0,-0.0024087,0,0,0.28472,-0.12231,0,0.31066,-0.28622,-0.31508,-0.19344,-88.159,-0.26491,0.11009,5.2982e-05,0.96,0.88,0
0.0033789,-0.015617,0.0068167,-0.32098,-0.30768,-0.19542,0.00088364,0,0,-0.16323,-0.14595,0,0.0022975,0,0,0.32613,-0.067857,0,0.33249,-0.30762,-0.32104,-0.19542,86.215,-0.27469,0.11948,8.3892e-05,0.98,0.88,0
0,-0.016164,0,-0.31246,-0.2959,-0.18251,-0.010511,0,0,-0.16894,-0.1474,0,-0.027327,0,0,0.34083,-1.3878e-17,0,0.33967,-0.2908,-0.31756,-0.18251,-64.123,-0.26362,0.12386,8.2439e-05,1,0.88,0
0,-0.024942,1,-0.55614,-1.5258,-1.6246,-0.033549,0,0,1.389,0.12844,0,-0.087228,0,0,0.63662,1.1345e-15,0,0.63658,-0.55498,-1.5269,-1.6246,-1.9793,-1.2355,1.0243,0.053503,0,0.9,0
0.027779,-0.026686,0.98727,-0.54883,-1.4814,-1.5963,-0.075081,0,0,1.3618,0.14938,0,-0.19521,0,0,0.64038,0.017345,0,0.64059,-0.54283,-1.4874,-1.5963,-4.5735,-1.2089,1.0035,0.049848,0.02,0.9,0
0.054471,-0.031815,0.97438,-0.57345,-1.3981,-1.5659,-0.14566,0,0,1.2901,0.21805,0,-0.37871,0,0,0.65051,0.030489,0,0.65125,-0.54848,-1.4231,-1.5659,-9.7279,-1.1791,0.95404,0.041252,0.04,0.9,0
0.079384,-0.039836,0.96125,-0.61052,-1.2627,-1.5232,-0.1986,0,0,1.1865,0.33867,0,-0.51636,0,0,0.66417,0.036748,0,0.66523,-0.55481,-1.3184,-1.5232,-15.671,-1.1321,0.88399,0.02916,0.06,0.9,0
0.10193,-0.04963,0.94782,-0.6523,-1.0926,-1.4713,-0.21894,0,0,1.0647,0.4923,0,-0.56925,0,0,0.67793,0.036118,0,0.67892,-0.56196,-1.1829,-1.4713,-22.421,-1.0721,0.80487,0.015654,0.08,0.9,0
0.12197,-0.059652,0.93413,-0.69166,-0.93105,-1.4209,-0.20379,0,0,0.94807,0.63686,0,-0.52985,0,0,0.68919,0.030717,0,0.68988,-0.57501,-1.0477,-1.4209,-29.786,-1.0146,0.73428,0.0041051,0.1,0.9,0
0.13985,-0.068554,0.92025,-0.72095,-0.80682,-1.3786,-0.16727,0,0,0.85492,0.74329,0,-0.43491,0,0,0.69691,0.023485,0,0.69731,-0.59119,-0.93658,-1.3786,-37.802,-0.96878,0.68361,-0.0034552,0.12,0.9,0
0.15617,-0.075587,0.90625,-0.73667,-0.72151,-1.3437,-0.12598,0,0,0.78915,0.80886,0,-0.32755,0,0,0.70137,0.016396,0,0.70155,-0.60288,-0.85529,-1.3437,-46.721,-0.93396,0.65234,-0.0073993,0.14,0.9,0
0.17142,-0.080558,0.8922,-0.74199,-0.66534,-1.3144,-0.090136,0,0,0.74413,0.84377,0,-0.23435,0,0,0.70338,0.010279,0,0.70345,-0.60572,-0.80161,-1.3144,-56.517,-0.90724,0.63385,-0.0089914,0.16,0.9,0
0.18593,-0.083547,0.87812,-0.74199,-0.62884,-1.2894,-0.061829,0,0,0.71159,0.85869,0,-0.16076,0,0,0.70368,0.005177,0,0.7037,-0.60161,-0.76923,-1.2894,-66.23,-0.88674,0.62115,-0.0093536,0.18,0.9,0
0.19988,-0.084697,0.86405,-0.74089,-0.60744,-1.2686,-0.039304,0,0,0.68596,0.85944,0,-0.10219,0,0,0.70267,0.00098451,0,0.70266,-0.59672,-0.7516,-1.2686,-74.75,-0.87229,0.60933,-0.0091375,0.2,0.9,0
0.21337,-0.084095,0.85001,-0.74005,-0.59939,-1.2518,-0.019475,0,0,0.66533,0.84819,0,-0.050635,0,0,0.70038,-0.0023898,0,0.70039,-0.59674,-0.7427,-1.2518,-82.261,-0.86376,0.59569,-0.0086984,0.22,0.9,0
0.2265,-0.081746,0.83603,-0.73869,-0.60552,-1.2393,0.00077697,0,0,0.65079,0.82391,0,0.0020201,0,0,0.69657,-0.004953,0,0.69659,-0.60551,-0.73869,-1.2393,89.666,-0.86117,0.5788,-0.0082092,0.24,0.9,0
0.2394,-0.077588,0.82215,-0.73345,-0.62929,-1.231,0.023484,0,0,0.64677,0.78219,0,0.061059,0,0,0.69055,-0.0065491,0,0.69059,-0.62424,-0.7385,-1.231,77.864,-0.86457,0.55844,-0.0076972,0.26,0.9,0
0.25237,-0.071568,0.80841,-0.72001,-0.67853,-1.228,0.047555,0,0,0.66036,0.71427,0,0.12364,0,0,0.68105,-0.0066575,0,0.6811,-0.64739,-0.75115,-1.228,56.779,-0.8755,0.53629,-0.0069326,0.28,0.9,0
0.26582,-0.063823,0.79491,-0.69519,-0.76201,-1.2321,0.065242,0,0,0.69794,0.61107,0,0.16963,0,0,0.66626,-0.0036549,0,0.66631,-0.6553,-0.8019,-1.2321,31.441,-0.89642,0.51923,-0.005304,0.3,0.9,0
0.28029,-0.054887,0.78176,-0.66066,-0.88004,-1.244,0.063296,0,0,0.7583,0.47312,0,0.16457,0,0,0.64413,0.0057803,0,0.64425,-0.64371,-0.89699,-1.244,14.994,-0.92822,0.52195,-0.0019455,0.32,0.9,0
0.29615,-0.045742,0.76914,-0.61988,-1.0112,-1.2585,0.030557,0,0,0.83016,0.32145,0,0.079449,0,0,0.61251,0.026849,0,0.61323,-0.61751,-1.0136,-1.2585,4.4383,-0.96318,0.5602,0.0035659,0.34,0.9,0
0.31349,-0.037421,0.75726,-0.57182,-1.1225,-1.2655,-0.029319,0,0,0.90185,0.18599,0,-0.076229,0,0,0.568,0.065254,0,0.57187,-0.57027,-1.124,-1.2655,-3.0392,-0.98662,0.63644,0.011065,0.36,0.9,0
0.33222,-0.030423,0.74642,-0.50096,-1.2013,-1.2571,-0.091555,0,0,0.98299,0.072522,0,-0.23804,0,0,0.49841,0.12587,0,0.51439,-0.48919,-1.2131,-1.2571,-7.326,-0.98646,0.74688,0.021148,0.38,0.9,0
0.35281,-0.023548,0.73732,-0.45428,-1.3055,-1.2653,-0.12074,0,0,1.0543,-0.052318,0,-0.31393,0,0,0.39313,0.20983,0,0.45008,-0.43748,-1.3223,-1.2653,-7.9191,-1.0084,0.85772,0.031926,0.4,0.9,0
0.37439,-0.014694,0.7307,-0.37961,-0.81214,-0.77507,-0.087447,0,0,0.36108,-0.084343,0,-0.78193,0,0,0.2888,0.14053,0,0.33314,-0.32985,-0.8619,-0.77507,-28.739,-0.6556,0.50554,0.017196,0.42,0.9,0
0.36725,-0.026322,0.69623,-0.33539,-0.33343,-0.30011,-0.064176,0,0,-0.32108,-0.30325,0,-1.168,0,0,0.23601,0.039676,0,0.23961,-0.27023,-0.3986,-0.30011,-45.437,-0.32298,0.11634,-6.3249e-05,0.44,0.9,0
0.36155,-0.032865,0.66461,-0.32091,-0.32966,-0.29012,-0.050311,0,0,-0.28021,-0.35987,0,-0.91565,0,0,0.21799,0.033006,0,0.22057,-0.27478,-0.37578,-0.29012,-42.514,-0.31356,0.094275,-3.9225e-05,0.46,0.9,0
0.35605,-0.036251,0.63519,-0.31166,-0.32128,-0.28062,-0.040645,0,0,-0.28239,-0.37002,0,-0.73975,0,0,0.20554,0.024748,0,0.20704,-0.27554,-0.3574,-0.28062,-41.622,-0.30452,0.07944,-2.5393e-05,0.48,0.9,0
0.35026,-0.037846,0.60706,-0.30509,-0.31238,-0.27196,-0.033776,0,0,-0.30146,-0.36777,0,-0.61472,0,0,0.19814,0.017756,0,0.19893,-0.27476,-0.34271,-0.27196,-41.922,-0.29648,0.069385,-1.7062e-05,0.5,0.9,0
0.34399,-0.038394,0.57971,-0.29993,-0.30324,-0.26377,-0.02876,0,0,-0.32909,-0.35918,0,-0.52343,0,0,0.19361,0.012203,0,0.19399,-0.27277,-0.33039,-0.26377,-43.355,-0.28898,0.062608,-1.1729e-05,0.52,0.9,0
0.33709,-0.038298,0.55285,-0.29586,-0.29439,-0.25605,-0.024988,0,0,-0.36225,-0.34887,0,-0.45479,0,0,0.19069,0.0078504,0,0.19085,-0.27013,-0.32013,-0.25605,-45.843,-0.2821,0.058322,-8.2236e-06,0.54,0.9,0
0.3295,-0.037813,0.52632,-0.29245,-0.28591,-0.2487,-0.022063,0,0,-0.39818,-0.33863,0,-0.40155,0,0,0.18871,0.0044213,0,0.18875,-0.26688,-0.31149,-0.2487,-49.218,-0.27569,0.055959,-5.9018e-06,0.56,0.9,0
0.32116,-0.037094,0.50001,-0.28946,-0.27775,-0.24159,-0.019678,0,0,-0.43555,-0.32906,0,-0.35814,0,0,0.18729,0.0016837,0,0.18729,-0.26308,-0.30413,-0.24159,-53.28,-0.2696,0.055039,-4.3761e-06,0.58,0.9,0
0.31207,-0.036231,0.47388,-0.28674,-0.26986,-0.23468,-0.017624,0,0,-0.4738,-0.32014,0,-0.32076,0,0,0.18623,-0.00054315,0,0.18623,-0.25876,-0.29784,-0.23468,-57.798,-0.26376,0.055214,-3.437e-06,0.6,0.9,0
0.30221,-0.035273,0.44787,-0.28424,-0.26215,-0.2279,-0.015763,0,0,-0.51273,-0.31169,0,-0.2869,0,0,0.18542,-0.0023983,0,0.18543,-0.25395,-0.29245,-0.2279,-62.51,-0.2581,0.056244,-2.9841e-06,0.62,0.9,0
0.29157,-0.034249,0.42196,-0.28193,-0.25459,-0.22124,-0.014005,0,0,-0.55231,-0.30353,0,-0.25489,0,0,0.18478,-0.0039911,0,0.18482,-0.24869,-0.28783,-0.22124,-67.152,-0.25259,0.057967,-2.9839e-06,0.64,0.9,0
0.28012,-0.033172,0.39613,-0.27978,-0.24715,-0.21467,-0.012286,0,0,-0.59253,-0.29555,0,-0.2236,0,0,0.18427,-0.0054106,0,0.18435,-0.24304,-0.28389,-0.21467,-71.511,-0.2472,0.060272,-3.4431e-06,0.66,0.9,0
0.26787,-0.032049,0.37036,-0.2778,-0.2398,-0.20819,-0.01056,0,0,-0.63342,-0.28767,0,-0.19219,0,0,0.18386,-0.0067331,0,0.18399,-0.23706,-0.28053,-0.20819,-75.466,-0.24193,0.063076,-4.3939e-06,0.68,0.9,0
0.25478,-0.030884,0.34465,-0.27597,-0.23254,-0.20179,-0.0087884,0,0,-0.67503,-0.27986,0,-0.15995,0,0,0.18355,-0.0080275,0,0.18373,-0.23083,-0.27768,-0.20179,-78.982,-0.23677,0.066323,-5.8889e-06,0.7,0.9,0
0.24086,-0.029675,0.31897,-0.27431,-0.22537,-0.19547,-0.0069351,0,0,-0.71745,-0.27208,0,-0.12622,0,0,0.18335,-0.0093609,0,0.18358,-0.22441,-0.27528,-0.19547,-82.089,-0.23172,0.069978,-8.0043e-06,0.72,0.9,0
0.22609,-0.028422,0.29331,-0.27286,-0.21828,-0.18924,-0.0049625,0,0,-0.76089,-0.26425,0,-0.090317,0,0,0.18325,-0.010803,0,0.18357,-0.21784,-0.27331,-0.18924,-84.847,-0.2268,0.07403,-1.0851e-05,0.74,0.9,0
0.21043,-0.027123,0.26766,-0.27166,-0.21127,-0.18312,-0.0028286,0,0,-0.80571,-0.25624,0,-0.051481,0,0,0.18329,-0.01243,0,0.18371,-0.21114,-0.27179,-0.18312,-87.324,-0.22201,0.078505,-1.4596e-05,0.76,0.9,0
0.19386,-0.025774,0.24199,-0.27079,-0.20433,-0.17711,-0.00048514,0,0,-0.85252,-0.24777,0,-0.0088296,0,0,0.18353,-0.014334,0,0.18409,-0.20433,-0.2708,-0.17711,-89.582,-0.21741,0.083474,-1.9513e-05,0.78,0.9,0
0.17633,-0.024369,0.21627,-0.27042,-0.19744,-0.17125,0.0021218,0,0,-0.90238,-0.23831,0,0.038617,0,0,0.18406,-0.016626,0,0.1848,-0.19738,-0.27048,-0.17125,88.336,-0.21304,0.089083,-2.6056e-05,0.8,0.9,0
0.15776,-0.022905,0.19045,-0.27078,-0.19054,-0.1656,0.0050417,0,0,-0.95706,-0.22697,0,0.091758,0,0,0.18504,-0.019446,0,0.18605,-0.19023,-0.27109,-0.1656,86.418,-0.20897,0.095584,-3.5015e-05,0.82,0.9,0
0.13805,-0.021381,0.16446,-0.27227,-0.18357,-0.16025,0.0082939,0,0,-1.0194,-0.21228,0,0.15095,0,0,0.18678,-0.02297,0,0.18818,-0.1828,-0.27304,-0.16025,84.703,-0.20536,0.10337,-4.7754e-05,0.84,0.9,0
0.11699,-0.019807,0.13816,-0.27549,-0.17642,-0.15531,0.011796,0,0,-1.0936,-0.19214,0,0.21469,0,0,0.18985,-0.027396,0,0.19181,-0.17504,-0.27687,-0.15531,83.302,-0.20241,0.113,-6.6554e-05,0.86,0.9,0
0.094299,-0.018232,0.1113,-0.28106,-0.16891,-0.15089,0.015295,0,0,-1.1845,-0.16398,0,0.27836,0,0,0.19536,-0.032854,0,0.19811,-0.16687,-0.28311,-0.15089,82.372,-0.20029,0.125,-9.4814e-05,0.88,0.9,0
0.069605,-0.016714,0.083455,-0.28945,-0.16114,-0.1471,0.018274,0,0,-1.2954,-0.12779,0,0.33259,0,0,0.20523,-0.039045,0,0.20897,-0.15859,-0.292,-0.1471,82.05,-0.19923,0.13951,-0.00013628,0.9,0.9,0
0.042484,-0.015228,0.053838,-0.29975,-0.15284,-0.14347,0.020883,0,0,-1.4222,-0.085283,0,0.38007,0,0,0.21976,-0.043067,0,0.22415,-0.14993,-0.30267,-0.14347,82.065,-0.19869,0.15607,-0.0001941,0.92,0.9,0
0.012717,-0.012843,0.021921,-0.307,-0.16368,-0.15373,0.021261,0,0,-0.83711,-0.022637,0,0.20792,0,0,0.26041,-0.14144,0,0.30838,-0.16048,-0.31021,-0.15373,81.565,-0.20814,0.15334,-0.00018669,0.94,0.9,0
0.0089993,-0.016387,0.016064,-0.36425,-0.30491,-0.21681,0.034221,0,0,-0.19167,-0.11453,0,0.088975,0,0,0.33596,-0.20294,0,0.39421,-0.28929,-0.37987,-0.21681,65.462,-0.29533,0.1415,-2.7776e-05,0.96,0.9,0
0.0050504,-0.01837,0.0084831,-0.38121,-0.28433,-0.20814,0.025942,0,0,-0.22498,-0.099038,0,0.067449,0,0,0.40161,-0.098966,0,0.41181,-0.27782,-0.38772,-0.20814,75.915,-0.29123,0.15681,-7.4531e-05,0.98,0.9,0
0,-0.018807,0,-0.39244,-0.26821,-0.1982,-0.0084048,0,0,-0.25252,-0.091016,0,-0.021852,0,0,0.42415,-6.9389e-18,0,0.42222,-0.26764,-0.39301,-0.1982,-86.147,-0.28628,0.17102,-0.0001215,1,0.9,0
0,-0.021715,1,-0.55802,-1.4586,-1.605,-0.025256,0,0,1.3611,0.19031,0,-0.065665,0,0,0.64979,7.2685e-16,0,0.64977,-0.55731,-1.4593,-1.605,-1.6051,-1.2072,0.98296,0.045188,0,0.92,0
0.027221,-0.023028,0.987,-0.54982,-1.414,-1.5761,-0.059826,0,0,1.3342,0.21078,0,-0.15555,0,0,0.65208,0.010657,0,0.65216,-0.54569,-1.4181,-1.5761,-3.9414,-1.18,0.96124,0.041491,0.02,0.92,0
0.05337,-0.026839,0.97392,-0.57297,-1.3377,-1.5471,-0.11348,0,0,1.2664,0.27222,0,-0.29505,0,0,0.65836,0.019054,0,0.65864,-0.55649,-1.3542,-1.5471,-8.2649,-1.1526,0.90965,0.032874,0.04,0.92,0
0.077877,-0.032702,0.96067,-0.60781,-1.2258,-1.5108,-0.15273,0,0,1.1738,0.37046,0,-0.3971,0,0,0.66712,0.023734,0,0.66756,-0.57212,-1.2615,-1.5108,-13.152,-1.1148,0.84213,0.021854,0.06,0.92,0
0.10032,-0.039839,0.94723,-0.6486,-1.092,-1.4694,-0.17015,0,0,1.0671,0.49062,0,-0.44239,0,0,0.67649,0.024461,0,0.67695,-0.59084,-1.1498,-1.4694,-18.752,-1.07,0.77022,0.010585,0.08,0.92,0
0.12056,-0.047272,0.93361,-0.68891,-0.95893,-1.428,-0.16469,0,0,0.96077,0.60974,0,-0.4282,0,0,0.6849,0.022103,0,0.68527,-0.61096,-1.0369,-1.428,-25.328,-1.0253,0.70776,0.0013431,0.1,0.92,0
0.13875,-0.054101,0.91984,-0.72298,-0.84492,-1.3902,-0.14267,0,0,0.86739,0.70887,0,-0.37093,0,0,0.69146,0.018011,0,0.69169,-0.6288,-0.9391,-1.3902,-33.43,-0.98604,0.66314,-0.0046989,0.12,0.92,0
0.15526,-0.059724,0.90595,-0.74774,-0.75709,-1.3574,-0.11356,0,0,0.79256,0.78041,0,-0.29524,0,0,0.69593,0.013403,0,0.69606,-0.63876,-0.86606,-1.3574,-43.822,-0.95408,0.63621,-0.0077606,0.14,0.92,0
0.17045,-0.063856,0.892,-0.76343,-0.69393,-1.3292,-0.084628,0,0,0.73551,0.82586,0,-0.22003,0,0,0.69856,0.0090282,0,0.69861,-0.6372,-0.82017,-1.3292,-56.162,-0.92886,0.62108,-0.0087997,0.16,0.92,0
0.18468,-0.066439,0.87801,-0.77247,-0.65141,-1.3052,-0.059264,0,0,0.69251,0.84989,0,-0.15409,0,0,0.69965,0.0052372,0,0.69967,-0.62723,-0.79665,-1.3052,-67.803,-0.90969,0.61111,-0.0087548,0.18,0.92,0
0.19816,-0.06751,0.86401,-0.77726,-0.62624,-1.2851,-0.037628,0,0,0.66014,0.85647,0,-0.097832,0,0,0.69947,0.0021723,0,0.69947,-0.61738,-0.78612,-1.2851,-76.757,-0.89619,0.60134,-0.0082744,0.2,0.92,0
0.21108,-0.067113,0.85003,-0.77911,-0.61707,-1.2689,-0.01836,0,0,0.6367,0.84736,0,-0.047736,0,0,0.69811,-4.2354e-05,0,0.69811,-0.61502,-0.78117,-1.2689,-83.616,-0.88836,0.58865,-0.0077304,0.22,0.92,0
0.22362,-0.065272,0.83609,-0.77773,-0.62442,-1.2567,3.0864e-05,0,0,0.6227,0.82201,0,8.0247e-05,0,0,0.6955,-0.0011712,0,0.6955,-0.62442,-0.77773,-1.2567,89.989,-0.88629,0.5713,-0.0073022,0.24,0.92,0
0.23599,-0.062,0.82221,-0.77169,-0.65071,-1.2489,0.017868,0,0,0.62041,0.77768,0,0.046456,0,0,0.69132,-0.00071239,0,0.69132,-0.64813,-0.77428,-1.2489,81.772,-0.89045,0.54871,-0.006997,0.26,0.92,0
0.24844,-0.057362,0.80844,-0.75941,-0.69944,-1.2461,0.032826,0,0,0.63268,0.71065,0,0.085348,0,0,0.68508,0.0023735,0,0.68509,-0.68497,-0.77389,-1.2461,66.206,-0.90165,0.52237,-0.0066115,0.28,0.92,0
0.2613,-0.051575,0.79481,-0.74095,-0.7725,-1.2488,0.039233,0,0,0.66026,0.61925,0,0.10201,0,0,0.67619,0.010037,0,0.67627,-0.71444,-0.79901,-1.2488,34.05,-0.92076,0.49754,-0.0057144,0.3,0.92,0
0.27485,-0.045088,0.78139,-0.71895,-0.86534,-1.2567,0.029257,0,0,0.69905,0.50873,0,0.076068,0,0,0.66407,0.025531,0,0.66454,-0.71332,-0.87097,-1.2567,10.893,-0.94699,0.48418,-0.003814,0.32,0.92,0
0.28926,-0.038559,0.76824,-0.69762,-0.96481,-1.267,-0.0031286,0,0,0.74016,0.39281,0,-0.0081343,0,0,0.64809,0.05366,0,0.65017,-0.69759,-0.96485,-1.267,-0.67077,-0.97647,0.49341,-0.00065286,0.34,0.92,0
0.30446,-0.032687,0.75546,-0.67856,-1.0554,-1.2757,-0.058248,0,0,0.77624,0.28629,0,-0.15144,0,0,0.62632,0.10127,0,0.63401,-0.66976,-1.0642,-1.2757,-8.5884,-1.0032,0.53265,0.0038434,0.36,0.92,0
0.32031,-0.027873,0.74319,-0.6483,-1.1315,-1.2771,-0.13707,0,0,0.81748,0.18932,0,-0.35639,0,0,0.59366,0.1793,0,0.61887,-0.61212,-1.1677,-1.2771,-14.784,-1.019,0.6176,0.010829,0.38,0.92,0
0.33716,-0.024547,0.73172,-0.48908,-1.1801,-1.2325,-0.19577,0,0,0.96639,0.068127,0,-0.509,0,0,0.47494,0.31087,0,0.56397,-0.43747,-1.2317,-1.2325,-14.769,-0.9672,0.79459,0.025767,0.4,0.92,0
0.35896,-0.017142,0.72419,-0.41617,-0.9196,-0.81456,-0.1862,0,0,0.35428,-0.23897,0,-1.2927,0,0,0.31385,0.3274,0,0.47786,-0.3271,-1.0087,-0.81456,-30.515,-0.71677,0.61796,0.024263,0.42,0.92,0
0.35133,-0.033493,0.68898,-0.34436,-0.36331,-0.31073,-0.086929,0,0,-0.30607,-0.4785,0,-1.5821,0,0,0.2329,0.06655,0,0.2425,-0.26639,-0.44128,-0.31073,-41.89,-0.33947,0.15747,-0.00014825,0.44,0.92,0
0.34672,-0.040943,0.65898,-0.31689,-0.34462,-0.29259,-0.062407,0,0,-0.22113,-0.47342,0,-1.1358,0,0,0.20657,0.045839,0,0.21154,-0.26683,-0.39469,-0.29259,-38.738,-0.31804,0.11712,-6.9238e-05,0.46,0.92,0
0.34248,-0.044333,0.63114,-0.30502,-0.33164,-0.28116,-0.047844,0,0,-0.2171,-0.45935,0,-0.87077,0,0,0.19557,0.031656,0,0.19807,-0.26866,-0.36799,-0.28116,-37.226,-0.30594,0.093703,-3.9734e-05,0.48,0.92,0
0.33804,-0.045766,0.60422,-0.29753,-0.31899,-0.27127,-0.038591,0,0,-0.23894,-0.4342,0,-0.70235,0,0,0.1906,0.021759,0,0.19181,-0.2682,-0.34831,-0.27127,-37.232,-0.29593,0.078619,-2.483e-05,0.5,0.92,0
0.33293,-0.046023,0.57778,-0.29312,-0.30779,-0.26281,-0.032289,0,0,-0.27583,-0.40926,0,-0.58766,0,0,0.18794,0.014692,0,0.1885,-0.26734,-0.33357,-0.26281,-38.604,-0.28791,0.0686,-1.6337e-05,0.52,0.92,0
0.327,-0.045633,0.5516,-0.28994,-0.29771,-0.25509,-0.02791,0,0,-0.31708,-0.38779,0,-0.50796,0,0,0.18638,0.0095032,0,0.18661,-0.26564,-0.322,-0.25509,-41.037,-0.28091,0.062307,-1.1232e-05,0.54,0.92,0
0.32024,-0.044882,0.52559,-0.28726,-0.28851,-0.24781,-0.024664,0,0,-0.35895,-0.3703,0,-0.44888,0,0,0.18536,0.0055892,0,0.18544,-0.26321,-0.31255,-0.24781,-44.276,-0.27453,0.058579,-7.9698e-06,0.56,0.92,0
0.31265,-0.043931,0.4997,-0.2848,-0.27993,-0.2408,-0.022079,0,0,-0.40031,-0.35609,0,-0.40185,0,0,0.18464,0.0025566,0,0.18465,-0.26015,-0.30458,-0.2408,-48.14,-0.26851,0.056635,-5.7919e-06,0.58,0.92,0
0.30423,-0.042862,0.47389,-0.28245,-0.2718,-0.23397,-0.019874,0,0,-0.44111,-0.34422,0,-0.3617,0,0,0.18408,0.00014184,0,0.18408,-0.25655,-0.2977,-0.23397,-52.498,-0.26274,0.055963,-4.3167e-06,0.6,0.92,0
0.295,-0.041719,0.44816,-0.28018,-0.26396,-0.22727,-0.017881,0,0,-0.48155,-0.33394,0,-0.32544,0,0,0.18362,-0.0018396,0,0.18362,-0.25244,-0.29171,-0.22727,-57.199,-0.25714,0.056252,-3.3643e-06,0.62,0.92,0
0.28497,-0.040522,0.42248,-0.278,-0.25634,-0.22066,-0.016001,0,0,-0.52183,-0.32474,0,-0.29123,0,0,0.18321,-0.0035226,0,0.18324,-0.24785,-0.28649,-0.22066,-62.044,-0.25167,0.057302,-2.8577e-06,0.64,0.92,0
0.27413,-0.039282,0.39686,-0.2759,-0.24889,-0.21413,-0.014168,0,0,-0.56207,-0.31631,0,-0.25785,0,0,0.18285,-0.0050119,0,0.18291,-0.24282,-0.28196,-0.21413,-66.813,-0.2463,0.058979,-2.7722e-06,0.66,0.92,0
0.26248,-0.038003,0.37128,-0.27386,-0.24157,-0.20767,-0.01233,0,0,-0.60235,-0.30849,0,-0.2244,0,0,0.18251,-0.0063937,0,0.18262,-0.2374,-0.27803,-0.20767,-71.317,-0.24103,0.061179,-3.11e-06,0.68,0.92,0
0.25003,-0.036686,0.34575,-0.27191,-0.23438,-0.20128,-0.010443,0,0,-0.64271,-0.30121,0,-0.19006,0,0,0.18219,-0.0077448,0,0.18236,-0.23167,-0.27462,-0.20128,-75.451,-0.23586,0.063822,-3.8899e-06,0.7,0.92,0
0.23678,-0.035331,0.32027,-0.27003,-0.22731,-0.19496,-0.0084626,0,0,-0.68319,-0.29445,0,-0.15402,0,0,0.18191,-0.0091395,0,0.18213,-0.2257,-0.27165,-0.19496,-79.193,-0.23077,0.066851,-5.1457e-06,0.72,0.92,0
0.22271,-0.033936,0.29482,-0.26825,-0.22038,-0.18871,-0.0063384,0,0,-0.72389,-0.28819,0,-0.11536,0,0,0.18165,-0.010656,0,0.18196,-0.21955,-0.26908,-0.18871,-82.585,-0.22578,0.070229,-6.932e-06,0.74,0.92,0
0.20782,-0.032495,0.26941,-0.2666,-0.21357,-0.18254,-0.0040073,0,0,-0.76497,-0.2824,0,-0.072933,0,0,0.18144,-0.012384,0,0.18186,-0.21327,-0.2669,-0.18254,-85.703,-0.2209,0.073954,-9.3409e-06,0.76,0.92,0
0.19211,-0.031001,0.24402,-0.26513,-0.20691,-0.17647,-0.001385,0,0,-0.80682,-0.27696,0,-0.025207,0,0,0.1813,-0.014437,0,0.18187,-0.20687,-0.26517,-0.17647,-88.638,-0.21617,0.078067,-1.2538e-05,0.78,0.92,0
0.17555,-0.029438,0.21864,-0.26396,-0.20038,-0.17054,0.0016458,0,0,-0.85016,-0.27159,0,0.029953,0,0,0.18129,-0.016962,0,0.18208,-0.20034,-0.264,-0.17054,88.518,-0.21163,0.082696,-1.6843e-05,0.8,0.92,0
0.1581,-0.027784,0.19326,-0.26331,-0.19399,-0.1648,0.0052485,0,0,-0.89648,-0.26562,0,0.095523,0,0,0.18152,-0.020172,0,0.18264,-0.19359,-0.26371,-0.1648,85.695,-0.20736,0.088114,-2.2904e-05,0.82,0.92,0
0.13969,-0.026002,0.16782,-0.26362,-0.18768,-0.15936,0.0096374,0,0,-0.94871,-0.25768,0,0.1754,0,0,0.18222,-0.024382,0,0.18383,-0.18648,-0.26482,-0.15936,82.879,-0.20355,0.094853,-3.2058e-05,0.84,0.92,0
0.12015,-0.024049,0.14224,-0.26571,-0.18138,-0.15445,0.015078,0,0,-1.0125,-0.2451,0,0.27442,0,0,0.18385,-0.030078,0,0.18627,-0.17877,-0.26833,-0.15445,80.162,-0.20052,0.10388,-4.7106e-05,0.86,0.92,0
0.099187,-0.021873,0.11634,-0.27135,-0.17511,-0.15056,0.02175,0,0,-1.0992,-0.22344,0,0.39586,0,0,0.18752,-0.038035,0,0.19131,-0.17043,-0.27604,-0.15056,77.838,-0.19901,0.11682,-7.3964e-05,0.88,0.92,0
0.076183,-0.019503,0.089731,-0.28305,-0.16873,-0.14835,0.029896,0,0,-1.2257,-0.18545,0,0.5441,0,0,0.19666,-0.049456,0,0.20274,-0.16139,-0.2904,-0.14835,76.195,-0.20004,0.136,-0.00012519,0.9,0.92,0
0.050158,-0.01684,0.061275,-0.30705,-0.16525,-0.15045,0.040045,0,0,-1.4251,-0.13476,0,0.72882,0,0,0.22009,-0.066233,0,0.23008,-0.15473,-0.31758,-0.15045,75.271,-0.20758,0.16504,-0.00023034,0.92,0.92,0
0.019178,-0.01308,0.028106,-0.32418,-0.19081,-0.17056,0.10352,0,0,-0.86356,-0.046075,0,0.64566,0,0,0.29204,-0.30767,0,0.44666,-0.12632,-0.38867,-0.17056,64.358,-0.22852,0.24438,-0.00070537,0.94,0.92,0
0.015616,-0.018634,0.021163,-0.42456,-0.2354,-0.21915,0.10378,0,0,-0.26703,-0.021122,0,0.26982,0,0,0.43327,-0.27621,0,0.50851,-0.18957,-0.47039,-0.21915,66.172,-0.29303,0.26726,-0.00094009,0.96,0.92,0
0.008497,-0.019579,0.010775,-0.54679,-0.23893,-0.24649,0.066001,0,0,-0.39039,0.009833,0,0.1716,0,0,0.52907,-0.12242,0,0.54022,-0.22537,-0.56034,-0.24649,78.396,-0.34407,0.32493,-0.0017368,0.98,0.92,0
0,-0.019804,0,-0.56117,-0.22004,-0.23436,-0.0043399,0,0,-0.42485,0.018619,0,-0.011284,0,0,0.53877,2.0817e-17,0,0.53648,-0.21999,-0.56123,-0.23436,-89.271,-0.33853,0.33428,-0.0019066,1,0.92,0
0,-0.01733,1,-0.56476,-1.4051,-1.591,-0.017798,0,0,1.3341,0.2416,0,-0.046275,0,0,0.65794,-9.4998e-16,0,0.65793,-0.56438,-1.4055,-1.591,-1.2128,-1.1869,0.94756,0.038115,0,0.94,0
0.026681,-0.018255,0.98684,-0.5557,-1.3625,-1.5623,-0.043874,0,0,1.3086,0.25977,0,-0.11407,0,0,0.65943,0.0065296,0,0.65946,-0.55332,-1.3648,-1.5623,-3.1036,-1.1602,0.92617,0.034635,0.02,0.94,0
0.052343,-0.020927,0.97362,-0.577,-1.2945,-1.5351,-0.082608,0,0,1.2455,0.31277,0,-0.21478,0,0,0.66359,0.011838,0,0.6637,-0.56761,-1.3039,-1.5351,-6.4839,-1.1355,0.87507,0.026486,0.04,0.94,0
0.076501,-0.025017,0.9603,-0.60942,-1.1993,-1.5029,-0.11086,0,0,1.1616,0.39469,0,-0.28823,0,0,0.66958,0.015094,0,0.66976,-0.58927,-1.2195,-1.5029,-10.3,-1.1039,0.81001,0.016456,0.06,0.94,0
0.098805,-0.030005,0.94684,-0.64824,-1.0876,-1.4676,-0.1247,0,0,1.0651,0.49404,0,-0.32423,0,0,0.67629,0.01607,0,0.6765,-0.61531,-1.1205,-1.4676,-14.792,-1.0678,0.7423,0.0066087,0.08,0.94,0
0.11911,-0.035263,0.93325,-0.6882,-0.97342,-1.4317,-0.12356,0,0,0.96659,0.59581,0,-0.32127,0,0,0.68274,0.015104,0,0.68291,-0.64212,-1.0195,-1.4317,-20.454,-1.0311,0.68405,-0.0012548,0.1,0.94,0
0.13747,-0.040199,0.91953,-0.72458,-0.86966,-1.3978,-0.11069,0,0,0.87519,0.68659,0,-0.2878,0,0,0.68821,0.012857,0,0.68834,-0.66478,-0.92946,-1.3978,-28.381,-0.99735,0.64293,-0.0062686,0.12,0.94,0
0.15411,-0.044371,0.90572,-0.75434,-0.78375,-1.3671,-0.091292,0,0,0.79665,0.75841,0,-0.23736,0,0,0.69238,0.010022,0,0.69246,-0.67657,-0.86151,-1.3671,-40.425,-0.96841,0.61917,-0.0086249,0.14,0.94,0
0.16933,-0.047524,0.89184,-0.77653,-0.71799,-1.3402,-0.070133,0,0,0.73276,0.80886,0,-0.18235,0,0,0.69522,0.0071419,0,0.69525,-0.67127,-0.82326,-1.3402,-56.327,-0.9449,0.60737,-0.0091233,0.16,0.94,0
0.18342,-0.049552,0.87791,-0.79179,-0.67177,-1.317,-0.050082,0,0,0.68274,0.83877,0,-0.13021,0,0,0.69683,0.0045701,0,0.69684,-0.65362,-0.80995,-1.317,-70.077,-0.92685,0.60065,-0.0086401,0.18,0.94,0
0.19664,-0.050438,0.86396,-0.80131,-0.64379,-1.2975,-0.03209,0,0,0.64504,0.84981,0,-0.083433,0,0,0.69739,0.0025447,0,0.69739,-0.6375,-0.80759,-1.2975,-78.916,-0.9142,0.59351,-0.0078389,0.2,0.94,0
0.20922,-0.0502,0.85001,-0.80596,-0.63327,-1.2818,-0.015945,0,0,0.61857,0.84307,0,-0.041457,0,0,0.69704,0.0012971,0,0.69704,-0.63181,-0.80742,-1.2818,-84.769,-0.907,0.58237,-0.0071213,0.22,0.94,0
0.22139,-0.048866,0.83608,-0.80604,-0.64038,-1.27,-0.0012831,0,0,0.60316,0.81852,0,-0.003336,0,0,0.6959,0.0011765,0,0.6959,-0.64037,-0.80605,-1.27,-89.556,-0.90547,0.56531,-0.0066621,0.24,0.94,0
0.23335,-0.04648,0.82218,-0.80144,-0.66597,-1.2624,0.011432,0,0,0.59925,0.77536,0,0.029724,0,0,0.69409,0.0028036,0,0.6941,-0.66501,-0.8024,-1.2624,85.21,-0.90994,0.54192,-0.0064368,0.26,0.94,0
0.24536,-0.043142,0.80832,-0.79247,-0.7107,-1.2593,0.020193,0,0,0.60683,0.71314,0,0.052502,0,0,0.69179,0.0072781,0,0.69183,-0.70599,-0.79719,-1.2593,76.858,-0.92082,0.51379,-0.0062325,0.28,0.94,0
0.25762,-0.039052,0.79451,-0.78082,-0.77325,-1.2607,0.021366,0,0,0.62388,0.63372,0,0.055552,0,0,0.68941,0.016444,0,0.68959,-0.75534,-0.79873,-1.2607,50.02,-0.93827,0.48515,-0.0057068,0.3,0.94,0
0.27031,-0.034538,0.78074,-0.77027,-0.84853,-1.2664,0.010721,0,0,0.64495,0.5432,0,0.027874,0,0,0.68776,0.033199,0,0.68849,-0.76882,-0.84997,-1.2664,7.6605,-0.96173,0.46235,-0.0045536,0.32,0.94,0
0.28342,-0.030029,0.76699,-0.7671,-0.9279,-1.2755,-0.014782,0,0,0.66092,0.45187,0,-0.038434,0,0,0.68825,0.061935,0,0.69085,-0.76575,-0.92925,-1.2755,-5.2089,-0.99016,0.45081,-0.0027045,0.34,0.94,0
0.29675,-0.025969,0.75321,-0.78051,-1.0032,-1.2883,-0.057224,0,0,0.66015,0.37068,0,-0.14878,0,0,0.69364,0.10946,0,0.70173,-0.76667,-1.017,-1.2883,-13.601,-1.024,0.45188,-0.00032913,0.36,0.94,0
0.30983,-0.02285,0.73925,-0.8325,-1.0791,-1.3127,-0.11656,0,0,0.62429,0.30373,0,-0.30304,0,0,0.70801,0.18784,0,0.7312,-0.78613,-1.1255,-1.3127,-21.695,-1.0748,0.46234,0.0024139,0.38,0.94,0
0.32172,-0.020823,0.72489,-0.93906,-1.1727,-1.3584,-0.23695,0,0,0.54517,0.24142,0,-0.61607,0,0,0.78678,0.32399,0,0.84482,-0.7917,-1.3201,-1.3584,-31.877,-1.1567,0.54855,0.0083381,0.4,0.94,0
0.33164,-0.024252,0.70778,-0.83505,-0.90609,-0.92679,-0.30072,0,0,0.036456,-0.12546,0,-1.822,0,0,0.64453,0.34934,0,0.73989,-0.56764,-1.1735,-0.92679,-42.154,-0.88931,0.53183,0.00715,0.42,0.94,0
0.32777,-0.045462,0.67759,-0.80963,-0.42719,-0.75824,-0.18124,0,0,-0.1169,0.1739,0,-1.2712,0,0,0.79999,0.092142,0,0.80795,-0.3232,-0.91362,-0.75824,-55.773,-0.66502,0.54269,0.016372,0.44,0.94,0
0.32696,-0.051802,0.65178,-0.72323,-0.38255,-0.70418,-0.074817,0,0,-0.043332,0.18542,0,-0.71616,0,0,0.7324,0.055751,0,0.73648,-0.32809,-0.77769,-0.70418,-58.753,-0.60332,0.43179,0.010014,0.46,0.94,0
0.32604,-0.054625,0.62633,-0.70903,-0.34755,-0.67488,-0.04806,0,0,-0.0777,0.20497,0,-0.51389,0,0,0.72585,0.034781,0,0.72765,-0.3065,-0.75009,-0.67488,-59.363,-0.57715,0.42421,0.010438,0.48,0.94,0
0.32385,-0.055214,0.60097,-0.72236,-0.33239,-0.65984,-0.033893,0,0,-0.14225,0.22321,0,-0.39359,0,0,0.72469,0.022746,0,0.7255,-0.30123,-0.75352,-0.65984,-60.283,-0.57153,0.42551,0.010857,0.5,0.94,0
0.32035,-0.054765,0.5756,-0.7361,-0.32017,-0.64579,-0.027241,0,0,-0.20544,0.23598,0,-0.32527,0,0,0.72542,0.01497,0,0.72578,-0.29602,-0.76025,-0.64579,-61.441,-0.56735,0.43066,0.011005,0.52,0.94,0
0.31563,-0.053809,0.55019,-0.74695,-0.30999,-0.63148,-0.023468,0,0,-0.2627,0.24272,0,-0.28174,0,0,0.72635,0.0096133,0,0.7265,-0.29108,-0.76586,-0.63148,-62.94,-0.56281,0.43583,0.010762,0.54,0.94,0
0.30984,-0.052625,0.52475,-0.75444,-0.30068,-0.6164,-0.020942,0,0,-0.31405,0.24451,0,-0.25085,0,0,0.72703,0.0057254,0,0.72708,-0.28577,-0.76935,-0.6164,-64.712,-0.55717,0.44048,0.010221,0.56,0.94,0
0.30307,-0.051338,0.4993,-0.75944,-0.29185,-0.6007,-0.018898,0,0,-0.36112,0.24278,0,-0.22617,0,0,0.72736,0.0027856,0,0.72737,-0.28013,-0.77116,-0.6007,-66.718,-0.55066,0.44471,0.0094668,0.58,0.94,0
0.2954,-0.05,0.47384,-0.76279,-0.28332,-0.5846,-0.017047,0,0,-0.40539,0.23872,0,-0.20461,0,0,0.72735,0.00048139,0,0.72735,-0.2742,-0.77192,-0.5846,-68.941,-0.54357,0.44883,0.0085574,0.6,0.94,0
0.28686,-0.048631,0.44838,-0.76513,-0.275,-0.56826,-0.015279,0,0,-0.44789,0.23313,0,-0.18468,0,0,0.72702,-0.0013894,0,0.72703,-0.26803,-0.77211,-0.56826,-71.353,-0.53613,0.45305,0.0075273,0.62,0.94,0
0.27748,-0.047238,0.42295,-0.76683,-0.26686,-0.55179,-0.013549,0,0,-0.48921,0.22649,0,-0.16559,0,0,0.72643,-0.0029672,0,0.72644,-0.26166,-0.77203,-0.55179,-73.888,-0.5285,0.45752,0.0063962,0.64,0.94,0
0.26729,-0.045824,0.39753,-0.76808,-0.25889,-0.53525,-0.011831,0,0,-0.52968,0.21908,0,-0.14682,0,0,0.72558,-0.0043568,0,0.72562,-0.25512,-0.77184,-0.53525,-76.447,-0.52074,0.46229,0.0051765,0.66,0.94,0
0.25629,-0.044389,0.37216,-0.76897,-0.25107,-0.51867,-0.010096,0,0,-0.56943,0.21104,0,-0.12793,0,0,0.72452,-0.0056429,0,0.72458,-0.24844,-0.7716,-0.51867,-78.924,-0.5129,0.46733,0.0038776,0.68,0.94,0
0.24451,-0.042932,0.34682,-0.76953,-0.24339,-0.50206,-0.0083111,0,0,-0.6085,0.20241,0,-0.10852,0,0,0.72324,-0.0068997,0,0.72332,-0.24165,-0.77127,-0.50206,-81.246,-0.50499,0.4726,0.0025079,0.7,0.94,0
0.23195,-0.041453,0.32153,-0.76975,-0.23587,-0.48542,-0.0064386,0,0,-0.64685,0.19322,0,-0.088136,0,0,0.72174,-0.0081989,0,0.72186,-0.23481,-0.77081,-0.48542,-83.383,-0.49701,0.47803,0.0010763,0.72,0.94,0
0.21864,-0.03995,0.29629,-0.76958,-0.22851,-0.46874,-0.0044303,0,0,-0.68442,0.18342,0,-0.066231,0,0,0.72001,-0.0096171,0,0.72018,-0.22794,-0.77015,-0.46874,-85.348,-0.48894,0.48355,-0.00040729,0.74,0.94,0
0.20458,-0.038419,0.27113,-0.76897,-0.22131,-0.45202,-0.0022199,0,0,-0.72108,0.17297,0,-0.042094,0,0,0.71805,-0.011244,0,0.71828,-0.22108,-0.7692,-0.45202,2.8142,-0.48077,0.48905,-0.0019312,0.76,0.94,0
0.18979,-0.036852,0.24603,-0.76785,-0.21431,-0.43524,0.00029583,0,0,-0.75669,0.16182,0,-0.014687,0,0,0.71581,-0.013197,0,0.71613,-0.21427,-0.76789,-0.43524,1.041,-0.47247,0.49445,-0.003482,0.78,0.94,0
0.17431,-0.035233,0.22102,-0.76618,-0.20756,-0.41842,0.003293,0,0,-0.79115,0.14996,0,0.017604,0,0,0.71328,-0.015642,0,0.71373,-0.20753,-0.7662,-0.41842,89.251,-0.46405,0.49968,-0.005046,0.8,0.94,0
0.15815,-0.03353,0.1961,-0.76408,-0.20115,-0.40163,0.0070838,0,0,-0.82458,0.13749,0,0.057381,0,0,0.71047,-0.018834,0,0.71111,-0.2009,-0.76433,-0.40163,87.353,-0.45562,0.50483,-0.0066164,0.82,0.94,0
0.14133,-0.031688,0.17129,-0.76218,-0.19528,-0.38512,0.012236,0,0,-0.85781,0.12494,0,0.10887,0,0,0.7075,-0.023206,0,0.70845,-0.19443,-0.76303,-0.38512,85.258,-0.44753,0.51044,-0.0082121,0.84,0.94,0
0.12383,-0.029611,0.14658,-0.76231,-0.1905,-0.3696,0.01969,0,0,-0.89341,0.11363,0,0.1785,0,0,0.70478,-0.029563,0,0.70628,-0.18838,-0.76443,-0.3696,82.944,-0.4408,0.51803,-0.0099306,0.86,0.94,0
0.10559,-0.027169,0.12195,-0.76853,-0.1874,-0.35646,0.031476,0,0,-0.93745,0.10629,0,0.27772,0,0,0.70392,-0.039498,0,0.70644,-0.18288,-0.77305,-0.35646,80.457,-0.43746,0.5315,-0.012049,0.88,0.94,0
0.086336,-0.024132,0.097303,-0.79628,-0.19371,-0.3526,0.04948,0,0,-1.0094,0.10737,0,0.4164,0,0,0.70813,-0.057189,0,0.71278,-0.18513,-0.80486,-0.3526,78.219,-0.44753,0.55929,-0.015665,0.9,0.94,0
0.065213,-0.020618,0.072384,-0.87086,-0.20922,-0.36539,0.094148,0,0,-1.15,0.12205,0,0.6686,0,0,0.76921,-0.088392,0,0.77718,-0.19046,-0.88962,-0.36539,75.443,-0.48182,0.63243,-0.024316,0.92,0.94,0
0.040338,-0.014686,0.043458,-0.74724,-0.30118,-0.33936,0.17378,0,0,-1.0633,0.015217,0,1.0324,0,0,0.61677,-0.32568,0,0.70355,-0.2403,-0.80812,-0.33936,68.776,-0.46259,0.52546,-0.014622,0.94,0.94,0
0.026291,-0.017232,0.027113,-0.89446,-0.24969,-0.37036,0.13982,0,0,-0.68133,0.15686,0,0.36354,0,0,0.75197,-0.27969,0,0.79554,-0.22068,-0.92347,-0.37036,78.276,-0.50484,0.64119,-0.011092,0.96,0.94,0
0.013085,-0.017977,0.01338,-0.82788,-0.20178,-0.32228,0.070652,0,0,-0.65728,0.15665,0,0.1837,0,0,0.67782,-0.12155,0,0.68633,-0.19391,-0.83575,-0.32228,83.641,-0.45065,0.58826,-0.0088001,0.98,0.94,0
0,-0.018062,0,-0.79033,-0.16658,-0.28707,-0.0016461,0,0,-0.65423,0.15664,0,-0.0042798,0,0,0.66899,2.0817e-17,0,0.66716,-0.16658,-0.79034,-0.28707,-89.849,-0.41466,0.57309,-0.0082448,1,0.94,0
0,-0.012051,1,-0.57193,-1.3672,-1.5817,-0.011281,0,0,1.3128,0.27887,0,-0.029329,0,0,0.66285,2.0318e-16,0,0.66285,-0.57177,-1.3674,-1.5817,-0.81247,-1.1736,0.92168,0.032998,0,0.96,0
0.026255,-0.012637,0.98674,-0.56218,-1.3265,-1.5533,-0.028572,0,0,1.2885,0.29491,0,-0.074286,0,0,0.66392,0.0037758,0,0.66392,-0.56112,-1.3276,-1.5533,-2.1379,-1.1473,0.90081,0.029741,0.02,0.96,0
0.05154,-0.014328,0.97344,-0.58195,-1.2651,-1.5275,-0.053687,0,0,1.2293,0.34124,0,-0.13959,0,0,0.66692,0.006911,0,0.66696,-0.57776,-1.2692,-1.5275,-4.4665,-1.1248,0.85058,0.022057,0.04,0.96,0
0.075426,-0.016915,0.96007,-0.61233,-1.181,-1.4981,-0.072121,0,0,1.1515,0.4122,0,-0.18751,0,0,0.67135,0.0089501,0,0.67141,-0.60332,-1.19,-1.4981,-7.1166,-1.0971,0.78729,0.012748,0.06,0.96,0
0.097599,-0.020078,0.94659,-0.64936,-1.0828,-1.4662,-0.081717,0,0,1.0619,0.49852,0,-0.21246,0,0,0.6765,0.0097318,0,0.67658,-0.63447,-1.0976,-1.4662,-10.331,-1.0661,0.72187,0.0037758,0.08,0.96,0
0.1179,-0.023439,0.93301,-0.68859,-0.98074,-1.4338,-0.082167,0,0,0.96878,0.58898,0,-0.21363,0,0,0.68169,0.0093826,0,0.68176,-0.66707,-1.0023,-1.4338,-14.679,-1.0344,0.66576,-0.0032668,0.1,0.96,0
0.13635,-0.026638,0.91932,-0.72592,-0.88475,-1.4025,-0.075105,0,0,0.87958,0.67311,0,-0.19527,0,0,0.68637,0.0082184,0,0.68643,-0.69603,-0.91464,-1.4025,-21.701,-1.0044,0.62648,-0.0076405,0.12,0.96,0
0.15309,-0.029387,0.90555,-0.75835,-0.80178,-1.3736,-0.063332,0,0,0.79982,0.74335,0,-0.16466,0,0,0.69022,0.006614,0,0.69025,-0.71311,-0.84702,-1.3736,-35.536,-0.97791,0.60475,-0.0095087,0.14,0.96,0
0.16834,-0.031502,0.89171,-0.78433,-0.73562,-1.3477,-0.049637,0,0,0.73238,0.7957,0,-0.12906,0,0,0.6931,0.0049054,0,0.69312,-0.70468,-0.81526,-1.3477,-58.066,-0.95588,0.59547,-0.0095962,0.16,0.96,0
0.18238,-0.032889,0.87783,-0.80353,-0.68759,-1.3252,-0.035983,0,0,0.67812,0.82884,0,-0.093557,0,0,0.69505,0.0033551,0,0.69506,-0.67733,-0.81379,-1.3252,-74.086,-0.93876,0.59153,-0.0087531,0.18,0.96,0
0.19547,-0.033517,0.86391,-0.81637,-0.65779,-1.3062,-0.023317,0,0,0.63673,0.84288,0,-0.060623,0,0,0.6962,0.0021759,0,0.6962,-0.65443,-0.81973,-1.3062,-81.806,-0.92677,0.58681,-0.0076688,0.2,0.96,0
0.20785,-0.033391,0.84998,-0.82344,-0.646,-1.2908,-0.011895,0,0,0.60758,0.83826,0,-0.030927,0,0,0.69675,0.0015926,0,0.69675,-0.6452,-0.82423,-1.2908,-86.182,-0.92008,0.5773,-0.0067724,0.22,0.96,0
0.21977,-0.032532,0.83604,-0.82534,-0.65206,-1.2793,-0.001853,0,0,0.5901,0.81536,0,-0.0048179,0,0,0.697,0.0019285,0,0.697,-0.65204,-0.82536,-1.2793,-89.387,-0.91889,0.56101,-0.0062362,0.24,0.96,0
0.23145,-0.030985,0.8221,-0.82276,-0.67577,-1.2717,0.0062413,0,0,0.58357,0.77466,0,0.016227,0,0,0.69742,0.0037159,0,0.69743,-0.6755,-0.82302,-1.2717,87.573,-0.92339,0.53779,-0.0060081,0.26,0.96,0
0.24311,-0.028836,0.80814,-0.81693,-0.71617,-1.2681,0.011061,0,0,0.58648,0.71748,0,0.028759,0,0,0.69872,0.0078402,0,0.69876,-0.71497,-0.81813,-1.2681,83.809,-0.93373,0.50942,-0.0058621,0.28,0.96,0
0.25491,-0.026226,0.79415,-0.81014,-0.77068,-1.2684,0.010659,0,0,0.59574,0.64703,0,0.027714,0,0,0.70212,0.015724,0,0.70228,-0.76798,-0.81283,-1.2684,75.809,-0.94974,0.47956,-0.0054978,0.3,0.96,0
0.26694,-0.02336,0.78006,-0.80611,-0.83447,-1.2722,0.0031739,0,0,0.60596,0.56909,0,0.008252,0,0,0.70957,0.029566,0,0.71015,-0.80576,-0.83482,-1.2722,6.3075,-0.97094,0.45264,-0.004697,0.32,0.96,0
0.27915,-0.020484,0.76577,-0.81011,-0.90079,-1.279,-0.012367,0,0,0.60961,0.49172,0,-0.032155,0,0,0.72435,0.052697,0,0.7262,-0.80845,-0.90245,-1.279,-7.6284,-0.99665,0.43134,-0.003471,0.34,0.96,0
0.29133,-0.017859,0.75109,-0.82953,-0.96321,-1.2889,-0.035314,0,0,0.59719,0.42341,0,-0.091817,0,0,0.75223,0.090099,0,0.7575,-0.82078,-0.97196,-1.2889,-13.925,-1.0272,0.4138,-0.0020697,0.36,0.96,0
0.30304,-0.015724,0.73568,-0.86443,-1.0128,-1.2988,-0.068756,0,0,0.56474,0.37188,0,-0.17877,0,0,0.80819,0.14887,0,0.82169,-0.83747,-1.0397,-1.2988,-21.414,-1.0587,0.40057,-0.00069756,0.38,0.96,0
0.31392,-0.01489,0.71876,-0.94162,-1.0693,-1.322,-0.1269,0,0,0.49453,0.32857,0,-0.32994,0,0,0.92837,0.23885,0,0.96014,-0.8634,-1.1475,-1.322,-31.648,-1.111,0.40095,0.0013233,0.4,0.96,0
0.32282,-0.017559,0.69854,-1.0548,-1.0376,-1.3263,-0.22985,0,0,0.35286,0.37529,0,-0.59761,0,0,1.0806,0.312,0,1.1313,-0.81621,-1.2762,-1.3263,-46.075,-1.1396,0.48698,0.0057206,0.42,0.96,0
0.32803,-0.026537,0.67553,-1.0684,-0.52425,-1.1533,-0.1816,0,0,0.11041,0.8178,0,-0.47216,0,0,1.1992,0.11071,0,1.202,-0.46921,-1.1234,-1.1533,-73.139,-0.91533,0.66967,0.015321,0.44,0.96,0
0.32724,-0.033526,0.65058,-1.2016,-0.46262,-1.1498,-0.097316,0,0,-0.067287,0.89339,0,-0.25302,0,0,1.2478,0.055923,0,1.249,-0.45002,-1.2142,-1.1498,-82.622,-0.93802,0.73413,0.019795,0.46,0.96,0
0.32534,-0.036134,0.62562,-1.196,-0.39712,-1.1035,-0.042452,0,0,-0.12013,0.91835,0,-0.11038,0,0,1.2513,0.031594,0,1.2517,-0.39487,-1.1982,-1.1035,-86.967,-0.89887,0.76043,0.021409,0.48,0.96,0
0.32243,-0.036837,0.60052,-1.2002,-0.36094,-1.0689,-0.023618,0,0,-0.17076,0.92032,0,-0.061406,0,0,1.2578,0.019269,0,1.258,-0.36027,-1.2009,-1.0689,-88.389,-0.87668,0.783,0.022311,0.5,0.96,0
0.31851,-0.036584,0.57531,-1.2101,-0.33923,-1.0401,-0.017225,0,0,-0.22095,0.91112,0,-0.044786,0,0,1.2629,0.012205,0,1.263,-0.33889,-1.2104,-1.0401,-88.867,-0.86313,0.80007,0.022338,0.52,0.96,0
0.3136,-0.035924,0.55001,-1.2209,-0.32486,-1.0137,-0.015595,0,0,-0.26932,0.89553,0,-0.040546,0,0,1.2667,0.0077046,0,1.2667,-0.32459,-1.2212,-1.0137,-89.003,-0.85317,0.81296,0.021656,0.54,0.96,0
0.30774,-0.035102,0.52464,-1.2307,-0.31373,-0.98797,-0.015115,0,0,-0.31553,0.87651,0,-0.039299,0,0,1.2691,0.0045939,0,1.2691,-0.31348,-1.2309,-0.98797,-89.056,-0.84413,0.82331,0.020471,0.56,0.96,0
0.30097,-0.03422,0.49924,-1.239,-0.304,-0.96216,-0.014637,0,0,-0.35996,0.85561,0,-0.038056,0,0,1.2704,0.0023099,0,1.2704,-0.30377,-1.2393,-0.96216,-89.103,-0.83507,0.8323,0.018924,0.58,0.96,0
0.29334,-0.033314,0.47383,-1.2462,-0.29486,-0.93613,-0.0139,0,0,-0.40303,0.83365,0,-0.036139,0,0,1.2709,0.00055127,0,1.2709,-0.29466,-1.2464,-0.93613,-89.163,-0.82571,0.84067,0.017102,0.6,0.96,0
0.28485,-0.032394,0.44841,-1.2522,-0.28602,-0.90987,-0.012937,0,0,-0.44503,0.81101,0,-0.033637,0,0,1.2707,-0.00086078,0,1.2707,-0.28584,-1.2524,-0.90987,-89.233,-0.81603,0.84879,0.015053,0.62,0.96,0
0.27554,-0.031463,0.423,-1.2574,-0.27736,-0.88343,-0.011832,0,0,-0.48617,0.78788,0,-0.030765,0,0,1.2699,-0.0020434,0,1.2699,-0.27722,-1.2575,-0.88343,-89.308,-0.80607,0.85688,0.012807,0.64,0.96,0
0.26541,-0.030519,0.39761,-1.2619,-0.26888,-0.85684,-0.010647,0,0,-0.52655,0.76435,0,-0.027681,0,0,1.2686,-0.0030804,0,1.2686,-0.26876,-1.262,-0.85684,-89.386,-0.79586,0.86501,0.010387,0.66,0.96,0
0.25447,-0.029561,0.37226,-1.2657,-0.26055,-0.83012,-0.009408,0,0,-0.56621,0.74044,0,-0.024461,0,0,1.2667,-0.004038,0,1.2668,-0.26046,-1.2658,-0.83012,-89.464,-0.78545,0.87319,0.0078106,0.68,0.96,0
0.24276,-0.028589,0.34694,-1.2688,-0.2524,-0.8033,-0.0081208,0,0,-0.60516,0.71618,0,-0.021114,0,0,1.2645,-0.0049733,0,1.2645,-0.25233,-1.2689,-0.8033,-89.542,-0.77484,0.88139,0.0050949,0.7,0.96,0
0.23027,-0.027602,0.32168,-1.2713,-0.24443,-0.77639,-0.0067729,0,0,-0.64336,0.69155,0,-0.01761,0,0,1.2618,-0.0059417,0,1.2618,-0.24438,-1.2713,-0.77639,-89.622,-0.76403,0.88955,0.0022584,0.72,0.96,0
0.21702,-0.026599,0.29647,-1.273,-0.23667,-0.74938,-0.0053385,0,0,-0.68075,0.66652,0,-0.01388,0,0,1.2586,-0.0070027,0,1.2586,-0.23665,-1.2731,-0.74938,-89.705,-0.75303,0.89758,-0.00067919,0.74,0.96,0
0.20304,-0.025576,0.27133,-1.274,-0.22918,-0.72229,-0.0037684,0,0,-0.71724,0.64104,0,-0.0097977,0,0,1.2549,-0.0082286,0,1.255,-0.22917,-1.274,-0.72229,-89.793,-0.74183,0.90534,-0.0036961,0.76,0.96,0
0.18833,-0.024528,0.24627,-1.2741,-0.22206,-0.69513,-0.0019597,0,0,-0.75272,0.615,0,-0.0050953,0,0,1.2506,-0.0097172,0,1.2507,-0.22206,-1.2741,-0.69513,-89.893,-0.73045,0.91268,-0.0067678,0.78,0.96,0
0.17293,-0.02344,0.22131,-1.2734,-0.21552,-0.66799,0.00031314,0,0,-0.78705,0.5882,0,0.00081417,0,0,1.2456,-0.011617,0,1.2456,-0.21552,-1.2734,-0.66799,89.983,-0.71897,0.91934,-0.0098679,0.8,0.96,0
0.15685,-0.022284,0.19645,-1.2719,-0.20998,-0.64101,0.0035419,0,0,-0.82013,0.56033,0,0.0092088,0,0,1.2397,-0.014181,0,1.2398,-0.20997,-1.2719,-0.64101,89.809,-0.70762,0.92506,-0.01297,0.82,0.96,0
0.14012,-0.021004,0.17172,-1.2699,-0.20615,-0.61452,0.0087257,0,0,-0.85194,0.53088,0,0.022687,0,0,1.2327,-0.017889,0,1.2329,-0.20608,-1.2699,-0.61452,89.53,-0.69684,0.92956,-0.016053,0.84,0.96,0
0.12277,-0.019503,0.14714,-1.2682,-0.20522,-0.58915,0.01783,0,0,-0.8827,0.49911,0,0.046358,0,0,1.2247,-0.023765,0,1.225,-0.20492,-1.2685,-0.58915,89.039,-0.68751,0.93279,-0.019119,0.86,0.96,0
0.10482,-0.017621,0.12273,-1.2669,-0.20829,-0.5653,0.033785,0,0,-0.91213,0.46411,0,0.087841,0,0,1.2158,-0.034207,0,1.2163,-0.20721,-1.268,-0.5653,88.174,-0.68018,0.93471,-0.022145,0.88,0.96,0
0.086288,-0.015208,0.098509,-1.2597,-0.21608,-0.54125,0.063102,0,0,-0.93401,0.42272,0,0.16406,0,0,1.21,-0.055282,0,1.2111,-0.21228,-1.2635,-0.54125,86.552,-0.67235,0.9314,-0.024723,0.9,0.96,0
0.067456,-0.011958,0.074332,-1.174,-0.20648,-0.48846,0.092322,0,0,-0.89114,0.36658,0,0.24004,0,0,1.1619,-0.10373,0,1.1645,-0.19775,-1.1827,-0.48846,84.597,-0.62297,0.87652,-0.022196,0.92,0.96,0
0.050643,-0.010561,0.052033,-1.1432,-0.314,-0.48919,0.12093,0,0,-0.85019,0.22774,0,0.31442,0,0,1.0495,-0.28666,0,1.0941,-0.29673,-1.1605,-0.48919,81.869,-0.64879,0.78539,-0.019935,0.94,0.96,0
0.033448,-0.01236,0.03235,-1.0654,-0.20063,-0.41215,0.069554,0,0,-0.84918,0.27498,0,0.18084,0,0,0.9099,-0.20143,0,0.93271,-0.19507,-1.0709,-0.41215,85.431,-0.55938,0.79,-0.019024,0.96,0.96,0
0.016675,-0.013313,0.015637,-1.0056,-0.15014,-0.36236,0.039946,0,0,-0.83621,0.27589,0,0.10386,0,0,0.80876,-0.092637,0,0.81317,-0.14827,-1.0074,-0.36236,87.332,-0.50603,0.77465,-0.01787,0.98,0.96,0
0,-0.013539,0,-0.96499,-0.11377,-0.32363,-0.0043437,0,0,-0.83377,0.27282,0,-0.011293,0,0,0.78186,-3.4694e-18,0,0.78091,-0.11374,-0.96501,-0.32363,-89.708,-0.46746,0.76814,-0.017551,1,0.96,0
0,-0.0061745,1,-0.57706,-1.3448,-1.5766,-0.0054617,0,0,1.2994,0.30127,0,-0.0142,0,0,0.66549,-8.46e-16,0,0.66549,-0.57702,-1.3449,-1.5766,-0.40757,-1.1661,0.90618,0.02996,0,0.98,0
0.025987,-0.0064586,0.98669,-0.56688,-1.3053,-1.5483,-0.014053,0,0,1.2759,0.31594,0,-0.036538,0,0,0.66634,0.001735,0,0.66634,-0.56661,-1.3056,-1.5483,-1.0898,-1.1402,0.88567,0.02685,0.02,0.98,0
0.051037,-0.0072768,0.97335,-0.58566,-1.2479,-1.5234,-0.026401,0,0,1.2191,0.3582,0,-0.068643,0,0,0.66877,0.003193,0,0.66878,-0.58461,-1.2489,-1.5234,-2.2795,-1.119,0.83605,0.01947,0.04,0.98,0
0.07475,-0.0085293,0.95994,-0.61473,-1.1701,-1.4954,-0.035518,0,0,1.1448,0.42287,0,-0.092346,0,0,0.6724,0.0041721,0,0.67241,-0.61247,-1.1724,-1.4954,-3.6444,-1.0934,0.77375,0.010584,0.06,0.98,0
0.096831,-0.010064,0.94645,-0.65058,-1.0793,-1.4654,-0.040427,0,0,1.0593,0.50194,0,-0.10511,0,0,0.67673,0.0045909,0,0.67675,-0.6468,-1.0831,-1.4654,-5.34,-1.0651,0.70945,0.0020879,0.08,0.98,0
0.11712,-0.011703,0.93287,-0.68921,-0.9841,-1.4349,-0.040979,0,0,0.96935,0.58599,0,-0.10655,0,0,0.68123,0.0044902,0,0.68124,-0.68362,-0.98969,-1.4349,-7.7659,-1.0361,0.6543,-0.0045186,0.1,0.98,0
0.13561,-0.013274,0.9192,-0.72685,-0.89284,-1.4051,-0.037869,0,0,0.88174,0.66595,0,-0.09846,0,0,0.68544,0.0039979,0,0.68546,-0.71862,-0.90107,-1.4051,-12.263,-1.0083,0.61588,-0.0085433,0.12,0.98,0
0.15239,-0.014637,0.90545,-0.76055,-0.81212,-1.3773,-0.032322,0,0,0.80171,0.73468,0,-0.084037,0,0,0.68907,0.0032783,0,0.68908,-0.74499,-0.82768,-1.3773,-25.71,-0.98331,0.59524,-0.010131,0.14,0.98,0
0.16767,-0.015696,0.89164,-0.78847,-0.74626,-1.3521,-0.025622,0,0,0.73266,0.78754,0,-0.066616,0,0,0.69196,0.0024905,0,0.69196,-0.73417,-0.80056,-1.3521,-64.742,-0.96226,0.58751,-0.0099684,0.16,0.98,0
0.1817,-0.016398,0.87777,-0.80983,-0.6975,-1.33,-0.018746,0,0,0.67618,0.82222,0,-0.048741,0,0,0.6941,0.001771,0,0.6941,-0.69446,-0.81288,-1.33,-80.771,-0.94577,0.58536,-0.0088968,0.18,0.98,0
0.19472,-0.016723,0.86387,-0.82463,-0.66672,-1.3113,-0.01225,0,0,0.63265,0.83793,0,-0.031849,0,0,0.69562,0.0012412,0,0.69563,-0.66578,-0.82557,-1.3113,-85.591,-0.93421,0.58229,-0.0076241,0.2,0.98,0
0.207,-0.01667,0.84995,-0.8333,-0.65402,-1.2961,-0.0063752,0,0,0.6017,0.83476,0,-0.016575,0,0,0.69679,0.001035,0,0.69679,-0.65379,-0.83353,-1.2961,-87.966,-0.92782,0.57399,-0.0065989,0.22,0.98,0
0.21879,-0.016252,0.836,-0.83658,-0.6591,-1.2847,-0.0012992,0,0,0.58256,0.81329,0,-0.0033778,0,0,0.69803,0.0013421,0,0.69803,-0.65909,-0.83659,-1.2847,-89.581,-0.9268,0.55844,-0.0059927,0.24,0.98,0
0.23031,-0.015494,0.82203,-0.83552,-0.68115,-1.277,0.0026321,0,0,0.57397,0.77464,0,0.0068436,0,0,0.7,0.0024649,0,0.70001,-0.68111,-0.83556,-1.277,89.023,-0.93123,0.53566,-0.0057375,0.26,0.98,0
0.24175,-0.014443,0.808,-0.83167,-0.71851,-1.2731,0.0047914,0,0,0.57381,0.72091,0,0.012457,0,0,0.7038,0.0048929,0,0.70382,-0.71831,-0.83187,-1.2731,87.58,-0.94108,0.50758,-0.0055999,0.28,0.98,0
0.25326,-0.013171,0.79388,-0.82728,-0.76816,-1.2725,0.0043902,0,0,0.57879,0.65565,0,0.011415,0,0,0.71114,0.009399,0,0.71121,-0.76784,-0.82761,-1.2725,85.776,-0.95598,0.4776,-0.005301,0.3,0.98,0
0.2649,-0.011774,0.77956,-0.82521,-0.82555,-1.2748,0.00084039,0,0,0.58445,0.58401,0,0.002185,0,0,0.72473,0.017169,0,0.72496,-0.82452,-0.82623,-1.2748,39.315,-0.97518,0.44941,-0.0046615,0.32,0.98,0
0.27664,-0.01036,0.76489,-0.82872,-0.88513,-1.279,-0.0057387,0,0,0.58542,0.51209,0,-0.014921,0,0,0.74878,0.029965,0,0.74948,-0.82814,-0.8857,-1.279,-5.7508,-0.99763,0.42505,-0.0037014,0.34,0.98,0
0.28832,-0.0090328,0.74961,-0.83993,-0.9402,-1.2836,-0.014993,0,0,0.57683,0.44648,0,-0.038981,0,0,0.78981,0.050185,0,0.79168,-0.83774,-0.94239,-1.2836,-8.3248,-1.0213,0.40388,-0.0026332,0.36,0.98,0
0.29971,-0.007975,0.7333,-0.86467,-0.98616,-1.2885,-0.028665,0,0,0.55104,0.3931,0,-0.07453,0,0,0.85676,0.079842,0,0.86126,-0.85825,-0.99259,-1.2885,-12.631,-1.0465,0.38131,-0.001702,0.38,0.98,0
0.31036,-0.0076805,0.71534,-0.9116,-1.0035,-1.2899,-0.056269,0,0,0.49176,0.37224,0,-0.1463,0,0,0.94991,0.11073,0,0.95818,-0.88491,-1.0302,-1.2899,-25.377,-1.0683,0.35534,-0.0010738,0.4,0.98,0
0.31938,-0.009241,0.6953,-0.9972,-0.93826,-1.2759,-0.093739,0,0,0.36236,0.43898,0,-0.24372,0,0,1.0543,0.10625,0,1.0611,-0.86947,-1.066,-1.2759,-53.725,-1.0705,0.35208,-0.00012813,0.42,0.98,0
0.32485,-0.01275,0.67317,-1.0627,-0.68805,-1.1984,-0.10561,0,0,0.17642,0.66343,0,-0.2746,0,0,1.1439,0.077726,0,1.1471,-0.66032,-1.0904,-1.1984,-75.292,-0.98303,0.49301,0.0051732,0.44,0.98,0
0.32644,-0.016066,0.64954,-1.1375,-0.49438,-1.1391,-0.062996,0,0,0.0020673,0.83815,0,-0.16379,0,0,1.2026,0.036914,0,1.2031,-0.48827,-1.1436,-1.1391,-84.458,-0.92367,0.65312,0.014306,0.46,0.98,0
0.32493,-0.017891,0.62506,-1.196,-0.41281,-1.1077,-0.028069,0,0,-0.11478,0.90336,0,-0.072979,0,0,1.2336,0.019357,0,1.2337,-0.41181,-1.197,-1.1077,-87.95,-0.90551,0.74457,0.020176,0.48,0.98,0
0.32184,-0.018402,0.6002,-1.2146,-0.36594,-1.0743,-0.011437,0,0,-0.18227,0.92093,0,-0.029736,0,0,1.2488,0.011156,0,1.2489,-0.36578,-1.2147,-1.0743,-89.228,-0.88495,0.78818,0.022483,0.5,0.98,0
0.31764,-0.01832,0.57511,-1.2236,-0.34093,-1.0445,-0.0067553,0,0,-0.23285,0.91459,0,-0.017564,0,0,1.2579,0.0068206,0,1.2579,-0.34088,-1.2236,-1.0445,-89.561,-0.86966,0.8082,0.022686,0.52,0.98,0
0.31253,-0.017988,0.54988,-1.2294,-0.32552,-1.0164,-0.0061174,0,0,-0.27698,0.8981,0,-0.015905,0,0,1.2635,0.0042301,0,1.2635,-0.32548,-1.2295,-1.0164,-89.612,-0.85711,0.81852,0.02186,0.54,0.98,0
0.30656,-0.017565,0.52457,-1.2349,-0.31428,-0.98932,-0.0064519,0,0,-0.31924,0.87755,0,-0.016775,0,0,1.2669,0.0025163,0,1.2669,-0.31423,-1.2349,-0.98932,-89.599,-0.84616,0.82576,0.020527,0.56,0.98,0
0.29976,-0.017114,0.49921,-1.2404,-0.30466,-0.96273,-0.0066961,0,0,-0.361,0.85549,0,-0.01741,0,0,1.2688,0.0012921,0,1.2688,-0.30461,-1.2405,-0.96273,-89.59,-0.83593,0.83249,0.018896,0.58,0.98,0
0.29212,-0.016654,0.47381,-1.2459,-0.29564,-0.93628,-0.0066383,0,0,-0.40253,0.83284,0,-0.01726,0,0,1.2697,0.00036511,0,1.2697,-0.29559,-1.246,-0.93628,-89.6,-0.82595,0.83953,0.017042,0.6,0.98,0
0.28366,-0.016191,0.44842,-1.2512,-0.28687,-0.90983,-0.0063275,0,0,-0.44376,0.80985,0,-0.016451,0,0,1.2697,-0.00037153,0,1.2697,-0.28683,-1.2512,-0.90983,-89.624,-0.81596,0.84698,0.01499,0.62,0.98,0
0.27437,-0.015723,0.42303,-1.256,-0.27826,-0.88331,-0.0058568,0,0,-0.48453,0.78657,0,-0.015228,0,0,1.269,-0.0009845,0,1.269,-0.27823,-1.2561,-0.88331,-89.657,-0.80587,0.85476,0.012756,0.64,0.98,0
0.26428,-0.01525,0.39766,-1.2603,-0.2698,-0.8567,-0.0052969,0,0,-0.52473,0.76297,0,-0.013772,0,0,1.2678,-0.0015199,0,1.2678,-0.26977,-1.2604,-0.8567,-89.694,-0.79561,0.86276,0.010351,0.66,0.98,0
0.25339,-0.014771,0.37232,-1.2641,-0.2615,-0.82998,-0.0046878,0,0,-0.5643,0.73903,0,-0.012188,0,0,1.266,-0.0020134,0,1.266,-0.26148,-1.2641,-0.82998,-89.732,-0.78518,0.87087,0.007791,0.68,0.98,0
0.24171,-0.014285,0.34702,-1.2671,-0.25339,-0.80318,-0.0040464,0,0,-0.60317,0.71473,0,-0.010521,0,0,1.2638,-0.0024951,0,1.2638,-0.25337,-1.2672,-0.80318,-89.771,-0.77457,0.87902,0.0050923,0.7,0.98,0
0.22926,-0.013791,0.32177,-1.2696,-0.24547,-0.77628,-0.0033754,0,0,-0.64129,0.69005,0,-0.0087759,0,0,1.261,-0.0029946,0,1.261,-0.24546,-1.2696,-0.77628,-89.811,-0.76378,0.88713,0.0022728,0.72,0.98,0
0.21605,-0.013289,0.29658,-1.2713,-0.2378,-0.74931,-0.0026658,0,0,-0.67862,0.66497,0,-0.006931,0,0,1.2577,-0.0035437,0,1.2577,-0.23779,-1.2713,-0.74931,-89.852,-0.75281,0.89509,-0.00064794,0.74,0.98,0
0.20211,-0.012778,0.27146,-1.2723,-0.23043,-0.72228,-0.0018905,0,0,-0.71504,0.63941,0,-0.0049153,0,0,1.2539,-0.0041823,0,1.2539,-0.23042,-1.2723,-0.72228,-89.896,-0.74167,0.90277,-0.0036482,0.76,0.98,0
0.18745,-0.012252,0.24642,-1.2724,-0.22351,-0.69521,-0.00097895,0,0,-0.7504,0.6132,0,-0.0025453,0,0,1.2493,-0.0049663,0,1.2493,-0.22351,-1.2724,-0.69521,-89.947,-0.73039,0.90993,-0.0067018,0.78,0.98,0
0.1721,-0.011705,0.22148,-1.2715,-0.21736,-0.66814,0.00024239,0,0,-0.78434,0.58601,0,0.00063021,0,0,1.2438,-0.0059856,0,1.2438,-0.21736,-1.2715,-0.66814,89.987,-0.71899,0.91607,-0.0097723,0.8,0.98,0
0.15608,-0.011117,0.19667,-1.2689,-0.21257,-0.64112,0.0021691,0,0,-0.81614,0.55711,0,0.0056398,0,0,1.2371,-0.0074035,0,1.2371,-0.21257,-1.2689,-0.64112,89.882,-0.70754,0.92024,-0.012797,0.82,0.98,0
0.13945,-0.010453,0.172,-1.2637,-0.21025,-0.61419,0.0056367,0,0,-0.84436,0.52511,0,0.014656,0,0,1.2285,-0.009556,0,1.2286,-0.21022,-1.2637,-0.61419,89.693,-0.69604,0.92058,-0.015653,0.84,0.98,0
0.1223,-0.0096469,0.14753,-1.2534,-0.21214,-0.5872,0.012152,0,0,-0.86611,0.48758,0,0.031595,0,0,1.217,-0.013211,0,1.2171,-0.212,-1.2536,-0.5872,89.332,-0.68426,0.91372,-0.018094,0.86,0.98,0
0.10481,-0.0086048,0.12332,-1.2344,-0.2211,-0.55996,0.024051,0,0,-0.87673,0.44053,0,0.062533,0,0,1.2004,-0.020268,0,1.2005,-0.22052,-1.2349,-0.55996,88.641,-0.67181,0.89439,-0.019708,0.88,0.98,0
0.087235,-0.0072231,0.099514,-1.1952,-0.23658,-0.52905,0.039354,0,0,-0.86599,0.3802,0,0.10232,0,0,1.1697,-0.03568,0,1.1703,-0.23497,-1.1968,-0.52905,87.653,-0.65361,0.85367,-0.01964,0.9,0.98,0
0.070167,-0.0059552,0.076533,-1.1604,-0.27812,-0.50808,0.048605,0,0,-0.84798,0.29895,0,0.12637,0,0,1.1147,-0.071953,0,1.1176,-0.27545,-1.163,-0.50808,86.856,-0.64886,0.79715,-0.018741,0.92,0.98,0
0.053316,-0.0055761,0.054925,-1.1255,-0.2707,-0.47379,0.031041,0,0,-0.84726,0.26402,0,0.080706,0,0,1.0341,-0.094269,0,1.0396,-0.26958,-1.1266,-0.47379,87.923,-0.62334,0.77541,-0.018463,0.94,0.98,0
0.036277,-0.0062327,0.03517,-1.0841,-0.17532,-0.413,0.020234,0,0,-0.87246,0.30899,0,0.052608,0,0,0.94599,-0.090381,0,0.95153,-0.17487,-1.0846,-0.413,88.725,-0.55748,0.81709,-0.020203,0.96,0.98,0
0.018418,-0.0069411,0.017085,-1.0716,-0.11791,-0.37393,0.012339,0,0,-0.90692,0.33282,0,0.032082,0,0,0.87925,-0.048056,0,0.88064,-0.11775,-1.0717,-0.37393,89.259,-0.52113,0.85516,-0.022669,0.98,0.98,0
0,-0.0071494,0,-1.0444,-0.075662,-0.33602,-0.0040052,0,0,-0.9209,0.33847,0,-0.010414,0,0,0.85427,-1.7347e-17,0,0.85398,-0.075645,-1.0444,-0.33602,-89.763,-0.48536,0.86838,-0.023719,1,0.98,0
0,0,1,-0.57889,-1.3374,-1.5749,0,0,0,1.2948,0.30873,0,3.4694e-18,0,0,0.66632,-2.554e-15,0,0.66632,-0.57889,-1.3374,-1.5749,0,-1.1637,0.90104,0.028957,0,1,0
0.025896,0,0.98667,-0.56856,-1.2983,-1.5467,-0.0017525,0,0,1.2716,0.32293,0,-0.0045564,0,0,0.66711,0.00083206,0,0.66711,-0.56856,-1.2983,-1.5467,-0.13759,-1.1379,0.88066,0.025898,0.02,1,0
0.050865,0,0.97332,-0.58701,-1.2422,-1.5221,-0.0032924,0,0,1.2156,0.36384,0,-0.0085602,0,0,0.66936,0.0015353,0,0.66936,-0.587,-1.2422,-1.5221,-0.28791,-1.1171,0.83127,0.018624,0.04,1,0
0.074519,0,0.9599,-0.61564,-1.1665,-1.4945,-0.0044283,0,0,1.1426,0.42646,0,-0.011513,0,0,0.67275,0.0020147,0,0.67275,-0.61561,-1.1665,-1.4945,-0.46056,-1.0922,0.76929,0.0098787,0.06,1,0
0.096568,0,0.94641,-0.65108,-1.0781,-1.4651,-0.0050526,0,0,1.0583,0.5032,0,-0.013137,0,0,0.67682,0.0022296,0,0.67682,-0.65102,-1.0781,-1.4651,-0.67785,-1.0648,0.70534,0.0015352,0.08,1,0
0.11685,0,0.93283,-0.68948,-0.98507,-1.4352,-0.0051901,0,0,0.96942,0.58516,0,-0.013494,0,0,0.6811,0.0021958,0,0.6811,-0.68939,-0.98516,-1.4352,-1.0056,-1.0366,0.65047,-0.0049342,0.1,1,0
0.13534,0,0.91916,-0.72718,-0.89538,-1.4059,-0.0049967,0,0,0.88237,0.66372,0,-0.012991,0,0,0.68516,0.0019706,0,0.68516,-0.72703,-0.89553,-1.4059,-1.7001,-1.0095,0.61229,-0.0088488,0.12,1,0
0.15215,0,0.90542,-0.76126,-0.81547,-1.3784,-0.0047012,0,0,0.80234,0.73185,0,-0.012223,0,0,0.68871,0.0016309,0,0.68871,-0.76085,-0.81588,-1.3784,-4.919,-0.98506,0.592,-0.010346,0.14,1,0
0.16744,0,0.89161,-0.78978,-0.7498,-1.3535,-0.0045163,0,0,0.73282,0.78479,0,-0.011742,0,0,0.6916,0.0012539,0,0.6916,-0.7493,-0.79028,-1.3535,-83.634,-0.96435,0.58478,-0.010101,0.16,1,0
0.18146,0,0.87776,-0.81182,-0.70087,-1.3316,-0.0045752,0,0,0.67566,0.8199,0,-0.011896,0,0,0.6938,0.00090909,0,0.6938,-0.70068,-0.81201,-1.3316,-87.643,-0.94808,0.58324,-0.0089513,0.18,1,0
0.19446,0,0.86386,-0.82726,-0.66978,-1.313,-0.004916,0,0,0.63142,0.83616,0,-0.012782,0,0,0.69546,0.00066049,0,0.69546,-0.66962,-0.82742,-1.313,-88.214,-0.93667,0.58076,-0.0076125,0.2,1,0
0.20672,0,0.84994,-0.83649,-0.65675,-1.2979,-0.0055145,0,0,0.59984,0.83351,0,-0.014338,0,0,0.69685,0.00058051,0,0.69685,-0.65658,-0.83666,-1.2979,-88.244,-0.93038,0.57292,-0.0065394,0.22,1,0
0.21846,0,0.83599,-0.84027,-0.66144,-1.2865,-0.0063406,0,0,0.5801,0.81258,0,-0.016486,0,0,0.69843,0.0007711,0,0.69843,-0.66121,-0.8405,-1.2865,-87.972,-0.92941,0.55769,-0.0059037,0.24,1,0
0.22992,0,0.822,-0.83975,-0.68287,-1.2788,-0.0074122,0,0,0.57074,0.77469,0,-0.019272,0,0,0.70097,0.0013927,0,0.70097,-0.68252,-0.8401,-1.2788,-87.301,-0.9338,0.53517,-0.005632,0.26,1,0
0.24129,0,0.80795,-0.83655,-0.71915,-1.2747,-0.0088193,0,0,0.56954,0.72216,0,-0.02293,0,0,0.70566,0.002702,0,0.70566,-0.7185,-0.83721,-1.2747,-85.728,-0.94346,0.50733,-0.0054887,0.28,1,0
0.2527,0,0.79377,-0.83281,-0.76718,-1.2738,-0.010692,0,0,0.57325,0.65857,0,-0.027799,0,0,0.71439,0.0051014,0,0.71441,-0.76548,-0.8345,-1.2738,-80.976,-0.95792,0.47753,-0.0052011,0.3,1,0
0.26422,0,0.77937,-0.83096,-0.82259,-1.2754,-0.013081,0,0,0.57782,0.58871,0,-0.034011,0,0,0.73013,0.0092056,0,0.73019,-0.81304,-0.84051,-1.2754,-53.878,-0.97633,0.44929,-0.0045995,0.32,1,0
0.27581,0,0.76457,-0.83303,-0.88001,-1.2785,-0.015793,0,0,0.57908,0.51802,0,-0.041062,0,0,0.75736,0.015907,0,0.75752,-0.82822,-0.88482,-1.2785,-16.959,-0.99717,0.4248,-0.0037025,0.34,1,0
0.28738,0,0.74908,-0.84172,-0.93454,-1.282,-0.017955,0,0,0.57231,0.45164,0,-0.046684,0,0,0.8021,0.026359,0,0.80252,-0.83837,-0.9379,-1.282,-10.575,-1.0194,0.40315,-0.0026864,0.36,1,0
0.29871,0,0.73249,-0.86253,-0.97788,-1.2846,-0.01927,0,0,0.5487,0.39875,0,-0.050102,0,0,0.86873,0.040486,0,0.86966,-0.8594,-0.98101,-1.2846,-9.2377,-1.0417,0.37932,-0.0018624,0.38,1,0
0.30933,0,0.71433,-0.9102,-0.98855,-1.2839,-0.019752,0,0,0.48588,0.38403,0,-0.051354,0,0,0.95478,0.050294,0,0.9561,-0.9055,-0.99325,-1.2839,-13.378,-1.0609,0.3431,-0.0016259,0.4,1,0
0.31814,0,0.69429,-0.97979,-0.90401,-1.2594,-0.023789,0,0,0.36354,0.46205,0,-0.061851,0,0,1.0476,0.050216,0,1.0488,-0.89716,-0.98663,-1.2594,-73.938,-1.0477,0.32685,-0.0013506,0.42,1,0
0.32387,0,0.67243,-1.0546,-0.71205,-1.2024,-0.018844,0,0,0.19215,0.63749,0,-0.048993,0,0,1.1298,0.036953,0,1.1304,-0.71101,-1.0556,-1.2024,-86.861,-0.98969,0.43692,0.0027109,0.44,1,0
0.32583,0,0.6491,-1.1296,-0.52863,-1.1466,-0.011685,0,0,0.022092,0.80331,0,-0.030381,0,0,1.1894,0.022036,0,1.1896,-0.52841,-1.1298,-1.1466,-88.886,-0.93492,0.60994,0.011625,0.46,1,0
0.32476,0,0.62485,-1.1859,-0.41784,-1.106,-0.0034398,0,0,-0.10391,0.89457,0,-0.0089435,0,0,1.2256,0.010678,0,1.2256,-0.41782,-1.1859,-1.106,-89.743,-0.90323,0.7314,0.019288,0.48,1,0
0.32167,0,0.60008,-1.2172,-0.36782,-1.0756,-0.0033198,0,0,-0.18409,0.92009,0,-0.0086314,0,0,1.2453,0.0060373,0,1.2453,-0.3678,-1.2172,-1.0756,-89.776,-0.88686,0.78818,0.022436,0.5,1,0
0.31739,0,0.57504,-1.2278,-0.34108,-1.0457,-0.0048335,0,0,-0.2367,0.91599,0,-0.012567,0,0,1.256,0.0036156,0,1.256,-0.34106,-1.2278,-1.0457,-89.688,-0.87152,0.81117,0.022824,0.52,1,0
0.3122,0,0.54984,-1.2327,-0.32543,-1.0173,-0.006283,0,0,-0.28003,0.89939,0,-0.016336,0,0,1.2624,0.0022201,0,1.2624,-0.32539,-1.2327,-1.0173,-89.603,-0.85846,0.82109,0.021968,0.54,1,0
0.30619,0,0.52454,-1.2367,-0.31425,-0.98983,-0.0071797,0,0,-0.32094,0.87825,0,-0.018667,0,0,1.2662,0.0013174,0,1.2662,-0.3142,-1.2368,-0.98983,-89.554,-0.84693,0.82722,0.020577,0.56,1,0
0.29937,0,0.49919,-1.2412,-0.30476,-0.96297,-0.0075941,0,0,-0.36166,0.85568,0,-0.019745,0,0,1.2683,0.00068235,0,1.2683,-0.3047,-1.2412,-0.96297,-89.535,-0.8363,0.83303,0.018906,0.58,1,0
0.29172,0,0.47381,-1.246,-0.29584,-0.93637,-0.0076912,0,0,-0.40255,0.83269,0,-0.019997,0,0,1.2693,0.00020594,0,1.2693,-0.29578,-1.2461,-0.93637,-89.536,-0.82608,0.83946,0.017033,0.6,1,0
0.28326,0,0.44842,-1.2509,-0.28713,-0.90984,-0.0076093,0,0,-0.44343,0.80952,0,-0.019784,0,0,1.2693,-0.00017051,0,1.2693,-0.28707,-1.251,-0.90984,-89.548,-0.81597,0.84658,0.014976,0.62,1,0
0.27399,0,0.42304,-1.2556,-0.27855,-0.88328,-0.0074364,0,0,-0.48402,0.78615,0,-0.019335,0,0,1.2687,-0.00048267,0,1.2687,-0.27849,-1.2557,-0.88328,-89.564,-0.80581,0.8542,0.012742,0.64,1,0
0.2639,0,0.39767,-1.2598,-0.2701,-0.85666,-0.0072199,0,0,-0.52414,0.76252,0,-0.018772,0,0,1.2675,-0.00075477,0,1.2675,-0.27005,-1.2599,-0.85666,-89.582,-0.79553,0.86212,0.010341,0.66,1,0
0.25302,0,0.37234,-1.2635,-0.26182,-0.82994,-0.0069821,0,0,-0.56366,0.73856,0,-0.018153,0,0,1.2658,-0.0010052,0,1.2658,-0.26177,-1.2636,-0.82994,-89.601,-0.78509,0.87019,0.0077858,0.68,1,0
0.24136,0,0.34704,-1.2666,-0.25372,-0.80314,-0.0067323,0,0,-0.60251,0.71425,0,-0.017504,0,0,1.2635,-0.0012497,0,1.2635,-0.25367,-1.2667,-0.80314,-89.619,-0.77448,0.87832,0.0050921,0.7,1,0
0.22892,0,0.3218,-1.269,-0.24582,-0.77625,-0.0064739,0,0,-0.64061,0.68956,0,-0.016832,0,0,1.2608,-0.0015034,0,1.2608,-0.24578,-1.2691,-0.77625,-89.638,-0.7637,0.8864,0.0022777,0.72,1,0
0.21573,0,0.29661,-1.2708,-0.23817,-0.74929,-0.0062087,0,0,-0.67792,0.66446,0,-0.016143,0,0,1.2574,-0.0017829,0,1.2574,-0.23813,-1.2708,-0.74929,-89.656,-0.75274,0.89434,-0.0006379,0.74,1,0
0.2018,0,0.2715,-1.2718,-0.23084,-0.72228,-0.0059381,0,0,-0.71433,0.63887,0,-0.015439,0,0,1.2535,-0.002109,0,1.2535,-0.2308,-1.2718,-0.72228,-89.673,-0.74162,0.90199,-0.003633,0.76,1,0
0.18716,0,0.24647,-1.2719,-0.22399,-0.69523,-0.0056574,0,0,-0.74962,0.61261,0,-0.014709,0,0,1.2488,-0.0025119,0,1.2488,-0.22396,-1.2719,-0.69523,-89.691,-0.73036,0.90906,-0.0066802,0.78,1,0
0.17182,0,0.22155,-1.2707,-0.21798,-0.66816,-0.0053394,0,0,-0.78334,0.58523,0,-0.013883,0,0,1.2431,-0.003041,0,1.2431,-0.21795,-1.2708,-0.66816,-89.709,-0.71896,0.91494,-0.009737,0.8,1,0
0.15582,0,0.19675,-1.2676,-0.2135,-0.64107,-0.0048896,0,0,-0.81447,0.55585,0,-0.012713,0,0,1.2361,-0.0037895,0,1.2361,-0.21348,-1.2676,-0.64107,-89.734,-0.70739,0.91831,-0.012723,0.82,1,0
0.13924,0,0.1721,-1.2607,-0.21183,-0.61386,-0.0040539,0,0,-0.84088,0.52264,0,-0.01054,0,0,1.2269,-0.0049542,0,1.2269,-0.21181,-1.2607,-0.61386,-89.779,-0.69546,0.91658,-0.015468,0.84,1,0
0.12219,0,0.14767,-1.2468,-0.21525,-0.58628,-0.0022188,0,0,-0.85867,0.48234,0,-0.0057689,0,0,1.214,-0.0070094,0,1.214,-0.21524,-1.2468,-0.58628,-89.877,-0.68278,0.905,-0.017643,0.86,1,0
0.10489,0,0.12354,-1.2203,-0.22667,-0.55763,0.0016737,0,0,-0.86145,0.43024,0,0.0043515,0,0,1.1933,-0.011022,0,1.1934,-0.22667,-1.2203,-0.55763,89.903,-0.66819,0.87633,-0.018687,0.88,1,0
0.087732,0,0.099936,-1.1867,-0.25449,-0.5323,0.0095388,0,0,-0.85075,0.36116,0,0.024801,0,0,1.1583,-0.021091,0,1.1584,-0.25439,-1.1868,-0.5323,89.414,-0.65784,0.82917,-0.018576,0.9,1,0
0.070864,0,0.077211,-1.1515,-0.27657,-0.50562,0.013396,0,0,-0.83958,0.29776,0,0.034829,0,0,1.1033,-0.033876,0,1.1038,-0.27637,-1.1517,-0.50562,89.123,-0.64455,0.78615,-0.017985,0.92,1,0
0.054148,0,0.055804,-1.1211,-0.2538,-0.46827,0.015997,0,0,-0.84865,0.2788,0,0.041591,0,0,1.0311,-0.043956,0,1.0321,-0.25351,-1.1214,-0.46827,88.944,-0.61438,0.7829,-0.018536,0.94,1,0
0.036918,0,0.035965,-1.0972,-0.17915,-0.41887,0.012322,0,0,-0.88182,0.31163,0,0.032037,0,0,0.95611,-0.039774,0,0.95693,-0.17898,-1.0974,-0.41887,89.231,-0.56507,0.82501,-0.020832,0.96,1,0
0.018875,0,0.017559,-1.0861,-0.10917,-0.37614,0.0087948,0,0,-0.92294,0.34706,0,0.022867,0,0,0.89914,-0.02371,0,0.89941,-0.10909,-1.0862,-0.37614,89.484,-0.5238,0.87469,-0.023878,0.98,1,0
0,0,0,-1.0642,-0.063274,-0.33825,3.4694e-18,0,0,-0.94377,0.35747,0,0,0,0,0.87797,-2.7756e-17,0,0.87792,-0.063274,-1.0642,-0.33825,90,-0.48858,0.8957,-0.02552,1,1,0
