"Displacements:0","Displacements:1","Displacements:2","Stress/Strain:0","Stress/Strain:1","Stress/Strain:2","Stress/Strain:3","Stress/Strain:4","Stress/Strain:5","Stress/Strain:6","Stress/Strain:7","Stress/Strain:8","Stress/Strain:9","Stress/Strain:10","Stress/Strain:11","Stress/Strain:12","Stress/Strain:13","Stress/Strain:14","Stress/Strain:15","Principal Stress:0","Principal Stress:1","Principal Stress:2","Principal Stress:3","Principal Stress:4","Principal Stress:5","Principal Stress:6","nodes:0","nodes:1","nodes:2"
0,0,1,-0.87167,-1.3433,-1.6645,3.5996e-17,0,0,1.0307,0.41753,0,9.3675e-17,0,0,0.88333,-2.1242e-15,0,0.88332,-0.87167,-1.3433,-1.6645,4.3727e-15,-1.2932,0.69072,0.0054432,0,0,0
0.020613,0,0.98233,-0.85266,-1.3033,-1.6291,0.00022169,0,0,1.0094,0.42359,0,0.00057641,0,0,0.88897,-0.0058403,0,0.88899,-0.85266,-1.3033,-1.6291,0.028189,-1.2617,0.67532,0.0043339,0.02,0,0
0.040376,0,0.96444,-0.86277,-1.2595,-1.6011,0.00083975,0,0,0.95984,0.44415,0,0.0021833,0,0,0.90529,-0.011088,0,0.90536,-0.86277,-1.2595,-1.6011,0.12129,-1.2411,0.64002,0.0017327,0.04,0,0
0.059007,0,0.94612,-0.88233,-1.1974,-1.57,0.0020386,0,0,0.89402,0.48444,0,0.0053004,0,0,0.93047,-0.015107,0,0.9306,-0.88231,-1.1974,-1.57,0.37072,-1.2166,0.59628,-0.0015714,0.06,0,0
0.076136,0,0.92722,-0.91257,-1.1115,-1.5345,0.003706,0,0,0.80844,0.54981,0,0.0096356,0,0,0.96161,-0.017323,0,0.96177,-0.9125,-1.1116,-1.5345,1.0668,-1.1862,0.55012,-0.0049295,0.08,0,0
0.091345,0,0.90766,-0.95239,-1.0009,-1.4936,0.0051782,0,0,0.70363,0.64058,0,0.013463,0,0,0.99511,-0.017472,0,0.99526,-0.95184,-1.0014,-1.4936,6.0271,-1.149,0.51878,-0.0069505,0.1,0,0
0.10428,0,0.88742,-0.9978,-0.87361,-1.4488,0.0057175,0,0,0.58636,0.7478,0,0.014865,0,0,1.0273,-0.015779,0,1.0275,-0.87335,-0.99806,-1.4488,87.37,-1.1067,0.52438,-0.0060172,0.12,0,0
0.1148,0,0.86656,-1.0429,-0.74583,-1.4032,0.0050012,0,0,0.46837,0.85456,0,0.013003,0,0,1.0555,-0.01289,0,1.0555,-0.74574,-1.043,-1.4032,89.036,-1.064,0.57023,-0.0015707,0.14,0,0
0.12302,0,0.8452,-1.0816,-0.63404,-1.3599,0.003593,0,0,0.36181,0.94359,0,0.0093419,0,0,1.0778,-0.009573,0,1.0779,-0.63401,-1.0816,-1.3599,89.54,-1.0252,0.6343,0.0051228,0.16,0,0
0.12927,0,0.82345,-1.1092,-0.54836,-1.3207,0.0022384,0,0,0.27494,1.0041,0,0.0058198,0,0,1.0939,-0.0063834,0,1.094,-0.54835,-1.1093,-1.3207,89.771,-0.99278,0.69134,0.01177,0.18,0,0
0.13401,0,0.80144,-1.124,-0.49161,-1.2861,0.0014311,0,0,0.21078,1.0329,0,0.003721,0,0,1.1041,-0.0035337,0,1.1041,-0.4916,-1.124,-1.2861,89.87,-0.96723,0.72713,0.016484,0.2,0,0
0.1377,0,0.77929,-1.1259,-0.46226,-1.2557,0.0010675,0,0,0.16882,1.0315,0,0.0027754,0,0,1.1086,-0.00094391,0,1.1086,-0.46225,-1.1259,-1.2557,89.908,-0.94795,0.73717,0.01844,0.22,0,0
0.14077,0,0.75709,-1.1159,-0.45785,-1.2292,0.00075175,0,0,0.14731,1.0028,0,0.0019546,0,0,1.1079,0.0016056,0,1.1079,-0.45785,-1.1159,-1.2292,89.934,-0.93432,0.72142,0.017691,0.24,0,0
0.1436,0,0.73497,-1.0952,-0.4762,-1.2064,0.0001053,0,0,0.14452,0.94926,0,0.00027379,0,0,1.1019,0.00433,0,1.1019,-0.4762,-1.0952,-1.2064,89.99,-0.92594,0.68145,0.014805,0.26,0,0
0.14655,0,0.71302,-1.0654,-0.51472,-1.187,-0.0009657,0,0,0.15818,0.87403,0,-0.0025108,0,0,1.0901,0.007301,0,1.0902,-0.51471,-1.0654,-1.187,-89.9,-0.92238,0.62051,0.010698,0.28,0,0
0.14992,0,0.69137,-1.0289,-0.56816,-1.1705,-0.002093,0,0,0.18406,0.78302,0,-0.0054419,0,0,1.0727,0.010314,0,1.0727,-0.56815,-1.0289,-1.1705,-89.74,-0.92251,0.5455,0.006482,0.3,0,0
0.15391,0,0.67012,-0.98959,-0.62728,-1.1552,-0.0027932,0,0,0.21526,0.68626,0,-0.0072624,0,0,1.05,0.012855,0,1.0501,-0.62726,-0.98962,-1.1552,-89.558,-0.92402,0.46766,0.00312,0.32,0,0
0.15853,0,0.64936,-0.95169,-0.68032,-1.139,-0.0027433,0,0,0.24346,0.59624,0,-0.0071325,0,0,1.0238,0.014253,0,1.0239,-0.68029,-0.95172,-1.139,-89.421,-0.92366,0.39945,0.0010195,0.34,0,0
0.16365,0,0.62916,-0.91874,-0.71796,-1.1202,-0.002216,0,0,0.26186,0.52287,0,-0.0057616,0,0,0.99671,0.014006,0,0.99681,-0.71794,-0.91877,-1.1202,-89.368,-0.91896,0.34834,-5.3928e-06,0.36,0,0
0.16901,0,0.6095,-0.89285,-0.73738,-1.0986,-0.0016023,0,0,0.26742,0.46954,0,-0.0041661,0,0,0.97164,0.012054,0,0.97172,-0.73736,-0.89287,-1.0986,-89.41,-0.9096,0.31382,-0.0003775,0.38,0,0
0.17434,0,0.5903,-0.87438,-0.74106,-1.0749,-0.0011516,0,0,0.26071,0.43403,0,-0.0029941,0,0,0.95138,0.0088272,0,0.95142,-0.74104,-0.87439,-1.0749,-89.505,-0.89679,0.29109,-0.00043081,0.4,0,0
0.17944,0,0.57144,-0.86259,-0.73294,-1.0501,-0.00074387,0,0,0.24376,0.41231,0,-0.0019341,0,0,0.93769,0.0050226,0,0.9377,-0.73293,-0.86259,-1.0501,-89.671,-0.88187,0.27619,-0.00033498,0.42,0,0
0.1841,0,0.55279,-0.85653,-0.71557,-1.0244,-0.00021138,0,0,0.21826,0.4015,0,-0.00054959,0,0,0.93111,0.0013243,0,0.93111,-0.71557,-0.85653,-1.0244,-89.914,-0.86551,0.26781,-0.00014829,0.44,0,0
0.18817,0,0.53419,-0.85565,-0.68984,-0.99784,0.00052642,0,0,0.18485,0.4004,0,0.0013687,0,0,0.9311,-0.0017884,0,0.9311,-0.68984,-0.85565,-0.99784,89.818,-0.84778,0.267,0.00012941,0.46,0,0
0.19149,0,0.51554,-0.85963,-0.65595,-0.97022,0.0013882,0,0,0.14376,0.40855,0,0.0036094,0,0,0.9364,-0.0040742,0,0.93641,-0.65594,-0.85964,-0.97022,89.609,-0.8286,0.27613,0.00052632,0.48,0,0
0.19392,0,0.49674,-0.86797,-0.61453,-0.94149,0.0022082,0,0,0.095573,0.42505,0,0.0057414,0,0,0.94541,-0.0054864,0,0.94542,-0.61451,-0.86799,-0.94149,89.501,-0.808,0.29713,0.0010744,0.5,0,0
0.19531,0,0.47773,-0.87971,-0.56731,-0.91183,0.0028185,0,0,0.041764,0.44788,0,0.007328,0,0,0.95653,-0.0061095,0,0.95655,-0.56729,-0.87973,-0.91183,89.483,-0.78628,0.32967,0.0017815,0.52,0,0
0.19559,0,0.45848,-0.89341,-0.51702,-0.88161,0.0031217,0,0,-0.01534,0.47396,0,0.0081166,0,0,0.9684,-0.0061076,0,0.96842,-0.517,-0.89343,-0.88161,89.525,-0.76401,0.37066,0.0026066,0.54,0,0
0.1947,0,0.43899,-0.90744,-0.46685,-0.85128,0.0031211,0,0,-0.073009,0.49976,0,0.0081149,0,0,0.97995,-0.0056755,0,0.97997,-0.46683,-0.90746,-0.85128,89.594,-0.74186,0.4154,0.0034555,0.56,0,0
0.19267,0,0.41928,-0.92028,-0.41967,-0.82126,0.0029038,0,0,-0.12872,0.52207,0,0.0075499,0,0,0.99051,-0.0049976,0,0.99052,-0.41965,-0.92029,-0.82126,89.668,-0.7204,0.45921,0.0042042,0.58,0,0
0.18955,0,0.39937,-0.9308,-0.37752,-0.79187,0.0025902,0,0,-0.18061,0.53865,0,0.0067346,0,0,0.99969,-0.0042195,0,0.9997,-0.37751,-0.93081,-0.79187,89.732,-0.70007,0.49857,0.0047376,0.6,0,0
0.18544,0,0.37929,-0.93841,-0.34146,-0.76325,0.0022851,0,0,-0.2277,0.54833,0,0.0059413,0,0,1.0074,-0.0034374,0,1.0074,-0.34145,-0.93842,-0.76325,89.781,-0.68104,0.53149,0.0049822,0.62,0,0
0.18044,0,0.35908,-0.94296,-0.31166,-0.73546,0.0020492,0,0,-0.26975,0.55094,0,0.0053279,0,0,1.0135,-0.0027011,0,1.0135,-0.31165,-0.94297,-0.73546,89.814,-0.66336,0.55733,0.0049162,0.64,0,0
0.17465,0,0.33875,-0.94466,-0.28773,-0.70847,0.001898,0,0,-0.30705,0.54696,0,0.0049347,0,0,1.0183,-0.0020265,0,1.0183,-0.28772,-0.94466,-0.70847,89.835,-0.64695,0.57637,0.0045616,0.66,0,0
0.16816,0,0.31834,-0.94387,-0.26898,-0.6822,0.001814,0,0,-0.34017,0.53718,0,0.0047163,0,0,1.0218,-0.0014075,0,1.0218,-0.26898,-0.94388,-0.6822,89.846,-0.63169,0.58937,0.003966,0.68,0,0
0.16104,0,0.29788,-0.941,-0.25466,-0.65658,0.0017636,0,0,-0.36974,0.52249,0,0.0045854,0,0,1.024,-0.00082653,0,1.024,-0.25466,-0.941,-0.65658,89.853,-0.61741,0.59728,0.0031876,0.7,0,0
0.15337,0,0.27738,-0.93637,-0.24402,-0.6315,0.0017097,0,0,-0.39633,0.50372,0,0.0044451,0,0,1.0251,-0.00026062,0,1.0251,-0.24402,-0.93638,-0.6315,89.859,-0.60396,0.60102,0.0022844,0.72,0,0
0.14519,0,0.25688,-0.93027,-0.23638,-0.60687,0.0016195,0,0,-0.42041,0.48163,0,0.0042108,0,0,1.025,0.00031471,0,1.025,-0.23638,-0.93027,-0.60687,89.866,-0.59117,0.60139,0.0013095,0.74,0,0
0.13655,0,0.23638,-0.92287,-0.23112,-0.58258,0.0014706,0,0,-0.44238,0.45689,0,0.0038235,0,0,1.0238,0.00092256,0,1.0238,-0.23112,-0.92288,-0.58258,89.878,-0.57886,0.5991,0.00030868,0.76,0,0
0.1275,0,0.21592,-0.91436,-0.22764,-0.55853,0.0012545,0,0,-0.46259,0.43015,0,0.0032617,0,0,1.0212,0.0015813,0,1.0212,-0.22764,-0.91436,-0.55853,89.895,-0.56684,0.59485,-0.00067982,0.78,0,0
0.11805,0,0.19553,-0.90494,-0.22527,-0.53459,0.00098095,0,0,-0.48145,0.40212,0,0.0025505,0,0,1.0173,0.0022992,0,1.0173,-0.22527,-0.90494,-0.53459,89.917,-0.55493,0.5894,-0.0016273,0.8,0,0
0.10824,0,0.17523,-0.8949,-0.22321,-0.51067,0.00067965,0,0,-0.49951,0.37369,0,0.0017671,0,0,1.0119,0.003066,0,1.0119,-0.22321,-0.8949,-0.51067,89.942,-0.54293,0.58371,-0.0025172,0.82,0,0
0.09807,0,0.15505,-0.88468,-0.22047,-0.4866,0.00039636,0,0,-0.5175,0.34597,0,0.0010305,0,0,1.005,0.0038436,0,1.005,-0.22047,-0.88468,-0.4866,89.966,-0.53058,0.57899,-0.0033489,0.84,0,0
0.087538,0,0.13503,-0.87481,-0.21589,-0.46224,0.00018071,0,0,-0.53634,0.32026,0,0.00046984,0,0,0.99672,0.0045578,0,0.99673,-0.21589,-0.87481,-0.46224,89.984,-0.51765,0.57666,-0.0041405,0.86,0,0
0.076616,0,0.11518,-0.86588,-0.20827,-0.43743,6.5493e-05,0,0,-0.55698,0.29791,0,0.00017028,0,0,0.98722,0.0050995,0,0.98723,-0.20827,-0.86588,-0.43743,89.994,-0.50386,0.57816,-0.0049288,0.88,0,0
0.065259,0,0.095541,-0.85836,-0.19665,-0.41204,4.9211e-05,0,0,-0.58022,0.28002,0,0.00012795,0,0,0.97702,0.0053399,0,0.97704,-0.19665,-0.85836,-0.41204,89.996,-0.48902,0.58458,-0.0057633,0.9,0,0
0.053408,0,0.076104,-0.85253,-0.18061,-0.38605,9.2146e-05,0,0,-0.60642,0.26706,0,0.00023958,0,0,0.96683,0.0051598,0,0.96684,-0.18061,-0.85253,-0.38605,89.992,-0.47306,0.59635,-0.0066955,0.92,0,0
0.041002,0,0.056868,-0.84834,-0.16046,-0.35951,0.00013629,0,0,-0.63548,0.25876,0,0.00035436,0,0,0.95751,0.0044866,0,0.95752,-0.16046,-0.84834,-0.35951,89.989,-0.4561,0.61309,-0.0077666,0.94,0,0
0.027988,0,0.037804,-0.84553,-0.13709,-0.33259,0.00013554,0,0,-0.66682,0.25415,0,0.00035239,0,0,0.94999,0.0033256,0,0.95,-0.13709,-0.84553,-0.33259,89.989,-0.4384,0.63372,-0.0090001,0.96,0,0
0.014329,0,0.018868,-0.8437,-0.11161,-0.30546,8.0459e-05,0,0,-0.69971,0.252,0,0.00020919,0,0,0.9451,0.0017722,0,0.9451,-0.11161,-0.8437,-0.30546,89.994,-0.42026,0.65697,-0.010403,0.98,0,0
0,0,0,-0.81942,-0.074946,-0.26831,3.3881e-18,0,0,-0.71645,0.25138,0,8.8905e-18,0,0,0.9434,-1.6263e-17,0,0.9434,-0.074946,-0.81942,-0.26831,90,-0.38756,0.66909,-0.011163,1,0,0
0,0.0083506,1,-0.87197,-1.3455,-1.6652,0.0023318,0,0,1.0312,0.41568,0,0.0060627,0,0,0.87748,-1.2013e-16,0,0.87747,-0.87195,-1.3455,-1.6652,0.28214,-1.2942,0.69129,0.0055691,0,0.02,0
0.020625,0.0084718,0.98245,-0.85286,-1.3061,-1.6301,0.0055744,0,0,1.0105,0.42121,0,0.014494,0,0,0.88342,-0.011957,0,0.88351,-0.85279,-1.3062,-1.6301,0.70447,-1.2631,0.67632,0.0045073,0.02,0.02,0
0.040419,0.008883,0.96466,-0.86242,-1.264,-1.6026,0.013322,0,0,0.96221,0.4402,0,0.034636,0,0,0.90066,-0.022789,0,0.90101,-0.86198,-1.2644,-1.6026,1.898,-1.243,0.64218,0.0020348,0.04,0.02,0
0.059113,0.0096888,0.94642,-0.88148,-1.204,-1.572,0.024274,0,0,0.89775,0.47853,0,0.063112,0,0,0.92736,-0.031171,0,0.92802,-0.87966,-1.2058,-1.572,4.2807,-1.2192,0.59997,-0.0011125,0.06,0.02,0
0.076329,0.010996,0.92757,-0.91176,-1.1189,-1.5368,0.037284,0,0,0.81253,0.54319,0,0.096938,0,0,0.96043,-0.03578,0,0.96127,-0.90526,-1.1255,-1.5368,9.8971,-1.1892,0.5552,-0.0043597,0.08,0.02,0
0.091614,0.012812,0.90801,-0.95213,-1.0058,-1.4954,0.048377,0,0,0.70624,0.63644,0,0.12578,0,0,0.99588,-0.035955,0,0.9967,-0.92365,-1.0343,-1.4954,30.486,-1.1511,0.52523,-0.0063426,0.1,0.02,0
0.10458,0.014956,0.88773,-0.99827,-0.87308,-1.4491,0.052383,0,0,0.58613,0.74888,0,0.1362,0,0,1.0296,-0.032174,0,1.0303,-0.85405,-1.0173,-1.4491,70.038,-1.1068,0.53257,-0.0053715,0.12,0.02,0
0.11506,0.017091,0.86682,-1.0439,-0.74023,-1.4021,0.047232,0,0,0.4656,0.86038,0,0.1228,0,0,1.0586,-0.025948,0,1.059,-0.73305,-1.0511,-1.4021,81.36,-1.0621,0.57961,-0.000852,0.14,0.02,0
0.1232,0.018872,0.84539,-1.0825,-0.62633,-1.358,0.035273,0,0,0.35822,0.95122,0,0.091709,0,0,1.0811,-0.019007,0,1.0813,-0.62362,-1.0852,-1.358,85.604,-1.0223,0.64299,0.0058387,0.16,0.02,0
0.12939,0.020082,0.82358,-1.1095,-0.54121,-1.3188,0.021092,0,0,0.27213,1.0108,0,0.054838,0,0,1.097,-0.012547,0,1.0971,-0.54043,-1.1102,-1.3188,87.877,-0.98981,0.69785,0.012343,0.18,0.02,0
0.13409,0.020657,0.80151,-1.1233,-0.48584,-1.2842,0.0078782,0,0,0.20926,1.0379,0,0.020483,0,0,1.1068,-0.0069163,0,1.1068,-0.48574,-1.1234,-1.2842,89.292,-0.96445,0.73146,0.016869,0.2,0.02,0
0.13776,0.02063,0.77931,-1.1248,-0.45745,-1.254,-0.0035046,0,0,0.16794,1.0355,0,-0.0091119,0,0,1.1112,-0.0018689,0,1.1112,-0.45743,-1.1248,-1.254,-89.699,-0.94541,0.74047,0.018731,0.22,0.02,0
0.14081,0.020056,0.75706,-1.1152,-0.45308,-1.2275,-0.013815,0,0,0.14606,1.0068,0,-0.03592,0,0,1.1106,0.0031016,0,1.1106,-0.4528,-1.1155,-1.2275,-88.805,-0.93194,0.72524,0.018025,0.24,0.02,0
0.1436,0.018985,0.73488,-1.0954,-0.4711,-1.2048,-0.023867,0,0,0.14229,0.95384,0,-0.062054,0,0,1.1047,0.0084886,0,1.1047,-0.47019,-1.0963,-1.2048,-87.814,-0.92377,0.68683,0.015249,0.26,0.02,0
0.1465,0.017481,0.71288,-1.0662,-0.50988,-1.1857,-0.033217,0,0,0.15532,0.87858,0,-0.086364,0,0,1.0931,0.014513,0,1.0932,-0.5079,-1.0682,-1.1857,-86.595,-0.9206,0.62736,0.011197,0.28,0.02,0
0.14981,0.01566,0.69116,-1.03,-0.56536,-1.1698,-0.039893,0,0,0.18169,0.78573,0,-0.10372,0,0,1.0754,0.020825,0,1.0757,-0.56196,-1.0334,-1.1698,-85.128,-0.92171,0.5524,0.0069112,0.3,0.02,0
0.15377,0.013725,0.66986,-0.9905,-0.62807,-1.1554,-0.041329,0,0,0.21441,0.68556,0,-0.10745,0,0,1.052,0.026307,0,1.0524,-0.62342,-0.99515,-1.1554,-83.576,-0.92467,0.47271,0.0033972,0.32,0.02,0
0.15839,0.011925,0.64908,-0.95217,-0.68431,-1.14,-0.03692,0,0,0.24421,0.59243,0,-0.095992,0,0,1.0244,0.029424,0,1.025,-0.67931,-0.95717,-1.14,-82.294,-0.9255,0.4018,0.0011595,0.34,0.02,0
0.16353,0.010457,0.62888,-0.9188,-0.72283,-1.1214,-0.02881,0,0,0.26334,0.5181,0,-0.074906,0,0,0.99561,0.028962,0,0.99614,-0.71869,-0.92295,-1.1214,-81.808,-0.921,0.34875,5.4717e-05,0.36,0.02,0
0.16892,0.0093909,0.60925,-0.89266,-0.74127,-1.0994,-0.020413,0,0,0.26881,0.46561,0,-0.053074,0,0,0.96906,0.024797,0,0.96945,-0.73856,-0.89536,-1.0994,-82.454,-0.91112,0.31341,-0.00035503,0.38,0.02,0
0.17428,0.0086806,0.59012,-0.87411,-0.74387,-1.0755,-0.013513,0,0,0.26182,0.43114,0,-0.035134,0,0,0.94786,0.017929,0,0.94807,-0.74248,-0.8755,-1.0755,-84.139,-0.89783,0.29035,-0.00042742,0.4,0.02,0
0.1794,0.0082461,0.57134,-0.86213,-0.73533,-1.0506,-0.0079967,0,0,0.24499,0.40982,0,-0.020792,0,0,0.93394,0.0099486,0,0.934,-0.73483,-0.86263,-1.0506,-86.405,-0.88268,0.27509,-0.00034509,0.42,0.02,0
0.18408,0.00803,0.55276,-0.85577,-0.71813,-1.0249,-0.0029183,0,0,0.21991,0.39884,0,-0.0075875,0,0,0.92771,0.0023115,0,0.9277,-0.71807,-0.85584,-1.0249,-88.786,-0.86628,0.26621,-0.00017027,0.44,0.02,0
0.18819,0.008008,0.53423,-0.85461,-0.69262,-0.9984,0.0022863,0,0,0.18693,0.39751,0,0.0059445,0,0,0.92841,-0.0040215,0,0.92841,-0.69259,-0.85464,-0.9984,89.192,-0.84854,0.265,9.8816e-05,0.46,0.02,0
0.19156,0.008171,0.51562,-0.8585,-0.65863,-0.97076,0.0074775,0,0,0.14595,0.40577,0,0.019442,0,0,0.93455,-0.0086068,0,0.9346,-0.65835,-0.85877,-0.97076,87.86,-0.8293,0.27415,0.00049431,0.48,0.02,0
0.19403,0.0085009,0.49685,-0.86699,-0.61664,-0.94194,0.011999,0,0,0.097433,0.42289,0,0.031197,0,0,0.94439,-0.01138,0,0.94447,-0.61606,-0.86756,-0.94194,87.262,-0.80852,0.29578,0.0010511,0.5,0.02,0
0.19546,0.0089575,0.47785,-0.87906,-0.56844,-0.9121,0.015085,0,0,0.042951,0.44676,0,0.03922,0,0,0.95622,-0.012537,0,0.95632,-0.56771,-0.87979,-0.9121,87.226,-0.78653,0.32943,0.0017767,0.52,0.02,0
0.19575,0.0094792,0.4586,-0.89316,-0.51704,-0.88166,0.016246,0,0,-0.014947,0.47401,0,0.042241,0,0,0.96861,-0.012428,0,0.96871,-0.51634,-0.89386,-0.88166,87.531,-0.76395,0.37157,0.0026252,0.54,0.02,0
0.19486,0.0099951,0.4391,-0.90751,-0.46592,-0.85113,0.015485,0,0,-0.073292,0.50078,0,0.04026,0,0,0.98051,-0.011466,0,0.98059,-0.46538,-0.90805,-0.85113,87.994,-0.74152,0.41714,0.0034951,0.56,0.02,0
0.19282,0.010441,0.41938,-0.92053,-0.41815,-0.82098,0.013241,0,0,-0.12941,0.52368,0,0.034425,0,0,0.99124,-0.010036,0,0.9913,-0.4178,-0.92088,-0.82098,88.491,-0.71989,0.46131,0.0042559,0.58,0.02,0
0.18968,0.010773,0.39946,-0.93107,-0.3758,-0.79152,0.010167,0,0,-0.18142,0.54043,0,0.026434,0,0,1.0005,-0.008433,0,1.0005,-0.37562,-0.93126,-0.79152,88.951,-0.69946,0.50062,0.0047911,0.6,0.02,0
0.18556,0.010967,0.37936,-0.93857,-0.33981,-0.76287,0.0068789,0,0,-0.2284,0.54998,0,0.017885,0,0,1.0081,-0.006846,0,1.0082,-0.33973,-0.93865,-0.76287,89.342,-0.68042,0.53322,0.0050298,0.62,0.02,0
0.18055,0.011019,0.35913,-0.94298,-0.31022,-0.73509,0.0038027,0,0,-0.27025,0.55232,0,0.0098871,0,0,1.0142,-0.005368,0,1.0143,-0.3102,-0.943,-0.73509,89.656,-0.66276,0.55865,0.0049546,0.64,0.02,0
0.17475,0.010939,0.33879,-0.94455,-0.28655,-0.70812,0.0011472,0,0,-0.30736,0.54804,0,0.0029826,0,0,1.019,-0.0040234,0,1.019,-0.28655,-0.94455,-0.70812,89.9,-0.64641,0.57732,0.004591,0.66,0.02,0
0.16825,0.010744,0.31837,-0.9437,-0.26803,-0.68189,-0.0010499,0,0,-0.34035,0.53802,0,-0.0027298,0,0,1.0224,-0.0027952,0,1.0224,-0.26803,-0.9437,-0.68189,-89.911,-0.63121,0.59006,0.0039883,0.68,0.02,0
0.16114,0.01045,0.2979,-0.94083,-0.25388,-0.65631,-0.0028514,0,0,-0.36988,0.52316,0,-0.0074137,0,0,1.0246,-0.0016454,0,1.0246,-0.25387,-0.94085,-0.65631,-89.762,-0.61701,0.59785,0.0032046,0.7,0.02,0
0.15346,0.010075,0.27739,-0.9363,-0.24335,-0.63128,-0.0043599,0,0,-0.39652,0.50431,0,-0.011336,0,0,1.0257,-0.00052612,0,1.0257,-0.24333,-0.93633,-0.63128,-89.639,-0.60364,0.60159,0.0022972,0.72,0.02,0
0.14528,0.0096327,0.25687,-0.93034,-0.23578,-0.6067,-0.0056737,0,0,-0.42073,0.48221,0,-0.014752,0,0,1.0256,0.00061248,0,1.0256,-0.23573,-0.93039,-0.6067,-89.532,-0.59094,0.60205,0.0013179,0.74,0.02,0
0.13663,0.0091379,0.23636,-0.92312,-0.23056,-0.58247,-0.0068579,0,0,-0.44285,0.45748,0,-0.01783,0,0,1.0244,0.0018181,0,1.0244,-0.23049,-0.92319,-0.58247,-89.433,-0.57872,0.59993,0.00031197,0.76,0.02,0
0.12756,0.008603,0.21589,-0.91479,-0.22712,-0.55847,-0.0079218,0,0,-0.46322,0.43075,0,-0.020597,0,0,1.0219,0.0031302,0,1.0219,-0.22703,-0.91488,-0.55847,-89.34,-0.5668,0.59583,-0.00068285,0.78,0.02,0
0.1181,0.0080424,0.19548,-0.90551,-0.22485,-0.53459,-0.0088042,0,0,-0.4822,0.40267,0,-0.022891,0,0,1.0181,0.0045691,0,1.0181,-0.22473,-0.90563,-0.53459,-89.259,-0.55499,0.59047,-0.0016373,0.8,0.02,0
0.10827,0.0074738,0.17517,-0.89555,-0.22297,-0.51073,-0.0093729,0,0,-0.50027,0.37408,0,-0.024369,0,0,1.0127,0.0061203,0,1.0127,-0.22284,-0.89568,-0.51073,-89.202,-0.54308,0.58471,-0.0025332,0.82,0.02,0
0.098091,0.0069194,0.15498,-0.88531,-0.22053,-0.48673,-0.009451,0,0,-0.51815,0.34606,0,-0.024573,0,0,1.0058,0.0077122,0,1.0058,-0.2204,-0.88544,-0.48673,-89.186,-0.53086,0.57974,-0.0033682,0.84,0.02,0
0.087548,0.0064051,0.13494,-0.87534,-0.21632,-0.46244,-0.0088857,0,0,-0.53677,0.31995,0,-0.023103,0,0,0.99735,0.0091974,0,0.9974,-0.2162,-0.87546,-0.46244,-89.228,-0.51803,0.57699,-0.0041587,0.86,0.02,0
0.07662,0.0059582,0.11508,-0.86626,-0.20907,-0.43768,-0.0076426,0,0,-0.55715,0.2972,0,-0.019871,0,0,0.98761,0.010351,0,0.98768,-0.20898,-0.86635,-0.43768,-89.334,-0.50434,0.57802,-0.0049416,0.88,0.02,0
0.065261,0.0056003,0.095434,-0.85861,-0.19767,-0.41232,-0.0058828,0,0,-0.58018,0.27904,0,-0.015295,0,0,0.97705,0.010898,0,0.97713,-0.19762,-0.85866,-0.41232,-89.49,-0.48953,0.58408,-0.005769,0.9,0.02,0
0.053412,0.0053412,0.076001,-0.85269,-0.18163,-0.3863,-0.0039503,0,0,-0.60631,0.26607,0,-0.010271,0,0,0.9664,0.01058,0,0.96647,-0.1816,-0.85271,-0.3863,-89.663,-0.47354,0.59575,-0.0066959,0.92,0.02,0
0.041009,0.0051752,0.056778,-0.84849,-0.16124,-0.3597,-0.0022482,0,0,-0.63543,0.25799,0,-0.0058452,0,0,0.95659,0.0092337,0,0.95665,-0.16123,-0.84849,-0.3597,-89.813,-0.45648,0.61263,-0.0077664,0.94,0.02,0
0.027995,0.005083,0.037737,-0.84571,-0.13754,-0.33271,-0.001053,0,0,-0.66689,0.25372,0,-0.0027378,0,0,0.94863,0.0068618,0,0.94866,-0.13754,-0.84571,-0.33271,-89.915,-0.43865,0.63355,-0.0090034,0.96,0.02,0
0.014333,0.0050401,0.018832,-0.84392,-0.1118,-0.30555,-0.00038486,0,0,-0.69988,0.25188,0,-0.0010006,0,0,0.94343,0.003662,0,0.94344,-0.1118,-0.84392,-0.30555,-89.97,-0.42042,0.65703,-0.01041,0.98,0.02,0
0,0.0050275,0,-0.81972,-0.075087,-0.26844,-0.00024142,0,0,-0.71666,0.25136,0,-0.00062768,0,0,0.94162,6.9389e-18,0,0.94162,-0.075087,-0.81972,-0.26844,-89.981,-0.38775,0.66924,-0.011173,1,0.02,0
0,0.016627,1,-0.87277,-1.3519,-1.6674,0.0042544,0,0,1.033,0.41011,0,0.011061,0,0,0.85941,-5.0481e-16,0,0.85935,-0.87273,-1.352,-1.6674,0.50864,-1.2974,0.69308,0.0059498,0,0.04,0
0.020661,0.016848,0.98281,-0.85356,-1.3146,-1.6333,0.010568,0,0,1.0136,0.41428,0,0.027477,0,0,0.86618,-0.024898,0,0.8665,-0.85331,-1.3148,-1.6333,1.3125,-1.2671,0.67922,0.0050094,0.02,0.04,0
0.040544,0.017608,0.96535,-0.86152,-1.2769,-1.6069,0.025357,0,0,0.96894,0.42902,0,0.065929,0,0,0.88608,-0.047968,0,0.88743,-0.85998,-1.2784,-1.6069,3.4809,-1.2484,0.64838,0.002894,0.04,0.04,0
0.059418,0.019141,0.94737,-0.87931,-1.2238,-1.5783,0.047095,0,0,0.90868,0.46087,0,0.12245,0,0,0.91748,-0.066316,0,0.92005,-0.87299,-1.2301,-1.5783,7.6464,-1.2271,0.61083,0.00025662,0.06,0.04,0
0.076891,0.021727,0.92865,-0.90983,-1.1427,-1.5444,0.074805,0,0,0.82495,0.52224,0,0.19449,0,0,0.95683,-0.076511,0,0.96014,-0.88787,-1.1646,-1.5444,16.36,-1.199,0.5709,-0.0025579,0.08,0.04,0
0.092416,0.025458,0.9091,-0.95226,-1.0223,-1.5015,0.099309,0,0,0.71396,0.62292,0,0.25821,0,0,0.99871,-0.076288,0,1.0019,-0.88197,-1.0926,-1.5015,35.289,-1.1587,0.54558,-0.0043467,0.1,0.04,0
0.10545,0.029955,0.8887,-1.0003,-0.87028,-1.4499,0.10786,0,0,0.58447,0.75347,0,0.28043,0,0,1.0373,-0.066889,0,1.0396,-0.80935,-1.0612,-1.4499,60.537,-1.1068,0.55891,-0.0032267,0.12,0.04,0
0.11579,0.034415,0.8676,-1.0472,-0.72091,-1.398,0.094711,0,0,0.45611,0.88025,0,0.24625,0,0,1.0686,-0.05231,0,1.07,-0.69541,-1.0727,-1.398,74.93,-1.0554,0.60904,0.0014798,0.14,0.04,0
0.12369,0.038049,0.84596,-1.0852,-0.60221,-1.3522,0.068011,0,0,0.34711,0.97495,0,0.17683,0,0,1.0912,-0.037202,0,1.0919,-0.59281,-1.0946,-1.3522,82.135,-1.0132,0.66886,0.0080406,0.16,0.04,0
0.12968,0.040433,0.82395,-1.1091,-0.52029,-1.3128,0.038775,0,0,0.26476,1.0302,0,0.10082,0,0,1.106,-0.02405,0,1.1063,-0.51775,-1.1117,-1.3128,86.249,-0.98072,0.71598,0.013956,0.18,0.04,0
0.13428,0.041517,0.80172,-1.1198,-0.46995,-1.2786,0.013768,0,0,0.20651,1.0513,0,0.035798,0,0,1.1147,-0.013198,0,1.1148,-0.46966,-1.1201,-1.2786,88.787,-0.95613,0.74251,0.017835,0.2,0.04,0
0.13794,0.04142,0.77936,-1.12,-0.44424,-1.2486,-0.0067614,0,0,0.16725,1.0457,0,-0.01758,0,0,1.1187,-0.0036661,0,1.1187,-0.44417,-1.12,-1.2486,-89.427,-0.93761,0.74849,0.019411,0.22,0.04,0
0.14097,0.040272,0.75697,-1.112,-0.43989,-1.2225,-0.025369,0,0,0.14371,1.0174,0,-0.065958,0,0,1.1183,0.0057276,0,1.1183,-0.43893,-1.113,-1.2225,-87.841,-0.9248,0.73496,0.018871,0.24,0.04,0
0.14369,0.038154,0.73463,-1.0953,-0.45595,-1.2,-0.044519,0,0,0.13608,0.96729,0,-0.11575,0,0,1.1133,0.016132,0,1.1134,-0.45287,-1.0984,-1.2,-86.036,-0.9171,0.70189,0.016512,0.26,0.04,0
0.14642,0.035143,0.71244,-1.0692,-0.49437,-1.1815,-0.064203,0,0,0.14602,0.89328,0,-0.16693,0,0,1.1025,0.028435,0,1.1028,-0.48729,-1.0763,-1.1815,-83.704,-0.91502,0.64804,0.012744,0.28,0.04,0
0.14953,0.031429,0.69053,-1.034,-0.55504,-1.1672,-0.07975,0,0,0.17324,0.79586,0,-0.20735,0,0,1.0845,0.042226,0,1.0853,-0.54211,-1.0469,-1.1672,-80.79,-0.91875,0.57449,0.0083163,0.3,0.04,0
0.15335,0.027422,0.66906,-0.99406,-0.62978,-1.1562,-0.084613,0,0,0.2108,0.68436,0,-0.21999,0,0,1.0586,0.055119,0,1.0602,-0.61109,-1.0128,-1.1562,-77.541,-0.92669,0.48943,0.004323,0.32,0.04,0
0.15796,0.023697,0.64819,-0.95457,-0.6974,-1.1438,-0.075347,0,0,0.24597,0.58029,0,-0.1959,0,0,1.0265,0.062864,0,1.0286,-0.67695,-0.97502,-1.1438,-74.816,-0.93192,0.40942,0.0016144,0.34,0.04,0
0.16319,0.020724,0.628,-0.91948,-0.73801,-1.1253,-0.05797,0,0,0.2675,0.50341,0,-0.15072,0,0,0.99209,0.062136,0,0.99419,-0.72108,-0.93642,-1.1253,-73.713,-0.92758,0.35028,0.00025016,0.36,0.04,0
0.16866,0.018624,0.6085,-0.89245,-0.75268,-1.102,-0.040691,0,0,0.27247,0.45417,0,-0.1058,0,0,0.96061,0.052479,0,0.96214,-0.7417,-0.90344,-1.102,-74.895,-0.91573,0.31261,-0.00027628,0.38,0.04,0
0.17408,0.017246,0.58958,-0.8734,-0.75174,-1.0771,-0.02751,0,0,0.26484,0.42299,0,-0.071527,0,0,0.93653,0.036873,0,0.93728,-0.74581,-0.87933,-1.0771,-77.832,-0.90075,0.28872,-0.0004059,0.4,0.04,0
0.17925,0.016393,0.57104,-0.86076,-0.74251,-1.052,-0.016977,0,0,0.24864,0.40236,0,-0.04414,0,0,0.92207,0.019332,0,0.92226,-0.74012,-0.86315,-1.052,-81.99,-0.8851,0.27211,-0.0003683,0.42,0.04,0
0.18403,0.015954,0.5527,-0.85326,-0.72606,-1.0265,-0.0067923,0,0,0.2252,0.39056,0,-0.01766,0,0,0.91714,0.0031438,0,0.91712,-0.7257,-0.85362,-1.0265,-86.952,-0.8686,0.26146,-0.00023436,0.44,0.04,0
0.18826,0.015901,0.53436,-0.85118,-0.70132,-1.0001,0.0040938,0,0,0.1936,0.38843,0,0.010644,0,0,0.92019,-0.0099104,0,0.92023,-0.7012,-0.85129,-1.0001,88.436,-0.85087,0.25886,6.5784e-06,0.46,0.04,0
0.19177,0.016231,0.51589,-0.85486,-0.66704,-0.97246,0.015131,0,0,0.15288,0.39704,0,0.03934,0,0,0.92904,-0.01911,0,0.92925,-0.66583,-0.85607,-0.97246,85.424,-0.83145,0.2681,0.00039865,0.48,0.04,0
0.19438,0.016916,0.49719,-0.86394,-0.6232,-0.94334,0.024754,0,0,0.10322,0.41617,0,0.06436,0,0,0.94148,-0.024432,0,0.94182,-0.62068,-0.86646,-0.94334,84.189,-0.81016,0.29191,0.00098498,0.5,0.04,0
0.1959,0.01787,0.47823,-0.87713,-0.57184,-0.91292,0.031203,0,0,0.046529,0.4434,0,0.081128,0,0,0.95548,-0.026357,0,0.95588,-0.56869,-0.88028,-0.91292,84.223,-0.7873,0.32913,0.0017706,0.52,0.04,0
0.19624,0.01896,0.45898,-0.89248,-0.51688,-0.88178,0.033417,0,0,-0.013903,0.47437,0,0.086885,0,0,0.96947,-0.025695,0,0.96983,-0.51393,-0.89543,-0.88178,84.955,-0.76372,0.37486,0.0026933,0.54,0.04,0
0.19535,0.020031,0.43945,-0.90783,-0.46284,-0.85065,0.031501,0,0,-0.07433,0.50415,0,0.081903,0,0,0.98235,-0.023367,0,0.98264,-0.46062,-0.91005,-0.85065,85.971,-0.74044,0.42286,0.0036266,0.56,0.04,0
0.19326,0.020947,0.41968,-0.92134,-0.41337,-0.82009,0.026558,0,0,-0.13161,0.52873,0,0.069052,0,0,0.99355,-0.020205,0,0.99376,-0.41199,-0.92272,-0.82009,87.015,-0.71827,0.46793,0.0044211,0.58,0.04,0
0.19008,0.021617,0.39971,-0.93185,-0.37052,-0.79042,0.02008,0,0,-0.18386,0.54586,0,0.052208,0,0,1.0029,-0.016817,0,1.003,-0.36981,-0.93257,-0.79042,87.954,-0.6976,0.50686,0.004957,0.6,0.04,0
0.18591,0.021999,0.37957,-0.93898,-0.33486,-0.76172,0.013371,0,0,-0.23044,0.55491,0,0.034764,0,0,1.0104,-0.013561,0,1.0105,-0.33457,-0.93927,-0.76172,88.733,-0.67852,0.53836,0.0051738,0.62,0.04,0
0.18086,0.022093,0.35929,-0.9429,-0.306,-0.73396,0.0072558,0,0,-0.27162,0.55635,0,0.018865,0,0,1.0164,-0.01059,0,1.0164,-0.30592,-0.94298,-0.73396,89.347,-0.66095,0.56248,0.0050687,0.64,0.04,0
0.17505,0.021922,0.33891,-0.94408,-0.28311,-0.70707,0.002084,0,0,-0.30811,0.55114,0,0.0054183,0,0,1.0209,-0.0079241,0,1.0209,-0.2831,-0.94409,-0.70707,89.819,-0.64475,0.58001,0.0046773,0.66,0.04,0
0.16854,0.021521,0.31845,-0.94305,-0.26527,-0.68095,-0.0021343,0,0,-0.34072,0.54038,0,-0.0055492,0,0,1.0241,-0.0055097,0,1.0242,-0.26527,-0.94305,-0.68095,-89.82,-0.62976,0.59198,0.0040534,0.68,0.04,0
0.16142,0.020926,0.29795,-0.94024,-0.25162,-0.65551,-0.0055671,0,0,-0.37016,0.52505,0,-0.014474,0,0,1.0263,-0.0032594,0,1.0263,-0.25158,-0.94029,-0.65551,-89.537,-0.61579,0.59941,0.0032544,0.7,0.04,0
0.15373,0.020172,0.2774,-0.936,-0.24141,-0.63063,-0.008442,0,0,-0.39698,0.50598,0,-0.021949,0,0,1.0274,-0.0010723,0,1.0274,-0.24131,-0.9361,-0.63063,-89.304,-0.60268,0.60317,0.0023349,0.72,0.04,0
0.14554,0.019288,0.25685,-0.93051,-0.234,-0.6062,-0.010969,0,0,-0.42159,0.48386,0,-0.028519,0,0,1.0274,0.0011555,0,1.0274,-0.23383,-0.93068,-0.6062,-89.098,-0.59024,0.60396,0.0013432,0.74,0.04,0
0.13687,0.018299,0.23631,-0.92386,-0.22887,-0.58213,-0.01329,0,0,-0.44425,0.45923,0,-0.034554,0,0,1.0263,0.0035245,0,1.0263,-0.22862,-0.92412,-0.58213,-88.905,-0.57829,0.60235,0.00032201,0.76,0.04,0
0.12777,0.01723,0.2158,-0.91611,-0.22554,-0.5583,-0.015439,0,0,-0.46516,0.43258,0,-0.040141,0,0,1.024,0.0061225,0,1.024,-0.2252,-0.91646,-0.5583,-88.72,-0.56665,0.59878,-0.00069194,0.78,0.04,0
0.11826,0.016107,0.19535,-0.90731,-0.22351,-0.5346,-0.017309,0,0,-0.48453,0.40441,0,-0.045003,0,0,1.0203,0.0090072,0,1.0204,-0.22307,-0.90775,-0.5346,-88.551,-0.55514,0.59375,-0.0016679,0.8,0.04,0
0.10839,0.014963,0.17499,-0.89761,-0.22215,-0.51091,-0.018634,0,0,-0.5027,0.3754,0,-0.048448,0,0,1.0151,0.012173,0,1.0152,-0.22163,-0.89812,-0.51091,-88.421,-0.54356,0.5879,-0.0025834,0.82,0.04,0
0.098156,0.013842,0.15474,-0.88734,-0.22057,-0.48712,-0.019024,0,0,-0.52029,0.34652,0,-0.049464,0,0,1.0081,0.015501,0,1.0083,-0.22002,-0.88788,-0.48712,-88.367,-0.53168,0.58223,-0.0034296,0.84,0.04,0
0.087575,0.012798,0.13466,-0.87707,-0.21752,-0.46304,-0.018096,0,0,-0.53824,0.31917,0,-0.047048,0,0,0.99936,0.018706,0,0.99955,-0.21703,-0.87757,-0.46304,-88.43,-0.51921,0.57821,-0.0042175,0.86,0.04,0
0.076626,0.011888,0.11477,-0.86753,-0.21145,-0.43847,-0.015691,0,0,-0.55778,0.29512,0,-0.040796,0,0,0.98892,0.02131,0,0.98917,-0.21108,-0.8679,-0.43847,-88.631,-0.50582,0.57773,-0.0049837,0.88,0.04,0
0.065264,0.011162,0.095105,-0.85942,-0.20083,-0.41318,-0.01209,0,0,-0.58011,0.27605,0,-0.031434,0,0,0.97725,0.022696,0,0.97754,-0.20061,-0.85964,-0.41318,-88.949,-0.49114,0.58259,-0.0057873,0.9,0.04,0
0.053422,0.010643,0.075681,-0.85318,-0.18479,-0.38707,-0.0080376,0,0,-0.60594,0.26297,0,-0.020898,0,0,0.96516,0.02225,0,0.96544,-0.18469,-0.85328,-0.38707,-89.311,-0.47501,0.59385,-0.0066962,0.92,0.04,0
0.041026,0.01032,0.056498,-0.84887,-0.16366,-0.36026,-0.0044523,0,0,-0.6352,0.25558,0,-0.011576,0,0,0.95379,0.019564,0,0.95401,-0.16363,-0.8489,-0.36026,-89.628,-0.45759,0.61116,-0.0077635,0.94,0.04,0
0.028014,0.010149,0.037529,-0.84615,-0.13889,-0.33304,-0.0019823,0,0,-0.66705,0.2524,0,-0.005154,0,0,0.94442,0.014613,0,0.94454,-0.13888,-0.84616,-0.33304,-89.839,-0.43936,0.63294,-0.0090109,0.96,0.04,0
0.014344,0.010075,0.018721,-0.84449,-0.11232,-0.30576,-0.00067757,0,0,-0.70035,0.25148,0,-0.0017617,0,0,0.93823,0.0078213,0,0.93826,-0.11231,-0.84449,-0.30576,-89.947,-0.42086,0.65717,-0.010431,0.98,0.04,0
0,0.010054,0,-0.82049,-0.075465,-0.26879,-0.00039625,0,0,-0.71722,0.25132,0,-0.0010303,0,0,0.93607,2.6021e-17,0,0.93607,-0.075465,-0.82049,-0.26879,-89.969,-0.38825,0.66964,-0.011199,1,0.04,0
0,0.024755,1,-0.8731,-1.3633,-1.6709,0.0055448,0,0,1.0372,0.39991,0,0.014416,0,0,0.82769,-1.0981e-15,0,0.82753,-0.87304,-1.3634,-1.6709,0.64798,-1.3024,0.697,0.0066835,0,0.06,0
0.020743,0.025043,0.98345,-0.85436,-1.3284,-1.6383,0.015393,0,0,1.0191,0.40284,0,0.040021,0,0,0.83546,-0.039233,0,0.83626,-0.85386,-1.3289,-1.6383,1.8579,-1.2737,0.68435,0.0058601,0.02,0.06,0
0.040763,0.026044,0.96658,-0.86104,-1.2967,-1.6139,0.036018,0,0,0.97871,0.41241,0,0.093648,0,0,0.85924,-0.077239,0,0.86272,-0.85808,-1.2996,-1.6139,4.695,-1.2572,0.65763,0.004187,0.04,0.06,0
0.059892,0.028123,0.94908,-0.87645,-1.2551,-1.5886,0.067551,0,0,0.92573,0.43344,0,0.17563,0,0,0.89881,-0.11014,0,0.9058,-0.86477,-1.2668,-1.5886,9.8173,-1.2401,0.62811,0.0024284,0.06,0.06,0
0.077793,0.031886,0.93063,-0.9095,-1.1882,-1.5599,0.1121,0,0,0.84558,0.48325,0,0.29147,0,0,0.95046,-0.12893,0,0.95962,-0.87,-1.2277,-1.5599,19.407,-1.2192,0.59764,0.00070016,0.08,0.06,0
0.093715,0.037729,0.91106,-0.95626,-1.0563,-1.5148,0.15695,0,0,0.72614,0.59607,0,0.40807,0,0,1.0055,-0.12751,0,1.014,-0.84156,-1.171,-1.5148,36.16,-1.1758,0.58312,-0.00037581,0.1,0.06,0
0.10684,0.045095,0.89041,-1.0056,-0.85926,-1.4499,0.1692,0,0,0.57753,0.7678,0,0.43993,0,0,1.0536,-0.10656,0,1.0592,-0.74808,-1.1168,-1.4499,56.694,-1.1049,0.60803,0.0010134,0.12,0.06,0
0.11682,0.052301,0.86891,-1.0539,-0.67934,-1.3889,0.14114,0,0,0.4355,0.92241,0,0.36696,0,0,1.0883,-0.078365,0,1.0911,-0.63211,-1.1011,-1.3889,71.498,-1.0407,0.66162,0.005959,0.14,0.06,0
0.12426,0.05787,0.84688,-1.0885,-0.55907,-1.3412,0.092372,0,0,0.3284,1.0167,0,0.24017,0,0,1.1094,-0.052333,0,1.1106,-0.54342,-1.1042,-1.3412,80.382,-0.99626,0.70958,0.011689,0.16,0.06,0
0.12995,0.061291,0.82454,-1.1055,-0.48967,-1.3031,0.048698,0,0,0.25689,1.0574,0,0.12662,0,0,1.121,-0.033059,0,1.1214,-0.48584,-1.1093,-1.3031,85.506,-0.96607,0.73964,0.016072,0.18,0.06,0
0.13453,0.062709,0.80204,-1.1083,-0.4477,-1.2688,0.015881,0,0,0.20871,1.0675,0,0.041291,0,0,1.1272,-0.01814,0,1.1273,-0.44732,-1.1087,-1.2688,88.624,-0.94161,0.7543,0.018735,0.2,0.06,0
0.1383,0.062458,0.77945,-1.1065,-0.42604,-1.2392,-0.0090727,0,0,0.17249,1.0571,0,-0.023589,0,0,1.1301,-0.0053366,0,1.1301,-0.42592,-1.1067,-1.2392,-89.236,-0.92394,0.7558,0.019894,0.22,0.06,0
0.14143,0.060753,0.75683,-1.1024,-0.42118,-1.2139,-0.031796,0,0,0.14498,1.0305,0,-0.082671,0,0,1.1304,0.007302,0,1.1304,-0.41969,-1.1038,-1.2139,-87.333,-0.91248,0.7453,0.019709,0.24,0.06,0
0.1441,0.057677,0.73424,-1.0941,-0.43316,-1.1924,-0.057381,0,0,0.12778,0.98705,0,-0.14919,0,0,1.1274,0.021669,0,1.1276,-0.42821,-1.0991,-1.1924,-85.075,-0.90657,0.72208,0.018252,0.26,0.06,0
0.14654,0.053212,0.71174,-1.0748,-0.46489,-1.1736,-0.087919,0,0,0.12852,0.92137,0,-0.22859,0,0,1.1192,0.039816,0,1.1199,-0.45247,-1.0872,-1.1736,-81.959,-0.90444,0.68207,0.015418,0.28,0.06,0
0.14924,0.047495,0.68947,-1.0433,-0.53055,-1.1616,-0.11867,0,0,0.15382,0.8204,0,-0.30855,0,0,1.1021,0.063806,0,1.104,-0.50442,-1.0694,-1.1616,-77.581,-0.91183,0.61631,0.011122,0.3,0.06,0
0.1527,0.0411,0.66765,-1.0031,-0.62866,-1.1572,-0.13177,0,0,0.20031,0.68708,0,-0.34261,0,0,1.0726,0.088989,0,1.0764,-0.58694,-1.0448,-1.1572,-72.43,-0.92965,0.52319,0.0062273,0.32,0.06,0
0.15725,0.035136,0.64656,-0.96245,-0.72381,-1.1524,-0.11835,0,0,0.24699,0.55722,0,-0.30772,0,0,1.0314,0.10651,0,1.0372,-0.67507,-1.0112,-1.1524,-67.616,-0.94624,0.42474,0.0025184,0.34,0.06,0
0.16258,0.030594,0.6264,-0.92316,-0.76592,-1.1331,-0.087618,0,0,0.27294,0.47736,0,-0.22781,0,0,0.98523,0.10546,0,0.99116,-0.72682,-0.96226,-1.1331,-65.951,-0.94073,0.35335,0.0006143,0.36,0.06,0
0.16817,0.027558,0.60716,-0.89269,-0.76931,-1.1058,-0.061598,0,0,0.27699,0.43738,0,-0.16015,0,0,0.94379,0.086583,0,0.94789,-0.74382,-0.91818,-1.1058,-67.521,-0.92259,0.31351,-0.00010008,0.38,0.06,0
0.17366,0.0256,0.58864,-0.87293,-0.76397,-1.0797,-0.043369,0,0,0.26882,0.41046,0,-0.11276,0,0,0.91472,0.057089,0,0.91647,-0.74882,-0.88809,-1.0797,-70.739,-0.90554,0.28776,-0.00033033,0.4,0.06,0
0.17892,0.024341,0.57057,-0.85796,-0.75479,-1.0544,-0.02838,0,0,0.25536,0.38949,0,-0.073787,0,0,0.90021,0.026827,0,0.90053,-0.7475,-0.86525,-1.0544,-75.592,-0.88904,0.26816,-0.00038613,0.42,0.06,0
0.18387,0.023652,0.55263,-0.84795,-0.74017,-1.0291,-0.012525,0,0,0.23546,0.37557,0,-0.032564,0,0,0.89846,0.00053221,0,0.89841,-0.73873,-0.84938,-1.0291,-83.458,-0.8724,0.2538,-0.00033412,0.44,0.06,0
0.18834,0.023545,0.53463,-0.84437,-0.71694,-1.003,0.00516,0,0,0.20625,0.3719,0,0.013416,0,0,0.90615,-0.019869,0,0.90636,-0.71673,-0.84458,-1.003,87.685,-0.85478,0.2484,-0.00014472,0.46,0.06,0
0.19212,0.024053,0.51639,-0.84811,-0.68227,-0.9755,0.023408,0,0,0.16561,0.3812,0,0.06086,0,0,0.92003,-0.033663,0,0.92067,-0.67903,-0.85135,-0.9755,82.118,-0.8353,0.25788,0.0002439,0.48,0.06,0
0.19497,0.025148,0.49783,-0.85862,-0.63499,-0.94591,0.039307,0,0,0.11348,0.40419,0,0.1022,0,0,0.93714,-0.040998,0,0.93808,-0.62828,-0.86532,-0.94591,80.316,-0.81317,0.28598,0.00088743,0.5,0.06,0
0.19666,0.026693,0.4789,-0.87404,-0.57753,-0.91437,0.049631,0,0,0.052437,0.4379,0,0.12904,0,0,0.95496,-0.042804,0,0.95596,-0.56944,-0.88212,-0.91437,80.746,-0.78865,0.32999,0.0017863,0.52,0.06,0
0.19706,0.028454,0.45963,-0.89168,-0.51586,-0.88189,0.052511,0,0,-0.012729,0.47584,0,0.13653,0,0,0.9716,-0.040585,0,0.97248,-0.50866,-0.89888,-0.88189,82.194,-0.76314,0.38201,0.0028441,0.54,0.06,0
0.19615,0.030161,0.44004,-0.9087,-0.4567,-0.84966,0.048475,0,0,-0.07675,0.51085,0,0.12603,0,0,0.986,-0.036014,0,0.98668,-0.45156,-0.91383,-0.84966,83.947,-0.73835,0.43377,0.0038841,0.56,0.06,0
0.19399,0.031591,0.42019,-0.92284,-0.40464,-0.81843,0.039821,0,0,-0.13573,0.53793,0,0.10354,0,0,0.99779,-0.030507,0,0.99827,-0.4016,-0.92588,-0.81843,85.631,-0.71531,0.47967,0.0047235,0.58,0.06,0
0.19072,0.032607,0.40013,-0.93305,-0.36142,-0.78847,0.029298,0,0,-0.18796,0.55516,0,0.076175,0,0,1.0071,-0.024998,0,1.0074,-0.35992,-0.93455,-0.78847,87.074,-0.69431,0.51729,0.0052443,0.6,0.06,0
0.18648,0.033163,0.3799,-0.93932,-0.32668,-0.7597,0.018984,0,0,-0.2335,0.56293,0,0.049359,0,0,1.0144,-0.019947,0,1.0146,-0.32609,-0.93991,-0.7597,88.227,-0.67524,0.54647,0.0054121,0.62,0.06,0
0.18138,0.033273,0.35955,-0.94232,-0.29922,-0.73201,0.0099907,0,0,-0.27339,0.56263,0,0.025976,0,0,1.0199,-0.015485,0,1.02,-0.29907,-0.94247,-0.73201,89.11,-0.65785,0.5682,0.0052511,0.64,0.06,0
0.17554,0.032985,0.33911,-0.94283,-0.27771,-0.70527,0.0026319,0,0,-0.30883,0.55583,0,0.0068429,0,0,1.024,-0.011564,0,1.0241,-0.2777,-0.94284,-0.70527,89.773,-0.64194,0.58381,0.0048128,0.66,0.06,0
0.16903,0.032359,0.31859,-0.94154,-0.26099,-0.67935,-0.0032374,0,0,-0.34085,0.54387,0,-0.0084173,0,0,1.027,-0.0080569,0,1.0271,-0.26097,-0.94156,-0.67935,-89.727,-0.62729,0.59455,0.0041552,0.68,0.06,0
0.16191,0.031452,0.29803,-0.93892,-0.24812,-0.65414,-0.0079613,0,0,-0.37022,0.52782,0,-0.020699,0,0,1.029,-0.0048096,0,1.029,-0.24803,-0.93901,-0.65414,-89.34,-0.61373,0.60147,0.0033332,0.7,0.06,0
0.15422,0.030314,0.27743,-0.93524,-0.23837,-0.62951,-0.011923,0,0,-0.39744,0.50848,0,-0.031001,0,0,1.0301,-0.00166,0,1.0301,-0.23817,-0.93544,-0.62951,-89.02,-0.60104,0.60537,0.0023956,0.72,0.06,0
0.14601,0.028987,0.25682,-0.93061,-0.23118,-0.60536,-0.01546,0,0,-0.42282,0.48643,0,-0.040197,0,0,1.0302,0.0015543,0,1.0302,-0.23084,-0.93095,-0.60536,-88.734,-0.58905,0.60681,0.001385,0.74,0.06,0
0.13731,0.027507,0.23622,-0.92502,-0.22612,-0.58156,-0.018809,0,0,-0.44649,0.46207,0,-0.048903,0,0,1.0294,0.0049934,0,1.0294,-0.22562,-0.92553,-0.58156,-88.46,-0.57757,0.60617,0.00033925,0.76,0.06,0
0.12815,0.025906,0.21565,-0.91837,-0.22285,-0.55801,-0.022059,0,0,-0.46846,0.43571,0,-0.057354,0,0,1.0274,0.0088094,0,1.0274,-0.22215,-0.91907,-0.55801,-88.185,-0.56641,0.60368,-0.00070691,0.78,0.06,0
0.11857,0.024219,0.19512,-0.91053,-0.22106,-0.5346,-0.025098,0,0,-0.4887,0.40761,0,-0.065256,0,0,1.0241,0.013128,0,1.0242,-0.22014,-0.91144,-0.5346,-87.918,-0.55539,0.59949,-0.001721,0.8,0.06,0
0.1086,0.02249,0.17468,-0.90143,-0.22036,-0.51122,-0.027552,0,0,-0.50727,0.37811,0,-0.071636,0,0,1.0192,0.018005,0,1.0194,-0.21925,-0.90254,-0.51122,-87.687,-0.54434,0.59383,-0.0026739,0.82,0.06,0
0.098277,0.02078,0.15436,-0.89123,-0.22012,-0.48776,-0.028769,0,0,-0.52451,0.34793,0,-0.0748,0,0,1.0123,0.023341,0,1.0126,-0.21889,-0.89246,-0.48776,-87.55,-0.53304,0.58727,-0.0035446,0.84,0.06,0
0.08762,0.019172,0.13419,-0.88048,-0.21912,-0.46407,-0.027979,0,0,-0.54133,0.31844,0,-0.072745,0,0,1.0032,0.028754,0,1.0036,-0.21794,-0.88166,-0.46407,-87.582,-0.52122,0.58116,-0.0043318,0.86,0.06,0
0.076624,0.017763,0.11423,-0.87006,-0.21535,-0.43985,-0.024664,0,0,-0.55927,0.29186,0,-0.064127,0,0,0.9916,0.033479,0,0.99219,-0.21442,-0.87099,-0.43985,-87.846,-0.50842,0.57783,-0.0050677,0.88,0.06,0
0.065249,0.016643,0.094526,-0.861,-0.20638,-0.41474,-0.019103,0,0,-0.58014,0.27087,0,-0.049667,0,0,0.97799,0.036397,0,0.9787,-0.20582,-0.86156,-0.41474,-88.33,-0.49404,0.58021,-0.0058242,0.9,0.06,0
0.053419,0.01586,0.075111,-0.85404,-0.19049,-0.38847,-0.012525,0,0,-0.60524,0.25737,0,-0.032564,0,0,0.96327,0.036301,0,0.96398,-0.19025,-0.85427,-0.38847,-88.919,-0.47767,0.59042,-0.0066942,0.92,0.06,0
0.04104,0.015398,0.055995,-0.84936,-0.16796,-0.36119,-0.0066635,0,0,-0.63462,0.2512,0,-0.017325,0,0,0.94895,0.032329,0,0.94953,-0.1679,-0.84942,-0.36119,-89.44,-0.4595,0.60836,-0.0077507,0.94,0.06,0
0.028034,0.015179,0.037153,-0.84661,-0.14117,-0.33349,-0.0027351,0,0,-0.66706,0.25001,0,-0.0071114,0,0,0.93689,0.024346,0,0.93721,-0.14116,-0.84662,-0.33349,-89.778,-0.44042,0.63165,-0.0090131,0.96,0.06,0
0.014357,0.015099,0.01852,-0.84508,-0.11307,-0.30596,-0.00083527,0,0,-0.70085,0.25076,0,-0.0021717,0,0,0.92882,0.013088,0,0.9289,-0.11307,-0.84508,-0.30596,-89.935,-0.42137,0.65715,-0.010453,0.98,0.06,0
0,0.01508,0,-0.82142,-0.075984,-0.26922,-0.00036654,0,0,-0.71786,0.25121,0,-0.000953,0,0,0.92598,-7.8063e-18,0,0.92597,-0.075984,-0.82142,-0.26922,-89.972,-0.38888,0.67005,-0.011228,1,0.06,0
0,0.032623,1,-0.86816,-1.3812,-1.6748,0.0065111,0,0,1.0486,0.3817,0,0.016929,0,0,0.78095,4.2674e-16,0,0.78063,-0.86808,-1.3813,-1.6748,0.72701,-1.308,0.70722,0.0081919,0,0.08,0
0.020973,0.032962,0.98438,-0.85248,-1.3495,-1.645,0.022049,0,0,1.0302,0.38412,0,0.057328,0,0,0.78894,-0.054137,0,0.79051,-0.8515,-1.3505,-1.645,2.5352,-1.2823,0.69473,0.007383,0.02,0.08,0
0.04121,0.034104,0.96844,-0.8616,-1.3226,-1.6237,0.048877,0,0,0.99073,0.39143,0,0.12708,0,0,0.81517,-0.10962,0,0.82234,-0.85648,-1.3277,-1.6237,5.9861,-1.2693,0.67019,0.0059268,0.04,0.08,0
0.060602,0.036479,0.95177,-0.87808,-1.2952,-1.6038,0.08739,0,0,0.94338,0.40113,0,0.22722,0,0,0.86579,-0.1656,0,0.88176,-0.86051,-1.3128,-1.6038,11.367,-1.259,0.6487,0.0051204,0.06,0.08,0
0.078945,0.041057,0.93381,-0.91221,-1.2548,-1.5839,0.15086,0,0,0.87321,0.42785,0,0.39224,0,0,0.93946,-0.20895,0,0.96359,-0.85525,-1.3118,-1.5839,20.686,-1.2503,0.63774,0.0056154,0.08,0.08,0
0.09553,0.0493,0.9142,-0.98039,-1.1332,-1.5483,0.22406,0,0,0.73824,0.53962,0,0.58256,0,0,1.0211,-0.20012,0,1.0413,-0.82005,-1.2935,-1.5483,35.587,-1.2206,0.64006,0.0066339,0.1,0.08,0
0.10848,0.060667,0.89297,-1.0153,-0.81353,-1.4416,0.24344,0,0,0.5542,0.81652,0,0.63294,0,0,1.0865,-0.15581,0,1.0977,-0.6509,-1.1779,-1.4416,56.255,-1.0901,0.69732,0.0093964,0.12,0.08,0
0.1177,0.071311,0.87074,-1.0634,-0.59393,-1.3679,0.17184,0,0,0.39592,1.0062,0,0.44677,0,0,1.1229,-0.095215,0,1.1267,-0.53775,-1.1196,-1.3679,71.897,-1.0084,0.73803,0.013039,0.14,0.08,0
0.12431,0.078717,0.84805,-1.0945,-0.50941,-1.3292,0.098509,0,0,0.30517,1.0657,0,0.25612,0,0,1.1365,-0.060601,0,1.1381,-0.49327,-1.1106,-1.3292,80.695,-0.9777,0.7509,0.015693,0.16,0.08,0
0.1299,0.082731,0.82527,-1.0871,-0.45598,-1.2882,0.046768,0,0,0.26144,1.0819,0,0.1216,0,0,1.1402,-0.037863,0,1.1408,-0.45253,-1.0905,-1.2882,85.785,-0.94375,0.75645,0.017219,0.18,0.08,0
0.13477,0.084216,0.80244,-1.0797,-0.42441,-1.2537,0.014317,0,0,0.22617,1.078,0,0.037223,0,0,1.1425,-0.021087,0,1.1426,-0.4241,-1.08,-1.2537,88.749,-0.91926,0.75782,0.018456,0.2,0.08,0
0.13895,0.083705,0.77958,-1.0771,-0.40701,-1.2248,-0.0089465,0,0,0.19201,1.0632,0,-0.023261,0,0,1.1441,-0.0068603,0,1.1441,-0.40689,-1.0772,-1.2248,-89.235,-0.90298,0.75503,0.01929,0.22,0.08,0
0.14245,0.081494,0.75668,-1.0796,-0.40117,-1.2009,-0.030391,0,0,0.15775,1.0396,0,-0.079018,0,0,1.1453,0.0072282,0,1.1453,-0.39981,-1.0809,-1.2009,-87.44,-0.89387,0.74834,0.019671,0.24,0.08,0
0.14526,0.077636,0.73376,-1.0851,-0.4071,-1.1814,-0.056644,0,0,0.12518,1.0066,0,-0.14727,0,0,1.1458,0.023523,0,1.146,-0.4024,-1.0898,-1.1814,-85.257,-0.89123,0.73752,0.019536,0.26,0.08,0
0.14746,0.071998,0.71085,-1.0884,-0.42889,-1.166,-0.095037,0,0,0.10092,0.95829,0,-0.2471,0,0,1.1446,0.045188,0,1.1454,-0.41546,-1.1018,-1.166,-81.962,-0.89444,0.72062,0.018705,0.28,0.08,0
0.1493,0.064245,0.68798,-1.06,-0.4715,-1.1474,-0.14538,0,0,0.11362,0.87873,0,-0.37799,0,0,1.1336,0.07755,0,1.1361,-0.43755,-1.094,-1.1474,-76.854,-0.89299,0.68474,0.016151,0.3,0.08,0
0.152,0.054906,0.6655,-1.0225,-0.60727,-1.1544,-0.18981,0,0,0.17148,0.71133,0,-0.49352,0,0,1.1013,0.13313,0,1.1095,-0.53358,-1.0962,-1.1544,-68.784,-0.92808,0.59389,0.010411,0.32,0.08,0
0.15616,0.045986,0.64393,-0.98986,-0.78192,-1.1755,-0.16833,0,0,0.24128,0.5116,0,-0.43765,0,0,1.043,0.1707,0,1.0575,-0.68804,-1.0837,-1.1755,-60.851,-0.98241,0.44865,0.0039924,0.34,0.08,0
0.16165,0.039818,0.62378,-0.92989,-0.80136,-1.1432,-0.12184,0,0,0.27725,0.44434,0,-0.31678,0,0,0.97215,0.17371,0,0.98838,-0.72788,-1.0034,-1.1432,-58.905,-0.95814,0.36599,0.0013362,0.36,0.08,0
0.16725,0.036119,0.60504,-0.89719,-0.79067,-1.1114,-0.086726,0,0,0.27847,0.41695,0,-0.22549,0,0,0.91224,0.1287,0,0.92131,-0.74215,-0.9457,-1.1114,-60.778,-0.93308,0.32033,0.00029789,0.38,0.08,0
0.17279,0.033664,0.58729,-0.8717,-0.78163,-1.0833,-0.064378,0,0,0.27507,0.39217,0,-0.16738,0,0,0.87678,0.07621,0,0.87988,-0.7481,-0.90523,-1.0833,-62.488,-0.91221,0.29048,-0.00013577,0.4,0.08,0
0.17825,0.031972,0.56997,-0.85106,-0.77387,-1.0575,-0.043502,0,0,0.26831,0.36865,0,-0.11311,0,0,0.86552,0.029706,0,0.86585,-0.75431,-0.87062,-1.0575,-65.789,-0.89412,0.26488,-0.00037218,0.42,0.08,0
0.18352,0.030977,0.55267,-0.83715,-0.76161,-1.0323,-0.020346,0,0,0.2537,0.3519,0,-0.052899,0,0,0.87045,-0.0082713,0,0.8704,-0.75648,-0.84228,-1.0323,-75.845,-0.87702,0.24449,-0.00045086,0.44,0.08,0
0.1884,0.030777,0.53515,-0.83251,-0.7409,-1.0072,0.0058702,0,0,0.22706,0.34615,0,0.015263,0,0,0.88599,-0.0367,0,0.88676,-0.74053,-0.83288,-1.0072,86.348,-0.8602,0.23453,-0.00033307,0.46,0.08,0
0.19261,0.031479,0.51723,-0.83754,-0.70618,-0.98035,0.033277,0,0,0.18565,0.35642,0,0.086521,0,0,0.90791,-0.054968,0,0.90964,-0.69823,-0.84549,-0.98035,76.566,-0.84136,0.2444,5.703e-05,0.48,0.08,0
0.19582,0.033083,0.49883,-0.85108,-0.65336,-0.95017,0.057309,0,0,0.12882,0.38584,0,0.149,0,0,0.93234,-0.06332,0,0.93457,-0.63795,-0.86649,-0.95017,74.949,-0.8182,0.27992,0.00079633,0.5,0.08,0
0.19776,0.035386,0.47994,-0.8703,-0.58523,-0.9166,0.072098,0,0,0.060186,0.43078,0,0.18746,0,0,0.9559,-0.063328,0,0.95806,-0.56804,-0.8875,-0.9166,76.584,-0.79071,0.33497,0.0018812,0.52,0.08,0
0.19823,0.037994,0.4606,-0.89148,-0.51229,-0.88173,0.074608,0,0,-0.01268,0.48027,0,0.19398,0,0,0.97626,-0.057714,0,0.978,-0.49814,-0.90564,-0.88173,79.26,-0.76184,0.39609,0.0031523,0.54,0.08,0
0.19725,0.040465,0.44089,-0.9107,-0.44562,-0.84779,0.066444,0,0,-0.081791,0.52282,0,0.17275,0,0,0.99242,-0.049402,0,0.99367,-0.43631,-0.92001,-0.84779,82.027,-0.7347,0.45193,0.0043355,0.56,0.08,0
0.19496,0.042464,0.4209,-0.92524,-0.39089,-0.81574,0.052386,0,0,-0.14235,0.55231,0,0.1362,0,0,1.0046,-0.040641,0,1.0054,-0.3858,-0.93033,-0.81574,84.453,-0.71063,0.49724,0.0052014,0.58,0.08,0
0.19156,0.043824,0.40071,-0.93434,-0.34827,-0.78549,0.036988,0,0,-0.19351,0.56839,0,0.09617,0,0,1.0134,-0.032614,0,1.014,-0.34594,-0.93667,-0.78549,86.403,-0.68937,0.53152,0.0056604,0.6,0.08,0
0.18722,0.044517,0.38036,-0.93894,-0.31559,-0.75672,0.023076,0,0,-0.23688,0.57347,0,0.059999,0,0,1.0199,-0.025695,0,1.0203,-0.31474,-0.93979,-0.75672,87.883,-0.67042,0.55658,0.0057335,0.62,0.08,0
0.18208,0.044598,0.35991,-0.94043,-0.2904,-0.72916,0.011659,0,0,-0.27465,0.57039,0,0.030314,0,0,1.0248,-0.01982,0,1.0249,-0.29019,-0.94064,-0.72916,88.973,-0.65333,0.57467,0.0054855,0.64,0.08,0
0.17623,0.044155,0.33937,-0.94005,-0.27086,-0.70265,0.0027137,0,0,-0.30862,0.56132,0,0.0070555,0,0,1.0283,-0.014783,0,1.0284,-0.27085,-0.94006,-0.70265,89.768,-0.63785,0.58765,0.0049828,0.66,0.08,0
0.16974,0.043275,0.31878,-0.93857,-0.25562,-0.67704,-0.0042288,0,0,-0.33999,0.54783,0,-0.010995,0,0,1.0309,-0.010343,0,1.031,-0.2556,-0.93859,-0.67704,-89.645,-0.62374,0.59687,0.004283,0.68,0.08,0
0.16264,0.042039,0.29814,-0.93638,-0.24374,-0.65217,-0.0097501,0,0,-0.36947,0.53096,0,-0.02535,0,0,1.0327,-0.0062622,0,1.0327,-0.2436,-0.93652,-0.65217,-89.194,-0.61076,0.60329,0.003434,0.7,0.08,0
0.15496,0.040512,0.27747,-0.93365,-0.23453,-0.62792,-0.014403,0,0,-0.39744,0.51141,0,-0.037448,0,0,1.0337,-0.0023129,0,1.0337,-0.23424,-0.93395,-0.62792,-88.82,-0.5987,0.60755,0.0024757,0.72,0.08,0
0.14674,0.038746,0.25679,-0.93038,-0.22753,-0.60416,-0.01865,0,0,-0.42408,0.48962,0,-0.048489,0,0,1.034,0.0017264,0,1.034,-0.22704,-0.93087,-0.60416,-88.481,-0.58736,0.61006,0.0014422,0.74,0.08,0
0.138,0.036782,0.23611,-0.92643,-0.22242,-0.58077,-0.022832,0,0,-0.44937,0.46584,0,-0.059365,0,0,1.0335,0.0060793,0,1.0336,-0.22168,-0.92717,-0.58077,-88.144,-0.57654,0.611,0.00036446,0.76,0.08,0
0.12876,0.034658,0.21545,-0.92157,-0.21902,-0.55763,-0.027136,0,0,-0.47313,0.44018,0,-0.070554,0,0,1.0321,0.010975,0,1.0322,-0.21798,-0.92262,-0.55763,-87.791,-0.56607,0.61037,-0.00072703,0.78,0.08,0
0.11907,0.032411,0.19482,-0.91543,-0.21725,-0.53463,-0.031522,0,0,-0.49505,0.4126,0,-0.081958,0,0,1.0295,0.016645,0,1.0296,-0.21582,-0.91685,-0.53463,-87.42,-0.55577,0.60794,-0.0017993,0.8,0.08,0
0.10896,0.030088,0.17427,-0.90759,-0.21705,-0.51166,-0.035606,0,0,-0.51471,0.38299,0,-0.092575,0,0,1.0253,0.023286,0,1.0255,-0.21522,-0.90942,-0.51166,-87.056,-0.54543,0.60333,-0.0028147,0.82,0.08,0
0.098481,0.02776,0.15381,-0.89785,-0.21832,-0.48866,-0.038512,0,0,-0.53194,0.35145,0,-0.10013,0,0,1.0189,0.030959,0,1.0193,-0.21614,-0.90002,-0.48866,-86.767,-0.53494,0.59631,-0.0037348,0.84,0.08,0
0.087682,0.025535,0.13351,-0.8865,-0.2202,-0.46552,-0.038852,0,0,-0.54727,0.31892,0,-0.10101,0,0,1.0095,0.039341,0,1.0103,-0.21794,-0.88876,-0.46552,-86.674,-0.52407,0.58754,-0.0045324,0.86,0.08,0
0.076591,0.023562,0.11343,-0.8747,-0.22039,-0.44196,-0.035333,0,0,-0.56256,0.28804,0,-0.091866,0,0,0.99657,0.047398,0,0.99772,-0.21849,-0.8766,-0.44196,-86.918,-0.51235,0.57964,-0.0052242,0.88,0.08,0
0.06518,0.021996,0.093649,-0.86393,-0.21476,-0.41726,-0.027745,0,0,-0.58068,0.26325,0,-0.072137,0,0,0.98008,0.053228,0,0.98156,-0.21357,-0.86512,-0.41726,-87.557,-0.49865,0.57731,-0.0058958,0.9,0.08,0
0.053363,0.020938,0.074229,-0.85544,-0.19951,-0.39071,-0.018007,0,0,-0.60414,0.24857,0,-0.046818,0,0,0.9611,0.054513,0,0.96269,-0.19901,-0.85593,-0.39071,-88.429,-0.48189,0.58512,-0.0066888,0.92,0.08,0
0.041014,0.020368,0.055205,-0.84971,-0.1746,-0.3625,-0.0091688,0,0,-0.63337,0.24427,0,-0.023839,0,0,0.94183,0.049433,0,0.94318,-0.17447,-0.84983,-0.3625,-89.222,-0.46227,0.60372,-0.0077159,0.94,0.08,0
0.028029,0.020149,0.036555,-0.84648,-0.14441,-0.33382,-0.0035079,0,0,-0.66645,0.24624,0,-0.0091205,0,0,0.92518,0.037611,0,0.92595,-0.14439,-0.84649,-0.33382,-89.714,-0.44157,0.62915,-0.00899,0.96,0.08,0
0.014356,0.020105,0.018198,-0.84489,-0.11405,-0.30588,-0.00098423,0,0,-0.70071,0.24938,0,-0.002559,0,0,0.91389,0.020308,0,0.91409,-0.11405,-0.84489,-0.30588,-89.923,-0.42161,0.6563,-0.010446,0.98,0.08,0
0,0.020103,0,-0.82167,-0.076691,-0.26951,-5.0374e-05,0,0,-0.71781,0.25066,0,-0.00013097,0,0,0.9099,-1.5612e-17,0,0.90986,-0.076691,-0.82167,-0.26951,-89.996,-0.38929,0.66972,-0.011225,1,0.08,0
0,0.040023,1,-0.84766,-1.4081,-1.6767,0.0074105,0,0,1.0778,0.34923,0,0.019267,0,0,0.71942,1.4641e-15,0,0.71889,-0.84756,-1.4082,-1.6767,0.75744,-1.3108,0.73278,0.011443,0,0.1,0
0.021556,0.040408,0.98561,-0.83665,-1.3802,-1.6507,0.032996,0,0,1.0582,0.35156,0,0.085789,0,0,0.72583,-0.067242,0,0.7284,-0.83465,-1.3822,-1.6507,3.4608,-1.2892,0.72035,0.010601,0.02,0.1,0
0.04233,0.041701,0.97097,-0.85894,-1.3619,-1.6372,0.070124,0,0,1.0118,0.35789,0,0.18232,0,0,0.74778,-0.13976,0,0.76017,-0.84934,-1.3715,-1.6372,7.79,-1.286,0.69427,0.0090908,0.04,0.1,0
0.062027,0.044169,0.9557,-0.88786,-1.3431,-1.625,0.11946,0,0,0.95827,0.36645,0,0.3106,0,0,0.79949,-0.22363,0,0.82969,-0.85842,-1.3725,-1.625,13.846,-1.2853,0.67664,0.0087703,0.06,0.1,0
0.08066,0.049,0.93899,-0.95072,-1.3564,-1.6311,0.2029,0,0,0.88452,0.35715,0,0.52755,0,0,0.91594,-0.32651,0,0.97389,-0.86665,-1.4405,-1.6311,22.505,-1.3127,0.68921,0.012576,0.08,0.1,0
0.097408,0.059313,0.91906,-1.0484,-1.2729,-1.6155,0.33698,0,0,0.73711,0.44539,0,0.87616,0,0,1.0586,-0.38916,0,1.133,-0.80547,-1.5158,-1.6155,35.792,-1.3122,0.76504,0.021688,0.1,0.1,0
0.11015,0.077755,0.89664,-1.0096,-0.59966,-1.3794,0.27807,0,0,0.48072,1.0137,0,0.72299,0,0,1.1585,-0.15749,0,1.1665,-0.45918,-1.1501,-1.3794,63.199,-0.99625,0.82971,0.021956,0.12,0.1,0
0.11664,0.092549,0.87272,-1.1205,-0.5348,-1.3693,0.16141,0,0,0.32347,1.0849,0,0.41966,0,0,1.1835,-0.092042,0,1.1869,-0.49326,-1.162,-1.3693,75.569,-1.0082,0.79299,0.019833,0.14,0.1,0
0.12308,0.1005,0.8493,-1.0639,-0.46424,-1.3077,0.077901,0,0,0.31701,1.0965,0,0.20254,0,0,1.1667,-0.058511,0,1.1681,-0.45429,-1.0738,-1.3077,82.718,-0.94529,0.76385,0.015862,0.16,0.1,0
0.12932,0.10457,0.82605,-1.0342,-0.42655,-1.2643,0.037616,0,0,0.29912,1.089,0,0.097802,0,0,1.1605,-0.037419,0,1.1611,-0.42423,-1.0365,-1.2643,86.471,-0.90834,0.75247,0.015312,0.18,0.1,0
0.13505,0.10583,0.80288,-1.024,-0.40371,-1.2312,0.013196,0,0,0.26939,1.0757,0,0.034311,0,0,1.1582,-0.02175,0,1.1584,-0.40343,-1.0242,-1.2312,88.782,-0.88628,0.74613,0.01593,0.2,0.1,0
0.14009,0.10498,0.77973,-1.0257,-0.38989,-1.2044,-0.004105,0,0,0.23235,1.0589,0,-0.010673,0,0,1.1584,-0.0082652,0,1.1585,-0.38986,-1.0257,-1.2044,-89.63,-0.87331,0.74151,0.01691,0.22,0.1,0
0.14434,0.10234,0.75655,-1.0358,-0.38294,-1.1822,-0.020473,0,0,0.19029,1.039,0,-0.053231,0,0,1.1607,0.0051664,0,1.1607,-0.3823,-1.0364,-1.1822,-88.206,-0.86696,0.73786,0.01795,0.24,0.1,0
0.14771,0.097942,0.7333,-1.0551,-0.38343,-1.1648,-0.041452,0,0,0.14272,1.0158,0,-0.10778,0,0,1.1654,0.020628,0,1.1655,-0.38088,-1.0576,-1.1648,-86.482,-0.86778,0.73622,0.019037,0.26,0.1,0
0.15005,0.091543,0.70993,-1.0869,-0.39463,-1.1544,-0.073818,0,0,0.087717,0.98769,0,-0.19193,0,0,1.1732,0.041183,0,1.1739,-0.38685,-1.0947,-1.1544,-83.981,-0.87865,0.73951,0.020315,0.28,0.1,0
0.15121,0.082644,0.68637,-1.1318,-0.42755,-1.1542,-0.13675,0,0,0.029113,0.9446,0,-0.35554,0,0,1.1901,0.073332,0,1.1922,-0.40193,-1.1574,-1.1542,-79.388,-0.90449,0.75385,0.022002,0.3,0.1,0
0.15122,0.069553,0.66233,-1.0393,-0.44923,-1.1089,-0.21828,0,0,0.090512,0.85753,0,-0.56753,0,0,1.1658,0.13496,0,1.1712,-0.37725,-1.1112,-1.1089,-71.751,-0.86578,0.73279,0.02021,0.32,0.1,0
0.15483,0.0556,0.63974,-1.058,-0.88466,-1.2225,-0.26831,0,0,0.21391,0.43923,0,-0.69761,0,0,1.072,0.34915,0,1.1323,-0.68937,-1.2533,-1.2225,-53.95,-1.0551,0.54919,0.0084173,0.34,0.1,0
0.15977,0.048367,0.61945,-0.96659,-0.86183,-1.168,-0.17579,0,0,0.26179,0.39799,0,-0.45706,0,0,0.94323,0.2737,0,0.98279,-0.73078,-1.0976,-1.168,-53.296,-0.9988,0.40662,0.0031075,0.36,0.1,0
0.16531,0.044236,0.60201,-0.90101,-0.82236,-1.119,-0.12623,0,0,0.28341,0.38566,0,-0.32819,0,0,0.84629,0.16889,0,0.86224,-0.72948,-0.9939,-1.119,-53.652,-0.94746,0.34447,0.001204,0.38,0.1,0
0.17111,0.041287,0.58559,-0.86062,-0.81133,-1.0872,-0.092197,0,0,0.29453,0.35861,0,-0.23971,0,0,0.81572,0.087967,0,0.81991,-0.74054,-0.93141,-1.0872,-52.483,-0.91971,0.30071,0.0002434,0.4,0.1,0
0.17709,0.039087,0.56938,-0.83149,-0.80131,-1.0592,-0.060948,0,0,0.29604,0.33528,0,-0.15846,0,0,0.81573,0.02392,0,0.81575,-0.75361,-0.87919,-1.0592,-51.955,-0.89734,0.26606,-0.0002928,0.42,0.1,0
0.18295,0.037728,0.55297,-0.81671,-0.79085,-1.0352,-0.028212,0,0,0.28408,0.3177,0,-0.073352,0,0,0.83206,-0.026625,0,0.83237,-0.77275,-0.83482,-1.0352,-57.314,-0.88093,0.23761,-0.00053377,0.44,0.1,0
0.18845,0.037391,0.53609,-0.81405,-0.77428,-1.0126,0.0076954,0,0,0.25811,0.3098,0,0.020008,0,0,0.85945,-0.063962,0,0.8619,-0.77285,-0.81548,-1.0126,79.42,-0.86697,0.22153,-0.00048937,0.46,0.1,0
0.19328,0.03831,0.51859,-0.82314,-0.74136,-0.98794,0.046483,0,0,0.21424,0.32055,0,0.12086,0,0,0.89341,-0.086778,0,0.89779,-0.72035,-0.84416,-0.98794,65.669,-0.85081,0.23196,-8.2533e-05,0.48,0.1,0
0.19702,0.040582,0.50036,-0.8425,-0.68083,-0.95736,0.081183,0,0,0.14932,0.35948,0,0.21108,0,0,0.92878,-0.094456,0,0.93375,-0.6471,-0.87623,-0.95736,67.438,-0.8269,0.27869,0.00080232,0.5,0.1,0
0.19925,0.043925,0.48144,-0.86737,-0.59375,-0.91977,0.10116,0,0,0.068122,0.42383,0,0.26302,0,0,0.96056,-0.089565,0,0.96483,-0.56041,-0.90071,-0.91977,71.76,-0.79363,0.35022,0.0021842,0.52,0.1,0
0.19974,0.047665,0.46194,-0.89325,-0.50235,-0.88062,0.10043,0,0,-0.016426,0.49175,0,0.26112,0,0,0.98553,-0.077184,0,0.98858,-0.47806,-0.91755,-0.88062,76.402,-0.75874,0.42224,0.0037667,0.54,0.1,0
0.19859,0.051074,0.44201,-0.91485,-0.42662,-0.84445,0.084478,0,0,-0.091516,0.54319,0,0.21964,0,0,1.0031,-0.062826,0,1.005,-0.41241,-0.92906,-0.84445,80.456,-0.72864,0.47997,0.0050893,0.56,0.1,0
0.19608,0.053683,0.42181,-0.92847,-0.37101,-0.81166,0.062537,0,0,-0.15186,0.57285,0,0.1626,0,0,1.0146,-0.049747,0,1.0158,-0.36408,-0.9354,-0.81166,83.677,-0.70371,0.5206,0.0058896,0.58,0.1,0
0.19252,0.055343,0.40143,-0.93485,-0.3315,-0.78134,0.041837,0,0,-0.19956,0.58478,0,0.10878,0,0,1.0221,-0.039016,0,1.0228,-0.32862,-0.93774,-0.78134,86.052,-0.68256,0.54792,0.0061855,0.6,0.1,0
0.1881,0.056102,0.38093,-0.93643,-0.30239,-0.75258,0.024969,0,0,-0.23901,0.58524,0,0.064919,0,0,1.0272,-0.030364,0,1.0276,-0.30141,-0.93741,-0.75258,87.748,-0.6638,0.56666,0.0061035,0.62,0.1,0
0.18296,0.056088,0.36035,-0.93592,-0.28036,-0.72523,0.012102,0,0,-0.2739,0.57833,0,0.031466,0,0,1.0308,-0.023312,0,1.0311,-0.28014,-0.93615,-0.72523,88.943,-0.64717,0.58006,0.0057404,0.64,0.1,0
0.17714,0.055438,0.3397,-0.9347,-0.26327,-0.69909,0.0024836,0,0,-0.30629,0.56657,0,0.0064573,0,0,1.0335,-0.017409,0,1.0336,-0.26326,-0.93471,-0.69909,89.788,-0.63235,0.59004,0.0051639,0.66,0.1,0
0.1707,0.054272,0.31901,-0.93334,-0.24975,-0.67393,-0.0047817,0,0,-0.33723,0.55144,0,-0.012433,0,0,1.0356,-0.012275,0,1.0356,-0.24972,-0.93337,-0.67393,-89.599,-0.61901,0.59777,0.0044212,0.68,0.1,0
0.16365,0.05269,0.29828,-0.93204,-0.23893,-0.64957,-0.010513,0,0,-0.36721,0.53383,0,-0.027333,0,0,1.0371,-0.0075853,0,1.0371,-0.23877,-0.9322,-0.64957,-89.131,-0.60685,0.60394,0.0035473,0.7,0.1,0
0.15601,0.05077,0.27752,-0.93078,-0.23025,-0.62583,-0.015394,0,0,-0.39643,0.51426,0,-0.040024,0,0,1.0381,-0.0030552,0,1.0381,-0.22991,-0.93112,-0.62583,-88.742,-0.59562,0.60895,0.0025702,0.72,0.1,0
0.1478,0.048572,0.25675,-0.92944,-0.22333,-0.60258,-0.019979,0,0,-0.42491,0.49303,0,-0.051946,0,0,1.0386,0.0015881,0,1.0386,-0.22277,-0.93,-0.60258,-88.38,-0.58512,0.61304,0.0015135,0.74,0.1,0
0.13902,0.046141,0.23598,-0.92781,-0.21799,-0.57972,-0.024701,0,0,-0.45252,0.47025,0,-0.064223,0,0,1.0386,0.0066244,0,1.0387,-0.21713,-0.92866,-0.57972,-88.009,-0.57517,0.61624,0.00039894,0.76,0.1,0
0.1297,0.043513,0.21521,-0.92556,-0.21416,-0.55713,-0.029867,0,0,-0.47897,0.44585,0,-0.077653,0,0,1.038,0.012363,0,1.038,-0.21291,-0.92681,-0.55713,-87.6,-0.56562,0.61839,-0.00075004,0.78,0.1,0
0.11986,0.040723,0.19446,-0.92218,-0.21196,-0.5347,-0.035607,0,0,-0.50372,0.41956,0,-0.092578,0,0,1.0364,0.019162,0,1.0366,-0.21018,-0.92396,-0.5347,-87.137,-0.55628,0.619,-0.0019039,0.8,0.1,0
0.10955,0.037809,0.17375,-0.91685,-0.21168,-0.51231,-0.041746,0,0,-0.5259,0.39082,0,-0.10854,0,0,1.0335,0.027435,0,1.0339,-0.20921,-0.91931,-0.51231,-86.624,-0.54694,0.61715,-0.0030201,0.82,0.1,0
0.098824,0.034838,0.15312,-0.90848,-0.21376,-0.48979,-0.047442,0,0,-0.5443,0.35884,0,-0.12335,0,0,1.0284,0.03761,0,1.0291,-0.21053,-0.91171,-0.48979,-86.111,-0.53734,0.61141,-0.0040339,0.84,0.1,0
0.087777,0.031929,0.13262,-0.89691,-0.21895,-0.46738,-0.050787,0,0,-0.5584,0.32295,0,-0.13205,0,0,1.0196,0.049903,0,1.0208,-0.21517,-0.9007,-0.46738,-85.74,-0.52775,0.60055,-0.0048797,0.86,0.1,0
0.076489,0.029284,0.11234,-0.88308,-0.22526,-0.44483,-0.048687,0,0,-0.56971,0.28545,0,-0.12659,0,0,1.0055,0.063286,0,1.0075,-0.22168,-0.88666,-0.44483,-85.79,-0.51772,0.58618,-0.0055198,0.88,0.1,0
0.064988,0.027172,0.092397,-0.86954,-0.22645,-0.42119,-0.039636,0,0,-0.58285,0.25316,0,-0.10305,0,0,0.98511,0.074797,0,0.98801,-0.22402,-0.87197,-0.42119,-86.486,-0.50573,0.57529,-0.0060473,0.9,0.1,0
0.053175,0.025803,0.07293,-0.85807,-0.21329,-0.39434,-0.025641,0,0,-0.60285,0.23536,0,-0.066667,0,0,0.95947,0.079652,0,0.96289,-0.21227,-0.85909,-0.39434,-87.726,-0.48857,0.57771,-0.0066883,0.92,0.1,0
0.040874,0.025169,0.054018,-0.84953,-0.18401,-0.36408,-0.012909,0,0,-0.63109,0.23409,0,-0.033564,0,0,0.93205,0.073964,0,0.93508,-0.18376,-0.84978,-0.36408,-88.889,-0.46587,0.59666,-0.0076441,0.94,0.1,0
0.027931,0.025028,0.035648,-0.84462,-0.14857,-0.3336,-0.0051204,0,0,-0.66432,0.24055,0,-0.013313,0,0,0.90776,0.05675,0,0.90956,-0.14853,-0.84466,-0.3336,-89.579,-0.44227,0.62451,-0.008905,0.96,0.1,0
0.014301,0.025075,0.017707,-0.84216,-0.11556,-0.30502,-0.0018043,0,0,-0.69828,0.2463,0,-0.0046911,0,0,0.89121,0.03067,0,0.89168,-0.11555,-0.84217,-0.30502,-89.858,-0.42091,0.65284,-0.010336,0.98,0.1,0
0,0.025107,0,-0.81944,-0.078506,-0.26938,0.00062046,0,0,-0.71508,0.24814,0,0.0016132,0,0,0.88536,6.9389e-18,0,0.88527,-0.078506,-0.81944,-0.26938,89.952,-0.38911,0.66633,-0.011096,1,0.1,0
0,0.046592,1,-0.79892,-1.4444,-1.673,0.0083055,0,0,1.1363,0.29717,0,0.021594,0,0,0.64646,8.0144e-16,0,0.64573,-0.79882,-1.4445,-1.673,0.73707,-1.3054,0.78528,0.017956,0,0.12,0
0.022726,0.047024,0.98707,-0.79014,-1.4215,-1.6506,0.045926,0,0,1.1185,0.29778,0,0.11941,0,0,0.64918,-0.075404,0,0.65275,-0.78682,-1.4248,-1.6506,4.1387,-1.2874,0.77591,0.017323,0.02,0.12,0
0.044742,0.04842,0.97403,-0.81563,-1.4129,-1.6426,0.10004,0,0,1.075,0.29863,0,0.26011,0,0,0.65878,-0.15902,0,0.67664,-0.79932,-1.4292,-1.6426,9.2611,-1.2904,0.75939,0.016647,0.04,0.12,0
0.065727,0.051137,0.96072,-0.88098,-1.4276,-1.6533,0.16748,0,0,1.004,0.29342,0,0.43546,0,0,0.67904,-0.26341,0,0.72653,-0.83375,-1.4748,-1.6533,15.751,-1.3206,0.74648,0.017317,0.06,0.12,0
0.084902,0.055343,0.94687,-0.99965,-1.49,-1.6938,0.31089,0,0,0.90235,0.26491,0,0.80832,0,0,0.77393,-0.41618,0,0.87218,-0.84889,-1.6407,-1.6938,25.87,-1.3945,0.81965,0.027884,0.08,0.12,0
0.10182,0.067116,0.92976,-0.87753,-1.096,-1.115,0.36645,0,0,0.35989,-0.17616,0,2.2567,0,0,0.63457,-0.39722,0,0.75769,-0.60393,-1.3696,-1.115,37.783,-1.0295,0.68043,0.023631,0.1,0.12,0
0.10416,0.10121,0.89927,-0.76622,-0.45939,-0.87352,0.22634,0,0,0.24798,0.20142,0,1.5915,0,0,0.77829,-0.11151,0,0.7906,-0.30559,-0.92002,-0.87352,50.536,-0.69971,0.61271,0.026528,0.12,0.12,0
0.11174,0.11471,0.87442,-0.62866,-0.41283,-0.80431,0.089623,0,0,0.40594,0.19388,0,0.85164,0,0,0.68729,-0.074164,0,0.69493,-0.3313,-0.7102,-0.80431,52.267,-0.61527,0.46125,0.0063784,0.14,0.12,0
0.1204,0.12258,0.85039,-0.58613,-0.37698,-0.76728,0.052692,0,0,0.41865,0.19525,0,0.5525,0,0,0.67003,-0.050099,0,0.67399,-0.3109,-0.65221,-0.76728,51.806,-0.57679,0.43679,0.0047123,0.16,0.12,0
0.12849,0.12629,0.82677,-0.58387,-0.36484,-0.74967,0.029018,0,0,0.38319,0.20009,0,0.34067,0,0,0.66206,-0.033891,0,0.66399,-0.30882,-0.63989,-0.74967,50.863,-0.56613,0.41958,0.0050145,0.18,0.12,0
0.13572,0.12724,0.80331,-0.58845,-0.35473,-0.73482,0.013545,0,0,0.33827,0.20548,0,0.18397,0,0,0.65904,-0.020945,0,0.6598,-0.30529,-0.63789,-0.73482,49.157,-0.55933,0.4093,0.0058581,0.2,0.12,0
0.14202,0.12606,0.77991,-0.59532,-0.34639,-0.72121,0.00095211,0,0,0.29095,0.20988,0,0.049834,0,0,0.6587,-0.0093297,0,0.65884,-0.30176,-0.63995,-0.72121,-43.17,-0.55431,0.4022,0.0067307,0.22,0.12,0
0.14736,0.12305,0.75647,-0.60283,-0.33904,-0.70808,-0.01127,0,0,0.24324,0.21299,0,-0.081101,0,0,0.66048,0.002325,0,0.66044,-0.29761,-0.64427,-0.70808,-46.185,-0.54998,0.398,0.0075305,0.24,0.12,0
0.15175,0.11827,0.73294,-0.61254,-0.33323,-0.69601,-0.0255,0,0,0.19291,0.21572,0,-0.22738,0,0,0.66476,0.015378,0,0.66505,-0.29297,-0.65279,-0.69601,-49.832,-0.54726,0.39779,0.0083099,0.26,0.12,0
0.15508,0.11151,0.7092,-0.62877,-0.32927,-0.68634,-0.04604,0,0,0.13304,0.22016,0,-0.41633,0,0,0.67349,0.031726,0,0.67488,-0.28675,-0.67129,-0.68634,-53.582,-0.54813,0.40626,0.0093624,0.28,0.12,0
0.15707,0.10203,0.68505,-0.67819,-0.34359,-0.69187,-0.076972,0,0,0.031625,0.22967,0,-0.67447,0,0,0.69042,0.0558,0,0.69442,-0.29439,-0.72739,-0.69187,-56.923,-0.57122,0.42907,0.011011,0.3,0.12,0
0.15634,0.089207,0.6601,-0.80665,-0.36942,-0.72413,-0.17863,0,0,-0.19071,0.24953,0,-1.2462,0,0,0.77465,0.092959,0,0.7826,-0.28121,-0.89487,-0.72413,-57.419,-0.6334,0.55793,0.018741,0.32,0.12,0
0.14944,0.063555,0.62996,-0.82579,-0.76914,-0.83283,-0.29838,0,0,-0.14186,-0.012219,0,-1.8364,0,0,0.63081,0.35873,0,0.73229,-0.49768,-1.0972,-0.83283,-47.256,-0.80925,0.52298,0.0051594,0.34,0.12,0
0.15474,0.055738,0.61284,-0.95927,-0.94944,-1.1854,-0.27101,0,0,0.29403,0.30681,0,-0.70462,0,0,0.79189,0.34022,0,0.85482,-0.6833,-1.2254,-1.1854,-45.52,-1.0314,0.52327,0.0072143,0.36,0.12,0
0.1612,0.051546,0.59828,-0.85877,-0.88241,-1.1206,-0.17241,0,0,0.34042,0.3097,0,-0.44827,0,0,0.7265,0.18666,0,0.74824,-0.69777,-1.0434,-1.1206,-43.04,-0.95394,0.39003,0.002649,0.38,0.12,0
0.16835,0.048008,0.58378,-0.80679,-0.85133,-1.0812,-0.11817,0,0,0.35675,0.29885,0,-0.30725,0,0,0.73181,0.083914,0,0.7357,-0.7088,-0.94931,-1.0812,-39.664,-0.91311,0.32705,0.0008621,0.4,0.12,0
0.17547,0.045384,0.56901,-0.78881,-0.83701,-1.0568,-0.072145,0,0,0.34833,0.28567,0,-0.18758,0,0,0.75092,0.0057354,0,0.75049,-0.73685,-0.88897,-1.0568,-35.764,-0.89419,0.27716,-9.2569e-05,0.42,0.12,0
0.18229,0.043685,0.55374,-0.78413,-0.8266,-1.037,-0.030485,0,0,0.32868,0.27346,0,-0.079261,0,0,0.78256,-0.057277,0,0.78453,-0.76821,-0.84252,-1.037,-27.568,-0.88256,0.24037,-0.0004902,0.44,0.12,0
0.18862,0.043169,0.53771,-0.7889,-0.81538,-1.019,0.013882,0,0,0.29912,0.2647,0,0.036093,0,0,0.82584,-0.10615,0,0.83285,-0.78295,-0.82132,-1.019,23.177,-0.87442,0.21938,-0.00048687,0.46,0.12,0
0.19425,0.044301,0.5207,-0.80758,-0.79191,-1.0006,0.064846,0,0,0.25087,0.27123,0,0.1686,0,0,0.87742,-0.13492,0,0.88816,-0.73442,-0.86506,-1.0006,48.444,-0.86668,0.23048,-1.9869e-05,0.48,0.12,0
0.19865,0.047463,0.50261,-0.83683,-0.72251,-0.97042,0.11524,0,0,0.17366,0.32227,0,0.29962,0,0,0.92955,-0.13975,0,0.94037,-0.65104,-0.90831,-0.97042,58.191,-0.84325,0.2933,0.0011025,0.5,0.12,0
0.2012,0.052339,0.48352,-0.86822,-0.5984,-0.92351,0.1396,0,0,0.071874,0.42264,0,0.36296,0,0,0.97317,-0.12301,0,0.98105,-0.53917,-0.92745,-0.92351,67.011,-0.79671,0.38632,0.0029602,0.52,0.12,0
0.20153,0.057664,0.46369,-0.89962,-0.47802,-0.87697,0.12965,0,0,-0.029433,0.51865,0,0.33708,0,0,1.003,-0.097759,0,1.0077,-0.44134,-0.93629,-0.87697,74.204,-0.75154,0.46812,0.0049847,0.54,0.12,0
0.20002,0.062193,0.4434,-0.92195,-0.39547,-0.83863,0.098566,0,0,-0.10831,0.57611,0,0.25627,0,0,1.0199,-0.073864,0,1.0225,-0.37762,-0.9398,-0.83863,79.736,-0.71868,0.51904,0.0062718,0.56,0.12,0
0.1972,0.065378,0.42289,-0.93193,-0.34632,-0.80636,0.067214,0,0,-0.16323,0.59806,0,0.17475,0,0,1.0284,-0.056295,0,1.0299,-0.3387,-0.93954,-0.80636,83.536,-0.69487,0.54656,0.0067368,0.58,0.12,0
0.19349,0.067215,0.40227,-0.93184,-0.31266,-0.77562,0.042381,0,0,-0.20308,0.60184,0,0.11019,0,0,1.0328,-0.043316,0,1.0337,-0.30978,-0.93473,-0.77562,86.103,-0.67337,0.56253,0.0067367,0.6,0.12,0
0.18907,0.067926,0.38158,-0.92934,-0.28852,-0.74694,0.024441,0,0,-0.23712,0.59594,0,0.063546,0,0,1.0356,-0.033456,0,1.0362,-0.28759,-0.93027,-0.74694,87.819,-0.65493,0.57343,0.0064522,0.62,0.12,0
0.18401,0.067731,0.36084,-0.92698,-0.27021,-0.72,0.01167,0,0,-0.26908,0.58473,0,0.030342,0,0,1.0377,-0.025681,0,1.038,-0.27,-0.92719,-0.72,88.982,-0.63906,0.58195,0.0059674,0.64,0.12,0
0.17831,0.066817,0.34007,-0.92556,-0.25574,-0.69446,0.0025051,0,0,-0.30043,0.57034,0,0.0065133,0,0,1.0393,-0.019287,0,1.0395,-0.25573,-0.92557,-0.69446,89.786,-0.62525,0.58931,0.0053251,0.66,0.12,0
0.17199,0.065333,0.31927,-0.92508,-0.24395,-0.66998,-0.0042991,0,0,-0.33164,0.55384,0,-0.011178,0,0,1.0407,-0.013773,0,1.0408,-0.24392,-0.92511,-0.66998,-89.638,-0.613,0.59608,0.0045506,0.68,0.12,0
0.16504,0.063392,0.29844,-0.92537,-0.23413,-0.64629,-0.00968,0,0,-0.3628,0.5358,0,-0.025168,0,0,1.0419,-0.0087538,0,1.0419,-0.234,-0.9255,-0.64629,-89.198,-0.60193,0.60254,0.0036618,0.7,0.12,0
0.15748,0.061082,0.27759,-0.92619,-0.22587,-0.62321,-0.014357,0,0,-0.39387,0.51654,0,-0.037327,0,0,1.0429,-0.0039079,0,1.0429,-0.22558,-0.92649,-0.62321,-88.826,-0.59176,0.60883,0.002673,0.72,0.12,0
0.14929,0.058467,0.25672,-0.92735,-0.21891,-0.60061,-0.018898,0,0,-0.42477,0.4962,0,-0.049136,0,0,1.0437,0.0010663,0,1.0437,-0.21841,-0.92786,-0.60061,-88.473,-0.58229,0.61501,0.0015968,0.74,0.12,0
0.14048,0.055592,0.23584,-0.92865,-0.21314,-0.57838,-0.023778,0,0,-0.45535,0.47481,0,-0.061824,0,0,1.0443,0.0064841,0,1.0443,-0.21235,-0.92944,-0.57838,-88.099,-0.57339,0.62106,0.00044473,0.76,0.12,0
0.13107,0.052492,0.21495,-0.92982,-0.20858,-0.55647,-0.029406,0,0,-0.48535,0.45226,0,-0.076456,0,0,1.0447,0.012713,0,1.0447,-0.20739,-0.93102,-0.55647,-87.669,-0.56496,0.62681,-0.00077015,0.78,0.12,0
0.12107,0.049194,0.19406,-0.9304,-0.20544,-0.53481,-0.03614,0,0,-0.51427,0.42818,0,-0.093964,0,0,1.0446,0.020221,0,1.0448,-0.20364,-0.9322,-0.53481,-87.153,-0.55688,0.63182,-0.0020291,0.8,0.12,0
0.1105,0.045721,0.17317,-0.92946,-0.20417,-0.51326,-0.044209,0,0,-0.54106,0.40181,0,-0.11494,0,0,1.0437,0.029655,0,1.0441,-0.20148,-0.93215,-0.51326,-86.525,-0.54896,0.63503,-0.0032962,0.82,0.12,0
0.099428,0.042113,0.15231,-0.92523,-0.20572,-0.49159,-0.053486,0,0,-0.56373,0.37164,0,-0.13906,0,0,1.0413,0.04194,0,1.0422,-0.20176,-0.92919,-0.49159,-85.772,-0.54085,0.63428,-0.004497,0.84,0.12,0
0.087954,0.038453,0.13151,-0.91435,-0.21143,-0.46925,-0.06226,0,0,-0.57863,0.33516,0,-0.16188,0,0,1.0352,0.058359,0,1.0368,-0.20596,-0.91982,-0.46925,-84.977,-0.53168,0.62527,-0.0054722,0.86,0.12,0
0.076283,0.03498,0.1109,-0.89867,-0.22629,-0.44839,-0.066105,0,0,-0.58537,0.28873,0,-0.17187,0,0,1.0215,0.080334,0,1.0246,-0.21985,-0.90511,-0.44839,-84.438,-0.52445,0.60432,-0.0061148,0.88,0.12,0
0.064539,0.032123,0.090657,-0.88072,-0.24108,-0.4272,-0.057195,0,0,-0.58958,0.24196,0,-0.14871,0,0,0.99644,0.10293,0,1.0018,-0.236,-0.88579,-0.4272,-84.93,-0.51633,0.5784,-0.0064009,0.9,0.12,0
0.0527,0.030352,0.071043,-0.86394,-0.23459,-0.4006,-0.038508,0,0,-0.60234,0.21581,0,-0.10012,0,0,0.96026,0.11704,0,0.96762,-0.23225,-0.86629,-0.4006,-86.512,-0.49971,0.56887,-0.0067377,0.92,0.12,0
0.040446,0.029731,0.052246,-0.84869,-0.19654,-0.36582,-0.019794,0,0,-0.62774,0.22006,0,-0.051463,0,0,0.91893,0.11132,0,0.9259,-0.19594,-0.84929,-0.36582,-88.263,-0.47035,0.58715,-0.0075369,0.94,0.12,0
0.027591,0.029771,0.034285,-0.83847,-0.15268,-0.33163,-0.010371,0,0,-0.65889,0.23263,0,-0.026964,0,0,0.88188,0.085401,0,0.88606,-0.15253,-0.83863,-0.33163,-89.134,-0.44093,0.61638,-0.008692,0.96,0.12,0
0.01409,0.029958,0.016971,-0.83352,-0.11968,-0.30293,-0.005238,0,0,-0.68976,0.23822,0,-0.013619,0,0,0.85714,0.045294,0,0.85819,-0.11964,-0.83356,-0.30293,-89.58,-0.41871,0.64219,-0.0099596,0.98,0.12,0
0,0.030028,0,-0.81033,-0.084326,-0.2684,0.0013626,0,0,-0.70451,0.23929,0,0.0035429,0,0,0.84856,1.7347e-17,0,0.84835,-0.084324,-0.81033,-0.2684,89.892,-0.38768,0.65371,-0.010604,1,0.12,0
0,0.05191,1,-0.71968,-1.4876,-1.6622,0.0078735,0,0,1.2252,0.22698,0,0.020471,0,0,0.56861,5.4817e-16,0,0.56776,-0.7196,-1.4877,-1.6622,0.58739,-1.2898,0.86857,0.029127,0,0.14,0
0.024505,0.052319,0.98863,-0.70615,-1.469,-1.6412,0.053732,0,0,1.2155,0.22379,0,0.1397,0,0,0.56682,-0.076371,0,0.571,-0.70239,-1.4728,-1.6412,4.0091,-1.2721,0.86696,0.029258,0.02,0.14,0
0.048622,0.053646,0.97733,-0.70552,-1.4664,-1.6289,0.11489,0,0,1.2004,0.21124,0,0.29872,0,0,0.55977,-0.16084,0,0.58116,-0.68854,-1.4834,-1.6289,8.402,-1.267,0.87671,0.031419,0.04,0.14,0
0.072521,0.055905,0.96624,-0.68515,-1.48,-1.6158,0.19547,0,0,1.2098,0.17655,0,0.50822,0,0,0.54233,-0.26548,0,0.60168,-0.63968,-1.5254,-1.6158,13.095,-1.2603,0.9342,0.040557,0.06,0.14,0
0.097014,0.059596,0.95563,-0.49928,-1.4929,-1.5533,0.24977,0,0,1.3702,0.078485,0,0.6494,0,0,0.43428,-0.41586,0,0.5975,-0.44003,-1.5522,-1.5533,13.345,-1.1818,1.1127,0.070756,0.08,0.14,0
0.12733,0.05793,0.94887,-0.41416,-1.1216,-0.99448,0.21727,0,0,0.72997,-0.29388,0,1.5788,0,0,0.27834,-0.3939,0,0.50625,-0.32821,-1.2076,-0.99448,27.26,-0.84342,0.80225,0.061248,0.1,0.14,0
0.12621,0.085812,0.91394,-0.3215,-0.38544,-0.32632,0.091775,0,0,0.050211,-0.61482,0,1.9089,0,0,0.20087,-0.077161,0,0.21553,-0.25628,-0.45065,-0.32632,35.396,-0.34442,0.1705,-0.00011748,0.12,0.14,0
0.12934,0.1003,0.88459,-0.29036,-0.3681,-0.30811,0.06116,0,0,0.1846,-0.6239,0,1.2721,0,0,0.17576,-0.05783,0,0.18497,-0.25677,-0.4017,-0.30811,28.781,-0.32219,0.12728,-5.0784e-05,0.14,0.14,0
0.1336,0.10831,0.8577,-0.27581,-0.35781,-0.2973,0.04174,0,0,0.22349,-0.62935,0,0.8682,0,0,0.1647,-0.042811,0,0.17011,-0.2583,-0.37532,-0.2973,22.756,-0.31031,0.1032,-3.0496e-05,0.16,0.14,0
0.13828,0.11257,0.83188,-0.26651,-0.3477,-0.28825,0.027512,0,0,0.22607,-0.61831,0,0.57226,0,0,0.15977,-0.030537,0,0.1626,-0.25807,-0.35615,-0.28825,17.063,-0.30082,0.087008,-2.0618e-05,0.18,0.14,0
0.14264,0.11405,0.80657,-0.26171,-0.33868,-0.28094,0.015814,0,0,0.2,-0.60051,0,0.32894,0,0,0.15757,-0.019847,0,0.15876,-0.25859,-0.3418,-0.28094,11.169,-0.29377,0.074596,-1.5043e-05,0.2,0.14,0
0.14628,0.11338,0.78146,-0.25964,-0.3303,-0.27466,0.0054696,0,0,0.15622,-0.57859,0,0.11377,0,0,0.15708,-0.009837,0,0.15734,-0.25922,-0.33072,-0.27466,4.4005,-0.2882,0.065163,-1.1565e-05,0.22,0.14,0
0.14889,0.11086,0.75631,-0.25992,-0.32243,-0.26924,-0.0046117,0,0,0.096965,-0.55312,0,-0.095923,0,0,0.15804,0.00025395,0,0.15799,-0.25958,-0.32276,-0.26924,-4.1969,-0.28386,0.05895,-9.5758e-06,0.24,0.14,0
0.15016,0.10657,0.73089,-0.26293,-0.31498,-0.26473,-0.01545,0,0,0.018724,-0.52253,0,-0.32136,0,0,0.1607,0.011197,0,0.16102,-0.25869,-0.31922,-0.26473,-15.35,-0.28088,0.057742,-9.524e-06,0.26,0.14,0
0.14964,0.10035,0.70488,-0.27037,-0.30813,-0.26166,-0.02804,0,0,-0.090584,-0.48327,0,-0.58322,0,0,0.16602,0.023926,0,0.16766,-0.25545,-0.32305,-0.26166,-28.024,-0.28005,0.064723,-1.3494e-05,0.28,0.14,0
0.14653,0.09183,0.67776,-0.28376,-0.30121,-0.26021,-0.044258,0,0,-0.24493,-0.42639,0,-0.92057,0,0,0.17731,0.039691,0,0.18163,-0.24738,-0.3376,-0.26021,-39.424,-0.28173,0.084537,-2.8632e-05,0.3,0.14,0
0.13984,0.079534,0.64814,-0.31243,-0.29924,-0.26452,-0.068072,0,0,-0.49824,-0.3611,0,-1.4159,0,0,0.20278,0.060303,0,0.21186,-0.23744,-0.37422,-0.26452,-47.766,-0.29206,0.12546,-8.5702e-05,0.32,0.14,0
0.1266,0.059211,0.61287,-0.37687,-0.71343,-0.67183,-0.17619,0,0,0.093887,-0.096141,0,-1.2373,0,0,0.28608,0.33315,0,0.46303,-0.27469,-0.81561,-0.67183,-35.968,-0.58738,0.49657,0.012937,0.34,0.14,0
0.1436,0.06064,0.60584,-0.48089,-0.92958,-1.029,-0.21485,0,0,0.71251,0.12922,0,-0.5586,0,0,0.45829,0.31492,0,0.55231,-0.39461,-1.0159,-1.029,-21.881,-0.81315,0.62792,0.012697,0.36,0.14,0
0.1551,0.056624,0.59454,-0.65498,-0.91728,-1.0662,-0.18021,0,0,0.53461,0.19362,0,-0.46853,0,0,0.58998,0.16457,0,0.6107,-0.56325,-1.009,-1.0662,-26.977,-0.87949,0.47694,0.0053026,0.38,0.14,0
0.16498,0.053241,0.58224,-0.69876,-0.89497,-1.0604,-0.11601,0,0,0.47007,0.21501,0,-0.30162,0,0,0.63479,0.059127,0,0.6366,-0.64494,-0.9488,-1.0604,-24.89,-0.8847,0.37239,0.0018717,0.4,0.14,0
0.17391,0.050514,0.56915,-0.72227,-0.87876,-1.0495,-0.064393,0,0,0.42534,0.22191,0,-0.16742,0,0,0.67454,-0.025557,0,0.6745,-0.69918,-0.90185,-1.0495,-19.727,-0.8835,0.3046,0.00038927,0.42,0.14,0
0.18199,0.048667,0.55526,-0.74256,-0.86702,-1.0381,-0.017816,0,0,0.38424,0.22245,0,-0.046322,0,0,0.72017,-0.099586,0,0.72684,-0.74006,-0.86952,-1.0381,-7.9881,-0.88257,0.25888,-0.00020061,0.44,0.14,0
0.18928,0.047979,0.54034,-0.76386,-0.86135,-1.0279,0.030226,0,0,0.34326,0.21652,0,0.078587,0,0,0.78181,-0.166,0,0.7996,-0.75525,-0.86996,-1.0279,15.9,-0.88437,0.23712,-0.00018516,0.46,0.14,0
0.19573,0.049159,0.52399,-0.7937,-0.85463,-1.0185,0.092672,0,0,0.29221,0.21301,0,0.24095,0,0,0.85981,-0.21403,0,0.88731,-0.72662,-0.92172,-1.0185,35.902,-0.88894,0.2575,0.00047789,0.48,0.14,0
0.20097,0.053473,0.50595,-0.84947,-0.79814,-1.0002,0.16285,0,0,0.196,0.26271,0,0.4234,0,0,0.94069,-0.20828,0,0.96427,-0.65895,-0.98866,-1.0002,49.477,-0.88262,0.33565,0.0019343,0.5,0.14,0
0.20356,0.06083,0.48636,-0.87672,-0.57887,-0.92303,0.19432,0,0,0.060207,0.44742,0,0.50525,0,0,1.0026,-0.16695,0,1.0164,-0.48296,-0.97262,-0.92303,63.733,-0.79287,0.46684,0.0050273,0.52,0.14,0
0.20337,0.068411,0.46585,-0.91234,-0.4197,-0.86546,0.15125,0,0,-0.060947,0.57949,0,0.39325,0,0,1.0347,-0.11017,0,1.0403,-0.37697,-0.95507,-0.86546,74.224,-0.7325,0.53891,0.007295,0.54,0.14,0
0.20113,0.074118,0.44497,-0.93606,-0.35972,-0.8337,0.10079,0,0,-0.13306,0.61617,0,0.26206,0,0,1.0445,-0.078505,0,1.0474,-0.3426,-0.95318,-0.8337,80.361,-0.70983,0.56047,0.0076755,0.56,0.14,0
0.19805,0.077606,0.42407,-0.9286,-0.32041,-0.79877,0.062938,0,0,-0.16878,0.62187,0,0.16364,0,0,1.0451,-0.058424,0,1.0467,-0.31396,-0.93505,-0.79877,84.153,-0.68259,0.5654,0.0074963,0.58,0.14,0
0.19437,0.079417,0.40316,-0.91989,-0.2945,-0.76748,0.038631,0,0,-0.19813,0.61488,0,0.10044,0,0,1.0449,-0.044661,0,1.0458,-0.29212,-0.92227,-0.76748,86.479,-0.66062,0.56877,0.0071436,0.6,0.14,0
0.19013,0.07994,0.38227,-0.91416,-0.27565,-0.73921,0.022533,0,0,-0.22743,0.60263,0,0.058585,0,0,1.0448,-0.034567,0,1.0454,-0.27486,-0.91496,-0.73921,87.981,-0.64301,0.57281,0.0066782,0.62,0.14,0
0.18528,0.079478,0.36137,-0.91168,-0.26098,-0.71317,0.01161,0,0,-0.25806,0.58785,0,0.030187,0,0,1.045,-0.026731,0,1.0453,-0.26078,-0.91189,-0.71317,88.978,-0.62861,0.57797,0.0061093,0.64,0.14,0
0.1798,0.078251,0.34047,-0.91165,-0.24893,-0.68864,0.0038822,0,0,-0.2899,0.57163,0,0.010094,0,0,1.0454,-0.020321,0,1.0456,-0.24891,-0.91167,-0.68864,89.664,-0.61641,0.58411,0.0054348,0.66,0.14,0
0.17368,0.076426,0.31956,-0.9133,-0.23865,-0.66514,-0.0018971,0,0,-0.3226,0.55444,0,-0.0049325,0,0,1.0461,-0.014794,0,1.0462,-0.23865,-0.9133,-0.66514,-89.839,-0.6057,0.59103,0.0046537,0.68,0.14,0
0.1669,0.074122,0.29863,-0.91608,-0.22967,-0.64235,-0.0065759,0,0,-0.35584,0.53649,0,-0.017097,0,0,1.0469,-0.0097558,0,1.047,-0.2296,-0.91614,-0.64235,-89.451,-0.59603,0.5986,0.0037671,0.7,0.14,0
0.15945,0.071432,0.27768,-0.91963,-0.2217,-0.62008,-0.010772,0,0,-0.38941,0.51789,0,-0.028008,0,0,1.0479,-0.0048847,0,1.0479,-0.22153,-0.91979,-0.62008,-89.116,-0.58713,0.60673,0.0027781,0.72,0.14,0
0.15132,0.06842,0.25671,-0.92374,-0.21458,-0.59821,-0.014978,0,0,-0.42319,0.49872,0,-0.038942,0,0,1.049,0.00011706,0,1.049,-0.21427,-0.92406,-0.59821,-88.791,-0.57884,0.61538,0.0016898,0.74,0.14,0
0.14252,0.065133,0.23572,-0.92834,-0.20827,-0.5767,-0.019624,0,0,-0.45713,0.47896,0,-0.051023,0,0,1.0503,0.0055647,0,1.0503,-0.20773,-0.92887,-0.5767,-88.44,-0.5711,0.62458,0.00050467,0.76,0.14,0
0.13304,0.061604,0.2147,-0.93337,-0.2028,-0.55555,-0.025145,0,0,-0.49117,0.45858,0,-0.065377,0,0,1.0517,0.011837,0,1.0518,-0.20193,-0.93423,-0.55555,-88.031,-0.5639,0.63432,-0.00077657,0.78,0.14,0
0.12287,0.05785,0.19365,-0.93876,-0.19836,-0.53479,-0.032039,0,0,-0.52516,0.43735,0,-0.083303,0,0,1.0534,0.019445,0,1.0535,-0.19698,-0.94014,-0.53479,-87.527,-0.5573,0.64448,-0.0021535,0.8,0.14,0
0.11203,0.053882,0.17256,-0.94413,-0.19542,-0.51443,-0.040967,0,0,-0.55861,0.41472,0,-0.10651,0,0,1.0552,0.02916,0,1.0556,-0.19318,-0.94637,-0.51443,-86.877,-0.55133,0.65462,-0.0036195,0.82,0.14,0
0.10053,0.049703,0.15144,-0.94809,-0.19483,-0.49432,-0.052708,0,0,-0.58991,0.38933,0,-0.13704,0,0,1.0571,0.042265,0,1.0579,-0.19116,-0.95176,-0.49432,-86.017,-0.54575,0.6632,-0.0051337,0.84,0.14,0
0.088435,0.045335,0.13028,-0.94661,-0.1985,-0.47381,-0.06825,0,0,-0.61463,0.3579,0,-0.17745,0,0,1.058,0.061132,0,1.0597,-0.19233,-0.95278,-0.47381,-84.83,-0.53964,0.66593,-0.0065491,0.86,0.14,0
0.075944,0.040834,0.10912,-0.92544,-0.20801,-0.44916,-0.08368,0,0,-0.61917,0.31349,0,-0.21757,0,0,1.0501,0.090399,0,1.0538,-0.19838,-0.93507,-0.44916,-83.434,-0.52754,0.64874,-0.0072901,0.88,0.14,0
0.063668,0.036851,0.08828,-0.9045,-0.25325,-0.43561,-0.088471,0,0,-0.60956,0.23706,0,-0.23002,0,0,1.0218,0.14187,0,1.0317,-0.24145,-0.9163,-0.43561,-82.4,-0.53112,0.60174,-0.0073892,0.9,0.14,0
0.051562,0.034435,0.068249,-0.88137,-0.27318,-0.41461,-0.060419,0,0,-0.60679,0.18387,0,-0.15709,0,0,0.96786,0.17607,0,0.98436,-0.26723,-0.88732,-0.41461,-84.381,-0.52306,0.5611,-0.0070066,0.92,0.14,0
0.039397,0.033972,0.049565,-0.84364,-0.20486,-0.36411,-0.037669,0,0,-0.62338,0.20703,0,-0.097939,0,0,0.90042,0.17568,0,0.9182,-0.20264,-0.84585,-0.36411,-86.637,-0.47087,0.57959,-0.007445,0.94,0.14,0
0.026626,0.034334,0.032232,-0.82639,-0.16075,-0.32837,-0.025723,0,0,-0.64742,0.21791,0,-0.066881,0,0,0.84174,0.12599,0,0.8511,-0.15976,-0.82739,-0.32837,-87.79,-0.4385,0.60132,-0.0082775,0.96,0.14,0
0.0135,0.034604,0.015896,-0.81057,-0.13154,-0.29853,-0.014928,0,0,-0.66566,0.21709,0,-0.038814,0,0,0.80581,0.063542,0,0.80795,-0.13121,-0.8109,-0.29853,-88.741,-0.41354,0.61339,-0.0089468,0.98,0.14,0
0,0.034679,0,-0.78433,-0.099371,-0.26511,0.0014425,0,0,-0.67498,0.21546,0,0.0037505,0,0,0.79478,-1.3878e-17,0,0.79434,-0.099367,-0.78433,-0.26511,89.879,-0.38294,0.61897,-0.0092989,1,0.14,0
0,0.055672,1,-0.62513,-1.5327,-1.6473,0.0058479,0,0,1.3289,0.14907,0,0.015204,0,0,0.49372,1.0304e-15,0,0.49289,-0.62509,-1.5327,-1.6473,0.36917,-1.2684,0.97003,0.04468,0,0.16,0
0.026578,0.055976,0.99013,-0.60604,-1.5178,-1.6273,0.050017,0,0,1.3276,0.1423,0,0.13004,0,0,0.48834,-0.070201,0,0.49249,-0.6033,-1.5206,-1.6273,3.1305,-1.2504,0.97501,0.045687,0.02,0.16,0
0.053105,0.056869,0.98047,-0.58157,-1.5201,-1.611,0.10285,0,0,1.3382,0.11812,0,0.2674,0,0,0.46967,-0.1455,0,0.49073,-0.57043,-1.5312,-1.611,6.1807,-1.2375,1.0031,0.050729,0.04,0.16,0
0.080106,0.058199,0.97134,-0.51455,-1.5365,-1.5866,0.14754,0,0,1.3937,0.065236,0,0.38361,0,0,0.42402,-0.23136,0,0.48219,-0.49367,-1.5573,-1.5866,8.0533,-1.2126,1.0786,0.06429,0.06,0.16,0
0.10885,0.058483,0.96351,-0.46312,-1.6287,-1.591,0.15699,0,0,1.4663,-0.048904,0,0.40818,0,0,0.33914,-0.33168,0,0.47675,-0.44235,-1.6494,-1.591,7.5385,-1.2276,1.179,0.08347,0.08,0.16,0
0.13876,0.055361,0.95777,-0.3662,-0.97065,-0.9398,0.099687,0,0,0.73219,-0.071292,0,0.93492,0,0,0.24898,-0.21006,0,0.34455,-0.3236,-1.0132,-0.9398,25.058,-0.75888,0.66353,0.043706,0.1,0.16,0
0.13814,0.076623,0.92396,-0.3103,-0.35002,-0.31359,0.064938,0,0,0.034242,-0.37888,0,1.3507,0,0,0.20266,-0.052016,0,0.20947,-0.26225,-0.39807,-0.31359,36.497,-0.32464,0.11878,-3.5085e-05,0.12,0.16,0
0.14013,0.08975,0.89292,-0.29277,-0.34888,-0.30411,0.04645,0,0,0.11793,-0.46559,0,0.96616,0,0,0.18708,-0.045611,0,0.19264,-0.26656,-0.37509,-0.30411,29.435,-0.31525,0.095464,-2.2511e-05,0.14,0.16,0
0.14286,0.097405,0.86409,-0.28241,-0.34307,-0.29566,0.032878,0,0,0.13772,-0.49307,0,0.68387,0,0,0.17619,-0.036339,0,0.17989,-0.26801,-0.35747,-0.29566,23.656,-0.30705,0.079335,-1.5544e-05,0.16,0.16,0
0.14564,0.10156,0.83654,-0.2757,-0.33652,-0.28823,0.022228,0,0,0.13032,-0.50214,0,0.46234,0,0,0.17009,-0.027217,0,0.17222,-0.26844,-0.34377,-0.28823,18.084,-0.30015,0.067642,-1.1429e-05,0.18,0.16,0
0.14807,0.10322,0.80966,-0.27151,-0.3292,-0.28142,0.013168,0,0,0.10307,-0.49687,0,0.27389,0,0,0.16715,-0.018548,0,0.16814,-0.26865,-0.33206,-0.28142,12.269,-0.29404,0.05809,-8.4497e-06,0.2,0.16,0
0.14976,0.10292,0.78305,-0.26987,-0.32153,-0.2753,0.0049362,0,0,0.056537,-0.48081,0,0.10267,0,0,0.16648,-0.010124,0,0.16675,-0.2694,-0.322,-0.2753,5.4086,-0.2889,0.049913,-6.0865e-06,0.22,0.16,0
0.15033,0.10093,0.75639,-0.27066,-0.31351,-0.2698,-0.0029976,0,0,-0.0089713,-0.4546,0,-0.06235,0,0,0.16781,-0.0016126,0,0.16778,-0.27046,-0.31372,-0.2698,-3.9824,-0.28466,0.043597,-4.2526e-06,0.24,0.16,0
0.1494,0.097368,0.72935,-0.27418,-0.30506,-0.26494,-0.011106,0,0,-0.096084,-0.41721,0,-0.23101,0,0,0.1714,0.0073307,0,0.17153,-0.2706,-0.30864,-0.26494,-17.865,-0.28139,0.041159,-3.3541e-06,0.26,0.16,0
0.14649,0.092175,0.70154,-0.28067,-0.29577,-0.26063,-0.019897,0,0,-0.20849,-0.36551,0,-0.41387,0,0,0.17816,0.016944,0,0.17896,-0.26694,-0.3095,-0.26063,-34.612,-0.27902,0.046046,-4.6977e-06,0.28,0.16,0
0.14106,0.084973,0.67234,-0.29111,-0.28563,-0.25707,-0.030091,0,0,-0.35408,-0.29707,0,-0.62589,0,0,0.1898,0.027003,0,0.1918,-0.25816,-0.31859,-0.25707,-47.602,-0.27794,0.060984,-1.1636e-05,0.3,0.16,0
0.13233,0.074763,0.64081,-0.30735,-0.2721,-0.25394,-0.043027,0,0,-0.55552,-0.18891,0,-0.89496,0,0,0.20649,0.034709,0,0.20966,-0.24323,-0.33622,-0.25394,-56.138,-0.2778,0.08813,-3.3412e-05,0.32,0.16,0
0.11884,0.059709,0.60627,-0.34681,-0.59887,-0.62473,-0.067003,0,0,0.066295,0.059764,0,-0.6257,0,0,0.2587,0.1401,0,0.30705,-0.29265,-0.65303,-0.62473,-35.448,-0.52347,0.36305,0.0059341,0.34,0.16,0
0.13498,0.060907,0.60024,-0.44657,-1.0295,-1.0431,-0.11706,0,0,0.77545,0.017585,0,-0.30434,0,0,0.3642,0.20818,0,0.42405,-0.42395,-1.0522,-1.0431,-10.94,-0.83973,0.62373,0.012454,0.36,0.16,0
0.14986,0.059291,0.5917,-0.50523,-0.96416,-1.0325,-0.11402,0,0,0.68548,0.088866,0,-0.29644,0,0,0.47071,0.10679,0,0.48235,-0.47846,-0.99092,-1.0325,-13.211,-0.83397,0.53447,0.0076816,0.38,0.16,0
0.1624,0.056608,0.58141,-0.58897,-0.94196,-1.0407,-0.078013,0,0,0.58724,0.12835,0,-0.20283,0,0,0.54168,0.016728,0,0.54136,-0.5725,-0.95843,-1.0407,-11.923,-0.8572,0.43296,0.0036665,0.4,0.16,0
0.17335,0.05426,0.57003,-0.64555,-0.92473,-1.0411,-0.030834,0,0,0.51424,0.1513,0,-0.080168,0,0,0.59221,-0.065832,0,0.59531,-0.64219,-0.9281,-1.0411,-6.2279,-0.87047,0.35614,0.0015566,0.42,0.16,0
0.18297,0.052582,0.55772,-0.69668,-0.91534,-1.0413,0.016779,0,0,0.44804,0.16378,0,0.043626,0,0,0.64212,-0.14726,0,0.65834,-0.6954,-0.91662,-1.0413,4.3627,-0.88445,0.30344,0.00066153,0.44,0.16,0
0.19127,0.05183,0.54435,-0.7448,-0.91231,-1.0415,0.069097,0,0,0.38569,0.16792,0,0.17965,0,0,0.71139,-0.23435,0,0.74877,-0.71997,-0.93713,-1.0415,19.761,-0.89953,0.28409,0.00066454,0.46,0.16,0
0.19839,0.052822,0.52927,-0.8121,-0.94144,-1.0553,0.14285,0,0,0.3162,0.14806,0,0.37141,0,0,0.83514,-0.33439,0,0.90156,-0.71996,-1.0336,-1.0553,32.822,-0.93629,0.32504,0.001737,0.48,0.16,0
0.20392,0.057971,0.51094,-0.90313,-0.9217,-1.0584,0.2594,0,0,0.20184,0.1777,0,0.67444,0,0,0.97664,-0.38844,0,1.0559,-0.65285,-1.172,-1.0584,43.975,-0.96107,0.47269,0.0043864,0.5,0.16,0
0.20647,0.070236,0.4902,-0.88062,-0.42414,-0.88163,0.22454,0,0,0.0013088,0.59474,0,0.58381,0,0,1.0713,-0.16472,0,1.0812,-0.3322,-0.97256,-0.88163,67.734,-0.7288,0.60008,0.010244,0.52,0.16,0
0.20397,0.080843,0.46809,-0.973,-0.37918,-0.87375,0.14341,0,0,-0.12903,0.64294,0,0.37288,0,0,1.0914,-0.10345,0,1.0962,-0.34636,-1.0058,-0.87375,77.109,-0.74198,0.60435,0.0095369,0.54,0.16,0
0.20131,0.08684,0.44654,-0.93002,-0.32723,-0.82372,0.082308,0,0,-0.13819,0.64543,0,0.214,0,0,1.0716,-0.073104,0,1.0741,-0.3162,-0.94106,-0.82372,82.363,-0.69366,0.57524,0.0084213,0.56,0.16,0
0.19844,0.090253,0.42523,-0.90385,-0.2984,-0.78591,0.052263,0,0,-0.15333,0.63375,0,0.13588,0,0,1.0622,-0.054978,0,1.0636,-0.29393,-0.90833,-0.78591,85.103,-0.66272,0.56326,0.0077366,0.58,0.16,0
0.19517,0.09181,0.40405,-0.89161,-0.27924,-0.75531,0.03401,0,0,-0.17719,0.61889,0,0.088427,0,0,1.0567,-0.042669,0,1.0575,-0.27736,-0.89349,-0.75531,86.831,-0.64205,0.55998,0.007201,0.6,0.16,0
0.19135,0.092031,0.38296,-0.88791,-0.26495,-0.72882,0.022305,0,0,-0.20682,0.60303,0,0.057994,0,0,1.0536,-0.033583,0,1.0541,-0.26415,-0.88871,-0.72882,87.952,-0.62723,0.56194,0.0066874,0.62,0.16,0
0.1869,0.091245,0.36191,-0.88902,-0.25325,-0.70459,0.014183,0,0,-0.23976,0.58675,0,0.036876,0,0,1.0519,-0.02644,0,1.0523,-0.25293,-0.88934,-0.70459,88.723,-0.61562,0.56707,0.0061242,0.64,0.16,0
0.18176,0.089682,0.34088,-0.89284,-0.24309,-0.68166,0.0081992,0,0,-0.27453,0.57014,0,0.021318,0,0,1.0513,-0.020517,0,1.0515,-0.24299,-0.89294,-0.68166,89.277,-0.60586,0.57424,0.0054748,0.66,0.16,0
0.17592,0.08751,0.31986,-0.89818,-0.23397,-0.6595,0.0034849,0,0,-0.31027,0.55319,0,0.0090608,0,0,1.0513,-0.015349,0,1.0514,-0.23395,-0.89819,-0.6595,89.699,-0.59722,0.58279,0.0047219,0.68,0.16,0
0.16935,0.084852,0.29883,-0.9044,-0.2256,-0.63783,-0.00052733,0,0,-0.34654,0.5359,0,-0.001371,0,0,1.0518,-0.010598,0,1.0519,-0.22559,-0.9044,-0.63783,-89.956,-0.58927,0.59235,0.0038583,0.7,0.16,0
0.16206,0.081798,0.27779,-0.91118,-0.21781,-0.61648,-0.004254,0,0,-0.3831,0.51828,0,-0.01106,0,0,1.0528,-0.005987,0,1.0528,-0.21778,-0.91121,-0.61648,-89.648,-0.58183,0.60277,0.0028816,0.72,0.16,0
0.15403,0.078415,0.25672,-0.91844,-0.21052,-0.59541,-0.008035,0,0,-0.41994,0.50035,0,-0.020891,0,0,1.0542,-0.001259,0,1.0542,-0.21043,-0.91853,-0.59541,-89.35,-0.57479,0.61401,0.0017905,0.74,0.16,0
0.14526,0.074751,0.23562,-0.92627,-0.2037,-0.57461,-0.012185,0,0,-0.45716,0.48219,0,-0.031681,0,0,1.056,0.0038601,0,1.056,-0.20349,-0.92648,-0.57461,-89.034,-0.5682,0.6262,0.00058143,0.76,0.16,0
0.13574,0.070836,0.21448,-0.93494,-0.19737,-0.55417,-0.017045,0,0,-0.495,0.46384,0,-0.044317,0,0,1.0585,0.0096995,0,1.0586,-0.19698,-0.93533,-0.55417,-88.677,-0.56216,0.63955,-0.00075484,0.78,0.16,0
0.12546,0.066688,0.19328,-0.94488,-0.19168,-0.53425,-0.02306,0,0,-0.53383,0.44534,0,-0.059955,0,0,1.0619,0.016707,0,1.062,-0.19097,-0.94559,-0.53425,-88.248,-0.55693,0.6544,-0.0022375,0.8,0.16,0
0.11439,0.062309,0.172,-0.95679,-0.18696,-0.51513,-0.030905,0,0,-0.57417,0.42662,0,-0.080353,0,0,1.0666,0.025569,0,1.0669,-0.18572,-0.95803,-0.51513,-87.705,-0.55296,0.67125,-0.0039021,0.82,0.16,0
0.10249,0.057687,0.15062,-0.9716,-0.18401,-0.4973,-0.04188,0,0,-0.61659,0.40728,0,-0.10889,0,0,1.0733,0.037479,0,1.0739,-0.18179,-0.97382,-0.4973,-86.965,-0.55097,0.69063,-0.0058092,0.84,0.16,0
0.089726,0.052769,0.12907,-0.98944,-0.18432,-0.4812,-0.058055,0,0,-0.66072,0.38594,0,-0.15094,0,0,1.0833,0.054829,0,1.0847,-0.18016,-0.99361,-0.4812,-85.897,-0.55165,0.71235,-0.0080206,0.86,0.16,0
0.076065,0.04752,0.10729,-1.0041,-0.1911,-0.46584,-0.086394,0,0,-0.69973,0.35717,0,-0.22462,0,0,1.1022,0.083453,0,1.1052,-0.18202,-1.0132,-0.46584,-84.001,-0.55368,0.73176,-0.010401,0.88,0.16,0
0.061737,0.041605,0.084982,-0.93593,-0.18458,-0.42114,-0.11478,0,0,-0.66924,0.30752,0,-0.29843,0,0,1.0821,0.14028,0,1.0889,-0.16744,-0.95308,-0.42114,-81.505,-0.51388,0.69446,-0.0097848,0.9,0.16,0
0.049296,0.037707,0.064,-0.92357,-0.33224,-0.44074,-0.13712,0,0,-0.62768,0.14106,0,-0.35652,0,0,0.99408,0.34443,0,1.0566,-0.30199,-0.95382,-0.44074,-77.56,-0.56552,0.59472,-0.0088529,0.92,0.16,0
0.03663,0.038013,0.045219,-0.85058,-0.2306,-0.36957,-0.083929,0,0,-0.62531,0.18066,0,-0.21821,0,0,0.86885,0.275,0,0.91219,-0.21944,-0.86174,-0.36957,-82.425,-0.48358,0.58194,-0.0078962,0.94,0.16,0
0.024283,0.038488,0.029246,-0.79205,-0.18417,-0.32211,-0.059876,0,0,-0.61092,0.17932,0,-0.15568,0,0,0.76974,0.17023,0,0.78757,-0.17833,-0.79789,-0.32211,-84.428,-0.43278,0.56165,-0.0071284,0.96,0.16,0
0.012193,0.038641,0.014429,-0.75517,-0.15733,-0.28818,-0.03226,0,0,-0.60708,0.1701,0,-0.083877,0,0,0.73115,0.08142,0,0.73489,-0.1556,-0.7569,-0.28818,-86.92,-0.40023,0.54719,-0.0067786,0.98,0.16,0
0,0.038647,0,-0.72455,-0.12741,-0.25559,0.00011048,0,0,-0.60965,0.16663,0,0.00028724,0,0,0.72147,0,0,0.7207,-0.12741,-0.72455,-0.25559,89.989,-0.36918,0.54449,-0.0067672,1,0.16,0
0,0.057872,1,-0.53646,-1.5734,-1.633,0.0026652,0,0,1.4255,0.077394,0,0.0069296,0,0,0.42821,2.1198e-15,0,0.42752,-0.53645,-1.5734,-1.633,0.14726,-1.2476,1.068,0.06191,0,0.18,0
0.028509,0.058011,0.99144,-0.51687,-1.5612,-1.6148,0.037895,0,0,1.4274,0.069794,0,0.098527,0,0,0.42131,-0.059173,0,0.42479,-0.51549,-1.5625,-1.6148,2.0755,-1.2309,1.0741,0.063144,0.02,0.18,0
0.057095,0.058371,0.98315,-0.48832,-1.5637,-1.5988,0.071819,0,0,1.4436,0.045554,0,0.18673,0,0,0.39862,-0.11972,0,0.41571,-0.48355,-1.5685,-1.5988,3.8039,-1.2169,1.1004,0.068259,0.04,0.18,0
0.086252,0.058515,0.97549,-0.44934,-1.5843,-1.5856,0.091741,0,0,1.4771,0.0016744,0,0.23853,0,0,0.35615,-0.18089,0,0.39968,-0.44197,-1.5917,-1.5856,4.5916,-1.2064,1.1467,0.077426,0.06,0.18,0
0.11618,0.05764,0.9689,-0.41107,-1.5971,-1.5714,0.083657,0,0,1.5084,-0.033467,0,0.21751,0,0,0.2922,-0.23086,0,0.37401,-0.40519,-1.603,-1.5714,4.0149,-1.1932,1.1823,0.084672,0.08,0.18,0
0.14659,0.055078,0.9638,-0.3357,-0.91949,-0.9187,0.063712,0,0,0.74183,-0.0018283,0,0.64722,0,0,0.23125,-0.14361,0,0.28611,-0.30603,-0.94916,-0.9187,24.767,-0.72463,0.63452,0.041901,0.1,0.18,0
0.14585,0.070657,0.93059,-0.30608,-0.33137,-0.30756,0.047702,0,0,0.015392,-0.24765,0,0.9922,0,0,0.20194,-0.035365,0,0.2051,-0.26937,-0.36807,-0.30756,37.576,-0.315,0.086202,-1.2498e-05,0.12,0.18,0
0.1472,0.08168,0.89918,-0.293,-0.33537,-0.30091,0.036034,0,0,0.082225,-0.35836,0,0.7495,0,0,0.19144,-0.034034,0,0.1945,-0.27239,-0.35598,-0.30091,29.776,-0.30976,0.073604,-1.0601e-05,0.14,0.18,0
0.14914,0.088587,0.86933,-0.28497,-0.33276,-0.29399,0.025907,0,0,0.093746,-0.40328,0,0.53887,0,0,0.1831,-0.029334,0,0.18545,-0.27363,-0.34411,-0.29399,23.657,-0.30391,0.062833,-8.3753e-06,0.16,0.18,0
0.15095,0.092484,0.84059,-0.27996,-0.32782,-0.28741,0.017798,0,0,0.077452,-0.42026,0,0.37021,0,0,0.17756,-0.023342,0,0.17908,-0.27407,-0.33371,-0.28741,18.321,-0.29839,0.054219,-6.5454e-06,0.18,0.18,0
0.15224,0.094175,0.81251,-0.27701,-0.32166,-0.28116,0.010935,0,0,0.043222,-0.42116,0,0.22745,0,0,0.17466,-0.016978,0,0.17546,-0.27447,-0.3242,-0.28116,13.048,-0.29328,0.046736,-4.8828e-06,0.2,0.18,0
0.15268,0.094147,0.7847,-0.27596,-0.31456,-0.27524,0.0047894,0,0,-0.0074178,-0.4089,0,0.099621,0,0,0.17402,-0.010497,0,0.17431,-0.27537,-0.31515,-0.27524,6.9677,-0.28858,0.039839,-3.2474e-06,0.22,0.18,0
0.15194,0.092674,0.75682,-0.2769,-0.30663,-0.26966,-0.00098602,0,0,-0.07528,-0.38445,0,-0.020509,0,0,0.1755,-0.0039283,0,0.17552,-0.27687,-0.30666,-0.26966,-1.8976,-0.2844,0.033974,-1.7126e-06,0.24,0.18,0
0.14967,0.089883,0.72854,-0.27992,-0.29777,-0.26437,-0.0066688,0,0,-0.16163,-0.34734,0,-0.13871,0,0,0.17926,0.0027043,0,0.17927,-0.2777,-0.29999,-0.26437,-18.379,-0.28069,0.031166,-6.5214e-07,0.26,0.18,0
0.14548,0.08573,0.69946,-0.28521,-0.28782,-0.25934,-0.012567,0,0,-0.26902,-0.29619,0,-0.26139,0,0,0.1857,0.00916,0,0.18594,-0.27388,-0.29915,-0.25934,-42.033,-0.27746,0.034889,-9.7458e-07,0.28,0.18,0
0.13891,0.079948,0.66912,-0.29336,-0.27612,-0.25448,-0.019149,0,0,-0.40429,-0.22501,0,-0.3983,0,0,0.19507,0.014542,0,0.19569,-0.26374,-0.30574,-0.25448,-57.116,-0.27465,0.04731,-4.7447e-06,0.3,0.18,0
0.12931,0.071978,0.63704,-0.30594,-0.26031,-0.24951,-0.026113,0,0,-0.58693,-0.11239,0,-0.54314,0,0,0.2069,0.016753,0,0.20769,-0.24845,-0.3178,-0.24951,-65.572,-0.27192,0.068829,-1.6734e-05,0.32,0.18,0
0.11543,0.061602,0.60291,-0.32422,-0.56676,-0.60643,-0.033401,0,0,0.063374,0.09169,0,-0.35112,0,0,0.24163,0.063946,0,0.25544,-0.28026,-0.61072,-0.60643,-37.527,-0.49914,0.34498,0.0053624,0.34,0.18,0
0.13184,0.061343,0.59751,-0.40009,-1.0004,-1.0176,-0.041647,0,0,0.80282,0.022478,0,-0.10828,0,0,0.31602,0.088808,0,0.3313,-0.39722,-1.0032,-1.0176,-3.9501,-0.80603,0.61335,0.011829,0.36,0.18,0
0.14755,0.060178,0.59027,-0.44796,-1.0044,-1.026,-0.042588,0,0,0.75142,0.028049,0,-0.11073,0,0,0.39853,0.035359,0,0.40096,-0.44472,-1.0076,-1.026,-4.3514,-0.82611,0.57231,0.0095943,0.38,0.18,0
0.1619,0.058375,0.58157,-0.5058,-0.98405,-1.0285,-0.020262,0,0,0.67954,0.057817,0,-0.052682,0,0,0.46217,-0.033337,0,0.46315,-0.50495,-0.98491,-1.0285,-2.4217,-0.83946,0.50319,0.0063781,0.4,0.18,0
0.17473,0.056566,0.57178,-0.56617,-0.97099,-1.0329,0.018175,0,0,0.60679,0.080519,0,0.047255,0,0,0.51054,-0.1073,0,0.52111,-0.56536,-0.97181,-1.0329,2.5655,-0.8567,0.44021,0.0040979,0.42,0.18,0
0.18617,0.055218,0.56115,-0.62548,-0.96699,-1.0389,0.068237,0,0,0.53743,0.093469,0,0.17742,0,0,0.55166,-0.18947,0,0.58239,-0.61235,-0.98012,-1.0389,10.891,-0.87712,0.4004,0.0030589,0.44,0.18,0
0.19622,0.054696,0.54971,-0.70637,-0.98696,-1.0577,0.12899,0,0,0.45675,0.091978,0,0.33538,0,0,0.59468,-0.29002,0,0.66011,-0.65609,-1.0373,-1.0577,21.298,-0.91702,0.3918,0.0030605,0.46,0.18,0
0.20444,0.055081,0.53736,-0.82573,-1.0525,-1.1008,0.24452,0,0,0.35762,0.062851,0,0.63575,0,0,0.70572,-0.43403,0,0.82296,-0.66958,-1.2086,-1.1008,32.563,-0.99301,0.49405,0.005213,0.48,0.18,0
0.21053,0.060581,0.52149,-0.74037,-0.81946,-0.76129,0.29431,0,0,-0.11463,-0.30305,0,1.8407,0,0,0.59159,-0.39405,0,0.72077,-0.48285,-1.077,-0.76129,41.756,-0.77371,0.51652,4.3202e-05,0.5,0.18,0
0.20405,0.08462,0.49295,-0.6782,-0.33932,-0.58254,0.18607,0,0,-0.22108,0.012267,0,1.3587,0,0,0.72424,-0.11708,0,0.73924,-0.2319,-0.78563,-0.58254,54.833,-0.53336,0.4938,0.0088856,0.52,0.18,0
0.20169,0.094128,0.46998,-0.56412,-0.29921,-0.52337,0.084983,0,0,-0.094196,0.0063722,0,0.82736,0,0,0.63354,-0.083374,0,0.64408,-0.24102,-0.62231,-0.52337,57.148,-0.46223,0.35429,0.0045408,0.54,0.18,0
0.20028,0.099935,0.44789,-0.5243,-0.26932,-0.49003,0.058097,0,0,-0.079218,0.0036323,0,0.61619,0,0,0.61482,-0.062237,0,0.62149,-0.22298,-0.57065,-0.49003,57.223,-0.42788,0.32737,0.0039896,0.56,0.18,0
0.19852,0.10296,0.42627,-0.51734,-0.25848,-0.47252,0.040958,0,0,-0.10358,0.0030178,0,0.46816,0,0,0.605,-0.048849,0,0.6094,-0.22074,-0.55507,-0.47252,57.278,-0.41611,0.31337,0.0036621,0.58,0.18,0
0.19613,0.10417,0.40487,-0.51729,-0.24935,-0.45773,0.030223,0,0,-0.13764,0.0037408,0,0.36384,0,0,0.59979,-0.039121,0,0.60274,-0.21789,-0.54875,-0.45773,57.081,-0.40812,0.3074,0.0034717,0.6,0.18,0
0.19301,0.10406,0.38361,-0.5204,-0.24143,-0.44433,0.022416,0,0,-0.1758,0.0050228,0,0.28361,0,0,0.59682,-0.031579,0,0.59879,-0.21519,-0.54663,-0.44433,56.814,-0.40205,0.30524,0.0032769,0.62,0.18,0
0.1891,0.10295,0.36243,-0.5247,-0.23393,-0.43146,0.016428,0,0,-0.21549,0.0063567,0,0.2193,0,0,0.59514,-0.025424,0,0.59645,-0.21225,-0.54638,-0.43146,56.504,-0.39669,0.30559,0.0030431,0.64,0.18,0
0.18439,0.10106,0.34129,-0.52946,-0.22671,-0.41883,0.011577,0,0,-0.25568,0.0074808,0,0.16558,0,0,0.59429,-0.020178,0,0.59513,-0.20916,-0.54701,-0.41883,56.15,-0.39166,0.30765,0.0027525,0.66,0.18,0
0.17888,0.098554,0.32017,-0.5343,-0.21967,-0.40629,0.0074497,0,0,-0.29585,0.0082688,0,0.11889,0,0,0.59401,-0.015508,0,0.59451,-0.20595,-0.54802,-0.40629,55.699,-0.38675,0.31101,0.0023987,0.68,0.18,0
0.17256,0.095559,0.29905,-0.53907,-0.21278,-0.39377,0.0037524,0,0,-0.33581,0.0086948,0,0.076563,0,0,0.59416,-0.011163,0,0.59443,-0.20269,-0.54917,-0.39377,54.987,-0.38188,0.31548,0.0019799,0.7,0.18,0
0.16544,0.092163,0.27792,-0.54376,-0.206,-0.38126,0.00025568,0,0,-0.37556,0.0088085,0,0.036435,0,0,0.5947,-0.0069251,0,0.5948,-0.19939,-0.55037,-0.38126,-36.564,-0.37701,0.32095,0.0014962,0.72,0.18,0
0.15754,0.088434,0.25676,-0.54843,-0.19933,-0.36876,-0.0032375,0,0,-0.41525,0.0087251,0,-0.0033998,0,0,0.59561,-0.00259,0,0.59562,-0.19599,-0.55177,-0.36876,-42.33,-0.37217,0.32747,0.00094736,0.74,0.18,0
0.14883,0.084421,0.23556,-0.55326,-0.19276,-0.35631,-0.0069147,0,0,-0.45517,0.0086262,0,-0.044753,0,0,0.59694,0.0020592,0,0.59694,-0.19091,-0.5551,-0.35631,-64.499,-0.36744,0.33515,0.0003309,0.76,0.18,0
0.13933,0.080157,0.21431,-0.55851,-0.18629,-0.34399,-0.010979,0,0,-0.49577,0.0087731,0,-0.089538,0,0,0.59881,0.0072759,0,0.59889,-0.18373,-0.56107,-0.34399,-71.589,-0.36293,0.34422,-0.00035985,0.78,0.18,0
0.129,0.075664,0.19298,-0.5646,-0.17997,-0.33192,-0.015683,0,0,-0.53775,0.0095403,0,-0.14003,0,0,0.60145,0.01339,0,0.60175,-0.17625,-0.56832,-0.33192,-73.094,-0.35883,0.35503,-0.0011397,0.8,0.18,0
0.11782,0.070947,0.17154,-0.57225,-0.17389,-0.32033,-0.021418,0,0,-0.58221,0.011473,0,-0.19943,0,0,0.60525,0.020877,0,0.60601,-0.16865,-0.57748,-0.32033,-73.46,-0.35549,0.36823,-0.0020384,0.82,0.18,0
0.10571,0.065994,0.14994,-0.58296,-0.16851,-0.30978,-0.028813,0,0,-0.63135,0.015414,0,-0.27249,0,0,0.61107,0.03052,0,0.61265,-0.16127,-0.5902,-0.30978,-73.39,-0.35375,0.38498,-0.0031255,0.84,0.18,0
0.092564,0.060773,0.12809,-0.59977,-0.16448,-0.30133,-0.03963,0,0,-0.68975,0.022664,0,-0.3695,0,0,0.62098,0.043754,0,0.62409,-0.15433,-0.60992,-0.30133,-73.002,-0.35519,0.40814,-0.0045621,0.86,0.18,0
0.078123,0.05512,0.10578,-0.63754,-0.17073,-0.30198,-0.055632,0,0,-0.77551,0.03498,0,-0.50048,0,0,0.63873,0.064484,0,0.64476,-0.15648,-0.65179,-0.30198,-72.64,-0.37008,0.44422,-0.0070576,0.88,0.18,0
0.061544,0.049152,0.082668,-0.72187,-0.18693,-0.31914,-0.10131,0,0,-0.93075,0.054372,0,-0.75731,0,0,0.72157,0.097434,0,0.73148,-0.16068,-0.74812,-0.31914,-70.991,-0.40931,0.52819,-0.013335,0.9,0.18,0
0.040893,0.040078,0.054472,-0.64219,-0.31923,-0.31907,-0.17589,0,0,-0.87179,-0.076046,0,-1.0987,0,0,0.5882,0.35195,0,0.69275,-0.24083,-0.72059,-0.31907,-63.853,-0.42683,0.44583,-0.0093214,0.92,0.18,0
0.029887,0.041198,0.038565,-0.75423,-0.27728,-0.34802,-0.1558,0,0,-0.52807,0.091959,0,-0.40507,0,0,0.72623,0.34864,0,0.79899,-0.2309,-0.80061,-0.34802,-73.422,-0.45984,0.52112,-0.0060489,0.94,0.18,0
0.019771,0.041507,0.025423,-0.67942,-0.22484,-0.2967,-0.098915,0,0,-0.49753,0.093414,0,-0.25718,0,0,0.64816,0.19936,0,0.67615,-0.20425,-0.70001,-0.2967,-78.241,-0.40032,0.45661,-0.0042216,0.96,0.18,0
0.0099856,0.041407,0.012639,-0.64431,-0.19392,-0.26411,-0.04932,0,0,-0.49426,0.091244,0,-0.12823,0,0,0.63557,0.092242,0,0.64096,-0.18858,-0.64965,-0.26411,-83.823,-0.36745,0.42833,-0.0036166,0.98,0.18,0
0,0.041344,0,-0.6202,-0.16692,-0.23614,-0.0012239,0,0,-0.49928,0.089977,0,-0.0031821,0,0,0.63194,4.1633e-17,0,0.63082,-0.16692,-0.6202,-0.23614,-89.845,-0.34109,0.42294,-0.0035375,1,0.18,0
0,0.058767,1,-0.46695,-1.6049,-1.6216,2.3361e-06,0,0,1.501,0.021626,0,6.0739e-06,0,0,0.37537,1.0408e-15,0,0.37489,-0.46695,-1.6049,-1.6216,0.00011762,-1.2311,1.1464,0.077323,0,0.2,0
0.03002,0.058768,0.99249,-0.45032,-1.5931,-1.6055,0.023797,0,0,1.5017,0.016159,0,0.061872,0,0,0.36862,-0.046336,0,0.3711,-0.44982,-1.5936,-1.6055,1.1924,-1.2163,1.1498,0.078037,0.02,0.2,0
0.06007,0.058691,0.98525,-0.43165,-1.5921,-1.5924,0.042738,0,0,1.509,0.00031371,0,0.11112,0,0,0.34795,-0.091623,0,0.35964,-0.43008,-1.5937,-1.5924,2.1062,-1.2054,1.163,0.080788,0.04,0.2,0
0.090379,0.058266,0.97857,-0.40664,-1.5921,-1.5782,0.050482,0,0,1.523,-0.01805,0,0.13125,0,0,0.31287,-0.13266,0,0.34018,-0.40449,-1.5942,-1.5782,2.4341,-1.1923,1.1818,0.084719,0.06,0.2,0
0.12099,0.057144,0.97274,-0.38266,-1.5767,-1.5606,0.047154,0,0,1.5313,-0.021036,0,0.1226,0,0,0.26472,-0.1637,0,0.31234,-0.3808,-1.5786,-1.5606,2.2579,-1.1733,1.1889,0.08624,0.08,0.2,0
0.15163,0.055288,0.96799,-0.328,-0.91117,-0.91624,0.041087,0,0,0.75591,0.011723,0,0.44826,0,0,0.22108,-0.10007,0,0.2518,-0.3076,-0.93156,-0.91624,24.176,-0.71847,0.62077,0.041812,0.1,0.2,0
0.15123,0.066717,0.93528,-0.30227,-0.31999,-0.30359,0.035102,0,0,0.013713,-0.17061,0,0.73012,0,0,0.20054,-0.025149,0,0.20215,-0.27493,-0.34734,-0.30359,37.916,-0.30862,0.063158,-4.548e-06,0.12,0.2,0
0.15218,0.075415,0.90381,-0.29273,-0.32553,-0.29845,0.027802,0,0,0.059562,-0.2816,0,0.57829,0,0,0.19311,-0.02528,0,0.19479,-0.27685,-0.34141,-0.29845,29.731,-0.30557,0.056921,-5.0792e-06,0.14,0.2,0
0.15361,0.081274,0.87348,-0.28606,-0.32498,-0.2925,0.020573,0,0,0.066967,-0.33784,0,0.42792,0,0,0.18688,-0.023176,0,0.18833,-0.2772,-0.33384,-0.2925,23.295,-0.30118,0.05075,-4.7144e-06,0.16,0.2,0
0.15486,0.08475,0.84401,-0.28193,-0.32137,-0.28649,0.014438,0,0,0.047433,-0.36273,0,0.30031,0,0,0.18244,-0.019672,0,0.1835,-0.27721,-0.32609,-0.28649,18.105,-0.2966,0.044964,-4.0065e-06,0.18,0.2,0
0.15551,0.086378,0.8151,-0.27966,-0.31603,-0.2806,0.0093276,0,0,0.009693,-0.36854,0,0.19401,0,0,0.18,-0.015469,0,0.18065,-0.27741,-0.31828,-0.2806,13.578,-0.2921,0.039378,-3.067e-06,0.2,0.2,0
0.15524,0.08656,0.78641,-0.27899,-0.30945,-0.27483,0.0049186,0,0,-0.043252,-0.36001,0,0.10231,0,0,0.17953,-0.010958,0,0.17985,-0.27822,-0.31023,-0.27483,8.9499,-0.28776,0.033826,-1.9208e-06,0.22,0.2,0
0.15378,0.085551,0.75765,-0.2799,-0.30176,-0.2692,0.00094666,0,0,-0.1112,-0.33862,0,0.019691,0,0,0.18101,-0.0063623,0,0.18112,-0.27986,-0.3018,-0.2692,2.4742,-0.28362,0.028792,-6.8455e-07,0.24,0.2,0
0.1508,0.083474,0.72849,-0.28245,-0.29294,-0.26368,-0.0028077,0,0,-0.1952,-0.30436,0,-0.058399,0,0,0.18449,-0.0019064,0,0.1845,-0.28175,-0.29365,-0.26368,-14.074,-0.27969,0.026136,3.1828e-07,0.26,0.2,0
0.14597,0.080327,0.69861,-0.28685,-0.28275,-0.25821,-0.0065635,0,0,-0.2979,-0.25525,0,-0.13652,0,0,0.18999,0.0020092,0,0.19003,-0.27792,-0.29168,-0.25821,-53.674,-0.27594,0.029139,3.847e-07,0.28,0.2,0
0.13888,0.075973,0.66769,-0.2936,-0.27046,-0.25268,-0.010381,0,0,-0.42555,-0.18492,0,-0.21592,0,0,0.1974,0.0046521,0,0.1975,-0.26649,-0.29757,-0.25268,-69.049,-0.27225,0.039827,-1.9791e-06,0.3,0.2,0
0.12895,0.070267,0.63545,-0.3029,-0.25409,-0.24653,-0.013639,0,0,-0.58627,-0.078631,0,-0.28369,0,0,0.20616,0.0051075,0,0.20627,-0.25054,-0.30645,-0.24653,-75.401,-0.26784,0.058024,-9.8722e-06,0.32,0.2,0
0.11543,0.063377,0.60172,-0.31861,-0.57354,-0.60611,-0.011116,0,0,0.078082,0.075283,0,-0.15481,0,0,0.23129,0.01199,0,0.23314,-0.28116,-0.61099,-0.60611,-40.172,-0.49942,0.3431,0.0057365,0.34,0.2,0
0.13207,0.061806,0.59669,-0.37273,-0.99406,-1.0067,-0.00063873,0,0,0.82419,0.016465,0,-0.0016607,0,0,0.28587,0.0059231,0,0.28792,-0.37273,-0.99406,-1.0067,-0.058901,-0.79117,0.62775,0.012688,0.36,0.2,0
0.1484,0.060413,0.59029,-0.40491,-1.0177,-1.0171,0.01145,0,0,0.79582,-0.00082542,0,0.02977,0,0,0.34856,-0.02985,0,0.35058,-0.40469,-1.0179,-1.0171,1.07,-0.81323,0.6128,0.011819,0.38,0.2,0
0.1639,0.058921,0.58274,-0.44437,-1.0173,-1.0212,0.03117,0,0,0.74993,0.0051609,0,0.081043,0,0,0.39903,-0.08038,0,0.40697,-0.44267,-1.019,-1.0212,3.1051,-0.82762,0.57742,0.0098873,0.4,0.2,0
0.17839,0.05748,0.57433,-0.48394,-1.0116,-1.023,0.06395,0,0,0.70077,0.0148,0,0.16627,0,0,0.43608,-0.14221,0,0.45808,-0.4763,-1.0192,-1.023,6.8125,-0.83951,0.54483,0.0083049,0.42,0.2,0
0.19193,0.056321,0.5653,-0.51567,-1.0129,-1.0239,0.10891,0,0,0.66068,0.014227,0,0.28317,0,0,0.4594,-0.21662,0,0.5068,-0.49287,-1.0357,-1.0239,11.828,-0.85083,0.53705,0.0079424,0.44,0.2,0
0.20482,0.055509,0.55595,-0.52074,-1.029,-1.0209,0.17102,0,0,0.65016,-0.010543,0,0.44464,0,0,0.46683,-0.31217,0,0.55953,-0.46855,-1.0812,-1.0209,16.97,-0.85686,0.58479,0.0099043,0.46,0.2,0
0.21794,0.055336,0.54663,-0.3833,-1.0488,-0.97626,0.21063,0,0,0.77084,-0.09431,0,0.54762,0,0,0.38522,-0.4519,0,0.58998,-0.32225,-1.1099,-0.97626,16.166,-0.80279,0.73005,0.017749,0.48,0.2,0
0.23566,0.050184,0.54054,-0.32561,-0.81467,-0.64614,0.18375,0,0,0.23326,-0.3895,0,1.3489,0,0,0.25243,-0.40559,0,0.49999,-0.24189,-0.89839,-0.64614,29.962,-0.59547,0.58008,0.013613,0.5,0.2,0
0.22727,0.070727,0.50845,-0.25969,-0.28265,-0.22626,0.082363,0,0,-0.34767,-0.58649,0,1.7131,0,0,0.18442,-0.083091,0,0.20264,-0.18801,-0.35433,-0.22626,41.032,-0.2562,0.15088,-0.00013891,0.52,0.2,0
0.22175,0.081098,0.48153,-0.23514,-0.26674,-0.21075,0.060496,0,0,-0.25358,-0.58225,0,1.2583,0,0,0.16077,-0.066508,0,0.17397,-0.18841,-0.31346,-0.21075,37.681,-0.23754,0.11551,-6.9285e-05,0.54,0.2,0
0.21713,0.086985,0.457,-0.22216,-0.2573,-0.20096,0.047162,0,0,-0.22043,-0.58588,0,0.98098,0,0,0.14975,-0.053872,0,0.15911,-0.1894,-0.29006,-0.20096,34.784,-0.2268,0.095403,-4.2396e-05,0.56,0.2,0
0.21293,0.090374,0.43361,-0.21311,-0.24843,-0.19266,0.037559,0,0,-0.21263,-0.58001,0,0.78122,0,0,0.14422,-0.044063,0,0.15076,-0.18927,-0.27228,-0.19266,32.407,-0.21807,0.081364,-2.7502e-05,0.58,0.2,0
0.20862,0.09196,0.41086,-0.20739,-0.24053,-0.18573,0.029998,0,0,-0.22519,-0.56994,0,0.62396,0,0,0.14094,-0.036244,0,0.1455,-0.18969,-0.25823,-0.18573,30.539,-0.21122,0.070605,-1.7886e-05,0.6,0.2,0
0.20392,0.092232,0.38851,-0.20343,-0.2331,-0.17952,0.023914,0,0,-0.24863,-0.55721,0,0.4974,0,0,0.13889,-0.029823,0,0.14204,-0.19012,-0.24641,-0.17952,29.093,-0.20535,0.062264,-1.1196e-05,0.62,0.2,0
0.19868,0.091499,0.36641,-0.20053,-0.22595,-0.17375,0.018856,0,0,-0.27857,-0.54293,0,0.3922,0,0,0.13757,-0.024391,0,0.1397,-0.1905,-0.23598,-0.17375,28.009,-0.20008,0.055777,-6.2756e-06,0.64,0.2,0
0.19278,0.089982,0.34448,-0.19831,-0.21899,-0.16825,0.01453,0,0,-0.31257,-0.52773,0,0.30223,0,0,0.13675,-0.019649,0,0.13814,-0.19081,-0.22648,-0.16825,27.276,-0.19518,0.050857,-2.5542e-06,0.66,0.2,0
0.18617,0.087841,0.32265,-0.19654,-0.21217,-0.16294,0.010714,0,0,-0.34937,-0.51194,0,0.22284,0,0,0.1363,-0.015364,0,0.13715,-0.19109,-0.21761,-0.16294,26.944,-0.19055,0.047353,2.8055e-07,0.68,0.2,0
0.17881,0.0852,0.30087,-0.19512,-0.20544,-0.15777,0.0072285,0,0,-0.38834,-0.49571,0,0.15035,0,0,0.13615,-0.01134,0,0.13661,-0.1914,-0.20916,-0.15777,27.235,-0.18611,0.045201,2.3934e-06,0.7,0.2,0
0.17064,0.08215,0.27908,-0.19399,-0.19878,-0.15272,0.0039245,0,0,-0.42928,-0.47903,0,0.081629,0,0,0.13626,-0.0074031,0,0.13645,-0.19179,-0.20098,-0.15272,29.321,-0.18183,0.044388,3.8507e-06,0.72,0.2,0
0.16164,0.078764,0.25726,-0.19317,-0.19216,-0.14776,0.00066807,0,0,-0.47232,-0.46177,0,0.013896,0,0,0.13665,-0.0033845,0,0.13668,-0.19183,-0.1935,-0.14776,63.605,-0.1777,0.044932,4.637e-06,0.74,0.2,0
0.15175,0.075096,0.23536,-0.1927,-0.18556,-0.14289,-0.0026652,0,0,-0.51792,-0.44368,0,-0.055437,0,0,0.13733,0.00089229,0,0.13732,-0.18467,-0.19358,-0.14289,-71.624,-0.17372,0.04687,4.6508e-06,0.76,0.2,0
0.14092,0.071187,0.21332,-0.19266,-0.17895,-0.13815,-0.0061988,0,0,-0.56694,-0.42434,0,-0.12894,0,0,0.13838,0.0056262,0,0.13848,-0.17656,-0.19505,-0.13815,-68.941,-0.16992,0.050274,3.6773e-06,0.78,0.2,0
0.12907,0.067069,0.19107,-0.19326,-0.17231,-0.13355,-0.010065,0,0,-0.62091,-0.40305,0,-0.20935,0,0,0.13992,0.011057,0,0.14034,-0.16826,-0.19731,-0.13355,-68.071,-0.16637,0.055286,1.3259e-06,0.8,0.2,0
0.11608,0.062768,0.16854,-0.19483,-0.16562,-0.1292,-0.014414,0,0,-0.68252,-0.37876,0,-0.29982,0,0,0.14218,0.017497,0,0.14323,-0.15971,-0.20075,-0.1292,-67.687,-0.16322,0.062181,-3.108e-06,0.82,0.2,0
0.10177,0.058303,0.14558,-0.19802,-0.1589,-0.12527,-0.019443,0,0,-0.75654,-0.34976,0,-0.40442,0,0,0.14564,0.025376,0,0.1478,-0.15088,-0.20604,-0.12527,-67.584,-0.16073,0.071487,-1.097e-05,0.84,0.2,0
0.08582,0.053676,0.12194,-0.20417,-0.15235,-0.1222,-0.025328,0,0,-0.85254,-0.31356,0,-0.52683,0,0,0.1513,0.035326,0,0.15533,-0.14203,-0.2145,-0.1222,-67.827,-0.15957,0.084154,-2.4976e-05,0.86,0.2,0
0.067667,0.048919,0.097158,-0.21498,-0.14598,-0.12043,-0.032482,0,0,-0.98332,-0.26566,0,-0.67563,0,0,0.16229,0.04828,0,0.1693,-0.13309,-0.22787,-0.12043,-68.364,-0.16046,0.1017,-5.1209e-05,0.88,0.2,0
0.046487,0.04378,0.070001,-0.23517,-0.1428,-0.12214,-0.042341,0,0,-1.1755,-0.21486,0,-0.88069,0,0,0.18607,0.065617,0,0.19764,-0.12633,-0.25164,-0.12214,-68.743,-0.1667,0.12746,-0.00010595,0.9,0.2,0
0.020648,0.036611,0.037616,-0.25627,-0.21459,-0.16242,-0.10861,0,0,-0.68724,-0.12058,0,-0.74021,0,0,0.25976,0.33979,0,0.44968,-0.11389,-0.35696,-0.16242,-55.803,-0.21109,0.22396,-0.00057607,0.92,0.2,0
0.018998,0.041691,0.031273,-0.34204,-0.25401,-0.21009,-0.12525,0,0,-0.17153,-0.0571,0,-0.32565,0,0,0.40859,0.3404,0,0.52796,-0.16527,-0.43078,-0.21009,-54.681,-0.26871,0.24618,-0.00068147,0.94,0.2,0
0.013787,0.042224,0.021272,-0.46084,-0.24983,-0.23447,-0.10098,0,0,-0.29427,-0.01997,0,-0.26255,0,0,0.51334,0.19603,0,0.54728,-0.2093,-0.50138,-0.23447,-68.127,-0.31505,0.28034,-0.0011008,0.96,0.2,0
0.0072268,0.042291,0.01074,-0.49408,-0.23328,-0.22895,-0.050315,0,0,-0.34467,-0.0056302,0,-0.13082,0,0,0.53179,0.090898,0,0.53805,-0.22391,-0.50345,-0.22895,-79.451,-0.31877,0.27706,-0.0010911,0.98,0.2,0
0,0.042246,0,-0.48741,-0.21078,-0.20946,-0.00086434,0,0,-0.36134,-0.0017209,0,-0.0022473,0,0,0.53699,2.0817e-17,0,0.53572,-0.21078,-0.48741,-0.20946,-89.821,-0.30255,0.2773,-0.001095,1,0.2,0
0,0.058737,1,-0.41858,-1.6254,-1.6132,-0.0015405,0,0,1.553,-0.015895,0,-0.0040053,0,0,0.33553,-2.0123e-16,0,0.33524,-0.41857,-1.6254,-1.6132,-0.073136,-1.2191,1.2008,0.088894,0,0.22,0
0.03106,0.058657,0.99329,-0.40588,-1.6131,-1.599,0.012839,0,0,1.551,-0.018345,0,0.033381,0,0,0.32969,-0.033992,0,0.33121,-0.40574,-1.6132,-1.599,0.60926,-1.206,1.2004,0.088803,0.02,0.22,0
0.062041,0.058384,0.98681,-0.39467,-1.6052,-1.5868,0.022378,0,0,1.5497,-0.023925,0,0.058184,0,0,0.3123,-0.066182,0,0.3192,-0.39425,-1.6056,-1.5868,1.0587,-1.1955,1.202,0.089127,0.04,0.22,0
0.093049,0.057793,0.9808,-0.3801,-1.5932,-1.5728,0.026229,0,0,1.5505,-0.026549,0,0.068196,0,0,0.28407,-0.094039,0,0.29955,-0.37953,-1.5938,-1.5728,1.2381,-1.182,1.2039,0.089525,0.06,0.22,0
0.12406,0.056798,0.97545,-0.36543,-1.5688,-1.5557,0.026347,0,0,1.5474,-0.017006,0,0.068503,0,0,0.24696,-0.11424,0,0.27285,-0.36486,-1.5694,-1.5557,1.2537,-1.1633,1.1978,0.088213,0.08,0.22,0
0.15494,0.055547,0.97092,-0.32287,-0.91243,-0.91673,0.027305,0,0,0.7717,0.0099463,0,0.31165,0,0,0.21414,-0.069577,0,0.23061,-0.30905,-0.92624,-0.91673,23.461,-0.71734,0.6154,0.042726,0.1,0.22,0
0.15493,0.063833,0.93864,-0.29924,-0.3138,-0.30124,0.025357,0,0,0.020821,-0.13059,0,0.52743,0,0,0.1989,-0.018013,0,0.19973,-0.28014,-0.3329,-0.30124,36.991,-0.30476,0.045998,-1.6903e-06,0.12,0.22,0
0.15578,0.070416,0.90727,-0.29174,-0.31868,-0.29653,0.020951,0,0,0.04986,-0.23029,0,0.43577,0,0,0.19341,-0.018888,0,0.19435,-0.2803,-0.33011,-0.29653,28.632,-0.30232,0.044003,-2.4538e-06,0.14,0.22,0
0.15692,0.075073,0.87675,-0.2862,-0.31918,-0.2912,0.016089,0,0,0.052095,-0.2909,0,0.33464,0,0,0.18871,-0.018279,0,0.1896,-0.27965,-0.32572,-0.2912,22.147,-0.29886,0.041523,-2.7391e-06,0.16,0.22,0
0.15786,0.077975,0.84689,-0.28257,-0.31661,-0.28562,0.01174,0,0,0.031653,-0.32236,0,0.2442,0,0,0.18527,-0.016584,0,0.18602,-0.27892,-0.32027,-0.28562,17.299,-0.29493,0.038443,-2.6216e-06,0.18,0.22,0
0.15819,0.079433,0.81746,-0.2806,-0.31204,-0.27997,0.0081314,0,0,-0.0064928,-0.33347,0,0.16913,0,0,0.18337,-0.014215,0,0.18392,-0.27862,-0.31401,-0.27997,13.676,-0.29087,0.03474,-2.1423e-06,0.2,0.22,0
0.1576,0.079746,0.78821,-0.28004,-0.30598,-0.27433,0.0051627,0,0,-0.059351,-0.32912,0,0.10738,0,0,0.18312,-0.011504,0,0.18348,-0.27905,-0.30696,-0.27433,10.853,-0.28678,0.030552,-1.3477e-06,0.22,0.22,0
0.15582,0.07913,0.75886,-0.28081,-0.29863,-0.26869,0.002659,0,0,-0.1261,-0.31135,0,0.055307,0,0,0.18455,-0.0087097,0,0.18475,-0.28043,-0.29902,-0.26869,8.3112,-0.28271,0.026486,-3.6215e-07,0.24,0.22,0
0.15256,0.077708,0.72915,-0.28298,-0.28998,-0.26303,0.00045715,0,0,-0.20744,-0.28026,0,0.0095087,0,0,0.18763,-0.0060988,0,0.18773,-0.28295,-0.29001,-0.26303,3.7196,-0.27866,0.024231,5.2694e-07,0.26,0.22,0
0.14752,0.07552,0.69882,-0.28668,-0.27978,-0.25729,-0.001543,0,0,-0.30561,-0.23392,0,-0.032094,0,0,0.19225,-0.0040258,0,0.19231,-0.27945,-0.28701,-0.25729,-77.942,-0.27458,0.026751,7.254e-07,0.28,0.22,0
0.14033,0.072551,0.66763,-0.29209,-0.26743,-0.25131,-0.0032336,0,0,-0.42409,-0.16764,0,-0.067259,0,0,0.19817,-0.0029539,0,0.19822,-0.26701,-0.2925,-0.25131,-82.652,-0.27027,0.036011,-9.5407e-07,0.3,0.22,0
0.13056,0.068833,0.6354,-0.29922,-0.25208,-0.24481,-0.0040034,0,0,-0.56578,-0.07555,0,-0.083271,0,0,0.20492,-0.0033751,0,0.20497,-0.25174,-0.29955,-0.24481,-85.18,-0.26537,0.051626,-6.6399e-06,0.32,0.22,0
0.1177,0.064613,0.60206,-0.31326,-0.59125,-0.61001,0.0029574,0,0,0.10461,0.043348,0,-0.017604,0,0,0.22379,-0.025345,0,0.22672,-0.28016,-0.62436,-0.61001,-43.395,-0.50484,0.35181,0.0066469,0.34,0.22,0
0.13474,0.062002,0.59727,-0.35259,-1.0061,-1.0049,0.024244,0,0,0.84797,-0.0015757,0,0.063034,0,0,0.26486,-0.055895,0,0.27188,-0.35169,-1.007,-1.0049,2.1217,-0.78785,0.65424,0.014382,0.36,0.22,0
0.15162,0.060145,0.59146,-0.37168,-1.0324,-1.0127,0.044885,0,0,0.83332,-0.025642,0,0.1167,0,0,0.31223,-0.080977,0,0.32306,-0.36864,-1.0354,-1.0127,3.8685,-0.80559,0.65572,0.014422,0.38,0.22,0
0.16807,0.058581,0.58478,-0.39298,-1.0418,-1.0152,0.065722,0,0,0.80892,-0.034578,0,0.17088,0,0,0.3498,-0.1183,0,0.3692,-0.38639,-1.0484,-1.0152,5.7261,-0.81668,0.64607,0.013727,0.4,0.22,0
0.18398,0.057158,0.57747,-0.41023,-1.0449,-1.014,0.091859,0,0,0.78491,-0.040148,0,0.23883,0,0,0.37431,-0.16642,0,0.40914,-0.3972,-1.0579,-1.014,8.0722,-0.82304,0.63989,0.013243,0.42,0.22,0
0.19947,0.055787,0.56981,-0.41267,-1.0518,-1.0092,0.12347,0,0,0.77544,-0.055482,0,0.32102,0,0,0.3817,-0.22589,0,0.44269,-0.38965,-1.0749,-1.0092,10.562,-0.82456,0.65484,0.013934,0.44,0.22,0
0.21499,0.054274,0.5622,-0.37703,-1.0698,-0.99626,0.14899,0,0,0.80501,-0.095658,0,0.38739,0,0,0.3594,-0.29944,0,0.46685,-0.34634,-1.1005,-0.99626,11.636,-0.81438,0.70784,0.01689,0.46,0.22,0
0.23167,0.051309,0.55544,-0.34961,-1.1502,-1.0054,0.14525,0,0,0.8525,-0.18826,0,0.37765,0,0,0.29684,-0.38999,0,0.49128,-0.32407,-1.1757,-1.0054,9.9719,-0.83506,0.78055,0.020557,0.48,0.22,0
0.2491,0.045001,0.55033,-0.28667,-0.69449,-0.60391,0.090958,0,0,0.24971,-0.20936,0,0.8573,0,0,0.22392,-0.24107,0,0.34975,-0.24079,-0.74037,-0.60391,27.958,-0.52836,0.45538,0.010473,0.5,0.22,0
0.24166,0.06116,0.51953,-0.24868,-0.25694,-0.21663,0.061514,0,0,-0.33338,-0.41922,0,1.2795,0,0,0.18457,-0.05953,0,0.19415,-0.19116,-0.31446,-0.21663,43.081,-0.24075,0.11275,-6.1139e-05,0.52,0.22,0
0.23576,0.070838,0.49127,-0.23539,-0.25307,-0.20794,0.048047,0,0,-0.2854,-0.46927,0,0.99938,0,0,0.17001,-0.054527,0,0.17863,-0.19537,-0.29308,-0.20794,39.788,-0.23213,0.092067,-3.7574e-05,0.54,0.22,0
0.23024,0.0765,0.46513,-0.22658,-0.24699,-0.20021,0.038704,0,0,-0.27422,-0.48649,0,0.80504,0,0,0.15907,-0.046889,0,0.16586,-0.19676,-0.27681,-0.20021,37.614,-0.22459,0.078383,-2.4572e-05,0.56,0.22,0
0.22479,0.079755,0.44037,-0.21967,-0.24088,-0.19321,0.031577,0,0,-0.27518,-0.49574,0,0.65681,0,0,0.15207,-0.03968,0,0.15716,-0.19696,-0.26358,-0.19321,35.719,-0.21792,0.068574,-1.6394e-05,0.58,0.22,0
0.21923,0.081375,0.41647,-0.2141,-0.23451,-0.18664,0.025713,0,0,-0.2856,-0.4978,0,0.53482,0,0,0.14753,-0.033358,0,0.15124,-0.19664,-0.25197,-0.18664,34.179,-0.21175,0.060944,-1.0578e-05,0.6,0.22,0
0.21337,0.081772,0.39316,-0.20985,-0.22812,-0.18054,0.020723,0,0,-0.30483,-0.49492,0,0.43105,0,0,0.14448,-0.027888,0,0.14713,-0.19634,-0.24163,-0.18054,33.101,-0.20617,0.05493,-6.1977e-06,0.62,0.22,0
0.20704,0.08123,0.37024,-0.20656,-0.22172,-0.17476,0.016418,0,0,-0.33072,-0.48832,0,0.3415,0,0,0.14243,-0.023112,0,0.14428,-0.19606,-0.23222,-0.17476,32.613,-0.20102,0.050314,-2.8156e-06,0.64,0.22,0
0.20014,0.079948,0.34758,-0.20403,-0.21529,-0.16924,0.012637,0,0,-0.36174,-0.47891,0,0.26284,0,0,0.14109,-0.018859,0,0.14234,-0.19582,-0.22349,-0.16924,32.987,-0.19619,0.046986,-1.8543e-07,0.66,0.22,0
0.19257,0.078076,0.32509,-0.20207,-0.20883,-0.16391,0.0092455,0,0,-0.39691,-0.46722,0,0.19231,0,0,0.14031,-0.014968,0,0.1411,-0.19561,-0.21529,-0.16391,34.958,-0.1916,0.044907,1.8217e-06,0.68,0.22,0
0.18426,0.07573,0.30268,-0.20061,-0.20233,-0.15872,0.0061254,0,0,-0.43569,-0.45357,0,0.12741,0,0,0.14,-0.01129,0,0.14044,-0.19528,-0.20766,-0.15872,41.005,-0.18722,0.044075,3.2574e-06,0.7,0.22,0
0.17514,0.073002,0.28029,-0.1996,-0.19578,-0.15365,0.0031697,0,0,-0.47792,-0.43811,0,0.06593,0,0,0.14011,-0.0076834,0,0.14031,-0.19399,-0.20139,-0.15365,60.563,-0.18301,0.044504,4.1078e-06,0.72,0.22,0
0.16514,0.069963,0.25784,-0.19906,-0.18915,-0.14869,0.00028343,0,0,-0.52376,-0.4208,0,0.0058954,0,0,0.14065,-0.0040107,0,0.1407,-0.18915,-0.19906,-0.14869,88.362,-0.17897,0.046217,4.2938e-06,0.74,0.22,0
0.15419,0.066674,0.23528,-0.19901,-0.18246,-0.14385,-0.0026163,0,0,-0.57371,-0.40148,0,-0.05442,0,0,0.14167,-0.00012916,0,0.14166,-0.18205,-0.19942,-0.14385,-81.232,-0.17511,0.049237,3.6589e-06,0.76,0.22,0
0.1422,0.063184,0.21251,-0.19958,-0.17565,-0.13914,-0.0055978,0,0,-0.62867,-0.37979,0,-0.11643,0,0,0.14324,0.0041148,0,0.14328,-0.17441,-0.20083,-0.13914,-77.464,-0.17146,0.053611,1.9426e-06,0.78,0.22,0
0.12905,0.059542,0.18944,-0.20094,-0.16873,-0.13458,-0.008708,0,0,-0.69014,-0.35511,0,-0.18113,0,0,0.14553,0.0088911,0,0.14579,-0.16652,-0.20314,-0.13458,-75.802,-0.16808,0.059423,-1.2703e-06,0.8,0.22,0
0.11459,0.055796,0.16594,-0.20336,-0.16164,-0.13024,-0.011963,0,0,-0.76043,-0.32649,0,-0.24882,0,0,0.14882,0.014385,0,0.1495,-0.15845,-0.20655,-0.13024,-75.085,-0.16508,0.066826,-6.6412e-06,0.82,0.22,0
0.098629,0.052004,0.14182,-0.20726,-0.15436,-0.12621,-0.015312,0,0,-0.8429,-0.2927,0,-0.3185,0,0,0.15362,0.020776,0,0.15502,-0.15024,-0.21137,-0.12621,-74.967,-0.16261,0.076048,-1.5217e-05,0.84,0.22,0
0.080875,0.04823,0.11678,-0.21301,-0.1468,-0.12254,-0.018641,0,0,-0.94087,-0.2523,0,-0.38773,0,0,0.1609,0.028147,0,0.16336,-0.14191,-0.2179,-0.12254,-75.308,-0.16078,0.087297,-2.8577e-05,0.86,0.22,0
0.060994,0.044494,0.090334,-0.22085,-0.13914,-0.11929,-0.021835,0,0,-1.0563,-0.20643,0,-0.45416,0,0,0.17223,0.036131,0,0.17607,-0.13367,-0.22632,-0.11929,-75.94,-0.15976,0.10062,-4.8732e-05,0.88,0.22,0
0.038624,0.040557,0.061671,-0.23077,-0.1312,-0.1163,-0.025529,0,0,-1.1905,-0.15495,0,-0.53099,0,0,0.18758,0.041901,0,0.19245,-0.12503,-0.23693,-0.1163,-76.426,-0.15942,0.11651,-7.9696e-05,0.9,0.22,0
0.013374,0.035255,0.030309,-0.24111,-0.16708,-0.1395,-0.032407,0,0,-0.68443,-0.063724,0,-0.32406,0,0,0.23201,0.16674,0,0.30082,-0.1515,-0.25668,-0.1395,-67.13,-0.18256,0.11227,-7.1768e-05,0.92,0.22,0
0.011247,0.038914,0.024949,-0.29925,-0.31343,-0.20875,-0.058311,0,0,-0.11765,-0.13608,0,-0.15161,0,0,0.31819,0.25713,0,0.41174,-0.2476,-0.36508,-0.20875,-41.534,-0.27381,0.14098,-0.00010791,0.94,0.22,0
0.0086686,0.040708,0.017582,-0.32621,-0.28487,-0.20091,-0.057948,0,0,-0.1629,-0.10916,0,-0.15067,0,0,0.39866,0.1619,0,0.42934,-0.24402,-0.36707,-0.20091,-54.815,-0.27066,0.14935,-0.00012424,0.96,0.22,0
0.0047315,0.041182,0.0090028,-0.36705,-0.27077,-0.20035,-0.035,0,0,-0.21671,-0.091545,0,-0.090999,0,0,0.43955,0.077653,0,0.44522,-0.25939,-0.37843,-0.20035,-71.991,-0.27939,0.15711,-0.00010855,0.98,0.22,0
0,0.041275,0,-0.36791,-0.25186,-0.18593,0.0017832,0,0,-0.23657,-0.085709,0,0.0046364,0,0,0.45014,3.4694e-17,0,0.44902,-0.25183,-0.36794,-0.18593,89.12,-0.26857,0.15961,-9.5276e-05,1,0.22,0
0,0.058132,1,-0.38778,-1.6367,-1.6074,-0.0018824,0,0,1.5855,-0.038204,0,-0.0048944,0,0,0.30739,3.623e-15,0,0.30724,-0.38778,-1.6367,-1.6074,-0.086356,-1.2106,1.2345,0.096451,0,0.24,0
0.031709,0.058034,0.99385,-0.37765,-1.6236,-1.5942,0.005928,0,0,1.5816,-0.038168,0,0.015413,0,0,0.30244,-0.023108,0,0.30322,-0.37762,-1.6236,-1.5942,0.2726,-1.1985,1.2316,0.095754,0.02,0.24,0
0.063262,0.057734,0.9879,-0.37151,-1.6112,-1.5827,0.010375,0,0,1.5746,-0.037045,0,0.026975,0,0,0.28791,-0.044689,0,0.2914,-0.37142,-1.6113,-1.5827,0.47945,-1.1885,1.2258,0.094434,0.04,0.24,0
0.094692,0.057204,0.98234,-0.3634,-1.5937,-1.5695,0.012594,0,0,1.5679,-0.03146,0,0.032744,0,0,0.26481,-0.063009,0,0.27248,-0.36327,-1.5938,-1.5695,0.58645,-1.1755,1.2185,0.0928,0.06,0.24,0
0.12598,0.056464,0.97731,-0.35468,-1.5679,-1.5541,0.014554,0,0,1.5592,-0.017966,0,0.037841,0,0,0.23506,-0.076211,0,0.24764,-0.3545,-1.5681,-1.5541,0.68721,-1.1589,1.2066,0.090191,0.08,0.24,0
0.15706,0.055685,0.97293,-0.31944,-0.91687,-0.91817,0.017834,0,0,0.78696,0.0030034,0,0.2105,0,0,0.20908,-0.046536,0,0.21707,-0.31068,-0.92562,-0.91817,22.286,-0.71816,0.61305,0.0438,0.1,0.24,0
0.15746,0.061493,0.94104,-0.29656,-0.31035,-0.2997,0.01766,0,0,0.032684,-0.11072,0,0.36733,0,0,0.19711,-0.0127,0,0.19753,-0.2845,-0.32241,-0.2997,34.337,-0.3022,0.03305,-6.2056e-07,0.12,0.24,0
0.15837,0.066204,0.90986,-0.29039,-0.31435,-0.29516,0.015097,0,0,0.049541,-0.19964,0,0.31402,0,0,0.19285,-0.014047,0,0.19337,-0.2831,-0.32164,-0.29516,25.784,-0.29997,0.034153,-1.2197e-06,0.14,0.24,0
0.15944,0.069638,0.87933,-0.28559,-0.31518,-0.29015,0.012102,0,0,0.0474,-0.26034,0,0.25173,0,0,0.18918,-0.014459,0,0.18974,-0.28127,-0.3195,-0.29015,19.641,-0.29697,0.034654,-1.6739e-06,0.16,0.24,0
0.16026,0.071856,0.84932,-0.2823,-0.31333,-0.28485,0.0093426,0,0,0.026588,-0.29616,0,0.19433,0,0,0.18651,-0.014125,0,0.18704,-0.2797,-0.31593,-0.28485,15.526,-0.29349,0.033943,-1.8535e-06,0.18,0.24,0
0.1605,0.073039,0.81965,-0.28042,-0.30941,-0.27941,0.0070942,0,0,-0.010518,-0.3121,0,0.14756,0,0,0.18508,-0.013276,0,0.18555,-0.27877,-0.31106,-0.27941,13.036,-0.28974,0.031972,-1.6763e-06,0.2,0.24,0
0.15984,0.073395,0.79009,-0.27981,-0.30387,-0.27387,0.0053796,0,0,-0.06183,-0.31204,0,0.1119,0,0,0.18503,-0.012135,0,0.18543,-0.27866,-0.30502,-0.27387,12.047,-0.28585,0.029052,-1.1445e-06,0.22,0.24,0
0.15803,0.073096,0.76044,-0.2804,-0.2969,-0.26825,0.0041201,0,0,-0.12642,-0.29803,0,0.085697,0,0,0.18642,-0.010907,0,0.18674,-0.27943,-0.29788,-0.26825,13.268,-0.28185,0.025915,-3.6578e-07,0.24,0.24,0
0.15479,0.072264,0.73044,-0.28219,-0.28851,-0.26252,0.003227,0,0,-0.20463,-0.27036,0,0.067121,0,0,0.18917,-0.0098063,0,0.18943,-0.28084,-0.28987,-0.26252,22.798,-0.27774,0.024139,3.9627e-07,0.26,0.24,0
0.14984,0.070971,0.6999,-0.28524,-0.27851,-0.25661,0.0026721,0,0,-0.29773,-0.2277,0,0.055579,0,0,0.19314,-0.0090823,0,0.19337,-0.27757,-0.28617,-0.25661,70.78,-0.27345,0.026335,6.1221e-07,0.28,0.24,0
0.14288,0.069267,0.66864,-0.28957,-0.26654,-0.25041,0.0025892,0,0,-0.40721,-0.16775,0,0.053854,0,0,0.19805,-0.0090198,0,0.19827,-0.26626,-0.28986,-0.25041,83.663,-0.26884,0.034378,-6.9439e-07,0.3,0.24,0
0.13355,0.067245,0.63653,-0.29503,-0.25234,-0.24378,0.0033734,0,0,-0.53303,-0.089045,0,0.070166,0,0,0.20348,-0.0098972,0,0.20374,-0.25207,-0.29529,-0.24378,85.51,-0.26371,0.047911,-5.0823e-06,0.32,0.24,0
0.12156,0.065111,0.60352,-0.30842,-0.61384,-0.61616,0.012302,0,0,0.13763,0.0053576,0,0.080854,0,0,0.21819,-0.053646,0,0.22827,-0.2788,-0.64346,-0.61616,43.209,-0.51281,0.36531,0.0077847,0.34,0.24,0
0.13906,0.061743,0.59892,-0.33686,-1.0287,-1.0086,0.038044,0,0,0.87324,-0.02612,0,0.098914,0,0,0.24995,-0.10297,0,0.27105,-0.33478,-1.0308,-1.0086,3.1382,-0.79137,0.68517,0.016462,0.36,0.24,0
0.15649,0.059387,0.59353,-0.34584,-1.0508,-1.0125,0.062764,0,0,0.86666,-0.049719,0,0.16319,0,0,0.28616,-0.12017,0,0.31069,-0.3403,-1.0563,-1.0125,5.0486,-0.80303,0.69514,0.017021,0.38,0.24,0
0.17372,0.057538,0.58748,-0.35367,-1.0629,-1.0124,0.083043,0,0,0.85639,-0.065547,0,0.21591,0,0,0.31358,-0.14617,0,0.34594,-0.34407,-1.0724,-1.0124,6.5903,-0.80965,0.7003,0.017203,0.4,0.24,0
0.19074,0.055875,0.58098,-0.35623,-1.0697,-1.0088,0.10196,0,0,0.84831,-0.079254,0,0.26509,0,0,0.32849,-0.18021,0,0.37438,-0.34195,-1.084,-1.0088,7.9747,-0.81158,0.70746,0.017494,0.42,0.24,0
0.20766,0.054102,0.57434,-0.34673,-1.0775,-1.0016,0.11669,0,0,0.85134,-0.09868,0,0.30341,0,0,0.32639,-0.22161,0,0.39412,-0.32855,-1.0957,-1.0016,8.8559,-0.80862,0.7247,0.018442,0.44,0.24,0
0.2248,0.051682,0.56793,-0.32909,-1.0967,-0.99566,0.11862,0,0,0.86655,-0.13134,0,0.30841,0,0,0.30273,-0.26841,0,0.40456,-0.31118,-1.1146,-0.99566,8.5872,-0.80715,0.75106,0.019932,0.46,0.24,0
0.24232,0.047805,0.56223,-0.30879,-1.1093,-0.98765,0.095906,0,0,0.88252,-0.15813,0,0.24935,0,0,0.2561,-0.30892,0,0.40214,-0.29746,-1.1206,-0.98765,6.7375,-0.80191,0.76538,0.020705,0.48,0.24,0
0.2601,0.04181,0.55768,-0.26278,-0.64707,-0.58665,0.066285,0,0,0.25732,-0.13964,0,0.65916,0,0,0.2079,-0.18532,0,0.29691,-0.22589,-0.68396,-0.58665,28.302,-0.49883,0.42683,0.010207,0.5,0.24,0
0.25261,0.053958,0.5275,-0.24531,-0.24272,-0.21235,0.048844,0,0,-0.34282,-0.31586,0,1.016,0,0,0.18346,-0.044176,0,0.18879,-0.19515,-0.29287,-0.21235,45.76,-0.23346,0.090361,-3.3316e-05,0.52,0.24,0
0.24638,0.062327,0.49898,-0.23532,-0.24341,-0.20599,0.039521,0,0,-0.30502,-0.38917,0,0.82205,0,0,0.17341,-0.043052,0,0.17874,-0.19964,-0.27909,-0.20599,42.078,-0.22824,0.076477,-2.244e-05,0.54,0.24,0
0.24041,0.067526,0.47201,-0.22843,-0.23974,-0.19945,0.031965,0,0,-0.30136,-0.41899,0,0.66486,0,0,0.1646,-0.039102,0,0.16921,-0.20162,-0.26654,-0.19945,39.983,-0.22254,0.066034,-1.4735e-05,0.56,0.24,0
0.23433,0.070544,0.44631,-0.22299,-0.23488,-0.19315,0.026162,0,0,-0.31035,-0.43401,0,0.54417,0,0,0.15775,-0.03431,0,0.16145,-0.20211,-0.25577,-0.19315,38.599,-0.21701,0.058652,-9.553e-06,0.58,0.24,0
0.228,0.072047,0.42153,-0.21836,-0.22955,-0.18706,0.021406,0,0,-0.32547,-0.44184,0,0.44525,0,0,0.15274,-0.029601,0,0.15558,-0.20183,-0.24608,-0.18706,37.676,-0.21166,0.053192,-5.7689e-06,0.6,0.24,0
0.22131,0.072435,0.39743,-0.21444,-0.2239,-0.18118,0.017331,0,0,-0.3459,-0.4443,0,0.36048,0,0,0.14914,-0.025257,0,0.15126,-0.20121,-0.23714,-0.18118,37.366,-0.20651,0.049107,-2.8513e-06,0.62,0.24,0
0.21416,0.071967,0.37381,-0.21124,-0.21806,-0.17552,0.013759,0,0,-0.37153,-0.44246,0,0.28618,0,0,0.1466,-0.021314,0,0.14814,-0.20047,-0.22883,-0.17552,38.039,-0.20161,0.046198,-5.5656e-07,0.64,0.24,0
0.20645,0.070825,0.35052,-0.20868,-0.21205,-0.17004,0.010583,0,0,-0.40194,-0.43698,0,0.22012,0,0,0.1449,-0.017713,0,0.14597,-0.19965,-0.22109,-0.17004,40.477,-0.19692,0.044399,1.2288e-06,0.66,0.24,0
0.19808,0.069153,0.32744,-0.20672,-0.2059,-0.16472,0.0077155,0,0,-0.43682,-0.42831,0,0.16048,0,0,0.14387,-0.014364,0,0.14458,-0.19858,-0.21403,-0.16472,46.517,-0.19244,0.043693,2.5479e-06,0.68,0.24,0
0.18898,0.067057,0.30448,-0.2053,-0.1996,-0.15953,0.0050763,0,0,-0.47599,-0.41674,0,0.10559,0,0,0.14343,-0.011169,0,0.14386,-0.19663,-0.20827,-0.15953,59.649,-0.18814,0.044088,3.3885e-06,0.7,0.24,0
0.17904,0.064626,0.28154,-0.20441,-0.19316,-0.15446,0.0025923,0,0,-0.51944,-0.40244,0,0.053921,0,0,0.14354,-0.0080284,0,0.14376,-0.19259,-0.20498,-0.15446,77.629,-0.18401,0.045601,3.6856e-06,0.72,0.24,0
0.1682,0.061932,0.25855,-0.20406,-0.18657,-0.14951,0.00020064,0,0,-0.56736,-0.38548,0,0.0041732,0,0,0.1442,-0.0048418,0,0.14428,-0.18657,-0.20407,-0.14951,89.343,-0.18005,0.04825,3.3174e-06,0.74,0.24,0
0.15635,0.059036,0.2354,-0.2043,-0.17985,-0.14467,-0.0021464,0,0,-0.62015,-0.36586,0,-0.044646,0,0,0.14546,-0.0015073,0,0.14546,-0.17966,-0.20448,-0.14467,-85.021,-0.17627,0.052052,2.095e-06,0.76,0.24,0
0.14339,0.055995,0.212,-0.20518,-0.17297,-0.13995,-0.0044732,0,0,-0.67845,-0.34346,0,-0.093043,0,0,0.1474,0.0020777,0,0.14741,-0.17236,-0.20579,-0.13995,-82.239,-0.1727,0.057026,-2.5418e-07,0.78,0.24,0
0.12921,0.052865,0.18823,-0.20681,-0.16594,-0.13535,-0.0067705,0,0,-0.74316,-0.31809,0,-0.14083,0,0,0.15019,0.0060103,0,0.15031,-0.16485,-0.2079,-0.13535,-80.835,-0.16937,0.063196,-4.1093e-06,0.8,0.24,0
0.11367,0.049709,0.16394,-0.20932,-0.15875,-0.13091,-0.0089824,0,0,-0.81542,-0.28951,0,-0.18683,0,0,0.15407,0.01036,0,0.15442,-0.1572,-0.21087,-0.13091,-80.221,-0.16633,0.070582,-9.9797e-06,0.82,0.24,0
0.096595,0.046595,0.13893,-0.21279,-0.15139,-0.12662,-0.011006,0,0,-0.89614,-0.25762,0,-0.22892,0,0,0.1594,0.01511,0,0.16013,-0.14948,-0.2147,-0.12662,-80.138,-0.1636,0.079167,-1.8502e-05,0.84,0.24,0
0.077821,0.043584,0.11293,-0.21721,-0.1439,-0.12245,-0.012729,0,0,-0.98553,-0.22309,0,-0.26476,0,0,0.16666,0.020007,0,0.16789,-0.14175,-0.21936,-0.12245,-80.425,-0.16119,0.088845,-3.0364e-05,0.86,0.24,0
0.057174,0.040662,0.085597,-0.22253,-0.13634,-0.11836,-0.014234,0,0,-1.0834,-0.18696,0,-0.29607,0,0,0.17605,0.024167,0,0.17778,-0.13405,-0.22482,-0.11836,-80.861,-0.15907,0.099546,-4.6451e-05,0.88,0.24,0
0.034487,0.037582,0.056593,-0.22945,-0.12843,-0.11444,-0.015587,0,0,-1.1961,-0.14553,0,-0.32421,0,0,0.18699,0.0256,0,0.18884,-0.12608,-0.2318,-0.11444,-81.425,-0.15744,0.112,-6.9526e-05,0.9,0.24,0
0.0093288,0.034062,0.025758,-0.2273,-0.16197,-0.13127,-0.01587,0,0,-0.67517,-0.070948,0,-0.18431,0,0,0.21561,0.10283,0,0.2483,-0.15603,-0.23325,-0.13127,-70.475,-0.17352,0.095486,-4.3381e-05,0.92,0.24,0
0.0074798,0.036248,0.020988,-0.25857,-0.28742,-0.18478,-0.017913,0,0,-0.095917,-0.13343,0,-0.046574,0,0,0.27406,0.16069,0,0.31949,-0.24999,-0.29599,-0.18478,-25.577,-0.24359,0.096787,1.3681e-05,0.94,0.24,0
0.0054921,0.037858,0.014796,-0.2745,-0.30529,-0.18873,-0.02292,0,0,-0.1115,-0.15152,0,-0.059592,0,0,0.33387,0.11472,0,0.35323,-0.26229,-0.3175,-0.18873,-28.057,-0.25617,0.1119,1.7526e-05,0.96,0.24,0
0.0030199,0.038629,0.0076336,-0.28911,-0.29707,-0.18349,-0.016292,0,0,-0.1373,-0.14766,0,-0.042358,0,0,0.36989,0.057678,0,0.37377,-0.27632,-0.30986,-0.18349,-38.128,-0.25656,0.11339,5.3371e-05,0.98,0.24,0
0,0.038818,0,-0.28704,-0.2826,-0.17089,0.0036253,0,0,-0.15099,-0.14522,0,0.0094257,0,0,0.38168,6.9389e-18,0,0.38094,-0.28057,-0.28907,-0.17089,60.738,-0.24685,0.11417,7.4999e-05,1,0.24,0
0,0.057209,1,-0.36988,-1.6418,-1.6035,-0.0015128,0,0,1.6037,-0.049762,0,-0.0039332,0,0,0.28932,-9.3675e-17,0,0.28926,-0.36987,-1.6418,-1.6035,-0.068147,-1.205,1.2532,0.10077,0,0.26,0
0.032074,0.057131,0.99421,-0.36128,-1.6283,-1.5911,0.0020838,0,0,1.5988,-0.048394,0,0.0054178,0,0,0.285,-0.013644,0,0.28531,-0.36127,-1.6283,-1.5911,0.094228,-1.1936,1.2489,0.099736,0.02,0.26,0
0.06395,0.056902,0.9886,-0.35794,-1.6139,-1.5802,0.0038248,0,0,1.5889,-0.043885,0,0.0099444,0,0,0.27239,-0.026358,0,0.27375,-0.35793,-1.6139,-1.5802,0.17448,-1.184,1.2395,0.097551,0.04,0.26,0
0.095629,0.056535,0.98332,-0.35341,-1.5945,-1.5677,0.0052255,0,0,1.5786,-0.034873,0,0.013586,0,0,0.25255,-0.037179,0,0.25552,-0.35339,-1.5945,-1.5677,0.24123,-1.1719,1.228,0.094945,0.06,0.26,0
0.12709,0.05608,0.9785,-0.34796,-1.5698,-1.5538,0.0075242,0,0,1.5676,-0.020796,0,0.019563,0,0,0.22724,-0.045177,0,0.23211,-0.34792,-1.5699,-1.5538,0.35281,-1.1572,1.214,0.091844,0.08,0.26,0
0.15834,0.055667,0.97423,-0.31676,-0.92124,-0.9194,0.010862,0,0,0.80027,-0.0042449,0,0.13088,0,0,0.20526,-0.027911,0,0.20841,-0.312,-0.92599,-0.9194,20.169,-0.71913,0.61164,0.044748,0.1,0.26,0
0.1591,0.059404,0.9427,-0.29418,-0.30851,-0.29864,0.011263,0,0,0.046455,-0.10261,0,0.23428,0,0,0.19519,-0.0084603,0,0.19538,-0.28799,-0.31469,-0.29864,28.767,-0.30044,0.02328,-2.2138e-07,0.12,0.26,0
0.16019,0.062431,0.91177,-0.2888,-0.31188,-0.29418,0.0099541,0,0,0.05594,-0.18417,0,0.20705,0,0,0.19165,-0.010184,0,0.19193,-0.2851,-0.31558,-0.29418,20.385,-0.29829,0.027112,-6.5009e-07,0.14,0.26,0
0.16134,0.064659,0.88137,-0.28445,-0.31282,-0.28935,0.0084281,0,0,0.050985,-0.24405,0,0.1753,0,0,0.18863,-0.011394,0,0.18898,-0.28214,-0.31513,-0.28935,15.359,-0.29554,0.030047,-1.1269e-06,0.16,0.26,0
0.16223,0.066128,0.85141,-0.28134,-0.31141,-0.28425,0.007063,0,0,0.030279,-0.28249,0,0.14691,0,0,0.18645,-0.012171,0,0.18685,-0.27976,-0.31299,-0.28425,12.58,-0.29234,0.031225,-1.4554e-06,0.18,0.26,0
0.16255,0.06695,0.82171,-0.27947,-0.30802,-0.27896,0.0060587,0,0,-0.0053143,-0.30219,0,0.12602,0,0,0.18536,-0.012619,0,0.18579,-0.27824,-0.30925,-0.27896,11.501,-0.28881,0.030656,-1.477e-06,0.2,0.26,0
0.16202,0.067265,0.79209,-0.27875,-0.30294,-0.27352,0.0054796,0,0,-0.054444,-0.30597,0,0.11398,0,0,0.18549,-0.012855,0,0.18594,-0.27757,-0.30412,-0.27352,12.188,-0.28507,0.028793,-1.1446e-06,0.22,0.26,0
0.16037,0.067208,0.76235,-0.27913,-0.29637,-0.26794,0.0053202,0,0,-0.1163,-0.29566,0,0.11066,0,0,0.18688,-0.012993,0,0.18733,-0.27762,-0.29788,-0.26794,15.837,-0.28115,0.026462,-5.4083e-07,0.24,0.26,0
0.15737,0.066894,0.73229,-0.28056,-0.28832,-0.2622,0.0055584,0,0,-0.19092,-0.27164,0,0.11561,0,0,0.18945,-0.013155,0,0.18992,-0.27766,-0.29122,-0.2622,27.538,-0.27702,0.025148,9.2428e-08,0.26,0.26,0
0.15274,0.066412,0.70173,-0.28304,-0.27865,-0.25622,0.0061978,0,0,-0.2789,-0.23323,0,0.12891,0,0,0.19304,-0.01348,0,0.19352,-0.27427,-0.28742,-0.25622,54.752,-0.27264,0.027128,2.7457e-07,0.28,0.26,0
0.14621,0.065841,0.67052,-0.28651,-0.26718,-0.24992,0.0073117,0,0,-0.38051,-0.1795,0,0.15208,0,0,0.19736,-0.014119,0,0.19788,-0.26473,-0.28897,-0.24992,71.445,-0.26787,0.034139,-8.252e-07,0.3,0.26,0
0.13752,0.065271,0.63857,-0.29075,-0.2539,-0.24321,0.0090772,0,0,-0.49435,-0.11109,0,0.18881,0,0,0.20202,-0.015226,0,0.2026,-0.25178,-0.29286,-0.24321,76.887,-0.26262,0.045967,-4.4101e-06,0.32,0.26,0
0.12644,0.064827,0.60587,-0.30395,-0.63709,-0.62311,0.018319,0,0,0.17255,-0.032296,0,0.15131,0,0,0.21417,-0.076187,0,0.23363,-0.27719,-0.66385,-0.62311,39.9,-0.52138,0.38056,0.0089806,0.34,0.26,0
0.14442,0.060957,0.60139,-0.32489,-1.0556,-1.0156,0.044478,0,0,0.89786,-0.052127,0,0.11564,0,0,0.24006,-0.14027,0,0.27851,-0.3222,-1.0583,-1.0156,3.4702,-0.7987,0.71572,0.018603,0.36,0.26,0
0.16235,0.058157,0.59627,-0.32733,-1.0711,-1.0158,0.069662,0,0,0.89502,-0.071912,0,0.18112,0,0,0.26903,-0.1506,0,0.30855,-0.32086,-1.0776,-1.0158,5.3047,-0.80475,0.72781,0.01932,0.38,0.26,0
0.18022,0.055959,0.59063,-0.32725,-1.081,-1.0131,0.088221,0,0,0.8916,-0.088244,0,0.22937,0,0,0.28976,-0.16617,0,0.33404,-0.31706,-1.0912,-1.0131,6.5876,-0.80711,0.73818,0.019882,0.4,0.26,0
0.19802,0.053988,0.58468,-0.32328,-1.0859,-1.0074,0.101,0,0,0.8894,-0.10202,0,0.26259,0,0,0.29887,-0.18653,0,0.35218,-0.31013,-1.0991,-1.0074,7.4173,-0.80554,0.74734,0.020355,0.42,0.26,0
0.2158,0.05184,0.57868,-0.31493,-1.0887,-0.99977,0.1055,0,0,0.89028,-0.11561,0,0.27429,0,0,0.29351,-0.21061,0,0.36116,-0.30081,-1.1028,-0.99977,7.6264,-0.80113,0.75577,0.020789,0.44,0.26,0
0.23363,0.049021,0.57294,-0.30331,-1.0876,-0.9902,0.096923,0,0,0.89296,-0.12657,0,0.252,0,0,0.27208,-0.23535,0,0.35993,-0.29151,-1.0994,-0.9902,6.9419,-0.79369,0.75918,0.020915,0.46,0.26,0
0.25151,0.044984,0.56779,-0.29111,-1.0738,-0.97727,0.074785,0,0,0.89201,-0.12551,0,0.19444,0,0,0.23579,-0.25547,0,0.34829,-0.28403,-1.0809,-0.97727,5.4092,-0.78073,0.75044,0.020317,0.48,0.26,0
0.26931,0.039415,0.56351,-0.25892,-0.62785,-0.583,0.051211,0,0,0.25658,-0.10364,0,0.52214,0,0,0.20039,-0.1489,0,0.26519,-0.22769,-0.65908,-0.583,28.985,-0.48992,0.40782,0.0097275,0.5,0.26,0
0.26178,0.048526,0.53367,-0.24401,-0.23295,-0.2098,0.039496,0,0,-0.35586,-0.24074,0,0.82152,0,0,0.1827,-0.034529,0,0.18597,-0.1986,-0.27836,-0.2098,48.988,-0.22892,0.074796,-1.9877e-05,0.52,0.26,0
0.25507,0.055271,0.50504,-0.23637,-0.23564,-0.20473,0.032725,0,0,-0.32898,-0.32146,0,0.68069,0,0,0.17508,-0.033926,0,0.17838,-0.20328,-0.26873,-0.20473,45.317,-0.22558,0.064739,-1.3912e-05,0.54,0.26,0
0.24862,0.059741,0.47765,-0.23028,-0.23383,-0.19894,0.026571,0,0,-0.32595,-0.36286,0,0.55268,0,0,0.16781,-0.031738,0,0.17082,-0.20542,-0.25868,-0.19894,43.09,-0.22101,0.056782,-8.9906e-06,0.56,0.26,0
0.24204,0.062395,0.45134,-0.22545,-0.23009,-0.19308,0.021563,0,0,-0.33667,-0.38486,0,0.44852,0,0,0.16157,-0.028697,0,0.16412,-0.20608,-0.24946,-0.19308,41.934,-0.21621,0.051131,-5.3981e-06,0.58,0.26,0
0.23515,0.063701,0.42594,-0.22135,-0.22548,-0.18729,0.017494,0,0,-0.35422,-0.39717,0,0.36387,0,0,0.15658,-0.025416,0,0.15864,-0.2058,-0.24103,-0.18729,41.634,-0.21138,0.047285,-2.7602e-06,0.6,0.26,0
0.22787,0.064001,0.40124,-0.21781,-0.22041,-0.18162,0.014072,0,0,-0.37636,-0.40342,0,0.2927,0,0,0.15277,-0.022204,0,0.15437,-0.20498,-0.23324,-0.18162,42.359,-0.20661,0.044773,-7.5487e-07,0.62,0.26,0
0.2201,0.063532,0.37706,-0.2148,-0.21501,-0.17608,0.011119,0,0,-0.40275,-0.40493,0,0.23127,0,0,0.14997,-0.019166,0,0.15119,-0.20379,-0.22603,-0.17608,44.729,-0.20196,0.043344,7.8795e-07,0.64,0.26,0
0.21176,0.062468,0.35325,-0.21235,-0.20935,-0.17067,0.0085231,0,0,-0.43347,-0.40236,0,0.17728,0,0,0.14804,-0.016312,0,0.14894,-0.2022,-0.2195,-0.17067,49.977,-0.19745,0.042888,1.9417e-06,0.66,0.26,0
0.20276,0.060943,0.32968,-0.21044,-0.20346,-0.16538,0.0062065,0,0,-0.46863,-0.39604,0,0.12909,0,0,0.14685,-0.013605,0,0.14748,-0.19983,-0.21407,-0.16538,59.675,-0.1931,0.043362,2.7155e-06,0.68,0.26,0
0.19301,0.05906,0.30625,-0.2091,-0.19735,-0.16022,0.0041031,0,0,-0.50835,-0.38622,0,0.085344,0,0,0.14633,-0.010994,0,0.14674,-0.19606,-0.21039,-0.16022,72.527,-0.18889,0.044762,3.0657e-06,0.7,0.26,0
0.18243,0.056904,0.28286,-0.20831,-0.19103,-0.15516,0.0021563,0,0,-0.55275,-0.37309,0,0.044852,0,0,0.14644,-0.0084189,0,0.14668,-0.19077,-0.20857,-0.15516,82.992,-0.18483,0.047107,2.8986e-06,0.72,0.26,0
0.1709,0.054544,0.25939,-0.20809,-0.18452,-0.15021,0.00032111,0,0,-0.60202,-0.35682,0,0.006679,0,0,0.14717,-0.0058199,0,0.14729,-0.18451,-0.2081,-0.15021,89.22,-0.18094,0.05042,2.0679e-06,0.74,0.26,0
0.15834,0.052039,0.23576,-0.20847,-0.17782,-0.14536,-0.0014312,0,0,-0.65638,-0.3376,0,-0.029769,0,0,0.14858,-0.0031364,0,0.14862,-0.17775,-0.20854,-0.14536,-87.332,-0.17722,0.054721,3.7138e-07,0.76,0.26,0
0.14465,0.049446,0.21185,-0.20947,-0.17096,-0.14061,-0.0031057,0,0,-0.71611,-0.31565,0,-0.064598,0,0,0.15075,-0.00031288,0,0.15075,-0.17071,-0.20971,-0.14061,-85.418,-0.17368,0.060013,-2.4516e-06,0.78,0.26,0
0.1297,0.046818,0.18752,-0.2111,-0.16397,-0.13596,-0.0046769,0,0,-0.78148,-0.29126,0,-0.097279,0,0,0.15381,0.0026913,0,0.15384,-0.16351,-0.21156,-0.13596,-84.388,-0.17034,0.066271,-6.7177e-06,0.8,0.26,0
0.11339,0.044216,0.16263,-0.21338,-0.15687,-0.13141,-0.0060883,0,0,-0.85258,-0.26486,0,-0.12664,0,0,0.15792,0.0058753,0,0.15804,-0.15623,-0.21403,-0.13141,-83.92,-0.16722,0.073434,-1.2783e-05,0.82,0.26,0
0.095596,0.041699,0.13699,-0.21627,-0.14972,-0.12692,-0.0072701,0,0,-0.92923,-0.23713,0,-0.15122,0,0,0.16327,0.0091413,0,0.16355,-0.14894,-0.21705,-0.12692,-83.838,-0.1643,0.081391,-2.1012e-05,0.84,0.26,0
0.076218,0.039307,0.11038,-0.21968,-0.14254,-0.12247,-0.0082008,0,0,-1.0111,-0.20879,0,-0.17058,0,0,0.16996,0.012188,0,0.17043,-0.14168,-0.22055,-0.12247,-83.998,-0.16156,0.090025,-3.1795e-05,0.86,0.26,0
0.055153,0.037015,0.0826,-0.22368,-0.13525,-0.11801,-0.0089251,0,0,-1.0991,-0.17937,0,-0.18564,0,0,0.17782,0.014394,0,0.17846,-0.13436,-0.22458,-0.11801,-84.294,-0.15898,0.099406,-4.588e-05,0.88,0.26,0
0.032256,0.034736,0.053479,-0.22817,-0.12697,-0.11323,-0.0093889,0,0,-1.1954,-0.14291,0,-0.19529,0,0,0.18626,0.014971,0,0.18691,-0.1261,-0.22903,-0.11323,-84.744,-0.15612,0.10994,-6.5095e-05,0.9,0.26,0
0.0073364,0.032417,0.022997,-0.2257,-0.17175,-0.13217,-0.0072759,0,0,-0.66671,-0.091468,0,-0.10129,0,0,0.20715,0.059999,0,0.22025,-0.16775,-0.2297,-0.13217,-61.238,-0.17654,0.093116,-3.2331e-05,0.92,0.26,0
0.0055879,0.033577,0.018521,-0.23989,-0.27795,-0.17387,-0.0046681,0,0,-0.085821,-0.1353,0,-0.012137,0,0,0.25011,0.095569,0,0.26904,-0.23933,-0.27851,-0.17387,-6.8913,-0.23057,0.091568,1.65e-05,0.94,0.26,0
0.0039036,0.034647,0.012993,-0.24526,-0.30395,-0.17776,-0.0057162,0,0,-0.087754,-0.16405,0,-0.014862,0,0,0.29564,0.07033,0,0.30428,-0.24471,-0.3045,-0.17776,-5.5111,-0.24232,0.10983,6.6395e-06,0.96,0.26,0
0.0020778,0.035276,0.0066957,-0.24961,-0.30987,-0.17454,-0.0052256,0,0,-0.09759,-0.17593,0,-0.013587,0,0,0.32482,0.036821,0,0.32672,-0.24916,-0.31032,-0.17454,-4.9194,-0.24467,0.11778,1.432e-05,0.98,0.26,0
0,0.035466,0,-0.24272,-0.29996,-0.1628,0.003661,0,0,-0.10389,-0.1783,0,0.0095186,0,0,0.33478,8.6736e-18,0,0.33442,-0.24249,-0.30019,-0.1628,3.6447,-0.23516,0.11949,2.3898e-05,1,0.26,0
0,0.056141,1,-0.36168,-1.643,-1.6014,-0.0008304,0,0,1.6117,-0.054108,0,-0.002159,0,0,0.2801,-2.0143e-15,0,0.28009,-0.36168,-1.643,-1.6014,-0.037131,-1.202,1.2611,0.10262,0,0.28,0
0.032233,0.056098,0.9944,-0.35373,-1.6297,-1.5894,-0.00011557,0,0,1.6064,-0.052323,0,-0.00030048,0,0,0.27608,-0.0050849,0,0.27615,-0.35373,-1.6297,-1.5894,-0.0051897,-1.1909,1.2563,0.10148,0.02,0.28,0
0.064256,0.055979,0.98896,-0.35148,-1.6149,-1.5789,8.0155e-05,0,0,1.5956,-0.046859,0,0.0002084,0,0,0.26437,-0.0099115,0,0.26467,-0.35148,-1.6149,-1.5789,0.0036349,-1.1818,1.2458,0.099026,0.04,0.28,0
0.096058,0.055809,0.98382,-0.34834,-1.5956,-1.567,0.00088018,0,0,1.5843,-0.037182,0,0.0022885,0,0,0.24599,-0.014235,0,0.24664,-0.34834,-1.5956,-1.567,0.040433,-1.1703,1.2332,0.096152,0.06,0.28,0
0.12763,0.055632,0.97912,-0.34418,-1.5723,-1.5541,0.0027573,0,0,1.5729,-0.023758,0,0.007169,0,0,0.22262,-0.017844,0,0.22372,-0.34417,-1.5724,-1.5541,0.12863,-1.1569,1.2191,0.092996,0.08,0.28,0
0.15897,0.055516,0.97492,-0.31464,-0.92428,-0.92007,0.0051136,0,0,0.81091,-0.0097389,0,0.06233,0,0,0.20238,-0.011579,0,0.20312,-0.31307,-0.92585,-0.92007,15.157,-0.71966,0.61019,0.045421,0.1,0.28,0
0.16006,0.057389,0.94375,-0.29208,-0.3077,-0.2979,0.0055771,0,0,0.060562,-0.10189,0,0.116,0,0,0.19313,-0.0047828,0,0.19319,-0.29029,-0.30949,-0.2979,17.765,-0.29923,0.016741,-8.4186e-08,0.12,0.28,0
0.1614,0.058837,0.91312,-0.28705,-0.31086,-0.29351,0.0052212,0,0,0.067214,-0.1804,0,0.1086,0,0,0.18991,-0.0068528,0,0.19004,-0.28595,-0.31195,-0.29351,11.841,-0.29714,0.023164,-4.1676e-07,0.14,0.28,0
0.16275,0.059876,0.88297,-0.28291,-0.31189,-0.28881,0.0049321,0,0,0.061402,-0.24004,0,0.10259,0,0,0.1872,-0.008773,0,0.1874,-0.28209,-0.31271,-0.28881,9.3973,-0.29454,0.027872,-8.9783e-07,0.16,0.28,0
0.16385,0.060556,0.85321,-0.27987,-0.31078,-0.28385,0.0048177,0,0,0.041324,-0.28008,0,0.10021,0,0,0.18528,-0.010544,0,0.18558,-0.27914,-0.31151,-0.28385,8.6583,-0.2915,0.030293,-1.3123e-06,0.18,0.28,0
0.1644,0.060952,0.82368,-0.27797,-0.30774,-0.27868,0.0049616,0,0,0.0073352,-0.30232,0,0.1032,0,0,0.18439,-0.012174,0,0.18479,-0.27716,-0.30855,-0.27868,9.2159,-0.28813,0.030658,-1.4678e-06,0.2,0.28,0
0.16414,0.061156,0.79421,-0.27713,-0.30306,-0.27333,0.005427,0,0,-0.039494,-0.30916,0,0.11288,0,0,0.18466,-0.013675,0,0.18516,-0.27604,-0.30415,-0.27333,11.357,-0.28451,0.029557,-1.2887e-06,0.22,0.28,0
0.16282,0.06127,0.76459,-0.27729,-0.29689,-0.26783,0.0062621,0,0,-0.098402,-0.30223,0,0.13025,0,0,0.18612,-0.01506,0,0.18673,-0.27546,-0.29872,-0.26783,16.29,-0.28067,0.02787,-8.3711e-07,0.24,0.28,0
0.16021,0.061398,0.73465,-0.2784,-0.28923,-0.26212,0.0075006,0,0,-0.16933,-0.28193,0,0.15601,0,0,0.18868,-0.016348,0,0.1894,-0.27457,-0.29307,-0.26212,27.09,-0.27659,0.02697,-3.3362e-07,0.26,0.28,0
0.15605,0.061641,0.70422,-0.28044,-0.27996,-0.25615,0.0091557,0,0,-0.25265,-0.24768,0,0.19044,0,0,0.19218,-0.017563,0,0.19299,-0.27104,-0.28936,-0.25615,45.748,-0.27218,0.028814,-2.1787e-07,0.28,0.28,0
0.1501,0.062087,0.67315,-0.28331,-0.26894,-0.24982,0.011215,0,0,-0.3483,-0.19888,0,0.23327,0,0,0.1963,-0.018743,0,0.1972,-0.26281,-0.28945,-0.24982,61.321,-0.26736,0.034988,-1.2219e-06,0.3,0.28,0
0.14212,0.062802,0.6414,-0.28677,-0.2562,-0.24307,0.013638,0,0,-0.45449,-0.13662,0,0.28367,0,0,0.20067,-0.019942,0,0.20167,-0.251,-0.29197,-0.24307,69.127,-0.26201,0.045455,-4.3321e-06,0.32,0.28,0
0.13192,0.063819,0.60894,-0.30014,-0.65842,-0.6301,0.022229,0,0,0.20589,-0.065449,0,0.20344,0,0,0.21166,-0.095552,0,0.2413,-0.27558,-0.68298,-0.6301,36.862,-0.52955,0.39546,0.01011,0.34,0.28,0
0.15035,0.059658,0.60453,-0.31665,-1.0831,-1.0245,0.046354,0,0,0.92014,-0.076218,0,0.12052,0,0,0.2348,-0.17199,0,0.29142,-0.31385,-1.0859,-1.0245,3.4485,-0.80806,0.74321,0.0206,0.36,0.28,0
0.16873,0.05651,0.59955,-0.31572,-1.0916,-1.0218,0.070033,0,0,0.91785,-0.090847,0,0.18208,0,0,0.26025,-0.17573,0,0.31423,-0.30945,-1.0979,-1.0218,5.1163,-0.80971,0.75328,0.021198,0.38,0.28,0
0.18707,0.054008,0.59412,-0.31212,-1.0963,-1.0167,0.086723,0,0,0.9159,-0.10357,0,0.22548,0,0,0.27764,-0.18128,0,0.33163,-0.30264,-1.1058,-1.0167,6.2358,-0.80837,0.76251,0.021724,0.4,0.28,0
0.20536,0.051794,0.58844,-0.30661,-1.0954,-1.0091,0.096008,0,0,0.91317,-0.11227,0,0.24962,0,0,0.28405,-0.18868,0,0.34098,-0.29509,-1.1069,-1.0091,6.8406,-0.80369,0.7676,0.02196,0.42,0.28,0
0.2236,0.049477,0.58276,-0.29969,-1.088,-0.99906,0.096085,0,0,0.90919,-0.11561,0,0.24982,0,0,0.27757,-0.19753,0,0.34072,-0.28814,-1.0995,-0.99906,6.8501,-0.79558,0.76611,0.021761,0.44,0.28,0
0.24173,0.046619,0.57734,-0.29227,-1.072,-0.98662,0.085185,0,0,0.90265,-0.11098,0,0.22148,0,0,0.25786,-0.20656,0,0.33064,-0.28307,-1.0812,-0.98662,6.1627,-0.78362,0.75528,0.020964,0.46,0.28,0
0.2597,0.042785,0.57245,-0.28438,-1.0444,-0.97107,0.063732,0,0,0.89269,-0.095274,0,0.1657,0,0,0.22673,-0.21367,0,0.31209,-0.27908,-1.0497,-0.97107,4.7606,-0.7666,0.73445,0.019564,0.48,0.28,0
0.27744,0.037664,0.56827,-0.25816,-0.61119,-0.58046,0.041911,0,0,0.24786,-0.07103,0,0.42285,0,0,0.19723,-0.1219,0,0.24448,-0.22994,-0.63942,-0.58046,30.418,-0.48327,0.39265,0.0092199,0.5,0.28,0
0.26962,0.044328,0.53855,-0.24492,-0.22653,-0.20875,0.031698,0,0,-0.37609,-0.18492,0,0.65931,0,0,0.18263,-0.027206,0,0.18467,-0.20272,-0.26873,-0.20875,53.085,-0.22674,0.063207,-1.2572e-05,0.52,0.28,0
0.2624,0.049469,0.50983,-0.23819,-0.22939,-0.204,0.026604,0,0,-0.35555,-0.26403,0,0.55337,0,0,0.1762,-0.02651,0,0.17822,-0.20682,-0.26076,-0.204,49.696,-0.22386,0.055396,-8.6546e-06,0.54,0.28,0
0.25539,0.053011,0.48217,-0.23251,-0.22876,-0.19865,0.021645,0,0,-0.35217,-0.3131,0,0.45021,0,0,0.16983,-0.025095,0,0.1717,-0.20891,-0.25236,-0.19865,47.479,-0.21998,0.049387,-5.2981e-06,0.56,0.28,0
0.24831,0.05515,0.45549,-0.22781,-0.22599,-0.19308,0.017384,0,0,-0.36121,-0.34233,0,0.36158,0,0,0.16407,-0.023209,0,0.16572,-0.20949,-0.24431,-0.19308,46.494,-0.21563,0.045311,-2.7501e-06,0.58,0.28,0
0.24095,0.056161,0.42966,-0.22384,-0.22209,-0.18749,0.013871,0,0,-0.37804,-0.35988,0,0.28852,0,0,0.15923,-0.021103,0,0.16063,-0.20906,-0.23686,-0.18749,46.801,-0.21114,0.042873,-8.7453e-07,0.6,0.28,0
0.23319,0.056299,0.40453,-0.22042,-0.21754,-0.18195,0.010977,0,0,-0.40007,-0.37004,0,0.22831,0,0,0.15539,-0.018948,0,0.15654,-0.20791,-0.23005,-0.18195,48.746,-0.20664,0.041696,5.0904e-07,0.62,0.28,0
0.22494,0.055769,0.37994,-0.21752,-0.21255,-0.17651,0.0085587,0,0,-0.42647,-0.37475,0,0.17802,0,0,0.15249,-0.016825,0,0.15342,-0.20612,-0.22395,-0.17651,53.1,-0.20219,0.041498,1.5212e-06,0.64,0.28,0
0.21613,0.054731,0.35574,-0.21513,-0.20721,-0.17117,0.0065092,0,0,-0.45722,-0.37481,0,0.13539,0,0,0.15046,-0.01476,0,0.15118,-0.20355,-0.21879,-0.17117,60.663,-0.19784,0.042123,2.2138e-06,0.66,0.28,0
0.20666,0.053311,0.3318,-0.21329,-0.20157,-0.16593,0.0047447,0,0,-0.4925,-0.37063,0,0.098691,0,0,0.14919,-0.01275,0,0.14973,-0.19989,-0.21497,-0.16593,70.5,-0.19359,0.043503,2.5796e-06,0.68,0.28,0
0.19643,0.051608,0.308,-0.21199,-0.19564,-0.16079,0.0031989,0,0,-0.53252,-0.36246,0,0.066536,0,0,0.14862,-0.010782,0,0.14901,-0.19504,-0.2126,-0.16079,79.316,-0.18948,0.045636,2.5583e-06,0.7,0.28,0
0.18535,0.049703,0.28424,-0.21127,-0.18946,-0.15575,0.0018177,0,0,-0.57746,-0.35055,0,0.037809,0,0,0.14872,-0.0088334,0,0.14898,-0.1893,-0.21142,-0.15575,85.27,-0.18549,0.048554,2.0389e-06,0.72,0.28,0
0.17333,0.047659,0.26041,-0.21113,-0.18303,-0.1508,0.00056068,0,0,-0.62743,-0.3352,0,0.011662,0,0,0.14949,-0.0068832,0,0.14964,-0.18302,-0.21114,-0.1508,88.857,-0.18165,0.052297,8.6162e-07,0.74,0.28,0
0.16026,0.045532,0.2364,-0.21157,-0.1764,-0.14594,-0.00059791,0,0,-0.68251,-0.31676,0,-0.012436,0,0,0.15097,-0.0049094,0,0.15105,-0.17639,-0.21158,-0.14594,-89.026,-0.17797,0.056892,-1.1794e-06,0.76,0.28,0
0.14603,0.043369,0.2121,-0.21258,-0.1696,-0.14117,-0.0016653,0,0,-0.74268,-0.29574,0,-0.034638,0,0,0.15323,-0.0028949,0,0.15326,-0.16954,-0.21264,-0.14117,-87.784,-0.17445,0.062337,-4.3285e-06,0.78,0.28,0
0.13055,0.041215,0.18737,-0.21414,-0.1627,-0.13648,-0.0026286,0,0,-0.80776,-0.27277,0,-0.054674,0,0,0.15638,-0.00083435,0,0.15639,-0.16257,-0.21428,-0.13648,-87.082,-0.17111,0.068586,-8.8515e-06,0.8,0.28,0
0.11372,0.039114,0.16206,-0.21621,-0.15576,-0.13185,-0.0034584,0,0,-0.87735,-0.24868,0,-0.071935,0,0,0.16052,0.0012492,0,0.16054,-0.15556,-0.2164,-0.13185,-86.736,-0.16794,0.075546,-1.5011e-05,0.82,0.28,0
0.095456,0.03711,0.136,-0.2187,-0.14882,-0.12726,-0.0041264,0,0,-0.95097,-0.22431,0,-0.085828,0,0,0.16571,0.003275,0,0.16577,-0.14858,-0.21894,-0.12726,-86.632,-0.16492,0.083098,-2.3056e-05,0.84,0.28,0
0.075681,0.035232,0.10903,-0.22154,-0.14188,-0.12266,-0.004626,0,0,-1.0284,-0.19995,0,-0.096221,0,0,0.17191,0.0050661,0,0.17202,-0.14161,-0.22181,-0.12266,-86.688,-0.16203,0.091165,-3.3313e-05,0.86,0.28,0
0.054319,0.033487,0.08099,-0.22468,-0.13467,-0.11793,-0.0049625,0,0,-1.1102,-0.17415,0,-0.10322,0,0,0.17883,0.0063459,0,0.17898,-0.1344,-0.22495,-0.11793,-86.854,-0.15909,0.09981,-4.6414e-05,0.88,0.28,0
0.031274,0.031866,0.051802,-0.22797,-0.12667,-0.11287,-0.0050238,0,0,-1.1971,-0.14354,0,-0.1045,0,0,0.18593,0.0068084,0,0.18609,-0.12642,-0.22822,-0.11287,-87.168,-0.15584,0.10921,-6.3434e-05,0.9,0.28,0
0.0064358,0.030403,0.021492,-0.22518,-0.17892,-0.13332,-0.0035963,0,0,-0.66275,-0.10539,0,-0.053479,0,0,0.20287,0.028212,0,0.20647,-0.17027,-0.23383,-0.13332,-47.638,-0.17914,0.094612,-2.9478e-05,0.92,0.28,0
0.0047638,0.030836,0.017166,-0.23164,-0.27579,-0.16939,-0.0013007,0,0,-0.080919,-0.13831,0,-0.0033818,0,0,0.23772,0.045314,0,0.24302,-0.2316,-0.27582,-0.16939,-1.6861,-0.22561,0.09261,1.1732e-05,0.94,0.28,0
0.003199,0.031296,0.011983,-0.23189,-0.30201,-0.17215,-0.0012533,0,0,-0.07766,-0.16882,0,-0.0032585,0,0,0.27512,0.033867,0,0.27762,-0.23187,-0.30204,-0.17215,-1.0236,-0.23535,0.1126,-1.0178e-05,0.96,0.28,0
0.0016574,0.031592,0.0061608,-0.23107,-0.31355,-0.16955,-0.0013796,0,0,-0.079976,-0.18721,0,-0.003587,0,0,0.29956,0.017974,0,0.30013,-0.23105,-0.31358,-0.16955,-0.95793,-0.23806,0.12518,-2.5155e-05,0.98,0.28,0
0,0.031685,0,-0.22287,-0.30754,-0.15912,0.0018011,0,0,-0.082872,-0.19294,0,0.0046828,0,0,0.30804,1.7347e-18,0,0.30793,-0.22283,-0.30758,-0.15912,1.2181,-0.22984,0.12899,-2.6726e-05,1,0.28,0
0,0.055045,1,-0.36158,-1.6417,-1.601,-0.00013979,0,0,1.6112,-0.052914,0,-0.00036346,0,0,0.27915,1.8363e-15,0,0.27914,-0.36158,-1.6417,-1.601,-0.006257,-1.2014,1.2602,0.10244,0,0.3,0
0.032224,0.055038,0.99442,-0.35354,-1.6286,-1.5891,-0.0019611,0,0,1.6062,-0.051451,0,-0.0050989,0,0,0.27509,0.0032122,0,0.27513,-0.35353,-1.6286,-1.5891,-0.088119,-1.1904,1.2558,0.10137,0.02,0.3,0
0.064248,0.055028,0.989,-0.35096,-1.6148,-1.5787,-0.003094,0,0,1.5961,-0.046884,0,-0.0080443,0,0,0.26324,0.0060216,0,0.26343,-0.35096,-1.6148,-1.5787,-0.14027,-1.1815,1.2462,0.099118,0.04,0.3,0
0.096068,0.055047,0.98389,-0.34739,-1.5967,-1.5671,-0.002889,0,0,1.5856,-0.038454,0,-0.0075115,0,0,0.24462,0.0079748,0,0.245,-0.34738,-1.5967,-1.5671,-0.1325,-1.1704,1.2348,0.096507,0.06,0.3,0
0.12767,0.055129,0.97921,-0.34285,-1.5746,-1.5545,-0.0015893,0,0,1.5751,-0.026201,0,-0.0041321,0,0,0.22089,0.0085914,0,0.22146,-0.34284,-1.5746,-1.5545,-0.073925,-1.1573,1.2218,0.093591,0.08,0.3,0
0.15907,0.055278,0.97505,-0.31299,-0.92558,-0.92004,-0.00036708,0,0,0.81873,-0.012812,0,-0.0035959,0,0,0.20031,0.0042057,0,0.20062,-0.31298,-0.92559,-0.92004,-1.0841,-0.71954,0.60989,0.045773,0.1,0.3,0
0.16042,0.055328,0.94423,-0.29025,-0.3077,-0.29741,7.986e-05,0,0,0.07448,-0.10697,0,0.0016611,0,0,0.19091,-0.0012498,0,0.19092,-0.29025,-0.3077,-0.29741,0.26225,-0.29846,0.015191,-5.4756e-08,0.12,0.3,0
0.16205,0.055215,0.91396,-0.28519,-0.31109,-0.29313,0.00061522,0,0,0.08259,-0.18679,0,0.012797,0,0,0.18766,-0.0036755,0,0.1877,-0.28517,-0.3111,-0.29313,1.3599,-0.29647,0.023009,-3.8285e-07,0.14,0.3,0
0.16373,0.055058,0.88418,-0.28103,-0.31229,-0.28852,0.0014996,0,0,0.077865,-0.24722,0,0.031192,0,0,0.18494,-0.006303,0,0.18505,-0.28096,-0.31236,-0.28852,2.7404,-0.29395,0.028387,-9.0006e-07,0.16,0.3,0
0.16517,0.054925,0.85478,-0.27799,-0.31134,-0.28364,0.0025736,0,0,0.058854,-0.28802,0,0.053531,0,0,0.18305,-0.00906,0,0.18327,-0.27779,-0.31154,-0.28364,4.3864,-0.29099,0.031234,-1.3814e-06,0.18,0.3,0
0.16608,0.054857,0.8256,-0.27604,-0.30852,-0.27857,0.0037982,0,0,0.026303,-0.31152,0,0.079002,0,0,0.18223,-0.011859,0,0.18261,-0.2756,-0.30896,-0.27857,6.5812,-0.28771,0.031979,-1.631e-06,0.2,0.3,0
0.16622,0.054898,0.79647,-0.2751,-0.30414,-0.27333,0.0052303,0,0,-0.018435,-0.3204,0,0.10879,0,0,0.18261,-0.014611,0,0.18319,-0.27419,-0.30505,-0.27333,9.9066,-0.28419,0.0313,-1.5709e-06,0.22,0.3,0
0.16534,0.055119,0.76717,-0.27509,-0.29835,-0.26793,0.0069728,0,0,-0.074491,-0.31637,0,0.14503,0,0,0.18421,-0.017228,0,0.18501,-0.27316,-0.30028,-0.26793,15.474,-0.28046,0.030077,-1.2561e-06,0.24,0.3,0
0.16324,0.055616,0.73752,-0.27596,-0.29113,-0.26232,0.0091202,0,0,-0.1419,-0.29966,0,0.1897,0,0,0.18695,-0.019618,0,0.18798,-0.27169,-0.29541,-0.26232,25.126,-0.27647,0.029543,-8.8934e-07,0.26,0.3,0
0.15967,0.056505,0.70735,-0.27771,-0.28231,-0.25642,0.011701,0,0,-0.22137,-0.26921,0,0.24338,0,0,0.19065,-0.021688,0,0.19189,-0.26809,-0.29194,-0.25642,39.44,-0.27215,0.031351,-8.7649e-07,0.28,0.3,0
0.15438,0.057886,0.67651,-0.28027,-0.27164,-0.25013,0.014617,0,0,-0.31336,-0.2236,0,0.30404,0,0,0.19498,-0.023355,0,0.19639,-0.26071,-0.29119,-0.25013,53.224,-0.26734,0.036923,-1.8883e-06,0.3,0.3,0
0.14713,0.059806,0.64495,-0.2834,-0.25902,-0.24335,0.017606,0,0,-0.41656,-0.16303,0,0.36619,0,0,0.19952,-0.024572,0,0.20105,-0.2498,-0.29262,-0.24335,62.348,-0.26192,0.04639,-4.7948e-06,0.32,0.3,0
0.13772,0.062209,0.61267,-0.2972,-0.67629,-0.63667,0.025139,0,0,0.23541,-0.091558,0,0.24657,0,0,0.21075,-0.11411,0,0.25134,-0.27401,-0.69947,-0.63667,34.209,-0.53672,0.40884,0.011095,0.34,0.3,0
0.15655,0.057908,0.60827,-0.31217,-1.1089,-1.0346,0.046177,0,0,0.93914,-0.096574,0,0.12006,0,0,0.23419,-0.20212,0,0.30971,-0.30951,-1.1115,-1.0346,3.3061,-0.81854,0.76646,0.022341,0.36,0.3,0
0.17528,0.054523,0.6033,-0.31046,-1.1113,-1.0298,0.067664,0,0,0.93518,-0.10592,0,0.17593,0,0,0.25974,-0.19905,0,0.32743,-0.30478,-1.117,-1.0298,4.7957,-0.8172,0.77232,0.022647,0.38,0.3,0
0.19396,0.051817,0.59788,-0.30631,-1.1094,-1.0226,0.082866,0,0,0.93117,-0.11285,0,0.21545,0,0,0.27681,-0.1944,0,0.33829,-0.29785,-1.1179,-1.0226,5.8301,-0.81277,0.77678,0.022856,0.4,0.3,0
0.21253,0.049497,0.59223,-0.30104,-1.1006,-1.0127,0.090443,0,0,0.92519,-0.11427,0,0.23515,0,0,0.28262,-0.18906,0,0.34001,-0.29093,-1.1107,-1.0127,6.3736,-0.8048,0.77545,0.022664,0.42,0.3,0
0.23096,0.047216,0.58658,-0.29548,-1.0834,-1.0002,0.089228,0,0,0.91619,-0.1081,0,0.23199,0,0,0.27563,-0.1839,0,0.3314,-0.2855,-1.0934,-1.0002,6.3808,-0.79304,0.76557,0.021899,0.44,0.3,0
0.24918,0.044581,0.5812,-0.29009,-1.0558,-0.98497,0.078304,0,0,0.90335,-0.092098,0,0.20359,0,0,0.25595,-0.17954,0,0.31291,-0.28217,-1.0637,-0.98497,5.7794,-0.77696,0.74532,0.020466,0.46,0.3,0
0.2671,0.041173,0.57634,-0.28421,-1.0176,-0.96688,0.057321,0,0,0.88747,-0.065928,0,0.14903,0,0,0.22563,-0.17639,0,0.28696,-0.27976,-1.022,-0.96688,4.4422,-0.75623,0.7163,0.018499,0.48,0.3,0
0.28468,0.036574,0.57217,-0.25961,-0.59315,-0.57767,0.034606,0,0,0.23121,-0.035754,0,0.33795,0,0,0.19723,-0.098219,0,0.22986,-0.23279,-0.61996,-0.57767,32.675,-0.47681,0.37753,0.0085309,0.5,0.3,0
0.27635,0.041129,0.54238,-0.24741,-0.22186,-0.20858,0.024591,0,0,-0.40382,-0.13814,0,0.51149,0,0,0.18327,-0.02081,0,0.18448,-0.20692,-0.26234,-0.20858,58.725,-0.22595,0.054612,-8.3397e-06,0.52,0.3,0
0.26853,0.04471,0.51353,-0.24084,-0.22459,-0.20382,0.020601,0,0,-0.38499,-0.21604,0,0.4285,0,0,0.17719,-0.019866,0,0.17833,-0.21057,-0.25486,-0.20382,55.76,-0.22309,0.048022,-5.3108e-06,0.54,0.3,0
0.26095,0.047216,0.48568,-0.23508,-0.22454,-0.19859,0.016678,0,0,-0.37941,-0.26983,0,0.34691,0,0,0.17111,-0.018913,0,0.17218,-0.21232,-0.2473,-0.19859,53.764,-0.2194,0.043498,-2.8519e-06,0.56,0.3,0
0.25335,0.048702,0.45877,-0.23018,-0.22251,-0.19315,0.01319,0,0,-0.38508,-0.30532,0,0.27435,0,0,0.16557,-0.0179,0,0.16655,-0.21261,-0.24008,-0.19315,53.105,-0.21528,0.040838,-1.0166e-06,0.58,0.3,0
0.24554,0.049306,0.43269,-0.22603,-0.21925,-0.18767,0.010271,0,0,-0.39897,-0.3284,0,0.21363,0,0,0.16084,-0.016809,0,0.16173,-0.21183,-0.23346,-0.18767,54.139,-0.21099,0.039672,3.0515e-07,0.6,0.3,0
0.23739,0.049199,0.4073,-0.22251,-0.21521,-0.18223,0.0079069,0,0,-0.41893,-0.34303,0,0.16446,0,0,0.15704,-0.015643,0,0.15783,-0.21016,-0.22757,-0.18223,57.388,-0.20665,0.039616,1.2406e-06,0.62,0.3,0
0.22879,0.048542,0.38244,-0.21955,-0.21064,-0.17686,0.0060191,0,0,-0.444,-0.35125,0,0.1252,0,0,0.15416,-0.014417,0,0.15484,-0.20761,-0.22259,-0.17686,63.265,-0.20235,0.040375,1.8788e-06,0.64,0.3,0
0.21963,0.047476,0.35797,-0.21715,-0.20563,-0.17158,0.0045147,0,0,-0.47391,-0.35409,0,0.093907,0,0,0.15212,-0.013147,0,0.15268,-0.20407,-0.21871,-0.17158,70.957,-0.19812,0.041778,2.2543e-06,0.66,0.3,0
0.20983,0.046118,0.33376,-0.2153,-0.20023,-0.16638,0.0033096,0,0,-0.50874,-0.35208,0,0.06884,0,0,0.15083,-0.011853,0,0.1513,-0.19954,-0.21599,-0.16638,78.139,-0.19397,0.04377,2.3458e-06,0.68,0.3,0
0.19928,0.044562,0.3097,-0.21402,-0.1945,-0.16127,0.0023332,0,0,-0.54859,-0.34559,0,0.04853,0,0,0.15025,-0.010549,0,0.15062,-0.19422,-0.21429,-0.16127,83.278,-0.18993,0.04637,2.0795e-06,0.7,0.3,0
0.18789,0.042882,0.28568,-0.21331,-0.18845,-0.15624,0.0015292,0,0,-0.59357,-0.33498,0,0.031808,0,0,0.15034,-0.0092501,0,0.15062,-0.18835,-0.21341,-0.15624,86.494,-0.186,0.049635,1.3316e-06,0.72,0.3,0
0.17554,0.041136,0.2616,-0.21319,-0.18213,-0.15129,0.00085476,0,0,-0.64372,-0.32064,0,0.017779,0,0,0.1511,-0.0079711,0,0.15131,-0.1821,-0.21321,-0.15129,88.425,-0.1822,0.053624,-6.7373e-08,0.74,0.3,0
0.16214,0.039369,0.23733,-0.21364,-0.17557,-0.14643,0.00027871,0,0,-0.699,-0.30308,0,0.0057971,0,0,0.15257,-0.0067262,0,0.15272,-0.17557,-0.21365,-0.14643,89.581,-0.17855,0.05838,-2.327e-06,0.76,0.3,0
0.14758,0.037616,0.21277,-0.21465,-0.16885,-0.14165,-0.00021923,0,0,-0.75924,-0.28293,0,-0.0045601,0,0,0.15483,-0.0055306,0,0.15493,-0.16885,-0.21465,-0.14165,-89.726,-0.17505,0.063905,-5.686e-06,0.78,0.3,0
0.13177,0.035908,0.18779,-0.21618,-0.16203,-0.13694,-0.00064986,0,0,-0.82411,-0.261,0,-0.013517,0,0,0.15795,-0.0044003,0,0.15802,-0.16203,-0.21619,-0.13694,-89.312,-0.17172,0.070154,-1.0392e-05,0.8,0.3,0
0.11461,0.034269,0.16223,-0.21815,-0.15519,-0.13228,-0.0010156,0,0,-0.89306,-0.23826,0,-0.021124,0,0,0.16203,-0.0033521,0,0.16208,-0.15518,-0.21817,-0.13228,-89.076,-0.16854,0.077036,-1.6678e-05,0.82,0.3,0
0.096045,0.032726,0.13594,-0.2205,-0.14839,-0.12766,-0.0013108,0,0,-0.96555,-0.21558,0,-0.027265,0,0,0.16709,-0.0024026,0,0.16712,-0.14836,-0.22052,-0.12766,-88.959,-0.16551,0.084438,-2.4765e-05,0.84,0.3,0
0.075993,0.031309,0.10876,-0.22314,-0.14157,-0.12301,-0.001521,0,0,-1.0413,-0.19304,0,-0.031636,0,0,0.17303,-0.0015655,0,0.17306,-0.14154,-0.22317,-0.12301,-88.932,-0.16257,0.092298,-3.4958e-05,0.86,0.3,0
0.054391,0.030049,0.080569,-0.22598,-0.13449,-0.11821,-0.0016202,0,0,-1.1208,-0.16929,0,-0.033699,0,0,0.17957,-0.00084808,0,0.1796,-0.13446,-0.22601,-0.11821,-88.986,-0.15956,0.10066,-4.7818e-05,0.88,0.3,0
0.03116,0.028994,0.0513,-0.22886,-0.12671,-0.11309,-0.0015692,0,0,-1.2041,-0.14174,0,-0.03264,0,0,0.18618,-0.00024791,0,0.18621,-0.12669,-0.22889,-0.11309,-89.12,-0.15622,0.10963,-6.4179e-05,0.9,0.3,0
0.0062274,0.028201,0.020991,-0.22597,-0.18123,-0.13397,-0.0016279,0,0,-0.66502,-0.10922,0,-0.019904,0,0,0.20177,0.0011242,0,0.2024,-0.17122,-0.23598,-0.13397,-46.742,-0.18039,0.095559,-2.9274e-05,0.92,0.3,0
0.0045597,0.028045,0.016709,-0.23009,-0.27541,-0.16836,-0.0020947,0,0,-0.080253,-0.13917,0,-0.0054462,0,0,0.23382,0.0021557,0,0.23474,-0.23,-0.27551,-0.16836,-2.6408,-0.22462,0.093142,1.067e-05,0.94,0.3,0
0.0030173,0.027894,0.011638,-0.22871,-0.30162,-0.17074,-0.0020409,0,0,-0.07537,-0.17014,0,-0.0053062,0,0,0.2683,0.001776,0,0.26874,-0.22866,-0.30167,-0.17074,-1.6023,-0.23369,0.11364,-1.4934e-05,0.96,0.3,0
0.0015449,0.027787,0.0059768,-0.22643,-0.315,-0.16841,-0.0012297,0,0,-0.075432,-0.19057,0,-0.0031972,0,0,0.29096,0.00099524,0,0.29106,-0.22641,-0.31502,-0.16841,-0.79527,-0.23661,0.12789,-3.7817e-05,0.98,0.3,0
0,0.027748,0,-0.21781,-0.31015,-0.15839,-0.00074676,0,0,-0.077247,-0.19729,0,-0.0019416,0,0,0.29884,8.6736e-19,0,0.29882,-0.2178,-0.31016,-0.15839,-0.4633,-0.22878,0.13246,-4.361e-05,1,0.3,0
0,0.054025,1,-0.36956,-1.6375,-1.6021,0.00029515,0,0,1.6023,-0.046023,0,0.00076739,0,0,0.28653,2.0426e-15,0,0.28648,-0.36956,-1.6375,-1.6021,0.013337,-1.2031,1.2506,0.1002,0,0.32,0
0.032047,0.05404,0.99427,-0.36067,-1.6251,-1.59,-0.00462,0,0,1.5981,-0.045583,0,-0.012012,0,0,0.2821,0.011884,0,0.28235,-0.36065,-1.6251,-1.59,-0.20935,-1.1919,1.2472,0.099385,0.02,0.32,0
0.063924,0.054103,0.98872,-0.35637,-1.6133,-1.5796,-0.0077144,0,0,1.5902,-0.043773,0,-0.020057,0,0,0.26913,0.022788,0,0.2702,-0.35632,-1.6133,-1.5796,-0.35164,-1.1831,1.2405,0.097797,0.04,0.32,0
0.095655,0.054271,0.9835,-0.35056,-1.5977,-1.568,-0.0082914,0,0,1.5827,-0.038655,0,-0.021558,0,0,0.24856,0.031545,0,0.25084,-0.35051,-1.5978,-1.568,-0.38089,-1.1721,1.2327,0.096003,0.06,0.32,0
0.12723,0.054584,0.97877,-0.34397,-1.5768,-1.555,-0.0071877,0,0,1.5744,-0.028366,0,-0.018688,0,0,0.22213,0.036843,0,0.22565,-0.34393,-1.5769,-1.555,-0.33403,-1.1586,1.2222,0.093658,0.08,0.32,0
0.15863,0.055003,0.97462,-0.31179,-0.92538,-0.91937,-0.0064694,0,0,0.82405,-0.013875,0,-0.074857,0,0,0.19908,0.021125,0,0.20109,-0.31011,-0.92706,-0.91937,-13.967,-0.71885,0.61343,0.045829,0.1,0.32,0
0.16019,0.05311,0.94415,-0.28867,-0.30859,-0.2972,-0.0057222,0,0,0.08869,-0.11852,0,-0.11902,0,0,0.18852,0.0025415,0,0.18854,-0.28714,-0.31012,-0.2972,-14.937,-0.29815,0.01995,-8.7345e-08,0.12,0.32,0
0.16218,0.051365,0.91429,-0.28318,-0.31263,-0.29303,-0.0041254,0,0,0.10241,-0.20383,0,-0.085809,0,0,0.18486,-0.00028454,0,0.18486,-0.28262,-0.3132,-0.29303,-7.8267,-0.29628,0.026928,-5.2095e-07,0.14,0.32,0
0.16429,0.049987,0.88499,-0.27882,-0.31401,-0.28847,-0.0019585,0,0,0.1004,-0.2656,0,-0.040737,0,0,0.18181,-0.0036994,0,0.18185,-0.27871,-0.31412,-0.28847,-3.1755,-0.29377,0.031677,-1.125e-06,0.16,0.32,0
0.16619,0.049035,0.85611,-0.2757,-0.31306,-0.28364,0.00032951,0,0,0.082564,-0.30594,0,0.0068538,0,0,0.17973,-0.0075347,0,0.17988,-0.2757,-0.31306,-0.28364,0.50534,-0.2908,0.034092,-1.6687e-06,0.18,0.32,0
0.16759,0.048491,0.82748,-0.27374,-0.31029,-0.27864,0.0025984,0,0,0.051006,-0.3291,0,0.054046,0,0,0.17884,-0.011592,0,0.17921,-0.27355,-0.31047,-0.27864,4.0462,-0.28756,0.034654,-1.9829e-06,0.2,0.32,0
0.16823,0.04834,0.79888,-0.27275,-0.30609,-0.27351,0.0049308,0,0,0.0079143,-0.33881,0,0.10256,0,0,0.17929,-0.015681,0,0.17997,-0.27204,-0.30681,-0.27351,8.2389,-0.28412,0.034054,-2.0154e-06,0.22,0.32,0
0.16791,0.048615,0.77011,-0.27264,-0.30067,-0.26825,0.0075071,0,0,-0.045575,-0.33708,0,0.15615,0,0,0.18111,-0.019619,0,0.18217,-0.27075,-0.30255,-0.26825,14.088,-0.28052,0.033117,-1.8297e-06,0.24,0.32,0
0.16641,0.049412,0.74093,-0.27337,-0.29395,-0.26281,0.010508,0,0,-0.10976,-0.32388,0,0.21856,0,0,0.18422,-0.023209,0,0.18568,-0.26895,-0.29837,-0.26281,22.794,-0.27671,0.032921,-1.6198e-06,0.26,0.32,0
0.16352,0.050873,0.71115,-0.27499,-0.28566,-0.25709,0.014013,0,0,-0.1862,-0.29711,0,0.29147,0,0,0.18844,-0.026227,0,0.19027,-0.26533,-0.29532,-0.25709,34.584,-0.27258,0.034847,-1.7701e-06,0.28,0.32,0
0.15896,0.053143,0.68063,-0.27755,-0.27529,-0.25093,0.017869,0,0,-0.27685,-0.25331,0,0.37167,0,0,0.19342,-0.028439,0,0.19551,-0.25851,-0.29432,-0.25093,46.812,-0.26792,0.040142,-2.9264e-06,0.3,0.32,0
0.15244,0.056281,0.64926,-0.28087,-0.2624,-0.24414,0.021571,0,0,-0.38199,-0.18995,0,0.44868,0,0,0.19866,-0.029663,0,0.20088,-0.24817,-0.2951,-0.24414,56.586,-0.26247,0.049069,-5.9301e-06,0.32,0.32,0
0.14368,0.060157,0.61706,-0.29532,-0.69019,-0.64275,0.02819,0,0,0.26002,-0.10964,0,0.29048,0,0,0.21161,-0.13429,0,0.26486,-0.27248,-0.71303,-0.64275,32.003,-0.54275,0.42035,0.011901,0.34,0.32,0
0.16284,0.055795,0.61262,-0.31185,-1.1327,-1.046,0.046395,0,0,0.95436,-0.11271,0,0.12063,0,0,0.23861,-0.23472,0,0.33512,-0.30924,-1.1353,-1.046,3.2248,-0.83017,0.78521,0.023784,0.36,0.32,0
0.18186,0.052273,0.60751,-0.31178,-1.13,-1.04,0.06597,0,0,0.94673,-0.1169,0,0.17152,0,0,0.26798,-0.224,0,0.34947,-0.30649,-1.1352,-1.04,4.5803,-0.82725,0.78548,0.023662,0.38,0.32,0
0.20071,0.049494,0.6019,-0.30939,-1.1203,-1.0308,0.079783,0,0,0.93785,-0.11637,0,0.20744,0,0,0.28763,-0.20816,0,0.35504,-0.30162,-1.1281,-1.0308,5.5658,-0.82018,0.78239,0.023321,0.4,0.32,0
0.21937,0.047223,0.59601,-0.30552,-1.103,-1.0186,0.085664,0,0,0.92694,-0.10974,0,0.22273,0,0,0.29455,-0.1892,0,0.34998,-0.29642,-1.1121,-1.0186,6.0627,-0.80901,0.77314,0.022569,0.42,0.32,0
0.23779,0.045153,0.59012,-0.3006,-1.0772,-1.0034,0.083326,0,0,0.91369,-0.095816,0,0.21665,0,0,0.2871,-0.16936,0,0.33331,-0.29176,-1.086,-1.0034,6.0562,-0.79373,0.75634,0.021331,0.44,0.32,0
0.25592,0.042936,0.58452,-0.29531,-1.0407,-0.98532,0.072609,0,0,0.897,-0.071949,0,0.18879,0,0,0.26537,-0.15124,0,0.30572,-0.2883,-1.0477,-0.98532,5.5125,-0.77376,0.73019,0.019504,0.46,0.32,0
0.27367,0.040148,0.5795,-0.28911,-0.99181,-0.96378,0.051899,0,0,0.87706,-0.036439,0,0.13494,0,0,0.23166,-0.13768,0,0.2702,-0.2853,-0.99562,-0.96378,4.2014,-0.74823,0.69495,0.017116,0.48,0.32,0
0.291,0.036234,0.57526,-0.26232,-0.57179,-0.57382,0.027608,0,0,0.20672,0.0046768,0,0.25364,0,0,0.20002,-0.073752,0,0.21938,-0.23552,-0.59859,-0.57382,35.956,-0.46931,0.36169,0.007635,0.5,0.32,0
0.28194,0.038803,0.54521,-0.25121,-0.21833,-0.20901,0.017345,0,0,-0.43882,-0.096891,0,0.36078,0,0,0.18459,-0.014348,0,0.18517,-0.21087,-0.25866,-0.20901,66.732,-0.22618,0.048751,-5.9216e-06,0.52,0.32,0
0.27345,0.040828,0.51619,-0.24411,-0.22102,-0.20406,0.014266,0,0,-0.4165,-0.17635,0,0.29672,0,0,0.1781,-0.013244,0,0.17862,-0.21421,-0.25092,-0.20406,64.493,-0.22306,0.042694,-3.2482e-06,0.54,0.32,0
0.26528,0.042218,0.48822,-0.23783,-0.22125,-0.19875,0.011328,0,0,-0.40637,-0.23403,0,0.23562,0,0,0.17179,-0.012802,0,0.1723,-0.2155,-0.24357,-0.19875,63.092,-0.21928,0.039228,-1.3044e-06,0.56,0.32,0
0.25719,0.042937,0.46122,-0.23245,-0.21972,-0.1933,0.0086709,0,0,-0.40713,-0.27471,0,0.18035,0,0,0.16617,-0.012677,0,0.16667,-0.21532,-0.23684,-0.1933,63.144,-0.21516,0.037706,5.5784e-08,0.58,0.32,0
0.24899,0.043024,0.43504,-0.22791,-0.21701,-0.18785,0.0064438,0,0,-0.41657,-0.30317,0,0.13403,0,0,0.16148,-0.012592,0,0.16199,-0.21402,-0.2309,-0.18785,65.117,-0.21092,0.037564,9.8834e-07,0.6,0.32,0
0.24053,0.042578,0.40954,-0.2241,-0.21347,-0.18246,0.0046981,0,0,-0.433,-0.32247,0,0.097722,0,0,0.15778,-0.012399,0,0.15827,-0.21169,-0.22587,-0.18246,69.26,-0.20668,0.038342,1.6162e-06,0.62,0.32,0
0.23167,0.041719,0.38455,-0.22095,-0.2093,-0.17714,0.003402,0,0,-0.45555,-0.33445,0,0.070762,0,0,0.15499,-0.012051,0,0.15546,-0.20838,-0.22187,-0.17714,74.851,-0.20246,0.039736,2.0156e-06,0.64,0.32,0
0.22231,0.040567,0.35994,-0.21842,-0.20461,-0.17191,0.002482,0,0,-0.4838,-0.34018,0,0.051625,0,0,0.15302,-0.01156,0,0.15346,-0.20418,-0.21886,-0.17191,80.114,-0.19831,0.041603,2.2072e-06,0.66,0.32,0
0.21232,0.039228,0.33559,-0.21651,-0.19947,-0.16674,0.001859,0,0,-0.51757,-0.34039,0,0.038667,0,0,0.15179,-0.010965,0,0.15218,-0.19927,-0.21671,-0.16674,83.845,-0.19424,0.043925,2.155e-06,0.68,0.32,0
0.20161,0.037784,0.31137,-0.21519,-0.19393,-0.16166,0.001464,0,0,-0.55675,-0.33561,0,0.030452,0,0,0.15122,-0.01031,0,0.15157,-0.19383,-0.21529,-0.16166,86.08,-0.19026,0.046755,1.7715e-06,0.7,0.32,0
0.19005,0.036304,0.2872,-0.21446,-0.18802,-0.15664,0.0012421,0,0,-0.60127,-0.32634,0,0.025836,0,0,0.15129,-0.0096471,0,0.1516,-0.18796,-0.21452,-0.15664,87.316,-0.18638,0.050176,9.2204e-07,0.72,0.32,0
0.17755,0.034834,0.26296,-0.21431,-0.18181,-0.15171,0.0011502,0,0,-0.65109,-0.31308,0,0.023924,0,0,0.15201,-0.0090252,0,0.15228,-0.18177,-0.21435,-0.15171,87.976,-0.18261,0.054268,-5.7141e-07,0.74,0.32,0
0.16401,0.033409,0.23855,-0.21474,-0.17534,-0.14685,0.0011535,0,0,-0.70615,-0.29637,0,0.023992,0,0,0.15341,-0.0084943,0,0.15364,-0.17531,-0.21478,-0.14685,88.325,-0.17898,0.059089,-2.9263e-06,0.76,0.32,0
0.14931,0.032052,0.21387,-0.21575,-0.16869,-0.14206,0.0012201,0,0,-0.76632,-0.27686,0,0.025377,0,0,0.15556,-0.0081014,0,0.15577,-0.16865,-0.21578,-0.14206,88.516,-0.1755,0.06466,-6.3924e-06,0.78,0.32,0
0.13336,0.030774,0.18878,-0.21729,-0.16191,-0.13736,0.001317,0,0,-0.83133,-0.25534,0,0.027394,0,0,0.15856,-0.007884,0,0.15876,-0.16188,-0.21732,-0.13736,88.638,-0.17219,0.070959,-1.1237e-05,0.8,0.32,0
0.11606,0.029584,0.16313,-0.21933,-0.1551,-0.13272,0.0014118,0,0,-0.90077,-0.23272,0,0.029366,0,0,0.16252,-0.007854,0,0.16272,-0.15507,-0.21936,-0.13272,88.742,-0.16905,0.077912,-1.7722e-05,0.82,0.32,0
0.097326,0.028487,0.13677,-0.22179,-0.14831,-0.12813,0.0014873,0,0,-0.97408,-0.20993,0,0.030935,0,0,0.1675,-0.0079659,0,0.16771,-0.14828,-0.22182,-0.12813,88.841,-0.16608,0.085416,-2.6098e-05,0.84,0.32,0
0.077093,0.027511,0.10953,-0.22459,-0.14155,-0.12353,0.0015633,0,0,-1.051,-0.18737,0,0.032517,0,0,0.17346,-0.0080738,0,0.17368,-0.14152,-0.22462,-0.12353,88.922,-0.16323,0.093403,-3.6674e-05,0.86,0.32,0
0.055285,0.026715,0.081262,-0.22767,-0.13458,-0.11883,0.001693,0,0,-1.1319,-0.16379,0,0.035214,0,0,0.18015,-0.0079204,0,0.18036,-0.13455,-0.2277,-0.11883,88.958,-0.16036,0.10192,-5.0047e-05,0.88,0.32,0
0.031817,0.026196,0.051882,-0.23088,-0.12691,-0.11382,0.0018388,0,0,-1.2174,-0.13612,0,0.038247,0,0,0.18703,-0.0071975,0,0.1872,-0.12688,-0.23091,-0.11382,88.987,-0.1572,0.11114,-6.7236e-05,0.9,0.32,0
0.0065893,0.026034,0.021412,-0.22771,-0.17771,-0.13367,0.00025442,0,0,-0.6741,-0.10178,0,0.012901,0,0,0.20353,-0.025608,0,0.20659,-0.17192,-0.2335,-0.13367,42.586,-0.17969,0.09498,-3.0637e-05,0.92,0.32,0
0.0048527,0.025269,0.017079,-0.23417,-0.27503,-0.16984,-0.0030176,0,0,-0.083629,-0.13675,0,-0.0078456,0,0,0.2375,-0.040443,0,0.24189,-0.23395,-0.27525,-0.16984,-4.2012,-0.22634,0.091998,1.4566e-05,0.94,0.32,0
0.0032441,0.02449,0.011912,-0.23424,-0.30319,-0.17314,-0.0029113,0,0,-0.079429,-0.16907,0,-0.0075693,0,0,0.27396,-0.029896,0,0.276,-0.23412,-0.30332,-0.17314,-2.4133,-0.23686,0.11281,-8.0467e-06,0.96,0.32,0
0.0016755,0.023969,0.006121,-0.23326,-0.31591,-0.17087,-0.0011041,0,0,-0.081103,-0.18855,0,-0.0028706,0,0,0.29779,-0.015759,0,0.29825,-0.23324,-0.31593,-0.17087,-0.76518,-0.24001,0.12603,-2.4636e-05,0.98,0.32,0
0,0.023794,0,-0.22506,-0.31033,-0.16062,-0.0033673,0,0,-0.083776,-0.19463,0,-0.008755,0,0,0.30605,3.4694e-18,0,0.30596,-0.22493,-0.31046,-0.16062,-2.2579,-0.232,0.1302,-2.7476e-05,1,0.32,0
0,0.053204,1,-0.38699,-1.6293,-1.6049,0.00019801,0,0,1.5833,-0.031693,0,0.00051482,0,0,0.30292,-1.0547e-15,0,0.30278,-0.38699,-1.6293,-1.6049,0.0091325,-1.207,1.2303,0.095506,0,0.34,0
0.031665,0.053214,0.99394,-0.37647,-1.6175,-1.5921,-0.0091588,0,0,1.5804,-0.033007,0,-0.023813,0,0,0.29788,0.021441,0,0.29856,-0.3764,-1.6176,-1.5921,-0.4228,-1.1954,1.2287,0.095126,0.02,0.34,0
0.063215,0.053277,0.98808,-0.36882,-1.6093,-1.5815,-0.015783,0,0,1.5765,-0.036087,0,-0.041036,0,0,0.28291,0.041609,0,0.28602,-0.36862,-1.6095,-1.5815,-0.72885,-1.1865,1.2271,0.094737,0.04,0.34,0
0.094725,0.053501,0.98262,-0.35871,-1.5986,-1.5698,-0.017812,0,0,1.5745,-0.037461,0,-0.046312,0,0,0.25867,0.058619,0,0.26557,-0.35845,-1.5989,-1.5698,-0.82285,-1.1757,1.2262,0.094506,0.06,0.34,0
0.12619,0.053995,0.97774,-0.34812,-1.5804,-1.5563,-0.015994,0,0,1.5706,-0.031363,0,-0.041585,0,0,0.2269,0.069912,0,0.23809,-0.34791,-1.5806,-1.5563,-0.74348,-1.1616,1.2207,0.093306,0.08,0.34,0
0.15755,0.054723,0.97355,-0.3111,-0.92458,-0.91833,-0.014247,0,0,0.82766,-0.014456,0,-0.16041,0,0,0.19887,0.041101,0,0.20556,-0.30625,-0.92943,-0.91833,-17.884,-0.718,0.61856,0.045697,0.1,0.34,0
0.1593,0.050588,0.94342,-0.28727,-0.31079,-0.29735,-0.01234,0,0,0.10476,-0.13982,0,-0.25667,0,0,0.18593,0.0070536,0,0.18608,-0.28199,-0.31608,-0.29735,-23.191,-0.29847,0.029571,-2.2609e-07,0.12,0.34,0
0.16174,0.047061,0.91405,-0.28095,-0.31578,-0.29327,-0.0092356,0,0,0.12819,-0.23403,0,-0.1921,0,0,0.18142,0.0037259,0,0.18146,-0.27865,-0.31807,-0.29327,-13.97,-0.29667,0.034519,-9.0717e-07,0.14,0.34,0
0.16443,0.044434,0.88536,-0.27619,-0.31716,-0.28868,-0.005495,0,0,0.12985,-0.29625,0,-0.1143,0,0,0.17769,-0.00066969,0,0.17769,-0.27547,-0.31789,-0.28868,-7.5077,-0.29401,0.037597,-1.6372e-06,0.16,0.34,0
0.16694,0.042688,0.85719,-0.27298,-0.31592,-0.28382,-0.001898,0,0,0.11275,-0.33388,0,-0.039478,0,0,0.17516,-0.0057942,0,0.17525,-0.27289,-0.31601,-0.28382,-2.5256,-0.29091,0.038821,-2.2219e-06,0.18,0.34,0
0.16894,0.041693,0.82931,-0.27103,-0.31298,-0.27887,0.0014047,0,0,0.081497,-0.3548,0,0.029218,0,0,0.17408,-0.0113,0,0.17444,-0.27099,-0.31303,-0.27887,1.9157,-0.28763,0.03871,-2.5677e-06,0.2,0.34,0
0.1702,0.041346,0.80148,-0.27007,-0.30887,-0.27387,0.0045903,0,0,0.039514,-0.36402,0,0.095478,0,0,0.17458,-0.016898,0,0.17538,-0.26953,-0.3094,-0.27387,6.6558,-0.28427,0.037892,-2.6713e-06,0.22,0.34,0
0.17052,0.041636,0.77345,-0.26993,-0.30379,-0.2688,0.0079503,0,0,-0.011817,-0.36388,0,0.16537,0,0,0.17668,-0.022344,0,0.17808,-0.26816,-0.30556,-0.2688,12.58,-0.28084,0.037086,-2.6171e-06,0.24,0.34,0
0.16972,0.042661,0.74495,-0.27063,-0.29766,-0.26361,0.01178,0,0,-0.07307,-0.35416,0,0.24503,0,0,0.18034,-0.027363,0,0.18241,-0.26622,-0.30207,-0.26361,20.54,-0.2773,0.03723,-2.6065e-06,0.26,0.34,0
0.16759,0.04462,0.71574,-0.27233,-0.29008,-0.25819,0.016279,0,0,-0.14703,-0.33167,0,0.33861,0,0,0.18541,-0.031587,0,0.1881,-0.26266,-0.29975,-0.25819,30.698,-0.27353,0.039511,-3.0316e-06,0.28,0.34,0
0.16384,0.047753,0.68561,-0.27522,-0.28016,-0.25232,0.021336,0,0,-0.23822,-0.28958,0,0.44378,0,0,0.19154,-0.034561,0,0.19466,-0.25621,-0.29917,-0.25232,41.699,-0.26923,0.045031,-4.5717e-06,0.3,0.34,0
0.15807,0.052208,0.65445,-0.27932,-0.26677,-0.24563,0.026189,0,0,-0.3504,-0.21979,0,0.54473,0,0,0.19812,-0.035865,0,0.20137,-0.24611,-0.29998,-0.24563,51.742,-0.26391,0.054105,-8.1326e-06,0.32,0.34,0
0.14983,0.057824,0.62222,-0.29475,-0.70073,-0.64864,0.032765,0,0,0.27978,-0.12038,0,0.34667,0,0,0.21458,-0.1589,0,0.28385,-0.27095,-0.72453,-0.64864,30.255,-0.54804,0.43064,0.012543,0.34,0.34,0
0.16926,0.0534,0.61766,-0.31676,-1.156,-1.0595,0.049902,0,0,0.96554,-0.12546,0,0.12975,0,0,0.24892,-0.27434,0,0.37102,-0.3138,-1.1589,-1.0595,3.391,-0.84408,0.80006,0.024937,0.36,0.34,0
0.18845,0.049847,0.61226,-0.32133,-1.1478,-1.053,0.068804,0,0,0.95116,-0.12324,0,0.17889,0,0,0.2863,-0.25419,0,0.38307,-0.31564,-1.1535,-1.053,4.7266,-0.84071,0.79239,0.024173,0.38,0.34,0
0.2073,0.047162,0.60621,-0.32378,-1.1281,-1.0418,0.080522,0,0,0.93338,-0.1122,0,0.20936,0,0,0.31162,-0.22505,0,0.38427,-0.3158,-1.1361,-1.0418,5.6613,-0.8312,0.77741,0.022939,0.4,0.34,0
0.22578,0.045107,0.59979,-0.32268,-1.1006,-1.0268,0.08246,0,0,0.91534,-0.095997,0,0.2144,0,0,0.32142,-0.19033,0,0.37324,-0.31404,-1.1093,-1.0268,5.9845,-0.8167,0.75737,0.021423,0.42,0.34,0
0.24392,0.043383,0.59335,-0.31751,-1.0678,-1.009,0.076094,0,0,0.89888,-0.07653,0,0.19784,0,0,0.31359,-0.1533,0,0.34883,-0.30987,-1.0755,-1.009,5.7329,-0.79809,0.7346,0.019798,0.44,0.34,0
0.26174,0.041703,0.58725,-0.30947,-1.0261,-0.98791,0.06406,0,0,0.88197,-0.049602,0,0.16656,0,0,0.28763,-0.11835,0,0.31127,-0.30379,-1.0317,-0.98791,5.0684,-0.77448,0.70706,0.01792,0.46,0.34,0
0.2792,0.039715,0.58185,-0.30012,-0.96797,-0.96227,0.043877,0,0,0.8608,-0.007403,0,0.11408,0,0,0.24576,-0.091392,0,0.26332,-0.29724,-0.97084,-0.96227,3.7428,-0.74345,0.66935,0.015394,0.48,0.34,0
0.29617,0.036761,0.57742,-0.26645,-0.54704,-0.56884,0.019282,0,0,0.1747,0.050397,0,0.15614,0,0,0.20583,-0.044321,0,0.21356,-0.23821,-0.57528,-0.56884,40.305,-0.46078,0.34525,0.0065252,0.5,0.34,0
0.28618,0.037253,0.54697,-0.25611,-0.21592,-0.20998,0.0091018,0,0,-0.47974,-0.061768,0,0.18932,0,0,0.18642,-0.006857,0,0.18659,-0.21395,-0.25807,-0.20998,77.816,-0.22733,0.046235,-4.9499e-06,0.52,0.34,0
0.27698,0.037656,0.51777,-0.24774,-0.21871,-0.20465,0.0071237,0,0,-0.44806,-0.14615,0,0.14817,0,0,0.17874,-0.0059424,0,0.17888,-0.21705,-0.24939,-0.20465,76.93,-0.2237,0.040005,-2.2549e-06,0.54,0.34,0
0.26826,0.037855,0.48977,-0.24045,-0.21897,-0.19904,0.0052832,0,0,-0.43057,-0.20718,0,0.10989,0,0,0.17168,-0.0064128,0,0.17183,-0.21774,-0.24168,-0.19904,76.903,-0.21949,0.037012,-5.4989e-07,0.56,0.34,0
0.25976,0.037713,0.46283,-0.23435,-0.21776,-0.19349,0.003599,0,0,-0.42496,-0.25248,0,0.074859,0,0,0.16578,-0.0074652,0,0.16596,-0.21702,-0.2351,-0.19349,78.269,-0.2152,0.036137,5.4422e-07,0.58,0.34,0
0.25126,0.037179,0.43672,-0.22924,-0.21549,-0.18801,0.0022218,0,0,-0.4288,-0.28583,0,0.046214,0,0,0.16112,-0.0085189,0,0.16135,-0.21515,-0.22959,-0.18801,81.043,-0.21092,0.036564,1.2542e-06,0.6,0.34,0
0.2426,0.0363,0.41127,-0.22503,-0.21239,-0.18264,0.0012408,0,0,-0.44092,-0.30948,0,0.025809,0,0,0.15759,-0.0093264,0,0.15787,-0.21227,-0.22515,-0.18264,84.445,-0.20669,0.037762,1.72e-06,0.62,0.34,0
0.23363,0.035164,0.3863,-0.22163,-0.2086,-0.17736,0.00064192,0,0,-0.46045,-0.32492,0,0.013352,0,0,0.155,-0.0098351,0,0.15531,-0.20857,-0.22166,-0.17736,87.187,-0.20253,0.039424,2.0166e-06,0.64,0.34,0
0.22419,0.033869,0.36167,-0.21896,-0.20421,-0.17216,0.00036874,0,0,-0.48669,-0.33332,0,0.0076698,0,0,0.1532,-0.010081,0,0.15354,-0.2042,-0.21896,-0.17216,88.569,-0.19844,0.041446,2.1536e-06,0.66,0.34,0
0.21416,0.032502,0.33727,-0.21694,-0.1993,-0.16703,0.00035664,0,0,-0.51909,-0.33556,0,0.0074182,0,0,0.15208,-0.010135,0,0.15242,-0.19929,-0.21695,-0.16703,88.843,-0.19442,0.043843,2.0818e-06,0.68,0.34,0
0.20342,0.031138,0.313,-0.21555,-0.19393,-0.16197,0.00054984,0,0,-0.55723,-0.3324,0,0.011437,0,0,0.15157,-0.010081,0,0.1519,-0.19392,-0.21556,-0.16197,88.544,-0.19048,0.046698,1.7027e-06,0.7,0.34,0
0.19187,0.029829,0.28877,-0.21474,-0.18817,-0.15697,0.00090507,0,0,-0.60084,-0.32448,0,0.018825,0,0,0.15162,-0.010003,0,0.15195,-0.18814,-0.21477,-0.15697,88.052,-0.18663,0.050111,8.749e-07,0.72,0.34,0
0.17939,0.028613,0.26449,-0.21452,-0.18207,-0.15204,0.0013895,0,0,-0.64979,-0.31237,0,0.028902,0,0,0.15225,-0.0099878,0,0.15258,-0.18201,-0.21458,-0.15204,87.552,-0.18288,0.054176,-5.8445e-07,0.74,0.34,0
0.16588,0.027514,0.24005,-0.21488,-0.1757,-0.14718,0.0019753,0,0,-0.70405,-0.29661,0,0.041086,0,0,0.1535,-0.010122,0,0.15383,-0.1756,-0.21497,-0.14718,87.121,-0.17925,0.058968,-2.9009e-06,0.76,0.34,0
0.15123,0.026542,0.21537,-0.21583,-0.16911,-0.1424,0.0026322,0,0,-0.76368,-0.27773,0,0.05475,0,0,0.15544,-0.01049,0,0.15579,-0.16896,-0.21598,-0.1424,86.786,-0.17578,0.064537,-6.3465e-06,0.78,0.34,0
0.13533,0.025694,0.19031,-0.21742,-0.16237,-0.13772,0.0033196,0,0,-0.82879,-0.25631,0,0.069047,0,0,0.1582,-0.011164,0,0.1586,-0.16217,-0.21762,-0.13772,86.561,-0.1725,0.070903,-1.1241e-05,0.8,0.34,0
0.11808,0.02496,0.16474,-0.21962,-0.15554,-0.13314,0.0039831,0,0,-0.8994,-0.23296,0,0.082848,0,0,0.16195,-0.01218,0,0.16242,-0.1553,-0.21987,-0.13314,86.457,-0.16944,0.078046,-1.7946e-05,0.82,0.34,0
0.099355,0.024329,0.13849,-0.22243,-0.1487,-0.12865,0.0045673,0,0,-0.97529,-0.20852,0,0.094999,0,0,0.16687,-0.013483,0,0.16743,-0.14842,-0.22271,-0.12865,86.469,-0.16659,0.0859,-2.6832e-05,0.84,0.34,0
0.079065,0.023814,0.11134,-0.22575,-0.14188,-0.12421,0.0050722,0,0,-1.056,-0.18382,0,0.1055,0,0,0.17307,-0.014816,0,0.17374,-0.14158,-0.22605,-0.12421,86.552,-0.16395,0.094369,-3.8281e-05,0.86,0.34,0
0.057114,0.023498,0.083104,-0.22964,-0.13506,-0.1198,0.0055729,0,0,-1.1423,-0.15873,0,0.11592,0,0,0.18044,-0.015589,0,0.18116,-0.13473,-0.22996,-0.1198,86.639,-0.1615,0.10351,-5.2985e-05,0.88,0.34,0
0.033371,0.02355,0.053603,-0.23397,-0.12741,-0.11511,0.0060792,0,0,-1.2361,-0.12789,0,0.12645,0,0,0.18841,-0.015026,0,0.18906,-0.12707,-0.23431,-0.11511,86.745,-0.15883,0.1137,-7.268e-05,0.9,0.34,0
0.0076705,0.02413,0.022812,-0.23073,-0.16909,-0.13278,0.0037011,0,0,-0.68954,-0.08392,0,0.058629,0,0,0.20836,-0.056285,0,0.21998,-0.16872,-0.2311,-0.13278,81.82,-0.17753,0.09448,-3.5914e-05,0.92,0.34,0
0.0057897,0.022575,0.018327,-0.24516,-0.2766,-0.17485,5.9286e-05,0,0,-0.091394,-0.13227,0,0.00015414,0,0,0.24945,-0.088946,0,0.26604,-0.24516,-0.2766,-0.17485,0.10803,-0.2322,0.090231,2.2867e-05,0.94,0.34,0
0.0040148,0.021132,0.012834,-0.25033,-0.30652,-0.17989,0.0014442,0,0,-0.091576,-0.16462,0,0.0037548,0,0,0.29299,-0.065045,0,0.30049,-0.2503,-0.30656,-0.17989,1.4713,-0.24558,0.10993,1.3095e-05,0.96,0.34,0
0.0021267,0.020245,0.0066071,-0.25454,-0.31455,-0.17734,0.0027823,0,0,-0.10037,-0.17838,0,0.0072339,0,0,0.32085,-0.033901,0,0.32249,-0.25442,-0.31468,-0.17734,2.6488,-0.24881,0.11924,1.8292e-05,0.98,0.34,0
0,0.019963,0,-0.24773,-0.30539,-0.16593,-0.0054218,0,0,-0.10633,-0.18129,0,-0.014097,0,0,0.33036,1.7347e-18,0,0.33004,-0.24723,-0.30589,-0.16593,-5.3258,-0.23968,0.12173,2.5532e-05,1,0.34,0
0,0.052757,1,-0.41639,-1.6154,-1.6095,-0.00071586,0,0,1.5511,-0.0076082,0,-0.0018613,0,0,0.32941,-4.0679e-15,0,0.32914,-0.41639,-1.6154,-1.6095,-0.034209,-1.2138,1.1961,0.087876,0,0.36,0
0.031022,0.05272,0.99341,-0.40331,-1.6038,-1.5956,-0.016108,0,0,1.5499,-0.010741,0,-0.04188,0,0,0.32371,0.031985,0,0.32507,-0.4031,-1.604,-1.5956,-0.76859,-1.2009,1.1967,0.088008,0.02,0.36,0
0.061996,0.05266,0.98705,-0.39083,-1.6002,-1.5843,-0.029178,0,0,1.5516,-0.02056,0,-0.075863,0,0,0.30631,0.063262,0,0.31275,-0.39012,-1.6009,-1.5843,-1.3813,-1.1918,1.2026,0.089265,0.04,0.36,0
0.093085,0.052772,0.98116,-0.37373,-1.5982,-1.5728,-0.034464,0,0,1.5587,-0.03315,0,-0.089605,0,0,0.27687,0.091345,0,0.29192,-0.37276,-1.5992,-1.5728,-1.6109,-1.1816,1.2134,0.09162,0.06,0.36,0
0.12435,0.053329,0.97598,-0.35685,-1.5881,-1.5595,-0.031141,0,0,1.5634,-0.037216,0,-0.080966,0,0,0.23658,0.11165,0,0.26257,-0.35607,-1.5889,-1.5595,-1.4479,-1.1681,1.2184,0.092705,0.08,0.36,0
0.15562,0.054425,0.9717,-0.31156,-0.92558,-0.91772,-0.025118,0,0,0.83103,-0.018159,0,-0.27171,0,0,0.20016,0.066751,0,0.21633,-0.30236,-0.93477,-0.91772,-19.681,-0.71828,0.62575,0.045568,0.1,0.36,0
0.15759,0.047518,0.94189,-0.28602,-0.31521,-0.29811,-0.020384,0,0,0.12566,-0.17789,0,-0.42399,0,0,0.18311,0.012929,0,0.18359,-0.27555,-0.32569,-0.29811,-27.2,-0.29978,0.043495,-7.2875e-07,0.12,0.36,0
0.16065,0.042004,0.9131,-0.27834,-0.32111,-0.29397,-0.014889,0,0,0.1626,-0.28224,0,-0.30969,0,0,0.17714,0.0088556,0,0.17737,-0.27367,-0.32578,-0.29397,-17.423,-0.29781,0.0455,-1.7958e-06,0.14,0.36,0
0.16409,0.038137,0.88521,-0.27298,-0.32187,-0.2891,-0.0091398,0,0,0.16773,-0.34074,0,-0.19011,0,0,0.17229,0.003081,0,0.17231,-0.27132,-0.32352,-0.2891,-10.25,-0.29465,0.045962,-2.5892e-06,0.16,0.36,0
0.16736,0.03568,0.85797,-0.26968,-0.31993,-0.28413,-0.0041074,0,0,0.15028,-0.37234,0,-0.085433,0,0,0.1691,-0.0037072,0,0.16912,-0.26935,-0.32026,-0.28413,-4.6421,-0.29125,0.045371,-3.1361e-06,0.18,0.36,0
0.1701,0.034299,0.8311,-0.26777,-0.3166,-0.2792,0.00023682,0,0,0.11884,-0.38896,0,0.0049259,0,0,0.16774,-0.010932,0,0.16807,-0.26777,-0.3166,-0.2792,0.27789,-0.28786,0.044237,-3.4657e-06,0.2,0.36,0
0.17211,0.033779,0.80429,-0.26687,-0.31246,-0.27434,0.0042758,0,0,0.07762,-0.39648,0,0.088937,0,0,0.16825,-0.018257,0,0.16921,-0.26648,-0.31286,-0.27434,5.3123,-0.28456,0.042994,-3.6261e-06,0.22,0.36,0
0.17321,0.03406,0.77726,-0.26683,-0.3077,-0.26952,0.0084269,0,0,0.027951,-0.39714,0,0.17528,0,0,0.17064,-0.025459,0,0.17252,-0.26516,-0.30937,-0.26952,11.204,-0.28135,0.042203,-3.7222e-06,0.24,0.36,0
0.17323,0.035245,0.74969,-0.26766,-0.30226,-0.26469,0.013106,0,0,-0.030921,-0.39076,0,0.2726,0,0,0.17498,-0.032265,0,0.17793,-0.26326,-0.30666,-0.26469,18.573,-0.2782,0.04271,-3.9863e-06,0.26,0.36,0
0.17197,0.037606,0.72126,-0.2696,-0.29568,-0.25974,0.018712,0,0,-0.10252,-0.37375,0,0.38921,0,0,0.18124,-0.038193,0,0.18525,-0.25983,-0.30545,-0.25974,27.564,-0.27501,0.04566,-4.8892e-06,0.28,0.36,0
0.16913,0.041559,0.69169,-0.27324,-0.28679,-0.25447,0.025367,0,0,-0.19519,-0.33616,0,0.52763,0,0,0.18914,-0.042434,0,0.19389,-0.25376,-0.30627,-0.25447,37.52,-0.2715,0.052161,-7.2846e-06,0.3,0.36,0
0.16416,0.047489,0.66074,-0.27885,-0.27303,-0.24816,0.032247,0,0,-0.31923,-0.25866,0,0.67073,0,0,0.19791,-0.044079,0,0.20281,-0.24356,-0.30832,-0.24816,47.58,-0.26668,0.062585,-1.2362e-05,0.32,0.36,0
0.15636,0.055341,0.62836,-0.29632,-0.71055,-0.65551,0.040701,0,0,0.29621,-0.1272,0,0.42957,0,0,0.22031,-0.19164,0,0.3115,-0.26989,-0.73698,-0.65551,28.924,-0.55413,0.44156,0.013094,0.34,0.36,0
0.17601,0.050776,0.62359,-0.3292,-1.1827,-1.0772,0.061151,0,0,0.97235,-0.13719,0,0.15899,0,0,0.26691,-0.32661,0,0.42268,-0.32484,-1.187,-1.0772,4.0774,-0.86302,0.81285,0.025892,0.36,0.36,0
0.19525,0.047344,0.61768,-0.34252,-1.1644,-1.0698,0.081253,0,0,0.94541,-0.12306,0,0.21126,0,0,0.31727,-0.2933,0,0.43232,-0.33457,-1.1724,-1.0698,5.5921,-0.8589,0.79151,0.024031,0.38,0.36,0
0.21383,0.045006,0.6109,-0.35486,-1.1298,-1.0563,0.089108,0,0,0.91187,-0.095544,0,0.23168,0,0,0.35149,-0.2473,0,0.42946,-0.34475,-1.1399,-1.0563,6.4757,-0.84698,0.75683,0.021351,0.4,0.36,0
0.23173,0.043383,0.60362,-0.36007,-1.0897,-1.0386,0.082251,0,0,0.88203,-0.0665,0,0.21385,0,0,0.3663,-0.19392,0,0.41384,-0.35091,-1.0989,-1.0386,6.3527,-0.82944,0.71969,0.018693,0.42,0.36,0
0.24911,0.042092,0.59625,-0.35274,-1.0486,-1.0167,0.065768,0,0,0.86308,-0.041532,0,0.171,0,0,0.35908,-0.13636,0,0.38342,-0.34658,-1.0548,-1.0167,5.3521,-0.80599,0.68992,0.016693,0.44,0.36,0
0.26625,0.040951,0.58926,-0.33822,-1.0089,-0.99339,0.046266,0,0,0.85171,-0.020134,0,0.12029,0,0,0.32728,-0.077647,0,0.33638,-0.33505,-1.012,-0.99339,3.9279,-0.78016,0.66787,0.01526,0.46,0.36,0
0.28318,0.039851,0.58316,-0.32092,-0.94982,-0.96438,0.027952,0,0,0.8365,0.018928,0,0.072674,0,0,0.27122,-0.02982,0,0.27478,-0.31968,-0.95106,-0.96438,2.5399,-0.74504,0.63814,0.013327,0.48,0.36,0
0.29971,0.03825,0.57841,-0.27153,-0.51994,-0.5628,0.0062201,0,0,0.13601,0.099052,0,0.022585,0,0,0.21561,-0.0036514,0,0.21751,-0.23998,-0.55149,-0.5628,45.279,-0.45142,0.33021,0.005291,0.5,0.36,0
0.28862,0.036332,0.5474,-0.26201,-0.21551,-0.21168,-0.001095,0,0,-0.52339,-0.039834,0,-0.022776,0,0,0.18849,0.0029299,0,0.1886,-0.21549,-0.26203,-0.21168,-88.652,-0.22973,0.048561,-5.76e-06,0.52,0.36,0
0.27877,0.034981,0.51809,-0.2511,-0.21779,-0.20543,-0.0014263,0,0,-0.47495,-0.1286,0,-0.029666,0,0,0.17854,0.0027983,0,0.17863,-0.21773,-0.25116,-0.20543,-87.552,-0.22477,0.040987,-2.4916e-06,0.54,0.36,0
0.26962,0.033931,0.49027,-0.24247,-0.21799,-0.19942,-0.0017472,0,0,-0.44774,-0.19309,0,-0.036342,0,0,0.17027,0.00039686,0,0.1703,-0.21787,-0.2426,-0.19942,-85.939,-0.21996,0.037523,-6.76e-07,0.56,0.36,0
0.26086,0.032837,0.4636,-0.23537,-0.21691,-0.19363,-0.0021665,0,0,-0.43407,-0.24204,0,-0.045063,0,0,0.16407,-0.0023674,0,0.1641,-0.21666,-0.23562,-0.19363,-83.397,-0.2153,0.036419,4.1272e-07,0.58,0.36,0
0.25226,0.031591,0.43777,-0.22964,-0.21492,-0.18809,-0.0024269,0,0,-0.43212,-0.27907,0,-0.050479,0,0,0.15962,-0.0047478,0,0.1597,-0.21453,-0.23003,-0.18809,-80.874,-0.21088,0.036732,1.1042e-06,0.6,0.36,0
0.24358,0.030199,0.41252,-0.22507,-0.21211,-0.18272,-0.0024543,0,0,-0.4404,-0.30571,0,-0.051049,0,0,0.15646,-0.0065766,0,0.1566,-0.21166,-0.22551,-0.18272,-79.621,-0.20663,0.037823,1.5754e-06,0.62,0.36,0
0.23464,0.028722,0.3877,-0.22148,-0.20859,-0.17748,-0.0022411,0,0,-0.45755,-0.32349,0,-0.046614,0,0,0.15423,-0.0078906,0,0.15444,-0.20821,-0.22185,-0.17748,-80.414,-0.20252,0.039366,1.9111e-06,0.64,0.36,0
0.22528,0.027235,0.36317,-0.21871,-0.20442,-0.17233,-0.0018146,0,0,-0.48226,-0.3337,0,-0.037744,0,0,0.15272,-0.0087955,0,0.15297,-0.20419,-0.21893,-0.17233,-82.872,-0.19849,0.041253,2.1159e-06,0.66,0.36,0
0.21535,0.025805,0.33883,-0.21662,-0.1997,-0.16725,-0.0012061,0,0,-0.51349,-0.33745,0,-0.025087,0,0,0.15179,-0.0094152,0,0.15208,-0.19961,-0.21671,-0.16725,-85.945,-0.19452,0.043508,2.1346e-06,0.68,0.36,0
0.20474,0.024488,0.3146,-0.21515,-0.19449,-0.16222,-0.00044158,0,0,-0.55049,-0.33564,0,-0.0091848,0,0,0.15135,-0.0098745,0,0.15168,-0.19448,-0.21516,-0.16222,-88.776,-0.19062,0.046213,1.8664e-06,0.7,0.36,0
0.19333,0.023324,0.2904,-0.21423,-0.18887,-0.15723,0.0004617,0,0,-0.59279,-0.32904,0,0.0096033,0,0,0.15139,-0.010296,0,0.15174,-0.18886,-0.21423,-0.15723,88.957,-0.18677,0.049468,1.1725e-06,0.72,0.36,0
0.18103,0.022339,0.26615,-0.21385,-0.18289,-0.15229,0.0014946,0,0,-0.64017,-0.31826,0,0.031087,0,0,0.15189,-0.010801,0,0.15227,-0.18282,-0.21392,-0.15229,87.242,-0.18301,0.053371,-1.2429e-07,0.74,0.36,0
0.16772,0.021545,0.24179,-0.21402,-0.17664,-0.14742,0.0026521,0,0,-0.69267,-0.30382,0,0.055163,0,0,0.1529,-0.011514,0,0.15334,-0.17645,-0.21421,-0.14742,85.963,-0.17936,0.058006,-2.2477e-06,0.76,0.36,0
0.15332,0.020942,0.21723,-0.21482,-0.17015,-0.14264,0.0039275,0,0,-0.7506,-0.2861,0,0.081692,0,0,0.15452,-0.012563,0,0.15503,-0.16981,-0.21516,-0.14264,85.013,-0.17587,0.063456,-5.4863e-06,0.78,0.36,0
0.1377,0.020522,0.19235,-0.21632,-0.1635,-0.13799,0.005303,0,0,-0.81462,-0.26533,0,0.1103,0,0,0.15687,-0.014076,0,0.1575,-0.16298,-0.21685,-0.13799,84.323,-0.1726,0.069802,-1.0224e-05,0.8,0.36,0
0.12073,0.020265,0.16703,-0.21866,-0.15673,-0.13349,0.006736,0,0,-0.88569,-0.24164,0,0.14011,0,0,0.1602,-0.016162,0,0.16102,-0.156,-0.21938,-0.13349,83.864,-0.16963,0.077135,-1.6979e-05,0.82,0.36,0
0.10227,0.020146,0.14108,-0.22194,-0.14986,-0.12917,0.0081519,0,0,-0.96474,-0.2151,0,0.16956,0,0,0.16487,-0.018853,0,0.16596,-0.14895,-0.22285,-0.12917,83.627,-0.16699,0.08552,-2.6426e-05,0.84,0.36,0
0.082145,0.020158,0.11427,-0.2262,-0.14295,-0.12503,0.0094641,0,0,-1.0521,-0.18638,0,0.19685,0,0,0.17136,-0.021962,0,0.17279,-0.14189,-0.22726,-0.12503,83.595,-0.16472,0.094931,-3.9309e-05,0.86,0.36,0
0.060186,0.020366,0.08625,-0.23134,-0.13604,-0.121,0.010762,0,0,-1.1476,-0.15649,0,0.22386,0,0,0.17994,-0.024676,0,0.18169,-0.13484,-0.23254,-0.121,83.636,-0.16279,0.1053,-5.6493e-05,0.88,0.36,0
0.036242,0.021081,0.05669,-0.23807,-0.12903,-0.11722,0.012115,0,0,-1.2569,-0.12283,0,0.252,0,0,0.19011,-0.025044,0,0.19184,-0.1277,-0.2394,-0.11722,83.736,-0.16144,0.1173,-8.0663e-05,0.9,0.36,0
0.0099093,0.022677,0.025414,-0.23467,-0.15736,-0.1319,0.01205,0,0,-0.70963,-0.058827,0,0.13922,0,0,0.21716,-0.097109,0,0.24666,-0.15479,-0.23724,-0.1319,78.222,-0.17464,0.098682,-5.0687e-05,0.92,0.36,0
0.0078571,0.019978,0.020637,-0.26708,-0.28609,-0.18659,0.013161,0,0,-0.10464,-0.12936,0,0.034219,0,0,0.27252,-0.15091,0,0.31315,-0.26035,-0.29282,-0.18659,27.077,-0.24659,0.094288,2.6471e-05,0.94,0.36,0
0.0057239,0.017906,0.014513,-0.28323,-0.30968,-0.19239,0.019037,0,0,-0.1181,-0.15248,0,0.049497,0,0,0.329,-0.10705,0,0.34615,-0.27327,-0.31964,-0.19239,27.606,-0.26177,0.11155,3.2039e-05,0.96,0.36,0
0.0031332,0.016834,0.007477,-0.2981,-0.30374,-0.18803,0.014292,0,0,-0.1431,-0.15042,0,0.037158,0,0,0.36283,-0.053461,0,0.36621,-0.28635,-0.31549,-0.18803,39.425,-0.26329,0.11568,6.2821e-05,0.98,0.36,0
0,0.016542,0,-0.29648,-0.29009,-0.17597,-0.0055999,0,0,-0.15666,-0.14836,0,-0.01456,0,0,0.37385,1.0408e-17,0,0.3732,-0.28684,-0.29973,-0.17597,-59.848,-0.25418,0.11785,8.0673e-05,1,0.36,0
0,0.0529,1,-0.45927,-1.5955,-1.6164,-0.0022118,0,0,1.5043,0.027175,0,-0.0057508,0,0,0.36689,-2.8796e-16,0,0.36647,-0.45926,-1.5955,-1.6164,-0.11153,-1.2237,1.1469,0.07739,0,0.38,0
0.030087,0.052785,0.99266,-0.44465,-1.583,-1.601,-0.024396,0,0,1.5032,0.023356,0,-0.06343,0,0,0.36114,0.042775,0,0.36327,-0.44412,-1.5835,-1.601,-1.2272,-1.2095,1.1482,0.077687,0.02,0.38,0
0.060128,0.052454,0.98555,-0.42609,-1.5798,-1.5873,-0.047456,0,0,1.5096,0.0097377,0,-0.12339,0,0,0.34226,0.086794,0,0.35283,-0.42414,-1.5818,-1.5873,-2.3514,-1.1978,1.1604,0.080252,0.04,0.38,0
0.090471,0.052175,0.97897,-0.39998,-1.5915,-1.5764,-0.062473,0,0,1.5294,-0.019592,0,-0.16243,0,0,0.30706,0.13153,0,0.33436,-0.39672,-1.5947,-1.5764,-2.9932,-1.1893,1.189,0.086256,0.06,0.38,0
0.1213,0.052506,0.97327,-0.37341,-1.6029,-1.5661,-0.05742,0,0,1.5506,-0.047717,0,-0.14929,0,0,0.25422,0.16738,0,0.30582,-0.37073,-1.6055,-1.5661,-2.6682,-1.1808,1.2156,0.091927,0.08,0.38,0
0.15249,0.053996,0.9688,-0.31367,-0.93302,-0.91896,-0.042645,0,0,0.83647,-0.032495,0,-0.43073,0,0,0.20398,0.10276,0,0.23802,-0.29823,-0.94846,-0.91896,-20.85,-0.72188,0.63884,0.046039,0.1,0.38,0
0.15476,0.043472,0.93928,-0.28514,-0.32396,-0.30014,-0.030489,0,0,0.15599,-0.24771,0,-0.63417,0,0,0.17995,0.021212,0,0.18126,-0.26841,-0.34069,-0.30014,-28.76,-0.30308,0.062756,-2.658e-06,0.12,0.38,0
0.15873,0.035772,0.91122,-0.27499,-0.32917,-0.29515,-0.021254,0,0,0.20966,-0.35378,0,-0.44209,0,0,0.17157,0.015784,0,0.17232,-0.26765,-0.33651,-0.29515,-19.059,-0.29977,0.060039,-3.7799e-06,0.14,0.38,0
0.16315,0.030804,0.88438,-0.269,-0.32826,-0.28973,-0.012951,0,0,0.21555,-0.40079,0,-0.26938,0,0,0.16512,0.0077287,0,0.16529,-0.26629,-0.33097,-0.28973,-11.804,-0.29566,0.056715,-4.2688e-06,0.16,0.38,0
0.16736,0.027794,0.85838,-0.26553,-0.32511,-0.28449,-0.0063889,0,0,0.19717,-0.42246,0,-0.13289,0,0,0.16115,-0.0012756,0,0.16111,-0.26485,-0.32579,-0.28449,-6.0523,-0.29171,0.053871,-4.582e-06,0.18,0.38,0
0.17103,0.026134,0.83281,-0.26358,-0.32118,-0.27953,-0.00093707,0,0,0.16589,-0.43319,0,-0.019491,0,0,0.15954,-0.010496,0,0.15984,-0.26356,-0.3212,-0.27953,-0.93172,-0.2881,0.051541,-4.8241e-06,0.2,0.38,0
0.17399,0.025486,0.80733,-0.26272,-0.31692,-0.27481,0.0040356,0,0,0.12572,-0.43798,0,0.083941,0,0,0.16005,-0.019726,0,0.16122,-0.26242,-0.31722,-0.27481,4.2349,-0.28482,0.049776,-5.036e-06,0.22,0.38,0
0.17606,0.02575,0.7816,-0.2629,-0.31252,-0.27033,0.0090867,0,0,0.077232,-0.43885,0,0.189,0,0,0.16267,-0.028904,0,0.16518,-0.26129,-0.31414,-0.27033,10.057,-0.28192,0.048958,-5.3411e-06,0.24,0.38,0
0.17708,0.027031,0.75527,-0.26411,-0.30787,-0.266,0.014748,0,0,0.019663,-0.43542,0,0.30677,0,0,0.16761,-0.037916,0,0.17183,-0.25961,-0.31238,-0.266,16.992,-0.27933,0.049881,-6.0223e-06,0.26,0.38,0
0.17685,0.02967,0.72796,-0.26662,-0.30262,-0.26177,0.021614,0,0,-0.050444,-0.42489,0,0.44956,0,0,0.17525,-0.046355,0,0.1813,-0.25649,-0.31275,-0.26177,25.104,-0.277,0.053814,-7.7452e-06,0.28,0.38,0
0.17506,0.034307,0.69919,-0.27124,-0.2956,-0.25745,0.030374,0,0,-0.14339,-0.39676,0,0.63177,0,0,0.18566,-0.053066,0,0.19318,-0.2507,-0.31615,-0.25745,34.073,-0.27476,0.062347,-1.1956e-05,0.3,0.38,0
0.17111,0.041861,0.66855,-0.27973,-0.28325,-0.25246,0.040574,0,0,-0.28355,-0.3202,0,0.84393,0,0,0.19797,-0.055764,0,0.20579,-0.24088,-0.3221,-0.25246,43.757,-0.27181,0.076096,-2.0874e-05,0.32,0.38,0
0.16372,0.052736,0.63584,-0.30058,-0.72515,-0.66538,0.056143,0,0,0.31252,-0.13813,0,0.56475,0,0,0.23015,-0.23871,0,0.3537,-0.26884,-0.75689,-0.66538,28.061,-0.5637,0.45848,0.013858,0.34,0.38,0
0.18362,0.047912,0.63072,-0.35328,-1.2185,-1.1022,0.086788,0,0,0.97367,-0.15109,0,0.22565,0,0,0.29631,-0.39884,0,0.49825,-0.34466,-1.2271,-1.1022,5.672,-0.89133,0.82712,0.026843,0.36,0.38,0
0.20267,0.044924,0.62399,-0.3813,-1.1762,-1.0913,0.11075,0,0,0.92293,-0.11048,0,0.28795,0,0,0.36561,-0.34467,0,0.50265,-0.36616,-1.1914,-1.0913,7.7851,-0.88293,0.77999,0.023024,0.38,0.38,0
0.22053,0.04334,0.6161,-0.40978,-1.1193,-1.0748,0.10886,0,0,0.86457,-0.057831,0,0.28304,0,0,0.41101,-0.27541,0,0.49413,-0.39345,-1.1356,-1.0748,8.5293,-0.86797,0.71373,0.018217,0.4,0.38,0
0.23725,0.042447,0.60755,-0.42827,-1.0675,-1.0563,0.08823,0,0,0.81643,-0.014619,0,0.2294,0,0,0.43236,-0.20156,0,0.47602,-0.41631,-1.0795,-1.0563,7.7157,-0.8507,0.65189,0.014167,0.42,0.38,0
0.25319,0.041722,0.59881,-0.42431,-1.0158,-1.0308,0.054124,0,0,0.78848,0.019564,0,0.14072,0,0,0.42986,-0.12201,0,0.44553,-0.4194,-1.0207,-1.0308,5.1856,-0.82364,0.60643,0.011444,0.44,0.38,0
0.26879,0.040898,0.59036,-0.38834,-0.96491,-0.99633,0.016213,0,0,0.79039,0.040849,0,0.042154,0,0,0.39417,-0.033747,0,0.39421,-0.38789,-0.96537,-0.99633,1.6095,-0.78319,0.59357,0.010642,0.46,0.38,0
0.2848,0.040472,0.58304,-0.36343,-0.94317,-0.97502,-0.01344,0,0,0.79506,0.041407,0,-0.034945,0,0,0.31692,0.063799,0,0.327,-0.36312,-0.94348,-0.97502,-1.3274,-0.76054,0.59675,0.010812,0.48,0.38,0
0.30059,0.040723,0.57768,-0.28958,-0.508,-0.56422,-0.014949,0,0,0.093437,0.12992,0,-0.17242,0,0,0.2329,0.058534,0,0.24615,-0.25267,-0.54491,-0.56422,-40.202,-0.45394,0.31721,0.0041335,0.5,0.38,0
0.28854,0.03566,0.54603,-0.26781,-0.2179,-0.21396,-0.015296,0,0,-0.55994,-0.040917,0,-0.31816,0,0,0.19003,0.017916,0,0.19109,-0.21358,-0.27212,-0.21396,-74.246,-0.23322,0.058347,-1.02e-05,0.52,0.38,0
0.2782,0.032512,0.51687,-0.25371,-0.21965,-0.20662,-0.012011,0,0,-0.48975,-0.13557,0,-0.24983,0,0,0.1762,0.013177,0,0.17676,-0.21584,-0.25752,-0.20662,-72.401,-0.22666,0.046972,-4.6384e-06,0.54,0.38,0
0.26895,0.030132,0.48965,-0.2427,-0.21885,-0.19967,-0.0099614,0,0,-0.44752,-0.19944,0,-0.2072,0,0,0.16652,0.0071792,0,0.16669,-0.21524,-0.24631,-0.19967,-70.066,-0.22041,0.041133,-1.9263e-06,0.56,0.38,0
0.26029,0.028032,0.46359,-0.23464,-0.21755,-0.1936,-0.0084738,0,0,-0.42673,-0.24904,0,-0.17626,0,0,0.16063,0.0022077,0,0.16065,-0.21406,-0.23813,-0.1936,-67.616,-0.21526,0.038599,-4.1308e-07,0.58,0.38,0
0.25188,0.026017,0.43824,-0.2285,-0.21547,-0.18797,-0.0072821,0,0,-0.42153,-0.28597,0,-0.15147,0,0,0.15691,-0.0015782,0,0.15692,-0.21221,-0.23176,-0.18797,-65.914,-0.21065,0.037993,5.1958e-07,0.6,0.38,0
0.24343,0.024072,0.41337,-0.2239,-0.21271,-0.18266,-0.006187,0,0,-0.42892,-0.31261,0,-0.12869,0,0,0.15444,-0.0043572,0,0.1545,-0.20997,-0.22665,-0.18266,-66.054,-0.20642,0.038466,1.1811e-06,0.62,0.38,0
0.23473,0.022224,0.38882,-0.22038,-0.20929,-0.1775,-0.0051063,0,0,-0.44596,-0.33055,0,-0.10621,0,0,0.15278,-0.0063583,0,0.15291,-0.2073,-0.22238,-0.1775,-68.689,-0.20239,0.039551,1.691e-06,0.64,0.38,0
0.22559,0.02052,0.36448,-0.21769,-0.20524,-0.17244,-0.003987,0,0,-0.4706,-0.34112,0,-0.08293,0,0,0.15168,-0.0077945,0,0.15188,-0.20407,-0.21886,-0.17244,-73.68,-0.19846,0.041072,2.0668e-06,0.66,0.38,0
0.2159,0.019005,0.34029,-0.21563,-0.20063,-0.16741,-0.0028016,0,0,-0.50142,-0.34548,0,-0.058272,0,0,0.151,-0.0088542,0,0.15126,-0.20013,-0.21613,-0.16741,-79.755,-0.19456,0.043012,2.2612e-06,0.68,0.38,0
0.20554,0.017712,0.31616,-0.21409,-0.19554,-0.16241,-0.00153,0,0,-0.53746,-0.34458,0,-0.031823,0,0,0.15069,-0.009706,0,0.151,-0.19542,-0.21421,-0.16241,-85.316,-0.19068,0.045423,2.1851e-06,0.7,0.38,0
0.1944,0.016667,0.29207,-0.21301,-0.19004,-0.15743,-0.00015184,0,0,-0.5781,-0.33924,0,-0.0031583,0,0,0.15069,-0.010506,0,0.15106,-0.19004,-0.21301,-0.15743,-89.621,-0.18683,0.048381,1.7169e-06,0.72,0.38,0
0.18241,0.015883,0.26794,-0.21238,-0.18421,-0.15247,0.0013577,0,0,-0.62306,-0.33011,0,0.02824,0,0,0.15103,-0.011408,0,0.15146,-0.18415,-0.21244,-0.15247,87.247,-0.18302,0.051967,7.0166e-07,0.74,0.38,0
0.16948,0.015361,0.24374,-0.21222,-0.17811,-0.14757,0.0030297,0,0,-0.67238,-0.31769,0,0.063018,0,0,0.15173,-0.012571,0,0.15225,-0.17785,-0.21249,-0.14757,84.963,-0.1793,0.056264,-1.0611e-06,0.76,0.38,0
0.15552,0.015098,0.21939,-0.21261,-0.17182,-0.14275,0.0049024,0,0,-0.72652,-0.30229,0,0.10197,0,0,0.15288,-0.014169,0,0.15353,-0.17124,-0.21319,-0.14275,83.242,-0.17572,0.061372,-3.8456e-06,0.78,0.38,0
0.14042,0.015081,0.19481,-0.21371,-0.16538,-0.13808,0.0070194,0,0,-0.78654,-0.28396,0,0.146,0,0,0.1546,-0.016398,0,0.15547,-0.16438,-0.21471,-0.13808,81.9,-0.17239,0.067439,-8.0596e-06,0.8,0.38,0
0.12406,0.015295,0.16991,-0.21579,-0.15886,-0.13363,0.0094249,0,0,-0.8544,-0.26237,0,0.19604,0,0,0.15717,-0.019482,0,0.15837,-0.15734,-0.21731,-0.13363,80.84,-0.16943,0.074697,-1.4362e-05,0.82,0.38,0
0.10624,0.015725,0.14452,-0.2193,-0.15229,-0.12954,0.012128,0,0,-0.93344,-0.23662,0,0.25227,0,0,0.16107,-0.023656,0,0.16279,-0.15017,-0.22142,-0.12954,80.049,-0.16704,0.083502,-2.3865e-05,0.84,0.38,0
0.086719,0.016359,0.11837,-0.22468,-0.14561,-0.12588,0.015083,0,0,-1.0275,-0.20516,0,0.31372,0,0,0.16725,-0.029088,0,0.16978,-0.14283,-0.22746,-0.12588,79.559,-0.16539,0.094251,-3.8357e-05,0.86,0.38,0
0.065145,0.017238,0.091,-0.23231,-0.13893,-0.12275,0.018181,0,0,-1.1395,-0.16832,0,0.37816,0,0,0.17736,-0.035534,0,0.18096,-0.13552,-0.23573,-0.12275,79.362,-0.16467,0.10717,-6.0199e-05,0.88,0.38,0
0.04114,0.018637,0.061617,-0.242,-0.13192,-0.11988,0.021985,0,0,-1.2701,-0.12523,0,0.4573,0,0,0.19151,-0.040347,0,0.19593,-0.12769,-0.24623,-0.11988,79.113,-0.1646,0.12263,-9.3426e-05,0.9,0.38,0
0.014342,0.021777,0.029718,-0.25078,-0.16012,-0.13999,0.028508,0,0,-0.73024,-0.046539,0,0.27792,0,0,0.23355,-0.15791,0,0.29643,-0.14999,-0.26091,-0.13999,72.407,-0.18363,0.11663,-8.2715e-05,0.92,0.38,0
0.01193,0.017401,0.024363,-0.31233,-0.31408,-0.21229,0.05461,0,0,-0.13006,-0.13233,0,0.14199,0,0,0.31504,-0.24241,0,0.39993,-0.25859,-0.36782,-0.21229,44.541,-0.27957,0.13833,-8.6367e-05,0.94,0.38,0
0.0091395,0.015032,0.017116,-0.34017,-0.29089,-0.20643,0.05583,0,0,-0.17386,-0.10979,0,0.14516,0,0,0.39044,-0.1504,0,0.41744,-0.2545,-0.37655,-0.20643,56.907,-0.27916,0.1519,-0.00012111,0.96,0.38,0
0.0049762,0.014228,0.0087455,-0.38291,-0.27843,-0.20715,0.034283,0,0,-0.22849,-0.09267,0,0.089137,0,0,0.4279,-0.071294,0,0.43278,-0.26819,-0.39315,-0.20715,73.362,-0.2895,0.16423,-0.00012612,0.98,0.38,0
0,0.014029,0,-0.38495,-0.26026,-0.19356,-0.0038361,0,0,-0.24881,-0.086702,0,-0.0099737,0,0,0.43728,-2.7756e-17,0,0.43631,-0.26014,-0.38507,-0.19356,-88.24,-0.27959,0.1684,-0.00012239,1,0.38,0
0,0.053844,1,-0.51283,-1.5722,-1.6255,-0.0036537,0,0,1.4465,0.069258,0,-0.0094997,0,0,0.41496,4.9613e-16,0,0.41441,-0.51282,-1.5723,-1.6255,-0.1976,-1.2369,1.0871,0.065441,0,0.4,0
0.02893,0.053654,0.9917,-0.49947,-1.5566,-1.6085,-0.029723,0,0,1.4418,0.067499,0,-0.077279,0,0,0.41051,0.051945,0,0.41321,-0.49864,-1.5574,-1.6085,-1.6093,-1.2215,1.0852,0.065155,0.02,0.4,0
0.057671,0.053049,0.98358,-0.48679,-1.5499,-1.5946,-0.064541,0,0,1.4401,0.058076,0,-0.16781,0,0,0.39507,0.10821,0,0.40898,-0.48289,-1.5538,-1.5946,-3.4614,-1.2104,1.0919,0.066545,0.04,0.4,0
0.086536,0.051988,0.9759,-0.44164,-1.552,-1.574,-0.098464,0,0,1.4721,0.028594,0,-0.25601,0,0,0.35745,0.17331,0,0.39671,-0.43298,-1.5607,-1.574,-5.0286,-1.1892,1.1344,0.074942,0.06,0.4,0
0.11655,0.051421,0.96928,-0.40674,-1.6213,-1.5777,-0.11068,0,0,1.5222,-0.056687,0,-0.28777,0,0,0.28774,0.25028,0,0.38353,-0.39674,-1.6313,-1.5777,-5.1646,-1.2019,1.2087,0.090082,0.08,0.4,0
0.14743,0.053125,0.96439,-0.33327,-0.9726,-0.93423,-0.070301,0,0,0.8473,-0.088681,0,-0.65978,0,0,0.21384,0.15727,0,0.27992,-0.30911,-0.99676,-0.93423,-21.4,-0.7467,0.66272,0.047484,0.1,0.4,0
0.15044,0.037609,0.9351,-0.28425,-0.33937,-0.30397,-0.044056,0,0,0.20513,-0.36811,0,-0.91637,0,0,0.17606,0.034623,0,0.1796,-0.25984,-0.36378,-0.30397,-28.986,-0.3092,0.090349,-9.7564e-06,0.12,0.4,0
0.15563,0.027853,0.90805,-0.27097,-0.34083,-0.29704,-0.02856,0,0,0.27121,-0.45534,0,-0.59405,0,0,0.16365,0.024881,0,0.16555,-0.26078,-0.35102,-0.29704,-19.635,-0.30295,0.07865,-8.2948e-06,0.14,0.4,0
0.16129,0.022106,0.88273,-0.2638,-0.33652,-0.29044,-0.017237,0,0,0.27701,-0.47923,0,-0.35854,0,0,0.15523,0.012966,0,0.15572,-0.25992,-0.3404,-0.29044,-12.683,-0.29692,0.070367,-7.2289e-06,0.16,0.4,0
0.16671,0.018781,0.85837,-0.25995,-0.33172,-0.2848,-0.0088696,0,0,0.25842,-0.48802,0,-0.18449,0,0,0.15087,0.001244,0,0.15081,-0.25887,-0.33281,-0.2848,-6.9414,-0.29216,0.064972,-6.9035e-06,0.18,0.4,0
0.17163,0.016972,0.83445,-0.25768,-0.32679,-0.27965,-0.0021641,0,0,0.22851,-0.49032,0,-0.045012,0,0,0.14929,-0.010089,0,0.14956,-0.25761,-0.32686,-0.27965,-1.7916,-0.28804,0.061282,-6.8739e-06,0.2,0.4,0
0.17585,0.01626,0.8106,-0.25682,-0.32232,-0.27507,0.003871,0,0,0.1898,-0.49143,0,0.080516,0,0,0.14984,-0.021228,0,0.15127,-0.25659,-0.32255,-0.27507,3.3703,-0.28473,0.058933,-7.1338e-06,0.22,0.4,0
0.17922,0.016506,0.78651,-0.25723,-0.31838,-0.271,0.0099998,0,0,0.14319,-0.4928,0,0.208,0,0,0.15245,-0.03244,0,0.15581,-0.25563,-0.31997,-0.271,9.0551,-0.2822,0.0582,-7.7968e-06,0.24,0.4,0
0.18158,0.017829,0.76182,-0.25914,-0.31491,-0.26744,0.016947,0,0,0.08636,-0.4937,0,0.3525,0,0,0.15753,-0.043945,0,0.1635,-0.25439,-0.31966,-0.26744,15.644,-0.2805,0.059818,-9.2542e-06,0.26,0.4,0
0.18268,0.02061,0.7361,-0.26274,-0.31139,-0.26425,0.02556,0,0,0.0157,-0.49022,0,0.53165,0,0,0.16609,-0.055764,0,0.1752,-0.25178,-0.32235,-0.26425,23.21,-0.27946,0.065232,-1.2518e-05,0.28,0.4,0
0.18221,0.025689,0.70867,-0.26926,-0.30747,-0.2616,0.037017,0,0,-0.079639,-0.47705,0,0.76995,0,0,0.17973,-0.067257,0,0.19202,-0.24671,-0.33003,-0.2616,31.35,-0.27945,0.076955,-2.0483e-05,0.3,0.4,0
0.17949,0.034681,0.67858,-0.2814,-0.29925,-0.25901,0.052869,0,0,-0.23275,-0.41841,0,1.0997,0,0,0.19793,-0.074684,0,0.21186,-0.2367,-0.34394,-0.25901,40.209,-0.27989,0.098003,-4.0025e-05,0.32,0.4,0
0.1729,0.049816,0.64533,-0.32436,-0.77296,-0.69219,0.083075,0,0,0.33393,-0.18666,0,0.77712,0,0,0.24857,-0.31031,0,0.42143,-0.28398,-0.81334,-0.69219,27.321,-0.5965,0.48886,0.014941,0.34,0.4,0
0.19285,0.044733,0.63955,-0.39945,-1.2647,-1.1388,0.14597,0,0,0.96113,-0.16366,0,0.37953,0,0,0.34662,-0.50777,0,0.61683,-0.37549,-1.2886,-1.1388,9.3229,-0.9343,0.84821,0.028073,0.36,0.4,0
0.21134,0.042925,0.63147,-0.44265,-1.1573,-1.1115,0.15765,0,0,0.86945,-0.059625,0,0.40989,0,0,0.4407,-0.40163,0,0.59569,-0.40942,-1.1906,-1.1115,11.903,-0.90381,0.74474,0.02041,0.38,0.4,0
0.22763,0.042693,0.62192,-0.50285,-1.0989,-1.1024,0.13801,0,0,0.77946,0.0046297,0,0.35883,0,0,0.4946,-0.30649,0,0.58084,-0.47244,-1.1293,-1.1024,12.425,-0.90138,0.64383,0.013627,0.4,0.4,0
0.24252,0.042799,0.61168,-0.53079,-1.0368,-1.0819,0.10271,0,0,0.71651,0.05873,0,0.26704,0,0,0.5197,-0.21442,0,0.56091,-0.51074,-1.0568,-1.0819,11.048,-0.88317,0.55907,0.0089139,0.42,0.4,0
0.25629,0.042875,0.60113,-0.54242,-0.97119,-1.0552,0.054455,0,0,0.66663,0.10923,0,0.14158,0,0,0.52689,-0.11655,0,0.53786,-0.53562,-0.978,-1.0552,7.1261,-0.85628,0.48562,0.0053838,0.44,0.4,0
0.26919,0.042585,0.59061,-0.52648,-0.90512,-1.0201,-0.014639,0,0,0.64169,0.14946,0,-0.03806,0,0,0.51309,-0.0019104,0,0.51028,-0.52591,-0.90569,-1.0201,-2.2107,-0.81723,0.44806,0.0036245,0.46,0.4,0
0.28195,0.041508,0.58061,-0.40292,-0.82784,-0.94983,-0.076474,0,0,0.71099,0.15859,0,-0.19883,0,0,0.40903,0.15052,0,0.42916,-0.38957,-0.84119,-0.94983,-9.898,-0.72686,0.51461,0.0059613,0.48,0.4,0
0.29762,0.043447,0.57425,-0.31021,-0.54326,-0.57905,-0.09948,0,0,0.053677,0.082719,0,-0.6677,0,0,0.26078,0.22805,0,0.36794,-0.24257,-0.6109,-0.57905,-39.702,-0.47751,0.3684,0.0064496,0.5,0.4,0
0.2841,0.034695,0.54167,-0.27665,-0.23301,-0.22061,-0.036118,0,0,-0.5829,-0.12895,0,-0.75126,0,0,0.18866,0.03852,0,0.19274,-0.21263,-0.29703,-0.22061,-60.571,-0.24342,0.080708,-2.6113e-05,0.52,0.4,0
0.27431,0.029559,0.51387,-0.25117,-0.2254,-0.20721,-0.024961,0,0,-0.45723,-0.18924,0,-0.51918,0,0,0.16781,0.023024,0,0.16934,-0.2102,-0.26638,-0.20721,-58.651,-0.22793,0.057733,-9.7938e-06,0.54,0.4,0
0.26581,0.025953,0.48797,-0.23873,-0.22248,-0.19936,-0.018473,0,0,-0.40949,-0.24041,0,-0.38425,0,0,0.1593,0.012656,0,0.15977,-0.21042,-0.25079,-0.19936,-56.876,-0.22019,0.046886,-4.3165e-06,0.56,0.4,0
0.25793,0.022876,0.4629,-0.2306,-0.21975,-0.19297,-0.014523,0,0,-0.39136,-0.27857,0,-0.30207,0,0,0.15531,0.0055402,0,0.15539,-0.20967,-0.24068,-0.19297,-55.238,-0.21444,0.041932,-1.8617e-06,0.58,0.4,0
0.25016,0.020153,0.43827,-0.22525,-0.21712,-0.1875,-0.011706,0,0,-0.39262,-0.30813,0,-0.24349,0,0,0.15306,0.00058256,0,0.15305,-0.2088,-0.23358,-0.1875,-54.568,-0.20996,0.039945,-4.2697e-07,0.6,0.4,0
0.24222,0.017694,0.41392,-0.22137,-0.21413,-0.18239,-0.0095392,0,0,-0.40535,-0.33012,0,-0.19842,0,0,0.15168,-0.0029071,0,0.15171,-0.20755,-0.22795,-0.18239,-55.383,-0.20596,0.039529,5.6948e-07,0.62,0.4,0
0.23394,0.0155,0.38974,-0.2184,-0.21062,-0.17742,-0.0076951,0,0,-0.42611,-0.34529,0,-0.16006,0,0,0.1508,-0.0053818,0,0.15089,-0.20589,-0.22313,-0.17742,-58.396,-0.20215,0.03998,1.3459e-06,0.64,0.4,0
0.22518,0.01359,0.36567,-0.21604,-0.20657,-0.17249,-0.0060072,0,0,-0.4529,-0.35441,0,-0.12495,0,0,0.15022,-0.0071631,0,0.15039,-0.20365,-0.21895,-0.17249,-64.123,-0.19837,0.041012,1.9534e-06,0.66,0.4,0
0.21583,0.011986,0.34166,-0.21413,-0.202,-0.16755,-0.0043743,0,0,-0.48444,-0.35832,0,-0.090985,0,0,0.14988,-0.0084972,0,0.15011,-0.20059,-0.21554,-0.16755,-72.096,-0.19456,0.042536,2.3694e-06,0.68,0.4,0
0.2058,0.010705,0.31771,-0.21256,-0.19698,-0.16258,-0.002727,0,0,-0.51984,-0.35784,0,-0.056721,0,0,0.1497,-0.0095878,0,0.15001,-0.19652,-0.21302,-0.16258,-80.351,-0.19071,0.044551,2.5306e-06,0.7,0.4,0
0.19503,0.0097547,0.29376,-0.21129,-0.1916,-0.15759,-0.0010065,0,0,-0.55851,-0.35373,0,-0.020934,0,0,0.14969,-0.010616,0,0.15006,-0.19155,-0.21134,-0.15759,-87.082,-0.18682,0.047088,2.3473e-06,0.72,0.4,0
0.18346,0.0091344,0.26981,-0.21029,-0.18592,-0.15259,0.00084639,0,0,-0.60011,-0.34664,0,0.017605,0,0,0.14983,-0.011759,0,0.15029,-0.18589,-0.21032,-0.15259,88.013,-0.18293,0.050194,1.7038e-06,0.74,0.4,0
0.17103,0.008837,0.24582,-0.20959,-0.18003,-0.14761,0.0028995,0,0,-0.64457,-0.33712,0,0.060309,0,0,0.15014,-0.013201,0,0.15072,-0.17975,-0.20987,-0.14761,84.451,-0.17908,0.053928,4.4948e-07,0.76,0.4,0
0.15768,0.008851,0.22176,-0.20925,-0.174,-0.1427,0.0052404,0,0,-0.69216,-0.32561,0,0.109,0,0,0.15069,-0.015154,0,0.15144,-0.17324,-0.21001,-0.1427,81.72,-0.17532,0.058381,-1.6282e-06,0.78,0.4,0
0.14334,0.0091639,0.1976,-0.20942,-0.16795,-0.13791,0.0079949,0,0,-0.74368,-0.31239,0,0.16629,0,0,0.15155,-0.017875,0,0.1526,-0.16646,-0.2109,-0.13791,79.457,-0.17176,0.063714,-4.8682e-06,0.8,0.4,0
0.12793,0.0097704,0.17326,-0.21039,-0.16196,-0.13337,0.011351,0,0,-0.80111,-0.29742,0,0.23611,0,0,0.15294,-0.021706,0,0.15446,-0.15944,-0.21292,-0.13337,77.442,-0.16858,0.07025,-9.895e-06,0.82,0.4,0
0.1113,0.010682,0.14866,-0.21282,-0.1562,-0.12929,0.015604,0,0,-0.86877,-0.27988,0,0.32457,0,0,0.15526,-0.027128,0,0.15759,-0.15219,-0.21684,-0.12929,75.57,-0.16611,0.078644,-1.8027e-05,0.84,0.4,0
0.093181,0.011952,0.12358,-0.21815,-0.15092,-0.12617,0.021087,0,0,-0.9566,-0.25743,0,0.43862,0,0,0.15948,-0.034868,0,0.16322,-0.14485,-0.22422,-0.12617,73.949,-0.16508,0.090169,-3.227e-05,0.86,0.4,0
0.073035,0.013633,0.097621,-0.22835,-0.1461,-0.12454,0.028377,0,0,-1.0796,-0.22428,0,0.59025,0,0,0.16868,-0.046023,0,0.17481,-0.13726,-0.23719,-0.12454,72.696,-0.16633,0.10686,-5.9684e-05,0.88,0.4,0
0.049995,0.016072,0.069601,-0.24872,-0.14452,-0.12667,0.038781,0,0,-1.2693,-0.1856,0,0.80664,0,0,0.19056,-0.062268,0,0.20073,-0.13167,-0.26157,-0.12667,71.669,-0.1733,0.13247,-0.00011882,0.9,0.4,0
0.022262,0.020816,0.036643,-0.26713,-0.20537,-0.16236,0.1075,0,0,-0.74286,-0.099403,0,0.70834,0,0,0.26073,-0.32653,0,0.44014,-0.11342,-0.35908,-0.16236,58.167,-0.21162,0.22656,-0.00057628,0.92,0.4,0
0.020281,0.014685,0.030333,-0.3607,-0.25592,-0.21532,0.12497,0,0,-0.189,-0.052777,0,0.32492,0,0,0.40284,-0.31865,0,0.5093,-0.1728,-0.44382,-0.21532,56.373,-0.27731,0.25246,-0.00074799,0.94,0.4,0
0.014702,0.013514,0.020529,-0.48483,-0.2565,-0.24293,0.10243,0,0,-0.31447,-0.017647,0,0.26632,0,0,0.50012,-0.17842,0,0.52884,-0.21729,-0.52405,-0.24293,69.05,-0.32809,0.29478,-0.001282,0.96,0.4,0
0.0077021,0.013127,0.010329,-0.52175,-0.24055,-0.23902,0.051629,0,0,-0.36756,-0.0019859,0,0.13423,0,0,0.51323,-0.081024,0,0.51832,-0.23137,-0.53094,-0.23902,79.919,-0.33377,0.29581,-0.0013265,0.98,0.4,0
0,0.013074,0,-0.51682,-0.21846,-0.22059,-0.0010093,0,0,-0.3851,0.0027579,0,-0.0026242,0,0,0.51644,6.9389e-18,0,0.51539,-0.21846,-0.51682,-0.22059,-89.806,-0.31862,0.29731,-0.0013495,1,0.4,0
0,0.05567,1,-0.56618,-1.5505,-1.635,-0.0035646,0,0,1.3895,0.10983,0,-0.009268,0,0,0.47078,4.2674e-16,0,0.47021,-0.56616,-1.5505,-1.635,-0.20748,-1.2506,1.0292,0.054724,0,0.42,0
0.02779,0.055485,0.99058,-0.55783,-1.5305,-1.6171,-0.027208,0,0,1.377,0.11258,0,-0.070742,0,0,0.46935,0.056973,0,0.47215,-0.55706,-1.5312,-1.6171,-1.6011,-1.2351,1.0198,0.053173,0.02,0.42,0
0.055081,0.054777,0.98123,-0.56563,-1.5151,-1.6054,-0.063853,0,0,1.3518,0.11747,0,-0.16602,0,0,0.46363,0.12081,0,0.47821,-0.56135,-1.5193,-1.6054,-3.8303,-1.2287,1.0038,0.050664,0.04,0.42,0
0.08186,0.053319,0.97204,-0.56314,-1.5081,-1.5934,-0.12402,0,0,1.3393,0.11093,0,-0.32244,0,0,0.44914,0.20153,0,0.49068,-0.54714,-1.5241,-1.5934,-7.3537,-1.2215,1.0134,0.052608,0.06,0.42,0
0.10866,0.050239,0.96326,-0.42328,-1.4982,-1.5397,-0.175,0,0,1.4514,0.053949,0,-0.455,0,0,0.36051,0.3199,0,0.47892,-0.3955,-1.526,-1.5397,-9.0177,-1.1537,1.1374,0.075536,0.08,0.42,0
0.13991,0.050449,0.95762,-0.36521,-1.0882,-0.97468,-0.16163,0,0,0.86809,-0.26234,0,-1.1731,0,0,0.23297,0.30732,0,0.40582,-0.31298,-1.1404,-0.97468,-23.677,-0.80936,0.76358,0.060449,0.1,0.42,0
0.14338,0.028747,0.9282,-0.28857,-0.3712,-0.31395,-0.064052,0,0,0.26403,-0.59533,0,-1.3323,0,0,0.16989,0.05467,0,0.17865,-0.25366,-0.4061,-0.31395,-28.588,-0.32457,0.13298,-4.2566e-05,0.12,0.42,0
0.15047,0.017558,0.90326,-0.26435,-0.35663,-0.2992,-0.037857,0,0,0.36247,-0.59726,0,-0.78743,0,0,0.14991,0.03436,0,0.15367,-0.2508,-0.37017,-0.2992,-19.684,-0.30672,0.10399,-1.8512e-05,0.14,0.42,0
0.15788,0.011635,0.88023,-0.25601,-0.34787,-0.29119,-0.021897,0,0,0.36587,-0.58941,0,-0.45545,0,0,0.14149,0.017705,0,0.14246,-0.25106,-0.35282,-0.29119,-12.745,-0.29836,0.088779,-1.2796e-05,0.16,0.42,0
0.16511,0.0082733,0.85798,-0.25114,-0.3397,-0.2845,-0.011364,0,0,0.34694,-0.57408,0,-0.23636,0,0,0.13809,0.0032994,0,0.13802,-0.2497,-0.34113,-0.2845,-7.1966,-0.29178,0.07993,-1.0482e-05,0.18,0.42,0
0.17175,0.0065212,0.83604,-0.24899,-0.33332,-0.2792,-0.0032896,0,0,0.31419,-0.56287,0,-0.068423,0,0,0.13706,-0.0098863,0,0.13732,-0.24886,-0.33345,-0.2792,-2.2304,-0.28717,0.074225,-9.7979e-06,0.2,0.42,0
0.17768,0.0058293,0.81412,-0.24819,-0.32851,-0.27477,0.0037145,0,0,0.27648,-0.55882,0,0.077262,0,0,0.1377,-0.022644,0,0.13945,-0.24802,-0.32868,-0.27477,2.6423,-0.28382,0.07116,-1.0077e-05,0.22,0.42,0
0.18281,0.0060382,0.79198,-0.24853,-0.32524,-0.27113,0.010884,0,0,0.23498,-0.56274,0,0.22639,0,0,0.13995,-0.035637,0,0.14432,-0.24702,-0.32675,-0.27113,7.9217,-0.28163,0.070826,-1.1375e-05,0.24,0.42,0
0.18708,0.0072831,0.76933,-0.25048,-0.32351,-0.26836,0.019413,0,0,0.18603,-0.57354,0,0.4038,0,0,0.14428,-0.049518,0,0.15245,-0.24564,-0.32835,-0.26836,13.998,-0.28078,0.074016,-1.4398e-05,0.26,0.42,0
0.19026,0.010062,0.74581,-0.25564,-0.3235,-0.26697,0.030563,0,0,0.11782,-0.58796,0,0.63572,0,0,0.15193,-0.065028,0,0.16518,-0.2439,-0.33524,-0.26697,21.005,-0.28204,0.082264,-2.1196e-05,0.28,0.42,0
0.19179,0.015225,0.72072,-0.26515,-0.32414,-0.26687,0.046816,0,0,0.017962,-0.59552,0,0.97377,0,0,0.16674,-0.083027,0,0.18625,-0.23931,-0.34997,-0.26687,28.894,-0.28539,0.099779,-3.8197e-05,0.3,0.42,0
0.19097,0.025125,0.69245,-0.28935,-0.33025,-0.27243,0.073039,0,0,-0.17589,-0.60127,0,1.5192,0,0,0.19627,-0.10437,0,0.22286,-0.23395,-0.38565,-0.27243,37.179,-0.29734,0.13658,-9.668e-05,0.32,0.42,0
0.18475,0.045269,0.65791,-0.36032,-0.89918,-0.74792,0.18122,0,0,0.36784,-0.34957,0,1.3052,0,0,0.27978,-0.50392,0,0.59997,-0.2832,-0.97629,-0.74792,28.9,-0.66914,0.61878,0.021857,0.34,0.42,0
0.20569,0.041366,0.65104,-0.43485,-1.1746,-1.1339,0.22623,0,0,0.90871,-0.052922,0,0.58821,0,0,0.44635,-0.59846,0,0.74412,-0.37115,-1.2383,-1.1339,15.726,-0.91443,0.81992,0.026769,0.36,0.42,0
0.2211,0.042539,0.64006,-0.59529,-1.1353,-1.1592,0.204,0,0,0.73311,0.031152,0,0.53039,0,0,0.56689,-0.44665,0,0.7199,-0.52689,-1.2037,-1.1592,18.537,-0.96326,0.65568,0.014254,0.38,0.42,0
0.23501,0.043525,0.62836,-0.62712,-1.0769,-1.1396,0.16112,0,0,0.66617,0.081471,0,0.41892,0,0,0.59822,-0.33478,0,0.68427,-0.57536,-1.1287,-1.1396,17.81,-0.94786,0.55883,0.0089518,0.4,0.42,0
0.24775,0.044796,0.61613,-0.65076,-1.0066,-1.1133,0.12645,0,0,0.60135,0.13875,0,0.32877,0,0,0.6223,-0.23281,0,0.66314,-0.6104,-1.047,-1.1133,17.701,-0.92357,0.47325,0.0050847,0.42,0.42,0
0.25907,0.046091,0.60347,-0.68427,-0.9238,-1.0859,0.07891,0,0,0.52211,0.21071,0,0.20517,0,0,0.64236,-0.12571,0,0.65289,-0.66061,-0.94746,-1.0859,16.69,-0.89799,0.37571,0.0015301,0.44,0.42,0
0.26863,0.046876,0.59043,-0.74133,-0.84654,-1.0668,0.0089244,0,0,0.4231,0.28633,0,0.023203,0,0,0.66124,-0.00026272,0,0.65858,-0.74058,-0.84729,-1.0668,4.8145,-0.88489,0.28808,-0.00068433,0.46,0.42,0
0.27599,0.046816,0.57702,-0.83489,-0.7979,-1.0669,-0.10596,0,0,0.30155,0.34964,0,-0.27551,0,0,0.72425,0.16868,0,0.73597,-0.70883,-0.92397,-1.0669,-49.95,-0.89989,0.31216,0.00053261,0.48,0.42,0
0.2807,0.044032,0.56146,-0.707,-0.55373,-0.69404,-0.18723,0,0,-0.19876,0.19519,0,-1.1531,0,0,0.57733,0.26551,0,0.63887,-0.4278,-0.83293,-0.69404,-54.983,-0.65159,0.3607,0.0035429,0.5,0.42,0
0.27238,0.030502,0.5337,-0.77053,-0.2734,-0.61339,-0.1017,0,0,-0.36316,0.35025,0,-0.72959,0,0,0.73069,0.057315,0,0.73382,-0.23971,-0.80422,-0.61339,-65.236,-0.55244,0.50325,0.012534,0.52,0.42,0
0.26617,0.024943,0.5095,-0.70455,-0.2518,-0.5735,-0.039583,0,0,-0.30287,0.31724,0,-0.39018,0,0,0.67653,0.031232,0,0.6779,-0.2364,-0.71995,-0.5735,-67.554,-0.50995,0.43629,0.009939,0.54,0.42,0
0.26027,0.020515,0.4856,-0.67919,-0.23586,-0.54766,-0.025976,0,0,-0.30397,0.28639,0,-0.27697,0,0,0.67064,0.015888,0,0.67104,-0.22463,-0.69042,-0.54766,-67.522,-0.48757,0.42157,0.0091871,0.56,0.42,0
0.25401,0.016889,0.46181,-0.67035,-0.23168,-0.53038,-0.018017,0,0,-0.3235,0.25734,0,-0.20719,0,0,0.66851,0.0070314,0,0.66858,-0.22324,-0.6788,-0.53038,-67.84,-0.47747,0.41219,0.0081877,0.58,0.42,0
0.24732,0.013691,0.43806,-0.66382,-0.22771,-0.51386,-0.013406,0,0,-0.34656,0.23066,0,-0.16268,0,0,0.66808,0.0013067,0,0.66807,-0.22113,-0.67039,-0.51386,-68.229,-0.46846,0.40636,0.0072472,0.6,0.42,0
0.24015,0.010867,0.4143,-0.65901,-0.22371,-0.49786,-0.0099604,0,0,-0.37243,0.20705,0,-0.12903,0,0,0.66815,-0.0025315,0,0.66816,-0.2187,-0.66402,-0.49786,-69.093,-0.46019,0.40272,0.0063281,0.62,0.42,0
0.23243,0.0084126,0.39054,-0.65565,-0.21926,-0.48215,-0.0071544,0,0,-0.40096,0.18672,0,-0.10122,0,0,0.66836,-0.0051674,0,0.6684,-0.21569,-0.65922,-0.48215,-70.791,-0.45235,0.40111,0.0054266,0.64,0.42,0
0.22411,0.0063438,0.36678,-0.65365,-0.21438,-0.46672,-0.0047138,0,0,-0.43202,0.16953,0,-0.076564,0,0,0.66853,-0.0070211,0,0.66862,-0.21215,-0.65589,-0.46672,-73.766,-0.44492,0.40132,0.0045223,0.66,0.42,0
0.21515,0.0046716,0.343,-0.65284,-0.20912,-0.45153,-0.002497,0,0,-0.46525,0.15512,0,-0.05358,0,0,0.6686,-0.0083846,0,0.66873,-0.20799,-0.65397,-0.45153,11.804,-0.43783,0.40317,0.0035963,0.68,0.42,0
0.2055,0.0033984,0.31923,-0.65298,-0.20355,-0.43653,-0.00039588,0,0,-0.50026,0.14303,0,-0.031189,0,0,0.66855,-0.009484,0,0.66872,-0.20315,-0.65339,-0.43653,6.6849,-0.43102,0.40645,0.0026327,0.7,0.42,0
0.19514,0.002518,0.29546,-0.65387,-0.19773,-0.42168,0.0016858,0,0,-0.53662,0.13283,0,-0.0084609,0,0,0.66836,-0.010513,0,0.66857,-0.19766,-0.65394,-0.42168,2.2307,-0.42443,0.41099,0.0016198,0.72,0.42,0
0.18404,0.002017,0.2717,-0.65532,-0.19174,-0.40695,0.0038408,0,0,-0.574,0.12408,0,0.015519,0,0,0.66802,-0.011659,0,0.66828,-0.1917,-0.65535,-0.40695,88.947,-0.418,0.41661,0.00054931,0.74,0.42,0
0.17218,0.0018765,0.24796,-0.65717,-0.18563,-0.39232,0.0061662,0,0,-0.6121,0.11643,0,0.041758,0,0,0.66753,-0.013117,0,0.66787,-0.18543,-0.65737,-0.39232,86.565,-0.41171,0.42318,-0.00058369,0.76,0.42,0
0.15955,0.0020734,0.22423,-0.65927,-0.17949,-0.37776,0.0087808,0,0,-0.65061,0.10949,0,0.071541,0,0,0.66691,-0.015123,0,0.66736,-0.17895,-0.65982,-0.37776,84.71,-0.40551,0.43055,-0.0017811,0.78,0.42,0
0.14615,0.0025849,0.20053,-0.66149,-0.17342,-0.36327,0.011869,0,0,-0.6892,0.10289,0,0.10681,0,0,0.66622,-0.017984,0,0.66685,-0.17234,-0.66256,-0.36327,83.1,-0.39939,0.43857,-0.0030419,0.8,0.42,0
0.13198,0.0033975,0.17686,-0.66376,-0.16762,-0.3489,0.015806,0,0,-0.72768,0.096251,0,0.151,0,0,0.66562,-0.022154,0,0.66656,-0.16572,-0.66567,-0.3489,81.524,-0.39343,0.4472,-0.0043654,0.82,0.42,0
0.11705,0.0045302,0.1532,-0.66683,-0.16276,-0.33505,0.021348,0,0,-0.76678,0.089423,0,0.21036,0,0,0.66556,-0.028393,0,0.66707,-0.15952,-0.67007,-0.33505,79.832,-0.38821,0.45683,-0.00578,0.84,0.42,0
0.10131,0.0060616,0.12953,-0.67345,-0.15989,-0.32286,0.030663,0,0,-0.81024,0.083013,0,0.29847,0,0,0.66761,-0.038123,0,0.67018,-0.15431,-0.67903,-0.32286,77.881,-0.3854,0.4698,-0.0074176,0.86,0.42,0
0.084636,0.0082669,0.10573,-0.69937,-0.16839,-0.3198,0.046318,0,0,-0.87722,0.079436,0,0.43054,0,0,0.67483,-0.055329,0,0.67961,-0.15886,-0.7089,-0.3198,76.001,-0.39585,0.49358,-0.010094,0.88,0.42,0
0.066223,0.011212,0.081543,-0.77317,-0.18816,-0.33427,0.093353,0,0,-1.0144,0.083645,0,0.70197,0,0,0.74236,-0.085141,0,0.75032,-0.16705,-0.79428,-0.33427,73.087,-0.43186,0.56467,-0.016846,0.9,0.42,0
0.044062,0.017801,0.052937,-0.67409,-0.31686,-0.32706,0.17461,0,0,-0.93592,-0.052692,0,1.075,0,0,0.59158,-0.33488,0,0.68749,-0.24468,-0.74628,-0.32706,65.48,-0.43934,0.46595,-0.010774,0.92,0.42,0
0.032229,0.015289,0.037109,-0.79862,-0.28392,-0.36187,0.15748,0,0,-0.56777,0.10134,0,0.40944,0,0,0.71712,-0.31549,0,0.77704,-0.23956,-0.84298,-0.36187,74.269,-0.48147,0.55251,-0.007252,0.94,0.42,0
0.021351,0.014327,0.024253,-0.72365,-0.23306,-0.31127,0.10311,0,0,-0.5361,0.10167,0,0.26809,0,0,0.62806,-0.17161,0,0.64939,-0.21227,-0.74444,-0.31127,78.6,-0.42266,0.49023,-0.0052288,0.96,0.42,0
0.010785,0.014149,0.011987,-0.68927,-0.19971,-0.27868,0.052302,0,0,-0.53377,0.10266,0,0.13598,0,0,0.60632,-0.076474,0,0.61015,-0.19418,-0.6948,-0.27868,83.969,-0.38922,0.46417,-0.0045679,0.98,0.42,0
0,0.014139,0,-0.66646,-0.17236,-0.25165,-0.00018698,0,0,-0.53926,0.10307,0,-0.00048616,0,0,0.59933,-1.0408e-17,0,0.59851,-0.17236,-0.66646,-0.25165,-89.978,-0.36349,0.45961,-0.0044905,1,0.42,0
0,0.058237,1,-0.6039,-1.5364,-1.6421,-0.0015358,0,0,1.3497,0.13737,0,-0.0039931,0,0,0.5289,1.138e-15,0,0.52841,-0.6039,-1.5364,-1.6421,-0.094362,-1.2608,0.98961,0.047867,0,0.44,0
0.026993,0.058157,0.98942,-0.59955,-1.5109,-1.6225,-0.014739,0,0,1.3299,0.1452,0,-0.038321,0,0,0.53132,0.055887,0,0.53371,-0.59931,-1.5111,-1.6225,-0.92635,-1.2443,0.97231,0.045126,0.02,0.44,0
0.053196,0.057748,0.97875,-0.62813,-1.4841,-1.6124,-0.040664,0,0,1.2796,0.16678,0,-0.10573,0,0,0.53963,0.11893,0,0.55181,-0.6262,-1.4861,-1.6124,-2.7137,-1.2416,0.92951,0.038688,0.04,0.44,0
0.078177,0.056426,0.96784,-0.69151,-1.466,-1.6151,-0.086384,0,0,1.2007,0.19379,0,-0.2246,0,0,0.55654,0.19973,0,0.58993,-0.682,-1.4755,-1.6151,-6.2874,-1.2575,0.87175,0.031106,0.06,0.44,0
0.10122,0.053579,0.95649,-0.79685,-1.4796,-1.6394,-0.21584,0,0,1.0954,0.20774,0,-0.56118,0,0,0.63255,0.32106,0,0.7041,-0.73435,-1.5421,-1.6394,-16.151,-1.3053,0.86057,0.031327,0.08,0.44,0
0.12199,0.042632,0.94254,-0.70785,-1.0086,-1.0451,-0.28681,0,0,0.6146,-0.12352,0,-1.7685,0,0,0.51813,0.31303,0,0.61239,-0.5335,-1.1829,-1.0451,-32.9,-0.92051,0.59884,0.022962,0.1,0.44,0
0.13004,0.013796,0.91761,-0.62332,-0.42818,-0.83161,-0.16729,0,0,0.48137,0.19739,0,-1.1496,0,0,0.63957,0.080381,0,0.647,-0.2962,-0.7553,-0.83161,-46.959,-0.6277,0.5271,0.012509,0.12,0.44,0
0.14125,0.0039624,0.89706,-0.54493,-0.39417,-0.78632,-0.049099,0,0,0.55789,0.21239,0,-0.49654,0,0,0.5701,0.045985,0,0.57348,-0.32453,-0.61456,-0.78632,-49.732,-0.57514,0.43372,0.00030456,0.14,0.44,0
0.15236,-0.0014708,0.87707,-0.53521,-0.36602,-0.76372,-0.022476,0,0,0.52812,0.23031,0,-0.2682,0,0,0.55878,0.022219,0,0.55959,-0.30635,-0.59488,-0.76372,-49.13,-0.55498,0.42561,0.0010418,0.16,0.44,0
0.16237,-0.004182,0.85732,-0.54904,-0.35789,-0.75432,-0.0074834,0,0,0.47443,0.2429,0,-0.12394,0,0,0.55476,0.0045566,0,0.55471,-0.30451,-0.60242,-0.75432,-47.865,-0.55375,0.41742,0.0025719,0.18,0.44,0
0.17134,-0.0055432,0.83762,-0.56017,-0.35147,-0.74465,0.00085181,0,0,0.42636,0.24723,0,-0.027817,0,0,0.55505,-0.010817,0,0.55521,-0.30189,-0.60975,-0.74465,43.769,-0.5521,0.41184,0.0038584,0.2,0.44,0
0.17942,-0.0060925,0.81785,-0.56653,-0.34684,-0.73405,0.0073599,0,0,0.38716,0.24259,0,0.052312,0,0,0.5584,-0.025598,0,0.55961,-0.29938,-0.61399,-0.73405,45.509,-0.54914,0.40645,0.0046874,0.22,0.44,0
0.18682,-0.0060034,0.79791,-0.56767,-0.34348,-0.72217,0.01427,0,0,0.35706,0.22889,0,0.13553,0,0,0.56511,-0.04108,0,0.56821,-0.29645,-0.6147,-0.72217,47.362,-0.54444,0.401,0.0050799,0.24,0.44,0
0.19371,-0.0051128,0.77766,-0.56542,-0.34219,-0.70972,0.023883,0,0,0.33349,0.20663,0,0.24098,0,0,0.57662,-0.058666,0,0.58264,-0.29361,-0.614,-0.70972,49.313,-0.53911,0.3958,0.0051537,0.26,0.44,0
0.20016,-0.0029082,0.75691,-0.56395,-0.34331,-0.69794,0.041014,0,0,0.30967,0.1773,0,0.39973,0,0,0.59662,-0.080429,0,0.60697,-0.28987,-0.61739,-0.69794,51.095,-0.53506,0.39423,0.0052729,0.28,0.44,0
0.20609,0.0018681,0.73524,-0.59175,-0.36463,-0.70049,0.070614,0,0,0.2513,0.14442,0,0.64457,0,0,0.63176,-0.11144,0,0.64877,-0.30157,-0.65482,-0.70049,52.61,-0.55229,0.39867,0.0061887,0.3,0.44,0
0.21022,0.01063,0.71198,-0.69922,-0.39647,-0.7292,0.18418,0,0,0.069277,0.11547,0,1.2713,0,0,0.76039,-0.15741,0,0.78422,-0.27931,-0.81638,-0.7292,51.701,-0.6083,0.51437,0.01616,0.32,0.44,0
0.20886,0.035833,0.68117,-0.76196,-0.89873,-0.88136,0.30601,0,0,0.12567,-0.22899,0,1.8744,0,0,0.64779,-0.49012,0,0.82317,-0.51666,-1.144,-0.88136,39.329,-0.84735,0.54876,0.0074698,0.34,0.44,0
0.21911,0.042616,0.66348,-0.86963,-1.1979,-1.2837,0.27844,0,0,0.53833,0.11163,0,0.72394,0,0,0.79583,-0.60472,0,0.99399,-0.71054,-1.357,-1.2837,29.742,-1.1171,0.61309,0.011269,0.36,0.44,0
0.2304,0.044171,0.64933,-0.77783,-1.1261,-1.2205,0.1894,0,0,0.57549,0.12273,0,0.49244,0,0,0.70437,-0.46248,0,0.84107,-0.69468,-1.2092,-1.2205,23.702,-1.0415,0.52029,0.0072224,0.38,0.44,0
0.24213,0.045952,0.63531,-0.74153,-1.0681,-1.1782,0.16994,0,0,0.56767,0.14312,0,0.44184,0,0,0.70844,-0.35682,0,0.79216,-0.66914,-1.1405,-1.1782,23.072,-0.99594,0.49129,0.0059695,0.4,0.44,0
0.25311,0.048348,0.62099,-0.75351,-0.98867,-1.1437,0.15649,0,0,0.50718,0.20147,0,0.40688,0,0,0.72878,-0.25699,0,0.77173,-0.67535,-1.0668,-1.1437,26.54,-0.96194,0.43501,0.0037873,0.42,0.44,0
0.26241,0.051303,0.60616,-0.79474,-0.87769,-1.1079,0.12865,0,0,0.40709,0.29925,0,0.33448,0,0,0.75943,-0.15068,0,0.77304,-0.70105,-0.97139,-1.1079,36.066,-0.92677,0.35863,0.0012645,0.44,0.44,0
0.26939,0.054039,0.59062,-0.85841,-0.76277,-1.077,0.0727,0,0,0.28413,0.40847,0,0.18902,0,0,0.80748,-0.032064,0,0.80672,-0.72357,-0.89761,-1.077,61.669,-0.89938,0.30607,-3.8419e-05,0.46,0.44,0
0.27378,0.055493,0.57386,-0.95385,-0.68608,-1.0658,-0.0074863,0,0,0.14559,0.49368,0,-0.019464,0,0,0.90743,0.10561,0,0.91325,-0.68587,-0.95405,-1.0658,-88.4,-0.90192,0.33822,0.0012801,0.48,0.44,0
0.27521,0.054574,0.55432,-1.0497,-0.61621,-1.0541,-0.11664,0,0,0.0056996,0.56925,0,-0.30327,0,0,1.0363,0.22397,0,1.0658,-0.58682,-1.0791,-1.0541,-75.857,-0.90668,0.48027,0.0056375,0.5,0.44,0
0.27401,0.048705,0.53241,-1.0712,-0.30666,-0.94578,-0.10488,0,0,-0.1631,0.83085,0,-0.27269,0,0,1.138,0.072257,0,1.1387,-0.29253,-1.0854,-0.94578,-82.329,-0.77456,0.73307,0.017785,0.52,0.44,0
0.26869,0.042248,0.5088,-1.1588,-0.28873,-0.94306,-0.069594,0,0,-0.28047,0.85063,0,-0.18094,0,0,1.1787,0.033726,0,1.1792,-0.2832,-1.1643,-0.94306,-85.456,-0.79687,0.79397,0.019134,0.54,0.44,0
0.26279,0.037409,0.48526,-1.1421,-0.26399,-0.9071,-0.041406,0,0,-0.30556,0.83604,0,-0.10765,0,0,1.1783,0.015856,0,1.1784,-0.26204,-1.1441,-0.9071,-87.306,-0.77108,0.79066,0.017908,0.56,0.44,0
0.25646,0.03317,0.46167,-1.128,-0.2525,-0.87583,-0.029018,0,0,-0.32787,0.81032,0,-0.075448,0,0,1.1806,0.0061006,0,1.1806,-0.25154,-1.129,-0.87583,-88.104,-0.75212,0.78223,0.016182,0.58,0.44,0
0.24967,0.029379,0.43803,-1.1189,-0.24537,-0.84732,-0.021037,0,0,-0.3531,0.78254,0,-0.054697,0,0,1.1827,0.0002247,0,1.1827,-0.24486,-1.1195,-0.84732,-88.621,-0.73721,0.77521,0.014368,0.6,0.44,0
0.24234,0.025976,0.41436,-1.1137,-0.23958,-0.82034,-0.015218,0,0,-0.38137,0.75499,0,-0.039567,0,0,1.1846,-0.003484,0,1.1846,-0.23932,-1.114,-0.82034,-89.003,-0.72454,0.77098,0.012552,0.62,0.44,0
0.23442,0.022969,0.39065,-1.1112,-0.23392,-0.79417,-0.010516,0,0,-0.41209,0.72834,0,-0.027342,0,0,1.186,-0.0058815,0,1.186,-0.23379,-1.1113,-0.79417,-89.313,-0.71308,0.76961,0.010731,0.64,0.44,0
0.22586,0.020371,0.36692,-1.1106,-0.22802,-0.7685,-0.0065945,0,0,-0.4447,0.70262,0,-0.017146,0,0,1.1869,-0.0074607,0,1.187,-0.22797,-1.1106,-0.7685,-89.572,-0.70237,0.77081,0.0088807,0.66,0.44,0
0.21663,0.018191,0.34317,-1.1114,-0.22186,-0.74316,-0.0032527,0,0,-0.47875,0.67768,0,-0.0084569,0,0,1.1875,-0.0085414,0,1.1875,-0.22185,-1.1114,-0.74316,-89.79,-0.69215,0.77419,0.0069742,0.68,0.44,0
0.20671,0.016427,0.31942,-1.1133,-0.21549,-0.71806,-0.00032485,0,0,-0.51382,0.65334,0,-0.00084462,0,0,1.1875,-0.0093558,0,1.1876,-0.21549,-1.1133,-0.71806,-89.979,-0.68228,0.77938,0.0049907,0.7,0.44,0
0.19608,0.015068,0.29567,-1.1159,-0.20895,-0.69313,0.0023468,0,0,-0.54961,0.62943,0,0.0061017,0,0,1.1872,-0.010094,0,1.1872,-0.20895,-1.1159,-0.69313,89.852,-0.67266,0.78605,0.0029168,0.72,0.44,0
0.18472,0.014098,0.27193,-1.119,-0.20233,-0.66832,0.0049086,0,0,-0.58583,0.60579,0,0.012762,0,0,1.1864,-0.010934,0,1.1864,-0.20231,-1.119,-0.66832,89.693,-0.66321,0.79391,0.00074516,0.74,0.44,0
0.17264,0.013494,0.24822,-1.1223,-0.1957,-0.64362,0.0074942,0,0,-0.6223,0.5823,0,0.019485,0,0,1.1851,-0.012068,0,1.1851,-0.19564,-1.1224,-0.64362,89.537,-0.65387,0.80272,-0.0015267,0.76,0.44,0
0.15983,0.013231,0.22453,-1.1258,-0.18918,-0.61902,0.010243,0,0,-0.6588,0.5588,0,0.026631,0,0,1.1832,-0.013733,0,1.1833,-0.18906,-1.1259,-0.61902,89.374,-0.64466,0.81224,-0.0038981,0.78,0.44,0
0.14629,0.013279,0.20089,-1.1293,-0.18302,-0.59459,0.013374,0,0,-0.69514,0.53503,0,0.034773,0,0,1.1809,-0.016268,0,1.181,-0.18283,-1.1295,-0.59459,89.19,-0.63564,0.82215,-0.0063654,0.8,0.44,0
0.13203,0.01362,0.1773,-1.1329,-0.17785,-0.57051,0.017386,0,0,-0.73106,0.51045,0,0.045204,0,0,1.1779,-0.020206,0,1.1781,-0.17754,-1.1332,-0.57051,88.957,-0.62708,0.83195,-0.0089231,0.82,0.44,0
0.11705,0.014259,0.15377,-1.1366,-0.17508,-0.54726,0.023645,0,0,-0.76609,0.48384,0,0.061478,0,0,1.1746,-0.026526,0,1.1749,-0.1745,-1.1371,-0.54726,88.592,-0.61963,0.84071,-0.01156,0.84,0.44,0
0.10138,0.015272,0.13031,-1.1397,-0.17729,-0.52541,0.034978,0,0,-0.79859,0.45256,0,0.090941,0,0,1.171,-0.037315,0,1.1716,-0.17602,-1.141,-0.52541,87.921,-0.61414,0.84621,-0.0142,0.86,0.44,0
0.085105,0.016811,0.10693,-1.1362,-0.18957,-0.50467,0.060195,0,0,-0.82105,0.40964,0,0.15651,0,0,1.1714,-0.058063,0,1.1727,-0.18575,-1.1401,-0.50467,86.376,-0.61016,0.84147,-0.01645,0.88,0.44,0
0.068541,0.019417,0.083456,-1.0478,-0.19171,-0.45531,0.090043,0,0,-0.77024,0.34268,0,0.23411,0,0,1.1275,-0.10587,0,1.1302,-0.18234,-1.0572,-0.45531,84.06,-0.56494,0.77526,-0.014315,0.9,0.44,0
0.054296,0.02067,0.061828,-1.0162,-0.344,-0.46988,0.12168,0,0,-0.7102,0.16365,0,0.31637,0,0,1.0126,-0.29796,0,1.0622,-0.32265,-1.0375,-0.46988,80.049,-0.61003,0.65383,-0.011938,0.92,0.44,0
0.040133,0.018739,0.042953,-0.92923,-0.24748,-0.39597,0.078959,0,0,-0.69324,0.19303,0,0.20529,0,0,0.86086,-0.22205,0,0.89083,-0.23845,-0.93825,-0.39597,83.479,-0.52422,0.63585,-0.010522,0.94,0.44,0
0.026566,0.017581,0.027394,-0.85953,-0.19606,-0.34407,0.062053,0,0,-0.6701,0.19241,0,0.16134,0,0,0.73914,-0.12516,0,0.74949,-0.19031,-0.86528,-0.34407,84.702,-0.46656,0.61274,-0.0093543,0.96,0.44,0
0.013329,0.017233,0.013388,-0.81815,-0.16144,-0.30726,0.035206,0,0,-0.66415,0.18957,0,0.091535,0,0,0.68484,-0.055585,0,0.68674,-0.15956,-0.82003,-0.30726,86.94,-0.42895,0.60041,-0.0088891,0.98,0.44,0
0,0.017197,0,-0.78794,-0.12971,-0.2753,-0.00069725,0,0,-0.66644,0.18926,0,-0.0018128,0,0,0.66939,-1.7347e-18,0,0.66898,-0.12971,-0.78794,-0.2753,-89.939,-0.39765,0.59886,-0.0088715,1,0.44,0
0,0.061165,1,-0.61694,-1.5351,-1.6456,0.0024551,0,0,1.3373,0.14366,0,0.0063833,0,0,0.58255,-5.1695e-16,0,0.58221,-0.61693,-1.5351,-1.6456,0.1532,-1.2659,0.97813,0.046001,0,0.46,0
0.026745,0.061293,0.98835,-0.61147,-1.503,-1.6227,0.0026805,0,0,1.3146,0.1556,0,0.0069694,0,0,0.58827,0.048437,0,0.58992,-0.61146,-1.503,-1.6227,0.17227,-1.2457,0.95701,0.042653,0.02,0.46,0
0.052583,0.061449,0.97647,-0.63894,-1.4603,-1.6062,-0.0039486,0,0,1.2575,0.18971,0,-0.010266,0,0,0.60747,0.10194,0,0.61561,-0.63892,-1.4603,-1.6062,-0.27543,-1.2352,0.90325,0.034543,0.04,0.46,0
0.077046,0.06107,0.96405,-0.67511,-1.4014,-1.587,-0.033198,0,0,1.1854,0.2413,0,-0.086315,0,0,0.65127,0.16609,0,0.67181,-0.6736,-1.4029,-1.587,-2.6118,-1.2212,0.83668,0.025241,0.06,0.46,0
0.1,0.058548,0.95042,-0.75101,-1.3598,-1.5837,-0.10663,0,0,1.0824,0.29105,0,-0.27724,0,0,0.74816,0.24761,0,0.78934,-0.73287,-1.3779,-1.5837,-9.6531,-1.2315,0.76884,0.017828,0.08,0.46,0
0.12034,0.050856,0.93412,-0.85467,-1.1922,-1.5482,-0.2263,0,0,0.90157,0.46278,0,-0.58837,0,0,0.86754,0.29987,0,0.92244,-0.74114,-1.3057,-1.5482,-26.643,-1.1984,0.71724,0.011909,0.1,0.46,0
0.13606,0.036643,0.91572,-0.8465,-0.55981,-1.3376,-0.17932,0,0,0.63844,1.0111,0,-0.46624,0,0,0.95333,0.11259,0,0.95771,-0.47358,-0.93273,-1.3376,-64.319,-0.91464,0.74876,0.0023401,0.12,0.46,0
0.14588,0.026054,0.89599,-0.96304,-0.4931,-1.3328,-0.084922,0,0,0.48073,1.0917,0,-0.2208,0,0,0.97857,0.056931,0,0.98006,-0.47823,-0.97791,-1.3328,-80.065,-0.92966,0.74364,0.0060896,0.14,0.46,0
0.15529,0.020848,0.87657,-0.93216,-0.42906,-1.2849,-0.025618,0,0,0.45861,1.1126,0,-0.066608,0,0,0.96927,0.026136,0,0.96956,-0.42776,-0.93346,-1.2849,-87.093,-0.88206,0.74633,0.0065239,0.16,0.46,0
0.16423,0.017989,0.85722,-0.92121,-0.39845,-1.2531,-0.0040683,0,0,0.43148,1.1111,0,-0.010578,0,0,0.96801,0.0045188,0,0.96799,-0.39842,-0.92124,-1.2531,-89.554,-0.85759,0.74632,0.0080148,0.18,0.46,0
0.17255,0.016411,0.83785,-0.92116,-0.38251,-1.2289,0.0056126,0,0,0.40013,1.1004,0,0.014593,0,0,0.97032,-0.013716,0,0.97039,-0.38245,-0.92122,-1.2289,89.403,-0.84421,0.74214,0.0094863,0.2,0.46,0
0.18023,0.015533,0.81841,-0.926,-0.37512,-1.2087,0.01104,0,0,0.36757,1.0837,0,0.028703,0,0,0.97606,-0.031438,0,0.97654,-0.3749,-0.92622,-1.2087,88.852,-0.83662,0.73453,0.010674,0.22,0.46,0
0.18726,0.015194,0.79881,-0.93385,-0.37466,-1.1914,0.017223,0,0,0.33476,1.0617,0,0.04478,0,0,0.98594,-0.050821,0,0.98722,-0.37413,-0.93439,-1.1914,88.237,-0.83329,0.72381,0.011524,0.24,0.46,0
0.19362,0.015548,0.77897,-0.94713,-0.38315,-1.1781,0.029362,0,0,0.3002,1.0334,0,0.076341,0,0,1.0019,-0.074367,0,1.0046,-0.38162,-0.94865,-1.1781,87.028,-0.83611,0.71009,0.012127,0.26,0.46,0
0.19926,0.017154,0.75874,-0.97194,-0.40624,-1.1722,0.055376,0,0,0.26032,0.99574,0,0.14398,0,0,1.0272,-0.10613,0,1.0327,-0.40087,-0.97731,-1.1722,84.462,-0.85012,0.69469,0.01276,0.28,0.46,0
0.20403,0.021002,0.73788,-1.0148,-0.45931,-1.1801,0.11931,0,0,0.2149,0.93705,0,0.31021,0,0,1.0725,-0.15489,0,1.0834,-0.43477,-1.0393,-1.1801,78.377,-0.88475,0.68588,0.014248,0.3,0.46,0
0.20786,0.029744,0.71583,-0.91407,-0.50849,-1.1426,0.21415,0,0,0.29709,0.82435,0,0.55678,0,0,1.0824,-0.2446,0,1.1064,-0.41635,-1.0062,-1.1426,66.72,-0.85505,0.66857,0.013221,0.32,0.46,0
0.21592,0.040966,0.69459,-0.93897,-1.0582,-1.2937,0.27352,0,0,0.4612,0.30619,0,0.71116,0,0,1.0152,-0.53673,0,1.1502,-0.71865,-1.2785,-1.2937,38.852,-1.097,0.56764,0.0093713,0.34,0.46,0
0.22631,0.045831,0.67522,-0.85134,-1.1169,-1.2657,0.18594,0,0,0.53867,0.19342,0,0.48346,0,0,0.90073,-0.52768,0,1.0452,-0.75564,-1.2126,-1.2657,27.234,-1.078,0.4857,0.0056486,0.36,0.46,0
0.23746,0.047449,0.65856,-0.80161,-1.0983,-1.2285,0.15638,0,0,0.55501,0.16925,0,0.40659,0,0,0.81479,-0.45306,0,0.93171,-0.73442,-1.1656,-1.2285,23.253,-1.0428,0.46584,0.0048733,0.38,0.46,0
0.24851,0.04925,0.64263,-0.79957,-1.0831,-1.2074,0.17038,0,0,0.53023,0.16161,0,0.44299,0,0,0.80372,-0.3777,0,0.88745,-0.7197,-1.163,-1.2074,25.118,-1.03,0.46712,0.0050754,0.4,0.46,0
0.25867,0.052855,0.62641,-0.82119,-0.99777,-1.1721,0.1962,0,0,0.45617,0.22663,0,0.51013,0,0,0.82844,-0.29012,0,0.87712,-0.69433,-1.1246,-1.1721,32.887,-0.99702,0.45589,0.004689,0.42,0.46,0
0.26676,0.058061,0.6095,-0.86292,-0.83638,-1.1193,0.19082,0,0,0.33328,0.36777,0,0.49612,0,0,0.86729,-0.18726,0,0.88648,-0.65837,-1.0409,-1.1193,46.989,-0.93953,0.42716,0.0035532,0.44,0.46,0
0.272,0.063215,0.59171,-0.91991,-0.68184,-1.0722,0.14151,0,0,0.19803,0.50752,0,0.36794,0,0,0.91754,-0.080229,0,0.92047,-0.61595,-0.9858,-1.0722,65.035,-0.89133,0.41979,0.0032631,0.46,0.46,0
0.27468,0.066563,0.57279,-0.97426,-0.57864,-1.0387,0.062404,0,0,0.083721,0.59804,0,0.16225,0,0,0.98029,0.013342,0,0.98073,-0.56903,-0.98387,-1.0387,81.246,-0.86386,0.44478,0.0042889,0.48,0.46,0
0.27535,0.066802,0.5525,-1.0353,-0.51786,-1.0185,-0.015253,0,0,-0.021941,0.65079,0,-0.039659,0,0,1.0495,0.053328,0,1.0515,-0.51741,-1.0358,-1.0185,-88.313,-0.85722,0.50994,0.006784,0.5,0.46,0
0.2738,0.063736,0.53081,-1.067,-0.39181,-0.96846,-0.066567,0,0,-0.12812,0.74965,0,-0.17307,0,0,1.1088,0.052076,0,1.1103,-0.38531,-1.0735,-0.96846,-84.423,-0.8091,0.64216,0.012382,0.52,0.46,0
0.27023,0.058968,0.50815,-1.0958,-0.30148,-0.92734,-0.063312,0,0,-0.21901,0.81362,0,-0.16461,0,0,1.1463,0.024602,0,1.1465,-0.29647,-1.1008,-0.92734,-85.471,-0.77488,0.73318,0.016484,0.54,0.46,0
0.26504,0.053957,0.48496,-1.1189,-0.27593,-0.90342,-0.047685,0,0,-0.28016,0.81574,0,-0.12398,0,0,1.1646,0.010275,0,1.1647,-0.27324,-1.1216,-0.90342,-86.773,-0.76609,0.76304,0.016684,0.56,0.46,0
0.25902,0.049302,0.46157,-1.1205,-0.26131,-0.8761,-0.033271,0,0,-0.31767,0.79922,0,-0.086504,0,0,1.1728,0.0020215,0,1.1728,-0.26002,-1.1218,-0.8761,-87.786,-0.75262,0.76891,0.015567,0.58,0.46,0
0.25233,0.044993,0.43805,-1.1198,-0.25233,-0.84969,-0.02297,0,0,-0.35115,0.77657,0,-0.059721,0,0,1.1781,-0.0028471,0,1.1781,-0.25172,-1.1204,-0.84969,-88.484,-0.74061,0.7699,0.014044,0.6,0.46,0
0.24498,0.041066,0.41444,-1.1199,-0.2451,-0.82396,-0.015065,0,0,-0.38478,0.75251,0,-0.03917,0,0,1.1817,-0.0057484,0,1.1817,-0.24485,-1.1202,-0.82396,-89.014,-0.72967,0.77116,0.012378,0.62,0.46,0
0.23694,0.037546,0.39078,-1.1212,-0.23835,-0.79865,-0.0088716,0,0,-0.41935,0.7284,0,-0.023066,0,0,1.1842,-0.0074559,0,1.1842,-0.23826,-1.1213,-0.79865,-89.424,-0.71941,0.77394,0.010625,0.64,0.46,0
0.2282,0.034448,0.36707,-1.1233,-0.23162,-0.77354,-0.0039332,0,0,-0.45464,0.70449,0,-0.010226,0,0,1.1858,-0.0084285,0,1.1859,-0.23161,-1.1233,-0.77354,-89.747,-0.70948,0.77817,0.0087838,0.66,0.46,0
0.21875,0.031779,0.34335,-1.1257,-0.22487,-0.74851,5.6391e-05,0,0,-0.49032,0.68074,0,0.00014662,0,0,1.1867,-0.0089597,0,1.1868,-0.22487,-1.1257,-0.74851,89.996,-0.69968,0.78356,0.0068475,0.68,0.46,0
0.20859,0.029532,0.31961,-1.1282,-0.21809,-0.72348,0.0033577,0,0,-0.52609,0.65701,0,0.0087301,0,0,1.187,-0.0092546,0,1.187,-0.21807,-1.1282,-0.72348,89.789,-0.68991,0.78978,0.0048133,0.7,0.46,0
0.19771,0.027695,0.29587,-1.1305,-0.21133,-0.69843,0.0061994,0,0,-0.56175,0.63323,0,0.016118,0,0,1.1866,-0.0094746,0,1.1866,-0.21129,-1.1306,-0.69843,89.614,-0.68011,0.79661,0.0026836,0.72,0.46,0
0.18612,0.026249,0.27214,-1.1327,-0.20465,-0.67335,0.0087799,0,0,-0.59716,0.60931,0,0.022828,0,0,1.1856,-0.0097678,0,1.1857,-0.20457,-1.1328,-0.67335,89.458,-0.67023,0.80388,0.00046506,0.74,0.46,0
0.17382,0.025168,0.24844,-1.1345,-0.19809,-0.64823,0.011269,0,0,-0.6322,0.58519,0,0.029299,0,0,1.1839,-0.010295,0,1.184,-0.19795,-1.1347,-0.64823,89.311,-0.66029,0.81143,-0.0018333,0.76,0.46,0
0.16083,0.024425,0.22478,-1.136,-0.19176,-0.62311,0.013819,0,0,-0.66674,0.56075,0,0.03593,0,0,1.1814,-0.01126,0,1.1815,-0.19156,-1.1362,-0.62311,89.162,-0.65028,0.81909,-0.0042,0.78,0.46,0
0.14715,0.023986,0.20119,-1.1368,-0.18595,-0.59802,0.016604,0,0,-0.70047,0.5357,0,0.043171,0,0,1.1779,-0.012963,0,1.178,-0.18566,-1.1371,-0.59802,89,-0.64027,0.82644,-0.006617,0.8,0.46,0
0.13281,0.023816,0.17767,-1.1365,-0.18135,-0.57303,0.019937,0,0,-0.73253,0.50918,0,0.051837,0,0,1.1731,-0.015888,0,1.1732,-0.18094,-1.1369,-0.57303,88.805,-0.6303,0.83236,-0.0090403,0.82,0.46,0
0.11785,0.023884,0.15426,-1.1329,-0.17956,-0.548,0.024387,0,0,-0.76038,0.47898,0,0.063405,0,0,1.1661,-0.020894,0,1.1663,-0.17893,-1.1335,-0.548,88.536,-0.62016,0.83376,-0.011332,0.84,0.46,0
0.1024,0.024164,0.13102,-1.1205,-0.18415,-0.52243,0.031196,0,0,-0.77754,0.43976,0,0.08111,0,0,1.1553,-0.029679,0,1.1557,-0.18311,-1.1216,-0.52243,88.094,-0.60904,0.82305,-0.013109,0.86,0.46,0
0.086751,0.024653,0.10805,-1.0824,-0.1995,-0.49262,0.038372,0,0,-0.76671,0.38106,0,0.099766,0,0,1.1311,-0.045838,0,1.132,-0.19783,-1.0841,-0.49262,87.516,-0.5915,0.7817,-0.013295,0.88,0.46,0
0.071729,0.02492,0.085778,-1.0412,-0.26177,-0.47667,0.040008,0,0,-0.7339,0.27937,0,0.10402,0,0,1.0798,-0.07973,0,1.0833,-0.25973,-1.0433,-0.47667,87.069,-0.59322,0.70072,-0.012128,0.9,0.46,0
0.057395,0.024347,0.064856,-0.99612,-0.30046,-0.45383,0.021375,0,0,-0.70497,0.19938,0,0.055574,0,0,0.99467,-0.096748,0,1.0008,-0.29981,-0.99677,-0.45383,88.242,-0.58347,0.63414,-0.010538,0.92,0.46,0
0.04353,0.023011,0.045991,-0.93941,-0.23829,-0.3993,0.016893,0,0,-0.70214,0.20931,0,0.043922,0,0,0.88992,-0.08864,0,0.89646,-0.23789,-0.93981,-0.3993,88.621,-0.52567,0.63675,-0.010443,0.94,0.46,0
0.029309,0.022023,0.029259,-0.90721,-0.17957,-0.35529,0.020561,0,0,-0.7175,0.22845,0,0.05346,0,0,0.79452,-0.051165,0,0.79712,-0.17898,-0.9078,-0.35529,88.383,-0.48069,0.6586,-0.011204,0.96,0.46,0
0.01483,0.021732,0.01421,-0.88328,-0.13481,-0.31964,0.014665,0,0,-0.73274,0.24027,0,0.038128,0,0,0.73148,-0.020272,0,0.73193,-0.13453,-0.88357,-0.31964,88.878,-0.44591,0.67578,-0.011932,0.98,0.46,0
0,0.021709,0,-0.85827,-0.10135,-0.28789,-0.00043243,0,0,-0.7415,0.24249,0,-0.0011243,0,0,0.71049,1.9814e-17,0,0.7104,-0.10135,-0.85828,-0.28789,-89.967,-0.41584,0.68303,-0.012344,1,0.46,0
0,0.063983,1,-0.61003,-1.5501,-1.6481,0.0076542,0,0,1.3494,0.12729,0,0.019901,0,0,0.62578,1.1727e-15,0,0.6256,-0.60997,-1.5502,-1.6481,0.46646,-1.2694,0.99277,0.048612,0,0.48,0
0.026988,0.064381,0.98748,-0.6024,-1.5119,-1.6218,0.020376,0,0,1.3252,0.14284,0,0.052979,0,0,0.63327,0.036116,0,0.63414,-0.60195,-1.5124,-1.6218,1.2828,-1.2454,0.96976,0.044835,0.02,0.48,0
0.053007,0.065336,0.97467,-0.62374,-1.4524,-1.5975,0.0295,0,0,1.2659,0.18865,0,0.076699,0,0,0.65728,0.074625,0,0.66147,-0.62269,-1.4534,-1.5975,2.0363,-1.2246,0.91136,0.035625,0.04,0.48,0
0.077624,0.066078,0.96119,-0.66019,-1.3711,-1.5706,0.014881,0,0,1.1835,0.25933,0,0.03869,0,0,0.70221,0.11573,0,0.71201,-0.65988,-1.3714,-1.5706,1.1986,-1.2006,0.82925,0.023689,0.06,0.48,0
0.10035,0.065221,0.94658,-0.71813,-1.2599,-1.54,-0.036629,0,0,1.0684,0.36413,0,-0.095235,0,0,0.76633,0.14912,0,0.78178,-0.71567,-1.2624,-1.54,-3.8505,-1.1727,0.72645,0.010439,0.08,0.48,0
0.12036,0.061143,0.93054,-0.80202,-1.0676,-1.4914,-0.10417,0,0,0.89624,0.55096,0,-0.27085,0,0,0.83692,0.14187,0,0.84961,-0.76604,-1.1036,-1.4914,-19.056,-1.1203,0.62871,-0.0015276,0.1,0.48,0
0.1362,0.054242,0.9131,-0.85449,-0.73526,-1.39,-0.12696,0,0,0.6962,0.8512,0,-0.33008,0,0,0.89407,0.10601,0,0.90047,-0.65462,-0.93513,-1.39,-57.577,-0.99326,0.64282,-0.0054154,0.12,0.48,0
0.14821,0.047628,0.89478,-0.91215,-0.52804,-1.3268,-0.077784,0,0,0.53909,1.0384,0,-0.20224,0,0,0.92706,0.055765,0,0.92857,-0.51289,-0.92731,-1.3268,-78.976,-0.92234,0.70494,0.00057005,0.14,0.48,0
0.15776,0.043035,0.87602,-0.94637,-0.45319,-1.2959,-0.031994,0,0,0.45438,1.0955,0,-0.083185,0,0,0.94097,0.024912,0,0.94124,-0.45112,-0.94844,-1.2959,-86.304,-0.89848,0.73542,0.0061575,0.16,0.48,0
0.16638,0.040261,0.85714,-0.94436,-0.41158,-1.2639,-0.0047222,0,0,0.41543,1.108,0,-0.012278,0,0,0.94639,0.002067,0,0.94635,-0.41153,-0.9444,-1.2639,-89.492,-0.87328,0.74585,0.008894,0.18,0.48,0
0.17438,0.038472,0.83817,-0.94169,-0.39089,-1.2379,0.0087655,0,0,0.38513,1.1012,0,0.02279,0,0,0.9508,-0.017705,0,0.95093,-0.39075,-0.94183,-1.2379,89.088,-0.85684,0.74468,0.010467,0.2,0.48,0
0.18179,0.037256,0.81911,-0.94328,-0.3823,-1.2168,0.017251,0,0,0.35555,1.0848,0,0.044854,0,0,0.9556,-0.037493,0,0.9563,-0.38177,-0.94381,-1.2168,88.24,-0.84745,0.73745,0.011491,0.22,0.48,0
0.1886,0.036465,0.79994,-0.94989,-0.384,-1.2001,0.026393,0,0,0.32528,1.0609,0,0.068623,0,0,0.9617,-0.059903,0,0.96352,-0.38277,-0.95112,-1.2001,87.335,-0.84467,0.72562,0.012118,0.24,0.48,0
0.1948,0.036222,0.78064,-0.96011,-0.39897,-1.1884,0.04221,0,0,0.29673,1.0262,0,0.10974,0,0,0.96979,-0.088044,0,0.97369,-0.39581,-0.96327,-1.1884,85.722,-0.84915,0.70739,0.012168,0.26,0.48,0
0.20047,0.036921,0.76115,-0.96893,-0.43592,-1.1826,0.074034,0,0,0.27777,0.9707,0,0.19249,0,0,0.98013,-0.1267,0,0.9881,-0.42582,-0.97902,-1.1826,82.238,-0.86248,0.6783,0.011295,0.28,0.48,0
0.20591,0.03935,0.74143,-0.94884,-0.49027,-1.1732,0.1118,0,0,0.29162,0.88777,0,0.29069,0,0,0.98505,-0.1821,0,1.0012,-0.46446,-0.97465,-1.1732,77.003,-0.87076,0.63323,0.0088505,0.3,0.48,0
0.21252,0.043604,0.72176,-0.87745,-0.66771,-1.1853,0.18132,0,0,0.40022,0.67288,0,0.47144,0,0,0.96547,-0.28567,0,1.0061,-0.56311,-0.98204,-1.1853,60.022,-0.91016,0.54952,0.0047596,0.32,0.48,0
0.22122,0.048081,0.70264,-0.88056,-0.95863,-1.2544,0.17888,0,0,0.48598,0.38449,0,0.46508,0,0,0.92935,-0.37156,0,1.0008,-0.73651,-1.1027,-1.2544,38.845,-1.0312,0.46114,0.0032602,0.34,0.48,0
0.23196,0.050353,0.68459,-0.82918,-1.0642,-1.2526,0.14582,0,0,0.55047,0.24489,0,0.37913,0,0,0.8795,-0.43399,0,0.98107,-0.75942,-1.134,-1.2526,25.566,-1.0487,0.44588,0.0034896,0.36,0.48,0
0.24324,0.050941,0.66746,-0.81059,-1.1074,-1.2429,0.13927,0,0,0.56193,0.17611,0,0.36211,0,0,0.85435,-0.44201,0,0.96181,-0.75547,-1.1625,-1.2429,21.592,-1.0536,0.45258,0.0042597,0.38,0.48,0
0.25444,0.052416,0.65042,-0.82372,-1.1294,-1.2363,0.18238,0,0,0.53641,0.13908,0,0.4742,0,0,0.87138,-0.41908,0,0.96699,-0.73859,-1.2145,-1.2363,25.02,-1.0631,0.48718,0.0058986,0.4,0.48,0
0.2647,0.057413,0.6326,-0.88082,-1.0657,-1.2166,0.24973,0,0,0.43648,0.19607,0,0.64931,0,0,0.91921,-0.341,0,0.98014,-0.70698,-1.2396,-1.2166,34.841,-1.0544,0.52148,0.0072355,0.42,0.48,0
0.2719,0.066014,0.61365,-0.91047,-0.778,-1.1202,0.2669,0,0,0.27263,0.44485,0,0.69395,0,0,0.96932,-0.23145,0,0.99579,-0.56923,-1.1192,-1.1202,51.969,-0.93622,0.55048,0.0085673,0.44,0.48,0
0.2756,0.07434,0.59383,-0.96301,-0.57422,-1.055,0.18595,0,0,0.11958,0.62501,0,0.48348,0,0,1.0081,-0.11558,0,1.014,-0.4996,-1.0376,-1.055,68.136,-0.86408,0.54692,0.0083737,0.46,0.48,0
0.27668,0.079415,0.57332,-1.0108,-0.50179,-1.0271,0.094185,0,0,0.021214,0.68289,0,0.24488,0,0,1.041,-0.043739,0,1.0418,-0.48492,-1.0276,-1.0271,79.846,-0.84655,0.54245,0.0081978,0.48,0.48,0
0.27645,0.080605,0.55219,-1.0273,-0.44333,-0.99338,0.018997,0,0,-0.044111,0.71506,0,0.049393,0,0,1.075,-0.004558,0,1.0751,-0.44271,-1.0279,-0.99338,88.139,-0.82134,0.56873,0.0093305,0.5,0.48,0
0.27492,0.078691,0.53032,-1.0452,-0.3781,-0.95731,-0.025465,0,0,-0.11425,0.75298,0,-0.066209,0,0,1.1093,0.0076644,0,1.1094,-0.37712,-1.0462,-0.95731,-87.817,-0.79353,0.62934,0.011946,0.52,0.48,0
0.27188,0.074793,0.50782,-1.0674,-0.32212,-0.92468,-0.041195,0,0,-0.18556,0.78332,0,-0.10711,0,0,1.1369,0.0056226,0,1.137,-0.31986,-1.0697,-0.92468,-86.846,-0.77141,0.68887,0.014314,0.54,0.48,0
0.26749,0.070038,0.48485,-1.0883,-0.28776,-0.89767,-0.036925,0,0,-0.24783,0.79288,0,-0.096005,0,0,1.1557,-0.00066242,0,1.1558,-0.28606,-1.09,-0.89767,-87.365,-0.75791,0.72711,0.015184,0.56,0.48,0
0.26197,0.065139,0.46159,-1.1046,-0.27111,-0.87429,-0.02707,0,0,-0.29938,0.78414,0,-0.070381,0,0,1.1675,-0.0050637,0,1.1675,-0.27023,-1.1055,-0.87429,-88.142,-0.75,0.74698,0.014698,0.58,0.48,0
0.25552,0.060442,0.43815,-1.115,-0.25999,-0.85065,-0.017417,0,0,-0.34369,0.76786,0,-0.045283,0,0,1.175,-0.007711,0,1.175,-0.25964,-1.1154,-0.85065,-88.834,-0.74189,0.75884,0.013583,0.6,0.48,0
0.24822,0.056077,0.41459,-1.1231,-0.25113,-0.82687,-0.0096232,0,0,-0.38515,0.74846,0,-0.02502,0,0,1.18,-0.0091164,0,1.18,-0.25102,-1.1233,-0.82687,-89.368,-0.73371,0.76818,0.012145,0.62,0.48,0
0.24011,0.052105,0.39095,-1.1299,-0.24304,-0.80281,-0.0035972,0,0,-0.42514,0.7277,0,-0.0093527,0,0,1.1833,-0.0097164,0,1.1833,-0.24303,-1.1299,-0.80281,-89.768,-0.72524,0.77679,0.010495,0.64,0.48,0
0.23122,0.048551,0.36726,-1.1354,-0.2353,-0.77847,0.00099109,0,0,-0.46403,0.70612,0,0.0025768,0,0,1.1854,-0.0098113,0,1.1855,-0.2353,-1.1354,-0.77847,89.937,-0.7164,0.78506,0.0086763,0.66,0.48,0
0.22155,0.045421,0.34353,-1.1399,-0.22779,-0.75384,0.0045035,0,0,-0.50187,0.68385,0,0.011709,0,0,1.1866,-0.009601,0,1.1867,-0.22777,-1.1399,-0.75384,89.717,-0.70717,0.79303,0.006712,0.68,0.48,0
0.21114,0.042707,0.31979,-1.1433,-0.22049,-0.72893,0.0072488,0,0,-0.53867,0.66096,0,0.018847,0,0,1.187,-0.009224,0,1.1871,-0.22044,-1.1434,-0.72893,89.55,-0.69757,0.80064,0.0046241,0.7,0.48,0
0.2,0.040397,0.29605,-1.1456,-0.21342,-0.70377,0.0094802,0,0,-0.57444,0.63746,0,0.024648,0,0,1.1867,-0.0087861,0,1.1867,-0.21332,-1.1457,-0.70377,89.417,-0.68761,0.80787,0.0024344,0.72,0.48,0
0.18816,0.03847,0.27232,-1.147,-0.20657,-0.67839,0.011405,0,0,-0.60916,0.61336,0,0.029652,0,0,1.1855,-0.0083812,0,1.1856,-0.20643,-1.1471,-0.67839,89.305,-0.67731,0.81466,0.00016518,0.74,0.48,0
0.17564,0.036902,0.24863,-1.1473,-0.19998,-0.6528,0.013191,0,0,-0.64281,0.58867,0,0.034297,0,0,1.1836,-0.0081104,0,1.1836,-0.1998,-1.1475,-0.6528,89.202,-0.66668,0.82096,-0.0021604,0.76,0.48,0
0.16245,0.035661,0.22498,-1.1465,-0.19374,-0.62705,0.014966,0,0,-0.67527,0.5633,0,0.038912,0,0,1.1806,-0.0081025,0,1.1806,-0.1935,-1.1467,-0.62705,89.1,-0.65575,0.82663,-0.0045175,0.78,0.48,0
0.14863,0.034708,0.20141,-1.1444,-0.18809,-0.60115,0.016776,0,0,-0.70622,0.53698,0,0.043618,0,0,1.1762,-0.0085424,0,1.1763,-0.1878,-1.1447,-0.60115,88.995,-0.64455,0.83125,-0.0068737,0.8,0.48,0
0.1342,0.033988,0.17793,-1.1404,-0.18372,-0.57515,0.018451,0,0,-0.73477,0.50887,0,0.047973,0,0,1.17,-0.0097081,0,1.1701,-0.18336,-1.1407,-0.57515,88.895,-0.63308,0.83364,-0.0091686,0.82,0.48,0
0.11924,0.033418,0.1546,-1.1326,-0.18227,-0.54907,0.019302,0,0,-0.7586,0.47684,0,0.050185,0,0,1.1608,-0.011999,0,1.1609,-0.18188,-1.133,-0.54907,88.837,-0.62131,0.83079,-0.011263,0.84,0.48,0
0.10386,0.032863,0.1315,-1.1167,-0.18684,-0.52257,0.01699,0,0,-0.77242,0.43645,0,0.044175,0,0,1.1461,-0.01583,0,1.1462,-0.18653,-1.1171,-0.52257,88.954,-0.60872,0.81615,-0.012819,0.86,0.48,0
0.08834,0.032053,0.10876,-1.0912,-0.20591,-0.49789,0.006522,0,0,-0.77128,0.37957,0,0.016957,0,0,1.1213,-0.020967,0,1.1216,-0.20586,-1.0912,-0.49789,89.578,-0.59833,0.78141,-0.013472,0.88,0.48,0
0.073007,0.030592,0.086645,-1.0457,-0.23358,-0.47042,-0.015496,0,0,-0.74782,0.30789,0,-0.040289,0,0,1.0766,-0.019255,0,1.077,-0.23328,-1.0459,-0.47042,-88.907,-0.58322,0.72385,-0.012665,0.9,0.48,0
0.058428,0.028645,0.065698,-1.0037,-0.27729,-0.45,-0.035754,0,0,-0.71985,0.22453,0,-0.09296,0,0,1.0036,0.006858,0,1.0048,-0.27553,-1.0055,-0.45,-87.189,-0.57701,0.66024,-0.011375,0.92,0.48,0
0.044213,0.027111,0.046499,-0.95972,-0.26133,-0.41281,-0.022342,0,0,-0.71098,0.19693,0,-0.05809,0,0,0.92427,0.013304,0,0.92588,-0.26062,-0.96043,-0.41281,-88.169,-0.54462,0.63749,-0.010792,0.94,0.48,0
0.029983,0.026718,0.02944,-0.92256,-0.18005,-0.36022,-0.003354,0,0,-0.73103,0.23422,0,-0.0087205,0,0,0.79236,0.026615,0,0.79439,-0.18004,-0.92257,-0.36022,-89.741,-0.48761,0.67084,-0.011816,0.96,0.48,0
0.015167,0.026844,0.014199,-0.90007,-0.13083,-0.32347,-0.0056005,0,0,-0.74958,0.25043,0,-0.014561,0,0,0.73601,0.025283,0,0.73672,-0.13079,-0.90011,-0.32347,-89.583,-0.45146,0.69336,-0.012767,0.98,0.48,0
0,0.026897,0,-0.87525,-0.097727,-0.29189,0.0010107,0,0,-0.75836,0.25242,0,0.0026278,0,0,0.70993,4.3856e-17,0,0.70978,-0.097725,-0.87525,-0.29189,89.925,-0.42162,0.70091,-0.013216,1,0.48,0
0,0.066257,1,-0.59521,-1.5826,-1.6533,0.014413,0,0,1.3756,0.09197,0,0.037474,0,0,0.65478,-3.8424e-16,0,0.65472,-0.595,-1.5828,-1.6533,0.83613,-1.2771,1.0249,0.05441,0,0.5,0
0.027511,0.067006,0.9869,-0.58708,-1.5388,-1.6247,0.037082,0,0,1.3489,0.11162,0,0.096412,0,0,0.6629,0.020877,0,0.66321,-0.58563,-1.5402,-1.6247,2.2279,-1.2502,0.9995,0.050052,0.02,0.5,0
0.053955,0.068995,0.97348,-0.61173,-1.4643,-1.5963,0.062193,0,0,1.2799,0.17159,0,0.1617,0,0,0.68709,0.043047,0,0.68856,-0.60722,-1.4688,-1.5963,4.1503,-1.2241,0.9319,0.038956,0.04,0.5,0
0.078709,0.071444,0.95942,-0.65329,-1.3501,-1.5604,0.062218,0,0,1.1793,0.27342,0,0.16177,0,0,0.72577,0.064753,0,0.729,-0.64777,-1.3556,-1.5604,5.0624,-1.188,0.82945,0.023394,0.06,0.5,0
0.10113,0.073113,0.94445,-0.71345,-1.1947,-1.5169,0.030721,0,0,1.0445,0.41885,0,0.079876,0,0,0.77431,0.078643,0,0.77877,-0.7115,-1.1967,-1.5169,3.6378,-1.1417,0.70235,0.0061525,0.08,0.5,0
0.12049,0.072894,0.92845,-0.7476,-0.98328,-1.4477,-0.012584,0,0,0.91015,0.60376,0,-0.032719,0,0,0.81636,0.087137,0,0.82132,-0.74693,-0.98395,-1.4477,-3.0478,-1.0595,0.6174,-0.0063592,0.1,0.5,0
0.13637,0.070691,0.91148,-0.88086,-0.7749,-1.4082,-0.050928,0,0,0.68555,0.8233,0,-0.13241,0,0,0.87342,0.068947,0,0.87627,-0.75439,-0.90137,-1.4082,-68.066,-1.0213,0.59412,-0.0085891,0.12,0.5,0
0.149,0.067591,0.89376,-0.8946,-0.57991,-1.3361,-0.047015,0,0,0.57397,0.98306,0,-0.12224,0,0,0.89747,0.039933,0,0.89837,-0.57304,-0.90147,-1.3361,-81.682,-0.93688,0.66297,-0.0035655,0.14,0.5,0
0.15933,0.064668,0.87558,-0.92489,-0.47659,-1.296,-0.026803,0,0,0.48247,1.0653,0,-0.069687,0,0,0.91557,0.016885,0,0.9157,-0.475,-0.92649,-1.296,-86.591,-0.89917,0.71221,0.0031886,0.16,0.5,0
0.1683,0.062311,0.85714,-0.93653,-0.42654,-1.2661,-0.0067002,0,0,0.42839,1.0914,0,-0.017421,0,0,0.9254,-0.0029356,0,0.92537,-0.42645,-0.93662,-1.2661,-89.247,-0.87638,0.73271,0.0073233,0.18,0.5,0
0.17647,0.060457,0.83856,-0.93767,-0.40131,-1.2403,0.0090657,0,0,0.39336,1.0906,0,0.023571,0,0,0.93076,-0.02156,0,0.93098,-0.40116,-0.93783,-1.2403,89.032,-0.85975,0.73606,0.0094465,0.2,0.5,0
0.18403,0.058926,0.81991,-0.93896,-0.39153,-1.219,0.021835,0,0,0.36412,1.0758,0,0.05677,0,0,0.93386,-0.041079,0,0.93472,-0.39066,-0.93983,-1.219,87.719,-0.84985,0.72999,0.010577,0.22,0.5,0
0.19103,0.057631,0.80121,-0.94226,-0.39481,-1.2023,0.034631,0,0,0.33809,1.0498,0,0.090039,0,0,0.93539,-0.063726,0,0.9375,-0.39263,-0.94444,-1.2023,86.395,-0.84647,0.71645,0.010971,0.24,0.5,0
0.19756,0.056597,0.78249,-0.94437,-0.41583,-1.1905,0.051084,0,0,0.32003,1.0071,0,0.13282,0,0,0.9351,-0.09226,0,0.93954,-0.41094,-0.94926,-1.1905,84.53,-0.85025,0.69131,0.010264,0.26,0.5,0
0.20383,0.055981,0.7638,-0.93533,-0.46535,-1.184,0.074593,0,0,0.32328,0.93426,0,0.19394,0,0,0.93095,-0.13044,0,0.93986,-0.45379,-0.94689,-1.184,81.195,-0.86156,0.64521,0.0077787,0.28,0.5,0
0.21049,0.05592,0.74525,-0.92849,-0.58359,-1.1989,0.10801,0,0,0.3515,0.79987,0,0.28083,0,0,0.92177,-0.18055,0,0.93905,-0.55256,-0.95952,-1.1989,73.97,-0.90365,0.56597,0.0040153,0.3,0.5,0
0.21827,0.056257,0.72705,-0.86135,-0.73096,-1.2047,0.13057,0,0,0.4464,0.61592,0,0.3395,0,0,0.89009,-0.24317,0,0.92246,-0.65021,-0.9421,-1.2047,58.267,-0.93235,0.48046,0.00051966,0.32,0.5,0
0.22777,0.056346,0.70945,-0.84928,-0.9205,-1.2404,0.13361,0,0,0.50843,0.41584,0,0.34739,0,0,0.86154,-0.31857,0,0.91839,-0.74661,-1.0232,-1.2404,37.538,-1.0034,0.42864,0.00083462,0.34,0.5,0
0.23861,0.055627,0.69259,-0.83441,-1.0558,-1.2597,0.13217,0,0,0.55281,0.26499,0,0.34364,0,0,0.83028,-0.38219,0,0.91382,-0.77271,-1.1175,-1.2597,25.026,-1.05,0.43371,0.0027234,0.36,0.5,0
0.24988,0.054493,0.67624,-0.8365,-1.133,-1.2671,0.15193,0,0,0.55977,0.17428,0,0.39501,0,0,0.8297,-0.44015,0,0.93879,-0.77248,-1.197,-1.2671,22.849,-1.0789,0.46357,0.0047251,0.38,0.5,0
0.261,0.054813,0.6594,-0.8827,-1.2183,-1.2897,0.22052,0,0,0.52907,0.092866,0,0.57335,0,0,0.90473,-0.50221,0,1.0357,-0.77339,-1.3276,-1.2897,26.368,-1.1302,0.53623,0.0077862,0.4,0.5,0
0.27105,0.060698,0.64005,-0.97821,-1.212,-1.2971,0.35525,0,0,0.41458,0.11062,0,0.92366,0,0,1.0161,-0.50639,0,1.1374,-0.72112,-1.4691,-1.2971,35.892,-1.1624,0.67854,0.012637,0.42,0.5,0
0.27759,0.075855,0.61875,-0.93461,-0.56025,-1.0672,0.30206,0,0,0.17238,0.65905,0,0.78535,0,0,1.0927,-0.2138,0,1.1098,-0.39208,-1.1028,-1.0672,60.893,-0.85402,0.6936,0.016986,0.44,0.5,0
0.27794,0.088215,0.59634,-1.0561,-0.51816,-1.0686,0.21625,0,0,0.016255,0.7156,0,0.56225,0,0,1.1104,-0.12001,0,1.1163,-0.44202,-1.1323,-1.0686,70.601,-0.88097,0.66073,0.014353,0.46,0.5,0
0.2782,0.093879,0.57454,-1.0133,-0.44748,-1.0128,0.078926,0,0,-0.0007043,0.7349,0,0.20521,0,0,1.0918,-0.063197,0,1.0935,-0.43668,-1.0241,-1.0128,82.206,-0.82453,0.58186,0.010105,0.48,0.5,0
0.27805,0.095404,0.55269,-0.98374,-0.39352,-0.96586,0.044236,0,0,-0.023244,0.74405,0,0.11501,0,0,1.0982,-0.031429,0,1.0987,-0.39022,-0.98704,-0.96586,85.737,-0.78104,0.58652,0.010317,0.5,0.5,0
0.27696,0.093855,0.53051,-1.0197,-0.36219,-0.94507,-0.0068222,0,0,-0.097001,0.75774,0,-0.017738,0,0,1.1223,-0.016482,0,1.1224,-0.36212,-1.0198,-0.94507,-89.406,-0.77565,0.62366,0.011858,0.52,0.5,0
0.2746,0.090301,0.50793,-1.0148,-0.31255,-0.90613,-0.011949,0,0,-0.14125,0.77165,0,-0.031067,0,0,1.135,-0.011837,0,1.1351,-0.31235,-1.015,-0.90613,-89.025,-0.74449,0.65503,0.013101,0.54,0.5,0
0.27085,0.085672,0.48499,-1.0746,-0.29915,-0.89711,-0.018475,0,0,-0.23071,0.77734,0,-0.048034,0,0,1.1562,-0.011623,0,1.1563,-0.29871,-1.075,-0.89711,-88.636,-0.75694,0.70441,0.014165,0.56,0.5,0
0.2658,0.080668,0.46177,-1.0744,-0.2704,-0.86522,-0.012704,0,0,-0.27197,0.77327,0,-0.033031,0,0,1.1641,-0.012369,0,1.1642,-0.2702,-1.0746,-0.86522,-89.095,-0.73668,0.72285,0.01405,0.58,0.5,0
0.25958,0.075707,0.43836,-1.1221,-0.26989,-0.85595,-0.0057233,0,0,-0.34599,0.76188,0,-0.014881,0,0,1.1752,-0.012686,0,1.1752,-0.26985,-1.1221,-0.85595,-89.615,-0.74931,0.75523,0.013217,0.6,0.5,0
0.25231,0.071005,0.41481,-1.117,-0.25102,-0.82521,-0.0024045,0,0,-0.37932,0.74645,0,-0.0062516,0,0,1.1789,-0.012509,0,1.179,-0.25101,-1.117,-0.82521,-89.841,-0.73108,0.76315,0.012093,0.62,0.5,0
0.24409,0.066654,0.39117,-1.1505,-0.25132,-0.81171,0.004004,0,0,-0.44041,0.7285,0,0.01041,0,0,1.184,-0.011966,0,1.1841,-0.25131,-1.1505,-0.81171,89.745,-0.73784,0.78657,0.010283,0.64,0.5,0
0.23499,0.062693,0.36747,-1.1495,-0.23781,-0.78367,0.0083995,0,0,-0.47563,0.70962,0,0.021839,0,0,1.186,-0.01148,0,1.186,-0.23774,-1.1496,-0.78367,89.472,-0.72368,0.79483,0.0086105,0.66,0.5,0
0.22507,0.059133,0.34373,-1.156,-0.22967,-0.75944,0.010187,0,0,-0.51557,0.6887,0,0.026486,0,0,1.1873,-0.010399,0,1.1874,-0.22956,-1.1561,-0.75944,89.37,-0.71505,0.8052,0.0065915,0.68,0.5,0
0.21437,0.05597,0.31998,-1.1603,-0.22192,-0.73463,0.011416,0,0,-0.55332,0.66652,0,0.02968,0,0,1.1878,-0.0092508,0,1.1878,-0.22178,-1.1604,-0.73463,89.303,-0.7056,0.81403,0.0044285,0.7,0.5,0
0.20293,0.053193,0.29622,-1.1625,-0.21452,-0.70934,0.012252,0,0,-0.58916,0.64326,0,0.031855,0,0,1.1875,-0.0080666,0,1.1875,-0.21436,-1.1627,-0.70934,89.26,-0.69546,0.82154,0.0021619,0.72,0.5,0
0.1908,0.050783,0.27248,-1.163,-0.20747,-0.68362,0.012823,0,0,-0.62321,0.61899,0,0.033339,0,0,1.1863,-0.0068692,0,1.1863,-0.2073,-1.1632,-0.68362,89.231,-0.6847,0.82782,-0.0001711,0.74,0.5,0
0.178,0.048715,0.24877,-1.1617,-0.20077,-0.65751,0.013223,0,0,-0.65547,0.59377,0,0.03438,0,0,1.1842,-0.0056806,0,1.1842,-0.20059,-1.1619,-0.65751,89.212,-0.67334,0.83286,-0.0025337,0.76,0.5,0
0.16458,0.046957,0.22511,-1.1586,-0.19448,-0.63102,0.013502,0,0,-0.68582,0.56751,0,0.035105,0,0,1.181,-0.004527,0,1.181,-0.19429,-1.1588,-0.63102,89.198,-0.66136,0.83651,-0.0048865,0.78,0.5,0
0.15057,0.045465,0.20153,-1.1534,-0.18878,-0.60419,0.013588,0,0,-0.71402,0.54004,0,0.035328,0,0,1.1763,-0.0034409,0,1.1763,-0.18859,-1.1536,-0.60419,89.193,-0.6488,0.83842,-0.0071862,0.8,0.5,0
0.13602,0.044171,0.17806,-1.1462,-0.18421,-0.57716,0.013077,0,0,-0.73968,0.51084,0,0.034001,0,0,1.1696,-0.0024486,0,1.1696,-0.18403,-1.1463,-0.57716,89.221,-0.63584,0.83801,-0.0093835,0.82,0.5,0
0.12098,0.042957,0.15474,-1.1367,-0.18194,-0.55034,0.010743,0,0,-0.76231,0.47893,0,0.027933,0,0,1.16,-0.001488,0,1.16,-0.18181,-1.1369,-0.55034,89.355,-0.623,0.83424,-0.011421,0.84,0.5,0
0.10553,0.041622,0.13166,-1.1266,-0.18444,-0.52497,0.0037334,0,0,-0.78212,0.44268,0,0.0097068,0,0,1.1463,-5.6909e-05,0,1.1464,-0.18442,-1.1266,-0.52497,89.773,-0.612,0.82633,-0.013278,0.86,0.5,0
0.0897,0.039835,0.10889,-1.1174,-0.1928,-0.50195,-0.012633,0,0,-0.80007,0.40189,0,-0.032846,0,0,1.1277,0.0042799,0,1.1278,-0.19263,-1.1176,-0.50195,-89.217,-0.60405,0.81552,-0.014956,0.88,0.5,0
0.073526,0.037235,0.086548,-1.1058,-0.20568,-0.47999,-0.045735,0,0,-0.81356,0.35661,0,-0.11891,0,0,1.1077,0.018375,0,1.1078,-0.20336,-1.1081,-0.47999,-87.099,-0.59716,0.80302,-0.016347,0.9,0.5,0
0.057158,0.033328,0.064582,-1.02,-0.19651,-0.42954,-0.081563,0,0,-0.76762,0.30294,0,-0.21206,0,0,1.0466,0.059727,0,1.0464,-0.18851,-1.028,-0.42954,-84.398,-0.54869,0.74868,-0.014263,0.92,0.5,0
0.042821,0.030726,0.044685,-0.98341,-0.30762,-0.43199,-0.14358,0,0,-0.71684,0.16168,0,-0.37331,0,0,0.99485,0.22848,0,1.0257,-0.27838,-1.0127,-0.43199,-78.489,-0.57434,0.67079,-0.012803,0.94,0.5,0
0.028254,0.031381,0.027481,-0.90387,-0.19893,-0.35832,-0.065706,0,0,-0.70922,0.20721,0,-0.17083,0,0,0.71413,0.1583,0,0.73276,-0.19286,-0.90995,-0.35832,-84.72,-0.48704,0.65034,-0.011104,0.96,0.5,0
0.014069,0.031749,0.013199,-0.85673,-0.14146,-0.31266,-0.027846,0,0,-0.7073,0.22255,0,-0.0724,0,0,0.69606,0.063967,0,0.69844,-0.14038,-0.85781,-0.31266,-87.774,-0.43695,0.64868,-0.010757,0.98,0.5,0
0,0.031806,0,-0.80535,-0.07541,-0.26423,0.0010956,0,0,-0.70346,0.24546,0,0.0028485,0,0,0.65993,4.1633e-17,0,0.65961,-0.075408,-0.80535,-0.26423,89.914,-0.38166,0.65623,-0.010565,1,0.5,0
0,0.067662,1,-0.58292,-1.6303,-1.664,0.022771,0,0,1.4054,0.043772,0,0.059204,0,0,0.66753,-2.1621e-15,0,0.66752,-0.58242,-1.6308,-1.664,1.2449,-1.2924,1.0653,0.061896,0,0.52,0
0.028107,0.068846,0.98665,-0.55807,-1.5666,-1.624,0.04717,0,0,1.3858,0.07473,0,0.12264,0,0,0.67339,0.006567,0,0.67346,-0.55587,-1.5688,-1.624,2.6721,-1.2496,1.0416,0.057493,0.02,0.52,0
0.055038,0.0722,0.97295,-0.62419,-1.4957,-1.6089,0.10322,0,0,1.2801,0.14721,0,0.26838,0,0,0.70651,0.015445,0,0.70685,-0.61213,-1.5077,-1.6089,6.6637,-1.2429,0.95024,0.042387,0.04,0.52,0
0.079977,0.077014,0.9586,-0.65344,-1.3456,-1.5583,0.11811,0,0,1.1764,0.2765,0,0.3071,0,0,0.73781,0.019041,0,0.73836,-0.63384,-1.3652,-1.5583,9.4218,-1.1858,0.84465,0.025581,0.06,0.52,0
0.10209,0.081975,0.94344,-0.71379,-1.1448,-1.501,0.10162,0,0,1.0234,0.46308,0,0.26421,0,0,0.77999,0.028056,0,0.78082,-0.69103,-1.1676,-1.501,12.623,-1.1199,0.7051,0.0054041,0.08,0.52,0
0.12091,0.085617,0.9274,-0.73652,-0.90091,-1.4186,0.063233,0,0,0.88675,0.67304,0,0.16441,0,0,0.81453,0.025445,0,0.81515,-0.71501,-0.92242,-1.4186,18.785,-1.0187,0.62623,-0.0081069,0.1,0.52,0
0.13648,0.08719,0.9106,-0.86182,-0.74039,-1.3913,0.0048781,0,0,0.68827,0.84613,0,0.012683,0,0,0.86064,0.02365,0,0.86107,-0.7402,-0.86201,-1.3913,87.703,-0.99782,0.59951,-0.0095445,0.12,0.52,0
0.14934,0.086951,0.89318,-0.87477,-0.58798,-1.332,-0.013142,0,0,0.5944,0.96724,0,-0.03417,0,0,0.88122,0.018876,0,0.88147,-0.58737,-0.87538,-1.332,-87.382,-0.93158,0.65036,-0.0053717,0.14,0.52,0
0.16025,0.085645,0.87535,-0.89783,-0.49477,-1.2931,-0.015954,0,0,0.51389,1.0379,0,-0.04148,0,0,0.8981,0.0055424,0,0.89812,-0.49414,-0.89846,-1.2931,-87.737,-0.89524,0.69196,0.00035602,0.16,0.52,0
0.1699,0.083916,0.85726,-0.90718,-0.44211,-1.262,-0.0056086,0,0,0.46132,1.0659,0,-0.014582,0,0,0.90794,-0.0090842,0,0.90797,-0.44204,-0.90725,-1.262,-89.309,-0.87045,0.71228,0.004281,0.18,0.52,0
0.17871,0.082097,0.83903,-0.90996,-0.41544,-1.2367,0.0094177,0,0,0.4247,1.0676,0,0.024486,0,0,0.91266,-0.024543,0,0.91296,-0.41526,-0.91014,-1.2367,88.909,-0.85402,0.71631,0.0065328,0.2,0.52,0
0.18689,0.080287,0.82075,-0.91121,-0.40472,-1.2155,0.025164,0,0,0.39561,1.054,0,0.065425,0,0,0.91344,-0.041705,0,0.91436,-0.40347,-0.91246,-1.2155,87.163,-0.84382,0.71076,0.0077897,0.22,0.52,0
0.19453,0.078456,0.80249,-0.91258,-0.40805,-1.1987,0.040041,0,0,0.37193,1.0278,0,0.10411,0,0,0.91052,-0.062001,0,0.91259,-0.40489,-0.91573,-1.1987,85.49,-0.83977,0.69682,0.0082212,0.24,0.52,0
0.20176,0.076508,0.78433,-0.91001,-0.43024,-1.1864,0.053173,0,0,0.35931,0.98302,0,0.13825,0,0,0.90308,-0.087318,0,0.90722,-0.42441,-0.91583,-1.1864,83.751,-0.84222,0.66908,0.00734,0.26,0.52,0
0.2089,0.074291,0.76637,-0.89755,-0.48545,-1.1813,0.06377,0,0,0.36884,0.90456,0,0.1658,0,0,0.88923,-0.11994,0,0.89719,-0.47581,-0.90719,-1.1813,81.402,-0.85476,0.61599,0.0044983,0.28,0.52,0
0.21652,0.071631,0.74876,-0.87141,-0.59023,-1.1872,0.071846,0,0,0.41059,0.77613,0,0.1868,0,0,0.86669,-0.16176,0,0.88155,-0.57294,-0.8887,-1.1872,76.466,-0.88296,0.53208,0.00037541,0.3,0.52,0
0.22533,0.068408,0.7317,-0.83747,-0.74796,-1.2073,0.080671,0,0,0.48082,0.59718,0,0.20974,0,0,0.83456,-0.21342,0,0.86132,-0.70046,-0.88497,-1.2073,59.51,-0.93092,0.44434,-0.0020296,0.32,0.52,0
0.23575,0.064714,0.71538,-0.80861,-0.92743,-1.2362,0.097392,0,0,0.55585,0.40139,0,0.25322,0,0,0.79556,-0.27412,0,0.84133,-0.75394,-0.9821,-1.2362,29.309,-0.99074,0.41784,-0.00034829,0.34,0.52,0
0.24756,0.060952,0.69988,-0.80081,-1.0809,-1.2644,0.13224,0,0,0.60267,0.23851,0,0.34383,0,0,0.75792,-0.34459,0,0.83217,-0.74825,-1.1335,-1.2644,21.677,-1.0487,0.46474,0.0038097,0.36,0.52,0
0.25986,0.057912,0.68506,-0.84779,-1.208,-1.3018,0.18988,0,0,0.5902,0.12196,0,0.49368,0,0,0.73433,-0.43252,0,0.85104,-0.76619,-1.2896,-1.3018,23.258,-1.1192,0.52961,0.0076157,0.38,0.52,0
0.27117,0.056131,0.67051,-0.9668,-1.3508,-1.3658,0.32782,0,0,0.51867,0.019493,0,0.85234,0,0,0.80514,-0.56461,0,0.97761,-0.77889,-1.5387,-1.3658,29.822,-1.2278,0.6898,0.013354,0.4,0.52,0
0.2806,0.061838,0.65285,-0.87152,-1.0714,-0.9501,0.38055,0,0,-0.0030351,-0.49493,0,2.3927,0,0,0.64542,-0.46634,0,0.80617,-0.57758,-1.3653,-0.9501,38.645,-0.96433,0.68437,0.00027424,0.42,0.52,0
0.2758,0.092376,0.6222,-0.74807,-0.43511,-0.70494,0.24604,0,0,-0.099682,-0.084882,0,1.7945,0,0,0.76415,-0.14256,0,0.78387,-0.26957,-0.91361,-0.70494,51.381,-0.62937,0.58226,0.016021,0.44,0.52,0
0.27662,0.1034,0.59852,-0.62239,-0.39452,-0.64174,0.13714,0,0,0.057543,-0.086192,0,1.1557,0,0,0.66445,-0.095722,0,0.67762,-0.2917,-0.72521,-0.64174,51.786,-0.55288,0.41631,0.0070577,0.46,0.52,0
0.27876,0.10905,0.5759,-0.56587,-0.35096,-0.59899,0.051914,0,0,0.082815,-0.074499,0,0.73754,0,0,0.62829,-0.065579,0,0.63607,-0.28474,-0.63209,-0.59899,56.481,-0.50527,0.35378,0.0043192,0.48,0.52,0
0.28025,0.11045,0.55357,-0.53825,-0.32066,-0.56906,0.059568,0,0,0.058747,-0.049578,0,0.60852,0,0,0.62802,-0.047133,0,0.63271,-0.26173,-0.59719,-0.56906,53.584,-0.47599,0.34276,0.0044809,0.5,0.52,0
0.28047,0.10899,0.53113,-0.60733,-0.32509,-0.57849,0.019914,0,0,-0.050726,-0.01355,0,0.39752,0,0,0.63851,-0.035608,0,0.64149,-0.28072,-0.6517,-0.57849,56.507,-0.50364,0.3552,0.0056872,0.52,0.52,0
0.27904,0.10558,0.50841,-0.57767,-0.28502,-0.54479,0.024836,0,0,-0.092758,0.027082,0,0.33531,0,0,0.63939,-0.028594,0,0.64139,-0.24974,-0.61295,-0.54479,55.636,-0.46916,0.34988,0.0058829,0.54,0.52,0
0.27589,0.10104,0.4854,-0.6611,-0.29494,-0.55985,0.012249,0,0,-0.21823,0.064913,0,0.25434,0,0,0.65377,-0.024228,0,0.65518,-0.26816,-0.68788,-0.55985,57.268,-0.5053,0.3851,0.0068448,0.56,0.52,0
0.27112,0.096006,0.46214,-0.63304,-0.26088,-0.52813,0.013325,0,0,-0.2563,0.095289,0,0.22802,0,0,0.65445,-0.021199,0,0.65549,-0.24072,-0.6532,-0.52813,58.709,-0.47402,0.38024,0.0068049,0.58,0.52,0
0.26493,0.090889,0.4387,-0.69514,-0.2694,-0.53613,0.013448,0,0,-0.35559,0.11713,0,0.21084,0,0,0.66297,-0.018789,0,0.66374,-0.25429,-0.71024,-0.53613,61.086,-0.50022,0.41156,0.0064324,0.6,0.52,0
0.25751,0.085935,0.41512,-0.66893,-0.2433,-0.50717,0.011387,0,0,-0.38416,0.13141,0,0.19405,0,0,0.66332,-0.01667,0,0.66391,-0.23195,-0.68029,-0.50717,64.111,-0.47314,0.40575,0.0060895,0.62,0.52,0
0.24903,0.081266,0.39145,-0.71072,-0.24873,-0.50802,0.014429,0,0,-0.45929,0.13967,0,0.19321,0,0,0.66735,-0.014717,0,0.66779,-0.24001,-0.71944,-0.50802,66.986,-0.48915,0.42968,0.0049042,0.64,0.52,0
0.23961,0.076936,0.36772,-0.69991,-0.23341,-0.48684,0.012663,0,0,-0.49245,0.14323,0,0.18073,0,0,0.66796,-0.012865,0,0.66829,-0.22669,-0.70663,-0.48684,70.014,-0.47339,0.42984,0.004177,0.66,0.52,0
0.22933,0.072969,0.34395,-0.70277,-0.22534,-0.4719,0.012338,0,0,-0.53356,0.14306,0,0.17189,0,0,0.66874,-0.011069,0,0.66897,-0.2201,-0.70801,-0.4719,72.67,-0.46667,0.43609,0.0031185,0.68,0.52,0
0.21827,0.069368,0.32016,-0.70395,-0.2177,-0.45659,0.011824,0,0,-0.57169,0.13983,0,0.16185,0,0,0.66901,-0.0092962,0,0.66918,-0.2136,-0.70805,-0.45659,75.022,-0.45941,0.4414,0.0019892,0.7,0.52,0
0.20647,0.066127,0.29637,-0.70376,-0.21045,-0.44097,0.011126,0,0,-0.60733,0.13399,0,0.15017,0,0,0.66884,-0.0075107,0,0.66894,-0.20727,-0.70694,-0.44097,77.115,-0.45173,0.44586,0.00081372,0.72,0.52,0
0.19398,0.06323,0.2726,-0.70232,-0.20356,-0.4251,0.010235,0,0,-0.64068,0.12586,0,0.13637,0,0,0.66821,-0.0056762,0,0.66826,-0.20115,-0.70472,-0.4251,79.029,-0.44366,0.44952,-0.00038552,0.74,0.52,0
0.18084,0.060652,0.24885,-0.69963,-0.19699,-0.40896,0.0091272,0,0,-0.67175,0.11558,0,0.11982,0,0,0.66707,-0.0037484,0,0.66709,-0.19526,-0.70135,-0.40896,80.858,-0.43519,0.45231,-0.0015853,0.76,0.52,0
0.16711,0.058361,0.22516,-0.69553,-0.19071,-0.39253,0.0077454,0,0,-0.70029,0.10323,0,0.099549,0,0,0.66533,-0.001669,0,0.66533,-0.18958,-0.69666,-0.39253,82.717,-0.42626,0.45409,-0.0027591,0.78,0.52,0
0.15283,0.056309,0.20154,-0.6898,-0.18472,-0.37572,0.0059537,0,0,-0.72587,0.088797,0,0.073834,0,0,0.6628,0.00064827,0,0.66281,-0.18413,-0.69039,-0.37572,84.773,-0.41675,0.4546,-0.0038758,0.8,0.52,0
0.13807,0.054421,0.17803,-0.68226,-0.17911,-0.35855,0.0034347,0,0,-0.74812,0.072317,0,0.039533,0,0,0.65923,0.0033499,0,0.65927,-0.17895,-0.68242,-0.35855,87.29,-0.40664,0.45364,-0.0049049,0.82,0.52,0
0.1229,0.052575,0.15466,-0.6734,-0.17423,-0.34129,-0.00049263,0,0,-0.76755,0.054275,0,-0.0089653,0,0,0.65431,0.0067223,0,0.65446,-0.17422,-0.67341,-0.34129,-89.36,-0.39631,0.45145,-0.0058412,0.84,0.52,0
0.10737,0.05057,0.1315,-0.66546,-0.17073,-0.32483,-0.0070926,0,0,-0.78725,0.036631,0,-0.080415,0,0,0.64792,0.011452,0,0.64832,-0.17014,-0.66606,-0.32483,-85.046,-0.38701,0.44978,-0.0067576,0.86,0.52,0
0.091413,0.048129,0.10859,-0.66364,-0.16903,-0.31088,-0.018674,0,0,-0.81526,0.023954,0,-0.18822,0,0,0.64112,0.019101,0,0.64208,-0.16632,-0.66635,-0.31088,-80.474,-0.38118,0.45379,-0.0078964,0.88,0.52,0
0.074758,0.044857,0.08591,-0.68469,-0.17599,-0.30653,-0.037045,0,0,-0.87397,0.023834,0,-0.34159,0,0,0.63676,0.033823,0,0.6391,-0.16912,-0.69156,-0.30653,-77.095,-0.38907,0.4741,-0.010145,0.9,0.52,0
0.056454,0.040762,0.063309,-0.75439,-0.18938,-0.31874,-0.083008,0,0,-1.0068,0.044405,0,-0.61662,0,0,0.68274,0.060864,0,0.68737,-0.17179,-0.77198,-0.31874,-73.84,-0.42084,0.5444,-0.016376,0.92,0.52,0
0.034485,0.033578,0.03736,-0.72203,-0.34758,-0.3419,-0.19079,0,0,-0.97476,-0.067649,0,-1.0696,0,0,0.5836,0.30527,0,0.6685,-0.26703,-0.80258,-0.3419,-65.524,-0.47051,0.50234,-0.014968,0.94,0.52,0
0.022413,0.035007,0.023108,-0.78877,-0.28296,-0.34463,-0.14549,0,0,-0.57738,0.080161,0,-0.37828,0,0,0.62911,0.24452,0,0.66702,-0.2441,-0.82763,-0.34463,-75.044,-0.47212,0.54032,-0.0071658,0.96,0.52,0
0.011127,0.035293,0.011361,-0.73401,-0.23474,-0.30199,-0.066915,0,0,-0.56164,0.087425,0,-0.17398,0,0,0.58093,0.10471,0,0.5881,-0.22592,-0.74283,-0.30199,-82.497,-0.42358,0.48338,-0.0053199,0.98,0.52,0
0,0.035238,0,-0.71979,-0.25293,-0.29182,-0.0010426,0,0,-0.55637,0.050553,0,-0.0027108,0,0,0.56803,-1.3878e-17,0,0.56625,-0.25293,-0.7198,-0.29182,-89.872,-0.42151,0.44869,-0.0045221,1,0.52,0
0,0.068008,1,-0.58301,-1.6875,-1.6812,0.031589,0,0,1.4276,-0.0082898,0,0.082131,0,0,0.66174,4.0853e-16,0,0.66168,-0.5821,-1.6884,-1.6812,1.6368,-1.3172,1.1027,0.068858,0,0.54,0
0.028552,0.06965,0.98677,-0.56943,-1.6524,-1.6533,0.055553,0,0,1.4091,0.0011474,0,0.14444,0,0,0.66902,-0.021761,0,0.66941,-0.56659,-1.6553,-1.6533,2.9287,-1.2917,1.0877,0.066096,0.02,0.54,0
0.055992,0.074622,0.97309,-0.64072,-1.5801,-1.6393,0.14354,0,0,1.2982,0.077038,0,0.3732,0,0,0.70901,-0.035026,0,0.71014,-0.61928,-1.6015,-1.6393,8.497,-1.2867,1.0017,0.051372,0.04,0.54,0
0.081218,0.082504,0.95866,-0.66086,-1.3658,-1.5667,0.18432,0,0,1.1775,0.26112,0,0.47923,0,0,0.74407,-0.027284,0,0.74497,-0.61558,-1.4111,-1.5667,13.803,-1.1978,0.88362,0.031764,0.06,0.54,0
0.10309,0.091637,0.94333,-0.71916,-1.0968,-1.4881,0.17707,0,0,0.99964,0.50873,0,0.46039,0,0,0.78741,-0.016546,0,0.78787,-0.64912,-1.1668,-1.4881,21.581,-1.1014,0.7332,0.0079398,0.08,0.54,0
0.1212,0.099447,0.92716,-0.77945,-0.85419,-1.4172,0.11963,0,0,0.82915,0.73198,0,0.31103,0,0,0.82512,-0.0047177,0,0.82529,-0.69149,-0.94215,-1.4172,36.325,-1.017,0.63847,-0.0067584,0.1,0.54,0
0.13626,0.10432,0.91033,-0.82496,-0.68363,-1.3629,0.051378,0,0,0.69932,0.88305,0,0.13358,0,0,0.85395,0.0018532,0,0.85403,-0.66693,-0.84167,-1.3629,71.99,-0.95717,0.62714,-0.0094306,0.12,0.54,0
0.14918,0.10628,0.89301,-0.84973,-0.57337,-1.3199,0.0074405,0,0,0.61126,0.97054,0,0.019345,0,0,0.87427,0.00076009,0,0.8743,-0.57317,-0.84993,-1.3199,88.459,-0.91434,0.6539,-0.00618,0.14,0.54,0
0.16071,0.10618,0.87536,-0.85832,-0.50062,-1.283,-0.0081825,0,0,0.55213,1.0171,0,-0.021274,0,0,0.88761,-0.0054329,0,0.88763,-0.50043,-0.85851,-1.283,-88.69,-0.88066,0.67857,-0.0023497,0.16,0.54,0
0.17126,0.10495,0.8575,-0.86113,-0.45656,-1.2528,-0.0040645,0,0,0.50919,1.0351,0,-0.010568,0,0,0.89531,-0.014662,0,0.89543,-0.45652,-0.86117,-1.2528,-89.424,-0.85683,0.68963,0.00047637,0.18,0.54,0
0.18108,0.10316,0.83954,-0.8618,-0.43209,-1.2277,0.010094,0,0,0.47569,1.0343,0,0.026244,0,0,0.89814,-0.025968,0,0.8985,-0.43186,-0.86203,-1.2277,88.655,-0.84053,0.68998,0.0023588,0.2,0.54,0
0.19029,0.10109,0.82158,-0.86245,-0.42127,-1.2067,0.02751,0,0,0.44751,1.0211,0,0.071526,0,0,0.8964,-0.039346,0,0.89724,-0.41956,-0.86416,-1.2067,86.446,-0.83014,0.68358,0.0036472,0.22,0.54,0
0.19898,0.098744,0.80369,-0.86332,-0.42267,-1.1895,0.043401,0,0,0.42401,0.99686,0,0.11284,0,0,0.88977,-0.05542,0,0.89148,-0.41843,-0.86756,-1.1895,84.428,-0.82516,0.67077,0.0043563,0.24,0.54,0
0.20725,0.095917,0.78598,-0.86209,-0.44073,-1.1768,0.052919,0,0,0.40916,0.95693,0,0.13759,0,0,0.87716,-0.075153,0,0.88035,-0.43418,-0.86864,-1.1768,82.95,-0.82655,0.64624,0.0040104,0.26,0.54,0
0.21534,0.092164,0.7686,-0.8502,-0.48538,-1.1693,0.051136,0,0,0.4148,0.88906,0,0.13295,0,0,0.8565,-0.099602,0,0.86228,-0.47835,-0.85723,-1.1693,82.17,-0.83495,0.59929,0.0018415,0.28,0.54,0
0.22384,0.086965,0.75172,-0.82199,-0.5813,-1.1727,0.037662,0,0,0.45594,0.76883,0,0.097921,0,0,0.82544,-0.12986,0,0.83567,-0.57554,-0.82774,-1.1727,81.311,-0.85867,0.51924,-0.0019064,0.3,0.54,0
0.23358,0.080144,0.73558,-0.78018,-0.7477,-1.194,0.02985,0,0,0.5379,0.58012,0,0.07761,0,0,0.7828,-0.16929,0,0.80105,-0.72996,-0.79792,-1.194,59.275,-0.90728,0.43402,-0.0038541,0.32,0.54,0
0.24536,0.072401,0.72041,-0.73756,-0.95974,-1.2296,0.052809,0,0,0.63965,0.35082,0,0.1373,0,0,0.73036,-0.22217,0,0.76353,-0.72564,-0.97165,-1.2296,12.713,-0.97563,0.43648,-0.0001753,0.34,0.54,0
0.25917,0.065167,0.70637,-0.69817,-1.1396,-1.2577,0.11638,0,0,0.72741,0.15349,0,0.30258,0,0,0.67188,-0.29436,0,0.73332,-0.66937,-1.1684,-1.2577,13.899,-1.0318,0.54918,0.0077545,0.36,0.54,0
0.27445,0.059371,0.69354,-0.65379,-1.2652,-1.2692,0.21152,0,0,0.80007,0.0052478,0,0.54994,0,0,0.60969,-0.39267,0,0.72412,-0.58775,-1.3312,-1.2692,17.34,-1.0627,0.71451,0.01826,0.38,0.54,0
0.29117,0.055593,0.68198,-0.46007,-1.349,-1.2247,0.27375,0,0,0.99403,-0.1616,0,0.71174,0,0,0.46533,-0.5394,0,0.71081,-0.38253,-1.4265,-1.2247,15.814,-1.0113,0.95916,0.038642,0.4,0.54,0
0.31422,0.04642,0.67492,-0.39379,-1.0792,-0.82154,0.23826,0,0,0.41587,-0.59547,0,1.786,0,0,0.28479,-0.46777,0,0.57128,-0.29352,-1.1795,-0.82154,27.876,-0.76484,0.77809,0.027947,0.42,0.54,0
0.30781,0.07246,0.64025,-0.30142,-0.36122,-0.27882,0.11043,0,0,-0.23499,-0.8569,0,2.2969,0,0,0.19748,-0.095859,0,0.22004,-0.21691,-0.44572,-0.27882,37.425,-0.31382,0.20499,-0.00031017,0.44,0.54,0
0.30482,0.084768,0.61173,-0.2729,-0.34159,-0.26081,0.081068,0,0,-0.12573,-0.84005,0,1.6862,0,0,0.16936,-0.075913,0,0.18557,-0.2192,-0.39529,-0.26081,33.521,-0.29177,0.15941,-0.00016123,0.46,0.54,0
0.30278,0.090899,0.58606,-0.25856,-0.32866,-0.24942,0.062725,0,0,-0.095006,-0.82408,0,1.3047,0,0,0.15681,-0.060438,0,0.16798,-0.22176,-0.36546,-0.24942,30.401,-0.27888,0.13207,-0.00010102,0.48,0.54,0
0.30101,0.093421,0.56155,-0.24925,-0.31497,-0.23946,0.049241,0,0,-0.10182,-0.78528,0,1.0242,0,0,0.15161,-0.048634,0,0.15917,-0.22291,-0.3413,-0.23946,28.142,-0.26789,0.11105,-6.51e-05,0.5,0.54,0
0.2987,0.093313,0.53754,-0.24443,-0.3013,-0.23091,0.038889,0,0,-0.14061,-0.73202,0,0.80888,0,0,0.14958,-0.039731,0,0.15473,-0.22469,-0.32104,-0.23091,26.914,-0.25888,0.093394,-4.1213e-05,0.52,0.54,0
0.29539,0.091384,0.51369,-0.24195,-0.28761,-0.22308,0.031308,0,0,-0.19626,-0.67113,0,0.6512,0,0,0.14905,-0.033037,0,0.15265,-0.22603,-0.30353,-0.22308,26.95,-0.25088,0.079014,-2.5216e-05,0.54,0.54,0
0.29085,0.088269,0.48984,-0.24063,-0.27443,-0.21575,0.026008,0,0,-0.25877,-0.61028,0,0.54096,0,0,0.14919,-0.027951,0,0.15177,-0.22651,-0.28854,-0.21575,28.492,-0.2436,0.068056,-1.4833e-05,0.56,0.54,0
0.28504,0.084479,0.46595,-0.23969,-0.26217,-0.2088,0.022447,0,0,-0.32123,-0.55505,0,0.4669,0,0,0.14954,-0.023983,0,0.15144,-0.22583,-0.27603,-0.2088,31.699,-0.23689,0.060544,-8.4326e-06,0.58,0.54,0
0.278,0.080393,0.44199,-0.2387,-0.25101,-0.20216,0.020059,0,0,-0.37999,-0.50804,0,0.41723,0,0,0.14989,-0.02076,0,0.15132,-0.22387,-0.26584,-0.20216,36.469,-0.23062,0.056067,-4.6917e-06,0.6,0.54,0
0.26984,0.076261,0.41798,-0.23748,-0.24089,-0.19576,0.018381,0,0,-0.43386,-0.4694,0,0.38232,0,0,0.15019,-0.018029,0,0.15126,-0.22073,-0.25765,-0.19576,42.344,-0.22471,0.053927,-2.6342e-06,0.62,0.54,0
0.26065,0.072241,0.39393,-0.236,-0.23167,-0.18954,0.017085,0,0,-0.48311,-0.43817,0,0.35537,0,0,0.1504,-0.01562,0,0.15121,-0.21661,-0.25106,-0.18954,48.604,-0.21907,0.0534,-1.609e-06,0.64,0.54,0
0.25052,0.068422,0.36985,-0.2343,-0.22321,-0.18348,0.015967,0,0,-0.52851,-0.41311,0,0.33212,0,0,0.15055,-0.013418,0,0.15114,-0.21185,-0.24566,-0.18348,54.58,-0.21366,0.053913,-1.2141e-06,0.66,0.54,0
0.23951,0.064855,0.34576,-0.23246,-0.21537,-0.17757,0.014899,0,0,-0.57085,-0.39314,0,0.3099,0,0,0.15063,-0.01134,0,0.15106,-0.20674,-0.24109,-0.17757,59.916,-0.20846,0.055071,-1.2064e-06,0.68,0.54,0
0.22768,0.061564,0.32165,-0.23051,-0.20807,-0.17178,0.013797,0,0,-0.61078,-0.37742,0,0.28697,0,0,0.15067,-0.0093217,0,0.15095,-0.20151,-0.23707,-0.17178,64.559,-0.20345,0.05662,-1.4367e-06,0.7,0.54,0
0.21508,0.058553,0.29754,-0.2285,-0.20124,-0.16612,0.012596,0,0,-0.6488,-0.36531,0,0.26199,0,0,0.15066,-0.0073031,0,0.15083,-0.19631,-0.23343,-0.16612,68.629,-0.19862,0.058398,-1.8097e-06,0.72,0.54,0
0.20173,0.055817,0.27344,-0.22646,-0.19483,-0.16057,0.011237,0,0,-0.68529,-0.35632,0,0.23372,0,0,0.15062,-0.0052248,0,0.1507,-0.19124,-0.23004,-0.16057,72.304,-0.19395,0.060308,-2.2633e-06,0.74,0.54,0
0.18767,0.053338,0.24935,-0.22442,-0.18879,-0.15513,0.0096514,0,0,-0.72057,-0.35006,0,0.20075,0,0,0.15054,-0.0030188,0,0.15056,-0.18634,-0.22686,-0.15513,75.775,-0.18945,0.062296,-2.7616e-06,0.76,0.54,0
0.17291,0.051087,0.22527,-0.22241,-0.1831,-0.14981,0.0077494,0,0,-0.75502,-0.34619,0,0.16119,0,0,0.15043,-0.00059904,0,0.15043,-0.18163,-0.22388,-0.14981,79.241,-0.1851,0.064359,-3.3024e-06,0.78,0.54,0
0.15747,0.049017,0.20121,-0.22051,-0.17772,-0.14462,0.0053989,0,0,-0.78926,-0.34425,0,0.1123,0,0,0.15031,0.0021546,0,0.15032,-0.17705,-0.22118,-0.14462,82.919,-0.18095,0.066562,-3.9529e-06,0.8,0.54,0
0.14134,0.047063,0.17717,-0.2189,-0.17262,-0.13961,0.0024047,0,0,-0.82471,-0.3434,0,0.050017,0,0,0.15021,0.0054222,0,0.15031,-0.1725,-0.21903,-0.13961,87.034,-0.17704,0.06912,-4.9531e-06,0.82,0.54,0
0.12448,0.045128,0.15314,-0.21796,-0.16771,-0.13484,-0.0015026,0,0,-0.86445,-0.34179,0,-0.031255,0,0,0.15028,0.0094908,0,0.15057,-0.16767,-0.21801,-0.13484,-88.289,-0.17351,0.072554,-6.9692e-06,0.84,0.54,0
0.10676,0.043087,0.12908,-0.21847,-0.16277,-0.13051,-0.0066479,0,0,-0.9148,-0.33554,0,-0.13828,0,0,0.15085,0.014827,0,0.15155,-0.16199,-0.21925,-0.13051,-83.287,-0.17058,0.077928,-1.1622e-05,0.86,0.54,0
0.087885,0.040794,0.10487,-0.22199,-0.15754,-0.12697,-0.013242,0,0,-0.98825,-0.31792,0,-0.27542,0,0,0.15278,0.022188,0,0.15435,-0.15492,-0.2246,-0.12697,-78.832,-0.16883,0.087093,-2.2519e-05,0.88,0.54,0
0.067229,0.038189,0.080189,-0.23073,-0.15147,-0.12468,-0.021471,0,0,-1.1029,-0.27861,0,-0.4466,0,0,0.15892,0.032727,0,0.16218,-0.14603,-0.23617,-0.12468,-75.775,-0.16896,0.1025,-4.7315e-05,0.9,0.54,0
0.043771,0.035104,0.054015,-0.25043,-0.14691,-0.12596,-0.031591,0,0,-1.2945,-0.21798,0,-0.65709,0,0,0.17658,0.048178,0,0.18317,-0.13803,-0.25931,-0.12596,-74.301,-0.17443,0.12774,-0.00010384,0.92,0.54,0
0.015448,0.030824,0.023682,-0.26684,-0.1934,-0.15139,-0.092826,0,0,-0.76965,-0.09708,0,-0.60514,0,0,0.23788,0.2674,0,0.37799,-0.11963,-0.34061,-0.15139,-60.427,-0.20388,0.20778,-0.00048639,0.94,0.54,0
0.012985,0.035598,0.017959,-0.35679,-0.23884,-0.19665,-0.096629,0,0,-0.20819,-0.054849,0,-0.25124,0,0,0.36361,0.23974,0,0.43069,-0.18461,-0.41102,-0.19665,-60.699,-0.2641,0.22064,-0.00054612,0.96,0.54,0
0.0071201,0.036144,0.0091383,-0.4718,-0.23804,-0.22209,-0.061853,0,0,-0.32462,-0.020737,0,-0.16082,0,0,0.44898,0.10502,0,0.45858,-0.22268,-0.48716,-0.22209,-76.056,-0.31064,0.26477,-0.00095329,0.98,0.54,0
0,0.036249,0,-0.48566,-0.22037,-0.21181,0.0020349,0,0,-0.35601,-0.011132,0,0.0052908,0,0,0.45691,2.7756e-17,0,0.45493,-0.22036,-0.48568,-0.21181,89.561,-0.30595,0.26969,-0.0010041,1,0.54,0
0,0.06733,1,-0.60893,-1.7457,-1.7064,0.037543,0,0,1.4267,-0.051151,0,0.097612,0,0,0.63199,-2.047e-16,0,0.63169,-0.60769,-1.747,-1.7064,1.8894,-1.3537,1.1196,0.071752,0,0.56,0
0.028534,0.069283,0.98736,-0.59812,-1.7162,-1.6817,0.073812,0,0,1.4086,-0.044875,0,0.19191,0,0,0.64821,-0.045129,0,0.64971,-0.59327,-1.721,-1.6817,3.7608,-1.332,1.1086,0.069676,0.02,0.56,0
0.056343,0.075722,0.97407,-0.62699,-1.6518,-1.6577,0.16987,0,0,1.3399,0.0077083,0,0.44165,0,0,0.69164,-0.082161,0,0.69719,-0.59957,-1.6792,-1.6577,9.1707,-1.3122,1.069,0.062663,0.04,0.56,0
0.082131,0.087459,0.95969,-0.6903,-1.4387,-1.5984,0.25939,0,0,1.1805,0.20759,0,0.67441,0,0,0.74936,-0.084718,0,0.75482,-0.60919,-1.5198,-1.5984,17.364,-1.2425,0.95235,0.043346,0.06,0.56,0
0.10356,0.10232,0.9441,-0.7227,-1.0094,-1.4637,0.25929,0,0,0.96335,0.59058,0,0.67416,0,0,0.80256,-0.063602,0,0.80538,-0.56978,-1.1624,-1.4637,30.53,-1.0653,0.78776,0.013288,0.08,0.56,0
0.12066,0.1149,0.92759,-0.77868,-0.73915,-1.3829,0.15502,0,0,0.78554,0.83693,0,0.40306,0,0,0.8394,-0.031289,0,0.83996,-0.60264,-0.91519,-1.3829,48.633,-0.96692,0.6802,-0.0054358,0.1,0.56,0
0.13499,0.12251,0.91052,-0.81158,-0.62741,-1.3422,0.063203,0,0,0.68983,0.92925,0,0.16433,0,0,0.86106,-0.01711,0,0.86125,-0.60781,-0.83118,-1.3422,72.768,-0.92707,0.65208,-0.0088118,0.12,0.56,0
0.14826,0.12577,0.89315,-0.80458,-0.55076,-1.2997,0.011609,0,0,0.64372,0.97369,0,0.030184,0,0,0.87393,-0.012589,0,0.87404,-0.55023,-0.80511,-1.2997,87.387,-0.88503,0.66008,-0.0076941,0.14,0.56,0
0.16073,0.12633,0.87556,-0.79952,-0.50081,-1.2657,-0.0056491,0,0,0.60598,0.99431,0,-0.014687,0,0,0.88268,-0.013807,0,0.88279,-0.5007,-0.79963,-1.2657,-88.917,-0.85533,0.66772,-0.0056202,0.16,0.56,0
0.1725,0.12532,0.85784,-0.79775,-0.46862,-1.2377,-0.0027087,0,0,0.572,0.99988,0,-0.0070427,0,0,0.88741,-0.018499,0,0.8876,-0.46859,-0.79777,-1.2377,-89.528,-0.83471,0.66841,-0.0037789,0.18,0.56,0
0.18362,0.12347,0.84007,-0.79734,-0.44902,-1.214,0.0109,0,0,0.54162,0.99445,0,0.02834,0,0,0.88797,-0.025503,0,0.88833,-0.44868,-0.79768,-1.214,88.209,-0.82011,0.66362,-0.002275,0.2,0.56,0
0.19416,0.12113,0.82232,-0.79686,-0.43875,-1.193,0.028381,0,0,0.51499,0.98054,0,0.07379,0,0,0.88399,-0.034401,0,0.88465,-0.43651,-0.7991,-1.193,85.497,-0.80954,0.65533,-0.0010355,0.22,0.56,0
0.20422,0.11833,0.80471,-0.79622,-0.43731,-1.1748,0.044312,0,0,0.49211,0.95869,0,0.11521,0,0,0.87472,-0.045228,0,0.87589,-0.43192,-0.80161,-1.1748,83.065,-0.80277,0.64333,-0.00011037,0.24,0.56,0
0.21385,0.11478,0.78734,-0.79574,-0.44756,-1.1603,0.052645,0,0,0.47396,0.9266,0,0.13688,0,0,0.8589,-0.058209,0,0.8609,-0.43977,-0.80353,-1.1603,81.587,-0.80121,0.62403,0.00020879,0.26,0.56,0
0.22317,0.10985,0.77035,-0.794,-0.47757,-1.1518,0.043559,0,0,0.46517,0.87653,0,0.11325,0,0,0.83452,-0.073504,0,0.83784,-0.47168,-0.79989,-1.1518,82.303,-0.8078,0.58914,-0.00063428,0.28,0.56,0
0.23245,0.10239,0.75395,-0.76247,-0.53654,-1.1437,0.0098273,0,0,0.49555,0.78925,0,0.025551,0,0,0.797,-0.091063,0,0.8024,-0.53611,-0.76289,-1.1437,87.514,-0.81422,0.53175,-0.0032606,0.3,0.56,0
0.24299,0.091613,0.73847,-0.70717,-0.71185,-1.1642,-0.035646,0,0,0.59411,0.58803,0,-0.092681,0,0,0.74225,-0.11028,0,0.75104,-0.67378,-0.74523,-1.1642,-43.121,-0.86106,0.45886,-0.0045592,0.32,0.56,0
0.25622,0.078747,0.72426,-0.65817,-1.0253,-1.2293,-0.016217,0,0,0.74247,0.26522,0,-0.042163,0,0,0.67049,-0.15166,0,0.68826,-0.65746,-1.026,-1.2293,-2.5244,-0.97092,0.50208,0.0030931,0.34,0.56,0
0.27269,0.067091,0.71165,-0.57905,-1.236,-1.2562,0.070508,0,0,0.88024,0.026249,0,0.18332,0,0,0.58742,-0.21964,0,0.62777,-0.57157,-1.2434,-1.2562,6.0577,-1.0237,0.67832,0.016011,0.36,0.56,0
0.29143,0.058122,0.70077,-0.48122,-1.3444,-1.2484,0.15838,0,0,0.99739,-0.12469,0,0.41179,0,0,0.48929,-0.31751,0,0.58365,-0.45308,-1.3725,-1.2484,10.076,-1.0247,0.8641,0.030847,0.38,0.56,0
0.31259,0.049667,0.69208,-0.42409,-1.4869,-1.2654,0.18521,0,0,1.0937,-0.28798,0,0.48156,0,0,0.36621,-0.42872,0,0.56728,-0.39273,-1.5183,-1.2654,9.6076,-1.0588,1.0228,0.043836,0.4,0.56,0
0.33518,0.038019,0.68612,-0.34263,-0.91394,-0.76291,0.12427,0,0,0.41839,-0.34904,0,1.1913,0,0,0.25293,-0.26757,0,0.38958,-0.28613,-0.97044,-0.76291,25.86,-0.67316,0.61567,0.023292,0.42,0.56,0
0.32932,0.0581,0.65287,-0.28989,-0.32786,-0.26694,0.085274,0,0,-0.23874,-0.63365,0,1.7737,0,0,0.19785,-0.067012,0,0.20919,-0.22151,-0.39624,-0.26694,38.724,-0.2949,0.15702,-0.00014418,0.44,0.56,0
0.32563,0.069798,0.62281,-0.27383,-0.32306,-0.25692,0.066845,0,0,-0.17588,-0.68787,0,1.3904,0,0,0.18012,-0.061824,0,0.19055,-0.22721,-0.36968,-0.25692,34.892,-0.2846,0.13018,-9.3721e-05,0.46,0.56,0
0.32229,0.076082,0.59524,-0.26438,-0.31422,-0.24798,0.053802,0,0,-0.17052,-0.68882,0,1.1191,0,0,0.16772,-0.053263,0,0.17599,-0.23001,-0.34859,-0.24798,32.574,-0.27553,0.1107,-6.3515e-05,0.48,0.56,0
0.31881,0.079039,0.56914,-0.25756,-0.30429,-0.2397,0.043848,0,0,-0.18579,-0.67179,0,0.91203,0,0,0.1606,-0.045144,0,0.16681,-0.23125,-0.33061,-0.2397,30.974,-0.26719,0.095423,-4.3446e-05,0.5,0.56,0
0.31486,0.079711,0.54384,-0.25258,-0.29328,-0.23174,0.035905,0,0,-0.21678,-0.63999,0,0.74682,0,0,0.15673,-0.038207,0,0.1613,-0.23166,-0.3142,-0.23174,30.23,-0.2592,0.082499,-2.8838e-05,0.52,0.56,0
0.31013,0.078739,0.51898,-0.24926,-0.28185,-0.2242,0.029658,0,0,-0.26053,-0.5995,0,0.61688,0,0,0.15468,-0.032503,0,0.15805,-0.23171,-0.29939,-0.2242,30.606,-0.25177,0.071729,-1.8256e-05,0.54,0.56,0
0.30444,0.076633,0.49435,-0.24697,-0.27046,-0.21702,0.024933,0,0,-0.31148,-0.55571,0,0.51861,0,0,0.15365,-0.027861,0,0.15614,-0.23115,-0.28627,-0.21702,32.391,-0.24482,0.063378,-1.0916e-05,0.56,0.56,0
0.29768,0.073804,0.46982,-0.24524,-0.25947,-0.21014,0.021464,0,0,-0.365,-0.51307,0,0.44646,0,0,0.15315,-0.024054,0,0.15502,-0.22974,-0.27497,-0.21014,35.826,-0.23828,0.057587,-6.1152e-06,0.58,0.56,0
0.28984,0.070568,0.44534,-0.24371,-0.24912,-0.20352,0.018941,0,0,-0.41797,-0.47431,0,0.39398,0,0,0.15291,-0.020868,0,0.15432,-0.22728,-0.26555,-0.20352,40.931,-0.23211,0.054209,-3.2053e-06,0.6,0.56,0
0.28096,0.067159,0.42089,-0.24218,-0.23947,-0.19711,0.017065,0,0,-0.46877,-0.4406,0,0.35496,0,0,0.1528,-0.018124,0,0.15387,-0.22371,-0.25794,-0.19711,47.268,-0.22625,0.052826,-1.6305e-06,0.62,0.56,0
0.27109,0.063739,0.39644,-0.24058,-0.2305,-0.19088,0.015592,0,0,-0.51688,-0.41203,0,0.32432,0,0,0.15274,-0.01569,0,0.15354,-0.21915,-0.25192,-0.19088,53.957,-0.22065,0.052915,-9.6867e-07,0.64,0.56,0
0.26028,0.060411,0.37201,-0.23889,-0.22213,-0.18481,0.014342,0,0,-0.56242,-0.38819,0,0.29832,0,0,0.15272,-0.013463,0,0.1533,-0.2139,-0.24712,-0.18481,60.143,-0.21527,0.054003,-9.2511e-07,0.66,0.56,0
0.24859,0.057243,0.34758,-0.23713,-0.21431,-0.17888,0.013189,0,0,-0.60578,-0.36848,0,0.27433,0,0,0.1527,-0.011365,0,0.15312,-0.20828,-0.24316,-0.17888,65.43,-0.2101,0.055734,-1.3063e-06,0.68,0.56,0
0.23605,0.054271,0.32314,-0.23533,-0.20695,-0.17308,0.012041,0,0,-0.64741,-0.35232,0,0.25045,0,0,0.15271,-0.0093317,0,0.15299,-0.20253,-0.23975,-0.17308,69.839,-0.20512,0.05787,-1.9903e-06,0.7,0.56,0
0.22269,0.051515,0.29871,-0.23353,-0.20001,-0.1674,0.010829,0,0,-0.68776,-0.33915,0,0.22524,0,0,0.15273,-0.0073034,0,0.1529,-0.19682,-0.23673,-0.1674,73.567,-0.20032,0.060266,-2.9058e-06,0.72,0.56,0
0.20854,0.048977,0.27427,-0.23178,-0.19343,-0.16185,0.0094904,0,0,-0.72732,-0.32849,0,0.1974,0,0,0.15277,-0.0052218,0,0.15286,-0.19121,-0.234,-0.16185,76.834,-0.19569,0.062847,-4.0228e-06,0.74,0.56,0
0.1936,0.04665,0.24982,-0.23013,-0.18717,-0.15642,0.007965,0,0,-0.76662,-0.3198,0,0.16567,0,0,0.15287,-0.0030224,0,0.15289,-0.18574,-0.23156,-0.15642,79.828,-0.19124,0.065596,-5.3543e-06,0.76,0.56,0
0.17787,0.044514,0.22535,-0.22865,-0.18116,-0.15111,0.0061831,0,0,-0.80641,-0.3125,0,0.12861,0,0,0.15302,-0.00062786,0,0.15302,-0.18037,-0.22944,-0.15111,82.702,-0.18698,0.068557,-6.976e-06,0.78,0.56,0
0.16134,0.042539,0.20085,-0.22748,-0.17536,-0.14596,0.0040628,0,0,-0.84784,-0.30573,0,0.084506,0,0,0.15331,0.0020613,0,0.15332,-0.17504,-0.22779,-0.14596,85.57,-0.18293,0.071855,-9.0755e-06,0.8,0.56,0
0.14396,0.040685,0.17629,-0.22684,-0.16965,-0.14098,0.0015143,0,0,-0.89287,-0.29817,0,0.031498,0,0,0.15383,0.0051786,0,0.15391,-0.16961,-0.22688,-0.14098,88.484,-0.17916,0.07575,-1.2055e-05,0.82,0.56,0
0.12563,0.038903,0.15163,-0.22709,-0.16391,-0.13625,-0.0015342,0,0,-0.94471,-0.28762,0,-0.031911,0,0,0.15481,0.008903,0,0.15505,-0.16387,-0.22713,-0.13625,-88.61,-0.17575,0.080692,-1.6714e-05,0.84,0.56,0
0.10617,0.037149,0.12676,-0.22881,-0.15789,-0.13186,-0.0050593,0,0,-1.0084,-0.27077,0,-0.10523,0,0,0.15668,0.013456,0,0.15725,-0.15753,-0.22917,-0.13186,-85.94,-0.17285,0.087356,-2.4528e-05,0.86,0.56,0
0.085294,0.035412,0.10149,-0.23263,-0.15124,-0.12784,-0.0088561,0,0,-1.0897,-0.24328,0,-0.18421,0,0,0.16037,0.019032,0,0.16149,-0.15029,-0.23358,-0.12784,-83.861,-0.17057,0.09649,-3.7861e-05,0.88,0.56,0
0.062584,0.033712,0.075437,-0.23911,-0.14382,-0.12431,-0.012419,0,0,-1.194,-0.20289,0,-0.25833,0,0,0.16749,0.02549,0,0.16945,-0.14223,-0.24071,-0.12431,-82.695,-0.16908,0.10855,-5.9709e-05,0.9,0.56,0
0.037536,0.032043,0.047891,-0.24773,-0.13502,-0.12081,-0.015615,0,0,-1.32,-0.14778,0,-0.32479,0,0,0.17841,0.030568,0,0.18116,-0.1329,-0.24986,-0.12081,-82.257,-0.16786,0.12344,-9.3498e-05,0.92,0.56,0
0.0097848,0.029695,0.018345,-0.25489,-0.16224,-0.13546,-0.017436,0,0,-0.76231,-0.0619,0,-0.18686,0,0,0.21299,0.11931,0,0.25513,-0.15837,-0.25875,-0.13546,-78.134,-0.18419,0.11534,-7.0502e-05,0.94,0.56,0
0.0070434,0.032813,0.013518,-0.30758,-0.3046,-0.19717,-0.032097,0,0,-0.14353,-0.13966,0,-0.083453,0,0,0.27962,0.17558,0,0.33188,-0.27396,-0.33822,-0.19717,-46.327,-0.26978,0.12231,1.4382e-05,0.96,0.56,0
0.0040437,0.034463,0.00716,-0.32381,-0.28019,-0.18836,-0.024888,0,0,-0.17608,-0.11938,0,-0.064709,0,0,0.33796,0.085243,0,0.34694,-0.26891,-0.33509,-0.18836,-65.614,-0.26412,0.12728,1.7849e-05,0.98,0.56,0
0,0.034793,0,-0.33583,-0.26519,-0.18031,0.0063454,0,0,-0.20219,-0.11034,0,0.016498,0,0,0.358,1.0408e-17,0,0.3563,-0.26462,-0.3364,-0.18031,84.908,-0.26044,0.13533,1.7635e-05,1,0.56,0
0,0.065962,1,-0.67784,-1.8171,-1.7485,0.036417,0,0,1.3918,-0.08922,0,0.094683,0,0,0.57148,-1.9429e-15,0,0.57065,-0.67668,-1.8183,-1.7485,1.829,-1.4145,1.1084,0.068996,0,0.58,0
0.027837,0.067855,0.98857,-0.65471,-1.7889,-1.7217,0.077796,0,0,1.387,-0.087435,0,0.20227,0,0,0.59049,-0.074232,0,0.59436,-0.64939,-1.7942,-1.7217,3.9056,-1.3884,1.1103,0.069291,0.02,0.58,0
0.055481,0.07493,0.97638,-0.6865,-1.7931,-1.7203,0.19876,0,0,1.3439,-0.094677,0,0.51677,0,0,0.66306,-0.15877,0,0.68227,-0.65188,-1.8277,-1.7203,9.8798,-1.4,1.126,0.071066,0.04,0.58,0
0.081592,0.090807,0.96205,-0.76144,-1.5917,-1.668,0.35673,0,0,1.1785,0.099154,0,0.92748,0,0,0.76263,-0.22128,0,0.79835,-0.62923,-1.7239,-1.668,20.336,-1.3404,1.0678,0.061959,0.06,0.58,0
0.10262,0.11526,0.94588,-0.69572,-0.74898,-1.3793,0.28821,0,0,0.88863,0.8194,0,0.74935,0,0,0.84084,-0.079994,0,0.84304,-0.43291,-1.0118,-1.3793,42.361,-0.94133,0.82637,0.010879,0.08,0.58,0
0.11714,0.13292,0.92841,-0.80581,-0.66587,-1.3699,0.14211,0,0,0.73334,0.91526,0,0.3695,0,0,0.87161,-0.042982,0,0.87259,-0.57744,-0.89425,-1.3699,58.107,-0.9472,0.69089,-0.005739,0.1,0.58,0
0.13196,0.14149,0.91101,-0.741,-0.5787,-1.3069,0.047644,0,0,0.73569,0.94669,0,0.12387,0,0,0.87265,-0.027212,0,0.87306,-0.56574,-0.75395,-1.3069,74.791,-0.87554,0.66728,-0.011266,0.12,0.58,0
0.14657,0.14523,0.89351,-0.71749,-0.53027,-1.2678,0.011294,0,0,0.71545,0.95883,0,0.029365,0,0,0.87757,-0.020707,0,0.87782,-0.52959,-0.71817,-1.2678,86.56,-0.83853,0.66434,-0.011069,0.14,0.58,0
0.16057,0.14596,0.87591,-0.71561,-0.49855,-1.2402,-0.00010832,0,0,0.68191,0.96408,0,-0.00028164,0,0,0.8817,-0.019059,0,0.88191,-0.49855,-0.71561,-1.2402,-89.971,-0.81811,0.66039,-0.0095848,0.16,0.58,0
0.17384,0.14494,0.85824,-0.7209,-0.47694,-1.2176,0.0028492,0,0,0.6457,0.96285,0,0.0074079,0,0,0.88362,-0.020268,0,0.88385,-0.47691,-0.72094,-1.2176,89.331,-0.80515,0.65377,-0.0079046,0.18,0.58,0
0.1864,0.14294,0.84056,-0.72476,-0.46213,-1.1966,0.013137,0,0,0.61343,0.95485,0,0.034155,0,0,0.88224,-0.023294,0,0.88254,-0.46148,-0.72542,-1.1966,87.144,-0.79451,0.64504,-0.0064155,0.2,0.58,0
0.19838,0.14031,0.82295,-0.72325,-0.4526,-1.1757,0.026231,0,0,0.5882,0.94004,0,0.068202,0,0,0.87668,-0.02759,0,0.87712,-0.45008,-0.72577,-1.1757,84.515,-0.78385,0.63442,-0.0052673,0.22,0.58,0
0.20993,0.13709,0.8055,-0.71583,-0.44824,-1.1547,0.038387,0,0,0.57056,0.91842,0,0.099806,0,0,0.86597,-0.03286,0,0.86661,-0.44284,-0.72122,-1.1547,81.996,-0.77293,0.62136,-0.0045179,0.24,0.58,0
0.2212,0.13298,0.78831,-0.70561,-0.45107,-1.1353,0.044896,0,0,0.55862,0.88952,0,0.11673,0,0,0.84888,-0.038844,0,0.84982,-0.44338,-0.71329,-1.1353,80.284,-0.76399,0.60404,-0.0041853,0.26,0.58,0
0.23228,0.12723,0.77154,-0.7003,-0.4663,-1.1215,0.038554,0,0,0.54759,0.85179,0,0.10024,0,0,0.82365,-0.04506,0,0.825,-0.46011,-0.70649,-1.1215,80.881,-0.76271,0.57897,-0.0042322,0.28,0.58,0
0.2431,0.11854,0.75537,-0.71469,-0.51104,-1.1231,-0.0043999,0,0,0.53092,0.79565,0,-0.01144,0,0,0.78867,-0.050241,0,0.79052,-0.51095,-0.71478,-1.1231,-88.763,-0.78294,0.53989,-0.0043721,0.3,0.58,0
0.25351,0.10366,0.73999,-0.60714,-0.55817,-1.0896,-0.085467,0,0,0.62718,0.69085,0,-0.22221,0,0,0.7222,-0.050668,0,0.72408,-0.49375,-0.67156,-1.0896,-52.993,-0.75163,0.52981,-0.0048387,0.32,0.58,0
0.26819,0.08301,0.72648,-0.60307,-1.1403,-1.2495,-0.11744,0,0,0.84036,0.14191,0,-0.30535,0,0,0.621,-0.017299,0,0.62683,-0.57852,-1.1649,-1.2495,-11.807,-0.99764,0.63293,0.012241,0.34,0.58,0
0.28713,0.066217,0.71515,-0.50594,-1.3709,-1.2782,0.0054632,0,0,1.0039,-0.12051,0,0.014204,0,0,0.50604,-0.12956,0,0.52247,-0.5059,-1.3709,-1.2782,0.36186,-1.0517,0.8226,0.027367,0.36,0.58,0
0.30835,0.054384,0.70624,-0.42415,-1.4183,-1.259,0.095088,0,0,1.0853,-0.20708,0,0.24723,0,0,0.4006,-0.23187,0,0.46341,-0.41514,-1.4273,-1.259,5.4151,-1.0338,0.93935,0.038004,0.38,0.58,0
0.33054,0.044074,0.69913,-0.38654,-1.4615,-1.2535,0.11131,0,0,1.1271,-0.27035,0,0.2894,0,0,0.30716,-0.30383,0,0.43414,-0.37513,-1.4729,-1.2535,5.85,-1.0339,1.0062,0.044053,0.4,0.58,0
0.35343,0.032459,0.69395,-0.31409,-0.84782,-0.73892,0.088984,0,0,0.411,-0.25168,0,0.92212,0,0,0.23028,-0.18969,0,0.31615,-0.26958,-0.89233,-0.73892,25.835,-0.63361,0.57095,0.02266,0.42,0.58,0
0.34698,0.047114,0.6617,-0.28828,-0.30892,-0.26187,0.069353,0,0,-0.27464,-0.48931,0,1.4425,0,0,0.19512,-0.048272,0,0.20111,-0.22848,-0.36872,-0.26187,40.768,-0.28636,0.12688,-8.0921e-05,0.44,0.58,0
0.34245,0.057253,0.63151,-0.27545,-0.31005,-0.25459,0.057067,0,0,-0.21694,-0.57679,0,1.187,0,0,0.18311,-0.048667,0,0.18955,-0.23312,-0.35238,-0.25459,36.567,-0.28003,0.11011,-5.9871e-05,0.46,0.58,0
0.3383,0.063346,0.6031,-0.26753,-0.30418,-0.2469,0.0468,0,0,-0.21454,-0.59574,0,0.97344,0,0,0.17349,-0.045171,0,0.1793,-0.2356,-0.33612,-0.2469,34.307,-0.27287,0.095372,-4.2451e-05,0.48,0.58,0
0.33387,0.06655,0.576,-0.26208,-0.29602,-0.23943,0.038829,0,0,-0.23555,-0.58854,0,0.80765,0,0,0.16667,-0.040316,0,0.17148,-0.23667,-0.32143,-0.23943,33.196,-0.26584,0.083408,-2.9693e-05,0.5,0.58,0
0.32888,0.067714,0.54977,-0.25788,-0.28673,-0.23211,0.032433,0,0,-0.26809,-0.56811,0,0.6746,0,0,0.16222,-0.035396,0,0.16603,-0.23681,-0.3078,-0.23211,33.012,-0.25891,0.073457,-2.0076e-05,0.52,0.58,0
0.32314,0.067404,0.52409,-0.25461,-0.27681,-0.22494,0.027266,0,0,-0.30859,-0.53948,0,0.56713,0,0,0.1594,-0.030894,0,0.16236,-0.23627,-0.29515,-0.22494,33.924,-0.25212,0.065286,-1.2852e-05,0.54,0.58,0
0.31653,0.06604,0.49876,-0.25206,-0.2667,-0.21797,0.023162,0,0,-0.35449,-0.50678,0,0.48178,0,0,0.15764,-0.026944,0,0.15992,-0.23509,-0.28367,-0.21797,36.229,-0.24558,0.059033,-7.6482e-06,0.56,0.58,0
0.30896,0.063956,0.47364,-0.24998,-0.25672,-0.21122,0.019973,0,0,-0.40312,-0.47326,0,0.41544,0,0,0.15653,-0.023522,0,0.15828,-0.23309,-0.2736,-0.21122,40.209,-0.2393,0.054828,-4.1491e-06,0.58,0.58,0
0.30041,0.06142,0.44867,-0.24815,-0.24708,-0.20465,0.017518,0,0,-0.45239,-0.44125,0,0.36437,0,0,0.15582,-0.020546,0,0.15717,-0.23009,-0.26514,-0.20465,45.876,-0.2333,0.052605,-2.0271e-06,0.6,0.58,0
0.29087,0.058637,0.42378,-0.24644,-0.2379,-0.19827,0.01561,0,0,-0.50093,-0.41208,0,0.32468,0,0,0.15536,-0.017921,0,0.15639,-0.22598,-0.25835,-0.19827,52.652,-0.22754,0.052081,-9.7039e-07,0.62,0.58,0
0.28037,0.055759,0.39895,-0.24476,-0.2292,-0.19206,0.014076,0,0,-0.54809,-0.3863,0,0.29278,0,0,0.15506,-0.015559,0,0.15584,-0.2209,-0.25306,-0.19206,59.462,-0.22201,0.052858,-7.1446e-07,0.64,0.58,0
0.26894,0.052895,0.37416,-0.24307,-0.22098,-0.18599,0.012775,0,0,-0.5937,-0.36396,0,0.26573,0,0,0.15487,-0.013383,0,0.15545,-0.21514,-0.24892,-0.18599,65.423,-0.21668,0.054547,-1.0572e-06,0.66,0.58,0
0.25662,0.050116,0.34939,-0.24139,-0.21321,-0.18005,0.011597,0,0,-0.63791,-0.3448,0,0.24122,0,0,0.15476,-0.011328,0,0.15518,-0.20905,-0.24555,-0.18005,70.273,-0.21155,0.056845,-1.8574e-06,0.68,0.58,0
0.24343,0.047471,0.32464,-0.23973,-0.20583,-0.17425,0.010457,0,0,-0.68102,-0.32848,0,0.21751,0,0,0.15473,-0.0093363,0,0.15501,-0.20287,-0.2427,-0.17425,74.163,-0.20661,0.059543,-3.0262e-06,0.7,0.58,0
0.22938,0.044987,0.29988,-0.23813,-0.19882,-0.16857,0.0092896,0,0,-0.72343,-0.31457,0,0.19322,0,0,0.15477,-0.0073551,0,0.15494,-0.19673,-0.24021,-0.16857,77.353,-0.20184,0.062518,-4.5206e-06,0.72,0.58,0
0.21449,0.042678,0.27511,-0.23663,-0.19211,-0.16301,0.0080406,0,0,-0.76563,-0.30261,0,0.16725,0,0,0.1549,-0.0053325,0,0.15499,-0.1907,-0.23803,-0.16301,80.07,-0.19725,0.065713,-6.3411e-06,0.74,0.58,0
0.19876,0.040546,0.25031,-0.23529,-0.18566,-0.15757,0.0066636,0,0,-0.80823,-0.29208,0,0.1386,0,0,0.15513,-0.0032142,0,0.15516,-0.18478,-0.23617,-0.15757,82.484,-0.19284,0.069129,-8.5402e-06,0.76,0.58,0
0.18216,0.038587,0.22547,-0.23419,-0.17941,-0.15226,0.005118,0,0,-0.85205,-0.28231,0,0.10645,0,0,0.15551,-0.00094031,0,0.15551,-0.17894,-0.23467,-0.15226,84.708,-0.18862,0.072826,-1.1243e-05,0.78,0.58,0
0.16467,0.036788,0.20055,-0.23347,-0.17329,-0.1471,0.0033727,0,0,-0.89824,-0.27245,0,0.070152,0,0,0.15611,0.0015559,0,0.15612,-0.17311,-0.23365,-0.1471,86.802,-0.18462,0.076925,-1.4688e-05,0.8,0.58,0
0.14623,0.035136,0.17551,-0.23329,-0.16722,-0.14209,0.0014205,0,0,-0.94844,-0.26131,0,0.029546,0,0,0.15706,0.0043466,0,0.15711,-0.16719,-0.23332,-0.14209,88.769,-0.18086,0.081626,-1.9289e-05,0.82,0.58,0
0.12674,0.033624,0.15029,-0.23388,-0.16105,-0.13727,-0.00069199,0,0,-1.0048,-0.24736,0,-0.014393,0,0,0.15856,0.0074947,0,0.15873,-0.16104,-0.23389,-0.13727,-89.456,-0.1774,0.087199,-2.5709e-05,0.84,0.58,0
0.10604,0.032256,0.12477,-0.23548,-0.15464,-0.13263,-0.0028265,0,0,-1.0696,-0.22889,0,-0.058791,0,0,0.16098,0.011007,0,0.16135,-0.15454,-0.23558,-0.13263,-88,-0.17425,0.093925,-3.4876e-05,0.86,0.58,0
0.083953,0.031062,0.098779,-0.23821,-0.14788,-0.12818,-0.0047245,0,0,-1.1444,-0.20493,0,-0.098269,0,0,0.16482,0.014704,0,0.16548,-0.14763,-0.23846,-0.12818,-87.014,-0.17142,0.10196,-4.7821e-05,0.88,0.58,0
0.060265,0.030073,0.072032,-0.24198,-0.14072,-0.12381,-0.0061556,0,0,-1.2289,-0.17583,0,-0.12804,0,0,0.17045,0.017855,0,0.17142,-0.14035,-0.24235,-0.12381,-86.534,-0.16884,0.1112,-6.5384e-05,0.9,0.58,0
0.034797,0.029193,0.044234,-0.24726,-0.13335,-0.11971,-0.0067773,0,0,-1.3265,-0.14181,0,-0.14097,0,0,0.17761,0.018669,0,0.17863,-0.13295,-0.24767,-0.11971,-86.607,-0.16678,0.12188,-8.9293e-05,0.92,0.58,0
0.0072034,0.028348,0.015198,-0.24308,-0.16857,-0.13204,-0.0037241,0,0,-0.74794,-0.084414,0,-0.06602,0,0,0.19729,0.070613,0,0.21544,-0.16838,-0.24326,-0.13204,-87.114,-0.18123,0.10465,-4.5648e-05,0.94,0.58,0
0.0048788,0.030012,0.010936,-0.26592,-0.28581,-0.17645,0.0013827,0,0,-0.1163,-0.14217,0,0.003595,0,0,0.23674,0.10374,0,0.25927,-0.26582,-0.28591,-0.17645,3.9565,-0.24273,0.10092,4.5821e-05,0.96,0.58,0
0.0025514,0.031369,0.0057285,-0.27189,-0.30258,-0.17807,-0.0011169,0,0,-0.12197,-0.16187,0,-0.0029039,0,0,0.2734,0.057864,0,0.27895,-0.27185,-0.30262,-0.17807,-2.0815,-0.25085,0.11237,5.4875e-05,0.98,0.58,0
0,0.031836,0,-0.26505,-0.29135,-0.16692,0.008985,0,0,-0.12757,-0.16176,0,0.023361,0,0,0.28643,-3.4694e-18,0,0.28542,-0.26228,-0.29413,-0.16692,17.171,-0.24111,0.11465,5.7729e-05,1,0.58,0
0,0.063761,1,-0.72385,-1.9014,-1.7876,0.038916,0,0,1.3828,-0.14794,0,0.10118,0,0,0.48353,-8.6736e-16,0,0.48203,-0.72256,-1.9026,-1.7876,1.8909,-1.4709,1.127,0.070931,0,0.6,0
0.027657,0.065785,0.99033,-0.74598,-1.905,-1.7856,0.095278,0,0,1.3516,-0.15522,0,0.24772,0,0,0.48944,-0.093628,0,0.49644,-0.7382,-1.9128,-1.7856,4.6681,-1.4789,1.1165,0.068359,0.02,0.6,0
0.054062,0.071935,0.98042,-0.8351,-1.9654,-1.8206,0.28582,0,0,1.2811,-0.18825,0,0.74314,0,0,0.54459,-0.21416,0,0.57978,-0.76693,-2.0335,-1.8206,13.414,-1.5404,1.1747,0.074112,0.04,0.6,0
0.078901,0.091425,0.96855,-0.74056,-1.3413,-1.1694,0.37366,0,0,0.83136,-0.66998,0,2.2917,0,0,0.44142,-0.24233,0,0.50838,-0.55995,-1.5219,-1.1694,27.621,-1.0838,0.84707,0.039806,0.06,0.6,0
0.091422,0.1351,0.9473,-0.52763,-0.54785,-0.8555,0.23365,0,0,0.75774,-0.27251,0,1.5629,0,0,0.55173,-0.062683,0,0.55747,-0.27492,-0.80056,-0.8555,36.886,-0.64366,0.59987,0.013654,0.08,0.6,0
0.10921,0.15151,0.92931,-0.40717,-0.5134,-0.79891,0.07334,0,0,0.90536,-0.28273,0,0.70066,0,0,0.50185,-0.041481,0,0.5055,-0.3506,-0.56997,-0.79891,30.417,-0.57316,0.47349,-0.0077742,0.1,0.6,0
0.12764,0.16038,0.91161,-0.38642,-0.48186,-0.77326,0.036589,0,0,0.89405,-0.27442,0,0.41281,0,0,0.49688,-0.029784,0,0.49906,-0.35273,-0.51555,-0.77326,33.426,-0.54718,0.46035,-0.008872,0.12,0.6,0
0.14497,0.16413,0.89398,-0.40546,-0.4732,-0.76646,0.017858,0,0,0.83432,-0.25717,0,0.25516,0,0,0.49617,-0.024062,0,0.49768,-0.36082,-0.51784,-0.76646,43.755,-0.54837,0.44299,-0.0080045,0.14,0.6,0
0.16101,0.16489,0.87633,-0.42666,-0.46441,-0.76025,0.011495,0,0,0.77097,-0.23758,0,0.18846,0,0,0.49675,-0.021364,0,0.49794,-0.35814,-0.53293,-0.76025,46.171,-0.55044,0.42943,-0.0067852,0.16,0.6,0
0.17581,0.16383,0.85865,-0.44345,-0.4562,-0.75289,0.011328,0,0,0.71514,-0.22042,0,0.1737,0,0,0.49678,-0.020494,0,0.49783,-0.35446,-0.54519,-0.75289,46.128,-0.55085,0.41823,-0.0056012,0.18,0.6,0
0.18962,0.16166,0.841,-0.45169,-0.44794,-0.74295,0.014619,0,0,0.67314,-0.20879,0,0.18843,0,0,0.49537,-0.020728,0,0.49637,-0.34939,-0.55023,-0.74295,45.617,-0.54753,0.40901,-0.0046753,0.2,0.6,0
0.20274,0.15873,0.82343,-0.44951,-0.43957,-0.7299,0.01919,0,0,0.64801,-0.20424,0,0.21368,0,0,0.49186,-0.021572,0,0.49287,-0.34268,-0.54641,-0.7299,44.934,-0.53966,0.40103,-0.004118,0.22,0.6,0
0.21554,0.15507,0.80602,-0.43607,-0.43095,-0.71349,0.023104,0,0,0.64116,-0.20728,0,0.23154,0,0,0.4857,-0.022603,0,0.48672,-0.33419,-0.53282,-0.71349,43.975,-0.52684,0.39379,-0.0039569,0.24,0.6,0
0.22838,0.15037,0.78889,-0.41254,-0.4227,-0.69432,0.025278,0,0,0.64737,-0.21747,0,0.2439,0,0,0.47689,-0.023339,0,0.47787,-0.32532,-0.50992,-0.69432,42.861,-0.50985,0.38691,-0.0041422,0.26,0.6,0
0.24163,0.14392,0.77216,-0.37606,-0.41224,-0.67083,0.016114,0,0,0.68787,-0.23323,0,0.11186,0,0,0.46216,-0.023047,0,0.46302,-0.31361,-0.47468,-0.67083,40.573,-0.48637,0.38127,-0.0045722,0.28,0.6,0
0.25556,0.13421,0.75596,-0.35316,-0.41633,-0.65608,0.00026417,0,0,0.70007,-0.2498,0,-0.014174,0,0,0.44516,-0.020066,0,0.44567,-0.32093,-0.44856,-0.65608,43.794,-0.47519,0.3705,-0.0046946,0.3,0.6,0
0.26963,0.11925,0.7405,-0.37296,-0.41553,-0.65308,-0.10326,0,0,0.64739,-0.25638,0,-0.61255,0,0,0.43604,-0.012052,0,0.43584,-0.25586,-0.53263,-0.65308,-32.196,-0.48052,0.40239,-0.00037774,0.32,0.6,0
0.28145,0.084424,0.72496,-0.46458,-0.94536,-0.83077,-0.1941,0,0,0.73463,-0.47834,0,-1.1852,0,0,0.31345,0.068651,0,0.32017,-0.39506,-1.0149,-0.83077,-21.539,-0.7469,0.55514,0.015806,0.34,0.6,0
0.30189,0.062271,0.71683,-0.5133,-1.5011,-1.3211,-0.091385,0,0,1.0502,-0.2339,0,-0.2376,0,0,0.37285,-0.065692,0,0.37405,-0.50491,-1.5094,-1.3211,-5.2415,-1.1118,0.92487,0.035022,0.36,0.6,0
0.32346,0.049839,0.71004,-0.43381,-1.4789,-1.2838,0.037655,0,0,1.1051,-0.25352,0,0.097902,0,0,0.31502,-0.16531,0,0.35503,-0.43245,-1.4802,-1.2838,2.0609,-1.0655,0.96469,0.039744,0.38,0.6,0
0.34609,0.038853,0.70423,-0.3773,-1.4534,-1.2534,0.063428,0,0,1.139,-0.25992,0,0.16491,0,0,0.26085,-0.2247,0,0.3451,-0.37357,-1.4571,-1.2534,3.3617,-1.028,0.99742,0.043886,0.4,0.6,0
0.36902,0.027952,0.69961,-0.31093,-0.82919,-0.73557,0.063551,0,0,0.40354,-0.21638,0,0.71132,0,0,0.21342,-0.14043,0,0.26948,-0.27569,-0.86444,-0.73557,25.73,-0.62523,0.54527,0.021891,0.42,0.6,0
0.36223,0.038528,0.66832,-0.28837,-0.29707,-0.25917,0.05663,0,0,-0.30364,-0.39416,0,1.1779,0,0,0.19134,-0.036972,0,0.19492,-0.23592,-0.34952,-0.25917,42.803,-0.28154,0.10394,-4.8085e-05,0.44,0.6,0
0.35687,0.046726,0.63838,-0.27793,-0.29997,-0.25317,0.048871,0,0,-0.25754,-0.48674,0,1.0165,0,0,0.18322,-0.03888,0,0.18734,-0.23885,-0.33905,-0.25317,38.647,-0.27702,0.09386,-3.9159e-05,0.46,0.6,0
0.35193,0.052252,0.60969,-0.27063,-0.29626,-0.24628,0.041116,0,0,-0.25327,-0.5198,0,0.85522,0,0,0.17607,-0.037937,0,0.18014,-0.24038,-0.32651,-0.24628,36.345,-0.27106,0.08334,-2.9228e-05,0.48,0.6,0
0.34674,0.055497,0.58204,-0.26559,-0.28952,-0.23929,0.034531,0,0,-0.27358,-0.52239,0,0.71825,0,0,0.17038,-0.035339,0,0.17402,-0.24101,-0.3141,-0.23929,35.447,-0.2648,0.073965,-2.0745e-05,0.5,0.6,0
0.34099,0.056986,0.55517,-0.26179,-0.28136,-0.23234,0.029131,0,0,-0.30626,-0.50981,0,0.60592,0,0,0.16615,-0.032068,0,0.16922,-0.24085,-0.30231,-0.23234,35.716,-0.2585,0.066124,-1.4025e-05,0.52,0.6,0
0.33449,0.05716,0.52887,-0.25872,-0.27249,-0.22547,0.024706,0,0,-0.34579,-0.489,0,0.51389,0,0,0.16313,-0.028693,0,0.16564,-0.23996,-0.29125,-0.22547,37.214,-0.25223,0.059868,-8.8831e-06,0.54,0.6,0
0.32715,0.056362,0.50297,-0.25617,-0.26331,-0.21871,0.021108,0,0,-0.38951,-0.46379,0,0.43905,0,0,0.16102,-0.025485,0,0.16302,-0.23833,-0.28115,-0.21871,40.199,-0.24606,0.055298,-5.145e-06,0.56,0.6,0
0.31891,0.054873,0.47734,-0.25398,-0.2541,-0.21209,0.018217,0,0,-0.43562,-0.43687,0,0.37891,0,0,0.15954,-0.022542,0,0.16112,-0.23582,-0.27225,-0.21209,44.906,-0.24005,0.052489,-2.6438e-06,0.58,0.6,0
0.30973,0.052918,0.45192,-0.25202,-0.24505,-0.20561,0.01591,0,0,-0.4827,-0.41014,0,0.33093,0,0,0.15851,-0.019877,0,0.15975,-0.23225,-0.26482,-0.20561,51.183,-0.23423,0.051366,-1.2018e-06,0.6,0.6,0
0.2996,0.050676,0.42662,-0.25022,-0.23629,-0.19928,0.014061,0,0,-0.52978,-0.38487,0,0.29248,0,0,0.15779,-0.017461,0,0.15875,-0.22756,-0.25894,-0.19928,58.178,-0.22859,0.051696,-6.3839e-07,0.62,0.6,0
0.28854,0.048287,0.40142,-0.2485,-0.22787,-0.19309,0.012548,0,0,-0.57627,-0.36172,0,0.261,0,0,0.15728,-0.015247,0,0.15802,-0.22194,-0.25443,-0.19309,64.71,-0.22315,0.053152,-7.899e-07,0.64,0.6,0
0.27655,0.045853,0.37629,-0.24683,-0.21982,-0.18703,0.011261,0,0,-0.62195,-0.34096,0,0.23424,0,0,0.15695,-0.013186,0,0.1575,-0.21574,-0.25091,-0.18703,70.093,-0.21789,0.055417,-1.5235e-06,0.66,0.6,0
0.26366,0.043451,0.3512,-0.24522,-0.21212,-0.1811,0.010111,0,0,-0.66685,-0.32257,0,0.21031,0,0,0.15675,-0.011229,0,0.15715,-0.20928,-0.24807,-0.1811,74.29,-0.21282,0.058235,-2.7436e-06,0.68,0.6,0
0.24988,0.041132,0.32613,-0.24368,-0.20476,-0.1753,0.0090245,0,0,-0.71118,-0.30638,0,0.18771,0,0,0.15668,-0.0093307,0,0.15696,-0.20277,-0.24567,-0.1753,77.561,-0.20791,0.061431,-4.3929e-06,0.7,0.6,0
0.23521,0.038932,0.30106,-0.24223,-0.1977,-0.16961,0.0079457,0,0,-0.75524,-0.29209,0,0.16527,0,0,0.15673,-0.0074475,0,0.15691,-0.19632,-0.24361,-0.16961,80.181,-0.20318,0.064902,-6.4526e-06,0.72,0.6,0
0.21967,0.036873,0.27598,-0.24092,-0.1909,-0.16404,0.0068313,0,0,-0.79949,-0.27934,0,0.14209,0,0,0.15692,-0.0055372,0,0.15701,-0.18999,-0.24183,-0.16404,82.36,-0.19862,0.068602,-8.9453e-06,0.74,0.6,0
0.20323,0.034967,0.25085,-0.23979,-0.18433,-0.15859,0.0056505,0,0,-0.84447,-0.26768,0,0.11753,0,0,0.15726,-0.0035587,0,0.15729,-0.18376,-0.24036,-0.15859,84.241,-0.19424,0.072537,-1.1943e-05,0.76,0.6,0
0.18589,0.033221,0.22565,-0.23893,-0.17793,-0.15327,0.0043859,0,0,-0.89088,-0.25656,0,0.091227,0,0,0.15779,-0.0014725,0,0.1578,-0.17762,-0.23924,-0.15327,85.908,-0.19004,0.076752,-1.5583e-05,0.78,0.6,0
0.1676,0.031641,0.20036,-0.23841,-0.17165,-0.14806,0.0030393,0,0,-0.9396,-0.24532,0,0.063217,0,0,0.1586,0.00075592,0,0.1586,-0.17151,-0.23855,-0.14806,87.399,-0.18604,0.081335,-2.0086e-05,0.8,0.6,0
0.14831,0.030233,0.1749,-0.23834,-0.16541,-0.14299,0.0016429,0,0,-0.99167,-0.2332,0,0.034172,0,0,0.15977,0.0031457,0,0.1598,-0.16538,-0.23838,-0.14299,88.71,-0.18225,0.0864,-2.5779e-05,0.82,0.6,0
0.12793,0.029009,0.14923,-0.23883,-0.15915,-0.13805,0.00027213,0,0,-1.0481,-0.21946,0,0.0056604,0,0,0.16147,0.0056775,0,0.16157,-0.15915,-0.23883,-0.13805,89.804,-0.17867,0.092063,-3.3088e-05,0.84,0.6,0
0.10638,0.027993,0.12323,-0.23992,-0.1528,-0.13322,-0.00094755,0,0,-1.1097,-0.20365,0,-0.019709,0,0,0.16389,0.0082431,0,0.1641,-0.15279,-0.23993,-0.13322,-89.377,-0.17531,0.098393,-4.2471e-05,0.86,0.6,0
0.083547,0.027215,0.096784,-0.24159,-0.14636,-0.12848,-0.0018753,0,0,-1.1763,-0.18596,0,-0.039007,0,0,0.16722,0.010549,0,0.16756,-0.14633,-0.24162,-0.12848,-88.872,-0.17214,0.10536,-5.4303e-05,0.88,0.6,0
0.059331,0.026679,0.069724,-0.24385,-0.13989,-0.12384,-0.0023741,0,0,-1.2481,-0.16694,0,-0.049382,0,0,0.17146,0.012001,0,0.17189,-0.13983,-0.2439,-0.12384,-88.692,-0.16919,0.11292,-6.8973e-05,0.9,0.6,0
0.033622,0.026371,0.041917,-0.24646,-0.13289,-0.11905,-0.0022539,0,0,-1.3252,-0.14399,0,-0.046882,0,0,0.17625,0.011827,0,0.17667,-0.13285,-0.24651,-0.11905,-88.864,-0.16613,0.12115,-8.7351e-05,0.92,0.6,0
0.006325,0.026319,0.013323,-0.2432,-0.18538,-0.13607,0.0018577,0,0,-0.7364,-0.11396,0,-0.0081251,0,0,0.18822,0.042342,0,0.1956,-0.18139,-0.24718,-0.13607,-28.231,-0.18821,0.10602,-3.4899e-05,0.94,0.6,0
0.0041664,0.027126,0.0093686,-0.25013,-0.28184,-0.16896,0.0082532,0,0,-0.10552,-0.14674,0,0.021458,0,0,0.21195,0.062862,0,0.22144,-0.24811,-0.28386,-0.16896,13.751,-0.23364,0.10184,3.2586e-05,0.96,0.6,0
0.0021041,0.027988,0.0048455,-0.24977,-0.29958,-0.16965,0.0066408,0,0,-0.10416,-0.16891,0,0.017266,0,0,0.23422,0.035487,0,0.23668,-0.2489,-0.30045,-0.16965,7.4657,-0.23967,0.11412,2.7251e-05,0.98,0.6,0
0,0.028323,0,-0.24296,-0.29715,-0.16203,0.0064247,0,0,-0.1052,-0.17565,0,0.016704,0,0,0.24227,1.7347e-18,0,0.24182,-0.24221,-0.2979,-0.16203,6.6699,-0.23404,0.1183,2.602e-05,1,0.6,0
0,0.060044,1,-0.65439,-1.9849,-1.7918,0.030815,0,0,1.4786,-0.25105,0,0.080119,0,0,0.38422,-1.4988e-15,0,0.38239,-0.65368,-1.9856,-1.7918,1.326,-1.477,1.2464,0.091388,0,0.62,0
0.029572,0.061647,0.99232,-0.63421,-1.9905,-1.7797,0.11775,0,0,1.4892,-0.27399,0,0.30616,0,0,0.37633,-0.092715,0,0.38533,-0.62406,-2.0006,-1.7797,4.9253,-1.4681,1.2805,0.097104,0.02,0.62,0
0.059567,0.0674,0.98495,-0.45763,-2.0158,-1.727,0.21129,0,0,1.6501,-0.37545,0,0.54935,0,0,0.30182,-0.20913,0,0.36332,-0.42949,-2.0439,-1.727,7.5869,-1.4001,1.4816,0.14161,0.04,0.62,0
0.095578,0.071017,0.98024,-0.40404,-1.4891,-1.1193,0.20204,0,0,1.1372,-0.85465,0,1.5119,0,0,0.19342,-0.22988,0,0.3166,-0.35209,-1.5411,-1.1193,18.91,-1.0042,1.0479,0.093738,0.06,0.62,0
0.10506,0.10436,0.95598,-0.2948,-0.48431,-0.35323,0.085476,0,0,0.60765,-1.3632,0,1.7779,0,0,0.14011,-0.045111,0,0.1474,-0.26195,-0.51716,-0.35323,21.027,-0.37745,0.22399,-0.00027096,0.08,0.62,0
0.11988,0.12161,0.93541,-0.26484,-0.47495,-0.33886,0.051498,0,0,0.76982,-1.4153,0,1.0712,0,0,0.12385,-0.034703,0,0.12861,-0.2529,-0.48689,-0.33886,13.057,-0.35955,0.20501,-0.00019482,0.1,0.62,0
0.13585,0.13052,0.91635,-0.25402,-0.47031,-0.33184,0.032833,0,0,0.80934,-1.4401,0,0.68292,0,0,0.11715,-0.027978,0,0.12043,-0.24915,-0.47519,-0.33184,8.4442,-0.35206,0.19809,-0.00017761,0.12,0.62,0
0.15226,0.13494,0.89792,-0.24714,-0.46339,-0.3254,0.022787,0,0,0.81387,-1.4351,0,0.47397,0,0,0.11416,-0.023769,0,0.11661,-0.24477,-0.46576,-0.3254,5.9505,-0.34531,0.1937,-0.00016719,0.14,0.62,0
0.1684,0.13645,0.87982,-0.24348,-0.45604,-0.31983,0.017691,0,0,0.79409,-1.4166,0,0.36798,0,0,0.11254,-0.021278,0,0.11453,-0.24202,-0.4575,-0.31983,4.7254,-0.33979,0.189,-0.00015921,0.16,0.62,0
0.18402,0.13613,0.86191,-0.24084,-0.44834,-0.31449,0.015916,0,0,0.76597,-1.392,0,0.33106,0,0,0.11148,-0.019921,0,0.11324,-0.23963,-0.44956,-0.31449,4.3609,-0.33456,0.18428,-0.00015188,0.18,0.62,0
0.19904,0.13459,0.84414,-0.23823,-0.44053,-0.30915,0.016015,0,0,0.73752,-1.3664,0,0.33312,0,0,0.11059,-0.019246,0,0.11225,-0.23697,-0.44179,-0.30915,4.4986,-0.3293,0.17994,-0.00014515,0.2,0.62,0
0.21352,0.13214,0.82652,-0.23514,-0.43273,-0.30368,0.016748,0,0,0.71283,-1.3422,0,0.34836,0,0,0.10968,-0.018854,0,0.11129,-0.23372,-0.43415,-0.30368,4.8105,-0.32385,0.17619,-0.00013903,0.22,0.62,0
0.22756,0.1288,0.80905,-0.23146,-0.42499,-0.29807,0.01688,0,0,0.69269,-1.32,0,0.35111,0,0,0.10867,-0.018343,0,0.11021,-0.23,-0.42645,-0.29807,4.9477,-0.31817,0.17279,-0.00013311,0.24,0.62,0
0.24123,0.12428,0.79174,-0.22687,-0.41666,-0.29203,0.014813,0,0,0.67765,-1.2962,0,0.30811,0,0,0.10776,-0.017041,0,0.1091,-0.22572,-0.41781,-0.29203,4.4361,-0.31185,0.16899,-0.00012545,0.26,0.62,0
0.25454,0.1179,0.77462,-0.22467,-0.408,-0.28663,0.0073476,0,0,0.64437,-1.2623,0,0.15283,0,0,0.10657,-0.014739,0,0.10758,-0.22437,-0.40829,-0.28663,2.2915,-0.30643,0.16202,-0.00011477,0.28,0.62,0
0.26722,0.10854,0.7576,-0.22325,-0.39959,-0.28155,-0.0031499,0,0,0.60636,-1.2276,0,-0.065517,0,0,0.10719,-0.010354,0,0.10765,-0.22319,-0.39965,-0.28155,-1.023,-0.30146,0.15571,-0.0001061,0.3,0.62,0
0.2788,0.09341,0.74032,-0.23854,-0.39196,-0.28169,-0.025886,0,0,0.44873,-1.1468,0,-0.53844,0,0,0.11383,-0.0018195,0,0.11377,-0.23429,-0.39621,-0.28169,-9.324,-0.30406,0.14418,-9.9732e-05,0.32,0.62,0
0.28517,0.069367,0.72118,-0.2986,-1.1289,-0.83393,-0.086889,0,0,0.83527,-0.68183,0,-0.62594,0,0,0.14474,0.04165,0,0.16191,-0.28472,-1.1428,-0.83393,-12.963,-0.75383,0.75581,0.037004,0.34,0.62,0
0.31221,0.056861,0.71778,-0.30517,-1.5578,-1.2767,-0.069253,0,0,1.263,-0.36551,0,-0.18006,0,0,0.20824,-0.055157,0,0.20901,-0.30135,-1.5617,-1.2767,-3.1547,-1.0466,1.1447,0.061247,0.36,0.62,0
0.33569,0.044243,0.71285,-0.38282,-1.5179,-1.2831,-0.012805,0,0,1.1703,-0.30526,0,-0.033292,0,0,0.24159,-0.13288,0,0.2745,-0.38268,-1.518,-1.2831,-0.64625,-1.0613,1.038,0.047668,0.38,0.62,0
0.35902,0.033677,0.70812,-0.35953,-1.461,-1.2543,0.028996,0,0,1.1632,-0.26878,0,0.07539,0,0,0.22281,-0.17875,0,0.28567,-0.35877,-1.4618,-1.2543,1.5069,-1.025,1.0153,0.046277,0.4,0.62,0
0.38221,0.023803,0.70394,-0.30701,-0.828,-0.73647,0.044754,0,0,0.40748,-0.21153,0,0.54553,0,0,0.19956,-0.11143,0,0.23994,-0.27917,-0.85584,-0.73647,25.581,-0.62383,0.53648,0.022334,0.42,0.62,0
0.37532,0.031348,0.67353,-0.28895,-0.2908,-0.25812,0.045904,0,0,-0.32069,-0.33994,0,0.95479,0,0,0.18744,-0.029777,0,0.18981,-0.24397,-0.33579,-0.25812,44.422,-0.27929,0.085631,-2.9302e-05,0.44,0.62,0
0.36939,0.037783,0.64396,-0.28018,-0.29262,-0.25233,0.041455,0,0,-0.28956,-0.41898,0,0.86226,0,0,0.18215,-0.032056,0,0.18497,-0.24448,-0.32832,-0.25233,40.732,-0.27504,0.0802,-2.5639e-05,0.46,0.62,0
0.36374,0.042554,0.61524,-0.27363,-0.2898,-0.24593,0.035919,0,0,-0.28806,-0.45621,0,0.74711,0,0,0.17703,-0.03219,0,0.17995,-0.2449,-0.31853,-0.24593,38.658,-0.26979,0.073122,-2.0067e-05,0.48,0.62,0
0.35786,0.045654,0.58731,-0.26882,-0.28409,-0.23929,0.03063,0,0,-0.30713,-0.46598,0,0.6371,0,0,0.17254,-0.030878,0,0.17529,-0.24489,-0.30802,-0.23929,38,-0.26407,0.066114,-1.4484e-05,0.5,0.62,0
0.35145,0.047321,0.56003,-0.26514,-0.27683,-0.23259,0.026031,0,0,-0.33849,-0.46003,0,0.54144,0,0,0.16886,-0.028752,0,0.1713,-0.24431,-0.29766,-0.23259,38.674,-0.25819,0.060075,-9.7242e-06,0.52,0.62,0
0.34432,0.047844,0.53327,-0.26216,-0.26875,-0.22593,0.022165,0,0,-0.37674,-0.44531,0,0.46102,0,0,0.16598,-0.026276,0,0.16805,-0.24304,-0.28786,-0.22593,40.77,-0.25228,0.055393,-6.0028e-06,0.54,0.62,0
0.33638,0.047489,0.50691,-0.25962,-0.26027,-0.21933,0.018963,0,0,-0.41896,-0.4258,0,0.39444,0,0,0.16379,-0.023733,0,0.1655,-0.24098,-0.27891,-0.21933,44.504,-0.24641,0.052236,-3.3124e-06,0.56,0.62,0
0.32756,0.046482,0.48086,-0.25739,-0.25167,-0.21282,0.016341,0,0,-0.46347,-0.40396,0,0.33988,0,0,0.16214,-0.021271,0,0.16353,-0.23794,-0.27112,-0.21282,49.965,-0.24063,0.050644,-1.5799e-06,0.58,0.62,0
0.31784,0.045014,0.45503,-0.25538,-0.24311,-0.20642,0.014205,0,0,-0.50914,-0.3815,0,0.29546,0,0,0.1609,-0.018955,0,0.16201,-0.23377,-0.26472,-0.20642,56.682,-0.23497,0.050515,-7.0695e-07,0.6,0.62,0
0.3072,0.043242,0.42937,-0.25353,-0.23472,-0.20014,0.012462,0,0,-0.55521,-0.35954,0,0.25922,0,0,0.15999,-0.016797,0,0.16087,-0.22851,-0.25974,-0.20014,63.523,-0.22946,0.051629,-5.8758e-07,0.62,0.62,0
0.29563,0.041291,0.40383,-0.2518,-0.22656,-0.19399,0.011021,0,0,-0.60122,-0.3388,0,0.22923,0,0,0.15934,-0.014782,0,0.16002,-0.22243,-0.25593,-0.19399,69.431,-0.22412,0.053706,-1.1218e-06,0.64,0.62,0
0.28315,0.039256,0.37838,-0.25016,-0.21868,-0.18795,0.0097952,0,0,-0.64695,-0.31963,0,0.20374,0,0,0.15889,-0.012885,0,0.15941,-0.21588,-0.25295,-0.18795,74.05,-0.21893,0.056482,-2.2264e-06,0.66,0.62,0
0.26976,0.037213,0.35299,-0.2486,-0.21108,-0.18203,0.008713,0,0,-0.69236,-0.30216,0,0.18123,0,0,0.15862,-0.011072,0,0.159,-0.20916,-0.25053,-0.18203,77.544,-0.21391,0.059747,-3.8419e-06,0.68,0.62,0
0.25546,0.035216,0.32762,-0.24715,-0.20376,-0.17622,0.0077144,0,0,-0.7376,-0.28636,0,0.16046,0,0,0.15851,-0.0093105,0,0.15878,-0.20243,-0.24848,-0.17622,80.212,-0.20904,0.063355,-5.9364e-06,0.7,0.62,0
0.24025,0.033303,0.30226,-0.24581,-0.19669,-0.17053,0.0067532,0,0,-0.78289,-0.27205,0,0.14047,0,0,0.15856,-0.0075671,0,0.15874,-0.19578,-0.24672,-0.17053,82.313,-0.20435,0.067221,-8.5092e-06,0.72,0.62,0
0.22414,0.031504,0.27688,-0.24463,-0.18986,-0.16496,0.0057963,0,0,-0.82858,-0.259,0,0.12056,0,0,0.15879,-0.0058104,0,0.15889,-0.18925,-0.24524,-0.16496,84.024,-0.19981,0.071305,-1.1593e-05,0.74,0.62,0
0.20711,0.029839,0.25145,-0.24363,-0.18323,-0.15949,0.0048245,0,0,-0.87509,-0.24689,0,0.10035,0,0,0.1592,-0.0040122,0,0.15924,-0.18285,-0.24402,-0.15949,85.462,-0.19545,0.075604,-1.5263e-05,0.76,0.62,0
0.18914,0.028324,0.22594,-0.24288,-0.17676,-0.15413,0.0038336,0,0,-0.92292,-0.23534,0,0.079738,0,0,0.15983,-0.0021505,0,0.15984,-0.17654,-0.2431,-0.15413,86.692,-0.19126,0.080144,-1.9637e-05,0.78,0.62,0
0.17019,0.026975,0.20031,-0.24241,-0.17042,-0.14889,0.0028388,0,0,-0.97262,-0.22397,0,0.059048,0,0,0.16073,-0.00021571,0,0.16073,-0.17031,-0.24252,-0.14889,87.745,-0.18724,0.084972,-2.4886e-05,0.8,0.62,0
0.15023,0.025808,0.17451,-0.24228,-0.16417,-0.14375,0.0018784,0,0,-1.0247,-0.21239,0,0.03907,0,0,0.16198,0.0017781,0,0.16199,-0.16413,-0.24233,-0.14375,88.623,-0.1834,0.090134,-3.1226e-05,0.82,0.62,0
0.1292,0.024845,0.14847,-0.24252,-0.15798,-0.13871,0.0010143,0,0,-1.0796,-0.20039,0,0.021097,0,0,0.16366,0.0037725,0,0.1637,-0.15796,-0.24253,-0.13871,89.313,-0.17973,0.09566,-3.8889e-05,0.84,0.62,0
0.10705,0.02411,0.12214,-0.24311,-0.15183,-0.13375,0.00032247,0,0,-1.1374,-0.18802,0,0.0067074,0,0,0.16585,0.0056319,0,0.16595,-0.15183,-0.24311,-0.13375,89.798,-0.17623,0.10154,-4.8076e-05,0.86,0.62,0
0.083707,0.023624,0.095403,-0.24403,-0.14574,-0.12886,-0.00012251,0,0,-1.1978,-0.17557,0,-0.0025482,0,0,0.16858,0.0071077,0,0.16873,-0.14574,-0.24403,-0.12886,-89.929,-0.17288,0.10773,-5.8935e-05,0.88,0.62,0
0.059133,0.023396,0.068192,-0.24518,-0.13964,-0.12397,-0.00024761,0,0,-1.2606,-0.16292,0,-0.0051502,0,0,0.17173,0.0078417,0,0.17192,-0.13963,-0.24518,-0.12397,-89.866,-0.1696,0.11419,-7.1649e-05,0.9,0.62,0
0.033282,0.023434,0.040449,-0.2464,-0.13332,-0.11897,0.00011069,0,0,-1.3253,-0.14923,0,0.0023023,0,0,0.17502,0.0074501,0,0.17518,-0.13332,-0.2464,-0.11897,89.944,-0.16623,0.1209,-8.6456e-05,0.92,0.62,0
0.0061229,0.023789,0.012187,-0.24411,-0.19736,-0.1393,0.0030362,0,0,-0.73036,-0.13419,0,0.01408,0,0,0.18246,0.025632,0,0.18537,-0.1847,-0.25677,-0.1393,50.849,-0.19359,0.1093,-3.2162e-05,0.94,0.62,0
0.0040673,0.024143,0.0084214,-0.24532,-0.28297,-0.16691,0.0078495,0,0,-0.10193,-0.15088,0,0.020409,0,0,0.19695,0.037943,0,0.20072,-0.24375,-0.28454,-0.16691,11.317,-0.23173,0.10345,2.8519e-05,0.96,0.62,0
0.0020456,0.024612,0.0043091,-0.24381,-0.29381,-0.1656,0.0064558,0,0,-0.10168,-0.16668,0,0.016785,0,0,0.21054,0.02148,0,0.21154,-0.24299,-0.29463,-0.1656,7.24,-0.23441,0.11249,2.4671e-05,0.98,0.62,0
0,0.02481,0,-0.23719,-0.29118,-0.15851,0.0037991,0,0,-0.10228,-0.17247,0,0.0098776,0,0,0.21545,8.6736e-19,0,0.21527,-0.23692,-0.29145,-0.15851,4.005,-0.22896,0.11575,2.4301e-05,1,0.62,0
0,0.053719,1,-0.52648,-2.0678,-1.7783,0.02127,0,0,1.6273,-0.37638,0,0.055303,0,0,0.2981,-1.5404e-15,0,0.29658,-0.52619,-2.0681,-1.7783,0.79049,-1.4575,1.4194,0.12647,0,0.64,0
0.032547,0.054825,0.99404,-0.47704,-2.0731,-1.7591,0.082198,0,0,1.6666,-0.40819,0,0.21371,0,0,0.28031,-0.073536,0,0.2884,-0.47281,-2.0773,-1.7591,2.9405,-1.4364,1.4714,0.13817,0.02,0.64,0
0.066666,0.056917,0.98879,-0.43124,-2.1891,-1.7749,0.12793,0,0,1.7467,-0.53844,0,0.33261,0,0,0.22862,-0.15125,0,0.27573,-0.42198,-2.1983,-1.7749,4.1407,-1.4651,1.607,0.1643,0.04,0.64,0
0.10242,0.057239,0.98489,-0.34756,-1.3323,-1.058,0.091647,0,0,1.1319,-0.63406,0,0.87104,0,0,0.16975,-0.10363,0,0.20836,-0.32696,-1.3529,-1.058,14.863,-0.91261,0.91834,0.088017,0.06,0.64,0
0.11194,0.080572,0.96173,-0.28112,-0.44339,-0.33757,0.058633,0,0,0.58708,-1.1005,0,1.2196,0,0,0.13899,-0.028926,0,0.14213,-0.26215,-0.46236,-0.33757,17.927,-0.35403,0.17513,-0.00011357,0.08,0.64,0
0.1259,0.094895,0.94042,-0.26137,-0.45589,-0.33273,0.038538,0,0,0.74214,-1.2809,0,0.80159,0,0,0.12865,-0.027069,0,0.13153,-0.25401,-0.46325,-0.33273,10.808,-0.35,0.18304,-0.00013014,0.1,0.64,0
0.14163,0.10278,0.92056,-0.2506,-0.45835,-0.32775,0.025764,0,0,0.80245,-1.3582,0,0.53589,0,0,0.12135,-0.023887,0,0.1237,-0.24745,-0.4615,-0.32775,6.9648,-0.34557,0.18729,-0.00014049,0.12,0.64,0
0.158,0.10672,0.90158,-0.24399,-0.45741,-0.32311,0.018479,0,0,0.82295,-1.3966,0,0.38436,0,0,0.11696,-0.021383,0,0.11891,-0.2424,-0.45899,-0.32311,4.9122,-0.3415,0.1896,-0.00014844,0.14,0.64,0
0.17454,0.10823,0.88314,-0.23907,-0.45365,-0.31821,0.01479,0,0,0.82303,-1.4086,0,0.30763,0,0,0.11424,-0.019744,0,0.11593,-0.23806,-0.45466,-0.31821,3.9244,-0.33698,0.18969,-0.00015149,0.16,0.64,0
0.19092,0.10815,0.86503,-0.2347,-0.44766,-0.31284,0.014391,0,0,0.81259,-1.4021,0,0.29934,0,0,0.11267,-0.019039,0,0.11427,-0.23373,-0.44863,-0.31284,3.8487,-0.33173,0.18825,-0.00015008,0.18,0.64,0
0.20692,0.10701,0.84716,-0.23151,-0.43991,-0.30732,0.015208,0,0,0.78846,-1.3789,0,0.31633,0,0,0.11115,-0.018836,0,0.11273,-0.2304,-0.44101,-0.30732,4.1519,-0.32625,0.18459,-0.00014434,0.2,0.64,0
0.22246,0.10504,0.82946,-0.22856,-0.43219,-0.30191,0.01578,0,0,0.76279,-1.3549,0,0.32822,0,0,0.1102,-0.018388,0,0.11173,-0.22735,-0.4334,-0.30191,4.4051,-0.32089,0.18071,-0.00013849,0.22,0.64,0
0.23744,0.10227,0.81189,-0.22724,-0.42499,-0.29716,0.013852,0,0,0.72714,-1.3295,0,0.28811,0,0,0.10946,-0.017605,0,0.11087,-0.22627,-0.42596,-0.29716,3.9873,-0.31646,0.17534,-0.0001322,0.24,0.64,0
0.25176,0.098439,0.79441,-0.22418,-0.41467,-0.29096,0.011817,0,0,0.69447,-1.2866,0,0.24579,0,0,0.10927,-0.016549,0,0.11052,-0.22345,-0.4154,-0.29096,3.5362,-0.30994,0.16865,-0.00012003,0.26,0.64,0
0.26522,0.093043,0.77692,-0.22304,-0.40233,-0.28473,0.0073304,0,0,0.64152,-1.2231,0,0.15247,0,0,0.10978,-0.014733,0,0.11076,-0.22274,-0.40263,-0.28473,2.3374,-0.30337,0.15827,-0.00010343,0.28,0.64,0
0.27742,0.085106,0.75928,-0.22576,-0.38712,-0.27877,-0.0012101,0,0,0.55136,-1.1268,0,-0.02517,0,0,0.11201,-0.011771,0,0.11263,-0.22575,-0.38712,-0.27877,-0.42965,-0.29721,0.14247,-8.217e-05,0.3,0.64,0
0.28727,0.073375,0.74108,-0.23412,-0.36202,-0.27148,-0.014018,0,0,0.38853,-0.94163,0,-0.29157,0,0,0.11651,-0.0082466,0,0.11685,-0.2326,-0.36353,-0.27148,-6.1819,-0.2892,0.11647,-5.1718e-05,0.32,0.64,0
0.29296,0.057151,0.722,-0.28523,-1.0783,-0.8152,-0.026765,0,0,0.8135,-0.59901,0,-0.25875,0,0,0.13348,-0.024712,0,0.1363,-0.28243,-1.0812,-0.8152,-7.2183,-0.72626,0.70737,0.036187,0.34,0.64,0
0.31981,0.047651,0.71904,-0.30151,-1.6625,-1.3082,-0.041497,0,0,1.3087,-0.46051,0,-0.10789,0,0,0.16593,-0.062961,0,0.17673,-0.30025,-1.6637,-1.3082,-1.7448,-1.0907,1.2251,0.068306,0.36,0.64,0
0.34531,0.037629,0.71536,-0.32963,-1.5456,-1.2779,-0.011133,0,0,1.2328,-0.34797,0,-0.028947,0,0,0.19384,-0.12759,0,0.23136,-0.32953,-1.5457,-1.2779,-0.52454,-1.0511,1.1068,0.056143,0.38,0.64,0
0.36955,0.028101,0.71138,-0.33524,-1.4787,-1.2556,0.010872,0,0,1.1964,-0.29007,0,0.028267,0,0,0.19563,-0.15861,0,0.25169,-0.33513,-1.4788,-1.2556,0.5447,-1.0232,1.05,0.050514,0.4,0.64,0
0.39317,0.019491,0.70753,-0.3018,-0.83811,-0.73996,0.032499,0,0,0.42247,-0.22683,0,0.4234,0,0,0.18905,-0.0968,0,0.22251,-0.28001,-0.8599,-0.73996,25.244,-0.62662,0.53949,0.02367,0.42,0.64,0
0.38644,0.02493,0.67785,-0.28902,-0.28769,-0.25775,0.037263,0,0,-0.3253,-0.31143,0,0.77508,0,0,0.18404,-0.025415,0,0.18579,-0.25109,-0.32563,-0.25775,45.512,-0.27815,0.071443,-1.8181e-05,0.44,0.64,0
0.38016,0.029967,0.64864,-0.28204,-0.28768,-0.252,0.034888,0,0,-0.3125,-0.3711,0,0.72567,0,0,0.1808,-0.027416,0,0.18288,-0.24986,-0.31986,-0.252,42.691,-0.27391,0.06896,-1.6788e-05,0.46,0.64,0
0.37394,0.034004,0.61999,-0.27634,-0.28471,-0.24581,0.031036,0,0,-0.31746,-0.40453,0,0.64556,0,0,0.17725,-0.027859,0,0.17944,-0.24921,-0.31184,-0.24581,41.159,-0.26895,0.064399,-1.3589e-05,0.48,0.64,0
0.36746,0.036858,0.59192,-0.27182,-0.27952,-0.23939,0.02688,0,0,-0.33724,-0.41735,0,0.55911,0,0,0.17382,-0.027159,0,0.17593,-0.24852,-0.30283,-0.23939,40.923,-0.26358,0.059399,-9.9132e-06,0.5,0.64,0
0.36045,0.038585,0.56437,-0.2682,-0.27291,-0.23288,0.023007,0,0,-0.36734,-0.41629,0,0.47855,0,0,0.17075,-0.025722,0,0.17268,-0.24743,-0.29368,-0.23288,42.08,-0.25799,0.054991,-6.5681e-06,0.52,0.64,0
0.35277,0.039347,0.53728,-0.2652,-0.26545,-0.22636,0.019627,0,0,-0.40397,-0.40663,0,0.40825,0,0,0.16815,-0.023881,0,0.16984,-0.2457,-0.28496,-0.22636,44.814,-0.25234,0.051715,-3.9e-06,0.54,0.64,0
0.3443,0.03933,0.51056,-0.26262,-0.25755,-0.21987,0.016771,0,0,-0.44461,-0.39186,0,0.34883,0,0,0.16602,-0.021872,0,0.16746,-0.24313,-0.27705,-0.21987,49.3,-0.24668,0.049803,-2.0076e-06,0.56,0.64,0
0.33498,0.038715,0.48415,-0.26035,-0.24945,-0.21346,0.014397,0,0,-0.48766,-0.37428,0,0.29946,0,0,0.16432,-0.019841,0,0.16551,-0.2395,-0.27029,-0.21346,55.369,-0.24108,0.049277,-8.8487e-07,0.58,0.64,0
0.32479,0.037658,0.45798,-0.25829,-0.2413,-0.20713,0.012442,0,0,-0.53213,-0.35544,0,0.2588,0,0,0.16298,-0.017868,0,0.16396,-0.23473,-0.26486,-0.20713,62.161,-0.23557,0.050018,-4.8632e-07,0.6,0.64,0
0.3137,0.036294,0.432,-0.25641,-0.23324,-0.20089,0.010833,0,0,-0.57735,-0.3364,0,0.22533,0,0,0.16196,-0.015985,0,0.16274,-0.22896,-0.26068,-0.20089,68.459,-0.23018,0.051812,-7.5384e-07,0.62,0.64,0
0.30169,0.034735,0.40615,-0.25466,-0.22533,-0.19477,0.0094973,0,0,-0.62291,-0.31786,0,0.19754,0,0,0.16119,-0.014199,0,0.16182,-0.22252,-0.25747,-0.19477,73.537,-0.22492,0.05442,-1.6303e-06,0.64,0.64,0
0.28878,0.033068,0.38041,-0.25304,-0.21762,-0.18875,0.0083669,0,0,-0.66859,-0.30027,0,0.17403,0,0,0.16066,-0.012498,0,0.16114,-0.21574,-0.25491,-0.18875,77.355,-0.2198,0.057622,-3.0681e-06,0.66,0.64,0
0.27495,0.031364,0.35474,-0.25152,-0.21013,-0.18284,0.0073828,0,0,-0.71432,-0.28383,0,0.15356,0,0,0.16032,-0.010864,0,0.16069,-0.20885,-0.2528,-0.18284,80.184,-0.21483,0.061249,-5.035e-06,0.68,0.64,0
0.26021,0.029678,0.32911,-0.25013,-0.20287,-0.17704,0.0064958,0,0,-0.76017,-0.26862,0,0.13511,0,0,0.16018,-0.0092727,0,0.16045,-0.20199,-0.25101,-0.17704,82.315,-0.21001,0.06518,-7.5184e-06,0.7,0.64,0
0.24455,0.02805,0.30348,-0.24887,-0.19583,-0.17134,0.0056685,0,0,-0.80629,-0.2546,0,0.1179,0,0,0.16023,-0.0077011,0,0.16042,-0.19523,-0.24947,-0.17134,83.968,-0.20535,0.069342,-1.0528e-05,0.72,0.64,0
0.22796,0.026512,0.27784,-0.24777,-0.18899,-0.16576,0.0048751,0,0,-0.8529,-0.24165,0,0.1014,0,0,0.16047,-0.0061269,0,0.16059,-0.18859,-0.24817,-0.16576,85.29,-0.20084,0.073697,-1.41e-05,0.74,0.64,0
0.21043,0.025091,0.25213,-0.24684,-0.18235,-0.16027,0.0041028,0,0,-0.90029,-0.2296,0,0.085337,0,0,0.16092,-0.0045326,0,0.16098,-0.18209,-0.2471,-0.16027,86.374,-0.19649,0.078234,-1.8297e-05,0.76,0.64,0
0.19194,0.023808,0.22634,-0.24612,-0.17588,-0.15489,0.0033525,0,0,-0.94877,-0.21824,0,0.069731,0,0,0.16159,-0.0029086,0,0.16162,-0.17572,-0.24628,-0.15489,87.274,-0.1923,0.082959,-2.3211e-05,0.78,0.64,0
0.17248,0.022683,0.20042,-0.24563,-0.16955,-0.14961,0.0026397,0,0,-0.99862,-0.20741,0,0.054906,0,0,0.16253,-0.0012597,0,0.16253,-0.16946,-0.24572,-0.14961,88.015,-0.18826,0.087885,-2.8956e-05,0.8,0.64,0
0.152,0.021737,0.17433,-0.24538,-0.16335,-0.14441,0.0019941,0,0,-1.0501,-0.19699,0,0.041478,0,0,0.16376,0.0003859,0,0.16376,-0.16331,-0.24543,-0.14441,88.608,-0.18438,0.093021,-3.5658e-05,0.82,0.64,0
0.13048,0.020993,0.14802,-0.24537,-0.15728,-0.1393,0.001455,0,0,-1.1032,-0.18698,0,0.030263,0,0,0.16532,0.0019628,0,0.16533,-0.15725,-0.2454,-0.1393,89.054,-0.18065,0.098359,-4.3434e-05,0.84,0.64,0
0.10787,0.020473,0.12143,-0.24559,-0.15132,-0.13425,0.0010634,0,0,-1.1579,-0.17753,0,0.022118,0,0,0.16723,0.0033546,0,0.16726,-0.15131,-0.2456,-0.13425,89.354,-0.17705,0.10387,-5.2367e-05,0.86,0.64,0
0.08416,0.020192,0.09451,-0.24597,-0.14548,-0.12925,0.00085645,0,0,-1.2139,-0.16877,0,0.017814,0,0,0.16943,0.0043879,0,0.16949,-0.14547,-0.24598,-0.12925,89.512,-0.17356,0.10952,-6.2517e-05,0.88,0.64,0
0.059315,0.020163,0.067214,-0.24645,-0.13969,-0.12424,0.00088245,0,0,-1.271,-0.16062,0,0.018355,0,0,0.1718,0.0048528,0,0.17187,-0.13968,-0.24646,-0.12424,89.526,-0.17013,0.11528,-7.3941e-05,0.9,0.64,0
0.033321,0.020401,0.039533,-0.2469,-0.13387,-0.11917,0.0012259,0,0,-1.3284,-0.15283,0,0.0255,0,0,0.17411,0.0045588,0,0.17417,-0.13386,-0.24692,-0.11917,89.379,-0.16665,0.12107,-8.6645e-05,0.92,0.64,0
0.0061794,0.020951,0.011501,-0.24566,-0.20469,-0.14157,0.0029861,0,0,-0.72902,-0.14587,0,0.021774,0,0,0.17885,0.015368,0,0.17994,-0.18713,-0.26321,-0.14157,48.221,-0.19731,0.11197,-3.1973e-05,0.94,0.64,0
0.0041598,0.021091,0.0078509,-0.24512,-0.28481,-0.16683,0.0056588,0,0,-0.10178,-0.15337,0,0.014713,0,0,0.18786,0.022703,0,0.18929,-0.24433,-0.2856,-0.16683,7.9582,-0.23225,0.10444,2.9224e-05,0.96,0.64,0
0.0021083,0.021321,0.0039863,-0.2437,-0.28869,-0.1637,0.00456,0,0,-0.104,-0.16249,0,0.011856,0,0,0.19627,0.012846,0,0.19666,-0.24324,-0.28915,-0.1637,5.7293,-0.23203,0.10993,3.0336e-05,0.98,0.64,0
0,0.021424,0,-0.23779,-0.28456,-0.15671,0.0019672,0,0,-0.10541,-0.16621,0,0.0051146,0,0,0.19931,-1.7347e-18,0,0.19924,-0.23771,-0.28464,-0.15671,2.4044,-0.22635,0.1121,3.197e-05,1,0.64,0
0,0.044989,1,-0.42534,-2.1365,-1.7685,0.0063448,0,0,1.7462,-0.47831,0,0.016497,0,0,0.23715,1.7313e-15,0,0.23629,-0.42531,-2.1365,-1.7685,0.21245,-1.4434,1.5601,0.15905,0,0.66,0
0.034923,0.045319,0.99526,-0.40808,-2.1512,-1.763,0.042868,0,0,1.7614,-0.50459,0,0.11146,0,0,0.22507,-0.048214,0,0.22981,-0.40703,-2.1522,-1.763,1.408,-1.4408,1.5868,0.16434,0.02,0.66,0
0.070458,0.045862,0.991,-0.38084,-2.1905,-1.7624,0.058845,0,0,1.796,-0.55652,0,0.153,0,0,0.19112,-0.086966,0,0.21088,-0.37893,-2.1924,-1.7624,1.8605,-1.4446,1.6413,0.17561,0.04,0.66,0
0.10676,0.045655,0.98761,-0.31245,-1.2801,-1.0333,0.05132,0,0,1.1431,-0.5704,0,0.52675,0,0,0.15455,-0.059937,0,0.17095,-0.30346,-1.2891,-1.0333,11.127,-0.87529,0.88886,0.090743,0.06,0.66,0
0.11618,0.060338,0.96524,-0.2745,-0.42243,-0.32973,0.037951,0,0,0.57446,-0.96406,0,0.78939,0,0,0.13607,-0.017823,0,0.13729,-0.26533,-0.4316,-0.32973,13.581,-0.34222,0.14521,-5.9503e-05,0.08,0.66,0
0.12974,0.070379,0.94407,-0.25764,-0.44237,-0.32801,0.026635,0,0,0.73186,-1.1893,0,0.55402,0,0,0.12889,-0.01927,0,0.13037,-0.25388,-0.44613,-0.32801,8.0432,-0.34267,0.16794,-9.3388e-05,0.1,0.66,0
0.14546,0.076189,0.92399,-0.24678,-0.45073,-0.32475,0.018096,0,0,0.81088,-1.3101,0,0.3764,0,0,0.12283,-0.018856,0,0.1243,-0.24519,-0.45232,-0.32475,5.0315,-0.34075,0.18098,-0.00011829,0.12,0.66,0
0.16218,0.079077,0.90476,-0.23964,-0.45319,-0.32094,0.01318,0,0,0.84552,-1.3753,0,0.27415,0,0,0.11831,-0.018065,0,0.11969,-0.23883,-0.45399,-0.32094,3.5186,-0.33792,0.18807,-0.00013541,0.14,0.66,0
0.17928,0.080108,0.88614,-0.23447,-0.45199,-0.31671,0.010855,0,0,0.8552,-1.4069,0,0.22578,0,0,0.11512,-0.017491,0,0.11644,-0.23393,-0.45253,-0.31671,2.8499,-0.33439,0.19116,-0.00014551,0.16,0.66,0
0.19639,0.07997,0.86793,-0.23019,-0.44826,-0.31202,0.0099366,0,0,0.8511,-1.4168,0,0.20668,0,0,0.11321,-0.016948,0,0.11447,-0.22974,-0.44871,-0.31202,2.6036,-0.33016,0.19158,-0.00014967,0.18,0.66,0
0.21324,0.079066,0.85001,-0.22768,-0.44349,-0.3076,0.0086154,0,0,0.8312,-1.4132,0,0.1792,0,0,0.11141,-0.016636,0,0.11265,-0.22733,-0.44383,-0.3076,2.2825,-0.32625,0.18957,-0.00015043,0.2,0.66,0
0.22963,0.077592,0.83227,-0.2249,-0.43566,-0.3022,0.0090049,0,0,0.8039,-1.3879,0,0.1873,0,0,0.11049,-0.016922,0,0.11178,-0.22452,-0.43604,-0.3022,2.4422,-0.32092,0.18532,-0.00014403,0.22,0.66,0
0.24539,0.075564,0.81465,-0.22356,-0.42548,-0.29654,0.010222,0,0,0.75904,-1.3409,0,0.21262,0,0,0.11009,-0.017125,0,0.11141,-0.22304,-0.426,-0.29654,2.8907,-0.31519,0.17797,-0.00013204,0.24,0.66,0
0.26028,0.072817,0.79704,-0.22108,-0.41276,-0.28978,0.010365,0,0,0.7145,-1.279,0,0.21558,0,0,0.11035,-0.016708,0,0.11161,-0.22052,-0.41332,-0.28978,3.0861,-0.30788,0.16916,-0.00011555,0.26,0.66,0
0.27397,0.068973,0.77933,-0.22175,-0.39776,-0.28327,0.0076939,0,0,0.63984,-1.1907,0,0.16003,0,0,0.11146,-0.015793,0,0.11258,-0.22141,-0.3981,-0.28327,2.4981,-0.30093,0.15529,-9.4595e-05,0.28,0.66,0
0.28588,0.063472,0.76137,-0.22535,-0.37777,-0.27611,0.0026993,0,0,0.5279,-1.0573,0,0.056145,0,0,0.11368,-0.01454,0,0.11461,-0.2253,-0.37782,-0.27611,1.0142,-0.29308,0.13452,-6.7576e-05,0.3,0.66,0
0.29509,0.055744,0.74296,-0.23293,-0.34966,-0.26765,-0.003506,0,0,0.36106,-0.85295,0,-0.072925,0,0,0.11696,-0.013771,0,0.11779,-0.23282,-0.34977,-0.26765,-1.7188,-0.28341,0.104,-3.6694e-05,0.32,0.66,0
0.30032,0.045879,0.72394,-0.26372,-1.0374,-0.79756,-0.011919,0,0,0.80844,-0.55626,0,-0.090557,0,0,0.12734,-0.073124,0,0.15453,-0.26335,-1.0378,-0.79756,-2.6933,-0.69957,0.68983,0.037677,0.34,0.66,0
0.32743,0.038052,0.72123,-0.29439,-1.6851,-1.3151,-0.017512,0,0,1.3269,-0.48107,0,-0.045532,0,0,0.14867,-0.1368,0,0.20219,-0.29417,-1.6854,-1.3151,-0.72131,-1.0982,1.248,0.070992,0.36,0.66,0
0.3534,0.029979,0.718,-0.32157,-1.5943,-1.2928,-0.0079211,0,0,1.2625,-0.39198,0,-0.020595,0,0,0.17164,-0.14194,0,0.22282,-0.32152,-1.5943,-1.2928,-0.35658,-1.0695,1.152,0.060755,0.38,0.66,0
0.37829,0.022074,0.71446,-0.31838,-1.4974,-1.2592,0.010013,0,0,1.2231,-0.30969,0,0.026033,0,0,0.17941,-0.15546,0,0.23733,-0.31829,-1.4975,-1.2592,0.48651,-1.025,1.08,0.054225,0.4,0.66,0
0.40232,0.01473,0.71082,-0.29841,-0.85216,-0.74501,0.026145,0,0,0.43896,-0.24764,0,0.34453,0,0,0.18218,-0.091953,0,0.21404,-0.28107,-0.86951,-0.74501,24.777,-0.63186,0.54661,0.025114,0.42,0.66,0
0.39585,0.01889,0.68166,-0.28899,-0.28628,-0.25779,0.030707,0,0,-0.32454,-0.29626,0,0.6387,0,0,0.18154,-0.023004,0,0.18299,-0.2569,-0.31837,-0.25779,46.267,-0.27769,0.061033,-1.1669e-05,0.44,0.66,0
0.38934,0.022939,0.65273,-0.28368,-0.28435,-0.252,0.029303,0,0,-0.32947,-0.33647,0,0.6095,0,0,0.17971,-0.024361,0,0.18135,-0.25471,-0.31332,-0.252,44.671,-0.27335,0.060011,-1.1024e-05,0.46,0.66,0
0.38267,0.026373,0.62416,-0.27881,-0.28078,-0.2459,0.026504,0,0,-0.34231,-0.36281,0,0.55129,0,0,0.17728,-0.024663,0,0.179,-0.25327,-0.30632,-0.2459,43.935,-0.2685,0.057092,-9.022e-06,0.48,0.66,0
0.37565,0.02896,0.596,-0.2746,-0.27571,-0.2396,0.023207,0,0,-0.36409,-0.37563,0,0.48271,0,0,0.17467,-0.024147,0,0.17634,-0.25194,-0.29837,-0.2396,44.315,-0.2633,0.053679,-6.5486e-06,0.5,0.66,0
0.3681,0.03067,0.56826,-0.27103,-0.26951,-0.23319,0.019962,0,0,-0.39345,-0.37771,0,0.4152,0,0,0.17214,-0.02306,0,0.17368,-0.25029,-0.29024,-0.23319,46.086,-0.25791,0.050712,-4.2212e-06,0.52,0.66,0
0.35991,0.031579,0.54091,-0.26796,-0.26255,-0.22677,0.017032,0,0,-0.42843,-0.37214,0,0.35426,0,0,0.16984,-0.021624,0,0.17121,-0.24801,-0.2825,-0.22677,49.514,-0.25243,0.04872,-2.3629e-06,0.54,0.66,0
0.35097,0.031814,0.51391,-0.2653,-0.25512,-0.22037,0.014507,0,0,-0.4673,-0.36147,0,0.30173,0,0,0.16783,-0.020011,0,0.16902,-0.24484,-0.27558,-0.22037,54.664,-0.24693,0.047923,-1.1037e-06,0.56,0.66,0
0.34122,0.031511,0.48721,-0.26293,-0.24744,-0.21401,0.012384,0,0,-0.50879,-0.34763,0,0.2576,0,0,0.16614,-0.018339,0,0.16715,-0.24058,-0.2698,-0.21401,61.016,-0.24146,0.048327,-4.7656e-07,0.58,0.66,0
0.33061,0.030797,0.46075,-0.26081,-0.23966,-0.20773,0.010625,0,0,-0.552,-0.33201,0,0.221,0,0,0.16476,-0.016681,0,0.1656,-0.23524,-0.26522,-0.20773,67.435,-0.23607,0.049805,-4.7254e-07,0.6,0.66,0
0.31914,0.029787,0.43448,-0.25888,-0.23189,-0.20154,0.0091728,0,0,-0.59632,-0.31561,0,0.19079,0,0,0.16366,-0.015073,0,0.16436,-0.22906,-0.2617,-0.20154,72.898,-0.23077,0.052163,-1.0679e-06,0.62,0.66,0
0.30676,0.028576,0.40837,-0.25711,-0.2242,-0.19544,0.0079702,0,0,-0.64134,-0.29915,0,0.16578,0,0,0.16282,-0.013528,0,0.16339,-0.22238,-0.25894,-0.19544,77.076,-0.22558,0.0552,-2.2368e-06,0.64,0.66,0
0.29348,0.027246,0.38238,-0.25548,-0.21666,-0.18944,0.0069617,0,0,-0.68683,-0.2831,0,0.1448,0,0,0.16222,-0.012045,0,0.16267,-0.21545,-0.25669,-0.18944,80.135,-0.22053,0.058738,-3.9579e-06,0.66,0.66,0
0.27929,0.02586,0.35646,-0.25399,-0.20929,-0.18354,0.0060984,0,0,-0.73268,-0.26776,0,0.12685,0,0,0.16184,-0.010613,0,0.16219,-0.20847,-0.25481,-0.18354,82.37,-0.21561,0.062641,-6.2198e-06,0.68,0.66,0
0.26417,0.024471,0.33059,-0.25264,-0.2021,-0.17774,0.0053397,0,0,-0.77888,-0.2533,0,0.11106,0,0,0.16167,-0.009216,0,0.16193,-0.20154,-0.2532,-0.17774,84.034,-0.21083,0.06681,-9.0236e-06,0.7,0.66,0
0.24813,0.023119,0.30473,-0.25143,-0.19511,-0.17205,0.0046543,0,0,-0.8255,-0.23978,0,0.096809,0,0,0.16171,-0.0078388,0,0.1619,-0.19472,-0.25181,-0.17205,85.308,-0.20619,0.071182,-1.2386e-05,0.72,0.66,0
0.23115,0.021838,0.27884,-0.25036,-0.1883,-0.16645,0.0040211,0,0,-0.87266,-0.22719,0,0.08364,0,0,0.16195,-0.006466,0,0.16208,-0.18804,-0.25062,-0.16645,86.308,-0.20171,0.07572,-1.6339e-05,0.74,0.66,0
0.21323,0.020655,0.2529,-0.24947,-0.18168,-0.16096,0.00343,0,0,-0.92051,-0.21551,0,0.071344,0,0,0.16241,-0.0050871,0,0.16249,-0.1815,-0.24964,-0.16096,87.111,-0.19737,0.080403,-2.0933e-05,0.76,0.66,0
0.19433,0.019595,0.22687,-0.24874,-0.17523,-0.15555,0.0028814,0,0,-0.9692,-0.20466,0,0.059934,0,0,0.1631,-0.0036991,0,0.16314,-0.17512,-0.24886,-0.15555,87.759,-0.19318,0.085224,-2.623e-05,0.78,0.66,0
0.17446,0.018679,0.20071,-0.2482,-0.16895,-0.15023,0.0023861,0,0,-1.0189,-0.19464,0,0.049632,0,0,0.16403,-0.0023122,0,0.16404,-0.16888,-0.24827,-0.15023,88.277,-0.18913,0.090175,-3.23e-05,0.8,0.66,0
0.15358,0.017929,0.17438,-0.24784,-0.16283,-0.145,0.0019625,0,0,-1.0695,-0.18545,0,0.040821,0,0,0.1652,-0.00095528,0,0.1652,-0.16278,-0.24788,-0.145,88.678,-0.18522,0.095246,-3.9212e-05,0.82,0.66,0
0.13168,0.017366,0.14785,-0.24764,-0.15687,-0.13983,0.0016326,0,0,-1.1212,-0.17717,0,0.033958,0,0,0.16663,0.00031667,0,0.16663,-0.15684,-0.24767,-0.13983,88.97,-0.18145,0.10042,-4.7019e-05,0.84,0.66,0
0.10873,0.017009,0.12106,-0.24758,-0.15106,-0.13473,0.0014168,0,0,-1.1737,-0.1699,0,0.02947,0,0,0.16827,0.0014185,0,0.16828,-0.15104,-0.2476,-0.13473,89.159,-0.17779,0.10567,-5.5757e-05,0.86,0.66,0
0.08473,0.016873,0.093999,-0.24762,-0.14539,-0.12965,0.0013348,0,0,-1.2269,-0.1637,0,0.027764,0,0,0.17007,0.0022387,0,0.17009,-0.14538,-0.24764,-0.12965,89.252,-0.17422,0.11096,-6.5446e-05,0.88,0.66,0
0.059658,0.016971,0.066639,-0.24771,-0.13983,-0.12459,0.0014123,0,0,-1.2804,-0.1585,0,0.029375,0,0,0.1719,0.0026574,0,0.17193,-0.13981,-0.24773,-0.12459,89.25,-0.17071,0.11627,-7.6092e-05,0.9,0.66,0
0.033513,0.01732,0.03899,-0.24776,-0.13434,-0.1195,0.0016933,0,0,-1.3338,-0.1543,0,0.03522,0,0,0.17358,0.00258,0,0.1736,-0.13431,-0.24778,-0.1195,89.145,-0.1672,0.12155,-8.7638e-05,0.92,0.66,0
0.0063044,0.017954,0.011094,-0.24717,-0.2085,-0.14294,0.0026203,0,0,-0.73069,-0.15152,0,0.023404,0,0,0.1767,0.0089003,0,0.17708,-0.18889,-0.26679,-0.14294,47.042,-0.19954,0.11358,-3.219e-05,0.94,0.66,0
0.0042856,0.018008,0.0075133,-0.24639,-0.28594,-0.16721,0.003771,0,0,-0.10293,-0.15435,0,0.0098046,0,0,0.18247,0.013178,0,0.18298,-0.24604,-0.2863,-0.16721,5.3982,-0.23318,0.10492,3.1227e-05,0.96,0.66,0
0.0021871,0.018113,0.0037953,-0.24539,-0.2852,-0.16297,0.0028581,0,0,-0.10714,-0.1589,0,0.007431,0,0,0.18783,0.0074642,0,0.18797,-0.24518,-0.2854,-0.16297,4.0853,-0.23119,0.10809,3.5893e-05,0.98,0.66,0
0,0.018161,0,-0.24003,-0.27968,-0.15591,0.00093476,0,0,-0.10936,-0.16089,0,0.0024304,0,0,0.18976,6.7221e-18,0,0.18974,-0.24001,-0.2797,-0.15591,1.35,-0.22521,0.10948,3.8758e-05,1,0.66,0
0,0.034587,1,-0.37841,-2.1819,-1.7681,0.0010552,0,0,1.8066,-0.53798,0,0.0027437,0,0,0.20167,3.1685e-15,0,0.20135,-0.37841,-2.1819,-1.7681,0.033524,-1.4428,1.6363,0.17744,0,0.68,0
0.036132,0.034642,0.99597,-0.36716,-2.181,-1.7604,0.016956,0,0,1.8112,-0.54679,0,0.044085,0,0,0.19334,-0.026508,0,0.19509,-0.367,-2.1812,-1.7604,0.53553,-1.4362,1.6447,0.17906,0.02,0.68,0
0.07245,0.034656,0.99227,-0.3526,-2.1869,-1.7541,0.024737,0,0,1.822,-0.5626,0,0.064316,0,0,0.17028,-0.047445,0,0.17735,-0.35227,-2.1872,-1.7541,0.7725,-1.4312,1.6613,0.18263,0.04,0.68,0
0.10901,0.034423,0.98916,-0.30176,-1.2715,-1.0284,0.024197,0,0,1.1585,-0.56182,0,0.26389,0,0,0.14565,-0.032619,0,0.15144,-0.29926,-1.274,-1.0284,6.3128,-0.86719,0.88054,0.092208,0.06,0.68,0
0.11879,0.04201,0.96744,-0.26942,-0.41143,-0.32518,0.020122,0,0,0.57994,-0.89694,0,0.41853,0,0,0.13304,-0.010835,0,0.13351,-0.26662,-0.41422,-0.32518,7.9111,-0.33534,0.12873,-3.8186e-05,0.08,0.68,0
0.13221,0.047323,0.94658,-0.25474,-0.43389,-0.32491,0.014586,0,0,0.72983,-1.1334,0,0.30339,0,0,0.12762,-0.012884,0,0.1283,-0.25356,-0.43507,-0.32491,4.6241,-0.33785,0.15839,-7.3504e-05,0.1,0.68,0
0.14799,0.050372,0.9266,-0.24378,-0.44585,-0.32271,0.010044,0,0,0.82092,-1.2806,0,0.20891,0,0,0.12256,-0.013882,0,0.12336,-0.24328,-0.44634,-0.32271,2.8386,-0.33745,0.17724,-0.00010476,0.12,0.68,0
0.16504,0.05171,0.90736,-0.23611,-0.45088,-0.31952,0.0074436,0,0,0.86745,-1.3662,0,0.15483,0,0,0.11833,-0.014406,0,0.11921,-0.23585,-0.45114,-0.31952,1.9826,-0.3355,0.18798,-0.00012773,0.14,0.68,0
0.18268,0.051955,0.88873,-0.23058,-0.45134,-0.31566,0.0065282,0,0,0.88494,-1.411,0,0.13579,0,0,0.11506,-0.014868,0,0.11603,-0.23038,-0.45153,-0.31566,1.6923,-0.33253,0.19318,-0.00014211,0.16,0.68,0
0.20044,0.051557,0.87054,-0.22636,-0.44851,-0.31128,0.0067429,0,0,0.88317,-1.4272,0,0.14025,0,0,0.1127,-0.015418,0,0.11376,-0.22615,-0.44872,-0.31128,1.7369,-0.32872,0.19451,-0.0001488,0.18,0.68,0
0.21801,0.050801,0.85267,-0.22304,-0.44309,-0.30642,0.0076119,0,0,0.86719,-1.4214,0,0.15833,0,0,0.11113,-0.016044,0,0.11229,-0.22278,-0.44336,-0.30642,1.9788,-0.32419,0.19288,-0.00014884,0.2,0.68,0
0.23513,0.049834,0.83498,-0.22049,-0.43536,-0.30113,0.0087271,0,0,0.83862,-1.396,0,0.18152,0,0,0.11027,-0.016659,0,0.11152,-0.22014,-0.43572,-0.30113,2.322,-0.31899,0.18861,-0.00014293,0.22,0.68,0
0.25155,0.048687,0.81738,-0.21884,-0.42521,-0.29539,0.0096918,0,0,0.79613,-1.3502,0,0.20159,0,0,0.11009,-0.017145,0,0.11142,-0.21838,-0.42567,-0.29539,2.6828,-0.31315,0.18148,-0.00013129,0.24,0.68,0
0.26698,0.047279,0.79975,-0.21848,-0.41219,-0.28917,0.01009,0,0,0.7352,-1.2794,0,0.20988,0,0,0.11063,-0.017395,0,0.11199,-0.21795,-0.41271,-0.28917,2.9738,-0.30661,0.17069,-0.00011377,0.26,0.68,0
0.28096,0.045414,0.78198,-0.22006,-0.39534,-0.28237,0.0095258,0,0,0.64803,-1.1749,0,0.19814,0,0,0.11195,-0.017384,0,0.11329,-0.21954,-0.39586,-0.28237,3.1015,-0.29925,0.15478,-9.0169e-05,0.28,0.68,0
0.2929,0.042813,0.76393,-0.22432,-0.37326,-0.27477,0.0079003,0,0,0.5246,-1.0243,0,0.16433,0,0,0.11403,-0.017265,0,0.11534,-0.22391,-0.37368,-0.27477,3.0279,-0.29078,0.13191,-6.1568e-05,0.3,0.68,0
0.30195,0.039257,0.74549,-0.23141,-0.34434,-0.26591,0.0057819,0,0,0.35878,-0.81563,0,0.12026,0,0,0.11671,-0.017358,0,0.11801,-0.23112,-0.34463,-0.26591,2.9235,-0.28055,0.10073,-3.2161e-05,0.32,0.68,0
0.30725,0.034803,0.72658,-0.26306,-1.0387,-0.79922,0.0047056,0,0,0.81299,-0.5534,0,0.059031,0,0,0.12456,-0.081057,0,0.15721,-0.26288,-1.0389,-0.79922,1.9444,-0.70032,0.69133,0.038138,0.34,0.68,0
0.33447,0.028431,0.72396,-0.2893,-1.6868,-1.3168,0.006778,0,0,1.3357,-0.48103,0,0.017623,0,0,0.14116,-0.14758,0,0.20447,-0.28927,-1.6868,-1.3168,0.27788,-1.0976,1.2542,0.072378,0.36,0.68,0
0.36068,0.022044,0.72093,-0.30317,-1.5971,-1.291,0.010879,0,0,1.2842,-0.39794,0,0.028286,0,0,0.159,-0.15458,0,0.22186,-0.30308,-1.5972,-1.291,0.48167,-1.0638,1.1715,0.063939,0.38,0.68,0
0.38583,0.015714,0.7176,-0.31401,-1.511,-1.2651,0.0171,0,0,1.2364,-0.31964,0,0.04446,0,0,0.1716,-0.16151,0,0.23569,-0.31376,-1.5112,-1.2651,0.81831,-1.03,1.0953,0.056176,0.4,0.68,0
0.41013,0.0095853,0.71407,-0.29762,-0.86237,-0.74966,0.024245,0,0,0.44872,-0.26049,0,0.29918,0,0,0.17847,-0.092969,0,0.2117,-0.28297,-0.87702,-0.74966,24.578,-0.63655,0.55152,0.026095,0.42,0.68,0
0.40378,0.01308,0.68521,-0.28961,-0.28544,-0.25817,0.025861,0,0,-0.32697,-0.28367,0,0.53791,0,0,0.18011,-0.021855,0,0.18144,-0.26158,-0.31347,-0.25817,47.301,-0.27774,0.053678,-7.8352e-06,0.44,0.68,0
0.39706,0.016508,0.65643,-0.28546,-0.28191,-0.25227,0.024602,0,0,-0.34521,-0.30832,0,0.51173,0,0,0.17914,-0.022382,0,0.18054,-0.25902,-0.30835,-0.25227,47.062,-0.27321,0.053033,-7.2433e-06,0.46,0.68,0
0.38997,0.019491,0.62789,-0.28121,-0.27767,-0.24615,0.022299,0,0,-0.36462,-0.32784,0,0.46383,0,0,0.17746,-0.022291,0,0.17886,-0.25707,-0.30181,-0.24615,47.267,-0.26835,0.051083,-5.8053e-06,0.48,0.68,0
0.38247,0.021833,0.59965,-0.27722,-0.27255,-0.23989,0.019569,0,0,-0.38828,-0.33968,0,0.40704,0,0,0.17542,-0.021694,0,0.17676,-0.25518,-0.29459,-0.23989,48.404,-0.26322,0.048889,-4.0818e-06,0.5,0.68,0
0.37444,0.023477,0.57175,-0.27363,-0.2666,-0.23354,0.016832,0,0,-0.41698,-0.34386,0,0.35011,0,0,0.17327,-0.020728,0,0.17451,-0.25292,-0.28731,-0.23354,50.898,-0.25793,0.04717,-2.4856e-06,0.52,0.68,0
0.36579,0.024462,0.5442,-0.27046,-0.26002,-0.22717,0.01432,0,0,-0.45025,-0.34163,0,0.29786,0,0,0.1712,-0.019525,0,0.17231,-0.25,-0.28048,-0.22717,55.017,-0.25255,0.04633,-1.2546e-06,0.54,0.68,0
0.35643,0.024872,0.51697,-0.26766,-0.25298,-0.22081,0.01213,0,0,-0.48723,-0.33454,0,0.2523,0,0,0.16931,-0.018193,0,0.17028,-0.24615,-0.2745,-0.22081,60.59,-0.24715,0.046518,-5.0376e-07,0.56,0.68,0
0.3463,0.02481,0.49002,-0.26518,-0.24566,-0.21451,0.010277,0,0,-0.52701,-0.32404,0,0.21376,0,0,0.16765,-0.016813,0,0.16849,-0.24125,-0.26959,-0.21451,66.758,-0.24178,0.047714,-2.8027e-07,0.58,0.68,0
0.33535,0.024378,0.46332,-0.26296,-0.2382,-0.20826,0.0087367,0,0,-0.56884,-0.31133,0,0.18172,0,0,0.16625,-0.015436,0,0.16697,-0.23542,-0.26573,-0.20826,72.395,-0.23647,0.049794,-5.9929e-07,0.6,0.68,0
0.32355,0.02367,0.43682,-0.26096,-0.23069,-0.2021,0.0074682,0,0,-0.61215,-0.29736,0,0.15534,0,0,0.16511,-0.014091,0,0.16571,-0.22895,-0.2627,-0.2021,76.867,-0.23125,0.052597,-1.4627e-06,0.62,0.68,0
0.31087,0.022769,0.41048,-0.25914,-0.22321,-0.19602,0.006425,0,0,-0.65651,-0.28284,0,0.13364,0,0,0.16422,-0.012792,0,0.16472,-0.2221,-0.26026,-0.19602,80.16,-0.22612,0.055961,-2.8683e-06,0.64,0.68,0
0.29729,0.021744,0.38427,-0.2575,-0.21583,-0.19003,0.0055621,0,0,-0.70166,-0.2683,0,0.11569,0,0,0.16357,-0.011539,0,0.16398,-0.2151,-0.25823,-0.19003,82.526,-0.22112,0.059747,-4.8157e-06,0.66,0.68,0
0.2828,0.020654,0.35814,-0.25601,-0.20858,-0.18414,0.004839,0,0,-0.74744,-0.25409,0,0.10065,0,0,0.16315,-0.010325,0,0.16348,-0.20809,-0.2565,-0.18414,84.235,-0.21624,0.063847,-7.3092e-06,0.68,0.68,0
0.26739,0.019546,0.33206,-0.25468,-0.20147,-0.17835,0.0042214,0,0,-0.79377,-0.24045,0,0.087805,0,0,0.16296,-0.0091405,0,0.16321,-0.20114,-0.25501,-0.17835,85.492,-0.2115,0.068182,-1.0361e-05,0.7,0.68,0
0.25105,0.018459,0.30599,-0.25349,-0.19454,-0.17266,0.0036826,0,0,-0.84064,-0.22754,0,0.076599,0,0,0.16298,-0.0079735,0,0.16318,-0.19431,-0.25372,-0.17266,86.439,-0.20689,0.072695,-1.399e-05,0.72,0.68,0
0.23377,0.017425,0.27991,-0.25245,-0.18777,-0.16705,0.0032042,0,0,-0.8881,-0.21546,0,0.066647,0,0,0.16322,-0.0068138,0,0.16336,-0.18761,-0.25261,-0.16705,87.171,-0.20242,0.07735,-1.8228e-05,0.74,0.68,0
0.21553,0.016471,0.25376,-0.25156,-0.18119,-0.16154,0.0027759,0,0,-0.93618,-0.20428,0,0.057739,0,0,0.16368,-0.0056545,0,0.16378,-0.18108,-0.25167,-0.16154,87.745,-0.1981,0.082121,-2.311e-05,0.76,0.68,0
0.19632,0.015621,0.22753,-0.25083,-0.17478,-0.15612,0.0023959,0,0,-0.98492,-0.19404,0,0.049835,0,0,0.16437,-0.0044948,0,0.16443,-0.1747,-0.2509,-0.15612,88.197,-0.19391,0.086989,-2.8677e-05,0.78,0.68,0
0.17613,0.014897,0.20116,-0.25024,-0.16855,-0.15078,0.0020692,0,0,-1.0343,-0.18481,0,0.04304,0,0,0.16527,-0.0033435,0,0.1653,-0.1685,-0.25029,-0.15078,88.55,-0.18986,0.091938,-3.4968e-05,0.8,0.68,0
0.15494,0.014319,0.17464,-0.24979,-0.16251,-0.14552,0.0018057,0,0,-1.0844,-0.17668,0,0.037558,0,0,0.16639,-0.0022224,0,0.1664,-0.16247,-0.24982,-0.14552,88.815,-0.18594,0.096948,-4.2018e-05,0.82,0.68,0
0.13275,0.013907,0.14792,-0.24946,-0.15664,-0.14032,0.0016166,0,0,-1.135,-0.16974,0,0.033624,0,0,0.1677,-0.0011699,0,0.1677,-0.15661,-0.24948,-0.14032,89.002,-0.18214,0.102,-4.9848e-05,0.84,0.68,0
0.10954,0.013677,0.12098,-0.24922,-0.15094,-0.13517,0.0015123,0,0,-1.1861,-0.16403,0,0.031456,0,0,0.16915,-0.00024085,0,0.16915,-0.15092,-0.24924,-0.13517,89.119,-0.17845,0.10707,-5.8472e-05,0.86,0.68,0
0.085308,0.013644,0.093793,-0.24905,-0.1454,-0.13006,0.0015029,0,0,-1.2375,-0.15955,0,0.031261,0,0,0.17067,0.00049814,0,0.17067,-0.14538,-0.24908,-0.13006,89.169,-0.17484,0.11214,-6.7898e-05,0.88,0.68,0
0.060042,0.013823,0.066364,-0.24892,-0.13999,-0.12497,0.0016018,0,0,-1.2891,-0.15626,0,0.033318,0,0,0.17214,0.00098112,0,0.17215,-0.13997,-0.24894,-0.12497,89.158,-0.17129,0.11719,-7.8119e-05,0.9,0.68,0
0.033746,0.01423,0.038708,-0.24876,-0.1347,-0.11987,0.0018296,0,0,-1.3404,-0.15418,0,0.038057,0,0,0.17343,0.0011618,0,0.17343,-0.13467,-0.24879,-0.11987,89.081,-0.16778,0.12219,-8.9073e-05,0.92,0.68,0
0.0064282,0.01489,0.010868,-0.24853,-0.21021,-0.14374,0.0022714,0,0,-0.73381,-0.15363,0,0.022829,0,0,0.1756,0.0046562,0,0.17571,-0.19015,-0.2686,-0.14374,46.457,-0.20083,0.11444,-3.2275e-05,0.94,0.68,0
0.0043935,0.014917,0.0073238,-0.24791,-0.28632,-0.16759,0.0025378,0,0,-0.10441,-0.15435,0,0.0065984,0,0,0.1795,0.0069971,0,0.17965,-0.24774,-0.28649,-0.16759,3.7637,-0.23394,0.10503,3.3362e-05,0.96,0.68,0
0.0022517,0.014966,0.0036877,-0.24725,-0.28298,-0.16276,0.0017479,0,0,-0.10984,-0.15629,0,0.0045444,0,0,0.1831,0.0039902,0,0.18314,-0.24716,-0.28307,-0.16276,2.7936,-0.231,0.10698,3.9831e-05,0.98,0.68,0
0,0.014988,0,-0.24226,-0.27659,-0.15565,0.00043239,0,0,-0.11259,-0.15721,0,0.0011242,0,0,0.18438,4.7705e-18,0,0.18438,-0.24225,-0.27659,-0.15565,0.72151,-0.22484,0.10795,4.3249e-05,1,0.68,0
0,0.02347,1,-0.35853,-2.1978,-1.7669,-0.00042716,0,0,1.8309,-0.56017,0,-0.0011106,0,0,0.18413,2.8191e-15,0,0.18406,-0.35853,-2.1978,-1.7669,-0.013307,-1.4411,1.6662,0.18507,0,0.7,0
0.036618,0.023448,0.99632,-0.3503,-2.1917,-1.7589,0.0033529,0,0,1.8312,-0.56265,0,0.0087174,0,0,0.17763,-0.010482,0,0.17802,-0.35029,-2.1917,-1.7589,0.10432,-1.4337,1.6677,0.18523,0.02,0.7,0
0.073249,0.023358,0.99289,-0.34001,-2.1855,-1.7506,0.0047553,0,0,1.8337,-0.56545,0,0.012364,0,0,0.15964,-0.018959,0,0.16122,-0.33999,-2.1855,-1.7506,0.14763,-1.4254,1.6711,0.18603,0.04,0.7,0
0.10997,0.023182,0.98993,-0.29669,-1.2704,-1.027,0.0047873,0,0,1.1694,-0.56264,0,0.050403,0,0,0.14042,-0.013436,0,0.14175,-0.2966,-1.2705,-1.027,1.2476,-0.86469,0.88014,0.093302,0.06,0.7,0
0.12002,0.02446,0.9687,-0.26662,-0.40719,-0.32323,0.0037639,0,0,0.58875,-0.87317,0,0.078289,0,0,0.13043,-0.0055496,0,0.13057,-0.26652,-0.40729,-0.32323,1.5327,-0.33235,0.12268,-3.1182e-05,0.08,0.7,0
0.13352,0.025043,0.94819,-0.25268,-0.43011,-0.32336,0.0024059,0,0,0.73506,-1.1102,0,0.050043,0,0,0.12584,-0.007597,0,0.12609,-0.25265,-0.43014,-0.32336,0.77676,-0.33538,0.15477,-6.5348e-05,0.1,0.7,0
0.14943,0.024965,0.92844,-0.24174,-0.44381,-0.32172,0.0014771,0,0,0.83179,-1.2697,0,0.030723,0,0,0.12131,-0.00926,0,0.12168,-0.24173,-0.44382,-0.32172,0.41879,-0.33575,0.17628,-9.8887e-05,0.12,0.7,0
0.16679,0.024429,0.90937,-0.2337,-0.45033,-0.31888,0.0013419,0,0,0.88589,-1.3671,0,0.027912,0,0,0.11732,-0.010719,0,0.11782,-0.23369,-0.45034,-0.31888,0.3549,-0.3343,0.18904,-0.00012484,0.14,0.7,0
0.18486,0.023668,0.89089,-0.22785,-0.4518,-0.31526,0.0019625,0,0,0.90903,-1.4201,0,0.040821,0,0,0.1141,-0.012111,0,0.11475,-0.22783,-0.45182,-0.31526,0.50205,-0.33164,0.19553,-0.00014168,0.16,0.7,0
0.20315,0.022881,0.87286,-0.22346,-0.44964,-0.31104,0.0031683,0,0,0.91076,-1.4414,0,0.0659,0,0,0.11173,-0.013499,0,0.11254,-0.22342,-0.44968,-0.31104,0.8024,-0.32805,0.1976,-0.00015008,0.18,0.7,0
0.22129,0.022211,0.85514,-0.2201,-0.4446,-0.3063,0.0047798,0,0,0.8965,-1.4383,0,0.09942,0,0,0.11017,-0.014877,0,0.11117,-0.22,-0.44471,-0.3063,1.2191,-0.32367,0.19634,-0.00015109,0.2,0.7,0
0.23901,0.021751,0.83761,-0.21763,-0.43699,-0.30109,0.0066375,0,0,0.86795,-1.4134,0,0.13806,0,0,0.10939,-0.016197,0,0.11058,-0.21743,-0.43719,-0.30109,1.7315,-0.31857,0.19212,-0.00014543,0.22,0.7,0
0.25601,0.021557,0.82013,-0.21619,-0.42669,-0.29538,0.0085901,0,0,0.82358,-1.3656,0,0.17868,0,0,0.10937,-0.017393,0,0.11074,-0.21584,-0.42704,-0.29538,2.333,-0.31275,0.18475,-0.00013341,0.24,0.7,0
0.27195,0.021641,0.80261,-0.21617,-0.41319,-0.28914,0.010487,0,0,0.7588,-1.2902,0,0.21813,0,0,0.11012,-0.018401,0,0.11164,-0.21562,-0.41375,-0.28914,3.0383,-0.30617,0.17348,-0.00011504,0.26,0.7,0
0.28636,0.021976,0.7849,-0.21816,-0.39558,-0.28223,0.01219,0,0,0.66638,-1.1788,0,0.25355,0,0,0.11159,-0.019187,0,0.11324,-0.21732,-0.39641,-0.28223,3.9122,-0.29866,0.15704,-9.0536e-05,0.28,0.7,0
0.29861,0.022498,0.7669,-0.22265,-0.37263,-0.27445,0.013598,0,0,0.53868,-1.0211,0,0.28284,0,0,0.1137,-0.019785,0,0.11542,-0.22143,-0.37386,-0.27445,5.1388,-0.28991,0.13403,-6.1635e-05,0.3,0.7,0
0.30791,0.023119,0.74851,-0.22972,-0.34353,-0.26554,0.014709,0,0,0.37252,-0.81112,0,0.30594,0,0,0.11622,-0.020299,0,0.11798,-0.22785,-0.3454,-0.26554,7.2462,-0.2796,0.10396,-3.3191e-05,0.32,0.7,0
0.31351,0.023743,0.72971,-0.26169,-1.0425,-0.80171,0.017094,0,0,0.82447,-0.55642,0,0.18704,0,0,0.12321,-0.093868,0,0.16516,-0.2601,-1.044,-0.80171,5.6811,-0.70196,0.69827,0.038852,0.34,0.7,0
0.34089,0.018811,0.72713,-0.28758,-1.6919,-1.321,0.023896,0,0,1.3434,-0.4822,0,0.062129,0,0,0.1382,-0.16803,0,0.21777,-0.28717,-1.6923,-1.321,0.97456,-1.1001,1.2611,0.073709,0.36,0.7,0
0.36724,0.014061,0.72418,-0.30223,-1.6012,-1.2952,0.028047,0,0,1.2909,-0.39781,0,0.072923,0,0,0.15517,-0.16991,0,0.23023,-0.30163,-1.6018,-1.2952,1.2363,-1.0662,1.1772,0.065022,0.38,0.7,0
0.39253,0.0092887,0.72092,-0.31363,-1.5131,-1.2689,0.027343,0,0,1.2419,-0.31737,0,0.071093,0,0,0.1687,-0.17163,0,0.24073,-0.31301,-1.5137,-1.2689,1.3053,-1.0319,1.0989,0.056929,0.4,0.7,0
0.41692,0.0043109,0.71743,-0.29889,-0.86413,-0.75246,0.024358,0,0,0.44787,-0.25808,0,0.27223,0,0,0.17722,-0.096928,0,0.21323,-0.28543,-0.8776,-0.75246,25.115,-0.6385,0.55079,0.026374,0.42,0.7,0
0.41044,0.0075435,0.68865,-0.29129,-0.28437,-0.25878,0.022084,0,0,-0.33812,-0.26613,0,0.45936,0,0,0.17981,-0.021413,0,0.18108,-0.26548,-0.31018,-0.25878,49.453,-0.27815,0.048405,-5.451e-06,0.44,0.7,0
0.4034,0.010607,0.65989,-0.28768,-0.27977,-0.25272,0.020455,0,0,-0.36359,-0.2813,0,0.42546,0,0,0.17927,-0.021043,0,0.1805,-0.26289,-0.30456,-0.25272,50.474,-0.27339,0.047576,-4.6901e-06,0.46,0.7,0
0.3959,0.013259,0.63129,-0.28368,-0.27507,-0.24654,0.018266,0,0,-0.38633,-0.29672,0,0.37993,0,0,0.17797,-0.020429,0,0.17914,-0.26061,-0.29814,-0.24654,51.636,-0.26843,0.046206,-3.5273e-06,0.48,0.7,0
0.38794,0.015373,0.60294,-0.27971,-0.2699,-0.24025,0.015881,0,0,-0.41042,-0.30832,0,0.33033,0,0,0.17624,-0.019605,0,0.17733,-0.25818,-0.29143,-0.24025,53.588,-0.26329,0.044978,-2.2943e-06,0.5,0.7,0
0.37948,0.016915,0.57489,-0.27601,-0.26415,-0.23391,0.013559,0,0,-0.43788,-0.31448,0,0.28202,0,0,0.17431,-0.018625,0,0.1753,-0.25528,-0.28488,-0.23391,56.816,-0.25802,0.044333,-1.2316e-06,0.52,0.7,0
0.37043,0.017914,0.54716,-0.27267,-0.25786,-0.22756,0.011445,0,0,-0.46922,-0.3152,0,0.23806,0,0,0.17237,-0.017544,0,0.17326,-0.25164,-0.2789,-0.22756,61.451,-0.2527,0.044494,-4.8453e-07,0.54,0.7,0
0.36071,0.018433,0.51973,-0.2697,-0.25115,-0.22122,0.0096047,0,0,-0.50418,-0.31127,0,0.19978,0,0,0.17054,-0.016414,0,0.17133,-0.24708,-0.27378,-0.22122,66.999,-0.24736,0.045517,-1.3578e-07,0.56,0.7,0
0.35026,0.018549,0.49259,-0.26707,-0.24414,-0.21494,0.0080483,0,0,-0.54217,-0.30374,0,0.16741,0,0,0.1689,-0.015275,0,0.16959,-0.2416,-0.26961,-0.21494,72.463,-0.24205,0.047355,-2.3314e-07,0.58,0.7,0
0.33902,0.018344,0.46569,-0.26473,-0.23695,-0.20871,0.0067582,0,0,-0.58254,-0.29365,0,0.14057,0,0,0.16748,-0.014152,0,0.16808,-0.23539,-0.26628,-0.20871,77.027,-0.2368,0.049902,-8.0646e-07,0.6,0.7,0
0.32696,0.017892,0.43899,-0.26264,-0.22967,-0.20257,0.0057027,0,0,-0.62474,-0.28188,0,0.11862,0,0,0.16631,-0.013062,0,0.16682,-0.22871,-0.2636,-0.20257,80.458,-0.23162,0.053034,-1.8765e-06,0.62,0.7,0
0.31403,0.017262,0.41247,-0.26077,-0.22238,-0.1965,0.0048457,0,0,-0.66834,-0.26916,0,0.10079,0,0,0.16538,-0.012009,0,0.16581,-0.22178,-0.26137,-0.1965,82.915,-0.22655,0.056629,-3.4598e-06,0.64,0.7,0
0.30023,0.016514,0.38607,-0.25909,-0.21515,-0.19053,0.0041514,0,0,-0.71301,-0.25604,0,0.086349,0,0,0.16469,-0.010993,0,0.16506,-0.21476,-0.25948,-0.19053,84.65,-0.22159,0.060583,-5.5722e-06,0.66,0.7,0
0.28551,0.015696,0.35977,-0.25759,-0.20801,-0.18465,0.0035865,0,0,-0.75857,-0.24292,0,0.074599,0,0,0.16424,-0.010008,0,0.16455,-0.20775,-0.25785,-0.18465,85.884,-0.21675,0.064812,-8.2314e-06,0.68,0.7,0
0.26988,0.014853,0.33352,-0.25625,-0.20099,-0.17886,0.0031223,0,0,-0.80487,-0.23013,0,0.064944,0,0,0.16403,-0.0090476,0,0.16427,-0.20081,-0.25643,-0.17886,86.777,-0.21204,0.069252,-1.1458e-05,0.7,0.7,0
0.25332,0.014017,0.30728,-0.25507,-0.19412,-0.17317,0.0027353,0,0,-0.85184,-0.21787,0,0.056894,0,0,0.16404,-0.0081019,0,0.16424,-0.19399,-0.2552,-0.17317,87.436,-0.20745,0.073854,-1.5276e-05,0.72,0.7,0
0.23581,0.013219,0.28102,-0.25405,-0.1874,-0.16756,0.0024081,0,0,-0.89945,-0.20632,0,0.050088,0,0,0.16427,-0.0071632,0,0.16443,-0.18731,-0.25414,-0.16756,87.933,-0.203,0.078581,-1.9714e-05,0.74,0.7,0
0.21734,0.012484,0.25471,-0.25317,-0.18086,-0.16205,0.0021297,0,0,-0.94766,-0.19563,0,0.044297,0,0,0.16473,-0.0062255,0,0.16485,-0.1808,-0.25323,-0.16205,88.314,-0.19869,0.083406,-2.4799e-05,0.76,0.7,0
0.1979,0.011833,0.22831,-0.25243,-0.17449,-0.15661,0.0018951,0,0,-0.99644,-0.18594,0,0.039418,0,0,0.16541,-0.0052867,0,0.1655,-0.17445,-0.25247,-0.15661,88.608,-0.19451,0.088302,-3.0558e-05,0.78,0.7,0
0.17748,0.011286,0.20178,-0.25181,-0.16831,-0.15126,0.0017048,0,0,-1.0457,-0.17737,0,0.035461,0,0,0.1663,-0.0043501,0,0.16636,-0.16828,-0.25184,-0.15126,88.831,-0.19046,0.093247,-3.7009e-05,0.8,0.7,0
0.15607,0.010861,0.17509,-0.25131,-0.16233,-0.14598,0.0015632,0,0,-1.0954,-0.17004,0,0.032514,0,0,0.16737,-0.0034272,0,0.16741,-0.1623,-0.25133,-0.14598,88.994,-0.18654,0.098219,-4.4168e-05,0.82,0.7,0
0.13367,0.010576,0.14822,-0.2509,-0.15653,-0.14076,0.0014762,0,0,-1.1455,-0.16404,0,0.030704,0,0,0.16861,-0.0025378,0,0.16863,-0.15651,-0.25092,-0.14076,89.104,-0.18273,0.1032,-5.2039e-05,0.84,0.7,0
0.11025,0.010448,0.12114,-0.25056,-0.15091,-0.13559,0.00145,0,0,-1.1958,-0.1594,0,0.03016,0,0,0.16994,-0.0017108,0,0.16995,-0.15089,-0.25059,-0.13559,89.166,-0.17902,0.10816,-6.0625e-05,0.86,0.7,0
0.085834,0.010491,0.09384,-0.25028,-0.14546,-0.13045,0.0014909,0,0,-1.2462,-0.15608,0,0.03101,0,0,0.1713,-0.00098021,0,0.1713,-0.14544,-0.2503,-0.13045,89.185,-0.1754,0.1131,-6.9931e-05,0.88,0.7,0
0.060405,0.01072,0.066325,-0.25002,-0.14015,-0.12534,0.0016055,0,0,-1.2967,-0.15402,0,0.033395,0,0,0.17257,-0.00037867,0,0.17257,-0.14013,-0.25005,-0.12534,89.163,-0.17184,0.11801,-7.9949e-05,0.9,0.7,0
0.033968,0.011153,0.038618,-0.24976,-0.13498,-0.12025,0.0018023,0,0,-1.3469,-0.15322,0,0.037489,0,0,0.17363,7.182e-05,0,0.17363,-0.13495,-0.24978,-0.12025,89.101,-0.16833,0.12284,-9.0629e-05,0.92,0.7,0
0.0065301,0.011809,0.010763,-0.2497,-0.21082,-0.14421,0.0019927,0,0,-0.73733,-0.15394,0,0.021479,0,0,0.17529,0.0016655,0,0.17531,-0.19107,-0.26945,-0.14421,46.153,-0.20157,0.11487,-3.227e-05,0.94,0.7,0
0.0044744,0.011834,0.0072334,-0.24925,-0.28619,-0.16787,0.0018213,0,0,-0.1058,-0.15382,0,0.0047355,0,0,0.17819,0.0026955,0,0.17822,-0.24916,-0.28628,-0.16787,2.8162,-0.23444,0.1049,3.5241e-05,0.96,0.7,0
0.002298,0.011861,0.0036356,-0.24879,-0.28158,-0.16275,0.0011151,0,0,-0.11186,-0.15448,0,0.0028992,0,0,0.18084,0.0015876,0,0.18085,-0.24876,-0.28162,-0.16275,1.9457,-0.23104,0.10632,4.2427e-05,0.98,0.7,0
0,0.011873,0,-0.244,-0.27473,-0.15562,0.0002254,0,0,-0.1149,-0.15484,0,0.00058605,0,0,0.18178,-2.3852e-18,0,0.18178,-0.244,-0.27473,-0.15562,0.42028,-0.22478,0.10711,4.603e-05,1,0.7,0
0,0.01218,1,-0.35898,-2.1957,-1.7664,-0.00085432,0,0,1.8296,-0.55803,0,-0.0022212,0,0,0.18071,-1.8362e-15,0,0.18068,-0.35898,-2.1957,-1.7664,-0.026651,-1.4403,1.6641,0.18464,0,0.72,0
0.036593,0.012136,0.99639,-0.35073,-2.19,-1.7586,-0.0068826,0,0,1.8302,-0.56082,0,-0.017895,0,0,0.17438,0.0034354,0,0.17453,-0.3507,-2.19,-1.7586,-0.2144,-1.4331,1.6661,0.1849,0.02,0.72,0
0.07321,0.012038,0.99303,-0.34016,-2.1844,-1.7504,-0.011095,0,0,1.8333,-0.5642,0,-0.028847,0,0,0.15688,0.0056213,0,0.15744,-0.34009,-2.1845,-1.7504,-0.34468,-1.425,1.6702,0.1859,0.04,0.72,0
0.10992,0.011918,0.99011,-0.29634,-1.2697,-1.0268,-0.012916,0,0,1.1713,-0.56155,0,-0.15137,0,0,0.13816,0.003138,0,0.13858,-0.29549,-1.2706,-1.0268,-3.7361,-0.86428,0.88123,0.093287,0.06,0.72,0
0.12006,0.0070829,0.96921,-0.26604,-0.40747,-0.32321,-0.012193,0,0,0.59452,-0.8764,0,-0.25362,0,0,0.12843,-0.00083818,0,0.12845,-0.265,-0.40852,-0.32321,-4.8915,-0.33224,0.12503,-3.213e-05,0.08,0.72,0
0.1337,0.0029171,0.94901,-0.25186,-0.43076,-0.32341,-0.0099447,0,0,0.74413,-1.1164,0,-0.20685,0,0,0.12391,-0.0027059,0,0.12396,-0.25131,-0.43131,-0.32341,-3.172,-0.33534,0.15691,-6.6712e-05,0.1,0.72,0
0.14983,-0.00041723,0.92956,-0.24069,-0.44477,-0.32183,-0.0074186,0,0,0.84384,-1.2785,0,-0.15431,0,0,0.11943,-0.0048216,0,0.11955,-0.24042,-0.44503,-0.32183,-2.0792,-0.33576,0.17843,-0.00010063,0.12,0.72,0
0.16746,-0.0029727,0.9108,-0.23244,-0.45161,-0.31906,-0.0050551,0,0,0.90089,-1.3785,0,-0.10515,0,0,0.11547,-0.0070642,0,0.1157,-0.23232,-0.45172,-0.31906,-1.3206,-0.33437,0.19139,-0.0001271,0.14,0.72,0
0.18586,-0.0048476,0.89261,-0.22639,-0.45341,-0.31551,-0.0028185,0,0,0.92694,-1.4341,0,-0.058624,0,0,0.11228,-0.0093356,0,0.11268,-0.22635,-0.45345,-0.31551,-0.71117,-0.33177,0.19817,-0.00014457,0.16,0.72,0
0.20454,-0.0060999,0.87486,-0.22182,-0.45156,-0.31137,-0.0005466,0,0,0.93132,-1.458,0,-0.011369,0,0,0.10994,-0.011577,0,0.11055,-0.22182,-0.45156,-0.31137,-0.13632,-0.32825,0.20057,-0.0001536,0.18,0.72,0
0.22312,-0.0067317,0.85743,-0.21833,-0.4468,-0.30672,0.0018924,0,0,0.91926,-1.4569,0,0.039362,0,0,0.10844,-0.01376,0,0.1093,-0.21831,-0.44682,-0.30672,0.47452,-0.32395,0.19957,-0.00015508,0.2,0.72,0
0.24131,-0.0067024,0.84017,-0.21577,-0.43941,-0.30157,0.0045846,0,0,0.8924,-1.4335,0,0.095359,0,0,0.10775,-0.015859,0,0.10891,-0.21567,-0.43951,-0.30157,1.1739,-0.31892,0.19558,-0.00014972,0.22,0.72,0
0.25881,-0.0059374,0.82295,-0.21427,-0.42929,-0.29594,0.0076111,0,0,0.84938,-1.3869,0,0.15831,0,0,0.10789,-0.017841,0,0.10935,-0.214,-0.42956,-0.29594,2.0246,-0.31317,0.18847,-0.00013789,0.24,0.72,0
0.27528,-0.0043289,0.80564,-0.21419,-0.41597,-0.28975,0.011076,0,0,0.78587,-1.3127,0,0.23037,0,0,0.10884,-0.019652,0,0.1106,-0.21358,-0.41658,-0.28975,3.1323,-0.30664,0.17761,-0.00011977,0.26,0.72,0
0.29025,-0.0017377,0.78812,-0.21611,-0.39852,-0.2829,0.015055,0,0,0.69464,-1.2024,0,0.31315,0,0,0.11056,-0.021208,0,0.11258,-0.21488,-0.39975,-0.2829,4.6868,-0.29918,0.16196,-9.5668e-05,0.28,0.72,0
0.30307,0.0019683,0.77026,-0.22059,-0.3756,-0.27514,0.019431,0,0,0.56732,-1.0448,0,0.40417,0,0,0.11292,-0.022407,0,0.11513,-0.21819,-0.378,-0.27514,7.0373,-0.29044,0.14029,-6.7127e-05,0.3,0.72,0
0.31294,0.0068124,0.75198,-0.22777,-0.3461,-0.26616,0.023592,0,0,0.39927,-0.83142,0,0.49072,0,0,0.11564,-0.023173,0,0.11795,-0.22324,-0.35063,-0.26616,10.87,-0.28001,0.11227,-3.8505e-05,0.32,0.72,0
0.31904,0.012546,0.73326,-0.26093,-1.0518,-0.80627,0.029578,0,0,0.84233,-0.56736,0,0.31437,0,0,0.12284,-0.1059,0,0.17375,-0.25684,-1.0558,-0.80627,8.605,-0.70632,0.71096,0.039788,0.34,0.72,0
0.34663,0.0091425,0.73068,-0.28731,-1.7014,-1.3273,0.041444,0,0,1.352,-0.48632,0,0.10775,0,0,0.13813,-0.18753,0,0.23311,-0.2861,-1.7026,-1.3273,1.6773,-1.1053,1.2711,0.075303,0.36,0.72,0
0.37312,0.0061317,0.72773,-0.30307,-1.6016,-1.2991,0.046477,0,0,1.2949,-0.39321,0,0.12084,0,0,0.15541,-0.18543,0,0.24206,-0.30141,-1.6033,-1.2991,2.0473,-1.0679,1.1796,0.065779,0.38,0.72,0
0.39843,0.0030189,0.72447,-0.31559,-1.5043,-1.2704,0.038874,0,0,1.2413,-0.30403,0,0.10107,0,0,0.1692,-0.18297,0,0.24927,-0.31432,-1.5056,-1.2704,1.8711,-1.0301,1.0928,0.056711,0.4,0.72,0
0.42277,-0.00073776,0.72096,-0.30077,-0.85496,-0.75226,0.025255,0,0,0.43583,-0.23736,0,0.25146,0,0,0.17791,-0.10184,0,0.217,-0.28724,-0.8685,-0.75226,26.838,-0.636,0.54345,0.025954,0.42,0.72,0
0.41586,0.0024345,0.69206,-0.29418,-0.2826,-0.25954,0.018614,0,0,-0.36026,-0.23979,0,0.38718,0,0,0.18061,-0.021234,0,0.18185,-0.2689,-0.30789,-0.25954,53.641,-0.27877,0.044411,-3.8347e-06,0.44,0.72,0
0.40836,0.0052562,0.66317,-0.29047,-0.27759,-0.25331,0.016388,0,0,-0.3864,-0.25247,0,0.34087,0,0,0.18013,-0.01996,0,0.18123,-0.26642,-0.30163,-0.25331,55.725,-0.27379,0.043283,-2.9133e-06,0.46,0.72,0
0.40041,0.0076226,0.63442,-0.28627,-0.27276,-0.24701,0.014141,0,0,-0.40827,-0.26782,0,0.29413,0,0,0.1789,-0.018783,0,0.17989,-0.26385,-0.29519,-0.24701,57.762,-0.26868,0.042346,-1.9258e-06,0.48,0.72,0
0.39203,0.0094997,0.60592,-0.28206,-0.26768,-0.24066,0.012011,0,0,-0.43056,-0.28097,0,0.24982,0,0,0.17722,-0.017675,0,0.17811,-0.26087,-0.28887,-0.24066,60.456,-0.26347,0.04193,-1.0429e-06,0.5,0.72,0
0.38318,0.010897,0.57771,-0.27811,-0.26213,-0.23429,0.010074,0,0,-0.45578,-0.2896,0,0.20953,0,0,0.17533,-0.016619,0,0.17612,-0.25727,-0.28298,-0.23429,64.209,-0.25818,0.042191,-3.7471e-07,0.52,0.72,0
0.3738,0.011853,0.54981,-0.27454,-0.25611,-0.22792,0.0083683,0,0,-0.48485,-0.29314,0,0.17406,0,0,0.17341,-0.015609,0,0.17411,-0.25288,-0.27777,-0.22792,68.881,-0.25286,0.043173,8.0279e-09,0.54,0.72,0
0.36379,0.012421,0.52222,-0.27137,-0.24966,-0.22159,0.0069064,0,0,-0.51772,-0.29201,0,0.14365,0,0,0.17158,-0.014641,0,0.1722,-0.24765,-0.27338,-0.22159,73.763,-0.24754,0.044854,5.2796e-08,0.56,0.72,0
0.35309,0.01266,0.49491,-0.26857,-0.24291,-0.21531,0.0056811,0,0,-0.55391,-0.28707,0,0.11817,0,0,0.16991,-0.013716,0,0.17047,-0.24171,-0.26977,-0.21531,78.057,-0.24226,0.047173,-2.8457e-07,0.58,0.72,0
0.34163,0.012632,0.46785,-0.2661,-0.23594,-0.20909,0.0046745,0,0,-0.59283,-0.27925,0,0.097229,0,0,0.16847,-0.012833,0,0.16895,-0.23523,-0.2668,-0.20909,81.386,-0.23704,0.050052,-1.0428e-06,0.6,0.72,0
0.32937,0.012395,0.441,-0.26391,-0.22886,-0.20296,0.0038625,0,0,-0.63389,-0.26943,0,0.080341,0,0,0.16725,-0.011992,0,0.16768,-0.22844,-0.26433,-0.20296,83.784,-0.23191,0.053404,-2.2562e-06,0.62,0.72,0
0.31628,0.012002,0.41432,-0.26197,-0.22174,-0.1969,0.0032186,0,0,-0.67666,-0.25832,0,0.066947,0,0,0.16629,-0.011187,0,0.16667,-0.22149,-0.26222,-0.1969,85.454,-0.22687,0.057142,-3.9555e-06,0.64,0.72,0
0.30231,0.011503,0.38779,-0.26025,-0.21464,-0.19094,0.0027155,0,0,-0.72078,-0.24649,0,0.056483,0,0,0.16557,-0.010414,0,0.1659,-0.21448,-0.26041,-0.19094,86.604,-0.22194,0.061193,-6.1699e-06,0.66,0.72,0
0.28745,0.010937,0.36134,-0.25872,-0.2076,-0.18507,0.0023272,0,0,-0.76601,-0.23441,0,0.048406,0,0,0.1651,-0.0096675,0,0.16538,-0.2075,-0.25883,-0.18507,87.399,-0.21713,0.065492,-8.9281e-06,0.68,0.72,0
0.27167,0.010341,0.33495,-0.25738,-0.20067,-0.17928,0.0020297,0,0,-0.81217,-0.2224,0,0.042217,0,0,0.16487,-0.0089398,0,0.16511,-0.20059,-0.25745,-0.17928,87.953,-0.21244,0.069988,-1.226e-05,0.7,0.72,0
0.25496,0.009744,0.30858,-0.2562,-0.19385,-0.17359,0.0018021,0,0,-0.85916,-0.21074,0,0.037484,0,0,0.16487,-0.008224,0,0.16507,-0.1938,-0.25625,-0.17359,88.346,-0.20788,0.074639,-1.6194e-05,0.72,0.72,0
0.2373,0.0091719,0.2822,-0.25518,-0.18718,-0.16798,0.0016275,0,0,-0.90687,-0.19967,0,0.033853,0,0,0.1651,-0.0075128,0,0.16527,-0.18715,-0.25522,-0.16798,88.63,-0.20345,0.079411,-2.0759e-05,0.74,0.72,0
0.21868,0.0086457,0.25575,-0.25432,-0.18068,-0.16247,0.0014935,0,0,-0.95522,-0.18938,0,0.031064,0,0,0.16556,-0.0067995,0,0.1657,-0.18065,-0.25434,-0.16247,88.839,-0.19915,0.084272,-2.5981e-05,0.76,0.72,0
0.19909,0.0081836,0.22922,-0.25358,-0.17435,-0.15703,0.0013921,0,0,-1.0041,-0.18008,0,0.028956,0,0,0.16624,-0.0060787,0,0.16635,-0.17432,-0.2536,-0.15703,88.994,-0.19498,0.089194,-3.1877e-05,0.78,0.72,0
0.17852,0.0078023,0.20256,-0.25296,-0.1682,-0.15167,0.0013204,0,0,-1.0534,-0.17195,0,0.027463,0,0,0.16713,-0.0053464,0,0.16722,-0.16818,-0.25298,-0.15167,89.108,-0.19095,0.09415,-3.8456e-05,0.8,0.72,0
0.15696,0.0075176,0.17574,-0.25244,-0.16226,-0.14638,0.0012791,0,0,-1.1031,-0.16513,0,0.026606,0,0,0.1682,-0.0046015,0,0.16826,-0.16224,-0.25246,-0.14638,89.188,-0.18703,0.099113,-4.5719e-05,0.82,0.72,0
0.13439,0.007345,0.14873,-0.25201,-0.1565,-0.14114,0.0012725,0,0,-1.153,-0.15973,0,0.026468,0,0,0.16941,-0.0038457,0,0.16946,-0.15649,-0.25203,-0.14114,89.237,-0.18322,0.10406,-5.3659e-05,0.84,0.72,0
0.11084,0.0073006,0.12152,-0.25163,-0.15094,-0.13596,0.0013061,0,0,-1.203,-0.15577,0,0.027167,0,0,0.1707,-0.0030844,0,0.17073,-0.15092,-0.25165,-0.13596,89.257,-0.17951,0.10898,-6.2271e-05,0.86,0.72,0
0.086276,0.0074007,0.094107,-0.2513,-0.14555,-0.13082,0.0013857,0,0,-1.253,-0.15321,0,0.028822,0,0,0.172,-0.002326,0,0.17202,-0.14553,-0.25132,-0.13082,89.249,-0.17589,0.11386,-7.1556e-05,0.88,0.72,0
0.060716,0.0076619,0.066485,-0.25099,-0.14031,-0.1257,0.0015154,0,0,-1.303,-0.15195,0,0.03152,0,0,0.17319,-0.0015802,0,0.1732,-0.14029,-0.25101,-0.1257,89.216,-0.17233,0.11869,-8.151e-05,0.9,0.72,0
0.034157,0.0081008,0.038685,-0.25067,-0.13521,-0.1206,0.0016959,0,0,-1.3527,-0.15195,0,0.035275,0,0,0.17417,-0.00085587,0,0.17418,-0.13518,-0.25069,-0.1206,89.159,-0.16883,0.12345,-9.2094e-05,0.92,0.72,0
0.0066068,0.0087328,0.010749,-0.25066,-0.21089,-0.14451,0.0017589,0,0,-0.74066,-0.15341,0,0.019808,0,0,0.17563,-0.00071298,0,0.17564,-0.19175,-0.2698,-0.14451,45.973,-0.20202,0.11506,-3.2265e-05,0.94,0.72,0
0.0045308,0.0087643,0.007216,-0.25031,-0.28576,-0.16803,0.0013889,0,0,-0.10695,-0.15304,0,0.0036112,0,0,0.17813,-0.00068934,0,0.17814,-0.25025,-0.28581,-0.16803,2.2403,-0.2347,0.10463,3.6744e-05,0.96,0.72,0
0.0023286,0.0087863,0.0036242,-0.24993,-0.28066,-0.1628,0.00075043,0,0,-0.11327,-0.15322,0,0.0019511,0,0,0.1804,-0.00029258,0,0.1804,-0.24991,-0.28068,-0.1628,1.3981,-0.23113,0.1059,4.409e-05,0.98,0.72,0
0,0.0087943,0,-0.24521,-0.27361,-0.15565,0.00015522,0,0,-0.11643,-0.15336,0,0.00040356,0,0,0.18121,-7.9689e-18,0,0.18121,-0.24521,-0.27362,-0.15565,0.31308,-0.22482,0.10664,4.7707e-05,1,0.72,0
0,0.0011485,1,-0.38021,-2.1749,-1.7665,-0.0025722,0,0,1.8022,-0.53083,0,-0.0066878,0,0,0.19101,-2.0131e-15,0,0.19082,-0.38021,-2.1749,-1.7665,-0.082121,-1.4405,1.6293,0.17599,0,0.74,0
0.036044,0.0010147,0.99618,-0.36882,-2.1754,-1.7595,-0.021334,0,0,1.8078,-0.54077,0,-0.055468,0,0,0.18325,0.018648,0,0.18424,-0.36857,-2.1757,-1.7595,-0.67647,-1.4346,1.6391,0.17796,0.02,0.74,0
0.072313,0.00079,0.99267,-0.35335,-2.1837,-1.7538,-0.032149,0,0,1.8205,-0.55886,0,-0.083586,0,0,0.16179,0.032656,0,0.16566,-0.35279,-2.1842,-1.7538,-1.006,-1.4303,1.6587,0.18223,0.04,0.74,0
0.10887,0.00072023,0.98971,-0.30086,-1.2697,-1.0279,-0.033031,0,0,1.1642,-0.55889,0,-0.37135,0,0,0.13884,0.021364,0,0.14177,-0.29609,-1.2745,-1.0279,-8.4473,-0.86615,0.8839,0.092176,0.06,0.74,0
0.11888,-0.010596,0.96897,-0.26775,-0.41233,-0.32515,-0.029028,0,0,0.5969,-0.90671,0,-0.60379,0,0,0.12703,0.0042464,0,0.12713,-0.26214,-0.41794,-0.32515,-10.939,-0.33508,0.13575,-4.161e-05,0.08,0.74,0
0.13274,-0.019613,0.94906,-0.25233,-0.43582,-0.32508,-0.022564,0,0,0.75661,-1.1518,0,-0.46933,0,0,0.12186,0.0024415,0,0.12191,-0.24959,-0.43856,-0.32508,-6.9084,-0.33774,0.16475,-7.804e-05,0.1,0.74,0
0.14914,-0.026175,0.92998,-0.24068,-0.44869,-0.32306,-0.016454,0,0,0.85675,-1.3066,0,-0.34225,0,0,0.11695,-0.00026864,0,0.11697,-0.23938,-0.44998,-0.32306,-4.495,-0.33747,0.18366,-0.00011032,0.12,0.74,0
0.16701,-0.03071,0.91163,-0.23233,-0.45472,-0.32007,-0.011646,0,0,0.91251,-1.4004,0,-0.24224,0,0,0.11281,-0.0033999,0,0.11286,-0.23172,-0.45533,-0.32007,-2.9895,-0.33571,0.19507,-0.00013487,0.14,0.74,0
0.18565,-0.033696,0.89388,-0.22614,-0.45622,-0.31644,-0.0078314,0,0,0.93915,-1.4537,0,-0.16289,0,0,0.10959,-0.0065984,0,0.10979,-0.22587,-0.45648,-0.31644,-1.9472,-0.33293,0.20124,-0.00015124,0.16,0.74,0
0.20458,-0.035437,0.87656,-0.22136,-0.45436,-0.31229,-0.0044651,0,0,0.94563,-1.4776,0,-0.092875,0,0,0.1073,-0.0097164,0,0.10774,-0.22128,-0.45445,-0.31229,-1.0975,-0.32934,0.20355,-0.00015983,0.18,0.74,0
0.22347,-0.036065,0.85954,-0.21764,-0.44977,-0.30767,-0.0011494,0,0,0.93627,-1.4779,0,-0.023907,0,0,0.10589,-0.012723,0,0.10664,-0.21763,-0.44978,-0.30767,-0.28368,-0.32503,0.20272,-0.00016126,0.2,0.74,0
0.24203,-0.035589,0.84268,-0.21486,-0.4427,-0.3026,0.0024083,0,0,0.9125,-1.457,0,0.050093,0,0,0.10531,-0.01563,0,0.10645,-0.21484,-0.44272,-0.3026,0.60556,-0.32005,0.19908,-0.00015617,0.22,0.74,0
0.25997,-0.03392,0.82584,-0.21309,-0.43306,-0.29707,0.0064888,0,0,0.87346,-1.4142,0,0.13497,0,0,0.10558,-0.018448,0,0.10717,-0.2129,-0.43325,-0.29707,1.6882,-0.31441,0.19259,-0.00014498,0.24,0.74,0
0.27697,-0.030866,0.8089,-0.21263,-0.42048,-0.29104,0.01143,0,0,0.81555,-1.3461,0,0.23774,0,0,0.10675,-0.021146,0,0.10882,-0.212,-0.42111,-0.29104,3.1381,-0.30805,0.18288,-0.00012805,0.26,0.74,0
0.29259,-0.026119,0.79168,-0.21408,-0.40409,-0.28441,0.017608,0,0,0.73142,-1.2446,0,0.36625,0,0,0.10884,-0.023591,0,0.11137,-0.21246,-0.4057,-0.28441,5.2502,-0.30086,0.16916,-0.0001057,0.28,0.74,0
0.30622,-0.019294,0.77407,-0.21835,-0.38222,-0.27693,0.02507,0,0,0.60924,-1.095,0,0.52146,0,0,0.11174,-0.025494,0,0.11462,-0.2146,-0.38597,-0.27693,8.5063,-0.2925,0.15024,-7.8609e-05,0.3,0.74,0
0.31696,-0.010138,0.75593,-0.22579,-0.35233,-0.26793,0.032795,0,0,0.43822,-0.87777,0,0.68214,0,0,0.11509,-0.026515,0,0.11812,-0.21779,-0.36032,-0.26793,13.7,-0.28201,0.12523,-4.9123e-05,0.32,0.74,0
0.32375,0.0010483,0.73724,-0.26126,-1.0676,-0.81336,0.043209,0,0,0.86629,-0.58762,0,0.4501,0,0,0.12359,-0.11922,0,0.18435,-0.25375,-1.0751,-0.81336,10.871,-0.71408,0.72959,0.040948,0.34,0.74,0
0.35161,-0.00064213,0.73463,-0.289,-1.7159,-1.3361,0.061364,0,0,1.3612,-0.49371,0,0.15954,0,0,0.14104,-0.2086,0,0.25203,-0.28636,-1.7185,-1.3361,2.458,-1.1137,1.2844,0.077175,0.36,0.74,0
0.3782,-0.0016673,0.7316,-0.30608,-1.5976,-1.3027,0.066627,0,0,1.2956,-0.38333,0,0.17323,0,0,0.15974,-0.20121,0,0.25701,-0.30265,-1.601,-1.3027,2.9455,-1.0688,1.1779,0.066129,0.38,0.74,0
0.40344,-0.0028724,0.72824,-0.32023,-1.4839,-1.2695,0.050935,0,0,1.234,-0.27876,0,0.13243,0,0,0.17308,-0.19355,0,0.25968,-0.31801,-1.4861,-1.2695,2.5015,-1.0245,1.0763,0.055388,0.4,0.74,0
0.42756,-0.0051833,0.72467,-0.30326,-0.83425,-0.74888,0.025783,0,0,0.41239,-0.19729,0,0.22507,0,0,0.18052,-0.10611,0,0.2219,-0.28854,-0.84896,-0.74888,30.162,-0.62879,0.52893,0.024742,0.42,0.74,0
0.41993,-0.0020483,0.69545,-0.29819,-0.28003,-0.2604,0.014666,0,0,-0.39303,-0.2042,0,0.30505,0,0,0.18249,-0.020926,0,0.18368,-0.27186,-0.30636,-0.2604,60.879,-0.27954,0.041436,-2.7328e-06,0.44,0.74,0
0.41184,0.00050799,0.66628,-0.29368,-0.2753,-0.25398,0.011875,0,0,-0.41288,-0.22172,0,0.247,0,0,0.18172,-0.018783,0,0.18269,-0.26947,-0.2995,-0.25398,63.869,-0.27432,0.040091,-1.7214e-06,0.46,0.74,0
0.40342,0.0025463,0.6373,-0.28884,-0.27074,-0.24753,0.0096327,0,0,-0.42955,-0.2413,0,0.20036,0,0,0.18026,-0.017071,0,0.18107,-0.26657,-0.293,-0.24753,66.608,-0.26904,0.039551,-8.8141e-07,0.48,0.74,0
0.39466,0.0041341,0.60859,-0.28414,-0.2659,-0.24109,0.0078148,0,0,-0.44778,-0.25802,0,0.16255,0,0,0.1784,-0.015695,0,0.17909,-0.26301,-0.28703,-0.24109,69.709,-0.26371,0.039804,-2.5664e-07,0.5,0.74,0
0.38551,0.0053311,0.58021,-0.27983,-0.26059,-0.23465,0.0063163,0,0,-0.46986,-0.26972,0,0.13138,0,0,0.17637,-0.01457,0,0.17698,-0.2587,-0.28172,-0.23465,73.358,-0.25836,0.040764,1.3153e-07,0.52,0.74,0
0.37587,0.0061884,0.55215,-0.27598,-0.25478,-0.22825,0.0050675,0,0,-0.49642,-0.27596,0,0.1054,0,0,0.17435,-0.013631,0,0.17488,-0.25363,-0.27713,-0.22825,77.224,-0.253,0.042343,2.608e-07,0.54,0.74,0
0.36565,0.0067523,0.52442,-0.27259,-0.24855,-0.2219,0.0040271,0,0,-0.52726,-0.27723,0,0.083765,0,0,0.17243,-0.012825,0,0.17291,-0.2479,-0.27325,-0.2219,80.739,-0.24768,0.044476,9.8405e-08,0.56,0.74,0
0.35478,0.0070664,0.49698,-0.26963,-0.242,-0.21561,0.0031706,0,0,-0.56179,-0.27442,0,0.065948,0,0,0.17071,-0.012114,0,0.17114,-0.24164,-0.26999,-0.21561,83.537,-0.24241,0.047107,-3.9669e-07,0.58,0.74,0
0.34318,0.0071735,0.46979,-0.26703,-0.23521,-0.20939,0.0024804,0,0,-0.59935,-0.26849,0,0.051591,0,0,0.16921,-0.011474,0,0.1696,-0.23502,-0.26722,-0.20939,85.569,-0.23721,0.050183,-1.2683e-06,0.6,0.74,0
0.3308,0.0071149,0.44283,-0.26474,-0.22829,-0.20326,0.0019406,0,0,-0.63935,-0.26029,0,0.040365,0,0,0.16795,-0.010884,0,0.16831,-0.22819,-0.26484,-0.20326,86.961,-0.2321,0.05365,-2.5595e-06,0.62,0.74,0
0.3176,0.0069297,0.41605,-0.26272,-0.22131,-0.19722,0.0015348,0,0,-0.68129,-0.25056,0,0.031923,0,0,0.16695,-0.010332,0,0.16728,-0.22125,-0.26278,-0.19722,87.881,-0.22708,0.057451,-4.3112e-06,0.64,0.74,0
0.30355,0.006654,0.38941,-0.26095,-0.21432,-0.19126,0.0012448,0,0,-0.72481,-0.23987,0,0.025891,0,0,0.16621,-0.0098095,0,0.1665,-0.21429,-0.26098,-0.19126,88.472,-0.22218,0.061533,-6.5628e-06,0.66,0.74,0
0.28861,0.0063203,0.36286,-0.25939,-0.20738,-0.18539,0.0010516,0,0,-0.76965,-0.22868,0,0.021872,0,0,0.16572,-0.0093075,0,0.16598,-0.20736,-0.25942,-0.18539,88.842,-0.21739,0.065851,-9.353e-06,0.68,0.74,0
0.27276,0.0059568,0.33638,-0.25804,-0.20051,-0.17961,0.00093587,0,0,-0.81562,-0.21736,0,0.019466,0,0,0.16547,-0.0088203,0,0.1657,-0.2005,-0.25805,-0.17961,89.068,-0.21272,0.070362,-1.272e-05,0.7,0.74,0
0.25599,0.0055876,0.30991,-0.25686,-0.19375,-0.17392,0.00087919,0,0,-0.86257,-0.20622,0,0.018287,0,0,0.16546,-0.0083416,0,0.16567,-0.19374,-0.25688,-0.17392,89.202,-0.20818,0.075033,-1.6701e-05,0.72,0.74,0
0.23826,0.0052327,0.28343,-0.25586,-0.18712,-0.16832,0.00086463,0,0,-0.91038,-0.1955,0,0.017984,0,0,0.1657,-0.0078647,0,0.16588,-0.18711,-0.25587,-0.16832,89.279,-0.20377,0.07983,-2.133e-05,0.74,0.74,0
0.21957,0.0049088,0.25689,-0.25501,-0.18064,-0.16281,0.00087792,0,0,-0.95894,-0.18547,0,0.018261,0,0,0.16617,-0.0073818,0,0.16633,-0.18063,-0.25502,-0.16281,89.324,-0.19949,0.084722,-2.6633e-05,0.76,0.74,0
0.1999,0.0046297,0.23025,-0.2543,-0.17433,-0.15737,0.00090822,0,0,-1.0081,-0.17635,0,0.018891,0,0,0.16686,-0.0068831,0,0.167,-0.17432,-0.25431,-0.15737,89.35,-0.19533,0.089679,-3.2628e-05,0.78,0.74,0
0.17925,0.0044081,0.20349,-0.25372,-0.1682,-0.15201,0.00094906,0,0,-1.0577,-0.16837,0,0.01974,0,0,0.16778,-0.0063566,0,0.1679,-0.16819,-0.25373,-0.15201,89.364,-0.19131,0.094668,-3.9319e-05,0.8,0.74,0
0.15759,0.0042562,0.17657,-0.25322,-0.16227,-0.14672,0.00099888,0,0,-1.1077,-0.16174,0,0.020777,0,0,0.16887,-0.0057878,0,0.16897,-0.16226,-0.25324,-0.14672,89.371,-0.1874,0.099659,-4.6696e-05,0.82,0.74,0
0.13494,0.0041873,0.14945,-0.25281,-0.15654,-0.14149,0.0010611,0,0,-1.1578,-0.15659,0,0.02207,0,0,0.17012,-0.0051601,0,0.1702,-0.15653,-0.25282,-0.14149,89.369,-0.18361,0.10462,-5.4743e-05,0.84,0.74,0
0.11128,0.0042168,0.12213,-0.25245,-0.15101,-0.1363,0.0011425,0,0,-1.2079,-0.15299,0,0.023765,0,0,0.17146,-0.0044557,0,0.17152,-0.151,-0.25246,-0.1363,89.355,-0.17992,0.10955,-6.3443e-05,0.86,0.74,0
0.086626,0.0043623,0.094584,-0.25211,-0.14566,-0.13116,0.001251,0,0,-1.258,-0.15086,0,0.026021,0,0,0.1728,-0.0036589,0,0.17284,-0.14565,-0.25213,-0.13116,89.327,-0.17631,0.11442,-7.2789e-05,0.88,0.74,0
0.060966,0.0046425,0.066831,-0.2518,-0.14046,-0.12603,0.0013905,0,0,-1.3079,-0.1501,0,0.028923,0,0,0.17404,-0.002759,0,0.17406,-0.14045,-0.25181,-0.12603,89.284,-0.17276,0.11923,-8.2776e-05,0.9,0.74,0
0.034308,0.0050751,0.038892,-0.25147,-0.1354,-0.12092,0.0015568,0,0,-1.3577,-0.15059,0,0.032381,0,0,0.17505,-0.0017546,0,0.17506,-0.13538,-0.25149,-0.12092,89.232,-0.16926,0.12397,-9.3381e-05,0.92,0.74,0
0.0066589,0.0056726,0.010814,-0.25144,-0.21068,-0.14472,0.0015268,0,0,-0.74356,-0.15245,0,0.017906,0,0,0.17657,-0.0029612,0,0.17661,-0.19227,-0.26986,-0.14472,45.813,-0.20228,0.11509,-3.2296e-05,0.94,0.74,0
0.0045654,0.0057122,0.007261,-0.25106,-0.28514,-0.16812,0.001026,0,0,-0.10782,-0.15213,0,0.0026675,0,0,0.17916,-0.0038757,0,0.17921,-0.25103,-0.28517,-0.16812,1.7228,-0.23478,0.10426,3.786e-05,0.96,0.74,0
0.002346,0.0057323,0.0036473,-0.25067,-0.28008,-0.16287,0.00045488,0,0,-0.11414,-0.15237,0,0.0011827,0,0,0.18152,-0.0020587,0,0.18154,-0.25066,-0.28008,-0.16287,0.8859,-0.23121,0.10562,4.5057e-05,0.98,0.74,0
0,0.0057385,0,-0.24591,-0.27301,-0.15568,0.00011844,0,0,-0.1173,-0.15254,0,0.00030796,0,0,0.18237,2.9274e-18,0,0.18236,-0.24591,-0.27301,-0.15568,0.25038,-0.22486,0.1064,4.8602e-05,1,0.74,0
0,-0.009053,1,-0.4298,-2.1224,-1.7656,-0.0084987,0,0,1.7366,-0.46375,0,-0.022097,0,0,0.218,1.7104e-15,0,0.21739,-0.42975,-2.1224,-1.7656,-0.28768,-1.4393,1.5455,0.15607,0,0.76,0
0.034732,-0.009495,0.99564,-0.41217,-2.1404,-1.7614,-0.049249,0,0,1.754,-0.49269,0,-0.12805,0,0,0.20703,0.038573,0,0.21041,-0.41076,-2.1418,-1.7614,-1.631,-1.438,1.5757,0.16212,0.02,0.76,0
0.070161,-0.010317,0.99172,-0.383,-2.1856,-1.7623,-0.068745,0,0,1.7931,-0.55031,0,-0.17874,0,0,0.17621,0.068896,0,0.19013,-0.38038,-2.1882,-1.7623,-2.1808,-1.4436,1.637,0.17492,0.04,0.76,0
0.10646,-0.010438,0.98859,-0.31155,-1.2784,-1.0331,-0.061718,0,0,1.1521,-0.56699,0,-0.64746,0,0,0.14299,0.046413,0,0.15417,-0.29873,-1.2912,-1.0331,-12.716,-0.87434,0.89496,0.090778,0.06,0.76,0
0.11624,-0.029185,0.96785,-0.27197,-0.42408,-0.3298,-0.047801,0,0,0.60137,-0.98054,0,-0.99425,0,0,0.12612,0.010777,0,0.12664,-0.2582,-0.43785,-0.3298,-16.075,-0.34195,0.15665,-6.7681e-05,0.08,0.76,0
0.13051,-0.043153,0.94823,-0.2538,-0.44543,-0.3283,-0.035534,0,0,0.77478,-1.2182,0,-0.7391,0,0,0.1194,0.0085376,0,0.11974,-0.24742,-0.45181,-0.3283,-10.174,-0.34251,0.17828,-0.00010241,0.1,0.76,0
0.14724,-0.05268,0.92965,-0.24171,-0.45533,-0.32532,-0.025554,0,0,0.8695,-1.3521,0,-0.53152,0,0,0.11359,0.0046048,0,0.1137,-0.2387,-0.45835,-0.32532,-6.7275,-0.34079,0.19163,-0.00012872,0.12,0.76,0
0.16529,-0.058989,0.91188,-0.23331,-0.45963,-0.32187,-0.01847,0,0,0.92101,-1.4327,0,-0.38417,0,0,0.10915,0.00025869,0,0.10915,-0.23181,-0.46112,-0.32187,-4.635,-0.33827,0.20011,-0.00014873,0.14,0.76,0
0.18407,-0.062994,0.89472,-0.22689,-0.4603,-0.318,-0.013126,0,0,0.94748,-1.4799,0,-0.27303,0,0,0.10597,-0.0039744,0,0.10604,-0.22616,-0.46103,-0.318,-3.2088,-0.33506,0.20501,-0.00016233,0.16,0.76,0
0.20319,-0.065203,0.87797,-0.22181,-0.45811,-0.31372,-0.0086366,0,0,0.95591,-1.5016,0,-0.17964,0,0,0.10381,-0.0079778,0,0.10411,-0.22149,-0.45842,-0.31372,-2.0904,-0.33121,0.20686,-0.00016927,0.18,0.76,0
0.22231,-0.065848,0.8615,-0.21781,-0.45355,-0.3091,-0.0044078,0,0,0.94938,-1.5024,0,-0.091681,0,0,0.10252,-0.011785,0,0.10319,-0.21773,-0.45364,-0.3091,-1.0708,-0.32682,0.20603,-0.00017001,0.2,0.76,0
0.24116,-0.064981,0.84517,-0.21476,-0.44684,-0.30413,1.1457e-05,0,0,0.92938,-1.4842,0,0.0002383,0,0,0.10203,-0.015479,0,0.10318,-0.21476,-0.44684,-0.30413,0.0028285,-0.32191,0.20275,-0.00016506,0.22,0.76,0
0.25949,-0.062507,0.82885,-0.21267,-0.43795,-0.29879,0.0050669,0,0,0.89563,-1.4472,0,0.10539,0,0,0.10237,-0.019146,0,0.10414,-0.21256,-0.43806,-0.29879,1.2878,-0.31647,0.19708,-0.00015487,0.24,0.76,0
0.27699,-0.058175,0.81241,-0.21168,-0.42654,-0.29302,0.011307,0,0,0.84594,-1.3887,0,0.23519,0,0,0.10369,-0.022831,0,0.10617,-0.21108,-0.42714,-0.29302,3.0041,-0.31041,0.18892,-0.00013984,0.26,0.76,0
0.29333,-0.051522,0.79567,-0.21238,-0.41205,-0.28679,0.019442,0,0,0.77384,-1.3027,0,0.40439,0,0,0.10621,-0.026448,0,0.10946,-0.2105,-0.41392,-0.28679,5.51,-0.30374,0.17799,-0.00012074,0.28,0.76,0
0.30794,-0.041833,0.77842,-0.21609,-0.39268,-0.27994,0.030191,0,0,0.66396,-1.1726,0,0.62798,0,0,0.11,-0.029545,0,0.11392,-0.21107,-0.3977,-0.27994,9.4387,-0.29624,0.16346,-9.7674e-05,0.3,0.76,0
0.31988,-0.028299,0.76047,-0.22447,-0.36396,-0.27159,0.042596,0,0,0.49006,-0.96071,0,0.88599,0,0,0.11464,-0.031068,0,0.1188,-0.21249,-0.37594,-0.27159,15.706,-0.28667,0.14335,-6.9265e-05,0.32,0.76,0
0.32755,-0.010959,0.74173,-0.26394,-1.0932,-0.82436,0.060695,0,0,0.89618,-0.62125,0,0.61083,0,0,0.12621,-0.13681,0,0.19972,-0.25177,-1.1053,-0.82436,12.778,-0.72715,0.75619,0.042348,0.34,0.76,0
0.35573,-0.010606,0.73903,-0.29539,-1.7342,-1.3479,0.086264,0,0,1.3682,-0.50214,0,0.22429,0,0,0.14886,-0.23413,0,0.27773,-0.29023,-1.7393,-1.3479,3.419,-1.1258,1.2984,0.078934,0.36,0.76,0
0.38228,-0.0092013,0.73578,-0.31458,-1.5834,-1.3052,0.089117,0,0,1.2878,-0.36169,0,0.2317,0,0,0.17045,-0.21702,0,0.27598,-0.30835,-1.5896,-1.3052,3.9981,-1.0677,1.1654,0.065252,0.38,0.76,0
0.40724,-0.0081314,0.73221,-0.33017,-1.4497,-1.2662,0.060618,0,0,1.2168,-0.23855,0,0.15761,0,0,0.18177,-0.20044,0,0.27054,-0.3269,-1.4529,-1.2662,3.0904,-1.0153,1.0452,0.052394,0.4,0.76,0
0.43095,-0.0086293,0.72851,-0.3082,-0.80411,-0.74348,0.024316,0,0,0.37827,-0.14013,0,0.17838,0,0,0.18548,-0.1078,0,0.22691,-0.29123,-0.82107,-0.74348,35.419,-0.6186,0.50734,0.022596,0.42,0.76,0
0.42237,-0.0057337,0.69876,-0.30289,-0.27695,-0.2613,0.0094317,0,0,-0.43259,-0.16277,0,0.19618,0,0,0.18541,-0.020087,0,0.18649,-0.27388,-0.30596,-0.2613,71.99,-0.28038,0.039887,-2.1989e-06,0.44,0.76,0
0.41364,-0.0036125,0.66918,-0.29691,-0.2731,-0.25465,0.0064518,0,0,-0.43946,-0.19191,0,0.1342,0,0,0.18398,-0.017174,0,0.18478,-0.27147,-0.29854,-0.25465,75.769,-0.27489,0.038356,-1.135e-06,0.46,0.76,0
0.40479,-0.0020293,0.63989,-0.29107,-0.26912,-0.24804,0.0045056,0,0,-0.44748,-0.2192,0,0.093716,0,0,0.18199,-0.015027,0,0.18261,-0.26823,-0.29196,-0.24804,78.84,-0.26941,0.038073,-3.9408e-07,0.48,0.76,0
0.39575,-0.00082128,0.61094,-0.28574,-0.26464,-0.24148,0.0031982,0,0,-0.46025,-0.24087,0,0.066522,0,0,0.17972,-0.013469,0,0.18023,-0.26417,-0.28621,-0.24148,81.565,-0.26395,0.038738,7.447e-08,0.5,0.76,0
0.38638,0.00010843,0.58237,-0.28101,-0.25957,-0.23497,0.002263,0,0,-0.47883,-0.25581,0,0.047071,0,0,0.1774,-0.012343,0,0.17783,-0.25933,-0.28125,-0.23497,84.041,-0.25852,0.040097,3.0236e-07,0.52,0.76,0
0.37659,0.00081501,0.55417,-0.27689,-0.25394,-0.22852,0.0015482,0,0,-0.50305,-0.26435,0,0.032202,0,0,0.17516,-0.011524,0,0.17554,-0.25384,-0.277,-0.22852,86.158,-0.25312,0.041994,2.9242e-07,0.54,0.76,0
0.36626,0.0013317,0.52632,-0.27331,-0.24786,-0.22214,0.00097951,0,0,-0.53218,-0.26744,0,0.020374,0,0,0.17309,-0.010915,0,0.17344,-0.24782,-0.27335,-0.22214,87.8,-0.24777,0.044348,2.2371e-08,0.56,0.76,0
0.3553,0.0016832,0.49878,-0.2702,-0.24143,-0.21584,0.00052704,0,0,-0.56535,-0.2662,0,0.010963,0,0,0.17127,-0.010445,0,0.17158,-0.24142,-0.27021,-0.21584,88.951,-0.24249,0.047113,-5.4578e-07,0.58,0.76,0
0.34365,0.0018925,0.47152,-0.26748,-0.23478,-0.20962,0.00018091,0,0,-0.60178,-0.26167,0,0.0037629,0,0,0.1697,-0.010064,0,0.17,-0.23478,-0.26748,-0.20962,89.683,-0.23729,0.050254,-1.457e-06,0.6,0.76,0
0.33123,0.0019833,0.44448,-0.2651,-0.22798,-0.20348,-6.2904e-05,0,0,-0.64083,-0.25473,0,-0.0013084,0,0,0.1684,-0.0097396,0,0.16868,-0.22798,-0.2651,-0.20348,-89.903,-0.23219,0.053735,-2.7581e-06,0.62,0.76,0
0.31801,0.0019802,0.41763,-0.26302,-0.2211,-0.19744,-0.00020932,0,0,-0.682,-0.2461,0,-0.0043538,0,0,0.16737,-0.0094503,0,0.16763,-0.2211,-0.26302,-0.19744,-89.714,-0.22719,0.057521,-4.4963e-06,0.64,0.76,0
0.30395,0.0019079,0.39093,-0.26119,-0.21421,-0.19149,-0.00026658,0,0,-0.72493,-0.23635,0,-0.0055448,0,0,0.1666,-0.0091839,0,0.16685,-0.21421,-0.26119,-0.19149,-89.675,-0.2223,0.061573,-6.7185e-06,0.66,0.76,0
0.28902,0.0017896,0.36432,-0.2596,-0.20735,-0.18563,-0.00024644,0,0,-0.76935,-0.22592,0,-0.0051259,0,0,0.16609,-0.0089328,0,0.16633,-0.20735,-0.2596,-0.18563,-89.73,-0.21752,0.06586,-9.4722e-06,0.68,0.76,0
0.27318,0.0016461,0.33778,-0.25823,-0.20054,-0.17985,-0.00016343,0,0,-0.81509,-0.21518,0,-0.0033994,0,0,0.16583,-0.008692,0,0.16606,-0.20054,-0.25823,-0.17985,-89.838,-0.21287,0.070349,-1.2805e-05,0.7,0.76,0
0.25641,0.0014953,0.31126,-0.25705,-0.19383,-0.17417,-3.3831e-05,0,0,-0.86199,-0.20442,0,-0.00070369,0,0,0.16582,-0.0084569,0,0.16604,-0.19383,-0.25705,-0.17417,-89.969,-0.20835,0.075012,-1.6764e-05,0.72,0.76,0
0.2387,0.0013518,0.28471,-0.25607,-0.18722,-0.16858,0.00012542,0,0,-0.90992,-0.19391,0,0.0026087,0,0,0.16606,-0.0082221,0,0.16626,-0.18722,-0.25607,-0.16858,89.896,-0.20396,0.07982,-2.1392e-05,0.74,0.76,0
0.22002,0.001227,0.25812,-0.25526,-0.18075,-0.16307,0.00029789,0,0,-0.95877,-0.18393,0,0.006196,0,0,0.16654,-0.007979,0,0.16673,-0.18075,-0.25526,-0.16307,89.771,-0.19969,0.084743,-2.6726e-05,0.76,0.76,0
0.20035,0.0011297,0.23142,-0.2546,-0.17444,-0.15764,0.0004691,0,0,-1.0084,-0.17474,0,0.0097574,0,0,0.16727,-0.0077143,0,0.16745,-0.17444,-0.2546,-0.15764,89.665,-0.19556,0.089749,-3.2787e-05,0.78,0.76,0
0.17968,0.0010675,0.20459,-0.25407,-0.16831,-0.15229,0.00062836,0,0,-1.0586,-0.16661,0,0.01307,0,0,0.16823,-0.0074082,0,0.16839,-0.1683,-0.25408,-0.15229,89.58,-0.19156,0.094802,-3.9582e-05,0.8,0.76,0
0.15801,0.0010481,0.17759,-0.25365,-0.16237,-0.14701,0.00077065,0,0,-1.1091,-0.1598,0,0.016029,0,0,0.1694,-0.0070327,0,0.16954,-0.16237,-0.25366,-0.14701,89.516,-0.18768,0.099864,-4.7098e-05,0.82,0.76,0
0.13532,0.0010813,0.15038,-0.25331,-0.15664,-0.14178,0.00089804,0,0,-1.1599,-0.15453,0,0.018679,0,0,0.17074,-0.0065514,0,0.17087,-0.15663,-0.25332,-0.14178,89.468,-0.18391,0.1049,-5.5304e-05,0.84,0.76,0
0.11161,0.0011811,0.12295,-0.25302,-0.15112,-0.13661,0.0010191,0,0,-1.2106,-0.1509,0,0.021197,0,0,0.17221,-0.0059213,0,0.17231,-0.15111,-0.25303,-0.13661,89.427,-0.18025,0.10989,-6.4169e-05,0.86,0.76,0
0.086891,0.0013661,0.095278,-0.25275,-0.14579,-0.13147,0.0011447,0,0,-1.2613,-0.14889,0,0.023809,0,0,0.1737,-0.0050983,0,0.17377,-0.14577,-0.25276,-0.13147,89.387,-0.17667,0.11481,-7.3669e-05,0.88,0.76,0
0.06116,0.001658,0.067368,-0.25247,-0.14061,-0.12635,0.0012807,0,0,-1.3117,-0.14834,0,0.026639,0,0,0.1751,-0.0040467,0,0.17515,-0.14059,-0.25249,-0.12635,89.344,-0.17314,0.11966,-8.3797e-05,0.9,0.76,0
0.034422,0.002077,0.039246,-0.25217,-0.13556,-0.12122,0.0014198,0,0,-1.3619,-0.14905,0,0.029531,0,0,0.17627,-0.002751,0,0.1763,-0.13554,-0.25219,-0.12122,89.303,-0.16965,0.12443,-9.4537e-05,0.92,0.76,0
0.0066859,0.002635,0.01096,-0.25205,-0.21017,-0.14483,0.001248,0,0,-0.74611,-0.15101,0,0.015756,0,0,0.17812,-0.0055245,0,0.17826,-0.19261,-0.26961,-0.14483,45.583,-0.20235,0.11498,-3.2379e-05,0.94,0.76,0
0.0045778,0.0026793,0.007371,-0.25151,-0.28433,-0.16812,0.00052422,0,0,-0.10841,-0.15107,0,0.001363,0,0,0.18133,-0.0075254,0,0.1815,-0.25151,-0.28434,-0.16812,0.915,-0.23466,0.10377,3.8618e-05,0.96,0.76,0
0.0023496,0.0026915,0.0037065,-0.25099,-0.27985,-0.16296,3.4532e-05,0,0,-0.11444,-0.15196,0,8.9784e-05,0,0,0.18427,-0.0040865,0,0.18432,-0.25099,-0.27985,-0.16296,0.068564,-0.23127,0.10547,4.5388e-05,0.98,0.76,0
0,0.0026929,0,-0.24608,-0.27296,-0.15571,2.7004e-05,0,0,-0.11748,-0.15242,0,7.021e-05,0,0,0.18533,4.7705e-18,0,0.18532,-0.24608,-0.27296,-0.15571,0.057572,-0.22492,0.10638,4.8789e-05,1,0.76,0
0,-0.017401,1,-0.53631,-2.0444,-1.7742,-0.024838,0,0,1.6093,-0.35125,0,-0.06458,0,0,0.26815,4.3715e-16,0,0.26695,-0.5359,-2.0448,-1.7742,-0.94332,-1.4516,1.3935,0.12149,0,0.78,0
0.032186,-0.018693,0.99464,-0.48507,-2.054,-1.7564,-0.09168,0,0,1.6527,-0.3869,0,-0.23837,0,0,0.25215,0.061687,0,0.25852,-0.47974,-2.0593,-1.7564,-3.3331,-1.4318,1.452,0.13444,0.02,0.78,0
0.066106,-0.021222,0.98991,-0.43606,-2.1826,-1.7755,-0.14261,0,0,1.7413,-0.52919,0,-0.37079,0,0,0.20573,0.1267,0,0.24324,-0.42449,-2.1942,-1.7755,-4.6376,-1.4647,1.6019,0.16351,0.04,0.78,0
0.10184,-0.021959,0.98641,-0.34852,-1.3342,-1.0597,-0.10458,0,0,1.143,-0.6344,0,-1.0108,0,0,0.15292,0.085736,0,0.18319,-0.32251,-1.3602,-1.0597,-15.987,-0.91411,0.92833,0.088221,0.06,0.78,0
0.11183,-0.049817,0.96552,-0.27814,-0.4457,-0.33784,-0.069855,0,0,0.6209,-1.1217,0,-1.453,0,0,0.12526,0.020934,0,0.12714,-0.25284,-0.471,-0.33784,-19.911,-0.35389,0.19046,-0.00013171,0.08,0.78,0
0.12667,-0.06834,0.94633,-0.25645,-0.45963,-0.33311,-0.049057,0,0,0.79733,-1.3157,0,-1.0204,0,0,0.11569,0.015945,0,0.11682,-0.24522,-0.47085,-0.33311,-12.888,-0.34973,0.19698,-0.00014584,0.1,0.78,0
0.14372,-0.08026,0.9285,-0.24376,-0.46464,-0.32858,-0.035117,0,0,0.88217,-1.415,0,-0.73042,0,0,0.10867,0.00962,0,0.1091,-0.23831,-0.47009,-0.32858,-8.8195,-0.34566,0.20235,-0.00015816,0.12,0.78,0
0.16196,-0.088018,0.91155,-0.23493,-0.4666,-0.3244,-0.025664,0,0,0.93049,-1.4788,0,-0.5338,0,0,0.10423,0.0037039,0,0.10428,-0.23212,-0.46941,-0.3244,-6.2462,-0.34198,0.20718,-0.00017059,0.14,0.78,0
0.18094,-0.092894,0.89515,-0.22796,-0.46573,-0.32,-0.01868,0,0,0.95718,-1.5155,0,-0.38855,0,0,0.10136,-0.0016177,0,0.10135,-0.22651,-0.46718,-0.32,-4.4651,-0.3379,0.21016,-0.0001787,0.16,0.78,0
0.20025,-0.095502,0.87912,-0.22263,-0.46281,-0.31552,-0.012992,0,0,0.96605,-1.5318,0,-0.27023,0,0,0.099494,-0.0064478,0,0.099687,-0.22193,-0.46351,-0.31552,-3.0873,-0.33365,0.21097,-0.00018238,0.18,0.78,0
0.21958,-0.096159,0.86331,-0.21845,-0.4581,-0.31088,-0.0078611,0,0,0.96129,-1.5311,0,-0.16351,0,0,0.098387,-0.01096,0,0.098979,-0.21819,-0.45836,-0.31088,-1.8767,-0.32915,0.20979,-0.00018156,0.2,0.78,0
0.2387,-0.094959,0.84763,-0.21518,-0.45178,-0.30604,-0.0026483,0,0,0.94497,-1.5157,0,-0.055085,0,0,0.097946,-0.015345,0,0.099124,-0.21515,-0.45181,-0.30604,-0.64122,-0.32433,0.20678,-0.00017652,0.22,0.78,0
0.25738,-0.091808,0.83197,-0.21278,-0.44384,-0.30098,0.0032845,0,0,0.91731,-1.4857,0,0.068318,0,0,0.098226,-0.019794,0,0.10018,-0.21273,-0.44388,-0.30098,0.81424,-0.3192,0.20204,-0.00016769,0.24,0.78,0
0.27539,-0.086413,0.8162,-0.21146,-0.43415,-0.29571,0.01066,0,0,0.87617,-1.4398,0,0.22173,0,0,0.099446,-0.024497,0,0.1024,-0.21095,-0.43465,-0.29571,2.7345,-0.31377,0.19562,-0.00015568,0.26,0.78,0
0.29243,-0.078228,0.80015,-0.21136,-0.42204,-0.29004,0.020551,0,0,0.81824,-1.3728,0,0.42746,0,0,0.10212,-0.02958,0,0.10631,-0.20938,-0.42402,-0.29004,5.5197,-0.30781,0.18779,-0.00014098,0.28,0.78,0
0.30812,-0.066197,0.78352,-0.21447,-0.40716,-0.28443,0.034491,0,0,0.72754,-1.2764,0,0.71741,0,0,0.10712,-0.034896,0,0.11268,-0.20849,-0.41315,-0.28443,9.8487,-0.30202,0.1792,-0.00012678,0.3,0.78,0
0.32153,-0.048566,0.76587,-0.22429,-0.38351,-0.27807,0.053712,0,0,0.55936,-1.0965,0,1.1172,0,0,0.11423,-0.038769,0,0.12072,-0.20786,-0.39994,-0.27807,17.003,-0.29529,0.16833,-0.00010922,0.32,0.78,0
0.33049,-0.023802,0.74697,-0.284,-1.1502,-0.85042,0.084863,0,0,0.93248,-0.69275,0,0.814,0,0,0.13335,-0.16394,0,0.22549,-0.26547,-1.1687,-0.85042,14.316,-0.76153,0.796,0.042485,0.34,0.78,0
0.35883,-0.020728,0.744,-0.31298,-1.744,-1.3611,0.12707,0,0,1.3625,-0.49776,0,0.33037,0,0,0.16725,-0.27228,0,0.31984,-0.30178,-1.7552,-1.3611,5.0351,-1.1394,1.3019,0.0793,0.36,0.78,0
0.38499,-0.016135,0.74028,-0.33341,-1.5374,-1.3015,0.10715,0,0,1.2586,-0.30668,0,0.27859,0,0,0.19343,-0.22733,0,0.29812,-0.32395,-1.5469,-1.3015,5.0461,-1.0575,1.1206,0.060755,0.38,0.78,0
0.40917,-0.012415,0.73626,-0.35582,-1.4084,-1.2655,0.061013,0,0,1.1826,-0.18577,0,0.15863,0,0,0.19846,-0.19864,0,0.28066,-0.3523,-1.412,-1.2655,3.3063,-1.0099,0.99457,0.046857,0.4,0.78,0
0.4323,-0.010788,0.73234,-0.31596,-0.77046,-0.73787,0.01768,0,0,0.33984,-0.075325,0,0.09345,0,0,0.19319,-0.10434,0,0.23081,-0.29583,-0.79059,-0.73787,42.129,-0.6081,0.48257,0.019815,0.42,0.78,0
0.42276,-0.0085591,0.70188,-0.30731,-0.27401,-0.26213,0.0023093,0,0,-0.46988,-0.12352,0,0.048034,0,0,0.18927,-0.018289,0,0.19014,-0.27385,-0.30747,-0.26213,86.052,-0.28115,0.040764,-2.5344e-06,0.44,0.78,0
0.41351,-0.0071685,0.67177,-0.29944,-0.27144,-0.25523,-0.00014186,0,0,-0.4597,-0.16852,0,-0.0029506,0,0,0.18678,-0.014804,0,0.18737,-0.27144,-0.29944,-0.25523,-89.71,-0.27537,0.038733,-1.3213e-06,0.46,0.78,0
0.40437,-0.0062219,0.64211,-0.29252,-0.26818,-0.24847,-0.0013175,0,0,-0.45805,-0.20496,0,-0.027404,0,0,0.18396,-0.012406,0,0.18439,-0.26811,-0.29259,-0.24847,-86.91,-0.26972,0.038281,-5.4366e-07,0.48,0.78,0
0.39518,-0.0055008,0.61291,-0.28657,-0.26407,-0.2418,-0.0018326,0,0,-0.46556,-0.23154,0,-0.038117,0,0,0.18108,-0.010819,0,0.18141,-0.26392,-0.28672,-0.2418,-85.374,-0.26415,0.038898,-7.96e-08,0.5,0.78,0
0.38575,-0.0049014,0.58416,-0.2815,-0.25916,-0.23522,-0.0020482,0,0,-0.48132,-0.24903,0,-0.042602,0,0,0.17832,-0.0098178,0,0.17859,-0.25898,-0.28169,-0.23522,-84.804,-0.25863,0.040245,1.3108e-07,0.52,0.78,0
0.37593,-0.0043856,0.55584,-0.27717,-0.25362,-0.22872,-0.0021475,0,0,-0.50392,-0.25899,0,-0.044668,0,0,0.17577,-0.0092165,0,0.17602,-0.25343,-0.27737,-0.22872,-84.832,-0.25317,0.042132,1.0538e-07,0.54,0.78,0
0.3656,-0.0039455,0.52791,-0.27345,-0.2476,-0.22231,-0.0022021,0,0,-0.53194,-0.26308,0,-0.045803,0,0,0.17351,-0.0088752,0,0.17374,-0.24742,-0.27364,-0.22231,-85.166,-0.24779,0.04446,-1.6949e-07,0.56,0.78,0
0.35465,-0.0035817,0.50032,-0.27023,-0.24125,-0.21598,-0.0022257,0,0,-0.5642,-0.26272,0,-0.046295,0,0,0.17156,-0.0086931,0,0.17178,-0.24108,-0.2704,-0.21598,-85.635,-0.24249,0.047176,-7.2427e-07,0.58,0.78,0
0.34303,-0.0032933,0.47301,-0.26743,-0.23466,-0.20975,-0.0022099,0,0,-0.5998,-0.25906,0,-0.045966,0,0,0.16991,-0.0086029,0,0.17013,-0.23452,-0.26758,-0.20975,-86.159,-0.23728,0.050246,-1.5994e-06,0.6,0.78,0
0.33066,-0.0030743,0.44595,-0.26497,-0.22794,-0.20362,-0.0021418,0,0,-0.63808,-0.25298,0,-0.044549,0,0,0.16857,-0.0085623,0,0.16879,-0.22782,-0.2651,-0.20362,-86.701,-0.23218,0.053641,-2.8407e-06,0.62,0.78,0
0.3175,-0.0029144,0.41907,-0.26282,-0.22115,-0.19758,-0.0020129,0,0,-0.67857,-0.24517,0,-0.041869,0,0,0.16751,-0.0085468,0,0.16773,-0.22105,-0.26292,-0.19758,-87.241,-0.22718,0.057332,-4.4972e-06,0.64,0.78,0
0.30352,-0.0028,0.39234,-0.26095,-0.21433,-0.19163,-0.0018211,0,0,-0.72092,-0.23614,0,-0.03788,0,0,0.16673,-0.0085439,0,0.16695,-0.21426,-0.26102,-0.19163,-87.766,-0.2223,0.061292,-6.6208e-06,0.66,0.78,0
0.28867,-0.0027165,0.36572,-0.25932,-0.20753,-0.18577,-0.0015708,0,0,-0.76492,-0.22631,0,-0.032672,0,0,0.16621,-0.008548,0,0.16643,-0.20748,-0.25937,-0.18577,-88.264,-0.21754,0.065498,-9.2665e-06,0.68,0.78,0
0.27292,-0.0026502,0.33916,-0.25793,-0.20078,-0.18,-0.0012714,0,0,-0.81039,-0.21601,0,-0.026444,0,0,0.16594,-0.0085575,0,0.16617,-0.20075,-0.25796,-0.18,-88.726,-0.2129,0.069926,-1.2492e-05,0.7,0.78,0
0.25625,-0.002589,0.31262,-0.25676,-0.19409,-0.17433,-0.00093674,0,0,-0.85721,-0.20551,0,-0.019484,0,0,0.16593,-0.0085712,0,0.16615,-0.19408,-0.25677,-0.17433,-89.144,-0.20839,0.074553,-1.6355e-05,0.72,0.78,0
0.23863,-0.0025238,0.28606,-0.25579,-0.1875,-0.16875,-0.00058376,0,0,-0.90529,-0.19508,0,-0.012142,0,0,0.16617,-0.0085863,0,0.1664,-0.1875,-0.2558,-0.16875,-89.51,-0.20402,0.079355,-2.0914e-05,0.74,0.78,0
0.22004,-0.0024486,0.25944,-0.25503,-0.18103,-0.16325,-0.00023114,0,0,-0.95451,-0.18496,0,-0.0048077,0,0,0.16667,-0.0085956,0,0.1669,-0.18103,-0.25503,-0.16325,-89.821,-0.19977,0.084307,-2.6219e-05,0.76,0.78,0
0.20045,-0.00236,0.23272,-0.25444,-0.1747,-0.15784,0.0001021,0,0,-1.0047,-0.17544,0,0.0021236,0,0,0.16743,-0.0085841,0,0.16765,-0.1747,-0.25444,-0.15784,89.927,-0.19566,0.089377,-3.231e-05,0.78,0.78,0
0.17985,-0.0022563,0.20586,-0.25402,-0.16854,-0.1525,0.00039909,0,0,-1.0558,-0.16681,0,0.008301,0,0,0.16846,-0.0085261,0,0.16867,-0.16854,-0.25402,-0.1525,89.733,-0.19168,0.094527,-3.9204e-05,0.8,0.78,0
0.15822,-0.0021359,0.17882,-0.25372,-0.16256,-0.14724,0.00064851,0,0,-1.1074,-0.15939,0,0.013489,0,0,0.16973,-0.0083808,0,0.16994,-0.16256,-0.25372,-0.14724,89.592,-0.18784,0.099713,-4.6891e-05,0.82,0.78,0
0.13556,-0.0019938,0.15155,-0.25351,-0.1568,-0.14204,0.00084813,0,0,-1.1594,-0.15352,0,0.017641,0,0,0.17124,-0.0080906,0,0.17143,-0.15679,-0.25352,-0.14204,89.498,-0.18412,0.10489,-5.5333e-05,0.84,0.78,0
0.11185,-0.0018192,0.12402,-0.25336,-0.15125,-0.13689,0.001006,0,0,-1.2113,-0.14939,0,0.020925,0,0,0.17291,-0.007582,0,0.17308,-0.15124,-0.25337,-0.13689,89.436,-0.1805,0.11001,-6.4476e-05,0.86,0.78,0
0.087101,-0.0015934,0.096215,-0.25323,-0.14591,-0.13177,0.0011363,0,0,-1.2632,-0.14706,0,0.023635,0,0,0.17467,-0.0067731,0,0.17481,-0.14589,-0.25324,-0.13177,89.393,-0.17697,0.11506,-7.4272e-05,0.88,0.78,0
0.06132,-0.001291,0.068126,-0.25307,-0.14072,-0.12665,0.0012478,0,0,-1.3147,-0.14633,0,0.025954,0,0,0.17638,-0.0055898,0,0.17647,-0.14071,-0.25308,-0.12665,89.364,-0.17348,0.12002,-8.4704e-05,0.9,0.78,0
0.034512,-0.000887,0.039773,-0.25285,-0.13564,-0.12152,0.0013303,0,0,-1.3658,-0.14689,0,0.027669,0,0,0.17787,-0.0039891,0,0.17792,-0.13563,-0.25287,-0.12152,89.35,-0.17,0.12489,-9.5757e-05,0.92,0.78,0
0.0066868,-0.00036798,0.011207,-0.25249,-0.20906,-0.14477,0.00086763,0,0,-0.74872,-0.14859,0,0.013374,0,0,0.18038,-0.0089237,0,0.18075,-0.19274,-0.26882,-0.14477,45.158,-0.20211,0.11462,-3.2554e-05,0.94,0.78,0
0.0045634,-0.00033051,0.007562,-0.2517,-0.28318,-0.16803,-0.00035989,0,0,-0.10877,-0.14971,0,-0.00093573,0,0,0.1849,-0.012415,0,0.18533,-0.25169,-0.28319,-0.16803,-0.65474,-0.2343,0.10309,3.9065e-05,0.96,0.78,0
0.002336,-0.00034599,0.0038108,-0.2509,-0.2802,-0.16314,-0.00073412,0,0,-0.11409,-0.15218,0,-0.0019087,0,0,0.18905,-0.0068175,0,0.18916,-0.25088,-0.28022,-0.16314,-1.4344,-0.23141,0.10551,4.4976e-05,0.98,0.78,0
0,-0.00035823,0,-0.24569,-0.27379,-0.15584,-0.00023552,0,0,-0.1168,-0.15333,0,-0.00061234,0,0,0.19054,-3.9031e-18,0,0.19052,-0.24569,-0.27379,-0.15584,-0.48023,-0.2251,0.10671,4.8117e-05,1,0.78,0
0,-0.023103,1,-0.67019,-1.9507,-1.7863,-0.035919,0,0,1.4509,-0.21381,0,-0.09339,0,0,0.34138,1.3531e-16,0,0.33984,-0.66918,-1.9518,-1.7863,-1.6055,-1.4691,1.2084,0.084918,0,0.8,0
0.029018,-0.024971,0.99317,-0.64984,-1.9618,-1.7767,-0.13003,0,0,1.4649,-0.24069,0,-0.33807,0,0,0.33373,0.079789,0,0.34128,-0.63707,-1.9746,-1.7767,-5.6058,-1.4628,1.2504,0.091975,0.02,0.8,0
0.058595,-0.031484,0.98665,-0.46435,-1.9999,-1.7259,-0.23147,0,0,1.6401,-0.35619,0,-0.60181,0,0,0.26694,0.17954,0,0.31853,-0.43022,-2.0341,-1.7259,-8.3883,-1.3967,1.4741,0.1406,0.04,0.8,0
0.094621,-0.035814,0.9825,-0.4093,-1.5014,-1.1259,-0.22068,0,0,1.1477,-0.86789,0,-1.6794,0,0,0.17059,0.19696,0,0.27484,-0.3487,-1.562,-1.1259,-19.746,-1.0122,1.0682,0.094666,0.06,0.8,0
0.10451,-0.074053,0.96115,-0.29233,-0.48609,-0.35367,-0.099121,0,0,0.63794,-1.3772,0,-2.0617,0,0,0.12301,0.035675,0,0.12825,-0.25061,-0.52781,-0.35367,-22.828,-0.37736,0.24268,-0.00031328,0.08,0.8,0
0.12014,-0.095784,0.94313,-0.2598,-0.47919,-0.33959,-0.064897,0,0,0.82979,-1.4519,0,-1.3499,0,0,0.10808,0.023405,0,0.11055,-0.24204,-0.49695,-0.33959,-15.305,-0.35953,0.22278,-0.00022321,0.1,0.8,0
0.1377,-0.10928,0.92657,-0.24535,-0.47836,-0.33293,-0.045344,0,0,0.91085,-1.5124,0,-0.94316,0,0,0.10135,0.014006,0,0.10227,-0.23684,-0.48687,-0.33293,-10.633,-0.35222,0.21846,-0.0002077,0.12,0.8,0
0.15657,-0.11814,0.9107,-0.23488,-0.47566,-0.327,-0.032911,0,0,0.95802,-1.5461,0,-0.68454,0,0,0.097908,0.0064982,0,0.09809,-0.23047,-0.48008,-0.327,-7.6447,-0.34585,0.21801,-0.0002024,0.14,0.8,0
0.17602,-0.12362,0.89524,-0.22815,-0.47243,-0.32208,-0.024001,0,0,0.97687,-1.5636,0,-0.49922,0,0,0.095815,0.00023538,0,0.095789,-0.22581,-0.47476,-0.32208,-5.5585,-0.34088,0.21744,-0.00020089,0.16,0.8,0
0.19565,-0.12647,0.88004,-0.22319,-0.46828,-0.31744,-0.017204,0,0,0.98028,-1.5687,0,-0.35784,0,0,0.094471,-0.0052377,0,0.094593,-0.22199,-0.46948,-0.31744,-3.9957,-0.3363,0.2162,-0.00019908,0.18,0.8,0
0.21523,-0.12709,0.86501,-0.21918,-0.46321,-0.31284,-0.011381,0,0,0.97409,-1.5638,0,-0.23672,0,0,0.093624,-0.010265,0,0.094164,-0.21865,-0.46374,-0.31284,-2.6644,-0.33174,0.21414,-0.00019563,0.2,0.8,0
0.23461,-0.12561,0.85008,-0.21574,-0.45726,-0.30816,-0.0056311,0,0,0.96115,-1.5506,0,-0.11713,0,0,0.093194,-0.015145,0,0.094395,-0.21561,-0.45739,-0.30816,-1.3349,-0.32705,0.2113,-0.00019027,0.22,0.8,0
0.25367,-0.12194,0.83518,-0.21286,-0.4505,-0.30341,0.00092805,0,0,0.94172,-1.5298,0,0.019304,0,0,0.093219,-0.020182,0,0.095354,-0.21285,-0.45051,-0.30341,0.22374,-0.32226,0.20775,-0.00018338,0.24,0.8,0
0.27228,-0.11577,0.82025,-0.21088,-0.44302,-0.2987,0.0093665,0,0,0.91333,-1.5009,0,0.19482,0,0,0.093908,-0.025731,0,0.097338,-0.2105,-0.4434,-0.2987,2.3068,-0.31753,0.20366,-0.00017591,0.26,0.8,0
0.29021,-0.10643,0.80513,-0.21105,-0.43503,-0.29447,0.020978,0,0,0.86749,-1.4618,0,0.43633,0,0,0.095815,-0.032266,0,0.10106,-0.20911,-0.43698,-0.29447,5.3049,-0.31352,0.1994,-0.00017026,0.28,0.8,0
0.30698,-0.092889,0.78959,-0.21342,-0.42516,-0.29027,0.038886,0,0,0.79924,-1.4028,0,0.80883,0,0,0.10081,-0.040428,0,0.10857,-0.20651,-0.43207,-0.29027,10.084,-0.30962,0.19749,-0.00016936,0.3,0.8,0
0.32218,-0.07216,0.77287,-0.23068,-0.41886,-0.29147,0.068278,0,0,0.63224,-1.3248,0,1.4202,0,0,0.11311,-0.051063,0,0.12424,-0.20851,-0.44102,-0.29147,17.984,-0.31367,0.20409,-0.00020612,0.32,0.8,0
0.33227,-0.038669,0.75339,-0.32041,-1.2755,-0.90256,0.15562,0,0,0.97755,-0.86196,0,1.212,0,0,0.14771,-0.25345,0,0.30737,-0.28436,-1.3116,-0.90256,16.882,-0.83283,0.89802,0.043632,0.34,0.8,0
0.36128,-0.030517,0.74992,-0.31331,-1.6184,-1.3294,0.16584,0,0,1.321,-0.37569,0,0.43117,0,0,0.21298,-0.29394,0,0.36046,-0.29257,-1.6392,-1.3294,7.1294,-1.0871,1.2216,0.073719,0.36,0.8,0
0.38511,-0.021469,0.74487,-0.41374,-1.4928,-1.3169,0.10505,0,0,1.174,-0.22878,0,0.27314,0,0,0.24409,-0.2206,0,0.3283,-0.40361,-1.503,-1.3169,5.509,-1.0745,1.0191,0.048308,0.38,0.8,0
0.40824,-0.015562,0.74016,-0.38719,-1.3672,-1.2665,0.040802,0,0,1.1431,-0.13098,0,0.10608,0,0,0.2236,-0.18154,0,0.28806,-0.38549,-1.3689,-1.2665,2.3799,-1.007,0.93643,0.040477,0.4,0.8,0
0.43083,-0.011642,0.73593,-0.32432,-0.7436,-0.73433,0.0046931,0,0,0.31084,-0.021407,0,-0.03571,0,0,0.20352,-0.092854,0,0.23256,-0.30051,-0.7674,-0.73433,-41.354,-0.60075,0.46314,0.017332,0.42,0.8,0
0.42067,-0.010674,0.70461,-0.30984,-0.27199,-0.26263,-0.0067556,0,0,-0.49103,-0.097402,0,-0.14052,0,0,0.19379,-0.015101,0,0.19438,-0.27082,-0.31101,-0.26263,-80.177,-0.28149,0.044852,-4.1173e-06,0.44,0.8,0
0.41119,-0.010353,0.67392,-0.30043,-0.27081,-0.25561,-0.0077888,0,0,-0.46609,-0.15809,0,-0.16201,0,0,0.18987,-0.011365,0,0.19021,-0.26889,-0.30235,-0.25561,-76.128,-0.27562,0.041717,-2.4952e-06,0.46,0.8,0
0.40203,-0.010228,0.64385,-0.29273,-0.26822,-0.24877,-0.0076933,0,0,-0.45723,-0.20229,0,-0.16002,0,0,0.18598,-0.0089854,0,0.1862,-0.266,-0.29495,-0.24877,-73.942,-0.26991,0.040418,-1.4319e-06,0.48,0.8,0
0.3929,-0.010083,0.6144,-0.28641,-0.26433,-0.24202,-0.0071456,0,0,-0.46163,-0.23199,0,-0.14863,0,0,0.18231,-0.0076008,0,0.18248,-0.26222,-0.28852,-0.24202,-73.544,-0.26425,0.040384,-7.6137e-07,0.5,0.8,0
0.38356,-0.0098527,0.58552,-0.28117,-0.25944,-0.23537,-0.0065134,0,0,-0.47627,-0.25034,0,-0.13548,0,0,0.179,-0.0069076,0,0.17914,-0.25764,-0.28297,-0.23537,-74.525,-0.25866,0.04125,-4.0064e-07,0.52,0.8,0
0.37385,-0.0095448,0.55712,-0.27675,-0.25386,-0.22883,-0.0059449,0,0,-0.49847,-0.26037,0,-0.12365,0,0,0.1761,-0.0066626,0,0.17623,-0.25241,-0.27821,-0.22883,-76.278,-0.25315,0.04278,-3.1185e-07,0.54,0.8,0
0.36363,-0.0091916,0.52916,-0.27298,-0.2478,-0.22238,-0.0054671,0,0,-0.52621,-0.26442,0,-0.11372,0,0,0.17362,-0.0066866,0,0.17375,-0.24667,-0.27411,-0.22238,-78.26,-0.24772,0.04483,-4.8774e-07,0.56,0.8,0
0.3528,-0.0088258,0.50157,-0.2697,-0.24144,-0.21604,-0.0050554,0,0,-0.5581,-0.26418,0,-0.10515,0,0,0.17154,-0.0068572,0,0.17168,-0.24056,-0.27058,-0.21604,-80.157,-0.24239,0.047313,-9.4257e-07,0.58,0.8,0
0.3413,-0.00847,0.47427,-0.26684,-0.23488,-0.2098,-0.0046726,0,0,-0.5932,-0.26083,0,-0.097189,0,0,0.16983,-0.0070976,0,0.16998,-0.23421,-0.26751,-0.2098,-81.85,-0.23717,0.050173,-1.7053e-06,0.6,0.8,0
0.32907,-0.008136,0.44722,-0.26432,-0.2282,-0.20366,-0.0042858,0,0,-0.63091,-0.2552,0,-0.089145,0,0,0.16845,-0.0073635,0,0.16861,-0.2277,-0.26482,-0.20366,-83.326,-0.23206,0.053374,-2.8154e-06,0.62,0.8,0
0.31607,-0.0078264,0.42037,-0.26212,-0.22146,-0.19762,-0.0038724,0,0,-0.6708,-0.24791,0,-0.080546,0,0,0.16738,-0.007633,0,0.16756,-0.22109,-0.26248,-0.19762,-84.608,-0.22706,0.056886,-4.3201e-06,0.64,0.8,0
0.30224,-0.0075376,0.39366,-0.26019,-0.21469,-0.19167,-0.0034199,0,0,-0.71262,-0.2394,0,-0.071134,0,0,0.1666,-0.0078979,0,0.16678,-0.21444,-0.26045,-0.19167,-85.726,-0.22219,0.060686,-6.2736e-06,0.66,0.8,0
0.28756,-0.0072628,0.36706,-0.25853,-0.20794,-0.18582,-0.0029251,0,0,-0.75616,-0.23002,0,-0.060843,0,0,0.16607,-0.0081582,0,0.16628,-0.20777,-0.2587,-0.18582,-86.702,-0.21743,0.064754,-8.7361e-06,0.68,0.8,0
0.27199,-0.0069942,0.34052,-0.25712,-0.20123,-0.18007,-0.0023924,0,0,-0.80131,-0.22006,0,-0.049762,0,0,0.16581,-0.0084182,0,0.16602,-0.20112,-0.25722,-0.18007,-87.553,-0.2128,0.069073,-1.1774e-05,0.7,0.8,0
0.25551,-0.0067252,0.314,-0.25594,-0.19457,-0.1744,-0.0018323,0,0,-0.848,-0.20974,0,-0.038111,0,0,0.16579,-0.0086825,0,0.16602,-0.19452,-0.256,-0.1744,-88.291,-0.2083,0.073627,-1.5459e-05,0.72,0.8,0
0.23807,-0.0064514,0.28746,-0.255,-0.18799,-0.16883,-0.0012607,0,0,-0.89618,-0.19927,0,-0.026222,0,0,0.16603,-0.0089538,0,0.16628,-0.18797,-0.25503,-0.16883,-88.923,-0.20394,0.078398,-1.9866e-05,0.74,0.8,0
0.21966,-0.0061716,0.26087,-0.25429,-0.18151,-0.16335,-0.00069805,0,0,-0.9458,-0.18887,0,-0.014519,0,0,0.16654,-0.0092291,0,0.1668,-0.1815,-0.2543,-0.16335,-89.451,-0.19972,0.083368,-2.5068e-05,0.76,0.8,0
0.20024,-0.0058878,0.23417,-0.2538,-0.17514,-0.15795,-0.00016838,0,0,-0.99677,-0.17878,0,-0.0035022,0,0,0.16734,-0.0094956,0,0.16761,-0.17514,-0.2538,-0.15795,-89.877,-0.19563,0.08851,-3.1133e-05,0.78,0.8,0
0.17979,-0.0056047,0.20732,-0.2535,-0.16892,-0.15264,0.00030307,0,0,-1.049,-0.1693,0,0.0063039,0,0,0.16843,-0.0097252,0,0.16871,-0.16892,-0.2535,-0.15264,89.795,-0.19169,0.093789,-3.8105e-05,0.8,0.8,0
0.15828,-0.0053277,0.18027,-0.25338,-0.16287,-0.14741,0.00069407,0,0,-1.1021,-0.16079,0,0.014436,0,0,0.16983,-0.0098678,0,0.17012,-0.16287,-0.25339,-0.14741,89.561,-0.18789,0.099157,-4.5997e-05,0.82,0.8,0
0.13571,-0.0050593,0.15297,-0.25339,-0.15703,-0.14225,0.00099168,0,0,-1.1559,-0.15371,0,0.020627,0,0,0.17154,-0.0098445,0,0.17183,-0.15702,-0.2534,-0.14225,89.41,-0.18422,0.10455,-5.4774e-05,0.84,0.8,0
0.11205,-0.0047945,0.12538,-0.25348,-0.15141,-0.13714,0.001198,0,0,-1.2099,-0.14842,0,0.024918,0,0,0.17352,-0.0095445,0,0.17379,-0.1514,-0.25349,-0.13714,89.328,-0.18068,0.10992,-6.4362e-05,0.86,0.8,0
0.087308,-0.0045162,0.097445,-0.25359,-0.14601,-0.13206,0.0013275,0,0,-1.2639,-0.1451,0,0.027612,0,0,0.17569,-0.0088321,0,0.17591,-0.146,-0.25361,-0.13206,89.293,-0.17722,0.11521,-7.4684e-05,0.88,0.8,0
0.061492,-0.004195,0.069157,-0.25367,-0.14078,-0.12698,0.0013918,0,0,-1.3176,-0.14355,0,0.02895,0,0,0.17788,-0.0075697,0,0.17805,-0.14077,-0.25369,-0.12698,89.294,-0.17381,0.12041,-8.5705e-05,0.9,0.8,0
0.034606,-0.0037984,0.040523,-0.25364,-0.13562,-0.12184,0.0013731,0,0,-1.3707,-0.14328,0,0.028561,0,0,0.17988,-0.0056586,0,0.17997,-0.13561,-0.25366,-0.12184,89.334,-0.17037,0.1255,-9.7415e-05,0.92,0.8,0
0.0066644,-0.0033086,0.011595,-0.2528,-0.20667,-0.14436,0.00033854,0,0,-0.75219,-0.144,0,0.011096,0,0,0.18357,-0.013888,0,0.18443,-0.19255,-0.26692,-0.14436,44.281,-0.20128,0.11385,-3.2992e-05,0.94,0.8,0
0.0045183,-0.0033089,0.0078676,-0.25173,-0.28145,-0.16782,-0.0019167,0,0,-0.10909,-0.14771,0,-0.0049835,0,0,0.19038,-0.019638,0,0.19142,-0.25161,-0.28157,-0.16782,-3.6757,-0.23367,0.10212,3.924e-05,0.96,0.8,0
0.002301,-0.0033955,0.0039792,-0.25048,-0.28155,-0.16359,-0.0021084,0,0,-0.11296,-0.15335,0,-0.0054817,0,0,0.19669,-0.010875,0,0.19696,-0.25034,-0.28169,-0.16359,-3.864,-0.23187,0.10597,4.3553e-05,0.98,0.8,0
0,-0.0034401,0,-0.24477,-0.27612,-0.15627,-0.00085774,0,0,-0.11505,-0.15581,0,-0.0022301,0,0,0.19896,2.6021e-18,0,0.19891,-0.24474,-0.27614,-0.15627,-1.5658,-0.22572,0.10767,4.6199e-05,1,0.8,0
0,-0.025954,1,-0.73787,-1.8555,-1.778,-0.04552,0,0,1.3522,-0.10077,0,-0.11835,0,0,0.42773,-1.4259e-15,0,0.42642,-0.73602,-1.8574,-1.778,-2.3284,-1.4571,1.0839,0.064215,0,0.82,0
0.027044,-0.028321,0.99145,-0.76374,-1.8668,-1.7806,-0.10692,0,0,1.3219,-0.11203,0,-0.27799,0,0,0.43169,0.082632,0,0.43789,-0.75348,-1.8771,-1.7806,-5.4857,-1.4704,1.0786,0.062711,0.02,0.82,0
0.052877,-0.03547,0.98273,-0.85943,-1.9466,-1.8245,-0.30873,0,0,1.2546,-0.15864,0,-0.8027,0,0,0.47608,0.18776,0,0.50709,-0.77787,-2.0281,-1.8245,-14.798,-1.5435,1.1619,0.072297,0.04,0.82,0
0.077229,-0.056675,0.9724,-0.76812,-1.3652,-1.187,-0.39938,0,0,0.80912,-0.68799,0,-2.4738,0,0,0.38179,0.21091,0,0.44001,-0.56636,-1.5669,-1.187,-28.6,-1.1067,0.87876,0.040461,0.06,0.82,0
0.089327,-0.1049,0.95411,-0.53019,-0.55422,-0.86201,-0.26255,0,0,0.76688,-0.27471,0,-1.7774,0,0,0.47202,0.054203,0,0.47651,-0.25333,-0.83107,-0.86201,-37.357,-0.6488,0.63607,0.018624,0.08,0.82,0
0.1079,-0.12641,0.93884,-0.37439,-0.52039,-0.79653,-0.10173,0,0,0.97562,-0.31109,0,-0.92426,0,0,0.42308,0.032851,0,0.42535,-0.31035,-0.58443,-0.79653,-27.506,-0.56377,0.50302,-0.0069258,0.1,0.82,0
0.12835,-0.14076,0.92402,-0.31962,-0.49194,-0.76323,-0.063996,0,0,1.0252,-0.33588,0,-0.62725,0,0,0.41295,0.018993,0,0.41375,-0.29302,-0.51854,-0.76323,-20.146,-0.52493,0.49638,-0.0091613,0.12,0.82,0
0.14891,-0.14986,0.90947,-0.30709,-0.48784,-0.75006,-0.041648,0,0,1.0237,-0.35296,0,-0.43641,0,0,0.40705,0.0096814,0,0.40723,-0.29583,-0.4991,-0.75006,-14.136,-0.51499,0.48534,-0.0092921,0.14,0.82,0
0.1693,-0.15544,0.89508,-0.30061,-0.4834,-0.73868,-0.029193,0,0,1.0124,-0.36428,0,-0.31456,0,0,0.40329,0.0024843,0,0.40327,-0.29507,-0.48894,-0.73868,-10.251,-0.50756,0.47672,-0.0090115,0.16,0.82,0
0.18941,-0.15825,0.88079,-0.29569,-0.4788,-0.72779,-0.020918,0,0,0.99863,-0.3714,0,-0.22659,0,0,0.40047,-0.0035241,0,0.40052,-0.29282,-0.48167,-0.72779,-7.4923,-0.50076,0.4688,-0.0086226,0.18,0.82,0
0.20925,-0.15871,0.8666,-0.28964,-0.47324,-0.71633,-0.01472,0,0,0.98611,-0.37564,0,-0.15527,0,0,0.39816,-0.0088996,0,0.39844,-0.28819,-0.4747,-0.71633,-5.3384,-0.49307,0.46175,-0.0082189,0.2,0.82,0
0.22886,-0.15698,0.85248,-0.28143,-0.46676,-0.70398,-0.0089902,0,0,0.97656,-0.37795,0,-0.0868,0,0,0.39613,-0.014061,0,0.39681,-0.28085,-0.46734,-0.70398,-3.2947,-0.48406,0.45564,-0.0078199,0.22,0.82,0
0.24831,-0.153,0.83843,-0.27063,-0.45938,-0.69062,-0.002207,0,0,0.97065,-0.37894,0,-0.0078915,0,0,0.39438,-0.019429,0,0.39564,-0.27056,-0.45945,-0.69062,-0.91439,-0.47354,0.45063,-0.0074261,0.24,0.82,0
0.26768,-0.14645,0.82444,-0.25813,-0.45171,-0.6767,0.007468,0,0,0.96735,-0.37874,0,0.097118,0,0,0.39313,-0.025578,0,0.39525,-0.25784,-0.452,-0.6767,2.262,-0.46218,0.44671,-0.0070028,0.26,0.82,0
0.287,-0.1367,0.81047,-0.24604,-0.44333,-0.6627,0.024691,0,0,0.96295,-0.37692,0,0.25814,0,0,0.39343,-0.033477,0,0.39687,-0.24265,-0.44672,-0.6627,7.4715,-0.45069,0.44455,-0.0064981,0.28,0.82,0
0.3062,-0.12231,0.79646,-0.26053,-0.45275,-0.66199,0.053866,0,0,0.92782,-0.37157,0,0.50737,0,0,0.39744,-0.045689,0,0.40313,-0.24443,-0.46885,-0.66199,15.128,-0.45843,0.43711,-0.0051835,0.3,0.82,0
0.32411,-0.10156,0.78221,-0.3457,-0.46253,-0.68246,0.18162,0,0,0.77829,-0.35718,0,1.2149,0,0,0.44251,-0.065302,0,0.4509,-0.19552,-0.61271,-0.68246,31.32,-0.49689,0.50128,0.0054108,0.32,0.82,0
0.33733,-0.05828,0.76499,-0.53033,-1.112,-0.92299,0.28416,0,0,0.79956,-0.67465,0,1.7963,0,0,0.35125,-0.2342,0,0.42958,-0.41285,-1.2294,-0.92299,24.447,-0.85509,0.71758,0.022806,0.34,0.82,0
0.35887,-0.035755,0.75575,-0.5568,-1.5772,-1.3959,0.19725,0,0,1.0909,-0.23559,0,0.51284,0,0,0.39721,-0.26217,0,0.47377,-0.51999,-1.614,-1.3959,10.569,-1.1766,1.0029,0.043667,0.36,0.82,0
0.38097,-0.025286,0.7491,-0.46058,-1.4439,-1.3204,0.051016,0,0,1.1178,-0.16048,0,0.13264,0,0,0.30583,-0.1852,0,0.35767,-0.45794,-1.4465,-1.3204,2.962,-1.075,0.93196,0.039021,0.38,0.82,0
0.40359,-0.017654,0.74352,-0.39671,-1.333,-1.2624,0.0067896,0,0,1.1255,-0.091744,0,0.017653,0,0,0.25399,-0.14373,0,0.29261,-0.39666,-1.3331,-1.2624,0.41546,-0.99738,0.90316,0.037058,0.4,0.82,0
0.42598,-0.011645,0.73894,-0.32645,-0.73079,-0.73282,-0.013125,0,0,0.30667,0.004712,0,-0.19327,0,0,0.21519,-0.071017,0,0.23215,-0.29903,-0.7582,-0.73282,-36.435,-0.59669,0.45867,0.016316,0.42,0.82,0
0.41585,-0.012455,0.70671,-0.30923,-0.27158,-0.26258,-0.016982,0,0,-0.48515,-0.093568,0,-0.35323,0,0,0.19853,-0.010161,0,0.19881,-0.26505,-0.31576,-0.26258,-68.974,-0.28113,0.051986,-7.1609e-06,0.44,0.82,0
0.40658,-0.013492,0.67541,-0.29937,-0.27168,-0.25574,-0.015998,0,0,-0.45374,-0.16578,0,-0.33276,0,0,0.1929,-0.0065882,0,0.19303,-0.26437,-0.30668,-0.25574,-65.436,-0.2756,0.047222,-4.8054e-06,0.46,0.82,0
0.3977,-0.014314,0.64498,-0.2915,-0.26948,-0.24892,-0.014284,0,0,-0.44288,-0.21383,0,-0.29711,0,0,0.18773,-0.0045871,0,0.1878,-0.26245,-0.29852,-0.24892,-63.815,-0.26997,0.044416,-3.1311e-06,0.48,0.82,0
0.38886,-0.01478,0.61534,-0.28518,-0.26553,-0.24213,-0.012517,0,0,-0.44771,-0.24334,0,-0.26035,0,0,0.18316,-0.0037122,0,0.18321,-0.25944,-0.29126,-0.24213,-64.065,-0.26428,0.043167,-2.005e-06,0.5,0.82,0
0.37979,-0.014915,0.58637,-0.27999,-0.26044,-0.23542,-0.010991,0,0,-0.46349,-0.26013,0,-0.22861,0,0,0.17926,-0.0035714,0,0.1793,-0.2555,-0.28492,-0.23542,-65.827,-0.25862,0.043122,-1.3173e-06,0.52,0.82,0
0.37032,-0.0148,0.55797,-0.27563,-0.25466,-0.22883,-0.0097574,0,0,-0.48668,-0.26858,0,-0.20295,0,0,0.176,-0.0038595,0,0.17604,-0.25082,-0.27947,-0.22883,-68.53,-0.25304,0.043976,-9.8452e-07,0.54,0.82,0
0.36033,-0.014522,0.53005,-0.27187,-0.24846,-0.22236,-0.0087623,0,0,-0.51495,-0.2715,0,-0.18226,0,0,0.17332,-0.0043665,0,0.17338,-0.24555,-0.27479,-0.22236,-71.59,-0.24756,0.045507,-9.599e-07,0.56,0.82,0
0.34973,-0.014149,0.50251,-0.26859,-0.24202,-0.21599,-0.0079281,0,0,-0.54694,-0.27063,0,-0.1649,0,0,0.17115,-0.0049622,0,0.17122,-0.23983,-0.27077,-0.21599,-74.585,-0.2422,0.047571,-1.2294e-06,0.58,0.82,0
0.33845,-0.013727,0.47529,-0.26569,-0.23542,-0.20974,-0.0071857,0,0,-0.58184,-0.26705,0,-0.14946,0,0,0.16941,-0.0055737,0,0.1695,-0.2338,-0.26731,-0.20974,-77.301,-0.23695,0.050077,-1.8036e-06,0.6,0.82,0
0.32645,-0.013282,0.4483,-0.26314,-0.22875,-0.2036,-0.0064824,0,0,-0.61915,-0.26149,0,-0.13484,0,0,0.16803,-0.0061657,0,0.16815,-0.22756,-0.26432,-0.2036,-79.672,-0.23183,0.052969,-2.711e-06,0.62,0.82,0
0.31368,-0.012831,0.42151,-0.26089,-0.22203,-0.19756,-0.0057822,0,0,-0.65856,-0.25444,0,-0.12027,0,0,0.16698,-0.0067264,0,0.16711,-0.22119,-0.26173,-0.19756,-81.713,-0.22683,0.056209,-3.9936e-06,0.64,0.82,0
0.30011,-0.012376,0.39487,-0.25892,-0.2153,-0.19163,-0.0050632,0,0,-0.69985,-0.24626,0,-0.10532,0,0,0.1662,-0.0072577,0,0.16636,-0.21472,-0.2595,-0.19163,-83.464,-0.22195,0.05977,-5.7042e-06,0.66,0.82,0
0.28569,-0.011917,0.36833,-0.25722,-0.20859,-0.18578,-0.0043147,0,0,-0.74289,-0.23721,0,-0.089745,0,0,0.16569,-0.0077691,0,0.16587,-0.20821,-0.2576,-0.18578,-84.968,-0.2172,0.063635,-7.9057e-06,0.68,0.82,0
0.27039,-0.011452,0.34185,-0.25577,-0.20191,-0.18004,-0.003535,0,0,-0.78764,-0.22752,0,-0.073527,0,0,0.16542,-0.0082737,0,0.16563,-0.20168,-0.256,-0.18004,-86.261,-0.21257,0.067786,-1.0671e-05,0.7,0.82,0
0.25418,-0.010978,0.31539,-0.25458,-0.19528,-0.17438,-0.00273,0,0,-0.83407,-0.21733,0,-0.056785,0,0,0.1654,-0.0087851,0,0.16563,-0.19516,-0.25471,-0.17438,-87.37,-0.20808,0.072215,-1.4083e-05,0.72,0.82,0
0.23703,-0.010495,0.28892,-0.25365,-0.18871,-0.16882,-0.0019128,0,0,-0.88222,-0.20681,0,-0.039786,0,0,0.16563,-0.0093143,0,0.16589,-0.18865,-0.25371,-0.16882,-88.314,-0.20373,0.076912,-1.8235e-05,0.74,0.82,0
0.2189,-0.010003,0.26239,-0.25299,-0.18221,-0.16336,-0.0011033,0,0,-0.93212,-0.19608,0,-0.022948,0,0,0.16613,-0.0098666,0,0.16642,-0.18219,-0.253,-0.16336,-89.107,-0.19952,0.081868,-2.323e-05,0.76,0.82,0
0.19975,-0.009511,0.23576,-0.25259,-0.1758,-0.15799,-0.00032894,0,0,-0.98383,-0.1853,0,-0.0068421,0,0,0.16694,-0.010437,0,0.16726,-0.1758,-0.25259,-0.15799,-89.754,-0.19546,0.08707,-2.9175e-05,0.78,0.82,0
0.17954,-0.0090281,0.20897,-0.25245,-0.16951,-0.15271,0.00037576,0,0,-1.0373,-0.17471,0,0.0078159,0,0,0.16808,-0.011001,0,0.16845,-0.16951,-0.25245,-0.15271,89.74,-0.19156,0.092495,-3.6166e-05,0.8,0.82,0
0.15825,-0.0085677,0.18197,-0.25256,-0.16335,-0.14752,0.00097278,0,0,-1.0924,-0.16464,0,0.020234,0,0,0.16961,-0.011509,0,0.17,-0.16334,-0.25257,-0.14752,89.375,-0.18781,0.098102,-4.427e-05,0.82,0.82,0
0.13585,-0.0081421,0.1547,-0.25288,-0.15737,-0.14241,0.0014287,0,0,-1.1488,-0.1556,0,0.029717,0,0,0.17156,-0.011865,0,0.17197,-0.15735,-0.2529,-0.14241,89.143,-0.18422,0.10382,-5.3489e-05,0.84,0.82,0
0.1123,-0.0077559,0.12708,-0.25333,-0.15162,-0.13737,0.0017271,0,0,-1.206,-0.1482,0,0.035924,0,0,0.17393,-0.011917,0,0.17434,-0.15159,-0.25336,-0.13737,89.028,-0.18078,0.10958,-6.3753e-05,0.86,0.82,0
0.087606,-0.0073973,0.099042,-0.25386,-0.14611,-0.13237,0.0018762,0,0,-1.2635,-0.14287,0,0.039025,0,0,0.17665,-0.011453,0,0.17703,-0.14608,-0.2539,-0.13237,89.003,-0.17745,0.11528,-7.4957e-05,0.88,0.82,0
0.061761,-0.0070329,0.070548,-0.25438,-0.14077,-0.12736,0.0018861,0,0,-1.321,-0.13945,0,0.039231,0,0,0.17956,-0.010228,0,0.17985,-0.14074,-0.25441,-0.12736,89.049,-0.17417,0.12091,-8.7056e-05,0.9,0.82,0
0.034768,-0.0066183,0.041583,-0.25475,-0.13544,-0.12226,0.0017237,0,0,-1.378,-0.13709,0,0.035852,0,0,0.18235,-0.0080338,0,0.18253,-0.13541,-0.25478,-0.12226,89.172,-0.17081,0.12646,-0.00010009,0.92,0.82,0
0.0066411,-0.006128,0.012194,-0.25305,-0.20181,-0.14332,-0.00031182,0,0,-0.75792,-0.13518,0,0.010251,0,0,0.18801,-0.021549,0,0.19,-0.19184,-0.26301,-0.14332,42.078,-0.19939,0.11247,-3.4335e-05,0.94,0.82,0
0.004451,-0.006239,0.0083476,-0.25212,-0.27883,-0.16763,-0.0043587,0,0,-0.10983,-0.14456,0,-0.011333,0,0,0.19871,-0.0309,0,0.20117,-0.25142,-0.27952,-0.16763,-9.0362,-0.23286,0.10082,3.9178e-05,0.96,0.82,0
0.0022479,-0.0064801,0.0042458,-0.25028,-0.28452,-0.16469,-0.0042613,0,0,-0.11128,-0.15579,0,-0.011079,0,0,0.20869,-0.017233,0,0.20933,-0.24976,-0.28504,-0.16469,-6.9891,-0.23317,0.10716,4.0883e-05,0.98,0.82,0
0,-0.0065907,0,-0.24383,-0.28073,-0.15737,-0.0021269,0,0,-0.1124,-0.16037,0,-0.0055301,0,0,0.21229,0,0,0.21217,-0.24371,-0.28086,-0.15737,-3.2875,-0.22731,0.10973,4.2574e-05,1,0.82,0
0,-0.027134,1,-0.67556,-1.7577,-1.73,-0.044583,0,0,1.3708,-0.036077,0,-0.11592,0,0,0.50664,4.1633e-17,0,0.50585,-0.67373,-1.7596,-1.73,-2.3551,-1.3878,1.0714,0.062997,0,0.84,0
0.027415,-0.029452,0.98987,-0.65156,-1.7362,-1.7062,-0.089841,0,0,1.371,-0.039028,0,-0.23359,0,0,0.52149,0.068689,0,0.52522,-0.64417,-1.7436,-1.7062,-4.703,-1.3647,1.0812,0.064657,0.02,0.84,0
0.054841,-0.03783,0.97914,-0.67292,-1.757,-1.7081,-0.22436,0,0,1.3457,-0.063499,0,-0.58332,0,0,0.57952,0.14527,0,0.59762,-0.62832,-1.8015,-1.7081,-11.243,-1.3793,1.1294,0.072284,0.04,0.84,0
0.081245,-0.056232,0.96669,-0.73554,-1.5905,-1.6645,-0.40166,0,0,1.2076,0.096185,0,-1.0443,0,0,0.658,0.20079,0,0.69101,-0.57645,-1.7496,-1.6645,-21.608,-1.3302,1.133,0.073281,0.06,0.84,0
0.10315,-0.085042,0.95282,-0.64043,-0.73985,-1.3669,-0.34758,0,0,0.94442,0.81517,0,-0.90371,0,0,0.71568,0.077817,0,0.71855,-0.33902,-1.0413,-1.3669,-40.93,-0.91573,0.90987,0.022647,0.08,0.84,0
0.11902,-0.10823,0.93806,-0.7222,-0.66753,-1.355,-0.20808,0,0,0.82261,0.89368,0,-0.541,0,0,0.731,0.043278,0,0.7322,-0.48501,-0.90473,-1.355,-48.742,-0.91491,0.75357,-0.0013344,0.1,0.84,0
0.13605,-0.12272,0.92358,-0.61792,-0.59251,-1.2867,-0.11305,0,0,0.86943,0.90246,0,-0.29392,0,0,0.72055,0.025405,0,0.72098,-0.49145,-0.71897,-1.2867,-48.206,-0.83238,0.70941,-0.012179,0.12,0.84,0
0.1538,-0.13226,0.90924,-0.55487,-0.55692,-1.2428,-0.070218,0,0,0.89428,0.89161,0,-0.18257,0,0,0.71459,0.014119,0,0.71472,-0.48567,-0.62612,-1.2428,-44.582,-0.78485,0.69757,-0.015079,0.14,0.84,0
0.17182,-0.13819,0.895,-0.51784,-0.53634,-1.2112,-0.046692,0,0,0.90143,0.87739,0,-0.1214,0,0,0.70995,0.0059525,0,0.70997,-0.47949,-0.57469,-1.2112,-39.398,-0.75515,0.68911,-0.015731,0.16,0.84,0
0.18986,-0.14133,0.88084,-0.49546,-0.52302,-1.1864,-0.033375,0,0,0.8982,0.86237,0,-0.086775,0,0,0.70605,-0.00053535,0,0.70604,-0.47313,-0.54535,-1.1864,-33.783,-0.73496,0.68002,-0.015539,0.18,0.84,0
0.20775,-0.14212,0.86676,-0.48114,-0.51369,-1.1652,-0.024854,0,0,0.88929,0.84696,0,-0.064619,0,0,0.70244,-0.0061134,0,0.70247,-0.4677,-0.52712,-1.1652,-28.389,-0.72001,0.66977,-0.015022,0.2,0.84,0
0.22543,-0.14073,0.85274,-0.47213,-0.50747,-1.1466,-0.017782,0,0,0.87684,0.8309,0,-0.046232,0,0,0.69887,-0.011318,0,0.69896,-0.46473,-0.51487,-1.1466,-22.589,-0.70874,0.65826,-0.014363,0.22,0.84,0
0.24282,-0.13709,0.8388,-0.46862,-0.50492,-1.1309,-0.0090063,0,0,0.86092,0.81372,0,-0.023416,0,0,0.69518,-0.016685,0,0.69538,-0.4665,-0.50703,-1.1309,-13.194,-0.70147,0.64505,-0.013602,0.24,0.84,0
0.25986,-0.13092,0.82493,-0.47426,-0.5086,-1.1198,0.0060968,0,0,0.83919,0.79455,0,0.015852,0,0,0.69139,-0.022994,0,0.69177,-0.47321,-0.50965,-1.1198,9.7738,-0.70089,0.62915,-0.012646,0.26,0.84,0
0.27639,-0.12151,0.81115,-0.4972,-0.52473,-1.1177,0.035038,0,0,0.80668,0.77089,0,0.091099,0,0,0.6877,-0.031771,0,0.68842,-0.47332,-0.54861,-1.1177,34.274,-0.71322,0.61025,-0.011076,0.28,0.84,0
0.29213,-0.10775,0.79743,-0.55103,-0.57332,-1.1347,0.10461,0,0,0.75881,0.72984,0,0.27198,0,0,0.68723,-0.046851,0,0.68874,-0.45697,-0.66737,-1.1347,41.959,-0.75302,0.60085,-0.0067112,0.3,0.84,0
0.30674,-0.086447,0.78366,-0.45787,-0.62081,-1.1073,0.21102,0,0,0.8442,0.63239,0,0.54866,0,0,0.65894,-0.079592,0,0.66205,-0.31313,-0.76554,-1.1073,34.445,-0.72864,0.68995,0.0040246,0.32,0.84,0
0.3259,-0.059537,0.77107,-0.50387,-1.3012,-1.3126,0.24704,0,0,1.0513,0.014784,0,0.6423,0,0,0.58124,-0.20935,0,0.6225,-0.43354,-1.3716,-1.3126,15.892,-1.0392,0.90997,0.038152,0.34,0.84,0
0.3488,-0.03994,0.76041,-0.42679,-1.4363,-1.3193,0.10629,0,0,1.1603,-0.15203,0,0.27635,0,0,0.4697,-0.17556,0,0.50428,-0.41573,-1.4473,-1.3193,5.9459,-1.0608,0.97394,0.044697,0.36,0.84,0
0.37231,-0.027888,0.75228,-0.38426,-1.3701,-1.2786,0.01042,0,0,1.1626,-0.11901,0,0.027091,0,0,0.36253,-0.12025,0,0.38349,-0.38415,-1.3703,-1.2786,0.60546,-1.011,0.94362,0.041784,0.38,0.84,0
0.3953,-0.019232,0.74591,-0.37318,-1.3068,-1.2499,-0.02522,0,0,1.1397,-0.073986,0,-0.065573,0,0,0.28254,-0.083785,0,0.29664,-0.3725,-1.3075,-1.2499,-1.5462,-0.97663,0.90757,0.037874,0.4,0.84,0
0.4179,-0.011454,0.74098,-0.32106,-0.73213,-0.73276,-0.029586,0,0,0.32719,0.0014607,0,-0.34562,0,0,0.22662,-0.037774,0,0.23227,-0.2904,-0.76279,-0.73276,-32.935,-0.59532,0.46935,0.016907,0.42,0.84,0
0.40839,-0.014417,0.70786,-0.30589,-0.27326,-0.26223,-0.027322,0,0,-0.4541,-0.11474,0,-0.5683,0,0,0.20298,-0.003184,0,0.20304,-0.25776,-0.3214,-0.26223,-60.422,-0.28046,0.06153,-1.1751e-05,0.44,0.84,0
0.39974,-0.016984,0.67602,-0.29655,-0.27439,-0.25578,-0.024154,0,0,-0.42394,-0.1935,0,-0.50241,0,0,0.19544,-0.00023987,0,0.19547,-0.25889,-0.31204,-0.25578,-57.32,-0.27557,0.05477,-8.3464e-06,0.46,0.84,0
0.39143,-0.018781,0.64532,-0.28902,-0.27209,-0.249,-0.020708,0,0,-0.41624,-0.24014,0,-0.43072,0,0,0.18885,0.0009181,0,0.18888,-0.25818,-0.30293,-0.249,-56.118,-0.27004,0.049973,-5.6865e-06,0.48,0.84,0
0.38309,-0.019817,0.61559,-0.283,-0.26766,-0.24215,-0.017725,0,0,-0.42485,-0.26536,0,-0.36867,0,0,0.18333,0.00087703,0,0.18335,-0.25602,-0.29464,-0.24215,-56.697,-0.26427,0.047117,-3.844e-06,0.5,0.84,0
0.37444,-0.020258,0.58666,-0.27805,-0.26212,-0.23538,-0.015361,0,0,-0.44373,-0.27804,0,-0.31951,0,0,0.17885,0.00015935,0,0.17886,-0.25278,-0.28739,-0.23538,-58.705,-0.25852,0.045852,-2.6566e-06,0.52,0.84,0
0.36534,-0.020288,0.55836,-0.27382,-0.25599,-0.22874,-0.013518,0,0,-0.4689,-0.28339,0,-0.28117,0,0,0.1753,-0.00086455,0,0.17531,-0.24871,-0.2811,-0.22874,-61.708,-0.25285,0.04577,-1.9548e-06,0.54,0.84,0
0.35568,-0.020052,0.53056,-0.27013,-0.24955,-0.22223,-0.012045,0,0,-0.49824,-0.28421,0,-0.25053,0,0,0.17252,-0.0019763,0,0.17253,-0.244,-0.27569,-0.22223,-65.254,-0.2473,0.046561,-1.6297e-06,0.56,0.84,0
0.34541,-0.019651,0.50315,-0.26687,-0.24296,-0.21584,-0.010813,0,0,-0.53068,-0.28202,0,-0.22491,0,0,0.17033,-0.0030633,0,0.17036,-0.2388,-0.27104,-0.21584,-68.935,-0.24189,0.048023,-1.6293e-06,0.58,0.84,0
0.33446,-0.019152,0.47606,-0.26397,-0.23629,-0.20959,-0.0097268,0,0,-0.56563,-0.27773,0,-0.20232,0,0,0.16862,-0.0040765,0,0.16867,-0.23322,-0.26705,-0.20959,-72.451,-0.23662,0.050025,-1.9403e-06,0.6,0.84,0
0.32278,-0.018596,0.4492,-0.2614,-0.22959,-0.20344,-0.0087163,0,0,-0.60272,-0.27187,0,-0.1813,0,0,0.1673,-0.0050034,0,0.16737,-0.22735,-0.26363,-0.20344,-75.639,-0.23148,0.052487,-2.576e-06,0.62,0.84,0
0.31035,-0.018004,0.42252,-0.25912,-0.22287,-0.19741,-0.0077346,0,0,-0.64172,-0.2648,0,-0.16088,0,0,0.16629,-0.0058515,0,0.16639,-0.22129,-0.2607,-0.19741,-78.443,-0.22647,0.055354,-3.5691e-06,0.64,0.84,0
0.29711,-0.017388,0.39598,-0.25711,-0.21617,-0.19148,-0.0067507,0,0,-0.68251,-0.25677,0,-0.14042,0,0,0.16555,-0.0066383,0,0.16569,-0.21509,-0.25819,-0.19148,-80.874,-0.22159,0.05859,-4.967e-06,0.66,0.84,0
0.28305,-0.016751,0.36954,-0.25536,-0.20949,-0.18565,-0.0057466,0,0,-0.72501,-0.24796,0,-0.11953,0,0,0.16506,-0.0073868,0,0.16522,-0.20878,-0.25607,-0.18565,-82.967,-0.21683,0.062171,-6.8308e-06,0.68,0.84,0
0.26811,-0.016095,0.34316,-0.25387,-0.20285,-0.17991,-0.0047133,0,0,-0.76921,-0.23852,0,-0.098037,0,0,0.16479,-0.0081218,0,0.16499,-0.20241,-0.25431,-0.17991,-84.767,-0.21221,0.066082,-9.2351e-06,0.7,0.84,0
0.25228,-0.015419,0.31681,-0.25265,-0.19624,-0.17427,-0.0036501,0,0,-0.81516,-0.22853,0,-0.075921,0,0,0.16475,-0.0088681,0,0.16499,-0.19601,-0.25289,-0.17427,-86.313,-0.20772,0.070314,-1.227e-05,0.72,0.84,0
0.23551,-0.014724,0.29044,-0.25017,-0.18873,-0.16798,-0.002373,0,0,-0.85485,-0.21585,0,-0.049359,0,0,0.1649,-0.0095959,0,0.16518,-0.18864,-0.25027,-0.16798,-87.791,-0.2023,0.074149,-1.5585e-05,0.74,0.84,0
0.21776,-0.014015,0.26402,-0.25232,-0.18343,-0.16373,-0.001317,0,0,-0.92135,-0.20494,0,-0.027394,0,0,0.16552,-0.010382,0,0.16585,-0.18341,-0.25235,-0.16373,-88.905,-0.19983,0.080599,-2.1582e-05,0.76,0.84,0
0.19899,-0.0133,0.23751,-0.24907,-0.17576,-0.15714,-0.00029117,0,0,-0.95611,-0.19365,0,-0.0060563,0,0,0.16604,-0.01122,0,0.16642,-0.17575,-0.24907,-0.15714,-89.772,-0.19399,0.084184,-2.5661e-05,0.78,0.84,0
0.17916,-0.012593,0.21084,-0.25216,-0.17073,-0.15322,0.00065675,0,0,-1.029,-0.18209,0,0.013661,0,0,0.16758,-0.012099,0,0.16802,-0.17073,-0.25217,-0.15322,89.538,-0.19204,0.091459,-3.4491e-05,0.8,0.84,0
0.15821,-0.011913,0.18395,-0.24935,-0.16313,-0.14674,0.001533,0,0,-1.0672,-0.17047,0,0.031885,0,0,0.16866,-0.012977,0,0.16916,-0.1631,-0.24938,-0.14674,88.982,-0.1864,0.095513,-4.036e-05,0.82,0.84,0
0.13608,-0.011283,0.15677,-0.25345,-0.15849,-0.14318,0.0021527,0,0,-1.1468,-0.15926,0,0.044777,0,0,0.17155,-0.013759,0,0.1721,-0.15844,-0.2535,-0.14318,88.702,-0.18504,0.10354,-5.2849e-05,0.84,0.84,0
0.11274,-0.010723,0.12919,-0.25103,-0.15115,-0.1368,0.0026497,0,0,-1.188,-0.14919,0,0.055114,0,0,0.17341,-0.014265,0,0.17401,-0.15108,-0.2511,-0.1368,88.481,-0.17966,0.10787,-6.0681e-05,0.86,0.84,0
0.088147,-0.010231,0.10111,-0.25582,-0.14707,-0.1335,0.0028146,0,0,-1.272,-0.14106,0,0.058543,0,0,0.178,-0.014203,0,0.17858,-0.14699,-0.25589,-0.1335,88.518,-0.1788,0.11623,-7.699e-05,0.88,0.84,0
0.062282,-0.0097731,0.07243,-0.25356,-0.14013,-0.12716,0.0028054,0,0,-1.3146,-0.13485,0,0.058353,0,0,0.18062,-0.013189,0,0.18111,-0.14006,-0.25363,-0.12716,88.584,-0.17362,0.12054,-8.6497e-05,0.9,0.84,0
0.035135,-0.0092821,0.043093,-0.25844,-0.1362,-0.12378,0.0025647,0,0,-1.4004,-0.12919,0,0.053346,0,0,0.18598,-0.010837,0,0.1863,-0.13615,-0.25849,-0.12378,88.799,-0.1728,0.12897,-0.00010678,0.92,0.84,0
0.0066951,-0.008716,0.013127,-0.25638,-0.1997,-0.14421,-0.0021677,0,0,-0.76795,-0.12424,0,0.011142,0,0,0.19423,-0.027063,0,0.19695,-0.19242,-0.26367,-0.14421,33.072,-0.2001,0.11309,-3.7358e-05,0.94,0.84,0
0.0044171,-0.0090912,0.0091036,-0.25404,-0.27638,-0.16823,-0.0085674,0,0,-0.11155,-0.1406,0,-0.022275,0,0,0.21489,-0.045256,0,0.21967,-0.25113,-0.27929,-0.16823,-18.742,-0.23288,0.099999,3.7962e-05,0.96,0.84,0
0.0022096,-0.0096269,0.0046685,-0.25177,-0.2888,-0.16684,-0.0082193,0,0,-0.11041,-0.15855,0,-0.02137,0,0,0.22565,-0.025356,0,0.22698,-0.25003,-0.29055,-0.16684,-11.969,-0.23581,0.10923,3.7235e-05,0.98,0.84,0
0,-0.0098551,0,-0.24289,-0.28346,-0.1579,-0.0043885,0,0,-0.11048,-0.16322,0,-0.01141,0,0,0.23343,-6.9389e-18,0,0.23327,-0.24242,-0.28392,-0.1579,-6.1037,-0.22808,0.11124,3.8953e-05,1,0.84,0
0,-0.027397,1,-0.58451,-1.6711,-1.6767,-0.04779,0,0,1.4198,0.0072256,0,-0.12425,0,0,0.56511,1.9776e-16,0,0.56476,-0.58241,-1.6732,-1.6767,-2.5134,-1.3108,1.0926,0.06698,0,0.86,0
0.028397,-0.029882,0.9887,-0.57185,-1.6592,-1.658,-0.06996,0,0,1.412,-0.001521,0,-0.1819,0,0,0.57301,0.051079,0,0.57501,-0.56736,-1.6637,-1.658,-3.6663,-1.2963,1.0935,0.067146,0.02,0.86,0
0.056324,-0.03801,0.97692,-0.61817,-1.6312,-1.6517,-0.22322,0,0,1.3436,0.026728,0,-0.58037,0,0,0.61464,0.094622,0,0.62222,-0.57117,-1.6782,-1.6517,-11.892,-1.3003,1.094,0.067118,0.04,0.86,0
0.082669,-0.052827,0.96437,-0.60607,-1.413,-1.5701,-0.30028,0,0,1.2532,0.20417,0,-0.78072,0,0,0.64129,0.10078,0,0.64943,-0.5066,-1.5125,-1.5701,-18.328,-1.1964,1.0359,0.0565,0.06,0.86,0
0.10517,-0.072296,0.951,-0.68197,-0.98676,-1.4516,-0.33567,0,0,1.0005,0.60431,0,-0.87274,0,0,0.68591,0.081373,0,0.69077,-0.46572,-1.203,-1.4516,-32.791,-1.0401,0.88808,0.026696,0.08,0.86,0
0.12394,-0.090668,0.9371,-0.64414,-0.69634,-1.3393,-0.25716,0,0,0.90364,0.83578,0,-0.66862,0,0,0.69798,0.046877,0,0.69945,-0.41176,-0.92872,-1.3393,-42.102,-0.89324,0.80499,0.0052828,0.1,0.86,0
0.14063,-0.10466,0.92301,-0.68253,-0.63554,-1.3184,-0.14308,0,0,0.82666,0.88776,0,-0.37202,0,0,0.70497,0.028941,0,0.70554,-0.51403,-0.80404,-1.3184,-49.663,-0.87883,0.7056,-0.0083166,0.12,0.86,0
0.15708,-0.1142,0.90891,-0.64766,-0.5896,-1.2801,-0.10608,0,0,0.82215,0.89763,0,-0.27582,0,0,0.70419,0.017448,0,0.70439,-0.50865,-0.72862,-1.2801,-52.652,-0.83912,0.68834,-0.011165,0.14,0.86,0
0.17351,-0.12034,0.89484,-0.61628,-0.55711,-1.2469,-0.070229,0,0,0.81975,0.89667,0,-0.1826,0,0,0.7023,0.0090633,0,0.70235,-0.51049,-0.6629,-1.2469,-56.421,-0.80675,0.67323,-0.013005,0.16,0.86,0
0.18987,-0.12375,0.88081,-0.5942,-0.53659,-1.2201,-0.048404,0,0,0.81361,0.8885,0,-0.12585,0,0,0.69989,0.0025415,0,0.69989,-0.50907,-0.62172,-1.2201,-60.379,-0.78361,0.66189,-0.01345,0.18,0.86,0
0.20606,-0.12483,0.86684,-0.58078,-0.52385,-1.1982,-0.034053,0,0,0.80269,0.87669,0,-0.088537,0,0,0.69705,-0.0028802,0,0.69706,-0.50793,-0.59669,-1.1982,-64.944,-0.76762,0.65048,-0.013253,0.2,0.86,0
0.22198,-0.12375,0.85293,-0.57482,-0.51752,-1.1806,-0.022111,0,0,0.78756,0.86205,0,-0.05749,0,0,0.69366,-0.0077314,0,0.69371,-0.50998,-0.58236,-1.1806,-71.17,-0.75766,0.63755,-0.012733,0.22,0.86,0
0.23756,-0.12045,0.8391,-0.57603,-0.51838,-1.1674,-0.0077607,0,0,0.7688,0.84376,0,-0.020178,0,0,0.68944,-0.012523,0,0.68955,-0.51735,-0.57706,-1.1674,-82.467,-0.75394,0.62237,-0.011998,0.24,0.86,0
0.25273,-0.11467,0.82535,-0.58403,-0.52966,-1.1595,0.014849,0,0,0.74807,0.81874,0,0.038608,0,0,0.68381,-0.017976,0,0.68405,-0.52587,-0.58782,-1.1595,75.676,-0.75772,0.605,-0.010972,0.26,0.86,0
0.26748,-0.10587,0.81174,-0.59508,-0.55985,-1.1582,0.055216,0,0,0.73208,0.77788,0,0.14356,0,0,0.67557,-0.025463,0,0.67605,-0.51951,-0.63543,-1.1582,53.847,-0.77105,0.58937,-0.0091585,0.28,0.86,0
0.28202,-0.093116,0.79833,-0.57164,-0.61919,-1.1556,0.11786,0,0,0.75912,0.69731,0,0.30643,0,0,0.65874,-0.037891,0,0.65981,-0.47518,-0.71565,-1.1556,39.298,-0.78214,0.59762,-0.0052846,0.3,0.86,0
0.29785,-0.076263,0.78539,-0.52256,-0.81288,-1.186,0.18264,0,0,0.8625,0.48509,0,0.47486,0,0,0.62419,-0.063246,0,0.62775,-0.43442,-0.90101,-1.186,25.761,-0.84049,0.65721,0.0058884,0.32,0.86,0
0.31652,-0.057689,0.77336,-0.48626,-1.1484,-1.2638,0.15918,0,0,1.0108,0.14996,0,0.41388,0,0,0.56544,-0.077747,0,0.57193,-0.44998,-1.1847,-1.2638,12.839,-0.96615,0.77728,0.023279,0.34,0.86,0
0.33828,-0.041836,0.76278,-0.4189,-1.3083,-1.2809,0.065556,0,0,1.1207,-0.035594,0,0.17045,0,0,0.48631,-0.071053,0,0.49365,-0.41409,-1.3131,-1.2809,4.1928,-1.0027,0.88338,0.035247,0.36,0.86,0
0.36134,-0.030047,0.75391,-0.37561,-1.3282,-1.2651,-0.014046,0,0,1.1563,-0.082079,0,-0.036519,0,0,0.39761,-0.036808,0,0.4016,-0.3754,-1.3284,-1.2651,-0.84458,-0.98961,0.92296,0.039739,0.38,0.86,0
0.38453,-0.020613,0.74687,-0.3582,-1.2951,-1.2429,-0.044714,0,0,1.1501,-0.06792,0,-0.11626,0,0,0.30708,-0.003677,0,0.31024,-0.35607,-1.2972,-1.2429,-2.7262,-0.96539,0.9152,0.038902,0.4,0.86,0
0.40735,-0.011586,0.74163,-0.31743,-0.74299,-0.73529,-0.043394,0,0,0.35306,-0.01779,0,-0.48224,0,0,0.23703,0.0071955,0,0.23911,-0.28358,-0.77684,-0.73529,-30.548,-0.59857,0.48471,0.017955,0.42,0.86,0
0.39865,-0.017045,0.70773,-0.30261,-0.27662,-0.26223,-0.037107,0,0,-0.41986,-0.14963,0,-0.77182,0,0,0.20842,0.0043918,0,0.20852,-0.2503,-0.32893,-0.26223,-54.648,-0.28049,0.073395,-1.8508e-05,0.44,0.86,0
0.39085,-0.021232,0.67549,-0.29096,-0.27449,-0.25407,-0.029635,0,0,-0.38363,-0.21237,0,-0.6164,0,0,0.197,0.003355,0,0.19703,-0.25197,-0.31348,-0.25407,-52.763,-0.27317,0.06049,-1.1322e-05,0.46,0.86,0
0.38331,-0.023919,0.64469,-0.28416,-0.2722,-0.24749,-0.02454,0,0,-0.38132,-0.25692,0,-0.51042,0,0,0.18885,0.0039601,0,0.18889,-0.25292,-0.30343,-0.24749,-51.849,-0.26795,0.053436,-7.5648e-06,0.48,0.86,0
0.37559,-0.025395,0.61506,-0.27887,-0.26766,-0.24084,-0.02056,0,0,-0.3955,-0.27892,0,-0.42765,0,0,0.1824,0.0033454,0,0.18244,-0.25195,-0.29458,-0.24084,-52.625,-0.26246,0.049129,-5.0556e-06,0.5,0.86,0
0.36749,-0.026037,0.58632,-0.27441,-0.26199,-0.23421,-0.017605,0,0,-0.41807,-0.28894,0,-0.36619,0,0,0.17752,0.002114,0,0.17753,-0.24953,-0.28687,-0.23421,-54.712,-0.25687,0.046913,-3.4584e-06,0.52,0.86,0
0.35887,-0.026136,0.55825,-0.27189,-0.25749,-0.2286,-0.01645,0,0,-0.45028,-0.30051,0,-0.34217,0,0,0.17334,0.0016797,0,0.17335,-0.24674,-0.28265,-0.2286,-56.82,-0.25266,0.047647,-2.9648e-06,0.54,0.86,0
0.34967,-0.025891,0.53068,-0.2666,-0.25009,-0.22134,-0.01481,0,0,-0.47069,-0.29894,0,-0.30806,0,0,0.17151,-1.1793e-05,0,0.17151,-0.24139,-0.2753,-0.22134,-59.57,-0.24601,0.047241,-2.3159e-06,0.56,0.86,0
0.33983,-0.02543,0.50349,-0.26386,-0.24268,-0.2149,-0.012143,0,0,-0.50918,-0.28895,0,-0.25257,0,0,0.16905,-0.0021218,0,0.16906,-0.23716,-0.26938,-0.2149,-65.543,-0.24048,0.047446,-1.7021e-06,0.58,0.86,0
0.3293,-0.024836,0.47659,-0.26247,-0.23742,-0.20954,-0.011764,0,0,-0.55048,-0.28993,0,-0.2447,0,0,0.16724,-0.0028948,0,0.16726,-0.23276,-0.26713,-0.20954,-68.398,-0.23648,0.050184,-2.1277e-06,0.6,0.86,0
0.31805,-0.024157,0.4499,-0.25909,-0.2307,-0.20318,-0.010966,0,0,-0.58153,-0.28627,0,-0.2281,0,0,0.16626,-0.0039232,0,0.1663,-0.22696,-0.26284,-0.20318,-71.156,-0.23099,0.052019,-2.4753e-06,0.62,0.86,0
0.30604,-0.023423,0.42339,-0.2568,-0.22397,-0.19715,-0.009717,0,0,-0.62029,-0.27892,0,-0.20211,0,0,0.16534,-0.0050392,0,0.16542,-0.22131,-0.25946,-0.19715,-74.686,-0.22598,0.054408,-3.1197e-06,0.64,0.86,0
0.29324,-0.022647,0.39699,-0.25476,-0.21728,-0.19124,-0.0084803,0,0,-0.66063,-0.27088,0,-0.17639,0,0,0.16467,-0.0060579,0,0.16478,-0.21545,-0.25659,-0.19124,-77.825,-0.22109,0.057225,-4.144e-06,0.66,0.86,0
0.27962,-0.021836,0.37069,-0.25297,-0.21063,-0.18542,-0.0072298,0,0,-0.70252,-0.26225,0,-0.15038,0,0,0.1642,-0.007018,0,0.16435,-0.20943,-0.25417,-0.18542,-80.571,-0.21634,0.060434,-5.6014e-06,0.68,0.86,0
0.26514,-0.020993,0.34445,-0.25142,-0.20403,-0.17969,-0.0059483,0,0,-0.74598,-0.25309,0,-0.12373,0,0,0.16394,-0.0079581,0,0.16413,-0.20329,-0.25215,-0.17969,-82.954,-0.21171,0.064015,-7.5615e-06,0.7,0.86,0
0.24978,-0.020119,0.31823,-0.25013,-0.19746,-0.17406,-0.0046255,0,0,-0.79113,-0.24344,0,-0.09621,0,0,0.16387,-0.0089157,0,0.16411,-0.19706,-0.25053,-0.17406,-85.019,-0.20722,0.067957,-1.0113e-05,0.72,0.86,0
0.23349,-0.019217,0.29201,-0.24797,-0.19085,-0.16815,-0.0034741,0,0,-0.83015,-0.23613,0,-0.072261,0,0,0.16397,-0.0099683,0,0.16428,-0.19064,-0.24818,-0.16815,-86.532,-0.20233,0.071491,-1.2693e-05,0.74,0.86,0
0.21625,-0.018288,0.26575,-0.25004,-0.18558,-0.1639,-0.0019978,0,0,-0.89579,-0.22542,0,-0.041554,0,0,0.16449,-0.011112,0,0.16487,-0.18552,-0.2501,-0.1639,-88.226,-0.19984,0.077677,-1.7936e-05,0.76,0.86,0
0.198,-0.017341,0.2394,-0.24679,-0.17791,-0.15734,-0.0005124,0,0,-0.93037,-0.21394,0,-0.010658,0,0,0.16495,-0.012387,0,0.16542,-0.1779,-0.2468,-0.15734,-89.574,-0.19401,0.081158,-2.1625e-05,0.78,0.86,0
0.17868,-0.016389,0.21292,-0.24998,-0.17282,-0.15346,0.00098632,0,0,-1.0038,-0.20143,0,0.020515,0,0,0.16639,-0.013817,0,0.16697,-0.17281,-0.24999,-0.15346,89.268,-0.19209,0.088461,-2.9896e-05,0.8,0.86,0
0.15822,-0.015451,0.18623,-0.24726,-0.165,-0.14696,0.0024631,0,0,-1.0432,-0.18764,0,0.051233,0,0,0.16745,-0.015408,0,0.16816,-0.16492,-0.24733,-0.14696,88.287,-0.1864,0.09271,-3.5799e-05,0.82,0.86,0
0.13655,-0.014556,0.15923,-0.25194,-0.1601,-0.14352,0.0037264,0,0,-1.1276,-0.17246,0,0.07751,0,0,0.1705,-0.017114,0,0.17136,-0.15995,-0.2521,-0.14352,87.68,-0.18519,0.10137,-4.8789e-05,0.84,0.86,0
0.11356,-0.01374,0.13181,-0.2498,-0.15206,-0.13703,0.0048418,0,0,-1.1728,-0.15629,0,0.10071,0,0,0.17263,-0.01878,0,0.17366,-0.15182,-0.25004,-0.13703,87.171,-0.17963,0.10638,-5.7832e-05,0.86,0.86,0
0.08917,-0.013027,0.10379,-0.25587,-0.14747,-0.13398,0.0054358,0,0,-1.2677,-0.14035,0,0.11306,0,0,0.17835,-0.020023,0,0.17948,-0.1472,-0.25614,-0.13398,87.136,-0.1791,0.11612,-7.6907e-05,0.88,0.86,0
0.063333,-0.012384,0.074996,-0.25419,-0.13969,-0.12754,0.0056785,0,0,-1.3172,-0.1264,0,0.11811,0,0,0.1819,-0.020069,0,0.18302,-0.13941,-0.25447,-0.12754,87.168,-0.17381,0.12143,-8.9003e-05,0.9,0.86,0
0.035978,-0.011706,0.045275,-0.26115,-0.13523,-0.12457,0.005512,0,0,-1.4204,-0.11079,0,0.11465,0,0,0.18976,-0.017931,0,0.19062,-0.13498,-0.26139,-0.12457,87.499,-0.17365,0.13192,-0.00011545,0.92,0.86,0
0.0070429,-0.010891,0.014595,-0.24993,-0.16704,-0.1333,0.0037137,0,0,-0.78459,-0.084309,0,0.04358,0,0,0.20307,-0.064597,0,0.21818,-0.16679,-0.25018,-0.1333,86.243,-0.18342,0.10882,-5.6726e-05,0.94,0.86,0
0.004595,-0.011823,0.010307,-0.25926,-0.27012,-0.16912,-0.0067756,0,0,-0.11718,-0.1313,0,-0.017617,0,0,0.23688,-0.084673,0,0.252,-0.256,-0.27337,-0.16912,-25.643,-0.23283,0.096744,4.1498e-05,0.96,0.86,0
0.0023036,-0.012846,0.0053445,-0.26053,-0.2958,-0.17225,-0.0082558,0,0,-0.11477,-0.16063,0,-0.021465,0,0,0.25449,-0.047491,0,0.25846,-0.25869,-0.29764,-0.17225,-12.543,-0.24286,0.11116,4.247e-05,0.98,0.86,0
0,-0.013247,0,-0.25282,-0.29457,-0.16422,-0.0077005,0,0,-0.11518,-0.16946,0,-0.020021,0,0,0.26722,0,0,0.26632,-0.25144,-0.29595,-0.16422,-10.123,-0.2372,0.11606,4.2334e-05,1,0.86,0
0,-0.026845,1,-0.53987,-1.5954,-1.6406,-0.043634,0,0,1.4309,0.05878,0,-0.11345,0,0,0.60141,-8.2833e-16,0,0.60129,-0.53807,-1.5972,-1.6406,-2.3632,-1.2586,1.0815,0.064606,0,0.88,0
0.028618,-0.029114,0.98797,-0.51464,-1.5366,-1.6033,-0.076568,0,0,1.4153,0.086767,0,-0.19908,0,0,0.60577,0.026456,0,0.6063,-0.50894,-1.5423,-1.6033,-4.261,-1.2182,1.0652,0.061388,0.02,0.88,0
0.056301,-0.036047,0.97568,-0.57109,-1.4668,-1.587,-0.20101,0,0,1.3207,0.15634,0,-0.52263,0,0,0.62905,0.045669,0,0.63079,-0.52805,-1.5098,-1.587,-12.086,-1.2083,1.0226,0.053863,0.04,0.88,0
0.082082,-0.047386,0.96296,-0.55936,-1.2769,-1.5138,-0.25649,0,0,1.2408,0.30798,0,-0.66688,0,0,0.64409,0.053209,0,0.64641,-0.47711,-1.3592,-1.5138,-17.78,-1.1167,0.96871,0.042705,0.06,0.88,0
0.10497,-0.061529,0.94976,-0.67449,-1.0743,-1.4744,-0.28963,0,0,1.0399,0.52016,0,-0.75304,0,0,0.67196,0.048905,0,0.67378,-0.52247,-1.2263,-1.4744,-27.694,-1.0744,0.8553,0.023253,0.08,0.88,0
0.12472,-0.075639,0.9362,-0.65509,-0.84394,-1.3859,-0.26206,0,0,0.95006,0.70456,0,-0.68135,0,0,0.68179,0.038408,0,0.68287,-0.47096,-1.0281,-1.3859,-35.093,-0.96164,0.79861,0.0095871,0.1,0.88,0
0.14222,-0.087506,0.92242,-0.71338,-0.72485,-1.3539,-0.18272,0,0,0.83266,0.81775,0,-0.47508,0,0,0.69234,0.02701,0,0.69286,-0.5363,-0.90193,-1.3539,-44.101,-0.93071,0.70937,-0.0033301,0.12,0.88,0
0.15845,-0.096356,0.90854,-0.69313,-0.6309,-1.3057,-0.13017,0,0,0.7964,0.8773,0,-0.33844,0,0,0.6946,0.017927,0,0.69483,-0.52818,-0.79585,-1.3057,-51.722,-0.8766,0.6842,-0.0083708,0.14,0.88,0
0.17408,-0.10232,0.89463,-0.68061,-0.58416,-1.2741,-0.089132,0,0,0.7715,0.89688,0,-0.23174,0,0,0.69504,0.01047,0,0.69511,-0.53104,-0.73372,-1.2741,-59.208,-0.84628,0.66526,-0.010524,0.16,0.88,0
0.18931,-0.10579,0.88074,-0.6684,-0.55491,-1.2477,-0.061009,0,0,0.75313,0.90067,0,-0.15862,0,0,0.6941,0.0045841,0,0.69412,-0.52834,-0.69498,-1.2477,-66.463,-0.82368,0.65224,-0.011176,0.18,0.88,0
0.2042,-0.10705,0.86687,-0.6602,-0.53776,-1.2263,-0.040677,0,0,0.73588,0.89504,0,-0.10576,0,0,0.69217,-0.00020921,0,0.69217,-0.52548,-0.67248,-1.2263,-73.199,-0.80807,0.64007,-0.01111,0.2,0.88,0
0.21875,-0.10624,0.85305,-0.65677,-0.53097,-1.2094,-0.023247,0,0,0.71838,0.88193,0,-0.060443,0,0,0.68923,-0.0042591,0,0.68924,-0.52681,-0.66093,-1.2094,-79.859,-0.79904,0.62637,-0.010697,0.22,0.88,0
0.23294,-0.10334,0.8393,-0.65715,-0.53541,-1.1971,-0.0039349,0,0,0.70189,0.86016,0,-0.010231,0,0,0.68493,-0.0078633,0,0.68498,-0.53528,-0.65728,-1.1971,-88.151,-0.79654,0.61001,-0.010104,0.24,0.88,0
0.24682,-0.098165,0.82565,-0.65799,-0.55527,-1.1896,0.02215,0,0,0.69113,0.82468,0,0.05759,0,0,0.67845,-0.011353,0,0.67855,-0.55069,-0.66256,-1.1896,78.336,-0.80096,0.591,-0.0093343,0.26,0.88,0
0.26058,-0.090395,0.81216,-0.64861,-0.59882,-1.1864,0.057806,0,0,0.69912,0.76384,0,0.1503,0,0,0.66779,-0.015158,0,0.66798,-0.56078,-0.68665,-1.1864,56.649,-0.81127,0.57314,-0.0081194,0.28,0.88,0
0.27479,-0.079859,0.79894,-0.62119,-0.69202,-1.1929,0.097746,0,0,0.74323,0.65116,0,0.25414,0,0,0.64945,-0.01971,0,0.64983,-0.55264,-0.76057,-1.1929,35.043,-0.83537,0.56572,-0.0052429,0.3,0.88,0
0.29031,-0.067044,0.78619,-0.57636,-0.85506,-1.2156,0.11585,0,0,0.83103,0.46872,0,0.3012,0,0,0.61908,-0.021335,0,0.6197,-0.5345,-0.89693,-1.2156,19.869,-0.88235,0.59027,0.001172,0.32,0.88,0
0.30803,-0.053539,0.77418,-0.52366,-1.0555,-1.2479,0.086505,0,0,0.94156,0.25013,0,0.22491,0,0,0.57343,-0.013491,0,0.57417,-0.50994,-1.0693,-1.2479,9.0095,-0.94238,0.66685,0.011624,0.34,0.88,0
0.32797,-0.041364,0.76325,-0.46245,-1.2015,-1.2624,0.017036,0,0,1.04,0.079193,0,0.044295,0,0,0.51064,0.011645,0,0.51178,-0.46206,-1.2019,-1.2624,1.3198,-0.97547,0.7719,0.023132,0.36,0.88,0
0.34963,-0.031171,0.75375,-0.4097,-1.278,-1.2601,-0.047048,0,0,1.1055,-0.023334,0,-0.12233,0,0,0.42991,0.053137,0,0.43521,-0.40716,-1.2806,-1.2601,-3.0924,-0.98259,0.86334,0.032987,0.38,0.88,0
0.37219,-0.021949,0.74605,-0.37521,-1.2999,-1.2486,-0.068589,0,0,1.1354,-0.066726,0,-0.17833,0,0,0.33214,0.095076,0,0.34948,-0.37015,-1.305,-1.2486,-4.219,-0.97457,0.90795,0.037943,0.4,0.88,0
0.39504,-0.012165,0.74047,-0.32009,-0.75817,-0.73999,-0.05981,0,0,0.36831,-0.042021,0,-0.63395,0,0,0.24766,0.066136,0,0.26225,-0.28118,-0.79708,-0.73999,-29.194,-0.60608,0.50064,0.018781,0.42,0.88,0
0.38693,-0.020767,0.70589,-0.30293,-0.28928,-0.2659,-0.04988,0,0,-0.38515,-0.24312,0,-1.0375,0,0,0.21158,0.020981,0,0.21273,-0.24576,-0.34645,-0.2659,-48.898,-0.28604,0.092284,-3.3974e-05,0.44,0.88,0
0.38005,-0.026607,0.67349,-0.29219,-0.29225,-0.25952,-0.042135,0,0,-0.33983,-0.34039,0,-0.87642,0,0,0.19687,0.024109,0,0.19833,-0.25009,-0.33436,-0.25952,-44.982,-0.28132,0.079973,-2.5041e-05,0.46,0.88,0
0.37333,-0.029964,0.64289,-0.28442,-0.28588,-0.25145,-0.035128,0,0,-0.34288,-0.35805,0,-0.73066,0,0,0.187,0.019327,0,0.18799,-0.25002,-0.32029,-0.25145,-44.405,-0.27392,0.069564,-1.7264e-05,0.48,0.88,0
0.36634,-0.031689,0.61365,-0.27847,-0.27832,-0.24374,-0.029861,0,0,-0.3612,-0.35959,0,-0.62111,0,0,0.17988,0.014333,0,0.18044,-0.24854,-0.30826,-0.24374,-45.074,-0.26685,0.062257,-1.2146e-05,0.5,0.88,0
0.35889,-0.032396,0.58533,-0.27354,-0.27055,-0.23639,-0.025807,0,0,-0.3863,-0.35524,0,-0.53679,0,0,0.17496,0.0099985,0,0.17524,-0.24619,-0.2979,-0.23639,-46.656,-0.26016,0.057234,-8.685e-06,0.52,0.88,0
0.35088,-0.03247,0.55766,-0.2694,-0.2614,-0.22895,-0.021242,0,0,-0.42071,-0.33749,0,-0.44183,0,0,0.17106,0.0055107,0,0.17115,-0.24378,-0.28701,-0.22895,-50.334,-0.25325,0.052254,-5.385e-06,0.54,0.88,0
0.34226,-0.032149,0.53044,-0.26402,-0.2533,-0.2215,-0.019089,0,0,-0.44219,-0.33071,0,-0.39706,0,0,0.16942,0.0028334,0,0.16945,-0.23883,-0.27849,-0.2215,-52.842,-0.24627,0.050598,-4.1174e-06,0.56,0.88,0
0.33297,-0.031583,0.50355,-0.26237,-0.24786,-0.21601,-0.018008,0,0,-0.48213,-0.33118,0,-0.37457,0,0,0.16729,0.0011019,0,0.16729,-0.2357,-0.27453,-0.21601,-55.975,-0.24208,0.051573,-3.7429e-06,0.58,0.88,0
0.32298,-0.030864,0.47691,-0.26002,-0.23997,-0.20961,-0.015192,0,0,-0.52429,-0.31571,0,-0.316,0,0,0.16576,-0.0012525,0,0.16576,-0.23179,-0.2682,-0.20961,-61.714,-0.23653,0.051235,-2.803e-06,0.6,0.88,0
0.31225,-0.030047,0.45045,-0.25622,-0.23208,-0.2028,-0.013199,0,0,-0.55561,-0.30452,0,-0.27454,0,0,0.16493,-0.0029794,0,0.16496,-0.22626,-0.26204,-0.2028,-66.223,-0.23036,0.051671,-2.4836e-06,0.62,0.88,0
0.30075,-0.029161,0.42413,-0.25394,-0.22531,-0.19679,-0.011709,0,0,-0.59436,-0.29661,0,-0.24355,0,0,0.16416,-0.0043244,0,0.16421,-0.22113,-0.25812,-0.19679,-70.359,-0.22535,0.053488,-2.7356e-06,0.64,0.88,0
0.28847,-0.028223,0.39792,-0.25189,-0.21862,-0.19089,-0.010246,0,0,-0.63436,-0.28839,0,-0.21311,0,0,0.16357,-0.0055357,0,0.16367,-0.21572,-0.25479,-0.19089,-74.184,-0.22047,0.055794,-3.3418e-06,0.66,0.88,0
0.27538,-0.027241,0.37179,-0.25005,-0.212,-0.18509,-0.0087737,0,0,-0.67559,-0.27988,0,-0.18249,0,0,0.16316,-0.0066691,0,0.16329,-0.21007,-0.25198,-0.18509,-77.621,-0.21571,0.05854,-4.3414e-06,0.68,0.88,0
0.26145,-0.026218,0.34571,-0.24842,-0.20544,-0.17937,-0.0072663,0,0,-0.71812,-0.27108,0,-0.15114,0,0,0.16289,-0.0077764,0,0.16308,-0.20424,-0.24962,-0.17937,-80.66,-0.21108,0.061692,-5.7905e-06,0.7,0.88,0
0.24665,-0.025156,0.31966,-0.24702,-0.19893,-0.17374,-0.005702,0,0,-0.76206,-0.26198,0,-0.1186,0,0,0.16278,-0.0089086,0,0.16303,-0.19827,-0.24769,-0.17374,-83.329,-0.20656,0.065235,-7.7657e-06,0.72,0.88,0
0.23097,-0.024054,0.29362,-0.24587,-0.19249,-0.16821,-0.0040624,0,0,-0.80766,-0.2525,0,-0.084498,0,0,0.16284,-0.010117,0,0.16315,-0.19218,-0.24618,-0.16821,-85.673,-0.20219,0.06917,-1.0372e-05,0.74,0.88,0
0.21435,-0.022914,0.26755,-0.24502,-0.18609,-0.16278,-0.0023321,0,0,-0.85531,-0.24248,0,-0.048507,0,0,0.1631,-0.011454,0,0.1635,-0.186,-0.24511,-0.16278,-87.737,-0.19796,0.073526,-1.3759e-05,0.76,0.88,0
0.19675,-0.021739,0.24143,-0.24455,-0.17974,-0.15746,-0.00050102,0,0,-0.90565,-0.23167,0,-0.010421,0,0,0.16362,-0.012978,0,0.16413,-0.17974,-0.24455,-0.15746,-89.557,-0.19392,0.078361,-1.8148e-05,0.78,0.88,0
0.17812,-0.020534,0.21519,-0.24456,-0.17341,-0.15229,0.0014284,0,0,-0.95964,-0.2196,0,0.029711,0,0,0.1645,-0.014747,0,0.16516,-0.17338,-0.24459,-0.15229,88.85,-0.19009,0.083773,-2.3867e-05,0.8,0.88,0
0.15837,-0.019311,0.18879,-0.24523,-0.16706,-0.14728,0.0034273,0,0,-1.0186,-0.20565,0,0.071287,0,0,0.1659,-0.016817,0,0.16675,-0.16691,-0.24538,-0.14728,87.494,-0.18652,0.089903,-3.1409e-05,0.82,0.88,0
0.13738,-0.018094,0.16211,-0.24674,-0.16066,-0.14248,0.0054137,0,0,-1.0843,-0.18903,0,0.1126,0,0,0.16806,-0.019218,0,0.16916,-0.16032,-0.24708,-0.14248,86.415,-0.18329,0.096917,-4.1467e-05,0.84,0.88,0
0.115,-0.01692,0.13501,-0.24926,-0.15416,-0.1379,0.0072271,0,0,-1.1582,-0.16909,0,0.15032,0,0,0.17141,-0.021902,0,0.17281,-0.15362,-0.24981,-0.1379,85.679,-0.18044,0.10494,-5.4889e-05,0.86,0.88,0
0.091051,-0.01584,0.10726,-0.25284,-0.14761,-0.13354,0.0086257,0,0,-1.2407,-0.14632,0,0.17941,0,0,0.17649,-0.024593,0,0.17822,-0.14691,-0.25354,-0.13354,85.345,-0.178,0.11391,-7.2393e-05,0.88,0.88,0
0.065369,-0.014871,0.07853,-0.25723,-0.14114,-0.12933,0.0094931,0,0,-1.3302,-0.12284,0,0.19746,0,0,0.18365,-0.026382,0,0.18558,-0.14037,-0.258,-0.12933,85.356,-0.1759,0.12353,-9.4201e-05,0.9,0.88,0
0.037842,-0.013818,0.048488,-0.26298,-0.13506,-0.12547,0.009729,0,0,-1.4301,-0.099723,0,0.20236,0,0,0.19247,-0.025182,0,0.19417,-0.13433,-0.26371,-0.12547,85.675,-0.1745,0.13403,-0.00012185,0.92,0.88,0
0.0081668,-0.012414,0.01694,-0.25697,-0.157,-0.13372,0.0054338,0,0,-0.80939,-0.053799,0,0.090938,0,0,0.21595,-0.087165,0,0.24047,-0.15669,-0.25728,-0.13372,87.139,-0.18257,0.11578,-7.8226e-05,0.94,0.88,0
0.0054671,-0.014396,0.012245,-0.28212,-0.27578,-0.17961,-0.0021878,0,0,-0.13325,-0.12501,0,-0.0056883,0,0,0.26272,-0.12698,0,0.29273,-0.2751,-0.2828,-0.17961,-72.69,-0.24584,0.099557,4.966e-05,0.96,0.88,0
0.0028366,-0.016055,0.0064312,-0.28792,-0.29993,-0.18279,0.00025026,0,0,-0.13668,-0.15229,0,0.00065068,0,0,0.30613,-0.07057,0,0.31347,-0.28792,-0.29994,-0.18279,1.1933,-0.25688,0.11163,6.8653e-05,0.98,0.88,0
0,-0.016636,0,-0.27974,-0.28906,-0.17064,-0.011165,0,0,-0.14183,-0.15394,0,-0.029029,0,0,0.32156,-2.0817e-17,0,0.32023,-0.2723,-0.29649,-0.17064,-33.676,-0.24648,0.11567,6.7914e-05,1,0.88,0
0,-0.025045,1,-0.52562,-1.5175,-1.613,-0.035563,0,0,1.4135,0.12403,0,-0.092464,0,0,0.62294,2.8545e-15,0,0.6229,-0.52434,-1.5188,-1.613,-2.0507,-1.2187,1.0447,0.056964,0,0.9,0
0.028271,-0.026895,0.98754,-0.51897,-1.4729,-1.5851,-0.078851,0,0,1.386,0.14584,0,-0.20501,0,0,0.62671,0.017336,0,0.62693,-0.5125,-1.4794,-1.5851,-4.6934,-1.1923,1.0239,0.053148,0.02,0.9,0
0.055439,-0.032338,0.97493,-0.54454,-1.3868,-1.5543,-0.15333,0,0,1.3127,0.21781,0,-0.39865,0,0,0.63686,0.03042,0,0.63761,-0.5175,-1.4138,-1.5543,-10.003,-1.1619,0.97421,0.044175,0.04,0.9,0
0.08078,-0.040867,0.96207,-0.58317,-1.245,-1.5105,-0.20962,0,0,1.2056,0.34513,0,-0.54502,0,0,0.65049,0.036563,0,0.65156,-0.52237,-1.3058,-1.5105,-16.175,-1.1129,0.90338,0.031411,0.06,0.9,0
0.10366,-0.051308,0.94891,-0.62677,-1.0656,-1.4566,-0.23161,0,0,1.0788,0.50828,0,-0.60219,0,0,0.66415,0.035811,0,0.66515,-0.52716,-1.1653,-1.4566,-23.273,-1.0497,0.82341,0.017041,0.08,0.9,0
0.12393,-0.062017,0.9355,-0.66791,-0.89481,-1.4043,-0.2159,0,0,0.95733,0.66236,0,-0.56133,0,0,0.67525,0.030353,0,0.67594,-0.53747,-1.0252,-1.4043,-31.139,-0.98901,0.75268,0.0047118,0.1,0.9,0
0.14195,-0.07155,0.9219,-0.69846,-0.76354,-1.3605,-0.1774,0,0,0.86065,0.77605,0,-0.46125,0,0,0.68278,0.023173,0,0.68317,-0.55064,-0.91136,-1.3605,-39.803,-0.94083,0.70276,-0.0033461,0.12,0.9,0
0.15836,-0.079104,0.90819,-0.71466,-0.67376,-1.3247,-0.13385,0,0,0.79307,0.84624,0,-0.348,0,0,0.68706,0.016245,0,0.68725,-0.55881,-0.82961,-1.3247,-49.343,-0.90438,0.67271,-0.0075303,0.14,0.9,0
0.17368,-0.084469,0.89442,-0.71989,-0.61505,-1.2949,-0.096186,0,0,0.74751,0.88381,0,-0.25008,0,0,0.68896,0.010374,0,0.68903,-0.55793,-0.77702,-1.2949,-59.295,-0.87662,0.65549,-0.0092058,0.16,0.9,0
0.18826,-0.087728,0.88063,-0.7196,-0.57725,-1.2697,-0.066655,0,0,0.71511,0.90017,0,-0.1733,0,0,0.68921,0.005577,0,0.68923,-0.55091,-0.74594,-1.2697,-68.439,-0.85551,0.64381,-0.0095847,0.18,0.9,0
0.20228,-0.089031,0.86685,-0.71831,-0.55547,-1.249,-0.043355,0,0,0.68988,0.90157,0,-0.11272,0,0,0.68821,0.0017362,0,0.68821,-0.54465,-0.72913,-1.249,-75.983,-0.84092,0.6326,-0.0093708,0.2,0.9,0
0.21585,-0.08847,0.8531,-0.71753,-0.54785,-1.2327,-0.022948,0,0,0.66974,0.89033,0,-0.059666,0,0,0.68601,-0.0012417,0,0.68601,-0.5448,-0.72058,-1.2327,-82.432,-0.8327,0.61904,-0.0089527,0.22,0.9,0
0.22907,-0.086045,0.83941,-0.71644,-0.55528,-1.2209,-0.0020439,0,0,0.65584,0.86534,0,-0.0053142,0,0,0.68235,-0.003361,0,0.68236,-0.55526,-0.71646,-1.2209,-89.273,-0.83088,0.60149,-0.0085289,0.24,0.9,0
0.24209,-0.081681,0.82581,-0.71146,-0.58151,-1.2137,0.021609,0,0,0.65291,0.82185,0,0.056184,0,0,0.67651,-0.0044615,0,0.67653,-0.57801,-0.71496,-1.2137,80.802,-0.83556,0.57948,-0.0081433,0.26,0.9,0
0.25519,-0.075312,0.81235,-0.69796,-0.63499,-1.2122,0.046939,0,0,0.66855,0.75042,0,0.12204,0,0,0.66721,-0.0040189,0,0.66724,-0.60995,-0.723,-1.2122,61.928,-0.8484,0.55447,-0.007543,0.28,0.9,0
0.26883,-0.06707,0.79912,-0.67254,-0.72524,-1.2185,0.065741,0,0,0.70969,0.64118,0,0.17093,0,0,0.65257,-0.00038892,0,0.65261,-0.62807,-0.76971,-1.2185,34.08,-0.87208,0.53385,-0.0059988,0.3,0.9,0
0.28358,-0.057515,0.78625,-0.63694,-0.85272,-1.2331,0.06388,0,0,0.77507,0.49455,0,0.16609,0,0,0.63041,0.0098206,0,0.63058,-0.61945,-0.87022,-1.2331,15.314,-0.9076,0.53443,-0.0024318,0.32,0.9,0
0.29983,-0.047684,0.7739,-0.59483,-0.99457,-1.2507,0.029462,0,0,0.85266,0.333,0,0.076602,0,0,0.59842,0.031971,0,0.5994,-0.59267,-0.99673,-1.2507,4.1927,-0.94671,0.57481,0.003733,0.34,0.9,0
0.31768,-0.038669,0.76231,-0.54498,-1.1153,-1.2604,-0.03347,0,0,0.93004,0.18862,0,-0.087022,0,0,0.55294,0.072015,0,0.55775,-0.54302,-1.1173,-1.2604,-3.3472,-0.97356,0.65759,0.012304,0.36,0.9,0
0.33703,-0.03098,0.75179,-0.47054,-1.2015,-1.2534,-0.097978,0,0,1.0177,0.067489,0,-0.25474,0,0,0.48104,0.13514,0,0.50002,-0.45763,-1.2144,-1.2534,-7.5038,-0.97513,0.77699,0.023887,0.38,0.9,0
0.35839,-0.023282,0.74307,-0.42288,-1.3157,-1.2646,-0.12567,0,0,1.0943,-0.066356,0,-0.32675,0,0,0.37152,0.22276,0,0.43812,-0.40553,-1.333,-1.2646,-7.8617,-1.0011,0.89527,0.036129,0.4,0.9,0
0.38081,-0.013267,0.73693,-0.34594,-0.80124,-0.75867,-0.086377,0,0,0.36988,-0.098373,0,-0.84546,0,0,0.26344,0.14608,0,0.31463,-0.29861,-0.84857,-0.75867,-28.457,-0.63528,0.52149,0.019387,0.42,0.9,0
0.37319,-0.0262,0.70177,-0.30084,-0.2999,-0.26794,-0.061443,0,0,-0.3421,-0.33238,0,-1.278,0,0,0.2103,0.036879,0,0.21378,-0.23893,-0.36182,-0.26794,-45.218,-0.28956,0.11126,-5.4839e-05,0.44,0.9,0
0.36712,-0.033415,0.66963,-0.28735,-0.29592,-0.25868,-0.048098,0,0,-0.29813,-0.38723,0,-1.0004,0,0,0.19366,0.030821,0,0.19619,-0.24335,-0.33992,-0.25868,-42.456,-0.28065,0.089894,-3.3677e-05,0.46,0.9,0
0.36126,-0.037125,0.6398,-0.27883,-0.28795,-0.25001,-0.038919,0,0,-0.29979,-0.39453,0,-0.80951,0,0,0.18211,0.02319,0,0.1836,-0.24421,-0.32257,-0.25001,-41.662,-0.27226,0.075634,-2.1781e-05,0.48,0.9,0
0.35513,-0.038881,0.61135,-0.27268,-0.27959,-0.2421,-0.032435,0,0,-0.31802,-0.38989,0,-0.67466,0,0,0.17522,0.016695,0,0.17601,-0.24351,-0.30875,-0.2421,-41.959,-0.26479,0.065957,-1.4714e-05,0.5,0.9,0
0.34854,-0.039501,0.58373,-0.26778,-0.2711,-0.23463,-0.027702,0,0,-0.34479,-0.37924,0,-0.57621,0,0,0.171,0.011516,0,0.17139,-0.24169,-0.29719,-0.23463,-43.289,-0.25784,0.059348,-1.0226e-05,0.52,0.9,0
0.34134,-0.039428,0.55663,-0.26391,-0.26295,-0.22764,-0.024139,0,0,-0.37723,-0.36727,0,-0.5021,0,0,0.16828,0.0074419,0,0.16844,-0.23929,-0.28758,-0.22764,-45.568,-0.2515,0.055045,-7.2895e-06,0.54,0.9,0
0.33345,-0.038941,0.52988,-0.26065,-0.25519,-0.22099,-0.021369,0,0,-0.41247,-0.35574,0,-0.44448,0,0,0.16642,0.0042201,0,0.16648,-0.23638,-0.27946,-0.22099,-48.637,-0.24561,0.0525,-5.3353e-06,0.56,0.9,0
0.32484,-0.038207,0.50338,-0.25778,-0.24778,-0.21459,-0.019103,0,0,-0.44919,-0.34514,0,-0.39733,0,0,0.1651,0.0016386,0,0.16511,-0.23303,-0.27252,-0.21459,-52.337,-0.24005,0.051266,-4.0227e-06,0.58,0.9,0
0.31548,-0.037321,0.47705,-0.25518,-0.24062,-0.20837,-0.017144,0,0,-0.48681,-0.3354,0,-0.3566,0,0,0.16412,-0.00046811,0,0.16412,-0.22928,-0.26653,-0.20837,-56.502,-0.23472,0.051023,-3.1665e-06,0.6,0.9,0
0.30537,-0.036338,0.45086,-0.25279,-0.23366,-0.20229,-0.015365,0,0,-0.52518,-0.32625,0,-0.3196,0,0,0.16337,-0.0022279,0,0.16339,-0.22513,-0.26133,-0.20229,-60.95,-0.22958,0.051558,-2.6752e-06,0.62,0.9,0
0.29448,-0.035287,0.42477,-0.25058,-0.22685,-0.19633,-0.013681,0,0,-0.56427,-0.31746,0,-0.28458,0,0,0.16279,-0.0037413,0,0.16283,-0.22061,-0.25683,-0.19633,-65.467,-0.22459,0.052735,-2.5142e-06,0.64,0.9,0
0.2828,-0.034182,0.39877,-0.24854,-0.22016,-0.19046,-0.012036,0,0,-0.6041,-0.30889,0,-0.25034,0,0,0.16232,-0.0050905,0,0.1624,-0.21574,-0.25296,-0.19046,-69.851,-0.21972,0.054457,-2.6825e-06,0.66,0.9,0
0.27031,-0.033031,0.37283,-0.24666,-0.21356,-0.18467,-0.010385,0,0,-0.64469,-0.30045,0,-0.21601,0,0,0.16196,-0.0063455,0,0.16209,-0.21057,-0.24965,-0.18467,-73.945,-0.21496,0.056657,-3.1995e-06,0.68,0.9,0
0.25701,-0.031837,0.34694,-0.24493,-0.20705,-0.17896,-0.0086955,0,0,-0.68609,-0.2921,0,-0.18086,0,0,0.1617,-0.0075702,0,0.16188,-0.20515,-0.24683,-0.17896,-77.671,-0.21031,0.059286,-4.101e-06,0.7,0.9,0
0.24287,-0.030599,0.32108,-0.24337,-0.20062,-0.17333,-0.0069334,0,0,-0.7284,-0.2838,0,-0.14422,0,0,0.16153,-0.0088263,0,0.16177,-0.19953,-0.24447,-0.17333,-81.014,-0.20578,0.062314,-5.44e-06,0.72,0.9,0
0.22787,-0.029316,0.29525,-0.24201,-0.19428,-0.16779,-0.0050651,0,0,-0.77184,-0.27548,0,-0.10535,0,0,0.16147,-0.010178,0,0.16179,-0.19375,-0.24254,-0.16779,-84.008,-0.20136,0.065732,-7.2948e-06,0.74,0.9,0
0.21199,-0.027987,0.26941,-0.24088,-0.18802,-0.16235,-0.0030522,0,0,-0.81677,-0.267,0,-0.063487,0,0,0.16154,-0.011695,0,0.16197,-0.18785,-0.24106,-0.16235,-86.706,-0.19708,0.06956,-9.7854e-06,0.76,0.9,0
0.1952,-0.026608,0.24355,-0.24008,-0.18183,-0.15702,-0.00085053,0,0,-0.86384,-0.25807,0,-0.017691,0,0,0.16181,-0.013462,0,0.16236,-0.18182,-0.24009,-0.15702,-89.164,-0.19298,0.073865,-1.3106e-05,0.78,0.9,0
0.17744,-0.025173,0.21764,-0.23973,-0.17569,-0.15183,0.00159,0,0,-0.91415,-0.24817,0,0.033072,0,0,0.16234,-0.01558,0,0.16308,-0.17566,-0.23977,-0.15183,88.579,-0.18909,0.078776,-1.7583e-05,0.8,0.9,0
0.15864,-0.023677,0.19161,-0.24007,-0.16957,-0.14684,0.0043162,0,0,-0.96955,-0.23638,0,0.089776,0,0,0.1633,-0.018178,0,0.1643,-0.16931,-0.24033,-0.14684,86.509,-0.18549,0.084526,-2.3787e-05,0.82,0.9,0
0.13866,-0.022117,0.16538,-0.24146,-0.16339,-0.14213,0.007348,0,0,-1.033,-0.22117,0,0.15284,0,0,0.16497,-0.021415,0,0.16635,-0.16271,-0.24214,-0.14213,84.669,-0.18233,0.091477,-3.2706e-05,0.84,0.9,0
0.11732,-0.020504,0.13882,-0.24445,-0.15707,-0.13781,0.010613,0,0,-1.1091,-0.20033,0,0.22075,0,0,0.16787,-0.025471,0,0.16979,-0.1558,-0.24572,-0.13781,83.173,-0.17977,0.10013,-4.6005e-05,0.86,0.9,0
0.094298,-0.01888,0.11166,-0.2496,-0.15042,-0.13397,0.013881,0,0,-1.2026,-0.17115,0,0.28873,0,0,0.17305,-0.03046,0,0.17572,-0.14852,-0.25151,-0.13397,82.181,-0.178,0.11099,-6.6165e-05,0.88,0.9,0
0.06921,-0.017298,0.083439,-0.25733,-0.14354,-0.13069,0.016702,0,0,-1.317,-0.13366,0,0.34741,0,0,0.18227,-0.036087,0,0.18588,-0.14114,-0.25973,-0.13069,81.82,-0.17719,0.12414,-9.5917e-05,0.9,0.9,0
0.041617,-0.015695,0.053333,-0.26692,-0.13623,-0.12761,0.019257,0,0,-1.4488,-0.089632,0,0.40054,0,0,0.19577,-0.03961,0,0.19993,-0.13345,-0.26969,-0.12761,81.79,-0.17692,0.13926,-0.00013787,0.92,0.9,0
0.011258,-0.013043,0.020793,-0.27301,-0.14645,-0.13753,0.019815,0,0,-0.84021,-0.020605,0,0.21666,0,0,0.23686,-0.14477,0,0.2909,-0.14328,-0.27617,-0.13753,81.091,-0.18566,0.13597,-0.00013084,0.94,0.9,0
0.0080085,-0.016823,0.015386,-0.33281,-0.2965,-0.20418,0.034261,0,0,-0.16722,-0.12002,0,0.089079,0,0,0.31564,-0.21176,0,0.38205,-0.27588,-0.35343,-0.20418,58.957,-0.27783,0.12929,-7.5163e-06,0.96,0.9,0
0.0045698,-0.018938,0.0081673,-0.34996,-0.27599,-0.19595,0.026478,0,0,-0.20021,-0.10405,0,0.068842,0,0,0.38465,-0.10322,0,0.39623,-0.26749,-0.35846,-0.19595,72.201,-0.27397,0.14107,-2.9617e-05,0.98,0.9,0
0,-0.019404,0,-0.36279,-0.26063,-0.18703,-0.0089729,0,0,-0.22849,-0.09569,0,-0.023329,0,0,0.40836,-2.7756e-17,0,0.40619,-0.25985,-0.36357,-0.18703,-85.018,-0.27015,0.15367,-5.5442e-05,1,0.9,0
0,-0.021884,1,-0.52621,-1.4471,-1.592,-0.026851,0,0,1.3855,0.18837,0,-0.069812,0,0,0.63608,2.7179e-15,0,0.63607,-0.52543,-1.4479,-1.592,-1.6687,-1.1884,1.0023,0.04813,0,0.92,0
0.02771,-0.02328,0.98728,-0.51874,-1.402,-1.5635,-0.06312,0,0,1.3582,0.20996,0,-0.16411,0,0,0.63837,0.010627,0,0.63845,-0.51425,-1.4065,-1.5635,-4.067,-1.1614,0.98021,0.044216,0.02,0.92,0
0.054327,-0.027334,0.97447,-0.54305,-1.3228,-1.5342,-0.11989,0,0,1.2885,0.27487,0,-0.3117,0,0,0.64464,0.018979,0,0.64492,-0.52503,-1.3408,-1.5342,-8.5465,-1.1334,0.92772,0.035075,0.04,0.92,0
0.079251,-0.033581,0.96149,-0.57965,-1.2055,-1.497,-0.16163,0,0,1.1926,0.379,0,-0.42023,0,0,0.65336,0.023599,0,0.6538,-0.54038,-1.2448,-1.497,-13.658,-1.0941,0.85878,0.023316,0.06,0.92,0
0.10203,-0.041197,0.94833,-0.62259,-1.0646,-1.4545,-0.18036,0,0,1.0815,0.50682,0,-0.46895,0,0,0.66266,0.024275,0,0.66312,-0.55834,-1.1289,-1.4545,-19.608,-1.0472,0.7857,0.011272,0.08,0.92,0
0.12251,-0.049145,0.93499,-0.66507,-0.92415,-1.4118,-0.17485,0,0,0.97069,0.63389,0,-0.45461,0,0,0.67098,0.021905,0,0.67134,-0.577,-1.0122,-1.4118,-26.734,-1.0003,0.72313,0.0014363,0.1,0.92,0
0.14086,-0.056464,0.92149,-0.701,-0.80378,-1.3729,-0.15171,0,0,0.8735,0.73989,0,-0.39446,0,0,0.67742,0.017863,0,0.67766,-0.59221,-0.91257,-1.3729,-35.644,-0.95924,0.67973,-0.0049126,0.12,0.92,0
0.15745,-0.062506,0.90789,-0.72712,-0.71125,-1.3394,-0.12106,0,0,0.79597,0.8166,0,-0.31474,0,0,0.6818,0.013375,0,0.68194,-0.59787,-0.8405,-1.3394,-46.875,-0.92592,0.65485,-0.008034,0.14,0.92,0
0.1727,-0.066967,0.89422,-0.74368,-0.64499,-1.3108,-0.090642,0,0,0.73728,0.86558,0,-0.23567,0,0,0.68437,0.0091839,0,0.68443,-0.59113,-0.79754,-1.3108,-59.282,-0.89983,0.64188,-0.0089985,0.16,0.92,0
0.18694,-0.069783,0.88052,-0.75328,-0.6007,-1.2867,-0.064086,0,0,0.69346,0.89181,0,-0.16662,0,0,0.68546,0.0056295,0,0.68549,-0.57735,-0.77662,-1.2867,-69.984,-0.88023,0.63367,-0.008844,0.18,0.92,0
0.20044,-0.070988,0.8668,-0.7585,-0.57486,-1.2668,-0.041542,0,0,0.6608,0.89953,0,-0.10801,0,0,0.68535,0.0028477,0,0.68536,-0.5659,-0.76746,-1.2668,-77.829,-0.86672,0.625,-0.0082834,0.2,0.92,0
0.21337,-0.070631,0.8531,-0.76078,-0.56606,-1.2511,-0.021521,0,0,0.63748,0.89062,0,-0.055953,0,0,0.68413,0.00096185,0,0.68413,-0.56371,-0.76313,-1.2511,-83.768,-0.85933,0.61258,-0.0077262,0.22,0.92,0
0.22593,-0.06873,0.83944,-0.7598,-0.57486,-1.2398,-0.0023726,0,0,0.62405,0.86446,0,-0.0061689,0,0,0.68171,0.00021307,0,0.68171,-0.57483,-0.75983,-1.2398,-89.265,-0.85816,0.5945,-0.0073733,0.24,0.92,0
0.23834,-0.065291,0.82583,-0.75404,-0.60395,-1.2332,0.016313,0,0,0.62295,0.81806,0,0.042413,0,0,0.67779,0.0011154,0,0.6778,-0.6022,-0.75579,-1.2332,83.868,-0.86374,0.56997,-0.0072331,0.26,0.92,0
0.25085,-0.060378,0.81232,-0.74178,-0.65713,-1.232,0.032121,0,0,0.63728,0.74733,0,0.083515,0,0,0.67186,0.0047338,0,0.67188,-0.64632,-0.75259,-1.232,71.403,-0.87697,0.54043,-0.0070619,0.28,0.92,0
0.26383,-0.054212,0.79896,-0.72308,-0.73655,-1.2369,0.039045,0,0,0.6679,0.65038,0,0.10152,0,0,0.66329,0.013071,0,0.66341,-0.69019,-0.76944,-1.2369,40.104,-0.89883,0.51165,-0.0063267,0.3,0.92,0
0.27757,-0.047262,0.78579,-0.70073,-0.83747,-1.2472,0.028756,0,0,0.71048,0.53272,0,0.074767,0,0,0.65144,0.029485,0,0.65207,-0.69493,-0.84327,-1.2472,11.406,-0.92849,0.49511,-0.0043988,0.32,0.92,0
0.29225,-0.040219,0.7729,-0.67927,-0.94583,-1.2604,-0.0051317,0,0,0.75551,0.40898,0,-0.013342,0,0,0.63562,0.058963,0,0.6382,-0.67917,-0.94593,-1.2604,-1.1025,-0.96184,0.50395,-0.0009314,0.34,0.92,0
0.30779,-0.033819,0.76037,-0.66038,-1.0451,-1.272,-0.062851,0,0,0.79513,0.29497,0,-0.16341,0,0,0.6138,0.10866,0,0.62285,-0.65037,-1.0551,-1.272,-9.0467,-0.9925,0.54649,0.0041521,0.36,0.92,0
0.32405,-0.028472,0.74835,-0.62939,-1.1293,-1.2759,-0.14528,0,0,0.84052,0.1907,0,-0.37772,0,0,0.58066,0.1901,0,0.60957,-0.59023,-1.1684,-1.2759,-15.084,-1.0115,0.63876,0.012117,0.38,0.92,0
0.34141,-0.024603,0.73714,-0.45942,-1.1848,-1.2304,-0.20432,0,0,1.0023,0.059291,0,-0.53123,0,0,0.4567,0.32769,0,0.55845,-0.40583,-1.2384,-1.2304,-14.697,-0.95821,0.8286,0.029209,0.4,0.92,0
0.36414,-0.0161,0.73008,-0.38463,-0.92012,-0.80209,-0.18891,0,0,0.36358,-0.27277,0,-1.3878,0,0,0.28901,0.33958,0,0.47037,-0.29811,-1.0066,-0.80209,-30.269,-0.70228,0.64068,0.027537,0.42,0.92,0
0.35595,-0.034063,0.69409,-0.30986,-0.32818,-0.27817,-0.082851,0,0,-0.32957,-0.52004,0,-1.7233,0,0,0.20767,0.061898,0,0.21698,-0.23566,-0.40237,-0.27817,-41.846,-0.3054,0.15004,-0.00012769,0.44,0.92,0
0.35096,-0.042096,0.66362,-0.28417,-0.31015,-0.26125,-0.059492,0,0,-0.23838,-0.50855,0,-1.2374,0,0,0.18318,0.042778,0,0.18805,-0.23627,-0.35805,-0.26125,-38.842,-0.28519,0.11142,-5.9172e-05,0.46,0.92,0
0.34642,-0.045746,0.63547,-0.2728,-0.29777,-0.25061,-0.045776,0,0,-0.23085,-0.49051,0,-0.95214,0,0,0.17287,0.029636,0,0.17535,-0.23784,-0.33274,-0.25061,-37.373,-0.27373,0.0892,-3.3948e-05,0.48,0.92,0
0.34173,-0.047285,0.6083,-0.26559,-0.28584,-0.24147,-0.037047,0,0,-0.25087,-0.4615,0,-0.77058,0,0,0.16821,0.020438,0,0.16942,-0.23731,-0.31412,-0.24147,-37.356,-0.2643,0.07482,-2.1288e-05,0.5,0.92,0
0.33638,-0.047566,0.58165,-0.26134,-0.2754,-0.23373,-0.031101,0,0,-0.28713,-0.43341,0,-0.64689,0,0,0.16571,0.013847,0,0.16627,-0.23648,-0.30025,-0.23373,-38.629,-0.25682,0.065193,-1.4145e-05,0.52,0.92,0
0.33024,-0.047161,0.55528,-0.25825,-0.26609,-0.22671,-0.026962,0,0,-0.32801,-0.40954,0,-0.56081,0,0,0.16423,0.0089911,0,0.16447,-0.23493,-0.28942,-0.22671,-40.864,-0.25035,0.059028,-9.8773e-06,0.54,0.92,0
0.32326,-0.046379,0.52909,-0.25566,-0.25766,-0.22013,-0.023885,0,0,-0.36951,-0.39029,0,-0.4968,0,0,0.16328,0.005313,0,0.16336,-0.23276,-0.28057,-0.22013,-43.803,-0.24449,0.055216,-7.1459e-06,0.56,0.92,0
0.31546,-0.045389,0.50303,-0.25329,-0.24986,-0.21382,-0.021424,0,0,-0.41045,-0.37477,0,-0.44561,0,0,0.1626,0.002452,0,0.16262,-0.23008,-0.27307,-0.21382,-47.289,-0.23899,0.053018,-5.2973e-06,0.58,0.92,0
0.30684,-0.04428,0.47706,-0.25103,-0.24248,-0.20769,-0.019314,0,0,-0.45078,-0.36189,0,-0.40173,0,0,0.16208,0.00016529,0,0.16208,-0.22698,-0.26654,-0.20769,-51.239,-0.23373,0.051965,-4.0035e-06,0.6,0.92,0
0.29743,-0.043097,0.45116,-0.24887,-0.23541,-0.20168,-0.017402,0,0,-0.49077,-0.35077,0,-0.36195,0,0,0.16166,-0.0017168,0,0.16167,-0.22348,-0.26079,-0.20168,-55.573,-0.22865,0.051781,-3.1089e-06,0.62,0.92,0
0.28721,-0.041859,0.42533,-0.24679,-0.22854,-0.19576,-0.015594,0,0,-0.53064,-0.34084,0,-0.32436,0,0,0.16129,-0.0033188,0,0.16133,-0.21959,-0.25573,-0.19576,-60.167,-0.2237,0.052296,-2.5448e-06,0.64,0.92,0
0.2762,-0.040579,0.39955,-0.24479,-0.22183,-0.18993,-0.013832,0,0,-0.57054,-0.33175,0,-0.2877,0,0,0.16097,-0.0047372,0,0.16104,-0.21533,-0.25128,-0.18993,-64.846,-0.21885,0.053396,-2.2864e-06,0.66,0.92,0
0.26439,-0.03926,0.37382,-0.24287,-0.21525,-0.18416,-0.012067,0,0,-0.61054,-0.32332,0,-0.251,0,0,0.16068,-0.0060517,0,0.16079,-0.21072,-0.2474,-0.18416,-69.425,-0.2141,0.054997,-2.331e-06,0.68,0.92,0
0.25178,-0.037903,0.34813,-0.24103,-0.2088,-0.17847,-0.010261,0,0,-0.65068,-0.31548,0,-0.21343,0,0,0.16041,-0.0073334,0,0.16058,-0.20581,-0.24402,-0.17847,-73.757,-0.20943,0.057032,-2.6895e-06,0.7,0.92,0
0.23836,-0.036508,0.32249,-0.23928,-0.20247,-0.17284,-0.0083725,0,0,-0.69102,-0.3082,0,-0.17415,0,0,0.16018,-0.0086509,0,0.16041,-0.20066,-0.2411,-0.17284,-77.769,-0.20486,0.05945,-3.3845e-06,0.72,0.92,0
0.22414,-0.035073,0.29688,-0.23763,-0.19626,-0.16728,-0.0063553,0,0,-0.73164,-0.30146,0,-0.13219,0,0,0.15997,-0.010076,0,0.16029,-0.19531,-0.23858,-0.16728,-81.459,-0.20039,0.06222,-4.4542e-06,0.74,0.92,0
0.2091,-0.033594,0.2713,-0.2361,-0.19019,-0.1618,-0.0041522,0,0,-0.77273,-0.29525,0,-0.086365,0,0,0.15982,-0.011693,0,0.16024,-0.18981,-0.23647,-0.1618,-84.874,-0.19603,0.065337,-5.9641e-06,0.76,0.92,0
0.19323,-0.032061,0.24574,-0.23475,-0.18425,-0.15641,-0.0016857,0,0,-0.81466,-0.28945,0,-0.035063,0,0,0.15974,-0.013603,0,0.16031,-0.18419,-0.2348,-0.15641,-88.09,-0.1918,0.06884,-8.0323e-06,0.78,0.92,0
0.17651,-0.030461,0.22018,-0.23368,-0.17845,-0.15116,0.0011525,0,0,-0.8582,-0.28378,0,0.023972,0,0,0.15978,-0.015944,0,0.16057,-0.17842,-0.2337,-0.15116,88.805,-0.18776,0.072844,-1.0888e-05,0.8,0.92,0
0.1589,-0.028766,0.1946,-0.2331,-0.17278,-0.14609,0.0045149,0,0,-0.90489,-0.2776,0,0.09391,0,0,0.16006,-0.018911,0,0.16117,-0.17245,-0.23344,-0.14609,85.743,-0.18399,0.0776,-1.5e-05,0.82,0.92,0
0.14032,-0.02694,0.16896,-0.23341,-0.16722,-0.14131,0.008603,0,0,-0.95786,-0.26947,0,0.17894,0,0,0.16077,-0.022791,0,0.16237,-0.16612,-0.23451,-0.14131,82.714,-0.18065,0.083604,-2.1342e-05,0.84,0.92,0
0.12059,-0.024933,0.14316,-0.2354,-0.16169,-0.13702,0.013669,0,0,-1.0231,-0.25659,0,0.28432,0,0,0.16237,-0.028035,0,0.16475,-0.15924,-0.23785,-0.13702,79.825,-0.17804,0.09176,-3.1974e-05,0.86,0.92,0
0.099393,-0.022686,0.117,-0.24069,-0.15623,-0.1337,0.019888,0,0,-1.1127,-0.23427,0,0.41368,0,0,0.16587,-0.035354,0,0.16957,-0.15178,-0.24514,-0.1337,77.392,-0.17688,0.10359,-5.1285e-05,0.88,0.92,0
0.07608,-0.020217,0.090078,-0.25162,-0.15067,-0.13195,0.027491,0,0,-1.2446,-0.19474,0,0.57182,0,0,0.1745,-0.045855,0,0.18039,-0.14367,-0.25862,-0.13195,75.712,-0.17808,0.12124,-8.8645e-05,0.9,0.92,0
0.04961,-0.017403,0.061163,-0.27387,-0.14785,-0.13416,0.0371,0,0,-1.453,-0.14238,0,0.77169,0,0,0.19639,-0.061264,0,0.20597,-0.13774,-0.28398,-0.13416,74.755,-0.1853,0.14806,-0.00016638,0.92,0.92,0
0.017961,-0.013239,0.027235,-0.28951,-0.17623,-0.15504,0.10408,0,0,-0.86711,-0.048976,0,0.67789,0,0,0.269,-0.31756,0,0.43876,-0.10569,-0.36005,-0.15504,63.086,-0.20693,0.23498,-0.00061505,0.94,0.92,0
0.014925,-0.019197,0.020716,-0.39456,-0.22406,-0.2063,0.10682,0,0,-0.24474,-0.02308,0,0.27773,0,0,0.41687,-0.28862,0,0.50155,-0.17264,-0.44598,-0.2063,64.297,-0.27497,0.25816,-0.00083324,0.96,0.92,0
0.0081716,-0.020217,0.01056,-0.52332,-0.22916,-0.2363,0.068514,0,0,-0.37312,0.0092919,0,0.17814,0,0,0.51789,-0.1278,0,0.5303,-0.21398,-0.5385,-0.2363,77.511,-0.32959,0.31395,-0.0015622,0.98,0.92,0
0,-0.020464,0,-0.53938,-0.21092,-0.22509,-0.0047368,0,0,-0.40858,0.018425,0,-0.012316,0,0,0.52799,0,0,0.52546,-0.21085,-0.53945,-0.22509,-89.174,-0.32513,0.32172,-0.0016989,1,0.92,0
0,-0.01751,1,-0.53247,-1.3907,-1.577,-0.018959,0,0,1.3578,0.24213,0,-0.049293,0,0,0.6442,2.4785e-16,0,0.64419,-0.53205,-1.3911,-1.577,-1.2649,-1.1667,0.96549,0.040512,0,0.94,0
0.027157,-0.018496,0.98712,-0.52418,-1.3476,-1.5486,-0.046423,0,0,1.3318,0.26139,0,-0.1207,0,0,0.64569,0.0065022,0,0.64572,-0.52157,-1.3502,-1.5486,-3.2168,-1.1401,0.94363,0.036802,0.02,0.94,0
0.053272,-0.021343,0.97417,-0.54669,-1.2769,-1.5212,-0.087482,0,0,1.2669,0.31766,0,-0.22745,0,0,0.64983,0.01178,0,0.64994,-0.53635,-1.2872,-1.5212,-6.7372,-1.115,0.89123,0.028082,0.04,0.94,0
0.077834,-0.025707,0.96112,-0.58096,-1.1772,-1.4886,-0.11754,0,0,1.1799,0.40477,0,-0.30561,0,0,0.65579,0.015005,0,0.65597,-0.55862,-1.1995,-1.4886,-10.759,-1.0822,0.82436,0.017304,0.06,0.94,0
0.10047,-0.031035,0.94794,-0.62205,-1.0596,-1.4524,-0.1324,0,0,1.0795,0.51066,0,-0.34425,0,0,0.66246,0.015961,0,0.66266,-0.5851,-1.0966,-1.4524,-15.59,-1.0447,0.75516,0.0067393,0.08,0.94,0
0.12101,-0.036661,0.93462,-0.66439,-0.9393,-1.4157,-0.13139,0,0,0.97674,0.61936,0,-0.34162,0,0,0.66884,0.015002,0,0.66901,-0.61169,-0.992,-1.4157,-21.854,-1.0065,0.69666,-0.0016217,0.1,0.94,0
0.13954,-0.041954,0.92119,-0.703,-0.82985,-1.381,-0.11792,0,0,0.88145,0.71655,0,-0.3066,0,0,0.67425,0.012799,0,0.67438,-0.63253,-0.90032,-1.381,-30.864,-0.9713,0.65692,-0.006831,0.12,0.94,0
0.15627,-0.04644,0.90765,-0.73465,-0.73932,-1.3498,-0.097525,0,0,0.79976,0.79368,0,-0.25356,0,0,0.67838,0.010053,0,0.67846,-0.63943,-0.83454,-1.3498,-44.313,-0.94127,0.63573,-0.0091266,0.14,0.94,0
0.17153,-0.049846,0.89405,-0.75834,-0.67024,-1.3226,-0.075281,0,0,0.73357,0.8481,0,-0.19573,0,0,0.68121,0.0073068,0,0.68125,-0.62707,-0.80151,-1.3226,-60.167,-0.91707,0.62681,-0.0094233,0.16,0.94,0
0.18562,-0.052055,0.88041,-0.77476,-0.62196,-1.2994,-0.054248,0,0,0.68206,0.8807,0,-0.14105,0,0,0.68287,0.0049103,0,0.68289,-0.60465,-0.79206,-1.2994,-72.312,-0.89871,0.62259,-0.0087134,0.18,0.94,0
0.19881,-0.05305,0.86674,-0.78519,-0.5931,-1.2802,-0.035427,0,0,0.64355,0.89326,0,-0.09211,0,0,0.68354,0.0030998,0,0.68355,-0.58678,-0.79151,-1.2802,-79.876,-0.88617,0.6171,-0.0077431,0.2,0.94,0
0.21136,-0.052845,0.85306,-0.79058,-0.58289,-1.2651,-0.01856,0,0,0.61688,0.88688,0,-0.048255,0,0,0.68337,0.0021082,0,0.68338,-0.58124,-0.79223,-1.2651,-84.934,-0.87953,0.60655,-0.0069615,0.22,0.94,0
0.22349,-0.051467,0.8394,-0.79124,-0.59152,-1.2542,-0.0032148,0,0,0.60189,0.86152,0,-0.0083585,0,0,0.6825,0.0022927,0,0.6825,-0.59147,-0.79129,-1.2542,-89.078,-0.879,0.58885,-0.006561,0.24,0.94,0
0.23543,-0.048958,0.82576,-0.78704,-0.62001,-1.2479,0.010163,0,0,0.59909,0.81623,0,0.026425,0,0,0.68103,0.0042907,0,0.68105,-0.61939,-0.78765,-1.2479,86.531,-0.88497,0.56352,-0.0065036,0.26,0.94,0
0.24745,-0.045419,0.81216,-0.77828,-0.66913,-1.2464,0.019482,0,0,0.60854,0.75043,0,0.050654,0,0,0.67917,0.0092345,0,0.67922,-0.66576,-0.78165,-1.2464,80.177,-0.89793,0.53223,-0.0065225,0.28,0.94,0
0.25977,-0.041054,0.7986,-0.76673,-0.73759,-1.2499,0.020913,0,0,0.62811,0.666,0,0.054374,0,0,0.67732,0.019028,0,0.67756,-0.72667,-0.77765,-1.2499,62.432,-0.91807,0.49969,-0.0061836,0.3,0.94,0
0.27257,-0.036206,0.78507,-0.75643,-0.82004,-1.258,0.009998,0,0,0.65205,0.56936,0,0.025995,0,0,0.67631,0.036675,0,0.67722,-0.7549,-0.82158,-1.258,8.7253,-0.94483,0.47331,-0.0050833,0.32,0.94,0
0.28586,-0.031324,0.77155,-0.75412,-0.90734,-1.27,-0.016419,0,0,0.67062,0.47144,0,-0.042689,0,0,0.6776,0.066742,0,0.68068,-0.75238,-0.90908,-1.27,-6.0485,-0.97715,0.45974,-0.0031065,0.34,0.94,0
0.2994,-0.02687,0.75796,-0.76973,-0.99084,-1.2861,-0.060422,0,0,0.67133,0.38388,0,-0.1571,0,0,0.68407,0.11633,0,0.69337,-0.7543,-1.0063,-1.2861,-14.329,-1.0156,0.4608,-0.00045549,0.36,0.94,0
0.31271,-0.023352,0.74418,-0.82725,-1.076,-1.3152,-0.12174,0,0,0.6343,0.31087,0,-0.31653,0,0,0.70006,0.19806,0,0.72613,-0.77759,-1.1257,-1.3152,-22.191,-1.0728,0.47227,0.0026235,0.38,0.94,0
0.32477,-0.020911,0.72996,-0.94368,-1.1818,-1.3676,-0.24728,0,0,0.55109,0.24158,0,-0.64293,0,0,0.78511,0.34012,0,0.84898,-0.78828,-1.3372,-1.3676,-32.147,-1.1643,0.56472,0.0091589,0.4,0.94,0
0.33475,-0.024178,0.71278,-0.83834,-0.91395,-0.92662,-0.30926,0,0,0.016261,-0.16022,0,-1.9462,0,0,0.63944,0.35785,0,0.74047,-0.56446,-1.1878,-0.92662,-42.086,-0.89297,0.54585,0.007339,0.42,0.94,0
0.33025,-0.047001,0.68197,-0.80095,-0.39383,-0.74204,-0.18379,0,0,-0.13615,0.16964,0,-1.3637,0,0,0.79927,0.087487,0,0.80671,-0.29255,-0.90223,-0.74204,-55.948,-0.64561,0.55934,0.018616,0.44,0.94,0
0.32931,-0.053757,0.65594,-0.70555,-0.34838,-0.68515,-0.072521,0,0,-0.047157,0.18272,0,-0.76879,0,0,0.72631,0.052816,0,0.73029,-0.29685,-0.75708,-0.68515,-59.004,-0.57969,0.44221,0.011176,0.46,0.94,0
0.32836,-0.056746,0.63032,-0.68968,-0.31275,-0.65528,-0.045886,0,0,-0.079496,0.20466,0,-0.55345,0,0,0.71896,0.032775,0,0.72073,-0.27382,-0.7286,-0.65528,-59.585,-0.55257,0.43523,0.011624,0.48,0.94,0
0.32613,-0.057341,0.60481,-0.70399,-0.29866,-0.641,-0.032021,0,0,-0.14556,0.22507,0,-0.42547,0,0,0.71743,0.021431,0,0.71824,-0.26899,-0.73366,-0.641,-60.468,-0.54788,0.43718,0.012081,0.5,0.94,0
0.32254,-0.056838,0.5793,-0.71866,-0.2875,-0.62771,-0.025774,0,0,-0.21022,0.23945,0,-0.35308,0,0,0.718,0.014128,0,0.71836,-0.26432,-0.74184,-0.62771,-61.556,-0.54462,0.44272,0.01224,0.52,0.94,0
0.31772,-0.05581,0.55376,-0.73015,-0.27833,-0.61403,-0.022321,0,0,-0.26836,0.24723,0,-0.30696,0,0,0.71884,0.0090977,0,0.719,-0.25999,-0.74849,-0.61403,-62.941,-0.54084,0.4479,0.011965,0.54,0.94,0
0.31181,-0.054553,0.52818,-0.73796,-0.26994,-0.59947,-0.020025,0,0,-0.32006,0.24959,0,-0.27411,0,0,0.71949,0.0054377,0,0.71954,-0.25529,-0.7526,-0.59947,-64.549,-0.53579,0.45225,0.011367,0.56,0.94,0
0.30492,-0.053198,0.50259,-0.74306,-0.26195,-0.58421,-0.018138,0,0,-0.36712,0.24813,0,-0.24765,0,0,0.7198,0.0026606,0,0.71981,-0.25026,-0.75476,-0.58421,-66.349,-0.52974,0.45598,0.010542,0.58,0.94,0
0.29712,-0.051797,0.477,-0.74643,-0.25421,-0.5685,-0.016393,0,0,-0.4112,0.24416,0,-0.22439,0,0,0.71979,0.00047568,0,0.71979,-0.24495,-0.75568,-0.5685,-68.343,-0.52304,0.45946,0.0095563,0.6,0.94,0
0.28847,-0.050369,0.45141,-0.74873,-0.24665,-0.55253,-0.014705,0,0,-0.45344,0.23856,0,-0.20279,0,0,0.7195,-0.001304,0,0.7195,-0.23945,-0.75593,-0.55253,-70.532,-0.51597,0.46297,0.0084483,0.62,0.94,0
0.27898,-0.048921,0.42583,-0.75039,-0.23925,-0.53642,-0.013042,0,0,-0.49449,0.23186,0,-0.18204,0,0,0.71894,-0.0028083,0,0.71896,-0.23378,-0.75586,-0.53642,-72.889,-0.50869,0.46669,0.0072394,0.64,0.94,0
0.26869,-0.047452,0.40028,-0.7516,-0.23201,-0.52024,-0.011385,0,0,-0.5347,0.22435,0,-0.16165,0,0,0.71815,-0.0041344,0,0.71819,-0.22798,-0.75563,-0.52024,-75.351,-0.50128,0.47068,0.0059427,0.66,0.94,0
0.2576,-0.045964,0.37476,-0.75248,-0.22491,-0.50402,-0.0097139,0,0,-0.57421,0.21618,0,-0.14116,0,0,0.71715,-0.0053605,0,0.71721,-0.22206,-0.75533,-0.50402,-77.827,-0.4938,0.47495,0.0045678,0.68,0.94,0
0.24572,-0.044456,0.34929,-0.75304,-0.21795,-0.48777,-0.008,0,0,-0.61306,0.20741,0,-0.12017,0,0,0.71595,-0.0065554,0,0.71604,-0.21603,-0.75496,-0.48777,-80.232,-0.48625,0.47946,0.0031234,0.7,0.94,0
0.23307,-0.042927,0.32385,-0.75327,-0.21114,-0.47149,-0.0062099,0,0,-0.65123,0.19805,0,-0.098204,0,0,0.71454,-0.0077855,0,0.71467,-0.20994,-0.75447,-0.47149,-82.51,-0.47863,0.48415,0.0016186,0.72,0.94,0
0.21967,-0.041375,0.29847,-0.75314,-0.20447,-0.45517,-0.004301,0,0,-0.68862,0.18806,0,-0.074722,0,0,0.71293,-0.0091217,0,0.7131,-0.20382,-0.75379,-0.45517,-84.645,-0.47093,0.48894,6.3406e-05,0.74,0.94,0
0.20553,-0.039797,0.27315,-0.75257,-0.19797,-0.43881,-0.0022142,0,0,-0.72513,0.1774,0,-0.04899,0,0,0.71108,-0.010647,0,0.71131,-0.19769,-0.75284,-0.43881,3.34,-0.46311,0.49374,-0.0015301,0.76,0.94,0
0.19067,-0.038186,0.24791,-0.75148,-0.19164,-0.42238,0.00014413,0,0,-0.76058,0.166,0,-0.019945,0,0,0.70899,-0.012469,0,0.70931,-0.19158,-0.75154,-0.42238,1.392,-0.45516,0.49844,-0.0031479,0.78,0.94,0
0.17511,-0.036524,0.22274,-0.74982,-0.18553,-0.40589,0.0029381,0,0,-0.79484,0.15383,0,0.014084,0,0,0.70663,-0.014742,0,0.70707,-0.18551,-0.74983,-0.40589,89.434,-0.44708,0.50298,-0.0047753,0.8,0.94,0
0.15887,-0.034781,0.19766,-0.7477,-0.17976,-0.38942,0.0064671,0,0,-0.82803,0.141,0,0.055813,0,0,0.70403,-0.017702,0,0.70466,-0.17954,-0.74792,-0.38942,87.373,-0.43896,0.50742,-0.0064043,0.82,0.94,0
0.14198,-0.032896,0.17267,-0.74575,-0.17453,-0.37321,0.011291,0,0,-0.86098,0.128,0,0.10971,0,0,0.7013,-0.021756,0,0.70223,-0.17374,-0.74654,-0.37321,85.122,-0.43117,0.51228,-0.0080538,0.84,0.94,0
0.12443,-0.030768,0.14779,-0.7459,-0.17044,-0.35803,0.018353,0,0,-0.8964,0.11625,0,0.18262,0,0,0.69891,-0.027669,0,0.70037,-0.16844,-0.7479,-0.35803,82.672,-0.42479,0.51912,-0.0098271,0.86,0.94,0
0.10613,-0.028251,0.12297,-0.75245,-0.16816,-0.34535,0.029754,0,0,-0.94084,0.10863,0,0.28682,0,0,0.69856,-0.036977,0,0.701,-0.16383,-0.75677,-0.34535,80.093,-0.42199,0.53197,-0.012021,0.88,0.94,0
0.0868,-0.025087,0.098112,-0.78208,-0.17614,-0.34265,0.047414,0,0,-1.0156,0.10993,0,0.4328,0,0,0.70364,-0.053847,0,0.70812,-0.16791,-0.79031,-0.34265,77.849,-0.43363,0.55975,-0.015847,0.9,0.94,0
0.065506,-0.02139,0.072937,-0.86233,-0.1939,-0.3579,0.093307,0,0,-1.1658,0.12598,0,0.70064,0,0,0.76974,-0.083526,0,0.77714,-0.1755,-0.88072,-0.3579,75.088,-0.47137,0.63607,-0.02528,0.92,0.94,0
0.040168,-0.015002,0.043375,-0.73891,-0.29702,-0.33518,0.17602,0,0,-1.0791,0.011024,0,1.0832,0,0,0.61281,-0.33292,0,0.70425,-0.23434,-0.8016,-0.33518,68.293,-0.45704,0.52426,-0.015292,0.94,0.94,0
0.026097,-0.017746,0.026931,-0.88921,-0.2411,-0.36602,0.14422,0,0,-0.68014,0.1624,0,0.37497,0,0,0.75239,-0.29197,0,0.79964,-0.21046,-0.91985,-0.36602,78.004,-0.49878,0.64582,-0.011175,0.96,0.94,0
0.012962,-0.018566,0.013279,-0.81795,-0.19143,-0.31609,0.072995,0,0,-0.65241,0.16206,0,0.18979,0,0,0.67327,-0.12683,0,0.68259,-0.18304,-0.82634,-0.31609,83.442,-0.44183,0.58817,-0.0086748,0.98,0.94,0
0,-0.018667,0,-0.77898,-0.15583,-0.28044,-0.0019475,0,0,-0.6481,0.162,0,-0.0050635,0,0,0.66396,6.9389e-18,0,0.66196,-0.15582,-0.77899,-0.28044,-89.821,-0.40508,0.57115,-0.0080546,1,0.94,0
0,-0.012199,1,-0.53955,-1.3506,-1.5671,-0.012031,0,0,1.3358,0.28135,0,-0.03128,0,0,0.64909,-1.6982e-15,0,0.64909,-0.53937,-1.3508,-1.5671,-0.84963,-1.1524,0.93844,0.034967,0,0.96,0
0.026715,-0.012824,0.98702,-0.53057,-1.3095,-1.539,-0.030287,0,0,1.311,0.29841,0,-0.078745,0,0,0.65015,0.0037572,0,0.65016,-0.52939,-1.3107,-1.539,-2.2233,-1.1264,0.91704,0.03148,0.02,0.96,0
0.05244,-0.014628,0.97399,-0.55156,-1.2457,-1.5132,-0.056944,0,0,1.2501,0.34775,0,-0.14805,0,0,0.65314,0.006874,0,0.65318,-0.54692,-1.2503,-1.5132,-4.659,-1.1035,0.8653,0.023215,0.04,0.96,0
0.076718,-0.01739,0.96089,-0.5838,-1.1576,-1.4833,-0.07657,0,0,1.1694,0.4234,0,-0.19908,0,0,0.65754,0.0088979,0,0.65761,-0.57376,-1.1677,-1.4833,-7.4712,-1.0749,0.7999,0.013163,0.06,0.96,0
0.099215,-0.020771,0.94769,-0.62314,-1.0544,-1.4509,-0.086864,0,0,1.0761,0.51556,0,-0.22585,0,0,0.66266,0.0096732,0,0.66274,-0.6063,-1.0712,-1.4509,-10.972,-1.0428,0.73272,0.003506,0.08,0.96,0
0.11976,-0.02437,0.93439,-0.66487,-0.9469,-1.4179,-0.087471,0,0,0.97896,0.61232,0,-0.22742,0,0,0.66782,0.009334,0,0.66788,-0.63994,-0.97183,-1.4179,-15.905,-1.0099,0.67616,-0.0039843,0.1,0.96,0
0.13837,-0.027802,0.92098,-0.70464,-0.84571,-1.3861,-0.080108,0,0,0.88588,0.70249,0,-0.20828,0,0,0.67247,0.0082029,0,0.67253,-0.66844,-0.88191,-1.3861,-24.318,-0.97881,0.63827,-0.0084929,0.12,0.96,0
0.1552,-0.030759,0.90749,-0.73928,-0.75831,-1.3568,-0.067745,0,0,0.80273,0.77799,0,-0.17614,0,0,0.67631,0.0066587,0,0.67635,-0.68038,-0.8172,-1.3568,-41.002,-0.95145,0.61941,-0.010227,0.14,0.96,0
0.17048,-0.033043,0.89393,-0.76714,-0.68876,-1.3307,-0.05335,0,0,0.73263,0.83452,0,-0.13871,0,0,0.67923,0.0050387,0,0.67925,-0.66175,-0.79414,-1.3307,-63.15,-0.92886,0.61356,-0.010026,0.16,0.96,0
0.1845,-0.034555,0.88032,-0.78789,-0.63852,-1.3082,-0.039014,0,0,0.67646,0.87064,0,-0.10144,0,0,0.68126,0.0036051,0,0.68127,-0.62895,-0.79747,-1.3082,-76.209,-0.91155,0.61267,-0.0088679,0.18,0.96,0
0.19754,-0.035258,0.86668,-0.80197,-0.60773,-1.2896,-0.025734,0,0,0.6339,0.88642,0,-0.066909,0,0,0.68255,0.0025711,0,0.68255,-0.60437,-0.80532,-1.2896,-82.58,-0.89976,0.61008,-0.00754,0.2,0.96,0
0.20986,-0.035156,0.85302,-0.81002,-0.59618,-1.2749,-0.013765,0,0,0.60431,0.88231,0,-0.035788,0,0,0.68332,0.0021643,0,0.68333,-0.5953,-0.8109,-1.2749,-86.332,-0.89369,0.60149,-0.0065291,0.22,0.96,0
0.22171,-0.034269,0.83934,-0.81266,-0.60377,-1.2643,-0.0032201,0,0,0.5871,0.85865,0,-0.0083723,0,0,0.6839,0.0027154,0,0.6839,-0.60372,-0.81271,-1.2643,-89.117,-0.89357,0.58477,-0.0060239,0.24,0.96,0
0.23334,-0.032642,0.82566,-0.81061,-0.63036,-1.2579,0.0053272,0,0,0.58154,0.81587,0,0.013851,0,0,0.68473,0.0047722,0,0.68475,-0.6302,-0.81077,-1.2579,88.309,-0.89964,0.55975,-0.005949,0.26,0.96,0
0.24498,-0.030361,0.81195,-0.80514,-0.67502,-1.256,0.010499,0,0,0.58612,0.75528,0,0.027298,0,0,0.6866,0.0092486,0,0.68666,-0.67417,-0.80598,-1.256,85.416,-0.91205,0.5284,-0.0060173,0.28,0.96,0
0.25679,-0.027572,0.7982,-0.79863,-0.7351,-1.2583,0.010265,0,0,0.59759,0.68018,0,0.026689,0,0,0.69073,0.017616,0,0.69094,-0.73348,-0.80025,-1.2583,81.046,-0.93068,0.49484,-0.0058432,0.3,0.96,0
0.26888,-0.024487,0.78433,-0.79502,-0.80555,-1.2645,0.0027043,0,0,0.61033,0.59663,0,0.0070313,0,0,0.69916,0.032158,0,0.69986,-0.79436,-0.8062,-1.2645,13.587,-0.95502,0.46433,-0.0051303,0.32,0.96,0
0.2812,-0.021361,0.77023,-0.79985,-0.87928,-1.274,-0.013111,0,0,0.61636,0.5131,0,-0.034087,0,0,0.71528,0.056334,0,0.71743,-0.79774,-0.88138,-1.274,-9.1344,-0.98436,0.4404,-0.0038591,0.34,0.96,0
0.29353,-0.018464,0.75571,-0.82092,-0.94954,-1.2869,-0.036324,0,0,0.60571,0.43851,0,-0.094443,0,0,0.74513,0.095321,0,0.75109,-0.81137,-0.95909,-1.2869,-14.73,-1.0191,0.4215,-0.0023145,0.36,0.96,0
0.30543,-0.016037,0.74042,-0.85781,-1.0069,-1.2998,-0.070046,0,0,0.57463,0.38083,0,-0.18212,0,0,0.80444,0.15647,0,0.81944,-0.83007,-1.0346,-1.2998,-21.61,-1.0549,0.40796,-0.00077156,0.38,0.96,0
0.31652,-0.01494,0.72354,-0.93731,-1.0727,-1.3265,-0.13021,0,0,0.50602,0.32995,0,-0.33855,0,0,0.93059,0.24982,0,0.9653,-0.85826,-1.1518,-1.3265,-31.261,-1.1122,0.40988,0.0014943,0.4,0.96,0
0.32567,-0.017636,0.7032,-1.0569,-1.0494,-1.3351,-0.23991,0,0,0.36169,0.37135,0,-0.62376,0,0,1.0888,0.32317,0,1.1427,-0.81322,-1.2931,-1.3351,-45.444,-1.1471,0.50219,0.0063515,0.42,0.96,0
0.33099,-0.027277,0.67998,-1.0666,-0.4966,-1.1489,-0.18891,0,0,0.10704,0.84805,0,-0.49116,0,0,1.2103,0.10997,0,1.2128,-0.43968,-1.1235,-1.1489,-73.231,-0.90405,0.69691,0.017306,0.44,0.96,0
0.32995,-0.034788,0.65479,-1.2068,-0.43305,-1.1467,-0.099097,0,0,-0.078061,0.92779,0,-0.25765,0,0,1.2583,0.054314,0,1.2593,-0.42056,-1.2193,-1.1467,-82.816,-0.92886,0.76503,0.022301,0.46,0.96,0
0.32786,-0.037559,0.62965,-1.1974,-0.36465,-1.0983,-0.041011,0,0,-0.12886,0.95369,0,-0.10663,0,0,1.2599,0.030217,0,1.2602,-0.36264,-1.1994,-1.0983,-87.187,-0.88677,0.79106,0.024029,0.48,0.96,0
0.3248,-0.038282,0.60439,-1.2,-0.32796,-1.0628,-0.021706,0,0,-0.17836,0.95526,0,-0.056435,0,0,1.2656,0.018285,0,1.2657,-0.32742,-1.2005,-1.0628,-88.575,-0.86357,0.81302,0.024952,0.5,0.96,0
0.32073,-0.037988,0.57903,-1.2092,-0.30675,-1.0338,-0.015593,0,0,-0.22803,0.94519,0,-0.040543,0,0,1.2703,0.011553,0,1.2703,-0.30649,-1.2095,-1.0338,-89.01,-0.84994,0.82925,0.024914,0.52,0.96,0
0.31568,-0.037272,0.55358,-1.2199,-0.29326,-1.0075,-0.014396,0,0,-0.27607,0.92855,0,-0.03743,0,0,1.2737,0.0072969,0,1.2738,-0.29303,-1.2201,-1.0075,-89.11,-0.84022,0.84118,0.024113,0.54,0.96,0
0.30969,-0.036395,0.52808,-1.2295,-0.28306,-0.98186,-0.014267,0,0,-0.32199,0.90844,0,-0.037095,0,0,1.276,0.0043605,0,1.276,-0.28285,-1.2298,-0.98186,-89.137,-0.83149,0.85051,0.022782,0.56,0.96,0
0.3028,-0.035464,0.50254,-1.2378,-0.27422,-0.95614,-0.014023,0,0,-0.36614,0.8865,0,-0.03646,0,0,1.2773,0.0022009,0,1.2773,-0.27401,-1.238,-0.95614,-89.166,-0.82271,0.85848,0.02108,0.58,0.96,0
0.29504,-0.034514,0.47699,-1.2447,-0.26591,-0.93018,-0.013429,0,0,-0.40891,0.86354,0,-0.034915,0,0,1.2778,0.0005331,0,1.2778,-0.26573,-1.2449,-0.93018,-89.214,-0.8136,0.86584,0.019099,0.6,0.96,0
0.28644,-0.033554,0.45143,-1.2506,-0.25785,-0.90397,-0.012554,0,0,-0.45064,0.83995,0,-0.032639,0,0,1.2776,-0.00081018,0,1.2776,-0.25769,-1.2508,-0.90397,-89.276,-0.80414,0.87297,0.016893,0.62,0.96,0
0.27702,-0.032585,0.42588,-1.2556,-0.24994,-0.87756,-0.011508,0,0,-0.49151,0.8159,0,-0.02992,0,0,1.2768,-0.0019378,0,1.2768,-0.24981,-1.2558,-0.87756,-89.344,-0.79438,0.88008,0.014491,0.64,0.96,0
0.26678,-0.031605,0.40036,-1.26,-0.24218,-0.851,-0.010369,0,0,-0.53165,0.79146,0,-0.026959,0,0,1.2755,-0.0029275,0,1.2755,-0.24207,-1.2601,-0.851,-89.416,-0.78438,0.88725,0.011916,0.66,0.96,0
0.25575,-0.030612,0.37486,-1.2636,-0.23456,-0.82431,-0.0091762,0,0,-0.57109,0.76668,0,-0.023858,0,0,1.2738,-0.0038407,0,1.2738,-0.23448,-1.2637,-0.82431,-89.489,-0.77416,0.8945,0.0091867,0.68,0.96,0
0.24394,-0.029606,0.3494,-1.2666,-0.2271,-0.79752,-0.0079405,0,0,-0.60984,0.74155,0,-0.020645,0,0,1.2717,-0.0047303,0,1.2717,-0.22704,-1.2667,-0.79752,-89.562,-0.76375,0.90179,0.0063207,0.7,0.96,0
0.23136,-0.028586,0.32399,-1.269,-0.21981,-0.77064,-0.0066549,0,0,-0.64788,0.71608,0,-0.017303,0,0,1.2691,-0.0056476,0,1.2691,-0.21977,-1.2691,-0.77064,-89.637,-0.75315,0.90908,0.0033363,0.72,0.96,0
0.21802,-0.027551,0.29864,-1.2707,-0.21272,-0.74366,-0.0053001,0,0,-0.68514,0.69022,0,-0.01378,0,0,1.2661,-0.0066478,0,1.2661,-0.21269,-1.2707,-0.74366,-89.713,-0.74235,0.91628,0.0002532,0.74,0.96,0
0.20395,-0.026498,0.27335,-1.2716,-0.20587,-0.7166,-0.0038352,0,0,-0.72154,0.66395,0,-0.0099715,0,0,1.2626,-0.0077977,0,1.2626,-0.20586,-1.2716,-0.7166,-89.794,-0.73136,0.92326,-0.0029069,0.76,0.96,0
0.18916,-0.025421,0.24813,-1.2718,-0.19937,-0.68947,-0.0021682,0,0,-0.75697,0.63713,0,-0.0056373,0,0,1.2585,-0.0091882,0,1.2586,-0.19936,-1.2718,-0.68947,-89.884,-0.7202,0.92986,-0.0061203,0.78,0.96,0
0.17367,-0.024307,0.22301,-1.2711,-0.19344,-0.66236,-8.3254e-05,0,0,-0.79131,0.6096,0,-0.00021646,0,0,1.2538,-0.010958,0,1.2538,-0.19344,-1.2711,-0.66236,-89.996,-0.70895,0.93586,-0.0093616,0.8,0.96,0
0.15751,-0.023127,0.19798,-1.2696,-0.1885,-0.63543,0.0029113,0,0,-0.82448,0.581,0,0.0075693,0,0,1.2482,-0.013347,0,1.2483,-0.18849,-1.2696,-0.63543,89.846,-0.69786,0.94098,-0.012607,0.82,0.96,0
0.14069,-0.02182,0.17308,-1.2679,-0.18535,-0.60905,0.0078454,0,0,-0.8565,0.55082,0,0.020398,0,0,1.2417,-0.016819,0,1.2418,-0.18529,-1.2679,-0.60905,89.585,-0.68743,0.94495,-0.015842,0.84,0.96,0
0.12325,-0.020284,0.14832,-1.2668,-0.18528,-0.58393,0.016793,0,0,-0.88768,0.51824,0,0.043661,0,0,1.2343,-0.022385,0,1.2345,-0.18502,-1.267,-0.58393,89.111,-0.67866,0.94775,-0.019076,0.86,0.96,0
0.10519,-0.018341,0.12371,-1.2667,-0.18961,-0.56059,0.032905,0,0,-0.9179,0.48227,0,0.085552,0,0,1.2263,-0.032469,0,1.2268,-0.18861,-1.2677,-0.56059,88.252,-0.67229,0.9494,-0.022304,0.88,0.96,0
0.086532,-0.01582,0.099262,-1.2612,-0.19938,-0.53743,0.063302,0,0,-0.94089,0.43947,0,0.16459,0,0,1.2225,-0.053338,0,1.2236,-0.19562,-1.265,-0.53743,86.6,-0.666,0.94594,-0.025115,0.9,0.96,0
0.06755,-0.012364,0.074807,-1.1727,-0.19082,-0.48387,0.093999,0,0,-0.89551,0.38096,0,0.2444,0,0,1.1752,-0.10256,0,1.1775,-0.1819,-1.1816,-0.48387,84.581,-0.61581,0.88813,-0.02246,0.92,0.96,0
0.050711,-0.010813,0.052254,-1.1431,-0.30956,-0.48805,0.12405,0,0,-0.85155,0.23203,0,0.32253,0,0,1.0603,-0.29629,0,1.1074,-0.29149,-1.1612,-0.48805,81.712,-0.6469,0.78995,-0.020131,0.94,0.96,0
0.033488,-0.012701,0.032395,-1.0625,-0.18992,-0.40812,0.070618,0,0,-0.85068,0.28365,0,0.18361,0,0,0.91552,-0.20971,0,0.94014,-0.18424,-1.0682,-0.40812,85.403,-0.55351,0.79596,-0.019158,0.96,0.96,0
0.016684,-0.013735,0.015633,-1.0015,-0.13798,-0.35747,0.040621,0,0,-0.8372,0.28533,0,0.10561,0,0,0.80987,-0.096522,0,0.81466,-0.13607,-1.0034,-0.35747,87.312,-0.49897,0.78051,-0.017959,0.98,0.96,0
0,-0.013983,0,-0.96015,-0.10135,-0.31845,-0.0047819,0,0,-0.83421,0.28223,0,-0.012433,0,0,0.78165,-1.7347e-17,0,0.78062,-0.10132,-0.96017,-0.31845,-89.681,-0.45998,0.77349,-0.017605,1,0.96,0
0,-0.0062566,1,-0.54471,-1.3269,-1.5615,-0.0058291,0,0,1.3218,0.30496,0,-0.015156,0,0,0.65171,-2.6932e-16,0,0.65171,-0.54466,-1.3269,-1.5615,-0.42695,-1.1444,0.92219,0.031666,0,0.98,0
0.026436,-0.0065598,0.98697,-0.53529,-1.2871,-1.5337,-0.014911,0,0,1.2979,0.3206,0,-0.038769,0,0,0.65256,0.0017258,0,0.65256,-0.53499,-1.2873,-1.5337,-1.1359,-1.1187,0.90112,0.028329,0.02,0.98,0
0.051916,-0.0074333,0.9739,-0.55529,-1.2274,-1.5087,-0.028028,0,0,1.2394,0.3657,0,-0.072872,0,0,0.65497,0.0031754,0,0.65498,-0.55412,-1.2286,-1.5087,-2.3838,-1.0971,0.84988,0.020367,0.04,0.98,0
0.076014,-0.0087714,0.96077,-0.58623,-1.146,-1.4804,-0.037738,0,0,1.1625,0.43475,0,-0.098119,0,0,0.65859,0.0041483,0,0.6586,-0.58369,-1.1485,-1.4804,-3.8394,-1.0709,0.78529,0.010743,0.06,0.98,0
0.098415,-0.010413,0.94755,-0.62439,-1.0506,-1.4501,-0.043003,0,0,1.0734,0.51928,0,-0.11181,0,0,0.66289,0.0045656,0,0.66291,-0.6201,-1.0549,-1.4501,-5.7042,-1.0417,0.71904,0.001578,0.08,0.98,0
0.11895,-0.012169,0.93425,-0.66557,-0.95037,-1.419,-0.043653,0,0,0.9795,0.60926,0,-0.1135,0,0,0.66737,0.0044716,0,0.66739,-0.65902,-0.95691,-1.419,-8.5215,-1.0117,0.66329,-0.0054529,0.1,0.98,0
0.13759,-0.013855,0.92086,-0.70576,-0.8542,-1.3888,-0.040419,0,0,0.88802,0.69504,0,-0.10509,0,0,0.67158,0.0039969,0,0.67159,-0.69546,-0.86449,-1.3888,-14.286,-0.98293,0.62622,-0.0095829,0.12,0.98,0
0.15447,-0.015321,0.90739,-0.74183,-0.76917,-1.3607,-0.034599,0,0,0.80451,0.76897,0,-0.089956,0,0,0.67522,0.0033077,0,0.67523,-0.7183,-0.7927,-1.3607,-34.22,-0.95723,0.60861,-0.010997,0.14,0.98,0
0.16978,-0.016465,0.89385,-0.77185,-0.69994,-1.3354,-0.027558,0,0,0.7326,0.82608,0,-0.07165,0,0,0.67816,0.0025642,0,0.67816,-0.69059,-0.78119,-1.3354,-71.266,-0.93572,0.60461,-0.010497,0.16,0.98,0
0.18377,-0.01723,0.88026,-0.79497,-0.64892,-1.3134,-0.020336,0,0,0.67399,0.86387,0,-0.052873,0,0,0.6804,0.0019032,0,0.68041,-0.64614,-0.79775,-1.3134,-82.22,-0.91911,0.60588,-0.0090569,0.18,0.98,0
0.19673,-0.017593,0.86663,-0.8112,-0.61707,-1.2951,-0.013516,0,0,0.62909,0.88146,0,-0.035143,0,0,0.6821,0.0014468,0,0.6821,-0.61614,-0.81214,-1.2951,-86.036,-0.9078,0.60527,-0.0074926,0.2,0.98,0
0.20894,-0.017553,0.85298,-0.821,-0.60458,-1.2807,-0.0073499,0,0,0.59754,0.87889,0,-0.01911,0,0,0.68352,0.0013309,0,0.68352,-0.60433,-0.82125,-1.2807,-88.057,-0.90208,0.59813,-0.006317,0.22,0.98,0
0.22064,-0.017121,0.83929,-0.82514,-0.61117,-1.2702,-0.0020098,0,0,0.57856,0.85672,0,-0.0052256,0,0,0.68511,0.0017497,0,0.68511,-0.61115,-0.82515,-1.2702,-89.462,-0.90216,0.58231,-0.0057185,0.24,0.98,0
0.23208,-0.016324,0.82557,-0.82469,-0.63607,-1.2638,0.0021521,0,0,0.57085,0.81605,0,0.0055955,0,0,0.68757,0.0030147,0,0.68757,-0.63604,-0.82471,-1.2638,89.346,-0.90818,0.55789,-0.0056013,0.26,0.98,0
0.24347,-0.015208,0.81179,-0.82126,-0.67758,-1.2614,0.004488,0,0,0.57224,0.75902,0,0.011669,0,0,0.69201,0.0056316,0,0.69204,-0.67744,-0.8214,-1.2614,88.213,-0.9201,0.52698,-0.005668,0.28,0.98,0
0.25497,-0.013847,0.79789,-0.81718,-0.7326,-1.2628,0.0041857,0,0,0.57934,0.68929,0,0.010883,0,0,0.70023,0.010401,0,0.70032,-0.7324,-0.81739,-1.2628,87.174,-0.93754,0.49346,-0.0055591,0.3,0.98,0
0.26664,-0.012341,0.78378,-0.81538,-0.7964,-1.2673,0.00066361,0,0,0.58752,0.61219,0,0.0017254,0,0,0.71502,0.018553,0,0.7153,-0.79638,-0.8154,-1.2673,87.999,-0.9597,0.46172,-0.0050265,0.32,0.98,0
0.27847,-0.0108,0.76929,-0.81916,-0.86321,-1.274,-0.0058752,0,0,0.5913,0.53403,0,-0.015275,0,0,0.74077,0.031917,0,0.74156,-0.81839,-0.86398,-1.274,-7.4676,-0.98546,0.43462,-0.0040603,0.34,0.98,0
0.2903,-0.0093296,0.75415,-0.83051,-0.92604,-1.2811,-0.014954,0,0,0.58579,0.4616,0,-0.038881,0,0,0.78421,0.052973,0,0.78631,-0.82823,-0.92833,-1.2811,-8.6922,-1.0126,0.41206,-0.0028911,0.36,0.98,0
0.3019,-0.0081191,0.73792,-0.85525,-0.98014,-1.2885,-0.028515,0,0,0.56328,0.40092,0,-0.07414,0,0,0.85456,0.083743,0,0.85952,-0.84905,-0.98634,-1.2885,-12.272,-1.0413,0.38944,-0.0018116,0.38,0.98,0
0.31283,-0.0077127,0.71997,-0.90332,-1.0052,-1.2925,-0.057288,0,0,0.50598,0.3735,0,-0.14895,0,0,0.95181,0.11536,0,0.96078,-0.8776,-1.0309,-1.2925,-24.174,-1.067,0.36339,-0.0010687,0.4,0.98,0
0.32214,-0.0093237,0.69985,-0.99291,-0.94081,-1.28,-0.097839,0,0,0.37318,0.4409,0,-0.25438,0,0,1.06,0.10969,0,1.0672,-0.86561,-1.0681,-1.28,-52.454,-1.0712,0.35887,-9.2897e-05,0.42,0.98,0
0.32776,-0.013079,0.67757,-1.0601,-0.67292,-1.1975,-0.11107,0,0,0.17858,0.68193,0,-0.28878,0,0,1.1521,0.079212,0,1.1554,-0.64332,-1.0897,-1.1975,-75.078,-0.97683,0.5089,0.005759,0.44,0.98,0
0.32928,-0.016645,0.65377,-1.1381,-0.46602,-1.135,-0.065233,0,0,-0.0040567,0.86969,0,-0.16961,0,0,1.2115,0.036558,0,1.212,-0.45975,-1.1444,-1.135,-84.507,-0.91306,0.68001,0.01614,0.46,0.98,0
0.32759,-0.018598,0.62911,-1.1988,-0.38066,-1.103,-0.027827,0,0,-0.12461,0.93898,0,-0.072349,0,0,1.2421,0.018754,0,1.2423,-0.37971,-1.1998,-1.103,-88.054,-0.89414,0.77618,0.022762,0.48,0.98,0
0.3243,-0.019131,0.60408,-1.2166,-0.33269,-1.0689,-0.010297,0,0,-0.19208,0.95705,0,-0.026774,0,0,1.2568,0.010661,0,1.2568,-0.33257,-1.2167,-1.0689,-89.333,-0.87273,0.82031,0.025273,0.5,0.98,0
0.31991,-0.01903,0.57884,-1.2246,-0.30813,-1.0387,-0.0056641,0,0,-0.24174,0.9497,0,-0.014727,0,0,1.2655,0.0064756,0,1.2655,-0.30809,-1.2247,-1.0387,-89.646,-0.85713,0.83917,0.025397,0.52,0.98,0
0.31463,-0.018668,0.55346,-1.2296,-0.29366,-1.0104,-0.0053062,0,0,-0.28487,0.93181,0,-0.013796,0,0,1.2708,0.0040092,0,1.2708,-0.29363,-1.2296,-1.0104,-89.675,-0.84455,0.8479,0.024398,0.54,0.98,0
0.30851,-0.018215,0.52801,-1.2344,-0.28344,-0.98335,-0.0059016,0,0,-0.32632,0.90988,0,-0.015344,0,0,1.274,0.002387,0,1.274,-0.2834,-1.2344,-0.98335,-89.644,-0.83371,0.85362,0.022877,0.56,0.98,0
0.30158,-0.017737,0.5025,-1.2394,-0.27477,-0.95677,-0.0063254,0,0,-0.36747,0.8866,0,-0.016446,0,0,1.2758,0.001229,0,1.2758,-0.27473,-1.2395,-0.95677,-89.624,-0.82366,0.85902,0.021066,0.58,0.98,0
0.29381,-0.017255,0.47698,-1.2446,-0.26663,-0.93035,-0.0063759,0,0,-0.40856,0.86284,0,-0.016577,0,0,1.2766,0.00035038,0,1.2766,-0.26658,-1.2447,-0.93035,-89.626,-0.81387,0.86488,0.019042,0.6,0.98,0
0.28523,-0.016771,0.45144,-1.2496,-0.25866,-0.90393,-0.0061272,0,0,-0.44943,0.83886,0,-0.015931,0,0,1.2766,-0.00034977,0,1.2766,-0.25862,-1.2497,-0.90393,-89.646,-0.80408,0.87126,0.016828,0.62,0.98,0
0.27584,-0.016285,0.42591,-1.2543,-0.2508,-0.87744,-0.0056938,0,0,-0.48992,0.81463,0,-0.014804,0,0,1.276,-0.00093369,0,1.276,-0.25077,-1.2543,-0.87744,-89.675,-0.79418,0.87804,0.014435,0.64,0.98,0
0.26564,-0.015794,0.4004,-1.2585,-0.24307,-0.85086,-0.0051605,0,0,-0.52988,0.79013,0,-0.013417,0,0,1.2748,-0.0014443,0,1.2748,-0.24304,-1.2585,-0.85086,-89.709,-0.78413,0.88507,0.011876,0.66,0.98,0
0.25464,-0.015297,0.37492,-1.262,-0.23547,-0.82417,-0.0045756,0,0,-0.56923,0.76531,0,-0.011897,0,0,1.2731,-0.0019144,0,1.2731,-0.23545,-1.2621,-0.82417,-89.745,-0.7739,0.89226,0.0091628,0.68,0.98,0
0.24287,-0.014794,0.34947,-1.265,-0.22805,-0.7974,-0.0039612,0,0,-0.60793,0.74016,0,-0.010299,0,0,1.271,-0.0023723,0,1.271,-0.22803,-1.2651,-0.7974,-89.781,-0.76349,0.89952,0.0063136,0.7,0.98,0
0.23033,-0.014284,0.32408,-1.2674,-0.2208,-0.77054,-0.0033238,0,0,-0.64591,0.71465,0,-0.008642,0,0,1.2684,-0.0028451,0,1.2684,-0.22079,-1.2674,-0.77054,-89.818,-0.75291,0.90678,0.0033458,0.72,0.98,0
0.21703,-0.013766,0.29874,-1.2691,-0.21378,-0.7436,-0.0026591,0,0,-0.68314,0.68877,0,-0.0069137,0,0,1.2653,-0.0033624,0,1.2653,-0.21377,-1.2691,-0.7436,-89.856,-0.74216,0.91395,0.00027858,0.74,0.98,0
0.203,-0.013239,0.27347,-1.2701,-0.20703,-0.71661,-0.0019456,0,0,-0.71954,0.66245,0,-0.0050586,0,0,1.2616,-0.0039612,0,1.2616,-0.20703,-1.2701,-0.71661,-89.895,-0.73125,0.92091,-0.0028672,0.76,0.98,0
0.18825,-0.0127,0.24827,-1.2703,-0.20071,-0.68958,-0.0011194,0,0,-0.75495,0.63553,0,-0.0029105,0,0,1.2573,-0.0046938,0,1.2573,-0.20071,-1.2703,-0.68958,-89.94,-0.7202,0.92744,-0.0060673,0.78,0.98,0
0.1728,-0.01214,0.22318,-1.2695,-0.19512,-0.66258,-1.0977e-05,0,0,-0.78905,0.60768,0,-2.8539e-05,0,0,1.2521,-0.0056448,0,1.2521,-0.19512,-1.2695,-0.66258,-89.999,-0.70908,0.93308,-0.0092878,0.8,0.98,0
0.15669,-0.011541,0.19819,-1.2673,-0.1909,-0.63565,0.0017833,0,0,-0.82112,0.57817,0,0.0046365,0,0,1.2457,-0.0069717,0,1.2458,-0.1909,-1.2673,-0.63565,89.905,-0.69794,0.93685,-0.012469,0.82,0.98,0
0.13996,-0.010864,0.17335,-1.2625,-0.18924,-0.60886,0.0051401,0,0,-0.8497,0.54551,0,0.013364,0,0,1.2377,-0.0090051,0,1.2377,-0.18921,-1.2625,-0.60886,89.726,-0.68686,0.93683,-0.015492,0.84,0.98,0
0.1227,-0.010038,0.14868,-1.2527,-0.19203,-0.5821,0.011676,0,0,-0.87177,0.50709,0,0.030357,0,0,1.2268,-0.012519,0,1.2269,-0.1919,-1.2528,-0.5821,89.369,-0.67561,0.92943,-0.018102,0.86,0.98,0
0.10509,-0.0089596,0.12427,-1.2339,-0.20249,-0.55519,0.023962,0,0,-0.88234,0.45852,0,0.062301,0,0,1.2109,-0.019478,0,1.2111,-0.20193,-1.2345,-0.55519,88.67,-0.66387,0.90894,-0.019861,0.88,0.98,0
0.087406,-0.0075081,0.10025,-1.194,-0.2203,-0.52453,0.040079,0,0,-0.87027,0.39549,0,0.10421,0,0,1.1808,-0.035109,0,1.1813,-0.21865,-1.1956,-0.52453,87.647,-0.64626,0.86555,-0.019828,0.9,0.98,0
0.070276,-0.0061517,0.07704,-1.1585,-0.2669,-0.50467,0.050087,0,0,-0.85002,0.3091,0,0.13023,0,0,1.1255,-0.073026,0,1.1284,-0.2641,-1.1613,-0.50467,86.795,-0.64337,0.80441,-0.018892,0.92,0.98,0
0.053406,-0.0057207,0.055227,-1.1234,-0.26329,-0.47124,0.031587,0,0,-0.84784,0.27034,0,0.082127,0,0,1.043,-0.096908,0,1.0488,-0.26213,-1.1246,-0.47124,87.9,-0.61932,0.77923,-0.018529,0.94,0.98,0
0.036362,-0.0064001,0.035319,-1.0809,-0.16475,-0.409,0.020062,0,0,-0.8734,0.31752,0,0.05216,0,0,0.95216,-0.093678,0,0.95808,-0.16431,-1.0813,-0.409,88.746,-0.55153,0.8224,-0.020273,0.96,0.98,0
0.018469,-0.0071529,0.01714,-1.0685,-0.10507,-0.36921,0.012213,0,0,-0.90905,0.34337,0,0.031754,0,0,0.88298,-0.049989,0,0.88448,-0.10492,-1.0686,-0.36921,89.274,-0.51425,0.86249,-0.022822,0.98,0.98,0
0,-0.0073782,0,-1.0414,-0.06217,-0.33108,-0.0043315,0,0,-0.92347,0.34959,0,-0.011262,0,0,0.85701,-3.4694e-18,0,0.8567,-0.062151,-1.0415,-0.33108,-89.747,-0.47823,0.87636,-0.02391,1,0.98,0
0,0,1,-0.54657,-1.319,-1.5597,1.2143e-17,0,0,1.3171,0.31283,0,2.4286e-17,0,0,0.65254,2.7391e-15,0,0.65254,-0.54657,-1.319,-1.5597,9.0067e-16,-1.1418,0.9168,0.030575,0,1,0
0.026341,0,0.98695,-0.537,-1.2796,-1.5319,-0.0018277,0,0,1.2934,0.32799,0,-0.0047521,0,0,0.65333,0.00082757,0,0.65333,-0.537,-1.2796,-1.5319,-0.14101,-1.1162,0.89585,0.02729,0.02,1,0
0.051737,0,0.97387,-0.55666,-1.2214,-1.5073,-0.0034352,0,0,1.2358,0.37167,0,-0.0089316,0,0,0.65556,0.0015268,0,0.65556,-0.55664,-1.2214,-1.5073,-0.29609,-1.0951,0.84479,0.019435,0.04,1,0
0.075773,0,0.96073,-0.58715,-1.1422,-1.4795,-0.0046234,0,0,1.1601,0.43857,0,-0.012021,0,0,0.65893,0.0020034,0,0.65893,-0.58711,-1.1422,-1.4795,-0.47725,-1.0696,0.78048,0.0099543,0.06,1,0
0.09814,0,0.94751,-0.62491,-1.0493,-1.4498,-0.0052796,0,0,1.0723,0.52064,0,-0.013727,0,0,0.66298,0.002218,0,0.66299,-0.62484,-1.0493,-1.4498,-0.71268,-1.0413,0.7145,0.00094619,0.08,1,0
0.11867,0,0.93421,-0.66587,-0.95136,-1.4194,-0.0054295,0,0,0.97956,0.60842,0,-0.014117,0,0,0.66725,0.0021878,0,0.66725,-0.66577,-0.95146,-1.4194,-1.0891,-1.0122,0.65897,-0.0059407,0.1,1,0
0.13732,0,0.92082,-0.70615,-0.85686,-1.3897,-0.0052383,0,0,0.88864,0.69272,0,-0.013619,0,0,0.67131,0.0019717,0,0.67131,-0.70597,-0.85704,-1.3897,-1.9883,-0.98425,0.62213,-0.0099518,0.12,1,0
0.15421,0,0.90736,-0.74265,-0.7727,-1.362,-0.004949,0,0,0.8051,0.76604,0,-0.012868,0,0,0.67488,0.0016473,0,0.67488,-0.74186,-0.7735,-1.362,-9.1156,-0.95911,0.6049,-0.011263,0.14,1,0
0.16953,0,0.89382,-0.77333,-0.70366,-1.3369,-0.0047882,0,0,0.73267,0.82324,0,-0.012449,0,0,0.67782,0.0012926,0,0.67782,-0.70333,-0.77366,-1.3369,-86.087,-0.93797,0.60152,-0.010665,0.16,1,0
0.18352,0,0.88024,-0.79721,-0.65245,-1.3151,-0.0048972,0,0,0.67331,0.8615,0,-0.012733,0,0,0.68014,0.00097706,0,0.68014,-0.65228,-0.79737,-1.3151,-88.065,-0.9216,0.60354,-0.0091288,0.18,1,0
0.19646,0,0.86662,-0.81415,-0.62028,-1.297,-0.0053151,0,0,0.62764,0.87967,0,-0.013819,0,0,0.68198,0.00076539,0,0.68198,-0.62013,-0.81429,-1.297,-88.431,-0.91046,0.60363,-0.0074816,0.2,1,0
0.20862,0,0.85296,-0.82456,-0.60745,-1.2826,-0.0060137,0,0,0.59541,0.87765,0,-0.015636,0,0,0.68363,0.00073109,0,0.68363,-0.60728,-0.82472,-1.2826,-88.415,-0.90485,0.59704,-0.0062448,0.22,1,0
0.22027,0,0.83927,-0.82923,-0.61363,-1.2721,-0.0069573,0,0,0.57577,0.85605,0,-0.018089,0,0,0.68558,0.00097862,0,0.68558,-0.61341,-0.82945,-1.2721,-88.154,-0.905,0.58162,-0.0056074,0.24,1,0
0.23165,0,0.82554,-0.82935,-0.63789,-1.2657,-0.00816,0,0,0.56727,0.81617,0,-0.021216,0,0,0.68862,0.0016733,0,0.68862,-0.63754,-0.8297,-1.2657,-87.564,-0.91098,0.55751,-0.0054668,0.26,1,0
0.24297,0,0.81173,-0.82659,-0.67829,-1.2632,-0.0097115,0,0,0.56758,0.76038,0,-0.02525,0,0,0.69398,0.0030804,0,0.69399,-0.67766,-0.82723,-1.2632,-86.269,-0.92269,0.52692,-0.0055228,0.28,1,0
0.25436,0,0.79778,-0.82314,-0.73163,-1.2642,-0.011741,0,0,0.57339,0.69236,0,-0.030526,0,0,0.70365,0.0056171,0,0.70367,-0.73015,-0.82462,-1.2642,-82.804,-0.93966,0.49365,-0.0054237,0.3,1,0
0.2659,0,0.78358,-0.82147,-0.79339,-1.268,-0.014285,0,0,0.58054,0.61705,0,-0.037142,0,0,0.72067,0.0099209,0,0.72074,-0.7874,-0.82746,-1.268,-67.252,-0.96096,0.46192,-0.0049338,0.32,1,0
0.27758,0,0.76895,-0.82349,-0.858,-1.2734,-0.017108,0,0,0.58488,0.54002,0,-0.04448,0,0,0.7497,0.016917,0,0.74988,-0.81645,-0.86504,-1.2734,-22.379,-0.98496,0.4347,-0.0040416,0.34,1,0
0.2893,0,0.7536,-0.8318,-0.92044,-1.2793,-0.019222,0,0,0.58171,0.46648,0,-0.049977,0,0,0.79695,0.027795,0,0.79742,-0.82781,-0.92443,-1.2793,-11.724,-1.0105,0.41174,-0.0029304,0.36,1,0
0.30085,0,0.73708,-0.85233,-0.97215,-1.2844,-0.020245,0,0,0.56171,0.40595,0,-0.052637,0,0,0.86683,0.042403,0,0.86786,-0.849,-0.97547,-1.2844,-9.336,-1.0363,0.38796,-0.0019599,0.38,1,0
0.31177,0,0.71892,-0.90125,-0.98951,-1.2861,-0.020425,0,0,0.50036,0.38564,0,-0.053104,0,0,0.95654,0.052334,0,0.95797,-0.89676,-0.99401,-1.2861,-12.419,-1.059,0.35102,-0.00166,0.4,1,0
0.32086,0,0.69881,-0.97356,-0.90326,-1.2619,-0.024563,0,0,0.37478,0.46619,0,-0.063865,0,0,1.0527,0.05185,0,1.054,-0.89552,-0.9813,-1.2619,-72.528,-1.0462,0.33187,-0.001463,0.42,1,0
0.32676,0,0.67681,-1.0514,-0.69884,-1.2019,-0.019188,0,0,0.19562,0.65397,0,-0.049889,0,0,1.1372,0.037698,0,1.1378,-0.6978,-1.0525,-1.2019,-86.894,-0.98405,0.44845,0.0029577,0.44,1,0
0.32869,0,0.65333,-1.1297,-0.50289,-1.1431,-0.011456,0,0,0.017452,0.83227,0,-0.029784,0,0,1.1978,0.022095,0,1.198,-0.50268,-1.1299,-1.1431,-88.953,-0.92521,0.63391,0.013064,0.46,1,0
0.32745,0,0.6289,-1.1882,-0.38576,-1.1011,-0.0026424,0,0,-0.11321,0.92991,0,-0.0068703,0,0,1.234,0.010406,0,1.234,-0.38575,-1.1882,-1.1011,-89.811,-0.89167,0.76261,0.02178,0.48,1,0
0.32416,0,0.60397,-1.2198,-0.33446,-1.0702,-0.0026807,0,0,-0.19444,0.95653,0,-0.0069699,0,0,1.2533,0.0057936,0,1.2533,-0.33445,-1.2198,-1.0702,-89.826,-0.87485,0.82087,0.025258,0.5,1,0
0.31968,0,0.57877,-1.2294,-0.30811,-1.04,-0.0044578,0,0,-0.24621,0.9515,0,-0.01159,0,0,1.2636,0.0034392,0,1.2636,-0.30809,-1.2294,-1.04,-89.723,-0.85919,0.84277,0.025586,0.52,1,0
0.31431,0,0.55342,-1.2332,-0.29344,-1.0114,-0.0061201,0,0,-0.28837,0.93339,0,-0.015912,0,0,1.2697,0.0021055,0,1.2697,-0.2934,-1.2333,-1.0114,-89.627,-0.84604,0.85094,0.024542,0.54,1,0
0.30814,0,0.52798,-1.2364,-0.28333,-0.98391,-0.0071481,0,0,-0.32828,0.91076,0,-0.018585,0,0,1.2733,0.0012496,0,1.2733,-0.28328,-1.2365,-0.98391,-89.57,-0.83456,0.85537,0.022946,0.56,1,0
0.30118,0,0.50249,-1.2403,-0.27483,-0.95704,-0.0076328,0,0,-0.36827,0.88687,0,-0.019845,0,0,1.2753,0.00064861,0,1.2753,-0.27477,-1.2404,-0.95704,-89.547,-0.82406,0.85971,0.021084,0.58,1,0
0.29341,0,0.47697,-1.2448,-0.2668,-0.93045,-0.0077638,0,0,-0.40864,0.86274,0,-0.020186,0,0,1.2762,0.00019711,0,1.2762,-0.26674,-1.2449,-0.93045,-89.545,-0.81401,0.86489,0.019036,0.6,1,0
0.28483,0,0.45144,-1.2494,-0.2589,-0.90394,-0.0076979,0,0,-0.44913,0.83855,0,-0.020015,0,0,1.2763,-0.00016055,0,1.2763,-0.25884,-1.2495,-0.90394,-89.555,-0.80409,0.8709,0.016813,0.62,1,0
0.27545,0,0.42592,-1.2539,-0.25108,-0.87741,-0.0075334,0,0,-0.48943,0.81423,0,-0.019587,0,0,1.2757,-0.00045778,0,1.2757,-0.25103,-1.254,-0.87741,-89.57,-0.79413,0.8775,0.014421,0.64,1,0
0.26526,0,0.40041,-1.258,-0.24336,-0.85081,-0.0073234,0,0,-0.52931,0.78969,0,-0.019041,0,0,1.2746,-0.00071712,0,1.2746,-0.24331,-1.258,-0.85081,-89.587,-0.78405,0.88446,0.011865,0.66,1,0
0.25427,0,0.37494,-1.2615,-0.23578,-0.82413,-0.0070926,0,0,-0.56862,0.76485,0,-0.018441,0,0,1.2729,-0.00095567,0,1.2729,-0.23573,-1.2616,-0.82413,-89.604,-0.77381,0.89161,0.0091565,0.68,1,0
0.24251,0,0.3495,-1.2645,-0.22836,-0.79736,-0.0068514,0,0,-0.60729,0.73969,0,-0.017814,0,0,1.2708,-0.001188,0,1.2708,-0.22832,-1.2646,-0.79736,-89.621,-0.76341,0.89885,0.0063122,0.7,1,0
0.22998,0,0.32411,-1.2669,-0.22113,-0.77051,-0.0066044,0,0,-0.64527,0.71418,0,-0.017171,0,0,1.2681,-0.001428,0,1.2681,-0.22109,-1.2669,-0.77051,-89.638,-0.75283,0.90609,0.0033493,0.72,1,0
0.2167,0,0.29877,-1.2686,-0.21413,-0.74359,-0.0063549,0,0,-0.6825,0.6883,0,-0.016523,0,0,1.265,-0.0016912,0,1.265,-0.21409,-1.2686,-0.74359,-89.655,-0.7421,0.91326,0.00028676,0.74,1,0
0.20268,0,0.27351,-1.2696,-0.20741,-0.71661,-0.0061071,0,0,-0.7189,0.66197,0,-0.015878,0,0,1.2613,-0.001997,0,1.2613,-0.20737,-1.2696,-0.71661,-89.671,-0.73121,0.92022,-0.0028548,0.76,1,0
0.18795,0,0.24832,-1.2698,-0.20114,-0.68961,-0.0058605,0,0,-0.75428,0.63501,0,-0.015237,0,0,1.2568,-0.0023735,0,1.2568,-0.20111,-1.2699,-0.68961,-89.686,-0.7202,0.9267,-0.0060501,0.78,1,0
0.17251,0,0.22323,-1.2689,-0.19568,-0.66262,-0.0055938,0,0,-0.78821,0.60702,0,-0.014544,0,0,1.2515,-0.0028677,0,1.2515,-0.19565,-1.269,-0.66262,-89.701,-0.70908,0.93212,-0.0092602,0.8,1,0
0.15642,0,0.19826,-1.2662,-0.19176,-0.63563,-0.0052173,0,0,-0.81967,0.57704,0,-0.013565,0,0,1.2448,-0.00357,0,1.2449,-0.19173,-1.2662,-0.63563,-89.722,-0.69785,0.93516,-0.012408,0.82,1,0
0.13972,0,0.17344,-1.2597,-0.19074,-0.60857,-0.0044742,0,0,-0.84645,0.54318,0,-0.011633,0,0,1.2362,-0.0046755,0,1.2362,-0.19072,-1.2597,-0.60857,-89.76,-0.68633,0.93309,-0.015322,0.84,1,0
0.12256,0,0.14882,-1.2461,-0.19511,-0.58119,-0.0027215,0,0,-0.86442,0.5019,0,-0.0070759,0,0,1.2239,-0.0066676,0,1.2239,-0.1951,-1.2461,-0.58119,-89.852,-0.67414,0.92084,-0.01766,0.86,1,0
0.10515,0,0.12449,-1.2194,-0.20816,-0.55276,0.0011769,0,0,-0.86665,0.44798,0,0.0030601,0,0,1.2038,-0.010653,0,1.2038,-0.20815,-1.2194,-0.55276,89.933,-0.66011,0.89046,-0.018815,0.88,1,0
0.087892,0,0.10067,-1.1852,-0.23923,-0.52801,0.0093423,0,0,-0.8544,0.37541,0,0.02429,0,0,1.1689,-0.021018,0,1.1691,-0.23914,-1.1853,-0.52801,89.434,-0.65082,0.83988,-0.018739,0.9,1,0
0.070972,0,0.077728,-1.1492,-0.26556,-0.50216,0.013386,0,0,-0.84118,0.30759,0,0.034803,0,0,1.1134,-0.03439,0,1.1139,-0.26536,-1.1494,-0.50216,89.132,-0.63898,0.79266,-0.018093,0.92,1,0
0.054245,0,0.05613,-1.1184,-0.24516,-0.46519,0.016142,0,0,-0.84913,0.28604,0,0.04197,0,0,1.0396,-0.04517,0,1.0406,-0.24486,-1.1187,-0.46519,88.941,-0.60957,0.78712,-0.018587,0.94,1,0
0.037006,0,0.036142,-1.0941,-0.16889,-0.41505,0.012389,0,0,-0.88282,0.32001,0,0.032212,0,0,0.96244,-0.041136,0,0.96331,-0.16873,-1.0943,-0.41505,89.233,-0.55936,0.83029,-0.020909,0.96,1,0
0.018932,0,0.017632,-1.0832,-0.09638,-0.37149,0.0089042,0,0,-0.92516,0.35765,0,0.023151,0,0,0.90355,-0.02462,0,0.90384,-0.096299,-1.0832,-0.37149,89.483,-0.51701,0.88214,-0.024035,0.98,1,0
0,0,0,-1.0615,-0.049517,-0.33329,-1.2143e-17,0,0,-0.94662,0.36891,0,-3.1225e-17,0,0,0.88163,1.3878e-17,0,0.88157,-0.049517,-1.0615,-0.33329,-90,-0.48142,0.9041,-0.025731,1,1,0
