"Displacements:0","Displacements:1","Displacements:2","Stress/Strain:0","Stress/Strain:1","Stress/Strain:2","Stress/Strain:3","Stress/Strain:4","Stress/Strain:5","Stress/Strain:6","Stress/Strain:7","Stress/Strain:8","Stress/Strain:9","Stress/Strain:10","Stress/Strain:11","Stress/Strain:12","Stress/Strain:13","Stress/Strain:14","Stress/Strain:15","Principal Stress:0","Principal Stress:1","Principal Stress:2","Principal Stress:3","Principal Stress:4","Principal Stress:5","Principal Stress:6","nodes:0","nodes:1","nodes:2"
0,0,1,-0.86605,-1.3234,-1.6568,4.3368e-18,0,0,1.028,0.4335,0,1.0408e-17,0,0,0.88348,1.4684e-15,0,0.88348,-0.86605,-1.3234,-1.6568,5.4335e-16,-1.2821,0.68763,0.0044628,0,0,0
0.02056,0,0.98233,-0.84698,-1.2834,-1.6215,0.00017251,0,0,1.0068,0.43945,0,0.00044852,0,0,0.88926,-0.0059854,0,0.88928,-0.84698,-1.2834,-1.6215,0.022648,-1.2506,0.67251,0.0034033,0.02,0,0
0.040272,0,0.96443,-0.85701,-1.2397,-1.5935,0.0007574,0,0,0.95738,0.45982,0,0.0019692,0,0,0.90597,-0.011354,0,0.90604,-0.85701,-1.2397,-1.5935,0.11338,-1.2301,0.63795,0.00090977,0.04,0,0
0.058855,0,0.94609,-0.8766,-1.1776,-1.5623,0.0019541,0,0,0.89147,0.50019,0,0.0050805,0,0,0.93173,-0.015445,0,0.93185,-0.87658,-1.1776,-1.5623,0.37195,-1.2055,0.59536,-0.0022716,0.06,0,0
0.075931,0,0.92716,-0.90714,-1.0909,-1.5266,0.0036575,0,0,0.80526,0.56637,0,0.0095094,0,0,0.96351,-0.017673,0,0.96367,-0.90707,-1.091,-1.5266,1.1398,-1.1749,0.55107,-0.005479,0.08,0,0
0.091066,0,0.90755,-0.94761,-0.97841,-1.4854,0.005183,0,0,0.69907,0.65903,0,0.013476,0,0,0.99762,-0.01777,0,0.99777,-0.94676,-0.97926,-1.4854,9.3017,-1.1371,0.5231,-0.0072561,0.1,0,0
0.10389,0,0.88726,-0.99397,-0.84832,-1.4399,0.0057572,0,0,0.57976,0.76911,0,0.014969,0,0,1.0303,-0.015985,0,1.0305,-0.84809,-0.9942,-1.4399,87.74,-1.0941,0.534,-0.0058918,0.12,0,0
0.11426,0,0.86634,-1.0401,-0.71734,-1.3936,0.0050319,0,0,0.45946,0.87912,0,0.013083,0,0,1.0588,-0.012996,0,1.0589,-0.71726,-1.0402,-1.3936,89.107,-1.0504,0.58591,-0.00080283,0.14,0,0
0.12227,0,0.8449,-1.0798,-0.60273,-1.3497,0.0035879,0,0,0.35083,0.97101,0,0.0093286,0,0,1.0813,-0.0095965,0,1.0813,-0.6027,-1.0798,-1.3497,89.569,-1.0107,0.65514,0.0066251,0.16,0,0
0.12829,0,0.82308,-1.1081,-0.51511,-1.3101,0.0022015,0,0,0.2625,1.0334,0,0.005724,0,0,1.0974,-0.0063582,0,1.0975,-0.51511,-1.1081,-1.3101,89.787,-0.97777,0.71569,0.013897,0.18,0,0
0.13277,0,0.80101,-1.1231,-0.45751,-1.2752,0.0013896,0,0,0.19769,1.063,0,0.0036128,0,0,1.1075,-0.0034906,0,1.1075,-0.45751,-1.1231,-1.2752,89.88,-0.95195,0.75326,0.018971,0.2,0,0
0.1362,0,0.77879,-1.1248,-0.42837,-1.2448,0.0010418,0,0,0.15587,1.0613,0,0.0027087,0,0,1.112,-0.00090197,0,1.112,-0.42837,-1.1248,-1.2448,89.914,-0.93266,0.76353,0.020973,0.22,0,0
0.13901,0,0.75653,-1.1143,-0.42514,-1.2184,0.00074114,0,0,0.13525,1.0312,0,0.001927,0,0,1.1112,0.0016433,0,1.1112,-0.42514,-1.1143,-1.2184,89.938,-0.91928,0.74667,0.019987,0.24,0,0
0.14161,0,0.73434,-1.0927,-0.44555,-1.1958,8.8155e-05,0,0,0.13403,0.97535,0,0.0002292,0,0,1.105,0.0043755,0,1.105,-0.44555,-1.0927,-1.1958,89.992,-0.91136,0.7044,0.016662,0.26,0,0
0.14437,0,0.71233,-1.0616,-0.48689,-1.1769,-0.0010161,0,0,0.14982,0.89699,0,-0.0026418,0,0,1.0932,0.0073784,0,1.0932,-0.48689,-1.0616,-1.1769,-89.899,-0.90848,0.6402,0.012018,0.28,0,0
0.1476,0,0.69061,-1.0238,-0.54362,-1.1608,-0.0021842,0,0,0.17817,0.80237,0,-0.0056789,0,0,1.0755,0.01045,0,1.0755,-0.54361,-1.0238,-1.1608,-89.739,-0.90941,0.56138,0.0072934,0.3,0,0
0.15149,0,0.66931,-0.98307,-0.60596,-1.146,-0.0029105,0,0,0.21183,0.70207,0,-0.0075674,0,0,1.0525,0.013066,0,1.0526,-0.60594,-0.9831,-1.146,-89.558,-0.91169,0.47983,0.0035474,0.32,0,0
0.15607,0,0.64851,-0.94394,-0.66157,-1.1302,-0.0028634,0,0,0.24209,0.60918,0,-0.0074447,0,0,1.0258,0.014534,0,1.0259,-0.66154,-0.94397,-1.1302,-89.419,-0.91189,0.40868,0.0012154,0.34,0,0
0.16118,0,0.62828,-0.91002,-0.70074,-1.1115,-0.0023383,0,0,0.26193,0.53399,0,-0.0060796,0,0,0.99811,0.014326,0,0.99821,-0.70071,-0.91004,-1.1115,-89.36,-0.90742,0.35577,7.6704e-05,0.36,0,0
0.16655,0,0.60859,-0.88343,-0.72072,-1.0898,-0.0017476,0,0,0.26833,0.47984,0,-0.0045436,0,0,0.97243,0.01237,0,0.97251,-0.7207,-0.88344,-1.0898,-89.385,-0.89799,0.32042,-0.0003431,0.38,0,0
0.17191,0,0.58938,-0.86445,-0.72436,-1.066,-0.0013429,0,0,0.26204,0.44416,0,-0.0034914,0,0,0.9516,0.0090976,0,0.95164,-0.72434,-0.86446,-1.066,-89.451,-0.88494,0.29749,-0.00041295,0.4,0,0
0.17703,0,0.57052,-0.85224,-0.71592,-1.041,-0.00098332,0,0,0.24535,0.42257,0,-0.0025566,0,0,0.93745,0.0052245,0,0.93746,-0.71592,-0.85225,-1.041,-89.587,-0.86971,0.28272,-0.00031892,0.42,0,0
0.18173,0,0.55188,-0.8458,-0.69813,-1.0151,-0.00048065,0,0,0.22003,0.41201,0,-0.0012497,0,0,0.93053,0.0014547,0,0.93053,-0.69813,-0.84581,-1.0151,-89.814,-0.853,0.27468,-0.00012517,0.44,0,0
0.18583,0,0.5333,-0.84458,-0.67188,-0.98824,0.00025437,0,0,0.18676,0.41127,0,0.00066136,0,0,0.93031,-0.0017169,0,0.93032,-0.67188,-0.84458,-0.98824,89.916,-0.8349,0.27436,0.00016776,0.46,0,0
0.1892,0,0.51467,-0.84827,-0.63731,-0.96034,0.001136,0,0,0.14569,0.41995,0,0.0029536,0,0,0.93549,-0.0040414,0,0.9355,-0.6373,-0.84828,-0.96034,89.692,-0.81531,0.2841,0.00059022,0.48,0,0
0.19166,0,0.49588,-0.85643,-0.59503,-0.93132,0.0019874,0,0,0.097359,0.43718,0,0.0051671,0,0,0.94444,-0.005471,0,0.94445,-0.59501,-0.85644,-0.93132,89.564,-0.79426,0.30582,0.0011775,0.5,0,0
0.19309,0,0.47689,-0.86808,-0.54679,-0.90135,0.0026292,0,0,0.043251,0.46093,0,0.006836,0,0,0.95552,-0.0060948,0,0.95554,-0.54676,-0.8681,-0.90135,89.531,-0.77207,0.33919,0.0019394,0.52,0,0
0.19339,0,0.45766,-0.88177,-0.49541,-0.87082,0.0029571,0,0,-0.014243,0.48803,0,0.0076885,0,0,0.96734,-0.006083,0,0.96736,-0.49539,-0.8818,-0.87082,89.561,-0.74933,0.38104,0.0028334,0.54,0,0
0.19252,0,0.4382,-0.89582,-0.44421,-0.84021,0.0029725,0,0,-0.072302,0.51479,0,0.0077284,0,0,0.97884,-0.0056368,0,0.97885,-0.44419,-0.89584,-0.84021,89.623,-0.72675,0.42656,0.0037587,0.56,0,0
0.1905,0,0.41851,-0.90866,-0.39618,-0.80996,0.0027654,0,0,-0.12831,0.53792,0,0.00719,0,0,0.98931,-0.0049458,0,0.98932,-0.39616,-0.90868,-0.80996,89.691,-0.70493,0.47098,0.0045811,0.58,0,0
0.18739,0,0.39862,-0.91913,-0.35344,-0.78039,0.0024611,0,0,-0.18035,0.55504,0,0.0063989,0,0,0.99838,-0.004159,0,0.99839,-0.35343,-0.91914,-0.78039,89.751,-0.68432,0.51068,0.0051759,0.6,0,0
0.18329,0,0.37857,-0.9266,-0.31705,-0.75167,0.0021684,0,0,-0.22741,0.565,0,0.0056379,0,0,1.0059,-0.0033735,0,1.0059,-0.31705,-0.92661,-0.75167,89.796,-0.66511,0.54363,0.0054627,0.62,0,0
0.17829,0,0.35839,-0.93095,-0.28721,-0.72384,0.0019501,0,0,-0.26925,0.56761,0,0.0050702,0,0,1.012,-0.0026393,0,1.012,-0.2872,-0.93096,-0.72384,89.826,-0.64733,0.5692,0.005418,0.64,0,0
0.17251,0,0.33809,-0.9324,-0.26348,-0.69686,0.0018213,0,0,-0.30621,0.56339,0,0.0047355,0,0,1.0166,-0.001971,0,1.0166,-0.26347,-0.93241,-0.69686,89.844,-0.63091,0.5877,0.0050653,0.66,0,0
0.16604,0,0.31772,-0.93134,-0.24515,-0.67067,0.0017634,0,0,-0.33887,0.55318,0,0.0045847,0,0,1.02,-0.0013615,0,1.02,-0.24514,-0.93134,-0.67067,89.853,-0.61572,0.59996,0.0044563,0.68,0,0
0.15896,0,0.29729,-0.92817,-0.2314,-0.64516,0.0017404,0,0,-0.3679,0.53789,0,0.004525,0,0,1.0222,-0.00079203,0,1.0222,-0.2314,-0.92817,-0.64516,89.857,-0.60158,0.60696,0.0036537,0.7,0,0
0.15133,0,0.27683,-0.92325,-0.22148,-0.62025,0.001713,0,0,-0.3939,0.51841,0,0.0044538,0,0,1.0232,-0.00023842,0,1.0232,-0.22147,-0.92326,-0.62025,89.86,-0.58833,0.60965,0.0027198,0.72,0,0
0.1432,0,0.25637,-0.91686,-0.21467,-0.59583,0.0016466,0,0,-0.41735,0.4955,0,0.0042812,0,0,1.0231,0.00032477,0,1.0231,-0.21467,-0.91687,-0.59583,89.866,-0.57579,0.60886,0.0017114,0.74,0,0
0.13463,0,0.23591,-0.90919,-0.21035,-0.57177,0.001517,0,0,-0.43864,0.46985,0,0.0039442,0,0,1.0218,0.00092168,0,1.0218,-0.21035,-0.90919,-0.57177,89.876,-0.56377,0.60533,0.00067729,0.76,0,0
0.12566,0,0.21549,-0.90039,-0.2079,-0.54798,0.0013147,0,0,-0.45814,0.4421,0,0.0034182,0,0,1.0193,0.0015718,0,1.0193,-0.2079,-0.90039,-0.54798,89.891,-0.55209,0.59975,-0.00034174,0.78,0,0
0.11631,0,0.19514,-0.89068,-0.20665,-0.52434,0.0010489,0,0,-0.47624,0.41299,0,0.0027271,0,0,1.0154,0.0022846,0,1.0154,-0.20665,-0.89068,-0.52434,89.912,-0.54056,0.59289,-0.0013147,0.8,0,0
0.10661,0,0.17488,-0.88034,-0.20578,-0.50071,0.00074969,0,0,-0.49351,0.38341,0,0.0019492,0,0,1.01,0.003051,0,1.01,-0.20578,-0.88034,-0.50071,89.936,-0.52894,0.58572,-0.0022229,0.82,0,0
0.096568,0,0.15474,-0.8698,-0.20428,-0.47696,0.00046436,0,0,-0.51069,0.35449,0,0.0012073,0,0,1.0032,0.0038331,0,1.0032,-0.20428,-0.8698,-0.47696,89.96,-0.51701,0.57948,-0.003064,0.84,0,0
0.08618,0,0.13475,-0.85962,-0.20093,-0.45291,0.00024465,0,0,-0.52871,0.32758,0,0.00063609,0,0,0.99486,0.0045567,0,0.99487,-0.20093,-0.85962,-0.45291,89.979,-0.50449,0.57566,-0.0038549,0.86,0,0
0.075419,0,0.11494,-0.85038,-0.19449,-0.42841,0.00012532,0,0,-0.54857,0.30409,0,0.00032583,0,0,0.98535,0.0051111,0,0.98536,-0.19449,-0.85038,-0.42841,89.989,-0.4911,0.57575,-0.004632,0.88,0,0
0.064237,0,0.095335,-0.84261,-0.18394,-0.4033,0.00010564,0,0,-0.5711,0.28517,0,0.00027466,0,0,0.97511,0.0053642,0,0.97513,-0.18394,-0.84261,-0.4033,89.991,-0.47662,0.58093,-0.0054453,0.9,0,0
0.052575,0,0.075938,-0.83657,-0.16879,-0.37755,0.00014484,0,0,-0.59673,0.27138,0,0.00037659,0,0,0.96486,0.0051934,0,0.96488,-0.16879,-0.83657,-0.37755,89.988,-0.46097,0.5917,-0.0063478,0.92,0,0
0.040368,0,0.056741,-0.83224,-0.14932,-0.35121,0.00018264,0,0,-0.62534,0.26246,0,0.00047487,0,0,0.95548,0.0045228,0,0.95549,-0.14932,-0.83224,-0.35121,89.985,-0.44426,0.60767,-0.0073825,0.94,0,0
0.027561,0,0.037718,-0.82934,-0.12643,-0.32445,0.00017084,0,0,-0.65636,0.25743,0,0.00044418,0,0,0.9479,0.0033563,0,0.9479,-0.12643,-0.82934,-0.32445,89.986,-0.42674,0.62778,-0.008575,0.96,0,0
0.014114,0,0.018825,-0.82746,-0.10124,-0.29744,9.9677e-05,0,0,-0.68903,0.25505,0,0.00025916,0,0,0.94296,0.0017898,0,0.94296,-0.10124,-0.82746,-0.29744,89.992,-0.40871,0.6507,-0.0099339,0.98,0,0
0,0,0,-0.80323,-0.064734,-0.26039,-3.9167e-18,0,0,-0.70569,0.25435,0,-1.0192e-17,0,0,0.94124,1.9516e-17,0,0.94124,-0.064734,-0.80323,-0.26039,-90,-0.37612,0.6627,-0.010672,1,0,0
0,0.00867,1,-0.86644,-1.3254,-1.6576,0.0022906,0,0,1.0285,0.43177,0,0.0059555,0,0,0.8775,-3.0618e-16,0,0.87748,-0.86643,-1.3254,-1.6576,0.28592,-1.2831,0.68807,0.0045758,0,0.02,0
0.020569,0.0087891,0.98245,-0.84728,-1.2862,-1.6225,0.0054261,0,0,1.0078,0.43717,0,0.014108,0,0,0.88359,-0.012259,0,0.88368,-0.84721,-1.2863,-1.6225,0.70815,-1.252,0.67338,0.0035649,0.02,0.02,0
0.040311,0.0091964,0.96466,-0.85673,-1.2443,-1.595,0.013142,0,0,0.9597,0.45589,0,0.034168,0,0,0.90124,-0.023345,0,0.90161,-0.85628,-1.2447,-1.595,1.9399,-1.232,0.64,0.001204,0.04,0.02,0
0.058957,0.010004,0.9464,-0.87577,-1.1843,-1.5644,0.024276,0,0,0.89524,0.49416,0,0.063118,0,0,0.92857,-0.031883,0,0.92925,-0.87387,-1.1862,-1.5644,4.4716,-1.2082,0.59894,-0.001814,0.06,0.02,0
0.076121,0.011328,0.92751,-0.90634,-1.0986,-1.529,0.037699,0,0,0.80946,0.5595,0,0.098017,0,0,0.96235,-0.036513,0,0.96322,-0.89921,-1.1057,-1.529,10.706,-1.178,0.55607,-0.0049015,0.08,0.02,0
0.091336,0.013181,0.90791,-0.94736,-0.98362,-1.4872,0.049294,0,0,0.7018,0.65465,0,0.12816,0,0,0.99846,-0.036574,0,0.99931,-0.91297,-1.018,-1.4872,34.902,-1.1394,0.52958,-0.0066279,0.1,0.02,0
0.10419,0.015382,0.88758,-0.99445,-0.84787,-1.4403,0.053622,0,0,0.57956,0.77013,0,0.13942,0,0,1.0327,-0.03259,0,1.0334,-0.83034,-1.012,-1.4403,71.905,-1.0942,0.54242,-0.0052058,0.12,0.02,0
0.11452,0.017582,0.8666,-1.0412,-0.7116,-1.3924,0.048442,0,0,0.45664,0.88507,0,0.12595,0,0,1.062,-0.026145,0,1.0624,-0.70463,-1.0481,-1.3924,81.809,-1.0484,0.59565,-2.1338e-05,0.14,0.02,0
0.12246,0.01942,0.8451,-1.0807,-0.59476,-1.3477,0.036147,0,0,0.34715,0.97886,0,0.093981,0,0,1.0846,-0.019035,0,1.0848,-0.59209,-1.0834,-1.3477,85.769,-1.0077,0.66417,0.0074115,0.16,0.02,0
0.1284,0.020669,0.82321,-1.1083,-0.50773,-1.308,0.021509,0,0,0.25964,1.0404,0,0.055923,0,0,1.1005,-0.012479,0,1.1006,-0.50696,-1.1091,-1.308,87.951,-0.97468,0.72243,0.014527,0.18,0.02,0
0.13284,0.02126,0.80108,-1.1223,-0.45156,-1.2732,0.0078653,0,0,0.19618,1.0682,0,0.02045,0,0,1.1102,-0.0068204,0,1.1102,-0.45147,-1.1224,-1.2732,89.328,-0.94905,0.75771,0.019393,0.2,0.02,0
0.13625,0.021226,0.7788,-1.1237,-0.42342,-1.2429,-0.0038789,0,0,0.15503,1.0654,0,-0.010085,0,0,1.1146,-0.0017835,0,1.1146,-0.4234,-1.1237,-1.2429,-89.683,-0.93001,0.7669,0.02129,0.22,0.02,0
0.13905,0.020624,0.7565,-1.1135,-0.42023,-1.2166,-0.01452,0,0,0.13401,1.0353,0,-0.037753,0,0,1.1138,0.0031703,0,1.1139,-0.41992,-1.1138,-1.2166,-88.801,-0.9168,0.75061,0.020354,0.24,0.02,0
0.14161,0.019507,0.73425,-1.0929,-0.44028,-1.1942,-0.024909,0,0,0.13174,0.98008,0,-0.064764,0,0,1.1079,0.0085662,0,1.1079,-0.43933,-1.0938,-1.1942,-87.817,-0.90911,0.71,0.01715,0.26,0.02,0
0.14431,0.01794,0.71218,-1.0625,-0.48189,-1.1755,-0.034571,0,0,0.14686,0.9017,0,-0.089884,0,0,1.0962,0.014652,0,1.0963,-0.47984,-1.0646,-1.1755,-86.605,-0.90665,0.64738,0.012567,0.28,0.02,0
0.14749,0.016047,0.6904,-1.025,-0.54076,-1.1601,-0.041423,0,0,0.17571,0.80516,0,-0.1077,0,0,1.0783,0.021087,0,1.0786,-0.53725,-1.0285,-1.1601,-85.145,-0.90861,0.5686,0.0077623,0.3,0.02,0
0.15134,0.014041,0.66905,-0.98406,-0.60687,-1.1463,-0.042781,0,0,0.21095,0.70129,0,-0.11123,0,0,1.0545,0.026733,0,1.055,-0.60208,-0.98885,-1.1463,-83.61,-0.91242,0.48507,0.0038469,0.32,0.02,0
0.15592,0.012183,0.64822,-0.94451,-0.66578,-1.1313,-0.038054,0,0,0.24284,0.60518,0,-0.09894,0,0,1.0265,0.030004,0,1.027,-0.66068,-0.94961,-1.1313,-82.364,-0.91387,0.41109,0.0013645,0.34,0.02,0
0.16106,0.01068,0.62799,-0.91018,-0.7058,-1.1128,-0.029558,0,0,0.26338,0.52907,0,-0.07685,0,0,0.99702,0.029629,0,0.99758,-0.70161,-0.91437,-1.1128,-81.934,-0.90959,0.35616,0.0001401,0.36,0.02,0
0.16646,0.0095968,0.60834,-0.88335,-0.72468,-1.0908,-0.020902,0,0,0.26962,0.47589,0,-0.054345,0,0,0.96982,0.025451,0,0.97024,-0.72197,-0.88605,-1.0908,-82.62,-0.89959,0.32001,-0.0003187,0.38,0.02,0
0.17184,0.0088832,0.5892,-0.86429,-0.72715,-1.0666,-0.013922,0,0,0.26304,0.44133,0,-0.036198,0,0,0.94803,0.018482,0,0.94825,-0.72575,-0.86569,-1.0666,-84.262,-0.88602,0.29678,-0.00040804,0.4,0.02,0
0.17698,0.0084513,0.57042,-0.85188,-0.71829,-1.0415,-0.0084265,0,0,0.24647,0.42013,0,-0.021909,0,0,0.93363,0.010353,0,0.93369,-0.71776,-0.8524,-1.0415,-86.405,-0.87054,0.28166,-0.00032843,0.42,0.02,0
0.1817,0.0082401,0.55185,-0.8451,-0.7007,-1.0156,-0.0033609,0,0,0.22164,0.40936,0,-0.0087382,0,0,0.92706,0.0025643,0,0.92706,-0.70062,-0.84517,-1.0156,-88.667,-0.85379,0.27308,-0.00014815,0.44,0.02,0
0.18585,0.0082253,0.53334,-0.84353,-0.67471,-0.98881,0.0018981,0,0,0.18886,0.40832,0,0.004935,0,0,0.92757,-0.00389,0,0.92757,-0.67469,-0.84355,-0.98881,89.356,-0.83569,0.27229,0.00013448,0.46,0.02,0
0.18926,0.0083989,0.51475,-0.8471,-0.64007,-0.9609,0.0072084,0,0,0.14794,0.41708,0,0.018742,0,0,0.93361,-0.0085523,0,0.93366,-0.63982,-0.84735,-0.9609,88.008,-0.81602,0.282,0.00055446,0.48,0.02,0
0.19176,0.0087436,0.49599,-0.85539,-0.59721,-0.93177,0.011873,0,0,0.0993,0.43493,0,0.03087,0,0,0.94341,-0.011359,0,0.9435,-0.59667,-0.85593,-0.93177,87.372,-0.79479,0.30436,0.0011505,0.5,0.02,0
0.19323,0.0092186,0.47701,-0.86737,-0.54796,-0.90161,0.015077,0,0,0.044512,0.45974,0,0.0392,0,0,0.95522,-0.012512,0,0.95532,-0.54725,-0.86808,-0.90161,87.303,-0.77232,0.33884,0.0019322,0.52,0.02,0
0.19354,0.0097605,0.45778,-0.88147,-0.49544,-0.87085,0.016297,0,0,-0.013797,0.48804,0,0.042371,0,0,0.96757,-0.01238,0,0.96767,-0.49475,-0.88215,-0.87085,87.587,-0.74925,0.38188,0.0028518,0.54,0.02,0
0.19268,0.010296,0.43831,-0.89585,-0.44326,-0.84004,0.015526,0,0,-0.072552,0.51582,0,0.040367,0,0,0.97941,-0.011388,0,0.97949,-0.44272,-0.89638,-0.84004,88.038,-0.72638,0.42828,0.0038002,0.56,0.02,0
0.19064,0.010758,0.41861,-0.90886,-0.39462,-0.80965,0.013221,0,0,-0.12898,0.53954,0,0.034375,0,0,0.99004,-0.00993,0,0.99011,-0.39428,-0.9092,-0.80965,88.528,-0.70438,0.47307,0.0046362,0.58,0.02,0
0.18752,0.011101,0.39871,-0.91934,-0.35167,-0.78001,0.010064,0,0,-0.18113,0.55684,0,0.026167,0,0,0.99917,-0.008309,0,0.99921,-0.35149,-0.91952,-0.78001,88.985,-0.68367,0.51271,0.0052331,0.6,0.02,0
0.1834,0.0113,0.37864,-0.9267,-0.31537,-0.75126,0.0066952,0,0,-0.22807,0.56666,0,0.017407,0,0,1.0067,-0.0067157,0,1.0067,-0.31529,-0.92678,-0.75126,89.373,-0.66444,0.54534,0.0055135,0.62,0.02,0
0.17839,0.011352,0.35844,-0.9309,-0.28575,-0.72344,0.003557,0,0,-0.2697,0.56899,0,0.0092482,0,0,1.0127,-0.0052422,0,1.0127,-0.28573,-0.93092,-0.72344,89.684,-0.6467,0.57048,0.0054588,0.64,0.02,0
0.17261,0.011268,0.33813,-0.93222,-0.26229,-0.69649,0.00086424,0,0,-0.30645,0.56445,0,0.002247,0,0,1.0173,-0.0039109,0,1.0173,-0.26229,-0.93222,-0.69649,89.926,-0.63033,0.5886,0.0050963,0.66,0.02,0
0.16614,0.011064,0.31775,-0.93109,-0.24419,-0.67033,-0.0013473,0,0,-0.33898,0.55398,0,-0.0035029,0,0,1.0206,-0.0027024,0,1.0206,-0.24419,-0.93109,-0.67033,-89.888,-0.6152,0.60059,0.0044797,0.68,0.02,0
0.15905,0.010758,0.29731,-0.92793,-0.23063,-0.64488,-0.0031469,0,0,-0.36797,0.53852,0,-0.0081821,0,0,1.0227,-0.0015759,0,1.0227,-0.23061,-0.92795,-0.64488,-89.741,-0.60115,0.60746,0.0036716,0.7,0.02,0
0.15142,0.010368,0.27684,-0.92311,-0.22082,-0.62002,-0.0046453,0,0,-0.39402,0.51896,0,-0.012078,0,0,1.0238,-0.0004818,0,1.0238,-0.22079,-0.92314,-0.62002,-89.621,-0.58798,0.61015,0.0027336,0.72,0.02,0
0.14329,0.00991,0.25636,-0.91688,-0.21407,-0.59564,-0.0059485,0,0,-0.4176,0.49604,0,-0.015466,0,0,1.0237,0.00063201,0,1.0237,-0.21402,-0.91693,-0.59564,-89.515,-0.57553,0.60948,0.0017211,0.74,0.02,0
0.13471,0.0093969,0.23589,-0.90939,-0.20979,-0.57164,-0.0071277,0,0,-0.43907,0.47042,0,-0.018532,0,0,1.0225,0.0018153,0,1.0225,-0.20972,-0.90946,-0.57164,-89.416,-0.56361,0.60612,0.00068206,0.76,0.02,0
0.12573,0.008842,0.21546,-0.90079,-0.20738,-0.54791,-0.0081958,0,0,-0.45875,0.44269,0,-0.021309,0,0,1.02,0.0031095,0,1.02,-0.20728,-0.90089,-0.54791,-89.323,-0.55203,0.60071,-0.00034322,0.78,0.02,0
0.11636,0.0082599,0.19509,-0.89124,-0.20622,-0.52433,-0.0090919,0,0,-0.47698,0.41354,0,-0.023639,0,0,1.0161,0.0045376,0,1.0162,-0.2061,-0.89136,-0.52433,-89.24,-0.5406,0.59395,-0.0013232,0.8,0.02,0
0.10665,0.0076682,0.17481,-0.88098,-0.20553,-0.50077,-0.0096789,0,0,-0.49427,0.38381,0,-0.025165,0,0,1.0108,0.0060874,0,1.0108,-0.20539,-0.88112,-0.50077,-89.179,-0.52909,0.58673,-0.0022379,0.82,0.02,0
0.096592,0.0070897,0.15466,-0.87043,-0.20433,-0.47709,-0.009771,0,0,-0.51135,0.35459,0,-0.025405,0,0,1.0039,0.0076886,0,1.004,-0.20419,-0.87058,-0.47709,-89.16,-0.51728,0.58025,-0.0030828,0.84,0.02,0
0.086193,0.0065515,0.13466,-0.86016,-0.20137,-0.45312,-0.0092041,0,0,-0.52915,0.32727,0,-0.023931,0,0,0.9955,0.0091935,0,0.99555,-0.20124,-0.86029,-0.45312,-89.2,-0.50488,0.57601,-0.0038733,0.86,0.02,0
0.075426,0.0060817,0.11484,-0.85079,-0.19531,-0.42867,-0.0079349,0,0,-0.54875,0.30336,0,-0.020631,0,0,0.98575,0.010374,0,0.98582,-0.19522,-0.85089,-0.42867,-89.306,-0.49159,0.57562,-0.0046456,0.88,0.02,0
0.064243,0.0057034,0.095228,-0.84288,-0.18499,-0.40359,-0.0061234,0,0,-0.57108,0.28418,0,-0.015921,0,0,0.97515,0.010949,0,0.97523,-0.18493,-0.84294,-0.40359,-89.467,-0.47715,0.58043,-0.0054521,0.9,0.02,0
0.052582,0.0054277,0.075834,-0.83676,-0.16984,-0.37781,-0.0041228,0,0,-0.59663,0.27037,0,-0.010719,0,0,0.96444,0.010651,0,0.96452,-0.16981,-0.83679,-0.37781,-89.646,-0.46147,0.59109,-0.0063494,0.92,0.02,0
0.040378,0.0052491,0.05665,-0.83242,-0.15013,-0.35141,-0.0023525,0,0,-0.62531,0.26167,0,-0.0061166,0,0,0.95456,0.0093107,0,0.95462,-0.15012,-0.83243,-0.35141,-89.802,-0.44466,0.60722,-0.0073837,0.94,0.02,0
0.02757,0.0051486,0.037651,-0.82956,-0.12689,-0.32459,-0.0011043,0,0,-0.65646,0.257,0,-0.0028712,0,0,0.94653,0.0069273,0,0.94656,-0.12689,-0.82956,-0.32459,-89.91,-0.42701,0.62763,-0.0085799,0.96,0.02,0
0.014119,0.0051011,0.018789,-0.82773,-0.10143,-0.29754,-0.00040363,0,0,-0.68925,0.25494,0,-0.0010494,0,0,0.94128,0.0036996,0,0.94129,-0.10143,-0.82773,-0.29754,-89.968,-0.4089,0.6508,-0.0099436,0.98,0.02,0
0,0.005087,0,-0.80358,-0.06488,-0.26054,-0.00026978,0,0,-0.70595,0.25435,0,-0.00070142,0,0,0.93946,2.1034e-17,0,0.93945,-0.06488,-0.80358,-0.26054,-89.979,-0.37633,0.66289,-0.010684,1,0.02,0
0,0.017271,1,-0.8675,-1.3316,-1.6597,0.0041535,0,0,1.0299,0.42655,0,0.010799,0,0,0.85897,-7.2858e-16,0,0.8589,-0.86747,-1.3317,-1.6597,0.5127,-1.2863,0.68949,0.0049204,0,0.04,0
0.020598,0.017487,0.98282,-0.84823,-1.2944,-1.6256,0.010272,0,0,1.0106,0.43055,0,0.026707,0,0,0.86592,-0.025548,0,0.86626,-0.848,-1.2947,-1.6256,1.3181,-1.2561,0.67592,0.0040328,0.02,0.04,0
0.040424,0.018236,0.96536,-0.85602,-1.2571,-1.5993,0.024958,0,0,0.96628,0.44482,0,0.06489,0,0,0.88635,-0.049181,0,0.88777,-0.85448,-1.2587,-1.5993,3.5467,-1.2375,0.64583,0.0020367,0.04,0.04,0
0.059249,0.019766,0.94737,-0.87372,-1.2046,-1.5709,0.047006,0,0,0.90627,0.47618,0,0.12222,0,0,0.91856,-0.067888,0,0.92125,-0.86717,-1.2111,-1.5709,7.9315,-1.2164,0.60946,-0.00045222,0.06,0.04,0
0.076675,0.02238,0.92862,-0.90446,-1.1233,-1.5369,0.075568,0,0,0.82222,0.53778,0,0.19648,0,0,0.95882,-0.078133,0,0.96226,-0.8809,-1.1468,-1.5369,17.317,-1.1882,0.57153,-0.0030762,0.08,0.04,0
0.092138,0.026186,0.90901,-0.94754,-1.001,-1.4936,0.10118,0,0,0.70984,0.64035,0,0.26306,0,0,1.0015,-0.077627,0,1.0048,-0.86963,-1.0789,-1.4936,37.6,-1.1474,0.55003,-0.004564,0.1,0.04,0
0.10507,0.030805,0.88856,-0.99651,-0.84529,-1.4411,0.11042,0,0,0.57797,0.77455,0,0.2871,0,0,1.0408,-0.067732,0,1.0431,-0.78707,-1.0547,-1.4411,62.2,-1.0943,0.56951,-0.0029232,0.12,0.04,0
0.11526,0.035403,0.86738,-1.0445,-0.69175,-1.3882,0.097115,0,0,0.44691,0.90545,0,0.2525,0,0,1.0723,-0.05264,0,1.0737,-0.66677,-1.0694,-1.3882,75.58,-1.0415,0.62622,0.0025183,0.14,0.04,0
0.12294,0.039154,0.84567,-1.0834,-0.56984,-1.3416,0.069621,0,0,0.33576,1.0033,0,0.18101,0,0,1.095,-0.037168,0,1.0956,-0.56057,-1.0926,-1.3416,82.414,-0.99827,0.69106,0.0098313,0.16,0.04,0
0.12869,0.041615,0.82359,-1.1078,-0.48613,-1.3017,0.039432,0,0,0.25219,1.0603,0,0.10252,0,0,1.1096,-0.023843,0,1.1099,-0.48363,-1.1102,-1.3017,86.385,-0.96521,0.74116,0.016298,0.18,0.04,0
0.13303,0.042728,0.80128,-1.1185,-0.43522,-1.2674,0.013644,0,0,0.19357,1.0818,0,0.035475,0,0,1.1182,-0.012968,0,1.1183,-0.43495,-1.1188,-1.2674,88.856,-0.94037,0.76898,0.020444,0.2,0.04,0
0.13643,0.042615,0.77886,-1.1184,-0.40986,-1.2373,-0.007484,0,0,0.15458,1.0757,0,-0.019459,0,0,1.122,-0.0034892,0,1.122,-0.40978,-1.1185,-1.2373,-89.395,-0.92188,0.77501,0.022025,0.22,0.04,0
0.13922,0.041413,0.7564,-1.11,-0.40664,-1.2114,-0.026637,0,0,0.13178,1.0462,0,-0.069257,0,0,1.1216,0.0058397,0,1.1216,-0.40564,-1.1111,-1.2114,-87.834,-0.90936,0.76057,0.021276,0.24,0.04,0
0.1417,0.039203,0.73399,-1.0927,-0.42461,-1.1892,-0.046403,0,0,0.12541,0.99396,0,-0.12065,0,0,1.1165,0.01623,0,1.1166,-0.42141,-1.0959,-1.1892,-86.046,-0.90218,0.72567,0.018538,0.26,0.04,0
0.14423,0.036068,0.71174,-1.0656,-0.46583,-1.1712,-0.066758,0,0,0.13724,0.91694,0,-0.17357,0,0,1.1057,0.028638,0,1.1061,-0.45849,-1.0729,-1.1712,-83.725,-0.90087,0.66899,0.014266,0.28,0.04,0
0.14719,0.032206,0.68977,-1.0292,-0.53018,-1.1576,-0.082763,0,0,0.16694,0.81561,0,-0.21518,0,0,1.0876,0.042694,0,1.0884,-0.51681,-1.0425,-1.1576,-80.824,-0.90563,0.59169,0.0092977,0.3,0.04,0
0.15091,0.028052,0.66824,-0.98794,-0.60892,-1.1473,-0.087549,0,0,0.20717,0.69989,0,-0.22763,0,0,1.0614,0.055978,0,1.063,-0.58967,-1.0072,-1.1473,-77.602,-0.91472,0.50244,0.0048467,0.32,0.04,0
0.15548,0.024207,0.64731,-0.94728,-0.67965,-1.1354,-0.077599,0,0,0.24454,0.59246,0,-0.20176,0,0,1.0287,0.064103,0,1.0309,-0.65878,-0.96815,-1.1354,-74.945,-0.92077,0.41883,0.0018472,0.34,0.04,0
0.16069,0.021163,0.62709,-0.91124,-0.72156,-1.1169,-0.0594,0,0,0.2674,0.51398,0,-0.15444,0,0,0.99355,0.063586,0,0.99576,-0.70449,-0.9283,-1.1169,-73.97,-0.91658,0.35761,0.00034554,0.36,0.04,0
0.16617,0.019036,0.60757,-0.88354,-0.73623,-1.0935,-0.041635,0,0,0.27295,0.46445,0,-0.10825,0,0,0.96128,0.053886,0,0.9629,-0.72528,-0.89449,-1.0935,-75.26,-0.90442,0.31924,-0.00023328,0.38,0.04,0
0.17161,0.017653,0.58864,-0.86395,-0.73489,-1.0683,-0.028388,0,0,0.26564,0.43342,0,-0.073809,0,0,0.9365,0.038027,0,0.9373,-0.72893,-0.86992,-1.0683,-78.127,-0.88905,0.2953,-0.00038059,0.4,0.04,0
0.1768,0.016805,0.57011,-0.85078,-0.72536,-1.043,-0.017958,0,0,0.24982,0.41287,0,-0.046691,0,0,0.92153,0.020136,0,0.92173,-0.72284,-0.8533,-1.043,-82.01,-0.87303,0.2788,-0.00034907,0.42,0.04,0
0.1816,0.016374,0.55178,-0.8427,-0.70867,-1.0172,-0.0078029,0,0,0.22683,0.40108,0,-0.020288,0,0,0.91629,0.0036129,0,0.91628,-0.70822,-0.84315,-1.0172,-86.679,-0.85619,0.26829,-0.00021526,0.44,0.04,0
0.18587,0.016333,0.53346,-0.84007,-0.6836,-0.99056,0.0032254,0,0,0.19564,0.39904,0,0.0083861,0,0,0.9192,-0.0096963,0,0.91924,-0.68353,-0.84014,-0.99056,88.82,-0.83808,0.26591,3.3655e-05,0.46,0.04,0
0.18943,0.016683,0.51501,-0.84333,-0.64875,-0.96263,0.014547,0,0,0.1551,0.40804,0,0.037822,0,0,0.92802,-0.019048,0,0.92823,-0.64767,-0.84441,-0.96263,85.748,-0.81824,0.27557,0.0004469,0.48,0.04,0
0.19208,0.017397,0.49634,-0.85215,-0.60403,-0.93319,0.024497,0,0,0.10535,0.42791,0,0.063693,0,0,0.94048,-0.024425,0,0.94082,-0.60164,-0.85455,-0.93319,84.415,-0.79646,0.30007,0.0010729,0.5,0.04,0
0.19364,0.01839,0.47739,-0.86526,-0.55152,-0.90243,0.031206,0,0,0.048315,0.45617,0,0.081136,0,0,0.9545,-0.02633,0,0.95489,-0.54845,-0.86833,-0.90243,84.374,-0.77307,0.33822,0.0019192,0.52,0.04,0
0.19401,0.019522,0.45816,-0.88063,-0.4953,-0.87094,0.033539,0,0,-0.012598,0.48832,0,0.087202,0,0,0.96847,-0.025606,0,0.96883,-0.49241,-0.88352,-0.87094,85.062,-0.74896,0.38498,0.0029198,0.54,0.04,0
0.19314,0.020633,0.43865,-0.89602,-0.4401,-0.83949,0.031592,0,0,-0.073492,0.51921,0,0.082138,0,0,0.98129,-0.023205,0,0.98158,-0.43792,-0.8982,-0.83949,86.055,-0.7252,0.43391,0.0039382,0.56,0.04,0
0.19107,0.021582,0.41891,-0.90953,-0.3897,-0.80867,0.026512,0,0,-0.13111,0.54466,0,0.06893,0,0,0.99238,-0.019982,0,0.9926,-0.38835,-0.91087,-0.80867,87.088,-0.70263,0.47966,0.0048118,0.58,0.04,0
0.18789,0.022274,0.39896,-0.91996,-0.34625,-0.77882,0.019855,0,0,-0.18348,0.56234,0,0.051623,0,0,1.0016,-0.016556,0,1.0017,-0.34556,-0.92065,-0.77882,88.02,-0.68168,0.51892,0.00541,0.6,0.04,0
0.18373,0.022666,0.37884,-0.92692,-0.31031,-0.75001,0.012981,0,0,-0.22998,0.57161,0,0.033751,0,0,1.009,-0.013288,0,1.0091,-0.31004,-0.92719,-0.75001,88.794,-0.66241,0.55039,0.0056669,0.62,0.04,0
0.17869,0.022759,0.3586,-0.93061,-0.28146,-0.72222,0.0067472,0,0,-0.27091,0.57298,0,0.017543,0,0,1.0148,-0.01033,0,1.0148,-0.28139,-0.93068,-0.72222,89.405,-0.64476,0.57418,0.0055796,0.64,0.04,0
0.17289,0.022578,0.33825,-0.93152,-0.25883,-0.69535,0.0015097,0,0,-0.30701,0.56748,0,0.0039251,0,0,1.0192,-0.0076931,0,1.0192,-0.25883,-0.93152,-0.69535,89.871,-0.62857,0.59112,0.0051871,0.66,0.04,0
0.16641,0.022159,0.31783,-0.93019,-0.24144,-0.66932,-0.002728,0,0,-0.33914,0.55624,0,-0.0070928,0,0,1.0223,-0.0053203,0,1.0224,-0.24143,-0.9302,-0.66932,-89.773,-0.61365,0.60231,0.0045479,0.68,0.04,0
0.15933,0.021541,0.29736,-0.92711,-0.22839,-0.64401,-0.0061484,0,0,-0.36804,0.5403,0,-0.015986,0,0,1.0244,-0.0031189,0,1.0244,-0.22834,-0.92717,-0.64401,-89.496,-0.59984,0.60882,0.0037242,0.7,0.04,0
0.15169,0.020758,0.27685,-0.9226,-0.2189,-0.6193,-0.0089956,0,0,-0.39429,0.52053,0,-0.023389,0,0,1.0254,-0.00098392,0,1.0254,-0.21878,-0.92272,-0.6193,-89.268,-0.58693,0.61155,0.0027744,0.72,0.04,0
0.14356,0.019842,0.25634,-0.91686,-0.21232,-0.59509,-0.011495,0,0,-0.4183,0.49761,0,-0.029887,0,0,1.0254,0.0011923,0,1.0254,-0.21213,-0.91705,-0.59509,-89.066,-0.57476,0.61124,0.0017502,0.74,0.04,0
0.13496,0.018817,0.23584,-0.90999,-0.20811,-0.57127,-0.013801,0,0,-0.44034,0.4721,0,-0.035883,0,0,1.0243,0.0035142,0,1.0243,-0.20784,-0.91026,-0.57127,-88.874,-0.56312,0.60844,0.00069651,0.76,0.04,0
0.12594,0.017708,0.21537,-0.90201,-0.20579,-0.54771,-0.015956,0,0,-0.4606,0.44449,0,-0.041485,0,0,1.022,0.006074,0,1.022,-0.20542,-0.90238,-0.54771,-88.688,-0.55184,0.60361,-0.0003476,0.78,0.04,0
0.11654,0.016542,0.19496,-0.89298,-0.20485,-0.52431,-0.017853,0,0,-0.47927,0.41529,0,-0.046418,0,0,1.0184,0.0089346,0,1.0184,-0.20439,-0.89344,-0.52431,-88.515,-0.54071,0.59724,-0.0013495,0.8,0.04,0
0.10677,0.015352,0.17463,-0.88302,-0.20467,-0.50094,-0.019218,0,0,-0.49671,0.38515,0,-0.049968,0,0,1.0132,0.012096,0,1.0133,-0.20413,-0.88357,-0.50094,-88.379,-0.52955,0.58998,-0.0022849,0.82,0.04,0
0.096668,0.014183,0.15443,-0.87248,-0.20434,-0.47748,-0.019645,0,0,-0.51351,0.35507,0,-0.051076,0,0,1.0063,0.015443,0,1.0064,-0.20377,-0.87306,-0.47748,-88.317,-0.5181,0.58282,-0.0031428,0.84,0.04,0
0.086231,0.013091,0.13438,-0.86193,-0.20258,-0.45374,-0.018721,0,0,-0.53065,0.3265,0,-0.048675,0,0,0.99754,0.01869,0,0.99773,-0.20205,-0.86246,-0.45374,-88.375,-0.50608,0.5773,-0.0039327,0.86,0.04,0
0.075442,0.012135,0.11453,-0.85211,-0.19776,-0.42949,-0.016269,0,0,-0.54941,0.30125,0,-0.0423,0,0,0.9871,0.021354,0,0.98735,-0.19735,-0.85252,-0.42949,-88.577,-0.49312,0.57536,-0.0046898,0.88,0.04,0
0.064255,0.011367,0.094897,-0.84376,-0.18825,-0.4045,-0.012564,0,0,-0.57104,0.28112,0,-0.032665,0,0,0.97539,0.022804,0,0.97568,-0.18801,-0.844,-0.4045,-88.902,-0.47884,0.57894,-0.0054737,0.9,0.04,0
0.0526,0.010815,0.075511,-0.83734,-0.17312,-0.37865,-0.0083682,0,0,-0.5963,0.26719,0,-0.021757,0,0,0.96323,0.022407,0,0.96351,-0.17301,-0.83745,-0.37865,-89.278,-0.46304,0.58918,-0.0063536,0.92,0.04,0
0.040403,0.010467,0.056368,-0.83292,-0.15265,-0.35204,-0.0046401,0,0,-0.62515,0.25921,0,-0.012064,0,0,0.95176,0.019738,0,0.95198,-0.15262,-0.83295,-0.35204,-89.609,-0.44587,0.60577,-0.007385,0.94,0.04,0
0.027595,0.01028,0.037441,-0.83015,-0.1283,-0.32498,-0.0020636,0,0,-0.65673,0.25568,0,-0.0053654,0,0,0.94229,0.014762,0,0.94241,-0.12829,-0.83016,-0.32498,-89.832,-0.42781,0.6271,-0.0085924,0.96,0.04,0
0.014133,0.010197,0.018677,-0.82847,-0.10197,-0.29781,-0.00070179,0,0,-0.68986,0.25459,0,-0.0018247,0,0,0.93603,0.0079074,0,0.93606,-0.10197,-0.82847,-0.29781,-89.945,-0.40942,0.65106,-0.0099701,0.98,0.04,0
0,0.010174,0,-0.80453,-0.065263,-0.26094,-0.0004487,0,0,-0.70667,0.25438,0,-0.0011666,0,0,0.93385,3.0358e-17,0,0.93384,-0.065262,-0.80453,-0.26094,-89.965,-0.37691,0.66344,-0.010716,1,0.04,0
0,0.025732,1,-0.86812,-1.3426,-1.6632,0.0053675,0,0,1.0336,0.41676,0,0.013956,0,0,0.8264,2.9386e-15,0,0.82623,-0.86806,-1.3427,-1.6632,0.64799,-1.2913,0.69293,0.0056071,0,0.06,0
0.020673,0.026011,0.98347,-0.84938,-1.308,-1.6307,0.015023,0,0,1.0157,0.41952,0,0.039059,0,0,0.83441,-0.040304,0,0.83525,-0.84889,-1.3085,-1.6307,1.8743,-1.2627,0.68052,0.0048342,0.02,0.06,0
0.040627,0.026989,0.96662,-0.85589,-1.2768,-1.6064,0.035435,0,0,0.97571,0.4285,0,0.092132,0,0,0.8589,-0.079299,0,0.86257,-0.85293,-1.2798,-1.6064,4.7785,-1.2464,0.65448,0.0032809,0.04,0.06,0
0.059701,0.029051,0.94912,-0.8711,-1.2364,-1.5814,0.06725,0,0,0.92333,0.44849,0,0.17485,0,0,0.89961,-0.11292,0,0.90696,-0.85911,-1.2484,-1.5814,10.107,-1.2296,0.62611,0.001694,0.06,0.06,0
0.077561,0.032839,0.93064,-0.9044,-1.1704,-1.5531,0.11305,0,0,0.84329,0.49747,0,0.29392,0,0,0.95261,-0.13183,0,0.96217,-0.86285,-1.212,-1.5531,20.181,-1.2093,0.59777,0.00022016,0.08,0.06,0
0.093433,0.038795,0.91101,-0.9519,-1.0369,-1.5077,0.15989,0,0,0.72249,0.61194,0,0.4157,0,0,1.0089,-0.12983,0,1.0176,-0.82898,-1.1599,-1.5077,37.554,-1.1655,0.58782,-0.00045006,0.1,0.06,0
0.10646,0.046364,0.89028,-1.0021,-0.83442,-1.4412,0.17325,0,0,0.5709,0.78886,0,0.45046,0,0,1.0577,-0.10781,0,1.0634,-0.72578,-1.1107,-1.4412,57.91,-1.0926,0.6202,0.0016086,0.12,0.06,0
0.11627,0.0538,0.8687,-1.0513,-0.64883,-1.3787,0.14462,0,0,0.42567,0.94888,0,0.37601,0,0,1.0925,-0.078632,0,1.0954,-0.60226,-1.0979,-1.3787,72.148,-1.0263,0.68098,0.0074183,0.14,0.06,0
0.12349,0.059553,0.84658,-1.0866,-0.52521,-1.3301,0.094258,0,0,0.31658,1.0464,0,0.24507,0,0,1.1134,-0.052005,0,1.1146,-0.50981,-1.102,-1.3301,80.719,-0.98065,0.73337,0.013846,0.16,0.06,0
0.12893,0.063081,0.82417,-1.1036,-0.4546,-1.2916,0.049183,0,0,0.24442,1.0881,0,0.12788,0,0,1.1247,-0.032566,0,1.1251,-0.45089,-1.1073,-1.2916,85.691,-0.94995,0.76541,0.018607,0.18,0.06,0
0.13326,0.064533,0.8016,-1.1061,-0.41245,-1.2571,0.015453,0,0,0.1964,1.0981,0,0.040177,0,0,1.1306,-0.017705,0,1.1307,-0.4121,-1.1064,-1.2571,88.724,-0.92523,0.78068,0.021398,0.2,0.06,0
0.13679,0.064255,0.77894,-1.104,-0.39129,-1.2275,-0.010075,0,0,0.16058,1.0871,0,-0.026195,0,0,1.1334,-0.0050574,0,1.1334,-0.39115,-1.1042,-1.2275,-89.19,-0.90761,0.78203,0.022516,0.22,0.06,0
0.13969,0.062472,0.75626,-1.0997,-0.38748,-1.2024,-0.033321,0,0,0.13357,1.0594,0,-0.086633,0,0,1.1336,0.0074102,0,1.1336,-0.38593,-1.1012,-1.2024,-87.327,-0.89652,0.77088,0.022167,0.24,0.06,0
0.14213,0.059265,0.7336,-1.0913,-0.40111,-1.1813,-0.059635,0,0,0.11706,1.0143,0,-0.15505,0,0,1.1307,0.021671,0,1.1309,-0.396,-1.0964,-1.1813,-85.098,-0.89123,0.74649,0.020435,0.26,0.06,0
0.14437,0.054617,0.71103,-1.0714,-0.43527,-1.163,-0.091206,0,0,0.11912,0.9461,0,-0.23714,0,0,1.1227,0.039889,0,1.1234,-0.42245,-1.0842,-1.163,-82,-0.8899,0.70449,0.017202,0.28,0.06,0
0.14689,0.048672,0.68869,-1.039,-0.50489,-1.1519,-0.12301,0,0,0.14671,0.84107,0,-0.31984,0,0,1.1057,0.064314,0,1.1075,-0.47791,-1.066,-1.1519,-77.634,-0.89858,0.63537,0.012366,0.3,0.06,0
0.15024,0.042037,0.66681,-0.99768,-0.60824,-1.1486,-0.13624,0,0,0.19617,0.70245,0,-0.35421,0,0,1.0759,0.090262,0,1.0798,-0.56531,-1.0406,-1.1486,-72.511,-0.91817,0.53748,0.0069024,0.32,0.06,0
0.15474,0.035882,0.64566,-0.95603,-0.70763,-1.1448,-0.12174,0,0,0.24534,0.56826,0,-0.31653,0,0,1.0341,0.10863,0,1.0401,-0.65792,-1.0057,-1.1448,-67.787,-0.93614,0.43435,0.0028013,0.34,0.06,0
0.16005,0.031239,0.62545,-0.91574,-0.75044,-1.1253,-0.089577,0,0,0.27243,0.48732,0,-0.2329,0,0,0.98681,0.108,0,0.99302,-0.71121,-0.95497,-1.1253,-66.348,-0.93049,0.36049,0.00072502,0.36,0.06,0
0.16564,0.028175,0.60618,-0.88452,-0.75279,-1.0974,-0.062999,0,0,0.27672,0.44796,0,-0.1638,0,0,0.94426,0.088985,0,0.94859,-0.72752,-0.9098,-1.0974,-68.137,-0.91156,0.32032,-4.1854e-05,0.38,0.06,0
0.17112,0.02622,0.58767,-0.86419,-0.7468,-1.071,-0.044927,0,0,0.26882,0.42142,0,-0.11681,0,0,0.91428,0.058925,0,0.91615,-0.73158,-0.87941,-1.071,-71.284,-0.89399,0.29474,-0.0002905,0.4,0.06,0
0.17639,0.024966,0.56961,-0.84843,-0.73748,-1.0454,-0.030197,0,0,0.25605,0.40027,0,-0.078513,0,0,0.89921,0.027996,0,0.89957,-0.7298,-0.85611,-1.0454,-75.719,-0.8771,0.27511,-0.00036069,0.42,0.06,0
0.18136,0.024283,0.55171,-0.8375,-0.72292,-1.0198,-0.014352,0,0,0.23703,0.38599,0,-0.037316,0,0,0.89723,0.0011252,0,0.89718,-0.72115,-0.83927,-1.0198,-82.968,-0.86009,0.26054,-0.00032026,0.44,0.06,0
0.18587,0.024187,0.53372,-0.83312,-0.69963,-0.99355,0.0036445,0,0,0.20856,0.3821,0,0.0094756,0,0,0.9049,-0.019684,0,0.90511,-0.69953,-0.83322,-0.99355,88.437,-0.8421,0.25498,-0.00013294,0.46,0.06,0
0.1897,0.024721,0.51551,-0.83629,-0.66452,-0.96575,0.022435,0,0,0.1683,0.3916,0,0.058332,0,0,0.91889,-0.033699,0,0.91953,-0.66164,-0.83917,-0.96575,82.68,-0.82219,0.2646,0.00027143,0.48,0.06,0
0.1926,0.02586,0.49697,-0.8465,-0.6163,-0.93581,0.038928,0,0,0.1161,0.41536,0,0.10121,0,0,0.93613,-0.041083,0,0.93707,-0.6099,-0.85291,-0.93581,80.657,-0.79954,0.29338,0.00095626,0.5,0.06,0
0.19435,0.027466,0.47806,-0.86186,-0.55748,-0.90387,0.049696,0,0,0.054612,0.4503,0,0.12921,0,0,0.95404,-0.042815,0,0.95504,-0.54957,-0.86977,-0.90387,80.958,-0.7744,0.33853,0.0019246,0.52,0.06,0
0.19479,0.029293,0.45881,-0.87956,-0.49429,-0.87096,0.052751,0,0,-0.011177,0.48967,0,0.13715,0,0,0.9707,-0.040463,0,0.97157,-0.4872,-0.88665,-0.87096,82.343,-0.74827,0.39184,0.0030733,0.54,0.06,0
0.1939,0.031064,0.43924,-0.89665,-0.43377,-0.83836,0.048626,0,0,-0.075772,0.52597,0,0.12643,0,0,0.98503,-0.035753,0,0.9857,-0.42871,-0.9017,-0.83836,84.067,-0.72293,0.44471,0.0042098,0.56,0.06,0
0.19176,0.032545,0.41941,-0.91079,-0.38071,-0.80686,0.03972,0,0,-0.13511,0.55399,0,0.10327,0,0,0.99669,-0.03014,0,0.99716,-0.37775,-0.91375,-0.80686,85.738,-0.69945,0.49135,0.0051339,0.58,0.06,0
0.1885,0.033594,0.39937,-0.92088,-0.3369,-0.7767,0.028903,0,0,-0.18743,0.57174,0,0.075149,0,0,1.0059,-0.024573,0,1.0062,-0.33548,-0.92231,-0.7767,87.173,-0.67816,0.52927,0.0057164,0.6,0.06,0
0.18426,0.034164,0.37917,-0.92693,-0.30195,-0.74784,0.018342,0,0,-0.23283,0.57965,0,0.047689,0,0,1.0129,-0.01951,0,1.0131,-0.30142,-0.92747,-0.74784,88.32,-0.65891,0.55835,0.00592,0.62,0.06,0
0.17918,0.034272,0.35885,-0.92965,-0.27459,-0.72012,0.0091861,0,0,-0.27238,0.57919,0,0.023884,0,0,1.0183,-0.015073,0,1.0184,-0.27446,-0.92978,-0.72012,89.197,-0.64145,0.57966,0.0057717,0.64,0.06,0
0.17337,0.033967,0.33844,-0.92985,-0.2534,-0.69342,0.0017523,0,0,-0.30737,0.57202,0,0.0045561,0,0,1.0223,-0.011203,0,1.0223,-0.2534,-0.92986,-0.69342,89.852,-0.62556,0.59461,0.0053285,0.66,0.06,0
0.16689,0.033313,0.31796,-0.92827,-0.23718,-0.6676,-0.0041223,0,0,-0.33888,0.55954,0,-0.010718,0,0,1.0252,-0.0077639,0,1.0252,-0.23715,-0.9283,-0.6676,-89.658,-0.61102,0.60454,0.0046536,0.68,0.06,0
0.15981,0.03237,0.29743,-0.92539,-0.22493,-0.64253,-0.0088068,0,0,-0.36771,0.54287,0,-0.022898,0,0,1.0271,-0.004595,0,1.0271,-0.22482,-0.9255,-0.64253,-89.28,-0.59762,0.61053,0.0038064,0.7,0.06,0
0.15218,0.031189,0.27688,-0.92148,-0.21592,-0.6181,-0.01271,0,0,-0.39439,0.52283,0,-0.033046,0,0,1.0281,-0.0015281,0,1.0281,-0.21569,-0.92171,-0.6181,-88.968,-0.58516,0.61342,0.0028393,0.72,0.06,0
0.14403,0.029814,0.25631,-0.91665,-0.20954,-0.59417,-0.016191,0,0,-0.41923,0.50001,0,-0.042096,0,0,1.0282,0.0016041,0,1.0282,-0.20917,-0.91702,-0.59417,-88.689,-0.57346,0.6138,0.0017976,0.74,0.06,0
0.13541,0.028281,0.23575,-0.9109,-0.20538,-0.57063,-0.019505,0,0,-0.44234,0.47483,0,-0.050712,0,0,1.0273,0.0049671,0,1.0273,-0.20484,-0.91143,-0.57063,-88.418,-0.5623,0.61206,0.00072089,0.76,0.06,0
0.12634,0.026622,0.21522,-0.9041,-0.20308,-0.54737,-0.022755,0,0,-0.46374,0.44758,0,-0.059163,0,0,1.0254,0.0087193,0,1.0254,-0.20234,-0.90483,-0.54737,-88.143,-0.55152,0.60841,-0.00035457,0.78,0.06,0
0.11686,0.024871,0.19473,-0.8961,-0.20235,-0.52427,-0.025833,0,0,-0.48338,0.4185,0,-0.067167,0,0,1.0222,0.012995,0,1.0222,-0.20139,-0.89706,-0.52427,-87.87,-0.54091,0.60299,-0.0013948,0.8,0.06,0
0.10701,0.023074,0.17433,-0.88683,-0.20282,-0.50122,-0.028357,0,0,-0.50128,0.38793,0,-0.073727,0,0,1.0173,0.017859,0,1.0175,-0.20164,-0.888,-0.50122,-87.63,-0.53029,0.596,-0.0023691,0.82,0.06,0
0.09681,0.021293,0.15404,-0.87642,-0.20384,-0.47812,-0.029646,0,0,-0.51779,0.35657,0,-0.07708,0,0,1.0105,0.023221,0,1.0108,-0.20253,-0.87772,-0.47812,-87.481,-0.51946,0.58801,-0.0032545,0.84,0.06,0
0.086295,0.019612,0.13391,-0.86542,-0.20417,-0.45479,-0.028887,0,0,-0.53382,0.3258,0,-0.075107,0,0,1.0014,0.028706,0,1.0018,-0.20291,-0.86668,-0.45479,-87.503,-0.50813,0.58038,-0.0040473,0.86,0.06,0
0.075457,0.018132,0.11399,-0.85476,-0.20174,-0.43094,-0.025518,0,0,-0.55097,0.29795,0,-0.066348,0,0,0.98986,0.033538,0,0.99045,-0.20075,-0.85575,-0.43094,-87.766,-0.49581,0.57554,-0.0047774,0.88,0.06,0
0.064256,0.016948,0.094316,-0.84548,-0.19399,-0.40616,-0.019797,0,0,-0.57112,0.27582,0,-0.051473,0,0,0.97621,0.036577,0,0.97692,-0.19339,-0.84608,-0.40616,-88.261,-0.48187,0.57655,-0.0055162,0.9,0.06,0
0.052612,0.016115,0.074937,-0.83836,-0.17905,-0.38016,-0.012986,0,0,-0.59566,0.26145,0,-0.033763,0,0,0.96138,0.036579,0,0.9621,-0.17879,-0.83862,-0.38016,-88.872,-0.46586,0.58571,-0.0063582,0.92,0.06,0
0.04043,0.015617,0.055861,-0.83361,-0.15713,-0.35308,-0.0068911,0,0,-0.62469,0.25474,0,-0.017917,0,0,0.94692,0.032646,0,0.9475,-0.15706,-0.83368,-0.35308,-89.416,-0.44794,0.603,-0.0073798,0.94,0.06,0
0.027625,0.015376,0.037061,-0.83086,-0.13068,-0.32552,-0.0028014,0,0,-0.65694,0.2533,0,-0.0072836,0,0,0.9347,0.024622,0,0.93503,-0.13066,-0.83087,-0.32552,-89.771,-0.42902,0.62595,-0.0086037,0.96,0.06,0
0.014152,0.015285,0.018473,-0.82935,-0.10274,-0.2981,-0.00083678,0,0,-0.69062,0.25397,0,-0.0021756,0,0,0.92652,0.013248,0,0.92661,-0.10274,-0.82935,-0.2981,-89.934,-0.41006,0.65129,-0.010003,0.98,0.06,0
0,0.015262,0,-0.80577,-0.065763,-0.26146,-0.00043316,0,0,-0.7076,0.2544,0,-0.0011262,0,0,0.92364,2.7756e-17,0,0.92362,-0.065763,-0.80577,-0.26146,-89.966,-0.37766,0.66414,-0.010758,1,0.06,0
0,0.033941,1,-0.86306,-1.3604,-1.667,0.0062738,0,0,1.0452,0.39867,0,0.016312,0,0,0.77836,8.0491e-16,0,0.77802,-0.86298,-1.3604,-1.667,0.72267,-1.2968,0.70284,0.0070853,0,0.08,0
0.020903,0.034267,0.98443,-0.8476,-1.3289,-1.6374,0.021854,0,0,1.0267,0.40099,0,0.056819,0,0,0.78662,-0.055686,0,0.78828,-0.84661,-1.3299,-1.6374,2.5942,-1.2713,0.69046,0.0063189,0.02,0.08,0
0.041069,0.035375,0.96854,-0.857,-1.3027,-1.6164,0.048486,0,0,0.98726,0.40792,0,0.12606,0,0,0.81373,-0.11272,0,0.82134,-0.85178,-1.3079,-1.6164,6.138,-1.2587,0.6663,0.0049627,0.04,0.08,0
0.060394,0.037706,0.95188,-0.87344,-1.2765,-1.5969,0.087052,0,0,0.94047,0.41645,0,0.22634,0,0,0.86603,-0.17014,0,0.88288,-0.85544,-1.2945,-1.5969,11.68,-1.249,0.64573,0.0043269,0.06,0.08,0
0.078688,0.042279,0.93389,-0.90772,-1.2388,-1.5778,0.15183,0,0,0.87117,0.44076,0,0.39476,0,0,0.94191,-0.21417,0,0.96719,-0.84864,-1.2979,-1.5778,21.263,-1.2415,0.63717,0.0051704,0.08,0.08,0
0.095241,0.050664,0.91421,-0.97772,-1.1182,-1.543,0.22813,0,0,0.73482,0.55226,0,0.59315,0,0,1.0256,-0.20394,0,1.0465,-0.80924,-1.2866,-1.543,36.446,-1.2129,0.64497,0.0068067,0.1,0.08,0
0.10808,0.062359,0.89287,-1.0123,-0.78762,-1.4328,0.24937,0,0,0.5467,0.8388,0,0.64836,0,0,1.092,-0.15739,0,1.1034,-0.62645,-1.1735,-1.4328,57.126,-1.0776,0.71301,0.010655,0.12,0.08,0
0.11711,0.073358,0.87053,-1.061,-0.5602,-1.3569,0.17544,0,0,0.38466,1.0357,0,0.45615,0,0,1.1281,-0.094711,0,1.1319,-0.50486,-1.1163,-1.3569,72.491,-0.99269,0.76083,0.015232,0.14,0.08,0
0.12347,0.08101,0.84775,-1.0924,-0.47409,-1.3177,0.099663,0,0,0.29283,1.0967,0,0.25912,0,0,1.141,-0.059594,0,1.1425,-0.45842,-1.1081,-1.3177,81.067,-0.96142,0.77602,0.018229,0.16,0.08,0
0.12882,0.085141,0.82489,-1.0838,-0.42016,-1.2761,0.046443,0,0,0.24996,1.1127,0,0.12075,0,0,1.1439,-0.036888,0,1.1445,-0.41692,-1.087,-1.2761,86.016,-0.92668,0.78196,0.019803,0.18,0.08,0
0.13347,0.086652,0.80199,-1.0755,-0.38884,-1.2413,0.013393,0,0,0.21553,1.1082,0,0.034821,0,0,1.1457,-0.02036,0,1.1459,-0.38858,-1.0758,-1.2413,88.883,-0.90187,0.78318,0.021004,0.2,0.08,0
0.13744,0.086099,0.77906,-1.0725,-0.37209,-1.2125,-0.01009,0,0,0.18187,1.0925,0,-0.026233,0,0,1.1471,-0.006465,0,1.1471,-0.37194,-1.0727,-1.2125,-89.175,-0.8857,0.78008,0.021766,0.22,0.08,0
0.14074,0.083789,0.7561,-1.0752,-0.36722,-1.1888,-0.031729,0,0,0.14774,1.0681,0,-0.082495,0,0,1.1483,0.0072777,0,1.1483,-0.36579,-1.0766,-1.1888,-87.439,-0.87707,0.77304,0.02205,0.24,0.08,0
0.14335,0.079774,0.73313,-1.0814,-0.37445,-1.1699,-0.058473,0,0,0.115,1.0341,0,-0.15203,0,0,1.149,0.023275,0,1.1492,-0.36965,-1.0862,-1.1699,-85.304,-0.87526,0.76187,0.021792,0.26,0.08,0
0.14534,0.073912,0.71015,-1.0855,-0.39812,-1.1552,-0.098028,0,0,0.090611,0.98426,0,-0.25487,0,0,1.1483,0.04481,0,1.1491,-0.38442,-1.0993,-1.1552,-82.041,-0.87964,0.74441,0.020783,0.28,0.08,0
0.14698,0.065849,0.6872,-1.0566,-0.44343,-1.1372,-0.15017,0,0,0.10475,0.90192,0,-0.39043,0,0,1.1379,0.077483,0,1.1404,-0.40863,-1.0914,-1.1372,-76.953,-0.87909,0.7068,0.017879,0.3,0.08,0
0.14953,0.056149,0.66463,-1.0185,-0.58653,-1.1461,-0.19607,0,0,0.16592,0.72749,0,-0.50978,0,0,1.1057,0.13476,0,1.114,-0.51081,-1.0942,-1.1461,-68.884,-0.91706,0.61103,0.011432,0.32,0.08,0
0.15361,0.046938,0.64297,-0.9858,-0.76929,-1.1695,-0.17279,0,0,0.2388,0.52027,0,-0.44924,0,0,1.0465,0.17414,0,1.0615,-0.67365,-1.0814,-1.1695,-61.034,-0.97486,0.45821,0.0043325,0.34,0.08,0
0.15908,0.040656,0.62277,-0.92384,-0.78653,-1.1359,-0.12425,0,0,0.27565,0.45415,0,-0.32306,0,0,0.97391,0.17821,0,0.99096,-0.71322,-0.99714,-1.1359,-59.461,-0.94875,0.37316,0.0014789,0.36,0.08,0
0.16464,0.036954,0.60401,-0.89045,-0.77353,-1.1032,-0.08893,0,0,0.27658,0.42858,0,-0.23122,0,0,0.91221,0.13249,0,0.92183,-0.72556,-0.93841,-1.1032,-61.661,-0.92239,0.32793,0.00039532,0.38,0.08,0
0.17015,0.03451,0.58628,-0.86403,-0.76402,-1.0747,-0.067152,0,0,0.27387,0.40388,0,-0.17459,0,0,0.87552,0.078759,0,0.87884,-0.7303,-0.89775,-1.0747,-63.336,-0.90092,0.29829,-6.5097e-05,0.4,0.08,0
0.1756,0.032816,0.56899,-0.84193,-0.75651,-1.0485,-0.046613,0,0,0.26857,0.37961,0,-0.12119,0,0,0.86373,0.031122,0,0.8641,-0.736,-0.86244,-1.0485,-66.249,-0.88232,0.27229,-0.00033521,0.42,0.08,0
0.18089,0.031814,0.55173,-0.82661,-0.74469,-1.0231,-0.023311,0,0,0.25547,0.36196,0,-0.060608,0,0,0.86861,-0.0077378,0,0.86855,-0.73852,-0.83278,-1.0231,-75.177,-0.86481,0.25111,-0.000444,0.44,0.08,0
0.18581,0.031617,0.53424,-0.82088,-0.72429,-0.9978,0.0035132,0,0,0.22999,0.35556,0,0.0091345,0,0,0.88437,-0.036747,0,0.88514,-0.72416,-0.82101,-0.9978,87.92,-0.84766,0.24032,-0.00034258,0.46,0.08,0
0.19009,0.032347,0.51636,-0.82523,-0.68934,-0.97073,0.03185,0,0,0.18915,0.3658,0,0.082811,0,0,0.90663,-0.055282,0,0.90838,-0.68225,-0.83232,-0.97073,77.442,-0.82843,0.2499,5.6114e-05,0.48,0.08,0
0.19338,0.034011,0.49798,-0.83846,-0.63548,-0.94016,0.056858,0,0,0.13221,0.39609,0,0.14783,0,0,0.93136,-0.063625,0,0.93362,-0.62064,-0.8533,-0.94016,75.371,-0.8047,0.28616,0.00084024,0.5,0.08,0
0.19538,0.036402,0.4791,-0.85769,-0.56558,-0.90608,0.07233,0,0,0.062912,0.44265,0,0.18806,0,0,0.95512,-0.063437,0,0.95729,-0.54865,-0.87462,-0.90608,76.827,-0.77645,0.34278,0.00201,0.52,0.08,0
0.1959,0.039109,0.45977,-0.87901,-0.49066,-0.87067,0.075041,0,0,-0.010831,0.49402,0,0.19511,0,0,0.97553,-0.057554,0,0.97726,-0.47667,-0.893,-0.87067,79.435,-0.74678,0.40564,0.0033929,0.54,0.08,0
0.19494,0.041672,0.44008,-0.89833,-0.42234,-0.83628,0.066652,0,0,-0.080666,0.53813,0,0.1733,0,0,0.99161,-0.049,0,0.99284,-0.41318,-0.90749,-0.83628,82.177,-0.71898,0.46283,0.0046884,0.56,0.08,0
0.19267,0.043741,0.42011,-0.91284,-0.36654,-0.80393,0.052164,0,0,-0.14159,0.5686,0,0.13563,0,0,1.0036,-0.040076,0,1.0044,-0.3616,-0.91778,-0.80393,84.594,-0.69444,0.50889,0.0056432,0.58,0.08,0
0.18928,0.045143,0.39994,-0.92174,-0.32341,-0.77348,0.036336,0,0,-0.19274,0.5851,0,0.094473,0,0,1.0122,-0.031976,0,1.0127,-0.32121,-0.92394,-0.77348,86.537,-0.67288,0.54336,0.0061588,0.6,0.08,0
0.18496,0.045852,0.37962,-0.92603,-0.29065,-0.74462,0.022107,0,0,-0.23583,0.59017,0,0.05748,0,0,1.0185,-0.025055,0,1.0188,-0.28988,-0.9268,-0.74462,88.01,-0.65377,0.56817,0.0062589,0.62,0.08,0
0.17985,0.045927,0.3592,-0.92717,-0.26567,-0.71705,0.010515,0,0,-0.27315,0.58679,0,0.02734,0,0,1.0231,-0.01923,0,1.0233,-0.26551,-0.92734,-0.71705,89.09,-0.63663,0.58572,0.0060159,0.64,0.08,0
0.17403,0.045459,0.3387,-0.92646,-0.24655,-0.6906,0.0015177,0,0,-0.30662,0.57727,0,0.0039459,0,0,1.0265,-0.014275,0,1.0266,-0.24655,-0.92646,-0.6906,89.872,-0.6212,0.59796,0.0055031,0.66,0.08,0
0.16758,0.044541,0.31814,-0.92468,-0.23187,-0.66511,-0.0053889,0,0,-0.33745,0.56321,0,-0.014011,0,0,1.0289,-0.009937,0,1.029,-0.23183,-0.92473,-0.66511,-89.554,-0.60722,0.60632,0.0047837,0.68,0.08,0
0.16054,0.043256,0.29754,-0.92226,-0.22064,-0.64041,-0.010822,0,0,-0.36641,0.5457,0,-0.028138,0,0,1.0306,-0.0059693,0,1.0306,-0.22048,-0.92243,-0.64041,-89.117,-0.59444,0.61181,0.0039097,0.7,0.08,0
0.15293,0.041672,0.27691,-0.91936,-0.21217,-0.61637,-0.015368,0,0,-0.39388,0.52546,0,-0.039956,0,0,1.0316,-0.0021381,0,1.0316,-0.21184,-0.91969,-0.61637,-88.756,-0.58263,0.61511,0.0029237,0.72,0.08,0
0.14478,0.039842,0.25628,-0.91596,-0.20597,-0.59286,-0.019515,0,0,-0.42004,0.50295,0,-0.050739,0,0,1.0319,0.0017837,0,1.0319,-0.20543,-0.9165,-0.59286,-88.427,-0.57159,0.61663,0.0018616,0.74,0.08,0
0.13612,0.03781,0.23564,-0.91194,-0.20172,-0.56974,-0.02363,0,0,-0.44487,0.47842,0,-0.061437,0,0,1.0314,0.0060253,0,1.0314,-0.20093,-0.91273,-0.56974,-88.097,-0.56113,0.61657,0.00075554,0.76,0.08,0
0.12699,0.035611,0.21502,-0.90704,-0.19924,-0.5469,-0.027915,0,0,-0.46817,0.45196,0,-0.072579,0,0,1.03,0.010824,0,1.0301,-0.19814,-0.90814,-0.5469,-87.745,-0.55106,0.6149,-0.00036331,0.78,0.08,0
0.1174,0.033282,0.19444,-0.90086,-0.19847,-0.52424,-0.032344,0,0,-0.48961,0.42349,0,-0.084094,0,0,1.0275,0.016421,0,1.0276,-0.19699,-0.90235,-0.52424,-87.369,-0.54119,0.61139,-0.0014613,0.8,0.08,0
0.1074,0.030869,0.17392,-0.89296,-0.19939,-0.50162,-0.036528,0,0,-0.50874,0.39291,0,-0.094974,0,0,1.0234,0.023029,0,1.0237,-0.19747,-0.89488,-0.50162,-86.993,-0.53133,0.60562,-0.0024996,0.82,0.08,0
0.097048,0.028446,0.1535,-0.88311,-0.20191,-0.47901,-0.039566,0,0,-0.52533,0.36022,0,-0.10287,0,0,1.0171,0.030731,0,1.0176,-0.19962,-0.8854,-0.47901,-86.687,-0.52134,0.59728,-0.0034381,0.84,0.08,0
0.086388,0.026123,0.13323,-0.87159,-0.2052,-0.45627,-0.039999,0,0,-0.53992,0.32639,0,-0.104,0,0,1.0079,0.039218,0,1.0086,-0.20281,-0.87398,-0.45627,-86.577,-0.51102,0.58703,-0.0042468,0.86,0.08,0
0.075451,0.024053,0.11319,-0.85958,-0.20689,-0.43313,-0.03645,0,0,-0.55439,0.29411,0,-0.094771,0,0,0.99497,0.047454,0,0.99613,-0.20486,-0.86161,-0.43313,-86.814,-0.49987,0.57751,-0.0049383,0.88,0.08,0
0.064212,0.0224,0.093434,-0.84863,-0.20264,-0.40881,-0.02865,0,0,-0.57176,0.26803,0,-0.07449,0,0,0.97843,0.053503,0,0.97994,-0.20137,-0.84989,-0.40881,-87.466,-0.48669,0.57366,-0.0055958,0.9,0.08,0
0.052581,0.021273,0.074048,-0.84002,-0.18842,-0.38258,-0.018561,0,0,-0.59467,0.25241,0,-0.048257,0,0,0.9593,0.054977,0,0.96093,-0.18789,-0.84054,-0.38258,-88.37,-0.47034,0.58034,-0.0063626,0.92,0.08,0
0.040425,0.020656,0.055063,-0.83427,-0.16405,-0.35456,-0.0093673,0,0,-0.62362,0.24766,0,-0.024355,0,0,0.9398,0.049983,0,0.94117,-0.16392,-0.8344,-0.35456,-89.199,-0.45096,0.59838,-0.0073565,0.94,0.08,0
0.027636,0.020412,0.036456,-0.83109,-0.13402,-0.32599,-0.0034875,0,0,-0.65663,0.24956,0,-0.0090674,0,0,0.92289,0.038098,0,0.92369,-0.13401,-0.83111,-0.32599,-89.713,-0.43037,0.62368,-0.0085953,0.96,0.08,0
0.01416,0.020356,0.018147,-0.82959,-0.10368,-0.29813,-0.00091923,0,0,-0.6909,0.25278,0,-0.00239,0,0,0.91141,0.020593,0,0.91162,-0.10368,-0.82959,-0.29813,-89.927,-0.41047,0.65085,-0.010015,0.98,0.08,0
0,0.02035,0,-0.80648,-0.066388,-0.26186,-0.0001132,0,0,-0.708,0.25411,0,-0.00029432,0,0,0.90735,6.9389e-18,0,0.90731,-0.066388,-0.80648,-0.26186,-89.991,-0.37824,0.66428,-0.010776,1,0.08,0
0,0.041679,1,-0.84125,-1.3875,-1.6686,0.0071597,0,0,1.0756,0.3655,0,0.018615,0,0,0.71503,-3.0566e-15,0,0.71447,-0.84115,-1.3876,-1.6686,0.75086,-1.2991,0.72878,0.010377,0,0.1,0
0.021511,0.042051,0.9857,-0.83077,-1.36,-1.6429,0.033358,0,0,1.0558,0.36785,0,0.08673,0,0,0.72169,-0.069247,0,0.72443,-0.82868,-1.362,-1.6429,3.5928,-1.2779,0.71637,0.0095695,0.02,0.1,0
0.042232,0.043306,0.97113,-0.85439,-1.3424,-1.6302,0.070775,0,0,1.0085,0.37414,0,0.18401,0,0,0.74445,-0.14392,0,0.75764,-0.84433,-1.3524,-1.6302,8.0882,-1.2756,0.69022,0.0081403,0.04,0.1,0
0.061851,0.045709,0.95592,-0.88497,-1.3248,-1.6188,0.12029,0,0,0.95404,0.38227,0,0.31276,0,0,0.79817,-0.23025,0,0.83022,-0.85422,-1.3556,-1.6188,14.339,-1.2762,0.6728,0.0079542,0.06,0.1,0
0.080393,0.050469,0.93921,-0.94894,-1.3416,-1.6264,0.20491,0,0,0.88066,0.37018,0,0.53277,0,0,0.91881,-0.33603,0,0.97997,-0.86149,-1.4291,-1.6264,23.112,-1.3056,0.6878,0.012191,0.08,0.1,0
0.097078,0.060885,0.91917,-1.0502,-1.2652,-1.6138,0.34386,0,0,0.73267,0.45313,0,0.89402,0,0,1.0656,-0.39838,0,1.143,-0.79746,-1.518,-1.6138,36.319,-1.3098,0.77291,0.022491,0.1,0.1,0
0.1097,0.079917,0.89658,-1.0068,-0.56485,-1.3681,0.28297,0,0,0.46966,1.0442,0,0.73573,0,0,1.1669,-0.15609,0,1.1745,-0.42679,-1.1448,-1.3681,63.993,-0.97991,0.8519,0.024555,0.12,0.1,0
0.11586,0.095228,0.87249,-1.1209,-0.50007,-1.3588,0.16268,0,0,0.30924,1.1163,0,0.42297,0,0,1.1903,-0.089748,0,1.1936,-0.46002,-1.1609,-1.3588,76.171,-0.99325,0.81799,0.022663,0.14,0.1,0
0.12207,0.10342,0.84897,-1.0596,-0.42818,-1.2953,0.076867,0,0,0.30639,1.1273,0,0.19985,0,0,1.1712,-0.056412,0,1.1725,-0.41896,-1.0689,-1.2953,83.158,-0.92771,0.78792,0.018302,0.16,0.1,0
0.12812,0.10759,0.82564,-1.0274,-0.39052,-1.251,0.036128,0,0,0.2907,1.1186,0,0.093932,0,0,1.1639,-0.035793,0,1.1644,-0.38847,-1.0294,-1.251,86.764,-0.88964,0.77586,0.017555,0.18,0.1,0
0.1337,0.10886,0.80241,-1.0161,-0.36818,-1.2177,0.011819,0,0,0.26206,1.1044,0,0.030729,0,0,1.161,-0.020665,0,1.1612,-0.36797,-1.0163,-1.2177,88.955,-0.86733,0.76908,0.018075,0.2,0.1,0
0.1386,0.10795,0.7792,-1.0177,-0.3551,-1.191,-0.0051601,0,0,0.22537,1.0867,0,-0.013416,0,0,1.161,-0.0077407,0,1.161,-0.35506,-1.0177,-1.191,-89.554,-0.8546,0.7642,0.019007,0.22,0.1,0
0.14271,0.10519,0.75597,-1.0283,-0.34905,-1.1692,-0.021218,0,0,0.1831,1.0662,0,-0.055166,0,0,1.1633,0.0051206,0,1.1633,-0.34839,-1.029,-1.1692,-88.213,-0.84886,0.76046,0.020024,0.24,0.1,0
0.14593,0.10063,0.73267,-1.049,-0.35063,-1.1525,-0.042099,0,0,0.13466,1.0425,0,-0.10946,0,0,1.1682,0.020007,0,1.1684,-0.3481,-1.0515,-1.1525,-86.563,-0.85071,0.75899,0.02112,0.26,0.1,0
0.1481,0.093988,0.70924,-1.0833,-0.3633,-1.1432,-0.074861,0,0,0.077858,1.0139,0,-0.19464,0,0,1.1769,0.040017,0,1.1775,-0.3556,-1.0911,-1.1432,-84.127,-0.8633,0.76288,0.022443,0.28,0.1,0
0.14904,0.084748,0.68559,-1.1322,-0.3987,-1.1449,-0.13963,0,0,0.016475,0.97001,0,-0.36303,0,0,1.1956,0.071821,0,1.1976,-0.37302,-1.1579,-1.1449,-79.579,-0.89192,0.77843,0.024203,0.3,0.1,0
0.14876,0.071137,0.66142,-1.0369,-0.42156,-1.099,-0.22377,0,0,0.08065,0.88062,0,-0.5818,0,0,1.1726,0.13399,0,1.1777,-0.34879,-1.1097,-1.099,-71.986,-0.85248,0.75559,0.022141,0.32,0.1,0
0.15227,0.056693,0.63869,-1.0591,-0.87792,-1.2198,-0.27551,0,0,0.20887,0.44446,0,-0.71633,0,0,1.0775,0.35742,0,1.1403,-0.6785,-1.2586,-1.2198,-54.103,-1.0523,0.56168,0.0089554,0.34,0.1,0
0.15711,0.049405,0.61832,-0.96402,-0.84666,-1.1615,-0.17985,0,0,0.25675,0.40932,0,-0.46762,0,0,0.94516,0.28181,0,0.98702,-0.71615,-1.0945,-1.1615,-54.035,-0.99073,0.41593,0.0033747,0.36,0.1,0
0.16254,0.045318,0.60089,-0.89671,-0.80483,-1.1114,-0.13049,0,0,0.27903,0.39847,0,-0.33929,0,0,0.84481,0.17418,0,0.86181,-0.71242,-0.98911,-1.1114,-54.697,-0.93763,0.354,0.0013966,0.38,0.1,0
0.16827,0.042375,0.58452,-0.85363,-0.79366,-1.0787,-0.097012,0,0,0.29261,0.37056,0,-0.25223,0,0,0.81291,0.091054,0,0.81742,-0.72211,-0.92519,-1.0787,-53.587,-0.90867,0.30982,0.00036333,0.4,0.1,0
0.17424,0.040151,0.56837,-0.8221,-0.78413,-1.0502,-0.065766,0,0,0.29658,0.34594,0,-0.17099,0,0,0.81271,0.025317,0,0.81276,-0.73466,-0.87157,-1.0502,-53.052,-0.88549,0.27409,-0.00023986,0.42,0.1,0
0.18014,0.038761,0.55202,-0.80557,-0.77451,-1.026,-0.03254,0,0,0.28661,0.32699,0,-0.084603,0,0,0.82936,-0.026462,0,0.82966,-0.75398,-0.82609,-1.026,-57.757,-0.8687,0.24412,-0.00053328,0.44,0.1,0
0.18571,0.038409,0.53519,-0.80168,-0.75874,-1.0033,0.0043581,0,0,0.26213,0.31796,0,0.011331,0,0,0.85736,-0.064569,0,0.85986,-0.7583,-0.80212,-1.0033,84.263,-0.85458,0.22631,-0.0005209,0.46,0.1,0
0.19062,0.039353,0.51772,-0.8101,-0.72595,-0.97854,0.044583,0,0,0.21897,0.32836,0,0.11592,0,0,0.89201,-0.087668,0,0.89649,-0.70672,-0.82933,-0.97854,66.671,-0.8382,0.23577,-0.00011345,0.48,0.1,0
0.19446,0.041703,0.49951,-0.82927,-0.66422,-0.94756,0.080789,0,0,0.15378,0.36834,0,0.21005,0,0,0.92797,-0.095178,0,0.93302,-0.63126,-0.86223,-0.94756,67.804,-0.81368,0.28344,0.0008221,0.5,0.1,0
0.19677,0.045172,0.4806,-0.85425,-0.57458,-0.90925,0.10175,0,0,0.071506,0.43507,0,0.26455,0,0,0.96011,-0.089836,0,0.9644,-0.54148,-0.88735,-0.90925,71.979,-0.77936,0.35732,0.0023135,0.52,0.1,0
0.19732,0.049054,0.46111,-0.88036,-0.48042,-0.86934,0.10114,0,0,-0.014324,0.5056,0,0.26295,0,0,0.98513,-0.07694,0,0.98817,-0.4563,-0.90448,-0.86934,76.586,-0.74337,0.43169,0.0040396,0.54,0.1,0
0.1962,0.052589,0.4412,-0.90209,-0.40269,-0.83263,0.084676,0,0,-0.090297,0.55892,0,0.22016,0,0,1.0025,-0.062186,0,1.0044,-0.38873,-0.91606,-0.83263,80.634,-0.71247,0.49096,0.0054912,0.56,0.1,0
0.19371,0.055289,0.42101,-0.91558,-0.34606,-0.7995,0.062042,0,0,-0.1509,0.58947,0,0.16131,0,0,1.0137,-0.048889,0,1.0149,-0.33938,-0.92226,-0.7995,83.854,-0.68705,0.53223,0.0063762,0.58,0.1,0
0.19016,0.056998,0.40065,-0.9216,-0.30625,-0.769,0.040784,0,0,-0.19838,0.60158,0,0.10604,0,0,1.0209,-0.038092,0,1.0216,-0.30356,-0.92429,-0.769,86.225,-0.66562,0.55949,0.0067135,0.6,0.1,0
0.18578,0.057771,0.38017,-0.92274,-0.27725,-0.74017,0.023582,0,0,-0.23734,0.6018,0,0.061313,0,0,1.0257,-0.029473,0,1.0261,-0.27639,-0.9236,-0.74017,87.91,-0.64672,0.57776,0.0066439,0.62,0.1,0
0.18067,0.057743,0.35962,-0.92181,-0.25559,-0.71284,0.010583,0,0,-0.27166,0.59443,0,0.027516,0,0,1.0291,-0.022513,0,1.0293,-0.25542,-0.92198,-0.71284,89.09,-0.63008,0.59045,0.0062756,0.64,0.1,0
0.17491,0.057058,0.33901,-0.92024,-0.23901,-0.68679,0.00097852,0,0,-0.30348,0.5821,0,0.0025442,0,0,1.0316,-0.016735,0,1.0317,-0.23901,-0.92024,-0.68679,89.918,-0.61535,0.59961,0.0056836,0.66,0.1,0
0.16853,0.055841,0.31836,-0.91862,-0.22611,-0.66178,-0.0061793,0,0,-0.33389,0.56637,0,-0.016066,0,0,1.0335,-0.011745,0,1.0335,-0.22606,-0.91868,-0.66178,-89.489,-0.60217,0.60645,0.00492,0.68,0.1,0
0.16156,0.054198,0.29767,-0.91714,-0.21598,-0.63761,-0.011753,0,0,-0.36339,0.54812,0,-0.030558,0,0,1.0349,-0.0072097,0,1.0349,-0.21578,-0.91734,-0.63761,-89.04,-0.59025,0.61171,0.0040225,0.7,0.1,0
0.154,0.052208,0.27696,-0.91578,-0.20803,-0.61411,-0.016463,0,0,-0.39218,0.5279,0,-0.042804,0,0,1.0358,-0.0028378,0,1.0358,-0.20765,-0.91616,-0.61411,-88.668,-0.57931,0.61581,0.0030209,0.72,0.1,0
0.14587,0.049932,0.25624,-0.91441,-0.20189,-0.59113,-0.020891,0,0,-0.42026,0.50601,0,-0.054317,0,0,1.0363,0.0016473,0,1.0363,-0.20128,-0.91502,-0.59113,-88.322,-0.56914,0.619,0.0019397,0.74,0.1,0
0.13719,0.047418,0.23551,-0.91281,-0.19736,-0.56856,-0.025495,0,0,-0.44752,0.48256,0,-0.066287,0,0,1.0364,0.00653,0,1.0364,-0.19645,-0.91372,-0.56856,-87.962,-0.55958,0.62131,0.00080102,0.76,0.1,0
0.12797,0.0447,0.21479,-0.91065,-0.1944,-0.5463,-0.030604,0,0,-0.47365,0.45747,0,-0.079572,0,0,1.0358,0.012127,0,1.0359,-0.19309,-0.91195,-0.5463,-87.558,-0.55045,0.62258,-0.0003717,0.78,0.1,0
0.11824,0.041811,0.19408,-0.90738,-0.19312,-0.52423,-0.036371,0,0,-0.4981,0.43044,0,-0.094565,0,0,1.0344,0.018808,0,1.0345,-0.19128,-0.90923,-0.52423,-87.092,-0.54158,0.62231,-0.0015491,0.8,0.1,0
0.10804,0.03879,0.17341,-0.90217,-0.19387,-0.50222,-0.042631,0,0,-0.51993,0.40086,0,-0.11084,0,0,1.0316,0.027008,0,1.032,-0.19132,-0.90472,-0.50222,-86.568,-0.53275,0.61952,-0.0026886,0.82,0.1,0
0.097442,0.035702,0.15281,-0.89385,-0.19715,-0.48011,-0.048529,0,0,-0.53786,0.36786,0,-0.12618,0,0,1.0267,0.037189,0,1.0274,-0.19378,-0.89722,-0.48011,-86.035,-0.5237,0.61269,-0.0037246,0.84,0.1,0
0.086528,0.032667,0.13234,-0.88224,-0.20379,-0.45815,-0.052086,0,0,-0.55131,0.33067,0,-0.13542,0,0,1.0181,0.049616,0,1.0193,-0.19981,-0.88621,-0.45815,-85.635,-0.51472,0.60047,-0.0045891,0.86,0.1,0
0.075389,0.029896,0.11209,-0.86825,-0.2118,-0.4361,-0.050046,0,0,-0.5618,0.2916,0,-0.13012,0,0,1.0042,0.063284,0,1.0062,-0.208,-0.87205,-0.4361,-85.665,-0.50539,0.58439,-0.0052379,0.88,0.1,0
0.064057,0.027669,0.092176,-0.85457,-0.21472,-0.41296,-0.040759,0,0,-0.57409,0.25772,0,-0.10597,0,0,0.98373,0.075192,0,0.98667,-0.21213,-0.85716,-0.41296,-86.37,-0.49408,0.57171,-0.0057579,0.9,0.1,0
0.052426,0.026211,0.072738,-0.84303,-0.20277,-0.38648,-0.026245,0,0,-0.59352,0.23882,0,-0.068237,0,0,0.95786,0.08042,0,0.96134,-0.2017,-0.8441,-0.38648,-87.657,-0.47743,0.57282,-0.0063755,0.92,0.1,0
0.040316,0.025524,0.053861,-0.83452,-0.17387,-0.35638,-0.012986,0,0,-0.62158,0.23726,0,-0.033765,0,0,0.93004,0.074918,0,0.93315,-0.17361,-0.83477,-0.35638,-88.874,-0.45492,0.59135,-0.0073011,0.94,0.1,0
0.027562,0.025358,0.035537,-0.82975,-0.13828,-0.32595,-0.0049207,0,0,-0.65494,0.24396,0,-0.012794,0,0,0.90531,0.057605,0,0.90717,-0.13825,-0.82978,-0.32595,-89.592,-0.43133,0.6194,-0.0085327,0.96,0.1,0
0.014118,0.025396,0.017649,-0.82745,-0.10506,-0.2974,-0.001624,0,0,-0.68906,0.25004,0,-0.0042224,0,0,0.88842,0.031171,0,0.88891,-0.10506,-0.82745,-0.2974,-89.871,-0.40997,0.64799,-0.0099354,0.98,0.1,0
0,0.025427,0,-0.80488,-0.068023,-0.26187,0.0005899,0,0,-0.70591,0.252,0,0.0015337,0,0,0.88245,3.4694e-18,0,0.88236,-0.068022,-0.80488,-0.26187,89.954,-0.37826,0.66158,-0.010681,1,0.1,0
0,0.048561,1,-0.78931,-1.4244,-1.6641,0.0080799,0,0,1.1373,0.3116,0,0.021008,0,0,0.63986,-3.1537e-15,0,0.63908,-0.78921,-1.4245,-1.6641,0.72875,-1.2926,0.78311,0.017105,0,0.12,0
0.022745,0.048982,0.9872,-0.78114,-1.402,-1.6421,0.047022,0,0,1.1193,0.31221,0,0.12226,0,0,0.6427,-0.07772,0,0.64653,-0.7776,-1.4055,-1.6421,4.3068,-1.2751,0.77385,0.016514,0.02,0.12,0
0.044772,0.050341,0.97429,-0.80816,-1.3942,-1.635,0.10239,0,0,1.0749,0.31304,0,0.26621,0,0,0.65273,-0.16393,0,0.67186,-0.79079,-1.4116,-1.635,9.6304,-1.2791,0.75762,0.01596,0.04,0.12,0
0.065741,0.052997,0.96109,-0.8775,-1.4112,-1.6477,0.17117,0,0,1.0013,0.30741,0,0.44503,0,0,0.67392,-0.27164,0,0.72468,-0.82733,-1.4614,-1.6477,16.338,-1.3122,0.74492,0.016838,0.06,0.12,0
0.084823,0.057086,0.94734,-1.0032,-1.4789,-1.692,0.31737,0,0,0.89533,0.27703,0,0.82517,0,0,0.77378,-0.42947,0,0.87797,-0.84448,-1.6376,-1.692,26.578,-1.3914,0.82168,0.028073,0.08,0.12,0
0.10155,0.068789,0.93014,-0.87779,-1.0866,-1.1061,0.36959,0,0,0.33262,-0.18765,0,2.3435,0,0,0.63129,-0.40328,0,0.75895,-0.59776,-1.3666,-1.1061,38.209,-1.0235,0.68193,0.024033,0.1,0.12,0
0.10317,0.10413,0.89911,-0.75723,-0.42124,-0.85305,0.22514,0,0,0.22422,0.21001,0,1.6525,0,0,0.77812,-0.10593,0,0.78952,-0.27625,-0.90222,-0.85305,51.147,-0.67717,0.62136,0.029385,0.12,0.12,0
0.11052,0.11801,0.87412,-0.61118,-0.3748,-0.78141,0.085943,0,0,0.39835,0.20073,0,0.88202,0,0,0.68212,-0.070153,0,0.68939,-0.30063,-0.68534,-0.78141,52.916,-0.58913,0.46591,0.007375,0.14,0.12,0
0.1191,0.1261,0.85,-0.56619,-0.33881,-0.74372,0.049779,0,0,0.41543,0.20154,0,0.57107,0,0,0.66388,-0.047076,0,0.66765,-0.27898,-0.62602,-0.74372,52.312,-0.54958,0.44192,0.0055206,0.16,0.12,0
0.12714,0.12989,0.82632,-0.56385,-0.32776,-0.72655,0.02681,0,0,0.38071,0.20624,0,0.35063,0,0,0.65538,-0.031747,0,0.65723,-0.2772,-0.61442,-0.72655,51.221,-0.53939,0.42515,0.0057982,0.18,0.12,0
0.13433,0.13083,0.80281,-0.5687,-0.31861,-0.7122,0.012053,0,0,0.33579,0.21165,0,0.18761,0,0,0.65208,-0.019578,0,0.65281,-0.27407,-0.61324,-0.7122,49.352,-0.53317,0.41529,0.0066601,0.2,0.12,0
0.14057,0.12957,0.77937,-0.57593,-0.31118,-0.69912,0.00011797,0,0,0.28826,0.21608,0,0.048,0,0,0.6516,-0.0086934,0,0.65174,-0.271,-0.61611,-0.69912,-43.162,-0.52874,0.40855,0.0075522,0.22,0.12,0
0.14586,0.12644,0.7559,-0.58381,-0.30466,-0.68649,-0.011471,0,0,0.24026,0.21919,0,-0.0884,0,0,0.65335,0.0022252,0,0.65331,-0.26729,-0.62118,-0.68649,-46.385,-0.52499,0.40467,0.0083674,0.24,0.12,0
0.15018,0.12147,0.73233,-0.59401,-0.29964,-0.67495,-0.025064,0,0,0.18938,0.22195,0,-0.24091,0,0,0.65772,0.014485,0,0.65799,-0.26314,-0.63052,-0.67495,-50.218,-0.52287,0.40476,0.0091666,0.26,0.12,0
0.15343,0.11447,0.70854,-0.61116,-0.29646,-0.66592,-0.045012,0,0,0.12814,0.2266,0,-0.4381,0,0,0.66675,0.02992,0,0.66807,-0.25753,-0.6501,-0.66592,-54.051,-0.52452,0.41357,0.010276,0.28,0.12,0
0.15531,0.10465,0.68432,-0.66369,-0.31266,-0.67308,-0.07535,0,0,0.02198,0.23675,0,-0.7072,0,0,0.68439,0.052932,0,0.6882,-0.26709,-0.70926,-0.67308,-57.383,-0.54981,0.43692,0.012044,0.3,0.12,0
0.15431,0.091374,0.65927,-0.80071,-0.34066,-0.70867,-0.17888,0,0,-0.21538,0.25818,0,-1.3038,0,0,0.77295,0.088395,0,0.78028,-0.25624,-0.88513,-0.70867,-57.785,-0.61668,0.57038,0.020429,0.32,0.12,0
0.14669,0.064716,0.62867,-0.82603,-0.7623,-0.82576,-0.30245,0,0,-0.16972,-0.01997,0,-1.9171,0,0,0.62619,0.36411,0,0.73161,-0.48997,-1.0984,-0.82576,-47.493,-0.8047,0.53009,0.0050612,0.34,0.12,0
0.15175,0.057029,0.6115,-0.96141,-0.93616,-1.1808,-0.27972,0,0,0.28516,0.31799,0,-0.72727,0,0,0.79066,0.35123,0,0.85759,-0.66878,-1.2288,-1.1808,-46.292,-1.0261,0.5376,0.0077659,0.36,0.12,0
0.1581,0.052893,0.59704,-0.85388,-0.86577,-1.1129,-0.18009,0,0,0.33678,0.32131,0,-0.46824,0,0,0.72145,0.19284,0,0.7448,-0.67964,-1.04,-1.1129,-44.054,-0.9442,0.40183,0.0029659,0.38,0.12,0
0.16522,0.049333,0.58264,-0.79773,-0.83398,-1.0721,-0.12528,0,0,0.35674,0.30963,0,-0.32572,0,0,0.72665,0.087041,0,0.73088,-0.68927,-0.94243,-1.0721,-40.885,-0.90129,0.33728,0.0010335,0.4,0.12,0
0.17237,0.046654,0.56798,-0.77773,-0.82028,-1.0474,-0.078527,0,0,0.35055,0.29523,0,-0.20417,0,0,0.74621,0.0066875,0,0.74576,-0.71765,-0.88036,-1.0474,-37.419,-0.8818,0.28557,-2.7005e-05,0.42,0.12,0
0.17925,0.044893,0.55279,-0.77168,-0.81097,-1.0276,-0.03603,0,0,0.33267,0.2816,0,-0.093677,0,0,0.77873,-0.05793,0,0.78075,-0.75029,-0.83237,-1.0276,-30.7,-0.87008,0.24672,-0.0004934,0.44,0.12,0
0.18568,0.044335,0.53683,-0.77547,-0.80112,-1.0098,0.0095917,0,0,0.30463,0.2713,0,0.024938,0,0,0.82317,-0.10784,0,0.83044,-0.77228,-0.80431,-1.0098,18.401,-0.86213,0.22324,-0.00053197,0.46,0.12,0
0.19143,0.045482,0.51986,-0.79374,-0.77862,-0.99157,0.062497,0,0,0.25718,0.27684,0,0.16249,0,0,0.87601,-0.13689,0,0.8871,-0.72323,-0.84913,-0.99157,48.45,-0.85464,0.23254,-6.8759e-05,0.48,0.12,0
0.19596,0.048745,0.50179,-0.82306,-0.70791,-0.96108,0.11516,0,0,0.17942,0.32911,0,0.29942,0,0,0.92919,-0.14122,0,0.94025,-0.63674,-0.89424,-0.96108,58.281,-0.83069,0.29663,0.0011144,0.5,0.12,0
0.19861,0.053804,0.4827,-0.85463,-0.57962,-0.91297,0.14081,0,0,0.075843,0.43335,0,0.3661,0,0,0.97336,-0.12347,0,0.98129,-0.52031,-0.91394,-0.91297,67.16,-0.78241,0.39314,0.0031207,0.52,0.12,0
0.199,0.059333,0.46285,-0.88633,-0.4552,-0.86531,0.13064,0,0,-0.027324,0.53315,0,0.33966,0,0,1.0032,-0.097267,0,1.0079,-0.4187,-0.92282,-0.86531,74.392,-0.73561,0.47797,0.0053354,0.54,0.12,0
0.19751,0.064028,0.44257,-0.90871,-0.37049,-0.82633,0.098478,0,0,-0.10709,0.59259,0,0.25604,0,0,1.0197,-0.072772,0,1.0222,-0.35304,-0.92616,-0.82633,79.95,-0.70184,0.5303,0.0067535,0.56,0.12,0
0.19471,0.06732,0.42207,-0.91832,-0.32072,-0.79378,0.066163,0,0,-0.1619,0.61498,0,0.17202,0,0,1.0277,-0.054994,0,1.0291,-0.31348,-0.92555,-0.79378,83.757,-0.6776,0.55798,0.0072724,0.58,0.12,0
0.19104,0.069207,0.40146,-0.91757,-0.28707,-0.76285,0.040747,0,0,-0.20113,0.61852,0,0.10594,0,0,1.0316,-0.042014,0,1.0325,-0.28444,-0.92019,-0.76285,86.318,-0.65583,0.5735,0.0072856,0.6,0.12,0
0.18667,0.069924,0.3808,-0.91447,-0.26326,-0.73412,0.022566,0,0,-0.23445,0.61211,0,0.058673,0,0,1.0341,-0.03226,0,1.0346,-0.26248,-0.91525,-0.73412,88.018,-0.63728,0.58368,0.0069951,0.62,0.12,0
0.18166,0.069704,0.3601,-0.91167,-0.24547,-0.70724,0.0097821,0,0,-0.26575,0.6003,0,0.025434,0,0,1.0358,-0.024642,0,1.0361,-0.24533,-0.91181,-0.70724,89.159,-0.62146,0.59136,0.0064955,0.64,0.12,0
0.17604,0.068743,0.33937,-0.90994,-0.23162,-0.68183,0.00074238,0,0,-0.29653,0.58528,0,0.0019302,0,0,1.0373,-0.018431,0,1.0374,-0.23162,-0.90994,-0.68183,89.937,-0.6078,0.59785,0.0058346,0.66,0.12,0
0.1698,0.067196,0.31861,-0.90928,-0.2205,-0.65755,-0.0058596,0,0,-0.32726,0.56816,0,-0.015235,0,0,1.0385,-0.013111,0,1.0386,-0.22045,-0.90933,-0.65755,-89.513,-0.59578,0.60374,0.0050402,0.68,0.12,0
0.16295,0.065181,0.29783,-0.90949,-0.21139,-0.63409,-0.011004,0,0,-0.35801,0.54951,0,-0.028609,0,0,1.0395,-0.0082917,0,1.0396,-0.21122,-0.90966,-0.63409,-89.097,-0.58499,0.60933,0.0041314,0.7,0.12,0
0.15548,0.062788,0.27703,-0.91031,-0.20386,-0.61128,-0.015439,0,0,-0.38874,0.52964,0,-0.040141,0,0,1.0405,-0.0036477,0,1.0405,-0.20353,-0.91065,-0.61128,-88.749,-0.57515,0.61478,0.0031232,0.72,0.12,0
0.1474,0.060083,0.25621,-0.91155,-0.19765,-0.58897,-0.019759,0,0,-0.41935,0.50871,0,-0.051374,0,0,1.0413,0.0011235,0,1.0413,-0.19711,-0.91209,-0.58897,-88.416,-0.56605,0.62015,0.0020284,0.74,0.12,0
0.1387,0.057112,0.23538,-0.91299,-0.19265,-0.56707,-0.024458,0,0,-0.44969,0.48675,0,-0.063591,0,0,1.0419,0.0063391,0,1.0419,-0.19182,-0.91382,-0.56707,-88.058,-0.55757,0.62543,0.00085831,0.76,0.12,0
0.12941,0.05391,0.21453,-0.91437,-0.18888,-0.54551,-0.029968,0,0,-0.47952,0.46362,0,-0.077918,0,0,1.0423,0.01237,0,1.0424,-0.18765,-0.91561,-0.54551,-87.639,-0.54959,0.63046,-0.00037456,0.78,0.12,0
0.11952,0.050499,0.19368,-0.91524,-0.18658,-0.52423,-0.036674,0,0,-0.50831,0.43895,0,-0.095353,0,0,1.0424,0.019697,0,1.0426,-0.18474,-0.91708,-0.52423,-87.126,-0.54202,0.63479,-0.0016525,0.8,0.12,0
0.10908,0.046904,0.17284,-0.91464,-0.18623,-0.5031,-0.044837,0,0,-0.53501,0.41193,0,-0.11658,0,0,1.0418,0.028985,0,1.0422,-0.18348,-0.91739,-0.5031,-86.491,-0.53465,0.63735,-0.0029409,0.82,0.12,0
0.098124,0.04316,0.15201,-0.91075,-0.18884,-0.48189,-0.05436,0,0,-0.55752,0.38097,0,-0.14134,0,0,1.0397,0.041205,0,1.0405,-0.18477,-0.91482,-0.48189,-85.718,-0.52716,0.63588,-0.0041663,0.84,0.12,0
0.086776,0.03935,0.13125,-0.90002,-0.19588,-0.46002,-0.0635,0,0,-0.57201,0.34339,0,-0.1651,0,0,1.0339,0.057724,0,1.0355,-0.1902,-0.90571,-0.46002,-84.888,-0.51864,0.62586,-0.0051672,0.86,0.12,0
0.075244,0.035716,0.11065,-0.88434,-0.21266,-0.43975,-0.067655,0,0,-0.57796,0.29523,0,-0.1759,0,0,1.0206,0.080125,0,1.0237,-0.20591,-0.89108,-0.43975,-84.305,-0.51225,0.60326,-0.0058335,0.88,0.12,0
0.063658,0.032709,0.090427,-0.86631,-0.2298,-0.41926,-0.058563,0,0,-0.58117,0.2463,0,-0.15226,0,0,0.99557,0.10344,0,1.001,-0.22446,-0.87166,-0.41926,-84.787,-0.50512,0.5751,-0.0061246,0.9,0.12,0
0.051997,0.030825,0.070832,-0.84954,-0.22501,-0.3932,-0.03915,0,0,-0.59324,0.21864,0,-0.10179,0,0,0.95902,0.11833,0,0.96655,-0.22257,-0.85198,-0.3932,-86.427,-0.48925,0.56381,-0.0064424,0.92,0.12,0
0.039928,0.030147,0.052066,-0.83431,-0.18695,-0.35844,-0.019637,0,0,-0.61862,0.22294,0,-0.051057,0,0,0.91698,0.11301,0,0.92418,-0.18635,-0.8349,-0.35844,-88.264,-0.4599,0.58191,-0.0072162,0.94,0.12,0
0.027252,0.030171,0.034152,-0.82424,-0.14237,-0.32414,-0.0099279,0,0,-0.65014,0.2363,0,-0.025812,0,0,0.87914,0.086917,0,0.88349,-0.14222,-0.82439,-0.32414,-89.166,-0.43025,0.61184,-0.0083523,0.96,0.12,0
0.013923,0.030358,0.0169,-0.81952,-0.10895,-0.29544,-0.0049396,0,0,-0.6813,0.24244,0,-0.012843,0,0,0.85381,0.046154,0,0.8549,-0.10892,-0.81956,-0.29544,-89.602,-0.40797,0.63816,-0.0096036,0.98,0.12,0
0,0.03043,0,-0.79652,-0.073598,-0.26104,0.0013955,0,0,-0.69613,0.24367,0,0.0036283,0,0,0.84501,3.4694e-18,0,0.84479,-0.073595,-0.79653,-0.26104,89.889,-0.37705,0.64981,-0.01024,1,0.12,0
0,0.054143,1,-0.70511,-1.4686,-1.6521,0.0076302,0,0,1.2311,0.23855,0,0.019839,0,0,0.55959,-3.8094e-15,0,0.55867,-0.70503,-1.4687,-1.6521,0.57252,-1.2753,0.87,0.028818,0,0.14,0
0.024622,0.054539,0.98881,-0.69182,-1.4506,-1.6315,0.055228,0,0,1.2216,0.23522,0,0.14359,0,0,0.55776,-0.078755,0,0.56228,-0.68782,-1.4546,-1.6315,4.1413,-1.258,0.86886,0.029034,0.02,0.14,0
0.048865,0.055828,0.97769,-0.69106,-1.4487,-1.6196,0.11803,0,0,1.2071,0.22216,0,0.30689,0,0,0.55052,-0.16591,0,0.57362,-0.6731,-1.4667,-1.6196,8.6527,-1.2531,0.88009,0.031477,0.04,0.14,0
0.072908,0.058005,0.96679,-0.66924,-1.4635,-1.6066,0.20062,0,0,1.2186,0.18605,0,0.52163,0,0,0.53263,-0.27399,0,0.59666,-0.62144,-1.5113,-1.6066,13.401,-1.2465,0.94113,0.041336,0.06,0.14,0
0.097608,0.06155,0.95639,-0.47402,-1.4773,-1.5418,0.25394,0,0,1.3881,0.083843,0,0.66024,0,0,0.42024,-0.42965,0,0.59722,-0.41341,-1.5379,-1.5418,13.425,-1.1644,1.1264,0.073404,0.08,0.14,0
0.12843,0.059207,0.94998,-0.38549,-1.1029,-0.97428,0.21579,0,0,0.72425,-0.30095,0,1.639,0,0,0.2589,-0.40312,0,0.50242,-0.30181,-1.1866,-0.97428,27.482,-0.82088,0.80743,0.064367,0.1,0.14,0
0.12658,0.088317,0.91444,-0.29158,-0.34694,-0.29316,0.085396,0,0,0.018519,-0.62925,0,1.9983,0,0,0.18124,-0.071453,0,0.19517,-0.22949,-0.40903,-0.29316,36.02,-0.31056,0.15766,-9.6312e-05,0.12,0.14,0
0.12917,0.10326,0.88473,-0.26241,-0.33062,-0.27621,0.056783,0,0,0.16148,-0.63654,0,1.3287,0,0,0.1578,-0.053583,0,0.1666,-0.23028,-0.36275,-0.27621,29.506,-0.28974,0.11651,-4.0742e-05,0.14,0.14,0
0.13304,0.11148,0.85763,-0.24855,-0.32105,-0.26617,0.038719,0,0,0.20617,-0.64207,0,0.90602,0,0,0.14743,-0.039681,0,0.15261,-0.23176,-0.33784,-0.26617,23.443,-0.27859,0.093737,-2.3892e-05,0.16,0.14,0
0.13742,0.11584,0.83165,-0.23971,-0.31174,-0.25784,0.025444,0,0,0.2121,-0.63059,0,0.59538,0,0,0.1428,-0.028315,0,0.14552,-0.23163,-0.31982,-0.25784,17.621,-0.26976,0.078439,-1.5779e-05,0.18,0.14,0
0.14152,0.11733,0.80622,-0.23517,-0.30351,-0.25118,0.014511,0,0,0.18737,-0.61222,0,0.33955,0,0,0.14072,-0.018412,0,0.14186,-0.23222,-0.30646,-0.25118,11.504,-0.26329,0.066815,-1.1259e-05,0.2,0.14,0
0.14491,0.1166,0.78099,-0.23324,-0.29593,-0.24553,0.0048303,0,0,0.14374,-0.58968,0,0.11303,0,0,0.14024,-0.009138,0,0.14049,-0.23287,-0.2963,-0.24553,4.3805,-0.25823,0.05814,-8.5039e-06,0.22,0.14,0
0.14727,0.11396,0.75573,-0.23355,-0.28886,-0.24069,-0.0046108,0,0,0.083593,-0.56356,0,-0.10789,0,0,0.14112,0.0002147,0,0.14107,-0.23317,-0.28924,-0.24069,-4.7326,-0.25437,0.052717,-7.0103e-06,0.24,0.14,0
0.14826,0.10951,0.73019,-0.23647,-0.28223,-0.23674,-0.014761,0,0,0.0032101,-0.53222,0,-0.34542,0,0,0.14358,0.01036,0,0.14389,-0.23212,-0.28658,-0.23674,-16.413,-0.25181,0.052302,-7.1551e-06,0.26,0.14,0
0.1474,0.10305,0.70404,-0.2436,-0.27622,-0.23417,-0.026542,0,0,-0.11027,-0.49198,0,-0.62108,0,0,0.14853,0.022161,0,0.1501,-0.22876,-0.29107,-0.23417,-29.213,-0.25133,0.059784,-1.0671e-05,0.28,0.14,0
0.14385,0.094218,0.67672,-0.25637,-0.27023,-0.23317,-0.041676,0,0,-0.27146,-0.43355,0,-0.97522,0,0,0.15906,0.036772,0,0.16318,-0.22105,-0.30555,-0.23317,-40.282,-0.25326,0.079135,-2.3453e-05,0.3,0.14,0
0.13654,0.081464,0.64679,-0.28321,-0.269,-0.23753,-0.064029,0,0,-0.53443,-0.36827,0,-1.4983,0,0,0.18275,0.055852,0,0.1914,-0.21168,-0.34053,-0.23753,-48.164,-0.26325,0.11806,-7.1055e-05,0.32,0.14,0
0.12247,0.060105,0.61093,-0.34794,-0.69415,-0.65203,-0.17708,0,0,0.082613,-0.098558,0,-1.2963,0,0,0.26622,0.34099,0,0.45613,-0.24786,-0.79423,-0.65203,-36.045,-0.56471,0.5017,0.013888,0.34,0.14,0
0.13984,0.062125,0.60427,-0.45595,-0.9108,-1.0143,-0.222,0,0,0.72585,0.13453,0,-0.57721,0,0,0.44402,0.3256,0,0.54692,-0.36556,-1.0012,-1.0143,-22.154,-0.79368,0.64229,0.013589,0.36,0.14,0
0.1515,0.05817,0.59317,-0.63848,-0.89965,-1.0546,-0.18921,0,0,0.54097,0.20145,0,-0.49196,0,0,0.58062,0.17024,0,0.60312,-0.53917,-0.99897,-1.0546,-27.695,-0.86425,0.49,0.0057805,0.38,0.14,0
0.16148,0.05476,0.58104,-0.68409,-0.878,-1.0497,-0.12386,0,0,0.47525,0.22317,0,-0.32204,0,0,0.62676,0.06156,0,0.62877,-0.62375,-0.93834,-1.0497,-25.974,-0.87058,0.3826,0.0020766,0.4,0.14,0
0.17051,0.05196,0.5681,-0.70808,-0.86266,-1.0393,-0.07127,0,0,0.43061,0.22966,0,-0.1853,0,0,0.66774,-0.025545,0,0.66768,-0.68024,-0.89051,-1.0393,-21.34,-0.87002,0.31249,0.00045632,0.42,0.14,0
0.17871,0.050026,0.55433,-0.7285,-0.85213,-1.0285,-0.023787,0,0,0.39003,0.22931,0,-0.061846,0,0,0.71484,-0.10153,0,0.72182,-0.72408,-0.85655,-1.0285,-10.523,-0.86972,0.26439,-0.00021114,0.44,0.14,0
0.18611,0.049261,0.53951,-0.74952,-0.84817,-1.0188,0.025377,0,0,0.35008,0.22184,0,0.065981,0,0,0.7784,-0.1695,0,0.79704,-0.74338,-0.85432,-1.0188,13.613,-0.87217,0.24004,-0.00023378,0.46,0.14,0
0.19271,0.050426,0.5232,-0.7793,-0.84383,-1.0101,0.089946,0,0,0.30008,0.2162,0,0.23386,0,0,0.85863,-0.21815,0,0.88724,-0.71601,-0.90712,-1.0101,35.135,-0.87775,0.2585,0.00043598,0.48,0.14,0
0.19812,0.054868,0.50516,-0.83609,-0.78738,-0.9922,0.16335,0,0,0.20295,0.26627,0,0.4247,0,0,0.94139,-0.21102,0,0.96558,-0.64658,-0.97689,-0.9922,49.24,-0.87189,0.33822,0.0019734,0.5,0.14,0
0.20083,0.062506,0.48554,-0.8628,-0.55941,-0.9122,0.19657,0,0,0.064223,0.45864,0,0.51107,0,0,1.0041,-0.16753,0,1.018,-0.46281,-0.9594,-0.9122,63.829,-0.77814,0.47475,0.0053131,0.52,0.14,0
0.20069,0.07038,0.465,-0.89867,-0.39466,-0.853,0.15192,0,0,-0.059376,0.59584,0,0.395,0,0,1.0358,-0.10879,0,1.0413,-0.35241,-0.94093,-0.853,74.458,-0.71544,0.54985,0.0078072,0.54,0.14,0
0.19845,0.076293,0.44411,-0.92231,-0.33378,-0.82093,0.099786,0,0,-0.13179,0.6333,0,0.25944,0,0,1.0448,-0.076611,0,1.0475,-0.31732,-0.93876,-0.82093,80.634,-0.69234,0.57171,0.0082399,0.56,0.14,0
0.19542,0.079888,0.42321,-0.91361,-0.29432,-0.78559,0.060954,0,0,-0.16642,0.63865,0,0.15848,0,0,1.0445,-0.056498,0,1.046,-0.28838,-0.91955,-0.78559,84.432,-0.6645,0.57599,0.0080535,0.58,0.14,0
0.1918,0.081739,0.40233,-0.90391,-0.26875,-0.75413,0.036312,0,0,-0.19472,0.63099,0,0.094411,0,0,1.0436,-0.04289,0,1.0445,-0.26668,-0.90598,-0.75413,86.739,-0.64226,0.57852,0.0076825,0.6,0.14,0
0.18763,0.082256,0.38146,-0.89757,-0.25044,-0.72587,0.020209,0,0,-0.22321,0.61805,0,0.052544,0,0,1.043,-0.03302,0,1.0435,-0.24981,-0.8982,-0.72587,88.213,-0.62462,0.58169,0.0071979,0.62,0.14,0
0.18287,0.081755,0.36061,-0.89475,-0.23641,-0.69996,0.0094585,0,0,-0.25323,0.60261,0,0.024592,0,0,1.0429,-0.025432,0,1.0432,-0.23628,-0.89489,-0.69996,89.177,-0.61037,0.58599,0.0066111,0.64,0.14,0
0.1775,0.080469,0.33975,-0.89457,-0.22504,-0.67563,0.0019877,0,0,-0.28462,0.58577,0,0.0051679,0,0,1.0431,-0.019274,0,1.0433,-0.22504,-0.89458,-0.67563,89.83,-0.59842,0.5913,0.0059205,0.66,0.14,0
0.17148,0.078568,0.31888,-0.8962,-0.21547,-0.65238,-0.0034959,0,0,-0.31696,0.56799,0,-0.0090893,0,0,1.0436,-0.013997,0,1.0437,-0.21545,-0.89622,-0.65238,-89.706,-0.58802,0.59742,0.0051246,0.68,0.14,0
0.16482,0.076178,0.298,-0.89904,-0.2072,-0.62987,-0.0078682,0,0,-0.34991,0.54948,0,-0.020457,0,0,1.0443,-0.0092052,0,1.0444,-0.20711,-0.89913,-0.62987,-89.349,-0.5787,0.6042,0.0042246,0.7,0.14,0
0.15749,0.073393,0.27711,-0.90271,-0.19994,-0.60791,-0.011766,0,0,-0.38324,0.53035,0,-0.03059,0,0,1.0452,-0.0045805,0,1.0453,-0.19975,-0.9029,-0.60791,-89.041,-0.57019,0.61158,0.0032234,0.72,0.14,0
0.14949,0.070281,0.2562,-0.907,-0.19355,-0.58636,-0.015692,0,0,-0.41683,0.51065,0,-0.0408,0,0,1.0463,0.00017234,0,1.0463,-0.19321,-0.90734,-0.58636,-88.741,-0.5623,0.61951,0.0021242,0.74,0.14,0
0.14081,0.066888,0.23526,-0.91183,-0.18796,-0.56519,-0.020093,0,0,-0.45063,0.4904,0,-0.052242,0,0,1.0476,0.0053657,0,1.0476,-0.18741,-0.91239,-0.56519,-88.411,-0.555,0.62804,0.00092897,0.76,0.14,0
0.13146,0.063245,0.21429,-0.91718,-0.18323,-0.54441,-0.025417,0,0,-0.48459,0.46954,0,-0.066084,0,0,1.0492,0.011377,0,1.0492,-0.18235,-0.91806,-0.54441,-88.019,-0.54827,0.63717,-0.00036222,0.78,0.14,0
0.12143,0.059369,0.19329,-0.92299,-0.17956,-0.52405,-0.032185,0,0,-0.51862,0.44785,0,-0.083682,0,0,1.051,0.01872,0,1.0511,-0.17816,-0.92438,-0.52405,-87.526,-0.5422,0.64682,-0.0017504,0.8,0.14,0
0.11072,0.055268,0.17225,-0.92894,-0.17742,-0.50416,-0.041097,0,0,-0.55221,0.42476,0,-0.10685,0,0,1.0531,0.028179,0,1.0535,-0.17518,-0.93118,-0.50416,-86.879,-0.53684,0.65655,-0.0032316,0.82,0.14,0
0.099342,0.05094,0.15116,-0.93362,-0.17774,-0.48457,-0.052996,0,0,-0.58376,0.39888,0,-0.13779,0,0,1.0554,0.041072,0,1.0562,-0.17404,-0.93731,-0.48457,-86.009,-0.53198,0.66482,-0.0047687,0.84,0.14,0
0.087368,0.046402,0.13003,-0.9329,-0.18254,-0.46466,-0.068976,0,0,-0.60871,0.36677,0,-0.17934,0,0,1.0571,0.059865,0,1.0587,-0.17625,-0.93919,-0.46466,-84.791,-0.5267,0.66724,-0.0062179,0.86,0.14,0
0.074994,0.041705,0.10888,-0.91185,-0.19349,-0.44048,-0.085052,0,0,-0.61278,0.3211,0,-0.22113,0,0,1.0499,0.089436,0,1.0535,-0.18356,-0.92178,-0.44048,-83.339,-0.51528,0.64909,-0.0069927,0.88,0.14,0
0.062857,0.037521,0.088038,-0.89104,-0.24216,-0.428,-0.09024,0,0,-0.60196,0.24159,0,-0.23462,0,0,1.0219,0.14244,0,1.0319,-0.22984,-0.90336,-0.428,-82.228,-0.5204,0.59952,-0.0071288,0.9,0.14,0
0.050916,0.034957,0.068005,-0.8683,-0.26544,-0.40813,-0.061085,0,0,-0.59822,0.18549,0,-0.15882,0,0,0.96742,0.17831,0,0.98435,-0.25932,-0.87443,-0.40813,-84.272,-0.51396,0.55585,-0.0067353,0.92,0.14,0
0.038928,0.034441,0.049341,-0.83006,-0.19561,-0.35704,-0.037267,0,0,-0.61493,0.20986,0,-0.096893,0,0,0.89862,0.17894,0,0.91711,-0.19343,-0.83225,-0.35704,-86.65,-0.46091,0.57475,-0.0071528,0.94,0.14,0
0.026319,0.03481,0.03206,-0.813,-0.15017,-0.32101,-0.025194,0,0,-0.63959,0.2221,0,-0.065505,0,0,0.83846,0.12862,0,0.84825,-0.14921,-0.81396,-0.32101,-87.826,-0.42806,0.59766,-0.007987,0.96,0.14,0
0.013345,0.035093,0.015803,-0.7973,-0.12059,-0.29117,-0.01467,0,0,-0.65797,0.22175,0,-0.038142,0,0,0.80151,0.064917,0,0.80375,-0.12028,-0.79762,-0.29117,-88.759,-0.40302,0.61012,-0.0086527,0.98,0.14,0
0,0.035173,0,-0.77116,-0.088498,-0.2579,0.0015381,0,0,-0.66724,0.22022,0,0.003999,0,0,0.79015,2.7756e-17,0,0.78969,-0.088495,-0.77116,-0.2579,89.871,-0.37252,0.6157,-0.0089983,1,0.14,0
0,0.058103,1,-0.60504,-1.5148,-1.636,0.0055224,0,0,1.3402,0.15749,0,0.014358,0,0,0.48235,-3.0184e-16,0,0.48145,-0.605,-1.5148,-1.636,0.34778,-1.2519,0.97604,0.045287,0,0.16,0
0.026804,0.058391,0.99035,-0.58585,-1.5005,-1.6163,0.051243,0,0,1.3395,0.15047,0,0.13323,0,0,0.4768,-0.072397,0,0.48131,-0.58299,-1.5034,-1.6163,3.1966,-1.2342,0.98171,0.046433,0.02,0.16,0
0.053581,0.059227,0.98093,-0.56,-1.5035,-1.6,0.1052,0,0,1.352,0.12542,0,0.27352,0,0,0.45749,-0.15009,0,0.48044,-0.54841,-1.5151,-1.6,6.2856,-1.2212,1.0118,0.051938,0.04,0.16,0
0.080883,0.060439,0.97205,-0.48959,-1.5207,-1.5752,0.15007,0,0,1.4112,0.070732,0,0.39018,0,0,0.41018,-0.23874,0,0.47371,-0.46819,-1.5421,-1.5752,8.1144,-1.1952,1.0908,0.066459,0.06,0.16,0
0.11003,0.06044,0.96452,-0.43702,-1.6164,-1.5805,0.15727,0,0,1.4866,-0.046622,0,0.4089,0,0,0.32216,-0.34251,0,0.47277,-0.41641,-1.637,-1.5805,7.4664,-1.2113,1.1934,0.086631,0.08,0.16,0
0.14035,0.056751,0.95917,-0.33666,-0.94338,-0.91688,0.095289,0,0,0.72544,-0.062005,0,0.96385,0,0,0.22922,-0.21388,0,0.33308,-0.29613,-0.98391,-0.91688,25.361,-0.73231,0.66423,0.04501,0.1,0.16,0
0.13905,0.078957,0.92484,-0.28089,-0.314,-0.28123,0.060127,0,0,0.0039809,-0.3835,0,1.407,0,0,0.18266,-0.047961,0,0.18909,-0.23508,-0.35981,-0.28123,37.301,-0.29204,0.10923,-2.8939e-05,0.12,0.16,0
0.14051,0.09255,0.89341,-0.26448,-0.31267,-0.27241,0.042895,0,0,0.092813,-0.47104,0,1.0037,0,0,0.1682,-0.042162,0,0.17348,-0.23938,-0.33778,-0.27241,30.337,-0.28319,0.086736,-1.7869e-05,0.14,0.16,0
0.14276,0.10042,0.86429,-0.25482,-0.30729,-0.26467,0.030317,0,0,0.11516,-0.49871,0,0.70941,0,0,0.15804,-0.033625,0,0.16158,-0.24097,-0.32115,-0.26467,24.565,-0.27559,0.071349,-1.1952e-05,0.16,0.16,0
0.14511,0.10466,0.83651,-0.2485,-0.3013,-0.25789,0.020442,0,0,0.10979,-0.50795,0,0.47835,0,0,0.15235,-0.0252,0,0.15439,-0.24151,-0.30829,-0.25789,18.876,-0.26923,0.060282,-8.5151e-06,0.18,0.16,0
0.14715,0.10634,0.80944,-0.24455,-0.29465,-0.2517,0.012018,0,0,0.083611,-0.50255,0,0.28122,0,0,0.14959,-0.017182,0,0.15054,-0.24182,-0.29739,-0.2517,12.815,-0.26364,0.051345,-6.0935e-06,0.2,0.16,0
0.14846,0.10598,0.78266,-0.24302,-0.28773,-0.24619,0.0043473,0,0,0.037077,-0.48608,0,0.10173,0,0,0.14895,-0.0093861,0,0.14921,-0.2426,-0.28815,-0.24619,5.5019,-0.25898,0.043868,-4.2382e-06,0.22,0.16,0
0.14863,0.10389,0.75582,-0.2438,-0.28052,-0.24128,-0.003053,0,0,-0.029515,-0.45917,0,-0.071439,0,0,0.15017,-0.0015049,0,0.15014,-0.24355,-0.28077,-0.24128,-4.7201,-0.2552,0.038413,-2.8768e-06,0.24,0.16,0
0.14728,0.10018,0.7286,-0.24714,-0.27295,-0.23698,-0.010614,0,0,-0.11889,-0.42078,0,-0.24836,0,0,0.15349,0.0067766,0,0.15361,-0.24334,-0.27675,-0.23698,-19.722,-0.25236,0.037002,-2.3453e-06,0.26,0.16,0
0.14388,0.094789,0.70057,-0.25328,-0.26465,-0.23322,-0.018798,0,0,-0.23473,-0.36773,0,-0.43987,0,0,0.15976,0.015675,0,0.16053,-0.23933,-0.2786,-0.23322,-36.588,-0.25039,0.04266,-3.7132e-06,0.28,0.16,0
0.13789,0.087307,0.67108,-0.26303,-0.25562,-0.23016,-0.028299,0,0,-0.38459,-0.29791,0,-0.6622,0,0,0.17057,0.024968,0,0.17247,-0.23079,-0.28787,-0.23016,-48.729,-0.24961,0.057397,-9.7076e-06,0.3,0.16,0
0.1285,0.076644,0.63916,-0.27826,-0.2437,-0.22761,-0.040458,0,0,-0.59266,-0.18829,0,-0.94671,0,0,0.18602,0.032015,0,0.18901,-0.21699,-0.30497,-0.22761,-56.564,-0.24985,0.083187,-2.7948e-05,0.32,0.16,0
0.11418,0.060774,0.60412,-0.31707,-0.57161,-0.60223,-0.06527,0,0,0.052579,0.071629,0,-0.65558,0,0,0.23847,0.1427,0,0.29167,-0.26548,-0.6232,-0.60223,-35.495,-0.49697,0.36322,0.006088,0.34,0.16,0
0.1306,0.06241,0.59847,-0.42066,-1.0126,-1.0284,-0.12031,0,0,0.79012,0.020629,0,-0.31282,0,0,0.34712,0.21527,0,0.41343,-0.39714,-1.0361,-1.0284,-11.061,-0.82056,0.63517,0.013154,0.36,0.16,0
0.14578,0.060951,0.59023,-0.48095,-0.94669,-1.0185,-0.12002,0,0,0.69885,0.093385,0,-0.31206,0,0,0.45741,0.11059,0,0.47026,-0.45184,-0.9758,-1.0185,-13.634,-0.81539,0.54658,0.0082139,0.38,0.16,0
0.15855,0.058259,0.58018,-0.56873,-0.92555,-1.0285,-0.084378,0,0,0.59765,0.13378,0,-0.21938,0,0,0.53087,0.017784,0,0.53054,-0.54979,-0.9445,-1.0285,-12.656,-0.84092,0.44271,0.0039214,0.4,0.16,0
0.16969,0.055841,0.569,-0.62794,-0.90938,-1.0302,-0.036573,0,0,0.52293,0.15705,0,-0.095089,0,0,0.58312,-0.067153,0,0.58639,-0.62327,-0.91406,-1.0302,-7.2842,-0.85584,0.36307,0.0016369,0.42,0.16,0
0.17947,0.054066,0.55685,-0.68118,-0.90137,-1.0316,0.011781,0,0,0.45557,0.16932,0,0.030631,0,0,0.63477,-0.15082,0,0.65196,-0.68056,-0.902,-1.0316,3.0539,-0.87139,0.30748,0.00064897,0.44,0.16,0
0.18791,0.053209,0.54361,-0.7308,-0.90013,-1.0329,0.064926,0,0,0.39271,0.17259,0,0.16881,0,0,0.70656,-0.24018,0,0.74604,-0.70877,-0.92215,-1.0329,18.742,-0.88794,0.28534,0.00061612,0.46,0.16,0
0.19518,0.05413,0.52859,-0.79888,-0.93268,-1.0481,0.14055,0,0,0.32393,0.14999,0,0.36543,0,0,0.83449,-0.34263,0,0.90424,-0.71012,-1.0214,-1.0481,32.273,-0.92654,0.32545,0.0017305,0.48,0.16,0
0.20087,0.059396,0.51023,-0.89226,-0.9171,-1.053,0.2615,0,0,0.209,0.17672,0,0.6799,0,0,0.97981,-0.39589,0,1.0618,-0.64288,-1.1665,-1.053,43.641,-0.95413,0.4771,0.0045323,0.5,0.16,0
0.20354,0.07215,0.4894,-0.86608,-0.39838,-0.86873,0.2258,0,0,0.0034526,0.61146,0,0.58708,0,0,1.0756,-0.16235,0,1.085,-0.30716,-0.9573,-0.86873,68.002,-0.71106,0.6107,0.010873,0.52,0.16,0
0.20101,0.083166,0.4672,-0.96059,-0.35364,-0.86147,0.14215,0,0,-0.12885,0.66018,0,0.36958,0,0,1.0941,-0.10025,0,1.0985,-0.322,-0.99223,-0.86147,77.451,-0.72524,0.61536,0.01017,0.54,0.16,0
0.19839,0.08936,0.44563,-0.91402,-0.30087,-0.8101,0.079525,0,0,-0.1351,0.662,0,0.20677,0,0,1.0719,-0.070042,0,1.0742,-0.29072,-0.92417,-0.8101,82.729,-0.675,0.58481,0.0089694,0.56,0.16,0
0.19561,0.092866,0.42433,-0.88597,-0.27224,-0.77179,0.04928,0,0,-0.14844,0.64942,0,0.12813,0,0,1.0614,-0.052285,0,1.0627,-0.2683,-0.8899,-0.77179,85.438,-0.64333,0.57176,0.008236,0.58,0.16,0
0.19245,0.094446,0.40318,-0.8729,-0.25359,-0.74112,0.031191,0,0,-0.17131,0.63379,0,0.081097,0,0,1.0551,-0.040376,0,1.0559,-0.25202,-0.87447,-0.74112,87.124,-0.62254,0.56764,0.0076749,0.6,0.16,0
0.18875,0.094646,0.38212,-0.86895,-0.23995,-0.71479,0.019795,0,0,-0.2004,0.61729,0,0.051466,0,0,1.0515,-0.03167,0,1.052,-0.23933,-0.86957,-0.71479,88.199,-0.6079,0.56887,0.007148,0.62,0.16,0
0.18443,0.093809,0.36112,-0.87009,-0.22895,-0.69083,0.012023,0,0,-0.23304,0.60045,0,0.031259,0,0,1.0496,-0.024879,0,1.0499,-0.22872,-0.87031,-0.69083,88.926,-0.59662,0.57332,0.0065771,0.64,0.16,0
0.17943,0.092174,0.34014,-0.87407,-0.2195,-0.66821,0.0063947,0,0,-0.26761,0.58332,0,0.016626,0,0,1.0487,-0.019282,0,1.0489,-0.21944,-0.87413,-0.66821,89.44,-0.58726,0.57983,0.0059224,0.66,0.16,0
0.17373,0.089915,0.31917,-0.87963,-0.21109,-0.64638,0.0020286,0,0,-0.30322,0.56588,0,0.0052742,0,0,1.0485,-0.014418,0,1.0486,-0.21108,-0.87964,-0.64638,89.826,-0.57903,0.58773,0.0051651,0.68,0.16,0
0.1673,0.08716,0.2982,-0.8861,-0.20342,-0.62505,-0.0016485,0,0,-0.33936,0.54812,0,-0.0042862,0,0,1.049,-0.0099594,0,1.049,-0.20342,-0.8861,-0.62505,-89.862,-0.57152,0.59664,0.0042977,0.7,0.16,0
0.16015,0.084002,0.27721,-0.89313,-0.19634,-0.60405,-0.0050545,0,0,-0.3758,0.53002,0,-0.013142,0,0,1.0498,-0.0056363,0,1.0499,-0.19631,-0.89317,-0.60405,-89.584,-0.56451,0.6064,0.0033179,0.72,0.16,0
0.15227,0.080509,0.2562,-0.90065,-0.18976,-0.58333,-0.0085293,0,0,-0.41252,0.51163,0,-0.022176,0,0,1.0512,-0.0011999,0,1.0512,-0.18966,-0.90075,-0.58333,-89.313,-0.55791,0.61701,0.0022247,0.74,0.16,0
0.14365,0.076728,0.23516,-0.90877,-0.18364,-0.56288,-0.012389,0,0,-0.44965,0.49302,0,-0.03221,0,0,1.0531,0.0036149,0,1.0531,-0.18343,-0.90898,-0.56288,-89.022,-0.55176,0.62857,0.0010145,0.76,0.16,0
0.13428,0.072691,0.21408,-0.91777,-0.17802,-0.54282,-0.016975,0,0,-0.48744,0.47424,0,-0.044136,0,0,1.0557,0.0091282,0,1.0557,-0.17763,-0.91816,-0.54282,-88.686,-0.5462,0.64134,-0.00032186,0.78,0.16,0
0.12415,0.068413,0.19294,-0.92817,-0.17304,-0.5233,-0.022742,0,0,-0.52633,0.45533,0,-0.059128,0,0,1.0592,0.015779,0,1.0593,-0.17236,-0.92885,-0.5233,-88.276,-0.5415,0.65571,-0.0018047,0.8,0.16,0
0.11323,0.063894,0.17171,-0.94073,-0.16906,-0.50465,-0.030381,0,0,-0.5669,0.43626,0,-0.078992,0,0,1.0641,0.024248,0,1.0644,-0.16787,-0.94192,-0.50465,-87.749,-0.53815,0.67223,-0.0034726,0.82,0.16,0
0.10148,0.059116,0.15037,-0.95653,-0.16694,-0.48741,-0.041245,0,0,-0.60985,0.41661,0,-0.10724,0,0,1.0714,0.035729,0,1.072,-0.16479,-0.95868,-0.48741,-87.018,-0.53696,0.69153,-0.0053921,0.84,0.16,0
0.088838,0.05402,0.12885,-0.97591,-0.16823,-0.4721,-0.057499,0,0,-0.65496,0.39503,0,-0.1495,0,0,1.0823,0.052645,0,1.0836,-0.16416,-0.97999,-0.4721,-85.948,-0.53875,0.71357,-0.0076382,0.86,0.16,0
0.075279,0.04856,0.10708,-0.99277,-0.17642,-0.45784,-0.086505,0,0,-0.69542,0.36584,0,-0.22491,0,0,1.1031,0.080981,0,1.106,-0.16736,-1.0018,-0.45784,-84.017,-0.54234,0.73372,-0.010096,0.88,0.16,0
0.061021,0.042372,0.084729,-0.9237,-0.1706,-0.41302,-0.11579,0,0,-0.66388,0.31514,0,-0.30106,0,0,1.0844,0.13827,0,1.0908,-0.1532,-0.9411,-0.41302,-81.453,-0.50244,0.6954,-0.0094983,0.9,0.16,0
0.048724,0.038245,0.063699,-0.91319,-0.32732,-0.43585,-0.13873,0,0,-0.62053,0.14109,0,-0.3607,0,0,0.99552,0.35062,0,1.0602,-0.29613,-0.94438,-0.43585,-77.329,-0.55879,0.59091,-0.0086326,0.92,0.16,0
0.0362,0.038541,0.044908,-0.83874,-0.2212,-0.36289,-0.084022,0,0,-0.61861,0.1842,0,-0.21846,0,0,0.8673,0.28142,0,0.91277,-0.20997,-0.84997,-0.36289,-82.389,-0.47428,0.57889,-0.0076688,0.94,0.16,0
0.02398,0.039054,0.029007,-0.77973,-0.17359,-0.315,-0.059958,0,0,-0.60415,0.18384,0,-0.15589,0,0,0.76512,0.17428,0,0.78391,-0.16771,-0.78561,-0.315,-84.405,-0.42278,0.559,-0.0069154,0.96,0.16,0
0.012034,0.039228,0.014304,-0.74201,-0.1465,-0.28086,-0.032412,0,0,-0.5995,0.17466,0,-0.084271,0,0,0.72518,0.083362,0,0.72913,-0.14475,-0.74377,-0.28086,-86.894,-0.38979,0.5439,-0.0065516,0.98,0.16,0
0,0.039239,0,-0.7112,-0.1167,-0.24837,0.00021581,0,0,-0.60168,0.17117,0,0.00056111,0,0,0.71518,2.4286e-17,0,0.71436,-0.1167,-0.7112,-0.24837,89.979,-0.35875,0.54082,-0.0065295,1,0.16,0
0,0.060442,1,-0.51167,-1.5564,-1.6204,0.0022297,0,0,1.4414,0.083221,0,0.0057973,0,0,0.4148,2.2898e-15,0,0.41405,-0.51166,-1.5564,-1.6204,0.12228,-1.2295,1.0782,0.063607,0,0.18,0
0.028828,0.060558,0.9917,-0.49198,-1.5447,-1.6027,0.038449,0,0,1.4439,0.075416,0,0.099968,0,0,0.40767,-0.060998,0,0.41148,-0.49058,-1.5461,-1.6027,2.089,-1.2131,1.0849,0.064987,0.02,0.18,0
0.057758,0.060845,0.98369,-0.46213,-1.5477,-1.5867,0.072548,0,0,1.4619,0.050582,0,0.18863,0,0,0.38418,-0.12342,0,0.40297,-0.4573,-1.5526,-1.5867,3.8063,-1.1988,1.1127,0.070532,0.04,0.18,0
0.087303,0.060835,0.97634,-0.42174,-1.569,-1.5736,0.091696,0,0,1.4973,0.0059634,0,0.23841,0,0,0.3402,-0.18649,0,0.38823,-0.41446,-1.5762,-1.5736,4.5412,-1.1881,1.1604,0.080257,0.06,0.18,0
0.11765,0.059686,0.97008,-0.38275,-1.5802,-1.559,0.081512,0,0,1.5291,-0.027637,0,0.21193,0,0,0.27399,-0.23789,0,0.36463,-0.37722,-1.5858,-1.559,3.8762,-1.174,1.1954,0.087579,0.08,0.18,0
0.14847,0.056727,0.96538,-0.30532,-0.88999,-0.89491,0.060006,0,0,0.73516,0.011515,0,0.66499,0,0,0.21124,-0.14596,0,0.27174,-0.27689,-0.91841,-0.89491,25.246,-0.69674,0.63612,0.042968,0.1,0.18,0
0.14706,0.072977,0.9317,-0.27683,-0.29654,-0.27553,0.044066,0,0,-0.015151,-0.24579,0,1.0312,0,0,0.18186,-0.032515,0,0.18482,-0.24153,-0.33184,-0.27553,38.696,-0.28297,0.079002,-1.0439e-05,0.12,0.18,0
0.14786,0.084416,0.89991,-0.26465,-0.30018,-0.26944,0.033174,0,0,0.056077,-0.35971,0,0.77626,0,0,0.17214,-0.031384,0,0.17503,-0.24478,-0.32005,-0.26944,30.913,-0.27809,0.06646,-8.3821e-06,0.14,0.18,0
0.1493,0.091534,0.86973,-0.2572,-0.29774,-0.26312,0.023779,0,0,0.069278,-0.40507,0,0.55644,0,0,0.1644,-0.027094,0,0.16663,-0.24622,-0.30871,-0.26312,24.777,-0.27268,0.055991,-6.3246e-06,0.16,0.18,0
0.15063,0.09552,0.84072,-0.25255,-0.29322,-0.25714,0.016277,0,0,0.05379,-0.42208,0,0.38089,0,0,0.15924,-0.02158,0,0.16069,-0.24683,-0.29893,-0.25714,19.337,-0.26764,0.047784,-4.7362e-06,0.18,0.18,0
0.15145,0.097224,0.81241,-0.2498,-0.28764,-0.2515,0.009922,0,0,0.01988,-0.42285,0,0.23218,0,0,0.15653,-0.015707,0,0.1573,-0.24736,-0.29008,-0.2515,13.837,-0.26298,0.040814,-3.3708e-06,0.2,0.18,0
0.15143,0.097154,0.78437,-0.24883,-0.28123,-0.24617,0.00422,0,0,-0.031082,-0.41023,0,0.098748,0,0,0.15592,-0.0097173,0,0.1562,-0.24829,-0.28177,-0.24617,7.2991,-0.25874,0.034593,-2.0994e-06,0.22,0.18,0
0.15021,0.095595,0.75627,-0.24973,-0.2741,-0.24118,-0.001145,0,0,-0.10001,-0.38517,0,-0.026793,0,0,0.15728,-0.0036415,0,0.15731,-0.24967,-0.27415,-0.24118,-2.6838,-0.255,0.029654,-9.7808e-07,0.24,0.18,0
0.14743,0.092675,0.72775,-0.25256,-0.26615,-0.23647,-0.0064255,0,0,-0.18819,-0.34722,0,-0.15036,0,0,0.16076,0.0024926,0,0.16077,-0.25,-0.26871,-0.23647,-21.697,-0.25173,0.028035,-3.0999e-07,0.26,0.18,0
0.14268,0.088343,0.6984,-0.2575,-0.25724,-0.23202,-0.011913,0,0,-0.29809,-0.29505,0,-0.27877,0,0,0.16672,0.0084567,0,0.16695,-0.24546,-0.26928,-0.23202,-45.312,-0.24892,0.032686,-8.2667e-07,0.28,0.18,0
0.1355,0.082302,0.66773,-0.2651,-0.24678,-0.22776,-0.018074,0,0,-0.43689,-0.2226,0,-0.42293,0,0,0.1754,0.01341,0,0.17598,-0.23568,-0.2762,-0.22776,-58.435,-0.24654,0.04501,-4.1983e-06,0.3,0.18,0
0.12521,0.073932,0.63526,-0.27687,-0.23252,-0.2234,-0.024674,0,0,-0.6256,-0.1067,0,-0.57737,0,0,0.18632,0.015401,0,0.18706,-0.22152,-0.28787,-0.2234,-65.974,-0.24427,0.065429,-1.4346e-05,0.32,0.18,0
0.11048,0.06297,0.60066,-0.2937,-0.53708,-0.58293,-0.032214,0,0,0.048739,0.1073,0,-0.36958,0,0,0.22115,0.064906,0,0.23663,-0.25179,-0.57899,-0.58293,-37.553,-0.47124,0.34537,0.0054163,0.34,0.18,0
0.12716,0.06295,0.59566,-0.37226,-0.97869,-1.0009,-0.042207,0,0,0.81729,0.028929,0,-0.10974,0,0,0.29775,0.091563,0,0.31495,-0.36933,-0.98161,-1.0009,-3.9623,-0.78396,0.62217,0.012329,0.36,0.18,0
0.14317,0.061906,0.58875,-0.42161,-0.98686,-1.0113,-0.045302,0,0,0.76659,0.031752,0,-0.11779,0,0,0.38314,0.036678,0,0.38587,-0.418,-0.99047,-1.0113,-4.5532,-0.80659,0.58316,0.010142,0.38,0.18,0
0.15782,0.060111,0.58033,-0.48203,-0.96802,-1.0153,-0.023844,0,0,0.69331,0.061524,0,-0.061993,0,0,0.44902,-0.034007,0,0.45008,-0.48086,-0.96919,-1.0153,-2.8021,-0.8218,0.51296,0.0067434,0.4,0.18,0
0.1709,0.058242,0.57079,-0.54543,-0.95635,-1.0213,0.014728,0,0,0.61866,0.084463,0,0.038294,0,0,0.49914,-0.11008,0,0.51051,-0.5449,-0.95688,-1.0213,2.0501,-0.84103,0.44769,0.0042882,0.42,0.18,0
0.18257,0.056798,0.56037,-0.60774,-0.95396,-1.0289,0.065518,0,0,0.54748,0.09739,0,0.17035,0,0,0.54181,-0.19458,0,0.57473,-0.59575,-0.96594,-1.0289,10.365,-0.86352,0.40534,0.0031442,0.44,0.18,0
0.1928,0.056165,0.54912,-0.6927,-0.97671,-1.0499,0.12731,0,0,0.46441,0.0952,0,0.331,0,0,0.58659,-0.29799,0,0.65632,-0.64399,-1.0254,-1.0499,20.938,-0.90645,0.39426,0.0031065,0.46,0.18,0
0.20114,0.056426,0.5369,-0.81772,-1.0473,-1.0964,0.24557,0,0,0.36227,0.063886,0,0.63847,0,0,0.70291,-0.44624,0,0.82673,-0.66143,-1.2035,-1.0964,32.476,-0.98712,0.49728,0.0053405,0.48,0.18,0
0.20729,0.061937,0.521,-0.73191,-0.81353,-0.75308,0.29404,0,0,-0.1225,-0.32047,0,1.8957,0,0,0.58688,-0.39854,0,0.72015,-0.47576,-1.0697,-0.75308,41.681,-0.76617,0.51622,-0.00018975,0.5,0.18,0
0.20054,0.086964,0.49204,-0.66163,-0.31088,-0.5651,0.1831,0,0,-0.22586,0.011523,0,1.3989,0,0,0.72206,-0.11074,0,0.73592,-0.20871,-0.7638,-0.5651,54.984,-0.51254,0.49527,0.0095739,0.52,0.18,0
0.19826,0.096787,0.46901,-0.5422,-0.27136,-0.50463,0.080241,0,0,-0.087917,0.0050759,0,0.84685,0,0,0.62674,-0.078489,0,0.63672,-0.21771,-0.59586,-0.50463,57.344,-0.4394,0.35283,0.0047928,0.54,0.18,0
0.19703,0.10277,0.44691,-0.50104,-0.2416,-0.47108,0.054065,0,0,-0.070118,0.0023741,0,0.62919,0,0,0.60708,-0.05823,0,0.61341,-0.19891,-0.54373,-0.47108,57.358,-0.40457,0.32639,0.0041959,0.56,0.18,0
0.19545,0.10587,0.4253,-0.49431,-0.23172,-0.45409,0.037536,0,0,-0.094119,0.0019721,0,0.47673,0,0,0.59675,-0.045584,0,0.60093,-0.19692,-0.52911,-0.45409,57.354,-0.39337,0.31276,0.0038561,0.58,0.18,0
0.19326,0.10709,0.40394,-0.49468,-0.22345,-0.43985,0.027377,0,0,-0.1283,0.0029708,0,0.36961,0,0,0.59124,-0.036456,0,0.59405,-0.19436,-0.52377,-0.43985,57.087,-0.38599,0.30706,0.0036678,0.6,0.18,0
0.19032,0.10695,0.38273,-0.49826,-0.21636,-0.42701,0.02006,0,0,-0.16672,0.0045183,0,0.2874,0,0,0.58807,-0.029412,0,0.58996,-0.19202,-0.5226,-0.42701,56.744,-0.38054,0.30506,0.0034779,0.62,0.18,0
0.18659,0.10577,0.3616,-0.50301,-0.20965,-0.41469,0.014498,0,0,-0.20667,0.0060696,0,0.22163,0,0,0.58626,-0.023684,0,0.58752,-0.18944,-0.52322,-0.41469,56.349,-0.37578,0.30545,0.0032489,0.64,0.18,0
0.18205,0.1038,0.34052,-0.50817,-0.20319,-0.40259,0.010021,0,0,-0.24707,0.0073483,0,0.1668,0,0,0.58531,-0.018812,0,0.58612,-0.18671,-0.52465,-0.40259,55.891,-0.37132,0.30747,0.0029622,0.66,0.18,0
0.17671,0.1012,0.31946,-0.51337,-0.1969,-0.39056,0.0062333,0,0,-0.28738,0.0082249,0,0.11923,0,0,0.58496,-0.014483,0,0.58545,-0.18388,-0.5264,-0.39056,55.303,-0.36694,0.31071,0.0026113,0.68,0.18,0
0.17056,0.098103,0.2984,-0.51845,-0.19073,-0.37853,0.0028512,0,0,-0.3274,0.0086775,0,0.076178,0,0,0.58506,-0.010457,0,0.58532,-0.18097,-0.52822,-0.37853,-35.612,-0.36257,0.31495,0.0021948,0.7,0.18,0
0.16361,0.094594,0.27733,-0.52339,-0.18468,-0.36649,-0.00034437,0,0,-0.36713,0.0087649,0,0.03539,0,0,0.58556,-0.0065313,0,0.58566,-0.17801,-0.53005,-0.36649,-37.48,-0.35819,0.32012,0.0017132,0.72,0.18,0
0.15588,0.090746,0.25624,-0.52827,-0.17871,-0.35445,-0.0035416,0,0,-0.40674,0.0086152,0,-0.0050972,0,0,0.58644,-0.0025131,0,0.58645,-0.17491,-0.53208,-0.35445,-43.195,-0.35381,0.32625,0.0011669,0.74,0.18,0
0.14734,0.086609,0.23511,-0.53329,-0.17284,-0.34246,-0.0069199,0,0,-0.44654,0.0084264,0,-0.047161,0,0,0.58775,0.0018011,0,0.58774,-0.17056,-0.53557,-0.34246,-60.81,-0.34953,0.33348,0.00055412,0.76,0.18,0
0.13801,0.082214,0.21393,-0.53871,-0.16707,-0.33058,-0.010674,0,0,-0.48702,0.0084811,0,-0.092783,0,0,0.58962,0.00665,0,0.58969,-0.16432,-0.54145,-0.33058,-69.609,-0.34545,0.34205,-0.00013147,0.78,0.18,0
0.12786,0.077582,0.19266,-0.545,-0.16143,-0.31896,-0.015049,0,0,-0.52892,0.0091811,0,-0.14433,0,0,0.59228,0.012345,0,0.59256,-0.15767,-0.54876,-0.31896,-71.888,-0.3418,0.35234,-0.00090442,0.8,0.18,0
0.11686,0.072718,0.17128,-0.55288,-0.15604,-0.30783,-0.020427,0,0,-0.57341,0.011108,0,-0.20509,0,0,0.59616,0.019339,0,0.59686,-0.15088,-0.55804,-0.30783,-72.614,-0.33892,0.36502,-0.0017948,0.82,0.18,0
0.10493,0.067605,0.14974,-0.56394,-0.15137,-0.29778,-0.027426,0,0,-0.62281,0.01516,0,-0.28004,0,0,0.60213,0.028385,0,0.60362,-0.14435,-0.57096,-0.29778,-72.757,-0.3377,0.38128,-0.0028737,0.84,0.18,0
0.091944,0.062204,0.12793,-0.58137,-0.14808,-0.28991,-0.037833,0,0,-0.68203,0.02272,0,-0.37988,0,0,0.61239,0.040866,0,0.61532,-0.13833,-0.59112,-0.28991,-72.519,-0.33978,0.40409,-0.0043071,0.86,0.18,0
0.077646,0.056339,0.10564,-0.62083,-0.15561,-0.29162,-0.053387,0,0,-0.77034,0.035648,0,-0.51484,0,0,0.63083,0.060669,0,0.63652,-0.142,-0.63444,-0.29162,-72.288,-0.35602,0.44021,-0.0068439,0.88,0.18,0
0.06113,0.050127,0.082507,-0.70945,-0.1733,-0.31066,-0.099719,0,0,-0.93316,0.056192,0,-0.78146,0,0,0.71754,0.092062,0,0.72666,-0.14785,-0.7349,-0.31066,-70.718,-0.3978,0.52653,-0.013392,0.9,0.18,0
0.040319,0.040601,0.05398,-0.63225,-0.31492,-0.31414,-0.17597,0,0,-0.87601,-0.081575,0,-1.1327,0,0,0.5819,0.35543,0,0.68979,-0.23559,-0.71158,-0.31414,-63.462,-0.42044,0.44199,-0.0095073,0.92,0.18,0
0.029381,0.041809,0.038085,-0.74454,-0.26913,-0.34218,-0.15808,0,0,-0.52306,0.094972,0,-0.411,0,0,0.72227,0.35786,0,0.79904,-0.22137,-0.7923,-0.34218,-73.188,-0.45195,0.52114,-0.0059729,0.94,0.18,0
0.019397,0.042164,0.025089,-0.6662,-0.21499,-0.28945,-0.10043,0,0,-0.48978,0.09679,0,-0.26112,0,0,0.6404,0.20449,0,0.67016,-0.19365,-0.68754,-0.28945,-78.002,-0.39021,0.45365,-0.0040833,0.96,0.18,0
0.0097894,0.04208,0.012468,-0.62935,-0.18354,-0.25633,-0.050119,0,0,-0.48492,0.094634,0,-0.13031,0,0,0.62723,0.094589,0,0.63296,-0.17797,-0.63491,-0.25633,-83.664,-0.35641,0.42323,-0.0034482,0.98,0.18,0
0,0.04202,0,-0.60505,-0.15674,-0.22854,-0.0011446,0,0,-0.48947,0.093339,0,-0.002976,0,0,0.62342,0,0,0.62223,-0.15674,-0.60505,-0.22854,-89.854,-0.33011,0.41708,-0.0033571,1,0.18,0
0,0.061432,1,-0.43891,-1.5883,-1.6082,-0.00048196,0,0,1.52,0.025847,0,-0.0012531,0,0,0.36036,8.1532e-16,0,0.35982,-0.43891,-1.5883,-1.6082,-0.024026,-1.2118,1.1594,0.07997,0,0.2,0
0.0304,0.061407,0.99279,-0.4224,-1.5769,-1.5926,0.023702,0,0,1.5212,0.020358,0,0.061626,0,0,0.35337,-0.047724,0,0.35612,-0.42192,-1.5774,-1.5926,1.1756,-1.1973,1.1632,0.080779,0.02,0.2,0
0.06085,0.061251,0.98586,-0.40316,-1.5761,-1.5796,0.042237,0,0,1.5294,0.0045703,0,0.10982,0,0,0.33199,-0.094356,0,0.34495,-0.40164,-1.5777,-1.5796,2.0596,-1.1863,1.177,0.083747,0.04,0.2,0
0.091578,0.060677,0.97951,-0.37762,-1.5754,-1.5654,0.049026,0,0,1.5441,-0.012978,0,0.12747,0,0,0.29571,-0.13656,0,0.32611,-0.37562,-1.5774,-1.5654,2.3399,-1.1728,1.1958,0.087801,0.06,0.2,0
0.12262,0.059334,0.97404,-0.35357,-1.5575,-1.5474,0.044577,0,0,1.5519,-0.013168,0,0.1159,0,0,0.24592,-0.16838,0,0.29926,-0.35192,-1.5591,-1.5474,2.1176,-1.1528,1.2014,0.089024,0.08,0.2,0
0.15366,0.057212,0.96968,-0.29801,-0.88189,-0.89268,0.038091,0,0,0.74976,0.025252,0,0.459,0,0,0.20105,-0.1015,0,0.23534,-0.27823,-0.90167,-0.89268,24.882,-0.69086,0.62332,0.042851,0.1,0.2,0
0.15261,0.069126,0.93654,-0.27318,-0.28587,-0.27177,0.032368,0,0,-0.01639,-0.16494,0,0.75741,0,0,0.18047,-0.023075,0,0.18198,-0.24654,-0.31251,-0.27177,39.452,-0.27694,0.057654,-3.8732e-06,0.12,0.2,0
0.153,0.078162,0.90471,-0.26434,-0.29104,-0.26714,0.025558,0,0,0.032691,-0.27966,0,0.59806,0,0,0.17362,-0.023267,0,0.1752,-0.24886,-0.30653,-0.26714,31.212,-0.27418,0.051044,-3.9955e-06,0.14,0.2,0
0.15391,0.084215,0.87404,-0.25819,-0.29054,-0.26173,0.018838,0,0,0.041469,-0.33702,0,0.44081,0,0,0.16785,-0.021373,0,0.16922,-0.24954,-0.29919,-0.26173,24.675,-0.27015,0.044822,-3.4958e-06,0.16,0.2,0
0.15466,0.087779,0.84428,-0.2544,-0.28725,-0.2563,0.013156,0,0,0.022301,-0.36208,0,0.30785,0,0,0.16373,-0.018164,0,0.16474,-0.24978,-0.29187,-0.2563,19.346,-0.26598,0.039238,-2.8156e-06,0.18,0.2,0
0.15481,0.089424,0.8151,-0.25232,-0.28242,-0.25099,0.008429,0,0,-0.015573,-0.36774,0,0.19724,0,0,0.16146,-0.014295,0,0.16208,-0.25012,-0.28462,-0.25099,14.626,-0.26191,0.034073,-2.0273e-06,0.2,0.2,0
0.15404,0.089571,0.78616,-0.25171,-0.27649,-0.24581,0.0043482,0,0,-0.069066,-0.35891,0,0.10175,0,0,0.16101,-0.010133,0,0.16132,-0.25097,-0.27723,-0.24581,9.6717,-0.258,0.02918,-1.1427e-06,0.22,0.2,0
0.15204,0.088486,0.75713,-0.25256,-0.26958,-0.24077,0.00066722,0,0,-0.13801,-0.33705,0,0.015613,0,0,0.16238,-0.0058881,0,0.16248,-0.25254,-0.2696,-0.24077,2.2426,-0.2543,0.025111,-2.5338e-07,0.24,0.2,0
0.14851,0.086296,0.7277,-0.25494,-0.26166,-0.23584,-0.0028195,0,0,-0.22352,-0.30216,0,-0.065976,0,0,0.16559,-0.0017721,0,0.1656,-0.25392,-0.26269,-0.23584,-19.999,-0.25081,0.023715,3.8248e-07,0.26,0.2,0
0.1431,0.082987,0.69752,-0.25903,-0.25252,-0.23097,-0.0063245,0,0,-0.32835,-0.25215,0,-0.14799,0,0,0.17068,0.0018395,0,0.17071,-0.24866,-0.26289,-0.23097,-58.621,-0.24751,0.027699,2.0386e-07,0.28,0.2,0
0.13538,0.078403,0.66626,-0.26531,-0.24146,-0.22606,-0.0099214,0,0,-0.45923,-0.18019,0,-0.23216,0,0,0.17751,0.0042649,0,0.17761,-0.23787,-0.2689,-0.22606,-70.12,-0.24428,0.038322,-1.9914e-06,0.3,0.2,0
0.12473,0.072376,0.63362,-0.27399,-0.22657,-0.22057,-0.013035,0,0,-0.62503,-0.070191,0,-0.30503,0,0,0.18559,0.0046578,0,0.1857,-0.22322,-0.27734,-0.22057,-75.6,-0.24038,0.05549,-8.7076e-06,0.32,0.2,0
0.11038,0.065066,0.59945,-0.28853,-0.54394,-0.58276,-0.010439,0,0,0.063539,0.090854,0,-0.16508,0,0,0.21078,0.011845,0,0.2129,-0.25269,-0.57977,-0.58276,-40.126,-0.47174,0.34373,0.005793,0.34,0.2,0
0.12727,0.063567,0.59481,-0.34428,-0.97019,-0.98915,-0.00020639,0,0,0.83834,0.024648,0,-0.0005366,0,0,0.26697,0.0057973,0,0.26932,-0.34428,-0.97019,-0.98915,-0.018892,-0.76787,0.6356,0.013149,0.36,0.2,0
0.14391,0.062221,0.58877,-0.37736,-0.99892,-1.0016,0.011078,0,0,0.81158,0.0035516,0,0.028803,0,0,0.33184,-0.030832,0,0.33412,-0.37716,-0.99911,-1.0016,1.0208,-0.79264,0.62323,0.012432,0.38,0.2,0
0.15974,0.06072,0.58154,-0.41855,-1.0012,-1.0075,0.03015,0,0,0.76559,0.0081238,0,0.078391,0,0,0.38411,-0.082732,0,0.39285,-0.417,-1.0028,-1.0075,2.9543,-0.80908,0.58814,0.010447,0.4,0.2,0
0.17454,0.059219,0.5734,-0.46022,-0.99738,-1.0107,0.062918,0,0,0.7156,0.017293,0,0.16359,0,0,0.42255,-0.14631,0,0.44652,-0.45295,-1.0047,-1.0107,6.5922,-0.82276,0.55474,0.0087644,0.42,0.2,0
0.18836,0.057961,0.56463,-0.49394,-1.0005,-1.013,0.10843,0,0,0.67475,0.016183,0,0.28192,0,0,0.44687,-0.22284,0,0.49816,-0.4717,-1.0228,-1.013,11.587,-0.83581,0.54623,0.0083613,0.44,0.2,0
0.20153,0.057017,0.55553,-0.49991,-1.0188,-1.0111,0.17171,0,0,0.66461,-0.0099783,0,0.44645,0,0,0.45489,-0.32124,0,0.55468,-0.44823,-1.0705,-1.0111,16.748,-0.84329,0.59481,0.010446,0.46,0.2,0
0.21495,0.056685,0.54644,-0.35747,-1.0411,-0.96603,0.21084,0,0,0.79112,-0.097655,0,0.54819,0,0,0.37039,-0.46539,0,0.59089,-0.29768,-1.1009,-0.96603,15.833,-0.78821,0.74502,0.018912,0.48,0.2,0
0.23317,0.051052,0.54071,-0.29936,-0.80473,-0.63162,0.18045,0,0,0.24244,-0.40506,0,1.3883,0,0,0.23361,-0.41363,0,0.49652,-0.22037,-0.88372,-0.63162,29.721,-0.57857,0.58593,0.014622,0.5,0.2,0
0.22464,0.072611,0.50816,-0.23272,-0.25441,-0.2026,0.076033,0,0,-0.3524,-0.60617,0,1.7792,0,0,0.16583,-0.076684,0,0.18306,-0.16676,-0.32037,-0.2026,40.941,-0.22991,0.13919,-0.00010816,0.52,0.2,0
0.21907,0.083369,0.48101,-0.21004,-0.23951,-0.18831,0.055649,0,0,-0.25421,-0.59903,0,1.3022,0,0,0.14382,-0.061432,0,0.15638,-0.1672,-0.28234,-0.18831,37.584,-0.21262,0.10617,-5.3366e-05,0.54,0.2,0
0.21447,0.089455,0.45639,-0.19795,-0.23075,-0.17932,0.043322,0,0,-0.21796,-0.60174,0,1.0137,0,0,0.13353,-0.049793,0,0.14247,-0.16803,-0.26067,-0.17932,34.632,-0.20267,0.087547,-3.2537e-05,0.56,0.2,0
0.21036,0.092945,0.43294,-0.18953,-0.22259,-0.17174,0.034446,0,0,-0.20816,-0.59491,0,0.80603,0,0,0.12836,-0.040754,0,0.13465,-0.16785,-0.24427,-0.17174,32.184,-0.19462,0.074544,-2.108e-05,0.58,0.2,0
0.20615,0.094565,0.41018,-0.18424,-0.21537,-0.16546,0.027463,0,0,-0.21973,-0.58396,0,0.64264,0,0,0.12531,-0.033549,0,0.1297,-0.16824,-0.23137,-0.16546,30.228,-0.18835,0.064569,-1.374e-05,0.6,0.2,0
0.20157,0.094827,0.38783,-0.1806,-0.20861,-0.15985,0.021851,0,0,-0.24266,-0.57045,0,0.51132,0,0,0.12339,-0.027633,0,0.12643,-0.16865,-0.22056,-0.15985,28.669,-0.18302,0.05682,-8.6661e-06,0.62,0.2,0
0.19644,0.094051,0.36576,-0.17794,-0.20214,-0.15466,0.017192,0,0,-0.27233,-0.55549,0,0.40229,0,0,0.12215,-0.022629,0,0.12422,-0.16902,-0.21107,-0.15466,27.43,-0.17825,0.050769,-4.9537e-06,0.64,0.2,0
0.19067,0.092468,0.34386,-0.17591,-0.19587,-0.14974,0.013213,0,0,-0.30618,-0.53971,0,0.30919,0,0,0.12138,-0.018261,0,0.12274,-0.16933,-0.20245,-0.14974,26.468,-0.17384,0.046144,-2.1554e-06,0.66,0.2,0
0.18419,0.090244,0.32206,-0.1743,-0.18973,-0.14499,0.0097079,0,0,-0.34287,-0.52343,0,0.22717,0,0,0.12095,-0.014313,0,0.12179,-0.16961,-0.19442,-0.14499,25.76,-0.16967,0.042801,-2.5604e-08,0.68,0.2,0
0.17696,0.087507,0.30031,-0.17301,-0.1837,-0.14038,0.0065114,0,0,-0.38177,-0.5068,0,0.15237,0,0,0.1208,-0.010605,0,0.12126,-0.16993,-0.18677,-0.14038,25.314,-0.1657,0.040679,1.5669e-06,0.7,0.2,0
0.16892,0.084352,0.27857,-0.17199,-0.17773,-0.13587,0.0034838,0,0,-0.42265,-0.48978,0,0.08152,0,0,0.1209,-0.0069761,0,0.12109,-0.17035,-0.17938,-0.13587,25.266,-0.16187,0.039768,2.6779e-06,0.72,0.2,0
0.16005,0.080853,0.25679,-0.17125,-0.17181,-0.13145,0.00050112,0,0,-0.46568,-0.47222,0,0.011726,0,0,0.12125,-0.0032701,0,0.12128,-0.17096,-0.17211,-0.13145,30.417,-0.15817,0.040093,3.301e-06,0.74,0.2,0
0.1503,0.077065,0.23492,-0.17083,-0.16592,-0.12713,-0.0025525,0,0,-0.51132,-0.45385,0,-0.059729,0,0,0.12187,0.00067627,0,0.12186,-0.16483,-0.17192,-0.12713,-66.948,-0.15462,0.041701,3.3649e-06,0.76,0.2,0
0.1396,0.07303,0.21292,-0.17081,-0.16002,-0.12291,-0.0057921,0,0,-0.56051,-0.43421,0,-0.13554,0,0,0.12283,0.0050466,0,0.12292,-0.1575,-0.17333,-0.12291,-66.49,-0.15125,0.044666,2.7136e-06,0.78,0.2,0
0.12788,0.06878,0.1907,-0.17138,-0.1541,-0.11883,-0.009341,0,0,-0.61485,-0.41256,0,-0.21858,0,0,0.12425,0.010063,0,0.12463,-0.15001,-0.17547,-0.11883,-66.391,-0.1481,0.04913,1.0597e-06,0.8,0.2,0
0.11501,0.064338,0.16819,-0.17286,-0.14813,-0.11499,-0.013339,0,0,-0.67715,-0.3878,0,-0.31214,0,0,0.12633,0.016012,0,0.12732,-0.14231,-0.17869,-0.11499,-66.415,-0.14533,0.055351,-2.1185e-06,0.82,0.2,0
0.10079,0.059722,0.14522,-0.17584,-0.14214,-0.11153,-0.01797,0,0,-0.75244,-0.35814,0,-0.42051,0,0,0.12953,0.023291,0,0.13157,-0.13436,-0.18363,-0.11153,-66.579,-0.14317,0.063821,-7.8229e-06,0.84,0.2,0
0.084908,0.054929,0.12156,-0.18159,-0.13631,-0.10888,-0.023399,0,0,-0.85072,-0.32101,0,-0.54753,0,0,0.13478,0.032482,0,0.1386,-0.12639,-0.19151,-0.10888,-67.026,-0.14226,0.075414,-1.8086e-05,0.86,0.2,0
0.066762,0.049986,0.096704,-0.19164,-0.13067,-0.10744,-0.030006,0,0,-0.9852,-0.27176,0,-0.70213,0,0,0.14499,0.04444,0,0.15163,-0.11838,-0.20393,-0.10744,-67.729,-0.14325,0.091516,-3.7475e-05,0.88,0.2,0
0.0455,0.04462,0.06936,-0.21026,-0.12802,-0.10919,-0.039226,0,0,-1.1825,-0.22032,0,-0.91788,0,0,0.16704,0.060418,0,0.17796,-0.11231,-0.22597,-0.10919,-68.175,-0.14916,0.11525,-7.8423e-05,0.9,0.2,0
0.019463,0.036976,0.03657,-0.23048,-0.20346,-0.1505,-0.10776,0,0,-0.6826,-0.12392,0,-0.76452,0,0,0.24049,0.34592,0,0.4427,-0.097402,-0.33654,-0.1505,-54.843,-0.19481,0.21878,-0.000535,0.92,0.2,0
0.018197,0.04234,0.030594,-0.31833,-0.24349,-0.19914,-0.12697,0,0,-0.15495,-0.057654,0,-0.33013,0,0,0.39356,0.34987,0,0.52278,-0.14854,-0.41328,-0.19914,-53.21,-0.25365,0.24342,-0.00063422,0.94,0.2,0
0.013265,0.042926,0.020827,-0.44111,-0.23983,-0.22511,-0.10307,0,0,-0.2808,-0.019135,0,-0.26797,0,0,0.50185,0.20129,0,0.53834,-0.19641,-0.48452,-0.22511,-67.159,-0.30201,0.27488,-0.0010277,0.96,0.2,0
0.0069646,0.043013,0.01052,-0.47522,-0.22346,-0.22012,-0.051354,0,0,-0.33162,-0.0043372,0,-0.13352,0,0,0.52069,0.093293,0,0.52741,-0.21339,-0.48529,-0.22012,-78.903,-0.30627,0.2686,-0.00099314,0.98,0.2,0
0,0.042973,0,-0.46895,-0.20132,-0.20108,-0.00078102,0,0,-0.34823,-0.00031092,0,-0.0020307,0,0,0.526,3.4694e-17,0,0.52463,-0.20132,-0.46895,-0.20108,-89.833,-0.29045,0.26775,-0.00098588,1,0.2,0
0,0.061476,1,-0.38865,-1.6087,-1.5992,-0.0019926,0,0,1.5737,-0.012329,0,-0.0051807,0,0,0.31935,-1.8215e-16,0,0.31902,-0.38865,-1.6087,-1.5992,-0.093576,-1.1988,1.2153,0.092175,0,0.22,0
0.031474,0.061373,0.99361,-0.3763,-1.5968,-1.5855,0.012386,0,0,1.572,-0.014607,0,0.032203,0,0,0.31331,-0.034964,0,0.315,-0.37617,-1.5969,-1.5855,0.58139,-1.1862,1.2151,0.092112,0.02,0.22,0
0.06288,0.061027,0.98747,-0.36499,-1.5886,-1.5735,0.02132,0,0,1.5711,-0.019531,0,0.055432,0,0,0.29534,-0.068053,0,0.30305,-0.36462,-1.5889,-1.5735,0.99796,-1.1757,1.2167,0.092453,0.04,0.22,0
0.094318,0.060316,0.9818,-0.35048,-1.5754,-1.5596,0.024419,0,0,1.5718,-0.020622,0,0.063489,0,0,0.26618,-0.096636,0,0.28354,-0.34999,-1.5759,-1.5596,1.1416,-1.1618,1.2178,0.092711,0.06,0.22,0
0.12575,0.059159,0.97682,-0.33612,-1.5485,-1.5422,0.024004,0,0,1.5679,-0.0082179,0,0.062411,0,0,0.22786,-0.11727,0,0.2571,-0.33565,-1.549,-1.5422,1.1338,-1.1423,1.21,0.090975,0.08,0.22,0
0.15704,0.057737,0.97269,-0.29323,-0.88371,-0.89346,0.025053,0,0,0.76627,0.022827,0,0.31853,0,0,0.19414,-0.070412,0,0.21271,-0.27955,-0.89739,-0.89346,24.484,-0.69013,0.61885,0.043827,0.1,0.22,0
0.1564,0.066379,0.94001,-0.27028,-0.28007,-0.26955,0.023362,0,0,-0.0085341,-0.12311,0,0.54667,0,0,0.17889,-0.016498,0,0.17967,-0.25131,-0.29905,-0.26955,39.082,-0.2733,0.041724,-1.4724e-06,0.12,0.22,0
0.15669,0.073229,0.90828,-0.26338,-0.28465,-0.26533,0.01925,0,0,0.02278,-0.22605,0,0.45046,0,0,0.17384,-0.017359,0,0.17472,-0.25203,-0.29601,-0.26533,30.542,-0.27112,0.039069,-1.9083e-06,0.14,0.22,0
0.15732,0.078053,0.87743,-0.2583,-0.28515,-0.26053,0.014722,0,0,0.026081,-0.28813,0,0.34448,0,0,0.1695,-0.016837,0,0.17034,-0.2518,-0.29165,-0.26053,23.816,-0.26799,0.036283,-1.983e-06,0.16,0.22,0
0.15774,0.081037,0.84727,-0.25499,-0.28284,-0.25549,0.010682,0,0,0.0058683,-0.32003,0,0.24996,0,0,0.16632,-0.0153,0,0.16703,-0.25136,-0.28647,-0.25549,18.743,-0.26444,0.033234,-1.7876e-06,0.18,0.22,0
0.15755,0.082514,0.81755,-0.25319,-0.27872,-0.25041,0.0073358,0,0,-0.032549,-0.33116,0,0.17166,0,0,0.16456,-0.013128,0,0.16508,-0.25124,-0.28067,-0.25041,14.946,-0.26077,0.029859,-1.3637e-06,0.2,0.22,0
0.15643,0.082798,0.78802,-0.2527,-0.27326,-0.24535,0.0045841,0,0,-0.086019,-0.32662,0,0.10727,0,0,0.16433,-0.010632,0,0.16467,-0.25172,-0.27424,-0.24535,12.015,-0.2571,0.02629,-7.5138e-07,0.22,0.22,0
0.15411,0.082113,0.75839,-0.25343,-0.26666,-0.24029,0.00226,0,0,-0.1537,-0.30851,0,0.052883,0,0,0.16564,-0.008055,0,0.16584,-0.25306,-0.26704,-0.24029,9.4299,-0.25346,0.023169,-5.0454e-08,0.24,0.22,0
0.15029,0.080589,0.72839,-0.25544,-0.2589,-0.23523,0.00020738,0,0,-0.23638,-0.2769,0,0.0048527,0,0,0.16849,-0.0056459,0,0.16859,-0.25542,-0.25891,-0.23523,3.4145,-0.24986,0.022142,5.112e-07,0.26,0.22,0
0.14465,0.078257,0.69774,-0.25887,-0.24974,-0.23011,-0.0016732,0,0,-0.33647,-0.22966,0,-0.039154,0,0,0.17276,-0.0037355,0,0.17281,-0.24944,-0.25916,-0.23011,-79.934,-0.24624,0.025617,4.6302e-07,0.28,0.22,0
0.13683,0.075094,0.6662,-0.26389,-0.23858,-0.22476,-0.0032864,0,0,-0.45779,-0.16165,0,-0.076901,0,0,0.17821,-0.002754,0,0.17826,-0.23816,-0.26431,-0.22476,-82.722,-0.24241,0.034837,-1.1392e-06,0.3,0.22,0
0.12634,0.071124,0.63358,-0.27053,-0.22461,-0.21894,-0.0040556,0,0,-0.60359,-0.066341,0,-0.0949,0,0,0.18443,-0.0031555,0,0.18448,-0.22425,-0.27088,-0.21894,-84.991,-0.23803,0.049502,-5.9885e-06,0.32,0.22,0
0.11268,0.066605,0.59981,-0.28364,-0.56241,-0.58704,0.0031139,0,0,0.090906,0.057639,0,-0.022449,0,0,0.20334,-0.026264,0,0.2068,-0.25186,-0.59419,-0.58704,-43.252,-0.47769,0.35277,0.006755,0.34,0.22,0
0.12998,0.063936,0.59542,-0.32396,-0.98175,-0.98714,0.025048,0,0,0.86213,0.0070042,0,0.065125,0,0,0.24559,-0.058145,0,0.25376,-0.32301,-0.9827,-0.98714,2.1776,-0.76428,0.66192,0.014893,0.36,0.22,0
0.14717,0.062048,0.58998,-0.34348,-1.0129,-0.9969,0.045814,0,0,0.84945,-0.020826,0,0.11912,0,0,0.29461,-0.083762,0,0.30686,-0.34036,-1.016,-0.9969,3.8969,-0.78443,0.66632,0.015152,0.38,0.22,0
0.16396,0.060436,0.58364,-0.3657,-1.0255,-1.001,0.066455,0,0,0.8259,-0.031873,0,0.17278,0,0,0.33355,-0.12205,0,0.35511,-0.35907,-1.0321,-1.001,5.6944,-0.79741,0.65806,0.014526,0.4,0.22,0
0.18021,0.058934,0.57664,-0.38403,-1.0309,-1.0011,0.092524,0,0,0.80219,-0.038666,0,0.24056,0,0,0.35903,-0.1715,0,0.39735,-0.37106,-1.0438,-1.0011,7.9827,-0.80533,0.65245,0.014059,0.42,0.22,0
0.19604,0.057445,0.56928,-0.38717,-1.0398,-0.99737,0.12426,0,0,0.79326,-0.055157,0,0.32307,0,0,0.36688,-0.23267,0,0.43353,-0.36431,-1.0627,-0.99737,10.423,-0.80811,0.6681,0.014824,0.44,0.22,0
0.21194,0.055766,0.56196,-0.35079,-1.06,-0.9852,0.14951,0,0,0.82473,-0.097231,0,0.38872,0,0,0.34404,-0.3084,0,0.46103,-0.32056,-1.0902,-0.9852,11.431,-0.79866,0.72289,0.018029,0.46,0.22,0
0.22903,0.05252,0.55552,-0.32378,-1.1451,-0.99617,0.14402,0,0,0.87411,-0.19356,0,0.37444,0,0,0.27962,-0.40178,0,0.49073,-0.29925,-1.1696,-0.99617,9.6631,-0.82167,0.79788,0.021991,0.48,0.22,0
0.2469,0.045734,0.55078,-0.26011,-0.6788,-0.58766,0.086417,0,0,0.25896,-0.21326,0,0.87981,0,0,0.20495,-0.24492,0,0.3405,-0.21799,-0.72093,-0.58766,27.687,-0.50886,0.45882,0.011198,0.5,0.22,0
0.23939,0.062718,0.51964,-0.22218,-0.23054,-0.19356,0.056697,0,0,-0.33497,-0.43271,0,1.3267,0,0,0.1657,-0.054749,0,0.17472,-0.16951,-0.28321,-0.19356,42.893,-0.21543,0.10379,-4.7198e-05,0.52,0.22,0
0.2335,0.072826,0.49112,-0.20994,-0.22681,-0.18559,0.044136,0,0,-0.28481,-0.48221,0,1.0328,0,0,0.15224,-0.05028,0,0.16042,-0.17344,-0.26331,-0.18559,39.59,-0.20744,0.084451,-2.8785e-05,0.54,0.22,0
0.228,0.078703,0.46483,-0.2019,-0.2212,-0.17858,0.035491,0,0,-0.2729,-0.49865,0,0.83048,0,0,0.14209,-0.043293,0,0.14856,-0.17477,-0.24833,-0.17858,37.397,-0.20056,0.071729,-1.8775e-05,0.56,0.22,0
0.22259,0.082068,0.43997,-0.19556,-0.2156,-0.17223,0.028922,0,0,-0.27288,-0.50741,0,0.67677,0,0,0.13559,-0.036674,0,0.14046,-0.17497,-0.23619,-0.17223,35.443,-0.19446,0.062631,-1.2537e-05,0.58,0.22,0
0.21708,0.083733,0.41602,-0.19044,-0.20981,-0.1663,0.023518,0,0,-0.28243,-0.50905,0,0.55031,0,0,0.13137,-0.030862,0,0.13494,-0.17469,-0.22556,-0.1663,33.809,-0.18885,0.05554,-8.1262e-06,0.6,0.22,0
0.21129,0.084129,0.39268,-0.18652,-0.20403,-0.1608,0.018922,0,0,-0.30103,-0.50578,0,0.44278,0,0,0.12854,-0.025829,0,0.13109,-0.17443,-0.21612,-0.1608,32.592,-0.18378,0.049926,-4.8214e-06,0.62,0.22,0
0.20504,0.083554,0.36975,-0.18351,-0.19825,-0.15561,0.014959,0,0,-0.32646,-0.49883,0,0.35005,0,0,0.12662,-0.021434,0,0.12842,-0.17421,-0.20755,-0.15561,31.892,-0.17912,0.045585,-2.2796e-06,0.64,0.22,0
0.19823,0.082213,0.34709,-0.18119,-0.19247,-0.15066,0.011482,0,0,-0.35716,-0.4891,0,0.26868,0,0,0.12538,-0.01752,0,0.12659,-0.17403,-0.19962,-0.15066,31.923,-0.17477,0.042412,-3.0608e-07,0.66,0.22,0
0.19076,0.080266,0.32461,-0.1794,-0.18667,-0.14589,0.0083677,0,0,-0.39209,-0.47713,0,0.1958,0,0,0.12465,-0.013937,0,0.12542,-0.17391,-0.19216,-0.14589,33.263,-0.17065,0.040367,1.2035e-06,0.68,0.22,0
0.18255,0.077831,0.30222,-0.17807,-0.18085,-0.14125,0.0055057,0,0,-0.43072,-0.46322,0,0.12883,0,0,0.12435,-0.010549,0,0.12479,-0.17378,-0.18513,-0.14125,37.92,-0.16672,0.039448,2.2942e-06,0.7,0.22,0
0.17353,0.075003,0.27985,-0.17715,-0.17498,-0.13673,0.0027974,0,0,-0.47288,-0.4475,0,0.065459,0,0,0.12445,-0.0072261,0,0.12465,-0.17307,-0.17907,-0.13673,55.598,-0.16296,0.039675,2.9616e-06,0.72,0.22,0
0.16363,0.071858,0.25742,-0.17666,-0.16906,-0.13232,0.00015437,0,0,-0.51875,-0.42993,0,0.0036123,0,0,0.12494,-0.0038401,0,0.12499,-0.16906,-0.17666,-0.13232,88.836,-0.15935,0.041072,3.152e-06,0.74,0.22,0
0.15278,0.068455,0.23487,-0.17663,-0.16308,-0.12801,-0.0025004,0,0,-0.56886,-0.4103,0,-0.05851,0,0,0.12587,-0.00025953,0,0.12586,-0.16263,-0.17708,-0.12801,-79.872,-0.1559,0.043674,2.7541e-06,0.76,0.22,0
0.14088,0.064846,0.21211,-0.17716,-0.157,-0.12382,-0.0052305,0,0,-0.62415,-0.38824,0,-0.12239,0,0,0.12731,0.0036573,0,0.12735,-0.15572,-0.17844,-0.12382,-76.289,-0.15266,0.047527,1.5796e-06,0.78,0.22,0
0.12781,0.06108,0.18904,-0.17842,-0.1508,-0.11977,-0.0080799,0,0,-0.6862,-0.36309,0,-0.18907,0,0,0.12942,0.008067,0,0.12966,-0.14861,-0.18061,-0.11977,-74.833,-0.14967,0.052712,-6.7435e-07,0.8,0.22,0
0.11343,0.057206,0.16552,-0.18067,-0.14446,-0.11593,-0.011064,0,0,-0.75741,-0.33385,0,-0.25889,0,0,0.13246,0.013139,0,0.1331,-0.14135,-0.18378,-0.11593,-74.283,-0.14702,0.059372,-4.4923e-06,0.82,0.22,0
0.097515,0.053279,0.14135,-0.18428,-0.13795,-0.11237,-0.014137,0,0,-0.84127,-0.29925,0,-0.3308,0,0,0.1369,0.019038,0,0.13821,-0.13398,-0.18825,-0.11237,-74.302,-0.14487,0.067711,-1.0644e-05,0.84,0.22,0
0.079778,0.049363,0.11623,-0.18958,-0.13118,-0.10914,-0.017195,0,0,-0.94115,-0.25782,0,-0.40236,0,0,0.14363,0.025835,0,0.14595,-0.12649,-0.19427,-0.10914,-74.755,-0.1433,0.077914,-2.0291e-05,0.86,0.22,0
0.059869,0.045468,0.089645,-0.19679,-0.12431,-0.10629,-0.020155,0,0,-1.0588,-0.21086,0,-0.47164,0,0,0.1541,0.033179,0,0.15772,-0.11908,-0.20202,-0.10629,-75.458,-0.14246,0.090012,-3.4919e-05,0.88,0.22,0
0.037426,0.041314,0.060757,-0.20596,-0.11726,-0.10372,-0.023651,0,0,-1.1963,-0.15841,0,-0.55344,0,0,0.16825,0.038414,0,0.17282,-0.11134,-0.21188,-0.10372,-75.966,-0.14231,0.10455,-5.7649e-05,0.9,0.22,0
0.012018,0.035644,0.029073,-0.21552,-0.15312,-0.12674,-0.030786,0,0,-0.68002,-0.061716,0,-0.33468,0,0,0.2126,0.16887,0,0.28735,-0.13643,-0.2322,-0.12674,-65.2,-0.16512,0.10144,-5.3248e-05,0.92,0.22,0
0.010225,0.039503,0.02409,-0.27507,-0.30428,-0.19789,-0.058392,0,0,-0.10032,-0.1383,0,-0.15182,0,0,0.30089,0.26421,0,0.40326,-0.22948,-0.34987,-0.19789,-37.978,-0.25908,0.1389,-0.000114,0.94,0.22,0
0.0080048,0.041398,0.017038,-0.30231,-0.27535,-0.19033,-0.058825,0,0,-0.14557,-0.11052,0,-0.15294,0,0,0.38382,0.16626,0,0.41728,-0.22848,-0.34918,-0.19033,-51.453,-0.256,0.14362,-0.00011674,0.96,0.22,0
0.004402,0.041906,0.0087367,-0.3445,-0.26159,-0.19057,-0.035682,0,0,-0.20012,-0.092334,0,-0.092772,0,0,0.42594,0.079719,0,0.43211,-0.24835,-0.35774,-0.19057,-69.641,-0.26555,0.14706,-8.2462e-05,0.98,0.22,0
0,0.042008,0,-0.34609,-0.24317,-0.17678,0.0019525,0,0,-0.2201,-0.086312,0,0.0050765,0,0,0.43683,3.4694e-18,0,0.43562,-0.24313,-0.34612,-0.17678,88.913,-0.25534,0.1478,-6.0385e-05,1,0.22,0
0,0.060939,1,-0.35692,-1.6196,-1.593,-0.0022341,0,0,1.6069,-0.034676,0,-0.0058086,0,0,0.29043,8.0057e-16,0,0.29026,-0.35691,-1.6197,-1.593,-0.10137,-1.1898,1.2496,0.10006,0,0.24,0
0.032137,0.060823,0.99419,-0.34726,-1.6068,-1.5804,0.0054047,0,0,1.6031,-0.034337,0,0.014052,0,0,0.28532,-0.023724,0,0.28619,-0.34724,-1.6069,-1.5804,0.24584,-1.1782,1.2466,0.099348,0.02,0.24,0
0.064124,0.060469,0.98859,-0.34131,-1.594,-1.5692,0.0092979,0,0,1.5962,-0.032249,0,0.024175,0,0,0.27032,-0.045857,0,0.27424,-0.34125,-1.594,-1.5692,0.42524,-1.1682,1.2406,0.097923,0.04,0.24,0
0.095986,0.059852,0.98338,-0.33357,-1.5752,-1.556,0.011002,0,0,1.5892,-0.024905,0,0.028605,0,0,0.24649,-0.064598,0,0.25513,-0.33348,-1.5753,-1.556,0.50767,-1.1549,1.2323,0.096023,0.06,0.24,0
0.12769,0.059005,0.97873,-0.32537,-1.5473,-1.5405,0.012754,0,0,1.5797,-0.0088439,0,0.033161,0,0,0.21582,-0.078019,0,0.2301,-0.32523,-1.5475,-1.5405,0.59792,-1.1378,1.2188,0.092975,0.08,0.24,0
0.15918,0.058125,0.97475,-0.29012,-0.88873,-0.89518,0.016264,0,0,0.78225,0.015093,0,0.21526,0,0,0.18916,-0.046946,0,0.19821,-0.28115,-0.8977,-0.89518,23.792,-0.69134,0.61719,0.044976,0.1,0.24,0
0.15898,0.064202,0.94248,-0.26774,-0.27685,-0.2681,0.016287,0,0,0.0042105,-0.10239,0,0.38112,0,0,0.17719,-0.011612,0,0.17759,-0.25538,-0.2892,-0.2681,37.187,-0.27089,0.029592,-5.5095e-07,0.12,0.24,0
0.15934,0.06912,0.91096,-0.26209,-0.28061,-0.26403,0.013887,0,0,0.02262,-0.19398,0,0.32495,0,0,0.17328,-0.012897,0,0.17377,-0.25466,-0.28804,-0.26403,28.157,-0.26891,0.029819,-9.2264e-07,0.14,0.24,0
0.15988,0.07269,0.8801,-0.25771,-0.28143,-0.25953,0.011083,0,0,0.021287,-0.25619,0,0.25933,0,0,0.16991,-0.013311,0,0.17044,-0.25334,-0.2858,-0.25953,21.532,-0.26622,0.029851,-1.1705e-06,0.16,0.24,0
0.1602,0.074978,0.84979,-0.25472,-0.27979,-0.25477,0.0085014,0,0,0.00065291,-0.29269,0,0.19893,0,0,0.16744,-0.013027,0,0.16795,-0.25211,-0.2824,-0.25477,17.072,-0.26309,0.029053,-1.2237e-06,0.18,0.24,0
0.15991,0.076178,0.81982,-0.25302,-0.27628,-0.24988,0.0063999,0,0,-0.036714,-0.30884,0,0.14976,0,0,0.16612,-0.012259,0,0.16658,-0.25137,-0.27792,-0.24988,14.412,-0.25972,0.027325,-1.0374e-06,0.2,0.24,0
0.15873,0.076507,0.78998,-0.25248,-0.2713,-0.24491,0.0047959,0,0,-0.088595,-0.30876,0,0.11222,0,0,0.16609,-0.011215,0,0.16646,-0.25133,-0.27245,-0.24491,13.505,-0.25623,0.024958,-6.2388e-07,0.22,0.24,0
0.15637,0.076146,0.76003,-0.25304,-0.26505,-0.23988,0.0036123,0,0,-0.15403,-0.29455,0,0.084529,0,0,0.16736,-0.010085,0,0.16767,-0.25204,-0.26605,-0.23988,15.515,-0.25266,0.02269,-7.3338e-08,0.24,0.24,0
0.15257,0.07522,0.72973,-0.2547,-0.25752,-0.23475,0.0027636,0,0,-0.23343,-0.26645,0,0.064668,0,0,0.16991,-0.0090696,0,0.17016,-0.25301,-0.25921,-0.23475,31.473,-0.24899,0.022028,4.0561e-07,0.26,0.24,0
0.14703,0.073801,0.69887,-0.25751,-0.24852,-0.22946,0.0022205,0,0,-0.32822,-0.22296,0,0.051959,0,0,0.17357,-0.0084016,0,0.17379,-0.248,-0.25803,-0.22946,76.864,-0.24516,0.025106,3.9721e-07,0.28,0.24,0
0.13944,0.071937,0.66725,-0.26152,-0.23771,-0.22391,0.0021083,0,0,-0.4401,-0.16145,0,0.049335,0,0,0.17809,-0.008345,0,0.1783,-0.23752,-0.26171,-0.22391,84.98,-0.24105,0.033161,-8.6527e-07,0.3,0.24,0
0.12943,0.069722,0.63475,-0.26659,-0.2248,-0.21795,0.0028036,0,0,-0.56917,-0.080192,0,0.065604,0,0,0.18309,-0.009157,0,0.18334,-0.22461,-0.26678,-0.21795,86.179,-0.23645,0.045866,-4.6045e-06,0.32,0.24,0
0.11667,0.067371,0.60134,-0.27929,-0.58609,-0.59369,0.012,0,0,0.12524,0.017776,0,0.079628,0,0,0.19782,-0.055135,0,0.20957,-0.2508,-0.61458,-0.59369,43.468,-0.48635,0.36665,0.0079685,0.34,0.24,0
0.13444,0.063847,0.59714,-0.30825,-1.0049,-0.99108,0.038843,0,0,0.88768,-0.017956,0,0.10099,0,0,0.23048,-0.10682,0,0.25485,-0.30609,-1.0071,-0.99108,3.1815,-0.76807,0.69311,0.017071,0.36,0.24,0
0.15218,0.061388,0.59212,-0.31728,-1.0312,-0.99665,0.064264,0,0,0.88318,-0.044876,0,0.16709,0,0,0.26794,-0.12434,0,0.29576,-0.31155,-1.0369,-0.99665,5.1031,-0.7817,0.7061,0.017883,0.38,0.24,0
0.16976,0.059445,0.58642,-0.32543,-1.0464,-0.99798,0.084693,0,0,0.87432,-0.062999,0,0.2202,0,0,0.29637,-0.15097,0,0.33258,-0.31561,-1.0562,-0.99798,6.6103,-0.78995,0.71329,0.01822,0.4,0.24,0
0.18715,0.057672,0.58026,-0.3284,-1.0557,-0.99549,0.10352,0,0,0.86722,-0.078271,0,0.26915,0,0,0.31193,-0.18593,0,0.36281,-0.31395,-1.0701,-0.99549,7.945,-0.7932,0.72177,0.018617,0.42,0.24,0
0.20445,0.055755,0.57394,-0.31908,-1.0655,-0.9893,0.11788,0,0,0.87128,-0.098994,0,0.30649,0,0,0.30996,-0.22848,0,0.38464,-0.30091,-1.0836,-0.9893,8.765,-0.79128,0.74008,0.019683,0.44,0.24,0
0.222,0.053127,0.56786,-0.30163,-1.0868,-0.98438,0.11878,0,0,0.88757,-0.13309,0,0.30882,0,0,0.28577,-0.27663,0,0.3977,-0.28406,-1.1043,-0.98438,8.417,-0.79092,0.76736,0.021308,0.46,0.24,0
0.23996,0.048943,0.56251,-0.28177,-1.1007,-0.97724,0.093988,0,0,0.90411,-0.16045,0,0.24437,0,0,0.23794,-0.31819,0,0.39824,-0.27113,-1.1113,-0.97724,6.4641,-0.78656,0.78182,0.022131,0.48,0.24,0
0.25816,0.042522,0.55834,-0.23566,-0.62949,-0.56974,0.062638,0,0,0.26662,-0.13982,0,0.67718,0,0,0.18877,-0.18835,0,0.2859,-0.20182,-0.66333,-0.56974,28.056,-0.4783,0.43068,0.010892,0.5,0.24,0
0.25062,0.055303,0.52787,-0.21889,-0.21718,-0.18947,0.045091,0,0,-0.34412,-0.32422,0,1.0551,0,0,0.16453,-0.040572,0,0.16953,-0.17294,-0.26313,-0.18947,45.54,-0.20852,0.083171,-2.5655e-05,0.52,0.24,0
0.2444,0.064081,0.49911,-0.20974,-0.21788,-0.18374,0.036357,0,0,-0.30419,-0.39936,0,0.85076,0,0,0.15528,-0.039647,0,0.16032,-0.17722,-0.25039,-0.18374,41.809,-0.20379,0.070137,-1.7205e-05,0.54,0.24,0
0.23845,0.06951,0.47197,-0.20348,-0.21449,-0.17783,0.029326,0,0,-0.30007,-0.4289,0,0.68624,0,0,0.14713,-0.036073,0,0.15152,-0.17915,-0.23883,-0.17783,39.684,-0.1986,0.060345,-1.1268e-05,0.56,0.24,0
0.2324,0.072648,0.44615,-0.19855,-0.21006,-0.17216,0.023957,0,0,-0.30881,-0.44352,0,0.56059,0,0,0.1408,-0.031693,0,0.14433,-0.17967,-0.22894,-0.17216,38.244,-0.19359,0.053431,-7.3149e-06,0.58,0.24,0
0.2261,0.074203,0.42129,-0.19433,-0.20523,-0.16668,0.019567,0,0,-0.32352,-0.45106,0,0.45787,0,0,0.13615,-0.027375,0,0.13888,-0.17947,-0.22009,-0.16668,37.217,-0.18874,0.048306,-4.45e-06,0.6,0.24,0
0.21946,0.074596,0.39713,-0.19075,-0.20013,-0.16139,0.01581,0,0,-0.3435,-0.4533,0,0.36996,0,0,0.13282,-0.023386,0,0.13486,-0.17895,-0.21193,-0.16139,36.735,-0.18409,0.044446,-2.2531e-06,0.62,0.24,0
0.21236,0.074098,0.37347,-0.18782,-0.19488,-0.15631,0.01252,0,0,-0.3687,-0.45129,0,0.29297,0,0,0.13046,-0.019762,0,0.13195,-0.17834,-0.20436,-0.15631,37.128,-0.17967,0.041661,-5.3082e-07,0.64,0.24,0
0.20471,0.072904,0.35016,-0.18548,-0.18949,-0.1514,0.0095987,0,0,-0.39875,-0.44568,0,0.22461,0,0,0.12888,-0.016451,0,0.12992,-0.17768,-0.19729,-0.1514,39.1,-0.17546,0.039884,8.0966e-07,0.66,0.24,0
0.19641,0.071159,0.32708,-0.18368,-0.18398,-0.14664,0.0069645,0,0,-0.43336,-0.43687,0,0.16297,0,0,0.12792,-0.01337,0,0.12862,-0.17686,-0.19079,-0.14664,44.382,-0.17143,0.039098,1.8075e-06,0.68,0.24,0
0.18738,0.068978,0.30411,-0.18238,-0.17835,-0.14201,0.0045436,0,0,-0.47234,-0.42515,0,0.10632,0,0,0.12751,-0.01043,0,0.12793,-0.17539,-0.18533,-0.14201,56.967,-0.16758,0.039309,2.4597e-06,0.7,0.24,0
0.17752,0.066452,0.28117,-0.18157,-0.17259,-0.13749,0.0022681,0,0,-0.51572,-0.41067,0,0.053073,0,0,0.12761,-0.0075376,0,0.12782,-0.17205,-0.18211,-0.13749,76.598,-0.16388,0.040536,2.7239e-06,0.72,0.24,0
0.16675,0.063656,0.25817,-0.18125,-0.1667,-0.13307,7.9328e-05,0,0,-0.56369,-0.39349,0,0.0018563,0,0,0.12821,-0.0046011,0,0.12829,-0.1667,-0.18125,-0.13307,89.688,-0.16034,0.042801,2.5148e-06,0.74,0.24,0
0.15497,0.060653,0.23502,-0.18147,-0.16069,-0.12876,-0.0020672,0,0,-0.61668,-0.37357,0,-0.048373,0,0,0.12937,-0.0015264,0,0.12937,-0.16049,-0.18167,-0.12876,-84.373,-0.15697,0.046125,1.6974e-06,0.76,0.24,0
0.14208,0.057501,0.2116,-0.18228,-0.15454,-0.12456,-0.0041945,0,0,-0.67536,-0.35081,0,-0.098151,0,0,0.13116,0.0017812,0,0.13117,-0.15392,-0.1829,-0.12456,-81.587,-0.15379,0.050528,7.5276e-08,0.78,0.24,0
0.12795,0.054257,0.1878,-0.18378,-0.14825,-0.12048,-0.0062946,0,0,-0.74069,-0.32497,0,-0.14729,0,0,0.13373,0.0054107,0,0.13384,-0.14717,-0.18487,-0.12048,-80.245,-0.15084,0.056033,-2.627e-06,0.8,0.24,0
0.11245,0.050984,0.16346,-0.18609,-0.14182,-0.11653,-0.0083167,0,0,-0.8138,-0.29582,0,-0.19461,0,0,0.13731,0.0094251,0,0.13763,-0.14031,-0.1876,-0.11653,-79.704,-0.14815,0.062659,-6.7801e-06,0.82,0.24,0
0.095402,0.047752,0.13837,-0.18928,-0.13522,-0.11272,-0.010169,0,0,-0.89566,-0.26324,0,-0.23794,0,0,0.14222,0.013806,0,0.14291,-0.13337,-0.19113,-0.11272,-79.691,-0.14574,0.070386,-1.2849e-05,0.84,0.24,0
0.076625,0.044617,0.11226,-0.19333,-0.12851,-0.10903,-0.011755,0,0,-0.98641,-0.22794,0,-0.27507,0,0,0.14892,0.018316,0,0.15008,-0.12644,-0.1954,-0.10903,-80.033,-0.14362,0.079117,-2.1339e-05,0.86,0.24,0
0.055946,0.041552,0.08476,-0.19822,-0.12172,-0.1054,-0.013171,0,0,-1.0859,-0.19097,0,-0.3082,0,0,0.15757,0.022128,0,0.15919,-0.11952,-0.20042,-0.1054,-80.499,-0.14178,0.088808,-3.2929e-05,0.88,0.24,0
0.033187,0.038284,0.055531,-0.20461,-0.11456,-0.10192,-0.014492,0,0,-1.2015,-0.14787,0,-0.33912,0,0,0.16763,0.023396,0,0.16935,-0.11228,-0.20689,-0.10192,-81.079,-0.14036,0.10019,-4.9788e-05,0.9,0.24,0
0.0078867,0.034507,0.024411,-0.20155,-0.14761,-0.11831,-0.014787,0,0,-0.67044,-0.068559,0,-0.19076,0,0,0.19609,0.10396,0,0.23223,-0.14039,-0.20877,-0.11831,-66.172,-0.15582,0.084896,-3.1067e-05,0.92,0.24,0
0.0063692,0.036808,0.020026,-0.23341,-0.27642,-0.17297,-0.017152,0,0,-0.07857,-0.13448,0,-0.044596,0,0,0.25585,0.16477,0,0.3063,-0.22741,-0.28242,-0.17297,-19.29,-0.2276,0.094783,-3.9834e-07,0.94,0.24,0
0.0047439,0.038505,0.014177,-0.24945,-0.29599,-0.17781,-0.02282,0,0,-0.093128,-0.15364,0,-0.059332,0,0,0.31736,0.11772,0,0.33872,-0.24012,-0.30531,-0.17781,-22.218,-0.24108,0.11043,-2.6991e-06,0.96,0.24,0
0.0026441,0.03932,0.0073312,-0.26437,-0.28833,-0.17314,-0.016431,0,0,-0.1186,-0.14974,0,-0.04272,0,0,0.35443,0.059188,0,0.35868,-0.25601,-0.29668,-0.17314,-26.952,-0.24195,0.10905,3.6739e-05,0.98,0.24,0
0,0.03952,0,-0.26292,-0.27449,-0.16122,0.0038512,0,0,-0.13221,-0.14725,0,0.010013,0,0,0.36656,0,0,0.36574,-0.26176,-0.27565,-0.16122,16.827,-0.23288,0.10815,6.1372e-05,1,0.24,0
0,0.060089,1,-0.33864,-1.6243,-1.5889,-0.0017316,0,0,1.6253,-0.046014,0,-0.004502,0,0,0.2719,5.6379e-16,0,0.27184,-0.33864,-1.6243,-1.5889,-0.077169,-1.1839,1.2683,0.10451,0,0.26,0
0.032506,0.059999,0.99456,-0.33059,-1.6112,-1.5771,0.0016844,0,0,1.6204,-0.044287,0,0.0043793,0,0,0.26745,-0.013962,0,0.2678,-0.33058,-1.6112,-1.5771,0.075363,-1.1729,1.2639,0.10344,0.02,0.26,0
0.064818,0.059737,0.9893,-0.32758,-1.5962,-1.5664,0.0030445,0,0,1.6105,-0.038701,0,0.0079157,0,0,0.25446,-0.026952,0,0.25599,-0.32758,-1.5962,-1.5664,0.1375,-1.1634,1.254,0.10109,0.04,0.26,0
0.096927,0.059319,0.98438,-0.32358,-1.5756,-1.5541,0.0041496,0,0,1.5997,-0.027928,0,0.010789,0,0,0.23402,-0.037967,0,0.23736,-0.32356,-1.5756,-1.5541,0.18989,-1.1511,1.2415,0.098174,0.06,0.26,0
0.12881,0.058805,0.97994,-0.31875,-1.5493,-1.5403,0.0063886,0,0,1.5881,-0.011591,0,0.01661,0,0,0.20795,-0.046036,0,0.21347,-0.31871,-1.5493,-1.5403,0.29746,-1.1361,1.2261,0.094658,0.08,0.26,0
0.16045,0.058341,0.97606,-0.28768,-0.89354,-0.89662,0.0099229,0,0,0.79616,0.007222,0,0.13458,0,0,0.18544,-0.028001,0,0.18899,-0.28248,-0.89874,-0.89662,22.547,-0.69261,0.61624,0.045983,0.1,0.26,0
0.16065,0.062284,0.94419,-0.26548,-0.27511,-0.26709,0.010441,0,0,0.018847,-0.093916,0,0.24432,0,0,0.17538,-0.0077223,0,0.17556,-0.2588,-0.2818,-0.26709,32.612,-0.26923,0.020174,-1.944e-07,0.12,0.26,0
0.1612,0.06547,0.91293,-0.26058,-0.27828,-0.2631,0.0091953,0,0,0.029413,-0.17769,0,0.21517,0,0,0.17214,-0.009347,0,0.1724,-0.25667,-0.28219,-0.2631,23.047,-0.26732,0.022995,-4.6401e-07,0.14,0.26,0
0.16183,0.067806,0.88222,-0.25663,-0.2792,-0.25877,0.0077415,0,0,0.02508,-0.23902,0,0.18115,0,0,0.16937,-0.010493,0,0.1697,-0.25423,-0.2816,-0.25877,17.224,-0.26487,0.025407,-7.5234e-07,0.16,0.26,0
0.16221,0.069329,0.85195,-0.25381,-0.27799,-0.2542,0.0064371,0,0,0.0045374,-0.27828,0,0.15063,0,0,0.16737,-0.01123,0,0.16775,-0.25221,-0.27959,-0.2542,14.02,-0.262,0.026446,-9.3173e-07,0.18,0.26,0
0.16201,0.070161,0.82197,-0.25212,-0.27496,-0.24945,0.0054699,0,0,-0.031256,-0.29837,0,0.12799,0,0,0.16638,-0.011659,0,0.16678,-0.25088,-0.2762,-0.24945,12.801,-0.25884,0.026059,-8.997e-07,0.2,0.26,0
0.16096,0.070447,0.79206,-0.25149,-0.27042,-0.24458,0.0048993,0,0,-0.080858,-0.30229,0,0.11464,0,0,0.1665,-0.011884,0,0.16693,-0.25029,-0.27161,-0.24458,13.686,-0.25549,0.024673,-6.3398e-07,0.22,0.26,0
0.15878,0.070331,0.76202,-0.25184,-0.26453,-0.23958,0.004719,0,0,-0.14343,-0.29193,0,0.11042,0,0,0.16779,-0.012014,0,0.16822,-0.25028,-0.26609,-0.23958,18.318,-0.25198,0.023103,-2.0708e-07,0.24,0.26,0
0.15522,0.069931,0.73166,-0.25316,-0.25731,-0.23444,0.004907,0,0,-0.21907,-0.26763,0,0.11482,0,0,0.17017,-0.012162,0,0.17061,-0.24991,-0.26056,-0.23444,33.537,-0.2483,0.022754,1.8921e-07,0.26,0.26,0
0.15002,0.069338,0.70076,-0.25545,-0.24861,-0.22908,0.0054666,0,0,-0.30847,-0.22854,0,0.12792,0,0,0.17348,-0.012458,0,0.17394,-0.24558,-0.25848,-0.22908,60.999,-0.24438,0.025521,1.8001e-07,0.28,0.26,0
0.14288,0.068636,0.6692,-0.25865,-0.23826,-0.22343,0.006469,0,0,-0.41205,-0.17357,0,0.15137,0,0,0.17746,-0.013042,0,0.17795,-0.23638,-0.26053,-0.22343,73.797,-0.24011,0.032611,-8.8056e-07,0.3,0.26,0
0.13353,0.067917,0.63688,-0.26256,-0.22622,-0.2174,0.0080861,0,0,-0.5284,-0.10321,0,0.18921,0,0,0.18174,-0.014057,0,0.1823,-0.2245,-0.26428,-0.2174,78.005,-0.23539,0.043763,-3.9252e-06,0.32,0.26,0
0.12174,0.067316,0.60377,-0.27525,-0.61053,-0.60116,0.017597,0,0,0.16172,-0.021911,0,0.15229,0,0,0.19389,-0.078113,0,0.21635,-0.24952,-0.63625,-0.60116,40.268,-0.49565,0.38233,0.0092499,0.34,0.26,0
0.14,0.063218,0.5997,-0.29637,-1.033,-0.9985,0.045031,0,0,0.91277,-0.044804,0,0.11708,0,0,0.2205,-0.14537,0,0.26464,-0.29363,-1.0357,-0.9985,3.4855,-0.77594,0.72419,0.019333,0.36,0.26,0
0.15826,0.060253,0.59496,-0.2986,-1.0519,-1.0001,0.071224,0,0,0.91197,-0.067368,0,0.18518,0,0,0.25045,-0.15584,0,0.29525,-0.29193,-1.0586,-1.0001,5.3538,-0.78355,0.73918,0.020305,0.38,0.26,0
0.17648,0.057916,0.58968,-0.29848,-1.0647,-0.99862,0.090191,0,0,0.91019,-0.085852,0,0.2345,0,0,0.27196,-0.17176,0,0.32168,-0.288,-1.0751,-0.99862,6.624,-0.78725,0.7518,0.021063,0.4,0.26,0
0.19466,0.055803,0.58408,-0.2946,-1.0718,-0.99399,0.10294,0,0,0.90921,-0.10112,0,0.26763,0,0,0.28152,-0.19263,0,0.34098,-0.28119,-1.0852,-0.99399,7.4183,-0.78679,0.76249,0.021674,0.42,0.26,0
0.21285,0.053486,0.57842,-0.28649,-1.0762,-0.98723,0.10692,0,0,0.91096,-0.11568,0,0.27799,0,0,0.27618,-0.21735,0,0.35135,-0.27227,-1.0904,-0.98723,7.5755,-0.78331,0.77176,0.022192,0.44,0.26,0
0.2311,0.050442,0.57303,-0.27529,-1.0762,-0.97847,0.097174,0,0,0.91414,-0.12702,0,0.25265,0,0,0.25433,-0.24275,0,0.35178,-0.26367,-1.0878,-0.97847,6.82,-0.77665,0.77527,0.022336,0.46,0.26,0
0.24941,0.046102,0.56825,-0.26371,-1.0627,-0.96615,0.073317,0,0,0.91317,-0.12544,0,0.19062,0,0,0.21721,-0.26337,0,0.34206,-0.25704,-1.0693,-0.96615,5.2001,-0.76417,0.76593,0.021672,0.48,0.26,0
0.26763,0.040142,0.56434,-0.23195,-0.60962,-0.56599,0.048379,0,0,0.26559,-0.10209,0,0.53776,0,0,0.18121,-0.15151,0,0.25284,-0.20326,-0.63831,-0.56599,28.752,-0.46919,0.412,0.010361,0.5,0.26,0
0.26004,0.049749,0.53425,-0.2176,-0.208,-0.18704,0.036557,0,0,-0.35757,-0.24519,0,0.85544,0,0,0.16373,-0.031712,0,0.16681,-0.17593,-0.24967,-0.18704,48.742,-0.20421,0.068862,-1.5309e-05,0.52,0.26,0
0.25333,0.056852,0.5054,-0.21064,-0.21062,-0.18253,0.030201,0,0,-0.3289,-0.32856,0,0.70671,0,0,0.15674,-0.03123,0,0.15986,-0.18043,-0.24083,-0.18253,45.014,-0.20126,0.059378,-1.0707e-05,0.54,0.26,0
0.24688,0.061547,0.47782,-0.20513,-0.209,-0.17733,0.024442,0,0,-0.32524,-0.37058,0,0.57195,0,0,0.15005,-0.029267,0,0.15291,-0.18255,-0.23159,-0.17733,42.734,-0.19716,0.051844,-6.9131e-06,0.56,0.26,0
0.24032,0.064327,0.45138,-0.20077,-0.20562,-0.17207,0.019777,0,0,-0.33576,-0.39253,0,0.46278,0,0,0.14429,-0.0265,0,0.14672,-0.18327,-0.22312,-0.17207,41.503,-0.19282,0.046473,-4.1631e-06,0.58,0.26,0
0.23345,0.06569,0.42588,-0.19706,-0.20147,-0.16688,0.015998,0,0,-0.3531,-0.40472,0,0.37436,0,0,0.13968,-0.023501,0,0.14165,-0.18311,-0.21541,-0.16688,41.075,-0.18847,0.042793,-2.1598e-06,0.6,0.26,0
0.22619,0.065998,0.4011,-0.19383,-0.19691,-0.16179,0.01283,0,0,-0.37493,-0.41089,0,0.30022,0,0,0.13615,-0.020557,0,0.13769,-0.18245,-0.20829,-0.16179,41.585,-0.18418,0.040357,-6.4681e-07,0.62,0.26,0
0.21845,0.065502,0.37686,-0.19109,-0.19207,-0.15682,0.010101,0,0,-0.40095,-0.41239,0,0.23637,0,0,0.13356,-0.017771,0,0.13474,-0.18147,-0.20169,-0.15682,43.615,-0.17999,0.038922,5.1354e-07,0.64,0.26,0
0.21015,0.064386,0.35302,-0.18884,-0.18701,-0.15198,0.0077082,0,0,-0.43132,-0.40981,0,0.18037,0,0,0.13177,-0.01515,0,0.13264,-0.18016,-0.19569,-0.15198,48.401,-0.17594,0.038378,1.3842e-06,0.66,0.26,0
0.2012,0.062791,0.32943,-0.1871,-0.18174,-0.14726,0.0055774,0,0,-0.4662,-0.40348,0,0.13051,0,0,0.13067,-0.012663,0,0.13128,-0.17823,-0.19061,-0.14726,57.833,-0.17203,0.03868,1.9789e-06,0.68,0.26,0
0.19151,0.060825,0.30597,-0.18587,-0.17628,-0.14264,0.0036471,0,0,-0.50571,-0.39361,0,0.085342,0,0,0.13018,-0.010262,0,0.13058,-0.17505,-0.1871,-0.14264,71.359,-0.16826,0.039822,2.2716e-06,0.7,0.26,0
0.18097,0.058576,0.28256,-0.18514,-0.17064,-0.13813,0.0018641,0,0,-0.55003,-0.38038,0,0.04362,0,0,0.13028,-0.0078928,0,0.13051,-0.17041,-0.18538,-0.13813,82.79,-0.16464,0.041822,2.1985e-06,0.72,0.26,0
0.1695,0.056118,0.25908,-0.18494,-0.16482,-0.13372,0.00018596,0,0,-0.59936,-0.36394,0,0.0043514,0,0,0.13095,-0.0054996,0,0.13106,-0.16482,-0.18494,-0.13372,89.471,-0.16116,0.044704,1.6564e-06,0.74,0.26,0
0.157,0.053512,0.23542,-0.18529,-0.15884,-0.12939,-0.0014146,0,0,-0.65393,-0.34447,0,-0.033102,0,0,0.13225,-0.0030267,0,0.13228,-0.15876,-0.18536,-0.12939,-86.947,-0.15784,0.048488,5.0059e-07,0.76,0.26,0
0.14335,0.050814,0.21147,-0.1862,-0.15271,-0.12517,-0.0029431,0,0,-0.71404,-0.3222,0,-0.068867,0,0,0.13425,-0.00042259,0,0.13425,-0.15245,-0.18645,-0.12517,-85.016,-0.15469,0.053181,-1.4569e-06,0.78,0.26,0
0.12844,0.048081,0.18709,-0.18769,-0.14645,-0.12103,-0.0043768,0,0,-0.77996,-0.29741,0,-0.10242,0,0,0.13706,0.0023496,0,0.13709,-0.14599,-0.18815,-0.12103,-84.009,-0.15172,0.058763,-4.4454e-06,0.8,0.26,0
0.11215,0.045373,0.16212,-0.18978,-0.1401,-0.11698,-0.0056652,0,0,-0.85179,-0.27054,0,-0.13257,0,0,0.14086,0.0052883,0,0.14097,-0.13946,-0.19042,-0.11698,-83.576,-0.14895,0.065174,-8.7239e-06,0.82,0.26,0
0.094365,0.042749,0.13638,-0.19242,-0.13369,-0.11299,-0.0067476,0,0,-0.92934,-0.24228,0,-0.15789,0,0,0.14579,0.0083014,0,0.14605,-0.13293,-0.19318,-0.11299,-83.529,-0.14637,0.072317,-1.456e-05,0.84,0.26,0
0.074975,0.040245,0.10964,-0.19554,-0.12725,-0.10902,-0.0076113,0,0,-1.0123,-0.21332,0,-0.17811,0,0,0.15195,0.011108,0,0.15239,-0.12641,-0.19638,-0.10902,-83.716,-0.14394,0.08009,-2.2247e-05,0.86,0.26,0
0.053874,0.037829,0.081679,-0.19921,-0.12068,-0.10504,-0.0083061,0,0,-1.1017,-0.18298,0,-0.19436,0,0,0.15918,0.013131,0,0.15977,-0.11981,-0.20008,-0.10504,-84.028,-0.14164,0.088578,-3.2374e-05,0.88,0.26,0
0.030906,0.0354,0.052334,-0.20334,-0.11312,-0.10075,-0.0087765,0,0,-1.2003,-0.14467,0,-0.20537,0,0,0.16692,0.013643,0,0.16753,-0.11227,-0.20419,-0.10075,-84.495,-0.13907,0.098183,-4.6362e-05,0.9,0.26,0
0.0058627,0.032902,0.021588,-0.20023,-0.15782,-0.11941,-0.0066098,0,0,-0.66159,-0.089871,0,-0.10535,0,0,0.18764,0.060554,0,0.20234,-0.1495,-0.20855,-0.11941,-50.875,-0.15915,0.084054,-2.3799e-05,0.92,0.26,0
0.0044423,0.034124,0.017499,-0.21443,-0.26617,-0.16168,-0.0039726,0,0,-0.068571,-0.13584,0,-0.010329,0,0,0.23149,0.097833,0,0.25277,-0.21412,-0.26648,-0.16168,-4.3644,-0.21409,0.090758,5.7269e-08,0.94,0.26,0
0.0031198,0.035253,0.012329,-0.21962,-0.29418,-0.16647,-0.0052951,0,0,-0.069095,-0.16602,0,-0.013767,0,0,0.27824,0.072063,0,0.28786,-0.21924,-0.29455,-0.16647,-4.042,-0.22675,0.11149,-2.1285e-05,0.96,0.26,0
0.0016785,0.035917,0.0063692,-0.2239,-0.30123,-0.16391,-0.0051011,0,0,-0.077996,-0.17851,0,-0.013263,0,0,0.30822,0.037745,0,0.31032,-0.22357,-0.30156,-0.16391,-3.7583,-0.22968,0.11956,-2.0027e-05,0.98,0.26,0
0,0.036118,0,-0.21741,-0.2921,-0.15285,0.003874,0,0,-0.083926,-0.18102,0,0.010072,0,0,0.31846,1.5612e-17,0,0.31806,-0.21721,-0.2923,-0.15285,2.9613,-0.22079,0.12088,-1.205e-05,1,0.26,0
0,0.059099,1,-0.33037,-1.6253,-1.5867,-0.00090573,0,0,1.6332,-0.050138,0,-0.0023549,0,0,0.2625,-1.5804e-15,0,0.26249,-0.33037,-1.6253,-1.5867,-0.040076,-1.1808,1.276,0.10638,0,0.28,0
0.032664,0.059051,0.99475,-0.323,-1.6122,-1.5753,-0.00029304,0,0,1.628,-0.047981,0,-0.00076191,0,0,0.25837,-0.0051471,0,0.25844,-0.323,-1.6122,-1.5753,-0.013023,-1.1702,1.2712,0.1052,0.02,0.28,0
0.065121,0.058921,0.98967,-0.32114,-1.597,-1.5651,-0.00025163,0,0,1.6171,-0.041429,0,-0.00065424,0,0,0.24632,-0.010017,0,0.24665,-0.32114,-1.597,-1.5651,-0.0113,-1.1611,1.2602,0.10257,0.04,0.28,0
0.09735,0.058735,0.9849,-0.31858,-1.5765,-1.5534,0.00045014,0,0,1.6053,-0.030045,0,0.0011704,0,0,0.22741,-0.014346,0,0.22814,-0.31858,-1.5765,-1.5534,0.020502,-1.1495,1.2466,0.099374,0.06,0.28,0
0.12933,0.058542,0.98057,-0.31507,-1.5518,-1.5406,0.0023324,0,0,1.5932,-0.01455,0,0.0060642,0,0,0.20338,-0.017909,0,0.20461,-0.31506,-1.5518,-1.5406,0.10805,-1.1359,1.2312,0.09583,0.08,0.28,0
0.16108,0.058414,0.97676,-0.28574,-0.89682,-0.89741,0.0047776,0,0,0.80726,0.0013915,0,0.065548,0,0,0.18267,-0.011412,0,0.18349,-0.28367,-0.89889,-0.89741,19.559,-0.69332,0.61482,0.04669,0.1,0.28,0
0.16162,0.060445,0.94526,-0.26349,-0.27433,-0.26637,0.0052686,0,0,0.033718,-0.093035,0,0.12329,0,0,0.17345,-0.0043554,0,0.17351,-0.26135,-0.27647,-0.26637,22.103,-0.26806,0.013331,-6.6069e-08,0.12,0.28,0
0.16243,0.062012,0.91432,-0.25893,-0.27728,-0.26246,0.0048933,0,0,0.041212,-0.17348,0,0.1145,0,0,0.17051,-0.0062947,0,0.17063,-0.25771,-0.27851,-0.26246,14.036,-0.26622,0.018876,-2.7322e-07,0.14,0.28,0
0.16327,0.06313,0.88388,-0.25518,-0.2783,-0.25825,0.004571,0,0,0.035925,-0.23451,0,0.10696,0,0,0.16802,-0.0080905,0,0.16822,-0.25431,-0.27917,-0.25825,10.79,-0.26391,0.023139,-5.7453e-07,0.16,0.28,0
0.16387,0.063847,0.85383,-0.25244,-0.27735,-0.25381,0.0044075,0,0,0.016017,-0.27543,0,0.10314,0,0,0.16628,-0.0097431,0,0.16656,-0.25168,-0.2781,-0.25381,9.7438,-0.2612,0.025428,-8.2451e-07,0.18,0.28,0
0.16391,0.064243,0.82402,-0.25072,-0.27466,-0.24917,0.0044837,0,0,-0.018099,-0.2982,0,0.10492,0,0,0.16547,-0.01126,0,0.16585,-0.2499,-0.27547,-0.24917,10.267,-0.25818,0.02594,-8.9402e-07,0.2,0.28,0
0.16314,0.064415,0.79426,-0.24997,-0.27048,-0.24439,0.0048602,0,0,-0.065285,-0.30533,0,0.11373,0,0,0.16573,-0.012651,0,0.16621,-0.24887,-0.27158,-0.24439,12.675,-0.25494,0.025247,-7.393e-07,0.22,0.28,0
0.1613,0.064469,0.76436,-0.25012,-0.26497,-0.23946,0.0055827,0,0,-0.12476,-0.29852,0,0.13064,0,0,0.16709,-0.01393,0,0.16767,-0.24825,-0.26683,-0.23946,18.468,-0.25151,0.02421,-4.1768e-07,0.24,0.28,0
0.15815,0.064515,0.73411,-0.25114,-0.25811,-0.23434,0.0066835,0,0,-0.19649,-0.27813,0,0.15639,0,0,0.16946,-0.015114,0,0.17014,-0.24709,-0.26217,-0.23434,31.218,-0.24787,0.024123,-1.0435e-07,0.26,0.28,0
0.15344,0.064659,0.70335,-0.253,-0.2498,-0.22899,0.0081768,0,0,-0.28096,-0.24344,0,0.19134,0,0,0.17269,-0.016226,0,0.17346,-0.24307,-0.25973,-0.22899,50.547,-0.24393,0.026655,-1.4119e-07,0.28,0.28,0
0.14691,0.064995,0.67194,-0.25563,-0.23987,-0.22331,0.010054,0,0,-0.37817,-0.19372,0,0.23527,0,0,0.17649,-0.017302,0,0.17735,-0.23497,-0.26053,-0.22331,64.048,-0.2396,0.032969,-1.0942e-06,0.3,0.28,0
0.13831,0.065593,0.63981,-0.2588,-0.22834,-0.21723,0.012284,0,0,-0.48631,-0.13,0,0.28744,0,0,0.18051,-0.018392,0,0.18146,-0.22401,-0.26314,-0.21723,70.553,-0.23479,0.042918,-3.7216e-06,0.32,0.28,0
0.12746,0.066495,0.60696,-0.27179,-0.63298,-0.60863,0.021103,0,0,0.19668,-0.056969,0,0.20558,0,0,0.19148,-0.097833,0,0.22534,-0.24825,-0.65652,-0.60863,37.308,-0.50447,0.39764,0.010464,0.34,0.28,0
0.14618,0.062055,0.60295,-0.28822,-1.0617,-1.0079,0.046493,0,0,0.93563,-0.069918,0,0.12088,0,0,0.21524,-0.17814,0,0.27981,-0.28543,-1.0645,-1.0079,3.4275,-0.78595,0.75238,0.021458,0.36,0.28,0
0.16489,0.058693,0.59835,-0.28693,-1.0732,-1.0064,0.071327,0,0,0.93529,-0.086834,0,0.18545,0,0,0.24155,-0.18186,0,0.30258,-0.28052,-1.0796,-1.0064,5.1419,-0.78883,0.76511,0.022294,0.38,0.28,0
0.18359,0.056011,0.59329,-0.28308,-1.0803,-1.0023,0.088654,0,0,0.935,-0.10142,0,0.2305,0,0,0.25959,-0.18747,0,0.32026,-0.27334,-1.0901,-1.0023,6.2692,-0.78857,0.77658,0.023021,0.4,0.28,0
0.20228,0.053627,0.58797,-0.27754,-1.0812,-0.9956,0.098104,0,0,0.93347,-0.11132,0,0.25507,0,0,0.26634,-0.19502,0,0.33007,-0.26574,-1.093,-0.9956,6.8598,-0.78479,0.78313,0.023385,0.42,0.28,0
0.22093,0.051127,0.58264,-0.27087,-1.0749,-0.98636,0.097818,0,0,0.93014,-0.11508,0,0.25433,0,0,0.25984,-0.20406,0,0.33043,-0.25914,-1.0866,-0.98636,6.8378,-0.77737,0.78218,0.023223,0.44,0.28,0
0.23949,0.048046,0.57757,-0.26399,-1.0592,-0.97453,0.085957,0,0,0.92371,-0.11008,0,0.22349,0,0,0.23975,-0.21332,0,0.32118,-0.2548,-1.0684,-0.97453,6.0994,-0.76591,0.77096,0.022363,0.46,0.28,0
0.25788,0.043925,0.57305,-0.2568,-1.0312,-0.95945,0.063008,0,0,0.91344,-0.09328,0,0.16382,0,0,0.20797,-0.22061,0,0.30375,-0.25171,-1.0363,-0.95945,4.6213,-0.74915,0.74912,0.020827,0.48,0.28,0
0.27603,0.038438,0.56925,-0.23115,-0.59223,-0.56327,0.039877,0,0,0.25617,-0.067777,0,0.43751,0,0,0.17801,-0.12429,0,0.23095,-0.20514,-0.61824,-0.56327,30.196,-0.46221,0.39697,0.0097988,0.5,0.28,0
0.26813,0.045495,0.53929,-0.21843,-0.20196,-0.18604,0.029461,0,0,-0.37895,-0.1863,0,0.68938,0,0,0.1636,-0.02501,0,0.16553,-0.1796,-0.24078,-0.18604,52.807,-0.20214,0.05823,-9.7243e-06,0.52,0.28,0
0.26087,0.050938,0.51036,-0.21232,-0.20474,-0.18183,0.024661,0,0,-0.35682,-0.26812,0,0.57707,0,0,0.15772,-0.024412,0,0.15963,-0.18358,-0.23348,-0.18183,49.369,-0.19963,0.050802,-6.7069e-06,0.54,0.28,0
0.25385,0.054686,0.48251,-0.20719,-0.20426,-0.17705,0.019994,0,0,-0.35263,-0.31842,0,0.46786,0,0,0.15186,-0.023144,0,0.15364,-0.18568,-0.22577,-0.17705,47.091,-0.19616,0.045034,-4.1161e-06,0.56,0.28,0
0.24677,0.056947,0.45569,-0.20293,-0.2018,-0.17205,0.015993,0,0,-0.36126,-0.3481,0,0.37424,0,0,0.14656,-0.021434,0,0.14814,-0.18636,-0.21837,-0.17205,46.007,-0.19226,0.041077,-2.1579e-06,0.58,0.28,0
0.2394,0.058014,0.42975,-0.19933,-0.19831,-0.16704,0.012706,0,0,-0.37778,-0.36583,0,0.29731,0,0,0.14209,-0.019515,0,0.14344,-0.1861,-0.21154,-0.16704,46.151,-0.18823,0.038665,-7.2692e-07,0.6,0.28,0
0.23165,0.05816,0.40453,-0.19623,-0.19424,-0.16209,0.010005,0,0,-0.39946,-0.37616,0,0.23412,0,0,0.13855,-0.017546,0,0.13966,-0.18518,-0.20529,-0.16209,47.843,-0.18419,0.037443,3.2146e-07,0.62,0.28,0
0.22343,0.057603,0.37987,-0.19359,-0.18979,-0.15722,0.0077573,0,0,-0.42548,-0.38103,0,0.18152,0,0,0.13587,-0.015603,0,0.13677,-0.1837,-0.19967,-0.15722,51.88,-0.1802,0.037138,1.0867e-06,0.64,0.28,0
0.21463,0.056511,0.35562,-0.1914,-0.18503,-0.15244,0.0058591,0,0,-0.45585,-0.38125,0,0.1371,0,0,0.13399,-0.013711,0,0.13469,-0.18155,-0.19489,-0.15244,59.275,-0.17629,0.037593,1.6155e-06,0.66,0.28,0
0.20519,0.05502,0.33164,-0.18971,-0.18,-0.14776,0.0042315,0,0,-0.4908,-0.37718,0,0.099016,0,0,0.13281,-0.011868,0,0.13334,-0.17841,-0.19129,-0.14776,69.465,-0.17249,0.038735,1.91e-06,0.68,0.28,0
0.195,0.053234,0.3078,-0.18852,-0.17472,-0.14317,0.002811,0,0,-0.53061,-0.36906,0,0.065777,0,0,0.13228,-0.010062,0,0.13266,-0.17417,-0.18907,-0.14317,78.922,-0.1688,0.040557,1.9315e-06,0.7,0.28,0
0.18397,0.051237,0.28401,-0.18786,-0.1692,-0.13867,0.0015462,0,0,-0.57545,-0.35713,0,0.036182,0,0,0.13237,-0.0082721,0,0.13263,-0.16907,-0.18798,-0.13867,85.295,-0.16524,0.043089,1.6035e-06,0.72,0.28,0
0.17198,0.049099,0.26015,-0.18772,-0.16346,-0.13426,0.00039812,0,0,-0.62547,-0.34166,0,0.009316,0,0,0.13308,-0.0064787,0,0.13323,-0.16345,-0.18773,-0.13426,89.06,-0.16181,0.046368,8.1269e-07,0.74,0.28,0
0.15895,0.046874,0.23611,-0.18811,-0.15754,-0.12993,-0.00065834,0,0,-0.68076,-0.32303,0,-0.015405,0,0,0.13444,-0.0046615,0,0.13453,-0.15752,-0.18813,-0.12993,-88.767,-0.15853,0.050424,-5.8868e-07,0.76,0.28,0
0.14475,0.044613,0.21175,-0.18904,-0.15147,-0.12568,-0.001631,0,0,-0.74128,-0.30172,0,-0.038165,0,0,0.13653,-0.0028045,0,0.13656,-0.1514,-0.18911,-0.12568,-87.519,-0.15539,0.055257,-2.7769e-06,0.78,0.28,0
0.1293,0.04236,0.18695,-0.19046,-0.1453,-0.1215,-0.0025091,0,0,-0.80686,-0.27841,0,-0.058712,0,0,0.13944,-0.00090303,0,0.13945,-0.14516,-0.1906,-0.1215,-86.83,-0.15242,0.060827,-5.9447e-06,0.8,0.28,0
0.11248,0.040162,0.16155,-0.19234,-0.13908,-0.11738,-0.0032671,0,0,-0.87709,-0.25394,0,-0.07645,0,0,0.14326,0.0010217,0,0.14327,-0.13888,-0.19254,-0.11738,-86.503,-0.1496,0.06705,-1.0283e-05,0.82,0.28,0
0.094214,0.038061,0.13538,-0.19461,-0.13287,-0.11329,-0.0038812,0,0,-0.95149,-0.22913,0,-0.090819,0,0,0.14805,0.0028945,0,0.1481,-0.13263,-0.19485,-0.11329,-86.417,-0.14692,0.073821,-1.5979e-05,0.84,0.28,0
0.074421,0.036084,0.10826,-0.19721,-0.12663,-0.10918,-0.004349,0,0,-1.0299,-0.20418,0,-0.10177,0,0,0.15375,0.0045511,0,0.15385,-0.12637,-0.19748,-0.10918,-86.487,-0.14434,0.08108,-2.3284e-05,0.86,0.28,0
0.053017,0.034233,0.080033,-0.20008,-0.12011,-0.10495,-0.0046767,0,0,-1.113,-0.17741,0,-0.10944,0,0,0.16011,0.0057359,0,0.16025,-0.11984,-0.20035,-0.10495,-86.664,-0.14172,0.088898,-3.2696e-05,0.88,0.28,0
0.0299,0.032497,0.05062,-0.20311,-0.1128,-0.1004,-0.0047549,0,0,-1.2017,-0.14512,0,-0.11127,0,0,0.16661,0.0061676,0,0.16676,-0.11255,-0.20336,-0.1004,-86.994,-0.13877,0.097455,-4.5054e-05,0.9,0.28,0
0.0049481,0.030912,0.020052,-0.19982,-0.1653,-0.12068,-0.0033041,0,0,-0.65738,-0.10441,0,-0.056407,0,0,0.18339,0.028397,0,0.18747,-0.15079,-0.21433,-0.12068,-45.653,-0.16193,0.08668,-2.3013e-05,0.92,0.28,0
0.0036048,0.031374,0.016112,-0.20603,-0.26376,-0.15705,-0.00094664,0,0,-0.063681,-0.13872,0,-0.0024613,0,0,0.21892,0.04626,0,0.22491,-0.20602,-0.26377,-0.15705,-0.93933,-0.20895,0.092528,-5.7754e-06,0.94,0.28,0
0.0024008,0.031864,0.011295,-0.20598,-0.29192,-0.16066,-0.00099871,0,0,-0.058913,-0.17063,0,-0.0025967,0,0,0.25727,0.034606,0,0.26008,-0.20597,-0.29193,-0.16066,-0.66577,-0.21952,0.11548,-4.0039e-05,0.96,0.28,0
0.0012483,0.032179,0.0058214,-0.20491,-0.30481,-0.15874,-0.0012777,0,0,-0.060021,-0.1899,0,-0.003322,0,0,0.28237,0.018375,0,0.283,-0.20489,-0.30483,-0.15874,-0.7326,-0.22282,0.12935,-6.5328e-05,0.98,0.28,0
0,0.032279,0,-0.19705,-0.29973,-0.14903,0.0019214,0,0,-0.062415,-0.19591,0,0.0049955,0,0,0.29107,-8.6736e-19,0,0.29095,-0.19701,-0.29977,-0.14903,1.0715,-0.21527,0.13338,-7.0867e-05,1,0.28,0
0,0.058084,1,-0.33039,-1.6238,-1.5863,-7.2574e-05,0,0,1.6326,-0.048842,0,-0.00018869,0,0,0.26161,-1.9104e-16,0,0.2616,-0.33039,-1.6238,-1.5863,-0.0032148,-1.1802,1.2751,0.10616,0,0.3,0
0.032653,0.05808,0.99477,-0.32292,-1.6112,-1.575,-0.0018917,0,0,1.6277,-0.047019,0,-0.0049185,0,0,0.25744,0.0033865,0,0.25749,-0.32291,-1.6112,-1.575,-0.084137,-1.1697,1.2706,0.10505,0.02,0.3,0
0.065108,0.05808,0.9897,-0.32072,-1.5968,-1.565,-0.0029401,0,0,1.6175,-0.041397,0,-0.0076442,0,0,0.24527,0.0063678,0,0.24548,-0.32072,-1.5968,-1.565,-0.13201,-1.1608,1.2605,0.10263,0.04,0.3,0
0.097353,0.058118,0.98496,-0.31773,-1.5776,-1.5536,-0.0026424,0,0,1.6066,-0.0313,0,-0.0068703,0,0,0.22613,0.0084862,0,0.22658,-0.31772,-1.5776,-1.5536,-0.12016,-1.1497,1.2481,0.099722,0.06,0.3,0
0.12937,0.058223,0.98066,-0.31383,-1.5541,-1.541,-0.0012914,0,0,1.5954,-0.017008,0,-0.0033578,0,0,0.20176,0.0092555,0,0.20243,-0.31383,-1.5541,-1.541,-0.059659,-1.1363,1.2338,0.096429,0.08,0.3,0
0.16117,0.058396,0.97689,-0.28419,-0.89814,-0.89741,-0.0001017,0,0,0.81537,-0.0016966,0,-0.0006288,0,0,0.18073,0.0045978,0,0.1811,-0.28419,-0.89814,-0.89741,-0.27955,-0.69325,0.61359,0.047045,0.1,0.3,0
0.16199,0.058562,0.94576,-0.26178,-0.27428,-0.2659,0.00028159,0,0,0.048269,-0.09804,0,0.0065892,0,0,0.17137,-0.0011264,0,0.17138,-0.26177,-0.27429,-0.2659,1.2893,-0.26732,0.011047,-3.802e-08,0.12,0.3,0
0.1631,0.058531,0.91519,-0.25719,-0.27744,-0.26208,0.00071566,0,0,0.057192,-0.17973,0,0.016747,0,0,0.1684,-0.0033895,0,0.16844,-0.25716,-0.27746,-0.26208,2.0216,-0.26557,0.018344,-2.4199e-07,0.14,0.3,0
0.16427,0.058425,0.88513,-0.25343,-0.2786,-0.25795,0.0014632,0,0,0.052982,-0.2415,0,0.034238,0,0,0.16592,-0.0058338,0,0.16602,-0.25334,-0.27868,-0.25795,3.3158,-0.26333,0.023377,-5.7092e-07,0.16,0.3,0
0.16522,0.058312,0.85546,-0.25067,-0.2778,-0.25359,0.0023805,0,0,0.034163,-0.2832,0,0.055705,0,0,0.1642,-0.0083929,0,0.16442,-0.25046,-0.278,-0.25359,4.9777,-0.26069,0.026117,-8.7083e-07,0.18,0.3,0
0.16564,0.058233,0.82602,-0.24891,-0.27531,-0.24905,0.0034358,0,0,0.0015483,-0.30728,0,0.080399,0,0,0.16347,-0.010986,0,0.16383,-0.24848,-0.27575,-0.24905,7.2962,-0.25776,0.026994,-1.0087e-06,0.2,0.3,0
0.16528,0.058234,0.79661,-0.24807,-0.27142,-0.24436,0.0046855,0,0,-0.043432,-0.31656,0,0.10964,0,0,0.16383,-0.013531,0,0.16439,-0.24716,-0.27232,-0.24436,10.936,-0.25461,0.02667,-9.3798e-07,0.22,0.3,0
0.1639,0.058391,0.76704,-0.24806,-0.26626,-0.23952,0.0062279,0,0,-0.099882,-0.31283,0,0.14573,0,0,0.16532,-0.015945,0,0.16609,-0.24613,-0.26819,-0.23952,17.193,-0.25128,0.025998,-7.0964e-07,0.24,0.3,0
0.16129,0.058805,0.7371,-0.24885,-0.25982,-0.2345,0.0081539,0,0,-0.16787,-0.29628,0,0.1908,0,0,0.16787,-0.018142,0,0.16886,-0.24451,-0.26417,-0.2345,28.031,-0.24773,0.026139,-4.8484e-07,0.26,0.3,0
0.15719,0.059601,0.70661,-0.25044,-0.25193,-0.22922,0.010493,0,0,-0.24821,-0.26568,0,0.24555,0,0,0.17129,-0.020037,0,0.17247,-0.24066,-0.2617,-0.22922,42.966,-0.24386,0.028536,-5.7947e-07,0.28,0.3,0
0.15136,0.060887,0.67543,-0.25276,-0.24233,-0.22357,0.013159,0,0,-0.34145,-0.21946,0,0.30792,0,0,0.17529,-0.021553,0,0.17663,-0.23339,-0.2617,-0.22357,55.806,-0.23955,0.034287,-1.5124e-06,0.3,0.3,0
0.14353,0.062717,0.6435,-0.25561,-0.23094,-0.21746,0.015909,0,0,-0.44626,-0.1577,0,0.37227,0,0,0.17948,-0.022648,0,0.18091,-0.22315,-0.2634,-0.21746,63.89,-0.23467,0.043378,-3.9506e-06,0.32,0.3,0
0.13351,0.065037,0.61082,-0.26909,-0.65178,-0.6156,0.023593,0,0,0.22771,-0.084651,0,0.24914,0,0,0.19068,-0.11671,0,0.23661,-0.24698,-0.67389,-0.6156,34.688,-0.51216,0.41135,0.011526,0.34,0.3,0
0.15264,0.060421,0.60682,-0.28381,-1.0889,-1.0186,0.04578,0,0,0.95527,-0.091335,0,0.11903,0,0,0.21473,-0.20924,0,0.3002,-0.28122,-1.0915,-1.0186,3.2441,-0.79711,0.77641,0.023326,0.36,0.3,0
0.17172,0.05678,0.60223,-0.28164,-1.0938,-1.0149,0.068491,0,0,0.95319,-0.10263,0,0.17808,0,0,0.24112,-0.20599,0,0.31734,-0.27591,-1.0996,-1.0149,4.7867,-0.79677,0.78473,0.023848,0.38,0.3,0
0.19077,0.05386,0.59718,-0.27712,-1.094,-1.0085,0.084565,0,0,0.95081,-0.11112,0,0.21987,0,0,0.25881,-0.20111,0,0.32781,-0.26845,-1.1026,-1.0085,5.8488,-0.7932,0.79133,0.024241,0.4,0.3,0
0.20975,0.05135,0.59188,-0.27174,-1.0866,-0.99937,0.092603,0,0,0.94591,-0.11335,0,0.24077,0,0,0.26493,-0.19555,0,0.32926,-0.26135,-1.097,-0.99937,6.4028,-0.78589,0.79134,0.024151,0.42,0.3,0
0.2286,0.048883,0.58658,-0.26642,-1.0698,-0.98746,0.091343,0,0,0.93735,-0.1071,0,0.23749,0,0,0.25788,-0.19019,0,0.32049,-0.25617,-1.0801,-0.98746,6.4051,-0.77458,0.78174,0.023379,0.44,0.3,0
0.24724,0.046039,0.58156,-0.26161,-1.0419,-0.97262,0.079768,0,0,0.92432,-0.090092,0,0.2074,0,0,0.23778,-0.1857,0,0.302,-0.25354,-1.05,-0.97262,5.7775,-0.75872,0.76073,0.021824,0.46,0.3,0
0.26558,0.04237,0.57707,-0.25645,-1.0027,-0.95481,0.057452,0,0,0.90787,-0.062244,0,0.14938,0,0,0.20681,-0.1825,0,0.27642,-0.25205,-1.0071,-0.95481,4.3767,-0.73798,0.7303,0.019659,0.48,0.3,0
0.28356,0.03743,0.57329,-0.23241,-0.5732,-0.56017,0.033328,0,0,0.23842,-0.030472,0,0.3521,0,0,0.17795,-0.10043,0,0.21504,-0.20759,-0.59801,-0.56017,32.457,-0.45526,0.38177,0.0090397,0.5,0.3,0
0.27511,0.042297,0.54325,-0.22077,-0.19754,-0.18585,0.023002,0,0,-0.40853,-0.13672,0,0.53825,0,0,0.16417,-0.019164,0,0.16531,-0.18339,-0.23492,-0.18585,58.397,-0.20139,0.050349,-6.5023e-06,0.52,0.3,0
0.26722,0.046127,0.51419,-0.21481,-0.20021,-0.18164,0.019219,0,0,-0.38813,-0.21728,0,0.44973,0,0,0.1586,-0.018313,0,0.15969,-0.18695,-0.22807,-0.18164,55.401,-0.19889,0.044016,-4.1655e-06,0.54,0.3,0
0.25959,0.04881,0.48615,-0.20958,-0.20028,-0.17697,0.015498,0,0,-0.38149,-0.27266,0,0.36265,0,0,0.15303,-0.017454,0,0.15404,-0.18875,-0.22111,-0.17697,53.352,-0.19561,0.039584,-2.2612e-06,0.56,0.3,0
0.25196,0.050403,0.4591,-0.20514,-0.19853,-0.17211,0.012191,0,0,-0.38643,-0.30906,0,0.28528,0,0,0.14792,-0.016539,0,0.14886,-0.1892,-0.21446,-0.17211,52.587,-0.19193,0.036907,-8.4368e-07,0.58,0.3,0
0.24413,0.051057,0.4329,-0.20137,-0.19564,-0.1672,0.0094305,0,0,-0.39974,-0.33275,0,0.22067,0,0,0.14356,-0.015551,0,0.14442,-0.18865,-0.20836,-0.1672,53.443,-0.18807,0.035654,1.6992e-07,0.6,0.3,0
0.23597,0.050951,0.40741,-0.19816,-0.19207,-0.16234,0.0072019,0,0,-0.41915,-0.34785,0,0.16852,0,0,0.14006,-0.014492,0,0.14082,-0.1873,-0.20294,-0.16234,56.466,-0.18419,0.035466,8.822e-07,0.62,0.3,0
0.22736,0.050261,0.38248,-0.19546,-0.18801,-0.15754,0.0054298,0,0,-0.44368,-0.3565,0,0.12706,0,0,0.1374,-0.013376,0,0.13805,-0.18515,-0.19832,-0.15754,62.228,-0.18033,0.036048,1.3683e-06,0.64,0.3,0
0.21822,0.049137,0.35795,-0.19325,-0.18356,-0.15282,0.0040254,0,0,-0.47311,-0.3597,0,0.094194,0,0,0.1355,-0.012219,0,0.13606,-0.18211,-0.19471,-0.15282,70.145,-0.17654,0.037226,1.6623e-06,0.66,0.3,0
0.20844,0.047704,0.3337,-0.19155,-0.17877,-0.14817,0.0029075,0,0,-0.50754,-0.35795,0,0.068035,0,0,0.13432,-0.011037,0,0.13477,-0.17814,-0.19218,-0.14817,77.772,-0.17283,0.038936,1.7556e-06,0.68,0.3,0
0.19792,0.046062,0.3096,-0.19037,-0.17367,-0.14361,0.0020079,0,0,-0.54712,-0.35163,0,0.046985,0,0,0.13378,-0.0098443,0,0.13414,-0.17343,-0.19061,-0.14361,83.243,-0.16922,0.041191,1.5993e-06,0.7,0.3,0
0.18655,0.044291,0.28554,-0.18972,-0.16828,-0.13913,0.0012722,0,0,-0.59198,-0.34107,0,0.029769,0,0,0.13386,-0.0086553,0,0.13414,-0.1682,-0.1898,-0.13913,86.617,-0.16571,0.044042,1.1072e-06,0.72,0.3,0
0.17424,0.042452,0.26141,-0.1896,-0.16264,-0.13472,0.0006582,0,0,-0.64216,-0.32668,0,0.015402,0,0,0.13456,-0.0074826,0,0.13477,-0.16262,-0.18962,-0.13472,88.603,-0.16232,0.047549,1.5817e-07,0.74,0.3,0
0.16087,0.040591,0.2371,-0.19001,-0.15679,-0.13039,0.00013536,0,0,-0.69764,-0.30895,0,0.0031674,0,0,0.13592,-0.006339,0,0.13607,-0.15679,-0.19001,-0.13039,89.767,-0.15906,0.051752,-1.3986e-06,0.76,0.3,0
0.14633,0.038745,0.21248,-0.19093,-0.15078,-0.12612,-0.00031667,0,0,-0.75824,-0.28854,0,-0.00741,0,0,0.13801,-0.0052384,0,0.13811,-0.15078,-0.19093,-0.12612,-89.548,-0.15595,0.056659,-3.7358e-06,0.78,0.3,0
0.13054,0.036944,0.18741,-0.19232,-0.14469,-0.12193,-0.00070902,0,0,-0.82361,-0.2663,0,-0.016591,0,0,0.14089,-0.0041948,0,0.14096,-0.14467,-0.19233,-0.12193,-89.147,-0.15298,0.06223,-7.0335e-06,0.8,0.3,0
0.11339,0.035216,0.16176,-0.19412,-0.13856,-0.11778,-0.0010447,0,0,-0.89318,-0.2432,0,-0.024445,0,0,0.14465,-0.0032235,0,0.14471,-0.13854,-0.19414,-0.11778,-88.923,-0.15015,0.068383,-1.1462e-05,0.82,0.3,0
0.094812,0.033584,0.13534,-0.19625,-0.13246,-0.11365,-0.0013189,0,0,-0.96643,-0.2201,0,-0.030861,0,0,0.14932,-0.0023387,0,0.14936,-0.13244,-0.19628,-0.11365,-88.816,-0.14746,0.075021,-1.7188e-05,0.84,0.3,0
0.074733,0.032078,0.108,-0.19866,-0.12633,-0.1095,-0.0015179,0,0,-1.0432,-0.19697,0,-0.035518,0,0,0.15479,-0.0015523,0,0.15483,-0.1263,-0.19869,-0.1095,-88.798,-0.14483,0.082092,-2.4449e-05,0.86,0.3,0
0.053083,0.030733,0.079614,-0.20127,-0.11993,-0.10521,-0.0016167,0,0,-1.1239,-0.17227,0,-0.03783,0,0,0.1608,-0.00087039,0,0.16083,-0.1199,-0.2013,-0.10521,-88.862,-0.14213,0.089656,-3.3687e-05,0.88,0.3,0
0.029776,0.029595,0.050114,-0.20391,-0.11283,-0.10059,-0.0015768,0,0,-1.2089,-0.14317,0,-0.036898,0,0,0.16686,-0.00029007,0,0.16689,-0.1128,-0.20394,-0.10059,-89.008,-0.13911,0.097818,-4.5556e-05,0.9,0.3,0
0.0047288,0.028725,0.019544,-0.20058,-0.16768,-0.12133,-0.0016698,0,0,-0.65962,-0.10845,0,-0.022225,0,0,0.1823,0.0010114,0,0.18302,-0.15163,-0.21662,-0.12133,-45.943,-0.1632,0.087858,-2.3261e-05,0.92,0.3,0
0.0033914,0.028576,0.015648,-0.20437,-0.2633,-0.15595,-0.0021931,0,0,-0.062945,-0.13955,0,-0.005702,0,0,0.21498,0.001993,0,0.21604,-0.20429,-0.26338,-0.15595,-2.1284,-0.20787,0.093193,-7.164e-06,0.94,0.3,0
0.002211,0.028428,0.010944,-0.20263,-0.29142,-0.15916,-0.0021569,0,0,-0.056513,-0.17194,0,-0.0056079,0,0,0.25035,0.0016533,0,0.25085,-0.20258,-0.29147,-0.15916,-1.3907,-0.21774,0.11682,-4.5398e-05,0.96,0.3,0
0.0011309,0.028321,0.0056342,-0.20004,-0.30625,-0.15752,-0.0013048,0,0,-0.055275,-0.19335,0,-0.0033926,0,0,0.27361,0.00092955,0,0.27373,-0.20003,-0.30627,-0.15752,-0.70376,-0.22127,0.1327,-7.9822e-05,0.98,0.3,0
0,0.028282,0,-0.19173,-0.30239,-0.14824,-0.00075024,0,0,-0.056543,-0.2004,0,-0.0019506,0,0,0.28171,-1.7347e-18,0,0.28169,-0.19173,-0.3024,-0.14824,-0.38842,-0.21412,0.13767,-9.0302e-05,1,0.3,0
0,0.057145,1,-0.33867,-1.6198,-1.5876,0.00049629,0,0,1.6236,-0.041964,0,0.0012904,0,0,0.26928,1.9516e-16,0,0.26922,-0.33867,-1.6198,-1.5876,0.022195,-1.182,1.2653,0.10382,0,0.32,0
0.032471,0.057171,0.99461,-0.33031,-1.6077,-1.576,-0.0043406,0,0,1.6194,-0.041202,0,-0.011286,0,0,0.26474,0.012296,0,0.26501,-0.33029,-1.6077,-1.576,-0.19468,-1.1713,1.2619,0.10298,0.02,0.32,0
0.064777,0.057265,0.98941,-0.32632,-1.5955,-1.566,-0.007132,0,0,1.6115,-0.038415,0,-0.018543,0,0,0.25142,0.023592,0,0.25264,-0.32628,-1.5956,-1.566,-0.32195,-1.1626,1.2547,0.10127,0.04,0.32,0
0.096932,0.057483,0.98456,-0.32102,-1.5789,-1.5545,-0.0074151,0,0,1.6036,-0.031666,0,-0.019279,0,0,0.2303,0.032692,0,0.23293,-0.32098,-1.5789,-1.5545,-0.33774,-1.1515,1.2459,0.099209,0.06,0.32,0
0.12892,0.057861,0.9802,-0.31505,-1.5564,-1.5416,-0.0061756,0,0,1.5946,-0.019218,0,-0.016057,0,0,0.20317,0.038255,0,0.2073,-0.31501,-1.5564,-1.5416,-0.28503,-1.1377,1.2341,0.096486,0.08,0.32,0
0.16071,0.058346,0.97643,-0.28303,-0.89775,-0.8967,-0.0055745,0,0,0.82082,-0.0024687,0,-0.072223,0,0,0.17964,0.02174,0,0.18202,-0.28117,-0.89961,-0.8967,-16.955,-0.69249,0.61726,0.047078,0.1,0.32,0
0.16175,0.056523,0.94567,-0.26029,-0.27504,-0.26567,-0.0049821,0,0,0.063003,-0.10962,0,-0.11658,0,0,0.16914,0.0023351,0,0.16916,-0.25876,-0.27657,-0.26567,-17.017,-0.267,0.015546,-7.2555e-08,0.12,0.32,0
0.16323,0.054823,0.91554,-0.25532,-0.27879,-0.26196,-0.0035822,0,0,0.077699,-0.1969,0,-0.083823,0,0,0.1658,-0.00029214,0,0.1658,-0.25478,-0.27932,-0.26196,-8.4877,-0.26535,0.021853,-3.4767e-07,0.14,0.32,0
0.16486,0.053469,0.88598,-0.25136,-0.2801,-0.25788,-0.0016658,0,0,0.076275,-0.25999,0,-0.038979,0,0,0.16302,-0.0034583,0,0.16306,-0.25127,-0.2802,-0.25788,-3.3061,-0.26312,0.026258,-7.3461e-07,0.16,0.32,0
0.16629,0.052519,0.85685,-0.24855,-0.2793,-0.25356,0.00035441,0,0,0.058647,-0.30115,0,0.0082931,0,0,0.16112,-0.0070093,0,0.16127,-0.24854,-0.2793,-0.25356,0.6602,-0.26047,0.028584,-1.076e-06,0.18,0.32,0
0.16721,0.051952,0.82798,-0.24677,-0.27685,-0.24908,0.0023535,0,0,0.027067,-0.32489,0,0.055073,0,0,0.16033,-0.010762,0,0.16069,-0.24659,-0.27704,-0.24908,4.4467,-0.25757,0.029279,-1.2576e-06,0.2,0.32,0
0.16737,0.051752,0.79913,-0.24588,-0.27314,-0.2445,0.0044132,0,0,-0.016174,-0.33509,0,0.10327,0,0,0.16077,-0.01454,0,0.16142,-0.24518,-0.27383,-0.2445,8.9715,-0.25451,0.029,-1.2502e-06,0.22,0.32,0
0.16656,0.051955,0.7701,-0.24577,-0.26833,-0.2398,0.0067054,0,0,-0.069895,-0.33382,0,0.15691,0,0,0.16247,-0.018172,0,0.16348,-0.24393,-0.27017,-0.2398,15.366,-0.2513,0.028534,-1.1094e-06,0.24,0.32,0
0.16457,0.052664,0.74064,-0.24642,-0.26237,-0.23493,0.0094018,0,0,-0.13444,-0.32104,0,0.22,0,0,0.16537,-0.021475,0,0.16676,-0.24207,-0.26672,-0.23493,24.848,-0.24791,0.028893,-9.8869e-07,0.26,0.32,0
0.16118,0.054032,0.71056,-0.24789,-0.25498,-0.22981,0.012582,0,0,-0.21149,-0.29445,0,0.29443,0,0,0.16928,-0.024238,0,0.17102,-0.23836,-0.2645,-0.22981,37.132,-0.24422,0.031307,-1.1888e-06,0.28,0.32,0
0.15611,0.056216,0.6797,-0.2502,-0.24568,-0.22429,0.016108,0,0,-0.30316,-0.25032,0,0.37692,0,0,0.17388,-0.026246,0,0.17587,-0.23167,-0.2642,-0.22429,48.99,-0.24005,0.036785,-2.2128e-06,0.3,0.32,0
0.14906,0.059285,0.64797,-0.2532,-0.23407,-0.21818,0.019511,0,0,-0.4098,-0.1859,0,0.45656,0,0,0.17872,-0.027332,0,0.18081,-0.2219,-0.26537,-0.21818,58.062,-0.23515,0.04544,-4.7097e-06,0.32,0.32,0
0.13972,0.063109,0.61536,-0.26732,-0.66634,-0.62197,0.026176,0,0,0.25362,-0.10384,0,0.29311,0,0,0.19164,-0.13725,0,0.25133,-0.24569,-0.68798,-0.62197,32.465,-0.51855,0.42305,0.012398,0.34,0.32,0
0.1592,0.058402,0.61132,-0.28351,-1.1141,-1.0306,0.045373,0,0,0.9712,-0.10851,0,0.11797,0,0,0.21934,-0.24289,0,0.32772,-0.28104,-1.1165,-1.0306,3.1177,-0.80939,0.79601,0.024889,0.36,0.32,0
0.17857,0.054588,0.60659,-0.28292,-1.1136,-1.0256,0.066232,0,0,0.96543,-0.11451,0,0.1722,0,0,0.24968,-0.23179,0,0.3409,-0.27767,-1.1189,-1.0256,4.53,-0.80737,0.79865,0.024963,0.38,0.32,0
0.19782,0.051567,0.60133,-0.2801,-1.1058,-1.0171,0.081168,0,0,0.95808,-0.11526,0,0.21104,0,0,0.27002,-0.21541,0,0.34541,-0.2722,-1.1137,-1.0171,5.5617,-0.80098,0.79757,0.024774,0.4,0.32,0
0.21689,0.049093,0.59579,-0.27608,-1.0893,-1.0054,0.08783,0,0,0.94813,-0.10908,0,0.22836,0,0,0.27726,-0.19581,0,0.33932,-0.2667,-1.0987,-1.0054,6.0943,-0.79027,0.7895,0.024088,0.42,0.32,0
0.23574,0.046844,0.59024,-0.27135,-1.0635,-0.99069,0.085807,0,0,0.93514,-0.094626,0,0.2231,0,0,0.26969,-0.17536,0,0.32166,-0.26216,-1.0727,-0.99069,6.1121,-0.77518,0.77279,0.022806,0.44,0.32,0
0.2543,0.044443,0.585,-0.2666,-1.026,-0.97278,0.07479,0,0,0.91803,-0.069176,0,0.19445,0,0,0.24744,-0.15672,0,0.29319,-0.25931,-1.0333,-0.97278,5.5716,-0.75512,0.74557,0.020814,0.46,0.32,0
0.27246,0.041435,0.58034,-0.26112,-0.97526,-0.95126,0.052918,0,0,0.89718,-0.031205,0,0.13759,0,0,0.2129,-0.14286,0,0.25718,-0.25722,-0.97916,-0.95126,4.2149,-0.72921,0.70841,0.018163,0.48,0.32,0
0.29019,0.037219,0.57649,-0.23476,-0.55054,-0.55586,0.027094,0,0,0.21243,0.012453,0,0.26726,0,0,0.18066,-0.075731,0,0.20303,-0.20986,-0.57544,-0.55586,35.73,-0.44705,0.36566,0.0080549,0.5,0.32,0
0.28096,0.040026,0.54619,-0.22437,-0.19418,-0.18625,0.016409,0,0,-0.44601,-0.092711,0,0.38398,0,0,0.16538,-0.013255,0,0.16593,-0.18698,-0.23157,-0.18625,66.309,-0.2016,0.044963,-4.6646e-06,0.52,0.32,0
0.27235,0.042247,0.51695,-0.21791,-0.19679,-0.18185,0.013456,0,0,-0.42192,-0.17483,0,0.31488,0,0,0.15943,-0.012235,0,0.15993,-0.19025,-0.22446,-0.18185,64.061,-0.19885,0.039091,-2.597e-06,0.54,0.32,0
0.26408,0.04378,0.48879,-0.21218,-0.19714,-0.17711,0.01063,0,0,-0.4104,-0.23437,0,0.24875,0,0,0.15364,-0.011832,0,0.15412,-0.19164,-0.21768,-0.17711,62.642,-0.19548,0.035609,-1.0855e-06,0.56,0.32,0
0.25593,0.044585,0.46164,-0.20728,-0.19586,-0.17223,0.0080738,0,0,-0.41002,-0.2764,0,0.18893,0,0,0.14846,-0.011725,0,0.14894,-0.19168,-0.21146,-0.17223,62.635,-0.19179,0.033969,-2.9616e-08,0.58,0.32,0
0.24768,0.044705,0.43535,-0.20313,-0.19351,-0.16737,0.005934,0,0,-0.41847,-0.30591,0,0.13886,0,0,0.14414,-0.01166,0,0.14463,-0.19068,-0.20596,-0.16737,64.515,-0.188,0.033666,6.887e-07,0.6,0.32,0
0.23919,0.044246,0.40975,-0.19964,-0.19042,-0.16254,0.0042612,0,0,-0.43402,-0.3261,0,0.099711,0,0,0.14072,-0.011496,0,0.1412,-0.18875,-0.20131,-0.16254,68.632,-0.1842,0.034256,1.1684e-06,0.62,0.32,0
0.23032,0.043343,0.38469,-0.19675,-0.18675,-0.15779,0.0030242,0,0,-0.45579,-0.33881,0,0.070767,0,0,0.13814,-0.01119,0,0.1386,-0.18591,-0.19759,-0.15779,74.413,-0.18043,0.035433,1.4753e-06,0.64,0.32,0
0.22096,0.042124,0.36002,-0.19443,-0.18261,-0.15312,0.0021515,0,0,-0.48338,-0.34515,0,0.050345,0,0,0.13633,-0.010751,0,0.13675,-0.18224,-0.19481,-0.15312,79.994,-0.17672,0.037044,1.6329e-06,0.66,0.32,0
0.21099,0.040702,0.33561,-0.19267,-0.17807,-0.14851,0.0015659,0,0,-0.51663,-0.3458,0,0.036641,0,0,0.13519,-0.010215,0,0.13557,-0.1779,-0.19283,-0.14851,83.947,-0.17308,0.039059,1.6216e-06,0.68,0.32,0
0.20029,0.039168,0.31135,-0.19145,-0.17314,-0.14397,0.0011996,0,0,-0.55546,-0.34131,0,0.028071,0,0,0.13466,-0.0096234,0,0.13501,-0.17306,-0.19153,-0.14397,86.266,-0.16952,0.041524,1.3817e-06,0.7,0.32,0
0.18877,0.037594,0.28713,-0.19077,-0.16789,-0.1395,0.00099833,0,0,-0.59982,-0.33218,0,0.023361,0,0,0.13473,-0.0090222,0,0.13503,-0.16785,-0.19081,-0.1395,87.506,-0.16606,0.044518,8.182e-07,0.72,0.32,0
0.1763,0.036032,0.26285,-0.19063,-0.16236,-0.1351,0.00091935,0,0,-0.64967,-0.3189,0,0.021513,0,0,0.13539,-0.0084573,0,0.13566,-0.16233,-0.19066,-0.1351,88.139,-0.1627,0.048117,-1.9694e-07,0.74,0.32,0
0.16278,0.034516,0.23839,-0.19102,-0.15658,-0.13077,0.00092786,0,0,-0.70493,-0.30204,0,0.021712,0,0,0.13669,-0.0079741,0,0.13692,-0.15656,-0.19104,-0.13077,88.458,-0.15946,0.052381,-1.8211e-06,0.76,0.32,0
0.1481,0.033071,0.21364,-0.19193,-0.15063,-0.12651,0.00099244,0,0,-0.76548,-0.28227,0,0.023223,0,0,0.13868,-0.0076153,0,0.13889,-0.15061,-0.19196,-0.12651,88.624,-0.15636,0.057333,-4.2355e-06,0.78,0.32,0
0.13216,0.031709,0.18846,-0.19334,-0.14457,-0.12231,0.0010815,0,0,-0.83103,-0.26041,0,0.025308,0,0,0.14145,-0.0074145,0,0.14166,-0.14455,-0.19337,-0.12231,88.73,-0.15341,0.062953,-7.6346e-06,0.8,0.32,0
0.11486,0.030434,0.16271,-0.1952,-0.13847,-0.11818,0.0011651,0,0,-0.90115,-0.2374,0,0.027263,0,0,0.14511,-0.0073813,0,0.14531,-0.13845,-0.19523,-0.11818,88.824,-0.15062,0.069176,-1.2211e-05,0.82,0.32,0
0.096117,0.029257,0.13622,-0.19744,-0.13239,-0.11409,0.001229,0,0,-0.97529,-0.21415,0,0.02876,0,0,0.14972,-0.0074716,0,0.14992,-0.13237,-0.19747,-0.11409,88.918,-0.14797,0.07591,-1.8149e-05,0.84,0.32,0
0.075851,0.028205,0.10882,-0.20001,-0.12631,-0.10999,0.0012957,0,0,-1.0533,-0.19101,0,0.030319,0,0,0.15521,-0.0075481,0,0.15543,-0.12629,-0.20003,-0.10999,88.993,-0.14544,0.0831,-2.5691e-05,0.86,0.32,0
0.053987,0.027342,0.080346,-0.20283,-0.12001,-0.10578,0.0014172,0,0,-1.1355,-0.16652,0,0.033161,0,0,0.16137,-0.0073712,0,0.16157,-0.11999,-0.20285,-0.10578,89.02,-0.14287,0.090807,-3.5305e-05,0.88,0.32,0
0.030432,0.02677,0.050724,-0.20578,-0.11301,-0.10127,0.0015572,0,0,-1.2227,-0.13731,0,0.036439,0,0,0.16769,-0.0066561,0,0.16785,-0.11298,-0.2058,-0.10127,89.039,-0.14002,0.099197,-4.7786e-05,0.9,0.32,0
0.0050785,0.026574,0.019979,-0.20209,-0.16393,-0.12091,-0.00012553,0,0,-0.66895,-0.10069,0,0.01112,0,0,0.18406,-0.02604,0,0.18758,-0.15217,-0.21385,-0.12091,43.039,-0.16231,0.086583,-2.3315e-05,0.92,0.32,0
0.003674,0.025792,0.016033,-0.20829,-0.26288,-0.15738,-0.003586,0,0,-0.066178,-0.13714,0,-0.0093235,0,0,0.21875,-0.041739,0,0.22381,-0.20805,-0.26311,-0.15738,-3.7423,-0.20952,0.091592,-2.8334e-06,0.94,0.32,0
0.0024314,0.024987,0.011229,-0.20803,-0.29314,-0.16158,-0.0034176,0,0,-0.060385,-0.17103,0,-0.0088857,0,0,0.25621,-0.030898,0,0.25854,-0.20789,-0.29328,-0.16158,-2.2958,-0.22092,0.11571,-3.8772e-05,0.96,0.32,0
0.0012586,0.024445,0.0057842,-0.20677,-0.30732,-0.16001,-0.0013674,0,0,-0.060784,-0.1915,0,-0.0035553,0,0,0.28071,-0.0163,0,0.28123,-0.20675,-0.30734,-0.16001,-0.77897,-0.2247,0.1304,-6.6538e-05,0.98,0.32,0
0,0.024263,0,-0.19889,-0.30272,-0.15048,-0.0035025,0,0,-0.062931,-0.1979,0,-0.0091066,0,0,0.28921,3.4694e-18,0,0.28911,-0.19877,-0.30283,-0.15048,-1.9299,-0.21736,0.13486,-7.3683e-05,1,0.32,0
0,0.056405,1,-0.35667,-1.6118,-1.5905,0.00051388,0,0,1.604,-0.027654,0,0.0013361,0,0,0.2862,6.0195e-16,0,0.28605,-0.35667,-1.6118,-1.5905,0.023458,-1.1863,1.2447,0.098933,0,0.34,0
0.032081,0.056432,0.99428,-0.34661,-1.6005,-1.5784,-0.0087694,0,0,1.6013,-0.028717,0,-0.022801,0,0,0.28103,0.02211,0,0.2818,-0.34655,-1.6006,-1.5784,-0.40069,-1.1752,1.2431,0.098551,0.02,0.34,0
0.064054,0.056544,0.98876,-0.33912,-1.5919,-1.5681,-0.014933,0,0,1.5976,-0.03099,0,-0.038826,0,0,0.26566,0.042914,0,0.26918,-0.33894,-1.5921,-1.5681,-0.68283,-1.1664,1.2413,0.098111,0.04,0.34,0
0.095986,0.056851,0.98365,-0.32936,-1.5803,-1.5565,-0.016451,0,0,1.5953,-0.030845,0,-0.042773,0,0,0.24079,0.060481,0,0.24865,-0.32914,-1.5805,-1.5565,-0.75335,-1.1554,1.2395,0.097693,0.06,0.34,0
0.12787,0.057454,0.97913,-0.3193,-1.5602,-1.543,-0.014308,0,0,1.5908,-0.022384,0,-0.0372,0,0,0.2082,0.072182,0,0.22111,-0.31913,-1.5604,-1.543,-0.66052,-1.1408,1.2326,0.096123,0.08,0.34,0
0.15962,0.058298,0.97532,-0.2823,-0.89659,-0.89551,-0.012664,0,0,0.82447,-0.0025211,0,-0.15854,0,0,0.1796,0.041966,0,0.18735,-0.27741,-0.90149,-0.89551,-19.623,-0.69147,0.62198,0.046901,0.1,0.34,0
0.16085,0.054178,0.94492,-0.25899,-0.277,-0.26579,-0.010999,0,0,0.079569,-0.13119,0,-0.25738,0,0,0.16673,0.0064549,0,0.16687,-0.25377,-0.28221,-0.26579,-25.344,-0.26726,0.024722,-2.0552e-07,0.12,0.34,0
0.1628,0.050655,0.9153,-0.25323,-0.28161,-0.26215,-0.0082198,0,0,0.10433,-0.22762,0,-0.19234,0,0,0.16261,0.003373,0,0.16265,-0.25103,-0.28382,-0.26215,-15.044,-0.26566,0.028882,-6.4716e-07,0.14,0.34,0
0.16502,0.048026,0.88638,-0.24892,-0.28291,-0.25804,-0.0048657,0,0,0.10668,-0.29106,0,-0.11386,0,0,0.1592,-0.000692,0,0.1592,-0.24824,-0.2836,-0.25804,-7.9872,-0.26329,0.031621,-1.1134e-06,0.16,0.34,0
0.16707,0.046266,0.85798,-0.24601,-0.28184,-0.25369,-0.0016562,0,0,0.089782,-0.32935,0,-0.038755,0,0,0.1569,-0.0054298,0,0.15698,-0.24594,-0.28191,-0.25369,-2.6414,-0.26051,0.032795,-1.4762e-06,0.18,0.34,0
0.16861,0.045237,0.82989,-0.24426,-0.27924,-0.24926,0.0012761,0,0,0.05852,-0.35074,0,0.029861,0,0,0.15594,-0.010519,0,0.15628,-0.24421,-0.27928,-0.24926,2.0866,-0.25758,0.032841,-1.6751e-06,0.2,0.34,0
0.16941,0.044831,0.80185,-0.24338,-0.2756,-0.24479,0.0041017,0,0,0.016453,-0.36047,0,0.09598,0,0,0.15642,-0.015691,0,0.1572,-0.24287,-0.27611,-0.24479,7.1431,-0.25459,0.032326,-1.7144e-06,0.22,0.34,0
0.16927,0.045038,0.77358,-0.24325,-0.27111,-0.24026,0.0070957,0,0,-0.03498,-0.36095,0,0.16604,0,0,0.15839,-0.020717,0,0.15973,-0.24155,-0.27282,-0.24026,13.497,-0.25154,0.03193,-1.6627e-06,0.24,0.34,0
0.16801,0.045964,0.74483,-0.24387,-0.26571,-0.23564,0.010538,0,0,-0.096393,-0.35192,0,0.24659,0,0,0.16181,-0.025338,0,0.16378,-0.23962,-0.26997,-0.23564,21.99,-0.24841,0.032526,-1.6783e-06,0.26,0.34,0
0.16541,0.047823,0.71533,-0.24539,-0.25901,-0.2308,0.014619,0,0,-0.17073,-0.33001,0,0.34209,0,0,0.16652,-0.029209,0,0.16908,-0.23608,-0.26833,-0.2308,32.517,-0.24507,0.035186,-2.0691e-06,0.28,0.34,0
0.16118,0.050874,0.68488,-0.24801,-0.25016,-0.22555,0.019243,0,0,-0.2628,-0.28793,0,0.45028,0,0,0.1722,-0.031908,0,0.17516,-0.22981,-0.26836,-0.22555,43.403,-0.24124,0.040844,-3.3713e-06,0.3,0.34,0
0.1549,0.055281,0.65334,-0.25173,-0.23809,-0.21954,0.023703,0,0,-0.37663,-0.21702,0,0.55464,0,0,0.17827,-0.033046,0,0.18134,-0.22024,-0.26957,-0.21954,53.027,-0.23645,0.049685,-6.2953e-06,0.32,0.34,0
0.14611,0.060883,0.6207,-0.26672,-0.67724,-0.62802,0.030202,0,0,0.27444,-0.11516,0,0.34945,0,0,0.19471,-0.16231,0,0.2716,-0.24435,-0.69961,-0.62802,30.658,-0.52399,0.43331,0.013091,0.34,0.34,0
0.16588,0.05608,0.61654,-0.28845,-1.1388,-1.0447,0.048222,0,0,0.98314,-0.12231,0,0.12538,0,0,0.22998,-0.2838,0,0.36591,-0.28572,-1.1415,-1.0447,3.2353,-0.82399,0.81174,0.026158,0.36,0.34,0
0.18544,0.052199,0.6115,-0.29252,-1.1329,-1.0391,0.068542,0,0,0.9706,-0.12193,0,0.17821,0,0,0.2686,-0.26301,0,0.37616,-0.28696,-1.1385,-1.0391,4.6321,-0.82153,0.80645,0.025564,0.38,0.34,0
0.2047,0.049249,0.60579,-0.29457,-1.1146,-1.0286,0.081631,0,0,0.95416,-0.11187,0,0.21224,0,0,0.29479,-0.23291,0,0.37557,-0.28653,-1.1226,-1.0286,5.63,-0.81257,0.79327,0.024426,0.4,0.34,0
0.22361,0.046987,0.59971,-0.29331,-1.0876,-1.014,0.084594,0,0,0.93688,-0.095714,0,0.21994,0,0,0.30498,-0.19707,0,0.36278,-0.2844,-1.0965,-1.014,6.0122,-0.7983,0.77416,0.022919,0.42,0.34,0
0.24218,0.045097,0.59359,-0.28823,-1.0543,-0.99636,0.078806,0,0,0.92058,-0.075362,0,0.2049,0,0,0.29697,-0.15888,0,0.33655,-0.28021,-1.0624,-0.99636,5.8127,-0.77964,0.75133,0.021217,0.44,0.34,0
0.26043,0.043272,0.58783,-0.2806,-1.011,-0.97532,0.066822,0,0,0.90313,-0.046414,0,0.17374,0,0,0.27028,-0.12292,0,0.29718,-0.27453,-1.0171,-0.97532,5.1843,-0.75564,0.72257,0.019158,0.46,0.34,0
0.2783,0.041122,0.58278,-0.27189,-0.95,-0.94935,0.045748,0,0,0.8807,-0.000839,0,0.11894,0,0,0.22721,-0.095318,0,0.24765,-0.26882,-0.95307,-0.94935,3.8422,-0.72374,0.6824,0.016319,0.48,0.34,0
0.29566,0.037929,0.57874,-0.23835,-0.52413,-0.55027,0.019592,0,0,0.17851,0.061158,0,0.16876,0,0,0.18639,-0.045925,0,0.19551,-0.21204,-0.55044,-0.55027,40.065,-0.43758,0.34875,0.0068364,0.5,0.34,0
0.28544,0.038588,0.54802,-0.22903,-0.19184,-0.18715,0.0088817,0,0,-0.48998,-0.054837,0,0.20783,0,0,0.16709,-0.0063904,0,0.16725,-0.18983,-0.23104,-0.18715,77.235,-0.20267,0.042617,-3.9225e-06,0.52,0.34,0
0.27606,0.039134,0.51859,-0.22137,-0.19453,-0.18239,0.0069306,0,0,-0.45608,-0.14201,0,0.16218,0,0,0.16003,-0.0055227,0,0.16016,-0.19285,-0.22306,-0.18239,76.345,-0.19943,0.036576,-1.8382e-06,0.54,0.34,0
0.2672,0.039435,0.49041,-0.21469,-0.1949,-0.17737,0.0050992,0,0,-0.4367,-0.20515,0,0.11932,0,0,0.15354,-0.0059463,0,0.15368,-0.19367,-0.21593,-0.17737,76.369,-0.19566,0.033528,-5.1125e-07,0.56,0.34,0
0.25859,0.039348,0.46332,-0.2091,-0.19395,-0.1724,0.0034229,0,0,-0.42944,-0.25223,0,0.080096,0,0,0.14809,-0.0069186,0,0.14827,-0.19322,-0.20984,-0.1724,77.839,-0.19182,0.032494,3.396e-07,0.58,0.34,0
0.25002,0.03882,0.4371,-0.20441,-0.19204,-0.1675,0.0020537,0,0,-0.4318,-0.28711,0,0.048056,0,0,0.14379,-0.0078997,0,0.14402,-0.19171,-0.20474,-0.1675,80.813,-0.18798,0.03273,8.8656e-07,0.6,0.34,0
0.24132,0.037907,0.41155,-0.20053,-0.18937,-0.1627,0.0010768,0,0,-0.44262,-0.31208,0,0.025196,0,0,0.14053,-0.0086577,0,0.1408,-0.18927,-0.20063,-0.1627,84.538,-0.1842,0.03372,1.2418e-06,0.62,0.34,0
0.23232,0.036708,0.38651,-0.19739,-0.18607,-0.15798,0.00047673,0,0,-0.46106,-0.32861,0,0.011156,0,0,0.13814,-0.0091418,0,0.13845,-0.18605,-0.19741,-0.15798,87.593,-0.18048,0.035152,1.4706e-06,0.64,0.34,0
0.22288,0.035331,0.36182,-0.19492,-0.18222,-0.15335,0.00019695,0,0,-0.48643,-0.33786,0,0.0046086,0,0,0.13648,-0.0093838,0,0.1368,-0.18222,-0.19492,-0.15335,89.112,-0.17683,0.036904,1.588e-06,0.66,0.34,0
0.21286,0.033872,0.33737,-0.19306,-0.1779,-0.14877,0.00017279,0,0,-0.51817,-0.34075,0,0.0040434,0,0,0.13545,-0.0094486,0,0.13578,-0.17789,-0.19306,-0.14877,89.347,-0.17324,0.038985,1.564e-06,0.68,0.34,0
0.20215,0.03241,0.31306,-0.19177,-0.17315,-0.14426,0.00034807,0,0,-0.55587,-0.33801,0,0.0081449,0,0,0.13497,-0.0094122,0,0.1353,-0.17314,-0.19178,-0.14426,88.93,-0.16973,0.041468,1.3302e-06,0.7,0.34,0
0.19063,0.031004,0.28879,-0.19103,-0.16804,-0.13981,0.00067868,0,0,-0.59926,-0.3303,0,0.015881,0,0,0.13502,-0.0093529,0,0.13535,-0.16802,-0.19104,-0.13981,88.311,-0.16629,0.04445,7.8522e-07,0.72,0.34,0
0.17818,0.029696,0.26445,-0.19081,-0.16261,-0.13541,0.0011306,0,0,-0.64821,-0.31821,0,0.026456,0,0,0.13561,-0.0093499,0,0.13593,-0.16256,-0.19086,-0.13541,87.708,-0.16294,0.048023,-2.032e-07,0.74,0.34,0
0.1647,0.028509,0.23997,-0.19114,-0.15692,-0.13108,0.001675,0,0,-0.70269,-0.3023,0,0.039195,0,0,0.13676,-0.0094826,0,0.13709,-0.15684,-0.19122,-0.13108,87.204,-0.15971,0.052262,-1.7992e-06,0.76,0.34,0
0.15007,0.027454,0.21522,-0.19202,-0.15103,-0.12683,0.0022815,0,0,-0.76275,-0.28313,0,0.053387,0,0,0.13857,-0.0098276,0,0.13892,-0.1509,-0.19215,-0.12683,86.824,-0.15662,0.057216,-4.2009e-06,0.78,0.34,0
0.13419,0.026528,0.19008,-0.19347,-0.14499,-0.12266,0.0029111,0,0,-0.82848,-0.2613,0,0.068119,0,0,0.14113,-0.010451,0,0.14152,-0.14482,-0.19364,-0.12266,86.576,-0.15371,0.062904,-7.6419e-06,0.8,0.34,0
0.11693,0.02572,0.16441,-0.19549,-0.13887,-0.11858,0.0035138,0,0,-0.8999,-0.23747,0,0.082222,0,0,0.1446,-0.011384,0,0.14506,-0.13866,-0.19571,-0.11858,86.462,-0.15098,0.069309,-1.2385e-05,0.82,0.34,0
0.098192,0.025018,0.13803,-0.19806,-0.13274,-0.11457,0.0040416,0,0,-0.97677,-0.21248,0,0.094574,0,0,0.14915,-0.012572,0,0.1497,-0.13249,-0.19831,-0.11457,86.473,-0.14846,0.07637,-1.8703e-05,0.84,0.34,0
0.077861,0.024438,0.11072,-0.2011,-0.12662,-0.11062,0.0045019,0,0,-1.0587,-0.18718,0,0.10534,0,0,0.15489,-0.013772,0,0.15553,-0.12634,-0.20137,-0.11062,86.554,-0.14611,0.084004,-2.6884e-05,0.86,0.34,0
0.055844,0.024072,0.082268,-0.20467,-0.12046,-0.10668,0.0049729,0,0,-1.1465,-0.16125,0,0.11637,0,0,0.16169,-0.014436,0,0.16238,-0.12017,-0.20497,-0.10668,86.632,-0.14394,0.092281,-3.7469e-05,0.88,0.34,0
0.032002,0.024103,0.05251,-0.20866,-0.11349,-0.10248,0.0054612,0,0,-1.2423,-0.12882,0,0.12779,0,0,0.16903,-0.013844,0,0.16964,-0.11318,-0.20897,-0.10248,86.727,-0.14154,0.10157,-5.1807e-05,0.9,0.34,0
0.0061516,0.024698,0.021419,-0.20473,-0.1548,-0.11976,0.0029357,0,0,-0.6849,-0.082005,0,0.057792,0,0,0.18888,-0.057155,0,0.20207,-0.15274,-0.20679,-0.11976,51.199,-0.15976,0.084422,-2.5595e-05,0.92,0.34,0
0.0046054,0.02309,0.017318,-0.21915,-0.26458,-0.16244,-0.00090004,0,0,-0.073728,-0.13278,0,-0.0023401,0,0,0.23095,-0.091641,0,0.24983,-0.21913,-0.2646,-0.16244,-1.1346,-0.21539,0.08865,6.7652e-06,0.94,0.34,0
0.0032024,0.021587,0.012181,-0.2241,-0.29685,-0.16847,0.00071992,0,0,-0.072329,-0.1669,0,0.0018718,0,0,0.27579,-0.067093,0,0.28425,-0.2241,-0.29686,-0.16847,0.56696,-0.22981,0.11152,-1.6281e-05,0.96,0.34,0
0.0017123,0.02066,0.0062862,-0.2282,-0.30623,-0.16662,0.0024697,0,0,-0.080061,-0.1815,0,0.0064212,0,0,0.30451,-0.034989,0,0.30635,-0.22812,-0.30631,-0.16662,1.8111,-0.23368,0.12126,-1.8775e-05,0.98,0.34,0
0,0.020366,0,-0.22176,-0.29791,-0.1559,-0.0056732,0,0,-0.085614,-0.18462,0,-0.01475,0,0,0.31431,-1.7347e-18,0,0.31396,-0.22134,-0.29833,-0.1559,-4.2371,-0.22519,0.12348,-1.3539e-05,1,0.34,0
0,0.056039,1,-0.38713,-1.5982,-1.5956,-0.00032186,0,0,1.571,-0.0034065,0,-0.00083685,0,0,0.3135,1.197e-15,0,0.3132,-0.38713,-1.5982,-1.5956,-0.015227,-1.1937,1.2098,0.090938,0,0.36,0
0.03142,0.056022,0.99373,-0.37438,-1.5871,-1.5822,-0.015764,0,0,1.5701,-0.0063862,0,-0.040986,0,0,0.30765,0.032932,0,0.30917,-0.37418,-1.5873,-1.5822,-0.74462,-1.1812,1.2106,0.091108,0.02,0.36,0
0.062805,0.056026,0.98769,-0.3618,-1.5833,-1.5712,-0.028351,0,0,1.5722,-0.015704,0,-0.073712,0,0,0.28979,0.065142,0,0.29699,-0.36114,-1.584,-1.5712,-1.3289,-1.1721,1.2165,0.092428,0.04,0.36,0
0.094311,0.056249,0.98214,-0.34475,-1.5806,-1.5597,-0.032915,0,0,1.5795,-0.02712,0,-0.08558,0,0,0.25957,0.09407,0,0.27651,-0.34387,-1.5815,-1.5597,-1.5246,-1.1617,1.2269,0.09475,0.06,0.36,0
0.12599,0.056966,0.97731,-0.32823,-1.5684,-1.5463,-0.028909,0,0,1.5835,-0.028738,0,-0.075163,0,0,0.21823,0.115,0,0.24776,-0.32756,-1.5691,-1.5463,-1.3346,-1.1477,1.2303,0.095532,0.08,0.36,0
0.15765,0.058245,0.97341,-0.28268,-0.89714,-0.89473,-0.022756,0,0,0.82788,-0.005634,0,-0.27146,0,0,0.18106,0.067933,0,0.19947,-0.27375,-0.90607,-0.89473,-20.766,-0.69151,0.62839,0.046726,0.1,0.36,0
0.1591,0.051276,0.94334,-0.25783,-0.28101,-0.26647,-0.018341,0,0,0.10108,-0.17012,0,-0.42918,0,0,0.16412,0.011826,0,0.16457,-0.24772,-0.29111,-0.26647,-28.856,-0.26843,0.037694,-6.4067e-07,0.12,0.36,0
0.16169,0.045718,0.91433,-0.25081,-0.28644,-0.26277,-0.01336,0,0,0.13989,-0.27695,0,-0.31263,0,0,0.15865,0.0080697,0,0.15887,-0.24636,-0.29089,-0.26277,-18.435,-0.26667,0.03901,-1.3321e-06,0.14,0.36,0
0.1647,0.041827,0.88623,-0.24593,-0.28714,-0.25839,-0.0081664,0,0,0.14579,-0.33636,0,-0.19109,0,0,0.15422,0.0027408,0,0.15424,-0.24437,-0.2887,-0.25839,-10.81,-0.26382,0.039243,-1.8215e-06,0.16,0.36,0
0.16753,0.039345,0.85881,-0.24294,-0.28541,-0.25393,-0.0036518,0,0,0.12851,-0.3683,0,-0.085451,0,0,0.1513,-0.00353,0,0.15132,-0.24263,-0.28572,-0.25393,-4.8796,-0.26076,0.038696,-2.1431e-06,0.18,0.36,0
0.16984,0.037923,0.83176,-0.24122,-0.28244,-0.24952,0.00022181,0,0,0.097067,-0.38524,0,0.0051904,0,0,0.15007,-0.010208,0,0.15039,-0.24122,-0.28245,-0.24952,0.30829,-0.25773,0.037766,-2.3227e-06,0.2,0.36,0
0.17141,0.037334,0.80478,-0.24041,-0.27879,-0.24518,0.0038153,0,0,0.055799,-0.39323,0,0.089278,0,0,0.15057,-0.01698,0,0.15151,-0.24004,-0.27917,-0.24518,5.6225,-0.25479,0.036828,-2.3975e-06,0.22,0.36,0
0.17207,0.037517,0.77756,-0.24037,-0.27462,-0.24089,0.0075188,0,0,0.0060968,-0.3946,0,0.17594,0,0,0.15283,-0.023632,0,0.15463,-0.23879,-0.2762,-0.24089,11.853,-0.25196,0.036399,-2.4491e-06,0.24,0.36,0
0.17165,0.038587,0.74977,-0.24111,-0.26986,-0.2366,0.011722,0,0,-0.052812,-0.38916,0,0.2743,0,0,0.15688,-0.029908,0,0.15971,-0.23694,-0.27403,-0.2366,19.599,-0.24919,0.037266,-2.6574e-06,0.26,0.36,0
0.16995,0.040831,0.72108,-0.24286,-0.2641,-0.23221,0.016805,0,0,-0.12461,-0.37316,0,0.39324,0,0,0.16271,-0.035352,0,0.16653,-0.2336,-0.27336,-0.23221,28.852,-0.24639,0.040475,-3.3919e-06,0.28,0.36,0
0.16667,0.044699,0.69119,-0.24616,-0.25625,-0.22752,0.022892,0,0,-0.21808,-0.3361,0,0.53566,0,0,0.17005,-0.039207,0,0.17455,-0.22776,-0.27464,-0.22752,38.788,-0.24331,0.047003,-5.3329e-06,0.3,0.36,0
0.16123,0.050605,0.65986,-0.25128,-0.24386,-0.22186,0.029221,0,0,-0.34418,-0.25744,0,0.68378,0,0,0.17816,-0.040632,0,0.18279,-0.21812,-0.27703,-0.22186,48.615,-0.239,0.05713,-9.4382e-06,0.32,0.36,0
0.1529,0.058502,0.62705,-0.26814,-0.68713,-0.63494,0.037473,0,0,0.29168,-0.12212,0,0.43319,0,0,0.20058,-0.19568,0,0.30076,-0.24347,-0.7118,-0.63494,29.235,-0.53007,0.44392,0.013682,0.34,0.36,0
0.1729,0.053509,0.62267,-0.30104,-1.1672,-1.0632,0.058913,0,0,0.99074,-0.13529,0,0.15317,0,0,0.24849,-0.33783,0,0.42032,-0.29705,-1.1712,-1.0632,3.8732,-0.8438,0.82545,0.027225,0.36,0.36,0
0.19253,0.049711,0.61711,-0.31401,-1.1513,-1.0567,0.080732,0,0,0.9655,-0.12298,0,0.2099,0,0,0.30056,-0.30347,0,0.42738,-0.3063,-1.159,-1.0567,5.4574,-0.84067,0.80645,0.025481,0.38,0.36,0
0.21152,0.047092,0.61065,-0.32623,-1.1176,-1.0438,0.090175,0,0,0.93282,-0.095901,0,0.23446,0,0,0.33596,-0.25595,0,0.42202,-0.31609,-1.1277,-1.0438,6.4195,-0.82919,0.77308,0.02279,0.4,0.36,0
0.22984,0.045265,0.60367,-0.33142,-1.0773,-1.0263,0.084366,0,0,0.90334,-0.066351,0,0.21935,0,0,0.35129,-0.20081,0,0.40395,-0.322,-1.0868,-1.0263,6.3731,-0.81169,0.7364,0.020044,0.42,0.36,0
0.24765,0.043829,0.5966,-0.32397,-1.0353,-1.0044,0.068454,0,0,0.88453,-0.040192,0,0.17798,0,0,0.34384,-0.14142,0,0.37105,-0.31745,-1.0418,-1.0044,5.4472,-0.78788,0.7064,0.017933,0.44,0.36,0
0.26522,0.042586,0.58992,-0.30955,-0.99382,-0.98093,0.049167,0,0,0.87279,-0.016761,0,0.12783,0,0,0.311,-0.080942,0,0.3214,-0.30603,-0.99734,-0.98093,4.0889,-0.76143,0.68325,0.01635,0.46,0.36,0
0.28257,0.041402,0.58416,-0.29267,-0.93102,-0.95126,0.030477,0,0,0.85618,0.026318,0,0.07924,0,0,0.25316,-0.03186,0,0.25736,-0.29122,-0.93247,-0.95126,2.7272,-0.72498,0.65086,0.014121,0.48,0.36,0
0.29947,0.039665,0.57979,-0.24268,-0.49504,-0.54343,0.0074262,0,0,0.1376,0.11321,0,0.032828,0,0,0.19611,-0.0045887,0,0.19832,-0.21331,-0.52442,-0.54343,45.052,-0.42705,0.33302,0.0054799,0.5,0.36,0
0.28807,0.037833,0.54849,-0.23465,-0.19134,-0.18874,-0.00047043,0,0,-0.53712,-0.030452,0,-0.011008,0,0,0.16904,0.0026048,0,0.16914,-0.19134,-0.23465,-0.18874,-89.378,-0.20491,0.044671,-4.526e-06,0.52,0.36,0
0.27799,0.036567,0.51894,-0.22461,-0.19354,-0.1831,-0.00092052,0,0,-0.48565,-0.12205,0,-0.02154,0,0,0.15988,0.0025332,0,0.15996,-0.19351,-0.22464,-0.1831,-88.305,-0.20042,0.037434,-2.009e-06,0.54,0.36,0
0.26864,0.035574,0.49093,-0.21668,-0.19386,-0.17771,-0.0013732,0,0,-0.45592,-0.18894,0,-0.032132,0,0,0.15224,0.00033891,0,0.15227,-0.19377,-0.21676,-0.17771,-86.569,-0.19608,0.033994,-6.073e-07,0.56,0.36,0
0.25975,0.034495,0.46413,-0.21012,-0.19305,-0.17252,-0.0018973,0,0,-0.43994,-0.24016,0,-0.044396,0,0,0.14651,-0.00221,0,0.14654,-0.19284,-0.21033,-0.17252,-83.736,-0.1919,0.032775,2.3335e-07,0.58,0.36,0
0.25105,0.03322,0.43819,-0.20482,-0.19143,-0.16756,-0.0022435,0,0,-0.43595,-0.27923,0,-0.052499,0,0,0.1424,-0.0044149,0,0.14248,-0.19106,-0.20519,-0.16756,-80.74,-0.18794,0.03292,7.6147e-07,0.6,0.36,0
0.24231,0.031763,0.41287,-0.20059,-0.18906,-0.16277,-0.0023437,0,0,-0.4425,-0.30759,0,-0.054843,0,0,0.13948,-0.0061159,0,0.13962,-0.1886,-0.20105,-0.16277,-78.938,-0.18414,0.033819,1.1178e-06,0.62,0.36,0
0.23335,0.030198,0.38798,-0.19726,-0.18602,-0.1581,-0.0021954,0,0,-0.45826,-0.32678,0,-0.051373,0,0,0.13742,-0.0073442,0,0.13762,-0.18561,-0.19768,-0.1581,-79.329,-0.18046,0.035138,1.375e-06,0.64,0.36,0
0.22398,0.028609,0.3634,-0.19469,-0.1824,-0.15351,-0.0018294,0,0,-0.48189,-0.3381,0,-0.042808,0,0,0.13602,-0.0081958,0,0.13627,-0.18214,-0.19496,-0.15351,-81.711,-0.17687,0.03676,1.5442e-06,0.66,0.36,0
0.21407,0.027072,0.33901,-0.19276,-0.17826,-0.14898,-0.0012798,0,0,-0.51233,-0.34265,0,-0.029947,0,0,0.13516,-0.0087841,0,0.13544,-0.17815,-0.19288,-0.14898,-84.995,-0.17333,0.038699,1.5896e-06,0.68,0.36,0
0.20349,0.025648,0.31474,-0.1914,-0.17367,-0.14449,-0.00057577,0,0,-0.54879,-0.34139,0,-0.013473,0,0,0.13476,-0.0092238,0,0.13508,-0.17365,-0.19141,-0.14449,-88.142,-0.16985,0.041035,1.4402e-06,0.7,0.36,0
0.19212,0.024383,0.2905,-0.19054,-0.16868,-0.14005,0.00026222,0,0,-0.59081,-0.33507,0,0.006136,0,0,0.13479,-0.0096274,0,0.13514,-0.16868,-0.19054,-0.14005,89.313,-0.16642,0.043865,9.9567e-07,0.72,0.36,0
0.17985,0.023303,0.26621,-0.19019,-0.16337,-0.13565,0.0012216,0,0,-0.63816,-0.32435,0,0.028586,0,0,0.13526,-0.010107,0,0.13564,-0.16331,-0.19025,-0.13565,87.397,-0.16307,0.047286,1.266e-07,0.74,0.36,0
0.16659,0.022424,0.2418,-0.19036,-0.15779,-0.13131,0.0022943,0,0,-0.69086,-0.30977,0,0.053687,0,0,0.13621,-0.010776,0,0.13664,-0.15762,-0.19052,-0.13131,85.991,-0.15982,0.051382,-1.3308e-06,0.76,0.36,0
0.15222,0.021746,0.21718,-0.19109,-0.15199,-0.12706,0.0034711,0,0,-0.74925,-0.29172,0,0.081223,0,0,0.13771,-0.011753,0,0.13821,-0.15168,-0.1914,-0.12706,84.967,-0.15671,0.056232,-3.5875e-06,0.78,0.36,0
0.13662,0.021257,0.19223,-0.19248,-0.14603,-0.12291,0.0047335,0,0,-0.81397,-0.27048,0,0.11077,0,0,0.1399,-0.013154,0,0.14052,-0.14555,-0.19296,-0.12291,84.24,-0.15381,0.061914,-6.9238e-06,0.8,0.36,0
0.11966,0.020936,0.16681,-0.19464,-0.13995,-0.11891,0.0060419,0,0,-0.88599,-0.24619,0,0.14138,0,0,0.14299,-0.015078,0,0.14379,-0.1393,-0.1953,-0.11891,83.77,-0.15117,0.068507,-1.1719e-05,0.82,0.36,0
0.10118,0.020758,0.14075,-0.19766,-0.13379,-0.11507,0.0073301,0,0,-0.96627,-0.21896,0,0.17153,0,0,0.14733,-0.017551,0,0.14838,-0.13296,-0.19849,-0.11507,83.537,-0.14884,0.076069,-1.8463e-05,0.84,0.36,0
0.081011,0.020718,0.11378,-0.20157,-0.12759,-0.11139,0.0085271,0,0,-1.0551,-0.18951,0,0.19953,0,0,0.15335,-0.020391,0,0.15473,-0.12662,-0.20254,-0.11139,83.51,-0.14685,0.084573,-2.7705e-05,0.86,0.36,0
0.058977,0.020892,0.085543,-0.2063,-0.12139,-0.10781,0.0097331,0,0,-1.1523,-0.15887,0,0.22776,0,0,0.1613,-0.022837,0,0.16297,-0.12029,-0.2074,-0.10781,83.544,-0.14517,0.093974,-4.0101e-05,0.88,0.36,0
0.034918,0.021618,0.055708,-0.21252,-0.11504,-0.10446,0.011026,0,0,-1.2644,-0.12381,0,0.258,0,0,0.17069,-0.023073,0,0.17232,-0.11381,-0.21375,-0.10446,83.627,-0.14401,0.10493,-5.7756e-05,0.9,0.36,0
0.0084031,0.023294,0.024094,-0.2081,-0.14236,-0.11852,0.010849,0,0,-0.70568,-0.055778,0,0.14055,0,0,0.19771,-0.098686,0,0.23066,-0.13965,-0.21081,-0.11852,76.3,-0.15633,0.086728,-3.5517e-05,0.92,0.36,0
0.0066914,0.020481,0.019698,-0.24114,-0.27472,-0.17446,0.012069,0,0,-0.086692,-0.13034,0,0.03138,0,0,0.25454,-0.15556,0,0.30013,-0.23725,-0.27861,-0.17446,17.856,-0.23011,0.090833,1.3378e-05,0.94,0.36,0
0.0049354,0.018311,0.013912,-0.25735,-0.30059,-0.18129,0.018581,0,0,-0.098871,-0.15508,0,0.048311,0,0,0.31286,-0.11045,0,0.33198,-0.25046,-0.30748,-0.18129,20.338,-0.24641,0.10945,1.1168e-05,0.96,0.36,0
0.0027365,0.017185,0.0071838,-0.27249,-0.2955,-0.17758,0.014224,0,0,-0.12339,-0.15329,0,0.036983,0,0,0.34781,-0.05517,0,0.35156,-0.2657,-0.30229,-0.17758,25.519,-0.24853,0.11103,4.5431e-05,0.98,0.36,0
0,0.016879,0,-0.27146,-0.28257,-0.16621,-0.0058992,0,0,-0.13683,-0.15127,0,-0.015338,0,0,0.35919,-6.9389e-18,0,0.35847,-0.26891,-0.28512,-0.16621,-23.361,-0.24008,0.11169,6.651e-05,1,0.36,0
0,0.056269,1,-0.43179,-1.5786,-1.6031,-0.0017782,0,0,1.5227,0.031897,0,-0.0046232,0,0,0.35207,-1.0651e-15,0,0.3516,-0.43179,-1.5786,-1.6031,-0.088841,-1.2045,1.1592,0.079891,0,0.38,0
0.030454,0.056176,0.99296,-0.41739,-1.5664,-1.5881,-0.024247,0,0,1.5219,0.028154,0,-0.063043,0,0,0.34617,0.044002,0,0.34852,-0.41688,-1.567,-1.5881,-1.2083,-1.1906,1.1608,0.080245,0.02,0.38,0
0.060878,0.055915,0.98615,-0.39832,-1.5633,-1.5746,-0.047011,0,0,1.5292,0.014748,0,-0.12223,0,0,0.3268,0.089292,0,0.33848,-0.39643,-1.5652,-1.5746,-2.3071,-1.1787,1.1735,0.082984,0.04,0.38,0
0.091623,0.055766,0.97989,-0.37179,-1.5748,-1.5639,-0.061312,0,0,1.5497,-0.014193,0,-0.15941,0,0,0.29065,0.13533,0,0.32096,-0.36867,-1.5779,-1.5639,-2.9101,-1.1701,1.2023,0.089212,0.06,0.38,0
0.12287,0.056305,0.97453,-0.34528,-1.5846,-1.5535,-0.054958,0,0,1.5707,-0.040414,0,-0.14289,0,0,0.23641,0.17221,0,0.29405,-0.34285,-1.587,-1.5535,-2.5343,-1.1611,1.2277,0.094808,0.08,0.38,0
0.15445,0.058072,0.97043,-0.28464,-0.90421,-0.89578,-0.039436,0,0,0.8335,-0.019716,0,-0.4339,0,0,0.18511,0.10441,0,0.22308,-0.26995,-0.91891,-0.89578,-21.542,-0.69488,0.64049,0.047193,0.1,0.38,0
0.15621,0.047373,0.94066,-0.25702,-0.28903,-0.26833,-0.027599,0,0,0.13237,-0.24213,0,-0.64582,0,0,0.16121,0.019412,0,0.16243,-0.24112,-0.30493,-0.26833,-29.945,-0.27146,0.055458,-2.2017e-06,0.12,0.38,0
0.15974,0.039577,0.91239,-0.24769,-0.29376,-0.26381,-0.019162,0,0,0.18859,-0.35038,0,-0.4484,0,0,0.15353,0.014434,0,0.15422,-0.24077,-0.30069,-0.26381,-19.879,-0.26842,0.052354,-2.8521e-06,0.14,0.38,0
0.16375,0.034572,0.88539,-0.24223,-0.29291,-0.25892,-0.011628,0,0,0.19523,-0.39765,0,-0.2721,0,0,0.1476,0.0070095,0,0.14775,-0.23969,-0.29545,-0.25892,-12.326,-0.26469,0.049054,-3.0744e-06,0.16,0.38,0
0.16755,0.031534,0.85926,-0.23908,-0.29005,-0.25421,-0.0057195,0,0,0.17702,-0.41928,0,-0.13384,0,0,0.14395,-0.0013076,0,0.14392,-0.23845,-0.29068,-0.25421,-6.325,-0.26111,0.046406,-3.2073e-06,0.18,0.38,0
0.17083,0.029828,0.83357,-0.23731,-0.28654,-0.24977,-0.00083851,0,0,0.14578,-0.43012,0,-0.019621,0,0,0.14249,-0.0098342,0,0.14278,-0.2373,-0.28655,-0.24977,-0.97566,-0.25788,0.04435,-3.314e-06,0.2,0.38,0
0.17338,0.029102,0.80796,-0.23654,-0.28277,-0.24557,0.0036024,0,0,0.10559,-0.43529,0,0.084296,0,0,0.143,-0.018373,0,0.14413,-0.23626,-0.28305,-0.24557,4.4291,-0.25496,0.042899,-3.4205e-06,0.22,0.38,0
0.17505,0.029254,0.78209,-0.23672,-0.27894,-0.2416,0.0081203,0,0,0.057059,-0.4369,0,0.19001,0,0,0.14546,-0.026862,0,0.14789,-0.23521,-0.28045,-0.2416,10.52,-0.25242,0.042404,-3.6186e-06,0.24,0.38,0
0.17567,0.030398,0.75559,-0.23783,-0.27492,-0.23778,0.013211,0,0,-0.00058538,-0.43456,0,0.30913,0,0,0.15009,-0.035187,0,0.15415,-0.23361,-0.27915,-0.23778,17.732,-0.25018,0.043603,-4.1265e-06,0.26,0.38,0
0.17503,0.032897,0.72806,-0.24011,-0.27041,-0.23405,0.019431,0,0,-0.070851,-0.42543,0,0.45469,0,0,0.15722,-0.042963,0,0.16301,-0.23062,-0.2799,-0.23405,26.026,-0.24819,0.047659,-5.4625e-06,0.28,0.38,0
0.17283,0.03743,0.69899,-0.24432,-0.26433,-0.23026,0.027442,0,0,-0.16452,-0.39862,0,0.64214,0,0,0.16692,-0.049096,0,0.17407,-0.22512,-0.28354,-0.23026,34.985,-0.24631,0.056023,-8.7746e-06,0.3,0.38,0
0.16845,0.044983,0.66797,-0.25213,-0.25333,-0.22586,0.036847,0,0,-0.30738,-0.32148,0,0.86221,0,0,0.17835,-0.051452,0,0.18573,-0.21588,-0.28958,-0.22586,44.532,-0.24377,0.069256,-1.5873e-05,0.32,0.38,0
0.16054,0.055998,0.63479,-0.2721,-0.70169,-0.6448,0.052181,0,0,0.3087,-0.13312,0,0.5711,0,0,0.2106,-0.24374,0,0.34492,-0.24262,-0.73117,-0.6448,28.266,-0.53953,0.46026,0.014498,0.34,0.38,0
0.1808,0.050669,0.63005,-0.32563,-1.2055,-1.0894,0.084358,0,0,0.9929,-0.15097,0,0.21933,0,0,0.27873,-0.4126,0,0.49941,-0.31761,-1.2135,-1.0894,5.4272,-0.87352,0.84076,0.028293,0.36,0.38,0
0.20025,0.04728,0.62364,-0.35372,-1.1651,-1.0793,0.11065,0,0,0.94325,-0.11157,0,0.28769,0,0,0.35048,-0.35665,0,0.50024,-0.3389,-1.1799,-1.0793,7.628,-0.86604,0.7955,0.024466,0.38,0.38,0
0.21853,0.045413,0.61603,-0.3827,-1.1081,-1.0633,0.11034,0,0,0.88475,-0.0583,0,0.28688,0,0,0.39746,-0.285,0,0.4884,-0.36629,-1.1245,-1.0633,8.4599,-0.85137,0.72955,0.01947,0.4,0.38,0
0.23564,0.044333,0.60774,-0.4017,-1.0557,-1.045,0.09049,0,0,0.83622,-0.013926,0,0.23527,0,0,0.4195,-0.20867,0,0.46743,-0.38941,-1.0679,-1.045,7.7346,-0.83411,0.66734,0.015203,0.42,0.38,0
0.25198,0.04349,0.59925,-0.39758,-1.0024,-1.0192,0.056534,0,0,0.80817,0.021886,0,0.14699,0,0,0.41684,-0.12656,0,0.43419,-0.39234,-1.0076,-1.0192,5.2943,-0.80641,0.62119,0.012297,0.44,0.38,0
0.26797,0.042602,0.59107,-0.3606,-0.94925,-0.98402,0.018535,0,0,0.81045,0.045208,0,0.048192,0,0,0.37984,-0.035549,0,0.37996,-0.36002,-0.94983,-0.98402,1.8018,-0.76462,0.60763,0.011399,0.46,0.38,0
0.28439,0.042175,0.58406,-0.33602,-0.92493,-0.96234,-0.011202,0,0,0.81422,0.048638,0,-0.029126,0,0,0.2999,0.064969,0,0.3111,-0.3358,-0.92514,-0.96234,-1.0894,-0.74109,0.60879,0.011443,0.48,0.38,0
0.30054,0.042457,0.57907,-0.26038,-0.48162,-0.54431,-0.01269,0,0,0.092709,0.1467,0,-0.16677,0,0,0.21351,0.058779,0,0.22808,-0.22617,-0.51583,-0.54431,-40.358,-0.42877,0.31888,0.0042137,0.5,0.38,0
0.2881,0.03737,0.54708,-0.24019,-0.1934,-0.19087,-0.013549,0,0,-0.5771,-0.029704,0,-0.31705,0,0,0.17054,0.016431,0,0.17153,-0.18976,-0.24383,-0.19087,-74.961,-0.20815,0.053525,-7.8645e-06,0.52,0.38,0
0.27746,0.034252,0.51768,-0.22717,-0.19506,-0.18419,-0.010693,0,0,-0.50288,-0.12716,0,-0.25023,0,0,0.15776,0.012134,0,0.15829,-0.19182,-0.2304,-0.18419,-73.169,-0.20214,0.042912,-3.6294e-06,0.54,0.38,0
0.26799,0.031878,0.49029,-0.217,-0.1945,-0.17793,-0.0089795,0,0,-0.45717,-0.1939,0,-0.21012,0,0,0.14879,0.0066161,0,0.14895,-0.19136,-0.22015,-0.17793,-70.703,-0.19648,0.03736,-1.5587e-06,0.56,0.38,0
0.25917,0.029741,0.46411,-0.20951,-0.19353,-0.17248,-0.0077495,0,0,-0.43329,-0.24623,0,-0.18134,0,0,0.14334,0.0020251,0,0.14335,-0.19038,-0.21265,-0.17248,-67.945,-0.19184,0.034859,-4.0614e-07,0.58,0.38,0
0.25066,0.027651,0.43869,-0.20381,-0.19185,-0.16744,-0.0067533,0,0,-0.42556,-0.28555,0,-0.15803,0,0,0.13989,-0.0014807,0,0.13989,-0.18881,-0.20685,-0.16744,-65.769,-0.1877,0.034172,2.9791e-07,0.6,0.38,0
0.24215,0.025604,0.41375,-0.19953,-0.18955,-0.1627,-0.005814,0,0,-0.43095,-0.31421,0,-0.13605,0,0,0.1376,-0.0040616,0,0.13766,-0.18688,-0.2022,-0.1627,-65.315,-0.18393,0.034498,7.9466e-07,0.62,0.38,0
0.23342,0.023637,0.38915,-0.19626,-0.18664,-0.15811,-0.0048613,0,0,-0.44641,-0.33379,0,-0.11375,0,0,0.13606,-0.0059265,0,0.13619,-0.18461,-0.19829,-0.15811,-67.355,-0.18034,0.035384,1.1825e-06,0.64,0.38,0
0.22429,0.021807,0.36477,-0.19376,-0.18314,-0.1536,-0.0038519,0,0,-0.46984,-0.34565,0,-0.090135,0,0,0.13504,-0.0072706,0,0.13524,-0.18189,-0.19501,-0.1536,-72.013,-0.17683,0.036654,1.4812e-06,0.66,0.38,0
0.21462,0.020165,0.34054,-0.19184,-0.17912,-0.14913,-0.0027658,0,0,-0.49976,-0.35096,0,-0.06472,0,0,0.13442,-0.0082671,0,0.13467,-0.17855,-0.19242,-0.14913,-78.247,-0.17336,0.038288,1.6598e-06,0.68,0.38,0
0.2043,0.018754,0.31638,-0.19041,-0.17465,-0.14467,-0.0015896,0,0,-0.53519,-0.3507,0,-0.037196,0,0,0.13413,-0.0090711,0,0.13443,-0.17449,-0.19057,-0.14467,-84.3,-0.16991,0.04034,1.6549e-06,0.7,0.38,0
0.19322,0.017601,0.29225,-0.18942,-0.16978,-0.14023,-0.00030913,0,0,-0.57548,-0.34572,0,-0.0072337,0,0,0.13414,-0.0098268,0,0.1345,-0.16978,-0.18942,-0.14023,-89.098,-0.16648,0.042887,1.3775e-06,0.72,0.38,0
0.18128,0.016722,0.26809,-0.18884,-0.1646,-0.13582,0.0010941,0,0,-0.62034,-0.3367,0,0.025603,0,0,0.13446,-0.010675,0,0.13488,-0.16455,-0.18889,-0.13582,87.421,-0.16308,0.046012,7.1325e-07,0.74,0.38,0
0.1684,0.016118,0.24385,-0.1887,-0.15915,-0.13145,0.0026451,0,0,-0.66981,-0.32415,0,0.061896,0,0,0.13512,-0.011763,0,0.13563,-0.15892,-0.18893,-0.13145,84.924,-0.15977,0.049799,-4.8558e-07,0.76,0.38,0
0.15449,0.015785,0.21945,-0.18907,-0.15352,-0.12716,0.0043756,0,0,-0.72436,-0.30842,0,0.10239,0,0,0.13619,-0.013251,0,0.13683,-0.15299,-0.1896,-0.12716,83.085,-0.15659,0.054344,-2.4208e-06,0.78,0.38,0
0.13943,0.015709,0.19482,-0.1901,-0.14776,-0.123,0.0063236,0,0,-0.78506,-0.2896,0,0.14797,0,0,0.1378,-0.015319,0,0.13865,-0.14683,-0.19103,-0.123,81.686,-0.15362,0.059784,-5.3912e-06,0.8,0.38,0
0.12309,0.015872,0.16984,-0.19204,-0.14191,-0.11906,0.0085286,0,0,-0.85394,-0.26736,0,0.19957,0,0,0.1402,-0.01817,0,0.14137,-0.1405,-0.19345,-0.11906,80.605,-0.151,0.066329,-9.8789e-06,0.82,0.38,0
0.10527,0.016259,0.14435,-0.1953,-0.13602,-0.11543,0.011001,0,0,-0.93442,-0.24083,0,0.25742,0,0,0.14384,-0.022021,0,0.14552,-0.13404,-0.19727,-0.11543,79.819,-0.14892,0.074305,-1.6699e-05,0.84,0.38,0
0.085709,0.016857,0.11806,-0.20028,-0.13002,-0.11221,0.013702,0,0,-1.0304,-0.20845,0,0.32062,0,0,0.1496,-0.027018,0,0.15204,-0.12745,-0.20285,-0.11221,79.345,-0.1475,0.084068,-2.7166e-05,0.86,0.38,0
0.064055,0.017717,0.090489,-0.2073,-0.12405,-0.10946,0.016556,0,0,-1.1447,-0.17071,0,0.38741,0,0,0.15901,-0.032923,0,0.16246,-0.12088,-0.21047,-0.10946,79.155,-0.14694,0.095813,-4.3019e-05,0.88,0.38,0
0.03992,0.01915,0.060816,-0.21627,-0.11782,-0.10698,0.020124,0,0,-1.2786,-0.12679,0,0.47089,0,0,0.17213,-0.037235,0,0.17631,-0.11386,-0.22022,-0.10698,78.882,-0.14702,0.10996,-6.7382e-05,0.9,0.38,0
0.01291,0.022466,0.028524,-0.22406,-0.1451,-0.1266,0.026744,0,0,-0.72692,-0.043309,0,0.28329,0,0,0.21429,-0.16069,0,0.28321,-0.13471,-0.23445,-0.1266,71.209,-0.16525,0.10435,-5.9832e-05,0.92,0.38,0
0.010843,0.017876,0.02354,-0.28721,-0.30452,-0.20106,0.054322,0,0,-0.112,-0.1345,0,0.14124,0,0,0.29814,-0.2503,0,0.39189,-0.24086,-0.35087,-0.20106,40.474,-0.26427,0.13441,-8.8833e-05,0.94,0.38,0
0.0084304,0.015383,0.016598,-0.31531,-0.28171,-0.1957,0.056364,0,0,-0.15548,-0.11181,0,0.14655,0,0,0.37618,-0.15525,0,0.40592,-0.23969,-0.35732,-0.1957,53.298,-0.26424,0.14473,-0.00010857,0.96,0.38,0
0.0046239,0.014529,0.008493,-0.35942,-0.26993,-0.1973,0.034788,0,0,-0.21076,-0.094422,0,0.090449,0,0,0.41496,-0.073585,0,0.42032,-0.258,-0.37135,-0.1973,71.068,-0.27555,0.15302,-9.1233e-05,0.98,0.38,0
0,0.014315,0,-0.3622,-0.25232,-0.18436,-0.0041152,0,0,-0.2312,-0.088355,0,-0.010699,0,0,0.42465,-1.3878e-17,0,0.42359,-0.25217,-0.36235,-0.18436,-87.858,-0.26629,0.1556,-7.7085e-05,1,0.38,0
0,0.057315,1,-0.48793,-1.5554,-1.613,-0.0032006,0,0,1.4626,0.074853,0,-0.0083216,0,0,0.4015,-7.7022e-16,0,0.40091,-0.48792,-1.5554,-1.613,-0.17178,-1.2188,1.0974,0.067253,0,0.4,0
0.029252,0.057148,0.99197,-0.4748,-1.5401,-1.5964,-0.029747,0,0,1.4582,0.073199,0,-0.077343,0,0,0.39694,0.0534,0,0.3999,-0.47397,-1.541,-1.5964,-1.5982,-1.2038,1.0958,0.066996,0.02,0.4,0
0.058326,0.056616,0.98412,-0.46163,-1.5334,-1.5826,-0.064653,0,0,1.4573,0.063977,0,-0.1681,0,0,0.38112,0.11125,0,0.39633,-0.45774,-1.5373,-1.5826,-3.4396,-1.1926,1.1029,0.068516,0.04,0.4,0
0.087545,0.055682,0.97672,-0.41491,-1.5352,-1.5618,-0.098309,0,0,1.4909,0.03449,0,-0.2556,0,0,0.34249,0.17821,0,0.3855,-0.40635,-1.5438,-1.5618,-4.977,-1.1706,1.1465,0.077346,0.06,0.4,0
0.11796,0.055349,0.97042,-0.37996,-1.6058,-1.5661,-0.10909,0,0,1.542,-0.05151,0,-0.28365,0,0,0.27083,0.25749,0,0.376,-0.37033,-1.6154,-1.5661,-5.0464,-1.184,1.2212,0.093021,0.08,0.4,0
0.14923,0.057456,0.96589,-0.30488,-0.9448,-0.91151,-0.066114,0,0,0.84499,-0.077901,0,-0.66886,0,0,0.19532,0.15965,0,0.26748,-0.28215,-0.96753,-0.91151,-21.811,-0.7204,0.66314,0.048753,0.1,0.4,0
0.15176,0.041591,0.93636,-0.2562,-0.30322,-0.27186,-0.040076,0,0,0.18332,-0.36685,0,-0.93777,0,0,0.15767,0.031746,0,0.161,-0.23324,-0.32617,-0.27186,-29.8,-0.27709,0.080858,-7.8019e-06,0.12,0.4,0
0.15656,0.031703,0.90913,-0.24395,-0.30438,-0.26551,-0.025859,0,0,0.25231,-0.45471,0,-0.6051,0,0,0.14625,0.022826,0,0.14803,-0.23439,-0.31393,-0.26551,-20.279,-0.27128,0.069424,-6.2905e-06,0.14,0.4,0
0.16185,0.025921,0.88371,-0.23739,-0.30039,-0.25952,-0.01555,0,0,0.25892,-0.47809,0,-0.36386,0,0,0.13848,0.011839,0,0.13893,-0.23376,-0.30401,-0.25952,-13.138,-0.26577,0.061556,-5.2994e-06,0.16,0.4,0
0.16692,0.022574,0.85928,-0.23386,-0.29601,-0.25444,-0.0079796,0,0,0.24072,-0.48639,0,-0.18672,0,0,0.13445,0.0010052,0,0.13439,-0.23285,-0.29702,-0.25444,-7.2012,-0.26144,0.05655,-4.9354e-06,0.18,0.4,0
0.17148,0.020718,0.8353,-0.23179,-0.29157,-0.24982,-0.001945,0,0,0.21094,-0.48845,0,-0.045513,0,0,0.13301,-0.0094827,0,0.13328,-0.23172,-0.29163,-0.24982,-1.8616,-0.25772,0.053216,-4.832e-06,0.2,0.4,0
0.17535,0.019922,0.8114,-0.23102,-0.2876,-0.24574,0.0034688,0,0,0.17222,-0.48975,0,0.081171,0,0,0.13355,-0.019798,0,0.13494,-0.23081,-0.28781,-0.24574,3.4953,-0.25479,0.051197,-4.967e-06,0.22,0.4,0
0.17837,0.020041,0.78723,-0.23143,-0.2842,-0.24216,0.0089714,0,0,0.12552,-0.49187,0,0.20993,0,0,0.13601,-0.030184,0,0.13926,-0.22995,-0.28568,-0.24216,9.3898,-0.2526,0.050744,-5.4232e-06,0.24,0.4,0
0.18037,0.021204,0.76243,-0.23322,-0.28129,-0.23907,0.015238,0,0,0.068455,-0.49405,0,0.35656,0,0,0.14078,-0.040836,0,0.14654,-0.22879,-0.28572,-0.23907,16.185,-0.25119,0.052544,-6.501e-06,0.26,0.4,0
0.18111,0.023814,0.73655,-0.23655,-0.2784,-0.23632,0.023055,0,0,-0.0027094,-0.49224,0,0.53948,0,0,0.1488,-0.051764,0,0.15755,-0.22634,-0.28861,-0.23632,23.89,-0.25043,0.057922,-8.9898e-06,0.28,0.4,0
0.18027,0.028754,0.70886,-0.24254,-0.2752,-0.23409,0.033534,0,0,-0.098944,-0.48107,0,0.7847,0,0,0.16156,-0.06235,0,0.17329,-0.22157,-0.29617,-0.23409,32.018,-0.25061,0.069195,-1.5158e-05,0.3,0.4,0
0.17715,0.037746,0.67839,-0.25377,-0.26817,-0.23196,0.048166,0,0,-0.25518,-0.4237,0,1.1271,0,0,0.17851,-0.06905,0,0.19169,-0.21227,-0.30967,-0.23196,40.748,-0.2513,0.089203,-3.0553e-05,0.32,0.4,0
0.17006,0.053177,0.6446,-0.2964,-0.75076,-0.67226,0.078259,0,0,0.33096,-0.18369,0,0.78902,0,0,0.22942,-0.31698,0,0.41533,-0.25898,-0.78817,-0.67226,27.411,-0.57314,0.48987,0.015664,0.34,0.4,0
0.19039,0.04747,0.63918,-0.37338,-1.2557,-1.1279,0.14469,0,0,0.98088,-0.16614,0,0.3762,0,0,0.33058,-0.52574,0,0.62318,-0.35025,-1.2788,-1.1279,9.0793,-0.91899,0.86306,0.029643,0.36,0.4,0
0.20929,0.045248,0.63138,-0.41694,-1.1472,-1.1006,0.15884,0,0,0.88877,-0.060517,0,0.41299,0,0,0.42816,-0.41559,0,0.59609,-0.38388,-1.1802,-1.1006,11.756,-0.88823,0.75966,0.021684,0.38,0.4,0
0.22594,0.04476,0.62205,-0.47925,-1.0885,-1.0924,0.14035,0,0,0.79708,0.0049973,0,0.36492,0,0,0.48395,-0.31704,0,0.57744,-0.44847,-1.1193,-1.0924,12.368,-0.88673,0.65779,0.014536,0.4,0.4,0
0.24118,0.044708,0.61202,-0.50817,-1.0253,-1.072,0.1054,0,0,0.73305,0.060797,0,0.27405,0,0,0.50974,-0.22181,0,0.55451,-0.48751,-1.0459,-1.072,11.089,-0.8685,0.57194,0.0095415,0.42,0.4,0
0.25526,0.044704,0.60166,-0.52018,-0.95754,-1.045,0.056886,0,0,0.68224,0.11367,0,0.14791,0,0,0.51696,-0.12075,0,0.52896,-0.5129,-0.96481,-1.045,7.2908,-0.8409,0.49687,0.0057512,0.44,0.4,0
0.26847,0.044395,0.59134,-0.50351,-0.88838,-1.0089,-0.013277,0,0,0.65702,0.15668,0,-0.034519,0,0,0.50253,-0.0025017,0,0.49949,-0.50305,-0.88884,-1.0089,-1.9734,-0.80027,0.45779,0.0038083,0.46,0.4,0
0.28154,0.043347,0.58156,-0.3761,-0.8069,-0.93646,-0.075592,0,0,0.72847,0.16843,0,-0.19654,0,0,0.39451,0.15467,0,0.41682,-0.36322,-0.81977,-0.93646,-9.669,-0.70648,0.52472,0.006201,0.48,0.4,0
0.29761,0.045533,0.57556,-0.28015,-0.51752,-0.55905,-0.097762,0,0,0.0512,0.097201,0,-0.67902,0,0,0.24162,0.23244,0,0.35681,-0.21601,-0.58165,-0.55905,-39.881,-0.45224,0.36907,0.006729,0.5,0.4,0
0.28359,0.036645,0.54258,-0.24856,-0.20711,-0.19698,-0.032843,0,0,-0.60339,-0.11842,0,-0.76854,0,0,0.16942,0.035567,0,0.17329,-0.189,-0.26667,-0.19698,-61.127,-0.21755,0.074001,-1.9998e-05,0.52,0.4,0
0.27347,0.031481,0.51457,-0.225,-0.20021,-0.18474,-0.022713,0,0,-0.47108,-0.181,0,-0.53148,0,0,0.15006,0.021281,0,0.15153,-0.18673,-0.23848,-0.18474,-59.313,-0.20331,0.052775,-7.5132e-06,0.54,0.4,0
0.26475,0.027818,0.48855,-0.2134,-0.19771,-0.17762,-0.016902,0,0,-0.41868,-0.23507,0,-0.39551,0,0,0.14213,0.011705,0,0.14259,-0.18692,-0.22419,-0.17762,-57.451,-0.19624,0.042688,-3.3644e-06,0.56,0.4,0
0.25672,0.024646,0.4634,-0.20581,-0.19545,-0.17187,-0.013384,0,0,-0.39719,-0.27587,0,-0.31318,0,0,0.13841,0.0051211,0,0.13849,-0.18628,-0.21498,-0.17187,-55.588,-0.19104,0.038017,-1.5167e-06,0.58,0.4,0
0.24886,0.021798,0.43872,-0.20083,-0.19329,-0.16698,-0.010879,0,0,-0.39596,-0.30784,0,-0.25456,0,0,0.13632,0.00052608,0,0.13631,-0.18555,-0.20857,-0.16698,-54.547,-0.18703,0.036086,-4.4505e-07,0.6,0.4,0
0.24088,0.019195,0.41433,-0.1972,-0.19081,-0.16244,-0.008943,0,0,-0.40673,-0.33192,0,-0.20927,0,0,0.13503,-0.0027157,0,0.13506,-0.18451,-0.2035,-0.16244,-54.835,-0.18349,0.035595,2.9939e-07,0.62,0.4,0
0.23259,0.016847,0.39011,-0.19443,-0.18784,-0.15803,-0.0072793,0,0,-0.42592,-0.34884,0,-0.17034,0,0,0.13421,-0.0050213,0,0.1343,-0.18315,-0.19913,-0.15803,-57.174,-0.1801,0.035885,8.8712e-07,0.64,0.4,0
0.22385,0.014783,0.36601,-0.19223,-0.18436,-0.15365,-0.0057388,0,0,-0.45148,-0.35935,0,-0.13429,0,0,0.13368,-0.0066867,0,0.13384,-0.18134,-0.19526,-0.15365,-62.225,-0.17675,0.036688,1.3611e-06,0.66,0.4,0
0.21453,0.013033,0.34199,-0.19045,-0.18039,-0.14925,-0.0042332,0,0,-0.48207,-0.36431,0,-0.099057,0,0,0.13336,-0.007939,0,0.13359,-0.17885,-0.192,-0.14925,-69.966,-0.17336,0.037921,1.7073e-06,0.68,0.4,0
0.20456,0.01162,0.318,-0.189,-0.17599,-0.14483,-0.0027037,0,0,-0.5168,-0.36455,0,-0.063265,0,0,0.1332,-0.0089658,0,0.1335,-0.17545,-0.18954,-0.14483,-78.717,-0.16994,0.039592,1.88e-06,0.7,0.4,0
0.19386,0.010554,0.29403,-0.18783,-0.17123,-0.14039,-0.0011006,0,0,-0.55503,-0.36087,0,-0.025754,0,0,0.13319,-0.009935,0,0.13356,-0.17116,-0.1879,-0.14039,-86.222,-0.16648,0.04174,1.8122e-06,0.72,0.4,0
0.18236,0.0098355,0.27005,-0.18691,-0.16619,-0.13594,0.00062602,0,0,-0.59644,-0.35393,0,0.014649,0,0,0.13333,-0.011009,0,0.13378,-0.16617,-0.18693,-0.13594,88.272,-0.16301,0.044417,1.4172e-06,0.74,0.4,0
0.17,0.0094583,0.24604,-0.18628,-0.16093,-0.1315,0.0025349,0,0,-0.64093,-0.34434,0,0.059316,0,0,0.13363,-0.012358,0,0.1342,-0.16068,-0.18653,-0.1315,84.345,-0.15957,0.047687,5.8219e-07,0.76,0.4,0
0.15673,0.0094089,0.22195,-0.18599,-0.15554,-0.12712,0.0047032,0,0,-0.68876,-0.33256,0,0.11006,0,0,0.13415,-0.014178,0,0.1349,-0.15484,-0.1867,-0.12712,81.415,-0.15622,0.051638,-8.5092e-07,0.78,0.4,0
0.14245,0.0096726,0.19774,-0.18617,-0.15011,-0.12286,0.0072443,0,0,-0.74078,-0.31891,0,0.16952,0,0,0.13498,-0.016706,0,0.136,-0.14871,-0.18757,-0.12286,79.054,-0.15305,0.056421,-3.1324e-06,0.8,0.4,0
0.12709,0.010241,0.17335,-0.18711,-0.14475,-0.11882,0.010331,0,0,-0.799,-0.30341,0,0.24174,0,0,0.13629,-0.020258,0,0.13778,-0.14237,-0.1895,-0.11882,76.999,-0.15023,0.062332,-6.7217e-06,0.82,0.4,0
0.11049,0.011125,0.14868,-0.1894,-0.1396,-0.11522,0.014236,0,0,-0.8679,-0.28526,0,0.33312,0,0,0.13848,-0.025275,0,0.14075,-0.13582,-0.19318,-0.11522,75.121,-0.14807,0.069975,-1.2592e-05,0.84,0.4,0
0.092378,0.01238,0.1235,-0.19438,-0.13492,-0.11251,0.019275,0,0,-0.95783,-0.26215,0,0.45103,0,0,0.14245,-0.032427,0,0.14606,-0.12921,-0.20008,-0.11251,73.522,-0.14727,0.080526,-2.2976e-05,0.86,0.4,0
0.07218,0.014063,0.097395,-0.20386,-0.13068,-0.11119,0.025987,0,0,-1.0843,-0.22812,0,0.60809,0,0,0.15108,-0.04272,0,0.15697,-0.12239,-0.21215,-0.11119,72.308,-0.14858,0.095855,-4.3156e-05,0.88,0.4,0
0.049005,0.016546,0.069112,-0.22267,-0.12949,-0.11332,0.035681,0,0,-1.2793,-0.1891,0,0.83494,0,0,0.17148,-0.057682,0,0.18117,-0.11739,-0.23476,-0.11332,71.276,-0.15516,0.11945,-8.7197e-05,0.9,0.4,0
0.021009,0.021561,0.035663,-0.23985,-0.1926,-0.14955,0.10653,0,0,-0.73953,-0.10075,0,0.72808,0,0,0.24175,-0.33387,0,0.43404,-0.096058,-0.3364,-0.14955,57.302,-0.194,0.22007,-0.00052007,0.92,0.4,0
0.019424,0.015101,0.02971,-0.33606,-0.24507,-0.20405,0.12643,0,0,-0.17161,-0.053332,0,0.32871,0,0,0.38853,-0.32911,0,0.50484,-0.1562,-0.42493,-0.20405,54.895,-0.26173,0.24829,-0.00068872,0.94,0.4,0
0.014145,0.013839,0.020122,-0.46428,-0.24694,-0.23349,0.10433,0,0,-0.30003,-0.017487,0,0.27125,0,0,0.48957,-0.18419,0,0.52075,-0.20496,-0.50625,-0.23349,68.084,-0.3149,0.28809,-0.0011875,0.96,0.4,0
0.0074229,0.013409,0.010127,-0.50227,-0.23151,-0.23026,0.052594,0,0,-0.35362,-0.0016227,0,0.13675,0,0,0.50306,-0.083632,0,0.50859,-0.22165,-0.51213,-0.23026,79.385,-0.32135,0.28627,-0.0012012,0.98,0.4,0
0,0.013345,0,-0.49779,-0.20985,-0.21229,-0.0012323,0,0,-0.37115,0.0031755,0,-0.0032041,0,0,0.50636,3.4694e-18,0,0.50522,-0.20984,-0.49779,-0.21229,-89.755,-0.30664,0.28673,-0.0012105,1,0.4,0
0,0.059263,1,-0.54426,-1.534,-1.6235,-0.0030501,0,0,1.403,0.11634,0,-0.0079302,0,0,0.45887,-2.5709e-15,0,0.45825,-0.54426,-1.534,-1.6235,-0.17657,-1.2339,1.0374,0.0559,0,0.42,0
0.028059,0.059104,0.99082,-0.53637,-1.5142,-1.606,-0.027116,0,0,1.3905,0.11935,0,-0.070501,0,0,0.45742,0.058535,0,0.46046,-0.53562,-1.5149,-1.606,-1.5872,-1.2188,1.0279,0.054302,0.02,0.42,0
0.05562,0.058474,0.9817,-0.54452,-1.4986,-1.5946,-0.063919,0,0,1.3651,0.12488,0,-0.16619,0,0,0.4516,0.12413,0,0.46738,-0.54026,-1.5028,-1.5946,-3.8159,-1.2126,1.0116,0.051695,0.04,0.42,0
0.082665,0.057146,0.97276,-0.54179,-1.4912,-1.5826,-0.12479,0,0,1.3531,0.11892,0,-0.32445,0,0,0.4369,0.20708,0,0.48177,-0.52566,-1.5073,-1.5826,-7.3645,-1.2052,1.0214,0.053725,0.06,0.42,0
0.10974,0.054244,0.96423,-0.39683,-1.4803,-1.5274,-0.17505,0,0,1.4697,0.061146,0,-0.45513,0,0,0.34557,0.32887,0,0.47403,-0.36925,-1.5079,-1.5274,-8.9531,-1.1348,1.1485,0.077737,0.08,0.42,0
0.14145,0.054956,0.95894,-0.3373,-1.0652,-0.95348,-0.15846,0,0,0.86757,-0.26135,0,-1.201,0,0,0.2148,0.31273,0,0.39902,-0.28725,-1.1152,-0.95348,-23.927,-0.78531,0.76521,0.062827,0.1,0.42,0
0.14445,0.032699,0.92923,-0.26023,-0.33253,-0.28108,-0.058635,0,0,0.2439,-0.602,0,-1.372,0,0,0.15211,0.050324,0,0.1604,-0.2275,-0.36526,-0.28108,-29.173,-0.29128,0.12029,-3.338e-05,0.12,0.42,0
0.15121,0.021389,0.90418,-0.23784,-0.3189,-0.26748,-0.034457,0,0,0.3469,-0.60157,0,-0.80629,0,0,0.13362,0.031613,0,0.13718,-0.22517,-0.33157,-0.26748,-20.184,-0.27474,0.092785,-1.4172e-05,0.14,0.42,0
0.15832,0.015448,0.88113,-0.23007,-0.31075,-0.26015,-0.019838,0,0,0.35193,-0.59203,0,-0.46421,0,0,0.12578,0.01623,0,0.1267,-0.22545,-0.31536,-0.26015,-13.093,-0.26699,0.078536,-9.5293e-06,0.16,0.42,0
0.16529,0.012078,0.85889,-0.22557,-0.30322,-0.25407,-0.010245,0,0,0.33343,-0.57508,0,-0.23973,0,0,0.12263,0.0029013,0,0.12255,-0.22424,-0.30455,-0.25407,-7.3909,-0.26096,0.070311,-7.6399e-06,0.18,0.42,0
0.17166,0.01029,0.83698,-0.22363,-0.29743,-0.24932,-0.0029439,0,0,0.30052,-0.5629,0,-0.068888,0,0,0.12168,-0.0093136,0,0.12194,-0.22351,-0.29754,-0.24932,-2.2808,-0.25679,0.065086,-7.0291e-06,0.2,0.42,0
0.17731,0.0095115,0.81509,-0.22294,-0.29315,-0.24539,0.0033565,0,0,0.26269,-0.55875,0,0.078542,0,0,0.1223,-0.021142,0,0.12402,-0.22278,-0.29331,-0.24539,2.7309,-0.25383,0.062376,-7.1687e-06,0.22,0.42,0
0.18217,0.0095789,0.79295,-0.2233,-0.29037,-0.24221,0.0098094,0,0,0.22122,-0.5635,0,0.22954,0,0,0.12442,-0.033196,0,0.12868,-0.22189,-0.29178,-0.24221,8.1524,-0.25196,0.062261,-8.0938e-06,0.24,0.42,0
0.18616,0.010636,0.77029,-0.22513,-0.28909,-0.23986,0.017533,0,0,0.17226,-0.57607,0,0.41026,0,0,0.12851,-0.046075,0,0.13642,-0.22064,-0.29358,-0.23986,14.367,-0.25136,0.065484,-1.0346e-05,0.26,0.42,0
0.18906,0.013207,0.74669,-0.22998,-0.28949,-0.23881,0.027706,0,0,0.10332,-0.59304,0,0.64831,0,0,0.13571,-0.060462,0,0.14849,-0.21907,-0.3004,-0.23881,21.477,-0.25276,0.073469,-1.5522e-05,0.28,0.42,0
0.19029,0.018187,0.72144,-0.23889,-0.29058,-0.239,0.04263,0,0,0.0012662,-0.60343,0,0.99755,0,0,0.14963,-0.077141,0,0.16834,-0.21488,-0.31458,-0.239,29.388,-0.25616,0.090098,-2.8685e-05,0.3,0.42,0
0.18911,0.028036,0.69283,-0.26136,-0.29686,-0.24445,0.066939,0,0,-0.1979,-0.61321,0,1.5664,0,0,0.1773,-0.09687,0,0.2026,-0.20986,-0.34836,-0.24445,37.575,-0.26755,0.12485,-7.4702e-05,0.32,0.42,0
0.18237,0.048651,0.65761,-0.33259,-0.88211,-0.72975,0.17795,0,0,0.36663,-0.35652,0,1.3377,0,0,0.26108,-0.51673,0,0.60162,-0.25913,-0.95556,-0.72975,28.944,-0.64815,0.62208,0.0232,0.34,0.42,0
0.20377,0.044023,0.65108,-0.40943,-1.1639,-1.1231,0.22721,0,0,0.92775,-0.05308,0,0.59074,0,0,0.4337,-0.61964,0,0.75389,-0.34629,-1.227,-1.1231,15.53,-0.89881,0.83365,0.028202,0.36,0.42,0
0.21948,0.044859,0.64026,-0.57611,-1.126,-1.1509,0.20666,0,0,0.74722,0.032369,0,0.53733,0,0,0.55918,-0.46201,0,0.72341,-0.5071,-1.195,-1.1509,18.465,-0.951,0.66695,0.015012,0.38,0.42,0
0.23366,0.045613,0.62871,-0.60907,-1.0676,-1.1317,0.16404,0,0,0.67944,0.083351,0,0.42651,0,0,0.59124,-0.34608,0,0.68372,-0.55643,-1.1202,-1.1317,17.792,-0.93613,0.56964,0.0094804,0.4,0.42,0
0.24666,0.046765,0.61661,-0.63342,-0.99579,-1.1054,0.12991,0,0,0.61355,0.14246,0,0.33776,0,0,0.6158,-0.24053,0,0.65972,-0.59166,-1.0375,-1.1054,17.82,-0.91153,0.48339,0.005418,0.42,0.42,0
0.25821,0.048037,0.60408,-0.66819,-0.90999,-1.0775,0.082317,0,0,0.53215,0.21781,0,0.21402,0,0,0.63615,-0.12987,0,0.64748,-0.64282,-0.93535,-1.0775,17.125,-0.88524,0.3839,0.0016197,0.44,0.42,0
0.26795,0.048869,0.59117,-0.72773,-0.82927,-1.0583,0.011303,0,0,0.4297,0.29769,0,0.029387,0,0,0.65526,-0.00048407,0,0.65241,-0.72649,-0.83052,-1.0583,6.2752,-0.87176,0.29392,-0.00077477,0.46,0.42,0
0.27539,0.048912,0.57787,-0.82561,-0.77801,-1.059,-0.10514,0,0,0.30335,0.36523,0,-0.27336,0,0,0.72079,0.17356,0,0.73318,-0.69401,-0.90961,-1.059,-51.378,-0.88753,0.31778,0.00050791,0.48,0.42,0
0.28008,0.046345,0.56234,-0.69567,-0.53526,-0.68169,-0.18575,0,0,-0.21081,0.2084,0,-1.1771,0,0,0.57065,0.26866,0,0.63452,-0.41287,-0.81806,-0.68169,-55.395,-0.63754,0.36091,0.0037768,0.5,0.42,0
0.27141,0.032633,0.53428,-0.76013,-0.24795,-0.59925,-0.099042,0,0,-0.37646,0.36754,0,-0.74299,0,0,0.72665,0.054081,0,0.72947,-0.21696,-0.79112,-0.59925,-65.612,-0.53578,0.51156,0.013531,0.52,0.42,0
0.26502,0.027012,0.51002,-0.69139,-0.22673,-0.55878,-0.037191,0,0,-0.31031,0.33236,0,-0.39727,0,0,0.6695,0.029486,0,0.67082,-0.21289,-0.70522,-0.55878,-67.921,-0.4923,0.44393,0.010734,0.54,0.42,0
0.259,0.022475,0.48608,-0.66485,-0.21097,-0.53279,-0.02435,0,0,-0.30902,0.29962,0,-0.28335,0,0,0.66316,0.014912,0,0.66354,-0.20083,-0.67499,-0.53279,-67.837,-0.46953,0.42876,0.0099091,0.56,0.42,0
0.25266,0.018706,0.46227,-0.65532,-0.20735,-0.51562,-0.016899,0,0,-0.32691,0.26875,0,-0.21347,0,0,0.66079,0.0065926,0,0.66086,-0.19964,-0.66303,-0.51562,-68.06,-0.45943,0.41871,0.008825,0.58,0.42,0
0.24592,0.015338,0.4385,-0.64807,-0.20388,-0.49919,-0.012648,0,0,-0.34836,0.24035,0,-0.16905,0,0,0.66025,0.0012312,0,0.66025,-0.19776,-0.65418,-0.49919,-68.288,-0.45038,0.41206,0.0078151,0.6,0.42,0
0.23873,0.012327,0.41473,-0.64257,-0.20038,-0.48329,-0.0094445,0,0,-0.37272,0.21517,0,-0.1353,0,0,0.66027,-0.0023587,0,0.66028,-0.19561,-0.64735,-0.48329,-68.91,-0.44208,0.40754,0.0068388,0.62,0.42,0
0.23101,0.0096833,0.39096,-0.63861,-0.19645,-0.46772,-0.0068059,0,0,-0.39989,0.19346,0,-0.10713,0,0,0.66045,-0.004825,0,0.66049,-0.19294,-0.64212,-0.46772,-70.266,-0.43426,0.40503,0.0058918,0.64,0.42,0
0.22273,0.0074325,0.36718,-0.63613,-0.19212,-0.45246,-0.0044863,0,0,-0.42978,0.17511,0,-0.081889,0,0,0.66061,-0.006562,0,0.6607,-0.18982,-0.63843,-0.45246,-72.805,-0.4269,0.40438,0.0049519,0.66,0.42,0
0.21382,0.005593,0.3434,-0.63496,-0.18743,-0.43749,-0.0023645,0,0,-0.46208,0.15974,0,-0.058142,0,0,0.66069,-0.0078426,0,0.66082,-0.18619,-0.63619,-0.43749,13.094,-0.41996,0.40541,0.003998,0.68,0.42,0
0.20425,0.0041722,0.31961,-0.63487,-0.18244,-0.42275,-0.00034679,0,0,-0.49634,0.1469,0,-0.034862,0,0,0.66066,-0.0088776,0,0.66082,-0.18197,-0.63533,-0.42275,7.8305,-0.41335,0.40793,0.0030123,0.7,0.42,0
0.19397,0.0031667,0.29583,-0.63563,-0.17723,-0.40821,0.001651,0,0,-0.53218,0.13612,0,-0.011162,0,0,0.66049,-0.0098475,0,0.6607,-0.17714,-0.63572,-0.40821,2.8618,-0.40702,0.41178,0.0019814,0.72,0.42,0
0.18296,0.0025641,0.27205,-0.63707,-0.17185,-0.39382,0.0037109,0,0,-0.56922,0.12697,0,0.013831,0,0,0.66019,-0.010925,0,0.66044,-0.17182,-0.63711,-0.39382,89.125,-0.40092,0.41678,0.0008954,0.74,0.42,0
0.1712,0.0023446,0.24829,-0.63902,-0.16636,-0.37956,0.0059185,0,0,-0.60715,0.11907,0,0.041093,0,0,0.65975,-0.012293,0,0.66007,-0.16617,-0.63921,-0.37956,86.471,-0.39498,0.4228,-0.00025211,0.76,0.42,0
0.15868,0.0024828,0.22455,-0.6413,-0.16083,-0.36539,0.0083788,0,0,-0.64563,0.11202,0,0.071884,0,0,0.6592,-0.014171,0,0.65963,-0.16032,-0.64182,-0.36539,84.475,-0.38917,0.42969,-0.0014642,0.78,0.42,0
0.14538,0.0029524,0.20083,-0.64375,-0.15535,-0.3513,0.011258,0,0,-0.68433,0.1054,0,0.10814,0,0,0.65861,-0.016848,0,0.65922,-0.15432,-0.64478,-0.3513,82.799,-0.38347,0.4373,-0.0027404,0.8,0.42,0
0.1313,0.0037358,0.17713,-0.64629,-0.1501,-0.33732,0.014909,0,0,-0.72298,0.098822,0,0.15336,0,0,0.65816,-0.020751,0,0.65907,-0.14829,-0.6481,-0.33732,81.199,-0.3779,0.44554,-0.00408,0.82,0.42,0
0.11646,0.004849,0.15345,-0.64962,-0.14575,-0.32386,0.020063,0,0,-0.76228,0.092072,0,0.21397,0,0,0.65834,-0.026601,0,0.65979,-0.14268,-0.65269,-0.32386,79.507,-0.37308,0.45476,-0.0055116,0.84,0.42,0
0.10081,0.0063713,0.12973,-0.65656,-0.1434,-0.31206,0.028901,0,0,-0.80613,0.085742,0,0.30415,0,0,0.6608,-0.035765,0,0.66327,-0.13813,-0.66183,-0.31206,77.575,-0.37068,0.46731,-0.0071699,0.86,0.42,0
0.084212,0.0085925,0.10587,-0.68363,-0.15294,-0.30979,0.043985,0,0,-0.87479,0.082319,0,0.43968,0,0,0.66877,-0.052193,0,0.67336,-0.14397,-0.69261,-0.30979,75.749,-0.38212,0.49081,-0.0099162,0.88,0.42,0
0.06582,0.011586,0.081582,-0.76103,-0.17404,-0.32585,0.091461,0,0,-1.0183,0.087125,0,0.72083,0,0,0.74036,-0.080544,0,0.74772,-0.15376,-0.78132,-0.32585,72.873,-0.42031,0.56354,-0.016981,0.9,0.42,0
0.043479,0.018436,0.052562,-0.66332,-0.31118,-0.32155,0.17445,0,0,-0.94077,-0.05596,0,1.1051,0,0,0.58673,-0.33961,0,0.68632,-0.23843,-0.73608,-0.32155,65.155,-0.43202,0.46177,-0.010961,0.92,0.42,0
0.031714,0.015743,0.036705,-0.78881,-0.27555,-0.35601,0.1596,0,0,-0.56264,0.1046,0,0.41497,0,0,0.71491,-0.32558,0,0.77868,-0.22997,-0.8344,-0.35601,74.061,-0.47346,0.5523,-0.0071567,0.94,0.42,0
0.020973,0.014684,0.023966,-0.71054,-0.22377,-0.30426,0.10467,0,0,-0.52816,0.10463,0,0.27215,0,0,0.62166,-0.1771,0,0.64458,-0.20222,-0.73209,-0.30426,78.364,-0.41286,0.48694,-0.0050633,0.96,0.42,0
0.010588,0.014464,0.011838,-0.67458,-0.19014,-0.27125,0.05316,0,0,-0.52432,0.10545,0,0.13822,0,0,0.59915,-0.078936,0,0.60327,-0.18437,-0.68034,-0.27125,83.811,-0.37866,0.45874,-0.0043648,0.98,0.42,0
0,0.014442,0,-0.65161,-0.163,-0.24438,-0.0004242,0,0,-0.5294,0.1058,0,-0.0011029,0,0,0.59191,6.9389e-18,0,0.59104,-0.163,-0.65161,-0.24438,-89.95,-0.353,0.45343,-0.0042728,1,0.42,0
0,0.061968,1,-0.5846,-1.5205,-1.6315,-0.0008884,0,0,1.361,0.14432,0,-0.0023099,0,0,0.51857,-2.7756e-15,0,0.51804,-0.5846,-1.5205,-1.6315,-0.054387,-1.2455,0.99608,0.048639,0,0.44,0
0.02722,0.061922,0.98963,-0.58095,-1.4951,-1.6124,-0.014064,0,0,1.3409,0.15258,0,-0.036567,0,0,0.52107,0.057392,0,0.52363,-0.58074,-1.4953,-1.6124,-0.88126,-1.2295,0.9784,0.045785,0.02,0.44,0
0.053637,0.061611,0.97916,-0.61098,-1.4679,-1.6028,-0.039615,0,0,1.2894,0.17538,0,-0.103,0,0,0.52967,0.12211,0,0.54275,-0.60915,-1.4697,-1.6028,-2.6412,-1.2272,0.93427,0.039034,0.04,0.44,0
0.078797,0.060438,0.96844,-0.67757,-1.4497,-1.6066,-0.085407,0,0,1.2078,0.20404,0,-0.22206,0,0,0.54723,0.20504,0,0.58293,-0.66824,-1.459,-1.6066,-6.2375,-1.2446,0.87396,0.031014,0.06,0.44,0
0.10195,0.057795,0.95727,-0.78812,-1.4644,-1.633,-0.21652,0,0,1.0984,0.21921,0,-0.56297,0,0,0.62667,0.32956,0,0.70245,-0.72473,-1.5278,-1.633,-16.317,-1.2952,0.86051,0.031082,0.08,0.44,0
0.12273,0.047002,0.94337,-0.69833,-0.99051,-1.0308,-0.2858,0,0,0.60362,-0.12445,0,-1.8145,0,0,0.51083,0.31576,0,0.60817,-0.52263,-1.1662,-1.0308,-33.273,-0.90653,0.5935,0.023373,0.1,0.44,0
0.13045,0.017511,0.91824,-0.60798,-0.38863,-0.80912,-0.16429,0,0,0.47066,0.20911,0,-1.1756,0,0,0.63368,0.075952,0,0.64051,-0.2668,-0.72981,-0.80912,-47.628,-0.60191,0.53055,0.013917,0.12,0.44,0
0.14156,0.0076401,0.89775,-0.52687,-0.35563,-0.7635,-0.045259,0,0,0.55371,0.22471,0,-0.50184,0,0,0.56078,0.043329,0,0.56399,-0.29364,-0.58886,-0.7635,-50.355,-0.54867,0.43759,0.00092573,0.14,0.44,0
0.1526,0.0022395,0.87786,-0.51787,-0.32794,-0.74145,-0.019814,0,0,0.52317,0.24403,0,-0.26844,0,0,0.54883,0.020762,0,0.54959,-0.27493,-0.57088,-0.74145,-49.487,-0.52909,0.43087,0.0018185,0.16,0.44,0
0.16248,-0.00042937,0.85823,-0.53329,-0.3209,-0.73305,-0.0058326,0,0,0.46745,0.25786,0,-0.1223,0,0,0.54454,0.0041481,0,0.5445,-0.27364,-0.58055,-0.73305,-48.034,-0.52908,0.4237,0.0035141,0.18,0.44,0
0.1713,-0.0017981,0.83866,-0.54552,-0.31529,-0.72416,0.0015456,0,0,0.41802,0.26292,0,-0.026319,0,0,0.54481,-0.010288,0,0.54497,-0.27151,-0.5893,-0.72416,43.731,-0.52832,0.41886,0.0049061,0.2,0.44,0
0.17921,-0.0024279,0.81901,-0.55241,-0.31126,-0.7141,0.0071474,0,0,0.37837,0.25838,0,0.052972,0,0,0.54832,-0.024183,0,0.5495,-0.2694,-0.59426,-0.7141,45.578,-0.52592,0.4139,0.0057687,0.22,0.44,0
0.18643,-0.0024987,0.79918,-0.55346,-0.30827,-0.70251,0.013137,0,0,0.34877,0.24411,0,0.1354,0,0,0.5554,-0.038784,0,0.55841,-0.26675,-0.59498,-0.70251,47.535,-0.52141,0.40853,0.006129,0.24,0.44,0
0.19316,-0.0018384,0.77902,-0.55056,-0.30718,-0.69011,0.021757,0,0,0.32655,0.2206,0,0.24092,0,0,0.56756,-0.055454,0,0.57338,-0.26413,-0.5936,-0.69011,49.598,-0.51595,0.40303,0.0061158,0.26,0.44,0
0.19949,9.236e-05,0.75831,-0.54802,-0.30827,-0.67817,0.037852,0,0,0.30456,0.18944,0,0.40199,0,0,0.58868,-0.076227,0,0.59863,-0.26066,-0.59563,-0.67817,51.505,-0.51149,0.40073,0.0061251,0.28,0.44,0
0.20534,0.0046175,0.73663,-0.57583,-0.33033,-0.68109,0.066314,0,0,0.24631,0.15443,0,0.65268,0,0,0.62574,-0.10623,0,0.64203,-0.27377,-0.63239,-0.68109,53.142,-0.52908,0.40389,0.0069691,0.3,0.44,0
0.20934,0.013217,0.71326,-0.68732,-0.36262,-0.71124,0.18113,0,0,0.055957,0.12391,0,1.3017,0,0,0.76153,-0.15072,0,0.78383,-0.25327,-0.79667,-0.71124,52.176,-0.58706,0.52012,0.017641,0.32,0.44,0
0.20758,0.038917,0.6818,-0.75565,-0.88764,-0.87177,0.30567,0,0,0.11169,-0.23695,0,1.9259,0,0,0.64686,-0.49872,0,0.82851,-0.50883,-1.1345,-0.87177,39.555,-0.83835,0.54695,0.0075489,0.34,0.44,0
0.21781,0.045347,0.66396,-0.86495,-1.1909,-1.2807,0.28059,0,0,0.54049,0.11677,0,0.72955,0,0,0.79868,-0.62543,0,1.0086,-0.70343,-1.3524,-1.2807,29.926,-1.1122,0.61626,0.011474,0.36,0.44,0
0.2292,0.046543,0.64986,-0.76811,-1.1187,-1.2159,0.19068,0,0,0.58212,0.12637,0,0.49578,0,0,0.70173,-0.47802,0,0.84741,-0.68439,-1.2024,-1.2159,23.705,-1.0342,0.52489,0.0074109,0.38,0.44,0
0.2411,0.048094,0.63589,-0.72929,-1.0607,-1.1729,0.17257,0,0,0.57666,0.14589,0,0.44867,0,0,0.70542,-0.36852,0,0.79473,-0.65575,-1.1342,-1.1729,23.083,-0.98761,0.49892,0.0062492,0.4,0.44,0
0.25226,0.050406,0.62164,-0.7412,-0.97937,-1.1378,0.16085,0,0,0.5156,0.20597,0,0.41821,0,0,0.72594,-0.26508,0,0.77171,-0.66015,-1.0604,-1.1378,26.743,-0.95279,0.44405,0.0040406,0.42,0.44,0
0.26172,0.053417,0.60686,-0.78382,-0.86391,-1.1012,0.13404,0,0,0.41257,0.30844,0,0.34851,0,0,0.75701,-0.15511,0,0.77146,-0.68397,-0.96376,-1.1012,36.683,-0.9163,0.36826,0.0014134,0.44,0.44,0
0.26877,0.056302,0.59136,-0.85001,-0.7438,-1.0695,0.07782,0,0,0.28534,0.42341,0,0.20233,0,0,0.80596,-0.03273,0,0.80513,-0.70269,-0.89111,-1.0695,62.155,-0.88777,0.31771,7.8035e-05,0.46,0.44,0
0.27313,0.057956,0.57462,-0.94784,-0.66351,-1.058,-0.0035518,0,0,0.14323,0.51287,0,-0.0092346,0,0,0.90818,0.10886,0,0.91438,-0.66347,-0.94789,-1.058,-89.284,-0.88979,0.35263,0.0015337,0.48,0.44,0
0.27449,0.057226,0.55503,-1.0462,-0.59573,-1.0476,-0.11541,0,0,0.0018029,0.58746,0,-0.30006,0,0,1.0395,0.22905,0,1.0701,-0.56789,-1.0741,-1.0476,-76.436,-0.89653,0.4935,0.0061129,0.5,0.44,0
0.27321,0.051346,0.53304,-1.0671,-0.27996,-0.93717,-0.10405,0,0,-0.16897,0.85437,0,-0.27052,0,0,1.1422,0.071456,0,1.1427,-0.26644,-1.0807,-0.93717,-82.596,-0.76142,0.75281,0.019255,0.52,0.44,0
0.26774,0.044775,0.50934,-1.1559,-0.26311,-0.93505,-0.069041,0,0,-0.28713,0.87353,0,-0.17951,0,0,1.1821,0.032898,0,1.1825,-0.2578,-1.1612,-0.93505,-85.604,-0.7847,0.81425,0.020683,0.54,0.44,0
0.26172,0.039803,0.48575,-1.1374,-0.23876,-0.89859,-0.041041,0,0,-0.3104,0.85778,0,-0.10671,0,0,1.1803,0.015353,0,1.1804,-0.23689,-1.1392,-0.89859,-87.39,-0.75824,0.80931,0.01933,0.56,0.44,0
0.25532,0.035396,0.46213,-1.1217,-0.22793,-0.86701,-0.029006,0,0,-0.33105,0.83081,0,-0.075416,0,0,1.182,0.0059172,0,1.182,-0.22699,-1.1226,-0.86701,-88.143,-0.73886,0.79909,0.017452,0.58,0.44,0
0.24848,0.031412,0.43848,-1.1113,-0.22147,-0.8383,-0.021262,0,0,-0.35487,0.80188,0,-0.055282,0,0,1.1838,0.00029091,0,1.1838,-0.22096,-1.1118,-0.8383,-88.632,-0.72368,0.7904,0.015505,0.6,0.44,0
0.24113,0.027801,0.41478,-1.105,-0.21634,-0.81117,-0.015563,0,0,-0.38193,0.77329,0,-0.040465,0,0,1.1854,-0.0032349,0,1.1854,-0.21607,-1.1052,-0.81117,-88.997,-0.71083,0.78462,0.013577,0.62,0.44,0
0.2332,0.024585,0.39106,-1.1015,-0.2113,-0.78491,-0.010894,0,0,-0.41161,0.74569,0,-0.028324,0,0,1.1867,-0.0055026,0,1.1867,-0.21117,-1.1017,-0.78491,-89.299,-0.69925,0.78182,0.011666,0.64,0.44,0
0.22466,0.021787,0.36731,-1.1002,-0.20602,-0.75918,-0.0069528,0,0,-0.44334,0.71911,0,-0.018077,0,0,1.1876,-0.0069913,0,1.1877,-0.20597,-1.1003,-0.75918,-89.555,-0.68847,0.78172,0.0097414,0.66,0.44,0
0.21547,0.019423,0.34355,-1.1005,-0.20047,-0.73384,-0.0035668,0,0,-0.47665,0.69338,0,-0.0092737,0,0,1.1882,-0.0080082,0,1.1882,-0.20045,-1.1005,-0.73384,-89.773,-0.67827,0.78391,0.007774,0.68,0.44,0
0.2056,0.017496,0.31979,-1.1019,-0.19469,-0.70878,-0.0005887,0,0,-0.51112,0.66832,0,-0.0015306,0,0,1.1883,-0.0087741,0,1.1883,-0.19469,-1.1019,-0.70878,-89.963,-0.66847,0.78804,0.0057395,0.7,0.44,0
0.19502,0.015998,0.29602,-1.1043,-0.18875,-0.68393,0.0021262,0,0,-0.54645,0.64373,0,0.0055282,0,0,1.1879,-0.0094687,0,1.188,-0.18874,-1.1043,-0.68393,89.867,-0.65898,0.79376,0.0036218,0.72,0.44,0
0.18374,0.014914,0.27227,-1.1072,-0.18271,-0.65924,0.0047135,0,0,-0.58235,0.6195,0,0.012255,0,0,1.1872,-0.01026,0,1.1872,-0.18268,-1.1072,-0.65924,89.708,-0.64972,0.80081,0.0014111,0.74,0.44,0
0.17173,0.014221,0.24854,-1.1106,-0.17664,-0.63469,0.0072954,0,0,-0.61862,0.59547,0,0.018968,0,0,1.186,-0.01133,0,1.186,-0.17658,-1.1106,-0.63469,89.552,-0.64063,0.80895,-0.00089753,0.76,0.44,0
0.15899,0.01389,0.22483,-1.1142,-0.17064,-0.61028,0.0099964,0,0,-0.65508,0.57152,0,0.025991,0,0,1.1843,-0.012907,0,1.1844,-0.17054,-1.1143,-0.61028,89.393,-0.6317,0.81795,-0.0033059,0.78,0.44,0
0.14553,0.013889,0.20116,-1.118,-0.16498,-0.58606,0.013019,0,0,-0.69152,0.5474,0,0.03385,0,0,1.1822,-0.015316,0,1.1823,-0.16481,-1.1182,-0.58606,89.218,-0.62302,0.8275,-0.0058138,0.8,0.44,0
0.13133,0.014194,0.17754,-1.122,-0.16028,-0.56224,0.016846,0,0,-0.72773,0.52255,0,0.0438,0,0,1.1796,-0.019082,0,1.1797,-0.15998,-1.1223,-0.56224,88.997,-0.61485,0.83714,-0.0084205,0.82,0.44,0
0.11642,0.014808,0.15398,-1.1264,-0.15798,-0.53931,0.022863,0,0,-0.76329,0.49573,0,0.059444,0,0,1.1768,-0.025174,0,1.1771,-0.15744,-1.127,-0.53931,88.648,-0.60791,0.84594,-0.011123,0.84,0.44,0
0.1008,0.015809,0.13047,-1.1307,-0.16083,-0.51794,0.033993,0,0,-0.79661,0.46424,0,0.088381,0,0,1.1741,-0.035691,0,1.1747,-0.15964,-1.1319,-0.51794,87.995,-0.60316,0.85166,-0.013858,0.86,0.44,0
0.084553,0.017356,0.10701,-1.1288,-0.17431,-0.49796,0.059503,0,0,-0.82015,0.42075,0,0.15471,0,0,1.1763,-0.056244,0,1.1776,-0.17061,-1.1325,-0.49796,86.447,-0.60037,0.8471,-0.01624,0.88,0.44,0
0.067994,0.020031,0.083418,-1.0389,-0.17726,-0.44827,0.090005,0,0,-0.76782,0.3523,0,0.23401,0,0,1.1335,-0.10453,0,1.1359,-0.16796,-1.0482,-0.44827,84.1,-0.55481,0.77888,-0.0141,0.9,0.44,0
0.05384,0.021329,0.061673,-1.0083,-0.33831,-0.46567,0.12248,0,0,-0.70547,0.16556,0,0.31844,0,0,1.0171,-0.30505,0,1.0689,-0.31663,-1.03,-0.46567,79.959,-0.60411,0.65178,-0.011753,0.92,0.44,0
0.039776,0.019285,0.042733,-0.91954,-0.23841,-0.39012,0.078808,0,0,-0.68825,0.19722,0,0.2049,0,0,0.86167,-0.22881,0,0.89348,-0.22941,-0.92854,-0.39012,83.486,-0.51602,0.63424,-0.010322,0.94,0.44,0
0.02631,0.018024,0.027206,-0.84899,-0.1863,-0.33779,0.062259,0,0,-0.66455,0.19694,0,0.16187,0,0,0.73621,-0.12916,0,0.74728,-0.1805,-0.85479,-0.33779,84.679,-0.45769,0.61102,-0.0091507,0.96,0.44,0
0.013194,0.017626,0.013285,-0.80664,-0.15137,-0.30069,0.035522,0,0,-0.65774,0.19411,0,0.092357,0,0,0.68016,-0.05741,0,0.6822,-0.14945,-0.80856,-0.30069,86.906,-0.41957,0.59801,-0.0086608,0.98,0.44,0
0,0.017576,0,-0.7762,-0.11966,-0.26876,-0.00096434,0,0,-0.65968,0.19382,0,-0.0025073,0,0,0.66423,1.7347e-18,0,0.66379,-0.11966,-0.7762,-0.26876,-89.916,-0.38821,0.59615,-0.0086295,1,0.44,0
0,0.065036,1,-0.59919,-1.5204,-1.6359,0.0033028,0,0,1.3477,0.15008,0,0.0085872,0,0,0.57365,-1.308e-15,0,0.57329,-0.59918,-1.5205,-1.6359,0.20541,-1.2518,0.98409,0.046684,0,0.46,0
0.026954,0.065208,0.98853,-0.59441,-1.4883,-1.6133,0.0042028,0,0,1.3246,0.16258,0,0.010927,0,0,0.57953,0.049734,0,0.58129,-0.59439,-1.4883,-1.6133,0.26939,-1.232,0.96253,0.043206,0.02,0.46,0
0.052984,0.06549,0.97682,-0.62331,-1.4447,-1.5972,-0.0011072,0,0,1.2661,0.19824,0,-0.0028787,0,0,0.59926,0.10463,0,0.60794,-0.62331,-1.4447,-1.5972,-0.077228,-1.2218,0.90734,0.034741,0.04,0.46,0
0.077598,0.065307,0.96456,-0.66142,-1.3844,-1.5783,-0.029471,0,0,1.192,0.25206,0,-0.076625,0,0,0.64435,0.17034,0,0.66617,-0.66022,-1.3856,-1.5783,-2.3303,-1.2081,0.83852,0.024974,0.06,0.46,0
0.10066,0.063013,0.95105,-0.73929,-1.3423,-1.5755,-0.10333,0,0,1.0871,0.30323,0,-0.26866,0,0,0.74384,0.25362,0,0.78727,-0.72207,-1.3595,-1.5755,-9.4592,-1.219,0.76854,0.017253,0.08,0.46,0
0.12108,0.055443,0.9348,-0.84687,-1.1756,-1.5415,-0.22615,0,0,0.90307,0.47575,0,-0.588,0,0,0.86555,0.3053,0,0.92247,-0.73166,-1.2908,-1.5415,-26.996,-1.188,0.71813,0.011499,0.1,0.46,0
0.13678,0.041064,0.91642,-0.83746,-0.52277,-1.3245,-0.17822,0,0,0.63314,1.0422,0,-0.46338,0,0,0.95182,0.11122,0,0.95593,-0.44237,-0.91785,-1.3245,-65.72,-0.8949,0.76471,0.0030934,0.12,0.46,0
0.14641,0.030377,0.89673,-0.95802,-0.45593,-1.3209,-0.082061,0,0,0.47176,1.1245,0,-0.21336,0,0,0.97567,0.05549,0,0.97708,-0.44286,-0.9711,-1.3209,-80.949,-0.91162,0.76564,0.0079116,0.14,0.46,0
0.15565,0.025209,0.8774,-0.92583,-0.39108,-1.2725,-0.022284,0,0,0.45063,1.1458,0,-0.057937,0,0,0.96472,0.025251,0,0.96499,-0.39015,-0.92676,-1.2725,-87.618,-0.86313,0.77005,0.0085418,0.16,0.46,0
0.16443,0.022392,0.85814,-0.91481,-0.36069,-1.2408,-0.0015668,0,0,0.42378,1.1441,0,-0.0040736,0,0,0.96285,0.004302,0,0.96283,-0.36069,-0.91482,-1.2408,-89.838,-0.83877,0.77068,0.010135,0.18,0.46,0
0.17261,0.020806,0.83888,-0.91519,-0.34523,-1.217,0.0069548,0,0,0.39236,1.1333,0,0.018083,0,0,0.96505,-0.013281,0,0.96512,-0.34515,-0.91528,-1.217,89.301,-0.82581,0.76689,0.011664,0.2,0.46,0
0.18013,0.019847,0.81954,-0.92049,-0.33834,-1.1972,0.011118,0,0,0.35971,1.1165,0,0.028907,0,0,0.97112,-0.030401,0,0.97157,-0.33813,-0.9207,-1.1972,88.906,-0.81868,0.75955,0.012868,0.22,0.46,0
0.18699,0.019343,0.80004,-0.92872,-0.33836,-1.1802,0.016035,0,0,0.32687,1.0943,0,0.041691,0,0,0.98179,-0.049245,0,0.98301,-0.33792,-0.92916,-1.1802,88.445,-0.81575,0.74898,0.013693,0.24,0.46,0
0.1932,0.01946,0.78027,-0.94246,-0.3474,-1.1672,0.027027,0,0,0.29219,1.0658,0,0.070269,0,0,0.99917,-0.072357,0,1.0018,-0.34617,-0.94369,-1.1672,87.405,-0.81903,0.73523,0.014231,0.26,0.46,0
0.19868,0.020784,0.76007,-0.96834,-0.37141,-1.162,0.052289,0,0,0.25175,1.0278,0,0.13595,0,0,1.0268,-0.10389,0,1.032,-0.36686,-0.97288,-1.162,85.032,-0.83391,0.71947,0.014765,0.28,0.46,0
0.20327,0.024365,0.7392,-1.0137,-0.42658,-1.1713,0.11694,0,0,0.20489,0.96809,0,0.30404,0,0,1.0763,-0.15297,0,1.087,-0.40415,-1.0361,-1.1713,79.14,-0.87051,0.70926,0.016104,0.3,0.46,0
0.20688,0.032992,0.71702,-0.90946,-0.47705,-1.133,0.21383,0,0,0.29057,0.8527,0,0.55596,0,0,1.0899,-0.24465,0,1.1136,-0.38917,-0.99734,-1.133,67.658,-0.83982,0.68611,0.014428,0.32,0.46,0
0.2149,0.044168,0.6956,-0.93653,-1.0494,-1.2914,0.27466,0,0,0.46131,0.31455,0,0.71412,0,0,1.023,-0.55124,0,1.1638,-0.71258,-1.2734,-1.2914,39.194,-1.0924,0.57002,0.0094805,0.34,0.46,0
0.22533,0.048694,0.6761,-0.84532,-1.1081,-1.2621,0.18416,0,0,0.54183,0.20025,0,0.47882,0,0,0.90537,-0.54477,0,1.058,-0.75048,-1.2029,-1.2621,27.248,-1.0718,0.48476,0.0055576,0.36,0.46,0
0.23657,0.049914,0.65938,-0.7939,-1.0914,-1.225,0.15513,0,0,0.56041,0.17361,0,0.40332,0,0,0.81609,-0.46792,0,0.94012,-0.72774,-1.1576,-1.225,23.099,-1.0368,0.46721,0.0048728,0.38,0.46,0
0.24775,0.051449,0.64345,-0.79093,-1.0788,-1.2044,0.17201,0,0,0.53746,0.16329,0,0.44722,0,0,0.80417,-0.38977,0,0.89302,-0.71057,-1.1591,-1.2044,25.041,-1.0247,0.47279,0.0052606,0.4,0.46,0
0.25807,0.055003,0.62722,-0.8127,-0.99166,-1.1685,0.20168,0,0,0.46257,0.22992,0,0.52437,0,0,0.82921,-0.29875,0,0.88066,-0.68154,-1.1228,-1.1685,33.037,-0.99096,0.46582,0.005023,0.42,0.46,0
0.26625,0.060374,0.61029,-0.85543,-0.82289,-1.1138,0.19859,0,0,0.33586,0.37816,0,0.51633,0,0,0.8685,-0.19201,0,0.88861,-0.6399,-1.0384,-1.1138,47.342,-0.9307,0.44105,0.0039762,0.44,0.46,0
0.2715,0.065806,0.59248,-0.91389,-0.66077,-1.0649,0.14899,0,0,0.19628,0.52534,0,0.38736,0,0,0.91923,-0.08142,0,0.92221,-0.59184,-0.98282,-1.0649,65.174,-0.87985,0.43781,0.0038047,0.46,0.46,0
0.2741,0.069427,0.57352,-0.96917,-0.55402,-1.0305,0.067766,0,0,0.079697,0.61939,0,0.17619,0,0,0.98257,0.014646,0,0.98303,-0.54324,-0.97995,-1.0305,80.96,-0.85122,0.46404,0.0049274,0.48,0.46,0
0.27469,0.069844,0.55317,-1.031,-0.49393,-1.0107,-0.012602,0,0,-0.026451,0.67174,0,-0.032765,0,0,1.0524,0.055099,0,1.0544,-0.49363,-1.0313,-1.0107,-88.657,-0.8452,0.52764,0.0075058,0.5,0.46,0
0.27304,0.066808,0.53142,-1.0619,-0.3665,-0.95996,-0.066403,0,0,-0.13259,0.77149,0,-0.17265,0,0,1.1118,0.053264,0,1.1134,-0.36022,-1.0682,-0.95996,-84.594,-0.79614,0.66056,0.013473,0.52,0.46,0
0.26938,0.061953,0.5087,-1.09,-0.27516,-0.91825,-0.064014,0,0,-0.22328,0.83602,0,-0.16644,0,0,1.149,0.024887,0,1.1492,-0.27016,-1.095,-0.91825,-85.535,-0.76114,0.75221,0.017857,0.54,0.46,0
0.26411,0.056786,0.48546,-1.1126,-0.25032,-0.89433,-0.048689,0,0,-0.28372,0.83721,0,-0.12659,0,0,1.1667,0.010431,0,1.1668,-0.24758,-1.1153,-0.89433,-86.778,-0.75241,0.78106,0.018028,0.56,0.46,0
0.25804,0.051938,0.46203,-1.1132,-0.23652,-0.86694,-0.03439,0,0,-0.32008,0.81954,0,-0.089413,0,0,1.1744,0.00223,0,1.1744,-0.23518,-1.1145,-0.86694,-87.757,-0.73887,0.78537,0.0168,0.58,0.46,0
0.25131,0.047413,0.43849,-1.1117,-0.22835,-0.84049,-0.024131,0,0,-0.35252,0.79578,0,-0.062741,0,0,1.1793,-0.0025454,0,1.1793,-0.22769,-1.1123,-0.84049,-88.436,-0.72683,0.78485,0.015163,0.6,0.46,0
0.24394,0.043258,0.41486,-1.1111,-0.22186,-0.81476,-0.016184,0,0,-0.38528,0.77077,0,-0.042078,0,0,1.1827,-0.0053601,0,1.1827,-0.22157,-1.1114,-0.81476,-88.958,-0.71591,0.78477,0.0134,0.62,0.46,0
0.2359,0.039511,0.39118,-1.1119,-0.21578,-0.78948,-0.0098829,0,0,-0.41912,0.74581,0,-0.025696,0,0,1.185,-0.0070001,0,1.1851,-0.21567,-1.112,-0.78948,-89.368,-0.70571,0.78634,0.011563,0.64,0.46,0
0.22717,0.036197,0.36746,-1.1135,-0.2097,-0.76442,-0.0047993,0,0,-0.45381,0.72114,0,-0.012478,0,0,1.1866,-0.0079252,0,1.1866,-0.20967,-1.1135,-0.76442,-89.696,-0.69587,0.78949,0.0096511,0.66,0.46,0
0.21774,0.033328,0.34372,-1.1156,-0.20355,-0.73945,-0.00064848,0,0,-0.48896,0.69668,0,-0.0016861,0,0,1.1875,-0.0084251,0,1.1875,-0.20355,-1.1156,-0.73945,-89.959,-0.68619,0.79387,0.007653,0.68,0.46,0
0.20761,0.030905,0.31996,-1.1178,-0.19737,-0.71452,0.0028146,0,0,-0.52429,0.67229,0,0.0073179,0,0,1.1877,-0.0086994,0,1.1878,-0.19736,-1.1178,-0.71452,89.825,-0.67657,0.79917,0.0055639,0.7,0.46,0
0.19677,0.028916,0.29621,-1.12,-0.1912,-0.68957,0.0058079,0,0,-0.55958,0.64788,0,0.0151,0,0,1.1874,-0.0089036,0,1.1874,-0.19116,-1.12,-0.68957,89.642,-0.66693,0.80516,0.0033846,0.72,0.46,0
0.18523,0.027344,0.27247,-1.1221,-0.18507,-0.66461,0.0085225,0,0,-0.59469,0.62339,0,0.022158,0,0,1.1865,-0.0091802,0,1.1865,-0.185,-1.1221,-0.66461,89.479,-0.65725,0.81166,0.0011201,0.74,0.46,0
0.17298,0.026164,0.24875,-1.1239,-0.17905,-0.63963,0.011121,0,0,-0.62953,0.59875,0,0.028915,0,0,1.1849,-0.0096848,0,1.1849,-0.17892,-1.124,-0.63963,89.326,-0.64752,0.81857,-0.0012219,0.76,0.46,0
0.16005,0.025344,0.22507,-1.1254,-0.17322,-0.61466,0.01375,0,0,-0.66399,0.57388,0,0.03575,0,0,1.1826,-0.010619,0,1.1826,-0.17302,-1.1256,-0.61466,89.173,-0.63777,0.82571,-0.0036325,0.78,0.46,0
0.14643,0.024848,0.20145,-1.1265,-0.16786,-0.58976,0.016575,0,0,-0.6978,0.54848,0,0.043096,0,0,1.1793,-0.012282,0,1.1794,-0.16757,-1.1268,-0.58976,89.01,-0.62805,0.83272,-0.0060973,0.8,0.46,0
0.13214,0.024638,0.1779,-1.1266,-0.16366,-0.56498,0.01991,0,0,-0.73014,0.52172,0,0.051767,0,0,1.1748,-0.015163,0,1.1749,-0.16325,-1.127,-0.56498,88.816,-0.61842,0.83851,-0.0085783,0.82,0.46,0
0.11722,0.024678,0.15445,-1.1236,-0.16226,-0.54022,0.024343,0,0,-0.75844,0.49135,0,0.063291,0,0,1.1684,-0.020147,0,1.1686,-0.16165,-1.1242,-0.54022,88.55,-0.60871,0.83995,-0.010944,0.84,0.46,0
0.1018,0.024941,0.13116,-1.1119,-0.16744,-0.51497,0.031195,0,0,-0.77604,0.45179,0,0.081107,0,0,1.1584,-0.028999,0,1.1587,-0.16641,-1.113,-0.51497,88.11,-0.59811,0.82916,-0.012812,0.86,0.46,0
0.086179,0.025422,0.10812,-1.0736,-0.18386,-0.48537,0.038465,0,0,-0.76476,0.39197,0,0.10001,0,0,1.1349,-0.045502,0,1.1358,-0.1822,-1.0753,-0.48537,87.529,-0.58096,0.78663,-0.013065,0.88,0.46,0
0.071208,0.025678,0.085763,-1.0322,-0.24977,-0.47036,0.040056,0,0,-0.73041,0.28676,0,0.10415,0,0,1.0838,-0.080761,0,1.0874,-0.24773,-1.0343,-0.47036,87.077,-0.58411,0.7022,-0.011943,0.9,0.46,0
0.056962,0.025059,0.064764,-0.98699,-0.2927,-0.44867,0.020539,0,0,-0.69981,0.20276,0,0.053402,0,0,0.99764,-0.099004,0,1.0041,-0.2921,-0.9876,-0.44867,88.307,-0.57612,0.63193,-0.010328,0.92,0.46,0
0.043215,0.023631,0.045857,-0.92943,-0.23018,-0.39374,0.015811,0,0,-0.6964,0.21263,0,0.041108,0,0,0.8908,-0.091371,0,0.89772,-0.22982,-0.92979,-0.39374,88.705,-0.51779,0.6341,-0.010204,0.94,0.46,0
0.029106,0.022561,0.029132,-0.89711,-0.17016,-0.34931,0.02011,0,0,-0.71213,0.2329,0,0.052287,0,0,0.79306,-0.053009,0,0.79583,-0.1696,-0.89766,-0.34931,88.417,-0.47219,0.65691,-0.010969,0.96,0.46,0
0.01473,0.022228,0.014135,-0.87316,-0.12447,-0.31342,0.014647,0,0,-0.72766,0.24564,0,0.038082,0,0,0.72831,-0.021068,0,0.72879,-0.12418,-0.87345,-0.31342,88.88,-0.43702,0.67485,-0.0117,0.98,0.46,0
0,0.022195,0,-0.84826,-0.090828,-0.28173,-0.0006438,0,0,-0.73649,0.24817,0,-0.0016739,0,0,0.70673,-4.9738e-18,0,0.70663,-0.090828,-0.84826,-0.28173,-89.951,-0.40694,0.68231,-0.012111,1,0.46,0
0,0.067972,1,-0.59277,-1.5374,-1.6391,0.0087254,0,0,1.3602,0.13214,0,0.022686,0,0,0.61804,-1.4554e-15,0,0.61784,-0.59269,-1.5375,-1.6391,0.52917,-1.2564,0.99946,0.049495,0,0.48,0
0.027203,0.068425,0.98764,-0.5857,-1.499,-1.613,0.022699,0,0,1.3356,0.14828,0,0.059017,0,0,0.6257,0.037116,0,0.62664,-0.58513,-1.4995,-1.613,1.4229,-1.2326,0.97612,0.045597,0.02,0.48,0
0.053422,0.06954,0.97497,-0.60794,-1.4382,-1.5888,0.033874,0,0,1.2751,0.19583,0,0.088072,0,0,0.65027,0.076628,0,0.65474,-0.60656,-1.4395,-1.5888,2.3325,-1.2116,0.91678,0.036064,0.04,0.48,0
0.078208,0.070521,0.96163,-0.64554,-1.3549,-1.5617,0.020588,0,0,1.1911,0.26897,0,0.053527,0,0,0.69622,0.11866,0,0.70661,-0.64494,-1.3554,-1.5617,1.6611,-1.1874,0.83303,0.023664,0.06,0.48,0
0.10107,0.069924,0.94712,-0.70514,-1.2416,-1.5312,-0.031125,0,0,1.0738,0.37639,0,-0.080926,0,0,0.76164,0.15245,0,0.77787,-0.70334,-1.2434,-1.5312,-3.3093,-1.1593,0.72792,0.0098887,0.08,0.48,0
0.12116,0.066032,0.93116,-0.79177,-1.0458,-1.4824,-0.1006,0,0,0.89787,0.56761,0,-0.26157,0,0,0.83331,0.14429,0,0.84647,-0.75675,-1.0808,-1.4824,-19.19,-1.1067,0.62965,-0.0023563,0.1,0.48,0
0.13698,0.0592,0.91379,-0.84544,-0.70346,-1.3785,-0.12484,0,0,0.69293,0.8775,0,-0.32458,0,0,0.89082,0.10707,0,0.89735,-0.63084,-0.91806,-1.3785,-59.812,-0.97579,0.65322,-0.0055594,0.12,0.48,0
0.14888,0.052619,0.89553,-0.90473,-0.49032,-1.314,-0.074917,0,0,0.53211,1.0708,0,-0.19478,0,0,0.92343,0.055684,0,0.92494,-0.47719,-0.91786,-1.314,-80.061,-0.90303,0.72508,0.0017993,0.14,0.48,0
0.15826,0.048072,0.87685,-0.94,-0.41449,-1.2832,-0.028777,0,0,0.44616,1.1293,0,-0.074821,0,0,0.9367,0.024753,0,0.93696,-0.41292,-0.94157,-1.2832,-86.875,-0.87923,0.75946,0.008142,0.16,0.48,0
0.16673,0.045336,0.85806,-0.93779,-0.37284,-1.2512,-0.0019785,0,0,0.40749,1.1419,0,-0.0051441,0,0,0.94165,0.0021251,0,0.94161,-0.37283,-0.9378,-1.2512,-89.799,-0.85396,0.77106,0.011112,0.18,0.48,0
0.17456,0.043534,0.83919,-0.93508,-0.35253,-1.2255,0.010473,0,0,0.37751,1.1348,0,0.027229,0,0,0.94596,-0.017364,0,0.94609,-0.35235,-0.93526,-1.2255,88.97,-0.83769,0.77018,0.012733,0.2,0.48,0
0.18182,0.042232,0.82022,-0.93692,-0.34441,-1.2046,0.017724,0,0,0.34801,1.1183,0,0.046082,0,0,0.95102,-0.03692,0,0.9517,-0.34388,-0.93745,-1.2046,88.288,-0.82865,0.76308,0.013749,0.22,0.48,0
0.18848,0.041275,0.80115,-0.94411,-0.34661,-1.1884,0.025639,0,0,0.31753,1.0943,0,0.06666,0,0,0.95776,-0.059231,0,0.95954,-0.34551,-0.94521,-1.1884,87.547,-0.82636,0.75138,0.014344,0.24,0.48,0
0.19453,0.040793,0.78191,-0.95521,-0.36226,-1.1772,0.040471,0,0,0.28853,1.0594,0,0.10522,0,0,0.96697,-0.087524,0,0.97083,-0.35951,-0.95796,-1.1772,86.113,-0.83154,0.73305,0.0143,0.26,0.48,0
0.20003,0.041203,0.76247,-0.96511,-0.40053,-1.1722,0.071998,0,0,0.26917,1.0031,0,0.1872,0,0,0.97902,-0.1268,0,0.98701,-0.3915,-0.97414,-1.1722,82.846,-0.84593,0.7029,0.013179,0.28,0.48,0
0.20529,0.043341,0.74275,-0.94517,-0.45701,-1.1634,0.10996,0,0,0.2837,0.91831,0,0.28591,0,0,0.98564,-0.18328,0,1.002,-0.43339,-0.9688,-1.1634,77.874,-0.8552,0.65478,0.01024,0.3,0.48,0
0.21178,0.047325,0.72305,-0.87195,-0.64179,-1.1772,0.18081,0,0,0.39678,0.69599,0,0.4701,0,0,0.96819,-0.29098,0,1.0101,-0.54255,-0.9712,-1.1772,61.238,-0.89697,0.56076,0.005111,0.32,0.48,0
0.22044,0.051499,0.70385,-0.87641,-0.94491,-1.2503,0.17758,0,0,0.48599,0.39694,0,0.4617,0,0,0.93231,-0.38153,0,1.0072,-0.72981,-1.0915,-1.2503,39.541,-1.0238,0.462,0.0031226,0.34,0.48,0
0.23122,0.053357,0.68575,-0.82361,-1.0549,-1.2493,0.14286,0,0,0.5534,0.25273,0,0.37143,0,0,0.882,-0.44764,0,0.98941,-0.75545,-1.1231,-1.2493,25.505,-1.0426,0.44438,0.0033107,0.36,0.48,0
0.24258,0.053487,0.66857,-0.80426,-1.1017,-1.2404,0.13666,0,0,0.56694,0.18023,0,0.35531,0,0,0.85673,-0.45666,0,0.97071,-0.75101,-1.155,-1.2404,21.288,-1.0488,0.45274,0.0042004,0.38,0.48,0
0.2539,0.054626,0.65148,-0.81743,-1.1291,-1.2354,0.18323,0,0,0.54341,0.13826,0,0.47639,0,0,0.8746,-0.4326,0,0.97581,-0.73273,-1.2138,-1.2354,24.81,-1.0607,0.49224,0.0060859,0.4,0.48,0
0.26431,0.059603,0.63359,-0.87669,-1.0667,-1.2166,0.25663,0,0,0.44189,0.19488,0,0.66724,0,0,0.92369,-0.35062,0,0.98767,-0.69805,-1.2453,-1.2166,34.843,-1.0533,0.53351,0.0077232,0.42,0.48,0
0.27157,0.068543,0.61454,-0.90577,-0.76343,-1.1153,0.27743,0,0,0.27239,0.45742,0,0.72132,0,0,0.97433,-0.23626,0,1.0017,-0.54819,-1.121,-1.1153,52.194,-0.92817,0.56999,0.0095076,0.44,0.48,0
0.27521,0.077316,0.59462,-0.95916,-0.54907,-1.0471,0.1938,0,0,0.1143,0.64742,0,0.50389,0,0,1.0126,-0.11616,0,1.0185,-0.47198,-1.0363,-1.0471,68.307,-0.85177,0.56977,0.0094886,0.46,0.48,0
0.27614,0.082732,0.57403,-1.0073,-0.47507,-1.0187,0.098549,0,0,0.014889,0.70677,0,0.25623,0,0,1.0447,-0.042599,0,1.0454,-0.45741,-1.025,-1.0187,79.839,-0.8337,0.56446,0.0092332,0.48,0.48,0
0.2758,0.084095,0.55283,-1.022,-0.41664,-0.98441,0.020496,0,0,-0.048827,0.7381,0,0.053291,0,0,1.0781,-0.0029428,0,1.0782,-0.41595,-1.0227,-0.98441,88.063,-0.80768,0.58852,0.01032,0.5,0.48,0
0.27419,0.082206,0.53091,-1.0383,-0.35158,-0.94787,-0.025848,0,0,-0.11755,0.77518,0,-0.067204,0,0,1.112,0.0090511,0,1.1121,-0.35061,-1.0393,-0.94787,-87.847,-0.77925,0.64782,0.013031,0.52,0.48,0
0.2711,0.078216,0.50835,-1.0595,-0.29581,-0.91496,-0.042591,0,0,-0.18797,0.80489,0,-0.11074,0,0,1.1393,0.0066126,0,1.1393,-0.29344,-1.0619,-0.91496,-86.818,-0.75677,0.70655,0.015507,0.54,0.48,0
0.26667,0.073292,0.48534,-1.0799,-0.26203,-0.88792,-0.038627,0,0,-0.24959,0.81366,0,-0.10043,0,0,1.1576,3.3308e-05,0,1.1577,-0.26021,-1.0817,-0.88792,-87.302,-0.74328,0.7438,0.016396,0.56,0.48,0
0.26112,0.068178,0.46204,-1.0959,-0.24628,-0.86469,-0.02878,0,0,-0.30055,0.80394,0,-0.074829,0,0,1.169,-0.0044809,0,1.169,-0.24531,-1.0969,-0.86469,-88.062,-0.73562,0.76246,0.015851,0.58,0.48,0
0.25465,0.063243,0.43858,-1.1061,-0.23605,-0.84122,-0.019022,0,0,-0.34433,0.78672,0,-0.049458,0,0,1.1762,-0.0071595,0,1.1762,-0.23563,-1.1065,-0.84122,-88.748,-0.72778,0.77315,0.014659,0.6,0.48,0
0.24735,0.058632,0.415,-1.114,-0.22798,-0.8176,-0.01108,0,0,-0.38536,0.7665,0,-0.028807,0,0,1.1809,-0.0085664,0,1.181,-0.22784,-1.1142,-0.8176,-89.284,-0.71987,0.78146,0.013146,0.62,0.48,0
0.23924,0.054417,0.39134,-1.1206,-0.22061,-0.79371,-0.0048778,0,0,-0.42499,0.74503,0,-0.012682,0,0,1.1842,-0.0091625,0,1.1842,-0.22058,-1.1206,-0.79371,-89.689,-0.71165,0.78914,0.011428,0.64,0.48,0
0.23034,0.050633,0.36763,-1.1261,-0.21352,-0.76952,-9.9364e-05,0,0,-0.46357,0.72279,0,-0.00025835,0,0,1.1862,-0.0092576,0,1.1863,-0.21352,-1.1261,-0.76952,-89.994,-0.70305,0.79659,0.0095445,0.66,0.48,0
0.22069,0.04729,0.34389,-1.1305,-0.20663,-0.74503,0.0036089,0,0,-0.50111,0.69991,0,0.0093831,0,0,1.1874,-0.0090544,0,1.1874,-0.20662,-1.1305,-0.74503,89.776,-0.69405,0.80376,0.0075194,0.68,0.48,0
0.2103,0.044388,0.32014,-1.1338,-0.19993,-0.72025,0.0065485,0,0,-0.53762,0.67643,0,0.017026,0,0,1.1878,-0.0086906,0,1.1878,-0.19988,-1.1339,-0.72025,89.598,-0.68466,0.8106,0.0053739,0.7,0.48,0
0.19919,0.041914,0.29638,-1.1361,-0.19342,-0.69523,0.0089677,0,0,-0.5731,0.65235,0,0.023316,0,0,1.1874,-0.0082703,0,1.1875,-0.19333,-1.1361,-0.69523,89.455,-0.6749,0.81707,0.0031297,0.72,0.48,0
0.18738,0.03985,0.27264,-1.1373,-0.18712,-0.66997,0.011071,0,0,-0.60755,0.6277,0,0.028785,0,0,1.1864,-0.0078859,0,1.1864,-0.18699,-1.1374,-0.66997,89.332,-0.6648,0.82315,0.00080903,0.74,0.48,0
0.17489,0.038171,0.24892,-1.1376,-0.18105,-0.6445,0.013028,0,0,-0.64096,0.60249,0,0.033873,0,0,1.1845,-0.0076379,0,1.1846,-0.18088,-1.1377,-0.6445,89.22,-0.65437,0.82879,-0.0015654,0.76,0.48,0
0.16174,0.036845,0.22526,-1.1367,-0.17529,-0.61887,0.014968,0,0,-0.67325,0.57665,0,0.038918,0,0,1.1817,-0.0076575,0,1.1818,-0.17506,-1.137,-0.61887,89.108,-0.64364,0.83388,-0.0039701,0.78,0.48,0
0.14796,0.035828,0.20165,-1.1347,-0.17008,-0.5931,0.016945,0,0,-0.70414,0.54993,0,0.044057,0,0,1.1776,-0.0081369,0,1.1777,-0.16978,-1.135,-0.5931,88.994,-0.63265,0.83805,-0.0063756,0.8,0.48,0
0.13357,0.035063,0.17815,-1.1309,-0.16608,-0.56725,0.018794,0,0,-0.73277,0.52152,0,0.048863,0,0,1.1717,-0.0093718,0,1.1718,-0.16572,-1.1313,-0.56725,88.885,-0.62142,0.84014,-0.0087262,0.82,0.48,0
0.11865,0.034462,0.15479,-1.1235,-0.16503,-0.54134,0.019814,0,0,-0.7568,0.48921,0,0.051516,0,0,1.163,-0.011798,0,1.163,-0.16462,-1.1239,-0.54134,88.816,-0.60996,0.83712,-0.010889,0.84,0.48,0
0.1033,0.033881,0.13163,-1.108,-0.17018,-0.51508,0.017584,0,0,-0.77076,0.44836,0,0.045718,0,0,1.1488,-0.015899,0,1.1489,-0.16985,-1.1083,-0.51508,88.926,-0.59774,0.82212,-0.012522,0.86,0.48,0
0.087815,0.033035,0.10883,-1.0827,-0.19058,-0.49081,0.0068547,0,0,-0.76942,0.3903,0,0.017822,0,0,1.1246,-0.02154,0,1.1249,-0.19052,-1.0827,-0.49081,89.56,-0.58802,0.78631,-0.013254,0.88,0.48,0
0.072524,0.031502,0.086648,-1.0367,-0.22045,-0.4638,-0.016061,0,0,-0.74481,0.31636,0,-0.041759,0,0,1.08,-0.020355,0,1.0804,-0.22013,-1.0371,-0.4638,-88.873,-0.57366,0.72641,-0.012479,0.9,0.48,0
0.058023,0.029439,0.065633,-0.99453,-0.26806,-0.44441,-0.037402,0,0,-0.71516,0.22925,0,-0.097246,0,0,1.0065,0.0061361,0,1.0077,-0.26614,-0.99645,-0.44441,-87.061,-0.569,0.6595,-0.011183,0.92,0.48,0
0.043917,0.02779,0.046388,-0.9505,-0.25452,-0.40789,-0.0238,0,0,-0.70539,0.19939,0,-0.061881,0,0,0.92586,0.01296,0,0.92753,-0.25371,-0.95132,-0.40789,-88.044,-0.53764,0.63472,-0.010566,0.94,0.48,0
0.029804,0.02734,0.029327,-0.91302,-0.1713,-0.35462,-0.0035621,0,0,-0.72592,0.23832,0,-0.0092616,0,0,0.791,0.026904,0,0.79313,-0.17128,-0.91304,-0.35462,-89.725,-0.47964,0.6692,-0.011585,0.96,0.48,0
0.015083,0.027452,0.014127,-0.89061,-0.12046,-0.31745,-0.0056735,0,0,-0.74511,0.25609,0,-0.014751,0,0,0.73317,0.025822,0,0.73392,-0.12041,-0.89065,-0.31745,-89.578,-0.44284,0.69305,-0.012553,0.98,0.48,0
0,0.027503,0,-0.86611,-0.087148,-0.28598,0.00097806,0,0,-0.75417,0.25848,0,0.0025429,0,0,0.70637,5.4481e-18,0,0.70621,-0.087147,-0.86611,-0.28598,89.928,-0.41308,0.70102,-0.013012,1,0.48,0
0,0.070321,1,-0.57798,-1.5725,-1.6451,0.015722,0,0,1.3873,0.09446,0,0.040878,0,0,0.64788,2.8796e-16,0,0.64781,-0.57773,-1.5727,-1.6451,0.9055,-1.2652,1.0331,0.055694,0,0.5,0
0.027746,0.071139,0.98704,-0.57027,-1.5284,-1.6166,0.039981,0,0,1.3603,0.11473,0,0.10395,0,0,0.65616,0.021558,0,0.65649,-0.5686,-1.53,-1.6166,2.3853,-1.2384,1.0075,0.051224,0.02,0.5,0
0.054411,0.073323,0.97375,-0.59563,-1.4523,-1.5881,0.067678,0,0,1.2902,0.17663,0,0.17596,0,0,0.6808,0.044382,0,0.68238,-0.59032,-1.4576,-1.5881,4.4896,-1.212,0.93935,0.039812,0.04,0.5,0
0.079355,0.076066,0.95981,-0.63833,-1.3351,-1.5518,0.069392,0,0,1.1876,0.28178,0,0.18042,0,0,0.72018,0.066604,0,0.72361,-0.63149,-1.3419,-1.5518,5.6326,-1.1751,0.83541,0.023692,0.06,0.5,0
0.10191,0.078068,0.94495,-0.70018,-1.1754,-1.5076,0.038007,0,0,1.0497,0.43185,0,0.098819,0,0,0.76947,0.080652,0,0.77418,-0.69716,-1.1785,-1.5076,4.5435,-1.1278,0.706,0.0057514,0.08,0.5,0
0.12134,0.078148,0.92903,-0.73547,-0.95822,-1.4371,-0.0063756,0,0,0.91217,0.62259,0,-0.016577,0,0,0.81204,0.088952,0,0.81722,-0.73528,-0.9584,-1.4371,-1.6381,-1.0436,0.62111,-0.0071681,0.1,0.5,0
0.13721,0.076164,0.91214,-0.87204,-0.74353,-1.3968,-0.046714,0,0,0.6822,0.84927,0,-0.12146,0,0,0.86941,0.070094,0,0.87237,-0.72834,-0.88723,-1.3968,-71.991,-1.0041,0.60488,-0.0087778,0.12,0.5,0
0.14974,0.073211,0.8945,-0.88605,-0.54294,-1.3232,-0.043553,0,0,0.56829,1.0143,0,-0.11324,0,0,0.89336,0.040569,0,0.89428,-0.5375,-0.8915,-1.3232,-82.878,-0.9174,0.68155,-0.0027689,0.14,0.5,0
0.15995,0.070382,0.87641,-0.91693,-0.43738,-1.2827,-0.023766,0,0,0.4755,1.0989,0,-0.061792,0,0,0.91116,0.017238,0,0.9113,-0.4362,-0.91811,-1.2827,-87.17,-0.879,0.73543,0.0048468,0.16,0.5,0
0.16876,0.06807,0.85806,-0.92863,-0.38695,-1.2527,-0.0042104,0,0,0.42133,1.1255,0,-0.010947,0,0,0.92073,-0.0026374,0,0.92071,-0.38691,-0.92867,-1.2527,-89.555,-0.8561,0.75768,0.0093628,0.18,0.5,0
0.1768,0.066199,0.83958,-0.92965,-0.36195,-1.2271,0.010795,0,0,0.38663,1.1246,0,0.028068,0,0,0.92601,-0.02126,0,0.92622,-0.36175,-0.92986,-1.2271,88.911,-0.83956,0.76152,0.011593,0.2,0.5,0
0.18423,0.064578,0.82102,-0.9311,-0.35259,-1.2061,0.022675,0,0,0.35753,1.1096,0,0.058954,0,0,0.92925,-0.040843,0,0.93011,-0.35171,-0.93199,-1.2061,87.759,-0.82994,0.75561,0.012729,0.22,0.5,0
0.1911,0.063115,0.80241,-0.93493,-0.3564,-1.1898,0.034582,0,0,0.33134,1.0834,0,0.089914,0,0,0.93119,-0.063731,0,0.93331,-0.35434,-0.93699,-1.1898,86.591,-0.82704,0.74209,0.013072,0.24,0.5,0
0.19748,0.061835,0.78377,-0.93781,-0.37831,-1.1786,0.050315,0,0,0.31303,1.0404,0,0.13082,0,0,0.93159,-0.09283,0,0.9361,-0.37383,-0.9423,-1.1786,84.902,-0.83158,0.71648,0.012195,0.26,0.5,0
0.20362,0.060909,0.76514,-0.92936,-0.4297,-1.1729,0.07346,0,0,0.31655,0.96611,0,0.191,0,0,0.92838,-0.13211,0,0.93753,-0.41912,-0.93993,-1.1729,81.807,-0.84397,0.66844,0.0092969,0.28,0.5,0
0.21014,0.060487,0.74663,-0.92335,-0.5526,-1.1894,0.10739,0,0,0.34589,0.82786,0,0.27921,0,0,0.92003,-0.18434,0,0.93805,-0.52374,-0.95221,-1.1894,74.958,-0.88846,0.58437,0.0048521,0.3,0.5,0
0.21785,0.060418,0.72845,-0.85504,-0.70642,-1.1969,0.12961,0,0,0.4444,0.63761,0,0.337,0,0,0.88937,-0.24969,0,0.92347,-0.63132,-0.93014,-1.1969,59.913,-0.91945,0.49006,0.00059232,0.32,0.5,0
0.22733,0.060046,0.71086,-0.84417,-0.90452,-1.2355,0.13203,0,0,0.50869,0.43023,0,0.34328,0,0,0.86113,-0.32831,0,0.9214,-0.73891,-1.0098,-1.2355,38.563,-0.99472,0.43062,0.00064306,0.34,0.5,0
0.2382,0.058804,0.694,-0.83055,-1.0465,-1.2571,0.1301,0,0,0.55454,0.2738,0,0.33826,0,0,0.83024,-0.39505,0,0.9192,-0.76946,-1.1076,-1.2571,25.154,-1.0447,0.43273,0.0025488,0.36,0.5,0
0.24951,0.057123,0.67765,-0.83415,-1.129,-1.2666,0.1504,0,0,0.56217,0.17888,0,0.39104,0,0,0.83113,-0.45564,0,0.94737,-0.77097,-1.1922,-1.2666,22.787,-1.0766,0.46292,0.0046543,0.38,0.5,0
0.26069,0.056979,0.66076,-0.88181,-1.2221,-1.2919,0.22237,0,0,0.53316,0.090776,0,0.57816,0,0,0.91022,-0.5199,0,1.0493,-0.77196,-1.332,-1.2919,26.289,-1.132,0.54109,0.0079866,0.4,0.5,0
0.27084,0.062799,0.64124,-0.98213,-1.2249,-1.3034,0.36584,0,0,0.41758,0.10199,0,0.95118,0,0,1.0255,-0.52153,0,1.1526,-0.71806,-1.489,-1.3034,35.822,-1.1701,0.69689,0.013314,0.42,0.5,0
0.27739,0.078671,0.61974,-0.9321,-0.5341,-1.0596,0.31142,0,0,0.16574,0.68315,0,0.80969,0,0,1.103,-0.21415,0,1.1197,-0.36353,-1.1027,-1.0596,61.29,-0.84193,0.71857,0.018825,0.44,0.5,0
0.27747,0.091702,0.59712,-1.0593,-0.49234,-1.0626,0.22304,0,0,0.00433,0.74135,0,0.57991,0,0,1.1188,-0.11873,0,1.1245,-0.41511,-1.1365,-1.0626,70.902,-0.87141,0.68743,0.016036,0.46,0.5,0
0.27757,0.097698,0.57522,-1.0075,-0.41862,-1.003,0.079881,0,0,-0.0057615,0.75977,0,0.20769,0,0,1.096,-0.061196,0,1.0976,-0.40797,-1.0181,-1.003,82.41,-0.80972,0.60276,0.011224,0.48,0.5,0
0.27735,0.099368,0.55329,-0.9756,-0.36539,-0.95559,0.044524,0,0,-0.026012,0.76726,0,0.11576,0,0,1.1015,-0.029436,0,1.1019,-0.36216,-0.97883,-0.95559,85.849,-0.76552,0.60539,0.011339,0.5,0.5,0
0.27623,0.097815,0.53106,-1.0089,-0.33441,-0.93406,-0.008353,0,0,-0.097336,0.77955,0,-0.021718,0,0,1.1246,-0.014795,0,1.1247,-0.3343,-1.009,-0.93406,-89.291,-0.75914,0.64055,0.012877,0.52,0.5,0
0.27387,0.094149,0.50844,-1.0038,-0.28572,-0.8953,-0.013363,0,0,-0.14109,0.79246,0,-0.034744,0,0,1.137,-0.010519,0,1.1371,-0.28547,-1.0041,-0.8953,-88.934,-0.72828,0.67087,0.014143,0.54,0.5,0
0.27013,0.089332,0.48546,-1.0637,-0.27321,-0.88653,-0.0204,0,0,-0.23031,0.79732,0,-0.053041,0,0,1.1579,-0.010595,0,1.1579,-0.27269,-1.0642,-0.88653,-88.523,-0.74115,0.71934,0.015257,0.56,0.5,0
0.26509,0.084096,0.46221,-1.064,-0.24545,-0.85504,-0.01434,0,0,-0.27161,0.79247,0,-0.037284,0,0,1.1656,-0.011524,0,1.1656,-0.2452,-1.0642,-0.85504,-88.997,-0.72149,0.73705,0.015116,0.58,0.5,0
0.25888,0.078881,0.43877,-1.1122,-0.24594,-0.84623,-0.0073074,0,0,-0.3458,0.78036,0,-0.018999,0,0,1.1763,-0.011941,0,1.1764,-0.24588,-1.1123,-0.84623,-89.517,-0.7348,0.76872,0.014259,0.6,0.5,0
0.25161,0.073918,0.4152,-1.1075,-0.22792,-0.81584,-0.003829,0,0,-0.37921,0.7643,0,-0.0099554,0,0,1.18,-0.011825,0,1.18,-0.2279,-1.1076,-0.81584,-89.751,-0.7171,0.77607,0.013077,0.62,0.5,0
0.24339,0.069312,0.39155,-1.1414,-0.22901,-0.80268,0.0027921,0,0,-0.44038,0.74577,0,0.0072595,0,0,1.1848,-0.011326,0,1.1849,-0.229,-1.1414,-0.80268,89.825,-0.72437,0.79888,0.011217,0.64,0.5,0
0.23429,0.065109,0.36783,-1.1407,-0.21616,-0.7749,0.0073691,0,0,-0.47559,0.72636,0,0.01916,0,0,1.1867,-0.010868,0,1.1868,-0.21611,-1.1408,-0.7749,89.543,-0.7106,0.8066,0.0094841,0.66,0.5,0
0.22437,0.061325,0.34408,-1.1474,-0.20865,-0.75089,0.0092982,0,0,-0.51545,0.70491,0,0.024175,0,0,1.188,-0.0098337,0,1.1881,-0.20856,-1.1475,-0.75089,89.433,-0.70231,0.81639,0.0074038,0.68,0.5,0
0.21367,0.057962,0.32031,-1.1517,-0.20149,-0.72626,0.010673,0,0,-0.55305,0.6822,0,0.027749,0,0,1.1885,-0.0087348,0,1.1885,-0.20137,-1.1518,-0.72626,89.356,-0.69314,0.82459,0.0051791,0.7,0.5,0
0.20224,0.05501,0.29654,-1.1539,-0.19467,-0.70112,0.011658,0,0,-0.58866,0.65839,0,0.030311,0,0,1.1882,-0.0076035,0,1.1882,-0.19453,-1.1541,-0.70112,89.304,-0.68324,0.83143,0.0028524,0.72,0.5,0
0.19012,0.052452,0.27278,-1.1543,-0.18816,-0.67553,0.012382,0,0,-0.62243,0.63357,0,0.032193,0,0,1.1871,-0.0064645,0,1.1871,-0.18801,-1.1545,-0.67553,89.266,-0.67267,0.837,0.00046235,0.74,0.5,0
0.17735,0.050263,0.24905,-1.1529,-0.18198,-0.64951,0.012944,0,0,-0.65438,0.60779,0,0.033654,0,0,1.1851,-0.0053425,0,1.1851,-0.18181,-1.1531,-0.64951,89.236,-0.66146,0.84132,-0.0019532,0.76,0.5,0
0.16395,0.04841,0.22538,-1.1496,-0.17617,-0.6231,0.013403,0,0,-0.68441,0.581,0,0.034847,0,0,1.1821,-0.0042691,0,1.1821,-0.17599,-1.1498,-0.6231,89.211,-0.64961,0.84424,-0.0043547,0.78,0.5,0
0.14997,0.046846,0.20177,-1.1442,-0.17092,-0.59631,0.0137,0,0,-0.71228,0.55301,0,0.03562,0,0,1.1776,-0.0032877,0,1.1776,-0.17073,-1.1444,-0.59631,89.194,-0.63715,0.84546,-0.0066995,0.8,0.5,0
0.13546,0.045498,0.17827,-1.1368,-0.16676,-0.56933,0.013447,0,0,-0.73766,0.52333,0,0.034961,0,0,1.1712,-0.0024446,0,1.1712,-0.16658,-1.1369,-0.56933,89.206,-0.62428,0.84439,-0.0089409,0.82,0.5,0
0.12046,0.044247,0.15492,-1.1272,-0.16493,-0.54258,0.011399,0,0,-0.76007,0.49094,0,0.029638,0,0,1.1619,-0.0017141,0,1.1619,-0.16479,-1.1274,-0.54258,89.321,-0.61158,0.84003,-0.011026,0.84,0.5,0
0.10505,0.042875,0.1318,-1.1172,-0.16806,-0.51739,0.0046084,0,0,-0.77981,0.45412,0,0.011982,0,0,1.1486,-0.00064853,0,1.1486,-0.16804,-1.1173,-0.51739,89.722,-0.6009,0.83154,-0.012942,0.86,0.5,0
0.089271,0.041034,0.10898,-1.1087,-0.17746,-0.49482,-0.011835,0,0,-0.79801,0.41257,0,-0.030772,0,0,1.1305,0.0031613,0,1.1305,-0.1773,-1.1088,-0.49482,-89.272,-0.59365,0.82023,-0.014698,0.88,0.5,0
0.073133,0.038333,0.086577,-1.0985,-0.19198,-0.47371,-0.045813,0,0,-0.81217,0.36624,0,-0.11911,0,0,1.1115,0.016684,0,1.1116,-0.18967,-1.1008,-0.47371,-87.114,-0.58805,0.80746,-0.016193,0.9,0.5,0
0.056784,0.034229,0.064519,-1.0111,-0.18371,-0.42298,-0.082936,0,0,-0.76463,0.31105,0,-0.21563,0,0,1.0507,0.057983,0,1.0503,-0.17548,-1.0194,-0.42298,-84.332,-0.53928,0.75138,-0.014085,0.92,0.5,0
0.042548,0.031436,0.044549,-0.97584,-0.30336,-0.42831,-0.14769,0,0,-0.71179,0.16243,0,-0.38398,0,0,0.99851,0.2332,0,1.0305,-0.27236,-1.0068,-0.42831,-78.144,-0.56917,0.67025,-0.012688,0.94,0.5,0
0.028078,0.032082,0.027324,-0.89549,-0.19049,-0.35312,-0.066271,0,0,-0.70508,0.21141,0,-0.17231,0,0,0.71109,0.16255,0,0.73082,-0.18432,-0.90167,-0.35312,-84.676,-0.4797,0.64961,-0.010939,0.96,0.5,0
0.013977,0.032472,0.013102,-0.84758,-0.13145,-0.30681,-0.02807,0,0,-0.703,0.22797,0,-0.072982,0,0,0.69242,0.065685,0,0.69495,-0.13035,-0.84868,-0.30681,-87.759,-0.42861,0.64836,-0.010581,0.98,0.5,0
0,0.032534,0,-0.79562,-0.064562,-0.25805,0.0011942,0,0,-0.69883,0.25154,0,0.0031049,0,0,0.65509,1.3878e-17,0,0.65475,-0.064561,-0.79562,-0.25805,89.906,-0.37274,0.65607,-0.010364,1,0.5,0
0,0.07175,1,-0.56595,-1.6231,-1.6567,0.024315,0,0,1.418,0.043729,0,0.06322,0,0,0.66115,1.571e-15,0,0.66114,-0.5654,-1.6236,-1.6567,1.317,-1.2819,1.0752,0.063628,0,0.52,0
0.02836,0.073014,0.98678,-0.54111,-1.5585,-1.6166,0.049926,0,0,1.3982,0.075621,0,0.12981,0,0,0.6671,0.0069813,0,0.66718,-0.53866,-1.5609,-1.6166,2.8027,-1.2388,1.0512,0.059101,0.02,0.52,0
0.055533,0.076606,0.9732,-0.60835,-1.486,-1.6015,0.11006,0,0,1.2911,0.15013,0,0.28615,0,0,0.70076,0.016283,0,0.70112,-0.59476,-1.4996,-1.6015,7.0395,-1.232,0.95987,0.0437,0.04,0.52,0
0.08068,0.081792,0.95896,-0.63862,-1.3322,-1.5502,0.12675,0,0,1.1851,0.28343,0,0.32954,0,0,0.7325,0.020151,0,0.7331,-0.61619,-1.3546,-1.5502,10.039,-1.1737,0.85321,0.026336,0.06,0.52,0
0.10293,0.087198,0.9439,-0.70046,-1.1246,-1.4914,0.11082,0,0,1.0283,0.47684,0,0.28814,0,0,0.77518,0.029401,0,0.77607,-0.67324,-1.1518,-1.4914,13.795,-1.1055,0.71196,0.0053586,0.08,0.52,0
0.12181,0.091272,0.92796,-0.72365,-0.8725,-1.4068,0.071221,0,0,0.8881,0.69459,0,0.18518,0,0,0.81002,0.026765,0,0.8107,-0.69506,-0.90109,-1.4068,21.869,-1.001,0.63434,-0.008599,0.1,0.52,0
0.13735,0.093193,0.91124,-0.85176,-0.70654,-1.3787,0.010067,0,0,0.68505,0.87384,0,0.026175,0,0,0.85629,0.024831,0,0.85676,-0.70584,-0.85245,-1.3787,86.053,-0.97901,0.61287,-0.0095809,0.12,0.52,0
0.15013,0.093193,0.89391,-0.86486,-0.55021,-1.3184,-0.0092666,0,0,0.58964,0.99869,0,-0.024093,0,0,0.8768,0.019787,0,0.87706,-0.54994,-0.86514,-1.3184,-88.315,-0.91117,0.66911,-0.0046954,0.14,0.52,0
0.16093,0.092028,0.87616,-0.88793,-0.45509,-1.2791,-0.013226,0,0,0.50848,1.0712,0,-0.034387,0,0,0.89349,0.0062166,0,0.89351,-0.45469,-0.88833,-1.2791,-88.251,-0.87403,0.71426,0.0016843,0.16,0.52,0
0.17047,0.090357,0.85817,-0.89696,-0.40192,-1.2478,-0.0035548,0,0,0.45614,1.0997,0,-0.0092426,0,0,0.90315,-0.0085887,0,0.90317,-0.4019,-0.89698,-1.2478,-89.589,-0.8489,0.73614,0.0059445,0.18,0.52,0
0.17918,0.08852,0.84004,-0.89946,-0.37544,-1.2225,0.010982,0,0,0.41996,1.1012,0,0.028553,0,0,0.90775,-0.024218,0,0.90805,-0.37521,-0.89969,-1.2225,88.8,-0.83247,0.74068,0.0083126,0.2,0.52,0
0.18727,0.086616,0.82186,-0.90073,-0.36511,-1.2016,0.026281,0,0,0.39114,1.0875,0,0.06833,0,0,0.90855,-0.041637,0,0.90946,-0.36383,-0.90202,-1.2016,87.198,-0.82249,0.73529,0.0095892,0.22,0.52,0
0.19482,0.084612,0.8037,-0.90251,-0.36898,-1.1851,0.040697,0,0,0.36742,1.061,0,0.10581,0,0,0.90577,-0.062383,0,0.90787,-0.36589,-0.9056,-1.1851,85.663,-0.81888,0.72132,0.0099764,0.24,0.52,0
0.20197,0.082408,0.78563,-0.90058,-0.39212,-1.1734,0.053317,0,0,0.35471,1.0157,0,0.13863,0,0,0.89859,-0.088481,0,0.90286,-0.38659,-0.90611,-1.1734,84.078,-0.82205,0.693,0.008919,0.26,0.52,0
0.20901,0.079847,0.76775,-0.88868,-0.44949,-1.1692,0.063328,0,0,0.36468,0.93562,0,0.16465,0,0,0.88508,-0.12238,0,0.89339,-0.44055,-0.89763,-1.1692,81.957,-0.83579,0.63782,0.0056499,0.28,0.52,0
0.21655,0.07675,0.75022,-0.86283,-0.55867,-1.1767,0.070794,0,0,0.40799,0.80341,0,0.18406,0,0,0.86286,-0.16608,0,0.87857,-0.543,-0.8785,-1.1767,77.519,-0.86606,0.5491,0.00086582,0.3,0.52,0
0.22533,0.073,0.73324,-0.82916,-0.72346,-1.199,0.079245,0,0,0.48083,0.61823,0,0.20604,0,0,0.83095,-0.22022,0,0.85951,-0.68106,-0.87156,-1.199,61.849,-0.91722,0.45377,-0.0021067,0.32,0.52,0
0.23578,0.068708,0.71699,-0.80116,-0.91143,-1.2308,0.096252,0,0,0.55848,0.41514,0,0.25025,0,0,0.79207,-0.28387,0,0.84123,-0.74537,-0.96722,-1.2308,30.098,-0.98112,0.42088,-0.0005672,0.34,0.52,0
0.24767,0.064309,0.70156,-0.79559,-1.0728,-1.2621,0.13248,0,0,0.60643,0.24605,0,0.34445,0,0,0.75467,-0.35757,0,0.83462,-0.74246,-1.1259,-1.2621,21.853,-1.0435,0.46668,0.0037614,0.36,0.52,0
0.26004,0.060642,0.6868,-0.84833,-1.2078,-1.3036,0.19247,0,0,0.59191,0.12457,0,0.50042,0,0,0.73188,-0.4492,0,0.85743,-0.76473,-1.2914,-1.3036,23.479,-1.1199,0.53291,0.0077593,0.38,0.52,0
0.27135,0.058257,0.67228,-0.9774,-1.3618,-1.374,0.33633,0,0,0.51562,0.015926,0,0.87447,0,0,0.80871,-0.58652,0,0.99286,-0.78222,-1.557,-1.374,30.128,-1.2377,0.70141,0.013742,0.4,0.52,0
0.28067,0.063683,0.65445,-0.88109,-1.0823,-0.95261,0.38802,0,0,-0.031723,-0.53538,0,2.5181,0,0,0.64547,-0.47624,0,0.81295,-0.58045,-1.383,-0.95261,38.784,-0.97201,0.6972,-0.0013201,0.42,0.52,0
0.27506,0.095869,0.6231,-0.74403,-0.40473,-0.6908,0.24787,0,0,-0.12457,-0.092667,0,1.8941,0,0,0.76692,-0.13689,0,0.78547,-0.2445,-0.90426,-0.6908,51.776,-0.61319,0.59535,0.01783,0.44,0.52,0
0.27568,0.10741,0.59923,-0.61057,-0.3652,-0.62564,0.13559,0,0,0.050568,-0.094587,0,1.2212,0,0,0.66145,-0.091404,0,0.67418,-0.26782,-0.70794,-0.62564,52.245,-0.5338,0.42214,0.0077885,0.46,0.52,0
0.27784,0.11335,0.57651,-0.54538,-0.31916,-0.57965,0.048748,0,0,0.086031,-0.08313,0,0.78471,0,0,0.62221,-0.062117,0,0.62978,-0.25712,-0.60742,-0.57965,56.912,-0.4814,0.35809,0.0047205,0.48,0.52,0
0.27942,0.11486,0.55413,-0.51824,-0.2907,-0.55053,0.058345,0,0,0.062945,-0.058116,0,0.64962,0,0,0.62189,-0.044437,0,0.6265,-0.23508,-0.57386,-0.55053,53.911,-0.45316,0.34716,0.0048527,0.5,0.52,0
0.27973,0.11337,0.53164,-0.58715,-0.29637,-0.56041,0.017941,0,0,-0.0461,-0.0215,0,0.42818,0,0,0.63165,-0.033511,0,0.6346,-0.25437,-0.62914,-0.56041,-33.167,-0.48131,0.35966,0.0061214,0.52,0.52,0
0.2784,0.10983,0.50889,-0.55758,-0.25744,-0.52722,0.023928,0,0,-0.088483,0.020134,0,0.36225,0,0,0.63242,-0.026944,0,0.63441,-0.22384,-0.59117,-0.52722,55.873,-0.44741,0.35443,0.0062998,0.54,0.52,0
0.27532,0.10509,0.48585,-0.64257,-0.26896,-0.54337,0.010964,0,0,-0.21564,0.059165,0,0.27555,0,0,0.64648,-0.022896,0,0.64788,-0.2432,-0.66832,-0.54337,-32.555,-0.48497,0.38999,0.0073558,0.56,0.52,0
0.27059,0.099808,0.46257,-0.61456,-0.23574,-0.51207,0.012438,0,0,-0.25429,0.090741,0,0.24686,0,0,0.64707,-0.020088,0,0.64811,-0.21612,-0.63418,-0.51207,58.72,-0.45412,0.38504,0.0072973,0.58,0.52,0
0.26443,0.094427,0.4391,-0.67804,-0.24556,-0.52102,0.012487,0,0,-0.35501,0.11367,0,0.22703,0,0,0.65534,-0.017832,0,0.65612,-0.23067,-0.69294,-0.52102,60.878,-0.48154,0.41644,0.0069481,0.6,0.52,0
0.25701,0.089204,0.4155,-0.65196,-0.22017,-0.49247,0.01046,0,0,-0.38393,0.12888,0,0.20849,0,0,0.65564,-0.015828,0,0.65623,-0.20881,-0.66332,-0.49247,63.641,-0.45487,0.41034,0.006577,0.62,0.52,0
0.24853,0.084269,0.39181,-0.69454,-0.22653,-0.49399,0.013617,0,0,-0.45977,0.13793,0,0.20649,0,0,0.65952,-0.01397,0,0.65997,-0.21771,-0.70335,-0.49399,66.276,-0.47169,0.43405,0.0053723,0.64,0.52,0
0.2391,0.079687,0.36806,-0.68397,-0.21189,-0.47324,0.011824,0,0,-0.49311,0.14212,0,0.19274,0,0,0.6601,-0.012201,0,0.66043,-0.20503,-0.69083,-0.47324,69.146,-0.45636,0.43384,0.0046123,0.66,0.52,0
0.22881,0.075486,0.34428,-0.68708,-0.20449,-0.45874,0.011546,0,0,-0.53433,0.14242,0,0.18298,0,0,0.66084,-0.010485,0,0.66108,-0.1991,-0.69247,-0.45874,71.721,-0.4501,0.43969,0.0035197,0.68,0.52,0
0.21773,0.071676,0.32048,-0.68844,-0.19747,-0.44382,0.011093,0,0,-0.5724,0.13952,0,0.17215,0,0,0.66111,-0.0087908,0,0.66127,-0.19323,-0.69268,-0.44382,74.053,-0.44324,0.44453,0.0023558,0.7,0.52,0
0.20591,0.068249,0.29668,-0.68833,-0.19082,-0.42857,0.010469,0,0,-0.60785,0.13388,0,0.15974,0,0,0.66095,-0.0070877,0,0.66105,-0.18751,-0.69164,-0.42857,76.165,-0.43591,0.4485,0.001147,0.72,0.52,0
0.19341,0.065193,0.2729,-0.68692,-0.18448,-0.41303,0.0096685,0,0,-0.6409,0.12579,0,0.14522,0,0,0.66037,-0.0053424,0,0.66042,-0.18196,-0.68943,-0.41303,78.121,-0.42814,0.45161,-8.3104e-05,0.74,0.52,0
0.18027,0.062483,0.24914,-0.68418,-0.17844,-0.3972,0.0086709,0,0,-0.67154,0.11546,0,0.12793,0,0,0.6593,-0.0035154,0,0.65932,-0.17661,-0.68601,-0.3972,80.009,-0.41994,0.45382,-0.0013101,0.76,0.52,0
0.16655,0.060085,0.22543,-0.67998,-0.17266,-0.38103,0.0074259,0,0,-0.69955,0.10294,0,0.10683,0,0,0.65765,-0.0015552,0,0.65765,-0.17145,-0.68119,-0.38103,81.945,-0.41123,0.45499,-0.0025063,0.78,0.52,0
0.15229,0.057949,0.20179,-0.67408,-0.16713,-0.36447,0.0058109,0,0,-0.72449,0.088224,0,0.080174,0,0,0.65525,0.00061348,0,0.65525,-0.16648,-0.67473,-0.36447,84.107,-0.40189,0.45486,-0.0036399,0.8,0.52,0
0.13757,0.055996,0.17825,-0.66628,-0.16194,-0.34749,0.0035254,0,0,-0.74596,0.071362,0,0.044712,0,0,0.65183,0.003119,0,0.65188,-0.16174,-0.66647,-0.34749,86.794,-0.3919,0.45322,-0.0046792,0.82,0.52,0
0.12245,0.054099,0.15485,-0.65707,-0.15744,-0.33038,-9.5401e-05,0,0,-0.76445,0.052839,0,-0.0053856,0,0,0.64709,0.0062166,0,0.64724,-0.15744,-0.65707,-0.33038,0.42951,-0.38163,0.45027,-0.0056187,0.84,0.52,0
0.10699,0.052046,0.13166,-0.64878,-0.15436,-0.31409,-0.0063149,0,0,-0.78319,0.034684,0,-0.079274,0,0,0.64092,0.010545,0,0.64131,-0.15382,-0.64933,-0.31409,-84.867,-0.37241,0.44778,-0.0065344,0.86,0.52,0
0.091127,0.049538,0.10871,-0.64686,-0.1532,-0.30041,-0.017494,0,0,-0.81069,0.021673,0,-0.19107,0,0,0.63439,0.017598,0,0.63531,-0.1506,-0.64946,-0.30041,-80.025,-0.36682,0.45104,-0.007677,0.88,0.52,0
0.074565,0.046151,0.085981,-0.66903,-0.16138,-0.29689,-0.035462,0,0,-0.87081,0.021816,0,-0.35042,0,0,0.63047,0.031482,0,0.6327,-0.15476,-0.67565,-0.29689,-76.649,-0.37577,0.47105,-0.0099851,0.9,0.52,0
0.056294,0.041881,0.063314,-0.74275,-0.17634,-0.3109,-0.082144,0,0,-1.0105,0.043919,0,-0.63783,0,0,0.67946,0.057022,0,0.68368,-0.15912,-0.75997,-0.3109,-73.471,-0.41,0.5435,-0.016544,0.92,0.52,0
0.034144,0.034287,0.03706,-0.71415,-0.34506,-0.33835,-0.19337,0,0,-0.98077,-0.073235,0,-1.1087,0,0,0.57904,0.30986,0,0.66748,-0.26186,-0.79735,-0.33835,-65.043,-0.46585,0.50165,-0.015527,0.94,0.52,0
0.022133,0.035797,0.022825,-0.77992,-0.27634,-0.3397,-0.14903,0,0,-0.57228,0.082373,0,-0.38748,0,0,0.62435,0.25175,0,0.66461,-0.23554,-0.82071,-0.3397,-74.69,-0.46532,0.54068,-0.0071128,0.96,0.52,0
0.01097,0.036111,0.011212,-0.72317,-0.2271,-0.29629,-0.068453,0,0,-0.55494,0.08995,0,-0.17798,0,0,0.57395,0.10778,0,0.58164,-0.21783,-0.73244,-0.29629,-82.286,-0.41552,0.48021,-0.0051794,0.98,0.52,0
0,0.03606,0,-0.70825,-0.24617,-0.28632,-0.00097728,0,0,-0.5485,0.052203,0,-0.0025409,0,0,0.56059,1.3878e-17,0,0.55868,-0.24617,-0.70825,-0.28632,-89.879,-0.41358,0.44337,-0.0043528,1,0.52,0
0,0.07207,1,-0.56734,-1.6829,-1.6751,0.033271,0,0,1.4401,-0.010196,0,0.086505,0,0,0.65555,2.4017e-15,0,0.6555,-0.56635,-1.6839,-1.6751,1.7068,-1.3084,1.1132,0.07083,0,0.54,0
0.028801,0.073801,0.98689,-0.55419,-1.6486,-1.6477,0.057832,0,0,1.4216,-0.0011331,0,0.15036,0,0,0.66296,-0.021853,0,0.66336,-0.55114,-1.6516,-1.6477,3.0165,-1.2835,1.0985,0.068087,0.02,0.54,0
0.056495,0.079048,0.97333,-0.62637,-1.5757,-1.634,0.15064,0,0,1.3099,0.075689,0,0.39166,0,0,0.70357,-0.034996,0,0.70472,-0.60304,-1.5991,-1.634,8.8033,-1.2787,1.0139,0.053323,0.04,0.54,0
0.081944,0.087403,0.959,-0.64678,-1.3551,-1.5596,0.19451,0,0,1.1866,0.26584,0,0.50574,0,0,0.73908,-0.026779,0,0.73997,-0.59688,-1.405,-1.5596,14.389,-1.1871,0.89545,0.033201,0.06,0.54,0
0.10396,0.097142,0.94377,-0.70611,-1.0756,-1.4783,0.18827,0,0,1.0038,0.52349,0,0.48949,0,0,0.78282,-0.015592,0,0.78327,-0.62708,-1.1546,-1.4783,22.77,-1.0867,0.74418,0.0084811,0.08,0.54,0
0.1221,0.10555,0.92769,-0.76754,-0.8234,-1.405,0.12882,0,0,0.82867,0.75604,0,0.33493,0,0,0.8207,-0.0034815,0,0.82086,-0.66366,-0.92728,-1.405,38.883,-0.99864,0.65086,-0.0067342,0.1,0.54,0
0.13711,0.11089,0.91094,-0.8136,-0.64707,-1.3491,0.057304,0,0,0.6962,0.9127,0,0.14899,0,0,0.84949,0.0031262,0,0.84957,-0.62926,-0.83142,-1.3491,72.732,-0.93661,0.6431,-0.0092476,0.12,0.54,0
0.14994,0.11316,0.89371,-0.83803,-0.53414,-1.3054,0.010832,0,0,0.60754,1.0026,0,0.028162,0,0,0.86965,0.0018763,0,0.86968,-0.53376,-0.83841,-1.3054,87.961,-0.89251,0.67314,-0.0055556,0.14,0.54,0
0.16141,0.11323,0.87616,-0.84567,-0.46027,-1.2679,-0.0062081,0,0,0.54895,1.05,0,-0.016141,0,0,0.88279,-0.0045301,0,0.8828,-0.46017,-0.84576,-1.2679,-89.077,-0.85796,0.69978,-0.0013788,0.16,0.54,0
0.1719,0.11206,0.8584,-0.84758,-0.41605,-1.2375,-0.0026837,0,0,0.50688,1.0679,0,-0.0069776,0,0,0.8903,-0.013981,0,0.8904,-0.41603,-0.8476,-1.2375,-89.644,-0.83371,0.71171,0.0016245,0.18,0.54,0
0.18168,0.11025,0.84054,-0.84766,-0.39186,-1.2124,0.011313,0,0,0.47417,1.0667,0,0.029413,0,0,0.89296,-0.025538,0,0.89331,-0.39158,-0.84794,-1.2124,88.579,-0.81731,0.71234,0.0035725,0.2,0.54,0
0.19087,0.10808,0.82268,-0.84813,-0.38147,-1.1916,0.028736,0,0,0.44646,1.0531,0,0.074713,0,0,0.89109,-0.039259,0,0.89193,-0.3797,-0.84989,-1.1916,86.49,-0.80705,0.70602,0.0048807,0.22,0.54,0
0.19954,0.10555,0.8049,-0.84924,-0.38337,-1.1747,0.044619,0,0,0.42307,1.0287,0,0.11601,0,0,0.88434,-0.055861,0,0.88608,-0.37913,-0.85348,-1.1747,84.578,-0.80243,0.69321,0.0055773,0.24,0.54,0
0.20779,0.10246,0.78731,-0.84862,-0.40226,-1.1626,0.053903,0,0,0.40813,0.98841,0,0.14015,0,0,0.8716,-0.076425,0,0.87492,-0.39584,-0.85504,-1.1626,83.211,-0.80449,0.66833,0.0051295,0.26,0.54,0
0.21587,0.098334,0.77004,-0.83731,-0.44862,-1.1558,0.051409,0,0,0.41406,0.91935,0,0.13366,0,0,0.85078,-0.10214,0,0.85689,-0.44194,-0.844,-1.1558,82.592,-0.81392,0.61988,0.0026523,0.28,0.54,0
0.22436,0.092623,0.75328,-0.8093,-0.54854,-1.1606,0.036708,0,0,0.45673,0.79572,0,0.095442,0,0,0.81949,-0.1342,0,0.83047,-0.54347,-0.81437,-1.1606,82.138,-0.83949,0.5358,-0.0016558,0.3,0.54,0
0.23414,0.085147,0.73726,-0.76744,-0.72264,-1.1843,0.028036,0,0,0.54189,0.60014,0,0.072893,0,0,0.77655,-0.176,0,0.79638,-0.70915,-0.78092,-1.1843,64.313,-0.89145,0.44362,-0.004091,0.32,0.54,0
0.24603,0.076651,0.72222,-0.72502,-0.94505,-1.2232,0.051869,0,0,0.64768,0.36164,0,0.13486,0,0,0.72379,-0.23174,0,0.76008,-0.7134,-0.95667,-1.2232,12.621,-0.96444,0.44168,-0.00035,0.34,0.54,0
0.26004,0.068645,0.70831,-0.68609,-1.1341,-1.2544,0.11839,0,0,0.73875,0.15637,0,0.30781,0,0,0.66491,-0.30722,0,0.73217,-0.65673,-1.1634,-1.2544,13.929,-1.0248,0.55775,0.0081189,0.36,0.54,0
0.27558,0.062106,0.69562,-0.64143,-1.2665,-1.268,0.21784,0,0,0.81455,0.0019217,0,0.56639,0,0,0.60218,-0.40952,0,0.72703,-0.57301,-1.335,-1.268,17.438,-1.0587,0.73078,0.019478,0.38,0.54,0
0.29262,0.057616,0.68422,-0.43738,-1.3561,-1.2223,0.28071,0,0,1.0204,-0.17402,0,0.72985,0,0,0.45298,-0.56215,0,0.72044,-0.3584,-1.4351,-1.2223,15.714,-1.0053,0.98764,0.041838,0.4,0.54,0
0.3164,0.047179,0.6775,-0.37021,-1.0834,-0.81246,0.2392,0,0,0.42006,-0.63392,0,1.8839,0,0,0.26635,-0.48211,0,0.57366,-0.27248,-1.1811,-0.81246,27.813,-0.75535,0.79725,0.03012,0.42,0.54,0
0.30943,0.074964,0.64209,-0.27484,-0.32968,-0.2527,0.10474,0,0,-0.25906,-0.90064,0,2.4509,0,0,0.17873,-0.089517,0,0.20041,-0.19399,-0.41053,-0.2527,37.665,-0.28574,0.19397,-0.00026229,0.44,0.54,0
0.30603,0.087919,0.61316,-0.24793,-0.31083,-0.23576,0.076977,0,0,-0.14244,-0.87838,0,1.8013,0,0,0.15236,-0.071064,0,0.16809,-0.19623,-0.36254,-0.23576,33.888,-0.26484,0.15049,-0.00013517,0.46,0.54,0
0.30373,0.094372,0.58725,-0.23408,-0.29866,-0.22507,0.059801,0,0,-0.10543,-0.86097,0,1.3994,0,0,0.14049,-0.056712,0,0.15144,-0.19841,-0.33433,-0.22507,30.817,-0.25261,0.12475,-8.4555e-05,0.48,0.54,0
0.30182,0.097043,0.56258,-0.22501,-0.28592,-0.21579,0.047143,0,0,-0.10788,-0.82053,0,1.1032,0,0,0.13553,-0.04575,0,0.143,-0.19934,-0.31159,-0.21579,28.569,-0.24224,0.105,-5.4563e-05,0.5,0.54,0
0.29941,0.096955,0.53845,-0.22023,-0.2733,-0.20789,0.037388,0,0,-0.14444,-0.76531,0,0.87487,0,0,0.13353,-0.037469,0,0.13866,-0.20092,-0.29261,-0.20789,27.319,-0.23381,0.088414,-3.4754e-05,0.52,0.54,0
0.29604,0.094954,0.51451,-0.21771,-0.2607,-0.20069,0.030203,0,0,-0.19915,-0.70207,0,0.70674,0,0,0.13296,-0.031227,0,0.13656,-0.20213,-0.27627,-0.20069,27.282,-0.22637,0.074871,-2.1529e-05,0.54,0.54,0
0.29145,0.091699,0.49059,-0.21632,-0.24856,-0.19398,0.025139,0,0,-0.26148,-0.63866,0,0.58825,0,0,0.133,-0.026468,0,0.1356,-0.20258,-0.26231,-0.19398,28.666,-0.21962,0.06446,-1.2934e-05,0.56,0.54,0
0.28558,0.087726,0.46663,-0.21534,-0.23728,-0.18763,0.0217,0,0,-0.32412,-0.58091,0,0.50778,0,0,0.13325,-0.022737,0,0.13517,-0.20199,-0.25063,-0.18763,31.587,-0.21342,0.057182,-7.6001e-06,0.58,0.54,0
0.27848,0.083428,0.44262,-0.21434,-0.22702,-0.18159,0.019366,0,0,-0.38319,-0.53154,0,0.45317,0,0,0.13353,-0.019695,0,0.13497,-0.2003,-0.24105,-0.18159,35.937,-0.20765,0.052667,-4.4352e-06,0.6,0.54,0
0.27025,0.079074,0.41856,-0.21314,-0.21771,-0.17576,0.017708,0,0,-0.43735,-0.49079,0,0.41438,0,0,0.13376,-0.017106,0,0.13484,-0.19757,-0.23328,-0.17576,41.326,-0.2022,0.050296,-2.6401e-06,0.62,0.54,0
0.26099,0.074829,0.39447,-0.21173,-0.20924,-0.17012,0.016424,0,0,-0.48681,-0.4577,0,0.38432,0,0,0.13392,-0.014816,0,0.13474,-0.19401,-0.22695,-0.17012,47.166,-0.19703,0.049428,-1.6841e-06,0.64,0.54,0
0.25078,0.070793,0.37035,-0.21012,-0.20147,-0.16463,0.01532,0,0,-0.53232,-0.43103,0,0.35849,0,0,0.13403,-0.012719,0,0.13463,-0.18988,-0.22171,-0.16463,52.889,-0.19207,0.04955,-1.2392e-06,0.66,0.54,0
0.2397,0.067022,0.34621,-0.20839,-0.19429,-0.15927,0.014276,0,0,-0.57467,-0.4097,0,0.33407,0,0,0.1341,-0.01074,0,0.13453,-0.18541,-0.21726,-0.15927,58.14,-0.18732,0.050301,-1.1063e-06,0.68,0.54,0
0.22779,0.063543,0.32207,-0.20656,-0.18762,-0.15404,0.013213,0,0,-0.61452,-0.39286,0,0.30918,0,0,0.13413,-0.008818,0,0.13441,-0.18083,-0.21335,-0.15404,62.819,-0.18274,0.051442,-1.1617e-06,0.7,0.54,0
0.21512,0.060365,0.29793,-0.20468,-0.18139,-0.14893,0.012067,0,0,-0.65236,-0.37987,0,0.28236,0,0,0.13412,-0.0068986,0,0.1343,-0.17627,-0.20981,-0.14893,66.991,-0.17833,0.052816,-1.3254e-06,0.72,0.54,0
0.2017,0.057484,0.27379,-0.20278,-0.17557,-0.14392,0.01078,0,0,-0.6886,-0.37021,0,0.25226,0,0,0.13409,-0.0049267,0,0.13418,-0.17181,-0.20653,-0.14392,70.805,-0.17409,0.054328,-1.5448e-06,0.74,0.54,0
0.18757,0.054881,0.24965,-0.20087,-0.1701,-0.13903,0.009289,0,0,-0.72357,-0.36349,0,0.21736,0,0,0.13403,-0.0028399,0,0.13406,-0.16751,-0.20346,-0.13903,74.442,-0.17,0.055923,-1.7886e-06,0.76,0.54,0
0.17275,0.052527,0.22554,-0.19901,-0.16496,-0.13425,0.007508,0,0,-0.75766,-0.35933,0,0.17569,0,0,0.13396,-0.00055918,0,0.13395,-0.16338,-0.20059,-0.13425,78.1,-0.16607,0.057593,-2.0514e-06,0.78,0.54,0
0.15726,0.050375,0.20143,-0.19725,-0.16013,-0.12959,0.0053143,0,0,-0.79154,-0.35726,0,0.12436,0,0,0.13388,0.002025,0,0.13389,-0.15938,-0.19799,-0.12959,82.01,-0.16232,0.059399,-2.3797e-06,0.8,0.54,0
0.14109,0.048353,0.17734,-0.19576,-0.15557,-0.1251,0.0025257,0,0,-0.82666,-0.35644,0,0.059102,0,0,0.13384,0.0050772,0,0.13393,-0.15541,-0.19591,-0.1251,86.418,-0.15881,0.061537,-2.9479e-06,0.82,0.54,0
0.1242,0.04636,0.15325,-0.19489,-0.15119,-0.12085,-0.0011102,0,0,-0.86624,-0.35493,0,-0.025979,0,0,0.13395,0.0088599,0,0.13423,-0.15116,-0.19492,-0.12085,-88.546,-0.15564,0.064494,-4.2476e-06,0.84,0.54,0
0.10644,0.044263,0.12912,-0.19536,-0.1468,-0.11699,-0.0058997,0,0,-0.9169,-0.34869,0,-0.13805,0,0,0.13454,0.013802,0,0.13522,-0.14609,-0.19607,-0.11699,-83.172,-0.15305,0.069272,-7.4858e-06,0.86,0.54,0
0.087522,0.041901,0.10482,-0.19865,-0.14215,-0.11389,-0.012044,0,0,-0.99178,-0.33067,0,-0.28184,0,0,0.1364,0.020598,0,0.13791,-0.13969,-0.20111,-0.11389,-78.456,-0.15156,0.077613,-1.5371e-05,0.88,0.54,0
0.066773,0.039206,0.080012,-0.20679,-0.13673,-0.11195,-0.019721,0,0,-1.1097,-0.28996,0,-0.46148,0,0,0.14218,0.030311,0,0.14531,-0.13156,-0.21196,-0.11195,-75.311,-0.15182,0.091794,-3.3693e-05,0.9,0.54,0
0.043134,0.035986,0.05363,-0.22504,-0.1327,-0.11328,-0.029247,0,0,-1.3076,-0.22721,0,-0.68438,0,0,0.15863,0.044528,0,0.16489,-0.12422,-0.23352,-0.11328,-73.823,-0.15701,0.11516,-7.6065e-05,0.92,0.54,0
0.014471,0.031384,0.022906,-0.24049,-0.18262,-0.13966,-0.092707,0,0,-0.76806,-0.10052,0,-0.62643,0,0,0.21995,0.27281,0,0.37024,-0.1034,-0.31971,-0.13966,-59.327,-0.18759,0.20166,-0.00044847,0.94,0.54,0
0.012412,0.036411,0.017522,-0.33305,-0.22988,-0.1864,-0.098513,0,0,-0.19065,-0.056519,0,-0.25613,0,0,0.34955,0.24702,0,0.42311,-0.17026,-0.39267,-0.1864,-58.82,-0.24978,0.21479,-0.00049927,0.96,0.54,0
0.0068449,0.03699,0.0089235,-0.45225,-0.22984,-0.21355,-0.0635,0,0,-0.3103,-0.021179,0,-0.1651,0,0,0.43804,0.10813,0,0.44847,-0.21299,-0.4691,-0.21355,-75.136,-0.29855,0.25583,-0.00085995,0.98,0.54,0
0,0.037104,0,-0.46722,-0.21262,-0.20395,0.0021994,0,0,-0.34225,-0.011269,0,0.0057185,0,0,0.44618,2.0817e-17,0,0.44403,-0.2126,-0.46724,-0.20395,89.505,-0.2946,0.25907,-0.00088969,1,0.54,0
0,0.071342,1,-0.59664,-1.7431,-1.7019,0.039064,0,0,1.4369,-0.053522,0,0.10157,0,0,0.62557,1.0096e-15,0,0.62526,-0.59532,-1.7444,-1.7019,1.9493,-1.3472,1.1285,0.073451,0,0.56,0
0.028737,0.073373,0.98749,-0.58538,-1.7143,-1.6774,0.076062,0,0,1.4196,-0.048,0,0.19776,0,0,0.64212,-0.045709,0,0.64367,-0.58028,-1.7194,-1.6774,3.8372,-1.3257,1.1187,0.071569,0.02,0.56,0
0.056785,0.080098,0.97432,-0.61392,-1.6513,-1.6539,0.17609,0,0,1.3519,0.003345,0,0.45784,0,0,0.68633,-0.082982,0,0.69205,-0.58484,-1.6804,-1.6539,9.376,-1.3064,1.0825,0.065024,0.04,0.56,0
0.082815,0.092426,0.96003,-0.67872,-1.4339,-1.5938,0.271,0,0,1.1896,0.20788,0,0.70461,0,0,0.74486,-0.084898,0,0.7504,-0.59153,-1.5211,-1.5938,17.834,-1.2355,0.96798,0.045697,0.06,0.56,0
0.10437,0.10814,0.94452,-0.70998,-0.98516,-1.4531,0.27258,0,0,0.96601,0.60828,0,0.70872,0,0,0.79848,-0.062857,0,0.80125,-0.54223,-1.1529,-1.4531,31.608,-1.0494,0.80394,0.014693,0.08,0.56,0
0.12146,0.12151,0.9281,-0.76646,-0.70283,-1.3689,0.16383,0,0,0.78315,0.86587,0,0.42595,0,0,0.83525,-0.029779,0,0.83576,-0.56776,-0.90153,-1.3689,50.495,-0.94606,0.697,-0.0049381,0.1,0.56,0
0.1357,0.1297,0.91111,-0.79908,-0.5881,-1.3273,0.067661,0,0,0.68664,0.96091,0,0.17592,0,0,0.85659,-0.015583,0,0.85676,-0.56827,-0.81892,-1.3273,73.662,-0.90482,0.66982,-0.0084679,0.12,0.56,0
0.14892,0.1333,0.89383,-0.78972,-0.51013,-1.2838,0.013467,0,0,0.64229,1.0057,0,0.035014,0,0,0.86914,-0.011243,0,0.86923,-0.50948,-0.79037,-1.2838,87.249,-0.86121,0.67893,-0.0073009,0.14,0.56,0
0.16139,0.13403,0.87635,-0.78279,-0.45993,-1.2492,-0.0048745,0,0,0.60628,1.026,0,-0.012674,0,0,0.87763,-0.01269,0,0.87773,-0.45986,-0.78287,-1.2492,-89.135,-0.83063,0.6873,-0.0051392,0.16,0.56,0
0.17317,0.13307,0.85873,-0.77975,-0.42801,-1.221,-0.0021918,0,0,0.5737,1.031,0,-0.0056988,0,0,0.88214,-0.017618,0,0.88231,-0.428,-0.77976,-1.221,-89.643,-0.80961,0.68826,-0.0032491,0.18,0.56,0
0.18434,0.13119,0.84106,-0.77852,-0.40889,-1.1973,0.011589,0,0,0.54439,1.0249,0,0.030131,0,0,0.88248,-0.024883,0,0.88282,-0.40853,-0.77888,-1.1973,88.206,-0.7949,0.6835,-0.0017264,0.2,0.56,0
0.19495,0.12874,0.82343,-0.77756,-0.39912,-1.1764,0.029432,0,0,0.51853,1.0105,0,0.076524,0,0,0.87822,-0.034117,0,0.87888,-0.39684,-0.77984,-1.1764,85.579,-0.78437,0.67518,-0.00047738,0.22,0.56,0
0.20508,0.12576,0.80593,-0.77681,-0.39817,-1.1584,0.045746,0,0,0.4961,0.98833,0,0.11894,0,0,0.86861,-0.045433,0,0.8698,-0.39272,-0.78226,-1.1584,83.208,-0.7778,0.66316,0.00045327,0.24,0.56,0
0.21479,0.12194,0.78868,-0.77668,-0.40903,-1.1444,0.054256,0,0,0.47804,0.95597,0,0.14106,0,0,0.85232,-0.059156,0,0.8544,-0.4012,-0.78452,-1.1444,81.778,-0.7767,0.64374,0.00074796,0.26,0.56,0
0.2242,0.11662,0.77184,-0.77579,-0.44023,-1.1366,0.044674,0,0,0.46911,0.90534,0,0.11615,0,0,0.8273,-0.075572,0,0.83084,-0.43438,-0.78164,-1.1366,82.545,-0.78422,0.60819,-0.000221,0.28,0.56,0
0.23356,0.10858,0.75559,-0.7443,-0.50149,-1.1293,0.0093211,0,0,0.50053,0.81619,0,0.024235,0,0,0.789,-0.094795,0,0.79489,-0.50113,-0.74466,-1.1293,87.805,-0.79171,0.54859,-0.0032001,0.3,0.56,0
0.24422,0.097005,0.74028,-0.68821,-0.6847,-1.1522,-0.038366,0,0,0.60312,0.60769,0,-0.099753,0,0,0.73341,-0.11641,0,0.74324,-0.64805,-0.72486,-1.1522,-46.31,-0.84169,0.47042,-0.0048697,0.32,0.56,0
0.25768,0.083173,0.72625,-0.63937,-1.0139,-1.2222,-0.018047,0,0,0.75772,0.27086,0,-0.046922,0,0,0.66086,-0.16071,0,0.68094,-0.6385,-1.0147,-1.2222,-2.7525,-0.95849,0.51252,0.0032916,0.34,0.56,0
0.27453,0.070564,0.71384,-0.55868,-1.2348,-1.2519,0.072868,0,0,0.90116,0.02225,0,0.18946,0,0,0.57689,-0.23192,0,0.62236,-0.55091,-1.2425,-1.2519,6.0822,-1.0151,0.69634,0.017331,0.36,0.56,0
0.29373,0.060719,0.70318,-0.4576,-1.3481,-1.2449,0.16378,0,0,1.0235,-0.13422,0,0.42584,0,0,0.47695,-0.3332,0,0.58217,-0.42843,-1.3773,-1.2449,10.098,-1.0169,0.8901,0.033533,0.38,0.56,0
0.31547,0.051296,0.69477,-0.4003,-1.4994,-1.2647,0.18895,0,0,1.1237,-0.30512,0,0.49128,0,0,0.35044,-0.44838,0,0.57268,-0.36872,-1.531,-1.2647,9.4875,-1.0548,1.0546,0.047542,0.4,0.56,0
0.33868,0.038326,0.68916,-0.31694,-0.90587,-0.74971,0.12143,0,0,0.42213,-0.36541,0,1.258,0,0,0.23407,-0.27564,0,0.38359,-0.26296,-0.95984,-0.74971,25.803,-0.6575,0.62665,0.025182,0.42,0.56,0
0.33235,0.059844,0.65533,-0.26343,-0.29825,-0.24132,0.080899,0,0,-0.2587,-0.66611,0,1.893,0,0,0.17874,-0.062464,0,0.18963,-0.19809,-0.36359,-0.24132,38.927,-0.26767,0.14868,-0.00012193,0.44,0.56,0
0.32833,0.072276,0.62482,-0.24829,-0.29338,-0.23192,0.063406,0,0,-0.1915,-0.719,0,1.4837,0,0,0.16222,-0.057817,0,0.17233,-0.20354,-0.33813,-0.23192,35.214,-0.25787,0.12288,-7.8425e-05,0.46,0.56,0
0.32469,0.078913,0.59693,-0.23941,-0.28507,-0.22367,0.05116,0,0,-0.18414,-0.71841,0,1.1971,0,0,0.1506,-0.049925,0,0.15867,-0.20622,-0.31826,-0.22367,32.975,-0.24938,0.10442,-5.3013e-05,0.48,0.56,0
0.32096,0.082037,0.5706,-0.23286,-0.27588,-0.21602,0.041843,0,0,-0.19698,-0.70033,0,0.97913,0,0,0.14388,-0.042405,0,0.14999,-0.20732,-0.30141,-0.21602,31.397,-0.24158,0.090062,-3.634e-05,0.5,0.56,0
0.31681,0.082757,0.54513,-0.228,-0.26572,-0.20869,0.034385,0,0,-0.22596,-0.66729,0,0.80461,0,0,0.14019,-0.035961,0,0.14471,-0.20764,-0.28608,-0.20869,30.628,-0.23413,0.077919,-2.4282e-05,0.52,0.56,0
0.31192,0.081748,0.52013,-0.22471,-0.25522,-0.20177,0.02849,0,0,-0.26842,-0.62529,0,0.66667,0,0,0.13821,-0.030648,0,0.14155,-0.20765,-0.27228,-0.20177,30.92,-0.22723,0.067761,-1.5575e-05,0.54,0.56,0
0.30608,0.079544,0.49538,-0.22243,-0.24475,-0.1952,0.024003,0,0,-0.31865,-0.57978,0,0.56168,0,0,0.13717,-0.026312,0,0.13967,-0.20712,-0.26006,-0.1952,32.533,-0.22079,0.059801,-9.5286e-06,0.56,0.56,0
0.29918,0.076572,0.47075,-0.2207,-0.23467,-0.18891,0.020684,0,0,-0.37185,-0.53531,0,0.48401,0,0,0.13665,-0.022744,0,0.13852,-0.20585,-0.24951,-0.18891,35.67,-0.21476,0.054156,-5.5488e-06,0.58,0.56,0
0.2912,0.073166,0.44619,-0.21918,-0.22517,-0.18288,0.018251,0,0,-0.42471,-0.49474,0,0.42706,0,0,0.13637,-0.019746,0,0.13779,-0.20368,-0.24067,-0.18288,40.343,-0.20908,0.050695,-3.0967e-06,0.6,0.56,0
0.28219,0.069572,0.42166,-0.21769,-0.21631,-0.17705,0.016428,0,0,-0.47548,-0.45932,0,0.38442,0,0,0.13623,-0.017157,0,0.1373,-0.20056,-0.23344,-0.17705,46.203,-0.20368,0.049061,-1.718e-06,0.62,0.56,0
0.27218,0.065961,0.39714,-0.21615,-0.20808,-0.17139,0.014992,0,0,-0.52359,-0.4292,0,0.35081,0,0,0.13614,-0.014853,0,0.13695,-0.19659,-0.22764,-0.17139,52.529,-0.19854,0.048795,-1.0693e-06,0.64,0.56,0
0.26125,0.062446,0.37264,-0.21453,-0.20042,-0.16589,0.013775,0,0,-0.56911,-0.40397,0,0.32233,0,0,0.13609,-0.012743,0,0.13669,-0.192,-0.22295,-0.16589,58.563,-0.19361,0.049477,-9.1128e-07,0.66,0.56,0
0.24942,0.059099,0.34815,-0.21286,-0.19326,-0.16052,0.012659,0,0,-0.6124,-0.38306,0,0.29621,0,0,0.13607,-0.010753,0,0.13649,-0.18705,-0.21907,-0.16052,63.874,-0.18888,0.05078,-1.0857e-06,0.68,0.56,0
0.23675,0.055961,0.32366,-0.21117,-0.18655,-0.15528,0.011557,0,0,-0.65391,-0.36589,0,0.27044,0,0,0.13606,-0.0088242,0,0.13635,-0.18197,-0.21574,-0.15528,68.402,-0.18433,0.052483,-1.4915e-06,0.7,0.56,0
0.22326,0.053055,0.29917,-0.20948,-0.18023,-0.15015,0.010404,0,0,-0.6941,-0.35189,0,0.24345,0,0,0.13608,-0.0069028,0,0.13625,-0.17691,-0.2128,-0.15015,72.286,-0.17995,0.054447,-2.0681e-06,0.72,0.56,0
0.20899,0.050385,0.27467,-0.20783,-0.17425,-0.14514,0.00914,0,0,-0.73345,-0.34057,0,0.21388,0,0,0.13613,-0.0049349,0,0.13622,-0.17193,-0.21016,-0.14514,75.719,-0.17574,0.056595,-2.7871e-06,0.74,0.56,0
0.19393,0.047944,0.25016,-0.20628,-0.16858,-0.14025,0.0077075,0,0,-0.77253,-0.33139,0,0.18035,0,0,0.13623,-0.0028614,0,0.13625,-0.16706,-0.2078,-0.14025,78.882,-0.1717,0.058907,-3.6534e-06,0.76,0.56,0
0.17808,0.045712,0.22563,-0.20489,-0.16315,-0.13548,0.0060407,0,0,-0.81211,-0.32372,0,0.14135,0,0,0.13639,-0.00061165,0,0.13639,-0.16229,-0.20575,-0.13548,81.929,-0.16784,0.06142,-4.719e-06,0.78,0.56,0
0.16144,0.043658,0.20106,-0.20379,-0.15792,-0.13085,0.0040628,0,0,-0.85339,-0.31669,0,0.095069,0,0,0.13669,0.001905,0,0.1367,-0.15757,-0.20415,-0.13085,84.978,-0.16419,0.06425,-6.1194e-06,0.8,0.56,0
0.14395,0.041739,0.17642,-0.20318,-0.1528,-0.1264,0.001689,0,0,-0.8984,-0.30891,0,0.039523,0,0,0.1372,0.0048099,0,0.13728,-0.15274,-0.20324,-0.1264,88.082,-0.16079,0.067635,-8.1493e-06,0.82,0.56,0
0.12551,0.039902,0.15166,-0.20341,-0.14765,-0.12217,-0.0011495,0,0,-0.95049,-0.29811,0,-0.026898,0,0,0.13814,0.0082661,0,0.13838,-0.14762,-0.20343,-0.12217,-88.82,-0.15774,0.071993,-1.1401e-05,0.84,0.56,0
0.10593,0.038098,0.12669,-0.20499,-0.14225,-0.11825,-0.004434,0,0,-1.0149,-0.28082,0,-0.10376,0,0,0.13992,0.012475,0,0.14047,-0.14194,-0.2053,-0.11825,-85.977,-0.15516,0.077956,-1.6971e-05,0.86,0.56,0
0.08491,0.036311,0.10129,-0.20851,-0.13626,-0.11469,-0.0079784,0,0,-1.0977,-0.25248,0,-0.18669,0,0,0.14339,0.017612,0,0.14446,-0.13539,-0.20938,-0.11469,-83.772,-0.15315,0.086222,-2.6629e-05,0.88,0.56,0
0.062021,0.034553,0.075069,-0.21448,-0.12956,-0.11155,-0.011331,0,0,-1.2042,-0.21069,0,-0.26513,0,0,0.15002,0.023537,0,0.15189,-0.12807,-0.21596,-0.11155,-82.529,-0.15186,0.09721,-4.2623e-05,0.9,0.56,0
0.036741,0.032793,0.047284,-0.2225,-0.1216,-0.10848,-0.014387,0,0,-1.334,-0.15343,0,-0.33665,0,0,0.16014,0.028124,0,0.16274,-0.11958,-0.22451,-0.10848,-82.042,-0.15086,0.11089,-6.7678e-05,0.92,0.56,0
0.0086615,0.030266,0.017417,-0.22886,-0.14923,-0.1231,-0.01635,0,0,-0.76146,-0.061131,0,-0.19243,0,0,0.19481,0.12104,0,0.24116,-0.14506,-0.23303,-0.1231,-76.621,-0.16706,0.10273,-4.9099e-05,0.94,0.56,0
0.006282,0.033536,0.012944,-0.28306,-0.29752,-0.18712,-0.032156,0,0,-0.12473,-0.14352,0,-0.083606,0,0,0.26327,0.1808,0,0.32123,-0.25733,-0.32325,-0.18712,-38.666,-0.2559,0.11791,4.601e-06,0.96,0.56,0
0.0036724,0.035264,0.0068865,-0.29938,-0.27291,-0.17857,-0.025305,0,0,-0.15705,-0.12263,0,-0.065792,0,0,0.32359,0.087741,0,0.33352,-0.25759,-0.3147,-0.17857,-58.807,-0.25029,0.1184,2.3379e-05,0.98,0.56,0
0,0.035609,0,-0.31255,-0.25846,-0.1713,0.0066462,0,0,-0.18362,-0.1133,0,0.01728,0,0,0.34433,-1.7347e-17,0,0.34246,-0.25765,-0.31335,-0.1713,83.096,-0.24743,0.12397,3.5556e-05,1,0.56,0
0,0.06993,1,-0.67113,-1.8168,-1.7464,0.037519,0,0,1.3978,-0.091499,0,0.097549,0,0,0.56414,1.5266e-15,0,0.56327,-0.6699,-1.818,-1.7464,1.8738,-1.4114,1.114,0.070014,0,0.58,0
0.027956,0.07188,0.98872,-0.6475,-1.7892,-1.7197,0.079532,0,0,1.3939,-0.090341,0,0.20678,0,0,0.58367,-0.075504,0,0.58772,-0.64199,-1.7947,-1.7197,3.9657,-1.3855,1.1171,0.070518,0.02,0.58,0
0.055756,0.079182,0.97665,-0.67818,-1.7969,-1.7192,0.20439,0,0,1.3533,-0.10108,0,0.53143,0,0,0.65793,-0.16144,0,0.67797,-0.64201,-1.8331,-1.7192,10.036,-1.3981,1.1384,0.073224,0.04,0.58,0
0.082088,0.095718,0.9624,-0.7556,-1.5976,-1.6683,0.37015,0,0,1.1866,0.09201,0,0.9624,0,0,0.7592,-0.22378,0,0.79588,-0.61601,-1.7372,-1.6683,20.662,-1.3405,1.0884,0.065324,0.06,0.58,0
0.10322,0.12147,0.94629,-0.68205,-0.71176,-1.3644,0.29938,0,0,0.88709,0.84847,0,0.77838,0,0,0.83794,-0.077797,0,0.83985,-0.39716,-0.99665,-1.3644,43.58,-0.91941,0.84565,0.012446,0.08,0.58,0
0.11757,0.14018,0.92888,-0.79527,-0.62732,-1.3557,0.14723,0,0,0.7285,0.94684,0,0.38281,0,0,0.86797,-0.040755,0,0.86885,-0.5418,-0.8808,-1.3557,59.849,-0.92609,0.70809,-0.0051837,0.1,0.58,0
0.13236,0.14933,0.91157,-0.72365,-0.53764,-1.2899,0.048895,0,0,0.73619,0.97801,0,0.12713,0,0,0.86802,-0.025293,0,0.86838,-0.52557,-0.73572,-1.2899,76.134,-0.85041,0.68397,-0.011355,0.12,0.58,0
0.14702,0.15339,0.89416,-0.69661,-0.48881,-1.2498,0.011347,0,0,0.71913,0.98927,0,0.029503,0,0,0.87254,-0.019112,0,0.87275,-0.48819,-0.69722,-1.2498,86.884,-0.81173,0.68156,-0.011253,0.14,0.58,0
0.16112,0.15427,0.87667,-0.69304,-0.4574,-1.2218,-0.00038667,0,0,0.68738,0.99372,0,-0.0010053,0,0,0.87641,-0.017736,0,0.87659,-0.4574,-0.69304,-1.2218,-89.906,-0.79074,0.67802,-0.0097341,0.16,0.58,0
0.17452,0.15329,0.85911,-0.69746,-0.43636,-1.1992,0.0026534,0,0,0.65233,0.99176,0,0.0068987,0,0,0.87811,-0.019174,0,0.87831,-0.43633,-0.69748,-1.1992,89.418,-0.77769,0.67157,-0.0080027,0.18,0.58,0
0.18722,0.15124,0.84154,-0.70063,-0.42217,-1.1784,0.013211,0,0,0.62107,0.98307,0,0.034348,0,0,0.87646,-0.022416,0,0.87675,-0.42155,-0.70126,-1.1784,87.29,-0.76706,0.66283,-0.0064843,0.2,0.58,0
0.19936,0.1485,0.82405,-0.69836,-0.41321,-1.1575,0.026681,0,0,0.5969,0.9676,0,0.069371,0,0,0.87054,-0.026964,0,0.87096,-0.41073,-0.70084,-1.1575,84.7,-0.75636,0.65208,-0.0053379,0.22,0.58,0
0.21109,0.14509,0.80672,-0.69006,-0.40935,-1.1365,0.03928,0,0,0.58042,0.94535,0,0.10213,0,0,0.8593,-0.032583,0,0.85994,-0.40395,-0.69545,-1.1365,82.183,-0.74532,0.63883,-0.0046172,0.24,0.58,0
0.22257,0.1407,0.78968,-0.67905,-0.41269,-1.1172,0.046213,0,0,0.56959,0.91586,0,0.12015,0,0,0.84146,-0.039097,0,0.84243,-0.40491,-0.68685,-1.1172,80.432,-0.73632,0.62131,-0.0043298,0.26,0.58,0
0.23388,0.13455,0.77306,-0.67368,-0.42877,-1.1038,0.040046,0,0,0.55915,0.87753,0,0.10412,0,0,0.81514,-0.046138,0,0.81658,-0.42239,-0.68006,-1.1038,80.945,-0.73542,0.59593,-0.0044257,0.28,0.58,0
0.24494,0.12527,0.75707,-0.68999,-0.47567,-1.1068,-0.0040683,0,0,0.54181,0.82043,0,-0.010578,0,0,0.77865,-0.052633,0,0.78071,-0.47559,-0.69007,-1.1068,-88.913,-0.75747,0.55589,-0.0046016,0.3,0.58,0
0.25555,0.10945,0.74191,-0.58005,-0.52494,-1.0734,-0.087922,0,0,0.64137,0.71302,0,-0.2286,0,0,0.71063,-0.055265,0,0.71295,-0.46035,-0.64463,-1.0734,-53.701,-0.72613,0.54482,-0.0052157,0.32,0.58,0
0.2706,0.087485,0.72864,-0.57893,-1.1351,-1.2429,-0.12003,0,0,0.86312,0.14005,0,-0.31208,0,0,0.60828,-0.025942,0,0.61452,-0.55413,-1.1599,-1.2429,-11.673,-0.98564,0.65124,0.013413,0.34,0.58,0
0.29008,0.069536,0.71758,-0.47974,-1.374,-1.2737,0.0075308,0,0,1.0322,-0.13041,0,0.01958,0,0,0.49243,-0.14122,0,0.51234,-0.47968,-1.3741,-1.2737,0.48245,-1.0425,0.84869,0.02992,0.36,0.58,0
0.31188,0.056737,0.70895,-0.39784,-1.4237,-1.2554,0.099239,0,0,1.1148,-0.2188,0,0.25802,0,0,0.38572,-0.24582,0,0.45797,-0.38833,-1.4332,-1.2554,5.4749,-1.0257,0.96832,0.041381,0.38,0.58,0
0.33467,0.045411,0.70215,-0.36071,-1.4682,-1.2508,0.11287,0,0,1.1572,-0.28262,0,0.29346,0,0,0.29002,-0.31936,0,0.43363,-0.34932,-1.4796,-1.2508,5.7601,-1.0266,1.0351,0.047705,0.4,0.58,0
0.35817,0.032563,0.69735,-0.28667,-0.8343,-0.7237,0.086682,0,0,0.41324,-0.25879,0,0.97777,0,0,0.21124,-0.19615,0,0.30721,-0.24394,-0.87703,-0.7237,25.854,-0.61489,0.58058,0.024445,0.42,0.58,0
0.3512,0.04832,0.66458,-0.26172,-0.2801,-0.23639,0.065992,0,0,-0.29642,-0.51142,0,1.5442,0,0,0.17604,-0.045033,0,0.18181,-0.20428,-0.33754,-0.23639,41.037,-0.25941,0.12046,-6.873e-05,0.44,0.58,0
0.34631,0.059159,0.63397,-0.24965,-0.28116,-0.22969,0.054205,0,0,-0.23363,-0.60226,0,1.2684,0,0,0.1649,-0.045504,0,0.17114,-0.20896,-0.32186,-0.22969,36.898,-0.2535,0.10409,-5.0273e-05,0.46,0.58,0
0.34185,0.065636,0.60522,-0.24221,-0.27566,-0.22261,0.044476,0,0,-0.22938,-0.62067,0,1.0407,0,0,0.1559,-0.042317,0,0.16158,-0.21142,-0.30645,-0.22261,34.697,-0.24682,0.08996,-3.5449e-05,0.48,0.58,0
0.33714,0.06903,0.57785,-0.23704,-0.2681,-0.21575,0.036977,0,0,-0.24915,-0.61253,0,0.86526,0,0,0.1495,-0.037833,0,0.15422,-0.21247,-0.29268,-0.21575,33.61,-0.2403,0.078621,-2.4813e-05,0.5,0.58,0
0.33189,0.070264,0.5514,-0.233,-0.25955,-0.20903,0.030968,0,0,-0.28045,-0.59108,0,0.72464,0,0,0.14529,-0.03327,0,0.14905,-0.21259,-0.27997,-0.20903,33.398,-0.23386,0.06923,-1.6891e-05,0.52,0.58,0
0.32592,0.069942,0.52554,-0.22981,-0.25044,-0.20247,0.026102,0,0,-0.3199,-0.5613,0,0.61078,0,0,0.14261,-0.029082,0,0.14553,-0.21206,-0.2682,-0.20247,34.218,-0.22758,0.061492,-1.0969e-05,0.54,0.58,0
0.31909,0.068508,0.50006,-0.22731,-0.24117,-0.19611,0.022221,0,0,-0.36503,-0.52729,0,0.51996,0,0,0.1409,-0.025397,0,0.14317,-0.21096,-0.25752,-0.19611,36.334,-0.22153,0.055495,-6.7029e-06,0.56,0.58,0
0.31132,0.066313,0.47482,-0.22525,-0.23203,-0.18994,0.019188,0,0,-0.41316,-0.49238,0,0.44899,0,0,0.13982,-0.022195,0,0.14156,-0.20916,-0.24812,-0.18994,39.997,-0.21574,0.051346,-3.8142e-06,0.58,0.58,0
0.30256,0.063639,0.44973,-0.22346,-0.22319,-0.18397,0.01684,0,0,-0.46211,-0.45895,0,0.39405,0,0,0.13911,-0.019402,0,0.14046,-0.20649,-0.24017,-0.18397,45.23,-0.21021,0.048991,-2.0276e-06,0.6,0.58,0
0.29283,0.060701,0.42473,-0.22179,-0.21478,-0.17816,0.015005,0,0,-0.51044,-0.4284,0,0.35112,0,0,0.13865,-0.016932,0,0.13968,-0.20288,-0.2337,-0.17816,51.576,-0.20491,0.048188,-1.0866e-06,0.62,0.58,0
0.28215,0.057661,0.39981,-0.22016,-0.20682,-0.17252,0.013527,0,0,-0.55746,-0.40131,0,0.31652,0,0,0.13834,-0.014705,0,0.13911,-0.19841,-0.22857,-0.17252,58.129,-0.19983,0.048593,-7.7572e-07,0.64,0.58,0
0.27054,0.054634,0.37493,-0.21855,-0.1993,-0.16701,0.012273,0,0,-0.60294,-0.37778,0,0.28718,0,0,0.13814,-0.012649,0,0.13871,-0.19333,-0.22452,-0.16701,64.049,-0.19496,0.049861,-9.306e-07,0.66,0.58,0
0.25803,0.051699,0.35008,-0.21694,-0.1922,-0.16164,0.011141,0,0,-0.64702,-0.35757,0,0.2607,0,0,0.13802,-0.010706,0,0.13843,-0.18793,-0.22122,-0.16164,68.996,-0.19026,0.051715,-1.4357e-06,0.68,0.58,0
0.24465,0.048907,0.32525,-0.21537,-0.18548,-0.15639,0.010052,0,0,-0.68999,-0.34033,0,0.23522,0,0,0.13798,-0.0088231,0,0.13826,-0.18241,-0.21843,-0.15639,73.036,-0.18575,0.05396,-2.2169e-06,0.7,0.58,0
0.23043,0.046289,0.30041,-0.21385,-0.17909,-0.15126,0.0089445,0,0,-0.73225,-0.32565,0,0.2093,0,0,0.13801,-0.006952,0,0.13819,-0.17693,-0.21601,-0.15126,76.381,-0.1814,0.056477,-3.2358e-06,0.72,0.58,0
0.21536,0.043861,0.27556,-0.21243,-0.173,-0.14625,0.0077667,0,0,-0.77429,-0.31305,0,0.18174,0,0,0.13813,-0.0050451,0,0.13822,-0.17153,-0.2139,-0.14625,79.247,-0.17722,0.059209,-4.4877e-06,0.74,0.58,0
0.19946,0.041626,0.25068,-0.21115,-0.16716,-0.14135,0.0064744,0,0,-0.81673,-0.302,0,0.1515,0,0,0.13836,-0.0030528,0,0.13839,-0.16623,-0.21209,-0.14135,81.8,-0.17322,0.062154,-6.0071e-06,0.76,0.58,0
0.18269,0.039579,0.22576,-0.21011,-0.16151,-0.13657,0.0050286,0,0,-0.86044,-0.29182,0,0.11767,0,0,0.13872,-0.00092097,0,0.13872,-0.161,-0.21063,-0.13657,84.154,-0.1694,0.065361,-7.8837e-06,0.78,0.58,0
0.16504,0.037707,0.20074,-0.20942,-0.156,-0.13193,0.0033994,0,0,-0.90661,-0.28161,0,0.079545,0,0,0.1393,0.0014111,0,0.1393,-0.15578,-0.20963,-0.13193,86.373,-0.16578,0.068944,-1.0291e-05,0.8,0.58,0
0.14643,0.035996,0.17561,-0.20923,-0.15053,-0.12744,0.0015785,0,0,-0.95693,-0.27015,0,0.036936,0,0,0.1402,0.0040083,0,0.14025,-0.15049,-0.20927,-0.12744,88.461,-0.1624,0.073086,-1.3534e-05,0.82,0.58,0
0.12676,0.034436,0.15027,-0.20975,-0.14498,-0.12312,-0.00039313,0,0,-1.0136,-0.25582,0,-0.0091994,0,0,0.14162,0.0069267,0,0.14178,-0.14498,-0.20976,-0.12312,-89.652,-0.15929,0.078038,-1.8104e-05,0.84,0.58,0
0.10589,0.03303,0.12462,-0.2112,-0.13922,-0.11897,-0.0023903,0,0,-1.0791,-0.23683,0,-0.055934,0,0,0.14388,0.01017,0,0.14424,-0.13914,-0.21128,-0.11897,-88.1,-0.15646,0.084062,-2.4692e-05,0.86,0.58,0
0.083599,0.031802,0.098475,-0.21371,-0.13312,-0.11499,-0.0041795,0,0,-1.155,-0.21214,0,-0.097801,0,0,0.14746,0.013567,0,0.1481,-0.1329,-0.21392,-0.11499,-87.039,-0.15394,0.091302,-3.4072e-05,0.88,0.58,0
0.059686,0.030778,0.071538,-0.21717,-0.12665,-0.1111,-0.0055556,0,0,-1.2411,-0.18198,0,-0.13,0,0,0.15269,0.016437,0,0.1536,-0.12631,-0.21751,-0.1111,-86.501,-0.15164,0.099685,-4.6906e-05,0.9,0.58,0
0.033955,0.029848,0.043506,-0.22208,-0.11991,-0.10743,-0.0061976,0,0,-1.3414,-0.14602,0,-0.14502,0,0,0.1593,0.01712,0,0.16026,-0.11954,-0.22246,-0.10743,-86.541,-0.14981,0.10947,-6.4614e-05,0.92,0.58,0
0.0060305,0.028939,0.01419,-0.21706,-0.15568,-0.11971,-0.0030629,0,0,-0.74711,-0.084176,0,-0.067145,0,0,0.17895,0.071429,0,0.19928,-0.15553,-0.21722,-0.11971,-87.381,-0.16415,0.093498,-3.1567e-05,0.94,0.58,0
0.0040706,0.03067,0.01029,-0.24044,-0.2773,-0.16561,0.0021403,0,0,-0.097272,-0.1452,0,0.0055648,0,0,0.21942,0.1065,0,0.2448,-0.24031,-0.27742,-0.16561,3.3116,-0.22778,0.09864,2.6812e-05,0.96,0.58,0
0.0021396,0.032085,0.0054139,-0.24632,-0.29575,-0.16803,-0.00077357,0,0,-0.10176,-0.16603,0,-0.0020113,0,0,0.25724,0.05947,0,0.26347,-0.2463,-0.29577,-0.16803,-0.89625,-0.2367,0.11155,2.7003e-05,0.98,0.58,0
0,0.032572,0,-0.23978,-0.28517,-0.15748,0.009376,0,0,-0.10698,-0.16599,0,0.024378,0,0,0.2707,1.7347e-18,0,0.26957,-0.23791,-0.28703,-0.15748,11.223,-0.22748,0.11328,3.0172e-05,1,0.58,0
0,0.067682,1,-0.71944,-1.9038,-1.787,0.039955,0,0,1.3878,-0.15186,0,0.10388,0,0,0.47457,4.7878e-16,0,0.47299,-0.71809,-1.9051,-1.787,1.93,-1.4701,1.1326,0.071886,0,0.6,0
0.027756,0.06976,0.99051,-0.74432,-1.9097,-1.7867,0.098306,0,0,1.3551,-0.15985,0,0.2556,0,0,0.48068,-0.095445,0,0.48809,-0.73608,-1.9179,-1.7867,4.7883,-1.4802,1.122,0.069208,0.02,0.6,0
0.054204,0.076054,0.98077,-0.83968,-1.9762,-1.8255,0.29505,0,0,1.2816,-0.19586,0,0.76713,0,0,0.53806,-0.21845,0,0.57496,-0.76765,-2.0482,-1.8255,13.72,-1.5471,1.185,0.075396,0.04,0.6,0
0.07902,0.096106,0.96899,-0.74308,-1.3425,-1.164,0.38112,0,0,0.81432,-0.70894,0,2.4067,0,0,0.43371,-0.24315,0,0.50244,-0.55642,-1.5291,-1.164,28.036,-1.0832,0.85482,0.040128,0.06,0.6,0
0.091042,0.14208,0.94763,-0.51149,-0.5031,-0.83084,0.23672,0,0,0.74728,-0.28608,0,1.6466,0,0,0.54528,-0.058607,0,0.55051,-0.24185,-0.77274,-0.83084,37.712,-0.61514,0.60396,0.015633,0.08,0.6,0
0.10891,0.15939,0.92973,-0.38117,-0.46876,-0.7715,0.071971,0,0,0.91335,-0.29902,0,0.74181,0,0,0.4932,-0.038621,0,0.49665,-0.31961,-0.53032,-0.7715,32.012,-0.54048,0.47248,-0.0082768,0.1,0.6,0
0.12758,0.16882,0.91212,-0.35789,-0.43695,-0.74518,0.035554,0,0,0.90628,-0.29189,0,0.44074,0,0,0.48791,-0.027573,0,0.48999,-0.31922,-0.47562,-0.74518,35.64,-0.51334,0.4606,-0.0094477,0.12,0.6,0
0.14516,0.17287,0.8946,-0.37724,-0.42958,-0.73904,0.017075,0,0,0.84662,-0.27507,0,0.27557,0,0,0.48705,-0.022302,0,0.4885,-0.32635,-0.48047,-0.73904,44.673,-0.51529,0.44381,-0.0084767,0.14,0.6,0
0.16144,0.17378,0.87705,-0.399,-0.42191,-0.73353,0.010947,0,0,0.78279,-0.25551,0,0.20559,0,0,0.48754,-0.019906,0,0.48869,-0.32412,-0.4968,-0.73353,46.551,-0.51815,0.43074,-0.007146,0.16,0.6,0
0.17647,0.17274,0.85949,-0.41622,-0.41472,-0.72678,0.010901,0,0,0.72671,-0.2382,0,0.18983,0,0,0.48748,-0.019245,0,0.48851,-0.321,-0.50993,-0.72678,46.421,-0.51924,0.41994,-0.0058749,0.18,0.6,0
0.19051,0.17051,0.84196,-0.42452,-0.40729,-0.7173,0.014245,0,0,0.68509,-0.2264,0,0.2049,0,0,0.48594,-0.019641,0,0.48693,-0.31642,-0.5154,-0.7173,45.902,-0.51637,0.411,-0.0049034,0.2,0.6,0
0.20388,0.16745,0.82451,-0.42195,-0.39956,-0.70451,0.018865,0,0,0.66119,-0.22175,0,0.23108,0,0,0.48225,-0.020643,0,0.48326,-0.31008,-0.51143,-0.70451,45.219,-0.50867,0.40318,-0.0043472,0.22,0.6,0
0.21696,0.16357,0.80723,-0.40756,-0.39134,-0.68813,0.022891,0,0,0.65654,-0.22481,0,0.24979,0,0,0.47582,-0.02188,0,0.47686,-0.30181,-0.49709,-0.68813,44.241,-0.49568,0.39603,-0.0042306,0.24,0.6,0
0.23014,0.15858,0.79025,-0.38256,-0.38329,-0.66878,0.025267,0,0,0.66504,-0.23512,0,0.26363,0,0,0.46657,-0.022929,0,0.46759,-0.29299,-0.47286,-0.66878,43.059,-0.47821,0.38928,-0.0044915,0.26,0.6,0
0.24379,0.15172,0.77368,-0.34388,-0.37265,-0.64478,0.01668,0,0,0.71187,-0.25107,0,0.1253,0,0,0.45129,-0.023148,0,0.45222,-0.28089,-0.43564,-0.64478,40.532,-0.45377,0.38405,-0.0050132,0.28,0.6,0
0.25823,0.1414,0.7577,-0.31932,-0.3771,-0.62987,0.0014004,0,0,0.72668,-0.26758,0,-0.0045061,0,0,0.43326,-0.021035,0,0.43387,-0.28861,-0.40781,-0.62987,43.203,-0.4421,0.37366,-0.0051807,0.3,0.6,0
0.27286,0.12553,0.74249,-0.33991,-0.37582,-0.62721,-0.10379,0,0,0.67229,-0.27294,0,-0.62896,0,0,0.42228,-0.01464,0,0.42217,-0.22121,-0.49452,-0.62721,-32.012,-0.44765,0.40579,-0.00049062,0.32,0.6,0
0.28512,0.088775,0.72729,-0.44529,-0.93633,-0.81854,-0.19459,0,0,0.75757,-0.50238,0,-1.2209,0,0,0.29885,0.061967,0,0.30429,-0.37662,-1.005,-0.81854,-21.402,-0.73339,0.56248,0.017056,0.34,0.6,0
0.30606,0.065348,0.71949,-0.49149,-1.5085,-1.3195,-0.091184,0,0,1.0764,-0.24571,0,-0.23708,0,0,0.357,-0.076967,0,0.36042,-0.48338,-1.5166,-1.3195,-5.0831,-1.1065,0.95012,0.03774,0.36,0.6,0
0.32817,0.051967,0.71301,-0.40972,-1.4845,-1.2813,0.040376,0,0,1.133,-0.26419,0,0.10498,0,0,0.29881,-0.17773,0,0.34692,-0.4082,-1.486,-1.2813,2.1484,-1.0585,0.99143,0.042943,0.38,0.6,0
0.35138,0.039991,0.70754,-0.35177,-1.4562,-1.2499,0.064177,0,0,1.1676,-0.26811,0,0.16686,0,0,0.2432,-0.23782,0,0.34104,-0.34806,-1.4599,-1.2499,3.3147,-1.0193,1.0231,0.047292,0.4,0.6,0
0.37488,0.027974,0.70329,-0.28357,-0.81306,-0.7197,0.061733,0,0,0.40364,-0.21845,0,0.75751,0,0,0.19456,-0.14593,0,0.25867,-0.24948,-0.84715,-0.7197,25.84,-0.60544,0.55401,0.023484,0.42,0.6,0
0.36753,0.039387,0.67154,-0.2618,-0.26864,-0.23375,0.054038,0,0,-0.32823,-0.4082,0,1.2645,0,0,0.17247,-0.034563,0,0.17594,-0.21107,-0.31936,-0.23375,43.191,-0.25473,0.098924,-4.1049e-05,0.44,0.6,0
0.36175,0.048185,0.6412,-0.25196,-0.27155,-0.2283,0.046515,0,0,-0.27687,-0.50607,0,1.0884,0,0,0.16493,-0.036376,0,0.16894,-0.21422,-0.30929,-0.2283,39.054,-0.2506,0.088871,-3.3022e-05,0.46,0.6,0
0.35645,0.054086,0.61216,-0.24508,-0.26818,-0.222,0.039095,0,0,-0.27009,-0.54036,0,0.91482,0,0,0.15827,-0.035535,0,0.16223,-0.21587,-0.2974,-0.222,36.77,-0.24509,0.078645,-2.4471e-05,0.48,0.6,0
0.35094,0.057536,0.58422,-0.24031,-0.26198,-0.2156,0.032851,0,0,-0.2891,-0.54267,0,0.76871,0,0,0.15293,-0.033142,0,0.15649,-0.21656,-0.28574,-0.2156,35.872,-0.2393,0.069666,-1.7354e-05,0.5,0.6,0
0.34489,0.059114,0.55711,-0.23668,-0.2545,-0.20925,0.027755,0,0,-0.32084,-0.52936,0,0.64946,0,0,0.14894,-0.030112,0,0.15196,-0.21644,-0.27474,-0.20925,36.1,-0.23348,0.062204,-1.1808e-05,0.52,0.6,0
0.33811,0.059296,0.5306,-0.23371,-0.24637,-0.20298,0.023584,0,0,-0.35956,-0.50764,0,0.55186,0,0,0.14608,-0.026975,0,0.14855,-0.21562,-0.26446,-0.20298,37.49,-0.22769,0.056233,-7.5998e-06,0.54,0.6,0
0.3305,0.058452,0.50452,-0.23122,-0.23796,-0.19681,0.020186,0,0,-0.4026,-0.4814,0,0.47236,0,0,0.14406,-0.023984,0,0.14604,-0.21412,-0.25505,-0.19681,40.265,-0.222,0.051804,-4.5446e-06,0.56,0.6,0
0.32201,0.056876,0.47874,-0.22908,-0.22952,-0.19078,0.017447,0,0,-0.44819,-0.45336,0,0.40826,0,0,0.14264,-0.021234,0,0.14421,-0.21185,-0.24675,-0.19078,44.637,-0.21646,0.048967,-2.4848e-06,0.58,0.6,0
0.31258,0.054808,0.45317,-0.22718,-0.22124,-0.18488,0.015254,0,0,-0.49488,-0.42549,0,0.35695,0,0,0.14164,-0.018738,0,0.14287,-0.20867,-0.23975,-0.18488,50.5,-0.2111,0.04766,-1.2652e-06,0.6,0.6,0
0.30221,0.052436,0.42775,-0.22542,-0.21323,-0.17912,0.01349,0,0,-0.54166,-0.39906,0,0.31567,0,0,0.14093,-0.01647,0,0.14188,-0.20452,-0.23413,-0.17912,57.155,-0.20592,0.047682,-7.3478e-07,0.62,0.6,0
0.29091,0.049908,0.40244,-0.22375,-0.20554,-0.1735,0.012043,0,0,-0.58792,-0.37481,0,0.2818,0,0,0.14043,-0.014387,0,0.14116,-0.19955,-0.22974,-0.1735,63.549,-0.20093,0.048751,-7.5872e-07,0.64,0.6,0
0.27869,0.047335,0.3772,-0.22215,-0.19818,-0.16801,0.010812,0,0,-0.63342,-0.35302,0,0.253,0,0,0.14009,-0.012445,0,0.14064,-0.19403,-0.22631,-0.16801,68.971,-0.19611,0.050582,-1.2282e-06,0.66,0.6,0
0.26558,0.044796,0.352,-0.2206,-0.19116,-0.16264,0.0097133,0,0,-0.67815,-0.3337,0,0.22729,0,0,0.13989,-0.010601,0,0.14029,-0.18825,-0.22352,-0.16264,73.29,-0.19147,0.052943,-2.0643e-06,0.68,0.6,0
0.25157,0.042348,0.32683,-0.21913,-0.18446,-0.15739,0.0086801,0,0,-0.72232,-0.31668,0,0.20311,0,0,0.13982,-0.0088106,0,0.14009,-0.18241,-0.22118,-0.15739,76.701,-0.18699,0.055669,-3.2181e-06,0.7,0.6,0
0.23668,0.040029,0.30167,-0.21774,-0.17804,-0.15225,0.007659,0,0,-0.76624,-0.30168,0,0.17922,0,0,0.13986,-0.0070363,0,0.14003,-0.17661,-0.21917,-0.15225,79.452,-0.18268,0.058662,-4.6703e-06,0.72,0.6,0
0.22092,0.037863,0.27648,-0.21649,-0.17187,-0.14723,0.0066093,0,0,-0.81035,-0.28832,0,0.15466,0,0,0.14003,-0.005239,0,0.14013,-0.17091,-0.21745,-0.14723,81.749,-0.17853,0.061875,-6.4336e-06,0.74,0.6,0
0.20427,0.035863,0.25126,-0.21541,-0.16592,-0.14232,0.0055012,0,0,-0.85522,-0.27615,0,0.12873,0,0,0.14035,-0.0033815,0,0.14039,-0.16531,-0.21602,-0.14232,83.734,-0.17455,0.065311,-8.5579e-06,0.76,0.6,0
0.18671,0.034039,0.22596,-0.21458,-0.16014,-0.13752,0.0043173,0,0,-0.90157,-0.2646,0,0.10103,0,0,0.14086,-0.0014281,0,0.14086,-0.1598,-0.21492,-0.13752,85.494,-0.17075,0.069011,-1.1142e-05,0.78,0.6,0
0.1682,0.032393,0.20055,-0.21407,-0.15447,-0.13284,0.0030582,0,0,-0.95032,-0.25299,0,0.071561,0,0,0.14161,0.00065174,0,0.14161,-0.15431,-0.21422,-0.13284,87.07,-0.16712,0.073052,-1.4348e-05,0.8,0.6,0
0.1487,0.030933,0.17498,-0.21397,-0.14885,-0.12829,0.0017519,0,0,-1.0025,-0.24052,0,0.040995,0,0,0.14272,0.0028746,0,0.14274,-0.1488,-0.21402,-0.12829,88.46,-0.1637,0.077541,-1.8416e-05,0.82,0.6,0
0.1281,0.029669,0.14917,-0.21439,-0.1432,-0.12385,0.00046631,0,0,-1.0593,-0.2264,0,0.010912,0,0,0.1443,0.0052209,0,0.1444,-0.1432,-0.21439,-0.12385,89.625,-0.16048,0.082585,-2.3663e-05,0.84,0.6,0
0.10633,0.028625,0.12303,-0.21537,-0.13749,-0.11953,-0.00068542,0,0,-1.1214,-0.21015,0,-0.016039,0,0,0.14656,0.0075885,0,0.14676,-0.13748,-0.21538,-0.11953,-89.496,-0.15746,0.088251,-3.0433e-05,0.86,0.6,0
0.08325,0.027825,0.096408,-0.21689,-0.13168,-0.11528,-0.0015761,0,0,-1.1887,-0.1919,0,-0.036881,0,0,0.14966,0.0097037,0,0.14998,-0.13166,-0.21691,-0.11528,-88.941,-0.15462,0.094515,-3.9014e-05,0.88,0.6,0
0.058775,0.027274,0.069152,-0.21896,-0.12582,-0.11112,-0.0020787,0,0,-1.2618,-0.17203,0,-0.048642,0,0,0.15358,0.011016,0,0.15399,-0.12578,-0.21901,-0.11112,-88.722,-0.15197,0.10136,-4.9734e-05,0.9,0.6,0
0.032779,0.026952,0.04112,-0.22138,-0.11942,-0.10681,-0.002001,0,0,-1.3405,-0.14755,0,-0.046824,0,0,0.15799,0.010814,0,0.15838,-0.11938,-0.22142,-0.10681,-88.876,-0.14921,0.10887,-6.3309e-05,0.92,0.6,0
0.0051544,0.026899,0.012275,-0.21765,-0.17327,-0.1241,0.0022271,0,0,-0.7355,-0.11507,0,-0.0071933,0,0,0.1699,0.042684,0,0.17825,-0.16276,-0.22816,-0.1241,-37.075,-0.17167,0.097324,-2.6335e-05,0.94,0.6,0
0.0033589,0.027728,0.0086836,-0.22456,-0.27292,-0.15793,0.0089102,0,0,-0.086621,-0.14949,0,0.023167,0,0,0.19417,0.064346,0,0.20497,-0.22297,-0.27451,-0.15793,10.114,-0.21847,0.10119,1.0588e-05,0.96,0.6,0
0.0016896,0.028622,0.0045077,-0.22399,-0.29231,-0.1594,0.0071272,0,0,-0.083972,-0.17279,0,0.018531,0,0,0.21709,0.036374,0,0.21988,-0.22326,-0.29305,-0.1594,5.8926,-0.22524,0.11578,-6.1211e-06,0.98,0.6,0
0,0.02897,0,-0.21749,-0.29088,-0.15251,0.0066796,0,0,-0.084478,-0.17988,0,0.017367,0,0,0.22539,3.4694e-18,0,0.22487,-0.21689,-0.29148,-0.15251,5.1589,-0.22029,0.12046,-1.1383e-05,1,0.6,0
0,0.063855,1,-0.64363,-1.99,-1.7901,0.031379,0,0,1.4904,-0.25984,0,0.081586,0,0,0.37325,-2.0262e-15,0,0.37128,-0.64289,-1.9907,-1.7901,1.3344,-1.4746,1.2595,0.093906,0,0.62,0
0.029808,0.065487,0.99253,-0.62277,-1.9969,-1.7784,0.12218,0,0,1.5024,-0.28403,0,0.31767,0,0,0.36522,-0.0946,0,0.37487,-0.61199,-2.0077,-1.7784,5.0417,-1.4661,1.2964,0.1002,0.02,0.62,0
0.060095,0.071348,0.98539,-0.436,-2.0244,-1.7235,0.21698,0,0,1.6738,-0.39113,0,0.56414,0,0,0.28861,-0.21356,0,0.35515,-0.40689,-2.0535,-1.7235,7.6403,-1.3946,1.5089,0.1484,0.04,0.62,0
0.096758,0.074644,0.98099,-0.38093,-1.4868,-1.1053,0.20255,0,0,1.1427,-0.89265,0,1.5897,0,0,0.17775,-0.2325,0,0.30838,-0.3296,-1.5381,-1.1053,19.192,-0.99101,1.0642,0.09828,0.06,0.62,0
0.1058,0.11003,0.9566,-0.26804,-0.44024,-0.31878,0.080788,0,0,0.59355,-1.4212,0,1.8904,0,0,0.12488,-0.041353,0,0.13175,-0.23608,-0.47221,-0.31878,21.589,-0.34236,0.20753,-0.00022563,0.08,0.62,0
0.1205,0.12822,0.93603,-0.23974,-0.43141,-0.30535,0.048809,0,0,0.76766,-1.4749,0,1.1421,0,0,0.10989,-0.031904,0,0.11442,-0.22802,-0.44312,-0.30535,13.495,-0.3255,0.18872,-0.00016018,0.1,0.62,0
0.13651,0.13765,0.91704,-0.22918,-0.42723,-0.29882,0.031367,0,0,0.81471,-1.5024,0,0.73398,0,0,0.10369,-0.025815,0,0.10684,-0.22434,-0.43208,-0.29882,8.7882,-0.31841,0.1823,-0.00014527,0.12,0.62,0
0.15309,0.14239,0.89871,-0.22244,-0.42097,-0.29288,0.021963,0,0,0.82411,-1.4987,0,0.51394,0,0,0.10092,-0.022028,0,0.10329,-0.22004,-0.42337,-0.29288,6.2382,-0.3121,0.17843,-0.00013649,0.14,0.62,0
0.16947,0.14405,0.88071,-0.21882,-0.41435,-0.28781,0.017185,0,0,0.80714,-1.4805,0,0.40213,0,0,0.099405,-0.019815,0,0.10136,-0.21732,-0.41585,-0.28781,4.9849,-0.30699,0.17432,-0.00012985,0.16,0.62,0
0.18537,0.14377,0.86292,-0.21621,-0.40739,-0.28296,0.015511,0,0,0.78093,-1.4558,0,0.36297,0,0,0.098405,-0.018646,0,0.10016,-0.21496,-0.40864,-0.28296,4.6087,-0.30219,0.17019,-0.00012378,0.18,0.62,0
0.20071,0.14219,0.84529,-0.21365,-0.40029,-0.2781,0.015593,0,0,0.75409,-1.4296,0,0.36488,0,0,0.097563,-0.018109,0,0.09923,-0.21235,-0.40158,-0.2781,4.7432,-0.29735,0.16639,-0.0001182,0.2,0.62,0
0.21554,0.13963,0.8278,-0.21064,-0.39316,-0.27312,0.016273,0,0,0.73102,-1.4045,0,0.38079,0,0,0.096693,-0.017842,0,0.098326,-0.2092,-0.3946,-0.27312,5.055,-0.29231,0.16312,-0.00011311,0.22,0.62,0
0.22995,0.1361,0.81048,-0.20708,-0.38605,-0.26799,0.0164,0,0,0.71264,-1.3813,0,0.38375,0,0,0.095707,-0.017482,0,0.097292,-0.20559,-0.38754,-0.26799,5.1927,-0.28704,0.16014,-0.00010812,0.24,0.62,0
0.24404,0.1313,0.79334,-0.20274,-0.3784,-0.26249,0.014465,0,0,0.69911,-1.3562,0,0.33848,0,0,0.09481,-0.016405,0,0.096219,-0.20156,-0.37959,-0.26249,4.676,-0.28121,0.15671,-0.00010171,0.26,0.62,0
0.25781,0.12451,0.77641,-0.20042,-0.37032,-0.25749,0.0074849,0,0,0.66774,-1.3201,0,0.17515,0,0,0.093557,-0.014448,0,0.094657,-0.20009,-0.37065,-0.25749,2.5176,-0.27607,0.15032,-9.2608e-05,0.28,0.62,0
0.27096,0.11457,0.75962,-0.19901,-0.36252,-0.25286,-0.0022566,0,0,0.63011,-1.2831,0,-0.052804,0,0,0.093943,-0.010647,0,0.094509,-0.19898,-0.36256,-0.25286,-0.79048,-0.27146,0.14439,-8.517e-05,0.3,0.62,0
0.28301,0.098537,0.74259,-0.213,-0.35541,-0.25303,-0.023515,0,0,0.4684,-1.1978,0,-0.55025,0,0,0.099655,-0.0030567,0,0.099624,-0.20922,-0.35919,-0.25303,-9.1377,-0.27381,0.13357,-7.9465e-05,0.32,0.62,0
0.28969,0.073059,0.72374,-0.27528,-1.1257,-0.82237,-0.08504,0,0,0.85969,-0.70976,0,-0.64052,0,0,0.12936,0.034899,0,0.14604,-0.26233,-1.1386,-0.82237,-12.816,-0.74111,0.77136,0.039539,0.34,0.62,0
0.3174,0.059707,0.72066,-0.27914,-1.5661,-1.2742,-0.068579,0,0,1.2936,-0.37939,0,-0.1783,0,0,0.19215,-0.066156,0,0.19627,-0.2755,-1.5697,-1.2742,-3.0417,-1.0398,1.1747,0.065827,0.36,0.62,0
0.34144,0.04617,0.71606,-0.35861,-1.5228,-1.2805,-0.012115,0,0,1.1984,-0.31498,0,-0.0315,0,0,0.22487,-0.14422,0,0.26587,-0.35848,-1.5229,-1.2805,-0.5962,-1.0539,1.0641,0.051222,0.38,0.62,0
0.36534,0.034687,0.71167,-0.33424,-1.4613,-1.2503,0.02895,0,0,1.1909,-0.27424,0,0.075271,0,0,0.20508,-0.19028,0,0.2798,-0.33349,-1.462,-1.2503,1.4705,-1.0153,1.039,0.049637,0.4,0.62,0
0.38907,0.023825,0.70785,-0.27976,-0.81012,-0.72021,0.043286,0,0,0.40577,-0.21037,0,0.58315,0,0,0.18101,-0.11632,0,0.22813,-0.25254,-0.83733,-0.72021,25.813,-0.60336,0.54473,0.023846,0.42,0.62,0
0.38157,0.031992,0.67702,-0.26246,-0.26248,-0.23271,0.043898,0,0,-0.34808,-0.34837,0,1.0272,0,0,0.16885,-0.027894,0,0.17115,-0.21857,-0.30637,-0.23271,44.992,-0.25255,0.081651,-2.5157e-05,0.44,0.62,0
0.37515,0.038916,0.64707,-0.25413,-0.26448,-0.22748,0.039513,0,0,-0.3118,-0.43288,0,0.9246,0,0,0.16392,-0.030013,0,0.16667,-0.21945,-0.29915,-0.22748,41.27,-0.24869,0.076006,-2.1705e-05,0.46,0.62,0
0.3691,0.044021,0.61801,-0.24792,-0.26203,-0.22165,0.034171,0,0,-0.30733,-0.47243,0,0.79959,0,0,0.15914,-0.030151,0,0.16198,-0.22009,-0.28987,-0.22165,39.167,-0.24387,0.069012,-1.6852e-05,0.48,0.62,0
0.36286,0.047323,0.58978,-0.24335,-0.25685,-0.21559,0.029121,0,0,-0.32474,-0.48277,0,0.68142,0,0,0.15492,-0.028943,0,0.15761,-0.22021,-0.27999,-0.21559,38.472,-0.2386,0.062223,-1.2144e-05,0.5,0.62,0
0.35611,0.049089,0.56224,-0.23983,-0.25022,-0.20949,0.024758,0,0,-0.35504,-0.47658,0,0.57934,0,0,0.15146,-0.026974,0,0.15385,-0.21973,-0.27032,-0.20949,39.076,-0.23318,0.056417,-8.2074e-06,0.52,0.62,0
0.34866,0.049637,0.53525,-0.23696,-0.24283,-0.20341,0.021104,0,0,-0.39251,-0.46126,0,0.49384,0,0,0.14873,-0.024674,0,0.15077,-0.21859,-0.2612,-0.20341,41.037,-0.22773,0.051897,-5.1625e-06,0.54,0.62,0
0.34041,0.049252,0.5087,-0.2345,-0.23509,-0.1974,0.018081,0,0,-0.43409,-0.44096,0,0.42309,0,0,0.14664,-0.022306,0,0.14833,-0.21671,-0.25288,-0.1974,44.535,-0.22233,0.048779,-2.9667e-06,0.56,0.62,0
0.33129,0.048179,0.48246,-0.23233,-0.22722,-0.19147,0.015602,0,0,-0.47807,-0.41823,0,0.36509,0,0,0.14506,-0.020009,0,0.14644,-0.21397,-0.24559,-0.19147,49.654,-0.21701,0.047086,-1.5394e-06,0.58,0.62,0
0.32128,0.046619,0.45647,-0.23038,-0.2194,-0.18565,0.01358,0,0,-0.52332,-0.39482,0,0.31777,0,0,0.14388,-0.017843,0,0.14498,-0.21024,-0.23954,-0.18565,56.008,-0.21181,0.046725,-7.8907e-07,0.6,0.62,0
0.31036,0.044738,0.43066,-0.22859,-0.21173,-0.17995,0.011926,0,0,-0.56906,-0.3719,0,0.27907,0,0,0.143,-0.015821,0,0.14387,-0.20556,-0.23476,-0.17995,62.62,-0.20675,0.047504,-6.2373e-07,0.62,0.62,0
0.29852,0.042669,0.40499,-0.2269,-0.20429,-0.17436,0.010556,0,0,-0.6148,-0.35021,0,0.24701,0,0,0.14236,-0.013929,0,0.14304,-0.20013,-0.23107,-0.17436,68.484,-0.20185,0.049179,-9.5913e-07,0.64,0.62,0
0.28577,0.040514,0.37941,-0.22532,-0.1971,-0.16888,0.0093904,0,0,-0.66031,-0.33014,0,0.21973,0,0,0.14192,-0.012146,0,0.14244,-0.19426,-0.22816,-0.16888,73.178,-0.1971,0.051511,-1.7257e-06,0.66,0.62,0
0.27211,0.038351,0.3539,-0.22382,-0.19018,-0.16352,0.0083623,0,0,-0.70554,-0.31184,0,0.19568,0,0,0.14165,-0.010441,0,0.14204,-0.18821,-0.22579,-0.16352,76.786,-0.19251,0.054307,-2.873e-06,0.68,0.62,0
0.25755,0.03624,0.32842,-0.22243,-0.18351,-0.15827,0.0074161,0,0,-0.7506,-0.29529,0,0.17354,0,0,0.14154,-0.0087832,0,0.14181,-0.18215,-0.22379,-0.15827,79.568,-0.18807,0.057433,-4.3725e-06,0.7,0.62,0
0.24208,0.034223,0.30295,-0.22114,-0.17709,-0.15313,0.0065084,0,0,-0.79575,-0.28033,0,0.1523,0,0,0.14158,-0.0071436,0,0.14176,-0.17615,-0.22209,-0.15313,81.769,-0.18379,0.060806,-6.219e-06,0.72,0.62,0
0.22572,0.032328,0.27745,-0.22,-0.17089,-0.1481,0.0056079,0,0,-0.84132,-0.26671,0,0.13122,0,0,0.14179,-0.0054934,0,0.14189,-0.17026,-0.22064,-0.1481,83.568,-0.17966,0.064386,-8.434e-06,0.74,0.62,0
0.20843,0.03058,0.2519,-0.21904,-0.16489,-0.14317,0.0046956,0,0,-0.88775,-0.25411,0,0.10988,0,0,0.14217,-0.0038072,0,0.14222,-0.16448,-0.21945,-0.14317,85.081,-0.1757,0.068169,-1.1069e-05,0.76,0.62,0
0.19021,0.028995,0.22627,-0.21831,-0.15904,-0.13834,0.0037669,0,0,-0.93554,-0.24214,0,0.088145,0,0,0.14276,-0.0020654,0,0.14277,-0.1588,-0.21854,-0.13834,86.378,-0.1719,0.072179,-1.421e-05,0.78,0.62,0
0.17101,0.027588,0.20051,-0.21784,-0.15332,-0.13363,0.0028345,0,0,-0.98529,-0.2304,0,0.066328,0,0,0.1436,-0.00026013,0,0.1436,-0.15319,-0.21796,-0.13363,87.489,-0.16826,0.076454,-1.7983e-05,0.8,0.62,0
0.1508,0.026376,0.17457,-0.21768,-0.14768,-0.12901,0.0019324,0,0,-1.0375,-0.2185,0,0.045217,0,0,0.14477,0.0015946,0,0.14477,-0.14763,-0.21774,-0.12901,88.42,-0.16479,0.081041,-2.2546e-05,0.82,0.62,0
0.12951,0.02538,0.14839,-0.21787,-0.1421,-0.12448,0.0011161,0,0,-1.0927,-0.20617,0,0.026116,0,0,0.14633,0.0034437,0,0.14637,-0.14208,-0.21789,-0.12448,89.156,-0.16148,0.085968,-2.8074e-05,0.84,0.62,0
0.10709,0.024624,0.12189,-0.21839,-0.13656,-0.12003,0.00045421,0,0,-1.1508,-0.19345,0,0.010629,0,0,0.14836,0.0051607,0,0.14846,-0.13656,-0.21839,-0.12003,89.682,-0.15833,0.091228,-3.4718e-05,0.86,0.62,0
0.083475,0.024126,0.094982,-0.21921,-0.13107,-0.11564,1.5469e-05,0,0,-1.2118,-0.18056,0,0.00036197,0,0,0.15089,0.0065149,0,0.15104,-0.13107,-0.21921,-0.11564,89.99,-0.15531,0.096786,-4.2602e-05,0.88,0.62,0
0.058614,0.023897,0.067573,-0.22027,-0.12555,-0.11125,-0.00012796,0,0,-1.2755,-0.16726,0,-0.0029942,0,0,0.1538,0.007176,0,0.15398,-0.12555,-0.22027,-0.11125,-89.923,-0.15236,0.10262,-5.1886e-05,0.9,0.62,0
0.032456,0.023946,0.039613,-0.22139,-0.1198,-0.10676,0.00018876,0,0,-1.3412,-0.15258,0,0.0044171,0,0,0.15682,0.006792,0,0.15698,-0.1198,-0.22139,-0.10676,89.894,-0.14932,0.1087,-6.2775e-05,0.92,0.62,0
0.0049666,0.024336,0.011117,-0.21886,-0.1858,-0.12757,0.0031904,0,0,-0.72955,-0.13625,0,0.015644,0,0,0.16419,0.025749,0,0.1675,-0.16554,-0.23911,-0.12757,48.795,-0.17741,0.10214,-2.751e-05,0.94,0.62,0
0.0032742,0.02469,0.0077159,-0.2199,-0.27406,-0.1559,0.0082504,0,0,-0.083192,-0.15361,0,0.021451,0,0,0.17896,0.038719,0,0.18327,-0.21867,-0.27529,-0.1559,8.4712,-0.21662,0.10344,5.0565e-06,0.96,0.62,0
0.0016389,0.025173,0.003959,-0.21824,-0.28615,-0.15528,0.0067979,0,0,-0.081856,-0.17014,0,0.017675,0,0,0.1929,0.021955,0,0.19405,-0.21757,-0.28682,-0.15528,5.6608,-0.21989,0.11398,-6.9595e-06,0.98,0.62,0
0,0.025377,0,-0.21197,-0.28448,-0.14894,0.0039243,0,0,-0.081947,-0.17621,0,0.010203,0,0,0.19795,6.9389e-18,0,0.19773,-0.21176,-0.28469,-0.14894,3.089,-0.21513,0.11768,-1.0755e-05,1,0.62,0
0,0.057289,1,-0.5066,-2.0756,-1.7747,0.021342,0,0,1.6485,-0.39122,0,0.055489,0,0,0.28537,4.9613e-16,0,0.28372,-0.50631,-2.0759,-1.7747,0.77916,-1.4523,1.4427,0.13186,0,0.64,0
0.03297,0.058398,0.99429,-0.4552,-2.0819,-1.7554,0.084467,0,0,1.6903,-0.42446,0,0.21961,0,0,0.26712,-0.075006,0,0.27595,-0.45083,-2.0863,-1.7554,2.9644,-1.4309,1.4977,0.14456,0.02,0.64,0
0.067612,0.060409,0.98932,-0.40841,-2.2038,-1.773,0.12967,0,0,1.7739,-0.56008,0,0.33714,0,0,0.21415,-0.15433,0,0.2657,-0.39909,-2.2131,-1.773,4.1096,-1.4617,1.6389,0.17231,0.04,0.64,0
0.10393,0.0604,0.98573,-0.32199,-1.319,-1.0399,0.088922,0,0,1.1367,-0.65301,0,0.91294,0,0,0.15418,-0.10411,0,0.19603,-0.30195,-1.339,-1.0399,15.209,-0.89363,0.92792,0.092183,0.06,0.64,0
0.11308,0.085229,0.96252,-0.25469,-0.40192,-0.30393,0.055261,0,0,0.57612,-1.1465,0,1.2931,0,0,0.12365,-0.026426,0,0.12659,-0.23625,-0.42035,-0.30393,18.447,-0.32018,0.16129,-9.4725e-05,0.08,0.64,0
0.12697,0.10039,0.94121,-0.23599,-0.41352,-0.29943,0.036379,0,0,0.74225,-1.3348,0,0.85128,0,0,0.11418,-0.024864,0,0.11691,-0.22883,-0.42069,-0.29943,11.143,-0.31632,0.16807,-0.00010689,0.1,0.64,0
0.14277,0.10873,0.92142,-0.22579,-0.41602,-0.29492,0.024486,0,0,0.80885,-1.4168,0,0.57296,0,0,0.10746,-0.022038,0,0.10971,-0.22269,-0.41912,-0.29492,7.2182,-0.31224,0.17209,-0.00011495,0.12,0.64,0
0.15933,0.11292,0.90253,-0.21941,-0.41538,-0.29072,0.017732,0,0,0.83432,-1.4585,0,0.41492,0,0,0.10341,-0.019819,0,0.1053,-0.21782,-0.41697,-0.29072,5.1287,-0.3085,0.17452,-0.00012129,0.14,0.64,0
0.17614,0.11455,0.88419,-0.21462,-0.41211,-0.28626,0.014311,0,0,0.83819,-1.4724,0,0.33488,0,0,0.10089,-0.018386,0,0.10255,-0.21359,-0.41314,-0.28626,4.1232,-0.30433,0.17493,-0.0001237,0.16,0.64,0
0.19285,0.11451,0.86621,-0.21046,-0.40677,-0.28141,0.013971,0,0,0.83018,-1.4667,0,0.32692,0,0,0.099433,-0.017814,0,0.10102,-0.20947,-0.40776,-0.28141,4.0504,-0.29955,0.17386,-0.00012255,0.18,0.64,0
0.20924,0.11333,0.84847,-0.20723,-0.39968,-0.27635,0.014766,0,0,0.80866,-1.4429,0,0.34552,0,0,0.097992,-0.017717,0,0.099581,-0.2061,-0.4008,-0.27635,4.3621,-0.29442,0.17078,-0.00011772,0.2,0.64,0
0.2252,0.11126,0.83093,-0.20434,-0.39262,-0.27141,0.015301,0,0,0.78478,-1.4182,0,0.35804,0,0,0.097077,-0.017393,0,0.098623,-0.2031,-0.39386,-0.27141,4.6157,-0.28946,0.1674,-0.0001128,0.22,0.64,0
0.24064,0.10832,0.81353,-0.2029,-0.38602,-0.26707,0.013449,0,0,0.75076,-1.3917,0,0.31471,0,0,0.096309,-0.016749,0,0.097754,-0.20192,-0.387,-0.26707,4.1782,-0.28533,0.16261,-0.00010738,0.24,0.64,0
0.25544,0.10425,0.79622,-0.19998,-0.37651,-0.26142,0.011538,0,0,0.7188,-1.3466,0,0.26998,0,0,0.096053,-0.015869,0,0.097353,-0.19923,-0.37726,-0.26142,3.7236,-0.2793,0.1565,-9.7278e-05,0.26,0.64,0
0.26939,0.09851,0.77895,-0.19877,-0.36505,-0.2557,0.0073567,0,0,0.666,-1.2794,0,0.17215,0,0,0.096376,-0.014318,0,0.09743,-0.19845,-0.36537,-0.2557,2.5284,-0.27317,0.14692,-8.3484e-05,0.28,0.64,0
0.28208,0.090074,0.76153,-0.20113,-0.35087,-0.25022,-0.0006173,0,0,0.5743,-1.1777,0,-0.014445,0,0,0.098221,-0.011719,0,0.098915,-0.20113,-0.35087,-0.25022,-0.23619,-0.26741,0.13223,-6.5941e-05,0.3,0.64,0
0.29236,0.077614,0.74359,-0.2088,-0.32751,-0.24352,-0.012604,0,0,0.40613,-0.98276,0,-0.29494,0,0,0.10208,-0.0085708,0,0.10248,-0.20748,-0.32884,-0.24352,-5.9944,-0.25994,0.10795,-4.117e-05,0.32,0.64,0
0.29833,0.060385,0.72478,-0.26147,-1.0726,-0.80288,-0.024679,0,0,0.83641,-0.62112,0,-0.26142,0,0,0.11829,-0.030397,0,0.12329,-0.25898,-1.0751,-0.80288,-7.0829,-0.71232,0.72237,0.038749,0.34,0.64,0
0.32582,0.050172,0.72214,-0.27631,-1.674,-1.3072,-0.040215,0,0,1.3402,-0.47677,0,-0.10456,0,0,0.14996,-0.073827,0,0.16645,-0.27516,-1.6751,-1.3072,-1.6467,-1.0858,1.2571,0.073332,0.36,0.64,0
0.35193,0.039368,0.71878,-0.30425,-1.55,-1.2751,-0.010884,0,0,1.262,-0.35742,0,-0.028298,0,0,0.17696,-0.13821,0,0.22382,-0.30415,-1.5501,-1.2751,-0.50053,-1.0431,1.1337,0.060253,0.38,0.64,0
0.37674,0.029022,0.71515,-0.30966,-1.4774,-1.2513,0.010233,0,0,1.2241,-0.29396,0,0.026605,0,0,0.17804,-0.16903,0,0.24535,-0.30957,-1.4775,-1.2513,0.50203,-1.0128,1.0728,0.054038,0.4,0.64,0
0.4009,0.019559,0.71166,-0.27468,-0.81928,-0.72356,0.031234,0,0,0.41969,-0.22399,0,0.45328,0,0,0.17083,-0.10124,0,0.21033,-0.25312,-0.84085,-0.72356,25.645,-0.60584,0.54757,0.025198,0.42,0.64,0
0.39352,0.025452,0.68158,-0.26267,-0.25934,-0.23234,0.035657,0,0,-0.35488,-0.31602,0,0.83437,0,0,0.16572,-0.023829,0,0.16742,-0.22531,-0.2967,-0.23234,46.333,-0.25145,0.068151,-1.5676e-05,0.44,0.64,0
0.3867,0.03087,0.652,-0.25598,-0.25968,-0.22714,0.033259,0,0,-0.3374,-0.38066,0,0.77827,0,0,0.16268,-0.025673,0,0.1647,-0.22452,-0.29114,-0.22714,43.409,-0.2476,0.065349,-1.4255e-05,0.46,0.64,0
0.38003,0.035189,0.62302,-0.25052,-0.25715,-0.22153,0.029515,0,0,-0.33923,-0.41684,0,0.69066,0,0,0.15934,-0.026084,0,0.16147,-0.22414,-0.28354,-0.22153,41.794,-0.24307,0.060749,-1.1443e-05,0.48,0.64,0
0.37313,0.038225,0.59464,-0.2462,-0.25251,-0.21568,0.025528,0,0,-0.35701,-0.43086,0,0.59736,0,0,0.1561,-0.025439,0,0.15817,-0.22363,-0.27508,-0.21568,41.477,-0.23813,0.055844,-8.3371e-06,0.5,0.64,0
0.36575,0.040051,0.56682,-0.24272,-0.24651,-0.20975,0.021841,0,0,-0.38581,-0.43008,0,0.51109,0,0,0.15321,-0.024109,0,0.1551,-0.22269,-0.26654,-0.20975,42.525,-0.233,0.051551,-5.5691e-06,0.52,0.64,0
0.3577,0.040846,0.53948,-0.23984,-0.23972,-0.20381,0.01864,0,0,-0.42152,-0.42018,0,0.43617,0,0,0.15075,-0.022401,0,0.15241,-0.22114,-0.25842,-0.20381,45.088,-0.22779,0.048334,-3.3866e-06,0.54,0.64,0
0.34889,0.040813,0.51255,-0.23735,-0.23252,-0.19791,0.015941,0,0,-0.46145,-0.4049,0,0.37302,0,0,0.14873,-0.020532,0,0.15014,-0.21881,-0.25106,-0.19791,49.311,-0.22259,0.046375,-1.8424e-06,0.56,0.64,0
0.33924,0.040147,0.48594,-0.23515,-0.22512,-0.19207,0.013701,0,0,-0.50395,-0.38664,0,0.3206,0,0,0.1471,-0.01864,0,0.14828,-0.21554,-0.24472,-0.19207,55.049,-0.21745,0.045684,-9.1308e-07,0.58,0.64,0
0.32873,0.039015,0.45959,-0.23315,-0.21769,-0.18632,0.011855,0,0,-0.54796,-0.36703,0,0.27741,0,0,0.14583,-0.016797,0,0.14679,-0.21127,-0.23958,-0.18632,61.557,-0.21239,0.046152,-5.5023e-07,0.6,0.64,0
0.31732,0.03756,0.43345,-0.23133,-0.21033,-0.18066,0.010334,0,0,-0.59282,-0.34718,0,0.24183,0,0,0.14484,-0.015036,0,0.14562,-0.2061,-0.23556,-0.18066,67.724,-0.20744,0.047589,-6.9997e-07,0.62,0.64,0
0.30502,0.0359,0.40745,-0.22964,-0.20312,-0.1751,0.0090709,0,0,-0.63809,-0.32783,0,0.21226,0,0,0.1441,-0.013363,0,0.14472,-0.20031,-0.23244,-0.1751,72.811,-0.20262,0.049781,-1.3118e-06,0.64,0.64,0
0.2918,0.034129,0.38157,-0.22806,-0.19609,-0.16964,0.0080013,0,0,-0.68353,-0.30945,0,0.18723,0,0,0.14358,-0.011768,0,0.14406,-0.1942,-0.22995,-0.16964,76.706,-0.19793,0.052531,-2.3441e-06,0.66,0.64,0
0.27768,0.032322,0.35576,-0.22661,-0.18927,-0.16429,0.0070706,0,0,-0.72906,-0.29227,0,0.16545,0,0,0.14326,-0.010233,0,0.14362,-0.18798,-0.2279,-0.16429,79.627,-0.19339,0.05568,-3.7678e-06,0.68,0.64,0
0.26264,0.030536,0.33,-0.22526,-0.18267,-0.15905,0.0062331,0,0,-0.77474,-0.27638,0,0.14586,0,0,0.14311,-0.0087384,0,0.14338,-0.18177,-0.22616,-0.15905,81.843,-0.18899,0.059119,-5.5693e-06,0.7,0.64,0
0.24669,0.028816,0.30424,-0.22405,-0.17627,-0.1539,0.0054536,0,0,-0.82072,-0.26176,0,0.12761,0,0,0.14315,-0.0072625,0,0.14333,-0.17566,-0.22466,-0.1539,83.57,-0.18474,0.062777,-7.7527e-06,0.72,0.64,0
0.22981,0.027194,0.27846,-0.22298,-0.17008,-0.14886,0.0047077,0,0,-0.86722,-0.24828,0,0.11016,0,0,0.14337,-0.0057855,0,0.14348,-0.16966,-0.22339,-0.14886,84.954,-0.18064,0.066618,-1.0341e-05,0.74,0.64,0
0.212,0.025699,0.25263,-0.22208,-0.16406,-0.14391,0.0039828,0,0,-0.91454,-0.23576,0,0.093198,0,0,0.14378,-0.0042917,0,0.14384,-0.16379,-0.22235,-0.14391,86.091,-0.17668,0.070629,-1.3379e-05,0.76,0.64,0
0.19323,0.024353,0.2267,-0.22137,-0.15821,-0.13906,0.0032789,0,0,-0.96299,-0.22402,0,0.076726,0,0,0.14441,-0.0027728,0,0.14443,-0.15804,-0.22154,-0.13906,87.036,-0.17288,0.074815,-1.6932e-05,0.78,0.64,0
0.17348,0.023177,0.20064,-0.22088,-0.1525,-0.13431,0.0026093,0,0,-1.0129,-0.21285,0,0.061056,0,0,0.14527,-0.0012338,0,0.14528,-0.1524,-0.22098,-0.13431,87.818,-0.16923,0.079189,-2.1085e-05,0.8,0.64,0
0.15271,0.022193,0.1744,-0.22061,-0.14691,-0.12964,0.0020001,0,0,-1.0644,-0.20214,0,0.046803,0,0,0.14642,0.00029812,0,0.14642,-0.14686,-0.22067,-0.12964,88.447,-0.16572,0.083758,-2.593e-05,0.82,0.64,0
0.1309,0.021423,0.14793,-0.22057,-0.14144,-0.12504,0.0014867,0,0,-1.1177,-0.19186,0,0.03479,0,0,0.14787,0.0017621,0,0.14788,-0.14141,-0.2206,-0.12504,88.924,-0.16235,0.088519,-3.1555e-05,0.84,0.64,0
0.108,0.020887,0.12117,-0.22074,-0.13608,-0.12051,0.0011066,0,0,-1.1727,-0.18213,0,0.025895,0,0,0.14963,0.0030499,0,0.14967,-0.13606,-0.22076,-0.12051,89.251,-0.15911,0.093448,-3.8028e-05,0.86,0.64,0
0.083991,0.020603,0.094063,-0.22108,-0.1308,-0.11602,0.00089552,0,0,-1.2292,-0.17303,0,0.020955,0,0,0.15167,0.0040014,0,0.15173,-0.13079,-0.22109,-0.11602,89.432,-0.15597,0.098515,-4.5402e-05,0.88,0.64,0
0.058835,0.020583,0.066569,-0.22151,-0.12558,-0.11152,0.00090288,0,0,-1.2869,-0.16443,0,0.021127,0,0,0.15385,0.0044235,0,0.15392,-0.12557,-0.22152,-0.11152,89.461,-0.15287,0.10369,-5.3732e-05,0.9,0.64,0
0.032517,0.020848,0.038675,-0.22192,-0.1203,-0.10696,0.0012163,0,0,-1.345,-0.15606,0,0.028462,0,0,0.15597,0.0041426,0,0.15602,-0.12029,-0.22193,-0.10696,89.314,-0.14973,0.10892,-6.3032e-05,0.92,0.64,0
0.0050363,0.021449,0.010421,-0.22056,-0.19345,-0.12999,0.0030148,0,0,-0.72842,-0.14848,0,0.023449,0,0,0.16063,0.015391,0,0.16187,-0.16798,-0.24603,-0.12999,47.131,-0.18133,0.10555,-2.9666e-05,0.94,0.64,0
0.00338,0.021584,0.0071348,-0.21988,-0.27603,-0.15591,0.0058386,0,0,-0.083166,-0.15616,0,0.01518,0,0,0.16978,0.023103,0,0.17141,-0.21928,-0.27663,-0.15591,5.8743,-0.21727,0.10459,5.0717e-06,0.96,0.64,0
0.0017096,0.021817,0.0036296,-0.21838,-0.28079,-0.15338,0.0047376,0,0,-0.084499,-0.16563,0,0.012318,0,0,0.17837,0.013095,0,0.17882,-0.21802,-0.28114,-0.15338,4.3166,-0.21751,0.11065,1.432e-06,0.98,0.64,0
0,0.021922,0,-0.21287,-0.27751,-0.14711,0.0020098,0,0,-0.085482,-0.16951,0,0.0052255,0,0,0.18148,-4.3368e-19,0,0.1814,-0.2128,-0.27757,-0.14711,1.7792,-0.21249,0.11298,9.1417e-07,1,0.64,0
0,0.048206,1,-0.39949,-2.1465,-1.7638,0.0058126,0,0,1.7736,-0.49747,0,0.015113,0,0,0.22324,7.5981e-16,0,0.22229,-0.39947,-2.1465,-1.7638,0.19064,-1.4366,1.5906,0.16703,0,0.66,0
0.035472,0.048508,0.99553,-0.38247,-2.1624,-1.759,0.043247,0,0,1.7895,-0.52442,0,0.11244,0,0,0.21089,-0.049106,0,0.21613,-0.38142,-2.1634,-1.759,1.391,-1.4346,1.6182,0.17264,0.02,0.66,0
0.071579,0.048945,0.99156,-0.35513,-2.2018,-1.7587,0.058108,0,0,1.8246,-0.57615,0,0.15108,0,0,0.17621,-0.088443,0,0.19817,-0.3533,-2.2037,-1.7587,1.8005,-1.4385,1.6729,0.1843,0.04,0.66,0
0.10845,0.048524,0.98849,-0.28526,-1.2636,-1.0138,0.049203,0,0,1.1489,-0.58446,0,0.55162,0,0,0.13907,-0.060019,0,0.15716,-0.27644,-1.2724,-1.0138,11.521,-0.85422,0.89802,0.095092,0.06,0.66,0
0.11754,0.06417,0.96612,-0.24813,-0.38211,-0.29642,0.035777,0,0,0.56501,-1.0026,0,0.83717,0,0,0.12084,-0.01626,0,0.12198,-0.23917,-0.39107,-0.29642,14.052,-0.30889,0.13287,-4.9526e-05,0.08,0.66,0
0.13106,0.074829,0.94498,-0.23221,-0.40095,-0.29495,0.025109,0,0,0.73403,-1.2403,0,0.58755,0,0,0.11428,-0.017701,0,0.11569,-0.22855,-0.40461,-0.29495,8.2865,-0.30937,0.154,-7.697e-05,0.1,0.66,0
0.1469,0.080981,0.92498,-0.22196,-0.40894,-0.29204,0.017146,0,0,0.82001,-1.3677,0,0.40123,0,0,0.10873,-0.017411,0,0.11014,-0.2204,-0.4105,-0.29204,5.1964,-0.30765,0.16629,-9.7083e-05,0.12,0.66,0
0.16386,0.084044,0.90584,-0.21518,-0.41146,-0.28864,0.012604,0,0,0.85953,-1.437,0,0.29493,0,0,0.10457,-0.016759,0,0.10592,-0.21437,-0.41227,-0.28864,3.659,-0.30509,0.17315,-0.00011091,0.14,0.66,0
0.18128,0.085152,0.88733,-0.2102,-0.41057,-0.28482,0.01047,0,0,0.87305,-1.4712,0,0.24501,0,0,0.10163,-0.016298,0,0.10293,-0.20966,-0.41111,-0.28482,2.9833,-0.30186,0.17633,-0.00011903,0.16,0.66,0
0.19878,0.085025,0.86926,-0.20614,-0.40734,-0.28063,0.0096153,0,0,0.87154,-1.4826,0,0.225,0,0,0.099854,-0.015855,0,0.10111,-0.20568,-0.4078,-0.28063,2.7298,-0.29804,0.17698,-0.00012236,0.18,0.66,0
0.21607,0.084081,0.85149,-0.20356,-0.40306,-0.2766,0.0083382,0,0,0.85446,-1.4796,0,0.19511,0,0,0.098162,-0.015613,0,0.099396,-0.20322,-0.4034,-0.2766,2.3893,-0.2944,0.17541,-0.00012274,0.2,0.66,0
0.23296,0.082523,0.83392,-0.20083,-0.39591,-0.27168,0.0086943,0,0,0.82895,-1.4535,0,0.20345,0,0,0.097262,-0.015929,0,0.098557,-0.20044,-0.39629,-0.27168,2.5468,-0.28947,0.1717,-0.00011733,0.22,0.66,0
0.24923,0.080366,0.81647,-0.19934,-0.38649,-0.26647,0.0098652,0,0,0.78537,-1.4042,0,0.23084,0,0,0.096804,-0.016199,0,0.09815,-0.19882,-0.38701,-0.26647,3.0091,-0.2841,0.16511,-0.00010728,0.24,0.66,0
0.26465,0.077433,0.79906,-0.19695,-0.37474,-0.26029,0.010031,0,0,0.74106,-1.339,0,0.23472,0,0,0.096957,-0.015901,0,0.098252,-0.19639,-0.3753,-0.26029,3.2191,-0.27733,0.15704,-9.367e-05,0.26,0.66,0
0.27887,0.073328,0.78157,-0.19742,-0.36079,-0.25431,0.0075392,0,0,0.66554,-1.2459,0,0.17642,0,0,0.097835,-0.015133,0,0.099,-0.19707,-0.36114,-0.25431,2.6366,-0.27084,0.14423,-7.6367e-05,0.28,0.66,0
0.29128,0.06746,0.76384,-0.20064,-0.34217,-0.24771,0.0028703,0,0,0.55075,-1.1051,0,0.067164,0,0,0.09969,-0.014042,0,0.10068,-0.20058,-0.34223,-0.24771,1.1614,-0.26351,0.12493,-5.4243e-05,0.3,0.66,0
0.3009,0.059227,0.74568,-0.20759,-0.31591,-0.2399,-0.00295,0,0,0.37805,-0.88926,0,-0.06903,0,0,0.1025,-0.013359,0,0.10338,-0.20751,-0.31599,-0.2399,-1.5589,-0.25447,0.096451,-2.9172e-05,0.32,0.66,0
0.3064,0.048717,0.72694,-0.23893,-1.0295,-0.78438,-0.011814,0,0,0.8312,-0.57564,0,-0.090935,0,0,0.11227,-0.077647,0,0.1454,-0.2386,-1.0298,-0.78438,-2.5952,-0.68427,0.7044,0.040409,0.34,0.66,0
0.33415,0.040261,0.72453,-0.26857,-1.695,-1.3136,-0.018325,0,0,1.3585,-0.49585,0,-0.047646,0,0,0.13285,-0.1462,0,0.19774,-0.26833,-1.6953,-1.3136,-0.7359,-1.0924,1.2795,0.076197,0.36,0.66,0
0.36074,0.031526,0.72162,-0.29609,-1.5986,-1.29,-0.008675,0,0,1.2921,-0.40115,0,-0.022555,0,0,0.15489,-0.1515,0,0.21674,-0.29603,-1.5987,-1.29,-0.38158,-1.0616,1.179,0.065129,0.38,0.66,0
0.38621,0.022928,0.71843,-0.29257,-1.4953,-1.2548,0.0092478,0,0,1.2509,-0.31263,0,0.024044,0,0,0.16201,-0.16502,0,0.2312,-0.2925,-1.4953,-1.2548,0.44053,-1.0142,1.1024,0.05792,0.4,0.66,0
0.41078,0.014865,0.71514,-0.27146,-0.83291,-0.72861,0.024992,0,0,0.43555,-0.24406,0,0.36795,0,0,0.16423,-0.096006,0,0.20184,-0.25409,-0.85028,-0.72861,25.383,-0.61099,0.5546,0.026697,0.42,0.66,0
0.40363,0.019351,0.6856,-0.26277,-0.25785,-0.23237,0.029326,0,0,-0.35576,-0.29821,0,0.68623,0,0,0.16342,-0.021548,0,0.16484,-0.23088,-0.28974,-0.23237,47.397,-0.251,0.058131,-1.0067e-05,0.44,0.66,0
0.39654,0.02369,0.65631,-0.25761,-0.25642,-0.22713,0.027885,0,0,-0.35662,-0.34266,0,0.65251,0,0,0.16167,-0.022792,0,0.16327,-0.22913,-0.28491,-0.22713,45.613,-0.24706,0.056805,-9.3753e-06,0.46,0.66,0
0.38937,0.027348,0.6274,-0.25291,-0.25338,-0.2216,0.025157,0,0,-0.36637,-0.3718,0,0.58868,0,0,0.15937,-0.02307,0,0.16104,-0.22798,-0.2783,-0.2216,44.736,-0.24263,0.053796,-7.6172e-06,0.48,0.66,0
0.38189,0.030089,0.59894,-0.24885,-0.24888,-0.21587,0.021991,0,0,-0.38594,-0.38621,0,0.51459,0,0,0.1569,-0.022594,0,0.15852,-0.22687,-0.27086,-0.21587,44.985,-0.23787,0.050395,-5.5311e-06,0.5,0.66,0
0.37393,0.031886,0.57092,-0.24541,-0.24329,-0.21005,0.018899,0,0,-0.41374,-0.38899,0,0.44224,0,0,0.1545,-0.021589,0,0.156,-0.22542,-0.26328,-0.21005,46.602,-0.23292,0.047452,-3.6081e-06,0.52,0.66,0
0.36534,0.03283,0.54332,-0.24246,-0.23698,-0.2042,0.016123,0,0,-0.4476,-0.38354,0,0.37728,0,0,0.15231,-0.020259,0,0.15365,-0.22336,-0.25607,-0.2042,49.818,-0.22788,0.045431,-2.0896e-06,0.54,0.66,0
0.35602,0.033056,0.51609,-0.23988,-0.23023,-0.19837,0.013739,0,0,-0.48563,-0.37264,0,0.32149,0,0,0.15041,-0.018762,0,0.15157,-0.22049,-0.24962,-0.19837,54.682,-0.22283,0.044514,-1.0612e-06,0.56,0.66,0
0.34591,0.032713,0.48917,-0.2376,-0.22323,-0.1926,0.011739,0,0,-0.52648,-0.35834,0,0.27469,0,0,0.1488,-0.017207,0,0.14979,-0.21665,-0.24418,-0.1926,60.735,-0.21781,0.0447,-5.3422e-07,0.58,0.66,0
0.33497,0.031938,0.46252,-0.23554,-0.21614,-0.1869,0.010082,0,0,-0.56919,-0.34213,0,0.23593,0,0,0.14748,-0.015661,0,0.14831,-0.21185,-0.23983,-0.1869,66.952,-0.21286,0.045871,-4.9122e-07,0.6,0.66,0
0.32315,0.030851,0.43608,-0.23367,-0.20905,-0.18127,0.0087152,0,0,-0.61311,-0.32506,0,0.20394,0,0,0.14643,-0.01416,0,0.14712,-0.20628,-0.23645,-0.18127,72.351,-0.208,0.047853,-9.0595e-07,0.62,0.66,0
0.31044,0.029555,0.4098,-0.23196,-0.20206,-0.17574,0.0075825,0,0,-0.65782,-0.3079,0,0.17743,0,0,0.14563,-0.012716,0,0.14618,-0.20024,-0.23378,-0.17574,76.556,-0.20325,0.050463,-1.7525e-06,0.64,0.66,0
0.29684,0.028136,0.38365,-0.23039,-0.19519,-0.1703,0.0066324,0,0,-0.70306,-0.29116,0,0.1552,0,0,0.14505,-0.011328,0,0.14549,-0.19398,-0.2316,-0.1703,79.677,-0.19863,0.053542,-3.01e-06,0.66,0.66,0
0.28232,0.026661,0.35758,-0.22895,-0.18848,-0.16496,0.0058194,0,0,-0.74869,-0.27516,0,0.13617,0,0,0.14468,-0.0099852,0,0.14502,-0.18766,-0.22977,-0.16496,81.978,-0.19413,0.056961,-4.6654e-06,0.68,0.66,0
0.26689,0.025185,0.33156,-0.22764,-0.18195,-0.15972,0.0051055,0,0,-0.79472,-0.26008,0,0.11947,0,0,0.14451,-0.0086755,0,0.14477,-0.18138,-0.2282,-0.15972,83.702,-0.18977,0.060632,-6.7161e-06,0.7,0.66,0
0.25053,0.023752,0.30556,-0.22647,-0.1756,-0.15457,0.0044614,0,0,-0.8412,-0.246,0,0.1044,0,0,0.14454,-0.0073838,0,0.14472,-0.17521,-0.22686,-0.15457,85.026,-0.18554,0.064493,-9.1712e-06,0.72,0.66,0
0.23324,0.022397,0.27953,-0.22544,-0.16943,-0.14952,0.0038673,0,0,-0.88826,-0.23292,0,0.090494,0,0,0.14476,-0.0060968,0,0.14489,-0.16916,-0.2257,-0.14952,86.069,-0.18146,0.068509,-1.2053e-05,0.74,0.66,0
0.215,0.02115,0.25345,-0.22456,-0.16343,-0.14456,0.003313,0,0,-0.93604,-0.22081,0,0.077523,0,0,0.14518,-0.0048052,0,0.14526,-0.16325,-0.22474,-0.14456,86.907,-0.17752,0.072662,-1.5394e-05,0.76,0.66,0
0.1958,0.020034,0.22727,-0.22385,-0.1576,-0.13969,0.0027983,0,0,-0.98471,-0.20961,0,0.065481,0,0,0.14582,-0.0035069,0,0.14586,-0.15749,-0.22397,-0.13969,87.585,-0.17372,0.076942,-1.9241e-05,0.78,0.66,0
0.17561,0.019073,0.20095,-0.22331,-0.15193,-0.1349,0.0023325,0,0,-1.0344,-0.19928,0,0.05458,0,0,0.14667,-0.0022116,0,0.14669,-0.15186,-0.22339,-0.1349,88.13,-0.17005,0.081344,-2.3646e-05,0.8,0.66,0
0.15442,0.01829,0.17447,-0.22294,-0.14642,-0.13019,0.0019317,0,0,-1.0852,-0.18983,0,0.045202,0,0,0.14776,-0.00094667,0,0.14777,-0.14637,-0.22299,-0.13019,88.555,-0.16652,0.085859,-2.8657e-05,0.82,0.66,0
0.1322,0.017706,0.14776,-0.22273,-0.14105,-0.12555,0.0016157,0,0,-1.137,-0.18132,0,0.037808,0,0,0.14908,0.00023679,0,0.14908,-0.14102,-0.22276,-0.12555,88.867,-0.16311,0.090472,-3.4318e-05,0.84,0.66,0
0.10894,0.017339,0.12079,-0.22265,-0.13582,-0.12096,0.0014038,0,0,-1.1897,-0.17383,0,0.03285,0,0,0.1506,0.0012599,0,0.15061,-0.13579,-0.22267,-0.12096,89.074,-0.15981,0.095162,-4.0658e-05,0.86,0.66,0
0.084617,0.017205,0.093541,-0.22267,-0.13071,-0.11641,0.0013158,0,0,-1.2432,-0.16738,0,0.03079,0,0,0.15226,0.0020198,0,0.15228,-0.1307,-0.22268,-0.11641,89.18,-0.1566,0.099903,-4.7698e-05,0.88,0.66,0
0.059214,0.01732,0.06598,-0.22273,-0.1257,-0.11186,0.0013794,0,0,-1.2972,-0.1619,0,0.032277,0,0,0.15394,0.0024067,0,0.15397,-0.12568,-0.22275,-0.11186,89.186,-0.15343,0.10467,-5.545e-05,0.9,0.66,0
0.032729,0.017704,0.038121,-0.22277,-0.12074,-0.10729,0.0016413,0,0,-1.3511,-0.15739,0,0.038407,0,0,0.15548,0.0023346,0,0.15549,-0.12071,-0.22279,-0.10729,89.079,-0.15027,0.10941,-6.3869e-05,0.92,0.66,0
0.0051693,0.018397,0.010009,-0.22215,-0.1974,-0.13143,0.0025835,0,0,-0.73037,-0.15439,0,0.025005,0,0,0.15852,0.0088986,0,0.15896,-0.16974,-0.24981,-0.13143,46.282,-0.18366,0.10746,-3.0968e-05,0.94,0.66,0
0.0035139,0.018444,0.0067918,-0.22127,-0.27727,-0.15635,0.003814,0,0,-0.08439,-0.15719,0,0.0099164,0,0,0.16435,0.013388,0,0.16493,-0.22101,-0.27753,-0.15635,3.8782,-0.2183,0.10502,6.9009e-06,0.96,0.66,0
0.0017937,0.018548,0.0034351,-0.22023,-0.27718,-0.15266,0.0029222,0,0,-0.087848,-0.16187,0,0.0075978,0,0,0.16979,0.0075966,0,0.16995,-0.22008,-0.27732,-0.15266,2.9301,-0.21669,0.10809,9.1393e-06,0.98,0.66,0
0,0.018597,0,-0.21531,-0.27243,-0.14632,0.00093768,0,0,-0.089686,-0.16394,0,0.002438,0,0,0.17176,3.9031e-18,0,0.17173,-0.21529,-0.27244,-0.14632,0.9403,-0.21135,0.10938,1.086e-05,1,0.66,0
0,0.03739,1,-0.3504,-2.1931,-1.763,0.00061011,0,0,1.8364,-0.55903,0,0.0015863,0,0,0.18716,7.5547e-16,0,0.1868,-0.3504,-2.1931,-1.763,0.018971,-1.4355,1.6697,0.18668,0,0.68,0
0.036729,0.037422,0.99626,-0.33967,-2.1922,-1.7558,0.01664,0,0,1.841,-0.56732,0,0.043264,0,0,0.17867,-0.026941,0,0.18063,-0.33952,-2.1924,-1.7558,0.51459,-1.4292,1.6777,0.18831,0.02,0.68,0
0.07364,0.037363,0.99285,-0.32565,-2.1964,-1.7495,0.023837,0,0,1.851,-0.58099,0,0.061975,0,0,0.15522,-0.048128,0,0.16317,-0.32535,-2.1967,-1.7495,0.7299,-1.4238,1.6926,0.19168,0.04,0.68,0
0.11077,0.037021,0.99005,-0.27456,-1.2548,-1.0088,0.022932,0,0,1.1656,-0.57551,0,0.27623,0,0,0.13034,-0.032552,0,0.1368,-0.27209,-1.2572,-1.0088,6.6061,-0.84605,0.88982,0.096603,0.06,0.68,0
0.12026,0.045124,0.96837,-0.24311,-0.37168,-0.29203,0.018989,0,0,0.57242,-0.93185,0,0.44435,0,0,0.11796,-0.0098945,0,0.11839,-0.24036,-0.37442,-0.29203,8.2283,-0.30227,0.11711,-3.1716e-05,0.08,0.68,0
0.13366,0.05078,0.94758,-0.22929,-0.39303,-0.29198,0.013768,0,0,0.73355,-1.1823,0,0.32216,0,0,0.11303,-0.011862,0,0.11367,-0.22814,-0.39418,-0.29198,4.7728,-0.30477,0.14507,-6.0733e-05,0.1,0.68,0
0.1496,0.054018,0.92768,-0.21897,-0.40443,-0.29009,0.0095225,0,0,0.83222,-1.3377,0,0.22283,0,0,0.1084,-0.012852,0,0.10918,-0.21848,-0.40492,-0.29009,2.9315,-0.3045,0.1629,-8.6262e-05,0.12,0.68,0
0.16695,0.055441,0.90856,-0.21172,-0.40935,-0.28727,0.0071187,0,0,0.88396,-1.4283,0,0.16658,0,0,0.10452,-0.013396,0,0.10539,-0.21146,-0.4096,-0.28727,2.0603,-0.30278,0.17316,-0.00010489,0.14,0.68,0
0.18496,0.055706,0.89006,-0.20644,-0.40998,-0.28382,0.0062879,0,0,0.90531,-1.476,0,0.14714,0,0,0.10152,-0.013874,0,0.10247,-0.20625,-0.41017,-0.28382,1.7678,-0.30008,0.17828,-0.00011646,0.16,0.68,0
0.20317,0.055291,0.87201,-0.20238,-0.40754,-0.27987,0.0065001,0,0,0.90657,-1.4938,0,0.1521,0,0,0.099334,-0.014427,0,0.10038,-0.20218,-0.40775,-0.27987,1.8129,-0.2966,0.17979,-0.00012173,0.18,0.68,0
0.22123,0.05449,0.8543,-0.19914,-0.40266,-0.27546,0.0073122,0,0,0.89296,-1.4883,0,0.17111,0,0,0.097854,-0.015047,0,0.099006,-0.19888,-0.40293,-0.27546,2.055,-0.29242,0.17853,-0.00012155,0.2,0.68,0
0.23888,0.053454,0.83679,-0.19661,-0.3956,-0.27064,0.0083488,0,0,0.86612,-1.4621,0,0.19536,0,0,0.097006,-0.015656,0,0.098262,-0.19626,-0.39595,-0.27064,2.3983,-0.28762,0.1748,-0.00011651,0.22,0.68,0
0.25587,0.052217,0.81937,-0.19492,-0.38626,-0.26539,0.0092449,0,0,0.82461,-1.4142,0,0.21633,0,0,0.096765,-0.016144,0,0.098102,-0.19447,-0.38671,-0.26539,2.7597,-0.28219,0.16838,-0.00010677,0.24,0.68,0
0.27187,0.050692,0.80195,-0.19442,-0.3742,-0.25969,0.0096161,0,0,0.76366,-1.3398,0,0.22502,0,0,0.097157,-0.016416,0,0.098535,-0.19391,-0.37472,-0.25969,3.053,-0.27611,0.15851,-9.2242e-05,0.26,0.68,0
0.28642,0.048674,0.7844,-0.19575,-0.35854,-0.25344,0.009091,0,0,0.67503,-1.2296,0,0.21273,0,0,0.098235,-0.016441,0,0.099603,-0.19524,-0.35905,-0.25344,3.1864,-0.26924,0.14383,-7.2809e-05,0.28,0.68,0
0.29887,0.045869,0.76658,-0.19959,-0.33795,-0.24644,0.0075737,0,0,0.54813,-1.0707,0,0.17723,0,0,0.099994,-0.016355,0,0.10133,-0.19917,-0.33836,-0.24644,3.1239,-0.26132,0.12259,-4.942e-05,0.3,0.68,0
0.30834,0.042044,0.7484,-0.20608,-0.31091,-0.23825,0.0055918,0,0,0.37644,-0.8501,0,0.13085,0,0,0.10228,-0.016443,0,0.1036,-0.20578,-0.31121,-0.23825,3.0447,-0.25175,0.093519,-2.5573e-05,0.32,0.68,0
0.31393,0.037256,0.72976,-0.23841,-1.031,-0.78625,0.0046189,0,0,0.83628,-0.57272,0,0.06409,0,0,0.10959,-0.085111,0,0.1485,-0.23823,-1.0312,-0.78625,2.0381,-0.68522,0.70607,0.040904,0.34,0.68,0
0.34179,0.030344,0.72745,-0.26372,-1.6969,-1.3156,0.0067793,0,0,1.3675,-0.49564,0,0.017626,0,0,0.12546,-0.15657,0,0.20087,-0.26369,-1.6969,-1.3156,0.27102,-1.0921,1.2857,0.077664,0.36,0.68,0
0.36863,0.023413,0.72475,-0.2774,-1.6011,-1.2883,0.010672,0,0,1.3141,-0.4066,0,0.027748,0,0,0.1425,-0.16348,0,0.21697,-0.27731,-1.6011,-1.2883,0.46193,-1.0556,1.1984,0.068507,0.38,0.68,0
0.39436,0.016517,0.72175,-0.28827,-1.5082,-1.2607,0.016437,0,0,1.2642,-0.32178,0,0.042736,0,0,0.15437,-0.17032,0,0.22989,-0.28805,-1.5085,-1.2607,0.77178,-1.0191,1.1173,0.059936,0.4,0.68,0
0.41919,0.0097971,0.71857,-0.27079,-0.84281,-0.73329,0.023158,0,0,0.44473,-0.25629,0,0.3173,0,0,0.16069,-0.096646,0,0.19961,-0.25601,-0.85759,-0.73329,25.389,-0.61563,0.55933,0.027712,0.42,0.68,0
0.41215,0.013524,0.68934,-0.26346,-0.25696,-0.23272,0.024569,0,0,-0.35965,-0.28362,0,0.57491,0,0,0.16213,-0.020416,0,0.16341,-0.23543,-0.28499,-0.23272,48.767,-0.25105,0.050973,-6.7374e-06,0.44,0.68,0
0.40481,0.017164,0.66021,-0.25937,-0.25403,-0.22738,0.023307,0,0,-0.37431,-0.31187,0,0.54539,0,0,0.16116,-0.020898,0,0.16251,-0.23324,-0.28016,-0.22738,48.266,-0.24693,0.050109,-6.1648e-06,0.46,0.68,0
0.39718,0.020317,0.63132,-0.25522,-0.25039,-0.22183,0.021079,0,0,-0.3907,-0.33411,0,0.49326,0,0,0.15954,-0.020814,0,0.16089,-0.23159,-0.27402,-0.22183,48.272,-0.24248,0.048063,-4.9193e-06,0.48,0.68,0
0.38918,0.022777,0.60277,-0.25135,-0.24586,-0.21614,0.018468,0,0,-0.412,-0.34776,0,0.43216,0,0,0.15758,-0.020266,0,0.15888,-0.22994,-0.26728,-0.21614,49.227,-0.23778,0.045826,-3.4742e-06,0.5,0.68,0
0.3807,0.024491,0.57459,-0.24788,-0.24054,-0.21037,0.015869,0,0,-0.4389,-0.35297,0,0.37134,0,0,0.15554,-0.019377,0,0.15675,-0.22792,-0.2605,-0.21037,51.515,-0.23293,0.044058,-2.1598e-06,0.52,0.68,0
0.37162,0.025504,0.54678,-0.24482,-0.23459,-0.20458,0.013495,0,0,-0.47084,-0.35118,0,0.31579,0,0,0.15357,-0.018267,0,0.15466,-0.22527,-0.25414,-0.20458,55.376,-0.228,0.043115,-1.1554e-06,0.54,0.68,0
0.36186,0.025908,0.51931,-0.24212,-0.22821,-0.1988,0.011432,0,0,-0.50683,-0.34412,0,0.26752,0,0,0.15178,-0.017034,0,0.15273,-0.22178,-0.24855,-0.1988,60.654,-0.22304,0.043123,-5.3974e-07,0.56,0.68,0
0.35135,0.025813,0.49214,-0.23972,-0.22156,-0.19307,0.0096911,0,0,-0.54586,-0.33337,0,0.22677,0,0,0.1502,-0.015754,0,0.15103,-0.21736,-0.24392,-0.19307,66.569,-0.21812,0.044056,-3.3897e-07,0.58,0.68,0
0.34003,0.02533,0.46523,-0.23758,-0.21476,-0.1874,0.0082459,0,0,-0.58713,-0.32022,0,0.19295,0,0,0.14887,-0.014474,0,0.14958,-0.2121,-0.24024,-0.1874,72.068,-0.21324,0.045802,-5.5621e-07,0.6,0.68,0
0.32786,0.024558,0.43854,-0.23564,-0.20793,-0.1818,0.0070561,0,0,-0.62999,-0.30571,0,0.16511,0,0,0.14778,-0.013223,0,0.14838,-0.20624,-0.23734,-0.1818,76.508,-0.20846,0.048213,-1.1862e-06,0.62,0.68,0
0.31483,0.023584,0.41203,-0.23389,-0.20112,-0.17629,0.0060778,0,0,-0.67401,-0.2906,0,0.14222,0,0,0.14694,-0.012011,0,0.14743,-0.20003,-0.23498,-0.17629,79.824,-0.20377,0.051143,-2.2219e-06,0.64,0.68,0
0.3009,0.022483,0.38565,-0.23231,-0.1944,-0.17086,0.0052685,0,0,-0.71889,-0.27544,0,0.12328,0,0,0.14631,-0.01084,0,0.14671,-0.19369,-0.23303,-0.17086,82.232,-0.19919,0.054464,-3.6586e-06,0.66,0.68,0
0.28607,0.021316,0.35936,-0.23087,-0.18781,-0.16553,0.0045904,0,0,-0.76445,-0.26063,0,0.10741,0,0,0.14591,-0.0097044,0,0.14623,-0.18732,-0.23135,-0.16553,83.982,-0.19474,0.058077,-5.4959e-06,0.68,0.68,0
0.27033,0.020133,0.33312,-0.22957,-0.18135,-0.16029,0.0040116,0,0,-0.8106,-0.24643,0,0.093872,0,0,0.14572,-0.008595,0,0.14597,-0.18102,-0.22991,-0.16029,85.276,-0.19041,0.061908,-7.7393e-06,0.7,0.68,0
0.25365,0.018976,0.3069,-0.22842,-0.17506,-0.15515,0.0035072,0,0,-0.85734,-0.23302,0,0.082069,0,0,0.14573,-0.0075016,0,0.14592,-0.17483,-0.22865,-0.15515,86.256,-0.18621,0.065907,-1.0401e-05,0.72,0.68,0
0.23603,0.017877,0.28066,-0.22741,-0.16893,-0.15009,0.0030597,0,0,-0.9047,-0.22048,0,0.071596,0,0,0.14595,-0.006415,0,0.14609,-0.16877,-0.22757,-0.15009,87.013,-0.18214,0.070037,-1.3501e-05,0.74,0.68,0
0.21746,0.016867,0.25436,-0.22655,-0.16297,-0.14512,0.0026592,0,0,-0.95271,-0.2089,0,0.062226,0,0,0.14637,-0.0053292,0,0.14647,-0.16286,-0.22666,-0.14512,87.609,-0.17821,0.074274,-1.7064e-05,0.76,0.68,0
0.19792,0.015969,0.22797,-0.22582,-0.15718,-0.14023,0.0023037,0,0,-1.0014,-0.19833,0,0.053906,0,0,0.147,-0.0042438,0,0.14706,-0.1571,-0.2259,-0.14023,88.08,-0.17441,0.078603,-2.1119e-05,0.78,0.68,0
0.1774,0.015206,0.20144,-0.22524,-0.15156,-0.13542,0.0019972,0,0,-1.0509,-0.18883,0,0.046735,0,0,0.14784,-0.0031672,0,0.14787,-0.15151,-0.22529,-0.13542,88.448,-0.17074,0.083006,-2.5695e-05,0.8,0.68,0
0.15589,0.0146,0.17474,-0.22479,-0.14611,-0.13069,0.0017484,0,0,-1.101,-0.18048,0,0.040913,0,0,0.14887,-0.00212,0,0.14888,-0.14607,-0.22483,-0.13069,88.728,-0.1672,0.087469,-3.0816e-05,0.82,0.68,0
0.13336,0.01417,0.14785,-0.22445,-0.14083,-0.12601,0.0015676,0,0,-1.1518,-0.17333,0,0.036683,0,0,0.15008,-0.0011378,0,0.15008,-0.1408,-0.22448,-0.12601,88.927,-0.16376,0.091974,-3.6503e-05,0.84,0.68,0
0.10982,0.013934,0.12072,-0.22421,-0.1357,-0.12139,0.0014651,0,0,-1.2031,-0.16745,0,0.034282,0,0,0.15142,-0.00027131,0,0.15142,-0.13567,-0.22424,-0.12139,89.052,-0.16043,0.096503,-4.2767e-05,0.86,0.68,0
0.085241,0.013908,0.093336,-0.22404,-0.13071,-0.1168,0.0014513,0,0,-1.2548,-0.16281,0,0.033961,0,0,0.15282,0.00041811,0,0.15282,-0.13069,-0.22406,-0.1168,89.109,-0.15718,0.10104,-4.9618e-05,0.88,0.68,0
0.059628,0.014107,0.065702,-0.2239,-0.12584,-0.11222,0.0015416,0,0,-1.3066,-0.15936,0,0.036074,0,0,0.15417,0.00087016,0,0.15417,-0.12582,-0.22393,-0.11222,89.1,-0.15399,0.10556,-5.7052e-05,0.9,0.68,0
0.032976,0.014553,0.037835,-0.22374,-0.12108,-0.10765,0.0017587,0,0,-1.3583,-0.15715,0,0.041153,0,0,0.15534,0.0010431,0,0.15534,-0.12105,-0.22378,-0.10765,89.019,-0.15083,0.11003,-6.5016e-05,0.92,0.68,0
0.0052965,0.015274,0.0097799,-0.22352,-0.19917,-0.13224,0.0022056,0,0,-0.73377,-0.15661,0,0.024309,0,0,0.15745,0.0046663,0,0.15757,-0.17099,-0.2517,-0.13224,45.847,-0.18498,0.10837,-3.135e-05,0.94,0.68,0
0.0036255,0.015296,0.0065993,-0.22284,-0.27773,-0.15677,0.0025129,0,0,-0.085892,-0.15725,0,0.0065336,0,0,0.16135,0.0071206,0,0.16153,-0.22273,-0.27785,-0.15677,2.6158,-0.21911,0.10499,9.1708e-06,0.96,0.68,0
0.0018608,0.015342,0.0033257,-0.22218,-0.27492,-0.15246,0.0017518,0,0,-0.090638,-0.15921,0,0.0045547,0,0,0.16498,0.0040666,0,0.16503,-0.22212,-0.27498,-0.15246,1.9001,-0.21652,0.10644,1.4543e-05,0.98,0.68,0
0,0.015364,0,-0.21764,-0.26926,-0.14607,0.00042185,0,0,-0.093042,-0.16015,0,0.0010968,0,0,0.16628,4.9873e-18,0,0.16628,-0.21764,-0.26926,-0.14607,0.46819,-0.21099,0.10715,1.7435e-05,1,0.68,0
0,0.025845,1,-0.32977,-2.209,-1.7616,-0.00056754,0,0,1.8614,-0.58162,0,-0.0014756,0,0,0.16935,2.457e-15,0,0.16927,-0.32977,-2.209,-1.7616,-0.017303,-1.4335,1.7003,0.19477,0,0.7,0
0.037229,0.025815,0.99661,-0.3222,-2.2027,-1.7541,0.0032286,0,0,1.8615,-0.58325,0,0.0083942,0,0,0.16276,-0.010647,0,0.1632,-0.32219,-2.2028,-1.7541,0.098366,-1.4264,1.7012,0.19481,0.02,0.7,0
0.074459,0.025705,0.99349,-0.31261,-2.1943,-1.7456,0.0045077,0,0,1.8628,-0.5834,0,0.01172,0,0,0.14456,-0.019203,0,0.14634,-0.3126,-2.1944,-1.7456,0.13725,-1.4175,1.7023,0.19525,0.04,0.7,0
0.11174,0.025503,0.99083,-0.26954,-1.2539,-1.0075,0.0045537,0,0,1.1773,-0.57664,0,0.05321,0,0,0.12523,-0.013366,0,0.12672,-0.26945,-1.254,-1.0075,1.3246,-0.84366,0.88958,0.097754,0.06,0.7,0
0.12155,0.026896,0.96968,-0.24035,-0.36766,-0.29014,0.0036038,0,0,0.58265,-0.90696,0,0.084329,0,0,0.11549,-0.0051003,0,0.11562,-0.24024,-0.36776,-0.29014,1.6201,-0.29938,0.1113,-2.5907e-05,0.08,0.7,0
0.13505,0.027538,0.94925,-0.22724,-0.38948,-0.29049,0.0023221,0,0,0.73997,-1.1582,0,0.054338,0,0,0.11132,-0.0070454,0,0.11156,-0.22721,-0.38951,-0.29049,0.81988,-0.3024,0.14169,-5.4105e-05,0.1,0.7,0
0.15115,0.027471,0.9296,-0.21696,-0.40254,-0.28914,0.0014516,0,0,0.84454,-1.3268,0,0.033966,0,0,0.1072,-0.008628,0,0.10756,-0.21694,-0.40255,-0.28914,0.4481,-0.30288,0.16206,-8.1603e-05,0.12,0.7,0
0.16883,0.026912,0.91066,-0.20938,-0.40885,-0.28665,0.0013275,0,0,0.9041,-1.4297,0,0.031063,0,0,0.10355,-0.010014,0,0.10404,-0.20937,-0.40886,-0.28665,0.38129,-0.30163,0.17421,-0.0001027,0.14,0.7,0
0.18732,0.026111,0.89233,-0.20383,-0.41041,-0.28342,0.0019063,0,0,0.93121,-1.4858,0,0.044607,0,0,0.1006,-0.011331,0,0.10124,-0.20381,-0.41043,-0.28342,0.52865,-0.29922,0.1805,-0.00011625,0.16,0.7,0
0.20608,0.025274,0.87445,-0.19962,-0.40858,-0.27962,0.0030247,0,0,0.93599,-1.5088,0,0.070778,0,0,0.098399,-0.012639,0,0.09921,-0.19958,-0.40863,-0.27962,0.82914,-0.29594,0.18269,-0.00012287,0.18,0.7,0
0.22475,0.024551,0.8569,-0.19635,-0.40406,-0.27534,0.0045169,0,0,0.92411,-1.5061,0,0.10569,0,0,0.096933,-0.013932,0,0.097929,-0.19625,-0.40416,-0.27534,1.2452,-0.29192,0.18176,-0.00012345,0.2,0.7,0
0.24304,0.024041,0.83955,-0.19389,-0.39711,-0.27059,0.0062378,0,0,0.8973,-1.4804,0,0.14596,0,0,0.096164,-0.015169,0,0.097352,-0.1937,-0.39731,-0.27059,1.7565,-0.2872,0.17808,-0.00011858,0.22,0.7,0
0.26065,0.023799,0.82228,-0.19239,-0.38764,-0.26537,0.0080508,0,0,0.85389,-1.4305,0,0.18839,0,0,0.096075,-0.016287,0,0.097445,-0.19206,-0.38797,-0.26537,2.3572,-0.2818,0.17144,-0.00010852,0.24,0.7,0
0.2772,0.023842,0.80497,-0.19221,-0.37514,-0.25965,0.0098187,0,0,0.78898,-1.3513,0,0.22976,0,0,0.09666,-0.017226,0,0.098184,-0.19169,-0.37567,-0.25965,3.0636,-0.27567,0.16113,-9.3284e-05,0.26,0.7,0
0.29221,0.024142,0.78748,-0.1939,-0.35877,-0.2533,0.011414,0,0,0.69493,-1.234,0,0.26709,0,0,0.097896,-0.017955,0,0.099532,-0.19312,-0.35956,-0.2533,3.9418,-0.26866,0.14597,-7.3115e-05,0.28,0.7,0
0.305,0.024633,0.76972,-0.19795,-0.33737,-0.24612,0.012741,0,0,0.56362,-1.0676,0,0.29814,0,0,0.099688,-0.018503,0,0.1014,-0.19679,-0.33852,-0.24612,5.1788,-0.26048,0.12462,-4.9484e-05,0.3,0.7,0
0.31475,0.025223,0.7516,-0.20441,-0.31016,-0.23788,0.013794,0,0,0.39164,-0.84567,0,0.32277,0,0,0.10183,-0.018962,0,0.10359,-0.20264,-0.31193,-0.23788,7.3103,-0.25082,0.096618,-2.6408e-05,0.32,0.7,0
0.32066,0.025808,0.73306,-0.23713,-1.0352,-0.78896,0.016296,0,0,0.84872,-0.5762,0,0.19542,0,0,0.10832,-0.097278,0,0.15681,-0.23563,-1.0367,-0.78896,5.7253,-0.6871,0.71312,0.041682,0.34,0.7,0
0.3487,0.020436,0.73079,-0.26204,-1.7022,-1.32,0.0236,0,0,1.3754,-0.49675,0,0.061361,0,0,0.12258,-0.17619,0,0.21482,-0.26165,-1.7026,-1.32,0.93861,-1.0947,1.2928,0.0791,0.36,0.7,0
0.37568,0.015262,0.72816,-0.27653,-1.6049,-1.2926,0.027925,0,0,1.3209,-0.40602,0,0.072605,0,0,0.13874,-0.17802,0,0.22582,-0.27594,-1.6055,-1.2926,1.2038,-1.058,1.204,0.069643,0.38,0.7,0
0.40153,0.010057,0.72524,-0.28794,-1.5097,-1.2645,0.026842,0,0,1.2696,-0.31871,0,0.069788,0,0,0.15153,-0.17972,0,0.23514,-0.28736,-1.5103,-1.2645,1.258,-1.0207,1.1204,0.060693,0.4,0.7,0
0.42646,0.0046137,0.7221,-0.27206,-0.8441,-0.73601,0.023272,0,0,0.44316,-0.25293,0,0.28563,0,0,0.15949,-0.10022,0,0.20118,-0.25844,-0.85772,-0.73601,26.101,-0.61739,0.5583,0.02798,0.42,0.7,0
0.41926,0.0080063,0.69295,-0.26512,-0.25589,-0.2333,0.02079,0,0,-0.37232,-0.26433,0,0.4865,0,0,0.16185,-0.019926,0,0.16308,-0.23921,-0.2818,-0.2333,51.258,-0.25144,0.045835,-4.6695e-06,0.44,0.7,0
0.41157,0.011215,0.66383,-0.26152,-0.25197,-0.22781,0.019224,0,0,-0.39443,-0.28271,0,0.44984,0,0,0.16127,-0.019589,0,0.16246,-0.23694,-0.27655,-0.22781,51.974,-0.2471,0.044883,-4.0038e-06,0.46,0.7,0
0.40348,0.013983,0.63489,-0.25759,-0.2479,-0.22219,0.01714,0,0,-0.41414,-0.30081,0,0.40108,0,0,0.16,-0.01903,0,0.16113,-0.23493,-0.27055,-0.22219,52.889,-0.24256,0.043419,-3.0156e-06,0.48,0.7,0
0.395,0.016179,0.60623,-0.25372,-0.24335,-0.21648,0.014884,0,0,-0.4357,-0.31438,0,0.34828,0,0,0.15834,-0.018277,0,0.15939,-0.23277,-0.2643,-0.21648,54.603,-0.23785,0.042104,-1.9891e-06,0.5,0.7,0
0.38605,0.017767,0.57789,-0.25013,-0.23822,-0.21072,0.012695,0,0,-0.46116,-0.32182,0,0.29707,0,0,0.1565,-0.017379,0,0.15746,-0.23015,-0.2582,-0.21072,57.564,-0.23302,0.041346,-1.1171e-06,0.52,0.7,0
0.37656,0.018782,0.54989,-0.24691,-0.23257,-0.20494,0.01071,0,0,-0.49098,-0.32323,0,0.25062,0,0,0.15465,-0.016387,0,0.15552,-0.22685,-0.25262,-0.20494,61.898,-0.22814,0.04134,-5.0787e-07,0.54,0.7,0
0.36642,0.019291,0.52222,-0.24404,-0.2265,-0.19919,0.0089864,0,0,-0.5248,-0.31955,0,0.21028,0,0,0.15292,-0.015346,0,0.15369,-0.22271,-0.24783,-0.19919,67.153,-0.22324,0.042131,-2.173e-07,0.56,0.7,0
0.35556,0.019379,0.49484,-0.2415,-0.22013,-0.19347,0.0075314,0,0,-0.56193,-0.31194,0,0.17623,0,0,0.15136,-0.014294,0,0.15203,-0.21775,-0.24389,-0.19347,72.409,-0.21837,0.043671,-2.7439e-07,0.58,0.7,0
0.34394,0.019129,0.46773,-0.23925,-0.2136,-0.18782,0.0063266,0,0,-0.60166,-0.30155,0,0.14804,0,0,0.15001,-0.013254,0,0.1506,-0.21212,-0.24072,-0.18782,76.871,-0.21355,0.045863,-6.9528e-07,0.6,0.7,0
0.3315,0.018623,0.44084,-0.23723,-0.20698,-0.18224,0.0053416,0,0,-0.64337,-0.28935,0,0.12499,0,0,0.1489,-0.012242,0,0.1494,-0.20606,-0.23815,-0.18224,80.277,-0.20882,0.048591,-1.4903e-06,0.62,0.7,0
0.3182,0.017932,0.41413,-0.23543,-0.20035,-0.17675,0.0045421,0,0,-0.68659,-0.27612,0,0.10629,0,0,0.14801,-0.011263,0,0.14844,-0.19977,-0.23601,-0.17675,82.741,-0.20417,0.051746,-2.6673e-06,0.64,0.7,0
0.30403,0.017118,0.38755,-0.23381,-0.19377,-0.17133,0.0038944,0,0,-0.73098,-0.26246,0,0.091128,0,0,0.14736,-0.010316,0,0.14772,-0.19339,-0.23419,-0.17133,84.497,-0.19964,0.055232,-4.2345e-06,0.66,0.7,0
0.28897,0.016235,0.36108,-0.23236,-0.18728,-0.16601,0.0033676,0,0,-0.7763,-0.24881,0,0.078802,0,0,0.14693,-0.0093971,0,0.14723,-0.18703,-0.23261,-0.16601,85.752,-0.19522,0.058972,-6.2017e-06,0.68,0.7,0
0.27298,0.015328,0.33466,-0.23107,-0.1809,-0.16078,0.002935,0,0,-0.82242,-0.2355,0,0.068679,0,0,0.14671,-0.0084988,0,0.14696,-0.18073,-0.23124,-0.16078,86.663,-0.19092,0.062906,-8.5813e-06,0.7,0.7,0
0.25607,0.014431,0.30826,-0.22993,-0.17467,-0.15563,0.0025748,0,0,-0.86926,-0.22276,0,0.06025,0,0,0.14672,-0.0076136,0,0.14691,-0.17455,-0.23004,-0.15563,87.338,-0.18674,0.06699,-1.1389e-05,0.72,0.7,0
0.23821,0.013578,0.28184,-0.22893,-0.16859,-0.15057,0.0022707,0,0,-0.91678,-0.2108,0,0.053135,0,0,0.14693,-0.0067343,0,0.14708,-0.1685,-0.22901,-0.15057,87.848,-0.18269,0.071191,-1.4643e-05,0.74,0.7,0
0.2194,0.012793,0.25537,-0.22807,-0.16267,-0.14559,0.0020123,0,0,-0.96493,-0.19975,0,0.047088,0,0,0.14735,-0.0058557,0,0.14747,-0.1626,-0.22813,-0.14559,88.239,-0.17877,0.075481,-1.8362e-05,0.76,0.7,0
0.19961,0.012101,0.22879,-0.22734,-0.15691,-0.1407,0.0017948,0,0,-1.0137,-0.18975,0,0.041999,0,0,0.14798,-0.0049759,0,0.14806,-0.15687,-0.22738,-0.1407,88.541,-0.17498,0.079838,-2.2564e-05,0.78,0.7,0
0.17885,0.01152,0.20209,-0.22673,-0.15134,-0.13588,0.0016185,0,0,-1.063,-0.18093,0,0.037873,0,0,0.1488,-0.0040985,0,0.14885,-0.1513,-0.22676,-0.13588,88.771,-0.17131,0.084241,-2.7264e-05,0.8,0.7,0
0.15709,0.011071,0.17523,-0.22623,-0.14594,-0.13112,0.001487,0,0,-1.1128,-0.1734,0,0.034797,0,0,0.14979,-0.003234,0,0.14983,-0.14591,-0.22626,-0.13112,88.939,-0.16776,0.088671,-3.2473e-05,0.82,0.7,0
0.13434,0.010772,0.14817,-0.22582,-0.14072,-0.12643,0.0014062,0,0,-1.1629,-0.16724,0,0.032904,0,0,0.15093,-0.0024009,0,0.15095,-0.1407,-0.22585,-0.12643,89.054,-0.16432,0.093109,-3.8195e-05,0.84,0.7,0
0.11058,0.010641,0.12089,-0.22549,-0.13567,-0.12178,0.0013821,0,0,-1.2134,-0.16247,0,0.032341,0,0,0.15216,-0.001626,0,0.15217,-0.13564,-0.22551,-0.12178,89.119,-0.16098,0.097543,-4.4436e-05,0.86,0.7,0
0.085802,0.010693,0.093391,-0.22521,-0.13076,-0.11717,0.0014215,0,0,-1.2641,-0.15904,0,0.033263,0,0,0.15341,-0.00094035,0,0.15341,-0.13074,-0.22523,-0.11717,89.138,-0.15772,0.10196,-5.12e-05,0.88,0.7,0
0.060012,0.010946,0.065667,-0.22496,-0.12599,-0.11258,0.0015322,0,0,-1.3148,-0.15691,0,0.035853,0,0,0.15457,-0.000374,0,0.15457,-0.12597,-0.22499,-0.11258,89.113,-0.15451,0.10634,-5.848e-05,0.9,0.7,0
0.033208,0.011418,0.037746,-0.22471,-0.12136,-0.10801,0.0017238,0,0,-1.3653,-0.15611,0,0.040336,0,0,0.15554,5.3299e-05,0,0.15554,-0.12133,-0.22474,-0.10801,89.045,-0.15136,0.11067,-6.6231e-05,0.92,0.7,0
0.0053985,0.012132,0.0096732,-0.22466,-0.19979,-0.13271,0.0019172,0,0,-0.73752,-0.15697,0,0.022825,0,0,0.15714,0.0017053,0,0.15716,-0.17189,-0.25256,-0.13271,45.622,-0.18572,0.10876,-3.1245e-05,0.94,0.7,0
0.0037071,0.012154,0.0065069,-0.22419,-0.27765,-0.15706,0.0017714,0,0,-0.087269,-0.15677,0,0.0046056,0,0,0.16002,0.0027873,0,0.16005,-0.22413,-0.27771,-0.15706,1.8957,-0.21963,0.1047,1.1334e-05,0.96,0.7,0
0.0019077,0.012179,0.0032725,-0.22375,-0.27353,-0.15246,0.0010949,0,0,-0.092677,-0.1574,0,0.0028467,0,0,0.16267,0.0016401,0,0.16268,-0.22372,-0.27355,-0.15246,1.2593,-0.21658,0.10542,1.8098e-05,0.98,0.7,0
0,0.012191,0,-0.21942,-0.26739,-0.14604,0.00021459,0,0,-0.095387,-0.15775,0,0.00055795,0,0,0.16362,-4.5536e-18,0,0.16362,-0.21941,-0.26739,-0.14604,0.25629,-0.21095,0.10586,2.1505e-05,1,0.7,0
0,0.014125,1,-0.33023,-2.207,-1.7612,-0.00063957,0,0,1.8602,-0.57955,0,-0.0016629,0,0,0.16586,9.2417e-16,0,0.16583,-0.33023,-2.207,-1.7612,-0.019526,-1.4328,1.6983,0.19434,0,0.72,0
0.037204,0.014092,0.99668,-0.32263,-2.2011,-1.7538,-0.0065841,0,0,1.8605,-0.5815,0,-0.017118,0,0,0.15947,0.0034465,0,0.15963,-0.32261,-2.2011,-1.7538,-0.20082,-1.4259,1.6996,0.19449,0.02,0.72,0
0.074421,0.014027,0.99362,-0.31277,-2.1934,-1.7455,-0.010456,0,0,1.8625,-0.58226,0,-0.027186,0,0,0.14181,0.005652,0,0.14244,-0.31271,-2.1934,-1.7455,-0.31855,-1.4172,1.7015,0.19513,0.04,0.72,0
0.1117,0.013956,0.99101,-0.26919,-1.2533,-1.0073,-0.012092,0,0,1.1795,-0.57566,0,-0.15735,0,0,0.12305,0.0031363,0,0.12352,-0.26836,-1.2542,-1.0073,-3.8899,-0.84327,0.89069,0.097747,0.06,0.72,0
0.1216,0.0088462,0.97021,-0.23978,-0.36794,-0.29012,-0.011394,0,0,0.58895,-0.9105,0,-0.26663,0,0,0.11358,-0.00084155,0,0.1136,-0.23877,-0.36894,-0.29012,-5.0414,-0.29928,0.11356,-2.6773e-05,0.08,0.72,0
0.13526,0.0044543,0.95012,-0.22645,-0.39009,-0.29053,-0.0092733,0,0,0.7497,-1.1648,0,-0.21699,0,0,0.1095,-0.0026032,0,0.10955,-0.22593,-0.39061,-0.29053,-3.2332,-0.30236,0.14372,-5.5306e-05,0.1,0.72,0
0.15159,0.00094479,0.93079,-0.21596,-0.40343,-0.28924,-0.0069133,0,0,0.85732,-1.3361,0,-0.16177,0,0,0.10543,-0.0045824,0,0.10555,-0.21571,-0.40369,-0.28924,-2.1091,-0.30288,0.16407,-8.3101e-05,0.12,0.72,0
0.16956,-0.0017459,0.91217,-0.20819,-0.41003,-0.28682,-0.0047244,0,0,0.91991,-1.4416,0,-0.11055,0,0,0.10182,-0.0066701,0,0.10205,-0.20808,-0.41014,-0.28682,-1.3402,-0.30168,0.1764,-0.0001046,0.14,0.72,0
0.18839,-0.0037269,0.89413,-0.20246,-0.4119,-0.28365,-0.0026648,0,0,0.95001,-1.5005,0,-0.062357,0,0,0.098897,-0.0087777,0,0.09929,-0.20242,-0.41193,-0.28365,-0.72884,-0.29934,0.18296,-0.00011865,0.16,0.72,0
0.20755,-0.0050623,0.87656,-0.19809,-0.41036,-0.27993,-0.00057571,0,0,0.95754,-1.526,0,-0.013472,0,0,0.096733,-0.010853,0,0.09734,-0.19809,-0.41036,-0.27993,-0.1554,-0.29613,0.18543,-0.00012576,0.18,0.72,0
0.22669,-0.0057549,0.85931,-0.19469,-0.40609,-0.27571,0.0016703,0,0,0.94796,-1.5254,0,0.039086,0,0,0.095324,-0.012867,0,0.096186,-0.19468,-0.40611,-0.27571,0.45268,-0.29217,0.18476,-0.00012671,0.2,0.72,0
0.24547,-0.0057615,0.84225,-0.19215,-0.39936,-0.27103,0.0041568,0,0,0.92296,-1.5014,0,0.09727,0,0,0.094651,-0.014799,0,0.095798,-0.19207,-0.39944,-0.27103,1.1488,-0.28751,0.18128,-0.00012206,0.22,0.72,0
0.26361,-0.0050018,0.82524,-0.19058,-0.39005,-0.26588,0.0069629,0,0,0.88104,-1.4528,0,0.16293,0,0,0.094707,-0.016617,0,0.096151,-0.19034,-0.3903,-0.26588,1.9967,-0.28217,0.17489,-0.00011215,0.24,0.72,0
0.28071,-0.0033597,0.80815,-0.19034,-0.37773,-0.26021,0.010189,0,0,0.8176,-1.375,0,0.23843,0,0,0.095489,-0.01827,0,0.09722,-0.18978,-0.37829,-0.26021,3.1031,-0.27609,0.16498,-9.7114e-05,0.26,0.72,0
0.29631,-0.00068524,0.79086,-0.19195,-0.36152,-0.25392,0.013912,0,0,0.72496,-1.259,0,0.32555,0,0,0.096959,-0.01968,0,0.098938,-0.19082,-0.36266,-0.25392,4.6593,-0.26913,0.15055,-7.7265e-05,0.28,0.72,0
0.30971,0.0031646,0.77325,-0.19597,-0.34016,-0.24676,0.018022,0,0,0.59422,-1.0929,0,0.42171,0,0,0.098988,-0.020754,0,0.10115,-0.19375,-0.34238,-0.24676,7.0171,-0.26096,0.13047,-5.3906e-05,0.3,0.72,0
0.32008,0.0082166,0.75523,-0.20251,-0.31259,-0.23844,0.021941,0,0,0.42041,-0.8675,0,0.51342,0,0,0.10132,-0.021429,0,0.10357,-0.1983,-0.3168,-0.23844,10.867,-0.25118,0.10439,-3.0648e-05,0.32,0.72,0
0.32653,0.014208,0.73677,-0.2365,-1.0452,-0.79382,0.028058,0,0,0.86789,-0.5882,0,0.32581,0,0,0.108,-0.10867,0,0.16551,-0.23269,-1.049,-0.79382,8.5893,-0.69184,0.72596,0.042703,0.34,0.72,0
0.35479,0.010474,0.7345,-0.26177,-1.7124,-1.3268,0.04083,0,0,1.3845,-0.50133,0,0.10616,0,0,0.12254,-0.19484,0,0.23035,-0.26063,-1.7135,-1.3268,1.611,-1.1003,1.3033,0.080846,0.36,0.72,0
0.38191,0.007172,0.73187,-0.27732,-1.6053,-1.2967,0.046425,0,0,1.3251,-0.40125,0,0.12071,0,0,0.13898,-0.19274,0,0.23773,-0.2757,-1.6069,-1.2967,1.9997,-1.0598,1.2064,0.070467,0.38,0.72,0
0.4078,0.0037684,0.72894,-0.28982,-1.5003,-1.266,0.038513,0,0,1.269,-0.30457,0,0.10014,0,0,0.15199,-0.19032,0,0.24363,-0.28859,-1.5015,-1.266,1.8206,-1.0187,1.1139,0.060436,0.4,0.72,0
0.43267,-0.00031997,0.72579,-0.27371,-0.83419,-0.73559,0.024133,0,0,0.4302,-0.23073,0,0.26011,0,0,0.16013,-0.10473,0,0.20486,-0.26005,-0.84785,-0.73559,27.972,-0.61449,0.55061,0.027497,0.42,0.72,0
0.42501,0.0029503,0.69651,-0.26787,-0.25421,-0.23402,0.017281,0,0,-0.39613,-0.2363,0,0.40437,0,0,0.16258,-0.019672,0,0.16377,-0.24246,-0.27963,-0.23402,55.783,-0.25203,0.042027,-3.2997e-06,0.44,0.72,0
0.41682,0.0058552,0.66726,-0.26415,-0.24991,-0.22836,0.015199,0,0,-0.41879,-0.25215,0,0.35565,0,0,0.16205,-0.018513,0,0.16311,-0.24025,-0.27381,-0.22836,57.552,-0.24747,0.040832,-2.5231e-06,0.46,0.72,0
0.40826,0.0082842,0.63817,-0.26003,-0.24574,-0.22264,0.013102,0,0,-0.43745,-0.27026,0,0.3066,0,0,0.16085,-0.017443,0,0.16179,-0.23796,-0.2678,-0.22264,59.302,-0.2428,0.039785,-1.6928e-06,0.48,0.72,0
0.39932,0.010202,0.60935,-0.25593,-0.24127,-0.21687,0.011119,0,0,-0.45701,-0.28555,0,0.26017,0,0,0.15923,-0.016435,0,0.16008,-0.23528,-0.26191,-0.21687,61.693,-0.23802,0.039229,-9.5972e-07,0.5,0.72,0
0.38998,0.011619,0.58085,-0.2521,-0.23634,-0.21107,0.0093175,0,0,-0.48005,-0.29564,0,0.21803,0,0,0.15743,-0.015473,0,0.1582,-0.23202,-0.25642,-0.21107,65.113,-0.23317,0.039315,-4.111e-07,0.52,0.72,0
0.38012,0.012575,0.55268,-0.24865,-0.23093,-0.20528,0.0077344,0,0,-0.50744,-0.30005,0,0.18099,0,0,0.15561,-0.014551,0,0.15629,-0.22803,-0.25155,-0.20528,69.445,-0.22829,0.040074,-9.665e-08,0.54,0.72,0
0.36968,0.013126,0.52483,-0.2456,-0.22511,-0.19953,0.0063787,0,0,-0.53905,-0.29932,0,0.14926,0,0,0.15387,-0.013665,0,0.15448,-0.22329,-0.24742,-0.19953,74.046,-0.22341,0.04148,-4.9949e-08,0.56,0.72,0
0.35856,0.013336,0.49728,-0.24291,-0.21899,-0.19382,0.0052433,0,0,-0.5743,-0.29443,0,0.12269,0,0,0.1523,-0.012816,0,0.15283,-0.21789,-0.24401,-0.19382,78.164,-0.21857,0.043473,-2.9848e-07,0.58,0.72,0
0.34671,0.013268,0.47,-0.24053,-0.21266,-0.18818,0.0043109,0,0,-0.6125,-0.28643,0,0.10088,0,0,0.15092,-0.012004,0,0.1514,-0.21201,-0.24118,-0.18818,81.405,-0.21379,0.045979,-8.664e-07,0.6,0.72,0
0.33406,0.012984,0.44295,-0.23843,-0.20622,-0.18261,0.003559,0,0,-0.65304,-0.27626,0,0.083282,0,0,0.14978,-0.011226,0,0.1502,-0.20583,-0.23882,-0.18261,83.768,-0.20909,0.048918,-1.7751e-06,0.62,0.72,0
0.32059,0.012539,0.41608,-0.23656,-0.19975,-0.17713,0.0029629,0,0,-0.6954,-0.26471,0,0.069333,0,0,0.14886,-0.010481,0,0.14923,-0.19951,-0.2368,-0.17713,85.427,-0.20448,0.052213,-3.044e-06,0.64,0.72,0
0.30624,0.011985,0.38936,-0.2349,-0.19329,-0.17172,0.0024975,0,0,-0.73921,-0.2524,0,0.058442,0,0,0.14818,-0.0097639,0,0.1485,-0.19315,-0.23505,-0.17172,86.577,-0.19997,0.055793,-4.6915e-06,0.66,0.72,0
0.29102,0.011364,0.36274,-0.23343,-0.1869,-0.1664,0.0021387,0,0,-0.7842,-0.23982,0,0.050046,0,0,0.14773,-0.0090688,0,0.148,-0.1868,-0.23353,-0.1664,87.374,-0.19558,0.059602,-6.736e-06,0.68,0.72,0
0.27488,0.010713,0.33618,-0.23213,-0.1806,-0.16117,0.0018644,0,0,-0.83018,-0.22734,0,0.043627,0,0,0.1475,-0.0083897,0,0.14774,-0.18054,-0.2322,-0.16117,87.93,-0.1913,0.063592,-9.1969e-06,0.7,0.72,0
0.25781,0.010065,0.30964,-0.23099,-0.17443,-0.15603,0.0016554,0,0,-0.87704,-0.21524,0,0.038737,0,0,0.14749,-0.0077203,0,0.14769,-0.17438,-0.23104,-0.15603,88.325,-0.18715,0.067725,-1.2094e-05,0.72,0.72,0
0.2398,0.0094456,0.28308,-0.23,-0.16839,-0.15097,0.0014961,0,0,-0.92466,-0.20378,0,0.035008,0,0,0.1477,-0.0070541,0,0.14787,-0.16835,-0.23004,-0.15097,88.61,-0.18312,0.071968,-1.5446e-05,0.74,0.72,0
0.22082,0.008877,0.25647,-0.22915,-0.1625,-0.14599,0.0013748,0,0,-0.97296,-0.19315,0,0.03217,0,0,0.14813,-0.006385,0,0.14827,-0.16247,-0.22918,-0.14599,88.819,-0.17921,0.076294,-1.9269e-05,0.76,0.72,0
0.20088,0.008379,0.22976,-0.22843,-0.15678,-0.14109,0.0012843,0,0,-1.0218,-0.18357,0,0.030052,0,0,0.14876,-0.0057081,0,0.14887,-0.15676,-0.22845,-0.14109,88.973,-0.17543,0.080676,-2.3577e-05,0.78,0.72,0
0.17995,0.007969,0.20291,-0.22782,-0.15124,-0.13626,0.0012217,0,0,-1.0712,-0.1752,0,0.028589,0,0,0.14958,-0.0050199,0,0.14966,-0.15122,-0.22784,-0.13626,89.086,-0.17177,0.08509,-2.8375e-05,0.8,0.72,0
0.15803,0.0076638,0.17591,-0.22731,-0.14588,-0.1315,0.0011881,0,0,-1.1209,-0.1682,0,0.027801,0,0,0.15057,-0.0043193,0,0.15063,-0.14586,-0.22732,-0.1315,89.164,-0.16823,0.089513,-3.3664e-05,0.82,0.72,0
0.13511,0.0074801,0.14871,-0.22688,-0.1407,-0.1268,0.0011872,0,0,-1.1709,-0.16267,0,0.027779,0,0,0.15168,-0.0036081,0,0.15173,-0.14068,-0.22689,-0.1268,89.211,-0.16479,0.093926,-3.944e-05,0.84,0.72,0
0.11119,0.0074349,0.1213,-0.22651,-0.1357,-0.12214,0.0012245,0,0,-1.2211,-0.15862,0,0.028654,0,0,0.15288,-0.0028912,0,0.15291,-0.13568,-0.22652,-0.12214,89.228,-0.16145,0.098316,-4.5702e-05,0.86,0.72,0
0.086267,0.0075458,0.093674,-0.22618,-0.13085,-0.11752,0.001306,0,0,-1.2714,-0.15601,0,0.030559,0,0,0.15407,-0.0021763,0,0.15408,-0.13083,-0.2262,-0.11752,89.215,-0.15818,0.10267,-5.245e-05,0.88,0.72,0
0.060337,0.007831,0.065837,-0.22588,-0.12615,-0.11292,0.0014357,0,0,-1.3216,-0.15473,0,0.033596,0,0,0.15516,-0.0014724,0,0.15517,-0.12613,-0.2259,-0.11292,89.175,-0.15498,0.10699,-5.9679e-05,0.9,0.72,0
0.033403,0.0083084,0.037816,-0.22558,-0.12158,-0.10835,0.001615,0,0,-1.3716,-0.1548,0,0.03779,0,0,0.15605,-0.00078766,0,0.15606,-0.12156,-0.2256,-0.10835,89.111,-0.15184,0.11124,-6.7353e-05,0.92,0.72,0
0.0054734,0.0089952,0.0096571,-0.22558,-0.19987,-0.133,0.0016829,0,0,-0.74102,-0.15648,0,0.021012,0,0,0.15745,-0.00063599,0,0.15746,-0.17255,-0.25291,-0.133,45.494,-0.18615,0.10887,-3.0972e-05,0.94,0.72,0
0.0037624,0.0090251,0.0064878,-0.22522,-0.27725,-0.15723,0.0013354,0,0,-0.088384,-0.15603,0,0.003472,0,0,0.15993,-0.00060432,0,0.15993,-0.22518,-0.27729,-0.15723,1.469,-0.2199,0.10428,1.3173e-05,0.96,0.72,0
0.001938,0.0090462,0.0032601,-0.22486,-0.27264,-0.15251,0.00072488,0,0,-0.094061,-0.15616,0,0.0018847,0,0,0.1622,-0.00024896,0,0.1622,-0.22485,-0.27265,-0.15251,0.86915,-0.21667,0.10476,2.0378e-05,0.98,0.72,0
0,0.009054,0,-0.22061,-0.26629,-0.14607,0.00014968,0,0,-0.0969,-0.15629,0,0.00038918,0,0,0.16301,-1.1926e-18,0,0.163,-0.22061,-0.26629,-0.14607,0.18774,-0.21099,0.10511,2.3943e-05,1,0.72,0
0,0.0026631,1,-0.35222,-2.1862,-1.7615,-0.0020679,0,0,1.8321,-0.55203,0,-0.0053765,0,0,0.17625,-2.8614e-15,0,0.17605,-0.35221,-2.1862,-1.7615,-0.064604,-1.4333,1.6628,0.18522,0,0.74,0
0.036642,0.0025555,0.99647,-0.34134,-2.1869,-1.7549,-0.020873,0,0,1.8377,-0.56153,0,-0.05427,0,0,0.16842,0.018825,0,0.16951,-0.34111,-2.1871,-1.7549,-0.6479,-1.4277,1.6724,0.18722,0.02,0.74,0
0.073507,0.0024146,0.99326,-0.3264,-2.1936,-1.7493,-0.030875,0,0,1.8497,-0.57761,0,-0.080276,0,0,0.14675,0.032945,0,0.15109,-0.32589,-2.1941,-1.7493,-0.94709,-1.4231,1.6903,0.19132,0.04,0.74,0
0.11063,0.0024769,0.9906,-0.27367,-1.2533,-1.0084,-0.03115,0,0,1.172,-0.57296,0,-0.38704,0,0,0.12375,0.021257,0,0.12702,-0.26903,-1.2579,-1.0084,-8.7506,-0.84512,0.89322,0.096596,0.06,0.74,0
0.12039,-0.0095236,0.96998,-0.24146,-0.37254,-0.29198,-0.027215,0,0,0.59101,-0.94261,0,-0.63683,0,0,0.11226,0.0037471,0,0.11235,-0.23604,-0.37797,-0.29198,-11.275,-0.302,0.12383,-3.4804e-05,0.08,0.74,0
0.13427,-0.019054,0.95019,-0.22697,-0.39484,-0.29212,-0.021115,0,0,0.76229,-1.2019,0,-0.49409,0,0,0.10758,0.002064,0,0.10763,-0.22435,-0.39746,-0.29212,-7.0601,-0.30464,0.15109,-6.4707e-05,0.1,0.74,0
0.15088,-0.025971,0.93125,-0.21602,-0.40707,-0.2904,-0.015407,0,0,0.87024,-1.3651,0,-0.36053,0,0,0.10313,-0.00043926,0,0.10315,-0.21479,-0.40831,-0.2904,-4.5812,-0.3045,0.16892,-9.1028e-05,0.12,0.74,0
0.16908,-0.03075,0.91307,-0.20816,-0.41289,-0.28777,-0.01096,0,0,0.93143,-1.464,0,-0.25647,0,0,0.099353,-0.0033233,0,0.099416,-0.20757,-0.41348,-0.28777,-3.0556,-0.30294,0.17977,-0.0001109,0.14,0.74,0
0.18814,-0.033907,0.89548,-0.20229,-0.41447,-0.28453,-0.0074553,0,0,0.9622,-1.5204,0,-0.17445,0,0,0.096415,-0.0062647,0,0.096619,-0.20203,-0.41474,-0.28453,-2.0098,-0.30043,0.18575,-0.00012402,0.16,0.74,0
0.20757,-0.035766,0.87836,-0.19771,-0.41293,-0.28079,-0.0043685,0,0,0.972,-1.5461,0,-0.10222,0,0,0.09431,-0.0091276,0,0.094747,-0.19762,-0.41302,-0.28079,-1.1623,-0.29714,0.18815,-0.00013078,0.18,0.74,0
0.22702,-0.036466,0.86153,-0.1941,-0.40883,-0.2766,-0.0013228,0,0,0.96533,-1.547,0,-0.030953,0,0,0.092987,-0.011882,0,0.093737,-0.19409,-0.40884,-0.2766,-0.35293,-0.29318,0.18763,-0.00013169,0.2,0.74,0
0.24618,-0.036014,0.84488,-0.19134,-0.40239,-0.27199,0.0019564,0,0,0.94362,-1.5256,0,0.04578,0,0,0.092415,-0.014538,0,0.093545,-0.19133,-0.40241,-0.27199,0.53108,-0.28858,0.18449,-0.00012726,0.22,0.74,0
0.26476,-0.034313,0.82827,-0.18952,-0.39355,-0.26695,0.0057333,0,0,0.90595,-1.4812,0,0.13416,0,0,0.092605,-0.017102,0,0.094165,-0.18935,-0.39371,-0.26695,1.6083,-0.28334,0.17867,-0.00011787,0.24,0.74,0
0.28242,-0.031157,0.81154,-0.1889,-0.38194,-0.26142,0.010328,0,0,0.84854,-1.41,0,0.24167,0,0,0.093598,-0.019545,0,0.095614,-0.18835,-0.38249,-0.26142,3.0538,-0.27742,0.16984,-0.0001038,0.26,0.74,0
0.2987,-0.026218,0.79457,-0.19006,-0.36673,-0.25532,0.016099,0,0,0.76358,-1.3035,0,0.37671,0,0,0.095411,-0.021745,0,0.097861,-0.18861,-0.36819,-0.25532,5.1642,-0.27071,0.15723,-8.5361e-05,0.28,0.74,0
0.31296,-0.019082,0.7772,-0.19385,-0.34638,-0.24843,0.023097,0,0,0.63852,-1.1461,0,0.54047,0,0,0.097939,-0.023439,0,0.10071,-0.19043,-0.3498,-0.24843,8.4244,-0.26289,0.13972,-6.3145e-05,0.3,0.74,0
0.32424,-0.0094773,0.75931,-0.20062,-0.31846,-0.24009,0.030363,0,0,0.46183,-0.91688,0,0.7105,0,0,0.10085,-0.024322,0,0.10376,-0.19325,-0.32582,-0.24009,13.632,-0.25305,0.11644,-3.9115e-05,0.32,0.74,0
0.33143,0.0022801,0.74089,-0.237,-1.0621,-0.80132,0.040902,0,0,0.89343,-0.61014,0,0.46452,0,0,0.10878,-0.1213,0,0.17607,-0.23006,-1.069,-0.80132,10.797,-0.70013,0.74477,0.043964,0.34,0.74,0
0.35998,0.00038236,0.73859,-0.26343,-1.7281,-1.3361,0.060383,0,0,1.3944,-0.50971,0,0.15699,0,0,0.12544,-0.21502,0,0.24914,-0.26095,-1.7306,-1.3361,2.3567,-1.1092,1.3175,0.08291,0.36,0.74,0
0.38721,-0.00078815,0.73587,-0.28018,-1.6015,-1.3004,0.066574,0,0,1.3263,-0.39148,0,0.17309,0,0,0.14326,-0.20768,0,0.25239,-0.27683,-1.6049,-1.3004,2.8771,-1.0607,1.205,0.07089,0.38,0.74,0
0.41303,-0.0021259,0.73285,-0.29427,-1.4791,-1.2649,0.050648,0,0,1.2618,-0.27852,0,0.13168,0,0,0.15576,-0.20012,0,0.25362,-0.29211,-1.4813,-1.2649,2.4433,-1.0128,1.0971,0.059022,0.4,0.74,0
0.43768,-0.0046155,0.72964,-0.27576,-0.81245,-0.73182,0.024608,0,0,0.40572,-0.18868,0,0.22835,0,0,0.16258,-0.10856,0,0.20944,-0.26095,-0.82726,-0.73182,31.411,-0.60668,0.53578,0.026167,0.42,0.74,0
0.42926,-0.0014457,0.70003,-0.27162,-0.25184,-0.23482,0.013307,0,0,-0.43058,-0.19912,0,0.31139,0,0,0.16429,-0.019298,0,0.16542,-0.24515,-0.27831,-0.23482,63.312,-0.25276,0.039357,-2.419e-06,0.44,0.74,0
0.42046,0.0011288,0.6705,-0.26714,-0.24779,-0.22898,0.010746,0,0,-0.4465,-0.22012,0,0.25146,0,0,0.1635,-0.017351,0,0.16442,-0.24301,-0.27193,-0.22898,65.997,-0.24797,0.037931,-1.5657e-06,0.46,0.74,0
0.4114,0.0031728,0.64117,-0.26241,-0.24387,-0.22312,0.0086997,0,0,-0.45963,-0.24269,0,0.20357,0,0,0.16208,-0.015797,0,0.16285,-0.24042,-0.26585,-0.22312,68.41,-0.24313,0.037225,-8.5375e-07,0.48,0.74,0
0.40208,0.0047567,0.61215,-0.25785,-0.23963,-0.21726,0.0070462,0,0,-0.47492,-0.26172,0,0.16488,0,0,0.1603,-0.014549,0,0.16096,-0.23722,-0.26026,-0.21726,71.142,-0.23825,0.037269,-3.2819e-07,0.5,0.74,0
0.3924,0.0059419,0.58346,-0.25369,-0.23492,-0.21141,0.005685,0,0,-0.49467,-0.275,0,0.13303,0,0,0.15838,-0.013531,0,0.15896,-0.23333,-0.25528,-0.21141,74.401,-0.23334,0.03799,-3.5586e-09,0.52,0.74,0
0.38229,0.0067804,0.55513,-0.24999,-0.22971,-0.20559,0.0045502,0,0,-0.51945,-0.28221,0,0.10648,0,0,0.15646,-0.012679,0,0.15698,-0.22874,-0.25096,-0.20559,77.915,-0.22843,0.039296,1.0945e-07,0.54,0.74,0
0.37163,0.0073187,0.52714,-0.24674,-0.22409,-0.19982,0.0036039,0,0,-0.54895,-0.28396,0,0.08433,0,0,0.15465,-0.011947,0,0.15512,-0.22353,-0.2473,-0.19982,81.174,-0.22355,0.041118,-7.581e-09,0.56,0.74,0
0.36033,0.0076013,0.49946,-0.24389,-0.21815,-0.19411,0.0028236,0,0,-0.58249,-0.28127,0,0.066073,0,0,0.15302,-0.011302,0,0.15344,-0.21784,-0.2442,-0.19411,83.814,-0.21872,0.0434,-3.8024e-07,0.58,0.74,0
0.34833,0.0076718,0.47205,-0.2414,-0.21199,-0.18847,0.0021942,0,0,-0.61931,-0.2752,0,0.051345,0,0,0.1516,-0.010718,0,0.15198,-0.21182,-0.24156,-0.18847,85.757,-0.21395,0.046092,-1.0371e-06,0.6,0.74,0
0.33556,0.0075723,0.44488,-0.2392,-0.2057,-0.1829,0.001702,0,0,-0.65874,-0.26671,0,0.039827,0,0,0.15042,-0.010178,0,0.15077,-0.20561,-0.23929,-0.1829,87.1,-0.20927,0.049141,-2.0068e-06,0.62,0.74,0
0.32198,0.0073433,0.4179,-0.23727,-0.19935,-0.17742,0.0013323,0,0,-0.70025,-0.25659,0,0.031177,0,0,0.14948,-0.0096716,0,0.14979,-0.1993,-0.23732,-0.17742,87.99,-0.20468,0.052496,-3.3166e-06,0.64,0.74,0
0.30755,0.0070221,0.39107,-0.23556,-0.193,-0.17202,0.0010691,0,0,-0.74345,-0.24546,0,0.025018,0,0,0.14877,-0.0091891,0,0.14905,-0.19298,-0.23559,-0.17202,88.562,-0.2002,0.056108,-4.993e-06,0.66,0.74,0
0.29224,0.0066425,0.36434,-0.23406,-0.18669,-0.16671,0.00089523,0,0,-0.78804,-0.23383,0,0.020948,0,0,0.1483,-0.0087242,0,0.14856,-0.18668,-0.23408,-0.16671,88.918,-0.19582,0.059936,-7.0623e-06,0.68,0.74,0
0.27603,0.006234,0.33768,-0.23275,-0.18046,-0.16148,0.00079312,0,0,-0.83382,-0.22206,0,0.018559,0,0,0.14806,-0.008271,0,0.14829,-0.18045,-0.23276,-0.16148,89.131,-0.19157,0.063941,-9.5504e-06,0.7,0.74,0
0.25889,0.0058218,0.31104,-0.23161,-0.17434,-0.15635,0.00074589,0,0,-0.88064,-0.2105,0,0.017454,0,0,0.14805,-0.007824,0,0.14826,-0.17433,-0.23162,-0.15635,89.254,-0.18743,0.068092,-1.2483e-05,0.72,0.74,0
0.2408,0.0054271,0.28438,-0.23064,-0.16833,-0.15129,0.00073809,0,0,-0.92837,-0.19941,0,0.017271,0,0,0.14827,-0.007377,0,0.14845,-0.16832,-0.23064,-0.15129,89.321,-0.18342,0.072359,-1.5882e-05,0.74,0.74,0
0.22175,0.0050675,0.25766,-0.22981,-0.16247,-0.14631,0.00075665,0,0,-0.97689,-0.18905,0,0.017706,0,0,0.1487,-0.0069228,0,0.14886,-0.16246,-0.22982,-0.14631,89.356,-0.17953,0.076714,-1.9768e-05,0.76,0.74,0
0.20172,0.004758,0.23085,-0.22911,-0.15677,-0.14141,0.00079174,0,0,-1.026,-0.17966,0,0.018527,0,0,0.14934,-0.0064524,0,0.14948,-0.15676,-0.22912,-0.14141,89.373,-0.17577,0.081128,-2.415e-05,0.78,0.74,0
0.18071,0.0045121,0.2039,-0.22853,-0.15124,-0.13659,0.00083757,0,0,-1.0757,-0.17147,0,0.019599,0,0,0.15019,-0.0059547,0,0.1503,-0.15123,-0.22854,-0.13659,89.379,-0.17212,0.085573,-2.9032e-05,0.8,0.74,0
0.1587,0.004343,0.17678,-0.22804,-0.1459,-0.13182,0.00089294,0,0,-1.1257,-0.16468,0,0.020895,0,0,0.1512,-0.0054164,0,0.1513,-0.14589,-0.22805,-0.13182,89.377,-0.16859,0.090022,-3.4406e-05,0.82,0.74,0
0.13568,0.0042654,0.14947,-0.22763,-0.14075,-0.12712,0.00096119,0,0,-1.176,-0.15942,0,0.022492,0,0,0.15236,-0.0048219,0,0.15244,-0.14074,-0.22764,-0.12712,89.366,-0.16517,0.094452,-4.0262e-05,0.84,0.74,0
0.11166,0.0042956,0.12193,-0.22727,-0.13577,-0.12246,0.0010488,0,0,-1.2263,-0.15575,0,0.024543,0,0,0.15359,-0.0041549,0,0.15365,-0.13576,-0.22728,-0.12246,89.343,-0.16184,0.098845,-4.6588e-05,0.86,0.74,0
0.086628,0.0044527,0.094174,-0.22695,-0.13097,-0.11784,0.0011629,0,0,-1.2766,-0.15361,0,0.027212,0,0,0.15482,-0.003401,0,0.15486,-0.13095,-0.22696,-0.11784,89.306,-0.15859,0.10319,-5.3379e-05,0.88,0.74,0
0.060593,0.0047566,0.066197,-0.22664,-0.12631,-0.11324,0.0013066,0,0,-1.3268,-0.15287,0,0.030574,0,0,0.15596,-0.0025504,0,0.15598,-0.12629,-0.22666,-0.11324,89.254,-0.1554,0.10749,-6.0631e-05,0.9,0.74,0
0.033556,0.0052257,0.038029,-0.22633,-0.12177,-0.10866,0.0014751,0,0,-1.3768,-0.15347,0,0.034518,0,0,0.15688,-0.0016025,0,0.15689,-0.12175,-0.22635,-0.10866,89.192,-0.15225,0.11172,-6.8316e-05,0.92,0.74,0
0.0055222,0.005873,0.009719,-0.22631,-0.19968,-0.1332,0.0014529,0,0,-0.74401,-0.15557,0,0.018954,0,0,0.15834,-0.0028461,0,0.15838,-0.17303,-0.25296,-0.1332,45.385,-0.1864,0.10882,-3.0673e-05,0.94,0.74,0
0.003795,0.0059126,0.0065311,-0.22592,-0.27666,-0.15731,0.00097486,0,0,-0.089198,-0.15517,0,0.0025346,0,0,0.16091,-0.0037933,0,0.16096,-0.2259,-0.27668,-0.15731,1.1002,-0.21996,0.10377,1.4631e-05,0.96,0.74,0
0.0019543,0.005933,0.0032824,-0.22555,-0.27207,-0.15257,0.00042918,0,0,-0.094874,-0.15536,0,0.0011159,0,0,0.16328,-0.0020215,0,0.16329,-0.22555,-0.27208,-0.15257,0.52848,-0.21673,0.10434,2.1703e-05,0.98,0.74,0
0,0.0059392,0,-0.22126,-0.26571,-0.14609,0.00011983,0,0,-0.097715,-0.15551,0,0.00031156,0,0,0.16412,-3.5779e-18,0,0.16412,-0.22126,-0.26571,-0.14609,0.15444,-0.21102,0.10473,2.5204e-05,1,0.74,0
0,-0.0079563,1,-0.40398,-2.1326,-1.761,-0.0079443,0,0,1.7641,-0.4831,0,-0.020655,0,0,0.20351,-2.2274e-15,0,0.20284,-0.40394,-2.1326,-1.761,-0.26331,-1.4325,1.5761,0.164,0,0.76,0
0.035282,-0.0083694,0.99593,-0.38657,-2.152,-1.7575,-0.049542,0,0,1.7822,-0.51286,0,-0.12881,0,0,0.19242,0.038986,0,0.19612,-0.38518,-2.1534,-1.7575,-1.6061,-1.432,1.6073,0.17042,0.02,0.76,0
0.071289,-0.0090771,0.9923,-0.35729,-2.1977,-1.7588,-0.067678,0,0,1.822,-0.57059,0,-0.17596,0,0,0.16125,0.069571,0,0.17664,-0.3548,-2.2002,-1.7588,-2.1031,-1.4379,1.6691,0.18369,0.04,0.76,0
0.10816,-0.0089628,0.98948,-0.28437,-1.2624,-1.0137,-0.058935,0,0,1.1593,-0.58187,0,-0.67601,0,0,0.12787,0.046205,0,0.14018,-0.27194,-1.2748,-1.0137,-13.052,-0.85351,0.90414,0.09518,0.06,0.76,0
0.11766,-0.028858,0.96886,-0.24563,-0.3837,-0.29645,-0.04486,0,0,0.59462,-1.0208,0,-1.0497,0,0,0.1114,0.0096451,0,0.11186,-0.23233,-0.397,-0.29645,-16.508,-0.30859,0.14376,-5.6761e-05,0.08,0.76,0
0.13195,-0.04362,0.94938,-0.22851,-0.40383,-0.29519,-0.033285,0,0,0.78014,-1.2711,0,-0.77887,0,0,0.10531,0.0075927,0,0.10562,-0.22241,-0.40994,-0.29519,-10.396,-0.30918,0.16376,-8.4805e-05,0.1,0.76,0
0.14886,-0.053657,0.93095,-0.21715,-0.41321,-0.29255,-0.023979,0,0,0.88217,-1.4118,0,-0.56111,0,0,0.10004,0.0039936,0,0.10014,-0.21426,-0.41611,-0.29255,-6.8723,-0.30764,0.17626,-0.00010597,0.12,0.76,0
0.16723,-0.060305,0.91336,-0.20921,-0.4174,-0.28947,-0.017435,0,0,0.939,-1.4968,0,-0.40797,0,0,0.095996,1.4525e-05,0,0.095996,-0.20776,-0.41885,-0.28947,-4.754,-0.30536,0.18436,-0.00012206,0.14,0.76,0
0.18642,-0.064542,0.89639,-0.20311,-0.41822,-0.286,-0.012524,0,0,0.96981,-1.547,0,-0.29307,0,0,0.093093,-0.0038602,0,0.093167,-0.20238,-0.41895,-0.286,-3.3209,-0.30244,0.18917,-0.00013292,0.16,0.76,0
0.20603,-0.066906,0.87985,-0.19822,-0.41637,-0.28214,-0.0084047,0,0,0.98182,-1.5705,0,-0.19667,0,0,0.091115,-0.0075208,0,0.091417,-0.1979,-0.41669,-0.28214,-2.2031,-0.29891,0.19114,-0.00013835,0.18,0.76,0
0.2257,-0.067636,0.86359,-0.19434,-0.4123,-0.27795,-0.0045208,0,0,0.97817,-1.572,0,-0.10579,0,0,0.089914,-0.010995,0,0.090574,-0.19425,-0.4124,-0.27795,-1.1877,-0.29487,0.19062,-0.00013871,0.2,0.76,0
0.24515,-0.066785,0.84748,-0.19134,-0.40621,-0.27343,-0.00045199,0,0,0.96046,-1.5536,0,-0.010577,0,0,0.089431,-0.014357,0,0.090566,-0.19134,-0.40621,-0.27343,-0.12052,-0.29033,0.18781,-0.0001344,0.22,0.76,0
0.26411,-0.06425,0.83139,-0.18921,-0.39807,-0.26856,0.0042194,0,0,0.92839,-1.5152,0,0.098734,0,0,0.0897,-0.017682,0,0.091416,-0.18913,-0.39816,-0.26856,1.1569,-0.28528,0.18275,-0.00012582,0.24,0.76,0
0.28229,-0.059761,0.81519,-0.18809,-0.38757,-0.26327,0.01001,0,0,0.87969,-1.4543,0,0.23423,0,0,0.090846,-0.021009,0,0.093236,-0.18759,-0.38807,-0.26327,2.8654,-0.27964,0.17535,-0.0001133,0.26,0.76,0
0.2993,-0.052825,0.79869,-0.18852,-0.37417,-0.25755,0.017591,0,0,0.8076,-1.3644,0,0.41163,0,0,0.093064,-0.024255,0,0.096175,-0.18687,-0.37582,-0.25755,5.3656,-0.27341,0.16535,-9.7473e-05,0.28,0.76,0
0.31459,-0.04268,0.78168,-0.19177,-0.3562,-0.25124,0.027653,0,0,0.69585,-1.228,0,0.64707,0,0,0.09641,-0.02701,0,0.10014,-0.18724,-0.36073,-0.25124,9.2951,-0.26641,0.15195,-7.8484e-05,0.3,0.76,0
0.32714,-0.028459,0.76398,-0.19938,-0.32941,-0.24352,0.039313,0,0,0.5165,-1.0049,0,0.91992,0,0,0.1005,-0.028316,0,0.10444,-0.18842,-0.34037,-0.24352,15.58,-0.25744,0.13324,-5.5228e-05,0.32,0.76,0
0.33525,-0.010198,0.7455,-0.23992,-1.089,-0.81285,0.057527,0,0,0.92513,-0.64622,0,0.62877,0,0,0.11139,-0.13817,0,0.19131,-0.22873,-1.1002,-0.81285,12.652,-0.71393,0.77161,0.045472,0.34,0.76,0
0.36414,-0.0099139,0.7431,-0.26988,-1.7482,-1.3485,0.08489,0,0,1.4022,-0.51957,0,0.22071,0,0,0.13321,-0.23967,0,0.27446,-0.26502,-1.753,-1.3485,3.2758,-1.1222,1.3326,0.084857,0.36,0.76,0
0.39134,-0.0084874,0.74018,-0.28856,-1.5876,-1.303,0.088955,0,0,1.3188,-0.36995,0,0.23128,0,0,0.15388,-0.22259,0,0.27061,-0.28249,-1.5937,-1.303,3.8992,-1.0597,1.1927,0.070006,0.38,0.76,0
0.41689,-0.0073722,0.73695,-0.30406,-1.4441,-1.2614,0.060206,0,0,1.2445,-0.23751,0,0.15654,0,0,0.16426,-0.20611,0,0.26351,-0.30089,-1.4473,-1.2614,3.0147,-1.0032,1.0657,0.055836,0.4,0.76,0
0.44112,-0.0078673,0.7336,-0.28016,-0.78128,-0.72599,0.023084,0,0,0.37062,-0.12937,0,0.175,0,0,0.16726,-0.10978,0,0.21381,-0.26314,-0.7983,-0.72599,36.673,-0.59581,0.51399,0.023844,0.42,0.76,0
0.43172,-0.0050143,0.70346,-0.27596,-0.24904,-0.23566,0.0081201,0,0,-0.47148,-0.15651,0,0.19001,0,0,0.16694,-0.018441,0,0.16795,-0.24678,-0.27822,-0.23566,74.45,-0.25355,0.03823,-2.0727e-06,0.44,0.76,0
0.42226,-0.0029497,0.67351,-0.2701,-0.24583,-0.22961,0.0054418,0,0,-0.47369,-0.18973,0,0.12734,0,0,0.16555,-0.015796,0,0.16631,-0.24466,-0.27126,-0.22961,77.924,-0.24851,0.03653,-1.1475e-06,0.46,0.76,0
0.41277,-0.0014235,0.64386,-0.26444,-0.24243,-0.2236,0.0037229,0,0,-0.4778,-0.2203,0,0.087116,0,0,0.16365,-0.01385,0,0.16424,-0.24182,-0.26505,-0.2236,80.654,-0.24349,0.035984,-4.9725e-07,0.48,0.76,0
0.40315,-0.00026684,0.61459,-0.25929,-0.23852,-0.21763,0.0025869,0,0,-0.48745,-0.24437,0,0.060534,0,0,0.1615,-0.012441,0,0.16198,-0.2382,-0.25961,-0.21763,83.008,-0.23848,0.036358,-8.5606e-08,0.5,0.76,0
0.39327,0.00061849,0.58572,-0.25476,-0.23401,-0.21171,0.0017822,0,0,-0.50365,-0.26092,0,0.041704,0,0,0.1593,-0.011426,0,0.15972,-0.23386,-0.25491,-0.21171,85.125,-0.23349,0.037415,1.185e-07,0.52,0.76,0
0.383,0.0012863,0.55724,-0.25081,-0.22896,-0.20585,0.0011677,0,0,-0.52607,-0.27042,0,0.027325,0,0,0.15719,-0.010691,0,0.15756,-0.2289,-0.25087,-0.20585,86.95,-0.22854,0.038997,1.2594e-07,0.54,0.76,0
0.37223,0.0017675,0.52913,-0.24739,-0.22346,-0.20005,0.00067652,0,0,-0.55386,-0.27398,0,0.015831,0,0,0.15525,-0.010147,0,0.15558,-0.22345,-0.24741,-0.20005,88.381,-0.22363,0.041014,-7.2775e-08,0.56,0.76,0
0.36085,0.0020848,0.50135,-0.24441,-0.21764,-0.19432,0.0002835,0,0,-0.58603,-0.27286,0,0.0066339,0,0,0.15352,-0.009728,0,0.15383,-0.21764,-0.24441,-0.19432,89.393,-0.21879,0.043415,-5.0057e-07,0.58,0.76,0
0.34879,0.0022596,0.47386,-0.24181,-0.2116,-0.18867,-1.7839e-05,0,0,-0.62171,-0.26821,0,-0.00041743,0,0,0.15205,-0.0093884,0,0.15234,-0.2116,-0.24181,-0.18867,-89.966,-0.21403,0.046163,-1.1868e-06,0.6,0.76,0
0.33598,0.002315,0.44662,-0.23953,-0.20542,-0.18311,-0.000229,0,0,-0.66018,-0.261,0,-0.0053587,0,0,0.15082,-0.0090981,0,0.1511,-0.20542,-0.23954,-0.18311,-89.615,-0.20935,0.049223,-2.163e-06,0.62,0.76,0
0.32238,0.0022755,0.41957,-0.23754,-0.19917,-0.17763,-0.00035287,0,0,-0.70091,-0.25201,0,-0.0082573,0,0,0.14985,-0.0088382,0,0.15011,-0.19917,-0.23754,-0.17763,-89.473,-0.20478,0.052562,-3.4612e-06,0.64,0.76,0
0.30795,0.0021661,0.39267,-0.23578,-0.19291,-0.17224,-0.0003959,0,0,-0.74349,-0.24185,0,-0.009264,0,0,0.14913,-0.0085971,0,0.14938,-0.1929,-0.23579,-0.17224,-89.471,-0.20031,0.056146,-5.1138e-06,0.66,0.76,0
0.29264,0.0020106,0.36588,-0.23425,-0.18667,-0.16693,-0.00036816,0,0,-0.78766,-0.23099,0,-0.0086149,0,0,0.14864,-0.0083679,0,0.14888,-0.18667,-0.23426,-0.16693,-89.557,-0.19595,0.059944,-7.1538e-06,0.68,0.76,0
0.27644,0.0018307,0.33916,-0.23293,-0.1805,-0.16171,-0.00028257,0,0,-0.83321,-0.21982,0,-0.0066121,0,0,0.1484,-0.0081459,0,0.14862,-0.1805,-0.23293,-0.16171,-89.691,-0.19171,0.063928,-9.6145e-06,0.7,0.76,0
0.25931,0.0016451,0.31246,-0.23179,-0.17441,-0.15658,-0.00015384,0,0,-0.87998,-0.20866,0,-0.0035997,0,0,0.14839,-0.0079272,0,0.1486,-0.17441,-0.23179,-0.15658,-89.846,-0.18759,0.068071,-1.2529e-05,0.72,0.76,0
0.24124,0.0014691,0.28574,-0.23083,-0.16843,-0.15153,2.6463e-06,0,0,-0.92785,-0.19779,0,6.1922e-05,0,0,0.1486,-0.0077065,0,0.1488,-0.16843,-0.23083,-0.15153,89.998,-0.1836,0.072347,-1.5927e-05,0.74,0.76,0
0.2222,0.0013151,0.25896,-0.23003,-0.16258,-0.14656,0.00017196,0,0,-0.97667,-0.18749,0,0.0040238,0,0,0.14905,-0.0074759,0,0.14924,-0.16258,-0.23004,-0.14656,89.854,-0.17973,0.07673,-1.9833e-05,0.76,0.76,0
0.20217,0.0011927,0.23208,-0.22939,-0.15688,-0.14167,0.00034104,0,0,-1.0263,-0.17804,0,0.0079804,0,0,0.14972,-0.0072231,0,0.1499,-0.15688,-0.22939,-0.14167,89.731,-0.17598,0.081189,-2.4264e-05,0.78,0.76,0
0.18115,0.0011104,0.20506,-0.22886,-0.15135,-0.13685,0.00050039,0,0,-1.0766,-0.1697,0,0.011709,0,0,0.15061,-0.0069295,0,0.15077,-0.15135,-0.22887,-0.13685,89.63,-0.17236,0.085692,-2.9223e-05,0.8,0.76,0
0.15911,0.0010768,0.17786,-0.22844,-0.146,-0.1321,0.00064581,0,0,-1.1272,-0.16274,0,0.015112,0,0,0.1517,-0.0065693,0,0.15184,-0.146,-0.22845,-0.1321,89.551,-0.16885,0.090205,-3.4698e-05,0.82,0.76,0
0.13606,0.0011032,0.15045,-0.2281,-0.14085,-0.1274,0.00077954,0,0,-1.1781,-0.15737,0,0.018241,0,0,0.15295,-0.0061084,0,0.15307,-0.14084,-0.2281,-0.1274,89.488,-0.16545,0.094699,-4.067e-05,0.84,0.76,0
0.11199,0.0012048,0.1228,-0.2278,-0.13589,-0.12275,0.00090946,0,0,-1.2291,-0.15371,0,0.021281,0,0,0.1543,-0.0055073,0,0.1544,-0.13588,-0.22781,-0.12275,89.433,-0.16215,0.09915,-4.7115e-05,0.86,0.76,0
0.086894,0.0014016,0.094899,-0.22753,-0.1311,-0.11813,0.0010451,0,0,-1.28,-0.15169,0,0.024454,0,0,0.15567,-0.0047254,0,0.15575,-0.13109,-0.22754,-0.11813,89.379,-0.15892,0.10354,-5.4018e-05,0.88,0.76,0
0.060787,0.0017163,0.066755,-0.22727,-0.12646,-0.11353,0.0011904,0,0,-1.3307,-0.15118,0,0.027855,0,0,0.15696,-0.00373,0,0.15701,-0.12644,-0.22728,-0.11353,89.324,-0.15575,0.10787,-6.1371e-05,0.9,0.76,0
0.033668,0.0021696,0.038393,-0.22698,-0.12193,-0.10894,0.0013364,0,0,-1.3811,-0.15201,0,0.031272,0,0,0.15804,-0.0025078,0,0.15806,-0.12191,-0.22699,-0.10894,89.271,-0.15262,0.11213,-6.9156e-05,0.92,0.76,0
0.0055446,0.0027723,0.009862,-0.22686,-0.19919,-0.1333,0.0011737,0,0,-0.74659,-0.1542,0,0.016623,0,0,0.15981,-0.0053765,0,0.15997,-0.17334,-0.25272,-0.1333,45.228,-0.18645,0.10861,-3.0349e-05,0.94,0.76,0
0.0038039,0.0028185,0.0066395,-0.2263,-0.27587,-0.15729,0.00046778,0,0,-0.089713,-0.15415,0,0.0012162,0,0,0.16303,-0.0074608,0,0.16321,-0.2263,-0.27587,-0.15729,0.54063,-0.21982,0.10315,1.5738e-05,0.96,0.76,0
0.0019561,0.0028319,0.003341,-0.22579,-0.27188,-0.15264,1.3126e-06,0,0,-0.095097,-0.15501,0,3.4128e-06,0,0,0.16599,-0.0040649,0,0.16603,-0.22579,-0.27188,-0.15264,0.001632,-0.21677,0.10414,2.2108e-05,0.98,0.76,0
0,0.0028337,0,-0.22134,-0.2657,-0.14611,3.4055e-05,0,0,-0.097803,-0.15546,0,8.8542e-05,0,0,0.16705,-3.9031e-18,0,0.16704,-0.22134,-0.2657,-0.14611,0.043995,-0.21105,0.10471,2.5328e-05,1,0.76,0
0,-0.016661,1,-0.51643,-2.0525,-1.7707,-0.024955,0,0,1.6305,-0.36633,0,-0.064884,0,0,0.25422,-6.0368e-16,0,0.25293,-0.51603,-2.0529,-1.7707,-0.93054,-1.4465,1.417,0.12681,0,0.78,0
0.03261,-0.017959,0.99492,-0.46321,-2.0633,-1.7529,-0.093921,0,0,1.6765,-0.40356,0,-0.24419,0,0,0.23799,0.062378,0,0.24488,-0.45771,-2.0688,-1.7529,-3.3478,-1.4265,1.4787,0.14083,0.02,0.78,0
0.067062,-0.020409,0.99048,-0.41318,-2.1984,-1.774,-0.1441,0,0,1.769,-0.55179,0,-0.37465,0,0,0.19094,0.12817,0,0.2317,-0.40162,-2.21,-1.774,-4.5851,-1.4619,1.6346,0.17165,0.04,0.78,0
0.10337,-0.020798,0.98728,-0.323,-1.3218,-1.0419,-0.10111,0,0,1.1499,-0.65496,0,-1.0566,0,0,0.13775,0.085459,0,0.1704,-0.29793,-1.3469,-1.0419,-16.254,-0.89559,0.93801,0.092466,0.06,0.78,0
0.11306,-0.050357,0.96651,-0.25171,-0.40416,-0.30415,-0.065583,0,0,0.6136,-1.1701,0,-1.5347,0,0,0.11061,0.018847,0,0.11234,-0.22738,-0.42849,-0.30415,-20.354,-0.32001,0.17579,-0.00011048,0.08,0.78,0
0.12792,-0.069899,0.94746,-0.23124,-0.41704,-0.29976,-0.046019,0,0,0.80161,-1.3722,0,-1.0768,0,0,0.10193,0.014326,0,0.10297,-0.22047,-0.42781,-0.29976,-13.176,-0.31601,0.18121,-0.00012038,0.1,0.78,0
0.14512,-0.082443,0.92981,-0.21931,-0.42185,-0.29566,-0.033041,0,0,0.89328,-1.4764,0,-0.77316,0,0,0.095551,0.0085583,0,0.095933,-0.21406,-0.4271,-0.29566,-9.0351,-0.31227,0.18618,-0.0001299,0.12,0.78,0
0.16365,-0.090623,0.91306,-0.21091,-0.42385,-0.29188,-0.024295,0,0,0.94736,-1.5441,0,-0.56851,0,0,0.091499,0.0031559,0,0.091542,-0.20817,-0.42659,-0.29188,-6.427,-0.30888,0.19087,-0.00013973,0.14,0.78,0
0.18302,-0.095788,0.89687,-0.20424,-0.42322,-0.28789,-0.017852,0,0,0.97872,-1.5834,0,-0.41773,0,0,0.088879,-0.0017043,0,0.088881,-0.2028,-0.42467,-0.28789,-4.6301,-0.30512,0.19388,-0.00014611,0.16,0.78,0
0.2028,-0.098586,0.88106,-0.19911,-0.42069,-0.28384,-0.012615,0,0,0.99126,-1.6012,0,-0.29519,0,0,0.087175,-0.0061115,0,0.087374,-0.1984,-0.4214,-0.28384,-3.248,-0.30121,0.19488,-0.00014888,0.18,0.78,0
0.22267,-0.099344,0.86549,-0.19506,-0.41649,-0.27963,-0.0078975,0,0,0.98944,-1.6012,0,-0.1848,0,0,0.086151,-0.010221,0,0.08674,-0.19478,-0.41677,-0.27963,-2.0401,-0.29706,0.19401,-0.00014796,0.2,0.78,0
0.24237,-0.098156,0.85005,-0.19186,-0.41076,-0.27524,-0.0031017,0,0,0.97552,-1.5857,0,-0.072579,0,0,0.085728,-0.014203,0,0.086881,-0.19181,-0.4108,-0.27524,-0.81161,-0.29262,0.19144,-0.00014359,0.22,0.78,0
0.26169,-0.094923,0.83463,-0.18945,-0.40352,-0.27063,0.002371,0,0,0.94979,-1.5548,0,0.055481,0,0,0.085953,-0.018231,0,0.087849,-0.18942,-0.40354,-0.27063,0.63449,-0.28786,0.18723,-0.0001361,0.24,0.78,0
0.28036,-0.089328,0.81911,-0.18803,-0.39463,-0.26581,0.0091999,0,0,0.91003,-1.5072,0,0.21528,0,0,0.087024,-0.022472,0,0.089863,-0.18762,-0.39504,-0.26581,2.5447,-0.28282,0.18143,-0.00012602,0.26,0.78,0
0.29809,-0.080794,0.8033,-0.18772,-0.38347,-0.26061,0.018393,0,0,0.85287,-1.4374,0,0.43039,0,0,0.08941,-0.027037,0,0.093399,-0.186,-0.38518,-0.26061,5.3213,-0.27727,0.1743,-0.00011373,0.28,0.78,0
0.31448,-0.068201,0.78692,-0.19034,-0.36971,-0.25545,0.031406,0,0,0.76179,-1.3369,0,0.73491,0,0,0.093878,-0.031787,0,0.099134,-0.185,-0.37505,-0.25545,9.6497,-0.27184,0.16641,-0.00010182,0.3,0.78,0
0.32856,-0.049674,0.7695,-0.19928,-0.34782,-0.24963,0.049429,0,0,0.58908,-1.1488,0,1.1566,0,0,0.10023,-0.035177,0,0.1063,-0.18434,-0.36276,-0.24963,16.823,-0.26558,0.15636,-8.7298e-05,0.32,0.78,0
0.33804,-0.023569,0.75084,-0.26101,-1.1488,-0.84008,0.080714,0,0,0.96352,-0.72245,0,0.83647,0,0,0.1185,-0.16449,0,0.21684,-0.24402,-1.1658,-0.84008,14.143,-0.74997,0.8119,0.045533,0.34,0.78,0
0.3671,-0.0204,0.74817,-0.28786,-1.7598,-1.3625,0.12565,0,0,1.397,-0.51654,0,0.32668,0,0,0.15156,-0.27709,0,0.31608,-0.27721,-1.7705,-1.3625,4.844,-1.1367,1.3368,0.085264,0.36,0.78,0
0.39392,-0.015586,0.74477,-0.30754,-1.541,-1.2993,0.10646,0,0,1.2893,-0.31418,0,0.27681,0,0,0.17682,-0.23184,0,0.29119,-0.29842,-1.5501,-1.2993,4.8971,-1.0493,1.1471,0.065199,0.38,0.78,0
0.41867,-0.011626,0.7411,-0.33005,-1.4026,-1.2609,0.060017,0,0,1.2101,-0.18418,0,0.15604,0,0,0.18075,-0.2032,0,0.27183,-0.3267,-1.4059,-1.2609,3.193,-0.99783,1.0145,0.049952,0.4,0.78,0
0.44233,-0.0097903,0.73755,-0.28743,-0.74704,-0.72009,0.016351,0,0,0.33176,-0.063068,0,0.081487,0,0,0.1746,-0.10579,0,0.21662,-0.26733,-0.76714,-0.72009,43.143,-0.58486,0.48933,0.020874,0.42,0.78,0
0.43194,-0.0077059,0.70667,-0.27994,-0.24644,-0.23644,0.0011734,0,0,-0.50906,-0.11707,0,0.027459,0,0,0.17045,-0.016708,0,0.17126,-0.2464,-0.27999,-0.23644,87.996,-0.25427,0.039522,-2.5039e-06,0.44,0.78,0
0.42196,-0.0064603,0.67618,-0.27234,-0.24441,-0.23015,-0.00094112,0,0,-0.49352,-0.16677,0,-0.022022,0,0,0.16809,-0.013546,0,0.16864,-0.24438,-0.27237,-0.23015,-88.072,-0.24897,0.0372,-1.4008e-06,0.46,0.78,0
0.4122,-0.0056392,0.64616,-0.26569,-0.24167,-0.224,-0.0018862,0,0,-0.48771,-0.20669,0,-0.044137,0,0,0.16543,-0.011375,0,0.16583,-0.24152,-0.26583,-0.224,-85.537,-0.24379,0.036386,-6.8499e-07,0.48,0.78,0
0.40245,-0.0050182,0.61663,-0.25999,-0.23807,-0.21793,-0.0022425,0,0,-0.49209,-0.23563,0,-0.052475,0,0,0.16273,-0.0099456,0,0.16304,-0.23785,-0.26022,-0.21793,-84.218,-0.23867,0.036642,-2.542e-07,0.5,0.78,0
0.39252,-0.0044949,0.58758,-0.25515,-0.2337,-0.21194,-0.0023477,0,0,-0.50555,-0.2546,0,-0.054936,0,0,0.16013,-0.0090505,0,0.16039,-0.23345,-0.25541,-0.21194,-83.826,-0.2336,0.037641,-4.9199e-08,0.52,0.78,0
0.38223,-0.0040364,0.55898,-0.25103,-0.22871,-0.20603,-0.0023691,0,0,-0.52646,-0.26538,0,-0.055437,0,0,0.15774,-0.0085211,0,0.15797,-0.22847,-0.25128,-0.20603,-84.006,-0.22859,0.039184,-4.4762e-08,0.54,0.78,0
0.37146,-0.0036405,0.53079,-0.24749,-0.22326,-0.2002,-0.0023685,0,0,-0.55322,-0.26983,0,-0.055422,0,0,0.15562,-0.0082284,0,0.15584,-0.22304,-0.24771,-0.2002,-84.467,-0.22365,0.041158,-2.4091e-07,0.56,0.78,0
0.3601,-0.003313,0.50296,-0.24442,-0.21749,-0.19446,-0.0023535,0,0,-0.58453,-0.26952,0,-0.055072,0,0,0.15378,-0.0080799,0,0.15399,-0.21729,-0.24462,-0.19446,-85.042,-0.21879,0.043502,-6.5376e-07,0.58,0.78,0
0.34808,-0.0030566,0.47543,-0.24174,-0.21151,-0.1888,-0.0023117,0,0,-0.6194,-0.26571,0,-0.054095,0,0,0.15223,-0.0080135,0,0.15245,-0.21134,-0.24192,-0.1888,-85.652,-0.21402,0.046175,-1.3084e-06,0.6,0.78,0
0.33533,-0.0028677,0.44816,-0.2394,-0.2054,-0.18323,-0.002228,0,0,-0.6571,-0.25935,0,-0.052135,0,0,0.15097,-0.0079902,0,0.15118,-0.20525,-0.23954,-0.18323,-86.266,-0.20934,0.049148,-2.2352e-06,0.62,0.78,0
0.32179,-0.0027371,0.42108,-0.23734,-0.19922,-0.17776,-0.0020919,0,0,-0.69714,-0.25118,0,-0.048951,0,0,0.14998,-0.0079876,0,0.15019,-0.19911,-0.23745,-0.17776,-86.868,-0.20477,0.052394,-3.4675e-06,0.64,0.78,0
0.30744,-0.0026518,0.39416,-0.23554,-0.19303,-0.17237,-0.0018999,0,0,-0.73914,-0.24175,0,-0.044458,0,0,0.14924,-0.007994,0,0.14946,-0.19295,-0.23563,-0.17237,-87.446,-0.20031,0.055888,-5.0416e-06,0.66,0.78,0
0.29223,-0.0025971,0.36735,-0.23398,-0.18685,-0.16707,-0.001655,0,0,-0.78287,-0.23151,0,-0.038726,0,0,0.14875,-0.0080045,0,0.14897,-0.1868,-0.23404,-0.16707,-87.991,-0.19597,0.059607,-6.996e-06,0.68,0.78,0
0.27613,-0.0025589,0.34061,-0.23264,-0.18073,-0.16185,-0.0013653,0,0,-0.82815,-0.22079,0,-0.031947,0,0,0.1485,-0.0080173,0,0.14872,-0.18069,-0.23267,-0.16185,-88.495,-0.19174,0.06353,-9.3717e-06,0.7,0.78,0
0.2591,-0.0025246,0.31389,-0.2315,-0.17467,-0.15673,-0.0010432,0,0,-0.87486,-0.20991,0,-0.024411,0,0,0.14849,-0.0080315,0,0.14871,-0.17465,-0.23152,-0.15673,-88.949,-0.18763,0.067637,-1.221e-05,0.72,0.78,0
0.24113,-0.0024846,0.28715,-0.23057,-0.16871,-0.15169,-0.000704,0,0,-0.92288,-0.19911,0,-0.016473,0,0,0.14872,-0.0080444,0,0.14893,-0.1687,-0.23057,-0.15169,-89.348,-0.18365,0.071907,-1.5553e-05,0.74,0.78,0
0.22219,-0.0024322,0.26036,-0.22981,-0.16285,-0.14673,-0.00036466,0,0,-0.9721,-0.18867,0,-0.008533,0,0,0.14918,-0.0080492,0,0.1494,-0.16285,-0.22982,-0.14673,-89.688,-0.1798,0.076314,-1.9436e-05,0.76,0.78,0
0.20225,-0.0023634,0.23345,-0.22923,-0.15714,-0.14185,-4.2325e-05,0,0,-1.0224,-0.17887,0,-0.00099041,0,0,0.14989,-0.0080319,0,0.1501,-0.15714,-0.22923,-0.14185,-89.966,-0.17608,0.080831,-2.3886e-05,0.78,0.78,0
0.18129,-0.0022758,0.20639,-0.2288,-0.15158,-0.13705,0.00024798,0,0,-1.0735,-0.17003,0,0.0058026,0,0,0.15084,-0.0079682,0,0.15105,-0.15158,-0.2288,-0.13705,89.816,-0.17248,0.085422,-2.8915e-05,0.8,0.78,0
0.15931,-0.0021666,0.17915,-0.22849,-0.1462,-0.13231,0.00049643,0,0,-1.1253,-0.16246,0,0.011616,0,0,0.15202,-0.0078203,0,0.15223,-0.1462,-0.2285,-0.13231,89.654,-0.169,0.090048,-3.4515e-05,0.82,0.78,0
0.13628,-0.0020296,0.15167,-0.22827,-0.14101,-0.12764,0.00070151,0,0,-1.1774,-0.1565,0,0.016415,0,0,0.15342,-0.0075346,0,0.15361,-0.14101,-0.22828,-0.12764,89.539,-0.16564,0.094667,-4.0658e-05,0.84,0.78,0
0.11221,-0.0018526,0.12392,-0.22811,-0.13603,-0.12301,0.00087073,0,0,-1.2296,-0.15234,0,0.020375,0,0,0.15498,-0.0070429,0,0.15514,-0.13602,-0.22812,-0.12301,89.458,-0.16238,0.099242,-4.7304e-05,0.86,0.78,0
0.087095,-0.0016151,0.095875,-0.22796,-0.13123,-0.11841,0.0010163,0,0,-1.2818,-0.15002,0,0.023781,0,0,0.1566,-0.0062696,0,0.15673,-0.13122,-0.22798,-0.11841,89.398,-0.1592,0.10375,-5.4423e-05,0.88,0.78,0
0.060939,-0.0012908,0.06754,-0.2278,-0.12658,-0.11382,0.001144,0,0,-1.3336,-0.14932,0,0.026769,0,0,0.15818,-0.005147,0,0.15826,-0.12657,-0.22782,-0.11382,89.353,-0.15607,0.10819,-6.1999e-05,0.9,0.78,0
0.03375,-0.00085459,0.038932,-0.22759,-0.12203,-0.10921,0.0012406,0,0,-1.385,-0.14996,0,0.029029,0,0,0.15954,-0.0036365,0,0.15958,-0.12201,-0.2276,-0.10921,89.327,-0.15294,0.11254,-7.0021e-05,0.92,0.78,0
0.0055383,-0.00029505,0.010106,-0.22723,-0.19809,-0.13321,0.0007834,0,0,-0.74916,-0.15182,0,0.014026,0,0,0.16199,-0.0087569,0,0.16239,-0.17343,-0.2519,-0.13321,44.934,-0.18618,0.1081,-2.9902e-05,0.94,0.78,0
0.003784,-0.00025348,0.0068296,-0.22637,-0.27472,-0.15716,-0.00044749,0,0,-0.089975,-0.15283,0,-0.0011635,0,0,0.16653,-0.012408,0,0.167,-0.22636,-0.27472,-0.15716,-0.5302,-0.21941,0.10235,1.6592e-05,0.96,0.78,0
0.0019392,-0.00026723,0.003445,-0.22557,-0.27227,-0.1528,-0.00079814,0,0,-0.0946,-0.15532,0,-0.0020752,0,0,0.17074,-0.0068354,0,0.17086,-0.22555,-0.27229,-0.1528,-0.97869,-0.21688,0.1043,2.1353e-05,0.98,0.78,0
0,-0.00027913,0,-0.22081,-0.2666,-0.14622,-0.00022892,0,0,-0.096962,-0.15649,0,-0.00059519,0,0,0.17225,6.0715e-18,0,0.17223,-0.22081,-0.2666,-0.14622,-0.28642,-0.21121,0.10524,2.3953e-05,1,0.78,0
0,-0.02261,1,-0.65911,-1.9561,-1.7846,-0.036579,0,0,1.4631,-0.22302,0,-0.095106,0,0,0.32827,-8.7083e-16,0,0.32664,-0.65808,-1.9571,-1.7846,-1.6142,-1.4666,1.222,0.087442,0,0.8,0
0.029262,-0.024512,0.99343,-0.63821,-1.9688,-1.7755,-0.1344,0,0,1.4785,-0.25128,0,-0.34945,0,0,0.32059,0.08066,0,0.32861,-0.62477,-1.9823,-1.7755,-5.7105,-1.4609,1.2669,0.09512,0.02,0.8,0
0.059142,-0.031149,0.98718,-0.44235,-2.0097,-1.7228,-0.23689,0,0,1.6646,-0.37294,0,-0.61592,0,0,0.2527,0.18163,0,0.30805,-0.40732,-2.0447,-1.7228,-8.4099,-1.3916,1.5025,0.14761,0.04,0.8,0
0.095844,-0.035161,0.98333,-0.38625,-1.5009,-1.1124,-0.2204,0,0,1.1558,-0.90895,0,-1.7613,0,0,0.15527,0.19731,0,0.26485,-0.32683,-1.5603,-1.1124,-19.95,-0.99985,1.085,0.099255,0.06,0.8,0
0.10537,-0.075664,0.96208,-0.26549,-0.44204,-0.31916,-0.093309,0,0,0.62785,-1.4377,0,-2.1834,0,0,0.10863,0.03229,0,0.11349,-0.22532,-0.48221,-0.31916,-23.294,-0.34223,0.22515,-0.00026181,0.08,0.8,0
0.12096,-0.098506,0.94422,-0.23487,-0.4354,-0.30599,-0.061069,0,0,0.83219,-1.5141,0,-1.429,0,0,0.095024,0.021126,0,0.097304,-0.21773,-0.45253,-0.30599,-15.672,-0.32542,0.20542,-0.00018438,0.1,0.8,0
0.13866,-0.11271,0.92787,-0.22099,-0.43467,-0.2998,-0.042813,0,0,0.92197,-1.578,0,-1.0018,0,0,0.088874,0.012555,0,0.089717,-0.21274,-0.44293,-0.2998,-10.919,-0.31849,0.20131,-0.00017055,0.12,0.8,0
0.15784,-0.12207,0.91222,-0.21096,-0.43227,-0.29433,-0.031225,0,0,0.9754,-1.6139,0,-0.73066,0,0,0.085733,0.0057028,0,0.08589,-0.20664,-0.43659,-0.29433,-7.879,-0.31252,0.201,-0.0001657,0.14,0.8,0
0.17768,-0.12788,0.897,-0.20451,-0.42942,-0.28985,-0.022953,0,0,0.99841,-1.633,0,-0.53709,0,0,0.083825,-1.2654e-05,0,0.0838,-0.20219,-0.43173,-0.28985,-5.768,-0.30792,0.20063,-0.0001641,0.16,0.8,0
0.19777,-0.13095,0.88205,-0.19976,-0.42572,-0.28565,-0.016674,0,0,1.0049,-1.6389,0,-0.39018,0,0,0.082599,-0.0050021,0,0.082728,-0.19853,-0.42695,-0.28565,-4.1976,-0.30371,0.19966,-0.00016231,0.18,0.8,0
0.21788,-0.13168,0.86727,-0.1959,-0.42117,-0.28148,-0.011319,0,0,1.0014,-1.6343,0,-0.26486,0,0,0.081823,-0.0095758,0,0.082361,-0.19533,-0.42174,-0.28148,-2.8692,-0.29952,0.19793,-0.00015922,0.2,0.8,0
0.23783,-0.13021,0.85259,-0.19255,-0.41579,-0.27724,-0.0060397,0,0,0.99078,-1.6211,0,-0.14133,0,0,0.081422,-0.014003,0,0.082597,-0.19239,-0.41595,-0.27724,-1.5486,-0.29519,0.19548,-0.00015457,0.22,0.8,0
0.25751,-0.12644,0.83796,-0.18971,-0.40966,-0.27292,-5.0716e-06,0,0,0.97355,-1.5999,0,-0.00011868,0,0,0.081431,-0.018558,0,0.083496,-0.18971,-0.40966,-0.27292,-0.0013211,-0.29076,0.19236,-0.00014867,0.24,0.8,0
0.27677,-0.12005,0.82328,-0.18769,-0.40285,-0.26864,0.0077922,0,0,0.9471,-1.5703,0,0.18234,0,0,0.082039,-0.023562,0,0.085327,-0.18741,-0.40313,-0.26864,2.0714,-0.28639,0.18871,-0.00014225,0.26,0.8,0
0.29539,-0.11032,0.80842,-0.18766,-0.39557,-0.26479,0.018569,0,0,0.90244,-1.5301,0,0.43451,0,0,0.08375,-0.029439,0,0.088737,-0.18602,-0.39721,-0.26479,5.0638,-0.28267,0.18486,-0.00013726,0.28,0.8,0
0.31287,-0.096154,0.79313,-0.18966,-0.38653,-0.26098,0.035246,0,0,0.83449,-1.4689,0,0.82477,0,0,0.088271,-0.036766,0,0.095582,-0.18354,-0.39265,-0.26098,9.8504,-0.27905,0.18311,-0.00013597,0.3,0.8,0
0.32877,-0.074411,0.77664,-0.20539,-0.38083,-0.26216,0.062773,0,0,0.66424,-1.3885,0,1.4689,0,0,0.09939,-0.046292,0,0.10978,-0.18524,-0.40098,-0.26216,17.794,-0.28279,0.18938,-0.00016494,0.32,0.8,0
0.33944,-0.039096,0.75735,-0.29893,-1.2806,-0.8946,0.1514,0,0,1.0114,-0.90319,0,1.2445,0,0,0.13266,-0.25357,0,0.29941,-0.2654,-1.3141,-0.8946,16.655,-0.8247,0.91628,0.04635,0.34,0.8,0
0.36923,-0.030576,0.75418,-0.28725,-1.6308,-1.3296,0.16402,0,0,1.3551,-0.39156,0,0.42646,0,0,0.19745,-0.29762,0,0.35455,-0.26751,-1.6505,-1.3296,6.8605,-1.0825,1.2537,0.079297,0.36,0.8,0
0.39364,-0.021055,0.74945,-0.39021,-1.4965,-1.3155,0.10298,0,0,1.2028,-0.23536,0,0.26774,0,0,0.22776,-0.22376,0,0.31857,-0.3807,-1.506,-1.3155,5.2728,-1.0674,1.0432,0.051807,0.38,0.8,0
0.41734,-0.01474,0.74507,-0.36172,-1.3619,-1.2622,0.038486,0,0,1.1705,-0.12962,0,0.10006,0,0,0.20569,-0.18469,0,0.27652,-0.36025,-1.3633,-1.2622,2.2005,-0.99524,0.95652,0.043256,0.4,0.8,0
0.44046,-0.01039,0.74122,-0.29545,-0.72072,-0.71664,0.0032852,0,0,0.30368,-0.009537,0,-0.057761,0,0,0.18449,-0.093679,0,0.21676,-0.27188,-0.74428,-0.71664,-40.72,-0.5776,0.47052,0.018295,0.42,0.8,0
0.42949,-0.0096973,0.70947,-0.28207,-0.24478,-0.23689,-0.007552,0,0,-0.52864,-0.0924,0,-0.17672,0,0,0.17455,-0.01371,0,0.17509,-0.24331,-0.28354,-0.23689,-78.974,-0.25458,0.043797,-4.0033e-06,0.44,0.8,0
0.41931,-0.0096205,0.67838,-0.27308,-0.24402,-0.2305,-0.0082704,0,0,-0.49809,-0.15813,0,-0.19353,0,0,0.17089,-0.010321,0,0.1712,-0.24183,-0.27526,-0.2305,-75.174,-0.2492,0.040309,-2.49e-06,0.46,0.8,0
0.40956,-0.0096911,0.64796,-0.26575,-0.24186,-0.22428,-0.0079778,0,0,-0.48519,-0.20572,0,-0.18668,0,0,0.16725,-0.0081698,0,0.16746,-0.23944,-0.26816,-0.22428,-73.129,-0.24396,0.038609,-1.4934e-06,0.48,0.8,0
0.39991,-0.0096921,0.61817,-0.25974,-0.23844,-0.21814,-0.0073082,0,0,-0.48674,-0.23748,0,-0.17101,0,0,0.16383,-0.0069298,0,0.16398,-0.23617,-0.26201,-0.21814,-72.773,-0.23877,0.038191,-8.6477e-07,0.5,0.8,0
0.39009,-0.0095654,0.58898,-0.25477,-0.23405,-0.21209,-0.006601,0,0,-0.49936,-0.25698,0,-0.15446,0,0,0.16073,-0.006323,0,0.16086,-0.23213,-0.25669,-0.21209,-73.746,-0.23364,0.038695,-5.1977e-07,0.52,0.8,0
0.37993,-0.009329,0.56031,-0.25058,-0.229,-0.20613,-0.0059869,0,0,-0.5201,-0.26754,0,-0.14009,0,0,0.15801,-0.0061266,0,0.15814,-0.22745,-0.25213,-0.20613,-75.492,-0.22857,0.039875,-4.1149e-07,0.54,0.8,0
0.36929,-0.0090257,0.53209,-0.247,-0.2235,-0.20027,-0.0054824,0,0,-0.54673,-0.27175,0,-0.12829,0,0,0.15569,-0.0061756,0,0.15582,-0.22228,-0.24822,-0.20027,-77.495,-0.22359,0.041568,-5.2083e-07,0.56,0.8,0
0.35806,-0.0086961,0.50426,-0.24389,-0.21771,-0.19451,-0.0050567,0,0,-0.57775,-0.27143,0,-0.11833,0,0,0.15374,-0.0063573,0,0.15387,-0.21676,-0.24483,-0.19451,-79.44,-0.2187,0.043678,-8.4887e-07,0.58,0.8,0
0.34618,-0.0083687,0.47675,-0.24116,-0.21174,-0.18884,-0.0046693,0,0,-0.61216,-0.26786,0,-0.10926,0,0,0.15214,-0.0066007,0,0.15228,-0.21101,-0.24189,-0.18884,-81.197,-0.21391,0.046143,-1.4106e-06,0.6,0.8,0
0.33358,-0.008059,0.44949,-0.23877,-0.20566,-0.18327,-0.0042856,0,0,-0.6493,-0.26192,0,-0.10028,0,0,0.15085,-0.0068651,0,0.15101,-0.20511,-0.23931,-0.18327,-82.743,-0.20923,0.048925,-2.2309e-06,0.62,0.8,0
0.32021,-0.0077716,0.42244,-0.23666,-0.19953,-0.17779,-0.0038815,0,0,-0.68874,-0.25426,0,-0.090828,0,0,0.14985,-0.00713,0,0.15002,-0.19912,-0.23706,-0.17779,-84.096,-0.20466,0.051995,-3.3415e-06,0.64,0.8,0
0.30603,-0.0075039,0.39555,-0.23482,-0.19338,-0.17241,-0.0034438,0,0,-0.7302,-0.24535,0,-0.080586,0,0,0.14911,-0.0073879,0,0.14929,-0.19309,-0.2351,-0.17241,-85.281,-0.2002,0.055331,-4.7801e-06,0.66,0.8,0
0.291,-0.0072497,0.36876,-0.23322,-0.18725,-0.16712,-0.0029685,0,0,-0.77346,-0.23557,0,-0.069462,0,0,0.14862,-0.0076389,0,0.14882,-0.18706,-0.23341,-0.16712,-86.321,-0.19586,0.058916,-6.5898e-06,0.68,0.8,0
0.27509,-0.0070011,0.34204,-0.23186,-0.18116,-0.16191,-0.0024588,0,0,-0.81843,-0.2252,0,-0.057537,0,0,0.14837,-0.0078867,0,0.14858,-0.18104,-0.23198,-0.16191,-87.23,-0.19164,0.062732,-8.8182e-06,0.7,0.8,0
0.25826,-0.0067512,0.31535,-0.23073,-0.17513,-0.15679,-0.0019243,0,0,-0.86501,-0.21448,0,-0.045028,0,0,0.14836,-0.0081357,0,0.14858,-0.17506,-0.23079,-0.15679,-88.02,-0.18755,0.066767,-1.1517e-05,0.72,0.8,0
0.24049,-0.0064953,0.28863,-0.22981,-0.16917,-0.15177,-0.0013793,0,0,-0.91314,-0.20364,0,-0.032275,0,0,0.14859,-0.0083882,0,0.14882,-0.16914,-0.22984,-0.15177,-88.698,-0.18358,0.071003,-1.474e-05,0.74,0.8,0
0.22174,-0.0062318,0.26186,-0.22911,-0.16331,-0.14682,-0.00084235,0,0,-0.96279,-0.1929,0,-0.019711,0,0,0.14907,-0.0086412,0,0.14932,-0.1633,-0.22912,-0.14682,-89.267,-0.17975,0.075424,-1.8541e-05,0.76,0.8,0
0.20198,-0.0059622,0.23497,-0.22862,-0.15756,-0.14196,-0.00033525,0,0,-1.0139,-0.18252,0,-0.0078447,0,0,0.14981,-0.0088824,0,0.15007,-0.15756,-0.22862,-0.14196,-89.73,-0.17605,0.080006,-2.2968e-05,0.78,0.8,0
0.18118,-0.0056907,0.20793,-0.22831,-0.15195,-0.13718,0.00011939,0,0,-1.0662,-0.1728,0,0.0027937,0,0,0.15082,-0.0090855,0,0.1511,-0.15195,-0.22831,-0.13718,89.91,-0.17248,0.084714,-2.8052e-05,0.8,0.8,0
0.15933,-0.0054218,0.18067,-0.22816,-0.1465,-0.13248,0.00050188,0,0,-1.1196,-0.16413,0,0.011744,0,0,0.15213,-0.0092037,0,0.15241,-0.1465,-0.22817,-0.13248,89.648,-0.16905,0.089507,-3.3801e-05,0.82,0.8,0
0.1364,-0.0051567,0.15316,-0.22814,-0.14125,-0.12784,0.0008012,0,0,-1.1736,-0.15694,0,0.018748,0,0,0.15372,-0.0091634,0,0.154,-0.14124,-0.22815,-0.12784,89.472,-0.16574,0.094328,-4.0187e-05,0.84,0.8,0
0.11239,-0.004889,0.12533,-0.2282,-0.1362,-0.12325,0.0010197,0,0,-1.2279,-0.15161,0,0.023861,0,0,0.15556,-0.0088616,0,0.15582,-0.13619,-0.22821,-0.12325,89.365,-0.16255,0.099125,-4.7158e-05,0.86,0.8,0
0.087284,-0.0045992,0.097156,-0.22828,-0.13136,-0.11869,0.00117,0,0,-1.2822,-0.14829,0,0.027378,0,0,0.15757,-0.0081726,0,0.15778,-0.13135,-0.22829,-0.11869,89.308,-0.15944,0.10386,-5.4662e-05,0.88,0.8,0
0.061097,-0.0042566,0.068608,-0.22833,-0.12666,-0.11412,0.0012596,0,0,-1.3363,-0.14674,0,0.029474,0,0,0.15959,-0.00697,0,0.15975,-0.12665,-0.22835,-0.11412,89.29,-0.15637,0.10851,-6.2676e-05,0.9,0.8,0
0.033833,-0.0038287,0.039702,-0.22829,-0.12203,-0.10951,0.0012661,0,0,-1.3898,-0.14647,0,0.029628,0,0,0.16143,-0.0051641,0,0.16151,-0.12201,-0.22831,-0.10951,89.317,-0.15328,0.11307,-7.1194e-05,0.92,0.8,0
0.0055045,-0.0033006,0.010493,-0.22742,-0.19566,-0.13275,0.00022268,0,0,-0.75258,-0.14721,0,0.011487,0,0,0.16505,-0.013732,0,0.16601,-0.17317,-0.24991,-0.13275,44.339,-0.18528,0.10703,-2.9206e-05,0.94,0.8,0
0.0037295,-0.0032948,0.0071359,-0.22623,-0.27294,-0.15689,-0.0020882,0,0,-0.090145,-0.15087,0,-0.0054292,0,0,0.17195,-0.019769,0,0.17312,-0.22614,-0.27303,-0.15689,-2.5545,-0.21869,0.10121,1.735e-05,0.96,0.8,0
0.0018987,-0.0033808,0.0036144,-0.22493,-0.27373,-0.15321,-0.0022484,0,0,-0.093238,-0.15667,0,-0.0058459,0,0,0.1784,-0.01098,0,0.1787,-0.22483,-0.27383,-0.15321,-2.6328,-0.21729,0.10507,1.8938e-05,0.98,0.8,0
0,-0.003426,0,-0.21965,-0.2691,-0.14663,-0.0008677,0,0,-0.094935,-0.15922,0,-0.002256,0,0,0.18072,5.2042e-18,0,0.18066,-0.21964,-0.26911,-0.14663,-1.005,-0.21179,0.10673,2.0318e-05,1,0.8,0
0,-0.025582,1,-0.73212,-1.8585,-1.7772,-0.046699,0,0,1.3586,-0.10567,0,-0.12142,0,0,0.41554,-3.9552e-15,0,0.41416,-0.73019,-1.8604,-1.7772,-2.3701,-1.4559,1.091,0.065384,0,0.82,0
0.027171,-0.02801,0.99169,-0.76097,-1.8722,-1.7816,-0.10971,0,0,1.3269,-0.11773,0,-0.28524,0,0,0.41962,0.083433,0,0.42612,-0.75024,-1.8829,-1.7816,-5.5846,-1.4716,1.0856,0.063784,0.02,0.82,0
0.053075,-0.035326,0.98321,-0.86325,-1.9589,-1.8298,-0.31767,0,0,1.2566,-0.16772,0,-0.82595,0,0,0.46543,0.18966,0,0.49767,-0.7778,-2.0443,-1.8298,-15.055,-1.5507,1.1741,0.073856,0.04,0.82,0
0.077435,-0.057156,0.97307,-0.77048,-1.3681,-1.1822,-0.4063,0,0,0.79366,-0.73052,0,-2.5924,0,0,0.37113,0.20954,0,0.43032,-0.56334,-1.5753,-1.1822,-28.93,-1.1069,0.88718,0.040641,0.06,0.82,0
0.089064,-0.10787,0.95488,-0.51283,-0.50979,-0.83728,-0.26482,0,0,0.75921,-0.28986,0,-1.8655,0,0,0.46136,0.050356,0,0.4654,-0.22072,-0.8019,-0.83728,-38.06,-0.61996,0.63939,0.020755,0.08,0.82,0
0.1078,-0.13046,0.93985,-0.34621,-0.47565,-0.7687,-0.099345,0,0,0.98862,-0.32916,0,-0.96951,0,0,0.41097,0.030405,0,0.41308,-0.2801,-0.54175,-0.7687,-28.372,-0.53018,0.50124,-0.0076024,0.1,0.82,0
0.12861,-0.14556,0.92529,-0.28796,-0.44633,-0.73434,-0.062054,0,0,1.0445,-0.35563,0,-0.65937,0,0,0.40064,0.01742,0,0.40137,-0.26105,-0.47325,-0.73434,-20.726,-0.48955,0.49601,-0.010008,0.12,0.82,0
0.14958,-0.15518,0.91101,-0.2748,-0.44297,-0.72145,-0.04018,0,0,1.0452,-0.37379,0,-0.46057,0,0,0.39466,0.0087964,0,0.39482,-0.26366,-0.45411,-0.72145,-14.422,-0.47974,0.48555,-0.010121,0.14,0.82,0
0.17042,-0.16111,0.89688,-0.26798,-0.43913,-0.7104,-0.028289,0,0,1.0353,-0.38581,0,-0.3345,0,0,0.39087,0.0021686,0,0.39086,-0.2625,-0.44461,-0.7104,-10.418,-0.47251,0.47739,-0.0098062,0.16,0.82,0
0.19099,-0.16414,0.88287,-0.2627,-0.43513,-0.69983,-0.020548,0,0,1.0229,-0.39341,0,-0.24417,0,0,0.38806,-0.0033371,0,0.38811,-0.25982,-0.43802,-0.69983,-7.645,-0.46589,0.46991,-0.0093844,0.18,0.82,0
0.21133,-0.16472,0.86894,-0.2561,-0.43011,-0.68861,-0.014881,0,0,1.0121,-0.39802,0,-0.17147,0,0,0.38575,-0.00824,0,0.38603,-0.25456,-0.43164,-0.68861,-5.5423,-0.45827,0.46337,-0.0089521,0.2,0.82,0
0.23148,-0.163,0.85509,-0.24704,-0.42411,-0.67639,-0.0097076,0,0,1.0047,-0.40066,0,-0.10193,0,0,0.38373,-0.012927,0,0.38439,-0.24636,-0.42479,-0.67639,-3.5943,-0.44918,0.45785,-0.0085271,0.22,0.82,0
0.25152,-0.15892,0.84131,-0.23506,-0.41712,-0.66305,-0.0035389,0,0,1.0015,-0.40199,0,-0.02162,0,0,0.38197,-0.017786,0,0.38318,-0.23494,-0.41725,-0.66305,-1.3558,-0.43841,0.45355,-0.0081085,0.24,0.82,0
0.27154,-0.15214,0.82759,-0.22108,-0.40977,-0.64902,0.0054273,0,0,1.0014,-0.40212,0,0.08587,0,0,0.38072,-0.023352,0,0.38272,-0.22092,-0.40993,-0.64902,1.6183,-0.42662,0.45041,-0.0076596,0.26,0.82,0
0.29157,-0.142,0.8139,-0.20722,-0.40148,-0.63477,0.021903,0,0,1.0005,-0.40056,0,0.25195,0,0,0.38103,-0.030537,0,0.38426,-0.20459,-0.4041,-0.63477,6.5693,-0.41449,0.44897,-0.0071407,0.28,0.82,0
0.31156,-0.12696,0.80015,-0.22115,-0.41183,-0.63443,0.050203,0,0,0.96706,-0.39513,0,0.51012,0,0,0.38513,-0.041839,0,0.39043,-0.20731,-0.42568,-0.63443,14.057,-0.42247,0.4413,-0.0057787,0.3,0.82,0
0.33026,-0.10521,0.78617,-0.30965,-0.4215,-0.65611,0.18059,0,0,0.8107,-0.37948,0,1.2499,0,0,0.4314,-0.060008,0,0.439,-0.1597,-0.57145,-0.65611,31.119,-0.46242,0.50367,0.005598,0.32,0.82,0
0.34398,-0.059696,0.76909,-0.51312,-1.1099,-0.9142,0.28391,0,0,0.82648,-0.71228,0,1.8507,0,0,0.34003,-0.23158,0,0.41927,-0.39796,-1.2251,-0.9142,24.23,-0.84576,0.7265,0.024403,0.34,0.82,0
0.36612,-0.036063,0.76008,-0.53588,-1.5893,-1.3976,0.19627,0,0,1.1202,-0.24913,0,0.51029,0,0,0.38423,-0.26395,0,0.46403,-0.5005,-1.6246,-1.3976,10.219,-1.1743,1.0296,0.046995,0.36,0.82,0
0.3888,-0.025001,0.75372,-0.43636,-1.4477,-1.319,0.04613,0,0,1.1474,-0.1674,0,0.11994,0,0,0.28975,-0.18656,0,0.34483,-0.43426,-1.4498,-1.319,2.6062,-1.0677,0.95686,0.042172,0.38,0.82,0
0.41201,-0.016811,0.74849,-0.37025,-1.329,-1.2583,0.00316,0,0,1.1544,-0.091995,0,0.008216,0,0,0.23588,-0.1451,0,0.27784,-0.37024,-1.3291,-1.2583,0.18883,-0.98585,0.92545,0.039907,0.4,0.82,0
0.43497,-0.010172,0.74429,-0.2973,-0.70984,-0.71564,-0.014469,0,0,0.30235,0.013562,0,-0.22511,0,0,0.19569,-0.071122,0,0.21439,-0.27041,-0.73674,-0.71564,-36.072,-0.57426,0.4673,0.017377,0.42,0.82,0
0.42411,-0.011402,0.71161,-0.28118,-0.24469,-0.23683,-0.017286,0,0,-0.51893,-0.091958,0,-0.4045,0,0,0.17886,-0.0091146,0,0.17911,-0.2378,-0.28807,-0.23683,-68.274,-0.25423,0.050762,-6.7098e-06,0.44,0.82,0
0.41421,-0.012785,0.6799,-0.27186,-0.24508,-0.23063,-0.016063,0,0,-0.48246,-0.16907,0,-0.37588,0,0,0.17363,-0.0058724,0,0.17375,-0.23755,-0.27938,-0.23063,-64.91,-0.24919,0.045688,-4.5207e-06,0.46,0.82,0
0.40481,-0.013868,0.6491,-0.26443,-0.24322,-0.22442,-0.014221,0,0,-0.46818,-0.22,0,-0.33278,0,0,0.16883,-0.0040692,0,0.16889,-0.23609,-0.27157,-0.22442,-63.358,-0.24403,0.042534,-2.9722e-06,0.48,0.82,0
0.39549,-0.014517,0.61912,-0.25848,-0.23969,-0.21824,-0.012392,0,0,-0.47074,-0.25096,0,-0.28998,0,0,0.16457,-0.0033001,0,0.16462,-0.23353,-0.26463,-0.21824,-63.58,-0.2388,0.040946,-1.9403e-06,0.5,0.82,0
0.38598,-0.014774,0.58985,-0.25359,-0.23507,-0.21214,-0.010842,0,0,-0.48498,-0.26834,0,-0.2537,0,0,0.16093,-0.0032055,0,0.16097,-0.23008,-0.25859,-0.21214,-65.248,-0.2336,0.040573,-1.3111e-06,0.52,0.82,0
0.37609,-0.014738,0.56119,-0.24947,-0.22981,-0.20614,-0.0096039,0,0,-0.50703,-0.27692,0,-0.22473,0,0,0.15789,-0.0035049,0,0.15793,-0.2259,-0.25339,-0.20614,-67.838,-0.22847,0.0411,-9.9449e-07,0.54,0.82,0
0.3657,-0.014511,0.53302,-0.24592,-0.22416,-0.20025,-0.0086157,0,0,-0.53438,-0.27974,0,-0.20161,0,0,0.15539,-0.0040041,0,0.15544,-0.22116,-0.24892,-0.20025,-70.816,-0.22344,0.04229,-9.3538e-07,0.56,0.82,0
0.35471,-0.01417,0.50525,-0.24281,-0.21828,-0.19446,-0.0077953,0,0,-0.56561,-0.27862,0,-0.18241,0,0,0.15335,-0.0045828,0,0.15343,-0.21601,-0.24507,-0.19446,-73.78,-0.21852,0.043991,-1.11e-06,0.58,0.82,0
0.34307,-0.013771,0.47781,-0.24006,-0.21227,-0.18879,-0.0070714,0,0,-0.59986,-0.27473,0,-0.16547,0,0,0.15173,-0.0051735,0,0.15182,-0.21057,-0.24175,-0.18879,-76.513,-0.21371,0.04611,-1.5176e-06,0.6,0.82,0
0.33072,-0.013345,0.45063,-0.23763,-0.20619,-0.18321,-0.0063906,0,0,-0.63662,-0.26881,0,-0.14954,0,0,0.15044,-0.0057435,0,0.15055,-0.20494,-0.23888,-0.18321,-78.937,-0.20901,0.048589,-2.174e-06,0.62,0.82,0
0.31761,-0.012908,0.42365,-0.23548,-0.20008,-0.17774,-0.0057168,0,0,-0.67556,-0.26137,0,-0.13377,0,0,0.14945,-0.0062817,0,0.14959,-0.19918,-0.23638,-0.17774,-81.05,-0.20443,0.051392,-3.1065e-06,0.64,0.82,0
0.3037,-0.012466,0.39682,-0.2336,-0.19397,-0.17236,-0.005028,0,0,-0.71647,-0.25279,0,-0.11765,0,0,0.14873,-0.0067898,0,0.14889,-0.19334,-0.23423,-0.17236,-82.881,-0.19998,0.054494,-4.3521e-06,0.66,0.82,0
0.28895,-0.01202,0.3701,-0.23197,-0.18787,-0.16707,-0.0043132,0,0,-0.75924,-0.24333,0,-0.10093,0,0,0.14825,-0.0072767,0,0.14843,-0.18745,-0.23239,-0.16707,-84.465,-0.19564,0.057877,-5.9558e-06,0.68,0.82,0
0.27333,-0.011567,0.34345,-0.23058,-0.18181,-0.16188,-0.0035706,0,0,-0.80379,-0.23323,0,-0.083553,0,0,0.14801,-0.0077542,0,0.14821,-0.18155,-0.23084,-0.16188,-85.835,-0.19142,0.06153,-7.9701e-06,0.7,0.82,0
0.2568,-0.011104,0.31682,-0.22943,-0.1758,-0.15677,-0.0028054,0,0,-0.85012,-0.22264,0,-0.065646,0,0,0.14799,-0.0082349,0,0.14822,-0.17566,-0.22958,-0.15677,-87.014,-0.18734,0.065441,-1.0456e-05,0.72,0.82,0
0.23932,-0.01063,0.29018,-0.22853,-0.16985,-0.15176,-0.0020293,0,0,-0.89824,-0.21173,0,-0.047486,0,0,0.14821,-0.0087287,0,0.14847,-0.16978,-0.2286,-0.15176,-88.022,-0.18338,0.069603,-1.3481e-05,0.74,0.82,0
0.22087,-0.010148,0.26347,-0.22787,-0.16398,-0.14683,-0.0012607,0,0,-0.94821,-0.20064,0,-0.0295,0,0,0.14869,-0.0092403,0,0.14897,-0.16395,-0.2279,-0.14683,-88.87,-0.17956,0.074008,-1.712e-05,0.76,0.82,0
0.20139,-0.0096644,0.23665,-0.22747,-0.15819,-0.14199,-0.00052441,0,0,-1.0001,-0.18954,0,-0.012271,0,0,0.14944,-0.0097643,0,0.14976,-0.15819,-0.22747,-0.14199,-89.566,-0.17588,0.078642,-2.1452e-05,0.78,0.82,0
0.18086,-0.009188,0.20967,-0.22731,-0.15251,-0.13724,0.00014836,0,0,-1.0538,-0.17867,0,0.0034717,0,0,0.15052,-0.010279,0,0.15087,-0.15251,-0.22731,-0.13724,89.886,-0.17236,0.083484,-2.6545e-05,0.8,0.82,0
0.15924,-0.0087319,0.18246,-0.22738,-0.14697,-0.13258,0.00072351,0,0,-1.1092,-0.16839,0,0.01693,0,0,0.15195,-0.010735,0,0.15233,-0.14696,-0.22738,-0.13258,89.484,-0.16897,0.088495,-3.2446e-05,0.82,0.82,0
0.1365,-0.0083073,0.15496,-0.22764,-0.1416,-0.12799,0.0011715,0,0,-1.1659,-0.1592,0,0.027414,0,0,0.15376,-0.011044,0,0.15416,-0.14158,-0.22765,-0.12799,89.22,-0.16574,0.093614,-3.9157e-05,0.84,0.82,0
0.11261,-0.0079171,0.12711,-0.22804,-0.13643,-0.12346,0.0014785,0,0,-1.2235,-0.15173,0,0.034598,0,0,0.15597,-0.011065,0,0.15636,-0.13641,-0.22806,-0.12346,89.076,-0.16265,0.098763,-4.6625e-05,0.86,0.82,0
0.087557,-0.0075468,0.098818,-0.2285,-0.13149,-0.11898,0.001652,0,0,-1.2815,-0.14636,0,0.038656,0,0,0.15849,-0.010601,0,0.15885,-0.13146,-0.22853,-0.11898,89.025,-0.15965,0.10388,-5.4778e-05,0.88,0.82,0
0.061348,-0.0071606,0.070049,-0.22896,-0.12669,-0.11448,0.0016976,0,0,-1.3395,-0.14287,0,0.039724,0,0,0.16118,-0.0094245,0,0.16146,-0.12666,-0.22899,-0.11448,89.049,-0.15671,0.10893,-6.3596e-05,0.9,0.82,0
0.03398,-0.0067132,0.040791,-0.22929,-0.12188,-0.10988,0.001576,0,0,-1.3971,-0.14033,0,0.036878,0,0,0.16376,-0.0073451,0,0.16393,-0.12186,-0.22932,-0.10988,89.16,-0.15368,0.11392,-7.3114e-05,0.92,0.82,0
0.0054639,-0.0061832,0.011095,-0.22747,-0.19064,-0.13159,-0.00050085,0,0,-0.75831,-0.13816,0,0.010356,0,0,0.16935,-0.021459,0,0.17158,-0.17237,-0.24573,-0.13159,43.045,-0.18323,0.10502,-2.8413e-05,0.94,0.82,0
0.003647,-0.0062883,0.0076203,-0.22635,-0.27024,-0.1566,-0.0047006,0,0,-0.090682,-0.14773,0,-0.012222,0,0,0.18026,-0.031315,0,0.18304,-0.22586,-0.27073,-0.1566,-6.0459,-0.21773,0.099594,1.8257e-05,0.96,0.82,0
0.0018366,-0.006534,0.0038842,-0.22442,-0.2769,-0.15428,-0.0045464,0,0,-0.091176,-0.15941,0,-0.011821,0,0,0.19051,-0.017509,0,0.19124,-0.22402,-0.27729,-0.15428,-4.914,-0.21853,0.10685,1.4376e-05,0.98,0.82,0
0,-0.0066478,0,-0.21835,-0.27402,-0.14771,-0.0021871,0,0,-0.091828,-0.1642,0,-0.0056864,0,0,0.19421,0,0,0.19407,-0.21826,-0.27411,-0.14771,-2.2462,-0.21336,0.10971,1.3554e-05,1,0.82,0
0,-0.026836,1,-0.6657,-1.7581,-1.7271,-0.045856,0,0,1.3799,-0.040208,0,-0.11923,0,0,0.49513,-2.4078e-15,0,0.49432,-0.66378,-1.76,-1.7271,-2.3996,-1.3836,1.0801,0.064523,0,0.84,0
0.027597,-0.029221,0.9901,-0.6412,-1.7374,-1.7037,-0.091289,0,0,1.3812,-0.043877,0,-0.23735,0,0,0.51025,0.069206,0,0.51412,-0.63365,-1.745,-1.7037,-4.7279,-1.3608,1.0913,0.066425,0.02,0.84,0
0.055249,-0.037858,0.97959,-0.66111,-1.7622,-1.7066,-0.22963,0,0,1.3591,-0.072255,0,-0.59703,0,0,0.56904,0.1463,0,0.58775,-0.61514,-1.8081,-1.7066,-11.321,-1.3766,1.1456,0.075173,0.04,0.84,0
0.081961,-0.056998,0.96734,-0.72587,-1.5982,-1.6645,-0.41502,0,0,1.2203,0.086272,0,-1.0791,0,0,0.648,0.20114,0,0.68161,-0.55997,-1.7641,-1.6645,-21.789,-1.3295,1.1576,0.077682,0.06,0.84,0
0.10406,-0.087258,0.95367,-0.62189,-0.70268,-1.351,-0.35885,0,0,0.9479,0.84287,0,-0.93301,0,0,0.70533,0.075495,0,0.70796,-0.30117,-1.0234,-1.351,-41.789,-0.89187,0.93038,0.024736,0.08,0.84,0
0.11988,-0.11167,0.93912,-0.70596,-0.62863,-1.3395,-0.21337,0,0,0.8236,0.92413,0,-0.55477,0,0,0.71965,0.041398,0,0.72076,-0.45045,-0.88415,-1.3395,-50.136,-0.89136,0.77002,-0.0009889,0.1,0.84,0
0.137,-0.12694,0.92488,-0.59346,-0.55056,-1.2681,-0.1146,0,0,0.87702,0.93278,0,-0.29797,0,0,0.70829,0.024103,0,0.70869,-0.45542,-0.6886,-1.2681,-50.3,-0.80404,0.72478,-0.012948,0.12,0.84,0
0.15496,-0.13702,0.91079,-0.52549,-0.51409,-1.2227,-0.070766,0,0,0.90633,0.92115,0,-0.18399,0,0,0.70193,0.013365,0,0.70206,-0.44879,-0.59078,-1.2227,-47.302,-0.75408,0.71355,-0.016197,0.14,0.84,0
0.17326,-0.14331,0.89681,-0.4855,-0.49339,-1.1905,-0.047107,0,0,0.91647,0.90621,0,-0.12248,0,0,0.69709,0.0056987,0,0.69711,-0.44217,-0.53671,-1.1905,-42.606,-0.72312,0.70579,-0.01697,0.16,0.84,0
0.19162,-0.14669,0.88291,-0.46114,-0.48028,-1.1653,-0.034088,0,0,0.91545,0.89057,0,-0.088629,0,0,0.69308,-0.00032216,0,0.69308,-0.4353,-0.50611,-1.1653,-37.16,-0.70225,0.69733,-0.016811,0.18,0.84,0
0.20988,-0.1476,0.86908,-0.4453,-0.47132,-1.1441,-0.026073,0,0,0.9084,0.87458,0,-0.067791,0,0,0.68943,-0.0054449,0,0.68945,-0.42917,-0.48745,-1.1441,-31.741,-0.68689,0.68761,-0.016294,0.2,0.84,0
0.22795,-0.14624,0.85533,-0.43501,-0.46557,-1.1255,-0.019614,0,0,0.89764,0.85791,0,-0.050996,0,0,0.68584,-0.010183,0,0.68592,-0.42543,-0.47516,-1.1255,-26.039,-0.67536,0.67658,-0.015618,0.22,0.84,0
0.24578,-0.14252,0.84165,-0.43047,-0.46362,-1.1099,-0.011466,0,0,0.88323,0.84013,0,-0.029812,0,0,0.68216,-0.015049,0,0.68232,-0.42689,-0.4672,-1.1099,-17.338,-0.66799,0.66375,-0.014832,0.24,0.84,0
0.26328,-0.13613,0.82804,-0.43566,-0.46814,-1.0992,0.0031609,0,0,0.86258,0.82036,0,0.0082184,0,0,0.67843,-0.020795,0,0.67875,-0.43536,-0.46845,-1.0992,5.5076,-0.66766,0.64792,-0.013847,0.26,0.84,0
0.28029,-0.12635,0.81451,-0.45945,-0.48564,-1.098,0.032112,0,0,0.83016,0.79612,0,0.08349,0,0,0.67491,-0.028928,0,0.67552,-0.43787,-0.50723,-1.098,33.908,-0.68105,0.62837,-0.012221,0.28,0.84,0
0.29649,-0.11196,0.80105,-0.51693,-0.5373,-1.1173,0.10359,0,0,0.78051,0.75402,0,0.26932,0,0,0.675,-0.043295,0,0.67631,-0.42303,-0.6312,-1.1173,42.191,-0.72385,0.61712,-0.0076035,0.3,0.84,0
0.3115,-0.08959,0.78751,-0.42135,-0.58742,-1.0901,0.21393,0,0,0.86943,0.65354,0,0.55623,0,0,0.64726,-0.075429,0,0.64989,-0.2749,-0.73387,-1.0901,34.394,-0.69964,0.70788,0.0039366,0.32,0.84,0
0.33126,-0.061232,0.77516,-0.47279,-1.3038,-1.3081,0.25031,0,0,1.0859,0.0056683,0,0.6508,0,0,0.56924,-0.20764,0,0.6108,-0.40322,-1.3733,-1.3081,15.534,-1.0282,0.93921,0.04186,0.34,0.84,0
0.35494,-0.040541,0.76474,-0.39459,-1.4434,-1.3161,0.10355,0,0,1.198,-0.16541,0,0.26922,0,0,0.45615,-0.17492,0,0.49162,-0.38447,-1.4535,-1.3161,5.585,-1.0514,1.0074,0.049232,0.36,0.84,0
0.37918,-0.027751,0.75691,-0.35388,-1.373,-1.275,0.0049769,0,0,1.1974,-0.12743,0,0.01294,0,0,0.34662,-0.11945,0,0.36836,-0.35385,-1.373,-1.275,0.2798,-1.0006,0.97385,0.045818,0.38,0.84,0
0.40284,-0.018419,0.75088,-0.34454,-1.305,-1.2457,-0.029157,0,0,1.1716,-0.077011,0,-0.075809,0,0,0.26422,-0.082976,0,0.27917,-0.34365,-1.3058,-1.2457,-1.7373,-0.96508,0.93359,0.041208,0.4,0.84,0
0.42605,-0.0098475,0.74634,-0.29173,-0.71413,-0.71639,-0.030475,0,0,0.32703,0.0052944,0,-0.38462,0,0,0.20668,-0.037052,0,0.21278,-0.26193,-0.74393,-0.71639,-32.684,-0.57408,0.47959,0.018234,0.42,0.84,0
0.41592,-0.013376,0.71276,-0.27774,-0.2466,-0.2365,-0.027023,0,0,-0.48253,-0.11824,0,-0.63234,0,0,0.18291,-0.0026595,0,0.18296,-0.23099,-0.29336,-0.2365,-59.973,-0.25361,0.059808,-1.0673e-05,0.44,0.84,0
0.40675,-0.016383,0.6805,-0.269,-0.24788,-0.23068,-0.023729,0,0,-0.44841,-0.20133,0,-0.55526,0,0,0.17593,1.6346e-05,0,0.17596,-0.23247,-0.28441,-0.23068,-56.994,-0.24919,0.052864,-7.5583e-06,0.46,0.84,0
0.39798,-0.018491,0.64942,-0.26197,-0.24587,-0.22451,-0.020252,0,0,-0.43828,-0.24988,0,-0.4739,0,0,0.16982,0.0010486,0,0.16985,-0.23212,-0.27571,-0.22451,-55.84,-0.24411,0.047852,-5.1504e-06,0.48,0.84,0
0.38921,-0.01973,0.61936,-0.25634,-0.24182,-0.21827,-0.017286,0,0,-0.44545,-0.27561,0,-0.4045,0,0,0.16469,0.00097407,0,0.16471,-0.23033,-0.26783,-0.21827,-56.388,-0.23881,0.044767,-3.5039e-06,0.5,0.84,0
0.38017,-0.020299,0.59013,-0.25171,-0.23673,-0.2121,-0.01496,0,0,-0.46336,-0.28819,0,-0.35007,0,0,0.16052,0.0002742,0,0.16053,-0.22749,-0.26095,-0.2121,-58.291,-0.23351,0.043256,-2.4529e-06,0.52,0.84,0
0.37068,-0.020406,0.56157,-0.24774,-0.23111,-0.20605,-0.013161,0,0,-0.48771,-0.29321,0,-0.30796,0,0,0.15721,-0.00070813,0,0.15722,-0.22386,-0.25499,-0.20605,-61.138,-0.2283,0.042902,-1.8287e-06,0.54,0.84,0
0.36066,-0.020215,0.53353,-0.24425,-0.22522,-0.20012,-0.011732,0,0,-0.51631,-0.29363,0,-0.27452,0,0,0.15461,-0.0017702,0,0.15463,-0.21963,-0.24984,-0.20012,-64.525,-0.2232,0.043389,-1.5212e-06,0.56,0.84,0
0.35003,-0.019841,0.50591,-0.24116,-0.21919,-0.19432,-0.010543,0,0,-0.54807,-0.29103,0,-0.24671,0,0,0.15257,-0.0028073,0,0.1526,-0.21495,-0.2454,-0.19432,-68.088,-0.21823,0.044512,-1.4743e-06,0.58,0.84,0
0.33874,-0.019358,0.47861,-0.23841,-0.2131,-0.18863,-0.0094985,0,0,-0.58239,-0.28632,0,-0.22226,0,0,0.15098,-0.0037738,0,0.15102,-0.20994,-0.24158,-0.18863,-71.552,-0.21338,0.046143,-1.6675e-06,0.6,0.84,0
0.32673,-0.018811,0.45156,-0.23596,-0.207,-0.18306,-0.0085299,0,0,-0.61892,-0.28005,0,-0.1996,0,0,0.14974,-0.0046577,0,0.14981,-0.20467,-0.23828,-0.18306,-74.751,-0.20867,0.048201,-2.1043e-06,0.62,0.84,0
0.31398,-0.018226,0.4247,-0.23378,-0.20089,-0.17759,-0.0075909,0,0,-0.65746,-0.27256,0,-0.17763,0,0,0.1488,-0.0054656,0,0.1489,-0.19922,-0.23545,-0.17759,-77.614,-0.20409,0.050638,-2.8047e-06,0.64,0.84,0
0.30043,-0.017615,0.39799,-0.23187,-0.19479,-0.17222,-0.006652,0,0,-0.69787,-0.26412,0,-0.15566,0,0,0.14811,-0.006214,0,0.14824,-0.19364,-0.23302,-0.17222,-80.129,-0.19963,0.053419,-3.8016e-06,0.66,0.84,0
0.28606,-0.016983,0.37138,-0.2302,-0.18873,-0.16694,-0.0056956,0,0,-0.74007,-0.2549,0,-0.13328,0,0,0.14766,-0.0069238,0,0.14782,-0.18796,-0.23096,-0.16694,-82.32,-0.19529,0.056524,-5.1388e-06,0.68,0.84,0
0.27083,-0.01633,0.34484,-0.22877,-0.1827,-0.16176,-0.0047133,0,0,-0.78407,-0.24503,0,-0.11029,0,0,0.14741,-0.007618,0,0.14761,-0.18222,-0.22925,-0.16176,-84.218,-0.19107,0.059939,-6.8703e-06,0.7,0.84,0
0.2547,-0.015657,0.31831,-0.22759,-0.17672,-0.15666,-0.0037044,0,0,-0.82992,-0.23463,0,-0.086682,0,0,0.14738,-0.0083192,0,0.14762,-0.17645,-0.22786,-0.15666,-85.858,-0.18699,0.063658,-9.0622e-06,0.72,0.84,0
0.23763,-0.014965,0.29178,-0.22531,-0.16991,-0.15099,-0.002492,0,0,-0.8696,-0.22141,0,-0.058314,0,0,0.14753,-0.0089977,0,0.1478,-0.1698,-0.22542,-0.15099,-87.43,-0.18207,0.06704,-1.1465e-05,0.74,0.84,0
0.21959,-0.014258,0.26518,-0.22716,-0.1651,-0.14714,-0.0014925,0,0,-0.93622,-0.21011,0,-0.034924,0,0,0.14813,-0.0097276,0,0.14844,-0.16507,-0.2272,-0.14714,-88.623,-0.1798,0.072768,-1.5817e-05,0.76,0.84,0
0.20053,-0.013544,0.23849,-0.22422,-0.15818,-0.14122,-0.00052206,0,0,-0.97112,-0.19847,0,-0.012216,0,0,0.14862,-0.010502,0,0.14899,-0.15818,-0.22423,-0.14122,-89.547,-0.17454,0.07596,-1.8783e-05,0.78,0.84,0
0.18039,-0.012838,0.21163,-0.22696,-0.15364,-0.13769,0.00037822,0,0,-1.0444,-0.18658,0,0.0088503,0,0,0.15007,-0.011309,0,0.15049,-0.15364,-0.22696,-0.13769,89.704,-0.17276,0.082458,-2.5204e-05,0.8,0.84,0
0.15913,-0.012157,0.18454,-0.22442,-0.1468,-0.13187,0.0012101,0,0,-1.0828,-0.1747,0,0.028317,0,0,0.15108,-0.012109,0,0.15156,-0.14678,-0.22444,-0.13187,89.107,-0.1677,0.086086,-2.9479e-05,0.82,0.84,0
0.13668,-0.011525,0.15713,-0.22809,-0.14263,-0.12868,0.0018139,0,0,-1.1632,-0.16327,0,0.042444,0,0,0.15378,-0.012812,0,0.15431,-0.14259,-0.22813,-0.12868,88.785,-0.16647,0.093277,-3.8573e-05,0.84,0.84,0
0.11301,-0.010958,0.12932,-0.22592,-0.13604,-0.12296,0.0023002,0,0,-1.2047,-0.15306,0,0.053825,0,0,0.15552,-0.013251,0,0.15609,-0.13598,-0.22598,-0.12296,88.535,-0.16164,0.097169,-4.428e-05,0.86,0.84,0
0.088074,-0.010453,0.10097,-0.23023,-0.13238,-0.12,0.0025003,0,0,-1.2896,-0.14483,0,0.058508,0,0,0.15979,-0.013154,0,0.16034,-0.13232,-0.23029,-0.12,88.537,-0.16087,0.10468,-5.6168e-05,0.88,0.84,0
0.061852,-0.0099713,0.072001,-0.22822,-0.12614,-0.11431,0.002527,0,0,-1.3327,-0.13846,0,0.059132,0,0,0.16222,-0.012164,0,0.16268,-0.12608,-0.22828,-0.11431,88.583,-0.15622,0.10856,-6.3122e-05,0.9,0.84,0
0.034331,-0.0094418,0.042346,-0.23263,-0.12259,-0.11127,0.0023481,0,0,-1.4199,-0.1324,0,0.054946,0,0,0.16717,-0.0099266,0,0.16747,-0.12254,-0.23268,-0.11127,88.778,-0.1555,0.11619,-7.801e-05,0.92,0.84,0
0.0054939,-0.0088272,0.012038,-0.2306,-0.18843,-0.1324,-0.0024908,0,0,-0.76848,-0.12682,0,0.011097,0,0,0.17542,-0.026955,0,0.17847,-0.17342,-0.24561,-0.1324,38.303,-0.18381,0.105,-2.9396e-05,0.94,0.84,0
0.0035914,-0.0092041,0.0083885,-0.22764,-0.26754,-0.15694,-0.0092333,0,0,-0.09191,-0.14377,0,-0.024007,0,0,0.19661,-0.046096,0,0.20202,-0.22561,-0.26957,-0.15694,-12.419,-0.21738,0.098319,1.8011e-05,0.96,0.84,0
0.0017853,-0.0097573,0.0043147,-0.22568,-0.28153,-0.15648,-0.0087476,0,0,-0.089959,-0.16257,0,-0.022744,0,0,0.2077,-0.025885,0,0.20922,-0.22434,-0.28287,-0.15648,-8.6957,-0.22123,0.10956,8.6059e-06,0.98,0.84,0
0,-0.0099942,0,-0.2167,-0.27674,-0.14803,-0.0045556,0,0,-0.089267,-0.16732,0,-0.011845,0,0,0.21574,-3.4694e-18,0,0.21556,-0.21635,-0.27708,-0.14803,-4.3144,-0.21382,0.11183,7.3061e-06,1,0.84,0
0,-0.02719,1,-0.56718,-1.6694,-1.671,-0.049521,0,0,1.4349,0.0020459,0,-0.12876,0,0,0.55395,2.3922e-15,0,0.55359,-0.56496,-1.6716,-1.671,-2.5673,-1.3025,1.1063,0.069548,0,0.86,0
0.028699,-0.029765,0.98892,-0.55452,-1.6585,-1.6528,-0.071159,0,0,1.4278,-0.0074158,0,-0.18501,0,0,0.56193,0.051339,0,0.56399,-0.54995,-1.6631,-1.6528,-3.6727,-1.2886,1.1081,0.069854,0.02,0.86,0
0.056971,-0.038217,0.97736,-0.60005,-1.6327,-1.6472,-0.23008,0,0,1.3613,0.01887,0,-0.59822,0,0,0.60386,0.094881,0,0.61162,-0.55111,-1.6816,-1.6472,-12.01,-1.2933,1.1137,0.070715,0.04,0.86,0
0.083672,-0.053705,0.96503,-0.5883,-1.4102,-1.5646,-0.31072,0,0,1.2692,0.20067,0,-0.80786,0,0,0.63057,0.10048,0,0.6388,-0.48406,-1.5145,-1.5646,-18.546,-1.1877,1.0563,0.060082,0.06,0.86,0
0.10642,-0.074151,0.95186,-0.66427,-0.96222,-1.4398,-0.34924,0,0,1.0082,0.62087,0,-0.90803,0,0,0.67493,0.080479,0,0.67975,-0.43356,-1.1929,-1.4398,-33.449,-1.0221,0.90834,0.02912,0.08,0.86,0
0.12529,-0.093496,0.9382,-0.62413,-0.65772,-1.3228,-0.26691,0,0,0.90821,0.86455,0,-0.69396,0,0,0.6867,0.045664,0,0.68811,-0.37349,-0.90836,-1.3228,-43.2,-0.8682,0.82429,0.0062614,0.1,0.86,0
0.14204,-0.10825,0.92433,-0.66207,-0.59462,-1.3013,-0.14761,0,0,0.83104,0.91874,0,-0.38379,0,0,0.69305,0.028005,0,0.69359,-0.47693,-0.77976,-1.3013,-51.435,-0.85267,0.72229,-0.0085231,0.12,0.86,0
0.1586,-0.11833,0.91047,-0.62469,-0.54747,-1.2621,-0.10959,0,0,0.82866,0.92905,0,-0.28493,0,0,0.69198,0.016934,0,0.69218,-0.46989,-0.70227,-1.2621,-54.704,-0.81142,0.70536,-0.01165,0.14,0.86,0
0.17519,-0.12486,0.89665,-0.59067,-0.51433,-1.2282,-0.072698,0,0,0.82872,0.92797,0,-0.18901,0,0,0.68988,0.0089382,0,0.68993,-0.47039,-0.63461,-1.2282,-58.852,-0.77772,0.69046,-0.013736,0.16,0.86,0
0.19174,-0.12852,0.88288,-0.56669,-0.49367,-1.201,-0.05062,0,0,0.82459,0.91951,0,-0.13161,0,0,0.68736,0.002816,0,0.68737,-0.46777,-0.59259,-1.201,-62.899,-0.75378,0.67946,-0.014295,0.18,0.86,0
0.20817,-0.12973,0.86916,-0.55197,-0.48113,-1.1791,-0.036445,0,0,0.81525,0.90735,0,-0.094757,0,0,0.68449,-0.0021935,0,0.68449,-0.46572,-0.56737,-1.1791,-67.092,-0.73739,0.66836,-0.014146,0.2,0.86,0
0.22435,-0.12868,0.8555,-0.54524,-0.47521,-1.1616,-0.024853,0,0,0.80131,0.89235,0,-0.064618,0,0,0.68111,-0.0066102,0,0.68114,-0.46729,-0.55317,-1.1616,-72.317,-0.72736,0.65564,-0.013641,0.22,0.86,0
0.24022,-0.12531,0.84191,-0.54624,-0.47675,-1.1488,-0.010782,0,0,0.78335,0.87367,0,-0.028032,0,0,0.67694,-0.010932,0,0.67703,-0.47512,-0.54787,-1.1488,-81.379,-0.72393,0.64042,-0.012905,0.24,0.86,0
0.25569,-0.11933,0.82842,-0.55464,-0.48914,-1.1416,0.011941,0,0,0.76299,0.84814,0,0.031047,0,0,0.67141,-0.015874,0,0.6716,-0.48703,-0.55675,-1.1416,79.984,-0.72844,0.6226,-0.011873,0.26,0.86,0
0.27074,-0.11015,0.81506,-0.56674,-0.52126,-1.1415,0.053392,0,0,0.74713,0.80625,0,0.13882,0,0,0.66336,-0.022818,0,0.66375,-0.48597,-0.60204,-1.1415,56.535,-0.74316,0.60585,-0.010023,0.28,0.86,0
0.28557,-0.096796,0.80189,-0.5431,-0.5839,-1.14,0.11853,0,0,0.77595,0.72291,0,0.30817,0,0,0.64673,-0.034752,0,0.64763,-0.44323,-0.68377,-1.14,40.117,-0.75566,0.61297,-0.0059854,0.3,0.86,0
0.30178,-0.079071,0.78919,-0.49276,-0.78795,-1.1734,0.18635,0,0,0.88483,0.50109,0,0.48452,0,0,0.61216,-0.060038,0,0.61547,-0.40263,-0.87808,-1.1734,25.81,-0.81803,0.67355,0.0061454,0.32,0.86,0
0.32097,-0.05947,0.7774,-0.45663,-1.1425,-1.2571,0.16179,0,0,1.0407,0.14905,0,0.42066,0,0,0.55286,-0.074709,0,0.5591,-0.42037,-1.1787,-1.2571,12.629,-0.95208,0.80044,0.025489,0.34,0.86,0
0.3434,-0.042679,0.76707,-0.38793,-1.3113,-1.2768,0.063693,0,0,1.1556,-0.044799,0,0.1656,0,0,0.47242,-0.068146,0,0.47964,-0.38355,-1.3157,-1.2768,3.9274,-0.99202,0.91333,0.038891,0.36,0.86,0
0.36719,-0.030098,0.7585,-0.3446,-1.3316,-1.2614,-0.018376,0,0,1.1918,-0.091319,0,-0.047777,0,0,0.3817,-0.033668,0,0.38571,-0.34426,-1.332,-1.2614,-1.0662,-0.9792,0.95436,0.043821,0.38,0.86,0
0.39108,-0.019892,0.7518,-0.32865,-1.2962,-1.2393,-0.047767,0,0,1.1838,-0.074056,0,-0.12419,0,0,0.28864,-0.00029274,0,0.29221,-0.3263,-1.2986,-1.2393,-2.8194,-0.95472,0.94403,0.042635,0.4,0.86,0
0.41454,-0.00996,0.74696,-0.28826,-0.72819,-0.71991,-0.04348,0,0,0.35679,-0.019367,0,-0.52555,0,0,0.21673,0.0088752,0,0.2192,-0.25568,-0.76077,-0.71991,-30.318,-0.57878,0.49629,0.019564,0.42,0.86,0
0.40535,-0.016132,0.71257,-0.27444,-0.25005,-0.23652,-0.036202,0,0,-0.44366,-0.15829,0,-0.84712,0,0,0.18788,0.0043346,0,0.18798,-0.22404,-0.30045,-0.23652,-54.309,-0.25367,0.07099,-1.6478e-05,0.44,0.86,0
0.39712,-0.020838,0.67989,-0.26353,-0.24806,-0.22902,-0.028829,0,0,-0.40375,-0.22275,0,-0.67459,0,0,0.17734,0.003347,0,0.17737,-0.22595,-0.28564,-0.22902,-52.51,-0.24687,0.05822,-1.004e-05,0.46,0.86,0
0.3892,-0.023863,0.64872,-0.25726,-0.24602,-0.22307,-0.0238,0,0,-0.40011,-0.2686,0,-0.55692,0,0,0.16978,0.003874,0,0.16983,-0.22719,-0.2761,-0.22307,-51.643,-0.24212,0.051095,-6.7009e-06,0.48,0.86,0
0.38112,-0.025542,0.61877,-0.25238,-0.24186,-0.21703,-0.019911,0,0,-0.41369,-0.29058,0,-0.46592,0,0,0.1638,0.0032713,0,0.16383,-0.22653,-0.26772,-0.21703,-52.401,-0.23709,0.046671,-4.5004e-06,0.5,0.86,0
0.37265,-0.026302,0.58976,-0.24824,-0.23664,-0.21099,-0.017048,0,0,-0.43574,-0.30012,0,-0.39892,0,0,0.15925,0.0020962,0,0.15926,-0.22443,-0.26044,-0.21099,-54.388,-0.23196,0.04429,-3.1157e-06,0.52,0.86,0
0.36369,-0.026466,0.56144,-0.24583,-0.23253,-0.20589,-0.015924,0,0,-0.46726,-0.31173,0,-0.37262,0,0,0.15536,0.0016661,0,0.15537,-0.22193,-0.25644,-0.20589,-56.328,-0.22808,0.044738,-2.6869e-06,0.54,0.86,0
0.35415,-0.026256,0.53365,-0.24096,-0.22577,-0.19931,-0.014356,0,0,-0.48724,-0.30954,0,-0.33592,0,0,0.15365,6.4427e-05,0,0.15366,-0.21712,-0.2496,-0.19931,-58.939,-0.22201,0.044166,-2.1236e-06,0.56,0.86,0
0.34399,-0.025812,0.50626,-0.23828,-0.21893,-0.19342,-0.011805,0,0,-0.52497,-0.29852,0,-0.27624,0,0,0.15135,-0.0019276,0,0.15136,-0.21334,-0.24387,-0.19342,-64.672,-0.21688,0.044017,-1.5518e-06,0.58,0.86,0
0.33315,-0.025224,0.47917,-0.23689,-0.21415,-0.18855,-0.011445,0,0,-0.56555,-0.29948,0,-0.26782,0,0,0.14966,-0.0026704,0,0.14969,-0.20939,-0.24165,-0.18855,-67.406,-0.2132,0.04634,-1.853e-06,0.6,0.86,0
0.3216,-0.024546,0.4523,-0.23375,-0.20806,-0.1828,-0.010684,0,0,-0.59614,-0.29558,0,-0.25001,0,0,0.14875,-0.0036506,0,0.14879,-0.2042,-0.23762,-0.1828,-70.123,-0.20821,0.04785,-2.0747e-06,0.62,0.86,0
0.30931,-0.02381,0.42562,-0.23156,-0.20194,-0.17734,-0.0094925,0,0,-0.63441,-0.28778,0,-0.22212,0,0,0.1479,-0.0047106,0,0.14797,-0.19916,-0.23434,-0.17734,-73.674,-0.20361,0.049818,-2.4953e-06,0.64,0.86,0
0.29623,-0.023031,0.39906,-0.22962,-0.19585,-0.17198,-0.0083137,0,0,-0.67436,-0.2793,0,-0.19454,0,0,0.14727,-0.0056773,0,0.14738,-0.19392,-0.23156,-0.17198,-76.891,-0.19915,0.052186,-3.1948e-06,0.66,0.86,0
0.28233,-0.022216,0.3726,-0.22791,-0.18981,-0.16672,-0.0071234,0,0,-0.71594,-0.27024,0,-0.16669,0,0,0.14685,-0.0065866,0,0.147,-0.18852,-0.2292,-0.16672,-79.747,-0.19481,0.054925,-4.2113e-06,0.68,0.86,0
0.26759,-0.021368,0.34619,-0.22643,-0.18382,-0.16154,-0.0059055,0,0,-0.7592,-0.26066,0,-0.13819,0,0,0.14661,-0.007474,0,0.1468,-0.18302,-0.22723,-0.16154,-82.254,-0.1906,0.058017,-5.5953e-06,0.7,0.86,0
0.25196,-0.020489,0.31982,-0.22519,-0.17787,-0.15646,-0.0046509,0,0,-0.80425,-0.25057,0,-0.10883,0,0,0.14656,-0.0083742,0,0.1468,-0.17742,-0.22565,-0.15646,-84.44,-0.18651,0.061453,-7.4118e-06,0.72,0.86,0
0.23542,-0.01958,0.29343,-0.22322,-0.17192,-0.15114,-0.0035623,0,0,-0.84326,-0.24304,0,-0.083358,0,0,0.14667,-0.0093613,0,0.14696,-0.17167,-0.22346,-0.15114,-86.047,-0.18209,0.064553,-9.2525e-06,0.74,0.86,0
0.21791,-0.018646,0.267,-0.225,-0.16713,-0.14731,-0.0021684,0,0,-0.90905,-0.23192,0,-0.050741,0,0,0.14717,-0.010427,0,0.14754,-0.16705,-0.22509,-0.14731,-87.857,-0.17981,0.070026,-1.3025e-05,0.76,0.86,0
0.19939,-0.017693,0.24048,-0.22207,-0.16021,-0.14141,-0.00076714,0,0,-0.9438,-0.22004,0,-0.017951,0,0,0.14761,-0.011609,0,0.14807,-0.1602,-0.22208,-0.14141,-89.29,-0.17456,0.073112,-1.5688e-05,0.78,0.86,0
0.1798,-0.016733,0.21381,-0.2249,-0.15562,-0.13791,0.00064558,0,0,-1.0178,-0.20714,0,0.015107,0,0,0.14898,-0.01293,0,0.14954,-0.15561,-0.22491,-0.13791,89.466,-0.17281,0.079635,-2.1682e-05,0.8,0.86,0
0.15907,-0.015788,0.18692,-0.22246,-0.14857,-0.13208,0.002036,0,0,-1.0575,-0.19297,0,0.047642,0,0,0.14998,-0.014393,0,0.15067,-0.14852,-0.22251,-0.13208,88.423,-0.1677,0.083441,-2.5977e-05,0.82,0.86,0
0.13709,-0.014886,0.15971,-0.22667,-0.14416,-0.129,0.0032345,0,0,-1.1428,-0.17742,0,0.075686,0,0,0.15284,-0.015954,0,0.15367,-0.14403,-0.2268,-0.129,87.759,-0.16661,0.09122,-3.5439e-05,0.84,0.86,0
0.11379,-0.01406,0.13205,-0.22476,-0.13694,-0.12318,0.004292,0,0,-1.1885,-0.16091,0,0.10043,0,0,0.15483,-0.017467,0,0.15582,-0.13673,-0.22497,-0.12318,87.209,-0.16163,0.09574,-4.2047e-05,0.86,0.86,0
0.089083,-0.01333,0.10377,-0.23026,-0.13282,-0.12045,0.0048908,0,0,-1.2847,-0.14469,0,0.11444,0,0,0.16016,-0.018572,0,0.16125,-0.13257,-0.2305,-0.12045,87.134,-0.16118,0.10452,-5.5989e-05,0.88,0.86,0
0.062897,-0.012658,0.074666,-0.22878,-0.12582,-0.11468,0.0051548,0,0,-1.335,-0.1304,0,0.12062,0,0,0.16346,-0.018549,0,0.16453,-0.12557,-0.22904,-0.11468,87.141,-0.15643,0.10933,-6.4872e-05,0.9,0.86,0
0.035166,-0.011928,0.044597,-0.23515,-0.12176,-0.11203,0.0050652,0,0,-1.4405,-0.11383,0,0.11853,0,0,0.17074,-0.01648,0,0.17155,-0.12153,-0.23537,-0.11203,87.447,-0.15631,0.11888,-8.4432e-05,0.92,0.86,0
0.0058162,-0.011041,0.013531,-0.22333,-0.15426,-0.12079,0.0032179,0,0,-0.78552,-0.085134,0,0.044043,0,0,0.18412,-0.065415,0,0.20116,-0.154,-0.22359,-0.12079,85.118,-0.16613,0.096763,-3.9027e-05,0.94,0.86,0
0.0037456,-0.011999,0.009618,-0.23246,-0.26125,-0.15773,-0.0077227,0,0,-0.097147,-0.13457,0,-0.020079,0,0,0.21892,-0.086853,0,0.23607,-0.23052,-0.26319,-0.15773,-14.107,-0.21714,0.093506,2.5365e-05,0.96,0.86,0
0.0018665,-0.013065,0.0050068,-0.2342,-0.2894,-0.16209,-0.008994,0,0,-0.093744,-0.16551,0,-0.023384,0,0,0.23715,-0.0488,0,0.24165,-0.23277,-0.29083,-0.16209,-9.0242,-0.22856,0.11167,1.2076e-05,0.98,0.86,0
0,-0.013483,0,-0.22664,-0.28953,-0.15485,-0.0080412,0,0,-0.093323,-0.17508,0,-0.020907,0,0,0.25034,0,0,0.24932,-0.22562,-0.29054,-0.15485,-7.1719,-0.22367,0.11755,6.2316e-06,1,0.86,0
0,-0.026755,1,-0.51762,-1.5919,-1.6328,-0.045519,0,0,1.4498,0.053247,0,-0.11835,0,0,0.59033,2.014e-15,0,0.59021,-0.51569,-1.5938,-1.6328,-2.4219,-1.2474,1.0982,0.067729,0,0.88,0
0.028996,-0.029121,0.98819,-0.4926,-1.5332,-1.5959,-0.078997,0,0,1.4343,0.08155,0,-0.20539,0,0,0.59471,0.026467,0,0.59525,-0.48664,-1.5392,-1.5959,-4.3166,-1.2072,1.082,0.06446,0.02,0.88,0
0.057064,-0.036367,0.97612,-0.54955,-1.4619,-1.5796,-0.2088,0,0,1.339,0.15297,0,-0.54288,0,0,0.61806,0.045598,0,0.61982,-0.50403,-1.5074,-1.5796,-12.297,-1.197,1.0413,0.057055,0.04,0.88,0
0.0832,-0.04825,0.96362,-0.53745,-1.2655,-1.5045,-0.26696,0,0,1.2572,0.31066,0,-0.69409,0,0,0.63309,0.05296,0,0.63543,-0.45006,-1.3529,-1.5045,-18.126,-1.1025,0.98743,0.045545,0.06,0.88,0
0.10636,-0.063113,0.95065,-0.65596,-1.0534,-1.4635,-0.3025,0,0,1.0497,0.53306,0,-0.7865,0,0,0.66078,0.048459,0,0.6626,-0.49275,-1.2166,-1.4635,-28.349,-1.0576,0.87384,0.025275,0.08,0.88,0
0.12627,-0.077976,0.93731,-0.63562,-0.8125,-1.3717,-0.27384,0,0,0.95696,0.72701,0,-0.71198,0,0,0.67044,0.037877,0,0.67151,-0.43629,-1.0118,-1.3717,-36.05,-0.93995,0.81727,0.010837,0.1,0.88,0
0.14386,-0.090498,0.92376,-0.69498,-0.68763,-1.3385,-0.1909,0,0,0.83663,0.84618,0,-0.49633,0,0,0.68062,0.026549,0,0.68113,-0.50037,-0.88223,-1.3385,-45.551,-0.90705,0.72683,-0.0030191,0.12,0.88,0
0.16017,-0.099858,0.91011,-0.67349,-0.59019,-1.2892,-0.1359,0,0,0.80045,0.90874,0,-0.35333,0,0,0.68269,0.017636,0,0.68291,-0.4897,-0.77397,-1.2892,-53.52,-0.85096,0.70196,-0.0084517,0.14,0.88,0
0.17588,-0.10619,0.89645,-0.65962,-0.542,-1.2569,-0.093334,0,0,0.77651,0.92942,0,-0.24267,0,0,0.68297,0.010468,0,0.68304,-0.49049,-0.71113,-1.2569,-61.108,-0.81952,0.68338,-0.010816,0.16,0.88,0
0.19123,-0.10991,0.88279,-0.64626,-0.51214,-1.2303,-0.064462,0,0,0.75927,0.93363,0,-0.1676,0,0,0.68195,0.0049097,0,0.68197,-0.48618,-0.67222,-1.2303,-68.066,-0.79624,0.67075,-0.011573,0.18,0.88,0
0.20625,-0.11131,0.86917,-0.63728,-0.4949,-1.2088,-0.043858,0,0,0.74301,0.9281,0,-0.11403,0,0,0.68,0.00047406,0,0.68,-0.48248,-0.6497,-1.2088,-74.181,-0.78034,0.65885,-0.01156,0.2,0.88,0
0.22095,-0.11054,0.85559,-0.63352,-0.48846,-1.1922,-0.026346,0,0,0.72627,0.91484,0,-0.068501,0,0,0.6771,-0.0031869,0,0.67711,-0.48383,-0.63816,-1.1922,-80.018,-0.77139,0.64519,-0.011179,0.22,0.88,0
0.2353,-0.10758,0.84209,-0.63399,-0.49375,-1.1804,-0.006855,0,0,0.71034,0.89266,0,-0.017823,0,0,0.6729,-0.0063658,0,0.67293,-0.49341,-0.63433,-1.1804,-87.208,-0.76938,0.6285,-0.010622,0.24,0.88,0
0.24936,-0.10221,0.82868,-0.63523,-0.51514,-1.1738,0.019829,0,0,0.70013,0.85624,0,0.051557,0,0,0.66655,-0.0093925,0,0.66662,-0.51195,-0.63842,-1.1738,80.862,-0.77472,0.60854,-0.0099102,0.26,0.88,0
0.26331,-0.094095,0.81542,-0.62602,-0.56142,-1.1717,0.056764,0,0,0.70932,0.79331,0,0.14758,0,0,0.65603,-0.01271,0,0.65618,-0.52841,-0.65903,-1.1717,59.822,-0.78637,0.5889,-0.0087749,0.28,0.88,0
0.27773,-0.083043,0.80244,-0.59809,-0.65998,-1.1799,0.098509,0,0,0.7563,0.67584,0,0.25612,0,0,0.63778,-0.016801,0,0.63809,-0.52578,-0.73229,-1.1799,36.28,-0.81264,0.57913,-0.0058688,0.3,0.88,0
0.29356,-0.069546,0.78991,-0.55209,-0.8325,-1.2053,0.11762,0,0,0.84916,0.48463,0,0.30583,0,0,0.6073,-0.017998,0,0.60783,-0.50928,-0.8753,-1.2053,19.998,-0.86329,0.60303,0.0010083,0.32,0.88,0
0.3117,-0.05527,0.77814,-0.49803,-1.0448,-1.241,0.087073,0,0,0.96587,0.25501,0,0.22639,0,0,0.56114,-0.0096747,0,0.56183,-0.4845,-1.0584,-1.241,8.8326,-0.92796,0.68374,0.012553,0.34,0.88,0
0.3322,-0.042333,0.76747,-0.43511,-1.1998,-1.2579,0.014738,0,0,1.0697,0.075618,0,0.038319,0,0,0.49719,0.016182,0,0.49853,-0.43482,-1.2001,-1.2579,1.1038,-0.96427,0.79574,0.025417,0.36,0.88,0
0.35449,-0.031403,0.75826,-0.38129,-1.2813,-1.257,-0.051085,0,0,1.1385,-0.031554,0,-0.13282,0,0,0.41448,0.058718,0,0.42084,-0.3784,-1.2842,-1.257,-3.2382,-0.97321,0.89253,0.036403,0.38,0.88,0
0.37773,-0.021382,0.75089,-0.34686,-1.305,-1.2464,-0.07093,0,0,1.1695,-0.076085,0,-0.18442,0,0,0.31387,0.10155,0,0.33433,-0.34164,-1.3102,-1.2464,-4.2111,-0.96609,0.9383,0.041767,0.4,0.88,0
0.40126,-0.010622,0.7457,-0.29127,-0.74621,-0.72552,-0.059058,0,0,0.37457,-0.048406,0,-0.68147,0,0,0.22714,0.069004,0,0.24414,-0.25413,-0.78334,-0.72552,-28.958,-0.58767,0.51303,0.020604,0.42,0.88,0
0.39272,-0.020117,0.71061,-0.27477,-0.26251,-0.24014,-0.048047,0,0,-0.40517,-0.26176,0,-1.1243,0,0,0.1908,0.019652,0,0.19192,-0.22021,-0.31708,-0.24014,-48.635,-0.25914,0.088604,-2.9719e-05,0.44,0.88,0
0.3855,-0.026537,0.67777,-0.26479,-0.26529,-0.23433,-0.040401,0,0,-0.3564,-0.36218,0,-0.94539,0,0,0.17721,0.022586,0,0.17863,-0.22464,-0.30544,-0.23433,-44.825,-0.2548,0.07642,-2.1683e-05,0.46,0.88,0
0.37846,-0.030223,0.64681,-0.25757,-0.25915,-0.22689,-0.033685,0,0,-0.35907,-0.37747,0,-0.78822,0,0,0.16805,0.018155,0,0.16902,-0.22467,-0.29206,-0.22689,-44.331,-0.24787,0.066307,-1.4916e-05,0.48,0.88,0
0.37114,-0.032127,0.61727,-0.25206,-0.25204,-0.21981,-0.028669,0,0,-0.37726,-0.377,0,-0.67086,0,0,0.16143,0.013501,0,0.16199,-0.22338,-0.28072,-0.21981,-45.011,-0.2413,0.059201,-1.0526e-05,0.5,0.88,0
0.36337,-0.032929,0.5887,-0.24743,-0.24479,-0.21308,-0.024821,0,0,-0.40197,-0.37104,0,-0.58081,0,0,0.15685,0.0094475,0,0.15713,-0.22126,-0.27097,-0.21308,-46.524,-0.2351,0.054266,-7.5826e-06,0.52,0.88,0
0.35506,-0.033049,0.5608,-0.24347,-0.23625,-0.20623,-0.020478,0,0,-0.43569,-0.35131,0,-0.47918,0,0,0.15321,0.0052418,0,0.1533,-0.21907,-0.26065,-0.20623,-49.994,-0.22865,0.049276,-4.7673e-06,0.54,0.88,0
0.34614,-0.032747,0.53338,-0.2385,-0.22883,-0.19947,-0.018433,0,0,-0.45675,-0.34359,0,-0.43134,0,0,0.15168,0.0027213,0,0.15171,-0.21461,-0.25273,-0.19947,-52.35,-0.22227,0.047533,-3.6868e-06,0.56,0.88,0
0.33657,-0.032185,0.50631,-0.23686,-0.22387,-0.19448,-0.017414,0,0,-0.49594,-0.34388,0,-0.40748,0,0,0.14969,0.0010821,0,0.14969,-0.21178,-0.24895,-0.19448,-55.232,-0.2184,0.048213,-3.3568e-06,0.58,0.88,0
0.32631,-0.031461,0.4795,-0.23455,-0.21658,-0.18862,-0.014727,0,0,-0.53739,-0.32722,0,-0.3446,0,0,0.14826,-0.001139,0,0.14826,-0.20832,-0.24282,-0.18862,-60.689,-0.21325,0.047517,-2.4911e-06,0.6,0.88,0
0.31532,-0.030634,0.45287,-0.231,-0.20938,-0.18243,-0.012823,0,0,-0.56824,-0.31524,0,-0.30007,0,0,0.14749,-0.0027729,0,0.14752,-0.20341,-0.23696,-0.18243,-65.068,-0.2076,0.047639,-2.1459e-06,0.62,0.88,0
0.30358,-0.029738,0.4264,-0.22883,-0.20322,-0.17699,-0.011402,0,0,-0.60651,-0.30683,0,-0.26682,0,0,0.14677,-0.0040488,0,0.14683,-0.19888,-0.23317,-0.17699,-69.16,-0.20301,0.049046,-2.2508e-06,0.64,0.88,0
0.29106,-0.028788,0.40003,-0.22687,-0.19713,-0.17165,-0.010007,0,0,-0.6461,-0.29815,0,-0.23416,0,0,0.14624,-0.0051977,0,0.14633,-0.19408,-0.22993,-0.17165,-73.03,-0.19855,0.050912,-2.6174e-06,0.66,0.88,0
0.27773,-0.027793,0.37375,-0.22512,-0.19112,-0.1664,-0.0086044,0,0,-0.68703,-0.28919,0,-0.20134,0,0,0.14586,-0.0062711,0,0.146,-0.18906,-0.22717,-0.1664,-76.578,-0.19421,0.053195,-3.2727e-06,0.68,0.88,0
0.26358,-0.026756,0.34753,-0.22357,-0.18516,-0.16123,-0.0071708,0,0,-0.72934,-0.27995,0,-0.1678,0,0,0.14563,-0.007317,0,0.14581,-0.18387,-0.22487,-0.16123,-79.763,-0.18999,0.055867,-4.2575e-06,0.7,0.88,0
0.24856,-0.02568,0.32133,-0.22224,-0.17927,-0.15615,-0.0056865,0,0,-0.77317,-0.27041,0,-0.13306,0,0,0.14554,-0.0083823,0,0.14578,-0.17853,-0.22298,-0.15615,-82.588,-0.18588,0.058914,-5.6275e-06,0.72,0.88,0
0.23265,-0.024564,0.29513,-0.22114,-0.17343,-0.15116,-0.0041347,0,0,-0.81876,-0.26049,0,-0.096753,0,0,0.14561,-0.0095143,0,0.14592,-0.17307,-0.2215,-0.15116,-85.084,-0.18191,0.062339,-7.4602e-06,0.74,0.88,0
0.21581,-0.023409,0.26891,-0.22034,-0.16765,-0.14627,-0.0025014,0,0,-0.86653,-0.25006,0,-0.058533,0,0,0.14587,-0.010762,0,0.14627,-0.16753,-0.22045,-0.14627,-87.288,-0.17808,0.066165,-9.866e-06,0.76,0.88,0
0.19799,-0.022219,0.24262,-0.21988,-0.16191,-0.14149,-0.0007773,0,0,-0.91711,-0.23884,0,-0.018189,0,0,0.14638,-0.012178,0,0.14689,-0.1619,-0.21989,-0.14149,-89.232,-0.17443,0.070446,-1.3008e-05,0.78,0.88,0
0.17913,-0.021,0.21621,-0.21988,-0.15619,-0.13684,0.0010357,0,0,-0.9715,-0.22637,0,0.024236,0,0,0.14722,-0.013816,0,0.14787,-0.15618,-0.2199,-0.13684,89.069,-0.17097,0.075271,-1.7129e-05,0.8,0.88,0
0.15913,-0.019762,0.18962,-0.22048,-0.15048,-0.13236,0.0029116,0,0,-1.0311,-0.212,0,0.068131,0,0,0.14855,-0.015725,0,0.14938,-0.15035,-0.2206,-0.13236,87.623,-0.16777,0.080767,-2.2596e-05,0.82,0.88,0
0.13788,-0.018528,0.16273,-0.22187,-0.14472,-0.12806,0.004776,0,0,-1.0976,-0.19492,0,0.11176,0,0,0.1506,-0.017934,0,0.15167,-0.14442,-0.22217,-0.12806,86.471,-0.16488,0.087086,-2.9923e-05,0.84,0.88,0
0.11522,-0.017336,0.1354,-0.2242,-0.13888,-0.12397,0.006483,0,0,-1.1727,-0.17449,0,0.1517,0,0,0.15374,-0.020393,0,0.1551,-0.13839,-0.22469,-0.12397,85.679,-0.16235,0.094337,-3.9743e-05,0.86,0.88,0
0.090974,-0.016233,0.10738,-0.22749,-0.133,-0.12008,0.0078151,0,0,-1.2567,-0.15119,0,0.18287,0,0,0.1585,-0.022842,0,0.16015,-0.13236,-0.22813,-0.12008,85.304,-0.16019,0.10247,-5.2586e-05,0.88,0.88,0
0.064956,-0.015226,0.078341,-0.23154,-0.1272,-0.11633,0.0086767,0,0,-1.348,-0.12717,0,0.20303,0,0,0.16517,-0.024426,0,0.16702,-0.12648,-0.23226,-0.11633,85.279,-0.15835,0.1112,-6.865e-05,0.9,0.88,0
0.037053,-0.0141,0.047921,-0.23689,-0.1217,-0.1129,0.0089771,0,0,-1.4506,-0.10292,0,0.21006,0,0,0.17336,-0.023201,0,0.17496,-0.121,-0.23758,-0.1129,85.57,-0.15716,0.12084,-8.9245e-05,0.92,0.88,0
0.0069303,-0.012573,0.015931,-0.22987,-0.14364,-0.1209,0.0045507,0,0,-0.81103,-0.053208,0,0.093137,0,0,0.19693,-0.088369,0,0.22429,-0.14338,-0.23013,-0.1209,87.445,-0.1648,0.1023,-5.4427e-05,0.94,0.88,0
0.0046112,-0.014639,0.011609,-0.25571,-0.26752,-0.16858,-0.0032794,0,0,-0.11327,-0.12863,0,-0.0085264,0,0,0.24517,-0.13073,0,0.27891,-0.25486,-0.26837,-0.16858,-14.519,-0.2306,0.093769,3.9397e-05,0.96,0.88,0
0.0023996,-0.016376,0.0061248,-0.26139,-0.2939,-0.17271,-0.00030031,0,0,-0.11528,-0.15755,0,-0.00078081,0,0,0.29022,-0.072763,0,0.29844,-0.26139,-0.29391,-0.17271,-0.52916,-0.24267,0.10865,4.652e-05,0.98,0.88,0
0,-0.016985,0,-0.25345,-0.28375,-0.16116,-0.011702,0,0,-0.11998,-0.15936,0,-0.030427,0,0,0.30624,-3.8164e-17,0,0.30476,-0.24946,-0.28774,-0.16116,-18.844,-0.23279,0.11244,4.55e-05,1,0.88,0
0,-0.02506,1,-0.50087,-1.5117,-1.6038,-0.037242,0,0,1.4338,0.11971,0,-0.09683,0,0,0.61184,4.8833e-16,0,0.6118,-0.4995,-1.5131,-1.6038,-2.1072,-1.2054,1.0618,0.059974,0,0.9,0
0.028675,-0.026997,0.98776,-0.49476,-1.4668,-1.5762,-0.08196,0,0,1.4059,0.14224,0,-0.2131,0,0,0.61561,0.017305,0,0.61583,-0.4879,-1.4737,-1.5762,-4.7859,-1.1793,1.0409,0.056024,0.02,0.9,0
0.056237,-0.032702,0.97538,-0.52111,-1.3783,-1.5452,-0.15967,0,0,1.3313,0.21692,0,-0.41515,0,0,0.62576,0.030322,0,0.62652,-0.49233,-1.4071,-1.5452,-10.216,-1.1482,0.99108,0.046741,0.04,0.9,0
0.081929,-0.041658,0.96273,-0.561,-1.2313,-1.5004,-0.21877,0,0,1.2213,0.34981,0,-0.56881,0,0,0.63935,0.036362,0,0.64043,-0.49593,-1.2964,-1.5004,-16.567,-1.0976,0.91964,0.033415,0.06,0.9,0
0.10509,-0.05264,0.9498,-0.60609,-1.0442,-1.4449,-0.24216,0,0,1.0904,0.52091,0,-0.6296,0,0,0.65291,0.035515,0,0.6539,-0.49861,-1.1517,-1.4449,-23.934,-1.0317,0.83901,0.018318,0.08,0.9,0
0.12555,-0.063925,0.93662,-0.64867,-0.86552,-1.3909,-0.22599,0,0,0.96486,0.68296,0,-0.58757,0,0,0.66386,0.030021,0,0.66455,-0.50645,-1.0077,-1.3909,-32.185,-0.96836,0.76821,0.0053305,0.1,0.9,0
0.14368,-0.07399,0.92325,-0.68025,-0.72832,-1.3458,-0.18586,0,0,0.86524,0.80275,0,-0.48324,0,0,0.67122,0.022899,0,0.67161,-0.51688,-0.89169,-1.3458,-41.316,-0.91813,0.71898,-0.0031457,0.12,0.9,0
0.16015,-0.081984,0.90977,-0.69681,-0.63476,-1.3092,-0.14043,0,0,0.79615,0.87683,0,-0.36512,0,0,0.67536,0.016119,0,0.67555,-0.52197,-0.8096,-1.3092,-51.23,-0.88027,0.68999,-0.007531,0.14,0.9,0
0.17553,-0.087682,0.89623,-0.70194,-0.57389,-1.279,-0.10128,0,0,0.75015,0.91662,0,-0.26333,0,0,0.67716,0.010462,0,0.67723,-0.51809,-0.75774,-1.279,-61.15,-0.8516,0.67382,-0.0092768,0.16,0.9,0
0.19016,-0.091172,0.88268,-0.70137,-0.53495,-1.2536,-0.070768,0,0,0.71787,0.93421,0,-0.184,0,0,0.67737,0.005927,0,0.67739,-0.50893,-0.7274,-1.2536,-69.809,-0.82997,0.66299,-0.009672,0.18,0.9,0
0.20424,-0.09261,0.86914,-0.69991,-0.51281,-1.2329,-0.046872,0,0,0.69295,0.93619,0,-0.12187,0,0,0.67639,0.0023859,0,0.67639,-0.50172,-0.711,-1.2329,-76.694,-0.81522,0.65228,-0.009464,0.2,0.9,0
0.21788,-0.09209,0.85563,-0.69917,-0.50548,-1.217,-0.026038,0,0,0.6732,0.925,0,-0.067698,0,0,0.67427,-0.00025556,0,0.67427,-0.50204,-0.70261,-1.217,-82.476,-0.80723,0.63877,-0.0090714,0.22,0.9,0
0.23117,-0.089607,0.84217,-0.69831,-0.51394,-1.2058,-0.0046448,0,0,0.65979,0.89948,0,-0.012076,0,0,0.67073,-0.0019983,0,0.67074,-0.51382,-0.69843,-1.2058,-88.558,-0.80603,0.62066,-0.0087162,0.24,0.9,0
0.24427,-0.085076,0.8288,-0.69359,-0.54214,-1.1995,0.01975,0,0,0.6577,0.85459,0,0.051351,0,0,0.66507,-0.0026774,0,0.66508,-0.53961,-0.69613,-1.1995,82.691,-0.81175,0.59723,-0.0084601,0.26,0.9,0
0.25748,-0.078419,0.81556,-0.6801,-0.59908,-1.1993,0.046103,0,0,0.67498,0.78031,0,0.11987,0,0,0.65595,-0.0017645,0,0.65597,-0.57822,-0.70097,-1.1993,65.654,-0.82617,0.56973,-0.0080319,0.28,0.9,0
0.27127,-0.069762,0.80256,-0.65425,-0.69492,-1.2073,0.065846,0,0,0.71898,0.6661,0,0.1712,0,0,0.64144,0.0024015,0,0.64149,-0.60567,-0.7435,-1.2073,36.419,-0.85216,0.54593,-0.0065954,0.3,0.9,0
0.28624,-0.059685,0.78991,-0.61784,-0.83031,-1.2244,0.064106,0,0,0.78847,0.51225,0,0.16668,0,0,0.61929,0.013268,0,0.61952,-0.59999,-0.84815,-1.2244,15.554,-0.89083,0.54449,-0.0028704,0.32,0.9,0
0.30281,-0.049269,0.77779,-0.57469,-0.98117,-1.2445,0.028372,0,0,0.87081,0.34239,0,0.073766,0,0,0.58704,0.036323,0,0.58828,-0.57272,-0.98314,-1.2445,3.9734,-0.93347,0.58657,0.003865,0.34,0.9,0
0.32107,-0.039654,0.76643,-0.5234,-1.11,-1.2565,-0.037013,0,0,0.95296,0.19038,0,-0.096234,0,0,0.54081,0.07772,0,0.5465,-0.52108,-1.1123,-1.2565,-3.5963,-0.96328,0.67495,0.013397,0.36,0.9,0
0.34093,-0.03136,0.75615,-0.44596,-1.2026,-1.2507,-0.10329,0,0,1.0462,0.062567,0,-0.26855,0,0,0.46707,0.14289,0,0.48882,-0.43211,-1.2164,-1.2507,-7.6354,-0.96642,0.80202,0.026332,0.38,0.9,0
0.36292,-0.022935,0.74774,-0.39755,-1.3257,-1.2647,-0.12953,0,0,1.1273,-0.079257,0,-0.33677,0,0,0.35413,0.23351,0,0.4295,-0.37981,-1.3434,-1.2647,-7.7976,-0.99598,0.92676,0.039889,0.4,0.9,0
0.38602,-0.011896,0.74199,-0.31879,-0.79361,-0.74594,-0.084974,0,0,0.37724,-0.11155,0,-0.90007,0,0,0.24304,0.15058,0,0.3004,-0.27383,-0.83857,-0.74594,-28.209,-0.61945,0.53449,0.021349,0.42,0.9,0
0.37801,-0.025977,0.70628,-0.27291,-0.27284,-0.2422,-0.058704,0,0,-0.3593,-0.35846,0,-1.3737,0,0,0.18969,0.034381,0,0.19304,-0.21417,-0.33158,-0.2422,-45.017,-0.26265,0.1062,-4.738e-05,0.44,0.9,0
0.37165,-0.03378,0.6737,-0.26031,-0.26873,-0.23357,-0.045904,0,0,-0.31291,-0.41137,0,-1.0741,0,0,0.17426,0.028839,0,0.17672,-0.21842,-0.31061,-0.23357,-42.381,-0.2542,0.085631,-2.8878e-05,0.46,0.9,0
0.36549,-0.037772,0.64355,-0.25244,-0.26112,-0.22557,-0.037193,0,0,-0.31431,-0.41595,0,-0.8703,0,0,0.16351,0.021759,0,0.16497,-0.21934,-0.29423,-0.22557,-41.669,-0.24638,0.071975,-1.8665e-05,0.48,0.9,0
0.35908,-0.039667,0.61484,-0.24665,-0.25325,-0.21829,-0.031072,0,0,-0.3319,-0.40908,0,-0.72707,0,0,0.15708,0.015707,0,0.15786,-0.21871,-0.2812,-0.21829,-41.97,-0.2394,0.062703,-1.266e-05,0.5,0.9,0
0.35222,-0.04035,0.587,-0.24202,-0.24531,-0.21142,-0.026604,0,0,-0.35798,-0.39654,0,-0.62253,0,0,0.15314,0.010867,0,0.15352,-0.21701,-0.27032,-0.21142,-43.227,-0.23292,0.056313,-8.8676e-06,0.52,0.9,0
0.34476,-0.040297,0.55971,-0.23833,-0.23776,-0.20502,-0.023237,0,0,-0.38978,-0.38307,0,-0.54375,0,0,0.15059,0.0070473,0,0.15075,-0.2148,-0.26128,-0.20502,-45.353,-0.22703,0.052067,-6.3943e-06,0.54,0.9,0
0.33662,-0.039809,0.53278,-0.23522,-0.2306,-0.19894,-0.020614,0,0,-0.42442,-0.37038,0,-0.48238,0,0,0.14886,0.0040178,0,0.14891,-0.21217,-0.25365,-0.19894,-48.196,-0.22159,0.049442,-4.7431e-06,0.56,0.9,0
0.32778,-0.039062,0.50612,-0.23248,-0.22379,-0.19311,-0.018463,0,0,-0.46053,-0.35889,0,-0.43203,0,0,0.14763,0.0015833,0,0.14763,-0.20916,-0.2471,-0.19311,-51.619,-0.21646,0.048015,-3.6176e-06,0.58,0.9,0
0.3182,-0.038159,0.47964,-0.22999,-0.21724,-0.18746,-0.016598,0,0,-0.49757,-0.34842,0,-0.3884,0,0,0.14671,-0.0004088,0,0.14671,-0.20584,-0.2414,-0.18746,-55.504,-0.21157,0.047492,-2.8561e-06,0.6,0.9,0
0.30788,-0.037156,0.4533,-0.22771,-0.21089,-0.18195,-0.014901,0,0,-0.53541,-0.33865,0,-0.34868,0,0,0.14601,-0.0020764,0,0.14603,-0.20219,-0.23641,-0.18195,-59.718,-0.20685,0.047681,-2.3776e-06,0.62,0.9,0
0.29679,-0.036083,0.42707,-0.2256,-0.20469,-0.17654,-0.013292,0,0,-0.57405,-0.32932,0,-0.31103,0,0,0.14547,-0.0035124,0,0.14552,-0.19823,-0.23206,-0.17654,-64.098,-0.20228,0.048462,-2.1494e-06,0.64,0.9,0
0.28491,-0.034957,0.40093,-0.22366,-0.1986,-0.17122,-0.011719,0,0,-0.61349,-0.32025,0,-0.27423,0,0,0.14505,-0.0047927,0,0.14513,-0.19397,-0.22828,-0.17122,-68.459,-0.19783,0.049754,-2.1667e-06,0.66,0.9,0
0.27225,-0.033783,0.37485,-0.22187,-0.1926,-0.16599,-0.010144,0,0,-0.65378,-0.31133,0,-0.23737,0,0,0.14473,-0.0059825,0,0.14485,-0.18943,-0.22504,-0.16599,-72.636,-0.19349,0.0515,-2.4416e-06,0.68,0.9,0
0.25876,-0.032566,0.34883,-0.22023,-0.18669,-0.16084,-0.0085343,0,0,-0.69496,-0.30251,0,-0.1997,0,0,0.1445,-0.0071406,0,0.14468,-0.18465,-0.22228,-0.16084,-76.515,-0.18926,0.05366,-2.9992e-06,0.7,0.9,0
0.24445,-0.031305,0.32283,-0.21876,-0.18087,-0.15576,-0.00686,0,0,-0.73715,-0.29376,0,-0.16052,0,0,0.14436,-0.0083243,0,0.1446,-0.17966,-0.21997,-0.15576,-80.049,-0.18513,0.056206,-3.878e-06,0.72,0.9,0
0.22928,-0.03,0.29686,-0.21748,-0.17513,-0.15077,-0.00509,0,0,-0.78055,-0.28501,0,-0.11911,0,0,0.14433,-0.0095927,0,0.14465,-0.17452,-0.21808,-0.15077,-83.242,-0.18112,0.059133,-5.1351e-06,0.74,0.9,0
0.21323,-0.028648,0.27088,-0.21642,-0.16946,-0.14586,-0.0031894,0,0,-0.82554,-0.27612,0,-0.074632,0,0,0.14442,-0.011011,0,0.14484,-0.16925,-0.21664,-0.14586,-86.132,-0.17725,0.062457,-6.8589e-06,0.76,0.9,0
0.19626,-0.027246,0.24486,-0.21567,-0.16387,-0.14107,-0.0011172,0,0,-0.87279,-0.26681,0,-0.026142,0,0,0.14469,-0.012656,0,0.14525,-0.16385,-0.21569,-0.14107,-88.765,-0.17354,0.066238,-9.1927e-06,0.78,0.9,0
0.17832,-0.025788,0.21879,-0.21534,-0.15834,-0.13641,0.0011731,0,0,-0.92344,-0.25654,0,0.02745,0,0,0.14522,-0.014622,0,0.14596,-0.15832,-0.21536,-0.13641,88.822,-0.17003,0.070595,-1.2379e-05,0.8,0.9,0
0.15932,-0.024268,0.19258,-0.21565,-0.15283,-0.13194,0.0037256,0,0,-0.97941,-0.24437,0,0.087179,0,0,0.14616,-0.017026,0,0.14714,-0.15261,-0.21587,-0.13194,86.618,-0.16681,0.075742,-1.6842e-05,0.82,0.9,0
0.13914,-0.022683,0.16617,-0.21694,-0.14728,-0.12773,0.0065606,0,0,-1.0438,-0.22873,0,0.15352,0,0,0.14775,-0.020015,0,0.1491,-0.14667,-0.21756,-0.12773,84.667,-0.16398,0.082013,-2.332e-05,0.84,0.9,0
0.11757,-0.021039,0.13939,-0.21972,-0.14161,-0.12389,0.0096133,0,0,-1.1213,-0.20733,0,0.22495,0,0,0.1505,-0.023753,0,0.15236,-0.14044,-0.22089,-0.12389,83.086,-0.16174,0.089875,-3.3062e-05,0.86,0.9,0
0.094288,-0.019378,0.11199,-0.22451,-0.13564,-0.12049,0.012675,0,0,-1.217,-0.17732,0,0.29659,0,0,0.15537,-0.028341,0,0.15795,-0.13387,-0.22628,-0.12049,82.039,-0.16021,0.099776,-4.7936e-05,0.88,0.9,0
0.068886,-0.017744,0.083459,-0.23165,-0.12947,-0.11761,0.015345,0,0,-1.3343,-0.13877,0,0.35907,0,0,0.164,-0.033494,0,0.16745,-0.12722,-0.23391,-0.11761,81.641,-0.15958,0.1118,-6.9994e-05,0.9,0.9,0
0.040916,-0.016045,0.052949,-0.2406,-0.12293,-0.11494,0.017824,0,0,-1.4702,-0.093492,0,0.41708,0,0,0.17657,-0.036618,0,0.18052,-0.12029,-0.24324,-0.11494,81.573,-0.15949,0.12571,-0.0001014,0.92,0.9,0
0.01008,-0.01317,0.019894,-0.24569,-0.13266,-0.12456,0.018506,0,0,-0.84271,-0.018965,0,0.22362,0,0,0.21798,-0.14739,0,0.27735,-0.12956,-0.2488,-0.12456,80.671,-0.16764,0.12193,-9.4869e-05,0.94,0.9,0
0.0072076,-0.017144,0.014847,-0.30755,-0.28999,-0.19411,0.034206,0,0,-0.14747,-0.12465,0,0.088935,0,0,0.29941,-0.21894,0,0.37306,-0.26346,-0.33408,-0.19411,52.195,-0.26388,0.12122,-1.449e-06,0.96,0.9,0
0.0041815,-0.019367,0.0079174,-0.32482,-0.26951,-0.18622,0.026876,0,0,-0.18019,-0.10828,0,0.069876,0,0,0.37118,-0.10668,0,0.38399,-0.2586,-0.33573,-0.18622,67.911,-0.26018,0.12951,-6.1321e-06,0.98,0.9,0
0,-0.019858,0,-0.33894,-0.25476,-0.17811,-0.0094385,0,0,-0.20908,-0.099647,0,-0.02454,0,0,0.39587,-6.9389e-18,0,0.39348,-0.25372,-0.33998,-0.17811,-83.68,-0.25727,0.14029,-1.6134e-05,1,0.9,0
0,-0.021966,1,-0.50033,-1.4385,-1.5817,-0.028185,0,0,1.4057,0.18607,0,-0.073281,0,0,0.62494,-1.0057e-15,0,0.62492,-0.49948,-1.4394,-1.5817,-1.7192,-1.1735,1.0185,0.050713,0,0.92,0
0.028115,-0.023432,0.9875,-0.49346,-1.393,-1.5534,-0.065854,0,0,1.378,0.20858,0,-0.17122,0,0,0.62722,0.010589,0,0.6273,-0.48866,-1.3978,-1.5534,-4.165,-1.1466,0.99611,0.046612,0.02,0.92,0
0.055119,-0.02769,0.97491,-0.51871,-1.3113,-1.5239,-0.12521,0,0,1.3068,0.27637,0,-0.32554,0,0,0.63347,0.018892,0,0.63376,-0.4994,-1.3306,-1.5239,-8.7665,-1.118,0.94286,0.037024,0.04,0.92,0
0.080386,-0.034258,0.96216,-0.55678,-1.1896,-1.4861,-0.16903,0,0,1.2081,0.38542,0,-0.43949,0,0,0.64215,0.023459,0,0.6426,-0.51446,-1.2319,-1.4861,-14.056,-1.0775,0.87275,0.024633,0.06,0.92,0
0.10344,-0.042277,0.94922,-0.60148,-1.0428,-1.4425,-0.18889,0,0,1.0933,0.51964,0,-0.49111,0,0,0.65138,0.024094,0,0.65185,-0.53167,-1.1126,-1.4425,-20.282,-1.0289,0.79872,0.01193,0.08,0.92,0
0.12412,-0.050657,0.93611,-0.64576,-0.89605,-1.3986,-0.18334,0,0,0.97876,0.65338,0,-0.47669,0,0,0.6596,0.02172,0,0.65997,-0.54892,-0.99289,-1.3986,-27.841,-0.98015,0.73613,0.0015933,0.1,0.92,0
0.14259,-0.058388,0.92284,-0.68323,-0.77033,-1.3589,-0.15929,0,0,0.87838,0.76516,0,-0.41416,0,0,0.66595,0.017729,0,0.66619,-0.56164,-0.89192,-1.3589,-37.355,-0.93749,0.69383,-0.0050047,0.12,0.92,0
0.15925,-0.064785,0.90947,-0.71046,-0.67382,-1.3248,-0.12736,0,0,0.79858,0.84622,0,-0.33113,0,0,0.67026,0.01335,0,0.67039,-0.56347,-0.82081,-1.3248,-49.093,-0.90301,0.67072,-0.0081616,0.14,0.92,0
0.17454,-0.069526,0.89603,-0.72774,-0.60492,-1.2958,-0.095729,0,0,0.73852,0.89818,0,-0.2489,0,0,0.67278,0.0093193,0,0.67284,-0.55259,-0.78006,-1.2958,-61.34,-0.87616,0.6596,-0.009048,0.16,0.92,0
0.18879,-0.07254,0.88256,-0.73779,-0.5591,-1.2716,-0.068209,0,0,0.69398,0.92629,0,-0.17734,0,0,0.67388,0.0059686,0,0.6739,-0.53604,-0.76085,-1.2716,-71.321,-0.85617,0.65289,-0.00879,0.18,0.92,0
0.2023,-0.073863,0.86908,-0.74339,-0.53264,-1.2519,-0.044946,0,0,0.66104,0.93502,0,-0.11686,0,0,0.67382,0.0034285,0,0.67383,-0.52346,-0.75258,-1.2519,-78.45,-0.84264,0.64514,-0.008157,0.2,0.92,0
0.21524,-0.073544,0.8556,-0.74604,-0.52408,-1.2366,-0.024338,0,0,0.63778,0.92633,0,-0.063278,0,0,0.67272,0.0018222,0,0.67272,-0.52145,-0.74868,-1.2366,-83.816,-0.83559,0.63295,-0.0075921,0.22,0.92,0
0.22781,-0.071596,0.84217,-0.74543,-0.53405,-1.226,-0.0045962,0,0,0.62475,0.89955,0,-0.01195,0,0,0.67047,0.0013958,0,0.67048,-0.53395,-0.74553,-1.226,-88.755,-0.83516,0.61424,-0.0073166,0.24,0.92,0
0.24023,-0.068024,0.82879,-0.73995,-0.5654,-1.2204,0.014771,0,0,0.62457,0.85149,0,0.038404,0,0,0.66678,0.0026739,0,0.66679,-0.56416,-0.74119,-1.2204,85.197,-0.84191,0.58805,-0.0073416,0.26,0.92,0
0.25279,-0.062883,0.8155,-0.72778,-0.62225,-1.2205,0.031282,0,0,0.64054,0.77773,0,0.081334,0,0,0.66111,0.0067424,0,0.66115,-0.61367,-0.73636,-1.2205,74.669,-0.85684,0.55574,-0.0073877,0.28,0.92,0
0.26585,-0.056398,0.80234,-0.70895,-0.70697,-1.2271,0.038659,0,0,0.67362,0.67619,0,0.10051,0,0,0.65282,0.015647,0,0.653,-0.66929,-0.74663,-1.2271,45.733,-0.88101,0.52346,-0.0068277,0.3,0.92,0
0.27973,-0.049056,0.78938,-0.6864,-0.81466,-1.2397,0.028164,0,0,0.71929,0.55255,0,0.073226,0,0,0.64123,0.032828,0,0.64202,-0.68049,-0.82057,-1.2397,11.855,-0.91358,0.50399,-0.0049026,0.32,0.92,0
0.29462,-0.041574,0.77669,-0.6649,-0.93056,-1.2553,-0.0069031,0,0,0.76756,0.4222,0,-0.017948,0,0,0.62559,0.063421,0,0.62862,-0.66472,-0.93074,-1.2553,-1.4875,-0.95026,0.51232,-0.0011793,0.34,0.92,0
0.31044,-0.034717,0.76436,-0.64622,-1.0373,-1.2694,-0.066708,0,0,0.81015,0.30177,0,-0.17344,0,0,0.60376,0.11484,0,0.61403,-0.63515,-1.0483,-1.2694,-9.4188,-0.9843,0.55762,0.0044203,0.36,0.92,0
0.32703,-0.028901,0.75254,-0.61466,-1.1285,-1.2755,-0.15207,0,0,0.85907,0.19111,0,-0.39539,0,0,0.57026,0.19906,0,0.60247,-0.57302,-1.1701,-1.2755,-15.312,-1.0062,0.65615,0.013256,0.38,0.92,0
0.3448,-0.024552,0.74155,-0.43545,-1.1903,-1.2293,-0.21124,0,0,1.0319,0.050713,0,-0.54923,0,0,0.44202,0.34157,0,0.55504,-0.38036,-1.2453,-1.2293,-14.618,-0.95165,0.85706,0.032296,0.4,0.92,0
0.3683,-0.015084,0.73486,-0.35917,-0.9223,-0.7927,-0.19069,0,0,0.37135,-0.30328,0,-1.4692,0,0,0.26895,0.34945,0,0.46508,-0.2752,-1.0063,-0.7927,-30.055,-0.69139,0.65956,0.030452,0.42,0.92,0
0.35965,-0.034455,0.69823,-0.28188,-0.2996,-0.25202,-0.078873,0,0,-0.34929,-0.55664,0,-1.8456,0,0,0.18744,0.057734,0,0.1964,-0.21137,-0.37011,-0.25202,-41.795,-0.27783,0.14282,-0.00010975,0.44,0.92,0
0.35433,-0.042991,0.66738,-0.25778,-0.28225,-0.23616,-0.056645,0,0,-0.25296,-0.53921,0,-1.3255,0,0,0.16458,0.040008,0,0.16932,-0.21207,-0.32797,-0.23616,-38.907,-0.25873,0.10593,-5.0559e-05,0.46,0.92,0
0.34953,-0.046861,0.63898,-0.24693,-0.27045,-0.22621,-0.043714,0,0,-0.24245,-0.51755,0,-1.0229,0,0,0.15492,0.027787,0,0.15735,-0.21342,-0.30396,-0.22621,-37.474,-0.24786,0.084866,-2.9004e-05,0.48,0.92,0
0.34463,-0.04849,0.61161,-0.24001,-0.25917,-0.21771,-0.035477,0,0,-0.26089,-0.48507,0,-0.83017,0,0,0.15054,0.019214,0,0.15174,-0.21284,-0.28634,-0.21771,-37.444,-0.23896,0.071186,-1.8235e-05,0.5,0.92,0
0.3391,-0.04879,0.58478,-0.23592,-0.24939,-0.21057,-0.029864,0,0,-0.29658,-0.45419,0,-0.69883,0,0,0.14819,0.013054,0,0.14875,-0.21204,-0.27326,-0.21057,-38.645,-0.23196,0.061977,-1.2203e-05,0.52,0.92,0
0.33277,-0.048372,0.55827,-0.23295,-0.24073,-0.20413,-0.025954,0,0,-0.33711,-0.42821,0,-0.60732,0,0,0.1468,0.0085015,0,0.14704,-0.21059,-0.26308,-0.20413,-40.735,-0.22594,0.055999,-8.6158e-06,0.54,0.92,0
0.32561,-0.047562,0.53194,-0.23045,-0.23294,-0.19812,-0.023038,0,0,-0.37824,-0.40741,0,-0.53909,0,0,0.1459,0.0050426,0,0.14598,-0.20863,-0.25477,-0.19812,-43.452,-0.22051,0.052194,-6.3174e-06,0.56,0.92,0
0.31764,-0.04654,0.50574,-0.22817,-0.22577,-0.19237,-0.020698,0,0,-0.41875,-0.39075,0,-0.48434,0,0,0.14526,0.0023433,0,0.14528,-0.20624,-0.2477,-0.19237,-46.654,-0.21544,0.049863,-4.7473e-06,0.58,0.92,0
0.30887,-0.045398,0.47964,-0.226,-0.21902,-0.1868,-0.018685,0,0,-0.45864,-0.37699,0,-0.43722,0,0,0.14478,0.00017944,0,0.14478,-0.2035,-0.24152,-0.1868,-50.289,-0.21061,0.048571,-3.6249e-06,0.6,0.92,0
0.2993,-0.044181,0.45362,-0.22393,-0.21256,-0.18135,-0.016855,0,0,-0.49819,-0.36515,0,-0.39439,0,0,0.14439,-0.0016059,0,0.14439,-0.20046,-0.23603,-0.18135,-54.32,-0.20595,0.048067,-2.8165e-06,0.62,0.92,0
0.28894,-0.042911,0.42766,-0.22195,-0.2063,-0.17599,-0.015123,0,0,-0.53767,-0.35459,0,-0.35387,0,0,0.14406,-0.0031281,0,0.14409,-0.1971,-0.23115,-0.17599,-58.678,-0.20141,0.048204,-2.2622e-06,0.64,0.92,0
0.27779,-0.041598,0.40176,-0.22005,-0.2002,-0.17071,-0.013433,0,0,-0.57723,-0.34494,0,-0.31433,0,0,0.14377,-0.0044764,0,0.14384,-0.19342,-0.22682,-0.17071,-63.232,-0.19699,0.048888,-1.9387e-06,0.66,0.92,0
0.26585,-0.040246,0.37591,-0.21824,-0.19422,-0.1655,-0.011744,0,0,-0.61695,-0.33599,0,-0.27481,0,0,0.14351,-0.0057249,0,0.14363,-0.18943,-0.22302,-0.1655,-67.817,-0.19265,0.050047,-1.8413e-06,0.68,0.92,0
0.25311,-0.038857,0.3501,-0.2165,-0.18837,-0.16036,-0.010019,0,0,-0.65687,-0.32766,0,-0.23443,0,0,0.14328,-0.0069394,0,0.14345,-0.18516,-0.21971,-0.16036,-72.273,-0.18841,0.051625,-1.9763e-06,0.7,0.92,0
0.23957,-0.03743,0.32432,-0.21486,-0.18263,-0.15528,-0.0082195,0,0,-0.69705,-0.31992,0,-0.19234,0,0,0.14309,-0.0081837,0,0.14332,-0.18065,-0.21683,-0.15528,-76.489,-0.18425,0.053579,-2.3593e-06,0.72,0.92,0
0.22523,-0.035964,0.29858,-0.21331,-0.177,-0.15027,-0.0063046,0,0,-0.73758,-0.31277,0,-0.14753,0,0,0.14292,-0.0095247,0,0.14324,-0.17594,-0.21438,-0.15027,-80.424,-0.18019,0.055882,-3.0181e-06,0.74,0.92,0
0.21007,-0.034454,0.27287,-0.21189,-0.17151,-0.14534,-0.0042212,0,0,-0.77864,-0.30618,0,-0.098777,0,0,0.14281,-0.011039,0,0.14323,-0.17107,-0.21233,-0.14534,-84.096,-0.17624,0.058529,-4.0005e-06,0.76,0.92,0
0.19408,-0.032892,0.24717,-0.21064,-0.16614,-0.1405,-0.001898,0,0,-0.82062,-0.30006,0,-0.044412,0,0,0.14277,-0.012822,0,0.14334,-0.16606,-0.21072,-0.1405,-87.562,-0.17243,0.061556,-5.3938e-06,0.78,0.92,0
0.17725,-0.031261,0.22148,-0.20965,-0.16092,-0.13578,0.00076577,0,0,-0.86431,-0.29414,0,0.017919,0,0,0.14286,-0.015,0,0.14364,-0.16091,-0.20966,-0.13578,89.1,-0.16878,0.065067,-7.3679e-06,0.8,0.92,0
0.15951,-0.029537,0.19575,-0.20913,-0.15583,-0.13124,0.0039124,0,0,-0.9113,-0.28777,0,0.09155,0,0,0.14316,-0.017752,0,0.14425,-0.15555,-0.20941,-0.13124,85.824,-0.1654,0.069295,-1.027e-05,0.82,0.92,0
0.14079,-0.027677,0.16994,-0.20944,-0.15086,-0.12697,0.0077316,0,0,-0.96485,-0.27947,0,0.18092,0,0,0.14387,-0.021346,0,0.14544,-0.14985,-0.21044,-0.12697,82.606,-0.16242,0.074704,-1.4833e-05,0.84,0.92,0
0.12092,-0.025629,0.14395,-0.21131,-0.14593,-0.12317,0.012463,0,0,-1.0313,-0.26636,0,0.29163,0,0,0.14542,-0.026195,0,0.14774,-0.14364,-0.2136,-0.12317,79.565,-0.16014,0.082138,-2.2612e-05,0.86,0.92,0
0.099543,-0.023325,0.11759,-0.21628,-0.14109,-0.12028,0.018275,0,0,-1.1233,-0.24351,0,0.42763,0,0,0.14876,-0.032961,0,0.15234,-0.13688,-0.22049,-0.12028,77.038,-0.15922,0.093026,-3.6944e-05,0.88,0.92,0
0.075987,-0.020777,0.090399,-0.2265,-0.13617,-0.11885,0.025388,0,0,-1.2595,-0.20273,0,0.59407,0,0,0.1569,-0.042666,0,0.16256,-0.12953,-0.23315,-0.11885,75.329,-0.16051,0.10935,-6.5002e-05,0.9,0.92,0
0.049161,-0.01784,0.061104,-0.24719,-0.13384,-0.1211,0.034478,0,0,-1.4753,-0.14905,0,0.8068,0,0,0.17738,-0.056896,0,0.18653,-0.12418,-0.25686,-0.1211,74.344,-0.16738,0.13425,-0.00012404,0.92,0.92,0
0.016974,-0.013332,0.026543,-0.26153,-0.16467,-0.14261,0.1043,0,0,-0.86986,-0.051636,0,0.70413,0,0,0.25042,-0.32556,0,0.433,-0.088997,-0.3372,-0.14261,62.065,-0.1896,0.22777,-0.00054904,0.94,0.92,0
0.014366,-0.019625,0.020366,-0.37036,-0.21517,-0.19602,0.10919,0,0,-0.22663,-0.024889,0,0.28388,0,0,0.40379,-0.29878,0,0.49673,-0.15881,-0.42671,-0.19602,62.7,-0.26052,0.25137,-0.00075583,0.96,0.92,0
0.0079084,-0.020708,0.010392,-0.50447,-0.22155,-0.2282,0.070525,0,0,-0.35915,0.0086436,0,0.18336,0,0,0.50916,-0.1322,0,0.52265,-0.20494,-0.52107,-0.2282,76.751,-0.31807,0.30517,-0.0014311,0.98,0.92,0
0,-0.020971,0,-0.52188,-0.20382,-0.21771,-0.0050641,0,0,-0.39542,0.018058,0,-0.013167,0,0,0.51959,1.3878e-17,0,0.51684,-0.20374,-0.52196,-0.21771,-89.088,-0.31447,0.31147,-0.0015414,1,0.92,0
0,-0.017617,1,-0.50615,-1.3797,-1.5658,-0.019931,0,0,1.3775,0.24185,0,-0.051821,0,0,0.63302,1.2744e-15,0,0.63301,-0.50569,-1.3802,-1.5658,-1.3063,-1.1505,0.98054,0.042632,0,0.94,0
0.02755,-0.018654,0.98734,-0.49849,-1.3362,-1.5377,-0.048546,0,0,1.351,0.26203,0,-0.12622,0,0,0.6345,0.0064715,0,0.63453,-0.49568,-1.339,-1.5377,-3.3056,-1.1241,0.95827,0.038721,0.02,0.94,0
0.054041,-0.021648,0.97462,-0.522,-1.2633,-1.5102,-0.091542,0,0,1.2847,0.32101,0,-0.23801,0,0,0.63863,0.011718,0,0.63874,-0.51086,-1.2744,-1.5102,-6.9368,-1.0985,0.90478,0.029509,0.04,0.94,0
0.078936,-0.026241,0.96179,-0.55781,-1.1598,-1.4771,-0.12312,0,0,1.195,0.41248,0,-0.3201,0,0,0.64455,0.014914,0,0.64473,-0.5336,-1.184,-1.4771,-11.123,-1.0649,0.83637,0.018084,0.06,0.94,0
0.10184,-0.031855,0.94884,-0.60077,-1.0373,-1.4403,-0.13884,0,0,1.0913,0.52385,0,-0.36098,0,0,0.65117,0.015855,0,0.65137,-0.56036,-1.0777,-1.4403,-16.23,-1.0261,0.76594,0.0069018,0.08,0.94,0
0.12259,-0.03779,0.93575,-0.6451,-0.91175,-1.4028,-0.13795,0,0,0.98501,0.63837,0,-0.35867,0,0,0.65749,0.014903,0,0.65767,-0.58658,-0.97027,-1.4028,-22.989,-0.98655,0.70729,-0.0018796,0.1,0.94,0
0.14124,-0.043384,0.92254,-0.68558,-0.79749,-1.3675,-0.12399,0,0,0.88645,0.74096,0,-0.32238,0,0,0.66285,0.012743,0,0.66298,-0.6055,-0.87757,-1.3675,-32.855,-0.95017,0.6688,-0.0072407,0.12,0.94,0
0.15805,-0.048136,0.90923,-0.7188,-0.70306,-1.3358,-0.10278,0,0,0.80209,0.82255,0,-0.26722,0,0,0.66695,0.010078,0,0.66703,-0.60785,-0.81401,-1.3358,-47.19,-0.91922,0.64987,-0.009462,0.14,0.94,0
0.17333,-0.051755,0.89586,-0.74375,-0.63114,-1.3083,-0.079646,0,0,0.73395,0.88035,0,-0.20708,0,0,0.66978,0.007448,0,0.66982,-0.58991,-0.78499,-1.3083,-62.63,-0.89441,0.64346,-0.0095624,0.16,0.94,0
0.1874,-0.054121,0.88244,-0.76115,-0.58107,-1.2851,-0.057818,0,0,0.68114,0.91525,0,-0.15033,0,0,0.67148,0.0052025,0,0.6715,-0.5641,-0.77812,-1.2851,-73.647,-0.87578,0.64136,-0.0086387,0.18,0.94,0
0.20057,-0.05521,0.869,-0.77237,-0.55143,-1.2661,-0.038332,0,0,0.6419,0.92912,0,-0.099663,0,0,0.67224,0.0035755,0,0.67225,-0.54497,-0.77883,-1.2661,-80.432,-0.86332,0.63728,-0.0075119,0.2,0.94,0
0.21308,-0.055037,0.85555,-0.77841,-0.5414,-1.2515,-0.02089,0,0,0.61501,0.92312,0,-0.054314,0,0,0.67223,0.0028016,0,0.67224,-0.53958,-0.78024,-1.2515,-85.001,-0.85711,0.62723,-0.0066742,0.22,0.94,0
0.22517,-0.053625,0.84211,-0.7796,-0.55126,-1.2414,-0.0049987,0,0,0.6003,0.89714,0,-0.012997,0,0,0.67158,0.0032444,0,0.67159,-0.55115,-0.77971,-1.2414,-88.746,-0.85741,0.609,-0.0063352,0.24,0.94,0
0.23709,-0.051016,0.82869,-0.77578,-0.58211,-1.2361,0.0089198,0,0,0.59835,0.85013,0,0.023191,0,0,0.67041,0.0055554,0,0.67043,-0.5817,-0.77619,-1.2361,87.369,-0.86465,0.58202,-0.0064454,0.26,0.94,0
0.24911,-0.04731,0.81529,-0.76727,-0.63487,-1.2359,0.018709,0,0,0.60927,0.78138,0,0.048644,0,0,0.66892,0.010893,0,0.669,-0.63228,-0.76986,-1.2359,82.109,-0.87936,0.54798,-0.006689,0.28,0.94,0
0.26147,-0.042715,0.80193,-0.75587,-0.70828,-1.2412,0.020383,0,0,0.63089,0.69277,0,0.052996,0,0,0.66753,0.02121,0,0.66783,-0.70074,-0.76341,-1.2412,69.71,-0.90178,0.51199,-0.006546,0.3,0.94,0
0.27434,-0.037583,0.78859,-0.74586,-0.79679,-1.2514,0.0092941,0,0,0.65719,0.59098,0,0.024165,0,0,0.66707,0.039595,0,0.66816,-0.74421,-0.79843,-1.2514,10.026,-0.93134,0.48236,-0.0055193,0.32,0.94,0
0.28775,-0.032381,0.77525,-0.74433,-0.89084,-1.2658,-0.017812,0,0,0.67791,0.48745,0,-0.046313,0,0,0.66905,0.070757,0,0.67256,-0.7422,-0.89297,-1.2658,-6.8336,-0.96699,0.46685,-0.0034473,0.34,0.94,0
0.30146,-0.027584,0.76183,-0.76185,-0.98143,-1.2848,-0.063034,0,0,0.67986,0.3944,0,-0.16389,0,0,0.67645,0.12204,0,0.6868,-0.74504,-0.99824,-1.2848,-14.931,-1.0094,0.46776,-0.00056169,0.36,0.94,0
0.31495,-0.023716,0.74819,-0.82413,-1.0747,-1.3178,-0.12593,0,0,0.64184,0.31606,0,-0.32743,0,0,0.6938,0.20651,0,0.72236,-0.77177,-1.1271,-1.3178,-22.573,-1.0722,0.48001,0.002806,0.38,0.94,0
0.32713,-0.020907,0.73408,-0.949,-1.191,-1.3761,-0.2558,0,0,0.55522,0.24057,0,-0.66509,0,0,0.78408,0.35338,0,0.85291,-0.78703,-1.353,-1.3761,-32.341,-1.172,0.57786,0.0098573,0.4,0.94,0
0.33715,-0.024027,0.71683,-0.84246,-0.92227,-0.92766,-0.31618,0,0,-0.0018311,-0.19173,0,-2.0524,0,0,0.63567,0.36459,0,0.74131,-0.56356,-1.2012,-0.92766,-42.018,-0.89746,0.55729,0.0073618,0.42,0.94,0
0.33209,-0.048242,0.6855,-0.79459,-0.36662,-0.7292,-0.18552,0,0,-0.15303,0.16496,0,-1.4429,0,0,0.79904,0.083241,0,0.80596,-0.26799,-0.89322,-0.7292,-56.086,-0.63014,0.5727,0.020612,0.44,0.94,0
0.33103,-0.055349,0.6593,-0.69144,-0.32065,-0.6699,-0.070153,0,0,-0.050387,0.17942,0,-0.81381,0,0,0.72159,0.050127,0,0.72544,-0.27187,-0.74022,-0.6699,-59.209,-0.56066,0.45021,0.012183,0.46,0.94,0
0.33007,-0.058474,0.63354,-0.67414,-0.28454,-0.63957,-0.04371,0,0,-0.080892,0.20347,0,-0.58746,0,0,0.71358,0.03093,0,0.7153,-0.24764,-0.71104,-0.63957,-59.767,-0.53275,0.44379,0.012649,0.48,0.94,0
0.3278,-0.059069,0.60792,-0.6893,-0.27143,-0.62595,-0.030159,0,0,-0.14823,0.22578,0,-0.45302,0,0,0.71173,0.02021,0,0.71252,-0.24319,-0.71753,-0.62595,-60.622,-0.52889,0.44633,0.013136,0.5,0.94,0
0.32415,-0.058517,0.5823,-0.70478,-0.2612,-0.61329,-0.024297,0,0,-0.21407,0.24158,0,-0.37724,0,0,0.71215,0.013336,0,0.7125,-0.23901,-0.72696,-0.61329,-61.654,-0.52642,0.45221,0.013301,0.52,0.94,0
0.31923,-0.057425,0.55665,-0.71678,-0.2529,-0.60015,-0.021146,0,0,-0.27291,0.25025,0,-0.32897,0,0,0.71291,0.0086055,0,0.71306,-0.2352,-0.73448,-0.60015,-62.952,-0.52328,0.45742,0.012997,0.54,0.94,0
0.31323,-0.056106,0.53097,-0.72484,-0.24528,-0.58602,-0.019067,0,0,-0.32484,0.25311,0,-0.29447,0,0,0.7135,0.0051579,0,0.71356,-0.23101,-0.73911,-0.58602,-64.438,-0.51871,0.46155,0.012347,0.56,0.94,0
0.30624,-0.054692,0.50527,-0.73001,-0.23799,-0.57111,-0.017329,0,0,-0.37183,0.25189,0,-0.26652,0,0,0.71381,0.0025348,0,0.71382,-0.22646,-0.74154,-0.57111,-66.085,-0.51303,0.46488,0.01146,0.58,0.94,0
0.29835,-0.053239,0.47957,-0.73335,-0.23089,-0.5557,-0.015691,0,0,-0.41569,0.24801,0,-0.2418,0,0,0.71381,0.00046505,0,0.71381,-0.22165,-0.74259,-0.5557,-67.904,-0.50665,0.46785,0.010409,0.6,0.94,0
0.28961,-0.051762,0.45388,-0.7356,-0.22395,-0.54002,-0.014084,0,0,-0.45766,0.24241,0,-0.21875,0,0,0.71353,-0.0012252,0,0.71354,-0.21666,-0.74289,-0.54002,-69.914,-0.49986,0.47079,0.0092344,0.62,0.94,0
0.28005,-0.050267,0.4282,-0.7372,-0.21716,-0.5242,-0.012491,0,0,-0.49843,0.23567,0,-0.19658,0,0,0.71301,-0.0026565,0,0.71303,-0.21154,-0.74282,-0.5242,-72.114,-0.49285,0.47391,0.0079601,0.64,0.94,0
0.26968,-0.048754,0.40254,-0.73837,-0.21051,-0.5083,-0.0109,0,0,-0.53837,0.22809,0,-0.17478,0,0,0.71228,-0.003919,0,0.71231,-0.20631,-0.74257,-0.5083,-74.468,-0.48573,0.47728,0.0065993,0.66,0.94,0
0.25851,-0.047223,0.37692,-0.73921,-0.20399,-0.49236,-0.0092957,0,0,-0.57764,0.21983,0,-0.15291,0,0,0.71134,-0.0050854,0,0.7114,-0.20098,-0.74223,-0.49236,-76.906,-0.47852,0.48094,0.0051617,0.68,0.94,0
0.24657,-0.045672,0.35133,-0.73976,-0.19761,-0.47639,-0.0076542,0,0,-0.61628,0.21096,0,-0.13055,0,0,0.71021,-0.0062197,0,0.71029,-0.19556,-0.74182,-0.47639,-79.348,-0.47126,0.48484,0.0036561,0.7,0.94,0
0.23386,-0.044102,0.32578,-0.73999,-0.19137,-0.4604,-0.005946,0,0,-0.65426,0.20148,0,-0.10723,0,0,0.70888,-0.0073837,0,0.70901,-0.19007,-0.7413,-0.4604,-81.723,-0.46392,0.48893,0.0020916,0.72,0.94,0
0.2204,-0.042511,0.30029,-0.73988,-0.18526,-0.44437,-0.0041332,0,0,-0.69149,0.19136,0,-0.082397,0,0,0.70737,-0.0086429,0,0.70753,-0.18453,-0.74061,-0.44437,-83.994,-0.4565,0.49314,0.00047838,0.74,0.94,0
0.2062,-0.040896,0.27485,-0.73933,-0.1793,-0.42828,-0.0021626,0,0,-0.72785,0.18054,0,-0.055302,0,0,0.70563,-0.010075,0,0.70586,-0.17898,-0.73965,-0.42828,3.8383,-0.44897,0.49737,-0.0011714,0.76,0.94,0
0.19129,-0.039248,0.24948,-0.73826,-0.1735,-0.41213,5.0829e-05,0,0,-0.76315,0.16895,0,-0.024867,0,0,0.70367,-0.011779,0,0.70399,-0.17343,-0.73834,-0.41213,1.734,-0.4413,0.50152,-0.0028432,0.78,0.94,0
0.17568,-0.037554,0.22419,-0.73661,-0.16791,-0.39591,0.0026605,0,0,-0.79725,0.15655,0,0.010624,0,0,0.70147,-0.013898,0,0.7019,-0.1679,-0.73662,-0.39591,89.623,-0.43348,0.50551,-0.0045215,0.8,0.94,0
0.1594,-0.035779,0.19898,-0.73447,-0.16264,-0.37967,0.0059534,0,0,-0.83023,0.14344,0,0.05398,0,0,0.69905,-0.016653,0,0.69966,-0.16245,-0.73466,-0.37967,87.413,-0.4256,0.50938,-0.0061975,0.82,0.94,0
0.14247,-0.033862,0.17386,-0.73247,-0.1579,-0.3637,0.010481,0,0,-0.86292,0.1301,0,0.10987,0,0,0.69654,-0.020427,0,0.69745,-0.15718,-0.73319,-0.3637,85.022,-0.41802,0.51364,-0.0078896,0.84,0.94,0
0.12488,-0.031694,0.14882,-0.7326,-0.15434,-0.34876,0.017185,0,0,-0.89818,0.11799,0,0.18547,0,0,0.69443,-0.025951,0,0.69585,-0.15245,-0.73449,-0.34876,82.453,-0.4119,0.51985,-0.0097058,0.86,0.94,0
0.10654,-0.029118,0.12386,-0.73939,-0.15268,-0.33643,0.02822,0,0,-0.94292,0.11014,0,0.29377,0,0,0.69451,-0.034707,0,0.69687,-0.14856,-0.74351,-0.33643,79.797,-0.4095,0.53217,-0.011959,0.88,0.94,0
0.087164,-0.025854,0.098819,-0.77053,-0.162,-0.33466,0.04553,0,0,-1.0199,0.11164,0,0.44576,0,0,0.70033,-0.050848,0,0.70462,-0.15412,-0.77841,-0.33466,77.554,-0.4224,0.5599,-0.015957,0.9,0.94,0
0.065743,-0.022007,0.073432,-0.85545,-0.18153,-0.35189,0.092376,0,0,-1.1783,0.12886,0,0.72666,0,0,0.77063,-0.079163,0,0.77746,-0.16356,-0.87341,-0.35189,74.81,-0.46295,0.63881,-0.026052,0.92,0.94,0
0.04003,-0.015235,0.043334,-0.73245,-0.29402,-0.33201,0.17761,0,0,-1.0919,0.0071034,0,1.1246,0,0,0.61001,-0.33867,0,0.70522,-0.23,-0.79647,-0.33201,67.913,-0.45283,0.52306,-0.015859,0.94,0.94,0
0.025938,-0.01814,0.026798,-0.88518,-0.23455,-0.36272,0.1477,0,0,-0.6792,0.16662,0,0.38403,0,0,0.75321,-0.30204,0,0.80352,-0.20259,-0.91714,-0.36272,77.79,-0.49415,0.64946,-0.011239,0.96,0.94,0
0.012862,-0.019021,0.013205,-0.81007,-0.18341,-0.31125,0.074848,0,0,-0.64846,0.16619,0,0.1946,0,0,0.66996,-0.13115,0,0.67997,-0.1746,-0.81888,-0.31125,83.282,-0.43491,0.58799,-0.00857,0.98,0.94,0
0,-0.019136,0,-0.76991,-0.14745,-0.27521,-0.0021967,0,0,-0.64311,0.16608,0,-0.0057115,0,0,0.66026,-2.0817e-17,0,0.65812,-0.14745,-0.76992,-0.27521,-89.798,-0.39753,0.56944,-0.0078981,1,0.94,0
0,-0.012292,1,-0.51313,-1.3378,-1.5553,-0.01266,0,0,1.3548,0.28267,0,-0.032916,0,0,0.63788,8.7517e-16,0,0.63788,-0.51293,-1.338,-1.5553,-0.87925,-1.1354,0.9525,0.036719,0,0.96,0
0.027096,-0.012951,0.98724,-0.50478,-1.2963,-1.5276,-0.031716,0,0,1.3296,0.30061,0,-0.082463,0,0,0.63894,0.0037373,0,0.63895,-0.50351,-1.2976,-1.5276,-2.2908,-1.1096,0.93065,0.033031,0.02,0.96,0
0.053186,-0.014849,0.97444,-0.52678,-1.2305,-1.5016,-0.059661,0,0,1.2673,0.35246,0,-0.15512,0,0,0.64191,0.0068354,0,0.64195,-0.52176,-1.2355,-1.5016,-4.8117,-1.0863,0.87762,0.02426,0.04,0.96,0
0.077788,-0.017758,0.96157,-0.56058,-1.1392,-1.4715,-0.080287,0,0,1.1842,0.43204,0,-0.20875,0,0,0.64629,0.0088448,0,0.64635,-0.54965,-1.1501,-1.4715,-7.7556,-1.0571,0.81044,0.013561,0.06,0.96,0
0.10055,-0.021323,0.94859,-0.60185,-1.0316,-1.4386,-0.091169,0,0,1.0878,0.52911,0,-0.23704,0,0,0.65137,0.009615,0,0.65145,-0.58331,-1.0502,-1.4386,-11.495,-1.024,0.74177,0.0033107,0.08,0.96,0
0.1213,-0.025122,0.93551,-0.64566,-0.91958,-1.4051,-0.091916,0,0,0.98725,0.63116,0,-0.23898,0,0,0.65649,0.009286,0,0.65656,-0.61768,-0.94756,-1.4051,-16.933,-0.99011,0.68489,-0.0045591,0.1,0.96,0
0.14004,-0.02875,0.92233,-0.68747,-0.81398,-1.3728,-0.084311,0,0,0.89088,0.72642,0,-0.21921,0,0,0.66112,0.0081854,0,0.66118,-0.64533,-0.85613,-1.3728,-26.56,-0.95808,0.64828,-0.0091674,0.12,0.96,0
0.15694,-0.031883,0.90907,-0.72397,-0.72282,-1.3431,-0.071467,0,0,0.80487,0.80637,0,-0.18581,0,0,0.66496,0.0066948,0,0.665,-0.65192,-0.79486,-1.3431,-45.23,-0.92996,0.63195,-0.01076,0.14,0.96,0
0.17224,-0.034312,0.89573,-0.75342,-0.65038,-1.3169,-0.056503,0,0,0.73249,0.86644,0,-0.14691,0,0,0.6679,0.0051521,0,0.66792,-0.62544,-0.77836,-1.3169,-66.179,-0.90689,0.62907,-0.010283,0.16,0.96,0
0.18624,-0.03593,0.88235,-0.77549,-0.59824,-1.2945,-0.041614,0,0,0.67467,0.9051,0,-0.10819,0,0,0.67,0.0038191,0,0.67001,-0.58896,-0.78478,-1.2945,-77.424,-0.8894,0.63083,-0.0088284,0.18,0.96,0
0.19922,-0.036698,0.86893,-0.79064,-0.56655,-1.2761,-0.027839,0,0,0.63108,0.92241,0,-0.072382,0,0,0.67142,0.0029091,0,0.67143,-0.56314,-0.79405,-1.2761,-83.023,-0.87776,0.63007,-0.0072739,0.2,0.96,0
0.21148,-0.036619,0.85549,-0.79956,-0.55514,-1.2619,-0.015429,0,0,0.60105,0.91879,0,-0.040116,0,0,0.67239,0.0026522,0,0.67239,-0.55417,-0.80053,-1.2619,-86.402,-0.8722,0.62227,-0.006159,0.22,0.96,0
0.22327,-0.035711,0.84204,-0.80287,-0.56396,-1.2521,-0.0044784,0,0,0.58398,0.89456,0,-0.011644,0,0,0.67323,0.0033853,0,0.67324,-0.56388,-0.80295,-1.2521,-88.927,-0.87297,0.60519,-0.005689,0.24,0.96,0
0.23484,-0.034018,0.82856,-0.80132,-0.59291,-1.2468,0.0044423,0,0,0.57917,0.85009,0,0.01155,0,0,0.67443,0.0056687,0,0.67445,-0.59282,-0.80141,-1.2468,88.779,-0.88035,0.57864,-0.0057678,0.26,0.96,0
0.24643,-0.031627,0.81506,-0.7962,-0.64112,-1.2463,0.009917,0,0,0.58507,0.78668,0,0.025784,0,0,0.67677,0.010439,0,0.67684,-0.64049,-0.79683,-1.2463,86.356,-0.89453,0.54469,-0.0060524,0.28,0.96,0
0.25824,-0.028688,0.80149,-0.78999,-0.70588,-1.2503,0.0098471,0,0,0.59835,0.70768,0,0.025603,0,0,0.68152,0.019209,0,0.68178,-0.70475,-0.79112,-1.2503,83.41,-0.91537,0.50786,-0.0060767,0.3,0.96,0
0.27037,-0.025417,0.7878,-0.78676,-0.78199,-1.2584,0.0022673,0,0,0.61316,0.61937,0,0.005895,0,0,0.69077,0.034328,0,0.69159,-0.78108,-0.78767,-1.2584,68.247,-0.94239,0.47408,-0.005469,0.32,0.96,0
0.28277,-0.022076,0.77386,-0.79232,-0.86205,-1.2702,-0.013713,0,0,0.62121,0.53056,0,-0.035653,0,0,0.70803,0.059361,0,0.71045,-0.78972,-0.86465,-1.2702,-10.735,-0.97485,0.44772,-0.0041774,0.34,0.96,0
0.29522,-0.018941,0.75948,-0.8148,-0.93909,-1.2856,-0.037067,0,0,0.6121,0.45052,0,-0.096373,0,0,0.73951,0.099643,0,0.74609,-0.80459,-0.94931,-1.2856,-15.407,-1.0132,0.42748,-0.002517,0.36,0.96,0
0.30725,-0.016258,0.74428,-0.85333,-1.0032,-1.3013,-0.07094,0,0,0.5823,0.38743,0,-0.18444,0,0,0.80161,0.16272,0,0.81789,-0.82508,-1.0315,-1.3013,-21.713,-1.0526,0.41359,-0.00082859,0.38,0.96,0
0.31851,-0.014929,0.72741,-0.93467,-1.0773,-1.331,-0.13279,0,0,0.51523,0.32983,0,-0.34525,0,0,0.93267,0.25881,0,0.96986,-0.85526,-1.1567,-1.331,-30.883,-1.1143,0.41688,0.0016495,0.4,0.96,0
0.32786,-0.017645,0.70698,-1.0596,-1.0613,-1.3432,-0.24828,0,0,0.36877,0.36652,0,-0.64553,0,0,1.0958,0.33221,0,1.1523,-0.81214,-1.3087,-1.3432,-44.9,-1.1547,0.5147,0.0068967,0.42,0.96,0
0.33326,-0.027857,0.68358,-1.0658,-0.4743,-1.1456,-0.19489,0,0,0.10376,0.8727,0,-0.50671,0,0,1.2196,0.10907,0,1.2218,-0.41586,-1.1242,-1.1456,-73.308,-0.89523,0.7193,0.019057,0.44,0.96,0
0.33201,-0.035814,0.65819,-1.2119,-0.40924,-1.1445,-0.10033,0,0,-0.087527,0.95586,0,-0.26087,0,0,1.2668,0.05278,0,1.2678,-0.39689,-1.2242,-1.1445,-82.981,-0.92187,0.79049,0.024502,0.46,0.96,0
0.32976,-0.038722,0.63291,-1.199,-0.33839,-1.0941,-0.039515,0,0,-0.13637,0.98247,0,-0.10274,0,0,1.2667,0.028932,0,1.267,-0.33658,-1.2008,-1.0941,-87.377,-0.87719,0.81616,0.02632,0.48,0.96,0
0.32656,-0.039459,0.60752,-1.2001,-0.30132,-1.0579,-0.019852,0,0,-0.18478,0.98361,0,-0.051615,0,0,1.2717,0.017367,0,1.2718,-0.30088,-1.2005,-1.0579,-88.735,-0.85311,0.8375,0.027246,0.5,0.96,0
0.32237,-0.039127,0.58204,-1.2087,-0.28056,-1.0288,-0.014018,0,0,-0.23389,0.97275,0,-0.036445,0,0,1.276,0.01094,0,1.2761,-0.28035,-1.209,-1.0288,-89.135,-0.83938,0.85293,0.02714,0.52,0.96,0
0.3172,-0.038362,0.55648,-1.2192,-0.26782,-1.0026,-0.013219,0,0,-0.28157,0.95518,0,-0.03437,0,0,1.2793,0.0069091,0,1.2793,-0.26764,-1.2194,-1.0026,-89.204,-0.82986,0.86397,0.026225,0.54,0.96,0
0.3111,-0.037438,0.53087,-1.2287,-0.25842,-0.977,-0.01341,0,0,-0.32718,0.93415,0,-0.034866,0,0,1.2814,0.004135,0,1.2814,-0.25824,-1.2289,-0.977,-89.208,-0.82136,0.8724,0.024762,0.56,0.96,0
0.30411,-0.036464,0.50522,-1.2367,-0.25033,-0.95134,-0.01338,0,0,-0.37101,0.91132,0,-0.034788,0,0,1.2827,0.0020932,0,1.2827,-0.25014,-1.2369,-0.95134,-89.223,-0.8128,0.87948,0.022923,0.58,0.96,0
0.29626,-0.035477,0.47956,-1.2435,-0.24271,-0.92542,-0.012919,0,0,-0.41348,0.88753,0,-0.03359,0,0,1.2831,0.00051295,0,1.2831,-0.24254,-1.2436,-0.92542,-89.26,-0.80387,0.88595,0.020805,0.6,0.96,0
0.28757,-0.034484,0.4539,-1.2492,-0.23528,-0.89924,-0.012128,0,0,-0.45492,0.86314,0,-0.031534,0,0,1.2829,-0.00076288,0,1.2829,-0.23514,-1.2493,-0.89924,-89.315,-0.79456,0.89223,0.018463,0.62,0.96,0
0.27807,-0.033484,0.42825,-1.254,-0.22798,-0.87285,-0.011142,0,0,-0.49552,0.83832,0,-0.028968,0,0,1.2822,-0.0018358,0,1.2822,-0.22786,-1.2541,-0.87285,-89.378,-0.78495,0.8985,0.015929,0.64,0.96,0
0.26775,-0.032474,0.40261,-1.2582,-0.22081,-0.8463,-0.010052,0,0,-0.53541,0.81314,0,-0.026135,0,0,1.281,-0.0027782,0,1.281,-0.22071,-1.2583,-0.8463,-89.445,-0.77509,0.90486,0.013226,0.66,0.96,0
0.25665,-0.031452,0.37701,-1.2616,-0.21376,-0.81963,-0.0089076,0,0,-0.57463,0.78763,0,-0.02316,0,0,1.2793,-0.0036472,0,1.2794,-0.21368,-1.2617,-0.81963,-89.513,-0.76501,0.91132,0.01037,0.68,0.96,0
0.24477,-0.030419,0.35144,-1.2645,-0.20686,-0.79286,-0.0077243,0,0,-0.61318,0.7618,0,-0.020083,0,0,1.2773,-0.0044919,0,1.2773,-0.2068,-1.2646,-0.79286,-89.582,-0.75475,0.91785,0.0073813,0.7,0.96,0
0.23212,-0.029371,0.32591,-1.2668,-0.20011,-0.76599,-0.0065003,0,0,-0.65105,0.73563,0,-0.016901,0,0,1.2749,-0.0053602,0,1.2749,-0.20008,-1.2668,-0.76599,-89.651,-0.7443,0.92441,0.0042763,0.72,0.96,0
0.21873,-0.02831,0.30044,-1.2684,-0.19355,-0.73903,-0.0052213,0,0,-0.68818,0.70912,0,-0.013575,0,0,1.272,-0.0063032,0,1.272,-0.19353,-1.2684,-0.73903,-89.722,-0.73366,0.93092,0.0010752,0.74,0.96,0
0.20459,-0.027233,0.27503,-1.2693,-0.18722,-0.71198,-0.003854,0,0,-0.72449,0.6822,0,-0.01002,0,0,1.2687,-0.0073831,0,1.2687,-0.1872,-1.2693,-0.71198,-89.796,-0.72283,0.93726,-0.0022008,0.76,0.96,0
0.18975,-0.026134,0.2497,-1.2694,-0.18121,-0.68488,-0.002316,0,0,-0.75987,0.65477,0,-0.0060216,0,0,1.2648,-0.0086847,0,1.2649,-0.1812,-1.2694,-0.68488,-89.878,-0.71183,0.94327,-0.0055284,0.78,0.96,0
0.1742,-0.024999,0.22444,-1.2687,-0.17575,-0.65778,-0.00040085,0,0,-0.79422,0.62664,0,-0.0010422,0,0,1.2603,-0.010338,0,1.2604,-0.17575,-1.2687,-0.65778,-89.979,-0.70075,0.94873,-0.0088837,0.8,0.96,0
0.15798,-0.0238,0.19928,-1.2674,-0.17128,-0.63088,0.0023813,0,0,-0.82746,0.59748,0,0.0061913,0,0,1.2551,-0.012572,0,1.2552,-0.17128,-1.2674,-0.63088,89.876,-0.68985,0.95338,-0.012245,0.82,0.96,0
0.1411,-0.022473,0.17424,-1.2659,-0.16864,-0.60459,0.0070836,0,0,-0.85966,0.56673,0,0.018417,0,0,1.249,-0.015835,0,1.2491,-0.1686,-1.2659,-0.60459,89.63,-0.6797,0.95695,-0.015603,0.84,0.96,0
0.12359,-0.02091,0.14932,-1.2652,-0.16925,-0.57966,0.015868,0,0,-0.89122,0.53353,0,0.041257,0,0,1.2422,-0.021125,0,1.2424,-0.16902,-1.2654,-0.57966,89.171,-0.67137,0.95944,-0.018978,0.86,0.96,0
0.10545,-0.01892,0.12455,-1.2661,-0.17458,-0.55675,0.03207,0,0,-0.92214,0.49682,0,0.083382,0,0,1.2351,-0.030887,0,1.2355,-0.17363,-1.267,-0.55675,88.319,-0.6658,0.96093,-0.022375,0.88,0.96,0
0.086706,-0.016311,0.099918,-1.2621,-0.18594,-0.53434,0.063329,0,0,-0.94613,0.45292,0,0.16466,0,0,1.233,-0.051547,0,1.234,-0.18223,-1.2658,-0.53434,86.644,-0.6608,0.95742,-0.02539,0.9,0.96,0
0.067608,-0.012685,0.075228,-1.1715,-0.17821,-0.48014,0.095243,0,0,-0.89877,0.39251,0,0.24763,0,0,1.1864,-0.10136,0,1.1884,-0.16916,-1.1805,-0.48014,84.572,-0.60995,0.89727,-0.022638,0.92,0.96,0
0.050756,-0.011003,0.05246,-1.1429,-0.30641,-0.48726,0.12649,0,0,-0.85237,0.23511,0,0.32889,0,0,1.0695,-0.30411,0,1.1186,-0.2877,-1.1616,-0.48726,81.587,-0.64554,0.79322,-0.020267,0.94,0.96,0
0.033514,-0.01296,0.032448,-1.0601,-0.18166,-0.40498,0.071392,0,0,-0.85167,0.29032,0,0.18562,0,0,0.92056,-0.21648,0,0.94668,-0.17589,-1.0659,-0.40498,85.384,-0.54892,0.80042,-0.019245,0.96,0.96,0
0.016688,-0.01406,0.015638,-0.99812,-0.12852,-0.35363,0.041116,0,0,-0.83784,0.29264,0,0.1069,0,0,0.8112,-0.099701,0,0.8163,-0.12658,-1.0001,-0.35363,87.299,-0.49342,0.78498,-0.018015,0.98,0.96,0
0,-0.014328,0,-0.95624,-0.091662,-0.31437,-0.0051437,0,0,-0.83443,0.28952,0,-0.013374,0,0,0.78189,-2.4286e-17,0,0.78079,-0.091631,-0.95627,-0.31437,-89.659,-0.45409,0.77757,-0.017633,1,0.96,0
0,-0.0063103,1,-0.5183,-1.313,-1.5494,-0.0061373,0,0,1.3404,0.3073,0,-0.015957,0,0,0.64049,8.4053e-16,0,0.64049,-0.51825,-1.3131,-1.5494,-0.44244,-1.1269,0.93563,0.03319,0,0.98,0
0.026808,-0.0066295,0.98719,-0.50951,-1.2729,-1.5219,-0.015628,0,0,1.3161,0.32376,0,-0.040632,0,0,0.64134,0.0017162,0,0.64134,-0.50919,-1.2732,-1.5219,-1.1724,-1.1014,0.91409,0.029655,0.02,0.98,0
0.052644,-0.0075494,0.97435,-0.53052,-1.2113,-1.4969,-0.029386,0,0,1.2563,0.37123,0,-0.076404,0,0,0.64374,0.0031572,0,0.64375,-0.52926,-1.2126,-1.4969,-2.4669,-1.0796,0.86144,0.021182,0.04,0.98,0
0.077061,-0.0089594,0.96144,-0.56302,-1.1269,-1.4684,-0.039594,0,0,1.177,0.44396,0,-0.10294,0,0,0.64733,0.0041241,0,0.64734,-0.56025,-1.1297,-1.4684,-3.9969,-1.0528,0.79491,0.010915,0.06,0.98,0
0.099725,-0.010691,0.94845,-0.60312,-1.0276,-1.4377,-0.045159,0,0,1.0849,0.53307,0,-0.11741,0,0,0.65161,0.0045403,0,0.65163,-0.59837,-1.0324,-1.4377,-6.0058,-1.0228,0.727,0.0011677,0.08,0.98,0
0.12046,-0.012544,0.93538,-0.64643,-0.92312,-1.4062,-0.045896,0,0,0.98776,0.62806,0,-0.11933,0,0,0.65607,0.0044526,0,0.65608,-0.63901,-0.93054,-1.4062,-9.1766,-0.99193,0.67079,-0.0062242,0.1,0.98,0
0.13923,-0.014327,0.92221,-0.68876,-0.8228,-1.3757,-0.042564,0,0,0.89299,0.71874,0,-0.11066,0,0,0.66026,0.0039938,0,0.66028,-0.67639,-0.83517,-1.3757,-16.21,-0.96241,0.63497,-0.010428,0.12,0.98,0
0.15618,-0.015881,0.90897,-0.72684,-0.73412,-1.3473,-0.036521,0,0,0.80654,0.79707,0,-0.094954,0,0,0.66392,0.0033316,0,0.66393,-0.69378,-0.76718,-1.3473,-42.152,-0.93607,0.62004,-0.011666,0.14,0.98,0
0.1715,-0.017098,0.89565,-0.75862,-0.662,-1.3218,-0.029203,0,0,0.73218,0.85779,0,-0.075927,0,0,0.6669,0.0026267,0,0.66691,-0.65386,-0.76676,-1.3218,-74.424,-0.91416,0.6193,-0.010845,0.16,0.98,0
0.18546,-0.017917,0.88229,-0.78325,-0.60902,-1.3,-0.021699,0,0,0.67173,0.89824,0,-0.056417,0,0,0.66923,0.0020162,0,0.66924,-0.60636,-0.78592,-1.3,-83.007,-0.89741,0.62354,-0.0090582,0.18,0.98,0
0.19837,-0.018313,0.86889,-0.80072,-0.57623,-1.282,-0.014619,0,0,0.62562,0.91746,0,-0.03801,0,0,0.67107,0.0016225,0,0.67108,-0.57528,-0.80167,-1.282,-86.29,-0.88631,0.62504,-0.0072219,0.2,0.98,0
0.21049,-0.018285,0.85545,-0.81151,-0.56385,-1.2681,-0.0082172,0,0,0.5935,0.91547,0,-0.021365,0,0,0.67271,0.0015832,0,0.67271,-0.56358,-0.81178,-1.2681,-88.102,-0.88114,0.6189,-0.0059085,0.22,0.98,0
0.22211,-0.017843,0.84198,-0.81641,-0.57165,-1.2584,-0.0026622,0,0,0.57458,0.89277,0,-0.0069218,0,0,0.6746,0.0020963,0,0.6746,-0.57162,-0.81644,-1.2584,-89.377,-0.88215,0.60288,-0.0053232,0.24,0.98,0
0.23347,-0.017013,0.82846,-0.81653,-0.59889,-1.2531,0.0016913,0,0,0.56753,0.85046,0,0.0043973,0,0,0.67747,0.0034806,0,0.67748,-0.59888,-0.81654,-1.2531,89.555,-0.8895,0.57704,-0.0053454,0.26,0.98,0
0.24481,-0.015842,0.81488,-0.81352,-0.64388,-1.2521,0.0041803,0,0,0.57015,0.79068,0,0.010869,0,0,0.68246,0.0062551,0,0.68249,-0.64377,-0.81362,-1.2521,88.589,-0.90316,0.54368,-0.0056193,0.28,0.98,0
0.25628,-0.014407,0.80116,-0.80974,-0.70343,-1.2551,0.0039753,0,0,0.57899,0.71719,0,0.010336,0,0,0.69141,0.011243,0,0.69152,-0.70329,-0.80989,-1.2551,87.862,-0.92276,0.50701,-0.0057088,0.3,0.98,0
0.26797,-0.012808,0.78722,-0.80818,-0.77269,-1.2615,0.00050199,0,0,0.58929,0.63543,0,0.0013052,0,0,0.70722,0.01971,0,0.70753,-0.77268,-0.80819,-1.2615,89.19,-0.94745,0.47205,-0.0052994,0.32,0.98,0
0.27985,-0.011159,0.77288,-0.81218,-0.8457,-1.2702,-0.0059649,0,0,0.59547,0.5519,0,-0.015509,0,0,0.73436,0.03354,0,0.73525,-0.81115,-0.84673,-1.2702,-9.7962,-0.97604,0.44237,-0.0043494,0.34,0.98,0
0.29179,-0.0095628,0.75785,-0.82362,-0.91525,-1.2795,-0.014848,0,0,0.59266,0.47353,0,-0.038606,0,0,0.77981,0.055276,0,0.78211,-0.82127,-0.9176,-1.2795,-8.978,-1.0061,0.41847,-0.003102,0.36,0.98,0
0.30356,-0.0082185,0.74168,-0.84826,-0.97644,-1.2891,-0.028273,0,0,0.57309,0.40645,0,-0.07351,0,0,0.85296,0.086949,0,0.85833,-0.8423,-0.9824,-1.2891,-11.902,-1.0379,0.3958,-0.0018919,0.38,0.98,0
0.31471,-0.0077133,0.72373,-0.89719,-1.0083,-1.2954,-0.058034,0,0,0.51763,0.37323,0,-0.15089,0,0,0.95357,0.11914,0,0.96312,-0.8724,-1.0331,-1.2954,-23.129,-1.0669,0.36981,-0.001044,0.4,0.98,0
0.32426,-0.0093664,0.70354,-0.9901,-0.94464,-1.284,-0.10125,0,0,0.38202,0.44112,0,-0.26324,0,0,1.0649,0.11245,0,1.0724,-0.86361,-1.0711,-1.284,-51.327,-1.0729,0.36405,-5.4079e-05,0.42,0.98,0
0.32999,-0.013334,0.68113,-1.0586,-0.66146,-1.1972,-0.11564,0,0,0.18008,0.69642,0,-0.30065,0,0,1.1588,0.080333,0,1.1623,-0.63025,-1.0898,-1.1972,-74.894,-0.97242,0.52161,0.0062615,0.44,0.98,0
0.33147,-0.017114,0.65719,-1.1393,-0.44318,-1.1319,-0.067019,0,0,-0.0095536,0.89536,0,-0.17425,0,0,1.2187,0.036162,0,1.2192,-0.43679,-1.1457,-1.1319,-84.55,-0.90479,0.70211,0.017753,0.46,0.98,0
0.32961,-0.019175,0.63238,-1.2017,-0.35463,-1.0993,-0.027485,0,0,-0.13315,0.96805,0,-0.071461,0,0,1.249,0.01818,0,1.2492,-0.35374,-1.2026,-1.0993,-88.144,-0.88521,0.80221,0.025038,0.48,0.98,0
0.32614,-0.019725,0.60723,-1.2188,-0.30577,-1.0646,-0.0092036,0,0,-0.20045,0.98647,0,-0.023929,0,0,1.2631,0.010196,0,1.2632,-0.30568,-1.2189,-1.0646,-89.422,-0.86305,0.84667,0.027715,0.5,0.98,0
0.32159,-0.019607,0.58186,-1.2258,-0.28163,-1.0341,-0.0046332,0,0,-0.2492,0.97818,0,-0.012046,0,0,1.2714,0.0061515,0,1.2714,-0.28161,-1.2258,-1.0341,-89.719,-0.84716,0.86442,0.027753,0.52,0.98,0
0.31617,-0.019218,0.55637,-1.2299,-0.26798,-1.0057,-0.0045327,0,0,-0.29137,0.95906,0,-0.011785,0,0,1.2764,0.0037998,0,1.2764,-0.26796,-1.2299,-1.0057,-89.73,-0.83452,0.87172,0.026589,0.54,0.98,0
0.30994,-0.01874,0.5308,-1.234,-0.25864,-0.9786,-0.0053636,0,0,-0.33204,0.93595,0,-0.013945,0,0,1.2795,0.0022631,0,1.2795,-0.25861,-1.234,-0.9786,-89.685,-0.82375,0.8761,0.024895,0.56,0.98,0
0.30289,-0.018239,0.50519,-1.2386,-0.25078,-0.95201,-0.0059495,0,0,-0.37261,0.91161,0,-0.015469,0,0,1.2812,0.0011674,0,1.2812,-0.25074,-1.2387,-0.95201,-89.655,-0.81381,0.88033,0.022924,0.58,0.98,0
0.29503,-0.017737,0.47955,-1.2435,-0.24336,-0.92561,-0.0060987,0,0,-0.41326,0.88693,0,-0.015857,0,0,1.282,0.00033517,0,1.282,-0.24332,-1.2435,-0.92561,-89.651,-0.80416,0.88516,0.020751,0.6,0.98,0
0.28636,-0.017236,0.45391,-1.2483,-0.23605,-0.89921,-0.0059079,0,0,-0.45378,0.8621,0,-0.01536,0,0,1.282,-0.00032939,0,1.282,-0.23602,-1.2483,-0.89921,-89.666,-0.79451,0.89062,0.018398,0.62,0.98,0
0.27688,-0.016734,0.42827,-1.2527,-0.22881,-0.87273,-0.0055108,0,0,-0.49398,0.8371,0,-0.014328,0,0,1.2814,-0.00088459,0,1.2814,-0.22878,-1.2527,-0.87273,-89.692,-0.78475,0.89654,0.015872,0.64,0.98,0
0.2666,-0.016228,0.40265,-1.2567,-0.22166,-0.84616,-0.0050044,0,0,-0.53369,0.81185,0,-0.013012,0,0,1.2803,-0.0013704,0,1.2803,-0.22164,-1.2567,-0.84616,-89.723,-0.77484,0.90277,0.013183,0.66,0.98,0
0.25553,-0.015717,0.37706,-1.2601,-0.21464,-0.81949,-0.0044445,0,0,-0.57283,0.78631,0,-0.011556,0,0,1.2787,-0.0018175,0,1.2787,-0.21462,-1.2602,-0.81949,-89.756,-0.76475,0.90917,0.010344,0.68,0.98,0
0.24369,-0.0152,0.35151,-1.263,-0.20776,-0.79273,-0.0038572,0,0,-0.61134,0.76046,0,-0.010029,0,0,1.2767,-0.002252,0,1.2767,-0.20775,-1.263,-0.79273,-89.791,-0.7545,0.91568,0.0073709,0.7,0.98,0
0.23108,-0.014677,0.32599,-1.2653,-0.20106,-0.76589,-0.0032525,0,0,-0.64918,0.73428,0,-0.0084566,0,0,1.2742,-0.0026993,0,1.2742,-0.20105,-1.2653,-0.76589,-89.825,-0.74407,0.92223,0.004282,0.72,0.98,0
0.21772,-0.014146,0.30054,-1.2669,-0.19455,-0.73898,-0.0026299,0,0,-0.68631,0.70775,0,-0.0068378,0,0,1.2712,-0.0031869,0,1.2712,-0.19455,-1.2669,-0.73898,-89.859,-0.73348,0.92874,0.0010958,0.74,0.98,0
0.20363,-0.013608,0.27515,-1.2679,-0.1883,-0.71201,-0.001973,0,0,-0.72267,0.68082,0,-0.0051299,0,0,1.2678,-0.0037491,0,1.2678,-0.1883,-1.2679,-0.71201,-89.895,-0.72274,0.93511,-0.0021678,0.76,0.98,0
0.18881,-0.013058,0.24983,-1.2682,-0.18245,-0.68502,-0.0012239,0,0,-0.75811,0.65334,0,-0.0031821,0,0,1.2637,-0.0044351,0,1.2637,-0.18244,-1.2682,-0.68502,-89.935,-0.71188,0.94114,-0.0054862,0.78,0.98,0
0.1733,-0.012488,0.2246,-1.2675,-0.1773,-0.65805,-0.00021723,0,0,-0.79234,0.62498,0,-0.0005648,0,0,1.2588,-0.0053251,0,1.2588,-0.1773,-1.2675,-0.65805,-89.989,-0.70097,0.94637,-0.0088282,0.8,0.98,0
0.15712,-0.01188,0.19948,-1.2655,-0.17351,-0.6312,0.0014559,0,0,-0.82466,0.59499,0,0.0037853,0,0,1.2528,-0.0065711,0,1.2528,-0.17351,-1.2655,-0.6312,89.924,-0.69009,0.94985,-0.012138,0.82,0.98,0
0.14031,-0.011193,0.17449,-1.2611,-0.17234,-0.60452,0.0047055,0,0,-0.85356,0.56183,0,0.012234,0,0,1.2452,-0.0084986,0,1.2452,-0.17232,-1.2611,-0.60452,89.752,-0.67932,0.94958,-0.015299,0.84,0.98,0
0.12298,-0.010352,0.14967,-1.2517,-0.17583,-0.57794,0.011239,0,0,-0.87594,0.52274,0,0.029221,0,0,1.2349,-0.011887,0,1.235,-0.17571,-1.2519,-0.57794,89.402,-0.6685,0.94182,-0.018051,0.86,0.98,0
0.10528,-0.0092453,0.12509,-1.2333,-0.18747,-0.55131,0.023827,0,0,-0.88653,0.47299,0,0.061951,0,0,1.2197,-0.018749,0,1.2199,-0.18693,-1.2338,-0.55131,88.695,-0.65735,0.92046,-0.019937,0.88,0.98,0
0.087515,-0.0077369,0.10088,-1.1927,-0.20717,-0.52085,0.040614,0,0,-0.87344,0.40778,0,0.1056,0,0,1.1901,-0.034545,0,1.1906,-0.2055,-1.1944,-0.52085,87.644,-0.64025,0.87494,-0.019945,0.9,0.98,0
0.07034,-0.0063066,0.077486,-1.1568,-0.25798,-0.50193,0.051265,0,0,-0.85138,0.31713,0,0.13329,0,0,1.1346,-0.073821,0,1.1375,-0.25507,-1.1598,-0.50193,86.746,-0.63892,0.80998,-0.018989,0.92,0.98,0
0.05346,-0.0058306,0.055498,-1.1216,-0.25768,-0.46927,0.032005,0,0,-0.84798,0.27507,0,0.083212,0,0,1.0507,-0.099016,0,1.0567,-0.25649,-1.1227,-0.46927,87.881,-0.61617,0.78189,-0.018558,0.94,0.98,0
0.036421,-0.006527,0.035458,-1.0781,-0.15664,-0.40587,0.019881,0,0,-0.87386,0.324,0,0.05169,0,0,0.95762,-0.09636,0,0.96385,-0.15621,-1.0785,-0.40587,88.765,-0.54686,0.82625,-0.020303,0.96,0.98,0
0.018506,-0.0073156,0.017193,-1.0659,-0.095103,-0.36549,0.012081,0,0,-0.91051,0.3515,0,0.03141,0,0,0.88644,-0.051568,0,0.88804,-0.094952,-1.066,-0.36549,89.287,-0.50882,0.86803,-0.022919,0.98,0.98,0
0,-0.0075548,0,-1.0389,-0.051647,-0.32718,-0.004599,0,0,-0.9253,0.35819,0,-0.011957,0,0,0.85967,-3.4694e-18,0,0.85934,-0.051626,-1.039,-0.32718,-89.733,-0.47259,0.88244,-0.024039,1,0.98,0
0,0,1,-0.52017,-1.3048,-1.5475,-3.296e-17,0,0,1.3355,0.31552,0,-7.2858e-17,0,0,0.64132,2.9122e-15,0,0.64132,-0.52017,-1.3048,-1.5475,-2.4069e-15,-1.1241,0.93002,0.032024,0,1,0
0.02671,0,0.98717,-0.51124,-1.2651,-1.5201,-0.001889,0,0,1.3115,0.33147,0,-0.0049114,0,0,0.6421,0.00082289,0,0.6421,-0.51123,-1.2651,-1.5201,-0.14357,-1.0988,0.90859,0.028541,0.02,1,0
0.052459,0,0.97432,-0.53191,-1.205,-1.4954,-0.0035517,0,0,1.2525,0.37747,0,-0.0092344,0,0,0.64432,0.001518,0,0.64432,-0.53189,-1.2051,-1.4954,-0.3023,-1.0775,0.8561,0.020175,0.04,1,0
0.076812,0,0.9614,-0.56395,-1.1228,-1.4674,-0.0047827,0,0,1.1745,0.44797,0,-0.012435,0,0,0.64767,0.0019919,0,0.64767,-0.56391,-1.1229,-1.4674,-0.49026,-1.0514,0.78979,0.010051,0.06,1,0
0.099441,0,0.94841,-0.60365,-1.0262,-1.4374,-0.0054652,0,0,1.0838,0.53453,0,-0.014209,0,0,0.6517,0.0022062,0,0.65171,-0.60358,-1.0263,-1.4374,-0.74091,-1.0224,0.7221,0.00046493,0.08,1,0
0.12016,0,0.93533,-0.64676,-0.92413,-1.4066,-0.0056259,0,0,0.98779,0.62721,0,-0.014627,0,0,0.65595,0.0021796,0,0.65595,-0.64665,-0.92424,-1.4066,-1.1615,-0.9925,0.66605,-0.0067776,0.1,1,0
0.13895,0,0.92217,-0.68922,-0.82556,-1.3766,-0.0054376,0,0,0.89361,0.71635,0,-0.014138,0,0,0.66,0.0019716,0,0.66001,-0.689,-0.82578,-1.3766,-2.2802,-0.96379,0.63044,-0.010855,0.12,1,0
0.15591,0,0.90893,-0.72776,-0.73779,-1.3486,-0.0051555,0,0,0.80709,0.79405,0,-0.013404,0,0,0.66359,0.0016607,0,0.6636,-0.72559,-0.73997,-1.3486,-22.893,-0.93805,0.61595,-0.01198,0.14,1,0
0.17124,0,0.89563,-0.76027,-0.66587,-1.3235,-0.0050174,0,0,0.73216,0.85488,0,-0.013045,0,0,0.66659,0.0013253,0,0.66659,-0.66561,-0.76053,-1.3235,-86.966,-0.91654,0.61591,-0.011045,0.16,1,0
0.18519,0,0.88227,-0.78571,-0.61269,-1.3018,-0.0051717,0,0,0.6709,0.89583,0,-0.013447,0,0,0.669,0.0010351,0,0.669,-0.61253,-0.78586,-1.3018,-88.29,-0.90006,0.62101,-0.0091459,0.18,1,0
0.19807,0,0.86887,-0.80394,-0.57955,-1.2839,-0.0056585,0,0,0.62397,0.91567,0,-0.014712,0,0,0.67099,0.00085492,0,0.67099,-0.57941,-0.80408,-1.2839,-88.556,-0.88914,0.62332,-0.0072108,0.2,1,0
0.21015,0,0.85543,-0.81538,-0.56682,-1.2701,-0.0064458,0,0,0.59112,0.91425,0,-0.016759,0,0,0.67286,0.00085939,0,0.67286,-0.56665,-0.81555,-1.2701,-88.516,-0.8841,0.61781,-0.0058238,0.22,1,0
0.22172,0,0.84195,-0.82086,-0.57421,-1.2605,-0.0074928,0,0,0.5715,0.89214,0,-0.019481,0,0,0.67512,0.001155,0,0.67513,-0.57399,-0.82108,-1.2605,-88.261,-0.88518,0.60224,-0.0051905,0.24,1,0
0.23301,0,0.82842,-0.82157,-0.6008,-1.2551,-0.0088101,0,0,0.56363,0.85064,0,-0.022906,0,0,0.67859,0.0019109,0,0.67859,-0.60045,-0.82192,-1.2551,-87.718,-0.8925,0.57678,-0.0051829,0.26,1,0
0.24426,0,0.81481,-0.81924,-0.64465,-1.254,-0.010486,0,0,0.56516,0.79212,0,-0.027265,0,0,0.68453,0.0033996,0,0.68454,-0.64402,-0.81986,-1.254,-86.575,-0.90595,0.54379,-0.0054414,0.28,1,0
0.25562,0,0.80104,-0.81607,-0.70248,-1.2566,-0.012649,0,0,0.5727,0.72037,0,-0.032887,0,0,0.69497,0.0060498,0,0.695,-0.70109,-0.81746,-1.2566,-83.722,-0.92505,0.50744,-0.0055395,0.3,1,0
0.26717,0,0.78701,-0.81455,-0.76964,-1.2623,-0.015323,0,0,0.58203,0.64041,0,-0.039839,0,0,0.71307,0.010518,0,0.71314,-0.76491,-0.81928,-1.2623,-72.845,-0.94882,0.47252,-0.0051776,0.32,1,0
0.2789,0,0.77252,-0.81651,-0.84043,-1.2696,-0.018232,0,0,0.58901,0.55793,0,-0.047402,0,0,0.7436,0.017756,0,0.7438,-0.80667,-0.85027,-1.2696,-28.372,-0.97552,0.44274,-0.004312,0.34,1,0
0.29073,0,0.75727,-0.82444,-0.90971,-1.2775,-0.020292,0,0,0.58899,0.47814,0,-0.052759,0,0,0.79292,0.02898,0,0.79343,-0.81986,-0.91429,-1.2775,-12.726,-1.0039,0.41851,-0.0031281,0.36,1,0
0.30246,0,0.7408,-0.84464,-0.96872,-1.2848,-0.02105,0,0,0.57222,0.41092,0,-0.05473,0,0,0.86547,0.043976,0,0.86657,-0.84117,-0.97219,-1.2848,-9.3714,-1.0327,0.39479,-0.0020267,0.38,1,0
0.31362,0,0.72265,-0.89454,-0.99192,-1.2886,-0.020958,0,0,0.51226,0.38566,0,-0.054492,0,0,0.95816,0.053994,0,0.95968,-0.89022,-0.99624,-1.2886,-11.644,-1.0583,0.35735,-0.001667,0.4,1,0
0.32295,0,0.70248,-0.96908,-0.90422,-1.2645,-0.02518,0,0,0.38401,0.46832,0,-0.065468,0,0,1.057,0.053158,0,1.0583,-0.89559,-0.9777,-1.2645,-71.085,-1.0459,0.33544,-0.0015539,0.42,1,0
0.32898,0,0.68037,-1.0494,-0.68905,-1.2019,-0.019429,0,0,0.19825,0.66671,0,-0.050516,0,0,1.1433,0.038263,0,1.1439,-0.688,-1.0505,-1.2019,-86.923,-0.98012,0.45738,0.0031592,0.44,1,0
0.33088,0,0.65675,-1.1304,-0.4823,-1.1405,-0.011203,0,0,0.013229,0.85572,0,-0.029128,0,0,1.2047,0.022094,0,1.2048,-0.48211,-1.1306,-1.1405,-89.01,-0.91774,0.6535,0.014323,0.46,1,0
0.32951,0,0.63218,-1.1906,-0.35978,-1.0973,-0.0019044,0,0,-0.1213,0.95877,0,-0.0049514,0,0,1.2408,0.010142,0,1.2408,-0.35978,-1.1906,-1.0973,-89.869,-0.88256,0.78832,0.023977,0.48,1,0
0.32603,0,0.60711,-1.2225,-0.30744,-1.0661,-0.0020874,0,0,-0.2033,0.98624,0,-0.0054272,0,0,1.2597,0.005564,0,1.2597,-0.30744,-1.2225,-1.0661,-89.869,-0.86534,0.84774,0.027734,0.5,1,0
0.32138,0,0.58179,-1.2311,-0.28146,-1.0356,-0.0040973,0,0,-0.25421,0.98034,0,-0.010653,0,0,1.2696,0.0032734,0,1.2696,-0.28144,-1.2311,-1.0356,-89.753,-0.84938,0.86858,0.027989,0.52,1,0
0.31586,0,0.55633,-1.2339,-0.26765,-1.0068,-0.0059462,0,0,-0.29526,0.9609,0,-0.01546,0,0,1.2754,0.0019971,0,1.2754,-0.26762,-1.234,-1.0068,-89.647,-0.83613,0.87516,0.026765,0.54,1,0
0.30957,0,0.53078,-1.2363,-0.25846,-0.97921,-0.0070892,0,0,-0.33423,0.93698,0,-0.018432,0,0,1.2788,0.0011848,0,1.2788,-0.25841,-1.2364,-0.97921,-89.585,-0.82466,0.87809,0.024982,0.56,1,0
0.30249,0,0.50518,-1.2396,-0.25079,-0.95231,-0.0076354,0,0,-0.37353,0.91197,0,-0.019852,0,0,1.2807,0.00061584,0,1.2807,-0.25073,-1.2397,-0.95231,-89.558,-0.81425,0.88115,0.02295,0.58,1,0
0.29463,0,0.47955,-1.2437,-0.24351,-0.92572,-0.0077967,0,0,-0.4134,0.88687,0,-0.020271,0,0,1.2816,0.00018818,0,1.2816,-0.24345,-1.2438,-0.92572,-89.553,-0.80431,0.88524,0.020748,0.6,1,0
0.28596,0,0.45391,-1.2481,-0.23628,-0.89922,-0.0077456,0,0,-0.45352,0.86182,0,-0.020139,0,0,1.2817,-0.00015121,0,1.2817,-0.23622,-1.2481,-0.89922,-89.561,-0.79453,0.89031,0.018384,0.62,1,0
0.27648,0,0.42828,-1.2523,-0.22908,-0.8727,-0.0075897,0,0,-0.49351,0.83671,0,-0.019733,0,0,1.2811,-0.00043371,0,1.2811,-0.22902,-1.2524,-0.8727,-89.575,-0.7847,0.89604,0.015857,0.64,1,0
0.26622,0,0.40267,-1.2562,-0.22195,-0.84612,-0.0073868,0,0,-0.53314,0.81142,0,-0.019206,0,0,1.28,-0.0006804,0,1.28,-0.22189,-1.2563,-0.84612,-89.591,-0.77476,0.90217,0.013171,0.66,1,0
0.25516,0,0.37708,-1.2596,-0.21493,-0.81945,-0.0071635,0,0,-0.57224,0.78587,0,-0.018625,0,0,1.2785,-0.00090718,0,1.2785,-0.21488,-1.2597,-0.81945,-89.607,-0.76467,0.90855,0.010337,0.68,1,0
0.24333,0,0.35153,-1.2625,-0.20807,-0.7927,-0.0069314,0,0,-0.61073,0.76002,0,-0.018022,0,0,1.2764,-0.0011276,0,1.2764,-0.20802,-1.2625,-0.7927,-89.623,-0.75442,0.91504,0.0073685,0.7,1,0
0.23073,0,0.32602,-1.2648,-0.20137,-0.76586,-0.0066956,0,0,-0.64857,0.73384,0,-0.017409,0,0,1.2739,-0.0013546,0,1.2739,-0.20133,-1.2648,-0.76586,-89.639,-0.744,0.92158,0.0042844,0.72,1,0
0.21738,0,0.30057,-1.2664,-0.19488,-0.73896,-0.006461,0,0,-0.68571,0.70731,0,-0.016799,0,0,1.271,-0.0016026,0,1.271,-0.19484,-1.2665,-0.73896,-89.655,-0.73343,0.9281,0.0011024,0.74,1,0
0.2033,0,0.27518,-1.2675,-0.18865,-0.71202,-0.0062337,0,0,-0.72209,0.68038,0,-0.016208,0,0,1.2674,-0.0018897,0,1.2674,-0.18861,-1.2675,-0.71202,-89.669,-0.72272,0.93449,-0.0021577,0.76,1,0
0.1885,0,0.24987,-1.2678,-0.18284,-0.68506,-0.0060175,0,0,-0.75755,0.65289,0,-0.015645,0,0,1.2632,-0.0022424,0,1.2632,-0.18281,-1.2678,-0.68506,-89.682,-0.7119,0.94051,-0.0054728,0.78,1,0
0.173,0,0.22465,-1.2671,-0.17781,-0.65812,-0.0057957,0,0,-0.79165,0.62441,0,-0.015069,0,0,1.2582,-0.0027054,0,1.2582,-0.17777,-1.2671,-0.65812,-89.695,-0.701,0.94558,-0.008807,0.8,1,0
0.15683,0,0.19955,-1.2646,-0.1743,-0.63121,-0.0054837,0,0,-0.82339,0.59399,0,-0.014257,0,0,1.2519,-0.0033665,0,1.2519,-0.17427,-1.2646,-0.63121,-89.712,-0.69003,0.94838,-0.012087,0.82,1,0
0.14006,0,0.17458,-1.2585,-0.17377,-0.60426,-0.0048231,0,0,-0.85052,0.55964,0,-0.01254,0,0,1.2437,-0.0044192,0,1.2437,-0.17375,-1.2585,-0.60426,-89.745,-0.67884,0.94609,-0.015142,0.84,1,0
0.12281,0,0.1498,-1.2453,-0.17887,-0.57704,-0.0031472,0,0,-0.8687,0.51762,0,-0.0081827,0,0,1.232,-0.006354,0,1.232,-0.17886,-1.2453,-0.57704,-89.831,-0.66706,0.93336,-0.017619,0.86,1,0
0.10532,0,0.1253,-1.2184,-0.1932,-0.54879,0.00074477,0,0,-0.87055,0.46227,0,0.0019364,0,0,1.2124,-0.010309,0,1.2125,-0.1932,-1.2184,-0.54879,89.958,-0.65348,0.90167,-0.018875,0.88,1,0
0.087991,0,0.1013,-1.1838,-0.22695,-0.52453,0.0091497,0,0,-0.85706,0.38685,0,0.023789,0,0,1.1779,-0.020915,0,1.1781,-0.22686,-1.1839,-0.52453,89.452,-0.64509,0.84831,-0.018838,0.9,1,0
0.071034,0,0.078181,-1.1472,-0.25684,-0.4994,0.013344,0,0,-0.84218,0.31533,0,0.034695,0,0,1.122,-0.034771,0,1.1225,-0.25664,-1.1474,-0.4994,89.142,-0.63449,0.79761,-0.018154,0.92,1,0
0.054304,0,0.056421,-1.116,-0.23852,-0.46278,0.01623,0,0,-0.84919,0.29153,0,0.042199,0,0,1.047,-0.046138,0,1.048,-0.23822,-1.1163,-0.46278,88.941,-0.60576,0.7901,-0.018603,0.94,1,0
0.037066,0,0.036302,-1.0915,-0.16103,-0.41207,0.012417,0,0,-0.88329,0.32635,0,0.032283,0,0,0.96801,-0.042239,0,0.96892,-0.16086,-1.0917,-0.41207,89.236,-0.55487,0.83409,-0.020943,0.96,1,0
0.018973,0,0.017701,-1.0806,-0.086461,-0.36783,0.0089769,0,0,-0.92665,0.36578,0,0.02334,0,0,0.90756,-0.025362,0,0.90787,-0.08638,-1.0807,-0.36783,89.483,-0.51165,0.88774,-0.024132,0.98,1,0
0,0,0,-1.0591,-0.038795,-0.32936,1.0408e-17,0,0,-0.94864,0.37774,0,2.7756e-17,0,0,0.88503,2.7756e-17,0,0.88497,-0.038795,-1.0591,-0.32936,90,-0.47575,0.91047,-0.025871,1,1,0
