"Displacements:0","Displacements:1","Stress/Strain:0","Stress/Strain:1","Stress/Strain:2","Stress/Strain:3","Stress/Strain:4","Stress/Strain:5","Stress/Strain:6","Stress/Strain:7","Stress/Strain:8","Stress/Strain:9","Stress/Strain:10","Stress/Strain:11","Stress/Strain:12","Principal Stress:0","Principal Stress:1","Principal Stress:2","Principal Stress:3","Principal Stress:4","Principal Stress:5","Principal Stress:6","nodes:0","nodes:1","nodes:2"
0,0,0.11283,0.048354,0.048354,0.031272,0,0,0.083814,-3.4694e-18,0,0.081307,0,0,0,0.1255,0.035678,0.048354,22.065,0.069845,0.084205,2.8336e-05,0,0,0
0.00083814,0.00081306,0.08152,0.0057313,0.026175,0.012319,0,0,0.071948,-0.026577,0,0.03203,0,0,0,0.083472,0.0037792,0.026175,9.0044,0.037809,0.071188,1.2534e-05,0.01,0,0
0.001439,0.0013153,0.061461,0.0024892,0.019185,0.003931,0,0,0.054959,-0.021705,0,0.010221,0,0,0,0.061722,0.0022283,0.019185,3.7969,0.027712,0.053087,5.124e-06,0.02,0,0
0.0019373,0.0017517,0.052194,-2.2495e-05,0.015651,0.0023607,0,0,0.047505,-0.020376,0,0.0061378,0,0,0,0.052301,-0.000129,0.015651,2.5833,0.022608,0.046589,3.2562e-06,0.03,0,0
0.0023891,0.0021296,0.047905,-0.0002875,0.014285,0.0014555,0,0,0.043705,-0.018944,0,0.0037842,0,0,0,0.047949,-0.00033141,0.014285,1.7283,0.020634,0.042882,2.5209e-06,0.04,0,0
0.0028114,0.0024685,0.045141,-0.00039864,0.013423,0.0010172,0,0,0.041234,-0.017968,0,0.0026448,0,0,0,0.045164,-0.00042135,0.013423,1.279,0.019388,0.04048,2.1121e-06,0.05,0,0
0.0032138,0.0027768,0.043235,-0.00039936,0.012851,0.00074476,0,0,0.0395,-0.017225,0,0.0019364,0,0,0,0.043248,-0.00041207,0.012851,0.97756,0.018562,0.038769,1.8549e-06,0.06,0,0
0.0036014,0.0030606,0.041827,-0.00038011,0.012434,0.00056596,0,0,0.038211,-0.016659,0,0.0014715,0,0,0,0.041835,-0.0003877,0.012434,0.7681,0.017961,0.037494,1.6785e-06,0.07,0,0
0.003978,0.0033239,0.040756,-0.00035308,0.012121,0.00043989,0,0,0.037225,-0.016216,0,0.0011437,0,0,0,0.04076,-0.00035778,0.012121,0.61301,0.017508,0.036515,1.5517e-06,0.08,0,0
0.0043459,0.0035694,0.039922,-0.00032529,0.011879,0.00034711,0,0,0.036456,-0.015866,0,0.0009025,0,0,0,0.039926,-0.00032828,0.011879,0.4941,0.017159,0.035749,1.4574e-06,0.09,0,0
0.0047071,0.0037997,0.039267,-0.00029868,0.01169,0.0002764,0,0,0.03585,-0.015586,0,0.00071864,0,0,0,0.039269,-0.00030061,0.01169,0.40023,0.016886,0.035143,1.3859e-06,0.1,0,0
0.0050629,0.0040165,0.038749,-0.00027395,0.011543,0.00022101,0,0,0.035368,-0.015361,0,0.00057463,0,0,0,0.03875,-0.0002752,0.011543,0.32449,0.016672,0.034662,1.3309e-06,0.11,0,0
0.0054145,0.0042212,0.038339,-0.0002512,0.011426,0.00017664,0,0,0.034986,-0.015181,0,0.00045926,0,0,0,0.03834,-0.00025201,0.011426,0.26226,0.016505,0.034279,1.2883e-06,0.12,0,0
0.0057627,0.0044152,0.038017,-0.00023031,0.011336,0.00014043,0,0,0.034685,-0.015036,0,0.00036513,0,0,0,0.038018,-0.00023083,0.011336,0.21037,0.016374,0.033975,1.2554e-06,0.13,0,0
0.0061082,0.0045996,0.037767,-0.0002111,0.011267,0.00011042,0,0,0.034451,-0.014921,0,0.00028709,0,0,0,0.037768,-0.00021142,0.011267,0.16658,0.016274,0.033737,1.2302e-06,0.14,0,0
0.0064516,0.0047752,0.037578,-0.00019336,0.011215,8.5202e-05,0,0,0.034271,-0.014831,0,0.00022153,0,0,0,0.037578,-0.00019356,0.011215,0.12924,0.0162,0.033555,1.2112e-06,0.15,0,0
0.0067936,0.004943,0.03744,-0.0001769,0.011179,6.3766e-05,0,0,0.034139,-0.014762,0,0.00016579,0,0,0,0.03744,-0.00017701,0.011179,0.097125,0.016147,0.033418,1.1974e-06,0.16,0,0
0.0071344,0.0051036,0.037345,-0.00016154,0.011155,4.5357e-05,0,0,0.034047,-0.014712,0,0.00011793,0,0,0,0.037345,-0.0001616,0.011155,0.069289,0.016113,0.033322,1.1878e-06,0.17,0,0
0.0074745,0.0052577,0.037288,-0.00014711,0.011142,2.9405e-05,0,0,0.03399,-0.014676,0,7.6454e-05,0,0,0,0.037288,-0.00014714,0.011142,0.045005,0.016095,0.03326,1.1819e-06,0.18,0,0
0.0078142,0.005406,0.037265,-0.00013348,0.011139,1.5471e-05,0,0,0.033963,-0.014655,0,4.0225e-05,0,0,0,0.037265,-0.00013349,0.011139,0.023703,0.01609,0.033228,1.1792e-06,0.19,0,0
0.0081538,0.005549,0.03727,-0.00012052,0.011145,3.2123e-06,0,0,0.033963,-0.014645,0,8.352e-06,0,0,0,0.03727,-0.00012052,0.011145,0.0049224,0.016098,0.033223,1.1793e-06,0.2,0,0
0.0084935,0.0056872,0.037301,-0.00010811,0.011158,-7.6426e-06,0,0,0.033986,-0.014646,0,-1.9871e-05,0,0,0,0.037301,-0.00010811,0.011158,-0.011705,0.016117,0.033241,1.1819e-06,0.21,0,0
0.0088335,0.0058211,0.037356,-9.6155e-05,0.011178,-1.7311e-05,0,0,0.034031,-0.014656,0,-4.5008e-05,0,0,0,0.037356,-9.6163e-05,0.011178,-0.026483,0.016146,0.033279,1.1866e-06,0.22,0,0
0.0091741,0.0059512,0.03743,-8.4563e-05,0.011204,-2.5969e-05,0,0,0.034095,-0.014675,0,-6.7518e-05,0,0,0,0.03743,-8.4581e-05,0.011204,-0.039661,0.016183,0.033336,1.1934e-06,0.23,0,0
0.0095154,0.006078,0.037524,-7.3246e-05,0.011235,-3.376e-05,0,0,0.034175,-0.014701,0,-8.7776e-05,0,0,0,0.037524,-7.3276e-05,0.011235,-0.051448,0.016229,0.033411,1.2019e-06,0.24,0,0
0.0098576,0.0062018,0.037634,-6.2122e-05,0.011272,-4.0805e-05,0,0,0.034271,-0.014734,0,-0.00010609,0,0,0,0.037634,-6.2166e-05,0.011272,-0.06202,0.016281,0.0335,1.2122e-06,0.25,0,0
0.010201,0.0063231,0.03776,-5.111e-05,0.011313,-4.7203e-05,0,0,0.034382,-0.014773,0,-0.00012273,0,0,0,0.03776,-5.1169e-05,0.011313,-0.071527,0.016341,0.033603,1.224e-06,0.26,0,0
0.010545,0.0064424,0.0379,-4.0132e-05,0.011358,-5.3039e-05,0,0,0.034505,-0.014818,0,-0.0001379,0,0,0,0.0379,-4.0206e-05,0.011358,-0.080097,0.016406,0.033718,1.2373e-06,0.27,0,0
0.010891,0.0065599,0.038053,-2.9104e-05,0.011407,-5.8385e-05,0,0,0.03464,-0.014867,0,-0.0001518,0,0,0,0.038053,-2.9194e-05,0.011407,-0.087841,0.016477,0.033846,1.2519e-06,0.28,0,0
0.011238,0.0066762,0.038219,-1.794e-05,0.01146,-6.3303e-05,0,0,0.034786,-0.014922,0,-0.00016459,0,0,0,0.038219,-1.8045e-05,0.01146,-0.094857,0.016554,0.033984,1.2679e-06,0.29,0,0
0.011587,0.0067916,0.038395,-6.5463e-06,0.011517,-6.7849e-05,0,0,0.034943,-0.01498,0,-0.00017641,0,0,0,0.038396,-6.6662e-06,0.011517,-0.10123,0.016635,0.034132,1.2852e-06,0.3,0,0
0.011937,0.0069066,0.038583,5.183e-06,0.011577,-7.2071e-05,0,0,0.035109,-0.015043,0,-0.00018739,0,0,0,0.038583,5.0483e-06,0.011577,-0.10704,0.016722,0.03429,1.3037e-06,0.31,0,0
0.012289,0.0070215,0.038781,1.7369e-05,0.01164,-7.6014e-05,0,0,0.035284,-0.015109,0,-0.00019764,0,0,0,0.038782,1.722e-05,0.01164,-0.11235,0.016813,0.034456,1.3235e-06,0.32,0,0
0.012643,0.0071368,0.03899,3.0153e-05,0.011706,-7.9718e-05,0,0,0.035469,-0.015179,0,-0.00020727,0,0,0,0.03899,2.999e-05,0.011706,-0.11724,0.016909,0.034631,1.3445e-06,0.33,0,0
0.012998,0.007253,0.039208,4.3707e-05,0.011775,-8.3221e-05,0,0,0.035662,-0.015251,0,-0.00021637,0,0,0,0.039208,4.353e-05,0.011775,-0.12175,0.017009,0.034814,1.3667e-06,0.34,0,0
0.013356,0.0073704,0.039436,5.8244e-05,0.011848,-8.6561e-05,0,0,0.035864,-0.015327,0,-0.00022506,0,0,0,0.039436,5.8054e-05,0.011848,-0.12595,0.017114,0.035005,1.3901e-06,0.35,0,0
0.013716,0.0074897,0.039674,7.4031e-05,0.011924,-8.9774e-05,0,0,0.036075,-0.015406,0,-0.00023341,0,0,0,0.039675,7.3827e-05,0.011924,-0.12989,0.017224,0.035204,1.4149e-06,0.36,0,0
0.014077,0.0076114,0.039923,9.1415e-05,0.012004,-9.2897e-05,0,0,0.036294,-0.015487,0,-0.00024153,0,0,0,0.039923,9.1198e-05,0.012004,-0.13363,0.01734,0.035412,1.441e-06,0.37,0,0
0.014441,0.0077361,0.040183,0.00011086,0.012088,-9.5968e-05,0,0,0.036523,-0.01557,0,-0.00024952,0,0,0,0.040183,0.00011063,0.012088,-0.13722,0.017461,0.035627,1.4685e-06,0.38,0,0
0.014808,0.0078644,0.040455,0.00013298,0.012176,-9.9023e-05,0,0,0.036762,-0.015656,0,-0.00025746,0,0,0,0.040455,0.00013274,0.012176,-0.14071,0.017588,0.035851,1.4977e-06,0.39,0,0
0.015177,0.0079971,0.040741,0.00015867,0.01227,-0.0001021,0,0,0.037012,-0.015745,0,-0.00026546,0,0,0,0.040741,0.00015841,0.01227,-0.14415,0.017723,0.036085,1.5287e-06,0.4,0,0
0.015548,0.0081352,0.041043,0.00018919,0.01237,-0.00010522,0,0,0.037276,-0.015835,0,-0.00027356,0,0,0,0.041044,0.00018892,0.01237,-0.14756,0.017867,0.03633,1.5618e-06,0.41,0,0
0.015922,0.0082795,0.041366,0.00022646,0.012478,-0.00010837,0,0,0.037555,-0.015927,0,-0.00028177,0,0,0,0.041366,0.00022618,0.012478,-0.15093,0.018023,0.036587,1.5974e-06,0.42,0,0
0.016299,0.0084314,0.041715,0.00027355,0.012597,-0.00011145,0,0,0.037854,-0.01602,0,-0.00028978,0,0,0,0.041715,0.00027325,0.012597,-0.15409,0.018195,0.036859,1.6362e-06,0.43,0,0
0.016679,0.0085924,0.042099,0.00033541,0.01273,-0.00011415,0,0,0.038179,-0.016113,0,-0.00029678,0,0,0,0.042099,0.0003351,0.01273,-0.1566,0.018388,0.037151,1.6792e-06,0.44,0,0
0.017063,0.0087647,0.042534,0.00042164,0.012887,-0.00011503,0,0,0.038541,-0.016205,0,-0.00029907,0,0,0,0.042534,0.00042133,0.012887,-0.1565,0.018614,0.037469,1.7281e-06,0.45,0,0
0.01745,0.0089511,0.043044,0.00054553,0.013077,-0.00011142,0,0,0.038958,-0.016291,0,-0.0002897,0,0,0,0.043045,0.00054524,0.013077,-0.15021,0.018889,0.037824,1.7856e-06,0.46,0,0
0.017842,0.0091559,0.043687,0.00075589,0.013333,-7.7278e-05,0,0,0.039461,-0.01635,0,-0.00020092,0,0,0,0.043687,0.00075575,0.013333,-0.10314,0.019259,0.038227,1.8571e-06,0.47,0,0
0.018239,0.0093873,0.044352,0.00093923,0.013587,1.4133e-05,0,0,0.039994,-0.016443,0,3.6745e-05,0,0,0,0.044352,0.00093923,0.013587,0.018652,0.019626,0.038672,1.9346e-06,0.48,0,0
0.018642,0.0096582,0.044656,0.0013909,0.013814,0.0011664,0,0,0.040094,-0.01615,0,0.0030326,0,0,0,0.044687,0.0013595,0.013814,1.5431,0.019953,0.038636,1.9577e-06,0.49,0,0
0.019041,0.010039,0.040341,0.00013597,0.012143,0.0023578,0,0,0.053345,-0.020812,0,0.010076,0,0,0,0.040507,-2.9871e-05,0.012143,3.5828,0.01754,0.036081,1.5029e-06,0.5,0,0
0.019709,0.010534,0.035426,-0.0001487,0.010583,0.0014812,0,0,0.064591,-0.027903,0,0.0077021,0,0,0,0.035487,-0.00021026,0.010583,2.3801,0.015287,0.03171,1.0209e-06,0.51,0,0
0.020333,0.01089,0.033789,-0.00025214,0.010061,0.00038619,0,0,0.061693,-0.026814,0,0.0020082,0,0,0,0.033794,-0.00025652,0.010061,0.6499,0.014533,0.030241,8.8317e-07,0.52,0,0
0.020942,0.011197,0.033192,-0.00036781,0.0098472,0.00020794,0,0,0.060696,-0.026559,0,0.0010813,0,0,0,0.033193,-0.0003691,0.0098472,0.355,0.014224,0.029798,8.3999e-07,0.53,0,0
0.021547,0.011469,0.032999,-0.00030842,0.009807,0.00011186,0,0,0.060298,-0.0263,0,0.00058168,0,0,0,0.032999,-0.0003088,0.009807,0.19243,0.014166,0.029577,8.2384e-07,0.54,0,0
0.022148,0.011713,0.0329,-0.00026826,0.0097896,6.6861e-05,0,0,0.060088,-0.02615,0,0.00034767,0,0,0,0.0329,-0.00026839,0.0097896,0.1155,0.014141,0.029457,8.1545e-07,0.55,0,0
0.022749,0.011936,0.032858,-0.00023382,0.0097872,3.9131e-05,0,0,0.059984,-0.026055,0,0.00020348,0,0,0,0.032858,-0.00023387,0.0097872,0.067752,0.014137,0.029392,8.1142e-07,0.56,0,0
0.023348,0.012141,0.032848,-0.00020703,0.0097923,2.1116e-05,0,0,0.059945,-0.025998,0,0.0001098,0,0,0,0.032848,-0.00020704,0.0097923,0.0366,0.014145,0.029361,8.1e-07,0.57,0,0
0.023948,0.01233,0.032861,-0.00018537,0.0098026,8.5715e-06,0,0,0.059951,-0.025969,0,4.4572e-05,0,0,0,0.032861,-0.00018537,0.0098026,0.014861,0.014159,0.029355,8.1038e-07,0.58,0,0
0.024547,0.012506,0.03289,-0.00016757,0.0098166,-4.8903e-07,0,0,0.05999,-0.025959,0,-2.543e-06,0,0,0,0.03289,-0.00016757,0.0098166,-0.0008476,0.01418,0.029367,8.1204e-07,0.59,0,0
0.025147,0.012669,0.03293,-0.00015265,0.0098333,-7.2194e-06,0,0,0.060052,-0.025963,0,-3.7541e-05,0,0,0,0.03293,-0.00015265,0.0098333,-0.012503,0.014204,0.029391,8.1466e-07,0.6,0,0
0.025748,0.012821,0.03298,-0.00013994,0.009852,-1.2312e-05,0,0,0.060132,-0.025979,0,-6.4022e-05,0,0,0,0.03298,-0.00013995,0.009852,-0.021299,0.014231,0.029425,8.18e-07,0.61,0,0
0.02635,0.012962,0.033036,-0.00012897,0.0098721,-1.6211e-05,0,0,0.060226,-0.026003,0,-8.4296e-05,0,0,0,0.033036,-0.00012898,0.0098721,-0.028006,0.01426,0.029466,8.219e-07,0.62,0,0
0.026953,0.013095,0.033098,-0.00011938,0.0098934,-1.9213e-05,0,0,0.060331,-0.026033,0,-9.9907e-05,0,0,0,0.033098,-0.00011939,0.0098934,-0.03314,0.01429,0.029513,8.2624e-07,0.63,0,0
0.027557,0.013219,0.033163,-0.00011091,0.0099155,-2.1524e-05,0,0,0.060443,-0.026069,0,-0.00011192,0,0,0,0.033163,-0.00011092,0.0099155,-0.037063,0.014322,0.029564,8.309e-07,0.64,0,0
0.028162,0.013335,0.033231,-0.00010337,0.0099382,-2.3291e-05,0,0,0.060561,-0.026108,0,-0.00012111,0,0,0,0.033231,-0.00010339,0.0099382,-0.040033,0.014355,0.029619,8.3581e-07,0.65,0,0
0.028768,0.013444,0.033301,-9.6613e-05,0.0099612,-2.4621e-05,0,0,0.060683,-0.02615,0,-0.00012803,0,0,0,0.033301,-9.6631e-05,0.0099612,-0.04224,0.014389,0.029676,8.4092e-07,0.66,0,0
0.029375,0.013546,0.033372,-9.0512e-05,0.0099845,-2.5596e-05,0,0,0.060808,-0.026195,0,-0.0001331,0,0,0,0.033372,-9.0532e-05,0.0099845,-0.043826,0.014422,0.029734,8.4617e-07,0.67,0,0
0.029984,0.013642,0.033444,-8.4975e-05,0.010008,-2.6277e-05,0,0,0.060935,-0.026241,0,-0.00013664,0,0,0,0.033444,-8.4996e-05,0.010008,-0.044903,0.014456,0.029794,8.5152e-07,0.68,0,0
0.030594,0.013731,0.033517,-7.9927e-05,0.010031,-2.6712e-05,0,0,0.061063,-0.026288,0,-0.0001389,0,0,0,0.033517,-7.9948e-05,0.010031,-0.045555,0.014489,0.029854,8.5692e-07,0.69,0,0
0.031205,0.013815,0.033589,-7.5305e-05,0.010054,-2.6939e-05,0,0,0.061191,-0.026337,0,-0.00014008,0,0,0,0.033589,-7.5327e-05,0.010054,-0.04585,0.014523,0.029915,8.6235e-07,0.7,0,0
0.031818,0.013894,0.033661,-7.1059e-05,0.010077,-2.6989e-05,0,0,0.061318,-0.026385,0,-0.00014034,0,0,0,0.033661,-7.1081e-05,0.010077,-0.045842,0.014556,0.029975,8.6778e-07,0.71,0,0
0.032432,0.013968,0.033732,-6.7147e-05,0.0101,-2.6885e-05,0,0,0.061445,-0.026433,0,-0.0001398,0,0,0,0.033732,-6.7169e-05,0.0101,-0.045575,0.014588,0.030035,8.7319e-07,0.72,0,0
0.033047,0.014038,0.033802,-6.3534e-05,0.010122,-2.6649e-05,0,0,0.06157,-0.026482,0,-0.00013857,0,0,0,0.033802,-6.3555e-05,0.010122,-0.045085,0.01462,0.030095,8.7855e-07,0.73,0,0
0.033663,0.014103,0.033871,-6.0189e-05,0.010143,-2.6296e-05,0,0,0.061693,-0.026529,0,-0.00013674,0,0,0,0.033871,-6.021e-05,0.010143,-0.044403,0.014651,0.030154,8.8384e-07,0.74,0,0
0.03428,0.014164,0.033939,-5.7089e-05,0.010164,-2.5842e-05,0,0,0.061813,-0.026576,0,-0.00013438,0,0,0,0.033939,-5.7108e-05,0.010164,-0.043554,0.014682,0.030211,8.8904e-07,0.75,0,0
0.034899,0.014221,0.034005,-5.421e-05,0.010185,-2.5298e-05,0,0,0.061931,-0.026622,0,-0.00013155,0,0,0,0.034005,-5.4229e-05,0.010185,-0.042557,0.014712,0.030267,8.9414e-07,0.76,0,0
0.035519,0.014274,0.034069,-5.1536e-05,0.010205,-2.4674e-05,0,0,0.062045,-0.026668,0,-0.0001283,0,0,0,0.034069,-5.1554e-05,0.010205,-0.041433,0.014741,0.030322,8.9913e-07,0.77,0,0
0.03614,0.014324,0.034131,-4.905e-05,0.010225,-2.3978e-05,0,0,0.062157,-0.026711,0,-0.00012469,0,0,0,0.034131,-4.9067e-05,0.010225,-0.040195,0.014769,0.030375,9.0399e-07,0.78,0,0
0.036762,0.01437,0.034191,-4.6739e-05,0.010243,-2.3219e-05,0,0,0.062264,-0.026754,0,-0.00012074,0,0,0,0.034191,-4.6755e-05,0.010243,-0.038857,0.014796,0.030427,9.087e-07,0.79,0,0
0.037385,0.014414,0.034249,-4.459e-05,0.010261,-2.2403e-05,0,0,0.062368,-0.026795,0,-0.0001165,0,0,0,0.034249,-4.4605e-05,0.010261,-0.03743,0.014822,0.030477,9.1327e-07,0.8,0,0
0.03801,0.014454,0.034305,-4.2593e-05,0.010279,-2.1536e-05,0,0,0.062468,-0.026835,0,-0.00011199,0,0,0,0.034305,-4.2607e-05,0.010279,-0.035926,0.014847,0.030525,9.1767e-07,0.81,0,0
0.038635,0.014492,0.034358,-4.0739e-05,0.010295,-2.0623e-05,0,0,0.062563,-0.026873,0,-0.00010724,0,0,0,0.034358,-4.0752e-05,0.010295,-0.034351,0.014871,0.030571,9.2189e-07,0.82,0,0
0.039261,0.014526,0.034409,-3.902e-05,0.010311,-1.9669e-05,0,0,0.062654,-0.02691,0,-0.00010228,0,0,0,0.034409,-3.9032e-05,0.010311,-0.032715,0.014894,0.030614,9.2594e-07,0.83,0,0
0.039888,0.014559,0.034457,-3.7429e-05,0.010326,-1.8677e-05,0,0,0.062741,-0.026944,0,-9.712e-05,0,0,0,0.034457,-3.7439e-05,0.010326,-0.031023,0.014915,0.030656,9.2979e-07,0.84,0,0
0.040516,0.014588,0.034503,-3.596e-05,0.01034,-1.7651e-05,0,0,0.062823,-0.026978,0,-9.1788e-05,0,0,0,0.034503,-3.5968e-05,0.01034,-0.029282,0.014936,0.030695,9.3344e-07,0.85,0,0
0.041144,0.014616,0.034545,-3.4606e-05,0.010353,-1.6596e-05,0,0,0.0629,-0.027009,0,-8.6298e-05,0,0,0,0.034546,-3.4614e-05,0.010353,-0.027497,0.014955,0.030732,9.3689e-07,0.86,0,0
0.041774,0.014641,0.034586,-3.3364e-05,0.010366,-1.5513e-05,0,0,0.062972,-0.027038,0,-8.0666e-05,0,0,0,0.034586,-3.3371e-05,0.010366,-0.025674,0.014973,0.030767,9.4013e-07,0.87,0,0
0.042404,0.014663,0.034623,-3.2228e-05,0.010377,-1.4405e-05,0,0,0.063039,-0.027065,0,-7.4907e-05,0,0,0,0.034623,-3.2234e-05,0.010377,-0.023816,0.014989,0.0308,9.4315e-07,0.88,0,0
0.043035,0.014684,0.034658,-3.1196e-05,0.010388,-1.3276e-05,0,0,0.063102,-0.02709,0,-6.9034e-05,0,0,0,0.034658,-3.1201e-05,0.010388,-0.021928,0.015005,0.030829,9.4595e-07,0.89,0,0
0.043666,0.014703,0.034689,-3.0263e-05,0.010398,-1.2127e-05,0,0,0.063159,-0.027113,0,-6.306e-05,0,0,0,0.034689,-3.0268e-05,0.010398,-0.020012,0.015019,0.030857,9.4853e-07,0.9,0,0
0.044298,0.014719,0.034718,-2.9428e-05,0.010407,-1.0961e-05,0,0,0.06321,-0.027134,0,-5.6996e-05,0,0,0,0.034718,-2.9431e-05,0.010407,-0.018073,0.015032,0.030882,9.5087e-07,0.91,0,0
0.04493,0.014734,0.034744,-2.8687e-05,0.010415,-9.7795e-06,0,0,0.063257,-0.027153,0,-5.0853e-05,0,0,0,0.034744,-2.8689e-05,0.010415,-0.016114,0.015043,0.030904,9.5297e-07,0.92,0,0
0.045563,0.014747,0.034767,-2.8037e-05,0.010422,-8.5849e-06,0,0,0.063298,-0.027169,0,-4.4642e-05,0,0,0,0.034767,-2.8039e-05,0.010422,-0.014136,0.015054,0.030924,9.5483e-07,0.93,0,0
0.046196,0.014758,0.034787,-2.7478e-05,0.010428,-7.379e-06,0,0,0.063334,-0.027184,0,-3.8371e-05,0,0,0,0.034787,-2.748e-05,0.010428,-0.012144,0.015062,0.030941,9.5646e-07,0.94,0,0
0.046829,0.014768,0.034804,-2.7008e-05,0.010433,-6.1635e-06,0,0,0.063364,-0.027196,0,-3.205e-05,0,0,0,0.034804,-2.7009e-05,0.010433,-0.010139,0.01507,0.030956,9.5783e-07,0.95,0,0
0.047463,0.014775,0.034818,-2.6625e-05,0.010437,-4.9401e-06,0,0,0.063389,-0.027206,0,-2.5689e-05,0,0,0,0.034818,-2.6626e-05,0.010437,-0.0081233,0.015076,0.030968,9.5896e-07,0.96,0,0
0.048097,0.014781,0.034828,-2.6328e-05,0.010441,-3.7105e-06,0,0,0.063408,-0.027214,0,-1.9295e-05,0,0,0,0.034828,-2.6328e-05,0.010441,-0.0060995,0.015081,0.030977,9.5984e-07,0.97,0,0
0.048731,0.014785,0.034836,-2.6116e-05,0.010443,-2.4762e-06,0,0,0.063422,-0.02722,0,-1.2876e-05,0,0,0,0.034836,-2.6117e-05,0.010443,-0.0040697,0.015084,0.030984,9.6047e-07,0.98,0,0
0.049366,0.014788,0.034841,-2.599e-05,0.010444,-1.2389e-06,0,0,0.06343,-0.027223,0,-6.4422e-06,0,0,0,0.034841,-2.599e-05,0.010444,-0.0020358,0.015086,0.030988,9.6085e-07,0.99,0,0
0.05,0.014789,0.034842,-2.5948e-05,0.010445,1.6026e-05,0,0,0.063433,-0.027224,0,8.3333e-05,0,0,0,0.034842,-2.5955e-05,0.010445,0.026333,0.015087,0.030989,9.6098e-07,1,0,0
0,0,0.067416,0.028893,0.028893,0.02105,0,0,0.050081,3.4694e-18,0,0.054729,0,0,0,0.076687,0.019622,0.028893,23.77,0.041734,0.053041,6.8814e-06,0,0.01,0
0.00050081,0.00054729,0.061403,0.0058591,0.020179,0.01311,0,0,0.053592,-0.018616,0,0.034086,0,0,0,0.064342,0.0029202,0.020179,12.635,0.029147,0.054868,5.7398e-06,0.01,0.01,0
0.0010718,0.0010982,0.061896,0.0045848,0.019944,0.0085308,0,0,0.054537,-0.019967,0,0.02218,0,0,0,0.063139,0.003342,0.019944,8.2892,0.028808,0.053465,5.3732e-06,0.02,0.01,0
0.0015915,0.001548,0.05579,0.0023922,0.017455,0.0051136,0,0,0.049836,-0.019581,0,0.013295,0,0,0,0.056275,0.0019069,0.017455,5.4213,0.025212,0.048501,3.8939e-06,0.03,0.01,0
0.0020686,0.0019401,0.051289,0.0013806,0.015801,0.0034337,0,0,0.046134,-0.018746,0,0.0089277,0,0,0,0.051524,0.0011454,0.015801,3.9174,0.022823,0.044882,3.0294e-06,0.04,0.01,0
0.0025142,0.0022888,0.048084,0.0008533,0.014681,0.0024328,0,0,0.043423,-0.017976,0,0.0063254,0,0,0,0.048209,0.00072831,0.014681,2.9409,0.021206,0.042268,2.5016e-06,0.05,0.01,0
0.002937,0.0026046,0.045759,0.00056597,0.013898,0.0018054,0,0,0.04142,-0.017331,0,0.0046939,0,0,0,0.045831,0.00049397,0.013898,2.284,0.020074,0.040341,2.1598e-06,0.06,0.01,0
0.0033426,0.0028941,0.044016,0.00039636,0.013324,0.0013807,0,0,0.0399,-0.016806,0,0.0035899,0,0,0,0.04406,0.0003527,0.013324,1.8112,0.019245,0.038879,1.9248e-06,0.07,0.01,0
0.003735,0.0031617,0.042674,0.0002898,0.012889,0.0010788,0,0,0.03872,-0.016379,0,0.0028049,0,0,0,0.042701,0.00026236,0.012889,1.4571,0.018617,0.037744,1.7558e-06,0.08,0.01,0
0.004117,0.0034108,0.04162,0.00021923,0.012552,0.0008551,0,0,0.037788,-0.016032,0,0.0022232,0,0,0,0.041637,0.00020158,0.012552,1.1827,0.01813,0.036847,1.6301e-06,0.09,0.01,0
0.0044908,0.0036438,0.040781,0.0001705,0.012285,0.000684,0,0,0.037044,-0.015749,0,0.0017784,0,0,0,0.040792,0.00015898,0.012285,0.96467,0.017746,0.03613,1.5345e-06,0.1,0.01,0
0.0048579,0.0038628,0.040107,0.00013564,0.012073,0.00054969,0,0,0.036444,-0.015518,0,0.0014292,0,0,0,0.040115,0.00012809,0.012073,0.78774,0.017438,0.035552,1.4604e-06,0.11,0.01,0
0.0052197,0.0040694,0.039564,0.00010999,0.011902,0.00044199,0,0,0.03596,-0.01533,0,0.0011492,0,0,0,0.039569,0.00010504,0.011902,0.64176,0.017192,0.035085,1.4024e-06,0.12,0.01,0
0.0055771,0.0042649,0.039125,9.0638e-05,0.011765,0.00035406,0,0,0.035568,-0.015176,0,0.00092055,0,0,0,0.039128,8.7426e-05,0.011765,0.51964,0.016994,0.034708,1.3567e-06,0.13,0.01,0
0.005931,0.0044504,0.038772,7.5733e-05,0.011654,0.00028116,0,0,0.035253,-0.015052,0,0.00073102,0,0,0,0.038774,7.3691e-05,0.011654,0.41627,0.016834,0.034404,1.3207e-06,0.14,0.01,0
0.0062822,0.0046269,0.038491,6.4044e-05,0.011566,0.00021994,0,0,0.035002,-0.014953,0,0.00057183,0,0,0,0.038492,6.2786e-05,0.011566,0.32792,0.016707,0.034162,1.2924e-06,0.15,0.01,0
0.0066311,0.0047954,0.038269,5.4731e-05,0.011497,0.00016792,0,0,0.034804,-0.014875,0,0.00043659,0,0,0,0.03827,5.3993e-05,0.011497,0.25176,0.016607,0.033972,1.2705e-06,0.16,0.01,0
0.0069782,0.0049565,0.038099,4.7204e-05,0.011444,0.00012329,0,0,0.034651,-0.014816,0,0.00032055,0,0,0,0.038099,4.6805e-05,0.011444,0.18564,0.01653,0.033826,1.2538e-06,0.17,0.01,0
0.0073241,0.005111,0.037972,4.1046e-05,0.011404,8.4654e-05,0,0,0.034538,-0.014772,0,0.0002201,0,0,0,0.037972,4.0857e-05,0.011404,0.12787,0.016472,0.033718,1.2415e-06,0.18,0.01,0
0.007669,0.0052594,0.037883,3.5951e-05,0.011376,5.095e-05,0,0,0.03446,-0.014742,0,0.00013247,0,0,0,0.037883,3.5883e-05,0.011376,0.077132,0.016432,0.033643,1.233e-06,0.19,0.01,0
0.0080133,0.0054025,0.037828,3.1693e-05,0.011358,2.1344e-05,0,0,0.034411,-0.014724,0,5.5495e-05,0,0,0,0.037828,3.1681e-05,0.011358,0.032356,0.016406,0.033597,1.2277e-06,0.2,0.01,0
0.0083572,0.0055407,0.037801,2.81e-05,0.011349,-4.8229e-06,0,0,0.034388,-0.014717,0,-1.254e-05,0,0,0,0.037801,2.81e-05,0.011349,-0.0073156,0.016393,0.033576,1.2252e-06,0.21,0.01,0
0.0087011,0.0056745,0.0378,2.5045e-05,0.011348,-2.8078e-05,0,0,0.034388,-0.014719,0,-7.3004e-05,0,0,0,0.0378,2.5024e-05,0.011348,-0.042588,0.016391,0.033578,1.2252e-06,0.22,0.01,0
0.009045,0.0058045,0.037822,2.2426e-05,0.011353,-4.8849e-05,0,0,0.034409,-0.01473,0,-0.00012701,0,0,0,0.037822,2.2363e-05,0.011353,-0.074044,0.016399,0.033599,1.2275e-06,0.23,0.01,0
0.0093892,0.0059309,0.037864,2.0165e-05,0.011365,-6.7484e-05,0,0,0.034449,-0.014749,0,-0.00017546,0,0,0,0.037864,2.0045e-05,0.011365,-0.10217,0.016417,0.033639,1.2317e-06,0.24,0.01,0
0.009734,0.0060545,0.037925,1.8202e-05,0.011383,-8.4269e-05,0,0,0.034504,-0.014774,0,-0.0002191,0,0,0,0.037925,1.8014e-05,0.011383,-0.12737,0.016442,0.033694,1.2376e-06,0.25,0.01,0
0.010079,0.0061754,0.038001,1.6485e-05,0.011405,-9.9443e-05,0,0,0.034575,-0.014805,0,-0.00025855,0,0,0,0.038002,1.6225e-05,0.011405,-0.15,0.016474,0.033764,1.2453e-06,0.26,0.01,0
0.010426,0.0062942,0.038093,1.4977e-05,0.011432,-0.0001132,0,0,0.034659,-0.014842,0,-0.00029433,0,0,0,0.038093,1.4641e-05,0.011432,-0.17034,0.016513,0.033846,1.2543e-06,0.27,0.01,0
0.010773,0.0064113,0.038197,1.3645e-05,0.011463,-0.00012573,0,0,0.034754,-0.014885,0,-0.00032688,0,0,0,0.038198,1.3231e-05,0.011463,-0.18865,0.016558,0.03394,1.2647e-06,0.28,0.01,0
0.011121,0.006527,0.038314,1.2462e-05,0.011498,-0.00013714,0,0,0.034861,-0.014931,0,-0.00035657,0,0,0,0.038314,1.1971e-05,0.011498,-0.20515,0.016608,0.034045,1.2764e-06,0.29,0.01,0
0.01147,0.0066418,0.038441,1.1405e-05,0.011536,-0.00014758,0,0,0.034977,-0.014982,0,-0.00038371,0,0,0,0.038442,1.0838e-05,0.011536,-0.22003,0.016663,0.034159,1.2892e-06,0.3,0.01,0
0.01182,0.0067561,0.038578,1.0456e-05,0.011576,-0.00015714,0,0,0.035102,-0.015036,0,-0.00040856,0,0,0,0.038579,9.8158e-06,0.011576,-0.23344,0.016722,0.034281,1.3031e-06,0.31,0.01,0
0.012172,0.0068704,0.038723,9.5971e-06,0.01162,-0.00016591,0,0,0.035235,-0.015093,0,-0.00043136,0,0,0,0.038724,8.8861e-06,0.01162,-0.24554,0.016784,0.034412,1.3179e-06,0.32,0.01,0
0.012525,0.006985,0.038877,8.8119e-06,0.011666,-0.00017396,0,0,0.035374,-0.015154,0,-0.00045229,0,0,0,0.038877,8.0333e-06,0.011666,-0.25643,0.01685,0.034549,1.3336e-06,0.33,0.01,0
0.012879,0.0071004,0.039037,8.0837e-06,0.011713,-0.00018134,0,0,0.03552,-0.015217,0,-0.00047149,0,0,0,0.039038,7.2411e-06,0.011713,-0.26621,0.016919,0.034692,1.3502e-06,0.34,0.01,0
0.013235,0.0072172,0.039203,7.3933e-06,0.011763,-0.00018811,0,0,0.035671,-0.015282,0,-0.00048907,0,0,0,0.039203,6.4906e-06,0.011763,-0.27497,0.016991,0.03484,1.3675e-06,0.35,0.01,0
0.013593,0.0073357,0.039373,6.7163e-06,0.011814,-0.00019427,0,0,0.035827,-0.01535,0,-0.0005051,0,0,0,0.039374,5.7576e-06,0.011814,-0.28274,0.017065,0.034992,1.3855e-06,0.36,0.01,0
0.013952,0.0074566,0.039548,6.018e-06,0.011866,-0.00019983,0,0,0.035986,-0.015418,0,-0.00051957,0,0,0,0.039549,5.0081e-06,0.011866,-0.28955,0.01714,0.035148,1.4041e-06,0.37,0.01,0
0.014312,0.0075804,0.039725,5.2448e-06,0.011919,-0.00020475,0,0,0.036148,-0.015488,0,-0.00053235,0,0,0,0.039726,4.1894e-06,0.011919,-0.29534,0.017216,0.035306,1.4231e-06,0.38,0.01,0
0.014675,0.0077079,0.039904,4.3081e-06,0.011972,-0.00020892,0,0,0.036311,-0.015558,0,-0.00054319,0,0,0,0.039905,3.2142e-06,0.011972,-0.3,0.017293,0.035465,1.4424e-06,0.39,0.01,0
0.015039,0.0078397,0.040081,3.0518e-06,0.012025,-0.00021213,0,0,0.036472,-0.015629,0,-0.00055153,0,0,0,0.040082,1.9291e-06,0.012025,-0.30325,0.01737,0.035624,1.4617e-06,0.4,0.01,0
0.015404,0.0079768,0.040254,1.187e-06,0.012077,-0.00021397,0,0,0.036631,-0.015698,0,-0.00055631,0,0,0,0.040255,4.9681e-08,0.012077,-0.30455,0.017444,0.035779,1.4808e-06,0.41,0.01,0
0.015771,0.0081202,0.040419,-1.8542e-06,0.012125,-0.00021366,0,0,0.036782,-0.015765,0,-0.00055551,0,0,0,0.04042,-2.9835e-06,0.012125,-0.30284,0.017514,0.035928,1.4992e-06,0.42,0.01,0
0.01614,0.0082712,0.040567,-7.2602e-06,0.012168,-0.00020965,0,0,0.036919,-0.015828,0,-0.00054509,0,0,0,0.040568,-8.3435e-06,0.012168,-0.29604,0.017576,0.036065,1.516e-06,0.43,0.01,0
0.01651,0.0084313,0.040686,-1.773e-05,0.0122,-0.00019866,0,0,0.037031,-0.015884,0,-0.00051651,0,0,0,0.040687,-1.8699e-05,0.0122,-0.27963,0.017623,0.036178,1.5298e-06,0.44,0.01,0
0.01688,0.0086026,0.040748,-3.9897e-05,0.012212,-0.00017341,0,0,0.037096,-0.015928,0,-0.00045087,0,0,0,0.040749,-4.0634e-05,0.012212,-0.24359,0.01764,0.036251,1.5376e-06,0.45,0.01,0
0.017251,0.0087882,0.040695,-9.242e-05,0.012181,-0.00011442,0,0,0.037068,-0.015955,0,-0.0002975,0,0,0,0.040695,-9.2741e-05,0.012181,-0.16073,0.017594,0.036245,1.5337e-06,0.46,0.01,0
0.017622,0.0089924,0.040396,-0.0002269,0.012051,2.5716e-05,0,0,0.036849,-0.015961,0,6.6861e-05,0,0,0,0.040396,-0.00022692,0.012051,0.03627,0.017407,0.036086,1.5054e-06,0.47,0.01,0
0.017989,0.0092228,0.039537,-0.00063537,0.011671,0.00044257,0,0,0.036227,-0.015998,0,0.0011507,0,0,0,0.039542,-0.00064024,0.011671,0.63111,0.016858,0.035658,1.4275e-06,0.48,0.01,0
0.018346,0.0094967,0.038752,-0.0013326,0.011226,0.0013743,0,0,0.035784,-0.016326,0,0.0035732,0,0,0,0.038799,-0.0013796,0.011226,1.9613,0.016215,0.035592,1.3746e-06,0.49,0.01,0
0.018704,0.0098307,0.037229,-0.0010705,0.010847,0.0021243,0,0,0.050696,-0.020658,0,0.0088618,0,0,0,0.03736,-0.0012018,0.010847,3.3066,0.015668,0.034248,1.1791e-06,0.5,0.01,0
0.01936,0.010255,0.036644,0.0010804,0.011317,0.0018041,0,0,0.065849,-0.026616,0,0.0093815,0,0,0,0.036735,0.0009891,0.011317,2.8967,0.016347,0.031863,1.092e-06,0.51,0.01,0
0.020021,0.010622,0.036096,0.00066078,0.011027,0.0010075,0,0,0.06518,-0.026953,0,0.0052391,0,0,0,0.036125,0.00063216,0.011027,1.6273,0.015928,0.031605,1.0498e-06,0.52,0.01,0
0.020664,0.010932,0.035122,0.00031459,0.010631,0.00053884,0,0,0.063676,-0.026822,0,0.002802,0,0,0,0.03513,0.00030625,0.010631,0.8867,0.015356,0.03098,9.7491e-07,0.53,0.01,0
0.021295,0.011206,0.034531,0.00017211,0.010411,0.00032308,0,0,0.062713,-0.026621,0,0.00168,0,0,0,0.034535,0.00016907,0.010411,0.53869,0.015038,0.03056,9.3006e-07,0.54,0.01,0
0.021918,0.011452,0.034166,0.00010303,0.010281,0.00020039,0,0,0.062101,-0.026462,0,0.001042,0,0,0,0.034167,0.00010185,0.010281,0.33705,0.01485,0.030287,9.0256e-07,0.55,0.01,0
0.022537,0.011676,0.033933,6.678e-05,0.0102,0.00012549,0,0,0.061707,-0.026347,0,0.00065254,0,0,0,0.033934,6.6315e-05,0.0102,0.2123,0.014734,0.030108,8.852e-07,0.56,0.01,0
0.023152,0.011881,0.033784,4.581e-05,0.010149,7.588e-05,0,0,0.06145,-0.026268,0,0.00039457,0,0,0,0.033784,4.5639e-05,0.010149,0.12886,0.014659,0.029991,8.7406e-07,0.57,0.01,0
0.023766,0.012071,0.033688,3.2765e-05,0.010116,4.1327e-05,0,0,0.061287,-0.026217,0,0.0002149,0,0,0,0.033688,3.2714e-05,0.010116,0.070355,0.014612,0.029917,8.6702e-07,0.58,0.01,0
0.024378,0.012246,0.033631,2.416e-05,0.010096,1.6315e-05,0,0,0.061189,-0.026188,0,8.484e-05,0,0,0,0.033631,2.4152e-05,0.010096,0.027816,0.014584,0.029872,8.6282e-07,0.59,0.01,0
0.02499,0.012409,0.0336,1.8214e-05,0.010086,-2.2899e-06,0,0,0.061139,-0.026175,0,-1.1908e-05,0,0,0,0.0336,1.8213e-05,0.010086,-0.003907,0.014568,0.02985,8.6066e-07,0.6,0.01,0
0.025601,0.012561,0.033591,1.3946e-05,0.010081,-1.6404e-05,0,0,0.061124,-0.026175,0,-8.5304e-05,0,0,0,0.033591,1.3938e-05,0.010081,-0.027993,0.014562,0.029845,8.6002e-07,0.61,0.01,0
0.026212,0.012702,0.033596,1.0787e-05,0.010082,-2.7256e-05,0,0,0.061137,-0.026186,0,-0.00014173,0,0,0,0.033596,1.0765e-05,0.010082,-0.046498,0.014563,0.029853,8.6055e-07,0.62,0.01,0
0.026824,0.012835,0.033614,8.3845e-06,0.010087,-3.5666e-05,0,0,0.061171,-0.026204,0,-0.00018546,0,0,0,0.033614,8.3467e-06,0.010087,-0.060809,0.01457,0.02987,8.6197e-07,0.63,0.01,0
0.027435,0.012958,0.033641,6.5168e-06,0.010094,-4.2202e-05,0,0,0.061221,-0.026228,0,-0.00021945,0,0,0,0.033641,6.4639e-06,0.010094,-0.071891,0.01458,0.029895,8.6409e-07,0.64,0.01,0
0.028048,0.013074,0.033675,5.0362e-06,0.010104,-4.727e-05,0,0,0.061285,-0.026257,0,-0.0002458,0,0,0,0.033675,4.9699e-06,0.010104,-0.080438,0.014595,0.029927,8.6677e-07,0.65,0.01,0
0.028661,0.013182,0.033715,3.8425e-06,0.010116,-5.1165e-05,0,0,0.061358,-0.026291,0,-0.00026606,0,0,0,0.033715,3.7649e-06,0.010116,-0.08696,0.014611,0.029963,8.6988e-07,0.66,0.01,0
0.029275,0.013284,0.033759,2.8658e-06,0.010129,-5.4108e-05,0,0,0.061439,-0.026327,0,-0.00028136,0,0,0,0.033759,2.779e-06,0.010129,-0.09184,0.01463,0.030003,8.7334e-07,0.67,0.01,0
0.02989,0.013379,0.033807,2.056e-06,0.010143,-5.6268e-05,0,0,0.061526,-0.026365,0,-0.0002926,0,0,0,0.033807,1.9623e-06,0.010143,-0.09537,0.01465,0.030047,8.7706e-07,0.68,0.01,0
0.030506,0.013468,0.033857,1.3769e-06,0.010157,-5.7776e-05,0,0,0.061618,-0.026406,0,-0.00030044,0,0,0,0.033857,1.2783e-06,0.010157,-0.097779,0.014672,0.030092,8.8099e-07,0.69,0.01,0
0.031122,0.013552,0.033909,8.0156e-07,0.010173,-5.8735e-05,0,0,0.061713,-0.026447,0,-0.00030542,0,0,0,0.033909,6.9983e-07,0.010173,-0.099247,0.014694,0.030138,8.8507e-07,0.7,0.01,0
0.03174,0.013631,0.033962,3.0963e-07,0.010189,-5.9226e-05,0,0,0.061811,-0.02649,0,-0.00030798,0,0,0,0.033962,2.0635e-07,0.010189,-0.099918,0.014717,0.030186,8.8927e-07,0.71,0.01,0
0.032358,0.013704,0.034016,-1.1439e-07,0.010205,-5.9316e-05,0,0,0.061909,-0.026533,0,-0.00030844,0,0,0,0.034016,-2.1782e-07,0.010205,-0.099909,0.01474,0.030234,8.9353e-07,0.72,0.01,0
0.032978,0.013773,0.03407,-4.825e-07,0.010221,-5.9059e-05,0,0,0.062009,-0.026576,0,-0.00030711,0,0,0,0.034071,-5.8488e-07,0.010221,-0.099317,0.014764,0.030283,8.9783e-07,0.73,0.01,0
0.033599,0.013838,0.034125,-8.0414e-07,0.010237,-5.85e-05,0,0,0.062108,-0.026619,0,-0.0003042,0,0,0,0.034125,-9.0442e-07,0.010237,-0.098219,0.014787,0.030332,9.0214e-07,0.74,0.01,0
0.03422,0.013898,0.034179,-1.0867e-06,0.010253,-5.7676e-05,0,0,0.062206,-0.026661,0,-0.00029992,0,0,0,0.034179,-1.1841e-06,0.010253,-0.096683,0.01481,0.03038,9.0643e-07,0.75,0.01,0
0.034843,0.013955,0.034232,-1.3363e-06,0.010269,-5.662e-05,0,0,0.062303,-0.026704,0,-0.00029442,0,0,0,0.034232,-1.4299e-06,0.010269,-0.094763,0.014833,0.030427,9.1069e-07,0.76,0.01,0
0.035466,0.014007,0.034285,-1.5576e-06,0.010285,-5.5357e-05,0,0,0.062399,-0.026745,0,-0.00028786,0,0,0,0.034285,-1.6469e-06,0.010285,-0.092508,0.014856,0.030474,9.1489e-07,0.77,0.01,0
0.036091,0.014057,0.034336,-1.7545e-06,0.0103,-5.3912e-05,0,0,0.062493,-0.026785,0,-0.00028034,0,0,0,0.034336,-1.8392e-06,0.0103,-0.089957,0.014878,0.03052,9.1901e-07,0.78,0.01,0
0.036716,0.014103,0.034386,-1.9304e-06,0.010315,-5.2303e-05,0,0,0.062584,-0.026825,0,-0.00027197,0,0,0,0.034386,-2.01e-06,0.010315,-0.087144,0.0149,0.030565,9.2304e-07,0.79,0.01,0
0.037342,0.014146,0.034434,-2.0879e-06,0.01033,-5.0548e-05,0,0,0.062673,-0.026863,0,-0.00026285,0,0,0,0.034435,-2.1621e-06,0.01033,-0.084101,0.014921,0.030608,9.2696e-07,0.8,0.01,0
0.03797,0.014186,0.034481,-2.2292e-06,0.010344,-4.8662e-05,0,0,0.062758,-0.0269,0,-0.00025304,0,0,0,0.034482,-2.2978e-06,0.010344,-0.080854,0.014941,0.03065,9.3077e-07,0.81,0.01,0
0.038598,0.014223,0.034527,-2.3561e-06,0.010357,-4.666e-05,0,0,0.06284,-0.026935,0,-0.00024263,0,0,0,0.034527,-2.4191e-06,0.010357,-0.077424,0.014961,0.03069,9.3444e-07,0.82,0.01,0
0.039226,0.014257,0.03457,-2.4702e-06,0.01037,-4.4551e-05,0,0,0.06292,-0.026969,0,-0.00023167,0,0,0,0.03457,-2.5276e-06,0.01037,-0.073833,0.014979,0.030729,9.3797e-07,0.83,0.01,0
0.039856,0.014289,0.034612,-2.5729e-06,0.010383,-4.2348e-05,0,0,0.062995,-0.027002,0,-0.00022021,0,0,0,0.034612,-2.6247e-06,0.010383,-0.070097,0.014997,0.030766,9.4134e-07,0.84,0.01,0
0.040486,0.014318,0.034651,-2.6653e-06,0.010394,-4.0059e-05,0,0,0.063066,-0.027032,0,-0.00020831,0,0,0,0.034651,-2.7116e-06,0.010394,-0.066234,0.015014,0.030801,9.4455e-07,0.85,0.01,0
0.041117,0.014346,0.034688,-2.7483e-06,0.010405,-3.7694e-05,0,0,0.063134,-0.027061,0,-0.00019601,0,0,0,0.034688,-2.7893e-06,0.010405,-0.062256,0.01503,0.030833,9.4759e-07,0.86,0.01,0
0.041749,0.01437,0.034723,-2.8229e-06,0.010416,-3.5259e-05,0,0,0.063198,-0.027089,0,-0.00018335,0,0,0,0.034723,-2.8587e-06,0.010416,-0.058177,0.015045,0.030864,9.5045e-07,0.87,0.01,0
0.042381,0.014393,0.034755,-2.8896e-06,0.010426,-3.2763e-05,0,0,0.063257,-0.027114,0,-0.00017037,0,0,0,0.034755,-2.9205e-06,0.010426,-0.054007,0.015059,0.030894,9.5312e-07,0.88,0.01,0
0.043014,0.014413,0.034785,-2.9491e-06,0.010435,-3.0212e-05,0,0,0.063312,-0.027138,0,-0.0001571,0,0,0,0.034785,-2.9753e-06,0.010435,-0.049759,0.015072,0.03092,9.5561e-07,0.89,0.01,0
0.043647,0.014432,0.034813,-3.0019e-06,0.010443,-2.7612e-05,0,0,0.063362,-0.02716,0,-0.00014358,0,0,0,0.034813,-3.0238e-06,0.010443,-0.045439,0.015084,0.030945,9.5789e-07,0.9,0.01,0
0.044281,0.014448,0.034838,-3.0485e-06,0.010451,-2.4968e-05,0,0,0.063408,-0.027179,0,-0.00012983,0,0,0,0.034838,-3.0664e-06,0.010451,-0.041058,0.015095,0.030967,9.5998e-07,0.91,0.01,0
0.044916,0.014463,0.034861,-3.0893e-06,0.010457,-2.2285e-05,0,0,0.063449,-0.027197,0,-0.00011588,0,0,0,0.034861,-3.1036e-06,0.010457,-0.036624,0.015105,0.030988,9.6185e-07,0.92,0.01,0
0.04555,0.014476,0.034881,-3.1246e-06,0.010463,-1.957e-05,0,0,0.063486,-0.027213,0,-0.00010176,0,0,0,0.034881,-3.1356e-06,0.010463,-0.032142,0.015114,0.031005,9.6351e-07,0.93,0.01,0
0.046185,0.014486,0.034898,-3.1546e-06,0.010469,-1.6826e-05,0,0,0.063518,-0.027227,0,-8.7493e-05,0,0,0,0.034898,-3.1628e-06,0.010469,-0.027621,0.015121,0.031021,9.6496e-07,0.94,0.01,0
0.046821,0.014496,0.034913,-3.1797e-06,0.010473,-1.4057e-05,0,0,0.063545,-0.027238,0,-7.3098e-05,0,0,0,0.034913,-3.1854e-06,0.010473,-0.023067,0.015128,0.031034,9.6619e-07,0.95,0.01,0
0.047456,0.014503,0.034925,-3.2e-06,0.010477,-1.1269e-05,0,0,0.063567,-0.027248,0,-5.86e-05,0,0,0,0.034925,-3.2036e-06,0.010477,-0.018486,0.015133,0.031045,9.672e-07,0.96,0.01,0
0.048092,0.014509,0.034935,-3.2156e-06,0.010479,-8.4655e-06,0,0,0.063584,-0.027255,0,-4.4021e-05,0,0,0,0.034935,-3.2176e-06,0.010479,-0.013883,0.015137,0.031054,9.6799e-07,0.97,0.01,0
0.048728,0.014513,0.034942,-3.2266e-06,0.010482,-5.6501e-06,0,0,0.063597,-0.02726,0,-2.9381e-05,0,0,0,0.034942,-3.2275e-06,0.010482,-0.0092639,0.01514,0.03106,9.6856e-07,0.98,0.01,0
0.049364,0.014516,0.034946,-3.2332e-06,0.010483,-2.827e-06,0,0,0.063604,-0.027264,0,-1.47e-05,0,0,0,0.034946,-3.2334e-06,0.010483,-0.0046346,0.015142,0.031063,9.689e-07,0.99,0.01,0
0.05,0.014516,0.034947,-3.2354e-06,0.010483,1.5809e-05,0,0,0.063606,-0.027265,0,8.2208e-05,0,0,0,0.034947,-3.2426e-06,0.010483,0.025917,0.015142,0.031064,9.6901e-07,1,0.01,0
0,0,0.056761,0.024326,0.024326,0.016952,0,0,0.042165,-2.3852e-18,0,0.044075,0,0,0,0.064004,0.017084,0.024326,23.134,0.035138,0.043751,3.9068e-06,0,0.02,0
0.00042165,0.00044075,0.054604,0.014346,0.020685,0.015246,0,0,0.044095,-0.0082408,0,0.03964,0,0,0,0.059726,0.0092237,0.020685,18.57,0.029878,0.045859,3.9297e-06,0.01,0.02,0
0.00088189,0.00091591,0.054556,0.0068268,0.018415,0.012191,0,0,0.046983,-0.015064,0,0.031696,0,0,0,0.057489,0.0038934,0.018415,13.53,0.026599,0.048012,3.9802e-06,0.02,0.02,0
0.0013613,0.0013601,0.053741,0.0042509,0.017397,0.008923,0,0,0.047246,-0.017091,0,0.0232,0,0,0,0.0553,0.0026912,0.017397,9.9146,0.02513,0.047014,3.6295e-06,0.03,0.02,0
0.0018268,0.0017546,0.051262,0.0026715,0.01618,0.0064364,0,0,0.045606,-0.017561,0,0.016735,0,0,0,0.0521,0.0018333,0.01618,7.4192,0.023371,0.044849,3.0851e-06,0.04,0.02,0
0.0022735,0.0021089,0.048865,0.0017718,0.015191,0.004778,0,0,0.043776,-0.017445,0,0.012423,0,0,0,0.049345,0.0012919,0.015191,5.7353,0.021943,0.04283,2.649e-06,0.05,0.02,0
0.0027023,0.0024302,0.046826,0.0012264,0.014416,0.0036364,0,0,0.042133,-0.017146,0,0.0094545,0,0,0,0.047114,0.00093824,0.014416,4.5309,0.020823,0.041128,2.3224e-06,0.06,0.02,0
0.0031161,0.0027245,0.045159,0.0008831,0.013813,0.0028286,0,0,0.04075,-0.016808,0,0.0073543,0,0,0,0.045339,0.00070312,0.013813,3.6406,0.019952,0.039738,2.08e-06,0.07,0.02,0
0.0035173,0.0029963,0.043805,0.0006575,0.013339,0.0022369,0,0,0.039607,-0.016486,0,0.0058159,0,0,0,0.043921,0.00054185,0.013339,2.9598,0.019267,0.038606,1.8976e-06,0.08,0.02,0
0.0039082,0.0032488,0.042703,0.00050356,0.012962,0.0017904,0,0,0.038663,-0.016196,0,0.004655,0,0,0,0.042779,0.00042774,0.012962,2.4251,0.018723,0.037681,1.758e-06,0.09,0.02,0
0.0042906,0.0034847,0.041801,0.00039497,0.012659,0.0014447,0,0,0.037885,-0.015943,0,0.0037562,0,0,0,0.041851,0.00034462,0.012659,1.9959,0.018285,0.036923,1.6492e-06,0.1,0.02,0
0.0046659,0.0037061,0.041059,0.00031612,0.012413,0.0011711,0,0,0.037241,-0.015725,0,0.0030448,0,0,0,0.041093,0.00028249,0.012413,1.645,0.017929,0.036299,1.5636e-06,0.11,0.02,0
0.0050354,0.0039146,0.040448,0.00025743,0.012212,0.00095041,0,0,0.036707,-0.01554,0,0.0024711,0,0,0,0.04047,0.00023497,0.012212,1.3539,0.017639,0.035783,1.4953e-06,0.12,0.02,0
0.0054001,0.0041117,0.039944,0.00021278,0.012047,0.00076954,0,0,0.036266,-0.015384,0,0.0020008,0,0,0,0.039959,0.00019788,0.012047,1.1092,0.017401,0.035358,1.4406e-06,0.13,0.02,0
0.0057607,0.0042985,0.039528,0.00017817,0.011912,0.00061922,0,0,0.035901,-0.015254,0,0.00161,0,0,0,0.039538,0.00016843,0.011912,0.90132,0.017206,0.035007,1.3967e-06,0.14,0.02,0
0.0061181,0.0044762,0.039187,0.00015088,0.011801,0.00049274,0,0,0.035601,-0.015146,0,0.0012811,0,0,0,0.039193,0.00014466,0.011801,0.72308,0.017046,0.03472,1.3613e-06,0.15,0.02,0
0.0064728,0.0046455,0.038909,0.00012904,0.011711,0.00038521,0,0,0.035357,-0.015057,0,0.0010015,0,0,0,0.038913,0.00012522,0.011711,0.56905,0.016917,0.034487,1.333e-06,0.16,0.02,0
0.0068252,0.0048073,0.038685,0.00011134,0.011639,0.00029291,0,0,0.03516,-0.014986,0,0.00076156,0,0,0,0.038687,0.00010911,0.011639,0.43504,0.016812,0.034299,1.3105e-06,0.17,0.02,0
0.007176,0.0049623,0.038508,9.6801e-05,0.011581,0.00021304,0,0,0.035004,-0.01493,0,0.00055391,0,0,0,0.038509,9.562e-05,0.011581,0.31777,0.016729,0.034151,1.2929e-06,0.18,0.02,0
0.0075253,0.0051112,0.03837,8.4743e-05,0.011536,0.00014343,0,0,0.034884,-0.014887,0,0.00037291,0,0,0,0.038371,8.4205e-05,0.011536,0.21464,0.016664,0.034037,1.2795e-06,0.19,0.02,0
0.0078736,0.0052545,0.038268,7.4637e-05,0.011503,8.2359e-05,0,0,0.034795,-0.014857,0,0.00021414,0,0,0,0.038268,7.4459e-05,0.011503,0.12355,0.016615,0.033954,1.2696e-06,0.2,0.02,0
0.0082212,0.0053928,0.038197,6.6088e-05,0.011479,2.8488e-05,0,0,0.034733,-0.014837,0,7.4069e-05,0,0,0,0.038197,6.6067e-05,0.011479,0.042807,0.016581,0.033897,1.2627e-06,0.21,0.02,0
0.0085683,0.0055267,0.038152,5.8795e-05,0.011463,-1.9269e-05,0,0,0.034696,-0.014826,0,-5.01e-05,0,0,0,0.038152,5.8785e-05,0.011463,-0.028983,0.016558,0.033863,1.2586e-06,0.22,0.02,0
0.0089151,0.0056566,0.038132,5.2522e-05,0.011455,-6.1786e-05,0,0,0.034679,-0.014824,0,-0.00016065,0,0,0,0.038132,5.2422e-05,0.011455,-0.092966,0.016546,0.03385,1.2568e-06,0.23,0.02,0
0.0092619,0.005783,0.038132,4.7085e-05,0.011454,-9.9775e-05,0,0,0.034682,-0.014829,0,-0.00025942,0,0,0,0.038133,4.6824e-05,0.011454,-0.1501,0.016544,0.033856,1.2571e-06,0.24,0.02,0
0.0096088,0.0059063,0.038152,4.2336e-05,0.011458,-0.00013382,0,0,0.034702,-0.014841,0,-0.00034793,0,0,0,0.038152,4.1866e-05,0.011458,-0.20119,0.016551,0.033877,1.2592e-06,0.25,0.02,0
0.0099559,0.006027,0.038188,3.8158e-05,0.011468,-0.0001644,0,0,0.034736,-0.014858,0,-0.00042744,0,0,0,0.038188,3.7449e-05,0.011468,-0.2469,0.016564,0.033913,1.2629e-06,0.26,0.02,0
0.010304,0.0061455,0.038238,3.4453e-05,0.011482,-0.00019191,0,0,0.034783,-0.014882,0,-0.00049897,0,0,0,0.038239,3.3489e-05,0.011482,-0.28781,0.016585,0.033961,1.2681e-06,0.27,0.02,0
0.010652,0.0062622,0.038302,3.1141e-05,0.0115,-0.00021668,0,0,0.034842,-0.014909,0,-0.00056337,0,0,0,0.038303,2.9914e-05,0.0115,-0.32438,0.016611,0.034021,1.2746e-06,0.28,0.02,0
0.011,0.0063776,0.038377,2.8153e-05,0.011521,-0.00023897,0,0,0.034912,-0.014941,0,-0.00062133,0,0,0,0.038378,2.6664e-05,0.011521,-0.35703,0.016642,0.03409,1.2823e-06,0.29,0.02,0
0.01135,0.006492,0.038461,2.5429e-05,0.011546,-0.00025901,0,0,0.03499,-0.014977,0,-0.00067342,0,0,0,0.038463,2.3683e-05,0.011546,-0.38607,0.016678,0.034168,1.2909e-06,0.3,0.02,0
0.0117,0.0066059,0.038554,2.2912e-05,0.011573,-0.00027695,0,0,0.035076,-0.015015,0,-0.00072006,0,0,0,0.038557,2.0922e-05,0.011573,-0.41179,0.016717,0.034253,1.3004e-06,0.31,0.02,0
0.012051,0.0067196,0.038655,2.055e-05,0.011602,-0.00029291,0,0,0.035168,-0.015057,0,-0.00076158,0,0,0,0.038657,1.833e-05,0.011602,-0.43437,0.016759,0.034344,1.3107e-06,0.32,0.02,0
0.012403,0.0068337,0.03876,1.8286e-05,0.011633,-0.00030698,0,0,0.035264,-0.0151,0,-0.00079815,0,0,0,0.038762,1.5853e-05,0.011633,-0.45396,0.016804,0.03444,1.3216e-06,0.33,0.02,0
0.012757,0.0069486,0.03887,1.6055e-05,0.011666,-0.00031917,0,0,0.035365,-0.015144,0,-0.00082984,0,0,0,0.038872,1.3433e-05,0.011666,-0.47062,0.01685,0.03454,1.3329e-06,0.34,0.02,0
0.013111,0.0070648,0.038981,1.3777e-05,0.011699,-0.00032942,0,0,0.035468,-0.01519,0,-0.00085651,0,0,0,0.038984,1.0992e-05,0.011699,-0.48432,0.016898,0.034641,1.3446e-06,0.35,0.02,0
0.013466,0.0071827,0.039094,1.1348e-05,0.011732,-0.00033762,0,0,0.035571,-0.015236,0,-0.00087781,0,0,0,0.039096,8.4316e-06,0.011732,-0.49491,0.016945,0.034743,1.3563e-06,0.36,0.02,0
0.013822,0.0073031,0.039204,8.6162e-06,0.011764,-0.00034349,0,0,0.035672,-0.015282,0,-0.00089308,0,0,0,0.039207,5.6062e-06,0.011764,-0.50207,0.016992,0.034843,1.3679e-06,0.37,0.02,0
0.014179,0.0074263,0.03931,5.3547e-06,0.011794,-0.00034661,0,0,0.03577,-0.015326,0,-0.00090118,0,0,0,0.039313,2.2983e-06,0.011794,-0.50521,0.017036,0.03494,1.3792e-06,0.38,0.02,0
0.014538,0.0075533,0.039407,1.204e-06,0.011822,-0.00034625,0,0,0.03586,-0.015368,0,-0.00090025,0,0,0,0.03941,-1.8382e-06,0.011822,-0.50339,0.017077,0.03503,1.3896e-06,0.39,0.02,0
0.014897,0.0076846,0.039492,-4.4292e-06,0.011846,-0.00034125,0,0,0.035939,-0.015406,0,-0.00088725,0,0,0,0.039495,-7.3774e-06,0.011846,-0.49499,0.017111,0.03511,1.3988e-06,0.4,0.02,0
0.015256,0.0078212,0.039557,-1.2569e-05,0.011863,-0.00032966,0,0,0.036001,-0.015439,0,-0.00085712,0,0,0,0.039559,-1.5315e-05,0.011863,-0.4773,0.017136,0.035173,1.406e-06,0.41,0.02,0
0.015617,0.0079642,0.039592,-2.5061e-05,0.01187,-0.00030819,0,0,0.036038,-0.015464,0,-0.00080128,0,0,0,0.039594,-2.7459e-05,0.01187,-0.44568,0.017146,0.035214,1.4102e-06,0.42,0.02,0
0.015977,0.0081148,0.039583,-4.5402e-05,0.011861,-0.00027097,0,0,0.036038,-0.015479,0,-0.00070452,0,0,0,0.039585,-4.7255e-05,0.011861,-0.39175,0.017133,0.035221,1.4099e-06,0.43,0.02,0
0.016337,0.0082747,0.039506,-8.0536e-05,0.011828,-0.00020721,0,0,0.035982,-0.015481,0,-0.00053876,0,0,0,0.039507,-8.1621e-05,0.011828,-0.2999,0.017084,0.03518,1.403e-06,0.44,0.02,0
0.016697,0.0084461,0.039326,-0.00014509,0.011754,-9.567e-05,0,0,0.035843,-0.015469,0,-0.00024874,0,0,0,0.039326,-0.00014532,0.011754,-0.13887,0.016978,0.03507,1.3861e-06,0.45,0.02,0
0.017054,0.008632,0.038989,-0.00027036,0.011616,0.00010605,0,0,0.035585,-0.015452,0,0.00027572,0,0,0,0.038989,-0.00027065,0.011616,0.15477,0.016778,0.034871,1.3555e-06,0.46,0.02,0
0.017409,0.0088367,0.038438,-0.00053162,0.011372,0.00049044,0,0,0.035186,-0.015475,0,0.0012751,0,0,0,0.038444,-0.0005378,0.011372,0.72092,0.016426,0.0346,1.3089e-06,0.47,0.02,0
0.017758,0.0090673,0.037837,-0.0010506,0.011036,0.0011939,0,0,0.034841,-0.015712,0,0.0031041,0,0,0,0.037873,-0.0010872,0.011036,1.7568,0.015941,0.034534,1.2701e-06,0.48,0.02,0
0.018105,0.0093317,0.037491,-0.0025782,0.010474,0.0021846,0,0,0.035123,-0.016968,0,0.0056799,0,0,0,0.03761,-0.002697,0.010474,3.1115,0.015129,0.035599,1.2935e-06,0.49,0.02,0
0.018461,0.0096257,0.036773,-0.0010688,0.010711,0.0027936,0,0,0.050003,-0.020418,0,0.011045,0,0,0,0.036984,-0.0012804,0.010711,4.2994,0.015472,0.033973,1.1488e-06,0.5,0.02,0
0.019105,0.010001,0.036689,0.0022692,0.011687,0.0024913,0,0,0.065004,-0.024487,0,0.012955,0,0,0,0.036868,0.0020898,0.011687,4.1185,0.016882,0.03111,1.0648e-06,0.51,0.02,0
0.019761,0.010351,0.036416,0.0010606,0.011243,0.0017517,0,0,0.06545,-0.026474,0,0.009109,0,0,0,0.036503,0.00097401,0.011243,2.8295,0.01624,0.031669,1.0717e-06,0.52,0.02,0
0.020414,0.010661,0.035977,0.00062325,0.01098,0.001143,0,0,0.064991,-0.026927,0,0.0059435,0,0,0,0.036013,0.00058634,0.01098,1.8498,0.01586,0.031542,1.0415e-06,0.53,0.02,0
0.02106,0.010936,0.035456,0.000376,0.01075,0.00074393,0,0,0.064237,-0.026971,0,0.0038684,0,0,0,0.035472,0.00036023,0.01075,1.2143,0.015527,0.031241,1.0021e-06,0.54,0.02,0
0.021699,0.011184,0.035045,0.00024139,0.010586,0.00049468,0,0,0.063594,-0.026896,0,0.0025723,0,0,0,0.035053,0.00023436,0.010586,0.81414,0.015291,0.030968,9.7064e-07,0.55,0.02,0
0.022332,0.011409,0.03474,0.0001627,0.010471,0.00033084,0,0,0.0631,-0.026801,0,0.0017204,0,0,0,0.034743,0.00015954,0.010471,0.54814,0.015125,0.030753,9.4735e-07,0.56,0.02,0
0.022961,0.011616,0.034518,0.00011434,0.01039,0.00021871,0,0,0.062733,-0.026716,0,0.0011373,0,0,0,0.034519,0.00011295,0.01039,0.36423,0.015007,0.030591,9.3047e-07,0.57,0.02,0
0.023587,0.011806,0.034357,8.306e-05,0.010332,0.00013893,0,0,0.062465,-0.026648,0,0.00072245,0,0,0,0.034358,8.2496e-05,0.010332,0.23225,0.014924,0.030472,9.1834e-07,0.58,0.02,0
0.02421,0.011982,0.034243,6.192e-05,0.010291,8.0405e-05,0,0,0.062273,-0.026596,0,0.00041811,0,0,0,0.034243,6.1731e-05,0.010291,0.13478,0.014865,0.030386,9.0972e-07,0.59,0.02,0
0.024832,0.012145,0.034162,4.7086e-05,0.010263,3.6427e-05,0,0,0.062139,-0.026561,0,0.00018942,0,0,0,0.034162,4.7047e-05,0.010263,0.061178,0.014824,0.030327,9.0376e-07,0.6,0.02,0
0.025453,0.012297,0.034109,3.6336e-05,0.010244,2.7714e-06,0,0,0.06205,-0.026539,0,1.4411e-05,0,0,0,0.034109,3.6335e-05,0.010244,0.0046603,0.014796,0.030288,8.9982e-07,0.61,0.02,0
0.026073,0.012439,0.034076,2.8326e-05,0.010231,-2.3333e-05,0,0,0.061997,-0.026528,0,-0.00012133,0,0,0,0.034076,2.831e-05,0.010231,-0.039265,0.014779,0.030265,8.9746e-07,0.62,0.02,0
0.026693,0.012571,0.03406,2.2214e-05,0.010225,-4.3766e-05,0,0,0.061971,-0.026526,0,-0.00022758,0,0,0,0.03406,2.2157e-05,0.010225,-0.073671,0.014769,0.030255,8.9633e-07,0.63,0.02,0
0.027313,0.012694,0.034056,1.7452e-05,0.010222,-5.984e-05,0,0,0.061969,-0.026532,0,-0.00031117,0,0,0,0.034056,1.7347e-05,0.010222,-0.10072,0.014765,0.030256,8.962e-07,0.64,0.02,0
0.027932,0.01281,0.034063,1.3673e-05,0.010223,-7.2498e-05,0,0,0.061984,-0.026544,0,-0.00037699,0,0,0,0.034063,1.3519e-05,0.010223,-0.12199,0.014767,0.030265,8.9685e-07,0.65,0.02,0
0.028553,0.012918,0.034078,1.0627e-05,0.010227,-8.2431e-05,0,0,0.062014,-0.026562,0,-0.00042864,0,0,0,0.034078,1.0428e-05,0.010227,-0.13863,0.014772,0.030281,8.9814e-07,0.66,0.02,0
0.029173,0.013019,0.0341,8.1362e-06,0.010233,-9.0158e-05,0,0,0.062056,-0.026583,0,-0.00046882,0,0,0,0.0341,7.8978e-06,0.010233,-0.15152,0.01478,0.030303,8.9995e-07,0.67,0.02,0
0.029794,0.013114,0.034127,6.0734e-06,0.01024,-9.6072e-05,0,0,0.062107,-0.026608,0,-0.00049958,0,0,0,0.034128,5.8029e-06,0.01024,-0.16132,0.014791,0.030329,9.0217e-07,0.68,0.02,0
0.030415,0.013203,0.034159,4.3459e-06,0.010249,-0.00010048,0,0,0.062166,-0.026636,0,-0.0005225,0,0,0,0.034159,4.0503e-06,0.010249,-0.16856,0.014804,0.030358,9.0472e-07,0.69,0.02,0
0.031037,0.013286,0.034194,2.8846e-06,0.010259,-0.00010363,0,0,0.062231,-0.026666,0,-0.00053885,0,0,0,0.034194,2.5705e-06,0.010259,-0.17365,0.014819,0.03039,9.0754e-07,0.7,0.02,0
0.03166,0.013365,0.034231,1.6374e-06,0.01027,-0.0001057,0,0,0.0623,-0.026697,0,-0.00054963,0,0,0,0.034232,1.311e-06,0.01027,-0.17692,0.014834,0.030425,9.1057e-07,0.71,0.02,0
0.032283,0.013438,0.034271,5.644e-07,0.010281,-0.00010685,0,0,0.062372,-0.02673,0,-0.00055563,0,0,0,0.034271,2.3125e-07,0.010281,-0.17864,0.014851,0.030461,9.1375e-07,0.72,0.02,0
0.032907,0.013506,0.034312,-3.6539e-07,0.010293,-0.00010721,0,0,0.062448,-0.026764,0,-0.00055751,0,0,0,0.034312,-7.004e-07,0.010293,-0.17903,0.014868,0.030498,9.1706e-07,0.73,0.02,0
0.033532,0.01357,0.034354,-1.1762e-06,0.010306,-0.00010689,0,0,0.062524,-0.026798,0,-0.00055583,0,0,0,0.034354,-1.5088e-06,0.010306,-0.17827,0.014886,0.030536,9.2044e-07,0.74,0.02,0
0.034158,0.013631,0.034396,-1.8873e-06,0.010318,-0.00010597,0,0,0.062602,-0.026832,0,-0.00055103,0,0,0,0.034396,-2.2137e-06,0.010318,-0.17651,0.014904,0.030574,9.2387e-07,0.75,0.02,0
0.034784,0.013687,0.034438,-2.514e-06,0.010331,-0.00010452,0,0,0.06268,-0.026867,0,-0.0005435,0,0,0,0.034439,-2.8312e-06,0.010331,-0.17387,0.014922,0.030612,9.2732e-07,0.76,0.02,0
0.035411,0.013739,0.034481,-3.0688e-06,0.010343,-0.0001026,0,0,0.062758,-0.026901,0,-0.00053354,0,0,0,0.034481,-3.374e-06,0.010343,-0.17048,0.01494,0.03065,9.3077e-07,0.77,0.02,0
0.036039,0.013788,0.034523,-3.5617e-06,0.010356,-0.00010028,0,0,0.062835,-0.026934,0,-0.00052145,0,0,0,0.034523,-3.8529e-06,0.010356,-0.16641,0.014958,0.030688,9.3419e-07,0.78,0.02,0
0.036668,0.013834,0.034564,-4.0011e-06,0.010368,-9.7588e-05,0,0,0.06291,-0.026967,0,-0.00050746,0,0,0,0.034565,-4.2766e-06,0.010368,-0.16175,0.014976,0.030725,9.3756e-07,0.79,0.02,0
0.037297,0.013876,0.034605,-4.3939e-06,0.01038,-9.4571e-05,0,0,0.062984,-0.027,0,-0.00049177,0,0,0,0.034605,-4.6523e-06,0.01038,-0.15656,0.014993,0.030761,9.4087e-07,0.8,0.02,0
0.037928,0.013916,0.034644,-4.7457e-06,0.010392,-9.1262e-05,0,0,0.063056,-0.027031,0,-0.00047456,0,0,0,0.034645,-4.9861e-06,0.010392,-0.15091,0.01501,0.030797,9.441e-07,0.81,0.02,0
0.038558,0.013953,0.034683,-5.0614e-06,0.010403,-8.7692e-05,0,0,0.063126,-0.027062,0,-0.000456,0,0,0,0.034683,-5.2831e-06,0.010403,-0.14485,0.015027,0.030831,9.4724e-07,0.82,0.02,0
0.03919,0.013987,0.03472,-5.3449e-06,0.010414,-8.3887e-05,0,0,0.063194,-0.027091,0,-0.00043621,0,0,0,0.03472,-5.5475e-06,0.010414,-0.13841,0.015043,0.030864,9.5027e-07,0.83,0.02,0
0.039822,0.014019,0.034755,-5.5997e-06,0.010425,-7.9873e-05,0,0,0.063258,-0.027119,0,-0.00041534,0,0,0,0.034755,-5.7832e-06,0.010425,-0.13165,0.015058,0.030896,9.5319e-07,0.84,0.02,0
0.040455,0.014048,0.034789,-5.8286e-06,0.010435,-7.5669e-05,0,0,0.06332,-0.027146,0,-0.00039348,0,0,0,0.034789,-5.9932e-06,0.010435,-0.1246,0.015073,0.030926,9.5597e-07,0.85,0.02,0
0.041089,0.014074,0.034821,-6.0341e-06,0.010444,-7.1296e-05,0,0,0.063378,-0.027171,0,-0.00037074,0,0,0,0.034821,-6.1801e-06,0.010444,-0.11729,0.015086,0.030954,9.5862e-07,0.86,0.02,0
0.041723,0.014099,0.034851,-6.2184e-06,0.010453,-6.677e-05,0,0,0.063433,-0.027195,0,-0.0003472,0,0,0,0.034851,-6.3463e-06,0.010453,-0.10975,0.015099,0.030981,9.6111e-07,0.87,0.02,0
0.042357,0.014121,0.034879,-6.3833e-06,0.010462,-6.2109e-05,0,0,0.063485,-0.027217,0,-0.00032296,0,0,0,0.034879,-6.4938e-06,0.010462,-0.10201,0.015111,0.031006,9.6346e-07,0.88,0.02,0
0.042992,0.014141,0.034905,-6.5302e-06,0.01047,-5.7325e-05,0,0,0.063533,-0.027238,0,-0.00029809,0,0,0,0.034905,-6.6243e-06,0.01047,-0.094079,0.015123,0.03103,9.6564e-07,0.89,0.02,0
0.043628,0.01416,0.03493,-6.6606e-06,0.010477,-5.2434e-05,0,0,0.063577,-0.027257,0,-0.00027266,0,0,0,0.03493,-6.7393e-06,0.010477,-0.085992,0.015133,0.031051,9.6765e-07,0.9,0.02,0
0.044264,0.014176,0.034952,-6.7755e-06,0.010483,-4.7447e-05,0,0,0.063617,-0.027275,0,-0.00024673,0,0,0,0.034952,-6.8399e-06,0.010483,-0.077765,0.015143,0.031071,9.6948e-07,0.91,0.02,0
0.0449,0.01419,0.034971,-6.876e-06,0.010489,-4.2377e-05,0,0,0.063653,-0.02729,0,-0.00022036,0,0,0,0.034971,-6.9273e-06,0.010489,-0.069415,0.015151,0.031089,9.7114e-07,0.92,0.02,0
0.045537,0.014203,0.034989,-6.9629e-06,0.010495,-3.7233e-05,0,0,0.063685,-0.027304,0,-0.00019361,0,0,0,0.034989,-7.0025e-06,0.010495,-0.060958,0.015159,0.031105,9.7261e-07,0.93,0.02,0
0.046174,0.014214,0.035004,-7.0368e-06,0.010499,-3.2027e-05,0,0,0.063713,-0.027316,0,-0.00016654,0,0,0,0.035004,-7.0661e-06,0.010499,-0.052411,0.015166,0.031118,9.7389e-07,0.94,0.02,0
0.046811,0.014223,0.035017,-7.0985e-06,0.010503,-2.6768e-05,0,0,0.063737,-0.027327,0,-0.00013919,0,0,0,0.035017,-7.1189e-06,0.010503,-0.043789,0.015171,0.03113,9.7498e-07,0.95,0.02,0
0.047449,0.01423,0.035028,-7.1483e-06,0.010506,-2.1465e-05,0,0,0.063757,-0.027335,0,-0.00011162,0,0,0,0.035028,-7.1614e-06,0.010506,-0.035104,0.015176,0.031139,9.7588e-07,0.96,0.02,0
0.048086,0.014236,0.035036,-7.1867e-06,0.010509,-1.6129e-05,0,0,0.063772,-0.027342,0,-8.387e-05,0,0,0,0.035036,-7.1941e-06,0.010509,-0.02637,0.015179,0.031147,9.7658e-07,0.97,0.02,0
0.048724,0.01424,0.035042,-7.2139e-06,0.010511,-1.0767e-05,0,0,0.063783,-0.027346,0,-5.5986e-05,0,0,0,0.035042,-7.2172e-06,0.010511,-0.0176,0.015182,0.031152,9.7708e-07,0.98,0.02,0
0.049362,0.014243,0.035046,-7.2301e-06,0.010512,-5.3875e-06,0,0,0.063789,-0.027349,0,-2.8015e-05,0,0,0,0.035046,-7.2309e-06,0.010512,-0.008806,0.015184,0.031155,9.7738e-07,0.99,0.02,0
0.05,0.014243,0.035047,-7.2355e-06,0.010512,1.5616e-05,0,0,0.063792,-0.02735,0,8.1206e-05,0,0,0,0.035047,-7.2424e-06,0.010512,0.025525,0.015184,0.031157,9.7748e-07,1,0.02,0
0,0,0.050842,0.02179,0.02179,0.01471,0,0,0.037769,-4.3368e-19,0,0.038247,0,0,0,0.05699,0.015642,0.02179,22.68,0.031474,0.038643,2.7125e-06,0,0.03,0
0.00037769,0.00038247,0.050122,0.016129,0.019875,0.013987,0,0,0.039321,-0.0048706,0,0.036367,0,0,0,0.055137,0.011113,0.019875,19.726,0.028709,0.040363,2.8482e-06,0.01,0.03,0
0.00078642,0.00079692,0.050624,0.010541,0.018349,0.012871,0,0,0.041957,-0.010151,0,0.033464,0,0,0,0.054401,0.0067638,0.018349,16.354,0.026505,0.04303,3.114e-06,0.02,0.03,0
0.0012168,0.0012062,0.050538,0.0066385,0.017153,0.010663,0,0,0.0434,-0.013669,0,0.027723,0,0,0,0.05299,0.0041857,0.017153,12.955,0.024776,0.043786,3.0708e-06,0.03,0.03,0
0.0016544,0.0015889,0.049726,0.0044561,0.016255,0.0084538,0,0,0.043513,-0.015338,0,0.02198,0,0,0,0.051254,0.0029289,0.016255,10.24,0.023479,0.043231,2.8591e-06,0.04,0.03,0
0.0020871,0.0019399,0.048359,0.0030838,0.015433,0.0066367,0,0,0.042804,-0.016054,0,0.017256,0,0,0,0.049312,0.002131,0.015433,8.1699,0.022292,0.042135,2.5906e-06,0.05,0.03,0
0.0025105,0.0022617,0.046912,0.0022087,0.014736,0.0052447,0,0,0.041828,-0.016286,0,0.013636,0,0,0,0.047519,0.0016016,0.014736,6.6026,0.021286,0.040961,2.3449e-06,0.06,0.03,0
0.0029237,0.0025579,0.045565,0.0016298,0.014158,0.0041851,0,0,0.040828,-0.016287,0,0.010881,0,0,0,0.04596,0.0012347,0.014158,5.3932,0.020451,0.039867,2.1387e-06,0.07,0.03,0
0.0033271,0.002832,0.044377,0.0012353,0.013684,0.0033722,0,0,0.039901,-0.016183,0,0.0087676,0,0,0,0.044639,0.00097328,0.013684,4.4425,0.019765,0.0389,1.971e-06,0.08,0.03,0
0.0037217,0.0030869,0.043353,0.00095844,0.013293,0.0027388,0,0,0.039078,-0.016036,0,0.007121,0,0,0,0.043529,0.00078224,0.013293,3.6811,0.019202,0.038066,1.8357e-06,0.09,0.03,0
0.0041086,0.003325,0.04248,0.000759,0.012972,0.0022374,0,0,0.038361,-0.015876,0,0.0058173,0,0,0,0.042599,0.00063936,0.012972,3.061,0.018737,0.037353,1.7263e-06,0.1,0.03,0
0.0044889,0.0035483,0.041738,0.00061184,0.012705,0.0018341,0,0,0.037743,-0.015721,0,0.0047687,0,0,0,0.04182,0.00053021,0.012705,2.5485,0.018352,0.036747,1.6375e-06,0.11,0.03,0
0.0048635,0.0037586,0.04111,0.00050093,0.012483,0.001505,0,0,0.037215,-0.015577,0,0.003913,0,0,0,0.041166,0.00044523,0.012483,2.1196,0.018031,0.036234,1.5651e-06,0.12,0.03,0
0.0052332,0.0039572,0.040579,0.00041572,0.012298,0.0012329,0,0,0.036765,-0.015447,0,0.0032056,0,0,0,0.040617,0.00037791,0.012298,1.7567,0.017764,0.035799,1.5058e-06,0.13,0.03,0
0.0055988,0.0041453,0.040131,0.00034915,0.012144,0.0010053,0,0,0.036383,-0.015333,0,0.0026139,0,0,0,0.040156,0.00032376,0.012144,1.4467,0.017541,0.035433,1.4572e-06,0.14,0.03,0
0.0059609,0.004324,0.039754,0.00029633,0.012015,0.00081294,0,0,0.036061,-0.015234,0,0.0021136,0,0,0,0.039771,0.00027958,0.012015,1.1798,0.017355,0.035126,1.4172e-06,0.15,0.03,0
0.00632,0.0044942,0.039439,0.00025384,0.011908,0.00064879,0,0,0.035791,-0.01515,0,0.0016869,0,0,0,0.03945,0.0002431,0.011908,0.9483,0.0172,0.03487,1.3845e-06,0.16,0.03,0
0.0066767,0.0046568,0.039177,0.00021923,0.011819,0.00050758,0,0,0.035566,-0.01508,0,0.0013197,0,0,0,0.039184,0.00021262,0.011819,0.74634,0.017072,0.034658,1.3578e-06,0.17,0.03,0
0.0070313,0.0048124,0.038962,0.00019071,0.011746,0.00038521,0,0,0.035381,-0.015021,0,0.0010015,0,0,0,0.038965,0.00018689,0.011746,0.5692,0.016966,0.034484,1.3361e-06,0.18,0.03,0
0.0073843,0.0049617,0.038786,0.00016697,0.011686,0.00027848,0,0,0.03523,-0.014975,0,0.00072406,0,0,0,0.038788,0.00016497,0.011686,0.41313,0.01688,0.034344,1.3187e-06,0.19,0.03,0
0.0077359,0.0051054,0.038646,0.00014701,0.011638,0.00018487,0,0,0.035111,-0.014938,0,0.00048067,0,0,0,0.038647,0.00014612,0.011638,0.27513,0.01681,0.034234,1.3051e-06,0.2,0.03,0
0.0080865,0.005244,0.038538,0.00013008,0.0116,0.00010237,0,0,0.035018,-0.014911,0,0.00026616,0,0,0,0.038538,0.0001298,0.0116,0.15271,0.016756,0.034149,1.2946e-06,0.21,0.03,0
0.0084363,0.005378,0.038456,0.00011558,0.011572,2.9351e-05,0,0,0.03495,-0.014893,0,7.6312e-05,0,0,0,0.038456,0.00011556,0.011572,0.043861,0.016714,0.034088,1.2869e-06,0.22,0.03,0
0.0087855,0.005508,0.038399,0.00010306,0.011551,-3.5488e-05,0,0,0.034903,-0.014882,0,-9.2268e-05,0,0,0,0.038399,0.00010303,0.011551,-0.053095,0.016684,0.034047,1.2816e-06,0.23,0.03,0
0.0091343,0.0056344,0.038363,9.2171e-05,0.011536,-9.3212e-05,0,0,0.034874,-0.014878,0,-0.00024235,0,0,0,0.038363,9.1944e-05,0.011536,-0.13955,0.016664,0.034024,1.2784e-06,0.24,0.03,0
0.009483,0.0057576,0.038345,8.2612e-05,0.011528,-0.00014469,0,0,0.034862,-0.014879,0,-0.0003762,0,0,0,0.038346,8.2065e-05,0.011528,-0.21666,0.016652,0.034017,1.277e-06,0.25,0.03,0
0.0098316,0.0058782,0.038344,7.4151e-05,0.011525,-0.00019064,0,0,0.034864,-0.014887,0,-0.00049566,0,0,0,0.038345,7.3201e-05,0.011525,-0.2854,0.016648,0.034023,1.2773e-06,0.26,0.03,0
0.01018,0.0059966,0.038358,6.6592e-05,0.011527,-0.00023163,0,0,0.034879,-0.014899,0,-0.00060223,0,0,0,0.038359,6.5191e-05,0.011527,-0.34657,0.01665,0.034042,1.279e-06,0.27,0.03,0
0.010529,0.0061131,0.038383,5.977e-05,0.011533,-0.00026812,0,0,0.034906,-0.014915,0,-0.00069712,0,0,0,0.038385,5.7894e-05,0.011533,-0.40083,0.016659,0.034071,1.2819e-06,0.28,0.03,0
0.010878,0.0062282,0.03842,5.354e-05,0.011542,-0.0003005,0,0,0.034941,-0.014935,0,-0.00078129,0,0,0,0.038422,5.1187e-05,0.011542,-0.44872,0.016672,0.034109,1.2858e-06,0.29,0.03,0
0.011228,0.0063423,0.038465,4.7773e-05,0.011554,-0.00032902,0,0,0.034984,-0.014958,0,-0.00085546,0,0,0,0.038468,4.4956e-05,0.011554,-0.49066,0.016689,0.034155,1.2906e-06,0.3,0.03,0
0.011578,0.0064558,0.038517,4.2343e-05,0.011568,-0.00035389,0,0,0.035034,-0.014983,0,-0.00092011,0,0,0,0.03852,3.9089e-05,0.011568,-0.52694,0.016709,0.034206,1.2961e-06,0.31,0.03,0
0.011929,0.0065693,0.038574,3.7124e-05,0.011584,-0.00037519,0,0,0.035088,-0.01501,0,-0.0009755,0,0,0,0.038578,3.3472e-05,0.011584,-0.55775,0.016732,0.034262,1.3022e-06,0.32,0.03,0
0.01228,0.006683,0.038635,3.1978e-05,0.0116,-0.00039294,0,0,0.035146,-0.015039,0,-0.0010216,0,0,0,0.038639,2.7978e-05,0.0116,-0.58312,0.016756,0.034321,1.3086e-06,0.33,0.03,0
0.012632,0.0067976,0.038698,2.6741e-05,0.011617,-0.000407,0,0,0.035204,-0.015068,0,-0.0010582,0,0,0,0.038702,2.2458e-05,0.011617,-0.60294,0.016781,0.034381,1.3152e-06,0.34,0.03,0
0.012984,0.0069134,0.038759,2.121e-05,0.011634,-0.00041714,0,0,0.035263,-0.015097,0,-0.0010846,0,0,0,0.038764,1.6719e-05,0.011634,-0.61688,0.016805,0.03444,1.3217e-06,0.35,0.03,0
0.013337,0.007031,0.038817,1.5111e-05,0.01165,-0.00042288,0,0,0.035318,-0.015125,0,-0.0010995,0,0,0,0.038822,1.0503e-05,0.01165,-0.62433,0.016827,0.034497,1.3278e-06,0.36,0.03,0
0.01369,0.0071509,0.038869,8.0562e-06,0.011663,-0.00042351,0,0,0.035367,-0.015152,0,-0.0011011,0,0,0,0.038873,3.4413e-06,0.011663,-0.62432,0.016847,0.034549,1.3334e-06,0.37,0.03,0
0.014044,0.0072739,0.03891,-5.2478e-07,0.011673,-0.00041791,0,0,0.035408,-0.015175,0,-0.0010866,0,0,0,0.038915,-5.0127e-06,0.011673,-0.61528,0.016861,0.034592,1.338e-06,0.38,0.03,0
0.014398,0.0074005,0.038936,-1.1508e-05,0.011678,-0.00040438,0,0,0.035437,-0.015196,0,-0.0010514,0,0,0,0.038941,-1.5706e-05,0.011678,-0.59479,0.016868,0.034624,1.3411e-06,0.39,0.03,0
0.014753,0.0075316,0.038942,-2.6288e-05,0.011675,-0.00038032,0,0,0.035447,-0.015211,0,-0.00098884,0,0,0,0.038945,-3e-05,0.011675,-0.55913,0.016863,0.034639,1.3421e-06,0.4,0.03,0
0.015107,0.007668,0.038918,-4.7159e-05,0.011661,-0.00034167,0,0,0.035433,-0.015221,0,-0.00088834,0,0,0,0.03892,-5.0155e-05,0.011661,-0.50236,0.016844,0.034633,1.3402e-06,0.41,0.03,0
0.015462,0.0078109,0.038853,-7.8037e-05,0.011633,-0.00028198,0,0,0.035387,-0.015224,0,-0.00073316,0,0,0,0.038855,-8.0079e-05,0.011633,-0.41497,0.016803,0.034599,1.3346e-06,0.42,0.03,0
0.015815,0.0079616,0.038734,-0.00012584,0.011583,-0.0001908,0,0,0.035297,-0.015221,0,-0.00049609,0,0,0,0.038735,-0.00012678,0.011583,-0.28131,0.01673,0.03453,1.324e-06,0.43,0.03,0
0.016168,0.0081217,0.038543,-0.00020329,0.011502,-5.0781e-05,0,0,0.035153,-0.015217,0,-0.00013203,0,0,0,0.038543,-0.00020336,0.011502,-0.075092,0.016614,0.03442,1.3071e-06,0.44,0.03,0
0.016518,0.0082933,0.038259,-0.00033442,0.011377,0.00016686,0,0,0.034946,-0.015225,0,0.00043384,0,0,0,0.038259,-0.00033514,0.011377,0.24772,0.016434,0.034273,1.2832e-06,0.45,0.03,0
0.016866,0.0084791,0.037874,-0.00056744,0.011192,0.00050889,0,0,0.034686,-0.015287,0,0.0013231,0,0,0,0.03788,-0.00057418,0.011192,0.75832,0.016166,0.034128,1.2537e-06,0.46,0.03,0
0.017212,0.0086829,0.037441,-0.00099562,0.010934,0.0010352,0,0,0.03446,-0.015508,0,0.0026915,0,0,0,0.037469,-0.0010235,0.010934,1.5416,0.015793,0.034123,1.2282e-06,0.47,0.03,0
0.017556,0.0089086,0.037091,-0.0018678,0.010567,0.0017623,0,0,0.034481,-0.016165,0,0.0045821,0,0,0,0.03717,-0.0019474,0.010567,2.5848,0.015263,0.034602,1.2277e-06,0.48,0.03,0
0.017902,0.0091573,0.036881,-0.0036631,0.0099655,0.0024978,0,0,0.034991,-0.017717,0,0.0064944,0,0,0,0.037034,-0.0038164,0.0099655,3.5121,0.014394,0.035996,1.2661e-06,0.49,0.03,0
0.018255,0.0094223,0.036555,-0.0010317,0.010657,0.0028311,0,0,0.04964,-0.020261,0,0.011106,0,0,0,0.036773,-0.0012489,0.010657,4.3745,0.015394,0.033758,1.1303e-06,0.5,0.03,0
0.018894,0.0097648,0.036666,0.0029721,0.011891,0.0026426,0,0,0.064414,-0.02319,0,0.013742,0,0,0,0.036872,0.0027661,0.011891,4.4574,0.017177,0.030582,1.0401e-06,0.51,0.03,0
0.019544,0.010092,0.036541,0.001752,0.011488,0.0021481,0,0,0.065138,-0.025313,0,0.01117,0,0,0,0.036673,0.0016199,0.011488,3.52,0.016594,0.031308,1.0644e-06,0.52,0.03,0
0.020197,0.010393,0.036308,0.001057,0.011209,0.0015991,0,0,0.065255,-0.026396,0,0.0083154,0,0,0,0.03638,0.00098457,0.011209,2.5921,0.016191,0.031551,1.0605e-06,0.53,0.03,0
0.020849,0.010666,0.035986,0.00068218,0.011,0.0011499,0,0,0.064963,-0.026828,0,0.0059797,0,0,0,0.036024,0.00064477,0.011,1.8636,0.01589,0.031504,1.0405e-06,0.54,0.03,0
0.021496,0.010914,0.03565,0.0004576,0.010832,0.00081943,0,0,0.064526,-0.026974,0,0.004261,0,0,0,0.035669,0.00043853,0.010832,1.3331,0.015647,0.031353,1.0165e-06,0.55,0.03,0
0.022139,0.01114,0.035357,0.00031889,0.010703,0.00058234,0,0,0.064102,-0.026998,0,0.0030282,0,0,0,0.035367,0.00030921,0.010703,0.95191,0.01546,0.031188,9.9475e-07,0.56,0.03,0
0.022778,0.011347,0.035118,0.00022938,0.010604,0.0004103,0,0,0.063736,-0.026975,0,0.0021336,0,0,0,0.035123,0.00022456,0.010604,0.67368,0.015317,0.031039,9.7683e-07,0.57,0.03,0
0.023414,0.011538,0.034929,0.00016946,0.01053,0.00028322,0,0,0.063439,-0.026936,0,0.0014727,0,0,0,0.034931,0.00016715,0.01053,0.4668,0.015209,0.030914,9.6262e-07,0.58,0.03,0
0.024047,0.011714,0.034782,0.00012794,0.010473,0.00018752,0,0,0.063203,-0.026897,0,0.0009751,0,0,0,0.034783,0.00012692,0.010473,0.31002,0.015128,0.030815,9.5157e-07,0.59,0.03,0
0.024678,0.011878,0.034669,9.8273e-05,0.01043,0.00011421,0,0,0.063022,-0.026863,0,0.0005939,0,0,0,0.03467,9.7896e-05,0.01043,0.18929,0.015066,0.030737,9.4315e-07,0.6,0.03,0
0.025308,0.01203,0.034585,7.6493e-05,0.010398,5.7246e-05,0,0,0.062884,-0.026837,0,0.00029768,0,0,0,0.034585,7.6398e-05,0.010398,0.095048,0.01502,0.030679,9.3685e-07,0.61,0.03,0
0.025936,0.012172,0.034523,6.0112e-05,0.010375,1.2472e-05,0,0,0.062784,-0.026818,0,6.4855e-05,0,0,0,0.034523,6.0107e-05,0.010375,0.020736,0.014986,0.030636,9.3228e-07,0.62,0.03,0
0.026563,0.012304,0.034479,4.7527e-05,0.010358,-2.3015e-05,0,0,0.062715,-0.026807,0,-0.00011968,0,0,0,0.034479,4.7511e-05,0.010358,-0.038298,0.014962,0.030608,9.2912e-07,0.63,0.03,0
0.02719,0.012428,0.034451,3.7674e-05,0.010346,-5.1296e-05,0,0,0.062671,-0.026803,0,-0.00026674,0,0,0,0.034451,3.7598e-05,0.010346,-0.085405,0.014945,0.03059,9.271e-07,0.64,0.03,0
0.027817,0.012543,0.034434,2.983e-05,0.010339,-7.3888e-05,0,0,0.062647,-0.026804,0,-0.00038421,0,0,0,0.034434,2.9672e-05,0.010339,-0.12305,0.014934,0.030582,9.2603e-07,0.65,0.03,0
0.028443,0.012651,0.034428,2.3492e-05,0.010335,-9.192e-05,0,0,0.062641,-0.026811,0,-0.00047799,0,0,0,0.034428,2.3246e-05,0.010335,-0.15308,0.014929,0.030582,9.2573e-07,0.66,0.03,0
0.02907,0.012752,0.03443,1.8301e-05,0.010335,-0.00010625,0,0,0.062649,-0.026822,0,-0.00055249,0,0,0,0.034431,1.7973e-05,0.010335,-0.1769,0.014928,0.030588,9.2607e-07,0.67,0.03,0
0.029696,0.012847,0.034439,1.3999e-05,0.010336,-0.00011753,0,0,0.062669,-0.026837,0,-0.00061116,0,0,0,0.03444,1.3598e-05,0.010336,-0.19561,0.01493,0.0306,9.2693e-07,0.68,0.03,0
0.030323,0.012936,0.034454,1.0395e-05,0.010339,-0.00012628,0,0,0.062699,-0.026855,0,-0.00065664,0,0,0,0.034455,9.932e-06,0.010339,-0.21005,0.014935,0.030616,9.2823e-07,0.69,0.03,0
0.03095,0.013019,0.034473,7.3464e-06,0.010344,-0.00013289,0,0,0.062736,-0.026876,0,-0.00069104,0,0,0,0.034474,6.834e-06,0.010344,-0.22091,0.014942,0.030636,9.2989e-07,0.7,0.03,0
0.031578,0.013097,0.034496,4.7453e-06,0.01035,-0.0001377,0,0,0.06278,-0.026899,0,-0.00071606,0,0,0,0.034497,4.1956e-06,0.01035,-0.22874,0.014951,0.030658,9.3183e-07,0.71,0.03,0
0.032206,0.01317,0.034523,2.5087e-06,0.010358,-0.00014097,0,0,0.062829,-0.026923,0,-0.00073304,0,0,0,0.034523,1.9331e-06,0.010358,-0.23397,0.014961,0.030683,9.3401e-07,0.72,0.03,0
0.032834,0.013238,0.034551,5.7202e-07,0.010365,-0.00014291,0,0,0.062882,-0.026949,0,-0.00074311,0,0,0,0.034551,-1.9048e-08,0.010365,-0.23698,0.014972,0.03071,9.3637e-07,0.73,0.03,0
0.033463,0.013302,0.034581,-1.1155e-06,0.010374,-0.00014369,0,0,0.062938,-0.026975,0,-0.00074718,0,0,0,0.034582,-1.7125e-06,0.010374,-0.23806,0.014985,0.030738,9.3888e-07,0.74,0.03,0
0.034093,0.013361,0.034613,-2.5941e-06,0.010383,-0.00014347,0,0,0.062997,-0.027003,0,-0.00074602,0,0,0,0.034613,-3.1886e-06,0.010383,-0.23746,0.014998,0.030767,9.4149e-07,0.75,0.03,0
0.034723,0.013417,0.034645,-3.896e-06,0.010392,-0.00014236,0,0,0.063057,-0.02703,0,-0.00074028,0,0,0,0.034646,-4.4809e-06,0.010392,-0.23541,0.015011,0.030797,9.4418e-07,0.76,0.03,0
0.035354,0.013469,0.034678,-5.0473e-06,0.010402,-0.00014048,0,0,0.063118,-0.027058,0,-0.0007305,0,0,0,0.034679,-5.6163e-06,0.010402,-0.23207,0.015025,0.030828,9.4691e-07,0.77,0.03,0
0.035986,0.013518,0.034711,-6.0693e-06,0.010412,-0.00013791,0,0,0.063179,-0.027086,0,-0.00071715,0,0,0,0.034712,-6.6172e-06,0.010412,-0.2276,0.015039,0.030858,9.4966e-07,0.78,0.03,0
0.036618,0.013563,0.034744,-6.9795e-06,0.010421,-0.00013474,0,0,0.06324,-0.027113,0,-0.00070062,0,0,0,0.034745,-7.5019e-06,0.010421,-0.22214,0.015053,0.030888,9.524e-07,0.79,0.03,0
0.03725,0.013606,0.034777,-7.7923e-06,0.010431,-0.00013102,0,0,0.063301,-0.02714,0,-0.00068128,0,0,0,0.034778,-8.2857e-06,0.010431,-0.2158,0.015067,0.030918,9.5513e-07,0.8,0.03,0
0.037884,0.013645,0.03481,-8.5196e-06,0.01044,-0.00012681,0,0,0.06336,-0.027167,0,-0.00065941,0,0,0,0.03481,-8.9815e-06,0.01044,-0.20867,0.01508,0.030947,9.5781e-07,0.81,0.03,0
0.038518,0.013682,0.034841,-9.1717e-06,0.01045,-0.00012217,0,0,0.063418,-0.027193,0,-0.00063529,0,0,0,0.034841,-9.5999e-06,0.01045,-0.20085,0.015094,0.030975,9.6044e-07,0.82,0.03,0
0.039152,0.013716,0.034872,-9.7568e-06,0.010459,-0.00011714,0,0,0.063474,-0.027218,0,-0.00060915,0,0,0,0.034872,-1.015e-05,0.010459,-0.19242,0.015107,0.031003,9.6299e-07,0.83,0.03,0
0.039787,0.013747,0.034901,-1.0282e-05,0.010467,-0.00011177,0,0,0.063529,-0.027242,0,-0.0005812,0,0,0,0.034902,-1.064e-05,0.010467,-0.18343,0.015119,0.03103,9.6546e-07,0.84,0.03,0
0.040423,0.013776,0.03493,-1.0754e-05,0.010476,-0.00010608,0,0,0.063581,-0.027265,0,-0.00055162,0,0,0,0.03493,-1.1076e-05,0.010476,-0.17395,0.015132,0.031055,9.6783e-07,0.85,0.03,0
0.041059,0.013802,0.034957,-1.1177e-05,0.010484,-0.00010011,0,0,0.06363,-0.027287,0,-0.00052059,0,0,0,0.034957,-1.1464e-05,0.010484,-0.16403,0.015143,0.03108,9.7009e-07,0.86,0.03,0
0.041695,0.013826,0.034983,-1.1556e-05,0.010491,-9.3895e-05,0,0,0.063677,-0.027307,0,-0.00048825,0,0,0,0.034983,-1.1808e-05,0.010491,-0.15373,0.015154,0.031103,9.7224e-07,0.87,0.03,0
0.042332,0.013848,0.035007,-1.1895e-05,0.010498,-8.7452e-05,0,0,0.063722,-0.027327,0,-0.00045475,0,0,0,0.035007,-1.2114e-05,0.010498,-0.14308,0.015164,0.031125,9.7426e-07,0.88,0.03,0
0.04297,0.013869,0.035029,-1.2197e-05,0.010505,-8.0809e-05,0,0,0.063763,-0.027345,0,-0.00042021,0,0,0,0.035029,-1.2384e-05,0.010505,-0.13213,0.015174,0.031145,9.7614e-07,0.89,0.03,0
0.043608,0.013887,0.03505,-1.2465e-05,0.010511,-7.3988e-05,0,0,0.063801,-0.027362,0,-0.00038474,0,0,0,0.03505,-1.2621e-05,0.010511,-0.1209,0.015183,0.031163,9.7789e-07,0.9,0.03,0
0.044246,0.013903,0.035069,-1.2701e-05,0.010517,-6.7011e-05,0,0,0.063836,-0.027377,0,-0.00034846,0,0,0,0.035069,-1.2829e-05,0.010517,-0.10944,0.015191,0.03118,9.7948e-07,0.91,0.03,0
0.044884,0.013917,0.035086,-1.2907e-05,0.010522,-5.9895e-05,0,0,0.063867,-0.027391,0,-0.00031145,0,0,0,0.035086,-1.301e-05,0.010522,-0.097772,0.015198,0.031196,9.8092e-07,0.92,0.03,0
0.045523,0.013929,0.035102,-1.3086e-05,0.010526,-5.266e-05,0,0,0.063895,-0.027403,0,-0.00027383,0,0,0,0.035102,-1.3165e-05,0.010526,-0.085924,0.015205,0.03121,9.8221e-07,0.93,0.03,0
0.046162,0.01394,0.035115,-1.3237e-05,0.01053,-4.5322e-05,0,0,0.063919,-0.027414,0,-0.00023567,0,0,0,0.035115,-1.3296e-05,0.01053,-0.073922,0.015211,0.031221,9.8333e-07,0.94,0.03,0
0.046801,0.013949,0.035126,-1.3364e-05,0.010534,-3.7897e-05,0,0,0.06394,-0.027423,0,-0.00019707,0,0,0,0.035126,-1.3405e-05,0.010534,-0.061793,0.015215,0.031232,9.8428e-07,0.95,0.03,0
0.047441,0.013957,0.035136,-1.3466e-05,0.010537,-3.0402e-05,0,0,0.063957,-0.02743,0,-0.00015809,0,0,0,0.035136,-1.3492e-05,0.010537,-0.049557,0.01522,0.03124,9.8507e-07,0.96,0.03,0
0.04808,0.013962,0.035143,-1.3545e-05,0.010539,-2.285e-05,0,0,0.06397,-0.027436,0,-0.00011882,0,0,0,0.035143,-1.3559e-05,0.010539,-0.03724,0.015223,0.031246,9.8568e-07,0.97,0.03,0
0.04872,0.013966,0.035148,-1.36e-05,0.01054,-1.5256e-05,0,0,0.06398,-0.02744,0,-7.9333e-05,0,0,0,0.035148,-1.3607e-05,0.01054,-0.02486,0.015225,0.031251,9.8612e-07,0.98,0.03,0
0.04936,0.013969,0.035151,-1.3634e-05,0.010541,-7.6351e-06,0,0,0.063986,-0.027443,0,-3.9702e-05,0,0,0,0.035151,-1.3635e-05,0.010541,-0.01244,0.015226,0.031254,9.8638e-07,0.99,0.03,0
0.05,0.013969,0.035152,-1.3645e-05,0.010542,1.5446e-05,0,0,0.063988,-0.027443,0,8.0318e-05,0,0,0,0.035152,-1.3651e-05,0.010542,0.025166,0.015227,0.031255,9.8647e-07,1,0.03,0
0,0,0.047395,0.020312,0.020312,0.013206,0,0,0.035208,-1.0842e-18,0,0.034334,0,0,0,0.052768,0.014939,0.020312,22.14,0.02934,0.035449,2.1118e-06,0,0.04,0
0.00035208,0.00034334,0.046995,0.016386,0.019015,0.012882,0,0,0.036375,-0.0034165,0,0.033494,0,0,0,0.051695,0.011686,0.019015,20.044,0.027465,0.036895,2.2402e-06,0.01,0.04,0
0.0007275,0.00071289,0.047688,0.012332,0.018006,0.012405,0,0,0.038586,-0.0073759,0,0.032252,0,0,0,0.051606,0.0084142,0.018006,17.529,0.026009,0.039284,2.4989e-06,0.02,0.04,0
0.0011238,0.0010867,0.048021,0.0088189,0.017052,0.011109,0,0,0.04026,-0.010703,0,0.028885,0,0,0,0.050951,0.0058895,0.017052,14.772,0.024631,0.040646,2.592e-06,0.03,0.04,0
0.0015327,0.0014479,0.047851,0.0062708,0.016237,0.0094539,0,0,0.041099,-0.012956,0,0.02458,0,0,0,0.049899,0.0042222,0.016237,12.226,0.023453,0.041012,2.5447e-06,0.04,0.04,0
0.0019458,0.0017878,0.047244,0.0045524,0.015539,0.0078461,0,0,0.041217,-0.014283,0,0.0204,0,0,0,0.048641,0.003156,0.015539,10.091,0.022445,0.04073,2.4196e-06,0.05,0.04,0
0.002357,0.0021045,0.046372,0.0033731,0.014923,0.0064535,0,0,0.040883,-0.015015,0,0.016779,0,0,0,0.047319,0.0024254,0.014923,8.3542,0.021556,0.040132,2.2666e-06,0.06,0.04,0
0.0027634,0.0023988,0.045418,0.0025541,0.014392,0.0053046,0,0,0.040334,-0.015389,0,0.013792,0,0,0,0.046065,0.0019074,0.014392,6.9509,0.020788,0.039427,2.1165e-06,0.07,0.04,0
0.0031637,0.0026726,0.044485,0.0019736,0.013938,0.0043711,0,0,0.039711,-0.015553,0,0.011365,0,0,0,0.044929,0.0015289,0.013938,5.8103,0.020132,0.038717,1.9813e-06,0.08,0.04,0
0.0035577,0.0029281,0.04362,0.001554,0.013552,0.0036136,0,0,0.039088,-0.015598,0,0.0093953,0,0,0,0.043929,0.0012459,0.013552,4.8742,0.019576,0.038052,1.8642e-06,0.09,0.04,0
0.0039455,0.0031672,0.042843,0.0012445,0.013226,0.0029957,0,0,0.038502,-0.015576,0,0.0077887,0,0,0,0.043058,0.0010299,0.013226,4.0979,0.019105,0.03745,1.7646e-06,0.1,0.04,0
0.0043277,0.0033917,0.042156,0.0010119,0.01295,0.0024875,0,0,0.037967,-0.01552,0,0.0064676,0,0,0,0.042306,0.00086209,0.01295,3.4473,0.018706,0.036915,1.6806e-06,0.11,0.04,0
0.0047048,0.0036031,0.041555,0.00083404,0.012717,0.0020659,0,0,0.037489,-0.015447,0,0.0053713,0,0,0,0.041659,0.0007295,0.012717,2.8969,0.018368,0.036446,1.6099e-06,0.12,0.04,0
0.0050775,0.0038028,0.041032,0.00069577,0.012518,0.0017127,0,0,0.037068,-0.015369,0,0.0044531,0,0,0,0.041104,0.00062318,0.012518,2.4271,0.018082,0.036037,1.5505e-06,0.13,0.04,0
0.0054462,0.0039919,0.040579,0.00058669,0.01235,0.0014144,0,0,0.036698,-0.015292,0,0.0036774,0,0,0,0.040629,0.00053673,0.01235,2.023,0.017839,0.035684,1.5007e-06,0.14,0.04,0
0.0058115,0.0041715,0.04019,0.00049947,0.012207,0.0011602,0,0,0.036378,-0.01522,0,0.0030166,0,0,0,0.040224,0.00046558,0.012207,1.673,0.017632,0.03538,1.4589e-06,0.15,0.04,0
0.0061738,0.0043425,0.039856,0.00042884,0.012086,0.00094212,0,0,0.036102,-0.015154,0,0.0024495,0,0,0,0.039879,0.00040634,0.012086,1.368,0.017457,0.035121,1.4238e-06,0.16,0.04,0
0.0065335,0.0045057,0.039572,0.00037098,0.011983,0.00075363,0,0,0.035866,-0.015095,0,0.0019594,0,0,0,0.039586,0.0003565,0.011983,1.101,0.017309,0.034901,1.3945e-06,0.17,0.04,0
0.0068911,0.0046619,0.039331,0.00032308,0.011896,0.00058976,0,0,0.035665,-0.015045,0,0.0015334,0,0,0,0.03934,0.00031417,0.011896,0.86599,0.017183,0.034715,1.3702e-06,0.18,0.04,0
0.0072468,0.0048117,0.039128,0.00028303,0.011823,0.00044651,0,0,0.035497,-0.015003,0,0.0011609,0,0,0,0.039134,0.00027789,0.011823,0.65848,0.017078,0.034561,1.3501e-06,0.19,0.04,0
0.007601,0.0049557,0.03896,0.00024921,0.011763,0.00032071,0,0,0.035356,-0.014968,0,0.00083385,0,0,0,0.038963,0.00024655,0.011763,0.47464,0.016991,0.034434,1.3336e-06,0.2,0.04,0
0.0079539,0.0050946,0.038822,0.00022041,0.011713,0.0002098,0,0,0.035242,-0.01494,0,0.00054547,0,0,0,0.038823,0.00021927,0.011713,0.31139,0.016918,0.034331,1.3202e-06,0.21,0.04,0
0.0083058,0.0052289,0.03871,0.00019565,0.011672,0.00011169,0,0,0.03515,-0.014919,0,0.0002904,0,0,0,0.03871,0.00019533,0.011672,0.16615,0.016859,0.034251,1.3097e-06,0.22,0.04,0
0.0086569,0.005359,0.038622,0.0001742,0.011639,2.4709e-05,0,0,0.035078,-0.014904,0,6.4244e-05,0,0,0,0.038622,0.00017418,0.011639,0.036822,0.016812,0.034189,1.3015e-06,0.23,0.04,0
0.0090074,0.0054854,0.038554,0.00015544,0.011613,-5.2523e-05,0,0,0.035024,-0.014895,0,-0.00013656,0,0,0,0.038554,0.00015537,0.011613,-0.078371,0.016774,0.034144,1.2953e-06,0.24,0.04,0
0.0093574,0.0056087,0.038505,0.00013889,0.011593,-0.00012113,0,0,0.034985,-0.01489,0,-0.00031493,0,0,0,0.038505,0.00013851,0.011593,-0.18089,0.016746,0.034114,1.291e-06,0.25,0.04,0
0.0097071,0.0057293,0.038471,0.00012416,0.011579,-0.00018201,0,0,0.034961,-0.014891,0,-0.00047324,0,0,0,0.038472,0.00012329,0.011579,-0.27194,0.016725,0.034097,1.2882e-06,0.26,0.04,0
0.010057,0.0058475,0.038452,0.00011089,0.011569,-0.00023592,0,0,0.034948,-0.014895,0,-0.00061338,0,0,0,0.038453,0.00010944,0.011569,-0.35253,0.01671,0.03409,1.2868e-06,0.27,0.04,0
0.010406,0.0059639,0.038443,9.8816e-05,0.011563,-0.00028341,0,0,0.034945,-0.014903,0,-0.00073687,0,0,0,0.038445,9.6721e-05,0.011563,-0.42345,0.016702,0.034094,1.2865e-06,0.28,0.04,0
0.010755,0.0060789,0.038445,8.7666e-05,0.01156,-0.00032494,0,0,0.034951,-0.014914,0,-0.00084484,0,0,0,0.038448,8.4913e-05,0.01156,-0.48533,0.016697,0.034105,1.2871e-06,0.29,0.04,0
0.011105,0.0061928,0.038454,7.7203e-05,0.011559,-0.0003608,0,0,0.034963,-0.014927,0,-0.00093808,0,0,0,0.038457,7.3812e-05,0.011559,-0.53861,0.016697,0.034123,1.2885e-06,0.3,0.04,0
0.011455,0.0063062,0.038469,6.7195e-05,0.011561,-0.00039118,0,0,0.03498,-0.014942,0,-0.0010171,0,0,0,0.038473,6.3211e-05,0.011561,-0.58356,0.016699,0.034145,1.2905e-06,0.31,0.04,0
0.011805,0.0064194,0.038487,5.7395e-05,0.011563,-0.0004161,0,0,0.035001,-0.014958,0,-0.0010819,0,0,0,0.038492,5.289e-05,0.011563,-0.62027,0.016703,0.03417,1.2928e-06,0.32,0.04,0
0.012155,0.006533,0.038508,4.753e-05,0.011567,-0.00043544,0,0,0.035023,-0.014975,0,-0.0011322,0,0,0,0.038513,4.26e-05,0.011567,-0.64859,0.016707,0.034197,1.2952e-06,0.33,0.04,0
0.012505,0.0066473,0.038527,3.7272e-05,0.011569,-0.00044891,0,0,0.035045,-0.014992,0,-0.0011672,0,0,0,0.038532,3.2037e-05,0.011569,-0.66812,0.016711,0.034223,1.2976e-06,0.34,0.04,0
0.012856,0.0067628,0.038544,2.6208e-05,0.011571,-0.00045596,0,0,0.035064,-0.015008,0,-0.0011855,0,0,0,0.038549,2.0811e-05,0.011571,-0.67812,0.016714,0.034247,1.2997e-06,0.35,0.04,0
0.013206,0.0068803,0.038554,1.3784e-05,0.01157,-0.00045573,0,0,0.035079,-0.015024,0,-0.0011849,0,0,0,0.038559,8.396e-06,0.01157,-0.67739,0.016713,0.034265,1.3012e-06,0.36,0.04,0
0.013557,0.007,0.038554,-7.6992e-07,0.011566,-0.00044697,0,0,0.035085,-0.015037,0,-0.0011621,0,0,0,0.03856,-5.9508e-06,0.011566,-0.6641,0.016707,0.034277,1.3017e-06,0.37,0.04,0
0.013908,0.0071228,0.038541,-1.8569e-05,0.011557,-0.00042781,0,0,0.03508,-0.015048,0,-0.0011123,0,0,0,0.038546,-2.3315e-05,0.011557,-0.63557,0.016693,0.034279,1.301e-06,0.38,0.04,0
0.014259,0.0072493,0.03851,-4.1278e-05,0.011541,-0.00039555,0,0,0.03506,-0.015056,0,-0.0010284,0,0,0,0.038514,-4.5336e-05,0.011541,-0.5878,0.01667,0.034268,1.2985e-06,0.39,0.04,0
0.014609,0.0073804,0.038453,-7.1458e-05,0.011515,-0.00034625,0,0,0.03502,-0.015062,0,-0.00090025,0,0,0,0.038456,-7.457e-05,0.011515,-0.51491,0.016632,0.03424,1.2937e-06,0.4,0.04,0
0.014959,0.0075168,0.038365,-0.00011316,0.011475,-0.00027411,0,0,0.034956,-0.015065,0,-0.0007127,0,0,0,0.038367,-0.00011511,0.011475,-0.40814,0.016576,0.034193,1.2862e-06,0.41,0.04,0
0.015308,0.0076597,0.038236,-0.00017298,0.011419,-0.00017058,0,0,0.034862,-0.015069,0,-0.0004435,0,0,0,0.038237,-0.00017374,0.011419,-0.25444,0.016494,0.034125,1.2752e-06,0.42,0.04,0
0.015657,0.0078104,0.038058,-0.00026193,0.011339,-2.2989e-05,0,0,0.034735,-0.015081,0,-5.9771e-05,0,0,0,0.038058,-0.00026195,0.011339,-0.034373,0.016378,0.034036,1.2605e-06,0.43,0.04,0
0.016003,0.0079704,0.037823,-0.00039891,0.011227,0.000187,0,0,0.034575,-0.015114,0,0.00048619,0,0,0,0.037824,-0.00039982,0.011227,0.2803,0.016217,0.033939,1.2422e-06,0.44,0.04,0
0.016348,0.0081416,0.037533,-0.0006172,0.011075,0.00048453,0,0,0.034396,-0.0152,0,0.0012598,0,0,0,0.03754,-0.00062335,0.011075,0.72753,0.015997,0.033865,1.2219e-06,0.45,0.04,0
0.016691,0.0083262,0.037211,-0.00097591,0.010871,0.0008978,0,0,0.034243,-0.0154,0,0.0023343,0,0,0,0.037232,-0.00099701,0.010871,1.3461,0.015702,0.033891,1.2044e-06,0.46,0.04,0
0.017033,0.0085266,0.036914,-0.0015867,0.010598,0.0014387,0,0,0.03421,-0.01584,0,0.0037407,0,0,0,0.036967,-0.0016404,0.010598,2.1371,0.015308,0.034174,1.1989e-06,0.47,0.04,0
0.017375,0.008744,0.036707,-0.0026339,0.010222,0.002053,0,0,0.034431,-0.016713,0,0.0053377,0,0,0,0.036814,-0.0027407,0.010222,2.9792,0.014765,0.034926,1.2158e-06,0.48,0.04,0
0.017722,0.0089773,0.036614,-0.004287,0.009698,0.0025689,0,0,0.03499,-0.01818,0,0.006679,0,0,0,0.036774,-0.0044477,0.009698,3.5798,0.014008,0.03628,1.2557e-06,0.49,0.04,0
0.018075,0.0092205,0.036467,-0.00097352,0.010648,0.0027746,0,0,0.04945,-0.020144,0,0.01085,0,0,0,0.036676,-0.0011825,0.010648,4.3013,0.015381,0.033618,1.1212e-06,0.5,0.04,0
0.018711,0.0095375,0.036617,0.0033573,0.011992,0.0026474,0,0,0.064024,-0.022451,0,0.013767,0,0,0,0.036826,0.0031479,0.011992,4.5227,0.017322,0.030242,1.0217e-06,0.51,0.04,0
0.019356,0.0098444,0.036588,0.0022921,0.011664,0.0023044,0,0,0.064802,-0.024367,0,0.011983,0,0,0,0.036742,0.002138,0.011664,3.827,0.016848,0.03096,1.0519e-06,0.52,0.04,0
0.020006,0.010133,0.036473,0.0015355,0.011403,0.0018719,0,0,0.065184,-0.025655,0,0.0097338,0,0,0,0.036574,0.0014355,0.011403,3.0581,0.016471,0.031366,1.0621e-06,0.53,0.04,0
0.020659,0.0104,0.03628,0.0010459,0.011198,0.0014549,0,0,0.065214,-0.026395,0,0.0075657,0,0,0,0.03634,0.00098595,0.011198,2.3606,0.016175,0.031515,1.0569e-06,0.54,0.04,0
0.021311,0.010645,0.036044,0.0007332,0.011033,0.0011051,0,0,0.065028,-0.02678,0,0.0057466,0,0,0,0.036079,0.00069865,0.011033,1.7909,0.015937,0.03151,1.0435e-06,0.55,0.04,0
0.02196,0.01087,0.035805,0.00052735,0.0109,0.00082854,0,0,0.064753,-0.026968,0,0.0043084,0,0,0,0.035824,0.0005079,0.0109,1.3447,0.015744,0.031436,1.0276e-06,0.56,0.04,0
0.022606,0.011076,0.035587,0.00038852,0.010793,0.0006142,0,0,0.064465,-0.027051,0,0.0031938,0,0,0,0.035597,0.0003778,0.010793,0.99939,0.015589,0.031338,1.0122e-06,0.57,0.04,0
0.023249,0.011267,0.035399,0.00029227,0.010707,0.00044823,0,0,0.064198,-0.027079,0,0.0023308,0,0,0,0.035405,0.00028655,0.010707,0.73138,0.015466,0.03124,9.9865e-07,0.58,0.04,0
0.02389,0.011444,0.035242,0.0002238,0.01064,0.00031893,0,0,0.063966,-0.027082,0,0.0016584,0,0,0,0.035245,0.00022089,0.01064,0.52176,0.015369,0.03115,9.8717e-07,0.59,0.04,0
0.024528,0.011608,0.035114,0.00017388,0.010586,0.00021729,0,0,0.063772,-0.027072,0,0.0011299,0,0,0,0.035115,0.00017253,0.010586,0.3563,0.015291,0.031073,9.7776e-07,0.6,0.04,0
0.025165,0.01176,0.035011,0.00013667,0.010544,0.00013669,0,0,0.063613,-0.02706,0,0.00071081,0,0,0,0.035011,0.00013613,0.010544,0.22457,0.015231,0.03101,9.7019e-07,0.61,0.04,0
0.025801,0.011902,0.034929,0.00010835,0.010511,7.2277e-05,0,0,0.063487,-0.027048,0,0.00037584,0,0,0,0.03493,0.0001082,0.010511,0.11893,0.015183,0.03096,9.6422e-07,0.62,0.04,0
0.026435,0.012035,0.034866,8.6403e-05,0.010486,2.0465e-05,0,0,0.063389,-0.027038,0,0.00010642,0,0,0,0.034866,8.6391e-05,0.010486,0.033713,0.015146,0.030921,9.5964e-07,0.63,0.04,0
0.027068,0.012158,0.034819,6.9101e-05,0.010466,-2.1398e-05,0,0,0.063316,-0.027033,0,-0.00011127,0,0,0,0.034819,6.9088e-05,0.010466,-0.035281,0.015118,0.030892,9.5622e-07,0.64,0.04,0
0.027701,0.012274,0.034784,5.5256e-05,0.010452,-5.5303e-05,0,0,0.063264,-0.027031,0,-0.00028757,0,0,0,0.034784,5.5168e-05,0.010452,-0.091238,0.015097,0.030873,9.5379e-07,0.65,0.04,0
0.028334,0.012382,0.03476,4.4024e-05,0.010441,-8.2765e-05,0,0,0.06323,-0.027033,0,-0.00043038,0,0,0,0.034761,4.3827e-05,0.010441,-0.13659,0.015082,0.030861,9.522e-07,0.66,0.04,0
0.028966,0.012483,0.034746,3.4799e-05,0.010434,-0.00010495,0,0,0.063211,-0.027039,0,-0.00054575,0,0,0,0.034747,3.4482e-05,0.010434,-0.17324,0.015072,0.030856,9.5131e-07,0.67,0.04,0
0.029598,0.012578,0.03474,2.7137e-05,0.01043,-0.00012277,0,0,0.063205,-0.027048,0,-0.00063843,0,0,0,0.03474,2.6703e-05,0.01043,-0.20264,0.015066,0.030856,9.5101e-07,0.68,0.04,0
0.03023,0.012666,0.03474,2.0709e-05,0.010428,-0.00013695,0,0,0.06321,-0.027059,0,-0.00071213,0,0,0,0.03474,2.0169e-05,0.010428,-0.226,0.015063,0.030862,9.5122e-07,0.69,0.04,0
0.030862,0.012749,0.034745,1.5266e-05,0.010428,-0.00014805,0,0,0.063225,-0.027074,0,-0.00076984,0,0,0,0.034746,1.4635e-05,0.010428,-0.24423,0.015063,0.030871,9.5185e-07,0.7,0.04,0
0.031495,0.012827,0.034756,1.0619e-05,0.01043,-0.00015653,0,0,0.063247,-0.02709,0,-0.00081395,0,0,0,0.034756,9.9142e-06,0.01043,-0.25811,0.015065,0.030884,9.5283e-07,0.71,0.04,0
0.032127,0.012899,0.034769,6.6227e-06,0.010433,-0.00016277,0,0,0.063275,-0.027108,0,-0.00084641,0,0,0,0.03477,5.8605e-06,0.010433,-0.26827,0.01507,0.0309,9.5409e-07,0.72,0.04,0
0.03276,0.012967,0.034786,3.1618e-06,0.010437,-0.00016708,0,0,0.063309,-0.027128,0,-0.00086883,0,0,0,0.034787,2.3592e-06,0.010437,-0.27521,0.015076,0.030918,9.556e-07,0.73,0.04,0
0.033393,0.013031,0.034806,1.4668e-07,0.010442,-0.00016972,0,0,0.063347,-0.027148,0,-0.00088254,0,0,0,0.034807,-6.8088e-07,0.010442,-0.27937,0.015083,0.030937,9.573e-07,0.74,0.04,0
0.034027,0.01309,0.034827,-2.4943e-06,0.010448,-0.00017089,0,0,0.063388,-0.02717,0,-0.00088864,0,0,0,0.034828,-3.3328e-06,0.010448,-0.28111,0.015091,0.030959,9.5915e-07,0.75,0.04,0
0.034661,0.013146,0.03485,-4.8188e-06,0.010454,-0.00017078,0,0,0.063432,-0.027192,0,-0.00088807,0,0,0,0.034851,-5.6555e-06,0.010454,-0.28073,0.0151,0.030981,9.6113e-07,0.76,0.04,0
0.035296,0.013198,0.034875,-6.8734e-06,0.01046,-0.00016955,0,0,0.063477,-0.027215,0,-0.00088163,0,0,0,0.034875,-7.6975e-06,0.01046,-0.27848,0.015109,0.031004,9.6318e-07,0.77,0.04,0
0.035931,0.013246,0.034899,-8.6962e-06,0.010467,-0.00016731,0,0,0.063524,-0.027238,0,-0.00087,0,0,0,0.0349,-9.4981e-06,0.010467,-0.2746,0.015119,0.031028,9.653e-07,0.78,0.04,0
0.036566,0.013292,0.034925,-1.0319e-05,0.010474,-0.00016418,0,0,0.063572,-0.02726,0,-0.00085375,0,0,0,0.034926,-1.109e-05,0.010474,-0.26926,0.01513,0.031051,9.6746e-07,0.79,0.04,0
0.037202,0.013334,0.034951,-1.1766e-05,0.010482,-0.00016027,0,0,0.063619,-0.027283,0,-0.00083341,0,0,0,0.034951,-1.2501e-05,0.010482,-0.26264,0.01514,0.031075,9.6963e-07,0.8,0.04,0
0.037838,0.013373,0.034976,-1.3061e-05,0.010489,-0.00015565,0,0,0.063667,-0.027305,0,-0.0008094,0,0,0,0.034977,-1.3754e-05,0.010489,-0.25488,0.015151,0.031099,9.7179e-07,0.81,0.04,0
0.038475,0.013409,0.035001,-1.4221e-05,0.010496,-0.00015041,0,0,0.063714,-0.027327,0,-0.00078212,0,0,0,0.035002,-1.4867e-05,0.010496,-0.24611,0.015161,0.031122,9.7393e-07,0.82,0.04,0
0.039113,0.013443,0.035026,-1.5262e-05,0.010503,-0.0001446,0,0,0.06376,-0.027348,0,-0.00075192,0,0,0,0.035027,-1.5859e-05,0.010503,-0.23643,0.015171,0.031145,9.7603e-07,0.83,0.04,0
0.039751,0.013474,0.03505,-1.6195e-05,0.01051,-0.00013829,0,0,0.063804,-0.027369,0,-0.00071908,0,0,0,0.035051,-1.6741e-05,0.01051,-0.22594,0.015182,0.031167,9.7807e-07,0.84,0.04,0
0.040389,0.013502,0.035074,-1.7033e-05,0.010517,-0.00013152,0,0,0.063848,-0.027389,0,-0.0006839,0,0,0,0.035074,-1.7526e-05,0.010517,-0.21474,0.015191,0.031189,9.8005e-07,0.85,0.04,0
0.041028,0.013529,0.035096,-1.7785e-05,0.010523,-0.00012435,0,0,0.063889,-0.027407,0,-0.0006466,0,0,0,0.035097,-1.8225e-05,0.010523,-0.20289,0.015201,0.031209,9.8195e-07,0.86,0.04,0
0.041667,0.013553,0.035118,-1.8457e-05,0.01053,-0.00011681,0,0,0.063928,-0.027425,0,-0.00060742,0,0,0,0.035118,-1.8846e-05,0.01053,-0.19048,0.01521,0.031229,9.8376e-07,0.87,0.04,0
0.042306,0.013575,0.035138,-1.9059e-05,0.010536,-0.00010895,0,0,0.063966,-0.027442,0,-0.00056655,0,0,0,0.035138,-1.9396e-05,0.010536,-0.17756,0.015218,0.031247,9.8546e-07,0.88,0.04,0
0.042946,0.013595,0.035157,-1.9594e-05,0.010541,-0.0001008,0,0,0.064001,-0.027458,0,-0.00052418,0,0,0,0.035157,-1.9883e-05,0.010541,-0.16419,0.015226,0.031264,9.8707e-07,0.89,0.04,0
0.043586,0.013612,0.035174,-2.0068e-05,0.010546,-9.2398e-05,0,0,0.064033,-0.027472,0,-0.00048047,0,0,0,0.035174,-2.0311e-05,0.010546,-0.15042,0.015234,0.03128,9.8855e-07,0.9,0.04,0
0.044227,0.013628,0.03519,-2.0487e-05,0.010551,-8.3766e-05,0,0,0.064062,-0.027486,0,-0.00043558,0,0,0,0.03519,-2.0686e-05,0.010551,-0.13631,0.01524,0.031295,9.8992e-07,0.91,0.04,0
0.044867,0.013643,0.035205,-2.0852e-05,0.010555,-7.4935e-05,0,0,0.064089,-0.027498,0,-0.00038966,0,0,0,0.035205,-2.1011e-05,0.010555,-0.12188,0.015246,0.031308,9.9115e-07,0.92,0.04,0
0.045508,0.013655,0.035218,-2.1167e-05,0.010559,-6.5931e-05,0,0,0.064113,-0.027509,0,-0.00034284,0,0,0,0.035218,-2.1291e-05,0.010559,-0.1072,0.015252,0.03132,9.9226e-07,0.93,0.04,0
0.04615,0.013666,0.035229,-2.1436e-05,0.010562,-5.6779e-05,0,0,0.064134,-0.027518,0,-0.00029525,0,0,0,0.035229,-2.1527e-05,0.010562,-0.092287,0.015257,0.03133,9.9322e-07,0.94,0.04,0
0.046791,0.013674,0.035239,-2.166e-05,0.010565,-4.7502e-05,0,0,0.064152,-0.027526,0,-0.00024701,0,0,0,0.035239,-2.1724e-05,0.010565,-0.077187,0.015261,0.031338,9.9404e-07,0.95,0.04,0
0.047433,0.013682,0.035247,-2.184e-05,0.010568,-3.8122e-05,0,0,0.064166,-0.027532,0,-0.00019824,0,0,0,0.035247,-2.1882e-05,0.010568,-0.061932,0.015264,0.031346,9.9472e-07,0.96,0.04,0
0.048074,0.013687,0.035253,-2.1979e-05,0.010569,-2.8662e-05,0,0,0.064178,-0.027537,0,-0.00014904,0,0,0,0.035253,-2.2003e-05,0.010569,-0.046554,0.015267,0.031351,9.9525e-07,0.97,0.04,0
0.048716,0.013691,0.035258,-2.2078e-05,0.010571,-1.9141e-05,0,0,0.064186,-0.027541,0,-9.9534e-05,0,0,0,0.035258,-2.2088e-05,0.010571,-0.031086,0.015269,0.031355,9.9563e-07,0.98,0.04,0
0.049358,0.013694,0.03526,-2.2137e-05,0.010571,-9.5805e-06,0,0,0.064191,-0.027543,0,-4.9819e-05,0,0,0,0.03526,-2.214e-05,0.010571,-0.015558,0.01527,0.031358,9.9586e-07,0.99,0.04,0
0.05,0.013695,0.035261,-2.2157e-05,0.010572,1.5295e-05,0,0,0.064193,-0.027544,0,7.9535e-05,0,0,0,0.035261,-2.2163e-05,0.010572,0.024837,0.01527,0.031359,9.9594e-07,1,0.04,0
0,0,0.045053,0.019308,0.019308,0.012082,0,0,0.033468,-4.3368e-19,0,0.031414,0,0,0,0.049835,0.014526,0.019308,21.593,0.02789,0.033177,1.745e-06,0,0.05,0
0.00033468,0.00031414,0.044796,0.01631,0.018332,0.011911,0,0,0.034403,-0.0026283,0,0.030969,0,0,0,0.04912,0.011986,0.018332,19.953,0.026479,0.034403,1.8537e-06,0.01,0.05,0
0.00068807,0.0006494,0.045497,0.013229,0.017618,0.011732,0,0,0.036243,-0.0057057,0,0.030503,0,0,0,0.049312,0.0094144,0.017618,18.011,0.025448,0.036494,2.0773e-06,0.02,0.05,0
0.0010596,0.00099209,0.045984,0.010267,0.016875,0.010949,0,0,0.037842,-0.0085912,0,0.028469,0,0,0,0.049074,0.0071773,0.016875,15.757,0.024376,0.037988,2.2089e-06,0.03,0.05,0
0.0014449,0.0013298,0.046146,0.0078146,0.016188,0.0097845,0,0,0.038945,-0.010886,0,0.02544,0,0,0,0.048499,0.0054614,0.016188,13.523,0.023383,0.038803,2.2454e-06,0.04,0.05,0
0.0018384,0.0016542,0.045967,0.0059446,0.015574,0.0084901,0,0,0.039512,-0.012518,0,0.022074,0,0,0,0.047694,0.0042181,0.015574,11.495,0.022495,0.039056,2.2103e-06,0.05,0.05,0
0.0022351,0.0019614,0.045526,0.0045667,0.015028,0.0072454,0,0,0.039647,-0.013599,0,0.018838,0,0,0,0.04677,0.0033228,0.015028,9.7416,0.021707,0.038937,2.1337e-06,0.06,0.05,0
0.0026314,0.0022501,0.044925,0.0035536,0.014544,0.0061325,0,0,0.039496,-0.014287,0,0.015945,0,0,0,0.045815,0.0026637,0.014544,8.2565,0.021007,0.038608,2.0395e-06,0.07,0.05,0
0.0030251,0.0025209,0.044259,0.0028047,0.014119,0.0051728,0,0,0.039182,-0.014709,0,0.013449,0,0,0,0.044894,0.0021689,0.014119,7.0065,0.020394,0.03818,1.9428e-06,0.08,0.05,0
0.003415,0.0027749,0.043586,0.0022449,0.013749,0.0043584,0,0,0.038788,-0.014956,0,0.011332,0,0,0,0.04404,0.0017904,0.013749,5.9533,0.01986,0.03772,1.8513e-06,0.09,0.05,0
0.0038008,0.0030135,0.042942,0.001821,0.013429,0.0036711,0,0,0.038367,-0.01509,0,0.0095449,0,0,0,0.043267,0.0014959,0.013429,5.0618,0.019397,0.037266,1.7683e-06,0.1,0.05,0
0.0041824,0.0032379,0.042345,0.0014958,0.013152,0.0030909,0,0,0.03795,-0.015153,0,0.0080364,0,0,0,0.042577,0.0012632,0.013152,4.3028,0.018997,0.036838,1.6948e-06,0.11,0.05,0
0.0045598,0.0034496,0.041801,0.0012427,0.012913,0.0025995,0,0,0.037555,-0.015172,0,0.0067588,0,0,0,0.041967,0.0010768,0.012913,3.6523,0.018652,0.036444,1.6306e-06,0.12,0.05,0
0.0049334,0.0036498,0.041314,0.0010433,0.012707,0.0021813,0,0,0.037189,-0.015163,0,0.0056715,0,0,0,0.041432,0.0009255,0.012707,3.0915,0.018355,0.036088,1.575e-06,0.13,0.05,0
0.0053036,0.0038395,0.040881,0.00088419,0.01253,0.0018235,0,0,0.036857,-0.015139,0,0.0047412,0,0,0,0.040964,0.00080123,0.01253,2.6051,0.018098,0.035771,1.5271e-06,0.14,0.05,0
0.0056706,0.0040196,0.040498,0.00075574,0.012376,0.0015157,0,0,0.036559,-0.015107,0,0.0039408,0,0,0,0.040556,0.00069801,0.012376,2.1809,0.017877,0.03549,1.4859e-06,0.15,0.05,0
0.0060348,0.0041912,0.040163,0.00065088,0.012244,0.0012493,0,0,0.036294,-0.015071,0,0.0032483,0,0,0,0.040202,0.00061142,0.012244,1.8093,0.017686,0.035245,1.4506e-06,0.16,0.05,0
0.0063965,0.0043549,0.03987,0.0005644,0.01213,0.0010177,0,0,0.036062,-0.015036,0,0.0026461,0,0,0,0.039896,0.00053807,0.01213,1.4822,0.017522,0.035032,1.4205e-06,0.17,0.05,0
0.006756,0.0045115,0.039616,0.00049237,0.012032,0.00081539,0,0,0.035859,-0.015002,0,0.00212,0,0,0,0.039633,0.00047538,0.012032,1.1934,0.01738,0.034847,1.3949e-06,0.18,0.05,0
0.0071136,0.0046616,0.039397,0.0004318,0.011949,0.00063787,0,0,0.035683,-0.014972,0,0.0016585,0,0,0,0.039407,0.00042136,0.011949,0.93761,0.017259,0.03469,1.3731e-06,0.19,0.05,0
0.0074697,0.004806,0.039209,0.00038042,0.011877,0.00048157,0,0,0.035532,-0.014945,0,0.0012521,0,0,0,0.039215,0.00037445,0.011877,0.71046,0.017155,0.034556,1.3549e-06,0.2,0.05,0
0.0078243,0.0049452,0.039049,0.00033645,0.011816,0.00034355,0,0,0.035403,-0.014923,0,0.00089323,0,0,0,0.039052,0.0003334,0.011816,0.50841,0.017067,0.034444,1.3395e-06,0.21,0.05,0
0.0081777,0.0050796,0.038914,0.0002985,0.011764,0.00022141,0,0,0.035295,-0.014905,0,0.00057566,0,0,0,0.038915,0.00029723,0.011764,0.3285,0.016992,0.034352,1.3268e-06,0.22,0.05,0
0.0085302,0.0052099,0.038801,0.00026544,0.01172,0.00011317,0,0,0.035206,-0.014891,0,0.00029425,0,0,0,0.038801,0.00026511,0.01172,0.16827,0.016929,0.034276,1.3164e-06,0.23,0.05,0
0.0088818,0.0053365,0.038708,0.0002364,0.011683,1.7234e-05,0,0,0.035132,-0.014881,0,4.4809e-05,0,0,0,0.038708,0.00023639,0.011683,0.025667,0.016876,0.034216,1.3079e-06,0.24,0.05,0
0.0092328,0.0054598,0.038631,0.00021064,0.011653,-6.7729e-05,0,0,0.035072,-0.014875,0,-0.0001761,0,0,0,0.038631,0.00021052,0.011653,-0.101,0.016832,0.034168,1.3011e-06,0.25,0.05,0
0.0095833,0.0055804,0.03857,0.00018756,0.011627,-0.00014278,0,0,0.035026,-0.014872,0,-0.00037124,0,0,0,0.038571,0.00018703,0.011627,-0.21314,0.016795,0.034133,1.2958e-06,0.26,0.05,0
0.0099333,0.0056987,0.038521,0.00016663,0.011606,-0.00020878,0,0,0.034989,-0.014872,0,-0.00054283,0,0,0,0.038522,0.0001655,0.011606,-0.31187,0.016765,0.034107,1.2917e-06,0.27,0.05,0
0.010283,0.005815,0.038483,0.00014742,0.011589,-0.00026638,0,0,0.034962,-0.014874,0,-0.00069258,0,0,0,0.038485,0.00014557,0.011589,-0.3981,0.01674,0.03409,1.2887e-06,0.28,0.05,0
0.010633,0.0059299,0.038454,0.00012951,0.011575,-0.00031606,0,0,0.034942,-0.014879,0,-0.00082175,0,0,0,0.038456,0.0001269,0.011575,-0.47247,0.016719,0.034079,1.2865e-06,0.29,0.05,0
0.010982,0.0060438,0.038431,0.00011251,0.011563,-0.00035813,0,0,0.034928,-0.014886,0,-0.00093113,0,0,0,0.038434,0.00010916,0.011563,-0.53543,0.016702,0.034074,1.2849e-06,0.3,0.05,0
0.011331,0.006157,0.038413,9.6036e-05,0.011553,-0.00039273,0,0,0.034918,-0.014894,0,-0.0010211,0,0,0,0.038417,9.2011e-05,0.011553,-0.58717,0.016687,0.034072,1.2838e-06,0.31,0.05,0
0.01168,0.0062701,0.038397,7.9679e-05,0.011543,-0.0004198,0,0,0.03491,-0.014902,0,-0.0010915,0,0,0,0.038401,7.508e-05,0.011543,-0.62762,0.016673,0.034072,1.2829e-06,0.32,0.05,0
0.012029,0.0063835,0.038381,6.2971e-05,0.011533,-0.00043908,0,0,0.034903,-0.014911,0,-0.0011416,0,0,0,0.038386,5.794e-05,0.011533,-0.65643,0.016659,0.034072,1.282e-06,0.33,0.05,0
0.012378,0.0064977,0.038364,4.5353e-05,0.011523,-0.00045007,0,0,0.034893,-0.014921,0,-0.0011702,0,0,0,0.038369,4.0067e-05,0.011523,-0.67285,0.016644,0.034071,1.2809e-06,0.34,0.05,0
0.012727,0.0066132,0.038341,2.6117e-05,0.01151,-0.00045194,0,0,0.034881,-0.014929,0,-0.001175,0,0,0,0.038347,2.0787e-05,0.01151,-0.6757,0.016626,0.034067,1.2793e-06,0.35,0.05,0
0.013076,0.0067305,0.038311,4.3278e-06,0.011495,-0.00044346,0,0,0.034862,-0.014937,0,-0.001153,0,0,0,0.038316,-8.0532e-07,0.011495,-0.66317,0.016603,0.034057,1.2771e-06,0.36,0.05,0
0.013424,0.0068502,0.03827,-2.1297e-05,0.011475,-0.00042289,0,0,0.034834,-0.014945,0,-0.0010995,0,0,0,0.038275,-2.5967e-05,0.011475,-0.63267,0.016574,0.03404,1.2738e-06,0.37,0.05,0
0.013773,0.0069729,0.038214,-5.2573e-05,0.011448,-0.00038775,0,0,0.034795,-0.014951,0,-0.0010082,0,0,0,0.038218,-5.6502e-05,0.011448,-0.5805,0.016536,0.034014,1.2692e-06,0.38,0.05,0
0.01412,0.0070994,0.038138,-9.2136e-05,0.011414,-0.00033463,0,0,0.034742,-0.014958,0,-0.00087005,0,0,0,0.038141,-9.5064e-05,0.011414,-0.50146,0.016487,0.033977,1.263e-06,0.39,0.05,0
0.014467,0.0072304,0.038039,-0.00014391,0.011369,-0.00025877,0,0,0.034672,-0.014966,0,-0.00067281,0,0,0,0.038041,-0.00014566,0.011369,-0.38828,0.016421,0.033928,1.2548e-06,0.4,0.05,0
0.014814,0.0073667,0.03791,-0.00021386,0.011309,-0.00015363,0,0,0.034582,-0.01498,0,-0.00039943,0,0,0,0.037911,-0.00021448,0.011309,-0.23087,0.016335,0.033868,1.2444e-06,0.41,0.05,0
0.015159,0.0075096,0.037748,-0.00031123,0.011231,-1.0291e-05,0,0,0.034473,-0.015005,0,-2.6757e-05,0,0,0,0.037748,-0.00031123,0.011231,-0.015493,0.016223,0.0338,1.2318e-06,0.42,0.05,0
0.015503,0.00766,0.037551,-0.00045061,0.01113,0.00018296,0,0,0.034347,-0.015055,0,0.00047569,0,0,0,0.037552,-0.00045149,0.01113,0.27584,0.016077,0.033738,1.2174e-06,0.43,0.05,0
0.015846,0.0078194,0.03732,-0.00065532,0.010999,0.00044052,0,0,0.034216,-0.015151,0,0.0011454,0,0,0,0.037325,-0.00066043,0.010999,0.66453,0.015888,0.033703,1.2024e-06,0.44,0.05,0
0.016188,0.0079892,0.037068,-0.00096268,0.010832,0.00077705,0,0,0.034107,-0.015333,0,0.0020203,0,0,0,0.037084,-0.00097855,0.010832,1.17,0.015646,0.033745,1.1896e-06,0.45,0.05,0
0.016528,0.0081711,0.036825,-0.0014323,0.010618,0.0011995,0,0,0.034069,-0.015665,0,0.0031188,0,0,0,0.036862,-0.0014698,0.010618,1.7942,0.015337,0.033943,1.1837e-06,0.46,0.05,0
0.016869,0.0083661,0.036629,-0.0021515,0.010343,0.0016898,0,0,0.034172,-0.016243,0,0.0043934,0,0,0,0.036703,-0.0022249,0.010343,2.4902,0.01494,0.03441,1.1907e-06,0.47,0.05,0
0.017212,0.0085743,0.036518,-0.0032176,0.0099901,0.0021811,0,0,0.034486,-0.01717,0,0.0056708,0,0,0,0.036637,-0.0033369,0.0099901,3.1324,0.01443,0.035254,1.2147e-06,0.48,0.05,0
0.017559,0.0087937,0.036495,-0.0046726,0.0095466,0.0025523,0,0,0.035032,-0.018485,0,0.0066359,0,0,0,0.036652,-0.0048302,0.0095466,3.5342,0.01379,0.036484,1.2524e-06,0.49,0.05,0
0.017912,0.0090195,0.036432,-0.00093178,0.01065,0.0026888,0,0,0.049353,-0.020075,0,0.010498,0,0,0,0.036629,-0.0011283,0.01065,4.1774,0.015383,0.033531,1.1164e-06,0.5,0.05,0
0.018546,0.0093158,0.036589,0.0036044,0.012058,0.0025977,0,0,0.063781,-0.021979,0,0.013508,0,0,0,0.036792,0.0034011,0.012058,4.4755,0.017417,0.030014,1.0091e-06,0.51,0.05,0
0.019188,0.0096048,0.036609,0.0026833,0.011788,0.0023498,0,0,0.064536,-0.023672,0,0.012219,0,0,0,0.036771,0.0025214,0.011788,3.9434,0.017027,0.030685,1.0404e-06,0.52,0.05,0
0.019836,0.0098801,0.036566,0.0019498,0.011555,0.0020131,0,0,0.06503,-0.024973,0,0.010468,0,0,0,0.036683,0.0018331,0.011555,3.3171,0.01669,0.031148,1.0577e-06,0.53,0.05,0
0.020488,0.010138,0.036458,0.0014125,0.011361,0.0016556,0,0,0.065253,-0.025867,0,0.0086092,0,0,0,0.036536,0.0013344,0.011361,2.6987,0.016411,0.031413,1.0623e-06,0.54,0.05,0
0.021142,0.010378,0.036302,0.0010339,0.011201,0.0013242,0,0,0.065264,-0.026434,0,0.006886,0,0,0,0.036352,0.00098422,0.011201,2.1473,0.016179,0.031527,1.058e-06,0.55,0.05,0
0.021794,0.010601,0.036124,0.00076864,0.011068,0.0010395,0,0,0.065146,-0.026778,0,0.0054056,0,0,0,0.036154,0.0007381,0.011068,1.6827,0.015987,0.031546,1.0489e-06,0.56,0.05,0
0.022444,0.010806,0.035944,0.00058073,0.010957,0.00080413,0,0,0.064964,-0.026979,0,0.0041815,0,0,0,0.035962,0.00056246,0.010957,1.302,0.015827,0.031515,1.0378e-06,0.57,0.05,0
0.023093,0.010996,0.035775,0.00044554,0.010866,0.00061271,0,0,0.064764,-0.027094,0,0.0031861,0,0,0,0.035786,0.00043492,0.010866,0.99326,0.015696,0.03146,1.0266e-06,0.58,0.05,0
0.02374,0.011173,0.035625,0.00034654,0.010792,0.00045786,0,0,0.064568,-0.027157,0,0.0023809,0,0,0,0.035631,0.0003406,0.010792,0.74344,0.015588,0.031398,1.0163e-06,0.59,0.05,0
0.024384,0.011336,0.035495,0.00027271,0.01073,0.00033255,0,0,0.064389,-0.02719,0,0.0017293,0,0,0,0.035499,0.00026957,0.01073,0.54089,0.015499,0.031337,1.0072e-06,0.6,0.05,0
0.025027,0.011489,0.035385,0.00021668,0.010681,0.00023083,0,0,0.064232,-0.027206,0,0.0012003,0,0,0,0.035387,0.00021517,0.010681,0.37605,0.015428,0.031281,9.9934e-07,0.61,0.05,0
0.025669,0.011631,0.035293,0.00017345,0.01064,0.00014796,0,0,0.064099,-0.027213,0,0.00076941,0,0,0,0.035294,0.00017283,0.01064,0.24138,0.015369,0.031232,9.9279e-07,0.62,0.05,0
0.026309,0.011763,0.035218,0.00013957,0.010607,8.0203e-05,0,0,0.063988,-0.027216,0,0.00041706,0,0,0,0.035218,0.00013938,0.010607,0.131,0.015322,0.031192,9.8742e-07,0.63,0.05,0
0.026949,0.011887,0.035158,0.00011262,0.010581,2.4647e-05,0,0,0.063899,-0.027218,0,0.00012816,0,0,0,0.035158,0.0001126,0.010581,0.040295,0.015284,0.031159,9.8312e-07,0.64,0.05,0
0.027587,0.012002,0.03511,9.0907e-05,0.01056,-2.0975e-05,0,0,0.063829,-0.02722,0,-0.00010907,0,0,0,0.03511,9.0894e-05,0.01056,-0.034318,0.015254,0.031134,9.7975e-07,0.65,0.05,0
0.028225,0.01211,0.035073,7.3194e-05,0.010544,-5.8438e-05,0,0,0.063775,-0.027224,0,-0.00030388,0,0,0,0.035073,7.3097e-05,0.010544,-0.095666,0.01523,0.031115,9.772e-07,0.66,0.05,0
0.028863,0.012212,0.035045,5.8583e-05,0.010531,-8.9145e-05,0,0,0.063737,-0.027229,0,-0.00046355,0,0,0,0.035046,5.8356e-05,0.010531,-0.14599,0.015212,0.031103,9.7536e-07,0.67,0.05,0
0.0295,0.012306,0.035026,4.6406e-05,0.010522,-0.00011421,0,0,0.063711,-0.027236,0,-0.00059388,0,0,0,0.035026,4.6033e-05,0.010522,-0.18707,0.015198,0.031095,9.7414e-07,0.68,0.05,0
0.030137,0.012394,0.035014,3.6162e-05,0.010515,-0.00013452,0,0,0.063697,-0.027245,0,-0.00069951,0,0,0,0.035014,3.5645e-05,0.010515,-0.22035,0.015188,0.031093,9.7344e-07,0.69,0.05,0
0.030774,0.012477,0.035008,2.7471e-05,0.010511,-0.0001508,0,0,0.063692,-0.027256,0,-0.00078418,0,0,0,0.035008,2.6821e-05,0.010511,-0.247,0.015182,0.031095,9.732e-07,0.7,0.05,0
0.031411,0.012555,0.035007,2.004e-05,0.010508,-0.00016364,0,0,0.063696,-0.027269,0,-0.00085095,0,0,0,0.035007,1.9274e-05,0.010508,-0.26798,0.015178,0.0311,9.7334e-07,0.71,0.05,0
0.032048,0.012627,0.03501,1.364e-05,0.010507,-0.00017352,0,0,0.063707,-0.027283,0,-0.00090232,0,0,0,0.035011,1.278e-05,0.010507,-0.28408,0.015177,0.031108,9.7381e-07,0.72,0.05,0
0.032685,0.012695,0.035017,8.0944e-06,0.010507,-0.00018084,0,0,0.063724,-0.027298,0,-0.00094039,0,0,0,0.035018,7.1603e-06,0.010507,-0.29596,0.015177,0.031119,9.7456e-07,0.73,0.05,0
0.033322,0.012759,0.035027,3.2602e-06,0.010509,-0.00018594,0,0,0.063746,-0.027315,0,-0.00096687,0,0,0,0.035028,2.2731e-06,0.010509,-0.30417,0.01518,0.031131,9.7554e-07,0.74,0.05,0
0.03396,0.012818,0.035039,-9.7557e-07,0.010511,-0.00018908,0,0,0.063772,-0.027332,0,-0.00098322,0,0,0,0.03504,-1.9959e-06,0.010511,-0.30917,0.015183,0.031146,9.7671e-07,0.75,0.05,0
0.034598,0.012873,0.035053,-4.7043e-06,0.010515,-0.00019051,0,0,0.063801,-0.02735,0,-0.00099068,0,0,0,0.035054,-5.7396e-06,0.010515,-0.31135,0.015188,0.031162,9.7803e-07,0.76,0.05,0
0.035236,0.012925,0.035069,-8.0003e-06,0.010518,-0.00019044,0,0,0.063833,-0.027369,0,-0.00099029,0,0,0,0.03507,-9.0342e-06,0.010518,-0.31106,0.015193,0.031179,9.7947e-07,0.77,0.05,0
0.035874,0.012973,0.035087,-1.0924e-05,0.010523,-0.00018903,0,0,0.063867,-0.027388,0,-0.00098297,0,0,0,0.035088,-1.1942e-05,0.010523,-0.30858,0.015199,0.031196,9.8101e-07,0.78,0.05,0
0.036513,0.013018,0.035105,-1.3526e-05,0.010528,-0.00018644,0,0,0.063902,-0.027407,0,-0.00096948,0,0,0,0.035106,-1.4516e-05,0.010528,-0.30416,0.015206,0.031214,9.8262e-07,0.79,0.05,0
0.037153,0.01306,0.035124,-1.5848e-05,0.010532,-0.00018279,0,0,0.063938,-0.027425,0,-0.0009505,0,0,0,0.035125,-1.6798e-05,0.010532,-0.29803,0.015213,0.031233,9.8427e-07,0.8,0.05,0
0.037792,0.013099,0.035143,-1.7923e-05,0.010538,-0.0001782,0,0,0.063975,-0.027444,0,-0.00092662,0,0,0,0.035144,-1.8826e-05,0.010538,-0.29036,0.015221,0.031252,9.8595e-07,0.81,0.05,0
0.038432,0.013135,0.035163,-1.9782e-05,0.010543,-0.00017276,0,0,0.064011,-0.027463,0,-0.00089836,0,0,0,0.035163,-2.063e-05,0.010543,-0.28134,0.015229,0.03127,9.8763e-07,0.82,0.05,0
0.039072,0.013168,0.035182,-2.1449e-05,0.010548,-0.00016657,0,0,0.064048,-0.027481,0,-0.00086618,0,0,0,0.035183,-2.2237e-05,0.010548,-0.2711,0.015236,0.031289,9.893e-07,0.83,0.05,0
0.039713,0.013199,0.035201,-2.2944e-05,0.010553,-0.00015971,0,0,0.064084,-0.027498,0,-0.00083048,0,0,0,0.035202,-2.3668e-05,0.010553,-0.25978,0.015244,0.031307,9.9095e-07,0.84,0.05,0
0.040354,0.013228,0.03522,-2.4285e-05,0.010559,-0.00015224,0,0,0.064118,-0.027515,0,-0.00079164,0,0,0,0.03522,-2.4943e-05,0.010559,-0.24749,0.015251,0.031324,9.9255e-07,0.85,0.05,0
0.040995,0.013254,0.035238,-2.5488e-05,0.010564,-0.00014422,0,0,0.064152,-0.027532,0,-0.00074997,0,0,0,0.035238,-2.6077e-05,0.010564,-0.23433,0.015259,0.031341,9.941e-07,0.86,0.05,0
0.041637,0.013278,0.035255,-2.6564e-05,0.010568,-0.00013573,0,0,0.064185,-0.027547,0,-0.00070577,0,0,0,0.035255,-2.7086e-05,0.010568,-0.22041,0.015266,0.031357,9.9559e-07,0.87,0.05,0
0.042279,0.0133,0.035271,-2.7526e-05,0.010573,-0.00012679,0,0,0.064215,-0.027562,0,-0.00065931,0,0,0,0.035272,-2.7981e-05,0.010573,-0.2058,0.015272,0.031373,9.9701e-07,0.88,0.05,0
0.042921,0.013319,0.035287,-2.8382e-05,0.010578,-0.00011747,0,0,0.064244,-0.027575,0,-0.00061085,0,0,0,0.035287,-2.8772e-05,0.010578,-0.19058,0.015279,0.031387,9.9834e-07,0.89,0.05,0
0.043564,0.013337,0.035301,-2.914e-05,0.010582,-0.00010781,0,0,0.064271,-0.027588,0,-0.00056059,0,0,0,0.035302,-2.9469e-05,0.010582,-0.17483,0.015285,0.0314,9.9958e-07,0.9,0.05,0
0.044207,0.013353,0.035315,-2.9808e-05,0.010585,-9.7838e-05,0,0,0.064296,-0.0276,0,-0.00050876,0,0,0,0.035315,-3.0079e-05,0.010585,-0.1586,0.01529,0.031413,1.0007e-06,0.91,0.05,0
0.04485,0.013367,0.035327,-3.0392e-05,0.010589,-8.7604e-05,0,0,0.064318,-0.02761,0,-0.00045554,0,0,0,0.035327,-3.0609e-05,0.010589,-0.14196,0.015295,0.031424,1.0018e-06,0.92,0.05,0
0.045493,0.013379,0.035338,-3.0896e-05,0.010592,-7.7139e-05,0,0,0.064338,-0.02762,0,-0.00040112,0,0,0,0.035338,-3.1064e-05,0.010592,-0.12496,0.0153,0.031434,1.0027e-06,0.93,0.05,0
0.046137,0.01339,0.035347,-3.1325e-05,0.010595,-6.6475e-05,0,0,0.064356,-0.027628,0,-0.00034567,0,0,0,0.035347,-3.145e-05,0.010595,-0.10766,0.015303,0.031442,1.0035e-06,0.94,0.05,0
0.04678,0.013399,0.035355,-3.1682e-05,0.010597,-5.5645e-05,0,0,0.064371,-0.027635,0,-0.00028935,0,0,0,0.035355,-3.177e-05,0.010597,-0.090096,0.015307,0.03145,1.0042e-06,0.95,0.05,0
0.047424,0.013406,0.035362,-3.1971e-05,0.010599,-4.4678e-05,0,0,0.064383,-0.02764,0,-0.00023232,0,0,0,0.035362,-3.2027e-05,0.010599,-0.072325,0.01531,0.031456,1.0048e-06,0.96,0.05,0
0.048068,0.013411,0.035367,-3.2193e-05,0.0106,-3.3602e-05,0,0,0.064393,-0.027645,0,-0.00017473,0,0,0,0.035367,-3.2225e-05,0.0106,-0.054387,0.015312,0.031461,1.0052e-06,0.97,0.05,0
0.048712,0.013415,0.035371,-3.235e-05,0.010601,-2.2446e-05,0,0,0.0644,-0.027648,0,-0.00011672,0,0,0,0.035371,-3.2364e-05,0.010601,-0.036326,0.015313,0.031464,1.0056e-06,0.98,0.05,0
0.049356,0.013418,0.035373,-3.2444e-05,0.010602,-1.1236e-05,0,0,0.064404,-0.02765,0,-5.8428e-05,0,0,0,0.035373,-3.2448e-05,0.010602,-0.018183,0.015314,0.031466,1.0058e-06,0.99,0.05,0
0.05,0.013418,0.035374,-3.2475e-05,0.010602,1.5163e-05,0,0,0.064406,-0.027651,0,7.8847e-05,0,0,0,0.035374,-3.2482e-05,0.010602,0.024537,0.015315,0.031467,1.0058e-06,1,0.05,0
0,0,0.043353,0.01858,0.01858,0.011184,0,0,0.032205,1.0842e-18,0,0.029078,0,0,0,0.047655,0.014278,0.01858,21.039,0.026838,0.031448,1.497e-06,0,0.06,0
0.00032205,0.00029078,0.043159,0.016139,0.017789,0.011086,0,0,0.03298,-0.0021456,0,0.028824,0,0,0,0.047125,0.012173,0.017789,19.686,0.025696,0.03251,1.5886e-06,0.01,0.06,0
0.00065961,0.00059877,0.043819,0.013688,0.017252,0.01104,0,0,0.034537,-0.0046332,0,0.028703,0,0,0,0.047431,0.010077,0.017252,18.116,0.02492,0.034334,1.7764e-06,0.02,0.06,0
0.0010128,0.0009149,0.044351,0.01121,0.016668,0.010559,0,0,0.035988,-0.0070957,0,0.027452,0,0,0,0.047429,0.0081322,0.016668,16.252,0.024077,0.035801,1.9126e-06,0.03,0.06,0
0.0013794,0.0012301,0.044669,0.0089853,0.016096,0.0097408,0,0,0.037144,-0.0092441,0,0.025326,0,0,0,0.047155,0.0064995,0.016096,14.316,0.02325,0.036807,1.9861e-06,0.04,0.06,0
0.0017557,0.0015375,0.044738,0.0071399,0.015563,0.008739,0,0,0.037927,-0.01095,0,0.022721,0,0,0,0.04667,0.005208,0.015563,12.466,0.02248,0.037376,2.0038e-06,0.05,0.06,0
0.0021379,0.0018325,0.044581,0.0056765,0.015077,0.0076896,0,0,0.038354,-0.012221,0,0.019993,0,0,0,0.046045,0.0042118,0.015077,10.785,0.021778,0.037597,1.9806e-06,0.06,0.06,0
0.0025228,0.002113,0.044254,0.0045399,0.014638,0.0066829,0,0,0.038501,-0.013128,0,0.017376,0,0,0,0.045349,0.0034455,0.014638,9.3003,0.021144,0.037579,1.9324e-06,0.07,0.06,0
0.0029079,0.0023784,0.043822,0.0036618,0.014245,0.0057643,0,0,0.03845,-0.013758,0,0.014987,0,0,0,0.044633,0.0028508,0.014245,8.0085,0.020576,0.03741,1.8718e-06,0.08,0.06,0
0.0032918,0.002629,0.043336,0.0029823,0.013895,0.0049491,0,0,0.038273,-0.014187,0,0.012868,0,0,0,0.043934,0.0023841,0.013895,6.8909,0.020071,0.037157,1.8073e-06,0.09,0.06,0
0.0036734,0.0028654,0.042836,0.0024531,0.013587,0.0042364,0,0,0.038024,-0.014474,0,0.011014,0,0,0,0.043275,0.0020134,0.013587,5.9247,0.019625,0.036864,1.7439e-06,0.1,0.06,0
0.0040522,0.0030886,0.042345,0.0020376,0.013315,0.0036176,0,0,0.037739,-0.01466,0,0.0094057,0,0,0,0.042667,0.0017155,0.013315,5.0881,0.019232,0.036559,1.6843e-06,0.11,0.06,0
0.0044281,0.0032996,0.041879,0.0017083,0.013076,0.0030816,0,0,0.037444,-0.014778,0,0.0080122,0,0,0,0.042114,0.0014732,0.013076,4.3613,0.018888,0.036259,1.6298e-06,0.12,0.06,0
0.0048011,0.0034995,0.041446,0.0014447,0.012867,0.0026172,0,0,0.037152,-0.014849,0,0.0068048,0,0,0,0.041616,0.0012742,0.012867,3.7277,0.018586,0.035975,1.5809e-06,0.13,0.06,0
0.0051712,0.0036891,0.041049,0.0012316,0.012684,0.0022141,0,0,0.036874,-0.014888,0,0.0057566,0,0,0,0.041171,0.0011089,0.012684,3.173,0.018321,0.035711,1.5373e-06,0.14,0.06,0
0.0055386,0.0038694,0.040689,0.0010577,0.012524,0.001863,0,0,0.036614,-0.014906,0,0.0048439,0,0,0,0.040776,0.00097035,0.012524,2.6856,0.01809,0.03547,1.4989e-06,0.15,0.06,0
0.0059035,0.0040411,0.040365,0.00091447,0.012384,0.0015565,0,0,0.036376,-0.01491,0,0.0040468,0,0,0,0.040427,0.00085316,0.012384,2.2558,0.017888,0.035252,1.4652e-06,0.16,0.06,0
0.0062661,0.004205,0.040077,0.00079535,0.012262,0.0012878,0,0,0.036159,-0.014906,0,0.0033482,0,0,0,0.040119,0.00075318,0.012262,1.8757,0.017711,0.035058,1.4358e-06,0.17,0.06,0
0.0066267,0.0043618,0.03982,0.00069544,0.012155,0.0010516,0,0,0.035965,-0.014897,0,0.0027341,0,0,0,0.039849,0.00066719,0.012155,1.5385,0.017557,0.034886,1.4102e-06,0.18,0.06,0
0.0069854,0.0045122,0.039594,0.0006109,0.012061,0.00084339,0,0,0.035792,-0.014886,0,0.0021928,0,0,0,0.039612,0.00059266,0.012061,1.2388,0.017422,0.034735,1.388e-06,0.19,0.06,0
0.0073425,0.0046568,0.039395,0.00053877,0.01198,0.0006594,0,0,0.035639,-0.014874,0,0.0017144,0,0,0,0.039406,0.00052758,0.01198,0.97195,0.017305,0.034604,1.3689e-06,0.2,0.06,0
0.0076982,0.0047961,0.039221,0.00047671,0.011909,0.00049652,0,0,0.035505,-0.014862,0,0.0012909,0,0,0,0.039227,0.00047034,0.011909,0.7341,0.017202,0.034491,1.3525e-06,0.21,0.06,0
0.0080526,0.0049308,0.039069,0.00042285,0.011848,0.00035216,0,0,0.035388,-0.014852,0,0.00091563,0,0,0,0.039072,0.00041964,0.011848,0.52205,0.017113,0.034394,1.3384e-06,0.22,0.06,0
0.008406,0.0050612,0.038938,0.00037572,0.011794,0.0002242,0,0,0.035287,-0.014844,0,0.00058292,0,0,0,0.038939,0.00037441,0.011794,0.33311,0.017036,0.034311,1.3263e-06,0.23,0.06,0
0.0087583,0.0051878,0.038824,0.00033408,0.011747,0.00011087,0,0,0.035199,-0.014837,0,0.00028825,0,0,0,0.038824,0.00033376,0.011747,0.16503,0.016968,0.034241,1.3161e-06,0.24,0.06,0
0.0091099,0.0053112,0.038726,0.00029694,0.011707,1.0709e-05,0,0,0.035125,-0.014833,0,2.7843e-05,0,0,0,0.038726,0.00029694,0.011707,0.015967,0.01691,0.034183,1.3075e-06,0.25,0.06,0
0.0094608,0.0054319,0.038641,0.00026346,0.011671,-7.7438e-05,0,0,0.035061,-0.01483,0,-0.00020134,0,0,0,0.038641,0.0002633,0.011671,-0.11561,0.016859,0.034135,1.3001e-06,0.26,0.06,0
0.0098111,0.0055501,0.038568,0.0002329,0.01164,-0.0001545,0,0,0.035006,-0.01483,0,-0.00040171,0,0,0,0.038568,0.00023227,0.01164,-0.23092,0.016814,0.034095,1.2939e-06,0.27,0.06,0
0.010161,0.0056665,0.038504,0.00020462,0.011613,-0.00022119,0,0,0.034959,-0.01483,0,-0.0005751,0,0,0,0.038506,0.00020334,0.011613,-0.33088,0.016774,0.034062,1.2887e-06,0.28,0.06,0
0.01051,0.0057813,0.038448,0.00017803,0.011588,-0.000278,0,0,0.034919,-0.014833,0,-0.0007228,0,0,0,0.03845,0.00017601,0.011588,-0.41618,0.016738,0.034035,1.2841e-06,0.29,0.06,0
0.010859,0.0058951,0.038398,0.00015257,0.011565,-0.00032523,0,0,0.034883,-0.014836,0,-0.00084559,0,0,0,0.038401,0.0001498,0.011565,-0.48718,0.016705,0.034012,1.2801e-06,0.3,0.06,0
0.011208,0.0060083,0.038351,0.00012764,0.011544,-0.00036295,0,0,0.03485,-0.014841,0,-0.00094368,0,0,0,0.038355,0.00012419,0.011544,-0.54399,0.016674,0.033991,1.2764e-06,0.31,0.06,0
0.011556,0.0061214,0.038306,0.00010263,0.011523,-0.00039104,0,0,0.034819,-0.014846,0,-0.0010167,0,0,0,0.03831,9.8629e-05,0.011523,-0.58638,0.016644,0.033972,1.2729e-06,0.32,0.06,0
0.011904,0.0062347,0.03826,7.6835e-05,0.011501,-0.00040909,0,0,0.034787,-0.014852,0,-0.0010636,0,0,0,0.038264,7.2452e-05,0.011501,-0.61376,0.016613,0.033952,1.2693e-06,0.33,0.06,0
0.012252,0.0063488,0.038211,4.9403e-05,0.011478,-0.00041642,0,0,0.034753,-0.014857,0,-0.0010827,0,0,0,0.038216,4.486e-05,0.011478,-0.6251,0.01658,0.033931,1.2654e-06,0.34,0.06,0
0.012599,0.0064643,0.038157,1.9272e-05,0.011453,-0.00041196,0,0,0.034715,-0.014864,0,-0.0010711,0,0,0,0.038161,1.4823e-05,0.011453,-0.61881,0.016543,0.033907,1.2611e-06,0.35,0.06,0
0.012946,0.0065815,0.038094,-1.4945e-05,0.011424,-0.00039422,0,0,0.034672,-0.01487,0,-0.001025,0,0,0,0.038098,-1.9023e-05,0.011424,-0.59261,0.016501,0.033878,1.256e-06,0.36,0.06,0
0.013293,0.0067011,0.03802,-5.5116e-05,0.01139,-0.00036113,0,0,0.03462,-0.014878,0,-0.00093894,0,0,0,0.038024,-5.8541e-05,0.01139,-0.54336,0.016452,0.033843,1.2501e-06,0.37,0.06,0
0.013639,0.0068238,0.037932,-0.00010382,0.011349,-0.00030989,0,0,0.034559,-0.014888,0,-0.00080571,0,0,0,0.037935,-0.00010634,0.011349,-0.46676,0.016392,0.033802,1.243e-06,0.38,0.06,0
0.013984,0.0069502,0.037827,-0.00016468,0.011299,-0.00023678,0,0,0.034487,-0.014902,0,-0.00061563,0,0,0,0.037829,-0.00016616,0.011299,-0.35707,0.01632,0.033756,1.2346e-06,0.39,0.06,0
0.014328,0.007081,0.037701,-0.00024294,0.011237,-0.00013694,0,0,0.034403,-0.014925,0,-0.00035605,0,0,0,0.037702,-0.00024343,0.011237,-0.20678,0.016232,0.033705,1.2249e-06,0.4,0.06,0
0.014672,0.0072172,0.037553,-0.00034619,0.011162,-4.1537e-06,0,0,0.034308,-0.014961,0,-1.08e-05,0,0,0,0.037553,-0.00034619,0.011162,-0.0062795,0.016123,0.033654,1.214e-06,0.41,0.06,0
0.015015,0.0073596,0.037381,-0.00048566,0.011069,0.00016924,0,0,0.034206,-0.015021,0,0.00044001,0,0,0,0.037382,-0.00048642,0.011069,0.25606,0.015988,0.033615,1.2022e-06,0.42,0.06,0
0.015356,0.0075093,0.037188,-0.00067796,0.010953,0.00039193,0,0,0.034106,-0.01512,0,0.001019,0,0,0,0.037192,-0.00068202,0.010953,0.59294,0.015821,0.033603,1.1904e-06,0.43,0.06,0
0.015697,0.0076674,0.036983,-0.00094759,0.010811,0.00067221,0,0,0.034024,-0.015286,0,0.0017477,0,0,0,0.036995,-0.0009595,0.010811,1.015,0.015615,0.03365,1.1805e-06,0.44,0.06,0
0.016037,0.007835,0.036781,-0.00133,0.010635,0.0010142,0,0,0.033989,-0.015555,0,0.0026371,0,0,0,0.036808,-0.001357,0.010635,1.5234,0.015362,0.033803,1.1751e-06,0.45,0.06,0
0.016377,0.0080129,0.036605,-0.0018733,0.01042,0.0014109,0,0,0.034041,-0.015981,0,0.0036682,0,0,0,0.036657,-0.001925,0.01042,2.0971,0.01505,0.034127,1.1777e-06,0.46,0.06,0
0.016717,0.0082017,0.036483,-0.0026336,0.010155,0.0018332,0,0,0.034227,-0.016625,0,0.0047663,0,0,0,0.036569,-0.0027193,0.010155,2.6773,0.014668,0.034692,1.1917e-06,0.47,0.06,0
0.017061,0.0084006,0.036433,-0.0036545,0.0098335,0.0022231,0,0,0.034579,-0.017534,0,0.00578,0,0,0,0.036556,-0.0037774,0.0098335,3.1644,0.014204,0.035539,1.2179e-06,0.48,0.06,0
0.017409,0.0086076,0.036449,-0.0049306,0.0094556,0.0024988,0,0,0.035092,-0.018702,0,0.0064968,0,0,0,0.036599,-0.0050809,0.0094556,3.4432,0.013658,0.036643,1.2526e-06,0.49,0.06,0
0.017763,0.008819,0.03643,-0.00090051,0.010659,0.0025954,0,0,0.049313,-0.020036,0,0.010124,0,0,0,0.036613,-0.0010837,0.010659,4.0372,0.015396,0.033481,1.1145e-06,0.5,0.06,0
0.018395,0.0090979,0.036583,0.0037764,0.012108,0.0025265,0,0,0.063635,-0.021662,0,0.013138,0,0,0,0.036776,0.0035829,0.012108,4.378,0.017489,0.029858,1.0007e-06,0.51,0.06,0
0.019036,0.009371,0.036629,0.0029728,0.01188,0.0023397,0,0,0.064345,-0.02316,0,0.012167,0,0,0,0.036791,0.0028109,0.01188,3.9577,0.017161,0.030475,1.0313e-06,0.52,0.06,0
0.019682,0.0096335,0.036628,0.0022884,0.011675,0.002075,0,0,0.064879,-0.024405,0,0.01079,0,0,0,0.036753,0.0021634,0.011675,3.4454,0.016864,0.03095,1.0519e-06,0.53,0.06,0
0.020333,0.0098824,0.036576,0.0017445,0.011496,0.0017756,0,0,0.065208,-0.025355,0,0.0092331,0,0,0,0.036667,0.0016542,0.011496,2.9107,0.016606,0.031275,1.0626e-06,0.54,0.06,0
0.020986,0.010116,0.03648,0.0013304,0.011343,0.0014781,0,0,0.065356,-0.026033,0,0.0076861,0,0,0,0.036542,0.0012684,0.011343,2.4037,0.016384,0.03147,1.0651e-06,0.55,0.06,0
0.02164,0.010334,0.036354,0.0010215,0.011213,0.0012051,0,0,0.065367,-0.026497,0,0.0062663,0,0,0,0.036395,0.0009804,0.011213,1.9511,0.016196,0.031568,1.062e-06,0.56,0.06,0
0.022294,0.010537,0.036214,0.0007917,0.011102,0.00096612,0,0,0.065293,-0.026806,0,0.0050238,0,0,0,0.036241,0.00076536,0.011102,1.5611,0.016036,0.031601,1.0555e-06,0.57,0.06,0
0.022946,0.010726,0.036074,0.0006199,0.011008,0.00076261,0,0,0.06517,-0.027009,0,0.0039656,0,0,0,0.03609,0.00060351,0.011008,1.2317,0.015901,0.031596,1.0477e-06,0.58,0.06,0
0.023597,0.010901,0.03594,0.0004902,0.010929,0.00059173,0,0,0.065028,-0.027141,0,0.003077,0,0,0,0.03595,0.00048032,0.010929,0.95604,0.015786,0.03157,1.0394e-06,0.59,0.06,0
0.024247,0.011064,0.035818,0.00039109,0.010863,0.00044922,0,0,0.064884,-0.027226,0,0.0023359,0,0,0,0.035824,0.00038539,0.010863,0.72637,0.015691,0.031533,1.0315e-06,0.6,0.06,0
0.024895,0.011216,0.035709,0.00031438,0.010807,0.00033066,0,0,0.064746,-0.027281,0,0.0017194,0,0,0,0.035713,0.00031129,0.010807,0.5352,0.01561,0.031494,1.0242e-06,0.61,0.06,0
0.025542,0.011358,0.035615,0.00025425,0.010761,0.00023207,0,0,0.064621,-0.027317,0,0.0012068,0,0,0,0.035617,0.00025272,0.010761,0.376,0.015543,0.031455,1.0178e-06,0.62,0.06,0
0.026187,0.01149,0.035534,0.0002065,0.010722,0.00015003,0,0,0.064511,-0.027341,0,0.00078016,0,0,0,0.035535,0.00020587,0.010722,0.24332,0.015488,0.03142,1.0123e-06,0.63,0.06,0
0.026832,0.011614,0.035466,0.00016814,0.01069,8.1727e-05,0,0,0.064417,-0.027357,0,0.00042498,0,0,0,0.035466,0.00016795,0.01069,0.13266,0.015442,0.031389,1.0076e-06,0.64,0.06,0
0.027476,0.011729,0.035409,0.00013696,0.010664,2.4844e-05,0,0,0.064338,-0.02737,0,0.00012919,0,0,0,0.035409,0.00013695,0.010664,0.040357,0.015403,0.031363,1.0037e-06,0.65,0.06,0
0.028119,0.011837,0.035363,0.00011135,0.010642,-2.2494e-05,0,0,0.064273,-0.02738,0,-0.00011697,0,0,0,0.035363,0.00011134,0.010642,-0.036561,0.015372,0.031342,1.0005e-06,0.66,0.06,0
0.028761,0.011938,0.035326,9.0109e-05,0.010625,-6.1815e-05,0,0,0.064222,-0.02739,0,-0.00032144,0,0,0,0.035326,9.0001e-05,0.010625,-0.10052,0.015347,0.031326,9.98e-07,0.67,0.06,0
0.029403,0.012033,0.035296,7.2322e-05,0.010611,-9.436e-05,0,0,0.064183,-0.0274,0,-0.00049067,0,0,0,0.035297,7.2069e-05,0.010611,-0.15349,0.015326,0.031315,9.9608e-07,0.68,0.06,0
0.030045,0.012121,0.035274,5.7302e-05,0.010599,-0.00012115,0,0,0.064155,-0.02741,0,-0.00062996,0,0,0,0.035275,5.6885e-05,0.010599,-0.19709,0.01531,0.031307,9.9468e-07,0.69,0.06,0
0.030686,0.012204,0.035258,4.452e-05,0.010591,-0.00014301,0,0,0.064135,-0.027421,0,-0.00074363,0,0,0,0.035259,4.3939e-05,0.010591,-0.23268,0.015298,0.031304,9.9374e-07,0.7,0.06,0
0.031328,0.012281,0.035248,3.3564e-05,0.010584,-0.00016063,0,0,0.064125,-0.027432,0,-0.00083529,0,0,0,0.035249,3.2831e-05,0.010584,-0.26135,0.015289,0.031303,9.932e-07,0.71,0.06,0
0.031969,0.012354,0.035242,2.4111e-05,0.01058,-0.0001746,0,0,0.064121,-0.027445,0,-0.0009079,0,0,0,0.035243,2.3245e-05,0.01058,-0.28404,0.015282,0.031306,9.93e-07,0.72,0.06,0
0.03261,0.012421,0.03524,1.5905e-05,0.010577,-0.00018538,0,0,0.064124,-0.027458,0,-0.00096396,0,0,0,0.035241,1.493e-05,0.010577,-0.30152,0.015278,0.031311,9.931e-07,0.73,0.06,0
0.033251,0.012485,0.035242,8.7442e-06,0.010575,-0.00019338,0,0,0.064133,-0.027472,0,-0.0010056,0,0,0,0.035243,7.6829e-06,0.010575,-0.31446,0.015275,0.031318,9.9345e-07,0.74,0.06,0
0.033892,0.012544,0.035246,2.4634e-06,0.010575,-0.00019894,0,0,0.064145,-0.027487,0,-0.0010345,0,0,0,0.035247,1.3405e-06,0.010575,-0.32341,0.015274,0.031327,9.9402e-07,0.75,0.06,0
0.034534,0.012599,0.035253,-3.0695e-06,0.010575,-0.00020236,0,0,0.064162,-0.027503,0,-0.0010523,0,0,0,0.035254,-4.231e-06,0.010575,-0.32885,0.015275,0.031338,9.9477e-07,0.76,0.06,0
0.035176,0.012651,0.035261,-7.9629e-06,0.010576,-0.00020388,0,0,0.064182,-0.027518,0,-0.0010602,0,0,0,0.035263,-9.1414e-06,0.010576,-0.33119,0.015277,0.031349,9.9566e-07,0.77,0.06,0
0.035818,0.012699,0.035272,-1.2306e-05,0.010578,-0.00020372,0,0,0.064204,-0.027534,0,-0.0010593,0,0,0,0.035273,-1.3482e-05,0.010578,-0.33079,0.015279,0.031362,9.9668e-07,0.78,0.06,0
0.03646,0.012744,0.035284,-1.6171e-05,0.01058,-0.00020206,0,0,0.064229,-0.027551,0,-0.0010507,0,0,0,0.035285,-1.7328e-05,0.01058,-0.32795,0.015283,0.031376,9.9779e-07,0.79,0.06,0
0.037102,0.012785,0.035296,-1.962e-05,0.010583,-0.00019907,0,0,0.064255,-0.027567,0,-0.0010351,0,0,0,0.035297,-2.0743e-05,0.010583,-0.32295,0.015287,0.03139,9.9897e-07,0.8,0.06,0
0.037745,0.012824,0.03531,-2.2705e-05,0.010586,-0.00019488,0,0,0.064282,-0.027583,0,-0.0010134,0,0,0,0.035311,-2.378e-05,0.010586,-0.31601,0.015291,0.031404,1.0002e-06,0.81,0.06,0
0.038388,0.01286,0.035324,-2.5467e-05,0.010589,-0.00018963,0,0,0.064309,-0.027599,0,-0.00098607,0,0,0,0.035325,-2.6485e-05,0.010589,-0.30735,0.015296,0.031419,1.0015e-06,0.82,0.06,0
0.039031,0.012893,0.035338,-2.7944e-05,0.010593,-0.00018342,0,0,0.064337,-0.027614,0,-0.00095379,0,0,0,0.035339,-2.8895e-05,0.010593,-0.29715,0.015301,0.031433,1.0027e-06,0.83,0.06,0
0.039675,0.012924,0.035352,-3.0166e-05,0.010597,-0.00017636,0,0,0.064365,-0.02763,0,-0.00091705,0,0,0,0.035353,-3.1044e-05,0.010597,-0.28557,0.015306,0.031447,1.004e-06,0.84,0.06,0
0.040318,0.012952,0.035366,-3.2158e-05,0.0106,-0.00016852,0,0,0.064392,-0.027644,0,-0.00087632,0,0,0,0.035367,-3.2961e-05,0.0106,-0.27276,0.015312,0.031461,1.0053e-06,0.85,0.06,0
0.040962,0.012978,0.03538,-3.3945e-05,0.010604,-0.00016,0,0,0.064419,-0.027658,0,-0.000832,0,0,0,0.035381,-3.4667e-05,0.010604,-0.25885,0.015317,0.031475,1.0065e-06,0.86,0.06,0
0.041607,0.013002,0.035394,-3.5544e-05,0.010607,-0.00015086,0,0,0.064444,-0.027672,0,-0.00078447,0,0,0,0.035394,-3.6186e-05,0.010607,-0.24396,0.015322,0.031488,1.0077e-06,0.87,0.06,0
0.042251,0.013023,0.035407,-3.6972e-05,0.010611,-0.00014117,0,0,0.064469,-0.027685,0,-0.00073408,0,0,0,0.035407,-3.7534e-05,0.010611,-0.2282,0.015327,0.031501,1.0088e-06,0.88,0.06,0
0.042896,0.013043,0.035419,-3.8243e-05,0.010614,-0.00013099,0,0,0.064492,-0.027696,0,-0.00068113,0,0,0,0.035419,-3.8727e-05,0.010614,-0.21166,0.015332,0.031512,1.0099e-06,0.89,0.06,0
0.043541,0.013061,0.03543,-3.9369e-05,0.010617,-0.00012037,0,0,0.064514,-0.027707,0,-0.00062592,0,0,0,0.035431,-3.9777e-05,0.010617,-0.19443,0.015336,0.031523,1.0109e-06,0.9,0.06,0
0.044186,0.013076,0.035441,-4.0361e-05,0.01062,-0.00010936,0,0,0.064534,-0.027718,0,-0.00056869,0,0,0,0.035442,-4.0698e-05,0.01062,-0.1766,0.01534,0.031534,1.0119e-06,0.91,0.06,0
0.044832,0.01309,0.035451,-4.1227e-05,0.010623,-9.8022e-05,0,0,0.064553,-0.027727,0,-0.00050971,0,0,0,0.035451,-4.1498e-05,0.010623,-0.15824,0.015344,0.031543,1.0127e-06,0.92,0.06,0
0.045477,0.013102,0.03546,-4.1975e-05,0.010625,-8.6386e-05,0,0,0.064569,-0.027735,0,-0.00044921,0,0,0,0.03546,-4.2186e-05,0.010625,-0.13942,0.015348,0.031551,1.0135e-06,0.93,0.06,0
0.046123,0.013113,0.035467,-4.2612e-05,0.010627,-7.4498e-05,0,0,0.064584,-0.027742,0,-0.00038739,0,0,0,0.035468,-4.2768e-05,0.010627,-0.1202,0.015351,0.031558,1.0142e-06,0.94,0.06,0
0.046769,0.013122,0.035474,-4.3142e-05,0.010629,-6.2398e-05,0,0,0.064596,-0.027748,0,-0.00032447,0,0,0,0.035474,-4.3252e-05,0.010629,-0.10066,0.015353,0.031565,1.0147e-06,0.95,0.06,0
0.047415,0.013129,0.035479,-4.357e-05,0.010631,-5.0124e-05,0,0,0.064607,-0.027753,0,-0.00026064,0,0,0,0.03548,-4.3641e-05,0.010631,-0.080845,0.015356,0.03157,1.0152e-06,0.96,0.06,0
0.048061,0.013134,0.035484,-4.39e-05,0.010632,-3.7712e-05,0,0,0.064615,-0.027757,0,-0.0001961,0,0,0,0.035484,-4.394e-05,0.010632,-0.060818,0.015357,0.031574,1.0156e-06,0.97,0.06,0
0.048708,0.013138,0.035487,-4.4134e-05,0.010633,-2.5198e-05,0,0,0.064621,-0.02776,0,-0.00013103,0,0,0,0.035487,-4.4151e-05,0.010633,-0.040633,0.015359,0.031577,1.0158e-06,0.98,0.06,0
0.049354,0.013141,0.035489,-4.4273e-05,0.010633,-1.2616e-05,0,0,0.064624,-0.027762,0,-6.5602e-05,0,0,0,0.035489,-4.4277e-05,0.010633,-0.020342,0.015359,0.031579,1.016e-06,0.99,0.06,0
0.05,0.013142,0.035489,-4.4319e-05,0.010634,1.5047e-05,0,0,0.064625,-0.027762,0,7.8243e-05,0,0,0,0.035489,-4.4326e-05,0.010634,0.024262,0.015359,0.031579,1.0161e-06,1,0.06,0
0,0,0.042051,0.018022,0.018022,0.010432,0,0,0.031238,8.6736e-19,0,0.027123,0,0,0,0.045948,0.014125,0.018022,20.484,0.026031,0.030065,1.317e-06,0,0.07,0
0.00031238,0.00027123,0.041891,0.015953,0.017353,0.010372,0,0,0.0319,-0.0018208,0,0.026968,0,0,0,0.045529,0.012315,0.017353,19.326,0.025066,0.031003,1.3953e-06,0.01,0.07,0
0.000638,0.00055674,0.042498,0.013928,0.016928,0.010389,0,0,0.033242,-0.0039003,0,0.027012,0,0,0,0.045877,0.010549,0.016928,18.014,0.024451,0.03261,1.5538e-06,0.02,0.07,0
0.00097721,0.00085017,0.043028,0.011829,0.016457,0.010086,0,0,0.034542,-0.0060161,0,0.026225,0,0,0,0.046004,0.0088523,0.016457,16.444,0.023771,0.033994,1.6822e-06,0.03,0.07,0
0.0013288,0.0011449,0.043414,0.0098506,0.015979,0.0095069,0,0,0.035665,-0.0079673,0,0.024718,0,0,0,0.045919,0.0073448,0.015979,14.766,0.023081,0.035064,1.7697e-06,0.04,0.07,0
0.0016905,0.0014352,0.04362,0.0081098,0.015519,0.0087391,0,0,0.036531,-0.0096317,0,0.022722,0,0,0,0.045654,0.0060757,0.015519,13.103,0.022416,0.035803,1.8159e-06,0.05,0.07,0
0.0020594,0.001717,0.043645,0.0066482,0.015088,0.0078788,0,0,0.037124,-0.010972,0,0.020485,0,0,0,0.045253,0.0050402,0.015088,11.535,0.021794,0.036249,1.8274e-06,0.06,0.07,0
0.002433,0.0019876,0.043515,0.0054546,0.014691,0.0070033,0,0,0.037471,-0.012007,0,0.018209,0,0,0,0.044763,0.0042068,0.014691,10.102,0.02122,0.036463,1.8133e-06,0.07,0.07,0
0.0028089,0.0022458,0.043269,0.0044935,0.014329,0.0061632,0,0,0.037623,-0.012786,0,0.016024,0,0,0,0.044225,0.0035374,0.014329,8.8174,0.020697,0.036509,1.7827e-06,0.08,0.07,0
0.0031854,0.0024912,0.042947,0.0037236,0.014001,0.0053859,0,0,0.03763,-0.013361,0,0.014003,0,0,0,0.043674,0.0029975,0.014001,7.678,0.020224,0.036442,1.7429e-06,0.09,0.07,0
0.0035615,0.002724,0.042583,0.0031069,0.013707,0.0046824,0,0,0.037539,-0.01378,0,0.012174,0,0,0,0.043131,0.0025592,0.013707,6.6728,0.019799,0.036305,1.699e-06,0.1,0.07,0
0.0039362,0.0029447,0.042201,0.0026112,0.013444,0.0040542,0,0,0.037385,-0.014082,0,0.010541,0,0,0,0.042612,0.0022003,0.013444,5.7874,0.019419,0.036127,1.6544e-06,0.11,0.07,0
0.0043092,0.0031541,0.04182,0.0022105,0.013209,0.0034974,0,0,0.037194,-0.014298,0,0.0090933,0,0,0,0.042126,0.001904,0.013209,5.0075,0.01908,0.035929,1.6113e-06,0.12,0.07,0
0.0046801,0.0033528,0.04145,0.0018843,0.013,0.0030057,0,0,0.036985,-0.014451,0,0.0078148,0,0,0,0.041677,0.0016573,0.013,4.3195,0.018778,0.035726,1.5707e-06,0.13,0.07,0
0.0050489,0.0035417,0.041101,0.0016171,0.012815,0.002572,0,0,0.036771,-0.014558,0,0.0066873,0,0,0,0.041267,0.0014502,0.012815,3.7114,0.018511,0.035525,1.5332e-06,0.14,0.07,0
0.0054155,0.0037215,0.040774,0.0013963,0.012651,0.0021896,0,0,0.03656,-0.014631,0,0.0056928,0,0,0,0.040896,0.0012749,0.012651,3.1728,0.018274,0.035334,1.4992e-06,0.15,0.07,0
0.0057801,0.0038929,0.040474,0.0012125,0.012506,0.0018519,0,0,0.036358,-0.014681,0,0.0048149,0,0,0,0.040561,0.0011253,0.012506,2.6946,0.018064,0.035155,1.4685e-06,0.16,0.07,0
0.0061427,0.0040567,0.040199,0.0010583,0.012377,0.0015534,0,0,0.036168,-0.014714,0,0.0040388,0,0,0,0.04026,0.00099673,0.012377,2.2692,0.017878,0.03499,1.4411e-06,0.17,0.07,0
0.0065034,0.0042135,0.039949,0.00092792,0.012263,0.0012891,0,0,0.035992,-0.014736,0,0.0033516,0,0,0,0.039992,0.00088538,0.012263,1.8901,0.017713,0.03484,1.4167e-06,0.18,0.07,0
0.0068625,0.0043639,0.039724,0.00081685,0.012162,0.0010548,0,0,0.03583,-0.014749,0,0.0027424,0,0,0,0.039752,0.00078827,0.012162,1.5518,0.017568,0.034704,1.3951e-06,0.19,0.07,0
0.00722,0.0045086,0.039521,0.00072146,0.012073,0.00084675,0,0,0.035683,-0.014757,0,0.0022016,0,0,0,0.03954,0.00070299,0.012073,1.2496,0.017438,0.034583,1.3761e-06,0.2,0.07,0
0.0075762,0.0046479,0.03934,0.0006389,0.011994,0.00066199,0,0,0.03555,-0.014761,0,0.0017212,0,0,0,0.039351,0.00062758,0.011994,0.97968,0.017324,0.034475,1.3593e-06,0.21,0.07,0
0.007931,0.0047826,0.039178,0.00056685,0.011923,0.00049787,0,0,0.035431,-0.014763,0,0.0012945,0,0,0,0.039184,0.00056043,0.011923,0.73864,0.017223,0.034381,1.3445e-06,0.22,0.07,0
0.0082848,0.004913,0.039033,0.00050344,0.011861,0.00035222,0,0,0.035324,-0.014765,0,0.00091577,0,0,0,0.039036,0.00050022,0.011861,0.52371,0.017132,0.034297,1.3316e-06,0.23,0.07,0
0.0086375,0.0050397,0.038904,0.00044711,0.011805,0.00022321,0,0,0.035229,-0.014766,0,0.00058035,0,0,0,0.038906,0.00044581,0.011805,0.33254,0.017052,0.034224,1.3202e-06,0.24,0.07,0
0.0089893,0.0051632,0.038789,0.00039658,0.011756,0.00010935,0,0,0.035144,-0.014767,0,0.00028432,0,0,0,0.038789,0.00039626,0.011756,0.1632,0.01698,0.034161,1.3103e-06,0.25,0.07,0
0.0093404,0.0052838,0.038686,0.00035074,0.011711,9.4309e-06,0,0,0.035068,-0.014768,0,2.452e-05,0,0,0,0.038686,0.00035074,0.011711,0.014095,0.016916,0.034105,1.3015e-06,0.26,0.07,0
0.0096907,0.0054021,0.038593,0.00030864,0.011671,-7.7519e-05,0,0,0.034999,-0.014771,0,-0.00020155,0,0,0,0.038593,0.00030848,0.011671,-0.11601,0.016858,0.034056,1.2937e-06,0.27,0.07,0
0.01004,0.0055184,0.038509,0.00026941,0.011633,-0.00015222,0,0,0.034938,-0.014773,0,-0.00039576,0,0,0,0.038509,0.0002688,0.011633,-0.22807,0.016804,0.034013,1.2866e-06,0.28,0.07,0
0.010389,0.0056333,0.038431,0.00023226,0.011599,-0.00021515,0,0,0.034881,-0.014777,0,-0.0005594,0,0,0,0.038432,0.00023105,0.011599,-0.32271,0.016754,0.033975,1.2803e-06,0.29,0.07,0
0.010738,0.005747,0.038357,0.0001964,0.011566,-0.0002666,0,0,0.034829,-0.014781,0,-0.00069315,0,0,0,0.038359,0.00019453,0.011566,-0.40025,0.016707,0.033939,1.2743e-06,0.3,0.07,0
0.011086,0.0058602,0.038287,0.00016103,0.011534,-0.00030658,0,0,0.034778,-0.014785,0,-0.00079711,0,0,0,0.038289,0.00015856,0.011534,-0.46069,0.016661,0.033906,1.2686e-06,0.31,0.07,0
0.011434,0.0059732,0.038217,0.00012529,0.011503,-0.00033489,0,0,0.034729,-0.014791,0,-0.00087071,0,0,0,0.03822,0.00012235,0.011503,-0.50367,0.016615,0.033873,1.2631e-06,0.32,0.07,0
0.011781,0.0060865,0.038146,8.82e-05,0.01147,-0.00035102,0,0,0.034679,-0.014797,0,-0.00091265,0,0,0,0.03815,8.4963e-05,0.01147,-0.52839,0.016568,0.03384,1.2574e-06,0.33,0.07,0
0.012127,0.0062006,0.038072,4.8587e-05,0.011436,-0.00035417,0,0,0.034627,-0.014804,0,-0.00092083,0,0,0,0.038075,4.5289e-05,0.011436,-0.53361,0.016519,0.033806,1.2515e-06,0.34,0.07,0
0.012473,0.0063159,0.037993,5.0026e-06,0.011399,-0.00034313,0,0,0.034571,-0.014813,0,-0.00089214,0,0,0,0.037996,1.9034e-06,0.011399,-0.51748,0.016466,0.03377,1.2452e-06,0.35,0.07,0
0.012819,0.0064331,0.037905,-4.4414e-05,0.011358,-0.00031627,0,0,0.034511,-0.014823,0,-0.00082231,0,0,0,0.037908,-4.705e-05,0.011358,-0.47746,0.016406,0.033731,1.2383e-06,0.36,0.07,0
0.013163,0.0065526,0.037808,-0.00010211,0.011312,-0.00027141,0,0,0.034445,-0.014838,0,-0.00070568,0,0,0,0.03781,-0.00010406,0.011312,-0.41018,0.016339,0.033689,1.2307e-06,0.37,0.07,0
0.013508,0.0066752,0.037698,-0.00017139,0.011258,-0.00020573,0,0,0.034372,-0.014858,0,-0.0005349,0,0,0,0.0377,-0.0001725,0.011258,-0.31125,0.016262,0.033646,1.2223e-06,0.38,0.07,0
0.013851,0.0068013,0.037575,-0.00025674,0.011196,-0.00011566,0,0,0.034293,-0.014888,0,-0.00030072,0,0,0,0.037575,-0.00025709,0.011196,-0.17517,0.016171,0.033603,1.2131e-06,0.39,0.07,0
0.014193,0.0069319,0.037436,-0.0003644,0.011121,3.1433e-06,0,0,0.034209,-0.014932,0,8.1725e-06,0,0,0,0.037436,-0.0003644,0.011121,0.0047644,0.016064,0.033565,1.2033e-06,0.4,0.07,0
0.014535,0.0070675,0.037282,-0.00050306,0.011034,0.00015578,0,0,0.034123,-0.014998,0,0.00040503,0,0,0,0.037283,-0.0005037,0.011034,0.23621,0.015938,0.033541,1.1933e-06,0.41,0.07,0
0.014876,0.0072091,0.037115,-0.00068483,0.010929,0.00034774,0,0,0.034042,-0.015098,0,0.00090412,0,0,0,0.037118,-0.00068803,0.010929,0.52703,0.015786,0.033542,1.1836e-06,0.42,0.07,0
0.015216,0.0073576,0.03694,-0.00092651,0.010804,0.00058401,0,0,0.033977,-0.01525,0,0.0015184,0,0,0,0.036949,-0.00093552,0.010804,0.88338,0.015606,0.033591,1.1755e-06,0.43,0.07,0
0.015555,0.0075137,0.036768,-0.0012509,0.010655,0.00086716,0,0,0.033946,-0.015478,0,0.0022546,0,0,0,0.036787,-0.0012706,0.010655,1.3059,0.015391,0.033716,1.1705e-06,0.44,0.07,0
0.015895,0.0076782,0.036611,-0.0016873,0.010477,0.001194,0,0,0.033974,-0.015814,0,0.0031043,0,0,0,0.036649,-0.0017245,0.010477,1.7839,0.015134,0.033958,1.1711e-06,0.45,0.07,0
0.016235,0.0078515,0.03649,-0.0022702,0.010266,0.0015505,0,0,0.034091,-0.016297,0,0.0040312,0,0,0,0.036552,-0.0023321,0.010266,2.2871,0.014828,0.034363,1.1793e-06,0.46,0.07,0
0.016577,0.0080336,0.036419,-0.0030313,0.010016,0.0019073,0,0,0.034323,-0.016962,0,0.0049591,0,0,0,0.036511,-0.0031233,0.010016,2.7616,0.014468,0.034967,1.1969e-06,0.47,0.07,0
0.016921,0.0082237,0.036406,-0.0039861,0.009726,0.0022187,0,0,0.034684,-0.017826,0,0.0057687,0,0,0,0.036527,-0.0041076,0.009726,3.1347,0.014049,0.035783,1.2232e-06,0.48,0.07,0
0.01727,0.0084197,0.036444,-0.0051145,0.009399,0.0024298,0,0,0.035159,-0.018867,0,0.0063174,0,0,0,0.036586,-0.005256,0.009399,3.3347,0.013576,0.036774,1.2551e-06,0.49,0.07,0
0.017625,0.0086187,0.036449,-0.00087658,0.010672,0.0025014,0,0,0.04931,-0.020017,0,0.0097515,0,0,0,0.036619,-0.0010468,0.010672,3.8931,0.015415,0.033456,1.1146e-06,0.5,0.07,0
0.018256,0.0088826,0.036594,0.003904,0.012149,0.002447,0,0,0.063556,-0.021438,0,0.012724,0,0,0,0.036776,0.0037219,0.012149,4.2573,0.017549,0.02975,9.9536e-07,0.51,0.07,0
0.018896,0.0091416,0.036653,0.0031935,0.011954,0.0023012,0,0,0.064218,-0.022777,0,0.011966,0,0,0,0.036811,0.0030359,0.011954,3.9159,0.017267,0.030316,1.0246e-06,0.52,0.07,0
0.019541,0.009392,0.036678,0.0025624,0.011772,0.0020893,0,0,0.064756,-0.023946,0,0.010865,0,0,0,0.036806,0.0024349,0.011772,3.4915,0.017004,0.030783,1.0466e-06,0.53,0.07,0
0.020191,0.0096313,0.036663,0.0020327,0.011609,0.0018395,0,0,0.065141,-0.024898,0,0.0095653,0,0,0,0.03676,0.0019352,0.011609,3.032,0.016768,0.031137,1.0608e-06,0.54,0.07,0
0.020844,0.0098577,0.036609,0.0016056,0.011464,0.0015786,0,0,0.065376,-0.025633,0,0.0082086,0,0,0,0.03668,0.0015345,0.011464,2.5769,0.01656,0.031382,1.068e-06,0.55,0.07,0
0.021498,0.01007,0.036525,0.0012696,0.011338,0.0013267,0,0,0.065486,-0.026179,0,0.0068988,0,0,0,0.036575,0.0012197,0.011338,2.152,0.016378,0.031538,1.0697e-06,0.56,0.07,0
0.022153,0.01027,0.036422,0.0010082,0.011229,0.0010957,0,0,0.065502,-0.026575,0,0.0056978,0,0,0,0.036456,0.00097435,0.011229,1.7705,0.01622,0.031627,1.0676e-06,0.57,0.07,0
0.022808,0.010456,0.03631,0.00080545,0.011135,0.00089078,0,0,0.065457,-0.026856,0,0.004632,0,0,0,0.036333,0.00078312,0.011135,1.4363,0.016084,0.031669,1.0631e-06,0.58,0.07,0
0.023463,0.01063,0.036197,0.00064764,0.011054,0.00071259,0,0,0.065374,-0.027055,0,0.0037055,0,0,0,0.036212,0.00063336,0.011054,1.1479,0.015966,0.031681,1.0574e-06,0.59,0.07,0
0.024116,0.010792,0.036089,0.000524,0.010984,0.00055958,0,0,0.065273,-0.027196,0,0.0029098,0,0,0,0.036098,0.0005152,0.010984,0.90121,0.015866,0.031673,1.0512e-06,0.6,0.07,0
0.024768,0.010943,0.035988,0.00042633,0.010924,0.00042914,0,0,0.065166,-0.027295,0,0.0022315,0,0,0,0.035993,0.00042115,0.010924,0.69128,0.015779,0.031655,1.0451e-06,0.61,0.07,0
0.025419,0.011085,0.035897,0.00034844,0.010873,0.00031838,0,0,0.06506,-0.027365,0,0.0016556,0,0,0,0.035899,0.00034559,0.010873,0.5131,0.015706,0.031632,1.0394e-06,0.62,0.07,0
0.026069,0.011217,0.035815,0.00028574,0.01083,0.00022456,0,0,0.064961,-0.027416,0,0.0011677,0,0,0,0.035817,0.00028432,0.01083,0.36211,0.015644,0.031608,1.0341e-06,0.63,0.07,0
0.026718,0.01134,0.035744,0.00023476,0.010794,0.0001452,0,0,0.064871,-0.027453,0,0.00075506,0,0,0,0.035745,0.00023417,0.010794,0.23429,0.015591,0.031584,1.0294e-06,0.64,0.07,0
0.027367,0.011455,0.035683,0.00019294,0.010763,7.8179e-05,0,0,0.064792,-0.027481,0,0.00040653,0,0,0,0.035683,0.00019276,0.010763,0.12621,0.015546,0.031562,1.0254e-06,0.65,0.07,0
0.028014,0.011563,0.03563,0.0001583,0.010737,2.1661e-05,0,0,0.064724,-0.027504,0,0.00011264,0,0,0,0.03563,0.00015829,0.010737,0.034988,0.015508,0.031543,1.0219e-06,0.66,0.07,0
0.028661,0.011664,0.035586,0.00012937,0.010715,-2.5884e-05,0,0,0.064666,-0.027522,0,-0.0001346,0,0,0,0.035586,0.00012935,0.010715,-0.041827,0.015477,0.031527,1.0191e-06,0.67,0.07,0
0.029308,0.011758,0.03555,0.00010502,0.010696,-6.5743e-05,0,0,0.064619,-0.027538,0,-0.00034186,0,0,0,0.03555,0.0001049,0.010696,-0.10627,0.015451,0.031514,1.0167e-06,0.68,0.07,0
0.029953,0.011846,0.03552,8.4357e-05,0.010681,-9.8991e-05,0,0,0.064581,-0.027552,0,-0.00051475,0,0,0,0.035521,8.4081e-05,0.010681,-0.16006,0.015429,0.031504,1.0148e-06,0.69,0.07,0
0.030599,0.011929,0.035497,6.6706e-05,0.010669,-0.00012653,0,0,0.064552,-0.027566,0,-0.00065797,0,0,0,0.035497,6.6254e-05,0.010669,-0.20462,0.015411,0.031498,1.0133e-06,0.7,0.07,0
0.031245,0.012006,0.035479,5.1527e-05,0.010659,-0.00014913,0,0,0.064531,-0.027579,0,-0.00077545,0,0,0,0.035479,5.0899e-05,0.010659,-0.24118,0.015396,0.031494,1.0123e-06,0.71,0.07,0
0.03189,0.012078,0.035465,3.8395e-05,0.010651,-0.00016741,0,0,0.064516,-0.027593,0,-0.00087054,0,0,0,0.035466,3.7604e-05,0.010651,-0.27075,0.015385,0.031493,1.0115e-06,0.72,0.07,0
0.032535,0.012146,0.035456,2.6971e-05,0.010645,-0.00018193,0,0,0.064508,-0.027606,0,-0.00094604,0,0,0,0.035457,2.6036e-05,0.010645,-0.29421,0.015376,0.031494,1.0111e-06,0.73,0.07,0
0.03318,0.012209,0.03545,1.6982e-05,0.01064,-0.00019314,0,0,0.064505,-0.02762,0,-0.0010043,0,0,0,0.035451,1.5929e-05,0.01064,-0.3123,0.015369,0.031497,1.0109e-06,0.74,0.07,0
0.033825,0.012268,0.035447,8.2075e-06,0.010637,-0.00020144,0,0,0.064508,-0.027634,0,-0.0010475,0,0,0,0.035448,7.0625e-06,0.010637,-0.32567,0.015364,0.031502,1.011e-06,0.75,0.07,0
0.03447,0.012323,0.035447,4.6844e-07,0.010634,-0.00020717,0,0,0.064514,-0.027648,0,-0.0010773,0,0,0,0.035449,-7.4237e-07,0.010634,-0.33486,0.015361,0.031508,1.0112e-06,0.76,0.07,0
0.035115,0.012375,0.03545,-6.383e-06,0.010633,-0.00021062,0,0,0.064523,-0.027662,0,-0.0010952,0,0,0,0.035451,-7.6341e-06,0.010633,-0.34034,0.015359,0.031516,1.0117e-06,0.77,0.07,0
0.035761,0.012423,0.035454,-1.2468e-05,0.010632,-0.00021204,0,0,0.064536,-0.027677,0,-0.0011026,0,0,0,0.035455,-1.3736e-05,0.010632,-0.34253,0.015358,0.031524,1.0122e-06,0.78,0.07,0
0.036406,0.012467,0.03546,-1.7889e-05,0.010633,-0.00021165,0,0,0.064551,-0.027691,0,-0.0011006,0,0,0,0.035461,-1.9151e-05,0.010633,-0.34179,0.015358,0.031534,1.0129e-06,0.79,0.07,0
0.037052,0.012509,0.035467,-2.2728e-05,0.010633,-0.00020964,0,0,0.064568,-0.027706,0,-0.0010901,0,0,0,0.035468,-2.3966e-05,0.010633,-0.33843,0.015359,0.031544,1.0136e-06,0.8,0.07,0
0.037697,0.012547,0.035475,-2.7057e-05,0.010634,-0.00020619,0,0,0.064586,-0.02772,0,-0.0010722,0,0,0,0.035476,-2.8255e-05,0.010634,-0.33274,0.015361,0.031555,1.0145e-06,0.81,0.07,0
0.038343,0.012583,0.035484,-3.0936e-05,0.010636,-0.00020144,0,0,0.064605,-0.027734,0,-0.0010475,0,0,0,0.035485,-3.2078e-05,0.010636,-0.32496,0.015363,0.031566,1.0153e-06,0.82,0.07,0
0.038989,0.012616,0.035493,-3.4414e-05,0.010638,-0.00019553,0,0,0.064625,-0.027748,0,-0.0010167,0,0,0,0.035495,-3.549e-05,0.010638,-0.31531,0.015366,0.031577,1.0163e-06,0.83,0.07,0
0.039636,0.012647,0.035503,-3.7534e-05,0.01064,-0.00018857,0,0,0.064645,-0.027761,0,-0.00098057,0,0,0,0.035504,-3.8535e-05,0.01064,-0.30399,0.015369,0.031588,1.0172e-06,0.84,0.07,0
0.040282,0.012675,0.035514,-4.0334e-05,0.010642,-0.00018068,0,0,0.064666,-0.027774,0,-0.00093954,0,0,0,0.035514,-4.1252e-05,0.010642,-0.29116,0.015372,0.031599,1.0181e-06,0.85,0.07,0
0.040929,0.012701,0.035523,-4.2843e-05,0.010644,-0.00017195,0,0,0.064686,-0.027786,0,-0.00089413,0,0,0,0.035524,-4.3674e-05,0.010644,-0.27699,0.015375,0.03161,1.0191e-06,0.86,0.07,0
0.041576,0.012724,0.035533,-4.509e-05,0.010646,-0.00016247,0,0,0.064706,-0.027798,0,-0.00084482,0,0,0,0.035534,-4.5832e-05,0.010646,-0.26163,0.015378,0.03162,1.02e-06,0.87,0.07,0
0.042223,0.012746,0.035543,-4.7096e-05,0.010649,-0.00015231,0,0,0.064725,-0.027809,0,-0.000792,0,0,0,0.035544,-4.7748e-05,0.010649,-0.24519,0.015382,0.03163,1.0208e-06,0.88,0.07,0
0.04287,0.012765,0.035552,-4.8882e-05,0.010651,-0.00014155,0,0,0.064743,-0.02782,0,-0.00073605,0,0,0,0.035553,-4.9445e-05,0.010651,-0.2278,0.015385,0.03164,1.0217e-06,0.89,0.07,0
0.043518,0.012783,0.035561,-5.0465e-05,0.010653,-0.00013026,0,0,0.064761,-0.02783,0,-0.00067734,0,0,0,0.035562,-5.0941e-05,0.010653,-0.20957,0.015388,0.031649,1.0225e-06,0.9,0.07,0
0.044166,0.012799,0.035569,-5.1858e-05,0.010655,-0.00011849,0,0,0.064777,-0.027839,0,-0.00061617,0,0,0,0.03557,-5.2253e-05,0.010655,-0.19059,0.015391,0.031657,1.0232e-06,0.91,0.07,0
0.044814,0.012812,0.035577,-5.3075e-05,0.010657,-0.00010632,0,0,0.064792,-0.027847,0,-0.00055286,0,0,0,0.035577,-5.3393e-05,0.010657,-0.17097,0.015394,0.031664,1.0239e-06,0.92,0.07,0
0.045462,0.012825,0.035584,-5.4127e-05,0.010659,-9.3784e-05,0,0,0.064805,-0.027854,0,-0.00048768,0,0,0,0.035584,-5.4374e-05,0.010659,-0.15078,0.015396,0.031671,1.0245e-06,0.93,0.07,0
0.04611,0.012835,0.03559,-5.5021e-05,0.01066,-8.094e-05,0,0,0.064817,-0.02786,0,-0.00042089,0,0,0,0.03559,-5.5205e-05,0.01066,-0.1301,0.015399,0.031677,1.0251e-06,0.94,0.07,0
0.046758,0.012844,0.035595,-5.5766e-05,0.010662,-6.7837e-05,0,0,0.064827,-0.027866,0,-0.00035276,0,0,0,0.035595,-5.5895e-05,0.010662,-0.10902,0.0154,0.031683,1.0256e-06,0.95,0.07,0
0.047406,0.012851,0.035599,-5.6368e-05,0.010663,-5.4521e-05,0,0,0.064835,-0.02787,0,-0.00028351,0,0,0,0.0356,-5.6451e-05,0.010663,-0.087611,0.015402,0.031687,1.0259e-06,0.96,0.07,0
0.048055,0.012856,0.035603,-5.6831e-05,0.010664,-4.1037e-05,0,0,0.064842,-0.027874,0,-0.00021339,0,0,0,0.035603,-5.6878e-05,0.010664,-0.065935,0.015403,0.03169,1.0262e-06,0.97,0.07,0
0.048703,0.01286,0.035605,-5.7159e-05,0.010665,-2.7427e-05,0,0,0.064846,-0.027876,0,-0.00014262,0,0,0,0.035605,-5.718e-05,0.010665,-0.044064,0.015404,0.031692,1.0265e-06,0.98,0.07,0
0.049351,0.012863,0.035607,-5.7355e-05,0.010665,-1.3734e-05,0,0,0.064849,-0.027878,0,-7.1417e-05,0,0,0,0.035607,-5.736e-05,0.010665,-0.022064,0.015405,0.031694,1.0266e-06,0.99,0.07,0
0.05,0.012863,0.035607,-5.742e-05,0.010665,1.4944e-05,0,0,0.06485,-0.027878,0,7.771e-05,0,0,0,0.035607,-5.7426e-05,0.010665,0.024008,0.015405,0.031694,1.0266e-06,1,0.07,0
0,0,0.041014,0.017577,0.017577,0.0097832,0,0,0.030467,-8.6736e-19,0,0.025436,0,0,0,0.044561,0.01403,0.017577,19.929,0.025389,0.028921,1.1796e-06,0,0.08,0
0.00030467,0.00025436,0.040877,0.015774,0.016995,0.0097451,0,0,0.031046,-0.0015875,0,0.025337,0,0,0,0.044215,0.012435,0.016995,18.913,0.024549,0.029764,1.2477e-06,0.01,0.08,0
0.00062091,0.00052077,0.041431,0.01405,0.016644,0.0097927,0,0,0.032223,-0.0033728,0,0.025461,0,0,0,0.044573,0.010908,0.016644,17.788,0.024042,0.031195,1.3831e-06,0.02,0.08,0
0.00094914,0.00079458,0.041938,0.012244,0.016255,0.0095989,0,0,0.033389,-0.0052139,0,0.024957,0,0,0,0.044771,0.0094113,0.016255,16.442,0.023479,0.032483,1.5003e-06,0.03,0.08,0
0.0012887,0.0010708,0.042348,0.010489,0.015851,0.0091814,0,0,0.034446,-0.0069712,0,0.023872,0,0,0,0.044805,0.0080321,0.015851,14.979,0.022896,0.033553,1.5907e-06,0.04,0.08,0
0.0016381,0.0013449,0.042628,0.0088804,0.015452,0.0085916,0,0,0.035328,-0.0085437,0,0.022338,0,0,0,0.044689,0.0068191,0.015452,13.492,0.02232,0.034376,1.6512e-06,0.05,0.08,0
0.0019953,0.0016131,0.042766,0.0074702,0.015071,0.0078939,0,0,0.036004,-0.0098809,0,0.020524,0,0,0,0.044451,0.0057851,0.015071,12.05,0.021769,0.03496,1.6838e-06,0.06,0.08,0
0.0023581,0.0018729,0.042772,0.0062698,0.014712,0.0071485,0,0,0.036477,-0.010975,0,0.018586,0,0,0,0.044122,0.0049198,0.014712,10.694,0.021251,0.035339,1.6934e-06,0.07,0.08,0
0.0027248,0.0021227,0.042667,0.005267,0.01438,0.0064016,0,0,0.036773,-0.011847,0,0.016644,0,0,0,0.043733,0.0042016,0.01438,9.4488,0.020771,0.035552,1.686e-06,0.08,0.08,0
0.0030936,0.0023618,0.042479,0.0044377,0.014075,0.0056841,0,0,0.036925,-0.012528,0,0.014779,0,0,0,0.04331,0.0036066,0.014075,8.3191,0.020331,0.035642,1.6669e-06,0.09,0.08,0
0.0034633,0.0025898,0.042233,0.003755,0.013796,0.0050137,0,0,0.036968,-0.013054,0,0.013036,0,0,0,0.042876,0.0031125,0.013796,7.3031,0.019928,0.035643,1.6406e-06,0.1,0.08,0
0.003833,0.002807,0.041953,0.0031933,0.013544,0.0043985,0,0,0.036932,-0.013456,0,0.011436,0,0,0,0.042446,0.0027004,0.013544,6.3937,0.019563,0.035585,1.6105e-06,0.11,0.08,0
0.0042019,0.0030137,0.041655,0.0027301,0.013316,0.0038407,0,0,0.036842,-0.013761,0,0.0099857,0,0,0,0.042031,0.0023548,0.013316,5.5815,0.019234,0.035488,1.5789e-06,0.12,0.08,0
0.0045698,0.0032105,0.041353,0.0023468,0.01311,0.0033385,0,0,0.036716,-0.013992,0,0.0086801,0,0,0,0.041637,0.0020632,0.01311,4.8568,0.018937,0.035369,1.5475e-06,0.13,0.08,0
0.0049363,0.0033979,0.041056,0.002028,0.012925,0.0028884,0,0,0.03657,-0.014167,0,0.0075099,0,0,0,0.041269,0.0018154,0.012925,4.2098,0.01867,0.035238,1.5171e-06,0.14,0.08,0
0.0053012,0.0035767,0.04077,0.0017613,0.01276,0.0024861,0,0,0.036414,-0.014298,0,0.0064638,0,0,0,0.040928,0.0016035,0.01276,3.6319,0.01843,0.035102,1.4885e-06,0.15,0.08,0
0.0056645,0.0037474,0.040499,0.0015369,0.012611,0.0021269,0,0,0.036255,-0.014396,0,0.0055298,0,0,0,0.040615,0.0014211,0.012611,3.1153,0.018216,0.034969,1.4619e-06,0.16,0.08,0
0.0060263,0.0039107,0.040245,0.0013468,0.012478,0.0018062,0,0,0.036098,-0.01447,0,0.0046962,0,0,0,0.040329,0.0012631,0.012478,2.6529,0.018023,0.03484,1.4375e-06,0.17,0.08,0
0.0063865,0.0040671,0.040009,0.0011846,0.012358,0.0015201,0,0,0.035946,-0.014526,0,0.0039524,0,0,0,0.040069,0.0011252,0.012358,2.2388,0.017851,0.034718,1.4152e-06,0.18,0.08,0
0.0067452,0.0042172,0.039792,0.0010455,0.012251,0.0012648,0,0,0.035803,-0.014567,0,0.0032886,0,0,0,0.039833,0.0010042,0.012251,1.8677,0.017696,0.034604,1.395e-06,0.19,0.08,0
0.0071026,0.0043617,0.039592,0.00092508,0.012155,0.001037,0,0,0.035668,-0.014599,0,0.0026963,0,0,0,0.03962,0.00089728,0.012155,1.5352,0.017557,0.0345,1.3768e-06,0.2,0.08,0
0.0074586,0.0045009,0.039409,0.00082021,0.012069,0.00083386,0,0,0.035542,-0.014623,0,0.002168,0,0,0,0.039427,0.0008022,0.012069,1.2373,0.017433,0.034404,1.3604e-06,0.21,0.08,0
0.0078134,0.0046355,0.039242,0.00072814,0.011991,0.00065287,0,0,0.035427,-0.014642,0,0.0016975,0,0,0,0.039253,0.00071707,0.011991,0.97087,0.01732,0.034318,1.3456e-06,0.22,0.08,0
0.0081671,0.0047659,0.03909,0.00064662,0.011921,0.00049194,0,0,0.03532,-0.014657,0,0.001279,0,0,0,0.039096,0.00064032,0.011921,0.73303,0.017219,0.034239,1.3324e-06,0.23,0.08,0
0.0085198,0.0048925,0.038951,0.00057379,0.011857,0.00034931,0,0,0.035222,-0.014669,0,0.0009082,0,0,0,0.038954,0.00057061,0.011857,0.52145,0.017128,0.034168,1.3205e-06,0.24,0.08,0
0.0088716,0.0050159,0.038824,0.00050808,0.0118,0.00022349,0,0,0.035132,-0.014679,0,0.00058107,0,0,0,0.038825,0.00050677,0.0118,0.33418,0.017044,0.034104,1.3098e-06,0.25,0.08,0
0.0092224,0.0051365,0.038707,0.00044812,0.011747,0.00011328,0,0,0.035049,-0.014688,0,0.00029452,0,0,0,0.038707,0.00044778,0.011747,0.16964,0.016967,0.034047,1.3e-06,0.26,0.08,0
0.0095725,0.0052547,0.038599,0.00039271,0.011697,1.7729e-05,0,0,0.034972,-0.014696,0,4.6095e-05,0,0,0,0.038599,0.0003927,0.011697,0.026587,0.016896,0.033994,1.2911e-06,0.27,0.08,0
0.0099219,0.005371,0.038498,0.00034077,0.011652,-6.3864e-05,0,0,0.0349,-0.014704,0,-0.00016605,0,0,0,0.038498,0.00034066,0.011652,-0.095896,0.01683,0.033946,1.2829e-06,0.28,0.08,0
0.010271,0.0054858,0.038402,0.00029126,0.011608,-0.00013197,0,0,0.034833,-0.014712,0,-0.00034312,0,0,0,0.038403,0.0002908,0.011608,-0.1984,0.016767,0.033901,1.2752e-06,0.29,0.08,0
0.010618,0.0055995,0.038311,0.00024318,0.011566,-0.00018683,0,0,0.034768,-0.01472,0,-0.00048575,0,0,0,0.038311,0.00024227,0.011566,-0.28119,0.016707,0.033859,1.2678e-06,0.3,0.08,0
0.010966,0.0057126,0.038221,0.0001955,0.011525,-0.00022842,0,0,0.034705,-0.014728,0,-0.0005939,0,0,0,0.038222,0.00019413,0.011525,-0.34416,0.016647,0.033818,1.2607e-06,0.31,0.08,0
0.011313,0.0058256,0.038132,0.00014708,0.011484,-0.00025649,0,0,0.034643,-0.014738,0,-0.00066687,0,0,0,0.038134,0.00014535,0.011484,-0.38686,0.016588,0.033778,1.2537e-06,0.32,0.08,0
0.011659,0.0059388,0.038041,9.6669e-05,0.011442,-0.00027047,0,0,0.03458,-0.014748,0,-0.00070323,0,0,0,0.038043,9.4742e-05,0.011442,-0.40838,0.016526,0.033738,1.2466e-06,0.33,0.08,0
0.012004,0.0060528,0.037948,4.2757e-05,0.011397,-0.00026951,0,0,0.034516,-0.014761,0,-0.00070072,0,0,0,0.03795,4.0841e-05,0.011397,-0.40735,0.016463,0.033698,1.2393e-06,0.34,0.08,0
0.012349,0.006168,0.03785,-1.6484e-05,0.01135,-0.00025237,0,0,0.03445,-0.014776,0,-0.00065616,0,0,0,0.037851,-1.8166e-05,0.01135,-0.38184,0.016394,0.033657,1.2317e-06,0.35,0.08,0
0.012693,0.006285,0.037745,-8.3359e-05,0.011298,-0.00021742,0,0,0.03438,-0.014796,0,-0.0005653,0,0,0,0.037746,-8.4609e-05,0.011298,-0.3293,0.01632,0.033617,1.2238e-06,0.36,0.08,0
0.013037,0.0064044,0.037632,-0.00016083,0.011241,-0.00016258,0,0,0.034308,-0.014823,0,-0.00042272,0,0,0,0.037632,-0.00016153,0.011241,-0.24648,0.016237,0.033578,1.2154e-06,0.37,0.08,0
0.013379,0.0065266,0.03751,-0.00025278,0.011177,-8.5287e-05,0,0,0.034232,-0.014859,0,-0.00022174,0,0,0,0.03751,-0.00025297,0.011177,-0.1294,0.016145,0.033542,1.2067e-06,0.38,0.08,0
0.013721,0.0066524,0.037377,-0.00036432,0.011104,1.7523e-05,0,0,0.034155,-0.014909,0,4.5559e-05,0,0,0,0.037377,-0.00036433,0.011104,0.026601,0.016039,0.033513,1.1977e-06,0.39,0.08,0
0.014063,0.0067824,0.037235,-0.00050228,0.01102,0.00014929,0,0,0.03408,-0.014979,0,0.00038814,0,0,0,0.037236,-0.00050287,0.01102,0.22665,0.015918,0.033498,1.1888e-06,0.4,0.08,0
0.014403,0.0069172,0.037086,-0.00067574,0.010923,0.00031357,0,0,0.034011,-0.015078,0,0.00081529,0,0,0,0.037088,-0.00067834,0.010923,0.47574,0.015777,0.033508,1.1804e-06,0.41,0.08,0
0.014743,0.0070576,0.036931,-0.00089667,0.01081,0.00051351,0,0,0.033957,-0.015219,0,0.0013351,0,0,0,0.036938,-0.00090364,0.01081,0.77759,0.015615,0.033555,1.1734e-06,0.42,0.08,0
0.015082,0.0072043,0.036779,-0.0011806,0.01068,0.00075071,0,0,0.03393,-0.015418,0,0.0019518,0,0,0,0.036794,-0.0011954,0.01068,1.1325,0.015426,0.033661,1.1689e-06,0.43,0.08,0
0.015421,0.0073578,0.036638,-0.0015468,0.010528,0.0010235,0,0,0.033944,-0.015697,0,0.0026612,0,0,0,0.036666,-0.0015742,0.010528,1.5343,0.015206,0.033853,1.1682e-06,0.44,0.08,0
0.015761,0.0075187,0.036521,-0.0020177,0.010351,0.0013246,0,0,0.034021,-0.016079,0,0.0034439,0,0,0,0.036567,-0.0020631,0.010351,1.9662,0.014951,0.034159,1.1731e-06,0.45,0.08,0
0.016102,0.007687,0.036439,-0.0026156,0.010147,0.001638,0,0,0.03418,-0.016592,0,0.0042588,0,0,0,0.036508,-0.0026842,0.010147,2.3974,0.014657,0.034609,1.1849e-06,0.46,0.08,0
0.016445,0.0078624,0.036403,-0.003357,0.0099138,0.0019378,0,0,0.034436,-0.017252,0,0.0050383,0,0,0,0.036497,-0.0034512,0.0099138,2.7837,0.01432,0.035222,1.204e-06,0.47,0.08,0
0.01679,0.0080441,0.036414,-0.0042433,0.0096512,0.0021892,0,0,0.034792,-0.018063,0,0.005692,0,0,0,0.036532,-0.0043609,0.0096512,3.0733,0.013941,0.035994,1.2296e-06,0.48,0.08,0
0.01714,0.0082303,0.036464,-0.0052518,0.0093638,0.0023548,0,0,0.035231,-0.019,0,0.0061226,0,0,0,0.036597,-0.0053843,0.0093638,3.2207,0.013525,0.036889,1.2589e-06,0.49,0.08,0
0.017495,0.0084186,0.036482,-0.00085761,0.010687,0.0024098,0,0,0.049333,-0.020011,0,0.0093903,0,0,0,0.03664,-0.0010155,0.010687,3.7506,0.015437,0.033449,1.1161e-06,0.5,0.08,0
0.018127,0.0086691,0.036619,0.0040035,0.012187,0.0023653,0,0,0.063524,-0.021276,0,0.012299,0,0,0,0.03679,0.0038328,0.012187,4.1263,0.017603,0.029675,9.922e-07,0.51,0.08,0
0.018766,0.0089154,0.036685,0.003367,0.012016,0.0022479,0,0,0.06414,-0.022486,0,0.011689,0,0,0,0.036836,0.003216,0.012016,3.8424,0.017356,0.030197,1.0199e-06,0.52,0.08,0
0.01941,0.0091546,0.036725,0.002786,0.011853,0.0020751,0,0,0.064666,-0.023575,0,0.01079,0,0,0,0.036851,0.0026596,0.011853,3.4859,0.017121,0.030647,1.0422e-06,0.53,0.08,0
0.020059,0.0093844,0.036733,0.0022793,0.011704,0.0018655,0,0,0.065077,-0.024504,0,0.0097004,0,0,0,0.036834,0.0021786,0.011704,3.0902,0.016905,0.03101,1.0585e-06,0.54,0.08,0
0.020711,0.0096033,0.036709,0.001853,0.011569,0.0016386,0,0,0.065366,-0.025261,0,0.0085208,0,0,0,0.036786,0.0017762,0.011569,2.6856,0.01671,0.031285,1.0689e-06,0.55,0.08,0
0.021366,0.0098104,0.036658,0.0015033,0.011448,0.001411,0,0,0.065545,-0.025857,0,0.0073373,0,0,0,0.036715,0.0014467,0.011448,2.2948,0.016537,0.031482,1.0742e-06,0.56,0.08,0
0.022022,0.010005,0.036586,0.0012206,0.011342,0.0011942,0,0,0.065634,-0.026316,0,0.0062101,0,0,0,0.036626,0.0011803,0.011342,1.9319,0.016383,0.031615,1.0756e-06,0.57,0.08,0
0.022679,0.010188,0.0365,0.00099372,0.011248,0.00099508,0,0,0.065656,-0.026662,0,0.0051744,0,0,0,0.036528,0.00096586,0.011248,1.604,0.016248,0.031698,1.0743e-06,0.58,0.08,0
0.023335,0.01036,0.036409,0.00081202,0.011166,0.00081646,0,0,0.065631,-0.026921,0,0.0042456,0,0,0,0.036428,0.00079331,0.011166,1.3132,0.016129,0.031745,1.0712e-06,0.59,0.08,0
0.023991,0.01052,0.036316,0.00066617,0.011095,0.00065887,0,0,0.065576,-0.027114,0,0.0034261,0,0,0,0.036328,0.000654,0.011095,1.0584,0.016026,0.031768,1.067e-06,0.6,0.08,0
0.024647,0.01067,0.036226,0.00054855,0.011033,0.00052134,0,0,0.065504,-0.027258,0,0.002711,0,0,0,0.036234,0.00054094,0.011033,0.83699,0.015936,0.031774,1.0624e-06,0.61,0.08,0
0.025302,0.010811,0.036142,0.00045313,0.010978,0.00040217,0,0,0.065424,-0.027366,0,0.0020913,0,0,0,0.036146,0.0004486,0.010978,0.64554,0.015858,0.03177,1.0577e-06,0.62,0.08,0
0.025955,0.010942,0.036064,0.00037517,0.010932,0.00029942,0,0,0.065343,-0.027447,0,0.001557,0,0,0,0.036066,0.00037266,0.010932,0.48065,0.01579,0.031759,1.0531e-06,0.63,0.08,0
0.026608,0.011065,0.035993,0.00031101,0.010891,0.00021115,0,0,0.065265,-0.027509,0,0.001098,0,0,0,0.035995,0.00030977,0.010891,0.33903,0.015732,0.031746,1.0488e-06,0.64,0.08,0
0.027261,0.01118,0.035931,0.00025781,0.010856,0.00013553,0,0,0.065193,-0.027557,0,0.00070477,0,0,0,0.035931,0.0002573,0.010856,0.21768,0.015682,0.031731,1.0449e-06,0.65,0.08,0
0.027912,0.011287,0.035875,0.00021337,0.010827,7.0941e-05,0,0,0.065127,-0.027595,0,0.00036889,0,0,0,0.035876,0.00021323,0.010827,0.11398,0.015638,0.031717,1.0415e-06,0.66,0.08,0
0.028563,0.011388,0.035827,0.00017598,0.010801,1.5934e-05,0,0,0.065069,-0.027625,0,8.2855e-05,0,0,0,0.035827,0.00017597,0.010801,0.025607,0.015602,0.031704,1.0385e-06,0.67,0.08,0
0.029214,0.011482,0.035786,0.00014429,0.010779,-3.0737e-05,0,0,0.065018,-0.027651,0,-0.00015983,0,0,0,0.035786,0.00014427,0.010779,-0.049411,0.01557,0.031692,1.0359e-06,0.68,0.08,0
0.029864,0.01157,0.035751,0.00011727,0.01076,-7.0146e-05,0,0,0.064976,-0.027672,0,-0.00036476,0,0,0,0.035751,0.00011713,0.01076,-0.11279,0.015543,0.031683,1.0337e-06,0.69,0.08,0
0.030513,0.011652,0.035722,9.4075e-05,0.010745,-0.00010322,0,0,0.06494,-0.027692,0,-0.00053672,0,0,0,0.035722,9.3776e-05,0.010745,-0.16599,0.01552,0.031676,1.0319e-06,0.7,0.08,0
0.031162,0.01173,0.035698,7.4052e-05,0.010731,-0.00013074,0,0,0.064912,-0.027709,0,-0.00067984,0,0,0,0.035698,7.3572e-05,0.010731,-0.21027,0.015501,0.03167,1.0304e-06,0.71,0.08,0
0.031811,0.011802,0.035678,5.6672e-05,0.01072,-0.00015339,0,0,0.06489,-0.027726,0,-0.00079764,0,0,0,0.035679,5.6012e-05,0.01072,-0.24672,0.015485,0.031667,1.0293e-06,0.72,0.08,0
0.03246,0.011869,0.035663,4.151e-05,0.010711,-0.00017176,0,0,0.064874,-0.027741,0,-0.00089315,0,0,0,0.035664,4.0682e-05,0.010711,-0.27626,0.015472,0.031666,1.0285e-06,0.73,0.08,0
0.033109,0.011932,0.035651,2.8222e-05,0.010704,-0.00018634,0,0,0.064863,-0.027756,0,-0.00096898,0,0,0,0.035652,2.7247e-05,0.010704,-0.2997,0.015461,0.031666,1.0279e-06,0.74,0.08,0
0.033757,0.011991,0.035642,1.6525e-05,0.010698,-0.00019757,0,0,0.064856,-0.027771,0,-0.0010274,0,0,0,0.035643,1.543e-05,0.010698,-0.31774,0.015452,0.031668,1.0275e-06,0.75,0.08,0
0.034406,0.012046,0.035637,6.1915e-06,0.010693,-0.00020583,0,0,0.064854,-0.027785,0,-0.0010703,0,0,0,0.035638,5.0025e-06,0.010693,-0.33098,0.015445,0.031672,1.0273e-06,0.76,0.08,0
0.035055,0.012097,0.035633,-2.9703e-06,0.010689,-0.00021144,0,0,0.064855,-0.027799,0,-0.0010995,0,0,0,0.035635,-4.2248e-06,0.010689,-0.33994,0.01544,0.031676,1.0273e-06,0.77,0.08,0
0.035703,0.012145,0.035632,-1.1118e-05,0.010686,-0.00021469,0,0,0.064859,-0.027813,0,-0.0011164,0,0,0,0.035633,-1.2411e-05,0.010686,-0.34509,0.015436,0.031682,1.0275e-06,0.78,0.08,0
0.036352,0.01219,0.035633,-1.8382e-05,0.010684,-0.00021582,0,0,0.064866,-0.027827,0,-0.0011223,0,0,0,0.035634,-1.9688e-05,0.010684,-0.34684,0.015433,0.031688,1.0278e-06,0.79,0.08,0
0.037,0.012231,0.035635,-2.4873e-05,0.010683,-0.00021507,0,0,0.064875,-0.027841,0,-0.0011183,0,0,0,0.035636,-2.617e-05,0.010683,-0.34554,0.015431,0.031695,1.0282e-06,0.8,0.08,0
0.037649,0.012269,0.035638,-3.0684e-05,0.010682,-0.00021261,0,0,0.064886,-0.027854,0,-0.0011056,0,0,0,0.03564,-3.1951e-05,0.010682,-0.34151,0.01543,0.031703,1.0287e-06,0.81,0.08,0
0.038298,0.012305,0.035643,-3.5893e-05,0.010682,-0.00020864,0,0,0.064898,-0.027867,0,-0.0010849,0,0,0,0.035644,-3.7113e-05,0.010682,-0.33503,0.01543,0.031711,1.0292e-06,0.82,0.08,0
0.038947,0.012338,0.035648,-4.0567e-05,0.010682,-0.00020329,0,0,0.064911,-0.027879,0,-0.0010571,0,0,0,0.035649,-4.1725e-05,0.010682,-0.32636,0.01543,0.031719,1.0298e-06,0.83,0.08,0
0.039596,0.012368,0.035654,-4.4762e-05,0.010683,-0.00019672,0,0,0.064925,-0.027892,0,-0.0010229,0,0,0,0.035655,-4.5846e-05,0.010683,-0.31572,0.015431,0.031728,1.0304e-06,0.84,0.08,0
0.040246,0.012396,0.03566,-4.8526e-05,0.010684,-0.00018904,0,0,0.06494,-0.027903,0,-0.00098299,0,0,0,0.035661,-4.9527e-05,0.010684,-0.3033,0.015432,0.031736,1.0311e-06,0.85,0.08,0
0.040895,0.012422,0.035667,-5.1902e-05,0.010684,-0.00018036,0,0,0.064954,-0.027915,0,-0.00093789,0,0,0,0.035668,-5.2813e-05,0.010684,-0.28931,0.015433,0.031744,1.0317e-06,0.86,0.08,0
0.041545,0.012446,0.035673,-5.4925e-05,0.010686,-0.0001708,0,0,0.064969,-0.027925,0,-0.00088815,0,0,0,0.035674,-5.5741e-05,0.010686,-0.27389,0.015435,0.031753,1.0324e-06,0.87,0.08,0
0.042195,0.012467,0.03568,-5.7625e-05,0.010687,-0.00016044,0,0,0.064983,-0.027935,0,-0.00083427,0,0,0,0.035681,-5.8345e-05,0.010687,-0.25721,0.015436,0.03176,1.033e-06,0.88,0.08,0
0.042844,0.012487,0.035687,-6.0029e-05,0.010688,-0.00014936,0,0,0.064997,-0.027945,0,-0.00077668,0,0,0,0.035687,-6.0653e-05,0.010688,-0.23939,0.015438,0.031768,1.0337e-06,0.89,0.08,0
0.043494,0.012504,0.035693,-6.2159e-05,0.010689,-0.00013766,0,0,0.06501,-0.027954,0,-0.00071581,0,0,0,0.035694,-6.2689e-05,0.010689,-0.22058,0.01544,0.031775,1.0343e-06,0.9,0.08,0
0.044145,0.01252,0.035699,-6.4036e-05,0.010691,-0.00012539,0,0,0.065022,-0.027962,0,-0.00065203,0,0,0,0.035699,-6.4475e-05,0.010691,-0.20088,0.015442,0.031782,1.0348e-06,0.91,0.08,0
0.044795,0.012533,0.035705,-6.5675e-05,0.010692,-0.00011263,0,0,0.065033,-0.027969,0,-0.0005857,0,0,0,0.035705,-6.6029e-05,0.010692,-0.18041,0.015444,0.031788,1.0353e-06,0.92,0.08,0
0.045445,0.012545,0.03571,-6.709e-05,0.010693,-9.9452e-05,0,0,0.065044,-0.027976,0,-0.00051715,0,0,0,0.03571,-6.7367e-05,0.010693,-0.15927,0.015445,0.031793,1.0358e-06,0.93,0.08,0
0.046096,0.012556,0.035714,-6.8295e-05,0.010694,-8.5903e-05,0,0,0.065053,-0.027981,0,-0.00044669,0,0,0,0.035714,-6.8501e-05,0.010694,-0.13755,0.015447,0.031798,1.0363e-06,0.94,0.08,0
0.046746,0.012564,0.035718,-6.9298e-05,0.010695,-7.2046e-05,0,0,0.065061,-0.027986,0,-0.00037464,0,0,0,0.035718,-6.9443e-05,0.010695,-0.11535,0.015448,0.031802,1.0366e-06,0.95,0.08,0
0.047397,0.012571,0.035721,-7.0108e-05,0.010695,-5.7936e-05,0,0,0.065067,-0.02799,0,-0.00030126,0,0,0,0.035721,-7.0202e-05,0.010695,-0.092745,0.015449,0.031806,1.0369e-06,0.96,0.08,0
0.048048,0.012577,0.035724,-7.0731e-05,0.010696,-4.3625e-05,0,0,0.065073,-0.027993,0,-0.00022685,0,0,0,0.035724,-7.0784e-05,0.010696,-0.06983,0.01545,0.031809,1.0372e-06,0.97,0.08,0
0.048698,0.012581,0.035726,-7.1173e-05,0.010696,-2.9165e-05,0,0,0.065076,-0.027995,0,-0.00015166,0,0,0,0.035726,-7.1197e-05,0.010696,-0.046682,0.01545,0.031811,1.0373e-06,0.98,0.08,0
0.049349,0.012583,0.035727,-7.1437e-05,0.010697,-1.4607e-05,0,0,0.065078,-0.027997,0,-7.5958e-05,0,0,0,0.035727,-7.1443e-05,0.010697,-0.023379,0.015451,0.031812,1.0374e-06,0.99,0.08,0
0.05,0.012584,0.035727,-7.1525e-05,0.010697,1.4853e-05,0,0,0.065079,-0.027997,0,7.7236e-05,0,0,0,0.035727,-7.1531e-05,0.010697,0.023772,0.015451,0.031812,1.0375e-06,1,0.08,0
0,0,0.040163,0.017213,0.017213,0.0092108,0,0,0.029836,1.6263e-19,0,0.023948,0,0,0,0.043403,0.013973,0.017213,19.376,0.024863,0.027951,1.0709e-06,0,0.09,0
0.00029836,0.00023948,0.040041,0.015609,0.016695,0.0091857,0,0,0.03035,-0.0014116,0,0.023883,0,0,0,0.043109,0.012541,0.016695,18.471,0.024115,0.028717,1.131e-06,0.01,0.09,0
0.000607,0.00048928,0.040549,0.014107,0.016397,0.0092475,0,0,0.031398,-0.0029766,0,0.024043,0,0,0,0.043462,0.011194,0.016397,17.485,0.023685,0.030007,1.2482e-06,0.02,0.09,0
0.00092632,0.0007459,0.041027,0.012528,0.016067,0.0091226,0,0,0.032449,-0.0046003,0,0.023719,0,0,0,0.043697,0.009858,0.016067,16.314,0.023207,0.031202,1.3543e-06,0.03,0.09,0
0.001256,0.0010055,0.041439,0.010963,0.015721,0.0088168,0,0,0.033433,-0.0061842,0,0.022924,0,0,0,0.043806,0.0085965,0.015721,15.027,0.022708,0.032243,1.4423e-06,0.04,0.09,0
0.001595,0.0012643,0.041754,0.0094894,0.015373,0.0083601,0,0,0.034296,-0.0076489,0,0.021736,0,0,0,0.043792,0.0074519,0.015373,13.697,0.022206,0.033098,1.5088e-06,0.05,0.09,0
0.0019419,0.0015193,0.041961,0.008154,0.015034,0.0077952,0,0,0.035004,-0.0089447,0,0.020267,0,0,0,0.043672,0.0064432,0.015034,12.379,0.021716,0.033763,1.5536e-06,0.06,0.09,0
0.0022951,0.001768,0.042058,0.0069791,0.014711,0.0071668,0,0,0.035551,-0.010052,0,0.018634,0,0,0,0.043466,0.0055714,0.014711,11.113,0.021249,0.034251,1.579e-06,0.07,0.09,0
0.0026529,0.0020088,0.042056,0.0059664,0.014407,0.0065138,0,0,0.035944,-0.010972,0,0.016936,0,0,0,0.043196,0.0048267,0.014407,9.9243,0.02081,0.034589,1.5885e-06,0.08,0.09,0
0.003014,0.0022406,0.041972,0.0051047,0.014123,0.0058655,0,0,0.036204,-0.011724,0,0.01525,0,0,0,0.042883,0.004194,0.014123,8.8254,0.0204,0.034803,1.5858e-06,0.09,0.09,0
0.003377,0.0024629,0.041826,0.0043773,0.013861,0.005242,0,0,0.036354,-0.012329,0,0.013629,0,0,0,0.042546,0.0036573,0.013861,7.8201,0.020021,0.034923,1.5744e-06,0.1,0.09,0
0.003741,0.0026756,0.041635,0.0037654,0.01362,0.0046553,0,0,0.036419,-0.012811,0,0.012104,0,0,0,0.042198,0.0032015,0.01362,6.9065,0.019673,0.034972,1.5573e-06,0.11,0.09,0
0.0041054,0.0028789,0.041414,0.003251,0.0134,0.0041116,0,0,0.036419,-0.013193,0,0.01069,0,0,0,0.041852,0.0028131,0.0134,6.0799,0.019355,0.034969,1.5367e-06,0.12,0.09,0
0.0044694,0.003073,0.041178,0.0028181,0.013199,0.0036128,0,0,0.036373,-0.013495,0,0.0093934,0,0,0,0.041515,0.0024808,0.013199,5.3338,0.019065,0.034931,1.5143e-06,0.13,0.09,0
0.0048328,0.0032584,0.040935,0.0024527,0.013016,0.0031587,0,0,0.036294,-0.013733,0,0.0082125,0,0,0,0.041192,0.0021951,0.013016,4.6613,0.018801,0.034869,1.4914e-06,0.14,0.09,0
0.0051953,0.0034355,0.040692,0.002143,0.012851,0.0027471,0,0,0.036194,-0.01392,0,0.0071423,0,0,0,0.040887,0.0019483,0.012851,4.0557,0.018562,0.034793,1.4687e-06,0.15,0.09,0
0.0055567,0.003605,0.040455,0.0018795,0.0127,0.0023753,0,0,0.036081,-0.014067,0,0.0061757,0,0,0,0.0406,0.0017338,0.0127,3.5103,0.018345,0.034708,1.4469e-06,0.16,0.09,0
0.0059169,0.0037673,0.040226,0.001654,0.012564,0.0020402,0,0,0.035961,-0.014183,0,0.0053044,0,0,0,0.040334,0.0015464,0.012564,3.0192,0.018148,0.03462,1.4261e-06,0.17,0.09,0
0.0062759,0.003923,0.04001,0.00146,0.012441,0.0017387,0,0,0.035839,-0.014275,0,0.0045205,0,0,0,0.040088,0.0013817,0.012441,2.5772,0.01797,0.034531,1.4066e-06,0.18,0.09,0
0.0066337,0.0040726,0.039805,0.0012921,0.012329,0.0014677,0,0,0.035719,-0.014348,0,0.0038161,0,0,0,0.039861,0.0012362,0.012329,2.1793,0.017809,0.034445,1.3885e-06,0.19,0.09,0
0.0069903,0.0042166,0.039613,0.0011458,0.012228,0.0012246,0,0,0.035601,-0.014406,0,0.0031839,0,0,0,0.039652,0.0011068,0.012228,1.8215,0.017662,0.034362,1.3718e-06,0.2,0.09,0
0.0073457,0.0043555,0.039434,0.0010174,0.012135,0.0010068,0,0,0.035488,-0.014453,0,0.0026176,0,0,0,0.03946,0.00099106,0.012135,1.5002,0.017529,0.034284,1.3563e-06,0.21,0.09,0
0.0077,0.0044897,0.039267,0.00090401,0.012051,0.00081207,0,0,0.03538,-0.014491,0,0.0021114,0,0,0,0.039284,0.00088683,0.012051,1.2121,0.017407,0.03421,1.3422e-06,0.22,0.09,0
0.0080533,0.0046199,0.039112,0.00080299,0.011974,0.00063853,0,0,0.035279,-0.014523,0,0.0016602,0,0,0,0.039122,0.00079235,0.011974,0.95465,0.017296,0.034141,1.3292e-06,0.23,0.09,0
0.0084056,0.0047464,0.038967,0.00071221,0.011904,0.00048451,0,0,0.035182,-0.014549,0,0.0012597,0,0,0,0.038973,0.00070607,0.011904,0.72551,0.017195,0.034077,1.3173e-06,0.24,0.09,0
0.008757,0.0048696,0.038832,0.00062981,0.011839,0.00034862,0,0,0.035092,-0.014571,0,0.00090641,0,0,0,0.038836,0.00062663,0.011839,0.5228,0.0171,0.034018,1.3063e-06,0.25,0.09,0
0.0091075,0.0049901,0.038706,0.00055419,0.011778,0.00022972,0,0,0.035006,-0.014591,0,0.00059728,0,0,0,0.038707,0.00055281,0.011778,0.34498,0.017013,0.033963,1.2961e-06,0.26,0.09,0
0.0094571,0.0051081,0.038587,0.00048392,0.011721,0.00012692,0,0,0.034925,-0.014608,0,0.00032998,0,0,0,0.038587,0.0004835,0.011721,0.19084,0.016931,0.033911,1.2866e-06,0.27,0.09,0
0.009806,0.0052243,0.038474,0.00041768,0.011667,3.9539e-05,0,0,0.034848,-0.014625,0,0.0001028,0,0,0,0.038474,0.00041764,0.011667,0.059529,0.016853,0.033863,1.2776e-06,0.28,0.09,0
0.010154,0.005339,0.038365,0.00035421,0.011616,-3.2846e-05,0,0,0.034774,-0.01464,0,-8.5399e-05,0,0,0,0.038365,0.00035418,0.011616,-0.049511,0.016778,0.033817,1.2691e-06,0.29,0.09,0
0.010501,0.0054526,0.038259,0.00029227,0.011565,-9.0441e-05,0,0,0.034702,-0.014655,0,-0.00023514,0,0,0,0.038259,0.00029206,0.011565,-0.13648,0.016706,0.033772,1.2608e-06,0.3,0.09,0
0.010848,0.0055656,0.038155,0.00023059,0.011516,-0.00013321,0,0,0.034631,-0.014671,0,-0.00034634,0,0,0,0.038156,0.00023012,0.011516,-0.20124,0.016634,0.03373,1.2528e-06,0.31,0.09,0
0.011194,0.0056784,0.038051,0.00016778,0.011466,-0.00016086,0,0,0.034561,-0.014687,0,-0.00041822,0,0,0,0.038052,0.0001671,0.011466,-0.24327,0.016562,0.033688,1.2449e-06,0.32,0.09,0
0.011539,0.0057915,0.037946,0.00010229,0.011415,-0.00017283,0,0,0.034491,-0.014706,0,-0.00044935,0,0,0,0.037947,0.00010151,0.011415,-0.26165,0.016488,0.033647,1.2369e-06,0.33,0.09,0
0.011884,0.0059054,0.037839,3.2327e-05,0.011361,-0.00016827,0,0,0.034421,-0.014728,0,-0.0004375,0,0,0,0.03784,3.1578e-05,0.011361,-0.25501,0.016411,0.033607,1.2289e-06,0.34,0.09,0
0.012228,0.0060204,0.037728,-4.4299e-05,0.011305,-0.00014603,0,0,0.034349,-0.014754,0,-0.00037968,0,0,0,0.037728,-4.4864e-05,0.011305,-0.22151,0.01633,0.03357,1.2207e-06,0.35,0.09,0
0.012571,0.0061372,0.037611,-0.00013026,0.011244,-0.00010462,0,0,0.034277,-0.014787,0,-0.000272,0,0,0,0.037612,-0.00013055,0.011244,-0.15882,0.016242,0.033534,1.2123e-06,0.36,0.09,0
0.012913,0.0062562,0.03749,-0.00022892,0.011178,-4.2209e-05,0,0,0.034205,-0.014829,0,-0.00010974,0,0,0,0.03749,-0.00022897,0.011178,-0.064117,0.016146,0.033504,1.2039e-06,0.37,0.09,0
0.013255,0.006378,0.037361,-0.00034455,0.011105,4.3315e-05,0,0,0.034133,-0.014885,0,0.00011262,0,0,0,0.037361,-0.0003446,0.011105,0.065818,0.016041,0.033483,1.1955e-06,0.38,0.09,0
0.013596,0.0065032,0.037227,-0.00048261,0.011024,0.00015429,0,0,0.034065,-0.014958,0,0.00040116,0,0,0,0.037228,-0.00048324,0.011024,0.23442,0.015923,0.033476,1.1874e-06,0.39,0.09,0
0.013936,0.0066323,0.037089,-0.00065007,0.010932,0.00029308,0,0,0.034005,-0.015056,0,0.000762,0,0,0,0.037091,-0.00065234,0.010932,0.44491,0.01579,0.033489,1.1799e-06,0.4,0.09,0
0.014276,0.006766,0.036949,-0.00085579,0.010828,0.00046167,0,0,0.033957,-0.015189,0,0.0012003,0,0,0,0.036954,-0.00086142,0.010828,0.69956,0.01564,0.033536,1.1736e-06,0.41,0.09,0
0.014615,0.0069048,0.036811,-0.0011108,0.01071,0.00066108,0,0,0.033931,-0.015367,0,0.0017188,0,0,0,0.036822,-0.0011224,0.01071,0.99842,0.01547,0.033628,1.1693e-06,0.42,0.09,0
0.014955,0.0070492,0.036682,-0.0014286,0.010576,0.00089037,0,0,0.033938,-0.015606,0,0.002315,0,0,0,0.036703,-0.0014494,0.010576,1.3376,0.015276,0.033785,1.168e-06,0.43,0.09,0
0.015294,0.0071997,0.03657,-0.0018245,0.010424,0.0011453,0,0,0.03399,-0.015922,0,0.0029777,0,0,0,0.036604,-0.0018586,0.010424,1.707,0.015056,0.034027,1.1707e-06,0.44,0.09,0
0.015634,0.0073566,0.036483,-0.0023143,0.010251,0.0014166,0,0,0.034102,-0.016334,0,0.0036831,0,0,0,0.036535,-0.0023659,0.010251,2.0883,0.014807,0.034375,1.1787e-06,0.45,0.09,0
0.015976,0.0075197,0.036431,-0.0029119,0.010056,0.001689,0,0,0.034288,-0.016858,0,0.0043915,0,0,0,0.036504,-0.0029843,0.010056,2.4537,0.014525,0.034848,1.1925e-06,0.46,0.09,0
0.01632,0.0076886,0.036418,-0.0036244,0.0098381,0.0019409,0,0,0.034554,-0.017501,0,0.0050463,0,0,0,0.036512,-0.0037182,0.0098381,2.7685,0.014211,0.035452,1.2122e-06,0.47,0.09,0
0.016667,0.0078624,0.036444,-0.0044468,0.0095991,0.0021461,0,0,0.034898,-0.01826,0,0.0055798,0,0,0,0.036556,-0.0045591,0.0095991,2.9961,0.013865,0.036177,1.2367e-06,0.48,0.09,0
0.017018,0.0080397,0.0365,-0.0053581,0.0093426,0.0022786,0,0,0.035305,-0.019111,0,0.0059244,0,0,0,0.036624,-0.0054817,0.0093426,3.1067,0.013495,0.036993,1.2636e-06,0.49,0.09,0
0.017373,0.0082185,0.036526,-0.00084198,0.010705,0.0023217,0,0,0.049373,-0.020015,0,0.009044,0,0,0,0.036672,-0.00098849,0.010705,3.6123,0.015463,0.033456,1.1186e-06,0.5,0.09,0
0.018006,0.0084571,0.036654,0.0040839,0.012221,0.0022841,0,0,0.063524,-0.021157,0,0.011877,0,0,0,0.036813,0.0039245,0.012221,3.992,0.017653,0.029625,9.9064e-07,0.51,0.09,0
0.018644,0.0086918,0.036722,0.0035073,0.012069,0.0021871,0,0,0.064099,-0.02226,0,0.011373,0,0,0,0.036866,0.0033639,0.012069,3.7512,0.017433,0.030108,1.0168e-06,0.52,0.09,0
0.019288,0.0089205,0.036771,0.0029707,0.011923,0.0020436,0,0,0.064606,-0.023275,0,0.010627,0,0,0,0.036894,0.0028476,0.011923,3.4473,0.017222,0.030538,1.0389e-06,0.53,0.09,0
0.019936,0.0091412,0.036795,0.0024899,0.011786,0.0018661,0,0,0.065025,-0.024169,0,0.0097038,0,0,0,0.036896,0.0023887,0.011786,3.1045,0.017024,0.0309,1.0563e-06,0.54,0.09,0
0.020588,0.0093525,0.036793,0.0020724,0.011659,0.001669,0,0,0.065346,-0.024927,0,0.008679,0,0,0,0.036873,0.0019923,0.011659,2.7458,0.016841,0.031191,1.0687e-06,0.55,0.09,0
0.021243,0.0095534,0.036765,0.0017182,0.011545,0.0014654,0,0,0.065573,-0.02555,0,0.0076202,0,0,0,0.036827,0.0016571,0.011545,2.3901,0.016676,0.031415,1.0767e-06,0.56,0.09,0
0.0219,0.0097435,0.036718,0.0014227,0.011442,0.0012655,0,0,0.065717,-0.026051,0,0.0065808,0,0,0,0.036763,0.0013774,0.011442,2.0509,0.016528,0.03158,1.081e-06,0.57,0.09,0
0.022557,0.0099228,0.036656,0.0011785,0.01135,0.0010764,0,0,0.065795,-0.026447,0,0.0055975,0,0,0,0.036688,0.0011458,0.01135,1.7363,0.016395,0.031697,1.0824e-06,0.58,0.09,0
0.023216,0.010091,0.036584,0.00097768,0.011269,0.00090222,0,0,0.065821,-0.026756,0,0.0046916,0,0,0,0.036607,0.00095483,0.011269,1.4506,0.016277,0.031776,1.0817e-06,0.59,0.09,0
0.023874,0.01025,0.036508,0.00081278,0.011196,0.00074472,0,0,0.06581,-0.026997,0,0.0038726,0,0,0,0.036523,0.00079725,0.011196,1.1947,0.016172,0.031827,1.0796e-06,0.6,0.09,0
0.024532,0.010398,0.03643,0.00067715,0.011132,0.00060424,0,0,0.065775,-0.027183,0,0.0031421,0,0,0,0.036441,0.00066694,0.011132,0.96795,0.01608,0.031857,1.0766e-06,0.61,0.09,0
0.025189,0.010537,0.036355,0.00056521,0.011076,0.00048017,0,0,0.065725,-0.027328,0,0.0024969,0,0,0,0.036361,0.00055877,0.011076,0.76852,0.015999,0.031873,1.0731e-06,0.62,0.09,0
0.025846,0.010667,0.036283,0.00047242,0.011027,0.00037135,0,0,0.065666,-0.027441,0,0.001931,0,0,0,0.036287,0.00046857,0.011027,0.59407,0.015927,0.031879,1.0694e-06,0.63,0.09,0
0.026502,0.01079,0.036216,0.00039508,0.010983,0.00027643,0,0,0.065605,-0.027529,0,0.0014375,0,0,0,0.036218,0.00039295,0.010983,0.44212,0.015865,0.031878,1.0658e-06,0.64,0.09,0
0.027158,0.010904,0.036154,0.00033025,0.010945,0.000194,0,0,0.065544,-0.027599,0,0.0010088,0,0,0,0.036156,0.0003292,0.010945,0.31026,0.01581,0.031873,1.0624e-06,0.65,0.09,0
0.027813,0.011011,0.036099,0.00027559,0.010912,0.00012269,0,0,0.065485,-0.027656,0,0.00063797,0,0,0,0.036099,0.00027517,0.010912,0.19622,0.015762,0.031866,1.0591e-06,0.66,0.09,0
0.028468,0.011111,0.036049,0.00022923,0.010884,6.1233e-05,0,0,0.065431,-0.027701,0,0.00031841,0,0,0,0.036049,0.00022912,0.010884,0.097945,0.015721,0.031858,1.0562e-06,0.67,0.09,0
0.029122,0.011205,0.036005,0.00018967,0.010859,8.4946e-06,0,0,0.065382,-0.027739,0,4.4172e-05,0,0,0,0.036005,0.00018967,0.010859,0.013589,0.015685,0.031851,1.0536e-06,0.68,0.09,0
0.029776,0.011293,0.035967,0.00015574,0.010837,-3.6546e-05,0,0,0.065338,-0.027771,0,-0.00019004,0,0,0,0.035967,0.0001557,0.010837,-0.058472,0.015653,0.031844,1.0513e-06,0.69,0.09,0
0.030429,0.011375,0.035934,0.00012646,0.010818,-7.4787e-05,0,0,0.0653,-0.027798,0,-0.00038889,0,0,0,0.035934,0.00012631,0.010818,-0.11967,0.015626,0.031838,1.0493e-06,0.7,0.09,0
0.031082,0.011452,0.035905,0.00010108,0.010802,-0.00010702,0,0,0.065268,-0.027822,0,-0.00055648,0,0,0,0.035905,0.00010076,0.010802,-0.17125,0.015603,0.031833,1.0476e-06,0.71,0.09,0
0.031734,0.011524,0.035881,7.8958e-05,0.010788,-0.00013392,0,0,0.065241,-0.027843,0,-0.00069637,0,0,0,0.035881,7.8457e-05,0.010788,-0.21431,0.015583,0.031829,1.0462e-06,0.72,0.09,0
0.032386,0.011591,0.03586,5.96e-05,0.010776,-0.0001561,0,0,0.06522,-0.027863,0,-0.0008117,0,0,0,0.035861,5.8919e-05,0.010776,-0.24981,0.015565,0.031827,1.0451e-06,0.73,0.09,0
0.033038,0.011654,0.035844,4.2586e-05,0.010766,-0.00017407,0,0,0.065203,-0.027881,0,-0.00090519,0,0,0,0.035845,4.174e-05,0.010766,-0.27858,0.015551,0.031826,1.0442e-06,0.74,0.09,0
0.03369,0.011713,0.03583,2.7575e-05,0.010757,-0.00018831,0,0,0.06519,-0.027897,0,-0.00097923,0,0,0,0.035831,2.6584e-05,0.010757,-0.30135,0.015539,0.031826,1.0435e-06,0.75,0.09,0
0.034342,0.011768,0.03582,1.4284e-05,0.01075,-0.00019922,0,0,0.065181,-0.027914,0,-0.0010359,0,0,0,0.035821,1.3175e-05,0.01075,-0.31877,0.015528,0.031828,1.043e-06,0.76,0.09,0
0.034994,0.011819,0.035812,2.4792e-06,0.010744,-0.00020714,0,0,0.065176,-0.027929,0,-0.0010771,0,0,0,0.035813,1.2811e-06,0.010744,-0.33141,0.01552,0.03183,1.0427e-06,0.77,0.09,0
0.035646,0.011866,0.035806,-8.0345e-06,0.010739,-0.00021238,0,0,0.065173,-0.027943,0,-0.0011044,0,0,0,0.035807,-9.2939e-06,0.010739,-0.33975,0.015513,0.031834,1.0425e-06,0.78,0.09,0
0.036298,0.011911,0.035802,-1.7421e-05,0.010735,-0.00021523,0,0,0.065173,-0.027957,0,-0.0011192,0,0,0,0.035803,-1.8714e-05,0.010735,-0.34426,0.015507,0.031838,1.0425e-06,0.79,0.09,0
0.036949,0.011952,0.0358,-2.5819e-05,0.010732,-0.00021592,0,0,0.065176,-0.027971,0,-0.0011228,0,0,0,0.035801,-2.712e-05,0.010732,-0.34531,0.015502,0.031843,1.0426e-06,0.8,0.09,0
0.037601,0.01199,0.035799,-3.3343e-05,0.01073,-0.00021468,0,0,0.065181,-0.027984,0,-0.0011163,0,0,0,0.0358,-3.4629e-05,0.01073,-0.34325,0.015499,0.031848,1.0427e-06,0.81,0.09,0
0.038253,0.012026,0.0358,-4.0094e-05,0.010728,-0.00021169,0,0,0.065187,-0.027997,0,-0.0011008,0,0,0,0.035801,-4.1345e-05,0.010728,-0.33841,0.015496,0.031853,1.043e-06,0.82,0.09,0
0.038905,0.012059,0.035801,-4.6156e-05,0.010726,-0.00020714,0,0,0.065194,-0.028009,0,-0.0010771,0,0,0,0.035802,-4.7353e-05,0.010726,-0.33106,0.015494,0.03186,1.0433e-06,0.83,0.09,0
0.039557,0.012089,0.035803,-5.16e-05,0.010726,-0.00020117,0,0,0.065202,-0.028021,0,-0.0010461,0,0,0,0.035804,-5.2729e-05,0.010726,-0.32146,0.015492,0.031866,1.0436e-06,0.84,0.09,0
0.040209,0.012117,0.035806,-5.6488e-05,0.010725,-0.00019393,0,0,0.065211,-0.028032,0,-0.0010084,0,0,0,0.035807,-5.7537e-05,0.010725,-0.30982,0.015492,0.031872,1.044e-06,0.85,0.09,0
0.040861,0.012143,0.03581,-6.0873e-05,0.010725,-0.00018555,0,0,0.065221,-0.028042,0,-0.00096483,0,0,0,0.035811,-6.1833e-05,0.010725,-0.29636,0.015491,0.031878,1.0444e-06,0.86,0.09,0
0.041513,0.012166,0.035813,-6.4802e-05,0.010724,-0.00017613,0,0,0.065231,-0.028052,0,-0.00091588,0,0,0,0.035814,-6.5666e-05,0.010724,-0.28127,0.015491,0.031885,1.0449e-06,0.87,0.09,0
0.042166,0.012187,0.035817,-6.8312e-05,0.010725,-0.0001658,0,0,0.065241,-0.028062,0,-0.00086215,0,0,0,0.035818,-6.9078e-05,0.010725,-0.26471,0.015491,0.031891,1.0453e-06,0.88,0.09,0
0.042818,0.012207,0.035821,-7.1438e-05,0.010725,-0.00015464,0,0,0.06525,-0.028071,0,-0.00080413,0,0,0,0.035822,-7.2104e-05,0.010725,-0.24685,0.015492,0.031897,1.0457e-06,0.89,0.09,0
0.043471,0.012224,0.035825,-7.4209e-05,0.010725,-0.00014275,0,0,0.06526,-0.028079,0,-0.00074231,0,0,0,0.035826,-7.4776e-05,0.010725,-0.22783,0.015492,0.031902,1.0462e-06,0.9,0.09,0
0.044123,0.012239,0.035829,-7.6649e-05,0.010726,-0.00013022,0,0,0.065269,-0.028086,0,-0.00067713,0,0,0,0.03583,-7.7122e-05,0.010726,-0.20779,0.015493,0.031908,1.0466e-06,0.91,0.09,0
0.044776,0.012253,0.035833,-7.8782e-05,0.010726,-0.00011711,0,0,0.065277,-0.028093,0,-0.00060899,0,0,0,0.035833,-7.9164e-05,0.010726,-0.18685,0.015493,0.031912,1.0469e-06,0.92,0.09,0
0.045429,0.012265,0.035836,-8.0624e-05,0.010727,-0.00010351,0,0,0.065285,-0.028099,0,-0.00053827,0,0,0,0.035836,-8.0923e-05,0.010727,-0.16513,0.015494,0.031917,1.0473e-06,0.93,0.09,0
0.046082,0.012275,0.035839,-8.2192e-05,0.010727,-8.9491e-05,0,0,0.065291,-0.028104,0,-0.00046535,0,0,0,0.035839,-8.2415e-05,0.010727,-0.14274,0.015495,0.031921,1.0476e-06,0.94,0.09,0
0.046735,0.012284,0.035842,-8.3498e-05,0.010727,-7.511e-05,0,0,0.065297,-0.028109,0,-0.00039057,0,0,0,0.035842,-8.3655e-05,0.010727,-0.11979,0.015495,0.031924,1.0479e-06,0.95,0.09,0
0.047388,0.012291,0.035844,-8.4552e-05,0.010728,-6.0435e-05,0,0,0.065302,-0.028112,0,-0.00031426,0,0,0,0.035844,-8.4654e-05,0.010728,-0.096376,0.015496,0.031927,1.0481e-06,0.96,0.09,0
0.048041,0.012296,0.035846,-8.5364e-05,0.010728,-4.5527e-05,0,0,0.065306,-0.028115,0,-0.00023674,0,0,0,0.035846,-8.5422e-05,0.010728,-0.072597,0.015496,0.031929,1.0483e-06,0.97,0.09,0
0.048694,0.0123,0.035847,-8.5939e-05,0.010728,-3.0447e-05,0,0,0.065309,-0.028117,0,-0.00015832,0,0,0,0.035847,-8.5965e-05,0.010728,-0.048548,0.015497,0.03193,1.0484e-06,0.98,0.09,0
0.049347,0.012303,0.035848,-8.6283e-05,0.010729,-1.5252e-05,0,0,0.065311,-0.028119,0,-7.931e-05,0,0,0,0.035848,-8.6289e-05,0.010729,-0.024319,0.015497,0.031931,1.0485e-06,0.99,0.09,0
0.05,0.012303,0.035848,-8.6397e-05,0.010729,1.477e-05,0,0,0.065311,-0.028119,0,7.6806e-05,0,0,0,0.035848,-8.6403e-05,0.010729,0.02355,0.015497,0.031932,1.0485e-06,1,0.09,0
0,0,0.039449,0.016907,0.016907,0.0086974,0,0,0.029305,1.0842e-19,0,0.022613,0,0,0,0.042414,0.013941,0.016907,18.828,0.024421,0.027113,9.8243e-07,0,0.1,0
0.00029305,0.00022613,0.039338,0.015459,0.016439,0.0086805,0,0,0.029768,-0.0012737,0,0.022569,0,0,0,0.04216,0.012637,0.016439,18.009,0.023746,0.027817,1.0362e-06,0.01,0.1,0
0.00059537,0.00046123,0.039806,0.014127,0.01618,0.0087482,0,0,0.030713,-0.0026684,0,0.022745,0,0,0,0.042503,0.01143,0.01618,17.135,0.023371,0.028991,1.139e-06,0.02,0.1,0
0.00090732,0.00070258,0.040254,0.012726,0.015894,0.0086682,0,0,0.031668,-0.0041183,0,0.022537,0,0,0,0.042756,0.010224,0.015894,16.101,0.022958,0.0301,1.2348e-06,0.03,0.1,0
0.0012287,0.00094712,0.040655,0.011322,0.015593,0.0084408,0,0,0.03258,-0.0055527,0,0.021946,0,0,0,0.04291,0.0090662,0.015593,14.96,0.022523,0.031099,1.3183e-06,0.04,0.1,0
0.0015589,0.0011919,0.040986,0.009972,0.015287,0.0080834,0,0,0.033408,-0.0069098,0,0.021017,0,0,0,0.042966,0.0079917,0.015287,13.766,0.022082,0.031957,1.3863e-06,0.05,0.1,0
0.0018969,0.0014342,0.041232,0.0087195,0.014985,0.0076244,0,0,0.03412,-0.0081456,0,0.019824,0,0,0,0.042931,0.0070202,0.014985,12.564,0.021646,0.032665,1.4376e-06,0.06,0.1,0
0.0022413,0.0016719,0.041388,0.0075883,0.014693,0.0070966,0,0,0.034704,-0.0092361,0,0.018451,0,0,0,0.042818,0.0061587,0.014693,11.389,0.021223,0.033224,1.4729e-06,0.07,0.1,0
0.002591,0.0019033,0.041459,0.0065874,0.014414,0.0065309,0,0,0.035159,-0.010175,0,0.01698,0,0,0,0.042642,0.0054045,0.014414,10.267,0.02082,0.03365,1.4943e-06,0.08,0.1,0
0.0029445,0.0021273,0.041455,0.0057148,0.014151,0.0059531,0,0,0.035495,-0.010967,0,0.015478,0,0,0,0.04242,0.0047493,0.014151,9.2122,0.02044,0.033961,1.504e-06,0.09,0.1,0
0.0033009,0.0023432,0.041388,0.0049611,0.013905,0.0053829,0,0,0.035728,-0.011627,0,0.013995,0,0,0,0.042167,0.0041823,0.013905,8.2324,0.020085,0.034177,1.5047e-06,0.1,0.1,0
0.0036591,0.0025507,0.041272,0.0043141,0.013676,0.0048339,0,0,0.035875,-0.01217,0,0.012568,0,0,0,0.041894,0.0036923,0.013676,7.3296,0.019754,0.034317,1.4987e-06,0.11,0.1,0
0.0040184,0.0027498,0.041121,0.0037602,0.013464,0.0043146,0,0,0.035953,-0.012615,0,0.011218,0,0,0,0.041613,0.0032684,0.013464,6.5028,0.019449,0.034399,1.488e-06,0.12,0.1,0
0.0043781,0.0029406,0.040945,0.0032864,0.013269,0.0038299,0,0,0.035978,-0.012978,0,0.0099577,0,0,0,0.04133,0.0029008,0.013269,5.7486,0.019167,0.034437,1.4742e-06,0.13,0.1,0
0.0047379,0.0031233,0.040753,0.0028806,0.01309,0.0033816,0,0,0.035962,-0.013272,0,0.0087921,0,0,0,0.041053,0.0025811,0.01309,5.0625,0.018908,0.034441,1.4585e-06,0.14,0.1,0
0.0050974,0.0032983,0.040554,0.0025324,0.012926,0.0029698,0,0,0.035916,-0.013512,0,0.0077215,0,0,0,0.040785,0.0023018,0.012926,4.4394,0.018671,0.034423,1.4419e-06,0.15,0.1,0
0.0054563,0.0034661,0.040352,0.0022326,0.012776,0.0025935,0,0,0.03585,-0.013706,0,0.0067431,0,0,0,0.040528,0.002057,0.012776,3.8744,0.018454,0.034388,1.425e-06,0.16,0.1,0
0.0058144,0.003627,0.040153,0.0019734,0.012638,0.002251,0,0,0.035769,-0.013864,0,0.0058526,0,0,0,0.040285,0.0018412,0.012638,3.3625,0.018255,0.034343,1.4082e-06,0.17,0.1,0
0.0061716,0.0037816,0.039958,0.0017484,0.012512,0.0019402,0,0,0.03568,-0.013993,0,0.0050444,0,0,0,0.040056,0.0016501,0.012512,2.8994,0.018073,0.034291,1.392e-06,0.18,0.1,0
0.006528,0.0039303,0.03977,0.001552,0.012397,0.0016588,0,0,0.035585,-0.014098,0,0.004313,0,0,0,0.039842,0.0014801,0.012397,2.4807,0.017906,0.034235,1.3764e-06,0.19,0.1,0
0.0068834,0.0040735,0.03959,0.0013795,0.012291,0.0014049,0,0,0.035489,-0.014185,0,0.0036526,0,0,0,0.039642,0.0013279,0.012291,2.1028,0.017753,0.034177,1.3617e-06,0.2,0.1,0
0.0072378,0.0042118,0.039418,0.0012271,0.012194,0.0011762,0,0,0.035392,-0.014257,0,0.0030582,0,0,0,0.039455,0.0011909,0.012194,1.7624,0.017613,0.03412,1.3478e-06,0.21,0.1,0
0.0075912,0.0043457,0.039256,0.0010916,0.012104,0.00097105,0,0,0.035297,-0.014316,0,0.0025247,0,0,0,0.039281,0.0010669,0.012104,1.4566,0.017484,0.034063,1.3347e-06,0.22,0.1,0
0.0079437,0.0044754,0.039102,0.00097012,0.012021,0.00078765,0,0,0.035204,-0.014367,0,0.0020479,0,0,0,0.039118,0.00095386,0.012021,1.1828,0.017364,0.034009,1.3225e-06,0.23,0.1,0
0.0082953,0.0046015,0.038956,0.00086029,0.011945,0.00062458,0,0,0.035114,-0.01441,0,0.0016239,0,0,0,0.038966,0.00085005,0.011945,0.93905,0.017254,0.033956,1.311e-06,0.24,0.1,0
0.008646,0.0047245,0.038817,0.00076003,0.011873,0.0004806,0,0,0.035027,-0.014447,0,0.0012496,0,0,0,0.038823,0.00075396,0.011873,0.7234,0.01715,0.033906,1.3002e-06,0.25,0.1,0
0.0089958,0.0048447,0.038685,0.00066751,0.011806,0.00035466,0,0,0.034943,-0.01448,0,0.00092211,0,0,0,0.038688,0.0006642,0.011806,0.53444,0.017053,0.033857,1.29e-06,0.26,0.1,0
0.0093449,0.0049625,0.038559,0.00058107,0.011742,0.00024595,0,0,0.034862,-0.014509,0,0.00063947,0,0,0,0.03856,0.00057948,0.011742,0.37103,0.016961,0.033811,1.2803e-06,0.27,0.1,0
0.0096931,0.0050785,0.038437,0.00049918,0.011681,0.00015387,0,0,0.034783,-0.014536,0,0.00040005,0,0,0,0.038438,0.00049856,0.011681,0.23237,0.016872,0.033767,1.2711e-06,0.28,0.1,0
0.010041,0.005193,0.038319,0.00042037,0.011622,7.8021e-05,0,0,0.034707,-0.014562,0,0.00020285,0,0,0,0.038319,0.0004202,0.011622,0.11795,0.016787,0.033724,1.2622e-06,0.29,0.1,0
0.010387,0.0053064,0.038204,0.00034316,0.011564,1.824e-05,0,0,0.034632,-0.014587,0,4.7423e-05,0,0,0,0.038204,0.00034315,0.011564,0.027603,0.016704,0.033682,1.2535e-06,0.3,0.1,0
0.010733,0.0054192,0.03809,0.00026605,0.011507,-2.5427e-05,0,0,0.034558,-0.014613,0,-6.611e-05,0,0,0,0.03809,0.00026604,0.011507,-0.038517,0.016621,0.033642,1.245e-06,0.31,0.1,0
0.011078,0.0055318,0.037976,0.00018743,0.011449,-5.2698e-05,0,0,0.034485,-0.01464,0,-0.00013702,0,0,0,0.037976,0.00018735,0.011449,-0.079903,0.016537,0.033604,1.2367e-06,0.32,0.1,0
0.011423,0.0056447,0.037861,0.00010548,0.01139,-6.3055e-05,0,0,0.034412,-0.01467,0,-0.00016394,0,0,0,0.037861,0.00010537,0.01139,-0.095688,0.016452,0.033568,1.2284e-06,0.33,0.1,0
0.011767,0.0057582,0.037745,1.812e-05,0.011329,-5.5732e-05,0,0,0.034341,-0.014704,0,-0.0001449,0,0,0,0.037745,1.8038e-05,0.011329,-0.084641,0.016364,0.033534,1.2201e-06,0.34,0.1,0
0.01211,0.0058729,0.037625,-7.7097e-05,0.011265,-2.9718e-05,0,0,0.034269,-0.014744,0,-7.7266e-05,0,0,0,0.037625,-7.712e-05,0.011265,-0.045162,0.016271,0.033504,1.2118e-06,0.35,0.1,0
0.012452,0.0059893,0.037503,-0.00018313,0.011196,1.6235e-05,0,0,0.034199,-0.014793,0,4.2212e-05,0,0,0,0.037503,-0.00018314,0.011196,0.024683,0.016172,0.03348,1.2037e-06,0.36,0.1,0
0.012794,0.0061078,0.037378,-0.00030361,0.011122,8.3575e-05,0,0,0.034132,-0.014854,0,0.00021729,0,0,0,0.037378,-0.00030379,0.011122,0.12708,0.016065,0.033465,1.1957e-06,0.37,0.1,0
0.013135,0.0062289,0.037249,-0.00044298,0.011042,0.00017387,0,0,0.034069,-0.01493,0,0.00045206,0,0,0,0.03725,-0.00044378,0.011042,0.2643,0.015949,0.033463,1.1881e-06,0.38,0.1,0
0.013475,0.0063533,0.037118,-0.00060676,0.010953,0.00028867,0,0,0.034014,-0.015028,0,0.00075054,0,0,0,0.03712,-0.00060897,0.010953,0.43839,0.015821,0.03348,1.1812e-06,0.39,0.1,0
0.013815,0.0064813,0.036987,-0.00080173,0.010856,0.00042925,0,0,0.033971,-0.015154,0,0.0011161,0,0,0,0.036992,-0.0008066,0.010856,0.65072,0.01568,0.033525,1.1754e-06,0.4,0.1,0
0.014154,0.0066135,0.036859,-0.0010361,0.010747,0.00059623,0,0,0.033946,-0.015318,0,0.0015502,0,0,0,0.036868,-0.0010455,0.010747,0.90117,0.015523,0.033607,1.1713e-06,0.41,0.1,0
0.014494,0.0067503,0.036739,-0.0013195,0.010626,0.00078896,0,0,0.033947,-0.015529,0,0.0020513,0,0,0,0.036755,-0.0013359,0.010626,1.1871,0.015348,0.03374,1.1695e-06,0.42,0.1,0
0.014833,0.0068922,0.036631,-0.0016631,0.01049,0.0010048,0,0,0.033983,-0.0158,0,0.0026124,0,0,0,0.036657,-0.0016894,0.01049,1.502,0.015153,0.033938,1.1708e-06,0.43,0.1,0
0.015173,0.0070394,0.036543,-0.0020784,0.010339,0.0012381,0,0,0.034064,-0.016143,0,0.0032189,0,0,0,0.036582,-0.002118,0.010339,1.8342,0.014935,0.034217,1.1762e-06,0.44,0.1,0
0.015515,0.007192,0.036481,-0.0025763,0.010171,0.0014793,0,0,0.034202,-0.016572,0,0.0038462,0,0,0,0.036537,-0.0026323,0.010171,2.166,0.014692,0.034592,1.1862e-06,0.45,0.1,0
0.015858,0.0073498,0.03645,-0.0031646,0.0099855,0.0017148,0,0,0.034403,-0.017095,0,0.0044584,0,0,0,0.036524,-0.0032387,0.0099855,2.4739,0.014424,0.035073,1.2011e-06,0.46,0.1,0
0.016203,0.0075124,0.036452,-0.0038451,0.0097822,0.0019268,0,0,0.034671,-0.017715,0,0.0050097,0,0,0,0.036545,-0.003937,0.0097822,2.7313,0.01413,0.035659,1.2208e-06,0.47,0.1,0
0.016551,0.0076789,0.036487,-0.0046104,0.009563,0.0020959,0,0,0.035001,-0.018425,0,0.0054493,0,0,0,0.036594,-0.0047171,0.009563,2.9119,0.013813,0.03634,1.244e-06,0.48,0.1,0
0.016903,0.0078481,0.036546,-0.0054422,0.0093311,0.0022034,0,0,0.035379,-0.019205,0,0.0057289,0,0,0,0.036661,-0.0055575,0.0093311,2.9958,0.013478,0.037088,1.269e-06,0.49,0.1,0
0.017258,0.0080183,0.036575,-0.00082852,0.010724,0.0022376,0,0,0.049425,-0.020025,0,0.008714,0,0,0,0.036711,-0.0009645,0.010724,3.4793,0.01549,0.033471,1.1218e-06,0.5,0.1,0
0.017891,0.008246,0.036696,0.0041511,0.012254,0.0022049,0,0,0.063549,-0.021068,0,0.011465,0,0,0,0.036845,0.0040024,0.012254,3.8582,0.0177,0.029592,9.9029e-07,0.51,0.1,0
0.01853,0.0084702,0.036765,0.0036234,0.012117,0.0021229,0,0,0.064086,-0.022082,0,0.011039,0,0,0,0.036901,0.0034879,0.012117,3.6503,0.017502,0.030042,1.015e-06,0.52,0.1,0
0.019173,0.0086891,0.036819,0.0031256,0.011983,0.0020016,0,0,0.064573,-0.02303,0,0.010408,0,0,0,0.036937,0.0030071,0.011983,3.3879,0.017309,0.030451,1.0367e-06,0.53,0.1,0
0.019821,0.0089011,0.036853,0.0026706,0.011857,0.0018499,0,0,0.06499,-0.023885,0,0.0096194,0,0,0,0.036953,0.0025708,0.011857,3.0887,0.017127,0.030807,1.0545e-06,0.54,0.1,0
0.020473,0.0091048,0.036865,0.0022658,0.011739,0.0016781,0,0,0.065328,-0.024631,0,0.0087263,0,0,0,0.036947,0.0021846,0.011739,2.7703,0.016957,0.031105,1.0683e-06,0.55,0.1,0
0.021128,0.0092994,0.036856,0.0019134,0.011631,0.0014966,0,0,0.065586,-0.025266,0,0.0077825,0,0,0,0.03692,0.0018494,0.011631,2.448,0.0168,0.031346,1.0782e-06,0.56,0.1,0
0.021784,0.0094843,0.036829,0.0016114,0.011532,0.0013141,0,0,0.065771,-0.025793,0,0.0068335,0,0,0,0.036877,0.0015624,0.011532,2.134,0.016657,0.031535,1.0847e-06,0.57,0.1,0
0.022443,0.0096594,0.036785,0.0013556,0.011442,0.0011373,0,0,0.065892,-0.026225,0,0.0059138,0,0,0,0.036822,0.0013191,0.011442,1.8366,0.016528,0.031678,1.0883e-06,0.58,0.1,0
0.023102,0.0098247,0.036732,0.0011404,0.011362,0.0009705,0,0,0.065962,-0.026575,0,0.0050466,0,0,0,0.036758,0.0011139,0.011362,1.5608,0.016411,0.031784,1.0898e-06,0.59,0.1,0
0.023762,0.0099803,0.036671,0.00095987,0.011289,0.00081647,0,0,0.065992,-0.026856,0,0.0042456,0,0,0,0.036689,0.00094121,0.011289,1.3091,0.016307,0.03186,1.0895e-06,0.6,0.1,0
0.024422,0.010127,0.036606,0.00080863,0.011224,0.00067636,0,0,0.065992,-0.027081,0,0.0035171,0,0,0,0.036619,0.00079585,0.011224,1.082,0.016213,0.031913,1.0882e-06,0.61,0.1,0
0.025082,0.010264,0.03654,0.00068176,0.011167,0.00055038,0,0,0.065972,-0.027261,0,0.002862,0,0,0,0.036549,0.00067332,0.011167,0.87913,0.01613,0.031949,1.086e-06,0.62,0.1,0
0.025742,0.010393,0.036476,0.00057507,0.011115,0.00043811,0,0,0.065938,-0.027405,0,0.0022782,0,0,0,0.036481,0.00056972,0.011115,0.69905,0.016056,0.031971,1.0835e-06,0.63,0.1,0
0.026401,0.010514,0.036414,0.00048503,0.01107,0.00033874,0,0,0.065895,-0.02752,0,0.0017614,0,0,0,0.036417,0.00048183,0.01107,0.54012,0.01599,0.031984,1.0806e-06,0.64,0.1,0
0.02706,0.010628,0.036356,0.00040872,0.011029,0.00025129,0,0,0.065849,-0.027614,0,0.0013067,0,0,0,0.036358,0.00040697,0.011029,0.40051,0.015931,0.031991,1.0778e-06,0.65,0.1,0
0.027718,0.010734,0.036302,0.00034377,0.010994,0.00017472,0,0,0.065801,-0.02769,0,0.00090854,0,0,0,0.036303,0.00034292,0.010994,0.27839,0.01588,0.031993,1.075e-06,0.66,0.1,0
0.028376,0.010834,0.036253,0.00028822,0.010962,0.00010797,0,0,0.065755,-0.027752,0,0.00056145,0,0,0,0.036253,0.0002879,0.010962,0.17201,0.015834,0.031992,1.0723e-06,0.67,0.1,0
0.029033,0.010927,0.036208,0.00024049,0.010934,5.0063e-05,0,0,0.06571,-0.027804,0,0.00026033,0,0,0,0.036208,0.00024042,0.010934,0.07975,0.015794,0.03199,1.0699e-06,0.68,0.1,0
0.02969,0.011015,0.036167,0.00019927,0.01091,7.65e-08,0,0,0.065669,-0.027848,0,3.978e-07,0,0,0,0.036167,0.00019927,0.01091,0.00012186,0.015759,0.031987,1.0676e-06,0.69,0.1,0
0.030346,0.011097,0.036132,0.00016352,0.010889,-4.2822e-05,0,0,0.065632,-0.027885,0,-0.00022268,0,0,0,0.036132,0.00016347,0.010889,-0.068214,0.015728,0.031984,1.0656e-06,0.7,0.1,0
0.031002,0.011173,0.0361,0.00013238,0.01087,-7.9384e-05,0,0,0.065599,-0.027917,0,-0.0004128,0,0,0,0.0361,0.0001322,0.01087,-0.12646,0.015701,0.031981,1.0638e-06,0.71,0.1,0
0.031658,0.011245,0.036073,0.00010513,0.010853,-0.00011028,0,0,0.06557,-0.027945,0,-0.00057346,0,0,0,0.036073,0.00010479,0.010853,-0.17567,0.015677,0.031979,1.0623e-06,0.72,0.1,0
0.032314,0.011312,0.036049,8.1189e-05,0.010839,-0.00013611,0,0,0.065546,-0.02797,0,-0.00070776,0,0,0,0.036049,8.0674e-05,0.010839,-0.21681,0.015656,0.031977,1.0609e-06,0.73,0.1,0
0.032969,0.011375,0.036028,6.0083e-05,0.010826,-0.0001574,0,0,0.065525,-0.027993,0,-0.00081847,0,0,0,0.036029,5.9395e-05,0.010826,-0.25072,0.015638,0.031976,1.0598e-06,0.74,0.1,0
0.033624,0.011433,0.036011,4.1411e-05,0.010816,-0.00017462,0,0,0.065508,-0.028013,0,-0.00090802,0,0,0,0.036012,4.0563e-05,0.010816,-0.27814,0.015623,0.031976,1.0589e-06,0.75,0.1,0
0.034279,0.011488,0.035997,2.4838e-05,0.010806,-0.00018819,0,0,0.065494,-0.028032,0,-0.00097859,0,0,0,0.035998,2.3854e-05,0.010806,-0.29974,0.015609,0.031976,1.0582e-06,0.76,0.1,0
0.034934,0.011539,0.035985,1.0088e-05,0.010798,-0.00019848,0,0,0.065484,-0.02805,0,-0.0010321,0,0,0,0.035986,8.993e-06,0.010798,-0.3161,0.015598,0.031978,1.0576e-06,0.77,0.1,0
0.035589,0.011586,0.035975,-3.0732e-06,0.010792,-0.00020582,0,0,0.065477,-0.028066,0,-0.0010703,0,0,0,0.035976,-4.2505e-06,0.010792,-0.32776,0.015588,0.03198,1.0572e-06,0.78,0.1,0
0.036244,0.011631,0.035967,-1.4842e-05,0.010786,-0.0002105,0,0,0.065472,-0.028081,0,-0.0010946,0,0,0,0.035968,-1.6074e-05,0.010786,-0.33517,0.015579,0.031982,1.0569e-06,0.79,0.1,0
0.036898,0.011672,0.035961,-2.5386e-05,0.010781,-0.00021278,0,0,0.065469,-0.028096,0,-0.0011065,0,0,0,0.035962,-2.6644e-05,0.010781,-0.33876,0.015572,0.031985,1.0567e-06,0.8,0.1,0
0.037553,0.01171,0.035957,-3.4845e-05,0.010777,-0.0002129,0,0,0.065468,-0.02811,0,-0.0011071,0,0,0,0.035958,-3.6105e-05,0.010777,-0.33891,0.015566,0.031989,1.0566e-06,0.81,0.1,0
0.038208,0.011745,0.035954,-4.3341e-05,0.010773,-0.00021108,0,0,0.065469,-0.028123,0,-0.0010976,0,0,0,0.035955,-4.4579e-05,0.010773,-0.33595,0.015561,0.031993,1.0566e-06,0.82,0.1,0
0.038863,0.011778,0.035952,-5.0976e-05,0.01077,-0.00020749,0,0,0.065472,-0.028135,0,-0.0010789,0,0,0,0.035953,-5.2172e-05,0.01077,-0.33019,0.015557,0.031997,1.0566e-06,0.83,0.1,0
0.039517,0.011808,0.035951,-5.7839e-05,0.010768,-0.00020231,0,0,0.065476,-0.028147,0,-0.001052,0,0,0,0.035952,-5.8976e-05,0.010768,-0.3219,0.015554,0.032002,1.0568e-06,0.84,0.1,0
0.040172,0.011836,0.035951,-6.4005e-05,0.010766,-0.00019571,0,0,0.06548,-0.028158,0,-0.0010177,0,0,0,0.035952,-6.5069e-05,0.010766,-0.31133,0.015551,0.032007,1.0569e-06,0.85,0.1,0
0.040827,0.011861,0.035951,-6.9541e-05,0.010764,-0.00018781,0,0,0.065485,-0.028168,0,-0.00097659,0,0,0,0.035952,-7.052e-05,0.010764,-0.29872,0.015549,0.032011,1.0571e-06,0.86,0.1,0
0.041482,0.011885,0.035952,-7.4502e-05,0.010763,-0.00017874,0,0,0.065491,-0.028178,0,-0.00092947,0,0,0,0.035953,-7.5389e-05,0.010763,-0.28426,0.015547,0.032016,1.0574e-06,0.87,0.1,0
0.042137,0.011906,0.035954,-7.8937e-05,0.010762,-0.00016864,0,0,0.065497,-0.028188,0,-0.00087694,0,0,0,0.035954,-7.9726e-05,0.010762,-0.26815,0.015546,0.032021,1.0576e-06,0.88,0.1,0
0.042792,0.011925,0.035955,-8.2888e-05,0.010762,-0.00015761,0,0,0.065503,-0.028196,0,-0.00081956,0,0,0,0.035956,-8.3578e-05,0.010762,-0.25057,0.015545,0.032025,1.0579e-06,0.89,0.1,0
0.043447,0.011942,0.035957,-8.6392e-05,0.010761,-0.00014574,0,0,0.065509,-0.028204,0,-0.00075788,0,0,0,0.035958,-8.6981e-05,0.010761,-0.23167,0.015544,0.03203,1.0582e-06,0.9,0.1,0
0.044102,0.011958,0.035959,-8.948e-05,0.010761,-0.00013315,0,0,0.065516,-0.028211,0,-0.00069237,0,0,0,0.03596,-8.9972e-05,0.010761,-0.21162,0.015544,0.032033,1.0584e-06,0.91,0.1,0
0.044757,0.011972,0.035961,-9.2178e-05,0.010761,-0.0001199,0,0,0.065521,-0.028217,0,-0.00062351,0,0,0,0.035962,-9.2576e-05,0.010761,-0.19055,0.015543,0.032037,1.0587e-06,0.92,0.1,0
0.045412,0.011983,0.035963,-9.4509e-05,0.010761,-0.0001061,0,0,0.065527,-0.028223,0,-0.00055172,0,0,0,0.035963,-9.4821e-05,0.010761,-0.16859,0.015543,0.032041,1.0589e-06,0.93,0.1,0
0.046068,0.011994,0.035965,-9.6493e-05,0.01076,-9.1813e-05,0,0,0.065531,-0.028228,0,-0.00047743,0,0,0,0.035965,-9.6727e-05,0.01076,-0.14588,0.015543,0.032044,1.0591e-06,0.94,0.1,0
0.046723,0.012002,0.035966,-9.8146e-05,0.01076,-7.7118e-05,0,0,0.065535,-0.028232,0,-0.00040102,0,0,0,0.035967,-9.8311e-05,0.01076,-0.12252,0.015543,0.032046,1.0593e-06,0.95,0.1,0
0.047378,0.012009,0.035968,-9.9481e-05,0.01076,-6.209e-05,0,0,0.065539,-0.028236,0,-0.00032287,0,0,0,0.035968,-9.9588e-05,0.01076,-0.098634,0.015543,0.032049,1.0594e-06,0.96,0.1,0
0.048034,0.012015,0.035969,-0.00010051,0.01076,-4.6796e-05,0,0,0.065542,-0.028239,0,-0.00024334,0,0,0,0.035969,-0.00010057,0.01076,-0.074335,0.015543,0.03205,1.0596e-06,0.97,0.1,0
0.048689,0.012018,0.03597,-0.00010124,0.01076,-3.1306e-05,0,0,0.065544,-0.028241,0,-0.00016279,0,0,0,0.03597,-0.00010127,0.01076,-0.049727,0.015543,0.032051,1.0597e-06,0.98,0.1,0
0.049344,0.012021,0.03597,-0.00010167,0.01076,-1.5686e-05,0,0,0.065545,-0.028242,0,-8.1565e-05,0,0,0,0.03597,-0.00010168,0.01076,-0.024915,0.015543,0.032052,1.0597e-06,0.99,0.1,0
0.05,0.012021,0.03597,-0.00010182,0.01076,1.4694e-05,0,0,0.065545,-0.028242,0,7.6407e-05,0,0,0,0.03597,-0.00010182,0.01076,0.023339,0.015543,0.032052,1.0597e-06,1,0.1,0
0,0,0.038837,0.016644,0.016644,0.008231,0,0,0.02885,1.6263e-19,0,0.021401,0,0,0,0.041557,0.013925,0.016644,18.284,0.024042,0.026377,9.0887e-07,0,0.11,0
0.0002885,0.00021401,0.038735,0.015323,0.016218,0.0082195,0,0,0.029273,-0.0011625,0,0.021371,0,0,0,0.041333,0.012726,0.016218,17.538,0.023425,0.027031,9.5755e-07,0.01,0.11,0
0.00058546,0.00043591,0.039167,0.014125,0.015988,0.0082889,0,0,0.030134,-0.0024218,0,0.021551,0,0,0,0.041662,0.01163,0.015988,16.752,0.023093,0.028108,1.0487e-06,0.02,0.11,0
0.00089118,0.00066353,0.039587,0.012866,0.015736,0.008239,0,0,0.031006,-0.0037308,0,0.021421,0,0,0,0.041923,0.01053,0.015736,15.83,0.02273,0.029141,1.1355e-06,0.03,0.11,0
0.0012056,0.00089442,0.039973,0.011595,0.01547,0.0080675,0,0,0.031853,-0.0050376,0,0.020976,0,0,0,0.042106,0.0094622,0.01547,14.811,0.022346,0.030093,1.2137e-06,0.04,0.11,0
0.0015282,0.0011261,0.040306,0.010357,0.015199,0.0077848,0,0,0.032639,-0.0062943,0,0.020241,0,0,0,0.042209,0.0084546,0.015199,13.734,0.021954,0.030938,1.2807e-06,0.05,0.11,0
0.0018584,0.0013564,0.040573,0.009187,0.014928,0.0074098,0,0,0.033339,-0.0074634,0,0.019266,0,0,0,0.042235,0.0075256,0.014928,12.638,0.021563,0.031664,1.3349e-06,0.06,0.11,0
0.002195,0.0015833,0.040768,0.0081081,0.014663,0.0069663,0,0,0.033937,-0.0085211,0,0.018112,0,0,0,0.042192,0.0066843,0.014663,11.551,0.02118,0.032267,1.3762e-06,0.07,0.11,0
0.0025371,0.0018053,0.04089,0.0071331,0.014407,0.0064782,0,0,0.034428,-0.0094561,0,0.016843,0,0,0,0.042091,0.0059326,0.014407,10.499,0.02081,0.032754,1.4056e-06,0.08,0.11,0
0.0028836,0.0020213,0.040945,0.0062648,0.014163,0.0059674,0,0,0.034816,-0.010268,0,0.015515,0,0,0,0.041943,0.0052667,0.014163,9.4952,0.020457,0.033136,1.4245e-06,0.09,0.11,0
0.0032334,0.0022304,0.04094,0.0054999,0.013932,0.0054518,0,0,0.035111,-0.010962,0,0.014175,0,0,0,0.04176,0.0046802,0.013932,8.5505,0.020124,0.033428,1.4346e-06,0.1,0.11,0
0.0035858,0.0024322,0.040886,0.004831,0.013715,0.0049451,0,0,0.035323,-0.01155,0,0.012857,0,0,0,0.041552,0.004165,0.013715,7.6696,0.019811,0.033645,1.4377e-06,0.11,0.11,0
0.0039399,0.0026266,0.040794,0.0042486,0.013513,0.0044569,0,0,0.035465,-0.012043,0,0.011588,0,0,0,0.041329,0.0037129,0.013513,6.8537,0.019518,0.033799,1.4355e-06,0.12,0.11,0
0.0042951,0.0028134,0.040671,0.0037426,0.013324,0.0039935,0,0,0.035551,-0.012456,0,0.010383,0,0,0,0.041098,0.0033157,0.013324,6.102,0.019246,0.033905,1.4293e-06,0.13,0.11,0
0.0046509,0.0029929,0.040528,0.0033034,0.013149,0.0035586,0,0,0.035592,-0.0128,0,0.0092524,0,0,0,0.040865,0.0029662,0.013149,5.4121,0.018993,0.033972,1.4204e-06,0.14,0.11,0
0.0050069,0.0031653,0.04037,0.0029216,0.012988,0.003154,0,0,0.035597,-0.013086,0,0.0082003,0,0,0,0.040634,0.0026578,0.012988,4.7807,0.01876,0.034009,1.4096e-06,0.15,0.11,0
0.0053629,0.0033309,0.040204,0.0025892,0.012838,0.00278,0,0,0.035576,-0.013323,0,0.0072281,0,0,0,0.040408,0.0023848,0.012838,4.2042,0.018544,0.034023,1.3977e-06,0.16,0.11,0
0.0057185,0.0034901,0.040034,0.0022989,0.0127,0.0024363,0,0,0.035534,-0.013521,0,0.0063343,0,0,0,0.04019,0.0021423,0.0127,3.6788,0.018344,0.034021,1.3852e-06,0.17,0.11,0
0.0060735,0.0036432,0.039863,0.0020445,0.012572,0.0021217,0,0,0.035478,-0.013686,0,0.0055163,0,0,0,0.039982,0.0019258,0.012572,3.2009,0.01816,0.034007,1.3725e-06,0.18,0.11,0
0.006428,0.0037906,0.039694,0.0018205,0.012454,0.0018348,0,0,0.035412,-0.013824,0,0.0047705,0,0,0,0.039783,0.0017318,0.012454,2.7671,0.01799,0.033983,1.3598e-06,0.19,0.11,0
0.0067818,0.0039329,0.039529,0.0016223,0.012345,0.0015743,0,0,0.035339,-0.01394,0,0.0040932,0,0,0,0.039594,0.001557,0.012345,2.3741,0.017832,0.033954,1.3474e-06,0.2,0.11,0
0.0071348,0.0040703,0.039368,0.0014459,0.012244,0.0013385,0,0,0.035261,-0.014038,0,0.0034802,0,0,0,0.039415,0.0013988,0.012244,2.019,0.017686,0.03392,1.3354e-06,0.21,0.11,0
0.007487,0.0042034,0.039213,0.001288,0.01215,0.0011261,0,0,0.035181,-0.014121,0,0.0029278,0,0,0,0.039246,0.0012546,0.01215,1.6992,0.01755,0.033884,1.3238e-06,0.22,0.11,0
0.0078384,0.0043326,0.039063,0.0011455,0.012063,0.00093557,0,0,0.035101,-0.014192,0,0.0024325,0,0,0,0.039087,0.0011225,0.012063,1.4125,0.017424,0.033847,1.3127e-06,0.23,0.11,0
0.008189,0.0044582,0.038919,0.0010159,0.011981,0.00076578,0,0,0.03502,-0.014254,0,0.001991,0,0,0,0.038935,0.0010005,0.011981,1.1569,0.017305,0.033809,1.302e-06,0.24,0.11,0
0.0085388,0.0045807,0.038781,0.00089697,0.011903,0.00061566,0,0,0.03494,-0.014308,0,0.0016007,0,0,0,0.038791,0.00088697,0.011903,0.93081,0.017194,0.033771,1.2918e-06,0.25,0.11,0
0.0088878,0.0047005,0.038647,0.0007866,0.01183,0.00048432,0,0,0.034862,-0.014356,0,0.0012592,0,0,0,0.038653,0.00078041,0.01183,0.73279,0.017088,0.033733,1.282e-06,0.26,0.11,0
0.0092361,0.004818,0.038517,0.00068298,0.01176,0.00037103,0,0,0.034784,-0.0144,0,0.00096468,0,0,0,0.038521,0.00067934,0.01176,0.56182,0.016987,0.033696,1.2726e-06,0.27,0.11,0
0.0095835,0.0049336,0.038391,0.00058436,0.011692,0.00027528,0,0,0.034708,-0.014441,0,0.00071572,0,0,0,0.038393,0.00058236,0.011692,0.41716,0.016889,0.03366,1.2635e-06,0.28,0.11,0
0.0099302,0.0050478,0.038267,0.00048908,0.011627,0.00019672,0,0,0.034632,-0.014479,0,0.00051146,0,0,0,0.038268,0.00048806,0.011627,0.29834,0.016794,0.033624,1.2546e-06,0.29,0.11,0
0.010276,0.0051609,0.038146,0.00039547,0.011562,0.0001352,0,0,0.034558,-0.014517,0,0.00035152,0,0,0,0.038146,0.00039499,0.011562,0.2052,0.016701,0.03359,1.246e-06,0.3,0.11,0
0.010621,0.0052734,0.038025,0.00030182,0.011498,9.0776e-05,0,0,0.034485,-0.014555,0,0.00023602,0,0,0,0.038026,0.0003016,0.011498,0.13787,0.016609,0.033557,1.2375e-06,0.31,0.11,0
0.010966,0.0053856,0.037905,0.00020629,0.011433,6.3689e-05,0,0,0.034413,-0.014595,0,0.00016559,0,0,0,0.037905,0.00020618,0.011433,0.096795,0.016515,0.033527,1.2291e-06,0.32,0.11,0
0.01131,0.0054981,0.037785,0.00010684,0.011367,5.4383e-05,0,0,0.034343,-0.014639,0,0.00014139,0,0,0,0.037785,0.00010677,0.011367,0.082698,0.01642,0.033499,1.2209e-06,0.33,0.11,0
0.011653,0.0056113,0.037664,1.2046e-06,0.011299,6.3491e-05,0,0,0.034273,-0.014688,0,0.00016508,0,0,0,0.037664,1.0976e-06,0.011299,0.096588,0.016321,0.033475,1.2128e-06,0.34,0.11,0
0.011995,0.0057255,0.037541,-0.0001133,0.011228,9.1821e-05,0,0,0.034206,-0.014744,0,0.00023874,0,0,0,0.037541,-0.00011352,0.011228,0.13972,0.016219,0.033458,1.205e-06,0.35,0.11,0
0.012337,0.0058413,0.037417,-0.00023979,0.011153,0.00014032,0,0,0.034143,-0.014811,0,0.00036484,0,0,0,0.037417,-0.00024031,0.011153,0.2135,0.01611,0.033449,1.1974e-06,0.36,0.11,0
0.012678,0.0059591,0.037292,-0.00038202,0.011073,0.00021002,0,0,0.034084,-0.014891,0,0.00054604,0,0,0,0.037293,-0.00038319,0.011073,0.31939,0.015994,0.033453,1.1902e-06,0.37,0.11,0
0.013019,0.0060794,0.037166,-0.00054445,0.010986,0.00030189,0,0,0.034033,-0.01499,0,0.00078492,0,0,0,0.037168,-0.00054687,0.010986,0.45864,0.015869,0.033474,1.1838e-06,0.38,0.11,0
0.013359,0.0062026,0.037041,-0.00073242,0.010893,0.00041674,0,0,0.033993,-0.015113,0,0.0010835,0,0,0,0.037046,-0.00073702,0.010893,0.63201,0.015734,0.033517,1.1783e-06,0.39,0.11,0
0.013698,0.0063292,0.036921,-0.00095223,0.01079,0.00055489,0,0,0.033969,-0.015265,0,0.0014427,0,0,0,0.036929,-0.00096036,0.01079,0.83923,0.015586,0.033592,1.1743e-06,0.4,0.11,0
0.014038,0.0064596,0.036806,-0.0012112,0.010678,0.00071585,0,0,0.033966,-0.015456,0,0.0018612,0,0,0,0.036819,-0.0012247,0.010678,1.0783,0.015424,0.033708,1.1722e-06,0.41,0.11,0
0.014378,0.0065942,0.036702,-0.0015175,0.010555,0.0008978,0,0,0.033991,-0.015695,0,0.0023343,0,0,0,0.036723,-0.0015386,0.010555,1.3449,0.015247,0.033875,1.1726e-06,0.42,0.11,0
0.014718,0.0067332,0.036613,-0.0018799,0.01042,0.0010971,0,0,0.034051,-0.01599,0,0.0028524,0,0,0,0.036644,-0.0019112,0.01042,1.6312,0.015051,0.034105,1.1761e-06,0.43,0.11,0
0.015059,0.0068769,0.036545,-0.0023069,0.010271,0.0013075,0,0,0.034155,-0.016352,0,0.0033996,0,0,0,0.036589,-0.0023508,0.010271,1.9253,0.014836,0.034411,1.1834e-06,0.44,0.11,0
0.015401,0.0070251,0.036501,-0.0028055,0.010109,0.0015202,0,0,0.03431,-0.016789,0,0.0039524,0,0,0,0.03656,-0.0028642,0.010109,2.2115,0.014601,0.034801,1.1947e-06,0.45,0.11,0
0.015745,0.0071778,0.036486,-0.0033798,0.0099318,0.001723,0,0,0.03452,-0.017305,0,0.0044799,0,0,0,0.03656,-0.0034541,0.0099318,2.4703,0.014346,0.03528,1.2102e-06,0.46,0.11,0
0.016091,0.0073343,0.036499,-0.0040285,0.0097412,0.001902,0,0,0.034785,-0.017901,0,0.0049453,0,0,0,0.036588,-0.0041176,0.0097412,2.6812,0.014071,0.035846,1.2294e-06,0.47,0.11,0
0.016441,0.0074939,0.036539,-0.0047437,0.0095386,0.0020423,0,0,0.0351,-0.018567,0,0.00531,0,0,0,0.03664,-0.0048445,0.0095386,2.8253,0.013778,0.036485,1.2514e-06,0.48,0.11,0
0.016793,0.0076556,0.036599,-0.0055099,0.0093266,0.0021304,0,0,0.035454,-0.019287,0,0.0055392,0,0,0,0.036706,-0.0056175,0.0093266,2.889,0.013472,0.037177,1.2747e-06,0.49,0.11,0
0.01715,0.007818,0.03663,-0.00081637,0.010744,0.0021576,0,0,0.049485,-0.020038,0,0.0084002,0,0,0,0.036756,-0.00094266,0.010744,3.3521,0.015519,0.033494,1.1255e-06,0.5,0.11,0
0.017783,0.0080357,0.036744,0.0042086,0.012286,0.0021283,0,0,0.063591,-0.021,0,0.011067,0,0,0,0.036882,0.00407,0.012286,3.7268,0.017746,0.029573,9.9082e-07,0.51,0.11,0
0.018422,0.0082502,0.036812,0.0037214,0.01216,0.0020576,0,0,0.064095,-0.02194,0,0.0107,0,0,0,0.036939,0.003594,0.01216,3.5446,0.017564,0.029994,1.0143e-06,0.52,0.11,0
0.019065,0.0084599,0.036868,0.0032573,0.012038,0.0019536,0,0,0.06456,-0.022829,0,0.010159,0,0,0,0.036982,0.0031441,0.012038,3.3153,0.017388,0.030383,1.0353e-06,0.53,0.11,0
0.019713,0.0086635,0.036909,0.0028266,0.011921,0.0018224,0,0,0.06497,-0.023645,0,0.0094764,0,0,0,0.037006,0.0027295,0.011921,3.052,0.017219,0.03073,1.0532e-06,0.54,0.11,0
0.020364,0.0088598,0.036932,0.0024363,0.01181,0.0016719,0,0,0.065315,-0.024373,0,0.008694,0,0,0,0.037012,0.0023555,0.01181,2.7684,0.017059,0.031029,1.0678e-06,0.55,0.11,0
0.021019,0.0090481,0.036936,0.0020893,0.011708,0.0015102,0,0,0.065594,-0.025007,0,0.0078528,0,0,0,0.037001,0.002024,0.011708,2.4769,0.016911,0.031281,1.079e-06,0.56,0.11,0
0.021676,0.0092276,0.036923,0.0017856,0.011613,0.0013444,0,0,0.065808,-0.02555,0,0.0069907,0,0,0,0.036975,0.0017343,0.011613,2.1879,0.016774,0.031486,1.0872e-06,0.57,0.11,0
0.022335,0.0093983,0.036896,0.0015228,0.011526,0.0011805,0,0,0.065963,-0.026007,0,0.0061384,0,0,0,0.036936,0.0014835,0.011526,1.9092,0.016648,0.031649,1.0927e-06,0.58,0.11,0
0.022995,0.0095598,0.036858,0.0012972,0.011446,0.0010229,0,0,0.066069,-0.026388,0,0.0053189,0,0,0,0.036887,0.0012678,0.011446,1.6463,0.016534,0.031777,1.096e-06,0.59,0.11,0
0.023657,0.0097125,0.036811,0.0011044,0.011374,0.00087455,0,0,0.066134,-0.026702,0,0.0045477,0,0,0,0.036832,0.001083,0.011374,1.4022,0.01643,0.031875,1.0975e-06,0.6,0.11,0
0.024318,0.0098565,0.036758,0.00094015,0.01131,0.00073726,0,0,0.066167,-0.02696,0,0.0038337,0,0,0,0.036773,0.00092498,0.01131,1.1787,0.016336,0.031948,1.0977e-06,0.61,0.11,0
0.02498,0.009992,0.036703,0.0008002,0.011251,0.00061179,0,0,0.066175,-0.027172,0,0.0031813,0,0,0,0.036713,0.00078978,0.011251,0.97596,0.016251,0.032002,1.0969e-06,0.62,0.11,0
0.025642,0.010119,0.036646,0.00068089,0.011198,0.0004983,0,0,0.066166,-0.027345,0,0.0025911,0,0,0,0.036653,0.00067399,0.011198,0.79362,0.016175,0.032041,1.0954e-06,0.63,0.11,0
0.026303,0.010239,0.036591,0.00057897,0.011151,0.00039647,0,0,0.066144,-0.027487,0,0.0020616,0,0,0,0.036595,0.00057461,0.011151,0.63069,0.016107,0.032068,1.0935e-06,0.64,0.11,0
0.026964,0.010352,0.036537,0.00049167,0.011109,0.00030572,0,0,0.066114,-0.027604,0,0.0015898,0,0,0,0.03654,0.00048908,0.011109,0.48591,0.016046,0.032087,1.0914e-06,0.65,0.11,0
0.027626,0.010457,0.036486,0.00041665,0.011071,0.00022533,0,0,0.06608,-0.027701,0,0.0011717,0,0,0,0.036488,0.00041524,0.011071,0.35791,0.015991,0.0321,1.0892e-06,0.66,0.11,0
0.028286,0.010556,0.036438,0.00035195,0.011037,0.00015448,0,0,0.066044,-0.027782,0,0.00080331,0,0,0,0.036439,0.00035129,0.011037,0.24527,0.015942,0.032107,1.0869e-06,0.67,0.11,0
0.028946,0.010649,0.036394,0.00029593,0.011007,9.2378e-05,0,0,0.066007,-0.027849,0,0.00048037,0,0,0,0.036395,0.0002957,0.011007,0.14662,0.015899,0.032112,1.0847e-06,0.68,0.11,0
0.029606,0.010736,0.036354,0.00024726,0.01098,3.8226e-05,0,0,0.065971,-0.027906,0,0.00019877,0,0,0,0.036354,0.00024722,0.01098,0.060659,0.01586,0.032114,1.0827e-06,0.69,0.11,0
0.030266,0.010817,0.036317,0.00020479,0.010956,-8.716e-06,0,0,0.065937,-0.027954,0,-4.5323e-05,0,0,0,0.036317,0.00020479,0.010956,-0.013829,0.015826,0.032116,1.0807e-06,0.7,0.11,0
0.030925,0.010894,0.036284,0.00016761,0.010935,-4.9137e-05,0,0,0.065906,-0.027996,0,-0.00025551,0,0,0,0.036284,0.00016754,0.010935,-0.077953,0.015796,0.032116,1.079e-06,0.71,0.11,0
0.031584,0.010965,0.036254,0.00013493,0.010917,-8.3669e-05,0,0,0.065877,-0.028032,0,-0.00043508,0,0,0,0.036254,0.00013474,0.010917,-0.13272,0.015769,0.032116,1.0774e-06,0.72,0.11,0
0.032243,0.011032,0.036228,0.00010612,0.0109,-0.00011289,0,0,0.065851,-0.028064,0,-0.00058701,0,0,0,0.036228,0.00010577,0.0109,-0.17906,0.015745,0.032116,1.076e-06,0.73,0.11,0
0.032901,0.011094,0.036204,8.0623e-05,0.010885,-0.00013731,0,0,0.065829,-0.028093,0,-0.00071399,0,0,0,0.036205,8.0102e-05,0.010885,-0.21778,0.015724,0.032116,1.0748e-06,0.74,0.11,0
0.033559,0.011152,0.036184,5.7999e-05,0.010873,-0.0001574,0,0,0.06581,-0.028118,0,-0.00081846,0,0,0,0.036185,5.7313e-05,0.010873,-0.24963,0.015705,0.032116,1.0737e-06,0.75,0.11,0
0.034217,0.011207,0.036166,3.7866e-05,0.010861,-0.00017358,0,0,0.065793,-0.028141,0,-0.00090261,0,0,0,0.036167,3.7032e-05,0.010861,-0.27527,0.015689,0.032116,1.0728e-06,0.76,0.11,0
0.034875,0.011258,0.036151,1.9905e-05,0.010851,-0.00018623,0,0,0.06578,-0.028162,0,-0.00096838,0,0,0,0.036152,1.8945e-05,0.010851,-0.2953,0.015674,0.032118,1.072e-06,0.77,0.11,0
0.035533,0.011305,0.036138,3.8448e-06,0.010843,-0.00019568,0,0,0.065769,-0.028181,0,-0.0010176,0,0,0,0.036139,2.7851e-06,0.010843,-0.31027,0.015662,0.032119,1.0714e-06,0.78,0.11,0
0.03619,0.011349,0.036127,-1.0542e-05,0.010835,-0.00020225,0,0,0.06576,-0.028199,0,-0.0010517,0,0,0,0.036129,-1.1674e-05,0.010835,-0.32065,0.015651,0.032121,1.0709e-06,0.79,0.11,0
0.036848,0.01139,0.036118,-2.3452e-05,0.010828,-0.00020621,0,0,0.065753,-0.028215,0,-0.0010723,0,0,0,0.036119,-2.4629e-05,0.010828,-0.32689,0.015641,0.032123,1.0705e-06,0.8,0.11,0
0.037505,0.011428,0.036111,-3.5051e-05,0.010823,-0.0002078,0,0,0.065749,-0.02823,0,-0.0010806,0,0,0,0.036112,-3.6246e-05,0.010823,-0.32938,0.015633,0.032126,1.0702e-06,0.81,0.11,0
0.038163,0.011463,0.036105,-4.5481e-05,0.010818,-0.00020725,0,0,0.065746,-0.028244,0,-0.0010777,0,0,0,0.036106,-4.6669e-05,0.010818,-0.32847,0.015626,0.032129,1.07e-06,0.82,0.11,0
0.03882,0.011496,0.0361,-5.4865e-05,0.010814,-0.00020477,0,0,0.065744,-0.028258,0,-0.0010648,0,0,0,0.036101,-5.6025e-05,0.010814,-0.32449,0.015619,0.032132,1.0699e-06,0.83,0.11,0
0.039478,0.011526,0.036096,-6.3308e-05,0.01081,-0.00020053,0,0,0.065744,-0.02827,0,-0.0010428,0,0,0,0.036097,-6.442e-05,0.01081,-0.31773,0.015614,0.032135,1.0698e-06,0.84,0.11,0
0.040135,0.011554,0.036093,-7.0901e-05,0.010807,-0.00019471,0,0,0.065745,-0.028282,0,-0.0010125,0,0,0,0.036094,-7.1949e-05,0.010807,-0.30847,0.01561,0.032139,1.0698e-06,0.85,0.11,0
0.040793,0.011579,0.036091,-7.7722e-05,0.010804,-0.00018746,0,0,0.065747,-0.028293,0,-0.00097477,0,0,0,0.036092,-7.8693e-05,0.010804,-0.29694,0.015606,0.032142,1.0698e-06,0.86,0.11,0
0.04145,0.011602,0.03609,-8.3839e-05,0.010802,-0.00017892,0,0,0.065749,-0.028303,0,-0.00093037,0,0,0,0.036091,-8.4723e-05,0.010802,-0.28338,0.015603,0.032146,1.0699e-06,0.87,0.11,0
0.042108,0.011624,0.036089,-8.931e-05,0.0108,-0.00016922,0,0,0.065752,-0.028312,0,-0.00087995,0,0,0,0.03609,-9.0102e-05,0.0108,-0.26799,0.0156,0.032149,1.07e-06,0.88,0.11,0
0.042765,0.011643,0.036089,-9.4188e-05,0.010798,-0.00015849,0,0,0.065755,-0.028321,0,-0.00082414,0,0,0,0.036089,-9.4882e-05,0.010798,-0.25096,0.015598,0.032153,1.0701e-06,0.89,0.11,0
0.043423,0.01166,0.036089,-9.8514e-05,0.010797,-0.00014683,0,0,0.065758,-0.028328,0,-0.00076353,0,0,0,0.036089,-9.911e-05,0.010797,-0.23248,0.015596,0.032156,1.0702e-06,0.9,0.11,0
0.04408,0.011675,0.036089,-0.00010233,0.010796,-0.00013436,0,0,0.065762,-0.028336,0,-0.00069866,0,0,0,0.036089,-0.00010283,0.010796,-0.2127,0.015594,0.032159,1.0703e-06,0.91,0.11,0
0.044738,0.011689,0.036089,-0.00010566,0.010795,-0.00012116,0,0,0.065765,-0.028342,0,-0.00063005,0,0,0,0.03609,-0.00010607,0.010795,-0.1918,0.015593,0.032162,1.0704e-06,0.92,0.11,0
0.045396,0.011701,0.03609,-0.00010854,0.010794,-0.00010734,0,0,0.065768,-0.028348,0,-0.00055817,0,0,0,0.03609,-0.00010886,0.010794,-0.1699,0.015592,0.032165,1.0706e-06,0.93,0.11,0
0.046053,0.011711,0.03609,-0.000111,0.010794,-9.298e-05,0,0,0.065771,-0.028353,0,-0.0004835,0,0,0,0.036091,-0.00011124,0.010794,-0.14716,0.015591,0.032167,1.0707e-06,0.94,0.11,0
0.046711,0.011719,0.036091,-0.00011304,0.010793,-7.8163e-05,0,0,0.065774,-0.028357,0,-0.00040645,0,0,0,0.036091,-0.00011321,0.010793,-0.1237,0.015591,0.032169,1.0708e-06,0.95,0.11,0
0.047369,0.011726,0.036092,-0.00011469,0.010793,-6.2973e-05,0,0,0.065776,-0.02836,0,-0.00032746,0,0,0,0.036092,-0.0001148,0.010793,-0.099653,0.01559,0.032171,1.0709e-06,0.96,0.11,0
0.048027,0.011732,0.036092,-0.00011597,0.010793,-4.7486e-05,0,0,0.065778,-0.028363,0,-0.00024693,0,0,0,0.036092,-0.00011603,0.010793,-0.075142,0.01559,0.032172,1.071e-06,0.97,0.11,0
0.048684,0.011735,0.036092,-0.00011687,0.010793,-3.1779e-05,0,0,0.065779,-0.028365,0,-0.00016525,0,0,0,0.036092,-0.00011689,0.010793,-0.050285,0.015589,0.032173,1.071e-06,0.98,0.11,0
0.049342,0.011738,0.036093,-0.0001174,0.010793,-1.5926e-05,0,0,0.06578,-0.028366,0,-8.2814e-05,0,0,0,0.036093,-0.00011741,0.010793,-0.0252,0.015589,0.032174,1.0711e-06,0.99,0.11,0
0.05,0.011739,0.036093,-0.00011758,0.010793,1.462e-05,0,0,0.06578,-0.028366,0,7.6024e-05,0,0,0,0.036093,-0.00011759,0.010793,0.023133,0.015589,0.032174,1.0711e-06,1,0.11,0
0,0,0.038305,0.016416,0.016416,0.0078032,0,0,0.028455,1.0842e-19,0,0.020288,0,0,0,0.040802,0.013919,0.016416,17.744,0.023713,0.025725,8.4664e-07,0,0.12,0
0.00028455,0.00020288,0.03821,0.015199,0.016023,0.0077953,0,0,0.028844,-0.0010705,0,0.020268,0,0,0,0.040602,0.012807,0.016023,17.06,0.023144,0.026335,8.9106e-07,0.01,0.12,0
0.00057687,0.0004128,0.038612,0.014109,0.015816,0.0078643,0,0,0.029634,-0.0022197,0,0.020447,0,0,0,0.040919,0.011802,0.015816,16.348,0.022846,0.027332,9.728e-07,0.02,0.12,0
0.00087724,0.00062796,0.039005,0.012966,0.015591,0.0078349,0,0,0.030438,-0.0034129,0,0.020371,0,0,0,0.041181,0.01079,0.015591,15.519,0.022521,0.028297,1.0517e-06,0.03,0.12,0
0.0011856,0.00084637,0.039374,0.011808,0.015354,0.0077043,0,0,0.031225,-0.0046109,0,0.020031,0,0,0,0.041381,0.0098004,0.015354,14.602,0.022179,0.029202,1.1246e-06,0.04,0.12,0
0.0015017,0.001066,0.039702,0.010667,0.015111,0.0074783,0,0,0.031969,-0.0057766,0,0.019444,0,0,0,0.041515,0.0088544,0.015111,13.627,0.021827,0.030026,1.1893e-06,0.05,0.12,0
0.001825,0.0012849,0.039979,0.0095747,0.014866,0.0071699,0,0,0.032647,-0.0068788,0,0.018642,0,0,0,0.041585,0.0079688,0.014866,12.625,0.021473,0.030753,1.2442e-06,0.06,0.12,0
0.0021547,0.0015015,0.040197,0.0085511,0.014624,0.006796,0,0,0.033244,-0.0078954,0,0.01767,0,0,0,0.041595,0.0071533,0.014624,11.622,0.021124,0.03138,1.2889e-06,0.07,0.12,0
0.0024899,0.0017142,0.040354,0.0076096,0.014389,0.0063754,0,0,0.033754,-0.0088133,0,0.016576,0,0,0,0.041551,0.006412,0.014389,10.638,0.020784,0.031908,1.3235e-06,0.08,0.12,0
0.0028298,0.0019219,0.040452,0.0067562,0.014162,0.0059259,0,0,0.034176,-0.0096279,0,0.015407,0,0,0,0.041463,0.0057444,0.014162,9.6893,0.020457,0.032342,1.3488e-06,0.09,0.12,0
0.0031734,0.002124,0.040495,0.0059913,0.013946,0.0054632,0,0,0.034514,-0.010341,0,0.014204,0,0,0,0.041339,0.005147,0.013946,8.7858,0.020144,0.032693,1.3661e-06,0.1,0.12,0
0.00352,0.0023198,0.040491,0.0053113,0.013741,0.005,0,0,0.034775,-0.010958,0,0.013,0,0,0,0.041188,0.0046145,0.013741,7.934,0.019848,0.032972,1.3765e-06,0.11,0.12,0
0.0038689,0.0025089,0.040447,0.0047101,0.013547,0.0045462,0,0,0.03497,-0.011488,0,0.01182,0,0,0,0.041017,0.0041408,0.013547,7.1372,0.019568,0.033188,1.3814e-06,0.12,0.12,0
0.0042194,0.0026915,0.040372,0.0041802,0.013366,0.0041089,0,0,0.035108,-0.011941,0,0.010683,0,0,0,0.040832,0.0037196,0.013366,6.3964,0.019306,0.033353,1.3819e-06,0.13,0.12,0
0.0045711,0.0028673,0.040271,0.0037141,0.013196,0.0036928,0,0,0.035198,-0.012326,0,0.0096012,0,0,0,0.040641,0.0033449,0.013196,5.7108,0.01906,0.033476,1.3791e-06,0.14,0.12,0
0.0049234,0.0030366,0.040103,0.0032035,0.012992,0.0033004,0,0,0.035244,-0.012725,0,0.0085811,0,0,0,0.040396,0.0029106,0.012992,5.0711,0.018766,0.033599,1.373e-06,0.15,0.12,0
0.0052761,0.0031996,0.039983,0.0028548,0.012851,0.0028565,0,0,0.035271,-0.012996,0,0.0074269,0,0,0,0.040202,0.0026363,0.012851,4.3738,0.018563,0.033642,1.3649e-06,0.16,0.12,0
0.0056288,0.0033566,0.039879,0.002625,0.012751,0.002595,0,0,0.035266,-0.013164,0,0.006747,0,0,0,0.040059,0.0024451,0.012751,3.9655,0.018418,0.033666,1.3583e-06,0.17,0.12,0
0.0059814,0.0035079,0.039733,0.0023434,0.012623,0.0022814,0,0,0.035243,-0.013363,0,0.0059317,0,0,0,0.039872,0.0022047,0.012623,3.4788,0.018233,0.033689,1.3491e-06,0.18,0.12,0
0.0063337,0.0036538,0.039585,0.0020933,0.012503,0.0019934,0,0,0.035206,-0.013533,0,0.005183,0,0,0,0.03969,0.0019876,0.012503,3.0351,0.01806,0.033699,1.3395e-06,0.19,0.12,0
0.0066855,0.0037947,0.039436,0.0018704,0.012392,0.0017303,0,0,0.035157,-0.013678,0,0.0044987,0,0,0,0.039515,0.0017909,0.012392,2.6316,0.017899,0.033699,1.3297e-06,0.2,0.12,0
0.0070368,0.0039311,0.039288,0.0016705,0.012288,0.0014908,0,0,0.035101,-0.013802,0,0.0038761,0,0,0,0.039347,0.0016115,0.012288,2.2659,0.017749,0.033691,1.3198e-06,0.21,0.12,0
0.0073875,0.0040632,0.039143,0.0014903,0.01219,0.0012741,0,0,0.035039,-0.01391,0,0.0033127,0,0,0,0.039186,0.0014473,0.01219,1.9359,0.017608,0.033678,1.31e-06,0.22,0.12,0
0.0077376,0.0041915,0.039001,0.0013267,0.012098,0.0010791,0,0,0.034973,-0.014003,0,0.0028057,0,0,0,0.039032,0.0012959,0.012098,1.6394,0.017475,0.033661,1.3003e-06,0.23,0.12,0
0.008087,0.0043164,0.038862,0.0011771,0.012012,0.00090487,0,0,0.034905,-0.014085,0,0.0023526,0,0,0,0.038883,0.0011554,0.012012,1.3747,0.01735,0.03364,1.2908e-06,0.24,0.12,0
0.0084357,0.0044383,0.038726,0.0010389,0.011929,0.00075052,0,0,0.034835,-0.014158,0,0.0019513,0,0,0,0.038741,0.0010239,0.011929,1.1404,0.017231,0.033618,1.2815e-06,0.25,0.12,0
0.0087837,0.0045575,0.038593,0.00091003,0.011851,0.00061534,0,0,0.034765,-0.014223,0,0.0015999,0,0,0,0.038603,0.00089998,0.011851,0.93528,0.017118,0.033594,1.2725e-06,0.26,0.12,0
0.009131,0.0046745,0.038463,0.00078849,0.011775,0.00049875,0,0,0.034694,-0.014283,0,0.0012967,0,0,0,0.038469,0.00078189,0.011775,0.75833,0.017009,0.033569,1.2637e-06,0.27,0.12,0
0.0094776,0.0047897,0.038335,0.00067235,0.011702,0.00040029,0,0,0.034623,-0.014339,0,0.0010408,0,0,0,0.03834,0.0006681,0.011702,0.60886,0.016903,0.033544,1.255e-06,0.28,0.12,0
0.0098234,0.0049034,0.03821,0.00055979,0.011631,0.00031969,0,0,0.034552,-0.014392,0,0.00083119,0,0,0,0.038213,0.00055707,0.011631,0.48646,0.0168,0.03352,1.2466e-06,0.29,0.12,0
0.010169,0.0050161,0.038086,0.00044894,0.01156,0.00025681,0,0,0.034483,-0.014445,0,0.0006677,0,0,0,0.038087,0.00044719,0.01156,0.39092,0.016698,0.033496,1.2383e-06,0.3,0.12,0
0.010513,0.0051281,0.037962,0.00033793,0.01149,0.00021168,0,0,0.034414,-0.014498,0,0.00055037,0,0,0,0.037964,0.00033674,0.01149,0.32234,0.016597,0.033474,1.2302e-06,0.31,0.12,0
0.010857,0.0052399,0.03784,0.00022473,0.011419,0.0001845,0,0,0.034347,-0.014553,0,0.00047971,0,0,0,0.037841,0.00022382,0.011419,0.28103,0.016495,0.033455,1.2222e-06,0.32,0.12,0
0.0112,0.0053519,0.037717,0.00010715,0.011347,0.00017561,0,0,0.034281,-0.014612,0,0.0004566,0,0,0,0.037718,0.00010633,0.011347,0.26753,0.01639,0.03344,1.2144e-06,0.33,0.12,0
0.011543,0.0054645,0.037595,-1.7249e-05,0.011273,0.00018548,0,0,0.034218,-0.014678,0,0.00048226,0,0,0,0.037595,-1.8163e-05,0.011273,0.28255,0.016283,0.03343,1.2069e-06,0.34,0.12,0
0.011884,0.005578,0.037472,-0.00015126,0.011196,0.00021469,0,0,0.034158,-0.014752,0,0.00055819,0,0,0,0.037473,-0.00015249,0.011196,0.32693,0.016172,0.033429,1.1997e-06,0.35,0.12,0
0.012226,0.0056931,0.037349,-0.0002981,0.011115,0.00026386,0,0,0.034104,-0.014837,0,0.00068603,0,0,0,0.037351,-0.00029995,0.011115,0.40154,0.016056,0.033438,1.193e-06,0.36,0.12,0
0.012566,0.00581,0.037227,-0.0004615,0.01103,0.00033358,0,0,0.034057,-0.014939,0,0.0008673,0,0,0,0.03723,-0.00046445,0.01103,0.50706,0.015932,0.033463,1.187e-06,0.37,0.12,0
0.012907,0.0059292,0.037108,-0.00064578,0.010939,0.0004243,0,0,0.03402,-0.01506,0,0.0011032,0,0,0,0.037112,-0.00065054,0.010939,0.64382,0.0158,0.033507,1.1818e-06,0.38,0.12,0
0.013247,0.006051,0.036991,-0.00085594,0.010841,0.00053614,0,0,0.033996,-0.015206,0,0.001394,0,0,0,0.036999,-0.00086354,0.010841,0.81143,0.015659,0.033577,1.1779e-06,0.39,0.12,0
0.013587,0.006176,0.036881,-0.0010977,0.010735,0.00066867,0,0,0.03399,-0.015383,0,0.0017385,0,0,0,0.036893,-0.0011095,0.010735,1.0083,0.015506,0.03368,1.1756e-06,0.4,0.12,0
0.013927,0.0063043,0.03678,-0.0013773,0.010621,0.00082056,0,0,0.034007,-0.015598,0,0.0021334,0,0,0,0.036798,-0.001395,0.010621,1.2314,0.015341,0.033825,1.1753e-06,0.41,0.12,0
0.014267,0.0064364,0.036691,-0.0017016,0.010497,0.00098927,0,0,0.034053,-0.015858,0,0.0025721,0,0,0,0.036717,-0.0017271,0.010497,1.475,0.015162,0.034021,1.1776e-06,0.42,0.12,0
0.014608,0.0065724,0.036619,-0.0020772,0.010363,0.0011706,0,0,0.034133,-0.016172,0,0.0030436,0,0,0,0.036654,-0.0021126,0.010363,1.7312,0.014968,0.034276,1.1829e-06,0.43,0.12,0
0.01495,0.0067123,0.036567,-0.0025102,0.010217,0.0013585,0,0,0.034255,-0.016545,0,0.0035322,0,0,0,0.036614,-0.0025573,0.010217,1.9887,0.014758,0.0346,1.1915e-06,0.44,0.12,0
0.015293,0.0068562,0.036537,-0.0030049,0.01006,0.0015448,0,0,0.034421,-0.016984,0,0.0040165,0,0,0,0.036598,-0.0030652,0.01006,2.2338,0.014531,0.034998,1.2037e-06,0.45,0.12,0
0.015638,0.0070037,0.036533,-0.003563,0.0098911,0.0017193,0,0,0.034635,-0.01749,0,0.0044701,0,0,0,0.036607,-0.0036365,0.0098911,2.4508,0.014287,0.03547,1.2194e-06,0.46,0.12,0
0.015985,0.0071544,0.036505,-0.0041753,0.0096989,0.0018221,0,0,0.034848,-0.018036,0,0.0047375,0,0,0,0.036586,-0.0042567,0.0096989,2.5595,0.014009,0.035957,1.2326e-06,0.47,0.12,0
0.016336,0.0073076,0.036679,-0.0047972,0.0095645,0.0019654,0,0,0.035249,-0.01867,0,0.0051099,0,0,0,0.036772,-0.0048901,0.0095645,2.7069,0.013815,0.036639,1.2656e-06,0.48,0.12,0
0.016689,0.0074623,0.036655,-0.0055648,0.0093271,0.0020602,0,0,0.035527,-0.01936,0,0.0053564,0,0,0,0.036756,-0.0056651,0.0093271,2.787,0.013473,0.03726,1.2807e-06,0.49,0.12,0
0.017046,0.0076175,0.036687,-0.00080484,0.010765,0.0020814,0,0,0.04955,-0.020054,0,0.0081019,0,0,0,0.036805,-0.00092224,0.010765,3.2308,0.015549,0.03352,1.1296e-06,0.5,0.12,0
0.01768,0.007826,0.036795,0.004259,0.012316,0.0020546,0,0,0.063645,-0.020949,0,0.010684,0,0,0,0.036924,0.0041298,0.012316,3.5991,0.01779,0.029564,9.9202e-07,0.51,0.12,0
0.018319,0.0080314,0.036862,0.0038058,0.0122,0.0019926,0,0,0.06412,-0.021826,0,0.010361,0,0,0,0.036981,0.0036861,0.0122,3.4372,0.017623,0.02996,1.0143e-06,0.52,0.12,0
0.018963,0.0082325,0.036919,0.0033708,0.012087,0.001902,0,0,0.064564,-0.022662,0,0.0098904,0,0,0,0.037027,0.0032633,0.012087,3.2345,0.017459,0.03033,1.0346e-06,0.53,0.12,0
0.019611,0.0084282,0.036964,0.0029625,0.011978,0.0017875,0,0,0.064964,-0.02344,0,0.0092947,0,0,0,0.037058,0.0028688,0.011978,3.001,0.017302,0.030666,1.0525e-06,0.54,0.12,0
0.020262,0.0086173,0.036948,0.0025481,0.011849,0.0016603,0,0,0.065257,-0.024182,0,0.0086333,0,0,0,0.037028,0.0024682,0.011849,2.7567,0.017115,0.030954,1.0649e-06,0.55,0.12,0
0.020917,0.0087992,0.037027,0.0022357,0.011779,0.0014673,0,0,0.065645,-0.024812,0,0.00763,0,0,0,0.037089,0.002174,0.011779,2.4107,0.017014,0.03124,1.0813e-06,0.56,0.12,0
0.021574,0.0089733,0.037007,0.0019454,0.011686,0.00136,0,0,0.065835,-0.025325,0,0.0070718,0,0,0,0.03706,0.0018928,0.011686,2.2179,0.016879,0.031436,1.0891e-06,0.57,0.12,0
0.022233,0.0091392,0.036993,0.0016791,0.011602,0.0012089,0,0,0.066017,-0.025798,0,0.0062863,0,0,0,0.037034,0.0016378,0.011602,1.9584,0.016758,0.031615,1.0961e-06,0.58,0.12,0
0.022894,0.0092969,0.036967,0.0014465,0.011524,0.0010612,0,0,0.066152,-0.026202,0,0.0055185,0,0,0,0.036999,0.0014148,0.011524,1.7098,0.016646,0.03176,1.1009e-06,0.59,0.12,0
0.023557,0.0094463,0.036932,0.0012444,0.011453,0.00092002,0,0,0.066246,-0.026542,0,0.0047841,0,0,0,0.036956,0.0012207,0.011453,1.4757,0.016543,0.031876,1.1039e-06,0.6,0.12,0
0.024219,0.0095875,0.036891,0.0010695,0.011388,0.00078724,0,0,0.066308,-0.026829,0,0.0040936,0,0,0,0.036908,0.0010522,0.011388,1.2584,0.01645,0.031967,1.1055e-06,0.61,0.12,0
0.024883,0.0097208,0.036846,0.00091842,0.011329,0.00066412,0,0,0.066343,-0.027068,0,0.0034534,0,0,0,0.036858,0.00090615,0.011329,1.0586,0.016364,0.032038,1.106e-06,0.62,0.12,0
0.025546,0.0098463,0.036798,0.00078795,0.011276,0.00055121,0,0,0.066357,-0.027268,0,0.0028663,0,0,0,0.036806,0.00077951,0.011276,0.87677,0.016287,0.032093,1.1057e-06,0.63,0.12,0
0.02621,0.0099645,0.036749,0.00067519,0.011227,0.00044862,0,0,0.066356,-0.027435,0,0.0023328,0,0,0,0.036755,0.00066962,0.011227,0.7124,0.016217,0.032134,1.1047e-06,0.64,0.12,0
0.026873,0.010076,0.0367,0.00057761,0.011183,0.00035611,0,0,0.066344,-0.027575,0,0.0018518,0,0,0,0.036704,0.0005741,0.011183,0.56477,0.016154,0.032165,1.1034e-06,0.65,0.12,0
0.027537,0.01018,0.036653,0.00049296,0.011144,0.00027325,0,0,0.066325,-0.027692,0,0.0014209,0,0,0,0.036656,0.00049089,0.011144,0.43293,0.016097,0.032189,1.1018e-06,0.66,0.12,0
0.0282,0.010278,0.036608,0.00041935,0.011108,0.00019947,0,0,0.0663,-0.027791,0,0.0010372,0,0,0,0.03661,0.00041825,0.011108,0.31579,0.016045,0.032206,1.1001e-06,0.67,0.12,0
0.028863,0.01037,0.036566,0.00035515,0.011076,0.00013415,0,0,0.066273,-0.027875,0,0.00069757,0,0,0,0.036566,0.00035465,0.011076,0.21226,0.015999,0.032218,1.0983e-06,0.68,0.12,0
0.029525,0.010457,0.036526,0.00029899,0.011048,7.6649e-05,0,0,0.066244,-0.027946,0,0.00039857,0,0,0,0.036526,0.00029883,0.011048,0.12122,0.015957,0.032227,1.0965e-06,0.69,0.12,0
0.030188,0.010537,0.036489,0.00024972,0.011022,2.6334e-05,0,0,0.066216,-0.028007,0,0.00013694,0,0,0,0.036489,0.0002497,0.011022,0.041635,0.01592,0.032233,1.0948e-06,0.7,0.12,0
0.03085,0.010613,0.036455,0.00020634,0.010998,-1.7405e-05,0,0,0.066188,-0.02806,0,-9.0505e-05,0,0,0,0.036455,0.00020634,0.010998,-0.02751,0.015887,0.032238,1.0931e-06,0.71,0.12,0
0.031511,0.010684,0.036425,0.00016805,0.010978,-5.5143e-05,0,0,0.066162,-0.028105,0,-0.00028674,0,0,0,0.036425,0.00016797,0.010978,-0.087141,0.015857,0.032241,1.0916e-06,0.72,0.12,0
0.032173,0.010751,0.036403,0.00014362,0.010964,-7.92e-05,0,0,0.066141,-0.028133,0,-0.00041184,0,0,0,0.036403,0.00014345,0.010964,-0.12515,0.015837,0.032241,1.0905e-06,0.73,0.12,0
0.032834,0.010813,0.036373,0.00011221,0.010946,-0.00013275,0,0,0.066112,-0.028167,0,-0.00069032,0,0,0,0.036374,0.00011172,0.010946,-0.20976,0.01581,0.03224,1.0888e-06,0.74,0.12,0
0.033495,0.010871,0.036355,8.8043e-05,0.010933,-0.00012961,0,0,0.066098,-0.028197,0,-0.00067397,0,0,0,0.036356,8.758e-05,0.010933,-0.20476,0.015792,0.032244,1.088e-06,0.75,0.12,0
0.034156,0.010925,0.036332,6.3044e-05,0.010918,-0.00017177,0,0,0.066075,-0.028224,0,-0.00089319,0,0,0,0.036333,6.223e-05,0.010918,-0.27134,0.015771,0.032243,1.0868e-06,0.76,0.12,0
0.034817,0.010976,0.036318,4.3667e-05,0.010908,-0.00016356,0,0,0.066064,-0.028248,0,-0.00085051,0,0,0,0.036318,4.293e-05,0.010908,-0.25834,0.015757,0.032246,1.0861e-06,0.77,0.12,0
0.035477,0.011023,0.036299,2.368e-05,0.010897,-0.00019616,0,0,0.066047,-0.028271,0,-0.00102,0,0,0,0.036301,2.262e-05,0.010897,-0.30981,0.01574,0.032247,1.0852e-06,0.78,0.12,0
0.036138,0.011067,0.036289,7.9393e-06,0.010889,-0.00018392,0,0,0.066039,-0.028291,0,-0.00095637,0,0,0,0.03629,7.007e-06,0.010889,-0.29044,0.015728,0.032249,1.0847e-06,0.79,0.12,0
0.036798,0.011107,0.036275,-8.0862e-06,0.01088,-0.0002085,0,0,0.066027,-0.028309,0,-0.0010842,0,0,0,0.036276,-9.2843e-06,0.01088,-0.32923,0.015716,0.03225,1.084e-06,0.8,0.12,0
0.037458,0.011145,0.036267,-2.0999e-05,0.010874,-0.00019305,0,0,0.066022,-0.028326,0,-0.0010038,0,0,0,0.036268,-2.2026e-05,0.010874,-0.3048,0.015707,0.032253,1.0837e-06,0.81,0.12,0
0.038118,0.01118,0.036257,-3.3861e-05,0.010867,-0.00021092,0,0,0.066014,-0.028342,0,-0.0010968,0,0,0,0.036258,-3.5087e-05,0.010867,-0.33298,0.015697,0.032255,1.0832e-06,0.82,0.12,0
0.038779,0.011213,0.036245,-5.7701e-05,0.010856,-0.00019939,0,0,0.06601,-0.028376,0,-0.0010368,0,0,0,0.036246,-5.8796e-05,0.010856,-0.31468,0.015681,0.032263,1.0829e-06,0.83,0.12,0
0.039439,0.011243,0.036238,-6.7873e-05,0.010851,-0.00019619,0,0,0.066007,-0.02839,0,-0.0010202,0,0,0,0.03624,-6.8933e-05,0.010851,-0.30961,0.015674,0.032266,1.0826e-06,0.84,0.12,0
0.040099,0.01127,0.036233,-7.703e-05,0.010847,-0.00019128,0,0,0.066005,-0.028402,0,-0.00099466,0,0,0,0.036234,-7.8038e-05,0.010847,-0.30182,0.015668,0.032268,1.0825e-06,0.85,0.12,0
0.040759,0.011296,0.036229,-8.5264e-05,0.010843,-0.00018481,0,0,0.066004,-0.028414,0,-0.000961,0,0,0,0.03623,-8.6204e-05,0.010843,-0.29157,0.015662,0.032271,1.0823e-06,0.86,0.12,0
0.041419,0.011319,0.036226,-9.2653e-05,0.01084,-0.00017693,0,0,0.066003,-0.028425,0,-0.00092004,0,0,0,0.036227,-9.3515e-05,0.01084,-0.27912,0.015658,0.032274,1.0823e-06,0.87,0.12,0
0.042079,0.01134,0.036223,-9.9268e-05,0.010837,-0.00016779,0,0,0.066003,-0.028435,0,-0.00087249,0,0,0,0.036224,-0.00010004,0.010837,-0.26466,0.015654,0.032276,1.0822e-06,0.88,0.12,0
0.042739,0.011359,0.036221,-0.00010517,0.010835,-0.00015751,0,0,0.066004,-0.028444,0,-0.00081904,0,0,0,0.036222,-0.00010585,0.010835,-0.24843,0.01565,0.032279,1.0822e-06,0.89,0.12,0
0.043399,0.011376,0.036219,-0.0001104,0.010833,-0.00014622,0,0,0.066005,-0.028452,0,-0.00076032,0,0,0,0.03622,-0.00011099,0.010833,-0.23059,0.015647,0.032281,1.0822e-06,0.9,0.12,0
0.044059,0.011391,0.036218,-0.00011502,0.010831,-0.00013402,0,0,0.066006,-0.028459,0,-0.00069693,0,0,0,0.036218,-0.00011552,0.010831,-0.21135,0.015645,0.032284,1.0822e-06,0.91,0.12,0
0.044719,0.011405,0.036217,-0.00011906,0.010829,-0.00012104,0,0,0.066008,-0.028466,0,-0.00062942,0,0,0,0.036217,-0.00011946,0.010829,-0.19086,0.015642,0.032286,1.0823e-06,0.92,0.12,0
0.045379,0.011416,0.036216,-0.00012255,0.010828,-0.00010737,0,0,0.066009,-0.028472,0,-0.00055833,0,0,0,0.036217,-0.00012287,0.010828,-0.16929,0.015641,0.032288,1.0823e-06,0.93,0.12,0
0.046039,0.011427,0.036216,-0.00012553,0.010827,-9.3104e-05,0,0,0.066011,-0.028477,0,-0.00048414,0,0,0,0.036216,-0.00012576,0.010827,-0.14679,0.015639,0.03229,1.0823e-06,0.94,0.12,0
0.046699,0.011435,0.036215,-0.000128,0.010826,-7.8337e-05,0,0,0.066012,-0.028481,0,-0.00040735,0,0,0,0.036216,-0.00012817,0.010826,-0.1235,0.015638,0.032292,1.0824e-06,0.95,0.12,0
0.047359,0.011442,0.036215,-0.00013001,0.010826,-6.3157e-05,0,0,0.066013,-0.028484,0,-0.00032842,0,0,0,0.036215,-0.00013012,0.010826,-0.099562,0.015637,0.032293,1.0824e-06,0.96,0.12,0
0.048019,0.011447,0.036221,-0.00011765,0.010831,-4.2797e-05,0,0,0.066014,-0.028466,0,-0.00022254,0,0,0,0.036221,-0.0001177,0.010831,-0.067478,0.015645,0.032288,1.0825e-06,0.97,0.12,0
0.04868,0.011451,0.036221,-0.00011867,0.010831,-3.6848e-05,0,0,0.066015,-0.028468,0,-0.00019161,0,0,0,0.036221,-0.00011871,0.010831,-0.058096,0.015644,0.032289,1.0826e-06,0.98,0.12,0
0.04934,0.011454,0.036221,-0.00011936,0.01083,-1.1159e-05,0,0,0.066015,-0.02847,0,-5.8027e-05,0,0,0,0.036221,-0.00011936,0.01083,-0.017594,0.015644,0.032289,1.0826e-06,0.99,0.12,0
0.05,0.011454,0.036233,-9.1661e-05,0.010842,1.4547e-05,0,0,0.066015,-0.028428,0,7.5643e-05,0,0,0,0.036233,-9.1667e-05,0.010842,0.022945,0.015661,0.032278,1.0828e-06,1,0.12,0
0,0,0.037835,0.016215,0.016215,0.0074075,0,0,0.028106,0,0,0.01926,0,0,0,0.04013,0.013921,0.016215,17.21,0.023422,0.025141,7.9323e-07,0,0.13,0
0.00028106,0.0001926,0.037579,0.015001,0.015774,0.0073594,0,0,0.028346,-0.0010049,0,0.019134,0,0,0,0.039766,0.012814,0.015774,16.55,0.022784,0.0256,8.2301e-07,0.01,0.13,0
0.00056932,0.00039152,0.038274,0.014121,0.015718,0.0074952,0,0,0.029322,-0.0020766,0,0.019488,0,0,0,0.040411,0.011984,0.015718,15.913,0.022704,0.026756,9.1943e-07,0.02,0.13,0
0.00086502,0.00059527,0.038491,0.013038,0.015459,0.0074546,0,0,0.029942,-0.0031473,0,0.019382,0,0,0,0.040514,0.011015,0.015459,15.18,0.022329,0.027547,9.801e-07,0.03,0.13,0
0.0011682,0.0008022,0.038842,0.011974,0.015245,0.0073543,0,0,0.030677,-0.0042524,0,0.019121,0,0,0,0.040724,0.010092,0.015245,14.349,0.02202,0.028407,1.048e-06,0.04,0.13,0
0.0014786,0.0010106,0.039162,0.010919,0.015024,0.0071721,0,0,0.031379,-0.0053369,0,0.018647,0,0,0,0.040879,0.0092022,0.015024,13.463,0.021702,0.029205,1.1099e-06,0.05,0.13,0
0.0017958,0.0012188,0.039441,0.0098979,0.014802,0.0069166,0,0,0.032031,-0.0063751,0,0.017983,0,0,0,0.040981,0.0083588,0.014802,12.545,0.02138,0.029925,1.1642e-06,0.06,0.13,0
0.0021192,0.0014254,0.039673,0.0089287,0.01458,0.0066003,0,0,0.03262,-0.0073472,0,0.017161,0,0,0,0.04103,0.0075717,0.01458,11.619,0.021061,0.030562,1.2103e-06,0.07,0.13,0
0.0024482,0.001629,0.039852,0.0080246,0.014363,0.0062376,0,0,0.033136,-0.0082401,0,0.016218,0,0,0,0.041031,0.0068458,0.014363,10.701,0.020747,0.031116,1.2481e-06,0.08,0.13,0
0.0027819,0.0018287,0.039981,0.0071928,0.014152,0.0058428,0,0,0.033578,-0.0090472,0,0.015191,0,0,0,0.040991,0.0061827,0.014152,9.8079,0.020442,0.031587,1.2779e-06,0.09,0.13,0
0.0031197,0.0020235,0.040061,0.006436,0.013949,0.0054294,0,0,0.033945,-0.0097669,0,0.014116,0,0,0,0.040916,0.0055811,0.013949,8.9487,0.020149,0.031982,1.3004e-06,0.1,0.13,0
0.0034608,0.002213,0.040096,0.0057533,0.013755,0.0050088,0,0,0.034244,-0.010402,0,0.013023,0,0,0,0.040812,0.0050377,0.013755,8.1309,0.019868,0.03231,1.3166e-06,0.11,0.13,0
0.0038046,0.0023968,0.040093,0.0051413,0.01357,0.0045906,0,0,0.03448,-0.010958,0,0.011936,0,0,0,0.040686,0.0045484,0.01357,7.359,0.019602,0.032578,1.3273e-06,0.12,0.13,0
0.0041504,0.0025746,0.040057,0.0045948,0.013396,0.0041819,0,0,0.03466,-0.011441,0,0.010873,0,0,0,0.040544,0.0041084,0.013396,6.6354,0.019349,0.032793,1.3334e-06,0.13,0.13,0
0.0044978,0.0027464,0.039994,0.0041082,0.013231,0.0037881,0,0,0.034793,-0.011859,0,0.0098491,0,0,0,0.04039,0.0037127,0.013231,5.9606,0.019111,0.032965,1.3359e-06,0.14,0.13,0
0.0048463,0.0029123,0.039935,0.0037646,0.01311,0.0034878,0,0,0.034873,-0.012149,0,0.0090682,0,0,0,0.040268,0.0034314,0.01311,5.4578,0.018936,0.033077,1.3362e-06,0.15,0.13,0
0.0051955,0.0030723,0.039858,0.0033835,0.012972,0.0030599,0,0,0.034951,-0.012465,0,0.0079557,0,0,0,0.040113,0.0031286,0.012972,4.7623,0.018738,0.033176,1.3338e-06,0.16,0.13,0
0.0055451,0.0032268,0.039697,0.0029471,0.012793,0.0027273,0,0,0.034975,-0.0128,0,0.007091,0,0,0,0.039898,0.0027458,0.012793,4.2213,0.018479,0.033286,1.3285e-06,0.17,0.13,0
0.005895,0.0033759,0.039575,0.0026409,0.012665,0.0024188,0,0,0.034984,-0.013031,0,0.0062888,0,0,0,0.039733,0.0024831,0.012665,3.7309,0.018294,0.033346,1.3229e-06,0.18,0.13,0
0.0062448,0.00352,0.039448,0.0023667,0.012544,0.0021334,0,0,0.034974,-0.013231,0,0.0055469,0,0,0,0.03957,0.0022443,0.012544,3.282,0.01812,0.033389,1.3164e-06,0.19,0.13,0
0.0065945,0.0036593,0.039317,0.0021203,0.012431,0.001871,0,0,0.034951,-0.013404,0,0.0048645,0,0,0,0.039411,0.0020264,0.012431,2.8723,0.017956,0.033419,1.3092e-06,0.2,0.13,0
0.0069438,0.0037943,0.039184,0.0018979,0.012325,0.001631,0,0,0.034917,-0.013555,0,0.0042406,0,0,0,0.039255,0.0018267,0.012325,2.4999,0.017802,0.033439,1.3016e-06,0.21,0.13,0
0.0072928,0.0039252,0.039051,0.0016959,0.012224,0.0014128,0,0,0.034875,-0.013686,0,0.0036732,0,0,0,0.039104,0.0016426,0.012224,2.1629,0.017657,0.03345,1.2938e-06,0.22,0.13,0
0.0076413,0.0040525,0.038918,0.0015115,0.012129,0.0012157,0,0,0.034826,-0.013802,0,0.0031609,0,0,0,0.038957,0.001472,0.012129,1.8595,0.017519,0.033455,1.2858e-06,0.23,0.13,0
0.0079893,0.0041765,0.038786,0.0013417,0.012038,0.0010391,0,0,0.034772,-0.013905,0,0.0027017,0,0,0,0.038814,0.0013129,0.012038,1.5884,0.017389,0.033454,1.2777e-06,0.24,0.13,0
0.0083368,0.0042975,0.038655,0.0011841,0.011952,0.00088232,0,0,0.034714,-0.013998,0,0.002294,0,0,0,0.038676,0.0011633,0.011952,1.3481,0.017264,0.03345,1.2697e-06,0.25,0.13,0
0.0086836,0.004416,0.038526,0.0010364,0.011869,0.0007448,0,0,0.034654,-0.014082,0,0.0019365,0,0,0,0.038541,0.0010216,0.011869,1.1377,0.017144,0.033442,1.2617e-06,0.26,0.13,0
0.0090298,0.0045323,0.038398,0.00089654,0.011789,0.00062609,0,0,0.034593,-0.01416,0,0.0016278,0,0,0,0.038409,0.00088609,0.011789,0.95619,0.017028,0.033432,1.2538e-06,0.27,0.13,0
0.0093755,0.0046468,0.038272,0.00076238,0.01171,0.00052583,0,0,0.03453,-0.014233,0,0.0013671,0,0,0,0.03828,0.00075501,0.01171,0.80298,0.016915,0.033422,1.2459e-06,0.28,0.13,0
0.0097205,0.0047599,0.038148,0.00063199,0.011634,0.00044379,0,0,0.034468,-0.014302,0,0.0011538,0,0,0,0.038153,0.00062674,0.011634,0.67765,0.016804,0.033411,1.2382e-06,0.29,0.13,0
0.010065,0.004872,0.038024,0.00050336,0.011558,0.00037985,0,0,0.034405,-0.014371,0,0.00098762,0,0,0,0.038028,0.00049952,0.011558,0.57998,0.016695,0.033401,1.2306e-06,0.3,0.13,0
0.010409,0.0049834,0.037901,0.00037448,0.011483,0.00033404,0,0,0.034344,-0.014441,0,0.0008685,0,0,0,0.037904,0.00037151,0.011483,0.50996,0.016586,0.033393,1.2231e-06,0.31,0.13,0
0.010752,0.0050946,0.037778,0.00024319,0.011406,0.00030646,0,0,0.034284,-0.014512,0,0.00079681,0,0,0,0.037781,0.00024069,0.011406,0.46776,0.016476,0.033388,1.2158e-06,0.32,0.13,0
0.011094,0.0052059,0.037657,0.00010718,0.011329,0.00029736,0,0,0.034226,-0.014589,0,0.00077313,0,0,0,0.037659,0.00010483,0.011329,0.45369,0.016364,0.033388,1.2088e-06,0.33,0.13,0
0.011436,0.0053177,0.037536,-3.6084e-05,0.01125,0.00030702,0,0,0.034172,-0.014672,0,0.00079825,0,0,0,0.037538,-3.8593e-05,0.01125,0.46815,0.01625,0.033396,1.2021e-06,0.34,0.13,0
0.011778,0.0054305,0.037416,-0.00018945,0.011168,0.00033578,0,0,0.034122,-0.014764,0,0.00087303,0,0,0,0.037419,-0.00019245,0.011168,0.51155,0.016131,0.033412,1.1959e-06,0.35,0.13,0
0.012119,0.0055445,0.037297,-0.00035612,0.011082,0.00038396,0,0,0.034079,-0.01487,0,0.00099829,0,0,0,0.037301,-0.00036004,0.011082,0.58417,0.016008,0.033442,1.1902e-06,0.36,0.13,0
0.012459,0.0056603,0.037181,-0.00053972,0.010992,0.00045174,0,0,0.034045,-0.014992,0,0.0011745,0,0,0,0.037186,-0.00054513,0.010992,0.68604,0.015878,0.033488,1.1854e-06,0.37,0.13,0
0.0128,0.0057782,0.037069,-0.00074433,0.010897,0.0005391,0,0,0.034023,-0.015134,0,0.0014017,0,0,0,0.037076,-0.00075201,0.010897,0.81665,0.015741,0.033556,1.1817e-06,0.38,0.13,0
0.01314,0.0058985,0.036962,-0.00097452,0.010796,0.00064561,0,0,0.034015,-0.015302,0,0.0016786,0,0,0,0.036973,-0.00098551,0.010796,0.9747,0.015595,0.033652,1.1793e-06,0.39,0.13,0
0.01348,0.0060215,0.036863,-0.0012353,0.010688,0.00077025,0,0,0.034027,-0.015501,0,0.0020027,0,0,0,0.036879,-0.0012509,0.010688,1.1577,0.015439,0.033781,1.1786e-06,0.4,0.13,0
0.01382,0.0061477,0.036775,-0.001532,0.010573,0.00091115,0,0,0.034062,-0.015736,0,0.002369,0,0,0,0.036796,-0.0015537,0.010573,1.3618,0.015272,0.033952,1.18e-06,0.41,0.13,0
0.014161,0.006277,0.0367,-0.0018701,0.010449,0.0010654,0,0,0.034126,-0.016015,0,0.0027699,0,0,0,0.036729,-0.0018995,0.010449,1.581,0.015093,0.034171,1.1838e-06,0.42,0.13,0
0.014503,0.0064098,0.036641,-0.0022545,0.010316,0.0012286,0,0,0.034222,-0.016341,0,0.0031943,0,0,0,0.03668,-0.0022933,0.010316,1.8074,0.014901,0.034445,1.1904e-06,0.43,0.13,0
0.014846,0.006546,0.036601,-0.0026896,0.010174,0.001395,0,0,0.034356,-0.016722,0,0.003627,0,0,0,0.036651,-0.002739,0.010174,2.0309,0.014695,0.03478,1.2001e-06,0.44,0.13,0
0.01519,0.0066854,0.036583,-0.0031777,0.010022,0.0015574,0,0,0.03453,-0.017159,0,0.0040492,0,0,0,0.036644,-0.0032386,0.010022,2.2396,0.014476,0.03518,1.2128e-06,0.45,0.13,0
0.015536,0.006828,0.036587,-0.0037189,0.0098606,0.0017072,0,0,0.034745,-0.017653,0,0.0044387,0,0,0,0.03666,-0.003791,0.0098606,2.421,0.014243,0.035643,1.2284e-06,0.46,0.13,0
0.015885,0.006973,0.036539,-0.0043652,0.0096522,0.0018532,0,0,0.034953,-0.018223,0,0.0048182,0,0,0,0.036623,-0.004449,0.0096522,2.5887,0.013942,0.036147,1.2407e-06,0.47,0.13,0
0.016236,0.0071201,0.036715,-0.0049367,0.0095335,0.0019708,0,0,0.035336,-0.018811,0,0.005124,0,0,0,0.036808,-0.0050297,0.0095335,2.7029,0.013771,0.036786,1.2724e-06,0.48,0.13,0
0.016591,0.0072684,0.036714,-0.0056094,0.0093315,0.0019928,0,0,0.035598,-0.019423,0,0.0051812,0,0,0,0.036808,-0.005703,0.0093315,2.6898,0.013479,0.037338,1.2868e-06,0.49,0.13,0
0.016948,0.0074169,0.036747,-0.00079341,0.010786,0.002009,0,0,0.049619,-0.020071,0,0.0078183,0,0,0,0.036856,-0.00090266,0.010786,3.1152,0.01558,0.03355,1.1339e-06,0.5,0.13,0
0.017583,0.0076167,0.036849,0.004304,0.012346,0.0019838,0,0,0.063707,-0.020909,0,0.010316,0,0,0,0.036969,0.0041835,0.012346,3.4755,0.017833,0.029562,9.9371e-07,0.51,0.13,0
0.018222,0.0078137,0.036914,0.0038796,0.012238,0.0019286,0,0,0.064157,-0.021732,0,0.010028,0,0,0,0.037026,0.0037674,0.012238,3.3299,0.017677,0.029936,1.015e-06,0.52,0.13,0
0.018866,0.0080067,0.036971,0.0034699,0.012132,0.0018487,0,0,0.064581,-0.022522,0,0.0096131,0,0,0,0.037073,0.0033682,0.012132,3.149,0.017524,0.030289,1.0346e-06,0.53,0.13,0
0.019514,0.0081947,0.037018,0.0030819,0.01203,0.0017476,0,0,0.064969,-0.023265,0,0.0090877,0,0,0,0.037108,0.0029921,0.01203,2.9402,0.017377,0.030614,1.0522e-06,0.54,0.13,0
0.020165,0.0083769,0.037026,0.0027262,0.011926,0.0016671,0,0,0.065261,-0.023919,0,0.0086687,0,0,0,0.037107,0.0026453,0.011926,2.776,0.017226,0.030885,1.0653e-06,0.55,0.13,0
0.02082,0.0085526,0.037115,0.0024254,0.011862,0.0014941,0,0,0.065657,-0.024535,0,0.0077694,0,0,0,0.037179,0.0023612,0.011862,2.4617,0.017134,0.031173,1.0824e-06,0.56,0.13,0
0.021478,0.0087211,0.037083,0.0020915,0.011752,0.001364,0,0,0.065859,-0.025118,0,0.007093,0,0,0,0.037136,0.0020384,0.011752,2.229,0.016976,0.031389,1.0906e-06,0.57,0.13,0
0.022137,0.0088823,0.037079,0.0018242,0.011671,0.0012252,0,0,0.06606,-0.025601,0,0.0063711,0,0,0,0.037121,0.0017817,0.011671,1.988,0.016858,0.031578,1.0987e-06,0.58,0.13,0
0.022799,0.0090358,0.037064,0.0015872,0.011595,0.0010876,0,0,0.066218,-0.026021,0,0.0056556,0,0,0,0.037097,0.0015539,0.011595,1.7544,0.016749,0.031737,1.1048e-06,0.59,0.13,0
0.023462,0.0091817,0.03704,0.0013784,0.011525,0.00095418,0,0,0.066337,-0.026382,0,0.0049618,0,0,0,0.037065,0.0013529,0.011525,1.5316,0.016648,0.031868,1.1091e-06,0.6,0.13,0
0.024126,0.0093199,0.037008,0.0011951,0.011461,0.00082702,0,0,0.066423,-0.026691,0,0.0043005,0,0,0,0.037028,0.0011761,0.011461,1.3222,0.016555,0.031975,1.112e-06,0.61,0.13,0
0.02479,0.0094506,0.036972,0.0010348,0.011402,0.00070755,0,0,0.066482,-0.026955,0,0.0036793,0,0,0,0.036986,0.0010209,0.011402,1.1275,0.01647,0.032061,1.1137e-06,0.62,0.13,0
0.025455,0.0095741,0.036932,0.00089463,0.011348,0.00059664,0,0,0.066519,-0.027179,0,0.0031025,0,0,0,0.036942,0.00088475,0.011348,0.94824,0.016392,0.03213,1.1144e-06,0.63,0.13,0
0.026121,0.0096905,0.03689,0.0007722,0.011299,0.00049468,0,0,0.066538,-0.027369,0,0.0025723,0,0,0,0.036897,0.00076543,0.011299,0.78453,0.016321,0.032185,1.1144e-06,0.64,0.13,0
0.026786,0.0098001,0.036848,0.00066518,0.011254,0.00040172,0,0,0.066544,-0.027531,0,0.002089,0,0,0,0.036852,0.00066072,0.011254,0.63603,0.016256,0.032228,1.1139e-06,0.65,0.13,0
0.027451,0.0099033,0.036805,0.00057152,0.011213,0.00031759,0,0,0.06654,-0.027668,0,0.0016515,0,0,0,0.036808,0.00056873,0.011213,0.50216,0.016197,0.032262,1.113e-06,0.66,0.13,0
0.028117,0.01,0.036764,0.0004894,0.011176,0.00024195,0,0,0.066528,-0.027785,0,0.0012582,0,0,0,0.036765,0.00048779,0.011176,0.38215,0.016143,0.032289,1.1119e-06,0.67,0.13,0
0.028782,0.010091,0.036724,0.00041727,0.011142,0.00017437,0,0,0.066512,-0.027885,0,0.0009067,0,0,0,0.036725,0.00041643,0.011142,0.27516,0.016094,0.032309,1.1106e-06,0.68,0.13,0
0.029447,0.010177,0.036686,0.00035375,0.011112,0.00011433,0,0,0.066492,-0.027971,0,0.00059451,0,0,0,0.036686,0.00035339,0.011112,0.1803,0.01605,0.032325,1.1092e-06,0.69,0.13,0
0.030112,0.010257,0.03665,0.00029769,0.011084,6.1329e-05,0,0,0.06647,-0.028045,0,0.00031891,0,0,0,0.03665,0.00029759,0.011084,0.096663,0.016011,0.032337,1.1077e-06,0.7,0.13,0
0.030776,0.010332,0.036616,0.00024809,0.011059,1.4846e-05,0,0,0.066448,-0.028109,0,7.7201e-05,0,0,0,0.036616,0.00024808,0.011059,0.02339,0.015974,0.032347,1.1063e-06,0.71,0.13,0
0.031441,0.010403,0.036585,0.00020409,0.011037,-2.5625e-05,0,0,0.066425,-0.028165,0,-0.00013325,0,0,0,0.036585,0.00020407,0.011037,-0.040357,0.015942,0.032355,1.1049e-06,0.72,0.13,0
0.032105,0.010469,0.036556,0.00015897,0.011014,-4.0911e-05,0,0,0.066407,-0.028224,0,-0.00021274,0,0,0,0.036556,0.00015893,0.011014,-0.064403,0.01591,0.032364,1.1038e-06,0.73,0.13,0
0.032769,0.010531,0.036525,0.00012121,0.010994,-9.7897e-05,0,0,0.06638,-0.028268,0,-0.00050906,0,0,0,0.036525,0.00012094,0.010994,-0.15408,0.01588,0.032367,1.1022e-06,0.74,0.13,0
0.033433,0.010588,0.036505,9.1079e-05,0.010979,-9.8545e-05,0,0,0.066367,-0.028308,0,-0.00051243,0,0,0,0.036505,9.0812e-05,0.010979,-0.15506,0.015858,0.032374,1.1014e-06,0.75,0.13,0
0.034096,0.010642,0.036479,6.0794e-05,0.010962,-0.00014378,0,0,0.066344,-0.028343,0,-0.00074766,0,0,0,0.036479,6.0226e-05,0.010962,-0.2262,0.015834,0.032375,1.1001e-06,0.76,0.13,0
0.034759,0.010693,0.036463,3.6688e-05,0.01095,-0.00013883,0,0,0.066333,-0.028374,0,-0.00072191,0,0,0,0.036463,3.6159e-05,0.01095,-0.21837,0.015816,0.03238,1.0994e-06,0.77,0.13,0
0.035423,0.010739,0.036442,1.2312e-05,0.010936,-0.0001741,0,0,0.066314,-0.028402,0,-0.00090529,0,0,0,0.036443,1.148e-05,0.010936,-0.27381,0.015797,0.032382,1.0983e-06,0.78,0.13,0
0.036086,0.010783,0.036429,-7.1688e-06,0.010927,-0.00016459,0,0,0.066306,-0.028428,0,-0.00085589,0,0,0,0.036429,-7.9123e-06,0.010927,-0.25882,0.015783,0.032386,1.0978e-06,0.79,0.13,0
0.036749,0.010824,0.036412,-2.6835e-05,0.010916,-0.00019143,0,0,0.066291,-0.028451,0,-0.00099543,0,0,0,0.036413,-2.784e-05,0.010916,-0.30098,0.015767,0.032387,1.0969e-06,0.8,0.13,0
0.037412,0.010861,0.036402,-4.2699e-05,0.010908,-0.00017824,0,0,0.066285,-0.028471,0,-0.00092686,0,0,0,0.036403,-4.3571e-05,0.010908,-0.28021,0.015756,0.032391,1.0965e-06,0.81,0.13,0
0.038074,0.010896,0.036389,-5.8575e-05,0.010899,-0.00019797,0,0,0.066275,-0.02849,0,-0.0010294,0,0,0,0.036391,-5.9651e-05,0.010899,-0.31119,0.015743,0.032392,1.0959e-06,0.82,0.13,0
0.038737,0.010928,0.036386,-5.9398e-05,0.010898,-0.00019175,0,0,0.066269,-0.028489,0,-0.0009971,0,0,0,0.036387,-6.0406e-05,0.010898,-0.30144,0.015742,0.03239,1.0956e-06,0.83,0.13,0
0.0394,0.010958,0.036378,-7.1435e-05,0.010892,-0.00018968,0,0,0.066264,-0.028505,0,-0.00098633,0,0,0,0.036379,-7.2422e-05,0.010892,-0.29815,0.015733,0.032392,1.0953e-06,0.84,0.13,0
0.040063,0.010986,0.036371,-8.2284e-05,0.010887,-0.00018576,0,0,0.066259,-0.028519,0,-0.00096595,0,0,0,0.036372,-8.323e-05,0.010887,-0.29196,0.015725,0.032394,1.095e-06,0.85,0.13,0
0.040725,0.011011,0.036365,-9.2047e-05,0.010882,-0.00018017,0,0,0.066256,-0.028532,0,-0.00093687,0,0,0,0.036366,-9.2937e-05,0.010882,-0.28314,0.015718,0.032397,1.0947e-06,0.86,0.13,0
0.041388,0.011034,0.03636,-0.00010082,0.010878,-0.00017306,0,0,0.066253,-0.028544,0,-0.00089991,0,0,0,0.03636,-0.00010164,0.010878,-0.27195,0.015712,0.032399,1.0945e-06,0.87,0.13,0
0.04205,0.011055,0.036355,-0.00010867,0.010874,-0.00016459,0,0,0.066251,-0.028555,0,-0.00085585,0,0,0,0.036356,-0.00010942,0.010874,-0.25861,0.015707,0.032401,1.0944e-06,0.88,0.13,0
0.042713,0.011074,0.036351,-0.00011569,0.010871,-0.00015489,0,0,0.06625,-0.028565,0,-0.00080542,0,0,0,0.036352,-0.00011634,0.010871,-0.24335,0.015702,0.032403,1.0943e-06,0.89,0.13,0
0.043375,0.011091,0.036348,-0.00012191,0.010868,-0.00014409,0,0,0.066249,-0.028574,0,-0.00074928,0,0,0,0.036349,-0.00012248,0.010868,-0.22637,0.015698,0.032405,1.0942e-06,0.9,0.13,0
0.044038,0.011106,0.036346,-0.00012741,0.010866,-0.00013232,0,0,0.066248,-0.028581,0,-0.00068808,0,0,0,0.036346,-0.00012789,0.010866,-0.20786,0.015695,0.032407,1.0941e-06,0.91,0.13,0
0.0447,0.011119,0.036344,-0.00013221,0.010863,-0.0001197,0,0,0.066248,-0.028588,0,-0.00062242,0,0,0,0.036344,-0.00013261,0.010863,-0.18801,0.015692,0.032409,1.094e-06,0.92,0.13,0
0.045363,0.011131,0.036342,-0.00013637,0.010862,-0.00010632,0,0,0.066248,-0.028595,0,-0.00055286,0,0,0,0.036342,-0.00013668,0.010862,-0.16699,0.015689,0.032411,1.094e-06,0.93,0.13,0
0.046025,0.011141,0.03634,-0.00013992,0.01086,-9.2297e-05,0,0,0.066248,-0.0286,0,-0.00047995,0,0,0,0.03634,-0.00014015,0.01086,-0.14496,0.015687,0.032412,1.094e-06,0.94,0.13,0
0.046687,0.01115,0.036339,-0.00014287,0.010859,-7.7731e-05,0,0,0.066249,-0.028605,0,-0.0004042,0,0,0,0.036339,-0.00014303,0.010859,-0.12208,0.015685,0.032413,1.094e-06,0.95,0.13,0
0.04735,0.011157,0.036338,-0.00014525,0.010858,-6.2715e-05,0,0,0.066249,-0.028608,0,-0.00032612,0,0,0,0.036338,-0.00014536,0.010858,-0.098491,0.015684,0.032414,1.0939e-06,0.96,0.13,0
0.048012,0.011162,0.036332,-0.00016095,0.010851,-4.2263e-05,0,0,0.066249,-0.028632,0,-0.00021977,0,0,0,0.036332,-0.000161,0.010851,-0.066355,0.015674,0.032421,1.0938e-06,0.97,0.13,0
0.048675,0.011166,0.036331,-0.00016225,0.010851,-3.6466e-05,0,0,0.066249,-0.028634,0,-0.00018962,0,0,0,0.036331,-0.00016229,0.010851,-0.057252,0.015673,0.032422,1.0938e-06,0.98,0.13,0
0.049337,0.011168,0.036331,-0.00016305,0.01085,-1.1011e-05,0,0,0.06625,-0.028635,0,-5.7255e-05,0,0,0,0.036331,-0.00016305,0.01085,-0.017287,0.015673,0.032422,1.0938e-06,0.99,0.13,0
0.05,0.011169,0.036319,-0.00019105,0.010838,1.4471e-05,0,0,0.06625,-0.028677,0,7.5251e-05,0,0,0,0.036319,-0.00019106,0.010838,0.02271,0.015655,0.032434,1.0936e-06,1,0.13,0
0,0,0.037417,0.016036,0.016036,0.0070393,0,0,0.027795,1.0842e-19,0,0.018302,0,0,0,0.039526,0.013926,0.016036,16.682,0.023163,0.024613,7.4687e-07,0,0.14,0
0.00027795,0.00018302,0.037189,0.014931,0.015636,0.0070012,0,0,0.028019,-0.00091635,0,0.018203,0,0,0,0.039208,0.012912,0.015636,16.087,0.022586,0.025045,7.7479e-07,0.01,0.14,0
0.00056262,0.00037178,0.037853,0.014151,0.015601,0.0071342,0,0,0.028927,-0.0018854,0,0.018549,0,0,0,0.039835,0.012169,0.015601,15.524,0.022535,0.026119,8.6213e-07,0.02,0.14,0
0.00085419,0.00056501,0.038033,0.013089,0.015336,0.0070964,0,0,0.029505,-0.0029222,0,0.018451,0,0,0,0.03991,0.011211,0.015336,14.82,0.022153,0.026875,9.1826e-07,0.03,0.14,0
0.0011527,0.00076132,0.038367,0.012105,0.015142,0.007019,0,0,0.030193,-0.0039474,0,0.018249,0,0,0,0.040125,0.010347,0.015142,14.063,0.021871,0.027694,9.8156e-07,0.04,0.14,0
0.0014581,0.00095926,0.038676,0.011125,0.014941,0.0068708,0,0,0.030857,-0.0049598,0,0.017864,0,0,0,0.040295,0.0095068,0.014941,13.254,0.021581,0.028463,1.0403e-06,0.05,0.14,0
0.0017698,0.0011574,0.038953,0.010169,0.014737,0.0066578,0,0,0.031482,-0.0059383,0,0.01731,0,0,0,0.040419,0.0087034,0.014737,12.412,0.021286,0.02917,1.0933e-06,0.06,0.14,0
0.0020877,0.0013545,0.039191,0.0092516,0.014533,0.006389,0,0,0.032056,-0.0068655,0,0.016612,0,0,0,0.040497,0.0079452,0.014533,11.556,0.020992,0.029809,1.1397e-06,0.07,0.14,0
0.002411,0.0015493,0.039385,0.0083859,0.014331,0.0060756,0,0,0.03257,-0.0077292,0,0.015797,0,0,0,0.040534,0.0072377,0.014331,10.702,0.020701,0.030377,1.1792e-06,0.08,0.14,0
0.0027391,0.001741,0.039536,0.0075795,0.014135,0.0057291,0,0,0.033022,-0.0085217,0,0.014896,0,0,0,0.040532,0.0065834,0.014135,9.8629,0.020417,0.030873,1.212e-06,0.09,0.14,0
0.0030714,0.0019286,0.039643,0.0068363,0.013944,0.0053608,0,0,0.033409,-0.0092396,0,0.013938,0,0,0,0.040496,0.0059825,0.013944,9.049,0.020141,0.031302,1.2384e-06,0.1,0.14,0
0.0034073,0.0021117,0.039709,0.0061572,0.01376,0.0049807,0,0,0.033734,-0.0098834,0,0.01295,0,0,0,0.040433,0.0054335,0.01376,8.2679,0.019875,0.031668,1.2589e-06,0.11,0.14,0
0.0037461,0.0022898,0.039739,0.0055408,0.013584,0.0045976,0,0,0.034001,-0.010456,0,0.011954,0,0,0,0.040346,0.0049335,0.013584,7.5249,0.019621,0.031977,1.2742e-06,0.12,0.14,0
0.0040873,0.0024626,0.039736,0.0049839,0.013416,0.0042185,0,0,0.034216,-0.010962,0,0.010968,0,0,0,0.040241,0.0044791,0.013416,6.823,0.019379,0.032236,1.2851e-06,0.13,0.14,0
0.0044304,0.0026301,0.039706,0.0044822,0.013256,0.003849,0,0,0.034384,-0.011406,0,0.010008,0,0,0,0.040121,0.0040665,0.013256,6.164,0.019148,0.032451,1.2922e-06,0.14,0.14,0
0.004775,0.0027922,0.039653,0.0040312,0.013105,0.0034933,0,0,0.034512,-0.011796,0,0.0090826,0,0,0,0.039992,0.0036919,0.013105,5.5484,0.01893,0.032628,1.2961e-06,0.15,0.14,0
0.0051206,0.002949,0.039581,0.0036259,0.012962,0.0031543,0,0,0.034605,-0.012137,0,0.0082012,0,0,0,0.039856,0.0033513,0.012962,4.9759,0.018723,0.032773,1.2975e-06,0.16,0.14,0
0.0054671,0.0031006,0.039494,0.0032615,0.012827,0.002834,0,0,0.034668,-0.012435,0,0.0073685,0,0,0,0.039715,0.0030412,0.012827,4.4455,0.018527,0.032891,1.2969e-06,0.17,0.14,0
0.005814,0.0032473,0.039396,0.0029334,0.012699,0.0025338,0,0,0.034707,-0.012695,0,0.0065878,0,0,0,0.039572,0.0027582,0.012699,3.9561,0.018343,0.032986,1.2947e-06,0.18,0.14,0
0.0061612,0.0033892,0.03929,0.0026372,0.012578,0.0022541,0,0,0.034725,-0.012923,0,0.0058607,0,0,0,0.039428,0.0024991,0.012578,3.5061,0.018168,0.033062,1.2912e-06,0.19,0.14,0
0.0065085,0.0035267,0.039177,0.002369,0.012464,0.0019954,0,0,0.034727,-0.013123,0,0.0051881,0,0,0,0.039284,0.0022612,0.012464,3.094,0.018003,0.033122,1.2867e-06,0.2,0.14,0
0.0068557,0.00366,0.039059,0.0021252,0.012355,0.0017576,0,0,0.034715,-0.013299,0,0.0045696,0,0,0,0.039143,0.0020418,0.012355,2.7183,0.017847,0.033169,1.2815e-06,0.21,0.14,0
0.0072028,0.0037895,0.038939,0.0019024,0.012252,0.0015403,0,0,0.034693,-0.013455,0,0.0040048,0,0,0,0.039003,0.0018384,0.012252,2.3774,0.017698,0.033206,1.2758e-06,0.22,0.14,0
0.0075496,0.0039155,0.038817,0.0016975,0.012154,0.0013434,0,0,0.034661,-0.013594,0,0.0034928,0,0,0,0.038866,0.001649,0.012154,2.0699,0.017556,0.033234,1.2696e-06,0.23,0.14,0
0.007896,0.0040383,0.038694,0.0015079,0.012061,0.0011663,0,0,0.034624,-0.013718,0,0.0030324,0,0,0,0.038731,0.0014714,0.012061,1.7947,0.017421,0.033254,1.2632e-06,0.24,0.14,0
0.0082421,0.0041583,0.038571,0.0013311,0.011971,0.0010087,0,0,0.034581,-0.013832,0,0.0026226,0,0,0,0.038598,0.0013038,0.011971,1.5504,0.017291,0.033269,1.2566e-06,0.25,0.14,0
0.0085876,0.0042759,0.038448,0.0011645,0.011884,0.0008702,0,0,0.034534,-0.013935,0,0.0022625,0,0,0,0.038468,0.0011442,0.011884,1.3363,0.017165,0.03328,1.2499e-06,0.26,0.14,0
0.0089327,0.0043913,0.038325,0.0010061,0.011799,0.00075046,0,0,0.034484,-0.014031,0,0.0019512,0,0,0,0.03834,0.00099104,0.011799,1.1516,0.017044,0.033288,1.2431e-06,0.27,0.14,0
0.0092773,0.004505,0.038203,0.00085372,0.011717,0.00064921,0,0,0.034432,-0.014122,0,0.0016879,0,0,0,0.038214,0.00084244,0.011717,0.99552,0.016925,0.033294,1.2363e-06,0.28,0.14,0
0.0096214,0.0046174,0.038082,0.00070524,0.011636,0.00056628,0,0,0.034379,-0.01421,0,0.0014723,0,0,0,0.03809,0.00069666,0.011636,0.86781,0.016808,0.0333,1.2295e-06,0.29,0.14,0
0.0099649,0.0047287,0.037961,0.00055858,0.011556,0.00050157,0,0,0.034326,-0.014296,0,0.0013041,0,0,0,0.037967,0.00055185,0.011556,0.76817,0.016692,0.033306,1.2228e-06,0.3,0.14,0
0.010308,0.0048393,0.03784,0.00041161,0.011476,0.00045506,0,0,0.034274,-0.014383,0,0.0011832,0,0,0,0.037846,0.00040608,0.011476,0.69647,0.016576,0.033314,1.2163e-06,0.31,0.14,0
0.01065,0.0049497,0.037721,0.00026211,0.011395,0.0004268,0,0,0.034224,-0.014473,0,0.0011097,0,0,0,0.037726,0.00025724,0.011395,0.65271,0.016459,0.033326,1.2099e-06,0.32,0.14,0
0.010992,0.0050601,0.037602,0.00010768,0.011313,0.00041691,0,0,0.034176,-0.014567,0,0.001084,0,0,0,0.037607,0.00010305,0.011313,0.63697,0.016341,0.033344,1.2039e-06,0.33,0.14,0
0.011334,0.005171,0.037485,-5.4247e-05,0.011229,0.0004255,0,0,0.034133,-0.014669,0,0.0011063,0,0,0,0.03749,-5.9069e-05,0.011229,0.64932,0.01622,0.033369,1.1982e-06,0.34,0.14,0
0.011675,0.0052828,0.03737,-0.0002265,0.011143,0.00045269,0,0,0.034095,-0.014781,0,0.001177,0,0,0,0.037376,-0.00023195,0.011143,0.68975,0.016096,0.033406,1.1931e-06,0.35,0.14,0
0.012016,0.0053957,0.037258,-0.00041221,0.011054,0.0004985,0,0,0.034065,-0.014906,0,0.0012961,0,0,0,0.037264,-0.0004188,0.011054,0.75804,0.015966,0.033456,1.1887e-06,0.36,0.14,0
0.012356,0.0055101,0.037149,-0.0006148,0.01096,0.00056278,0,0,0.034045,-0.015048,0,0.0014632,0,0,0,0.037157,-0.00062319,0.01096,0.85361,0.015831,0.033525,1.1852e-06,0.37,0.14,0
0.012697,0.0056265,0.037045,-0.00083807,0.010862,0.00064511,0,0,0.034038,-0.01521,0,0.0016773,0,0,0,0.037056,-0.00084906,0.010862,0.97531,0.01569,0.033616,1.1828e-06,0.38,0.14,0
0.013037,0.005745,0.036948,-0.0010861,0.010759,0.00074463,0,0,0.034046,-0.015398,0,0.001936,0,0,0,0.036963,-0.0011007,0.010759,1.1212,0.01554,0.033735,1.1819e-06,0.39,0.14,0
0.013378,0.0058659,0.03686,-0.0013633,0.010649,0.00085992,0,0,0.034075,-0.015616,0,0.0022358,0,0,0,0.03688,-0.0013826,0.010649,1.2881,0.015382,0.033888,1.1827e-06,0.4,0.14,0
0.013719,0.0059896,0.036784,-0.0016739,0.010533,0.00098878,0,0,0.034126,-0.015869,0,0.0025708,0,0,0,0.036809,-0.0016993,0.010533,1.4718,0.015214,0.03408,1.1855e-06,0.41,0.14,0
0.01406,0.0061161,0.036721,-0.0020224,0.01041,0.0011281,0,0,0.034205,-0.016161,0,0.002933,0,0,0,0.036754,-0.0020552,0.01041,1.6664,0.015036,0.034318,1.1907e-06,0.42,0.14,0
0.014403,0.0062456,0.036674,-0.0024125,0.010278,0.0012736,0,0,0.034314,-0.016498,0,0.0033113,0,0,0,0.036715,-0.0024539,0.010278,1.8643,0.014847,0.034607,1.1983e-06,0.43,0.14,0
0.014746,0.0063779,0.036645,-0.0028469,0.010139,0.00142,0,0,0.034457,-0.016882,0,0.003692,0,0,0,0.036696,-0.0028978,0.010139,2.0566,0.014646,0.034949,1.2087e-06,0.44,0.14,0
0.015092,0.006513,0.036636,-0.0033268,0.0099926,0.0015609,0,0,0.034636,-0.017315,0,0.0040584,0,0,0,0.036696,-0.0033877,0.0099926,2.2334,0.014434,0.035347,1.2217e-06,0.45,0.14,0
0.015439,0.0066507,0.036646,-0.0038515,0.0098382,0.0016893,0,0,0.03485,-0.017797,0,0.0043922,0,0,0,0.036716,-0.0039219,0.0098382,2.3845,0.014211,0.035799,1.2372e-06,0.46,0.14,0
0.015789,0.0067904,0.036674,-0.0044175,0.009677,0.0017977,0,0,0.035096,-0.018323,0,0.0046741,0,0,0,0.036753,-0.004496,0.009677,2.5003,0.013978,0.0363,1.2547e-06,0.47,0.14,0
0.016141,0.0069317,0.036719,-0.0050184,0.0095101,0.0018793,0,0,0.035371,-0.018887,0,0.0048861,0,0,0,0.036803,-0.0051029,0.0095101,2.5729,0.013737,0.036841,1.2735e-06,0.48,0.14,0
0.016496,0.0070738,0.036775,-0.0056453,0.0093389,0.0019282,0,0,0.035667,-0.01948,0,0.0050133,0,0,0,0.036862,-0.0057328,0.0093389,2.5972,0.013489,0.03741,1.293e-06,0.49,0.14,0
0.016854,0.0072161,0.036807,-0.0007817,0.010807,0.00194,0,0,0.049689,-0.020088,0,0.0075482,0,0,0,0.036909,-0.00088344,0.010807,3.005,0.015611,0.033581,1.1383e-06,0.5,0.14,0
0.01749,0.0074078,0.036904,0.004345,0.012375,0.0019159,0,0,0.063775,-0.020877,0,0.0099629,0,0,0,0.037016,0.0042326,0.012375,3.3562,0.017874,0.029566,9.9576e-07,0.51,0.14,0
0.01813,0.0075968,0.036967,0.0039451,0.012273,0.0018659,0,0,0.064202,-0.021654,0,0.0097029,0,0,0,0.037072,0.00384,0.012273,3.2239,0.017728,0.02992,1.0161e-06,0.52,0.14,0
0.018774,0.0077821,0.037024,0.0035574,0.012174,0.0017947,0,0,0.064608,-0.022404,0,0.0093322,0,0,0,0.03712,0.0034614,0.012174,3.0608,0.017585,0.030258,1.0351e-06,0.53,0.14,0
0.019422,0.0079629,0.037072,0.0031877,0.012078,0.0017047,0,0,0.064985,-0.023115,0,0.0088643,0,0,0,0.037158,0.0031021,0.012078,2.8728,0.017446,0.030572,1.0524e-06,0.54,0.14,0
0.020074,0.0081383,0.03711,0.0028405,0.011985,0.0015995,0,0,0.065325,-0.023776,0,0.0083173,0,0,0,0.037185,0.002766,0.011985,2.6664,0.017312,0.03086,1.0677e-06,0.55,0.14,0
0.020729,0.0083079,0.037137,0.002519,0.011897,0.001483,0,0,0.065625,-0.024383,0,0.0077113,0,0,0,0.037201,0.0024556,0.011897,2.4484,0.017184,0.031118,1.0808e-06,0.56,0.14,0
0.021386,0.0084709,0.037152,0.0022249,0.011813,0.0013591,0,0,0.065882,-0.02493,0,0.0070673,0,0,0,0.037205,0.0021721,0.011813,2.225,0.017063,0.031345,1.0919e-06,0.57,0.14,0
0.022046,0.0086272,0.037156,0.0019585,0.011735,0.0012316,0,0,0.066097,-0.025418,0,0.0064045,0,0,0,0.0372,0.0019154,0.011735,2.0016,0.01695,0.031542,1.1009e-06,0.58,0.14,0
0.022708,0.0087765,0.03715,0.0017192,0.011661,0.0011038,0,0,0.066273,-0.025848,0,0.00574,0,0,0,0.037185,0.0016849,0.011661,1.7827,0.016844,0.031711,1.108e-06,0.59,0.14,0
0.023372,0.0089186,0.037135,0.0015057,0.011592,0.00097844,0,0,0.066412,-0.026225,0,0.0050879,0,0,0,0.037162,0.0014788,0.011592,1.5718,0.016744,0.031855,1.1134e-06,0.6,0.14,0
0.024036,0.0090537,0.037113,0.001316,0.011529,0.00085751,0,0,0.066519,-0.026553,0,0.004459,0,0,0,0.037134,0.0012954,0.011529,1.3715,0.016653,0.031974,1.1174e-06,0.61,0.14,0
0.024702,0.0091817,0.037085,0.001148,0.01147,0.00074259,0,0,0.0666,-0.026837,0,0.0038615,0,0,0,0.037101,0.0011327,0.01147,1.1833,0.016568,0.032074,1.1202e-06,0.62,0.14,0
0.025368,0.0093028,0.037053,0.00099967,0.011416,0.0006347,0,0,0.066657,-0.027082,0,0.0033005,0,0,0,0.037064,0.0009885,0.011416,1.0083,0.01649,0.032156,1.122e-06,0.63,0.14,0
0.026035,0.0094172,0.037018,0.00086874,0.011366,0.00053446,0,0,0.066695,-0.027293,0,0.0027792,0,0,0,0.037026,0.00086084,0.011366,0.84687,0.016418,0.032223,1.1229e-06,0.64,0.14,0
0.026702,0.0095251,0.036981,0.00075322,0.01132,0.00044215,0,0,0.066718,-0.027474,0,0.0022992,0,0,0,0.036986,0.00074783,0.01132,0.69914,0.016352,0.032278,1.1232e-06,0.65,0.14,0
0.02737,0.0096268,0.036943,0.00065125,0.011278,0.0003578,0,0,0.066729,-0.027631,0,0.0018606,0,0,0,0.036947,0.00064772,0.011278,0.5648,0.016291,0.032323,1.123e-06,0.66,0.14,0
0.028037,0.0097225,0.036906,0.00056116,0.01124,0.00028126,0,0,0.066731,-0.027765,0,0.0014626,0,0,0,0.036908,0.00055898,0.01124,0.44337,0.016236,0.032359,1.1225e-06,0.67,0.14,0
0.028704,0.0098125,0.036869,0.00048145,0.011205,0.00021227,0,0,0.066726,-0.027882,0,0.0011038,0,0,0,0.03687,0.00048021,0.011205,0.33423,0.016185,0.032388,1.1217e-06,0.68,0.14,0
0.029371,0.0098972,0.036833,0.00041081,0.011173,0.00015047,0,0,0.066716,-0.027982,0,0.00078245,0,0,0,0.036834,0.00041019,0.011173,0.2367,0.016139,0.032411,1.1207e-06,0.69,0.14,0
0.030038,0.0099766,0.036799,0.0003481,0.011144,9.5458e-05,0,0,0.066702,-0.028069,0,0.00049638,0,0,0,0.036799,0.00034785,0.011144,0.15005,0.016097,0.03243,1.1197e-06,0.7,0.14,0
0.030706,0.010051,0.036766,0.00029232,0.011118,4.681e-05,0,0,0.066686,-0.028146,0,0.00024341,0,0,0,0.036766,0.00029226,0.011118,0.073532,0.016059,0.032445,1.1185e-06,0.71,0.14,0
0.031372,0.010121,0.036735,0.00024261,0.011093,4.0955e-06,0,0,0.066669,-0.028212,0,2.1297e-05,0,0,0,0.036735,0.00024261,0.011093,0.0064302,0.016024,0.032458,1.1174e-06,0.72,0.14,0
0.032039,0.010186,0.036707,0.00019821,0.011071,-3.311e-05,0,0,0.066652,-0.028271,0,-0.00017217,0,0,0,0.036707,0.00019818,0.011071,-0.051962,0.015992,0.032468,1.1162e-06,0.73,0.14,0
0.032705,0.010248,0.03668,0.00015849,0.011052,-6.5219e-05,0,0,0.066634,-0.028322,0,-0.00033914,0,0,0,0.03668,0.00015837,0.011052,-0.10232,0.015963,0.032476,1.1151e-06,0.74,0.14,0
0.033371,0.010305,0.036656,0.00012288,0.011033,-9.2623e-05,0,0,0.066617,-0.028368,0,-0.00048164,0,0,0,0.036656,0.00012265,0.011033,-0.14526,0.015937,0.032482,1.1141e-06,0.75,0.14,0
0.034038,0.010358,0.036633,9.0911e-05,0.011017,-0.00011569,0,0,0.066601,-0.028408,0,-0.0006016,0,0,0,0.036633,9.0545e-05,0.011017,-0.1814,0.015914,0.032488,1.1131e-06,0.76,0.14,0
0.034704,0.010408,0.036612,6.2157e-05,0.011002,-0.00013478,0,0,0.066586,-0.028445,0,-0.00070084,0,0,0,0.036613,6.166e-05,0.011002,-0.21127,0.015892,0.032493,1.1122e-06,0.77,0.14,0
0.035369,0.010455,0.036594,3.6261e-05,0.010989,-0.0001502,0,0,0.066572,-0.028477,0,-0.00078104,0,0,0,0.036594,3.5644e-05,0.010989,-0.2354,0.015873,0.032497,1.1113e-06,0.78,0.14,0
0.036035,0.010498,0.036576,1.2913e-05,0.010977,-0.00016227,0,0,0.066559,-0.028506,0,-0.00084378,0,0,0,0.036577,1.2193e-05,0.010977,-0.25427,0.015855,0.032501,1.1105e-06,0.79,0.14,0
0.0367,0.010539,0.036561,-8.1583e-06,0.010966,-0.00017125,0,0,0.066548,-0.028532,0,-0.00089051,0,0,0,0.036562,-8.9603e-06,0.010966,-0.26831,0.01584,0.032504,1.1098e-06,0.8,0.14,0
0.037366,0.010576,0.036547,-2.7187e-05,0.010956,-0.00017742,0,0,0.066537,-0.028556,0,-0.00092259,0,0,0,0.036548,-2.8047e-05,0.010956,-0.27793,0.015825,0.032507,1.1092e-06,0.81,0.14,0
0.038031,0.010611,0.036535,-4.4377e-05,0.010947,-0.00018101,0,0,0.066528,-0.028578,0,-0.00094126,0,0,0,0.036536,-4.5272e-05,0.010947,-0.28352,0.015813,0.03251,1.1086e-06,0.82,0.14,0
0.038697,0.010643,0.036524,-5.9905e-05,0.010939,-0.00018225,0,0,0.06652,-0.028598,0,-0.00094769,0,0,0,0.036525,-6.0813e-05,0.010939,-0.28542,0.015801,0.032512,1.1081e-06,0.83,0.14,0
0.039362,0.010673,0.036514,-7.3928e-05,0.010932,-0.00018134,0,0,0.066513,-0.028615,0,-0.00094295,0,0,0,0.036515,-7.4827e-05,0.010932,-0.28396,0.015791,0.032515,1.1077e-06,0.84,0.14,0
0.040027,0.0107,0.036505,-8.658e-05,0.010926,-0.00017847,0,0,0.066507,-0.028632,0,-0.00092804,0,0,0,0.036506,-8.745e-05,0.010926,-0.27944,0.015782,0.032517,1.1073e-06,0.85,0.14,0
0.040692,0.010725,0.036498,-9.7978e-05,0.01092,-0.00017383,0,0,0.066502,-0.028646,0,-0.0009039,0,0,0,0.036499,-9.8804e-05,0.01092,-0.27214,0.015773,0.032519,1.107e-06,0.86,0.14,0
0.041357,0.010748,0.036491,-0.00010823,0.010915,-0.00016757,0,0,0.066498,-0.02866,0,-0.00087138,0,0,0,0.036492,-0.00010899,0.010915,-0.26233,0.015766,0.032522,1.1067e-06,0.87,0.14,0
0.042022,0.010769,0.036485,-0.00011741,0.01091,-0.00015986,0,0,0.066494,-0.028672,0,-0.00083129,0,0,0,0.036486,-0.00011811,0.01091,-0.25024,0.015759,0.032524,1.1064e-06,0.88,0.14,0
0.042687,0.010788,0.03648,-0.00012562,0.010906,-0.00015085,0,0,0.066491,-0.028683,0,-0.0007844,0,0,0,0.036481,-0.00012624,0.010906,-0.2361,0.015754,0.032525,1.1062e-06,0.89,0.14,0
0.043352,0.010804,0.036476,-0.00013291,0.010903,-0.00014066,0,0,0.066489,-0.028693,0,-0.00073142,0,0,0,0.036476,-0.00013346,0.010903,-0.22014,0.015748,0.032527,1.106e-06,0.9,0.14,0
0.044017,0.01082,0.036472,-0.00013935,0.0109,-0.00012943,0,0,0.066487,-0.028702,0,-0.00067301,0,0,0,0.036472,-0.00013981,0.0109,-0.20255,0.015744,0.032529,1.1059e-06,0.91,0.14,0
0.044681,0.010833,0.036469,-0.00014499,0.010897,-0.00011727,0,0,0.066486,-0.028709,0,-0.00060982,0,0,0,0.036469,-0.00014537,0.010897,-0.18352,0.01574,0.03253,1.1058e-06,0.92,0.14,0
0.045346,0.010845,0.036466,-0.00014987,0.010895,-0.00010432,0,0,0.066485,-0.028716,0,-0.00054245,0,0,0,0.036466,-0.00015017,0.010895,-0.16323,0.015737,0.032532,1.1057e-06,0.93,0.14,0
0.046011,0.010855,0.036464,-0.00015402,0.010893,-9.067e-05,0,0,0.066484,-0.028722,0,-0.00047148,0,0,0,0.036464,-0.00015425,0.010893,-0.14187,0.015734,0.032533,1.1056e-06,0.94,0.14,0
0.046676,0.010863,0.036462,-0.00015749,0.010891,-7.6436e-05,0,0,0.066483,-0.028727,0,-0.00039747,0,0,0,0.036462,-0.00015765,0.010891,-0.11959,0.015732,0.032534,1.1055e-06,0.95,0.14,0
0.047341,0.01087,0.03646,-0.00016029,0.01089,-6.172e-05,0,0,0.066483,-0.028731,0,-0.00032094,0,0,0,0.03646,-0.0001604,0.01089,-0.096565,0.01573,0.032535,1.1055e-06,0.96,0.14,0
0.048005,0.010875,0.036459,-0.00016245,0.010889,-4.6621e-05,0,0,0.066482,-0.028734,0,-0.00024243,0,0,0,0.036459,-0.00016251,0.010889,-0.072941,0.015729,0.032536,1.1054e-06,0.97,0.14,0
0.04867,0.010879,0.036458,-0.00016398,0.010888,-3.1238e-05,0,0,0.066482,-0.028736,0,-0.00016244,0,0,0,0.036458,-0.00016401,0.010888,-0.048872,0.015728,0.032536,1.1054e-06,0.98,0.14,0
0.049335,0.010881,0.036458,-0.0001649,0.010888,-1.5666e-05,0,0,0.066482,-0.028737,0,-8.1464e-05,0,0,0,0.036458,-0.0001649,0.010888,-0.024509,0.015727,0.032536,1.1054e-06,0.99,0.14,0
0.05,0.010882,0.036458,-0.0001652,0.010888,1.4391e-05,0,0,0.066482,-0.028738,0,7.4835e-05,0,0,0,0.036458,-0.00016521,0.010888,0.022515,0.015727,0.032537,1.1054e-06,1,0.14,0
0,0,0.03704,0.015874,0.015874,0.0066948,0,0,0.027515,1.6263e-19,0,0.017406,0,0,0,0.03898,0.013934,0.015874,16.159,0.022929,0.024134,7.0624e-07,0,0.15,0
0.00027515,0.00017406,0.036962,0.014886,0.015554,0.0066928,0,0,0.02783,-0.00086903,0,0.017401,0,0,0,0.038832,0.013015,0.015554,15.615,0.022467,0.024646,7.4142e-07,0.01,0.15,0
0.00055659,0.00035337,0.037292,0.014022,0.015394,0.0067555,0,0,0.028467,-0.001784,0,0.017564,0,0,0,0.039111,0.012203,0.015394,15.07,0.022236,0.025463,8.0319e-07,0.02,0.15,0
0.0008445,0.00053683,0.03762,0.013124,0.015223,0.0067583,0,0,0.029116,-0.0027288,0,0.017572,0,0,0,0.039361,0.011383,0.015223,14.445,0.021989,0.026269,8.6434e-07,0.03,0.15,0
0.0011389,0.00072325,0.037938,0.01221,0.015044,0.0066986,0,0,0.029762,-0.0036849,0,0.017416,0,0,0,0.039578,0.01057,0.015044,13.753,0.021731,0.027049,9.2341e-07,0.04,0.15,0
0.0014397,0.00091141,0.038236,0.011295,0.014859,0.0065772,0,0,0.03039,-0.0046335,0,0.017101,0,0,0,0.039756,0.0097753,0.014859,13.012,0.021464,0.02779,9.7908e-07,0.05,0.15,0
0.0017467,0.0011001,0.038509,0.010397,0.014672,0.0063985,0,0,0.030988,-0.0055572,0,0.016636,0,0,0,0.039896,0.009009,0.014672,12.238,0.021192,0.028481,1.0303e-06,0.06,0.15,0
0.0020595,0.0012881,0.038748,0.0095284,0.014483,0.0061691,0,0,0.031545,-0.0064409,0,0.01604,0,0,0,0.039997,0.0082793,0.014483,11.446,0.02092,0.029116,1.0763e-06,0.07,0.15,0
0.0023776,0.0014745,0.038951,0.0087007,0.014296,0.0058976,0,0,0.032053,-0.0072735,0,0.015334,0,0,0,0.040061,0.0075915,0.014296,10.651,0.020649,0.02969,1.1166e-06,0.08,0.15,0
0.0027005,0.0016583,0.039117,0.0079214,0.014111,0.0055934,0,0,0.032507,-0.008047,0,0.014543,0,0,0,0.040089,0.0069488,0.014111,9.864,0.020383,0.030203,1.1512e-06,0.09,0.15,0
0.0030277,0.0018388,0.039244,0.0071953,0.013932,0.0052656,0,0,0.032905,-0.0087572,0,0.01369,0,0,0,0.040086,0.0063524,0.013932,9.0954,0.020123,0.030655,1.1803e-06,0.1,0.15,0
0.0033586,0.0020154,0.039334,0.0065244,0.013757,0.0049231,0,0,0.033249,-0.0094029,0,0.0128,0,0,0,0.040056,0.0058016,0.013757,8.3524,0.019872,0.031051,1.204e-06,0.11,0.15,0
0.0036927,0.0021877,0.039389,0.0059086,0.013589,0.0045737,0,0,0.03354,-0.009985,0,0.011892,0,0,0,0.040003,0.005295,0.013589,7.6406,0.019629,0.031394,1.223e-06,0.12,0.15,0
0.0040295,0.0023554,0.039323,0.0052259,0.013365,0.0042245,0,0,0.033746,-0.01058,0,0.010984,0,0,0,0.039838,0.0047103,0.013365,6.9586,0.019304,0.0317,1.2342e-06,0.13,0.15,0
0.0043684,0.0025183,0.039411,0.0047559,0.01325,0.0038177,0,0,0.034009,-0.011042,0,0.0099261,0,0,0,0.039826,0.0043403,0.01325,6.2127,0.019139,0.031976,1.25e-06,0.14,0.15,0
0.004709,0.0026763,0.039386,0.0043695,0.013127,0.0035451,0,0,0.034137,-0.011384,0,0.0092172,0,0,0,0.039741,0.0040142,0.013127,5.7233,0.018961,0.032154,1.2564e-06,0.15,0.15,0
0.0050511,0.0028296,0.03934,0.0039478,0.012986,0.0032232,0,0,0.03426,-0.01175,0,0.0083804,0,0,0,0.039631,0.0036567,0.012986,5.1614,0.018758,0.032335,1.2614e-06,0.16,0.15,0
0.0053942,0.0029781,0.039278,0.0035654,0.012853,0.0029166,0,0,0.034352,-0.012074,0,0.0075833,0,0,0,0.039514,0.0033287,0.012853,4.6384,0.018565,0.032488,1.2642e-06,0.17,0.15,0
0.0057382,0.003122,0.039202,0.0032181,0.012726,0.0026271,0,0,0.034419,-0.01236,0,0.0068304,0,0,0,0.039393,0.0030273,0.012726,4.1537,0.018382,0.032616,1.2652e-06,0.18,0.15,0
0.0060826,0.0032615,0.039115,0.0029022,0.012605,0.0023557,0,0,0.034463,-0.012614,0,0.0061247,0,0,0,0.039268,0.0027496,0.012605,3.7063,0.018208,0.032723,1.2646e-06,0.19,0.15,0
0.0064274,0.0033969,0.03902,0.002614,0.01249,0.0021031,0,0,0.034489,-0.012839,0,0.005468,0,0,0,0.039142,0.0024929,0.01249,3.2951,0.018042,0.032813,1.2628e-06,0.2,0.15,0
0.0067724,0.0035283,0.038919,0.0023501,0.012381,0.0018696,0,0,0.0345,-0.01304,0,0.004861,0,0,0,0.039015,0.0022548,0.012381,2.9191,0.017883,0.032887,1.26e-06,0.21,0.15,0
0.0071174,0.0036561,0.038813,0.0021075,0.012276,0.0016555,0,0,0.034498,-0.013219,0,0.0043042,0,0,0,0.038887,0.0020329,0.012276,2.5771,0.017732,0.032949,1.2564e-06,0.22,0.15,0
0.0074624,0.0037806,0.038703,0.0018831,0.012176,0.0014605,0,0,0.034485,-0.013381,0,0.0037974,0,0,0,0.038761,0.0018252,0.012176,2.268,0.017587,0.033001,1.2522e-06,0.23,0.15,0
0.0078071,0.0039021,0.038591,0.0016742,0.012079,0.0012847,0,0,0.034465,-0.013527,0,0.0033402,0,0,0,0.038635,0.0016295,0.012079,1.9907,0.017448,0.033044,1.2476e-06,0.24,0.15,0
0.0081516,0.0040209,0.038476,0.0014784,0.011986,0.0011278,0,0,0.034437,-0.013661,0,0.0029322,0,0,0,0.038511,0.001444,0.011986,1.7443,0.017314,0.03308,1.2425e-06,0.25,0.15,0
0.0084959,0.0041373,0.038361,0.0012932,0.011896,0.00098948,0,0,0.034404,-0.013784,0,0.0025727,0,0,0,0.038387,0.0012668,0.011896,1.528,0.017184,0.033111,1.2373e-06,0.26,0.15,0
0.0088397,0.0042517,0.038245,0.0011163,0.011808,0.00086969,0,0,0.034368,-0.0139,0,0.0022612,0,0,0,0.038265,0.001096,0.011808,1.3411,0.017057,0.033138,1.2318e-06,0.27,0.15,0
0.0091832,0.0043644,0.038129,0.00094573,0.011722,0.0007682,0,0,0.034328,-0.01401,0,0.0019973,0,0,0,0.038145,0.00092986,0.011722,1.183,0.016932,0.033163,1.2262e-06,0.28,0.15,0
0.0095263,0.0044757,0.038012,0.00077914,0.011638,0.00068487,0,0,0.034287,-0.014116,0,0.0017807,0,0,0,0.038025,0.00076655,0.011638,1.0534,0.01681,0.033187,1.2206e-06,0.29,0.15,0
0.009869,0.0045861,0.037896,0.00061445,0.011553,0.00061963,0,0,0.034246,-0.014221,0,0.001611,0,0,0,0.037907,0.00060416,0.011553,0.95191,0.016688,0.033211,1.215e-06,0.3,0.15,0
0.010211,0.0046958,0.037781,0.00044945,0.011469,0.00057243,0,0,0.034205,-0.014326,0,0.0014883,0,0,0,0.03779,0.00044068,0.011469,0.87828,0.016567,0.033237,1.2096e-06,0.31,0.15,0
0.010553,0.0048051,0.037667,0.00028187,0.011385,0.00054325,0,0,0.034167,-0.014434,0,0.0014124,0,0,0,0.037674,0.00027397,0.011385,0.83235,0.016444,0.033267,1.2044e-06,0.32,0.15,0
0.010894,0.0049145,0.037553,0.00010929,0.011299,0.00053208,0,0,0.034131,-0.014546,0,0.0013834,0,0,0,0.037561,0.00010173,0.011299,0.81395,0.016321,0.033304,1.1995e-06,0.33,0.15,0
0.011236,0.0050243,0.037442,-7.0835e-05,0.011211,0.00053889,0,0,0.0341,-0.014667,0,0.0014011,0,0,0,0.03745,-7.8575e-05,0.011211,0.82286,0.016194,0.033349,1.195e-06,0.34,0.15,0
0.011576,0.0051349,0.037333,-0.00026128,0.011122,0.0005636,0,0,0.034075,-0.014798,0,0.0014654,0,0,0,0.037342,-0.00026973,0.011122,0.8587,0.016064,0.033406,1.1911e-06,0.35,0.15,0
0.011917,0.0052464,0.037228,-0.00046503,0.011029,0.00060597,0,0,0.034059,-0.014942,0,0.0015755,0,0,0,0.037238,-0.00047477,0.011029,0.9208,0.015931,0.033477,1.188e-06,0.36,0.15,0
0.012258,0.0053594,0.037127,-0.0006853,0.010933,0.00066558,0,0,0.034053,-0.015103,0,0.0017305,0,0,0,0.037139,-0.00069701,0.010933,1.0081,0.015792,0.033568,1.1859e-06,0.37,0.15,0
0.012598,0.005474,0.037033,-0.00092554,0.010832,0.00074168,0,0,0.034061,-0.015285,0,0.0019284,0,0,0,0.037047,-0.00094002,0.010832,1.119,0.015647,0.033681,1.1849e-06,0.38,0.15,0
0.012939,0.0055905,0.036946,-0.0011894,0.010727,0.00083314,0,0,0.034085,-0.015491,0,0.0021662,0,0,0,0.036964,-0.0012075,0.010727,1.2509,0.015494,0.033822,1.1854e-06,0.39,0.15,0
0.01328,0.0057092,0.036869,-0.0014805,0.010616,0.00093824,0,0,0.034128,-0.015726,0,0.0024394,0,0,0,0.036892,-0.0015034,0.010616,1.4007,0.015335,0.033996,1.1875e-06,0.4,0.15,0
0.013621,0.0058303,0.036803,-0.0018025,0.0105,0.0010546,0,0,0.034194,-0.015993,0,0.002742,0,0,0,0.036832,-0.0018313,0.0105,1.5637,0.015167,0.034207,1.1916e-06,0.41,0.15,0
0.013964,0.0059538,0.036751,-0.0021587,0.010378,0.0011792,0,0,0.034285,-0.016297,0,0.0030658,0,0,0,0.036786,-0.0021944,0.010378,1.7342,0.01499,0.03446,1.1978e-06,0.42,0.15,0
0.014307,0.0060798,0.036714,-0.002552,0.010249,0.0013078,0,0,0.034405,-0.016641,0,0.0034004,0,0,0,0.036757,-0.0025955,0.010249,1.9056,0.014804,0.034759,1.2064e-06,0.43,0.15,0
0.014652,0.0062083,0.036694,-0.002984,0.010113,0.0014359,0,0,0.034555,-0.017026,0,0.0037332,0,0,0,0.036746,-0.0030359,0.010113,2.0698,0.014608,0.035105,1.2172e-06,0.44,0.15,0
0.014998,0.0063391,0.036691,-0.0034552,0.0099708,0.0015577,0,0,0.034736,-0.017454,0,0.0040499,0,0,0,0.036751,-0.0035155,0.0099708,2.2186,0.014402,0.0355,1.2304e-06,0.45,0.15,0
0.015347,0.006472,0.036706,-0.0039642,0.0098225,0.0016673,0,0,0.034948,-0.017923,0,0.0043351,0,0,0,0.036774,-0.0040324,0.0098225,2.3437,0.014188,0.035941,1.2457e-06,0.46,0.15,0
0.015697,0.0066066,0.036736,-0.0045077,0.0096687,0.0017588,0,0,0.035188,-0.018429,0,0.004573,0,0,0,0.036811,-0.0045825,0.0096687,2.4375,0.013966,0.036423,1.2626e-06,0.47,0.15,0
0.01605,0.0067424,0.036781,-0.00508,0.0095103,0.0018267,0,0,0.035452,-0.018967,0,0.0047494,0,0,0,0.03686,-0.0051596,0.0095103,2.4939,0.013737,0.036939,1.2806e-06,0.48,0.15,0
0.016406,0.0068788,0.036836,-0.0056738,0.0093485,0.0018663,0,0,0.035733,-0.019529,0,0.0048524,0,0,0,0.036917,-0.0057556,0.0093485,2.5091,0.013503,0.037478,1.2991e-06,0.49,0.15,0
0.016765,0.0070152,0.036867,-0.00076939,0.010829,0.001874,0,0,0.049759,-0.020104,0,0.0072903,0,0,0,0.036962,-0.00086422,0.010829,2.8998,0.015642,0.033613,1.1428e-06,0.5,0.15,0
0.017402,0.0071992,0.036959,0.0043828,0.012403,0.0018507,0,0,0.063847,-0.020851,0,0.0096238,0,0,0,0.037064,0.0042779,0.012403,3.2412,0.017915,0.029573,9.9805e-07,0.51,0.15,0
0.018042,0.0073806,0.03702,0.004004,0.012307,0.0018049,0,0,0.064254,-0.021589,0,0.0093856,0,0,0,0.037119,0.0039056,0.012307,3.1198,0.017777,0.029911,1.0175e-06,0.52,0.15,0
0.018687,0.0075586,0.037076,0.0036355,0.012214,0.0017406,0,0,0.064644,-0.022303,0,0.0090512,0,0,0,0.037167,0.0035451,0.012214,2.9716,0.017642,0.030234,1.0359e-06,0.53,0.15,0
0.019335,0.0077324,0.037126,0.0032821,0.012122,0.0016598,0,0,0.065009,-0.022985,0,0.0086309,0,0,0,0.037207,0.0032009,0.012122,2.801,0.01751,0.030539,1.0529e-06,0.54,0.15,0
0.019987,0.0079014,0.037166,0.0029478,0.012034,0.0015652,0,0,0.065343,-0.023625,0,0.0081388,0,0,0,0.037238,0.0028763,0.012034,2.6134,0.017383,0.03082,1.0681e-06,0.55,0.15,0
0.020642,0.0080649,0.037197,0.0026354,0.01195,0.0014598,0,0,0.065643,-0.024217,0,0.0075911,0,0,0,0.037258,0.0025738,0.01195,2.4144,0.017261,0.031076,1.0815e-06,0.56,0.15,0
0.0213,0.0082225,0.037218,0.0023467,0.011869,0.0013471,0,0,0.065905,-0.024759,0,0.0070048,0,0,0,0.037269,0.0022947,0.011869,2.209,0.017145,0.031305,1.0931e-06,0.57,0.15,0
0.02196,0.0083739,0.037228,0.0020824,0.011793,0.00123,0,0,0.066131,-0.025248,0,0.0063961,0,0,0,0.037271,0.0020394,0.011793,2.002,0.017035,0.031508,1.1028e-06,0.58,0.15,0
0.022622,0.0085188,0.037229,0.0018424,0.011721,0.0011115,0,0,0.06632,-0.025686,0,0.0057801,0,0,0,0.037264,0.0018075,0.011721,1.7974,0.016931,0.031685,1.1107e-06,0.59,0.15,0
0.023286,0.0086572,0.037222,0.0016258,0.011654,0.00099412,0,0,0.066476,-0.026074,0,0.0051694,0,0,0,0.03725,0.0015981,0.011654,1.5985,0.016834,0.031838,1.1171e-06,0.6,0.15,0
0.023952,0.0087888,0.037207,0.0014313,0.011592,0.00087971,0,0,0.066601,-0.026417,0,0.0045745,0,0,0,0.037229,0.0014097,0.011592,1.4077,0.016744,0.031969,1.1221e-06,0.61,0.15,0
0.024618,0.0089139,0.037187,0.0012573,0.011533,0.00076988,0,0,0.0667,-0.026718,0,0.0040034,0,0,0,0.037204,0.0012408,0.011533,1.2269,0.016659,0.03208,1.1258e-06,0.62,0.15,0
0.025286,0.0090324,0.037162,0.0011021,0.011479,0.00066575,0,0,0.066775,-0.026981,0,0.0034619,0,0,0,0.037174,0.0010898,0.011479,1.0573,0.016581,0.032173,1.1285e-06,0.63,0.15,0
0.025954,0.0091446,0.037133,0.00096382,0.011429,0.00056806,0,0,0.066831,-0.02721,0,0.0029539,0,0,0,0.037142,0.0009549,0.011429,0.89956,0.016509,0.032252,1.1303e-06,0.64,0.15,0
0.026622,0.0092506,0.037102,0.00084075,0.011383,0.00047726,0,0,0.06687,-0.027409,0,0.0024817,0,0,0,0.037108,0.00083447,0.011383,0.75393,0.016442,0.032318,1.1314e-06,0.65,0.15,0
0.027291,0.0093507,0.037069,0.00073123,0.01134,0.00039355,0,0,0.066896,-0.027583,0,0.0020465,0,0,0,0.037074,0.00072697,0.01134,0.62043,0.01638,0.032372,1.132e-06,0.66,0.15,0
0.02796,0.009445,0.037036,0.00063375,0.011301,0.00031695,0,0,0.066911,-0.027735,0,0.0016481,0,0,0,0.037039,0.00063099,0.011301,0.49882,0.016324,0.032418,1.1321e-06,0.67,0.15,0
0.028629,0.0095338,0.037003,0.00054691,0.011265,0.00024733,0,0,0.066918,-0.027866,0,0.0012861,0,0,0,0.037004,0.00054523,0.011265,0.3887,0.016271,0.032455,1.1318e-06,0.68,0.15,0
0.029299,0.0096173,0.036969,0.00046948,0.011232,0.00018447,0,0,0.066918,-0.027982,0,0.00095927,0,0,0,0.03697,0.00046855,0.011232,0.28957,0.016223,0.032486,1.1313e-06,0.69,0.15,0
0.029968,0.0096958,0.036937,0.00040034,0.011201,0.00012808,0,0,0.066913,-0.028082,0,0.00066604,0,0,0,0.036938,0.0003999,0.011201,0.20085,0.01618,0.032512,1.1306e-06,0.7,0.15,0
0.030637,0.0097695,0.036906,0.00033853,0.011173,7.7832e-05,0,0,0.066905,-0.028171,0,0.00040473,0,0,0,0.036906,0.00033837,0.011173,0.12195,0.016139,0.032533,1.1299e-06,0.71,0.15,0
0.031306,0.0098387,0.036876,0.00028318,0.011148,3.3363e-05,0,0,0.066894,-0.028248,0,0.00017349,0,0,0,0.036877,0.00028315,0.011148,0.052238,0.016102,0.032551,1.129e-06,0.72,0.15,0
0.031975,0.0099035,0.036848,0.00023354,0.011125,-5.6852e-06,0,0,0.066882,-0.028317,0,-2.9563e-05,0,0,0,0.036848,0.00023354,0.011125,-0.0088964,0.016069,0.032565,1.128e-06,0.73,0.15,0
0.032643,0.0099642,0.036822,0.00018895,0.011103,-3.9674e-05,0,0,0.066869,-0.028377,0,-0.00020631,0,0,0,0.036822,0.00018891,0.011103,-0.062052,0.016038,0.032577,1.1271e-06,0.74,0.15,0
0.033312,0.010021,0.036797,0.00014884,0.011084,-6.8958e-05,0,0,0.066855,-0.028431,0,-0.00035858,0,0,0,0.036797,0.00014871,0.011084,-0.10781,0.01601,0.032587,1.1262e-06,0.75,0.15,0
0.033981,0.010074,0.036774,0.00011271,0.011066,-9.3877e-05,0,0,0.066841,-0.028479,0,-0.00048816,0,0,0,0.036775,0.00011247,0.011066,-0.14671,0.015984,0.032596,1.1253e-06,0.76,0.15,0
0.034649,0.010124,0.036753,8.0121e-05,0.01105,-0.00011476,0,0,0.066828,-0.028522,0,-0.00059673,0,0,0,0.036753,7.9762e-05,0.01105,-0.17929,0.015961,0.032603,1.1244e-06,0.77,0.15,0
0.035317,0.01017,0.036733,5.0698e-05,0.011035,-0.00013191,0,0,0.066815,-0.02856,0,-0.00068591,0,0,0,0.036734,5.0224e-05,0.011035,-0.20602,0.01594,0.032609,1.1236e-06,0.78,0.15,0
0.035985,0.010213,0.036715,2.4107e-05,0.011022,-0.00014561,0,0,0.066803,-0.028594,0,-0.00075719,0,0,0,0.036716,2.3529e-05,0.011022,-0.22738,0.01592,0.032615,1.1228e-06,0.79,0.15,0
0.036653,0.010253,0.036699,5.8769e-08,0.01101,-0.00015615,0,0,0.066792,-0.028625,0,-0.000812,0,0,0,0.036699,-6.0566e-07,0.01101,-0.24379,0.015903,0.03262,1.1221e-06,0.8,0.15,0
0.037321,0.01029,0.036684,-2.17e-05,0.010999,-0.00016378,0,0,0.066781,-0.028653,0,-0.00085167,0,0,0,0.036684,-2.2431e-05,0.010999,-0.25565,0.015887,0.032624,1.1214e-06,0.81,0.15,0
0.037989,0.010325,0.03667,-4.139e-05,0.010989,-0.00016874,0,0,0.066772,-0.028678,0,-0.00087743,0,0,0,0.036671,-4.2165e-05,0.010989,-0.26334,0.015872,0.032627,1.1208e-06,0.82,0.15,0
0.038657,0.010356,0.036658,-5.9205e-05,0.010979,-0.00017124,0,0,0.066763,-0.028701,0,-0.00089045,0,0,0,0.036658,-6.0003e-05,0.010979,-0.26721,0.015859,0.032631,1.1203e-06,0.83,0.15,0
0.039324,0.010386,0.036646,-7.5314e-05,0.010971,-0.0001715,0,0,0.066755,-0.028721,0,-0.00089182,0,0,0,0.036647,-7.6115e-05,0.010971,-0.26758,0.015848,0.032634,1.1198e-06,0.84,0.15,0
0.039992,0.010413,0.036637,-8.9867e-05,0.010964,-0.00016972,0,0,0.066749,-0.02874,0,-0.00088254,0,0,0,0.036637,-9.0651e-05,0.010964,-0.26477,0.015837,0.032636,1.1193e-06,0.85,0.15,0
0.040659,0.010438,0.036628,-0.00010299,0.010957,-0.00016607,0,0,0.066742,-0.028757,0,-0.00086357,0,0,0,0.036628,-0.00010374,0.010957,-0.25905,0.015827,0.032639,1.119e-06,0.86,0.15,0
0.041327,0.010461,0.036619,-0.00011481,0.010951,-0.00016073,0,0,0.066737,-0.028772,0,-0.00083579,0,0,0,0.03662,-0.00011551,0.010951,-0.25069,0.015819,0.032641,1.1186e-06,0.87,0.15,0
0.041994,0.010481,0.036612,-0.00012541,0.010946,-0.00015385,0,0,0.066733,-0.028786,0,-0.00080003,0,0,0,0.036613,-0.00012605,0.010946,-0.23994,0.015811,0.032643,1.1183e-06,0.88,0.15,0
0.042661,0.0105,0.036606,-0.00013488,0.010941,-0.00014559,0,0,0.066728,-0.028798,0,-0.0007571,0,0,0,0.036607,-0.00013546,0.010941,-0.22704,0.015804,0.032645,1.118e-06,0.89,0.15,0
0.043328,0.010517,0.036601,-0.00014331,0.010937,-0.0001361,0,0,0.066725,-0.028809,0,-0.00070772,0,0,0,0.036601,-0.00014382,0.010937,-0.21222,0.015798,0.032647,1.1178e-06,0.9,0.15,0
0.043996,0.010532,0.036596,-0.00015076,0.010934,-0.0001255,0,0,0.066722,-0.028819,0,-0.00065259,0,0,0,0.036596,-0.00015118,0.010934,-0.19567,0.015793,0.032648,1.1176e-06,0.91,0.15,0
0.044663,0.010545,0.036592,-0.00015728,0.01093,-0.00011392,0,0,0.06672,-0.028828,0,-0.0005924,0,0,0,0.036592,-0.00015763,0.01093,-0.17761,0.015788,0.03265,1.1174e-06,0.92,0.15,0
0.04533,0.010557,0.036588,-0.00016292,0.010928,-0.00010149,0,0,0.066718,-0.028835,0,-0.00052777,0,0,0,0.036589,-0.0001632,0.010928,-0.15823,0.015784,0.032651,1.1172e-06,0.93,0.15,0
0.045997,0.010567,0.036585,-0.00016774,0.010925,-8.8329e-05,0,0,0.066716,-0.028842,0,-0.00045931,0,0,0,0.036586,-0.00016795,0.010925,-0.1377,0.015781,0.032652,1.1171e-06,0.94,0.15,0
0.046664,0.010575,0.036583,-0.00017175,0.010923,-7.4542e-05,0,0,0.066715,-0.028847,0,-0.00038762,0,0,0,0.036583,-0.0001719,0.010923,-0.1162,0.015778,0.032653,1.117e-06,0.95,0.15,0
0.047331,0.010582,0.036581,-0.000175,0.010922,-6.0242e-05,0,0,0.066714,-0.028852,0,-0.00031326,0,0,0,0.036581,-0.0001751,0.010922,-0.093905,0.015776,0.032654,1.1169e-06,0.96,0.15,0
0.047999,0.010587,0.03658,-0.0001775,0.010921,-4.5534e-05,0,0,0.066713,-0.028855,0,-0.00023678,0,0,0,0.03658,-0.00017756,0.010921,-0.070977,0.015774,0.032655,1.1169e-06,0.97,0.15,0
0.048666,0.010591,0.036578,-0.00017927,0.01092,-3.0524e-05,0,0,0.066713,-0.028858,0,-0.00015872,0,0,0,0.036578,-0.0001793,0.01092,-0.047579,0.015773,0.032655,1.1168e-06,0.98,0.15,0
0.049333,0.010593,0.036578,-0.00018033,0.010919,-1.5312e-05,0,0,0.066712,-0.028859,0,-7.9622e-05,0,0,0,0.036578,-0.00018034,0.010919,-0.023867,0.015772,0.032655,1.1168e-06,0.99,0.15,0
0.05,0.010594,0.036578,-0.00018068,0.010919,1.4304e-05,0,0,0.066712,-0.028859,0,7.438e-05,0,0,0,0.036578,-0.00018069,0.010919,0.022296,0.015772,0.032655,1.1168e-06,1,0.15,0
0,0,0.036698,0.015728,0.015728,0.0063708,0,0,0.027261,0,0,0.016564,0,0,0,0.038482,0.013944,0.015728,15.642,0.022718,0.023696,6.7033e-07,0,0.16,0
0.00027261,0.00016564,0.036624,0.014796,0.015426,0.00637,0,0,0.027557,-0.00081858,0,0.016562,0,0,0,0.038347,0.013073,0.015426,15.135,0.022282,0.024183,7.0323e-07,0.01,0.16,0
0.00055114,0.0003361,0.036936,0.013987,0.015277,0.0064302,0,0,0.028157,-0.0016766,0,0.016719,0,0,0,0.038615,0.012308,0.015277,14.633,0.022067,0.024955,7.6021e-07,0.02,0.16,0
0.00083574,0.00051044,0.037247,0.013149,0.015118,0.0064385,0,0,0.028766,-0.002561,0,0.01674,0,0,0,0.038859,0.011536,0.015118,14.059,0.021838,0.025719,8.1692e-07,0.03,0.16,0
0.0011265,0.00068762,0.037549,0.012294,0.014953,0.0063925,0,0,0.029375,-0.0034568,0,0.01662,0,0,0,0.039075,0.010768,0.014953,13.425,0.021598,0.026464,8.7217e-07,0.04,0.16,0
0.0014232,0.00086659,0.037836,0.011436,0.014782,0.0062926,0,0,0.029971,-0.0043489,0,0.016361,0,0,0,0.039259,0.010013,0.014782,12.744,0.021351,0.027177,9.2488e-07,0.05,0.16,0
0.0017259,0.0010463,0.038102,0.01059,0.014608,0.0061419,0,0,0.030542,-0.0052226,0,0.015969,0,0,0,0.03941,0.0092812,0.014608,12.03,0.0211,0.027851,9.7413e-07,0.06,0.16,0
0.0020341,0.0012257,0.03834,0.0097665,0.014432,0.0059453,0,0,0.031081,-0.0060651,0,0.015458,0,0,0,0.039528,0.0085789,0.014432,11.297,0.020846,0.028477,1.0192e-06,0.07,0.16,0
0.0023475,0.0014039,0.038548,0.0089753,0.014257,0.0057095,0,0,0.031578,-0.0068662,0,0.014845,0,0,0,0.039612,0.0079113,0.014257,10.557,0.020594,0.029052,1.0597e-06,0.08,0.16,0
0.0026656,0.00158,0.038588,0.0080912,0.014004,0.0054392,0,0,0.031959,-0.0076862,0,0.014142,0,0,0,0.039529,0.0071502,0.014004,9.8159,0.020228,0.029554,1.0892e-06,0.09,0.16,0
0.0029881,0.0017535,0.038743,0.007234,0.013793,0.0050832,0,0,0.032435,-0.0085269,0,0.013216,0,0,0,0.039543,0.0064343,0.013793,8.9411,0.019924,0.030111,1.1249e-06,0.1,0.16,0
0.0033144,0.0019237,0.03885,0.0065709,0.013626,0.0047695,0,0,0.032791,-0.009172,0,0.012401,0,0,0,0.03954,0.0058809,0.013626,8.2316,0.019682,0.030532,1.1508e-06,0.11,0.16,0
0.0036439,0.0020901,0.039073,0.006178,0.013575,0.0044732,0,0,0.033147,-0.0096164,0,0.01163,0,0,0,0.03967,0.0055806,0.013575,7.6073,0.019609,0.030878,1.1773e-06,0.12,0.16,0
0.0039763,0.0022525,0.039083,0.0057517,0.01345,0.0042582,0,0,0.033322,-0.010008,0,0.011071,0,0,0,0.039618,0.0052163,0.01345,7.1665,0.019428,0.031113,1.1893e-06,0.13,0.16,0
0.0043112,0.0024107,0.039202,0.0052732,0.013343,0.003885,0,0,0.033617,-0.01049,0,0.010101,0,0,0,0.039641,0.0048341,0.013343,6.4494,0.019273,0.031429,1.2092e-06,0.14,0.16,0
0.004648,0.0025645,0.039115,0.0046886,0.013141,0.0035716,0,0,0.033766,-0.010988,0,0.0092863,0,0,0,0.039482,0.0043219,0.013141,5.861,0.018982,0.031685,1.217e-06,0.15,0.16,0
0.0049865,0.002714,0.039093,0.004254,0.013004,0.0032681,0,0,0.033915,-0.011375,0,0.0084971,0,0,0,0.039397,0.0039501,0.013004,5.313,0.018784,0.031898,1.2253e-06,0.16,0.16,0
0.0053263,0.0028591,0.038995,0.0037685,0.012829,0.0029746,0,0,0.034016,-0.011779,0,0.0077339,0,0,0,0.039245,0.003519,0.012829,4.7929,0.018531,0.0321,1.2293e-06,0.17,0.16,0
0.0056672,0.0030001,0.038903,0.0032731,0.012653,0.0026119,0,0,0.034125,-0.012194,0,0.0067909,0,0,0,0.039094,0.0030826,0.012653,4.1704,0.018276,0.032307,1.2333e-06,0.18,0.16,0
0.0060088,0.0031369,0.038914,0.0030967,0.012603,0.0023845,0,0,0.034204,-0.012358,0,0.0061996,0,0,0,0.039072,0.0029386,0.012603,3.7921,0.018204,0.032401,1.2372e-06,0.19,0.16,0
0.006351,0.0032699,0.038852,0.002853,0.012512,0.0021939,0,0,0.034243,-0.012556,0,0.0057041,0,0,0,0.038986,0.0027198,0.012512,3.4746,0.018072,0.032496,1.2379e-06,0.2,0.16,0
0.0066937,0.0033992,0.038767,0.0025706,0.012401,0.0019667,0,0,0.034276,-0.01278,0,0.0051135,0,0,0,0.038874,0.0024641,0.012401,3.101,0.017913,0.032598,1.2375e-06,0.21,0.16,0
0.0070366,0.0035251,0.038675,0.0023094,0.012295,0.0017574,0,0,0.034294,-0.012982,0,0.0045692,0,0,0,0.03876,0.0022246,0.012295,2.7603,0.01776,0.032685,1.2361e-06,0.22,0.16,0
0.0073796,0.0036479,0.038578,0.0020663,0.012193,0.0015661,0,0,0.0343,-0.013165,0,0.0040719,0,0,0,0.038645,0.0019993,0.012193,2.4516,0.017613,0.032761,1.2339e-06,0.23,0.16,0
0.0077226,0.0037678,0.038477,0.001839,0.012095,0.001393,0,0,0.034297,-0.013333,0,0.0036217,0,0,0,0.03853,0.0017861,0.012095,2.1742,0.01747,0.032827,1.2311e-06,0.24,0.16,0
0.0080655,0.0038851,0.038373,0.0016247,0.011999,0.0012379,0,0,0.034286,-0.013487,0,0.0032186,0,0,0,0.038415,0.0015831,0.011999,1.9272,0.017332,0.032885,1.2278e-06,0.25,0.16,0
0.0084083,0.0040002,0.038267,0.0014213,0.011907,0.001101,0,0,0.034269,-0.013631,0,0.0028626,0,0,0,0.0383,0.0013884,0.011907,1.71,0.017198,0.032937,1.224e-06,0.26,0.16,0
0.0087509,0.0041133,0.038159,0.0012264,0.011816,0.00098201,0,0,0.034246,-0.013766,0,0.0025532,0,0,0,0.038185,0.0012003,0.011816,1.522,0.017067,0.032984,1.2201e-06,0.27,0.16,0
0.0090932,0.0042248,0.03805,0.0010378,0.011726,0.00088093,0,0,0.034221,-0.013895,0,0.0022904,0,0,0,0.038071,0.0010168,0.011726,1.3627,0.016938,0.033029,1.2159e-06,0.28,0.16,0
0.0094353,0.004335,0.037941,0.00085335,0.011638,0.00079767,0,0,0.034194,-0.01402,0,0.0020739,0,0,0,0.037958,0.0008362,0.011638,1.2315,0.016811,0.033072,1.2116e-06,0.29,0.16,0
0.0097771,0.0044442,0.037832,0.00067085,0.011551,0.00073213,0,0,0.034165,-0.014144,0,0.0019035,0,0,0,0.037846,0.00065643,0.011551,1.1282,0.016684,0.033115,1.2073e-06,0.3,0.16,0
0.010119,0.0045528,0.037723,0.00048809,0.011463,0.00068426,0,0,0.034137,-0.014268,0,0.0017791,0,0,0,0.037735,0.00047552,0.011463,1.0525,0.016558,0.033161,1.2031e-06,0.31,0.16,0
0.01046,0.004661,0.037615,0.00030279,0.011375,0.00065397,0,0,0.034111,-0.014394,0,0.0017003,0,0,0,0.037626,0.00029133,0.011375,1.0038,0.016431,0.03321,1.1991e-06,0.32,0.16,0
0.010801,0.0047692,0.037508,0.00011255,0.011286,0.00064116,0,0,0.034089,-0.014526,0,0.001667,0,0,0,0.037519,0.00010156,0.011286,0.98196,0.016302,0.033267,1.1955e-06,0.33,0.16,0
0.011142,0.0048777,0.037404,-8.5124e-05,0.011196,0.00064566,0,0,0.034071,-0.014665,0,0.0016787,0,0,0,0.037415,-9.624e-05,0.011196,0.98638,0.016172,0.033332,1.1923e-06,0.34,0.16,0
0.011482,0.0049868,0.037303,-0.0002929,0.011103,0.00066719,0,0,0.03406,-0.014815,0,0.0017347,0,0,0,0.037315,-0.00030474,0.011103,1.0164,0.016038,0.03341,1.1897e-06,0.35,0.16,0
0.011823,0.0050968,0.037206,-0.00051359,0.011008,0.00070535,0,0,0.034058,-0.014978,0,0.0018339,0,0,0,0.037219,-0.00052678,0.011008,1.0709,0.0159,0.033502,1.1879e-06,0.36,0.16,0
0.012163,0.0052081,0.037114,-0.00075017,0.010909,0.00075946,0,0,0.034066,-0.015157,0,0.0019746,0,0,0,0.037129,-0.0007654,0.010909,1.1486,0.015758,0.033614,1.1871e-06,0.37,0.16,0
0.012504,0.0053208,0.037029,-0.0010057,0.010807,0.00082858,0,0,0.034089,-0.015357,0,0.0021543,0,0,0,0.037047,-0.0010238,0.010807,1.2474,0.01561,0.033748,1.1875e-06,0.38,0.16,0
0.012845,0.0054351,0.036952,-0.0012834,0.010701,0.00091135,0,0,0.034127,-0.015579,0,0.0023695,0,0,0,0.036974,-0.0013051,0.010701,1.3646,0.015456,0.033909,1.1893e-06,0.39,0.16,0
0.013187,0.0055514,0.036885,-0.0015864,0.010589,0.0010059,0,0,0.034184,-0.015829,0,0.0026154,0,0,0,0.036911,-0.0016127,0.010589,1.4968,0.015296,0.034101,1.1927e-06,0.4,0.16,0
0.013529,0.0056697,0.036829,-0.0019176,0.010474,0.0011099,0,0,0.034262,-0.016108,0,0.0028857,0,0,0,0.036861,-0.0019494,0.010474,1.6394,0.015128,0.034328,1.1979e-06,0.41,0.16,0
0.013872,0.0057902,0.036786,-0.0022796,0.010352,0.0012202,0,0,0.034365,-0.016421,0,0.0031725,0,0,0,0.036825,-0.0023177,0.010352,1.7872,0.014953,0.034594,1.205e-06,0.42,0.16,0
0.014216,0.0059127,0.036758,-0.0026744,0.010225,0.0013331,0,0,0.034493,-0.016769,0,0.0034661,0,0,0,0.036803,-0.0027194,0.010225,1.9341,0.01477,0.0349,1.2142e-06,0.43,0.16,0
0.014562,0.0060374,0.036745,-0.003103,0.010093,0.0014443,0,0,0.034648,-0.017154,0,0.0037553,0,0,0,0.036798,-0.0031552,0.010093,2.0731,0.014578,0.035248,1.2255e-06,0.44,0.16,0
0.014909,0.006164,0.036748,-0.0035652,0.0099549,0.0015491,0,0,0.034831,-0.017576,0,0.0040277,0,0,0,0.036808,-0.0036247,0.0099549,2.1974,0.014379,0.035639,1.2387e-06,0.45,0.16,0
0.015258,0.0062922,0.036766,-0.0040597,0.009812,0.0016424,0,0,0.035041,-0.018033,0,0.0042703,0,0,0,0.036832,-0.0041256,0.009812,2.3001,0.014173,0.036069,1.2537e-06,0.46,0.16,0
0.01561,0.0064218,0.036799,-0.004583,0.0096647,0.0017193,0,0,0.035274,-0.018522,0,0.0044703,0,0,0,0.03687,-0.0046543,0.0096647,2.3751,0.01396,0.036534,1.2701e-06,0.47,0.16,0
0.015964,0.0065523,0.036843,-0.0051305,0.0095137,0.0017754,0,0,0.035528,-0.019037,0,0.0046159,0,0,0,0.036918,-0.0052055,0.0095137,2.4177,0.013742,0.037027,1.2874e-06,0.48,0.16,0
0.016321,0.0066832,0.036896,-0.0056958,0.00936,0.0018069,0,0,0.035797,-0.019573,0,0.004698,0,0,0,0.036972,-0.0057723,0.00936,2.4249,0.01352,0.03754,1.305e-06,0.49,0.16,0
0.01668,0.0068141,0.036926,-0.00075625,0.010851,0.0018109,0,0,0.049829,-0.020119,0,0.0070436,0,0,0,0.037015,-0.0008447,0.010851,2.7993,0.015674,0.033645,1.1473e-06,0.5,0.16,0
0.017317,0.0069908,0.037015,0.0044181,0.01243,0.001788,0,0,0.063921,-0.020831,0,0.0092978,0,0,0,0.037112,0.0043203,0.01243,3.1303,0.017954,0.029583,1.0005e-06,0.51,0.16,0
0.017958,0.007165,0.037074,0.0040576,0.012339,0.0017456,0,0,0.06431,-0.021533,0,0.009077,0,0,0,0.037166,0.0039656,0.012339,3.018,0.017824,0.029906,1.0193e-06,0.52,0.16,0
0.018603,0.007336,0.037129,0.0037059,0.01225,0.001687,0,0,0.064685,-0.022216,0,0.0087723,0,0,0,0.037214,0.003621,0.01225,2.8821,0.017695,0.030217,1.0371e-06,0.53,0.16,0
0.019252,0.0075032,0.037179,0.0033671,0.012164,0.0016138,0,0,0.065039,-0.022871,0,0.0083917,0,0,0,0.037255,0.0032902,0.012164,2.7264,0.01757,0.030512,1.0537e-06,0.54,0.16,0
0.019904,0.0076658,0.03722,0.0030446,0.012079,0.0015281,0,0,0.065367,-0.023491,0,0.0079462,0,0,0,0.037289,0.0029764,0.012079,2.5551,0.017448,0.030787,1.0688e-06,0.55,0.16,0
0.020559,0.0078235,0.037254,0.002741,0.011999,0.0014325,0,0,0.065665,-0.02407,0,0.0074488,0,0,0,0.037313,0.0026817,0.011999,2.3726,0.017331,0.03104,1.0824e-06,0.56,0.16,0
0.021217,0.0079758,0.037279,0.0024581,0.011921,0.0013295,0,0,0.06593,-0.024604,0,0.0069135,0,0,0,0.03733,0.0024074,0.011921,2.1834,0.017219,0.03127,1.0943e-06,0.57,0.16,0
0.021878,0.0081223,0.037295,0.0021968,0.011847,0.0012219,0,0,0.066163,-0.025092,0,0.006354,0,0,0,0.037337,0.0021543,0.011847,1.9915,0.017113,0.031476,1.1045e-06,0.58,0.16,0
0.022541,0.0082628,0.037302,0.0019571,0.011778,0.0011122,0,0,0.066363,-0.025533,0,0.0057833,0,0,0,0.037337,0.0019222,0.011778,1.8005,0.017012,0.031659,1.1131e-06,0.59,0.16,0
0.023205,0.0083972,0.037301,0.0017388,0.011712,0.0010024,0,0,0.066531,-0.02593,0,0.0052127,0,0,0,0.037329,0.0017106,0.011712,1.6134,0.016917,0.03182,1.1203e-06,0.6,0.16,0
0.023871,0.0085253,0.037293,0.0015409,0.01165,0.00089461,0,0,0.066672,-0.026284,0,0.004652,0,0,0,0.037316,0.0015185,0.01165,1.4325,0.016828,0.031959,1.1261e-06,0.61,0.16,0
0.024539,0.0086473,0.037279,0.0013621,0.011593,0.00079016,0,0,0.066786,-0.026599,0,0.0041088,0,0,0,0.037297,0.0013448,0.011593,1.2597,0.016745,0.03208,1.1306e-06,0.62,0.16,0
0.025207,0.0087631,0.037261,0.0012012,0.011539,0.00069025,0,0,0.066878,-0.026877,0,0.0035893,0,0,0,0.037274,0.001188,0.011539,1.0962,0.016667,0.032184,1.1342e-06,0.63,0.16,0
0.025876,0.008873,0.037238,0.0010567,0.011488,0.0005957,0,0,0.066949,-0.027123,0,0.0030977,0,0,0,0.037248,0.0010469,0.011488,0.943,0.016594,0.032273,1.1368e-06,0.64,0.16,0
0.026546,0.0089769,0.037212,0.00092696,0.011442,0.00050709,0,0,0.067003,-0.027339,0,0.0026369,0,0,0,0.03722,0.00091988,0.011442,0.8005,0.016527,0.032349,1.1387e-06,0.65,0.16,0
0.027216,0.0090751,0.037185,0.00081067,0.011399,0.00042472,0,0,0.067044,-0.027529,0,0.0022086,0,0,0,0.03719,0.00080571,0.011399,0.6689,0.016465,0.032413,1.1399e-06,0.66,0.16,0
0.027887,0.0091678,0.037156,0.00070642,0.011359,0.00034876,0,0,0.067072,-0.027696,0,0.0018136,0,0,0,0.037159,0.00070309,0.011359,0.54817,0.016407,0.032467,1.1407e-06,0.67,0.16,0
0.028558,0.0092552,0.037126,0.00061296,0.011322,0.00027919,0,0,0.067091,-0.027842,0,0.0014518,0,0,0,0.037128,0.00061083,0.011322,0.43807,0.016353,0.032513,1.141e-06,0.68,0.16,0
0.029229,0.0093375,0.037096,0.00052912,0.011287,0.00021591,0,0,0.067101,-0.027972,0,0.0011227,0,0,0,0.037097,0.00052784,0.011287,0.33829,0.016304,0.032551,1.141e-06,0.69,0.16,0
0.0299,0.0094149,0.037066,0.00045385,0.011256,0.00015873,0,0,0.067106,-0.028085,0,0.00082538,0,0,0,0.037067,0.00045316,0.011256,0.24839,0.016259,0.032584,1.1408e-06,0.7,0.16,0
0.030571,0.0094877,0.037037,0.0003862,0.011227,0.0001074,0,0,0.067106,-0.028186,0,0.00055847,0,0,0,0.037037,0.00038589,0.011227,0.16789,0.016217,0.032612,1.1403e-06,0.71,0.16,0
0.031242,0.009556,0.037009,0.00032535,0.0112,6.1644e-05,0,0,0.067102,-0.028275,0,0.00032055,0,0,0,0.037009,0.00032525,0.0112,0.096282,0.016178,0.032635,1.1398e-06,0.72,0.16,0
0.031913,0.0096201,0.036982,0.00027055,0.011176,2.1167e-05,0,0,0.067096,-0.028353,0,0.00011007,0,0,0,0.036982,0.00027053,0.011176,0.033036,0.016143,0.032654,1.1391e-06,0.73,0.16,0
0.032584,0.0096801,0.036956,0.00022113,0.011153,-1.4344e-05,0,0,0.067087,-0.028423,0,-7.4588e-05,0,0,0,0.036956,0.00022112,0.011153,-0.022372,0.01611,0.032671,1.1384e-06,0.74,0.16,0
0.033254,0.0097363,0.036931,0.00017652,0.011132,-4.5199e-05,0,0,0.067078,-0.028485,0,-0.00023504,0,0,0,0.036931,0.00017646,0.011132,-0.070459,0.01608,0.032685,1.1376e-06,0.75,0.16,0
0.033925,0.0097889,0.036908,0.00013621,0.011113,-7.1707e-05,0,0,0.067067,-0.028541,0,-0.00037288,0,0,0,0.036909,0.00013607,0.011113,-0.11173,0.016053,0.032697,1.1369e-06,0.76,0.16,0
0.034596,0.009838,0.036887,9.9747e-05,0.011096,-9.4166e-05,0,0,0.067057,-0.02859,0,-0.00048966,0,0,0,0.036887,9.9506e-05,0.011096,-0.14666,0.016028,0.032707,1.1361e-06,0.77,0.16,0
0.035266,0.0098838,0.036867,6.6737e-05,0.01108,-0.00011286,0,0,0.067046,-0.028635,0,-0.00058689,0,0,0,0.036867,6.6391e-05,0.01108,-0.17572,0.016005,0.032715,1.1354e-06,0.78,0.16,0
0.035937,0.0099265,0.036848,3.6833e-05,0.011066,-0.00012807,0,0,0.067035,-0.028675,0,-0.00066598,0,0,0,0.036849,3.6387e-05,0.011066,-0.19934,0.015984,0.032723,1.1346e-06,0.79,0.16,0
0.036607,0.0099662,0.036831,9.7295e-06,0.011052,-0.00014006,0,0,0.067025,-0.02871,0,-0.00072831,0,0,0,0.036832,9.1967e-06,0.011052,-0.21793,0.015964,0.032729,1.1339e-06,0.8,0.16,0
0.037277,0.010003,0.036815,-1.4842e-05,0.01104,-0.00014907,0,0,0.067015,-0.028743,0,-0.00077515,0,0,0,0.036816,-1.5445e-05,0.01104,-0.2319,0.015947,0.032735,1.1333e-06,0.81,0.16,0
0.037947,0.010037,0.036801,-3.7116e-05,0.011029,-0.00015533,0,0,0.067006,-0.028772,0,-0.00080772,0,0,0,0.036801,-3.7771e-05,0.011029,-0.24159,0.015931,0.03274,1.1327e-06,0.82,0.16,0
0.038617,0.010069,0.036787,-5.7302e-05,0.011019,-0.00015907,0,0,0.066997,-0.028798,0,-0.00082717,0,0,0,0.036788,-5.7989e-05,0.011019,-0.24736,0.015916,0.032744,1.1321e-06,0.83,0.16,0
0.039287,0.010098,0.036775,-7.5583e-05,0.01101,-0.0001605,0,0,0.06699,-0.028822,0,-0.00083458,0,0,0,0.036776,-7.6282e-05,0.01101,-0.24954,0.015903,0.032748,1.1316e-06,0.84,0.16,0
0.039957,0.010125,0.036764,-9.2118e-05,0.011002,-0.0001598,0,0,0.066982,-0.028844,0,-0.00083096,0,0,0,0.036765,-9.281e-05,0.011002,-0.24842,0.015891,0.032751,1.1311e-06,0.85,0.16,0
0.040627,0.01015,0.036754,-0.00010705,0.010994,-0.00015717,0,0,0.066976,-0.028863,0,-0.00081727,0,0,0,0.036755,-0.00010772,0.010994,-0.24429,0.01588,0.032754,1.1307e-06,0.86,0.16,0
0.041297,0.010172,0.036745,-0.0001205,0.010987,-0.00015277,0,0,0.06697,-0.02888,0,-0.00079441,0,0,0,0.036746,-0.00012114,0.010987,-0.23743,0.015871,0.032757,1.1303e-06,0.87,0.16,0
0.041966,0.010193,0.036737,-0.00013259,0.010981,-0.00014678,0,0,0.066965,-0.028896,0,-0.00076323,0,0,0,0.036738,-0.00013317,0.010981,-0.22809,0.015862,0.03276,1.13e-06,0.88,0.16,0
0.042636,0.010212,0.03673,-0.0001434,0.010976,-0.00013934,0,0,0.06696,-0.02891,0,-0.00072455,0,0,0,0.03673,-0.00014392,0.010976,-0.2165,0.015854,0.032762,1.1296e-06,0.89,0.16,0
0.043305,0.010228,0.036723,-0.00015302,0.010971,-0.0001306,0,0,0.066956,-0.028923,0,-0.00067911,0,0,0,0.036724,-0.00015348,0.010971,-0.20291,0.015847,0.032764,1.1294e-06,0.9,0.16,0
0.043975,0.010243,0.036718,-0.00016153,0.010967,-0.0001207,0,0,0.066953,-0.028934,0,-0.00062766,0,0,0,0.036718,-0.00016192,0.010967,-0.18752,0.015841,0.032765,1.1291e-06,0.91,0.16,0
0.044645,0.010256,0.036713,-0.00016898,0.010963,-0.00010978,0,0,0.06695,-0.028944,0,-0.00057088,0,0,0,0.036713,-0.00016931,0.010963,-0.17055,0.015836,0.032767,1.1289e-06,0.92,0.16,0
0.045314,0.010268,0.036709,-0.00017544,0.01096,-9.797e-05,0,0,0.066947,-0.028952,0,-0.00050944,0,0,0,0.036709,-0.0001757,0.01096,-0.15218,0.015831,0.032768,1.1287e-06,0.93,0.16,0
0.045983,0.010278,0.036705,-0.00018094,0.010957,-8.538e-05,0,0,0.066945,-0.028959,0,-0.00044398,0,0,0,0.036706,-0.00018114,0.010957,-0.13262,0.015827,0.032769,1.1286e-06,0.94,0.16,0
0.046653,0.010286,0.036702,-0.00018554,0.010955,-7.2135e-05,0,0,0.066943,-0.028966,0,-0.0003751,0,0,0,0.036702,-0.00018568,0.010955,-0.11204,0.015824,0.03277,1.1284e-06,0.95,0.16,0
0.047322,0.010293,0.0367,-0.00018925,0.010953,-5.8349e-05,0,0,0.066942,-0.02897,0,-0.00030342,0,0,0,0.0367,-0.00018935,0.010953,-0.090627,0.015821,0.032771,1.1283e-06,0.96,0.16,0
0.047992,0.010298,0.036698,-0.00019212,0.010952,-4.4134e-05,0,0,0.066941,-0.028974,0,-0.0002295,0,0,0,0.036698,-0.00019217,0.010952,-0.068547,0.015819,0.032772,1.1282e-06,0.97,0.16,0
0.048661,0.010302,0.036697,-0.00019415,0.010951,-2.96e-05,0,0,0.06694,-0.028977,0,-0.00015392,0,0,0,0.036697,-0.00019417,0.010951,-0.045971,0.015818,0.032772,1.1282e-06,0.98,0.16,0
0.049331,0.010304,0.036696,-0.00019536,0.01095,-1.4853e-05,0,0,0.066939,-0.028979,0,-7.7234e-05,0,0,0,0.036696,-0.00019537,0.01095,-0.023068,0.015817,0.032772,1.1281e-06,0.99,0.16,0
0.05,0.010305,0.036696,-0.00019577,0.01095,1.4207e-05,0,0,0.066939,-0.028979,0,7.3876e-05,0,0,0,0.036696,-0.00019577,0.01095,0.022064,0.015817,0.032773,1.1281e-06,1,0.16,0
0,0,0.036385,0.015594,0.015594,0.0060651,0,0,0.027029,-5.421e-19,0,0.015769,0,0,0,0.038025,0.013954,0.015594,15.13,0.022524,0.023295,6.3839e-07,0,0.17,0
0.00027029,0.00015769,0.036315,0.014713,0.015308,0.006065,0,0,0.027308,-0.00077397,0,0.015769,0,0,0,0.037901,0.013127,0.015308,14.658,0.022112,0.023759,6.6927e-07,0.01,0.17,0
0.00054617,0.00031984,0.03661,0.013952,0.015169,0.0061229,0,0,0.027874,-0.0015822,0,0.015919,0,0,0,0.038159,0.012403,0.015169,14.194,0.02191,0.024491,7.2212e-07,0.02,0.17,0
0.00082778,0.00048561,0.036905,0.013164,0.015021,0.0061352,0,0,0.02845,-0.0024139,0,0.015952,0,0,0,0.038397,0.011672,0.015021,13.666,0.021697,0.025218,7.7492e-07,0.03,0.17,0
0.0011152,0.00065412,0.037194,0.012361,0.014866,0.0061001,0,0,0.029025,-0.0032569,0,0.01586,0,0,0,0.038611,0.010944,0.014866,13.082,0.021474,0.02593,8.2674e-07,0.04,0.17,0
0.0014083,0.00082443,0.03747,0.011554,0.014707,0.0060176,0,0,0.029591,-0.0040988,0,0.015646,0,0,0,0.038799,0.010225,0.014707,12.455,0.021244,0.026617,8.7667e-07,0.05,0.17,0
0.001707,0.00099562,0.037728,0.010755,0.014545,0.0058899,0,0,0.030138,-0.0049271,0,0.015314,0,0,0,0.038958,0.0095246,0.014545,11.796,0.021009,0.027272,9.2391e-07,0.06,0.17,0
0.002011,0.0011668,0.037963,0.0099721,0.014381,0.0057208,0,0,0.030658,-0.0057311,0,0.014874,0,0,0,0.039087,0.0088481,0.014381,11.116,0.020772,0.027888,9.6782e-07,0.07,0.17,0
0.0023201,0.0013371,0.038173,0.0092154,0.014216,0.0055154,0,0,0.031144,-0.0065015,0,0.01434,0,0,0,0.039188,0.0082005,0.014216,10.427,0.020535,0.02846,1.008e-06,0.08,0.17,0
0.0026339,0.0015059,0.038294,0.0085325,0.014048,0.0053117,0,0,0.03152,-0.00717,0,0.01381,0,0,0,0.039213,0.0076129,0.014048,9.8222,0.020291,0.028925,1.0385e-06,0.09,0.17,0
0.002952,0.0016724,0.038616,0.0080618,0.014004,0.0050795,0,0,0.031997,-0.0077241,0,0.013207,0,0,0,0.039439,0.0072395,0.014004,9.1956,0.020227,0.029406,1.0767e-06,0.1,0.17,0
0.0032739,0.0018362,0.038741,0.0074208,0.013848,0.0048083,0,0,0.03236,-0.0083559,0,0.012502,0,0,0,0.039462,0.0066992,0.013848,8.5344,0.020003,0.029838,1.1048e-06,0.11,0.17,0
0.0035992,0.0019967,0.038826,0.0066701,0.013649,0.0044564,0,0,0.03273,-0.0090724,0,0.011587,0,0,0,0.039432,0.0060639,0.013649,7.746,0.019715,0.030297,1.1321e-06,0.12,0.17,0
0.0039275,0.0021538,0.038787,0.0059907,0.013433,0.0041621,0,0,0.03296,-0.0096753,0,0.010821,0,0,0,0.039307,0.0054708,0.013433,7.1209,0.019404,0.030641,1.148e-06,0.13,0.17,0
0.0042584,0.0023071,0.038828,0.0054695,0.013289,0.0038675,0,0,0.0332,-0.010165,0,0.010056,0,0,0,0.03927,0.0050269,0.013289,6.5274,0.019195,0.03095,1.1648e-06,0.14,0.17,0
0.0045915,0.0024566,0.038845,0.0049877,0.01315,0.0035761,0,0,0.033404,-0.010611,0,0.009298,0,0,0,0.039219,0.0046141,0.01315,5.9641,0.018994,0.031225,1.1785e-06,0.15,0.17,0
0.0049264,0.0026021,0.038843,0.0045433,0.013016,0.0032915,0,0,0.033575,-0.011014,0,0.008558,0,0,0,0.039156,0.0042303,0.013016,5.4323,0.018801,0.031466,1.1896e-06,0.16,0.17,0
0.005263,0.0027437,0.038826,0.0041966,0.012907,0.0030685,0,0,0.033695,-0.011323,0,0.0079782,0,0,0,0.039096,0.0039268,0.012907,5.0248,0.018643,0.031649,1.1971e-06,0.17,0.17,0
0.0056008,0.0028814,0.038878,0.003969,0.012854,0.0028357,0,0,0.033831,-0.011551,0,0.0073729,0,0,0,0.039106,0.0037401,0.012854,4.614,0.018567,0.031804,1.2063e-06,0.18,0.17,0
0.0059396,0.0030153,0.038783,0.0034813,0.012679,0.0025079,0,0,0.033935,-0.011958,0,0.0065205,0,0,0,0.038961,0.003304,0.012679,4.0433,0.018315,0.032016,1.2109e-06,0.19,0.17,0
0.0062792,0.0031457,0.038677,0.0030843,0.012528,0.0022682,0,0,0.033993,-0.012277,0,0.0058974,0,0,0,0.03882,0.0029404,0.012528,3.6318,0.018096,0.032176,1.2126e-06,0.2,0.17,0
0.0066194,0.0032727,0.038607,0.0027851,0.012417,0.0020488,0,0,0.034046,-0.012522,0,0.0053269,0,0,0,0.038724,0.0026683,0.012417,3.2629,0.017936,0.032303,1.2145e-06,0.21,0.17,0
0.0069601,0.0033965,0.038529,0.0025065,0.012311,0.0018457,0,0,0.034084,-0.012745,0,0.0047989,0,0,0,0.038623,0.0024122,0.012311,2.9255,0.017782,0.032416,1.2152e-06,0.22,0.17,0
0.0073011,0.0035173,0.038445,0.002246,0.012207,0.0016594,0,0,0.034109,-0.01295,0,0.0043145,0,0,0,0.038521,0.0021701,0.012207,2.6192,0.017633,0.032516,1.215e-06,0.23,0.17,0
0.0076423,0.0036354,0.038356,0.002001,0.012107,0.0014902,0,0,0.034124,-0.013138,0,0.0038745,0,0,0,0.038417,0.00194,0.012107,2.3433,0.017488,0.032605,1.2141e-06,0.24,0.17,0
0.0079836,0.0037511,0.038263,0.0017691,0.01201,0.0013381,0,0,0.03413,-0.013313,0,0.0034792,0,0,0,0.038312,0.0017201,0.01201,2.0971,0.017347,0.032686,1.2125e-06,0.25,0.17,0
0.0083249,0.0038647,0.038167,0.001548,0.011915,0.0012034,0,0,0.034128,-0.013477,0,0.0031289,0,0,0,0.038207,0.0015085,0.011915,1.8802,0.01721,0.032759,1.2104e-06,0.26,0.17,0
0.0086662,0.0039764,0.038069,0.0013355,0.011821,0.001086,0,0,0.034122,-0.013631,0,0.0028237,0,0,0,0.038101,0.0013035,0.011821,1.692,0.017075,0.032828,1.208e-06,0.27,0.17,0
0.0090073,0.0040865,0.037969,0.0011294,0.011729,0.00098595,0,0,0.034111,-0.01378,0,0.0025635,0,0,0,0.037995,0.0011031,0.011729,1.532,0.016942,0.032892,1.2053e-06,0.28,0.17,0
0.0093484,0.0041953,0.037868,0.00092752,0.011639,0.00090315,0,0,0.034098,-0.013924,0,0.0023482,0,0,0,0.03789,0.00090545,0.011639,1.3997,0.016811,0.032956,1.2025e-06,0.29,0.17,0
0.0096893,0.0043032,0.037766,0.00072764,0.011548,0.00083755,0,0,0.034084,-0.014067,0,0.0021776,0,0,0,0.037785,0.00070871,0.011548,1.2947,0.016681,0.033019,1.1996e-06,0.3,0.17,0
0.01003,0.0044104,0.037665,0.00052759,0.011458,0.00078907,0,0,0.03407,-0.014209,0,0.0020516,0,0,0,0.037682,0.00051083,0.011458,1.2166,0.01655,0.033085,1.1967e-06,0.31,0.17,0
0.010371,0.0045172,0.037565,0.0003251,0.011367,0.00075756,0,0,0.034057,-0.014354,0,0.0019697,0,0,0,0.03758,0.0003097,0.011367,1.1649,0.016419,0.033155,1.1941e-06,0.32,0.17,0
0.010711,0.004624,0.037466,0.00011786,0.011275,0.00074285,0,0,0.034049,-0.014505,0,0.0019314,0,0,0,0.037481,0.00010309,0.011275,1.139,0.016286,0.033232,1.1918e-06,0.33,0.17,0
0.011052,0.004731,0.03737,-9.6578e-05,0.011182,0.00074465,0,0,0.034045,-0.014662,0,0.0019361,0,0,0,0.037385,-0.00011137,0.011182,1.1381,0.016152,0.033318,1.1899e-06,0.34,0.17,0
0.011392,0.0048386,0.037278,-0.00032072,0.011087,0.00076255,0,0,0.034048,-0.01483,0,0.0019826,0,0,0,0.037293,-0.00033618,0.011087,1.1614,0.016015,0.033416,1.1887e-06,0.35,0.17,0
0.011733,0.0049469,0.03719,-0.00055721,0.01099,0.00079597,0,0,0.03406,-0.015011,0,0.0020695,0,0,0,0.037206,-0.00057399,0.01099,1.2075,0.015874,0.033529,1.1883e-06,0.36,0.17,0
0.012073,0.0050562,0.037107,-0.00080875,0.010889,0.00084409,0,0,0.034083,-0.015208,0,0.0021946,0,0,0,0.037126,-0.00082753,0.010889,1.2747,0.015729,0.033661,1.1888e-06,0.37,0.17,0
0.012414,0.0051668,0.037031,-0.0010781,0.010786,0.00090581,0,0,0.034119,-0.015423,0,0.0023551,0,0,0,0.037053,-0.0010996,0.010786,1.3608,0.01558,0.033814,1.1904e-06,0.38,0.17,0
0.012756,0.0052789,0.036964,-0.001368,0.010679,0.00097965,0,0,0.034171,-0.015661,0,0.0025471,0,0,0,0.036989,-0.001393,0.010679,1.463,0.015425,0.033994,1.1934e-06,0.39,0.17,0
0.013098,0.0053926,0.036906,-0.001681,0.010568,0.0010637,0,0,0.03424,-0.015923,0,0.0027656,0,0,0,0.036936,-0.0017104,0.010568,1.5778,0.015264,0.034202,1.1979e-06,0.4,0.17,0
0.01344,0.0055081,0.03686,-0.0020197,0.010452,0.0011556,0,0,0.03433,-0.016213,0,0.0030045,0,0,0,0.036894,-0.002054,0.010452,1.7009,0.015097,0.034442,1.2041e-06,0.41,0.17,0
0.013784,0.0056254,0.036825,-0.0023859,0.010332,0.0012524,0,0,0.034442,-0.016533,0,0.0032562,0,0,0,0.036866,-0.0024258,0.010332,1.8275,0.014924,0.034717,1.212e-06,0.42,0.17,0
0.014129,0.0057444,0.036805,-0.002781,0.010207,0.0013507,0,0,0.034577,-0.016885,0,0.0035119,0,0,0,0.036851,-0.002827,0.010207,1.952,0.014744,0.035029,1.2218e-06,0.43,0.17,0
0.014476,0.0058652,0.036798,-0.0032056,0.010078,0.0014468,0,0,0.034736,-0.017268,0,0.0037616,0,0,0,0.03685,-0.0032578,0.010078,2.0686,0.014557,0.035378,1.2334e-06,0.44,0.17,0
0.014824,0.0059876,0.036805,-0.0036591,0.0099439,0.0015364,0,0,0.03492,-0.017684,0,0.0039946,0,0,0,0.036864,-0.0037174,0.0099439,2.1713,0.014363,0.035764,1.2466e-06,0.45,0.17,0
0.015174,0.0061114,0.036826,-0.0041401,0.0098058,0.0016153,0,0,0.035127,-0.01813,0,0.0041999,0,0,0,0.03689,-0.0042037,0.0098058,2.2546,0.014164,0.036184,1.2614e-06,0.46,0.17,0
0.015527,0.0062362,0.03686,-0.0046456,0.0096642,0.0016795,0,0,0.035354,-0.018603,0,0.0043668,0,0,0,0.036928,-0.0047134,0.0096642,2.3135,0.013959,0.036633,1.2773e-06,0.47,0.17,0
0.015881,0.0063616,0.036903,-0.0051713,0.0095196,0.0017253,0,0,0.035599,-0.019098,0,0.0044858,0,0,0,0.036974,-0.0052419,0.0095196,2.3442,0.013751,0.037107,1.2939e-06,0.48,0.17,0
0.016238,0.0064873,0.036955,-0.005712,0.0093729,0.0017498,0,0,0.035857,-0.01961,0,0.0045494,0,0,0,0.037027,-0.0057837,0.0093729,2.3445,0.013539,0.037598,1.3109e-06,0.49,0.17,0
0.016598,0.0066128,0.036985,-0.00074213,0.010873,0.0017503,0,0,0.049897,-0.020133,0,0.0068067,0,0,0,0.037067,-0.00082467,0.010873,2.7029,0.015705,0.033675,1.1517e-06,0.5,0.17,0
0.017236,0.0067826,0.03707,0.0044515,0.012456,0.0017276,0,0,0.063995,-0.020813,0,0.0089835,0,0,0,0.037161,0.0043603,0.012456,3.0234,0.017993,0.029595,1.0031e-06,0.51,0.17,0
0.017878,0.0069499,0.037127,0.0041069,0.01237,0.0016879,0,0,0.064368,-0.021485,0,0.0087769,0,0,0,0.037213,0.0040208,0.01237,2.9186,0.017868,0.029905,1.0211e-06,0.52,0.17,0
0.018524,0.0071143,0.037181,0.00377,0.012285,0.001634,0,0,0.064729,-0.02214,0,0.0084968,0,0,0,0.037261,0.0036902,0.012285,2.7932,0.017746,0.030205,1.0385e-06,0.53,0.17,0
0.019173,0.007275,0.037231,0.0034442,0.012202,0.0015672,0,0,0.065073,-0.022772,0,0.0081494,0,0,0,0.037303,0.0033716,0.012202,2.6501,0.017626,0.030491,1.0547e-06,0.54,0.17,0
0.019825,0.0074316,0.037274,0.0031325,0.012122,0.0014892,0,0,0.065394,-0.023372,0,0.0077436,0,0,0,0.037338,0.0030677,0.012122,2.4928,0.017509,0.03076,1.0697e-06,0.55,0.17,0
0.020481,0.0075835,0.037309,0.0028373,0.012044,0.0014019,0,0,0.06569,-0.023937,0,0.0072899,0,0,0,0.037366,0.0027804,0.012044,2.325,0.017397,0.03101,1.0833e-06,0.56,0.17,0
0.021139,0.0077305,0.037337,0.0025603,0.011969,0.0013076,0,0,0.065957,-0.024463,0,0.0067997,0,0,0,0.037386,0.0025112,0.011969,2.1503,0.017289,0.031239,1.0954e-06,0.57,0.17,0
0.0218,0.0078721,0.037357,0.0023023,0.011898,0.0012086,0,0,0.066194,-0.024948,0,0.0062847,0,0,0,0.037399,0.0022607,0.011898,1.9723,0.017186,0.031447,1.1061e-06,0.58,0.17,0
0.022463,0.0080082,0.037369,0.0020639,0.01183,0.0011069,0,0,0.066402,-0.025392,0,0.0057558,0,0,0,0.037404,0.0020292,0.01183,1.794,0.017088,0.031634,1.1153e-06,0.59,0.17,0
0.023128,0.0081386,0.037374,0.0018448,0.011766,0.0010045,0,0,0.066581,-0.025794,0,0.0052234,0,0,0,0.037402,0.0018164,0.011766,1.6182,0.016995,0.031801,1.1231e-06,0.6,0.17,0
0.023795,0.0082631,0.037372,0.0016445,0.011705,0.00090311,0,0,0.066734,-0.026157,0,0.0046962,0,0,0,0.037395,0.0016217,0.011705,1.4471,0.016907,0.031948,1.1296e-06,0.61,0.17,0
0.024463,0.0083819,0.037364,0.0014621,0.011648,0.00080414,0,0,0.066862,-0.026483,0,0.0041816,0,0,0,0.037382,0.0014441,0.011648,1.2825,0.016825,0.032077,1.1349e-06,0.62,0.17,0
0.025132,0.0084949,0.037351,0.0012966,0.011594,0.00070873,0,0,0.066967,-0.026774,0,0.0036854,0,0,0,0.037365,0.0012827,0.011594,1.1257,0.016747,0.03219,1.1392e-06,0.63,0.17,0
0.025802,0.0086022,0.037334,0.0011467,0.011544,0.00061775,0,0,0.067053,-0.027033,0,0.0032123,0,0,0,0.037344,0.0011362,0.011544,0.97771,0.016675,0.032288,1.1426e-06,0.64,0.17,0
0.026473,0.0087039,0.037313,0.0010112,0.011497,0.00053181,0,0,0.067122,-0.027264,0,0.0027654,0,0,0,0.037321,0.0010034,0.011497,0.83912,0.016607,0.032373,1.1452e-06,0.65,0.17,0
0.027144,0.0088001,0.03729,0.00088892,0.011454,0.00045135,0,0,0.067175,-0.027469,0,0.002347,0,0,0,0.037296,0.00088333,0.011454,0.71027,0.016544,0.032446,1.1471e-06,0.66,0.17,0
0.027816,0.0088911,0.037266,0.00077855,0.011413,0.00037659,0,0,0.067216,-0.02765,0,0.0019583,0,0,0,0.037269,0.00077466,0.011413,0.59128,0.016486,0.032508,1.1484e-06,0.67,0.17,0
0.028489,0.0089769,0.037239,0.00067898,0.011376,0.00030764,0,0,0.067246,-0.027811,0,0.0015997,0,0,0,0.037242,0.00067639,0.011376,0.48208,0.016431,0.032562,1.1493e-06,0.68,0.17,0
0.029161,0.0090579,0.037213,0.00058915,0.01134,0.00024449,0,0,0.067267,-0.027954,0,0.0012714,0,0,0,0.037214,0.00058752,0.01134,0.38247,0.016381,0.032608,1.1499e-06,0.69,0.17,0
0.029834,0.0091341,0.037186,0.00050807,0.011308,0.00018703,0,0,0.067282,-0.02808,0,0.00097258,0,0,0,0.037187,0.00050712,0.011308,0.29217,0.016334,0.032648,1.1501e-06,0.7,0.17,0
0.030507,0.0092058,0.037159,0.00043486,0.011278,0.00013511,0,0,0.06729,-0.028192,0,0.00070259,0,0,0,0.037159,0.00043436,0.011278,0.2108,0.016291,0.032681,1.15e-06,0.71,0.17,0
0.03118,0.0092732,0.037132,0.0003687,0.01125,8.8517e-05,0,0,0.067294,-0.028292,0,0.00046029,0,0,0,0.037133,0.00036849,0.01125,0.13795,0.016251,0.03271,1.1498e-06,0.72,0.17,0
0.031853,0.0093364,0.037107,0.00030887,0.011225,4.7008e-05,0,0,0.067294,-0.028381,0,0.00024444,0,0,0,0.037107,0.0003088,0.011225,0.073193,0.016213,0.032735,1.1495e-06,0.73,0.17,0
0.032526,0.0093957,0.037082,0.00025471,0.011201,1.0328e-05,0,0,0.067291,-0.02846,0,5.3703e-05,0,0,0,0.037082,0.00025471,0.011201,0.016067,0.016179,0.032756,1.149e-06,0.74,0.17,0
0.033199,0.0094512,0.037059,0.00020565,0.011179,-2.1792e-05,0,0,0.067286,-0.028531,0,-0.00011332,0,0,0,0.037059,0.00020564,0.011179,-0.033881,0.016148,0.032774,1.1484e-06,0.75,0.17,0
0.033871,0.0095032,0.037036,0.00016118,0.011159,-4.9622e-05,0,0,0.06728,-0.028595,0,-0.00025803,0,0,0,0.037036,0.00016111,0.011159,-0.077102,0.016119,0.03279,1.1478e-06,0.76,0.17,0
0.034544,0.0095518,0.037015,0.00012084,0.011141,-7.3432e-05,0,0,0.067272,-0.028651,0,-0.00038185,0,0,0,0.037015,0.00012069,0.011141,-0.11404,0.016092,0.032803,1.1472e-06,0.77,0.17,0
0.035217,0.0095971,0.036994,8.4215e-05,0.011124,-9.3487e-05,0,0,0.067264,-0.028702,0,-0.00048613,0,0,0,0.036995,8.3978e-05,0.011124,-0.14512,0.016067,0.032815,1.1466e-06,0.78,0.17,0
0.035889,0.0096394,0.036976,5.096e-05,0.011108,-0.00011004,0,0,0.067256,-0.028748,0,-0.00057222,0,0,0,0.036976,5.0632e-05,0.011108,-0.17075,0.016045,0.032824,1.146e-06,0.79,0.17,0
0.036562,0.0096787,0.036958,2.0753e-05,0.011094,-0.00012334,0,0,0.067248,-0.028789,0,-0.0006414,0,0,0,0.036958,2.0341e-05,0.011094,-0.19133,0.016024,0.032833,1.1453e-06,0.8,0.17,0
0.037234,0.0097152,0.036942,-6.687e-06,0.011081,-0.00013363,0,0,0.067239,-0.028827,0,-0.00069489,0,0,0,0.036942,-7.1703e-06,0.011081,-0.20722,0.016005,0.032841,1.1447e-06,0.81,0.17,0
0.037907,0.0097491,0.036927,-3.1607e-05,0.011069,-0.00014113,0,0,0.067231,-0.02886,0,-0.00073388,0,0,0,0.036927,-3.2146e-05,0.011069,-0.21879,0.015988,0.032847,1.1442e-06,0.82,0.17,0
0.038579,0.0097805,0.036913,-5.4228e-05,0.011057,-0.00014605,0,0,0.067223,-0.02889,0,-0.00075949,0,0,0,0.036913,-5.4806e-05,0.011057,-0.22637,0.015972,0.032853,1.1436e-06,0.83,0.17,0
0.039251,0.0098095,0.0369,-7.4744e-05,0.011048,-0.00014861,0,0,0.067216,-0.028918,0,-0.00077276,0,0,0,0.0369,-7.5342e-05,0.011048,-0.23028,0.015957,0.032858,1.1431e-06,0.84,0.17,0
0.039923,0.0098362,0.036888,-9.3327e-05,0.011038,-0.00014898,0,0,0.067209,-0.028942,0,-0.00077472,0,0,0,0.036888,-9.3927e-05,0.011038,-0.23082,0.015944,0.032862,1.1426e-06,0.85,0.17,0
0.040595,0.0098606,0.036877,-0.00011013,0.01103,-0.00014737,0,0,0.067202,-0.028965,0,-0.00076632,0,0,0,0.036878,-0.00011072,0.01103,-0.22828,0.015932,0.032866,1.1422e-06,0.86,0.17,0
0.041267,0.009883,0.036867,-0.00012528,0.011023,-0.00014393,0,0,0.067197,-0.028985,0,-0.00074845,0,0,0,0.036868,-0.00012584,0.011023,-0.22292,0.015922,0.03287,1.1418e-06,0.87,0.17,0
0.041939,0.0099034,0.036859,-0.00013891,0.011016,-0.00013884,0,0,0.067191,-0.029003,0,-0.00072199,0,0,0,0.036859,-0.00013943,0.011016,-0.21502,0.015912,0.032873,1.1414e-06,0.88,0.17,0
0.042611,0.0099218,0.036851,-0.00015111,0.01101,-0.00013226,0,0,0.067186,-0.029019,0,-0.00068775,0,0,0,0.036851,-0.00015158,0.01101,-0.20479,0.015903,0.032875,1.1411e-06,0.89,0.17,0
0.043283,0.0099385,0.036844,-0.00016198,0.011005,-0.00012433,0,0,0.067182,-0.029033,0,-0.00064651,0,0,0,0.036844,-0.00016239,0.011005,-0.19249,0.015895,0.032878,1.1408e-06,0.9,0.17,0
0.043955,0.0099533,0.036838,-0.00017159,0.011,-0.00011519,0,0,0.067178,-0.029045,0,-0.00059901,0,0,0,0.036838,-0.00017195,0.011,-0.17834,0.015888,0.03288,1.1405e-06,0.91,0.17,0
0.044627,0.0099664,0.036832,-0.00018002,0.010996,-0.000105,0,0,0.067175,-0.029057,0,-0.00054598,0,0,0,0.036832,-0.00018032,0.010996,-0.16254,0.015883,0.032881,1.1402e-06,0.92,0.17,0
0.045298,0.0099778,0.036827,-0.00018733,0.010992,-9.3862e-05,0,0,0.067172,-0.029066,0,-0.00048809,0,0,0,0.036827,-0.00018756,0.010992,-0.14529,0.015877,0.032883,1.14e-06,0.93,0.17,0
0.04597,0.0099876,0.036823,-0.00019356,0.010989,-8.1922e-05,0,0,0.067169,-0.029074,0,-0.000426,0,0,0,0.036823,-0.00019374,0.010989,-0.1268,0.015873,0.032884,1.1398e-06,0.94,0.17,0
0.046642,0.0099959,0.03682,-0.00019876,0.010986,-6.9298e-05,0,0,0.067167,-0.029081,0,-0.00036035,0,0,0,0.03682,-0.00019889,0.010986,-0.10726,0.015869,0.032885,1.1397e-06,0.95,0.17,0
0.047314,0.010003,0.036817,-0.00020297,0.010984,-5.6109e-05,0,0,0.067165,-0.029087,0,-0.00029176,0,0,0,0.036817,-0.00020306,0.010984,-0.086839,0.015866,0.032886,1.1396e-06,0.96,0.17,0
0.047985,0.010008,0.036815,-0.00020622,0.010983,-4.2471e-05,0,0,0.067164,-0.029091,0,-0.00022085,0,0,0,0.036815,-0.00020627,0.010983,-0.06573,0.015864,0.032887,1.1395e-06,0.97,0.17,0
0.048657,0.010011,0.036813,-0.00020852,0.010981,-2.8499e-05,0,0,0.067163,-0.029094,0,-0.00014819,0,0,0,0.036813,-0.00020855,0.010981,-0.044105,0.015862,0.032887,1.1394e-06,0.98,0.17,0
0.049328,0.010014,0.036813,-0.0002099,0.010981,-1.4305e-05,0,0,0.067163,-0.029096,0,-7.4385e-05,0,0,0,0.036813,-0.00020991,0.010981,-0.022138,0.015861,0.032888,1.1394e-06,0.99,0.17,0
0.05,0.010014,0.036812,-0.00021036,0.010981,1.4098e-05,0,0,0.067162,-0.029096,0,7.3309e-05,0,0,0,0.036812,-0.00021036,0.010981,0.021818,0.015861,0.032888,1.1394e-06,1,0.17,0
0,0,0.036098,0.015471,0.015471,0.0057755,0,0,0.026816,-4.8789e-19,0,0.015016,0,0,0,0.037605,0.013964,0.015471,14.624,0.022346,0.022925,6.098e-07,0,0.18,0
0.00026816,0.00015016,0.036031,0.014635,0.0152,0.0057761,0,0,0.027081,-0.00073426,0,0.015018,0,0,0,0.037491,0.013175,0.0152,14.183,0.021955,0.023369,6.389e-07,0.01,0.18,0
0.00054161,0.00030446,0.036312,0.013916,0.015068,0.0058316,0,0,0.027617,-0.0014986,0,0.015162,0,0,0,0.037739,0.012488,0.015068,13.754,0.021765,0.024065,6.8813e-07,0.02,0.18,0
0.00082049,0.00046216,0.036593,0.013173,0.01493,0.0058469,0,0,0.028162,-0.002284,0,0.015202,0,0,0,0.037971,0.011794,0.01493,13.267,0.021565,0.024759,7.375e-07,0.03,0.18,0
0.0011049,0.00062248,0.036868,0.012415,0.014785,0.0058205,0,0,0.028708,-0.0030805,0,0.015133,0,0,0,0.038183,0.0111,0.014785,12.729,0.021356,0.025441,7.8623e-07,0.04,0.18,0
0.0013947,0.00078462,0.037133,0.011653,0.014636,0.0057522,0,0,0.029246,-0.0038776,0,0.014956,0,0,0,0.038372,0.010415,0.014636,12.15,0.021141,0.026104,8.3356e-07,0.05,0.18,0
0.0016898,0.00094774,0.037384,0.010895,0.014484,0.0056436,0,0,0.02977,-0.004665,0,0.014673,0,0,0,0.038536,0.0097429,0.014484,11.54,0.020921,0.02674,8.7881e-07,0.06,0.18,0
0.0019901,0.0011111,0.037615,0.01015,0.01433,0.0054976,0,0,0.030271,-0.0054332,0,0.014294,0,0,0,0.038675,0.0090907,0.01433,10.909,0.020698,0.027343,9.2141e-07,0.07,0.18,0
0.0022952,0.0012738,0.037824,0.0094257,0.014175,0.0053183,0,0,0.030744,-0.0061741,0,0.013828,0,0,0,0.038788,0.0084624,0.014175,10.267,0.020475,0.027911,9.6092e-07,0.08,0.18,0
0.0026049,0.0014354,0.038009,0.0087278,0.014021,0.0051106,0,0,0.031184,-0.0068813,0,0.013288,0,0,0,0.038875,0.0078614,0.014021,9.6213,0.020253,0.028439,9.9704e-07,0.09,0.18,0
0.0029189,0.0015952,0.038168,0.0080611,0.013869,0.0048798,0,0,0.031589,-0.0075498,0,0.012688,0,0,0,0.038939,0.0072899,0.013869,8.9806,0.020033,0.028926,1.0296e-06,0.1,0.18,0
0.0032367,0.0017526,0.0383,0.007429,0.013719,0.0046314,0,0,0.031956,-0.0081766,0,0.012042,0,0,0,0.03898,0.0067491,0.013719,8.351,0.019816,0.029373,1.0586e-06,0.11,0.18,0
0.003558,0.0019073,0.038406,0.0068333,0.013572,0.0043707,0,0,0.032285,-0.0087601,0,0.011364,0,0,0,0.039,0.0062394,0.013572,7.7378,0.019604,0.029779,1.0841e-06,0.12,0.18,0
0.0038824,0.002059,0.038487,0.0062746,0.013428,0.0041025,0,0,0.032576,-0.0092999,0,0.010667,0,0,0,0.039001,0.0057603,0.013428,7.1452,0.019397,0.030147,1.1062e-06,0.13,0.18,0
0.0042095,0.0022074,0.038544,0.0057528,0.013289,0.0038315,0,0,0.032831,-0.009797,0,0.0099619,0,0,0,0.038985,0.0053111,0.013289,6.5767,0.019195,0.030479,1.1252e-06,0.14,0.18,0
0.004539,0.0023523,0.038579,0.0052668,0.013154,0.0035615,0,0,0.033053,-0.010253,0,0.0092598,0,0,0,0.038955,0.0048903,0.013154,6.0348,0.019,0.030777,1.1413e-06,0.15,0.18,0
0.0048706,0.0024937,0.038594,0.0048151,0.013023,0.0032959,0,0,0.033243,-0.01067,0,0.0085693,0,0,0,0.038912,0.0044965,0.013023,5.5211,0.018811,0.031044,1.1547e-06,0.16,0.18,0
0.0052039,0.0026315,0.038591,0.0043955,0.012896,0.0030375,0,0,0.033404,-0.011051,0,0.0078975,0,0,0,0.038859,0.0041278,0.012896,5.0369,0.018628,0.031282,1.1658e-06,0.17,0.18,0
0.0055386,0.0027659,0.038572,0.0040059,0.012774,0.0027887,0,0,0.033538,-0.011398,0,0.0072505,0,0,0,0.038796,0.0037823,0.012774,4.5828,0.018451,0.031496,1.1747e-06,0.18,0.18,0
0.0058746,0.0028968,0.03854,0.0036438,0.012655,0.0025512,0,0,0.03365,-0.011715,0,0.0066332,0,0,0,0.038725,0.0034583,0.012655,4.1594,0.01828,0.031686,1.1818e-06,0.19,0.18,0
0.0062116,0.0030243,0.038495,0.0033067,0.012541,0.0023267,0,0,0.033741,-0.012004,0,0.0060493,0,0,0,0.038649,0.0031536,0.012541,3.7665,0.018114,0.031856,1.1872e-06,0.2,0.18,0
0.0065495,0.0031488,0.038441,0.0029922,0.01243,0.0021161,0,0,0.033814,-0.012269,0,0.0055018,0,0,0,0.038567,0.0028663,0.01243,3.4041,0.017954,0.032009,1.1913e-06,0.21,0.18,0
0.0068879,0.0032702,0.038377,0.0026977,0.012323,0.0019203,0,0,0.033871,-0.012512,0,0.0049929,0,0,0,0.038481,0.0025946,0.012323,3.0719,0.017799,0.032146,1.1941e-06,0.22,0.18,0
0.0072269,0.0033889,0.038307,0.0024208,0.012218,0.0017401,0,0,0.033915,-0.012737,0,0.0045242,0,0,0,0.038391,0.0023366,0.012218,2.7695,0.017649,0.032269,1.1958e-06,0.23,0.18,0
0.0075662,0.003505,0.03823,0.0021592,0.012117,0.0015757,0,0,0.033947,-0.012945,0,0.0040968,0,0,0,0.038299,0.0020905,0.012117,2.4965,0.017502,0.032381,1.1968e-06,0.24,0.18,0
0.0079058,0.0036189,0.038149,0.0019105,0.012018,0.0014276,0,0,0.03397,-0.01314,0,0.0037117,0,0,0,0.038205,0.0018544,0.012018,2.2525,0.017359,0.032484,1.197e-06,0.25,0.18,0
0.0082456,0.0037307,0.038064,0.0016726,0.011921,0.0012959,0,0,0.033986,-0.013323,0,0.0033693,0,0,0,0.03811,0.0016265,0.011921,2.0368,0.017219,0.032579,1.1966e-06,0.26,0.18,0
0.0085856,0.0038407,0.037975,0.0014432,0.011825,0.0011807,0,0,0.033995,-0.013497,0,0.0030698,0,0,0,0.038013,0.001405,0.011825,1.8492,0.017081,0.032669,1.1958e-06,0.27,0.18,0
0.0089255,0.0039492,0.037885,0.0012201,0.011732,0.0010821,0,0,0.033999,-0.013665,0,0.0028135,0,0,0,0.037917,0.0011882,0.011732,1.6891,0.016945,0.032755,1.1946e-06,0.28,0.18,0
0.0092655,0.0040565,0.037793,0.0010014,0.011638,0.0010001,0,0,0.034001,-0.013828,0,0.0026004,0,0,0,0.03782,0.00097418,0.011638,1.556,0.016811,0.032839,1.1933e-06,0.29,0.18,0
0.0096055,0.0041629,0.0377,0.00078468,0.011546,0.00093471,0,0,0.034001,-0.013989,0,0.0024303,0,0,0,0.037724,0.00076102,0.011546,1.4495,0.016677,0.032923,1.1918e-06,0.3,0.18,0
0.0099456,0.0042686,0.037608,0.00056795,0.011453,0.0008857,0,0,0.034002,-0.01415,0,0.0023028,0,0,0,0.037629,0.00054678,0.011453,1.369,0.016543,0.03301,1.1904e-06,0.31,0.18,0
0.010286,0.0043739,0.037517,0.00034896,0.01136,0.00085295,0,0,0.034004,-0.014314,0,0.0022177,0,0,0,0.037536,0.0003294,0.01136,1.3139,0.016408,0.0331,1.1892e-06,0.32,0.18,0
0.010626,0.0044791,0.037427,0.00012547,0.011266,0.00083619,0,0,0.03401,-0.014482,0,0.0021741,0,0,0,0.037446,0.00010674,0.011266,1.2835,0.016273,0.033197,1.1883e-06,0.33,0.18,0
0.010966,0.0045844,0.03734,-0.00010484,0.01117,0.00083506,0,0,0.03402,-0.014658,0,0.0021712,0,0,0,0.037358,-0.00012345,0.01117,1.2769,0.016135,0.033303,1.1878e-06,0.34,0.18,0
0.011306,0.0046902,0.037256,-0.00034434,0.011074,0.00084905,0,0,0.034037,-0.014843,0,0.0022075,0,0,0,0.037275,-0.0003635,0.011074,1.2929,0.015995,0.033422,1.1879e-06,0.35,0.18,0
0.011647,0.0047966,0.037177,-0.00059546,0.010974,0.00087745,0,0,0.034063,-0.015041,0,0.0022814,0,0,0,0.037198,-0.00061583,0.010974,1.33,0.015852,0.033555,1.1888e-06,0.36,0.18,0
0.011987,0.0049039,0.037104,-0.00086065,0.010873,0.00091935,0,0,0.0341,-0.015254,0,0.0023903,0,0,0,0.037126,-0.0008829,0.010873,1.3864,0.015705,0.033705,1.1906e-06,0.37,0.18,0
0.012328,0.0050123,0.037038,-0.0011424,0.010769,0.00097353,0,0,0.03415,-0.015484,0,0.0025312,0,0,0,0.037062,-0.0011672,0.010769,1.4597,0.015555,0.033877,1.1935e-06,0.38,0.18,0
0.01267,0.0051219,0.036979,-0.0014429,0.010661,0.0010385,0,0,0.034214,-0.015735,0,0.0027,0,0,0,0.037007,-0.001471,0.010661,1.5471,0.015399,0.034073,1.1976e-06,0.39,0.18,0
0.013013,0.005233,0.036931,-0.0017646,0.01055,0.0011123,0,0,0.034295,-0.016009,0,0.0028919,0,0,0,0.036963,-0.0017966,0.01055,1.6451,0.015239,0.034295,1.2031e-06,0.4,0.18,0
0.013356,0.0053455,0.036893,-0.0021093,0.010435,0.0011926,0,0,0.034395,-0.016308,0,0.0031008,0,0,0,0.036929,-0.0021457,0.010435,1.7498,0.015073,0.034547,1.2101e-06,0.41,0.18,0
0.013701,0.0054595,0.036866,-0.0024785,0.010316,0.0012768,0,0,0.034515,-0.016633,0,0.0033197,0,0,0,0.036907,-0.0025199,0.010316,1.8568,0.014901,0.034831,1.2188e-06,0.42,0.18,0
0.014046,0.005575,0.036852,-0.0028731,0.010194,0.0013618,0,0,0.034656,-0.016987,0,0.0035406,0,0,0,0.036899,-0.0029198,0.010194,1.961,0.014724,0.035147,1.229e-06,0.43,0.18,0
0.014394,0.005692,0.03685,-0.0032935,0.010067,0.0014441,0,0,0.034818,-0.017369,0,0.0037547,0,0,0,0.036902,-0.0033453,0.010067,2.0576,0.014541,0.035496,1.2408e-06,0.44,0.18,0
0.014743,0.0058103,0.036862,-0.0037388,0.0099369,0.0015202,0,0,0.035002,-0.017778,0,0.0039526,0,0,0,0.036918,-0.0037956,0.0099369,2.1414,0.014353,0.035876,1.2541e-06,0.45,0.18,0
0.015094,0.0059296,0.036885,-0.0042076,0.0098032,0.0015865,0,0,0.035206,-0.018214,0,0.004125,0,0,0,0.036946,-0.0042687,0.0098032,2.2078,0.01416,0.036286,1.2686e-06,0.46,0.18,0
0.015447,0.0060497,0.036919,-0.0046971,0.0096666,0.0016396,0,0,0.035428,-0.018673,0,0.004263,0,0,0,0.036984,-0.0047616,0.0096666,2.2527,0.013963,0.036722,1.284e-06,0.47,0.18,0
0.015802,0.0061704,0.036962,-0.0052037,0.0095276,0.0016764,0,0,0.035665,-0.019151,0,0.0043587,0,0,0,0.037029,-0.0052703,0.0095276,2.2732,0.013762,0.037179,1.3001e-06,0.48,0.18,0
0.01616,0.0062911,0.037013,-0.005723,0.0093869,0.0016946,0,0,0.035914,-0.019643,0,0.0044059,0,0,0,0.03708,-0.0057901,0.0093869,2.2671,0.013559,0.03765,1.3165e-06,0.49,0.18,0
0.016521,0.0064114,0.037042,-0.00072693,0.010894,0.001692,0,0,0.049963,-0.020144,0,0.0065785,0,0,0,0.037119,-0.00080397,0.010894,2.6102,0.015737,0.033705,1.156e-06,0.5,0.18,0
0.01716,0.0065745,0.037124,0.0044834,0.012482,0.0016692,0,0,0.064068,-0.020797,0,0.0086799,0,0,0,0.037209,0.0043983,0.012482,2.9199,0.01803,0.029608,1.0056e-06,0.51,0.18,0
0.017802,0.0067353,0.03718,0.0041526,0.0124,0.0016317,0,0,0.064428,-0.021442,0,0.0084848,0,0,0,0.03726,0.0040722,0.0124,2.8215,0.017911,0.029907,1.0232e-06,0.52,0.18,0
0.018448,0.0068932,0.037233,0.0038287,0.012318,0.0015818,0,0,0.064777,-0.022073,0,0.0082252,0,0,0,0.037308,0.0037539,0.012318,2.705,0.017793,0.030196,1.04e-06,0.53,0.18,0
0.019098,0.0070477,0.037282,0.0035145,0.012239,0.0015204,0,0,0.065111,-0.022683,0,0.007906,0,0,0,0.03735,0.0034462,0.012239,2.5728,0.017678,0.030474,1.0559e-06,0.54,0.18,0
0.01975,0.0071984,0.037325,0.0032127,0.012161,0.0014489,0,0,0.065426,-0.023267,0,0.0075343,0,0,0,0.037387,0.0031513,0.012161,2.4278,0.017566,0.030737,1.0708e-06,0.55,0.18,0
0.020406,0.0073448,0.037362,0.0029254,0.012086,0.001369,0,0,0.065718,-0.023818,0,0.0071185,0,0,0,0.037417,0.002871,0.012086,2.2729,0.017458,0.030984,1.0844e-06,0.56,0.18,0
0.021065,0.0074865,0.037393,0.0026541,0.012014,0.0012824,0,0,0.065985,-0.024336,0,0.0066682,0,0,0,0.03744,0.0026068,0.012014,2.1112,0.017354,0.031212,1.0966e-06,0.57,0.18,0
0.021726,0.0076233,0.037416,0.0023998,0.011945,0.001191,0,0,0.066225,-0.024817,0,0.0061932,0,0,0,0.037456,0.0023594,0.011945,1.9458,0.017254,0.031421,1.1076e-06,0.58,0.18,0
0.022389,0.007755,0.037432,0.0021631,0.011879,0.0010967,0,0,0.066439,-0.02526,0,0.0057029,0,0,0,0.037466,0.0021291,0.011879,1.7794,0.017158,0.031611,1.1172e-06,0.59,0.18,0
0.023055,0.0078813,0.037442,0.0019441,0.011816,0.0010012,0,0,0.066627,-0.025666,0,0.0052064,0,0,0,0.03747,0.0019158,0.011816,1.6143,0.017067,0.031782,1.1256e-06,0.6,0.18,0
0.023722,0.0080022,0.037444,0.0017423,0.011756,0.00090606,0,0,0.06679,-0.026036,0,0.0047115,0,0,0,0.037467,0.0017193,0.011756,1.4528,0.016981,0.031935,1.1327e-06,0.61,0.18,0
0.02439,0.0081177,0.037442,0.0015571,0.0117,0.00081254,0,0,0.066929,-0.026371,0,0.0042252,0,0,0,0.03746,0.0015388,0.0117,1.2965,0.0169,0.032072,1.1387e-06,0.62,0.18,0
0.02506,0.0082277,0.037434,0.0013879,0.011647,0.00072176,0,0,0.067047,-0.026672,0,0.0037531,0,0,0,0.037448,0.0013735,0.011647,1.1466,0.016823,0.032192,1.1436e-06,0.63,0.18,0
0.025731,0.0083323,0.037422,0.0012336,0.011597,0.00063458,0,0,0.067146,-0.026944,0,0.0032998,0,0,0,0.037433,0.0012224,0.011597,1.0043,0.016751,0.032298,1.1477e-06,0.64,0.18,0
0.026403,0.0084316,0.037406,0.0010931,0.01155,0.00055168,0,0,0.067227,-0.027187,0,0.0028688,0,0,0,0.037415,0.0010847,0.01155,0.8702,0.016683,0.032391,1.151e-06,0.65,0.18,0
0.027076,0.0085257,0.037388,0.00096548,0.011506,0.00047353,0,0,0.067293,-0.027405,0,0.0024624,0,0,0,0.037394,0.00095932,0.011506,0.74475,0.01662,0.032472,1.1535e-06,0.66,0.18,0
0.027749,0.0086148,0.037367,0.00084959,0.011465,0.00040044,0,0,0.067345,-0.0276,0,0.0020823,0,0,0,0.037371,0.0008452,0.011465,0.62819,0.01656,0.032543,1.1555e-06,0.67,0.18,0
0.028423,0.008699,0.037345,0.00074445,0.011427,0.00033259,0,0,0.067387,-0.027774,0,0.0017295,0,0,0,0.037348,0.00074143,0.011427,0.52059,0.016505,0.032604,1.1569e-06,0.68,0.18,0
0.029097,0.0087784,0.037321,0.00064907,0.011391,0.00027004,0,0,0.067418,-0.027929,0,0.0014042,0,0,0,0.037323,0.00064709,0.011391,0.42187,0.016454,0.032658,1.158e-06,0.69,0.18,0
0.029771,0.0088533,0.037297,0.00056256,0.011358,0.00021277,0,0,0.067442,-0.028068,0,0.0011064,0,0,0,0.037298,0.00056133,0.011358,0.33185,0.016406,0.032704,1.1586e-06,0.7,0.18,0
0.030446,0.0089239,0.037273,0.00048406,0.011327,0.00016069,0,0,0.067459,-0.028192,0,0.0008356,0,0,0,0.037274,0.00048336,0.011327,0.25026,0.016361,0.032744,1.159e-06,0.71,0.18,0
0.03112,0.0089902,0.037248,0.00041282,0.011298,0.00011366,0,0,0.06747,-0.028303,0,0.00059103,0,0,0,0.037249,0.00041247,0.011298,0.17679,0.01632,0.032778,1.1592e-06,0.72,0.18,0
0.031795,0.0090525,0.037225,0.00034813,0.011272,7.149e-05,0,0,0.067477,-0.028402,0,0.00037175,0,0,0,0.037225,0.00034799,0.011272,0.11107,0.016282,0.032808,1.1591e-06,0.73,0.18,0
0.03247,0.0091109,0.037201,0.00028936,0.011247,3.3977e-05,0,0,0.067481,-0.02849,0,0.00017668,0,0,0,0.037201,0.00028933,0.011247,0.05274,0.016246,0.032834,1.1589e-06,0.74,0.18,0
0.033145,0.0091657,0.037179,0.00023595,0.011224,8.9391e-07,0,0,0.067481,-0.02857,0,4.6484e-06,0,0,0,0.037179,0.00023595,0.011224,0.0013864,0.016213,0.032857,1.1586e-06,0.75,0.18,0
0.03382,0.009217,0.037157,0.00018737,0.011203,-2.7993e-05,0,0,0.067479,-0.028641,0,-0.00014556,0,0,0,0.037157,0.00018735,0.011203,-0.043384,0.016182,0.032876,1.1582e-06,0.76,0.18,0
0.034494,0.009265,0.037136,0.00014318,0.011184,-5.2923e-05,0,0,0.067476,-0.028705,0,-0.0002752,0,0,0,0.037136,0.0001431,0.011184,-0.081969,0.016154,0.032893,1.1578e-06,0.77,0.18,0
0.035169,0.0093098,0.037116,0.00010296,0.011166,-7.4136e-05,0,0,0.067471,-0.028763,0,-0.00038551,0,0,0,0.037116,0.00010281,0.011166,-0.11476,0.016128,0.032908,1.1573e-06,0.78,0.18,0
0.035844,0.0093515,0.037097,6.6341e-05,0.011149,-9.1867e-05,0,0,0.067466,-0.028815,0,-0.00047771,0,0,0,0.037098,6.6114e-05,0.011149,-0.14214,0.016104,0.03292,1.1568e-06,0.79,0.18,0
0.036518,0.0093904,0.03708,3.301e-05,0.011134,-0.00010635,0,0,0.06746,-0.028862,0,-0.000553,0,0,0,0.03708,3.2705e-05,0.011134,-0.16447,0.016082,0.032931,1.1563e-06,0.8,0.18,0
0.037193,0.0094266,0.037063,2.6709e-06,0.01112,-0.0001178,0,0,0.067453,-0.028904,0,-0.00061255,0,0,0,0.037064,2.2965e-06,0.01112,-0.18211,0.016062,0.032941,1.1557e-06,0.81,0.18,0
0.037867,0.0094601,0.037048,-2.4934e-05,0.011107,-0.00012644,0,0,0.067447,-0.028943,0,-0.00065749,0,0,0,0.037048,-2.5365e-05,0.011107,-0.19541,0.016043,0.032949,1.1552e-06,0.82,0.18,0
0.038542,0.0094912,0.037033,-5.0033e-05,0.011095,-0.00013248,0,0,0.06744,-0.028977,0,-0.00068888,0,0,0,0.037034,-5.0506e-05,0.011095,-0.20468,0.016026,0.032957,1.1547e-06,0.83,0.18,0
0.039216,0.0095198,0.03702,-7.2832e-05,0.011084,-0.00013611,0,0,0.067434,-0.029008,0,-0.00070776,0,0,0,0.037021,-7.3331e-05,0.011084,-0.21024,0.016011,0.032963,1.1543e-06,0.84,0.18,0
0.039891,0.0095462,0.037008,-9.351e-05,0.011074,-0.00013752,0,0,0.067427,-0.029036,0,-0.00071513,0,0,0,0.037008,-9.402e-05,0.011074,-0.21238,0.015996,0.032969,1.1538e-06,0.85,0.18,0
0.040565,0.0095705,0.036997,-0.00011223,0.011065,-0.00013691,0,0,0.067421,-0.029062,0,-0.00071191,0,0,0,0.036997,-0.00011273,0.011065,-0.21138,0.015983,0.032974,1.1534e-06,0.86,0.18,0
0.041239,0.0095927,0.036986,-0.00012913,0.011057,-0.00013443,0,0,0.067416,-0.029084,0,-0.00069903,0,0,0,0.036987,-0.00012962,0.011057,-0.20752,0.015971,0.032978,1.153e-06,0.87,0.18,0
0.041913,0.0096128,0.036977,-0.00014435,0.01105,-0.00013025,0,0,0.067411,-0.029105,0,-0.00067733,0,0,0,0.036978,-0.0001448,0.01105,-0.20104,0.015961,0.032982,1.1526e-06,0.88,0.18,0
0.042587,0.0096311,0.036969,-0.00015798,0.011043,-0.00012454,0,0,0.067406,-0.029123,0,-0.00064764,0,0,0,0.036969,-0.0001584,0.011043,-0.1922,0.015951,0.032985,1.1522e-06,0.89,0.18,0
0.043261,0.0096476,0.036961,-0.00017014,0.011037,-0.00011745,0,0,0.067402,-0.029139,0,-0.00061074,0,0,0,0.036961,-0.00017051,0.011037,-0.18123,0.015943,0.032988,1.1519e-06,0.9,0.18,0
0.043935,0.0096623,0.036954,-0.0001809,0.011032,-0.00010912,0,0,0.067398,-0.029153,0,-0.00056741,0,0,0,0.036955,-0.00018122,0.011032,-0.16835,0.015935,0.032991,1.1517e-06,0.91,0.18,0
0.044609,0.0096753,0.036948,-0.00019034,0.011027,-9.9683e-05,0,0,0.067394,-0.029166,0,-0.00051835,0,0,0,0.036949,-0.00019061,0.011027,-0.15379,0.015928,0.032993,1.1514e-06,0.92,0.18,0
0.045283,0.0096866,0.036943,-0.00019853,0.011023,-8.9284e-05,0,0,0.067391,-0.029177,0,-0.00046428,0,0,0,0.036943,-0.00019874,0.011023,-0.13773,0.015923,0.032995,1.1512e-06,0.93,0.18,0
0.045957,0.0096963,0.036939,-0.00020552,0.01102,-7.8051e-05,0,0,0.067389,-0.029186,0,-0.00040586,0,0,0,0.036939,-0.00020568,0.01102,-0.12039,0.015918,0.032996,1.151e-06,0.94,0.18,0
0.046631,0.0097045,0.036935,-0.00021136,0.011017,-6.6109e-05,0,0,0.067386,-0.029194,0,-0.00034377,0,0,0,0.036935,-0.00021147,0.011017,-0.10197,0.015914,0.032998,1.1508e-06,0.95,0.18,0
0.047305,0.0097111,0.036932,-0.00021608,0.011015,-5.3582e-05,0,0,0.067385,-0.0292,0,-0.00027863,0,0,0,0.036932,-0.00021616,0.011015,-0.082643,0.01591,0.032999,1.1507e-06,0.96,0.18,0
0.047979,0.0097162,0.03693,-0.00021972,0.011013,-4.0591e-05,0,0,0.067383,-0.029205,0,-0.00021107,0,0,0,0.03693,-0.00021977,0.011013,-0.062603,0.015908,0.033,1.1506e-06,0.97,0.18,0
0.048652,0.0097199,0.036928,-0.00022231,0.011012,-2.7252e-05,0,0,0.067382,-0.029208,0,-0.00014171,0,0,0,0.036928,-0.00022233,0.011012,-0.04203,0.015906,0.033,1.1505e-06,0.98,0.18,0
0.049326,0.0097221,0.036927,-0.00022385,0.011011,-1.3684e-05,0,0,0.067382,-0.02921,0,-7.1154e-05,0,0,0,0.036927,-0.00022386,0.011011,-0.021103,0.015905,0.033,1.1505e-06,0.99,0.18,0
0.05,0.0097228,0.036927,-0.00022437,0.011011,1.3975e-05,0,0,0.067381,-0.029211,0,7.2671e-05,0,0,0,0.036927,-0.00022437,0.011011,0.021553,0.015904,0.033001,1.1505e-06,1,0.18,0
0,0,0.035833,0.015357,0.015357,0.0055003,0,0,0.026619,-1.8973e-19,0,0.014301,0,0,0,0.037217,0.013973,0.015357,14.123,0.022182,0.022584,5.8409e-07,0,0.19,0
0.00026619,0.00014301,0.035769,0.014562,0.015099,0.0055014,0,0,0.026871,-0.00069869,0,0.014304,0,0,0,0.037111,0.01322,0.015099,13.711,0.02181,0.023009,6.116e-07,0.01,0.19,0
0.00053741,0.00028987,0.036037,0.013879,0.014975,0.0055546,0,0,0.02738,-0.0014241,0,0.014442,0,0,0,0.037351,0.012565,0.014975,13.314,0.02163,0.023674,6.5766e-07,0.02,0.19,0
0.00081379,0.00043993,0.036304,0.013176,0.014844,0.0055722,0,0,0.027898,-0.0021686,0,0.014488,0,0,0,0.037577,0.011903,0.014844,12.864,0.021441,0.024337,7.0398e-07,0.03,0.19,0
0.0010954,0.00059251,0.036568,0.012459,0.014708,0.0055529,0,0,0.028418,-0.0029238,0,0.014437,0,0,0,0.037785,0.011241,0.014708,12.367,0.021245,0.024991,7.4993e-07,0.04,0.19,0
0.0013821,0.00074688,0.036823,0.011736,0.014568,0.0054963,0,0,0.028931,-0.0036809,0,0.01429,0,0,0,0.037974,0.010585,0.014568,11.831,0.021042,0.025631,7.9486e-07,0.05,0.19,0
0.001674,0.00090233,0.037065,0.011016,0.014424,0.0054037,0,0,0.029433,-0.0044312,0,0.014049,0,0,0,0.038142,0.0099393,0.014424,11.266,0.020835,0.026249,8.382e-07,0.06,0.19,0
0.0019708,0.0010581,0.037292,0.010305,0.014279,0.0052773,0,0,0.029917,-0.0051664,0,0.013721,0,0,0,0.038287,0.0093097,0.014279,10.68,0.020625,0.02684,8.7942e-07,0.07,0.19,0
0.0022723,0.0012137,0.0375,0.0096103,0.014133,0.0051204,0,0,0.030377,-0.0058795,0,0.013313,0,0,0,0.03841,0.0086999,0.014133,10.081,0.020414,0.027401,9.1812e-07,0.08,0.19,0
0.0025783,0.0013683,0.037686,0.0089375,0.013987,0.004937,0,0,0.030808,-0.0065644,0,0.012836,0,0,0,0.03851,0.0081133,0.013987,9.4778,0.020203,0.027927,9.5398e-07,0.09,0.19,0
0.0028885,0.0015214,0.037849,0.0082908,0.013842,0.0047315,0,0,0.031209,-0.0072166,0,0.012302,0,0,0,0.038588,0.0075519,0.013842,8.876,0.019994,0.028418,9.8684e-07,0.1,0.19,0
0.0032025,0.0016726,0.037989,0.0076735,0.013699,0.0045085,0,0,0.031577,-0.0078328,0,0.011722,0,0,0,0.038645,0.0070172,0.013699,8.2823,0.019787,0.028873,1.0166e-06,0.11,0.19,0
0.0035201,0.0018215,0.038105,0.0070878,0.013558,0.0042727,0,0,0.031911,-0.0084111,0,0.011109,0,0,0,0.038683,0.00651,0.013558,7.7015,0.019584,0.029292,1.0432e-06,0.12,0.19,0
0.0038408,0.0019678,0.038198,0.0065346,0.01342,0.0040283,0,0,0.032211,-0.0089507,0,0.010474,0,0,0,0.038702,0.0060301,0.01342,7.138,0.019384,0.029676,1.0668e-06,0.13,0.19,0
0.0041643,0.0021112,0.038268,0.0060142,0.013285,0.0037797,0,0,0.032479,-0.0094518,0,0.0098271,0,0,0,0.038705,0.0055772,0.013285,6.5951,0.019189,0.030026,1.0876e-06,0.14,0.19,0
0.0044903,0.0022515,0.038318,0.0055261,0.013153,0.0035302,0,0,0.032714,-0.0099154,0,0.0091786,0,0,0,0.038694,0.0051503,0.013153,6.0755,0.018999,0.030344,1.1055e-06,0.15,0.19,0
0.0048186,0.0023887,0.038349,0.0050691,0.013025,0.0032833,0,0,0.03292,-0.010343,0,0.0085367,0,0,0,0.03867,0.0047483,0.013025,5.5811,0.018814,0.030633,1.121e-06,0.16,0.19,0
0.0051487,0.0025226,0.038361,0.0046419,0.012901,0.0030417,0,0,0.033099,-0.010737,0,0.0079084,0,0,0,0.038634,0.0043697,0.012901,5.1134,0.018635,0.030895,1.1342e-06,0.17,0.19,0
0.0054805,0.0026534,0.038358,0.0042426,0.01278,0.0028077,0,0,0.033252,-0.011099,0,0.0073,0,0,0,0.038588,0.004013,0.01278,4.6734,0.018461,0.031131,1.1452e-06,0.18,0.19,0
0.0058138,0.0027811,0.038342,0.003869,0.012663,0.0025832,0,0,0.033382,-0.011432,0,0.0067164,0,0,0,0.038534,0.0036765,0.012663,4.2618,0.018291,0.031346,1.1545e-06,0.19,0.19,0
0.0061482,0.0029057,0.038312,0.0035192,0.012549,0.0023699,0,0,0.033492,-0.011739,0,0.0061617,0,0,0,0.038473,0.0033586,0.012549,3.8788,0.018127,0.03154,1.162e-06,0.2,0.19,0
0.0064836,0.0030273,0.038272,0.003191,0.012439,0.0021689,0,0,0.033583,-0.012022,0,0.0056392,0,0,0,0.038406,0.0030574,0.012439,3.5245,0.017967,0.031716,1.1681e-06,0.21,0.19,0
0.0068198,0.0031462,0.038222,0.0028819,0.012331,0.0019814,0,0,0.033658,-0.012284,0,0.0051515,0,0,0,0.038333,0.0027712,0.012331,3.1989,0.017812,0.031876,1.1729e-06,0.22,0.19,0
0.0071568,0.0032626,0.038165,0.0025899,0.012226,0.0018079,0,0,0.03372,-0.012528,0,0.0047006,0,0,0,0.038257,0.0024983,0.012226,2.9018,0.01766,0.032022,1.1766e-06,0.23,0.19,0
0.0074943,0.0033765,0.038101,0.0023127,0.012124,0.0016493,0,0,0.03377,-0.012755,0,0.0042881,0,0,0,0.038177,0.0022369,0.012124,2.633,0.017513,0.032157,1.1793e-06,0.24,0.19,0
0.0078322,0.0034883,0.038031,0.0020482,0.012024,0.0015057,0,0,0.03381,-0.012968,0,0.0039149,0,0,0,0.038094,0.0019853,0.012024,2.392,0.017368,0.032282,1.1813e-06,0.25,0.19,0
0.0081704,0.0035982,0.037957,0.0017943,0.011925,0.0013777,0,0,0.033841,-0.01317,0,0.0035819,0,0,0,0.03801,0.0017419,0.011925,2.1785,0.017226,0.032399,1.1827e-06,0.26,0.19,0
0.008509,0.0037064,0.03788,0.0015487,0.011829,0.0012653,0,0,0.033867,-0.013364,0,0.0032897,0,0,0,0.037924,0.0015047,0.011829,1.9922,0.017086,0.032511,1.1835e-06,0.27,0.19,0
0.0088478,0.0038132,0.037799,0.0013095,0.011733,0.0011686,0,0,0.033887,-0.01355,0,0.0030385,0,0,0,0.037837,0.0012721,0.011733,1.8325,0.016947,0.032618,1.1839e-06,0.28,0.19,0
0.0091867,0.0039188,0.037718,0.0010746,0.011638,0.0010878,0,0,0.033904,-0.013732,0,0.0028283,0,0,0,0.03775,0.0010423,0.011638,1.6989,0.01681,0.032723,1.1841e-06,0.29,0.19,0
0.0095259,0.0040234,0.037635,0.00084179,0.011543,0.0010228,0,0,0.033919,-0.013912,0,0.0026592,0,0,0,0.037663,0.00081339,0.011543,1.5911,0.016673,0.032828,1.1841e-06,0.3,0.19,0
0.0098651,0.0041274,0.037552,0.00060912,0.011448,0.00097335,0,0,0.033935,-0.014091,0,0.0025307,0,0,0,0.037577,0.00058349,0.011448,1.5082,0.016536,0.032934,1.1842e-06,0.31,0.19,0
0.010205,0.004231,0.03747,0.00037442,0.011353,0.00093937,0,0,0.033951,-0.014272,0,0.0024424,0,0,0,0.037493,0.00035065,0.011353,1.4497,0.016399,0.033045,1.1844e-06,0.32,0.19,0
0.010544,0.0043344,0.037389,0.00013554,0.011257,0.00092053,0,0,0.033971,-0.014458,0,0.0023934,0,0,0,0.037412,0.00011281,0.011257,1.4146,0.016261,0.033162,1.1849e-06,0.33,0.19,0
0.010884,0.0044379,0.037311,-0.0001097,0.011161,0.00091638,0,0,0.033996,-0.014651,0,0.0023826,0,0,0,0.037334,-0.00013213,0.011161,1.402,0.016121,0.033288,1.1858e-06,0.34,0.19,0
0.011224,0.0045417,0.037237,-0.00036352,0.011062,0.00092633,0,0,0.034028,-0.014853,0,0.0024085,0,0,0,0.03726,-0.00038633,0.011062,1.4104,0.015978,0.033426,1.1872e-06,0.35,0.19,0
0.011565,0.0046461,0.037167,-0.00062814,0.010962,0.00094962,0,0,0.034067,-0.015067,0,0.002469,0,0,0,0.037191,-0.00065199,0.010962,1.4384,0.015834,0.033578,1.1894e-06,0.36,0.19,0
0.011905,0.0047512,0.037103,-0.00090577,0.010859,0.00098526,0,0,0.034117,-0.015295,0,0.0025617,0,0,0,0.037129,-0.0009313,0.010859,1.4839,0.015686,0.033747,1.1924e-06,0.37,0.19,0
0.012247,0.0048572,0.037046,-0.0011986,0.010754,0.001032,0,0,0.03418,-0.015539,0,0.0026832,0,0,0,0.037074,-0.0012264,0.010754,1.5446,0.015534,0.033935,1.1964e-06,0.38,0.19,0
0.012589,0.0049642,0.036997,-0.0015086,0.010646,0.0010883,0,0,0.034256,-0.015802,0,0.0028295,0,0,0,0.037028,-0.0015393,0.010646,1.6176,0.015378,0.034146,1.2016e-06,0.39,0.19,0
0.012932,0.0050725,0.036957,-0.0018376,0.010536,0.0011523,0,0,0.034347,-0.016085,0,0.0029959,0,0,0,0.036991,-0.0018718,0.010536,1.6998,0.015218,0.034381,1.2081e-06,0.4,0.19,0
0.013276,0.005182,0.036926,-0.0021872,0.010422,0.0012218,0,0,0.034456,-0.016392,0,0.0031767,0,0,0,0.036964,-0.0022253,0.010422,1.7874,0.015054,0.034643,1.2159e-06,0.41,0.19,0
0.013621,0.0052927,0.036907,-0.0025585,0.010304,0.0012943,0,0,0.034583,-0.016722,0,0.0033652,0,0,0,0.036949,-0.0026009,0.010304,1.8764,0.014884,0.034934,1.2251e-06,0.42,0.19,0
0.013968,0.0054047,0.036899,-0.0029522,0.010184,0.0013671,0,0,0.034729,-0.017077,0,0.0035544,0,0,0,0.036945,-0.0029991,0.010184,1.9625,0.01471,0.035253,1.2357e-06,0.43,0.19,0
0.014316,0.0055179,0.036902,-0.0033683,0.01006,0.0014371,0,0,0.034894,-0.017457,0,0.0037364,0,0,0,0.036953,-0.0034195,0.01006,2.0412,0.014531,0.035601,1.2478e-06,0.44,0.19,0
0.014665,0.0056321,0.036916,-0.0038059,0.0099331,0.0015012,0,0,0.035078,-0.017861,0,0.0039031,0,0,0,0.036972,-0.0038611,0.0099331,2.1084,0.014348,0.035977,1.261e-06,0.45,0.19,0
0.015017,0.0057471,0.036942,-0.0042635,0.0098034,0.0015563,0,0,0.03528,-0.018287,0,0.0040465,0,0,0,0.037,-0.0043222,0.0098034,2.16,0.01416,0.036378,1.2753e-06,0.46,0.19,0
0.015371,0.0058627,0.036977,-0.0047389,0.0096713,0.0015996,0,0,0.035497,-0.018733,0,0.0041591,0,0,0,0.037038,-0.0048001,0.0096713,2.1928,0.01397,0.036802,1.2904e-06,0.47,0.19,0
0.015727,0.0059786,0.037019,-0.0052287,0.0095372,0.0016286,0,0,0.035727,-0.019196,0,0.0042342,0,0,0,0.037082,-0.0052914,0.0095372,2.2042,0.013776,0.037243,1.3061e-06,0.48,0.19,0
0.016086,0.0060945,0.037069,-0.0057294,0.0094018,0.0016411,0,0,0.035967,-0.019671,0,0.0042667,0,0,0,0.037132,-0.0057922,0.0094018,2.1926,0.01358,0.037698,1.3219e-06,0.49,0.19,0
0.016446,0.0062099,0.037097,-0.00071059,0.010916,0.0016355,0,0,0.050027,-0.020153,0,0.0063578,0,0,0,0.037169,-0.0007825,0.010916,2.5207,0.015768,0.033732,1.1601e-06,0.5,0.19,0
0.017086,0.0063666,0.037177,0.0045141,0.012507,0.0016126,0,0,0.064141,-0.020782,0,0.0083856,0,0,0,0.037256,0.0044347,0.012507,2.8197,0.018066,0.029622,1.0082e-06,0.51,0.19,0
0.017729,0.0065211,0.037231,0.0041954,0.012428,0.0015769,0,0,0.064488,-0.021405,0,0.0082001,0,0,0,0.037306,0.0041203,0.012428,2.7267,0.017951,0.02991,1.0252e-06,0.52,0.19,0
0.018376,0.0066728,0.037283,0.0038829,0.01235,0.0015303,0,0,0.064827,-0.022014,0,0.0079578,0,0,0,0.037353,0.0038129,0.01235,2.6179,0.017839,0.030191,1.0416e-06,0.53,0.19,0
0.019026,0.0068213,0.037332,0.0035791,0.012273,0.0014736,0,0,0.065152,-0.022605,0,0.0076627,0,0,0,0.037396,0.0035149,0.012273,2.4951,0.017728,0.030461,1.0573e-06,0.54,0.19,0
0.019679,0.0069662,0.037375,0.0032863,0.012198,0.0014077,0,0,0.06546,-0.023172,0,0.0073203,0,0,0,0.037434,0.0032282,0.012198,2.3607,0.01762,0.030719,1.0719e-06,0.55,0.19,0
0.020335,0.0071071,0.037414,0.0030062,0.012126,0.0013342,0,0,0.065748,-0.023711,0,0.0069377,0,0,0,0.037465,0.0029546,0.012126,2.2172,0.017515,0.030961,1.0855e-06,0.56,0.19,0
0.020994,0.0072438,0.037446,0.0027405,0.012056,0.0012544,0,0,0.066015,-0.02422,0,0.0065228,0,0,0,0.037491,0.0026952,0.012056,2.0673,0.017414,0.031188,1.0979e-06,0.57,0.19,0
0.021655,0.0073758,0.037472,0.00249,0.011989,0.0011699,0,0,0.066257,-0.024696,0,0.0060837,0,0,0,0.037511,0.0024509,0.011989,1.9134,0.017317,0.031397,1.1091e-06,0.58,0.19,0
0.022319,0.007503,0.037492,0.0022554,0.011924,0.0010825,0,0,0.066475,-0.025139,0,0.0056288,0,0,0,0.037525,0.0022222,0.011924,1.7579,0.017224,0.031589,1.1191e-06,0.59,0.19,0
0.022985,0.0076252,0.037505,0.0020369,0.011862,0.00099341,0,0,0.06667,-0.025547,0,0.0051657,0,0,0,0.037533,0.0020091,0.011862,1.6031,0.017135,0.031764,1.1278e-06,0.6,0.19,0
0.023652,0.0077424,0.037512,0.0018343,0.011804,0.00090418,0,0,0.066841,-0.025921,0,0.0047017,0,0,0,0.037535,0.0018114,0.011804,1.4508,0.01705,0.031923,1.1355e-06,0.61,0.19,0
0.024322,0.0078545,0.037514,0.0016472,0.011748,0.00081598,0,0,0.06699,-0.026263,0,0.0042431,0,0,0,0.037532,0.0016286,0.011748,1.3026,0.01697,0.032065,1.142e-06,0.62,0.19,0
0.024992,0.0079614,0.037511,0.001475,0.011696,0.00072985,0,0,0.067119,-0.026574,0,0.0037952,0,0,0,0.037525,0.0014602,0.011696,1.1598,0.016894,0.032192,1.1476e-06,0.63,0.19,0
0.025664,0.0080633,0.037503,0.001317,0.011646,0.00064663,0,0,0.067228,-0.026856,0,0.0033625,0,0,0,0.037515,0.0013054,0.011646,1.0234,0.016822,0.032305,1.1523e-06,0.64,0.19,0
0.026337,0.0081601,0.037492,0.0011722,0.011599,0.000567,0,0,0.067321,-0.02711,0,0.0029484,0,0,0,0.037501,0.0011634,0.011599,0.89418,0.016754,0.032405,1.1562e-06,0.65,0.19,0
0.02701,0.008252,0.037478,0.0010399,0.011555,0.00049147,0,0,0.067398,-0.02734,0,0.0025557,0,0,0,0.037484,0.0010333,0.011555,0.77262,0.016691,0.032494,1.1593e-06,0.66,0.19,0
0.027685,0.0083391,0.037461,0.00091913,0.011514,0.0004204,0,0,0.067462,-0.027547,0,0.0021861,0,0,0,0.037466,0.00091429,0.011514,0.65906,0.016631,0.032572,1.1619e-06,0.67,0.19,0
0.02836,0.0084215,0.037442,0.00080893,0.011475,0.00035403,0,0,0.067514,-0.027733,0,0.001841,0,0,0,0.037446,0.00080551,0.011475,0.55364,0.016575,0.03264,1.1639e-06,0.68,0.19,0
0.029035,0.0084993,0.037422,0.00070845,0.011439,0.00029248,0,0,0.067556,-0.0279,0,0.0015209,0,0,0,0.037424,0.00070612,0.011439,0.45641,0.016523,0.032701,1.1654e-06,0.69,0.19,0
0.029711,0.0085727,0.037401,0.00061687,0.011405,0.00023579,0,0,0.067588,-0.02805,0,0.0012261,0,0,0,0.037402,0.00061536,0.011405,0.36725,0.016474,0.032753,1.1665e-06,0.7,0.19,0
0.030387,0.008642,0.037379,0.00053341,0.011374,0.00018394,0,0,0.067614,-0.028185,0,0.00095648,0,0,0,0.03738,0.00053249,0.011374,0.28602,0.016429,0.0328,1.1673e-06,0.71,0.19,0
0.031063,0.0087071,0.037357,0.00045734,0.011344,0.00013683,0,0,0.067633,-0.028306,0,0.00071154,0,0,0,0.037358,0.00045684,0.011344,0.21246,0.016386,0.03284,1.1678e-06,0.72,0.19,0
0.031739,0.0087684,0.037335,0.00038801,0.011317,9.4347e-05,0,0,0.067647,-0.028415,0,0.0004906,0,0,0,0.037335,0.00038776,0.011317,0.14631,0.016347,0.032875,1.1681e-06,0.73,0.19,0
0.032416,0.0088259,0.037313,0.00032479,0.011291,5.6315e-05,0,0,0.067657,-0.028513,0,0.00029284,0,0,0,0.037313,0.0003247,0.011291,0.087233,0.01631,0.032906,1.1683e-06,0.74,0.19,0
0.033093,0.0088798,0.037292,0.00026713,0.011268,2.2556e-05,0,0,0.067663,-0.028602,0,0.00011729,0,0,0,0.037292,0.00026712,0.011268,0.034906,0.016276,0.032933,1.1682e-06,0.75,0.19,0
0.033769,0.0089304,0.037271,0.00021454,0.011246,-7.1292e-06,0,0,0.067667,-0.028681,0,-3.7072e-05,0,0,0,0.037271,0.00021454,0.011246,-0.011023,0.016244,0.032956,1.1681e-06,0.76,0.19,0
0.034446,0.0089777,0.037251,0.00016656,0.011225,-3.295e-05,0,0,0.067668,-0.028753,0,-0.00017134,0,0,0,0.037251,0.00016653,0.011225,-0.050908,0.016214,0.032977,1.1678e-06,0.77,0.19,0
0.035123,0.0090219,0.037232,0.00012277,0.011206,-5.5119e-05,0,0,0.067667,-0.028818,0,-0.00028662,0,0,0,0.037232,0.00012269,0.011206,-0.085102,0.016187,0.032995,1.1675e-06,0.78,0.19,0
0.035799,0.0090631,0.037214,8.2822e-05,0.011189,-7.3851e-05,0,0,0.067665,-0.028876,0,-0.00038403,0,0,0,0.037214,8.2675e-05,0.011189,-0.11396,0.016162,0.03301,1.1671e-06,0.79,0.19,0
0.036476,0.0091015,0.037196,4.6371e-05,0.011173,-8.9358e-05,0,0,0.067661,-0.028929,0,-0.00046466,0,0,0,0.037197,4.6156e-05,0.011173,-0.13781,0.016139,0.033024,1.1668e-06,0.8,0.19,0
0.037153,0.0091372,0.03718,1.3125e-05,0.011158,-0.00010185,0,0,0.067657,-0.028976,0,-0.00052962,0,0,0,0.03718,1.2846e-05,0.011158,-0.15701,0.016117,0.033036,1.1663e-06,0.81,0.19,0
0.037829,0.0091703,0.037165,-1.718e-05,0.011144,-0.00011153,0,0,0.067653,-0.02902,0,-0.00057995,0,0,0,0.037165,-1.7514e-05,0.011144,-0.17186,0.016097,0.033047,1.1659e-06,0.82,0.19,0
0.038506,0.009201,0.03715,-4.4782e-05,0.011132,-0.0001186,0,0,0.067648,-0.029059,0,-0.0006167,0,0,0,0.03715,-4.516e-05,0.011132,-0.18268,0.016079,0.033056,1.1655e-06,0.83,0.19,0
0.039182,0.0092293,0.037137,-6.9892e-05,0.01112,-0.00012324,0,0,0.067643,-0.029094,0,-0.00064085,0,0,0,0.037137,-7.03e-05,0.01112,-0.18978,0.016062,0.033064,1.165e-06,0.84,0.19,0
0.039858,0.0092554,0.037124,-9.2699e-05,0.011109,-0.00012565,0,0,0.067638,-0.029125,0,-0.00065337,0,0,0,0.037124,-9.3123e-05,0.011109,-0.19343,0.016047,0.033071,1.1646e-06,0.85,0.19,0
0.040535,0.0092794,0.037112,-0.00011337,0.0111,-0.000126,0,0,0.067633,-0.029154,0,-0.00065518,0,0,0,0.037113,-0.0001138,0.0111,-0.19392,0.016033,0.033078,1.1642e-06,0.86,0.19,0
0.041211,0.0093013,0.037102,-0.00013206,0.011091,-0.00012445,0,0,0.067628,-0.02918,0,-0.00064717,0,0,0,0.037102,-0.00013248,0.011091,-0.19151,0.01602,0.033083,1.1639e-06,0.87,0.19,0
0.041887,0.0093213,0.037092,-0.0001489,0.011083,-0.00012119,0,0,0.067624,-0.029203,0,-0.00063019,0,0,0,0.037092,-0.00014929,0.011083,-0.18645,0.016009,0.033088,1.1635e-06,0.88,0.19,0
0.042564,0.0093394,0.037083,-0.000164,0.011076,-0.00011636,0,0,0.067619,-0.029223,0,-0.00060507,0,0,0,0.037084,-0.00016437,0.011076,-0.17899,0.015998,0.033092,1.1632e-06,0.89,0.19,0
0.04324,0.0093557,0.037075,-0.00017748,0.011069,-0.00011012,0,0,0.067615,-0.029242,0,-0.00057261,0,0,0,0.037075,-0.00017781,0.011069,-0.16936,0.015989,0.033096,1.1629e-06,0.9,0.19,0
0.043916,0.0093702,0.037068,-0.00018942,0.011064,-0.0001026,0,0,0.067612,-0.029258,0,-0.00053354,0,0,0,0.037068,-0.0001897,0.011064,-0.15779,0.015981,0.033099,1.1626e-06,0.91,0.19,0
0.044592,0.0093831,0.037062,-0.0001999,0.011059,-9.3966e-05,0,0,0.067608,-0.029272,0,-0.00048863,0,0,0,0.037062,-0.00020014,0.011059,-0.14449,0.015974,0.033101,1.1623e-06,0.92,0.19,0
0.045268,0.0093943,0.037056,-0.000209,0.011054,-8.4339e-05,0,0,0.067605,-0.029284,0,-0.00043856,0,0,0,0.037056,-0.00020919,0.011054,-0.12967,0.015967,0.033104,1.1621e-06,0.93,0.19,0
0.045944,0.0094039,0.037052,-0.00021677,0.01105,-7.3855e-05,0,0,0.067603,-0.029295,0,-0.00038405,0,0,0,0.037052,-0.00021691,0.01105,-0.11354,0.015962,0.033106,1.1619e-06,0.94,0.19,0
0.04662,0.009412,0.037048,-0.00022326,0.011047,-6.2643e-05,0,0,0.067601,-0.029303,0,-0.00032574,0,0,0,0.037048,-0.00022336,0.011047,-0.0963,0.015957,0.033107,1.1617e-06,0.95,0.19,0
0.047296,0.0094185,0.037044,-0.00022851,0.011045,-5.0829e-05,0,0,0.067599,-0.02931,0,-0.00026431,0,0,0,0.037044,-0.00022858,0.011045,-0.078135,0.015953,0.033108,1.1616e-06,0.96,0.19,0
0.047972,0.0094236,0.037042,-0.00023257,0.011043,-3.8538e-05,0,0,0.067598,-0.029316,0,-0.0002004,0,0,0,0.037042,-0.00023261,0.011043,-0.059238,0.015951,0.03311,1.1615e-06,0.97,0.19,0
0.048648,0.0094272,0.03704,-0.00023544,0.011041,-2.5889e-05,0,0,0.067597,-0.02932,0,-0.00013463,0,0,0,0.03704,-0.00023546,0.011041,-0.039794,0.015949,0.03311,1.1614e-06,0.98,0.19,0
0.049324,0.0094294,0.037039,-0.00023716,0.01104,-1.3004e-05,0,0,0.067596,-0.029322,0,-6.762e-05,0,0,0,0.037039,-0.00023717,0.01104,-0.019988,0.015947,0.033111,1.1614e-06,0.99,0.19,0
0.05,0.0094301,0.037039,-0.00023773,0.01104,1.3837e-05,0,0,0.067596,-0.029323,0,7.1952e-05,0,0,0,0.037039,-0.00023774,0.01104,0.021268,0.015947,0.033111,1.1614e-06,1,0.19,0
0,0,0.035587,0.015252,0.015252,0.005238,0,0,0.026436,-1.0842e-19,0,0.013619,0,0,0,0.036857,0.013982,0.015252,13.628,0.02203,0.022268,5.6086e-07,0,0.2,0
0.00026436,0.00013619,0.035526,0.014493,0.015006,0.0052395,0,0,0.026676,-0.00066669,0,0.013623,0,0,0,0.036759,0.01326,0.015006,13.242,0.021675,0.022677,5.8696e-07,0.01,0.2,0
0.00053353,0.00027598,0.035782,0.013843,0.014887,0.0052906,0,0,0.027162,-0.0013573,0,0.013756,0,0,0,0.036991,0.012634,0.014887,12.874,0.021504,0.023312,6.302e-07,0.02,0.2,0
0.00080761,0.00041879,0.036037,0.013175,0.014764,0.0053099,0,0,0.027656,-0.0020654,0,0.013806,0,0,0,0.037211,0.012002,0.014764,12.458,0.021325,0.023948,6.7382e-07,0.03,0.2,0
0.0010866,0.00056401,0.03629,0.012494,0.014635,0.0052962,0,0,0.028151,-0.0027839,0,0.01377,0,0,0,0.037415,0.011368,0.014635,11.998,0.021139,0.024577,7.1726e-07,0.04,0.2,0
0.0013706,0.000711,0.036535,0.011806,0.014502,0.0052494,0,0,0.028643,-0.0035052,0,0.013648,0,0,0,0.037604,0.010738,0.014502,11.502,0.020948,0.025195,7.5999e-07,0.05,0.2,0
0.0016595,0.00085912,0.036771,0.011119,0.014367,0.0051703,0,0,0.029125,-0.0042218,0,0.013443,0,0,0,0.037774,0.010117,0.014367,10.978,0.020752,0.025796,8.015e-07,0.06,0.2,0
0.0019531,0.0010077,0.036992,0.01044,0.01423,0.0050606,0,0,0.029591,-0.0049268,0,0.013158,0,0,0,0.037924,0.0095078,0.01423,10.433,0.020554,0.026374,8.4133e-07,0.07,0.2,0
0.0022513,0.0011563,0.037197,0.0097727,0.014091,0.004923,0,0,0.030038,-0.0056137,0,0.0128,0,0,0,0.038054,0.0089157,0.014091,9.8748,0.020354,0.026926,8.7911e-07,0.08,0.2,0
0.0025539,0.0013041,0.037383,0.0091234,0.013952,0.0047608,0,0,0.030461,-0.0062772,0,0.012378,0,0,0,0.038164,0.008343,0.013952,9.3102,0.020153,0.02745,9.1453e-07,0.09,0.2,0
0.0028605,0.0014509,0.03755,0.0084961,0.013814,0.0045777,0,0,0.030857,-0.0069129,0,0.011902,0,0,0,0.038254,0.0077919,0.013814,8.7454,0.019953,0.027942,9.474e-07,0.1,0.2,0
0.003171,0.001596,0.037695,0.0078938,0.013677,0.0043776,0,0,0.031224,-0.0075176,0,0.011382,0,0,0,0.038324,0.0072641,0.013677,8.1861,0.019755,0.028402,9.7757e-07,0.11,0.2,0
0.003485,0.0017391,0.037818,0.0073187,0.013541,0.0041645,0,0,0.031561,-0.0080892,0,0.010828,0,0,0,0.038377,0.0067603,0.013541,7.637,0.01956,0.028831,1.005e-06,0.12,0.2,0
0.0038022,0.00188,0.037921,0.0067721,0.013408,0.0039422,0,0,0.031867,-0.0086266,0,0.01025,0,0,0,0.038412,0.006281,0.013408,7.1022,0.019367,0.029227,1.0298e-06,0.13,0.2,0
0.0041224,0.0020183,0.038003,0.0062546,0.013277,0.0037145,0,0,0.032143,-0.0091294,0,0.0096578,0,0,0,0.038432,0.0058258,0.013277,6.5851,0.019178,0.029592,1.0518e-06,0.14,0.2,0
0.0044451,0.002154,0.038065,0.0057661,0.013149,0.0034848,0,0,0.032391,-0.0095983,0,0.0090604,0,0,0,0.038437,0.0053944,0.013149,6.0884,0.018993,0.029928,1.0714e-06,0.15,0.2,0
0.0047702,0.0022868,0.038109,0.0053058,0.013024,0.003256,0,0,0.03261,-0.010034,0,0.0084656,0,0,0,0.038429,0.0049857,0.013024,5.6141,0.018813,0.030236,1.0886e-06,0.16,0.2,0
0.0050973,0.0024168,0.038136,0.0048727,0.012903,0.0030309,0,0,0.032803,-0.010439,0,0.0078803,0,0,0,0.03841,0.0045988,0.012903,5.164,0.018637,0.030518,1.1036e-06,0.17,0.2,0
0.0054262,0.0025439,0.038147,0.0044654,0.012784,0.0028117,0,0,0.032972,-0.010814,0,0.0073104,0,0,0,0.03838,0.0042323,0.012784,4.7393,0.018465,0.030776,1.1166e-06,0.18,0.2,0
0.0057567,0.0026681,0.038144,0.0040822,0.012668,0.0026004,0,0,0.033119,-0.011161,0,0.0067611,0,0,0,0.038342,0.0038848,0.012668,4.3407,0.018298,0.031012,1.1277e-06,0.19,0.2,0
0.0060886,0.0027896,0.038129,0.0037212,0.012555,0.0023987,0,0,0.033246,-0.011484,0,0.0062367,0,0,0,0.038295,0.0035548,0.012555,3.9688,0.018135,0.031228,1.1372e-06,0.2,0.2,0
0.0064217,0.0029083,0.038102,0.0033807,0.012445,0.0022079,0,0,0.033355,-0.011784,0,0.0057405,0,0,0,0.038242,0.0032408,0.012445,3.6239,0.017976,0.031427,1.1452e-06,0.21,0.2,0
0.0067557,0.0030245,0.038066,0.0030584,0.012337,0.0020291,0,0,0.033447,-0.012063,0,0.0052756,0,0,0,0.038183,0.0029412,0.012337,3.3062,0.017821,0.031609,1.1519e-06,0.22,0.2,0
0.0070906,0.0031383,0.038021,0.0027525,0.012232,0.0018631,0,0,0.033526,-0.012323,0,0.0048441,0,0,0,0.03812,0.0026544,0.012232,3.0155,0.017669,0.031778,1.1574e-06,0.23,0.2,0
0.0074262,0.0032499,0.03797,0.0024609,0.012129,0.0017107,0,0,0.033593,-0.012569,0,0.0044478,0,0,0,0.038052,0.0023787,0.012129,2.7518,0.01752,0.031935,1.162e-06,0.24,0.2,0
0.0077625,0.0033595,0.037912,0.0021816,0.012028,0.0015723,0,0,0.033649,-0.0128,0,0.0040881,0,0,0,0.037981,0.0021126,0.012028,2.5149,0.017374,0.032081,1.1657e-06,0.25,0.2,0
0.0080992,0.0034673,0.037849,0.0019126,0.011929,0.0014484,0,0,0.033697,-0.013021,0,0.0037659,0,0,0,0.037908,0.0018543,0.011929,2.3043,0.01723,0.03222,1.1687e-06,0.26,0.2,0
0.0084364,0.0035735,0.037783,0.0016518,0.01183,0.0013392,0,0,0.033738,-0.013232,0,0.003482,0,0,0,0.037832,0.0016022,0.01183,2.1199,0.017088,0.032352,1.1712e-06,0.27,0.2,0
0.008774,0.0036783,0.037713,0.0013972,0.011733,0.0012449,0,0,0.033774,-0.013437,0,0.0032368,0,0,0,0.037756,0.0013545,0.011733,1.9611,0.016948,0.03248,1.1732e-06,0.28,0.2,0
0.0091119,0.0037819,0.037642,0.0011469,0.011637,0.0011656,0,0,0.033807,-0.013637,0,0.0030305,0,0,0,0.037679,0.0011097,0.011637,1.8274,0.016808,0.032606,1.1749e-06,0.29,0.2,0
0.0094501,0.0038847,0.037569,0.00089882,0.01154,0.0011011,0,0,0.033837,-0.013834,0,0.0028629,0,0,0,0.037602,0.00086579,0.01154,1.7184,0.016669,0.032731,1.1764e-06,0.3,0.2,0
0.0097886,0.0039868,0.037496,0.00065103,0.011444,0.0010514,0,0,0.033867,-0.014031,0,0.0027338,0,0,0,0.037526,0.00062105,0.011444,1.6333,0.01653,0.032858,1.178e-06,0.31,0.2,0
0.010127,0.0040885,0.037423,0.00040146,0.011347,0.0010163,0,0,0.033899,-0.01423,0,0.0026425,0,0,0,0.037451,0.00037358,0.011347,1.5713,0.016391,0.032989,1.1796e-06,0.32,0.2,0
0.010467,0.0041899,0.037353,0.0001481,0.01125,0.00099544,0,0,0.033933,-0.014433,0,0.0025881,0,0,0,0.037379,0.00012148,0.01125,1.5315,0.01625,0.033126,1.1815e-06,0.33,0.2,0
0.010806,0.0042914,0.037284,-0.00011112,0.011152,0.00098828,0,0,0.033972,-0.014642,0,0.0025695,0,0,0,0.037311,-0.00013722,0.011152,1.5128,0.016108,0.033272,1.1837e-06,0.34,0.2,0
0.011146,0.0043931,0.03722,-0.00037822,0.011052,0.00099423,0,0,0.034017,-0.01486,0,0.002585,0,0,0,0.037246,-0.0004045,0.011052,1.5137,0.015965,0.033428,1.1865e-06,0.35,0.2,0
0.011487,0.0044953,0.037159,-0.00065525,0.010951,0.0010125,0,0,0.03407,-0.015088,0,0.0026324,0,0,0,0.037186,-0.00068234,0.010951,1.5326,0.015818,0.033598,1.1899e-06,0.36,0.2,0
0.011827,0.004598,0.037104,-0.00094419,0.010848,0.001042,0,0,0.034133,-0.01533,0,0.0027092,0,0,0,0.037133,-0.0009727,0.010848,1.5675,0.015669,0.033784,1.1941e-06,0.37,0.2,0
0.012169,0.0047015,0.037056,-0.0012469,0.010743,0.0010815,0,0,0.034207,-0.015587,0,0.0028119,0,0,0,0.037087,-0.0012774,0.010743,1.6161,0.015517,0.033987,1.1992e-06,0.38,0.2,0
0.012512,0.0048059,0.037015,-0.0015652,0.010635,0.0011295,0,0,0.034294,-0.01586,0,0.0029368,0,0,0,0.037048,-0.0015982,0.010635,1.6756,0.015362,0.034212,1.2054e-06,0.39,0.2,0
0.012855,0.0049113,0.036983,-0.0019005,0.010525,0.0011843,0,0,0.034396,-0.016153,0,0.0030792,0,0,0,0.037019,-0.0019366,0.010525,1.7429,0.015202,0.034459,1.2127e-06,0.4,0.2,0
0.013199,0.0050176,0.03696,-0.0022542,0.010412,0.0012437,0,0,0.034513,-0.016466,0,0.0032337,0,0,0,0.036999,-0.0022936,0.010412,1.8148,0.015039,0.03473,1.2213e-06,0.41,0.2,0
0.013545,0.0051251,0.036947,-0.0026271,0.010296,0.0013056,0,0,0.034646,-0.0168,0,0.0033945,0,0,0,0.03699,-0.0026701,0.010296,1.8875,0.014872,0.035026,1.231e-06,0.42,0.2,0
0.013892,0.0052335,0.036944,-0.0030195,0.010177,0.0013673,0,0,0.034797,-0.017156,0,0.0035549,0,0,0,0.036991,-0.0030662,0.010177,1.9572,0.014701,0.035347,1.242e-06,0.43,0.2,0
0.014241,0.0053429,0.036951,-0.0034313,0.010056,0.0014262,0,0,0.034964,-0.017534,0,0.0037081,0,0,0,0.037002,-0.0034816,0.010056,2.0201,0.014525,0.035695,1.2542e-06,0.44,0.2,0
0.014592,0.0054531,0.036969,-0.0038618,0.0099322,0.0014796,0,0,0.035148,-0.017932,0,0.003847,0,0,0,0.037022,-0.0039153,0.0099322,2.0726,0.014346,0.036066,1.2675e-06,0.45,0.2,0
0.014944,0.0055639,0.036996,-0.0043094,0.009806,0.0015249,0,0,0.035347,-0.01835,0,0.0039648,0,0,0,0.037052,-0.0043656,0.009806,2.1114,0.014164,0.03646,1.2816e-06,0.46,0.2,0
0.015299,0.0056751,0.037032,-0.0047721,0.0096778,0.0015596,0,0,0.03556,-0.018785,0,0.0040549,0,0,0,0.03709,-0.0048302,0.0096778,2.1336,0.013979,0.036873,1.2964e-06,0.47,0.2,0
0.015655,0.0057864,0.037074,-0.0052472,0.0095482,0.0015815,0,0,0.035784,-0.019234,0,0.0041119,0,0,0,0.037133,-0.0053062,0.0095482,2.1371,0.013792,0.037301,1.3116e-06,0.48,0.2,0
0.016014,0.0058976,0.037123,-0.0057314,0.0094174,0.0015889,0,0,0.036017,-0.019693,0,0.0041313,0,0,0,0.037182,-0.0057903,0.0094174,2.1205,0.013603,0.037741,1.327e-06,0.49,0.2,0
0.016376,0.0060083,0.037151,-0.0006931,0.010937,0.0015806,0,0,0.050088,-0.02016,0,0.0061436,0,0,0,0.037218,-0.00076021,0.010937,2.4341,0.015799,0.033758,1.1641e-06,0.5,0.2,0
0.017016,0.0061589,0.037228,0.0045438,0.012531,0.0015576,0,0,0.064211,-0.020768,0,0.0080995,0,0,0,0.037302,0.0044697,0.012531,2.7222,0.018101,0.029636,1.0108e-06,0.51,0.2,0
0.01766,0.0063072,0.037281,0.0042358,0.012455,0.0015235,0,0,0.064548,-0.02137,0,0.007922,0,0,0,0.037351,0.0041657,0.012455,2.634,0.017991,0.029915,1.0273e-06,0.52,0.2,0
0.018307,0.0064529,0.037332,0.0039334,0.01238,0.0014797,0,0,0.064877,-0.021961,0,0.0076945,0,0,0,0.037398,0.0038679,0.01238,2.5318,0.017882,0.030188,1.0434e-06,0.53,0.2,0
0.018957,0.0065956,0.03738,0.0036388,0.012306,0.0014269,0,0,0.065194,-0.022534,0,0.0074201,0,0,0,0.037441,0.0035786,0.012306,2.4173,0.017775,0.030451,1.0587e-06,0.54,0.2,0
0.019611,0.006735,0.037424,0.003354,0.012233,0.001366,0,0,0.065496,-0.023087,0,0.0071032,0,0,0,0.037479,0.0032994,0.012233,2.2923,0.017671,0.030704,1.0732e-06,0.55,0.2,0
0.020267,0.0068705,0.037464,0.0030808,0.012163,0.001298,0,0,0.065781,-0.023615,0,0.0067498,0,0,0,0.037512,0.0030318,0.012163,2.159,0.017569,0.030943,1.0867e-06,0.56,0.2,0
0.020927,0.0070021,0.037497,0.0028203,0.012095,0.0012243,0,0,0.066045,-0.024115,0,0.0063663,0,0,0,0.037541,0.0027771,0.012095,2.0195,0.017471,0.031167,1.0992e-06,0.57,0.2,0
0.021588,0.0071294,0.037526,0.0025736,0.01203,0.0011461,0,0,0.066289,-0.024586,0,0.0059596,0,0,0,0.037563,0.0025361,0.01203,1.8761,0.017376,0.031377,1.1105e-06,0.58,0.2,0
0.022252,0.0072522,0.037548,0.0023413,0.011967,0.0010648,0,0,0.066511,-0.025026,0,0.0055369,0,0,0,0.03758,0.0023091,0.011967,1.7308,0.017285,0.03157,1.1208e-06,0.59,0.2,0
0.022919,0.0073704,0.037564,0.0021237,0.011906,0.00098173,0,0,0.06671,-0.025435,0,0.005105,0,0,0,0.037591,0.0020965,0.011906,1.5855,0.017198,0.031748,1.13e-06,0.6,0.2,0
0.023586,0.0074838,0.037575,0.0019208,0.011849,0.00089812,0,0,0.066889,-0.025813,0,0.0046702,0,0,0,0.037598,0.0018981,0.011849,1.442,0.017115,0.03191,1.1381e-06,0.61,0.2,0
0.024256,0.0075924,0.037581,0.0017323,0.011794,0.00081506,0,0,0.067046,-0.02616,0,0.0042383,0,0,0,0.037599,0.0017137,0.011794,1.3018,0.017036,0.032057,1.1451e-06,0.62,0.2,0
0.024927,0.0076962,0.037582,0.0015578,0.011742,0.00073352,0,0,0.067184,-0.026479,0,0.0038143,0,0,0,0.037597,0.0015428,0.011742,1.166,0.01696,0.03219,1.1512e-06,0.63,0.2,0
0.0256,0.0077952,0.037578,0.0013967,0.011692,0.00065431,0,0,0.067303,-0.026769,0,0.0034024,0,0,0,0.03759,0.0013849,0.011692,1.0357,0.016889,0.032309,1.1565e-06,0.64,0.2,0
0.026274,0.0078894,0.037571,0.0012484,0.011646,0.0005781,0,0,0.067406,-0.027034,0,0.0030061,0,0,0,0.03758,0.0012392,0.011646,0.91158,0.016822,0.032416,1.1609e-06,0.65,0.2,0
0.026948,0.0079789,0.037561,0.001112,0.011602,0.0005054,0,0,0.067494,-0.027274,0,0.0026281,0,0,0,0.037568,0.001105,0.011602,0.79426,0.016758,0.032511,1.1646e-06,0.66,0.2,0
0.027623,0.0080639,0.037548,0.00098682,0.01156,0.00043662,0,0,0.067568,-0.027491,0,0.0022704,0,0,0,0.037553,0.0009816,0.01156,0.6841,0.016698,0.032596,1.1677e-06,0.67,0.2,0
0.028299,0.0081443,0.037533,0.00087205,0.011522,0.00037202,0,0,0.067629,-0.027688,0,0.0019345,0,0,0,0.037537,0.00086828,0.011522,0.58134,0.016642,0.032671,1.1702e-06,0.68,0.2,0
0.028976,0.0082205,0.037516,0.00076692,0.011485,0.00031179,0,0,0.067681,-0.027867,0,0.0016213,0,0,0,0.037519,0.00076427,0.011485,0.48607,0.016589,0.032738,1.1722e-06,0.69,0.2,0
0.029653,0.0082923,0.037498,0.00067066,0.011451,0.00025602,0,0,0.067723,-0.028028,0,0.0013313,0,0,0,0.037499,0.00066887,0.011451,0.3983,0.01654,0.032797,1.1738e-06,0.7,0.2,0
0.03033,0.0083602,0.037479,0.00058255,0.011418,0.00020473,0,0,0.067757,-0.028173,0,0.0010646,0,0,0,0.03748,0.00058142,0.011418,0.31791,0.016493,0.032849,1.175e-06,0.71,0.2,0
0.031008,0.008424,0.037459,0.00050193,0.011388,0.00015788,0,0,0.067784,-0.028304,0,0.00082096,0,0,0,0.03746,0.00050126,0.011388,0.24475,0.01645,0.032895,1.1759e-06,0.72,0.2,0
0.031686,0.0084842,0.037439,0.00042817,0.01136,0.00011538,0,0,0.067805,-0.028423,0,0.00059997,0,0,0,0.03744,0.00042781,0.01136,0.17861,0.016409,0.032936,1.1766e-06,0.73,0.2,0
0.032364,0.0085407,0.037419,0.00036069,0.011334,7.7121e-05,0,0,0.067822,-0.028531,0,0.00040103,0,0,0,0.037419,0.00036053,0.011334,0.11924,0.016371,0.032971,1.177e-06,0.74,0.2,0
0.033043,0.0085937,0.037399,0.00029895,0.01131,4.2955e-05,0,0,0.067834,-0.028627,0,0.00022337,0,0,0,0.037399,0.00029889,0.01131,0.066338,0.016336,0.033003,1.1773e-06,0.75,0.2,0
0.033721,0.0086434,0.03738,0.00024245,0.011287,1.2717e-05,0,0,0.067842,-0.028715,0,6.613e-05,0,0,0,0.03738,0.00024245,0.011287,0.01962,0.016303,0.03303,1.1774e-06,0.76,0.2,0
0.034399,0.0086899,0.037361,0.00019077,0.011265,-1.3772e-05,0,0,0.067848,-0.028794,0,-7.1612e-05,0,0,0,0.037361,0.00019076,0.011265,-0.021228,0.016272,0.033055,1.1773e-06,0.77,0.2,0
0.035078,0.0087334,0.037343,0.00014349,0.011246,-3.6698e-05,0,0,0.067851,-0.028866,0,-0.00019083,0,0,0,0.037343,0.00014345,0.011246,-0.056524,0.016244,0.033076,1.1772e-06,0.78,0.2,0
0.035756,0.008774,0.037325,0.00010024,0.011227,-5.6255e-05,0,0,0.067853,-0.028931,0,-0.00029253,0,0,0,0.037325,0.00010016,0.011227,-0.086587,0.016217,0.033095,1.177e-06,0.79,0.2,0
0.036435,0.0088119,0.037308,6.0697e-05,0.011211,-7.2636e-05,0,0,0.067853,-0.02899,0,-0.00037771,0,0,0,0.037308,6.0555e-05,0.011211,-0.11173,0.016193,0.033112,1.1768e-06,0.8,0.2,0
0.037114,0.0088471,0.037292,2.4559e-05,0.011195,-8.6034e-05,0,0,0.067852,-0.029043,0,-0.00044738,0,0,0,0.037292,2.436e-05,0.011195,-0.13227,0.01617,0.033126,1.1765e-06,0.81,0.2,0
0.037792,0.0088797,0.037276,-8.4433e-06,0.01118,-9.664e-05,0,0,0.06785,-0.029091,0,-0.00050253,0,0,0,0.037277,-8.6938e-06,0.01118,-0.14851,0.01615,0.033139,1.1762e-06,0.82,0.2,0
0.03847,0.00891,0.037262,-3.8552e-05,0.011167,-0.00010464,0,0,0.067847,-0.029135,0,-0.00054414,0,0,0,0.037262,-3.8846e-05,0.011167,-0.16073,0.01613,0.033151,1.1758e-06,0.83,0.2,0
0.039149,0.008938,0.037249,-6.5985e-05,0.011155,-0.00011022,0,0,0.067844,-0.029174,0,-0.00057316,0,0,0,0.037249,-6.6311e-05,0.011155,-0.16924,0.016112,0.033161,1.1755e-06,0.84,0.2,0
0.039827,0.0089637,0.037236,-9.0937e-05,0.011144,-0.00011356,0,0,0.06784,-0.02921,0,-0.00059052,0,0,0,0.037236,-9.1283e-05,0.011144,-0.17431,0.016096,0.033169,1.1751e-06,0.85,0.2,0
0.040506,0.0089874,0.037224,-0.00011358,0.011133,-0.00011483,0,0,0.067837,-0.029242,0,-0.00059712,0,0,0,0.037225,-0.00011394,0.011133,-0.17621,0.016081,0.033177,1.1748e-06,0.86,0.2,0
0.041184,0.0090091,0.037213,-0.00013408,0.011124,-0.0001142,0,0,0.067833,-0.029271,0,-0.00059382,0,0,0,0.037214,-0.00013443,0.011124,-0.17519,0.016068,0.033184,1.1745e-06,0.87,0.2,0
0.041862,0.0090288,0.037204,-0.00015257,0.011115,-0.00011182,0,0,0.067829,-0.029296,0,-0.00058146,0,0,0,0.037204,-0.0001529,0.011115,-0.1715,0.016055,0.03319,1.1741e-06,0.88,0.2,0
0.042541,0.0090467,0.037194,-0.00016917,0.011108,-0.00010786,0,0,0.067826,-0.02932,0,-0.00056087,0,0,0,0.037195,-0.00016948,0.011108,-0.1654,0.016044,0.033195,1.1738e-06,0.89,0.2,0
0.043219,0.0090627,0.037186,-0.00018399,0.011101,-0.00010247,0,0,0.067822,-0.02934,0,-0.00053282,0,0,0,0.037186,-0.00018427,0.011101,-0.1571,0.016034,0.033199,1.1735e-06,0.9,0.2,0
0.043897,0.0090771,0.037179,-0.00019713,0.011095,-9.5784e-05,0,0,0.067819,-0.029358,0,-0.00049808,0,0,0,0.037179,-0.00019738,0.011095,-0.14683,0.016025,0.033203,1.1733e-06,0.91,0.2,0
0.044575,0.0090898,0.037172,-0.00020868,0.011089,-8.7958e-05,0,0,0.067816,-0.029374,0,-0.00045738,0,0,0,0.037172,-0.00020888,0.011089,-0.13482,0.016018,0.033207,1.173e-06,0.92,0.2,0
0.045254,0.0091009,0.037167,-0.0002187,0.011084,-7.9124e-05,0,0,0.067814,-0.029388,0,-0.00041145,0,0,0,0.037167,-0.00021887,0.011084,-0.12126,0.016011,0.03321,1.1728e-06,0.93,0.2,0
0.045932,0.0091104,0.037162,-0.00022726,0.01108,-6.9418e-05,0,0,0.067811,-0.0294,0,-0.00036097,0,0,0,0.037162,-0.00022739,0.01108,-0.10638,0.016005,0.033212,1.1726e-06,0.94,0.2,0
0.04661,0.0091184,0.037158,-0.00023442,0.011077,-5.8969e-05,0,0,0.067809,-0.02941,0,-0.00030664,0,0,0,0.037158,-0.00023452,0.011077,-0.090358,0.016,0.033214,1.1725e-06,0.95,0.2,0
0.047288,0.0091249,0.037154,-0.00024022,0.011074,-4.7906e-05,0,0,0.067808,-0.029417,0,-0.00024911,0,0,0,0.037154,-0.00024028,0.011074,-0.073401,0.015996,0.033215,1.1723e-06,0.96,0.2,0
0.047966,0.0091299,0.037151,-0.0002447,0.011072,-3.6354e-05,0,0,0.067807,-0.029423,0,-0.00018904,0,0,0,0.037151,-0.00024473,0.011072,-0.055699,0.015993,0.033217,1.1722e-06,0.97,0.2,0
0.048644,0.0091335,0.03715,-0.00024787,0.011071,-2.4438e-05,0,0,0.067806,-0.029428,0,-0.00012708,0,0,0,0.03715,-0.00024789,0.011071,-0.037441,0.015991,0.033217,1.1722e-06,0.98,0.2,0
0.049322,0.0091356,0.037149,-0.00024977,0.01107,-1.2279e-05,0,0,0.067805,-0.02943,0,-6.3853e-05,0,0,0,0.037149,-0.00024977,0.01107,-0.018813,0.015989,0.033218,1.1721e-06,0.99,0.2,0
0.05,0.0091363,0.037148,-0.0002504,0.011069,1.3681e-05,0,0,0.067805,-0.029431,0,7.1142e-05,0,0,0,0.037148,-0.00025041,0.011069,0.02096,0.015989,0.033218,1.1721e-06,1,0.2,0
0,0,0.035359,0.015154,0.015154,0.0049875,0,0,0.026267,2.1684e-19,0,0.012967,0,0,0,0.036523,0.01399,0.015154,13.137,0.021889,0.021974,5.3981e-07,0,0.21,0
0.00026267,0.00012967,0.0353,0.014428,0.014918,0.0049892,0,0,0.026496,-0.00063779,0,0.012972,0,0,0,0.036431,0.013296,0.014918,12.776,0.021549,0.022368,5.6462e-07,0.01,0.21,0
0.00052993,0.00026272,0.035545,0.013808,0.014806,0.0050383,0,0,0.026961,-0.0012973,0,0.0131,0,0,0,0.036656,0.012697,0.014806,12.435,0.021386,0.022977,6.0537e-07,0.02,0.21,0
0.00080188,0.00039862,0.03579,0.013171,0.014688,0.0050588,0,0,0.027432,-0.0019728,0,0.013153,0,0,0,0.03687,0.012091,0.014688,12.049,0.021216,0.023588,6.4657e-07,0.03,0.21,0
0.0010786,0.00053683,0.036032,0.012521,0.014566,0.0050498,0,0,0.027906,-0.0026584,0,0.01313,0,0,0,0.037071,0.011482,0.014566,11.623,0.02104,0.024195,6.8775e-07,0.04,0.21,0
0.00136,0.00067678,0.036269,0.011865,0.01444,0.0050112,0,0,0.028377,-0.0033475,0,0.013029,0,0,0,0.037258,0.010876,0.01444,11.164,0.020858,0.024792,7.2846e-07,0.05,0.21,0
0.0016461,0.00081789,0.036497,0.011209,0.014312,0.0049435,0,0,0.028841,-0.0040338,0,0.012853,0,0,0,0.037429,0.010277,0.014312,10.677,0.020672,0.025376,7.6825e-07,0.06,0.21,0
0.0019368,0.00095961,0.036713,0.010557,0.014181,0.0048481,0,0,0.029291,-0.004711,0,0.012605,0,0,0,0.037583,0.0096875,0.014181,10.17,0.020484,0.025942,8.0672e-07,0.07,0.21,0
0.0022319,0.0011014,0.036915,0.0099156,0.014049,0.0047273,0,0,0.029725,-0.0053735,0,0.012291,0,0,0,0.037719,0.0091119,0.014049,9.6497,0.020293,0.026485,8.4353e-07,0.08,0.21,0
0.0025313,0.0012427,0.0371,0.0092886,0.013917,0.0045837,0,0,0.030139,-0.0060165,0,0.011918,0,0,0,0.037836,0.0085526,0.013917,9.1217,0.020102,0.027004,8.7838e-07,0.09,0.21,0
0.0028347,0.0013832,0.037268,0.0086797,0.013784,0.0044204,0,0,0.030529,-0.006636,0,0.011493,0,0,0,0.037936,0.0080119,0.013784,8.592,0.019911,0.027496,9.1106e-07,0.1,0.21,0
0.0031419,0.0015223,0.037417,0.0080922,0.013653,0.0042408,0,0,0.030894,-0.0072288,0,0.011026,0,0,0,0.038018,0.0074912,0.013653,8.0657,0.019721,0.02796,9.4144e-07,0.11,0.21,0
0.0034526,0.0016598,0.037547,0.007528,0.013522,0.0040483,0,0,0.031231,-0.0077927,0,0.010526,0,0,0,0.038083,0.0069917,0.013522,7.5473,0.019532,0.028395,9.6942e-07,0.12,0.21,0
0.0037665,0.0017953,0.037657,0.0069888,0.013394,0.0038463,0,0,0.031542,-0.0083264,0,0.010001,0,0,0,0.038132,0.0065138,0.013394,7.0407,0.019346,0.028801,9.9499e-07,0.13,0.21,0
0.0040834,0.0019286,0.037748,0.0064753,0.013267,0.0036382,0,0,0.031825,-0.0088293,0,0.0094594,0,0,0,0.038166,0.0060576,0.013267,6.5492,0.019163,0.029179,1.0182e-06,0.14,0.21,0
0.004403,0.0020595,0.037821,0.0059876,0.013143,0.0034271,0,0,0.032082,-0.0093014,0,0.0089104,0,0,0,0.038186,0.0056229,0.013143,6.0755,0.018984,0.02953,1.0391e-06,0.15,0.21,0
0.0047251,0.002188,0.037876,0.0055255,0.013021,0.0032157,0,0,0.032313,-0.0097436,0,0.0083608,0,0,0,0.038193,0.0052089,0.013021,5.622,0.018808,0.029855,1.0577e-06,0.16,0.21,0
0.0050493,0.0023139,0.037915,0.0050881,0.012901,0.0030066,0,0,0.032519,-0.010157,0,0.0078172,0,0,0,0.038189,0.004815,0.012901,5.1901,0.018635,0.030155,1.0743e-06,0.17,0.21,0
0.0053755,0.0024371,0.037939,0.0046743,0.012784,0.0028021,0,0,0.032702,-0.010543,0,0.0072854,0,0,0,0.038174,0.0044399,0.012784,4.7814,0.018466,0.030432,1.089e-06,0.18,0.21,0
0.0057033,0.0025578,0.037949,0.0042829,0.01267,0.002604,0,0,0.032864,-0.010903,0,0.0067705,0,0,0,0.03815,0.0040827,0.01267,4.3968,0.018301,0.030688,1.1018e-06,0.19,0.21,0
0.0060327,0.002676,0.037947,0.0039123,0.012558,0.0024141,0,0,0.033006,-0.011239,0,0.0062766,0,0,0,0.038117,0.003742,0.012558,4.0371,0.018139,0.030925,1.1131e-06,0.2,0.21,0
0.0063634,0.0027917,0.037933,0.0035609,0.012448,0.0022337,0,0,0.033131,-0.011554,0,0.0058076,0,0,0,0.038078,0.0034163,0.012448,3.7026,0.017981,0.031144,1.1228e-06,0.21,0.21,0
0.0066953,0.002905,0.03791,0.0032268,0.012341,0.002064,0,0,0.03324,-0.011848,0,0.0053663,0,0,0,0.038032,0.0031044,0.012341,3.3936,0.017826,0.031347,1.1313e-06,0.22,0.21,0
0.0070282,0.0030161,0.037878,0.0029082,0.012236,0.0019058,0,0,0.033335,-0.012126,0,0.0049552,0,0,0,0.037981,0.0028046,0.012236,3.1103,0.017674,0.031537,1.1386e-06,0.23,0.21,0
0.007362,0.0031252,0.037838,0.0026033,0.012132,0.0017601,0,0,0.033418,-0.012388,0,0.0045763,0,0,0,0.037926,0.0025156,0.012132,2.8527,0.017525,0.031715,1.1448e-06,0.24,0.21,0
0.0076966,0.0032323,0.037792,0.0023102,0.012031,0.0016274,0,0,0.03349,-0.012637,0,0.0042311,0,0,0,0.037867,0.0022357,0.012031,2.6205,0.017378,0.031883,1.1502e-06,0.25,0.21,0
0.0080318,0.0033378,0.037741,0.002027,0.01193,0.001508,0,0,0.033554,-0.012874,0,0.0039208,0,0,0,0.037805,0.0019635,0.01193,2.4135,0.017233,0.032042,1.1549e-06,0.26,0.21,0
0.0083677,0.0034418,0.037686,0.0017519,0.011831,0.0014024,0,0,0.033611,-0.013103,0,0.0036462,0,0,0,0.03774,0.0016972,0.011831,2.2316,0.01709,0.032195,1.1589e-06,0.27,0.21,0
0.008704,0.0035444,0.037627,0.0014828,0.011733,0.0013107,0,0,0.033662,-0.013325,0,0.0034078,0,0,0,0.037674,0.0014354,0.011733,2.0741,0.016948,0.032344,1.1625e-06,0.28,0.21,0
0.0090409,0.003646,0.037566,0.0012181,0.011635,0.001233,0,0,0.03371,-0.013542,0,0.0032059,0,0,0,0.037608,0.0011763,0.011635,1.9407,0.016806,0.03249,1.1657e-06,0.29,0.21,0
0.0093782,0.0037467,0.037503,0.00095558,0.011538,0.0011694,0,0,0.033755,-0.013757,0,0.0030404,0,0,0,0.037541,0.0009182,0.011538,1.8308,0.016665,0.032635,1.1688e-06,0.3,0.21,0
0.009716,0.0038468,0.037441,0.00069354,0.01144,0.0011196,0,0,0.0338,-0.013971,0,0.0029111,0,0,0,0.037475,0.00065945,0.01144,1.7436,0.016525,0.032782,1.1718e-06,0.31,0.21,0
0.010054,0.0039464,0.037378,0.00043001,0.011342,0.0010835,0,0,0.033846,-0.014186,0,0.0028172,0,0,0,0.03741,0.00039826,0.011342,1.6783,0.016383,0.032933,1.1748e-06,0.32,0.21,0
0.010393,0.0040457,0.037317,0.00016309,0.011244,0.0010607,0,0,0.033895,-0.014405,0,0.0027578,0,0,0,0.037347,0.00013283,0.011244,1.6339,0.016241,0.033089,1.178e-06,0.33,0.21,0
0.010732,0.004145,0.037258,-0.00010913,0.011145,0.0010506,0,0,0.033948,-0.01463,0,0.0027317,0,0,0,0.037288,-0.00013865,0.011145,1.6093,0.016098,0.033253,1.1816e-06,0.34,0.21,0
0.011072,0.0042445,0.037203,-0.00038852,0.011044,0.0010527,0,0,0.034006,-0.014863,0,0.0027371,0,0,0,0.037233,-0.00041798,0.011044,1.6029,0.015953,0.033427,1.1856e-06,0.35,0.21,0
0.011412,0.0043443,0.037152,-0.00067693,0.010943,0.0010661,0,0,0.034072,-0.015105,0,0.0027719,0,0,0,0.037182,-0.00070695,0.010943,1.613,0.015806,0.033614,1.1903e-06,0.36,0.21,0
0.011753,0.0044446,0.037091,-0.00097776,0.010834,0.0010619,0,0,0.034134,-0.015355,0,0.0027608,0,0,0,0.03712,-0.0010074,0.010834,1.5965,0.015649,0.0338,1.194e-06,0.37,0.21,0
0.012095,0.0045454,0.03709,-0.0012705,0.010746,0.0011032,0,0,0.034248,-0.015621,0,0.0028684,0,0,0,0.037122,-0.0013022,0.010746,1.646,0.015522,0.034039,1.2034e-06,0.38,0.21,0
0.012438,0.004647,0.037015,-0.0016127,0.010621,0.001134,0,0,0.034313,-0.015904,0,0.0029484,0,0,0,0.037048,-0.001646,0.010621,1.6801,0.015341,0.03425,1.2069e-06,0.39,0.21,0
0.012782,0.0047494,0.037041,-0.0019306,0.010533,0.0011909,0,0,0.03446,-0.016203,0,0.0030963,0,0,0,0.037077,-0.001967,0.010533,1.7487,0.015214,0.034535,1.2192e-06,0.4,0.21,0
0.013127,0.0048526,0.036969,-0.0023104,0.010398,0.0012306,0,0,0.034543,-0.01652,0,0.0031995,0,0,0,0.037007,-0.0023489,0.010398,1.7926,0.015019,0.034781,1.2236e-06,0.41,0.21,0
0.013473,0.0049567,0.037025,-0.0026568,0.01031,0.0012936,0,0,0.034728,-0.016857,0,0.0033632,0,0,0,0.037067,-0.0026989,0.01031,1.8651,0.014893,0.035117,1.2394e-06,0.42,0.21,0
0.013821,0.0050616,0.036957,-0.0030774,0.010164,0.0013357,0,0,0.034831,-0.017214,0,0.0034729,0,0,0,0.037002,-0.0031219,0.010164,1.9088,0.014681,0.035403,1.2446e-06,0.43,0.21,0
0.01417,0.0051672,0.037044,-0.0034531,0.010077,0.0013937,0,0,0.035057,-0.01759,0,0.0036237,0,0,0,0.037092,-0.003501,0.010077,1.9688,0.014556,0.035791,1.2637e-06,0.44,0.21,0
0.014521,0.0052734,0.036982,-0.0039134,0.0099205,0.0014313,0,0,0.03518,-0.017984,0,0.0037213,0,0,0,0.037032,-0.0039634,0.0099205,2.002,0.01433,0.036114,1.2696e-06,0.45,0.21,0
0.014875,0.0053801,0.037098,-0.0043157,0.0098348,0.0014727,0,0,0.035443,-0.018396,0,0.0038289,0,0,0,0.037151,-0.004368,0.0098348,2.034,0.014206,0.036549,1.2916e-06,0.46,0.21,0
0.01523,0.005487,0.03704,-0.0048095,0.0096691,0.0014984,0,0,0.035582,-0.018822,0,0.0038959,0,0,0,0.037094,-0.0048631,0.0096691,2.048,0.013966,0.036903,1.2976e-06,0.47,0.21,0
0.015587,0.0055939,0.03718,-0.0052319,0.0095844,0.0015129,0,0,0.035874,-0.019261,0,0.0039334,0,0,0,0.037234,-0.0052858,0.0095844,2.0403,0.013844,0.037373,1.3215e-06,0.48,0.21,0
0.015946,0.0057006,0.037125,-0.005748,0.009413,0.0015212,0,0,0.036025,-0.019709,0,0.003955,0,0,0,0.037179,-0.0058019,0.009413,2.0295,0.013597,0.037748,1.327e-06,0.49,0.21,0
0.016308,0.0058067,0.037203,-0.00067346,0.010959,0.0014969,0,0,0.050146,-0.020163,0,0.0058563,0,0,0,0.037264,-0.00073394,0.010959,2.3103,0.01583,0.033777,1.1677e-06,0.5,0.21,0
0.016949,0.0059513,0.03724,0.0045552,0.012538,0.0015008,0,0,0.064224,-0.020757,0,0.0078043,0,0,0,0.037309,0.0044865,0.012538,2.6236,0.018111,0.029628,1.0106e-06,0.51,0.21,0
0.017594,0.0060937,0.037365,0.0042862,0.012495,0.0014532,0,0,0.06466,-0.021344,0,0.0075566,0,0,0,0.037428,0.0042225,0.012495,2.5106,0.018049,0.029939,1.0317e-06,0.52,0.21,0
0.018241,0.0062336,0.037342,0.0039601,0.012391,0.0014291,0,0,0.064874,-0.02192,0,0.0074314,0,0,0,0.037403,0.0038991,0.012391,2.4469,0.017898,0.030169,1.0426e-06,0.53,0.21,0
0.018892,0.0063706,0.037459,0.003702,0.012348,0.0013604,0,0,0.065287,-0.02248,0,0.0070741,0,0,0,0.037514,0.0036473,0.012348,2.3041,0.017836,0.030462,1.0624e-06,0.54,0.21,0
0.019546,0.0065045,0.037436,0.0033946,0.012249,0.0013252,0,0,0.065485,-0.023022,0,0.006891,0,0,0,0.037487,0.0033431,0.012249,2.226,0.017693,0.030677,1.0722e-06,0.55,0.21,0
0.020203,0.0066349,0.037538,0.0031534,0.012207,0.0012389,0,0,0.06586,-0.023541,0,0.0064421,0,0,0,0.037583,0.0031088,0.012207,2.0608,0.017633,0.030945,1.09e-06,0.56,0.21,0
0.020862,0.0067614,0.037547,0.0028941,0.012132,0.0011925,0,0,0.066077,-0.024019,0,0.0062008,0,0,0,0.037588,0.0028532,0.012132,1.9686,0.017524,0.031149,1.1005e-06,0.57,0.21,0
0.021524,0.0068841,0.037576,0.0026511,0.012068,0.0011199,0,0,0.066321,-0.024485,0,0.0058234,0,0,0,0.037612,0.0026153,0.012068,1.8347,0.017432,0.031358,1.112e-06,0.58,0.21,0
0.022189,0.0070025,0.037601,0.0024212,0.012007,0.0010443,0,0,0.066545,-0.024922,0,0.0054302,0,0,0,0.037632,0.0023903,0.012007,1.6988,0.017343,0.031552,1.1225e-06,0.59,0.21,0
0.022855,0.0071165,0.03762,0.0022048,0.011947,0.00096676,0,0,0.066749,-0.025331,0,0.0050272,0,0,0,0.037647,0.0021785,0.011947,1.5625,0.017258,0.031732,1.132e-06,0.6,0.21,0
0.023524,0.0072262,0.037634,0.002002,0.011891,0.00088843,0,0,0.066933,-0.025711,0,0.0046199,0,0,0,0.037657,0.0019798,0.011891,1.4274,0.017176,0.031898,1.1404e-06,0.61,0.21,0
0.024194,0.0073313,0.037644,0.0018126,0.011837,0.0008103,0,0,0.067097,-0.026063,0,0.0042135,0,0,0,0.037662,0.0017943,0.011837,1.2948,0.017098,0.032049,1.1479e-06,0.62,0.21,0
0.024866,0.0074319,0.037648,0.0016363,0.011785,0.00073323,0,0,0.067243,-0.026387,0,0.0038128,0,0,0,0.037663,0.0016214,0.011785,1.166,0.017023,0.032187,1.1545e-06,0.63,0.21,0
0.025539,0.0075279,0.037648,0.0014728,0.011736,0.00065801,0,0,0.067371,-0.026685,0,0.0034217,0,0,0,0.03766,0.0014608,0.011736,1.0417,0.016952,0.032311,1.1602e-06,0.64,0.21,0
0.026213,0.0076194,0.037645,0.0013213,0.01169,0.00058528,0,0,0.067483,-0.026958,0,0.0030435,0,0,0,0.037655,0.0013119,0.01169,0.92288,0.016885,0.032424,1.1652e-06,0.65,0.21,0
0.026889,0.0077065,0.037638,0.0011814,0.011646,0.00051556,0,0,0.06758,-0.027208,0,0.0026809,0,0,0,0.037646,0.0011741,0.011646,0.81003,0.016822,0.032525,1.1694e-06,0.66,0.21,0
0.027565,0.0077893,0.037629,0.0010524,0.011604,0.00044926,0,0,0.067664,-0.027435,0,0.0023361,0,0,0,0.037635,0.0010469,0.011604,0.7036,0.016762,0.032616,1.173e-06,0.67,0.21,0
0.028242,0.0078677,0.037617,0.00093354,0.011565,0.00038668,0,0,0.067735,-0.027642,0,0.0020107,0,0,0,0.037621,0.00092946,0.011565,0.60386,0.016705,0.032698,1.176e-06,0.68,0.21,0
0.02892,0.0079419,0.037603,0.00082416,0.011528,0.00032803,0,0,0.067795,-0.027831,0,0.0017058,0,0,0,0.037606,0.00082124,0.011528,0.51096,0.016652,0.032771,1.1785e-06,0.69,0.21,0
0.029598,0.0080122,0.037588,0.00072359,0.011494,0.00027345,0,0,0.067846,-0.028002,0,0.0014219,0,0,0,0.03759,0.00072156,0.011494,0.42497,0.016602,0.032836,1.1805e-06,0.7,0.21,0
0.030276,0.0080785,0.037572,0.00063118,0.011461,0.000223,0,0,0.067888,-0.028157,0,0.0011596,0,0,0,0.037573,0.00062983,0.011461,0.34586,0.016555,0.032894,1.1821e-06,0.71,0.21,0
0.030956,0.008141,0.037551,0.00054385,0.011428,0.0001811,0,0,0.067918,-0.0283,0,0.00094172,0,0,0,0.037552,0.00054297,0.011428,0.28038,0.016508,0.032944,1.1832e-06,0.72,0.21,0
0.031635,0.0081999,0.037537,0.00046863,0.011402,0.00011367,0,0,0.067952,-0.028426,0,0.00059111,0,0,0,0.037537,0.00046828,0.011402,0.1757,0.016469,0.03299,1.1844e-06,0.73,0.21,0
0.032315,0.0082553,0.03752,0.00040001,0.011376,7.6462e-05,0,0,0.067975,-0.028538,0,0.0003976,0,0,0,0.03752,0.00039986,0.011376,0.11802,0.016432,0.03303,1.1852e-06,0.74,0.21,0
0.032994,0.0083073,0.037503,0.00033715,0.011352,4.3146e-05,0,0,0.067993,-0.028639,0,0.00022436,0,0,0,0.037503,0.0003371,0.011352,0.066515,0.016397,0.033064,1.1858e-06,0.75,0.21,0
0.033674,0.0083561,0.037486,0.00027955,0.01133,1.3588e-05,0,0,0.068007,-0.02873,0,7.0659e-05,0,0,0,0.037486,0.00027954,0.01133,0.020925,0.016365,0.033095,1.1862e-06,0.76,0.21,0
0.034355,0.0084018,0.037467,0.00021977,0.011306,-1.0663e-05,0,0,0.068019,-0.028825,0,-5.5445e-05,0,0,0,0.037467,0.00021977,0.011306,-0.016402,0.016331,0.033126,1.1865e-06,0.77,0.21,0
0.035035,0.0084445,0.037447,0.00016491,0.011284,-1.9089e-05,0,0,0.068026,-0.028909,0,-9.9265e-05,0,0,0,0.037447,0.0001649,0.011284,-0.029337,0.016299,0.033152,1.1865e-06,0.78,0.21,0
0.035715,0.0084844,0.03743,0.00011843,0.011265,-3.9298e-05,0,0,0.068031,-0.02898,0,-0.00020435,0,0,0,0.037431,0.00011839,0.011265,-0.060345,0.016271,0.033175,1.1864e-06,0.79,0.21,0
0.036395,0.0085217,0.037414,7.5845e-05,0.011247,-5.6398e-05,0,0,0.068035,-0.029045,0,-0.00029327,0,0,0,0.037414,7.576e-05,0.011247,-0.086542,0.016246,0.033194,1.1864e-06,0.8,0.21,0
0.037076,0.0085563,0.037399,3.6849e-05,0.011231,-7.0567e-05,0,0,0.068037,-0.029104,0,-0.00036695,0,0,0,0.037399,3.6716e-05,0.011231,-0.10822,0.016222,0.033211,1.1862e-06,0.81,0.21,0
0.037756,0.0085885,0.037384,1.1717e-06,0.011215,-8.1982e-05,0,0,0.068038,-0.029157,0,-0.00042631,0,0,0,0.037384,9.9195e-07,0.011215,-0.12565,0.0162,0.033227,1.186e-06,0.82,0.21,0
0.038436,0.0086183,0.03737,-3.1432e-05,0.011201,-9.082e-05,0,0,0.068037,-0.029206,0,-0.00047226,0,0,0,0.03737,-3.1653e-05,0.011201,-0.13913,0.01618,0.03324,1.1858e-06,0.83,0.21,0
0.039117,0.0086458,0.037356,-6.1184e-05,0.011189,-9.7253e-05,0,0,0.068036,-0.029249,0,-0.00050572,0,0,0,0.037357,-6.1437e-05,0.011189,-0.14892,0.016161,0.033252,1.1855e-06,0.84,0.21,0
0.039797,0.0086712,0.037344,-8.8284e-05,0.011177,-0.00010145,0,0,0.068035,-0.029289,0,-0.00052755,0,0,0,0.037344,-8.8558e-05,0.011177,-0.15529,0.016144,0.033263,1.1853e-06,0.85,0.21,0
0.040478,0.0086946,0.037332,-0.00011291,0.011166,-0.00010359,0,0,0.068033,-0.029325,0,-0.00053864,0,0,0,0.037332,-0.0001132,0.011166,-0.1585,0.016128,0.033272,1.185e-06,0.86,0.21,0
0.041158,0.0087159,0.037321,-0.00013522,0.011156,-0.00010381,0,0,0.06803,-0.029357,0,-0.00053982,0,0,0,0.037322,-0.00013551,0.011156,-0.15879,0.016114,0.03328,1.1847e-06,0.87,0.21,0
0.041838,0.0087354,0.037311,-0.00015537,0.011147,-0.00010229,0,0,0.068028,-0.029386,0,-0.00053192,0,0,0,0.037312,-0.00015565,0.011147,-0.15643,0.016101,0.033288,1.1844e-06,0.88,0.21,0
0.042518,0.008753,0.037302,-0.00017348,0.011139,-9.918e-05,0,0,0.068025,-0.029412,0,-0.00051574,0,0,0,0.037303,-0.00017374,0.011139,-0.15163,0.016089,0.033294,1.1842e-06,0.89,0.21,0
0.043199,0.0087689,0.037294,-0.00018966,0.011131,-9.4624e-05,0,0,0.068023,-0.029434,0,-0.00049204,0,0,0,0.037294,-0.0001899,0.011131,-0.14464,0.016078,0.0333,1.1839e-06,0.9,0.21,0
0.043879,0.008783,0.037286,-0.00020402,0.011125,-8.877e-05,0,0,0.06802,-0.029455,0,-0.0004616,0,0,0,0.037287,-0.00020423,0.011125,-0.13566,0.016069,0.033304,1.1837e-06,0.91,0.21,0
0.044559,0.0087956,0.03728,-0.00021665,0.011119,-8.1759e-05,0,0,0.068018,-0.029472,0,-0.00042515,0,0,0,0.03728,-0.00021683,0.011119,-0.12493,0.016061,0.033308,1.1835e-06,0.92,0.21,0
0.045239,0.0088065,0.037274,-0.00022761,0.011114,-7.373e-05,0,0,0.068016,-0.029488,0,-0.00038339,0,0,0,0.037274,-0.00022776,0.011114,-0.11265,0.016053,0.033312,1.1833e-06,0.93,0.21,0
0.045919,0.0088159,0.037269,-0.00023699,0.011109,-6.4816e-05,0,0,0.068014,-0.029501,0,-0.00033704,0,0,0,0.037269,-0.0002371,0.011109,-0.099016,0.016047,0.033315,1.1831e-06,0.94,0.21,0
0.0466,0.0088238,0.037264,-0.00024483,0.011106,-5.5151e-05,0,0,0.068012,-0.029512,0,-0.00028678,0,0,0,0.037264,-0.00024491,0.011106,-0.084243,0.016042,0.033317,1.183e-06,0.95,0.21,0
0.04728,0.0088302,0.037261,-0.00025118,0.011103,-4.4862e-05,0,0,0.068011,-0.029521,0,-0.00023328,0,0,0,0.037261,-0.00025123,0.011103,-0.068522,0.016038,0.033319,1.1828e-06,0.96,0.21,0
0.04796,0.0088352,0.037258,-0.00025608,0.011101,-3.4078e-05,0,0,0.06801,-0.029528,0,-0.00017721,0,0,0,0.037258,-0.00025611,0.011101,-0.052048,0.016034,0.033321,1.1827e-06,0.97,0.21,0
0.04864,0.0088387,0.037256,-0.00025956,0.011099,-2.2924e-05,0,0,0.068009,-0.029532,0,-0.0001192,0,0,0,0.037256,-0.00025958,0.011099,-0.03501,0.016032,0.033322,1.1827e-06,0.98,0.21,0
0.04932,0.0088408,0.037255,-0.00026165,0.011098,-1.1523e-05,0,0,0.068008,-0.029535,0,-5.9921e-05,0,0,0,0.037255,-0.00026165,0.011098,-0.017598,0.01603,0.033322,1.1826e-06,0.99,0.21,0
0.05,0.0088415,0.037255,-0.00026234,0.011098,1.3507e-05,0,0,0.068008,-0.029536,0,7.0235e-05,0,0,0,0.037255,-0.00026234,0.011098,0.020627,0.01603,0.033322,1.1826e-06,1,0.21,0
0,0,0.035146,0.015062,0.015062,0.0047474,0,0,0.026108,0,0,0.012343,0,0,0,0.036212,0.013997,0.015062,12.652,0.021757,0.021701,5.2065e-07,0,0.22,0
0.00026108,0.00012343,0.03509,0.014366,0.014837,0.0047495,0,0,0.026329,-0.00061161,0,0.012349,0,0,0,0.036126,0.01333,0.014837,12.313,0.021431,0.022082,5.4431e-07,0.01,0.22,0
0.00052657,0.00025003,0.035324,0.013773,0.014729,0.0047965,0,0,0.026774,-0.001243,0,0.012471,0,0,0,0.036344,0.012754,0.014729,11.998,0.021276,0.022667,5.8284e-07,0.02,0.22,0
0.00079656,0.00037933,0.03556,0.013164,0.014617,0.0048179,0,0,0.027225,-0.0018894,0,0.012526,0,0,0,0.036552,0.012171,0.014617,11.64,0.021114,0.023255,6.2186e-07,0.03,0.22,0
0.0010711,0.00051084,0.035793,0.012543,0.014501,0.0048128,0,0,0.02768,-0.0025454,0,0.012513,0,0,0,0.03675,0.011586,0.014501,11.245,0.020945,0.023841,6.61e-07,0.04,0.22,0
0.0013502,0.00064405,0.036021,0.011915,0.014381,0.004781,0,0,0.028133,-0.0032056,0,0.012431,0,0,0,0.036935,0.011002,0.014381,10.818,0.020772,0.02442,6.9986e-07,0.05,0.22,0
0.0016337,0.00077844,0.036242,0.011286,0.014258,0.0047231,0,0,0.028579,-0.0038642,0,0.01228,0,0,0,0.037106,0.010422,0.014258,10.366,0.020595,0.024988,7.3804e-07,0.06,0.22,0
0.0019217,0.00091352,0.036453,0.01066,0.014134,0.0046401,0,0,0.029015,-0.004516,0,0.012064,0,0,0,0.037262,0.0098507,0.014134,9.8943,0.020416,0.025541,7.752e-07,0.07,0.22,0
0.002214,0.0010488,0.036651,0.010042,0.014008,0.0045338,0,0,0.029436,-0.0051559,0,0.011788,0,0,0,0.037402,0.0092905,0.014008,9.4088,0.020234,0.026075,8.1102e-07,0.08,0.22,0
0.0025105,0.0011838,0.036835,0.0094353,0.013881,0.0044066,0,0,0.02984,-0.0057796,0,0.011457,0,0,0,0.037526,0.0087441,0.013881,8.9151,0.020051,0.026589,8.4522e-07,0.09,0.22,0
0.0028108,0.0013181,0.037004,0.008844,0.013754,0.0042609,0,0,0.030224,-0.0063833,0,0.011078,0,0,0,0.037634,0.0082134,0.013754,8.4185,0.019867,0.027079,8.776e-07,0.1,0.22,0
0.0031149,0.0014514,0.037155,0.0082708,0.013628,0.0040996,0,0,0.030586,-0.0069641,0,0.010659,0,0,0,0.037726,0.0077002,0.013628,7.9237,0.019685,0.027544,9.0799e-07,0.11,0.22,0
0.0034225,0.0015833,0.037289,0.0077176,0.013502,0.0039258,0,0,0.030923,-0.0075198,0,0.010207,0,0,0,0.037802,0.0072053,0.013502,7.4348,0.019503,0.027984,9.3631e-07,0.12,0.22,0
0.0037334,0.0017135,0.037406,0.0071862,0.013378,0.0037425,0,0,0.031237,-0.0080488,0,0.0097305,0,0,0,0.037862,0.0067296,0.013378,6.9558,0.019323,0.028398,9.6248e-07,0.13,0.22,0
0.0040473,0.0018418,0.037505,0.0066774,0.013255,0.0035526,0,0,0.031525,-0.0085504,0,0.0092368,0,0,0,0.037909,0.0062733,0.013255,6.4896,0.019146,0.028787,9.8652e-07,0.14,0.22,0
0.0043639,0.001968,0.037587,0.0061916,0.013133,0.0033589,0,0,0.031789,-0.0090244,0,0.0087332,0,0,0,0.037942,0.0058363,0.013133,6.039,0.018971,0.02915,1.0085e-06,0.15,0.22,0
0.0046831,0.002092,0.037652,0.0057288,0.013014,0.0031641,0,0,0.032029,-0.0094711,0,0.0082266,0,0,0,0.037963,0.0054182,0.013014,5.6062,0.018798,0.029489,1.0284e-06,0.16,0.22,0
0.0050045,0.0022137,0.037702,0.0052883,0.012897,0.0029704,0,0,0.032246,-0.0098913,0,0.0077231,0,0,0,0.037972,0.0050184,0.012897,5.1931,0.018629,0.029805,1.0463e-06,0.17,0.22,0
0.005328,0.002333,0.037737,0.0048696,0.012782,0.0027801,0,0,0.032442,-0.010286,0,0.0072284,0,0,0,0.037971,0.0046361,0.012782,4.801,0.018463,0.0301,1.0624e-06,0.18,0.22,0
0.0056533,0.0024501,0.037759,0.0044713,0.012669,0.0025951,0,0,0.032617,-0.010657,0,0.0067472,0,0,0,0.03796,0.0042702,0.012669,4.4311,0.0183,0.030374,1.0768e-06,0.19,0.22,0
0.0059803,0.0025648,0.037769,0.0040924,0.012558,0.0024169,0,0,0.032773,-0.011006,0,0.0062839,0,0,0,0.037941,0.0039198,0.012558,4.0842,0.01814,0.03063,1.0897e-06,0.2,0.22,0
0.0063088,0.0026772,0.037767,0.0037314,0.01245,0.002247,0,0,0.032913,-0.011334,0,0.0058422,0,0,0,0.037915,0.0035836,0.01245,3.7608,0.017983,0.030868,1.1011e-06,0.21,0.22,0
0.0066386,0.0027876,0.037756,0.0033866,0.012343,0.0020865,0,0,0.033037,-0.011643,0,0.005425,0,0,0,0.037882,0.0032604,0.012343,3.4615,0.017828,0.031092,1.1111e-06,0.22,0.22,0
0.0069695,0.0028958,0.037735,0.0030565,0.012238,0.0019365,0,0,0.033147,-0.011935,0,0.0050349,0,0,0,0.037843,0.0029487,0.012238,3.1863,0.017677,0.031301,1.1201e-06,0.23,0.22,0
0.0073015,0.0030022,0.037707,0.0027395,0.012134,0.0017978,0,0,0.033245,-0.012213,0,0.0046741,0,0,0,0.0378,0.0026473,0.012134,2.9353,0.017527,0.031499,1.1279e-06,0.24,0.22,0
0.0076344,0.0031068,0.037673,0.0024336,0.012032,0.0016709,0,0,0.033333,-0.012478,0,0.0043442,0,0,0,0.037752,0.0023546,0.012032,2.7086,0.01738,0.031687,1.135e-06,0.25,0.22,0
0.0079682,0.0032098,0.037633,0.0021374,0.011931,0.0015564,0,0,0.033413,-0.012732,0,0.0040465,0,0,0,0.037701,0.0020692,0.011931,2.5058,0.017234,0.031867,1.1412e-06,0.26,0.22,0
0.0083027,0.0033114,0.037589,0.0018488,0.011831,0.0014546,0,0,0.033485,-0.012977,0,0.0037819,0,0,0,0.037648,0.0017897,0.011831,2.3268,0.01709,0.03204,1.1468e-06,0.27,0.22,0
0.0086379,0.0034117,0.037541,0.0015663,0.011732,0.0013658,0,0,0.033551,-0.013216,0,0.0035511,0,0,0,0.037593,0.0015145,0.011732,2.1711,0.016946,0.032209,1.1519e-06,0.28,0.22,0
0.0089737,0.0035111,0.03749,0.0012879,0.011633,0.0012901,0,0,0.033614,-0.013449,0,0.0033542,0,0,0,0.037536,0.001242,0.011633,2.0383,0.016804,0.032375,1.1566e-06,0.29,0.22,0
0.0093102,0.0036095,0.037438,0.0010119,0.011535,0.0012274,0,0,0.033674,-0.01368,0,0.0031914,0,0,0,0.03748,0.00097057,0.011535,1.9278,0.016662,0.03254,1.1612e-06,0.3,0.22,0
0.0096472,0.0037074,0.037386,0.00073649,0.011437,0.0011778,0,0,0.033734,-0.01391,0,0.0030622,0,0,0,0.037423,0.00069868,0.011437,1.8388,0.01652,0.032706,1.1656e-06,0.31,0.22,0
0.0099848,0.0038047,0.037333,0.00045992,0.011338,0.0011408,0,0,0.033794,-0.014141,0,0.0029662,0,0,0,0.037368,0.00042465,0.011338,1.7704,0.016377,0.032875,1.17e-06,0.32,0.22,0
0.010323,0.0039018,0.037282,0.00018038,0.011239,0.0011162,0,0,0.033856,-0.014376,0,0.0029022,0,0,0,0.037316,0.00014682,0.011239,1.7217,0.016234,0.03305,1.1746e-06,0.33,0.22,0
0.010662,0.0039988,0.037233,-0.00010389,0.011139,0.0011035,0,0,0.033923,-0.014615,0,0.0028691,0,0,0,0.037266,-0.00013647,0.011139,1.6914,0.016089,0.033231,1.1794e-06,0.34,0.22,0
0.011002,0.0040959,0.037187,-0.0003946,0.011038,0.0011019,0,0,0.033994,-0.014862,0,0.002865,0,0,0,0.037219,-0.00042688,0.011038,1.678,0.015943,0.033423,1.1847e-06,0.35,0.22,0
0.011342,0.0041932,0.037145,-0.00069341,0.010936,0.0011107,0,0,0.034072,-0.015118,0,0.0028878,0,0,0,0.037178,-0.00072598,0.010936,1.6799,0.015796,0.033625,1.1905e-06,0.36,0.22,0
0.011683,0.0042908,0.037085,-0.0010154,0.010821,0.001149,0,0,0.034144,-0.015387,0,0.0029874,0,0,0,0.03712,-0.0010501,0.010821,1.7258,0.01563,0.033834,1.1953e-06,0.37,0.22,0
0.012025,0.004389,0.037096,-0.0013189,0.010733,0.0011818,0,0,0.034272,-0.015668,0,0.0030728,0,0,0,0.037132,-0.0013552,0.010733,1.7605,0.015503,0.034091,1.2061e-06,0.38,0.22,0
0.012368,0.0044877,0.037022,-0.0016734,0.010605,0.0012069,0,0,0.034343,-0.015961,0,0.003138,0,0,0,0.03706,-0.001711,0.010605,1.7848,0.015318,0.034313,1.2099e-06,0.39,0.22,0
0.012712,0.004587,0.037058,-0.0019976,0.010518,0.0012533,0,0,0.034501,-0.01627,0,0.0032585,0,0,0,0.037098,-0.0020378,0.010518,1.8361,0.015193,0.03461,1.2233e-06,0.4,0.22,0
0.013058,0.004687,0.036988,-0.0023837,0.010381,0.0012861,0,0,0.034589,-0.016595,0,0.0033438,0,0,0,0.03703,-0.0024257,0.010381,1.8689,0.014995,0.034864,1.228e-06,0.41,0.22,0
0.013404,0.0047877,0.037051,-0.0027311,0.010296,0.0013373,0,0,0.034782,-0.016935,0,0.0034769,0,0,0,0.037096,-0.002776,0.010296,1.9231,0.014872,0.035206,1.2444e-06,0.42,0.22,0
0.013753,0.004889,0.036987,-0.0031511,0.010151,0.0013721,0,0,0.034887,-0.017292,0,0.0035674,0,0,0,0.037034,-0.003198,0.010151,1.9556,0.014662,0.035493,1.2498e-06,0.43,0.22,0
0.014103,0.0049909,0.037079,-0.0035218,0.010067,0.0014183,0,0,0.035115,-0.017666,0,0.0036875,0,0,0,0.037128,-0.0035713,0.010067,1.9983,0.014541,0.03588,1.2691e-06,0.44,0.22,0
0.014455,0.0050932,0.037019,-0.0039742,0.0099136,0.0014487,0,0,0.035238,-0.018054,0,0.0037666,0,0,0,0.037071,-0.0040253,0.0099136,2.0215,0.01432,0.036199,1.275e-06,0.45,0.22,0
0.014808,0.0051958,0.037138,-0.0043656,0.0098318,0.0014798,0,0,0.035498,-0.018457,0,0.0038475,0,0,0,0.037191,-0.0044183,0.0098318,2.0394,0.014202,0.036626,1.2969e-06,0.46,0.22,0
0.015164,0.0052985,0.037084,-0.0048448,0.0096717,0.0014998,0,0,0.035636,-0.018871,0,0.0038994,0,0,0,0.037137,-0.0048984,0.0096717,2.046,0.01397,0.036971,1.3028e-06,0.47,0.22,0
0.015522,0.0054011,0.037224,-0.0052517,0.0095916,0.0015069,0,0,0.035922,-0.019296,0,0.0039179,0,0,0,0.037277,-0.0053051,0.0095916,2.0293,0.013855,0.037428,1.3265e-06,0.48,0.22,0
0.015881,0.0055034,0.037173,-0.0057487,0.0094272,0.0015115,0,0,0.036069,-0.019729,0,0.00393,0,0,0,0.037226,-0.0058018,0.0094272,2.0144,0.013617,0.037789,1.3319e-06,0.49,0.22,0
0.016244,0.0056051,0.037252,-0.00065497,0.010979,0.0015041,0,0,0.050201,-0.020166,0,0.0058067,0,0,0,0.037312,-0.00071534,0.010979,2.3064,0.015859,0.033806,1.1718e-06,0.5,0.22,0
0.016886,0.0057438,0.03729,0.004587,0.012563,0.0014677,0,0,0.06429,-0.020738,0,0.007632,0,0,0,0.037356,0.0045212,0.012563,2.5645,0.018147,0.029643,1.0133e-06,0.51,0.22,0
0.017531,0.0058804,0.037414,0.0043289,0.012523,0.0014216,0,0,0.064716,-0.021304,0,0.0073923,0,0,0,0.037475,0.0042679,0.012523,2.4559,0.018088,0.029945,1.0339e-06,0.52,0.22,0
0.018179,0.0060147,0.037394,0.0040148,0.012422,0.0013988,0,0,0.064925,-0.02186,0,0.0072736,0,0,0,0.037452,0.0039563,0.012422,2.3954,0.017944,0.030167,1.0446e-06,0.53,0.22,0
0.01883,0.0061462,0.03751,0.0037665,0.012383,0.0013341,0,0,0.065329,-0.022402,0,0.0069374,0,0,0,0.037562,0.0037138,0.012383,2.2606,0.017886,0.030454,1.0641e-06,0.54,0.22,0
0.019484,0.0062748,0.037489,0.0034689,0.012287,0.0013014,0,0,0.065524,-0.022928,0,0.0067675,0,0,0,0.037539,0.0034192,0.012287,2.1876,0.017748,0.030663,1.0738e-06,0.55,0.22,0
0.020141,0.0064,0.037592,0.0032352,0.012248,0.001221,0,0,0.065894,-0.023434,0,0.0063491,0,0,0,0.037635,0.0031918,0.012248,2.0328,0.017692,0.030926,1.0915e-06,0.56,0.22,0
0.020801,0.0065217,0.037594,0.0029627,0.012167,0.0011593,0,0,0.06611,-0.023931,0,0.0060282,0,0,0,0.037633,0.0029239,0.012167,1.9151,0.017574,0.031134,1.1018e-06,0.57,0.22,0
0.021464,0.0066397,0.037625,0.0027232,0.012105,0.0010918,0,0,0.066354,-0.024391,0,0.0056772,0,0,0,0.037659,0.0026891,0.012105,1.7899,0.017484,0.031342,1.1134e-06,0.58,0.22,0
0.022128,0.0067537,0.037652,0.0024958,0.012044,0.0010213,0,0,0.066579,-0.024826,0,0.005311,0,0,0,0.037681,0.0024661,0.012044,1.6627,0.017397,0.031537,1.1241e-06,0.59,0.22,0
0.022795,0.0068637,0.037673,0.0022807,0.011986,0.00094896,0,0,0.066787,-0.025234,0,0.0049346,0,0,0,0.037699,0.0022553,0.011986,1.5348,0.017313,0.031718,1.1338e-06,0.6,0.22,0
0.023464,0.0069695,0.03769,0.0020782,0.011931,0.00087559,0,0,0.066975,-0.025616,0,0.0045531,0,0,0,0.037712,0.0020567,0.011931,1.4076,0.017233,0.031886,1.1426e-06,0.61,0.22,0
0.024135,0.0070711,0.037702,0.0018883,0.011877,0.00080214,0,0,0.067145,-0.025971,0,0.0041711,0,0,0,0.03772,0.0018703,0.011877,1.2824,0.017156,0.032041,1.1505e-06,0.62,0.22,0
0.024807,0.0071684,0.03771,0.0017107,0.011826,0.00072941,0,0,0.067298,-0.026301,0,0.0037929,0,0,0,0.037725,0.0016959,0.011826,1.1603,0.017082,0.032183,1.1575e-06,0.63,0.22,0
0.025481,0.0072615,0.037714,0.0015451,0.011778,0.00065812,0,0,0.067434,-0.026605,0,0.0034222,0,0,0,0.037726,0.0015331,0.011778,1.0421,0.017012,0.032312,1.1637e-06,0.64,0.22,0
0.026156,0.0073502,0.037714,0.0013911,0.011732,0.00058888,0,0,0.067554,-0.026885,0,0.0030622,0,0,0,0.037723,0.0013815,0.011732,0.92858,0.016945,0.03243,1.1691e-06,0.65,0.22,0
0.026832,0.0074348,0.037711,0.0012481,0.011688,0.00052221,0,0,0.06766,-0.027143,0,0.0027155,0,0,0,0.037718,0.0012407,0.011688,0.82035,0.016882,0.032537,1.1738e-06,0.66,0.22,0
0.027509,0.0075152,0.037705,0.0011157,0.011646,0.00045852,0,0,0.067752,-0.027379,0,0.0023843,0,0,0,0.03771,0.0011099,0.011646,0.71786,0.016822,0.032634,1.1779e-06,0.67,0.22,0
0.028187,0.0075915,0.037696,0.00099316,0.011607,0.00039813,0,0,0.067832,-0.027595,0,0.0020703,0,0,0,0.0377,0.00098884,0.011607,0.62141,0.016765,0.032721,1.1813e-06,0.68,0.22,0
0.028866,0.0076638,0.037685,0.00087994,0.011569,0.00034127,0,0,0.067901,-0.027793,0,0.0017746,0,0,0,0.037688,0.00087678,0.011569,0.53121,0.016712,0.0328,1.1842e-06,0.69,0.22,0
0.029545,0.0077323,0.037673,0.00077543,0.011534,0.00028811,0,0,0.06796,-0.027973,0,0.0014982,0,0,0,0.037675,0.00077318,0.011534,0.44736,0.016661,0.03287,1.1867e-06,0.7,0.22,0
0.030225,0.007797,0.037659,0.00067902,0.011501,0.00023874,0,0,0.06801,-0.028138,0,0.0012415,0,0,0,0.037661,0.00067748,0.011501,0.36988,0.016613,0.032933,1.1888e-06,0.71,0.22,0
0.030905,0.0078581,0.03764,0.00058959,0.011469,0.00021162,0,0,0.068046,-0.028286,0,0.0011004,0,0,0,0.037642,0.00058838,0.011469,0.32723,0.016566,0.032987,1.1901e-06,0.72,0.22,0
0.031586,0.0079156,0.037629,0.00050926,0.011442,0.00017205,0,0,0.068088,-0.028424,0,0.00089466,0,0,0,0.03763,0.00050846,0.011442,0.26556,0.016527,0.033041,1.1919e-06,0.73,0.22,0
0.032267,0.0079698,0.037612,0.00043104,0.011413,0.00013317,0,0,0.068117,-0.028553,0,0.00069248,0,0,0,0.037612,0.00043056,0.011413,0.20521,0.016485,0.033087,1.1929e-06,0.74,0.22,0
0.032948,0.0080207,0.037594,0.00035893,0.011386,9.7975e-05,0,0,0.068141,-0.02867,0,0.00050947,0,0,0,0.037594,0.00035867,0.011386,0.15076,0.016446,0.033128,1.1937e-06,0.75,0.22,0
0.03363,0.0080685,0.037577,0.00029248,0.011361,6.6371e-05,0,0,0.068161,-0.028777,0,0.00034513,0,0,0,0.037577,0.00029236,0.011361,0.10199,0.01641,0.033166,1.1944e-06,0.76,0.22,0
0.034311,0.0081133,0.037563,0.00023835,0.01134,1.7804e-05,0,0,0.06818,-0.028866,0,9.2582e-05,0,0,0,0.037563,0.00023834,0.01134,0.027331,0.016381,0.033197,1.195e-06,0.77,0.22,0
0.034993,0.0081552,0.037547,0.00018686,0.01132,-2.4685e-06,0,0,0.06819,-0.028947,0,-1.2836e-05,0,0,0,0.037547,0.00018686,0.01132,-0.0037857,0.016351,0.033223,1.1952e-06,0.78,0.22,0
0.035675,0.0081944,0.037531,0.00013724,0.0113,-2.316e-05,0,0,0.0682,-0.029025,0,-0.00012043,0,0,0,0.037531,0.00013722,0.0113,-0.035486,0.016323,0.033249,1.1954e-06,0.79,0.22,0
0.036357,0.008231,0.037516,9.1673e-05,0.011282,-4.0828e-05,0,0,0.068207,-0.029095,0,-0.0002123,0,0,0,0.037516,9.1628e-05,0.011282,-0.062507,0.016296,0.033272,1.1955e-06,0.8,0.22,0
0.037039,0.008265,0.037501,4.987e-05,0.011265,-5.5632e-05,0,0,0.068213,-0.02916,0,-0.00028929,0,0,0,0.037501,4.9787e-05,0.011265,-0.08511,0.016272,0.033292,1.1955e-06,0.81,0.22,0
0.037721,0.0082966,0.037486,1.1555e-05,0.011249,-6.7736e-05,0,0,0.068216,-0.029218,0,-0.00035223,0,0,0,0.037487,1.1433e-05,0.011249,-0.10356,0.016249,0.03331,1.1955e-06,0.82,0.22,0
0.038404,0.0083259,0.037473,-2.3516e-05,0.011235,-7.7304e-05,0,0,0.068219,-0.029272,0,-0.00040198,0,0,0,0.037473,-2.3675e-05,0.011235,-0.11812,0.016228,0.033326,1.1954e-06,0.83,0.22,0
0.039086,0.008353,0.03746,-5.5567e-05,0.011221,-8.4498e-05,0,0,0.06822,-0.02932,0,-0.00043939,0,0,0,0.03746,-5.5758e-05,0.011221,-0.12905,0.016209,0.03334,1.1952e-06,0.84,0.22,0
0.039768,0.008378,0.037448,-8.4803e-05,0.011209,-8.9482e-05,0,0,0.068221,-0.029364,0,-0.00046531,0,0,0,0.037448,-8.5016e-05,0.011209,-0.1366,0.016191,0.033352,1.195e-06,0.85,0.22,0
0.04045,0.0084009,0.037436,-0.0001114,0.011197,-9.2414e-05,0,0,0.068221,-0.029403,0,-0.00048055,0,0,0,0.037436,-0.00011163,0.011197,-0.14102,0.016174,0.033363,1.1949e-06,0.86,0.22,0
0.041133,0.0084219,0.037425,-0.00013554,0.011187,-9.3451e-05,0,0,0.06822,-0.029438,0,-0.00048594,0,0,0,0.037426,-0.00013577,0.011187,-0.14255,0.016159,0.033373,1.1946e-06,0.87,0.22,0
0.041815,0.0084411,0.037415,-0.00015735,0.011177,-9.2746e-05,0,0,0.068219,-0.029471,0,-0.00048228,0,0,0,0.037416,-0.00015757,0.011177,-0.14143,0.016145,0.033382,1.1944e-06,0.88,0.22,0
0.042497,0.0084584,0.037406,-0.00017697,0.011169,-9.0449e-05,0,0,0.068218,-0.029499,0,-0.00047034,0,0,0,0.037407,-0.00017719,0.011169,-0.13789,0.016133,0.033389,1.1942e-06,0.89,0.22,0
0.043179,0.0084741,0.037398,-0.00019452,0.011161,-8.6709e-05,0,0,0.068216,-0.029524,0,-0.00045088,0,0,0,0.037398,-0.00019472,0.011161,-0.13215,0.016122,0.033396,1.194e-06,0.9,0.22,0
0.043861,0.008488,0.037391,-0.0002101,0.011154,-8.1667e-05,0,0,0.068215,-0.029547,0,-0.00042467,0,0,0,0.037391,-0.00021028,0.011154,-0.12444,0.016112,0.033402,1.1938e-06,0.91,0.22,0
0.044543,0.0085004,0.037384,-0.00022382,0.011148,-7.5464e-05,0,0,0.068213,-0.029567,0,-0.00039241,0,0,0,0.037384,-0.00022397,0.011148,-0.11497,0.016103,0.033407,1.1936e-06,0.92,0.22,0
0.045226,0.0085112,0.037378,-0.00023573,0.011143,-6.8237e-05,0,0,0.068212,-0.029584,0,-0.00035483,0,0,0,0.037378,-0.00023586,0.011143,-0.10394,0.016095,0.033411,1.1934e-06,0.93,0.22,0
0.045908,0.0085204,0.037373,-0.00024593,0.011138,-6.0121e-05,0,0,0.06821,-0.029598,0,-0.00031263,0,0,0,0.037373,-0.00024602,0.011138,-0.091568,0.016088,0.033414,1.1933e-06,0.94,0.22,0
0.04659,0.0085282,0.037368,-0.00025445,0.011134,-5.1247e-05,0,0,0.068209,-0.02961,0,-0.00026649,0,0,0,0.037368,-0.00025452,0.011134,-0.078044,0.016083,0.033417,1.1932e-06,0.95,0.22,0
0.047272,0.0085345,0.037365,-0.00026137,0.011131,-4.1746e-05,0,0,0.068208,-0.02962,0,-0.00021708,0,0,0,0.037365,-0.00026141,0.011131,-0.063569,0.016078,0.03342,1.1931e-06,0.96,0.22,0
0.047954,0.0085394,0.037362,-0.0002667,0.011129,-3.1745e-05,0,0,0.068207,-0.029628,0,-0.00016507,0,0,0,0.037362,-0.00026673,0.011129,-0.048337,0.016075,0.033421,1.193e-06,0.97,0.22,0
0.048636,0.0085428,0.03736,-0.00027049,0.011127,-2.137e-05,0,0,0.068206,-0.029633,0,-0.00011113,0,0,0,0.03736,-0.0002705,0.011127,-0.032538,0.016072,0.033423,1.1929e-06,0.98,0.22,0
0.049318,0.0085449,0.037359,-0.00027276,0.011126,-1.0747e-05,0,0,0.068206,-0.029636,0,-5.5885e-05,0,0,0,0.037359,-0.00027276,0.011126,-0.016363,0.016071,0.033423,1.1929e-06,0.99,0.22,0
0.05,0.0085456,0.037359,-0.00027351,0.011125,1.3312e-05,0,0,0.068206,-0.029638,0,6.9224e-05,0,0,0,0.037359,-0.00027351,0.011125,0.020268,0.01607,0.033424,1.1929e-06,1,0.22,0
0,0,0.034947,0.014977,0.014977,0.004517,0,0,0.025961,3.5237e-19,0,0.011744,0,0,0,0.035921,0.014003,0.014977,12.171,0.021634,0.021448,5.0319e-07,0,0.23,0
0.00025961,0.00011744,0.034893,0.014308,0.01476,0.0045192,0,0,0.026172,-0.00058783,0,0.01175,0,0,0,0.035841,0.01336,0.01476,11.853,0.02132,0.021815,5.258e-07,0.01,0.23,0
0.00052345,0.00023786,0.035119,0.013739,0.014657,0.0045643,0,0,0.0266,-0.0011939,0,0.011867,0,0,0,0.036052,0.012805,0.014657,11.561,0.021172,0.022379,5.6233e-07,0.02,0.23,0
0.0007916,0.00036083,0.035345,0.013154,0.01455,0.0045863,0,0,0.027034,-0.001814,0,0.011924,0,0,0,0.036256,0.012244,0.01455,11.229,0.021017,0.022946,5.9941e-07,0.03,0.23,0
0.0010641,0.00048592,0.03557,0.012559,0.014439,0.0045844,0,0,0.027471,-0.0024434,0,0.011919,0,0,0,0.03645,0.011679,0.014439,10.863,0.020856,0.023512,6.367e-07,0.04,0.23,0
0.001341,0.00061266,0.035791,0.011957,0.014324,0.0045585,0,0,0.027906,-0.0030774,0,0.011852,0,0,0,0.036633,0.011115,0.014324,10.466,0.020691,0.024074,6.7386e-07,0.05,0.23,0
0.0016222,0.0007406,0.036005,0.011353,0.014207,0.0045089,0,0,0.028337,-0.0037111,0,0.011723,0,0,0,0.036804,0.010554,0.014207,10.046,0.020522,0.024627,7.1055e-07,0.06,0.23,0
0.0019077,0.00086929,0.03621,0.01075,0.014088,0.0044366,0,0,0.028759,-0.0043396,0,0.011535,0,0,0,0.036961,0.009999,0.014088,9.607,0.020349,0.025168,7.4646e-07,0.07,0.23,0
0.0021974,0.00099827,0.036405,0.010153,0.013968,0.0043431,0,0,0.029169,-0.0049586,0,0.011292,0,0,0,0.037105,0.0094533,0.013968,9.1541,0.020175,0.025694,7.8129e-07,0.08,0.23,0
0.0024911,0.0011271,0.036587,0.0095658,0.013846,0.0042302,0,0,0.029564,-0.0055641,0,0.010998,0,0,0,0.037234,0.0089191,0.013846,8.6926,0.02,0.026201,8.1481e-07,0.09,0.23,0
0.0027887,0.0012555,0.036755,0.008991,0.013724,0.0041001,0,0,0.029941,-0.0061528,0,0.01066,0,0,0,0.037348,0.0083982,0.013724,8.2272,0.019823,0.026689,8.4678e-07,0.1,0.23,0
0.00309,0.001383,0.036909,0.0084315,0.013602,0.0039553,0,0,0.030298,-0.0067217,0,0.010284,0,0,0,0.037448,0.0078923,0.013602,7.7624,0.019647,0.027155,8.7707e-07,0.11,0.23,0
0.0033947,0.0015094,0.037046,0.0078892,0.013481,0.0037985,0,0,0.030635,-0.0072688,0,0.0098761,0,0,0,0.037533,0.0074025,0.013481,7.302,0.019472,0.027598,9.0555e-07,0.12,0.23,0
0.0037027,0.0016343,0.037167,0.0073658,0.01336,0.0036322,0,0,0.03095,-0.0077924,0,0.0094438,0,0,0,0.037604,0.0069295,0.01336,6.8496,0.019298,0.028018,9.3215e-07,0.13,0.23,0
0.0040137,0.0017576,0.037273,0.0068623,0.013241,0.0034591,0,0,0.031242,-0.0082917,0,0.0089937,0,0,0,0.037661,0.0064738,0.013241,6.4082,0.019125,0.028415,9.5684e-07,0.14,0.23,0
0.0043275,0.0018791,0.037362,0.0063791,0.013122,0.0032818,0,0,0.031512,-0.0087663,0,0.0085326,0,0,0,0.037706,0.0060353,0.013122,5.9804,0.018955,0.028789,9.7964e-07,0.15,0.23,0
0.0046439,0.0019986,0.037436,0.0059165,0.013006,0.0031025,0,0,0.03176,-0.0092162,0,0.0080666,0,0,0,0.037739,0.005614,0.013006,5.5685,0.018786,0.029141,1.0006e-06,0.16,0.23,0
0.0049627,0.002116,0.037496,0.0054741,0.012891,0.0029236,0,0,0.031986,-0.0096419,0,0.0076014,0,0,0,0.037761,0.0052093,0.012891,5.1742,0.01862,0.029471,1.0197e-06,0.17,0.23,0
0.0052836,0.0022314,0.037541,0.0050514,0.012778,0.0027471,0,0,0.032192,-0.010044,0,0.0071424,0,0,0,0.037772,0.0048208,0.012778,4.799,0.018457,0.029781,1.0371e-06,0.18,0.23,0
0.0056065,0.0023447,0.037574,0.0046475,0.012666,0.0025747,0,0,0.03238,-0.010424,0,0.0066942,0,0,0,0.037774,0.0044474,0.012666,4.4443,0.018296,0.030072,1.0529e-06,0.19,0.23,0
0.0059312,0.0024559,0.037595,0.0042615,0.012557,0.0024081,0,0,0.032549,-0.010784,0,0.0062609,0,0,0,0.037768,0.0040884,0.012557,4.1107,0.018138,0.030344,1.0672e-06,0.2,0.23,0
0.0062575,0.002565,0.037604,0.003892,0.012449,0.0022486,0,0,0.032702,-0.011124,0,0.0058463,0,0,0,0.037754,0.0037427,0.012449,3.7991,0.017982,0.030601,1.08e-06,0.21,0.23,0
0.0065853,0.0026721,0.037604,0.0035378,0.012343,0.0020974,0,0,0.03284,-0.011446,0,0.0054533,0,0,0,0.037733,0.0034091,0.012343,3.5099,0.017828,0.030843,1.0916e-06,0.22,0.23,0
0.0069143,0.0027774,0.037595,0.0031973,0.012238,0.0019556,0,0,0.032965,-0.011753,0,0.0050846,0,0,0,0.037706,0.0030865,0.012238,3.2435,0.017677,0.031072,1.1021e-06,0.23,0.23,0
0.0072445,0.0028809,0.037579,0.0028691,0.012134,0.0018239,0,0,0.033078,-0.012045,0,0.0047422,0,0,0,0.037674,0.0027736,0.012134,2.9998,0.017527,0.031289,1.1115e-06,0.24,0.23,0
0.0075759,0.0029828,0.037555,0.0025517,0.012032,0.0017031,0,0,0.03318,-0.012325,0,0.0044281,0,0,0,0.037638,0.002469,0.012032,2.779,0.01738,0.031496,1.12e-06,0.25,0.23,0
0.0079082,0.0030832,0.037526,0.0022433,0.011931,0.0015937,0,0,0.033274,-0.012594,0,0.0041435,0,0,0,0.037598,0.0021714,0.011931,2.5809,0.017233,0.031695,1.1278e-06,0.26,0.23,0
0.0082413,0.0031822,0.037493,0.0019423,0.011831,0.001496,0,0,0.033361,-0.012855,0,0.0038895,0,0,0,0.037556,0.0018795,0.011831,2.4053,0.017089,0.031887,1.1349e-06,0.27,0.23,0
0.0085754,0.0032801,0.037456,0.0016472,0.011731,0.0014103,0,0,0.033442,-0.013109,0,0.0036667,0,0,0,0.037511,0.0015917,0.011731,2.2518,0.016945,0.032075,1.1415e-06,0.28,0.23,0
0.0089102,0.003377,0.037416,0.0013561,0.011632,0.0013367,0,0,0.033519,-0.013358,0,0.0034754,0,0,0,0.037465,0.0013066,0.011632,2.12,0.016801,0.03226,1.1476e-06,0.29,0.23,0
0.0092458,0.0034731,0.037374,0.0010675,0.011532,0.0012753,0,0,0.033594,-0.013604,0,0.0033157,0,0,0,0.037419,0.0010228,0.011532,2.0092,0.016658,0.032444,1.1536e-06,0.3,0.23,0
0.0095821,0.0035686,0.037331,0.00077972,0.011433,0.0012259,0,0,0.033668,-0.01385,0,0.0031873,0,0,0,0.037373,0.00073865,0.011433,1.9187,0.016515,0.032629,1.1594e-06,0.31,0.23,0
0.0099191,0.0036635,0.037289,0.00049101,0.011334,0.0011883,0,0,0.033742,-0.014096,0,0.0030895,0,0,0,0.037327,0.00045268,0.011334,1.8476,0.016371,0.032816,1.1651e-06,0.32,0.23,0
0.010257,0.0037582,0.037248,0.00019978,0.011234,0.0011621,0,0,0.033817,-0.014345,0,0.0030215,0,0,0,0.037284,0.00016336,0.011234,1.7949,0.016227,0.033008,1.171e-06,0.33,0.23,0
0.010596,0.0038527,0.037208,-9.5609e-05,0.011134,0.0011469,0,0,0.033897,-0.014598,0,0.002982,0,0,0,0.037243,-0.00013084,0.011134,1.7594,0.016082,0.033207,1.1771e-06,0.34,0.23,0
0.010935,0.0039473,0.037171,-0.00039671,0.011032,0.001142,0,0,0.03398,-0.014858,0,0.0029691,0,0,0,0.037206,-0.00043139,0.011032,1.7395,0.015936,0.033414,1.1835e-06,0.35,0.23,0
0.011275,0.0040419,0.037138,-0.00070502,0.01093,0.0011465,0,0,0.03407,-0.015125,0,0.0029808,0,0,0,0.037173,-0.00073972,0.01093,1.7337,0.015788,0.033632,1.1904e-06,0.36,0.23,0
0.011616,0.0041369,0.037109,-0.0010219,0.010826,0.0011595,0,0,0.034168,-0.015403,0,0.0030146,0,0,0,0.037144,-0.0010572,0.010826,1.7401,0.015638,0.033862,1.1979e-06,0.37,0.23,0
0.011958,0.0042322,0.037086,-0.0013487,0.010721,0.0011799,0,0,0.034274,-0.015691,0,0.0030676,0,0,0,0.037122,-0.0013849,0.010721,1.7566,0.015486,0.034105,1.206e-06,0.38,0.23,0
0.012302,0.0043279,0.037068,-0.0016865,0.010615,0.0012063,0,0,0.03439,-0.015991,0,0.0031363,0,0,0,0.037106,-0.001724,0.010615,1.7811,0.015332,0.034364,1.2148e-06,0.39,0.23,0
0.012646,0.0044242,0.037057,-0.0020362,0.010506,0.0012373,0,0,0.034516,-0.016305,0,0.003217,0,0,0,0.037096,-0.0020753,0.010506,1.811,0.015176,0.034639,1.2243e-06,0.4,0.23,0
0.012992,0.0045209,0.037054,-0.0023984,0.010396,0.0012713,0,0,0.034654,-0.016633,0,0.0033054,0,0,0,0.037094,-0.0024393,0.010396,1.8438,0.015017,0.034932,1.2347e-06,0.41,0.23,0
0.013339,0.0046182,0.037057,-0.0027735,0.010285,0.0013066,0,0,0.034803,-0.016976,0,0.0033971,0,0,0,0.0371,-0.0028164,0.010285,1.8768,0.014856,0.035242,1.2459e-06,0.42,0.23,0
0.013688,0.0047159,0.037068,-0.0031615,0.010172,0.0013413,0,0,0.034965,-0.017334,0,0.0034873,0,0,0,0.037112,-0.0032062,0.010172,1.9075,0.014693,0.035569,1.2579e-06,0.43,0.23,0
0.014039,0.0048141,0.037086,-0.0035622,0.010057,0.0013736,0,0,0.035138,-0.017705,0,0.0035713,0,0,0,0.037132,-0.0036085,0.010057,1.9332,0.014527,0.035914,1.2706e-06,0.44,0.23,0
0.014391,0.0049125,0.037112,-0.0039746,0.0099411,0.0014016,0,0,0.035322,-0.01809,0,0.0036442,0,0,0,0.037159,-0.0040224,0.0099411,1.9515,0.014359,0.036275,1.2839e-06,0.45,0.23,0
0.014745,0.0050111,0.037144,-0.0043978,0.0098237,0.0014236,0,0,0.035516,-0.018488,0,0.0037015,0,0,0,0.037192,-0.0044466,0.0098237,1.9605,0.01419,0.03665,1.2977e-06,0.46,0.23,0
0.015101,0.0051097,0.037182,-0.0048303,0.0097054,0.001438,0,0,0.035719,-0.018896,0,0.0037389,0,0,0,0.037231,-0.0048795,0.0097054,1.9582,0.014019,0.037038,1.312e-06,0.47,0.23,0
0.015459,0.0052081,0.037225,-0.0052704,0.0095862,0.0014434,0,0,0.03593,-0.019314,0,0.0037529,0,0,0,0.037274,-0.0053194,0.0095862,1.9432,0.013847,0.037436,1.3264e-06,0.48,0.23,0
0.01582,0.0053061,0.037271,-0.0057159,0.0094667,0.0014386,0,0,0.036146,-0.019737,0,0.0037405,0,0,0,0.037319,-0.005764,0.0094667,1.9146,0.013674,0.037841,1.3408e-06,0.49,0.23,0
0.016182,0.0054034,0.037299,-0.00063405,0.011,0.0014235,0,0,0.050252,-0.020165,0,0.0055301,0,0,0,0.037354,-0.00068834,0.011,2.1875,0.015888,0.033821,1.175e-06,0.5,0.23,0
0.016825,0.0055365,0.037371,0.0046284,0.0126,0.0013998,0,0,0.064406,-0.020726,0,0.0072789,0,0,0,0.037431,0.0045687,0.0126,2.4435,0.0182,0.029673,1.0178e-06,0.51,0.23,0
0.01747,0.0056675,0.037422,0.0043452,0.01253,0.0013692,0,0,0.064718,-0.021281,0,0.0071196,0,0,0,0.037478,0.0042886,0.01253,2.3663,0.018099,0.029932,1.0334e-06,0.52,0.23,0
0.018119,0.0057963,0.037471,0.0040667,0.012461,0.0013319,0,0,0.065025,-0.021826,0,0.0069258,0,0,0,0.037524,0.0040137,0.012461,2.2797,0.018,0.030186,1.0486e-06,0.53,0.23,0
0.018771,0.0059224,0.037518,0.0037943,0.012394,0.0012883,0,0,0.065323,-0.022358,0,0.006699,0,0,0,0.037567,0.0037451,0.012394,2.1845,0.017902,0.030433,1.0632e-06,0.54,0.23,0
0.019426,0.0060457,0.037562,0.0035293,0.012327,0.0012388,0,0,0.065609,-0.022875,0,0.0064418,0,0,0,0.037607,0.0034843,0.012327,2.0819,0.017806,0.030672,1.0773e-06,0.55,0.23,0
0.020083,0.0061659,0.037602,0.0032731,0.012263,0.0011841,0,0,0.065883,-0.023373,0,0.0061573,0,0,0,0.037643,0.0032323,0.012263,1.9731,0.017713,0.030902,1.0906e-06,0.56,0.23,0
0.020743,0.0062828,0.037639,0.0030264,0.0122,0.0011249,0,0,0.066143,-0.02385,0,0.0058495,0,0,0,0.037676,0.0029899,0.0122,1.8595,0.017622,0.03112,1.1031e-06,0.57,0.23,0
0.021406,0.0063962,0.037672,0.0027903,0.012139,0.001062,0,0,0.066386,-0.024306,0,0.0055226,0,0,0,0.037704,0.002758,0.012139,1.7423,0.017534,0.031328,1.1148e-06,0.58,0.23,0
0.022071,0.0065059,0.0377,0.0025652,0.01208,0.00099636,0,0,0.066613,-0.024737,0,0.0051811,0,0,0,0.037728,0.002537,0.01208,1.6231,0.017448,0.031523,1.1257e-06,0.59,0.23,0
0.022738,0.0066118,0.037724,0.0023516,0.012023,0.00092873,0,0,0.066823,-0.025145,0,0.0048294,0,0,0,0.037748,0.0023273,0.012023,1.503,0.017366,0.031705,1.1356e-06,0.6,0.23,0
0.023408,0.0067139,0.037743,0.0021497,0.011968,0.00086,0,0,0.067015,-0.025527,0,0.004472,0,0,0,0.037764,0.002129,0.011968,1.3833,0.017287,0.031875,1.1447e-06,0.61,0.23,0
0.024079,0.0068119,0.037758,0.0019595,0.011915,0.00079099,0,0,0.067191,-0.025885,0,0.0041131,0,0,0,0.037775,0.0019421,0.011915,1.2652,0.017211,0.032033,1.1529e-06,0.62,0.23,0
0.024751,0.0069059,0.037768,0.0017809,0.011865,0.00072242,0,0,0.067349,-0.026218,0,0.0037566,0,0,0,0.037783,0.0017664,0.011865,1.1496,0.017138,0.032178,1.1603e-06,0.63,0.23,0
0.025426,0.0069958,0.037775,0.0016137,0.011817,0.00065496,0,0,0.067492,-0.026528,0,0.0034058,0,0,0,0.037787,0.0016019,0.011817,1.0373,0.017069,0.032312,1.1669e-06,0.64,0.23,0
0.026101,0.0070818,0.037778,0.0014575,0.011771,0.00058919,0,0,0.067619,-0.026814,0,0.0030638,0,0,0,0.037788,0.001448,0.011771,0.92912,0.017002,0.032435,1.1727e-06,0.65,0.23,0
0.026778,0.0071637,0.037778,0.001312,0.011727,0.00052561,0,0,0.067733,-0.027079,0,0.0027332,0,0,0,0.037786,0.0013044,0.011727,0.82561,0.016939,0.032547,1.1778e-06,0.66,0.23,0
0.027456,0.0072417,0.037775,0.0011765,0.011685,0.00046461,0,0,0.067833,-0.027323,0,0.002416,0,0,0,0.037781,0.0011707,0.011685,0.72721,0.016879,0.032648,1.1823e-06,0.67,0.23,0
0.028135,0.0073158,0.037769,0.0010508,0.011646,0.00040654,0,0,0.067921,-0.027548,0,0.002114,0,0,0,0.037774,0.0010463,0.011646,0.63425,0.016822,0.032741,1.1862e-06,0.68,0.23,0
0.028814,0.0073861,0.037762,0.00093406,0.011609,0.00035162,0,0,0.067998,-0.027754,0,0.0018284,0,0,0,0.037765,0.0009307,0.011609,0.54699,0.016768,0.032825,1.1896e-06,0.69,0.23,0
0.029494,0.0074527,0.037752,0.00082594,0.011573,0.00030006,0,0,0.068064,-0.027943,0,0.0015603,0,0,0,0.037754,0.0008235,0.011573,0.46555,0.016717,0.032901,1.1925e-06,0.7,0.23,0
0.030176,0.0075157,0.037741,0.00072586,0.01154,0.00025197,0,0,0.068122,-0.028117,0,0.0013102,0,0,0,0.037742,0.00072414,0.01154,0.39,0.016669,0.032969,1.1949e-06,0.71,0.23,0
0.030857,0.0075753,0.037728,0.00063329,0.011508,0.00020741,0,0,0.068172,-0.028275,0,0.0010785,0,0,0,0.037729,0.00063213,0.011508,0.32035,0.016623,0.033031,1.197e-06,0.72,0.23,0
0.031539,0.0076314,0.037715,0.00054772,0.011479,0.00016641,0,0,0.068214,-0.028421,0,0.00086531,0,0,0,0.037716,0.00054698,0.011479,0.25652,0.016581,0.033086,1.1987e-06,0.73,0.23,0
0.032221,0.0076843,0.037701,0.00046869,0.011451,0.00012894,0,0,0.06825,-0.028554,0,0.00067047,0,0,0,0.037701,0.00046825,0.011451,0.19841,0.01654,0.033136,1.2001e-06,0.74,0.23,0
0.032904,0.007734,0.037686,0.00039574,0.011425,9.4952e-05,0,0,0.06828,-0.028675,0,0.00049375,0,0,0,0.037686,0.0003955,0.011425,0.14589,0.016502,0.033181,1.2013e-06,0.75,0.23,0
0.033587,0.0077808,0.037671,0.00032843,0.0114,6.4374e-05,0,0,0.068306,-0.028786,0,0.00033474,0,0,0,0.037671,0.00032832,0.0114,0.098769,0.016467,0.033221,1.2022e-06,0.76,0.23,0
0.03427,0.0078246,0.037657,0.00026636,0.011377,3.7103e-05,0,0,0.068327,-0.028887,0,0.00019294,0,0,0,0.037657,0.00026632,0.011377,0.056856,0.016433,0.033257,1.2029e-06,0.77,0.23,0
0.034953,0.0078656,0.037642,0.00020917,0.011355,1.3026e-05,0,0,0.068344,-0.02898,0,6.7733e-05,0,0,0,0.037642,0.00020916,0.011355,0.019938,0.016402,0.033289,1.2035e-06,0.78,0.23,0
0.035637,0.007904,0.037627,0.0001565,0.011335,-7.9882e-06,0,0,0.068359,-0.029064,0,-4.1539e-05,0,0,0,0.037627,0.0001565,0.011335,-0.012215,0.016373,0.033319,1.2039e-06,0.79,0.23,0
0.036321,0.0079398,0.037612,0.00010804,0.011316,-2.6076e-05,0,0,0.06837,-0.029141,0,-0.00013559,0,0,0,0.037612,0.00010802,0.011316,-0.039836,0.016345,0.033344,1.2042e-06,0.8,0.23,0
0.037004,0.0079731,0.037598,6.3494e-05,0.011298,-4.1381e-05,0,0,0.068379,-0.029211,0,-0.00021518,0,0,0,0.037598,6.3448e-05,0.011298,-0.063167,0.01632,0.033367,1.2044e-06,0.81,0.23,0
0.037688,0.0080041,0.037585,2.2596e-05,0.011282,-5.4054e-05,0,0,0.068386,-0.029275,0,-0.00028108,0,0,0,0.037585,2.2518e-05,0.011282,-0.082451,0.016296,0.033388,1.2045e-06,0.82,0.23,0
0.038372,0.0080328,0.037572,-1.4901e-05,0.011267,-6.4244e-05,0,0,0.068392,-0.029333,0,-0.00033407,0,0,0,0.037572,-1.5011e-05,0.011267,-0.097932,0.016275,0.033406,1.2045e-06,0.83,0.23,0
0.039056,0.0080594,0.037559,-4.9221e-05,0.011253,-7.2106e-05,0,0,0.068396,-0.029386,0,-0.00037495,0,0,0,0.037559,-4.9359e-05,0.011253,-0.10985,0.016254,0.033423,1.2045e-06,0.84,0.23,0
0.03974,0.008084,0.037547,-8.0567e-05,0.01124,-7.7792e-05,0,0,0.068399,-0.029434,0,-0.00040452,0,0,0,0.037547,-8.0728e-05,0.01124,-0.11845,0.016236,0.033437,1.2044e-06,0.85,0.23,0
0.040424,0.0081065,0.037536,-0.00010912,0.011228,-8.1453e-05,0,0,0.068401,-0.029477,0,-0.00042355,0,0,0,0.037536,-0.0001093,0.011228,-0.12397,0.016218,0.03345,1.2043e-06,0.86,0.23,0
0.041108,0.0081271,0.037526,-0.00013506,0.011217,-8.324e-05,0,0,0.068402,-0.029516,0,-0.00043285,0,0,0,0.037526,-0.00013525,0.011217,-0.12664,0.016203,0.033462,1.2042e-06,0.87,0.23,0
0.041792,0.008146,0.037516,-0.00015853,0.011207,-8.33e-05,0,0,0.068403,-0.029551,0,-0.00043316,0,0,0,0.037516,-0.00015871,0.011207,-0.12668,0.016188,0.033472,1.2041e-06,0.88,0.23,0
0.042476,0.008163,0.037507,-0.00017966,0.011198,-8.178e-05,0,0,0.068403,-0.029582,0,-0.00042525,0,0,0,0.037507,-0.00017984,0.011198,-0.12433,0.016175,0.033481,1.2039e-06,0.89,0.23,0
0.04316,0.0081784,0.037499,-0.00019858,0.01119,-7.8822e-05,0,0,0.068402,-0.02961,0,-0.00040987,0,0,0,0.037499,-0.00019874,0.01119,-0.1198,0.016163,0.033488,1.2038e-06,0.9,0.23,0
0.043844,0.0081921,0.037491,-0.00021539,0.011183,-7.4568e-05,0,0,0.068402,-0.029635,0,-0.00038775,0,0,0,0.037491,-0.00021554,0.011183,-0.11331,0.016153,0.033495,1.2036e-06,0.91,0.23,0
0.044528,0.0082042,0.037484,-0.00023019,0.011176,-6.9156e-05,0,0,0.068401,-0.029657,0,-0.00035961,0,0,0,0.037485,-0.00023031,0.011176,-0.10506,0.016144,0.033501,1.2035e-06,0.92,0.23,0
0.045212,0.0082148,0.037479,-0.00024306,0.011171,-6.272e-05,0,0,0.068401,-0.029676,0,-0.00032614,0,0,0,0.037479,-0.00024316,0.011171,-0.095266,0.016135,0.033506,1.2034e-06,0.93,0.23,0
0.045896,0.008224,0.037473,-0.00025407,0.011166,-5.5395e-05,0,0,0.0684,-0.029692,0,-0.00028806,0,0,0,0.037473,-0.00025415,0.011166,-0.084127,0.016128,0.03351,1.2032e-06,0.94,0.23,0
0.04658,0.0082316,0.037469,-0.00026329,0.011162,-4.7312e-05,0,0,0.068399,-0.029705,0,-0.00024602,0,0,0,0.037469,-0.00026335,0.011162,-0.071842,0.016123,0.033514,1.2031e-06,0.95,0.23,0
0.047264,0.0082378,0.037466,-0.00027077,0.011158,-3.86e-05,0,0,0.068399,-0.029716,0,-0.00020072,0,0,0,0.037466,-0.00027081,0.011158,-0.058607,0.016118,0.033517,1.203e-06,0.96,0.23,0
0.047948,0.0082426,0.037463,-0.00027654,0.011156,-2.9387e-05,0,0,0.068398,-0.029724,0,-0.00015281,0,0,0,0.037463,-0.00027656,0.011156,-0.044615,0.016114,0.033519,1.203e-06,0.97,0.23,0
0.048632,0.008246,0.037461,-0.00028064,0.011154,-1.9799e-05,0,0,0.068398,-0.02973,0,-0.00010295,0,0,0,0.037461,-0.00028065,0.011154,-0.030057,0.016111,0.03352,1.2029e-06,0.98,0.23,0
0.049316,0.0082481,0.03746,-0.00028309,0.011153,-9.9616e-06,0,0,0.068397,-0.029734,0,-5.18e-05,0,0,0,0.03746,-0.00028309,0.011153,-0.015122,0.01611,0.033521,1.2029e-06,0.99,0.23,0
0.05,0.0082487,0.037459,-0.0002839,0.011153,1.3097e-05,0,0,0.068397,-0.029735,0,6.8104e-05,0,0,0,0.037459,-0.00028391,0.011153,0.019882,0.016109,0.033522,1.2029e-06,1,0.23,0
0,0,0.034761,0.014898,0.014898,0.0042952,0,0,0.025823,3.2526e-19,0,0.011168,0,0,0,0.03565,0.014009,0.014898,11.694,0.021519,0.021211,4.8722e-07,0,0.24,0
0.00025823,0.00011168,0.034709,0.014253,0.014689,0.0042977,0,0,0.026026,-0.0005662,0,0.011174,0,0,0,0.035575,0.013387,0.014689,11.396,0.021217,0.021567,5.0888e-07,0.01,0.24,0
0.00052053,0.00022615,0.034926,0.013705,0.01459,0.0043409,0,0,0.026438,-0.0011493,0,0.011286,0,0,0,0.03578,0.012852,0.01459,11.125,0.021074,0.022111,5.4362e-07,0.02,0.24,0
0.00078698,0.00034305,0.035145,0.013144,0.014487,0.0043631,0,0,0.026856,-0.0017457,0,0.011344,0,0,0,0.035978,0.01231,0.014487,10.817,0.020925,0.022659,5.7894e-07,0.03,0.24,0
0.0010576,0.00046197,0.035362,0.012571,0.01438,0.0043639,0,0,0.027276,-0.0023511,0,0.011346,0,0,0,0.036169,0.011764,0.01438,10.477,0.020771,0.023207,6.1455e-07,0.04,0.24,0
0.0013325,0.0005825,0.035576,0.011992,0.01427,0.0043429,0,0,0.027697,-0.0029615,0,0.011292,0,0,0,0.03635,0.011218,0.01427,10.11,0.020613,0.023753,6.5016e-07,0.05,0.24,0
0.0016116,0.00070422,0.035784,0.01141,0.014158,0.0043006,0,0,0.028113,-0.0035723,0,0.011181,0,0,0,0.03652,0.010674,0.014158,9.7187,0.020451,0.024292,6.8547e-07,0.06,0.24,0
0.0018948,0.00082673,0.035984,0.010829,0.014044,0.0042376,0,0,0.028522,-0.0041796,0,0.011018,0,0,0,0.036679,0.010134,0.014044,9.3097,0.020286,0.024822,7.202e-07,0.07,0.24,0
0.002182,0.00094962,0.036175,0.010252,0.013928,0.0041552,0,0,0.028921,-0.0047793,0,0.010804,0,0,0,0.036825,0.0096019,0.013928,8.8873,0.020118,0.025338,7.5408e-07,0.08,0.24,0
0.0024732,0.0010725,0.036355,0.0096819,0.013811,0.004055,0,0,0.029307,-0.0053679,0,0.010543,0,0,0,0.036958,0.0090791,0.013811,8.456,0.019949,0.02584,7.8688e-07,0.09,0.24,0
0.0027682,0.0011951,0.036522,0.0091226,0.013694,0.0039388,0,0,0.029678,-0.0059422,0,0.010241,0,0,0,0.037077,0.0085676,0.013694,8.0202,0.01978,0.026324,8.184e-07,0.1,0.24,0
0.0030668,0.001317,0.036677,0.0085761,0.013576,0.0038089,0,0,0.030031,-0.0064996,0,0.0099031,0,0,0,0.037184,0.008069,0.013576,7.5839,0.019609,0.026789,8.4849e-07,0.11,0.24,0
0.0033688,0.0014379,0.036817,0.0080444,0.013458,0.0036674,0,0,0.030366,-0.007038,0,0.0095352,0,0,0,0.037277,0.0075844,0.013458,7.1508,0.01944,0.027235,8.7701e-07,0.12,0.24,0
0.0036741,0.0015576,0.036942,0.0075291,0.013341,0.0035167,0,0,0.030681,-0.0075559,0,0.0091433,0,0,0,0.037357,0.0071144,0.013341,6.7241,0.019271,0.02766,9.0389e-07,0.13,0.24,0
0.0039824,0.0016759,0.037053,0.007031,0.013225,0.0033591,0,0,0.030976,-0.0080523,0,0.0087336,0,0,0,0.037424,0.0066598,0.013225,6.3068,0.019103,0.028063,9.2908e-07,0.14,0.24,0
0.0042936,0.0017926,0.037149,0.0065511,0.01311,0.0031969,0,0,0.03125,-0.0085264,0,0.0083119,0,0,0,0.037479,0.0062206,0.01311,5.9015,0.018936,0.028446,9.5256e-07,0.15,0.24,0
0.0046074,0.0019076,0.03723,0.0060894,0.012996,0.0030323,0,0,0.031505,-0.0089784,0,0.007884,0,0,0,0.037523,0.0057969,0.012996,5.5102,0.018772,0.028809,9.7434e-07,0.16,0.24,0
0.0049237,0.0020208,0.037298,0.0056459,0.012883,0.0028674,0,0,0.031739,-0.0094084,0,0.0074551,0,0,0,0.037556,0.0053883,0.012883,5.1347,0.018609,0.029152,9.9446e-07,0.17,0.24,0
0.0052422,0.0021322,0.037353,0.0052203,0.012772,0.002704,0,0,0.031955,-0.0098171,0,0.0070303,0,0,0,0.037579,0.0049943,0.012772,4.7767,0.018448,0.029475,1.013e-06,0.18,0.24,0
0.0055628,0.0022416,0.037395,0.0048118,0.012662,0.0025438,0,0,0.032153,-0.010205,0,0.0066139,0,0,0,0.037592,0.0046144,0.012662,4.4373,0.01829,0.029781,1.03e-06,0.19,0.24,0
0.0058852,0.0023491,0.037426,0.0044197,0.012554,0.0023884,0,0,0.032334,-0.010574,0,0.0062099,0,0,0,0.037598,0.0042478,0.012554,4.1175,0.018133,0.03007,1.0456e-06,0.2,0.24,0
0.0062094,0.0024548,0.037446,0.0040429,0.012447,0.0022392,0,0,0.032499,-0.010925,0,0.0058219,0,0,0,0.037595,0.0038935,0.012447,3.8181,0.017978,0.030343,1.0598e-06,0.21,0.24,0
0.0065352,0.0025586,0.037456,0.0036802,0.012341,0.0020972,0,0,0.03265,-0.011259,0,0.0054528,0,0,0,0.037586,0.0035505,0.012341,3.5395,0.017826,0.030602,1.0728e-06,0.22,0.24,0
0.0068624,0.0026608,0.037458,0.0033305,0.012237,0.0019636,0,0,0.032788,-0.011578,0,0.0051054,0,0,0,0.037571,0.0032179,0.012237,3.2822,0.017675,0.030849,1.0846e-06,0.23,0.24,0
0.007191,0.0027613,0.037452,0.0029922,0.012133,0.0018391,0,0,0.032915,-0.011883,0,0.0047817,0,0,0,0.03755,0.0028944,0.012133,3.0463,0.017526,0.031084,1.0955e-06,0.24,0.24,0
0.0075207,0.0028603,0.03744,0.0026641,0.012031,0.0017245,0,0,0.033031,-0.012177,0,0.0044836,0,0,0,0.037525,0.0025788,0.012031,2.8319,0.017378,0.031309,1.1054e-06,0.25,0.24,0
0.0078516,0.0029579,0.037422,0.0023446,0.01193,0.0016202,0,0,0.033139,-0.012461,0,0.0042125,0,0,0,0.037496,0.0022699,0.01193,2.639,0.017232,0.031527,1.1146e-06,0.26,0.24,0
0.0081835,0.0030543,0.037399,0.0020322,0.011829,0.0015267,0,0,0.03324,-0.012736,0,0.0039694,0,0,0,0.037464,0.0019664,0.011829,2.4672,0.017087,0.031738,1.1232e-06,0.27,0.24,0
0.0085164,0.0031496,0.037372,0.0017254,0.011729,0.0014442,0,0,0.033335,-0.013005,0,0.003755,0,0,0,0.03743,0.001667,0.011729,2.3163,0.016942,0.031944,1.1312e-06,0.28,0.24,0
0.0088502,0.0032439,0.037342,0.0014226,0.011629,0.001373,0,0,0.033427,-0.013269,0,0.0035697,0,0,0,0.037395,0.0013702,0.011629,2.1858,0.016798,0.032147,1.1388e-06,0.29,0.24,0
0.0091849,0.0033375,0.037311,0.0011224,0.01153,0.0013129,0,0,0.033515,-0.01353,0,0.0034136,0,0,0,0.037358,0.0010748,0.01153,2.0751,0.016654,0.032349,1.1461e-06,0.3,0.24,0
0.0095205,0.0034304,0.037278,0.00082302,0.01143,0.001264,0,0,0.033602,-0.013789,0,0.0032865,0,0,0,0.037322,0.00077925,0.01143,1.9835,0.01651,0.032551,1.1532e-06,0.31,0.24,0
0.009857,0.0035228,0.037245,0.0005231,0.011331,0.001226,0,0,0.033689,-0.01405,0,0.0031876,0,0,0,0.037286,0.00048221,0.011331,1.9101,0.016366,0.032756,1.1602e-06,0.32,0.24,0
0.010194,0.0036149,0.037213,0.00022106,0.01123,0.0011985,0,0,0.033778,-0.014312,0,0.0031162,0,0,0,0.037252,0.00018227,0.01123,1.8538,0.016221,0.032965,1.1674e-06,0.33,0.24,0
0.010533,0.0037068,0.037183,-8.4555e-05,0.01113,0.0011811,0,0,0.033869,-0.014578,0,0.0030709,0,0,0,0.03722,-0.00012195,0.01113,1.8134,0.016076,0.03318,1.1746e-06,0.34,0.24,0
0.010872,0.0037987,0.037155,-0.00039518,0.011028,0.0011731,0,0,0.033965,-0.01485,0,0.00305,0,0,0,0.037192,-0.00043179,0.011028,1.7876,0.015929,0.033402,1.1822e-06,0.35,0.24,0
0.011212,0.0038907,0.03713,-0.00071214,0.010925,0.0011737,0,0,0.034066,-0.015129,0,0.0030517,0,0,0,0.037167,-0.00074851,0.010925,1.7748,0.015781,0.033634,1.1902e-06,0.36,0.24,0
0.011553,0.0039828,0.03711,-0.0010367,0.010822,0.0011821,0,0,0.034174,-0.015416,0,0.0030734,0,0,0,0.037146,-0.0010733,0.010822,1.7732,0.015632,0.033876,1.1986e-06,0.37,0.24,0
0.011895,0.0040751,0.037094,-0.0013699,0.010717,0.0011971,0,0,0.03429,-0.015713,0,0.0031123,0,0,0,0.037131,-0.0014072,0.010717,1.7808,0.01548,0.034131,1.2075e-06,0.38,0.24,0
0.012239,0.0041678,0.037084,-0.0017129,0.010611,0.0012175,0,0,0.034414,-0.016021,0,0.0031654,0,0,0,0.037122,-0.001751,0.010611,1.7956,0.015327,0.0344,1.2171e-06,0.39,0.24,0
0.012584,0.0042609,0.037079,-0.0020662,0.010504,0.001242,0,0,0.034548,-0.016341,0,0.0032291,0,0,0,0.037118,-0.0021055,0.010504,1.8154,0.015172,0.034683,1.2274e-06,0.4,0.24,0
0.01293,0.0043544,0.037081,-0.0024304,0.010395,0.0012691,0,0,0.034691,-0.016673,0,0.0032995,0,0,0,0.037122,-0.0024711,0.010395,1.8377,0.015015,0.034982,1.2383e-06,0.41,0.24,0
0.013277,0.0044482,0.037089,-0.0028058,0.010285,0.0012972,0,0,0.034845,-0.017018,0,0.0033727,0,0,0,0.037131,-0.002848,0.010285,1.8604,0.014856,0.035295,1.2499e-06,0.42,0.24,0
0.013627,0.0045424,0.037104,-0.0031924,0.010174,0.0013247,0,0,0.03501,-0.017376,0,0.0034443,0,0,0,0.037148,-0.0032359,0.010174,1.8809,0.014695,0.035625,1.2622e-06,0.43,0.24,0
0.013978,0.0046368,0.037126,-0.0035898,0.010061,0.00135,0,0,0.035184,-0.017746,0,0.0035101,0,0,0,0.03717,-0.0036345,0.010061,1.897,0.014532,0.035969,1.275e-06,0.44,0.24,0
0.01433,0.0047314,0.037154,-0.0039973,0.0099469,0.0013715,0,0,0.035369,-0.018128,0,0.0035659,0,0,0,0.037199,-0.004043,0.0099469,1.9067,0.014368,0.036327,1.2884e-06,0.45,0.24,0
0.014685,0.004826,0.037187,-0.004414,0.009832,0.0013875,0,0,0.035562,-0.01852,0,0.0036075,0,0,0,0.037234,-0.0044602,0.009832,1.9081,0.014202,0.036698,1.3023e-06,0.46,0.24,0
0.015042,0.0049206,0.037226,-0.0048385,0.0097163,0.0013967,0,0,0.035763,-0.018921,0,0.0036314,0,0,0,0.037273,-0.0048848,0.0097163,1.8996,0.014035,0.03708,1.3164e-06,0.47,0.24,0
0.0154,0.0050149,0.037269,-0.0052693,0.0096001,0.0013978,0,0,0.03597,-0.01933,0,0.0036343,0,0,0,0.037315,-0.0053152,0.0096001,1.88,0.013867,0.03747,1.3306e-06,0.48,0.24,0
0.015761,0.0051087,0.037316,-0.0057046,0.0094835,0.0013898,0,0,0.036183,-0.019745,0,0.0036135,0,0,0,0.037361,-0.0057494,0.0094835,1.8484,0.013698,0.037866,1.3449e-06,0.49,0.24,0
0.016124,0.0052018,0.037345,-0.00061243,0.01102,0.0013728,0,0,0.0503,-0.020162,0,0.0053323,0,0,0,0.037395,-0.00066289,0.01102,2.1084,0.015917,0.033837,1.1782e-06,0.5,0.24,0
0.016767,0.0053293,0.037415,0.0046554,0.012621,0.0013489,0,0,0.064464,-0.020711,0,0.0070145,0,0,0,0.03747,0.0046,0.012621,2.354,0.018231,0.029684,1.02e-06,0.51,0.24,0
0.017413,0.0054548,0.037465,0.0043786,0.012553,0.0013192,0,0,0.064771,-0.021254,0,0.0068601,0,0,0,0.037517,0.0043261,0.012553,2.2797,0.018132,0.029938,1.0353e-06,0.52,0.24,0
0.018062,0.0055782,0.037513,0.0041063,0.012486,0.0012837,0,0,0.065072,-0.021787,0,0.0066751,0,0,0,0.037563,0.004057,0.012486,2.1973,0.018035,0.030187,1.0503e-06,0.53,0.24,0
0.018715,0.0056991,0.03756,0.0038397,0.01242,0.0012425,0,0,0.065364,-0.022308,0,0.0064609,0,0,0,0.037606,0.003794,0.01242,2.1073,0.01794,0.03043,1.0647e-06,0.54,0.24,0
0.01937,0.0058173,0.037604,0.0035801,0.012355,0.001196,0,0,0.065647,-0.022815,0,0.0062194,0,0,0,0.037646,0.0035381,0.012355,2.0108,0.017847,0.030665,1.0786e-06,0.55,0.24,0
0.020028,0.0059325,0.037645,0.0033285,0.012292,0.0011449,0,0,0.065918,-0.023305,0,0.0059533,0,0,0,0.037683,0.0032904,0.012292,1.9087,0.017755,0.030892,1.0919e-06,0.56,0.24,0
0.020688,0.0060447,0.037683,0.0030858,0.012231,0.0010896,0,0,0.066175,-0.023776,0,0.0056659,0,0,0,0.037717,0.0030516,0.012231,1.8021,0.017666,0.031109,1.1044e-06,0.57,0.24,0
0.021351,0.0061536,0.037716,0.0028529,0.012171,0.0010309,0,0,0.066419,-0.024227,0,0.0053609,0,0,0,0.037747,0.0028224,0.012171,1.6923,0.01758,0.031315,1.1162e-06,0.58,0.24,0
0.022016,0.006259,0.037746,0.0026301,0.012113,0.00096961,0,0,0.066646,-0.024655,0,0.005042,0,0,0,0.037773,0.0026033,0.012113,1.5804,0.017496,0.03151,1.1272e-06,0.59,0.24,0
0.022684,0.0063608,0.037771,0.002418,0.012057,0.00090639,0,0,0.066858,-0.025061,0,0.0047132,0,0,0,0.037795,0.0023948,0.012057,1.4676,0.017415,0.031693,1.1373e-06,0.6,0.24,0
0.023354,0.006459,0.037793,0.0022168,0.012003,0.00084201,0,0,0.067054,-0.025444,0,0.0043784,0,0,0,0.037813,0.0021969,0.012003,1.3551,0.017337,0.031865,1.1467e-06,0.61,0.24,0
0.024025,0.0065534,0.03781,0.0020266,0.011951,0.00077719,0,0,0.067233,-0.025803,0,0.0040414,0,0,0,0.037827,0.0020097,0.011951,1.2436,0.017263,0.032025,1.1552e-06,0.62,0.24,0
0.024698,0.0066441,0.037823,0.0018473,0.011901,0.00071261,0,0,0.067397,-0.02614,0,0.0037056,0,0,0,0.037837,0.0018332,0.011901,1.1343,0.017191,0.032174,1.1629e-06,0.63,0.24,0
0.025373,0.0067309,0.037832,0.0016788,0.011853,0.00064886,0,0,0.067546,-0.026454,0,0.0033741,0,0,0,0.037844,0.0016671,0.011853,1.0279,0.017122,0.032311,1.1698e-06,0.64,0.24,0
0.026049,0.006814,0.037838,0.0015208,0.011808,0.00058651,0,0,0.06768,-0.026746,0,0.0030498,0,0,0,0.037848,0.0015113,0.011808,0.92497,0.017056,0.032438,1.176e-06,0.65,0.24,0
0.026727,0.0068932,0.037841,0.0013729,0.011764,0.000526,0,0,0.0678,-0.027017,0,0.0027352,0,0,0,0.037849,0.0013653,0.011764,0.82618,0.016993,0.032554,1.1816e-06,0.66,0.24,0
0.027405,0.0069687,0.037841,0.0012349,0.011723,0.00046774,0,0,0.067907,-0.027269,0,0.0024323,0,0,0,0.037847,0.0012289,0.011723,0.73196,0.016933,0.032661,1.1865e-06,0.67,0.24,0
0.028085,0.0070405,0.037838,0.0011062,0.011683,0.00041206,0,0,0.068003,-0.027501,0,0.0021427,0,0,0,0.037843,0.0011015,0.011683,0.64264,0.016876,0.032758,1.1908e-06,0.68,0.24,0
0.028765,0.0071087,0.037833,0.00098636,0.011646,0.00035922,0,0,0.068087,-0.027715,0,0.0018679,0,0,0,0.037837,0.00098286,0.011646,0.5585,0.016822,0.032847,1.1945e-06,0.69,0.24,0
0.029447,0.0071734,0.037826,0.00087496,0.01161,0.0003094,0,0,0.068161,-0.027912,0,0.0016088,0,0,0,0.037829,0.00087237,0.01161,0.4797,0.016771,0.032928,1.1978e-06,0.7,0.24,0
0.030128,0.0072347,0.037817,0.0007715,0.011577,0.00026274,0,0,0.068226,-0.028093,0,0.0013662,0,0,0,0.037819,0.00076964,0.011577,0.40633,0.016722,0.033001,1.2006e-06,0.71,0.24,0
0.030811,0.0072926,0.037807,0.0006755,0.011545,0.00021934,0,0,0.068282,-0.02826,0,0.0011405,0,0,0,0.037809,0.00067421,0.011545,0.33843,0.016676,0.033067,1.2031e-06,0.72,0.24,0
0.031494,0.0073472,0.037796,0.0005865,0.011515,0.00017923,0,0,0.068332,-0.028414,0,0.00093199,0,0,0,0.037797,0.00058564,0.011515,0.27597,0.016633,0.033128,1.2051e-06,0.73,0.24,0
0.032178,0.0073987,0.037784,0.00050407,0.011486,0.00014242,0,0,0.068374,-0.028554,0,0.0007406,0,0,0,0.037785,0.00050352,0.011486,0.21889,0.016591,0.033182,1.2069e-06,0.74,0.24,0
0.032862,0.0074472,0.037771,0.00042775,0.01146,0.00010889,0,0,0.06841,-0.028683,0,0.00056624,0,0,0,0.037772,0.00042744,0.01146,0.16707,0.016553,0.033231,1.2083e-06,0.75,0.24,0
0.033546,0.0074928,0.037758,0.00035717,0.011435,7.8579e-05,0,0,0.068441,-0.028801,0,0.00040861,0,0,0,0.037758,0.000357,0.011435,0.12038,0.016517,0.033275,1.2095e-06,0.76,0.24,0
0.03423,0.0075356,0.037745,0.00029193,0.011411,5.1409e-05,0,0,0.068468,-0.02891,0,0.00026733,0,0,0,0.037745,0.00029186,0.011411,0.078646,0.016483,0.033315,1.2105e-06,0.77,0.24,0
0.034915,0.0075756,0.037731,0.00023167,0.011389,2.7287e-05,0,0,0.06849,-0.029009,0,0.00014189,0,0,0,0.037731,0.00023165,0.011389,0.041691,0.016451,0.033351,1.2113e-06,0.78,0.24,0
0.0356,0.0076131,0.037718,0.00017607,0.011368,6.1026e-06,0,0,0.068509,-0.029099,0,3.1734e-05,0,0,0,0.037718,0.00017606,0.011368,0.0093138,0.016421,0.033384,1.212e-06,0.79,0.24,0
0.036285,0.0076481,0.037704,0.0001248,0.011349,-1.2263e-05,0,0,0.068524,-0.029182,0,-6.3769e-05,0,0,0,0.037704,0.0001248,0.011349,-0.018697,0.016393,0.033413,1.2125e-06,0.8,0.24,0
0.036971,0.0076808,0.037691,7.7596e-05,0.011331,-2.794e-05,0,0,0.068537,-0.029258,0,-0.00014529,0,0,0,0.037691,7.7575e-05,0.011331,-0.04256,0.016366,0.033439,1.2128e-06,0.81,0.24,0
0.037656,0.0077111,0.037678,3.418e-05,0.011314,-4.1062e-05,0,0,0.068548,-0.029327,0,-0.00021352,0,0,0,0.037678,3.4135e-05,0.011314,-0.062497,0.016342,0.033462,1.2131e-06,0.82,0.24,0
0.038342,0.0077392,0.037666,-5.6887e-06,0.011298,-5.1768e-05,0,0,0.068556,-0.02939,0,-0.0002692,0,0,0,0.037666,-5.7599e-06,0.011298,-0.078736,0.016319,0.033483,1.2133e-06,0.83,0.24,0
0.039027,0.0077653,0.037654,-4.2232e-05,0.011284,-6.0201e-05,0,0,0.068563,-0.029447,0,-0.00031305,0,0,0,0.037654,-4.2328e-05,0.011284,-0.091502,0.016298,0.033501,1.2134e-06,0.84,0.24,0
0.039713,0.0077893,0.037643,-7.5655e-05,0.01127,-6.6504e-05,0,0,0.068569,-0.029499,0,-0.00034582,0,0,0,0.037643,-7.5772e-05,0.01127,-0.10102,0.016279,0.033518,1.2135e-06,0.85,0.24,0
0.040399,0.0078114,0.037632,-0.00010614,0.011258,-7.0819e-05,0,0,0.068573,-0.029546,0,-0.00036826,0,0,0,0.037632,-0.00010627,0.011258,-0.10752,0.016261,0.033533,1.2135e-06,0.86,0.24,0
0.041084,0.0078316,0.037622,-0.00013386,0.011246,-7.3291e-05,0,0,0.068576,-0.029589,0,-0.00038111,0,0,0,0.037622,-0.000134,0.011246,-0.11122,0.016245,0.033546,1.2135e-06,0.87,0.24,0
0.04177,0.0078501,0.037612,-0.00015897,0.011236,-7.406e-05,0,0,0.068579,-0.029627,0,-0.00038511,0,0,0,0.037613,-0.00015911,0.011236,-0.11234,0.01623,0.033558,1.2134e-06,0.88,0.24,0
0.042456,0.0078668,0.037604,-0.00018159,0.011227,-7.3269e-05,0,0,0.06858,-0.029661,0,-0.000381,0,0,0,0.037604,-0.00018174,0.011227,-0.1111,0.016216,0.033568,1.2133e-06,0.89,0.24,0
0.043142,0.0078819,0.037596,-0.00020187,0.011218,-7.1055e-05,0,0,0.068581,-0.029692,0,-0.00036949,0,0,0,0.037596,-0.000202,0.011218,-0.10771,0.016204,0.033577,1.2132e-06,0.9,0.24,0
0.043828,0.0078953,0.037588,-0.0002199,0.01121,-6.7557e-05,0,0,0.068582,-0.029719,0,-0.0003513,0,0,0,0.037588,-0.00022002,0.01121,-0.10238,0.016193,0.033585,1.2131e-06,0.91,0.24,0
0.044513,0.0079072,0.037582,-0.00023578,0.011204,-6.2909e-05,0,0,0.068583,-0.029743,0,-0.00032713,0,0,0,0.037582,-0.00023589,0.011204,-0.095311,0.016183,0.033592,1.213e-06,0.92,0.24,0
0.045199,0.0079176,0.037576,-0.0002496,0.011198,-5.7245e-05,0,0,0.068583,-0.029763,0,-0.00029767,0,0,0,0.037576,-0.00024969,0.011198,-0.086711,0.016175,0.033598,1.2129e-06,0.93,0.24,0
0.045885,0.0079266,0.037571,-0.00026144,0.011193,-5.0696e-05,0,0,0.068583,-0.029781,0,-0.00026362,0,0,0,0.037571,-0.00026151,0.011193,-0.076777,0.016167,0.033603,1.2128e-06,0.94,0.24,0
0.046571,0.0079341,0.037567,-0.00027135,0.011189,-4.3392e-05,0,0,0.068583,-0.029796,0,-0.00022564,0,0,0,0.037567,-0.0002714,0.011189,-0.065707,0.016161,0.033607,1.2128e-06,0.95,0.24,0
0.047257,0.0079402,0.037563,-0.00027938,0.011185,-3.5462e-05,0,0,0.068583,-0.029808,0,-0.0001844,0,0,0,0.037563,-0.00027942,0.011185,-0.053692,0.016156,0.03361,1.2127e-06,0.96,0.24,0
0.047942,0.0079449,0.03756,-0.00028559,0.011182,-2.7032e-05,0,0,0.068582,-0.029817,0,-0.00014057,0,0,0,0.03756,-0.00028561,0.011182,-0.040925,0.016152,0.033613,1.2126e-06,0.97,0.24,0
0.048628,0.0079483,0.037558,-0.00029,0.01118,-1.8229e-05,0,0,0.068582,-0.029823,0,-9.4789e-05,0,0,0,0.037558,-0.00029001,0.01118,-0.027595,0.01615,0.033614,1.2126e-06,0.98,0.24,0
0.049314,0.0079503,0.037557,-0.00029264,0.011179,-9.1764e-06,0,0,0.068582,-0.029827,0,-4.7717e-05,0,0,0,0.037557,-0.00029264,0.011179,-0.013891,0.016148,0.033615,1.2126e-06,0.99,0.24,0
0.05,0.0079509,0.037557,-0.00029352,0.011179,1.286e-05,0,0,0.068582,-0.029829,0,6.687e-05,0,0,0,0.037557,-0.00029352,0.011179,0.019466,0.016147,0.033616,1.2126e-06,1,0.24,0
0,0,0.034587,0.014823,0.014823,0.0040814,0,0,0.025693,-8.1315e-20,0,0.010612,0,0,0,0.035397,0.014013,0.014823,11.221,0.021411,0.02099,4.7259e-07,0,0.25,0
0.00025693,0.00010612,0.034536,0.014201,0.014621,0.004084,0,0,0.02589,-0.0005465,0,0.010618,0,0,0,0.035326,0.013411,0.014621,10.942,0.021119,0.021336,4.934e-07,0.01,0.25,0
0.0005178,0.00021487,0.034746,0.013673,0.014526,0.0041253,0,0,0.026287,-0.0011088,0,0.010726,0,0,0,0.035525,0.012894,0.014526,10.691,0.020982,0.021861,5.2652e-07,0.02,0.25,0
0.00078267,0.00032592,0.034958,0.013132,0.014427,0.0041478,0,0,0.02669,-0.0016837,0,0.010784,0,0,0,0.035719,0.01237,0.014427,10.405,0.020839,0.022392,5.6025e-07,0.03,0.25,0
0.0010516,0.0004389,0.035168,0.01258,0.014324,0.0041507,0,0,0.027096,-0.0022674,0,0.010792,0,0,0,0.035906,0.011842,0.014324,10.09,0.020691,0.022924,5.9434e-07,0.04,0.25,0
0.0013246,0.00055344,0.035375,0.012022,0.014219,0.0041339,0,0,0.027502,-0.0028563,0,0.010748,0,0,0,0.036085,0.011312,0.014219,9.748,0.020539,0.023455,6.2853e-07,0.05,0.25,0
0.0016017,0.00066916,0.035577,0.01146,0.014111,0.0040978,0,0,0.027906,-0.0034465,0,0.010654,0,0,0,0.036254,0.010783,0.014111,9.3846,0.020383,0.023981,6.6256e-07,0.06,0.25,0
0.0018827,0.00078569,0.035773,0.010898,0.014001,0.0040429,0,0,0.028303,-0.0040343,0,0.010512,0,0,0,0.036413,0.010257,0.014001,9.0037,0.020224,0.0245,6.9617e-07,0.07,0.25,0
0.0021677,0.00090268,0.03596,0.010339,0.01389,0.0039704,0,0,0.028692,-0.0046162,0,0.010323,0,0,0,0.036561,0.0097375,0.01389,8.6098,0.020063,0.025007,7.2913e-07,0.08,0.25,0
0.0024565,0.0010198,0.036138,0.0097853,0.013777,0.0038814,0,0,0.029069,-0.005189,0,0.010092,0,0,0,0.036697,0.0092255,0.013777,8.2069,0.0199,0.025503,7.6123e-07,0.09,0.25,0
0.0027491,0.0011367,0.036304,0.0092405,0.013663,0.0037777,0,0,0.029433,-0.0057498,0,0.0098219,0,0,0,0.036822,0.0087231,0.013663,7.799,0.019736,0.025983,7.9226e-07,0.1,0.25,0
0.0030452,0.001253,0.036459,0.0087063,0.01355,0.003661,0,0,0.029782,-0.0062962,0,0.0095186,0,0,0,0.036934,0.0082315,0.01355,7.3898,0.019571,0.026447,8.2208e-07,0.11,0.25,0
0.0033447,0.0013686,0.036601,0.0081848,0.013436,0.0035334,0,0,0.030114,-0.0068261,0,0.0091867,0,0,0,0.037033,0.007752,0.013436,6.9828,0.019407,0.026894,8.5056e-07,0.12,0.25,0
0.0036475,0.0014832,0.036729,0.0076773,0.013322,0.0033968,0,0,0.030429,-0.007338,0,0.0088318,0,0,0,0.037121,0.0072854,0.013322,6.581,0.019243,0.027322,8.776e-07,0.13,0.25,0
0.0039533,0.0015965,0.036844,0.007185,0.013209,0.0032535,0,0,0.030726,-0.0078308,0,0.0084591,0,0,0,0.037197,0.0068323,0.013209,6.1871,0.019079,0.027732,9.0315e-07,0.14,0.25,0
0.004262,0.0017085,0.036945,0.0067086,0.013096,0.0031054,0,0,0.031004,-0.0083039,0,0.008074,0,0,0,0.037261,0.0063929,0.013096,5.8037,0.018917,0.028122,9.2718e-07,0.15,0.25,0
0.0045734,0.001819,0.037034,0.0062484,0.012985,0.0029545,0,0,0.031264,-0.0087571,0,0.0076817,0,0,0,0.037315,0.0059674,0.012985,5.4327,0.018756,0.028494,9.4966e-07,0.16,0.25,0
0.0048873,0.0019279,0.037109,0.0058045,0.012874,0.0028027,0,0,0.031505,-0.0091903,0,0.0072871,0,0,0,0.037358,0.0055556,0.012874,5.076,0.018596,0.028848,9.7063e-07,0.17,0.25,0
0.0052035,0.0020351,0.037172,0.0053767,0.012764,0.0026518,0,0,0.031729,-0.0096041,0,0.0068947,0,0,0,0.037391,0.0051571,0.012764,4.7351,0.018438,0.029184,9.9013e-07,0.18,0.25,0
0.0055219,0.0021406,0.037223,0.0049646,0.012656,0.0025034,0,0,0.031936,-0.0099991,0,0.0065087,0,0,0,0.037416,0.0047715,0.012656,4.4112,0.018281,0.029503,1.0082e-06,0.19,0.25,0
0.0058422,0.0022444,0.037263,0.0045674,0.012549,0.0023589,0,0,0.032128,-0.010376,0,0.006133,0,0,0,0.037432,0.004398,0.012549,4.1053,0.018126,0.029806,1.0249e-06,0.2,0.25,0
0.0061644,0.0023465,0.037292,0.0041842,0.012443,0.0022196,0,0,0.032304,-0.010736,0,0.0057709,0,0,0,0.037441,0.0040361,0.012443,3.8183,0.017973,0.030095,1.0404e-06,0.21,0.25,0
0.0064883,0.0024469,0.037313,0.0038141,0.012338,0.0020867,0,0,0.032467,-0.011081,0,0.0054254,0,0,0,0.037442,0.0036846,0.012338,3.5507,0.017822,0.03037,1.0546e-06,0.22,0.25,0
0.0068138,0.0025458,0.037325,0.003456,0.012234,0.0019611,0,0,0.032618,-0.011412,0,0.005099,0,0,0,0.037438,0.0033429,0.012234,3.3029,0.017672,0.030633,1.0678e-06,0.23,0.25,0
0.0071407,0.0026432,0.037329,0.0031087,0.012131,0.0018438,0,0,0.032757,-0.01173,0,0.0047939,0,0,0,0.037428,0.0030096,0.012131,3.0752,0.017523,0.030885,1.08e-06,0.24,0.25,0
0.0074689,0.0027392,0.037327,0.0027709,0.012029,0.0017353,0,0,0.032887,-0.012036,0,0.0045118,0,0,0,0.037414,0.002684,0.012029,2.8676,0.017376,0.031128,1.0913e-06,0.25,0.25,0
0.0077984,0.002834,0.037319,0.0024412,0.011928,0.0016363,0,0,0.033008,-0.012333,0,0.0042543,0,0,0,0.037396,0.0023646,0.011928,2.6801,0.017229,0.031363,1.1019e-06,0.26,0.25,0
0.0081291,0.0029275,0.037306,0.0021183,0.011827,0.0015471,0,0,0.033123,-0.012622,0,0.0040224,0,0,0,0.037374,0.0020504,0.011827,2.5126,0.017084,0.031591,1.1118e-06,0.27,0.25,0
0.0084609,0.00302,0.03729,0.0018008,0.011727,0.001468,0,0,0.033231,-0.012904,0,0.0038167,0,0,0,0.03735,0.0017401,0.011727,2.3646,0.016939,0.031815,1.1211e-06,0.28,0.25,0
0.0087937,0.0031117,0.03727,0.0014872,0.011627,0.0013992,0,0,0.033336,-0.013182,0,0.0036379,0,0,0,0.037325,0.0014326,0.011627,2.2358,0.016795,0.032035,1.13e-06,0.29,0.25,0
0.0091276,0.0032025,0.037248,0.0011761,0.011527,0.0013407,0,0,0.033437,-0.013456,0,0.0034858,0,0,0,0.037298,0.0011264,0.011527,2.1256,0.016651,0.032254,1.1386e-06,0.3,0.25,0
0.0094625,0.0032928,0.037225,0.0008662,0.011428,0.0012925,0,0,0.033537,-0.01373,0,0.0033604,0,0,0,0.037271,0.00082032,0.011428,2.0333,0.016506,0.032474,1.147e-06,0.31,0.25,0
0.0097983,0.0033825,0.037202,0.00055594,0.011327,0.0012542,0,0,0.033637,-0.014003,0,0.003261,0,0,0,0.037245,0.00051306,0.011327,1.9579,0.016362,0.032695,1.1553e-06,0.32,0.25,0
0.010135,0.003472,0.037179,0.00024398,0.011227,0.0012257,0,0,0.033738,-0.014278,0,0.0031868,0,0,0,0.03722,0.00020335,0.011227,1.8986,0.016217,0.032919,1.1636e-06,0.33,0.25,0
0.010473,0.0035612,0.037158,-7.1025e-05,0.011126,0.0012064,0,0,0.033841,-0.014556,0,0.0031365,0,0,0,0.037197,-0.00011008,0.011126,1.854,0.016071,0.033149,1.172e-06,0.34,0.25,0
0.010812,0.0036503,0.037139,-0.00039035,0.011024,0.0011956,0,0,0.033948,-0.014839,0,0.0031086,0,0,0,0.037177,-0.0004284,0.011024,1.8229,0.015924,0.033386,1.1807e-06,0.35,0.25,0
0.011152,0.0037394,0.037122,-0.00071519,0.010922,0.0011928,0,0,0.03406,-0.015128,0,0.0031012,0,0,0,0.03716,-0.00075275,0.010922,1.8038,0.015776,0.033631,1.1896e-06,0.36,0.25,0
0.011493,0.0038286,0.037109,-0.0010467,0.010819,0.0011969,0,0,0.034178,-0.015425,0,0.003112,0,0,0,0.037147,-0.0010842,0.010819,1.7949,0.015627,0.033886,1.199e-06,0.37,0.25,0
0.011836,0.0039179,0.037101,-0.0013857,0.010715,0.001207,0,0,0.034302,-0.01573,0,0.0031383,0,0,0,0.037139,-0.0014235,0.010715,1.7946,0.015477,0.034151,1.2088e-06,0.38,0.25,0
0.012179,0.0040075,0.037097,-0.0017332,0.010609,0.001222,0,0,0.034434,-0.016045,0,0.0031773,0,0,0,0.037136,-0.0017716,0.010609,1.8008,0.015324,0.034429,1.2191e-06,0.39,0.25,0
0.012524,0.0040973,0.037099,-0.0020897,0.010503,0.0012407,0,0,0.034575,-0.01637,0,0.0032258,0,0,0,0.037138,-0.0021289,0.010503,1.8115,0.015171,0.03472,1.23e-06,0.4,0.25,0
0.012871,0.0041875,0.037106,-0.0024557,0.010395,0.0012616,0,0,0.034724,-0.016706,0,0.0032802,0,0,0,0.037146,-0.0024959,0.010395,1.8247,0.015015,0.035023,1.2414e-06,0.41,0.25,0
0.013219,0.0042778,0.037119,-0.0028313,0.010286,0.0012834,0,0,0.034882,-0.017053,0,0.0033368,0,0,0,0.03716,-0.0028725,0.010286,1.8381,0.014858,0.035341,1.2534e-06,0.42,0.25,0
0.013568,0.0043684,0.037138,-0.0032165,0.010176,0.0013046,0,0,0.03505,-0.017411,0,0.003392,0,0,0,0.03718,-0.0032587,0.010176,1.8497,0.014699,0.035672,1.266e-06,0.43,0.25,0
0.01392,0.0044591,0.037163,-0.003611,0.010065,0.0013237,0,0,0.035226,-0.017779,0,0.0034417,0,0,0,0.037206,-0.0036539,0.010065,1.8575,0.014539,0.036016,1.2791e-06,0.44,0.25,0
0.014273,0.0045499,0.037193,-0.004014,0.0099536,0.0013394,0,0,0.035411,-0.018158,0,0.0034824,0,0,0,0.037236,-0.0040575,0.0099536,1.8597,0.014377,0.036372,1.2926e-06,0.45,0.25,0
0.014628,0.0046407,0.037228,-0.0044248,0.009841,0.0013501,0,0,0.035603,-0.018545,0,0.0035103,0,0,0,0.037272,-0.0044685,0.009841,1.8546,0.014215,0.036739,1.3064e-06,0.46,0.25,0
0.014985,0.0047313,0.037268,-0.0048421,0.0097278,0.0013547,0,0,0.035802,-0.018941,0,0.0035223,0,0,0,0.037312,-0.0048857,0.0097278,1.8407,0.014051,0.037115,1.3204e-06,0.47,0.25,0
0.015344,0.0048215,0.037312,-0.0052647,0.0096142,0.0013521,0,0,0.036007,-0.019342,0,0.0035154,0,0,0,0.037355,-0.0053075,0.0096142,1.8171,0.013887,0.037498,1.3346e-06,0.48,0.25,0
0.015705,0.0049112,0.037359,-0.0056908,0.0095003,0.0013412,0,0,0.036216,-0.019748,0,0.0034872,0,0,0,0.0374,-0.0057326,0.0095003,1.7828,0.013723,0.037887,1.3486e-06,0.49,0.25,0
0.016068,0.0050002,0.037387,-0.00059,0.011039,0.0013226,0,0,0.050344,-0.020157,0,0.0051367,0,0,0,0.037434,-0.00063681,0.011039,2.0304,0.015946,0.033851,1.1812e-06,0.5,0.25,0
0.016712,0.0051223,0.037457,0.0046819,0.012642,0.0012987,0,0,0.064519,-0.020695,0,0.0067531,0,0,0,0.037508,0.0046305,0.012642,2.2656,0.01826,0.029694,1.022e-06,0.51,0.25,0
0.017359,0.0052424,0.037506,0.0044107,0.012575,0.0012699,0,0,0.064821,-0.021227,0,0.0066032,0,0,0,0.037555,0.0043621,0.012575,2.1941,0.018164,0.029943,1.0371e-06,0.52,0.25,0
0.018008,0.0053605,0.037554,0.0041439,0.012509,0.0012358,0,0,0.065117,-0.02175,0,0.0064264,0,0,0,0.0376,0.0040983,0.012509,2.1155,0.018069,0.030188,1.0519e-06,0.53,0.25,0
0.018661,0.0054762,0.037601,0.0038826,0.012445,0.0011968,0,0,0.065405,-0.022262,0,0.0062235,0,0,0,0.037643,0.0038401,0.012445,2.0303,0.017976,0.030427,1.0662e-06,0.54,0.25,0
0.019317,0.0055894,0.037645,0.0036277,0.012382,0.0011531,0,0,0.065684,-0.022761,0,0.0059962,0,0,0,0.037684,0.0035887,0.012382,1.9392,0.017885,0.030659,1.08e-06,0.55,0.25,0
0.019975,0.0056998,0.037686,0.0033804,0.01232,0.0011052,0,0,0.065952,-0.023243,0,0.0057468,0,0,0,0.037722,0.0033448,0.01232,1.8432,0.017795,0.030884,1.0932e-06,0.56,0.25,0
0.020636,0.0058073,0.037724,0.0031413,0.01226,0.0010535,0,0,0.066208,-0.023708,0,0.005478,0,0,0,0.037756,0.0031092,0.01226,1.7432,0.017708,0.031099,1.1057e-06,0.57,0.25,0
0.021299,0.0059117,0.037759,0.0029112,0.012201,0.00099865,0,0,0.06645,-0.024154,0,0.005193,0,0,0,0.037788,0.0028826,0.012201,1.6402,0.017624,0.031304,1.1176e-06,0.58,0.25,0
0.021965,0.0060128,0.03779,0.0026907,0.012144,0.00094134,0,0,0.066679,-0.024579,0,0.004895,0,0,0,0.037815,0.0026655,0.012144,1.5352,0.017542,0.031499,1.1287e-06,0.59,0.25,0
0.022632,0.0061106,0.037817,0.0024801,0.012089,0.0008822,0,0,0.066892,-0.024983,0,0.0045875,0,0,0,0.037839,0.0024581,0.012089,1.4292,0.017462,0.031683,1.139e-06,0.6,0.25,0
0.023302,0.006205,0.03784,0.0022797,0.012036,0.00082189,0,0,0.06709,-0.025366,0,0.0042738,0,0,0,0.037859,0.0022607,0.012036,1.3233,0.017385,0.031856,1.1485e-06,0.61,0.25,0
0.023974,0.0062958,0.037859,0.0020896,0.011985,0.00076104,0,0,0.067274,-0.025727,0,0.0039574,0,0,0,0.037875,0.0020734,0.011985,1.2183,0.017311,0.032018,1.1573e-06,0.62,0.25,0
0.024648,0.0063831,0.037875,0.0019099,0.011935,0.00070026,0,0,0.067442,-0.026066,0,0.0036414,0,0,0,0.037888,0.0018962,0.011935,1.115,0.01724,0.03217,1.1653e-06,0.63,0.25,0
0.025323,0.0064667,0.037886,0.0017403,0.011888,0.00064011,0,0,0.067596,-0.026384,0,0.0033286,0,0,0,0.037898,0.001729,0.011888,1.0142,0.017172,0.03231,1.1725e-06,0.64,0.25,0
0.026,0.0065468,0.037895,0.0015808,0.011843,0.00058108,0,0,0.067736,-0.026681,0,0.0030216,0,0,0,0.037904,0.0015715,0.011843,0.9165,0.017106,0.032441,1.1791e-06,0.65,0.25,0
0.026678,0.0066233,0.0379,0.001431,0.011799,0.00052363,0,0,0.067863,-0.026958,0,0.0027229,0,0,0,0.037908,0.0014235,0.011799,0.82243,0.017044,0.032561,1.185e-06,0.66,0.25,0
0.027357,0.0066963,0.037903,0.0012906,0.011758,0.00046812,0,0,0.067976,-0.027215,0,0.0024342,0,0,0,0.037909,0.0012847,0.011758,0.73242,0.016984,0.032672,1.1903e-06,0.67,0.25,0
0.028037,0.0067658,0.037903,0.0011593,0.011719,0.00041489,0,0,0.068079,-0.027454,0,0.0021574,0,0,0,0.037907,0.0011547,0.011719,0.64685,0.016927,0.032773,1.195e-06,0.68,0.25,0
0.028719,0.0068318,0.0379,0.0010367,0.011681,0.00036418,0,0,0.06817,-0.027675,0,0.0018938,0,0,0,0.037904,0.0010331,0.011681,0.56597,0.016873,0.032867,1.1991e-06,0.69,0.25,0
0.029401,0.0068945,0.037896,0.00092235,0.011645,0.00031621,0,0,0.068251,-0.02788,0,0.0016443,0,0,0,0.037898,0.00091965,0.011645,0.48997,0.016821,0.032952,1.2028e-06,0.7,0.25,0
0.030084,0.0069539,0.037889,0.0008158,0.011612,0.00027112,0,0,0.068322,-0.028069,0,0.0014098,0,0,0,0.037891,0.00081381,0.011612,0.41898,0.016772,0.03303,1.206e-06,0.71,0.25,0
0.030767,0.00701,0.037881,0.00071663,0.011579,0.00022902,0,0,0.068385,-0.028243,0,0.0011909,0,0,0,0.037883,0.00071522,0.011579,0.35305,0.016726,0.033101,1.2087e-06,0.72,0.25,0
0.031451,0.0070631,0.037873,0.00062444,0.011549,0.00018996,0,0,0.068441,-0.028404,0,0.0009878,0,0,0,0.037873,0.00062347,0.011549,0.29219,0.016682,0.033166,1.2111e-06,0.73,0.25,0
0.032136,0.0071132,0.037862,0.00053881,0.01152,0.00015398,0,0,0.068489,-0.028552,0,0.00080068,0,0,0,0.037863,0.00053818,0.01152,0.23637,0.01664,0.033224,1.2132e-06,0.74,0.25,0
0.032821,0.0071604,0.037852,0.00045935,0.011493,0.00012106,0,0,0.068531,-0.028688,0,0.00062951,0,0,0,0.037852,0.00045895,0.011493,0.18549,0.016601,0.033277,1.2149e-06,0.75,0.25,0
0.033507,0.0072047,0.03784,0.00038566,0.011468,9.117e-05,0,0,0.068568,-0.028813,0,0.00047408,0,0,0,0.03784,0.00038544,0.011468,0.13947,0.016564,0.033326,1.2165e-06,0.76,0.25,0
0.034193,0.0072464,0.037828,0.0003174,0.011444,6.4255e-05,0,0,0.0686,-0.028928,0,0.00033413,0,0,0,0.037828,0.00031729,0.011444,0.098146,0.01653,0.033369,1.2177e-06,0.77,0.25,0
0.034879,0.0072854,0.037816,0.00025422,0.011421,4.0238e-05,0,0,0.068627,-0.029034,0,0.00020923,0,0,0,0.037816,0.00025418,0.011421,0.061377,0.016497,0.033409,1.2187e-06,0.78,0.25,0
0.035565,0.007322,0.037804,0.0001958,0.0114,1.9025e-05,0,0,0.06865,-0.029131,0,9.8933e-05,0,0,0,0.037804,0.00019579,0.0114,0.028985,0.016466,0.033444,1.2196e-06,0.79,0.25,0
0.036252,0.0073561,0.037791,0.00014184,0.01138,5.1517e-07,0,0,0.06867,-0.029219,0,2.6789e-06,0,0,0,0.037791,0.00014184,0.01138,0.000784,0.016438,0.033477,1.2203e-06,0.8,0.25,0
0.036938,0.0073879,0.037779,9.2055e-05,0.011361,-1.5407e-05,0,0,0.068687,-0.0293,0,-8.0118e-05,0,0,0,0.037779,9.2048e-05,0.011361,-0.023424,0.016411,0.033506,1.2209e-06,0.81,0.25,0
0.037625,0.0074176,0.037768,4.6196e-05,0.011344,-2.8863e-05,0,0,0.068701,-0.029375,0,-0.00015009,0,0,0,0.037768,4.6174e-05,0.011344,-0.043841,0.016386,0.033532,1.2213e-06,0.82,0.25,0
0.038312,0.007445,0.037756,4.0204e-06,0.011328,-3.998e-05,0,0,0.068713,-0.029442,0,-0.0002079,0,0,0,0.037756,3.978e-06,0.011328,-0.060677,0.016363,0.033555,1.2217e-06,0.83,0.25,0
0.039,0.0074705,0.037745,-3.4693e-05,0.011313,-4.8888e-05,0,0,0.068723,-0.029504,0,-0.00025422,0,0,0,0.037745,-3.4756e-05,0.011313,-0.074142,0.016341,0.033576,1.2219e-06,0.84,0.25,0
0.039687,0.007494,0.037734,-7.0146e-05,0.011299,-5.572e-05,0,0,0.068731,-0.02956,0,-0.00028974,0,0,0,0.037734,-7.0228e-05,0.011299,-0.084449,0.016321,0.033595,1.2221e-06,0.85,0.25,0
0.040374,0.0075156,0.037724,-0.00010252,0.011286,-6.0612e-05,0,0,0.068737,-0.029611,0,-0.00031518,0,0,0,0.037724,-0.00010262,0.011286,-0.09181,0.016303,0.033612,1.2223e-06,0.86,0.25,0
0.041062,0.0075354,0.037714,-0.000132,0.011275,-6.37e-05,0,0,0.068743,-0.029657,0,-0.00033124,0,0,0,0.037714,-0.0001321,0.011275,-0.096436,0.016286,0.033627,1.2223e-06,0.87,0.25,0
0.041749,0.0075534,0.037705,-0.00015871,0.011264,-6.5118e-05,0,0,0.068747,-0.029699,0,-0.00033862,0,0,0,0.037705,-0.00015883,0.011264,-0.098537,0.01627,0.03364,1.2224e-06,0.88,0.25,0
0.042437,0.0075698,0.037697,-0.00018282,0.011254,-6.5003e-05,0,0,0.06875,-0.029736,0,-0.00033801,0,0,0,0.037697,-0.00018293,0.011254,-0.098322,0.016256,0.033652,1.2224e-06,0.89,0.25,0
0.043124,0.0075845,0.037689,-0.00020443,0.011245,-6.3488e-05,0,0,0.068753,-0.029769,0,-0.00033014,0,0,0,0.037689,-0.00020454,0.011245,-0.095995,0.016243,0.033662,1.2224e-06,0.9,0.25,0
0.043812,0.0075977,0.037682,-0.00022367,0.011237,-6.0706e-05,0,0,0.068755,-0.029799,0,-0.00031567,0,0,0,0.037682,-0.00022377,0.011237,-0.09176,0.016232,0.033671,1.2223e-06,0.91,0.25,0
0.044499,0.0076094,0.037675,-0.00024063,0.01123,-5.679e-05,0,0,0.068757,-0.029825,0,-0.00029531,0,0,0,0.037675,-0.00024071,0.01123,-0.085817,0.016222,0.033679,1.2223e-06,0.92,0.25,0
0.045187,0.0076196,0.03767,-0.00025539,0.011224,-5.1869e-05,0,0,0.068758,-0.029847,0,-0.00026972,0,0,0,0.03767,-0.00025546,0.011224,-0.078362,0.016213,0.033686,1.2222e-06,0.93,0.25,0
0.045874,0.0076283,0.037665,-0.00026804,0.011219,-4.6074e-05,0,0,0.068759,-0.029866,0,-0.00023958,0,0,0,0.037665,-0.00026809,0.011219,-0.069592,0.016205,0.033691,1.2222e-06,0.94,0.25,0
0.046562,0.0076357,0.03766,-0.00027863,0.011215,-3.953e-05,0,0,0.068759,-0.029882,0,-0.00020556,0,0,0,0.03766,-0.00027867,0.011215,-0.059699,0.016199,0.033696,1.2221e-06,0.95,0.25,0
0.04725,0.0076416,0.037657,-0.00028723,0.011211,-3.2367e-05,0,0,0.06876,-0.029895,0,-0.00016831,0,0,0,0.037657,-0.00028726,0.011211,-0.048873,0.016194,0.0337,1.2221e-06,0.96,0.25,0
0.047937,0.0076463,0.037654,-0.00029387,0.011208,-2.4707e-05,0,0,0.06876,-0.029905,0,-0.00012848,0,0,0,0.037654,-0.00029389,0.011208,-0.037304,0.016189,0.033703,1.222e-06,0.97,0.25,0
0.048625,0.0076496,0.037652,-0.00029859,0.011206,-1.6677e-05,0,0,0.06876,-0.029912,0,-8.672e-05,0,0,0,0.037652,-0.0002986,0.011206,-0.025178,0.016187,0.033705,1.222e-06,0.98,0.25,0
0.049312,0.0076515,0.037651,-0.00030141,0.011205,-8.4001e-06,0,0,0.06876,-0.029917,0,-4.3681e-05,0,0,0,0.037651,-0.00030142,0.011205,-0.012681,0.016185,0.033706,1.222e-06,0.99,0.25,0
0.05,0.0076522,0.037651,-0.00030235,0.011205,1.26e-05,0,0,0.068761,-0.029918,0,6.552e-05,0,0,0,0.037651,-0.00030236,0.011205,0.019022,0.016184,0.033707,1.222e-06,1,0.25,0
0,0,0.034424,0.014753,0.014753,0.0038749,0,0,0.025572,2.7105e-19,0,0.010075,0,0,0,0.03516,0.014017,0.014753,10.752,0.02131,0.020784,4.5918e-07,0,0.26,0
0.00025572,0.00010075,0.034375,0.014151,0.014558,0.0038775,0,0,0.025762,-0.00052853,0,0.010081,0,0,0,0.035093,0.013433,0.014558,10.49,0.021028,0.02112,4.792e-07,0.01,0.26,0
0.00051524,0.00020398,0.034578,0.013641,0.014466,0.0039171,0,0,0.026146,-0.001072,0,0.010184,0,0,0,0.035287,0.012932,0.014466,10.257,0.020895,0.021629,5.1086e-07,0.02,0.26,0
0.00077864,0.00030938,0.034782,0.013118,0.01437,0.0039394,0,0,0.026536,-0.0016273,0,0.010242,0,0,0,0.035477,0.012424,0.01437,9.9927,0.020757,0.022143,5.4315e-07,0.03,0.26,0
0.001046,0.00041662,0.034986,0.012586,0.014272,0.0039441,0,0,0.026929,-0.0021914,0,0.010255,0,0,0,0.03566,0.011912,0.014272,9.6999,0.020615,0.022661,5.7586e-07,0.04,0.26,0
0.0013172,0.00052537,0.035187,0.012046,0.01417,0.003931,0,0,0.027322,-0.0027608,0,0.010221,0,0,0,0.035837,0.011397,0.01417,9.3825,0.020468,0.023178,6.0875e-07,0.05,0.26,0
0.0015924,0.00063529,0.035384,0.011503,0.014066,0.0039003,0,0,0.027713,-0.0033322,0,0.010141,0,0,0,0.036005,0.010882,0.014066,9.0445,0.020318,0.023692,6.416e-07,0.06,0.26,0
0.0018715,0.00074604,0.035575,0.010958,0.01396,0.0038525,0,0,0.0281,-0.0039022,0,0.010016,0,0,0,0.036164,0.01037,0.01396,8.69,0.020164,0.0242,6.7417e-07,0.07,0.26,0
0.0021544,0.0008573,0.035759,0.010416,0.013852,0.0037885,0,0,0.028479,-0.0044678,0,0.0098502,0,0,0,0.036313,0.0098614,0.013852,8.3227,0.020009,0.024699,7.0626e-07,0.08,0.26,0
0.0024411,0.00096874,0.035934,0.0098774,0.013744,0.0037095,0,0,0.028848,-0.0050259,0,0.0096448,0,0,0,0.036452,0.0093596,0.013744,7.9465,0.019852,0.025188,7.3765e-07,0.09,0.26,0
0.0027314,0.0010801,0.036099,0.009346,0.013634,0.0036169,0,0,0.029206,-0.005574,0,0.0094039,0,0,0,0.03658,0.0088656,0.013634,7.5651,0.019693,0.025665,7.6818e-07,0.1,0.26,0
0.0030252,0.001191,0.036254,0.0088234,0.013523,0.0035122,0,0,0.02955,-0.0061098,0,0.0091316,0,0,0,0.036697,0.0083809,0.013523,7.1817,0.019534,0.026127,7.9769e-07,0.11,0.26,0
0.0033223,0.0013014,0.036397,0.0083116,0.013413,0.0033971,0,0,0.02988,-0.0066314,0,0.0088325,0,0,0,0.036802,0.0079065,0.013413,6.7996,0.019374,0.026574,8.2606e-07,0.12,0.26,0
0.0036228,0.0014108,0.036528,0.0078118,0.013302,0.0032735,0,0,0.030194,-0.0071372,0,0.0085112,0,0,0,0.036897,0.0074434,0.013302,6.4217,0.019214,0.027005,8.5318e-07,0.13,0.26,0
0.0039262,0.0015193,0.036647,0.0073252,0.013192,0.0031433,0,0,0.030492,-0.0076263,0,0.0081725,0,0,0,0.03698,0.0069921,0.013192,6.0505,0.019055,0.027419,8.7898e-07,0.14,0.26,0
0.0042326,0.0016266,0.036753,0.0068526,0.013082,0.0030082,0,0,0.030773,-0.0080978,0,0.0078213,0,0,0,0.037053,0.006553,0.013082,5.6884,0.018896,0.027816,9.0343e-07,0.15,0.26,0
0.0045417,0.0017325,0.036847,0.0063944,0.012972,0.00287,0,0,0.031037,-0.0085514,0,0.0074621,0,0,0,0.037115,0.0061262,0.012972,5.3373,0.018738,0.028196,9.265e-07,0.16,0.26,0
0.0048533,0.001837,0.036929,0.0059507,0.012864,0.0027306,0,0,0.031284,-0.0089871,0,0.0070996,0,0,0,0.037167,0.0057118,0.012864,4.9991,0.018581,0.02856,9.4819e-07,0.17,0.26,0
0.0051674,0.0019401,0.036999,0.0055214,0.012756,0.0025915,0,0,0.031516,-0.009405,0,0.0067379,0,0,0,0.037211,0.0053095,0.012756,4.6752,0.018425,0.028907,9.6853e-07,0.18,0.26,0
0.0054836,0.0020416,0.037058,0.0051063,0.012649,0.0024542,0,0,0.031731,-0.0098058,0,0.006381,0,0,0,0.037245,0.0049189,0.012649,4.3668,0.018271,0.029238,9.8755e-07,0.19,0.26,0
0.005802,0.0021416,0.037106,0.0047048,0.012543,0.0023201,0,0,0.031932,-0.01019,0,0.0060324,0,0,0,0.037272,0.0045395,0.012543,4.075,0.018118,0.029555,1.0053e-06,0.2,0.26,0
0.0061223,0.00224,0.037145,0.0043161,0.012438,0.0021905,0,0,0.032119,-0.010559,0,0.0056953,0,0,0,0.03729,0.0041706,0.012438,3.8006,0.017966,0.029857,1.0219e-06,0.21,0.26,0
0.0064444,0.002337,0.037175,0.0039396,0.012334,0.0020664,0,0,0.032293,-0.010913,0,0.0053726,0,0,0,0.037303,0.0038116,0.012334,3.5442,0.017816,0.030147,1.0373e-06,0.22,0.26,0
0.0067681,0.0024325,0.037196,0.0035741,0.012231,0.0019488,0,0,0.032455,-0.011254,0,0.0050668,0,0,0,0.037309,0.0034615,0.012231,3.3062,0.017667,0.030426,1.0517e-06,0.23,0.26,0
0.0070935,0.0025267,0.03721,0.0032186,0.012129,0.0018385,0,0,0.032606,-0.011583,0,0.00478,0,0,0,0.037309,0.0031194,0.012129,3.0869,0.017519,0.030693,1.0651e-06,0.24,0.26,0
0.0074203,0.0026196,0.037218,0.002872,0.012027,0.0017361,0,0,0.032748,-0.011901,0,0.0045139,0,0,0,0.037305,0.0027844,0.012027,2.8864,0.017372,0.030952,1.0777e-06,0.25,0.26,0
0.0077484,0.0027113,0.037219,0.002533,0.011926,0.0016423,0,0,0.032882,-0.012211,0,0.0042701,0,0,0,0.037297,0.0024555,0.011926,2.7048,0.017226,0.031203,1.0895e-06,0.26,0.26,0
0.0080779,0.0028018,0.037216,0.0022005,0.011825,0.0015575,0,0,0.033009,-0.012512,0,0.0040494,0,0,0,0.037286,0.0021314,0.011825,2.5418,0.017081,0.031448,1.1007e-06,0.27,0.26,0
0.0084086,0.0028915,0.037209,0.0018732,0.011725,0.0014819,0,0,0.03313,-0.012807,0,0.0038528,0,0,0,0.037271,0.0018112,0.011725,2.3971,0.016936,0.031689,1.1113e-06,0.28,0.26,0
0.0087405,0.0029803,0.0372,0.0015497,0.011625,0.0014156,0,0,0.033247,-0.013098,0,0.0036806,0,0,0,0.037256,0.0014936,0.011625,2.2704,0.016791,0.031926,1.1215e-06,0.29,0.26,0
0.0090735,0.0030683,0.037187,0.0012288,0.011525,0.0013589,0,0,0.033361,-0.013385,0,0.003533,0,0,0,0.037239,0.0011775,0.011525,2.1611,0.016647,0.032161,1.1313e-06,0.3,0.26,0
0.0094077,0.0031558,0.037174,0.00090906,0.011425,0.0013115,0,0,0.033474,-0.013671,0,0.0034098,0,0,0,0.037221,0.00086169,0.011425,2.0684,0.016502,0.032396,1.1409e-06,0.31,0.26,0
0.009743,0.0032427,0.03716,0.00058931,0.011325,0.0012733,0,0,0.033585,-0.013956,0,0.0033105,0,0,0,0.037204,0.00054503,0.011325,1.9916,0.016358,0.032633,1.1504e-06,0.32,0.26,0
0.010079,0.0033294,0.037146,0.00026824,0.011224,0.0012439,0,0,0.033698,-0.014243,0,0.0032342,0,0,0,0.037188,0.00022633,0.011224,1.9297,0.016213,0.032872,1.1598e-06,0.33,0.26,0
0.010417,0.0034157,0.037133,-5.5337e-05,0.011123,0.001223,0,0,0.033813,-0.014532,0,0.0031797,0,0,0,0.037173,-9.5511e-05,0.011123,1.8815,0.016067,0.033117,1.1693e-06,0.34,0.26,0
0.010756,0.0035019,0.037122,-0.00038259,0.011022,0.0012099,0,0,0.03393,-0.014826,0,0.0031457,0,0,0,0.037161,-0.00042158,0.011022,1.8458,0.01592,0.033367,1.179e-06,0.35,0.26,0
0.011096,0.0035881,0.037113,-0.00071459,0.01092,0.0012039,0,0,0.034052,-0.015125,0,0.0031302,0,0,0,0.037152,-0.00075287,0.01092,1.8211,0.015773,0.033624,1.1889e-06,0.36,0.26,0
0.011437,0.0036743,0.037108,-0.0010523,0.010817,0.0012043,0,0,0.034179,-0.01543,0,0.0031313,0,0,0,0.037146,-0.0010903,0.010817,1.8059,0.015624,0.03389,1.1991e-06,0.37,0.26,0
0.011779,0.0037606,0.037107,-0.0013966,0.010713,0.0012102,0,0,0.034312,-0.015742,0,0.0031464,0,0,0,0.037144,-0.0014346,0.010713,1.7985,0.015474,0.034165,1.2097e-06,0.38,0.26,0
0.012123,0.003847,0.037109,-0.0017481,0.010608,0.0012204,0,0,0.034451,-0.016063,0,0.0031729,0,0,0,0.037147,-0.0017864,0.010608,1.7971,0.015323,0.034452,1.2207e-06,0.39,0.26,0
0.012468,0.0039335,0.037117,-0.0021075,0.010503,0.0012338,0,0,0.034598,-0.016393,0,0.0032078,0,0,0,0.037155,-0.0021463,0.010503,1.7998,0.015171,0.034749,1.2322e-06,0.4,0.26,0
0.012815,0.0040203,0.037129,-0.002475,0.010396,0.0012492,0,0,0.034752,-0.016733,0,0.003248,0,0,0,0.037168,-0.0025143,0.010396,1.8049,0.015017,0.035058,1.2441e-06,0.41,0.26,0
0.013163,0.0041071,0.037146,-0.0028507,0.010289,0.0012654,0,0,0.034915,-0.017081,0,0.0032901,0,0,0,0.037186,-0.0028907,0.010289,1.8103,0.014861,0.035379,1.2565e-06,0.42,0.26,0
0.013513,0.0041941,0.037169,-0.0032347,0.01018,0.001281,0,0,0.035085,-0.017439,0,0.0033307,0,0,0,0.037209,-0.0032752,0.01018,1.8142,0.014705,0.035712,1.2694e-06,0.43,0.26,0
0.013865,0.0042812,0.037197,-0.0036264,0.010071,0.0012947,0,0,0.035263,-0.017807,0,0.0033663,0,0,0,0.037238,-0.0036675,0.010071,1.8148,0.014547,0.036055,1.2827e-06,0.44,0.26,0
0.014219,0.0043682,0.037229,-0.0040254,0.0099611,0.0013053,0,0,0.035449,-0.018183,0,0.0033937,0,0,0,0.03727,-0.0040667,0.0099611,1.8104,0.014388,0.03641,1.2963e-06,0.45,0.26,0
0.014574,0.0044551,0.037266,-0.0044309,0.0098506,0.0013114,0,0,0.03564,-0.018566,0,0.0034097,0,0,0,0.037308,-0.0044721,0.0098506,1.7996,0.014229,0.036773,1.3101e-06,0.46,0.26,0
0.014931,0.0045418,0.037307,-0.0048418,0.0097397,0.001312,0,0,0.035838,-0.018956,0,0.0034112,0,0,0,0.037348,-0.0048826,0.0097397,1.7812,0.014068,0.037145,1.3241e-06,0.47,0.26,0
0.015291,0.004628,0.037352,-0.0052569,0.0096284,0.0013061,0,0,0.03604,-0.019351,0,0.0033958,0,0,0,0.037392,-0.0052969,0.0096284,1.7541,0.013908,0.037523,1.3382e-06,0.48,0.26,0
0.015652,0.0047137,0.037399,-0.0056748,0.0095171,0.0012928,0,0,0.036246,-0.01975,0,0.0033613,0,0,0,0.037437,-0.0057136,0.0095171,1.7176,0.013747,0.037905,1.3521e-06,0.49,0.26,0
0.016016,0.0047986,0.037428,-0.00056691,0.011058,0.0012728,0,0,0.050386,-0.02015,0,0.0049426,0,0,0,0.037471,-0.00061024,0.011058,1.9531,0.015973,0.033862,1.1839e-06,0.5,0.26,0
0.01666,0.0049154,0.037496,0.0047078,0.012661,0.0012488,0,0,0.064571,-0.020679,0,0.0064939,0,0,0,0.037544,0.0046603,0.012661,2.178,0.018288,0.029703,1.0239e-06,0.51,0.26,0
0.017307,0.0050303,0.037546,0.0044416,0.012596,0.0012209,0,0,0.064868,-0.021202,0,0.0063484,0,0,0,0.03759,0.0043967,0.012596,2.1092,0.018194,0.029948,1.0388e-06,0.52,0.26,0
0.017957,0.0051432,0.037593,0.0041797,0.012532,0.0011883,0,0,0.06516,-0.021716,0,0.0061791,0,0,0,0.037636,0.0041375,0.012532,2.0342,0.018102,0.030189,1.0534e-06,0.53,0.26,0
0.01861,0.0052538,0.03764,0.003923,0.012469,0.0011513,0,0,0.065444,-0.022219,0,0.0059865,0,0,0,0.037679,0.0038837,0.012469,1.9533,0.01801,0.030425,1.0676e-06,0.54,0.26,0
0.019266,0.0053621,0.037684,0.0036724,0.012407,0.0011101,0,0,0.06572,-0.02271,0,0.0057723,0,0,0,0.03772,0.0036362,0.012407,1.8673,0.017921,0.030654,1.0813e-06,0.55,0.26,0
0.019925,0.0054677,0.037726,0.0034289,0.012346,0.001065,0,0,0.065986,-0.023185,0,0.0055381,0,0,0,0.037759,0.0033959,0.012346,1.7769,0.017834,0.030876,1.0945e-06,0.56,0.26,0
0.020586,0.0055705,0.037764,0.0031931,0.012287,0.0010166,0,0,0.06624,-0.023644,0,0.0052864,0,0,0,0.037794,0.0031633,0.012287,1.6829,0.017748,0.03109,1.107e-06,0.57,0.26,0
0.021249,0.0056705,0.0378,0.0029658,0.01223,0.00096534,0,0,0.066482,-0.024086,0,0.0050197,0,0,0,0.037826,0.0029391,0.01223,1.5862,0.017665,0.031294,1.1189e-06,0.58,0.26,0
0.021915,0.0057674,0.037832,0.0027474,0.012174,0.00091174,0,0,0.066711,-0.024508,0,0.0047411,0,0,0,0.037855,0.0027237,0.012174,1.4876,0.017584,0.031489,1.1301e-06,0.59,0.26,0
0.022584,0.0058612,0.03786,0.0025382,0.01212,0.0008564,0,0,0.066925,-0.024911,0,0.0044533,0,0,0,0.037881,0.0025175,0.01212,1.3881,0.017506,0.031673,1.1405e-06,0.6,0.26,0
0.023254,0.0059517,0.037885,0.0023387,0.012067,0.0007999,0,0,0.067126,-0.025294,0,0.0041595,0,0,0,0.037903,0.0023207,0.012067,1.2885,0.01743,0.031848,1.1503e-06,0.61,0.26,0
0.023926,0.0060389,0.037906,0.0021488,0.012016,0.0007428,0,0,0.067312,-0.025656,0,0.0038626,0,0,0,0.037921,0.0021334,0.012016,1.1896,0.017357,0.032012,1.1593e-06,0.62,0.26,0
0.0246,0.0061228,0.037923,0.0019688,0.011968,0.00068564,0,0,0.067485,-0.025997,0,0.0035653,0,0,0,0.037936,0.0019557,0.011968,1.0921,0.017287,0.032165,1.1675e-06,0.63,0.26,0
0.025276,0.0062032,0.037937,0.0017984,0.011921,0.00062894,0,0,0.067643,-0.026318,0,0.0032705,0,0,0,0.037948,0.0017875,0.011921,0.99674,0.017219,0.032309,1.1751e-06,0.64,0.26,0
0.025953,0.0062803,0.037948,0.0016376,0.011876,0.00057316,0,0,0.067788,-0.026619,0,0.0029804,0,0,0,0.037957,0.0016286,0.011876,0.90411,0.017154,0.032442,1.182e-06,0.65,0.26,0
0.026632,0.006354,0.037956,0.0014862,0.011833,0.0005187,0,0,0.067921,-0.026901,0,0.0026973,0,0,0,0.037963,0.0014788,0.011833,0.81469,0.017092,0.032566,1.1882e-06,0.66,0.26,0
0.027311,0.0064244,0.037961,0.0013438,0.011791,0.00046594,0,0,0.068041,-0.027164,0,0.0024229,0,0,0,0.037967,0.0013379,0.011791,0.72892,0.017032,0.032681,1.1938e-06,0.67,0.26,0
0.027992,0.0064915,0.037963,0.0012102,0.011752,0.00041518,0,0,0.068149,-0.027409,0,0.0021589,0,0,0,0.037968,0.0012055,0.011752,0.64714,0.016975,0.032787,1.1989e-06,0.68,0.26,0
0.028674,0.0065552,0.037963,0.0010851,0.011714,0.00036668,0,0,0.068246,-0.027636,0,0.0019067,0,0,0,0.037967,0.0010814,0.011714,0.56961,0.016921,0.032884,1.2034e-06,0.69,0.26,0
0.029357,0.0066158,0.037961,0.000968,0.011679,0.00032063,0,0,0.068334,-0.027848,0,0.0016673,0,0,0,0.037964,0.00096522,0.011679,0.49656,0.016869,0.032974,1.2074e-06,0.7,0.26,0
0.030041,0.0066733,0.037957,0.00085862,0.011645,0.00027721,0,0,0.068412,-0.028044,0,0.0014415,0,0,0,0.037959,0.00085655,0.011645,0.4281,0.01682,0.033056,1.2109e-06,0.71,0.26,0
0.030726,0.0067277,0.037951,0.00075654,0.011612,0.00023652,0,0,0.068481,-0.028225,0,0.0012299,0,0,0,0.037953,0.00075504,0.011612,0.36432,0.016773,0.033131,1.214e-06,0.72,0.26,0
0.031411,0.0067791,0.037944,0.00066139,0.011582,0.00019864,0,0,0.068543,-0.028393,0,0.0010329,0,0,0,0.037945,0.00066033,0.011582,0.30526,0.016729,0.0332,1.2168e-06,0.73,0.26,0
0.032096,0.0068277,0.037936,0.00057279,0.011553,0.00016361,0,0,0.068597,-0.028548,0,0.00085079,0,0,0,0.037937,0.00057207,0.011553,0.25089,0.016687,0.033263,1.2191e-06,0.74,0.26,0
0.032783,0.0068735,0.037927,0.00049036,0.011525,0.00013145,0,0,0.068645,-0.028691,0,0.00068352,0,0,0,0.037928,0.0004899,0.011525,0.20117,0.016648,0.03332,1.2212e-06,0.75,0.26,0
0.033469,0.0069165,0.037917,0.00041376,0.011499,0.00010212,0,0,0.068687,-0.028823,0,0.00053104,0,0,0,0.037918,0.00041348,0.011499,0.15602,0.01661,0.033372,1.223e-06,0.76,0.26,0
0.034156,0.006957,0.037907,0.00034264,0.011475,7.5603e-05,0,0,0.068724,-0.028944,0,0.00039313,0,0,0,0.037907,0.00034248,0.011475,0.11531,0.016575,0.033419,1.2245e-06,0.77,0.26,0
0.034844,0.006995,0.037896,0.00027667,0.011452,5.1827e-05,0,0,0.068756,-0.029056,0,0.0002695,0,0,0,0.037896,0.0002766,0.011452,0.078933,0.016542,0.033462,1.2258e-06,0.78,0.26,0
0.035532,0.0070305,0.037885,0.00021556,0.01143,3.0718e-05,0,0,0.068783,-0.029158,0,0.00015973,0,0,0,0.037886,0.00021553,0.01143,0.046722,0.01651,0.033501,1.2269e-06,0.79,0.26,0
0.03622,0.0070637,0.037874,0.00015901,0.01141,1.2189e-05,0,0,0.068807,-0.029253,0,6.3384e-05,0,0,0,0.037874,0.00015901,0.01141,0.018517,0.016481,0.033536,1.2278e-06,0.8,0.26,0
0.036908,0.0070948,0.037863,0.00010675,0.011391,-3.8606e-06,0,0,0.068828,-0.029339,0,-2.0075e-05,0,0,0,0.037863,0.00010675,0.011391,-0.0058584,0.016454,0.033568,1.2285e-06,0.81,0.26,0
0.037596,0.0071236,0.037852,5.8536e-05,0.011373,-1.754e-05,0,0,0.068846,-0.029418,0,-9.1205e-05,0,0,0,0.037852,5.8528e-05,0.011373,-0.02659,0.016428,0.033597,1.2292e-06,0.82,0.26,0
0.038285,0.0071504,0.037842,1.4126e-05,0.011357,-2.8962e-05,0,0,0.068861,-0.029491,0,-0.0001506,0,0,0,0.037842,1.4104e-05,0.011357,-0.043868,0.016404,0.033623,1.2297e-06,0.83,0.26,0
0.038973,0.0071752,0.037831,-2.6693e-05,0.011341,-3.825e-05,0,0,0.068874,-0.029557,0,-0.0001989,0,0,0,0.037831,-2.6731e-05,0.011341,-0.057889,0.016382,0.033647,1.2301e-06,0.84,0.26,0
0.039662,0.0071981,0.037821,-6.4122e-05,0.011327,-4.5525e-05,0,0,0.068885,-0.029617,0,-0.00023673,0,0,0,0.037821,-6.4177e-05,0.011327,-0.06885,0.016361,0.033668,1.2304e-06,0.85,0.26,0
0.040351,0.0072192,0.037812,-9.8345e-05,0.011314,-5.0915e-05,0,0,0.068894,-0.029672,0,-0.00026476,0,0,0,0.037812,-9.8413e-05,0.011314,-0.076951,0.016342,0.033686,1.2306e-06,0.86,0.26,0
0.04104,0.0072385,0.037802,-0.00012953,0.011302,-5.4547e-05,0,0,0.068901,-0.029722,0,-0.00028365,0,0,0,0.037803,-0.00012961,0.011302,-0.082393,0.016325,0.033703,1.2308e-06,0.87,0.26,0
0.041729,0.0072561,0.037794,-0.00015783,0.011291,-5.6551e-05,0,0,0.068908,-0.029766,0,-0.00029406,0,0,0,0.037794,-0.00015791,0.011291,-0.085375,0.016309,0.033718,1.231e-06,0.88,0.26,0
0.042418,0.0072721,0.037786,-0.00018338,0.011281,-5.7054e-05,0,0,0.068913,-0.029807,0,-0.00029668,0,0,0,0.037786,-0.00018347,0.011281,-0.086095,0.016294,0.033731,1.2311e-06,0.89,0.26,0
0.043107,0.0072865,0.037778,-0.00020631,0.011272,-5.6187e-05,0,0,0.068917,-0.029843,0,-0.00029217,0,0,0,0.037778,-0.0002064,0.011272,-0.084753,0.016281,0.033743,1.2311e-06,0.9,0.26,0
0.043796,0.0072993,0.037771,-0.00022674,0.011263,-5.4079e-05,0,0,0.068921,-0.029874,0,-0.00028121,0,0,0,0.037771,-0.00022681,0.011263,-0.081542,0.016269,0.033753,1.2312e-06,0.91,0.26,0
0.044486,0.0073107,0.037765,-0.00024475,0.011256,-5.0855e-05,0,0,0.068924,-0.029902,0,-0.00026445,0,0,0,0.037765,-0.00024482,0.011256,-0.076658,0.016259,0.033762,1.2312e-06,0.92,0.26,0
0.045175,0.0073207,0.03776,-0.00026045,0.01125,-4.6644e-05,0,0,0.068926,-0.029927,0,-0.00024255,0,0,0,0.03776,-0.0002605,0.01125,-0.070292,0.01625,0.03377,1.2312e-06,0.93,0.26,0
0.045864,0.0073292,0.037755,-0.0002739,0.011244,-4.1572e-05,0,0,0.068928,-0.029947,0,-0.00021618,0,0,0,0.037755,-0.00027394,0.011244,-0.062634,0.016242,0.033776,1.2312e-06,0.94,0.26,0
0.046553,0.0073364,0.037751,-0.00028517,0.01124,-3.5763e-05,0,0,0.068929,-0.029965,0,-0.00018597,0,0,0,0.037751,-0.0002852,0.01124,-0.053872,0.016235,0.033782,1.2312e-06,0.95,0.26,0
0.047243,0.0073423,0.037748,-0.00029432,0.011236,-2.9343e-05,0,0,0.06893,-0.029979,0,-0.00015258,0,0,0,0.037748,-0.00029434,0.011236,-0.044194,0.01623,0.033786,1.2311e-06,0.96,0.26,0
0.047932,0.0073468,0.037745,-0.00030139,0.011233,-2.2434e-05,0,0,0.068931,-0.02999,0,-0.00011666,0,0,0,0.037745,-0.0003014,0.011233,-0.033784,0.016226,0.03379,1.2311e-06,0.97,0.26,0
0.048621,0.00735,0.037743,-0.00030642,0.011231,-1.5159e-05,0,0,0.068932,-0.029997,0,-7.8826e-05,0,0,0,0.037743,-0.00030642,0.011231,-0.022826,0.016223,0.033792,1.2311e-06,0.98,0.26,0
0.049311,0.0073519,0.037742,-0.00030942,0.01123,-7.6403e-06,0,0,0.068932,-0.030002,0,-3.9729e-05,0,0,0,0.037742,-0.00030942,0.01123,-0.011504,0.016221,0.033793,1.2311e-06,0.99,0.26,0
0.05,0.0073526,0.037742,-0.00031042,0.011229,1.2318e-05,0,0,0.068932,-0.030003,0,6.4052e-05,0,0,0,0.037742,-0.00031043,0.011229,0.018547,0.01622,0.033794,1.2311e-06,1,0.26,0
0,0,0.034271,0.014687,0.014687,0.0036749,0,0,0.025458,-1.6263e-19,0,0.0095547,0,0,0,0.034938,0.014021,0.014687,10.286,0.021215,0.020592,4.4685e-07,0,0.27,0
0.00025458,9.5547e-05,0.034223,0.014104,0.014498,0.0036775,0,0,0.025643,-0.00051214,0,0.0095616,0,0,0,0.034875,0.013453,0.014498,10.041,0.020942,0.020918,4.6616e-07,0.01,0.27,0
0.00051285,0.00019343,0.03442,0.013611,0.014409,0.0037154,0,0,0.026015,-0.0010384,0,0.0096599,0,0,0,0.035064,0.012967,0.014409,9.8252,0.020813,0.021412,4.965e-07,0.02,0.27,0
0.00077487,0.00029337,0.034619,0.013105,0.014317,0.0037375,0,0,0.026392,-0.0015761,0,0.0097176,0,0,0,0.035249,0.012474,0.014317,9.5799,0.02068,0.021912,5.2749e-07,0.03,0.27,0
0.0010407,0.00039507,0.034816,0.012589,0.014222,0.0037436,0,0,0.026773,-0.0021222,0,0.0097335,0,0,0,0.03543,0.011976,0.014222,9.3081,0.020542,0.022416,5.5894e-07,0.04,0.27,0
0.0013103,0.00049822,0.035012,0.012067,0.014124,0.0037336,0,0,0.027155,-0.002674,0,0.0097074,0,0,0,0.035604,0.011474,0.014124,9.0134,0.020401,0.02292,5.9065e-07,0.05,0.27,0
0.0015838,0.00060251,0.035204,0.01154,0.014023,0.0037076,0,0,0.027535,-0.0032282,0,0.0096397,0,0,0,0.035771,0.010972,0.014023,8.6993,0.020255,0.023423,6.224e-07,0.06,0.27,0
0.001861,0.00070765,0.035391,0.011011,0.013921,0.003666,0,0,0.027911,-0.003782,0,0.0095317,0,0,0,0.03593,0.010472,0.013921,8.3693,0.020108,0.023921,6.5401e-07,0.07,0.27,0
0.002142,0.00081333,0.035571,0.010484,0.013817,0.0036097,0,0,0.028281,-0.0043325,0,0.0093852,0,0,0,0.03608,0.0099747,0.013817,8.0271,0.019957,0.024412,6.8526e-07,0.08,0.27,0
0.0024266,0.00091926,0.035744,0.0099594,0.013711,0.0035396,0,0,0.028643,-0.0048771,0,0.0092029,0,0,0,0.036221,0.0094823,0.013711,7.6761,0.019805,0.024895,7.1598e-07,0.09,0.27,0
0.0027149,0.0010252,0.035908,0.0094404,0.013605,0.0034568,0,0,0.028994,-0.0054133,0,0.0089877,0,0,0,0.036352,0.0089964,0.013605,7.3196,0.019651,0.025367,7.46e-07,0.1,0.27,0
0.0030065,0.0011308,0.036062,0.0089287,0.013497,0.0033629,0,0,0.029334,-0.0059391,0,0.0087434,0,0,0,0.036473,0.0085182,0.013497,6.9608,0.019496,0.025828,7.7517e-07,0.11,0.27,0
0.0033016,0.001236,0.036206,0.0084261,0.01339,0.0032592,0,0,0.029662,-0.0064527,0,0.0084738,0,0,0,0.036583,0.0080488,0.01339,6.6025,0.019341,0.026274,8.0338e-07,0.12,0.27,0
0.0035998,0.0013404,0.036339,0.0079338,0.013282,0.0031474,0,0,0.029975,-0.0069526,0,0.0081832,0,0,0,0.036684,0.0075892,0.013282,6.2475,0.019185,0.026707,8.3051e-07,0.13,0.27,0
0.003901,0.001444,0.036461,0.0074528,0.013174,0.0030291,0,0,0.030273,-0.0074376,0,0.0078757,0,0,0,0.036774,0.0071399,0.013174,5.8982,0.019029,0.027125,8.5649e-07,0.14,0.27,0
0.0042052,0.0015466,0.036571,0.0069841,0.013067,0.002906,0,0,0.030556,-0.0079072,0,0.0075557,0,0,0,0.036854,0.0067014,0.013067,5.5568,0.018874,0.027527,8.8127e-07,0.15,0.27,0
0.0045122,0.001648,0.03667,0.0065281,0.012959,0.0027798,0,0,0.030824,-0.0083607,0,0.0072274,0,0,0,0.036924,0.0062739,0.012959,5.2252,0.018719,0.027915,9.0481e-07,0.16,0.27,0
0.0048217,0.0017481,0.036758,0.006085,0.012853,0.0026519,0,0,0.031076,-0.0087981,0,0.0068949,0,0,0,0.036985,0.0058575,0.012853,4.9052,0.018565,0.028286,9.2711e-07,0.17,0.27,0
0.0051337,0.001847,0.036834,0.0056549,0.012747,0.0025239,0,0,0.031314,-0.0092194,0,0.0065621,0,0,0,0.037037,0.0054519,0.012747,4.5981,0.018412,0.028643,9.4817e-07,0.18,0.27,0
0.005448,0.0019445,0.036901,0.0052375,0.012641,0.0023972,0,0,0.031537,-0.0096251,0,0.0062327,0,0,0,0.037081,0.005057,0.012641,4.3051,0.01826,0.028986,9.6802e-07,0.19,0.27,0
0.0057644,0.0020406,0.036957,0.0048324,0.012537,0.002273,0,0,0.031746,-0.010016,0,0.0059099,0,0,0,0.037117,0.0046723,0.012537,4.0274,0.018109,0.029314,9.8669e-07,0.2,0.27,0
0.0060829,0.0021353,0.037004,0.004439,0.012433,0.0021526,0,0,0.031942,-0.010392,0,0.0055969,0,0,0,0.037145,0.0042974,0.012433,3.7657,0.017958,0.02963,1.0042e-06,0.21,0.27,0
0.0064033,0.0022287,0.037042,0.0040568,0.01233,0.002037,0,0,0.032126,-0.010755,0,0.0052963,0,0,0,0.037167,0.0039314,0.01233,3.5206,0.017809,0.029934,1.0207e-06,0.22,0.27,0
0.0067254,0.0023208,0.037072,0.0036847,0.012227,0.0019271,0,0,0.032299,-0.011105,0,0.0050105,0,0,0,0.037183,0.0035738,0.012227,3.2925,0.017661,0.030226,1.0362e-06,0.23,0.27,0
0.0070492,0.0024116,0.037095,0.0033219,0.012125,0.0018237,0,0,0.032461,-0.011444,0,0.0047416,0,0,0,0.037193,0.0032237,0.012125,3.0819,0.017514,0.030509,1.0508e-06,0.24,0.27,0
0.0073746,0.0025012,0.037112,0.0029674,0.012024,0.0017274,0,0,0.032614,-0.011773,0,0.0044913,0,0,0,0.037199,0.0028802,0.012024,2.8888,0.017368,0.030783,1.0645e-06,0.25,0.27,0
0.0077015,0.0025898,0.037123,0.0026201,0.011923,0.0016388,0,0,0.03276,-0.012094,0,0.0042609,0,0,0,0.037201,0.0025424,0.011923,2.7133,0.017222,0.03105,1.0775e-06,0.26,0.27,0
0.0080298,0.0026773,0.037129,0.0022789,0.011822,0.0015583,0,0,0.032899,-0.012407,0,0.0040516,0,0,0,0.037199,0.0022093,0.011822,2.5552,0.017077,0.03131,1.0899e-06,0.27,0.27,0
0.0083595,0.0027639,0.037132,0.0019426,0.011722,0.0014862,0,0,0.033032,-0.012714,0,0.0038642,0,0,0,0.037194,0.0018799,0.011722,2.4142,0.016932,0.031566,1.1017e-06,0.28,0.27,0
0.0086905,0.0028497,0.037131,0.00161,0.011622,0.0014227,0,0,0.033161,-0.013016,0,0.003699,0,0,0,0.037188,0.0015531,0.011622,2.2899,0.016788,0.031818,1.1131e-06,0.29,0.27,0
0.0090227,0.0029348,0.037128,0.00128,0.011522,0.0013678,0,0,0.033287,-0.013315,0,0.0035562,0,0,0,0.03718,0.0012279,0.011522,2.1819,0.016643,0.032069,1.1241e-06,0.3,0.27,0
0.0093562,0.0030194,0.037123,0.00095139,0.011422,0.0013214,0,0,0.033411,-0.013612,0,0.0034356,0,0,0,0.037171,0.00090319,0.011422,2.0894,0.016499,0.032319,1.1348e-06,0.31,0.27,0
0.0096909,0.0031034,0.037118,0.00062296,0.011322,0.0012834,0,0,0.033534,-0.013909,0,0.0033369,0,0,0,0.037163,0.00057788,0.011322,2.0116,0.016354,0.03257,1.1454e-06,0.32,0.27,0
0.010027,0.0031871,0.037112,0.00029359,0.011222,0.0012535,0,0,0.033658,-0.014207,0,0.0032591,0,0,0,0.037155,0.00025096,0.011222,1.9477,0.016209,0.032824,1.1559e-06,0.33,0.27,0
0.010364,0.0032705,0.037108,-3.7816e-05,0.011121,0.0012313,0,0,0.033783,-0.014507,0,0.0032013,0,0,0,0.037149,-7.8585e-05,0.011121,1.8964,0.016064,0.033081,1.1664e-06,0.34,0.27,0
0.010703,0.0033537,0.037105,-0.00037229,0.01102,0.0012162,0,0,0.033911,-0.01481,0,0.0031621,0,0,0,0.037144,-0.00041171,0.01102,1.8567,0.015918,0.033344,1.1771e-06,0.35,0.27,0
0.011042,0.0034369,0.037104,-0.00071078,0.010918,0.0012076,0,0,0.034042,-0.015117,0,0.0031397,0,0,0,0.037142,-0.0007493,0.010918,1.8272,0.01577,0.033613,1.1879e-06,0.36,0.27,0
0.011383,0.00352,0.037106,-0.0010541,0.010816,0.0012047,0,0,0.034177,-0.01543,0,0.0031322,0,0,0,0.037144,-0.0010921,0.010816,1.8064,0.015622,0.033889,1.1989e-06,0.37,0.27,0
0.011726,0.0036031,0.037111,-0.0014031,0.010712,0.0012067,0,0,0.034318,-0.01575,0,0.0031375,0,0,0,0.037149,-0.0014409,0.010712,1.7929,0.015473,0.034174,1.2102e-06,0.38,0.27,0
0.01207,0.0036862,0.037119,-0.0017583,0.010608,0.0012127,0,0,0.034465,-0.016077,0,0.003153,0,0,0,0.037157,-0.0017961,0.010608,1.7849,0.015323,0.034468,1.2219e-06,0.39,0.27,0
0.012415,0.0037695,0.037132,-0.0021202,0.010504,0.0012215,0,0,0.034617,-0.016411,0,0.003176,0,0,0,0.03717,-0.0021582,0.010504,1.7807,0.015172,0.034772,1.234e-06,0.4,0.27,0
0.012762,0.0038528,0.03715,-0.002489,0.010398,0.0012321,0,0,0.034777,-0.016753,0,0.0032036,0,0,0,0.037188,-0.0025273,0.010398,1.7787,0.01502,0.035086,1.2464e-06,0.41,0.27,0
0.013111,0.0039362,0.037171,-0.0028648,0.010292,0.0012434,0,0,0.034943,-0.017104,0,0.0032329,0,0,0,0.03721,-0.0029034,0.010292,1.7772,0.014866,0.03541,1.2592e-06,0.42,0.27,0
0.013461,0.0040196,0.037198,-0.0032476,0.010185,0.0012541,0,0,0.035116,-0.017462,0,0.0032607,0,0,0,0.037236,-0.0032864,0.010185,1.7744,0.014712,0.035745,1.2724e-06,0.43,0.27,0
0.013813,0.004103,0.037228,-0.0036369,0.010077,0.0012631,0,0,0.035296,-0.017829,0,0.0032841,0,0,0,0.037267,-0.0036759,0.010077,1.7687,0.014556,0.036089,1.2859e-06,0.44,0.27,0
0.014167,0.0041863,0.037263,-0.0040323,0.0099692,0.0012692,0,0,0.035482,-0.018202,0,0.0032999,0,0,0,0.037302,-0.0040712,0.0099692,1.7588,0.0144,0.036441,1.2996e-06,0.45,0.27,0
0.014523,0.0042694,0.037302,-0.0044329,0.0098606,0.0012713,0,0,0.035673,-0.018582,0,0.0033055,0,0,0,0.03734,-0.0044716,0.0098606,1.7432,0.014243,0.036802,1.3135e-06,0.46,0.27,0
0.01488,0.0043521,0.037344,-0.004838,0.0097518,0.0012685,0,0,0.03587,-0.018967,0,0.003298,0,0,0,0.037382,-0.0048761,0.0097518,1.7209,0.014086,0.03717,1.3275e-06,0.47,0.27,0
0.01524,0.0044345,0.037389,-0.0052464,0.0096428,0.0012597,0,0,0.03607,-0.019356,0,0.0032753,0,0,0,0.037426,-0.0052836,0.0096428,1.6909,0.013928,0.037542,1.3415e-06,0.48,0.27,0
0.015602,0.0045162,0.037436,-0.005657,0.0095338,0.0012443,0,0,0.036273,-0.019748,0,0.0032353,0,0,0,0.037472,-0.0056929,0.0095338,1.6526,0.013771,0.037919,1.3553e-06,0.49,0.27,0
0.015966,0.0045972,0.037466,-0.00054328,0.011077,0.0012232,0,0,0.050424,-0.020141,0,0.0047493,0,0,0,0.037506,-0.00058328,0.011077,1.8763,0.016,0.033872,1.1865e-06,0.5,0.27,0
0.01661,0.0047087,0.037534,0.0047331,0.01268,0.0011993,0,0,0.06462,-0.020662,0,0.0062362,0,0,0,0.037578,0.0046893,0.01268,2.0911,0.018316,0.02971,1.0256e-06,0.51,0.27,0
0.017258,0.0048184,0.037583,0.0044714,0.012616,0.0011721,0,0,0.064913,-0.021177,0,0.006095,0,0,0,0.037624,0.00443,0.012616,2.0248,0.018224,0.029952,1.0404e-06,0.52,0.27,0
0.017909,0.0049262,0.037631,0.0042138,0.012553,0.0011409,0,0,0.065201,-0.021683,0,0.0059327,0,0,0,0.03767,0.0041749,0.012553,1.9531,0.018133,0.03019,1.0549e-06,0.53,0.27,0
0.018562,0.0050319,0.037677,0.0039612,0.012491,0.0011057,0,0,0.065482,-0.022179,0,0.0057498,0,0,0,0.037713,0.003925,0.012491,1.8764,0.018043,0.030423,1.069e-06,0.54,0.27,0
0.019218,0.0051352,0.037721,0.0037145,0.012431,0.0010668,0,0,0.065755,-0.022662,0,0.0055475,0,0,0,0.037755,0.0036811,0.012431,1.7951,0.017955,0.03065,1.0826e-06,0.55,0.27,0
0.019877,0.0052361,0.037763,0.0034744,0.012371,0.0010245,0,0,0.066019,-0.023132,0,0.0053274,0,0,0,0.037794,0.0034438,0.012371,1.7099,0.017869,0.03087,1.0957e-06,0.56,0.27,0
0.020539,0.0053344,0.037802,0.0032417,0.012313,0.00097912,0,0,0.066271,-0.023586,0,0.0050914,0,0,0,0.03783,0.003214,0.012313,1.6215,0.017786,0.031082,1.1083e-06,0.57,0.27,0
0.021202,0.00543,0.037838,0.0030168,0.012257,0.00093111,0,0,0.066513,-0.024023,0,0.0048418,0,0,0,0.037863,0.0029919,0.012257,1.5306,0.017704,0.031285,1.1202e-06,0.58,0.27,0
0.021869,0.0055227,0.037871,0.0028004,0.012202,0.00088096,0,0,0.066741,-0.024443,0,0.004581,0,0,0,0.037893,0.0027782,0.012202,1.438,0.017624,0.03148,1.1314e-06,0.59,0.27,0
0.022537,0.0056124,0.037901,0.0025926,0.012148,0.00082917,0,0,0.066957,-0.024844,0,0.0043117,0,0,0,0.03792,0.0025732,0.012148,1.3445,0.017547,0.031665,1.142e-06,0.6,0.27,0
0.023208,0.0056991,0.037927,0.002394,0.012096,0.00077624,0,0,0.06716,-0.025226,0,0.0040364,0,0,0,0.037944,0.002377,0.012096,1.2509,0.017472,0.03184,1.1519e-06,0.61,0.27,0
0.02388,0.0057827,0.03795,0.0022045,0.012046,0.00072268,0,0,0.067349,-0.025589,0,0.0037579,0,0,0,0.037964,0.0021899,0.012046,1.1578,0.0174,0.032006,1.1611e-06,0.62,0.27,0
0.024555,0.0058631,0.037969,0.0020242,0.011998,0.00066898,0,0,0.067525,-0.025932,0,0.0034787,0,0,0,0.037982,0.0020118,0.011998,1.0658,0.01733,0.032161,1.1696e-06,0.63,0.27,0
0.025231,0.0059404,0.037985,0.0018532,0.011952,0.0006156,0,0,0.067688,-0.026256,0,0.0032011,0,0,0,0.037996,0.0018427,0.011952,0.97579,0.017263,0.032307,1.1775e-06,0.64,0.27,0
0.025909,0.0060144,0.037998,0.0016914,0.011907,0.00056296,0,0,0.067837,-0.02656,0,0.0029274,0,0,0,0.038007,0.0016826,0.011907,0.88812,0.017199,0.032444,1.1846e-06,0.65,0.27,0
0.026588,0.0060853,0.038008,0.0015385,0.011864,0.00051144,0,0,0.067975,-0.026846,0,0.0026595,0,0,0,0.038015,0.0015313,0.011864,0.80329,0.017137,0.032571,1.1912e-06,0.66,0.27,0
0.027268,0.006153,0.038015,0.0013944,0.011823,0.00046139,0,0,0.0681,-0.027114,0,0.0023992,0,0,0,0.038021,0.0013886,0.011823,0.72173,0.017077,0.032689,1.1971e-06,0.67,0.27,0
0.02795,0.0062176,0.03802,0.0012588,0.011784,0.00041311,0,0,0.068214,-0.027364,0,0.0021482,0,0,0,0.038024,0.0012541,0.011784,0.64376,0.017021,0.032799,1.2025e-06,0.68,0.27,0
0.028632,0.0062791,0.038022,0.0011313,0.011746,0.00036683,0,0,0.068318,-0.027598,0,0.0019075,0,0,0,0.038026,0.0011277,0.011746,0.56966,0.016966,0.0329,1.2073e-06,0.69,0.27,0
0.029316,0.0063375,0.038022,0.0010118,0.01171,0.00032278,0,0,0.068411,-0.027816,0,0.0016784,0,0,0,0.038025,0.001009,0.01171,0.49964,0.016915,0.032994,1.2117e-06,0.7,0.27,0
0.030001,0.006393,0.03802,0.00089987,0.011676,0.00028109,0,0,0.068495,-0.028018,0,0.0014617,0,0,0,0.038022,0.00089774,0.011676,0.43384,0.016865,0.03308,1.2155e-06,0.71,0.27,0
0.030686,0.0064455,0.038017,0.00079512,0.011643,0.00024191,0,0,0.06857,-0.028206,0,0.001258,0,0,0,0.038018,0.00079355,0.011643,0.37236,0.016819,0.033159,1.219e-06,0.72,0.27,0
0.031372,0.0064953,0.038012,0.00069723,0.011613,0.00020532,0,0,0.068638,-0.02838,0,0.0010677,0,0,0,0.038013,0.0006961,0.011613,0.31525,0.016774,0.033232,1.222e-06,0.73,0.27,0
0.032059,0.0065422,0.038006,0.00060586,0.011583,0.00017136,0,0,0.068698,-0.028542,0,0.00089109,0,0,0,0.038006,0.00060508,0.011583,0.26252,0.016732,0.033298,1.2247e-06,0.74,0.27,0
0.032746,0.0065866,0.037998,0.00052067,0.011556,0.00014007,0,0,0.068751,-0.028691,0,0.00072836,0,0,0,0.037999,0.00052015,0.011556,0.21413,0.016692,0.033359,1.227e-06,0.75,0.27,0
0.033434,0.0066283,0.03799,0.00044132,0.011529,0.00011144,0,0,0.068798,-0.028829,0,0.00057946,0,0,0,0.037991,0.00044099,0.011529,0.17004,0.016654,0.033415,1.2291e-06,0.76,0.27,0
0.034122,0.0066675,0.037982,0.0003675,0.011505,8.5435e-05,0,0,0.06884,-0.028957,0,0.00044426,0,0,0,0.037982,0.00036731,0.011505,0.13014,0.016618,0.033466,1.2308e-06,0.77,0.27,0
0.034811,0.0067043,0.037972,0.0002989,0.011481,6.2024e-05,0,0,0.068876,-0.029074,0,0.00032252,0,0,0,0.037972,0.0002988,0.011481,0.094329,0.016584,0.033512,1.2324e-06,0.78,0.27,0
0.0355,0.0067388,0.037963,0.00023523,0.011459,4.1141e-05,0,0,0.068909,-0.029183,0,0.00021393,0,0,0,0.037963,0.00023518,0.011459,0.062479,0.016553,0.033554,1.2337e-06,0.79,0.27,0
0.036189,0.0067711,0.037953,0.00017621,0.011439,2.271e-05,0,0,0.068937,-0.029283,0,0.00011809,0,0,0,0.037953,0.00017619,0.011439,0.034444,0.016523,0.033593,1.2348e-06,0.8,0.27,0
0.036878,0.0068012,0.037943,0.00012158,0.011419,6.6448e-06,0,0,0.068961,-0.029374,0,3.4553e-05,0,0,0,0.037943,0.00012158,0.011419,0.010066,0.016495,0.033627,1.2358e-06,0.81,0.27,0
0.037568,0.0068292,0.037933,7.1095e-05,0.011401,-7.1508e-06,0,0,0.068983,-0.029458,0,-3.7184e-05,0,0,0,0.037933,7.1093e-05,0.011401,-0.010821,0.016469,0.033659,1.2366e-06,0.82,0.27,0
0.038258,0.0068552,0.037923,2.4532e-05,0.011384,-1.8781e-05,0,0,0.069001,-0.029535,0,-9.766e-05,0,0,0,0.037923,2.4523e-05,0.011384,-0.028393,0.016444,0.033687,1.2373e-06,0.83,0.27,0
0.038948,0.0068794,0.037914,-1.8323e-05,0.011369,-2.8355e-05,0,0,0.069017,-0.029606,0,-0.00014744,0,0,0,0.037914,-1.8344e-05,0.011369,-0.042829,0.016421,0.033713,1.2378e-06,0.84,0.27,0
0.039638,0.0069016,0.037904,-5.7666e-05,0.011354,-3.5987e-05,0,0,0.069031,-0.02967,0,-0.00018713,0,0,0,0.037904,-5.77e-05,0.011354,-0.054314,0.0164,0.033736,1.2383e-06,0.85,0.27,0
0.040329,0.0069221,0.037895,-9.368e-05,0.01134,-4.1795e-05,0,0,0.069043,-0.029729,0,-0.00021733,0,0,0,0.037895,-9.3726e-05,0.01134,-0.063036,0.016381,0.033757,1.2387e-06,0.86,0.27,0
0.041019,0.0069409,0.037887,-0.00012653,0.011328,-4.5899e-05,0,0,0.069053,-0.029782,0,-0.00023868,0,0,0,0.037887,-0.00012659,0.011328,-0.069182,0.016363,0.033776,1.239e-06,0.87,0.27,0
0.04171,0.0069581,0.037879,-0.00015637,0.011317,-4.8421e-05,0,0,0.069061,-0.02983,0,-0.00025179,0,0,0,0.037879,-0.00015643,0.011317,-0.072942,0.016346,0.033792,1.2392e-06,0.88,0.27,0
0.0424,0.0069737,0.037871,-0.00018334,0.011306,-4.9484e-05,0,0,0.069068,-0.029873,0,-0.00025732,0,0,0,0.037871,-0.0001834,0.011306,-0.074505,0.016331,0.033807,1.2394e-06,0.89,0.27,0
0.043091,0.0069877,0.037864,-0.00020756,0.011297,-4.9212e-05,0,0,0.069074,-0.029912,0,-0.0002559,0,0,0,0.037864,-0.00020762,0.011297,-0.074061,0.016318,0.03382,1.2395e-06,0.9,0.27,0
0.043782,0.0070002,0.037858,-0.00022914,0.011288,-4.7727e-05,0,0,0.069079,-0.029946,0,-0.00024818,0,0,0,0.037858,-0.0002292,0.011288,-0.071798,0.016306,0.033832,1.2397e-06,0.91,0.27,0
0.044473,0.0070113,0.037852,-0.0002482,0.011281,-4.5153e-05,0,0,0.069084,-0.029976,0,-0.00023479,0,0,0,0.037852,-0.00024825,0.011281,-0.067902,0.016295,0.033842,1.2397e-06,0.92,0.27,0
0.045164,0.007021,0.037846,-0.0002648,0.011274,-4.1612e-05,0,0,0.069087,-0.030002,0,-0.00021639,0,0,0,0.037846,-0.00026485,0.011274,-0.062559,0.016285,0.03385,1.2398e-06,0.93,0.27,0
0.045854,0.0070294,0.037842,-0.00027905,0.011269,-3.7229e-05,0,0,0.06909,-0.030024,0,-0.00019359,0,0,0,0.037842,-0.00027908,0.011269,-0.055955,0.016277,0.033858,1.2398e-06,0.94,0.27,0
0.046545,0.0070364,0.037838,-0.00029098,0.011264,-3.2123e-05,0,0,0.069092,-0.030043,0,-0.00016704,0,0,0,0.037838,-0.00029101,0.011264,-0.048271,0.01627,0.033864,1.2399e-06,0.95,0.27,0
0.047236,0.0070421,0.037835,-0.00030068,0.01126,-2.6417e-05,0,0,0.069094,-0.030058,0,-0.00013737,0,0,0,0.037835,-0.0003007,0.01126,-0.03969,0.016265,0.033869,1.2399e-06,0.96,0.27,0
0.047927,0.0070465,0.037832,-0.00030817,0.011257,-2.0232e-05,0,0,0.069095,-0.03007,0,-0.00010521,0,0,0,0.037832,-0.00030818,0.011257,-0.030393,0.01626,0.033872,1.2399e-06,0.97,0.27,0
0.048618,0.0070496,0.03783,-0.0003135,0.011255,-1.3687e-05,0,0,0.069096,-0.030078,0,-7.1174e-05,0,0,0,0.03783,-0.0003135,0.011255,-0.02056,0.016257,0.033875,1.2399e-06,0.98,0.27,0
0.049309,0.0070515,0.037829,-0.00031668,0.011254,-6.9034e-06,0,0,0.069096,-0.030083,0,-3.5898e-05,0,0,0,0.037829,-0.00031669,0.011254,-0.010369,0.016255,0.033876,1.2399e-06,0.99,0.27,0
0.05,0.0070521,0.037829,-0.00031774,0.011253,1.2012e-05,0,0,0.069096,-0.030085,0,6.2464e-05,0,0,0,0.037829,-0.00031775,0.011253,0.018042,0.016255,0.033877,1.2399e-06,1,0.27,0
0,0,0.034127,0.014626,0.014626,0.0034809,0,0,0.025352,-8.1315e-20,0,0.0090504,0,0,0,0.03473,0.014023,0.014626,9.823,0.021126,0.020412,4.3552e-07,0,0.28,0
0.00025352,9.0504e-05,0.034082,0.01406,0.014442,0.0034836,0,0,0.025531,-0.00049718,0,0.0090574,0,0,0,0.03467,0.013471,0.014442,9.5936,0.020861,0.02073,4.5418e-07,0.01,0.28,0
0.00051061,0.00018321,0.034273,0.013581,0.014356,0.0035197,0,0,0.025892,-0.0010078,0,0.0091512,0,0,0,0.034855,0.012999,0.014356,9.3941,0.020737,0.02121,4.8332e-07,0.02,0.28,0
0.00077135,0.00027786,0.034465,0.01309,0.014267,0.0035415,0,0,0.026258,-0.0015294,0,0.0092079,0,0,0,0.035037,0.012519,0.014267,9.1668,0.020608,0.021697,5.1313e-07,0.03,0.28,0
0.0010358,0.00037418,0.034658,0.01259,0.014174,0.0035488,0,0,0.026628,-0.0020593,0,0.0092268,0,0,0,0.035214,0.012034,0.014174,8.9148,0.020474,0.022188,5.4344e-07,0.04,0.28,0
0.0013039,0.00047189,0.034848,0.012083,0.014079,0.0035414,0,0,0.026999,-0.002595,0,0.0092076,0,0,0,0.035386,0.011545,0.014079,8.6412,0.020337,0.02268,5.7406e-07,0.05,0.28,0
0.0015758,0.00057073,0.035035,0.011572,0.013982,0.0035194,0,0,0.027369,-0.0031336,0,0.0091505,0,0,0,0.035552,0.011055,0.013982,8.3493,0.020196,0.023172,6.0481e-07,0.06,0.28,0
0.0018513,0.0006704,0.035218,0.011058,0.013883,0.0034834,0,0,0.027736,-0.0036726,0,0.0090567,0,0,0,0.03571,0.010566,0.013883,8.0425,0.020053,0.023661,6.3551e-07,0.07,0.28,0
0.0021305,0.00077065,0.035396,0.010544,0.013782,0.0034338,0,0,0.028098,-0.0042093,0,0.0089278,0,0,0,0.035861,0.010078,0.013782,7.7238,0.019907,0.024145,6.6598e-07,0.08,0.28,0
0.0024133,0.0008712,0.035566,0.010032,0.01368,0.0033715,0,0,0.028452,-0.0047413,0,0.0087659,0,0,0,0.036004,0.0095947,0.01368,7.3966,0.019759,0.024622,6.9606e-07,0.09,0.28,0
0.0026995,0.00097181,0.035729,0.0095249,0.013576,0.0032976,0,0,0.028798,-0.0052665,0,0.0085738,0,0,0,0.036137,0.0091163,0.013576,7.0637,0.01961,0.02509,7.2557e-07,0.1,0.28,0
0.0029892,0.0010723,0.035883,0.0090234,0.013472,0.0032133,0,0,0.029134,-0.0057829,0,0.0083547,0,0,0,0.036262,0.0086444,0.013472,6.7282,0.019459,0.025548,7.5439e-07,0.11,0.28,0
0.0032822,0.0011723,0.036027,0.0085294,0.013367,0.00312,0,0,0.029458,-0.0062888,0,0.0081119,0,0,0,0.036377,0.0081799,0.013367,6.3927,0.019308,0.025994,7.824e-07,0.12,0.28,0
0.0035784,0.0012718,0.036162,0.0080442,0.013262,0.0030189,0,0,0.02977,-0.0067828,0,0.0078491,0,0,0,0.036482,0.0077238,0.013262,6.0597,0.019156,0.026428,8.0948e-07,0.13,0.28,0
0.0038776,0.0013705,0.036286,0.0075689,0.013156,0.0029116,0,0,0.030068,-0.0072638,0,0.0075702,0,0,0,0.036578,0.0072766,0.013156,5.7315,0.019004,0.026849,8.3557e-07,0.14,0.28,0
0.0041798,0.0014684,0.0364,0.0071041,0.013051,0.0027996,0,0,0.030353,-0.0077311,0,0.007279,0,0,0,0.036665,0.006839,0.013051,5.4102,0.018852,0.027256,8.606e-07,0.15,0.28,0
0.0044847,0.0015653,0.036503,0.0066505,0.012946,0.0026843,0,0,0.030624,-0.0081841,0,0.0069793,0,0,0,0.036742,0.0064111,0.012946,5.0976,0.0187,0.027649,8.8453e-07,0.16,0.28,0
0.0047922,0.0016611,0.036596,0.0062084,0.012841,0.0025673,0,0,0.030881,-0.0086226,0,0.0066749,0,0,0,0.036811,0.005993,0.012841,4.7953,0.018548,0.028028,9.0734e-07,0.17,0.28,0
0.0051023,0.0017557,0.036678,0.0057778,0.012737,0.0024497,0,0,0.031124,-0.0090467,0,0.0063692,0,0,0,0.036871,0.0055848,0.012737,4.5047,0.018398,0.028394,9.2903e-07,0.18,0.28,0
0.0054147,0.0018491,0.036751,0.0053586,0.012633,0.002333,0,0,0.031353,-0.0094564,0,0.0060657,0,0,0,0.036923,0.0051862,0.012633,4.2271,0.018247,0.028746,9.496e-07,0.19,0.28,0
0.0057294,0.0019413,0.036814,0.0049506,0.012529,0.0022183,0,0,0.03157,-0.0098524,0,0.0057675,0,0,0,0.036968,0.0047969,0.012529,3.9633,0.018098,0.029086,9.6908e-07,0.2,0.28,0
0.0060461,0.0020322,0.036868,0.0045533,0.012427,0.0021067,0,0,0.031775,-0.010235,0,0.0054774,0,0,0,0.037005,0.0044165,0.012427,3.7143,0.017949,0.029413,9.8752e-07,0.21,0.28,0
0.0063649,0.0021219,0.036915,0.004166,0.012324,0.0019992,0,0,0.031968,-0.010606,0,0.005198,0,0,0,0.037036,0.0040444,0.012324,3.4806,0.017802,0.02973,1.005e-06,0.22,0.28,0
0.0066855,0.0022104,0.036953,0.0037882,0.012222,0.0018968,0,0,0.03215,-0.010965,0,0.0049316,0,0,0,0.037061,0.00368,0.012222,3.2627,0.017655,0.030035,1.0215e-06,0.23,0.28,0
0.0070079,0.0022978,0.036985,0.0034189,0.012121,0.0018,0,0,0.032323,-0.011313,0,0.0046801,0,0,0,0.037081,0.0033226,0.012121,3.0609,0.017508,0.030332,1.0371e-06,0.24,0.28,0
0.0073319,0.0023841,0.03701,0.0030573,0.01202,0.0017097,0,0,0.032487,-0.011652,0,0.0044452,0,0,0,0.037096,0.0029714,0.01202,2.8754,0.017362,0.03062,1.0519e-06,0.25,0.28,0
0.0076576,0.0024694,0.03703,0.0027024,0.01192,0.0016262,0,0,0.032643,-0.011983,0,0.0042282,0,0,0,0.037107,0.0026255,0.01192,2.7063,0.017217,0.030901,1.066e-06,0.26,0.28,0
0.0079848,0.0025537,0.037045,0.0023533,0.01182,0.0015501,0,0,0.032793,-0.012306,0,0.0040302,0,0,0,0.037114,0.0022842,0.01182,2.5533,0.017073,0.031176,1.0795e-06,0.27,0.28,0
0.0083135,0.0026372,0.037056,0.0020089,0.01172,0.0014815,0,0,0.032938,-0.012624,0,0.003852,0,0,0,0.037119,0.0019463,0.01172,2.4163,0.016928,0.031446,1.0925e-06,0.28,0.28,0
0.0086435,0.00272,0.037064,0.001668,0.01162,0.0014207,0,0,0.033078,-0.012937,0,0.003694,0,0,0,0.037121,0.0016111,0.01162,2.2948,0.016784,0.031713,1.1049e-06,0.29,0.28,0
0.008975,0.002802,0.03707,0.0013298,0.01152,0.0013678,0,0,0.033215,-0.013247,0,0.0035563,0,0,0,0.037122,0.0012775,0.01152,2.1885,0.01664,0.031978,1.117e-06,0.3,0.28,0
0.0093078,0.0028835,0.037074,0.00099302,0.01142,0.0013226,0,0,0.03335,-0.013555,0,0.0034388,0,0,0,0.037122,0.0009446,0.01142,2.0966,0.016496,0.032243,1.1288e-06,0.31,0.28,0
0.009642,0.0029646,0.037077,0.00065668,0.01132,0.0012851,0,0,0.033484,-0.013862,0,0.0033412,0,0,0,0.037122,0.00061139,0.01132,2.0183,0.016351,0.032507,1.1405e-06,0.32,0.28,0
0.0099775,0.0030452,0.03708,0.00031973,0.01122,0.0012549,0,0,0.033618,-0.01417,0,0.0032627,0,0,0,0.037123,0.00027694,0.01122,1.9529,0.016206,0.032774,1.152e-06,0.33,0.28,0
0.010314,0.0031256,0.037083,-1.8791e-05,0.011119,0.0012316,0,0,0.033753,-0.014479,0,0.0032023,0,0,0,0.037124,-5.9633e-05,0.011119,1.8992,0.016061,0.033044,1.1635e-06,0.34,0.28,0
0.010653,0.0032057,0.037088,-0.00035981,0.011018,0.0012149,0,0,0.03389,-0.014792,0,0.0031587,0,0,0,0.037127,-0.00039919,0.011018,1.8562,0.015915,0.033318,1.175e-06,0.35,0.28,0
0.010992,0.0032858,0.037094,-0.00070418,0.010917,0.001204,0,0,0.03403,-0.015107,0,0.0031305,0,0,0,0.037132,-0.0007425,0.010917,1.8227,0.015769,0.033598,1.1866e-06,0.36,0.28,0
0.011333,0.0033657,0.037102,-0.0010527,0.010815,0.0011983,0,0,0.034174,-0.015428,0,0.0031157,0,0,0,0.03714,-0.0010903,0.010815,1.7972,0.015621,0.033884,1.1985e-06,0.37,0.28,0
0.011676,0.0034455,0.037114,-0.0014059,0.010712,0.0011971,0,0,0.034322,-0.015754,0,0.0031124,0,0,0,0.037151,-0.001443,0.010712,1.7783,0.015473,0.034178,1.2105e-06,0.38,0.28,0
0.01202,0.0035254,0.037128,-0.0017643,0.010609,0.0011993,0,0,0.034475,-0.016085,0,0.0031183,0,0,0,0.037165,-0.0018013,0.010609,1.7646,0.015324,0.034479,1.2229e-06,0.39,0.28,0
0.012365,0.0036053,0.037146,-0.0021285,0.010505,0.0012042,0,0,0.034633,-0.016424,0,0.0031309,0,0,0,0.037183,-0.0021653,0.010505,1.7545,0.015174,0.034789,1.2354e-06,0.4,0.28,0
0.012712,0.0036852,0.037168,-0.0024984,0.010401,0.0012106,0,0,0.034797,-0.016769,0,0.0031476,0,0,0,0.037205,-0.0025353,0.010401,1.7465,0.015024,0.035108,1.2483e-06,0.41,0.28,0
0.013061,0.0037651,0.037194,-0.0028743,0.010296,0.0012176,0,0,0.034967,-0.017121,0,0.0031657,0,0,0,0.037231,-0.0029113,0.010296,1.7389,0.014872,0.035435,1.2615e-06,0.42,0.28,0
0.013412,0.0038449,0.037223,-0.0032559,0.01019,0.001224,0,0,0.035143,-0.01748,0,0.0031825,0,0,0,0.037261,-0.0032929,0.01019,1.7304,0.014719,0.035771,1.275e-06,0.43,0.28,0
0.013764,0.0039246,0.037257,-0.003643,0.010084,0.0012289,0,0,0.035325,-0.017845,0,0.0031952,0,0,0,0.037294,-0.0036799,0.010084,1.7195,0.014566,0.036116,1.2887e-06,0.44,0.28,0
0.014118,0.0040042,0.037294,-0.0040351,0.0099777,0.0012312,0,0,0.035511,-0.018217,0,0.0032011,0,0,0,0.037331,-0.0040717,0.0099777,1.7048,0.014412,0.036467,1.3025e-06,0.45,0.28,0
0.014474,0.0040835,0.037335,-0.0044315,0.0098709,0.0012298,0,0,0.035703,-0.018593,0,0.0031976,0,0,0,0.037371,-0.0044677,0.0098709,1.6852,0.014258,0.036826,1.3165e-06,0.46,0.28,0
0.014832,0.0041624,0.037378,-0.0048313,0.009764,0.001224,0,0,0.035898,-0.018974,0,0.0031825,0,0,0,0.037414,-0.0048668,0.009764,1.6597,0.014104,0.03719,1.3305e-06,0.47,0.28,0
0.015192,0.0042409,0.037424,-0.0052337,0.009657,0.0012129,0,0,0.036097,-0.019358,0,0.0031535,0,0,0,0.037458,-0.0052682,0.009657,1.6274,0.013949,0.037558,1.3445e-06,0.48,0.28,0
0.015554,0.0043187,0.037471,-0.0056375,0.0095502,0.0011957,0,0,0.036298,-0.019744,0,0.0031089,0,0,0,0.037505,-0.0056707,0.0095502,1.5876,0.013795,0.037929,1.3583e-06,0.49,0.28,0
0.015918,0.0043958,0.037502,-0.00051926,0.011095,0.0011736,0,0,0.050459,-0.020131,0,0.0045564,0,0,0,0.037539,-0.00055607,0.011095,1.7999,0.016026,0.033879,1.1888e-06,0.5,0.28,0
0.016563,0.0045021,0.037569,0.0047579,0.012698,0.0011499,0,0,0.064665,-0.020645,0,0.0059793,0,0,0,0.03761,0.0047177,0.012698,2.0046,0.018342,0.029717,1.0272e-06,0.51,0.28,0
0.017211,0.0046068,0.037618,0.0045001,0.012635,0.0011235,0,0,0.064955,-0.021152,0,0.0058424,0,0,0,0.037656,0.004462,0.012635,1.9408,0.018251,0.029956,1.0419e-06,0.52,0.28,0
0.017862,0.0047095,0.037666,0.0042463,0.012574,0.0010936,0,0,0.06524,-0.021651,0,0.0056868,0,0,0,0.037702,0.0042106,0.012574,1.8723,0.018162,0.030191,1.0563e-06,0.53,0.28,0
0.018516,0.0048103,0.037712,0.0039974,0.012513,0.0010602,0,0,0.065518,-0.02214,0,0.005513,0,0,0,0.037746,0.0039641,0.012513,1.7994,0.018074,0.030422,1.0703e-06,0.54,0.28,0
0.019173,0.0049088,0.037757,0.0037541,0.012453,0.0010234,0,0,0.065789,-0.022618,0,0.0053219,0,0,0,0.037787,0.0037233,0.012453,1.7225,0.017988,0.030646,1.0839e-06,0.55,0.28,0
0.019832,0.0050051,0.037799,0.0035172,0.012395,0.00098361,0,0,0.06605,-0.023082,0,0.0051148,0,0,0,0.037827,0.003489,0.012395,1.6421,0.017903,0.030864,1.0969e-06,0.56,0.28,0
0.020494,0.0050988,0.037838,0.0032871,0.012338,0.00094103,0,0,0.066302,-0.023531,0,0.0048934,0,0,0,0.037864,0.0032615,0.012338,1.559,0.017821,0.031075,1.1095e-06,0.57,0.28,0
0.021158,0.00519,0.037875,0.0030646,0.012282,0.00089607,0,0,0.066543,-0.023965,0,0.0046596,0,0,0,0.037898,0.0030415,0.012282,1.4736,0.017741,0.031278,1.1214e-06,0.58,0.28,0
0.021825,0.0052785,0.037909,0.0028499,0.012228,0.00084913,0,0,0.066771,-0.024382,0,0.0044155,0,0,0,0.03793,0.0028294,0.012228,1.3866,0.017662,0.031472,1.1328e-06,0.59,0.28,0
0.022493,0.0053643,0.03794,0.0026436,0.012175,0.00080065,0,0,0.066988,-0.024782,0,0.0041634,0,0,0,0.037958,0.0026254,0.012175,1.2988,0.017586,0.031657,1.1435e-06,0.6,0.28,0
0.023164,0.0054472,0.037967,0.0024458,0.012124,0.00075109,0,0,0.067193,-0.025163,0,0.0039057,0,0,0,0.037983,0.0024299,0.012124,1.2108,0.017512,0.031833,1.1535e-06,0.61,0.28,0
0.023837,0.0055271,0.037991,0.0022566,0.012074,0.00070088,0,0,0.067384,-0.025526,0,0.0036446,0,0,0,0.038005,0.0022429,0.012074,1.1232,0.017441,0.032,1.1629e-06,0.62,0.28,0
0.024512,0.0056041,0.038012,0.0020763,0.012027,0.00065047,0,0,0.067563,-0.025871,0,0.0033825,0,0,0,0.038024,0.0020646,0.012027,1.0367,0.017372,0.032158,1.1716e-06,0.63,0.28,0
0.025188,0.0056781,0.03803,0.0019049,0.011981,0.00060027,0,0,0.067729,-0.026197,0,0.0031214,0,0,0,0.03804,0.0018949,0.011981,0.95169,0.017305,0.032306,1.1797e-06,0.64,0.28,0
0.025867,0.0057491,0.038045,0.0017421,0.011936,0.00055067,0,0,0.067883,-0.026505,0,0.0028635,0,0,0,0.038054,0.0017338,0.011936,0.86884,0.017241,0.032445,1.1871e-06,0.65,0.28,0
0.026546,0.0058171,0.038057,0.001588,0.011894,0.00050203,0,0,0.068025,-0.026794,0,0.0026105,0,0,0,0.038064,0.0015811,0.011894,0.78852,0.01718,0.032575,1.194e-06,0.66,0.28,0
0.027227,0.0058821,0.038066,0.0014424,0.011853,0.00045465,0,0,0.068156,-0.027067,0,0.0023642,0,0,0,0.038072,0.0014367,0.011853,0.71113,0.01712,0.032696,1.2002e-06,0.67,0.28,0
0.027909,0.0059442,0.038073,0.0013049,0.011813,0.00040883,0,0,0.068275,-0.027322,0,0.0021259,0,0,0,0.038078,0.0013004,0.011813,0.63698,0.017064,0.032809,1.2059e-06,0.68,0.28,0
0.028593,0.0060033,0.038077,0.0011755,0.011776,0.0003648,0,0,0.068384,-0.027561,0,0.001897,0,0,0,0.038081,0.0011719,0.011776,0.56634,0.01701,0.032914,1.211e-06,0.69,0.28,0
0.029277,0.0060595,0.03808,0.0010538,0.01174,0.00032277,0,0,0.068483,-0.027784,0,0.0016784,0,0,0,0.038082,0.001051,0.01174,0.49942,0.016958,0.033011,1.2157e-06,0.7,0.28,0
0.029962,0.0061129,0.03808,0.00093947,0.011706,0.00028289,0,0,0.068572,-0.027992,0,0.001471,0,0,0,0.038082,0.00093732,0.011706,0.43637,0.016908,0.033101,1.2198e-06,0.71,0.28,0
0.030648,0.0061636,0.038078,0.00083227,0.011673,0.00024529,0,0,0.068653,-0.028186,0,0.0012755,0,0,0,0.03808,0.00083066,0.011673,0.37731,0.016861,0.033184,1.2236e-06,0.72,0.28,0
0.031335,0.0062115,0.038075,0.00073186,0.011642,0.00021006,0,0,0.068726,-0.028367,0,0.0010923,0,0,0,0.038076,0.00073068,0.011642,0.32228,0.016816,0.033261,1.2269e-06,0.73,0.28,0
0.032023,0.0062569,0.038071,0.00063793,0.011613,0.00017728,0,0,0.068791,-0.028534,0,0.00092183,0,0,0,0.038072,0.00063709,0.011613,0.27133,0.016774,0.033331,1.2299e-06,0.74,0.28,0
0.032711,0.0062996,0.038065,0.00055015,0.011585,0.00014696,0,0,0.06885,-0.02869,0,0.00076418,0,0,0,0.038066,0.00054958,0.011585,0.22444,0.016733,0.033396,1.2325e-06,0.75,0.28,0
0.0334,0.0063399,0.038059,0.00046824,0.011558,0.00011912,0,0,0.068902,-0.028834,0,0.00061943,0,0,0,0.038059,0.00046786,0.011558,0.18156,0.016695,0.033455,1.2348e-06,0.76,0.28,0
0.034089,0.0063779,0.038052,0.00039188,0.011533,9.3753e-05,0,0,0.068949,-0.028967,0,0.00048751,0,0,0,0.038052,0.00039164,0.011533,0.14263,0.016659,0.033509,1.2368e-06,0.77,0.28,0
0.034779,0.0064135,0.038044,0.00032079,0.01151,7.0819e-05,0,0,0.06899,-0.02909,0,0.00036826,0,0,0,0.038044,0.00032065,0.01151,0.10756,0.016625,0.033558,1.2386e-06,0.78,0.28,0
0.035469,0.0064469,0.038036,0.00025469,0.011487,5.0271e-05,0,0,0.069027,-0.029204,0,0.00026141,0,0,0,0.038036,0.00025462,0.011487,0.076237,0.016593,0.033604,1.2402e-06,0.79,0.28,0
0.036159,0.0064781,0.038027,0.00019332,0.011466,3.2047e-05,0,0,0.069059,-0.029309,0,0.00016664,0,0,0,0.038027,0.00019329,0.011466,0.048532,0.016562,0.033645,1.2415e-06,0.8,0.28,0
0.03685,0.0065073,0.038018,0.00013642,0.011447,1.6071e-05,0,0,0.069087,-0.029406,0,8.357e-05,0,0,0,0.038018,0.00013642,0.011447,0.024307,0.016534,0.033683,1.2427e-06,0.81,0.28,0
0.037541,0.0065344,0.03801,8.3771e-05,0.011428,2.2592e-06,0,0,0.069112,-0.029495,0,1.1748e-05,0,0,0,0.03801,8.3771e-05,0.011428,0.003413,0.016507,0.033717,1.2436e-06,0.82,0.28,0
0.038232,0.0065597,0.038001,3.5143e-05,0.011411,-9.4821e-06,0,0,0.069134,-0.029577,0,-4.9307e-05,0,0,0,0.038001,3.514e-05,0.011411,-0.01431,0.016482,0.033748,1.2445e-06,0.83,0.28,0
0.038924,0.0065831,0.037992,-9.6704e-06,0.011395,-1.9252e-05,0,0,0.069153,-0.029651,0,-0.00010011,0,0,0,0.037992,-9.6801e-06,0.011395,-0.029027,0.016459,0.033776,1.2452e-06,0.84,0.28,0
0.039615,0.0066047,0.037984,-5.086e-05,0.01138,-2.7157e-05,0,0,0.06917,-0.02972,0,-0.00014122,0,0,0,0.037984,-5.088e-05,0.01138,-0.04091,0.016438,0.033801,1.2458e-06,0.85,0.28,0
0.040307,0.0066246,0.037975,-8.8606e-05,0.011366,-3.3305e-05,0,0,0.069184,-0.029782,0,-0.00017319,0,0,0,0.037975,-8.8635e-05,0.011366,-0.050132,0.016418,0.033824,1.2463e-06,0.86,0.28,0
0.040999,0.0066428,0.037967,-0.00012307,0.011353,-3.7809e-05,0,0,0.069196,-0.029838,0,-0.0001966,0,0,0,0.037967,-0.00012311,0.011353,-0.056872,0.016399,0.033844,1.2467e-06,0.87,0.28,0
0.041691,0.0066595,0.03796,-0.0001544,0.011342,-4.0782e-05,0,0,0.069207,-0.029889,0,-0.00021207,0,0,0,0.03796,-0.00015445,0.011342,-0.061307,0.016382,0.033863,1.2471e-06,0.88,0.28,0
0.042383,0.0066746,0.037953,-0.00018274,0.011331,-4.2343e-05,0,0,0.069216,-0.029936,0,-0.00022018,0,0,0,0.037953,-0.00018279,0.011331,-0.063617,0.016367,0.033879,1.2474e-06,0.89,0.28,0
0.043076,0.0066882,0.037946,-0.00020822,0.011321,-4.2608e-05,0,0,0.069224,-0.029977,0,-0.00022156,0,0,0,0.037946,-0.00020827,0.011321,-0.063984,0.016353,0.033894,1.2476e-06,0.9,0.28,0
0.043768,0.0067004,0.03794,-0.00023094,0.011313,-4.1695e-05,0,0,0.06923,-0.030013,0,-0.00021681,0,0,0,0.03794,-0.00023098,0.011313,-0.062586,0.016341,0.033906,1.2478e-06,0.91,0.28,0
0.04446,0.0067112,0.037934,-0.000251,0.011305,-3.9723e-05,0,0,0.069236,-0.030045,0,-0.00020656,0,0,0,0.037934,-0.00025104,0.011305,-0.059603,0.016329,0.033917,1.2479e-06,0.92,0.28,0
0.045152,0.0067206,0.037929,-0.0002685,0.011298,-3.681e-05,0,0,0.069241,-0.030073,0,-0.00019141,0,0,0,0.037929,-0.00026854,0.011298,-0.055214,0.01632,0.033927,1.2481e-06,0.93,0.28,0
0.045845,0.0067288,0.037925,-0.00028352,0.011292,-3.3075e-05,0,0,0.069244,-0.030097,0,-0.00017199,0,0,0,0.037925,-0.00028354,0.011292,-0.049598,0.016311,0.033935,1.2481e-06,0.94,0.28,0
0.046537,0.0067356,0.037921,-0.00029611,0.011288,-2.8636e-05,0,0,0.069247,-0.030117,0,-0.00014891,0,0,0,0.037921,-0.00029613,0.011288,-0.042932,0.016304,0.033942,1.2482e-06,0.95,0.28,0
0.04723,0.0067411,0.037918,-0.00030633,0.011284,-2.3611e-05,0,0,0.06925,-0.030134,0,-0.00012278,0,0,0,0.037918,-0.00030635,0.011284,-0.035392,0.016298,0.033947,1.2483e-06,0.96,0.28,0
0.047922,0.0067454,0.037916,-0.00031424,0.01128,-1.8118e-05,0,0,0.069252,-0.030146,0,-9.4213e-05,0,0,0,0.037916,-0.00031425,0.01128,-0.027154,0.016294,0.033951,1.2483e-06,0.97,0.28,0
0.048615,0.0067484,0.037914,-0.00031986,0.011278,-1.2273e-05,0,0,0.069253,-0.030155,0,-6.3822e-05,0,0,0,0.037914,-0.00031987,0.011278,-0.018392,0.016291,0.033954,1.2483e-06,0.98,0.28,0
0.049307,0.0067503,0.037913,-0.00032323,0.011277,-6.1952e-06,0,0,0.069253,-0.03016,0,-3.2215e-05,0,0,0,0.037913,-0.00032323,0.011277,-0.0092833,0.016289,0.033956,1.2483e-06,0.99,0.28,0
0.05,0.0067509,0.037913,-0.00032435,0.011277,1.1684e-05,0,0,0.069254,-0.030162,0,6.0756e-05,0,0,0,0.037913,-0.00032435,0.011277,0.017507,0.016288,0.033957,1.2483e-06,1,0.28,0
0,0,0.033993,0.014568,0.014568,0.0032924,0,0,0.025252,1.0842e-19,0,0.0085603,0,0,0,0.034536,0.014026,0.014568,9.3632,0.021043,0.020244,4.251e-07,0,0.29,0
0.00025252,8.5603e-05,0.033948,0.014018,0.01439,0.0032951,0,0,0.025426,-0.00048353,0,0.0085673,0,0,0,0.034479,0.013487,0.01439,9.1485,0.020785,0.020555,4.4317e-07,0.01,0.29,0
0.00050852,0.00017328,0.034135,0.013552,0.014306,0.0033295,0,0,0.025777,-0.00097988,0,0.0086567,0,0,0,0.03466,0.013027,0.014306,8.9639,0.020664,0.021022,4.7122e-07,0.02,0.29,0
0.00076806,0.00026279,0.034322,0.013076,0.014219,0.0033509,0,0,0.026134,-0.0014868,0,0.0087123,0,0,0,0.034838,0.01256,0.014219,8.7534,0.020539,0.021497,4.9996e-07,0.03,0.29,0
0.0010312,0.00035388,0.034509,0.01259,0.01413,0.0033591,0,0,0.026493,-0.002002,0,0.0087335,0,0,0,0.035013,0.012087,0.01413,8.5198,0.02041,0.021976,5.2922e-07,0.04,0.29,0
0.0012979,0.00044632,0.034695,0.012097,0.014037,0.0033539,0,0,0.026855,-0.0025231,0,0.0087201,0,0,0,0.035182,0.01161,0.014037,8.2661,0.020276,0.022457,5.5885e-07,0.05,0.29,0
0.0015683,0.00053984,0.034878,0.011599,0.013943,0.0033355,0,0,0.027216,-0.0030475,0,0.0086722,0,0,0,0.035347,0.01113,0.013943,7.9951,0.02014,0.02294,5.8868e-07,0.06,0.29,0
0.0018422,0.0006342,0.035057,0.011098,0.013847,0.0033042,0,0,0.027574,-0.0035729,0,0.0085909,0,0,0,0.035505,0.010651,0.013847,7.7099,0.020001,0.02342,6.1854e-07,0.07,0.29,0
0.0021198,0.00072914,0.035232,0.010597,0.013749,0.0032606,0,0,0.027928,-0.0040969,0,0.0084775,0,0,0,0.035656,0.010173,0.013749,7.4135,0.019859,0.023897,6.4828e-07,0.08,0.29,0
0.0024008,0.00082443,0.0354,0.010097,0.013649,0.0032053,0,0,0.028276,-0.0046174,0,0.0083339,0,0,0,0.0358,0.0096976,0.013649,7.1087,0.019716,0.024368,6.7773e-07,0.09,0.29,0
0.0026853,0.00091985,0.035561,0.0096005,0.013548,0.0031394,0,0,0.028616,-0.0051323,0,0.0081625,0,0,0,0.035935,0.0092263,0.013548,6.7983,0.01957,0.024832,7.0676e-07,0.1,0.29,0
0.0029731,0.0010152,0.035715,0.0091085,0.013447,0.0030639,0,0,0.028948,-0.0056399,0,0.007966,0,0,0,0.036063,0.0087603,0.013447,6.4849,0.019423,0.025287,7.3522e-07,0.11,0.29,0
0.0032642,0.0011102,0.035859,0.0086227,0.013345,0.0029798,0,0,0.029269,-0.0061385,0,0.0077475,0,0,0,0.036181,0.0083005,0.013345,6.1712,0.019276,0.025732,7.6301e-07,0.12,0.29,0
0.0035585,0.0012048,0.035995,0.0081442,0.013242,0.0028885,0,0,0.029579,-0.0066268,0,0.0075102,0,0,0,0.036291,0.0078478,0.013242,5.8593,0.019127,0.026167,7.9001e-07,0.13,0.29,0
0.0038558,0.0012987,0.036121,0.0076742,0.013139,0.0027913,0,0,0.029878,-0.0071038,0,0.0072574,0,0,0,0.036393,0.0074029,0.013139,5.5515,0.018978,0.02659,8.1615e-07,0.14,0.29,0
0.0041561,0.001392,0.036238,0.0072134,0.013036,0.0026895,0,0,0.030163,-0.0075687,0,0.0069927,0,0,0,0.036485,0.0069663,0.013036,5.2496,0.018829,0.027001,8.4137e-07,0.15,0.29,0
0.0044591,0.0014843,0.036345,0.0067624,0.012932,0.0025844,0,0,0.030437,-0.0080209,0,0.0067195,0,0,0,0.036569,0.0065383,0.012932,4.9554,0.01868,0.027399,8.6561e-07,0.16,0.29,0
0.0047648,0.0015757,0.036443,0.0063215,0.012829,0.0024773,0,0,0.030697,-0.0084601,0,0.0064411,0,0,0,0.036645,0.0061191,0.012829,4.6705,0.018531,0.027785,8.8885e-07,0.17,0.29,0
0.005073,0.0016661,0.03653,0.0058908,0.012726,0.0023695,0,0,0.030945,-0.0088862,0,0.0061608,0,0,0,0.036713,0.0057086,0.012726,4.3962,0.018382,0.028159,9.1107e-07,0.18,0.29,0
0.0053837,0.0017553,0.036609,0.0054703,0.012624,0.0022622,0,0,0.031181,-0.0092995,0,0.0058817,0,0,0,0.036772,0.0053069,0.012624,4.1336,0.018234,0.02852,9.3228e-07,0.19,0.29,0
0.0056967,0.0018435,0.036679,0.0050599,0.012522,0.0021564,0,0,0.031404,-0.0097002,0,0.0056068,0,0,0,0.036825,0.0049135,0.012522,3.8837,0.018087,0.028869,9.5249e-07,0.2,0.29,0
0.0060118,0.0019306,0.03674,0.0046592,0.01242,0.0020533,0,0,0.031616,-0.010089,0,0.0053385,0,0,0,0.036871,0.0045283,0.01242,3.6473,0.01794,0.029208,9.7172e-07,0.21,0.29,0
0.006329,0.0020166,0.036793,0.0042676,0.012318,0.0019536,0,0,0.031818,-0.010466,0,0.0050794,0,0,0,0.03691,0.0041507,0.012318,3.425,0.017793,0.029535,9.9003e-07,0.22,0.29,0
0.0066482,0.0021015,0.03684,0.0038847,0.012217,0.0018583,0,0,0.032009,-0.010832,0,0.0048316,0,0,0,0.036944,0.0037802,0.012217,3.2173,0.017647,0.029853,1.0074e-06,0.23,0.29,0
0.0069692,0.0021853,0.036879,0.0035096,0.012117,0.0017681,0,0,0.032191,-0.011189,0,0.004597,0,0,0,0.036972,0.0034162,0.012117,3.0245,0.017502,0.030162,1.024e-06,0.24,0.29,0
0.007292,0.0022682,0.036913,0.0031417,0.012016,0.0016835,0,0,0.032365,-0.011537,0,0.0043771,0,0,0,0.036996,0.003058,0.012016,2.8468,0.017357,0.030464,1.0399e-06,0.25,0.29,0
0.0076165,0.0023501,0.036941,0.00278,0.011916,0.0016051,0,0,0.032532,-0.011877,0,0.0041732,0,0,0,0.037016,0.0027048,0.011916,2.6843,0.017212,0.030758,1.055e-06,0.26,0.29,0
0.0079426,0.0024311,0.036964,0.0024238,0.011816,0.0015332,0,0,0.032692,-0.01221,0,0.0039864,0,0,0,0.037032,0.0023558,0.011816,2.5367,0.017068,0.031046,1.0695e-06,0.27,0.29,0
0.0082703,0.0025114,0.036984,0.002072,0.011717,0.0014682,0,0,0.032847,-0.012538,0,0.0038175,0,0,0,0.037045,0.0020103,0.011717,2.404,0.016924,0.03133,1.0835e-06,0.28,0.29,0
0.0085995,0.002591,0.037,0.0017237,0.011617,0.0014103,0,0,0.032998,-0.012861,0,0.0036667,0,0,0,0.037056,0.0016674,0.011617,2.2857,0.01678,0.031611,1.097e-06,0.29,0.29,0
0.0089303,0.0026699,0.037014,0.0013779,0.011517,0.0013594,0,0,0.033145,-0.013182,0,0.0035344,0,0,0,0.037066,0.0013261,0.011517,2.1814,0.016636,0.031889,1.1101e-06,0.3,0.29,0
0.0092625,0.0027483,0.037026,0.0010337,0.011418,0.0013156,0,0,0.03329,-0.013499,0,0.0034205,0,0,0,0.037074,0.00098573,0.011418,2.0905,0.016493,0.032167,1.1229e-06,0.31,0.29,0
0.0095961,0.0028262,0.037037,0.00069022,0.011318,0.0012787,0,0,0.033434,-0.013816,0,0.0033245,0,0,0,0.037082,0.00064529,0.011318,2.0123,0.016348,0.032445,1.1356e-06,0.32,0.29,0
0.0099311,0.0029037,0.037047,0.0003464,0.011218,0.0012484,0,0,0.033578,-0.014133,0,0.0032459,0,0,0,0.03709,0.00030398,0.011218,1.946,0.016204,0.032724,1.148e-06,0.33,0.29,0
0.010268,0.0029809,0.037058,1.4197e-06,0.011118,0.0012245,0,0,0.033722,-0.014451,0,0.0031837,0,0,0,0.037099,-3.8997e-05,0.011118,1.8905,0.016059,0.033005,1.1604e-06,0.34,0.29,0
0.010606,0.0030579,0.03707,-0.00034554,0.011017,0.0012064,0,0,0.033868,-0.014772,0,0.0031367,0,0,0,0.037109,-0.0003844,0.011017,1.8449,0.015914,0.03329,1.1728e-06,0.35,0.29,0
0.010945,0.0031347,0.037083,-0.00069523,0.010916,0.0011937,0,0,0.034017,-0.015095,0,0.0031035,0,0,0,0.037121,-0.0007329,0.010916,1.808,0.015768,0.03358,1.1853e-06,0.36,0.29,0
0.011286,0.0032114,0.037098,-0.0010483,0.010815,0.0011856,0,0,0.034168,-0.015422,0,0.0030826,0,0,0,0.037135,-0.0010851,0.010815,1.7785,0.015621,0.033876,1.1978e-06,0.37,0.29,0
0.011628,0.003288,0.037115,-0.0014053,0.010713,0.0011815,0,0,0.034323,-0.015754,0,0.0030719,0,0,0,0.037151,-0.0014415,0.010713,1.7552,0.015474,0.034177,1.2105e-06,0.38,0.29,0
0.011972,0.0033645,0.037135,-0.0017667,0.010611,0.0011806,0,0,0.034482,-0.016091,0,0.0030695,0,0,0,0.037171,-0.0018025,0.010611,1.7367,0.015326,0.034485,1.2235e-06,0.39,0.29,0
0.012318,0.003441,0.037158,-0.0021328,0.010508,0.001182,0,0,0.034646,-0.016433,0,0.0030732,0,0,0,0.037194,-0.0021684,0.010508,1.7215,0.015178,0.034801,1.2366e-06,0.4,0.29,0
0.012665,0.0035174,0.037185,-0.0025038,0.010404,0.0011848,0,0,0.034814,-0.016781,0,0.0030804,0,0,0,0.03722,-0.0025392,0.010404,1.7084,0.015028,0.035124,1.2499e-06,0.41,0.29,0
0.013014,0.0035938,0.037214,-0.0028797,0.0103,0.0011881,0,0,0.034988,-0.017134,0,0.003089,0,0,0,0.037249,-0.0029149,0.0103,1.6958,0.014878,0.035455,1.2635e-06,0.42,0.29,0
0.013365,0.00367,0.037247,-0.0032603,0.010196,0.0011909,0,0,0.035167,-0.017493,0,0.0030962,0,0,0,0.037282,-0.0032953,0.010196,1.6825,0.014728,0.035792,1.2772e-06,0.43,0.29,0
0.013718,0.0037461,0.037283,-0.0036454,0.010091,0.0011922,0,0,0.03535,-0.017858,0,0.0030997,0,0,0,0.037318,-0.0036801,0.010091,1.6671,0.014576,0.036137,1.2911e-06,0.44,0.29,0
0.014072,0.003822,0.037323,-0.0040345,0.0099865,0.0011912,0,0,0.035537,-0.018227,0,0.0030971,0,0,0,0.037357,-0.0040688,0.0099865,1.6484,0.014425,0.036488,1.3051e-06,0.45,0.29,0
0.014428,0.0038975,0.037365,-0.004427,0.0098814,0.0011869,0,0,0.035729,-0.018601,0,0.003086,0,0,0,0.037399,-0.0044607,0.0098814,1.6255,0.014273,0.036845,1.3192e-06,0.46,0.29,0
0.014787,0.0039727,0.03741,-0.0048221,0.0097763,0.0011786,0,0,0.035923,-0.018978,0,0.0030643,0,0,0,0.037442,-0.004855,0.0097763,1.5973,0.014121,0.037206,1.3332e-06,0.47,0.29,0
0.015147,0.0040473,0.037456,-0.005219,0.0096712,0.0011654,0,0,0.036121,-0.019357,0,0.0030302,0,0,0,0.037488,-0.0052508,0.0096712,1.5632,0.013969,0.03757,1.3472e-06,0.48,0.29,0
0.015509,0.0041213,0.037505,-0.0056168,0.0095663,0.0011469,0,0,0.03632,-0.019738,0,0.0029818,0,0,0,0.037535,-0.0056473,0.0095663,1.5224,0.013818,0.037937,1.361e-06,0.49,0.29,0
0.015873,0.0041945,0.037535,-0.000495,0.011112,0.001124,0,0,0.050491,-0.020119,0,0.0043633,0,0,0,0.037569,-0.00052876,0.011112,1.7234,0.016051,0.033884,1.191e-06,0.5,0.29,0
0.016519,0.0042958,0.037603,0.0047821,0.012715,0.0011005,0,0,0.064707,-0.020627,0,0.0057226,0,0,0,0.03764,0.0047453,0.012715,1.9183,0.018367,0.029722,1.0287e-06,0.51,0.29,0
0.017167,0.0043954,0.037651,0.0045277,0.012654,0.001075,0,0,0.064994,-0.021128,0,0.0055901,0,0,0,0.037686,0.0044928,0.012654,1.8569,0.018278,0.029959,1.0433e-06,0.52,0.29,0
0.017819,0.0044932,0.037699,0.0042773,0.012593,0.0010463,0,0,0.065276,-0.021621,0,0.005441,0,0,0,0.037732,0.0042446,0.012593,1.7914,0.01819,0.030192,1.0576e-06,0.53,0.29,0
0.018473,0.004589,0.037746,0.0040317,0.012533,0.0010146,0,0,0.065552,-0.022104,0,0.0052758,0,0,0,0.037776,0.0040012,0.012533,1.7222,0.018104,0.03042,1.0715e-06,0.54,0.29,0
0.01913,0.0046829,0.03779,0.0037915,0.012474,0.00097985,0,0,0.065821,-0.022576,0,0.0050952,0,0,0,0.037818,0.0037632,0.012474,1.6495,0.018019,0.030643,1.085e-06,0.55,0.29,0
0.019789,0.0047745,0.037833,0.0035573,0.012417,0.00094237,0,0,0.066081,-0.023035,0,0.0049003,0,0,0,0.037859,0.0035314,0.012417,1.5737,0.017936,0.030859,1.0981e-06,0.56,0.29,0
0.020451,0.0048638,0.037873,0.0033297,0.012361,0.0009024,0,0,0.066331,-0.023481,0,0.0046925,0,0,0,0.037896,0.0033062,0.012361,1.4954,0.017854,0.031069,1.1106e-06,0.57,0.29,0
0.021116,0.0049507,0.03791,0.0031093,0.012306,0.00086028,0,0,0.066571,-0.023911,0,0.0044734,0,0,0,0.037931,0.003088,0.012306,1.4152,0.017775,0.031271,1.1226e-06,0.58,0.29,0
0.021783,0.005035,0.037945,0.0028963,0.012252,0.00081635,0,0,0.0668,-0.024326,0,0.004245,0,0,0,0.037964,0.0028773,0.012252,1.3336,0.017698,0.031465,1.134e-06,0.59,0.29,0
0.022452,0.0051168,0.037977,0.0026912,0.0122,0.00077099,0,0,0.067018,-0.024724,0,0.0040091,0,0,0,0.037993,0.0026744,0.0122,1.2511,0.017623,0.03165,1.1448e-06,0.6,0.29,0
0.023123,0.0051958,0.038005,0.0024942,0.01215,0.0007246,0,0,0.067224,-0.025104,0,0.0037679,0,0,0,0.03802,0.0024795,0.01215,1.1685,0.01755,0.031827,1.155e-06,0.61,0.29,0
0.023796,0.0052722,0.038031,0.0023056,0.012101,0.00067757,0,0,0.067418,-0.025468,0,0.0035234,0,0,0,0.038044,0.0022927,0.012101,1.0862,0.017479,0.031995,1.1646e-06,0.62,0.29,0
0.024472,0.0053457,0.038053,0.0021253,0.012054,0.0006303,0,0,0.067599,-0.025814,0,0.0032775,0,0,0,0.038064,0.0021142,0.012054,1.0047,0.017411,0.032154,1.1735e-06,0.63,0.29,0
0.025148,0.0054164,0.038073,0.0019534,0.012008,0.00058315,0,0,0.067769,-0.026142,0,0.0030324,0,0,0,0.038082,0.001944,0.012008,0.92472,0.017345,0.032304,1.1818e-06,0.64,0.29,0
0.025827,0.0054843,0.038089,0.00179,0.011964,0.00053649,0,0,0.067927,-0.026452,0,0.0027897,0,0,0,0.038097,0.001782,0.011964,0.84656,0.017281,0.032446,1.1895e-06,0.65,0.29,0
0.026507,0.0055494,0.038103,0.0016348,0.011921,0.00049064,0,0,0.068073,-0.026745,0,0.0025513,0,0,0,0.03811,0.0016282,0.011921,0.77065,0.01722,0.032578,1.1966e-06,0.66,0.29,0
0.027188,0.0056117,0.038114,0.0014878,0.011881,0.00044589,0,0,0.068208,-0.027021,0,0.0023186,0,0,0,0.03812,0.0014824,0.011881,0.69737,0.017161,0.032703,1.2031e-06,0.67,0.29,0
0.027871,0.0056712,0.038123,0.0013488,0.011841,0.00040251,0,0,0.068332,-0.027281,0,0.002093,0,0,0,0.038127,0.0013444,0.011841,0.62702,0.017104,0.032819,1.209e-06,0.68,0.29,0
0.028555,0.0057279,0.038129,0.0012175,0.011804,0.00036072,0,0,0.068446,-0.027525,0,0.0018758,0,0,0,0.038133,0.001214,0.011804,0.55986,0.01705,0.032927,1.2145e-06,0.69,0.29,0
0.02924,0.0057818,0.038133,0.0010938,0.011768,0.00032073,0,0,0.068549,-0.027753,0,0.0016678,0,0,0,0.038136,0.001091,0.011768,0.49608,0.016998,0.033027,1.2194e-06,0.7,0.29,0
0.029926,0.0058331,0.038136,0.00097737,0.011734,0.00028269,0,0,0.068644,-0.027967,0,0.00147,0,0,0,0.038138,0.00097522,0.011734,0.43586,0.016949,0.033121,1.2238e-06,0.71,0.29,0
0.030613,0.0058818,0.038136,0.00086792,0.011701,0.00024673,0,0,0.06873,-0.028166,0,0.001283,0,0,0,0.038138,0.00086629,0.011701,0.3793,0.016902,0.033207,1.2279e-06,0.72,0.29,0
0.031301,0.0059279,0.038135,0.00076519,0.01167,0.00021295,0,0,0.068808,-0.028352,0,0.0011073,0,0,0,0.038136,0.00076397,0.01167,0.32648,0.016857,0.033287,1.2315e-06,0.73,0.29,0
0.031989,0.0059716,0.038132,0.00066888,0.01164,0.00018141,0,0,0.068879,-0.028526,0,0.00094332,0,0,0,0.038133,0.000668,0.01164,0.27743,0.016814,0.033361,1.2347e-06,0.74,0.29,0
0.032678,0.0060128,0.038129,0.00057871,0.011612,0.00015216,0,0,0.068942,-0.028687,0,0.00079122,0,0,0,0.038129,0.0005781,0.011612,0.23217,0.016773,0.033429,1.2376e-06,0.75,0.29,0
0.033368,0.0060516,0.038124,0.0004944,0.011585,0.00012521,0,0,0.069,-0.028837,0,0.00065111,0,0,0,0.038124,0.00049398,0.011585,0.19065,0.016734,0.033491,1.2402e-06,0.76,0.29,0
0.034058,0.0060882,0.038118,0.00041566,0.01156,0.00010057,0,0,0.069051,-0.028976,0,0.00052298,0,0,0,0.038118,0.00041539,0.01156,0.15284,0.016698,0.033549,1.2425e-06,0.77,0.29,0
0.034749,0.0061225,0.038112,0.00034222,0.011536,7.8216e-05,0,0,0.069096,-0.029104,0,0.00040672,0,0,0,0.038112,0.00034206,0.011536,0.11865,0.016663,0.033602,1.2445e-06,0.78,0.29,0
0.03544,0.0061547,0.038105,0.00027383,0.011514,5.8104e-05,0,0,0.069137,-0.029223,0,0.00030214,0,0,0,0.038105,0.00027374,0.011514,0.088,0.016631,0.03365,1.2463e-06,0.79,0.29,0
0.036132,0.0061849,0.038097,0.00021023,0.011492,4.0186e-05,0,0,0.069173,-0.029333,0,0.00020897,0,0,0,0.038097,0.00021019,0.011492,0.060772,0.0166,0.033694,1.2478e-06,0.8,0.29,0
0.036824,0.0062131,0.03809,0.00015119,0.011472,2.4397e-05,0,0,0.069206,-0.029435,0,0.00012687,0,0,0,0.03809,0.00015117,0.011472,0.036845,0.016571,0.033734,1.2492e-06,0.81,0.29,0
0.037516,0.0062393,0.038082,9.6471e-05,0.011454,1.0663e-05,0,0,0.069234,-0.029528,0,5.5448e-05,0,0,0,0.038082,9.6468e-05,0.011454,0.016084,0.016544,0.033771,1.2503e-06,0.82,0.29,0
0.038208,0.0062637,0.038074,4.5868e-05,0.011436,-1.0991e-06,0,0,0.069259,-0.029614,0,-5.7152e-06,0,0,0,0.038074,4.5868e-05,0.011436,-0.0016559,0.016519,0.033805,1.2514e-06,0.83,0.29,0
0.038901,0.0062863,0.038066,-8.2156e-07,0.01142,-1.098e-05,0,0,0.069281,-0.029693,0,-5.7094e-05,0,0,0,0.038066,-8.2473e-07,0.01142,-0.016526,0.016495,0.033835,1.2522e-06,0.84,0.29,0
0.039594,0.0063073,0.038059,-4.3785e-05,0.011404,-1.9075e-05,0,0,0.069301,-0.029765,0,-9.9188e-05,0,0,0,0.038059,-4.3794e-05,0.011404,-0.028683,0.016473,0.033862,1.253e-06,0.85,0.29,0
0.040287,0.0063265,0.038051,-8.3196e-05,0.01139,-2.5485e-05,0,0,0.069318,-0.029831,0,-0.00013252,0,0,0,0.038051,-8.3213e-05,0.01139,-0.038291,0.016453,0.033887,1.2536e-06,0.86,0.29,0
0.04098,0.0063442,0.038044,-0.00011922,0.011377,-3.0316e-05,0,0,0.069333,-0.029891,0,-0.00015764,0,0,0,0.038044,-0.00011924,0.011377,-0.045514,0.016434,0.033909,1.2542e-06,0.87,0.29,0
0.041674,0.0063603,0.038037,-0.00015199,0.011365,-3.3674e-05,0,0,0.069345,-0.029945,0,-0.0001751,0,0,0,0.038037,-0.00015202,0.011365,-0.050522,0.016417,0.033929,1.2546e-06,0.88,0.29,0
0.042367,0.0063749,0.03803,-0.00018166,0.011355,-3.5669e-05,0,0,0.069357,-0.029994,0,-0.00018548,0,0,0,0.03803,-0.0001817,0.011355,-0.053483,0.016401,0.033947,1.255e-06,0.89,0.29,0
0.043061,0.0063882,0.038024,-0.00020835,0.011345,-3.6413e-05,0,0,0.069366,-0.030038,0,-0.00018935,0,0,0,0.038024,-0.00020839,0.011345,-0.05457,0.016387,0.033963,1.2553e-06,0.9,0.29,0
0.043755,0.0064,0.038018,-0.00023217,0.011336,-3.6019e-05,0,0,0.069374,-0.030077,0,-0.0001873,0,0,0,0.038018,-0.00023221,0.011336,-0.053953,0.016374,0.033977,1.2556e-06,0.91,0.29,0
0.044448,0.0064104,0.038013,-0.00025322,0.011328,-3.4598e-05,0,0,0.069381,-0.030111,0,-0.00017991,0,0,0,0.038013,-0.00025325,0.011328,-0.051804,0.016363,0.033989,1.2558e-06,0.92,0.29,0
0.045142,0.0064196,0.038008,-0.00027159,0.011321,-3.2267e-05,0,0,0.069387,-0.030141,0,-0.00016779,0,0,0,0.038008,-0.00027161,0.011321,-0.048296,0.016353,0.034,1.256e-06,0.93,0.29,0
0.045836,0.0064274,0.038004,-0.00028735,0.011315,-2.9138e-05,0,0,0.069392,-0.030166,0,-0.00015151,0,0,0,0.038004,-0.00028737,0.011315,-0.043598,0.016344,0.034009,1.2561e-06,0.94,0.29,0
0.04653,0.006434,0.038001,-0.00030057,0.01131,-2.5325e-05,0,0,0.069396,-0.030188,0,-0.00013169,0,0,0,0.038001,-0.00030059,0.01131,-0.037884,0.016337,0.034016,1.2562e-06,0.95,0.29,0
0.047224,0.0064394,0.037998,-0.00031132,0.011306,-2.0943e-05,0,0,0.069399,-0.030205,0,-0.0001089,0,0,0,0.037998,-0.00031133,0.011306,-0.031322,0.016331,0.034022,1.2563e-06,0.96,0.29,0
0.047918,0.0064436,0.037996,-0.00031963,0.011303,-1.6105e-05,0,0,0.069401,-0.030218,0,-8.3746e-05,0,0,0,0.037996,-0.00031964,0.011303,-0.024083,0.016326,0.034027,1.2564e-06,0.97,0.29,0
0.048612,0.0064465,0.037994,-0.00032554,0.0113,-1.0926e-05,0,0,0.069403,-0.030228,0,-5.6817e-05,0,0,0,0.037994,-0.00032555,0.0113,-0.016337,0.016323,0.03403,1.2564e-06,0.98,0.29,0
0.049306,0.0064483,0.037993,-0.00032908,0.011299,-5.52e-06,0,0,0.069404,-0.030233,0,-2.8704e-05,0,0,0,0.037993,-0.00032908,0.011299,-0.0082531,0.016321,0.034032,1.2564e-06,0.99,0.29,0
0.05,0.0064489,0.037993,-0.00033026,0.011299,1.1332e-05,0,0,0.069404,-0.030235,0,5.8929e-05,0,0,0,0.037993,-0.00033026,0.011299,0.016943,0.01632,0.034033,1.2564e-06,1,0.29,0
0,0,0.033868,0.014515,0.014515,0.003109,0,0,0.025159,8.1315e-20,0,0.0080833,0,0,0,0.034355,0.014028,0.014515,8.9059,0.020966,0.020088,4.1551e-07,0,0.3,0
0.00025159,8.0833e-05,0.033747,0.013943,0.014307,0.0030988,0,0,0.025272,-0.00047306,0,0.0080568,0,0,0,0.03422,0.01347,0.014307,8.6887,0.020666,0.020345,4.3004e-07,0.01,0.3,0
0.00050657,0.00016361,0.034081,0.013553,0.01429,0.0031546,0,0,0.025728,-0.0009585,0,0.0082019,0,0,0,0.034554,0.013079,0.01429,8.5422,0.020641,0.020896,4.6333e-07,0.02,0.3,0
0.00076499,0.00024812,0.034106,0.013019,0.014138,0.0031542,0,0,0.025959,-0.0014543,0,0.0082009,0,0,0,0.034568,0.012557,0.014138,8.3274,0.020421,0.021265,4.8467e-07,0.03,0.3,0
0.0010269,0.00033414,0.034445,0.01261,0.014117,0.0031803,0,0,0.026427,-0.0019582,0,0.0082689,0,0,0,0.034899,0.012157,0.014117,8.1207,0.020391,0.021828,5.1968e-07,0.04,0.3,0
0.0012924,0.00042143,0.034552,0.012108,0.013998,0.0031707,0,0,0.026721,-0.0024576,0,0.0082438,0,0,0,0.034992,0.011668,0.013998,7.8883,0.020219,0.02225,5.449e-07,0.05,0.3,0
0.0015613,0.00050978,0.034732,0.011622,0.013906,0.0031554,0,0,0.027073,-0.0029691,0,0.008204,0,0,0,0.035155,0.011199,0.013906,7.637,0.020087,0.022723,5.7388e-07,0.06,0.3,0
0.0018338,0.00059895,0.034908,0.011134,0.013812,0.0031283,0,0,0.027424,-0.0034821,0,0.0081336,0,0,0,0.035312,0.010729,0.013812,7.3723,0.019951,0.023196,6.0297e-07,0.07,0.3,0
0.0021098,0.00068871,0.035079,0.010644,0.013717,0.00309,0,0,0.027771,-0.0039945,0,0.008034,0,0,0,0.035464,0.01026,0.013717,7.0968,0.019813,0.023665,6.3202e-07,0.08,0.3,0
0.0023892,0.00077885,0.035245,0.010155,0.01362,0.003041,0,0,0.028112,-0.0045044,0,0.0079067,0,0,0,0.035608,0.0097918,0.01362,6.8132,0.019673,0.024131,6.6089e-07,0.09,0.3,0
0.0026721,0.00086916,0.035405,0.0096682,0.013522,0.0029823,0,0,0.028448,-0.0050098,0,0.0077539,0,0,0,0.035746,0.0093271,0.013522,6.5241,0.019532,0.024591,6.8944e-07,0.1,0.3,0
0.0029582,0.00095945,0.035557,0.0091849,0.013423,0.0029146,0,0,0.028775,-0.0055091,0,0.0075778,0,0,0,0.035876,0.0088667,0.013423,6.2319,0.019388,0.025044,7.1755e-07,0.11,0.3,0
0.0032476,0.0010495,0.035702,0.0087067,0.013323,0.002839,0,0,0.029094,-0.0060008,0,0.0073813,0,0,0,0.035998,0.0084114,0.013323,5.9389,0.019244,0.025488,7.451e-07,0.12,0.3,0
0.0035401,0.0011393,0.035839,0.0082347,0.013222,0.0027566,0,0,0.029402,-0.0064837,0,0.0071671,0,0,0,0.036112,0.0079621,0.013222,5.6473,0.019099,0.025923,7.7199e-07,0.13,0.3,0
0.0038356,0.0012285,0.035967,0.0077698,0.013121,0.0026686,0,0,0.0297,-0.0069567,0,0.0069383,0,0,0,0.036218,0.0075195,0.013121,5.359,0.018953,0.026348,7.9815e-07,0.14,0.3,0
0.0041341,0.001317,0.036087,0.0073129,0.01302,0.0025762,0,0,0.029987,-0.0074191,0,0.006698,0,0,0,0.036316,0.007084,0.01302,5.076,0.018807,0.026762,8.235e-07,0.15,0.3,0
0.0044353,0.0014049,0.036197,0.0068645,0.012918,0.0024805,0,0,0.030262,-0.0078702,0,0.0064492,0,0,0,0.036405,0.0066562,0.012918,4.7997,0.01866,0.027165,8.4799e-07,0.16,0.3,0
0.0047393,0.0014919,0.036298,0.0064249,0.012817,0.0023827,0,0,0.030526,-0.0083097,0,0.0061951,0,0,0,0.036487,0.0062361,0.012817,4.5317,0.018513,0.027557,8.7159e-07,0.17,0.3,0
0.0050459,0.001578,0.036391,0.0059945,0.012716,0.002284,0,0,0.030778,-0.0087375,0,0.0059385,0,0,0,0.036562,0.0058238,0.012716,4.2733,0.018367,0.027937,8.9427e-07,0.18,0.3,0
0.0053549,0.0016631,0.036475,0.0055731,0.012614,0.0021855,0,0,0.031019,-0.0091537,0,0.0056824,0,0,0,0.036629,0.0054193,0.012614,4.0255,0.018221,0.028306,9.1603e-07,0.19,0.3,0
0.0056662,0.0017473,0.03655,0.0051608,0.012513,0.0020882,0,0,0.031248,-0.0095584,0,0.0054293,0,0,0,0.036689,0.0050225,0.012513,3.7893,0.018075,0.028665,9.3688e-07,0.2,0.3,0
0.0059798,0.0018304,0.036618,0.0047572,0.012413,0.001993,0,0,0.031467,-0.0099521,0,0.0051818,0,0,0,0.036742,0.004633,0.012413,3.5655,0.017929,0.029013,9.5682e-07,0.21,0.3,0
0.0062956,0.0019126,0.036678,0.0043619,0.012312,0.0019008,0,0,0.031676,-0.010335,0,0.004942,0,0,0,0.03679,0.0042505,0.012312,3.3546,0.017784,0.029351,9.759e-07,0.22,0.3,0
0.0066133,0.0019938,0.036732,0.0039745,0.012212,0.0018123,0,0,0.031876,-0.010708,0,0.0047121,0,0,0,0.036832,0.0038745,0.012212,3.1571,0.017639,0.02968,9.9415e-07,0.23,0.3,0
0.0069331,0.002074,0.036778,0.0035943,0.012112,0.0017283,0,0,0.032066,-0.011073,0,0.0044937,0,0,0,0.036868,0.0035045,0.012112,2.9734,0.017495,0.030001,1.0116e-06,0.24,0.3,0
0.0072547,0.0021534,0.036819,0.0032207,0.012012,0.0016494,0,0,0.03225,-0.011429,0,0.0042883,0,0,0,0.0369,0.00314,0.012012,2.8037,0.017351,0.030314,1.0284e-06,0.25,0.3,0
0.0075781,0.0022318,0.036855,0.002853,0.011912,0.0015759,0,0,0.032426,-0.011777,0,0.0040973,0,0,0,0.036928,0.0027801,0.011912,2.6479,0.017207,0.030621,1.0444e-06,0.26,0.3,0
0.0079032,0.0023095,0.036886,0.0024903,0.011813,0.0015083,0,0,0.032595,-0.01212,0,0.0039216,0,0,0,0.036952,0.0024243,0.011813,2.5061,0.017063,0.030922,1.0599e-06,0.27,0.3,0
0.00823,0.0023865,0.036914,0.0021319,0.011714,0.0014468,0,0,0.03276,-0.012456,0,0.0037618,0,0,0,0.036974,0.0020718,0.011714,2.3779,0.01692,0.031219,1.0748e-06,0.28,0.3,0
0.0085584,0.0024627,0.036938,0.0017768,0.011614,0.0013917,0,0,0.032921,-0.012789,0,0.0036185,0,0,0,0.036993,0.0017218,0.011614,2.2631,0.016776,0.031512,1.0893e-06,0.29,0.3,0
0.0088884,0.0025384,0.03696,0.0014243,0.011515,0.001343,0,0,0.033078,-0.013118,0,0.0034918,0,0,0,0.03701,0.0013736,0.011515,2.1613,0.016633,0.031803,1.1034e-06,0.3,0.3,0
0.0092199,0.0026136,0.036979,0.0010734,0.011416,0.0013007,0,0,0.033233,-0.013445,0,0.0033818,0,0,0,0.037026,0.0010264,0.011416,2.0719,0.01649,0.032092,1.1172e-06,0.31,0.3,0
0.009553,0.0026883,0.036998,0.00072338,0.011316,0.0012646,0,0,0.033386,-0.013771,0,0.0032879,0,0,0,0.037042,0.00067935,0.011316,1.9942,0.016346,0.032382,1.1307e-06,0.32,0.3,0
0.0098877,0.0027626,0.037016,0.00037333,0.011217,0.0012345,0,0,0.033539,-0.014096,0,0.0032097,0,0,0,0.037057,0.00033179,0.011217,1.9274,0.016202,0.032673,1.1441e-06,0.33,0.3,0
0.010224,0.0028366,0.037034,2.2509e-05,0.011117,0.0012102,0,0,0.033692,-0.014423,0,0.0031464,0,0,0,0.037073,-1.7018e-05,0.011117,1.8707,0.016058,0.032965,1.1573e-06,0.34,0.3,0
0.010561,0.0029103,0.037052,-0.00032982,0.011017,0.0011911,0,0,0.033846,-0.01475,0,0.0030969,0,0,0,0.03709,-0.00036773,0.011017,1.8232,0.015913,0.03326,1.1705e-06,0.35,0.3,0
0.010901,0.0029839,0.037072,-0.00068431,0.010916,0.0011768,0,0,0.034002,-0.015081,0,0.0030598,0,0,0,0.037108,-0.00072095,0.010916,1.7836,0.015768,0.03356,1.1837e-06,0.36,0.3,0
0.011241,0.0030572,0.037093,-0.0010415,0.010815,0.0011668,0,0,0.034161,-0.015414,0,0.0030337,0,0,0,0.037128,-0.0010772,0.010815,1.7509,0.015622,0.033863,1.197e-06,0.37,0.3,0
0.011584,0.0031305,0.037116,-0.001402,0.010714,0.0011604,0,0,0.034322,-0.015751,0,0.0030169,0,0,0,0.037151,-0.0014369,0.010714,1.724,0.015476,0.034173,1.2103e-06,0.38,0.3,0
0.011928,0.0032036,0.037141,-0.001766,0.010612,0.0011567,0,0,0.034487,-0.016092,0,0.0030075,0,0,0,0.037175,-0.0018004,0.010612,1.7014,0.015329,0.034487,1.2238e-06,0.39,0.3,0
0.012274,0.0032766,0.037169,-0.0021339,0.01051,0.0011552,0,0,0.034656,-0.016438,0,0.0030035,0,0,0,0.037202,-0.0021678,0.01051,1.6821,0.015182,0.034808,1.2374e-06,0.4,0.3,0
0.012621,0.0033496,0.037199,-0.0025058,0.010408,0.0011549,0,0,0.034828,-0.016788,0,0.0030027,0,0,0,0.037233,-0.0025394,0.010408,1.6647,0.015034,0.035136,1.2512e-06,0.41,0.3,0
0.01297,0.0034224,0.037232,-0.0028817,0.010305,0.001155,0,0,0.035005,-0.017143,0,0.0030031,0,0,0,0.037266,-0.0029149,0.010305,1.6479,0.014885,0.035469,1.2651e-06,0.42,0.3,0
0.013321,0.003495,0.037269,-0.0032614,0.010202,0.0011547,0,0,0.035186,-0.017503,0,0.0030022,0,0,0,0.037302,-0.0032942,0.010202,1.6306,0.014736,0.035809,1.2791e-06,0.43,0.3,0
0.013674,0.0035675,0.037308,-0.0036446,0.010099,0.001153,0,0,0.035371,-0.017867,0,0.0029979,0,0,0,0.03734,-0.003677,0.010099,1.6115,0.014587,0.036154,1.2933e-06,0.44,0.3,0
0.014029,0.0036396,0.037349,-0.004031,0.0099954,0.0011493,0,0,0.03556,-0.018234,0,0.002988,0,0,0,0.037381,-0.0040629,0.0099954,1.5896,0.014438,0.036505,1.3074e-06,0.45,0.3,0
0.014385,0.0037115,0.037393,-0.0044199,0.0098919,0.0011425,0,0,0.035751,-0.018605,0,0.0029705,0,0,0,0.037424,-0.0044511,0.0098919,1.564,0.014288,0.03686,1.3216e-06,0.46,0.3,0
0.014744,0.0037829,0.037439,-0.0048108,0.0097885,0.0011321,0,0,0.035946,-0.018979,0,0.0029434,0,0,0,0.037469,-0.0048411,0.0097885,1.5338,0.014139,0.037218,1.3357e-06,0.47,0.3,0
0.015104,0.0038537,0.037486,-0.0052028,0.0096851,0.0011173,0,0,0.036142,-0.019354,0,0.002905,0,0,0,0.037516,-0.005232,0.0096851,1.4983,0.01399,0.03758,1.3497e-06,0.48,0.3,0
0.015466,0.003924,0.037535,-0.005595,0.0095821,0.0010976,0,0,0.036339,-0.01973,0,0.0028537,0,0,0,0.037563,-0.0056229,0.0095821,1.4568,0.013841,0.037942,1.3634e-06,0.49,0.3,0
0.015831,0.0039934,0.037567,-0.00047064,0.011129,0.0010743,0,0,0.05052,-0.020106,0,0.0041698,0,0,0,0.037598,-0.00050147,0.011129,1.6469,0.016075,0.033888,1.1929e-06,0.5,0.3,0
0.016477,0.0040896,0.037634,0.0048057,0.012732,0.0010511,0,0,0.064746,-0.020608,0,0.0054657,0,0,0,0.037668,0.004772,0.012732,1.832,0.018391,0.029726,1.03e-06,0.51,0.3,0
0.017126,0.0041842,0.037683,0.0045543,0.012671,0.0010265,0,0,0.065031,-0.021104,0,0.0053376,0,0,0,0.037715,0.0045225,0.012671,1.773,0.018303,0.029961,1.0445e-06,0.52,0.3,0
0.017778,0.0042771,0.037731,0.0043069,0.012611,0.00099903,0,0,0.065311,-0.021592,0,0.0051949,0,0,0,0.037761,0.004277,0.012611,1.7105,0.018216,0.030192,1.0588e-06,0.53,0.3,0
0.018432,0.0043682,0.037777,0.0040641,0.012552,0.00096884,0,0,0.065585,-0.02207,0,0.005038,0,0,0,0.037805,0.0040363,0.012552,1.6447,0.018131,0.030418,1.0727e-06,0.54,0.3,0
0.019089,0.0044573,0.037822,0.0038266,0.012495,0.00093603,0,0,0.065851,-0.022537,0,0.0048674,0,0,0,0.037848,0.0038009,0.012495,1.576,0.018048,0.03064,1.0861e-06,0.55,0.3,0
0.019749,0.0045443,0.037865,0.003595,0.012438,0.00090076,0,0,0.06611,-0.022992,0,0.0046839,0,0,0,0.037888,0.0035713,0.012438,1.5046,0.017966,0.030855,1.0992e-06,0.56,0.3,0
0.020411,0.0046292,0.037876,0.0033528,0.012368,0.0008632,0,0,0.066319,-0.023441,0,0.0044886,0,0,0,0.037897,0.0033312,0.012368,1.4314,0.017866,0.03105,1.1097e-06,0.57,0.3,0
0.021076,0.0047118,0.037967,0.0031569,0.012337,0.00080888,0,0,0.066638,-0.023869,0,0.0042062,0,0,0,0.037986,0.0031382,0.012337,1.3304,0.01782,0.03128,1.1257e-06,0.58,0.3,0
0.021743,0.004792,0.037951,0.0029233,0.012262,0.00078326,0,0,0.066791,-0.024282,0,0.0040729,0,0,0,0.037969,0.0029057,0.012262,1.2803,0.017712,0.031447,1.1334e-06,0.59,0.3,0
0.022413,0.0048698,0.038033,0.0027402,0.012232,0.00072497,0,0,0.067082,-0.024678,0,0.0037699,0,0,0,0.038048,0.0027253,0.012232,1.1763,0.017668,0.031658,1.1479e-06,0.6,0.3,0
0.023084,0.0049451,0.038041,0.0025396,0.012174,0.00069689,0,0,0.067254,-0.02505,0,0.0036238,0,0,0,0.038055,0.002526,0.012174,1.1241,0.017585,0.031821,1.1565e-06,0.61,0.3,0
0.023758,0.0050178,0.038068,0.0023514,0.012126,0.00065288,0,0,0.06745,-0.025413,0,0.003395,0,0,0,0.03808,0.0023395,0.012126,1.0469,0.017515,0.03199,1.1662e-06,0.62,0.3,0
0.024433,0.0050878,0.038069,0.0021568,0.012068,0.00060995,0,0,0.067604,-0.025769,0,0.0031718,0,0,0,0.03808,0.0021464,0.012068,0.97276,0.017431,0.032142,1.1737e-06,0.63,0.3,0
0.025111,0.0051553,0.038129,0.0020014,0.012039,0.00054884,0,0,0.067834,-0.026098,0,0.002854,0,0,0,0.038137,0.0019931,0.012039,0.87016,0.01739,0.032315,1.1851e-06,0.64,0.3,0
0.025789,0.0052201,0.038131,0.001835,0.01199,0.00052057,0,0,0.067967,-0.026403,0,0.002707,0,0,0,0.038139,0.0018275,0.01199,0.82152,0.017319,0.032446,1.1917e-06,0.65,0.3,0
0.02647,0.0052822,0.038147,0.0016789,0.011948,0.00047743,0,0,0.068117,-0.026699,0,0.0024826,0,0,0,0.038153,0.0016726,0.011948,0.74994,0.017258,0.032581,1.199e-06,0.66,0.3,0
0.027152,0.0053417,0.038159,0.0015307,0.011907,0.00043525,0,0,0.068256,-0.026978,0,0.0022633,0,0,0,0.038165,0.0015255,0.011907,0.68071,0.017199,0.032708,1.2057e-06,0.67,0.3,0
0.027835,0.0053985,0.03817,0.0013903,0.011868,0.00039428,0,0,0.068385,-0.027242,0,0.0020503,0,0,0,0.038174,0.001386,0.011868,0.61412,0.017143,0.032827,1.212e-06,0.68,0.3,0
0.028519,0.0054528,0.038178,0.0012574,0.011831,0.00035473,0,0,0.068503,-0.02749,0,0.0018446,0,0,0,0.038181,0.001254,0.011831,0.55043,0.017089,0.032938,1.2176e-06,0.69,0.3,0
0.029205,0.0055045,0.038184,0.0011319,0.011795,0.00031679,0,0,0.068612,-0.027723,0,0.0016473,0,0,0,0.038187,0.0011292,0.011795,0.48983,0.017037,0.033042,1.2229e-06,0.7,0.3,0
0.029892,0.0055536,0.038188,0.0010135,0.01176,0.00028062,0,0,0.068711,-0.027942,0,0.0014592,0,0,0,0.03819,0.0010114,0.01176,0.43248,0.016987,0.033138,1.2276e-06,0.71,0.3,0
0.030579,0.0056003,0.038179,0.00089563,0.011723,0.00024798,0,0,0.068788,-0.02815,0,0.0012895,0,0,0,0.038181,0.00089398,0.011723,0.38107,0.016932,0.033224,1.2311e-06,0.72,0.3,0
0.031268,0.0056445,0.038189,0.00079221,0.011694,0.00019614,0,0,0.068885,-0.028345,0,0.0010199,0,0,0,0.03819,0.00079118,0.011694,0.3005,0.016892,0.033313,1.2357e-06,0.73,0.3,0
0.031957,0.0056863,0.038188,0.00069543,0.011665,0.00016644,0,0,0.06896,-0.028521,0,0.00086547,0,0,0,0.038189,0.00069469,0.011665,0.25434,0.01685,0.033389,1.2393e-06,0.74,0.3,0
0.032647,0.0057259,0.038195,0.00060888,0.011641,0.00014292,0,0,0.06904,-0.028684,0,0.0007432,0,0,0,0.038195,0.00060834,0.011641,0.21787,0.016815,0.033464,1.243e-06,0.75,0.3,0
0.033338,0.0057632,0.038185,0.00051971,0.011611,0.00012975,0,0,0.06909,-0.028838,0,0.0006747,0,0,0,0.038185,0.00051927,0.011611,0.19737,0.016772,0.033525,1.2453e-06,0.76,0.3,0
0.034029,0.0057984,0.03818,0.00043875,0.011586,0.00010593,0,0,0.069146,-0.028982,0,0.00055081,0,0,0,0.038181,0.00043845,0.011586,0.16081,0.016735,0.033586,1.2478e-06,0.77,0.3,0
0.034721,0.0058314,0.038175,0.00036312,0.011562,8.4235e-05,0,0,0.069196,-0.029116,0,0.00043802,0,0,0,0.038176,0.00036293,0.011562,0.12764,0.0167,0.033642,1.25e-06,0.78,0.3,0
0.035413,0.0058624,0.03817,0.00029257,0.011539,6.465e-05,0,0,0.069241,-0.02924,0,0.00033618,0,0,0,0.03817,0.00029246,0.011539,0.097793,0.016667,0.033693,1.252e-06,0.79,0.3,0
0.036105,0.0058914,0.038164,0.00022687,0.011517,4.7128e-05,0,0,0.069281,-0.029355,0,0.00024506,0,0,0,0.038164,0.00022681,0.011517,0.071177,0.016636,0.03374,1.2538e-06,0.8,0.3,0
0.036798,0.0059186,0.038157,0.00016578,0.011497,3.1616e-05,0,0,0.069317,-0.029461,0,0.0001644,0,0,0,0.038157,0.00016576,0.011497,0.04768,0.016607,0.033783,1.2553e-06,0.81,0.3,0
0.037492,0.0059438,0.038151,0.0001091,0.011478,1.8047e-05,0,0,0.069349,-0.029559,0,9.3846e-05,0,0,0,0.038151,0.0001091,0.011478,0.027182,0.016579,0.033822,1.2567e-06,0.82,0.3,0
0.038185,0.0059674,0.038144,5.6621e-05,0.01146,6.3498e-06,0,0,0.069377,-0.029649,0,3.3019e-05,0,0,0,0.038144,5.662e-05,0.01146,0.0095522,0.016553,0.033858,1.2578e-06,0.83,0.3,0
0.038879,0.0059892,0.038137,8.1415e-06,0.011444,-3.5586e-06,0,0,0.069403,-0.029732,0,-1.8505e-05,0,0,0,0.038137,8.1412e-06,0.011444,-0.0053475,0.016529,0.03389,1.2589e-06,0.84,0.3,0
0.039573,0.0060094,0.03813,-3.6517e-05,0.011428,-1.1765e-05,0,0,0.069425,-0.029808,0,-6.118e-05,0,0,0,0.03813,-3.6521e-05,0.011428,-0.017662,0.016507,0.03392,1.2598e-06,0.85,0.3,0
0.040268,0.006028,0.038123,-7.7524e-05,0.011414,-1.8364e-05,0,0,0.069444,-0.029877,0,-9.5491e-05,0,0,0,0.038123,-7.7533e-05,0.011414,-0.027543,0.016486,0.033946,1.2605e-06,0.86,0.3,0
0.040962,0.006045,0.038116,-0.00011504,0.0114,-2.345e-05,0,0,0.069461,-0.02994,0,-0.00012194,0,0,0,0.038116,-0.00011505,0.0114,-0.035144,0.016467,0.033971,1.2612e-06,0.87,0.3,0
0.041657,0.0060606,0.03811,-0.0001492,0.011388,-2.7125e-05,0,0,0.069476,-0.029997,0,-0.00014105,0,0,0,0.03811,-0.00014922,0.011388,-0.040622,0.01645,0.033992,1.2618e-06,0.88,0.3,0
0.042352,0.0060747,0.038104,-0.00018016,0.011377,-2.9493e-05,0,0,0.06949,-0.030049,0,-0.00015336,0,0,0,0.038104,-0.00018018,0.011377,-0.044139,0.016434,0.034012,1.2622e-06,0.89,0.3,0
0.043047,0.0060875,0.038098,-0.00020802,0.011367,-3.0657e-05,0,0,0.069501,-0.030095,0,-0.00015942,0,0,0,0.038098,-0.00020804,0.011367,-0.045855,0.016419,0.034029,1.2627e-06,0.9,0.3,0
0.043742,0.0060989,0.038093,-0.00023289,0.011358,-3.0725e-05,0,0,0.069511,-0.030136,0,-0.00015977,0,0,0,0.038093,-0.00023292,0.011358,-0.045933,0.016406,0.034044,1.263e-06,0.91,0.3,0
0.044437,0.006109,0.038088,-0.00025489,0.01135,-2.9805e-05,0,0,0.069519,-0.030173,0,-0.00015499,0,0,0,0.038088,-0.00025492,0.01135,-0.044538,0.016394,0.034057,1.2633e-06,0.92,0.3,0
0.045132,0.0061178,0.038084,-0.0002741,0.011343,-2.8006e-05,0,0,0.069526,-0.030204,0,-0.00014563,0,0,0,0.038084,-0.00027412,0.011343,-0.041833,0.016384,0.034069,1.2635e-06,0.93,0.3,0
0.045828,0.0061254,0.03808,-0.00029059,0.011337,-2.5436e-05,0,0,0.069532,-0.030231,0,-0.00013227,0,0,0,0.03808,-0.00029061,0.011337,-0.037982,0.016375,0.034078,1.2637e-06,0.94,0.3,0
0.046523,0.0061318,0.038076,-0.00030443,0.011332,-2.2206e-05,0,0,0.069537,-0.030254,0,-0.00011547,0,0,0,0.038077,-0.00030444,0.011332,-0.03315,0.016368,0.034087,1.2639e-06,0.95,0.3,0
0.047218,0.006137,0.038074,-0.00031568,0.011327,-1.8426e-05,0,0,0.069541,-0.030272,0,-9.5814e-05,0,0,0,0.038074,-0.00031569,0.011327,-0.0275,0.016362,0.034093,1.264e-06,0.96,0.3,0
0.047914,0.006141,0.038072,-0.00032438,0.011324,-1.4205e-05,0,0,0.069543,-0.030286,0,-7.3865e-05,0,0,0,0.038072,-0.00032439,0.011324,-0.021197,0.016357,0.034098,1.2641e-06,0.97,0.3,0
0.048609,0.0061439,0.03807,-0.00033057,0.011322,-9.6534e-06,0,0,0.069545,-0.030296,0,-5.0198e-05,0,0,0,0.03807,-0.00033057,0.011322,-0.014403,0.016354,0.034102,1.2641e-06,0.98,0.3,0
0.049305,0.0061456,0.038069,-0.00033427,0.011321,-4.8817e-06,0,0,0.069547,-0.030302,0,-2.5385e-05,0,0,0,0.038069,-0.00033427,0.011321,-0.0072833,0.016352,0.034104,1.2642e-06,0.99,0.3,0
0.05,0.0061462,0.038069,-0.00033551,0.01132,1.0958e-05,0,0,0.069547,-0.030304,0,5.6983e-05,0,0,0,0.038069,-0.00033551,0.01132,0.016349,0.016351,0.034105,1.2642e-06,1,0.3,0
0,0,0.03375,0.014464,0.014464,0.0029301,0,0,0.025072,0,0,0.0076181,0,0,0,0.034186,0.014029,0.014464,8.4509,0.020893,0.019942,4.0668e-07,0,0.31,0
0.00025071,7.6182e-05,0.033634,0.013912,0.014264,0.0029214,0,0,0.025182,-0.00045793,0,0.0075956,0,0,0,0.034058,0.013488,0.014264,8.2508,0.020603,0.020193,4.2081e-07,0.01,0.31,0
0.00050474,0.00015419,0.033962,0.013536,0.01425,0.0029749,0,0,0.025627,-0.00092762,0,0.0077348,0,0,0,0.034387,0.013111,0.01425,8.1199,0.020583,0.02073,4.5287e-07,0.02,0.31,0
0.00076213,0.00023382,0.03399,0.013021,0.014103,0.002976,0,0,0.025853,-0.0014072,0,0.0077377,0,0,0,0.034404,0.012606,0.014103,7.9233,0.020371,0.021089,4.7355e-07,0.03,0.31,0
0.0010229,0.00031489,0.034323,0.012628,0.014085,0.0030028,0,0,0.026309,-0.0018949,0,0.0078073,0,0,0,0.034731,0.01222,0.014085,7.7364,0.020345,0.021639,5.0738e-07,0.04,0.31,0
0.0012872,0.00039717,0.034419,0.012116,0.013961,0.0029915,0,0,0.026596,-0.0023981,0,0.0077779,0,0,0,0.034814,0.011722,0.013961,7.5082,0.020165,0.022058,5.321e-07,0.05,0.31,0
0.0015549,0.00048046,0.034595,0.011642,0.013871,0.0029788,0,0,0.026941,-0.0028977,0,0.007745,0,0,0,0.034975,0.011262,0.013871,7.2754,0.020036,0.022523,5.6031e-07,0.06,0.31,0
0.001826,0.00056456,0.034768,0.011165,0.01378,0.0029555,0,0,0.027284,-0.0033994,0,0.0076843,0,0,0,0.035132,0.0108,0.01378,7.0299,0.019904,0.022987,5.8868e-07,0.07,0.31,0
0.0021005,0.00064925,0.034937,0.010686,0.013687,0.0029219,0,0,0.027625,-0.0039012,0,0.0075969,0,0,0,0.035284,0.010339,0.013687,6.7742,0.01977,0.023451,6.171e-07,0.08,0.31,0
0.0023785,0.00073435,0.0351,0.010207,0.013592,0.0028785,0,0,0.027961,-0.0044013,0,0.0074842,0,0,0,0.035429,0.009878,0.013592,6.5107,0.019633,0.023911,6.4542e-07,0.09,0.31,0
0.0026598,0.00081965,0.035259,0.0097286,0.013496,0.0028261,0,0,0.028291,-0.0048979,0,0.007348,0,0,0,0.035568,0.0094195,0.013496,6.2419,0.019495,0.024367,6.7351e-07,0.1,0.31,0
0.0029443,0.00090499,0.035411,0.0092535,0.013399,0.0027655,0,0,0.028615,-0.0053896,0,0.0071904,0,0,0,0.0357,0.0089643,0.013399,5.9698,0.019355,0.024817,7.0127e-07,0.11,0.31,0
0.0032321,0.00099019,0.035556,0.0087824,0.013302,0.0026976,0,0,0.028931,-0.0058749,0,0.0070138,0,0,0,0.035825,0.0085133,0.013302,5.6967,0.019213,0.02526,7.2858e-07,0.12,0.31,0
0.0035229,0.0010751,0.035693,0.0083164,0.013203,0.0026234,0,0,0.029238,-0.0063526,0,0.0068208,0,0,0,0.035943,0.0080672,0.013203,5.4245,0.019071,0.025695,7.5534e-07,0.13,0.31,0
0.0038168,0.0011596,0.035823,0.0078564,0.013104,0.0025438,0,0,0.029535,-0.0068217,0,0.0066139,0,0,0,0.036053,0.0076269,0.013104,5.1551,0.018928,0.026121,7.8148e-07,0.14,0.31,0
0.0041136,0.0012436,0.035869,0.0073465,0.012965,0.0024545,0,0,0.029775,-0.0073035,0,0.0063817,0,0,0,0.036078,0.0071369,0.012965,4.8828,0.018727,0.026513,8.0344e-07,0.15,0.31,0
0.0044133,0.0013269,0.03602,0.0068679,0.012866,0.002342,0,0,0.0301,-0.0077979,0,0.0060893,0,0,0,0.036207,0.0066809,0.012866,4.5641,0.018585,0.02697,8.317e-07,0.16,0.31,0
0.0047156,0.0014095,0.036209,0.0065147,0.012817,0.0022678,0,0,0.030409,-0.0081931,0,0.0058962,0,0,0,0.036381,0.0063425,0.012817,4.3422,0.018513,0.027382,8.5893e-07,0.17,0.31,0
0.0050206,0.0014913,0.03626,0.0060894,0.012705,0.0021937,0,0,0.030622,-0.0086,0,0.0057037,0,0,0,0.036419,0.0059307,0.012705,4.137,0.018351,0.027728,8.7858e-07,0.18,0.31,0
0.005328,0.0015723,0.036349,0.0056675,0.012605,0.0021035,0,0,0.030867,-0.0090186,0,0.005469,0,0,0,0.036492,0.005524,0.012605,3.9038,0.018207,0.028105,9.0082e-07,0.19,0.31,0
0.0056379,0.0016524,0.03643,0.0052536,0.012505,0.0020141,0,0,0.031102,-0.0094267,0,0.0052366,0,0,0,0.036559,0.0051241,0.012505,3.6811,0.018063,0.028472,9.2223e-07,0.2,0.31,0
0.0059501,0.0017316,0.036503,0.0048476,0.012405,0.0019264,0,0,0.031327,-0.0098249,0,0.0050086,0,0,0,0.03662,0.0047308,0.012405,3.4697,0.017919,0.028828,9.4281e-07,0.21,0.31,0
0.0062645,0.0018099,0.036569,0.0044492,0.012306,0.0018413,0,0,0.031543,-0.010213,0,0.0047873,0,0,0,0.036675,0.004344,0.012306,3.2702,0.017775,0.029176,9.6259e-07,0.22,0.31,0
0.006581,0.0018873,0.036629,0.0040579,0.012206,0.0017594,0,0,0.03175,-0.010593,0,0.0045744,0,0,0,0.036724,0.0039631,0.012206,3.083,0.017631,0.029516,9.8159e-07,0.23,0.31,0
0.0068995,0.0019639,0.036683,0.0036732,0.012107,0.0016814,0,0,0.031949,-0.010964,0,0.0043716,0,0,0,0.036768,0.0035878,0.012107,2.9084,0.017488,0.029847,9.9985e-07,0.24,0.31,0
0.0072199,0.0020396,0.036731,0.0032946,0.012008,0.0016078,0,0,0.03214,-0.011327,0,0.0041804,0,0,0,0.036808,0.0032175,0.012008,2.7467,0.017344,0.030172,1.0174e-06,0.25,0.31,0
0.0075423,0.0021146,0.036774,0.0029214,0.011909,0.0015392,0,0,0.032325,-0.011683,0,0.0040018,0,0,0,0.036844,0.0028516,0.011909,2.5979,0.017201,0.03049,1.0344e-06,0.26,0.31,0
0.0078664,0.0021888,0.036812,0.002553,0.01181,0.0014757,0,0,0.032503,-0.012034,0,0.0038369,0,0,0,0.036876,0.0024896,0.01181,2.462,0.017058,0.030803,1.0507e-06,0.27,0.31,0
0.0081923,0.0022623,0.036847,0.0021886,0.011711,0.0014178,0,0,0.032677,-0.012379,0,0.0036863,0,0,0,0.036905,0.0021307,0.011711,2.3387,0.016915,0.031111,1.0665e-06,0.28,0.31,0
0.00852,0.0023352,0.036879,0.0018275,0.011612,0.0013656,0,0,0.032847,-0.01272,0,0.0035505,0,0,0,0.036932,0.0017743,0.011612,2.2277,0.016773,0.031416,1.0819e-06,0.29,0.31,0
0.0088493,0.0024075,0.036908,0.0014688,0.011513,0.0013191,0,0,0.033013,-0.013057,0,0.0034297,0,0,0,0.036957,0.0014198,0.011513,2.1288,0.01663,0.031718,1.0969e-06,0.3,0.31,0
0.0091802,0.0024794,0.036935,0.0011119,0.011414,0.0012784,0,0,0.033177,-0.013393,0,0.0033238,0,0,0,0.03698,0.0010663,0.011414,2.0412,0.016487,0.032019,1.1115e-06,0.31,0.31,0
0.0095128,0.0025508,0.03696,0.00075596,0.011315,0.0012433,0,0,0.033339,-0.013727,0,0.0032325,0,0,0,0.037003,0.00071331,0.011315,1.9645,0.016344,0.03232,1.1259e-06,0.32,0.31,0
0.009847,0.0026218,0.036985,0.00040029,0.011216,0.0012136,0,0,0.0335,-0.01406,0,0.0031554,0,0,0,0.037025,0.00036007,0.011216,1.8979,0.0162,0.032621,1.1401e-06,0.33,0.31,0
0.010183,0.0026925,0.03701,4.4184e-05,0.011116,0.0011891,0,0,0.033661,-0.014394,0,0.0030916,0,0,0,0.037048,5.9727e-06,0.011116,1.8405,0.016057,0.032924,1.1541e-06,0.34,0.31,0
0.01052,0.0027629,0.037034,-0.00031299,0.011016,0.0011693,0,0,0.033823,-0.014728,0,0.0030403,0,0,0,0.037071,-0.00034956,0.011016,1.7916,0.015913,0.033229,1.1681e-06,0.35,0.31,0
0.010859,0.0028331,0.03706,-0.0006718,0.010916,0.0011539,0,0,0.033987,-0.015065,0,0.0030002,0,0,0,0.037095,-0.00070706,0.010916,1.7501,0.015768,0.033537,1.182e-06,0.36,0.31,0
0.0112,0.0029031,0.037087,-0.0010328,0.010816,0.0011423,0,0,0.034152,-0.015404,0,0.00297,0,0,0,0.037121,-0.001067,0.010816,1.7149,0.015623,0.033848,1.1959e-06,0.37,0.31,0
0.011542,0.002973,0.037115,-0.0013963,0.010716,0.0011339,0,0,0.034319,-0.015745,0,0.0029481,0,0,0,0.037148,-0.0014296,0.010716,1.685,0.015478,0.034165,1.2099e-06,0.38,0.31,0
0.011886,0.0030427,0.037145,-0.0017627,0.010615,0.001128,0,0,0.034489,-0.016091,0,0.0029329,0,0,0,0.037178,-0.0017954,0.010615,1.6593,0.015332,0.034486,1.2239e-06,0.39,0.31,0
0.012232,0.0031122,0.037177,-0.0021322,0.010514,0.001124,0,0,0.034663,-0.016439,0,0.0029225,0,0,0,0.037209,-0.0021643,0.010514,1.6366,0.015186,0.034812,1.238e-06,0.4,0.31,0
0.01258,0.0031817,0.037212,-0.0025048,0.010412,0.0011212,0,0,0.03484,-0.016792,0,0.002915,0,0,0,0.037243,-0.0025365,0.010412,1.6157,0.01504,0.035143,1.2522e-06,0.41,0.31,0
0.012929,0.0032509,0.037249,-0.0028807,0.01031,0.0011186,0,0,0.03502,-0.017148,0,0.0029084,0,0,0,0.03728,-0.0029118,0.01031,1.5955,0.014893,0.035479,1.2664e-06,0.42,0.31,0
0.01328,0.00332,0.037288,-0.0032595,0.010209,0.0011156,0,0,0.035203,-0.017508,0,0.0029007,0,0,0,0.037319,-0.0032902,0.010209,1.5749,0.014746,0.035821,1.2807e-06,0.43,0.31,0
0.013633,0.0033888,0.037329,-0.0036411,0.010106,0.0011115,0,0,0.03539,-0.017872,0,0.0028899,0,0,0,0.03736,-0.0036712,0.010106,1.5529,0.014598,0.036167,1.2951e-06,0.44,0.31,0
0.013988,0.0034573,0.037373,-0.004025,0.010004,0.0011054,0,0,0.035579,-0.018238,0,0.002874,0,0,0,0.037403,-0.0040545,0.010004,1.5284,0.014451,0.036517,1.3094e-06,0.45,0.31,0
0.014344,0.0035254,0.037419,-0.0044108,0.0099024,0.0010966,0,0,0.035771,-0.018607,0,0.0028512,0,0,0,0.037448,-0.0044395,0.0099024,1.5007,0.014303,0.036871,1.3237e-06,0.46,0.31,0
0.014703,0.0035931,0.037466,-0.0047978,0.0098005,0.0010845,0,0,0.035965,-0.018978,0,0.0028198,0,0,0,0.037494,-0.0048256,0.0098005,1.469,0.014156,0.037227,1.3379e-06,0.47,0.31,0
0.015064,0.0036602,0.037514,-0.0051853,0.0096988,0.0010685,0,0,0.03616,-0.019349,0,0.002778,0,0,0,0.037541,-0.005212,0.0096988,1.4325,0.014009,0.037586,1.3519e-06,0.48,0.31,0
0.015426,0.0037267,0.037564,-0.0055725,0.0095975,0.0010479,0,0,0.036356,-0.019721,0,0.0027245,0,0,0,0.037589,-0.0055979,0.0095975,1.3908,0.013863,0.037945,1.3656e-06,0.49,0.31,0
0.015791,0.0037924,0.037596,-0.00044635,0.011145,0.0010243,0,0,0.050547,-0.020092,0,0.0039754,0,0,0,0.037624,-0.00047438,0.011145,1.5701,0.016098,0.03389,1.1947e-06,0.5,0.31,0
0.016437,0.0038836,0.037663,0.0048285,0.012748,0.0010015,0,0,0.064781,-0.02059,0,0.005208,0,0,0,0.037694,0.004798,0.012748,1.7455,0.018413,0.029729,1.0312e-06,0.51,0.31,0
0.017087,0.0039733,0.037713,0.0045797,0.012688,0.0009778,0,0,0.065064,-0.021081,0,0.0050846,0,0,0,0.037741,0.0045509,0.012688,1.6889,0.018327,0.029962,1.0457e-06,0.52,0.31,0
0.017739,0.0040613,0.037761,0.004335,0.012629,0.00095159,0,0,0.065343,-0.021563,0,0.0049483,0,0,0,0.037788,0.0043079,0.012629,1.6294,0.018241,0.030192,1.0599e-06,0.53,0.31,0
0.018394,0.0041477,0.037807,0.0040948,0.012571,0.00092294,0,0,0.065615,-0.022037,0,0.0047993,0,0,0,0.037832,0.0040696,0.012571,1.567,0.018158,0.030417,1.0737e-06,0.54,0.31,0
0.019051,0.0042321,0.037852,0.0038598,0.012514,0.00089196,0,0,0.06588,-0.0225,0,0.0046382,0,0,0,0.037876,0.0038364,0.012514,1.5021,0.018075,0.030637,1.0872e-06,0.55,0.31,0
0.019711,0.0043146,0.037895,0.0036304,0.012458,0.00085878,0,0,0.066138,-0.022951,0,0.0044657,0,0,0,0.037917,0.0036089,0.012458,1.4348,0.017994,0.03085,1.1002e-06,0.56,0.31,0
0.020374,0.0043951,0.037911,0.0034001,0.012393,0.00083765,0,0,0.066346,-0.023382,0,0.0043558,0,0,0,0.037931,0.0033797,0.012393,1.3896,0.017901,0.031042,1.1108e-06,0.57,0.31,0
0.021039,0.0044735,0.038003,0.0032065,0.012363,0.0007867,0,0,0.066665,-0.023807,0,0.0040909,0,0,0,0.038021,0.0031888,0.012363,1.2945,0.017858,0.031271,1.1268e-06,0.58,0.31,0
0.021706,0.0045496,0.037988,0.0029747,0.012289,0.00076271,0,0,0.066818,-0.024217,0,0.0039661,0,0,0,0.038005,0.0029581,0.012289,1.2473,0.01775,0.031437,1.1346e-06,0.59,0.31,0
0.022376,0.0046234,0.038071,0.0027931,0.012259,0.00070813,0,0,0.06711,-0.024612,0,0.0036823,0,0,0,0.038085,0.002779,0.012259,1.1495,0.017708,0.031649,1.1492e-06,0.6,0.31,0
0.023048,0.0046948,0.038075,0.0025821,0.012197,0.00066808,0,0,0.067283,-0.024999,0,0.003474,0,0,0,0.038088,0.0025695,0.012197,1.078,0.017618,0.031816,1.1578e-06,0.61,0.31,0
0.023721,0.0047639,0.038103,0.0023943,0.012149,0.00062695,0,0,0.06748,-0.025363,0,0.0032601,0,0,0,0.038114,0.0023833,0.012149,1.0055,0.017549,0.031986,1.1677e-06,0.62,0.31,0
0.024397,0.0048305,0.03811,0.0022109,0.012096,0.00060038,0,0,0.067636,-0.025702,0,0.003122,0,0,0,0.03812,0.0022008,0.012096,0.95785,0.017472,0.032135,1.1754e-06,0.63,0.31,0
0.025075,0.0048946,0.038172,0.0020552,0.012068,0.00054302,0,0,0.06787,-0.026034,0,0.0028237,0,0,0,0.03818,0.002047,0.012068,0.8612,0.017432,0.03231,1.1871e-06,0.64,0.31,0
0.025754,0.0049563,0.03817,0.0018772,0.012014,0.00050305,0,0,0.068005,-0.026356,0,0.0026159,0,0,0,0.038177,0.0018702,0.012014,0.79397,0.017354,0.032447,1.1937e-06,0.65,0.31,0
0.026435,0.0050155,0.038187,0.0017204,0.011972,0.00046256,0,0,0.068159,-0.026655,0,0.0024053,0,0,0,0.038193,0.0017145,0.011972,0.7266,0.017293,0.032584,1.2012e-06,0.66,0.31,0
0.027117,0.0050721,0.038202,0.0015712,0.011932,0.00042289,0,0,0.068302,-0.026938,0,0.002199,0,0,0,0.038207,0.0015663,0.011932,0.66135,0.017235,0.032713,1.2082e-06,0.67,0.31,0
0.027801,0.0051263,0.038214,0.0014295,0.011893,0.00038429,0,0,0.068434,-0.027205,0,0.0019983,0,0,0,0.038218,0.0014254,0.011893,0.5985,0.017179,0.032835,1.2147e-06,0.68,0.31,0
0.028486,0.0051781,0.038224,0.0012951,0.011856,0.00034696,0,0,0.068557,-0.027457,0,0.0018042,0,0,0,0.038227,0.0012919,0.011856,0.53826,0.017125,0.032949,1.2206e-06,0.69,0.31,0
0.029172,0.0052274,0.038231,0.001168,0.01182,0.00031108,0,0,0.06867,-0.027695,0,0.0016176,0,0,0,0.038234,0.0011654,0.01182,0.48085,0.017073,0.033055,1.2261e-06,0.7,0.31,0
0.029859,0.0052743,0.038237,0.0010479,0.011785,0.00027679,0,0,0.068774,-0.027918,0,0.0014393,0,0,0,0.038239,0.0010458,0.011785,0.42641,0.017023,0.033155,1.2311e-06,0.71,0.31,0
0.030548,0.0053189,0.038232,0.00093229,0.011749,0.00025758,0,0,0.068854,-0.028124,0,0.0013394,0,0,0,0.038233,0.00093051,0.011749,0.39565,0.016971,0.033241,1.2348e-06,0.72,0.31,0
0.031237,0.0053612,0.038245,0.00083264,0.011723,0.00023103,0,0,0.068957,-0.028316,0,0.0012014,0,0,0,0.038247,0.00083121,0.011723,0.3538,0.016934,0.033332,1.2398e-06,0.73,0.31,0
0.031927,0.0054012,0.038245,0.00073053,0.011693,0.00020169,0,0,0.069037,-0.028502,0,0.0010488,0,0,0,0.038246,0.00072944,0.011693,0.30802,0.01689,0.033413,1.2436e-06,0.74,0.31,0
0.032618,0.0054391,0.038251,0.00063663,0.011666,0.00015642,0,0,0.069121,-0.028677,0,0.00081336,0,0,0,0.038252,0.00063598,0.011666,0.23825,0.016851,0.033492,1.2476e-06,0.75,0.31,0
0.033309,0.0054748,0.038242,0.0005441,0.011636,0.00013279,0,0,0.069175,-0.028838,0,0.00069048,0,0,0,0.038242,0.00054363,0.011636,0.20181,0.016807,0.033557,1.25e-06,0.76,0.31,0
0.034001,0.0055085,0.038239,0.00046107,0.01161,0.00010985,0,0,0.069235,-0.028987,0,0.00057122,0,0,0,0.038239,0.00046075,0.01161,0.1666,0.01677,0.03362,1.2527e-06,0.77,0.31,0
0.034694,0.0055402,0.038235,0.00038338,0.011586,8.8905e-05,0,0,0.069289,-0.029126,0,0.00046231,0,0,0,0.038235,0.00038317,0.011586,0.13457,0.016735,0.033679,1.2552e-06,0.78,0.31,0
0.035387,0.0055699,0.038231,0.00031081,0.011563,6.9928e-05,0,0,0.069338,-0.029254,0,0.00036362,0,0,0,0.038231,0.00031068,0.011563,0.10566,0.016702,0.033733,1.2574e-06,0.79,0.31,0
0.03608,0.0055978,0.038226,0.00024313,0.011541,5.2885e-05,0,0,0.069382,-0.029374,0,0.000275,0,0,0,0.038226,0.00024305,0.011541,0.079774,0.01667,0.033782,1.2593e-06,0.8,0.31,0
0.036774,0.0056238,0.038221,0.00018012,0.01152,3.7732e-05,0,0,0.069421,-0.029484,0,0.0001962,0,0,0,0.038221,0.00018009,0.01152,0.05683,0.01664,0.033828,1.2611e-06,0.81,0.31,0
0.037469,0.0056481,0.038215,0.00012159,0.011501,2.4411e-05,0,0,0.069457,-0.029587,0,0.00012694,0,0,0,0.038215,0.00012157,0.011501,0.036716,0.016613,0.033869,1.2626e-06,0.82,0.31,0
0.038164,0.0056707,0.038209,6.7322e-05,0.011483,1.2858e-05,0,0,0.069488,-0.029681,0,6.6861e-05,0,0,0,0.038209,6.7317e-05,0.011483,0.019315,0.016587,0.033907,1.264e-06,0.83,0.31,0
0.038859,0.0056917,0.038203,1.714e-05,0.011466,2.9996e-06,0,0,0.069516,-0.029767,0,1.5598e-05,0,0,0,0.038203,1.714e-05,0.011466,0.0045007,0.016562,0.033942,1.2651e-06,0.84,0.31,0
0.039554,0.0057111,0.038197,-2.9133e-05,0.01145,-5.2438e-06,0,0,0.069542,-0.029847,0,-2.7268e-05,0,0,0,0.038197,-2.9134e-05,0.01145,-0.0078598,0.016539,0.033974,1.2662e-06,0.85,0.31,0
0.040249,0.005729,0.038191,-7.1663e-05,0.011436,-1.1957e-05,0,0,0.069564,-0.02992,0,-6.2178e-05,0,0,0,0.038191,-7.1667e-05,0.011436,-0.017905,0.016518,0.034002,1.2671e-06,0.86,0.31,0
0.040945,0.0057454,0.038185,-0.0001106,0.011422,-1.7231e-05,0,0,0.069583,-0.029986,0,-8.96e-05,0,0,0,0.038185,-0.00011061,0.011422,-0.02578,0.016499,0.034028,1.2679e-06,0.87,0.31,0
0.041641,0.0057604,0.038179,-0.0001461,0.01141,-2.1158e-05,0,0,0.0696,-0.030046,0,-0.00011002,0,0,0,0.038179,-0.00014611,0.01141,-0.03163,0.016481,0.034051,1.2685e-06,0.88,0.31,0
0.042337,0.005774,0.038174,-0.00017828,0.011399,-2.3834e-05,0,0,0.069615,-0.0301,0,-0.00012394,0,0,0,0.038174,-0.00017829,0.011399,-0.035607,0.016465,0.034072,1.2691e-06,0.89,0.31,0
0.043033,0.0057862,0.038169,-0.00020726,0.011388,-2.536e-05,0,0,0.069629,-0.030149,0,-0.00013187,0,0,0,0.038169,-0.00020728,0.011388,-0.037862,0.01645,0.034091,1.2696e-06,0.9,0.31,0
0.04373,0.0057972,0.038164,-0.00023316,0.011379,-2.5835e-05,0,0,0.06964,-0.030192,0,-0.00013434,0,0,0,0.038164,-0.00023318,0.011379,-0.038551,0.016437,0.034107,1.2701e-06,0.91,0.31,0
0.044426,0.005807,0.038159,-0.00025608,0.011371,-2.5362e-05,0,0,0.06965,-0.03023,0,-0.00013188,0,0,0,0.038159,-0.00025609,0.011371,-0.037827,0.016425,0.034121,1.2704e-06,0.92,0.31,0
0.045123,0.0058155,0.038155,-0.00027609,0.011364,-2.4045e-05,0,0,0.069658,-0.030264,0,-0.00012503,0,0,0,0.038155,-0.0002761,0.011364,-0.035847,0.016414,0.034134,1.2707e-06,0.93,0.31,0
0.045819,0.0058228,0.038152,-0.00029328,0.011357,-2.1987e-05,0,0,0.069665,-0.030292,0,-0.00011433,0,0,0,0.038152,-0.00029329,0.011357,-0.032768,0.016405,0.034145,1.271e-06,0.94,0.31,0
0.046516,0.005829,0.038149,-0.00030771,0.011352,-1.9294e-05,0,0,0.069671,-0.030316,0,-0.00010033,0,0,0,0.038149,-0.00030772,0.011352,-0.028747,0.016398,0.034153,1.2712e-06,0.95,0.31,0
0.047213,0.005834,0.038146,-0.00031945,0.011348,-1.6072e-05,0,0,0.069675,-0.030335,0,-8.3574e-05,0,0,0,0.038146,-0.00031946,0.011348,-0.02394,0.016392,0.03416,1.2713e-06,0.96,0.31,0
0.04791,0.0058378,0.038144,-0.00032853,0.011345,-1.2425e-05,0,0,0.069679,-0.03035,0,-6.4611e-05,0,0,0,0.038144,-0.00032853,0.011345,-0.018504,0.016387,0.034166,1.2714e-06,0.97,0.31,0
0.048606,0.0058406,0.038143,-0.00033499,0.011342,-8.4603e-06,0,0,0.069681,-0.030361,0,-4.3994e-05,0,0,0,0.038143,-0.00033499,0.011342,-0.012598,0.016383,0.03417,1.2715e-06,0.98,0.31,0
0.049303,0.0058422,0.038142,-0.00033885,0.011341,-4.2832e-06,0,0,0.069682,-0.030367,0,-2.2273e-05,0,0,0,0.038142,-0.00033885,0.011341,-0.0063775,0.016381,0.034172,1.2715e-06,0.99,0.31,0
0.05,0.0058428,0.038142,-0.00034014,0.01134,1.0562e-05,0,0,0.069683,-0.03037,0,5.4922e-05,0,0,0,0.038142,-0.00034014,0.01134,0.015726,0.016381,0.034173,1.2716e-06,1,0.31,0
0,0,0.03364,0.014417,0.014417,0.0027553,0,0,0.02499,0,0,0.0071638,0,0,0,0.034028,0.01403,0.014417,7.9979,0.020825,0.019807,3.9857e-07,0,0.32,0
0.0002499,7.1638e-05,0.033599,0.013906,0.014251,0.0027579,0,0,0.025152,-0.00044939,0,0.0071706,0,0,0,0.033978,0.013527,0.014251,7.8235,0.020585,0.020098,4.1515e-07,0.01,0.32,0
0.00050303,0.00014499,0.033772,0.013473,0.014174,0.0027872,0,0,0.025478,-0.00091022,0,0.0072467,0,0,0,0.034148,0.013098,0.014174,7.678,0.020473,0.020533,4.4052e-07,0.02,0.32,0
0.00075946,0.00021986,0.033947,0.013031,0.014093,0.0028068,0,0,0.025809,-0.0013808,0,0.0072976,0,0,0,0.034317,0.012661,0.014093,7.5118,0.020357,0.020976,4.6658e-07,0.03,0.32,0
0.0010192,0.00029609,0.034121,0.01258,0.014011,0.0028164,0,0,0.026144,-0.0018593,0,0.0073225,0,0,0,0.034484,0.012218,0.014011,7.327,0.020237,0.021426,4.9324e-07,0.04,0.32,0
0.0012823,0.00037347,0.034295,0.012122,0.013925,0.0028159,0,0,0.026481,-0.0023439,0,0.0073215,0,0,0,0.034647,0.01177,0.013925,7.1258,0.020114,0.021879,5.2038e-07,0.05,0.32,0
0.0015488,0.00045182,0.034468,0.011659,0.013838,0.0028056,0,0,0.026819,-0.0028328,0,0.0072946,0,0,0,0.034808,0.011319,0.013838,6.9104,0.019988,0.022336,5.4787e-07,0.06,0.32,0
0.0018187,0.00053096,0.034638,0.011192,0.013749,0.0027855,0,0,0.027155,-0.0033242,0,0.0072423,0,0,0,0.034964,0.010865,0.013749,6.6831,0.019859,0.022794,5.7558e-07,0.07,0.32,0
0.0020919,0.00061068,0.034804,0.010722,0.013658,0.0027561,0,0,0.02749,-0.0038163,0,0.0071657,0,0,0,0.035115,0.010411,0.013658,6.4462,0.019728,0.023252,6.034e-07,0.08,0.32,0
0.0023685,0.00069082,0.034966,0.010252,0.013565,0.0027177,0,0,0.027821,-0.0043074,0,0.0070661,0,0,0,0.035261,0.0099568,0.013565,6.2019,0.019595,0.023707,6.3121e-07,0.09,0.32,0
0.0026484,0.0007712,0.035123,0.0097825,0.013472,0.0026711,0,0,0.028147,-0.0047959,0,0.0069448,0,0,0,0.035402,0.009504,0.013472,5.9523,0.019459,0.024159,6.5887e-07,0.1,0.32,0
0.0029314,0.00085166,0.035274,0.0093149,0.013377,0.0026169,0,0,0.028467,-0.0052804,0,0.0068039,0,0,0,0.035536,0.0090537,0.013377,5.6994,0.019322,0.024607,6.8629e-07,0.11,0.32,0
0.0032177,0.00093205,0.035419,0.0088504,0.013281,0.0025559,0,0,0.02878,-0.0057597,0,0.0066455,0,0,0,0.035663,0.0086068,0.013281,5.4453,0.019184,0.025048,7.1335e-07,0.12,0.32,0
0.003507,0.0010122,0.035558,0.0083901,0.013184,0.0024891,0,0,0.029085,-0.0062325,0,0.0064716,0,0,0,0.035784,0.0081639,0.013184,5.1918,0.019044,0.025483,7.3997e-07,0.13,0.32,0
0.0037994,0.001092,0.035689,0.0079348,0.013087,0.0024172,0,0,0.029382,-0.0066979,0,0.0062848,0,0,0,0.035897,0.0077258,0.013087,4.9406,0.018904,0.02591,7.6607e-07,0.14,0.32,0
0.0040947,0.0011714,0.03576,0.0074851,0.012974,0.0023539,0,0,0.029623,-0.007135,0,0.0061202,0,0,0,0.035955,0.0072905,0.012974,4.7265,0.01874,0.026288,7.88e-07,0.15,0.32,0
0.0043928,0.0012502,0.035963,0.0071243,0.012926,0.0022917,0,0,0.029948,-0.0075426,0,0.0059585,0,0,0,0.036144,0.0069434,0.012926,4.5153,0.018671,0.026717,8.1629e-07,0.16,0.32,0
0.0046937,0.0013284,0.036107,0.0066585,0.01283,0.0021873,0,0,0.030261,-0.0080227,0,0.0056871,0,0,0,0.036269,0.0064969,0.01283,4.2248,0.018532,0.027165,8.4396e-07,0.17,0.32,0
0.0049971,0.001406,0.036137,0.0061762,0.012694,0.002099,0,0,0.030476,-0.0084731,0,0.0054575,0,0,0,0.036283,0.0060299,0.012694,3.9882,0.018336,0.027533,8.6396e-07,0.18,0.32,0
0.0053032,0.0014827,0.03623,0.005754,0.012595,0.0020165,0,0,0.030725,-0.0088936,0,0.0052429,0,0,0,0.036363,0.0056212,0.012595,3.7692,0.018193,0.027916,8.8662e-07,0.19,0.32,0
0.0056117,0.0015587,0.036316,0.005339,0.012497,0.0019346,0,0,0.030965,-0.0093048,0,0.0050299,0,0,0,0.036436,0.0052186,0.012497,3.5598,0.01805,0.02829,9.0852e-07,0.2,0.32,0
0.0059225,0.0016339,0.036395,0.0049309,0.012398,0.001854,0,0,0.031196,-0.0097068,0,0.0048205,0,0,0,0.036504,0.0048221,0.012398,3.3607,0.017908,0.028655,9.2967e-07,0.21,0.32,0
0.0062356,0.0017083,0.036467,0.0045298,0.012299,0.0017756,0,0,0.031418,-0.0101,0,0.0046166,0,0,0,0.036565,0.0044314,0.012299,3.1725,0.017765,0.029011,9.5007e-07,0.22,0.32,0
0.0065509,0.0017819,0.036533,0.0041351,0.0122,0.0017,0,0,0.031632,-0.010485,0,0.00442,0,0,0,0.036621,0.0040461,0.0122,2.9955,0.017623,0.02936,9.6975e-07,0.23,0.32,0
0.0068682,0.0018548,0.036592,0.0037465,0.012102,0.0016278,0,0,0.031838,-0.010862,0,0.0042322,0,0,0,0.036673,0.003666,0.012102,2.8302,0.01748,0.029701,9.8874e-07,0.24,0.32,0
0.0071876,0.0019268,0.036647,0.0033635,0.012003,0.0015594,0,0,0.032037,-0.011232,0,0.0040545,0,0,0,0.03672,0.0032906,0.012003,2.6766,0.017338,0.030036,1.0071e-06,0.25,0.32,0
0.007509,0.0019982,0.036696,0.0029855,0.011905,0.0014954,0,0,0.03223,-0.011595,0,0.0038881,0,0,0,0.036763,0.0029192,0.011905,2.535,0.017195,0.030365,1.0248e-06,0.26,0.32,0
0.0078322,0.0020688,0.036742,0.0026119,0.011806,0.0014361,0,0,0.032417,-0.011952,0,0.0037338,0,0,0,0.036802,0.0025516,0.011806,2.4051,0.017053,0.030688,1.042e-06,0.27,0.32,0
0.0081573,0.0021389,0.036783,0.0022421,0.011708,0.0013816,0,0,0.032599,-0.012305,0,0.0035923,0,0,0,0.036839,0.002187,0.011708,2.2869,0.016911,0.031008,1.0586e-06,0.28,0.32,0
0.0084842,0.0022083,0.036822,0.0018755,0.011609,0.0013323,0,0,0.032777,-0.012654,0,0.003464,0,0,0,0.036873,0.0018248,0.011609,2.1801,0.016769,0.031323,1.0748e-06,0.29,0.32,0
0.0088128,0.0022773,0.036858,0.0015114,0.011511,0.0012881,0,0,0.032951,-0.012999,0,0.0033491,0,0,0,0.036905,0.0014645,0.011511,2.0844,0.016627,0.031637,1.0906e-06,0.3,0.32,0
0.0091432,0.0023457,0.036891,0.001149,0.011412,0.0012491,0,0,0.033123,-0.013342,0,0.0032477,0,0,0,0.036935,0.0011054,0.011412,1.9991,0.016484,0.031948,1.1061e-06,0.31,0.32,0
0.0094753,0.0024137,0.036924,0.00078776,0.011313,0.0012152,0,0,0.033293,-0.013683,0,0.0031594,0,0,0,0.036964,0.00074695,0.011313,1.9238,0.016342,0.032259,1.1212e-06,0.32,0.32,0
0.009809,0.0024814,0.036955,0.00042702,0.011215,0.0011861,0,0,0.033462,-0.014024,0,0.0030839,0,0,0,0.036993,0.00038855,0.011215,1.8579,0.016199,0.03257,1.1362e-06,0.33,0.32,0
0.010145,0.0025487,0.036986,6.617e-05,0.011116,0.0011617,0,0,0.033631,-0.014364,0,0.0030203,0,0,0,0.037022,2.9655e-05,0.011116,1.8004,0.016056,0.032882,1.151e-06,0.34,0.32,0
0.010482,0.0026157,0.037017,-0.00029536,0.011016,0.0011415,0,0,0.0338,-0.014705,0,0.002968,0,0,0,0.037052,-0.00033025,0.011016,1.7507,0.015912,0.033196,1.1656e-06,0.35,0.32,0
0.010821,0.0026826,0.037048,-0.00065806,0.010917,0.0011253,0,0,0.03397,-0.015048,0,0.0029257,0,0,0,0.037081,-0.00069162,0.010917,1.7079,0.015769,0.033512,1.1802e-06,0.36,0.32,0
0.011161,0.0027492,0.03708,-0.0010224,0.010817,0.0011124,0,0,0.034141,-0.015392,0,0.0028923,0,0,0,0.037112,-0.0010548,0.010817,1.6709,0.015625,0.033831,1.1947e-06,0.37,0.32,0
0.011503,0.0028156,0.037113,-0.0013887,0.010717,0.0011025,0,0,0.034315,-0.015738,0,0.0028664,0,0,0,0.037145,-0.0014202,0.010717,1.6388,0.015481,0.034154,1.2092e-06,0.38,0.32,0
0.011847,0.0028818,0.037148,-0.0017572,0.010617,0.0010948,0,0,0.03449,-0.016087,0,0.0028464,0,0,0,0.037179,-0.0017879,0.010617,1.6106,0.015336,0.03448,1.2238e-06,0.39,0.32,0
0.012193,0.0029479,0.037185,-0.0021281,0.010517,0.0010888,0,0,0.034668,-0.016439,0,0.0028307,0,0,0,0.037215,-0.0021582,0.010517,1.5852,0.015191,0.034811,1.2383e-06,0.4,0.32,0
0.012541,0.0030137,0.037223,-0.0025014,0.010416,0.0010837,0,0,0.034848,-0.016793,0,0.0028177,0,0,0,0.037252,-0.002531,0.010416,1.5615,0.015046,0.035146,1.2529e-06,0.41,0.32,0
0.01289,0.0030794,0.037263,-0.0028772,0.010316,0.001079,0,0,0.035032,-0.017151,0,0.0028053,0,0,0,0.037292,-0.0029062,0.010316,1.5386,0.014901,0.035486,1.2675e-06,0.42,0.32,0
0.013241,0.0031449,0.037305,-0.0032553,0.010215,0.0010739,0,0,0.035217,-0.017511,0,0.002792,0,0,0,0.037334,-0.0032837,0.010215,1.5155,0.014755,0.035829,1.2821e-06,0.43,0.32,0
0.013595,0.00321,0.037349,-0.0036354,0.010114,0.0010676,0,0,0.035406,-0.017874,0,0.0027759,0,0,0,0.037377,-0.0036632,0.010114,1.4912,0.014609,0.036176,1.2967e-06,0.44,0.32,0
0.01395,0.0032749,0.037395,-0.0040171,0.010013,0.0010597,0,0,0.035596,-0.01824,0,0.0027551,0,0,0,0.037422,-0.0040442,0.010013,1.4648,0.014464,0.036526,1.3112e-06,0.45,0.32,0
0.014306,0.0033393,0.037442,-0.0044,0.0099127,0.0010493,0,0,0.035789,-0.018607,0,0.0027281,0,0,0,0.037469,-0.0044263,0.0099127,1.4356,0.014318,0.036879,1.3256e-06,0.46,0.32,0
0.014665,0.0034033,0.037491,-0.0047834,0.0098122,0.0010358,0,0,0.035982,-0.018974,0,0.0026931,0,0,0,0.037516,-0.0048088,0.0098122,1.4028,0.014173,0.037234,1.3398e-06,0.47,0.32,0
0.015026,0.0034668,0.03754,-0.0051669,0.0097121,0.0010188,0,0,0.036177,-0.019343,0,0.0026489,0,0,0,0.037565,-0.0051912,0.0097121,1.3658,0.014029,0.037589,1.3538e-06,0.48,0.32,0
0.015389,0.0035295,0.037591,-0.0055495,0.0096123,0.00099767,0,0,0.036372,-0.01971,0,0.0025939,0,0,0,0.037614,-0.0055726,0.0096123,1.3241,0.013884,0.037945,1.3676e-06,0.49,0.32,0
0.015754,0.0035916,0.037624,-0.00042228,0.011161,0.00097403,0,0,0.05057,-0.020077,0,0.0037799,0,0,0,0.037649,-0.00044762,0.011161,1.493,0.016121,0.03389,1.1963e-06,0.5,0.32,0
0.0164,0.0036778,0.037691,0.0048506,0.012762,0.00095179,0,0,0.064814,-0.020571,0,0.0049493,0,0,0,0.037718,0.004823,0.012762,1.6587,0.018435,0.029732,1.0323e-06,0.51,0.32,0
0.01705,0.0037626,0.03774,0.0046042,0.012703,0.00092897,0,0,0.065096,-0.021058,0,0.0048306,0,0,0,0.037766,0.0045782,0.012703,1.6046,0.018349,0.029963,1.0467e-06,0.52,0.32,0
0.017702,0.0038458,0.037788,0.0043618,0.012645,0.00090397,0,0,0.065373,-0.021537,0,0.0047006,0,0,0,0.037813,0.0043374,0.012645,1.548,0.018265,0.030191,1.0609e-06,0.53,0.32,0
0.018357,0.0039274,0.037835,0.0041239,0.012588,0.00087683,0,0,0.065643,-0.022006,0,0.0045595,0,0,0,0.037858,0.0041011,0.012588,1.4889,0.018182,0.030415,1.0747e-06,0.54,0.32,0
0.019015,0.0040073,0.03788,0.003891,0.012531,0.00084761,0,0,0.065907,-0.022465,0,0.0044076,0,0,0,0.037902,0.0038699,0.012531,1.4276,0.018101,0.030634,1.0882e-06,0.55,0.32,0
0.019675,0.0040853,0.037924,0.0036636,0.012476,0.00081645,0,0,0.066164,-0.022913,0,0.0042455,0,0,0,0.037943,0.0036441,0.012476,1.3644,0.018021,0.030846,1.1012e-06,0.56,0.32,0
0.020338,0.0041614,0.037965,0.003442,0.012422,0.0007835,0,0,0.066412,-0.023348,0,0.0040742,0,0,0,0.037983,0.0034243,0.012422,1.2994,0.017943,0.031053,1.1138e-06,0.57,0.32,0
0.021004,0.0042355,0.038004,0.0032268,0.012369,0.00074896,0,0,0.066651,-0.023771,0,0.0038946,0,0,0,0.038021,0.0032107,0.012369,1.2331,0.017867,0.031254,1.1259e-06,0.58,0.32,0
0.021671,0.0043076,0.038041,0.0030181,0.012318,0.00071307,0,0,0.066881,-0.024179,0,0.003708,0,0,0,0.038056,0.0030036,0.012318,1.1659,0.017792,0.031447,1.1375e-06,0.59,0.32,0
0.022341,0.0043774,0.038075,0.0028164,0.012268,0.00067608,0,0,0.0671,-0.024573,0,0.0035156,0,0,0,0.038088,0.0028034,0.012268,1.0981,0.01772,0.031633,1.1486e-06,0.6,0.32,0
0.023013,0.0044451,0.038107,0.0026217,0.012219,0.00063826,0,0,0.06731,-0.024952,0,0.003319,0,0,0,0.038118,0.0026102,0.012219,1.0301,0.017649,0.031812,1.1591e-06,0.61,0.32,0
0.023687,0.0045105,0.038136,0.0024343,0.012171,0.00059988,0,0,0.067509,-0.025316,0,0.0031193,0,0,0,0.038146,0.0024242,0.012171,0.96235,0.01758,0.031982,1.1691e-06,0.62,0.32,0
0.024363,0.0045736,0.038162,0.0022543,0.012125,0.0005612,0,0,0.067697,-0.025664,0,0.0029183,0,0,0,0.038171,0.0022456,0.012125,0.89518,0.017514,0.032145,1.1785e-06,0.63,0.32,0
0.025041,0.0046345,0.038186,0.0020818,0.01208,0.00052252,0,0,0.067874,-0.025996,0,0.0027171,0,0,0,0.038193,0.0020743,0.01208,0.82899,0.017449,0.0323,1.1873e-06,0.64,0.32,0
0.025721,0.004693,0.038207,0.0019168,0.012037,0.00048409,0,0,0.068041,-0.026313,0,0.0025173,0,0,0,0.038213,0.0019104,0.012037,0.76411,0.017387,0.032447,1.1956e-06,0.65,0.32,0
0.026402,0.0047491,0.038225,0.0017593,0.011995,0.00044615,0,0,0.068198,-0.026614,0,0.00232,0,0,0,0.038231,0.0017538,0.011995,0.70086,0.017327,0.032586,1.2033e-06,0.66,0.32,0
0.027085,0.0048029,0.038241,0.0016092,0.011955,0.00040894,0,0,0.068344,-0.026899,0,0.0021265,0,0,0,0.038246,0.0016046,0.011955,0.63952,0.017268,0.032718,1.2105e-06,0.67,0.32,0
0.027769,0.0048544,0.038255,0.0014664,0.011916,0.00037268,0,0,0.06848,-0.02717,0,0.0019379,0,0,0,0.038259,0.0014626,0.011916,0.58034,0.017212,0.032842,1.2172e-06,0.68,0.32,0
0.028455,0.0049036,0.038266,0.0013307,0.011879,0.00033754,0,0,0.068607,-0.027426,0,0.0017552,0,0,0,0.038269,0.0013277,0.011879,0.52355,0.017159,0.032958,1.2234e-06,0.69,0.32,0
0.029141,0.0049506,0.038275,0.0012022,0.011843,0.0003037,0,0,0.068724,-0.027667,0,0.0015792,0,0,0,0.038278,0.0011997,0.011843,0.46932,0.017107,0.033067,1.2291e-06,0.7,0.32,0
0.029829,0.0049952,0.038283,0.0010804,0.011809,0.0002713,0,0,0.068832,-0.027894,0,0.0014108,0,0,0,0.038285,0.0010784,0.011809,0.41781,0.017057,0.033169,1.2343e-06,0.71,0.32,0
0.030518,0.0050377,0.038288,0.00096536,0.011776,0.00024047,0,0,0.068932,-0.028108,0,0.0012504,0,0,0,0.03829,0.00096381,0.011776,0.36913,0.01701,0.033265,1.2391e-06,0.72,0.32,0
0.031208,0.005078,0.038292,0.00085675,0.011745,0.00021129,0,0,0.069023,-0.028309,0,0.0010987,0,0,0,0.038293,0.00085556,0.011745,0.32337,0.016965,0.033354,1.2435e-06,0.73,0.32,0
0.031898,0.0051162,0.038294,0.00075438,0.011715,0.00018385,0,0,0.069107,-0.028497,0,0.00095601,0,0,0,0.038295,0.00075348,0.011715,0.28059,0.016921,0.033437,1.2475e-06,0.74,0.32,0
0.03259,0.0051523,0.038295,0.00065804,0.011686,0.0001582,0,0,0.069184,-0.028673,0,0.00082263,0,0,0,0.038296,0.00065738,0.011686,0.24082,0.01688,0.033514,1.2511e-06,0.75,0.32,0
0.033282,0.0051865,0.038295,0.0005675,0.011659,0.00013438,0,0,0.069254,-0.028837,0,0.00069875,0,0,0,0.038296,0.00056702,0.011659,0.20407,0.016841,0.033586,1.2544e-06,0.76,0.32,0
0.033975,0.0052186,0.038294,0.00048254,0.011633,0.0001124,0,0,0.069318,-0.028991,0,0.00058446,0,0,0,0.038294,0.00048221,0.011633,0.17031,0.016803,0.033652,1.2574e-06,0.77,0.32,0
0.034668,0.0052489,0.038291,0.00040294,0.011608,9.2266e-05,0,0,0.069376,-0.029134,0,0.00047978,0,0,0,0.038292,0.00040271,0.011608,0.13953,0.016768,0.033713,1.26e-06,0.78,0.32,0
0.035362,0.0052773,0.038289,0.00032847,0.011585,7.3969e-05,0,0,0.069429,-0.029267,0,0.00038464,0,0,0,0.038289,0.00032833,0.011585,0.11165,0.016734,0.03377,1.2624e-06,0.79,0.32,0
0.036057,0.0053039,0.038285,0.00025894,0.011563,5.748e-05,0,0,0.069476,-0.029391,0,0.0002989,0,0,0,0.038285,0.00025885,0.011563,0.086608,0.016702,0.033822,1.2646e-06,0.8,0.32,0
0.036752,0.0053289,0.038281,0.00019413,0.011542,4.2761e-05,0,0,0.069519,-0.029506,0,0.00022236,0,0,0,0.038281,0.00019408,0.011542,0.064328,0.016672,0.03387,1.2665e-06,0.81,0.32,0
0.037447,0.0053521,0.038276,0.00013384,0.011523,2.9763e-05,0,0,0.069558,-0.029612,0,0.00015477,0,0,0,0.038276,0.00013382,0.011523,0.044709,0.016644,0.033914,1.2682e-06,0.82,0.32,0
0.038143,0.0053738,0.038271,7.7892e-05,0.011505,1.843e-05,0,0,0.069593,-0.02971,0,9.5834e-05,0,0,0,0.038271,7.7883e-05,0.011505,0.027647,0.016618,0.033954,1.2697e-06,0.83,0.32,0
0.038839,0.0053939,0.038266,2.61e-05,0.011488,8.6944e-06,0,0,0.069624,-0.0298,0,4.5211e-05,0,0,0,0.038266,2.6098e-05,0.011488,0.013027,0.016593,0.033991,1.2711e-06,0.84,0.32,0
0.039536,0.0054124,0.038261,-2.1704e-05,0.011472,4.8588e-07,0,0,0.069651,-0.029883,0,2.5265e-06,0,0,0,0.038261,-2.1704e-05,0.011472,0.00072719,0.01657,0.034024,1.2722e-06,0.85,0.32,0
0.040232,0.0054296,0.038255,-6.5681e-05,0.011457,-6.2739e-06,0,0,0.069676,-0.029959,0,-3.2624e-05,0,0,0,0.038255,-6.5682e-05,0.011457,-0.0093805,0.016549,0.034055,1.2733e-06,0.86,0.32,0
0.040929,0.0054453,0.03825,-0.00010598,0.011443,-1.1668e-05,0,0,0.069698,-0.030028,0,-6.0672e-05,0,0,0,0.03825,-0.00010598,0.011443,-0.017429,0.016529,0.034082,1.2742e-06,0.87,0.32,0
0.041626,0.0054597,0.038245,-0.00014274,0.011431,-1.5782e-05,0,0,0.069717,-0.030091,0,-8.2066e-05,0,0,0,0.038245,-0.00014275,0.011431,-0.023555,0.016511,0.034107,1.275e-06,0.88,0.32,0
0.042323,0.0054727,0.03824,-0.00017609,0.011419,-1.8707e-05,0,0,0.069734,-0.030148,0,-9.7274e-05,0,0,0,0.03824,-0.0001761,0.011419,-0.0279,0.016494,0.034129,1.2757e-06,0.89,0.32,0
0.043021,0.0054845,0.038235,-0.00020615,0.011409,-2.0535e-05,0,0,0.069749,-0.030199,0,-0.00010678,0,0,0,0.038235,-0.00020616,0.011409,-0.030606,0.016479,0.034149,1.2762e-06,0.9,0.32,0
0.043718,0.005495,0.038231,-0.00023303,0.011399,-2.1361e-05,0,0,0.069762,-0.030244,0,-0.00011108,0,0,0,0.038231,-0.00023304,0.011399,-0.031819,0.016466,0.034167,1.2767e-06,0.91,0.32,0
0.044416,0.0055044,0.038227,-0.00025682,0.011391,-2.1282e-05,0,0,0.069773,-0.030284,0,-0.00011066,0,0,0,0.038227,-0.00025683,0.011391,-0.031685,0.016454,0.034182,1.2772e-06,0.92,0.32,0
0.045114,0.0055126,0.038223,-0.0002776,0.011384,-2.0395e-05,0,0,0.069783,-0.030319,0,-0.00010606,0,0,0,0.038223,-0.00027762,0.011384,-0.030352,0.016443,0.034195,1.2775e-06,0.93,0.32,0
0.045812,0.0055196,0.03822,-0.00029547,0.011377,-1.8801e-05,0,0,0.069791,-0.030349,0,-9.7766e-05,0,0,0,0.03822,-0.00029548,0.011377,-0.027969,0.016434,0.034207,1.2778e-06,0.94,0.32,0
0.04651,0.0055255,0.038217,-0.00031047,0.011372,-1.6599e-05,0,0,0.069797,-0.030374,0,-8.6314e-05,0,0,0,0.038217,-0.00031048,0.011372,-0.024685,0.016426,0.034216,1.2781e-06,0.95,0.32,0
0.047208,0.0055303,0.038215,-0.00032267,0.011368,-1.3889e-05,0,0,0.069803,-0.030395,0,-7.2223e-05,0,0,0,0.038215,-0.00032268,0.011368,-0.02065,0.01642,0.034224,1.2783e-06,0.96,0.32,0
0.047906,0.005534,0.038213,-0.00033212,0.011364,-1.0773e-05,0,0,0.069806,-0.030411,0,-5.6018e-05,0,0,0,0.038213,-0.00033212,0.011364,-0.016013,0.016415,0.03423,1.2784e-06,0.97,0.32,0
0.048604,0.0055367,0.038212,-0.00033884,0.011362,-7.3514e-06,0,0,0.069809,-0.030422,0,-3.8227e-05,0,0,0,0.038212,-0.00033884,0.011362,-0.010926,0.016411,0.034234,1.2785e-06,0.98,0.32,0
0.049302,0.0055382,0.038211,-0.00034286,0.01136,-3.7266e-06,0,0,0.069811,-0.030428,0,-1.9378e-05,0,0,0,0.038211,-0.00034286,0.01136,-0.0055382,0.016409,0.034237,1.2786e-06,0.99,0.32,0
0.05,0.0055388,0.038211,-0.0003442,0.01136,1.0144e-05,0,0,0.069812,-0.030431,0,5.2748e-05,0,0,0,0.038211,-0.0003442,0.01136,0.015075,0.016409,0.034237,1.2786e-06,1,0.32,0
0,0,0.033538,0.014374,0.014374,0.0025844,0,0,0.024914,-5.421e-20,0,0.0067194,0,0,0,0.033881,0.014031,0.014374,7.5468,0.020762,0.019681,3.911e-07,0,0.33,0
0.00024914,6.7194e-05,0.033497,0.013873,0.014211,0.0025869,0,0,0.025072,-0.00043999,0,0.0067259,0,0,0,0.033833,0.013537,0.014211,7.3845,0.020527,0.019967,4.0729e-07,0.01,0.33,0
0.00050145,0.00013598,0.033667,0.01345,0.014135,0.0026145,0,0,0.025392,-0.00089105,0,0.0067978,0,0,0,0.034,0.013117,0.014135,7.2506,0.020417,0.020393,4.3191e-07,0.02,0.33,0
0.00075698,0.00020621,0.033838,0.013017,0.014056,0.0026333,0,0,0.025716,-0.0013516,0,0.0068466,0,0,0,0.034166,0.012689,0.014056,7.0974,0.020304,0.020827,4.5725e-07,0.03,0.33,0
0.0010158,0.0002777,0.034009,0.012575,0.013976,0.0026431,0,0,0.026044,-0.00182,0,0.0068719,0,0,0,0.034331,0.012254,0.013976,6.927,0.020187,0.021268,4.8319e-07,0.04,0.33,0
0.0012779,0.00035029,0.03418,0.012127,0.013892,0.0026437,0,0,0.026374,-0.0022946,0,0.0068737,0,0,0,0.034493,0.011815,0.013892,6.7413,0.020067,0.021714,5.0963e-07,0.05,0.33,0
0.0015433,0.00042381,0.03435,0.011673,0.013807,0.0026353,0,0,0.026706,-0.0027738,0,0.0068519,0,0,0,0.034652,0.011371,0.013807,6.5424,0.019943,0.022164,5.3647e-07,0.06,0.33,0
0.001812,0.00049807,0.034517,0.011215,0.01372,0.0026181,0,0,0.027037,-0.0032558,0,0.0068071,0,0,0,0.034807,0.010925,0.01372,6.3324,0.019817,0.022615,5.6358e-07,0.07,0.33,0
0.002084,0.00057293,0.034681,0.010755,0.013631,0.0025924,0,0,0.027366,-0.003739,0,0.0067402,0,0,0,0.034959,0.010477,0.013631,6.1133,0.019689,0.023067,5.9085e-07,0.08,0.33,0
0.0023593,0.0006482,0.034841,0.010293,0.01354,0.0025585,0,0,0.027692,-0.0042219,0,0.0066521,0,0,0,0.035105,0.010029,0.01354,5.8872,0.019558,0.023518,6.1817e-07,0.09,0.33,0
0.0026378,0.00072373,0.034997,0.0098306,0.013448,0.0025171,0,0,0.028013,-0.004703,0,0.0065444,0,0,0,0.035246,0.0095814,0.013448,5.6559,0.019425,0.023967,6.4543e-07,0.1,0.33,0
0.0029195,0.00079938,0.035148,0.00937,0.013355,0.0024687,0,0,0.02833,-0.0051809,0,0.0064185,0,0,0,0.035382,0.0091357,0.013355,5.4214,0.019291,0.024411,6.7252e-07,0.11,0.33,0
0.0032044,0.000875,0.035292,0.0089116,0.013261,0.002414,0,0,0.028641,-0.0056546,0,0.0062765,0,0,0,0.035512,0.0086925,0.013261,5.1856,0.019155,0.024852,6.9934e-07,0.12,0.33,0
0.0034924,0.00095046,0.035431,0.0084565,0.013166,0.0023539,0,0,0.028944,-0.0061227,0,0.0061202,0,0,0,0.035635,0.0082526,0.013166,4.95,0.019018,0.025286,7.2581e-07,0.13,0.33,0
0.0037833,0.0010256,0.035563,0.0080056,0.013071,0.0022891,0,0,0.02924,-0.0065846,0,0.0059517,0,0,0,0.035752,0.0078167,0.013071,4.7163,0.01888,0.025714,7.5184e-07,0.14,0.33,0
0.0040772,0.0011005,0.035689,0.0075595,0.012974,0.0022205,0,0,0.029528,-0.0070394,0,0.0057734,0,0,0,0.035863,0.0073853,0.012974,4.4859,0.018741,0.026135,7.7737e-07,0.15,0.33,0
0.0043739,0.0011748,0.035807,0.0071189,0.012878,0.002149,0,0,0.029808,-0.0074865,0,0.0055873,0,0,0,0.035967,0.0069588,0.012878,4.2603,0.018601,0.026548,8.0233e-07,0.16,0.33,0
0.0046733,0.0012486,0.035918,0.0066841,0.012781,0.0020753,0,0,0.030079,-0.0079255,0,0.0053959,0,0,0,0.036065,0.0065375,0.012781,4.0405,0.018461,0.026953,8.2668e-07,0.17,0.33,0
0.0049755,0.0013218,0.036022,0.0062554,0.012683,0.0020004,0,0,0.03034,-0.0083562,0,0.0052012,0,0,0,0.036156,0.0061216,0.012683,3.8276,0.01832,0.02735,8.5037e-07,0.18,0.33,0
0.0052801,0.0013944,0.036119,0.0058331,0.012586,0.0019252,0,0,0.030593,-0.0087783,0,0.0050054,0,0,0,0.036241,0.0057112,0.012586,3.6226,0.018179,0.027739,8.734e-07,0.19,0.33,0
0.0055873,0.0014663,0.036209,0.0054172,0.012488,0.0018502,0,0,0.030838,-0.009192,0,0.0048106,0,0,0,0.03632,0.0053064,0.012488,3.4263,0.018038,0.028119,8.9574e-07,0.2,0.33,0
0.0058969,0.0015374,0.036293,0.0050075,0.01239,0.0017764,0,0,0.031074,-0.0095974,0,0.0046186,0,0,0,0.036394,0.004907,0.01239,3.2394,0.017897,0.028492,9.1738e-07,0.21,0.33,0
0.0062088,0.0016079,0.03637,0.004604,0.012292,0.0017043,0,0,0.031301,-0.0099947,0,0.0044312,0,0,0,0.036461,0.0045129,0.012292,3.0623,0.017756,0.028856,9.3834e-07,0.22,0.33,0
0.0065229,0.0016776,0.036441,0.0042064,0.012194,0.0016347,0,0,0.031521,-0.010384,0,0.0042501,0,0,0,0.036524,0.0041237,0.012194,2.8956,0.017614,0.029213,9.5863e-07,0.23,0.33,0
0.0068392,0.0017466,0.036507,0.0038144,0.012096,0.0015679,0,0,0.031734,-0.010767,0,0.0040766,0,0,0,0.036582,0.0037393,0.012096,2.7395,0.017473,0.029564,9.7827e-07,0.24,0.33,0
0.0071576,0.001815,0.036568,0.0034274,0.011999,0.0015046,0,0,0.03194,-0.011142,0,0.003912,0,0,0,0.036636,0.0033592,0.011999,2.5942,0.017331,0.029908,9.9729e-07,0.25,0.33,0
0.007478,0.0018827,0.036624,0.0030451,0.011901,0.0014451,0,0,0.03214,-0.011512,0,0.0037574,0,0,0,0.036686,0.0029831,0.011901,2.4598,0.01719,0.030246,1.0157e-06,0.26,0.33,0
0.0078004,0.0019497,0.036675,0.002667,0.011803,0.0013898,0,0,0.032334,-0.011876,0,0.0036134,0,0,0,0.036732,0.0026103,0.011803,2.3363,0.017048,0.03058,1.0336e-06,0.27,0.33,0
0.0081247,0.0020162,0.036723,0.0022925,0.011705,0.0013388,0,0,0.032524,-0.012236,0,0.0034809,0,0,0,0.036775,0.0022405,0.011705,2.2234,0.016907,0.030909,1.051e-06,0.28,0.33,0
0.0084509,0.0020821,0.036768,0.001921,0.011607,0.0012924,0,0,0.03271,-0.012591,0,0.0033602,0,0,0,0.036816,0.0018731,0.011607,2.121,0.016765,0.031235,1.068e-06,0.29,0.33,0
0.0087789,0.0021475,0.03681,0.0015519,0.011509,0.0012506,0,0,0.032892,-0.012944,0,0.0032514,0,0,0,0.036854,0.0015076,0.011509,2.0288,0.016623,0.031558,1.0846e-06,0.3,0.33,0
0.0091087,0.0022125,0.03685,0.0011846,0.01141,0.0012133,0,0,0.033072,-0.013294,0,0.0031547,0,0,0,0.036891,0.0011434,0.01141,1.9462,0.016482,0.03188,1.1008e-06,0.31,0.33,0
0.0094403,0.0022771,0.036889,0.00081863,0.011312,0.0011807,0,0,0.033249,-0.013642,0,0.0030698,0,0,0,0.036927,0.00078002,0.011312,1.8728,0.01634,0.0322,1.1167e-06,0.32,0.33,0
0.0097737,0.0023413,0.036926,0.00045334,0.011214,0.0011524,0,0,0.033426,-0.013989,0,0.0029963,0,0,0,0.036962,0.00041696,0.011214,1.8079,0.016198,0.03252,1.1324e-06,0.33,0.33,0
0.010109,0.0024052,0.036963,8.8213e-05,0.011115,0.0011283,0,0,0.033602,-0.014335,0,0.0029335,0,0,0,0.036997,5.3722e-05,0.011115,1.751,0.016055,0.032841,1.1478e-06,0.34,0.33,0
0.010446,0.0024688,0.036999,-0.00027723,0.011017,0.001108,0,0,0.033777,-0.014682,0,0.0028808,0,0,0,0.037032,-0.00031014,0.011017,1.7011,0.015913,0.033163,1.1631e-06,0.35,0.33,0
0.010784,0.0025322,0.037036,-0.00064343,0.010918,0.0010912,0,0,0.033953,-0.015029,0,0.0028372,0,0,0,0.037067,-0.000675,0.010918,1.6575,0.01577,0.033486,1.1783e-06,0.36,0.33,0
0.011125,0.0025953,0.037073,-0.0010107,0.010819,0.0010775,0,0,0.034131,-0.015378,0,0.0028015,0,0,0,0.037103,-0.0010412,0.010819,1.6193,0.015627,0.033812,1.1934e-06,0.37,0.33,0
0.011467,0.0026582,0.037111,-0.0013795,0.010719,0.0010663,0,0,0.034309,-0.015729,0,0.0027724,0,0,0,0.03714,-0.001409,0.010719,1.5857,0.015484,0.034141,1.2085e-06,0.38,0.33,0
0.011811,0.002721,0.03715,-0.0017499,0.01062,0.0010572,0,0,0.034489,-0.016081,0,0.0027487,0,0,0,0.037179,-0.0017786,0.01062,1.5556,0.01534,0.034473,1.2235e-06,0.39,0.33,0
0.012157,0.0027835,0.03719,-0.0021221,0.010521,0.0010496,0,0,0.034671,-0.016435,0,0.0027289,0,0,0,0.037218,-0.0021501,0.010521,1.5282,0.015196,0.034808,1.2385e-06,0.4,0.33,0
0.012504,0.0028458,0.037232,-0.0024961,0.010421,0.0010428,0,0,0.034855,-0.016792,0,0.0027113,0,0,0,0.03726,-0.0025234,0.010421,1.5025,0.015052,0.035147,1.2534e-06,0.41,0.33,0
0.012854,0.0029079,0.037276,-0.0028718,0.010321,0.0010363,0,0,0.035041,-0.017151,0,0.0026944,0,0,0,0.037303,-0.0028985,0.010321,1.4776,0.014908,0.035488,1.2683e-06,0.42,0.33,0
0.013205,0.0029697,0.037321,-0.0032492,0.010221,0.0010294,0,0,0.035229,-0.017512,0,0.0026765,0,0,0,0.037347,-0.0032752,0.010221,1.4526,0.014764,0.035834,1.2832e-06,0.43,0.33,0
0.013558,0.0030313,0.037367,-0.0036279,0.010122,0.0010215,0,0,0.035419,-0.017875,0,0.002656,0,0,0,0.037393,-0.0036533,0.010122,1.4266,0.01462,0.036182,1.298e-06,0.44,0.33,0
0.013914,0.0030925,0.037415,-0.0040076,0.010022,0.0010121,0,0,0.035611,-0.018239,0,0.0026314,0,0,0,0.03744,-0.0040323,0.010022,1.3988,0.014476,0.036532,1.3127e-06,0.45,0.33,0
0.014271,0.0031533,0.037464,-0.0043878,0.0099228,0.0010004,0,0,0.035803,-0.018604,0,0.0026011,0,0,0,0.037488,-0.0044117,0.0099228,1.3685,0.014333,0.036884,1.3272e-06,0.46,0.33,0
0.01463,0.0032136,0.037514,-0.0047681,0.0098237,0.00098599,0,0,0.035997,-0.018969,0,0.0025636,0,0,0,0.037537,-0.0047911,0.0098237,1.3351,0.01419,0.037237,1.3415e-06,0.47,0.33,0
0.014991,0.0032734,0.037564,-0.0051478,0.0097249,0.0009683,0,0,0.036191,-0.019335,0,0.0025176,0,0,0,0.037586,-0.0051697,0.0097249,1.298,0.014047,0.037591,1.3556e-06,0.48,0.33,0
0.015354,0.0033325,0.037615,-0.0055263,0.0096267,0.00094688,0,0,0.036385,-0.019699,0,0.0024619,0,0,0,0.037636,-0.0055471,0.0096267,1.2567,0.013905,0.037944,1.3694e-06,0.49,0.33,0
0.015718,0.0033909,0.03765,-0.00039857,0.011175,0.00092338,0,0,0.050592,-0.020061,0,0.003583,0,0,0,0.037672,-0.00042134,0.011175,1.4153,0.016142,0.03389,1.1978e-06,0.5,0.33,0
0.016365,0.0034722,0.037716,0.0048719,0.012776,0.00090177,0,0,0.064844,-0.020552,0,0.0046892,0,0,0,0.037741,0.0048472,0.012776,1.5715,0.018455,0.029733,1.0333e-06,0.51,0.33,0
0.017015,0.0035521,0.037766,0.0046276,0.012718,0.00087991,0,0,0.065125,-0.021035,0,0.0045755,0,0,0,0.037789,0.0046042,0.012718,1.5199,0.018371,0.029964,1.0477e-06,0.52,0.33,0
0.017668,0.0036306,0.037814,0.0043872,0.01266,0.00085614,0,0,0.0654,-0.02151,0,0.0044519,0,0,0,0.037836,0.0043653,0.01266,1.4662,0.018287,0.030191,1.0618e-06,0.53,0.33,0
0.018323,0.0037075,0.037861,0.0041513,0.012604,0.00083047,0,0,0.06567,-0.021977,0,0.0043184,0,0,0,0.037882,0.0041309,0.012604,1.4104,0.018206,0.030413,1.0756e-06,0.54,0.33,0
0.018981,0.0037828,0.037907,0.0039204,0.012548,0.00080297,0,0,0.065933,-0.022433,0,0.0041754,0,0,0,0.037926,0.0039014,0.012548,1.3527,0.018125,0.030631,1.0891e-06,0.55,0.33,0
0.019642,0.0038564,0.037951,0.0036947,0.012494,0.00077374,0,0,0.066189,-0.022877,0,0.0040234,0,0,0,0.037968,0.0036772,0.012494,1.2933,0.018046,0.030843,1.1021e-06,0.56,0.33,0
0.020305,0.0039282,0.037993,0.0034748,0.01244,0.00074292,0,0,0.066436,-0.02331,0,0.0038632,0,0,0,0.038009,0.0034588,0.01244,1.2324,0.017969,0.031049,1.1147e-06,0.57,0.33,0
0.020971,0.003998,0.038032,0.0032609,0.012388,0.00071068,0,0,0.066675,-0.02373,0,0.0036955,0,0,0,0.038047,0.0032464,0.012388,1.1704,0.017894,0.031249,1.1269e-06,0.58,0.33,0
0.021639,0.004066,0.03807,0.0030535,0.012337,0.00067721,0,0,0.066905,-0.024137,0,0.0035215,0,0,0,0.038083,0.0030404,0.012337,1.1076,0.01782,0.031442,1.1385e-06,0.59,0.33,0
0.022309,0.0041319,0.038105,0.0028526,0.012287,0.00064275,0,0,0.067125,-0.02453,0,0.0033423,0,0,0,0.038116,0.0028409,0.012287,1.0442,0.017748,0.031628,1.1497e-06,0.6,0.33,0
0.022981,0.0041958,0.038137,0.0026586,0.012239,0.00060752,0,0,0.067336,-0.024908,0,0.0031591,0,0,0,0.038147,0.0026482,0.012239,0.98073,0.017678,0.031808,1.1603e-06,0.61,0.33,0
0.023655,0.0042576,0.038167,0.0024716,0.012192,0.00057176,0,0,0.067536,-0.025272,0,0.0029732,0,0,0,0.038176,0.0024625,0.012192,0.91744,0.01761,0.031979,1.1704e-06,0.62,0.33,0
0.024332,0.0043172,0.038194,0.0022918,0.012146,0.00053573,0,0,0.067726,-0.02562,0,0.0027858,0,0,0,0.038202,0.0022838,0.012146,0.8547,0.017544,0.032143,1.1799e-06,0.63,0.33,0
0.02501,0.0043747,0.038219,0.0021192,0.012101,0.00049966,0,0,0.067906,-0.025954,0,0.0025982,0,0,0,0.038226,0.0021123,0.012101,0.79283,0.01748,0.032299,1.1889e-06,0.64,0.33,0
0.02569,0.00443,0.038241,0.0019539,0.012058,0.00046379,0,0,0.068075,-0.026272,0,0.0024117,0,0,0,0.038247,0.0019479,0.012058,0.73213,0.017418,0.032448,1.1974e-06,0.65,0.33,0
0.026371,0.0044832,0.038261,0.0017957,0.012017,0.00042834,0,0,0.068234,-0.026575,0,0.0022274,0,0,0,0.038266,0.0017907,0.012017,0.6729,0.017358,0.032589,1.2053e-06,0.66,0.33,0
0.027054,0.0045341,0.038278,0.0016448,0.011977,0.00039353,0,0,0.068384,-0.026863,0,0.0020464,0,0,0,0.038282,0.0016406,0.011977,0.6154,0.0173,0.032722,1.2127e-06,0.67,0.33,0
0.027739,0.0045829,0.038293,0.001501,0.011938,0.00035956,0,0,0.068523,-0.027137,0,0.0018697,0,0,0,0.038297,0.0014975,0.011938,0.55985,0.017244,0.032848,1.2196e-06,0.68,0.33,0
0.028425,0.0046295,0.038306,0.0013643,0.011901,0.00032658,0,0,0.068653,-0.027396,0,0.0016982,0,0,0,0.038309,0.0013614,0.011901,0.50647,0.017191,0.032967,1.226e-06,0.69,0.33,0
0.029112,0.004674,0.038317,0.0012343,0.011865,0.00029478,0,0,0.068774,-0.027641,0,0.0015329,0,0,0,0.038319,0.001232,0.011865,0.45542,0.017139,0.033078,1.2319e-06,0.7,0.33,0
0.029801,0.0047164,0.038326,0.0011112,0.011831,0.00026427,0,0,0.068886,-0.027872,0,0.0013742,0,0,0,0.038328,0.0011093,0.011831,0.40685,0.017089,0.033183,1.2374e-06,0.71,0.33,0
0.03049,0.0047567,0.038333,0.00099455,0.011798,0.00023518,0,0,0.06899,-0.028089,0,0.0012229,0,0,0,0.038334,0.00099307,0.011798,0.36087,0.017042,0.033281,1.2424e-06,0.72,0.33,0
0.03118,0.004795,0.038338,0.00088431,0.011767,0.0002076,0,0,0.069085,-0.028294,0,0.0010795,0,0,0,0.038339,0.00088316,0.011767,0.31757,0.016996,0.033373,1.247e-06,0.73,0.33,0
0.031872,0.0048313,0.038342,0.00078025,0.011737,0.00018161,0,0,0.069173,-0.028487,0,0.00094435,0,0,0,0.038343,0.00077937,0.011737,0.27701,0.016953,0.033458,1.2512e-06,0.74,0.33,0
0.032564,0.0048656,0.038344,0.00068216,0.011708,0.00015725,0,0,0.069254,-0.028667,0,0.00081772,0,0,0,0.038345,0.0006815,0.011708,0.23923,0.016911,0.033538,1.255e-06,0.75,0.33,0
0.033257,0.0048981,0.038345,0.00058985,0.01168,0.00013458,0,0,0.069328,-0.028836,0,0.00069984,0,0,0,0.038346,0.00058937,0.01168,0.20424,0.016872,0.033612,1.2585e-06,0.76,0.33,0
0.03395,0.0049287,0.038345,0.0005031,0.011654,0.00011362,0,0,0.069396,-0.028994,0,0.00059082,0,0,0,0.038345,0.00050276,0.011654,0.17203,0.016834,0.033681,1.2617e-06,0.77,0.33,0
0.034645,0.0049575,0.038344,0.00042172,0.01163,9.4365e-05,0,0,0.069457,-0.029141,0,0.0004907,0,0,0,0.038344,0.00042148,0.01163,0.14257,0.016799,0.033745,1.2646e-06,0.78,0.33,0
0.035339,0.0049846,0.038342,0.00034549,0.011606,7.6813e-05,0,0,0.069514,-0.029278,0,0.00039943,0,0,0,0.038343,0.00034534,0.011606,0.11583,0.016765,0.033804,1.2672e-06,0.79,0.33,0
0.036035,0.00501,0.03834,0.00027423,0.011584,6.0945e-05,0,0,0.069565,-0.029406,0,0.00031691,0,0,0,0.03834,0.00027413,0.011584,0.091733,0.016733,0.033858,1.2695e-06,0.8,0.33,0
0.036731,0.0050337,0.038337,0.00020772,0.011563,4.6729e-05,0,0,0.069611,-0.029524,0,0.00024299,0,0,0,0.038337,0.00020766,0.011563,0.070219,0.016703,0.033909,1.2716e-06,0.81,0.33,0
0.037427,0.0050559,0.038333,0.00014579,0.011544,3.4123e-05,0,0,0.069652,-0.029634,0,0.00017744,0,0,0,0.038333,0.00014576,0.011544,0.051198,0.016674,0.033955,1.2735e-06,0.82,0.33,0
0.038124,0.0050765,0.038329,8.8261e-05,0.011525,2.3078e-05,0,0,0.06969,-0.029736,0,0.00012001,0,0,0,0.038329,8.8247e-05,0.011525,0.034578,0.016647,0.033997,1.2751e-06,0.83,0.33,0
0.038821,0.0050957,0.038325,3.4951e-05,0.011508,1.3535e-05,0,0,0.069724,-0.02983,0,7.038e-05,0,0,0,0.038325,3.4947e-05,0.011508,0.020253,0.016623,0.034036,1.2766e-06,0.84,0.33,0
0.039518,0.0051134,0.03832,-1.4299e-05,0.011492,5.4283e-06,0,0,0.069754,-0.029916,0,2.8227e-05,0,0,0,0.03832,-1.43e-05,0.011492,0.0081133,0.016599,0.034071,1.2779e-06,0.85,0.33,0
0.040216,0.0051298,0.038316,-5.9645e-05,0.011477,-1.312e-06,0,0,0.069781,-0.029995,0,-6.8222e-06,0,0,0,0.038316,-5.9645e-05,0.011477,-0.0019588,0.016578,0.034104,1.2791e-06,0.86,0.33,0
0.040914,0.0051448,0.038311,-0.00010123,0.011463,-6.762e-06,0,0,0.069805,-0.030067,0,-3.5162e-05,0,0,0,0.038311,-0.00010123,0.011463,-0.010086,0.016558,0.034133,1.2801e-06,0.87,0.33,0
0.041612,0.0051585,0.038307,-0.00013919,0.01145,-1.1002e-05,0,0,0.069827,-0.030133,0,-5.7209e-05,0,0,0,0.038307,-0.0001392,0.01145,-0.016396,0.016539,0.034159,1.281e-06,0.88,0.33,0
0.04231,0.005171,0.038302,-0.00017366,0.011439,-1.4115e-05,0,0,0.069846,-0.030192,0,-7.3398e-05,0,0,0,0.038302,-0.00017367,0.011439,-0.021019,0.016522,0.034183,1.2818e-06,0.89,0.33,0
0.043009,0.0051823,0.038298,-0.00020474,0.011428,-1.6188e-05,0,0,0.069862,-0.030245,0,-8.4177e-05,0,0,0,0.038298,-0.00020475,0.011428,-0.024089,0.016507,0.034204,1.2825e-06,0.9,0.33,0
0.043708,0.0051924,0.038294,-0.00023255,0.011418,-1.731e-05,0,0,0.069877,-0.030293,0,-9.0011e-05,0,0,0,0.038294,-0.00023256,0.011418,-0.025743,0.016493,0.034223,1.2831e-06,0.91,0.33,0
0.044407,0.0052013,0.03829,-0.00025717,0.01141,-1.7571e-05,0,0,0.069889,-0.030335,0,-9.1371e-05,0,0,0,0.03829,-0.00025718,0.01141,-0.026117,0.016481,0.034239,1.2836e-06,0.92,0.33,0
0.045105,0.0052091,0.038287,-0.0002787,0.011402,-1.7065e-05,0,0,0.0699,-0.030371,0,-8.8738e-05,0,0,0,0.038287,-0.00027871,0.011402,-0.025353,0.01647,0.034253,1.284e-06,0.93,0.33,0
0.045804,0.0052158,0.038284,-0.0002972,0.011396,-1.5885e-05,0,0,0.069909,-0.030403,0,-8.2601e-05,0,0,0,0.038284,-0.00029721,0.011396,-0.02359,0.016461,0.034265,1.2843e-06,0.94,0.33,0
0.046504,0.0052215,0.038282,-0.00031275,0.011391,-1.4125e-05,0,0,0.069917,-0.030429,0,-7.3451e-05,0,0,0,0.038282,-0.00031276,0.011391,-0.02097,0.016453,0.034276,1.2846e-06,0.95,0.33,0
0.047203,0.0052261,0.03828,-0.0003254,0.011386,-1.1882e-05,0,0,0.069922,-0.03045,0,-6.1786e-05,0,0,0,0.03828,-0.0003254,0.011386,-0.017635,0.016447,0.034284,1.2849e-06,0.96,0.33,0
0.047902,0.0052296,0.038278,-0.00033519,0.011383,-9.2511e-06,0,0,0.069927,-0.030467,0,-4.8106e-05,0,0,0,0.038278,-0.00033519,0.011383,-0.013727,0.016442,0.03429,1.285e-06,0.97,0.33,0
0.048601,0.0052321,0.038277,-0.00034216,0.01138,-6.3293e-06,0,0,0.06993,-0.030478,0,-3.2912e-05,0,0,0,0.038277,-0.00034216,0.01138,-0.0093902,0.016438,0.034295,1.2852e-06,0.98,0.33,0
0.049301,0.0052337,0.038276,-0.00034633,0.011379,-3.2132e-06,0,0,0.069932,-0.030485,0,-1.6709e-05,0,0,0,0.038276,-0.00034633,0.011379,-0.0047668,0.016436,0.034297,1.2852e-06,0.99,0.33,0
0.05,0.0052342,0.038276,-0.00034772,0.011378,9.7048e-06,0,0,0.069933,-0.030488,0,5.0465e-05,0,0,0,0.038276,-0.00034772,0.011378,0.014397,0.016435,0.034298,1.2853e-06,1,0.33,0
0,0,0.033443,0.014333,0.014333,0.0024169,0,0,0.024844,-1.8973e-19,0,0.0062838,0,0,0,0.033744,0.014032,0.014333,7.0973,0.020703,0.019564,3.8426e-07,0,0.34,0
0.00024844,6.2839e-05,0.033403,0.013842,0.014174,0.0024193,0,0,0.024999,-0.00043145,0,0.0062902,0,0,0,0.033698,0.013547,0.014174,6.9467,0.020473,0.019845,4.0007e-07,0.01,0.34,0
0.00049998,0.00012716,0.03357,0.013427,0.014099,0.0024453,0,0,0.025312,-0.00087364,0,0.0063577,0,0,0,0.033862,0.013134,0.014099,6.8235,0.020365,0.020263,4.2403e-07,0.02,0.34,0
0.00075468,0.00019283,0.033663,0.012966,0.013989,0.0024545,0,0,0.025577,-0.0013293,0,0.0063817,0,0,0,0.03395,0.012679,0.013989,6.6716,0.020206,0.020647,4.4596e-07,0.03,0.34,0
0.0010126,0.00025969,0.033975,0.012594,0.013971,0.0024781,0,0,0.026006,-0.0017901,0,0.006443,0,0,0,0.034258,0.01231,0.013971,6.5253,0.02018,0.021167,4.7698e-07,0.04,0.34,0
0.0012737,0.00032758,0.033996,0.01209,0.013826,0.0024669,0,0,0.026222,-0.002257,0,0.0064138,0,0,0,0.034271,0.011815,0.013826,6.346,0.019971,0.021521,4.9688e-07,0.05,0.34,0
0.0015381,0.00039635,0.034225,0.011651,0.013763,0.0024602,0,0,0.026601,-0.0027457,0,0.0063966,0,0,0,0.034491,0.011386,0.013763,6.148,0.01988,0.022013,5.2634e-07,0.06,0.34,0
0.0018057,0.00046584,0.034472,0.011253,0.013718,0.0024537,0,0,0.026981,-0.0032035,0,0.0063796,0,0,0,0.034729,0.010997,0.013718,5.967,0.019814,0.022495,5.5591e-07,0.07,0.34,0
0.0020766,0.00053591,0.034567,0.010783,0.013605,0.0024306,0,0,0.027251,-0.0036688,0,0.0063197,0,0,0,0.034813,0.010537,0.013605,5.7758,0.019652,0.022897,5.7936e-07,0.08,0.34,0
0.0023507,0.00060639,0.034726,0.010328,0.013516,0.0024008,0,0,0.027572,-0.0041442,0,0.006242,0,0,0,0.03496,0.010094,0.013516,5.567,0.019523,0.023343,6.0623e-07,0.09,0.34,0
0.0026281,0.00067715,0.034802,0.009825,0.013388,0.0023582,0,0,0.027838,-0.0046318,0,0.0061314,0,0,0,0.035022,0.0096043,0.013388,5.3468,0.019338,0.023753,6.2985e-07,0.1,0.34,0
0.0029086,0.00074804,0.035092,0.0094297,0.013356,0.0023154,0,0,0.028256,-0.0051047,0,0.00602,0,0,0,0.035299,0.0092225,0.013356,5.1146,0.019293,0.024275,6.6343e-07,0.11,0.34,0
0.0031922,0.00081895,0.035097,0.0089166,0.013204,0.0022665,0,0,0.028461,-0.005574,0,0.0058928,0,0,0,0.035292,0.0087218,0.013204,4.9113,0.019073,0.024637,6.8314e-07,0.12,0.34,0
0.0034788,0.00088976,0.035286,0.008452,0.013121,0.0021974,0,0,0.028814,-0.0060704,0,0.0057133,0,0,0,0.035465,0.0082732,0.013121,4.6506,0.018953,0.025121,7.1306e-07,0.13,0.34,0
0.0037684,0.00096035,0.035503,0.0080754,0.013074,0.0021502,0,0,0.029158,-0.0064976,0,0.0055905,0,0,0,0.035671,0.0079078,0.013074,4.4554,0.018884,0.025574,7.423e-07,0.14,0.34,0
0.004061,0.0010306,0.035574,0.0076267,0.01296,0.0020978,0,0,0.029398,-0.0069335,0,0.0054543,0,0,0,0.03573,0.0074701,0.01296,4.2689,0.01872,0.025954,7.6428e-07,0.15,0.34,0
0.0043564,0.0011005,0.035694,0.0071885,0.012865,0.0020331,0,0,0.029678,-0.0073792,0,0.005286,0,0,0,0.035838,0.0070442,0.012865,4.0591,0.018582,0.02637,7.8933e-07,0.16,0.34,0
0.0046546,0.0011699,0.035808,0.0067553,0.012769,0.0019663,0,0,0.029951,-0.0078177,0,0.0051125,0,0,0,0.03594,0.0066228,0.012769,3.8545,0.018444,0.026779,8.1384e-07,0.17,0.34,0
0.0049554,0.0012388,0.035915,0.0063275,0.012673,0.0018983,0,0,0.030215,-0.0082488,0,0.0049356,0,0,0,0.036036,0.0062062,0.012673,3.6561,0.018305,0.02718,8.3778e-07,0.18,0.34,0
0.0052589,0.0013072,0.036016,0.0059053,0.012576,0.0018298,0,0,0.030471,-0.0086723,0,0.0047574,0,0,0,0.036126,0.0057945,0.012576,3.4648,0.018166,0.027574,8.6112e-07,0.19,0.34,0
0.0055648,0.0013749,0.03611,0.0054887,0.01248,0.0017614,0,0,0.030719,-0.0090881,0,0.0045797,0,0,0,0.036211,0.0053877,0.01248,3.2814,0.018026,0.02796,8.8384e-07,0.2,0.34,0
0.0058732,0.001442,0.036198,0.0050777,0.012383,0.0016939,0,0,0.03096,-0.0094964,0,0.0044041,0,0,0,0.03629,0.0049858,0.012383,3.1064,0.017886,0.028339,9.0593e-07,0.21,0.34,0
0.006184,0.0015084,0.03628,0.0046723,0.012286,0.0016279,0,0,0.031192,-0.0098973,0,0.0042324,0,0,0,0.036363,0.0045887,0.012286,2.9405,0.017746,0.028711,9.2738e-07,0.22,0.34,0
0.0064971,0.0015742,0.036356,0.0042721,0.012188,0.0015639,0,0,0.031418,-0.010291,0,0.004066,0,0,0,0.036432,0.0041961,0.012188,2.784,0.017606,0.029076,9.4822e-07,0.23,0.34,0
0.0068124,0.0016394,0.036427,0.0038771,0.012091,0.0015024,0,0,0.031637,-0.010678,0,0.0039062,0,0,0,0.036496,0.0038079,0.012091,2.6371,0.017465,0.029434,9.6845e-07,0.24,0.34,0
0.0071298,0.001704,0.036493,0.0034867,0.011994,0.0014439,0,0,0.031849,-0.011059,0,0.0037542,0,0,0,0.036556,0.0034236,0.011994,2.5002,0.017325,0.029787,9.881e-07,0.25,0.34,0
0.0074494,0.0017679,0.036555,0.0031006,0.011897,0.0013888,0,0,0.032056,-0.011435,0,0.0036109,0,0,0,0.036612,0.0030431,0.011897,2.3731,0.017184,0.030134,1.0072e-06,0.26,0.34,0
0.0077709,0.0018313,0.036612,0.0027184,0.011799,0.0013374,0,0,0.032257,-0.011805,0,0.0034772,0,0,0,0.036665,0.0026658,0.011799,2.2561,0.017043,0.030477,1.0258e-06,0.27,0.34,0
0.0080945,0.0018942,0.036666,0.0023397,0.011702,0.0012898,0,0,0.032454,-0.012171,0,0.0033535,0,0,0,0.036714,0.0022913,0.011702,2.1488,0.016903,0.030815,1.0439e-06,0.28,0.34,0
0.00842,0.0019565,0.036717,0.0019638,0.011604,0.0012462,0,0,0.032647,-0.012533,0,0.0032403,0,0,0,0.036762,0.0019191,0.011604,2.0511,0.016762,0.03115,1.0615e-06,0.29,0.34,0
0.0087474,0.0020184,0.036765,0.0015903,0.011507,0.0012068,0,0,0.032836,-0.012891,0,0.0031377,0,0,0,0.036806,0.0015489,0.011507,1.9627,0.016621,0.031483,1.0788e-06,0.3,0.34,0
0.0090767,0.0020798,0.036811,0.0012186,0.011409,0.0011715,0,0,0.033023,-0.013247,0,0.003046,0,0,0,0.036849,0.0011801,0.011409,1.8832,0.01648,0.031813,1.0957e-06,0.31,0.34,0
0.0094079,0.0021409,0.036855,0.0008484,0.011311,0.0011403,0,0,0.033207,-0.013601,0,0.0029647,0,0,0,0.036891,0.00081233,0.011311,1.812,0.016338,0.032142,1.1123e-06,0.32,0.34,0
0.0097409,0.0022016,0.036898,0.00047903,0.011213,0.0011129,0,0,0.03339,-0.013954,0,0.0028937,0,0,0,0.036932,0.00044505,0.011213,1.7488,0.016197,0.032471,1.1286e-06,0.33,0.34,0
0.010076,0.002262,0.03694,0.00011008,0.011115,0.0010893,0,0,0.033573,-0.014306,0,0.0028323,0,0,0,0.036972,7.7885e-05,0.011115,1.6927,0.016055,0.0328,1.1447e-06,0.34,0.34,0
0.010412,0.0023221,0.036982,-0.00025887,0.011017,0.0010692,0,0,0.033754,-0.014658,0,0.0027798,0,0,0,0.037012,-0.00028954,0.011017,1.6431,0.015913,0.033129,1.1606e-06,0.35,0.34,0
0.010751,0.002382,0.037024,-0.0006282,0.010919,0.0010521,0,0,0.033936,-0.015011,0,0.0027355,0,0,0,0.037053,-0.00065758,0.010919,1.5994,0.015771,0.03346,1.1764e-06,0.36,0.34,0
0.011091,0.0024416,0.037065,-0.00099821,0.01082,0.0010378,0,0,0.034119,-0.015364,0,0.0026983,0,0,0,0.037094,-0.0010265,0.01082,1.5606,0.015629,0.033792,1.192e-06,0.37,0.34,0
0.011433,0.002501,0.037108,-0.0013692,0.010722,0.0010258,0,0,0.034302,-0.015718,0,0.002667,0,0,0,0.037135,-0.0013965,0.010722,1.526,0.015487,0.034126,1.2076e-06,0.38,0.34,0
0.011777,0.0025602,0.037151,-0.0017412,0.010623,0.0010156,0,0,0.034487,-0.016073,0,0.0026405,0,0,0,0.037178,-0.0017677,0.010623,1.4948,0.015344,0.034463,1.223e-06,0.39,0.34,0
0.012123,0.0026192,0.037195,-0.0021145,0.010524,0.0010067,0,0,0.034672,-0.01643,0,0.0026174,0,0,0,0.037221,-0.0021403,0.010524,1.466,0.015202,0.034802,1.2384e-06,0.4,0.34,0
0.012471,0.0026779,0.037241,-0.0024891,0.010425,0.00099858,0,0,0.03486,-0.016789,0,0.0025963,0,0,0,0.037266,-0.0025142,0.010425,1.4389,0.015059,0.035144,1.2537e-06,0.41,0.34,0
0.01282,0.0027364,0.037287,-0.0028648,0.010327,0.00099069,0,0,0.035048,-0.017149,0,0.0025758,0,0,0,0.037311,-0.0028892,0.010327,1.4125,0.014916,0.035489,1.2689e-06,0.42,0.34,0
0.013171,0.0027946,0.037334,-0.0032414,0.010228,0.00098245,0,0,0.035239,-0.01751,0,0.0025544,0,0,0,0.037358,-0.0032652,0.010228,1.3862,0.014774,0.035836,1.2841e-06,0.43,0.34,0
0.013525,0.0028525,0.037383,-0.0036189,0.010129,0.00097331,0,0,0.03543,-0.017873,0,0.0025306,0,0,0,0.037406,-0.003642,0.010129,1.3591,0.014631,0.036185,1.2991e-06,0.44,0.34,0
0.01388,0.0029101,0.037433,-0.0039968,0.010031,0.00096271,0,0,0.035623,-0.018236,0,0.002503,0,0,0,0.037455,-0.0040191,0.010031,1.3304,0.014489,0.036535,1.3139e-06,0.45,0.34,0
0.014237,0.0029673,0.037484,-0.0043746,0.0099327,0.00095011,0,0,0.035816,-0.0186,0,0.0024703,0,0,0,0.037505,-0.0043962,0.0099327,1.2996,0.014347,0.036887,1.3286e-06,0.46,0.34,0
0.014596,0.0030239,0.037535,-0.004752,0.0098348,0.00093502,0,0,0.03601,-0.018963,0,0.0024311,0,0,0,0.037555,-0.0047727,0.0098348,1.2661,0.014206,0.037239,1.343e-06,0.47,0.34,0
0.014958,0.0030801,0.037586,-0.0051284,0.0097374,0.00091696,0,0,0.036203,-0.019325,0,0.0023841,0,0,0,0.037606,-0.0051481,0.0097374,1.2292,0.014065,0.037591,1.3572e-06,0.48,0.34,0
0.015321,0.0031356,0.037638,-0.0055031,0.0096404,0.00089549,0,0,0.036397,-0.019686,0,0.0023283,0,0,0,0.037656,-0.0055216,0.0096404,1.1886,0.013925,0.037942,1.371e-06,0.49,0.34,0
0.015685,0.0031903,0.037673,-0.00037537,0.011189,0.00087233,0,0,0.050611,-0.020045,0,0.0033846,0,0,0,0.037693,-0.00039569,0.011189,1.3371,0.016162,0.033888,1.199e-06,0.5,0.34,0
0.016333,0.0032668,0.03774,0.0048924,0.01279,0.00085145,0,0,0.064871,-0.020533,0,0.0044275,0,0,0,0.037762,0.0048703,0.01279,1.4838,0.018474,0.029734,1.0342e-06,0.51,0.34,0
0.016983,0.0033419,0.03779,0.0046498,0.012732,0.00083058,0,0,0.065151,-0.021014,0,0.004319,0,0,0,0.037811,0.004629,0.012732,1.4348,0.018391,0.029964,1.0485e-06,0.52,0.34,0
0.017636,0.0034156,0.037839,0.0044113,0.012675,0.00080805,0,0,0.065426,-0.021486,0,0.0042018,0,0,0,0.037858,0.0043917,0.012675,1.3839,0.018308,0.03019,1.0627e-06,0.53,0.34,0
0.018291,0.0034879,0.037886,0.0041772,0.012619,0.00078384,0,0,0.065695,-0.021949,0,0.004076,0,0,0,0.037904,0.0041589,0.012619,1.3314,0.018227,0.030411,1.0765e-06,0.54,0.34,0
0.01895,0.0035587,0.037932,0.0039479,0.012564,0.00075802,0,0,0.065957,-0.022402,0,0.0039417,0,0,0,0.037949,0.003931,0.012564,1.2771,0.018148,0.030628,1.0899e-06,0.55,0.34,0
0.01961,0.0036278,0.037976,0.0037238,0.01251,0.00073066,0,0,0.066212,-0.022844,0,0.0037994,0,0,0,0.037992,0.0037083,0.01251,1.2215,0.01807,0.030839,1.103e-06,0.56,0.34,0
0.020274,0.0036952,0.038018,0.0035053,0.012457,0.00070189,0,0,0.066459,-0.023275,0,0.0036498,0,0,0,0.038032,0.0034911,0.012457,1.1646,0.017994,0.031045,1.1156e-06,0.57,0.34,0
0.02094,0.0037609,0.038058,0.0032928,0.012405,0.00067185,0,0,0.066698,-0.023693,0,0.0034936,0,0,0,0.038071,0.0032798,0.012405,1.1067,0.017919,0.031245,1.1278e-06,0.58,0.34,0
0.021608,0.0038248,0.038096,0.0030863,0.012355,0.00064071,0,0,0.066928,-0.024098,0,0.0033317,0,0,0,0.038108,0.0030746,0.012355,1.0481,0.017846,0.031438,1.1395e-06,0.59,0.34,0
0.022278,0.0038868,0.038132,0.0028863,0.012306,0.00060867,0,0,0.067149,-0.02449,0,0.0031651,0,0,0,0.038142,0.0028758,0.012306,0.98907,0.017775,0.031624,1.1507e-06,0.6,0.34,0
0.022951,0.0039469,0.038165,0.002693,0.012257,0.00057593,0,0,0.06736,-0.024868,0,0.0029948,0,0,0,0.038175,0.0026836,0.012257,0.92993,0.017705,0.031804,1.1614e-06,0.61,0.34,0
0.023625,0.0040051,0.038196,0.0025064,0.012211,0.0005427,0,0,0.067561,-0.025231,0,0.002822,0,0,0,0.038204,0.0024981,0.012211,0.87098,0.017638,0.031976,1.1716e-06,0.62,0.34,0
0.024302,0.0040612,0.038224,0.0023267,0.012165,0.0005092,0,0,0.067753,-0.02558,0,0.0026478,0,0,0,0.038231,0.0023195,0.012165,0.81252,0.017572,0.032141,1.1813e-06,0.63,0.34,0
0.02498,0.0041154,0.03825,0.002154,0.012121,0.00047565,0,0,0.067935,-0.025915,0,0.0024734,0,0,0,0.038256,0.0021478,0.012121,0.75484,0.017508,0.032298,1.1904e-06,0.64,0.34,0
0.025661,0.0041675,0.038273,0.0019884,0.012079,0.00044227,0,0,0.068107,-0.026234,0,0.0022998,0,0,0,0.038279,0.001983,0.012079,0.69822,0.017447,0.032448,1.199e-06,0.65,0.34,0
0.026343,0.0042176,0.038294,0.0018298,0.012037,0.00040924,0,0,0.068268,-0.026539,0,0.0021281,0,0,0,0.038299,0.0018252,0.012037,0.64292,0.017387,0.032591,1.2071e-06,0.66,0.34,0
0.027026,0.0042657,0.038313,0.0016781,0.011997,0.00037677,0,0,0.06842,-0.02683,0,0.0019592,0,0,0,0.038317,0.0016743,0.011997,0.58918,0.017329,0.032726,1.2147e-06,0.67,0.34,0
0.027711,0.0043117,0.038329,0.0015335,0.011959,0.00034504,0,0,0.068563,-0.027106,0,0.0017942,0,0,0,0.038332,0.0015302,0.011959,0.53721,0.017274,0.032854,1.2218e-06,0.68,0.34,0
0.028397,0.0043557,0.038343,0.0013957,0.011922,0.00031421,0,0,0.068696,-0.027368,0,0.0016339,0,0,0,0.038346,0.001393,0.011922,0.4872,0.01722,0.032974,1.2284e-06,0.69,0.34,0
0.029085,0.0043977,0.038356,0.0012646,0.011886,0.00028442,0,0,0.068821,-0.027616,0,0.001479,0,0,0,0.038358,0.0012624,0.011886,0.43932,0.017169,0.033088,1.2345e-06,0.7,0.34,0
0.029774,0.0044378,0.038366,0.0011401,0.011852,0.0002558,0,0,0.068936,-0.02785,0,0.0013301,0,0,0,0.038367,0.0011383,0.011852,0.39369,0.017119,0.033195,1.2402e-06,0.71,0.34,0
0.030464,0.0044759,0.038374,0.0010221,0.011819,0.00022846,0,0,0.069043,-0.028071,0,0.001188,0,0,0,0.038375,0.0010207,0.011819,0.35043,0.017072,0.033296,1.2454e-06,0.72,0.34,0
0.031155,0.0045121,0.038381,0.00091034,0.011787,0.00020249,0,0,0.069143,-0.02828,0,0.001053,0,0,0,0.038382,0.00090925,0.011787,0.30962,0.017026,0.03339,1.2502e-06,0.73,0.34,0
0.031846,0.0045465,0.038386,0.00080472,0.011757,0.00017797,0,0,0.069234,-0.028476,0,0.00092546,0,0,0,0.038387,0.00080388,0.011757,0.27133,0.016983,0.033478,1.2546e-06,0.74,0.34,0
0.032539,0.004579,0.038389,0.00070504,0.011728,0.00015496,0,0,0.069319,-0.028661,0,0.00080578,0,0,0,0.03839,0.0007044,0.011728,0.23559,0.016941,0.03356,1.2587e-06,0.75,0.34,0
0.033233,0.0046097,0.038392,0.00061109,0.011701,0.00013348,0,0,0.069396,-0.028833,0,0.00069412,0,0,0,0.038392,0.00061062,0.011701,0.20243,0.016901,0.033637,1.2624e-06,0.76,0.34,0
0.033927,0.0046387,0.038393,0.0005227,0.011675,0.00011358,0,0,0.069468,-0.028995,0,0.00059062,0,0,0,0.038393,0.00052236,0.011675,0.17184,0.016864,0.033708,1.2657e-06,0.77,0.34,0
0.034622,0.0046661,0.038393,0.00043967,0.01165,9.5255e-05,0,0,0.069533,-0.029147,0,0.00049532,0,0,0,0.038393,0.00043943,0.01165,0.1438,0.016828,0.033774,1.2688e-06,0.78,0.34,0
0.035318,0.0046917,0.038393,0.0003618,0.011626,7.8506e-05,0,0,0.069592,-0.029288,0,0.00040823,0,0,0,0.038393,0.00036164,0.011626,0.11827,0.016794,0.033836,1.2716e-06,0.79,0.34,0
0.036014,0.0047158,0.038391,0.00028892,0.011604,6.3319e-05,0,0,0.069647,-0.029419,0,0.00032926,0,0,0,0.038391,0.00028882,0.011604,0.095214,0.016761,0.033892,1.2741e-06,0.8,0.34,0
0.036711,0.0047384,0.038389,0.00022084,0.011583,4.9668e-05,0,0,0.069696,-0.029542,0,0.00025827,0,0,0,0.038389,0.00022078,0.011583,0.074558,0.016731,0.033945,1.2764e-06,0.81,0.34,0
0.037408,0.0047594,0.038386,0.00015738,0.011563,3.7518e-05,0,0,0.069741,-0.029655,0,0.00019509,0,0,0,0.038386,0.00015734,0.011563,0.05623,0.016702,0.033993,1.2784e-06,0.82,0.34,0
0.038106,0.004779,0.038383,9.8362e-05,0.011544,2.6825e-05,0,0,0.069781,-0.02976,0,0.00013949,0,0,0,0.038383,9.8343e-05,0.011544,0.040145,0.016675,0.034037,1.2802e-06,0.83,0.34,0
0.038804,0.0047973,0.03838,4.3628e-05,0.011527,1.7537e-05,0,0,0.069818,-0.029857,0,9.1194e-05,0,0,0,0.03838,4.362e-05,0.011527,0.02621,0.01665,0.034078,1.2818e-06,0.84,0.34,0
0.039502,0.0048141,0.038376,-6.9824e-06,0.011511,9.5962e-06,0,0,0.06985,-0.029946,0,4.99e-05,0,0,0,0.038376,-6.9848e-06,0.011511,0.014325,0.016627,0.034115,1.2833e-06,0.85,0.34,0
0.040201,0.0048297,0.038372,-5.3618e-05,0.011496,2.9376e-06,0,0,0.06988,-0.030028,0,1.5275e-05,0,0,0,0.038372,-5.3618e-05,0.011496,0.0043801,0.016605,0.034149,1.2846e-06,0.86,0.34,0
0.0409,0.004844,0.038369,-9.6419e-05,0.011482,-2.5079e-06,0,0,0.069906,-0.030103,0,-1.3041e-05,0,0,0,0.038369,-9.6419e-05,0.011482,-0.0037357,0.016585,0.03418,1.2857e-06,0.87,0.34,0
0.041599,0.004857,0.038365,-0.00013552,0.011469,-6.814e-06,0,0,0.06993,-0.030171,0,-3.5433e-05,0,0,0,0.038365,-0.00013552,0.011469,-0.010141,0.016566,0.034208,1.2867e-06,0.88,0.34,0
0.042298,0.0048689,0.038361,-0.00017103,0.011457,-1.0058e-05,0,0,0.06995,-0.030233,0,-5.2301e-05,0,0,0,0.038361,-0.00017104,0.011457,-0.014956,0.016549,0.034233,1.2876e-06,0.89,0.34,0
0.042998,0.0048796,0.038357,-0.00020309,0.011446,-1.232e-05,0,0,0.069969,-0.030288,0,-6.4064e-05,0,0,0,0.038357,-0.00020309,0.011446,-0.018306,0.016533,0.034255,1.2884e-06,0.9,0.34,0
0.043698,0.0048892,0.038354,-0.00023177,0.011437,-1.3684e-05,0,0,0.069985,-0.030338,0,-7.1154e-05,0,0,0,0.038354,-0.00023178,0.011437,-0.020319,0.016519,0.034275,1.289e-06,0.91,0.34,0
0.044397,0.0048977,0.038351,-0.00025719,0.011428,-1.4233e-05,0,0,0.069998,-0.030381,0,-7.4014e-05,0,0,0,0.038351,-0.00025719,0.011428,-0.021123,0.016507,0.034292,1.2896e-06,0.92,0.34,0
0.045097,0.0049051,0.038347,-0.00027942,0.01142,-1.4057e-05,0,0,0.07001,-0.03042,0,-7.3094e-05,0,0,0,0.038347,-0.00027942,0.01142,-0.02085,0.016496,0.034307,1.2901e-06,0.93,0.34,0
0.045798,0.0049115,0.038345,-0.00029853,0.011414,-1.3241e-05,0,0,0.07002,-0.030452,0,-6.8854e-05,0,0,0,0.038345,-0.00029854,0.011414,-0.019632,0.016487,0.03432,1.2905e-06,0.94,0.34,0
0.046498,0.0049169,0.038343,-0.0003146,0.011408,-1.1877e-05,0,0,0.070029,-0.03048,0,-6.1758e-05,0,0,0,0.038343,-0.0003146,0.011408,-0.017603,0.016479,0.034331,1.2908e-06,0.95,0.34,0
0.047198,0.0049213,0.038341,-0.00032767,0.011404,-1.0053e-05,0,0,0.070035,-0.030502,0,-5.2278e-05,0,0,0,0.038341,-0.00032767,0.011404,-0.014896,0.016472,0.03434,1.2911e-06,0.96,0.34,0
0.047899,0.0049247,0.038339,-0.00033779,0.0114,-7.8625e-06,0,0,0.070041,-0.030519,0,-4.0885e-05,0,0,0,0.038339,-0.00033779,0.0114,-0.011647,0.016467,0.034347,1.2913e-06,0.97,0.34,0
0.048599,0.0049271,0.038338,-0.00034499,0.011398,-5.3953e-06,0,0,0.070044,-0.030531,0,-2.8055e-05,0,0,0,0.038338,-0.00034499,0.011398,-0.0079913,0.016464,0.034351,1.2914e-06,0.98,0.34,0
0.0493,0.0049285,0.038337,-0.00034931,0.011396,-2.7438e-06,0,0,0.070046,-0.030539,0,-1.4268e-05,0,0,0,0.038337,-0.00034931,0.011396,-0.0040636,0.016462,0.034354,1.2915e-06,0.99,0.34,0
0.05,0.004929,0.038337,-0.00035074,0.011396,9.2454e-06,0,0,0.070047,-0.030541,0,4.8076e-05,0,0,0,0.038337,-0.00035074,0.011396,0.013692,0.016461,0.034355,1.2915e-06,1,0.34,0
0,0,0.033355,0.014295,0.014295,0.0022525,0,0,0.024778,8.1315e-20,0,0.0058565,0,0,0,0.033618,0.014032,0.014295,6.6491,0.020648,0.019455,3.7798e-07,0,0.35,0
0.00024778,5.8565e-05,0.033316,0.013813,0.014139,0.0022548,0,0,0.024931,-0.00042371,0,0.0058626,0,0,0,0.033573,0.013555,0.014139,6.5097,0.020422,0.019733,3.9346e-07,0.01,0.35,0
0.00049861,0.00011851,0.033479,0.013406,0.014065,0.0022792,0,0,0.025238,-0.00085787,0,0.0059258,0,0,0,0.033735,0.01315,0.014065,6.3968,0.020317,0.020143,4.1682e-07,0.02,0.35,0
0.00075254,0.00017971,0.033576,0.012964,0.013962,0.0022901,0,0,0.025498,-0.0012974,0,0.0059543,0,0,0,0.033827,0.012713,0.013962,6.2642,0.020167,0.020518,4.3813e-07,0.03,0.35,0
0.0010096,0.00024201,0.033884,0.012602,0.013946,0.0023136,0,0,0.02592,-0.001747,0,0.0060153,0,0,0,0.034132,0.012353,0.013946,6.1332,0.020144,0.021028,4.6834e-07,0.04,0.35,0
0.0012699,0.00030529,0.033907,0.01211,0.013805,0.0023047,0,0,0.026132,-0.0022031,0,0.0059921,0,0,0,0.034148,0.011869,0.013805,5.9703,0.019941,0.021376,4.8782e-07,0.05,0.35,0
0.0015333,0.0003694,0.034152,0.011726,0.013763,0.0023101,0,0,0.026505,-0.0026486,0,0.0060062,0,0,0,0.034388,0.011491,0.013763,5.8205,0.019881,0.02185,5.1624e-07,0.06,0.35,0
0.0018,0.0004342,0.034378,0.011296,0.013702,0.0022968,0,0,0.026879,-0.0031284,0,0.0059716,0,0,0,0.034605,0.011069,0.013702,5.6275,0.019792,0.022336,5.4557e-07,0.07,0.35,0
0.0020698,0.00049955,0.034462,0.010808,0.013581,0.0022707,0,0,0.027145,-0.0036051,0,0.0059039,0,0,0,0.034678,0.010592,0.013581,5.4342,0.019617,0.022739,5.6886e-07,0.08,0.35,0
0.0023429,0.00056532,0.034619,0.01036,0.013494,0.0022445,0,0,0.027463,-0.0040736,0,0.0058356,0,0,0,0.034825,0.010154,0.013494,5.2419,0.019491,0.023182,5.9532e-07,0.09,0.35,0
0.0026191,0.00063136,0.034709,0.0098979,0.013382,0.0022155,0,0,0.027725,-0.0045295,0,0.0057604,0,0,0,0.034905,0.0097016,0.013382,5.0629,0.01933,0.02358,6.1843e-07,0.1,0.35,0
0.0028984,0.00069757,0.034998,0.0095103,0.013353,0.002179,0,0,0.028139,-0.0049949,0,0.0056655,0,0,0,0.035183,0.0093253,0.013353,4.8515,0.019287,0.024098,6.5158e-07,0.11,0.35,0
0.0031808,0.00076382,0.035006,0.009005,0.013203,0.0021361,0,0,0.028343,-0.0054578,0,0.0055539,0,0,0,0.03518,0.0088307,0.013203,4.6655,0.019071,0.024458,6.712e-07,0.12,0.35,0
0.0034663,0.00083001,0.03523,0.0086284,0.013158,0.0021011,0,0,0.028695,-0.005888,0,0.0054627,0,0,0,0.035395,0.0084635,0.013158,4.4882,0.019006,0.024919,7.0057e-07,0.13,0.35,0
0.0037547,0.00089603,0.035413,0.0081751,0.013076,0.0020346,0,0,0.029038,-0.0063718,0,0.0052901,0,0,0,0.035564,0.008024,0.013076,4.2485,0.018888,0.025394,7.3007e-07,0.14,0.35,0
0.0040461,0.0009618,0.035467,0.0076873,0.012946,0.0019734,0,0,0.029277,-0.0068369,0,0.0051308,0,0,0,0.035607,0.0075478,0.012946,4.043,0.0187,0.025787,7.5224e-07,0.15,0.35,0
0.0043403,0.0010272,0.03559,0.0072515,0.012852,0.001915,0,0,0.029558,-0.0072811,0,0.004979,0,0,0,0.035718,0.0071226,0.012852,3.8485,0.018564,0.026205,7.7735e-07,0.16,0.35,0
0.0046373,0.0010923,0.035706,0.0068199,0.012758,0.0018547,0,0,0.029832,-0.007719,0,0.0048221,0,0,0,0.035824,0.0067013,0.012758,3.6587,0.018428,0.026617,8.02e-07,0.17,0.35,0
0.0049369,0.0011569,0.035816,0.006393,0.012663,0.001793,0,0,0.030099,-0.0081504,0,0.0046619,0,0,0,0.035924,0.0062842,0.012663,3.4745,0.01829,0.027022,8.2614e-07,0.18,0.35,0
0.0052392,0.0012209,0.035919,0.005971,0.012567,0.0017308,0,0,0.030358,-0.0085749,0,0.0045,0,0,0,0.036019,0.0058713,0.012567,3.2966,0.018152,0.02742,8.4975e-07,0.19,0.35,0
0.0055441,0.0012845,0.036017,0.005554,0.012471,0.0016686,0,0,0.03061,-0.0089926,0,0.0043383,0,0,0,0.036108,0.0054628,0.012471,3.1258,0.018014,0.027812,8.7281e-07,0.2,0.35,0
0.0058514,0.0013475,0.036109,0.0051419,0.012375,0.001607,0,0,0.030854,-0.0094034,0,0.0041783,0,0,0,0.036192,0.0050587,0.012375,2.9627,0.017875,0.028196,8.9529e-07,0.21,0.35,0
0.0061612,0.0014099,0.036195,0.0047348,0.012279,0.0015467,0,0,0.031091,-0.0098076,0,0.0040214,0,0,0,0.036271,0.004659,0.012279,2.8078,0.017736,0.028575,9.1719e-07,0.22,0.35,0
0.0064733,0.0014718,0.036276,0.0043325,0.012183,0.0014881,0,0,0.031322,-0.010205,0,0.003869,0,0,0,0.036346,0.0042633,0.012183,2.6614,0.017597,0.028947,9.3851e-07,0.23,0.35,0
0.0067876,0.0015331,0.036352,0.0039348,0.012086,0.0014317,0,0,0.031546,-0.010597,0,0.0037223,0,0,0,0.036415,0.0038717,0.012086,2.5238,0.017458,0.029313,9.5927e-07,0.24,0.35,0
0.0071042,0.0015938,0.036423,0.0035414,0.01199,0.0013778,0,0,0.031764,-0.010982,0,0.0035823,0,0,0,0.036481,0.0034838,0.01199,2.3952,0.017318,0.029673,9.7948e-07,0.25,0.35,0
0.0074229,0.001654,0.03649,0.003152,0.011893,0.0013269,0,0,0.031977,-0.011363,0,0.0034501,0,0,0,0.036543,0.0030993,0.011893,2.2757,0.017178,0.030029,9.9917e-07,0.26,0.35,0
0.0077437,0.0017136,0.036553,0.0027663,0.011796,0.0012793,0,0,0.032184,-0.011738,0,0.0033261,0,0,0,0.036602,0.0027179,0.011796,2.1653,0.017038,0.03038,1.0184e-06,0.27,0.35,0
0.0080666,0.0017728,0.036612,0.0023837,0.011699,0.001235,0,0,0.032388,-0.01211,0,0.0032111,0,0,0,0.036657,0.0023392,0.011699,2.0638,0.016898,0.030726,1.0371e-06,0.28,0.35,0
0.0083915,0.0018315,0.036669,0.0020039,0.011602,0.0011944,0,0,0.032587,-0.012477,0,0.0031054,0,0,0,0.03671,0.0019628,0.011602,1.971,0.016758,0.03107,1.0554e-06,0.29,0.35,0
0.0087183,0.0018897,0.036722,0.0016265,0.011505,0.0011574,0,0,0.032783,-0.012842,0,0.0030092,0,0,0,0.03676,0.0015884,0.011505,1.8868,0.016618,0.031411,1.0733e-06,0.3,0.35,0
0.0090471,0.0019476,0.036774,0.001251,0.011407,0.0011241,0,0,0.032976,-0.013203,0,0.0029226,0,0,0,0.036809,0.0012155,0.011407,1.8106,0.016477,0.031749,1.0908e-06,0.31,0.35,0
0.0093779,0.0020051,0.036823,0.00087693,0.01131,0.0010944,0,0,0.033167,-0.013563,0,0.0028453,0,0,0,0.036857,0.00084364,0.01131,1.7422,0.016337,0.032086,1.108e-06,0.32,0.35,0
0.0097105,0.0020622,0.036871,0.00050391,0.011213,0.0010681,0,0,0.033356,-0.013921,0,0.0027771,0,0,0,0.036903,0.00047257,0.011213,1.6809,0.016196,0.032423,1.125e-06,0.33,0.35,0
0.010045,0.0021191,0.036918,0.00013155,0.011115,0.0010452,0,0,0.033545,-0.014278,0,0.0027176,0,0,0,0.036948,0.00010187,0.011115,1.6262,0.016055,0.032759,1.1417e-06,0.34,0.35,0
0.010381,0.0021756,0.036965,-0.00024054,0.011017,0.0010254,0,0,0.033732,-0.014635,0,0.002666,0,0,0,0.036993,-0.00026878,0.011017,1.5775,0.015914,0.033095,1.1582e-06,0.35,0.35,0
0.01072,0.0022319,0.037011,-0.00061266,0.01092,0.0010083,0,0,0.033919,-0.014992,0,0.0026216,0,0,0,0.037038,-0.00063966,0.01092,1.534,0.015773,0.033432,1.1745e-06,0.36,0.35,0
0.01106,0.002288,0.037058,-0.00098507,0.010822,0.00099369,0,0,0.034107,-0.015349,0,0.0025836,0,0,0,0.037084,-0.001011,0.010822,1.4952,0.015631,0.033771,1.1906e-06,0.37,0.35,0
0.011402,0.0023439,0.037104,-0.001358,0.010724,0.00098112,0,0,0.034294,-0.015706,0,0.0025509,0,0,0,0.037129,-0.001383,0.010724,1.4603,0.01549,0.03411,1.2066e-06,0.38,0.35,0
0.011746,0.0023995,0.037151,-0.0017316,0.010626,0.00097016,0,0,0.034483,-0.016065,0,0.0025224,0,0,0,0.037175,-0.0017558,0.010626,1.4284,0.015348,0.034452,1.2225e-06,0.39,0.35,0
0.012091,0.0024549,0.037199,-0.0021058,0.010528,0.00096037,0,0,0.034672,-0.016424,0,0.002497,0,0,0,0.037222,-0.0021293,0.010528,1.3988,0.015207,0.034795,1.2382e-06,0.4,0.35,0
0.012439,0.00251,0.037247,-0.0024809,0.01043,0.00095126,0,0,0.034863,-0.016784,0,0.0024733,0,0,0,0.03727,-0.0025036,0.01043,1.3708,0.015066,0.03514,1.2539e-06,0.41,0.35,0
0.012789,0.0025649,0.037297,-0.0028565,0.010332,0.00094233,0,0,0.035054,-0.017145,0,0.0024501,0,0,0,0.037319,-0.0028786,0.010332,1.3437,0.014924,0.035487,1.2694e-06,0.42,0.35,0
0.01314,0.0026195,0.037347,-0.0032326,0.010234,0.00093309,0,0,0.035246,-0.017507,0,0.002426,0,0,0,0.037368,-0.003254,0.010234,1.3165,0.014783,0.035835,1.2848e-06,0.43,0.35,0
0.013494,0.0026738,0.037398,-0.0036089,0.010137,0.00092301,0,0,0.035439,-0.017869,0,0.0023998,0,0,0,0.037418,-0.0036296,0.010137,1.2888,0.014642,0.036185,1.3e-06,0.44,0.35,0
0.013849,0.0027278,0.037449,-0.0039851,0.010039,0.00091161,0,0,0.035633,-0.018232,0,0.0023702,0,0,0,0.037469,-0.0040051,0.010039,1.2598,0.014501,0.036536,1.315e-06,0.45,0.35,0
0.014206,0.0027813,0.037501,-0.0043608,0.0099422,0.0008984,0,0,0.035827,-0.018594,0,0.0023358,0,0,0,0.037521,-0.0043801,0.0099422,1.2289,0.014361,0.036887,1.3298e-06,0.46,0.35,0
0.014566,0.0028343,0.037554,-0.0047356,0.0098455,0.00088292,0,0,0.036021,-0.018955,0,0.0022956,0,0,0,0.037572,-0.004754,0.0098455,1.1955,0.014221,0.037239,1.3443e-06,0.47,0.35,0
0.014927,0.0028868,0.037606,-0.0051088,0.0097492,0.00086475,0,0,0.036214,-0.019315,0,0.0022484,0,0,0,0.037624,-0.0051264,0.0097492,1.1593,0.014082,0.037589,1.3586e-06,0.48,0.35,0
0.01529,0.0029388,0.037659,-0.0054801,0.0096536,0.00084348,0,0,0.036407,-0.019674,0,0.002193,0,0,0,0.037675,-0.0054966,0.0096536,1.1197,0.013944,0.037938,1.3724e-06,0.49,0.35,0
0.015655,0.00299,0.037695,-0.00035282,0.011203,0.00082084,0,0,0.050628,-0.020029,0,0.0031846,0,0,0,0.037713,-0.00037081,0.011203,1.2582,0.016182,0.033885,1.2002e-06,0.5,0.35,0
0.016302,0.0030615,0.037762,0.0049119,0.012802,0.00080077,0,0,0.064895,-0.020515,0,0.004164,0,0,0,0.037781,0.0048924,0.012802,1.3956,0.018492,0.029734,1.0349e-06,0.51,0.35,0
0.016953,0.0031319,0.037812,0.0046709,0.012745,0.00078095,0,0,0.065175,-0.020992,0,0.0040609,0,0,0,0.037831,0.0046525,0.012745,1.3491,0.018409,0.029963,1.0493e-06,0.52,0.35,0
0.017606,0.0032009,0.037861,0.0044339,0.012689,0.00075967,0,0,0.065449,-0.021462,0,0.0039503,0,0,0,0.037879,0.0044167,0.012689,1.3012,0.018328,0.030188,1.0634e-06,0.53,0.35,0
0.018262,0.0032686,0.037909,0.0042014,0.012633,0.00073692,0,0,0.065717,-0.021922,0,0.003832,0,0,0,0.037925,0.0041853,0.012633,1.2518,0.018248,0.030409,1.0772e-06,0.54,0.35,0
0.01892,0.0033348,0.037955,0.0039736,0.012579,0.00071275,0,0,0.065979,-0.022373,0,0.0037063,0,0,0,0.03797,0.0039587,0.012579,1.201,0.018169,0.030625,1.0907e-06,0.55,0.35,0
0.019581,0.0033995,0.038,0.003751,0.012525,0.00068722,0,0,0.066234,-0.022813,0,0.0035735,0,0,0,0.038013,0.0037372,0.012525,1.149,0.018092,0.030836,1.1038e-06,0.56,0.35,0
0.020245,0.0034627,0.038042,0.0035338,0.012473,0.00066043,0,0,0.06648,-0.023241,0,0.0034342,0,0,0,0.038055,0.0035212,0.012473,1.096,0.018016,0.031041,1.1164e-06,0.57,0.35,0
0.020911,0.0035242,0.038083,0.0033223,0.012422,0.00063251,0,0,0.066719,-0.023658,0,0.0032891,0,0,0,0.038094,0.0033108,0.012422,1.0421,0.017942,0.031241,1.1286e-06,0.58,0.35,0
0.021579,0.003584,0.038121,0.0031169,0.012371,0.00060361,0,0,0.066949,-0.024062,0,0.0031388,0,0,0,0.038132,0.0031065,0.012371,0.98761,0.01787,0.031434,1.1404e-06,0.59,0.35,0
0.02225,0.0036421,0.038157,0.0029176,0.012323,0.0005739,0,0,0.067171,-0.024453,0,0.0029843,0,0,0,0.038167,0.0029083,0.012323,0.93276,0.017799,0.031621,1.1517e-06,0.6,0.35,0
0.022923,0.0036984,0.038191,0.0027248,0.012275,0.00054355,0,0,0.067383,-0.02483,0,0.0028265,0,0,0,0.0382,0.0027165,0.012275,0.87783,0.01773,0.0318,1.1625e-06,0.61,0.35,0
0.023598,0.003753,0.038223,0.0025386,0.012228,0.00051276,0,0,0.067586,-0.025194,0,0.0026664,0,0,0,0.03823,0.0025313,0.012228,0.82308,0.017663,0.031973,1.1728e-06,0.62,0.35,0
0.024274,0.0038056,0.038252,0.0023591,0.012183,0.00048171,0,0,0.067779,-0.025543,0,0.0025049,0,0,0,0.038259,0.0023526,0.012183,0.76877,0.017598,0.032139,1.1826e-06,0.63,0.35,0
0.024953,0.0038564,0.038279,0.0021864,0.01214,0.0004506,0,0,0.067962,-0.025878,0,0.0023431,0,0,0,0.038284,0.0021807,0.01214,0.71517,0.017535,0.032297,1.1918e-06,0.64,0.35,0
0.025634,0.0039054,0.038303,0.0020205,0.012097,0.00041963,0,0,0.068136,-0.026199,0,0.0021821,0,0,0,0.038308,0.0020156,0.012097,0.66253,0.017474,0.032448,1.2006e-06,0.65,0.35,0
0.026316,0.0039524,0.038325,0.0018614,0.012056,0.00038896,0,0,0.0683,-0.026506,0,0.0020226,0,0,0,0.038329,0.0018573,0.012056,0.61108,0.017414,0.032592,1.2088e-06,0.66,0.35,0
0.027,0.0039975,0.038345,0.0017092,0.012016,0.00035878,0,0,0.068455,-0.026798,0,0.0018657,0,0,0,0.038349,0.0017057,0.012016,0.56103,0.017357,0.032729,1.2166e-06,0.67,0.35,0
0.027685,0.0040408,0.038363,0.0015637,0.011978,0.00032925,0,0,0.0686,-0.027077,0,0.0017121,0,0,0,0.038365,0.0015608,0.011978,0.51259,0.017301,0.032859,1.2238e-06,0.68,0.35,0
0.028372,0.0040822,0.038378,0.001425,0.011941,0.00030052,0,0,0.068736,-0.027341,0,0.0015627,0,0,0,0.03838,0.0014226,0.011941,0.46592,0.017248,0.032982,1.2306e-06,0.69,0.35,0
0.02906,0.0041217,0.038391,0.0012928,0.011905,0.00027273,0,0,0.068864,-0.027592,0,0.0014182,0,0,0,0.038393,0.0012909,0.011905,0.42118,0.017196,0.033097,1.2369e-06,0.7,0.35,0
0.029749,0.0041594,0.038403,0.0011672,0.011871,0.00024599,0,0,0.068983,-0.02783,0,0.0012791,0,0,0,0.038404,0.0011656,0.011871,0.37849,0.017147,0.033207,1.2428e-06,0.71,0.35,0
0.030439,0.0041953,0.038412,0.0010479,0.011838,0.0002204,0,0,0.069093,-0.028054,0,0.0011461,0,0,0,0.038414,0.0010466,0.011838,0.33796,0.0171,0.033309,1.2482e-06,0.72,0.35,0
0.031131,0.0042294,0.03842,0.00093482,0.011806,0.00019606,0,0,0.069196,-0.028266,0,0.0010195,0,0,0,0.038421,0.00093379,0.011806,0.29967,0.017054,0.033406,1.2532e-06,0.73,0.35,0
0.031823,0.0042618,0.038427,0.00082779,0.011776,0.00017304,0,0,0.069291,-0.028466,0,0.0008998,0,0,0,0.038428,0.00082699,0.011776,0.26368,0.01701,0.033496,1.2578e-06,0.74,0.35,0
0.032517,0.0042924,0.038432,0.00072663,0.011747,0.00015139,0,0,0.069379,-0.028654,0,0.00078721,0,0,0,0.038432,0.00072603,0.011747,0.23004,0.016969,0.033581,1.2621e-06,0.75,0.35,0
0.033211,0.0043214,0.038435,0.00063119,0.01172,0.00013114,0,0,0.06946,-0.028831,0,0.00068195,0,0,0,0.038436,0.00063073,0.01172,0.19876,0.016929,0.03366,1.2659e-06,0.76,0.35,0
0.033906,0.0043488,0.038438,0.00054128,0.011694,0.00011234,0,0,0.069534,-0.028996,0,0.00058419,0,0,0,0.038438,0.00054095,0.011694,0.16985,0.016891,0.033733,1.2695e-06,0.77,0.35,0
0.034602,0.0043746,0.038439,0.00045673,0.011669,9.4994e-05,0,0,0.069603,-0.029151,0,0.00049397,0,0,0,0.038439,0.00045649,0.011669,0.1433,0.016855,0.033801,1.2728e-06,0.78,0.35,0
0.035298,0.0043988,0.03844,0.00037735,0.011645,7.9099e-05,0,0,0.069666,-0.029296,0,0.00041131,0,0,0,0.03844,0.00037719,0.011645,0.11907,0.016821,0.033865,1.2757e-06,0.79,0.35,0
0.035995,0.0044216,0.038439,0.00030298,0.011623,6.4647e-05,0,0,0.069723,-0.029431,0,0.00033616,0,0,0,0.038439,0.00030287,0.011623,0.097125,0.016788,0.033924,1.2784e-06,0.8,0.35,0
0.036692,0.0044429,0.038438,0.00023343,0.011601,5.1617e-05,0,0,0.069775,-0.029557,0,0.00026841,0,0,0,0.038438,0.00023336,0.011601,0.077411,0.016758,0.033978,1.2808e-06,0.81,0.35,0
0.03739,0.0044628,0.038436,0.00016853,0.011581,3.9981e-05,0,0,0.069823,-0.029674,0,0.0002079,0,0,0,0.038436,0.00016849,0.011581,0.059861,0.016729,0.034028,1.283e-06,0.82,0.35,0
0.038089,0.0044813,0.038434,0.00010813,0.011563,2.9699e-05,0,0,0.069866,-0.029782,0,0.00015443,0,0,0,0.038434,0.00010811,0.011563,0.044399,0.016702,0.034075,1.2849e-06,0.83,0.35,0
0.038788,0.0044986,0.038432,5.2068e-05,0.011545,2.0726e-05,0,0,0.069905,-0.029882,0,0.00010777,0,0,0,0.038432,5.2056e-05,0.011545,0.030941,0.016676,0.034117,1.2867e-06,0.84,0.35,0
0.039487,0.0045145,0.038429,1.8481e-07,0.011529,1.3009e-05,0,0,0.06994,-0.029974,0,6.7647e-05,0,0,0,0.038429,1.8041e-07,0.011529,0.019396,0.016653,0.034156,1.2883e-06,0.85,0.35,0
0.040186,0.0045292,0.038426,-4.7659e-05,0.011513,6.4906e-06,0,0,0.069972,-0.030059,0,3.3751e-05,0,0,0,0.038426,-4.766e-05,0.011513,0.009666,0.01663,0.034191,1.2897e-06,0.86,0.35,0
0.040886,0.0045427,0.038422,-9.16e-05,0.011499,1.1072e-06,0,0,0.07,-0.030136,0,5.7574e-06,0,0,0,0.038422,-9.16e-05,0.011499,0.0016471,0.01661,0.034224,1.2909e-06,0.87,0.35,0
0.041586,0.0045551,0.038419,-0.00013177,0.011486,-3.2086e-06,0,0,0.070025,-0.030207,0,-1.6685e-05,0,0,0,0.038419,-0.00013177,0.011486,-0.0047688,0.016591,0.034253,1.292e-06,0.88,0.35,0
0.042287,0.0045664,0.038416,-0.00016828,0.011474,-6.5281e-06,0,0,0.070048,-0.030271,0,-3.3946e-05,0,0,0,0.038416,-0.00016828,0.011474,-0.0096939,0.016574,0.034279,1.293e-06,0.89,0.35,0
0.042987,0.0045765,0.038413,-0.00020124,0.011463,-8.9256e-06,0,0,0.070068,-0.030328,0,-4.6413e-05,0,0,0,0.038413,-0.00020124,0.011463,-0.013244,0.016558,0.034303,1.2939e-06,0.9,0.35,0
0.043688,0.0045856,0.038409,-0.00023075,0.011454,-1.0478e-05,0,0,0.070085,-0.030379,0,-5.4487e-05,0,0,0,0.038409,-0.00023076,0.011454,-0.015537,0.016544,0.034324,1.2946e-06,0.91,0.35,0
0.044389,0.0045937,0.038407,-0.00025692,0.011445,-1.1265e-05,0,0,0.0701,-0.030425,0,-5.858e-05,0,0,0,0.038407,-0.00025692,0.011445,-0.016694,0.016532,0.034342,1.2952e-06,0.92,0.35,0
0.04509,0.0046007,0.038404,-0.00027981,0.011437,-1.1368e-05,0,0,0.070113,-0.030464,0,-5.9114e-05,0,0,0,0.038404,-0.00027981,0.011437,-0.016838,0.016521,0.034358,1.2958e-06,0.93,0.35,0
0.045791,0.0046068,0.038402,-0.0002995,0.011431,-1.0869e-05,0,0,0.070125,-0.030498,0,-5.652e-05,0,0,0,0.038402,-0.0002995,0.011431,-0.016092,0.016511,0.034372,1.2962e-06,0.94,0.35,0
0.046493,0.0046119,0.0384,-0.00031606,0.011425,-9.8526e-06,0,0,0.070134,-0.030527,0,-5.1234e-05,0,0,0,0.0384,-0.00031606,0.011425,-0.014581,0.016503,0.034383,1.2966e-06,0.95,0.35,0
0.047194,0.004616,0.038398,-0.00032953,0.011421,-8.4033e-06,0,0,0.070141,-0.03055,0,-4.3697e-05,0,0,0,0.038398,-0.00032953,0.011421,-0.012432,0.016496,0.034392,1.2969e-06,0.96,0.35,0
0.047895,0.0046192,0.038397,-0.00033996,0.011417,-6.6069e-06,0,0,0.070147,-0.030568,0,-3.4356e-05,0,0,0,0.038397,-0.00033996,0.011417,-0.0097723,0.016491,0.034399,1.2971e-06,0.97,0.35,0
0.048597,0.0046215,0.038395,-0.00034739,0.011414,-4.5497e-06,0,0,0.070151,-0.030581,0,-2.3658e-05,0,0,0,0.038395,-0.00034739,0.011414,-0.0067284,0.016487,0.034404,1.2973e-06,0.98,0.35,0
0.049299,0.0046229,0.038395,-0.00035184,0.011413,-2.3184e-06,0,0,0.070153,-0.030588,0,-1.2056e-05,0,0,0,0.038395,-0.00035184,0.011413,-0.0034283,0.016485,0.034407,1.2974e-06,0.99,0.35,0
0.05,0.0046234,0.038395,-0.00035332,0.011412,8.7665e-06,0,0,0.070154,-0.030591,0,4.5586e-05,0,0,0,0.038395,-0.00035332,0.011412,0.012963,0.016485,0.034409,1.2974e-06,1,0.35,0
0,0,0.033274,0.01426,0.01426,0.0020909,0,0,0.024718,2.9816e-19,0,0.0054364,0,0,0,0.033501,0.014033,0.01426,6.2021,0.020598,0.019355,3.7224e-07,0,0.36,0
0.00024718,5.4364e-05,0.033235,0.013786,0.014106,0.0020932,0,0,0.024868,-0.00041671,0,0.0054422,0,0,0,0.033458,0.013563,0.014106,6.0736,0.020376,0.019629,3.8742e-07,0.01,0.36,0
0.00049735,0.00011001,0.033396,0.013385,0.014034,0.0021158,0,0,0.02517,-0.00084361,0,0.0055012,0,0,0,0.033617,0.013164,0.014034,5.9703,0.020272,0.020032,4.1023e-07,0.02,0.36,0
0.00075057,0.00016681,0.033558,0.012976,0.01396,0.002132,0,0,0.025477,-0.0012795,0,0.0055431,0,0,0,0.033777,0.012757,0.01396,5.8521,0.020165,0.020444,4.3376e-07,0.03,0.36,0
0.0010069,0.00022464,0.033721,0.012558,0.013884,0.0021414,0,0,0.025788,-0.001723,0,0.0055676,0,0,0,0.033935,0.012344,0.013884,5.7204,0.020054,0.020864,4.5792e-07,0.04,0.36,0
0.0012663,0.00028339,0.033884,0.012134,0.013805,0.0021441,0,0,0.026102,-0.0021729,0,0.0055746,0,0,0,0.034093,0.011924,0.013805,5.5766,0.019941,0.021291,4.8264e-07,0.05,0.36,0
0.0015289,0.00034292,0.034046,0.011703,0.013725,0.0021401,0,0,0.026417,-0.0026278,0,0.0055642,0,0,0,0.034249,0.0115,0.013725,5.4224,0.019824,0.021722,5.0784e-07,0.06,0.36,0
0.0017947,0.0004031,0.034206,0.011268,0.013642,0.0021295,0,0,0.026733,-0.0030864,0,0.0055366,0,0,0,0.034402,0.011072,0.013642,5.2592,0.019706,0.022157,5.3342e-07,0.07,0.36,0
0.0020636,0.0004638,0.034365,0.010829,0.013558,0.0021125,0,0,0.027048,-0.0035475,0,0.0054925,0,0,0,0.034553,0.010641,0.013558,5.0886,0.019584,0.022595,5.5929e-07,0.08,0.36,0
0.0023356,0.00052491,0.03452,0.010388,0.013473,0.0020894,0,0,0.027362,-0.0040098,0,0.0054325,0,0,0,0.0347,0.010209,0.013473,4.9121,0.01946,0.023033,5.8536e-07,0.09,0.36,0
0.0026108,0.00058631,0.034673,0.0099453,0.013385,0.0020606,0,0,0.027674,-0.0044721,0,0.0053577,0,0,0,0.034843,0.0097748,0.013385,4.7312,0.019335,0.023472,6.1155e-07,0.1,0.36,0
0.0028891,0.00064788,0.034821,0.0095022,0.013297,0.0020265,0,0,0.027982,-0.0049334,0,0.005269,0,0,0,0.034982,0.009341,0.013297,4.5474,0.019207,0.02391,6.3776e-07,0.11,0.36,0
0.0031705,0.00070952,0.034966,0.0090595,0.013208,0.0019876,0,0,0.028286,-0.0053925,0,0.0051678,0,0,0,0.035117,0.0089078,0.013208,4.3619,0.019078,0.024346,6.639e-07,0.12,0.36,0
0.0034548,0.00077113,0.035105,0.008618,0.013117,0.0019444,0,0,0.028585,-0.0058487,0,0.0050555,0,0,0,0.035247,0.008476,0.013117,4.1762,0.018947,0.024779,6.8991e-07,0.13,0.36,0
0.0037422,0.00083261,0.03524,0.0081786,0.013026,0.0018975,0,0,0.028879,-0.006301,0,0.0049335,0,0,0,0.035372,0.0080462,0.013026,3.9915,0.018815,0.025208,7.1569e-07,0.14,0.36,0
0.0040324,0.00089389,0.035369,0.0077418,0.012933,0.0018475,0,0,0.029167,-0.0067489,0,0.0048034,0,0,0,0.035492,0.0076188,0.012933,3.8088,0.018681,0.025633,7.4119e-07,0.15,0.36,0
0.0043255,0.00095489,0.035493,0.0073082,0.01284,0.0017949,0,0,0.029448,-0.0071918,0,0.0046668,0,0,0,0.035607,0.0071944,0.01284,3.6293,0.018547,0.026052,7.6635e-07,0.16,0.36,0
0.0046214,0.0010156,0.035611,0.0068783,0.012747,0.0017405,0,0,0.029723,-0.0076291,0,0.0045254,0,0,0,0.035716,0.0067733,0.012747,3.4539,0.018412,0.026467,7.9111e-07,0.17,0.36,0
0.00492,0.0010758,0.035723,0.0064524,0.012653,0.0016849,0,0,0.029992,-0.0080605,0,0.0043806,0,0,0,0.03582,0.0063557,0.012653,3.2835,0.018276,0.026875,8.1543e-07,0.18,0.36,0
0.0052212,0.0011357,0.03583,0.0060306,0.012558,0.0016285,0,0,0.030254,-0.0084859,0,0.0042341,0,0,0,0.035919,0.0059419,0.012558,3.1188,0.01814,0.027277,8.3927e-07,0.19,0.36,0
0.005525,0.001195,0.035931,0.0056133,0.012463,0.0015721,0,0,0.030508,-0.0089051,0,0.0040875,0,0,0,0.036013,0.005532,0.012463,2.9604,0.018003,0.027674,8.6261e-07,0.2,0.36,0
0.0058314,0.0012539,0.036027,0.0052004,0.012368,0.0015162,0,0,0.030756,-0.0093181,0,0.003942,0,0,0,0.036101,0.005126,0.012368,2.809,0.017865,0.028064,8.8544e-07,0.21,0.36,0
0.0061402,0.0013123,0.036117,0.0047919,0.012273,0.0014612,0,0,0.030998,-0.0097251,0,0.0037991,0,0,0,0.036185,0.0047239,0.012273,2.6649,0.017727,0.028448,9.0773e-07,0.22,0.36,0
0.0064513,0.0013701,0.036202,0.0043878,0.012177,0.0014077,0,0,0.031233,-0.010126,0,0.0036601,0,0,0,0.036264,0.0043256,0.012177,2.5286,0.017589,0.028827,9.2949e-07,0.23,0.36,0
0.0067648,0.0014275,0.036283,0.0039878,0.012081,0.0013561,0,0,0.031462,-0.010521,0,0.0035259,0,0,0,0.036339,0.003931,0.012081,2.4003,0.017451,0.029199,9.5073e-07,0.24,0.36,0
0.0070806,0.0014843,0.036359,0.0035918,0.011985,0.0013067,0,0,0.031685,-0.010911,0,0.0033975,0,0,0,0.03641,0.0035398,0.011985,2.2801,0.017312,0.029567,9.7145e-07,0.25,0.36,0
0.0073985,0.0015407,0.03643,0.0031995,0.011889,0.0012599,0,0,0.031904,-0.011296,0,0.0032759,0,0,0,0.036478,0.0031518,0.011889,2.1682,0.017173,0.02993,9.9167e-07,0.26,0.36,0
0.0077186,0.0015965,0.036498,0.0028106,0.011792,0.001216,0,0,0.032117,-0.011677,0,0.0031615,0,0,0,0.036542,0.0027667,0.011792,2.0646,0.017034,0.030288,1.0114e-06,0.27,0.36,0
0.0080409,0.001652,0.036562,0.0024247,0.011696,0.001175,0,0,0.032326,-0.012053,0,0.0030551,0,0,0,0.036603,0.0023843,0.011696,1.969,0.016894,0.030643,1.0307e-06,0.28,0.36,0
0.0083652,0.001707,0.036624,0.0020415,0.0116,0.0011373,0,0,0.032531,-0.012426,0,0.0029569,0,0,0,0.036661,0.0020041,0.0116,1.8815,0.016755,0.030994,1.0496e-06,0.29,0.36,0
0.0086915,0.0017615,0.036682,0.0016605,0.011503,0.0011027,0,0,0.032733,-0.012795,0,0.002867,0,0,0,0.036717,0.0016259,0.011503,1.8017,0.016615,0.031342,1.0681e-06,0.3,0.36,0
0.0090198,0.0018158,0.036739,0.0012815,0.011406,0.0010714,0,0,0.032932,-0.013162,0,0.0027857,0,0,0,0.036771,0.0012492,0.011406,1.7292,0.016475,0.031689,1.0862e-06,0.31,0.36,0
0.0093501,0.0018696,0.036793,0.0009041,0.011309,0.0010433,0,0,0.033129,-0.013527,0,0.0027126,0,0,0,0.036823,0.00087379,0.011309,1.6638,0.016335,0.032033,1.104e-06,0.32,0.36,0
0.0096824,0.0019232,0.036846,0.00052784,0.011212,0.0010183,0,0,0.033324,-0.01389,0,0.0026477,0,0,0,0.036874,0.00049931,0.011212,1.6049,0.016195,0.032377,1.1215e-06,0.33,0.36,0
0.010017,0.0019764,0.036898,0.00015242,0.011115,0.00099629,0,0,0.033518,-0.014252,0,0.0025904,0,0,0,0.036925,0.00012543,0.011115,1.552,0.016055,0.032719,1.1387e-06,0.34,0.36,0
0.010353,0.0020294,0.036949,-0.00022245,0.011018,0.00097698,0,0,0.03371,-0.014613,0,0.0025402,0,0,0,0.036975,-0.00024811,0.011018,1.5045,0.015915,0.033062,1.1557e-06,0.35,0.36,0
0.010691,0.0020821,0.036999,-0.00059706,0.010921,0.00096015,0,0,0.033902,-0.014973,0,0.0024964,0,0,0,0.037024,-0.00062156,0.010921,1.462,0.015774,0.033405,1.1725e-06,0.36,0.36,0
0.011031,0.0021346,0.03705,-0.00097161,0.010823,0.00094547,0,0,0.034094,-0.015334,0,0.0024582,0,0,0,0.037073,-0.00099511,0.010823,1.4236,0.015634,0.033749,1.1891e-06,0.37,0.36,0
0.011373,0.0021869,0.0371,-0.0013463,0.010726,0.00093262,0,0,0.034286,-0.015694,0,0.0024248,0,0,0,0.037123,-0.0013689,0.010726,1.3888,0.015493,0.034093,1.2055e-06,0.38,0.36,0
0.011716,0.0022389,0.037151,-0.0017212,0.010629,0.0009212,0,0,0.034478,-0.016055,0,0.0023951,0,0,0,0.037173,-0.001743,0.010629,1.3568,0.015353,0.034439,1.2218e-06,0.39,0.36,0
0.012062,0.0022907,0.037202,-0.0020963,0.010532,0.00091081,0,0,0.034671,-0.016416,0,0.0023681,0,0,0,0.037223,-0.0021174,0.010532,1.327,0.015212,0.034786,1.2379e-06,0.4,0.36,0
0.01241,0.0023422,0.037253,-0.0024718,0.010434,0.00090102,0,0,0.034864,-0.016778,0,0.0023427,0,0,0,0.037274,-0.0024922,0.010434,1.2987,0.015072,0.035134,1.2539e-06,0.41,0.36,0
0.01276,0.0023935,0.037305,-0.0028473,0.010337,0.00089138,0,0,0.035058,-0.01714,0,0.0023176,0,0,0,0.037325,-0.0028671,0.010337,1.2711,0.014932,0.035483,1.2697e-06,0.42,0.36,0
0.013111,0.0024445,0.037358,-0.0032229,0.01024,0.00088145,0,0,0.035252,-0.017502,0,0.0022918,0,0,0,0.037377,-0.003242,0.01024,1.2437,0.014792,0.035833,1.2853e-06,0.43,0.36,0
0.013465,0.0024952,0.03741,-0.0035981,0.010144,0.00087075,0,0,0.035447,-0.017864,0,0.0022639,0,0,0,0.037429,-0.0036166,0.010144,1.2159,0.014652,0.036184,1.3007e-06,0.44,0.36,0
0.01382,0.0025455,0.037464,-0.0039728,0.010047,0.00085885,0,0,0.035641,-0.018226,0,0.002233,0,0,0,0.037482,-0.0039906,0.010047,1.1869,0.014513,0.036535,1.3159e-06,0.45,0.36,0
0.014177,0.0025954,0.037518,-0.0043466,0.0099513,0.00084531,0,0,0.035836,-0.018587,0,0.0021978,0,0,0,0.037534,-0.0043637,0.0099513,1.1563,0.014374,0.036886,1.3308e-06,0.46,0.36,0
0.014537,0.0026448,0.037571,-0.004719,0.0098557,0.00082972,0,0,0.03603,-0.018947,0,0.0021573,0,0,0,0.037587,-0.0047352,0.0098557,1.1236,0.014236,0.037237,1.3455e-06,0.47,0.36,0
0.014898,0.0026937,0.037625,-0.0050895,0.0097606,0.00081168,0,0,0.036223,-0.019305,0,0.0021104,0,0,0,0.03764,-0.0051049,0.0097606,1.0882,0.014099,0.037586,1.3598e-06,0.48,0.36,0
0.015261,0.0027421,0.037678,-0.0054576,0.0096661,0.00079083,0,0,0.036415,-0.019661,0,0.0020562,0,0,0,0.037692,-0.005472,0.0096661,1.05,0.013962,0.037933,1.3737e-06,0.49,0.36,0
0.015626,0.0027898,0.037715,-0.00033106,0.011215,0.00076888,0,0,0.050644,-0.020013,0,0.0029828,0,0,0,0.037731,-0.00034684,0.011215,1.1787,0.0162,0.033882,1.2012e-06,0.5,0.36,0
0.016274,0.0028565,0.037782,0.0049305,0.012814,0.00074972,0,0,0.064918,-0.020497,0,0.0038986,0,0,0,0.037799,0.0049134,0.012814,1.3067,0.018509,0.029733,1.0356e-06,0.51,0.36,0
0.016925,0.002922,0.037833,0.0046908,0.012757,0.00073099,0,0,0.065197,-0.020972,0,0.0038012,0,0,0,0.037849,0.0046747,0.012757,1.2629,0.018427,0.029962,1.05e-06,0.52,0.36,0
0.017578,0.0029864,0.037882,0.0044553,0.012701,0.00071098,0,0,0.06547,-0.021439,0,0.0036971,0,0,0,0.037897,0.0044402,0.012701,1.2179,0.018346,0.030187,1.0641e-06,0.53,0.36,0
0.018234,0.0030495,0.03793,0.0042241,0.012646,0.00068969,0,0,0.065738,-0.021898,0,0.0035864,0,0,0,0.037944,0.00421,0.012646,1.1717,0.018267,0.030407,1.0779e-06,0.54,0.36,0
0.018893,0.0031112,0.037977,0.0039977,0.012592,0.00066714,0,0,0.065999,-0.022346,0,0.0034691,0,0,0,0.03799,0.0039846,0.012592,1.1244,0.018189,0.030623,1.0914e-06,0.55,0.36,0
0.019554,0.0031715,0.038021,0.0037763,0.012539,0.0006434,0,0,0.066254,-0.022784,0,0.0033457,0,0,0,0.038034,0.0037642,0.012539,1.076,0.018112,0.030833,1.1045e-06,0.56,0.36,0
0.020218,0.0032304,0.038065,0.0035602,0.012487,0.00061854,0,0,0.0665,-0.023211,0,0.0032164,0,0,0,0.038076,0.0035491,0.012487,1.0267,0.018037,0.031038,1.1172e-06,0.57,0.36,0
0.020884,0.0032878,0.038106,0.0033498,0.012437,0.00059269,0,0,0.066739,-0.023626,0,0.003082,0,0,0,0.038116,0.0033397,0.012437,0.97668,0.017964,0.031237,1.1294e-06,0.58,0.36,0
0.021553,0.0033436,0.038144,0.0031452,0.012387,0.00056596,0,0,0.06697,-0.024029,0,0.002943,0,0,0,0.038154,0.003136,0.012387,0.92618,0.017892,0.03143,1.1413e-06,0.59,0.36,0
0.022224,0.0033978,0.038181,0.0029466,0.012338,0.00053849,0,0,0.067192,-0.024418,0,0.0028002,0,0,0,0.03819,0.0029384,0.012338,0.87539,0.017822,0.031617,1.1526e-06,0.6,0.36,0
0.022897,0.0034503,0.038216,0.0027543,0.012291,0.00051046,0,0,0.067404,-0.024796,0,0.0026544,0,0,0,0.038223,0.002747,0.012291,0.82453,0.017754,0.031797,1.1635e-06,0.61,0.36,0
0.023572,0.0035012,0.038248,0.0025684,0.012245,0.00048202,0,0,0.067608,-0.025159,0,0.0025065,0,0,0,0.038255,0.0025619,0.012245,0.77386,0.017687,0.03197,1.1739e-06,0.62,0.36,0
0.024249,0.0035504,0.038278,0.0023891,0.0122,0.00045334,0,0,0.067803,-0.025509,0,0.0023574,0,0,0,0.038284,0.0023834,0.0122,0.72359,0.017622,0.032137,1.1838e-06,0.63,0.36,0
0.024928,0.0035978,0.038306,0.0022163,0.012157,0.0004246,0,0,0.067988,-0.025845,0,0.0022079,0,0,0,0.038311,0.0022113,0.012157,0.67397,0.017559,0.032296,1.1931e-06,0.64,0.36,0
0.025608,0.0036435,0.038331,0.0020502,0.012114,0.00039596,0,0,0.068163,-0.026167,0,0.002059,0,0,0,0.038335,0.0020459,0.012114,0.62522,0.017499,0.032449,1.202e-06,0.65,0.36,0
0.026291,0.0036875,0.038354,0.0018908,0.012073,0.00036759,0,0,0.06833,-0.026475,0,0.0019115,0,0,0,0.038358,0.0018871,0.012073,0.57753,0.017439,0.032594,1.2104e-06,0.66,0.36,0
0.026975,0.0037297,0.038375,0.001738,0.012034,0.00033965,0,0,0.068487,-0.026769,0,0.0017662,0,0,0,0.038378,0.0017349,0.012034,0.53112,0.017382,0.032732,1.2183e-06,0.67,0.36,0
0.027661,0.0037702,0.038393,0.0015919,0.011996,0.00031229,0,0,0.068635,-0.02705,0,0.0016239,0,0,0,0.038396,0.0015892,0.011996,0.48614,0.017327,0.032864,1.2257e-06,0.68,0.36,0
0.028348,0.0038089,0.03841,0.0014523,0.011959,0.00028563,0,0,0.068774,-0.027317,0,0.0014853,0,0,0,0.038412,0.0014501,0.011959,0.44278,0.017274,0.032988,1.2327e-06,0.69,0.36,0
0.029036,0.0038459,0.038425,0.0013192,0.011923,0.00025981,0,0,0.068904,-0.02757,0,0.001351,0,0,0,0.038426,0.0013174,0.011923,0.40116,0.017222,0.033106,1.2391e-06,0.7,0.36,0
0.029726,0.0038812,0.038437,0.0011925,0.011889,0.00023494,0,0,0.069026,-0.027811,0,0.0012217,0,0,0,0.038439,0.001191,0.011889,0.3614,0.017173,0.033217,1.2452e-06,0.71,0.36,0
0.030417,0.0039148,0.038448,0.001072,0.011856,0.00021111,0,0,0.069139,-0.028038,0,0.0010977,0,0,0,0.038449,0.0010709,0.011856,0.3236,0.017125,0.033322,1.2508e-06,0.72,0.36,0
0.031109,0.0039468,0.038457,0.00095774,0.011824,0.0001884,0,0,0.069245,-0.028254,0,0.00097968,0,0,0,0.038458,0.00095679,0.011824,0.28785,0.01708,0.03342,1.256e-06,0.73,0.36,0
0.031802,0.0039772,0.038465,0.00084941,0.011794,0.00016689,0,0,0.069343,-0.028456,0,0.00086781,0,0,0,0.038465,0.00084867,0.011794,0.2542,0.017036,0.033513,1.2608e-06,0.74,0.36,0
0.032495,0.0040059,0.038471,0.00074692,0.011765,0.00014662,0,0,0.069434,-0.028648,0,0.00076242,0,0,0,0.038471,0.00074635,0.011765,0.22268,0.016994,0.033599,1.2652e-06,0.75,0.36,0
0.03319,0.0040331,0.038476,0.00065011,0.011738,0.00012764,0,0,0.069518,-0.028828,0,0.00066374,0,0,0,0.038476,0.00064968,0.011738,0.19334,0.016954,0.03368,1.2692e-06,0.76,0.36,0
0.033886,0.0040588,0.038479,0.00055881,0.011711,0.00010998,0,0,0.069596,-0.028997,0,0.00057189,0,0,0,0.038479,0.00055849,0.011711,0.16617,0.016916,0.033756,1.273e-06,0.77,0.36,0
0.034582,0.004083,0.038482,0.00047286,0.011686,9.3647e-05,0,0,0.069667,-0.029155,0,0.00048696,0,0,0,0.038482,0.00047263,0.011686,0.14117,0.01688,0.033826,1.2764e-06,0.78,0.36,0
0.035279,0.0041058,0.038483,0.00039209,0.011662,7.8649e-05,0,0,0.069733,-0.029303,0,0.00040898,0,0,0,0.038483,0.00039192,0.011662,0.1183,0.016846,0.033892,1.2795e-06,0.79,0.36,0
0.035977,0.0041272,0.038484,0.00031633,0.01164,6.498e-05,0,0,0.069793,-0.029441,0,0.0003379,0,0,0,0.038484,0.00031622,0.01164,0.097546,0.016813,0.033953,1.2823e-06,0.8,0.36,0
0.036675,0.0041472,0.038483,0.00024542,0.011619,5.2623e-05,0,0,0.069848,-0.02957,0,0.00027364,0,0,0,0.038483,0.00024535,0.011619,0.07885,0.016782,0.034009,1.2849e-06,0.81,0.36,0
0.037374,0.004166,0.038483,0.0001792,0.011598,4.1552e-05,0,0,0.069899,-0.02969,0,0.00021607,0,0,0,0.038483,0.00017916,0.011598,0.062155,0.016754,0.034061,1.2872e-06,0.82,0.36,0
0.038073,0.0041834,0.038481,0.00011752,0.01158,3.1735e-05,0,0,0.069944,-0.029802,0,0.00016502,0,0,0,0.038481,0.00011749,0.01158,0.047395,0.016726,0.034109,1.2893e-06,0.83,0.36,0
0.038773,0.0041996,0.038479,6.0215e-05,0.011562,2.3131e-05,0,0,0.069986,-0.029904,0,0.00012028,0,0,0,0.038479,6.0201e-05,0.011562,0.034495,0.016701,0.034153,1.2912e-06,0.84,0.36,0
0.039473,0.0042146,0.038477,7.146e-06,0.011545,1.5693e-05,0,0,0.070023,-0.029999,0,8.1602e-05,0,0,0,0.038477,7.1396e-06,0.011545,0.023372,0.016677,0.034194,1.2929e-06,0.85,0.36,0
0.040173,0.0042285,0.038475,-4.1826e-05,0.01153,9.3689e-06,0,0,0.070057,-0.030087,0,4.8718e-05,0,0,0,0.038475,-4.1828e-05,0.01153,0.013937,0.016654,0.034231,1.2945e-06,0.86,0.36,0
0.040874,0.0042412,0.038472,-8.6831e-05,0.011516,4.1017e-06,0,0,0.070087,-0.030166,0,2.1329e-05,0,0,0,0.038472,-8.6832e-05,0.011516,0.0060948,0.016634,0.034264,1.2958e-06,0.87,0.36,0
0.041575,0.0042529,0.03847,-0.00012799,0.011503,-1.7042e-07,0,0,0.070115,-0.030239,0,-8.8618e-07,0,0,0,0.03847,-0.00012799,0.011503,-0.00025298,0.016615,0.034295,1.297e-06,0.88,0.36,0
0.042276,0.0042635,0.038467,-0.00016543,0.01149,-3.5129e-06,0,0,0.070139,-0.030305,0,-1.8267e-05,0,0,0,0.038467,-0.00016543,0.01149,-0.0052099,0.016597,0.034322,1.2981e-06,0.89,0.36,0
0.042978,0.004273,0.038464,-0.00019925,0.01148,-5.9941e-06,0,0,0.07016,-0.030365,0,-3.117e-05,0,0,0,0.038464,-0.00019925,0.01148,-0.0088828,0.016581,0.034347,1.299e-06,0.9,0.36,0
0.043679,0.0042816,0.038462,-0.00022955,0.01147,-7.6855e-06,0,0,0.070179,-0.030418,0,-3.9965e-05,0,0,0,0.038462,-0.00022955,0.01147,-0.011381,0.016567,0.034369,1.2998e-06,0.91,0.36,0
0.044381,0.0042892,0.038459,-0.00025641,0.011461,-8.6606e-06,0,0,0.070195,-0.030465,0,-4.5035e-05,0,0,0,0.038459,-0.00025641,0.011461,-0.012817,0.016554,0.034388,1.3005e-06,0.92,0.36,0
0.045083,0.0042959,0.038457,-0.00027993,0.011453,-8.9948e-06,0,0,0.07021,-0.030506,0,-4.6773e-05,0,0,0,0.038457,-0.00027993,0.011453,-0.013304,0.016543,0.034405,1.3011e-06,0.93,0.36,0
0.045785,0.0043016,0.038455,-0.00030016,0.011446,-8.7653e-06,0,0,0.070222,-0.030541,0,-4.5579e-05,0,0,0,0.038455,-0.00030016,0.011446,-0.012959,0.016534,0.034419,1.3016e-06,0.94,0.36,0
0.046488,0.0043064,0.038453,-0.00031718,0.011441,-8.0503e-06,0,0,0.070232,-0.030571,0,-4.1862e-05,0,0,0,0.038453,-0.00031718,0.011441,-0.011897,0.016525,0.034431,1.3021e-06,0.95,0.36,0
0.04719,0.0043103,0.038451,-0.00033103,0.011436,-6.9294e-06,0,0,0.07024,-0.030595,0,-3.6033e-05,0,0,0,0.038451,-0.00033103,0.011436,-0.010237,0.016519,0.034441,1.3024e-06,0.96,0.36,0
0.047892,0.0043133,0.03845,-0.00034176,0.011432,-5.4828e-06,0,0,0.070246,-0.030613,0,-2.8511e-05,0,0,0,0.03845,-0.00034176,0.011432,-0.0080981,0.016514,0.034448,1.3026e-06,0.97,0.36,0
0.048595,0.0043155,0.038449,-0.00034939,0.01143,-3.7914e-06,0,0,0.07025,-0.030626,0,-1.9716e-05,0,0,0,0.038449,-0.00034939,0.01143,-0.005599,0.01651,0.034454,1.3028e-06,0.98,0.36,0
0.049298,0.0043168,0.038449,-0.00035397,0.011428,-1.9366e-06,0,0,0.070253,-0.030634,0,-1.007e-05,0,0,0,0.038449,-0.00035397,0.011428,-0.0028596,0.016508,0.034457,1.3029e-06,0.99,0.36,0
0.05,0.0043172,0.038448,-0.00035549,0.011428,8.2691e-06,0,0,0.070254,-0.030637,0,4.2999e-05,0,0,0,0.038448,-0.00035549,0.011428,0.01221,0.016507,0.034458,1.303e-06,1,0.36,0
0,0,0.033199,0.014228,0.014228,0.0019319,0,0,0.024662,2.7105e-20,0,0.0050231,0,0,0,0.033393,0.014033,0.014228,5.7562,0.020552,0.019263,3.6701e-07,0,0.37,0
0.00024662,5.023e-05,0.033161,0.013761,0.014076,0.0019341,0,0,0.02481,-0.0004104,0,0.0050285,0,0,0,0.033352,0.01357,0.014076,5.6381,0.020333,0.019533,3.8192e-07,0.01,0.37,0
0.00049619,0.00010164,0.033319,0.013367,0.014006,0.0019551,0,0,0.025107,-0.00083076,0,0.0050832,0,0,0,0.033509,0.013177,0.014006,5.544,0.02023,0.019931,4.0424e-07,0.02,0.37,0
0.00074877,0.00015412,0.033479,0.012964,0.013933,0.0019702,0,0,0.02541,-0.0012599,0,0.0051226,0,0,0,0.033667,0.012776,0.013933,5.4363,0.020125,0.020337,4.2727e-07,0.03,0.37,0
0.0010044,0.00020755,0.033639,0.012552,0.013858,0.0019793,0,0,0.025716,-0.0016967,0,0.0051463,0,0,0,0.033824,0.012368,0.013858,5.3162,0.020016,0.020751,4.5095e-07,0.04,0.37,0
0.0012631,0.00026183,0.0338,0.012134,0.01378,0.0019824,0,0,0.026026,-0.0021399,0,0.0051542,0,0,0,0.03398,0.011954,0.01378,5.1851,0.019905,0.021172,4.752e-07,0.05,0.37,0
0.0015249,0.00031685,0.03396,0.01171,0.013701,0.0019794,0,0,0.026337,-0.0025882,0,0.0051464,0,0,0,0.034135,0.011535,0.013701,5.0443,0.01979,0.021598,4.9995e-07,0.06,0.37,0
0.0017898,0.00037247,0.034119,0.011281,0.01362,0.0019704,0,0,0.026648,-0.0030405,0,0.0051232,0,0,0,0.034287,0.011112,0.01362,4.8953,0.019673,0.022029,5.251e-07,0.07,0.37,0
0.0020579,0.0004286,0.034276,0.010848,0.013537,0.0019558,0,0,0.02696,-0.0034955,0,0.005085,0,0,0,0.034438,0.010686,0.013537,4.7395,0.019554,0.022462,5.5059e-07,0.08,0.37,0
0.002329,0.00048512,0.03443,0.010413,0.013453,0.0019356,0,0,0.02727,-0.0039522,0,0.0050325,0,0,0,0.034585,0.010258,0.013453,4.5781,0.019432,0.022898,5.7631e-07,0.09,0.37,0
0.0026033,0.00054192,0.034581,0.0099752,0.013367,0.0019102,0,0,0.027579,-0.0044093,0,0.0049665,0,0,0,0.034729,0.0098278,0.013367,4.4127,0.019308,0.023334,6.0219e-07,0.1,0.37,0
0.0028806,0.00059891,0.03473,0.0095369,0.01328,0.00188,0,0,0.027884,-0.0048659,0,0.004888,0,0,0,0.034869,0.0093974,0.01328,4.2444,0.019182,0.023769,6.2814e-07,0.11,0.37,0
0.003161,0.00065597,0.034874,0.0090986,0.013192,0.0018454,0,0,0.028186,-0.005321,0,0.0047981,0,0,0,0.035005,0.0089671,0.013192,4.0745,0.019055,0.024204,6.5408e-07,0.12,0.37,0
0.0034443,0.00071303,0.035013,0.008661,0.013102,0.0018069,0,0,0.028484,-0.0057738,0,0.004698,0,0,0,0.035137,0.0085377,0.013102,3.9043,0.018926,0.024636,6.7994e-07,0.13,0.37,0
0.0037306,0.00077001,0.035149,0.0082248,0.013012,0.001765,0,0,0.028778,-0.0062234,0,0.0045891,0,0,0,0.035264,0.0081096,0.013012,3.7348,0.018795,0.025065,7.0563e-07,0.14,0.37,0
0.0040199,0.00082682,0.035279,0.0077908,0.012921,0.0017202,0,0,0.029065,-0.0066692,0,0.0044726,0,0,0,0.035386,0.0076835,0.012921,3.5671,0.018663,0.025491,7.311e-07,0.15,0.37,0
0.004312,0.0008834,0.035404,0.0073593,0.012829,0.0016731,0,0,0.029348,-0.0071106,0,0.0043501,0,0,0,0.035504,0.0072599,0.012829,3.4021,0.018531,0.025912,7.5628e-07,0.16,0.37,0
0.0046068,0.00093969,0.035524,0.0069309,0.012736,0.0016242,0,0,0.029624,-0.0075473,0,0.004223,0,0,0,0.035616,0.006839,0.012736,3.2408,0.018397,0.026329,7.8113e-07,0.17,0.37,0
0.0049044,0.00099565,0.035639,0.0065059,0.012643,0.0015741,0,0,0.029894,-0.0079787,0,0.0040927,0,0,0,0.035724,0.0064211,0.012643,3.0838,0.018263,0.02674,8.056e-07,0.18,0.37,0
0.0052047,0.0010512,0.035748,0.0060846,0.01255,0.0015233,0,0,0.030158,-0.0084048,0,0.0039606,0,0,0,0.035826,0.0060066,0.01255,2.932,0.018128,0.027146,8.2964e-07,0.19,0.37,0
0.0055076,0.0011064,0.035852,0.0056671,0.012456,0.0014723,0,0,0.030415,-0.0088253,0,0.003828,0,0,0,0.035924,0.0055954,0.012456,2.7859,0.017992,0.027547,8.5323e-07,0.2,0.37,0
0.005813,0.0011611,0.035951,0.0052535,0.012361,0.0014217,0,0,0.030666,-0.0092402,0,0.0036964,0,0,0,0.036017,0.0051878,0.012361,2.646,0.017855,0.027942,8.7636e-07,0.21,0.37,0
0.0061209,0.0012154,0.036045,0.0048439,0.012267,0.0013718,0,0,0.030912,-0.0096495,0,0.0035668,0,0,0,0.036105,0.0047837,0.012267,2.5127,0.017718,0.028331,8.99e-07,0.22,0.37,0
0.0064313,0.0012693,0.036134,0.0044382,0.012172,0.0013232,0,0,0.031151,-0.010053,0,0.0034403,0,0,0,0.036189,0.004383,0.012172,2.3864,0.017581,0.028715,9.2115e-07,0.23,0.37,0
0.0067439,0.0013226,0.036218,0.0040363,0.012076,0.0012762,0,0,0.031384,-0.010452,0,0.0033181,0,0,0,0.036269,0.0039857,0.012076,2.2673,0.017444,0.029094,9.4281e-07,0.24,0.37,0
0.0070589,0.0013756,0.036298,0.003638,0.011981,0.0012311,0,0,0.031613,-0.010846,0,0.0032009,0,0,0,0.036345,0.0035916,0.011981,2.1557,0.017306,0.029468,9.6399e-07,0.25,0.37,0
0.0073762,0.001428,0.036374,0.0032431,0.011885,0.0011883,0,0,0.031836,-0.011235,0,0.0030895,0,0,0,0.036417,0.0032005,0.011885,2.0514,0.017167,0.029837,9.8469e-07,0.26,0.37,0
0.0076957,0.0014801,0.036446,0.0028514,0.011789,0.0011479,0,0,0.032054,-0.011619,0,0.0029845,0,0,0,0.036486,0.0028122,0.011789,1.9547,0.017029,0.030203,1.0049e-06,0.27,0.37,0
0.0080173,0.0015317,0.036515,0.0024626,0.011693,0.0011102,0,0,0.032269,-0.012,0,0.0028865,0,0,0,0.036552,0.0024264,0.011693,1.8653,0.01689,0.030564,1.0248e-06,0.28,0.37,0
0.008341,0.001583,0.036581,0.0020763,0.011597,0.0010753,0,0,0.032479,-0.012377,0,0.0027956,0,0,0,0.036615,0.0020428,0.011597,1.7832,0.016752,0.030922,1.0441e-06,0.29,0.37,0
0.0086669,0.0016338,0.036645,0.0016923,0.011501,0.0010432,0,0,0.032687,-0.012751,0,0.0027122,0,0,0,0.036676,0.0016612,0.011501,1.708,0.016613,0.031278,1.0631e-06,0.3,0.37,0
0.0089948,0.0016843,0.036706,0.0013102,0.011405,0.001014,0,0,0.032891,-0.013123,0,0.0026363,0,0,0,0.036735,0.0012812,0.011405,1.6395,0.016473,0.031631,1.0818e-06,0.31,0.37,0
0.0093247,0.0017345,0.036765,0.00092979,0.011308,0.00098759,0,0,0.033093,-0.013492,0,0.0025677,0,0,0,0.036792,0.00090259,0.011308,1.5774,0.016334,0.031982,1.1001e-06,0.32,0.37,0
0.0096566,0.0017844,0.036822,0.00055065,0.011212,0.00096396,0,0,0.033293,-0.01386,0,0.0025063,0,0,0,0.036848,0.00052505,0.011212,1.5213,0.016195,0.032332,1.1181e-06,0.33,0.37,0
0.0099906,0.001834,0.036878,0.00017253,0.011115,0.00094294,0,0,0.033492,-0.014226,0,0.0024517,0,0,0,0.036902,0.00014833,0.011115,1.4706,0.016055,0.032681,1.1359e-06,0.34,0.37,0
0.010327,0.0018834,0.036933,-0.00020482,0.011019,0.00092434,0,0,0.033689,-0.01459,0,0.0024033,0,0,0,0.036956,-0.00022781,0.011019,1.4249,0.015916,0.03303,1.1533e-06,0.35,0.37,0
0.010664,0.0019325,0.036988,-0.00058163,0.010922,0.00090794,0,0,0.033886,-0.014955,0,0.0023606,0,0,0,0.03701,-0.00060356,0.010922,1.3836,0.015776,0.033378,1.1706e-06,0.36,0.37,0
0.011004,0.0019814,0.037042,-0.00095809,0.010825,0.00089344,0,0,0.034082,-0.015318,0,0.002323,0,0,0,0.037063,-0.00097908,0.010825,1.3461,0.015636,0.033727,1.1876e-06,0.37,0.37,0
0.011346,0.00203,0.037096,-0.0013343,0.010729,0.00088056,0,0,0.034278,-0.015682,0,0.0022895,0,0,0,0.037116,-0.0013545,0.010729,1.3119,0.015497,0.034076,1.2044e-06,0.38,0.37,0
0.01169,0.0020784,0.03715,-0.0017104,0.010632,0.00086895,0,0,0.034473,-0.016045,0,0.0022593,0,0,0,0.037169,-0.0017298,0.010632,1.2803,0.015357,0.034425,1.2211e-06,0.39,0.37,0
0.012035,0.0021266,0.037204,-0.0020863,0.010535,0.00085825,0,0,0.034669,-0.016408,0,0.0022314,0,0,0,0.037222,-0.002105,0.010535,1.2508,0.015218,0.034775,1.2375e-06,0.4,0.37,0
0.012383,0.0021745,0.037258,-0.0024621,0.010439,0.00084806,0,0,0.034865,-0.016771,0,0.002205,0,0,0,0.037276,-0.0024802,0.010439,1.2226,0.015078,0.035126,1.2538e-06,0.41,0.37,0
0.012733,0.0022221,0.037312,-0.0028376,0.010342,0.000838,0,0,0.035061,-0.017134,0,0.0021788,0,0,0,0.03733,-0.002855,0.010342,1.1952,0.014939,0.035478,1.2698e-06,0.42,0.37,0
0.013084,0.0022695,0.037367,-0.0032126,0.010246,0.00082766,0,0,0.035257,-0.017497,0,0.0021519,0,0,0,0.037384,-0.0032295,0.010246,1.168,0.0148,0.035829,1.2857e-06,0.43,0.37,0
0.013438,0.0023165,0.037422,-0.0035869,0.01015,0.00081663,0,0,0.035453,-0.017859,0,0.0021232,0,0,0,0.037438,-0.0036032,0.01015,1.1404,0.014662,0.036181,1.3013e-06,0.44,0.37,0
0.013793,0.0023632,0.037477,-0.0039603,0.010055,0.00080451,0,0,0.035649,-0.01822,0,0.0020917,0,0,0,0.037493,-0.0039759,0.010055,1.1119,0.014524,0.036533,1.3166e-06,0.45,0.37,0
0.014151,0.0024095,0.037532,-0.0043323,0.0099599,0.00079091,0,0,0.035844,-0.01858,0,0.0020564,0,0,0,0.037547,-0.0043472,0.0099599,1.0819,0.014387,0.036884,1.3317e-06,0.46,0.37,0
0.01451,0.0024554,0.037587,-0.0047025,0.0098653,0.00077544,0,0,0.036038,-0.018938,0,0.0020161,0,0,0,0.037601,-0.0047167,0.0098653,1.0501,0.01425,0.037234,1.3464e-06,0.47,0.37,0
0.014872,0.0025007,0.037641,-0.0050705,0.0097713,0.00075776,0,0,0.036231,-0.019294,0,0.0019702,0,0,0,0.037655,-0.0050839,0.0097713,1.0161,0.014114,0.037582,1.3608e-06,0.48,0.37,0
0.015235,0.0025455,0.037695,-0.0054357,0.0096779,0.00073754,0,0,0.036423,-0.019648,0,0.0019176,0,0,0,0.037708,-0.0054483,0.0096779,0.97937,0.013979,0.037927,1.3748e-06,0.49,0.37,0
0.0156,0.0025897,0.037733,-0.00031021,0.011227,0.00071646,0,0,0.050657,-0.019998,0,0.0027793,0,0,0,0.037747,-0.00032392,0.011227,1.0984,0.016217,0.033878,1.2021e-06,0.5,0.37,0
0.016248,0.0026516,0.037801,0.004948,0.012825,0.00069829,0,0,0.064937,-0.020479,0,0.0036311,0,0,0,0.037815,0.0049332,0.012825,1.2171,0.018524,0.029732,1.0362e-06,0.51,0.37,0
0.016899,0.0027124,0.037852,0.0047096,0.012768,0.00068069,0,0,0.065216,-0.020953,0,0.0035396,0,0,0,0.037866,0.0046956,0.012768,1.1761,0.018443,0.029961,1.0506e-06,0.52,0.37,0
0.017552,0.0027721,0.037901,0.0044753,0.012713,0.00066197,0,0,0.06549,-0.021418,0,0.0034423,0,0,0,0.037914,0.0044621,0.012713,1.1341,0.018363,0.030185,1.0647e-06,0.53,0.37,0
0.018209,0.0028306,0.03795,0.0042453,0.012658,0.00064214,0,0,0.065757,-0.021874,0,0.0033391,0,0,0,0.037962,0.0042331,0.012658,1.0911,0.018284,0.030405,1.0786e-06,0.54,0.37,0
0.018867,0.0028879,0.037997,0.00402,0.012605,0.0006212,0,0,0.066018,-0.022321,0,0.0032303,0,0,0,0.038008,0.0040087,0.012605,1.0471,0.018207,0.03062,1.092e-06,0.55,0.37,0
0.019529,0.0029438,0.038042,0.0037997,0.012552,0.00059922,0,0,0.066272,-0.022757,0,0.0031159,0,0,0,0.038052,0.0037892,0.012552,1.0022,0.018131,0.03083,1.1052e-06,0.56,0.37,0
0.020193,0.0029984,0.038085,0.0035846,0.012501,0.00057626,0,0,0.066519,-0.023182,0,0.0029965,0,0,0,0.038095,0.003575,0.012501,0.95665,0.018057,0.031035,1.1179e-06,0.57,0.37,0
0.020859,0.0030517,0.038127,0.0033751,0.01245,0.0005524,0,0,0.066758,-0.023596,0,0.0028725,0,0,0,0.038135,0.0033663,0.01245,0.91046,0.017984,0.031234,1.1302e-06,0.58,0.37,0
0.021528,0.0031034,0.038166,0.0031713,0.012401,0.00052778,0,0,0.066989,-0.023998,0,0.0027444,0,0,0,0.038174,0.0031633,0.012401,0.86385,0.017913,0.031427,1.142e-06,0.59,0.37,0
0.022199,0.0031537,0.038203,0.0029733,0.012353,0.0005025,0,0,0.067211,-0.024387,0,0.002613,0,0,0,0.038211,0.0029662,0.012353,0.81701,0.017843,0.031614,1.1534e-06,0.6,0.37,0
0.022872,0.0032025,0.038239,0.0027815,0.012306,0.00047671,0,0,0.067424,-0.024764,0,0.0024789,0,0,0,0.038245,0.0027751,0.012306,0.77014,0.017775,0.031794,1.1644e-06,0.61,0.37,0
0.023548,0.0032498,0.038271,0.002596,0.01226,0.00045055,0,0,0.067629,-0.025127,0,0.0023428,0,0,0,0.038277,0.0025903,0.01226,0.72344,0.017709,0.031968,1.1749e-06,0.62,0.37,0
0.024225,0.0032955,0.038302,0.0024167,0.012216,0.00042417,0,0,0.067825,-0.025477,0,0.0022057,0,0,0,0.038307,0.0024117,0.012216,0.67712,0.017645,0.032135,1.1848e-06,0.63,0.37,0
0.024904,0.0033395,0.038331,0.002244,0.012172,0.00039772,0,0,0.068011,-0.025814,0,0.0020682,0,0,0,0.038335,0.0022396,0.012172,0.63138,0.017582,0.032296,1.1943e-06,0.64,0.37,0
0.025585,0.003382,0.038357,0.0020777,0.01213,0.00037137,0,0,0.068189,-0.026137,0,0.0019311,0,0,0,0.03836,0.0020739,0.01213,0.58642,0.017522,0.032449,1.2033e-06,0.65,0.37,0
0.026268,0.0034229,0.038381,0.0019179,0.01209,0.00034524,0,0,0.068357,-0.026446,0,0.0017952,0,0,0,0.038384,0.0019146,0.01209,0.54243,0.017463,0.032595,1.2119e-06,0.66,0.37,0
0.026952,0.0034622,0.038402,0.0017646,0.01205,0.00031949,0,0,0.068516,-0.026742,0,0.0016613,0,0,0,0.038405,0.0017619,0.01205,0.49958,0.017406,0.032735,1.2199e-06,0.67,0.37,0
0.027638,0.0034998,0.038422,0.0016179,0.012012,0.00029424,0,0,0.068666,-0.027025,0,0.0015301,0,0,0,0.038424,0.0016155,0.012012,0.45803,0.017351,0.032868,1.2274e-06,0.68,0.37,0
0.028326,0.0035359,0.03844,0.0014776,0.011975,0.00026963,0,0,0.068808,-0.027294,0,0.0014021,0,0,0,0.038442,0.0014756,0.011975,0.41793,0.017298,0.032994,1.2345e-06,0.69,0.37,0
0.029014,0.0035703,0.038455,0.0013436,0.01194,0.00024577,0,0,0.068941,-0.02755,0,0.001278,0,0,0,0.038457,0.001342,0.01194,0.37941,0.017246,0.033113,1.2412e-06,0.7,0.37,0
0.029704,0.0036032,0.038469,0.001216,0.011905,0.00022275,0,0,0.069065,-0.027793,0,0.0011583,0,0,0,0.03847,0.0012147,0.011905,0.34257,0.017197,0.033226,1.2474e-06,0.71,0.37,0
0.030396,0.0036345,0.038481,0.0010945,0.011873,0.00020066,0,0,0.069182,-0.028023,0,0.0010435,0,0,0,0.038482,0.0010934,0.011873,0.30751,0.017149,0.033333,1.2532e-06,0.72,0.37,0
0.031088,0.0036643,0.038491,0.00097907,0.011841,0.00017959,0,0,0.06929,-0.028241,0,0.00093389,0,0,0,0.038492,0.00097821,0.011841,0.2743,0.017104,0.033433,1.2585e-06,0.73,0.37,0
0.031781,0.0036926,0.0385,0.00086958,0.011811,0.0001596,0,0,0.069391,-0.028447,0,0.00082994,0,0,0,0.0385,0.0008689,0.011811,0.24301,0.01706,0.033528,1.2635e-06,0.74,0.37,0
0.032476,0.0037195,0.038507,0.00076587,0.011782,0.00014074,0,0,0.069485,-0.028642,0,0.00073186,0,0,0,0.038507,0.00076535,0.011782,0.21366,0.017018,0.033616,1.2681e-06,0.75,0.37,0
0.033171,0.0037449,0.038513,0.00066781,0.011754,0.00012305,0,0,0.069572,-0.028824,0,0.00063987,0,0,0,0.038513,0.00066741,0.011754,0.18629,0.016978,0.033699,1.2723e-06,0.76,0.37,0
0.033867,0.0037689,0.038517,0.00057524,0.011728,0.00010656,0,0,0.069653,-0.028997,0,0.0005541,0,0,0,0.038518,0.00057494,0.011728,0.16091,0.01694,0.033777,1.2762e-06,0.77,0.37,0
0.034564,0.0037915,0.038521,0.00048801,0.011703,9.1277e-05,0,0,0.069727,-0.029158,0,0.00047464,0,0,0,0.038521,0.00048779,0.011703,0.13751,0.016904,0.033849,1.2797e-06,0.78,0.37,0
0.035262,0.0038128,0.038523,0.00040596,0.011679,7.7217e-05,0,0,0.069795,-0.029309,0,0.00040153,0,0,0,0.038523,0.00040581,0.011679,0.11607,0.016869,0.033917,1.283e-06,0.79,0.37,0
0.03596,0.0038327,0.038525,0.00032894,0.011656,6.4373e-05,0,0,0.069858,-0.029451,0,0.00033474,0,0,0,0.038525,0.00032883,0.011656,0.096563,0.016837,0.033979,1.286e-06,0.8,0.37,0
0.036659,0.0038515,0.038525,0.00025678,0.011635,5.2733e-05,0,0,0.069916,-0.029583,0,0.00027421,0,0,0,0.038525,0.00025671,0.011635,0.078951,0.016806,0.034037,1.2887e-06,0.81,0.37,0
0.037358,0.003869,0.038525,0.00018934,0.011614,4.2275e-05,0,0,0.069969,-0.029705,0,0.00021983,0,0,0,0.038525,0.00018929,0.011614,0.063183,0.016776,0.034091,1.2912e-06,0.82,0.37,0
0.038058,0.0038853,0.038525,0.00012647,0.011595,3.2972e-05,0,0,0.070017,-0.029819,0,0.00017145,0,0,0,0.038525,0.00012644,0.011595,0.049198,0.016749,0.034141,1.2934e-06,0.83,0.37,0
0.038759,0.0039005,0.038524,6.8016e-05,0.011578,2.4786e-05,0,0,0.07006,-0.029925,0,0.00012889,0,0,0,0.038524,6.8e-05,0.011578,0.036929,0.016723,0.034187,1.2954e-06,0.84,0.37,0
0.03946,0.0039145,0.038523,1.3848e-05,0.011561,1.7678e-05,0,0,0.0701,-0.030022,0,9.1926e-05,0,0,0,0.038523,1.384e-05,0.011561,0.026303,0.016699,0.034229,1.2972e-06,0.85,0.37,0
0.040161,0.0039275,0.038521,-3.6169e-05,0.011545,1.1599e-05,0,0,0.070136,-0.030112,0,6.0318e-05,0,0,0,0.038521,-3.6173e-05,0.011545,0.017237,0.016677,0.034267,1.2989e-06,0.86,0.37,0
0.040862,0.0039394,0.038519,-8.2164e-05,0.011531,6.4992e-06,0,0,0.070168,-0.030194,0,3.3796e-05,0,0,0,0.038519,-8.2166e-05,0.011531,0.0096468,0.016656,0.034302,1.3003e-06,0.87,0.37,0
0.041564,0.0039503,0.038517,-0.00012426,0.011518,2.3209e-06,0,0,0.070197,-0.030269,0,1.2069e-05,0,0,0,0.038517,-0.00012426,0.011518,0.0034414,0.016637,0.034334,1.3016e-06,0.88,0.37,0
0.042266,0.0039603,0.038514,-0.00016256,0.011506,-9.9491e-07,0,0,0.070223,-0.030337,0,-5.1735e-06,0,0,0,0.038514,-0.00016256,0.011506,-0.0014739,0.016619,0.034362,1.3028e-06,0.89,0.37,0
0.042969,0.0039692,0.038512,-0.00019717,0.011494,-3.5111e-06,0,0,0.070246,-0.030398,0,-1.8257e-05,0,0,0,0.038512,-0.00019717,0.011494,-0.0051969,0.016603,0.034388,1.3038e-06,0.9,0.37,0
0.043671,0.0039772,0.03851,-0.0002282,0.011484,-5.2931e-06,0,0,0.070266,-0.030453,0,-2.7524e-05,0,0,0,0.03851,-0.0002282,0.011484,-0.0078288,0.016589,0.034411,1.3047e-06,0.91,0.37,0
0.044374,0.0039844,0.038508,-0.00025572,0.011476,-6.4088e-06,0,0,0.070284,-0.030502,0,-3.3326e-05,0,0,0,0.038508,-0.00025572,0.011476,-0.0094728,0.016576,0.034431,1.3054e-06,0.92,0.37,0
0.045077,0.0039906,0.038506,-0.00027981,0.011468,-6.9281e-06,0,0,0.070299,-0.030544,0,-3.6026e-05,0,0,0,0.038506,-0.00027981,0.011468,-0.010235,0.016565,0.034448,1.3061e-06,0.93,0.37,0
0.04578,0.003996,0.038504,-0.00030055,0.011461,-6.9223e-06,0,0,0.070312,-0.03058,0,-3.5996e-05,0,0,0,0.038504,-0.00030055,0.011461,-0.010221,0.016555,0.034463,1.3067e-06,0.94,0.37,0
0.046483,0.0040005,0.038502,-0.000318,0.011455,-6.4642e-06,0,0,0.070322,-0.030611,0,-3.3614e-05,0,0,0,0.038502,-0.000318,0.011455,-0.0095406,0.016547,0.034476,1.3071e-06,0.95,0.37,0
0.047186,0.0040041,0.038501,-0.0003322,0.011451,-5.6276e-06,0,0,0.070331,-0.030635,0,-2.9264e-05,0,0,0,0.038501,-0.00033221,0.011451,-0.0083032,0.01654,0.034486,1.3075e-06,0.96,0.37,0
0.04789,0.004007,0.0385,-0.00034321,0.011447,-4.4873e-06,0,0,0.070338,-0.030655,0,-2.3334e-05,0,0,0,0.0385,-0.00034321,0.011447,-0.006619,0.016535,0.034494,1.3078e-06,0.97,0.37,0
0.048593,0.004009,0.038499,-0.00035104,0.011444,-3.1187e-06,0,0,0.070342,-0.030668,0,-1.6217e-05,0,0,0,0.038499,-0.00035104,0.011444,-0.0045993,0.016531,0.0345,1.3079e-06,0.98,0.37,0
0.049297,0.0040102,0.038499,-0.00035574,0.011443,-1.5975e-06,0,0,0.070345,-0.030676,0,-8.307e-06,0,0,0,0.038499,-0.00035574,0.011443,-0.0023557,0.016529,0.034503,1.3081e-06,0.99,0.37,0
0.05,0.0040106,0.038499,-0.0003573,0.011442,7.7541e-06,0,0,0.070346,-0.030679,0,4.0321e-05,0,0,0,0.038499,-0.0003573,0.011442,0.011434,0.016528,0.034504,1.3081e-06,1,0.37,0
0,0,0.03313,0.014199,0.014199,0.0017752,0,0,0.024611,-2.7105e-20,0,0.0046156,0,0,0,0.033295,0.014034,0.014199,5.3111,0.020509,0.019179,3.6227e-07,0,0.38,0
0.00024611,4.6156e-05,0.033092,0.013738,0.014049,0.0017772,0,0,0.024756,-0.00040473,0,0.0046208,0,0,0,0.033254,0.013576,0.014049,5.2031,0.020293,0.019446,3.7693e-07,0.01,0.38,0
0.00049513,9.3392e-05,0.033249,0.013349,0.013979,0.0017966,0,0,0.02505,-0.00081921,0,0.0046712,0,0,0,0.03341,0.013188,0.013979,5.1178,0.020192,0.019838,3.988e-07,0.02,0.38,0
0.00074711,0.00014161,0.033406,0.012952,0.013907,0.0018107,0,0,0.025349,-0.0012424,0,0.0047079,0,0,0,0.033565,0.012793,0.013907,5.02,0.020089,0.020238,4.214e-07,0.03,0.38,0
0.0010021,0.00019071,0.033565,0.012546,0.013833,0.0018194,0,0,0.025651,-0.0016731,0,0.0047305,0,0,0,0.033721,0.01239,0.013833,4.9111,0.019982,0.020647,4.4464e-07,0.04,0.38,0
0.0012601,0.00024059,0.033723,0.012134,0.013757,0.0018227,0,0,0.025956,-0.0021102,0,0.004739,0,0,0,0.033876,0.011981,0.013757,4.792,0.019872,0.021063,4.6847e-07,0.05,0.38,0
0.0015212,0.00029115,0.033882,0.011716,0.013679,0.0018205,0,0,0.026263,-0.0025526,0,0.0047334,0,0,0,0.03403,0.011567,0.013679,4.6642,0.019759,0.021485,4.928e-07,0.06,0.38,0
0.0017854,0.00034229,0.034039,0.011292,0.013599,0.0018131,0,0,0.026571,-0.0029992,0,0.004714,0,0,0,0.034182,0.011149,0.013599,4.5288,0.019643,0.021911,5.1758e-07,0.07,0.38,0
0.0020527,0.00039389,0.034194,0.010865,0.013518,0.0018004,0,0,0.026879,-0.0034488,0,0.0046811,0,0,0,0.034332,0.010727,0.013518,4.3871,0.019526,0.022341,5.4271e-07,0.08,0.38,0
0.002323,0.00044587,0.034347,0.010434,0.013435,0.0017828,0,0,0.027187,-0.0039003,0,0.0046353,0,0,0,0.03448,0.010302,0.013435,4.2403,0.019405,0.022773,5.6811e-07,0.09,0.38,0
0.0025964,0.00049813,0.034498,0.010002,0.01335,0.0017605,0,0,0.027493,-0.0043528,0,0.0045773,0,0,0,0.034624,0.0098757,0.01335,4.0897,0.019283,0.023207,5.9371e-07,0.1,0.38,0
0.0028728,0.00055057,0.034646,0.0095677,0.013264,0.0017339,0,0,0.027796,-0.0048052,0,0.0045081,0,0,0,0.034765,0.0094484,0.013264,3.9364,0.019159,0.023641,6.1942e-07,0.11,0.38,0
0.0031523,0.0006031,0.034789,0.0091333,0.013177,0.0017032,0,0,0.028096,-0.0052566,0,0.0044284,0,0,0,0.034902,0.0090207,0.013177,3.7816,0.019033,0.024074,6.4517e-07,0.12,0.38,0
0.0034348,0.00065565,0.034929,0.0086992,0.013089,0.0016691,0,0,0.028393,-0.0057062,0,0.0043396,0,0,0,0.035035,0.0085935,0.013089,3.6263,0.018906,0.024505,6.7088e-07,0.13,0.38,0
0.0037202,0.00070814,0.035065,0.0082661,0.012999,0.0016318,0,0,0.028685,-0.0061532,0,0.0042426,0,0,0,0.035164,0.0081671,0.012999,3.4716,0.018777,0.024935,6.9648e-07,0.14,0.38,0
0.0040085,0.0007605,0.035196,0.0078346,0.012909,0.0015918,0,0,0.028973,-0.0065971,0,0.0041388,0,0,0,0.035289,0.0077423,0.012909,3.3184,0.018647,0.025361,7.2192e-07,0.15,0.38,0
0.0042996,0.00081268,0.035323,0.0074051,0.012818,0.0015498,0,0,0.029256,-0.0070373,0,0.0040294,0,0,0,0.035409,0.0073193,0.012818,3.1676,0.018515,0.025783,7.4712e-07,0.16,0.38,0
0.0045936,0.00086461,0.035444,0.0069782,0.012727,0.001506,0,0,0.029533,-0.0074732,0,0.0039156,0,0,0,0.035524,0.0068987,0.012727,3.02,0.018383,0.026202,7.7203e-07,0.17,0.38,0
0.0048903,0.00091625,0.035561,0.0065541,0.012635,0.0014611,0,0,0.029805,-0.0079046,0,0.0037988,0,0,0,0.035634,0.0064807,0.012635,2.8762,0.01825,0.026616,7.9662e-07,0.18,0.38,0
0.0051897,0.00096757,0.035673,0.0061332,0.012542,0.0014154,0,0,0.03007,-0.0083312,0,0.0036801,0,0,0,0.03574,0.0060655,0.012542,2.737,0.018116,0.027025,8.2083e-07,0.19,0.38,0
0.0054917,0.0010185,0.035779,0.0057156,0.012448,0.0013696,0,0,0.03033,-0.0087528,0,0.0035609,0,0,0,0.035842,0.0056533,0.012448,2.6029,0.017981,0.027429,8.4465e-07,0.2,0.38,0
0.0057963,0.0010691,0.035881,0.0053015,0.012355,0.0013239,0,0,0.030584,-0.0091693,0,0.0034422,0,0,0,0.035938,0.0052443,0.012355,2.4744,0.017846,0.027829,8.6804e-07,0.21,0.38,0
0.0061034,0.0011193,0.035978,0.004891,0.012261,0.0012789,0,0,0.030833,-0.0095808,0,0.0033252,0,0,0,0.036031,0.0048384,0.012261,2.3518,0.01771,0.028223,8.9099e-07,0.22,0.38,0
0.0064129,0.0011691,0.036071,0.0044839,0.012166,0.0012349,0,0,0.031076,-0.0099872,0,0.0032108,0,0,0,0.036119,0.0044357,0.012166,2.2355,0.017574,0.028612,9.1348e-07,0.23,0.38,0
0.0067249,0.0012185,0.036159,0.0040803,0.012072,0.0011923,0,0,0.031313,-0.010389,0,0.0031,0,0,0,0.036203,0.0040361,0.012072,2.1257,0.017437,0.028997,9.3552e-07,0.24,0.38,0
0.0070392,0.0012674,0.036243,0.0036801,0.011977,0.0011513,0,0,0.031546,-0.010786,0,0.0029935,0,0,0,0.036283,0.0036394,0.011977,2.0225,0.0173,0.029376,9.571e-07,0.25,0.38,0
0.0073558,0.001316,0.036323,0.003283,0.011882,0.0011123,0,0,0.031773,-0.011178,0,0.0028921,0,0,0,0.03636,0.0032456,0.011882,1.9261,0.017162,0.029752,9.7823e-07,0.26,0.38,0
0.0076747,0.0013642,0.036399,0.0028888,0.011786,0.0010755,0,0,0.031996,-0.011567,0,0.0027962,0,0,0,0.036434,0.0028544,0.011786,1.8363,0.017025,0.030123,9.9893e-07,0.27,0.38,0
0.0079957,0.001412,0.036472,0.0024974,0.011691,0.0010409,0,0,0.032216,-0.011952,0,0.0027064,0,0,0,0.036504,0.0024656,0.011691,1.7532,0.016887,0.030491,1.0192e-06,0.28,0.38,0
0.008319,0.0014594,0.036542,0.0021085,0.011595,0.0010088,0,0,0.032431,-0.012333,0,0.0026229,0,0,0,0.036572,0.002079,0.011595,1.6767,0.016749,0.030856,1.0391e-06,0.29,0.38,0
0.0086444,0.0015065,0.03661,0.0017218,0.011499,0.0009792,0,0,0.032643,-0.012711,0,0.0025459,0,0,0,0.036637,0.0016943,0.011499,1.6064,0.01661,0.031217,1.0586e-06,0.3,0.38,0
0.0089718,0.0015533,0.036675,0.001337,0.011404,0.00095212,0,0,0.032853,-0.013086,0,0.0024755,0,0,0,0.0367,0.0013114,0.011404,1.5422,0.016472,0.031577,1.0777e-06,0.31,0.38,0
0.0093014,0.0015998,0.036738,0.00095391,0.011308,0.00092754,0,0,0.033059,-0.01346,0,0.0024116,0,0,0,0.036762,0.00092988,0.011308,1.4838,0.016333,0.031934,1.0965e-06,0.32,0.38,0
0.009633,0.001646,0.036799,0.00057222,0.011211,0.00090538,0,0,0.033264,-0.013831,0,0.002354,0,0,0,0.036822,0.00054961,0.011211,1.4307,0.016194,0.03229,1.115e-06,0.33,0.38,0
0.0099667,0.0016919,0.03686,0.00019172,0.011115,0.00088552,0,0,0.033467,-0.014201,0,0.0023024,0,0,0,0.036881,0.00017034,0.011115,1.3826,0.016056,0.032644,1.1331e-06,0.34,0.38,0
0.010302,0.0017376,0.036919,-0.00018783,0.011019,0.0008678,0,0,0.033669,-0.014569,0,0.0022563,0,0,0,0.036939,-0.00020811,0.011019,1.339,0.015917,0.032998,1.1511e-06,0.35,0.38,0
0.01064,0.001783,0.036977,-0.0005666,0.010923,0.00085201,0,0,0.03387,-0.014937,0,0.0022152,0,0,0,0.036996,-0.00058592,0.010923,1.2994,0.015778,0.033352,1.1687e-06,0.36,0.38,0
0.01098,0.0018283,0.037034,-0.00094472,0.010827,0.00083791,0,0,0.03407,-0.015303,0,0.0021786,0,0,0,0.037053,-0.0009632,0.010827,1.2633,0.015639,0.033705,1.1862e-06,0.37,0.38,0
0.011321,0.0018732,0.037091,-0.0013223,0.010731,0.00082523,0,0,0.034269,-0.015669,0,0.0021456,0,0,0,0.037109,-0.00134,0.010731,1.2301,0.0155,0.034058,1.2033e-06,0.38,0.38,0
0.011665,0.001918,0.037148,-0.0016994,0.010635,0.00081366,0,0,0.034468,-0.016034,0,0.0021155,0,0,0,0.037165,-0.0017165,0.010635,1.1993,0.015361,0.034411,1.2203e-06,0.39,0.38,0
0.012011,0.0019625,0.037205,-0.002076,0.010539,0.00080289,0,0,0.034666,-0.016399,0,0.0020875,0,0,0,0.037221,-0.0020924,0.010539,1.1704,0.015223,0.034764,1.2371e-06,0.4,0.38,0
0.012358,0.0020068,0.037262,-0.0024521,0.010443,0.00079257,0,0,0.034865,-0.016764,0,0.0020607,0,0,0,0.037278,-0.0024679,0.010443,1.1428,0.015084,0.035118,1.2536e-06,0.41,0.38,0
0.012708,0.0020508,0.037319,-0.0028275,0.010347,0.00078235,0,0,0.035063,-0.017127,0,0.0020341,0,0,0,0.037334,-0.0028427,0.010347,1.116,0.014946,0.035471,1.2699e-06,0.42,0.38,0
0.01306,0.0020946,0.037375,-0.0032021,0.010252,0.00077187,0,0,0.03526,-0.01749,0,0.0020069,0,0,0,0.03739,-0.0032167,0.010252,1.0894,0.014808,0.035825,1.2859e-06,0.43,0.38,0
0.013413,0.002138,0.037432,-0.0035755,0.010157,0.00076077,0,0,0.035458,-0.017852,0,0.001978,0,0,0,0.037446,-0.0035897,0.010157,1.0624,0.014671,0.036177,1.3017e-06,0.44,0.38,0
0.013769,0.0021811,0.037489,-0.0039477,0.010062,0.00074867,0,0,0.035654,-0.018213,0,0.0019465,0,0,0,0.037502,-0.0039612,0.010062,1.0348,0.014534,0.03653,1.3172e-06,0.45,0.38,0
0.014126,0.0022238,0.037545,-0.0043181,0.0099681,0.00073524,0,0,0.03585,-0.018572,0,0.0019116,0,0,0,0.037558,-0.004331,0.0099681,1.0059,0.014398,0.03688,1.3324e-06,0.46,0.38,0
0.014486,0.0022661,0.037601,-0.0046863,0.0098744,0.00072013,0,0,0.036045,-0.018929,0,0.0018724,0,0,0,0.037613,-0.0046986,0.0098744,0.97534,0.014263,0.03723,1.3473e-06,0.47,0.38,0
0.014847,0.0023079,0.037657,-0.005052,0.0097813,0.00070303,0,0,0.036238,-0.019283,0,0.0018279,0,0,0,0.037668,-0.0050636,0.0097813,0.94281,0.014129,0.037577,1.3617e-06,0.48,0.38,0
0.015211,0.0023491,0.037711,-0.0054147,0.0096889,0.00068362,0,0,0.036429,-0.019635,0,0.0017774,0,0,0,0.037722,-0.0054255,0.0096889,0.90793,0.013995,0.037921,1.3758e-06,0.49,0.38,0
0.015576,0.0023898,0.03775,-0.00029041,0.011238,0.00066355,0,0,0.050669,-0.019982,0,0.0025739,0,0,0,0.037762,-0.00030217,0.011238,1.0174,0.016232,0.033874,1.2029e-06,0.5,0.38,0
0.016224,0.0024469,0.037817,0.0049645,0.012835,0.00064646,0,0,0.064955,-0.020462,0,0.0033616,0,0,0,0.03783,0.0049518,0.012835,1.1268,0.018539,0.029731,1.0367e-06,0.51,0.38,0
0.016875,0.002503,0.037869,0.0047271,0.012779,0.00063003,0,0,0.065234,-0.020934,0,0.0032762,0,0,0,0.037881,0.0047151,0.012779,1.0887,0.018458,0.029959,1.0511e-06,0.52,0.38,0
0.017529,0.002558,0.037919,0.0044938,0.012724,0.00061264,0,0,0.065507,-0.021398,0,0.0031857,0,0,0,0.03793,0.0044826,0.012724,1.0497,0.018379,0.030183,1.0653e-06,0.53,0.38,0
0.018185,0.002612,0.037968,0.0042649,0.01267,0.00059427,0,0,0.065774,-0.021853,0,0.0030902,0,0,0,0.037978,0.0042544,0.01267,1.0099,0.018301,0.030402,1.0791e-06,0.54,0.38,0
0.018844,0.0026648,0.038015,0.0040407,0.012617,0.00057494,0,0,0.066035,-0.022298,0,0.0029897,0,0,0,0.038025,0.0040309,0.012617,0.96923,0.018224,0.030617,1.0926e-06,0.55,0.38,0
0.019506,0.0027164,0.03806,0.0038213,0.012564,0.00055469,0,0,0.066289,-0.022732,0,0.0028844,0,0,0,0.038069,0.0038123,0.012564,0.92789,0.018149,0.030827,1.1058e-06,0.56,0.38,0
0.02017,0.0027668,0.038104,0.0036071,0.012513,0.00053358,0,0,0.066536,-0.023156,0,0.0027746,0,0,0,0.038112,0.0035989,0.012513,0.88593,0.018075,0.031032,1.1185e-06,0.57,0.38,0
0.020837,0.0028158,0.038146,0.0033984,0.012463,0.00051169,0,0,0.066775,-0.023569,0,0.0026608,0,0,0,0.038153,0.0033908,0.012463,0.84348,0.018003,0.031231,1.1308e-06,0.58,0.38,0
0.021506,0.0028636,0.038186,0.0031952,0.012414,0.00048911,0,0,0.067006,-0.02397,0,0.0025434,0,0,0,0.038193,0.0031884,0.012414,0.80069,0.017932,0.031424,1.1428e-06,0.59,0.38,0
0.022177,0.00291,0.038224,0.0029979,0.012366,0.00046595,0,0,0.067229,-0.024358,0,0.002423,0,0,0,0.03823,0.0029917,0.012366,0.75771,0.017863,0.031611,1.1542e-06,0.6,0.38,0
0.02285,0.002955,0.038259,0.0028065,0.01232,0.00044234,0,0,0.067443,-0.024734,0,0.0023002,0,0,0,0.038265,0.0028009,0.01232,0.71473,0.017795,0.031792,1.1652e-06,0.61,0.38,0
0.023526,0.0029987,0.038293,0.0026212,0.012274,0.0004184,0,0,0.067649,-0.025098,0,0.0021757,0,0,0,0.038298,0.0026163,0.012274,0.67191,0.017729,0.031966,1.1758e-06,0.62,0.38,0
0.024203,0.0030408,0.038324,0.0024421,0.01223,0.00039426,0,0,0.067845,-0.025448,0,0.0020502,0,0,0,0.038329,0.0024378,0.01223,0.62944,0.017665,0.032134,1.1859e-06,0.63,0.38,0
0.024882,0.0030815,0.038353,0.0022693,0.012187,0.00037005,0,0,0.068033,-0.025785,0,0.0019243,0,0,0,0.038357,0.0022655,0.012187,0.58751,0.017603,0.032295,1.1954e-06,0.64,0.38,0
0.025564,0.0031208,0.03838,0.0021029,0.012145,0.00034592,0,0,0.068212,-0.02611,0,0.0017988,0,0,0,0.038384,0.0020996,0.012145,0.54627,0.017543,0.032449,1.2046e-06,0.65,0.38,0
0.026247,0.0031586,0.038405,0.0019428,0.012104,0.00032199,0,0,0.068382,-0.02642,0,0.0016743,0,0,0,0.038408,0.00194,0.012104,0.5059,0.017484,0.032597,1.2132e-06,0.66,0.38,0
0.026931,0.0031949,0.038428,0.0017891,0.012065,0.00029838,0,0,0.068543,-0.026718,0,0.0015516,0,0,0,0.03843,0.0017867,0.012065,0.46656,0.017427,0.032738,1.2213e-06,0.67,0.38,0
0.027617,0.0032297,0.038448,0.0016419,0.012027,0.00027522,0,0,0.068695,-0.027002,0,0.0014311,0,0,0,0.03845,0.0016398,0.012027,0.4284,0.017372,0.032872,1.229e-06,0.68,0.38,0
0.028305,0.003263,0.038467,0.0015009,0.01199,0.00025262,0,0,0.068839,-0.027273,0,0.0013136,0,0,0,0.038469,0.0014992,0.01199,0.39153,0.017319,0.032999,1.2363e-06,0.69,0.38,0
0.028994,0.0032949,0.038483,0.0013662,0.011955,0.00023069,0,0,0.068974,-0.027531,0,0.0011996,0,0,0,0.038485,0.0013647,0.011955,0.35608,0.017268,0.03312,1.2431e-06,0.7,0.38,0
0.029685,0.0033253,0.038498,0.0012377,0.011921,0.00020951,0,0,0.069101,-0.027776,0,0.0010894,0,0,0,0.038499,0.0012365,0.011921,0.32215,0.017219,0.033235,1.2494e-06,0.71,0.38,0
0.030376,0.0033544,0.038511,0.0011152,0.011888,0.00018917,0,0,0.06922,-0.028009,0,0.00098367,0,0,0,0.038512,0.0011143,0.011888,0.28982,0.017171,0.033343,1.2553e-06,0.72,0.38,0
0.031069,0.003382,0.038522,0.00099883,0.011856,0.00016974,0,0,0.069332,-0.02823,0,0.00088263,0,0,0,0.038523,0.00099806,0.011856,0.25917,0.017126,0.033445,1.2608e-06,0.73,0.38,0
0.031763,0.0034082,0.038532,0.00088828,0.011826,0.00015128,0,0,0.069435,-0.028438,0,0.00078664,0,0,0,0.038533,0.00088767,0.011826,0.23025,0.017082,0.033541,1.266e-06,0.74,0.38,0
0.032458,0.0034331,0.03854,0.00078347,0.011797,0.00013384,0,0,0.069532,-0.028635,0,0.00069594,0,0,0,0.038541,0.000783,0.011797,0.20309,0.01704,0.033632,1.2707e-06,0.75,0.38,0
0.033154,0.0034566,0.038547,0.00068428,0.011769,0.00011745,0,0,0.069622,-0.028821,0,0.00061074,0,0,0,0.038547,0.00068392,0.011769,0.17773,0.017,0.033716,1.2751e-06,0.76,0.38,0
0.03385,0.0034789,0.038552,0.00059056,0.011743,0.00010215,0,0,0.069705,-0.028996,0,0.00053119,0,0,0,0.038553,0.00059028,0.011743,0.15418,0.016962,0.033796,1.2791e-06,0.77,0.38,0
0.034548,0.0034999,0.038557,0.00050216,0.011718,8.7953e-05,0,0,0.069782,-0.02916,0,0.00045736,0,0,0,0.038557,0.00050196,0.011718,0.13242,0.016926,0.03387,1.2828e-06,0.78,0.38,0
0.035246,0.0035196,0.03856,0.00041894,0.011694,7.4865e-05,0,0,0.069853,-0.029314,0,0.0003893,0,0,0,0.03856,0.00041879,0.011694,0.11246,0.016891,0.033939,1.2862e-06,0.79,0.38,0
0.035945,0.0035382,0.038562,0.00034075,0.011671,6.2884e-05,0,0,0.069918,-0.029459,0,0.000327,0,0,0,0.038563,0.00034065,0.011671,0.094265,0.016858,0.034003,1.2894e-06,0.8,0.38,0
0.036644,0.0035556,0.038564,0.00026745,0.01165,5.2002e-05,0,0,0.069978,-0.029593,0,0.00027041,0,0,0,0.038564,0.00026738,0.01165,0.0778,0.016827,0.034063,1.2922e-06,0.81,0.38,0
0.037344,0.0035719,0.038565,0.00019889,0.011629,4.22e-05,0,0,0.070033,-0.029719,0,0.00021944,0,0,0,0.038565,0.00019885,0.011629,0.063021,0.016798,0.034119,1.2948e-06,0.82,0.38,0
0.038045,0.003587,0.038565,0.00013493,0.01161,3.3454e-05,0,0,0.070083,-0.029835,0,0.00017396,0,0,0,0.038565,0.0001349,0.01161,0.049877,0.01677,0.03417,1.2972e-06,0.83,0.38,0
0.038746,0.0036011,0.038565,7.5423e-05,0.011592,2.5733e-05,0,0,0.070129,-0.029943,0,0.00013381,0,0,0,0.038565,7.5406e-05,0.011592,0.038307,0.016744,0.034217,1.2993e-06,0.84,0.38,0
0.039448,0.0036142,0.038564,2.0243e-05,0.011575,1.9001e-05,0,0,0.070171,-0.030043,0,9.8803e-05,0,0,0,0.038564,2.0234e-05,0.011575,0.028245,0.01672,0.03426,1.3012e-06,0.85,0.38,0
0.040149,0.0036263,0.038563,-3.0739e-05,0.01156,1.3214e-05,0,0,0.070208,-0.030135,0,6.8714e-05,0,0,0,0.038563,-3.0744e-05,0.01156,0.019618,0.016697,0.0343,1.3029e-06,0.86,0.38,0
0.040852,0.0036374,0.038561,-7.7648e-05,0.011545,8.3275e-06,0,0,0.070243,-0.030219,0,4.3303e-05,0,0,0,0.038561,-7.765e-05,0.011545,0.012348,0.016676,0.034336,1.3045e-06,0.87,0.38,0
0.041554,0.0036475,0.03856,-0.0001206,0.011532,4.2899e-06,0,0,0.070273,-0.030296,0,2.2308e-05,0,0,0,0.03856,-0.0001206,0.011532,0.0063545,0.016657,0.034369,1.3059e-06,0.88,0.38,0
0.042257,0.0036567,0.038558,-0.0001597,0.01152,1.0473e-06,0,0,0.070301,-0.030366,0,5.4458e-06,0,0,0,0.038558,-0.0001597,0.01152,0.0015498,0.016639,0.034399,1.3071e-06,0.89,0.38,0
0.04296,0.0036651,0.038556,-0.00019505,0.011508,-1.4577e-06,0,0,0.070325,-0.030429,0,-7.5801e-06,0,0,0,0.038556,-0.00019505,0.011508,-0.0021553,0.016623,0.034426,1.3082e-06,0.9,0.38,0
0.043664,0.0036726,0.038555,-0.00022675,0.011498,-3.2849e-06,0,0,0.070346,-0.030485,0,-1.7081e-05,0,0,0,0.038555,-0.00022675,0.011498,-0.0048531,0.016609,0.034449,1.3091e-06,0.91,0.38,0
0.044367,0.0036792,0.038553,-0.00025488,0.011489,-4.4965e-06,0,0,0.070365,-0.030535,0,-2.3382e-05,0,0,0,0.038553,-0.00025488,0.011489,-0.0066386,0.016596,0.03447,1.31e-06,0.92,0.38,0
0.045071,0.003685,0.038551,-0.00027951,0.011482,-5.1566e-06,0,0,0.070381,-0.030579,0,-2.6814e-05,0,0,0,0.038551,-0.00027951,0.011482,-0.0076087,0.016584,0.034488,1.3107e-06,0.93,0.38,0
0.045775,0.00369,0.03855,-0.00030073,0.011475,-5.3309e-06,0,0,0.070395,-0.030616,0,-2.7721e-05,0,0,0,0.03855,-0.00030073,0.011475,-0.007862,0.016574,0.034504,1.3113e-06,0.94,0.38,0
0.046479,0.0036942,0.038548,-0.00031857,0.011469,-5.0867e-06,0,0,0.070406,-0.030647,0,-2.6451e-05,0,0,0,0.038548,-0.00031857,0.011469,-0.0074986,0.016566,0.034517,1.3118e-06,0.95,0.38,0
0.047183,0.0036976,0.038547,-0.0003331,0.011464,-4.492e-06,0,0,0.070416,-0.030673,0,-2.3359e-05,0,0,0,0.038547,-0.00033311,0.011464,-0.0066197,0.016559,0.034528,1.3122e-06,0.96,0.38,0
0.047887,0.0037002,0.038546,-0.00034437,0.011461,-3.616e-06,0,0,0.070423,-0.030693,0,-1.8803e-05,0,0,0,0.038546,-0.00034437,0.011461,-0.0053274,0.016554,0.034536,1.3125e-06,0.97,0.38,0
0.048591,0.0037021,0.038546,-0.00035238,0.011458,-2.5285e-06,0,0,0.070428,-0.030707,0,-1.3148e-05,0,0,0,0.038546,-0.00035238,0.011458,-0.0037244,0.01655,0.034542,1.3127e-06,0.98,0.38,0
0.049296,0.0037032,0.038545,-0.00035719,0.011456,-1.2996e-06,0,0,0.070431,-0.030715,0,-6.758e-06,0,0,0,0.038545,-0.00035719,0.011456,-0.0019141,0.016548,0.034545,1.3128e-06,0.99,0.38,0
0.05,0.0037036,0.038545,-0.00035879,0.011456,7.2227e-06,0,0,0.070432,-0.030718,0,3.7558e-05,0,0,0,0.038545,-0.00035879,0.011456,0.010637,0.016547,0.034546,1.3129e-06,1,0.38,0
0,0,0.033067,0.014172,0.014172,0.0016206,0,0,0.024564,-5.421e-20,0,0.0042136,0,0,0,0.033205,0.014034,0.014172,4.8667,0.02047,0.019103,3.5798e-07,0,0.39,0
0.00024564,4.2136e-05,0.03303,0.013717,0.014024,0.0016225,0,0,0.024708,-0.00039966,0,0.0042184,0,0,0,0.033166,0.013581,0.014024,4.7686,0.020257,0.019367,3.7242e-07,0.01,0.39,0
0.00049416,8.5254e-05,0.033185,0.013333,0.013955,0.0016402,0,0,0.024998,-0.00080889,0,0.0042646,0,0,0,0.033319,0.013199,0.013955,4.6916,0.020158,0.019753,3.939e-07,0.02,0.39,0
0.00074561,0.00012927,0.033341,0.012941,0.013884,0.0016533,0,0,0.025293,-0.0012267,0,0.0042985,0,0,0,0.033474,0.012808,0.013884,4.6034,0.020055,0.020149,4.161e-07,0.03,0.39,0
0.001,0.00017409,0.033497,0.01254,0.013811,0.0016615,0,0,0.025591,-0.0016519,0,0.0043199,0,0,0,0.033628,0.01241,0.013811,4.5051,0.01995,0.020553,4.3895e-07,0.04,0.39,0
0.0012574,0.00021963,0.033654,0.012133,0.013736,0.0016649,0,0,0.025893,-0.0020837,0,0.0043286,0,0,0,0.033782,0.012005,0.013736,4.3976,0.019841,0.020965,4.6239e-07,0.05,0.39,0
0.0015179,0.00026579,0.03381,0.01172,0.013659,0.0016634,0,0,0.026197,-0.0025208,0,0.0043248,0,0,0,0.033935,0.011595,0.013659,4.2822,0.01973,0.021382,4.8637e-07,0.06,0.39,0
0.0017814,0.00031249,0.033966,0.011302,0.01358,0.0016572,0,0,0.026501,-0.0029623,0,0.0043086,0,0,0,0.034086,0.011181,0.01358,4.1598,0.019616,0.021805,5.1079e-07,0.07,0.39,0
0.0020479,0.00035962,0.03412,0.010879,0.0135,0.0016463,0,0,0.026807,-0.003407,0,0.0042804,0,0,0,0.034236,0.010763,0.0135,4.0317,0.0195,0.022232,5.356e-07,0.08,0.39,0
0.0023175,0.00040711,0.034272,0.010453,0.013418,0.001631,0,0,0.027111,-0.0038539,0,0.0042406,0,0,0,0.034383,0.010342,0.013418,3.899,0.019381,0.022661,5.6071e-07,0.09,0.39,0
0.0025901,0.00045487,0.034422,0.010025,0.013334,0.0016115,0,0,0.027415,-0.0043021,0,0.0041899,0,0,0,0.034528,0.0099188,0.013334,3.7627,0.01926,0.023092,5.8605e-07,0.1,0.39,0
0.0028658,0.0005028,0.034569,0.0095948,0.013249,0.0015881,0,0,0.027716,-0.0047507,0,0.004129,0,0,0,0.03467,0.0094942,0.013249,3.6239,0.019138,0.023524,6.1155e-07,0.11,0.39,0
0.0031445,0.00055084,0.034713,0.0091641,0.013163,0.0015611,0,0,0.028015,-0.0051987,0,0.0040589,0,0,0,0.034808,0.009069,0.013163,3.4836,0.019013,0.023956,6.3712e-07,0.12,0.39,0
0.0034261,0.00059891,0.034853,0.0087332,0.013076,0.0015309,0,0,0.02831,-0.0056455,0,0.0039803,0,0,0,0.034943,0.0086438,0.013076,3.3429,0.018887,0.024387,6.6269e-07,0.13,0.39,0
0.0037106,0.00064694,0.034989,0.0083028,0.012988,0.0014979,0,0,0.028602,-0.0060902,0,0.0038945,0,0,0,0.035073,0.008219,0.012988,3.2025,0.01876,0.024816,6.8821e-07,0.14,0.39,0
0.0039981,0.00069488,0.035121,0.0078736,0.012898,0.0014624,0,0,0.02889,-0.0065323,0,0.0038023,0,0,0,0.0352,0.0077953,0.012898,3.0634,0.018631,0.025243,7.136e-07,0.15,0.39,0
0.0042885,0.00074265,0.035249,0.0074459,0.012808,0.001425,0,0,0.029173,-0.0069712,0,0.003705,0,0,0,0.035322,0.0073731,0.012808,2.9264,0.018501,0.025666,7.3881e-07,0.16,0.39,0
0.0045816,0.00079023,0.035372,0.0070204,0.012718,0.001386,0,0,0.029451,-0.0074065,0,0.0036037,0,0,0,0.035439,0.0069528,0.012718,2.7922,0.01837,0.026086,7.6378e-07,0.17,0.39,0
0.0048775,0.00083756,0.03549,0.0065972,0.012626,0.001346,0,0,0.029723,-0.0078378,0,0.0034995,0,0,0,0.035553,0.0065346,0.012626,2.6614,0.018238,0.026503,7.8846e-07,0.18,0.39,0
0.005176,0.00088461,0.035604,0.0061767,0.012534,0.0013052,0,0,0.029991,-0.0082647,0,0.0033935,0,0,0,0.035662,0.006119,0.012534,2.5346,0.018105,0.026915,8.1283e-07,0.19,0.39,0
0.0054773,0.00093134,0.035713,0.0057592,0.012442,0.0012641,0,0,0.030253,-0.0086872,0,0.0032868,0,0,0,0.035766,0.005706,0.012442,2.4123,0.017971,0.027322,8.3683e-07,0.2,0.39,0
0.0057811,0.00097775,0.035818,0.0053447,0.012349,0.0012232,0,0,0.03051,-0.0091051,0,0.0031804,0,0,0,0.035867,0.0052957,0.012349,2.295,0.017837,0.027726,8.6045e-07,0.21,0.39,0
0.0060875,0.0010238,0.035917,0.0049334,0.012255,0.0011828,0,0,0.030761,-0.0095184,0,0.0030753,0,0,0,0.035963,0.0048883,0.012255,2.183,0.017702,0.028124,8.8367e-07,0.22,0.39,0
0.0063963,0.0010695,0.036013,0.0045252,0.012162,0.0011432,0,0,0.031007,-0.0099271,0,0.0029724,0,0,0,0.036055,0.0044838,0.012162,2.0766,0.017567,0.028518,9.0647e-07,0.23,0.39,0
0.0067076,0.0011149,0.036104,0.0041202,0.012067,0.0011048,0,0,0.031248,-0.010331,0,0.0028726,0,0,0,0.036143,0.0040821,0.012067,1.976,0.017431,0.028907,9.2884e-07,0.24,0.39,0
0.0070213,0.0011598,0.036192,0.0037183,0.011973,0.0010678,0,0,0.031484,-0.010731,0,0.0027764,0,0,0,0.036227,0.0036832,0.011973,1.8814,0.017294,0.029292,9.5078e-07,0.25,0.39,0
0.0073373,0.0012045,0.036275,0.0033192,0.011878,0.0010325,0,0,0.031716,-0.011127,0,0.0026846,0,0,0,0.036308,0.0032869,0.011878,1.7928,0.017158,0.029673,9.723e-07,0.26,0.39,0
0.0076556,0.0012487,0.036355,0.002923,0.011784,0.00099908,0,0,0.031943,-0.011519,0,0.0025976,0,0,0,0.036385,0.0028932,0.011784,1.7102,0.017021,0.03005,9.934e-07,0.27,0.39,0
0.0079762,0.0012927,0.036432,0.0025293,0.011688,0.00096764,0,0,0.032167,-0.011907,0,0.0025159,0,0,0,0.03646,0.0025017,0.011688,1.6335,0.016883,0.030423,1.0141e-06,0.28,0.39,0
0.0082989,0.0013363,0.036506,0.0021381,0.011593,0.00093833,0,0,0.032387,-0.012292,0,0.0024396,0,0,0,0.036532,0.0021125,0.011593,1.5628,0.016746,0.030794,1.0344e-06,0.29,0.39,0
0.0086239,0.0013796,0.036577,0.001749,0.011498,0.0009112,0,0,0.032603,-0.012674,0,0.0023691,0,0,0,0.036601,0.0017251,0.011498,1.4976,0.016608,0.031161,1.0543e-06,0.3,0.39,0
0.008951,0.0014226,0.036646,0.0013618,0.011402,0.00088629,0,0,0.032817,-0.013053,0,0.0023044,0,0,0,0.036669,0.0013395,0.011402,1.438,0.01647,0.031526,1.0739e-06,0.31,0.39,0
0.0092802,0.0014653,0.036713,0.00097637,0.011307,0.00086357,0,0,0.033028,-0.01343,0,0.0022453,0,0,0,0.036734,0.00095551,0.011307,1.3835,0.016332,0.031889,1.0931e-06,0.32,0.39,0
0.0096116,0.0015078,0.036778,0.00059244,0.011211,0.00084297,0,0,0.033237,-0.013805,0,0.0021917,0,0,0,0.036798,0.00057282,0.011211,1.3338,0.016194,0.03225,1.112e-06,0.33,0.39,0
0.009945,0.00155,0.036842,0.00020983,0.011116,0.00082439,0,0,0.033445,-0.014178,0,0.0021434,0,0,0,0.036861,0.00019129,0.011116,1.2885,0.016056,0.03261,1.1306e-06,0.34,0.39,0
0.01028,0.001592,0.036905,-0.00017165,0.01102,0.00080769,0,0,0.03365,-0.014549,0,0.0021,0,0,0,0.036922,-0.00018923,0.01102,1.2474,0.015918,0.032968,1.1489e-06,0.35,0.39,0
0.010618,0.0016338,0.036966,-0.00055213,0.010924,0.00079268,0,0,0.033855,-0.014919,0,0.002061,0,0,0,0.036983,-0.00056887,0.010924,1.2098,0.015779,0.033326,1.1669e-06,0.36,0.39,0
0.010958,0.0016753,0.037027,-0.00093173,0.010828,0.00077916,0,0,0.034058,-0.015288,0,0.0020258,0,0,0,0.037043,-0.00094772,0.010828,1.1754,0.015641,0.033683,1.1847e-06,0.37,0.39,0
0.011299,0.0017166,0.037087,-0.0013105,0.010733,0.00076687,0,0,0.03426,-0.015657,0,0.0019939,0,0,0,0.037102,-0.0013258,0.010733,1.1437,0.015503,0.03404,1.2022e-06,0.38,0.39,0
0.011643,0.0017577,0.037147,-0.0016885,0.010637,0.00075557,0,0,0.034462,-0.016024,0,0.0019645,0,0,0,0.037161,-0.0017032,0.010637,1.1142,0.015365,0.034397,1.2195e-06,0.39,0.39,0
0.011988,0.0017986,0.037206,-0.0020657,0.010542,0.00074496,0,0,0.034663,-0.01639,0,0.0019369,0,0,0,0.03722,-0.0020799,0.010542,1.0863,0.015227,0.034753,1.2366e-06,0.4,0.39,0
0.012336,0.0018392,0.037265,-0.0024421,0.010447,0.00073475,0,0,0.034864,-0.016756,0,0.0019103,0,0,0,0.037279,-0.0024557,0.010447,1.0597,0.01509,0.035109,1.2533e-06,0.41,0.39,0
0.012686,0.0018796,0.037324,-0.0028174,0.010352,0.00072461,0,0,0.035064,-0.01712,0,0.001884,0,0,0,0.037337,-0.0028305,0.010352,1.0338,0.014953,0.035464,1.2699e-06,0.42,0.39,0
0.013037,0.0019197,0.037383,-0.0031915,0.010257,0.00071422,0,0,0.035263,-0.017483,0,0.001857,0,0,0,0.037395,-0.0032041,0.010257,1.0082,0.014816,0.035819,1.2861e-06,0.43,0.39,0
0.013391,0.0019595,0.037441,-0.0035642,0.010163,0.00070327,0,0,0.035461,-0.017846,0,0.0018285,0,0,0,0.037453,-0.0035763,0.010163,0.98227,0.01468,0.036173,1.3021e-06,0.44,0.39,0
0.013747,0.001999,0.037499,-0.0039353,0.010069,0.00069143,0,0,0.035659,-0.018206,0,0.0017977,0,0,0,0.037511,-0.0039468,0.010069,0.95576,0.014544,0.036525,1.3177e-06,0.45,0.39,0
0.014104,0.0020381,0.037557,-0.0043042,0.0099758,0.00067839,0,0,0.035855,-0.018564,0,0.0017638,0,0,0,0.037568,-0.0043152,0.0099758,0.92819,0.014409,0.036876,1.333e-06,0.46,0.39,0
0.014464,0.0020768,0.037614,-0.0046707,0.0098829,0.00066384,0,0,0.03605,-0.01892,0,0.001726,0,0,0,0.037624,-0.0046811,0.0098829,0.89921,0.014275,0.037225,1.348e-06,0.47,0.39,0
0.014825,0.0021151,0.03767,-0.0050344,0.0097907,0.0006475,0,0,0.036243,-0.019273,0,0.0016835,0,0,0,0.03768,-0.0050442,0.0097907,0.86847,0.014142,0.037571,1.3625e-06,0.48,0.39,0
0.015189,0.0021528,0.037725,-0.0053946,0.0096992,0.00062908,0,0,0.036434,-0.019622,0,0.0016356,0,0,0,0.037734,-0.0054038,0.0096992,0.83565,0.01401,0.037914,1.3766e-06,0.49,0.39,0
0.015554,0.0021901,0.037765,-0.00027175,0.011248,0.00061018,0,0,0.05068,-0.019967,0,0.0023667,0,0,0,0.037775,-0.0002817,0.011248,0.93566,0.016247,0.033869,1.2035e-06,0.5,0.39,0
0.016202,0.0022424,0.037833,0.0049798,0.012844,0.00059423,0,0,0.064971,-0.020446,0,0.00309,0,0,0,0.037843,0.0049691,0.012844,1.0359,0.018552,0.02973,1.0371e-06,0.51,0.39,0
0.016853,0.0022937,0.037884,0.0047434,0.012788,0.00057902,0,0,0.06525,-0.020917,0,0.0030109,0,0,0,0.037894,0.0047332,0.012788,1.0006,0.018472,0.029957,1.0516e-06,0.52,0.39,0
0.017507,0.0023442,0.037935,0.004511,0.012734,0.00056297,0,0,0.065523,-0.021379,0,0.0029274,0,0,0,0.037944,0.0045015,0.012734,0.96469,0.018393,0.030181,1.0658e-06,0.53,0.39,0
0.018164,0.0023936,0.037984,0.004283,0.01268,0.00054608,0,0,0.06579,-0.021832,0,0.0028396,0,0,0,0.037993,0.0042742,0.01268,0.92807,0.018316,0.0304,1.0796e-06,0.54,0.39,0
0.018823,0.0024419,0.038031,0.0040596,0.012627,0.00052834,0,0,0.066051,-0.022276,0,0.0027474,0,0,0,0.03804,0.0040514,0.012627,0.8908,0.018239,0.030615,1.0932e-06,0.55,0.39,0
0.019485,0.0024892,0.038077,0.0038412,0.012575,0.00050981,0,0,0.066305,-0.022709,0,0.002651,0,0,0,0.038085,0.0038336,0.012575,0.85294,0.018165,0.030825,1.1063e-06,0.56,0.39,0
0.020149,0.0025353,0.038121,0.0036278,0.012525,0.00049053,0,0,0.066551,-0.023132,0,0.0025508,0,0,0,0.038128,0.0036208,0.012525,0.81457,0.018091,0.031029,1.1191e-06,0.57,0.39,0
0.020816,0.0025803,0.038164,0.0034197,0.012475,0.00047056,0,0,0.066791,-0.023544,0,0.0024469,0,0,0,0.03817,0.0034133,0.012475,0.7758,0.018019,0.031228,1.1315e-06,0.58,0.39,0
0.021485,0.0026241,0.038204,0.0032171,0.012426,0.00044999,0,0,0.067022,-0.023944,0,0.0023399,0,0,0,0.03821,0.0032113,0.012426,0.73676,0.017949,0.031421,1.1434e-06,0.59,0.39,0
0.022156,0.0026666,0.038242,0.0030202,0.012379,0.00042891,0,0,0.067245,-0.024332,0,0.0022303,0,0,0,0.038247,0.003015,0.012379,0.69757,0.01788,0.031608,1.1549e-06,0.6,0.39,0
0.02283,0.0027078,0.038279,0.0028292,0.012332,0.00040742,0,0,0.06746,-0.024708,0,0.0021186,0,0,0,0.038283,0.0028245,0.012332,0.65839,0.017813,0.03179,1.166e-06,0.61,0.39,0
0.023505,0.0027478,0.038313,0.0026442,0.012287,0.00038564,0,0,0.067666,-0.025071,0,0.0020053,0,0,0,0.038317,0.00264,0.012287,0.61938,0.017748,0.031964,1.1766e-06,0.62,0.39,0
0.024183,0.0027865,0.038345,0.0024652,0.012243,0.00036368,0,0,0.067864,-0.025422,0,0.0018912,0,0,0,0.038348,0.0024615,0.012243,0.58069,0.017684,0.032133,1.1868e-06,0.63,0.39,0
0.024863,0.0028238,0.038374,0.0022924,0.0122,0.00034166,0,0,0.068053,-0.02576,0,0.0017767,0,0,0,0.038378,0.0022892,0.0122,0.54247,0.017622,0.032294,1.1965e-06,0.64,0.39,0
0.025544,0.0028598,0.038402,0.0021259,0.012158,0.0003197,0,0,0.068234,-0.026085,0,0.0016624,0,0,0,0.038405,0.0021231,0.012158,0.50489,0.017562,0.03245,1.2057e-06,0.65,0.39,0
0.026227,0.0028945,0.038428,0.0019656,0.012118,0.00029791,0,0,0.068405,-0.026396,0,0.0015491,0,0,0,0.03843,0.0019631,0.012118,0.46809,0.017504,0.032598,1.2144e-06,0.66,0.39,0
0.026912,0.0029278,0.038451,0.0018115,0.012079,0.00027641,0,0,0.068568,-0.026695,0,0.0014373,0,0,0,0.038453,0.0018095,0.012079,0.43221,0.017447,0.03274,1.2227e-06,0.67,0.39,0
0.027599,0.0029598,0.038472,0.0016638,0.012041,0.0002553,0,0,0.068722,-0.02698,0,0.0013276,0,0,0,0.038474,0.001662,0.012041,0.39737,0.017392,0.032875,1.2305e-06,0.68,0.39,0
0.028287,0.0029904,0.038492,0.0015222,0.012004,0.00023469,0,0,0.068868,-0.027253,0,0.0012204,0,0,0,0.038493,0.0015207,0.012004,0.36371,0.017339,0.033004,1.2379e-06,0.69,0.39,0
0.028976,0.0030197,0.038509,0.0013868,0.011969,0.00021467,0,0,0.069005,-0.027513,0,0.0011163,0,0,0,0.038511,0.0013856,0.011969,0.33131,0.017288,0.033127,1.2448e-06,0.7,0.39,0
0.029667,0.0030477,0.038525,0.0012576,0.011935,0.00019531,0,0,0.069134,-0.027761,0,0.0010156,0,0,0,0.038526,0.0012565,0.011935,0.30027,0.017239,0.033242,1.2513e-06,0.71,0.39,0
0.030359,0.0030743,0.038539,0.0011343,0.011902,0.00017671,0,0,0.069256,-0.027996,0,0.00091887,0,0,0,0.038539,0.0011335,0.011902,0.27067,0.017192,0.033352,1.2573e-06,0.72,0.39,0
0.031052,0.0030997,0.038551,0.001017,0.01187,0.00015891,0,0,0.069369,-0.028219,0,0.00082635,0,0,0,0.038552,0.0010163,0.01187,0.24258,0.017146,0.033456,1.263e-06,0.73,0.39,0
0.031746,0.0031239,0.038561,0.0009055,0.01184,0.00014199,0,0,0.069475,-0.02843,0,0.00073834,0,0,0,0.038562,0.00090496,0.01184,0.21604,0.017102,0.033553,1.2682e-06,0.74,0.39,0
0.032441,0.0031468,0.038571,0.0007997,0.011811,0.00012598,0,0,0.069574,-0.028629,0,0.00065509,0,0,0,0.038571,0.00079928,0.011811,0.1911,0.01706,0.033646,1.2731e-06,0.75,0.39,0
0.033138,0.0031684,0.038578,0.00069949,0.011783,0.00011092,0,0,0.069667,-0.028818,0,0.00057678,0,0,0,0.038579,0.00069916,0.011783,0.16778,0.01702,0.033732,1.2776e-06,0.76,0.39,0
0.033835,0.0031889,0.038585,0.00060472,0.011757,9.6836e-05,0,0,0.069752,-0.028995,0,0.00050355,0,0,0,0.038585,0.00060448,0.011757,0.14608,0.016982,0.033813,1.2818e-06,0.77,0.39,0
0.034533,0.0032083,0.03859,0.00051527,0.011732,8.3746e-05,0,0,0.069832,-0.029162,0,0.00043548,0,0,0,0.03859,0.00051508,0.011732,0.12602,0.016945,0.033889,1.2857e-06,0.78,0.39,0
0.035231,0.0032265,0.038594,0.00043099,0.011707,7.1659e-05,0,0,0.069905,-0.029319,0,0.00037263,0,0,0,0.038594,0.00043086,0.011707,0.10758,0.016911,0.033959,1.2892e-06,0.79,0.39,0
0.035931,0.0032436,0.038597,0.00035175,0.011685,6.0575e-05,0,0,0.069973,-0.029466,0,0.00031499,0,0,0,0.038597,0.00035165,0.011685,0.090747,0.016878,0.034025,1.2925e-06,0.8,0.39,0
0.036631,0.0032596,0.0386,0.0002774,0.011663,5.0486e-05,0,0,0.070035,-0.029603,0,0.00026252,0,0,0,0.0386,0.00027734,0.011663,0.075482,0.016847,0.034087,1.2954e-06,0.81,0.39,0
0.037331,0.0032746,0.038601,0.00020782,0.011643,4.1378e-05,0,0,0.070092,-0.029731,0,0.00021516,0,0,0,0.038601,0.00020778,0.011643,0.061749,0.016817,0.034144,1.2981e-06,0.82,0.39,0
0.038033,0.0032886,0.038602,0.00014286,0.011624,3.323e-05,0,0,0.070144,-0.02985,0,0.00017279,0,0,0,0.038602,0.00014283,0.011624,0.049505,0.016789,0.034196,1.3006e-06,0.83,0.39,0
0.038734,0.0033016,0.038602,8.2392e-05,0.011605,2.6014e-05,0,0,0.070192,-0.02996,0,0.00013527,0,0,0,0.038602,8.2375e-05,0.011605,0.038695,0.016763,0.034245,1.3028e-06,0.84,0.39,0
0.039436,0.0033137,0.038602,2.6286e-05,0.011588,1.97e-05,0,0,0.070235,-0.030062,0,0.00010244,0,0,0,0.038602,2.6276e-05,0.011588,0.02926,0.016739,0.034289,1.3049e-06,0.85,0.39,0
0.040139,0.0033248,0.038602,-2.5581e-05,0.011573,1.4248e-05,0,0,0.070275,-0.030156,0,7.4092e-05,0,0,0,0.038602,-2.5586e-05,0.011573,0.021135,0.016716,0.03433,1.3067e-06,0.86,0.39,0
0.040842,0.003335,0.038601,-7.3328e-05,0.011558,9.6186e-06,0,0,0.070311,-0.030242,0,5.0017e-05,0,0,0,0.038601,-7.333e-05,0.011558,0.01425,0.016695,0.034368,1.3083e-06,0.87,0.39,0
0.041545,0.0033444,0.0386,-0.00011707,0.011545,5.765e-06,0,0,0.070343,-0.030321,0,2.9978e-05,0,0,0,0.0386,-0.00011707,0.011545,0.0085315,0.016676,0.034402,1.3098e-06,0.88,0.39,0
0.042249,0.0033529,0.038598,-0.0001569,0.011532,2.6388e-06,0,0,0.070371,-0.030392,0,1.3722e-05,0,0,0,0.038598,-0.0001569,0.011532,0.0039011,0.016658,0.034432,1.3111e-06,0.89,0.39,0
0.042953,0.0033606,0.038597,-0.00019293,0.011521,1.8797e-07,0,0,0.070397,-0.030457,0,9.7747e-07,0,0,0,0.038597,-0.00019293,0.011521,0.00027765,0.016642,0.03446,1.3123e-06,0.9,0.39,0
0.043657,0.0033675,0.038596,-0.00022525,0.011511,-1.6417e-06,0,0,0.07042,-0.030514,0,-8.5369e-06,0,0,0,0.038596,-0.00022525,0.011511,-0.002423,0.016627,0.034485,1.3133e-06,0.91,0.39,0
0.044361,0.0033737,0.038594,-0.00025394,0.011502,-2.9069e-06,0,0,0.070439,-0.030566,0,-1.5116e-05,0,0,0,0.038594,-0.00025394,0.011502,-0.0042873,0.016614,0.034506,1.3141e-06,0.92,0.39,0
0.045066,0.003379,0.038593,-0.00027907,0.011494,-3.6661e-06,0,0,0.070457,-0.03061,0,-1.9064e-05,0,0,0,0.038593,-0.00027907,0.011494,-0.0054037,0.016603,0.034525,1.3149e-06,0.93,0.39,0
0.04577,0.0033836,0.038592,-0.00030072,0.011487,-3.9794e-06,0,0,0.070471,-0.030649,0,-2.0693e-05,0,0,0,0.038592,-0.00030072,0.011487,-0.0058624,0.016593,0.034541,1.3156e-06,0.94,0.39,0
0.046475,0.0033875,0.03859,-0.00031894,0.011481,-3.9082e-06,0,0,0.070483,-0.030681,0,-2.0323e-05,0,0,0,0.03859,-0.00031894,0.011481,-0.0057551,0.016584,0.034555,1.3161e-06,0.95,0.39,0
0.04718,0.0033907,0.038589,-0.00033377,0.011477,-3.5151e-06,0,0,0.070493,-0.030707,0,-1.8279e-05,0,0,0,0.038589,-0.00033377,0.011477,-0.0051743,0.016577,0.034566,1.3165e-06,0.96,0.39,0
0.047885,0.0033931,0.038589,-0.00034527,0.011473,-2.8634e-06,0,0,0.0705,-0.030728,0,-1.489e-05,0,0,0,0.038589,-0.00034527,0.011473,-0.0042139,0.016572,0.034574,1.3168e-06,0.97,0.39,0
0.04859,0.0033949,0.038588,-0.00035346,0.01147,-2.0173e-06,0,0,0.070506,-0.030742,0,-1.049e-05,0,0,0,0.038588,-0.00035346,0.01147,-0.002968,0.016568,0.03458,1.3171e-06,0.98,0.39,0
0.049295,0.0033959,0.038588,-0.00035836,0.011469,-1.0411e-06,0,0,0.070509,-0.030751,0,-5.414e-06,0,0,0,0.038588,-0.00035836,0.011469,-0.0015317,0.016566,0.034584,1.3172e-06,0.99,0.39,0
0.05,0.0033962,0.038587,-0.00035999,0.011468,6.676e-06,0,0,0.07051,-0.030753,0,3.4715e-05,0,0,0,0.038587,-0.00035999,0.011468,0.009821,0.016565,0.034585,1.3173e-06,1,0.39,0
0,0,0.033011,0.014147,0.014147,0.0014678,0,0,0.024522,0,0,0.0038163,0,0,0,0.033124,0.014034,0.014147,4.4229,0.020435,0.019034,3.5412e-07,0,0.4,0
0.00024522,3.8163e-05,0.032974,0.013697,0.014002,0.0014695,0,0,0.024664,-0.00039516,0,0.0038207,0,0,0,0.033085,0.013586,0.014002,4.3345,0.020224,0.019295,3.6836e-07,0.01,0.4,0
0.00049329,7.7214e-05,0.033127,0.013318,0.013933,0.0014857,0,0,0.024951,-0.0007997,0,0.0038627,0,0,0,0.033238,0.013208,0.013933,4.2654,0.020126,0.019677,3.895e-07,0.02,0.4,0
0.00074425,0.00011708,0.033281,0.012931,0.013863,0.0014976,0,0,0.025243,-0.0012127,0,0.0038938,0,0,0,0.03339,0.012821,0.013863,4.1864,0.020025,0.020068,4.1134e-07,0.03,0.4,0
0.00099814,0.00015767,0.033436,0.012535,0.013791,0.0015053,0,0,0.025538,-0.0016332,0,0.0039137,0,0,0,0.033543,0.012427,0.013791,4.0983,0.019921,0.020469,4.3385e-07,0.04,0.4,0
0.001255,0.00019892,0.033591,0.012132,0.013717,0.0015087,0,0,0.025836,-0.0020601,0,0.0039225,0,0,0,0.033696,0.012027,0.013717,4.0019,0.019813,0.020876,4.5695e-07,0.05,0.4,0
0.0015149,0.00024074,0.033746,0.011723,0.013641,0.0015077,0,0,0.026137,-0.0024925,0,0.0039201,0,0,0,0.033849,0.011621,0.013641,3.8984,0.019703,0.02129,4.806e-07,0.06,0.4,0
0.0017777,0.00028304,0.0339,0.01131,0.013563,0.0015026,0,0,0.026438,-0.0029293,0,0.0039067,0,0,0,0.034,0.01121,0.013563,3.7887,0.019591,0.021709,5.0471e-07,0.07,0.4,0
0.0020436,0.00032575,0.034053,0.010891,0.013483,0.0014933,0,0,0.026741,-0.0033697,0,0.0038825,0,0,0,0.034149,0.010795,0.013483,3.6737,0.019476,0.022132,5.2923e-07,0.08,0.4,0
0.0023126,0.00036879,0.034205,0.010469,0.013402,0.0014801,0,0,0.027043,-0.0038125,0,0.0038482,0,0,0,0.034297,0.010378,0.013402,3.5545,0.019359,0.022559,5.5408e-07,0.09,0.4,0
0.0025845,0.00041208,0.034354,0.010045,0.01332,0.0014631,0,0,0.027344,-0.004257,0,0.0038041,0,0,0,0.034441,0.0099573,0.01332,3.432,0.019239,0.022988,5.7919e-07,0.1,0.4,0
0.0028594,0.00045555,0.0345,0.0096187,0.013236,0.0014426,0,0,0.027644,-0.0047021,0,0.0037509,0,0,0,0.034584,0.0095353,0.013236,3.3073,0.019118,0.023418,6.0448e-07,0.11,0.4,0
0.0031374,0.00049913,0.034644,0.0091911,0.013151,0.001419,0,0,0.027941,-0.0051472,0,0.0036894,0,0,0,0.034723,0.0091123,0.013151,3.1811,0.018995,0.023849,6.2989e-07,0.12,0.4,0
0.0034183,0.00054274,0.034784,0.0087631,0.013064,0.0013924,0,0,0.028236,-0.0055914,0,0.0036204,0,0,0,0.034858,0.0086888,0.013064,3.0544,0.01887,0.024279,6.5534e-07,0.13,0.4,0
0.0037021,0.00058634,0.034921,0.0083353,0.012977,0.0013634,0,0,0.028527,-0.006034,0,0.0035448,0,0,0,0.03499,0.0082655,0.012977,2.928,0.018744,0.024708,6.8077e-07,0.14,0.4,0
0.0039888,0.00062986,0.035053,0.0079081,0.012888,0.0013321,0,0,0.028814,-0.0064744,0,0.0034635,0,0,0,0.035119,0.0078429,0.012888,2.8027,0.018617,0.025136,7.0612e-07,0.15,0.4,0
0.0042784,0.00067325,0.035182,0.0074822,0.012799,0.001299,0,0,0.029097,-0.0069122,0,0.0033775,0,0,0,0.035243,0.0074214,0.012799,2.6792,0.018488,0.02556,7.3133e-07,0.16,0.4,0
0.0045708,0.00071648,0.035306,0.0070579,0.012709,0.0012645,0,0,0.029376,-0.0073468,0,0.0032878,0,0,0,0.035363,0.0070014,0.012709,2.558,0.018358,0.025982,7.5634e-07,0.17,0.4,0
0.0048659,0.0007595,0.035426,0.0066356,0.012619,0.001229,0,0,0.02965,-0.0077779,0,0.0031954,0,0,0,0.035479,0.0065832,0.012619,2.4399,0.018227,0.0264,7.8111e-07,0.18,0.4,0
0.0051638,0.00080227,0.035542,0.0062156,0.012527,0.0011928,0,0,0.029919,-0.0082051,0,0.0031014,0,0,0,0.03559,0.0061672,0.012527,2.3253,0.018095,0.026815,8.0559e-07,0.19,0.4,0
0.0054643,0.00084478,0.035653,0.0057981,0.012435,0.0011563,0,0,0.030183,-0.0086284,0,0.0030065,0,0,0,0.035698,0.0057534,0.012435,2.2148,0.017962,0.027225,8.2976e-07,0.2,0.4,0
0.0057674,0.000887,0.03576,0.0053834,0.012343,0.0011199,0,0,0.030442,-0.0090475,0,0.0029118,0,0,0,0.035801,0.0053422,0.012343,2.1086,0.017829,0.027632,8.5358e-07,0.21,0.4,0
0.0060731,0.00092893,0.035862,0.0049714,0.01225,0.0010839,0,0,0.030696,-0.0094623,0,0.0028181,0,0,0,0.0359,0.0049334,0.01225,2.0071,0.017695,0.028034,8.7704e-07,0.22,0.4,0
0.0063813,0.00097053,0.035961,0.0045623,0.012157,0.0010485,0,0,0.030945,-0.0098729,0,0.0027262,0,0,0,0.035996,0.0045274,0.012157,1.9105,0.01756,0.028432,9.001e-07,0.23,0.4,0
0.006692,0.0010118,0.036055,0.0041561,0.012063,0.0010141,0,0,0.031189,-0.010279,0,0.0026368,0,0,0,0.036087,0.0041239,0.012063,1.8191,0.017425,0.028826,9.2277e-07,0.24,0.4,0
0.0070051,0.0010528,0.036145,0.0037527,0.011969,0.00098098,0,0,0.031429,-0.010682,0,0.0025506,0,0,0,0.036175,0.003723,0.011969,1.733,0.017289,0.029215,9.4503e-07,0.25,0.4,0
0.0073206,0.0010934,0.036232,0.003352,0.011875,0.00094925,0,0,0.031664,-0.01108,0,0.002468,0,0,0,0.03626,0.0033246,0.011875,1.6523,0.017153,0.029601,9.6689e-07,0.26,0.4,0
0.0076384,0.0011338,0.036316,0.0029539,0.011781,0.00091913,0,0,0.031895,-0.011475,0,0.0023897,0,0,0,0.036341,0.0029286,0.011781,1.5769,0.017017,0.029983,9.8835e-07,0.27,0.4,0
0.0079585,0.0011738,0.036396,0.0025583,0.011686,0.00089074,0,0,0.032122,-0.011866,0,0.0023159,0,0,0,0.036419,0.0025349,0.011686,1.5069,0.01688,0.030361,1.0094e-06,0.28,0.4,0
0.0082808,0.0012136,0.036473,0.002165,0.011591,0.0008642,0,0,0.032346,-0.012254,0,0.0022469,0,0,0,0.036495,0.0021432,0.011591,1.442,0.016743,0.030737,1.0301e-06,0.29,0.4,0
0.0086054,0.001253,0.036548,0.0017738,0.011496,0.00083956,0,0,0.032567,-0.012639,0,0.0021829,0,0,0,0.036568,0.0017535,0.011496,1.3822,0.016606,0.031109,1.0504e-06,0.3,0.4,0
0.0089322,0.0012922,0.03662,0.0013846,0.011402,0.00081685,0,0,0.032785,-0.013022,0,0.0021238,0,0,0,0.036639,0.0013656,0.011402,1.3273,0.016469,0.031479,1.0703e-06,0.31,0.4,0
0.0092611,0.0013312,0.036691,0.00099709,0.011306,0.00079604,0,0,0.033,-0.013402,0,0.0020697,0,0,0,0.036708,0.00097934,0.011306,1.277,0.016331,0.031847,1.09e-06,0.32,0.4,0
0.0095922,0.0013699,0.036759,0.0006112,0.011211,0.00077708,0,0,0.033212,-0.01378,0,0.0020204,0,0,0,0.036776,0.00059451,0.011211,1.2309,0.016194,0.032213,1.1092e-06,0.33,0.4,0
0.0099254,0.0014084,0.036826,0.00022675,0.011116,0.00075989,0,0,0.033423,-0.014156,0,0.0019757,0,0,0,0.036842,0.00021098,0.011116,1.1889,0.016056,0.032577,1.1282e-06,0.34,0.4,0
0.010261,0.0014466,0.036892,-0.00015642,0.011021,0.00074433,0,0,0.033633,-0.01453,0,0.0019353,0,0,0,0.036907,-0.00017137,0.011021,1.1505,0.015919,0.03294,1.1469e-06,0.35,0.4,0
0.010598,0.0014846,0.036956,-0.00053841,0.010925,0.00073026,0,0,0.03384,-0.014903,0,0.0018987,0,0,0,0.03697,-0.00055262,0.010925,1.1154,0.015781,0.033302,1.1652e-06,0.36,0.4,0
0.010937,0.0015225,0.03702,-0.0009193,0.01083,0.00071747,0,0,0.034047,-0.015274,0,0.0018654,0,0,0,0.037033,-0.00093286,0.01083,1.083,0.015644,0.033663,1.1833e-06,0.37,0.4,0
0.011279,0.0015601,0.037083,-0.0012992,0.010735,0.00070578,0,0,0.034252,-0.015644,0,0.001835,0,0,0,0.037095,-0.0013121,0.010735,1.0531,0.015506,0.034023,1.2012e-06,0.38,0.4,0
0.011622,0.0015975,0.037145,-0.001678,0.01064,0.00069493,0,0,0.034456,-0.016013,0,0.0018068,0,0,0,0.037157,-0.0016904,0.01064,1.0252,0.015369,0.034383,1.2187e-06,0.39,0.4,0
0.011968,0.0016347,0.037206,-0.0020557,0.010545,0.00068469,0,0,0.03466,-0.016381,0,0.0017802,0,0,0,0.037218,-0.0020676,0.010545,0.99877,0.015232,0.034741,1.236e-06,0.4,0.4,0
0.012316,0.0016717,0.037268,-0.0024322,0.010451,0.00067477,0,0,0.034862,-0.016748,0,0.0017544,0,0,0,0.037279,-0.0024437,0.010451,0.97348,0.015095,0.035099,1.253e-06,0.41,0.4,0
0.012665,0.0017084,0.037329,-0.0028074,0.010356,0.00066492,0,0,0.035064,-0.017113,0,0.0017288,0,0,0,0.037339,-0.0028185,0.010356,0.94886,0.014959,0.035457,1.2698e-06,0.42,0.4,0
0.013017,0.0017449,0.037389,-0.0031812,0.010262,0.00065484,0,0,0.035265,-0.017477,0,0.0017026,0,0,0,0.0374,-0.0031918,0.010262,0.92449,0.014823,0.035813,1.2862e-06,0.43,0.4,0
0.013371,0.0017811,0.037449,-0.0035532,0.010169,0.00064426,0,0,0.035464,-0.017839,0,0.0016751,0,0,0,0.037459,-0.0035633,0.010169,0.89998,0.014688,0.036167,1.3023e-06,0.44,0.4,0
0.013726,0.001817,0.037508,-0.0039232,0.010075,0.00063287,0,0,0.035663,-0.018198,0,0.0016455,0,0,0,0.037518,-0.0039329,0.010075,0.87493,0.014554,0.03652,1.3181e-06,0.45,0.4,0
0.014084,0.0018525,0.037567,-0.0042909,0.0099828,0.00062042,0,0,0.03586,-0.018556,0,0.0016131,0,0,0,0.037576,-0.0043001,0.0099828,0.84899,0.01442,0.036872,1.3335e-06,0.46,0.4,0
0.014443,0.0018877,0.037625,-0.0046558,0.0098908,0.00060662,0,0,0.036055,-0.018911,0,0.0015772,0,0,0,0.037634,-0.0046645,0.0098908,0.82182,0.014287,0.03722,1.3486e-06,0.47,0.4,0
0.014805,0.0019224,0.037682,-0.0050177,0.0097994,0.00059121,0,0,0.036248,-0.019262,0,0.0015372,0,0,0,0.03769,-0.0050258,0.0097994,0.7931,0.014155,0.037566,1.3632e-06,0.48,0.4,0
0.015168,0.0019567,0.037738,-0.0053758,0.0097087,0.00057396,0,0,0.036438,-0.01961,0,0.0014923,0,0,0,0.037746,-0.0053835,0.0097087,0.76257,0.014024,0.037908,1.3774e-06,0.49,0.4,0
0.015534,0.0019905,0.037778,-0.00025436,0.011257,0.00055635,0,0,0.050689,-0.019953,0,0.0021578,0,0,0,0.037787,-0.00026263,0.011257,0.85322,0.01626,0.033864,1.2041e-06,0.5,0.4,0
0.016182,0.002038,0.037846,0.004994,0.012852,0.00054162,0,0,0.064985,-0.020431,0,0.0028164,0,0,0,0.037855,0.0049851,0.012852,0.94427,0.018564,0.029728,1.0375e-06,0.51,0.4,0
0.016833,0.0020846,0.037899,0.0047583,0.012797,0.00052766,0,0,0.065264,-0.020901,0,0.0027438,0,0,0,0.037907,0.0047499,0.012797,0.91196,0.018485,0.029955,1.052e-06,0.52,0.4,0
0.017487,0.0021304,0.037949,0.0045268,0.012743,0.00051298,0,0,0.065537,-0.021362,0,0.0026675,0,0,0,0.037957,0.0045189,0.012743,0.87912,0.018406,0.030179,1.0662e-06,0.53,0.4,0
0.018144,0.0021753,0.037999,0.0042996,0.012689,0.00049757,0,0,0.065804,-0.021814,0,0.0025874,0,0,0,0.038006,0.0042922,0.012689,0.84573,0.018329,0.030398,1.0801e-06,0.54,0.4,0
0.018804,0.0022193,0.038046,0.004077,0.012637,0.00048144,0,0,0.066065,-0.022256,0,0.0025035,0,0,0,0.038053,0.0040701,0.012637,0.81181,0.018253,0.030612,1.0936e-06,0.55,0.4,0
0.019465,0.0022622,0.038093,0.0038592,0.012586,0.00046461,0,0,0.066319,-0.022689,0,0.002416,0,0,0,0.038099,0.0038529,0.012586,0.77742,0.018179,0.030822,1.1068e-06,0.56,0.4,0
0.02013,0.0023041,0.038137,0.0036465,0.012535,0.00044713,0,0,0.066565,-0.02311,0,0.0023251,0,0,0,0.038143,0.0036407,0.012535,0.7426,0.018106,0.031026,1.1196e-06,0.57,0.4,0
0.020797,0.002345,0.03818,0.003439,0.012486,0.00042905,0,0,0.066805,-0.023521,0,0.0022311,0,0,0,0.038185,0.0034337,0.012486,0.70747,0.018035,0.031225,1.132e-06,0.58,0.4,0
0.021466,0.0023847,0.03822,0.003237,0.012437,0.00041045,0,0,0.067036,-0.023921,0,0.0021343,0,0,0,0.038225,0.0032322,0.012437,0.67211,0.017965,0.031419,1.144e-06,0.59,0.4,0
0.022138,0.0024234,0.038259,0.0030405,0.01239,0.0003914,0,0,0.06726,-0.024308,0,0.0020353,0,0,0,0.038263,0.0030362,0.01239,0.63665,0.017896,0.031606,1.1556e-06,0.6,0.4,0
0.022811,0.0024609,0.038296,0.0028499,0.012344,0.00037199,0,0,0.067476,-0.024684,0,0.0019344,0,0,0,0.0383,0.002846,0.012344,0.60121,0.01783,0.031788,1.1667e-06,0.61,0.4,0
0.023487,0.0024972,0.038331,0.002665,0.012299,0.00035233,0,0,0.067683,-0.025047,0,0.0018321,0,0,0,0.038334,0.0026616,0.012299,0.56593,0.017765,0.031963,1.1774e-06,0.62,0.4,0
0.024165,0.0025324,0.038363,0.0024862,0.012255,0.0003325,0,0,0.067881,-0.025398,0,0.001729,0,0,0,0.038366,0.0024831,0.012255,0.53095,0.017701,0.032132,1.1876e-06,0.63,0.4,0
0.024845,0.0025663,0.038393,0.0023134,0.012212,0.00031262,0,0,0.068072,-0.025736,0,0.0016256,0,0,0,0.038396,0.0023107,0.012212,0.4964,0.01764,0.032294,1.1974e-06,0.64,0.4,0
0.025526,0.0025991,0.038422,0.0021467,0.012171,0.00029279,0,0,0.068253,-0.026062,0,0.0015225,0,0,0,0.038424,0.0021444,0.012171,0.46241,0.01758,0.03245,1.2067e-06,0.65,0.4,0
0.02621,0.0026306,0.038448,0.0019862,0.01213,0.0002731,0,0,0.068426,-0.026374,0,0.0014201,0,0,0,0.03845,0.0019842,0.01213,0.42912,0.017521,0.032599,1.2155e-06,0.66,0.4,0
0.026895,0.002661,0.038472,0.0018319,0.012091,0.00025367,0,0,0.06859,-0.026674,0,0.0013191,0,0,0,0.038474,0.0018301,0.012091,0.39665,0.017465,0.032742,1.2239e-06,0.67,0.4,0
0.027581,0.0026901,0.038494,0.0016837,0.012053,0.00023458,0,0,0.068746,-0.026961,0,0.0012198,0,0,0,0.038496,0.0016822,0.012053,0.3651,0.01741,0.032879,1.2318e-06,0.68,0.4,0
0.02827,0.002718,0.038514,0.0015416,0.012017,0.00021593,0,0,0.068894,-0.027235,0,0.0011228,0,0,0,0.038516,0.0015404,0.012017,0.3346,0.017358,0.033009,1.2393e-06,0.69,0.4,0
0.028959,0.0027446,0.038533,0.0014056,0.011982,0.00019779,0,0,0.069033,-0.027497,0,0.0010285,0,0,0,0.038534,0.0014046,0.011982,0.30523,0.017307,0.033132,1.2463e-06,0.7,0.4,0
0.02965,0.0027701,0.038549,0.0012757,0.011947,0.00018025,0,0,0.069164,-0.027747,0,0.0009373,0,0,0,0.03855,0.0012748,0.011947,0.27707,0.017257,0.033249,1.2529e-06,0.71,0.4,0
0.030343,0.0027945,0.038564,0.0011517,0.011915,0.00016337,0,0,0.069288,-0.027984,0,0.00084952,0,0,0,0.038564,0.001151,0.011915,0.25019,0.01721,0.03336,1.2591e-06,0.72,0.4,0
0.031036,0.0028176,0.038577,0.0010336,0.011883,0.00014721,0,0,0.069403,-0.028209,0,0.00076551,0,0,0,0.038577,0.001033,0.011883,0.22466,0.017164,0.033466,1.2649e-06,0.73,0.4,0
0.031731,0.0028396,0.038588,0.00092123,0.011853,0.00013183,0,0,0.069512,-0.028422,0,0.0006855,0,0,0,0.038588,0.00092077,0.011853,0.20052,0.017121,0.033565,1.2703e-06,0.74,0.4,0
0.032426,0.0028605,0.038598,0.00081455,0.011824,0.00011726,0,0,0.069613,-0.028624,0,0.00060974,0,0,0,0.038598,0.00081419,0.011824,0.17781,0.017079,0.033658,1.2753e-06,0.75,0.4,0
0.033123,0.0028803,0.038607,0.00071342,0.011796,0.00010354,0,0,0.069707,-0.028815,0,0.00053838,0,0,0,0.038607,0.00071314,0.011796,0.15655,0.017039,0.033746,1.2799e-06,0.76,0.4,0
0.033821,0.002899,0.038614,0.00061772,0.011769,9.0685e-05,0,0,0.069795,-0.028994,0,0.00047156,0,0,0,0.038614,0.0006175,0.011769,0.13675,0.017,0.033828,1.2842e-06,0.77,0.4,0
0.034519,0.0029166,0.03862,0.00052731,0.011744,7.8726e-05,0,0,0.069877,-0.029164,0,0.00040938,0,0,0,0.03862,0.00052715,0.011744,0.11841,0.016964,0.033906,1.2882e-06,0.78,0.4,0
0.035218,0.0029333,0.038625,0.00044208,0.01172,6.7667e-05,0,0,0.069952,-0.029323,0,0.00035187,0,0,0,0.038625,0.00044196,0.01172,0.10154,0.016929,0.033978,1.2919e-06,0.79,0.4,0
0.035918,0.0029489,0.038629,0.00036188,0.011697,5.7507e-05,0,0,0.070022,-0.029472,0,0.00029904,0,0,0,0.038629,0.0003618,0.011697,0.086104,0.016896,0.034045,1.2953e-06,0.8,0.4,0
0.036618,0.0029635,0.038632,0.0002866,0.011676,4.8244e-05,0,0,0.070086,-0.029611,0,0.00025087,0,0,0,0.038632,0.00028654,0.011676,0.072087,0.016865,0.034108,1.2983e-06,0.81,0.4,0
0.03732,0.0029772,0.038634,0.00021609,0.011655,3.9864e-05,0,0,0.070145,-0.029741,0,0.00020729,0,0,0,0.038634,0.00021605,0.011655,0.059452,0.016835,0.034166,1.3012e-06,0.82,0.4,0
0.038021,0.00299,0.038635,0.00015023,0.011636,3.2349e-05,0,0,0.070199,-0.029862,0,0.00016821,0,0,0,0.038636,0.0001502,0.011636,0.04816,0.016807,0.03422,1.3037e-06,0.83,0.4,0
0.038724,0.0030019,0.038636,8.8884e-05,0.011618,2.5677e-05,0,0,0.070249,-0.029975,0,0.00013352,0,0,0,0.038636,8.8867e-05,0.011618,0.038165,0.016781,0.03427,1.3061e-06,0.84,0.4,0
0.039426,0.0030129,0.038637,3.1936e-05,0.011601,1.9818e-05,0,0,0.070294,-0.030079,0,0.00010306,0,0,0,0.038637,3.1926e-05,0.011601,0.029414,0.016757,0.034316,1.3082e-06,0.85,0.4,0
0.040129,0.0030231,0.038637,-2.0735e-05,0.011585,1.4741e-05,0,0,0.070335,-0.030174,0,7.6653e-05,0,0,0,0.038637,-2.0741e-05,0.011585,0.021848,0.016734,0.034358,1.3101e-06,0.86,0.4,0
0.040833,0.0030325,0.038636,-6.9244e-05,0.01157,1.0408e-05,0,0,0.070372,-0.030263,0,5.412e-05,0,0,0,0.038636,-6.9247e-05,0.01157,0.015407,0.016713,0.034396,1.3118e-06,0.87,0.4,0
0.041537,0.0030411,0.038636,-0.0001137,0.011557,6.7779e-06,0,0,0.070406,-0.030343,0,3.5245e-05,0,0,0,0.038636,-0.0001137,0.011557,0.010022,0.016693,0.034431,1.3134e-06,0.88,0.4,0
0.042241,0.0030489,0.038635,-0.00015421,0.011544,3.8079e-06,0,0,0.070436,-0.030416,0,1.9801e-05,0,0,0,0.038635,-0.00015421,0.011544,0.0056246,0.016675,0.034463,1.3147e-06,0.89,0.4,0
0.042946,0.0030559,0.038634,-0.00019086,0.011533,1.451e-06,0,0,0.070463,-0.030482,0,7.5454e-06,0,0,0,0.038634,-0.00019086,0.011533,0.0021414,0.016659,0.034491,1.316e-06,0.9,0.4,0
0.04365,0.0030623,0.038633,-0.00022374,0.011523,-3.4156e-07,0,0,0.070486,-0.030541,0,-1.7761e-06,0,0,0,0.038633,-0.00022374,0.011523,-0.00050365,0.016644,0.034516,1.317e-06,0.91,0.4,0
0.044355,0.0030679,0.038632,-0.00025294,0.011514,-1.6211e-06,0,0,0.070507,-0.030593,0,-8.4295e-06,0,0,0,0.038632,-0.00025294,0.011514,-0.0023886,0.016631,0.034539,1.318e-06,0.92,0.4,0
0.045061,0.0030728,0.038631,-0.00027853,0.011506,-2.4404e-06,0,0,0.070525,-0.030639,0,-1.269e-05,0,0,0,0.038631,-0.00027853,0.011506,-0.0035936,0.016619,0.034558,1.3188e-06,0.93,0.4,0
0.045766,0.003077,0.03863,-0.00030057,0.011499,-2.854e-06,0,0,0.07054,-0.030678,0,-1.484e-05,0,0,0,0.03863,-0.00030057,0.011499,-0.0042003,0.016609,0.034575,1.3194e-06,0.94,0.4,0
0.046471,0.0030806,0.038629,-0.00031913,0.011493,-2.9176e-06,0,0,0.070553,-0.030711,0,-1.5171e-05,0,0,0,0.038629,-0.00031913,0.011493,-0.004292,0.016601,0.034589,1.32e-06,0.95,0.4,0
0.047177,0.0030834,0.038628,-0.00033424,0.011488,-2.688e-06,0,0,0.070563,-0.030738,0,-1.3977e-05,0,0,0,0.038628,-0.00033424,0.011488,-0.0039528,0.016594,0.0346,1.3205e-06,0.96,0.4,0
0.047883,0.0030857,0.038627,-0.00034595,0.011484,-2.2229e-06,0,0,0.070571,-0.030759,0,-1.1559e-05,0,0,0,0.038627,-0.00034595,0.011484,-0.003268,0.016588,0.034609,1.3208e-06,0.97,0.4,0
0.048588,0.0030873,0.038627,-0.0003543,0.011482,-1.5806e-06,0,0,0.070577,-0.030774,0,-8.2192e-06,0,0,0,0.038627,-0.0003543,0.011482,-0.0023232,0.016585,0.034616,1.3211e-06,0.98,0.4,0
0.049294,0.0030882,0.038626,-0.00035929,0.01148,-8.1995e-07,0,0,0.07058,-0.030783,0,-4.2637e-06,0,0,0,0.038626,-0.00035929,0.01148,-0.001205,0.016582,0.034619,1.3212e-06,0.99,0.4,0
0.05,0.0030885,0.038626,-0.00036096,0.01148,6.115e-06,0,0,0.070581,-0.030786,0,3.1798e-05,0,0,0,0.038626,-0.00036096,0.01148,0.0089866,0.016582,0.03462,1.3213e-06,1,0.4,0
0,0,0.03296,0.014126,0.014126,0.0013166,0,0,0.024484,0,0,0.0034233,0,0,0,0.033051,0.014034,0.014126,3.9796,0.020404,0.018972,3.5068e-07,0,0.41,0
0.00024484,3.4233e-05,0.032924,0.01368,0.013981,0.0013182,0,0,0.024625,-0.00039118,0,0.0034273,0,0,0,0.033013,0.01359,0.013981,3.9006,0.020195,0.019231,3.6476e-07,0.01,0.41,0
0.0004925,6.926e-05,0.033075,0.013305,0.013914,0.0013327,0,0,0.024909,-0.00079159,0,0.003465,0,0,0,0.033164,0.013215,0.013914,3.8392,0.020098,0.019609,3.8558e-07,0.02,0.41,0
0.00074302,0.00010501,0.033227,0.012921,0.013844,0.0013435,0,0,0.025198,-0.0012004,0,0.0034932,0,0,0,0.033316,0.012833,0.013844,3.769,0.019998,0.019996,4.0711e-07,0.03,0.41,0
0.00099645,0.00014143,0.033381,0.01253,0.013773,0.0013506,0,0,0.02549,-0.0016166,0,0.0035116,0,0,0,0.033468,0.012442,0.013773,3.6907,0.019894,0.020393,4.2931e-07,0.04,0.41,0
0.0012528,0.00017843,0.033535,0.012131,0.0137,0.0013539,0,0,0.025785,-0.0020392,0,0.0035201,0,0,0,0.03362,0.012046,0.0137,3.6051,0.019788,0.020796,4.5211e-07,0.05,0.41,0
0.0015122,0.00021594,0.033688,0.011726,0.013624,0.0013534,0,0,0.026083,-0.0024675,0,0.0035188,0,0,0,0.033771,0.011643,0.013624,3.513,0.01968,0.021207,4.7546e-07,0.06,0.41,0
0.0017745,0.0002539,0.033841,0.011316,0.013547,0.0013491,0,0,0.026382,-0.0029003,0,0.0035078,0,0,0,0.033922,0.011236,0.013547,3.4154,0.019568,0.021623,4.993e-07,0.07,0.41,0
0.0020398,0.00029223,0.033993,0.010902,0.013469,0.0013413,0,0,0.026682,-0.0033367,0,0.0034873,0,0,0,0.034071,0.010824,0.013469,3.3132,0.019455,0.022044,5.2357e-07,0.08,0.41,0
0.0023081,0.00033086,0.034144,0.010484,0.013388,0.0013299,0,0,0.026982,-0.003776,0,0.0034578,0,0,0,0.034218,0.010409,0.013388,3.2071,0.019339,0.022468,5.4818e-07,0.09,0.41,0
0.0025795,0.00036973,0.034292,0.010063,0.013307,0.0013153,0,0,0.027282,-0.004217,0,0.0034197,0,0,0,0.034364,0.0099915,0.013307,3.0981,0.019221,0.022895,5.7308e-07,0.1,0.41,0
0.0028538,0.00040876,0.034439,0.0096395,0.013223,0.0012975,0,0,0.02758,-0.0046591,0,0.0033735,0,0,0,0.034506,0.0095718,0.013223,2.9869,0.0191,0.023324,5.9819e-07,0.11,0.41,0
0.003131,0.0004479,0.034582,0.0092148,0.013139,0.0012769,0,0,0.027876,-0.0051015,0,0.00332,0,0,0,0.034646,0.0091507,0.013139,2.8745,0.018979,0.023754,6.2345e-07,0.12,0.41,0
0.0034113,0.00048708,0.034722,0.0087894,0.013054,0.0012538,0,0,0.028169,-0.0055434,0,0.0032598,0,0,0,0.034783,0.0087289,0.013054,2.7615,0.018855,0.024183,6.4879e-07,0.13,0.41,0
0.0036944,0.00052626,0.034859,0.0083637,0.012967,0.0012284,0,0,0.02846,-0.0059841,0,0.0031937,0,0,0,0.034916,0.0083069,0.012967,2.6487,0.01873,0.024612,6.7414e-07,0.14,0.41,0
0.0039805,0.00056539,0.034993,0.0079385,0.012879,0.001201,0,0,0.028747,-0.006423,0,0.0031226,0,0,0,0.035046,0.0078853,0.012879,2.5368,0.018603,0.02504,6.9944e-07,0.15,0.41,0
0.0042694,0.00060441,0.035122,0.0075141,0.012791,0.001172,0,0,0.029031,-0.0068598,0,0.0030472,0,0,0,0.035172,0.0074644,0.012791,2.4265,0.018476,0.025465,7.2464e-07,0.16,0.41,0
0.0045611,0.00064329,0.035248,0.007091,0.012701,0.0011417,0,0,0.02931,-0.0072937,0,0.0029684,0,0,0,0.035294,0.0070447,0.012701,2.3182,0.018347,0.025888,7.4969e-07,0.17,0.41,0
0.0048556,0.000682,0.035369,0.0066695,0.012611,0.0011105,0,0,0.029585,-0.0077246,0,0.0028872,0,0,0,0.035412,0.0066266,0.012611,2.2125,0.018217,0.026308,7.7452e-07,0.18,0.41,0
0.0051528,0.0007205,0.035486,0.00625,0.012521,0.0010786,0,0,0.029855,-0.0081521,0,0.0028044,0,0,0,0.035526,0.0062102,0.012521,2.11,0.018086,0.026725,7.9912e-07,0.19,0.41,0
0.0054527,0.00075878,0.035599,0.0058326,0.012429,0.0010464,0,0,0.030121,-0.008576,0,0.0027207,0,0,0,0.035636,0.0057959,0.012429,2.0109,0.017954,0.027138,8.2342e-07,0.2,0.41,0
0.0057552,0.0007968,0.035708,0.0054177,0.012338,0.0010143,0,0,0.030381,-0.008996,0,0.0026371,0,0,0,0.035742,0.0053838,0.012338,1.9157,0.017821,0.027547,8.4742e-07,0.21,0.41,0
0.0060603,0.00083457,0.035813,0.0050052,0.012245,0.00098238,0,0,0.030638,-0.0094122,0,0.0025542,0,0,0,0.035844,0.0049739,0.012245,1.8246,0.017688,0.027953,8.7107e-07,0.22,0.41,0
0.0063679,0.00087206,0.035914,0.0045954,0.012153,0.00095108,0,0,0.030889,-0.0098245,0,0.0024728,0,0,0,0.035942,0.0045665,0.012153,1.7378,0.017554,0.028355,8.9437e-07,0.23,0.41,0
0.0066781,0.00090927,0.036011,0.0041881,0.01206,0.00092058,0,0,0.031136,-0.010233,0,0.0023935,0,0,0,0.036037,0.0041615,0.01206,1.6557,0.017419,0.028752,9.173e-07,0.24,0.41,0
0.0069907,0.00094621,0.036104,0.0037834,0.011966,0.00089111,0,0,0.031379,-0.010637,0,0.0023169,0,0,0,0.036128,0.0037589,0.011966,1.5781,0.017284,0.029146,9.3984e-07,0.25,0.41,0
0.0073057,0.00098286,0.036193,0.0033813,0.011872,0.00086286,0,0,0.031617,-0.011038,0,0.0022434,0,0,0,0.036216,0.0033586,0.011872,1.5053,0.017149,0.029536,9.62e-07,0.26,0.41,0
0.007623,0.0010192,0.03628,0.0029817,0.011778,0.00083598,0,0,0.031852,-0.011436,0,0.0021736,0,0,0,0.036301,0.0029607,0.011778,1.4373,0.017013,0.029922,9.8377e-07,0.27,0.41,0
0.0079427,0.0010554,0.036363,0.0025844,0.011684,0.0008106,0,0,0.032082,-0.01183,0,0.0021076,0,0,0,0.036382,0.0025649,0.011684,1.3739,0.016877,0.030305,1.0052e-06,0.28,0.41,0
0.0082647,0.0010912,0.036443,0.0021893,0.01159,0.00078681,0,0,0.03231,-0.012221,0,0.0020457,0,0,0,0.036462,0.0021712,0.01159,1.3151,0.016741,0.030685,1.0262e-06,0.29,0.41,0
0.0085889,0.0011268,0.036521,0.0017963,0.011495,0.00076465,0,0,0.032534,-0.012609,0,0.0019881,0,0,0,0.036538,0.0017795,0.011495,1.2609,0.016604,0.031062,1.0468e-06,0.3,0.41,0
0.0089153,0.0011622,0.036597,0.0014053,0.011401,0.00074416,0,0,0.032755,-0.012994,0,0.0019348,0,0,0,0.036612,0.0013895,0.011401,1.2108,0.016467,0.031436,1.0671e-06,0.31,0.41,0
0.009244,0.0011973,0.03667,0.001016,0.011306,0.00072531,0,0,0.032974,-0.013377,0,0.0018858,0,0,0,0.036685,0.0010013,0.011306,1.1649,0.016331,0.031809,1.0871e-06,0.32,0.41,0
0.0095748,0.0012322,0.036742,0.00062842,0.011211,0.00070807,0,0,0.03319,-0.013757,0,0.001841,0,0,0,0.036755,0.00061454,0.011211,1.1228,0.016194,0.032179,1.1067e-06,0.33,0.41,0
0.0099078,0.0012669,0.036811,0.00024236,0.011116,0.00069236,0,0,0.033404,-0.014136,0,0.0018001,0,0,0,0.036824,0.00022926,0.011116,1.0843,0.016057,0.032547,1.126e-06,0.34,0.41,0
0.010243,0.0013014,0.03688,-0.00014227,0.011021,0.00067806,0,0,0.033616,-0.014513,0,0.001763,0,0,0,0.036892,-0.00015469,0.011021,1.0489,0.01592,0.032914,1.145e-06,0.35,0.41,0
0.01058,0.0013357,0.036947,-0.00052557,0.010926,0.00066504,0,0,0.033827,-0.014888,0,0.0017291,0,0,0,0.036959,-0.00053737,0.010926,1.0164,0.015783,0.03328,1.1636e-06,0.36,0.41,0
0.010919,0.0013698,0.037013,-0.00090759,0.010832,0.00065315,0,0,0.034036,-0.015261,0,0.0016982,0,0,0,0.037024,-0.00091884,0.010832,0.98648,0.015646,0.033644,1.182e-06,0.37,0.41,0
0.011261,0.0014037,0.037078,-0.0012883,0.010737,0.0006422,0,0,0.034244,-0.015633,0,0.0016697,0,0,0,0.037089,-0.0012991,0.010737,0.95868,0.015509,0.034007,1.2001e-06,0.38,0.41,0
0.011604,0.0014374,0.037143,-0.0016678,0.010642,0.00063198,0,0,0.03445,-0.016003,0,0.0016431,0,0,0,0.037153,-0.0016781,0.010642,0.93265,0.015373,0.034369,1.2179e-06,0.39,0.41,0
0.01195,0.0014709,0.037207,-0.002046,0.010548,0.00062227,0,0,0.034656,-0.016372,0,0.0016179,0,0,0,0.037216,-0.0020559,0.010548,0.90801,0.015236,0.03473,1.2355e-06,0.4,0.41,0
0.012297,0.0015042,0.03727,-0.0024227,0.010454,0.00061285,0,0,0.03486,-0.01674,0,0.0015934,0,0,0,0.037279,-0.0024322,0.010454,0.88437,0.0151,0.03509,1.2527e-06,0.41,0.41,0
0.012647,0.0015373,0.037332,-0.0027979,0.01036,0.00060348,0,0,0.035064,-0.017106,0,0.001569,0,0,0,0.037341,-0.0028069,0.01036,0.86135,0.014965,0.035449,1.2696e-06,0.42,0.41,0
0.012999,0.0015701,0.037394,-0.0031713,0.010267,0.0005939,0,0,0.035266,-0.01747,0,0.0015441,0,0,0,0.037403,-0.00318,0.010267,0.83859,0.01483,0.035806,1.2862e-06,0.43,0.41,0
0.013352,0.0016027,0.037456,-0.0035427,0.010174,0.00058386,0,0,0.035466,-0.017832,0,0.001518,0,0,0,0.037464,-0.003551,0.010174,0.81573,0.014696,0.036162,1.3025e-06,0.44,0.41,0
0.013708,0.001635,0.037516,-0.0039118,0.010081,0.00057312,0,0,0.035666,-0.018191,0,0.0014901,0,0,0,0.037524,-0.0039197,0.010081,0.79243,0.014562,0.036515,1.3184e-06,0.45,0.41,0
0.014066,0.001667,0.037576,-0.0042783,0.0099894,0.00056142,0,0,0.035863,-0.018548,0,0.0014597,0,0,0,0.037584,-0.0042859,0.0099894,0.76836,0.014429,0.036867,1.334e-06,0.46,0.41,0
0.014425,0.0016986,0.037635,-0.0046419,0.009898,0.00054854,0,0,0.036058,-0.018902,0,0.0014262,0,0,0,0.037642,-0.004649,0.009898,0.74323,0.014297,0.037215,1.3491e-06,0.47,0.41,0
0.014787,0.0017298,0.037693,-0.0050021,0.0098073,0.00053423,0,0,0.036251,-0.019252,0,0.001389,0,0,0,0.0377,-0.0050087,0.0098073,0.71677,0.014166,0.03756,1.3638e-06,0.48,0.41,0
0.01515,0.0017607,0.03775,-0.0053584,0.0097174,0.00051828,0,0,0.036442,-0.019599,0,0.0013475,0,0,0,0.037756,-0.0053646,0.0097174,0.68872,0.014036,0.037901,1.378e-06,0.49,0.41,0
0.015516,0.001791,0.037791,-0.00023832,0.011266,0.00050208,0,0,0.050696,-0.01994,0,0.0019473,0,0,0,0.037797,-0.00024506,0.011266,0.77009,0.016273,0.03386,1.2046e-06,0.5,0.41,0
0.016164,0.0018337,0.037859,0.005007,0.01286,0.00048864,0,0,0.064997,-0.020417,0,0.0025409,0,0,0,0.037866,0.0049997,0.01286,0.85197,0.018575,0.029726,1.0378e-06,0.51,0.41,0
0.016816,0.0018757,0.037911,0.0047719,0.012805,0.00047597,0,0,0.065276,-0.020886,0,0.002475,0,0,0,0.037918,0.0047651,0.012805,0.8227,0.018496,0.029954,1.0523e-06,0.52,0.41,0
0.01747,0.0019169,0.037962,0.0045411,0.012751,0.00046268,0,0,0.065549,-0.021346,0,0.0024059,0,0,0,0.037969,0.0045347,0.012751,0.793,0.018418,0.030177,1.0665e-06,0.53,0.41,0
0.018127,0.0019573,0.038012,0.0043146,0.012698,0.00044877,0,0,0.065817,-0.021797,0,0.0023336,0,0,0,0.038018,0.0043086,0.012698,0.76286,0.018342,0.030396,1.0804e-06,0.54,0.41,0
0.018786,0.0019968,0.03806,0.0040926,0.012646,0.00043423,0,0,0.066077,-0.022238,0,0.002258,0,0,0,0.038066,0.0040871,0.012646,0.7323,0.018266,0.03061,1.094e-06,0.55,0.41,0
0.019448,0.0020354,0.038107,0.0038755,0.012595,0.0004191,0,0,0.066331,-0.02267,0,0.0021793,0,0,0,0.038112,0.0038704,0.012595,0.70135,0.018192,0.03082,1.1072e-06,0.56,0.41,0
0.020113,0.0020731,0.038151,0.0036634,0.012544,0.00040341,0,0,0.066578,-0.023091,0,0.0020977,0,0,0,0.038156,0.0036587,0.012544,0.67007,0.01812,0.031024,1.1201e-06,0.57,0.41,0
0.02078,0.0021099,0.038194,0.0034564,0.012495,0.00038719,0,0,0.066818,-0.023501,0,0.0020134,0,0,0,0.038199,0.0034521,0.012495,0.63852,0.018049,0.031223,1.1325e-06,0.58,0.41,0
0.021449,0.0021456,0.038235,0.0032549,0.012447,0.00037053,0,0,0.067049,-0.0239,0,0.0019267,0,0,0,0.038239,0.0032509,0.012447,0.60681,0.017979,0.031416,1.1445e-06,0.59,0.41,0
0.022121,0.0021804,0.038274,0.0030588,0.0124,0.00035347,0,0,0.067274,-0.024287,0,0.001838,0,0,0,0.038278,0.0030553,0.0124,0.57502,0.017911,0.031604,1.1562e-06,0.6,0.41,0
0.022794,0.0022142,0.038311,0.0028684,0.012354,0.0003361,0,0,0.06749,-0.024663,0,0.0017477,0,0,0,0.038315,0.0028652,0.012354,0.54326,0.017845,0.031786,1.1673e-06,0.61,0.41,0
0.02347,0.0022469,0.038347,0.0026838,0.012309,0.00031851,0,0,0.067697,-0.025026,0,0.0016562,0,0,0,0.03835,0.002681,0.012309,0.51166,0.01778,0.031961,1.1781e-06,0.62,0.41,0
0.024148,0.0022785,0.03838,0.0025051,0.012265,0.00030077,0,0,0.067897,-0.025377,0,0.001564,0,0,0,0.038382,0.0025025,0.012265,0.48033,0.017717,0.032131,1.1884e-06,0.63,0.41,0
0.024828,0.0023091,0.038411,0.0023323,0.012223,0.00028299,0,0,0.068088,-0.025715,0,0.0014716,0,0,0,0.038413,0.0023301,0.012223,0.44938,0.017655,0.032294,1.1982e-06,0.64,0.41,0
0.02551,0.0023386,0.03844,0.0021655,0.012181,0.00026524,0,0,0.068271,-0.026041,0,0.0013793,0,0,0,0.038441,0.0021636,0.012181,0.41893,0.017596,0.03245,1.2076e-06,0.65,0.41,0
0.026194,0.002367,0.038466,0.0020048,0.012141,0.00024763,0,0,0.068445,-0.026355,0,0.0012877,0,0,0,0.038468,0.0020031,0.012141,0.3891,0.017538,0.0326,1.2165e-06,0.66,0.41,0
0.026879,0.0023943,0.038491,0.0018502,0.012102,0.00023023,0,0,0.068611,-0.026656,0,0.0011972,0,0,0,0.038492,0.0018487,0.012102,0.35999,0.017481,0.032744,1.225e-06,0.67,0.41,0
0.027566,0.0024205,0.038514,0.0017016,0.012065,0.00021313,0,0,0.068768,-0.026944,0,0.0011083,0,0,0,0.038515,0.0017004,0.012065,0.33171,0.017427,0.032881,1.233e-06,0.68,0.41,0
0.028254,0.0024457,0.038535,0.0015591,0.012028,0.00019641,0,0,0.068917,-0.02722,0,0.0010214,0,0,0,0.038536,0.001558,0.012028,0.30434,0.017374,0.033012,1.2406e-06,0.69,0.41,0
0.028944,0.0024698,0.038554,0.0014226,0.011993,0.00018015,0,0,0.069058,-0.027483,0,0.00093677,0,0,0,0.038555,0.0014217,0.011993,0.27797,0.017323,0.033137,1.2477e-06,0.7,0.41,0
0.029636,0.0024927,0.038571,0.001292,0.011959,0.00016441,0,0,0.069191,-0.027734,0,0.00085491,0,0,0,0.038572,0.0012913,0.011959,0.25268,0.017274,0.033256,1.2544e-06,0.71,0.41,0
0.030328,0.0025147,0.038586,0.0011674,0.011926,0.00014924,0,0,0.069316,-0.027973,0,0.00077607,0,0,0,0.038587,0.0011668,0.011926,0.22852,0.017227,0.033368,1.2607e-06,0.72,0.41,0
0.031022,0.0025356,0.0386,0.0010486,0.011895,0.00013472,0,0,0.069434,-0.0282,0,0.00070053,0,0,0,0.038601,0.0010481,0.011895,0.20555,0.017181,0.033474,1.2666e-06,0.73,0.41,0
0.031717,0.0025554,0.038612,0.00093548,0.011864,0.00012087,0,0,0.069544,-0.028415,0,0.00062854,0,0,0,0.038613,0.00093509,0.011864,0.18381,0.017137,0.033575,1.2721e-06,0.74,0.41,0
0.032413,0.0025743,0.038623,0.00082801,0.011835,0.00010775,0,0,0.069648,-0.028619,0,0.0005603,0,0,0,0.038623,0.0008277,0.011835,0.16334,0.017095,0.033669,1.2772e-06,0.75,0.41,0
0.03311,0.0025922,0.038632,0.00072606,0.011807,9.5376e-05,0,0,0.069744,-0.028812,0,0.00049595,0,0,0,0.038632,0.00072582,0.011807,0.14416,0.017055,0.033758,1.282e-06,0.76,0.41,0
0.033808,0.002609,0.03864,0.00062952,0.011781,8.3776e-05,0,0,0.069834,-0.028993,0,0.00043564,0,0,0,0.03864,0.00062933,0.011781,0.12628,0.017017,0.033842,1.2864e-06,0.77,0.41,0
0.034507,0.002625,0.038647,0.00053827,0.011756,7.2967e-05,0,0,0.069917,-0.029165,0,0.00037943,0,0,0,0.038647,0.00053813,0.011756,0.1097,0.01698,0.033921,1.2905e-06,0.78,0.41,0
0.035206,0.00264,0.038652,0.00045218,0.011731,6.2957e-05,0,0,0.069995,-0.029326,0,0.00032737,0,0,0,0.038652,0.00045208,0.011731,0.094427,0.016945,0.033994,1.2943e-06,0.79,0.41,0
0.035906,0.0026541,0.038657,0.00037113,0.011708,5.3748e-05,0,0,0.070066,-0.029477,0,0.00027949,0,0,0,0.038657,0.00037106,0.011708,0.080435,0.016912,0.034063,1.2978e-06,0.8,0.41,0
0.036607,0.0026674,0.038661,0.000295,0.011687,4.5337e-05,0,0,0.070132,-0.029618,0,0.00023576,0,0,0,0.038661,0.00029495,0.011687,0.067708,0.016881,0.034127,1.301e-06,0.81,0.41,0
0.037309,0.0026798,0.038664,0.00022367,0.011666,3.7715e-05,0,0,0.070193,-0.02975,0,0.00019612,0,0,0,0.038664,0.00022363,0.011666,0.056216,0.016851,0.034186,1.3039e-06,0.82,0.41,0
0.038011,0.0026913,0.038666,0.00015699,0.011647,3.0866e-05,0,0,0.070249,-0.029874,0,0.0001605,0,0,0,0.038666,0.00015697,0.011647,0.045925,0.016823,0.034241,1.3065e-06,0.83,0.41,0
0.038714,0.0027021,0.038667,9.4862e-05,0.011629,2.477e-05,0,0,0.0703,-0.029988,0,0.0001288,0,0,0,0.038667,9.4846e-05,0.011629,0.036793,0.016797,0.034292,1.309e-06,0.84,0.41,0
0.039417,0.0027121,0.038668,3.7157e-05,0.011612,1.9402e-05,0,0,0.070347,-0.030093,0,0.00010089,0,0,0,0.038668,3.7147e-05,0.011612,0.028776,0.016772,0.034339,1.3112e-06,0.85,0.41,0
0.040121,0.0027213,0.038669,-1.6239e-05,0.011596,1.4734e-05,0,0,0.070389,-0.030191,0,7.6616e-05,0,0,0,0.038669,-1.6245e-05,0.011596,0.021822,0.016749,0.034382,1.3132e-06,0.86,0.41,0
0.040825,0.0027298,0.038669,-6.5436e-05,0.011581,1.0733e-05,0,0,0.070428,-0.030281,0,5.5811e-05,0,0,0,0.038669,-6.5439e-05,0.011581,0.015876,0.016728,0.034422,1.315e-06,0.87,0.41,0
0.041529,0.0027376,0.038669,-0.00011054,0.011567,7.363e-06,0,0,0.070463,-0.030363,0,3.8288e-05,0,0,0,0.038669,-0.00011054,0.011567,0.010879,0.016708,0.034458,1.3166e-06,0.88,0.41,0
0.042234,0.0027446,0.038668,-0.00015165,0.011555,4.5856e-06,0,0,0.070494,-0.030437,0,2.3845e-05,0,0,0,0.038668,-0.00015165,0.011555,0.0067681,0.01669,0.03449,1.318e-06,0.89,0.41,0
0.042939,0.002751,0.038667,-0.00018886,0.011543,2.3592e-06,0,0,0.070522,-0.030504,0,1.2268e-05,0,0,0,0.038667,-0.00018886,0.011543,0.0034787,0.016674,0.034519,1.3193e-06,0.9,0.41,0
0.043645,0.0027567,0.038667,-0.00022226,0.011533,6.4001e-07,0,0,0.070547,-0.030565,0,3.328e-06,0,0,0,0.038667,-0.00022226,0.011533,0.00094294,0.016659,0.034545,1.3204e-06,0.91,0.41,0
0.04435,0.0027618,0.038666,-0.00025192,0.011524,-6.1755e-07,0,0,0.070568,-0.030618,0,-3.2113e-06,0,0,0,0.038666,-0.00025192,0.011524,-0.00090918,0.016646,0.034568,1.3214e-06,0.92,0.41,0
0.045056,0.0027663,0.038665,-0.00027792,0.011516,-1.4609e-06,0,0,0.070587,-0.030665,0,-7.5969e-06,0,0,0,0.038665,-0.00027792,0.011516,-0.0021494,0.016634,0.034588,1.3222e-06,0.93,0.41,0
0.045762,0.0027701,0.038664,-0.00030032,0.011509,-1.939e-06,0,0,0.070603,-0.030705,0,-1.0083e-05,0,0,0,0.038664,-0.00030032,0.011509,-0.0028512,0.016624,0.034605,1.323e-06,0.94,0.41,0
0.046468,0.0027733,0.038663,-0.00031918,0.011503,-2.1018e-06,0,0,0.070616,-0.030738,0,-1.0929e-05,0,0,0,0.038663,-0.00031918,0.011503,-0.0030892,0.016616,0.03462,1.3236e-06,0.95,0.41,0
0.047174,0.0027759,0.038663,-0.00033455,0.011498,-2.0005e-06,0,0,0.070627,-0.030766,0,-1.0403e-05,0,0,0,0.038663,-0.00033455,0.011498,-0.0029392,0.016609,0.034632,1.324e-06,0.96,0.41,0
0.047881,0.0027779,0.038662,-0.00034646,0.011495,-1.6869e-06,0,0,0.070635,-0.030787,0,-8.7719e-06,0,0,0,0.038662,-0.00034646,0.011495,-0.0024777,0.016604,0.034641,1.3244e-06,0.97,0.41,0
0.048587,0.0027794,0.038662,-0.00035494,0.011492,-1.2136e-06,0,0,0.070641,-0.030802,0,-6.3106e-06,0,0,0,0.038662,-0.00035494,0.011492,-0.0017821,0.0166,0.034647,1.3247e-06,0.98,0.41,0
0.049293,0.0027803,0.038662,-0.00036002,0.01149,-6.3351e-07,0,0,0.070645,-0.030811,0,-3.2942e-06,0,0,0,0.038662,-0.00036002,0.01149,-0.00093019,0.016597,0.034651,1.3248e-06,0.99,0.41,0
0.05,0.0027805,0.038661,-0.00036172,0.01149,5.541e-06,0,0,0.070646,-0.030814,0,2.8813e-05,0,0,0,0.038661,-0.00036172,0.01149,0.0081356,0.016597,0.034652,1.3249e-06,1,0.41,0
0,0,0.032914,0.014106,0.014106,0.0011669,0,0,0.024451,0,0,0.003034,0,0,0,0.032987,0.014034,0.014106,3.5367,0.020376,0.018917,3.4764e-07,0,0.42,0
0.00024451,3.034e-05,0.032879,0.013665,0.013963,0.0011683,0,0,0.02459,-0.00038769,0,0.0030376,0,0,0,0.032949,0.013594,0.013963,3.4669,0.020169,0.019173,3.6157e-07,0.01,0.42,0
0.0004918,6.1382e-05,0.033029,0.013293,0.013896,0.0011812,0,0,0.024872,-0.00078449,0,0.0030711,0,0,0,0.033099,0.013222,0.013896,3.413,0.020073,0.019548,3.8212e-07,0.02,0.42,0
0.00074194,9.3069e-05,0.03318,0.012913,0.013828,0.0011909,0,0,0.025158,-0.0011896,0,0.0030963,0,0,0,0.033249,0.012843,0.013828,3.3513,0.019973,0.019932,4.0338e-07,0.03,0.42,0
0.00099496,0.00012534,0.033332,0.012525,0.013757,0.0011973,0,0,0.025447,-0.001602,0,0.0031129,0,0,0,0.0334,0.012456,0.013757,3.2824,0.019871,0.020325,4.253e-07,0.04,0.42,0
0.0012509,0.00015813,0.033485,0.01213,0.013684,0.0012004,0,0,0.02574,-0.002021,0,0.003121,0,0,0,0.033552,0.012062,0.013684,3.2072,0.019766,0.020726,4.4784e-07,0.05,0.42,0
0.0015098,0.00019139,0.033637,0.011728,0.01361,0.0012002,0,0,0.026036,-0.0024455,0,0.0031205,0,0,0,0.033703,0.011663,0.01361,3.1263,0.019658,0.021134,4.7094e-07,0.06,0.42,0
0.0017716,0.00022504,0.033789,0.011322,0.013533,0.0011967,0,0,0.026333,-0.0028748,0,0.0031115,0,0,0,0.033853,0.011258,0.013533,3.0405,0.019548,0.021547,4.9454e-07,0.07,0.42,0
0.0020364,0.00025902,0.03394,0.010911,0.013455,0.0011901,0,0,0.026631,-0.0033079,0,0.0030943,0,0,0,0.034002,0.010849,0.013455,2.9505,0.019436,0.021965,5.1857e-07,0.08,0.42,0
0.0023042,0.00029327,0.03409,0.010496,0.013376,0.0011805,0,0,0.026929,-0.0037439,0,0.0030692,0,0,0,0.034149,0.010437,0.013376,2.8571,0.019321,0.022388,5.4298e-07,0.09,0.42,0
0.002575,0.00032774,0.034238,0.010078,0.013295,0.0011679,0,0,0.027226,-0.004182,0,0.0030366,0,0,0,0.034294,0.010021,0.013295,2.7611,0.019204,0.022813,5.6769e-07,0.1,0.42,0
0.0028487,0.00036237,0.034384,0.0096574,0.013212,0.0011527,0,0,0.027523,-0.0046215,0,0.0029969,0,0,0,0.034438,0.0096038,0.013212,2.6632,0.019085,0.023241,5.9264e-07,0.11,0.42,0
0.0031255,0.0003971,0.034527,0.0092353,0.013129,0.0011349,0,0,0.027818,-0.0050614,0,0.0029508,0,0,0,0.034578,0.0091845,0.013129,2.5642,0.018964,0.023669,6.1777e-07,0.12,0.42,0
0.0034051,0.00043188,0.034667,0.0088122,0.013044,0.0011149,0,0,0.028111,-0.0055012,0,0.0028988,0,0,0,0.034716,0.0087642,0.013044,2.4646,0.018841,0.024098,6.43e-07,0.13,0.42,0
0.0036877,0.00046666,0.034805,0.0083886,0.012958,0.0010929,0,0,0.028401,-0.0059403,0,0.0028416,0,0,0,0.03485,0.0083434,0.012958,2.3651,0.018717,0.024527,6.6828e-07,0.14,0.42,0
0.0039731,0.0005014,0.034939,0.007965,0.012871,0.0010692,0,0,0.028688,-0.0063779,0,0.0027799,0,0,0,0.034981,0.0079227,0.012871,2.2664,0.018592,0.024955,6.9354e-07,0.15,0.42,0
0.0042614,0.00053606,0.035069,0.007542,0.012783,0.001044,0,0,0.028971,-0.0068136,0,0.0027144,0,0,0,0.035108,0.0075024,0.012783,2.1689,0.018465,0.025381,7.1873e-07,0.16,0.42,0
0.0045525,0.0005706,0.035195,0.0071199,0.012695,0.0010177,0,0,0.029251,-0.007247,0,0.002646,0,0,0,0.035232,0.0070831,0.012695,2.0732,0.018337,0.025805,7.438e-07,0.17,0.42,0
0.0048464,0.000605,0.035318,0.0066992,0.012605,0.00099049,0,0,0.029527,-0.0076777,0,0.0025753,0,0,0,0.035352,0.006665,0.012605,1.9798,0.018207,0.026227,7.6869e-07,0.18,0.42,0
0.0051431,0.00063923,0.035437,0.0062801,0.012515,0.00096272,0,0,0.029798,-0.0081053,0,0.0025031,0,0,0,0.035468,0.0062484,0.012515,1.8891,0.018077,0.026645,7.9337e-07,0.19,0.42,0
0.0054424,0.00067326,0.035551,0.0058629,0.012424,0.00093465,0,0,0.030065,-0.0085297,0,0.0024301,0,0,0,0.035581,0.0058335,0.012424,1.8014,0.017946,0.027061,8.178e-07,0.2,0.42,0
0.0057444,0.00070708,0.035662,0.0054478,0.012333,0.00090654,0,0,0.030328,-0.0089506,0,0.002357,0,0,0,0.035689,0.0054207,0.012333,1.717,0.017814,0.027472,8.4194e-07,0.21,0.42,0
0.0060489,0.00074068,0.035769,0.005035,0.012241,0.00087866,0,0,0.030586,-0.0093679,0,0.0022845,0,0,0,0.035794,0.0050099,0.012241,1.6363,0.017682,0.027881,8.6577e-07,0.22,0.42,0
0.0063561,0.00077404,0.035872,0.0046245,0.012149,0.00085123,0,0,0.03084,-0.0097817,0,0.0022132,0,0,0,0.035895,0.0046013,0.012149,1.5593,0.017548,0.028285,8.8927e-07,0.23,0.42,0
0.0066657,0.00080716,0.035971,0.0042164,0.012056,0.00082448,0,0,0.031089,-0.010192,0,0.0021436,0,0,0,0.035992,0.004195,0.012056,1.4863,0.017414,0.028686,9.1242e-07,0.24,0.42,0
0.0069779,0.00084004,0.036067,0.0038106,0.011963,0.00079858,0,0,0.031334,-0.010598,0,0.0020763,0,0,0,0.036086,0.0037909,0.011963,1.4174,0.01728,0.029084,9.3521e-07,0.25,0.42,0
0.0072924,0.00087267,0.036159,0.0034073,0.01187,0.00077372,0,0,0.031575,-0.011001,0,0.0020117,0,0,0,0.036177,0.003389,0.01187,1.3525,0.017145,0.029477,9.5763e-07,0.26,0.42,0
0.0076094,0.00090507,0.036248,0.0030063,0.011776,0.00075001,0,0,0.031813,-0.011401,0,0.00195,0,0,0,0.036265,0.0029894,0.011776,1.2919,0.01701,0.029867,9.7968e-07,0.27,0.42,0
0.0079287,0.00093723,0.036334,0.0026076,0.011682,0.00072758,0,0,0.032047,-0.011797,0,0.0018917,0,0,0,0.036349,0.0025919,0.011682,1.2353,0.016875,0.030254,1.0013e-06,0.28,0.42,0
0.0082503,0.00096916,0.036417,0.002211,0.011588,0.0007065,0,0,0.032277,-0.01219,0,0.0018369,0,0,0,0.036431,0.0021964,0.011588,1.1827,0.016739,0.030638,1.0227e-06,0.29,0.42,0
0.0085742,0.0010009,0.036497,0.0018164,0.011494,0.00068683,0,0,0.032504,-0.012581,0,0.0017858,0,0,0,0.036511,0.0018028,0.011494,1.1341,0.016603,0.031019,1.0436e-06,0.3,0.42,0
0.0089004,0.0010324,0.036575,0.0014238,0.0114,0.00066858,0,0,0.032728,-0.012969,0,0.0017383,0,0,0,0.036588,0.0014111,0.0114,1.0892,0.016466,0.031398,1.0642e-06,0.31,0.42,0
0.0092288,0.0010636,0.036651,0.0010331,0.011305,0.00065174,0,0,0.03295,-0.013354,0,0.0016945,0,0,0,0.036663,0.0010211,0.011305,1.0479,0.01633,0.031774,1.0845e-06,0.32,0.42,0
0.0095594,0.0010947,0.036726,0.00064401,0.011211,0.00063627,0,0,0.033169,-0.013737,0,0.0016543,0,0,0,0.036737,0.0006328,0.011211,1.0099,0.016193,0.032148,1.1044e-06,0.33,0.42,0
0.0098922,0.0011256,0.036798,0.00025657,0.011116,0.00062212,0,0,0.033386,-0.014118,0,0.0016175,0,0,0,0.036809,0.00024598,0.011116,0.97508,0.016057,0.03252,1.124e-06,0.34,0.42,0
0.010227,0.0011564,0.036869,-0.00012933,0.011022,0.00060917,0,0,0.033601,-0.014497,0,0.0015839,0,0,0,0.036879,-0.00013936,0.011022,0.94303,0.015921,0.03289,1.1432e-06,0.35,0.42,0
0.010564,0.0011869,0.036938,-0.00051376,0.010927,0.00059734,0,0,0.033814,-0.014873,0,0.0015531,0,0,0,0.036948,-0.00052328,0.010927,0.91352,0.015784,0.033259,1.1622e-06,0.36,0.42,0
0.010903,0.0012173,0.037007,-0.00089675,0.010833,0.00058646,0,0,0.034026,-0.015249,0,0.0015248,0,0,0,0.037016,-0.00090582,0.010833,0.88622,0.015648,0.033626,1.1808e-06,0.37,0.42,0
0.011245,0.0012474,0.037074,-0.0012783,0.010739,0.00057639,0,0,0.034236,-0.015622,0,0.0014986,0,0,0,0.037083,-0.001287,0.010739,0.86082,0.015512,0.033992,1.1992e-06,0.38,0.42,0
0.011588,0.0012774,0.037141,-0.0016584,0.010645,0.00056695,0,0,0.034445,-0.015994,0,0.0014741,0,0,0,0.037149,-0.0016666,0.010645,0.83699,0.015376,0.034356,1.2172e-06,0.39,0.42,0
0.011934,0.0013073,0.037206,-0.0020369,0.010551,0.00055794,0,0,0.034652,-0.016364,0,0.0014506,0,0,0,0.037214,-0.0020448,0.010551,0.81438,0.01524,0.034719,1.2349e-06,0.4,0.42,0
0.012281,0.0013369,0.037271,-0.0024138,0.010457,0.00054918,0,0,0.034858,-0.016732,0,0.0014279,0,0,0,0.037279,-0.0024214,0.010457,0.79268,0.015105,0.035081,1.2524e-06,0.41,0.42,0
0.012631,0.0013663,0.037336,-0.0027889,0.010364,0.00054044,0,0,0.035063,-0.017099,0,0.0014052,0,0,0,0.037343,-0.0027961,0.010364,0.77155,0.01497,0.035441,1.2694e-06,0.42,0.42,0
0.012982,0.0013955,0.037399,-0.003162,0.010271,0.00053153,0,0,0.035266,-0.017463,0,0.001382,0,0,0,0.037406,-0.0031689,0.010271,0.75065,0.014836,0.0358,1.2862e-06,0.43,0.42,0
0.013336,0.0014245,0.037462,-0.0035328,0.010179,0.0005222,0,0,0.035468,-0.017825,0,0.0013577,0,0,0,0.037468,-0.0035395,0.010179,0.7297,0.014702,0.036156,1.3026e-06,0.44,0.42,0
0.013692,0.0014531,0.037523,-0.0039011,0.010087,0.00051226,0,0,0.035668,-0.018184,0,0.0013319,0,0,0,0.03753,-0.0039075,0.010087,0.70838,0.01457,0.03651,1.3187e-06,0.45,0.42,0
0.014049,0.0014815,0.037584,-0.0042667,0.0099953,0.00050148,0,0,0.035866,-0.018541,0,0.0013039,0,0,0,0.03759,-0.0042727,0.0099953,0.68642,0.014438,0.036862,1.3343e-06,0.46,0.42,0
0.014409,0.0015096,0.037644,-0.004629,0.0099045,0.00048966,0,0,0.036061,-0.018894,0,0.0012731,0,0,0,0.03765,-0.0046347,0.0099045,0.66356,0.014306,0.03721,1.3495e-06,0.47,0.42,0
0.014771,0.0015374,0.037702,-0.0049877,0.0098144,0.00047659,0,0,0.036255,-0.019243,0,0.0012391,0,0,0,0.037708,-0.004993,0.0098144,0.63954,0.014176,0.037554,1.3643e-06,0.48,0.42,0
0.015134,0.0015647,0.03776,-0.0053424,0.0097252,0.00046208,0,0,0.036445,-0.019588,0,0.0012014,0,0,0,0.037765,-0.0053473,0.0097252,0.61415,0.014047,0.037895,1.3785e-06,0.49,0.42,0
0.0155,0.0015917,0.037801,-0.00022373,0.011273,0.00044741,0,0,0.050703,-0.019928,0,0.0017352,0,0,0,0.037807,-0.00022908,0.011273,0.68631,0.016284,0.033855,1.205e-06,0.5,0.42,0
0.016148,0.0016296,0.03787,0.0050187,0.012866,0.00043531,0,0,0.065008,-0.020404,0,0.0022636,0,0,0,0.037875,0.0050129,0.012866,0.75905,0.018585,0.029724,1.0381e-06,0.51,0.42,0
0.0168,0.0016669,0.037922,0.0047842,0.012812,0.00042396,0,0,0.065287,-0.020872,0,0.0022046,0,0,0,0.037928,0.0047788,0.012812,0.73286,0.018506,0.029952,1.0526e-06,0.52,0.42,0
0.017454,0.0017035,0.037974,0.0045539,0.012758,0.00041209,0,0,0.06556,-0.021331,0,0.0021428,0,0,0,0.037979,0.0045489,0.012758,0.70635,0.018429,0.030175,1.0669e-06,0.53,0.42,0
0.018111,0.0017394,0.038024,0.004328,0.012705,0.00039968,0,0,0.065827,-0.021782,0,0.0020783,0,0,0,0.038028,0.0043233,0.012705,0.67948,0.018353,0.030394,1.0808e-06,0.54,0.42,0
0.01877,0.0017745,0.038072,0.0041066,0.012654,0.00038675,0,0,0.066088,-0.022222,0,0.0020111,0,0,0,0.038077,0.0041022,0.012654,0.65229,0.018277,0.030608,1.0944e-06,0.55,0.42,0
0.019433,0.0018088,0.038119,0.0038901,0.012603,0.0003733,0,0,0.066342,-0.022653,0,0.0019412,0,0,0,0.038123,0.003886,0.012603,0.62478,0.018204,0.030818,1.1076e-06,0.56,0.42,0
0.020097,0.0018423,0.038164,0.0036785,0.012553,0.00035938,0,0,0.066589,-0.023073,0,0.0018688,0,0,0,0.038168,0.0036747,0.012553,0.597,0.018132,0.031022,1.1205e-06,0.57,0.42,0
0.020765,0.001875,0.038207,0.003472,0.012504,0.00034501,0,0,0.066829,-0.023483,0,0.0017941,0,0,0,0.038211,0.0034685,0.012504,0.56902,0.018061,0.031221,1.133e-06,0.58,0.42,0
0.021434,0.0019067,0.038249,0.0032708,0.012456,0.00033025,0,0,0.067061,-0.023881,0,0.0017173,0,0,0,0.038252,0.0032677,0.012456,0.54091,0.017992,0.031414,1.145e-06,0.59,0.42,0
0.022106,0.0019376,0.038288,0.0030751,0.012409,0.00031516,0,0,0.067286,-0.024268,0,0.0016388,0,0,0,0.038291,0.0030722,0.012409,0.51275,0.017924,0.031602,1.1567e-06,0.6,0.42,0
0.02278,0.0019676,0.038325,0.0028849,0.012363,0.0002998,0,0,0.067502,-0.024643,0,0.0015589,0,0,0,0.038328,0.0028824,0.012363,0.48463,0.017858,0.031784,1.1679e-06,0.61,0.42,0
0.023456,0.0019967,0.038361,0.0027005,0.012318,0.00028424,0,0,0.067711,-0.025007,0,0.0014781,0,0,0,0.038363,0.0026982,0.012318,0.45665,0.017793,0.03196,1.1787e-06,0.62,0.42,0
0.024134,0.0020248,0.038394,0.0025218,0.012275,0.00026856,0,0,0.067911,-0.025358,0,0.0013965,0,0,0,0.038397,0.0025198,0.012275,0.42892,0.01773,0.03213,1.1891e-06,0.63,0.42,0
0.024814,0.002052,0.038426,0.0023491,0.012233,0.00025284,0,0,0.068103,-0.025697,0,0.0013148,0,0,0,0.038428,0.0023473,0.012233,0.40152,0.017669,0.032293,1.1989e-06,0.64,0.42,0
0.025496,0.0020783,0.038455,0.0021822,0.012191,0.00023715,0,0,0.068286,-0.026024,0,0.0012332,0,0,0,0.038457,0.0021807,0.012191,0.37457,0.01761,0.03245,1.2084e-06,0.65,0.42,0
0.02618,0.0021035,0.038483,0.0020213,0.012151,0.00022157,0,0,0.068462,-0.026338,0,0.0011522,0,0,0,0.038484,0.00202,0.012151,0.34816,0.017552,0.032601,1.2174e-06,0.66,0.42,0
0.026865,0.0021279,0.038508,0.0018665,0.012112,0.00020617,0,0,0.068629,-0.026639,0,0.0010721,0,0,0,0.038509,0.0018653,0.012112,0.32238,0.017496,0.032746,1.226e-06,0.67,0.42,0
0.027552,0.0021512,0.038531,0.0017176,0.012075,0.00019104,0,0,0.068787,-0.026929,0,0.0009934,0,0,0,0.038532,0.0017166,0.012075,0.29732,0.017441,0.032884,1.2341e-06,0.68,0.42,0
0.028241,0.0021736,0.038553,0.0015747,0.012038,0.00017623,0,0,0.068938,-0.027205,0,0.00091642,0,0,0,0.038554,0.0015738,0.012038,0.27306,0.017389,0.033016,1.2417e-06,0.69,0.42,0
0.028931,0.002195,0.038573,0.0014377,0.012003,0.00016182,0,0,0.069081,-0.02747,0,0.00084148,0,0,0,0.038573,0.001437,0.012003,0.24967,0.017338,0.033141,1.249e-06,0.7,0.42,0
0.029622,0.0022155,0.03859,0.0013066,0.011969,0.00014786,0,0,0.069215,-0.027722,0,0.00076889,0,0,0,0.038591,0.0013061,0.011969,0.22723,0.017289,0.033261,1.2558e-06,0.71,0.42,0
0.030315,0.002235,0.038606,0.0011814,0.011936,0.00013441,0,0,0.069342,-0.027963,0,0.00069894,0,0,0,0.038607,0.0011809,0.011936,0.20578,0.017241,0.033374,1.2622e-06,0.72,0.42,0
0.031009,0.0022536,0.038621,0.001062,0.011905,0.00012151,0,0,0.069461,-0.028191,0,0.00063187,0,0,0,0.038621,0.0010616,0.011905,0.18537,0.017196,0.033482,1.2682e-06,0.73,0.42,0
0.031705,0.0022713,0.038634,0.00094822,0.011874,0.00010921,0,0,0.069573,-0.028408,0,0.0005679,0,0,0,0.038634,0.00094791,0.011874,0.16604,0.017152,0.033583,1.2738e-06,0.74,0.42,0
0.032401,0.0022881,0.038645,0.00084006,0.011846,9.7538e-05,0,0,0.069678,-0.028614,0,0.0005072,0,0,0,0.038645,0.00083981,0.011846,0.14783,0.01711,0.033679,1.279e-06,0.75,0.42,0
0.033098,0.0023041,0.038655,0.00073739,0.011818,8.6522e-05,0,0,0.069776,-0.028809,0,0.00044991,0,0,0,0.038655,0.0007372,0.011818,0.13074,0.01707,0.03377,1.2839e-06,0.76,0.42,0
0.033796,0.0023191,0.038663,0.00064012,0.011791,7.6184e-05,0,0,0.069868,-0.028992,0,0.00039616,0,0,0,0.038663,0.00063996,0.011791,0.1148,0.017032,0.033855,1.2884e-06,0.77,0.42,0
0.034495,0.0023333,0.038671,0.00054811,0.011766,6.6541e-05,0,0,0.069953,-0.029166,0,0.00034601,0,0,0,0.038671,0.000548,0.011766,0.10001,0.016995,0.033934,1.2926e-06,0.78,0.42,0
0.035195,0.0023467,0.038677,0.00046127,0.011742,5.7599e-05,0,0,0.070032,-0.029329,0,0.00029951,0,0,0,0.038677,0.00046118,0.011742,0.086357,0.01696,0.034009,1.2964e-06,0.79,0.42,0
0.035896,0.0023594,0.038682,0.00037947,0.011718,4.9363e-05,0,0,0.070106,-0.029481,0,0.00025669,0,0,0,0.038682,0.00037941,0.011718,0.073841,0.016927,0.034079,1.3e-06,0.8,0.42,0
0.036597,0.0023712,0.038686,0.00030259,0.011697,4.183e-05,0,0,0.070173,-0.029625,0,0.00021751,0,0,0,0.038686,0.00030255,0.011697,0.06244,0.016895,0.034144,1.3033e-06,0.81,0.42,0
0.0373,0.0023822,0.03869,0.00023052,0.011676,3.4991e-05,0,0,0.070236,-0.029759,0,0.00018196,0,0,0,0.03869,0.00023048,0.011676,0.05213,0.016865,0.034204,1.3063e-06,0.82,0.42,0
0.038002,0.0023926,0.038692,0.00016312,0.011657,2.8836e-05,0,0,0.070293,-0.029883,0,0.00014994,0,0,0,0.038692,0.0001631,0.011657,0.042881,0.016837,0.03426,1.309e-06,0.83,0.42,0
0.038705,0.0024022,0.038694,0.00010029,0.011638,2.3345e-05,0,0,0.070346,-0.029999,0,0.00012139,0,0,0,0.038694,0.00010028,0.011638,0.034657,0.016811,0.034312,1.3115e-06,0.84,0.42,0
0.039409,0.0024111,0.038696,4.1914e-05,0.011621,1.8498e-05,0,0,0.070394,-0.030107,0,9.6192e-05,0,0,0,0.038696,4.1905e-05,0.011621,0.02742,0.016786,0.03436,1.3138e-06,0.85,0.42,0
0.040113,0.0024193,0.038697,-1.2127e-05,0.011605,1.4271e-05,0,0,0.070438,-0.030206,0,7.421e-05,0,0,0,0.038697,-1.2132e-05,0.011605,0.021124,0.016763,0.034404,1.3159e-06,0.86,0.42,0
0.040818,0.0024269,0.038697,-6.1938e-05,0.011591,1.0634e-05,0,0,0.070478,-0.030297,0,5.5299e-05,0,0,0,0.038697,-6.1941e-05,0.011591,0.01572,0.016742,0.034445,1.3178e-06,0.87,0.42,0
0.041523,0.0024338,0.038698,-0.00010762,0.011577,7.5571e-06,0,0,0.070514,-0.03038,0,3.9297e-05,0,0,0,0.038698,-0.00010762,0.011577,0.011158,0.016722,0.034481,1.3194e-06,0.88,0.42,0
0.042228,0.0024401,0.038698,-0.00014927,0.011565,5.0052e-06,0,0,0.070546,-0.030456,0,2.6027e-05,0,0,0,0.038698,-0.00014927,0.011565,0.0073823,0.016704,0.034514,1.3209e-06,0.89,0.42,0
0.042934,0.0024458,0.038697,-0.00018698,0.011553,2.9422e-06,0,0,0.070575,-0.030524,0,1.5299e-05,0,0,0,0.038697,-0.00018698,0.011553,0.0043353,0.016688,0.034544,1.3223e-06,0.9,0.42,0
0.04364,0.002451,0.038697,-0.00022084,0.011543,1.3296e-06,0,0,0.0706,-0.030585,0,6.9137e-06,0,0,0,0.038697,-0.00022084,0.011543,0.0019574,0.016673,0.034571,1.3234e-06,0.91,0.42,0
0.044346,0.0024555,0.038696,-0.00025091,0.011534,1.2691e-07,0,0,0.070623,-0.03064,0,6.5994e-07,0,0,0,0.038696,-0.00025091,0.011534,0.0001867,0.01666,0.034594,1.3245e-06,0.92,0.42,0
0.045052,0.0024595,0.038696,-0.00027728,0.011525,-7.0767e-07,0,0,0.070642,-0.030687,0,-3.6799e-06,0,0,0,0.038696,-0.00027728,0.011525,-0.0010404,0.016648,0.034615,1.3253e-06,0.93,0.42,0
0.045759,0.0024629,0.038695,-0.0003,0.011518,-1.2175e-06,0,0,0.070659,-0.030728,0,-6.3309e-06,0,0,0,0.038695,-0.0003,0.011518,-0.0017889,0.016638,0.034633,1.3261e-06,0.94,0.42,0
0.046465,0.0024658,0.038694,-0.00031914,0.011513,-1.447e-06,0,0,0.070673,-0.030762,0,-7.5242e-06,0,0,0,0.038694,-0.00031914,0.011513,-0.002125,0.016629,0.034647,1.3267e-06,0.95,0.42,0
0.047172,0.0024681,0.038694,-0.00033473,0.011508,-1.4415e-06,0,0,0.070684,-0.03079,0,-7.4956e-06,0,0,0,0.038694,-0.00033473,0.011508,-0.0021161,0.016622,0.034659,1.3272e-06,0.96,0.42,0
0.047879,0.0024699,0.038693,-0.00034681,0.011504,-1.2471e-06,0,0,0.070692,-0.030812,0,-6.4849e-06,0,0,0,0.038693,-0.00034681,0.011504,-0.0018303,0.016617,0.034669,1.3276e-06,0.97,0.42,0
0.048586,0.0024712,0.038693,-0.00035542,0.011501,-9.1059e-07,0,0,0.070698,-0.030827,0,-4.7351e-06,0,0,0,0.038693,-0.00035542,0.011501,-0.0013361,0.016613,0.034675,1.3279e-06,0.98,0.42,0
0.049293,0.002472,0.038693,-0.00036058,0.0115,-4.7908e-07,0,0,0.070702,-0.030837,0,-2.4912e-06,0,0,0,0.038693,-0.00036058,0.0115,-0.00070287,0.016611,0.034679,1.3281e-06,0.99,0.42,0
0.05,0.0024723,0.038693,-0.0003623,0.011499,4.9553e-06,0,0,0.070703,-0.03084,0,2.5768e-05,0,0,0,0.038693,-0.0003623,0.011499,0.0072697,0.01661,0.034681,1.3281e-06,1,0.42,0
0,0,0.032875,0.014089,0.014089,0.0010184,0,0,0.024421,2.7105e-20,0,0.0026479,0,0,0,0.03293,0.014034,0.014089,3.0941,0.020351,0.018868,3.4499e-07,0,0.43,0
0.00024421,2.6479e-05,0.032839,0.013651,0.013947,0.0010196,0,0,0.02456,-0.00038468,0,0.0026511,0,0,0,0.032893,0.013597,0.013947,3.0333,0.020146,0.019124,3.5879e-07,0.01,0.43,0
0.00049119,5.357e-05,0.032988,0.013282,0.013881,0.0010309,0,0,0.024839,-0.00077835,0,0.0026804,0,0,0,0.033042,0.013229,0.013881,2.9866,0.02005,0.019495,3.791e-07,0.02,0.43,0
0.00074099,8.1224e-05,0.033138,0.012905,0.013813,0.0010394,0,0,0.025123,-0.0011802,0,0.0027025,0,0,0,0.033191,0.012852,0.013813,2.9332,0.019952,0.019876,4.0013e-07,0.03,0.43,0
0.00099365,0.00010939,0.033289,0.01252,0.013743,0.0010451,0,0,0.02541,-0.0015895,0,0.0027174,0,0,0,0.033342,0.012468,0.013743,2.8736,0.019851,0.020266,4.2182e-07,0.04,0.43,0
0.0012492,0.00013801,0.033441,0.012128,0.013671,0.001048,0,0,0.025701,-0.0020052,0,0.0027248,0,0,0,0.033492,0.012077,0.013671,2.8084,0.019747,0.020664,4.4413e-07,0.05,0.43,0
0.0015077,0.00016703,0.033592,0.01173,0.013597,0.001048,0,0,0.025994,-0.0024266,0,0.0027249,0,0,0,0.033642,0.01168,0.013597,2.7383,0.01964,0.02107,4.67e-07,0.06,0.43,0
0.0017691,0.00019641,0.033744,0.011327,0.013521,0.0010452,0,0,0.026289,-0.0028528,0,0.0027176,0,0,0,0.033792,0.011278,0.013521,2.6639,0.01953,0.021481,4.9039e-07,0.07,0.43,0
0.0020335,0.00022607,0.033894,0.010918,0.013444,0.0010398,0,0,0.026585,-0.0032829,0,0.0027034,0,0,0,0.033941,0.010871,0.013444,2.5859,0.019419,0.021897,5.1423e-07,0.08,0.43,0
0.0023008,0.00025598,0.034043,0.010506,0.013365,0.0010316,0,0,0.026882,-0.0037161,0,0.0026822,0,0,0,0.034088,0.010461,0.013365,2.5049,0.019305,0.022317,5.3845e-07,0.09,0.43,0
0.0025711,0.00028609,0.034191,0.010091,0.013284,0.001021,0,0,0.027178,-0.0041517,0,0.0026546,0,0,0,0.034234,0.010048,0.013284,2.4216,0.019189,0.022741,5.63e-07,0.1,0.43,0
0.0028443,0.00031633,0.034336,0.0096728,0.013203,0.001008,0,0,0.027473,-0.0045888,0,0.0026209,0,0,0,0.034377,0.0096317,0.013203,2.3366,0.019071,0.023167,5.8781e-07,0.11,0.43,0
0.0031206,0.00034667,0.034479,0.009253,0.01312,0.00099294,0,0,0.027767,-0.0050267,0,0.0025816,0,0,0,0.034518,0.009214,0.01312,2.2506,0.018951,0.023595,6.1281e-07,0.12,0.43,0
0.0033997,0.00037706,0.03462,0.0088318,0.013035,0.00097588,0,0,0.028059,-0.0054647,0,0.0025373,0,0,0,0.034656,0.0087949,0.013035,2.1641,0.018829,0.024024,6.3795e-07,0.13,0.43,0
0.0036817,0.00040746,0.034757,0.0084099,0.01295,0.00095708,0,0,0.028349,-0.0059022,0,0.0024884,0,0,0,0.034792,0.0083752,0.01295,2.0777,0.018706,0.024452,6.6317e-07,0.14,0.43,0
0.0039667,0.00043783,0.034891,0.0079878,0.012864,0.00093678,0,0,0.028636,-0.0063387,0,0.0024356,0,0,0,0.034924,0.0079553,0.012864,1.9918,0.018581,0.02488,6.8839e-07,0.15,0.43,0
0.0042545,0.00046814,0.035022,0.0075661,0.012776,0.00091521,0,0,0.02892,-0.0067736,0,0.0023795,0,0,0,0.035053,0.0075356,0.012776,1.907,0.018455,0.025307,7.1357e-07,0.16,0.43,0
0.0045451,0.00049835,0.03515,0.0071449,0.012688,0.00089263,0,0,0.0292,-0.0072064,0,0.0023208,0,0,0,0.035178,0.0071165,0.012688,1.8238,0.018328,0.025732,7.3865e-07,0.17,0.43,0
0.0048385,0.00052844,0.035273,0.0067249,0.012599,0.00086928,0,0,0.029476,-0.0076369,0,0.0022601,0,0,0,0.0353,0.0066985,0.012599,1.7425,0.018199,0.026155,7.6359e-07,0.18,0.43,0
0.0051346,0.0005584,0.035393,0.0063062,0.01251,0.0008454,0,0,0.029748,-0.0080646,0,0.0021981,0,0,0,0.035418,0.0062817,0.01251,1.6634,0.01807,0.026575,7.8834e-07,0.19,0.43,0
0.0054334,0.00058818,0.035509,0.0058892,0.012419,0.00082124,0,0,0.030017,-0.0084894,0,0.0021352,0,0,0,0.035532,0.0058665,0.012419,1.587,0.017939,0.026992,8.1287e-07,0.2,0.43,0
0.0057349,0.00061779,0.035622,0.005474,0.012329,0.00079703,0,0,0.030281,-0.008911,0,0.0020723,0,0,0,0.035643,0.005453,0.012329,1.5134,0.017808,0.027406,8.3714e-07,0.21,0.43,0
0.006039,0.00064721,0.03573,0.0050609,0.012237,0.00077297,0,0,0.030541,-0.0093293,0,0.0020097,0,0,0,0.035749,0.0050414,0.012237,1.4428,0.017676,0.027817,8.6112e-07,0.22,0.43,0
0.0063457,0.00067643,0.035835,0.0046498,0.012145,0.00074929,0,0,0.030796,-0.0097442,0,0.0019481,0,0,0,0.035853,0.0046318,0.012145,1.3756,0.017543,0.028224,8.8479e-07,0.23,0.43,0
0.0066549,0.00070544,0.035936,0.004241,0.012053,0.00072615,0,0,0.031048,-0.010156,0,0.001888,0,0,0,0.035953,0.0042244,0.012053,1.3117,0.01741,0.028628,9.0813e-07,0.24,0.43,0
0.0069667,0.00073424,0.036034,0.0038344,0.01196,0.00070372,0,0,0.031295,-0.010564,0,0.0018297,0,0,0,0.036049,0.003819,0.01196,1.2514,0.017276,0.029029,9.3113e-07,0.25,0.43,0
0.0072809,0.00076284,0.036128,0.0034301,0.011867,0.00068215,0,0,0.031539,-0.010969,0,0.0017736,0,0,0,0.036142,0.0034158,0.011867,1.1946,0.017142,0.029426,9.5377e-07,0.26,0.43,0
0.0075975,0.00079123,0.036219,0.0030279,0.011774,0.00066156,0,0,0.031779,-0.01137,0,0.0017201,0,0,0,0.036233,0.0030147,0.011774,1.1414,0.017007,0.029819,9.7606e-07,0.27,0.43,0
0.0079164,0.00081941,0.036308,0.0026279,0.011681,0.00064204,0,0,0.032015,-0.011769,0,0.0016693,0,0,0,0.03632,0.0026157,0.011681,1.0917,0.016872,0.03021,9.9799e-07,0.28,0.43,0
0.0082378,0.0008474,0.036393,0.0022301,0.011587,0.00062365,0,0,0.032248,-0.012164,0,0.0016215,0,0,0,0.036404,0.0022187,0.011587,1.0455,0.016737,0.030597,1.0196e-06,0.29,0.43,0
0.0085614,0.00087519,0.036476,0.0018342,0.011493,0.00060645,0,0,0.032478,-0.012556,0,0.0015768,0,0,0,0.036487,0.0018236,0.011493,1.0026,0.016601,0.030981,1.0408e-06,0.3,0.43,0
0.0088873,0.00090279,0.036557,0.0014403,0.011399,0.00059046,0,0,0.032705,-0.012946,0,0.0015352,0,0,0,0.036567,0.0014304,0.011399,0.96303,0.016465,0.031363,1.0616e-06,0.31,0.43,0
0.0092155,0.00093022,0.036635,0.0010482,0.011305,0.00057566,0,0,0.032929,-0.013334,0,0.0014967,0,0,0,0.036644,0.0010389,0.011305,0.9265,0.016329,0.031743,1.0821e-06,0.32,0.43,0
0.0095459,0.00095747,0.036711,0.00065792,0.011211,0.00056202,0,0,0.033151,-0.013719,0,0.0014613,0,0,0,0.03672,0.00064916,0.011211,0.89286,0.016193,0.03212,1.1023e-06,0.33,0.43,0
0.0098785,0.00098455,0.036786,0.0002693,0.011117,0.00054949,0,0,0.03337,-0.014101,0,0.0014287,0,0,0,0.036794,0.00026103,0.011117,0.8619,0.016057,0.032495,1.1221e-06,0.34,0.43,0
0.010213,0.0010115,0.036859,-0.00011769,0.011022,0.00053799,0,0,0.033588,-0.014482,0,0.0013988,0,0,0,0.036867,-0.00012552,0.011022,0.83339,0.015921,0.032868,1.1417e-06,0.35,0.43,0
0.01055,0.0010382,0.036931,-0.00050308,0.010928,0.00052743,0,0,0.033803,-0.014861,0,0.0013713,0,0,0,0.036938,-0.00051051,0.010928,0.80706,0.015785,0.03324,1.1609e-06,0.36,0.43,0
0.010889,0.0010648,0.037001,-0.00088689,0.010834,0.00051768,0,0,0.034017,-0.015238,0,0.001346,0,0,0,0.037008,-0.00089397,0.010834,0.78266,0.01565,0.03361,1.1797e-06,0.37,0.43,0
0.011231,0.0010913,0.03707,-0.0012691,0.01074,0.00050861,0,0,0.034229,-0.015612,0,0.0013224,0,0,0,0.037077,-0.0012759,0.01074,0.7599,0.015514,0.033978,1.1983e-06,0.38,0.43,0
0.011574,0.0011175,0.037139,-0.0016497,0.010647,0.00050008,0,0,0.03444,-0.015985,0,0.0013002,0,0,0,0.037145,-0.0016561,0.010647,0.73852,0.015379,0.034344,1.2165e-06,0.39,0.43,0
0.011919,0.0011437,0.037206,-0.0020285,0.010553,0.00049191,0,0,0.034649,-0.016356,0,0.001279,0,0,0,0.037212,-0.0020347,0.010553,0.7182,0.015244,0.034709,1.2344e-06,0.4,0.43,0
0.012267,0.0011696,0.037273,-0.0024055,0.01046,0.00048394,0,0,0.034856,-0.016725,0,0.0012583,0,0,0,0.037278,-0.0024114,0.01046,0.69868,0.015109,0.035073,1.252e-06,0.41,0.43,0
0.012616,0.0011953,0.037338,-0.0027806,0.010367,0.000476,0,0,0.035062,-0.017092,0,0.0012376,0,0,0,0.037344,-0.0027862,0.010367,0.67967,0.014975,0.035434,1.2693e-06,0.42,0.43,0
0.012968,0.0012209,0.037403,-0.0031534,0.010275,0.00046788,0,0,0.035266,-0.017457,0,0.0012165,0,0,0,0.037408,-0.0031588,0.010275,0.66089,0.014841,0.035793,1.2862e-06,0.43,0.43,0
0.013322,0.0012462,0.037466,-0.0035237,0.010183,0.00045942,0,0,0.035469,-0.017819,0,0.0011945,0,0,0,0.037472,-0.0035289,0.010183,0.64207,0.014708,0.036151,1.3027e-06,0.44,0.43,0
0.013678,0.0012713,0.037529,-0.0038914,0.010091,0.00045042,0,0,0.035669,-0.018178,0,0.0011711,0,0,0,0.037534,-0.0038963,0.010091,0.62295,0.014576,0.036505,1.3188e-06,0.45,0.43,0
0.014035,0.0012962,0.037591,-0.004256,0.010001,0.0004407,0,0,0.035868,-0.018534,0,0.0011458,0,0,0,0.037596,-0.0042607,0.010001,0.6033,0.014445,0.036857,1.3346e-06,0.46,0.43,0
0.014395,0.0013207,0.037652,-0.0046173,0.0099103,0.00043007,0,0,0.036064,-0.018886,0,0.0011182,0,0,0,0.037656,-0.0046217,0.0099103,0.58288,0.014315,0.037205,1.3499e-06,0.47,0.43,0
0.014757,0.001345,0.037711,-0.0049747,0.0098208,0.00041836,0,0,0.036257,-0.019234,0,0.0010877,0,0,0,0.037715,-0.0049788,0.0098208,0.56149,0.014186,0.037549,1.3647e-06,0.48,0.43,0
0.01512,0.0013689,0.037768,-0.005328,0.0097321,0.00040541,0,0,0.036447,-0.019578,0,0.0010541,0,0,0,0.037772,-0.0053318,0.0097321,0.53892,0.014058,0.037889,1.379e-06,0.49,0.43,0
0.015485,0.0013924,0.037811,-0.00021067,0.01128,0.00039236,0,0,0.050709,-0.019917,0,0.0015216,0,0,0,0.037815,-0.00021478,0.01128,0.60193,0.016293,0.033851,1.2054e-06,0.5,0.43,0
0.016134,0.0014257,0.037879,0.0050291,0.012873,0.00038166,0,0,0.065017,-0.020393,0,0.0019846,0,0,0,0.037884,0.0050247,0.012873,0.66555,0.018594,0.029722,1.0383e-06,0.51,0.43,0
0.016786,0.0014583,0.037932,0.0047951,0.012818,0.00037165,0,0,0.065296,-0.02086,0,0.0019326,0,0,0,0.037936,0.004791,0.012818,0.6425,0.018515,0.02995,1.0529e-06,0.52,0.43,0
0.01744,0.0014903,0.037984,0.0045653,0.012765,0.00036122,0,0,0.06557,-0.021319,0,0.0018783,0,0,0,0.037988,0.0045614,0.012765,0.61921,0.018438,0.030173,1.0671e-06,0.53,0.43,0
0.018097,0.0015217,0.038034,0.0043399,0.012712,0.00035033,0,0,0.065837,-0.021768,0,0.0018217,0,0,0,0.038038,0.0043362,0.012712,0.59564,0.018362,0.030392,1.0811e-06,0.54,0.43,0
0.018757,0.0015524,0.038083,0.004119,0.01266,0.00033901,0,0,0.066098,-0.022208,0,0.0017628,0,0,0,0.038086,0.0041156,0.01266,0.57181,0.018288,0.030606,1.0947e-06,0.55,0.43,0
0.019419,0.0015824,0.03813,0.0039029,0.01261,0.00032725,0,0,0.066352,-0.022638,0,0.0017017,0,0,0,0.038133,0.0038998,0.01261,0.54774,0.018214,0.030816,1.1079e-06,0.56,0.43,0
0.020084,0.0016117,0.038175,0.0036917,0.01256,0.00031508,0,0,0.066599,-0.023058,0,0.0016384,0,0,0,0.038178,0.0036889,0.01256,0.52346,0.018142,0.03102,1.1208e-06,0.57,0.43,0
0.020751,0.0016402,0.038219,0.0034856,0.012511,0.00030254,0,0,0.066839,-0.023467,0,0.0015732,0,0,0,0.038221,0.003483,0.012511,0.49902,0.018072,0.031219,1.1333e-06,0.58,0.43,0
0.021421,0.001668,0.03826,0.0032848,0.012464,0.00028967,0,0,0.067072,-0.023865,0,0.0015063,0,0,0,0.038263,0.0032824,0.012464,0.47448,0.018003,0.031413,1.1454e-06,0.59,0.43,0
0.022093,0.0016951,0.0383,0.0030893,0.012417,0.00027651,0,0,0.067296,-0.024251,0,0.0014379,0,0,0,0.038302,0.0030872,0.012417,0.44991,0.017935,0.031601,1.1571e-06,0.6,0.43,0
0.022767,0.0017213,0.038338,0.0028994,0.012371,0.00026313,0,0,0.067513,-0.024627,0,0.0013683,0,0,0,0.03834,0.0028975,0.012371,0.42539,0.017869,0.031783,1.1684e-06,0.61,0.43,0
0.023443,0.0017467,0.038374,0.0027151,0.012327,0.00024958,0,0,0.067722,-0.02499,0,0.0012978,0,0,0,0.038375,0.0027134,0.012327,0.40099,0.017805,0.031959,1.1792e-06,0.62,0.43,0
0.024121,0.0017714,0.038407,0.0025366,0.012283,0.00023592,0,0,0.067923,-0.025341,0,0.0012268,0,0,0,0.038409,0.002535,0.012283,0.37681,0.017742,0.032129,1.1896e-06,0.63,0.43,0
0.024801,0.0017952,0.038439,0.0023638,0.012241,0.00022223,0,0,0.068116,-0.025681,0,0.0011556,0,0,0,0.038441,0.0023624,0.012241,0.35293,0.017681,0.032293,1.1996e-06,0.64,0.43,0
0.025483,0.0018181,0.038469,0.0021969,0.0122,0.00020856,0,0,0.0683,-0.026008,0,0.0010845,0,0,0,0.03847,0.0021957,0.0122,0.32943,0.017622,0.032451,1.2091e-06,0.65,0.43,0
0.026167,0.0018403,0.038497,0.0020359,0.01216,0.00019499,0,0,0.068477,-0.026322,0,0.0010139,0,0,0,0.038498,0.0020348,0.01216,0.30639,0.017564,0.032602,1.2182e-06,0.66,0.43,0
0.026853,0.0018615,0.038523,0.0018808,0.012121,0.00018157,0,0,0.068645,-0.026625,0,0.00094418,0,0,0,0.038524,0.0018799,0.012121,0.28391,0.017508,0.032747,1.2268e-06,0.67,0.43,0
0.02754,0.001882,0.038547,0.0017316,0.012084,0.00016838,0,0,0.068805,-0.026915,0,0.00087557,0,0,0,0.038548,0.0017308,0.012084,0.26204,0.017454,0.032886,1.235e-06,0.68,0.43,0
0.028229,0.0019016,0.038569,0.0015884,0.012047,0.00015547,0,0,0.068956,-0.027193,0,0.00080844,0,0,0,0.038569,0.0015877,0.012047,0.24087,0.017401,0.033019,1.2427e-06,0.69,0.43,0
0.028919,0.0019203,0.038589,0.001451,0.012012,0.00014289,0,0,0.0691,-0.027459,0,0.00074305,0,0,0,0.038589,0.0014505,0.012012,0.22045,0.017351,0.033145,1.25e-06,0.7,0.43,0
0.029611,0.0019383,0.038607,0.0013195,0.011978,0.00013071,0,0,0.069236,-0.027712,0,0.00067968,0,0,0,0.038608,0.001319,0.011978,0.20084,0.017302,0.033266,1.2569e-06,0.71,0.43,0
0.030304,0.0019554,0.038624,0.0011938,0.011945,0.00011896,0,0,0.069364,-0.027954,0,0.00061858,0,0,0,0.038624,0.0011934,0.011945,0.18209,0.017254,0.03338,1.2634e-06,0.72,0.43,0
0.030998,0.0019717,0.038639,0.0010738,0.011914,0.00010768,0,0,0.069485,-0.028184,0,0.00055995,0,0,0,0.038639,0.0010735,0.011914,0.16424,0.017209,0.033488,1.2695e-06,0.73,0.43,0
0.031694,0.0019873,0.038652,0.00095947,0.011883,9.6921e-05,0,0,0.069599,-0.028403,0,0.00050399,0,0,0,0.038652,0.00095922,0.011883,0.14733,0.017165,0.033591,1.2752e-06,0.74,0.43,0
0.03239,0.002002,0.038664,0.00085071,0.011855,8.6703e-05,0,0,0.069705,-0.02861,0,0.00045085,0,0,0,0.038664,0.00085051,0.011855,0.13137,0.017123,0.033688,1.2805e-06,0.75,0.43,0
0.033088,0.002016,0.038675,0.00074741,0.011827,7.7051e-05,0,0,0.069805,-0.028806,0,0.00040066,0,0,0,0.038675,0.00074726,0.011827,0.1164,0.017083,0.033779,1.2855e-06,0.76,0.43,0
0.033786,0.0020292,0.038684,0.00064949,0.0118,6.7986e-05,0,0,0.069898,-0.028991,0,0.00035353,0,0,0,0.038684,0.00064937,0.0118,0.10242,0.017044,0.033865,1.2901e-06,0.77,0.43,0
0.034486,0.0020417,0.038692,0.00055684,0.011775,5.9521e-05,0,0,0.069985,-0.029166,0,0.00030951,0,0,0,0.038692,0.00055674,0.011775,0.089427,0.017008,0.033946,1.2944e-06,0.78,0.43,0
0.035186,0.0020535,0.038698,0.00046934,0.01175,5.1665e-05,0,0,0.070065,-0.029331,0,0.00026866,0,0,0,0.038699,0.00046927,0.01175,0.077432,0.016973,0.034022,1.2983e-06,0.79,0.43,0
0.035887,0.0020645,0.038704,0.00038688,0.011727,4.442e-05,0,0,0.07014,-0.029485,0,0.00023098,0,0,0,0.038704,0.00038682,0.011727,0.06642,0.016939,0.034092,1.302e-06,0.8,0.43,0
0.036589,0.0020749,0.038709,0.00030934,0.011706,3.7785e-05,0,0,0.070209,-0.02963,0,0.00019648,0,0,0,0.038709,0.00030931,0.011706,0.056378,0.016908,0.034159,1.3053e-06,0.81,0.43,0
0.037291,0.0020846,0.038713,0.00023662,0.011685,3.1754e-05,0,0,0.070273,-0.029766,0,0.00016512,0,0,0,0.038713,0.00023659,0.011685,0.047285,0.016878,0.03422,1.3084e-06,0.82,0.43,0
0.037994,0.0020937,0.038716,0.0001686,0.011665,2.6315e-05,0,0,0.070332,-0.029892,0,0.00013684,0,0,0,0.038716,0.00016858,0.011665,0.039114,0.01685,0.034277,1.3112e-06,0.83,0.43,0
0.038698,0.0021021,0.038719,0.00010515,0.011647,2.1456e-05,0,0,0.070386,-0.030009,0,0.00011157,0,0,0,0.038719,0.00010514,0.011647,0.031837,0.016824,0.03433,1.3138e-06,0.84,0.43,0
0.039402,0.00211,0.03872,4.618e-05,0.01163,1.7158e-05,0,0,0.070435,-0.030118,0,8.9221e-05,0,0,0,0.03872,4.6172e-05,0.01163,0.025419,0.016799,0.034379,1.3162e-06,0.85,0.43,0
0.040107,0.0021172,0.038722,-8.4292e-06,0.011614,1.3399e-05,0,0,0.07048,-0.030218,0,6.9674e-05,0,0,0,0.038722,-8.4338e-06,0.011614,0.019822,0.016776,0.034423,1.3183e-06,0.86,0.43,0
0.040812,0.0021239,0.038723,-5.8779e-05,0.011599,1.0155e-05,0,0,0.070521,-0.030311,0,5.2806e-05,0,0,0,0.038723,-5.8782e-05,0.011599,0.015003,0.016754,0.034465,1.3202e-06,0.87,0.43,0
0.041517,0.0021299,0.038723,-0.00010497,0.011586,7.3993e-06,0,0,0.070558,-0.030395,0,3.8476e-05,0,0,0,0.038723,-0.00010497,0.011586,0.010918,0.016735,0.034502,1.322e-06,0.88,0.43,0
0.042223,0.0021355,0.038723,-0.0001471,0.011573,5.1021e-06,0,0,0.070591,-0.030472,0,2.6531e-05,0,0,0,0.038723,-0.0001471,0.011573,0.0075206,0.016716,0.034536,1.3235e-06,0.89,0.43,0
0.042929,0.0021405,0.038723,-0.00018525,0.011561,3.232e-06,0,0,0.070621,-0.030541,0,1.6806e-05,0,0,0,0.038723,-0.00018525,0.011561,0.0047593,0.0167,0.034566,1.3249e-06,0.9,0.43,0
0.043635,0.002145,0.038723,-0.00021951,0.011551,1.7554e-06,0,0,0.070648,-0.030604,0,9.1282e-06,0,0,0,0.038723,-0.00021951,0.011551,0.0025827,0.016685,0.034593,1.3261e-06,0.91,0.43,0
0.044342,0.002149,0.038723,-0.00024995,0.011542,6.3732e-07,0,0,0.070671,-0.030659,0,3.3141e-06,0,0,0,0.038723,-0.00024995,0.011542,0.00093695,0.016672,0.034617,1.3272e-06,0.92,0.43,0
0.045049,0.0021525,0.038722,-0.00027664,0.011534,-1.5889e-07,0,0,0.070691,-0.030707,0,-8.2623e-07,0,0,0,0.038722,-0.00027664,0.011534,-0.00023343,0.01666,0.034638,1.3281e-06,0.93,0.43,0
0.045756,0.0021555,0.038722,-0.00029965,0.011527,-6.7097e-07,0,0,0.070708,-0.030749,0,-3.489e-06,0,0,0,0.038722,-0.00029965,0.011527,-0.00098518,0.01665,0.034656,1.3289e-06,0.94,0.43,0
0.046463,0.002158,0.038722,-0.00031902,0.011521,-9.377e-07,0,0,0.070722,-0.030783,0,-4.876e-06,0,0,0,0.038722,-0.00031902,0.011521,-0.0013762,0.016641,0.034672,1.3295e-06,0.95,0.43,0
0.04717,0.0021601,0.038721,-0.00033481,0.011516,-9.9874e-07,0,0,0.070734,-0.030812,0,-5.1935e-06,0,0,0,0.038721,-0.00033481,0.011516,-0.0014652,0.016634,0.034684,1.3301e-06,0.96,0.43,0
0.047878,0.0021617,0.038721,-0.00034705,0.011512,-8.9443e-07,0,0,0.070743,-0.030834,0,-4.651e-06,0,0,0,0.038721,-0.00034705,0.011512,-0.0013117,0.016629,0.034693,1.3304e-06,0.97,0.43,0
0.048585,0.0021628,0.038721,-0.00035578,0.011509,-6.6564e-07,0,0,0.070749,-0.03085,0,-3.4613e-06,0,0,0,0.038721,-0.00035578,0.011509,-0.000976,0.016625,0.0347,1.3307e-06,0.98,0.43,0
0.049293,0.0021635,0.03872,-0.000361,0.011508,-3.5365e-07,0,0,0.070753,-0.030859,0,-1.839e-06,0,0,0,0.03872,-0.000361,0.011508,-0.00051848,0.016622,0.034704,1.3309e-06,0.99,0.43,0
0.05,0.0021637,0.03872,-0.00036274,0.011507,4.3591e-06,0,0,0.070754,-0.030862,0,2.2667e-05,0,0,0,0.03872,-0.00036274,0.011507,0.0063904,0.016622,0.034706,1.331e-06,1,0.43,0
0,0,0.032841,0.014075,0.014075,0.000871,0,0,0.024396,2.7105e-20,0,0.0022646,0,0,0,0.032881,0.014034,0.014075,2.6517,0.02033,0.018827,3.4272e-07,0,0.44,0
0.00024396,2.2646e-05,0.032805,0.01364,0.013933,0.00087206,0,0,0.024533,-0.00038211,0,0.0022674,0,0,0,0.032845,0.0136,0.013933,2.5999,0.020126,0.01908,3.564e-07,0.01,0.44,0
0.00049067,4.5815e-05,0.032953,0.013273,0.013868,0.00088172,0,0,0.024811,-0.00077312,0,0.0022925,0,0,0,0.032992,0.013234,0.013868,2.5602,0.020031,0.019449,3.7652e-07,0.02,0.44,0
0.00074017,6.9465e-05,0.033102,0.012898,0.0138,0.00088905,0,0,0.025093,-0.0011723,0,0.0023115,0,0,0,0.033141,0.012859,0.0138,2.5148,0.019934,0.019828,3.9734e-07,0.03,0.44,0
0.00099252,9.3551e-05,0.033252,0.012516,0.01373,0.00089401,0,0,0.025378,-0.0015787,0,0.0023244,0,0,0,0.033291,0.012478,0.01373,2.4641,0.019833,0.020216,4.1883e-07,0.04,0.44,0
0.0012477,0.00011803,0.033403,0.012127,0.013659,0.00089657,0,0,0.025667,-0.0019917,0,0.0023311,0,0,0,0.033441,0.012089,0.013659,2.4087,0.01973,0.020612,4.4095e-07,0.05,0.44,0
0.0015059,0.00014285,0.033554,0.011731,0.013586,0.00089673,0,0,0.025959,-0.0024104,0,0.0023315,0,0,0,0.033591,0.011695,0.013586,2.3491,0.019623,0.021014,4.6363e-07,0.06,0.44,0
0.0017669,0.00016798,0.033704,0.01133,0.01351,0.00089453,0,0,0.026252,-0.002834,0,0.0023258,0,0,0,0.03374,0.011295,0.01351,2.2859,0.019515,0.021424,4.8683e-07,0.07,0.44,0
0.0020309,0.00019336,0.033854,0.010925,0.013434,0.00089003,0,0,0.026547,-0.0032616,0,0.0023141,0,0,0,0.033888,0.01089,0.013434,2.2195,0.019404,0.021838,5.105e-07,0.08,0.44,0
0.0022978,0.00021895,0.034003,0.010515,0.013355,0.0008833,0,0,0.026842,-0.0036924,0,0.0022966,0,0,0,0.034036,0.010482,0.013355,2.1507,0.019291,0.022257,5.3457e-07,0.09,0.44,0
0.0025677,0.00024471,0.03415,0.010102,0.013275,0.00087447,0,0,0.027137,-0.0041258,0,0.0022736,0,0,0,0.034181,0.01007,0.013275,2.0798,0.019176,0.022679,5.5898e-07,0.1,0.44,0
0.0028406,0.00027059,0.034295,0.0096858,0.013194,0.00086365,0,0,0.027431,-0.0045609,0,0.0022455,0,0,0,0.034325,0.0096556,0.013194,2.0075,0.019058,0.023104,5.8367e-07,0.11,0.44,0
0.0031163,0.00029656,0.034438,0.0092679,0.013112,0.00085101,0,0,0.027724,-0.004997,0,0.0022126,0,0,0,0.034467,0.0092391,0.013112,1.9343,0.018939,0.023531,6.0857e-07,0.12,0.44,0
0.0033951,0.00032258,0.034578,0.0088484,0.013028,0.00083671,0,0,0.028015,-0.0054335,0,0.0021754,0,0,0,0.034605,0.0088212,0.013028,1.8606,0.018818,0.02396,6.3363e-07,0.13,0.44,0
0.0036767,0.00034861,0.034716,0.008428,0.012943,0.00082093,0,0,0.028305,-0.0058697,0,0.0021344,0,0,0,0.034742,0.0084024,0.012943,1.7869,0.018696,0.024388,6.5878e-07,0.14,0.44,0
0.0039612,0.00037462,0.034851,0.0080073,0.012857,0.00080386,0,0,0.028591,-0.0063052,0,0.00209,0,0,0,0.034875,0.0079832,0.012857,1.7138,0.018572,0.024816,6.8397e-07,0.15,0.44,0
0.0042485,0.00040059,0.034982,0.0075865,0.012771,0.00078572,0,0,0.028875,-0.0067393,0,0.0020429,0,0,0,0.035005,0.007564,0.012771,1.6415,0.018446,0.025243,7.0913e-07,0.16,0.44,0
0.0045386,0.00042647,0.03511,0.0071662,0.012683,0.00076669,0,0,0.029155,-0.0071717,0,0.0019934,0,0,0,0.035131,0.0071452,0.012683,1.5704,0.01832,0.025669,7.3423e-07,0.17,0.44,0
0.0048316,0.00045226,0.035235,0.0067468,0.012594,0.00074701,0,0,0.029432,-0.0076019,0,0.0019422,0,0,0,0.035254,0.0067272,0.012594,1.501,0.018192,0.026093,7.5921e-07,0.18,0.44,0
0.0051273,0.00047794,0.035356,0.0063285,0.012505,0.00072685,0,0,0.029705,-0.0080298,0,0.0018898,0,0,0,0.035374,0.0063103,0.012505,1.4335,0.018063,0.026514,7.8402e-07,0.19,0.44,0
0.0054257,0.00050347,0.035473,0.0059117,0.012415,0.00070644,0,0,0.029975,-0.0084548,0,0.0018368,0,0,0,0.03549,0.0058948,0.012415,1.3682,0.017933,0.026933,8.0863e-07,0.2,0.44,0
0.0057268,0.00052886,0.035587,0.0054964,0.012325,0.00068596,0,0,0.03024,-0.008877,0,0.0017835,0,0,0,0.035602,0.0054808,0.012325,1.3053,0.017803,0.027349,8.33e-07,0.21,0.44,0
0.0060305,0.00055409,0.035697,0.005083,0.012234,0.0006656,0,0,0.030502,-0.0092961,0,0.0017306,0,0,0,0.035711,0.0050685,0.012234,1.245,0.017671,0.027762,8.5711e-07,0.22,0.44,0
0.0063368,0.00057916,0.035803,0.0046716,0.012142,0.00064553,0,0,0.030759,-0.009712,0,0.0016784,0,0,0,0.035816,0.0046582,0.012142,1.1874,0.017539,0.028172,8.8092e-07,0.23,0.44,0
0.0066457,0.00060405,0.035906,0.0042622,0.01205,0.0006259,0,0,0.031012,-0.010125,0,0.0016273,0,0,0,0.035918,0.0042498,0.01205,1.1327,0.017406,0.028578,9.0443e-07,0.24,0.44,0
0.0069571,0.00062876,0.036006,0.0038548,0.011958,0.00060685,0,0,0.031262,-0.010534,0,0.0015778,0,0,0,0.036017,0.0038434,0.011958,1.081,0.017273,0.028981,9.276e-07,0.25,0.44,0
0.0072709,0.0006533,0.036102,0.0034496,0.011865,0.0005885,0,0,0.031507,-0.010941,0,0.0015301,0,0,0,0.036112,0.003439,0.011865,1.0322,0.017139,0.029381,9.5044e-07,0.26,0.44,0
0.0075872,0.00067767,0.036195,0.0030465,0.011772,0.00057096,0,0,0.031749,-0.011344,0,0.0014845,0,0,0,0.036205,0.0030367,0.011772,0.98649,0.017005,0.029777,9.7293e-07,0.27,0.44,0
0.0079059,0.00070186,0.036285,0.0026455,0.011679,0.0005543,0,0,0.031988,-0.011744,0,0.0014412,0,0,0,0.036294,0.0026364,0.011679,0.94376,0.01687,0.030171,9.9507e-07,0.28,0.44,0
0.008227,0.00072588,0.036373,0.0022466,0.011586,0.00053859,0,0,0.032223,-0.012141,0,0.0014003,0,0,0,0.036381,0.0022381,0.011586,0.90396,0.016735,0.030561,1.0169e-06,0.29,0.44,0
0.0085504,0.00074974,0.036458,0.0018496,0.011492,0.00052386,0,0,0.032455,-0.012535,0,0.001362,0,0,0,0.036466,0.0018417,0.011492,0.86702,0.0166,0.030949,1.0383e-06,0.3,0.44,0
0.0088761,0.00077343,0.03654,0.0014546,0.011399,0.00051013,0,0,0.032684,-0.012927,0,0.0013264,0,0,0,0.036548,0.0014472,0.011399,0.83283,0.016464,0.031333,1.0594e-06,0.31,0.44,0
0.0092041,0.00079698,0.036621,0.0010614,0.011305,0.0004974,0,0,0.032911,-0.013316,0,0.0012932,0,0,0,0.036628,0.0010545,0.011305,0.80124,0.016329,0.031716,1.0801e-06,0.32,0.44,0
0.0095343,0.00082037,0.036699,0.00067007,0.011211,0.00048563,0,0,0.033135,-0.013703,0,0.0012626,0,0,0,0.036706,0.00066353,0.011211,0.7721,0.016193,0.032096,1.1005e-06,0.33,0.44,0
0.0098667,0.00084361,0.036776,0.00028046,0.011117,0.00047479,0,0,0.033356,-0.014087,0,0.0012345,0,0,0,0.036782,0.00027428,0.011117,0.74523,0.016058,0.032474,1.1206e-06,0.34,0.44,0
0.010201,0.00086672,0.036851,-0.00010744,0.011023,0.00046481,0,0,0.033576,-0.014469,0,0.0012085,0,0,0,0.036857,-0.00011328,0.011023,0.72044,0.015922,0.032849,1.1403e-06,0.35,0.44,0
0.010538,0.00088968,0.036924,-0.00049364,0.010929,0.0004556,0,0,0.033793,-0.01485,0,0.0011846,0,0,0,0.03693,-0.00049919,0.010929,0.6975,0.015786,0.033223,1.1597e-06,0.36,0.44,0
0.010877,0.00091251,0.036996,-0.00087815,0.010835,0.00044708,0,0,0.034009,-0.015228,0,0.0011624,0,0,0,0.037001,-0.00088342,0.010835,0.67621,0.015651,0.033595,1.1787e-06,0.37,0.44,0
0.011218,0.00093519,0.037067,-0.0012609,0.010742,0.00043912,0,0,0.034223,-0.015604,0,0.0011417,0,0,0,0.037072,-0.001266,0.010742,0.65631,0.015516,0.033965,1.1975e-06,0.38,0.44,0
0.011562,0.00095774,0.037137,-0.0016419,0.010648,0.0004316,0,0,0.034435,-0.015978,0,0.0011222,0,0,0,0.037142,-0.0016467,0.010648,0.63759,0.015381,0.034334,1.2159e-06,0.39,0.44,0
0.011907,0.00098013,0.037206,-0.002021,0.010555,0.00042439,0,0,0.034645,-0.016349,0,0.0011034,0,0,0,0.03721,-0.0020256,0.010555,0.61978,0.015247,0.0347,1.234e-06,0.4,0.44,0
0.012255,0.0010024,0.037274,-0.0023981,0.010463,0.00041734,0,0,0.034854,-0.016719,0,0.0010851,0,0,0,0.037278,-0.0024025,0.010463,0.60266,0.015113,0.035065,1.2517e-06,0.41,0.44,0
0.012604,0.0010245,0.03734,-0.0027731,0.01037,0.00041031,0,0,0.035061,-0.017086,0,0.0010668,0,0,0,0.037344,-0.0027773,0.01037,0.58598,0.014979,0.035428,1.2691e-06,0.42,0.44,0
0.012956,0.0010464,0.037406,-0.0031456,0.010278,0.00040313,0,0,0.035266,-0.017451,0,0.0010481,0,0,0,0.03741,-0.0031497,0.010278,0.56951,0.014846,0.035788,1.2861e-06,0.43,0.44,0
0.01331,0.0010681,0.037471,-0.0035156,0.010186,0.00039565,0,0,0.03547,-0.017813,0,0.0010287,0,0,0,0.037475,-0.0035194,0.010186,0.55302,0.014714,0.036145,1.3027e-06,0.44,0.44,0
0.013665,0.0010896,0.037534,-0.0038827,0.010096,0.00038771,0,0,0.035671,-0.018172,0,0.001008,0,0,0,0.037538,-0.0038863,0.010096,0.53629,0.014582,0.0365,1.319e-06,0.45,0.44,0
0.014023,0.0011109,0.037597,-0.0042466,0.010005,0.00037916,0,0,0.035869,-0.018527,0,0.00098581,0,0,0,0.0376,-0.00425,0.010005,0.51912,0.014452,0.036852,1.3348e-06,0.46,0.44,0
0.014383,0.0011319,0.037658,-0.0046069,0.0099153,0.00036984,0,0,0.036066,-0.018879,0,0.00096159,0,0,0,0.037661,-0.0046101,0.0099153,0.50132,0.014322,0.0372,1.3501e-06,0.47,0.44,0
0.014744,0.0011527,0.037718,-0.0049633,0.0098263,0.00035961,0,0,0.036259,-0.019227,0,0.00093497,0,0,0,0.037721,-0.0049663,0.0098263,0.48269,0.014194,0.037544,1.365e-06,0.48,0.44,0
0.015108,0.0011732,0.037776,-0.0053153,0.0097382,0.00034831,0,0,0.036449,-0.01957,0,0.00090561,0,0,0,0.037779,-0.0053181,0.0097382,0.46309,0.014066,0.037883,1.3794e-06,0.49,0.44,0
0.015473,0.0011933,0.037819,-0.0001992,0.011286,0.00033697,0,0,0.050714,-0.019907,0,0.0013068,0,0,0,0.037822,-0.00020224,0.011286,0.51701,0.016302,0.033847,1.2057e-06,0.5,0.44,0
0.016122,0.0012218,0.037887,0.0050382,0.012878,0.00032771,0,0,0.065025,-0.020383,0,0.0017041,0,0,0,0.037891,0.005035,0.012878,0.57151,0.018601,0.029721,1.0385e-06,0.51,0.44,0
0.016774,0.0012497,0.037941,0.0048046,0.012824,0.00031908,0,0,0.065304,-0.020849,0,0.0016592,0,0,0,0.037944,0.0048016,0.012824,0.55166,0.018523,0.029948,1.0531e-06,0.52,0.44,0
0.017428,0.0012772,0.037993,0.0045752,0.01277,0.0003101,0,0,0.065578,-0.021307,0,0.0016125,0,0,0,0.037996,0.0045724,0.01277,0.53162,0.018446,0.030171,1.0674e-06,0.53,0.44,0
0.018085,0.001304,0.038043,0.0043502,0.012718,0.00030075,0,0,0.065845,-0.021756,0,0.0015639,0,0,0,0.038046,0.0043475,0.012718,0.51138,0.01837,0.03039,1.0813e-06,0.54,0.44,0
0.018745,0.0013303,0.038092,0.0041297,0.012667,0.00029103,0,0,0.066106,-0.022196,0,0.0015133,0,0,0,0.038094,0.0041273,0.012667,0.49093,0.018296,0.030604,1.095e-06,0.55,0.44,0
0.019407,0.001356,0.038139,0.003914,0.012616,0.00028095,0,0,0.06636,-0.022625,0,0.0014609,0,0,0,0.038142,0.0039117,0.012616,0.4703,0.018223,0.030814,1.1082e-06,0.56,0.44,0
0.020072,0.0013812,0.038185,0.0037032,0.012566,0.00027054,0,0,0.066608,-0.023044,0,0.0014068,0,0,0,0.038187,0.0037011,0.012566,0.4495,0.018151,0.031018,1.1212e-06,0.57,0.44,0
0.02074,0.0014056,0.038228,0.0034974,0.012518,0.00025981,0,0,0.066848,-0.023453,0,0.001351,0,0,0,0.03823,0.0034955,0.012518,0.42857,0.018081,0.031217,1.1337e-06,0.58,0.44,0
0.021409,0.0014295,0.03827,0.0032969,0.01247,0.00024881,0,0,0.06708,-0.023851,0,0.0012938,0,0,0,0.038272,0.0032951,0.01247,0.40758,0.018013,0.031411,1.1458e-06,0.59,0.44,0
0.022081,0.0014526,0.03831,0.0031017,0.012424,0.00023756,0,0,0.067306,-0.024237,0,0.0012353,0,0,0,0.038312,0.0031001,0.012424,0.38657,0.017945,0.031599,1.1575e-06,0.6,0.44,0
0.022755,0.0014751,0.038349,0.0029119,0.012378,0.00022614,0,0,0.067523,-0.024612,0,0.0011759,0,0,0,0.03835,0.0029105,0.012378,0.36561,0.017879,0.031781,1.1688e-06,0.61,0.44,0
0.023432,0.0014969,0.038385,0.0027278,0.012334,0.00021457,0,0,0.067732,-0.024976,0,0.0011157,0,0,0,0.038386,0.0027265,0.012334,0.34476,0.017815,0.031958,1.1797e-06,0.62,0.44,0
0.02411,0.001518,0.038419,0.0025493,0.01229,0.00020291,0,0,0.067934,-0.025327,0,0.0010551,0,0,0,0.03842,0.0025481,0.01229,0.3241,0.017753,0.032128,1.1901e-06,0.63,0.44,0
0.02479,0.0015384,0.038451,0.0023765,0.012248,0.00019122,0,0,0.068127,-0.025666,0,0.00099432,0,0,0,0.038452,0.0023755,0.012248,0.30369,0.017692,0.032293,1.2002e-06,0.64,0.44,0
0.025472,0.0015581,0.038481,0.0022095,0.012207,0.00017955,0,0,0.068312,-0.025994,0,0.00093364,0,0,0,0.038482,0.0022086,0.012207,0.28361,0.017633,0.032451,1.2097e-06,0.65,0.44,0
0.026157,0.0015771,0.038509,0.0020484,0.012167,0.00016796,0,0,0.068489,-0.026309,0,0.00087337,0,0,0,0.03851,0.0020476,0.012167,0.26392,0.017575,0.032603,1.2188e-06,0.66,0.44,0
0.026842,0.0015953,0.038536,0.0018931,0.012129,0.0001565,0,0,0.068658,-0.026612,0,0.0008138,0,0,0,0.038536,0.0018925,0.012129,0.2447,0.017519,0.032748,1.2275e-06,0.67,0.44,0
0.02753,0.0016129,0.03856,0.0017437,0.012091,0.00014523,0,0,0.068819,-0.026903,0,0.00075519,0,0,0,0.038561,0.0017432,0.012091,0.22601,0.017465,0.032888,1.2358e-06,0.68,0.44,0
0.028219,0.0016297,0.038582,0.0016002,0.012055,0.00013419,0,0,0.068972,-0.027182,0,0.0006978,0,0,0,0.038583,0.0015997,0.012055,0.2079,0.017413,0.033021,1.2436e-06,0.69,0.44,0
0.028909,0.0016458,0.038603,0.0014625,0.01202,0.00012344,0,0,0.069117,-0.027449,0,0.00064189,0,0,0,0.038604,0.0014621,0.01202,0.19043,0.017362,0.033149,1.251e-06,0.7,0.44,0
0.029601,0.0016612,0.038622,0.0013306,0.011986,0.00011302,0,0,0.069254,-0.027703,0,0.00058769,0,0,0,0.038622,0.0013303,0.011986,0.17364,0.017313,0.03327,1.2579e-06,0.71,0.44,0
0.030294,0.0016759,0.038639,0.0012045,0.011953,0.00010296,0,0,0.069384,-0.027946,0,0.00053539,0,0,0,0.038639,0.0012042,0.011953,0.15759,0.017266,0.033385,1.2645e-06,0.72,0.44,0
0.030989,0.0016899,0.038655,0.001084,0.011922,9.3306e-05,0,0,0.069506,-0.028178,0,0.00048519,0,0,0,0.038655,0.0010838,0.011922,0.14229,0.01722,0.033494,1.2707e-06,0.73,0.44,0
0.031684,0.0017033,0.038669,0.00096922,0.011891,8.4084e-05,0,0,0.069621,-0.028397,0,0.00043724,0,0,0,0.038669,0.00096903,0.011891,0.12779,0.017176,0.033598,1.2764e-06,0.74,0.44,0
0.032381,0.0017159,0.038681,0.00085994,0.011862,7.5322e-05,0,0,0.069728,-0.028606,0,0.00039168,0,0,0,0.038681,0.00085979,0.011862,0.11411,0.017134,0.033695,1.2818e-06,0.75,0.44,0
0.033079,0.0017279,0.038692,0.00075611,0.011834,6.7041e-05,0,0,0.06983,-0.028803,0,0.00034861,0,0,0,0.038692,0.00075599,0.011834,0.10125,0.017094,0.033788,1.2869e-06,0.76,0.44,0
0.033778,0.0017393,0.038701,0.00065764,0.011808,5.9257e-05,0,0,0.069924,-0.02899,0,0.00030814,0,0,0,0.038702,0.00065755,0.011808,0.089244,0.017056,0.033875,1.2916e-06,0.77,0.44,0
0.034477,0.00175,0.03871,0.00056442,0.011782,5.1982e-05,0,0,0.070012,-0.029167,0,0.00027031,0,0,0,0.03871,0.00056435,0.011782,0.078079,0.017019,0.033956,1.2959e-06,0.78,0.44,0
0.035178,0.0017601,0.038717,0.00047635,0.011758,4.5225e-05,0,0,0.070094,-0.029333,0,0.00023517,0,0,0,0.038717,0.0004763,0.011758,0.067759,0.016984,0.034033,1.2999e-06,0.79,0.44,0
0.035879,0.0017696,0.038723,0.00039333,0.011735,3.8987e-05,0,0,0.07017,-0.029488,0,0.00020273,0,0,0,0.038724,0.00039329,0.011735,0.058277,0.016951,0.034104,1.3037e-06,0.8,0.44,0
0.036581,0.0017786,0.038729,0.00031523,0.011713,3.3268e-05,0,0,0.07024,-0.029635,0,0.00017299,0,0,0,0.038729,0.0003152,0.011713,0.049621,0.016919,0.034171,1.3071e-06,0.81,0.44,0
0.037284,0.0017869,0.038733,0.00024195,0.011692,2.8063e-05,0,0,0.070305,-0.029771,0,0.00014593,0,0,0,0.038733,0.00024193,0.011692,0.041773,0.016889,0.034234,1.3103e-06,0.82,0.44,0
0.037988,0.0017947,0.038737,0.00017338,0.011673,2.3364e-05,0,0,0.070365,-0.029899,0,0.00012149,0,0,0,0.038737,0.00017337,0.011673,0.034713,0.016861,0.034291,1.3132e-06,0.83,0.44,0
0.038691,0.001802,0.038739,0.00010941,0.011655,1.9158e-05,0,0,0.07042,-0.030018,0,9.9624e-05,0,0,0,0.038739,0.0001094,0.011655,0.028416,0.016834,0.034345,1.3158e-06,0.84,0.44,0
0.039396,0.0018087,0.038742,4.9927e-05,0.011638,1.5431e-05,0,0,0.070471,-0.030128,0,8.0244e-05,0,0,0,0.038742,4.9921e-05,0.011638,0.022851,0.01681,0.034395,1.3182e-06,0.85,0.44,0
0.040101,0.001815,0.038743,-5.1713e-06,0.011621,1.2165e-05,0,0,0.070517,-0.030229,0,6.3259e-05,0,0,0,0.038743,-5.1751e-06,0.011621,0.017988,0.016786,0.03444,1.3204e-06,0.86,0.44,0
0.040806,0.0018207,0.038745,-5.5987e-05,0.011607,9.339e-06,0,0,0.070559,-0.030323,0,4.8563e-05,0,0,0,0.038745,-5.599e-05,0.011607,0.013791,0.016765,0.034482,1.3224e-06,0.87,0.44,0
0.041512,0.0018259,0.038745,-0.00010262,0.011593,6.93e-06,0,0,0.070597,-0.030408,0,3.6036e-05,0,0,0,0.038745,-0.00010262,0.011593,0.010221,0.016745,0.03452,1.3242e-06,0.88,0.44,0
0.042218,0.0018307,0.038746,-0.00014516,0.01158,4.9133e-06,0,0,0.070631,-0.030486,0,2.5549e-05,0,0,0,0.038746,-0.00014516,0.01158,0.0072384,0.016727,0.034554,1.3257e-06,0.89,0.44,0
0.042925,0.001835,0.038746,-0.00018369,0.011569,3.262e-06,0,0,0.070661,-0.030556,0,1.6962e-05,0,0,0,0.038746,-0.00018369,0.011569,0.0048008,0.01671,0.034585,1.3272e-06,0.9,0.44,0
0.043631,0.0018389,0.038746,-0.0002183,0.011558,1.9475e-06,0,0,0.070688,-0.030619,0,1.0127e-05,0,0,0,0.038746,-0.0002183,0.011558,0.0028638,0.016695,0.034613,1.3284e-06,0.91,0.44,0
0.044338,0.0018423,0.038746,-0.00024905,0.011549,9.4007e-07,0,0,0.070712,-0.030675,0,4.8884e-06,0,0,0,0.038746,-0.00024905,0.011549,0.0013813,0.016682,0.034637,1.3295e-06,0.92,0.44,0
0.045046,0.0018453,0.038746,-0.00027603,0.011541,2.0837e-07,0,0,0.070733,-0.030724,0,1.0835e-06,0,0,0,0.038746,-0.00027603,0.011541,0.00030594,0.01667,0.034659,1.3305e-06,0.93,0.44,0
0.045753,0.0018479,0.038746,-0.00029928,0.011534,-2.7987e-07,0,0,0.07075,-0.030766,0,-1.4553e-06,0,0,0,0.038746,-0.00029928,0.011534,-0.00041069,0.01666,0.034677,1.3313e-06,0.94,0.44,0
0.046461,0.0018501,0.038745,-0.00031887,0.011528,-5.5781e-07,0,0,0.070765,-0.030802,0,-2.9006e-06,0,0,0,0.038745,-0.00031887,0.011528,-0.00081815,0.016651,0.034692,1.332e-06,0.95,0.44,0
0.047168,0.0018519,0.038745,-0.00033483,0.011523,-6.5942e-07,0,0,0.070777,-0.03083,0,-3.429e-06,0,0,0,0.038745,-0.00033483,0.011523,-0.00096679,0.016644,0.034705,1.3325e-06,0.96,0.44,0
0.047876,0.0018533,0.038745,-0.00034721,0.011519,-6.1924e-07,0,0,0.070786,-0.030853,0,-3.22e-06,0,0,0,0.038745,-0.00034721,0.011519,-0.00090759,0.016639,0.034715,1.3329e-06,0.97,0.44,0
0.048584,0.0018542,0.038745,-0.00035602,0.011517,-4.7231e-07,0,0,0.070793,-0.030869,0,-2.456e-06,0,0,0,0.038745,-0.00035602,0.011517,-0.00069209,0.016635,0.034722,1.3332e-06,0.98,0.44,0
0.049292,0.0018548,0.038744,-0.00036131,0.011515,-2.5402e-07,0,0,0.070796,-0.030878,0,-1.3209e-06,0,0,0,0.038744,-0.00036131,0.011515,-0.00037218,0.016633,0.034726,1.3334e-06,0.99,0.44,0
0.05,0.001855,0.038744,-0.00036307,0.011514,3.7536e-06,0,0,0.070798,-0.030881,0,1.9519e-05,0,0,0,0.038744,-0.00036307,0.011514,0.0054994,0.016632,0.034727,1.3334e-06,1,0.44,0
0,0,0.032812,0.014062,0.014062,0.00072449,0,0,0.024375,2.7105e-20,0,0.0018837,0,0,0,0.03284,0.014034,0.014062,2.2095,0.020312,0.018792,3.4081e-07,0,0.45,0
0.00024375,1.8837e-05,0.032777,0.01363,0.013922,0.00072538,0,0,0.024511,-0.00037997,0,0.001886,0,0,0,0.032804,0.013602,0.013922,2.1665,0.020109,0.019044,3.544e-07,0.01,0.45,0
0.00049022,3.8108e-05,0.032924,0.013265,0.013857,0.00073342,0,0,0.024787,-0.00076876,0,0.0019069,0,0,0,0.032951,0.013238,0.013857,2.1337,0.020015,0.019411,3.7435e-07,0.02,0.45,0
0.00073949,5.7779e-05,0.033072,0.012893,0.013789,0.00073955,0,0,0.025067,-0.0011656,0,0.0019228,0,0,0,0.033099,0.012866,0.013789,2.0961,0.019918,0.019788,3.9501e-07,0.03,0.45,0
0.00099157,7.7813e-05,0.033221,0.012513,0.01372,0.00074373,0,0,0.025351,-0.0015698,0,0.0019337,0,0,0,0.033248,0.012486,0.01372,2.0542,0.019818,0.020173,4.1633e-07,0.04,0.45,0
0.0012465,9.8174e-05,0.033371,0.012126,0.013649,0.00074594,0,0,0.025639,-0.0019805,0,0.0019394,0,0,0,0.033397,0.012099,0.013649,2.0084,0.019715,0.020567,4.3828e-07,0.05,0.45,0
0.0015044,0.00011882,0.033521,0.011732,0.013576,0.00074617,0,0,0.025929,-0.0023969,0,0.0019401,0,0,0,0.033547,0.011707,0.013576,1.9591,0.01961,0.020968,4.608e-07,0.06,0.45,0
0.0017651,0.00013973,0.033671,0.011333,0.013501,0.00074446,0,0,0.026221,-0.0028183,0,0.0019356,0,0,0,0.033696,0.011309,0.013501,1.9067,0.019502,0.021375,4.8386e-07,0.07,0.45,0
0.0020288,0.00016084,0.03382,0.01093,0.013425,0.00074086,0,0,0.026514,-0.0032438,0,0.0019262,0,0,0,0.033844,0.010906,0.013425,1.8518,0.019392,0.021788,5.0738e-07,0.08,0.45,0
0.0022954,0.00018213,0.033968,0.010522,0.013347,0.00073542,0,0,0.026808,-0.0036727,0,0.0019121,0,0,0,0.033992,0.010499,0.013347,1.7948,0.019279,0.022206,5.3132e-07,0.09,0.45,0
0.0025649,0.00020357,0.034115,0.010111,0.013268,0.00072824,0,0,0.027102,-0.0041042,0,0.0018934,0,0,0,0.034137,0.010089,0.013268,1.7361,0.019165,0.022627,5.5561e-07,0.1,0.45,0
0.0028374,0.00022511,0.03426,0.0096966,0.013187,0.00071943,0,0,0.027395,-0.0045376,0,0.0018705,0,0,0,0.034281,0.0096755,0.013187,1.6762,0.019048,0.023051,5.8019e-07,0.11,0.45,0
0.0031128,0.00024673,0.034403,0.0092802,0.013105,0.00070911,0,0,0.027688,-0.0049722,0,0.0018437,0,0,0,0.034423,0.0092602,0.013105,1.6155,0.018929,0.023478,6.0501e-07,0.12,0.45,0
0.0033911,0.00026839,0.034544,0.0088622,0.013022,0.00069742,0,0,0.027978,-0.0054074,0,0.0018133,0,0,0,0.034563,0.0088433,0.013022,1.5544,0.018809,0.023905,6.3e-07,0.13,0.45,0
0.0036724,0.00029006,0.034681,0.0084431,0.012937,0.0006845,0,0,0.028267,-0.0058426,0,0.0017797,0,0,0,0.034699,0.0084253,0.012937,1.4934,0.018687,0.024334,6.551e-07,0.14,0.45,0
0.0039565,0.00031173,0.034817,0.0080234,0.012852,0.00067052,0,0,0.028554,-0.0062771,0,0.0017434,0,0,0,0.034833,0.0080066,0.012852,1.4327,0.018564,0.024762,6.8025e-07,0.15,0.45,0
0.0042435,0.00033335,0.034948,0.0076035,0.012766,0.00065564,0,0,0.028838,-0.0067107,0,0.0017047,0,0,0,0.034964,0.0075878,0.012766,1.3727,0.018439,0.02519,7.0541e-07,0.16,0.45,0
0.0045332,0.00035492,0.035077,0.007184,0.012678,0.00064002,0,0,0.029118,-0.0071426,0,0.0016641,0,0,0,0.035092,0.0071693,0.012678,1.3137,0.018313,0.025616,7.3051e-07,0.17,0.45,0
0.0048258,0.00037641,0.035202,0.0067651,0.01259,0.00062384,0,0,0.029396,-0.0075727,0,0.001622,0,0,0,0.035216,0.0067514,0.01259,1.2561,0.018186,0.026041,7.5552e-07,0.18,0.45,0
0.0051212,0.0003978,0.035324,0.0063471,0.012501,0.00060727,0,0,0.02967,-0.0080006,0,0.0015789,0,0,0,0.035337,0.0063344,0.012501,1.2,0.018058,0.026464,7.8038e-07,0.19,0.45,0
0.0054192,0.00041908,0.035442,0.0059304,0.012412,0.00059047,0,0,0.02994,-0.0084259,0,0.0015352,0,0,0,0.035454,0.0059186,0.012412,1.1457,0.017928,0.026884,8.0506e-07,0.2,0.45,0
0.00572,0.00044025,0.035557,0.0055151,0.012322,0.00057359,0,0,0.030206,-0.0088485,0,0.0014914,0,0,0,0.035568,0.0055042,0.012322,1.0934,0.017798,0.027301,8.2952e-07,0.21,0.45,0
0.0060234,0.00046129,0.035668,0.0051015,0.012231,0.00055681,0,0,0.030469,-0.0092683,0,0.0014477,0,0,0,0.035679,0.0050914,0.012231,1.0432,0.017667,0.027716,8.5373e-07,0.22,0.45,0
0.0063293,0.00048218,0.035776,0.0046898,0.01214,0.00054024,0,0,0.030727,-0.009685,0,0.0014046,0,0,0,0.035786,0.0046804,0.01214,0.99532,0.017535,0.028127,8.7766e-07,0.23,0.45,0
0.0066379,0.00050294,0.035881,0.0042799,0.012048,0.00052402,0,0,0.030982,-0.010099,0,0.0013625,0,0,0,0.035889,0.0042712,0.012048,0.94976,0.017403,0.028536,9.013e-07,0.24,0.45,0
0.006949,0.00052356,0.035982,0.003872,0.011956,0.00050827,0,0,0.031233,-0.010509,0,0.0013215,0,0,0,0.03599,0.0038639,0.011956,0.90664,0.01727,0.028941,9.2462e-07,0.25,0.45,0
0.0072626,0.00054403,0.03608,0.0034661,0.011864,0.00049308,0,0,0.031481,-0.010917,0,0.001282,0,0,0,0.036087,0.0034586,0.011864,0.86599,0.017136,0.029343,9.4762e-07,0.26,0.45,0
0.0075786,0.00056435,0.036174,0.0030622,0.011771,0.00047854,0,0,0.031724,-0.011321,0,0.0012442,0,0,0,0.036181,0.0030553,0.011771,0.82781,0.017003,0.029742,9.7028e-07,0.27,0.45,0
0.007897,0.00058453,0.036266,0.0026604,0.011678,0.00046471,0,0,0.031965,-0.011723,0,0.0012083,0,0,0,0.036273,0.002654,0.011678,0.79211,0.016868,0.030138,9.9259e-07,0.28,0.45,0
0.0082179,0.00060458,0.036355,0.0022606,0.011585,0.00045165,0,0,0.032202,-0.012122,0,0.0011743,0,0,0,0.036361,0.0022546,0.011585,0.75882,0.016734,0.03053,1.0146e-06,0.29,0.45,0
0.0085411,0.00062448,0.036442,0.0018627,0.011491,0.00043939,0,0,0.032436,-0.012517,0,0.0011424,0,0,0,0.036448,0.0018571,0.011491,0.72788,0.016599,0.03092,1.0362e-06,0.3,0.45,0
0.0088666,0.00064425,0.036526,0.0014667,0.011398,0.00042794,0,0,0.032667,-0.012911,0,0.0011126,0,0,0,0.036532,0.0014615,0.011398,0.69921,0.016464,0.031308,1.0574e-06,0.31,0.45,0
0.0091944,0.0006639,0.036609,0.0010727,0.011304,0.00041729,0,0,0.032895,-0.013301,0,0.001085,0,0,0,0.036613,0.0010678,0.011304,0.67269,0.016328,0.031692,1.0784e-06,0.32,0.45,0
0.0095245,0.00068341,0.036688,0.00068043,0.011211,0.00040744,0,0,0.033121,-0.013689,0,0.0010593,0,0,0,0.036693,0.00067583,0.011211,0.6482,0.016193,0.032075,1.099e-06,0.33,0.45,0
0.0098569,0.00070281,0.036767,0.00029,0.011117,0.00039833,0,0,0.033345,-0.014075,0,0.0010357,0,0,0,0.036771,0.00028566,0.011117,0.62557,0.016058,0.032455,1.1192e-06,0.34,0.45,0
0.010191,0.00072208,0.036843,-9.8644e-05,0.011023,0.00038992,0,0,0.033566,-0.014459,0,0.0010138,0,0,0,0.036847,-0.00010276,0.011023,0.60467,0.015923,0.032833,1.1391e-06,0.35,0.45,0
0.010528,0.00074124,0.036918,-0.00048552,0.01093,0.00038215,0,0,0.033785,-0.01484,0,0.00099358,0,0,0,0.036922,-0.00048942,0.01093,0.5853,0.015788,0.033209,1.1587e-06,0.36,0.45,0
0.010867,0.00076028,0.036992,-0.00087059,0.010836,0.00037492,0,0,0.034002,-0.015219,0,0.0009748,0,0,0,0.036996,-0.00087431,0.010836,0.56728,0.015653,0.033583,1.1779e-06,0.37,0.45,0
0.011208,0.0007792,0.037064,-0.0012538,0.010743,0.00036816,0,0,0.034217,-0.015596,0,0.00095722,0,0,0,0.037068,-0.0012574,0.010743,0.55043,0.015518,0.033954,1.1968e-06,0.38,0.45,0
0.011551,0.000798,0.037135,-0.0016352,0.01065,0.00036176,0,0,0.034431,-0.015971,0,0.00094057,0,0,0,0.037139,-0.0016385,0.01065,0.53455,0.015383,0.034324,1.2153e-06,0.39,0.45,0
0.011897,0.00081667,0.037205,-0.0020145,0.010557,0.0003556,0,0,0.034642,-0.016343,0,0.00092456,0,0,0,0.037208,-0.0020177,0.010557,0.51943,0.015249,0.034692,1.2336e-06,0.4,0.45,0
0.012244,0.00083521,0.037274,-0.0023917,0.010465,0.00034957,0,0,0.034852,-0.016713,0,0.00090889,0,0,0,0.037277,-0.0023948,0.010465,0.50489,0.015116,0.035058,1.2514e-06,0.41,0.45,0
0.012594,0.00085362,0.037342,-0.0027666,0.010373,0.00034355,0,0,0.03506,-0.017081,0,0.00089324,0,0,0,0.037345,-0.0027695,0.010373,0.49072,0.014983,0.035422,1.2689e-06,0.42,0.45,0
0.012946,0.00087188,0.037409,-0.0031389,0.010281,0.00033741,0,0,0.035266,-0.017446,0,0.00087727,0,0,0,0.037412,-0.0031417,0.010281,0.47674,0.01485,0.035783,1.286e-06,0.43,0.45,0
0.013299,0.00088997,0.037474,-0.0035086,0.01019,0.00033102,0,0,0.03547,-0.017808,0,0.00086065,0,0,0,0.037477,-0.0035112,0.01019,0.46274,0.014719,0.036141,1.3027e-06,0.44,0.45,0
0.013655,0.0009079,0.037539,-0.0038751,0.010099,0.00032425,0,0,0.035672,-0.018166,0,0.00084305,0,0,0,0.037541,-0.0038777,0.010099,0.44856,0.014587,0.036496,1.3191e-06,0.45,0.45,0
0.014013,0.00092563,0.037602,-0.0042384,0.010009,0.00031697,0,0,0.035871,-0.018522,0,0.00082413,0,0,0,0.037604,-0.0042408,0.010009,0.43403,0.014457,0.036848,1.3349e-06,0.46,0.45,0
0.014372,0.00094316,0.037664,-0.0045979,0.0099197,0.00030906,0,0,0.036067,-0.018873,0,0.00080355,0,0,0,0.037666,-0.0046002,0.0099197,0.41898,0.014328,0.037196,1.3503e-06,0.47,0.45,0
0.014734,0.00096046,0.037724,-0.0049534,0.0098311,0.00030039,0,0,0.03626,-0.01922,0,0.00078101,0,0,0,0.037726,-0.0049555,0.0098311,0.40326,0.0142,0.03754,1.3653e-06,0.48,0.45,0
0.015097,0.00097751,0.037782,-0.0053044,0.0097433,0.00029084,0,0,0.03645,-0.019562,0,0.00075619,0,0,0,0.037784,-0.0053063,0.0097433,0.38673,0.014074,0.037879,1.3797e-06,0.49,0.45,0
0.015463,0.00099428,0.037825,-0.00018939,0.011291,0.00028128,0,0,0.050717,-0.019899,0,0.0010908,0,0,0,0.037827,-0.00019151,0.011291,0.43161,0.016309,0.033844,1.2059e-06,0.5,0.45,0
0.016112,0.001018,0.037894,0.005046,0.012882,0.0002735,0,0,0.065032,-0.020374,0,0.0014222,0,0,0,0.037896,0.0050437,0.012882,0.47701,0.018607,0.029719,1.0386e-06,0.51,0.45,0
0.016764,0.0010413,0.037948,0.0048127,0.012828,0.00026628,0,0,0.065311,-0.02084,0,0.0013847,0,0,0,0.03795,0.0048106,0.012828,0.4604,0.01853,0.029947,1.0532e-06,0.52,0.45,0
0.017418,0.0010641,0.038,0.0045836,0.012775,0.00025877,0,0,0.065585,-0.021298,0,0.0013456,0,0,0,0.038002,0.0045816,0.012775,0.44365,0.018453,0.03017,1.0675e-06,0.53,0.45,0
0.018075,0.0010865,0.038051,0.004359,0.012723,0.00025096,0,0,0.065852,-0.021746,0,0.001305,0,0,0,0.038052,0.0043571,0.012723,0.42674,0.018378,0.030389,1.0815e-06,0.54,0.45,0
0.018735,0.0011084,0.0381,0.0041388,0.012672,0.00024285,0,0,0.066113,-0.022185,0,0.0012628,0,0,0,0.038101,0.0041371,0.012672,0.40969,0.018303,0.030603,1.0952e-06,0.55,0.45,0
0.019398,0.0011299,0.038147,0.0039234,0.012621,0.00023445,0,0,0.066367,-0.022614,0,0.0012192,0,0,0,0.038149,0.0039218,0.012621,0.39248,0.018231,0.030812,1.1085e-06,0.56,0.45,0
0.020063,0.0011508,0.038193,0.0037129,0.012572,0.00022578,0,0,0.066615,-0.023033,0,0.0011741,0,0,0,0.038194,0.0037114,0.012572,0.37516,0.018159,0.031017,1.1214e-06,0.57,0.45,0
0.02073,0.0011712,0.038237,0.0035074,0.012523,0.00021686,0,0,0.066855,-0.023441,0,0.0011277,0,0,0,0.038238,0.0035061,0.012523,0.35774,0.018089,0.031216,1.1339e-06,0.58,0.45,0
0.0214,0.001191,0.038279,0.0033071,0.012476,0.00020771,0,0,0.067088,-0.023839,0,0.0010801,0,0,0,0.03828,0.0033058,0.012476,0.34028,0.018021,0.03141,1.1461e-06,0.59,0.45,0
0.022072,0.0012103,0.038319,0.0031121,0.012429,0.00019836,0,0,0.067313,-0.024225,0,0.0010315,0,0,0,0.03832,0.003111,0.012429,0.3228,0.017954,0.031598,1.1579e-06,0.6,0.45,0
0.022746,0.0012291,0.038357,0.0029225,0.012384,0.00018887,0,0,0.067531,-0.0246,0,0.00098211,0,0,0,0.038358,0.0029215,0.012384,0.30537,0.017888,0.03178,1.1692e-06,0.61,0.45,0
0.023422,0.0012472,0.038394,0.0027384,0.01234,0.00017926,0,0,0.067741,-0.024963,0,0.00093213,0,0,0,0.038395,0.0027375,0.01234,0.28804,0.017824,0.031957,1.1801e-06,0.62,0.45,0
0.024101,0.0012648,0.038428,0.00256,0.012297,0.00016957,0,0,0.067943,-0.025315,0,0.00088178,0,0,0,0.038429,0.0025592,0.012297,0.27087,0.017762,0.032128,1.1906e-06,0.63,0.45,0
0.024781,0.0012818,0.038461,0.0023872,0.012254,0.00015986,0,0,0.068137,-0.025655,0,0.00083129,0,0,0,0.038462,0.0023865,0.012254,0.2539,0.017701,0.032292,1.2006e-06,0.64,0.45,0
0.025463,0.0012982,0.038491,0.0022202,0.012214,0.00015017,0,0,0.068322,-0.025982,0,0.00078089,0,0,0,0.038492,0.0022196,0.012214,0.23721,0.017642,0.032451,1.2102e-06,0.65,0.45,0
0.026148,0.0013141,0.03852,0.002059,0.012174,0.00014054,0,0,0.0685,-0.026298,0,0.00073083,0,0,0,0.03852,0.0020584,0.012174,0.22085,0.017584,0.032603,1.2194e-06,0.66,0.45,0
0.026833,0.0013293,0.038547,0.0019036,0.012135,0.00013102,0,0,0.06867,-0.026602,0,0.00068132,0,0,0,0.038547,0.0019031,0.012135,0.20487,0.017528,0.03275,1.2282e-06,0.67,0.45,0
0.027521,0.0013439,0.038571,0.001754,0.012098,0.00012166,0,0,0.068832,-0.026893,0,0.00063262,0,0,0,0.038572,0.0017536,0.012098,0.18932,0.017474,0.03289,1.2365e-06,0.68,0.45,0
0.02821,0.0013579,0.038594,0.0016102,0.012061,0.00011248,0,0,0.068985,-0.027173,0,0.00058491,0,0,0,0.038594,0.0016099,0.012061,0.17426,0.017422,0.033023,1.2443e-06,0.69,0.45,0
0.028901,0.0013714,0.038615,0.0014722,0.012026,0.00010354,0,0,0.069131,-0.02744,0,0.00053842,0,0,0,0.038615,0.0014719,0.012026,0.15972,0.017371,0.033151,1.2518e-06,0.7,0.45,0
0.029593,0.0013842,0.038634,0.00134,0.011992,9.4871e-05,0,0,0.069269,-0.027696,0,0.00049333,0,0,0,0.038635,0.0013398,0.011992,0.14575,0.017322,0.033273,1.2588e-06,0.71,0.45,0
0.030286,0.0013965,0.038652,0.0012135,0.01196,8.6501e-05,0,0,0.0694,-0.02794,0,0.00044981,0,0,0,0.038652,0.0012133,0.01196,0.13238,0.017275,0.033389,1.2654e-06,0.72,0.45,0
0.030981,0.0014082,0.038668,0.0010927,0.011928,7.8462e-05,0,0,0.069523,-0.028172,0,0.000408,0,0,0,0.038668,0.0010925,0.011928,0.11964,0.01723,0.033499,1.2716e-06,0.73,0.45,0
0.031677,0.0014193,0.038682,0.00097747,0.011898,7.078e-05,0,0,0.069639,-0.028393,0,0.00036806,0,0,0,0.038682,0.00097734,0.011898,0.10756,0.017186,0.033603,1.2775e-06,0.74,0.45,0
0.032373,0.0014299,0.038695,0.00086776,0.011869,6.3477e-05,0,0,0.069748,-0.028603,0,0.00033008,0,0,0,0.038695,0.00086765,0.011869,0.096146,0.017144,0.033702,1.2829e-06,0.75,0.45,0
0.033071,0.0014399,0.038706,0.00076348,0.011841,5.657e-05,0,0,0.06985,-0.028802,0,0.00029416,0,0,0,0.038706,0.0007634,0.011841,0.085423,0.017104,0.033795,1.2881e-06,0.76,0.45,0
0.033771,0.0014494,0.038717,0.00066455,0.011814,5.0074e-05,0,0,0.069946,-0.028989,0,0.00026038,0,0,0,0.038717,0.00066448,0.011814,0.075397,0.017065,0.033882,1.2928e-06,0.77,0.45,0
0.03447,0.0014583,0.038725,0.00057086,0.011789,4.3999e-05,0,0,0.070035,-0.029167,0,0.00022879,0,0,0,0.038725,0.00057081,0.011789,0.066072,0.017028,0.033965,1.2972e-06,0.78,0.45,0
0.035171,0.0014668,0.038733,0.00048232,0.011765,3.8351e-05,0,0,0.070118,-0.029334,0,0.00019942,0,0,0,0.038733,0.00048228,0.011765,0.057446,0.016993,0.034042,1.3013e-06,0.79,0.45,0
0.035873,0.0014747,0.03874,0.00039881,0.011742,3.3133e-05,0,0,0.070195,-0.029491,0,0.00017229,0,0,0,0.03874,0.00039879,0.011742,0.049514,0.01696,0.034114,1.3051e-06,0.8,0.45,0
0.036575,0.0014822,0.038745,0.00032024,0.01172,2.8346e-05,0,0,0.070266,-0.029638,0,0.0001474,0,0,0,0.038745,0.00032022,0.01172,0.042266,0.016928,0.034182,1.3086e-06,0.81,0.45,0
0.037278,0.0014892,0.03875,0.0002465,0.011699,2.3984e-05,0,0,0.070333,-0.029776,0,0.00012471,0,0,0,0.03875,0.00024648,0.011699,0.035689,0.016898,0.034245,1.3118e-06,0.82,0.45,0
0.037982,0.0014957,0.038754,0.00017747,0.011679,2.0041e-05,0,0,0.070394,-0.029905,0,0.00010421,0,0,0,0.038754,0.00017746,0.011679,0.029766,0.01687,0.034304,1.3148e-06,0.83,0.45,0
0.038686,0.0015018,0.038757,0.00011305,0.011661,1.6508e-05,0,0,0.07045,-0.030025,0,8.5843e-05,0,0,0,0.038757,0.00011304,0.011661,0.024476,0.016844,0.034358,1.3174e-06,0.84,0.45,0
0.039391,0.0015074,0.03876,5.3136e-05,0.011644,1.3372e-05,0,0,0.070501,-0.030136,0,6.9537e-05,0,0,0,0.03876,5.3131e-05,0.011644,0.019795,0.016819,0.034408,1.3199e-06,0.85,0.45,0
0.040096,0.0015126,0.038761,-2.3764e-06,0.011628,1.0619e-05,0,0,0.070548,-0.030238,0,5.5221e-05,0,0,0,0.038762,-2.3793e-06,0.011628,0.015696,0.016796,0.034454,1.3221e-06,0.86,0.45,0
0.040802,0.0015174,0.038763,-5.3586e-05,0.011613,8.232e-06,0,0,0.070591,-0.030333,0,4.2806e-05,0,0,0,0.038763,-5.3588e-05,0.011613,0.012151,0.016774,0.034496,1.3242e-06,0.87,0.45,0
0.041508,0.0015218,0.038764,-0.00010059,0.011599,6.1914e-06,0,0,0.070629,-0.030419,0,3.2196e-05,0,0,0,0.038764,-0.00010059,0.011599,0.0091276,0.016754,0.034535,1.326e-06,0.88,0.45,0
0.042214,0.0015258,0.038765,-0.00014347,0.011586,4.4771e-06,0,0,0.070664,-0.030498,0,2.3281e-05,0,0,0,0.038765,-0.00014348,0.011586,0.006593,0.016736,0.03457,1.3276e-06,0.89,0.45,0
0.042921,0.0015294,0.038765,-0.00018233,0.011575,3.0669e-06,0,0,0.070695,-0.030569,0,1.5948e-05,0,0,0,0.038765,-0.00018233,0.011575,0.0045117,0.016719,0.034601,1.3291e-06,0.9,0.45,0
0.043628,0.0015326,0.038766,-0.00021723,0.011565,1.937e-06,0,0,0.070723,-0.030633,0,1.0073e-05,0,0,0,0.038766,-0.00021723,0.011565,0.002847,0.016704,0.034629,1.3304e-06,0.91,0.45,0
0.044335,0.0015355,0.038766,-0.00024826,0.011555,1.0628e-06,0,0,0.070747,-0.030689,0,5.5264e-06,0,0,0,0.038766,-0.00024826,0.011555,0.0015608,0.016691,0.034654,1.3315e-06,0.92,0.45,0
0.045043,0.001538,0.038766,-0.00027547,0.011547,4.1814e-07,0,0,0.070768,-0.030738,0,2.1743e-06,0,0,0,0.038766,-0.00027547,0.011547,0.00061366,0.016679,0.034676,1.3325e-06,0.93,0.45,0
0.045751,0.0015402,0.038765,-0.00029893,0.01154,-2.3661e-08,0,0,0.070786,-0.030781,0,-1.2303e-07,0,0,0,0.038765,-0.00029893,0.01154,-3.4703e-05,0.016669,0.034694,1.3333e-06,0.94,0.45,0
0.046459,0.001542,0.038765,-0.0003187,0.011534,-2.9025e-07,0,0,0.070801,-0.030817,0,-1.5093e-06,0,0,0,0.038765,-0.0003187,0.011534,-0.0004255,0.01666,0.03471,1.334e-06,0.95,0.45,0
0.047167,0.0015435,0.038765,-0.0003348,0.011529,-4.0988e-07,0,0,0.070813,-0.030846,0,-2.1314e-06,0,0,0,0.038765,-0.0003348,0.011529,-0.00060063,0.016653,0.034723,1.3345e-06,0.96,0.45,0
0.047875,0.0015447,0.038765,-0.00034729,0.011525,-4.1134e-07,0,0,0.070823,-0.030869,0,-2.139e-06,0,0,0,0.038765,-0.00034729,0.011525,-0.00060258,0.016648,0.034733,1.335e-06,0.97,0.45,0
0.048583,0.0015455,0.038765,-0.00035619,0.011522,-3.2382e-07,0,0,0.07083,-0.030885,0,-1.6839e-06,0,0,0,0.038765,-0.00035619,0.011522,-0.00047426,0.016644,0.03474,1.3353e-06,0.98,0.45,0
0.049292,0.001546,0.038765,-0.00036152,0.011521,-1.7681e-07,0,0,0.070833,-0.030894,0,-9.1939e-07,0,0,0,0.038765,-0.00036152,0.011521,-0.00025891,0.016641,0.034744,1.3355e-06,0.99,0.45,0
0.05,0.0015461,0.038765,-0.0003633,0.01152,3.1402e-06,0,0,0.070835,-0.030898,0,1.6329e-05,0,0,0,0.038765,-0.0003633,0.01152,0.0045983,0.01664,0.034745,1.3355e-06,1,0.45,0
0,0,0.032788,0.014052,0.014052,0.00057871,0,0,0.024357,-1.3552e-19,0,0.0015047,0,0,0,0.032806,0.014034,0.014052,1.7675,0.020298,0.018763,3.3926e-07,0,0.46,0
0.00024357,1.5047e-05,0.032753,0.013621,0.013912,0.00057943,0,0,0.024493,-0.00037825,0,0.0015065,0,0,0,0.032771,0.013604,0.013912,1.7331,0.020096,0.019015,3.5278e-07,0.01,0.46,0
0.00048986,3.044e-05,0.0329,0.013259,0.013848,0.00058586,0,0,0.024768,-0.00076524,0,0.0015232,0,0,0,0.032917,0.013241,0.013848,1.707,0.020002,0.01938,3.7259e-07,0.02,0.46,0
0.00073893,4.6152e-05,0.033047,0.012888,0.013781,0.00059078,0,0,0.025047,-0.0011603,0,0.001536,0,0,0,0.033065,0.012871,0.013781,1.6772,0.019905,0.019755,3.9311e-07,0.03,0.46,0
0.0009908,6.2155e-05,0.033196,0.01251,0.013712,0.00059416,0,0,0.02533,-0.0015626,0,0.0015448,0,0,0,0.033213,0.012493,0.013712,1.6439,0.019806,0.020139,4.143e-07,0.04,0.46,0
0.0012455,7.8419e-05,0.033345,0.012124,0.013641,0.00059597,0,0,0.025616,-0.0019714,0,0.0015495,0,0,0,0.033362,0.012108,0.013641,1.6074,0.019704,0.020531,4.3611e-07,0.05,0.46,0
0.0015031,9.4915e-05,0.033495,0.011733,0.013568,0.00059622,0,0,0.025905,-0.002386,0,0.0015502,0,0,0,0.033511,0.011717,0.013568,1.5682,0.019599,0.02093,4.5851e-07,0.06,0.46,0
0.0017636,0.00011161,0.033644,0.011336,0.013494,0.00059494,0,0,0.026195,-0.0028056,0,0.0015468,0,0,0,0.03366,0.01132,0.013494,1.5266,0.019491,0.021336,4.8144e-07,0.07,0.46,0
0.002027,0.00012848,0.033793,0.010934,0.013418,0.00059214,0,0,0.026487,-0.0032294,0,0.0015396,0,0,0,0.033808,0.010918,0.013418,1.4829,0.019382,0.021748,5.0485e-07,0.08,0.46,0
0.0022934,0.0001455,0.033941,0.010528,0.01334,0.00058791,0,0,0.02678,-0.0036567,0,0.0015286,0,0,0,0.033955,0.010513,0.01334,1.4375,0.01927,0.022165,5.2868e-07,0.09,0.46,0
0.0025626,0.00016263,0.034087,0.010118,0.013262,0.00058228,0,0,0.027073,-0.0040867,0,0.0015139,0,0,0,0.034101,0.010104,0.013262,1.3908,0.019156,0.022585,5.5287e-07,0.1,0.46,0
0.0028348,0.00017984,0.034232,0.0097052,0.013181,0.00057537,0,0,0.027366,-0.0045188,0,0.001496,0,0,0,0.034245,0.0096917,0.013181,1.3431,0.01904,0.023008,5.7737e-07,0.11,0.46,0
0.00311,0.00019712,0.034375,0.0092901,0.0131,0.00056725,0,0,0.027658,-0.0049522,0,0.0014748,0,0,0,0.034388,0.0092773,0.0131,1.2948,0.018922,0.023434,6.0212e-07,0.12,0.46,0
0.003388,0.00021443,0.034515,0.0088733,0.013017,0.00055804,0,0,0.027949,-0.0053863,0,0.0014509,0,0,0,0.034528,0.0088611,0.013017,1.2461,0.018802,0.023862,6.2705e-07,0.13,0.46,0
0.0036689,0.00023176,0.034653,0.0084552,0.012933,0.00054786,0,0,0.028237,-0.0058206,0,0.0014244,0,0,0,0.034665,0.0084438,0.012933,1.1975,0.01868,0.02429,6.5211e-07,0.14,0.46,0
0.0039527,0.00024908,0.034789,0.0080364,0.012847,0.00053683,0,0,0.028524,-0.0062545,0,0.0013958,0,0,0,0.034799,0.0080256,0.012847,1.1491,0.018558,0.024718,6.7723e-07,0.15,0.46,0
0.0042394,0.00026637,0.034921,0.0076173,0.012762,0.00052507,0,0,0.028807,-0.0066874,0,0.0013652,0,0,0,0.034931,0.0076072,0.012762,1.1013,0.018433,0.025146,7.0238e-07,0.16,0.46,0
0.0045289,0.00028362,0.03505,0.0071983,0.012675,0.00051273,0,0,0.029088,-0.0071191,0,0.0013331,0,0,0,0.03506,0.0071889,0.012675,1.0543,0.018308,0.025573,7.2749e-07,0.17,0.46,0
0.0048211,0.00030081,0.035176,0.0067798,0.012587,0.00049994,0,0,0.029366,-0.007549,0,0.0012998,0,0,0,0.035185,0.006771,0.012587,1.0083,0.018181,0.025998,7.5252e-07,0.18,0.46,0
0.0051162,0.00031793,0.035298,0.0063621,0.012498,0.00048682,0,0,0.02964,-0.0079769,0,0.0012657,0,0,0,0.035307,0.0063539,0.012498,0.96358,0.018053,0.026422,7.7742e-07,0.19,0.46,0
0.005414,0.00033496,0.035418,0.0059456,0.012409,0.00047352,0,0,0.029911,-0.0084024,0,0.0012312,0,0,0,0.035425,0.0059379,0.012409,0.92024,0.017924,0.026843,8.0215e-07,0.2,0.46,0
0.0057144,0.00035189,0.035533,0.0055303,0.012319,0.00046015,0,0,0.030178,-0.0088254,0,0.0011964,0,0,0,0.03554,0.0055233,0.012319,0.87846,0.017794,0.027262,8.2668e-07,0.21,0.46,0
0.0060175,0.00036873,0.035645,0.0051166,0.012229,0.00044683,0,0,0.030442,-0.0092456,0,0.0011618,0,0,0,0.035652,0.00511,0.012229,0.83837,0.017664,0.027678,8.5097e-07,0.22,0.46,0
0.0063232,0.00038546,0.035754,0.0047045,0.012138,0.00043369,0,0,0.030702,-0.0096631,0,0.0011276,0,0,0,0.03576,0.0046985,0.012138,0.80007,0.017532,0.028091,8.75e-07,0.23,0.46,0
0.0066316,0.00040207,0.03586,0.0042943,0.012046,0.00042081,0,0,0.030958,-0.010078,0,0.0010941,0,0,0,0.035866,0.0042887,0.012046,0.76364,0.0174,0.028501,8.9875e-07,0.24,0.46,0
0.0069424,0.00041858,0.035962,0.0038859,0.011954,0.00040828,0,0,0.03121,-0.010489,0,0.0010615,0,0,0,0.035967,0.0038807,0.011954,0.72913,0.017268,0.028908,9.2219e-07,0.25,0.46,0
0.0072558,0.00043496,0.036061,0.0034795,0.011862,0.0003962,0,0,0.031459,-0.010898,0,0.0010301,0,0,0,0.036066,0.0034747,0.011862,0.69658,0.017134,0.029312,9.4531e-07,0.26,0.46,0
0.0075716,0.00045124,0.036157,0.003075,0.01177,0.00038462,0,0,0.031704,-0.011303,0,0.001,0,0,0,0.036162,0.0030705,0.01177,0.666,0.017001,0.029713,9.6811e-07,0.27,0.46,0
0.0078898,0.0004674,0.036251,0.0026725,0.011677,0.00037359,0,0,0.031946,-0.011706,0,0.00097134,0,0,0,0.036255,0.0026683,0.011677,0.63737,0.016867,0.03011,9.9056e-07,0.28,0.46,0
0.0082105,0.00048345,0.036341,0.002272,0.011584,0.00036317,0,0,0.032184,-0.012106,0,0.00094423,0,0,0,0.036345,0.0022681,0.011584,0.61066,0.016732,0.030505,1.0127e-06,0.29,0.46,0
0.0085335,0.00049939,0.036429,0.0018734,0.011491,0.00035336,0,0,0.03242,-0.012503,0,0.00091874,0,0,0,0.036433,0.0018697,0.011491,0.58581,0.016598,0.030897,1.0344e-06,0.3,0.46,0
0.0088589,0.00051522,0.036515,0.0014767,0.011397,0.00034419,0,0,0.032653,-0.012897,0,0.0008949,0,0,0,0.036518,0.0014733,0.011397,0.56276,0.016463,0.031287,1.0559e-06,0.31,0.46,0
0.0091866,0.00053095,0.036598,0.0010819,0.011304,0.00033566,0,0,0.032883,-0.013289,0,0.00087271,0,0,0,0.036602,0.0010787,0.011304,0.54142,0.016328,0.031673,1.0769e-06,0.32,0.46,0
0.0095166,0.00054658,0.03668,0.00068896,0.011211,0.00032774,0,0,0.03311,-0.013678,0,0.00085211,0,0,0,0.036683,0.00068598,0.011211,0.52168,0.016193,0.032058,1.0977e-06,0.33,0.46,0
0.0098488,0.00056211,0.03676,0.00029788,0.011117,0.00032041,0,0,0.033335,-0.014065,0,0.00083305,0,0,0,0.036762,0.00029506,0.011117,0.50343,0.016058,0.03244,1.1181e-06,0.34,0.46,0
0.010183,0.00057754,0.036837,-9.137e-05,0.011024,0.00031362,0,0,0.033558,-0.01445,0,0.00081542,0,0,0,0.03684,-9.4033e-05,0.011024,0.48655,0.015923,0.032819,1.1381e-06,0.35,0.46,0
0.01052,0.00059288,0.036914,-0.00047878,0.01093,0.00030733,0,0,0.033778,-0.014832,0,0.00079907,0,0,0,0.036916,-0.0004813,0.01093,0.47088,0.015788,0.033197,1.1578e-06,0.36,0.46,0
0.010859,0.00060813,0.036988,-0.00086431,0.010837,0.00030148,0,0,0.033996,-0.015212,0,0.00078385,0,0,0,0.036991,-0.00086671,0.010837,0.4563,0.015654,0.033572,1.1772e-06,0.37,0.46,0
0.0112,0.00062327,0.037062,-0.0012479,0.010744,0.00029598,0,0,0.034213,-0.01559,0,0.00076956,0,0,0,0.037064,-0.0012502,0.010744,0.44264,0.015519,0.033945,1.1962e-06,0.38,0.46,0
0.011543,0.00063832,0.037134,-0.0016295,0.010651,0.00029077,0,0,0.034427,-0.015965,0,0.000756,0,0,0,0.037136,-0.0016317,0.010651,0.42975,0.015385,0.034317,1.2149e-06,0.39,0.46,0
0.011888,0.00065327,0.037205,-0.002009,0.010559,0.00028575,0,0,0.03464,-0.016338,0,0.00074295,0,0,0,0.037207,-0.0020111,0.010559,0.41748,0.015251,0.034686,1.2332e-06,0.4,0.46,0
0.012236,0.00066811,0.037275,-0.0023863,0.010467,0.00028083,0,0,0.034851,-0.016709,0,0.00073015,0,0,0,0.037277,-0.0023883,0.010467,0.40567,0.015118,0.035052,1.2512e-06,0.41,0.46,0
0.012585,0.00068284,0.037343,-0.0027611,0.010375,0.00027591,0,0,0.035059,-0.017077,0,0.00071736,0,0,0,0.037345,-0.002763,0.010375,0.39416,0.014986,0.035417,1.2688e-06,0.42,0.46,0
0.012937,0.00069744,0.037411,-0.0031333,0.010283,0.00027089,0,0,0.035266,-0.017441,0,0.00070432,0,0,0,0.037413,-0.0031351,0.010283,0.3828,0.014854,0.035778,1.2859e-06,0.43,0.46,0
0.013291,0.00071192,0.037477,-0.0035026,0.010192,0.00026568,0,0,0.03547,-0.017803,0,0.00069076,0,0,0,0.037479,-0.0035044,0.010192,0.37144,0.014722,0.036137,1.3027e-06,0.44,0.46,0
0.013647,0.00072626,0.037542,-0.0038688,0.010102,0.00026016,0,0,0.035672,-0.018162,0,0.00067642,0,0,0,0.037544,-0.0038705,0.010102,0.35994,0.014592,0.036492,1.3191e-06,0.45,0.46,0
0.014004,0.00074044,0.037606,-0.0042316,0.010012,0.00025424,0,0,0.035872,-0.018517,0,0.00066102,0,0,0,0.037607,-0.0042331,0.010012,0.34816,0.014462,0.036844,1.3351e-06,0.46,0.46,0
0.014364,0.00075446,0.037668,-0.0045905,0.0099232,0.00024781,0,0,0.036068,-0.018868,0,0.00064431,0,0,0,0.037669,-0.004592,0.0099232,0.33598,0.014334,0.037192,1.3505e-06,0.47,0.46,0
0.014726,0.00076829,0.037728,-0.0049452,0.009835,0.00024079,0,0,0.036262,-0.019214,0,0.00062604,0,0,0,0.03773,-0.0049466,0.009835,0.32328,0.014206,0.037536,1.3655e-06,0.48,0.46,0
0.015089,0.00078192,0.037787,-0.0052954,0.0097476,0.00023306,0,0,0.036451,-0.019556,0,0.00060595,0,0,0,0.037789,-0.0052966,0.0097476,0.30993,0.01408,0.037874,1.3799e-06,0.49,0.46,0
0.015455,0.00079533,0.037831,-0.0001813,0.011295,0.00022534,0,0,0.050721,-0.019892,0,0.00087381,0,0,0,0.037832,-0.00018266,0.011295,0.34579,0.016315,0.033841,1.2061e-06,0.5,0.46,0
0.016103,0.0008143,0.0379,0.0050524,0.012886,0.00021907,0,0,0.065037,-0.020366,0,0.0011392,0,0,0,0.037901,0.0050509,0.012886,0.3821,0.018613,0.029718,1.0387e-06,0.51,0.46,0
0.016755,0.00083293,0.037954,0.0048193,0.012832,0.00021327,0,0,0.065316,-0.020833,0,0.001109,0,0,0,0.037955,0.004818,0.012832,0.36877,0.018535,0.029945,1.0534e-06,0.52,0.46,0
0.01741,0.0008512,0.038006,0.0045905,0.012779,0.00020724,0,0,0.06559,-0.02129,0,0.0010777,0,0,0,0.038007,0.0045892,0.012779,0.35534,0.018458,0.030169,1.0677e-06,0.53,0.46,0
0.018067,0.00086911,0.038057,0.0043661,0.012727,0.00020098,0,0,0.065858,-0.021738,0,0.0010451,0,0,0,0.038058,0.0043649,0.012727,0.34179,0.018383,0.030388,1.0817e-06,0.54,0.46,0
0.018727,0.00088663,0.038106,0.0041463,0.012676,0.00019449,0,0,0.066119,-0.022176,0,0.0010114,0,0,0,0.038107,0.0041452,0.012676,0.32813,0.018309,0.030602,1.0954e-06,0.55,0.46,0
0.01939,0.00090376,0.038153,0.0039311,0.012625,0.00018778,0,0,0.066373,-0.022605,0,0.00097643,0,0,0,0.038155,0.0039301,0.012625,0.31437,0.018237,0.030811,1.1087e-06,0.56,0.46,0
0.020054,0.00092049,0.038199,0.0037208,0.012576,0.00018084,0,0,0.066621,-0.023024,0,0.00094038,0,0,0,0.0382,0.0037199,0.012576,0.30051,0.018165,0.031016,1.1216e-06,0.57,0.46,0
0.020722,0.0009368,0.038243,0.0035156,0.012528,0.00017371,0,0,0.066861,-0.023432,0,0.00090331,0,0,0,0.038244,0.0035147,0.012528,0.28659,0.018096,0.031215,1.1342e-06,0.58,0.46,0
0.021392,0.00095268,0.038286,0.0033154,0.01248,0.00016641,0,0,0.067094,-0.023829,0,0.00086531,0,0,0,0.038287,0.0033146,0.01248,0.27263,0.018027,0.031409,1.1464e-06,0.59,0.46,0
0.022064,0.00096812,0.038326,0.0031206,0.012434,0.00015895,0,0,0.06732,-0.024215,0,0.00082653,0,0,0,0.038327,0.0031198,0.012434,0.25868,0.01796,0.031597,1.1581e-06,0.6,0.46,0
0.022738,0.00098311,0.038365,0.0029311,0.012389,0.00015137,0,0,0.067538,-0.02459,0,0.00078712,0,0,0,0.038365,0.0029304,0.012389,0.24476,0.017895,0.03178,1.1695e-06,0.61,0.46,0
0.023415,0.00099765,0.038401,0.0027471,0.012345,0.0001437,0,0,0.067748,-0.024953,0,0.00074724,0,0,0,0.038402,0.0027465,0.012345,0.23092,0.017831,0.031956,1.1804e-06,0.62,0.46,0
0.024093,0.0010117,0.038436,0.0025687,0.012301,0.00013598,0,0,0.06795,-0.025305,0,0.00070707,0,0,0,0.038437,0.0025682,0.012301,0.21721,0.017769,0.032127,1.1909e-06,0.63,0.46,0
0.024774,0.0010253,0.038469,0.0023959,0.012259,0.00012823,0,0,0.068144,-0.025645,0,0.00066679,0,0,0,0.038469,0.0023955,0.012259,0.20367,0.017708,0.032292,1.201e-06,0.64,0.46,0
0.025456,0.0010385,0.0385,0.0022289,0.012219,0.0001205,0,0,0.068331,-0.025973,0,0.00062658,0,0,0,0.0385,0.0022285,0.012219,0.19034,0.017649,0.032451,1.2107e-06,0.65,0.46,0
0.02614,0.0010511,0.038529,0.0020676,0.012179,0.00011281,0,0,0.068509,-0.026289,0,0.00058663,0,0,0,0.038529,0.0020673,0.012179,0.17727,0.017592,0.032604,1.2199e-06,0.66,0.46,0
0.026826,0.0010633,0.038555,0.0019121,0.01214,0.00010522,0,0,0.068679,-0.026593,0,0.00054712,0,0,0,0.038556,0.0019118,0.01214,0.16451,0.017536,0.03275,1.2287e-06,0.67,0.46,0
0.027514,0.001075,0.03858,0.0017623,0.012103,9.7739e-05,0,0,0.068842,-0.026885,0,0.00050824,0,0,0,0.038581,0.0017621,0.012103,0.1521,0.017482,0.032891,1.237e-06,0.68,0.46,0
0.028203,0.0010862,0.038604,0.0016184,0.012067,9.0415e-05,0,0,0.068996,-0.027165,0,0.00047016,0,0,0,0.038604,0.0016181,0.012067,0.14007,0.01743,0.033025,1.2449e-06,0.69,0.46,0
0.028894,0.001097,0.038625,0.0014802,0.012032,8.3275e-05,0,0,0.069143,-0.027434,0,0.00043303,0,0,0,0.038625,0.00148,0.012032,0.12845,0.017379,0.033154,1.2524e-06,0.7,0.46,0
0.029586,0.0011073,0.038645,0.0013477,0.011998,7.6348e-05,0,0,0.069282,-0.02769,0,0.00039701,0,0,0,0.038645,0.0013475,0.011998,0.11729,0.01733,0.033276,1.2595e-06,0.71,0.46,0
0.030279,0.0011171,0.038663,0.0012209,0.011965,6.9659e-05,0,0,0.069413,-0.027935,0,0.00036222,0,0,0,0.038663,0.0012208,0.011965,0.1066,0.017283,0.033392,1.2662e-06,0.72,0.46,0
0.030974,0.0011265,0.038679,0.0010998,0.011933,6.3232e-05,0,0,0.069537,-0.028168,0,0.00032881,0,0,0,0.038679,0.0010997,0.011933,0.096408,0.017237,0.033503,1.2724e-06,0.73,0.46,0
0.03167,0.0011354,0.038693,0.00098422,0.011903,5.7088e-05,0,0,0.069654,-0.02839,0,0.00029686,0,0,0,0.038693,0.00098413,0.011903,0.08674,0.017194,0.033607,1.2783e-06,0.74,0.46,0
0.032367,0.0011439,0.038706,0.00087416,0.011874,5.1245e-05,0,0,0.069764,-0.0286,0,0.00026647,0,0,0,0.038707,0.00087409,0.011874,0.077608,0.017152,0.033707,1.2839e-06,0.75,0.46,0
0.033065,0.0011519,0.038718,0.00076952,0.011846,4.5715e-05,0,0,0.069867,-0.0288,0,0.00023772,0,0,0,0.038718,0.00076946,0.011846,0.069022,0.017111,0.0338,1.289e-06,0.76,0.46,0
0.033765,0.0011595,0.038729,0.00067021,0.01182,4.0513e-05,0,0,0.069963,-0.028989,0,0.00021066,0,0,0,0.038729,0.00067017,0.01182,0.06099,0.017073,0.033889,1.2938e-06,0.77,0.46,0
0.034465,0.0011667,0.038738,0.00057614,0.011794,3.5644e-05,0,0,0.070054,-0.029167,0,0.00018535,0,0,0,0.038738,0.00057611,0.011794,0.053516,0.017036,0.033972,1.2983e-06,0.78,0.46,0
0.035166,0.0011734,0.038746,0.00048721,0.01177,3.1115e-05,0,0,0.070137,-0.029335,0,0.0001618,0,0,0,0.038746,0.00048719,0.01177,0.046598,0.017001,0.03405,1.3024e-06,0.79,0.46,0
0.035867,0.0011798,0.038753,0.00040332,0.011747,2.6929e-05,0,0,0.070216,-0.029493,0,0.00014003,0,0,0,0.038753,0.0004033,0.011747,0.040232,0.016968,0.034122,1.3063e-06,0.8,0.46,0
0.03657,0.0011858,0.038759,0.00032436,0.011725,2.3084e-05,0,0,0.070288,-0.029642,0,0.00012004,0,0,0,0.038759,0.00032435,0.011725,0.034412,0.016936,0.034191,1.3098e-06,0.81,0.46,0
0.037273,0.0011914,0.038764,0.00025024,0.011704,1.9579e-05,0,0,0.070355,-0.02978,0,0.00010181,0,0,0,0.038764,0.00025023,0.011704,0.029127,0.016906,0.034254,1.3131e-06,0.82,0.46,0
0.037977,0.0011966,0.038768,0.00018083,0.011685,1.6407e-05,0,0,0.070417,-0.02991,0,8.5319e-05,0,0,0,0.038768,0.00018083,0.011685,0.024363,0.016878,0.034313,1.3161e-06,0.83,0.46,0
0.038681,0.0012015,0.038771,0.00011605,0.011666,1.3563e-05,0,0,0.070473,-0.030031,0,7.0526e-05,0,0,0,0.038771,0.00011605,0.011666,0.020103,0.016851,0.034368,1.3188e-06,0.84,0.46,0
0.039386,0.001206,0.038774,5.5786e-05,0.011649,1.1035e-05,0,0,0.070526,-0.030142,0,5.738e-05,0,0,0,0.038774,5.5782e-05,0.011649,0.016329,0.016826,0.034419,1.3213e-06,0.85,0.46,0
0.040092,0.0012102,0.038776,-6.3744e-08,0.011633,8.8118e-06,0,0,0.070573,-0.030246,0,4.5821e-05,0,0,0,0.038776,-6.5746e-08,0.011633,0.01302,0.016803,0.034465,1.3236e-06,0.86,0.46,0
0.040798,0.001214,0.038778,-5.1594e-05,0.011618,6.8808e-06,0,0,0.070616,-0.030341,0,3.578e-05,0,0,0,0.038778,-5.1595e-05,0.011618,0.010153,0.016782,0.034508,1.3256e-06,0.87,0.46,0
0.041504,0.0012175,0.038779,-9.89e-05,0.011604,5.2268e-06,0,0,0.070656,-0.030428,0,2.7179e-05,0,0,0,0.038779,-9.8901e-05,0.011604,0.0077028,0.016762,0.034547,1.3275e-06,0.88,0.46,0
0.042211,0.0012208,0.03878,-0.00014207,0.011591,3.8333e-06,0,0,0.070691,-0.030507,0,1.9933e-05,0,0,0,0.03878,-0.00014207,0.011591,0.0056428,0.016743,0.034582,1.3292e-06,0.89,0.46,0
0.042918,0.0012236,0.038781,-0.00018119,0.01158,2.6827e-06,0,0,0.070723,-0.030579,0,1.395e-05,0,0,0,0.038781,-0.00018119,0.01158,0.0039451,0.016727,0.034614,1.3306e-06,0.9,0.46,0
0.043625,0.0012262,0.038781,-0.00021633,0.011569,1.7562e-06,0,0,0.070751,-0.030643,0,9.1323e-06,0,0,0,0.038781,-0.00021633,0.011569,0.0025802,0.016712,0.034642,1.332e-06,0.91,0.46,0
0.044333,0.0012285,0.038782,-0.00024758,0.01156,1.034e-06,0,0,0.070776,-0.0307,0,5.3767e-06,0,0,0,0.038782,-0.00024758,0.01156,0.0015179,0.016698,0.034668,1.3331e-06,0.92,0.46,0
0.045041,0.0012306,0.038782,-0.00027498,0.011552,4.9539e-07,0,0,0.070797,-0.03075,0,2.576e-06,0,0,0,0.038782,-0.00027498,0.011552,0.00072673,0.016686,0.03469,1.3341e-06,0.93,0.46,0
0.045749,0.0012323,0.038782,-0.00029862,0.011545,1.1898e-07,0,0,0.070815,-0.030793,0,6.1869e-07,0,0,0,0.038782,-0.00029862,0.011545,0.00017443,0.016676,0.034709,1.335e-06,0.94,0.46,0
0.046457,0.0012338,0.038781,-0.00031853,0.011539,-1.1729e-07,0,0,0.070831,-0.030829,0,-6.099e-07,0,0,0,0.038781,-0.00031853,0.011539,-0.00017187,0.016667,0.034724,1.3357e-06,0.95,0.46,0
0.047166,0.001235,0.038781,-0.00033475,0.011534,-2.3599e-07,0,0,0.070843,-0.030859,0,-1.2272e-06,0,0,0,0.038781,-0.00033475,0.011534,-0.00034568,0.01666,0.034737,1.3362e-06,0.96,0.46,0
0.047874,0.0012359,0.038781,-0.00034733,0.01153,-2.6015e-07,0,0,0.070853,-0.030881,0,-1.3528e-06,0,0,0,0.038781,-0.00034733,0.01153,-0.00038094,0.016655,0.034747,1.3367e-06,0.97,0.46,0
0.048583,0.0012366,0.038781,-0.0003563,0.011527,-2.1312e-07,0,0,0.07086,-0.030898,0,-1.1082e-06,0,0,0,0.038781,-0.0003563,0.011527,-0.000312,0.016651,0.034754,1.337e-06,0.98,0.46,0
0.049291,0.0012369,0.038781,-0.00036167,0.011526,-1.1848e-07,0,0,0.070864,-0.030908,0,-6.1609e-07,0,0,0,0.038781,-0.00036167,0.011526,-0.00017343,0.016648,0.034759,1.3372e-06,0.99,0.46,0
0.05,0.0012371,0.038781,-0.00036346,0.011525,2.5202e-06,0,0,0.070865,-0.030911,0,1.3105e-05,0,0,0,0.038781,-0.00036346,0.011525,0.0036888,0.016648,0.03476,1.3372e-06,1,0.46,0
0,0,0.03277,0.014044,0.014044,0.00043353,0,0,0.024344,2.7105e-20,0,0.0011272,0,0,0,0.03278,0.014034,0.014044,1.3255,0.020286,0.018741,3.3806e-07,0,0.47,0
0.00024344,1.1272e-05,0.032735,0.013615,0.013905,0.00043407,0,0,0.024479,-0.00037692,0,0.0011286,0,0,0,0.032745,0.013605,0.013905,1.2998,0.020085,0.018992,3.5152e-07,0.01,0.47,0
0.00048958,2.2803e-05,0.032881,0.013254,0.013841,0.00043889,0,0,0.024753,-0.00076253,0,0.0011411,0,0,0,0.032891,0.013244,0.013841,1.2804,0.019992,0.019356,3.7123e-07,0.02,0.47,0
0.00073849,3.4573e-05,0.033028,0.012885,0.013774,0.00044259,0,0,0.025031,-0.0011561,0,0.0011507,0,0,0,0.033038,0.012875,0.013774,1.2581,0.019895,0.019729,3.9165e-07,0.03,0.47,0
0.0009902,4.6561e-05,0.033176,0.012507,0.013705,0.00044514,0,0,0.025313,-0.001557,0,0.0011574,0,0,0,0.033186,0.012498,0.013705,1.2332,0.019796,0.020112,4.1273e-07,0.04,0.47,0
0.0012447,5.8745e-05,0.033325,0.012124,0.013635,0.00044653,0,0,0.025598,-0.0019644,0,0.001161,0,0,0,0.033335,0.012114,0.013635,1.206,0.019695,0.020503,4.3444e-07,0.05,0.47,0
0.0015022,7.1103e-05,0.033474,0.011733,0.013562,0.00044675,0,0,0.025886,-0.0023776,0,0.0011616,0,0,0,0.033484,0.011724,0.013562,1.1767,0.01959,0.020901,4.5674e-07,0.06,0.47,0
0.0017625,8.3613e-05,0.033623,0.011338,0.013488,0.00044583,0,0,0.026176,-0.0027959,0,0.0011592,0,0,0,0.033632,0.011329,0.013488,1.1456,0.019483,0.021306,4.7957e-07,0.07,0.47,0
0.0020257,9.6253e-05,0.033772,0.010937,0.013413,0.0004438,0,0,0.026467,-0.0032184,0,0.0011539,0,0,0,0.03378,0.010928,0.013413,1.113,0.019374,0.021717,5.0289e-07,0.08,0.47,0
0.0022918,0.000109,0.033919,0.010532,0.013335,0.00044068,0,0,0.026759,-0.0036444,0,0.0011458,0,0,0,0.033928,0.010524,0.013335,1.0791,0.019262,0.022132,5.2664e-07,0.09,0.47,0
0.0025608,0.00012184,0.034066,0.010123,0.013257,0.00043653,0,0,0.027051,-0.0040733,0,0.001135,0,0,0,0.034073,0.010115,0.013257,1.0442,0.019149,0.022552,5.5076e-07,0.1,0.47,0
0.0028328,0.00013474,0.03421,0.0097118,0.013177,0.00043142,0,0,0.027344,-0.0045043,0,0.0011217,0,0,0,0.034218,0.0097042,0.013177,1.0086,0.019033,0.022975,5.7519e-07,0.11,0.47,0
0.0031077,0.00014769,0.034353,0.0092977,0.013095,0.00042542,0,0,0.027635,-0.0049367,0,0.0011061,0,0,0,0.03436,0.0092905,0.013095,0.97245,0.018915,0.023401,5.9988e-07,0.12,0.47,0
0.0033855,0.00016066,0.034494,0.0088818,0.013013,0.00041859,0,0,0.027925,-0.0053701,0,0.0010883,0,0,0,0.0345,0.008875,0.013013,0.9361,0.018796,0.023828,6.2477e-07,0.13,0.47,0
0.0036662,0.00017365,0.034632,0.0084645,0.012929,0.00041104,0,0,0.028214,-0.0058036,0,0.0010687,0,0,0,0.034638,0.0084581,0.012929,0.89973,0.018675,0.024256,6.4979e-07,0.14,0.47,0
0.0039498,0.00018664,0.034767,0.0080464,0.012844,0.00040286,0,0,0.0285,-0.0062369,0,0.0010474,0,0,0,0.034773,0.0080403,0.012844,0.86357,0.018552,0.024684,6.749e-07,0.15,0.47,0
0.0042362,0.0001996,0.0349,0.0076279,0.012758,0.00039413,0,0,0.028784,-0.0066695,0,0.0010247,0,0,0,0.034905,0.0076222,0.012758,0.82781,0.018429,0.025112,7.0004e-07,0.16,0.47,0
0.0045255,0.00021254,0.035029,0.0072093,0.012672,0.00038497,0,0,0.029065,-0.0071009,0,0.0010009,0,0,0,0.035035,0.007204,0.012672,0.79265,0.018303,0.025539,7.2515e-07,0.17,0.47,0
0.0048175,0.00022543,0.035155,0.0067912,0.012584,0.00037546,0,0,0.029343,-0.0075307,0,0.00097618,0,0,0,0.03516,0.0067862,0.012584,0.75824,0.018177,0.025965,7.502e-07,0.18,0.47,0
0.0051123,0.00023826,0.035279,0.0063737,0.012496,0.0003657,0,0,0.029618,-0.0079585,0,0.00095083,0,0,0,0.035283,0.0063691,0.012496,0.72475,0.018049,0.02639,7.7512e-07,0.19,0.47,0
0.0054099,0.00025104,0.035398,0.0059572,0.012407,0.0003558,0,0,0.029889,-0.0083842,0,0.00092509,0,0,0,0.035403,0.005953,0.012407,0.6923,0.017921,0.026812,7.999e-07,0.2,0.47,0
0.0057101,0.00026374,0.035515,0.005542,0.012317,0.00034585,0,0,0.030157,-0.0088075,0,0.00089921,0,0,0,0.035519,0.005538,0.012317,0.66101,0.017791,0.027231,8.2448e-07,0.21,0.47,0
0.006013,0.00027637,0.035628,0.0051282,0.012227,0.00033593,0,0,0.030421,-0.0092282,0,0.00087343,0,0,0,0.035631,0.0051245,0.012227,0.63097,0.017661,0.027649,8.4883e-07,0.22,0.47,0
0.0063185,0.00028892,0.035737,0.0047159,0.012136,0.00032613,0,0,0.030682,-0.0096461,0,0.00084795,0,0,0,0.035741,0.0047125,0.012136,0.60227,0.01753,0.028063,8.7294e-07,0.23,0.47,0
0.0066267,0.00030139,0.035844,0.0043054,0.012045,0.00031653,0,0,0.030939,-0.010061,0,0.00082297,0,0,0,0.035847,0.0043022,0.012045,0.57496,0.017398,0.028474,8.9677e-07,0.24,0.47,0
0.0069373,0.00031378,0.035947,0.0038967,0.011953,0.00030718,0,0,0.031192,-0.010473,0,0.00079867,0,0,0,0.03595,0.0038937,0.011953,0.54907,0.017266,0.028883,9.203e-07,0.25,0.47,0
0.0072505,0.00032607,0.036047,0.0034898,0.011861,0.00029815,0,0,0.031442,-0.010883,0,0.0007752,0,0,0,0.03605,0.0034871,0.011861,0.52465,0.017133,0.029288,9.4352e-07,0.26,0.47,0
0.0075662,0.00033829,0.036144,0.0030849,0.011769,0.0002895,0,0,0.031688,-0.011289,0,0.0007527,0,0,0,0.036147,0.0030824,0.011769,0.50168,0.016999,0.02969,9.6642e-07,0.27,0.47,0
0.0078843,0.00035042,0.036239,0.0026819,0.011676,0.00028125,0,0,0.031931,-0.011693,0,0.00073126,0,0,0,0.036241,0.0026795,0.011676,0.48017,0.016866,0.030089,9.8899e-07,0.28,0.47,0
0.0082048,0.00036246,0.03633,0.0022808,0.011583,0.00027345,0,0,0.032171,-0.012093,0,0.00071096,0,0,0,0.036332,0.0022786,0.011583,0.46009,0.016731,0.030486,1.0112e-06,0.29,0.47,0
0.0085277,0.00037443,0.036419,0.0018817,0.01149,0.0002661,0,0,0.032408,-0.012491,0,0.00069185,0,0,0,0.036422,0.0018796,0.01149,0.4414,0.016597,0.030879,1.0331e-06,0.3,0.47,0
0.0088529,0.00038631,0.036506,0.0014844,0.011397,0.00025922,0,0,0.032642,-0.012887,0,0.00067396,0,0,0,0.036508,0.0014825,0.011397,0.42405,0.016463,0.03127,1.0546e-06,0.31,0.47,0
0.0091805,0.00039812,0.036591,0.0010891,0.011304,0.0002528,0,0,0.032873,-0.013279,0,0.00065728,0,0,0,0.036593,0.0010873,0.011304,0.40797,0.016328,0.031658,1.0758e-06,0.32,0.47,0
0.0095104,0.00040985,0.036673,0.00069563,0.011211,0.00024684,0,0,0.033101,-0.013669,0,0.00064179,0,0,0,0.036675,0.00069394,0.011211,0.39308,0.016193,0.032044,1.0967e-06,0.33,0.47,0
0.0098425,0.00042151,0.036754,0.00030405,0.011117,0.00024132,0,0,0.033327,-0.014057,0,0.00062743,0,0,0,0.036755,0.00030245,0.011117,0.37931,0.016058,0.032427,1.1172e-06,0.34,0.47,0
0.010177,0.00043309,0.036833,-8.5663e-05,0.011024,0.0002362,0,0,0.033551,-0.014443,0,0.00061411,0,0,0,0.036834,-8.7174e-05,0.011024,0.36655,0.015924,0.032808,1.1374e-06,0.35,0.47,0
0.010514,0.0004446,0.03691,-0.00047348,0.010931,0.00023144,0,0,0.033773,-0.014826,0,0.00060175,0,0,0,0.036911,-0.00047491,0.010931,0.3547,0.015789,0.033187,1.1572e-06,0.36,0.47,0
0.010852,0.00045604,0.036985,-0.00085936,0.010838,0.00022701,0,0,0.033992,-0.015206,0,0.00059022,0,0,0,0.036987,-0.00086072,0.010838,0.34366,0.015655,0.033564,1.1766e-06,0.37,0.47,0
0.011193,0.0004674,0.03706,-0.0012432,0.010745,0.00022284,0,0,0.034209,-0.015585,0,0.00057937,0,0,0,0.037061,-0.0012446,0.010745,0.33331,0.01552,0.033938,1.1958e-06,0.38,0.47,0
0.011537,0.00047869,0.037133,-0.0016251,0.010652,0.00021887,0,0,0.034425,-0.015961,0,0.00056907,0,0,0,0.037134,-0.0016263,0.010652,0.32355,0.015387,0.03431,1.2145e-06,0.39,0.47,0
0.011882,0.00048991,0.037205,-0.0020047,0.01056,0.00021505,0,0,0.034638,-0.016334,0,0.00055913,0,0,0,0.037206,-0.0020059,0.01056,0.31424,0.015253,0.03468,1.2329e-06,0.4,0.47,0
0.012229,0.00050104,0.037275,-0.002382,0.010468,0.0002113,0,0,0.034849,-0.016705,0,0.00054939,0,0,0,0.037276,-0.0023831,0.010468,0.30528,0.01512,0.035048,1.251e-06,0.41,0.47,0
0.012579,0.00051209,0.037344,-0.0027568,0.010376,0.00020756,0,0,0.035058,-0.017073,0,0.00053964,0,0,0,0.037345,-0.0027579,0.010376,0.29654,0.014988,0.035413,1.2686e-06,0.42,0.47,0
0.01293,0.00052305,0.037412,-0.0031289,0.010285,0.00020373,0,0,0.035265,-0.017438,0,0.00052971,0,0,0,0.037413,-0.0031299,0.010285,0.28792,0.014856,0.035775,1.2859e-06,0.43,0.47,0
0.013284,0.0005339,0.037479,-0.003498,0.010194,0.00019976,0,0,0.03547,-0.0178,0,0.00051938,0,0,0,0.03748,-0.0034989,0.010194,0.27931,0.014725,0.036134,1.3027e-06,0.44,0.47,0
0.01364,0.00054466,0.037545,-0.0038639,0.010104,0.00019557,0,0,0.035673,-0.018159,0,0.00050847,0,0,0,0.037546,-0.0038648,0.010104,0.27059,0.014595,0.03649,1.3192e-06,0.45,0.47,0
0.013998,0.00055529,0.037609,-0.0042262,0.010015,0.00019107,0,0,0.035872,-0.018513,0,0.00049677,0,0,0,0.037609,-0.0042271,0.010015,0.26167,0.014466,0.036842,1.3351e-06,0.46,0.47,0
0.014357,0.0005658,0.037671,-0.0045846,0.009926,0.00018619,0,0,0.036069,-0.018864,0,0.0004841,0,0,0,0.037672,-0.0045854,0.009926,0.25245,0.014337,0.03719,1.3506e-06,0.47,0.47,0
0.014719,0.00057617,0.037732,-0.0049388,0.009838,0.00018087,0,0,0.036262,-0.01921,0,0.00047025,0,0,0,0.037733,-0.0049396,0.009838,0.24285,0.01421,0.037533,1.3656e-06,0.48,0.47,0
0.015083,0.00058639,0.037791,-0.0052883,0.0097509,0.00017502,0,0,0.036452,-0.019551,0,0.00045505,0,0,0,0.037792,-0.005289,0.0097509,0.23277,0.014085,0.037871,1.3801e-06,0.49,0.47,0
0.015448,0.00059644,0.037835,-0.00017496,0.011298,0.00016919,0,0,0.050723,-0.019887,0,0.00065606,0,0,0,0.037836,-0.00017572,0.011298,0.25964,0.016319,0.033838,1.2063e-06,0.5,0.47,0
0.016097,0.00061067,0.037904,0.0050573,0.012888,0.00016446,0,0,0.065041,-0.020361,0,0.00085521,0,0,0,0.037905,0.0050565,0.012888,0.28687,0.018617,0.029717,1.0388e-06,0.51,0.47,0
0.016749,0.00062464,0.037958,0.0048245,0.012835,0.0001601,0,0,0.065321,-0.020827,0,0.00083252,0,0,0,0.037959,0.0048237,0.012835,0.27684,0.018539,0.029944,1.0535e-06,0.52,0.47,0
0.017403,0.00063834,0.038011,0.0045959,0.012782,0.00015557,0,0,0.065594,-0.021284,0,0.00080896,0,0,0,0.038011,0.0045952,0.012782,0.26675,0.018463,0.030168,1.0678e-06,0.53,0.47,0
0.018061,0.00065177,0.038061,0.0043717,0.01273,0.00015087,0,0,0.065862,-0.021731,0,0.00078452,0,0,0,0.038062,0.004371,0.01273,0.25657,0.018388,0.030387,1.0818e-06,0.54,0.47,0
0.018721,0.00066491,0.038111,0.0041521,0.012679,0.000146,0,0,0.066123,-0.02217,0,0.00075918,0,0,0,0.038111,0.0041514,0.012679,0.24632,0.018314,0.030601,1.0955e-06,0.55,0.47,0
0.019383,0.00067775,0.038158,0.0039371,0.012629,0.00014096,0,0,0.066378,-0.022598,0,0.00073298,0,0,0,0.038159,0.0039365,0.012629,0.236,0.018241,0.03081,1.1088e-06,0.56,0.47,0
0.020048,0.0006903,0.038205,0.003727,0.012579,0.00013576,0,0,0.066625,-0.023016,0,0.00070596,0,0,0,0.038205,0.0037265,0.012579,0.22561,0.01817,0.031015,1.1218e-06,0.57,0.47,0
0.020716,0.00070252,0.038249,0.0035219,0.012531,0.00013042,0,0,0.066866,-0.023424,0,0.00067818,0,0,0,0.038249,0.0035214,0.012531,0.21517,0.018101,0.031214,1.1343e-06,0.58,0.47,0
0.021386,0.00071443,0.038291,0.0033219,0.012484,0.00012495,0,0,0.067099,-0.023821,0,0.00064972,0,0,0,0.038292,0.0033214,0.012484,0.20472,0.018032,0.031408,1.1465e-06,0.59,0.47,0
0.022058,0.00072601,0.038332,0.0031271,0.012438,0.00011936,0,0,0.067325,-0.024207,0,0.00062068,0,0,0,0.038332,0.0031267,0.012438,0.19426,0.017965,0.031596,1.1583e-06,0.6,0.47,0
0.022732,0.00073726,0.038371,0.0029378,0.012393,0.00011369,0,0,0.067543,-0.024582,0,0.00059118,0,0,0,0.038371,0.0029374,0.012393,0.18383,0.0179,0.031779,1.1697e-06,0.61,0.47,0
0.023409,0.00074816,0.038407,0.0027538,0.012348,0.00010795,0,0,0.067753,-0.024946,0,0.00056133,0,0,0,0.038408,0.0027535,0.012348,0.17347,0.017837,0.031956,1.1807e-06,0.62,0.47,0
0.024087,0.00075872,0.038442,0.0025755,0.012305,0.00010217,0,0,0.067956,-0.025298,0,0.00053126,0,0,0,0.038442,0.0025752,0.012305,0.1632,0.017774,0.032127,1.1912e-06,0.63,0.47,0
0.024768,0.00076892,0.038475,0.0024027,0.012263,9.6368e-05,0,0,0.068151,-0.025638,0,0.00050111,0,0,0,0.038475,0.0024025,0.012263,0.15307,0.017714,0.032292,1.2013e-06,0.64,0.47,0
0.02545,0.00077878,0.038506,0.0022357,0.012223,9.058e-05,0,0,0.068337,-0.025966,0,0.00047102,0,0,0,0.038506,0.0022354,0.012223,0.14309,0.017655,0.032451,1.211e-06,0.65,0.47,0
0.026134,0.00078828,0.038535,0.0020743,0.012183,8.483e-05,0,0,0.068516,-0.026282,0,0.00044111,0,0,0,0.038535,0.0020741,0.012183,0.1333,0.017597,0.032604,1.2202e-06,0.66,0.47,0
0.026821,0.00079742,0.038562,0.0019187,0.012144,7.9143e-05,0,0,0.068687,-0.026587,0,0.00041154,0,0,0,0.038562,0.0019185,0.012144,0.12375,0.017542,0.032751,1.229e-06,0.67,0.47,0
0.027508,0.0008062,0.038588,0.0017688,0.012107,7.3545e-05,0,0,0.06885,-0.026879,0,0.00038243,0,0,0,0.038588,0.0017687,0.012107,0.11445,0.017488,0.032892,1.2374e-06,0.68,0.47,0
0.028197,0.00081463,0.038611,0.0016247,0.012071,6.8061e-05,0,0,0.069005,-0.02716,0,0.00035392,0,0,0,0.038611,0.0016246,0.012071,0.10543,0.017435,0.033027,1.2454e-06,0.69,0.47,0
0.028888,0.00082271,0.038633,0.0014863,0.012036,6.2713e-05,0,0,0.069152,-0.027428,0,0.00032611,0,0,0,0.038633,0.0014862,0.012036,0.09673,0.017385,0.033155,1.2529e-06,0.7,0.47,0
0.02958,0.00083043,0.038652,0.0013537,0.012002,5.7523e-05,0,0,0.069292,-0.027685,0,0.00029912,0,0,0,0.038652,0.0013536,0.012002,0.088362,0.017336,0.033278,1.26e-06,0.71,0.47,0
0.030274,0.0008378,0.038671,0.0012267,0.011969,5.251e-05,0,0,0.069424,-0.027931,0,0.00027306,0,0,0,0.038671,0.0012266,0.011969,0.08035,0.017289,0.033395,1.2667e-06,0.72,0.47,0
0.030969,0.00084484,0.038687,0.0011053,0.011938,4.7693e-05,0,0,0.069548,-0.028164,0,0.000248,0,0,0,0.038687,0.0011052,0.011938,0.072711,0.017243,0.033506,1.2731e-06,0.73,0.47,0
0.031665,0.00085153,0.038702,0.00098947,0.011907,4.3086e-05,0,0,0.069666,-0.028387,0,0.00022405,0,0,0,0.038702,0.00098942,0.011907,0.06546,0.0172,0.033611,1.279e-06,0.74,0.47,0
0.032362,0.00085788,0.038715,0.00087914,0.011878,3.8703e-05,0,0,0.069776,-0.028598,0,0.00020126,0,0,0,0.038715,0.0008791,0.011878,0.058608,0.017158,0.033711,1.2846e-06,0.75,0.47,0
0.033061,0.00086391,0.038727,0.00077422,0.01185,3.4554e-05,0,0,0.06988,-0.028798,0,0.00017968,0,0,0,0.038727,0.00077419,0.01185,0.052165,0.017117,0.033805,1.2898e-06,0.76,0.47,0
0.03376,0.00086962,0.038738,0.00067462,0.011824,3.0649e-05,0,0,0.069977,-0.028988,0,0.00015937,0,0,0,0.038738,0.00067459,0.011824,0.046135,0.017079,0.033893,1.2946e-06,0.77,0.47,0
0.03446,0.00087501,0.038748,0.00058025,0.011798,2.6992e-05,0,0,0.070068,-0.029167,0,0.00014036,0,0,0,0.038748,0.00058023,0.011798,0.04052,0.017042,0.033977,1.2991e-06,0.78,0.47,0
0.035161,0.0008801,0.038756,0.00049102,0.011774,2.359e-05,0,0,0.070153,-0.029336,0,0.00012267,0,0,0,0.038756,0.00049101,0.011774,0.035322,0.017007,0.034055,1.3033e-06,0.79,0.47,0
0.035863,0.00088488,0.038763,0.00040683,0.011751,2.0443e-05,0,0,0.070231,-0.029495,0,0.0001063,0,0,0,0.038763,0.00040682,0.011751,0.030537,0.016974,0.034129,1.3072e-06,0.8,0.47,0
0.036566,0.00088937,0.038769,0.00032758,0.011729,1.7551e-05,0,0,0.070304,-0.029644,0,9.1266e-05,0,0,0,0.038769,0.00032757,0.011729,0.026159,0.016942,0.034197,1.3108e-06,0.81,0.47,0
0.037269,0.00089358,0.038774,0.00025316,0.011708,1.4913e-05,0,0,0.070372,-0.029783,0,7.7548e-05,0,0,0,0.038774,0.00025315,0.011708,0.022181,0.016912,0.034261,1.3141e-06,0.82,0.47,0
0.037973,0.00089751,0.038779,0.00018346,0.011689,1.2525e-05,0,0,0.070434,-0.029914,0,6.5127e-05,0,0,0,0.038779,0.00018346,0.011689,0.018593,0.016884,0.034321,1.3171e-06,0.83,0.47,0
0.038678,0.00090117,0.038782,0.0001184,0.01167,1.038e-05,0,0,0.070492,-0.030035,0,5.3977e-05,0,0,0,0.038782,0.0001184,0.01167,0.015382,0.016857,0.034376,1.3199e-06,0.84,0.47,0
0.039383,0.00090456,0.038786,5.7862e-05,0.011653,8.4727e-06,0,0,0.070544,-0.030147,0,4.4058e-05,0,0,0,0.038786,5.786e-05,0.011653,0.012535,0.016832,0.034427,1.3224e-06,0.85,0.47,0
0.040089,0.0009077,0.038788,1.7512e-06,0.011637,6.7938e-06,0,0,0.070593,-0.030251,0,3.5328e-05,0,0,0,0.038788,1.75e-06,0.011637,0.010036,0.016809,0.034474,1.3247e-06,0.86,0.47,0
0.040795,0.00091058,0.03879,-5.0029e-05,0.011622,5.3333e-06,0,0,0.070637,-0.030347,0,2.7733e-05,0,0,0,0.03879,-5.0029e-05,0.011622,0.0078676,0.016787,0.034517,1.3268e-06,0.87,0.47,0
0.041502,0.00091323,0.038791,-9.757e-05,0.011608,4.0802e-06,0,0,0.070676,-0.030435,0,2.1217e-05,0,0,0,0.038791,-9.757e-05,0.011608,0.0060114,0.016767,0.034556,1.3287e-06,0.88,0.47,0
0.042209,0.00091564,0.038792,-0.00014096,0.011595,3.0222e-06,0,0,0.070712,-0.030515,0,1.5715e-05,0,0,0,0.038792,-0.00014096,0.011595,0.0044476,0.016749,0.034592,1.3304e-06,0.89,0.47,0
0.042916,0.00091782,0.038793,-0.00018028,0.011584,2.1462e-06,0,0,0.070744,-0.030587,0,1.116e-05,0,0,0,0.038793,-0.00018028,0.011584,0.0031552,0.016732,0.034624,1.3319e-06,0.9,0.47,0
0.043623,0.00091977,0.038794,-0.00021562,0.011573,1.4381e-06,0,0,0.070773,-0.030652,0,7.4781e-06,0,0,0,0.038794,-0.00021562,0.011573,0.0021122,0.016717,0.034653,1.3332e-06,0.91,0.47,0
0.044331,0.0009215,0.038794,-0.00024703,0.011564,8.8311e-07,0,0,0.070798,-0.030709,0,4.5922e-06,0,0,0,0.038794,-0.00024703,0.011564,0.001296,0.016704,0.034678,1.3344e-06,0.92,0.47,0
0.045039,0.00092302,0.038794,-0.00027459,0.011556,4.6576e-07,0,0,0.070819,-0.030759,0,2.422e-06,0,0,0,0.038794,-0.00027459,0.011556,0.00068306,0.016692,0.034701,1.3354e-06,0.93,0.47,0
0.045748,0.00092433,0.038794,-0.00029835,0.011549,1.7002e-07,0,0,0.070838,-0.030803,0,8.8411e-07,0,0,0,0.038794,-0.00029835,0.011549,0.00024919,0.016681,0.03472,1.3362e-06,0.94,0.47,0
0.046456,0.00092543,0.038794,-0.00031837,0.011543,-2.064e-08,0,0,0.070854,-0.030839,0,-1.0733e-07,0,0,0,0.038794,-0.00031837,0.011543,-3.0235e-05,0.016673,0.034736,1.337e-06,0.95,0.47,0
0.047165,0.00092632,0.038794,-0.00033469,0.011538,-1.2314e-07,0,0,0.070866,-0.030869,0,-6.4033e-07,0,0,0,0.038794,-0.00033469,0.011538,-0.00018031,0.016666,0.034749,1.3376e-06,0.96,0.47,0
0.047873,0.00092702,0.038794,-0.00034735,0.011534,-1.5473e-07,0,0,0.070876,-0.030891,0,-8.046e-07,0,0,0,0.038794,-0.00034735,0.011534,-0.0002265,0.01666,0.034759,1.338e-06,0.97,0.47,0
0.048582,0.00092751,0.038794,-0.00035637,0.011531,-1.3292e-07,0,0,0.070883,-0.030908,0,-6.9117e-07,0,0,0,0.038794,-0.00035637,0.011531,-0.00019452,0.016656,0.034766,1.3383e-06,0.98,0.47,0
0.049291,0.00092781,0.038794,-0.00036177,0.01153,-7.5401e-08,0,0,0.070887,-0.030918,0,-3.9208e-07,0,0,0,0.038794,-0.00036177,0.01153,-0.00011033,0.016654,0.03477,1.3385e-06,0.99,0.47,0
0.05,0.00092791,0.038794,-0.00036357,0.011529,1.8948e-06,0,0,0.070888,-0.030921,0,9.8529e-06,0,0,0,0.038794,-0.00036357,0.011529,0.0027725,0.016653,0.034771,1.3386e-06,1,0.47,0
0,0,0.032757,0.014039,0.014039,0.00028878,0,0,0.024334,5.421e-20,0,0.00075082,0,0,0,0.032762,0.014034,0.014039,0.88365,0.020278,0.018725,3.3721e-07,0,0.48,0
0.00024334,7.5082e-06,0.032722,0.013611,0.0139,0.00028914,0,0,0.024469,-0.00037597,0,0.00075176,0,0,0,0.032727,0.013606,0.0139,0.86656,0.020078,0.018975,3.5063e-07,0.01,0.48,0
0.00048938,1.5189e-05,0.032868,0.01325,0.013836,0.00029235,0,0,0.024742,-0.00076061,0,0.00076012,0,0,0,0.032872,0.013246,0.013836,0.85361,0.019985,0.019338,3.7026e-07,0.02,0.48,0
0.00073818,2.3029e-05,0.033015,0.012882,0.013769,0.00029482,0,0,0.025019,-0.0011532,0,0.00076654,0,0,0,0.033019,0.012878,0.013769,0.83879,0.019888,0.019711,3.906e-07,0.03,0.48,0
0.00098977,3.1015e-05,0.033163,0.012506,0.0137,0.00029653,0,0,0.025301,-0.0015531,0,0.00077098,0,0,0,0.033167,0.012502,0.0137,0.82226,0.01979,0.020093,4.1161e-07,0.04,0.48,0
0.0012442,3.9131e-05,0.033311,0.012123,0.01363,0.00029747,0,0,0.025585,-0.0019595,0,0.00077342,0,0,0,0.033315,0.012119,0.01363,0.80419,0.019688,0.020483,4.3326e-07,0.05,0.48,0
0.0015015,4.7363e-05,0.03346,0.011734,0.013558,0.00029764,0,0,0.025872,-0.0023717,0,0.00077386,0,0,0,0.033464,0.01173,0.013558,0.78473,0.019584,0.02088,4.5548e-07,0.06,0.48,0
0.0017616,5.5696e-05,0.033608,0.011339,0.013484,0.00029705,0,0,0.026162,-0.0027889,0,0.00077232,0,0,0,0.033612,0.011335,0.013484,0.76407,0.019477,0.021285,4.7825e-07,0.07,0.48,0
0.0020247,6.4116e-05,0.033757,0.010939,0.013409,0.00029571,0,0,0.026452,-0.0032105,0,0.00076886,0,0,0,0.03376,0.010935,0.013409,0.74239,0.019368,0.021694,5.015e-07,0.08,0.48,0
0.0022907,7.2609e-05,0.033904,0.010535,0.013332,0.00029367,0,0,0.026744,-0.0036357,0,0.00076353,0,0,0,0.033908,0.010531,0.013332,0.71986,0.019257,0.02211,5.2519e-07,0.09,0.48,0
0.0025596,8.116e-05,0.03405,0.010127,0.013253,0.00029094,0,0,0.027036,-0.0040637,0,0.00075643,0,0,0,0.034054,0.010124,0.013253,0.69666,0.019144,0.022529,5.4926e-07,0.1,0.48,0
0.0028314,8.9756e-05,0.034195,0.0097164,0.013173,0.00028756,0,0,0.027328,-0.004494,0,0.00074767,0,0,0,0.034198,0.0097131,0.013173,0.67297,0.019028,0.022951,5.7364e-07,0.11,0.48,0
0.0031061,9.8384e-05,0.034337,0.0093031,0.013092,0.0002836,0,0,0.027619,-0.0049258,0,0.00073736,0,0,0,0.034341,0.0092999,0.013092,0.64896,0.018911,0.023377,5.9829e-07,0.12,0.48,0
0.0033838,0.00010703,0.034478,0.0088878,0.01301,0.00027909,0,0,0.027909,-0.0053585,0,0.00072564,0,0,0,0.034481,0.0088848,0.01301,0.62478,0.018792,0.023803,6.2315e-07,0.13,0.48,0
0.0036643,0.00011569,0.034616,0.0084711,0.012926,0.0002741,0,0,0.028197,-0.0057916,0,0.00071266,0,0,0,0.034619,0.0084682,0.012926,0.60059,0.018671,0.024231,6.4815e-07,0.14,0.48,0
0.0039477,0.00012434,0.034752,0.0080535,0.012842,0.00026869,0,0,0.028483,-0.0062245,0,0.00069858,0,0,0,0.034754,0.0080508,0.012842,0.57653,0.018549,0.02466,6.7324e-07,0.15,0.48,0
0.004234,0.00013298,0.034884,0.0076353,0.012756,0.00026291,0,0,0.028767,-0.0066568,0,0.00068357,0,0,0,0.034887,0.0076328,0.012756,0.55274,0.018425,0.025088,6.9837e-07,0.16,0.48,0
0.0045231,0.0001416,0.035014,0.0072171,0.012669,0.00025684,0,0,0.029048,-0.007088,0,0.00066779,0,0,0,0.035017,0.0072148,0.012669,0.52934,0.0183,0.025516,7.2349e-07,0.17,0.48,0
0.004815,0.0001502,0.035141,0.0067992,0.012582,0.00025054,0,0,0.029326,-0.0075177,0,0.00065141,0,0,0,0.035143,0.006797,0.012582,0.50645,0.018174,0.025942,7.4854e-07,0.18,0.48,0
0.0051096,0.00015876,0.035264,0.0063819,0.012494,0.00024408,0,0,0.029602,-0.0079455,0,0.00063461,0,0,0,0.035266,0.0063799,0.012494,0.48415,0.018047,0.026367,7.7349e-07,0.19,0.48,0
0.005407,0.00016727,0.035385,0.0059656,0.012405,0.00023752,0,0,0.029873,-0.0083713,0,0.00061755,0,0,0,0.035387,0.0059636,0.012405,0.46254,0.017918,0.026789,7.9829e-07,0.2,0.48,0
0.0057071,0.00017574,0.035501,0.0055503,0.012316,0.00023092,0,0,0.030142,-0.0087948,0,0.00060039,0,0,0,0.035503,0.0055485,0.012316,0.44171,0.017789,0.02721,8.2291e-07,0.21,0.48,0
0.0060098,0.00018416,0.035615,0.0051364,0.012225,0.00022434,0,0,0.030406,-0.0092157,0,0.00058328,0,0,0,0.035617,0.0051348,0.012225,0.4217,0.017659,0.027628,8.4731e-07,0.22,0.48,0
0.0063152,0.00019253,0.035725,0.004724,0.012135,0.00021783,0,0,0.030668,-0.009634,0,0.00056637,0,0,0,0.035727,0.0047225,0.012135,0.40257,0.017528,0.028043,8.7146e-07,0.23,0.48,0
0.0066232,0.00020085,0.035832,0.0043133,0.012044,0.00021145,0,0,0.030925,-0.010049,0,0.00054978,0,0,0,0.035834,0.0043119,0.012044,0.38436,0.017396,0.028455,8.9535e-07,0.24,0.48,0
0.0069337,0.00020911,0.035936,0.0039044,0.011952,0.00020525,0,0,0.031179,-0.010462,0,0.00053364,0,0,0,0.035938,0.003903,0.011952,0.36711,0.017264,0.028864,9.1895e-07,0.25,0.48,0
0.0072467,0.00021731,0.036037,0.0034972,0.01186,0.00019925,0,0,0.03143,-0.010872,0,0.00051804,0,0,0,0.036038,0.003496,0.01186,0.35082,0.017132,0.029271,9.4224e-07,0.26,0.48,0
0.0075623,0.00022546,0.036135,0.0030919,0.011768,0.00019349,0,0,0.031677,-0.011279,0,0.00050308,0,0,0,0.036136,0.0030908,0.011768,0.33549,0.016998,0.029674,9.6521e-07,0.27,0.48,0
0.0078803,0.00023355,0.03623,0.0026886,0.011676,0.000188,0,0,0.031921,-0.011683,0,0.00048881,0,0,0,0.036231,0.0026875,0.011676,0.32114,0.016865,0.030074,9.8786e-07,0.28,0.48,0
0.0082007,0.00024158,0.036323,0.0022871,0.011583,0.00018281,0,0,0.032162,-0.012084,0,0.00047529,0,0,0,0.036323,0.0022861,0.011583,0.30773,0.016731,0.030472,1.0102e-06,0.29,0.48,0
0.0085235,0.00024956,0.036412,0.0018876,0.01149,0.00017791,0,0,0.032399,-0.012483,0,0.00046256,0,0,0,0.036413,0.0018867,0.01149,0.29524,0.016597,0.030867,1.0321e-06,0.3,0.48,0
0.0088487,0.00025749,0.0365,0.00149,0.011397,0.00017332,0,0,0.032634,-0.012879,0,0.00045063,0,0,0,0.036501,0.0014891,0.011397,0.28364,0.016462,0.031258,1.0538e-06,0.31,0.48,0
0.0091762,0.00026537,0.036585,0.0010942,0.011304,0.00016904,0,0,0.032866,-0.013272,0,0.0004395,0,0,0,0.036586,0.0010934,0.011304,0.27288,0.016328,0.031648,1.075e-06,0.32,0.48,0
0.009506,0.00027319,0.036668,0.00070041,0.011211,0.00016506,0,0,0.033095,-0.013663,0,0.00042915,0,0,0,0.036669,0.00069965,0.011211,0.26292,0.016193,0.032035,1.096e-06,0.33,0.48,0
0.0098381,0.00028097,0.03675,0.00030847,0.011117,0.00016136,0,0,0.033322,-0.014052,0,0.00041954,0,0,0,0.03675,0.00030776,0.011117,0.2537,0.016058,0.032419,1.1166e-06,0.34,0.48,0
0.010172,0.00028869,0.036829,-8.1561e-05,0.011024,0.00015793,0,0,0.033546,-0.014438,0,0.00041062,0,0,0,0.03683,-8.2236e-05,0.011024,0.24515,0.015924,0.032801,1.1368e-06,0.35,0.48,0
0.010509,0.00029637,0.036907,-0.00046966,0.010931,0.00015474,0,0,0.033769,-0.014821,0,0.00040233,0,0,0,0.036908,-0.0004703,0.010931,0.2372,0.01579,0.033181,1.1567e-06,0.36,0.48,0
0.010848,0.000304,0.036984,-0.00085579,0.010838,0.00015176,0,0,0.033989,-0.015202,0,0.00039459,0,0,0,0.036984,-0.0008564,0.010838,0.22979,0.015655,0.033558,1.1762e-06,0.37,0.48,0
0.011189,0.00031158,0.037058,-0.0012399,0.010746,0.00014896,0,0,0.034207,-0.015581,0,0.0003873,0,0,0,0.037059,-0.0012405,0.010746,0.22285,0.015521,0.033933,1.1954e-06,0.38,0.48,0
0.011532,0.00031911,0.037132,-0.0016218,0.010653,0.00014629,0,0,0.034423,-0.015957,0,0.00038036,0,0,0,0.037132,-0.0016224,0.010653,0.21629,0.015388,0.034306,1.2143e-06,0.39,0.48,0
0.011877,0.00032659,0.037204,-0.0020016,0.010561,0.00014372,0,0,0.034636,-0.016331,0,0.00037367,0,0,0,0.037205,-0.0020021,0.010561,0.21003,0.015255,0.034676,1.2327e-06,0.4,0.48,0
0.012225,0.00033401,0.037275,-0.0023789,0.010469,0.00014119,0,0,0.034848,-0.016702,0,0.0003671,0,0,0,0.037276,-0.0023794,0.010469,0.204,0.015122,0.035044,1.2508e-06,0.41,0.48,0
0.012574,0.00034138,0.037345,-0.0027536,0.010377,0.00013867,0,0,0.035058,-0.01707,0,0.00036053,0,0,0,0.037345,-0.0027541,0.010377,0.19813,0.01499,0.03541,1.2685e-06,0.42,0.48,0
0.012926,0.00034868,0.037413,-0.0031256,0.010286,0.00013609,0,0,0.035265,-0.017436,0,0.00035383,0,0,0,0.037414,-0.0031261,0.010286,0.19234,0.014858,0.035772,1.2858e-06,0.43,0.48,0
0.013279,0.00035592,0.037481,-0.0034946,0.010196,0.00013342,0,0,0.03547,-0.017798,0,0.00034688,0,0,0,0.037481,-0.003495,0.010196,0.18655,0.014727,0.036131,1.3027e-06,0.44,0.48,0
0.013635,0.00036309,0.037546,-0.0038602,0.010106,0.00013059,0,0,0.035673,-0.018156,0,0.00033953,0,0,0,0.037547,-0.0038607,0.010106,0.1807,0.014597,0.036487,1.3192e-06,0.45,0.48,0
0.013993,0.00037018,0.037611,-0.0042223,0.010016,0.00012756,0,0,0.035873,-0.01851,0,0.00033166,0,0,0,0.037611,-0.0042227,0.010016,0.17471,0.014468,0.036839,1.3352e-06,0.46,0.48,0
0.014353,0.00037718,0.037674,-0.0045804,0.009928,0.00012429,0,0,0.036069,-0.018861,0,0.00032314,0,0,0,0.037674,-0.0045808,0.009928,0.16853,0.01434,0.037187,1.3507e-06,0.47,0.48,0
0.014714,0.00038409,0.037735,-0.0049342,0.0098402,0.00012071,0,0,0.036263,-0.019207,0,0.00031385,0,0,0,0.037735,-0.0049345,0.0098402,0.16209,0.014214,0.037531,1.3657e-06,0.48,0.48,0
0.015078,0.0003909,0.037794,-0.0052832,0.0097532,0.00011679,0,0,0.036453,-0.019547,0,0.00030365,0,0,0,0.037794,-0.0052835,0.0097532,0.15534,0.014088,0.037869,1.3802e-06,0.49,0.48,0
0.015443,0.0003976,0.037838,-0.0001704,0.0113,0.00011288,0,0,0.050724,-0.019883,0,0.00043771,0,0,0,0.037838,-0.00017074,0.0113,0.17324,0.016323,0.033837,1.2063e-06,0.5,0.48,0
0.016092,0.00040709,0.037907,0.0050609,0.01289,0.00010972,0,0,0.065044,-0.020357,0,0.00057054,0,0,0,0.037907,0.0050605,0.01289,0.19139,0.01862,0.029716,1.0389e-06,0.51,0.48,0
0.016744,0.0004164,0.037961,0.0048282,0.012837,0.0001068,0,0,0.065323,-0.020822,0,0.00055538,0,0,0,0.037962,0.0048279,0.012837,0.18469,0.018542,0.029944,1.0535e-06,0.52,0.48,0
0.017399,0.00042553,0.038014,0.0045998,0.012784,0.00010378,0,0,0.065597,-0.021279,0,0.00053965,0,0,0,0.038014,0.0045994,0.012784,0.17795,0.018466,0.030167,1.0679e-06,0.53,0.48,0
0.018056,0.00043448,0.038065,0.0043757,0.012732,0.00010064,0,0,0.065865,-0.021727,0,0.00052333,0,0,0,0.038065,0.0043754,0.012732,0.17116,0.018391,0.030386,1.0819e-06,0.54,0.48,0
0.018716,0.00044324,0.038114,0.0041562,0.012681,9.7391e-05,0,0,0.066126,-0.022165,0,0.00050644,0,0,0,0.038115,0.0041559,0.012681,0.16432,0.018317,0.0306,1.0956e-06,0.55,0.48,0
0.019379,0.0004518,0.038162,0.0039414,0.012631,9.4032e-05,0,0,0.066381,-0.022593,0,0.00048897,0,0,0,0.038162,0.0039411,0.012631,0.15744,0.018245,0.03081,1.1089e-06,0.56,0.48,0
0.020044,0.00046016,0.038208,0.0037314,0.012582,9.0569e-05,0,0,0.066628,-0.023011,0,0.00047096,0,0,0,0.038208,0.0037311,0.012582,0.15051,0.018174,0.031014,1.1219e-06,0.57,0.48,0
0.020711,0.00046832,0.038253,0.0035264,0.012534,8.701e-05,0,0,0.066869,-0.023419,0,0.00045245,0,0,0,0.038253,0.0035262,0.012534,0.14356,0.018104,0.031213,1.1345e-06,0.58,0.48,0
0.021381,0.00047625,0.038295,0.0033265,0.012486,8.3365e-05,0,0,0.067102,-0.023816,0,0.0004335,0,0,0,0.038295,0.0033263,0.012486,0.13659,0.018036,0.031407,1.1467e-06,0.59,0.48,0
0.022053,0.00048397,0.038336,0.0031318,0.01244,7.9647e-05,0,0,0.067328,-0.024202,0,0.00041416,0,0,0,0.038336,0.0031317,0.01244,0.12963,0.017969,0.031596,1.1585e-06,0.6,0.48,0
0.022728,0.00049147,0.038374,0.0029425,0.012395,7.5869e-05,0,0,0.067546,-0.024577,0,0.00039452,0,0,0,0.038375,0.0029424,0.012395,0.12268,0.017904,0.031779,1.1699e-06,0.61,0.48,0
0.023404,0.00049874,0.038411,0.0027587,0.012351,7.2047e-05,0,0,0.067757,-0.02494,0,0.00037465,0,0,0,0.038412,0.0027585,0.012351,0.11578,0.01784,0.031955,1.1809e-06,0.62,0.48,0
0.024083,0.00050578,0.038446,0.0025803,0.012308,6.8198e-05,0,0,0.06796,-0.025292,0,0.00035463,0,0,0,0.038447,0.0025802,0.012308,0.10895,0.017778,0.032127,1.1914e-06,0.63,0.48,0
0.024764,0.00051258,0.038479,0.0024076,0.012266,6.4339e-05,0,0,0.068155,-0.025632,0,0.00033456,0,0,0,0.03848,0.0024075,0.012266,0.10219,0.017718,0.032292,1.2015e-06,0.64,0.48,0
0.025446,0.00051915,0.038511,0.0022405,0.012225,6.0486e-05,0,0,0.068342,-0.025961,0,0.00031453,0,0,0,0.038511,0.0022404,0.012225,0.095549,0.017659,0.032451,1.2112e-06,0.65,0.48,0
0.02613,0.00052548,0.03854,0.0020791,0.012186,5.6658e-05,0,0,0.068521,-0.026277,0,0.00029462,0,0,0,0.03854,0.002079,0.012186,0.089034,0.017601,0.032604,1.2205e-06,0.66,0.48,0
0.026816,0.00053158,0.038567,0.0019234,0.012147,5.2872e-05,0,0,0.068692,-0.026582,0,0.00027493,0,0,0,0.038567,0.0019233,0.012147,0.082669,0.017546,0.032752,1.2293e-06,0.67,0.48,0
0.027504,0.00053744,0.038593,0.0017734,0.01211,4.9144e-05,0,0,0.068855,-0.026875,0,0.00025555,0,0,0,0.038593,0.0017734,0.01211,0.076475,0.017492,0.032893,1.2377e-06,0.68,0.48,0
0.028193,0.00054306,0.038616,0.0016292,0.012074,4.5492e-05,0,0,0.069011,-0.027155,0,0.00023656,0,0,0,0.038616,0.0016292,0.012074,0.070471,0.01744,0.033028,1.2457e-06,0.69,0.48,0
0.028884,0.00054845,0.038638,0.0014907,0.012039,4.193e-05,0,0,0.069158,-0.027425,0,0.00021804,0,0,0,0.038638,0.0014907,0.012039,0.064673,0.017389,0.033157,1.2533e-06,0.7,0.48,0
0.029577,0.0005536,0.038658,0.0013579,0.012005,3.8473e-05,0,0,0.069298,-0.027682,0,0.00020006,0,0,0,0.038658,0.0013579,0.012005,0.059098,0.01734,0.03328,1.2604e-06,0.71,0.48,0
0.03027,0.00055852,0.038676,0.0012308,0.011972,3.5134e-05,0,0,0.069431,-0.027928,0,0.00018269,0,0,0,0.038676,0.0012307,0.011972,0.053758,0.017293,0.033397,1.2672e-06,0.72,0.48,0
0.030965,0.00056321,0.038693,0.0011092,0.011941,3.1924e-05,0,0,0.069556,-0.028162,0,0.000166,0,0,0,0.038693,0.0011092,0.011941,0.048667,0.017248,0.033508,1.2735e-06,0.73,0.48,0
0.031662,0.00056767,0.038708,0.00099322,0.01191,2.8853e-05,0,0,0.069674,-0.028385,0,0.00015003,0,0,0,0.038708,0.0009932,0.01191,0.043833,0.017204,0.033613,1.2795e-06,0.74,0.48,0
0.032359,0.00057191,0.038722,0.0008827,0.011881,2.593e-05,0,0,0.069785,-0.028597,0,0.00013484,0,0,0,0.038722,0.00088268,0.011881,0.039264,0.017162,0.033713,1.2851e-06,0.75,0.48,0
0.033057,0.00057594,0.038734,0.00077758,0.011853,2.3164e-05,0,0,0.069889,-0.028797,0,0.00012045,0,0,0,0.038734,0.00077756,0.011853,0.034966,0.017122,0.033808,1.2903e-06,0.76,0.48,0
0.033757,0.00057974,0.038745,0.00067777,0.011827,2.0558e-05,0,0,0.069987,-0.028987,0,0.0001069,0,0,0,0.038745,0.00067776,0.011827,0.030943,0.017083,0.033897,1.2952e-06,0.77,0.48,0
0.034457,0.00058334,0.038754,0.0005832,0.011801,1.8119e-05,0,0,0.070078,-0.029167,0,9.4217e-05,0,0,0,0.038755,0.00058319,0.011801,0.027196,0.017046,0.033981,1.2997e-06,0.78,0.48,0
0.035158,0.00058674,0.038763,0.00049375,0.011777,1.5847e-05,0,0,0.070164,-0.029337,0,8.2406e-05,0,0,0,0.038763,0.00049375,0.011777,0.023726,0.017011,0.034059,1.3039e-06,0.79,0.48,0
0.03586,0.00058993,0.03877,0.00040935,0.011754,1.3746e-05,0,0,0.070243,-0.029496,0,7.1478e-05,0,0,0,0.03877,0.00040934,0.011754,0.020531,0.016978,0.034133,1.3078e-06,0.8,0.48,0
0.036563,0.00059293,0.038777,0.00032988,0.011732,1.1814e-05,0,0,0.070316,-0.029645,0,6.1434e-05,0,0,0,0.038777,0.00032988,0.011732,0.017606,0.016946,0.034202,1.3114e-06,0.81,0.48,0
0.037267,0.00059574,0.038782,0.00025525,0.011711,1.0051e-05,0,0,0.070384,-0.029785,0,5.2266e-05,0,0,0,0.038782,0.00025525,0.011711,0.014948,0.016916,0.034266,1.3148e-06,0.82,0.48,0
0.037971,0.00059836,0.038787,0.00018535,0.011692,8.454e-06,0,0,0.070447,-0.029916,0,4.3961e-05,0,0,0,0.038787,0.00018535,0.011692,0.012548,0.016888,0.034326,1.3178e-06,0.83,0.48,0
0.038676,0.0006008,0.03879,0.00012009,0.011673,7.0193e-06,0,0,0.070505,-0.030038,0,3.6501e-05,0,0,0,0.03879,0.00012008,0.011673,0.0104,0.016861,0.034382,1.3206e-06,0.84,0.48,0
0.039381,0.00060306,0.038794,5.9354e-05,0.011656,5.7424e-06,0,0,0.070558,-0.030151,0,2.986e-05,0,0,0,0.038794,5.9353e-05,0.011656,0.0084941,0.016836,0.034433,1.3232e-06,0.85,0.48,0
0.040087,0.00060516,0.038796,3.0561e-06,0.01164,4.6174e-06,0,0,0.070607,-0.030256,0,2.4011e-05,0,0,0,0.038796,3.0556e-06,0.01164,0.0068197,0.016813,0.03448,1.3255e-06,0.86,0.48,0
0.040793,0.00060709,0.038798,-4.8901e-05,0.011625,3.6379e-06,0,0,0.070651,-0.030352,0,1.8917e-05,0,0,0,0.038798,-4.8902e-05,0.011625,0.0053656,0.016791,0.034524,1.3276e-06,0.87,0.48,0
0.0415,0.00060885,0.0388,-9.6611e-05,0.011611,2.7965e-06,0,0,0.070691,-0.03044,0,1.4542e-05,0,0,0,0.0388,-9.6611e-05,0.011611,0.0041194,0.016771,0.034563,1.3295e-06,0.88,0.48,0
0.042207,0.00061046,0.038801,-0.00014016,0.011598,2.0851e-06,0,0,0.070727,-0.03052,0,1.0842e-05,0,0,0,0.038801,-0.00014016,0.011598,0.0030679,0.016753,0.034599,1.3312e-06,0.89,0.48,0
0.042914,0.00061191,0.038802,-0.00017963,0.011587,1.4948e-06,0,0,0.07076,-0.030592,0,7.7732e-06,0,0,0,0.038802,-0.00017963,0.011587,0.0021972,0.016736,0.034631,1.3327e-06,0.9,0.48,0
0.043622,0.00061322,0.038802,-0.00021509,0.011576,1.0165e-06,0,0,0.070788,-0.030657,0,5.2857e-06,0,0,0,0.038802,-0.00021509,0.011576,0.0014927,0.016721,0.03466,1.3341e-06,0.91,0.48,0
0.04433,0.00061438,0.038803,-0.00024663,0.011567,6.4014e-07,0,0,0.070814,-0.030715,0,3.3287e-06,0,0,0,0.038803,-0.00024663,0.011567,0.00093925,0.016708,0.034686,1.3353e-06,0.92,0.48,0
0.045038,0.00061539,0.038803,-0.0002743,0.011559,3.5552e-07,0,0,0.070836,-0.030766,0,1.8487e-06,0,0,0,0.038803,-0.0002743,0.011559,0.00052126,0.016696,0.034708,1.3363e-06,0.93,0.48,0
0.045747,0.00061626,0.038803,-0.00029816,0.011551,1.5194e-07,0,0,0.070854,-0.030809,0,7.9008e-07,0,0,0,0.038803,-0.00029816,0.011551,0.00022264,0.016685,0.034727,1.3372e-06,0.94,0.48,0
0.046455,0.000617,0.038803,-0.00031826,0.011546,1.8404e-08,0,0,0.07087,-0.030846,0,9.57e-08,0,0,0,0.038803,-0.00031826,0.011546,2.6954e-05,0.016677,0.034743,1.3379e-06,0.95,0.48,0
0.047164,0.00061759,0.038803,-0.00033464,0.011541,-5.6362e-08,0,0,0.070883,-0.030876,0,-2.9308e-07,0,0,0,0.038803,-0.00033464,0.011541,-8.2512e-05,0.01667,0.034757,1.3385e-06,0.96,0.48,0
0.047873,0.00061806,0.038803,-0.00034735,0.011537,-8.3857e-08,0,0,0.070893,-0.030899,0,-4.3606e-07,0,0,0,0.038803,-0.00034735,0.011537,-0.00012272,0.016664,0.034767,1.3389e-06,0.97,0.48,0
0.048582,0.00061839,0.038803,-0.00035641,0.011534,-7.5749e-08,0,0,0.0709,-0.030915,0,-3.9389e-07,0,0,0,0.038803,-0.00035641,0.011534,-0.00011083,0.01666,0.034774,1.3393e-06,0.98,0.48,0
0.049291,0.00061859,0.038803,-0.00036183,0.011532,-4.3836e-08,0,0,0.070904,-0.030925,0,-2.2795e-07,0,0,0,0.038803,-0.00036183,0.011532,-6.413e-05,0.016658,0.034778,1.3394e-06,0.99,0.48,0
0.05,0.00061865,0.038803,-0.00036364,0.011532,1.2654e-06,0,0,0.070905,-0.030928,0,6.5802e-06,0,0,0,0.038803,-0.00036364,0.011532,0.0018511,0.016657,0.03478,1.3395e-06,1,0.48,0
0,0,0.03275,0.014035,0.014035,0.00014432,0,0,0.024328,-2.7105e-20,0,0.00037522,0,0,0,0.032751,0.014034,0.014035,0.44181,0.020273,0.018716,3.367e-07,0,0.49,0
0.00024328,3.7522e-06,0.032715,0.013608,0.013897,0.0001445,0,0,0.024463,-0.00037541,0,0.00037569,0,0,0,0.032716,0.013607,0.013897,0.43328,0.020073,0.018966,3.5009e-07,0.01,0.49,0
0.00048927,7.5908e-06,0.03286,0.013248,0.013832,0.0001461,0,0,0.024736,-0.00075946,0,0.00037987,0,0,0,0.032861,0.013247,0.013832,0.42681,0.01998,0.019328,3.6968e-07,0.02,0.49,0
0.000738,1.1509e-05,0.033007,0.01288,0.013766,0.00014734,0,0,0.025013,-0.0011515,0,0.00038309,0,0,0,0.033008,0.012879,0.013766,0.41942,0.019884,0.0197,3.8998e-07,0.03,0.49,0
0.00098952,1.5499e-05,0.033154,0.012505,0.013698,0.0001482,0,0,0.025293,-0.0015507,0,0.00038531,0,0,0,0.033155,0.012504,0.013698,0.41117,0.019786,0.020081,4.1095e-07,0.04,0.49,0
0.0012439,1.9555e-05,0.033302,0.012122,0.013628,0.00014867,0,0,0.025577,-0.0019565,0,0.00038654,0,0,0,0.033304,0.012121,0.013628,0.40215,0.019684,0.020471,4.3254e-07,0.05,0.49,0
0.0015011,2.367e-05,0.033451,0.011734,0.013555,0.00014876,0,0,0.025864,-0.0023681,0,0.00038678,0,0,0,0.033452,0.011733,0.013555,0.39244,0.01958,0.020868,4.5473e-07,0.06,0.49,0
0.0017611,2.7834e-05,0.0336,0.01134,0.013482,0.00014847,0,0,0.026153,-0.0027848,0,0.00038603,0,0,0,0.033601,0.011339,0.013482,0.38213,0.019474,0.021272,4.7746e-07,0.07,0.49,0
0.0020241,3.2043e-05,0.033748,0.01094,0.013406,0.00014781,0,0,0.026444,-0.0032058,0,0.00038431,0,0,0,0.033749,0.010939,0.013406,0.37131,0.019365,0.021681,5.0067e-07,0.08,0.49,0
0.00229,3.6287e-05,0.033895,0.010537,0.013329,0.0001468,0,0,0.026735,-0.0036305,0,0.00038167,0,0,0,0.033896,0.010536,0.013329,0.36007,0.019254,0.022096,5.2432e-07,0.09,0.49,0
0.0025588,4.0561e-05,0.034041,0.01013,0.013251,0.00014544,0,0,0.027027,-0.004058,0,0.00037815,0,0,0,0.034042,0.010129,0.013251,0.34849,0.019141,0.022515,5.4836e-07,0.1,0.49,0
0.0028306,4.4858e-05,0.034185,0.0097192,0.013171,0.00014377,0,0,0.027318,-0.0044878,0,0.0003738,0,0,0,0.034186,0.0097184,0.013171,0.33666,0.019025,0.022937,5.7272e-07,0.11,0.49,0
0.0031052,4.917e-05,0.034328,0.0093063,0.01309,0.0001418,0,0,0.027609,-0.0049192,0,0.00036867,0,0,0,0.034329,0.0093055,0.01309,0.32468,0.018908,0.023362,5.9734e-07,0.12,0.49,0
0.0033827,5.3493e-05,0.034469,0.0088914,0.013008,0.00013955,0,0,0.027899,-0.0053516,0,0.00036284,0,0,0,0.034469,0.0088906,0.013008,0.3126,0.018789,0.023789,6.2218e-07,0.13,0.49,0
0.0036632,5.782e-05,0.034607,0.008475,0.012925,0.00013707,0,0,0.028187,-0.0057844,0,0.00035639,0,0,0,0.034608,0.0084743,0.012925,0.30053,0.018669,0.024217,6.4717e-07,0.14,0.49,0
0.0039465,6.2146e-05,0.034743,0.0080577,0.01284,0.00013438,0,0,0.028473,-0.0062171,0,0.00034938,0,0,0,0.034743,0.008057,0.01284,0.28851,0.018547,0.024645,6.7225e-07,0.15,0.49,0
0.0042326,6.6467e-05,0.034875,0.0076398,0.012755,0.0001315,0,0,0.028757,-0.0066492,0,0.0003419,0,0,0,0.034876,0.0076392,0.012755,0.27663,0.018423,0.025074,6.9737e-07,0.16,0.49,0
0.0045216,7.0777e-05,0.035005,0.0072218,0.012668,0.00012848,0,0,0.029038,-0.0070802,0,0.00033405,0,0,0,0.035006,0.0072212,0.012668,0.26494,0.018298,0.025501,7.2249e-07,0.17,0.49,0
0.0048134,7.5073e-05,0.035132,0.006804,0.012581,0.00012534,0,0,0.029317,-0.0075099,0,0.00032589,0,0,0,0.035133,0.0068035,0.012581,0.25351,0.018172,0.025928,7.4755e-07,0.18,0.49,0
0.005108,7.9352e-05,0.035256,0.0063869,0.012493,0.00012212,0,0,0.029592,-0.0079378,0,0.00031752,0,0,0,0.035256,0.0063863,0.012493,0.24237,0.018045,0.026353,7.7251e-07,0.19,0.49,0
0.0054052,8.361e-05,0.035376,0.0059705,0.012404,0.00011885,0,0,0.029864,-0.0083636,0,0.00030902,0,0,0,0.035377,0.00597,0.012404,0.23157,0.017917,0.026776,7.9733e-07,0.2,0.49,0
0.0057052,8.7846e-05,0.035493,0.0055553,0.012315,0.00011556,0,0,0.030132,-0.0087872,0,0.00030046,0,0,0,0.035494,0.0055548,0.012315,0.22116,0.017788,0.027197,8.2197e-07,0.21,0.49,0
0.0060079,9.2058e-05,0.035607,0.0051413,0.012225,0.00011228,0,0,0.030398,-0.0092083,0,0.00029194,0,0,0,0.035608,0.0051409,0.012225,0.21116,0.017658,0.027615,8.464e-07,0.22,0.49,0
0.0063132,9.6243e-05,0.035718,0.0047289,0.012134,0.00010904,0,0,0.030659,-0.0096267,0,0.0002835,0,0,0,0.035718,0.0047285,0.012134,0.2016,0.017527,0.028031,8.7058e-07,0.23,0.49,0
0.0066211,0.0001004,0.035826,0.0043181,0.012043,0.00010586,0,0,0.030917,-0.010042,0,0.00027523,0,0,0,0.035826,0.0043177,0.012043,0.1925,0.017396,0.028444,8.945e-07,0.24,0.49,0
0.0069315,0.00010453,0.03593,0.0039089,0.011952,0.00010276,0,0,0.031172,-0.010455,0,0.00026718,0,0,0,0.03593,0.0039086,0.011952,0.18387,0.017263,0.028853,9.1814e-07,0.25,0.49,0
0.0072445,0.00010864,0.036031,0.0035016,0.01186,9.9767e-05,0,0,0.031423,-0.010866,0,0.00025939,0,0,0,0.036031,0.0035013,0.01186,0.17572,0.017131,0.02926,9.4147e-07,0.26,0.49,0
0.00756,0.00011271,0.036129,0.0030962,0.011768,9.6893e-05,0,0,0.03167,-0.011273,0,0.00025192,0,0,0,0.03613,0.0030959,0.011768,0.16806,0.016998,0.029664,9.6449e-07,0.27,0.49,0
0.0078779,0.00011676,0.036225,0.0026926,0.011675,9.4153e-05,0,0,0.031914,-0.011678,0,0.0002448,0,0,0,0.036225,0.0026923,0.011675,0.16087,0.016864,0.030065,9.8718e-07,0.28,0.49,0
0.0081983,0.00012077,0.036318,0.0022909,0.011583,9.1555e-05,0,0,0.032156,-0.012079,0,0.00023804,0,0,0,0.036318,0.0022907,0.011583,0.15416,0.01673,0.030463,1.0095e-06,0.29,0.49,0
0.008521,0.00012477,0.036408,0.0018912,0.01149,8.9107e-05,0,0,0.032394,-0.012478,0,0.00023168,0,0,0,0.036408,0.0018909,0.01149,0.14791,0.016596,0.030859,1.0316e-06,0.3,0.49,0
0.0088462,0.00012873,0.036496,0.0014933,0.011397,8.6813e-05,0,0,0.032629,-0.012875,0,0.00022571,0,0,0,0.036496,0.0014931,0.011397,0.1421,0.016462,0.031251,1.0532e-06,0.31,0.49,0
0.0091736,0.00013267,0.036582,0.0010973,0.011304,8.467e-05,0,0,0.032862,-0.013268,0,0.00022014,0,0,0,0.036582,0.0010971,0.011304,0.13671,0.016328,0.031641,1.0746e-06,0.32,0.49,0
0.0095034,0.00013658,0.036665,0.00070328,0.011211,8.2676e-05,0,0,0.033091,-0.013659,0,0.00021496,0,0,0,0.036666,0.00070309,0.011211,0.13172,0.016193,0.032029,1.0956e-06,0.33,0.49,0
0.0098354,0.00014047,0.036747,0.00031113,0.011118,8.0825e-05,0,0,0.033319,-0.014048,0,0.00021014,0,0,0,0.036747,0.00031096,0.011118,0.1271,0.016059,0.032414,1.1162e-06,0.34,0.49,0
0.01017,0.00014434,0.036827,-7.9089e-05,0.011024,7.9105e-05,0,0,0.033544,-0.014435,0,0.00020567,0,0,0,0.036827,-7.9258e-05,0.011024,0.12281,0.015924,0.032796,1.1365e-06,0.35,0.49,0
0.010506,0.00014818,0.036906,-0.00046736,0.010931,7.7505e-05,0,0,0.033766,-0.014818,0,0.00020151,0,0,0,0.036906,-0.00046752,0.010931,0.11882,0.01579,0.033176,1.1564e-06,0.36,0.49,0
0.010845,0.00015199,0.036982,-0.00085364,0.010839,7.601e-05,0,0,0.033987,-0.0152,0,0.00019763,0,0,0,0.036982,-0.00085379,0.010839,0.1151,0.015656,0.033554,1.176e-06,0.37,0.49,0
0.011186,0.00015578,0.037058,-0.0012378,0.010746,7.4601e-05,0,0,0.034205,-0.015579,0,0.00019396,0,0,0,0.037058,-0.001238,0.010746,0.11162,0.015522,0.03393,1.1952e-06,0.38,0.49,0
0.011529,0.00015955,0.037131,-0.0016199,0.010653,7.326e-05,0,0,0.034421,-0.015955,0,0.00019048,0,0,0,0.037132,-0.00162,0.010653,0.10832,0.015388,0.034303,1.2141e-06,0.39,0.49,0
0.011874,0.00016329,0.037204,-0.0019997,0.010561,7.1966e-05,0,0,0.034635,-0.016329,0,0.00018711,0,0,0,0.037204,-0.0019998,0.010561,0.10518,0.015255,0.034674,1.2326e-06,0.4,0.49,0
0.012222,0.000167,0.037275,-0.002377,0.010469,7.0694e-05,0,0,0.034848,-0.016701,0,0.0001838,0,0,0,0.037276,-0.0023771,0.010469,0.10215,0.015123,0.035042,1.2507e-06,0.41,0.49,0
0.012571,0.00017068,0.037345,-0.0027517,0.010378,6.9422e-05,0,0,0.035057,-0.017069,0,0.0001805,0,0,0,0.037345,-0.0027519,0.010378,0.099199,0.014991,0.035408,1.2685e-06,0.42,0.49,0
0.012923,0.00017433,0.037414,-0.0031237,0.010287,6.8126e-05,0,0,0.035265,-0.017434,0,0.00017713,0,0,0,0.037414,-0.0031238,0.010287,0.096288,0.014859,0.03577,1.2858e-06,0.43,0.49,0
0.013277,0.00017796,0.037482,-0.0034926,0.010197,6.6779e-05,0,0,0.03547,-0.017796,0,0.00017363,0,0,0,0.037482,-0.0034927,0.010197,0.09338,0.014729,0.03613,1.3027e-06,0.44,0.49,0
0.013632,0.00018154,0.037547,-0.0038581,0.010107,6.5358e-05,0,0,0.035673,-0.018154,0,0.00016993,0,0,0,0.037548,-0.0038582,0.010107,0.09044,0.014599,0.036486,1.3192e-06,0.45,0.49,0
0.01399,0.00018508,0.037612,-0.00422,0.010018,6.3837e-05,0,0,0.035873,-0.018509,0,0.00016598,0,0,0,0.037612,-0.0042201,0.010018,0.087434,0.01447,0.036838,1.3352e-06,0.46,0.49,0
0.01435,0.00018859,0.037675,-0.0045778,0.0099291,6.219e-05,0,0,0.03607,-0.018859,0,0.0001617,0,0,0,0.037675,-0.0045779,0.0099291,0.084331,0.014342,0.037186,1.3508e-06,0.47,0.49,0
0.014712,0.00019204,0.037736,-0.0049314,0.0098415,6.0395e-05,0,0,0.036263,-0.019205,0,0.00015703,0,0,0,0.037736,-0.0049315,0.0098415,0.081101,0.014215,0.037529,1.3658e-06,0.48,0.49,0
0.015075,0.00019545,0.037796,-0.0052801,0.0097546,5.8427e-05,0,0,0.036453,-0.019545,0,0.00015191,0,0,0,0.037796,-0.0052802,0.0097546,0.077715,0.01409,0.037867,1.3803e-06,0.49,0.49,0
0.015441,0.00019879,0.03784,-0.00016766,0.011302,5.6465e-05,0,0,0.050725,-0.01988,0,0.00021896,0,0,0,0.03784,-0.00016775,0.011302,0.086662,0.016325,0.033836,1.2064e-06,0.5,0.49,0
0.01609,0.00020353,0.037909,0.0050631,0.012892,5.4883e-05,0,0,0.065045,-0.020354,0,0.00028539,0,0,0,0.037909,0.005063,0.012892,0.095737,0.018621,0.029715,1.0389e-06,0.51,0.49,0
0.016741,0.00020819,0.037963,0.0048304,0.012838,5.3423e-05,0,0,0.065325,-0.02082,0,0.0002778,0,0,0,0.037963,0.0048304,0.012838,0.092383,0.018544,0.029943,1.0536e-06,0.52,0.49,0
0.017396,0.00021276,0.038016,0.0046021,0.012785,5.1909e-05,0,0,0.065599,-0.021277,0,0.00026993,0,0,0,0.038016,0.004602,0.012785,0.08901,0.018468,0.030166,1.0679e-06,0.53,0.49,0
0.018054,0.00021723,0.038067,0.0043781,0.012734,5.0339e-05,0,0,0.065867,-0.021724,0,0.00026176,0,0,0,0.038067,0.004378,0.012734,0.085614,0.018393,0.030385,1.082e-06,0.54,0.49,0
0.018714,0.00022161,0.038116,0.0041587,0.012682,4.8714e-05,0,0,0.066128,-0.022162,0,0.00025331,0,0,0,0.038116,0.0041586,0.012682,0.082194,0.018319,0.0306,1.0956e-06,0.55,0.49,0
0.019376,0.00022589,0.038164,0.0039439,0.012632,4.7034e-05,0,0,0.066383,-0.02259,0,0.00024458,0,0,0,0.038164,0.0039438,0.012632,0.078751,0.018247,0.030809,1.109e-06,0.56,0.49,0
0.020041,0.00023007,0.03821,0.003734,0.012583,4.5303e-05,0,0,0.06663,-0.023008,0,0.00023558,0,0,0,0.03821,0.003734,0.012583,0.075288,0.018176,0.031014,1.122e-06,0.57,0.49,0
0.020709,0.00023415,0.038255,0.0035291,0.012535,4.3524e-05,0,0,0.066871,-0.023416,0,0.00022633,0,0,0,0.038255,0.003529,0.012535,0.071813,0.018106,0.031213,1.1346e-06,0.58,0.49,0
0.021379,0.00023812,0.038297,0.0033293,0.012488,4.1703e-05,0,0,0.067104,-0.023813,0,0.00021685,0,0,0,0.038297,0.0033292,0.012488,0.068331,0.018038,0.031407,1.1468e-06,0.59,0.49,0
0.022051,0.00024198,0.038338,0.0031347,0.012442,3.9845e-05,0,0,0.06733,-0.024199,0,0.00020719,0,0,0,0.038338,0.0031346,0.012442,0.06485,0.017972,0.031595,1.1586e-06,0.6,0.49,0
0.022725,0.00024572,0.038377,0.0029454,0.012397,3.7957e-05,0,0,0.067549,-0.024573,0,0.00019738,0,0,0,0.038377,0.0029453,0.012397,0.06138,0.017906,0.031778,1.17e-06,0.61,0.49,0
0.023402,0.00024936,0.038414,0.0027615,0.012353,3.6048e-05,0,0,0.067759,-0.024937,0,0.00018745,0,0,0,0.038414,0.0027615,0.012353,0.057932,0.017843,0.031955,1.181e-06,0.62,0.49,0
0.02408,0.00025288,0.038449,0.0025832,0.01231,3.4125e-05,0,0,0.067962,-0.025289,0,0.00017745,0,0,0,0.038449,0.0025832,0.01231,0.054515,0.017781,0.032127,1.1915e-06,0.63,0.49,0
0.024761,0.00025628,0.038482,0.0024105,0.012268,3.2197e-05,0,0,0.068157,-0.025629,0,0.00016743,0,0,0,0.038482,0.0024104,0.012268,0.051142,0.01772,0.032292,1.2017e-06,0.64,0.49,0
0.025444,0.00025957,0.038513,0.0022433,0.012227,3.0273e-05,0,0,0.068345,-0.025958,0,0.00015742,0,0,0,0.038513,0.0022433,0.012227,0.047822,0.017661,0.032451,1.2114e-06,0.65,0.49,0
0.026128,0.00026273,0.038543,0.0020819,0.012187,2.836e-05,0,0,0.068524,-0.026274,0,0.00014747,0,0,0,0.038543,0.0020819,0.012187,0.044566,0.017604,0.032605,1.2206e-06,0.66,0.49,0
0.026814,0.00026578,0.03857,0.0019262,0.012149,2.6469e-05,0,0,0.068695,-0.026579,0,0.00013764,0,0,0,0.03857,0.0019262,0.012149,0.041386,0.017548,0.032752,1.2295e-06,0.67,0.49,0
0.027502,0.00026871,0.038596,0.0017762,0.012112,2.4606e-05,0,0,0.068859,-0.026872,0,0.00012795,0,0,0,0.038596,0.0017762,0.012112,0.038291,0.017494,0.032893,1.2379e-06,0.68,0.49,0
0.028191,0.00027152,0.038619,0.0016319,0.012075,2.2782e-05,0,0,0.069014,-0.027153,0,0.00011846,0,0,0,0.038619,0.0016319,0.012075,0.03529,0.017442,0.033028,1.2459e-06,0.69,0.49,0
0.028882,0.00027422,0.038641,0.0014934,0.01204,2.1002e-05,0,0,0.069162,-0.027422,0,0.00010921,0,0,0,0.038641,0.0014933,0.01204,0.032392,0.017392,0.033157,1.2535e-06,0.7,0.49,0
0.029574,0.00027679,0.038661,0.0013605,0.012007,1.9274e-05,0,0,0.069303,-0.02768,0,0.00010022,0,0,0,0.038661,0.0013605,0.012007,0.029606,0.017343,0.03328,1.2606e-06,0.71,0.49,0
0.030268,0.00027925,0.03868,0.0012332,0.011974,1.7605e-05,0,0,0.069435,-0.027926,0,9.1545e-05,0,0,0,0.03868,0.0012332,0.011974,0.026936,0.017296,0.033398,1.2674e-06,0.72,0.49,0
0.030963,0.0002816,0.038697,0.0011116,0.011942,1.6e-05,0,0,0.069561,-0.02816,0,8.3201e-05,0,0,0,0.038697,0.0011116,0.011942,0.024391,0.01725,0.033509,1.2738e-06,0.73,0.49,0
0.031659,0.00028383,0.038712,0.00099547,0.011912,1.4465e-05,0,0,0.069679,-0.028383,0,7.5218e-05,0,0,0,0.038712,0.00099546,0.011912,0.021974,0.017206,0.033615,1.2798e-06,0.74,0.49,0
0.032357,0.00028595,0.038726,0.00088483,0.011883,1.3004e-05,0,0,0.069791,-0.028596,0,6.7619e-05,0,0,0,0.038726,0.00088483,0.011883,0.019689,0.017165,0.033715,1.2854e-06,0.75,0.49,0
0.033055,0.00028797,0.038738,0.00077959,0.011855,1.162e-05,0,0,0.069895,-0.028797,0,6.0424e-05,0,0,0,0.038738,0.00077959,0.011855,0.01754,0.017124,0.03381,1.2906e-06,0.76,0.49,0
0.033755,0.00028987,0.038749,0.00067966,0.011829,1.0317e-05,0,0,0.069993,-0.028987,0,5.3648e-05,0,0,0,0.038749,0.00067966,0.011829,0.015527,0.017086,0.033899,1.2955e-06,0.77,0.49,0
0.034455,0.00029167,0.038759,0.00058496,0.011803,9.0964e-06,0,0,0.070085,-0.029167,0,4.7301e-05,0,0,0,0.038759,0.00058496,0.011803,0.013653,0.017049,0.033983,1.3001e-06,0.78,0.49,0
0.035156,0.00029337,0.038767,0.00049539,0.011779,7.9599e-06,0,0,0.07017,-0.029337,0,4.1391e-05,0,0,0,0.038767,0.00049539,0.011779,0.011917,0.017014,0.034062,1.3043e-06,0.79,0.49,0
0.035858,0.00029497,0.038775,0.00041086,0.011756,6.9081e-06,0,0,0.07025,-0.029496,0,3.5922e-05,0,0,0,0.038775,0.00041086,0.011756,0.010317,0.01698,0.034136,1.3082e-06,0.8,0.49,0
0.036561,0.00029647,0.038781,0.00033127,0.011734,5.9411e-06,0,0,0.070323,-0.029646,0,3.0894e-05,0,0,0,0.038781,0.00033126,0.011734,0.0088531,0.016949,0.034205,1.3118e-06,0.81,0.49,0
0.037265,0.00029787,0.038787,0.00025651,0.011713,5.0583e-06,0,0,0.070392,-0.029787,0,2.6303e-05,0,0,0,0.038787,0.00025651,0.011713,0.0075218,0.016919,0.03427,1.3152e-06,0.82,0.49,0
0.037969,0.00029918,0.038791,0.00018649,0.011693,4.2583e-06,0,0,0.070455,-0.029918,0,2.2143e-05,0,0,0,0.038791,0.00018648,0.011693,0.00632,0.01689,0.03433,1.3183e-06,0.83,0.49,0
0.038674,0.00030041,0.038795,0.0001211,0.011675,3.5395e-06,0,0,0.070513,-0.03004,0,1.8405e-05,0,0,0,0.038795,0.0001211,0.011675,0.0052437,0.016864,0.034385,1.3211e-06,0.84,0.49,0
0.039379,0.00030154,0.038798,6.0252e-05,0.011658,2.8994e-06,0,0,0.070566,-0.030153,0,1.5077e-05,0,0,0,0.038798,6.0252e-05,0.011658,0.0042883,0.016839,0.034437,1.3236e-06,0.85,0.49,0
0.040085,0.00030259,0.038801,3.8426e-06,0.011642,2.3352e-06,0,0,0.070615,-0.030258,0,1.2143e-05,0,0,0,0.038801,3.8424e-06,0.011642,0.0034486,0.016816,0.034484,1.326e-06,0.86,0.49,0
0.040792,0.00030355,0.038803,-4.8222e-05,0.011626,1.8437e-06,0,0,0.07066,-0.030354,0,9.5874e-06,0,0,0,0.038803,-4.8222e-05,0.011626,0.002719,0.016794,0.034528,1.3281e-06,0.87,0.49,0
0.041499,0.00030444,0.038805,-9.6031e-05,0.011613,1.4212e-06,0,0,0.0707,-0.030443,0,7.3903e-06,0,0,0,0.038805,-9.6031e-05,0.011613,0.0020933,0.016774,0.034567,1.33e-06,0.88,0.49,0
0.042206,0.00030524,0.038806,-0.00013967,0.0116,1.0637e-06,0,0,0.070736,-0.030523,0,5.531e-06,0,0,0,0.038806,-0.00013967,0.0116,0.0015648,0.016755,0.034603,1.3317e-06,0.89,0.49,0
0.042913,0.00030597,0.038807,-0.00017923,0.011588,7.6667e-07,0,0,0.070769,-0.030596,0,3.9867e-06,0,0,0,0.038807,-0.00017923,0.011588,0.0011267,0.016739,0.034636,1.3333e-06,0.9,0.49,0
0.043621,0.00030662,0.038808,-0.00021478,0.011578,5.256e-07,0,0,0.070798,-0.030661,0,2.7331e-06,0,0,0,0.038808,-0.00021478,0.011578,0.00077173,0.016724,0.034665,1.3346e-06,0.91,0.49,0
0.044329,0.0003072,0.038808,-0.00024638,0.011569,3.3552e-07,0,0,0.070823,-0.030719,0,1.7447e-06,0,0,0,0.038808,-0.00024638,0.011569,0.00049223,0.01671,0.03469,1.3358e-06,0.92,0.49,0
0.045038,0.00030771,0.038808,-0.00027412,0.01156,1.9129e-07,0,0,0.070845,-0.03077,0,9.9469e-07,0,0,0,0.038808,-0.00027412,0.01156,0.00028043,0.016698,0.034713,1.3368e-06,0.93,0.49,0
0.045746,0.00030815,0.038809,-0.00029803,0.011553,8.757e-08,0,0,0.070864,-0.030813,0,4.5537e-07,0,0,0,0.038809,-0.00029803,0.011553,0.0001283,0.016688,0.034732,1.3377e-06,0.94,0.49,0
0.046455,0.00030851,0.038809,-0.00031818,0.011547,1.8872e-08,0,0,0.07088,-0.03085,0,9.8133e-08,0,0,0,0.038809,-0.00031818,0.011547,2.7635e-05,0.016679,0.034748,1.3385e-06,0.95,0.49,0
0.047164,0.00030881,0.038809,-0.00033461,0.011542,-2.0445e-08,0,0,0.070893,-0.03088,0,-1.0631e-07,0,0,0,0.038809,-0.00033461,0.011542,-2.9926e-05,0.016672,0.034761,1.339e-06,0.96,0.49,0
0.047873,0.00030904,0.038809,-0.00034735,0.011538,-3.6127e-08,0,0,0.070903,-0.030903,0,-1.8786e-07,0,0,0,0.038809,-0.00034735,0.011538,-5.2863e-05,0.016667,0.034772,1.3395e-06,0.97,0.49,0
0.048582,0.00030921,0.038809,-0.00035643,0.011536,-3.4007e-08,0,0,0.07091,-0.030919,0,-1.7684e-07,0,0,0,0.038809,-0.00035643,0.011536,-4.975e-05,0.016663,0.034779,1.3398e-06,0.98,0.49,0
0.049291,0.00030931,0.038809,-0.00036187,0.011534,-1.9984e-08,0,0,0.070914,-0.030929,0,-1.0392e-07,0,0,0,0.038809,-0.00036187,0.011534,-2.9232e-05,0.01666,0.034783,1.34e-06,0.99,0.49,0
0.05,0.00030934,0.038809,-0.00036368,0.011534,6.3338e-07,0,0,0.070915,-0.030933,0,3.2936e-06,0,0,0,0.038809,-0.00036368,0.011534,0.00092642,0.01666,0.034785,1.3401e-06,1,0.49,0
0,0,0.032747,0.014034,0.014034,-2.2633e-17,0,0,0.024326,0,0,-5.8926e-17,0,0,0,0.032747,0.014034,0.014034,-6.9299e-14,0.020272,0.018712,3.3653e-07,0,0.5,0
0.00024326,-5.872e-19,0.032712,0.013607,0.013896,-2.3649e-17,0,0,0.024461,-0.00037522,0,-6.142e-17,0,0,0,0.032712,0.013607,0.013896,-7.0924e-14,0.020072,0.018962,3.4991e-07,0.01,0.5,0
0.00048923,-1.1853e-18,0.032857,0.013248,0.013832,-2.2084e-17,0,0,0.024734,-0.00075908,0,-5.7436e-17,0,0,0,0.032857,0.013248,0.013832,-6.4525e-14,0.019979,0.019324,3.6949e-07,0.02,0.5,0
0.00073794,-1.9215e-18,0.033004,0.01288,0.013765,-3.2336e-17,0,0,0.02501,-0.0011509,0,-8.408e-17,0,0,0,0.033004,0.01288,0.013765,-9.2066e-14,0.019883,0.019696,3.8977e-07,0.03,0.5,0
0.00098943,-2.9695e-18,0.033151,0.012504,0.013697,-1.8021e-17,0,0,0.025291,-0.00155,0,-4.681e-17,0,0,0,0.033151,0.012504,0.013697,-5.001e-14,0.019784,0.020077,4.1072e-07,0.04,0.5,0
0.0012438,-3.5291e-18,0.0333,0.012122,0.013627,-2.3588e-17,0,0,0.025575,-0.0019555,0,-6.142e-17,0,0,0,0.0333,0.012122,0.013627,-6.3818e-14,0.019683,0.020467,4.3231e-07,0.05,0.5,0
0.0015009,-4.359e-18,0.033448,0.011734,0.013555,-2.8901e-17,0,0,0.025862,-0.002367,0,-7.4932e-17,0,0,0,0.033448,0.011734,0.013555,-7.6258e-14,0.019579,0.020864,4.5448e-07,0.06,0.5,0
0.001761,-5.2371e-18,0.033597,0.01134,0.013481,-2.617e-17,0,0,0.02615,-0.0027834,0,-6.8115e-17,0,0,0,0.033597,0.01134,0.013481,-6.7369e-14,0.019473,0.021267,4.7719e-07,0.07,0.5,0
0.0020239,-6.5423e-18,0.033745,0.010941,0.013406,-3.6602e-17,0,0,0.026441,-0.0032043,0,-9.5112e-17,0,0,0,0.033745,0.010941,0.013406,-9.1964e-14,0.019364,0.021677,5.0039e-07,0.08,0.5,0
0.0022898,-7.2924e-18,0.033892,0.010537,0.013329,-2.0342e-17,0,0,0.026732,-0.0036287,0,-5.3011e-17,0,0,0,0.033892,0.010537,0.013329,-4.9906e-14,0.019253,0.022091,5.2404e-07,0.09,0.5,0
0.0025586,-8.2546e-18,0.034038,0.01013,0.01325,-2.1982e-17,0,0,0.027024,-0.0040561,0,-5.7151e-17,0,0,0,0.034038,0.01013,0.01325,-5.2682e-14,0.01914,0.02251,5.4806e-07,0.1,0.5,0
0.0028303,-9.6005e-18,0.034182,0.0097201,0.013171,-1.9055e-17,0,0,0.027315,-0.0044858,0,-4.9494e-17,0,0,0,0.034182,0.0097201,0.013171,-4.4631e-14,0.019024,0.022932,5.7241e-07,0.11,0.5,0
0.0031049,-1.0401e-17,0.034325,0.0093074,0.01309,-2.4622e-17,0,0,0.027606,-0.004917,0,-6.4124e-17,0,0,0,0.034325,0.0093074,0.01309,-5.6389e-14,0.018907,0.023357,5.9703e-07,0.12,0.5,0
0.0033824,-1.1539e-17,0.034466,0.0088926,0.013007,-2.3395e-17,0,0,0.027896,-0.0053493,0,-6.0844e-17,0,0,0,0.034466,0.0088926,0.013007,-5.2416e-14,0.018788,0.023784,6.2186e-07,0.13,0.5,0
0.0036628,-1.2729e-17,0.034604,0.0084763,0.012924,-2.9968e-17,0,0,0.028184,-0.005782,0,-7.79e-17,0,0,0,0.034604,0.0084763,0.012924,-6.5718e-14,0.018668,0.024212,6.4684e-07,0.14,0.5,0
0.0039461,-1.4638e-17,0.034739,0.0080591,0.01284,-2.145e-17,0,0,0.02847,-0.0062146,0,-5.5782e-17,0,0,0,0.034739,0.0080591,0.01284,-4.6064e-14,0.018546,0.02464,6.7192e-07,0.15,0.5,0
0.0042322,-1.5854e-17,0.034872,0.0076413,0.012754,-2.2426e-17,0,0,0.028754,-0.0066467,0,-5.8303e-17,0,0,0,0.034872,0.0076413,0.012754,-4.7186e-14,0.018423,0.025069,6.9704e-07,0.16,0.5,0
0.0045211,-1.718e-17,0.035002,0.0072233,0.012668,-1.7059e-17,0,0,0.029035,-0.0070777,0,-4.4418e-17,0,0,0,0.035002,0.0072233,0.012668,-3.5186e-14,0.018298,0.025497,7.2216e-07,0.17,0.5,0
0.0048129,-1.7611e-17,0.035129,0.0068056,0.01258,-4.4466e-17,0,0,0.029313,-0.0075073,0,-1.1553e-16,0,0,0,0.035129,0.0068056,0.01258,-8.995e-14,0.018172,0.025923,7.4722e-07,0.18,0.5,0
0.0051074,-1.8817e-17,0.035253,0.0063885,0.012493,-2.8633e-17,0,0,0.029589,-0.0079352,0,-7.4458e-17,0,0,0,0.035253,0.0063885,0.012493,-5.6836e-14,0.018045,0.026348,7.7219e-07,0.19,0.5,0
0.0054047,-2.0368e-17,0.035374,0.0059722,0.012404,-2.5987e-17,0,0,0.029861,-0.008361,0,-6.7573e-17,0,0,0,0.035374,0.0059722,0.012404,-5.0642e-14,0.017916,0.026772,7.9701e-07,0.2,0.5,0
0.0057046,-2.2286e-17,0.035491,0.0055569,0.012314,-3.9309e-17,0,0,0.03013,-0.0087846,0,-1.0221e-16,0,0,0,0.035491,0.0055569,0.012314,-7.5241e-14,0.017787,0.027192,8.2166e-07,0.21,0.5,0
0.0060073,-2.3471e-17,0.035605,0.005143,0.012224,4.9619e-18,0,0,0.030395,-0.0092058,0,1.2855e-17,0,0,0,0.035605,0.005143,0.012224,9.3329e-15,0.017657,0.027611,8.4609e-07,0.22,0.5,0
0.0063125,-2.5282e-17,0.035716,0.0047305,0.012134,-3.2037e-17,0,0,0.030656,-0.0096243,0,-8.3213e-17,0,0,0,0.035716,0.0047305,0.012134,-5.924e-14,0.017527,0.028027,8.7029e-07,0.23,0.5,0
0.0066204,-2.5566e-17,0.035823,0.0043196,0.012043,-3.5204e-17,0,0,0.030914,-0.01004,0,-9.1595e-17,0,0,0,0.035823,0.0043196,0.012043,-6.4027e-14,0.017395,0.02844,8.9422e-07,0.24,0.5,0
0.0069308,-2.7317e-17,0.035928,0.0039105,0.011951,-1.3315e-17,0,0,0.031169,-0.010453,0,-3.4715e-17,0,0,0,0.035928,0.0039105,0.011951,-2.3828e-14,0.017263,0.02885,9.1787e-07,0.25,0.5,0
0.0072438,-2.8982e-17,0.036029,0.0035031,0.01186,-8.0316e-18,0,0,0.03142,-0.010863,0,-2.079e-17,0,0,0,0.036029,0.0035031,0.01186,-1.4148e-14,0.017131,0.029257,9.4122e-07,0.26,0.5,0
0.0075592,-3.057e-17,0.036127,0.0030976,0.011768,-2.2063e-17,0,0,0.031668,-0.011271,0,-5.7375e-17,0,0,0,0.036127,0.0030976,0.011768,-3.8273e-14,0.016997,0.029661,9.6425e-07,0.27,0.5,0
0.0078771,-3.2151e-17,0.036223,0.0026939,0.011675,-4.8227e-17,0,0,0.031913,-0.011676,0,-1.254e-16,0,0,0,0.036223,0.0026939,0.011675,-8.2411e-14,0.016864,0.030062,9.8696e-07,0.28,0.5,0
0.0081975,-3.4706e-17,0.036316,0.0022922,0.011583,-6.2477e-18,0,0,0.032154,-0.012077,0,-1.6222e-17,0,0,0,0.036316,0.0022922,0.011583,-1.0521e-14,0.01673,0.030461,1.0093e-06,0.29,0.5,0
0.0085202,-3.6367e-17,0.036407,0.0018923,0.01149,-4.4446e-17,0,0,0.032392,-0.012477,0,-1.1562e-16,0,0,0,0.036407,0.0018923,0.01149,-7.3782e-14,0.016596,0.030856,1.0314e-06,0.3,0.5,0
0.0088453,-3.8167e-17,0.036495,0.0014944,0.011397,-6.4341e-18,0,0,0.032627,-0.012873,0,-1.6744e-17,0,0,0,0.036495,0.0014944,0.011397,-1.0533e-14,0.016462,0.031249,1.0531e-06,0.31,0.5,0
0.0091728,-3.994e-17,0.036581,0.0010984,0.011304,-6.9375e-17,0,0,0.03286,-0.013267,0,-1.8038e-16,0,0,0,0.036581,0.0010984,0.011304,-1.1202e-13,0.016328,0.031639,1.0744e-06,0.32,0.5,0
0.0095025,-4.1751e-17,0.036665,0.00070424,0.011211,-6.1183e-17,0,0,0.03309,-0.013658,0,-1.5909e-16,0,0,0,0.036665,0.00070424,0.011211,-9.7483e-14,0.016193,0.032027,1.0954e-06,0.33,0.5,0
0.0098345,-4.3358e-17,0.036746,0.00031202,0.011118,-1.3166e-17,0,0,0.033317,-0.014047,0,-3.4179e-17,0,0,0,0.036746,0.00031202,0.011118,-2.0705e-14,0.016059,0.032412,1.1161e-06,0.34,0.5,0
0.010169,-4.4391e-17,0.036826,-7.8263e-05,0.011024,2.3453e-17,0,0,0.033543,-0.014434,0,6.0939e-17,0,0,0,0.036826,-7.8263e-05,0.011024,3.6411e-14,0.015924,0.032795,1.1364e-06,0.35,0.5,0
0.010505,-4.5657e-17,0.036905,-0.00046659,0.010932,2.0973e-17,0,0,0.033765,-0.014818,0,5.4562e-17,0,0,0,0.036905,-0.00046659,0.010932,3.2154e-14,0.01579,0.033175,1.1563e-06,0.36,0.5,0
0.010844,-4.8028e-17,0.036982,-0.00085291,0.010839,-3.5935e-17,0,0,0.033986,-0.015199,0,-9.3438e-17,0,0,0,0.036982,-0.00085291,0.010839,-5.4418e-14,0.015656,0.033553,1.1759e-06,0.37,0.5,0
0.011185,-4.9552e-17,0.037057,-0.0012372,0.010746,-6.7593e-18,0,0,0.034205,-0.015578,0,-1.7605e-17,0,0,0,0.037057,-0.0012372,0.010746,-1.0113e-14,0.015522,0.033929,1.1952e-06,0.38,0.5,0
0.011528,-5.1035e-17,0.037131,-0.0016192,0.010654,-3.3451e-17,0,0,0.034421,-0.015955,0,-8.6973e-17,0,0,0,0.037131,-0.0016192,0.010654,-4.946e-14,0.015388,0.034302,1.2141e-06,0.39,0.5,0
0.011874,-5.2756e-17,0.037204,-0.001999,0.010561,1.0435e-18,0,0,0.034635,-0.016329,0,2.7241e-18,0,0,0,0.037204,-0.001999,0.010561,1.5252e-15,0.015255,0.034673,1.2326e-06,0.4,0.5,0
0.012221,-5.5458e-17,0.037275,-0.0023764,0.01047,-1.0493e-16,0,0,0.034847,-0.0167,0,-2.7282e-16,0,0,0,0.037275,-0.0023764,0.01047,-1.5162e-13,0.015123,0.035042,1.2507e-06,0.41,0.5,0
0.012571,-5.6991e-17,0.037345,-0.0027511,0.010378,-4.5167e-17,0,0,0.035057,-0.017068,0,-1.1749e-16,0,0,0,0.037345,-0.0027511,0.010378,-6.4541e-14,0.014991,0.035407,1.2684e-06,0.42,0.5,0
0.012922,-5.8808e-17,0.037414,-0.003123,0.010287,-4.6614e-17,0,0,0.035265,-0.017434,0,-1.2117e-16,0,0,0,0.037414,-0.003123,0.010287,-6.5884e-14,0.01486,0.03577,1.2858e-06,0.43,0.5,0
0.013276,-6.0498e-17,0.037482,-0.0034919,0.010197,6.9013e-17,0,0,0.03547,-0.017795,0,1.7942e-16,0,0,0,0.037482,-0.0034919,0.010197,9.6505e-14,0.014729,0.03613,1.3027e-06,0.44,0.5,0
0.013631,-6.2153e-17,0.037548,-0.0038573,0.010107,3.2391e-18,0,0,0.035673,-0.018154,0,8.45e-18,0,0,0,0.037548,-0.0038573,0.010107,4.4821e-15,0.014599,0.036486,1.3192e-06,0.45,0.5,0
0.013989,-6.3471e-17,0.037613,-0.0042192,0.010018,-1.2055e-16,0,0,0.035873,-0.018508,0,-3.135e-16,0,0,0,0.037613,-0.0042192,0.010018,-1.6512e-13,0.01447,0.036838,1.3352e-06,0.46,0.5,0
0.014349,-6.563e-17,0.037676,-0.004577,0.0099296,4.8696e-17,0,0,0.03607,-0.018859,0,1.2666e-16,0,0,0,0.037676,-0.004577,0.0099296,6.6033e-14,0.014343,0.037186,1.3508e-06,0.47,0.5,0
0.014711,-6.6997e-17,0.037737,-0.0049304,0.0098419,-6.7593e-18,0,0,0.036263,-0.019204,0,-1.7584e-17,0,0,0,0.037737,-0.0049304,0.0098419,-9.0768e-15,0.014216,0.037529,1.3658e-06,0.48,0.5,0
0.015074,-6.9236e-17,0.037796,-0.0052791,0.0097551,5.997e-18,0,0,0.036453,-0.019544,0,1.5599e-17,0,0,0,0.037796,-0.0052791,0.0097551,7.9768e-15,0.014091,0.037867,1.3803e-06,0.49,0.5,0
0.01544,-7.1054e-17,0.03784,-0.00016675,0.011302,-9.3748e-17,0,0,0.050726,-0.019879,0,-3.8386e-16,0,0,0,0.03784,-0.00016675,0.011302,-1.473e-13,0.016325,0.033835,1.2064e-06,0.5,0.5,0
0.016089,-7.3565e-17,0.03791,0.0050638,0.012892,-4.7849e-17,0,0,0.065046,-0.020353,0,-2.488e-16,0,0,0,0.03791,0.0050638,0.012892,-8.3467e-14,0.018622,0.029715,1.0389e-06,0.51,0.5,0
0.016741,-7.6476e-17,0.037964,0.0048312,0.012838,-2.1532e-17,0,0,0.065326,-0.020819,0,-1.1202e-16,0,0,0,0.037964,0.0048312,0.012838,-3.7234e-14,0.018544,0.029943,1.0536e-06,0.52,0.5,0
0.017395,-7.89e-17,0.038016,0.0046028,0.012786,3.379e-17,0,0,0.0656,-0.021276,0,1.757e-16,0,0,0,0.038016,0.0046028,0.012786,5.7941e-14,0.018468,0.030166,1.0679e-06,0.53,0.5,0
0.018053,-8.0907e-17,0.038067,0.0043789,0.012734,-4.7851e-17,0,0,0.065867,-0.021723,0,-2.4879e-16,0,0,0,0.038067,0.0043789,0.012734,-8.1382e-14,0.018393,0.030385,1.082e-06,0.54,0.5,0
0.018713,-8.3689e-17,0.038117,0.0041595,0.012683,-4.9075e-17,0,0,0.066129,-0.022161,0,-2.553e-16,0,0,0,0.038117,0.0041595,0.012683,-8.2804e-14,0.01832,0.0306,1.0957e-06,0.55,0.5,0
0.019375,-8.6132e-17,0.038165,0.0039448,0.012633,-5.7278e-17,0,0,0.066383,-0.022589,0,-2.9788e-16,0,0,0,0.038165,0.0039448,0.012633,-9.5902e-14,0.018247,0.030809,1.109e-06,0.56,0.5,0
0.02004,-8.3982e-17,0.038211,0.0037349,0.012584,-2.1347e-17,0,0,0.066631,-0.023007,0,-1.1102e-16,0,0,0,0.038211,0.0037349,0.012584,-3.5476e-14,0.018177,0.031013,1.122e-06,0.57,0.5,0
0.020708,-8.695e-17,0.038255,0.00353,0.012536,-1.2113e-17,0,0,0.066872,-0.023415,0,-6.2952e-17,0,0,0,0.038255,0.00353,0.012536,-1.9985e-14,0.018107,0.031213,1.1346e-06,0.58,0.5,0
0.021378,-8.9588e-17,0.038298,0.0033302,0.012488,-2.9548e-17,0,0,0.067105,-0.023812,0,-1.5367e-16,0,0,0,0.038298,0.0033302,0.012488,-4.8415e-14,0.018039,0.031407,1.1468e-06,0.59,0.5,0
0.02205,-9.2679e-17,0.038339,0.0031356,0.012442,-5.442e-17,0,0,0.067331,-0.024198,0,-2.8298e-16,0,0,0,0.038339,0.0031356,0.012442,-8.8573e-14,0.017972,0.031595,1.1586e-06,0.6,0.5,0
0.022724,-9.5832e-17,0.038378,0.0029463,0.012397,-3.4498e-17,0,0,0.067549,-0.024572,0,-1.794e-16,0,0,0,0.038378,0.0029463,0.012397,-5.5786e-14,0.017907,0.031778,1.17e-06,0.61,0.5,0
0.023401,-9.8056e-17,0.038415,0.0027625,0.012353,-2.1351e-17,0,0,0.06776,-0.024936,0,-1.1102e-16,0,0,0,0.038415,0.0027625,0.012353,-3.4313e-14,0.017844,0.031955,1.181e-06,0.62,0.5,0
0.02408,-1.0091e-16,0.03845,0.0025842,0.01231,7.8147e-18,0,0,0.067963,-0.025288,0,4.0644e-17,0,0,0,0.03845,0.0025842,0.01231,1.2484e-14,0.017781,0.032127,1.1916e-06,0.63,0.5,0
0.02476,-1.0332e-16,0.038483,0.0024114,0.012268,-3.8406e-17,0,0,0.068158,-0.025628,0,-1.997e-16,0,0,0,0.038483,0.0024114,0.012268,-6.1004e-14,0.017721,0.032292,1.2017e-06,0.64,0.5,0
0.025443,-1.0666e-16,0.038514,0.0022443,0.012228,-5.5855e-17,0,0,0.068346,-0.025957,0,-2.9043e-16,0,0,0,0.038514,0.0022443,0.012228,-8.8234e-14,0.017662,0.032451,1.2114e-06,0.65,0.5,0
0.026127,-1.0953e-16,0.038544,0.0020829,0.012188,-4.9092e-17,0,0,0.068525,-0.026273,0,-2.5524e-16,0,0,0,0.038544,0.0020829,0.012188,-7.7144e-14,0.017605,0.032605,1.2207e-06,0.66,0.5,0
0.026813,-1.1151e-16,0.038571,0.0019271,0.01215,6.5769e-17,0,0,0.068696,-0.026578,0,3.4199e-16,0,0,0,0.038571,0.0019271,0.01215,1.0283e-13,0.017549,0.032752,1.2295e-06,0.67,0.5,0
0.027501,-1.1357e-16,0.038597,0.0017771,0.012112,-1.9917e-17,0,0,0.06886,-0.026871,0,-1.036e-16,0,0,0,0.038597,0.0017771,0.012112,-3.0993e-14,0.017495,0.032893,1.238e-06,0.68,0.5,0
0.02819,-1.2168e-16,0.03862,0.0016328,0.012076,-7.3298e-17,0,0,0.069016,-0.027152,0,-3.8115e-16,0,0,0,0.03862,0.0016328,0.012076,-1.1354e-13,0.017443,0.033028,1.246e-06,0.69,0.5,0
0.028881,-1.2384e-16,0.038642,0.0014942,0.012041,1.9534e-17,0,0,0.069164,-0.027422,0,1.0162e-16,0,0,0,0.038642,0.0014942,0.012041,3.0129e-14,0.017393,0.033158,1.2536e-06,0.7,0.5,0
0.029574,-1.2527e-16,0.038663,0.0013613,0.012007,-4.3745e-17,0,0,0.069304,-0.027679,0,-2.2746e-16,0,0,0,0.038663,0.0013613,0.012007,-6.7194e-14,0.017344,0.033281,1.2607e-06,0.71,0.5,0
0.030267,-1.2781e-16,0.038681,0.001234,0.011975,-1.3801e-16,0,0,0.069437,-0.027925,0,-7.1766e-16,0,0,0,0.038681,0.001234,0.011975,-2.1116e-13,0.017296,0.033398,1.2675e-06,0.72,0.5,0
0.030962,-1.3064e-16,0.038698,0.0011124,0.011943,8.8625e-18,0,0,0.069562,-0.02816,0,4.6089e-17,0,0,0,0.038698,0.0011124,0.011943,1.351e-14,0.017251,0.03351,1.2739e-06,0.73,0.5,0
0.031659,-1.3229e-16,0.038713,0.00099622,0.011913,-7.434e-17,0,0,0.069681,-0.028383,0,-3.866e-16,0,0,0,0.038713,0.00099622,0.011913,-1.1293e-13,0.017207,0.033615,1.2798e-06,0.74,0.5,0
0.032356,-1.3534e-16,0.038727,0.00088554,0.011884,1.4203e-17,0,0,0.069792,-0.028595,0,7.3861e-17,0,0,0,0.038727,0.00088554,0.011884,2.1504e-14,0.017165,0.033716,1.2855e-06,0.75,0.5,0
0.033055,-1.3855e-16,0.038739,0.00078026,0.011856,7.816e-18,0,0,0.069897,-0.028797,0,4.0641e-17,0,0,0,0.038739,0.00078026,0.011856,1.1797e-14,0.017125,0.03381,1.2907e-06,0.76,0.5,0
0.033754,-1.3991e-16,0.03875,0.0006803,0.011829,-6.5098e-17,0,0,0.069995,-0.028987,0,-3.3849e-16,0,0,0,0.03875,0.0006803,0.011829,-9.7974e-14,0.017087,0.0339,1.2956e-06,0.77,0.5,0
0.034454,-1.4373e-16,0.03876,0.00058555,0.011804,5.3388e-18,0,0,0.070087,-0.029167,0,2.7752e-17,0,0,0,0.03876,0.00058555,0.011804,8.013e-15,0.01705,0.033984,1.3002e-06,0.78,0.5,0
0.035156,-1.4522e-16,0.038769,0.00049594,0.011779,-4.9084e-17,0,0,0.070172,-0.029337,0,-2.5523e-16,0,0,0,0.038769,0.00049594,0.011779,-7.3481e-14,0.017015,0.034063,1.3044e-06,0.79,0.5,0
0.035858,-1.4655e-16,0.038776,0.00041136,0.011756,5.0517e-17,0,0,0.070252,-0.029497,0,2.6268e-16,0,0,0,0.038776,0.00041136,0.011756,7.5444e-14,0.016981,0.034137,1.3083e-06,0.8,0.5,0
0.036561,-1.5073e-16,0.038783,0.00033173,0.011734,1.563e-17,0,0,0.070326,-0.029647,0,8.1278e-17,0,0,0,0.038783,0.00033173,0.011734,2.3291e-14,0.01695,0.034206,1.312e-06,0.81,0.5,0
0.037264,-1.4544e-16,0.038788,0.00025693,0.011713,-1.138e-16,0,0,0.070394,-0.029787,0,-5.9176e-16,0,0,0,0.038788,0.00025693,0.011713,-1.6922e-13,0.01692,0.034271,1.3153e-06,0.82,0.5,0
0.037969,-1.4884e-16,0.038793,0.00018687,0.011694,-6.119e-17,0,0,0.070457,-0.029918,0,-3.1819e-16,0,0,0,0.038793,0.00018687,0.011694,-9.0812e-14,0.016891,0.034331,1.3184e-06,0.83,0.5,0
0.038673,-1.5178e-16,0.038797,0.00012144,0.011676,4.7657e-17,0,0,0.070515,-0.030041,0,2.4782e-16,0,0,0,0.038797,0.00012144,0.011676,7.0601e-14,0.016865,0.034386,1.3212e-06,0.84,0.5,0
0.039379,-1.5425e-16,0.0388,6.0552e-05,0.011658,5.3377e-17,0,0,0.070569,-0.030154,0,2.7756e-16,0,0,0,0.0388,6.0552e-05,0.011658,7.8944e-14,0.01684,0.034438,1.3238e-06,0.85,0.5,0
0.040085,-1.5554e-16,0.038803,4.1053e-06,0.011642,-7.396e-17,0,0,0.070618,-0.030259,0,-3.846e-16,0,0,0,0.038803,4.1053e-06,0.011642,-1.0922e-13,0.016816,0.034485,1.3261e-06,0.86,0.5,0
0.040791,-1.5723e-16,0.038805,-4.7994e-05,0.011627,3.9076e-17,0,0,0.070662,-0.030355,0,2.032e-16,0,0,0,0.038805,-4.7994e-05,0.011627,5.7624e-14,0.016795,0.034529,1.3283e-06,0.87,0.5,0
0.041498,-1.5869e-16,0.038807,-9.5838e-05,0.011613,-5.3375e-17,0,0,0.070703,-0.030444,0,-2.7755e-16,0,0,0,0.038807,-9.5838e-05,0.011613,-7.8612e-14,0.016775,0.034569,1.3302e-06,0.88,0.5,0
0.042205,-1.6055e-16,0.038808,-0.00013951,0.0116,-4.9541e-18,0,0,0.070739,-0.030524,0,-2.576e-17,0,0,0,0.038808,-0.00013951,0.0116,-7.288e-15,0.016756,0.034605,1.3319e-06,0.89,0.5,0
0.042913,-1.6167e-16,0.038809,-0.0001791,0.011589,-1.4869e-16,0,0,0.070772,-0.030597,0,-7.7317e-16,0,0,0,0.038809,-0.0001791,0.011589,-2.1851e-13,0.01674,0.034637,1.3334e-06,0.9,0.5,0
0.043621,-1.6415e-16,0.038809,-0.00021467,0.011578,1.302e-16,0,0,0.070801,-0.030662,0,6.7703e-16,0,0,0,0.038809,-0.00021467,0.011578,1.9116e-13,0.016724,0.034666,1.3348e-06,0.91,0.5,0
0.044329,-1.6684e-16,0.03881,-0.0002463,0.011569,6.9006e-17,0,0,0.070826,-0.03072,0,3.5883e-16,0,0,0,0.03881,-0.0002463,0.011569,1.0123e-13,0.016711,0.034692,1.336e-06,0.92,0.5,0
0.045037,-1.6779e-16,0.03881,-0.00027406,0.011561,-5.547e-17,0,0,0.070848,-0.030771,0,-2.8844e-16,0,0,0,0.03881,-0.00027406,0.011561,-8.1317e-14,0.016699,0.034714,1.337e-06,0.93,0.5,0
0.045746,-1.7188e-16,0.03881,-0.00029799,0.011554,5.8331e-17,0,0,0.070867,-0.030815,0,3.0331e-16,0,0,0,0.03881,-0.00029799,0.011554,8.5458e-14,0.016689,0.034734,1.3379e-06,0.94,0.5,0
0.046455,-1.728e-16,0.03881,-0.00031816,0.011548,4.954e-18,0,0,0.070883,-0.030851,0,2.5765e-17,0,0,0,0.03881,-0.00031816,0.011548,7.2541e-15,0.01668,0.03475,1.3386e-06,0.95,0.5,0
0.047163,-1.7309e-16,0.03881,-0.0003346,0.011543,1.0676e-17,0,0,0.070896,-0.030881,0,5.5513e-17,0,0,0,0.03881,-0.0003346,0.011543,1.5626e-14,0.016673,0.034763,1.3392e-06,0.96,0.5,0
0.047873,-1.7269e-16,0.03881,-0.00034734,0.011539,-2.4211e-17,0,0,0.070906,-0.030904,0,-1.259e-16,0,0,0,0.03881,-0.00034734,0.011539,-3.5425e-14,0.016667,0.034773,1.3397e-06,0.97,0.5,0
0.048582,-1.7462e-16,0.03881,-0.00035643,0.011536,-1.5629e-17,0,0,0.070913,-0.030921,0,-8.1274e-17,0,0,0,0.03881,-0.00035643,0.011536,-2.2864e-14,0.016663,0.03478,1.34e-06,0.98,0.5,0
0.049291,-1.7227e-16,0.03881,-0.00036188,0.011535,-3.698e-17,0,0,0.070917,-0.030931,0,-1.923e-16,0,0,0,0.03881,-0.00036188,0.011535,-5.4089e-14,0.016661,0.034785,1.3402e-06,0.99,0.5,0
0.05,-1.7632e-16,0.03881,-0.00036369,0.011534,-9.1123e-17,0,0,0.070919,-0.030934,0,-4.7384e-16,0,0,0,0.03881,-0.00036369,0.011534,-1.3328e-13,0.01666,0.034786,1.3403e-06,1,0.5,0
0,0,0.03275,0.014035,0.014035,-0.00014432,0,0,0.024328,-5.421e-20,0,-0.00037522,0,0,0,0.032751,0.014034,0.014035,-0.44181,0.020273,0.018716,3.367e-07,0,0.51,0
0.00024328,-3.7522e-06,0.032715,0.013608,0.013897,-0.0001445,0,0,0.024463,-0.00037541,0,-0.00037569,0,0,0,0.032716,0.013607,0.013897,-0.43328,0.020073,0.018966,3.5009e-07,0.01,0.51,0
0.00048927,-7.5908e-06,0.03286,0.013248,0.013832,-0.0001461,0,0,0.024736,-0.00075946,0,-0.00037987,0,0,0,0.032861,0.013247,0.013832,-0.42681,0.01998,0.019328,3.6968e-07,0.02,0.51,0
0.000738,-1.1509e-05,0.033007,0.01288,0.013766,-0.00014734,0,0,0.025013,-0.0011515,0,-0.00038309,0,0,0,0.033008,0.012879,0.013766,-0.41942,0.019884,0.0197,3.8998e-07,0.03,0.51,0
0.00098952,-1.5499e-05,0.033154,0.012505,0.013698,-0.0001482,0,0,0.025293,-0.0015507,0,-0.00038531,0,0,0,0.033155,0.012504,0.013698,-0.41117,0.019786,0.020081,4.1095e-07,0.04,0.51,0
0.0012439,-1.9555e-05,0.033302,0.012122,0.013628,-0.00014867,0,0,0.025577,-0.0019565,0,-0.00038654,0,0,0,0.033304,0.012121,0.013628,-0.40215,0.019684,0.020471,4.3254e-07,0.05,0.51,0
0.0015011,-2.367e-05,0.033451,0.011734,0.013555,-0.00014876,0,0,0.025864,-0.0023681,0,-0.00038678,0,0,0,0.033452,0.011733,0.013555,-0.39244,0.01958,0.020868,4.5473e-07,0.06,0.51,0
0.0017611,-2.7834e-05,0.0336,0.01134,0.013482,-0.00014847,0,0,0.026153,-0.0027848,0,-0.00038603,0,0,0,0.033601,0.011339,0.013482,-0.38213,0.019474,0.021272,4.7746e-07,0.07,0.51,0
0.0020241,-3.2043e-05,0.033748,0.01094,0.013406,-0.00014781,0,0,0.026444,-0.0032058,0,-0.00038431,0,0,0,0.033749,0.010939,0.013406,-0.37131,0.019365,0.021681,5.0067e-07,0.08,0.51,0
0.00229,-3.6287e-05,0.033895,0.010537,0.013329,-0.0001468,0,0,0.026735,-0.0036305,0,-0.00038167,0,0,0,0.033896,0.010536,0.013329,-0.36007,0.019254,0.022096,5.2432e-07,0.09,0.51,0
0.0025588,-4.0561e-05,0.034041,0.01013,0.013251,-0.00014544,0,0,0.027027,-0.004058,0,-0.00037815,0,0,0,0.034042,0.010129,0.013251,-0.34849,0.019141,0.022515,5.4836e-07,0.1,0.51,0
0.0028306,-4.4858e-05,0.034185,0.0097192,0.013171,-0.00014377,0,0,0.027318,-0.0044878,0,-0.0003738,0,0,0,0.034186,0.0097184,0.013171,-0.33666,0.019025,0.022937,5.7272e-07,0.11,0.51,0
0.0031052,-4.917e-05,0.034328,0.0093063,0.01309,-0.0001418,0,0,0.027609,-0.0049192,0,-0.00036867,0,0,0,0.034329,0.0093055,0.01309,-0.32468,0.018908,0.023362,5.9734e-07,0.12,0.51,0
0.0033827,-5.3493e-05,0.034469,0.0088914,0.013008,-0.00013955,0,0,0.027899,-0.0053516,0,-0.00036284,0,0,0,0.034469,0.0088906,0.013008,-0.3126,0.018789,0.023789,6.2218e-07,0.13,0.51,0
0.0036632,-5.782e-05,0.034607,0.008475,0.012925,-0.00013707,0,0,0.028187,-0.0057844,0,-0.00035639,0,0,0,0.034608,0.0084743,0.012925,-0.30053,0.018669,0.024217,6.4717e-07,0.14,0.51,0
0.0039465,-6.2146e-05,0.034743,0.0080577,0.01284,-0.00013438,0,0,0.028473,-0.0062171,0,-0.00034938,0,0,0,0.034743,0.008057,0.01284,-0.28851,0.018547,0.024645,6.7225e-07,0.15,0.51,0
0.0042326,-6.6467e-05,0.034875,0.0076398,0.012755,-0.0001315,0,0,0.028757,-0.0066492,0,-0.0003419,0,0,0,0.034876,0.0076392,0.012755,-0.27663,0.018423,0.025074,6.9737e-07,0.16,0.51,0
0.0045216,-7.0777e-05,0.035005,0.0072218,0.012668,-0.00012848,0,0,0.029038,-0.0070802,0,-0.00033405,0,0,0,0.035006,0.0072212,0.012668,-0.26494,0.018298,0.025501,7.2249e-07,0.17,0.51,0
0.0048134,-7.5073e-05,0.035132,0.006804,0.012581,-0.00012534,0,0,0.029317,-0.0075099,0,-0.00032589,0,0,0,0.035133,0.0068035,0.012581,-0.25351,0.018172,0.025928,7.4755e-07,0.18,0.51,0
0.005108,-7.9352e-05,0.035256,0.0063869,0.012493,-0.00012212,0,0,0.029592,-0.0079378,0,-0.00031752,0,0,0,0.035256,0.0063863,0.012493,-0.24237,0.018045,0.026353,7.7251e-07,0.19,0.51,0
0.0054052,-8.361e-05,0.035376,0.0059705,0.012404,-0.00011885,0,0,0.029864,-0.0083636,0,-0.00030902,0,0,0,0.035377,0.00597,0.012404,-0.23157,0.017917,0.026776,7.9733e-07,0.2,0.51,0
0.0057052,-8.7846e-05,0.035493,0.0055553,0.012315,-0.00011556,0,0,0.030132,-0.0087872,0,-0.00030046,0,0,0,0.035494,0.0055548,0.012315,-0.22116,0.017788,0.027197,8.2197e-07,0.21,0.51,0
0.0060079,-9.2058e-05,0.035607,0.0051413,0.012225,-0.00011228,0,0,0.030398,-0.0092083,0,-0.00029194,0,0,0,0.035608,0.0051409,0.012225,-0.21116,0.017658,0.027615,8.464e-07,0.22,0.51,0
0.0063132,-9.6243e-05,0.035718,0.0047289,0.012134,-0.00010904,0,0,0.030659,-0.0096267,0,-0.0002835,0,0,0,0.035718,0.0047285,0.012134,-0.2016,0.017527,0.028031,8.7058e-07,0.23,0.51,0
0.0066211,-0.0001004,0.035826,0.0043181,0.012043,-0.00010586,0,0,0.030917,-0.010042,0,-0.00027523,0,0,0,0.035826,0.0043177,0.012043,-0.1925,0.017396,0.028444,8.945e-07,0.24,0.51,0
0.0069315,-0.00010453,0.03593,0.0039089,0.011952,-0.00010276,0,0,0.031172,-0.010455,0,-0.00026718,0,0,0,0.03593,0.0039086,0.011952,-0.18387,0.017263,0.028853,9.1814e-07,0.25,0.51,0
0.0072445,-0.00010864,0.036031,0.0035016,0.01186,-9.9767e-05,0,0,0.031423,-0.010866,0,-0.00025939,0,0,0,0.036031,0.0035013,0.01186,-0.17572,0.017131,0.02926,9.4147e-07,0.26,0.51,0
0.00756,-0.00011271,0.036129,0.0030962,0.011768,-9.6893e-05,0,0,0.03167,-0.011273,0,-0.00025192,0,0,0,0.03613,0.0030959,0.011768,-0.16806,0.016998,0.029664,9.6449e-07,0.27,0.51,0
0.0078779,-0.00011676,0.036225,0.0026926,0.011675,-9.4153e-05,0,0,0.031914,-0.011678,0,-0.0002448,0,0,0,0.036225,0.0026923,0.011675,-0.16087,0.016864,0.030065,9.8718e-07,0.28,0.51,0
0.0081983,-0.00012077,0.036318,0.0022909,0.011583,-9.1555e-05,0,0,0.032156,-0.012079,0,-0.00023804,0,0,0,0.036318,0.0022907,0.011583,-0.15416,0.01673,0.030463,1.0095e-06,0.29,0.51,0
0.008521,-0.00012477,0.036408,0.0018912,0.01149,-8.9107e-05,0,0,0.032394,-0.012478,0,-0.00023168,0,0,0,0.036408,0.0018909,0.01149,-0.14791,0.016596,0.030859,1.0316e-06,0.3,0.51,0
0.0088462,-0.00012873,0.036496,0.0014933,0.011397,-8.6813e-05,0,0,0.032629,-0.012875,0,-0.00022571,0,0,0,0.036496,0.0014931,0.011397,-0.1421,0.016462,0.031251,1.0532e-06,0.31,0.51,0
0.0091736,-0.00013267,0.036582,0.0010973,0.011304,-8.467e-05,0,0,0.032862,-0.013268,0,-0.00022014,0,0,0,0.036582,0.0010971,0.011304,-0.13671,0.016328,0.031641,1.0746e-06,0.32,0.51,0
0.0095034,-0.00013658,0.036665,0.00070328,0.011211,-8.2676e-05,0,0,0.033091,-0.013659,0,-0.00021496,0,0,0,0.036666,0.00070309,0.011211,-0.13172,0.016193,0.032029,1.0956e-06,0.33,0.51,0
0.0098354,-0.00014047,0.036747,0.00031113,0.011118,-8.0825e-05,0,0,0.033319,-0.014048,0,-0.00021014,0,0,0,0.036747,0.00031096,0.011118,-0.1271,0.016059,0.032414,1.1162e-06,0.34,0.51,0
0.01017,-0.00014434,0.036827,-7.9089e-05,0.011024,-7.9105e-05,0,0,0.033544,-0.014435,0,-0.00020567,0,0,0,0.036827,-7.9258e-05,0.011024,-0.12281,0.015924,0.032796,1.1365e-06,0.35,0.51,0
0.010506,-0.00014818,0.036906,-0.00046736,0.010931,-7.7505e-05,0,0,0.033766,-0.014818,0,-0.00020151,0,0,0,0.036906,-0.00046752,0.010931,-0.11882,0.01579,0.033176,1.1564e-06,0.36,0.51,0
0.010845,-0.00015199,0.036982,-0.00085364,0.010839,-7.601e-05,0,0,0.033987,-0.0152,0,-0.00019763,0,0,0,0.036982,-0.00085379,0.010839,-0.1151,0.015656,0.033554,1.176e-06,0.37,0.51,0
0.011186,-0.00015578,0.037058,-0.0012378,0.010746,-7.4601e-05,0,0,0.034205,-0.015579,0,-0.00019396,0,0,0,0.037058,-0.001238,0.010746,-0.11162,0.015522,0.03393,1.1952e-06,0.38,0.51,0
0.011529,-0.00015955,0.037131,-0.0016199,0.010653,-7.326e-05,0,0,0.034421,-0.015955,0,-0.00019048,0,0,0,0.037132,-0.00162,0.010653,-0.10832,0.015388,0.034303,1.2141e-06,0.39,0.51,0
0.011874,-0.00016329,0.037204,-0.0019997,0.010561,-7.1966e-05,0,0,0.034635,-0.016329,0,-0.00018711,0,0,0,0.037204,-0.0019998,0.010561,-0.10518,0.015255,0.034674,1.2326e-06,0.4,0.51,0
0.012222,-0.000167,0.037275,-0.002377,0.010469,-7.0694e-05,0,0,0.034848,-0.016701,0,-0.0001838,0,0,0,0.037276,-0.0023771,0.010469,-0.10215,0.015123,0.035042,1.2507e-06,0.41,0.51,0
0.012571,-0.00017068,0.037345,-0.0027517,0.010378,-6.9422e-05,0,0,0.035057,-0.017069,0,-0.0001805,0,0,0,0.037345,-0.0027519,0.010378,-0.099199,0.014991,0.035408,1.2685e-06,0.42,0.51,0
0.012923,-0.00017433,0.037414,-0.0031237,0.010287,-6.8126e-05,0,0,0.035265,-0.017434,0,-0.00017713,0,0,0,0.037414,-0.0031238,0.010287,-0.096288,0.014859,0.03577,1.2858e-06,0.43,0.51,0
0.013277,-0.00017796,0.037482,-0.0034926,0.010197,-6.6779e-05,0,0,0.03547,-0.017796,0,-0.00017363,0,0,0,0.037482,-0.0034927,0.010197,-0.09338,0.014729,0.03613,1.3027e-06,0.44,0.51,0
0.013632,-0.00018154,0.037547,-0.0038581,0.010107,-6.5358e-05,0,0,0.035673,-0.018154,0,-0.00016993,0,0,0,0.037548,-0.0038582,0.010107,-0.09044,0.014599,0.036486,1.3192e-06,0.45,0.51,0
0.01399,-0.00018508,0.037612,-0.00422,0.010018,-6.3837e-05,0,0,0.035873,-0.018509,0,-0.00016598,0,0,0,0.037612,-0.0042201,0.010018,-0.087434,0.01447,0.036838,1.3352e-06,0.46,0.51,0
0.01435,-0.00018859,0.037675,-0.0045778,0.0099291,-6.219e-05,0,0,0.03607,-0.018859,0,-0.0001617,0,0,0,0.037675,-0.0045779,0.0099291,-0.084331,0.014342,0.037186,1.3508e-06,0.47,0.51,0
0.014712,-0.00019204,0.037736,-0.0049314,0.0098415,-6.0395e-05,0,0,0.036263,-0.019205,0,-0.00015703,0,0,0,0.037736,-0.0049315,0.0098415,-0.081101,0.014215,0.037529,1.3658e-06,0.48,0.51,0
0.015075,-0.00019545,0.037796,-0.0052801,0.0097546,-5.8427e-05,0,0,0.036453,-0.019545,0,-0.00015191,0,0,0,0.037796,-0.0052802,0.0097546,-0.077715,0.01409,0.037867,1.3803e-06,0.49,0.51,0
0.015441,-0.00019879,0.03784,-0.00016766,0.011302,-5.6465e-05,0,0,0.050725,-0.01988,0,-0.00021896,0,0,0,0.03784,-0.00016775,0.011302,-0.086662,0.016325,0.033836,1.2064e-06,0.5,0.51,0
0.01609,-0.00020353,0.037909,0.0050631,0.012892,-5.4883e-05,0,0,0.065045,-0.020354,0,-0.00028539,0,0,0,0.037909,0.005063,0.012892,-0.095737,0.018621,0.029715,1.0389e-06,0.51,0.51,0
0.016741,-0.00020819,0.037963,0.0048304,0.012838,-5.3423e-05,0,0,0.065325,-0.02082,0,-0.0002778,0,0,0,0.037963,0.0048304,0.012838,-0.092383,0.018544,0.029943,1.0536e-06,0.52,0.51,0
0.017396,-0.00021276,0.038016,0.0046021,0.012785,-5.1909e-05,0,0,0.065599,-0.021277,0,-0.00026993,0,0,0,0.038016,0.004602,0.012785,-0.08901,0.018468,0.030166,1.0679e-06,0.53,0.51,0
0.018054,-0.00021723,0.038067,0.0043781,0.012734,-5.0339e-05,0,0,0.065867,-0.021724,0,-0.00026176,0,0,0,0.038067,0.004378,0.012734,-0.085614,0.018393,0.030385,1.082e-06,0.54,0.51,0
0.018714,-0.00022161,0.038116,0.0041587,0.012682,-4.8714e-05,0,0,0.066128,-0.022162,0,-0.00025331,0,0,0,0.038116,0.0041586,0.012682,-0.082194,0.018319,0.0306,1.0956e-06,0.55,0.51,0
0.019376,-0.00022589,0.038164,0.0039439,0.012632,-4.7034e-05,0,0,0.066383,-0.02259,0,-0.00024458,0,0,0,0.038164,0.0039438,0.012632,-0.078751,0.018247,0.030809,1.109e-06,0.56,0.51,0
0.020041,-0.00023007,0.03821,0.003734,0.012583,-4.5303e-05,0,0,0.06663,-0.023008,0,-0.00023558,0,0,0,0.03821,0.003734,0.012583,-0.075288,0.018176,0.031014,1.122e-06,0.57,0.51,0
0.020709,-0.00023415,0.038255,0.0035291,0.012535,-4.3524e-05,0,0,0.066871,-0.023416,0,-0.00022633,0,0,0,0.038255,0.003529,0.012535,-0.071813,0.018106,0.031213,1.1346e-06,0.58,0.51,0
0.021379,-0.00023812,0.038297,0.0033293,0.012488,-4.1703e-05,0,0,0.067104,-0.023813,0,-0.00021685,0,0,0,0.038297,0.0033292,0.012488,-0.068331,0.018038,0.031407,1.1468e-06,0.59,0.51,0
0.022051,-0.00024198,0.038338,0.0031347,0.012442,-3.9845e-05,0,0,0.06733,-0.024199,0,-0.00020719,0,0,0,0.038338,0.0031346,0.012442,-0.06485,0.017972,0.031595,1.1586e-06,0.6,0.51,0
0.022725,-0.00024572,0.038377,0.0029454,0.012397,-3.7957e-05,0,0,0.067549,-0.024573,0,-0.00019738,0,0,0,0.038377,0.0029453,0.012397,-0.06138,0.017906,0.031778,1.17e-06,0.61,0.51,0
0.023402,-0.00024936,0.038414,0.0027615,0.012353,-3.6048e-05,0,0,0.067759,-0.024937,0,-0.00018745,0,0,0,0.038414,0.0027615,0.012353,-0.057932,0.017843,0.031955,1.181e-06,0.62,0.51,0
0.02408,-0.00025288,0.038449,0.0025832,0.01231,-3.4125e-05,0,0,0.067962,-0.025289,0,-0.00017745,0,0,0,0.038449,0.0025832,0.01231,-0.054515,0.017781,0.032127,1.1915e-06,0.63,0.51,0
0.024761,-0.00025628,0.038482,0.0024105,0.012268,-3.2197e-05,0,0,0.068157,-0.025629,0,-0.00016743,0,0,0,0.038482,0.0024104,0.012268,-0.051142,0.01772,0.032292,1.2017e-06,0.64,0.51,0
0.025444,-0.00025957,0.038513,0.0022433,0.012227,-3.0273e-05,0,0,0.068345,-0.025958,0,-0.00015742,0,0,0,0.038513,0.0022433,0.012227,-0.047822,0.017661,0.032451,1.2114e-06,0.65,0.51,0
0.026128,-0.00026273,0.038543,0.0020819,0.012187,-2.836e-05,0,0,0.068524,-0.026274,0,-0.00014747,0,0,0,0.038543,0.0020819,0.012187,-0.044566,0.017604,0.032605,1.2206e-06,0.66,0.51,0
0.026814,-0.00026578,0.03857,0.0019262,0.012149,-2.6469e-05,0,0,0.068695,-0.026579,0,-0.00013764,0,0,0,0.03857,0.0019262,0.012149,-0.041386,0.017548,0.032752,1.2295e-06,0.67,0.51,0
0.027502,-0.00026871,0.038596,0.0017762,0.012112,-2.4606e-05,0,0,0.068859,-0.026872,0,-0.00012795,0,0,0,0.038596,0.0017762,0.012112,-0.038291,0.017494,0.032893,1.2379e-06,0.68,0.51,0
0.028191,-0.00027152,0.038619,0.0016319,0.012075,-2.2782e-05,0,0,0.069014,-0.027153,0,-0.00011846,0,0,0,0.038619,0.0016319,0.012075,-0.03529,0.017442,0.033028,1.2459e-06,0.69,0.51,0
0.028882,-0.00027422,0.038641,0.0014934,0.01204,-2.1002e-05,0,0,0.069162,-0.027422,0,-0.00010921,0,0,0,0.038641,0.0014933,0.01204,-0.032392,0.017392,0.033157,1.2535e-06,0.7,0.51,0
0.029574,-0.00027679,0.038661,0.0013605,0.012007,-1.9274e-05,0,0,0.069303,-0.02768,0,-0.00010022,0,0,0,0.038661,0.0013605,0.012007,-0.029606,0.017343,0.03328,1.2606e-06,0.71,0.51,0
0.030268,-0.00027925,0.03868,0.0012332,0.011974,-1.7605e-05,0,0,0.069435,-0.027926,0,-9.1545e-05,0,0,0,0.03868,0.0012332,0.011974,-0.026936,0.017296,0.033398,1.2674e-06,0.72,0.51,0
0.030963,-0.0002816,0.038697,0.0011116,0.011942,-1.6e-05,0,0,0.069561,-0.02816,0,-8.3201e-05,0,0,0,0.038697,0.0011116,0.011942,-0.024391,0.01725,0.033509,1.2738e-06,0.73,0.51,0
0.031659,-0.00028383,0.038712,0.00099547,0.011912,-1.4465e-05,0,0,0.069679,-0.028383,0,-7.5218e-05,0,0,0,0.038712,0.00099546,0.011912,-0.021974,0.017206,0.033615,1.2798e-06,0.74,0.51,0
0.032357,-0.00028595,0.038726,0.00088483,0.011883,-1.3004e-05,0,0,0.069791,-0.028596,0,-6.7619e-05,0,0,0,0.038726,0.00088483,0.011883,-0.019689,0.017165,0.033715,1.2854e-06,0.75,0.51,0
0.033055,-0.00028797,0.038738,0.00077959,0.011855,-1.162e-05,0,0,0.069895,-0.028797,0,-6.0424e-05,0,0,0,0.038738,0.00077959,0.011855,-0.01754,0.017124,0.03381,1.2906e-06,0.76,0.51,0
0.033755,-0.00028987,0.038749,0.00067966,0.011829,-1.0317e-05,0,0,0.069993,-0.028987,0,-5.3648e-05,0,0,0,0.038749,0.00067966,0.011829,-0.015527,0.017086,0.033899,1.2955e-06,0.77,0.51,0
0.034455,-0.00029167,0.038759,0.00058496,0.011803,-9.0964e-06,0,0,0.070085,-0.029167,0,-4.7301e-05,0,0,0,0.038759,0.00058496,0.011803,-0.013653,0.017049,0.033983,1.3001e-06,0.78,0.51,0
0.035156,-0.00029337,0.038767,0.00049539,0.011779,-7.9599e-06,0,0,0.07017,-0.029337,0,-4.1391e-05,0,0,0,0.038767,0.00049539,0.011779,-0.011917,0.017014,0.034062,1.3043e-06,0.79,0.51,0
0.035858,-0.00029497,0.038775,0.00041086,0.011756,-6.9081e-06,0,0,0.07025,-0.029496,0,-3.5922e-05,0,0,0,0.038775,0.00041086,0.011756,-0.010317,0.01698,0.034136,1.3082e-06,0.8,0.51,0
0.036561,-0.00029647,0.038781,0.00033127,0.011734,-5.9411e-06,0,0,0.070323,-0.029646,0,-3.0894e-05,0,0,0,0.038781,0.00033126,0.011734,-0.0088531,0.016949,0.034205,1.3118e-06,0.81,0.51,0
0.037265,-0.00029787,0.038787,0.00025651,0.011713,-5.0583e-06,0,0,0.070392,-0.029787,0,-2.6303e-05,0,0,0,0.038787,0.00025651,0.011713,-0.0075218,0.016919,0.03427,1.3152e-06,0.82,0.51,0
0.037969,-0.00029918,0.038791,0.00018649,0.011693,-4.2583e-06,0,0,0.070455,-0.029918,0,-2.2143e-05,0,0,0,0.038791,0.00018648,0.011693,-0.00632,0.01689,0.03433,1.3183e-06,0.83,0.51,0
0.038674,-0.00030041,0.038795,0.0001211,0.011675,-3.5395e-06,0,0,0.070513,-0.03004,0,-1.8405e-05,0,0,0,0.038795,0.0001211,0.011675,-0.0052437,0.016864,0.034385,1.3211e-06,0.84,0.51,0
0.039379,-0.00030154,0.038798,6.0252e-05,0.011658,-2.8994e-06,0,0,0.070566,-0.030153,0,-1.5077e-05,0,0,0,0.038798,6.0252e-05,0.011658,-0.0042883,0.016839,0.034437,1.3236e-06,0.85,0.51,0
0.040085,-0.00030259,0.038801,3.8426e-06,0.011642,-2.3352e-06,0,0,0.070615,-0.030258,0,-1.2143e-05,0,0,0,0.038801,3.8424e-06,0.011642,-0.0034486,0.016816,0.034484,1.326e-06,0.86,0.51,0
0.040792,-0.00030355,0.038803,-4.8222e-05,0.011626,-1.8437e-06,0,0,0.07066,-0.030354,0,-9.5874e-06,0,0,0,0.038803,-4.8222e-05,0.011626,-0.002719,0.016794,0.034528,1.3281e-06,0.87,0.51,0
0.041499,-0.00030444,0.038805,-9.6031e-05,0.011613,-1.4212e-06,0,0,0.0707,-0.030443,0,-7.3903e-06,0,0,0,0.038805,-9.6031e-05,0.011613,-0.0020933,0.016774,0.034567,1.33e-06,0.88,0.51,0
0.042206,-0.00030524,0.038806,-0.00013967,0.0116,-1.0637e-06,0,0,0.070736,-0.030523,0,-5.531e-06,0,0,0,0.038806,-0.00013967,0.0116,-0.0015648,0.016755,0.034603,1.3317e-06,0.89,0.51,0
0.042913,-0.00030597,0.038807,-0.00017923,0.011588,-7.6667e-07,0,0,0.070769,-0.030596,0,-3.9867e-06,0,0,0,0.038807,-0.00017923,0.011588,-0.0011267,0.016739,0.034636,1.3333e-06,0.9,0.51,0
0.043621,-0.00030662,0.038808,-0.00021478,0.011578,-5.256e-07,0,0,0.070798,-0.030661,0,-2.7331e-06,0,0,0,0.038808,-0.00021478,0.011578,-0.00077173,0.016724,0.034665,1.3346e-06,0.91,0.51,0
0.044329,-0.0003072,0.038808,-0.00024638,0.011569,-3.3552e-07,0,0,0.070823,-0.030719,0,-1.7447e-06,0,0,0,0.038808,-0.00024638,0.011569,-0.00049223,0.01671,0.03469,1.3358e-06,0.92,0.51,0
0.045038,-0.00030771,0.038808,-0.00027412,0.01156,-1.9129e-07,0,0,0.070845,-0.03077,0,-9.9469e-07,0,0,0,0.038808,-0.00027412,0.01156,-0.00028043,0.016698,0.034713,1.3368e-06,0.93,0.51,0
0.045746,-0.00030815,0.038809,-0.00029803,0.011553,-8.757e-08,0,0,0.070864,-0.030813,0,-4.5537e-07,0,0,0,0.038809,-0.00029803,0.011553,-0.0001283,0.016688,0.034732,1.3377e-06,0.94,0.51,0
0.046455,-0.00030851,0.038809,-0.00031818,0.011547,-1.8872e-08,0,0,0.07088,-0.03085,0,-9.8133e-08,0,0,0,0.038809,-0.00031818,0.011547,-2.7635e-05,0.016679,0.034748,1.3385e-06,0.95,0.51,0
0.047164,-0.00030881,0.038809,-0.00033461,0.011542,2.0445e-08,0,0,0.070893,-0.03088,0,1.0631e-07,0,0,0,0.038809,-0.00033461,0.011542,2.9926e-05,0.016672,0.034761,1.339e-06,0.96,0.51,0
0.047873,-0.00030904,0.038809,-0.00034735,0.011538,3.6127e-08,0,0,0.070903,-0.030903,0,1.8786e-07,0,0,0,0.038809,-0.00034735,0.011538,5.2863e-05,0.016667,0.034772,1.3395e-06,0.97,0.51,0
0.048582,-0.00030921,0.038809,-0.00035643,0.011536,3.4007e-08,0,0,0.07091,-0.030919,0,1.7684e-07,0,0,0,0.038809,-0.00035643,0.011536,4.975e-05,0.016663,0.034779,1.3398e-06,0.98,0.51,0
0.049291,-0.00030931,0.038809,-0.00036187,0.011534,1.9984e-08,0,0,0.070914,-0.030929,0,1.0392e-07,0,0,0,0.038809,-0.00036187,0.011534,2.9232e-05,0.01666,0.034783,1.34e-06,0.99,0.51,0
0.05,-0.00030934,0.038809,-0.00036368,0.011534,-6.3338e-07,0,0,0.070915,-0.030933,0,-3.2936e-06,0,0,0,0.038809,-0.00036368,0.011534,-0.00092642,0.01666,0.034785,1.3401e-06,1,0.51,0
0,0,0.032757,0.014039,0.014039,-0.00028878,0,0,0.024334,0,0,-0.00075082,0,0,0,0.032762,0.014034,0.014039,-0.88365,0.020278,0.018725,3.3721e-07,0,0.52,0
0.00024334,-7.5082e-06,0.032722,0.013611,0.0139,-0.00028914,0,0,0.024469,-0.00037597,0,-0.00075176,0,0,0,0.032727,0.013606,0.0139,-0.86656,0.020078,0.018975,3.5063e-07,0.01,0.52,0
0.00048938,-1.5189e-05,0.032868,0.01325,0.013836,-0.00029235,0,0,0.024742,-0.00076061,0,-0.00076012,0,0,0,0.032872,0.013246,0.013836,-0.85361,0.019985,0.019338,3.7026e-07,0.02,0.52,0
0.00073818,-2.3029e-05,0.033015,0.012882,0.013769,-0.00029482,0,0,0.025019,-0.0011532,0,-0.00076654,0,0,0,0.033019,0.012878,0.013769,-0.83879,0.019888,0.019711,3.906e-07,0.03,0.52,0
0.00098977,-3.1015e-05,0.033163,0.012506,0.0137,-0.00029653,0,0,0.025301,-0.0015531,0,-0.00077098,0,0,0,0.033167,0.012502,0.0137,-0.82226,0.01979,0.020093,4.1161e-07,0.04,0.52,0
0.0012442,-3.9131e-05,0.033311,0.012123,0.01363,-0.00029747,0,0,0.025585,-0.0019595,0,-0.00077342,0,0,0,0.033315,0.012119,0.01363,-0.80419,0.019688,0.020483,4.3326e-07,0.05,0.52,0
0.0015015,-4.7363e-05,0.03346,0.011734,0.013558,-0.00029764,0,0,0.025872,-0.0023717,0,-0.00077386,0,0,0,0.033464,0.01173,0.013558,-0.78473,0.019584,0.02088,4.5548e-07,0.06,0.52,0
0.0017616,-5.5696e-05,0.033608,0.011339,0.013484,-0.00029705,0,0,0.026162,-0.0027889,0,-0.00077232,0,0,0,0.033612,0.011335,0.013484,-0.76407,0.019477,0.021285,4.7825e-07,0.07,0.52,0
0.0020247,-6.4116e-05,0.033757,0.010939,0.013409,-0.00029571,0,0,0.026452,-0.0032105,0,-0.00076886,0,0,0,0.03376,0.010935,0.013409,-0.74239,0.019368,0.021694,5.015e-07,0.08,0.52,0
0.0022907,-7.2609e-05,0.033904,0.010535,0.013332,-0.00029367,0,0,0.026744,-0.0036357,0,-0.00076353,0,0,0,0.033908,0.010531,0.013332,-0.71986,0.019257,0.02211,5.2519e-07,0.09,0.52,0
0.0025596,-8.116e-05,0.03405,0.010127,0.013253,-0.00029094,0,0,0.027036,-0.0040637,0,-0.00075643,0,0,0,0.034054,0.010124,0.013253,-0.69666,0.019144,0.022529,5.4926e-07,0.1,0.52,0
0.0028314,-8.9756e-05,0.034195,0.0097164,0.013173,-0.00028756,0,0,0.027328,-0.004494,0,-0.00074767,0,0,0,0.034198,0.0097131,0.013173,-0.67297,0.019028,0.022951,5.7364e-07,0.11,0.52,0
0.0031061,-9.8384e-05,0.034337,0.0093031,0.013092,-0.0002836,0,0,0.027619,-0.0049258,0,-0.00073736,0,0,0,0.034341,0.0092999,0.013092,-0.64896,0.018911,0.023377,5.9829e-07,0.12,0.52,0
0.0033838,-0.00010703,0.034478,0.0088878,0.01301,-0.00027909,0,0,0.027909,-0.0053585,0,-0.00072564,0,0,0,0.034481,0.0088848,0.01301,-0.62478,0.018792,0.023803,6.2315e-07,0.13,0.52,0
0.0036643,-0.00011569,0.034616,0.0084711,0.012926,-0.0002741,0,0,0.028197,-0.0057916,0,-0.00071266,0,0,0,0.034619,0.0084682,0.012926,-0.60059,0.018671,0.024231,6.4815e-07,0.14,0.52,0
0.0039477,-0.00012434,0.034752,0.0080535,0.012842,-0.00026869,0,0,0.028483,-0.0062245,0,-0.00069858,0,0,0,0.034754,0.0080508,0.012842,-0.57653,0.018549,0.02466,6.7324e-07,0.15,0.52,0
0.004234,-0.00013298,0.034884,0.0076353,0.012756,-0.00026291,0,0,0.028767,-0.0066568,0,-0.00068357,0,0,0,0.034887,0.0076328,0.012756,-0.55274,0.018425,0.025088,6.9837e-07,0.16,0.52,0
0.0045231,-0.0001416,0.035014,0.0072171,0.012669,-0.00025684,0,0,0.029048,-0.007088,0,-0.00066779,0,0,0,0.035017,0.0072148,0.012669,-0.52934,0.0183,0.025516,7.2349e-07,0.17,0.52,0
0.004815,-0.0001502,0.035141,0.0067992,0.012582,-0.00025054,0,0,0.029326,-0.0075177,0,-0.00065141,0,0,0,0.035143,0.006797,0.012582,-0.50645,0.018174,0.025942,7.4854e-07,0.18,0.52,0
0.0051096,-0.00015876,0.035264,0.0063819,0.012494,-0.00024408,0,0,0.029602,-0.0079455,0,-0.00063461,0,0,0,0.035266,0.0063799,0.012494,-0.48415,0.018047,0.026367,7.7349e-07,0.19,0.52,0
0.005407,-0.00016727,0.035385,0.0059656,0.012405,-0.00023752,0,0,0.029873,-0.0083713,0,-0.00061755,0,0,0,0.035387,0.0059636,0.012405,-0.46254,0.017918,0.026789,7.9829e-07,0.2,0.52,0
0.0057071,-0.00017574,0.035501,0.0055503,0.012316,-0.00023092,0,0,0.030142,-0.0087948,0,-0.00060039,0,0,0,0.035503,0.0055485,0.012316,-0.44171,0.017789,0.02721,8.2291e-07,0.21,0.52,0
0.0060098,-0.00018416,0.035615,0.0051364,0.012225,-0.00022434,0,0,0.030406,-0.0092157,0,-0.00058328,0,0,0,0.035617,0.0051348,0.012225,-0.4217,0.017659,0.027628,8.4731e-07,0.22,0.52,0
0.0063152,-0.00019253,0.035725,0.004724,0.012135,-0.00021783,0,0,0.030668,-0.009634,0,-0.00056637,0,0,0,0.035727,0.0047225,0.012135,-0.40257,0.017528,0.028043,8.7146e-07,0.23,0.52,0
0.0066232,-0.00020085,0.035832,0.0043133,0.012044,-0.00021145,0,0,0.030925,-0.010049,0,-0.00054978,0,0,0,0.035834,0.0043119,0.012044,-0.38436,0.017396,0.028455,8.9535e-07,0.24,0.52,0
0.0069337,-0.00020911,0.035936,0.0039044,0.011952,-0.00020525,0,0,0.031179,-0.010462,0,-0.00053364,0,0,0,0.035938,0.003903,0.011952,-0.36711,0.017264,0.028864,9.1895e-07,0.25,0.52,0
0.0072467,-0.00021731,0.036037,0.0034972,0.01186,-0.00019925,0,0,0.03143,-0.010872,0,-0.00051804,0,0,0,0.036038,0.003496,0.01186,-0.35082,0.017132,0.029271,9.4224e-07,0.26,0.52,0
0.0075623,-0.00022546,0.036135,0.0030919,0.011768,-0.00019349,0,0,0.031677,-0.011279,0,-0.00050308,0,0,0,0.036136,0.0030908,0.011768,-0.33549,0.016998,0.029674,9.6521e-07,0.27,0.52,0
0.0078803,-0.00023355,0.03623,0.0026886,0.011676,-0.000188,0,0,0.031921,-0.011683,0,-0.00048881,0,0,0,0.036231,0.0026875,0.011676,-0.32114,0.016865,0.030074,9.8786e-07,0.28,0.52,0
0.0082007,-0.00024158,0.036323,0.0022871,0.011583,-0.00018281,0,0,0.032162,-0.012084,0,-0.00047529,0,0,0,0.036323,0.0022861,0.011583,-0.30773,0.016731,0.030472,1.0102e-06,0.29,0.52,0
0.0085235,-0.00024956,0.036412,0.0018876,0.01149,-0.00017791,0,0,0.032399,-0.012483,0,-0.00046256,0,0,0,0.036413,0.0018867,0.01149,-0.29524,0.016597,0.030867,1.0321e-06,0.3,0.52,0
0.0088487,-0.00025749,0.0365,0.00149,0.011397,-0.00017332,0,0,0.032634,-0.012879,0,-0.00045063,0,0,0,0.036501,0.0014891,0.011397,-0.28364,0.016462,0.031258,1.0538e-06,0.31,0.52,0
0.0091762,-0.00026537,0.036585,0.0010942,0.011304,-0.00016904,0,0,0.032866,-0.013272,0,-0.0004395,0,0,0,0.036586,0.0010934,0.011304,-0.27288,0.016328,0.031648,1.075e-06,0.32,0.52,0
0.009506,-0.00027319,0.036668,0.00070041,0.011211,-0.00016506,0,0,0.033095,-0.013663,0,-0.00042915,0,0,0,0.036669,0.00069965,0.011211,-0.26292,0.016193,0.032035,1.096e-06,0.33,0.52,0
0.0098381,-0.00028097,0.03675,0.00030847,0.011117,-0.00016136,0,0,0.033322,-0.014052,0,-0.00041954,0,0,0,0.03675,0.00030776,0.011117,-0.2537,0.016058,0.032419,1.1166e-06,0.34,0.52,0
0.010172,-0.00028869,0.036829,-8.1561e-05,0.011024,-0.00015793,0,0,0.033546,-0.014438,0,-0.00041062,0,0,0,0.03683,-8.2236e-05,0.011024,-0.24515,0.015924,0.032801,1.1368e-06,0.35,0.52,0
0.010509,-0.00029637,0.036907,-0.00046966,0.010931,-0.00015474,0,0,0.033769,-0.014821,0,-0.00040233,0,0,0,0.036908,-0.0004703,0.010931,-0.2372,0.01579,0.033181,1.1567e-06,0.36,0.52,0
0.010848,-0.000304,0.036984,-0.00085579,0.010838,-0.00015176,0,0,0.033989,-0.015202,0,-0.00039459,0,0,0,0.036984,-0.0008564,0.010838,-0.22979,0.015655,0.033558,1.1762e-06,0.37,0.52,0
0.011189,-0.00031158,0.037058,-0.0012399,0.010746,-0.00014896,0,0,0.034207,-0.015581,0,-0.0003873,0,0,0,0.037059,-0.0012405,0.010746,-0.22285,0.015521,0.033933,1.1954e-06,0.38,0.52,0
0.011532,-0.00031911,0.037132,-0.0016218,0.010653,-0.00014629,0,0,0.034423,-0.015957,0,-0.00038036,0,0,0,0.037132,-0.0016224,0.010653,-0.21629,0.015388,0.034306,1.2143e-06,0.39,0.52,0
0.011877,-0.00032659,0.037204,-0.0020016,0.010561,-0.00014372,0,0,0.034636,-0.016331,0,-0.00037367,0,0,0,0.037205,-0.0020021,0.010561,-0.21003,0.015255,0.034676,1.2327e-06,0.4,0.52,0
0.012225,-0.00033401,0.037275,-0.0023789,0.010469,-0.00014119,0,0,0.034848,-0.016702,0,-0.0003671,0,0,0,0.037276,-0.0023794,0.010469,-0.204,0.015122,0.035044,1.2508e-06,0.41,0.52,0
0.012574,-0.00034138,0.037345,-0.0027536,0.010377,-0.00013867,0,0,0.035058,-0.01707,0,-0.00036053,0,0,0,0.037345,-0.0027541,0.010377,-0.19813,0.01499,0.03541,1.2685e-06,0.42,0.52,0
0.012926,-0.00034868,0.037413,-0.0031256,0.010286,-0.00013609,0,0,0.035265,-0.017436,0,-0.00035383,0,0,0,0.037414,-0.0031261,0.010286,-0.19234,0.014858,0.035772,1.2858e-06,0.43,0.52,0
0.013279,-0.00035592,0.037481,-0.0034946,0.010196,-0.00013342,0,0,0.03547,-0.017798,0,-0.00034688,0,0,0,0.037481,-0.003495,0.010196,-0.18655,0.014727,0.036131,1.3027e-06,0.44,0.52,0
0.013635,-0.00036309,0.037546,-0.0038602,0.010106,-0.00013059,0,0,0.035673,-0.018156,0,-0.00033953,0,0,0,0.037547,-0.0038607,0.010106,-0.1807,0.014597,0.036487,1.3192e-06,0.45,0.52,0
0.013993,-0.00037018,0.037611,-0.0042223,0.010016,-0.00012756,0,0,0.035873,-0.01851,0,-0.00033166,0,0,0,0.037611,-0.0042227,0.010016,-0.17471,0.014468,0.036839,1.3352e-06,0.46,0.52,0
0.014353,-0.00037718,0.037674,-0.0045804,0.009928,-0.00012429,0,0,0.036069,-0.018861,0,-0.00032314,0,0,0,0.037674,-0.0045808,0.009928,-0.16853,0.01434,0.037187,1.3507e-06,0.47,0.52,0
0.014714,-0.00038409,0.037735,-0.0049342,0.0098402,-0.00012071,0,0,0.036263,-0.019207,0,-0.00031385,0,0,0,0.037735,-0.0049345,0.0098402,-0.16209,0.014214,0.037531,1.3657e-06,0.48,0.52,0
0.015078,-0.0003909,0.037794,-0.0052832,0.0097532,-0.00011679,0,0,0.036453,-0.019547,0,-0.00030365,0,0,0,0.037794,-0.0052835,0.0097532,-0.15534,0.014088,0.037869,1.3802e-06,0.49,0.52,0
0.015443,-0.0003976,0.037838,-0.0001704,0.0113,-0.00011288,0,0,0.050724,-0.019883,0,-0.00043771,0,0,0,0.037838,-0.00017074,0.0113,-0.17324,0.016323,0.033837,1.2063e-06,0.5,0.52,0
0.016092,-0.00040709,0.037907,0.0050609,0.01289,-0.00010972,0,0,0.065044,-0.020357,0,-0.00057054,0,0,0,0.037907,0.0050605,0.01289,-0.19139,0.01862,0.029716,1.0389e-06,0.51,0.52,0
0.016744,-0.0004164,0.037961,0.0048282,0.012837,-0.0001068,0,0,0.065323,-0.020822,0,-0.00055538,0,0,0,0.037962,0.0048279,0.012837,-0.18469,0.018542,0.029944,1.0535e-06,0.52,0.52,0
0.017399,-0.00042553,0.038014,0.0045998,0.012784,-0.00010378,0,0,0.065597,-0.021279,0,-0.00053965,0,0,0,0.038014,0.0045994,0.012784,-0.17795,0.018466,0.030167,1.0679e-06,0.53,0.52,0
0.018056,-0.00043448,0.038065,0.0043757,0.012732,-0.00010064,0,0,0.065865,-0.021727,0,-0.00052333,0,0,0,0.038065,0.0043754,0.012732,-0.17116,0.018391,0.030386,1.0819e-06,0.54,0.52,0
0.018716,-0.00044324,0.038114,0.0041562,0.012681,-9.7391e-05,0,0,0.066126,-0.022165,0,-0.00050644,0,0,0,0.038115,0.0041559,0.012681,-0.16432,0.018317,0.0306,1.0956e-06,0.55,0.52,0
0.019379,-0.0004518,0.038162,0.0039414,0.012631,-9.4032e-05,0,0,0.066381,-0.022593,0,-0.00048897,0,0,0,0.038162,0.0039411,0.012631,-0.15744,0.018245,0.03081,1.1089e-06,0.56,0.52,0
0.020044,-0.00046016,0.038208,0.0037314,0.012582,-9.0569e-05,0,0,0.066628,-0.023011,0,-0.00047096,0,0,0,0.038208,0.0037311,0.012582,-0.15051,0.018174,0.031014,1.1219e-06,0.57,0.52,0
0.020711,-0.00046832,0.038253,0.0035264,0.012534,-8.701e-05,0,0,0.066869,-0.023419,0,-0.00045245,0,0,0,0.038253,0.0035262,0.012534,-0.14356,0.018104,0.031213,1.1345e-06,0.58,0.52,0
0.021381,-0.00047625,0.038295,0.0033265,0.012486,-8.3365e-05,0,0,0.067102,-0.023816,0,-0.0004335,0,0,0,0.038295,0.0033263,0.012486,-0.13659,0.018036,0.031407,1.1467e-06,0.59,0.52,0
0.022053,-0.00048397,0.038336,0.0031318,0.01244,-7.9647e-05,0,0,0.067328,-0.024202,0,-0.00041416,0,0,0,0.038336,0.0031317,0.01244,-0.12963,0.017969,0.031596,1.1585e-06,0.6,0.52,0
0.022728,-0.00049147,0.038374,0.0029425,0.012395,-7.5869e-05,0,0,0.067546,-0.024577,0,-0.00039452,0,0,0,0.038375,0.0029424,0.012395,-0.12268,0.017904,0.031779,1.1699e-06,0.61,0.52,0
0.023404,-0.00049874,0.038411,0.0027587,0.012351,-7.2047e-05,0,0,0.067757,-0.02494,0,-0.00037465,0,0,0,0.038412,0.0027585,0.012351,-0.11578,0.01784,0.031955,1.1809e-06,0.62,0.52,0
0.024083,-0.00050578,0.038446,0.0025803,0.012308,-6.8198e-05,0,0,0.06796,-0.025292,0,-0.00035463,0,0,0,0.038447,0.0025802,0.012308,-0.10895,0.017778,0.032127,1.1914e-06,0.63,0.52,0
0.024764,-0.00051258,0.038479,0.0024076,0.012266,-6.4339e-05,0,0,0.068155,-0.025632,0,-0.00033456,0,0,0,0.03848,0.0024075,0.012266,-0.10219,0.017718,0.032292,1.2015e-06,0.64,0.52,0
0.025446,-0.00051915,0.038511,0.0022405,0.012225,-6.0486e-05,0,0,0.068342,-0.025961,0,-0.00031453,0,0,0,0.038511,0.0022404,0.012225,-0.095549,0.017659,0.032451,1.2112e-06,0.65,0.52,0
0.02613,-0.00052548,0.03854,0.0020791,0.012186,-5.6658e-05,0,0,0.068521,-0.026277,0,-0.00029462,0,0,0,0.03854,0.002079,0.012186,-0.089034,0.017601,0.032604,1.2205e-06,0.66,0.52,0
0.026816,-0.00053158,0.038567,0.0019234,0.012147,-5.2872e-05,0,0,0.068692,-0.026582,0,-0.00027493,0,0,0,0.038567,0.0019233,0.012147,-0.082669,0.017546,0.032752,1.2293e-06,0.67,0.52,0
0.027504,-0.00053744,0.038593,0.0017734,0.01211,-4.9144e-05,0,0,0.068855,-0.026875,0,-0.00025555,0,0,0,0.038593,0.0017734,0.01211,-0.076475,0.017492,0.032893,1.2377e-06,0.68,0.52,0
0.028193,-0.00054306,0.038616,0.0016292,0.012074,-4.5492e-05,0,0,0.069011,-0.027155,0,-0.00023656,0,0,0,0.038616,0.0016292,0.012074,-0.070471,0.01744,0.033028,1.2457e-06,0.69,0.52,0
0.028884,-0.00054845,0.038638,0.0014907,0.012039,-4.193e-05,0,0,0.069158,-0.027425,0,-0.00021804,0,0,0,0.038638,0.0014907,0.012039,-0.064673,0.017389,0.033157,1.2533e-06,0.7,0.52,0
0.029577,-0.0005536,0.038658,0.0013579,0.012005,-3.8473e-05,0,0,0.069298,-0.027682,0,-0.00020006,0,0,0,0.038658,0.0013579,0.012005,-0.059098,0.01734,0.03328,1.2604e-06,0.71,0.52,0
0.03027,-0.00055852,0.038676,0.0012308,0.011972,-3.5134e-05,0,0,0.069431,-0.027928,0,-0.00018269,0,0,0,0.038676,0.0012307,0.011972,-0.053758,0.017293,0.033397,1.2672e-06,0.72,0.52,0
0.030965,-0.00056321,0.038693,0.0011092,0.011941,-3.1924e-05,0,0,0.069556,-0.028162,0,-0.000166,0,0,0,0.038693,0.0011092,0.011941,-0.048667,0.017248,0.033508,1.2735e-06,0.73,0.52,0
0.031662,-0.00056767,0.038708,0.00099322,0.01191,-2.8853e-05,0,0,0.069674,-0.028385,0,-0.00015003,0,0,0,0.038708,0.0009932,0.01191,-0.043833,0.017204,0.033613,1.2795e-06,0.74,0.52,0
0.032359,-0.00057191,0.038722,0.0008827,0.011881,-2.593e-05,0,0,0.069785,-0.028597,0,-0.00013484,0,0,0,0.038722,0.00088268,0.011881,-0.039264,0.017162,0.033713,1.2851e-06,0.75,0.52,0
0.033057,-0.00057594,0.038734,0.00077758,0.011853,-2.3164e-05,0,0,0.069889,-0.028797,0,-0.00012045,0,0,0,0.038734,0.00077756,0.011853,-0.034966,0.017122,0.033808,1.2903e-06,0.76,0.52,0
0.033757,-0.00057974,0.038745,0.00067777,0.011827,-2.0558e-05,0,0,0.069987,-0.028987,0,-0.0001069,0,0,0,0.038745,0.00067776,0.011827,-0.030943,0.017083,0.033897,1.2952e-06,0.77,0.52,0
0.034457,-0.00058334,0.038754,0.0005832,0.011801,-1.8119e-05,0,0,0.070078,-0.029167,0,-9.4217e-05,0,0,0,0.038755,0.00058319,0.011801,-0.027196,0.017046,0.033981,1.2997e-06,0.78,0.52,0
0.035158,-0.00058674,0.038763,0.00049375,0.011777,-1.5847e-05,0,0,0.070164,-0.029337,0,-8.2406e-05,0,0,0,0.038763,0.00049375,0.011777,-0.023726,0.017011,0.034059,1.3039e-06,0.79,0.52,0
0.03586,-0.00058993,0.03877,0.00040935,0.011754,-1.3746e-05,0,0,0.070243,-0.029496,0,-7.1478e-05,0,0,0,0.03877,0.00040934,0.011754,-0.020531,0.016978,0.034133,1.3078e-06,0.8,0.52,0
0.036563,-0.00059293,0.038777,0.00032988,0.011732,-1.1814e-05,0,0,0.070316,-0.029645,0,-6.1434e-05,0,0,0,0.038777,0.00032988,0.011732,-0.017606,0.016946,0.034202,1.3114e-06,0.81,0.52,0
0.037267,-0.00059574,0.038782,0.00025525,0.011711,-1.0051e-05,0,0,0.070384,-0.029785,0,-5.2266e-05,0,0,0,0.038782,0.00025525,0.011711,-0.014948,0.016916,0.034266,1.3148e-06,0.82,0.52,0
0.037971,-0.00059836,0.038787,0.00018535,0.011692,-8.454e-06,0,0,0.070447,-0.029916,0,-4.3961e-05,0,0,0,0.038787,0.00018535,0.011692,-0.012548,0.016888,0.034326,1.3178e-06,0.83,0.52,0
0.038676,-0.0006008,0.03879,0.00012009,0.011673,-7.0193e-06,0,0,0.070505,-0.030038,0,-3.6501e-05,0,0,0,0.03879,0.00012008,0.011673,-0.0104,0.016861,0.034382,1.3206e-06,0.84,0.52,0
0.039381,-0.00060306,0.038794,5.9354e-05,0.011656,-5.7424e-06,0,0,0.070558,-0.030151,0,-2.986e-05,0,0,0,0.038794,5.9353e-05,0.011656,-0.0084941,0.016836,0.034433,1.3232e-06,0.85,0.52,0
0.040087,-0.00060516,0.038796,3.0561e-06,0.01164,-4.6174e-06,0,0,0.070607,-0.030256,0,-2.4011e-05,0,0,0,0.038796,3.0556e-06,0.01164,-0.0068197,0.016813,0.03448,1.3255e-06,0.86,0.52,0
0.040793,-0.00060709,0.038798,-4.8901e-05,0.011625,-3.6379e-06,0,0,0.070651,-0.030352,0,-1.8917e-05,0,0,0,0.038798,-4.8902e-05,0.011625,-0.0053656,0.016791,0.034524,1.3276e-06,0.87,0.52,0
0.0415,-0.00060885,0.0388,-9.6611e-05,0.011611,-2.7965e-06,0,0,0.070691,-0.03044,0,-1.4542e-05,0,0,0,0.0388,-9.6611e-05,0.011611,-0.0041194,0.016771,0.034563,1.3295e-06,0.88,0.52,0
0.042207,-0.00061046,0.038801,-0.00014016,0.011598,-2.0851e-06,0,0,0.070727,-0.03052,0,-1.0842e-05,0,0,0,0.038801,-0.00014016,0.011598,-0.0030679,0.016753,0.034599,1.3312e-06,0.89,0.52,0
0.042914,-0.00061191,0.038802,-0.00017963,0.011587,-1.4948e-06,0,0,0.07076,-0.030592,0,-7.7732e-06,0,0,0,0.038802,-0.00017963,0.011587,-0.0021972,0.016736,0.034631,1.3327e-06,0.9,0.52,0
0.043622,-0.00061322,0.038802,-0.00021509,0.011576,-1.0165e-06,0,0,0.070788,-0.030657,0,-5.2857e-06,0,0,0,0.038802,-0.00021509,0.011576,-0.0014927,0.016721,0.03466,1.3341e-06,0.91,0.52,0
0.04433,-0.00061438,0.038803,-0.00024663,0.011567,-6.4014e-07,0,0,0.070814,-0.030715,0,-3.3287e-06,0,0,0,0.038803,-0.00024663,0.011567,-0.00093925,0.016708,0.034686,1.3353e-06,0.92,0.52,0
0.045038,-0.00061539,0.038803,-0.0002743,0.011559,-3.5552e-07,0,0,0.070836,-0.030766,0,-1.8487e-06,0,0,0,0.038803,-0.0002743,0.011559,-0.00052126,0.016696,0.034708,1.3363e-06,0.93,0.52,0
0.045747,-0.00061626,0.038803,-0.00029816,0.011551,-1.5194e-07,0,0,0.070854,-0.030809,0,-7.9008e-07,0,0,0,0.038803,-0.00029816,0.011551,-0.00022264,0.016685,0.034727,1.3372e-06,0.94,0.52,0
0.046455,-0.000617,0.038803,-0.00031826,0.011546,-1.8404e-08,0,0,0.07087,-0.030846,0,-9.57e-08,0,0,0,0.038803,-0.00031826,0.011546,-2.6954e-05,0.016677,0.034743,1.3379e-06,0.95,0.52,0
0.047164,-0.00061759,0.038803,-0.00033464,0.011541,5.6362e-08,0,0,0.070883,-0.030876,0,2.9308e-07,0,0,0,0.038803,-0.00033464,0.011541,8.2512e-05,0.01667,0.034757,1.3385e-06,0.96,0.52,0
0.047873,-0.00061806,0.038803,-0.00034735,0.011537,8.3857e-08,0,0,0.070893,-0.030899,0,4.3606e-07,0,0,0,0.038803,-0.00034735,0.011537,0.00012272,0.016664,0.034767,1.3389e-06,0.97,0.52,0
0.048582,-0.00061839,0.038803,-0.00035641,0.011534,7.5749e-08,0,0,0.0709,-0.030915,0,3.9389e-07,0,0,0,0.038803,-0.00035641,0.011534,0.00011083,0.01666,0.034774,1.3393e-06,0.98,0.52,0
0.049291,-0.00061859,0.038803,-0.00036183,0.011532,4.3836e-08,0,0,0.070904,-0.030925,0,2.2795e-07,0,0,0,0.038803,-0.00036183,0.011532,6.413e-05,0.016658,0.034778,1.3394e-06,0.99,0.52,0
0.05,-0.00061865,0.038803,-0.00036364,0.011532,-1.2654e-06,0,0,0.070905,-0.030928,0,-6.5802e-06,0,0,0,0.038803,-0.00036364,0.011532,-0.0018511,0.016657,0.03478,1.3395e-06,1,0.52,0
0,0,0.03277,0.014044,0.014044,-0.00043353,0,0,0.024344,1.6263e-19,0,-0.0011272,0,0,0,0.03278,0.014034,0.014044,-1.3255,0.020286,0.018741,3.3806e-07,0,0.53,0
0.00024344,-1.1272e-05,0.032735,0.013615,0.013905,-0.00043407,0,0,0.024479,-0.00037692,0,-0.0011286,0,0,0,0.032745,0.013605,0.013905,-1.2998,0.020085,0.018992,3.5152e-07,0.01,0.53,0
0.00048958,-2.2803e-05,0.032881,0.013254,0.013841,-0.00043889,0,0,0.024753,-0.00076253,0,-0.0011411,0,0,0,0.032891,0.013244,0.013841,-1.2804,0.019992,0.019356,3.7123e-07,0.02,0.53,0
0.00073849,-3.4573e-05,0.033028,0.012885,0.013774,-0.00044259,0,0,0.025031,-0.0011561,0,-0.0011507,0,0,0,0.033038,0.012875,0.013774,-1.2581,0.019895,0.019729,3.9165e-07,0.03,0.53,0
0.0009902,-4.6561e-05,0.033176,0.012507,0.013705,-0.00044514,0,0,0.025313,-0.001557,0,-0.0011574,0,0,0,0.033186,0.012498,0.013705,-1.2332,0.019796,0.020112,4.1273e-07,0.04,0.53,0
0.0012447,-5.8745e-05,0.033325,0.012124,0.013635,-0.00044653,0,0,0.025598,-0.0019644,0,-0.001161,0,0,0,0.033335,0.012114,0.013635,-1.206,0.019695,0.020503,4.3444e-07,0.05,0.53,0
0.0015022,-7.1103e-05,0.033474,0.011733,0.013562,-0.00044675,0,0,0.025886,-0.0023776,0,-0.0011616,0,0,0,0.033484,0.011724,0.013562,-1.1767,0.01959,0.020901,4.5674e-07,0.06,0.53,0
0.0017625,-8.3613e-05,0.033623,0.011338,0.013488,-0.00044583,0,0,0.026176,-0.0027959,0,-0.0011592,0,0,0,0.033632,0.011329,0.013488,-1.1456,0.019483,0.021306,4.7957e-07,0.07,0.53,0
0.0020257,-9.6253e-05,0.033772,0.010937,0.013413,-0.0004438,0,0,0.026467,-0.0032184,0,-0.0011539,0,0,0,0.03378,0.010928,0.013413,-1.113,0.019374,0.021717,5.0289e-07,0.08,0.53,0
0.0022918,-0.000109,0.033919,0.010532,0.013335,-0.00044068,0,0,0.026759,-0.0036444,0,-0.0011458,0,0,0,0.033928,0.010524,0.013335,-1.0791,0.019262,0.022132,5.2664e-07,0.09,0.53,0
0.0025608,-0.00012184,0.034066,0.010123,0.013257,-0.00043653,0,0,0.027051,-0.0040733,0,-0.001135,0,0,0,0.034073,0.010115,0.013257,-1.0442,0.019149,0.022552,5.5076e-07,0.1,0.53,0
0.0028328,-0.00013474,0.03421,0.0097118,0.013177,-0.00043142,0,0,0.027344,-0.0045043,0,-0.0011217,0,0,0,0.034218,0.0097042,0.013177,-1.0086,0.019033,0.022975,5.7519e-07,0.11,0.53,0
0.0031077,-0.00014769,0.034353,0.0092977,0.013095,-0.00042542,0,0,0.027635,-0.0049367,0,-0.0011061,0,0,0,0.03436,0.0092905,0.013095,-0.97245,0.018915,0.023401,5.9988e-07,0.12,0.53,0
0.0033855,-0.00016066,0.034494,0.0088818,0.013013,-0.00041859,0,0,0.027925,-0.0053701,0,-0.0010883,0,0,0,0.0345,0.008875,0.013013,-0.9361,0.018796,0.023828,6.2477e-07,0.13,0.53,0
0.0036662,-0.00017365,0.034632,0.0084645,0.012929,-0.00041104,0,0,0.028214,-0.0058036,0,-0.0010687,0,0,0,0.034638,0.0084581,0.012929,-0.89973,0.018675,0.024256,6.4979e-07,0.14,0.53,0
0.0039498,-0.00018664,0.034767,0.0080464,0.012844,-0.00040286,0,0,0.0285,-0.0062369,0,-0.0010474,0,0,0,0.034773,0.0080403,0.012844,-0.86357,0.018552,0.024684,6.749e-07,0.15,0.53,0
0.0042362,-0.0001996,0.0349,0.0076279,0.012758,-0.00039413,0,0,0.028784,-0.0066695,0,-0.0010247,0,0,0,0.034905,0.0076222,0.012758,-0.82781,0.018429,0.025112,7.0004e-07,0.16,0.53,0
0.0045255,-0.00021254,0.035029,0.0072093,0.012672,-0.00038497,0,0,0.029065,-0.0071009,0,-0.0010009,0,0,0,0.035035,0.007204,0.012672,-0.79265,0.018303,0.025539,7.2515e-07,0.17,0.53,0
0.0048175,-0.00022543,0.035155,0.0067912,0.012584,-0.00037546,0,0,0.029343,-0.0075307,0,-0.00097618,0,0,0,0.03516,0.0067862,0.012584,-0.75824,0.018177,0.025965,7.502e-07,0.18,0.53,0
0.0051123,-0.00023826,0.035279,0.0063737,0.012496,-0.0003657,0,0,0.029618,-0.0079585,0,-0.00095083,0,0,0,0.035283,0.0063691,0.012496,-0.72475,0.018049,0.02639,7.7512e-07,0.19,0.53,0
0.0054099,-0.00025104,0.035398,0.0059572,0.012407,-0.0003558,0,0,0.029889,-0.0083842,0,-0.00092509,0,0,0,0.035403,0.005953,0.012407,-0.6923,0.017921,0.026812,7.999e-07,0.2,0.53,0
0.0057101,-0.00026374,0.035515,0.005542,0.012317,-0.00034585,0,0,0.030157,-0.0088075,0,-0.00089921,0,0,0,0.035519,0.005538,0.012317,-0.66101,0.017791,0.027231,8.2448e-07,0.21,0.53,0
0.006013,-0.00027637,0.035628,0.0051282,0.012227,-0.00033593,0,0,0.030421,-0.0092282,0,-0.00087343,0,0,0,0.035631,0.0051245,0.012227,-0.63097,0.017661,0.027649,8.4883e-07,0.22,0.53,0
0.0063185,-0.00028892,0.035737,0.0047159,0.012136,-0.00032613,0,0,0.030682,-0.0096461,0,-0.00084795,0,0,0,0.035741,0.0047125,0.012136,-0.60227,0.01753,0.028063,8.7294e-07,0.23,0.53,0
0.0066267,-0.00030139,0.035844,0.0043054,0.012045,-0.00031653,0,0,0.030939,-0.010061,0,-0.00082297,0,0,0,0.035847,0.0043022,0.012045,-0.57496,0.017398,0.028474,8.9677e-07,0.24,0.53,0
0.0069373,-0.00031378,0.035947,0.0038967,0.011953,-0.00030718,0,0,0.031192,-0.010473,0,-0.00079867,0,0,0,0.03595,0.0038937,0.011953,-0.54907,0.017266,0.028883,9.203e-07,0.25,0.53,0
0.0072505,-0.00032607,0.036047,0.0034898,0.011861,-0.00029815,0,0,0.031442,-0.010883,0,-0.0007752,0,0,0,0.03605,0.0034871,0.011861,-0.52465,0.017133,0.029288,9.4352e-07,0.26,0.53,0
0.0075662,-0.00033829,0.036144,0.0030849,0.011769,-0.0002895,0,0,0.031688,-0.011289,0,-0.0007527,0,0,0,0.036147,0.0030824,0.011769,-0.50168,0.016999,0.02969,9.6642e-07,0.27,0.53,0
0.0078843,-0.00035042,0.036239,0.0026819,0.011676,-0.00028125,0,0,0.031931,-0.011693,0,-0.00073126,0,0,0,0.036241,0.0026795,0.011676,-0.48017,0.016866,0.030089,9.8899e-07,0.28,0.53,0
0.0082048,-0.00036246,0.03633,0.0022808,0.011583,-0.00027345,0,0,0.032171,-0.012093,0,-0.00071096,0,0,0,0.036332,0.0022786,0.011583,-0.46009,0.016731,0.030486,1.0112e-06,0.29,0.53,0
0.0085277,-0.00037443,0.036419,0.0018817,0.01149,-0.0002661,0,0,0.032408,-0.012491,0,-0.00069185,0,0,0,0.036422,0.0018796,0.01149,-0.4414,0.016597,0.030879,1.0331e-06,0.3,0.53,0
0.0088529,-0.00038631,0.036506,0.0014844,0.011397,-0.00025922,0,0,0.032642,-0.012887,0,-0.00067396,0,0,0,0.036508,0.0014825,0.011397,-0.42405,0.016463,0.03127,1.0546e-06,0.31,0.53,0
0.0091805,-0.00039812,0.036591,0.0010891,0.011304,-0.0002528,0,0,0.032873,-0.013279,0,-0.00065728,0,0,0,0.036593,0.0010873,0.011304,-0.40797,0.016328,0.031658,1.0758e-06,0.32,0.53,0
0.0095104,-0.00040985,0.036673,0.00069563,0.011211,-0.00024684,0,0,0.033101,-0.013669,0,-0.00064179,0,0,0,0.036675,0.00069394,0.011211,-0.39308,0.016193,0.032044,1.0967e-06,0.33,0.53,0
0.0098425,-0.00042151,0.036754,0.00030405,0.011117,-0.00024132,0,0,0.033327,-0.014057,0,-0.00062743,0,0,0,0.036755,0.00030245,0.011117,-0.37931,0.016058,0.032427,1.1172e-06,0.34,0.53,0
0.010177,-0.00043309,0.036833,-8.5663e-05,0.011024,-0.0002362,0,0,0.033551,-0.014443,0,-0.00061411,0,0,0,0.036834,-8.7174e-05,0.011024,-0.36655,0.015924,0.032808,1.1374e-06,0.35,0.53,0
0.010514,-0.0004446,0.03691,-0.00047348,0.010931,-0.00023144,0,0,0.033773,-0.014826,0,-0.00060175,0,0,0,0.036911,-0.00047491,0.010931,-0.3547,0.015789,0.033187,1.1572e-06,0.36,0.53,0
0.010852,-0.00045604,0.036985,-0.00085936,0.010838,-0.00022701,0,0,0.033992,-0.015206,0,-0.00059022,0,0,0,0.036987,-0.00086072,0.010838,-0.34366,0.015655,0.033564,1.1766e-06,0.37,0.53,0
0.011193,-0.0004674,0.03706,-0.0012432,0.010745,-0.00022284,0,0,0.034209,-0.015585,0,-0.00057937,0,0,0,0.037061,-0.0012446,0.010745,-0.33331,0.01552,0.033938,1.1958e-06,0.38,0.53,0
0.011537,-0.00047869,0.037133,-0.0016251,0.010652,-0.00021887,0,0,0.034425,-0.015961,0,-0.00056907,0,0,0,0.037134,-0.0016263,0.010652,-0.32355,0.015387,0.03431,1.2145e-06,0.39,0.53,0
0.011882,-0.00048991,0.037205,-0.0020047,0.01056,-0.00021505,0,0,0.034638,-0.016334,0,-0.00055913,0,0,0,0.037206,-0.0020059,0.01056,-0.31424,0.015253,0.03468,1.2329e-06,0.4,0.53,0
0.012229,-0.00050104,0.037275,-0.002382,0.010468,-0.0002113,0,0,0.034849,-0.016705,0,-0.00054939,0,0,0,0.037276,-0.0023831,0.010468,-0.30528,0.01512,0.035048,1.251e-06,0.41,0.53,0
0.012579,-0.00051209,0.037344,-0.0027568,0.010376,-0.00020756,0,0,0.035058,-0.017073,0,-0.00053964,0,0,0,0.037345,-0.0027579,0.010376,-0.29654,0.014988,0.035413,1.2686e-06,0.42,0.53,0
0.01293,-0.00052305,0.037412,-0.0031289,0.010285,-0.00020373,0,0,0.035265,-0.017438,0,-0.00052971,0,0,0,0.037413,-0.0031299,0.010285,-0.28792,0.014856,0.035775,1.2859e-06,0.43,0.53,0
0.013284,-0.0005339,0.037479,-0.003498,0.010194,-0.00019976,0,0,0.03547,-0.0178,0,-0.00051938,0,0,0,0.03748,-0.0034989,0.010194,-0.27931,0.014725,0.036134,1.3027e-06,0.44,0.53,0
0.01364,-0.00054466,0.037545,-0.0038639,0.010104,-0.00019557,0,0,0.035673,-0.018159,0,-0.00050847,0,0,0,0.037546,-0.0038648,0.010104,-0.27059,0.014595,0.03649,1.3192e-06,0.45,0.53,0
0.013998,-0.00055529,0.037609,-0.0042262,0.010015,-0.00019107,0,0,0.035872,-0.018513,0,-0.00049677,0,0,0,0.037609,-0.0042271,0.010015,-0.26167,0.014466,0.036842,1.3351e-06,0.46,0.53,0
0.014357,-0.0005658,0.037671,-0.0045846,0.009926,-0.00018619,0,0,0.036069,-0.018864,0,-0.0004841,0,0,0,0.037672,-0.0045854,0.009926,-0.25245,0.014337,0.03719,1.3506e-06,0.47,0.53,0
0.014719,-0.00057617,0.037732,-0.0049388,0.009838,-0.00018087,0,0,0.036262,-0.01921,0,-0.00047025,0,0,0,0.037733,-0.0049396,0.009838,-0.24285,0.01421,0.037533,1.3656e-06,0.48,0.53,0
0.015083,-0.00058639,0.037791,-0.0052883,0.0097509,-0.00017502,0,0,0.036452,-0.019551,0,-0.00045505,0,0,0,0.037792,-0.005289,0.0097509,-0.23277,0.014085,0.037871,1.3801e-06,0.49,0.53,0
0.015448,-0.00059644,0.037835,-0.00017496,0.011298,-0.00016919,0,0,0.050723,-0.019887,0,-0.00065606,0,0,0,0.037836,-0.00017572,0.011298,-0.25964,0.016319,0.033838,1.2063e-06,0.5,0.53,0
0.016097,-0.00061067,0.037904,0.0050573,0.012888,-0.00016446,0,0,0.065041,-0.020361,0,-0.00085521,0,0,0,0.037905,0.0050565,0.012888,-0.28687,0.018617,0.029717,1.0388e-06,0.51,0.53,0
0.016749,-0.00062464,0.037958,0.0048245,0.012835,-0.0001601,0,0,0.065321,-0.020827,0,-0.00083252,0,0,0,0.037959,0.0048237,0.012835,-0.27684,0.018539,0.029944,1.0535e-06,0.52,0.53,0
0.017403,-0.00063834,0.038011,0.0045959,0.012782,-0.00015557,0,0,0.065594,-0.021284,0,-0.00080896,0,0,0,0.038011,0.0045952,0.012782,-0.26675,0.018463,0.030168,1.0678e-06,0.53,0.53,0
0.018061,-0.00065177,0.038061,0.0043717,0.01273,-0.00015087,0,0,0.065862,-0.021731,0,-0.00078452,0,0,0,0.038062,0.004371,0.01273,-0.25657,0.018388,0.030387,1.0818e-06,0.54,0.53,0
0.018721,-0.00066491,0.038111,0.0041521,0.012679,-0.000146,0,0,0.066123,-0.02217,0,-0.00075918,0,0,0,0.038111,0.0041514,0.012679,-0.24632,0.018314,0.030601,1.0955e-06,0.55,0.53,0
0.019383,-0.00067775,0.038158,0.0039371,0.012629,-0.00014096,0,0,0.066378,-0.022598,0,-0.00073298,0,0,0,0.038159,0.0039365,0.012629,-0.236,0.018241,0.03081,1.1088e-06,0.56,0.53,0
0.020048,-0.0006903,0.038205,0.003727,0.012579,-0.00013576,0,0,0.066625,-0.023016,0,-0.00070596,0,0,0,0.038205,0.0037265,0.012579,-0.22561,0.01817,0.031015,1.1218e-06,0.57,0.53,0
0.020716,-0.00070252,0.038249,0.0035219,0.012531,-0.00013042,0,0,0.066866,-0.023424,0,-0.00067818,0,0,0,0.038249,0.0035214,0.012531,-0.21517,0.018101,0.031214,1.1343e-06,0.58,0.53,0
0.021386,-0.00071443,0.038291,0.0033219,0.012484,-0.00012495,0,0,0.067099,-0.023821,0,-0.00064972,0,0,0,0.038292,0.0033214,0.012484,-0.20472,0.018032,0.031408,1.1465e-06,0.59,0.53,0
0.022058,-0.00072601,0.038332,0.0031271,0.012438,-0.00011936,0,0,0.067325,-0.024207,0,-0.00062068,0,0,0,0.038332,0.0031267,0.012438,-0.19426,0.017965,0.031596,1.1583e-06,0.6,0.53,0
0.022732,-0.00073726,0.038371,0.0029378,0.012393,-0.00011369,0,0,0.067543,-0.024582,0,-0.00059118,0,0,0,0.038371,0.0029374,0.012393,-0.18383,0.0179,0.031779,1.1697e-06,0.61,0.53,0
0.023409,-0.00074816,0.038407,0.0027538,0.012348,-0.00010795,0,0,0.067753,-0.024946,0,-0.00056133,0,0,0,0.038408,0.0027535,0.012348,-0.17347,0.017837,0.031956,1.1807e-06,0.62,0.53,0
0.024087,-0.00075872,0.038442,0.0025755,0.012305,-0.00010217,0,0,0.067956,-0.025298,0,-0.00053126,0,0,0,0.038442,0.0025752,0.012305,-0.1632,0.017774,0.032127,1.1912e-06,0.63,0.53,0
0.024768,-0.00076892,0.038475,0.0024027,0.012263,-9.6368e-05,0,0,0.068151,-0.025638,0,-0.00050111,0,0,0,0.038475,0.0024025,0.012263,-0.15307,0.017714,0.032292,1.2013e-06,0.64,0.53,0
0.02545,-0.00077878,0.038506,0.0022357,0.012223,-9.058e-05,0,0,0.068337,-0.025966,0,-0.00047102,0,0,0,0.038506,0.0022354,0.012223,-0.14309,0.017655,0.032451,1.211e-06,0.65,0.53,0
0.026134,-0.00078828,0.038535,0.0020743,0.012183,-8.483e-05,0,0,0.068516,-0.026282,0,-0.00044111,0,0,0,0.038535,0.0020741,0.012183,-0.1333,0.017597,0.032604,1.2202e-06,0.66,0.53,0
0.026821,-0.00079742,0.038562,0.0019187,0.012144,-7.9143e-05,0,0,0.068687,-0.026587,0,-0.00041154,0,0,0,0.038562,0.0019185,0.012144,-0.12375,0.017542,0.032751,1.229e-06,0.67,0.53,0
0.027508,-0.0008062,0.038588,0.0017688,0.012107,-7.3545e-05,0,0,0.06885,-0.026879,0,-0.00038243,0,0,0,0.038588,0.0017687,0.012107,-0.11445,0.017488,0.032892,1.2374e-06,0.68,0.53,0
0.028197,-0.00081463,0.038611,0.0016247,0.012071,-6.8061e-05,0,0,0.069005,-0.02716,0,-0.00035392,0,0,0,0.038611,0.0016246,0.012071,-0.10543,0.017435,0.033027,1.2454e-06,0.69,0.53,0
0.028888,-0.00082271,0.038633,0.0014863,0.012036,-6.2713e-05,0,0,0.069152,-0.027428,0,-0.00032611,0,0,0,0.038633,0.0014862,0.012036,-0.09673,0.017385,0.033155,1.2529e-06,0.7,0.53,0
0.02958,-0.00083043,0.038652,0.0013537,0.012002,-5.7523e-05,0,0,0.069292,-0.027685,0,-0.00029912,0,0,0,0.038652,0.0013536,0.012002,-0.088362,0.017336,0.033278,1.26e-06,0.71,0.53,0
0.030274,-0.0008378,0.038671,0.0012267,0.011969,-5.251e-05,0,0,0.069424,-0.027931,0,-0.00027306,0,0,0,0.038671,0.0012266,0.011969,-0.08035,0.017289,0.033395,1.2667e-06,0.72,0.53,0
0.030969,-0.00084484,0.038687,0.0011053,0.011938,-4.7693e-05,0,0,0.069548,-0.028164,0,-0.000248,0,0,0,0.038687,0.0011052,0.011938,-0.072711,0.017243,0.033506,1.2731e-06,0.73,0.53,0
0.031665,-0.00085153,0.038702,0.00098947,0.011907,-4.3086e-05,0,0,0.069666,-0.028387,0,-0.00022405,0,0,0,0.038702,0.00098942,0.011907,-0.06546,0.0172,0.033611,1.279e-06,0.74,0.53,0
0.032362,-0.00085788,0.038715,0.00087914,0.011878,-3.8703e-05,0,0,0.069776,-0.028598,0,-0.00020126,0,0,0,0.038715,0.0008791,0.011878,-0.058608,0.017158,0.033711,1.2846e-06,0.75,0.53,0
0.033061,-0.00086391,0.038727,0.00077422,0.01185,-3.4554e-05,0,0,0.06988,-0.028798,0,-0.00017968,0,0,0,0.038727,0.00077419,0.01185,-0.052165,0.017117,0.033805,1.2898e-06,0.76,0.53,0
0.03376,-0.00086962,0.038738,0.00067462,0.011824,-3.0649e-05,0,0,0.069977,-0.028988,0,-0.00015937,0,0,0,0.038738,0.00067459,0.011824,-0.046135,0.017079,0.033893,1.2946e-06,0.77,0.53,0
0.03446,-0.00087501,0.038748,0.00058025,0.011798,-2.6992e-05,0,0,0.070068,-0.029167,0,-0.00014036,0,0,0,0.038748,0.00058023,0.011798,-0.04052,0.017042,0.033977,1.2991e-06,0.78,0.53,0
0.035161,-0.0008801,0.038756,0.00049102,0.011774,-2.359e-05,0,0,0.070153,-0.029336,0,-0.00012267,0,0,0,0.038756,0.00049101,0.011774,-0.035322,0.017007,0.034055,1.3033e-06,0.79,0.53,0
0.035863,-0.00088488,0.038763,0.00040683,0.011751,-2.0443e-05,0,0,0.070231,-0.029495,0,-0.0001063,0,0,0,0.038763,0.00040682,0.011751,-0.030537,0.016974,0.034129,1.3072e-06,0.8,0.53,0
0.036566,-0.00088937,0.038769,0.00032758,0.011729,-1.7551e-05,0,0,0.070304,-0.029644,0,-9.1266e-05,0,0,0,0.038769,0.00032757,0.011729,-0.026159,0.016942,0.034197,1.3108e-06,0.81,0.53,0
0.037269,-0.00089358,0.038774,0.00025316,0.011708,-1.4913e-05,0,0,0.070372,-0.029783,0,-7.7548e-05,0,0,0,0.038774,0.00025315,0.011708,-0.022181,0.016912,0.034261,1.3141e-06,0.82,0.53,0
0.037973,-0.00089751,0.038779,0.00018346,0.011689,-1.2525e-05,0,0,0.070434,-0.029914,0,-6.5127e-05,0,0,0,0.038779,0.00018346,0.011689,-0.018593,0.016884,0.034321,1.3171e-06,0.83,0.53,0
0.038678,-0.00090117,0.038782,0.0001184,0.01167,-1.038e-05,0,0,0.070492,-0.030035,0,-5.3977e-05,0,0,0,0.038782,0.0001184,0.01167,-0.015382,0.016857,0.034376,1.3199e-06,0.84,0.53,0
0.039383,-0.00090456,0.038786,5.7862e-05,0.011653,-8.4727e-06,0,0,0.070544,-0.030147,0,-4.4058e-05,0,0,0,0.038786,5.786e-05,0.011653,-0.012535,0.016832,0.034427,1.3224e-06,0.85,0.53,0
0.040089,-0.0009077,0.038788,1.7512e-06,0.011637,-6.7938e-06,0,0,0.070593,-0.030251,0,-3.5328e-05,0,0,0,0.038788,1.75e-06,0.011637,-0.010036,0.016809,0.034474,1.3247e-06,0.86,0.53,0
0.040795,-0.00091058,0.03879,-5.0029e-05,0.011622,-5.3333e-06,0,0,0.070637,-0.030347,0,-2.7733e-05,0,0,0,0.03879,-5.0029e-05,0.011622,-0.0078676,0.016787,0.034517,1.3268e-06,0.87,0.53,0
0.041502,-0.00091323,0.038791,-9.757e-05,0.011608,-4.0802e-06,0,0,0.070676,-0.030435,0,-2.1217e-05,0,0,0,0.038791,-9.757e-05,0.011608,-0.0060114,0.016767,0.034556,1.3287e-06,0.88,0.53,0
0.042209,-0.00091564,0.038792,-0.00014096,0.011595,-3.0222e-06,0,0,0.070712,-0.030515,0,-1.5715e-05,0,0,0,0.038792,-0.00014096,0.011595,-0.0044476,0.016749,0.034592,1.3304e-06,0.89,0.53,0
0.042916,-0.00091782,0.038793,-0.00018028,0.011584,-2.1462e-06,0,0,0.070744,-0.030587,0,-1.116e-05,0,0,0,0.038793,-0.00018028,0.011584,-0.0031552,0.016732,0.034624,1.3319e-06,0.9,0.53,0
0.043623,-0.00091977,0.038794,-0.00021562,0.011573,-1.4381e-06,0,0,0.070773,-0.030652,0,-7.4781e-06,0,0,0,0.038794,-0.00021562,0.011573,-0.0021122,0.016717,0.034653,1.3332e-06,0.91,0.53,0
0.044331,-0.0009215,0.038794,-0.00024703,0.011564,-8.8311e-07,0,0,0.070798,-0.030709,0,-4.5922e-06,0,0,0,0.038794,-0.00024703,0.011564,-0.001296,0.016704,0.034678,1.3344e-06,0.92,0.53,0
0.045039,-0.00092302,0.038794,-0.00027459,0.011556,-4.6576e-07,0,0,0.070819,-0.030759,0,-2.422e-06,0,0,0,0.038794,-0.00027459,0.011556,-0.00068306,0.016692,0.034701,1.3354e-06,0.93,0.53,0
0.045748,-0.00092433,0.038794,-0.00029835,0.011549,-1.7002e-07,0,0,0.070838,-0.030803,0,-8.8411e-07,0,0,0,0.038794,-0.00029835,0.011549,-0.00024919,0.016681,0.03472,1.3362e-06,0.94,0.53,0
0.046456,-0.00092543,0.038794,-0.00031837,0.011543,2.064e-08,0,0,0.070854,-0.030839,0,1.0733e-07,0,0,0,0.038794,-0.00031837,0.011543,3.0235e-05,0.016673,0.034736,1.337e-06,0.95,0.53,0
0.047165,-0.00092632,0.038794,-0.00033469,0.011538,1.2314e-07,0,0,0.070866,-0.030869,0,6.4033e-07,0,0,0,0.038794,-0.00033469,0.011538,0.00018031,0.016666,0.034749,1.3376e-06,0.96,0.53,0
0.047873,-0.00092702,0.038794,-0.00034735,0.011534,1.5473e-07,0,0,0.070876,-0.030891,0,8.046e-07,0,0,0,0.038794,-0.00034735,0.011534,0.0002265,0.01666,0.034759,1.338e-06,0.97,0.53,0
0.048582,-0.00092751,0.038794,-0.00035637,0.011531,1.3292e-07,0,0,0.070883,-0.030908,0,6.9117e-07,0,0,0,0.038794,-0.00035637,0.011531,0.00019452,0.016656,0.034766,1.3383e-06,0.98,0.53,0
0.049291,-0.00092781,0.038794,-0.00036177,0.01153,7.5401e-08,0,0,0.070887,-0.030918,0,3.9208e-07,0,0,0,0.038794,-0.00036177,0.01153,0.00011033,0.016654,0.03477,1.3385e-06,0.99,0.53,0
0.05,-0.00092791,0.038794,-0.00036357,0.011529,-1.8948e-06,0,0,0.070888,-0.030921,0,-9.8529e-06,0,0,0,0.038794,-0.00036357,0.011529,-0.0027725,0.016653,0.034771,1.3386e-06,1,0.53,0
0,0,0.032788,0.014052,0.014052,-0.00057871,0,0,0.024357,5.421e-20,0,-0.0015047,0,0,0,0.032806,0.014034,0.014052,-1.7675,0.020298,0.018763,3.3926e-07,0,0.54,0
0.00024357,-1.5047e-05,0.032753,0.013621,0.013912,-0.00057943,0,0,0.024493,-0.00037825,0,-0.0015065,0,0,0,0.032771,0.013604,0.013912,-1.7331,0.020096,0.019015,3.5278e-07,0.01,0.54,0
0.00048986,-3.044e-05,0.0329,0.013259,0.013848,-0.00058586,0,0,0.024768,-0.00076524,0,-0.0015232,0,0,0,0.032917,0.013241,0.013848,-1.707,0.020002,0.01938,3.7259e-07,0.02,0.54,0
0.00073893,-4.6152e-05,0.033047,0.012888,0.013781,-0.00059078,0,0,0.025047,-0.0011603,0,-0.001536,0,0,0,0.033065,0.012871,0.013781,-1.6772,0.019905,0.019755,3.9311e-07,0.03,0.54,0
0.0009908,-6.2155e-05,0.033196,0.01251,0.013712,-0.00059416,0,0,0.02533,-0.0015626,0,-0.0015448,0,0,0,0.033213,0.012493,0.013712,-1.6439,0.019806,0.020139,4.143e-07,0.04,0.54,0
0.0012455,-7.8419e-05,0.033345,0.012124,0.013641,-0.00059597,0,0,0.025616,-0.0019714,0,-0.0015495,0,0,0,0.033362,0.012108,0.013641,-1.6074,0.019704,0.020531,4.3611e-07,0.05,0.54,0
0.0015031,-9.4915e-05,0.033495,0.011733,0.013568,-0.00059622,0,0,0.025905,-0.002386,0,-0.0015502,0,0,0,0.033511,0.011717,0.013568,-1.5682,0.019599,0.02093,4.5851e-07,0.06,0.54,0
0.0017636,-0.00011161,0.033644,0.011336,0.013494,-0.00059494,0,0,0.026195,-0.0028056,0,-0.0015468,0,0,0,0.03366,0.01132,0.013494,-1.5266,0.019491,0.021336,4.8144e-07,0.07,0.54,0
0.002027,-0.00012848,0.033793,0.010934,0.013418,-0.00059214,0,0,0.026487,-0.0032294,0,-0.0015396,0,0,0,0.033808,0.010918,0.013418,-1.4829,0.019382,0.021748,5.0485e-07,0.08,0.54,0
0.0022934,-0.0001455,0.033941,0.010528,0.01334,-0.00058791,0,0,0.02678,-0.0036567,0,-0.0015286,0,0,0,0.033955,0.010513,0.01334,-1.4375,0.01927,0.022165,5.2868e-07,0.09,0.54,0
0.0025626,-0.00016263,0.034087,0.010118,0.013262,-0.00058228,0,0,0.027073,-0.0040867,0,-0.0015139,0,0,0,0.034101,0.010104,0.013262,-1.3908,0.019156,0.022585,5.5287e-07,0.1,0.54,0
0.0028348,-0.00017984,0.034232,0.0097052,0.013181,-0.00057537,0,0,0.027366,-0.0045188,0,-0.001496,0,0,0,0.034245,0.0096917,0.013181,-1.3431,0.01904,0.023008,5.7737e-07,0.11,0.54,0
0.00311,-0.00019712,0.034375,0.0092901,0.0131,-0.00056725,0,0,0.027658,-0.0049522,0,-0.0014748,0,0,0,0.034388,0.0092773,0.0131,-1.2948,0.018922,0.023434,6.0212e-07,0.12,0.54,0
0.003388,-0.00021443,0.034515,0.0088733,0.013017,-0.00055804,0,0,0.027949,-0.0053863,0,-0.0014509,0,0,0,0.034528,0.0088611,0.013017,-1.2461,0.018802,0.023862,6.2705e-07,0.13,0.54,0
0.0036689,-0.00023176,0.034653,0.0084552,0.012933,-0.00054786,0,0,0.028237,-0.0058206,0,-0.0014244,0,0,0,0.034665,0.0084438,0.012933,-1.1975,0.01868,0.02429,6.5211e-07,0.14,0.54,0
0.0039527,-0.00024908,0.034789,0.0080364,0.012847,-0.00053683,0,0,0.028524,-0.0062545,0,-0.0013958,0,0,0,0.034799,0.0080256,0.012847,-1.1491,0.018558,0.024718,6.7723e-07,0.15,0.54,0
0.0042394,-0.00026637,0.034921,0.0076173,0.012762,-0.00052507,0,0,0.028807,-0.0066874,0,-0.0013652,0,0,0,0.034931,0.0076072,0.012762,-1.1013,0.018433,0.025146,7.0238e-07,0.16,0.54,0
0.0045289,-0.00028362,0.03505,0.0071983,0.012675,-0.00051273,0,0,0.029088,-0.0071191,0,-0.0013331,0,0,0,0.03506,0.0071889,0.012675,-1.0543,0.018308,0.025573,7.2749e-07,0.17,0.54,0
0.0048211,-0.00030081,0.035176,0.0067798,0.012587,-0.00049994,0,0,0.029366,-0.007549,0,-0.0012998,0,0,0,0.035185,0.006771,0.012587,-1.0083,0.018181,0.025998,7.5252e-07,0.18,0.54,0
0.0051162,-0.00031793,0.035298,0.0063621,0.012498,-0.00048682,0,0,0.02964,-0.0079769,0,-0.0012657,0,0,0,0.035307,0.0063539,0.012498,-0.96358,0.018053,0.026422,7.7742e-07,0.19,0.54,0
0.005414,-0.00033496,0.035418,0.0059456,0.012409,-0.00047352,0,0,0.029911,-0.0084024,0,-0.0012312,0,0,0,0.035425,0.0059379,0.012409,-0.92024,0.017924,0.026843,8.0215e-07,0.2,0.54,0
0.0057144,-0.00035189,0.035533,0.0055303,0.012319,-0.00046015,0,0,0.030178,-0.0088254,0,-0.0011964,0,0,0,0.03554,0.0055233,0.012319,-0.87846,0.017794,0.027262,8.2668e-07,0.21,0.54,0
0.0060175,-0.00036873,0.035645,0.0051166,0.012229,-0.00044683,0,0,0.030442,-0.0092456,0,-0.0011618,0,0,0,0.035652,0.00511,0.012229,-0.83837,0.017664,0.027678,8.5097e-07,0.22,0.54,0
0.0063232,-0.00038546,0.035754,0.0047045,0.012138,-0.00043369,0,0,0.030702,-0.0096631,0,-0.0011276,0,0,0,0.03576,0.0046985,0.012138,-0.80007,0.017532,0.028091,8.75e-07,0.23,0.54,0
0.0066316,-0.00040207,0.03586,0.0042943,0.012046,-0.00042081,0,0,0.030958,-0.010078,0,-0.0010941,0,0,0,0.035866,0.0042887,0.012046,-0.76364,0.0174,0.028501,8.9875e-07,0.24,0.54,0
0.0069424,-0.00041858,0.035962,0.0038859,0.011954,-0.00040828,0,0,0.03121,-0.010489,0,-0.0010615,0,0,0,0.035967,0.0038807,0.011954,-0.72913,0.017268,0.028908,9.2219e-07,0.25,0.54,0
0.0072558,-0.00043496,0.036061,0.0034795,0.011862,-0.0003962,0,0,0.031459,-0.010898,0,-0.0010301,0,0,0,0.036066,0.0034747,0.011862,-0.69658,0.017134,0.029312,9.4531e-07,0.26,0.54,0
0.0075716,-0.00045124,0.036157,0.003075,0.01177,-0.00038462,0,0,0.031704,-0.011303,0,-0.001,0,0,0,0.036162,0.0030705,0.01177,-0.666,0.017001,0.029713,9.6811e-07,0.27,0.54,0
0.0078898,-0.0004674,0.036251,0.0026725,0.011677,-0.00037359,0,0,0.031946,-0.011706,0,-0.00097134,0,0,0,0.036255,0.0026683,0.011677,-0.63737,0.016867,0.03011,9.9056e-07,0.28,0.54,0
0.0082105,-0.00048345,0.036341,0.002272,0.011584,-0.00036317,0,0,0.032184,-0.012106,0,-0.00094423,0,0,0,0.036345,0.0022681,0.011584,-0.61066,0.016732,0.030505,1.0127e-06,0.29,0.54,0
0.0085335,-0.00049939,0.036429,0.0018734,0.011491,-0.00035336,0,0,0.03242,-0.012503,0,-0.00091874,0,0,0,0.036433,0.0018697,0.011491,-0.58581,0.016598,0.030897,1.0344e-06,0.3,0.54,0
0.0088589,-0.00051522,0.036515,0.0014767,0.011397,-0.00034419,0,0,0.032653,-0.012897,0,-0.0008949,0,0,0,0.036518,0.0014733,0.011397,-0.56276,0.016463,0.031287,1.0559e-06,0.31,0.54,0
0.0091866,-0.00053095,0.036598,0.0010819,0.011304,-0.00033566,0,0,0.032883,-0.013289,0,-0.00087271,0,0,0,0.036602,0.0010787,0.011304,-0.54142,0.016328,0.031673,1.0769e-06,0.32,0.54,0
0.0095166,-0.00054658,0.03668,0.00068896,0.011211,-0.00032774,0,0,0.03311,-0.013678,0,-0.00085211,0,0,0,0.036683,0.00068598,0.011211,-0.52168,0.016193,0.032058,1.0977e-06,0.33,0.54,0
0.0098488,-0.00056211,0.03676,0.00029788,0.011117,-0.00032041,0,0,0.033335,-0.014065,0,-0.00083305,0,0,0,0.036762,0.00029506,0.011117,-0.50343,0.016058,0.03244,1.1181e-06,0.34,0.54,0
0.010183,-0.00057754,0.036837,-9.137e-05,0.011024,-0.00031362,0,0,0.033558,-0.01445,0,-0.00081542,0,0,0,0.03684,-9.4033e-05,0.011024,-0.48655,0.015923,0.032819,1.1381e-06,0.35,0.54,0
0.01052,-0.00059288,0.036914,-0.00047878,0.01093,-0.00030733,0,0,0.033778,-0.014832,0,-0.00079907,0,0,0,0.036916,-0.0004813,0.01093,-0.47088,0.015788,0.033197,1.1578e-06,0.36,0.54,0
0.010859,-0.00060813,0.036988,-0.00086431,0.010837,-0.00030148,0,0,0.033996,-0.015212,0,-0.00078385,0,0,0,0.036991,-0.00086671,0.010837,-0.4563,0.015654,0.033572,1.1772e-06,0.37,0.54,0
0.0112,-0.00062327,0.037062,-0.0012479,0.010744,-0.00029598,0,0,0.034213,-0.01559,0,-0.00076956,0,0,0,0.037064,-0.0012502,0.010744,-0.44264,0.015519,0.033945,1.1962e-06,0.38,0.54,0
0.011543,-0.00063832,0.037134,-0.0016295,0.010651,-0.00029077,0,0,0.034427,-0.015965,0,-0.000756,0,0,0,0.037136,-0.0016317,0.010651,-0.42975,0.015385,0.034317,1.2149e-06,0.39,0.54,0
0.011888,-0.00065327,0.037205,-0.002009,0.010559,-0.00028575,0,0,0.03464,-0.016338,0,-0.00074295,0,0,0,0.037207,-0.0020111,0.010559,-0.41748,0.015251,0.034686,1.2332e-06,0.4,0.54,0
0.012236,-0.00066811,0.037275,-0.0023863,0.010467,-0.00028083,0,0,0.034851,-0.016709,0,-0.00073015,0,0,0,0.037277,-0.0023883,0.010467,-0.40567,0.015118,0.035052,1.2512e-06,0.41,0.54,0
0.012585,-0.00068284,0.037343,-0.0027611,0.010375,-0.00027591,0,0,0.035059,-0.017077,0,-0.00071736,0,0,0,0.037345,-0.002763,0.010375,-0.39416,0.014986,0.035417,1.2688e-06,0.42,0.54,0
0.012937,-0.00069744,0.037411,-0.0031333,0.010283,-0.00027089,0,0,0.035266,-0.017441,0,-0.00070432,0,0,0,0.037413,-0.0031351,0.010283,-0.3828,0.014854,0.035778,1.2859e-06,0.43,0.54,0
0.013291,-0.00071192,0.037477,-0.0035026,0.010192,-0.00026568,0,0,0.03547,-0.017803,0,-0.00069076,0,0,0,0.037479,-0.0035044,0.010192,-0.37144,0.014722,0.036137,1.3027e-06,0.44,0.54,0
0.013647,-0.00072626,0.037542,-0.0038688,0.010102,-0.00026016,0,0,0.035672,-0.018162,0,-0.00067642,0,0,0,0.037544,-0.0038705,0.010102,-0.35994,0.014592,0.036492,1.3191e-06,0.45,0.54,0
0.014004,-0.00074044,0.037606,-0.0042316,0.010012,-0.00025424,0,0,0.035872,-0.018517,0,-0.00066102,0,0,0,0.037607,-0.0042331,0.010012,-0.34816,0.014462,0.036844,1.3351e-06,0.46,0.54,0
0.014364,-0.00075446,0.037668,-0.0045905,0.0099232,-0.00024781,0,0,0.036068,-0.018868,0,-0.00064431,0,0,0,0.037669,-0.004592,0.0099232,-0.33598,0.014334,0.037192,1.3505e-06,0.47,0.54,0
0.014726,-0.00076829,0.037728,-0.0049452,0.009835,-0.00024079,0,0,0.036262,-0.019214,0,-0.00062604,0,0,0,0.03773,-0.0049466,0.009835,-0.32328,0.014206,0.037536,1.3655e-06,0.48,0.54,0
0.015089,-0.00078192,0.037787,-0.0052954,0.0097476,-0.00023306,0,0,0.036451,-0.019556,0,-0.00060595,0,0,0,0.037789,-0.0052966,0.0097476,-0.30993,0.01408,0.037874,1.3799e-06,0.49,0.54,0
0.015455,-0.00079533,0.037831,-0.0001813,0.011295,-0.00022534,0,0,0.050721,-0.019892,0,-0.00087381,0,0,0,0.037832,-0.00018266,0.011295,-0.34579,0.016315,0.033841,1.2061e-06,0.5,0.54,0
0.016103,-0.0008143,0.0379,0.0050524,0.012886,-0.00021907,0,0,0.065037,-0.020366,0,-0.0011392,0,0,0,0.037901,0.0050509,0.012886,-0.3821,0.018613,0.029718,1.0387e-06,0.51,0.54,0
0.016755,-0.00083293,0.037954,0.0048193,0.012832,-0.00021327,0,0,0.065316,-0.020833,0,-0.001109,0,0,0,0.037955,0.004818,0.012832,-0.36877,0.018535,0.029945,1.0534e-06,0.52,0.54,0
0.01741,-0.0008512,0.038006,0.0045905,0.012779,-0.00020724,0,0,0.06559,-0.02129,0,-0.0010777,0,0,0,0.038007,0.0045892,0.012779,-0.35534,0.018458,0.030169,1.0677e-06,0.53,0.54,0
0.018067,-0.00086911,0.038057,0.0043661,0.012727,-0.00020098,0,0,0.065858,-0.021738,0,-0.0010451,0,0,0,0.038058,0.0043649,0.012727,-0.34179,0.018383,0.030388,1.0817e-06,0.54,0.54,0
0.018727,-0.00088663,0.038106,0.0041463,0.012676,-0.00019449,0,0,0.066119,-0.022176,0,-0.0010114,0,0,0,0.038107,0.0041452,0.012676,-0.32813,0.018309,0.030602,1.0954e-06,0.55,0.54,0
0.01939,-0.00090376,0.038153,0.0039311,0.012625,-0.00018778,0,0,0.066373,-0.022605,0,-0.00097643,0,0,0,0.038155,0.0039301,0.012625,-0.31437,0.018237,0.030811,1.1087e-06,0.56,0.54,0
0.020054,-0.00092049,0.038199,0.0037208,0.012576,-0.00018084,0,0,0.066621,-0.023024,0,-0.00094038,0,0,0,0.0382,0.0037199,0.012576,-0.30051,0.018165,0.031016,1.1216e-06,0.57,0.54,0
0.020722,-0.0009368,0.038243,0.0035156,0.012528,-0.00017371,0,0,0.066861,-0.023432,0,-0.00090331,0,0,0,0.038244,0.0035147,0.012528,-0.28659,0.018096,0.031215,1.1342e-06,0.58,0.54,0
0.021392,-0.00095268,0.038286,0.0033154,0.01248,-0.00016641,0,0,0.067094,-0.023829,0,-0.00086531,0,0,0,0.038287,0.0033146,0.01248,-0.27263,0.018027,0.031409,1.1464e-06,0.59,0.54,0
0.022064,-0.00096812,0.038326,0.0031206,0.012434,-0.00015895,0,0,0.06732,-0.024215,0,-0.00082653,0,0,0,0.038327,0.0031198,0.012434,-0.25868,0.01796,0.031597,1.1581e-06,0.6,0.54,0
0.022738,-0.00098311,0.038365,0.0029311,0.012389,-0.00015137,0,0,0.067538,-0.02459,0,-0.00078712,0,0,0,0.038365,0.0029304,0.012389,-0.24476,0.017895,0.03178,1.1695e-06,0.61,0.54,0
0.023415,-0.00099765,0.038401,0.0027471,0.012345,-0.0001437,0,0,0.067748,-0.024953,0,-0.00074724,0,0,0,0.038402,0.0027465,0.012345,-0.23092,0.017831,0.031956,1.1804e-06,0.62,0.54,0
0.024093,-0.0010117,0.038436,0.0025687,0.012301,-0.00013598,0,0,0.06795,-0.025305,0,-0.00070707,0,0,0,0.038437,0.0025682,0.012301,-0.21721,0.017769,0.032127,1.1909e-06,0.63,0.54,0
0.024774,-0.0010253,0.038469,0.0023959,0.012259,-0.00012823,0,0,0.068144,-0.025645,0,-0.00066679,0,0,0,0.038469,0.0023955,0.012259,-0.20367,0.017708,0.032292,1.201e-06,0.64,0.54,0
0.025456,-0.0010385,0.0385,0.0022289,0.012219,-0.0001205,0,0,0.068331,-0.025973,0,-0.00062658,0,0,0,0.0385,0.0022285,0.012219,-0.19034,0.017649,0.032451,1.2107e-06,0.65,0.54,0
0.02614,-0.0010511,0.038529,0.0020676,0.012179,-0.00011281,0,0,0.068509,-0.026289,0,-0.00058663,0,0,0,0.038529,0.0020673,0.012179,-0.17727,0.017592,0.032604,1.2199e-06,0.66,0.54,0
0.026826,-0.0010633,0.038555,0.0019121,0.01214,-0.00010522,0,0,0.068679,-0.026593,0,-0.00054712,0,0,0,0.038556,0.0019118,0.01214,-0.16451,0.017536,0.03275,1.2287e-06,0.67,0.54,0
0.027514,-0.001075,0.03858,0.0017623,0.012103,-9.7739e-05,0,0,0.068842,-0.026885,0,-0.00050824,0,0,0,0.038581,0.0017621,0.012103,-0.1521,0.017482,0.032891,1.237e-06,0.68,0.54,0
0.028203,-0.0010862,0.038604,0.0016184,0.012067,-9.0415e-05,0,0,0.068996,-0.027165,0,-0.00047016,0,0,0,0.038604,0.0016181,0.012067,-0.14007,0.01743,0.033025,1.2449e-06,0.69,0.54,0
0.028894,-0.001097,0.038625,0.0014802,0.012032,-8.3275e-05,0,0,0.069143,-0.027434,0,-0.00043303,0,0,0,0.038625,0.00148,0.012032,-0.12845,0.017379,0.033154,1.2524e-06,0.7,0.54,0
0.029586,-0.0011073,0.038645,0.0013477,0.011998,-7.6348e-05,0,0,0.069282,-0.02769,0,-0.00039701,0,0,0,0.038645,0.0013475,0.011998,-0.11729,0.01733,0.033276,1.2595e-06,0.71,0.54,0
0.030279,-0.0011171,0.038663,0.0012209,0.011965,-6.9659e-05,0,0,0.069413,-0.027935,0,-0.00036222,0,0,0,0.038663,0.0012208,0.011965,-0.1066,0.017283,0.033392,1.2662e-06,0.72,0.54,0
0.030974,-0.0011265,0.038679,0.0010998,0.011933,-6.3232e-05,0,0,0.069537,-0.028168,0,-0.00032881,0,0,0,0.038679,0.0010997,0.011933,-0.096408,0.017237,0.033503,1.2724e-06,0.73,0.54,0
0.03167,-0.0011354,0.038693,0.00098422,0.011903,-5.7088e-05,0,0,0.069654,-0.02839,0,-0.00029686,0,0,0,0.038693,0.00098413,0.011903,-0.08674,0.017194,0.033607,1.2783e-06,0.74,0.54,0
0.032367,-0.0011439,0.038706,0.00087416,0.011874,-5.1245e-05,0,0,0.069764,-0.0286,0,-0.00026647,0,0,0,0.038707,0.00087409,0.011874,-0.077608,0.017152,0.033707,1.2839e-06,0.75,0.54,0
0.033065,-0.0011519,0.038718,0.00076952,0.011846,-4.5715e-05,0,0,0.069867,-0.0288,0,-0.00023772,0,0,0,0.038718,0.00076946,0.011846,-0.069022,0.017111,0.0338,1.289e-06,0.76,0.54,0
0.033765,-0.0011595,0.038729,0.00067021,0.01182,-4.0513e-05,0,0,0.069963,-0.028989,0,-0.00021066,0,0,0,0.038729,0.00067017,0.01182,-0.06099,0.017073,0.033889,1.2938e-06,0.77,0.54,0
0.034465,-0.0011667,0.038738,0.00057614,0.011794,-3.5644e-05,0,0,0.070054,-0.029167,0,-0.00018535,0,0,0,0.038738,0.00057611,0.011794,-0.053516,0.017036,0.033972,1.2983e-06,0.78,0.54,0
0.035166,-0.0011734,0.038746,0.00048721,0.01177,-3.1115e-05,0,0,0.070137,-0.029335,0,-0.0001618,0,0,0,0.038746,0.00048719,0.01177,-0.046598,0.017001,0.03405,1.3024e-06,0.79,0.54,0
0.035867,-0.0011798,0.038753,0.00040332,0.011747,-2.6929e-05,0,0,0.070216,-0.029493,0,-0.00014003,0,0,0,0.038753,0.0004033,0.011747,-0.040232,0.016968,0.034122,1.3063e-06,0.8,0.54,0
0.03657,-0.0011858,0.038759,0.00032436,0.011725,-2.3084e-05,0,0,0.070288,-0.029642,0,-0.00012004,0,0,0,0.038759,0.00032435,0.011725,-0.034412,0.016936,0.034191,1.3098e-06,0.81,0.54,0
0.037273,-0.0011914,0.038764,0.00025024,0.011704,-1.9579e-05,0,0,0.070355,-0.02978,0,-0.00010181,0,0,0,0.038764,0.00025023,0.011704,-0.029127,0.016906,0.034254,1.3131e-06,0.82,0.54,0
0.037977,-0.0011966,0.038768,0.00018083,0.011685,-1.6407e-05,0,0,0.070417,-0.02991,0,-8.5319e-05,0,0,0,0.038768,0.00018083,0.011685,-0.024363,0.016878,0.034313,1.3161e-06,0.83,0.54,0
0.038681,-0.0012015,0.038771,0.00011605,0.011666,-1.3563e-05,0,0,0.070473,-0.030031,0,-7.0526e-05,0,0,0,0.038771,0.00011605,0.011666,-0.020103,0.016851,0.034368,1.3188e-06,0.84,0.54,0
0.039386,-0.001206,0.038774,5.5786e-05,0.011649,-1.1035e-05,0,0,0.070526,-0.030142,0,-5.738e-05,0,0,0,0.038774,5.5782e-05,0.011649,-0.016329,0.016826,0.034419,1.3213e-06,0.85,0.54,0
0.040092,-0.0012102,0.038776,-6.3744e-08,0.011633,-8.8118e-06,0,0,0.070573,-0.030246,0,-4.5821e-05,0,0,0,0.038776,-6.5746e-08,0.011633,-0.01302,0.016803,0.034465,1.3236e-06,0.86,0.54,0
0.040798,-0.001214,0.038778,-5.1594e-05,0.011618,-6.8808e-06,0,0,0.070616,-0.030341,0,-3.578e-05,0,0,0,0.038778,-5.1595e-05,0.011618,-0.010153,0.016782,0.034508,1.3256e-06,0.87,0.54,0
0.041504,-0.0012175,0.038779,-9.89e-05,0.011604,-5.2268e-06,0,0,0.070656,-0.030428,0,-2.7179e-05,0,0,0,0.038779,-9.8901e-05,0.011604,-0.0077028,0.016762,0.034547,1.3275e-06,0.88,0.54,0
0.042211,-0.0012208,0.03878,-0.00014207,0.011591,-3.8333e-06,0,0,0.070691,-0.030507,0,-1.9933e-05,0,0,0,0.03878,-0.00014207,0.011591,-0.0056428,0.016743,0.034582,1.3292e-06,0.89,0.54,0
0.042918,-0.0012236,0.038781,-0.00018119,0.01158,-2.6827e-06,0,0,0.070723,-0.030579,0,-1.395e-05,0,0,0,0.038781,-0.00018119,0.01158,-0.0039451,0.016727,0.034614,1.3306e-06,0.9,0.54,0
0.043625,-0.0012262,0.038781,-0.00021633,0.011569,-1.7562e-06,0,0,0.070751,-0.030643,0,-9.1323e-06,0,0,0,0.038781,-0.00021633,0.011569,-0.0025802,0.016712,0.034642,1.332e-06,0.91,0.54,0
0.044333,-0.0012285,0.038782,-0.00024758,0.01156,-1.034e-06,0,0,0.070776,-0.0307,0,-5.3767e-06,0,0,0,0.038782,-0.00024758,0.01156,-0.0015179,0.016698,0.034668,1.3331e-06,0.92,0.54,0
0.045041,-0.0012306,0.038782,-0.00027498,0.011552,-4.9539e-07,0,0,0.070797,-0.03075,0,-2.576e-06,0,0,0,0.038782,-0.00027498,0.011552,-0.00072673,0.016686,0.03469,1.3341e-06,0.93,0.54,0
0.045749,-0.0012323,0.038782,-0.00029862,0.011545,-1.1898e-07,0,0,0.070815,-0.030793,0,-6.1869e-07,0,0,0,0.038782,-0.00029862,0.011545,-0.00017443,0.016676,0.034709,1.335e-06,0.94,0.54,0
0.046457,-0.0012338,0.038781,-0.00031853,0.011539,1.1729e-07,0,0,0.070831,-0.030829,0,6.099e-07,0,0,0,0.038781,-0.00031853,0.011539,0.00017187,0.016667,0.034724,1.3357e-06,0.95,0.54,0
0.047166,-0.001235,0.038781,-0.00033475,0.011534,2.3599e-07,0,0,0.070843,-0.030859,0,1.2272e-06,0,0,0,0.038781,-0.00033475,0.011534,0.00034568,0.01666,0.034737,1.3362e-06,0.96,0.54,0
0.047874,-0.0012359,0.038781,-0.00034733,0.01153,2.6015e-07,0,0,0.070853,-0.030881,0,1.3528e-06,0,0,0,0.038781,-0.00034733,0.01153,0.00038094,0.016655,0.034747,1.3367e-06,0.97,0.54,0
0.048583,-0.0012366,0.038781,-0.0003563,0.011527,2.1312e-07,0,0,0.07086,-0.030898,0,1.1082e-06,0,0,0,0.038781,-0.0003563,0.011527,0.000312,0.016651,0.034754,1.337e-06,0.98,0.54,0
0.049291,-0.0012369,0.038781,-0.00036167,0.011526,1.1848e-07,0,0,0.070864,-0.030908,0,6.1609e-07,0,0,0,0.038781,-0.00036167,0.011526,0.00017343,0.016648,0.034759,1.3372e-06,0.99,0.54,0
0.05,-0.0012371,0.038781,-0.00036346,0.011525,-2.5202e-06,0,0,0.070865,-0.030911,0,-1.3105e-05,0,0,0,0.038781,-0.00036346,0.011525,-0.0036888,0.016648,0.03476,1.3372e-06,1,0.54,0
0,0,0.032812,0.014062,0.014062,-0.00072449,0,0,0.024375,-8.1315e-20,0,-0.0018837,0,0,0,0.03284,0.014034,0.014062,-2.2095,0.020312,0.018792,3.4081e-07,0,0.55,0
0.00024375,-1.8837e-05,0.032777,0.01363,0.013922,-0.00072538,0,0,0.024511,-0.00037997,0,-0.001886,0,0,0,0.032804,0.013602,0.013922,-2.1665,0.020109,0.019044,3.544e-07,0.01,0.55,0
0.00049022,-3.8108e-05,0.032924,0.013265,0.013857,-0.00073342,0,0,0.024787,-0.00076876,0,-0.0019069,0,0,0,0.032951,0.013238,0.013857,-2.1337,0.020015,0.019411,3.7435e-07,0.02,0.55,0
0.00073949,-5.7779e-05,0.033072,0.012893,0.013789,-0.00073955,0,0,0.025067,-0.0011656,0,-0.0019228,0,0,0,0.033099,0.012866,0.013789,-2.0961,0.019918,0.019788,3.9501e-07,0.03,0.55,0
0.00099157,-7.7813e-05,0.033221,0.012513,0.01372,-0.00074373,0,0,0.025351,-0.0015698,0,-0.0019337,0,0,0,0.033248,0.012486,0.01372,-2.0542,0.019818,0.020173,4.1633e-07,0.04,0.55,0
0.0012465,-9.8174e-05,0.033371,0.012126,0.013649,-0.00074594,0,0,0.025639,-0.0019805,0,-0.0019394,0,0,0,0.033397,0.012099,0.013649,-2.0084,0.019715,0.020567,4.3828e-07,0.05,0.55,0
0.0015044,-0.00011882,0.033521,0.011732,0.013576,-0.00074617,0,0,0.025929,-0.0023969,0,-0.0019401,0,0,0,0.033547,0.011707,0.013576,-1.9591,0.01961,0.020968,4.608e-07,0.06,0.55,0
0.0017651,-0.00013973,0.033671,0.011333,0.013501,-0.00074446,0,0,0.026221,-0.0028183,0,-0.0019356,0,0,0,0.033696,0.011309,0.013501,-1.9067,0.019502,0.021375,4.8386e-07,0.07,0.55,0
0.0020288,-0.00016084,0.03382,0.01093,0.013425,-0.00074086,0,0,0.026514,-0.0032438,0,-0.0019262,0,0,0,0.033844,0.010906,0.013425,-1.8518,0.019392,0.021788,5.0738e-07,0.08,0.55,0
0.0022954,-0.00018213,0.033968,0.010522,0.013347,-0.00073542,0,0,0.026808,-0.0036727,0,-0.0019121,0,0,0,0.033992,0.010499,0.013347,-1.7948,0.019279,0.022206,5.3132e-07,0.09,0.55,0
0.0025649,-0.00020357,0.034115,0.010111,0.013268,-0.00072824,0,0,0.027102,-0.0041042,0,-0.0018934,0,0,0,0.034137,0.010089,0.013268,-1.7361,0.019165,0.022627,5.5561e-07,0.1,0.55,0
0.0028374,-0.00022511,0.03426,0.0096966,0.013187,-0.00071943,0,0,0.027395,-0.0045376,0,-0.0018705,0,0,0,0.034281,0.0096755,0.013187,-1.6762,0.019048,0.023051,5.8019e-07,0.11,0.55,0
0.0031128,-0.00024673,0.034403,0.0092802,0.013105,-0.00070911,0,0,0.027688,-0.0049722,0,-0.0018437,0,0,0,0.034423,0.0092602,0.013105,-1.6155,0.018929,0.023478,6.0501e-07,0.12,0.55,0
0.0033911,-0.00026839,0.034544,0.0088622,0.013022,-0.00069742,0,0,0.027978,-0.0054074,0,-0.0018133,0,0,0,0.034563,0.0088433,0.013022,-1.5544,0.018809,0.023905,6.3e-07,0.13,0.55,0
0.0036724,-0.00029006,0.034681,0.0084431,0.012937,-0.0006845,0,0,0.028267,-0.0058426,0,-0.0017797,0,0,0,0.034699,0.0084253,0.012937,-1.4934,0.018687,0.024334,6.551e-07,0.14,0.55,0
0.0039565,-0.00031173,0.034817,0.0080234,0.012852,-0.00067052,0,0,0.028554,-0.0062771,0,-0.0017434,0,0,0,0.034833,0.0080066,0.012852,-1.4327,0.018564,0.024762,6.8025e-07,0.15,0.55,0
0.0042435,-0.00033335,0.034948,0.0076035,0.012766,-0.00065564,0,0,0.028838,-0.0067107,0,-0.0017047,0,0,0,0.034964,0.0075878,0.012766,-1.3727,0.018439,0.02519,7.0541e-07,0.16,0.55,0
0.0045332,-0.00035492,0.035077,0.007184,0.012678,-0.00064002,0,0,0.029118,-0.0071426,0,-0.0016641,0,0,0,0.035092,0.0071693,0.012678,-1.3137,0.018313,0.025616,7.3051e-07,0.17,0.55,0
0.0048258,-0.00037641,0.035202,0.0067651,0.01259,-0.00062384,0,0,0.029396,-0.0075727,0,-0.001622,0,0,0,0.035216,0.0067514,0.01259,-1.2561,0.018186,0.026041,7.5552e-07,0.18,0.55,0
0.0051212,-0.0003978,0.035324,0.0063471,0.012501,-0.00060727,0,0,0.02967,-0.0080006,0,-0.0015789,0,0,0,0.035337,0.0063344,0.012501,-1.2,0.018058,0.026464,7.8038e-07,0.19,0.55,0
0.0054192,-0.00041908,0.035442,0.0059304,0.012412,-0.00059047,0,0,0.02994,-0.0084259,0,-0.0015352,0,0,0,0.035454,0.0059186,0.012412,-1.1457,0.017928,0.026884,8.0506e-07,0.2,0.55,0
0.00572,-0.00044025,0.035557,0.0055151,0.012322,-0.00057359,0,0,0.030206,-0.0088485,0,-0.0014914,0,0,0,0.035568,0.0055042,0.012322,-1.0934,0.017798,0.027301,8.2952e-07,0.21,0.55,0
0.0060234,-0.00046129,0.035668,0.0051015,0.012231,-0.00055681,0,0,0.030469,-0.0092683,0,-0.0014477,0,0,0,0.035679,0.0050914,0.012231,-1.0432,0.017667,0.027716,8.5373e-07,0.22,0.55,0
0.0063293,-0.00048218,0.035776,0.0046898,0.01214,-0.00054024,0,0,0.030727,-0.009685,0,-0.0014046,0,0,0,0.035786,0.0046804,0.01214,-0.99532,0.017535,0.028127,8.7766e-07,0.23,0.55,0
0.0066379,-0.00050294,0.035881,0.0042799,0.012048,-0.00052402,0,0,0.030982,-0.010099,0,-0.0013625,0,0,0,0.035889,0.0042712,0.012048,-0.94976,0.017403,0.028536,9.013e-07,0.24,0.55,0
0.006949,-0.00052356,0.035982,0.003872,0.011956,-0.00050827,0,0,0.031233,-0.010509,0,-0.0013215,0,0,0,0.03599,0.0038639,0.011956,-0.90664,0.01727,0.028941,9.2462e-07,0.25,0.55,0
0.0072626,-0.00054403,0.03608,0.0034661,0.011864,-0.00049308,0,0,0.031481,-0.010917,0,-0.001282,0,0,0,0.036087,0.0034586,0.011864,-0.86599,0.017136,0.029343,9.4762e-07,0.26,0.55,0
0.0075786,-0.00056435,0.036174,0.0030622,0.011771,-0.00047854,0,0,0.031724,-0.011321,0,-0.0012442,0,0,0,0.036181,0.0030553,0.011771,-0.82781,0.017003,0.029742,9.7028e-07,0.27,0.55,0
0.007897,-0.00058453,0.036266,0.0026604,0.011678,-0.00046471,0,0,0.031965,-0.011723,0,-0.0012083,0,0,0,0.036273,0.002654,0.011678,-0.79211,0.016868,0.030138,9.9259e-07,0.28,0.55,0
0.0082179,-0.00060458,0.036355,0.0022606,0.011585,-0.00045165,0,0,0.032202,-0.012122,0,-0.0011743,0,0,0,0.036361,0.0022546,0.011585,-0.75882,0.016734,0.03053,1.0146e-06,0.29,0.55,0
0.0085411,-0.00062448,0.036442,0.0018627,0.011491,-0.00043939,0,0,0.032436,-0.012517,0,-0.0011424,0,0,0,0.036448,0.0018571,0.011491,-0.72788,0.016599,0.03092,1.0362e-06,0.3,0.55,0
0.0088666,-0.00064425,0.036526,0.0014667,0.011398,-0.00042794,0,0,0.032667,-0.012911,0,-0.0011126,0,0,0,0.036532,0.0014615,0.011398,-0.69921,0.016464,0.031308,1.0574e-06,0.31,0.55,0
0.0091944,-0.0006639,0.036609,0.0010727,0.011304,-0.00041729,0,0,0.032895,-0.013301,0,-0.001085,0,0,0,0.036613,0.0010678,0.011304,-0.67269,0.016328,0.031692,1.0784e-06,0.32,0.55,0
0.0095245,-0.00068341,0.036688,0.00068043,0.011211,-0.00040744,0,0,0.033121,-0.013689,0,-0.0010593,0,0,0,0.036693,0.00067583,0.011211,-0.6482,0.016193,0.032075,1.099e-06,0.33,0.55,0
0.0098569,-0.00070281,0.036767,0.00029,0.011117,-0.00039833,0,0,0.033345,-0.014075,0,-0.0010357,0,0,0,0.036771,0.00028566,0.011117,-0.62557,0.016058,0.032455,1.1192e-06,0.34,0.55,0
0.010191,-0.00072208,0.036843,-9.8644e-05,0.011023,-0.00038992,0,0,0.033566,-0.014459,0,-0.0010138,0,0,0,0.036847,-0.00010276,0.011023,-0.60467,0.015923,0.032833,1.1391e-06,0.35,0.55,0
0.010528,-0.00074124,0.036918,-0.00048552,0.01093,-0.00038215,0,0,0.033785,-0.01484,0,-0.00099358,0,0,0,0.036922,-0.00048942,0.01093,-0.5853,0.015788,0.033209,1.1587e-06,0.36,0.55,0
0.010867,-0.00076028,0.036992,-0.00087059,0.010836,-0.00037492,0,0,0.034002,-0.015219,0,-0.0009748,0,0,0,0.036996,-0.00087431,0.010836,-0.56728,0.015653,0.033583,1.1779e-06,0.37,0.55,0
0.011208,-0.0007792,0.037064,-0.0012538,0.010743,-0.00036816,0,0,0.034217,-0.015596,0,-0.00095722,0,0,0,0.037068,-0.0012574,0.010743,-0.55043,0.015518,0.033954,1.1968e-06,0.38,0.55,0
0.011551,-0.000798,0.037135,-0.0016352,0.01065,-0.00036176,0,0,0.034431,-0.015971,0,-0.00094057,0,0,0,0.037139,-0.0016385,0.01065,-0.53455,0.015383,0.034324,1.2153e-06,0.39,0.55,0
0.011897,-0.00081667,0.037205,-0.0020145,0.010557,-0.0003556,0,0,0.034642,-0.016343,0,-0.00092456,0,0,0,0.037208,-0.0020177,0.010557,-0.51943,0.015249,0.034692,1.2336e-06,0.4,0.55,0
0.012244,-0.00083521,0.037274,-0.0023917,0.010465,-0.00034957,0,0,0.034852,-0.016713,0,-0.00090889,0,0,0,0.037277,-0.0023948,0.010465,-0.50489,0.015116,0.035058,1.2514e-06,0.41,0.55,0
0.012594,-0.00085362,0.037342,-0.0027666,0.010373,-0.00034355,0,0,0.03506,-0.017081,0,-0.00089324,0,0,0,0.037345,-0.0027695,0.010373,-0.49072,0.014983,0.035422,1.2689e-06,0.42,0.55,0
0.012946,-0.00087188,0.037409,-0.0031389,0.010281,-0.00033741,0,0,0.035266,-0.017446,0,-0.00087727,0,0,0,0.037412,-0.0031417,0.010281,-0.47674,0.01485,0.035783,1.286e-06,0.43,0.55,0
0.013299,-0.00088997,0.037474,-0.0035086,0.01019,-0.00033102,0,0,0.03547,-0.017808,0,-0.00086065,0,0,0,0.037477,-0.0035112,0.01019,-0.46274,0.014719,0.036141,1.3027e-06,0.44,0.55,0
0.013655,-0.0009079,0.037539,-0.0038751,0.010099,-0.00032425,0,0,0.035672,-0.018166,0,-0.00084305,0,0,0,0.037541,-0.0038777,0.010099,-0.44856,0.014587,0.036496,1.3191e-06,0.45,0.55,0
0.014013,-0.00092563,0.037602,-0.0042384,0.010009,-0.00031697,0,0,0.035871,-0.018522,0,-0.00082413,0,0,0,0.037604,-0.0042408,0.010009,-0.43403,0.014457,0.036848,1.3349e-06,0.46,0.55,0
0.014372,-0.00094316,0.037664,-0.0045979,0.0099197,-0.00030906,0,0,0.036067,-0.018873,0,-0.00080355,0,0,0,0.037666,-0.0046002,0.0099197,-0.41898,0.014328,0.037196,1.3503e-06,0.47,0.55,0
0.014734,-0.00096046,0.037724,-0.0049534,0.0098311,-0.00030039,0,0,0.03626,-0.01922,0,-0.00078101,0,0,0,0.037726,-0.0049555,0.0098311,-0.40326,0.0142,0.03754,1.3653e-06,0.48,0.55,0
0.015097,-0.00097751,0.037782,-0.0053044,0.0097433,-0.00029084,0,0,0.03645,-0.019562,0,-0.00075619,0,0,0,0.037784,-0.0053063,0.0097433,-0.38673,0.014074,0.037879,1.3797e-06,0.49,0.55,0
0.015463,-0.00099428,0.037825,-0.00018939,0.011291,-0.00028128,0,0,0.050717,-0.019899,0,-0.0010908,0,0,0,0.037827,-0.00019151,0.011291,-0.43161,0.016309,0.033844,1.2059e-06,0.5,0.55,0
0.016112,-0.001018,0.037894,0.005046,0.012882,-0.0002735,0,0,0.065032,-0.020374,0,-0.0014222,0,0,0,0.037896,0.0050437,0.012882,-0.47701,0.018607,0.029719,1.0386e-06,0.51,0.55,0
0.016764,-0.0010413,0.037948,0.0048127,0.012828,-0.00026628,0,0,0.065311,-0.02084,0,-0.0013847,0,0,0,0.03795,0.0048106,0.012828,-0.4604,0.01853,0.029947,1.0532e-06,0.52,0.55,0
0.017418,-0.0010641,0.038,0.0045836,0.012775,-0.00025877,0,0,0.065585,-0.021298,0,-0.0013456,0,0,0,0.038002,0.0045816,0.012775,-0.44365,0.018453,0.03017,1.0675e-06,0.53,0.55,0
0.018075,-0.0010865,0.038051,0.004359,0.012723,-0.00025096,0,0,0.065852,-0.021746,0,-0.001305,0,0,0,0.038052,0.0043571,0.012723,-0.42674,0.018378,0.030389,1.0815e-06,0.54,0.55,0
0.018735,-0.0011084,0.0381,0.0041388,0.012672,-0.00024285,0,0,0.066113,-0.022185,0,-0.0012628,0,0,0,0.038101,0.0041371,0.012672,-0.40969,0.018303,0.030603,1.0952e-06,0.55,0.55,0
0.019398,-0.0011299,0.038147,0.0039234,0.012621,-0.00023445,0,0,0.066367,-0.022614,0,-0.0012192,0,0,0,0.038149,0.0039218,0.012621,-0.39248,0.018231,0.030812,1.1085e-06,0.56,0.55,0
0.020063,-0.0011508,0.038193,0.0037129,0.012572,-0.00022578,0,0,0.066615,-0.023033,0,-0.0011741,0,0,0,0.038194,0.0037114,0.012572,-0.37516,0.018159,0.031017,1.1214e-06,0.57,0.55,0
0.02073,-0.0011712,0.038237,0.0035074,0.012523,-0.00021686,0,0,0.066855,-0.023441,0,-0.0011277,0,0,0,0.038238,0.0035061,0.012523,-0.35774,0.018089,0.031216,1.1339e-06,0.58,0.55,0
0.0214,-0.001191,0.038279,0.0033071,0.012476,-0.00020771,0,0,0.067088,-0.023839,0,-0.0010801,0,0,0,0.03828,0.0033058,0.012476,-0.34028,0.018021,0.03141,1.1461e-06,0.59,0.55,0
0.022072,-0.0012103,0.038319,0.0031121,0.012429,-0.00019836,0,0,0.067313,-0.024225,0,-0.0010315,0,0,0,0.03832,0.003111,0.012429,-0.3228,0.017954,0.031598,1.1579e-06,0.6,0.55,0
0.022746,-0.0012291,0.038357,0.0029225,0.012384,-0.00018887,0,0,0.067531,-0.0246,0,-0.00098211,0,0,0,0.038358,0.0029215,0.012384,-0.30537,0.017888,0.03178,1.1692e-06,0.61,0.55,0
0.023422,-0.0012472,0.038394,0.0027384,0.01234,-0.00017926,0,0,0.067741,-0.024963,0,-0.00093213,0,0,0,0.038395,0.0027375,0.01234,-0.28804,0.017824,0.031957,1.1801e-06,0.62,0.55,0
0.024101,-0.0012648,0.038428,0.00256,0.012297,-0.00016957,0,0,0.067943,-0.025315,0,-0.00088178,0,0,0,0.038429,0.0025592,0.012297,-0.27087,0.017762,0.032128,1.1906e-06,0.63,0.55,0
0.024781,-0.0012818,0.038461,0.0023872,0.012254,-0.00015986,0,0,0.068137,-0.025655,0,-0.00083129,0,0,0,0.038462,0.0023865,0.012254,-0.2539,0.017701,0.032292,1.2006e-06,0.64,0.55,0
0.025463,-0.0012982,0.038491,0.0022202,0.012214,-0.00015017,0,0,0.068322,-0.025982,0,-0.00078089,0,0,0,0.038492,0.0022196,0.012214,-0.23721,0.017642,0.032451,1.2102e-06,0.65,0.55,0
0.026148,-0.0013141,0.03852,0.002059,0.012174,-0.00014054,0,0,0.0685,-0.026298,0,-0.00073083,0,0,0,0.03852,0.0020584,0.012174,-0.22085,0.017584,0.032603,1.2194e-06,0.66,0.55,0
0.026833,-0.0013293,0.038547,0.0019036,0.012135,-0.00013102,0,0,0.06867,-0.026602,0,-0.00068132,0,0,0,0.038547,0.0019031,0.012135,-0.20487,0.017528,0.03275,1.2282e-06,0.67,0.55,0
0.027521,-0.0013439,0.038571,0.001754,0.012098,-0.00012166,0,0,0.068832,-0.026893,0,-0.00063262,0,0,0,0.038572,0.0017536,0.012098,-0.18932,0.017474,0.03289,1.2365e-06,0.68,0.55,0
0.02821,-0.0013579,0.038594,0.0016102,0.012061,-0.00011248,0,0,0.068985,-0.027173,0,-0.00058491,0,0,0,0.038594,0.0016099,0.012061,-0.17426,0.017422,0.033023,1.2443e-06,0.69,0.55,0
0.028901,-0.0013714,0.038615,0.0014722,0.012026,-0.00010354,0,0,0.069131,-0.02744,0,-0.00053842,0,0,0,0.038615,0.0014719,0.012026,-0.15972,0.017371,0.033151,1.2518e-06,0.7,0.55,0
0.029593,-0.0013842,0.038634,0.00134,0.011992,-9.4871e-05,0,0,0.069269,-0.027696,0,-0.00049333,0,0,0,0.038635,0.0013398,0.011992,-0.14575,0.017322,0.033273,1.2588e-06,0.71,0.55,0
0.030286,-0.0013965,0.038652,0.0012135,0.01196,-8.6501e-05,0,0,0.0694,-0.02794,0,-0.00044981,0,0,0,0.038652,0.0012133,0.01196,-0.13238,0.017275,0.033389,1.2654e-06,0.72,0.55,0
0.030981,-0.0014082,0.038668,0.0010927,0.011928,-7.8462e-05,0,0,0.069523,-0.028172,0,-0.000408,0,0,0,0.038668,0.0010925,0.011928,-0.11964,0.01723,0.033499,1.2716e-06,0.73,0.55,0
0.031677,-0.0014193,0.038682,0.00097747,0.011898,-7.078e-05,0,0,0.069639,-0.028393,0,-0.00036806,0,0,0,0.038682,0.00097734,0.011898,-0.10756,0.017186,0.033603,1.2775e-06,0.74,0.55,0
0.032373,-0.0014299,0.038695,0.00086776,0.011869,-6.3477e-05,0,0,0.069748,-0.028603,0,-0.00033008,0,0,0,0.038695,0.00086765,0.011869,-0.096146,0.017144,0.033702,1.2829e-06,0.75,0.55,0
0.033071,-0.0014399,0.038706,0.00076348,0.011841,-5.657e-05,0,0,0.06985,-0.028802,0,-0.00029416,0,0,0,0.038706,0.0007634,0.011841,-0.085423,0.017104,0.033795,1.2881e-06,0.76,0.55,0
0.033771,-0.0014494,0.038717,0.00066455,0.011814,-5.0074e-05,0,0,0.069946,-0.028989,0,-0.00026038,0,0,0,0.038717,0.00066448,0.011814,-0.075397,0.017065,0.033882,1.2928e-06,0.77,0.55,0
0.03447,-0.0014583,0.038725,0.00057086,0.011789,-4.3999e-05,0,0,0.070035,-0.029167,0,-0.00022879,0,0,0,0.038725,0.00057081,0.011789,-0.066072,0.017028,0.033965,1.2972e-06,0.78,0.55,0
0.035171,-0.0014668,0.038733,0.00048232,0.011765,-3.8351e-05,0,0,0.070118,-0.029334,0,-0.00019942,0,0,0,0.038733,0.00048228,0.011765,-0.057446,0.016993,0.034042,1.3013e-06,0.79,0.55,0
0.035873,-0.0014747,0.03874,0.00039881,0.011742,-3.3133e-05,0,0,0.070195,-0.029491,0,-0.00017229,0,0,0,0.03874,0.00039879,0.011742,-0.049514,0.01696,0.034114,1.3051e-06,0.8,0.55,0
0.036575,-0.0014822,0.038745,0.00032024,0.01172,-2.8346e-05,0,0,0.070266,-0.029638,0,-0.0001474,0,0,0,0.038745,0.00032022,0.01172,-0.042266,0.016928,0.034182,1.3086e-06,0.81,0.55,0
0.037278,-0.0014892,0.03875,0.0002465,0.011699,-2.3984e-05,0,0,0.070333,-0.029776,0,-0.00012471,0,0,0,0.03875,0.00024648,0.011699,-0.035689,0.016898,0.034245,1.3118e-06,0.82,0.55,0
0.037982,-0.0014957,0.038754,0.00017747,0.011679,-2.0041e-05,0,0,0.070394,-0.029905,0,-0.00010421,0,0,0,0.038754,0.00017746,0.011679,-0.029766,0.01687,0.034304,1.3148e-06,0.83,0.55,0
0.038686,-0.0015018,0.038757,0.00011305,0.011661,-1.6508e-05,0,0,0.07045,-0.030025,0,-8.5843e-05,0,0,0,0.038757,0.00011304,0.011661,-0.024476,0.016844,0.034358,1.3174e-06,0.84,0.55,0
0.039391,-0.0015074,0.03876,5.3136e-05,0.011644,-1.3372e-05,0,0,0.070501,-0.030136,0,-6.9537e-05,0,0,0,0.03876,5.3131e-05,0.011644,-0.019795,0.016819,0.034408,1.3199e-06,0.85,0.55,0
0.040096,-0.0015126,0.038761,-2.3764e-06,0.011628,-1.0619e-05,0,0,0.070548,-0.030238,0,-5.5221e-05,0,0,0,0.038762,-2.3793e-06,0.011628,-0.015696,0.016796,0.034454,1.3221e-06,0.86,0.55,0
0.040802,-0.0015174,0.038763,-5.3586e-05,0.011613,-8.232e-06,0,0,0.070591,-0.030333,0,-4.2806e-05,0,0,0,0.038763,-5.3588e-05,0.011613,-0.012151,0.016774,0.034496,1.3242e-06,0.87,0.55,0
0.041508,-0.0015218,0.038764,-0.00010059,0.011599,-6.1914e-06,0,0,0.070629,-0.030419,0,-3.2196e-05,0,0,0,0.038764,-0.00010059,0.011599,-0.0091276,0.016754,0.034535,1.326e-06,0.88,0.55,0
0.042214,-0.0015258,0.038765,-0.00014347,0.011586,-4.4771e-06,0,0,0.070664,-0.030498,0,-2.3281e-05,0,0,0,0.038765,-0.00014348,0.011586,-0.006593,0.016736,0.03457,1.3276e-06,0.89,0.55,0
0.042921,-0.0015294,0.038765,-0.00018233,0.011575,-3.0669e-06,0,0,0.070695,-0.030569,0,-1.5948e-05,0,0,0,0.038765,-0.00018233,0.011575,-0.0045117,0.016719,0.034601,1.3291e-06,0.9,0.55,0
0.043628,-0.0015326,0.038766,-0.00021723,0.011565,-1.937e-06,0,0,0.070723,-0.030633,0,-1.0073e-05,0,0,0,0.038766,-0.00021723,0.011565,-0.002847,0.016704,0.034629,1.3304e-06,0.91,0.55,0
0.044335,-0.0015355,0.038766,-0.00024826,0.011555,-1.0628e-06,0,0,0.070747,-0.030689,0,-5.5264e-06,0,0,0,0.038766,-0.00024826,0.011555,-0.0015608,0.016691,0.034654,1.3315e-06,0.92,0.55,0
0.045043,-0.001538,0.038766,-0.00027547,0.011547,-4.1814e-07,0,0,0.070768,-0.030738,0,-2.1743e-06,0,0,0,0.038766,-0.00027547,0.011547,-0.00061366,0.016679,0.034676,1.3325e-06,0.93,0.55,0
0.045751,-0.0015402,0.038765,-0.00029893,0.01154,2.3661e-08,0,0,0.070786,-0.030781,0,1.2303e-07,0,0,0,0.038765,-0.00029893,0.01154,3.4703e-05,0.016669,0.034694,1.3333e-06,0.94,0.55,0
0.046459,-0.001542,0.038765,-0.0003187,0.011534,2.9025e-07,0,0,0.070801,-0.030817,0,1.5093e-06,0,0,0,0.038765,-0.0003187,0.011534,0.0004255,0.01666,0.03471,1.334e-06,0.95,0.55,0
0.047167,-0.0015435,0.038765,-0.0003348,0.011529,4.0988e-07,0,0,0.070813,-0.030846,0,2.1314e-06,0,0,0,0.038765,-0.0003348,0.011529,0.00060063,0.016653,0.034723,1.3345e-06,0.96,0.55,0
0.047875,-0.0015447,0.038765,-0.00034729,0.011525,4.1134e-07,0,0,0.070823,-0.030869,0,2.139e-06,0,0,0,0.038765,-0.00034729,0.011525,0.00060258,0.016648,0.034733,1.335e-06,0.97,0.55,0
0.048583,-0.0015455,0.038765,-0.00035619,0.011522,3.2382e-07,0,0,0.07083,-0.030885,0,1.6839e-06,0,0,0,0.038765,-0.00035619,0.011522,0.00047426,0.016644,0.03474,1.3353e-06,0.98,0.55,0
0.049292,-0.001546,0.038765,-0.00036152,0.011521,1.7681e-07,0,0,0.070833,-0.030894,0,9.1939e-07,0,0,0,0.038765,-0.00036152,0.011521,0.00025891,0.016641,0.034744,1.3355e-06,0.99,0.55,0
0.05,-0.0015461,0.038765,-0.0003633,0.01152,-3.1402e-06,0,0,0.070835,-0.030898,0,-1.6329e-05,0,0,0,0.038765,-0.0003633,0.01152,-0.0045983,0.01664,0.034745,1.3355e-06,1,0.55,0
0,0,0.032841,0.014075,0.014075,-0.000871,0,0,0.024396,-5.421e-20,0,-0.0022646,0,0,0,0.032881,0.014034,0.014075,-2.6517,0.02033,0.018827,3.4272e-07,0,0.56,0
0.00024396,-2.2646e-05,0.032805,0.01364,0.013933,-0.00087206,0,0,0.024533,-0.00038211,0,-0.0022674,0,0,0,0.032845,0.0136,0.013933,-2.5999,0.020126,0.01908,3.564e-07,0.01,0.56,0
0.00049067,-4.5815e-05,0.032953,0.013273,0.013868,-0.00088172,0,0,0.024811,-0.00077312,0,-0.0022925,0,0,0,0.032992,0.013234,0.013868,-2.5602,0.020031,0.019449,3.7652e-07,0.02,0.56,0
0.00074017,-6.9465e-05,0.033102,0.012898,0.0138,-0.00088905,0,0,0.025093,-0.0011723,0,-0.0023115,0,0,0,0.033141,0.012859,0.0138,-2.5148,0.019934,0.019828,3.9734e-07,0.03,0.56,0
0.00099252,-9.3551e-05,0.033252,0.012516,0.01373,-0.00089401,0,0,0.025378,-0.0015787,0,-0.0023244,0,0,0,0.033291,0.012478,0.01373,-2.4641,0.019833,0.020216,4.1883e-07,0.04,0.56,0
0.0012477,-0.00011803,0.033403,0.012127,0.013659,-0.00089657,0,0,0.025667,-0.0019917,0,-0.0023311,0,0,0,0.033441,0.012089,0.013659,-2.4087,0.01973,0.020612,4.4095e-07,0.05,0.56,0
0.0015059,-0.00014285,0.033554,0.011731,0.013586,-0.00089673,0,0,0.025959,-0.0024104,0,-0.0023315,0,0,0,0.033591,0.011695,0.013586,-2.3491,0.019623,0.021014,4.6363e-07,0.06,0.56,0
0.0017669,-0.00016798,0.033704,0.01133,0.01351,-0.00089453,0,0,0.026252,-0.002834,0,-0.0023258,0,0,0,0.03374,0.011295,0.01351,-2.2859,0.019515,0.021424,4.8683e-07,0.07,0.56,0
0.0020309,-0.00019336,0.033854,0.010925,0.013434,-0.00089003,0,0,0.026547,-0.0032616,0,-0.0023141,0,0,0,0.033888,0.01089,0.013434,-2.2195,0.019404,0.021838,5.105e-07,0.08,0.56,0
0.0022978,-0.00021895,0.034003,0.010515,0.013355,-0.0008833,0,0,0.026842,-0.0036924,0,-0.0022966,0,0,0,0.034036,0.010482,0.013355,-2.1507,0.019291,0.022257,5.3457e-07,0.09,0.56,0
0.0025677,-0.00024471,0.03415,0.010102,0.013275,-0.00087447,0,0,0.027137,-0.0041258,0,-0.0022736,0,0,0,0.034181,0.01007,0.013275,-2.0798,0.019176,0.022679,5.5898e-07,0.1,0.56,0
0.0028406,-0.00027059,0.034295,0.0096858,0.013194,-0.00086365,0,0,0.027431,-0.0045609,0,-0.0022455,0,0,0,0.034325,0.0096556,0.013194,-2.0075,0.019058,0.023104,5.8367e-07,0.11,0.56,0
0.0031163,-0.00029656,0.034438,0.0092679,0.013112,-0.00085101,0,0,0.027724,-0.004997,0,-0.0022126,0,0,0,0.034467,0.0092391,0.013112,-1.9343,0.018939,0.023531,6.0857e-07,0.12,0.56,0
0.0033951,-0.00032258,0.034578,0.0088484,0.013028,-0.00083671,0,0,0.028015,-0.0054335,0,-0.0021754,0,0,0,0.034605,0.0088212,0.013028,-1.8606,0.018818,0.02396,6.3363e-07,0.13,0.56,0
0.0036767,-0.00034861,0.034716,0.008428,0.012943,-0.00082093,0,0,0.028305,-0.0058697,0,-0.0021344,0,0,0,0.034742,0.0084024,0.012943,-1.7869,0.018696,0.024388,6.5878e-07,0.14,0.56,0
0.0039612,-0.00037462,0.034851,0.0080073,0.012857,-0.00080386,0,0,0.028591,-0.0063052,0,-0.00209,0,0,0,0.034875,0.0079832,0.012857,-1.7138,0.018572,0.024816,6.8397e-07,0.15,0.56,0
0.0042485,-0.00040059,0.034982,0.0075865,0.012771,-0.00078572,0,0,0.028875,-0.0067393,0,-0.0020429,0,0,0,0.035005,0.007564,0.012771,-1.6415,0.018446,0.025243,7.0913e-07,0.16,0.56,0
0.0045386,-0.00042647,0.03511,0.0071662,0.012683,-0.00076669,0,0,0.029155,-0.0071717,0,-0.0019934,0,0,0,0.035131,0.0071452,0.012683,-1.5704,0.01832,0.025669,7.3423e-07,0.17,0.56,0
0.0048316,-0.00045226,0.035235,0.0067468,0.012594,-0.00074701,0,0,0.029432,-0.0076019,0,-0.0019422,0,0,0,0.035254,0.0067272,0.012594,-1.501,0.018192,0.026093,7.5921e-07,0.18,0.56,0
0.0051273,-0.00047794,0.035356,0.0063285,0.012505,-0.00072685,0,0,0.029705,-0.0080298,0,-0.0018898,0,0,0,0.035374,0.0063103,0.012505,-1.4335,0.018063,0.026514,7.8402e-07,0.19,0.56,0
0.0054257,-0.00050347,0.035473,0.0059117,0.012415,-0.00070644,0,0,0.029975,-0.0084548,0,-0.0018368,0,0,0,0.03549,0.0058948,0.012415,-1.3682,0.017933,0.026933,8.0863e-07,0.2,0.56,0
0.0057268,-0.00052886,0.035587,0.0054964,0.012325,-0.00068596,0,0,0.03024,-0.008877,0,-0.0017835,0,0,0,0.035602,0.0054808,0.012325,-1.3053,0.017803,0.027349,8.33e-07,0.21,0.56,0
0.0060305,-0.00055409,0.035697,0.005083,0.012234,-0.0006656,0,0,0.030502,-0.0092961,0,-0.0017306,0,0,0,0.035711,0.0050685,0.012234,-1.245,0.017671,0.027762,8.5711e-07,0.22,0.56,0
0.0063368,-0.00057916,0.035803,0.0046716,0.012142,-0.00064553,0,0,0.030759,-0.009712,0,-0.0016784,0,0,0,0.035816,0.0046582,0.012142,-1.1874,0.017539,0.028172,8.8092e-07,0.23,0.56,0
0.0066457,-0.00060405,0.035906,0.0042622,0.01205,-0.0006259,0,0,0.031012,-0.010125,0,-0.0016273,0,0,0,0.035918,0.0042498,0.01205,-1.1327,0.017406,0.028578,9.0443e-07,0.24,0.56,0
0.0069571,-0.00062876,0.036006,0.0038548,0.011958,-0.00060685,0,0,0.031262,-0.010534,0,-0.0015778,0,0,0,0.036017,0.0038434,0.011958,-1.081,0.017273,0.028981,9.276e-07,0.25,0.56,0
0.0072709,-0.0006533,0.036102,0.0034496,0.011865,-0.0005885,0,0,0.031507,-0.010941,0,-0.0015301,0,0,0,0.036112,0.003439,0.011865,-1.0322,0.017139,0.029381,9.5044e-07,0.26,0.56,0
0.0075872,-0.00067767,0.036195,0.0030465,0.011772,-0.00057096,0,0,0.031749,-0.011344,0,-0.0014845,0,0,0,0.036205,0.0030367,0.011772,-0.98649,0.017005,0.029777,9.7293e-07,0.27,0.56,0
0.0079059,-0.00070186,0.036285,0.0026455,0.011679,-0.0005543,0,0,0.031988,-0.011744,0,-0.0014412,0,0,0,0.036294,0.0026364,0.011679,-0.94376,0.01687,0.030171,9.9507e-07,0.28,0.56,0
0.008227,-0.00072588,0.036373,0.0022466,0.011586,-0.00053859,0,0,0.032223,-0.012141,0,-0.0014003,0,0,0,0.036381,0.0022381,0.011586,-0.90396,0.016735,0.030561,1.0169e-06,0.29,0.56,0
0.0085504,-0.00074974,0.036458,0.0018496,0.011492,-0.00052386,0,0,0.032455,-0.012535,0,-0.001362,0,0,0,0.036466,0.0018417,0.011492,-0.86702,0.0166,0.030949,1.0383e-06,0.3,0.56,0
0.0088761,-0.00077343,0.03654,0.0014546,0.011399,-0.00051013,0,0,0.032684,-0.012927,0,-0.0013264,0,0,0,0.036548,0.0014472,0.011399,-0.83283,0.016464,0.031333,1.0594e-06,0.31,0.56,0
0.0092041,-0.00079698,0.036621,0.0010614,0.011305,-0.0004974,0,0,0.032911,-0.013316,0,-0.0012932,0,0,0,0.036628,0.0010545,0.011305,-0.80124,0.016329,0.031716,1.0801e-06,0.32,0.56,0
0.0095343,-0.00082037,0.036699,0.00067007,0.011211,-0.00048563,0,0,0.033135,-0.013703,0,-0.0012626,0,0,0,0.036706,0.00066353,0.011211,-0.7721,0.016193,0.032096,1.1005e-06,0.33,0.56,0
0.0098667,-0.00084361,0.036776,0.00028046,0.011117,-0.00047479,0,0,0.033356,-0.014087,0,-0.0012345,0,0,0,0.036782,0.00027428,0.011117,-0.74523,0.016058,0.032474,1.1206e-06,0.34,0.56,0
0.010201,-0.00086672,0.036851,-0.00010744,0.011023,-0.00046481,0,0,0.033576,-0.014469,0,-0.0012085,0,0,0,0.036857,-0.00011328,0.011023,-0.72044,0.015922,0.032849,1.1403e-06,0.35,0.56,0
0.010538,-0.00088968,0.036924,-0.00049364,0.010929,-0.0004556,0,0,0.033793,-0.01485,0,-0.0011846,0,0,0,0.03693,-0.00049919,0.010929,-0.6975,0.015786,0.033223,1.1597e-06,0.36,0.56,0
0.010877,-0.00091251,0.036996,-0.00087815,0.010835,-0.00044708,0,0,0.034009,-0.015228,0,-0.0011624,0,0,0,0.037001,-0.00088342,0.010835,-0.67621,0.015651,0.033595,1.1787e-06,0.37,0.56,0
0.011218,-0.00093519,0.037067,-0.0012609,0.010742,-0.00043912,0,0,0.034223,-0.015604,0,-0.0011417,0,0,0,0.037072,-0.001266,0.010742,-0.65631,0.015516,0.033965,1.1975e-06,0.38,0.56,0
0.011562,-0.00095774,0.037137,-0.0016419,0.010648,-0.0004316,0,0,0.034435,-0.015978,0,-0.0011222,0,0,0,0.037142,-0.0016467,0.010648,-0.63759,0.015381,0.034334,1.2159e-06,0.39,0.56,0
0.011907,-0.00098013,0.037206,-0.002021,0.010555,-0.00042439,0,0,0.034645,-0.016349,0,-0.0011034,0,0,0,0.03721,-0.0020256,0.010555,-0.61978,0.015247,0.0347,1.234e-06,0.4,0.56,0
0.012255,-0.0010024,0.037274,-0.0023981,0.010463,-0.00041734,0,0,0.034854,-0.016719,0,-0.0010851,0,0,0,0.037278,-0.0024025,0.010463,-0.60266,0.015113,0.035065,1.2517e-06,0.41,0.56,0
0.012604,-0.0010245,0.03734,-0.0027731,0.01037,-0.00041031,0,0,0.035061,-0.017086,0,-0.0010668,0,0,0,0.037344,-0.0027773,0.01037,-0.58598,0.014979,0.035428,1.2691e-06,0.42,0.56,0
0.012956,-0.0010464,0.037406,-0.0031456,0.010278,-0.00040313,0,0,0.035266,-0.017451,0,-0.0010481,0,0,0,0.03741,-0.0031497,0.010278,-0.56951,0.014846,0.035788,1.2861e-06,0.43,0.56,0
0.01331,-0.0010681,0.037471,-0.0035156,0.010186,-0.00039565,0,0,0.03547,-0.017813,0,-0.0010287,0,0,0,0.037475,-0.0035194,0.010186,-0.55302,0.014714,0.036145,1.3027e-06,0.44,0.56,0
0.013665,-0.0010896,0.037534,-0.0038827,0.010096,-0.00038771,0,0,0.035671,-0.018172,0,-0.001008,0,0,0,0.037538,-0.0038863,0.010096,-0.53629,0.014582,0.0365,1.319e-06,0.45,0.56,0
0.014023,-0.0011109,0.037597,-0.0042466,0.010005,-0.00037916,0,0,0.035869,-0.018527,0,-0.00098581,0,0,0,0.0376,-0.00425,0.010005,-0.51912,0.014452,0.036852,1.3348e-06,0.46,0.56,0
0.014383,-0.0011319,0.037658,-0.0046069,0.0099153,-0.00036984,0,0,0.036066,-0.018879,0,-0.00096159,0,0,0,0.037661,-0.0046101,0.0099153,-0.50132,0.014322,0.0372,1.3501e-06,0.47,0.56,0
0.014744,-0.0011527,0.037718,-0.0049633,0.0098263,-0.00035961,0,0,0.036259,-0.019227,0,-0.00093497,0,0,0,0.037721,-0.0049663,0.0098263,-0.48269,0.014194,0.037544,1.365e-06,0.48,0.56,0
0.015108,-0.0011732,0.037776,-0.0053153,0.0097382,-0.00034831,0,0,0.036449,-0.01957,0,-0.00090561,0,0,0,0.037779,-0.0053181,0.0097382,-0.46309,0.014066,0.037883,1.3794e-06,0.49,0.56,0
0.015473,-0.0011933,0.037819,-0.0001992,0.011286,-0.00033697,0,0,0.050714,-0.019907,0,-0.0013068,0,0,0,0.037822,-0.00020224,0.011286,-0.51701,0.016302,0.033847,1.2057e-06,0.5,0.56,0
0.016122,-0.0012218,0.037887,0.0050382,0.012878,-0.00032771,0,0,0.065025,-0.020383,0,-0.0017041,0,0,0,0.037891,0.005035,0.012878,-0.57151,0.018601,0.029721,1.0385e-06,0.51,0.56,0
0.016774,-0.0012497,0.037941,0.0048046,0.012824,-0.00031908,0,0,0.065304,-0.020849,0,-0.0016592,0,0,0,0.037944,0.0048016,0.012824,-0.55166,0.018523,0.029948,1.0531e-06,0.52,0.56,0
0.017428,-0.0012772,0.037993,0.0045752,0.01277,-0.0003101,0,0,0.065578,-0.021307,0,-0.0016125,0,0,0,0.037996,0.0045724,0.01277,-0.53162,0.018446,0.030171,1.0674e-06,0.53,0.56,0
0.018085,-0.001304,0.038043,0.0043502,0.012718,-0.00030075,0,0,0.065845,-0.021756,0,-0.0015639,0,0,0,0.038046,0.0043475,0.012718,-0.51138,0.01837,0.03039,1.0813e-06,0.54,0.56,0
0.018745,-0.0013303,0.038092,0.0041297,0.012667,-0.00029103,0,0,0.066106,-0.022196,0,-0.0015133,0,0,0,0.038094,0.0041273,0.012667,-0.49093,0.018296,0.030604,1.095e-06,0.55,0.56,0
0.019407,-0.001356,0.038139,0.003914,0.012616,-0.00028095,0,0,0.06636,-0.022625,0,-0.0014609,0,0,0,0.038142,0.0039117,0.012616,-0.4703,0.018223,0.030814,1.1082e-06,0.56,0.56,0
0.020072,-0.0013812,0.038185,0.0037032,0.012566,-0.00027054,0,0,0.066608,-0.023044,0,-0.0014068,0,0,0,0.038187,0.0037011,0.012566,-0.4495,0.018151,0.031018,1.1212e-06,0.57,0.56,0
0.02074,-0.0014056,0.038228,0.0034974,0.012518,-0.00025981,0,0,0.066848,-0.023453,0,-0.001351,0,0,0,0.03823,0.0034955,0.012518,-0.42857,0.018081,0.031217,1.1337e-06,0.58,0.56,0
0.021409,-0.0014295,0.03827,0.0032969,0.01247,-0.00024881,0,0,0.06708,-0.023851,0,-0.0012938,0,0,0,0.038272,0.0032951,0.01247,-0.40758,0.018013,0.031411,1.1458e-06,0.59,0.56,0
0.022081,-0.0014526,0.03831,0.0031017,0.012424,-0.00023756,0,0,0.067306,-0.024237,0,-0.0012353,0,0,0,0.038312,0.0031001,0.012424,-0.38657,0.017945,0.031599,1.1575e-06,0.6,0.56,0
0.022755,-0.0014751,0.038349,0.0029119,0.012378,-0.00022614,0,0,0.067523,-0.024612,0,-0.0011759,0,0,0,0.03835,0.0029105,0.012378,-0.36561,0.017879,0.031781,1.1688e-06,0.61,0.56,0
0.023432,-0.0014969,0.038385,0.0027278,0.012334,-0.00021457,0,0,0.067732,-0.024976,0,-0.0011157,0,0,0,0.038386,0.0027265,0.012334,-0.34476,0.017815,0.031958,1.1797e-06,0.62,0.56,0
0.02411,-0.001518,0.038419,0.0025493,0.01229,-0.00020291,0,0,0.067934,-0.025327,0,-0.0010551,0,0,0,0.03842,0.0025481,0.01229,-0.3241,0.017753,0.032128,1.1901e-06,0.63,0.56,0
0.02479,-0.0015384,0.038451,0.0023765,0.012248,-0.00019122,0,0,0.068127,-0.025666,0,-0.00099432,0,0,0,0.038452,0.0023755,0.012248,-0.30369,0.017692,0.032293,1.2002e-06,0.64,0.56,0
0.025472,-0.0015581,0.038481,0.0022095,0.012207,-0.00017955,0,0,0.068312,-0.025994,0,-0.00093364,0,0,0,0.038482,0.0022086,0.012207,-0.28361,0.017633,0.032451,1.2097e-06,0.65,0.56,0
0.026157,-0.0015771,0.038509,0.0020484,0.012167,-0.00016796,0,0,0.068489,-0.026309,0,-0.00087337,0,0,0,0.03851,0.0020476,0.012167,-0.26392,0.017575,0.032603,1.2188e-06,0.66,0.56,0
0.026842,-0.0015953,0.038536,0.0018931,0.012129,-0.0001565,0,0,0.068658,-0.026612,0,-0.0008138,0,0,0,0.038536,0.0018925,0.012129,-0.2447,0.017519,0.032748,1.2275e-06,0.67,0.56,0
0.02753,-0.0016129,0.03856,0.0017437,0.012091,-0.00014523,0,0,0.068819,-0.026903,0,-0.00075519,0,0,0,0.038561,0.0017432,0.012091,-0.22601,0.017465,0.032888,1.2358e-06,0.68,0.56,0
0.028219,-0.0016297,0.038582,0.0016002,0.012055,-0.00013419,0,0,0.068972,-0.027182,0,-0.0006978,0,0,0,0.038583,0.0015997,0.012055,-0.2079,0.017413,0.033021,1.2436e-06,0.69,0.56,0
0.028909,-0.0016458,0.038603,0.0014625,0.01202,-0.00012344,0,0,0.069117,-0.027449,0,-0.00064189,0,0,0,0.038604,0.0014621,0.01202,-0.19043,0.017362,0.033149,1.251e-06,0.7,0.56,0
0.029601,-0.0016612,0.038622,0.0013306,0.011986,-0.00011302,0,0,0.069254,-0.027703,0,-0.00058769,0,0,0,0.038622,0.0013303,0.011986,-0.17364,0.017313,0.03327,1.2579e-06,0.71,0.56,0
0.030294,-0.0016759,0.038639,0.0012045,0.011953,-0.00010296,0,0,0.069384,-0.027946,0,-0.00053539,0,0,0,0.038639,0.0012042,0.011953,-0.15759,0.017266,0.033385,1.2645e-06,0.72,0.56,0
0.030989,-0.0016899,0.038655,0.001084,0.011922,-9.3306e-05,0,0,0.069506,-0.028178,0,-0.00048519,0,0,0,0.038655,0.0010838,0.011922,-0.14229,0.01722,0.033494,1.2707e-06,0.73,0.56,0
0.031684,-0.0017033,0.038669,0.00096922,0.011891,-8.4084e-05,0,0,0.069621,-0.028397,0,-0.00043724,0,0,0,0.038669,0.00096903,0.011891,-0.12779,0.017176,0.033598,1.2764e-06,0.74,0.56,0
0.032381,-0.0017159,0.038681,0.00085994,0.011862,-7.5322e-05,0,0,0.069728,-0.028606,0,-0.00039168,0,0,0,0.038681,0.00085979,0.011862,-0.11411,0.017134,0.033695,1.2818e-06,0.75,0.56,0
0.033079,-0.0017279,0.038692,0.00075611,0.011834,-6.7041e-05,0,0,0.06983,-0.028803,0,-0.00034861,0,0,0,0.038692,0.00075599,0.011834,-0.10125,0.017094,0.033788,1.2869e-06,0.76,0.56,0
0.033778,-0.0017393,0.038701,0.00065764,0.011808,-5.9257e-05,0,0,0.069924,-0.02899,0,-0.00030814,0,0,0,0.038702,0.00065755,0.011808,-0.089244,0.017056,0.033875,1.2916e-06,0.77,0.56,0
0.034477,-0.00175,0.03871,0.00056442,0.011782,-5.1982e-05,0,0,0.070012,-0.029167,0,-0.00027031,0,0,0,0.03871,0.00056435,0.011782,-0.078079,0.017019,0.033956,1.2959e-06,0.78,0.56,0
0.035178,-0.0017601,0.038717,0.00047635,0.011758,-4.5225e-05,0,0,0.070094,-0.029333,0,-0.00023517,0,0,0,0.038717,0.0004763,0.011758,-0.067759,0.016984,0.034033,1.2999e-06,0.79,0.56,0
0.035879,-0.0017696,0.038723,0.00039333,0.011735,-3.8987e-05,0,0,0.07017,-0.029488,0,-0.00020273,0,0,0,0.038724,0.00039329,0.011735,-0.058277,0.016951,0.034104,1.3037e-06,0.8,0.56,0
0.036581,-0.0017786,0.038729,0.00031523,0.011713,-3.3268e-05,0,0,0.07024,-0.029635,0,-0.00017299,0,0,0,0.038729,0.0003152,0.011713,-0.049621,0.016919,0.034171,1.3071e-06,0.81,0.56,0
0.037284,-0.0017869,0.038733,0.00024195,0.011692,-2.8063e-05,0,0,0.070305,-0.029771,0,-0.00014593,0,0,0,0.038733,0.00024193,0.011692,-0.041773,0.016889,0.034234,1.3103e-06,0.82,0.56,0
0.037988,-0.0017947,0.038737,0.00017338,0.011673,-2.3364e-05,0,0,0.070365,-0.029899,0,-0.00012149,0,0,0,0.038737,0.00017337,0.011673,-0.034713,0.016861,0.034291,1.3132e-06,0.83,0.56,0
0.038691,-0.001802,0.038739,0.00010941,0.011655,-1.9158e-05,0,0,0.07042,-0.030018,0,-9.9624e-05,0,0,0,0.038739,0.0001094,0.011655,-0.028416,0.016834,0.034345,1.3158e-06,0.84,0.56,0
0.039396,-0.0018087,0.038742,4.9927e-05,0.011638,-1.5431e-05,0,0,0.070471,-0.030128,0,-8.0244e-05,0,0,0,0.038742,4.9921e-05,0.011638,-0.022851,0.01681,0.034395,1.3182e-06,0.85,0.56,0
0.040101,-0.001815,0.038743,-5.1713e-06,0.011621,-1.2165e-05,0,0,0.070517,-0.030229,0,-6.3259e-05,0,0,0,0.038743,-5.1751e-06,0.011621,-0.017988,0.016786,0.03444,1.3204e-06,0.86,0.56,0
0.040806,-0.0018207,0.038745,-5.5987e-05,0.011607,-9.339e-06,0,0,0.070559,-0.030323,0,-4.8563e-05,0,0,0,0.038745,-5.599e-05,0.011607,-0.013791,0.016765,0.034482,1.3224e-06,0.87,0.56,0
0.041512,-0.0018259,0.038745,-0.00010262,0.011593,-6.93e-06,0,0,0.070597,-0.030408,0,-3.6036e-05,0,0,0,0.038745,-0.00010262,0.011593,-0.010221,0.016745,0.03452,1.3242e-06,0.88,0.56,0
0.042218,-0.0018307,0.038746,-0.00014516,0.01158,-4.9133e-06,0,0,0.070631,-0.030486,0,-2.5549e-05,0,0,0,0.038746,-0.00014516,0.01158,-0.0072384,0.016727,0.034554,1.3257e-06,0.89,0.56,0
0.042925,-0.001835,0.038746,-0.00018369,0.011569,-3.262e-06,0,0,0.070661,-0.030556,0,-1.6962e-05,0,0,0,0.038746,-0.00018369,0.011569,-0.0048008,0.01671,0.034585,1.3272e-06,0.9,0.56,0
0.043631,-0.0018389,0.038746,-0.0002183,0.011558,-1.9475e-06,0,0,0.070688,-0.030619,0,-1.0127e-05,0,0,0,0.038746,-0.0002183,0.011558,-0.0028638,0.016695,0.034613,1.3284e-06,0.91,0.56,0
0.044338,-0.0018423,0.038746,-0.00024905,0.011549,-9.4007e-07,0,0,0.070712,-0.030675,0,-4.8884e-06,0,0,0,0.038746,-0.00024905,0.011549,-0.0013813,0.016682,0.034637,1.3295e-06,0.92,0.56,0
0.045046,-0.0018453,0.038746,-0.00027603,0.011541,-2.0837e-07,0,0,0.070733,-0.030724,0,-1.0835e-06,0,0,0,0.038746,-0.00027603,0.011541,-0.00030594,0.01667,0.034659,1.3305e-06,0.93,0.56,0
0.045753,-0.0018479,0.038746,-0.00029928,0.011534,2.7987e-07,0,0,0.07075,-0.030766,0,1.4553e-06,0,0,0,0.038746,-0.00029928,0.011534,0.00041069,0.01666,0.034677,1.3313e-06,0.94,0.56,0
0.046461,-0.0018501,0.038745,-0.00031887,0.011528,5.5781e-07,0,0,0.070765,-0.030802,0,2.9006e-06,0,0,0,0.038745,-0.00031887,0.011528,0.00081815,0.016651,0.034692,1.332e-06,0.95,0.56,0
0.047168,-0.0018519,0.038745,-0.00033483,0.011523,6.5942e-07,0,0,0.070777,-0.03083,0,3.429e-06,0,0,0,0.038745,-0.00033483,0.011523,0.00096679,0.016644,0.034705,1.3325e-06,0.96,0.56,0
0.047876,-0.0018533,0.038745,-0.00034721,0.011519,6.1924e-07,0,0,0.070786,-0.030853,0,3.22e-06,0,0,0,0.038745,-0.00034721,0.011519,0.00090759,0.016639,0.034715,1.3329e-06,0.97,0.56,0
0.048584,-0.0018542,0.038745,-0.00035602,0.011517,4.7231e-07,0,0,0.070793,-0.030869,0,2.456e-06,0,0,0,0.038745,-0.00035602,0.011517,0.00069209,0.016635,0.034722,1.3332e-06,0.98,0.56,0
0.049292,-0.0018548,0.038744,-0.00036131,0.011515,2.5402e-07,0,0,0.070796,-0.030878,0,1.3209e-06,0,0,0,0.038744,-0.00036131,0.011515,0.00037218,0.016633,0.034726,1.3334e-06,0.99,0.56,0
0.05,-0.001855,0.038744,-0.00036307,0.011514,-3.7536e-06,0,0,0.070798,-0.030881,0,-1.9519e-05,0,0,0,0.038744,-0.00036307,0.011514,-0.0054994,0.016632,0.034727,1.3334e-06,1,0.56,0
0,0,0.032875,0.014089,0.014089,-0.0010184,0,0,0.024421,8.1315e-20,0,-0.0026479,0,0,0,0.03293,0.014034,0.014089,-3.0941,0.020351,0.018868,3.4499e-07,0,0.57,0
0.00024421,-2.6479e-05,0.032839,0.013651,0.013947,-0.0010196,0,0,0.02456,-0.00038468,0,-0.0026511,0,0,0,0.032893,0.013597,0.013947,-3.0333,0.020146,0.019124,3.5879e-07,0.01,0.57,0
0.00049119,-5.357e-05,0.032988,0.013282,0.013881,-0.0010309,0,0,0.024839,-0.00077835,0,-0.0026804,0,0,0,0.033042,0.013229,0.013881,-2.9866,0.02005,0.019495,3.791e-07,0.02,0.57,0
0.00074099,-8.1224e-05,0.033138,0.012905,0.013813,-0.0010394,0,0,0.025123,-0.0011802,0,-0.0027025,0,0,0,0.033191,0.012852,0.013813,-2.9332,0.019952,0.019876,4.0013e-07,0.03,0.57,0
0.00099365,-0.00010939,0.033289,0.01252,0.013743,-0.0010451,0,0,0.02541,-0.0015895,0,-0.0027174,0,0,0,0.033342,0.012468,0.013743,-2.8736,0.019851,0.020266,4.2182e-07,0.04,0.57,0
0.0012492,-0.00013801,0.033441,0.012128,0.013671,-0.001048,0,0,0.025701,-0.0020052,0,-0.0027248,0,0,0,0.033492,0.012077,0.013671,-2.8084,0.019747,0.020664,4.4413e-07,0.05,0.57,0
0.0015077,-0.00016703,0.033592,0.01173,0.013597,-0.001048,0,0,0.025994,-0.0024266,0,-0.0027249,0,0,0,0.033642,0.01168,0.013597,-2.7383,0.01964,0.02107,4.67e-07,0.06,0.57,0
0.0017691,-0.00019641,0.033744,0.011327,0.013521,-0.0010452,0,0,0.026289,-0.0028528,0,-0.0027176,0,0,0,0.033792,0.011278,0.013521,-2.6639,0.01953,0.021481,4.9039e-07,0.07,0.57,0
0.0020335,-0.00022607,0.033894,0.010918,0.013444,-0.0010398,0,0,0.026585,-0.0032829,0,-0.0027034,0,0,0,0.033941,0.010871,0.013444,-2.5859,0.019419,0.021897,5.1423e-07,0.08,0.57,0
0.0023008,-0.00025598,0.034043,0.010506,0.013365,-0.0010316,0,0,0.026882,-0.0037161,0,-0.0026822,0,0,0,0.034088,0.010461,0.013365,-2.5049,0.019305,0.022317,5.3845e-07,0.09,0.57,0
0.0025711,-0.00028609,0.034191,0.010091,0.013284,-0.001021,0,0,0.027178,-0.0041517,0,-0.0026546,0,0,0,0.034234,0.010048,0.013284,-2.4216,0.019189,0.022741,5.63e-07,0.1,0.57,0
0.0028443,-0.00031633,0.034336,0.0096728,0.013203,-0.001008,0,0,0.027473,-0.0045888,0,-0.0026209,0,0,0,0.034377,0.0096317,0.013203,-2.3366,0.019071,0.023167,5.8781e-07,0.11,0.57,0
0.0031206,-0.00034667,0.034479,0.009253,0.01312,-0.00099294,0,0,0.027767,-0.0050267,0,-0.0025816,0,0,0,0.034518,0.009214,0.01312,-2.2506,0.018951,0.023595,6.1281e-07,0.12,0.57,0
0.0033997,-0.00037706,0.03462,0.0088318,0.013035,-0.00097588,0,0,0.028059,-0.0054647,0,-0.0025373,0,0,0,0.034656,0.0087949,0.013035,-2.1641,0.018829,0.024024,6.3795e-07,0.13,0.57,0
0.0036817,-0.00040746,0.034757,0.0084099,0.01295,-0.00095708,0,0,0.028349,-0.0059022,0,-0.0024884,0,0,0,0.034792,0.0083752,0.01295,-2.0777,0.018706,0.024452,6.6317e-07,0.14,0.57,0
0.0039667,-0.00043783,0.034891,0.0079878,0.012864,-0.00093678,0,0,0.028636,-0.0063387,0,-0.0024356,0,0,0,0.034924,0.0079553,0.012864,-1.9918,0.018581,0.02488,6.8839e-07,0.15,0.57,0
0.0042545,-0.00046814,0.035022,0.0075661,0.012776,-0.00091521,0,0,0.02892,-0.0067736,0,-0.0023795,0,0,0,0.035053,0.0075356,0.012776,-1.907,0.018455,0.025307,7.1357e-07,0.16,0.57,0
0.0045451,-0.00049835,0.03515,0.0071449,0.012688,-0.00089263,0,0,0.0292,-0.0072064,0,-0.0023208,0,0,0,0.035178,0.0071165,0.012688,-1.8238,0.018328,0.025732,7.3865e-07,0.17,0.57,0
0.0048385,-0.00052844,0.035273,0.0067249,0.012599,-0.00086928,0,0,0.029476,-0.0076369,0,-0.0022601,0,0,0,0.0353,0.0066985,0.012599,-1.7425,0.018199,0.026155,7.6359e-07,0.18,0.57,0
0.0051346,-0.0005584,0.035393,0.0063062,0.01251,-0.0008454,0,0,0.029748,-0.0080646,0,-0.0021981,0,0,0,0.035418,0.0062817,0.01251,-1.6634,0.01807,0.026575,7.8834e-07,0.19,0.57,0
0.0054334,-0.00058818,0.035509,0.0058892,0.012419,-0.00082124,0,0,0.030017,-0.0084894,0,-0.0021352,0,0,0,0.035532,0.0058665,0.012419,-1.587,0.017939,0.026992,8.1287e-07,0.2,0.57,0
0.0057349,-0.00061779,0.035622,0.005474,0.012329,-0.00079703,0,0,0.030281,-0.008911,0,-0.0020723,0,0,0,0.035643,0.005453,0.012329,-1.5134,0.017808,0.027406,8.3714e-07,0.21,0.57,0
0.006039,-0.00064721,0.03573,0.0050609,0.012237,-0.00077297,0,0,0.030541,-0.0093293,0,-0.0020097,0,0,0,0.035749,0.0050414,0.012237,-1.4428,0.017676,0.027817,8.6112e-07,0.22,0.57,0
0.0063457,-0.00067643,0.035835,0.0046498,0.012145,-0.00074929,0,0,0.030796,-0.0097442,0,-0.0019481,0,0,0,0.035853,0.0046318,0.012145,-1.3756,0.017543,0.028224,8.8479e-07,0.23,0.57,0
0.0066549,-0.00070544,0.035936,0.004241,0.012053,-0.00072615,0,0,0.031048,-0.010156,0,-0.001888,0,0,0,0.035953,0.0042244,0.012053,-1.3117,0.01741,0.028628,9.0813e-07,0.24,0.57,0
0.0069667,-0.00073424,0.036034,0.0038344,0.01196,-0.00070372,0,0,0.031295,-0.010564,0,-0.0018297,0,0,0,0.036049,0.003819,0.01196,-1.2514,0.017276,0.029029,9.3113e-07,0.25,0.57,0
0.0072809,-0.00076284,0.036128,0.0034301,0.011867,-0.00068215,0,0,0.031539,-0.010969,0,-0.0017736,0,0,0,0.036142,0.0034158,0.011867,-1.1946,0.017142,0.029426,9.5377e-07,0.26,0.57,0
0.0075975,-0.00079123,0.036219,0.0030279,0.011774,-0.00066156,0,0,0.031779,-0.01137,0,-0.0017201,0,0,0,0.036233,0.0030147,0.011774,-1.1414,0.017007,0.029819,9.7606e-07,0.27,0.57,0
0.0079164,-0.00081941,0.036308,0.0026279,0.011681,-0.00064204,0,0,0.032015,-0.011769,0,-0.0016693,0,0,0,0.03632,0.0026157,0.011681,-1.0917,0.016872,0.03021,9.9799e-07,0.28,0.57,0
0.0082378,-0.0008474,0.036393,0.0022301,0.011587,-0.00062365,0,0,0.032248,-0.012164,0,-0.0016215,0,0,0,0.036404,0.0022187,0.011587,-1.0455,0.016737,0.030597,1.0196e-06,0.29,0.57,0
0.0085614,-0.00087519,0.036476,0.0018342,0.011493,-0.00060645,0,0,0.032478,-0.012556,0,-0.0015768,0,0,0,0.036487,0.0018236,0.011493,-1.0026,0.016601,0.030981,1.0408e-06,0.3,0.57,0
0.0088873,-0.00090279,0.036557,0.0014403,0.011399,-0.00059046,0,0,0.032705,-0.012946,0,-0.0015352,0,0,0,0.036567,0.0014304,0.011399,-0.96303,0.016465,0.031363,1.0616e-06,0.31,0.57,0
0.0092155,-0.00093022,0.036635,0.0010482,0.011305,-0.00057566,0,0,0.032929,-0.013334,0,-0.0014967,0,0,0,0.036644,0.0010389,0.011305,-0.9265,0.016329,0.031743,1.0821e-06,0.32,0.57,0
0.0095459,-0.00095747,0.036711,0.00065792,0.011211,-0.00056202,0,0,0.033151,-0.013719,0,-0.0014613,0,0,0,0.03672,0.00064916,0.011211,-0.89286,0.016193,0.03212,1.1023e-06,0.33,0.57,0
0.0098785,-0.00098455,0.036786,0.0002693,0.011117,-0.00054949,0,0,0.03337,-0.014101,0,-0.0014287,0,0,0,0.036794,0.00026103,0.011117,-0.8619,0.016057,0.032495,1.1221e-06,0.34,0.57,0
0.010213,-0.0010115,0.036859,-0.00011769,0.011022,-0.00053799,0,0,0.033588,-0.014482,0,-0.0013988,0,0,0,0.036867,-0.00012552,0.011022,-0.83339,0.015921,0.032868,1.1417e-06,0.35,0.57,0
0.01055,-0.0010382,0.036931,-0.00050308,0.010928,-0.00052743,0,0,0.033803,-0.014861,0,-0.0013713,0,0,0,0.036938,-0.00051051,0.010928,-0.80706,0.015785,0.03324,1.1609e-06,0.36,0.57,0
0.010889,-0.0010648,0.037001,-0.00088689,0.010834,-0.00051768,0,0,0.034017,-0.015238,0,-0.001346,0,0,0,0.037008,-0.00089397,0.010834,-0.78266,0.01565,0.03361,1.1797e-06,0.37,0.57,0
0.011231,-0.0010913,0.03707,-0.0012691,0.01074,-0.00050861,0,0,0.034229,-0.015612,0,-0.0013224,0,0,0,0.037077,-0.0012759,0.01074,-0.7599,0.015514,0.033978,1.1983e-06,0.38,0.57,0
0.011574,-0.0011175,0.037139,-0.0016497,0.010647,-0.00050008,0,0,0.03444,-0.015985,0,-0.0013002,0,0,0,0.037145,-0.0016561,0.010647,-0.73852,0.015379,0.034344,1.2165e-06,0.39,0.57,0
0.011919,-0.0011437,0.037206,-0.0020285,0.010553,-0.00049191,0,0,0.034649,-0.016356,0,-0.001279,0,0,0,0.037212,-0.0020347,0.010553,-0.7182,0.015244,0.034709,1.2344e-06,0.4,0.57,0
0.012267,-0.0011696,0.037273,-0.0024055,0.01046,-0.00048394,0,0,0.034856,-0.016725,0,-0.0012583,0,0,0,0.037278,-0.0024114,0.01046,-0.69868,0.015109,0.035073,1.252e-06,0.41,0.57,0
0.012616,-0.0011953,0.037338,-0.0027806,0.010367,-0.000476,0,0,0.035062,-0.017092,0,-0.0012376,0,0,0,0.037344,-0.0027862,0.010367,-0.67967,0.014975,0.035434,1.2693e-06,0.42,0.57,0
0.012968,-0.0012209,0.037403,-0.0031534,0.010275,-0.00046788,0,0,0.035266,-0.017457,0,-0.0012165,0,0,0,0.037408,-0.0031588,0.010275,-0.66089,0.014841,0.035793,1.2862e-06,0.43,0.57,0
0.013322,-0.0012462,0.037466,-0.0035237,0.010183,-0.00045942,0,0,0.035469,-0.017819,0,-0.0011945,0,0,0,0.037472,-0.0035289,0.010183,-0.64207,0.014708,0.036151,1.3027e-06,0.44,0.57,0
0.013678,-0.0012713,0.037529,-0.0038914,0.010091,-0.00045042,0,0,0.035669,-0.018178,0,-0.0011711,0,0,0,0.037534,-0.0038963,0.010091,-0.62295,0.014576,0.036505,1.3188e-06,0.45,0.57,0
0.014035,-0.0012962,0.037591,-0.004256,0.010001,-0.0004407,0,0,0.035868,-0.018534,0,-0.0011458,0,0,0,0.037596,-0.0042607,0.010001,-0.6033,0.014445,0.036857,1.3346e-06,0.46,0.57,0
0.014395,-0.0013207,0.037652,-0.0046173,0.0099103,-0.00043007,0,0,0.036064,-0.018886,0,-0.0011182,0,0,0,0.037656,-0.0046217,0.0099103,-0.58288,0.014315,0.037205,1.3499e-06,0.47,0.57,0
0.014757,-0.001345,0.037711,-0.0049747,0.0098208,-0.00041836,0,0,0.036257,-0.019234,0,-0.0010877,0,0,0,0.037715,-0.0049788,0.0098208,-0.56149,0.014186,0.037549,1.3647e-06,0.48,0.57,0
0.01512,-0.0013689,0.037768,-0.005328,0.0097321,-0.00040541,0,0,0.036447,-0.019578,0,-0.0010541,0,0,0,0.037772,-0.0053318,0.0097321,-0.53892,0.014058,0.037889,1.379e-06,0.49,0.57,0
0.015485,-0.0013924,0.037811,-0.00021067,0.01128,-0.00039236,0,0,0.050709,-0.019917,0,-0.0015216,0,0,0,0.037815,-0.00021478,0.01128,-0.60193,0.016293,0.033851,1.2054e-06,0.5,0.57,0
0.016134,-0.0014257,0.037879,0.0050291,0.012873,-0.00038166,0,0,0.065017,-0.020393,0,-0.0019846,0,0,0,0.037884,0.0050247,0.012873,-0.66555,0.018594,0.029722,1.0383e-06,0.51,0.57,0
0.016786,-0.0014583,0.037932,0.0047951,0.012818,-0.00037165,0,0,0.065296,-0.02086,0,-0.0019326,0,0,0,0.037936,0.004791,0.012818,-0.6425,0.018515,0.02995,1.0529e-06,0.52,0.57,0
0.01744,-0.0014903,0.037984,0.0045653,0.012765,-0.00036122,0,0,0.06557,-0.021319,0,-0.0018783,0,0,0,0.037988,0.0045614,0.012765,-0.61921,0.018438,0.030173,1.0671e-06,0.53,0.57,0
0.018097,-0.0015217,0.038034,0.0043399,0.012712,-0.00035033,0,0,0.065837,-0.021768,0,-0.0018217,0,0,0,0.038038,0.0043362,0.012712,-0.59564,0.018362,0.030392,1.0811e-06,0.54,0.57,0
0.018757,-0.0015524,0.038083,0.004119,0.01266,-0.00033901,0,0,0.066098,-0.022208,0,-0.0017628,0,0,0,0.038086,0.0041156,0.01266,-0.57181,0.018288,0.030606,1.0947e-06,0.55,0.57,0
0.019419,-0.0015824,0.03813,0.0039029,0.01261,-0.00032725,0,0,0.066352,-0.022638,0,-0.0017017,0,0,0,0.038133,0.0038998,0.01261,-0.54774,0.018214,0.030816,1.1079e-06,0.56,0.57,0
0.020084,-0.0016117,0.038175,0.0036917,0.01256,-0.00031508,0,0,0.066599,-0.023058,0,-0.0016384,0,0,0,0.038178,0.0036889,0.01256,-0.52346,0.018142,0.03102,1.1208e-06,0.57,0.57,0
0.020751,-0.0016402,0.038219,0.0034856,0.012511,-0.00030254,0,0,0.066839,-0.023467,0,-0.0015732,0,0,0,0.038221,0.003483,0.012511,-0.49902,0.018072,0.031219,1.1333e-06,0.58,0.57,0
0.021421,-0.001668,0.03826,0.0032848,0.012464,-0.00028967,0,0,0.067072,-0.023865,0,-0.0015063,0,0,0,0.038263,0.0032824,0.012464,-0.47448,0.018003,0.031413,1.1454e-06,0.59,0.57,0
0.022093,-0.0016951,0.0383,0.0030893,0.012417,-0.00027651,0,0,0.067296,-0.024251,0,-0.0014379,0,0,0,0.038302,0.0030872,0.012417,-0.44991,0.017935,0.031601,1.1571e-06,0.6,0.57,0
0.022767,-0.0017213,0.038338,0.0028994,0.012371,-0.00026313,0,0,0.067513,-0.024627,0,-0.0013683,0,0,0,0.03834,0.0028975,0.012371,-0.42539,0.017869,0.031783,1.1684e-06,0.61,0.57,0
0.023443,-0.0017467,0.038374,0.0027151,0.012327,-0.00024958,0,0,0.067722,-0.02499,0,-0.0012978,0,0,0,0.038375,0.0027134,0.012327,-0.40099,0.017805,0.031959,1.1792e-06,0.62,0.57,0
0.024121,-0.0017714,0.038407,0.0025366,0.012283,-0.00023592,0,0,0.067923,-0.025341,0,-0.0012268,0,0,0,0.038409,0.002535,0.012283,-0.37681,0.017742,0.032129,1.1896e-06,0.63,0.57,0
0.024801,-0.0017952,0.038439,0.0023638,0.012241,-0.00022223,0,0,0.068116,-0.025681,0,-0.0011556,0,0,0,0.038441,0.0023624,0.012241,-0.35293,0.017681,0.032293,1.1996e-06,0.64,0.57,0
0.025483,-0.0018181,0.038469,0.0021969,0.0122,-0.00020856,0,0,0.0683,-0.026008,0,-0.0010845,0,0,0,0.03847,0.0021957,0.0122,-0.32943,0.017622,0.032451,1.2091e-06,0.65,0.57,0
0.026167,-0.0018403,0.038497,0.0020359,0.01216,-0.00019499,0,0,0.068477,-0.026322,0,-0.0010139,0,0,0,0.038498,0.0020348,0.01216,-0.30639,0.017564,0.032602,1.2182e-06,0.66,0.57,0
0.026853,-0.0018615,0.038523,0.0018808,0.012121,-0.00018157,0,0,0.068645,-0.026625,0,-0.00094418,0,0,0,0.038524,0.0018799,0.012121,-0.28391,0.017508,0.032747,1.2268e-06,0.67,0.57,0
0.02754,-0.001882,0.038547,0.0017316,0.012084,-0.00016838,0,0,0.068805,-0.026915,0,-0.00087557,0,0,0,0.038548,0.0017308,0.012084,-0.26204,0.017454,0.032886,1.235e-06,0.68,0.57,0
0.028229,-0.0019016,0.038569,0.0015884,0.012047,-0.00015547,0,0,0.068956,-0.027193,0,-0.00080844,0,0,0,0.038569,0.0015877,0.012047,-0.24087,0.017401,0.033019,1.2427e-06,0.69,0.57,0
0.028919,-0.0019203,0.038589,0.001451,0.012012,-0.00014289,0,0,0.0691,-0.027459,0,-0.00074305,0,0,0,0.038589,0.0014505,0.012012,-0.22045,0.017351,0.033145,1.25e-06,0.7,0.57,0
0.029611,-0.0019383,0.038607,0.0013195,0.011978,-0.00013071,0,0,0.069236,-0.027712,0,-0.00067968,0,0,0,0.038608,0.001319,0.011978,-0.20084,0.017302,0.033266,1.2569e-06,0.71,0.57,0
0.030304,-0.0019554,0.038624,0.0011938,0.011945,-0.00011896,0,0,0.069364,-0.027954,0,-0.00061858,0,0,0,0.038624,0.0011934,0.011945,-0.18209,0.017254,0.03338,1.2634e-06,0.72,0.57,0
0.030998,-0.0019717,0.038639,0.0010738,0.011914,-0.00010768,0,0,0.069485,-0.028184,0,-0.00055995,0,0,0,0.038639,0.0010735,0.011914,-0.16424,0.017209,0.033488,1.2695e-06,0.73,0.57,0
0.031694,-0.0019873,0.038652,0.00095947,0.011883,-9.6921e-05,0,0,0.069599,-0.028403,0,-0.00050399,0,0,0,0.038652,0.00095922,0.011883,-0.14733,0.017165,0.033591,1.2752e-06,0.74,0.57,0
0.03239,-0.002002,0.038664,0.00085071,0.011855,-8.6703e-05,0,0,0.069705,-0.02861,0,-0.00045085,0,0,0,0.038664,0.00085051,0.011855,-0.13137,0.017123,0.033688,1.2805e-06,0.75,0.57,0
0.033088,-0.002016,0.038675,0.00074741,0.011827,-7.7051e-05,0,0,0.069805,-0.028806,0,-0.00040066,0,0,0,0.038675,0.00074726,0.011827,-0.1164,0.017083,0.033779,1.2855e-06,0.76,0.57,0
0.033786,-0.0020292,0.038684,0.00064949,0.0118,-6.7986e-05,0,0,0.069898,-0.028991,0,-0.00035353,0,0,0,0.038684,0.00064937,0.0118,-0.10242,0.017044,0.033865,1.2901e-06,0.77,0.57,0
0.034486,-0.0020417,0.038692,0.00055684,0.011775,-5.9521e-05,0,0,0.069985,-0.029166,0,-0.00030951,0,0,0,0.038692,0.00055674,0.011775,-0.089427,0.017008,0.033946,1.2944e-06,0.78,0.57,0
0.035186,-0.0020535,0.038698,0.00046934,0.01175,-5.1665e-05,0,0,0.070065,-0.029331,0,-0.00026866,0,0,0,0.038699,0.00046927,0.01175,-0.077432,0.016973,0.034022,1.2983e-06,0.79,0.57,0
0.035887,-0.0020645,0.038704,0.00038688,0.011727,-4.442e-05,0,0,0.07014,-0.029485,0,-0.00023098,0,0,0,0.038704,0.00038682,0.011727,-0.06642,0.016939,0.034092,1.302e-06,0.8,0.57,0
0.036589,-0.0020749,0.038709,0.00030934,0.011706,-3.7785e-05,0,0,0.070209,-0.02963,0,-0.00019648,0,0,0,0.038709,0.00030931,0.011706,-0.056378,0.016908,0.034159,1.3053e-06,0.81,0.57,0
0.037291,-0.0020846,0.038713,0.00023662,0.011685,-3.1754e-05,0,0,0.070273,-0.029766,0,-0.00016512,0,0,0,0.038713,0.00023659,0.011685,-0.047285,0.016878,0.03422,1.3084e-06,0.82,0.57,0
0.037994,-0.0020937,0.038716,0.0001686,0.011665,-2.6315e-05,0,0,0.070332,-0.029892,0,-0.00013684,0,0,0,0.038716,0.00016858,0.011665,-0.039114,0.01685,0.034277,1.3112e-06,0.83,0.57,0
0.038698,-0.0021021,0.038719,0.00010515,0.011647,-2.1456e-05,0,0,0.070386,-0.030009,0,-0.00011157,0,0,0,0.038719,0.00010514,0.011647,-0.031837,0.016824,0.03433,1.3138e-06,0.84,0.57,0
0.039402,-0.00211,0.03872,4.618e-05,0.01163,-1.7158e-05,0,0,0.070435,-0.030118,0,-8.9221e-05,0,0,0,0.03872,4.6172e-05,0.01163,-0.025419,0.016799,0.034379,1.3162e-06,0.85,0.57,0
0.040107,-0.0021172,0.038722,-8.4292e-06,0.011614,-1.3399e-05,0,0,0.07048,-0.030218,0,-6.9674e-05,0,0,0,0.038722,-8.4338e-06,0.011614,-0.019822,0.016776,0.034423,1.3183e-06,0.86,0.57,0
0.040812,-0.0021239,0.038723,-5.8779e-05,0.011599,-1.0155e-05,0,0,0.070521,-0.030311,0,-5.2806e-05,0,0,0,0.038723,-5.8782e-05,0.011599,-0.015003,0.016754,0.034465,1.3202e-06,0.87,0.57,0
0.041517,-0.0021299,0.038723,-0.00010497,0.011586,-7.3993e-06,0,0,0.070558,-0.030395,0,-3.8476e-05,0,0,0,0.038723,-0.00010497,0.011586,-0.010918,0.016735,0.034502,1.322e-06,0.88,0.57,0
0.042223,-0.0021355,0.038723,-0.0001471,0.011573,-5.1021e-06,0,0,0.070591,-0.030472,0,-2.6531e-05,0,0,0,0.038723,-0.0001471,0.011573,-0.0075206,0.016716,0.034536,1.3235e-06,0.89,0.57,0
0.042929,-0.0021405,0.038723,-0.00018525,0.011561,-3.232e-06,0,0,0.070621,-0.030541,0,-1.6806e-05,0,0,0,0.038723,-0.00018525,0.011561,-0.0047593,0.0167,0.034566,1.3249e-06,0.9,0.57,0
0.043635,-0.002145,0.038723,-0.00021951,0.011551,-1.7554e-06,0,0,0.070648,-0.030604,0,-9.1282e-06,0,0,0,0.038723,-0.00021951,0.011551,-0.0025827,0.016685,0.034593,1.3261e-06,0.91,0.57,0
0.044342,-0.002149,0.038723,-0.00024995,0.011542,-6.3732e-07,0,0,0.070671,-0.030659,0,-3.3141e-06,0,0,0,0.038723,-0.00024995,0.011542,-0.00093695,0.016672,0.034617,1.3272e-06,0.92,0.57,0
0.045049,-0.0021525,0.038722,-0.00027664,0.011534,1.5889e-07,0,0,0.070691,-0.030707,0,8.2623e-07,0,0,0,0.038722,-0.00027664,0.011534,0.00023343,0.01666,0.034638,1.3281e-06,0.93,0.57,0
0.045756,-0.0021555,0.038722,-0.00029965,0.011527,6.7097e-07,0,0,0.070708,-0.030749,0,3.489e-06,0,0,0,0.038722,-0.00029965,0.011527,0.00098518,0.01665,0.034656,1.3289e-06,0.94,0.57,0
0.046463,-0.002158,0.038722,-0.00031902,0.011521,9.377e-07,0,0,0.070722,-0.030783,0,4.876e-06,0,0,0,0.038722,-0.00031902,0.011521,0.0013762,0.016641,0.034672,1.3295e-06,0.95,0.57,0
0.04717,-0.0021601,0.038721,-0.00033481,0.011516,9.9874e-07,0,0,0.070734,-0.030812,0,5.1935e-06,0,0,0,0.038721,-0.00033481,0.011516,0.0014652,0.016634,0.034684,1.3301e-06,0.96,0.57,0
0.047878,-0.0021617,0.038721,-0.00034705,0.011512,8.9443e-07,0,0,0.070743,-0.030834,0,4.651e-06,0,0,0,0.038721,-0.00034705,0.011512,0.0013117,0.016629,0.034693,1.3304e-06,0.97,0.57,0
0.048585,-0.0021628,0.038721,-0.00035578,0.011509,6.6564e-07,0,0,0.070749,-0.03085,0,3.4613e-06,0,0,0,0.038721,-0.00035578,0.011509,0.000976,0.016625,0.0347,1.3307e-06,0.98,0.57,0
0.049293,-0.0021635,0.03872,-0.000361,0.011508,3.5365e-07,0,0,0.070753,-0.030859,0,1.839e-06,0,0,0,0.03872,-0.000361,0.011508,0.00051848,0.016622,0.034704,1.3309e-06,0.99,0.57,0
0.05,-0.0021637,0.03872,-0.00036274,0.011507,-4.3591e-06,0,0,0.070754,-0.030862,0,-2.2667e-05,0,0,0,0.03872,-0.00036274,0.011507,-0.0063904,0.016622,0.034706,1.331e-06,1,0.57,0
0,0,0.032914,0.014106,0.014106,-0.0011669,0,0,0.024451,5.421e-20,0,-0.003034,0,0,0,0.032987,0.014034,0.014106,-3.5367,0.020376,0.018917,3.4764e-07,0,0.58,0
0.00024451,-3.034e-05,0.032879,0.013665,0.013963,-0.0011683,0,0,0.02459,-0.00038769,0,-0.0030376,0,0,0,0.032949,0.013594,0.013963,-3.4669,0.020169,0.019173,3.6157e-07,0.01,0.58,0
0.0004918,-6.1382e-05,0.033029,0.013293,0.013896,-0.0011812,0,0,0.024872,-0.00078449,0,-0.0030711,0,0,0,0.033099,0.013222,0.013896,-3.413,0.020073,0.019548,3.8212e-07,0.02,0.58,0
0.00074194,-9.3069e-05,0.03318,0.012913,0.013828,-0.0011909,0,0,0.025158,-0.0011896,0,-0.0030963,0,0,0,0.033249,0.012843,0.013828,-3.3513,0.019973,0.019932,4.0338e-07,0.03,0.58,0
0.00099496,-0.00012534,0.033332,0.012525,0.013757,-0.0011973,0,0,0.025447,-0.001602,0,-0.0031129,0,0,0,0.0334,0.012456,0.013757,-3.2824,0.019871,0.020325,4.253e-07,0.04,0.58,0
0.0012509,-0.00015813,0.033485,0.01213,0.013684,-0.0012004,0,0,0.02574,-0.002021,0,-0.003121,0,0,0,0.033552,0.012062,0.013684,-3.2072,0.019766,0.020726,4.4784e-07,0.05,0.58,0
0.0015098,-0.00019139,0.033637,0.011728,0.01361,-0.0012002,0,0,0.026036,-0.0024455,0,-0.0031205,0,0,0,0.033703,0.011663,0.01361,-3.1263,0.019658,0.021134,4.7094e-07,0.06,0.58,0
0.0017716,-0.00022504,0.033789,0.011322,0.013533,-0.0011967,0,0,0.026333,-0.0028748,0,-0.0031115,0,0,0,0.033853,0.011258,0.013533,-3.0405,0.019548,0.021547,4.9454e-07,0.07,0.58,0
0.0020364,-0.00025902,0.03394,0.010911,0.013455,-0.0011901,0,0,0.026631,-0.0033079,0,-0.0030943,0,0,0,0.034002,0.010849,0.013455,-2.9505,0.019436,0.021965,5.1857e-07,0.08,0.58,0
0.0023042,-0.00029327,0.03409,0.010496,0.013376,-0.0011805,0,0,0.026929,-0.0037439,0,-0.0030692,0,0,0,0.034149,0.010437,0.013376,-2.8571,0.019321,0.022388,5.4298e-07,0.09,0.58,0
0.002575,-0.00032774,0.034238,0.010078,0.013295,-0.0011679,0,0,0.027226,-0.004182,0,-0.0030366,0,0,0,0.034294,0.010021,0.013295,-2.7611,0.019204,0.022813,5.6769e-07,0.1,0.58,0
0.0028487,-0.00036237,0.034384,0.0096574,0.013212,-0.0011527,0,0,0.027523,-0.0046215,0,-0.0029969,0,0,0,0.034438,0.0096038,0.013212,-2.6632,0.019085,0.023241,5.9264e-07,0.11,0.58,0
0.0031255,-0.0003971,0.034527,0.0092353,0.013129,-0.0011349,0,0,0.027818,-0.0050614,0,-0.0029508,0,0,0,0.034578,0.0091845,0.013129,-2.5642,0.018964,0.023669,6.1777e-07,0.12,0.58,0
0.0034051,-0.00043188,0.034667,0.0088122,0.013044,-0.0011149,0,0,0.028111,-0.0055012,0,-0.0028988,0,0,0,0.034716,0.0087642,0.013044,-2.4646,0.018841,0.024098,6.43e-07,0.13,0.58,0
0.0036877,-0.00046666,0.034805,0.0083886,0.012958,-0.0010929,0,0,0.028401,-0.0059403,0,-0.0028416,0,0,0,0.03485,0.0083434,0.012958,-2.3651,0.018717,0.024527,6.6828e-07,0.14,0.58,0
0.0039731,-0.0005014,0.034939,0.007965,0.012871,-0.0010692,0,0,0.028688,-0.0063779,0,-0.0027799,0,0,0,0.034981,0.0079227,0.012871,-2.2664,0.018592,0.024955,6.9354e-07,0.15,0.58,0
0.0042614,-0.00053606,0.035069,0.007542,0.012783,-0.001044,0,0,0.028971,-0.0068136,0,-0.0027144,0,0,0,0.035108,0.0075024,0.012783,-2.1689,0.018465,0.025381,7.1873e-07,0.16,0.58,0
0.0045525,-0.0005706,0.035195,0.0071199,0.012695,-0.0010177,0,0,0.029251,-0.007247,0,-0.002646,0,0,0,0.035232,0.0070831,0.012695,-2.0732,0.018337,0.025805,7.438e-07,0.17,0.58,0
0.0048464,-0.000605,0.035318,0.0066992,0.012605,-0.00099049,0,0,0.029527,-0.0076777,0,-0.0025753,0,0,0,0.035352,0.006665,0.012605,-1.9798,0.018207,0.026227,7.6869e-07,0.18,0.58,0
0.0051431,-0.00063923,0.035437,0.0062801,0.012515,-0.00096272,0,0,0.029798,-0.0081053,0,-0.0025031,0,0,0,0.035468,0.0062484,0.012515,-1.8891,0.018077,0.026645,7.9337e-07,0.19,0.58,0
0.0054424,-0.00067326,0.035551,0.0058629,0.012424,-0.00093465,0,0,0.030065,-0.0085297,0,-0.0024301,0,0,0,0.035581,0.0058335,0.012424,-1.8014,0.017946,0.027061,8.178e-07,0.2,0.58,0
0.0057444,-0.00070708,0.035662,0.0054478,0.012333,-0.00090654,0,0,0.030328,-0.0089506,0,-0.002357,0,0,0,0.035689,0.0054207,0.012333,-1.717,0.017814,0.027472,8.4194e-07,0.21,0.58,0
0.0060489,-0.00074068,0.035769,0.005035,0.012241,-0.00087866,0,0,0.030586,-0.0093679,0,-0.0022845,0,0,0,0.035794,0.0050099,0.012241,-1.6363,0.017682,0.027881,8.6577e-07,0.22,0.58,0
0.0063561,-0.00077404,0.035872,0.0046245,0.012149,-0.00085123,0,0,0.03084,-0.0097817,0,-0.0022132,0,0,0,0.035895,0.0046013,0.012149,-1.5593,0.017548,0.028285,8.8927e-07,0.23,0.58,0
0.0066657,-0.00080716,0.035971,0.0042164,0.012056,-0.00082448,0,0,0.031089,-0.010192,0,-0.0021436,0,0,0,0.035992,0.004195,0.012056,-1.4863,0.017414,0.028686,9.1242e-07,0.24,0.58,0
0.0069779,-0.00084004,0.036067,0.0038106,0.011963,-0.00079858,0,0,0.031334,-0.010598,0,-0.0020763,0,0,0,0.036086,0.0037909,0.011963,-1.4174,0.01728,0.029084,9.3521e-07,0.25,0.58,0
0.0072924,-0.00087267,0.036159,0.0034073,0.01187,-0.00077372,0,0,0.031575,-0.011001,0,-0.0020117,0,0,0,0.036177,0.003389,0.01187,-1.3525,0.017145,0.029477,9.5763e-07,0.26,0.58,0
0.0076094,-0.00090507,0.036248,0.0030063,0.011776,-0.00075001,0,0,0.031813,-0.011401,0,-0.00195,0,0,0,0.036265,0.0029894,0.011776,-1.2919,0.01701,0.029867,9.7968e-07,0.27,0.58,0
0.0079287,-0.00093723,0.036334,0.0026076,0.011682,-0.00072758,0,0,0.032047,-0.011797,0,-0.0018917,0,0,0,0.036349,0.0025919,0.011682,-1.2353,0.016875,0.030254,1.0013e-06,0.28,0.58,0
0.0082503,-0.00096916,0.036417,0.002211,0.011588,-0.0007065,0,0,0.032277,-0.01219,0,-0.0018369,0,0,0,0.036431,0.0021964,0.011588,-1.1827,0.016739,0.030638,1.0227e-06,0.29,0.58,0
0.0085742,-0.0010009,0.036497,0.0018164,0.011494,-0.00068683,0,0,0.032504,-0.012581,0,-0.0017858,0,0,0,0.036511,0.0018028,0.011494,-1.1341,0.016603,0.031019,1.0436e-06,0.3,0.58,0
0.0089004,-0.0010324,0.036575,0.0014238,0.0114,-0.00066858,0,0,0.032728,-0.012969,0,-0.0017383,0,0,0,0.036588,0.0014111,0.0114,-1.0892,0.016466,0.031398,1.0642e-06,0.31,0.58,0
0.0092288,-0.0010636,0.036651,0.0010331,0.011305,-0.00065174,0,0,0.03295,-0.013354,0,-0.0016945,0,0,0,0.036663,0.0010211,0.011305,-1.0479,0.01633,0.031774,1.0845e-06,0.32,0.58,0
0.0095594,-0.0010947,0.036726,0.00064401,0.011211,-0.00063627,0,0,0.033169,-0.013737,0,-0.0016543,0,0,0,0.036737,0.0006328,0.011211,-1.0099,0.016193,0.032148,1.1044e-06,0.33,0.58,0
0.0098922,-0.0011256,0.036798,0.00025657,0.011116,-0.00062212,0,0,0.033386,-0.014118,0,-0.0016175,0,0,0,0.036809,0.00024598,0.011116,-0.97508,0.016057,0.03252,1.124e-06,0.34,0.58,0
0.010227,-0.0011564,0.036869,-0.00012933,0.011022,-0.00060917,0,0,0.033601,-0.014497,0,-0.0015839,0,0,0,0.036879,-0.00013936,0.011022,-0.94303,0.015921,0.03289,1.1432e-06,0.35,0.58,0
0.010564,-0.0011869,0.036938,-0.00051376,0.010927,-0.00059734,0,0,0.033814,-0.014873,0,-0.0015531,0,0,0,0.036948,-0.00052328,0.010927,-0.91352,0.015784,0.033259,1.1622e-06,0.36,0.58,0
0.010903,-0.0012173,0.037007,-0.00089675,0.010833,-0.00058646,0,0,0.034026,-0.015249,0,-0.0015248,0,0,0,0.037016,-0.00090582,0.010833,-0.88622,0.015648,0.033626,1.1808e-06,0.37,0.58,0
0.011245,-0.0012474,0.037074,-0.0012783,0.010739,-0.00057639,0,0,0.034236,-0.015622,0,-0.0014986,0,0,0,0.037083,-0.001287,0.010739,-0.86082,0.015512,0.033992,1.1992e-06,0.38,0.58,0
0.011588,-0.0012774,0.037141,-0.0016584,0.010645,-0.00056695,0,0,0.034445,-0.015994,0,-0.0014741,0,0,0,0.037149,-0.0016666,0.010645,-0.83699,0.015376,0.034356,1.2172e-06,0.39,0.58,0
0.011934,-0.0013073,0.037206,-0.0020369,0.010551,-0.00055794,0,0,0.034652,-0.016364,0,-0.0014506,0,0,0,0.037214,-0.0020448,0.010551,-0.81438,0.01524,0.034719,1.2349e-06,0.4,0.58,0
0.012281,-0.0013369,0.037271,-0.0024138,0.010457,-0.00054918,0,0,0.034858,-0.016732,0,-0.0014279,0,0,0,0.037279,-0.0024214,0.010457,-0.79268,0.015105,0.035081,1.2524e-06,0.41,0.58,0
0.012631,-0.0013663,0.037336,-0.0027889,0.010364,-0.00054044,0,0,0.035063,-0.017099,0,-0.0014052,0,0,0,0.037343,-0.0027961,0.010364,-0.77155,0.01497,0.035441,1.2694e-06,0.42,0.58,0
0.012982,-0.0013955,0.037399,-0.003162,0.010271,-0.00053153,0,0,0.035266,-0.017463,0,-0.001382,0,0,0,0.037406,-0.0031689,0.010271,-0.75065,0.014836,0.0358,1.2862e-06,0.43,0.58,0
0.013336,-0.0014245,0.037462,-0.0035328,0.010179,-0.0005222,0,0,0.035468,-0.017825,0,-0.0013577,0,0,0,0.037468,-0.0035395,0.010179,-0.7297,0.014702,0.036156,1.3026e-06,0.44,0.58,0
0.013692,-0.0014531,0.037523,-0.0039011,0.010087,-0.00051226,0,0,0.035668,-0.018184,0,-0.0013319,0,0,0,0.03753,-0.0039075,0.010087,-0.70838,0.01457,0.03651,1.3187e-06,0.45,0.58,0
0.014049,-0.0014815,0.037584,-0.0042667,0.0099953,-0.00050148,0,0,0.035866,-0.018541,0,-0.0013039,0,0,0,0.03759,-0.0042727,0.0099953,-0.68642,0.014438,0.036862,1.3343e-06,0.46,0.58,0
0.014409,-0.0015096,0.037644,-0.004629,0.0099045,-0.00048966,0,0,0.036061,-0.018894,0,-0.0012731,0,0,0,0.03765,-0.0046347,0.0099045,-0.66356,0.014306,0.03721,1.3495e-06,0.47,0.58,0
0.014771,-0.0015374,0.037702,-0.0049877,0.0098144,-0.00047659,0,0,0.036255,-0.019243,0,-0.0012391,0,0,0,0.037708,-0.004993,0.0098144,-0.63954,0.014176,0.037554,1.3643e-06,0.48,0.58,0
0.015134,-0.0015647,0.03776,-0.0053424,0.0097252,-0.00046208,0,0,0.036445,-0.019588,0,-0.0012014,0,0,0,0.037765,-0.0053473,0.0097252,-0.61415,0.014047,0.037895,1.3785e-06,0.49,0.58,0
0.0155,-0.0015917,0.037801,-0.00022373,0.011273,-0.00044741,0,0,0.050703,-0.019928,0,-0.0017352,0,0,0,0.037807,-0.00022908,0.011273,-0.68631,0.016284,0.033855,1.205e-06,0.5,0.58,0
0.016148,-0.0016296,0.03787,0.0050187,0.012866,-0.00043531,0,0,0.065008,-0.020404,0,-0.0022636,0,0,0,0.037875,0.0050129,0.012866,-0.75905,0.018585,0.029724,1.0381e-06,0.51,0.58,0
0.0168,-0.0016669,0.037922,0.0047842,0.012812,-0.00042396,0,0,0.065287,-0.020872,0,-0.0022046,0,0,0,0.037928,0.0047788,0.012812,-0.73286,0.018506,0.029952,1.0526e-06,0.52,0.58,0
0.017454,-0.0017035,0.037974,0.0045539,0.012758,-0.00041209,0,0,0.06556,-0.021331,0,-0.0021428,0,0,0,0.037979,0.0045489,0.012758,-0.70635,0.018429,0.030175,1.0669e-06,0.53,0.58,0
0.018111,-0.0017394,0.038024,0.004328,0.012705,-0.00039968,0,0,0.065827,-0.021782,0,-0.0020783,0,0,0,0.038028,0.0043233,0.012705,-0.67948,0.018353,0.030394,1.0808e-06,0.54,0.58,0
0.01877,-0.0017745,0.038072,0.0041066,0.012654,-0.00038675,0,0,0.066088,-0.022222,0,-0.0020111,0,0,0,0.038077,0.0041022,0.012654,-0.65229,0.018277,0.030608,1.0944e-06,0.55,0.58,0
0.019433,-0.0018088,0.038119,0.0038901,0.012603,-0.0003733,0,0,0.066342,-0.022653,0,-0.0019412,0,0,0,0.038123,0.003886,0.012603,-0.62478,0.018204,0.030818,1.1076e-06,0.56,0.58,0
0.020097,-0.0018423,0.038164,0.0036785,0.012553,-0.00035938,0,0,0.066589,-0.023073,0,-0.0018688,0,0,0,0.038168,0.0036747,0.012553,-0.597,0.018132,0.031022,1.1205e-06,0.57,0.58,0
0.020765,-0.001875,0.038207,0.003472,0.012504,-0.00034501,0,0,0.066829,-0.023483,0,-0.0017941,0,0,0,0.038211,0.0034685,0.012504,-0.56902,0.018061,0.031221,1.133e-06,0.58,0.58,0
0.021434,-0.0019067,0.038249,0.0032708,0.012456,-0.00033025,0,0,0.067061,-0.023881,0,-0.0017173,0,0,0,0.038252,0.0032677,0.012456,-0.54091,0.017992,0.031414,1.145e-06,0.59,0.58,0
0.022106,-0.0019376,0.038288,0.0030751,0.012409,-0.00031516,0,0,0.067286,-0.024268,0,-0.0016388,0,0,0,0.038291,0.0030722,0.012409,-0.51275,0.017924,0.031602,1.1567e-06,0.6,0.58,0
0.02278,-0.0019676,0.038325,0.0028849,0.012363,-0.0002998,0,0,0.067502,-0.024643,0,-0.0015589,0,0,0,0.038328,0.0028824,0.012363,-0.48463,0.017858,0.031784,1.1679e-06,0.61,0.58,0
0.023456,-0.0019967,0.038361,0.0027005,0.012318,-0.00028424,0,0,0.067711,-0.025007,0,-0.0014781,0,0,0,0.038363,0.0026982,0.012318,-0.45665,0.017793,0.03196,1.1787e-06,0.62,0.58,0
0.024134,-0.0020248,0.038394,0.0025218,0.012275,-0.00026856,0,0,0.067911,-0.025358,0,-0.0013965,0,0,0,0.038397,0.0025198,0.012275,-0.42892,0.01773,0.03213,1.1891e-06,0.63,0.58,0
0.024814,-0.002052,0.038426,0.0023491,0.012233,-0.00025284,0,0,0.068103,-0.025697,0,-0.0013148,0,0,0,0.038428,0.0023473,0.012233,-0.40152,0.017669,0.032293,1.1989e-06,0.64,0.58,0
0.025496,-0.0020783,0.038455,0.0021822,0.012191,-0.00023715,0,0,0.068286,-0.026024,0,-0.0012332,0,0,0,0.038457,0.0021807,0.012191,-0.37457,0.01761,0.03245,1.2084e-06,0.65,0.58,0
0.02618,-0.0021035,0.038483,0.0020213,0.012151,-0.00022157,0,0,0.068462,-0.026338,0,-0.0011522,0,0,0,0.038484,0.00202,0.012151,-0.34816,0.017552,0.032601,1.2174e-06,0.66,0.58,0
0.026865,-0.0021279,0.038508,0.0018665,0.012112,-0.00020617,0,0,0.068629,-0.026639,0,-0.0010721,0,0,0,0.038509,0.0018653,0.012112,-0.32238,0.017496,0.032746,1.226e-06,0.67,0.58,0
0.027552,-0.0021512,0.038531,0.0017176,0.012075,-0.00019104,0,0,0.068787,-0.026929,0,-0.0009934,0,0,0,0.038532,0.0017166,0.012075,-0.29732,0.017441,0.032884,1.2341e-06,0.68,0.58,0
0.028241,-0.0021736,0.038553,0.0015747,0.012038,-0.00017623,0,0,0.068938,-0.027205,0,-0.00091642,0,0,0,0.038554,0.0015738,0.012038,-0.27306,0.017389,0.033016,1.2417e-06,0.69,0.58,0
0.028931,-0.002195,0.038573,0.0014377,0.012003,-0.00016182,0,0,0.069081,-0.02747,0,-0.00084148,0,0,0,0.038573,0.001437,0.012003,-0.24967,0.017338,0.033141,1.249e-06,0.7,0.58,0
0.029622,-0.0022155,0.03859,0.0013066,0.011969,-0.00014786,0,0,0.069215,-0.027722,0,-0.00076889,0,0,0,0.038591,0.0013061,0.011969,-0.22723,0.017289,0.033261,1.2558e-06,0.71,0.58,0
0.030315,-0.002235,0.038606,0.0011814,0.011936,-0.00013441,0,0,0.069342,-0.027963,0,-0.00069894,0,0,0,0.038607,0.0011809,0.011936,-0.20578,0.017241,0.033374,1.2622e-06,0.72,0.58,0
0.031009,-0.0022536,0.038621,0.001062,0.011905,-0.00012151,0,0,0.069461,-0.028191,0,-0.00063187,0,0,0,0.038621,0.0010616,0.011905,-0.18537,0.017196,0.033482,1.2682e-06,0.73,0.58,0
0.031705,-0.0022713,0.038634,0.00094822,0.011874,-0.00010921,0,0,0.069573,-0.028408,0,-0.0005679,0,0,0,0.038634,0.00094791,0.011874,-0.16604,0.017152,0.033583,1.2738e-06,0.74,0.58,0
0.032401,-0.0022881,0.038645,0.00084006,0.011846,-9.7538e-05,0,0,0.069678,-0.028614,0,-0.0005072,0,0,0,0.038645,0.00083981,0.011846,-0.14783,0.01711,0.033679,1.279e-06,0.75,0.58,0
0.033098,-0.0023041,0.038655,0.00073739,0.011818,-8.6522e-05,0,0,0.069776,-0.028809,0,-0.00044991,0,0,0,0.038655,0.0007372,0.011818,-0.13074,0.01707,0.03377,1.2839e-06,0.76,0.58,0
0.033796,-0.0023191,0.038663,0.00064012,0.011791,-7.6184e-05,0,0,0.069868,-0.028992,0,-0.00039616,0,0,0,0.038663,0.00063996,0.011791,-0.1148,0.017032,0.033855,1.2884e-06,0.77,0.58,0
0.034495,-0.0023333,0.038671,0.00054811,0.011766,-6.6541e-05,0,0,0.069953,-0.029166,0,-0.00034601,0,0,0,0.038671,0.000548,0.011766,-0.10001,0.016995,0.033934,1.2926e-06,0.78,0.58,0
0.035195,-0.0023467,0.038677,0.00046127,0.011742,-5.7599e-05,0,0,0.070032,-0.029329,0,-0.00029951,0,0,0,0.038677,0.00046118,0.011742,-0.086357,0.01696,0.034009,1.2964e-06,0.79,0.58,0
0.035896,-0.0023594,0.038682,0.00037947,0.011718,-4.9363e-05,0,0,0.070106,-0.029481,0,-0.00025669,0,0,0,0.038682,0.00037941,0.011718,-0.073841,0.016927,0.034079,1.3e-06,0.8,0.58,0
0.036597,-0.0023712,0.038686,0.00030259,0.011697,-4.183e-05,0,0,0.070173,-0.029625,0,-0.00021751,0,0,0,0.038686,0.00030255,0.011697,-0.06244,0.016895,0.034144,1.3033e-06,0.81,0.58,0
0.0373,-0.0023822,0.03869,0.00023052,0.011676,-3.4991e-05,0,0,0.070236,-0.029759,0,-0.00018196,0,0,0,0.03869,0.00023048,0.011676,-0.05213,0.016865,0.034204,1.3063e-06,0.82,0.58,0
0.038002,-0.0023926,0.038692,0.00016312,0.011657,-2.8836e-05,0,0,0.070293,-0.029883,0,-0.00014994,0,0,0,0.038692,0.0001631,0.011657,-0.042881,0.016837,0.03426,1.309e-06,0.83,0.58,0
0.038705,-0.0024022,0.038694,0.00010029,0.011638,-2.3345e-05,0,0,0.070346,-0.029999,0,-0.00012139,0,0,0,0.038694,0.00010028,0.011638,-0.034657,0.016811,0.034312,1.3115e-06,0.84,0.58,0
0.039409,-0.0024111,0.038696,4.1914e-05,0.011621,-1.8498e-05,0,0,0.070394,-0.030107,0,-9.6192e-05,0,0,0,0.038696,4.1905e-05,0.011621,-0.02742,0.016786,0.03436,1.3138e-06,0.85,0.58,0
0.040113,-0.0024193,0.038697,-1.2127e-05,0.011605,-1.4271e-05,0,0,0.070438,-0.030206,0,-7.421e-05,0,0,0,0.038697,-1.2132e-05,0.011605,-0.021124,0.016763,0.034404,1.3159e-06,0.86,0.58,0
0.040818,-0.0024269,0.038697,-6.1938e-05,0.011591,-1.0634e-05,0,0,0.070478,-0.030297,0,-5.5299e-05,0,0,0,0.038697,-6.1941e-05,0.011591,-0.01572,0.016742,0.034445,1.3178e-06,0.87,0.58,0
0.041523,-0.0024338,0.038698,-0.00010762,0.011577,-7.5571e-06,0,0,0.070514,-0.03038,0,-3.9297e-05,0,0,0,0.038698,-0.00010762,0.011577,-0.011158,0.016722,0.034481,1.3194e-06,0.88,0.58,0
0.042228,-0.0024401,0.038698,-0.00014927,0.011565,-5.0052e-06,0,0,0.070546,-0.030456,0,-2.6027e-05,0,0,0,0.038698,-0.00014927,0.011565,-0.0073823,0.016704,0.034514,1.3209e-06,0.89,0.58,0
0.042934,-0.0024458,0.038697,-0.00018698,0.011553,-2.9422e-06,0,0,0.070575,-0.030524,0,-1.5299e-05,0,0,0,0.038697,-0.00018698,0.011553,-0.0043353,0.016688,0.034544,1.3223e-06,0.9,0.58,0
0.04364,-0.002451,0.038697,-0.00022084,0.011543,-1.3296e-06,0,0,0.0706,-0.030585,0,-6.9137e-06,0,0,0,0.038697,-0.00022084,0.011543,-0.0019574,0.016673,0.034571,1.3234e-06,0.91,0.58,0
0.044346,-0.0024555,0.038696,-0.00025091,0.011534,-1.2691e-07,0,0,0.070623,-0.03064,0,-6.5994e-07,0,0,0,0.038696,-0.00025091,0.011534,-0.0001867,0.01666,0.034594,1.3245e-06,0.92,0.58,0
0.045052,-0.0024595,0.038696,-0.00027728,0.011525,7.0767e-07,0,0,0.070642,-0.030687,0,3.6799e-06,0,0,0,0.038696,-0.00027728,0.011525,0.0010404,0.016648,0.034615,1.3253e-06,0.93,0.58,0
0.045759,-0.0024629,0.038695,-0.0003,0.011518,1.2175e-06,0,0,0.070659,-0.030728,0,6.3309e-06,0,0,0,0.038695,-0.0003,0.011518,0.0017889,0.016638,0.034633,1.3261e-06,0.94,0.58,0
0.046465,-0.0024658,0.038694,-0.00031914,0.011513,1.447e-06,0,0,0.070673,-0.030762,0,7.5242e-06,0,0,0,0.038694,-0.00031914,0.011513,0.002125,0.016629,0.034647,1.3267e-06,0.95,0.58,0
0.047172,-0.0024681,0.038694,-0.00033473,0.011508,1.4415e-06,0,0,0.070684,-0.03079,0,7.4956e-06,0,0,0,0.038694,-0.00033473,0.011508,0.0021161,0.016622,0.034659,1.3272e-06,0.96,0.58,0
0.047879,-0.0024699,0.038693,-0.00034681,0.011504,1.2471e-06,0,0,0.070692,-0.030812,0,6.4849e-06,0,0,0,0.038693,-0.00034681,0.011504,0.0018303,0.016617,0.034669,1.3276e-06,0.97,0.58,0
0.048586,-0.0024712,0.038693,-0.00035542,0.011501,9.1059e-07,0,0,0.070698,-0.030827,0,4.7351e-06,0,0,0,0.038693,-0.00035542,0.011501,0.0013361,0.016613,0.034675,1.3279e-06,0.98,0.58,0
0.049293,-0.002472,0.038693,-0.00036058,0.0115,4.7908e-07,0,0,0.070702,-0.030837,0,2.4912e-06,0,0,0,0.038693,-0.00036058,0.0115,0.00070287,0.016611,0.034679,1.3281e-06,0.99,0.58,0
0.05,-0.0024723,0.038693,-0.0003623,0.011499,-4.9553e-06,0,0,0.070703,-0.03084,0,-2.5768e-05,0,0,0,0.038693,-0.0003623,0.011499,-0.0072697,0.01661,0.034681,1.3281e-06,1,0.58,0
0,0,0.03296,0.014126,0.014126,-0.0013166,0,0,0.024484,-5.421e-20,0,-0.0034233,0,0,0,0.033051,0.014034,0.014126,-3.9796,0.020404,0.018972,3.5068e-07,0,0.59,0
0.00024484,-3.4233e-05,0.032924,0.01368,0.013981,-0.0013182,0,0,0.024625,-0.00039118,0,-0.0034273,0,0,0,0.033013,0.01359,0.013981,-3.9006,0.020195,0.019231,3.6476e-07,0.01,0.59,0
0.0004925,-6.926e-05,0.033075,0.013305,0.013914,-0.0013327,0,0,0.024909,-0.00079159,0,-0.003465,0,0,0,0.033164,0.013215,0.013914,-3.8392,0.020098,0.019609,3.8558e-07,0.02,0.59,0
0.00074302,-0.00010501,0.033227,0.012921,0.013844,-0.0013435,0,0,0.025198,-0.0012004,0,-0.0034932,0,0,0,0.033316,0.012833,0.013844,-3.769,0.019998,0.019996,4.0711e-07,0.03,0.59,0
0.00099645,-0.00014143,0.033381,0.01253,0.013773,-0.0013506,0,0,0.02549,-0.0016166,0,-0.0035116,0,0,0,0.033468,0.012442,0.013773,-3.6907,0.019894,0.020393,4.2931e-07,0.04,0.59,0
0.0012528,-0.00017843,0.033535,0.012131,0.0137,-0.0013539,0,0,0.025785,-0.0020392,0,-0.0035201,0,0,0,0.03362,0.012046,0.0137,-3.6051,0.019788,0.020796,4.5211e-07,0.05,0.59,0
0.0015122,-0.00021594,0.033688,0.011726,0.013624,-0.0013534,0,0,0.026083,-0.0024675,0,-0.0035188,0,0,0,0.033771,0.011643,0.013624,-3.513,0.01968,0.021207,4.7546e-07,0.06,0.59,0
0.0017745,-0.0002539,0.033841,0.011316,0.013547,-0.0013491,0,0,0.026382,-0.0029003,0,-0.0035078,0,0,0,0.033922,0.011236,0.013547,-3.4154,0.019568,0.021623,4.993e-07,0.07,0.59,0
0.0020398,-0.00029223,0.033993,0.010902,0.013469,-0.0013413,0,0,0.026682,-0.0033367,0,-0.0034873,0,0,0,0.034071,0.010824,0.013469,-3.3132,0.019455,0.022044,5.2357e-07,0.08,0.59,0
0.0023081,-0.00033086,0.034144,0.010484,0.013388,-0.0013299,0,0,0.026982,-0.003776,0,-0.0034578,0,0,0,0.034218,0.010409,0.013388,-3.2071,0.019339,0.022468,5.4818e-07,0.09,0.59,0
0.0025795,-0.00036973,0.034292,0.010063,0.013307,-0.0013153,0,0,0.027282,-0.004217,0,-0.0034197,0,0,0,0.034364,0.0099915,0.013307,-3.0981,0.019221,0.022895,5.7308e-07,0.1,0.59,0
0.0028538,-0.00040876,0.034439,0.0096395,0.013223,-0.0012975,0,0,0.02758,-0.0046591,0,-0.0033735,0,0,0,0.034506,0.0095718,0.013223,-2.9869,0.0191,0.023324,5.9819e-07,0.11,0.59,0
0.003131,-0.0004479,0.034582,0.0092148,0.013139,-0.0012769,0,0,0.027876,-0.0051015,0,-0.00332,0,0,0,0.034646,0.0091507,0.013139,-2.8745,0.018979,0.023754,6.2345e-07,0.12,0.59,0
0.0034113,-0.00048708,0.034722,0.0087894,0.013054,-0.0012538,0,0,0.028169,-0.0055434,0,-0.0032598,0,0,0,0.034783,0.0087289,0.013054,-2.7615,0.018855,0.024183,6.4879e-07,0.13,0.59,0
0.0036944,-0.00052626,0.034859,0.0083637,0.012967,-0.0012284,0,0,0.02846,-0.0059841,0,-0.0031937,0,0,0,0.034916,0.0083069,0.012967,-2.6487,0.01873,0.024612,6.7414e-07,0.14,0.59,0
0.0039805,-0.00056539,0.034993,0.0079385,0.012879,-0.001201,0,0,0.028747,-0.006423,0,-0.0031226,0,0,0,0.035046,0.0078853,0.012879,-2.5368,0.018603,0.02504,6.9944e-07,0.15,0.59,0
0.0042694,-0.00060441,0.035122,0.0075141,0.012791,-0.001172,0,0,0.029031,-0.0068598,0,-0.0030472,0,0,0,0.035172,0.0074644,0.012791,-2.4265,0.018476,0.025465,7.2464e-07,0.16,0.59,0
0.0045611,-0.00064329,0.035248,0.007091,0.012701,-0.0011417,0,0,0.02931,-0.0072937,0,-0.0029684,0,0,0,0.035294,0.0070447,0.012701,-2.3182,0.018347,0.025888,7.4969e-07,0.17,0.59,0
0.0048556,-0.000682,0.035369,0.0066695,0.012611,-0.0011105,0,0,0.029585,-0.0077246,0,-0.0028872,0,0,0,0.035412,0.0066266,0.012611,-2.2125,0.018217,0.026308,7.7452e-07,0.18,0.59,0
0.0051528,-0.0007205,0.035486,0.00625,0.012521,-0.0010786,0,0,0.029855,-0.0081521,0,-0.0028044,0,0,0,0.035526,0.0062102,0.012521,-2.11,0.018086,0.026725,7.9912e-07,0.19,0.59,0
0.0054527,-0.00075878,0.035599,0.0058326,0.012429,-0.0010464,0,0,0.030121,-0.008576,0,-0.0027207,0,0,0,0.035636,0.0057959,0.012429,-2.0109,0.017954,0.027138,8.2342e-07,0.2,0.59,0
0.0057552,-0.0007968,0.035708,0.0054177,0.012338,-0.0010143,0,0,0.030381,-0.008996,0,-0.0026371,0,0,0,0.035742,0.0053838,0.012338,-1.9157,0.017821,0.027547,8.4742e-07,0.21,0.59,0
0.0060603,-0.00083457,0.035813,0.0050052,0.012245,-0.00098238,0,0,0.030638,-0.0094122,0,-0.0025542,0,0,0,0.035844,0.0049739,0.012245,-1.8246,0.017688,0.027953,8.7107e-07,0.22,0.59,0
0.0063679,-0.00087206,0.035914,0.0045954,0.012153,-0.00095108,0,0,0.030889,-0.0098245,0,-0.0024728,0,0,0,0.035942,0.0045665,0.012153,-1.7378,0.017554,0.028355,8.9437e-07,0.23,0.59,0
0.0066781,-0.00090927,0.036011,0.0041881,0.01206,-0.00092058,0,0,0.031136,-0.010233,0,-0.0023935,0,0,0,0.036037,0.0041615,0.01206,-1.6557,0.017419,0.028752,9.173e-07,0.24,0.59,0
0.0069907,-0.00094621,0.036104,0.0037834,0.011966,-0.00089111,0,0,0.031379,-0.010637,0,-0.0023169,0,0,0,0.036128,0.0037589,0.011966,-1.5781,0.017284,0.029146,9.3984e-07,0.25,0.59,0
0.0073057,-0.00098286,0.036193,0.0033813,0.011872,-0.00086286,0,0,0.031617,-0.011038,0,-0.0022434,0,0,0,0.036216,0.0033586,0.011872,-1.5053,0.017149,0.029536,9.62e-07,0.26,0.59,0
0.007623,-0.0010192,0.03628,0.0029817,0.011778,-0.00083598,0,0,0.031852,-0.011436,0,-0.0021736,0,0,0,0.036301,0.0029607,0.011778,-1.4373,0.017013,0.029922,9.8377e-07,0.27,0.59,0
0.0079427,-0.0010554,0.036363,0.0025844,0.011684,-0.0008106,0,0,0.032082,-0.01183,0,-0.0021076,0,0,0,0.036382,0.0025649,0.011684,-1.3739,0.016877,0.030305,1.0052e-06,0.28,0.59,0
0.0082647,-0.0010912,0.036443,0.0021893,0.01159,-0.00078681,0,0,0.03231,-0.012221,0,-0.0020457,0,0,0,0.036462,0.0021712,0.01159,-1.3151,0.016741,0.030685,1.0262e-06,0.29,0.59,0
0.0085889,-0.0011268,0.036521,0.0017963,0.011495,-0.00076465,0,0,0.032534,-0.012609,0,-0.0019881,0,0,0,0.036538,0.0017795,0.011495,-1.2609,0.016604,0.031062,1.0468e-06,0.3,0.59,0
0.0089153,-0.0011622,0.036597,0.0014053,0.011401,-0.00074416,0,0,0.032755,-0.012994,0,-0.0019348,0,0,0,0.036612,0.0013895,0.011401,-1.2108,0.016467,0.031436,1.0671e-06,0.31,0.59,0
0.009244,-0.0011973,0.03667,0.001016,0.011306,-0.00072531,0,0,0.032974,-0.013377,0,-0.0018858,0,0,0,0.036685,0.0010013,0.011306,-1.1649,0.016331,0.031809,1.0871e-06,0.32,0.59,0
0.0095748,-0.0012322,0.036742,0.00062842,0.011211,-0.00070807,0,0,0.03319,-0.013757,0,-0.001841,0,0,0,0.036755,0.00061454,0.011211,-1.1228,0.016194,0.032179,1.1067e-06,0.33,0.59,0
0.0099078,-0.0012669,0.036811,0.00024236,0.011116,-0.00069236,0,0,0.033404,-0.014136,0,-0.0018001,0,0,0,0.036824,0.00022926,0.011116,-1.0843,0.016057,0.032547,1.126e-06,0.34,0.59,0
0.010243,-0.0013014,0.03688,-0.00014227,0.011021,-0.00067806,0,0,0.033616,-0.014513,0,-0.001763,0,0,0,0.036892,-0.00015469,0.011021,-1.0489,0.01592,0.032914,1.145e-06,0.35,0.59,0
0.01058,-0.0013357,0.036947,-0.00052557,0.010926,-0.00066504,0,0,0.033827,-0.014888,0,-0.0017291,0,0,0,0.036959,-0.00053737,0.010926,-1.0164,0.015783,0.03328,1.1636e-06,0.36,0.59,0
0.010919,-0.0013698,0.037013,-0.00090759,0.010832,-0.00065315,0,0,0.034036,-0.015261,0,-0.0016982,0,0,0,0.037024,-0.00091884,0.010832,-0.98648,0.015646,0.033644,1.182e-06,0.37,0.59,0
0.011261,-0.0014037,0.037078,-0.0012883,0.010737,-0.0006422,0,0,0.034244,-0.015633,0,-0.0016697,0,0,0,0.037089,-0.0012991,0.010737,-0.95868,0.015509,0.034007,1.2001e-06,0.38,0.59,0
0.011604,-0.0014374,0.037143,-0.0016678,0.010642,-0.00063198,0,0,0.03445,-0.016003,0,-0.0016431,0,0,0,0.037153,-0.0016781,0.010642,-0.93265,0.015373,0.034369,1.2179e-06,0.39,0.59,0
0.01195,-0.0014709,0.037207,-0.002046,0.010548,-0.00062227,0,0,0.034656,-0.016372,0,-0.0016179,0,0,0,0.037216,-0.0020559,0.010548,-0.90801,0.015236,0.03473,1.2355e-06,0.4,0.59,0
0.012297,-0.0015042,0.03727,-0.0024227,0.010454,-0.00061285,0,0,0.03486,-0.01674,0,-0.0015934,0,0,0,0.037279,-0.0024322,0.010454,-0.88437,0.0151,0.03509,1.2527e-06,0.41,0.59,0
0.012647,-0.0015373,0.037332,-0.0027979,0.01036,-0.00060348,0,0,0.035064,-0.017106,0,-0.001569,0,0,0,0.037341,-0.0028069,0.01036,-0.86135,0.014965,0.035449,1.2696e-06,0.42,0.59,0
0.012999,-0.0015701,0.037394,-0.0031713,0.010267,-0.0005939,0,0,0.035266,-0.01747,0,-0.0015441,0,0,0,0.037403,-0.00318,0.010267,-0.83859,0.01483,0.035806,1.2862e-06,0.43,0.59,0
0.013352,-0.0016027,0.037456,-0.0035427,0.010174,-0.00058386,0,0,0.035466,-0.017832,0,-0.001518,0,0,0,0.037464,-0.003551,0.010174,-0.81573,0.014696,0.036162,1.3025e-06,0.44,0.59,0
0.013708,-0.001635,0.037516,-0.0039118,0.010081,-0.00057312,0,0,0.035666,-0.018191,0,-0.0014901,0,0,0,0.037524,-0.0039197,0.010081,-0.79243,0.014562,0.036515,1.3184e-06,0.45,0.59,0
0.014066,-0.001667,0.037576,-0.0042783,0.0099894,-0.00056142,0,0,0.035863,-0.018548,0,-0.0014597,0,0,0,0.037584,-0.0042859,0.0099894,-0.76836,0.014429,0.036867,1.334e-06,0.46,0.59,0
0.014425,-0.0016986,0.037635,-0.0046419,0.009898,-0.00054854,0,0,0.036058,-0.018902,0,-0.0014262,0,0,0,0.037642,-0.004649,0.009898,-0.74323,0.014297,0.037215,1.3491e-06,0.47,0.59,0
0.014787,-0.0017298,0.037693,-0.0050021,0.0098073,-0.00053423,0,0,0.036251,-0.019252,0,-0.001389,0,0,0,0.0377,-0.0050087,0.0098073,-0.71677,0.014166,0.03756,1.3638e-06,0.48,0.59,0
0.01515,-0.0017607,0.03775,-0.0053584,0.0097174,-0.00051828,0,0,0.036442,-0.019599,0,-0.0013475,0,0,0,0.037756,-0.0053646,0.0097174,-0.68872,0.014036,0.037901,1.378e-06,0.49,0.59,0
0.015516,-0.001791,0.037791,-0.00023832,0.011266,-0.00050208,0,0,0.050696,-0.01994,0,-0.0019473,0,0,0,0.037797,-0.00024506,0.011266,-0.77009,0.016273,0.03386,1.2046e-06,0.5,0.59,0
0.016164,-0.0018337,0.037859,0.005007,0.01286,-0.00048864,0,0,0.064997,-0.020417,0,-0.0025409,0,0,0,0.037866,0.0049997,0.01286,-0.85197,0.018575,0.029726,1.0378e-06,0.51,0.59,0
0.016816,-0.0018757,0.037911,0.0047719,0.012805,-0.00047597,0,0,0.065276,-0.020886,0,-0.002475,0,0,0,0.037918,0.0047651,0.012805,-0.8227,0.018496,0.029954,1.0523e-06,0.52,0.59,0
0.01747,-0.0019169,0.037962,0.0045411,0.012751,-0.00046268,0,0,0.065549,-0.021346,0,-0.0024059,0,0,0,0.037969,0.0045347,0.012751,-0.793,0.018418,0.030177,1.0665e-06,0.53,0.59,0
0.018127,-0.0019573,0.038012,0.0043146,0.012698,-0.00044877,0,0,0.065817,-0.021797,0,-0.0023336,0,0,0,0.038018,0.0043086,0.012698,-0.76286,0.018342,0.030396,1.0804e-06,0.54,0.59,0
0.018786,-0.0019968,0.03806,0.0040926,0.012646,-0.00043423,0,0,0.066077,-0.022238,0,-0.002258,0,0,0,0.038066,0.0040871,0.012646,-0.7323,0.018266,0.03061,1.094e-06,0.55,0.59,0
0.019448,-0.0020354,0.038107,0.0038755,0.012595,-0.0004191,0,0,0.066331,-0.02267,0,-0.0021793,0,0,0,0.038112,0.0038704,0.012595,-0.70135,0.018192,0.03082,1.1072e-06,0.56,0.59,0
0.020113,-0.0020731,0.038151,0.0036634,0.012544,-0.00040341,0,0,0.066578,-0.023091,0,-0.0020977,0,0,0,0.038156,0.0036587,0.012544,-0.67007,0.01812,0.031024,1.1201e-06,0.57,0.59,0
0.02078,-0.0021099,0.038194,0.0034564,0.012495,-0.00038719,0,0,0.066818,-0.023501,0,-0.0020134,0,0,0,0.038199,0.0034521,0.012495,-0.63852,0.018049,0.031223,1.1325e-06,0.58,0.59,0
0.021449,-0.0021456,0.038235,0.0032549,0.012447,-0.00037053,0,0,0.067049,-0.0239,0,-0.0019267,0,0,0,0.038239,0.0032509,0.012447,-0.60681,0.017979,0.031416,1.1445e-06,0.59,0.59,0
0.022121,-0.0021804,0.038274,0.0030588,0.0124,-0.00035347,0,0,0.067274,-0.024287,0,-0.001838,0,0,0,0.038278,0.0030553,0.0124,-0.57502,0.017911,0.031604,1.1562e-06,0.6,0.59,0
0.022794,-0.0022142,0.038311,0.0028684,0.012354,-0.0003361,0,0,0.06749,-0.024663,0,-0.0017477,0,0,0,0.038315,0.0028652,0.012354,-0.54326,0.017845,0.031786,1.1673e-06,0.61,0.59,0
0.02347,-0.0022469,0.038347,0.0026838,0.012309,-0.00031851,0,0,0.067697,-0.025026,0,-0.0016562,0,0,0,0.03835,0.002681,0.012309,-0.51166,0.01778,0.031961,1.1781e-06,0.62,0.59,0
0.024148,-0.0022785,0.03838,0.0025051,0.012265,-0.00030077,0,0,0.067897,-0.025377,0,-0.001564,0,0,0,0.038382,0.0025025,0.012265,-0.48033,0.017717,0.032131,1.1884e-06,0.63,0.59,0
0.024828,-0.0023091,0.038411,0.0023323,0.012223,-0.00028299,0,0,0.068088,-0.025715,0,-0.0014716,0,0,0,0.038413,0.0023301,0.012223,-0.44938,0.017655,0.032294,1.1982e-06,0.64,0.59,0
0.02551,-0.0023386,0.03844,0.0021655,0.012181,-0.00026524,0,0,0.068271,-0.026041,0,-0.0013793,0,0,0,0.038441,0.0021636,0.012181,-0.41893,0.017596,0.03245,1.2076e-06,0.65,0.59,0
0.026194,-0.002367,0.038466,0.0020048,0.012141,-0.00024763,0,0,0.068445,-0.026355,0,-0.0012877,0,0,0,0.038468,0.0020031,0.012141,-0.3891,0.017538,0.0326,1.2165e-06,0.66,0.59,0
0.026879,-0.0023943,0.038491,0.0018502,0.012102,-0.00023023,0,0,0.068611,-0.026656,0,-0.0011972,0,0,0,0.038492,0.0018487,0.012102,-0.35999,0.017481,0.032744,1.225e-06,0.67,0.59,0
0.027566,-0.0024205,0.038514,0.0017016,0.012065,-0.00021313,0,0,0.068768,-0.026944,0,-0.0011083,0,0,0,0.038515,0.0017004,0.012065,-0.33171,0.017427,0.032881,1.233e-06,0.68,0.59,0
0.028254,-0.0024457,0.038535,0.0015591,0.012028,-0.00019641,0,0,0.068917,-0.02722,0,-0.0010214,0,0,0,0.038536,0.001558,0.012028,-0.30434,0.017374,0.033012,1.2406e-06,0.69,0.59,0
0.028944,-0.0024698,0.038554,0.0014226,0.011993,-0.00018015,0,0,0.069058,-0.027483,0,-0.00093677,0,0,0,0.038555,0.0014217,0.011993,-0.27797,0.017323,0.033137,1.2477e-06,0.7,0.59,0
0.029636,-0.0024927,0.038571,0.001292,0.011959,-0.00016441,0,0,0.069191,-0.027734,0,-0.00085491,0,0,0,0.038572,0.0012913,0.011959,-0.25268,0.017274,0.033256,1.2544e-06,0.71,0.59,0
0.030328,-0.0025147,0.038586,0.0011674,0.011926,-0.00014924,0,0,0.069316,-0.027973,0,-0.00077607,0,0,0,0.038587,0.0011668,0.011926,-0.22852,0.017227,0.033368,1.2607e-06,0.72,0.59,0
0.031022,-0.0025356,0.0386,0.0010486,0.011895,-0.00013472,0,0,0.069434,-0.0282,0,-0.00070053,0,0,0,0.038601,0.0010481,0.011895,-0.20555,0.017181,0.033474,1.2666e-06,0.73,0.59,0
0.031717,-0.0025554,0.038612,0.00093548,0.011864,-0.00012087,0,0,0.069544,-0.028415,0,-0.00062854,0,0,0,0.038613,0.00093509,0.011864,-0.18381,0.017137,0.033575,1.2721e-06,0.74,0.59,0
0.032413,-0.0025743,0.038623,0.00082801,0.011835,-0.00010775,0,0,0.069648,-0.028619,0,-0.0005603,0,0,0,0.038623,0.0008277,0.011835,-0.16334,0.017095,0.033669,1.2772e-06,0.75,0.59,0
0.03311,-0.0025922,0.038632,0.00072606,0.011807,-9.5376e-05,0,0,0.069744,-0.028812,0,-0.00049595,0,0,0,0.038632,0.00072582,0.011807,-0.14416,0.017055,0.033758,1.282e-06,0.76,0.59,0
0.033808,-0.002609,0.03864,0.00062952,0.011781,-8.3776e-05,0,0,0.069834,-0.028993,0,-0.00043564,0,0,0,0.03864,0.00062933,0.011781,-0.12628,0.017017,0.033842,1.2864e-06,0.77,0.59,0
0.034507,-0.002625,0.038647,0.00053827,0.011756,-7.2967e-05,0,0,0.069917,-0.029165,0,-0.00037943,0,0,0,0.038647,0.00053813,0.011756,-0.1097,0.01698,0.033921,1.2905e-06,0.78,0.59,0
0.035206,-0.00264,0.038652,0.00045218,0.011731,-6.2957e-05,0,0,0.069995,-0.029326,0,-0.00032737,0,0,0,0.038652,0.00045208,0.011731,-0.094427,0.016945,0.033994,1.2943e-06,0.79,0.59,0
0.035906,-0.0026541,0.038657,0.00037113,0.011708,-5.3748e-05,0,0,0.070066,-0.029477,0,-0.00027949,0,0,0,0.038657,0.00037106,0.011708,-0.080435,0.016912,0.034063,1.2978e-06,0.8,0.59,0
0.036607,-0.0026674,0.038661,0.000295,0.011687,-4.5337e-05,0,0,0.070132,-0.029618,0,-0.00023576,0,0,0,0.038661,0.00029495,0.011687,-0.067708,0.016881,0.034127,1.301e-06,0.81,0.59,0
0.037309,-0.0026798,0.038664,0.00022367,0.011666,-3.7715e-05,0,0,0.070193,-0.02975,0,-0.00019612,0,0,0,0.038664,0.00022363,0.011666,-0.056216,0.016851,0.034186,1.3039e-06,0.82,0.59,0
0.038011,-0.0026913,0.038666,0.00015699,0.011647,-3.0866e-05,0,0,0.070249,-0.029874,0,-0.0001605,0,0,0,0.038666,0.00015697,0.011647,-0.045925,0.016823,0.034241,1.3065e-06,0.83,0.59,0
0.038714,-0.0027021,0.038667,9.4862e-05,0.011629,-2.477e-05,0,0,0.0703,-0.029988,0,-0.0001288,0,0,0,0.038667,9.4846e-05,0.011629,-0.036793,0.016797,0.034292,1.309e-06,0.84,0.59,0
0.039417,-0.0027121,0.038668,3.7157e-05,0.011612,-1.9402e-05,0,0,0.070347,-0.030093,0,-0.00010089,0,0,0,0.038668,3.7147e-05,0.011612,-0.028776,0.016772,0.034339,1.3112e-06,0.85,0.59,0
0.040121,-0.0027213,0.038669,-1.6239e-05,0.011596,-1.4734e-05,0,0,0.070389,-0.030191,0,-7.6616e-05,0,0,0,0.038669,-1.6245e-05,0.011596,-0.021822,0.016749,0.034382,1.3132e-06,0.86,0.59,0
0.040825,-0.0027298,0.038669,-6.5436e-05,0.011581,-1.0733e-05,0,0,0.070428,-0.030281,0,-5.5811e-05,0,0,0,0.038669,-6.5439e-05,0.011581,-0.015876,0.016728,0.034422,1.315e-06,0.87,0.59,0
0.041529,-0.0027376,0.038669,-0.00011054,0.011567,-7.363e-06,0,0,0.070463,-0.030363,0,-3.8288e-05,0,0,0,0.038669,-0.00011054,0.011567,-0.010879,0.016708,0.034458,1.3166e-06,0.88,0.59,0
0.042234,-0.0027446,0.038668,-0.00015165,0.011555,-4.5856e-06,0,0,0.070494,-0.030437,0,-2.3845e-05,0,0,0,0.038668,-0.00015165,0.011555,-0.0067681,0.01669,0.03449,1.318e-06,0.89,0.59,0
0.042939,-0.002751,0.038667,-0.00018886,0.011543,-2.3592e-06,0,0,0.070522,-0.030504,0,-1.2268e-05,0,0,0,0.038667,-0.00018886,0.011543,-0.0034787,0.016674,0.034519,1.3193e-06,0.9,0.59,0
0.043645,-0.0027567,0.038667,-0.00022226,0.011533,-6.4001e-07,0,0,0.070547,-0.030565,0,-3.328e-06,0,0,0,0.038667,-0.00022226,0.011533,-0.00094294,0.016659,0.034545,1.3204e-06,0.91,0.59,0
0.04435,-0.0027618,0.038666,-0.00025192,0.011524,6.1755e-07,0,0,0.070568,-0.030618,0,3.2113e-06,0,0,0,0.038666,-0.00025192,0.011524,0.00090918,0.016646,0.034568,1.3214e-06,0.92,0.59,0
0.045056,-0.0027663,0.038665,-0.00027792,0.011516,1.4609e-06,0,0,0.070587,-0.030665,0,7.5969e-06,0,0,0,0.038665,-0.00027792,0.011516,0.0021494,0.016634,0.034588,1.3222e-06,0.93,0.59,0
0.045762,-0.0027701,0.038664,-0.00030032,0.011509,1.939e-06,0,0,0.070603,-0.030705,0,1.0083e-05,0,0,0,0.038664,-0.00030032,0.011509,0.0028512,0.016624,0.034605,1.323e-06,0.94,0.59,0
0.046468,-0.0027733,0.038663,-0.00031918,0.011503,2.1018e-06,0,0,0.070616,-0.030738,0,1.0929e-05,0,0,0,0.038663,-0.00031918,0.011503,0.0030892,0.016616,0.03462,1.3236e-06,0.95,0.59,0
0.047174,-0.0027759,0.038663,-0.00033455,0.011498,2.0005e-06,0,0,0.070627,-0.030766,0,1.0403e-05,0,0,0,0.038663,-0.00033455,0.011498,0.0029392,0.016609,0.034632,1.324e-06,0.96,0.59,0
0.047881,-0.0027779,0.038662,-0.00034646,0.011495,1.6869e-06,0,0,0.070635,-0.030787,0,8.7719e-06,0,0,0,0.038662,-0.00034646,0.011495,0.0024777,0.016604,0.034641,1.3244e-06,0.97,0.59,0
0.048587,-0.0027794,0.038662,-0.00035494,0.011492,1.2136e-06,0,0,0.070641,-0.030802,0,6.3106e-06,0,0,0,0.038662,-0.00035494,0.011492,0.0017821,0.0166,0.034647,1.3247e-06,0.98,0.59,0
0.049293,-0.0027803,0.038662,-0.00036002,0.01149,6.3351e-07,0,0,0.070645,-0.030811,0,3.2942e-06,0,0,0,0.038662,-0.00036002,0.01149,0.00093019,0.016597,0.034651,1.3248e-06,0.99,0.59,0
0.05,-0.0027805,0.038661,-0.00036172,0.01149,-5.541e-06,0,0,0.070646,-0.030814,0,-2.8813e-05,0,0,0,0.038661,-0.00036172,0.01149,-0.0081356,0.016597,0.034652,1.3249e-06,1,0.59,0
0,0,0.033011,0.014147,0.014147,-0.0014678,0,0,0.024522,-2.7105e-20,0,-0.0038163,0,0,0,0.033124,0.014034,0.014147,-4.4229,0.020435,0.019034,3.5412e-07,0,0.6,0
0.00024522,-3.8163e-05,0.032974,0.013697,0.014002,-0.0014695,0,0,0.024664,-0.00039516,0,-0.0038207,0,0,0,0.033085,0.013586,0.014002,-4.3345,0.020224,0.019295,3.6836e-07,0.01,0.6,0
0.00049329,-7.7214e-05,0.033127,0.013318,0.013933,-0.0014857,0,0,0.024951,-0.0007997,0,-0.0038627,0,0,0,0.033238,0.013208,0.013933,-4.2654,0.020126,0.019677,3.895e-07,0.02,0.6,0
0.00074425,-0.00011708,0.033281,0.012931,0.013863,-0.0014976,0,0,0.025243,-0.0012127,0,-0.0038938,0,0,0,0.03339,0.012821,0.013863,-4.1864,0.020025,0.020068,4.1134e-07,0.03,0.6,0
0.00099814,-0.00015767,0.033436,0.012535,0.013791,-0.0015053,0,0,0.025538,-0.0016332,0,-0.0039137,0,0,0,0.033543,0.012427,0.013791,-4.0983,0.019921,0.020469,4.3385e-07,0.04,0.6,0
0.001255,-0.00019892,0.033591,0.012132,0.013717,-0.0015087,0,0,0.025836,-0.0020601,0,-0.0039225,0,0,0,0.033696,0.012027,0.013717,-4.0019,0.019813,0.020876,4.5695e-07,0.05,0.6,0
0.0015149,-0.00024074,0.033746,0.011723,0.013641,-0.0015077,0,0,0.026137,-0.0024925,0,-0.0039201,0,0,0,0.033849,0.011621,0.013641,-3.8984,0.019703,0.02129,4.806e-07,0.06,0.6,0
0.0017777,-0.00028304,0.0339,0.01131,0.013563,-0.0015026,0,0,0.026438,-0.0029293,0,-0.0039067,0,0,0,0.034,0.01121,0.013563,-3.7887,0.019591,0.021709,5.0471e-07,0.07,0.6,0
0.0020436,-0.00032575,0.034053,0.010891,0.013483,-0.0014933,0,0,0.026741,-0.0033697,0,-0.0038825,0,0,0,0.034149,0.010795,0.013483,-3.6737,0.019476,0.022132,5.2923e-07,0.08,0.6,0
0.0023126,-0.00036879,0.034205,0.010469,0.013402,-0.0014801,0,0,0.027043,-0.0038125,0,-0.0038482,0,0,0,0.034297,0.010378,0.013402,-3.5545,0.019359,0.022559,5.5408e-07,0.09,0.6,0
0.0025845,-0.00041208,0.034354,0.010045,0.01332,-0.0014631,0,0,0.027344,-0.004257,0,-0.0038041,0,0,0,0.034441,0.0099573,0.01332,-3.432,0.019239,0.022988,5.7919e-07,0.1,0.6,0
0.0028594,-0.00045555,0.0345,0.0096187,0.013236,-0.0014426,0,0,0.027644,-0.0047021,0,-0.0037509,0,0,0,0.034584,0.0095353,0.013236,-3.3073,0.019118,0.023418,6.0448e-07,0.11,0.6,0
0.0031374,-0.00049913,0.034644,0.0091911,0.013151,-0.001419,0,0,0.027941,-0.0051472,0,-0.0036894,0,0,0,0.034723,0.0091123,0.013151,-3.1811,0.018995,0.023849,6.2989e-07,0.12,0.6,0
0.0034183,-0.00054274,0.034784,0.0087631,0.013064,-0.0013924,0,0,0.028236,-0.0055914,0,-0.0036204,0,0,0,0.034858,0.0086888,0.013064,-3.0544,0.01887,0.024279,6.5534e-07,0.13,0.6,0
0.0037021,-0.00058634,0.034921,0.0083353,0.012977,-0.0013634,0,0,0.028527,-0.006034,0,-0.0035448,0,0,0,0.03499,0.0082655,0.012977,-2.928,0.018744,0.024708,6.8077e-07,0.14,0.6,0
0.0039888,-0.00062986,0.035053,0.0079081,0.012888,-0.0013321,0,0,0.028814,-0.0064744,0,-0.0034635,0,0,0,0.035119,0.0078429,0.012888,-2.8027,0.018617,0.025136,7.0612e-07,0.15,0.6,0
0.0042784,-0.00067325,0.035182,0.0074822,0.012799,-0.001299,0,0,0.029097,-0.0069122,0,-0.0033775,0,0,0,0.035243,0.0074214,0.012799,-2.6792,0.018488,0.02556,7.3133e-07,0.16,0.6,0
0.0045708,-0.00071648,0.035306,0.0070579,0.012709,-0.0012645,0,0,0.029376,-0.0073468,0,-0.0032878,0,0,0,0.035363,0.0070014,0.012709,-2.558,0.018358,0.025982,7.5634e-07,0.17,0.6,0
0.0048659,-0.0007595,0.035426,0.0066356,0.012619,-0.001229,0,0,0.02965,-0.0077779,0,-0.0031954,0,0,0,0.035479,0.0065832,0.012619,-2.4399,0.018227,0.0264,7.8111e-07,0.18,0.6,0
0.0051638,-0.00080227,0.035542,0.0062156,0.012527,-0.0011928,0,0,0.029919,-0.0082051,0,-0.0031014,0,0,0,0.03559,0.0061672,0.012527,-2.3253,0.018095,0.026815,8.0559e-07,0.19,0.6,0
0.0054643,-0.00084478,0.035653,0.0057981,0.012435,-0.0011563,0,0,0.030183,-0.0086284,0,-0.0030065,0,0,0,0.035698,0.0057534,0.012435,-2.2148,0.017962,0.027225,8.2976e-07,0.2,0.6,0
0.0057674,-0.000887,0.03576,0.0053834,0.012343,-0.0011199,0,0,0.030442,-0.0090475,0,-0.0029118,0,0,0,0.035801,0.0053422,0.012343,-2.1086,0.017829,0.027632,8.5358e-07,0.21,0.6,0
0.0060731,-0.00092893,0.035862,0.0049714,0.01225,-0.0010839,0,0,0.030696,-0.0094623,0,-0.0028181,0,0,0,0.0359,0.0049334,0.01225,-2.0071,0.017695,0.028034,8.7704e-07,0.22,0.6,0
0.0063813,-0.00097053,0.035961,0.0045623,0.012157,-0.0010485,0,0,0.030945,-0.0098729,0,-0.0027262,0,0,0,0.035996,0.0045274,0.012157,-1.9105,0.01756,0.028432,9.001e-07,0.23,0.6,0
0.006692,-0.0010118,0.036055,0.0041561,0.012063,-0.0010141,0,0,0.031189,-0.010279,0,-0.0026368,0,0,0,0.036087,0.0041239,0.012063,-1.8191,0.017425,0.028826,9.2277e-07,0.24,0.6,0
0.0070051,-0.0010528,0.036145,0.0037527,0.011969,-0.00098098,0,0,0.031429,-0.010682,0,-0.0025506,0,0,0,0.036175,0.003723,0.011969,-1.733,0.017289,0.029215,9.4503e-07,0.25,0.6,0
0.0073206,-0.0010934,0.036232,0.003352,0.011875,-0.00094925,0,0,0.031664,-0.01108,0,-0.002468,0,0,0,0.03626,0.0033246,0.011875,-1.6523,0.017153,0.029601,9.6689e-07,0.26,0.6,0
0.0076384,-0.0011338,0.036316,0.0029539,0.011781,-0.00091913,0,0,0.031895,-0.011475,0,-0.0023897,0,0,0,0.036341,0.0029286,0.011781,-1.5769,0.017017,0.029983,9.8835e-07,0.27,0.6,0
0.0079585,-0.0011738,0.036396,0.0025583,0.011686,-0.00089074,0,0,0.032122,-0.011866,0,-0.0023159,0,0,0,0.036419,0.0025349,0.011686,-1.5069,0.01688,0.030361,1.0094e-06,0.28,0.6,0
0.0082808,-0.0012136,0.036473,0.002165,0.011591,-0.0008642,0,0,0.032346,-0.012254,0,-0.0022469,0,0,0,0.036495,0.0021432,0.011591,-1.442,0.016743,0.030737,1.0301e-06,0.29,0.6,0
0.0086054,-0.001253,0.036548,0.0017738,0.011496,-0.00083956,0,0,0.032567,-0.012639,0,-0.0021829,0,0,0,0.036568,0.0017535,0.011496,-1.3822,0.016606,0.031109,1.0504e-06,0.3,0.6,0
0.0089322,-0.0012922,0.03662,0.0013846,0.011402,-0.00081685,0,0,0.032785,-0.013022,0,-0.0021238,0,0,0,0.036639,0.0013656,0.011402,-1.3273,0.016469,0.031479,1.0703e-06,0.31,0.6,0
0.0092611,-0.0013312,0.036691,0.00099709,0.011306,-0.00079604,0,0,0.033,-0.013402,0,-0.0020697,0,0,0,0.036708,0.00097934,0.011306,-1.277,0.016331,0.031847,1.09e-06,0.32,0.6,0
0.0095922,-0.0013699,0.036759,0.0006112,0.011211,-0.00077708,0,0,0.033212,-0.01378,0,-0.0020204,0,0,0,0.036776,0.00059451,0.011211,-1.2309,0.016194,0.032213,1.1092e-06,0.33,0.6,0
0.0099254,-0.0014084,0.036826,0.00022675,0.011116,-0.00075989,0,0,0.033423,-0.014156,0,-0.0019757,0,0,0,0.036842,0.00021098,0.011116,-1.1889,0.016056,0.032577,1.1282e-06,0.34,0.6,0
0.010261,-0.0014466,0.036892,-0.00015642,0.011021,-0.00074433,0,0,0.033633,-0.01453,0,-0.0019353,0,0,0,0.036907,-0.00017137,0.011021,-1.1505,0.015919,0.03294,1.1469e-06,0.35,0.6,0
0.010598,-0.0014846,0.036956,-0.00053841,0.010925,-0.00073026,0,0,0.03384,-0.014903,0,-0.0018987,0,0,0,0.03697,-0.00055262,0.010925,-1.1154,0.015781,0.033302,1.1652e-06,0.36,0.6,0
0.010937,-0.0015225,0.03702,-0.0009193,0.01083,-0.00071747,0,0,0.034047,-0.015274,0,-0.0018654,0,0,0,0.037033,-0.00093286,0.01083,-1.083,0.015644,0.033663,1.1833e-06,0.37,0.6,0
0.011279,-0.0015601,0.037083,-0.0012992,0.010735,-0.00070578,0,0,0.034252,-0.015644,0,-0.001835,0,0,0,0.037095,-0.0013121,0.010735,-1.0531,0.015506,0.034023,1.2012e-06,0.38,0.6,0
0.011622,-0.0015975,0.037145,-0.001678,0.01064,-0.00069493,0,0,0.034456,-0.016013,0,-0.0018068,0,0,0,0.037157,-0.0016904,0.01064,-1.0252,0.015369,0.034383,1.2187e-06,0.39,0.6,0
0.011968,-0.0016347,0.037206,-0.0020557,0.010545,-0.00068469,0,0,0.03466,-0.016381,0,-0.0017802,0,0,0,0.037218,-0.0020676,0.010545,-0.99877,0.015232,0.034741,1.236e-06,0.4,0.6,0
0.012316,-0.0016717,0.037268,-0.0024322,0.010451,-0.00067477,0,0,0.034862,-0.016748,0,-0.0017544,0,0,0,0.037279,-0.0024437,0.010451,-0.97348,0.015095,0.035099,1.253e-06,0.41,0.6,0
0.012665,-0.0017084,0.037329,-0.0028074,0.010356,-0.00066492,0,0,0.035064,-0.017113,0,-0.0017288,0,0,0,0.037339,-0.0028185,0.010356,-0.94886,0.014959,0.035457,1.2698e-06,0.42,0.6,0
0.013017,-0.0017449,0.037389,-0.0031812,0.010262,-0.00065484,0,0,0.035265,-0.017477,0,-0.0017026,0,0,0,0.0374,-0.0031918,0.010262,-0.92449,0.014823,0.035813,1.2862e-06,0.43,0.6,0
0.013371,-0.0017811,0.037449,-0.0035532,0.010169,-0.00064426,0,0,0.035464,-0.017839,0,-0.0016751,0,0,0,0.037459,-0.0035633,0.010169,-0.89998,0.014688,0.036167,1.3023e-06,0.44,0.6,0
0.013726,-0.001817,0.037508,-0.0039232,0.010075,-0.00063287,0,0,0.035663,-0.018198,0,-0.0016455,0,0,0,0.037518,-0.0039329,0.010075,-0.87493,0.014554,0.03652,1.3181e-06,0.45,0.6,0
0.014084,-0.0018525,0.037567,-0.0042909,0.0099828,-0.00062042,0,0,0.03586,-0.018556,0,-0.0016131,0,0,0,0.037576,-0.0043001,0.0099828,-0.84899,0.01442,0.036872,1.3335e-06,0.46,0.6,0
0.014443,-0.0018877,0.037625,-0.0046558,0.0098908,-0.00060662,0,0,0.036055,-0.018911,0,-0.0015772,0,0,0,0.037634,-0.0046645,0.0098908,-0.82182,0.014287,0.03722,1.3486e-06,0.47,0.6,0
0.014805,-0.0019224,0.037682,-0.0050177,0.0097994,-0.00059121,0,0,0.036248,-0.019262,0,-0.0015372,0,0,0,0.03769,-0.0050258,0.0097994,-0.7931,0.014155,0.037566,1.3632e-06,0.48,0.6,0
0.015168,-0.0019567,0.037738,-0.0053758,0.0097087,-0.00057396,0,0,0.036438,-0.01961,0,-0.0014923,0,0,0,0.037746,-0.0053835,0.0097087,-0.76257,0.014024,0.037908,1.3774e-06,0.49,0.6,0
0.015534,-0.0019905,0.037778,-0.00025436,0.011257,-0.00055635,0,0,0.050689,-0.019953,0,-0.0021578,0,0,0,0.037787,-0.00026263,0.011257,-0.85322,0.01626,0.033864,1.2041e-06,0.5,0.6,0
0.016182,-0.002038,0.037846,0.004994,0.012852,-0.00054162,0,0,0.064985,-0.020431,0,-0.0028164,0,0,0,0.037855,0.0049851,0.012852,-0.94427,0.018564,0.029728,1.0375e-06,0.51,0.6,0
0.016833,-0.0020846,0.037899,0.0047583,0.012797,-0.00052766,0,0,0.065264,-0.020901,0,-0.0027438,0,0,0,0.037907,0.0047499,0.012797,-0.91196,0.018485,0.029955,1.052e-06,0.52,0.6,0
0.017487,-0.0021304,0.037949,0.0045268,0.012743,-0.00051298,0,0,0.065537,-0.021362,0,-0.0026675,0,0,0,0.037957,0.0045189,0.012743,-0.87912,0.018406,0.030179,1.0662e-06,0.53,0.6,0
0.018144,-0.0021753,0.037999,0.0042996,0.012689,-0.00049757,0,0,0.065804,-0.021814,0,-0.0025874,0,0,0,0.038006,0.0042922,0.012689,-0.84573,0.018329,0.030398,1.0801e-06,0.54,0.6,0
0.018804,-0.0022193,0.038046,0.004077,0.012637,-0.00048144,0,0,0.066065,-0.022256,0,-0.0025035,0,0,0,0.038053,0.0040701,0.012637,-0.81181,0.018253,0.030612,1.0936e-06,0.55,0.6,0
0.019465,-0.0022622,0.038093,0.0038592,0.012586,-0.00046461,0,0,0.066319,-0.022689,0,-0.002416,0,0,0,0.038099,0.0038529,0.012586,-0.77742,0.018179,0.030822,1.1068e-06,0.56,0.6,0
0.02013,-0.0023041,0.038137,0.0036465,0.012535,-0.00044713,0,0,0.066565,-0.02311,0,-0.0023251,0,0,0,0.038143,0.0036407,0.012535,-0.7426,0.018106,0.031026,1.1196e-06,0.57,0.6,0
0.020797,-0.002345,0.03818,0.003439,0.012486,-0.00042905,0,0,0.066805,-0.023521,0,-0.0022311,0,0,0,0.038185,0.0034337,0.012486,-0.70747,0.018035,0.031225,1.132e-06,0.58,0.6,0
0.021466,-0.0023847,0.03822,0.003237,0.012437,-0.00041045,0,0,0.067036,-0.023921,0,-0.0021343,0,0,0,0.038225,0.0032322,0.012437,-0.67211,0.017965,0.031419,1.144e-06,0.59,0.6,0
0.022138,-0.0024234,0.038259,0.0030405,0.01239,-0.0003914,0,0,0.06726,-0.024308,0,-0.0020353,0,0,0,0.038263,0.0030362,0.01239,-0.63665,0.017896,0.031606,1.1556e-06,0.6,0.6,0
0.022811,-0.0024609,0.038296,0.0028499,0.012344,-0.00037199,0,0,0.067476,-0.024684,0,-0.0019344,0,0,0,0.0383,0.002846,0.012344,-0.60121,0.01783,0.031788,1.1667e-06,0.61,0.6,0
0.023487,-0.0024972,0.038331,0.002665,0.012299,-0.00035233,0,0,0.067683,-0.025047,0,-0.0018321,0,0,0,0.038334,0.0026616,0.012299,-0.56593,0.017765,0.031963,1.1774e-06,0.62,0.6,0
0.024165,-0.0025324,0.038363,0.0024862,0.012255,-0.0003325,0,0,0.067881,-0.025398,0,-0.001729,0,0,0,0.038366,0.0024831,0.012255,-0.53095,0.017701,0.032132,1.1876e-06,0.63,0.6,0
0.024845,-0.0025663,0.038393,0.0023134,0.012212,-0.00031262,0,0,0.068072,-0.025736,0,-0.0016256,0,0,0,0.038396,0.0023107,0.012212,-0.4964,0.01764,0.032294,1.1974e-06,0.64,0.6,0
0.025526,-0.0025991,0.038422,0.0021467,0.012171,-0.00029279,0,0,0.068253,-0.026062,0,-0.0015225,0,0,0,0.038424,0.0021444,0.012171,-0.46241,0.01758,0.03245,1.2067e-06,0.65,0.6,0
0.02621,-0.0026306,0.038448,0.0019862,0.01213,-0.0002731,0,0,0.068426,-0.026374,0,-0.0014201,0,0,0,0.03845,0.0019842,0.01213,-0.42912,0.017521,0.032599,1.2155e-06,0.66,0.6,0
0.026895,-0.002661,0.038472,0.0018319,0.012091,-0.00025367,0,0,0.06859,-0.026674,0,-0.0013191,0,0,0,0.038474,0.0018301,0.012091,-0.39665,0.017465,0.032742,1.2239e-06,0.67,0.6,0
0.027581,-0.0026901,0.038494,0.0016837,0.012053,-0.00023458,0,0,0.068746,-0.026961,0,-0.0012198,0,0,0,0.038496,0.0016822,0.012053,-0.3651,0.01741,0.032879,1.2318e-06,0.68,0.6,0
0.02827,-0.002718,0.038514,0.0015416,0.012017,-0.00021593,0,0,0.068894,-0.027235,0,-0.0011228,0,0,0,0.038516,0.0015404,0.012017,-0.3346,0.017358,0.033009,1.2393e-06,0.69,0.6,0
0.028959,-0.0027446,0.038533,0.0014056,0.011982,-0.00019779,0,0,0.069033,-0.027497,0,-0.0010285,0,0,0,0.038534,0.0014046,0.011982,-0.30523,0.017307,0.033132,1.2463e-06,0.7,0.6,0
0.02965,-0.0027701,0.038549,0.0012757,0.011947,-0.00018025,0,0,0.069164,-0.027747,0,-0.0009373,0,0,0,0.03855,0.0012748,0.011947,-0.27707,0.017257,0.033249,1.2529e-06,0.71,0.6,0
0.030343,-0.0027945,0.038564,0.0011517,0.011915,-0.00016337,0,0,0.069288,-0.027984,0,-0.00084952,0,0,0,0.038564,0.001151,0.011915,-0.25019,0.01721,0.03336,1.2591e-06,0.72,0.6,0
0.031036,-0.0028176,0.038577,0.0010336,0.011883,-0.00014721,0,0,0.069403,-0.028209,0,-0.00076551,0,0,0,0.038577,0.001033,0.011883,-0.22466,0.017164,0.033466,1.2649e-06,0.73,0.6,0
0.031731,-0.0028396,0.038588,0.00092123,0.011853,-0.00013183,0,0,0.069512,-0.028422,0,-0.0006855,0,0,0,0.038588,0.00092077,0.011853,-0.20052,0.017121,0.033565,1.2703e-06,0.74,0.6,0
0.032426,-0.0028605,0.038598,0.00081455,0.011824,-0.00011726,0,0,0.069613,-0.028624,0,-0.00060974,0,0,0,0.038598,0.00081419,0.011824,-0.17781,0.017079,0.033658,1.2753e-06,0.75,0.6,0
0.033123,-0.0028803,0.038607,0.00071342,0.011796,-0.00010354,0,0,0.069707,-0.028815,0,-0.00053838,0,0,0,0.038607,0.00071314,0.011796,-0.15655,0.017039,0.033746,1.2799e-06,0.76,0.6,0
0.033821,-0.002899,0.038614,0.00061772,0.011769,-9.0685e-05,0,0,0.069795,-0.028994,0,-0.00047156,0,0,0,0.038614,0.0006175,0.011769,-0.13675,0.017,0.033828,1.2842e-06,0.77,0.6,0
0.034519,-0.0029166,0.03862,0.00052731,0.011744,-7.8726e-05,0,0,0.069877,-0.029164,0,-0.00040938,0,0,0,0.03862,0.00052715,0.011744,-0.11841,0.016964,0.033906,1.2882e-06,0.78,0.6,0
0.035218,-0.0029333,0.038625,0.00044208,0.01172,-6.7667e-05,0,0,0.069952,-0.029323,0,-0.00035187,0,0,0,0.038625,0.00044196,0.01172,-0.10154,0.016929,0.033978,1.2919e-06,0.79,0.6,0
0.035918,-0.0029489,0.038629,0.00036188,0.011697,-5.7507e-05,0,0,0.070022,-0.029472,0,-0.00029904,0,0,0,0.038629,0.0003618,0.011697,-0.086104,0.016896,0.034045,1.2953e-06,0.8,0.6,0
0.036618,-0.0029635,0.038632,0.0002866,0.011676,-4.8244e-05,0,0,0.070086,-0.029611,0,-0.00025087,0,0,0,0.038632,0.00028654,0.011676,-0.072087,0.016865,0.034108,1.2983e-06,0.81,0.6,0
0.03732,-0.0029772,0.038634,0.00021609,0.011655,-3.9864e-05,0,0,0.070145,-0.029741,0,-0.00020729,0,0,0,0.038634,0.00021605,0.011655,-0.059452,0.016835,0.034166,1.3012e-06,0.82,0.6,0
0.038021,-0.00299,0.038635,0.00015023,0.011636,-3.2349e-05,0,0,0.070199,-0.029862,0,-0.00016821,0,0,0,0.038636,0.0001502,0.011636,-0.04816,0.016807,0.03422,1.3037e-06,0.83,0.6,0
0.038724,-0.0030019,0.038636,8.8884e-05,0.011618,-2.5677e-05,0,0,0.070249,-0.029975,0,-0.00013352,0,0,0,0.038636,8.8867e-05,0.011618,-0.038165,0.016781,0.03427,1.3061e-06,0.84,0.6,0
0.039426,-0.0030129,0.038637,3.1936e-05,0.011601,-1.9818e-05,0,0,0.070294,-0.030079,0,-0.00010306,0,0,0,0.038637,3.1926e-05,0.011601,-0.029414,0.016757,0.034316,1.3082e-06,0.85,0.6,0
0.040129,-0.0030231,0.038637,-2.0735e-05,0.011585,-1.4741e-05,0,0,0.070335,-0.030174,0,-7.6653e-05,0,0,0,0.038637,-2.0741e-05,0.011585,-0.021848,0.016734,0.034358,1.3101e-06,0.86,0.6,0
0.040833,-0.0030325,0.038636,-6.9244e-05,0.01157,-1.0408e-05,0,0,0.070372,-0.030263,0,-5.412e-05,0,0,0,0.038636,-6.9247e-05,0.01157,-0.015407,0.016713,0.034396,1.3118e-06,0.87,0.6,0
0.041537,-0.0030411,0.038636,-0.0001137,0.011557,-6.7779e-06,0,0,0.070406,-0.030343,0,-3.5245e-05,0,0,0,0.038636,-0.0001137,0.011557,-0.010022,0.016693,0.034431,1.3134e-06,0.88,0.6,0
0.042241,-0.0030489,0.038635,-0.00015421,0.011544,-3.8079e-06,0,0,0.070436,-0.030416,0,-1.9801e-05,0,0,0,0.038635,-0.00015421,0.011544,-0.0056246,0.016675,0.034463,1.3147e-06,0.89,0.6,0
0.042946,-0.0030559,0.038634,-0.00019086,0.011533,-1.451e-06,0,0,0.070463,-0.030482,0,-7.5454e-06,0,0,0,0.038634,-0.00019086,0.011533,-0.0021414,0.016659,0.034491,1.316e-06,0.9,0.6,0
0.04365,-0.0030623,0.038633,-0.00022374,0.011523,3.4156e-07,0,0,0.070486,-0.030541,0,1.7761e-06,0,0,0,0.038633,-0.00022374,0.011523,0.00050365,0.016644,0.034516,1.317e-06,0.91,0.6,0
0.044355,-0.0030679,0.038632,-0.00025294,0.011514,1.6211e-06,0,0,0.070507,-0.030593,0,8.4295e-06,0,0,0,0.038632,-0.00025294,0.011514,0.0023886,0.016631,0.034539,1.318e-06,0.92,0.6,0
0.045061,-0.0030728,0.038631,-0.00027853,0.011506,2.4404e-06,0,0,0.070525,-0.030639,0,1.269e-05,0,0,0,0.038631,-0.00027853,0.011506,0.0035936,0.016619,0.034558,1.3188e-06,0.93,0.6,0
0.045766,-0.003077,0.03863,-0.00030057,0.011499,2.854e-06,0,0,0.07054,-0.030678,0,1.484e-05,0,0,0,0.03863,-0.00030057,0.011499,0.0042003,0.016609,0.034575,1.3194e-06,0.94,0.6,0
0.046471,-0.0030806,0.038629,-0.00031913,0.011493,2.9176e-06,0,0,0.070553,-0.030711,0,1.5171e-05,0,0,0,0.038629,-0.00031913,0.011493,0.004292,0.016601,0.034589,1.32e-06,0.95,0.6,0
0.047177,-0.0030834,0.038628,-0.00033424,0.011488,2.688e-06,0,0,0.070563,-0.030738,0,1.3977e-05,0,0,0,0.038628,-0.00033424,0.011488,0.0039528,0.016594,0.0346,1.3205e-06,0.96,0.6,0
0.047883,-0.0030857,0.038627,-0.00034595,0.011484,2.2229e-06,0,0,0.070571,-0.030759,0,1.1559e-05,0,0,0,0.038627,-0.00034595,0.011484,0.003268,0.016588,0.034609,1.3208e-06,0.97,0.6,0
0.048588,-0.0030873,0.038627,-0.0003543,0.011482,1.5806e-06,0,0,0.070577,-0.030774,0,8.2192e-06,0,0,0,0.038627,-0.0003543,0.011482,0.0023232,0.016585,0.034616,1.3211e-06,0.98,0.6,0
0.049294,-0.0030882,0.038626,-0.00035929,0.01148,8.1995e-07,0,0,0.07058,-0.030783,0,4.2637e-06,0,0,0,0.038626,-0.00035929,0.01148,0.001205,0.016582,0.034619,1.3212e-06,0.99,0.6,0
0.05,-0.0030885,0.038626,-0.00036096,0.01148,-6.115e-06,0,0,0.070581,-0.030786,0,-3.1798e-05,0,0,0,0.038626,-0.00036096,0.01148,-0.0089866,0.016582,0.03462,1.3213e-06,1,0.6,0
0,0,0.033067,0.014172,0.014172,-0.0016206,0,0,0.024564,2.7105e-20,0,-0.0042136,0,0,0,0.033205,0.014034,0.014172,-4.8667,0.02047,0.019103,3.5798e-07,0,0.61,0
0.00024564,-4.2136e-05,0.03303,0.013717,0.014024,-0.0016225,0,0,0.024708,-0.00039966,0,-0.0042184,0,0,0,0.033166,0.013581,0.014024,-4.7686,0.020257,0.019367,3.7242e-07,0.01,0.61,0
0.00049416,-8.5254e-05,0.033185,0.013333,0.013955,-0.0016402,0,0,0.024998,-0.00080889,0,-0.0042646,0,0,0,0.033319,0.013199,0.013955,-4.6916,0.020158,0.019753,3.939e-07,0.02,0.61,0
0.00074561,-0.00012927,0.033341,0.012941,0.013884,-0.0016533,0,0,0.025293,-0.0012267,0,-0.0042985,0,0,0,0.033474,0.012808,0.013884,-4.6034,0.020055,0.020149,4.161e-07,0.03,0.61,0
0.001,-0.00017409,0.033497,0.01254,0.013811,-0.0016615,0,0,0.025591,-0.0016519,0,-0.0043199,0,0,0,0.033628,0.01241,0.013811,-4.5051,0.01995,0.020553,4.3895e-07,0.04,0.61,0
0.0012574,-0.00021963,0.033654,0.012133,0.013736,-0.0016649,0,0,0.025893,-0.0020837,0,-0.0043286,0,0,0,0.033782,0.012005,0.013736,-4.3976,0.019841,0.020965,4.6239e-07,0.05,0.61,0
0.0015179,-0.00026579,0.03381,0.01172,0.013659,-0.0016634,0,0,0.026197,-0.0025208,0,-0.0043248,0,0,0,0.033935,0.011595,0.013659,-4.2822,0.01973,0.021382,4.8637e-07,0.06,0.61,0
0.0017814,-0.00031249,0.033966,0.011302,0.01358,-0.0016572,0,0,0.026501,-0.0029623,0,-0.0043086,0,0,0,0.034086,0.011181,0.01358,-4.1598,0.019616,0.021805,5.1079e-07,0.07,0.61,0
0.0020479,-0.00035962,0.03412,0.010879,0.0135,-0.0016463,0,0,0.026807,-0.003407,0,-0.0042804,0,0,0,0.034236,0.010763,0.0135,-4.0317,0.0195,0.022232,5.356e-07,0.08,0.61,0
0.0023175,-0.00040711,0.034272,0.010453,0.013418,-0.001631,0,0,0.027111,-0.0038539,0,-0.0042406,0,0,0,0.034383,0.010342,0.013418,-3.899,0.019381,0.022661,5.6071e-07,0.09,0.61,0
0.0025901,-0.00045487,0.034422,0.010025,0.013334,-0.0016115,0,0,0.027415,-0.0043021,0,-0.0041899,0,0,0,0.034528,0.0099188,0.013334,-3.7627,0.01926,0.023092,5.8605e-07,0.1,0.61,0
0.0028658,-0.0005028,0.034569,0.0095948,0.013249,-0.0015881,0,0,0.027716,-0.0047507,0,-0.004129,0,0,0,0.03467,0.0094942,0.013249,-3.6239,0.019138,0.023524,6.1155e-07,0.11,0.61,0
0.0031445,-0.00055084,0.034713,0.0091641,0.013163,-0.0015611,0,0,0.028015,-0.0051987,0,-0.0040589,0,0,0,0.034808,0.009069,0.013163,-3.4836,0.019013,0.023956,6.3712e-07,0.12,0.61,0
0.0034261,-0.00059891,0.034853,0.0087332,0.013076,-0.0015309,0,0,0.02831,-0.0056455,0,-0.0039803,0,0,0,0.034943,0.0086438,0.013076,-3.3429,0.018887,0.024387,6.6269e-07,0.13,0.61,0
0.0037106,-0.00064694,0.034989,0.0083028,0.012988,-0.0014979,0,0,0.028602,-0.0060902,0,-0.0038945,0,0,0,0.035073,0.008219,0.012988,-3.2025,0.01876,0.024816,6.8821e-07,0.14,0.61,0
0.0039981,-0.00069488,0.035121,0.0078736,0.012898,-0.0014624,0,0,0.02889,-0.0065323,0,-0.0038023,0,0,0,0.0352,0.0077953,0.012898,-3.0634,0.018631,0.025243,7.136e-07,0.15,0.61,0
0.0042885,-0.00074265,0.035249,0.0074459,0.012808,-0.001425,0,0,0.029173,-0.0069712,0,-0.003705,0,0,0,0.035322,0.0073731,0.012808,-2.9264,0.018501,0.025666,7.3881e-07,0.16,0.61,0
0.0045816,-0.00079023,0.035372,0.0070204,0.012718,-0.001386,0,0,0.029451,-0.0074065,0,-0.0036037,0,0,0,0.035439,0.0069528,0.012718,-2.7922,0.01837,0.026086,7.6378e-07,0.17,0.61,0
0.0048775,-0.00083756,0.03549,0.0065972,0.012626,-0.001346,0,0,0.029723,-0.0078378,0,-0.0034995,0,0,0,0.035553,0.0065346,0.012626,-2.6614,0.018238,0.026503,7.8846e-07,0.18,0.61,0
0.005176,-0.00088461,0.035604,0.0061767,0.012534,-0.0013052,0,0,0.029991,-0.0082647,0,-0.0033935,0,0,0,0.035662,0.006119,0.012534,-2.5346,0.018105,0.026915,8.1283e-07,0.19,0.61,0
0.0054773,-0.00093134,0.035713,0.0057592,0.012442,-0.0012641,0,0,0.030253,-0.0086872,0,-0.0032868,0,0,0,0.035766,0.005706,0.012442,-2.4123,0.017971,0.027322,8.3683e-07,0.2,0.61,0
0.0057811,-0.00097775,0.035818,0.0053447,0.012349,-0.0012232,0,0,0.03051,-0.0091051,0,-0.0031804,0,0,0,0.035867,0.0052957,0.012349,-2.295,0.017837,0.027726,8.6045e-07,0.21,0.61,0
0.0060875,-0.0010238,0.035917,0.0049334,0.012255,-0.0011828,0,0,0.030761,-0.0095184,0,-0.0030753,0,0,0,0.035963,0.0048883,0.012255,-2.183,0.017702,0.028124,8.8367e-07,0.22,0.61,0
0.0063963,-0.0010695,0.036013,0.0045252,0.012162,-0.0011432,0,0,0.031007,-0.0099271,0,-0.0029724,0,0,0,0.036055,0.0044838,0.012162,-2.0766,0.017567,0.028518,9.0647e-07,0.23,0.61,0
0.0067076,-0.0011149,0.036104,0.0041202,0.012067,-0.0011048,0,0,0.031248,-0.010331,0,-0.0028726,0,0,0,0.036143,0.0040821,0.012067,-1.976,0.017431,0.028907,9.2884e-07,0.24,0.61,0
0.0070213,-0.0011598,0.036192,0.0037183,0.011973,-0.0010678,0,0,0.031484,-0.010731,0,-0.0027764,0,0,0,0.036227,0.0036832,0.011973,-1.8814,0.017294,0.029292,9.5078e-07,0.25,0.61,0
0.0073373,-0.0012045,0.036275,0.0033192,0.011878,-0.0010325,0,0,0.031716,-0.011127,0,-0.0026846,0,0,0,0.036308,0.0032869,0.011878,-1.7928,0.017158,0.029673,9.723e-07,0.26,0.61,0
0.0076556,-0.0012487,0.036355,0.002923,0.011784,-0.00099908,0,0,0.031943,-0.011519,0,-0.0025976,0,0,0,0.036385,0.0028932,0.011784,-1.7102,0.017021,0.03005,9.934e-07,0.27,0.61,0
0.0079762,-0.0012927,0.036432,0.0025293,0.011688,-0.00096764,0,0,0.032167,-0.011907,0,-0.0025159,0,0,0,0.03646,0.0025017,0.011688,-1.6335,0.016883,0.030423,1.0141e-06,0.28,0.61,0
0.0082989,-0.0013363,0.036506,0.0021381,0.011593,-0.00093833,0,0,0.032387,-0.012292,0,-0.0024396,0,0,0,0.036532,0.0021125,0.011593,-1.5628,0.016746,0.030794,1.0344e-06,0.29,0.61,0
0.0086239,-0.0013796,0.036577,0.001749,0.011498,-0.0009112,0,0,0.032603,-0.012674,0,-0.0023691,0,0,0,0.036601,0.0017251,0.011498,-1.4976,0.016608,0.031161,1.0543e-06,0.3,0.61,0
0.008951,-0.0014226,0.036646,0.0013618,0.011402,-0.00088629,0,0,0.032817,-0.013053,0,-0.0023044,0,0,0,0.036669,0.0013395,0.011402,-1.438,0.01647,0.031526,1.0739e-06,0.31,0.61,0
0.0092802,-0.0014653,0.036713,0.00097637,0.011307,-0.00086357,0,0,0.033028,-0.01343,0,-0.0022453,0,0,0,0.036734,0.00095551,0.011307,-1.3835,0.016332,0.031889,1.0931e-06,0.32,0.61,0
0.0096116,-0.0015078,0.036778,0.00059244,0.011211,-0.00084297,0,0,0.033237,-0.013805,0,-0.0021917,0,0,0,0.036798,0.00057282,0.011211,-1.3338,0.016194,0.03225,1.112e-06,0.33,0.61,0
0.009945,-0.00155,0.036842,0.00020983,0.011116,-0.00082439,0,0,0.033445,-0.014178,0,-0.0021434,0,0,0,0.036861,0.00019129,0.011116,-1.2885,0.016056,0.03261,1.1306e-06,0.34,0.61,0
0.01028,-0.001592,0.036905,-0.00017165,0.01102,-0.00080769,0,0,0.03365,-0.014549,0,-0.0021,0,0,0,0.036922,-0.00018923,0.01102,-1.2474,0.015918,0.032968,1.1489e-06,0.35,0.61,0
0.010618,-0.0016338,0.036966,-0.00055213,0.010924,-0.00079268,0,0,0.033855,-0.014919,0,-0.002061,0,0,0,0.036983,-0.00056887,0.010924,-1.2098,0.015779,0.033326,1.1669e-06,0.36,0.61,0
0.010958,-0.0016753,0.037027,-0.00093173,0.010828,-0.00077916,0,0,0.034058,-0.015288,0,-0.0020258,0,0,0,0.037043,-0.00094772,0.010828,-1.1754,0.015641,0.033683,1.1847e-06,0.37,0.61,0
0.011299,-0.0017166,0.037087,-0.0013105,0.010733,-0.00076687,0,0,0.03426,-0.015657,0,-0.0019939,0,0,0,0.037102,-0.0013258,0.010733,-1.1437,0.015503,0.03404,1.2022e-06,0.38,0.61,0
0.011643,-0.0017577,0.037147,-0.0016885,0.010637,-0.00075557,0,0,0.034462,-0.016024,0,-0.0019645,0,0,0,0.037161,-0.0017032,0.010637,-1.1142,0.015365,0.034397,1.2195e-06,0.39,0.61,0
0.011988,-0.0017986,0.037206,-0.0020657,0.010542,-0.00074496,0,0,0.034663,-0.01639,0,-0.0019369,0,0,0,0.03722,-0.0020799,0.010542,-1.0863,0.015227,0.034753,1.2366e-06,0.4,0.61,0
0.012336,-0.0018392,0.037265,-0.0024421,0.010447,-0.00073475,0,0,0.034864,-0.016756,0,-0.0019103,0,0,0,0.037279,-0.0024557,0.010447,-1.0597,0.01509,0.035109,1.2533e-06,0.41,0.61,0
0.012686,-0.0018796,0.037324,-0.0028174,0.010352,-0.00072461,0,0,0.035064,-0.01712,0,-0.001884,0,0,0,0.037337,-0.0028305,0.010352,-1.0338,0.014953,0.035464,1.2699e-06,0.42,0.61,0
0.013037,-0.0019197,0.037383,-0.0031915,0.010257,-0.00071422,0,0,0.035263,-0.017483,0,-0.001857,0,0,0,0.037395,-0.0032041,0.010257,-1.0082,0.014816,0.035819,1.2861e-06,0.43,0.61,0
0.013391,-0.0019595,0.037441,-0.0035642,0.010163,-0.00070327,0,0,0.035461,-0.017846,0,-0.0018285,0,0,0,0.037453,-0.0035763,0.010163,-0.98227,0.01468,0.036173,1.3021e-06,0.44,0.61,0
0.013747,-0.001999,0.037499,-0.0039353,0.010069,-0.00069143,0,0,0.035659,-0.018206,0,-0.0017977,0,0,0,0.037511,-0.0039468,0.010069,-0.95576,0.014544,0.036525,1.3177e-06,0.45,0.61,0
0.014104,-0.0020381,0.037557,-0.0043042,0.0099758,-0.00067839,0,0,0.035855,-0.018564,0,-0.0017638,0,0,0,0.037568,-0.0043152,0.0099758,-0.92819,0.014409,0.036876,1.333e-06,0.46,0.61,0
0.014464,-0.0020768,0.037614,-0.0046707,0.0098829,-0.00066384,0,0,0.03605,-0.01892,0,-0.001726,0,0,0,0.037624,-0.0046811,0.0098829,-0.89921,0.014275,0.037225,1.348e-06,0.47,0.61,0
0.014825,-0.0021151,0.03767,-0.0050344,0.0097907,-0.0006475,0,0,0.036243,-0.019273,0,-0.0016835,0,0,0,0.03768,-0.0050442,0.0097907,-0.86847,0.014142,0.037571,1.3625e-06,0.48,0.61,0
0.015189,-0.0021528,0.037725,-0.0053946,0.0096992,-0.00062908,0,0,0.036434,-0.019622,0,-0.0016356,0,0,0,0.037734,-0.0054038,0.0096992,-0.83565,0.01401,0.037914,1.3766e-06,0.49,0.61,0
0.015554,-0.0021901,0.037765,-0.00027175,0.011248,-0.00061018,0,0,0.05068,-0.019967,0,-0.0023667,0,0,0,0.037775,-0.0002817,0.011248,-0.93566,0.016247,0.033869,1.2035e-06,0.5,0.61,0
0.016202,-0.0022424,0.037833,0.0049798,0.012844,-0.00059423,0,0,0.064971,-0.020446,0,-0.00309,0,0,0,0.037843,0.0049691,0.012844,-1.0359,0.018552,0.02973,1.0371e-06,0.51,0.61,0
0.016853,-0.0022937,0.037884,0.0047434,0.012788,-0.00057902,0,0,0.06525,-0.020917,0,-0.0030109,0,0,0,0.037894,0.0047332,0.012788,-1.0006,0.018472,0.029957,1.0516e-06,0.52,0.61,0
0.017507,-0.0023442,0.037935,0.004511,0.012734,-0.00056297,0,0,0.065523,-0.021379,0,-0.0029274,0,0,0,0.037944,0.0045015,0.012734,-0.96469,0.018393,0.030181,1.0658e-06,0.53,0.61,0
0.018164,-0.0023936,0.037984,0.004283,0.01268,-0.00054608,0,0,0.06579,-0.021832,0,-0.0028396,0,0,0,0.037993,0.0042742,0.01268,-0.92807,0.018316,0.0304,1.0796e-06,0.54,0.61,0
0.018823,-0.0024419,0.038031,0.0040596,0.012627,-0.00052834,0,0,0.066051,-0.022276,0,-0.0027474,0,0,0,0.03804,0.0040514,0.012627,-0.8908,0.018239,0.030615,1.0932e-06,0.55,0.61,0
0.019485,-0.0024892,0.038077,0.0038412,0.012575,-0.00050981,0,0,0.066305,-0.022709,0,-0.002651,0,0,0,0.038085,0.0038336,0.012575,-0.85294,0.018165,0.030825,1.1063e-06,0.56,0.61,0
0.020149,-0.0025353,0.038121,0.0036278,0.012525,-0.00049053,0,0,0.066551,-0.023132,0,-0.0025508,0,0,0,0.038128,0.0036208,0.012525,-0.81457,0.018091,0.031029,1.1191e-06,0.57,0.61,0
0.020816,-0.0025803,0.038164,0.0034197,0.012475,-0.00047056,0,0,0.066791,-0.023544,0,-0.0024469,0,0,0,0.03817,0.0034133,0.012475,-0.7758,0.018019,0.031228,1.1315e-06,0.58,0.61,0
0.021485,-0.0026241,0.038204,0.0032171,0.012426,-0.00044999,0,0,0.067022,-0.023944,0,-0.0023399,0,0,0,0.03821,0.0032113,0.012426,-0.73676,0.017949,0.031421,1.1434e-06,0.59,0.61,0
0.022156,-0.0026666,0.038242,0.0030202,0.012379,-0.00042891,0,0,0.067245,-0.024332,0,-0.0022303,0,0,0,0.038247,0.003015,0.012379,-0.69757,0.01788,0.031608,1.1549e-06,0.6,0.61,0
0.02283,-0.0027078,0.038279,0.0028292,0.012332,-0.00040742,0,0,0.06746,-0.024708,0,-0.0021186,0,0,0,0.038283,0.0028245,0.012332,-0.65839,0.017813,0.03179,1.166e-06,0.61,0.61,0
0.023505,-0.0027478,0.038313,0.0026442,0.012287,-0.00038564,0,0,0.067666,-0.025071,0,-0.0020053,0,0,0,0.038317,0.00264,0.012287,-0.61938,0.017748,0.031964,1.1766e-06,0.62,0.61,0
0.024183,-0.0027865,0.038345,0.0024652,0.012243,-0.00036368,0,0,0.067864,-0.025422,0,-0.0018912,0,0,0,0.038348,0.0024615,0.012243,-0.58069,0.017684,0.032133,1.1868e-06,0.63,0.61,0
0.024863,-0.0028238,0.038374,0.0022924,0.0122,-0.00034166,0,0,0.068053,-0.02576,0,-0.0017767,0,0,0,0.038378,0.0022892,0.0122,-0.54247,0.017622,0.032294,1.1965e-06,0.64,0.61,0
0.025544,-0.0028598,0.038402,0.0021259,0.012158,-0.0003197,0,0,0.068234,-0.026085,0,-0.0016624,0,0,0,0.038405,0.0021231,0.012158,-0.50489,0.017562,0.03245,1.2057e-06,0.65,0.61,0
0.026227,-0.0028945,0.038428,0.0019656,0.012118,-0.00029791,0,0,0.068405,-0.026396,0,-0.0015491,0,0,0,0.03843,0.0019631,0.012118,-0.46809,0.017504,0.032598,1.2144e-06,0.66,0.61,0
0.026912,-0.0029278,0.038451,0.0018115,0.012079,-0.00027641,0,0,0.068568,-0.026695,0,-0.0014373,0,0,0,0.038453,0.0018095,0.012079,-0.43221,0.017447,0.03274,1.2227e-06,0.67,0.61,0
0.027599,-0.0029598,0.038472,0.0016638,0.012041,-0.0002553,0,0,0.068722,-0.02698,0,-0.0013276,0,0,0,0.038474,0.001662,0.012041,-0.39737,0.017392,0.032875,1.2305e-06,0.68,0.61,0
0.028287,-0.0029904,0.038492,0.0015222,0.012004,-0.00023469,0,0,0.068868,-0.027253,0,-0.0012204,0,0,0,0.038493,0.0015207,0.012004,-0.36371,0.017339,0.033004,1.2379e-06,0.69,0.61,0
0.028976,-0.0030197,0.038509,0.0013868,0.011969,-0.00021467,0,0,0.069005,-0.027513,0,-0.0011163,0,0,0,0.038511,0.0013856,0.011969,-0.33131,0.017288,0.033127,1.2448e-06,0.7,0.61,0
0.029667,-0.0030477,0.038525,0.0012576,0.011935,-0.00019531,0,0,0.069134,-0.027761,0,-0.0010156,0,0,0,0.038526,0.0012565,0.011935,-0.30027,0.017239,0.033242,1.2513e-06,0.71,0.61,0
0.030359,-0.0030743,0.038539,0.0011343,0.011902,-0.00017671,0,0,0.069256,-0.027996,0,-0.00091887,0,0,0,0.038539,0.0011335,0.011902,-0.27067,0.017192,0.033352,1.2573e-06,0.72,0.61,0
0.031052,-0.0030997,0.038551,0.001017,0.01187,-0.00015891,0,0,0.069369,-0.028219,0,-0.00082635,0,0,0,0.038552,0.0010163,0.01187,-0.24258,0.017146,0.033456,1.263e-06,0.73,0.61,0
0.031746,-0.0031239,0.038561,0.0009055,0.01184,-0.00014199,0,0,0.069475,-0.02843,0,-0.00073834,0,0,0,0.038562,0.00090496,0.01184,-0.21604,0.017102,0.033553,1.2682e-06,0.74,0.61,0
0.032441,-0.0031468,0.038571,0.0007997,0.011811,-0.00012598,0,0,0.069574,-0.028629,0,-0.00065509,0,0,0,0.038571,0.00079928,0.011811,-0.1911,0.01706,0.033646,1.2731e-06,0.75,0.61,0
0.033138,-0.0031684,0.038578,0.00069949,0.011783,-0.00011092,0,0,0.069667,-0.028818,0,-0.00057678,0,0,0,0.038579,0.00069916,0.011783,-0.16778,0.01702,0.033732,1.2776e-06,0.76,0.61,0
0.033835,-0.0031889,0.038585,0.00060472,0.011757,-9.6836e-05,0,0,0.069752,-0.028995,0,-0.00050355,0,0,0,0.038585,0.00060448,0.011757,-0.14608,0.016982,0.033813,1.2818e-06,0.77,0.61,0
0.034533,-0.0032083,0.03859,0.00051527,0.011732,-8.3746e-05,0,0,0.069832,-0.029162,0,-0.00043548,0,0,0,0.03859,0.00051508,0.011732,-0.12602,0.016945,0.033889,1.2857e-06,0.78,0.61,0
0.035231,-0.0032265,0.038594,0.00043099,0.011707,-7.1659e-05,0,0,0.069905,-0.029319,0,-0.00037263,0,0,0,0.038594,0.00043086,0.011707,-0.10758,0.016911,0.033959,1.2892e-06,0.79,0.61,0
0.035931,-0.0032436,0.038597,0.00035175,0.011685,-6.0575e-05,0,0,0.069973,-0.029466,0,-0.00031499,0,0,0,0.038597,0.00035165,0.011685,-0.090747,0.016878,0.034025,1.2925e-06,0.8,0.61,0
0.036631,-0.0032596,0.0386,0.0002774,0.011663,-5.0486e-05,0,0,0.070035,-0.029603,0,-0.00026252,0,0,0,0.0386,0.00027734,0.011663,-0.075482,0.016847,0.034087,1.2954e-06,0.81,0.61,0
0.037331,-0.0032746,0.038601,0.00020782,0.011643,-4.1378e-05,0,0,0.070092,-0.029731,0,-0.00021516,0,0,0,0.038601,0.00020778,0.011643,-0.061749,0.016817,0.034144,1.2981e-06,0.82,0.61,0
0.038033,-0.0032886,0.038602,0.00014286,0.011624,-3.323e-05,0,0,0.070144,-0.02985,0,-0.00017279,0,0,0,0.038602,0.00014283,0.011624,-0.049505,0.016789,0.034196,1.3006e-06,0.83,0.61,0
0.038734,-0.0033016,0.038602,8.2392e-05,0.011605,-2.6014e-05,0,0,0.070192,-0.02996,0,-0.00013527,0,0,0,0.038602,8.2375e-05,0.011605,-0.038695,0.016763,0.034245,1.3028e-06,0.84,0.61,0
0.039436,-0.0033137,0.038602,2.6286e-05,0.011588,-1.97e-05,0,0,0.070235,-0.030062,0,-0.00010244,0,0,0,0.038602,2.6276e-05,0.011588,-0.02926,0.016739,0.034289,1.3049e-06,0.85,0.61,0
0.040139,-0.0033248,0.038602,-2.5581e-05,0.011573,-1.4248e-05,0,0,0.070275,-0.030156,0,-7.4092e-05,0,0,0,0.038602,-2.5586e-05,0.011573,-0.021135,0.016716,0.03433,1.3067e-06,0.86,0.61,0
0.040842,-0.003335,0.038601,-7.3328e-05,0.011558,-9.6186e-06,0,0,0.070311,-0.030242,0,-5.0017e-05,0,0,0,0.038601,-7.333e-05,0.011558,-0.01425,0.016695,0.034368,1.3083e-06,0.87,0.61,0
0.041545,-0.0033444,0.0386,-0.00011707,0.011545,-5.765e-06,0,0,0.070343,-0.030321,0,-2.9978e-05,0,0,0,0.0386,-0.00011707,0.011545,-0.0085315,0.016676,0.034402,1.3098e-06,0.88,0.61,0
0.042249,-0.0033529,0.038598,-0.0001569,0.011532,-2.6388e-06,0,0,0.070371,-0.030392,0,-1.3722e-05,0,0,0,0.038598,-0.0001569,0.011532,-0.0039011,0.016658,0.034432,1.3111e-06,0.89,0.61,0
0.042953,-0.0033606,0.038597,-0.00019293,0.011521,-1.8797e-07,0,0,0.070397,-0.030457,0,-9.7747e-07,0,0,0,0.038597,-0.00019293,0.011521,-0.00027765,0.016642,0.03446,1.3123e-06,0.9,0.61,0
0.043657,-0.0033675,0.038596,-0.00022525,0.011511,1.6417e-06,0,0,0.07042,-0.030514,0,8.5369e-06,0,0,0,0.038596,-0.00022525,0.011511,0.002423,0.016627,0.034485,1.3133e-06,0.91,0.61,0
0.044361,-0.0033737,0.038594,-0.00025394,0.011502,2.9069e-06,0,0,0.070439,-0.030566,0,1.5116e-05,0,0,0,0.038594,-0.00025394,0.011502,0.0042873,0.016614,0.034506,1.3141e-06,0.92,0.61,0
0.045066,-0.003379,0.038593,-0.00027907,0.011494,3.6661e-06,0,0,0.070457,-0.03061,0,1.9064e-05,0,0,0,0.038593,-0.00027907,0.011494,0.0054037,0.016603,0.034525,1.3149e-06,0.93,0.61,0
0.04577,-0.0033836,0.038592,-0.00030072,0.011487,3.9794e-06,0,0,0.070471,-0.030649,0,2.0693e-05,0,0,0,0.038592,-0.00030072,0.011487,0.0058624,0.016593,0.034541,1.3156e-06,0.94,0.61,0
0.046475,-0.0033875,0.03859,-0.00031894,0.011481,3.9082e-06,0,0,0.070483,-0.030681,0,2.0323e-05,0,0,0,0.03859,-0.00031894,0.011481,0.0057551,0.016584,0.034555,1.3161e-06,0.95,0.61,0
0.04718,-0.0033907,0.038589,-0.00033377,0.011477,3.5151e-06,0,0,0.070493,-0.030707,0,1.8279e-05,0,0,0,0.038589,-0.00033377,0.011477,0.0051743,0.016577,0.034566,1.3165e-06,0.96,0.61,0
0.047885,-0.0033931,0.038589,-0.00034527,0.011473,2.8634e-06,0,0,0.0705,-0.030728,0,1.489e-05,0,0,0,0.038589,-0.00034527,0.011473,0.0042139,0.016572,0.034574,1.3168e-06,0.97,0.61,0
0.04859,-0.0033949,0.038588,-0.00035346,0.01147,2.0173e-06,0,0,0.070506,-0.030742,0,1.049e-05,0,0,0,0.038588,-0.00035346,0.01147,0.002968,0.016568,0.03458,1.3171e-06,0.98,0.61,0
0.049295,-0.0033959,0.038588,-0.00035836,0.011469,1.0411e-06,0,0,0.070509,-0.030751,0,5.414e-06,0,0,0,0.038588,-0.00035836,0.011469,0.0015317,0.016566,0.034584,1.3172e-06,0.99,0.61,0
0.05,-0.0033962,0.038587,-0.00035999,0.011468,-6.676e-06,0,0,0.07051,-0.030753,0,-3.4715e-05,0,0,0,0.038587,-0.00035999,0.011468,-0.009821,0.016565,0.034585,1.3173e-06,1,0.61,0
0,0,0.03313,0.014199,0.014199,-0.0017752,0,0,0.024611,2.7105e-20,0,-0.0046156,0,0,0,0.033295,0.014034,0.014199,-5.3111,0.020509,0.019179,3.6227e-07,0,0.62,0
0.00024611,-4.6156e-05,0.033092,0.013738,0.014049,-0.0017772,0,0,0.024756,-0.00040473,0,-0.0046208,0,0,0,0.033254,0.013576,0.014049,-5.2031,0.020293,0.019446,3.7693e-07,0.01,0.62,0
0.00049513,-9.3392e-05,0.033249,0.013349,0.013979,-0.0017966,0,0,0.02505,-0.00081921,0,-0.0046712,0,0,0,0.03341,0.013188,0.013979,-5.1178,0.020192,0.019838,3.988e-07,0.02,0.62,0
0.00074711,-0.00014161,0.033406,0.012952,0.013907,-0.0018107,0,0,0.025349,-0.0012424,0,-0.0047079,0,0,0,0.033565,0.012793,0.013907,-5.02,0.020089,0.020238,4.214e-07,0.03,0.62,0
0.0010021,-0.00019071,0.033565,0.012546,0.013833,-0.0018194,0,0,0.025651,-0.0016731,0,-0.0047305,0,0,0,0.033721,0.01239,0.013833,-4.9111,0.019982,0.020647,4.4464e-07,0.04,0.62,0
0.0012601,-0.00024059,0.033723,0.012134,0.013757,-0.0018227,0,0,0.025956,-0.0021102,0,-0.004739,0,0,0,0.033876,0.011981,0.013757,-4.792,0.019872,0.021063,4.6847e-07,0.05,0.62,0
0.0015212,-0.00029115,0.033882,0.011716,0.013679,-0.0018205,0,0,0.026263,-0.0025526,0,-0.0047334,0,0,0,0.03403,0.011567,0.013679,-4.6642,0.019759,0.021485,4.928e-07,0.06,0.62,0
0.0017854,-0.00034229,0.034039,0.011292,0.013599,-0.0018131,0,0,0.026571,-0.0029992,0,-0.004714,0,0,0,0.034182,0.011149,0.013599,-4.5288,0.019643,0.021911,5.1758e-07,0.07,0.62,0
0.0020527,-0.00039389,0.034194,0.010865,0.013518,-0.0018004,0,0,0.026879,-0.0034488,0,-0.0046811,0,0,0,0.034332,0.010727,0.013518,-4.3871,0.019526,0.022341,5.4271e-07,0.08,0.62,0
0.002323,-0.00044587,0.034347,0.010434,0.013435,-0.0017828,0,0,0.027187,-0.0039003,0,-0.0046353,0,0,0,0.03448,0.010302,0.013435,-4.2403,0.019405,0.022773,5.6811e-07,0.09,0.62,0
0.0025964,-0.00049813,0.034498,0.010002,0.01335,-0.0017605,0,0,0.027493,-0.0043528,0,-0.0045773,0,0,0,0.034624,0.0098757,0.01335,-4.0897,0.019283,0.023207,5.9371e-07,0.1,0.62,0
0.0028728,-0.00055057,0.034646,0.0095677,0.013264,-0.0017339,0,0,0.027796,-0.0048052,0,-0.0045081,0,0,0,0.034765,0.0094484,0.013264,-3.9364,0.019159,0.023641,6.1942e-07,0.11,0.62,0
0.0031523,-0.0006031,0.034789,0.0091333,0.013177,-0.0017032,0,0,0.028096,-0.0052566,0,-0.0044284,0,0,0,0.034902,0.0090207,0.013177,-3.7816,0.019033,0.024074,6.4517e-07,0.12,0.62,0
0.0034348,-0.00065565,0.034929,0.0086992,0.013089,-0.0016691,0,0,0.028393,-0.0057062,0,-0.0043396,0,0,0,0.035035,0.0085935,0.013089,-3.6263,0.018906,0.024505,6.7088e-07,0.13,0.62,0
0.0037202,-0.00070814,0.035065,0.0082661,0.012999,-0.0016318,0,0,0.028685,-0.0061532,0,-0.0042426,0,0,0,0.035164,0.0081671,0.012999,-3.4716,0.018777,0.024935,6.9648e-07,0.14,0.62,0
0.0040085,-0.0007605,0.035196,0.0078346,0.012909,-0.0015918,0,0,0.028973,-0.0065971,0,-0.0041388,0,0,0,0.035289,0.0077423,0.012909,-3.3184,0.018647,0.025361,7.2192e-07,0.15,0.62,0
0.0042996,-0.00081268,0.035323,0.0074051,0.012818,-0.0015498,0,0,0.029256,-0.0070373,0,-0.0040294,0,0,0,0.035409,0.0073193,0.012818,-3.1676,0.018515,0.025783,7.4712e-07,0.16,0.62,0
0.0045936,-0.00086461,0.035444,0.0069782,0.012727,-0.001506,0,0,0.029533,-0.0074732,0,-0.0039156,0,0,0,0.035524,0.0068987,0.012727,-3.02,0.018383,0.026202,7.7203e-07,0.17,0.62,0
0.0048903,-0.00091625,0.035561,0.0065541,0.012635,-0.0014611,0,0,0.029805,-0.0079046,0,-0.0037988,0,0,0,0.035634,0.0064807,0.012635,-2.8762,0.01825,0.026616,7.9662e-07,0.18,0.62,0
0.0051897,-0.00096757,0.035673,0.0061332,0.012542,-0.0014154,0,0,0.03007,-0.0083312,0,-0.0036801,0,0,0,0.03574,0.0060655,0.012542,-2.737,0.018116,0.027025,8.2083e-07,0.19,0.62,0
0.0054917,-0.0010185,0.035779,0.0057156,0.012448,-0.0013696,0,0,0.03033,-0.0087528,0,-0.0035609,0,0,0,0.035842,0.0056533,0.012448,-2.6029,0.017981,0.027429,8.4465e-07,0.2,0.62,0
0.0057963,-0.0010691,0.035881,0.0053015,0.012355,-0.0013239,0,0,0.030584,-0.0091693,0,-0.0034422,0,0,0,0.035938,0.0052443,0.012355,-2.4744,0.017846,0.027829,8.6804e-07,0.21,0.62,0
0.0061034,-0.0011193,0.035978,0.004891,0.012261,-0.0012789,0,0,0.030833,-0.0095808,0,-0.0033252,0,0,0,0.036031,0.0048384,0.012261,-2.3518,0.01771,0.028223,8.9099e-07,0.22,0.62,0
0.0064129,-0.0011691,0.036071,0.0044839,0.012166,-0.0012349,0,0,0.031076,-0.0099872,0,-0.0032108,0,0,0,0.036119,0.0044357,0.012166,-2.2355,0.017574,0.028612,9.1348e-07,0.23,0.62,0
0.0067249,-0.0012185,0.036159,0.0040803,0.012072,-0.0011923,0,0,0.031313,-0.010389,0,-0.0031,0,0,0,0.036203,0.0040361,0.012072,-2.1257,0.017437,0.028997,9.3552e-07,0.24,0.62,0
0.0070392,-0.0012674,0.036243,0.0036801,0.011977,-0.0011513,0,0,0.031546,-0.010786,0,-0.0029935,0,0,0,0.036283,0.0036394,0.011977,-2.0225,0.0173,0.029376,9.571e-07,0.25,0.62,0
0.0073558,-0.001316,0.036323,0.003283,0.011882,-0.0011123,0,0,0.031773,-0.011178,0,-0.0028921,0,0,0,0.03636,0.0032456,0.011882,-1.9261,0.017162,0.029752,9.7823e-07,0.26,0.62,0
0.0076747,-0.0013642,0.036399,0.0028888,0.011786,-0.0010755,0,0,0.031996,-0.011567,0,-0.0027962,0,0,0,0.036434,0.0028544,0.011786,-1.8363,0.017025,0.030123,9.9893e-07,0.27,0.62,0
0.0079957,-0.001412,0.036472,0.0024974,0.011691,-0.0010409,0,0,0.032216,-0.011952,0,-0.0027064,0,0,0,0.036504,0.0024656,0.011691,-1.7532,0.016887,0.030491,1.0192e-06,0.28,0.62,0
0.008319,-0.0014594,0.036542,0.0021085,0.011595,-0.0010088,0,0,0.032431,-0.012333,0,-0.0026229,0,0,0,0.036572,0.002079,0.011595,-1.6767,0.016749,0.030856,1.0391e-06,0.29,0.62,0
0.0086444,-0.0015065,0.03661,0.0017218,0.011499,-0.0009792,0,0,0.032643,-0.012711,0,-0.0025459,0,0,0,0.036637,0.0016943,0.011499,-1.6064,0.01661,0.031217,1.0586e-06,0.3,0.62,0
0.0089718,-0.0015533,0.036675,0.001337,0.011404,-0.00095212,0,0,0.032853,-0.013086,0,-0.0024755,0,0,0,0.0367,0.0013114,0.011404,-1.5422,0.016472,0.031577,1.0777e-06,0.31,0.62,0
0.0093014,-0.0015998,0.036738,0.00095391,0.011308,-0.00092754,0,0,0.033059,-0.01346,0,-0.0024116,0,0,0,0.036762,0.00092988,0.011308,-1.4838,0.016333,0.031934,1.0965e-06,0.32,0.62,0
0.009633,-0.001646,0.036799,0.00057222,0.011211,-0.00090538,0,0,0.033264,-0.013831,0,-0.002354,0,0,0,0.036822,0.00054961,0.011211,-1.4307,0.016194,0.03229,1.115e-06,0.33,0.62,0
0.0099667,-0.0016919,0.03686,0.00019172,0.011115,-0.00088552,0,0,0.033467,-0.014201,0,-0.0023024,0,0,0,0.036881,0.00017034,0.011115,-1.3826,0.016056,0.032644,1.1331e-06,0.34,0.62,0
0.010302,-0.0017376,0.036919,-0.00018783,0.011019,-0.0008678,0,0,0.033669,-0.014569,0,-0.0022563,0,0,0,0.036939,-0.00020811,0.011019,-1.339,0.015917,0.032998,1.1511e-06,0.35,0.62,0
0.01064,-0.001783,0.036977,-0.0005666,0.010923,-0.00085201,0,0,0.03387,-0.014937,0,-0.0022152,0,0,0,0.036996,-0.00058592,0.010923,-1.2994,0.015778,0.033352,1.1687e-06,0.36,0.62,0
0.01098,-0.0018283,0.037034,-0.00094472,0.010827,-0.00083791,0,0,0.03407,-0.015303,0,-0.0021786,0,0,0,0.037053,-0.0009632,0.010827,-1.2633,0.015639,0.033705,1.1862e-06,0.37,0.62,0
0.011321,-0.0018732,0.037091,-0.0013223,0.010731,-0.00082523,0,0,0.034269,-0.015669,0,-0.0021456,0,0,0,0.037109,-0.00134,0.010731,-1.2301,0.0155,0.034058,1.2033e-06,0.38,0.62,0
0.011665,-0.001918,0.037148,-0.0016994,0.010635,-0.00081366,0,0,0.034468,-0.016034,0,-0.0021155,0,0,0,0.037165,-0.0017165,0.010635,-1.1993,0.015361,0.034411,1.2203e-06,0.39,0.62,0
0.012011,-0.0019625,0.037205,-0.002076,0.010539,-0.00080289,0,0,0.034666,-0.016399,0,-0.0020875,0,0,0,0.037221,-0.0020924,0.010539,-1.1704,0.015223,0.034764,1.2371e-06,0.4,0.62,0
0.012358,-0.0020068,0.037262,-0.0024521,0.010443,-0.00079257,0,0,0.034865,-0.016764,0,-0.0020607,0,0,0,0.037278,-0.0024679,0.010443,-1.1428,0.015084,0.035118,1.2536e-06,0.41,0.62,0
0.012708,-0.0020508,0.037319,-0.0028275,0.010347,-0.00078235,0,0,0.035063,-0.017127,0,-0.0020341,0,0,0,0.037334,-0.0028427,0.010347,-1.116,0.014946,0.035471,1.2699e-06,0.42,0.62,0
0.01306,-0.0020946,0.037375,-0.0032021,0.010252,-0.00077187,0,0,0.03526,-0.01749,0,-0.0020069,0,0,0,0.03739,-0.0032167,0.010252,-1.0894,0.014808,0.035825,1.2859e-06,0.43,0.62,0
0.013413,-0.002138,0.037432,-0.0035755,0.010157,-0.00076077,0,0,0.035458,-0.017852,0,-0.001978,0,0,0,0.037446,-0.0035897,0.010157,-1.0624,0.014671,0.036177,1.3017e-06,0.44,0.62,0
0.013769,-0.0021811,0.037489,-0.0039477,0.010062,-0.00074867,0,0,0.035654,-0.018213,0,-0.0019465,0,0,0,0.037502,-0.0039612,0.010062,-1.0348,0.014534,0.03653,1.3172e-06,0.45,0.62,0
0.014126,-0.0022238,0.037545,-0.0043181,0.0099681,-0.00073524,0,0,0.03585,-0.018572,0,-0.0019116,0,0,0,0.037558,-0.004331,0.0099681,-1.0059,0.014398,0.03688,1.3324e-06,0.46,0.62,0
0.014486,-0.0022661,0.037601,-0.0046863,0.0098744,-0.00072013,0,0,0.036045,-0.018929,0,-0.0018724,0,0,0,0.037613,-0.0046986,0.0098744,-0.97534,0.014263,0.03723,1.3473e-06,0.47,0.62,0
0.014847,-0.0023079,0.037657,-0.005052,0.0097813,-0.00070303,0,0,0.036238,-0.019283,0,-0.0018279,0,0,0,0.037668,-0.0050636,0.0097813,-0.94281,0.014129,0.037577,1.3617e-06,0.48,0.62,0
0.015211,-0.0023491,0.037711,-0.0054147,0.0096889,-0.00068362,0,0,0.036429,-0.019635,0,-0.0017774,0,0,0,0.037722,-0.0054255,0.0096889,-0.90793,0.013995,0.037921,1.3758e-06,0.49,0.62,0
0.015576,-0.0023898,0.03775,-0.00029041,0.011238,-0.00066355,0,0,0.050669,-0.019982,0,-0.0025739,0,0,0,0.037762,-0.00030217,0.011238,-1.0174,0.016232,0.033874,1.2029e-06,0.5,0.62,0
0.016224,-0.0024469,0.037817,0.0049645,0.012835,-0.00064646,0,0,0.064955,-0.020462,0,-0.0033616,0,0,0,0.03783,0.0049518,0.012835,-1.1268,0.018539,0.029731,1.0367e-06,0.51,0.62,0
0.016875,-0.002503,0.037869,0.0047271,0.012779,-0.00063003,0,0,0.065234,-0.020934,0,-0.0032762,0,0,0,0.037881,0.0047151,0.012779,-1.0887,0.018458,0.029959,1.0511e-06,0.52,0.62,0
0.017529,-0.002558,0.037919,0.0044938,0.012724,-0.00061264,0,0,0.065507,-0.021398,0,-0.0031857,0,0,0,0.03793,0.0044826,0.012724,-1.0497,0.018379,0.030183,1.0653e-06,0.53,0.62,0
0.018185,-0.002612,0.037968,0.0042649,0.01267,-0.00059427,0,0,0.065774,-0.021853,0,-0.0030902,0,0,0,0.037978,0.0042544,0.01267,-1.0099,0.018301,0.030402,1.0791e-06,0.54,0.62,0
0.018844,-0.0026648,0.038015,0.0040407,0.012617,-0.00057494,0,0,0.066035,-0.022298,0,-0.0029897,0,0,0,0.038025,0.0040309,0.012617,-0.96923,0.018224,0.030617,1.0926e-06,0.55,0.62,0
0.019506,-0.0027164,0.03806,0.0038213,0.012564,-0.00055469,0,0,0.066289,-0.022732,0,-0.0028844,0,0,0,0.038069,0.0038123,0.012564,-0.92789,0.018149,0.030827,1.1058e-06,0.56,0.62,0
0.02017,-0.0027668,0.038104,0.0036071,0.012513,-0.00053358,0,0,0.066536,-0.023156,0,-0.0027746,0,0,0,0.038112,0.0035989,0.012513,-0.88593,0.018075,0.031032,1.1185e-06,0.57,0.62,0
0.020837,-0.0028158,0.038146,0.0033984,0.012463,-0.00051169,0,0,0.066775,-0.023569,0,-0.0026608,0,0,0,0.038153,0.0033908,0.012463,-0.84348,0.018003,0.031231,1.1308e-06,0.58,0.62,0
0.021506,-0.0028636,0.038186,0.0031952,0.012414,-0.00048911,0,0,0.067006,-0.02397,0,-0.0025434,0,0,0,0.038193,0.0031884,0.012414,-0.80069,0.017932,0.031424,1.1428e-06,0.59,0.62,0
0.022177,-0.00291,0.038224,0.0029979,0.012366,-0.00046595,0,0,0.067229,-0.024358,0,-0.002423,0,0,0,0.03823,0.0029917,0.012366,-0.75771,0.017863,0.031611,1.1542e-06,0.6,0.62,0
0.02285,-0.002955,0.038259,0.0028065,0.01232,-0.00044234,0,0,0.067443,-0.024734,0,-0.0023002,0,0,0,0.038265,0.0028009,0.01232,-0.71473,0.017795,0.031792,1.1652e-06,0.61,0.62,0
0.023526,-0.0029987,0.038293,0.0026212,0.012274,-0.0004184,0,0,0.067649,-0.025098,0,-0.0021757,0,0,0,0.038298,0.0026163,0.012274,-0.67191,0.017729,0.031966,1.1758e-06,0.62,0.62,0
0.024203,-0.0030408,0.038324,0.0024421,0.01223,-0.00039426,0,0,0.067845,-0.025448,0,-0.0020502,0,0,0,0.038329,0.0024378,0.01223,-0.62944,0.017665,0.032134,1.1859e-06,0.63,0.62,0
0.024882,-0.0030815,0.038353,0.0022693,0.012187,-0.00037005,0,0,0.068033,-0.025785,0,-0.0019243,0,0,0,0.038357,0.0022655,0.012187,-0.58751,0.017603,0.032295,1.1954e-06,0.64,0.62,0
0.025564,-0.0031208,0.03838,0.0021029,0.012145,-0.00034592,0,0,0.068212,-0.02611,0,-0.0017988,0,0,0,0.038384,0.0020996,0.012145,-0.54627,0.017543,0.032449,1.2046e-06,0.65,0.62,0
0.026247,-0.0031586,0.038405,0.0019428,0.012104,-0.00032199,0,0,0.068382,-0.02642,0,-0.0016743,0,0,0,0.038408,0.00194,0.012104,-0.5059,0.017484,0.032597,1.2132e-06,0.66,0.62,0
0.026931,-0.0031949,0.038428,0.0017891,0.012065,-0.00029838,0,0,0.068543,-0.026718,0,-0.0015516,0,0,0,0.03843,0.0017867,0.012065,-0.46656,0.017427,0.032738,1.2213e-06,0.67,0.62,0
0.027617,-0.0032297,0.038448,0.0016419,0.012027,-0.00027522,0,0,0.068695,-0.027002,0,-0.0014311,0,0,0,0.03845,0.0016398,0.012027,-0.4284,0.017372,0.032872,1.229e-06,0.68,0.62,0
0.028305,-0.003263,0.038467,0.0015009,0.01199,-0.00025262,0,0,0.068839,-0.027273,0,-0.0013136,0,0,0,0.038469,0.0014992,0.01199,-0.39153,0.017319,0.032999,1.2363e-06,0.69,0.62,0
0.028994,-0.0032949,0.038483,0.0013662,0.011955,-0.00023069,0,0,0.068974,-0.027531,0,-0.0011996,0,0,0,0.038485,0.0013647,0.011955,-0.35608,0.017268,0.03312,1.2431e-06,0.7,0.62,0
0.029685,-0.0033253,0.038498,0.0012377,0.011921,-0.00020951,0,0,0.069101,-0.027776,0,-0.0010894,0,0,0,0.038499,0.0012365,0.011921,-0.32215,0.017219,0.033235,1.2494e-06,0.71,0.62,0
0.030376,-0.0033544,0.038511,0.0011152,0.011888,-0.00018917,0,0,0.06922,-0.028009,0,-0.00098367,0,0,0,0.038512,0.0011143,0.011888,-0.28982,0.017171,0.033343,1.2553e-06,0.72,0.62,0
0.031069,-0.003382,0.038522,0.00099883,0.011856,-0.00016974,0,0,0.069332,-0.02823,0,-0.00088263,0,0,0,0.038523,0.00099806,0.011856,-0.25917,0.017126,0.033445,1.2608e-06,0.73,0.62,0
0.031763,-0.0034082,0.038532,0.00088828,0.011826,-0.00015128,0,0,0.069435,-0.028438,0,-0.00078664,0,0,0,0.038533,0.00088767,0.011826,-0.23025,0.017082,0.033541,1.266e-06,0.74,0.62,0
0.032458,-0.0034331,0.03854,0.00078347,0.011797,-0.00013384,0,0,0.069532,-0.028635,0,-0.00069594,0,0,0,0.038541,0.000783,0.011797,-0.20309,0.01704,0.033632,1.2707e-06,0.75,0.62,0
0.033154,-0.0034566,0.038547,0.00068428,0.011769,-0.00011745,0,0,0.069622,-0.028821,0,-0.00061074,0,0,0,0.038547,0.00068392,0.011769,-0.17773,0.017,0.033716,1.2751e-06,0.76,0.62,0
0.03385,-0.0034789,0.038552,0.00059056,0.011743,-0.00010215,0,0,0.069705,-0.028996,0,-0.00053119,0,0,0,0.038553,0.00059028,0.011743,-0.15418,0.016962,0.033796,1.2791e-06,0.77,0.62,0
0.034548,-0.0034999,0.038557,0.00050216,0.011718,-8.7953e-05,0,0,0.069782,-0.02916,0,-0.00045736,0,0,0,0.038557,0.00050196,0.011718,-0.13242,0.016926,0.03387,1.2828e-06,0.78,0.62,0
0.035246,-0.0035196,0.03856,0.00041894,0.011694,-7.4865e-05,0,0,0.069853,-0.029314,0,-0.0003893,0,0,0,0.03856,0.00041879,0.011694,-0.11246,0.016891,0.033939,1.2862e-06,0.79,0.62,0
0.035945,-0.0035382,0.038562,0.00034075,0.011671,-6.2884e-05,0,0,0.069918,-0.029459,0,-0.000327,0,0,0,0.038563,0.00034065,0.011671,-0.094265,0.016858,0.034003,1.2894e-06,0.8,0.62,0
0.036644,-0.0035556,0.038564,0.00026745,0.01165,-5.2002e-05,0,0,0.069978,-0.029593,0,-0.00027041,0,0,0,0.038564,0.00026738,0.01165,-0.0778,0.016827,0.034063,1.2922e-06,0.81,0.62,0
0.037344,-0.0035719,0.038565,0.00019889,0.011629,-4.22e-05,0,0,0.070033,-0.029719,0,-0.00021944,0,0,0,0.038565,0.00019885,0.011629,-0.063021,0.016798,0.034119,1.2948e-06,0.82,0.62,0
0.038045,-0.003587,0.038565,0.00013493,0.01161,-3.3454e-05,0,0,0.070083,-0.029835,0,-0.00017396,0,0,0,0.038565,0.0001349,0.01161,-0.049877,0.01677,0.03417,1.2972e-06,0.83,0.62,0
0.038746,-0.0036011,0.038565,7.5423e-05,0.011592,-2.5733e-05,0,0,0.070129,-0.029943,0,-0.00013381,0,0,0,0.038565,7.5406e-05,0.011592,-0.038307,0.016744,0.034217,1.2993e-06,0.84,0.62,0
0.039448,-0.0036142,0.038564,2.0243e-05,0.011575,-1.9001e-05,0,0,0.070171,-0.030043,0,-9.8803e-05,0,0,0,0.038564,2.0234e-05,0.011575,-0.028245,0.01672,0.03426,1.3012e-06,0.85,0.62,0
0.040149,-0.0036263,0.038563,-3.0739e-05,0.01156,-1.3214e-05,0,0,0.070208,-0.030135,0,-6.8714e-05,0,0,0,0.038563,-3.0744e-05,0.01156,-0.019618,0.016697,0.0343,1.3029e-06,0.86,0.62,0
0.040852,-0.0036374,0.038561,-7.7648e-05,0.011545,-8.3275e-06,0,0,0.070243,-0.030219,0,-4.3303e-05,0,0,0,0.038561,-7.765e-05,0.011545,-0.012348,0.016676,0.034336,1.3045e-06,0.87,0.62,0
0.041554,-0.0036475,0.03856,-0.0001206,0.011532,-4.2899e-06,0,0,0.070273,-0.030296,0,-2.2308e-05,0,0,0,0.03856,-0.0001206,0.011532,-0.0063545,0.016657,0.034369,1.3059e-06,0.88,0.62,0
0.042257,-0.0036567,0.038558,-0.0001597,0.01152,-1.0473e-06,0,0,0.070301,-0.030366,0,-5.4458e-06,0,0,0,0.038558,-0.0001597,0.01152,-0.0015498,0.016639,0.034399,1.3071e-06,0.89,0.62,0
0.04296,-0.0036651,0.038556,-0.00019505,0.011508,1.4577e-06,0,0,0.070325,-0.030429,0,7.5801e-06,0,0,0,0.038556,-0.00019505,0.011508,0.0021553,0.016623,0.034426,1.3082e-06,0.9,0.62,0
0.043664,-0.0036726,0.038555,-0.00022675,0.011498,3.2849e-06,0,0,0.070346,-0.030485,0,1.7081e-05,0,0,0,0.038555,-0.00022675,0.011498,0.0048531,0.016609,0.034449,1.3091e-06,0.91,0.62,0
0.044367,-0.0036792,0.038553,-0.00025488,0.011489,4.4965e-06,0,0,0.070365,-0.030535,0,2.3382e-05,0,0,0,0.038553,-0.00025488,0.011489,0.0066386,0.016596,0.03447,1.31e-06,0.92,0.62,0
0.045071,-0.003685,0.038551,-0.00027951,0.011482,5.1566e-06,0,0,0.070381,-0.030579,0,2.6814e-05,0,0,0,0.038551,-0.00027951,0.011482,0.0076087,0.016584,0.034488,1.3107e-06,0.93,0.62,0
0.045775,-0.00369,0.03855,-0.00030073,0.011475,5.3309e-06,0,0,0.070395,-0.030616,0,2.7721e-05,0,0,0,0.03855,-0.00030073,0.011475,0.007862,0.016574,0.034504,1.3113e-06,0.94,0.62,0
0.046479,-0.0036942,0.038548,-0.00031857,0.011469,5.0867e-06,0,0,0.070406,-0.030647,0,2.6451e-05,0,0,0,0.038548,-0.00031857,0.011469,0.0074986,0.016566,0.034517,1.3118e-06,0.95,0.62,0
0.047183,-0.0036976,0.038547,-0.0003331,0.011464,4.492e-06,0,0,0.070416,-0.030673,0,2.3359e-05,0,0,0,0.038547,-0.00033311,0.011464,0.0066197,0.016559,0.034528,1.3122e-06,0.96,0.62,0
0.047887,-0.0037002,0.038546,-0.00034437,0.011461,3.616e-06,0,0,0.070423,-0.030693,0,1.8803e-05,0,0,0,0.038546,-0.00034437,0.011461,0.0053274,0.016554,0.034536,1.3125e-06,0.97,0.62,0
0.048591,-0.0037021,0.038546,-0.00035238,0.011458,2.5285e-06,0,0,0.070428,-0.030707,0,1.3148e-05,0,0,0,0.038546,-0.00035238,0.011458,0.0037244,0.01655,0.034542,1.3127e-06,0.98,0.62,0
0.049296,-0.0037032,0.038545,-0.00035719,0.011456,1.2996e-06,0,0,0.070431,-0.030715,0,6.758e-06,0,0,0,0.038545,-0.00035719,0.011456,0.0019141,0.016548,0.034545,1.3128e-06,0.99,0.62,0
0.05,-0.0037036,0.038545,-0.00035879,0.011456,-7.2227e-06,0,0,0.070432,-0.030718,0,-3.7558e-05,0,0,0,0.038545,-0.00035879,0.011456,-0.010637,0.016547,0.034546,1.3129e-06,1,0.62,0
0,0,0.033199,0.014228,0.014228,-0.0019319,0,0,0.024662,8.1315e-20,0,-0.0050231,0,0,0,0.033393,0.014033,0.014228,-5.7562,0.020552,0.019263,3.6701e-07,0,0.63,0
0.00024662,-5.023e-05,0.033161,0.013761,0.014076,-0.0019341,0,0,0.02481,-0.0004104,0,-0.0050285,0,0,0,0.033352,0.01357,0.014076,-5.6381,0.020333,0.019533,3.8192e-07,0.01,0.63,0
0.00049619,-0.00010164,0.033319,0.013367,0.014006,-0.0019551,0,0,0.025107,-0.00083076,0,-0.0050832,0,0,0,0.033509,0.013177,0.014006,-5.544,0.02023,0.019931,4.0424e-07,0.02,0.63,0
0.00074877,-0.00015412,0.033479,0.012964,0.013933,-0.0019702,0,0,0.02541,-0.0012599,0,-0.0051226,0,0,0,0.033667,0.012776,0.013933,-5.4363,0.020125,0.020337,4.2727e-07,0.03,0.63,0
0.0010044,-0.00020755,0.033639,0.012552,0.013858,-0.0019793,0,0,0.025716,-0.0016967,0,-0.0051463,0,0,0,0.033824,0.012368,0.013858,-5.3162,0.020016,0.020751,4.5095e-07,0.04,0.63,0
0.0012631,-0.00026183,0.0338,0.012134,0.01378,-0.0019824,0,0,0.026026,-0.0021399,0,-0.0051542,0,0,0,0.03398,0.011954,0.01378,-5.1851,0.019905,0.021172,4.752e-07,0.05,0.63,0
0.0015249,-0.00031685,0.03396,0.01171,0.013701,-0.0019794,0,0,0.026337,-0.0025882,0,-0.0051464,0,0,0,0.034135,0.011535,0.013701,-5.0443,0.01979,0.021598,4.9995e-07,0.06,0.63,0
0.0017898,-0.00037247,0.034119,0.011281,0.01362,-0.0019704,0,0,0.026648,-0.0030405,0,-0.0051232,0,0,0,0.034287,0.011112,0.01362,-4.8953,0.019673,0.022029,5.251e-07,0.07,0.63,0
0.0020579,-0.0004286,0.034276,0.010848,0.013537,-0.0019558,0,0,0.02696,-0.0034955,0,-0.005085,0,0,0,0.034438,0.010686,0.013537,-4.7395,0.019554,0.022462,5.5059e-07,0.08,0.63,0
0.002329,-0.00048512,0.03443,0.010413,0.013453,-0.0019356,0,0,0.02727,-0.0039522,0,-0.0050325,0,0,0,0.034585,0.010258,0.013453,-4.5781,0.019432,0.022898,5.7631e-07,0.09,0.63,0
0.0026033,-0.00054192,0.034581,0.0099752,0.013367,-0.0019102,0,0,0.027579,-0.0044093,0,-0.0049665,0,0,0,0.034729,0.0098278,0.013367,-4.4127,0.019308,0.023334,6.0219e-07,0.1,0.63,0
0.0028806,-0.00059891,0.03473,0.0095369,0.01328,-0.00188,0,0,0.027884,-0.0048659,0,-0.004888,0,0,0,0.034869,0.0093974,0.01328,-4.2444,0.019182,0.023769,6.2814e-07,0.11,0.63,0
0.003161,-0.00065597,0.034874,0.0090986,0.013192,-0.0018454,0,0,0.028186,-0.005321,0,-0.0047981,0,0,0,0.035005,0.0089671,0.013192,-4.0745,0.019055,0.024204,6.5408e-07,0.12,0.63,0
0.0034443,-0.00071303,0.035013,0.008661,0.013102,-0.0018069,0,0,0.028484,-0.0057738,0,-0.004698,0,0,0,0.035137,0.0085377,0.013102,-3.9043,0.018926,0.024636,6.7994e-07,0.13,0.63,0
0.0037306,-0.00077001,0.035149,0.0082248,0.013012,-0.001765,0,0,0.028778,-0.0062234,0,-0.0045891,0,0,0,0.035264,0.0081096,0.013012,-3.7348,0.018795,0.025065,7.0563e-07,0.14,0.63,0
0.0040199,-0.00082682,0.035279,0.0077908,0.012921,-0.0017202,0,0,0.029065,-0.0066692,0,-0.0044726,0,0,0,0.035386,0.0076835,0.012921,-3.5671,0.018663,0.025491,7.311e-07,0.15,0.63,0
0.004312,-0.0008834,0.035404,0.0073593,0.012829,-0.0016731,0,0,0.029348,-0.0071106,0,-0.0043501,0,0,0,0.035504,0.0072599,0.012829,-3.4021,0.018531,0.025912,7.5628e-07,0.16,0.63,0
0.0046068,-0.00093969,0.035524,0.0069309,0.012736,-0.0016242,0,0,0.029624,-0.0075473,0,-0.004223,0,0,0,0.035616,0.006839,0.012736,-3.2408,0.018397,0.026329,7.8113e-07,0.17,0.63,0
0.0049044,-0.00099565,0.035639,0.0065059,0.012643,-0.0015741,0,0,0.029894,-0.0079787,0,-0.0040927,0,0,0,0.035724,0.0064211,0.012643,-3.0838,0.018263,0.02674,8.056e-07,0.18,0.63,0
0.0052047,-0.0010512,0.035748,0.0060846,0.01255,-0.0015233,0,0,0.030158,-0.0084048,0,-0.0039606,0,0,0,0.035826,0.0060066,0.01255,-2.932,0.018128,0.027146,8.2964e-07,0.19,0.63,0
0.0055076,-0.0011064,0.035852,0.0056671,0.012456,-0.0014723,0,0,0.030415,-0.0088253,0,-0.003828,0,0,0,0.035924,0.0055954,0.012456,-2.7859,0.017992,0.027547,8.5323e-07,0.2,0.63,0
0.005813,-0.0011611,0.035951,0.0052535,0.012361,-0.0014217,0,0,0.030666,-0.0092402,0,-0.0036964,0,0,0,0.036017,0.0051878,0.012361,-2.646,0.017855,0.027942,8.7636e-07,0.21,0.63,0
0.0061209,-0.0012154,0.036045,0.0048439,0.012267,-0.0013718,0,0,0.030912,-0.0096495,0,-0.0035668,0,0,0,0.036105,0.0047837,0.012267,-2.5127,0.017718,0.028331,8.99e-07,0.22,0.63,0
0.0064313,-0.0012693,0.036134,0.0044382,0.012172,-0.0013232,0,0,0.031151,-0.010053,0,-0.0034403,0,0,0,0.036189,0.004383,0.012172,-2.3864,0.017581,0.028715,9.2115e-07,0.23,0.63,0
0.0067439,-0.0013226,0.036218,0.0040363,0.012076,-0.0012762,0,0,0.031384,-0.010452,0,-0.0033181,0,0,0,0.036269,0.0039857,0.012076,-2.2673,0.017444,0.029094,9.4281e-07,0.24,0.63,0
0.0070589,-0.0013756,0.036298,0.003638,0.011981,-0.0012311,0,0,0.031613,-0.010846,0,-0.0032009,0,0,0,0.036345,0.0035916,0.011981,-2.1557,0.017306,0.029468,9.6399e-07,0.25,0.63,0
0.0073762,-0.001428,0.036374,0.0032431,0.011885,-0.0011883,0,0,0.031836,-0.011235,0,-0.0030895,0,0,0,0.036417,0.0032005,0.011885,-2.0514,0.017167,0.029837,9.8469e-07,0.26,0.63,0
0.0076957,-0.0014801,0.036446,0.0028514,0.011789,-0.0011479,0,0,0.032054,-0.011619,0,-0.0029845,0,0,0,0.036486,0.0028122,0.011789,-1.9547,0.017029,0.030203,1.0049e-06,0.27,0.63,0
0.0080173,-0.0015317,0.036515,0.0024626,0.011693,-0.0011102,0,0,0.032269,-0.012,0,-0.0028865,0,0,0,0.036552,0.0024264,0.011693,-1.8653,0.01689,0.030564,1.0248e-06,0.28,0.63,0
0.008341,-0.001583,0.036581,0.0020763,0.011597,-0.0010753,0,0,0.032479,-0.012377,0,-0.0027956,0,0,0,0.036615,0.0020428,0.011597,-1.7832,0.016752,0.030922,1.0441e-06,0.29,0.63,0
0.0086669,-0.0016338,0.036645,0.0016923,0.011501,-0.0010432,0,0,0.032687,-0.012751,0,-0.0027122,0,0,0,0.036676,0.0016612,0.011501,-1.708,0.016613,0.031278,1.0631e-06,0.3,0.63,0
0.0089948,-0.0016843,0.036706,0.0013102,0.011405,-0.001014,0,0,0.032891,-0.013123,0,-0.0026363,0,0,0,0.036735,0.0012812,0.011405,-1.6395,0.016473,0.031631,1.0818e-06,0.31,0.63,0
0.0093247,-0.0017345,0.036765,0.00092979,0.011308,-0.00098759,0,0,0.033093,-0.013492,0,-0.0025677,0,0,0,0.036792,0.00090259,0.011308,-1.5774,0.016334,0.031982,1.1001e-06,0.32,0.63,0
0.0096566,-0.0017844,0.036822,0.00055065,0.011212,-0.00096396,0,0,0.033293,-0.01386,0,-0.0025063,0,0,0,0.036848,0.00052505,0.011212,-1.5213,0.016195,0.032332,1.1181e-06,0.33,0.63,0
0.0099906,-0.001834,0.036878,0.00017253,0.011115,-0.00094294,0,0,0.033492,-0.014226,0,-0.0024517,0,0,0,0.036902,0.00014833,0.011115,-1.4706,0.016055,0.032681,1.1359e-06,0.34,0.63,0
0.010327,-0.0018834,0.036933,-0.00020482,0.011019,-0.00092434,0,0,0.033689,-0.01459,0,-0.0024033,0,0,0,0.036956,-0.00022781,0.011019,-1.4249,0.015916,0.03303,1.1533e-06,0.35,0.63,0
0.010664,-0.0019325,0.036988,-0.00058163,0.010922,-0.00090794,0,0,0.033886,-0.014955,0,-0.0023606,0,0,0,0.03701,-0.00060356,0.010922,-1.3836,0.015776,0.033378,1.1706e-06,0.36,0.63,0
0.011004,-0.0019814,0.037042,-0.00095809,0.010825,-0.00089344,0,0,0.034082,-0.015318,0,-0.002323,0,0,0,0.037063,-0.00097908,0.010825,-1.3461,0.015636,0.033727,1.1876e-06,0.37,0.63,0
0.011346,-0.00203,0.037096,-0.0013343,0.010729,-0.00088056,0,0,0.034278,-0.015682,0,-0.0022895,0,0,0,0.037116,-0.0013545,0.010729,-1.3119,0.015497,0.034076,1.2044e-06,0.38,0.63,0
0.01169,-0.0020784,0.03715,-0.0017104,0.010632,-0.00086895,0,0,0.034473,-0.016045,0,-0.0022593,0,0,0,0.037169,-0.0017298,0.010632,-1.2803,0.015357,0.034425,1.2211e-06,0.39,0.63,0
0.012035,-0.0021266,0.037204,-0.0020863,0.010535,-0.00085825,0,0,0.034669,-0.016408,0,-0.0022314,0,0,0,0.037222,-0.002105,0.010535,-1.2508,0.015218,0.034775,1.2375e-06,0.4,0.63,0
0.012383,-0.0021745,0.037258,-0.0024621,0.010439,-0.00084806,0,0,0.034865,-0.016771,0,-0.002205,0,0,0,0.037276,-0.0024802,0.010439,-1.2226,0.015078,0.035126,1.2538e-06,0.41,0.63,0
0.012733,-0.0022221,0.037312,-0.0028376,0.010342,-0.000838,0,0,0.035061,-0.017134,0,-0.0021788,0,0,0,0.03733,-0.002855,0.010342,-1.1952,0.014939,0.035478,1.2698e-06,0.42,0.63,0
0.013084,-0.0022695,0.037367,-0.0032126,0.010246,-0.00082766,0,0,0.035257,-0.017497,0,-0.0021519,0,0,0,0.037384,-0.0032295,0.010246,-1.168,0.0148,0.035829,1.2857e-06,0.43,0.63,0
0.013438,-0.0023165,0.037422,-0.0035869,0.01015,-0.00081663,0,0,0.035453,-0.017859,0,-0.0021232,0,0,0,0.037438,-0.0036032,0.01015,-1.1404,0.014662,0.036181,1.3013e-06,0.44,0.63,0
0.013793,-0.0023632,0.037477,-0.0039603,0.010055,-0.00080451,0,0,0.035649,-0.01822,0,-0.0020917,0,0,0,0.037493,-0.0039759,0.010055,-1.1119,0.014524,0.036533,1.3166e-06,0.45,0.63,0
0.014151,-0.0024095,0.037532,-0.0043323,0.0099599,-0.00079091,0,0,0.035844,-0.01858,0,-0.0020564,0,0,0,0.037547,-0.0043472,0.0099599,-1.0819,0.014387,0.036884,1.3317e-06,0.46,0.63,0
0.01451,-0.0024554,0.037587,-0.0047025,0.0098653,-0.00077544,0,0,0.036038,-0.018938,0,-0.0020161,0,0,0,0.037601,-0.0047167,0.0098653,-1.0501,0.01425,0.037234,1.3464e-06,0.47,0.63,0
0.014872,-0.0025007,0.037641,-0.0050705,0.0097713,-0.00075776,0,0,0.036231,-0.019294,0,-0.0019702,0,0,0,0.037655,-0.0050839,0.0097713,-1.0161,0.014114,0.037582,1.3608e-06,0.48,0.63,0
0.015235,-0.0025455,0.037695,-0.0054357,0.0096779,-0.00073754,0,0,0.036423,-0.019648,0,-0.0019176,0,0,0,0.037708,-0.0054483,0.0096779,-0.97937,0.013979,0.037927,1.3748e-06,0.49,0.63,0
0.0156,-0.0025897,0.037733,-0.00031021,0.011227,-0.00071646,0,0,0.050657,-0.019998,0,-0.0027793,0,0,0,0.037747,-0.00032392,0.011227,-1.0984,0.016217,0.033878,1.2021e-06,0.5,0.63,0
0.016248,-0.0026516,0.037801,0.004948,0.012825,-0.00069829,0,0,0.064937,-0.020479,0,-0.0036311,0,0,0,0.037815,0.0049332,0.012825,-1.2171,0.018524,0.029732,1.0362e-06,0.51,0.63,0
0.016899,-0.0027124,0.037852,0.0047096,0.012768,-0.00068069,0,0,0.065216,-0.020953,0,-0.0035396,0,0,0,0.037866,0.0046956,0.012768,-1.1761,0.018443,0.029961,1.0506e-06,0.52,0.63,0
0.017552,-0.0027721,0.037901,0.0044753,0.012713,-0.00066197,0,0,0.06549,-0.021418,0,-0.0034423,0,0,0,0.037914,0.0044621,0.012713,-1.1341,0.018363,0.030185,1.0647e-06,0.53,0.63,0
0.018209,-0.0028306,0.03795,0.0042453,0.012658,-0.00064214,0,0,0.065757,-0.021874,0,-0.0033391,0,0,0,0.037962,0.0042331,0.012658,-1.0911,0.018284,0.030405,1.0786e-06,0.54,0.63,0
0.018867,-0.0028879,0.037997,0.00402,0.012605,-0.0006212,0,0,0.066018,-0.022321,0,-0.0032303,0,0,0,0.038008,0.0040087,0.012605,-1.0471,0.018207,0.03062,1.092e-06,0.55,0.63,0
0.019529,-0.0029438,0.038042,0.0037997,0.012552,-0.00059922,0,0,0.066272,-0.022757,0,-0.0031159,0,0,0,0.038052,0.0037892,0.012552,-1.0022,0.018131,0.03083,1.1052e-06,0.56,0.63,0
0.020193,-0.0029984,0.038085,0.0035846,0.012501,-0.00057626,0,0,0.066519,-0.023182,0,-0.0029965,0,0,0,0.038095,0.003575,0.012501,-0.95665,0.018057,0.031035,1.1179e-06,0.57,0.63,0
0.020859,-0.0030517,0.038127,0.0033751,0.01245,-0.0005524,0,0,0.066758,-0.023596,0,-0.0028725,0,0,0,0.038135,0.0033663,0.01245,-0.91046,0.017984,0.031234,1.1302e-06,0.58,0.63,0
0.021528,-0.0031034,0.038166,0.0031713,0.012401,-0.00052778,0,0,0.066989,-0.023998,0,-0.0027444,0,0,0,0.038174,0.0031633,0.012401,-0.86385,0.017913,0.031427,1.142e-06,0.59,0.63,0
0.022199,-0.0031537,0.038203,0.0029733,0.012353,-0.0005025,0,0,0.067211,-0.024387,0,-0.002613,0,0,0,0.038211,0.0029662,0.012353,-0.81701,0.017843,0.031614,1.1534e-06,0.6,0.63,0
0.022872,-0.0032025,0.038239,0.0027815,0.012306,-0.00047671,0,0,0.067424,-0.024764,0,-0.0024789,0,0,0,0.038245,0.0027751,0.012306,-0.77014,0.017775,0.031794,1.1644e-06,0.61,0.63,0
0.023548,-0.0032498,0.038271,0.002596,0.01226,-0.00045055,0,0,0.067629,-0.025127,0,-0.0023428,0,0,0,0.038277,0.0025903,0.01226,-0.72344,0.017709,0.031968,1.1749e-06,0.62,0.63,0
0.024225,-0.0032955,0.038302,0.0024167,0.012216,-0.00042417,0,0,0.067825,-0.025477,0,-0.0022057,0,0,0,0.038307,0.0024117,0.012216,-0.67712,0.017645,0.032135,1.1848e-06,0.63,0.63,0
0.024904,-0.0033395,0.038331,0.002244,0.012172,-0.00039772,0,0,0.068011,-0.025814,0,-0.0020682,0,0,0,0.038335,0.0022396,0.012172,-0.63138,0.017582,0.032296,1.1943e-06,0.64,0.63,0
0.025585,-0.003382,0.038357,0.0020777,0.01213,-0.00037137,0,0,0.068189,-0.026137,0,-0.0019311,0,0,0,0.03836,0.0020739,0.01213,-0.58642,0.017522,0.032449,1.2033e-06,0.65,0.63,0
0.026268,-0.0034229,0.038381,0.0019179,0.01209,-0.00034524,0,0,0.068357,-0.026446,0,-0.0017952,0,0,0,0.038384,0.0019146,0.01209,-0.54243,0.017463,0.032595,1.2119e-06,0.66,0.63,0
0.026952,-0.0034622,0.038402,0.0017646,0.01205,-0.00031949,0,0,0.068516,-0.026742,0,-0.0016613,0,0,0,0.038405,0.0017619,0.01205,-0.49958,0.017406,0.032735,1.2199e-06,0.67,0.63,0
0.027638,-0.0034998,0.038422,0.0016179,0.012012,-0.00029424,0,0,0.068666,-0.027025,0,-0.0015301,0,0,0,0.038424,0.0016155,0.012012,-0.45803,0.017351,0.032868,1.2274e-06,0.68,0.63,0
0.028326,-0.0035359,0.03844,0.0014776,0.011975,-0.00026963,0,0,0.068808,-0.027294,0,-0.0014021,0,0,0,0.038442,0.0014756,0.011975,-0.41793,0.017298,0.032994,1.2345e-06,0.69,0.63,0
0.029014,-0.0035703,0.038455,0.0013436,0.01194,-0.00024577,0,0,0.068941,-0.02755,0,-0.001278,0,0,0,0.038457,0.001342,0.01194,-0.37941,0.017246,0.033113,1.2412e-06,0.7,0.63,0
0.029704,-0.0036032,0.038469,0.001216,0.011905,-0.00022275,0,0,0.069065,-0.027793,0,-0.0011583,0,0,0,0.03847,0.0012147,0.011905,-0.34257,0.017197,0.033226,1.2474e-06,0.71,0.63,0
0.030396,-0.0036345,0.038481,0.0010945,0.011873,-0.00020066,0,0,0.069182,-0.028023,0,-0.0010435,0,0,0,0.038482,0.0010934,0.011873,-0.30751,0.017149,0.033333,1.2532e-06,0.72,0.63,0
0.031088,-0.0036643,0.038491,0.00097907,0.011841,-0.00017959,0,0,0.06929,-0.028241,0,-0.00093389,0,0,0,0.038492,0.00097821,0.011841,-0.2743,0.017104,0.033433,1.2585e-06,0.73,0.63,0
0.031781,-0.0036926,0.0385,0.00086958,0.011811,-0.0001596,0,0,0.069391,-0.028447,0,-0.00082994,0,0,0,0.0385,0.0008689,0.011811,-0.24301,0.01706,0.033528,1.2635e-06,0.74,0.63,0
0.032476,-0.0037195,0.038507,0.00076587,0.011782,-0.00014074,0,0,0.069485,-0.028642,0,-0.00073186,0,0,0,0.038507,0.00076535,0.011782,-0.21366,0.017018,0.033616,1.2681e-06,0.75,0.63,0
0.033171,-0.0037449,0.038513,0.00066781,0.011754,-0.00012305,0,0,0.069572,-0.028824,0,-0.00063987,0,0,0,0.038513,0.00066741,0.011754,-0.18629,0.016978,0.033699,1.2723e-06,0.76,0.63,0
0.033867,-0.0037689,0.038517,0.00057524,0.011728,-0.00010656,0,0,0.069653,-0.028997,0,-0.0005541,0,0,0,0.038518,0.00057494,0.011728,-0.16091,0.01694,0.033777,1.2762e-06,0.77,0.63,0
0.034564,-0.0037915,0.038521,0.00048801,0.011703,-9.1277e-05,0,0,0.069727,-0.029158,0,-0.00047464,0,0,0,0.038521,0.00048779,0.011703,-0.13751,0.016904,0.033849,1.2797e-06,0.78,0.63,0
0.035262,-0.0038128,0.038523,0.00040596,0.011679,-7.7217e-05,0,0,0.069795,-0.029309,0,-0.00040153,0,0,0,0.038523,0.00040581,0.011679,-0.11607,0.016869,0.033917,1.283e-06,0.79,0.63,0
0.03596,-0.0038327,0.038525,0.00032894,0.011656,-6.4373e-05,0,0,0.069858,-0.029451,0,-0.00033474,0,0,0,0.038525,0.00032883,0.011656,-0.096563,0.016837,0.033979,1.286e-06,0.8,0.63,0
0.036659,-0.0038515,0.038525,0.00025678,0.011635,-5.2733e-05,0,0,0.069916,-0.029583,0,-0.00027421,0,0,0,0.038525,0.00025671,0.011635,-0.078951,0.016806,0.034037,1.2887e-06,0.81,0.63,0
0.037358,-0.003869,0.038525,0.00018934,0.011614,-4.2275e-05,0,0,0.069969,-0.029705,0,-0.00021983,0,0,0,0.038525,0.00018929,0.011614,-0.063183,0.016776,0.034091,1.2912e-06,0.82,0.63,0
0.038058,-0.0038853,0.038525,0.00012647,0.011595,-3.2972e-05,0,0,0.070017,-0.029819,0,-0.00017145,0,0,0,0.038525,0.00012644,0.011595,-0.049198,0.016749,0.034141,1.2934e-06,0.83,0.63,0
0.038759,-0.0039005,0.038524,6.8016e-05,0.011578,-2.4786e-05,0,0,0.07006,-0.029925,0,-0.00012889,0,0,0,0.038524,6.8e-05,0.011578,-0.036929,0.016723,0.034187,1.2954e-06,0.84,0.63,0
0.03946,-0.0039145,0.038523,1.3848e-05,0.011561,-1.7678e-05,0,0,0.0701,-0.030022,0,-9.1926e-05,0,0,0,0.038523,1.384e-05,0.011561,-0.026303,0.016699,0.034229,1.2972e-06,0.85,0.63,0
0.040161,-0.0039275,0.038521,-3.6169e-05,0.011545,-1.1599e-05,0,0,0.070136,-0.030112,0,-6.0318e-05,0,0,0,0.038521,-3.6173e-05,0.011545,-0.017237,0.016677,0.034267,1.2989e-06,0.86,0.63,0
0.040862,-0.0039394,0.038519,-8.2164e-05,0.011531,-6.4992e-06,0,0,0.070168,-0.030194,0,-3.3796e-05,0,0,0,0.038519,-8.2166e-05,0.011531,-0.0096468,0.016656,0.034302,1.3003e-06,0.87,0.63,0
0.041564,-0.0039503,0.038517,-0.00012426,0.011518,-2.3209e-06,0,0,0.070197,-0.030269,0,-1.2069e-05,0,0,0,0.038517,-0.00012426,0.011518,-0.0034414,0.016637,0.034334,1.3016e-06,0.88,0.63,0
0.042266,-0.0039603,0.038514,-0.00016256,0.011506,9.9491e-07,0,0,0.070223,-0.030337,0,5.1735e-06,0,0,0,0.038514,-0.00016256,0.011506,0.0014739,0.016619,0.034362,1.3028e-06,0.89,0.63,0
0.042969,-0.0039692,0.038512,-0.00019717,0.011494,3.5111e-06,0,0,0.070246,-0.030398,0,1.8257e-05,0,0,0,0.038512,-0.00019717,0.011494,0.0051969,0.016603,0.034388,1.3038e-06,0.9,0.63,0
0.043671,-0.0039772,0.03851,-0.0002282,0.011484,5.2931e-06,0,0,0.070266,-0.030453,0,2.7524e-05,0,0,0,0.03851,-0.0002282,0.011484,0.0078288,0.016589,0.034411,1.3047e-06,0.91,0.63,0
0.044374,-0.0039844,0.038508,-0.00025572,0.011476,6.4088e-06,0,0,0.070284,-0.030502,0,3.3326e-05,0,0,0,0.038508,-0.00025572,0.011476,0.0094728,0.016576,0.034431,1.3054e-06,0.92,0.63,0
0.045077,-0.0039906,0.038506,-0.00027981,0.011468,6.9281e-06,0,0,0.070299,-0.030544,0,3.6026e-05,0,0,0,0.038506,-0.00027981,0.011468,0.010235,0.016565,0.034448,1.3061e-06,0.93,0.63,0
0.04578,-0.003996,0.038504,-0.00030055,0.011461,6.9223e-06,0,0,0.070312,-0.03058,0,3.5996e-05,0,0,0,0.038504,-0.00030055,0.011461,0.010221,0.016555,0.034463,1.3067e-06,0.94,0.63,0
0.046483,-0.0040005,0.038502,-0.000318,0.011455,6.4642e-06,0,0,0.070322,-0.030611,0,3.3614e-05,0,0,0,0.038502,-0.000318,0.011455,0.0095406,0.016547,0.034476,1.3071e-06,0.95,0.63,0
0.047186,-0.0040041,0.038501,-0.0003322,0.011451,5.6276e-06,0,0,0.070331,-0.030635,0,2.9264e-05,0,0,0,0.038501,-0.00033221,0.011451,0.0083032,0.01654,0.034486,1.3075e-06,0.96,0.63,0
0.04789,-0.004007,0.0385,-0.00034321,0.011447,4.4873e-06,0,0,0.070338,-0.030655,0,2.3334e-05,0,0,0,0.0385,-0.00034321,0.011447,0.006619,0.016535,0.034494,1.3078e-06,0.97,0.63,0
0.048593,-0.004009,0.038499,-0.00035104,0.011444,3.1187e-06,0,0,0.070342,-0.030668,0,1.6217e-05,0,0,0,0.038499,-0.00035104,0.011444,0.0045993,0.016531,0.0345,1.3079e-06,0.98,0.63,0
0.049297,-0.0040102,0.038499,-0.00035574,0.011443,1.5975e-06,0,0,0.070345,-0.030676,0,8.307e-06,0,0,0,0.038499,-0.00035574,0.011443,0.0023557,0.016529,0.034503,1.3081e-06,0.99,0.63,0
0.05,-0.0040106,0.038499,-0.0003573,0.011442,-7.7541e-06,0,0,0.070346,-0.030679,0,-4.0321e-05,0,0,0,0.038499,-0.0003573,0.011442,-0.011434,0.016528,0.034504,1.3081e-06,1,0.63,0
0,0,0.033274,0.01426,0.01426,-0.0020909,0,0,0.024718,-5.421e-20,0,-0.0054364,0,0,0,0.033501,0.014033,0.01426,-6.2021,0.020598,0.019355,3.7224e-07,0,0.64,0
0.00024718,-5.4364e-05,0.033235,0.013786,0.014106,-0.0020932,0,0,0.024868,-0.00041671,0,-0.0054422,0,0,0,0.033458,0.013563,0.014106,-6.0736,0.020376,0.019629,3.8742e-07,0.01,0.64,0
0.00049735,-0.00011001,0.033396,0.013385,0.014034,-0.0021158,0,0,0.02517,-0.00084361,0,-0.0055012,0,0,0,0.033617,0.013164,0.014034,-5.9703,0.020272,0.020032,4.1023e-07,0.02,0.64,0
0.00075057,-0.00016681,0.033558,0.012976,0.01396,-0.002132,0,0,0.025477,-0.0012795,0,-0.0055431,0,0,0,0.033777,0.012757,0.01396,-5.8521,0.020165,0.020444,4.3376e-07,0.03,0.64,0
0.0010069,-0.00022464,0.033721,0.012558,0.013884,-0.0021414,0,0,0.025788,-0.001723,0,-0.0055676,0,0,0,0.033935,0.012344,0.013884,-5.7204,0.020054,0.020864,4.5792e-07,0.04,0.64,0
0.0012663,-0.00028339,0.033884,0.012134,0.013805,-0.0021441,0,0,0.026102,-0.0021729,0,-0.0055746,0,0,0,0.034093,0.011924,0.013805,-5.5766,0.019941,0.021291,4.8264e-07,0.05,0.64,0
0.0015289,-0.00034292,0.034046,0.011703,0.013725,-0.0021401,0,0,0.026417,-0.0026278,0,-0.0055642,0,0,0,0.034249,0.0115,0.013725,-5.4224,0.019824,0.021722,5.0784e-07,0.06,0.64,0
0.0017947,-0.0004031,0.034206,0.011268,0.013642,-0.0021295,0,0,0.026733,-0.0030864,0,-0.0055366,0,0,0,0.034402,0.011072,0.013642,-5.2592,0.019706,0.022157,5.3342e-07,0.07,0.64,0
0.0020636,-0.0004638,0.034365,0.010829,0.013558,-0.0021125,0,0,0.027048,-0.0035475,0,-0.0054925,0,0,0,0.034553,0.010641,0.013558,-5.0886,0.019584,0.022595,5.5929e-07,0.08,0.64,0
0.0023356,-0.00052491,0.03452,0.010388,0.013473,-0.0020894,0,0,0.027362,-0.0040098,0,-0.0054325,0,0,0,0.0347,0.010209,0.013473,-4.9121,0.01946,0.023033,5.8536e-07,0.09,0.64,0
0.0026108,-0.00058631,0.034673,0.0099453,0.013385,-0.0020606,0,0,0.027674,-0.0044721,0,-0.0053577,0,0,0,0.034843,0.0097748,0.013385,-4.7312,0.019335,0.023472,6.1155e-07,0.1,0.64,0
0.0028891,-0.00064788,0.034821,0.0095022,0.013297,-0.0020265,0,0,0.027982,-0.0049334,0,-0.005269,0,0,0,0.034982,0.009341,0.013297,-4.5474,0.019207,0.02391,6.3776e-07,0.11,0.64,0
0.0031705,-0.00070952,0.034966,0.0090595,0.013208,-0.0019876,0,0,0.028286,-0.0053925,0,-0.0051678,0,0,0,0.035117,0.0089078,0.013208,-4.3619,0.019078,0.024346,6.639e-07,0.12,0.64,0
0.0034548,-0.00077113,0.035105,0.008618,0.013117,-0.0019444,0,0,0.028585,-0.0058487,0,-0.0050555,0,0,0,0.035247,0.008476,0.013117,-4.1762,0.018947,0.024779,6.8991e-07,0.13,0.64,0
0.0037422,-0.00083261,0.03524,0.0081786,0.013026,-0.0018975,0,0,0.028879,-0.006301,0,-0.0049335,0,0,0,0.035372,0.0080462,0.013026,-3.9915,0.018815,0.025208,7.1569e-07,0.14,0.64,0
0.0040324,-0.00089389,0.035369,0.0077418,0.012933,-0.0018475,0,0,0.029167,-0.0067489,0,-0.0048034,0,0,0,0.035492,0.0076188,0.012933,-3.8088,0.018681,0.025633,7.4119e-07,0.15,0.64,0
0.0043255,-0.00095489,0.035493,0.0073082,0.01284,-0.0017949,0,0,0.029448,-0.0071918,0,-0.0046668,0,0,0,0.035607,0.0071944,0.01284,-3.6293,0.018547,0.026052,7.6635e-07,0.16,0.64,0
0.0046214,-0.0010156,0.035611,0.0068783,0.012747,-0.0017405,0,0,0.029723,-0.0076291,0,-0.0045254,0,0,0,0.035716,0.0067733,0.012747,-3.4539,0.018412,0.026467,7.9111e-07,0.17,0.64,0
0.00492,-0.0010758,0.035723,0.0064524,0.012653,-0.0016849,0,0,0.029992,-0.0080605,0,-0.0043806,0,0,0,0.03582,0.0063557,0.012653,-3.2835,0.018276,0.026875,8.1543e-07,0.18,0.64,0
0.0052212,-0.0011357,0.03583,0.0060306,0.012558,-0.0016285,0,0,0.030254,-0.0084859,0,-0.0042341,0,0,0,0.035919,0.0059419,0.012558,-3.1188,0.01814,0.027277,8.3927e-07,0.19,0.64,0
0.005525,-0.001195,0.035931,0.0056133,0.012463,-0.0015721,0,0,0.030508,-0.0089051,0,-0.0040875,0,0,0,0.036013,0.005532,0.012463,-2.9604,0.018003,0.027674,8.6261e-07,0.2,0.64,0
0.0058314,-0.0012539,0.036027,0.0052004,0.012368,-0.0015162,0,0,0.030756,-0.0093181,0,-0.003942,0,0,0,0.036101,0.005126,0.012368,-2.809,0.017865,0.028064,8.8544e-07,0.21,0.64,0
0.0061402,-0.0013123,0.036117,0.0047919,0.012273,-0.0014612,0,0,0.030998,-0.0097251,0,-0.0037991,0,0,0,0.036185,0.0047239,0.012273,-2.6649,0.017727,0.028448,9.0773e-07,0.22,0.64,0
0.0064513,-0.0013701,0.036202,0.0043878,0.012177,-0.0014077,0,0,0.031233,-0.010126,0,-0.0036601,0,0,0,0.036264,0.0043256,0.012177,-2.5286,0.017589,0.028827,9.2949e-07,0.23,0.64,0
0.0067648,-0.0014275,0.036283,0.0039878,0.012081,-0.0013561,0,0,0.031462,-0.010521,0,-0.0035259,0,0,0,0.036339,0.003931,0.012081,-2.4003,0.017451,0.029199,9.5073e-07,0.24,0.64,0
0.0070806,-0.0014843,0.036359,0.0035918,0.011985,-0.0013067,0,0,0.031685,-0.010911,0,-0.0033975,0,0,0,0.03641,0.0035398,0.011985,-2.2801,0.017312,0.029567,9.7145e-07,0.25,0.64,0
0.0073985,-0.0015407,0.03643,0.0031995,0.011889,-0.0012599,0,0,0.031904,-0.011296,0,-0.0032759,0,0,0,0.036478,0.0031518,0.011889,-2.1682,0.017173,0.02993,9.9167e-07,0.26,0.64,0
0.0077186,-0.0015965,0.036498,0.0028106,0.011792,-0.001216,0,0,0.032117,-0.011677,0,-0.0031615,0,0,0,0.036542,0.0027667,0.011792,-2.0646,0.017034,0.030288,1.0114e-06,0.27,0.64,0
0.0080409,-0.001652,0.036562,0.0024247,0.011696,-0.001175,0,0,0.032326,-0.012053,0,-0.0030551,0,0,0,0.036603,0.0023843,0.011696,-1.969,0.016894,0.030643,1.0307e-06,0.28,0.64,0
0.0083652,-0.001707,0.036624,0.0020415,0.0116,-0.0011373,0,0,0.032531,-0.012426,0,-0.0029569,0,0,0,0.036661,0.0020041,0.0116,-1.8815,0.016755,0.030994,1.0496e-06,0.29,0.64,0
0.0086915,-0.0017615,0.036682,0.0016605,0.011503,-0.0011027,0,0,0.032733,-0.012795,0,-0.002867,0,0,0,0.036717,0.0016259,0.011503,-1.8017,0.016615,0.031342,1.0681e-06,0.3,0.64,0
0.0090198,-0.0018158,0.036739,0.0012815,0.011406,-0.0010714,0,0,0.032932,-0.013162,0,-0.0027857,0,0,0,0.036771,0.0012492,0.011406,-1.7292,0.016475,0.031689,1.0862e-06,0.31,0.64,0
0.0093501,-0.0018696,0.036793,0.0009041,0.011309,-0.0010433,0,0,0.033129,-0.013527,0,-0.0027126,0,0,0,0.036823,0.00087379,0.011309,-1.6638,0.016335,0.032033,1.104e-06,0.32,0.64,0
0.0096824,-0.0019232,0.036846,0.00052784,0.011212,-0.0010183,0,0,0.033324,-0.01389,0,-0.0026477,0,0,0,0.036874,0.00049931,0.011212,-1.6049,0.016195,0.032377,1.1215e-06,0.33,0.64,0
0.010017,-0.0019764,0.036898,0.00015242,0.011115,-0.00099629,0,0,0.033518,-0.014252,0,-0.0025904,0,0,0,0.036925,0.00012543,0.011115,-1.552,0.016055,0.032719,1.1387e-06,0.34,0.64,0
0.010353,-0.0020294,0.036949,-0.00022245,0.011018,-0.00097698,0,0,0.03371,-0.014613,0,-0.0025402,0,0,0,0.036975,-0.00024811,0.011018,-1.5045,0.015915,0.033062,1.1557e-06,0.35,0.64,0
0.010691,-0.0020821,0.036999,-0.00059706,0.010921,-0.00096015,0,0,0.033902,-0.014973,0,-0.0024964,0,0,0,0.037024,-0.00062156,0.010921,-1.462,0.015774,0.033405,1.1725e-06,0.36,0.64,0
0.011031,-0.0021346,0.03705,-0.00097161,0.010823,-0.00094547,0,0,0.034094,-0.015334,0,-0.0024582,0,0,0,0.037073,-0.00099511,0.010823,-1.4236,0.015634,0.033749,1.1891e-06,0.37,0.64,0
0.011373,-0.0021869,0.0371,-0.0013463,0.010726,-0.00093262,0,0,0.034286,-0.015694,0,-0.0024248,0,0,0,0.037123,-0.0013689,0.010726,-1.3888,0.015493,0.034093,1.2055e-06,0.38,0.64,0
0.011716,-0.0022389,0.037151,-0.0017212,0.010629,-0.0009212,0,0,0.034478,-0.016055,0,-0.0023951,0,0,0,0.037173,-0.001743,0.010629,-1.3568,0.015353,0.034439,1.2218e-06,0.39,0.64,0
0.012062,-0.0022907,0.037202,-0.0020963,0.010532,-0.00091081,0,0,0.034671,-0.016416,0,-0.0023681,0,0,0,0.037223,-0.0021174,0.010532,-1.327,0.015212,0.034786,1.2379e-06,0.4,0.64,0
0.01241,-0.0023422,0.037253,-0.0024718,0.010434,-0.00090102,0,0,0.034864,-0.016778,0,-0.0023427,0,0,0,0.037274,-0.0024922,0.010434,-1.2987,0.015072,0.035134,1.2539e-06,0.41,0.64,0
0.01276,-0.0023935,0.037305,-0.0028473,0.010337,-0.00089138,0,0,0.035058,-0.01714,0,-0.0023176,0,0,0,0.037325,-0.0028671,0.010337,-1.2711,0.014932,0.035483,1.2697e-06,0.42,0.64,0
0.013111,-0.0024445,0.037358,-0.0032229,0.01024,-0.00088145,0,0,0.035252,-0.017502,0,-0.0022918,0,0,0,0.037377,-0.003242,0.01024,-1.2437,0.014792,0.035833,1.2853e-06,0.43,0.64,0
0.013465,-0.0024952,0.03741,-0.0035981,0.010144,-0.00087075,0,0,0.035447,-0.017864,0,-0.0022639,0,0,0,0.037429,-0.0036166,0.010144,-1.2159,0.014652,0.036184,1.3007e-06,0.44,0.64,0
0.01382,-0.0025455,0.037464,-0.0039728,0.010047,-0.00085885,0,0,0.035641,-0.018226,0,-0.002233,0,0,0,0.037482,-0.0039906,0.010047,-1.1869,0.014513,0.036535,1.3159e-06,0.45,0.64,0
0.014177,-0.0025954,0.037518,-0.0043466,0.0099513,-0.00084531,0,0,0.035836,-0.018587,0,-0.0021978,0,0,0,0.037534,-0.0043637,0.0099513,-1.1563,0.014374,0.036886,1.3308e-06,0.46,0.64,0
0.014537,-0.0026448,0.037571,-0.004719,0.0098557,-0.00082972,0,0,0.03603,-0.018947,0,-0.0021573,0,0,0,0.037587,-0.0047352,0.0098557,-1.1236,0.014236,0.037237,1.3455e-06,0.47,0.64,0
0.014898,-0.0026937,0.037625,-0.0050895,0.0097606,-0.00081168,0,0,0.036223,-0.019305,0,-0.0021104,0,0,0,0.03764,-0.0051049,0.0097606,-1.0882,0.014099,0.037586,1.3598e-06,0.48,0.64,0
0.015261,-0.0027421,0.037678,-0.0054576,0.0096661,-0.00079083,0,0,0.036415,-0.019661,0,-0.0020562,0,0,0,0.037692,-0.005472,0.0096661,-1.05,0.013962,0.037933,1.3737e-06,0.49,0.64,0
0.015626,-0.0027898,0.037715,-0.00033106,0.011215,-0.00076888,0,0,0.050644,-0.020013,0,-0.0029828,0,0,0,0.037731,-0.00034684,0.011215,-1.1787,0.0162,0.033882,1.2012e-06,0.5,0.64,0
0.016274,-0.0028565,0.037782,0.0049305,0.012814,-0.00074972,0,0,0.064918,-0.020497,0,-0.0038986,0,0,0,0.037799,0.0049134,0.012814,-1.3067,0.018509,0.029733,1.0356e-06,0.51,0.64,0
0.016925,-0.002922,0.037833,0.0046908,0.012757,-0.00073099,0,0,0.065197,-0.020972,0,-0.0038012,0,0,0,0.037849,0.0046747,0.012757,-1.2629,0.018427,0.029962,1.05e-06,0.52,0.64,0
0.017578,-0.0029864,0.037882,0.0044553,0.012701,-0.00071098,0,0,0.06547,-0.021439,0,-0.0036971,0,0,0,0.037897,0.0044402,0.012701,-1.2179,0.018346,0.030187,1.0641e-06,0.53,0.64,0
0.018234,-0.0030495,0.03793,0.0042241,0.012646,-0.00068969,0,0,0.065738,-0.021898,0,-0.0035864,0,0,0,0.037944,0.00421,0.012646,-1.1717,0.018267,0.030407,1.0779e-06,0.54,0.64,0
0.018893,-0.0031112,0.037977,0.0039977,0.012592,-0.00066714,0,0,0.065999,-0.022346,0,-0.0034691,0,0,0,0.03799,0.0039846,0.012592,-1.1244,0.018189,0.030623,1.0914e-06,0.55,0.64,0
0.019554,-0.0031715,0.038021,0.0037763,0.012539,-0.0006434,0,0,0.066254,-0.022784,0,-0.0033457,0,0,0,0.038034,0.0037642,0.012539,-1.076,0.018112,0.030833,1.1045e-06,0.56,0.64,0
0.020218,-0.0032304,0.038065,0.0035602,0.012487,-0.00061854,0,0,0.0665,-0.023211,0,-0.0032164,0,0,0,0.038076,0.0035491,0.012487,-1.0267,0.018037,0.031038,1.1172e-06,0.57,0.64,0
0.020884,-0.0032878,0.038106,0.0033498,0.012437,-0.00059269,0,0,0.066739,-0.023626,0,-0.003082,0,0,0,0.038116,0.0033397,0.012437,-0.97668,0.017964,0.031237,1.1294e-06,0.58,0.64,0
0.021553,-0.0033436,0.038144,0.0031452,0.012387,-0.00056596,0,0,0.06697,-0.024029,0,-0.002943,0,0,0,0.038154,0.003136,0.012387,-0.92618,0.017892,0.03143,1.1413e-06,0.59,0.64,0
0.022224,-0.0033978,0.038181,0.0029466,0.012338,-0.00053849,0,0,0.067192,-0.024418,0,-0.0028002,0,0,0,0.03819,0.0029384,0.012338,-0.87539,0.017822,0.031617,1.1526e-06,0.6,0.64,0
0.022897,-0.0034503,0.038216,0.0027543,0.012291,-0.00051046,0,0,0.067404,-0.024796,0,-0.0026544,0,0,0,0.038223,0.002747,0.012291,-0.82453,0.017754,0.031797,1.1635e-06,0.61,0.64,0
0.023572,-0.0035012,0.038248,0.0025684,0.012245,-0.00048202,0,0,0.067608,-0.025159,0,-0.0025065,0,0,0,0.038255,0.0025619,0.012245,-0.77386,0.017687,0.03197,1.1739e-06,0.62,0.64,0
0.024249,-0.0035504,0.038278,0.0023891,0.0122,-0.00045334,0,0,0.067803,-0.025509,0,-0.0023574,0,0,0,0.038284,0.0023834,0.0122,-0.72359,0.017622,0.032137,1.1838e-06,0.63,0.64,0
0.024928,-0.0035978,0.038306,0.0022163,0.012157,-0.0004246,0,0,0.067988,-0.025845,0,-0.0022079,0,0,0,0.038311,0.0022113,0.012157,-0.67397,0.017559,0.032296,1.1931e-06,0.64,0.64,0
0.025608,-0.0036435,0.038331,0.0020502,0.012114,-0.00039596,0,0,0.068163,-0.026167,0,-0.002059,0,0,0,0.038335,0.0020459,0.012114,-0.62522,0.017499,0.032449,1.202e-06,0.65,0.64,0
0.026291,-0.0036875,0.038354,0.0018908,0.012073,-0.00036759,0,0,0.06833,-0.026475,0,-0.0019115,0,0,0,0.038358,0.0018871,0.012073,-0.57753,0.017439,0.032594,1.2104e-06,0.66,0.64,0
0.026975,-0.0037297,0.038375,0.001738,0.012034,-0.00033965,0,0,0.068487,-0.026769,0,-0.0017662,0,0,0,0.038378,0.0017349,0.012034,-0.53112,0.017382,0.032732,1.2183e-06,0.67,0.64,0
0.027661,-0.0037702,0.038393,0.0015919,0.011996,-0.00031229,0,0,0.068635,-0.02705,0,-0.0016239,0,0,0,0.038396,0.0015892,0.011996,-0.48614,0.017327,0.032864,1.2257e-06,0.68,0.64,0
0.028348,-0.0038089,0.03841,0.0014523,0.011959,-0.00028563,0,0,0.068774,-0.027317,0,-0.0014853,0,0,0,0.038412,0.0014501,0.011959,-0.44278,0.017274,0.032988,1.2327e-06,0.69,0.64,0
0.029036,-0.0038459,0.038425,0.0013192,0.011923,-0.00025981,0,0,0.068904,-0.02757,0,-0.001351,0,0,0,0.038426,0.0013174,0.011923,-0.40116,0.017222,0.033106,1.2391e-06,0.7,0.64,0
0.029726,-0.0038812,0.038437,0.0011925,0.011889,-0.00023494,0,0,0.069026,-0.027811,0,-0.0012217,0,0,0,0.038439,0.001191,0.011889,-0.3614,0.017173,0.033217,1.2452e-06,0.71,0.64,0
0.030417,-0.0039148,0.038448,0.001072,0.011856,-0.00021111,0,0,0.069139,-0.028038,0,-0.0010977,0,0,0,0.038449,0.0010709,0.011856,-0.3236,0.017125,0.033322,1.2508e-06,0.72,0.64,0
0.031109,-0.0039468,0.038457,0.00095774,0.011824,-0.0001884,0,0,0.069245,-0.028254,0,-0.00097968,0,0,0,0.038458,0.00095679,0.011824,-0.28785,0.01708,0.03342,1.256e-06,0.73,0.64,0
0.031802,-0.0039772,0.038465,0.00084941,0.011794,-0.00016689,0,0,0.069343,-0.028456,0,-0.00086781,0,0,0,0.038465,0.00084867,0.011794,-0.2542,0.017036,0.033513,1.2608e-06,0.74,0.64,0
0.032495,-0.0040059,0.038471,0.00074692,0.011765,-0.00014662,0,0,0.069434,-0.028648,0,-0.00076242,0,0,0,0.038471,0.00074635,0.011765,-0.22268,0.016994,0.033599,1.2652e-06,0.75,0.64,0
0.03319,-0.0040331,0.038476,0.00065011,0.011738,-0.00012764,0,0,0.069518,-0.028828,0,-0.00066374,0,0,0,0.038476,0.00064968,0.011738,-0.19334,0.016954,0.03368,1.2692e-06,0.76,0.64,0
0.033886,-0.0040588,0.038479,0.00055881,0.011711,-0.00010998,0,0,0.069596,-0.028997,0,-0.00057189,0,0,0,0.038479,0.00055849,0.011711,-0.16617,0.016916,0.033756,1.273e-06,0.77,0.64,0
0.034582,-0.004083,0.038482,0.00047286,0.011686,-9.3647e-05,0,0,0.069667,-0.029155,0,-0.00048696,0,0,0,0.038482,0.00047263,0.011686,-0.14117,0.01688,0.033826,1.2764e-06,0.78,0.64,0
0.035279,-0.0041058,0.038483,0.00039209,0.011662,-7.8649e-05,0,0,0.069733,-0.029303,0,-0.00040898,0,0,0,0.038483,0.00039192,0.011662,-0.1183,0.016846,0.033892,1.2795e-06,0.79,0.64,0
0.035977,-0.0041272,0.038484,0.00031633,0.01164,-6.498e-05,0,0,0.069793,-0.029441,0,-0.0003379,0,0,0,0.038484,0.00031622,0.01164,-0.097546,0.016813,0.033953,1.2823e-06,0.8,0.64,0
0.036675,-0.0041472,0.038483,0.00024542,0.011619,-5.2623e-05,0,0,0.069848,-0.02957,0,-0.00027364,0,0,0,0.038483,0.00024535,0.011619,-0.07885,0.016782,0.034009,1.2849e-06,0.81,0.64,0
0.037374,-0.004166,0.038483,0.0001792,0.011598,-4.1552e-05,0,0,0.069899,-0.02969,0,-0.00021607,0,0,0,0.038483,0.00017916,0.011598,-0.062155,0.016754,0.034061,1.2872e-06,0.82,0.64,0
0.038073,-0.0041834,0.038481,0.00011752,0.01158,-3.1735e-05,0,0,0.069944,-0.029802,0,-0.00016502,0,0,0,0.038481,0.00011749,0.01158,-0.047395,0.016726,0.034109,1.2893e-06,0.83,0.64,0
0.038773,-0.0041996,0.038479,6.0215e-05,0.011562,-2.3131e-05,0,0,0.069986,-0.029904,0,-0.00012028,0,0,0,0.038479,6.0201e-05,0.011562,-0.034495,0.016701,0.034153,1.2912e-06,0.84,0.64,0
0.039473,-0.0042146,0.038477,7.146e-06,0.011545,-1.5693e-05,0,0,0.070023,-0.029999,0,-8.1602e-05,0,0,0,0.038477,7.1396e-06,0.011545,-0.023372,0.016677,0.034194,1.2929e-06,0.85,0.64,0
0.040173,-0.0042285,0.038475,-4.1826e-05,0.01153,-9.3689e-06,0,0,0.070057,-0.030087,0,-4.8718e-05,0,0,0,0.038475,-4.1828e-05,0.01153,-0.013937,0.016654,0.034231,1.2945e-06,0.86,0.64,0
0.040874,-0.0042412,0.038472,-8.6831e-05,0.011516,-4.1017e-06,0,0,0.070087,-0.030166,0,-2.1329e-05,0,0,0,0.038472,-8.6832e-05,0.011516,-0.0060948,0.016634,0.034264,1.2958e-06,0.87,0.64,0
0.041575,-0.0042529,0.03847,-0.00012799,0.011503,1.7042e-07,0,0,0.070115,-0.030239,0,8.8618e-07,0,0,0,0.03847,-0.00012799,0.011503,0.00025298,0.016615,0.034295,1.297e-06,0.88,0.64,0
0.042276,-0.0042635,0.038467,-0.00016543,0.01149,3.5129e-06,0,0,0.070139,-0.030305,0,1.8267e-05,0,0,0,0.038467,-0.00016543,0.01149,0.0052099,0.016597,0.034322,1.2981e-06,0.89,0.64,0
0.042978,-0.004273,0.038464,-0.00019925,0.01148,5.9941e-06,0,0,0.07016,-0.030365,0,3.117e-05,0,0,0,0.038464,-0.00019925,0.01148,0.0088828,0.016581,0.034347,1.299e-06,0.9,0.64,0
0.043679,-0.0042816,0.038462,-0.00022955,0.01147,7.6855e-06,0,0,0.070179,-0.030418,0,3.9965e-05,0,0,0,0.038462,-0.00022955,0.01147,0.011381,0.016567,0.034369,1.2998e-06,0.91,0.64,0
0.044381,-0.0042892,0.038459,-0.00025641,0.011461,8.6606e-06,0,0,0.070195,-0.030465,0,4.5035e-05,0,0,0,0.038459,-0.00025641,0.011461,0.012817,0.016554,0.034388,1.3005e-06,0.92,0.64,0
0.045083,-0.0042959,0.038457,-0.00027993,0.011453,8.9948e-06,0,0,0.07021,-0.030506,0,4.6773e-05,0,0,0,0.038457,-0.00027993,0.011453,0.013304,0.016543,0.034405,1.3011e-06,0.93,0.64,0
0.045785,-0.0043016,0.038455,-0.00030016,0.011446,8.7653e-06,0,0,0.070222,-0.030541,0,4.5579e-05,0,0,0,0.038455,-0.00030016,0.011446,0.012959,0.016534,0.034419,1.3016e-06,0.94,0.64,0
0.046488,-0.0043064,0.038453,-0.00031718,0.011441,8.0503e-06,0,0,0.070232,-0.030571,0,4.1862e-05,0,0,0,0.038453,-0.00031718,0.011441,0.011897,0.016525,0.034431,1.3021e-06,0.95,0.64,0
0.04719,-0.0043103,0.038451,-0.00033103,0.011436,6.9294e-06,0,0,0.07024,-0.030595,0,3.6033e-05,0,0,0,0.038451,-0.00033103,0.011436,0.010237,0.016519,0.034441,1.3024e-06,0.96,0.64,0
0.047892,-0.0043133,0.03845,-0.00034176,0.011432,5.4828e-06,0,0,0.070246,-0.030613,0,2.8511e-05,0,0,0,0.03845,-0.00034176,0.011432,0.0080981,0.016514,0.034448,1.3026e-06,0.97,0.64,0
0.048595,-0.0043155,0.038449,-0.00034939,0.01143,3.7914e-06,0,0,0.07025,-0.030626,0,1.9716e-05,0,0,0,0.038449,-0.00034939,0.01143,0.005599,0.01651,0.034454,1.3028e-06,0.98,0.64,0
0.049298,-0.0043168,0.038449,-0.00035397,0.011428,1.9366e-06,0,0,0.070253,-0.030634,0,1.007e-05,0,0,0,0.038449,-0.00035397,0.011428,0.0028596,0.016508,0.034457,1.3029e-06,0.99,0.64,0
0.05,-0.0043172,0.038448,-0.00035549,0.011428,-8.2691e-06,0,0,0.070254,-0.030637,0,-4.2999e-05,0,0,0,0.038448,-0.00035549,0.011428,-0.01221,0.016507,0.034458,1.303e-06,1,0.64,0
0,0,0.033355,0.014295,0.014295,-0.0022525,0,0,0.024778,5.421e-20,0,-0.0058565,0,0,0,0.033618,0.014032,0.014295,-6.6491,0.020648,0.019455,3.7798e-07,0,0.65,0
0.00024778,-5.8565e-05,0.033316,0.013813,0.014139,-0.0022548,0,0,0.024931,-0.00042371,0,-0.0058626,0,0,0,0.033573,0.013555,0.014139,-6.5097,0.020422,0.019733,3.9346e-07,0.01,0.65,0
0.00049861,-0.00011851,0.033479,0.013406,0.014065,-0.0022792,0,0,0.025238,-0.00085787,0,-0.0059258,0,0,0,0.033735,0.01315,0.014065,-6.3968,0.020317,0.020143,4.1682e-07,0.02,0.65,0
0.00075254,-0.00017971,0.033644,0.012989,0.01399,-0.0022962,0,0,0.025551,-0.0013012,0,-0.0059701,0,0,0,0.033896,0.012737,0.01399,-6.2676,0.020208,0.020562,4.4088e-07,0.03,0.65,0
0.0010096,-0.00024201,0.03381,0.012564,0.013912,-0.0023059,0,0,0.025867,-0.0017522,0,-0.0059952,0,0,0,0.034057,0.012317,0.013912,-6.1236,0.020095,0.020988,4.6558e-07,0.04,0.65,0
0.0012699,-0.00030529,0.033975,0.012133,0.013832,-0.002308,0,0,0.026185,-0.0022095,0,-0.0060009,0,0,0,0.034216,0.011891,0.013832,-5.9666,0.01998,0.02142,4.9082e-07,0.05,0.65,0
0.0015333,-0.0003694,0.034139,0.011695,0.01375,-0.0023028,0,0,0.026505,-0.0026717,0,-0.0059873,0,0,0,0.034373,0.011461,0.01375,-5.7982,0.019861,0.021857,5.1652e-07,0.06,0.65,0
0.0018,-0.0004342,0.034301,0.011253,0.013666,-0.0022903,0,0,0.026826,-0.0031374,0,-0.0059548,0,0,0,0.034527,0.011028,0.013666,-5.6202,0.01974,0.022297,5.4256e-07,0.07,0.65,0
0.0020698,-0.00049955,0.034462,0.010808,0.013581,-0.0022707,0,0,0.027145,-0.0036051,0,-0.0059039,0,0,0,0.034678,0.010592,0.013581,-5.4342,0.019617,0.022739,5.6886e-07,0.08,0.65,0
0.0023429,-0.00056532,0.034619,0.01036,0.013494,-0.0022445,0,0,0.027463,-0.0040736,0,-0.0058356,0,0,0,0.034825,0.010154,0.013494,-5.2419,0.019491,0.023182,5.9532e-07,0.09,0.65,0
0.0026191,-0.00063136,0.034772,0.0099116,0.013405,-0.0022119,0,0,0.027777,-0.0045417,0,-0.0057509,0,0,0,0.034967,0.0097163,0.013405,-5.0449,0.019363,0.023624,6.2184e-07,0.1,0.65,0
0.0028984,-0.00069757,0.034922,0.0094631,0.013315,-0.0021735,0,0,0.028088,-0.005008,0,-0.0056511,0,0,0,0.035106,0.0092788,0.013315,-4.8449,0.019233,0.024064,6.4832e-07,0.11,0.65,0
0.0031808,-0.00076382,0.035066,0.0090156,0.013225,-0.0021298,0,0,0.028394,-0.0054716,0,-0.0055375,0,0,0,0.035239,0.0088426,0.013225,-4.6433,0.019102,0.024501,6.7468e-07,0.12,0.65,0
0.0034663,-0.00083001,0.035205,0.0085699,0.013133,-0.0020815,0,0,0.028695,-0.0059315,0,-0.0054118,0,0,0,0.035367,0.0084083,0.013133,-4.4415,0.018969,0.024935,7.0084e-07,0.13,0.65,0
0.0037547,-0.00089603,0.035339,0.0081269,0.01304,-0.0020291,0,0,0.028989,-0.0063868,0,-0.0052757,0,0,0,0.03549,0.0079765,0.01304,-4.241,0.018835,0.025364,7.2671e-07,0.14,0.65,0
0.0040461,-0.0009618,0.035467,0.0076873,0.012946,-0.0019734,0,0,0.029277,-0.0068369,0,-0.0051308,0,0,0,0.035607,0.0075478,0.012946,-4.043,0.0187,0.025787,7.5224e-07,0.15,0.65,0
0.0043403,-0.0010272,0.03559,0.0072515,0.012852,-0.001915,0,0,0.029558,-0.0072811,0,-0.004979,0,0,0,0.035718,0.0071226,0.012852,-3.8485,0.018564,0.026205,7.7735e-07,0.16,0.65,0
0.0046373,-0.0010923,0.035706,0.0068199,0.012758,-0.0018547,0,0,0.029832,-0.007719,0,-0.0048221,0,0,0,0.035824,0.0067013,0.012758,-3.6587,0.018428,0.026617,8.02e-07,0.17,0.65,0
0.0049369,-0.0011569,0.035816,0.006393,0.012663,-0.001793,0,0,0.030099,-0.0081504,0,-0.0046619,0,0,0,0.035924,0.0062842,0.012663,-3.4745,0.01829,0.027022,8.2614e-07,0.18,0.65,0
0.0052392,-0.0012209,0.035919,0.005971,0.012567,-0.0017308,0,0,0.030358,-0.0085749,0,-0.0045,0,0,0,0.036019,0.0058713,0.012567,-3.2966,0.018152,0.02742,8.4975e-07,0.19,0.65,0
0.0055441,-0.0012845,0.036017,0.005554,0.012471,-0.0016686,0,0,0.03061,-0.0089926,0,-0.0043383,0,0,0,0.036108,0.0054628,0.012471,-3.1258,0.018014,0.027812,8.7281e-07,0.2,0.65,0
0.0058514,-0.0013475,0.036109,0.0051419,0.012375,-0.001607,0,0,0.030854,-0.0094034,0,-0.0041783,0,0,0,0.036192,0.0050587,0.012375,-2.9627,0.017875,0.028196,8.9529e-07,0.21,0.65,0
0.0061612,-0.0014099,0.036195,0.0047348,0.012279,-0.0015467,0,0,0.031091,-0.0098076,0,-0.0040214,0,0,0,0.036271,0.004659,0.012279,-2.8078,0.017736,0.028575,9.1719e-07,0.22,0.65,0
0.0064733,-0.0014718,0.036276,0.0043325,0.012183,-0.0014881,0,0,0.031322,-0.010205,0,-0.003869,0,0,0,0.036346,0.0042633,0.012183,-2.6614,0.017597,0.028947,9.3851e-07,0.23,0.65,0
0.0067876,-0.0015331,0.036352,0.0039348,0.012086,-0.0014317,0,0,0.031546,-0.010597,0,-0.0037223,0,0,0,0.036415,0.0038717,0.012086,-2.5238,0.017458,0.029313,9.5927e-07,0.24,0.65,0
0.0071042,-0.0015938,0.036423,0.0035414,0.01199,-0.0013778,0,0,0.031764,-0.010982,0,-0.0035823,0,0,0,0.036481,0.0034838,0.01199,-2.3952,0.017318,0.029673,9.7948e-07,0.25,0.65,0
0.0074229,-0.001654,0.03649,0.003152,0.011893,-0.0013269,0,0,0.031977,-0.011363,0,-0.0034501,0,0,0,0.036543,0.0030993,0.011893,-2.2757,0.017178,0.030029,9.9917e-07,0.26,0.65,0
0.0077437,-0.0017136,0.036553,0.0027663,0.011796,-0.0012793,0,0,0.032184,-0.011738,0,-0.0033261,0,0,0,0.036602,0.0027179,0.011796,-2.1653,0.017038,0.03038,1.0184e-06,0.27,0.65,0
0.0080666,-0.0017728,0.036612,0.0023837,0.011699,-0.001235,0,0,0.032388,-0.01211,0,-0.0032111,0,0,0,0.036657,0.0023392,0.011699,-2.0638,0.016898,0.030726,1.0371e-06,0.28,0.65,0
0.0083915,-0.0018315,0.036669,0.0020039,0.011602,-0.0011944,0,0,0.032587,-0.012477,0,-0.0031054,0,0,0,0.03671,0.0019628,0.011602,-1.971,0.016758,0.03107,1.0554e-06,0.29,0.65,0
0.0087183,-0.0018897,0.036722,0.0016265,0.011505,-0.0011574,0,0,0.032783,-0.012842,0,-0.0030092,0,0,0,0.03676,0.0015884,0.011505,-1.8868,0.016618,0.031411,1.0733e-06,0.3,0.65,0
0.0090471,-0.0019476,0.036774,0.001251,0.011407,-0.0011241,0,0,0.032976,-0.013203,0,-0.0029226,0,0,0,0.036809,0.0012155,0.011407,-1.8106,0.016477,0.031749,1.0908e-06,0.31,0.65,0
0.0093779,-0.0020051,0.036823,0.00087693,0.01131,-0.0010944,0,0,0.033167,-0.013563,0,-0.0028453,0,0,0,0.036857,0.00084364,0.01131,-1.7422,0.016337,0.032086,1.108e-06,0.32,0.65,0
0.0097105,-0.0020622,0.036871,0.00050391,0.011213,-0.0010681,0,0,0.033356,-0.013921,0,-0.0027771,0,0,0,0.036903,0.00047257,0.011213,-1.6809,0.016196,0.032423,1.125e-06,0.33,0.65,0
0.010045,-0.0021191,0.036918,0.00013155,0.011115,-0.0010452,0,0,0.033545,-0.014278,0,-0.0027176,0,0,0,0.036948,0.00010187,0.011115,-1.6262,0.016055,0.032759,1.1417e-06,0.34,0.65,0
0.010381,-0.0021756,0.036965,-0.00024054,0.011017,-0.0010254,0,0,0.033732,-0.014635,0,-0.002666,0,0,0,0.036993,-0.00026878,0.011017,-1.5775,0.015914,0.033095,1.1582e-06,0.35,0.65,0
0.01072,-0.0022319,0.037011,-0.00061266,0.01092,-0.0010083,0,0,0.033919,-0.014992,0,-0.0026216,0,0,0,0.037038,-0.00063966,0.01092,-1.534,0.015773,0.033432,1.1745e-06,0.36,0.65,0
0.01106,-0.002288,0.037058,-0.00098507,0.010822,-0.00099369,0,0,0.034107,-0.015349,0,-0.0025836,0,0,0,0.037084,-0.001011,0.010822,-1.4952,0.015631,0.033771,1.1906e-06,0.37,0.65,0
0.011402,-0.0023439,0.037104,-0.001358,0.010724,-0.00098112,0,0,0.034294,-0.015706,0,-0.0025509,0,0,0,0.037129,-0.001383,0.010724,-1.4603,0.01549,0.03411,1.2066e-06,0.38,0.65,0
0.011746,-0.0023995,0.037151,-0.0017316,0.010626,-0.00097016,0,0,0.034483,-0.016065,0,-0.0025224,0,0,0,0.037175,-0.0017558,0.010626,-1.4284,0.015348,0.034452,1.2225e-06,0.39,0.65,0
0.012091,-0.0024549,0.037199,-0.0021058,0.010528,-0.00096037,0,0,0.034672,-0.016424,0,-0.002497,0,0,0,0.037222,-0.0021293,0.010528,-1.3988,0.015207,0.034795,1.2382e-06,0.4,0.65,0
0.012439,-0.00251,0.037247,-0.0024809,0.01043,-0.00095126,0,0,0.034863,-0.016784,0,-0.0024733,0,0,0,0.03727,-0.0025036,0.01043,-1.3708,0.015066,0.03514,1.2539e-06,0.41,0.65,0
0.012789,-0.0025649,0.037297,-0.0028565,0.010332,-0.00094233,0,0,0.035054,-0.017145,0,-0.0024501,0,0,0,0.037319,-0.0028786,0.010332,-1.3437,0.014924,0.035487,1.2694e-06,0.42,0.65,0
0.01314,-0.0026195,0.037347,-0.0032326,0.010234,-0.00093309,0,0,0.035246,-0.017507,0,-0.002426,0,0,0,0.037368,-0.003254,0.010234,-1.3165,0.014783,0.035835,1.2848e-06,0.43,0.65,0
0.013494,-0.0026738,0.037398,-0.0036089,0.010137,-0.00092301,0,0,0.035439,-0.017869,0,-0.0023998,0,0,0,0.037418,-0.0036296,0.010137,-1.2888,0.014642,0.036185,1.3e-06,0.44,0.65,0
0.013849,-0.0027278,0.037449,-0.0039851,0.010039,-0.00091161,0,0,0.035633,-0.018232,0,-0.0023702,0,0,0,0.037469,-0.0040051,0.010039,-1.2598,0.014501,0.036536,1.315e-06,0.45,0.65,0
0.014206,-0.0027813,0.037501,-0.0043608,0.0099422,-0.0008984,0,0,0.035827,-0.018594,0,-0.0023358,0,0,0,0.037521,-0.0043801,0.0099422,-1.2289,0.014361,0.036887,1.3298e-06,0.46,0.65,0
0.014566,-0.0028343,0.037554,-0.0047356,0.0098455,-0.00088292,0,0,0.036021,-0.018955,0,-0.0022956,0,0,0,0.037572,-0.004754,0.0098455,-1.1955,0.014221,0.037239,1.3443e-06,0.47,0.65,0
0.014927,-0.0028868,0.037606,-0.0051088,0.0097492,-0.00086475,0,0,0.036214,-0.019315,0,-0.0022484,0,0,0,0.037624,-0.0051264,0.0097492,-1.1593,0.014082,0.037589,1.3586e-06,0.48,0.65,0
0.01529,-0.0029388,0.037659,-0.0054801,0.0096536,-0.00084348,0,0,0.036407,-0.019674,0,-0.002193,0,0,0,0.037675,-0.0054966,0.0096536,-1.1197,0.013944,0.037938,1.3724e-06,0.49,0.65,0
0.015655,-0.00299,0.037695,-0.00035282,0.011203,-0.00082084,0,0,0.050628,-0.020029,0,-0.0031846,0,0,0,0.037713,-0.00037081,0.011203,-1.2582,0.016182,0.033885,1.2002e-06,0.5,0.65,0
0.016302,-0.0030615,0.037762,0.0049119,0.012802,-0.00080077,0,0,0.064895,-0.020515,0,-0.004164,0,0,0,0.037781,0.0048924,0.012802,-1.3956,0.018492,0.029734,1.0349e-06,0.51,0.65,0
0.016953,-0.0031319,0.037812,0.0046709,0.012745,-0.00078095,0,0,0.065175,-0.020992,0,-0.0040609,0,0,0,0.037831,0.0046525,0.012745,-1.3491,0.018409,0.029963,1.0493e-06,0.52,0.65,0
0.017606,-0.0032009,0.037861,0.0044339,0.012689,-0.00075967,0,0,0.065449,-0.021462,0,-0.0039503,0,0,0,0.037879,0.0044167,0.012689,-1.3012,0.018328,0.030188,1.0634e-06,0.53,0.65,0
0.018262,-0.0032686,0.037909,0.0042014,0.012633,-0.00073692,0,0,0.065717,-0.021922,0,-0.003832,0,0,0,0.037925,0.0041853,0.012633,-1.2518,0.018248,0.030409,1.0772e-06,0.54,0.65,0
0.01892,-0.0033348,0.037955,0.0039736,0.012579,-0.00071275,0,0,0.065979,-0.022373,0,-0.0037063,0,0,0,0.03797,0.0039587,0.012579,-1.201,0.018169,0.030625,1.0907e-06,0.55,0.65,0
0.019581,-0.0033995,0.038,0.003751,0.012525,-0.00068722,0,0,0.066234,-0.022813,0,-0.0035735,0,0,0,0.038013,0.0037372,0.012525,-1.149,0.018092,0.030836,1.1038e-06,0.56,0.65,0
0.020245,-0.0034627,0.038042,0.0035338,0.012473,-0.00066043,0,0,0.06648,-0.023241,0,-0.0034342,0,0,0,0.038055,0.0035212,0.012473,-1.096,0.018016,0.031041,1.1164e-06,0.57,0.65,0
0.020911,-0.0035242,0.038083,0.0033223,0.012422,-0.00063251,0,0,0.066719,-0.023658,0,-0.0032891,0,0,0,0.038094,0.0033108,0.012422,-1.0421,0.017942,0.031241,1.1286e-06,0.58,0.65,0
0.021579,-0.003584,0.038121,0.0031169,0.012371,-0.00060361,0,0,0.066949,-0.024062,0,-0.0031388,0,0,0,0.038132,0.0031065,0.012371,-0.98761,0.01787,0.031434,1.1404e-06,0.59,0.65,0
0.02225,-0.0036421,0.038157,0.0029176,0.012323,-0.0005739,0,0,0.067171,-0.024453,0,-0.0029843,0,0,0,0.038167,0.0029083,0.012323,-0.93276,0.017799,0.031621,1.1517e-06,0.6,0.65,0
0.022923,-0.0036984,0.038191,0.0027248,0.012275,-0.00054355,0,0,0.067383,-0.02483,0,-0.0028265,0,0,0,0.0382,0.0027165,0.012275,-0.87783,0.01773,0.0318,1.1625e-06,0.61,0.65,0
0.023598,-0.003753,0.038223,0.0025386,0.012228,-0.00051276,0,0,0.067586,-0.025194,0,-0.0026664,0,0,0,0.03823,0.0025313,0.012228,-0.82308,0.017663,0.031973,1.1728e-06,0.62,0.65,0
0.024274,-0.0038056,0.038252,0.0023591,0.012183,-0.00048171,0,0,0.067779,-0.025543,0,-0.0025049,0,0,0,0.038259,0.0023526,0.012183,-0.76877,0.017598,0.032139,1.1826e-06,0.63,0.65,0
0.024953,-0.0038564,0.038279,0.0021864,0.01214,-0.0004506,0,0,0.067962,-0.025878,0,-0.0023431,0,0,0,0.038284,0.0021807,0.01214,-0.71517,0.017535,0.032297,1.1918e-06,0.64,0.65,0
0.025634,-0.0039054,0.038303,0.0020205,0.012097,-0.00041963,0,0,0.068136,-0.026199,0,-0.0021821,0,0,0,0.038308,0.0020156,0.012097,-0.66253,0.017474,0.032448,1.2006e-06,0.65,0.65,0
0.026316,-0.0039524,0.038325,0.0018614,0.012056,-0.00038896,0,0,0.0683,-0.026506,0,-0.0020226,0,0,0,0.038329,0.0018573,0.012056,-0.61108,0.017414,0.032592,1.2088e-06,0.66,0.65,0
0.027,-0.0039975,0.038345,0.0017092,0.012016,-0.00035878,0,0,0.068455,-0.026798,0,-0.0018657,0,0,0,0.038349,0.0017057,0.012016,-0.56103,0.017357,0.032729,1.2166e-06,0.67,0.65,0
0.027685,-0.0040408,0.038363,0.0015637,0.011978,-0.00032925,0,0,0.0686,-0.027077,0,-0.0017121,0,0,0,0.038365,0.0015608,0.011978,-0.51259,0.017301,0.032859,1.2238e-06,0.68,0.65,0
0.028372,-0.0040822,0.038378,0.001425,0.011941,-0.00030052,0,0,0.068736,-0.027341,0,-0.0015627,0,0,0,0.03838,0.0014226,0.011941,-0.46592,0.017248,0.032982,1.2306e-06,0.69,0.65,0
0.02906,-0.0041217,0.038391,0.0012928,0.011905,-0.00027273,0,0,0.068864,-0.027592,0,-0.0014182,0,0,0,0.038393,0.0012909,0.011905,-0.42118,0.017196,0.033097,1.2369e-06,0.7,0.65,0
0.029749,-0.0041594,0.038403,0.0011672,0.011871,-0.00024599,0,0,0.068983,-0.02783,0,-0.0012791,0,0,0,0.038404,0.0011656,0.011871,-0.37849,0.017147,0.033207,1.2428e-06,0.71,0.65,0
0.030439,-0.0041953,0.038412,0.0010479,0.011838,-0.0002204,0,0,0.069093,-0.028054,0,-0.0011461,0,0,0,0.038414,0.0010466,0.011838,-0.33796,0.0171,0.033309,1.2482e-06,0.72,0.65,0
0.031131,-0.0042294,0.03842,0.00093482,0.011806,-0.00019606,0,0,0.069196,-0.028266,0,-0.0010195,0,0,0,0.038421,0.00093379,0.011806,-0.29967,0.017054,0.033406,1.2532e-06,0.73,0.65,0
0.031823,-0.0042618,0.038427,0.00082779,0.011776,-0.00017304,0,0,0.069291,-0.028466,0,-0.0008998,0,0,0,0.038428,0.00082699,0.011776,-0.26368,0.01701,0.033496,1.2578e-06,0.74,0.65,0
0.032517,-0.0042924,0.038432,0.00072663,0.011747,-0.00015139,0,0,0.069379,-0.028654,0,-0.00078721,0,0,0,0.038432,0.00072603,0.011747,-0.23004,0.016969,0.033581,1.2621e-06,0.75,0.65,0
0.033211,-0.0043214,0.038435,0.00063119,0.01172,-0.00013114,0,0,0.06946,-0.028831,0,-0.00068195,0,0,0,0.038436,0.00063073,0.01172,-0.19876,0.016929,0.03366,1.2659e-06,0.76,0.65,0
0.033906,-0.0043488,0.038438,0.00054128,0.011694,-0.00011234,0,0,0.069534,-0.028996,0,-0.00058419,0,0,0,0.038438,0.00054095,0.011694,-0.16985,0.016891,0.033733,1.2695e-06,0.77,0.65,0
0.034602,-0.0043746,0.038439,0.00045673,0.011669,-9.4994e-05,0,0,0.069603,-0.029151,0,-0.00049397,0,0,0,0.038439,0.00045649,0.011669,-0.1433,0.016855,0.033801,1.2728e-06,0.78,0.65,0
0.035298,-0.0043988,0.03844,0.00037735,0.011645,-7.9099e-05,0,0,0.069666,-0.029296,0,-0.00041131,0,0,0,0.03844,0.00037719,0.011645,-0.11907,0.016821,0.033865,1.2757e-06,0.79,0.65,0
0.035995,-0.0044216,0.038439,0.00030298,0.011623,-6.4647e-05,0,0,0.069723,-0.029431,0,-0.00033616,0,0,0,0.038439,0.00030287,0.011623,-0.097125,0.016788,0.033924,1.2784e-06,0.8,0.65,0
0.036692,-0.0044429,0.038438,0.00023343,0.011601,-5.1617e-05,0,0,0.069775,-0.029557,0,-0.00026841,0,0,0,0.038438,0.00023336,0.011601,-0.077411,0.016758,0.033978,1.2808e-06,0.81,0.65,0
0.03739,-0.0044628,0.038436,0.00016853,0.011581,-3.9981e-05,0,0,0.069823,-0.029674,0,-0.0002079,0,0,0,0.038436,0.00016849,0.011581,-0.059861,0.016729,0.034028,1.283e-06,0.82,0.65,0
0.038089,-0.0044813,0.038434,0.00010813,0.011563,-2.9699e-05,0,0,0.069866,-0.029782,0,-0.00015443,0,0,0,0.038434,0.00010811,0.011563,-0.044399,0.016702,0.034075,1.2849e-06,0.83,0.65,0
0.038788,-0.0044986,0.038432,5.2068e-05,0.011545,-2.0726e-05,0,0,0.069905,-0.029882,0,-0.00010777,0,0,0,0.038432,5.2056e-05,0.011545,-0.030941,0.016676,0.034117,1.2867e-06,0.84,0.65,0
0.039487,-0.0045145,0.038429,1.8481e-07,0.011529,-1.3009e-05,0,0,0.06994,-0.029974,0,-6.7647e-05,0,0,0,0.038429,1.8041e-07,0.011529,-0.019396,0.016653,0.034156,1.2883e-06,0.85,0.65,0
0.040186,-0.0045292,0.038426,-4.7659e-05,0.011513,-6.4906e-06,0,0,0.069972,-0.030059,0,-3.3751e-05,0,0,0,0.038426,-4.766e-05,0.011513,-0.009666,0.01663,0.034191,1.2897e-06,0.86,0.65,0
0.040886,-0.0045427,0.038422,-9.16e-05,0.011499,-1.1072e-06,0,0,0.07,-0.030136,0,-5.7574e-06,0,0,0,0.038422,-9.16e-05,0.011499,-0.0016471,0.01661,0.034224,1.2909e-06,0.87,0.65,0
0.041586,-0.0045551,0.038419,-0.00013177,0.011486,3.2086e-06,0,0,0.070025,-0.030207,0,1.6685e-05,0,0,0,0.038419,-0.00013177,0.011486,0.0047688,0.016591,0.034253,1.292e-06,0.88,0.65,0
0.042287,-0.0045664,0.038416,-0.00016828,0.011474,6.5281e-06,0,0,0.070048,-0.030271,0,3.3946e-05,0,0,0,0.038416,-0.00016828,0.011474,0.0096939,0.016574,0.034279,1.293e-06,0.89,0.65,0
0.042987,-0.0045765,0.038413,-0.00020124,0.011463,8.9256e-06,0,0,0.070068,-0.030328,0,4.6413e-05,0,0,0,0.038413,-0.00020124,0.011463,0.013244,0.016558,0.034303,1.2939e-06,0.9,0.65,0
0.043688,-0.0045856,0.038409,-0.00023075,0.011454,1.0478e-05,0,0,0.070085,-0.030379,0,5.4487e-05,0,0,0,0.038409,-0.00023076,0.011454,0.015537,0.016544,0.034324,1.2946e-06,0.91,0.65,0
0.044389,-0.0045937,0.038407,-0.00025692,0.011445,1.1265e-05,0,0,0.0701,-0.030425,0,5.858e-05,0,0,0,0.038407,-0.00025692,0.011445,0.016694,0.016532,0.034342,1.2952e-06,0.92,0.65,0
0.04509,-0.0046007,0.038404,-0.00027981,0.011437,1.1368e-05,0,0,0.070113,-0.030464,0,5.9114e-05,0,0,0,0.038404,-0.00027981,0.011437,0.016838,0.016521,0.034358,1.2958e-06,0.93,0.65,0
0.045791,-0.0046068,0.038402,-0.0002995,0.011431,1.0869e-05,0,0,0.070125,-0.030498,0,5.652e-05,0,0,0,0.038402,-0.0002995,0.011431,0.016092,0.016511,0.034372,1.2962e-06,0.94,0.65,0
0.046493,-0.0046119,0.0384,-0.00031606,0.011425,9.8526e-06,0,0,0.070134,-0.030527,0,5.1234e-05,0,0,0,0.0384,-0.00031606,0.011425,0.014581,0.016503,0.034383,1.2966e-06,0.95,0.65,0
0.047194,-0.004616,0.038398,-0.00032953,0.011421,8.4033e-06,0,0,0.070141,-0.03055,0,4.3697e-05,0,0,0,0.038398,-0.00032953,0.011421,0.012432,0.016496,0.034392,1.2969e-06,0.96,0.65,0
0.047895,-0.0046192,0.038397,-0.00033996,0.011417,6.6069e-06,0,0,0.070147,-0.030568,0,3.4356e-05,0,0,0,0.038397,-0.00033996,0.011417,0.0097723,0.016491,0.034399,1.2971e-06,0.97,0.65,0
0.048597,-0.0046215,0.038395,-0.00034739,0.011414,4.5497e-06,0,0,0.070151,-0.030581,0,2.3658e-05,0,0,0,0.038395,-0.00034739,0.011414,0.0067284,0.016487,0.034404,1.2973e-06,0.98,0.65,0
0.049299,-0.0046229,0.038395,-0.00035184,0.011413,2.3184e-06,0,0,0.070153,-0.030588,0,1.2056e-05,0,0,0,0.038395,-0.00035184,0.011413,0.0034283,0.016485,0.034407,1.2974e-06,0.99,0.65,0
0.05,-0.0046234,0.038395,-0.00035332,0.011412,-8.7665e-06,0,0,0.070154,-0.030591,0,-4.5586e-05,0,0,0,0.038395,-0.00035332,0.011412,-0.012963,0.016485,0.034409,1.2974e-06,1,0.65,0
0,0,0.033443,0.014333,0.014333,-0.0024169,0,0,0.024844,2.7105e-20,0,-0.0062838,0,0,0,0.033744,0.014032,0.014333,-7.0973,0.020703,0.019564,3.8426e-07,0,0.66,0
0.00024844,-6.2839e-05,0.033403,0.013842,0.014174,-0.0024193,0,0,0.024999,-0.00043145,0,-0.0062902,0,0,0,0.033698,0.013547,0.014174,-6.9467,0.020473,0.019845,4.0007e-07,0.01,0.66,0
0.00049998,-0.00012716,0.03357,0.013427,0.014099,-0.0024453,0,0,0.025312,-0.00087364,0,-0.0063577,0,0,0,0.033862,0.013134,0.014099,-6.8235,0.020365,0.020263,4.2403e-07,0.02,0.66,0
0.00075468,-0.00019283,0.033737,0.013003,0.014022,-0.0024632,0,0,0.02563,-0.0013251,0,-0.0064044,0,0,0,0.034026,0.012714,0.014022,-6.6826,0.020254,0.020689,4.487e-07,0.03,0.66,0
0.0010126,-0.00025969,0.033906,0.01257,0.013943,-0.002473,0,0,0.025952,-0.0017844,0,-0.0064298,0,0,0,0.034189,0.012287,0.013943,-6.5258,0.02014,0.021122,4.7399e-07,0.04,0.66,0
0.0012737,-0.00032758,0.034073,0.012131,0.013861,-0.0024745,0,0,0.026276,-0.00225,0,-0.0064337,0,0,0,0.034349,0.011855,0.013861,-6.3549,0.020022,0.021561,4.998e-07,0.05,0.66,0
0.0015381,-0.00039635,0.03424,0.011685,0.013778,-0.0024678,0,0,0.026601,-0.0027202,0,-0.0064164,0,0,0,0.034507,0.011418,0.013778,-6.1716,0.019901,0.022004,5.2604e-07,0.06,0.66,0
0.0018057,-0.00046584,0.034405,0.011236,0.013692,-0.0024531,0,0,0.026927,-0.0031937,0,-0.0063781,0,0,0,0.034662,0.010979,0.013692,-5.978,0.019777,0.02245,5.5259e-07,0.07,0.66,0
0.0020766,-0.00053591,0.034567,0.010783,0.013605,-0.0024306,0,0,0.027251,-0.0036688,0,-0.0063197,0,0,0,0.034813,0.010537,0.013605,-5.7758,0.019652,0.022897,5.7936e-07,0.08,0.66,0
0.0023507,-0.00060639,0.034726,0.010328,0.013516,-0.0024008,0,0,0.027572,-0.0041442,0,-0.006242,0,0,0,0.03496,0.010094,0.013516,-5.567,0.019523,0.023343,6.0623e-07,0.09,0.66,0
0.0026281,-0.00067715,0.03488,0.0098735,0.013426,-0.002364,0,0,0.02789,-0.0046184,0,-0.0061464,0,0,0,0.035102,0.009652,0.013426,-5.3533,0.019393,0.023788,6.3311e-07,0.1,0.66,0
0.0029086,-0.00074804,0.03503,0.0094191,0.013335,-0.0023209,0,0,0.028204,-0.0050903,0,-0.0060342,0,0,0,0.035239,0.0092105,0.013335,-5.1364,0.019261,0.024231,6.5989e-07,0.11,0.66,0
0.0031922,-0.00081895,0.035175,0.0089664,0.013242,-0.002272,0,0,0.028512,-0.0055587,0,-0.0059071,0,0,0,0.03537,0.0087709,0.013242,-4.918,0.019128,0.02467,6.8648e-07,0.12,0.66,0
0.0034788,-0.00088976,0.035314,0.0085163,0.013149,-0.002218,0,0,0.028814,-0.0060226,0,-0.0057668,0,0,0,0.035496,0.0083339,0.013149,-4.6997,0.018993,0.025104,7.1279e-07,0.13,0.66,0
0.0037684,-0.00096035,0.035447,0.0080694,0.013055,-0.0021597,0,0,0.02911,-0.0064811,0,-0.0056152,0,0,0,0.035616,0.0079001,0.013055,-4.4829,0.018857,0.025532,7.3875e-07,0.14,0.66,0
0.004061,-0.0010306,0.035574,0.0076267,0.01296,-0.0020978,0,0,0.029398,-0.0069335,0,-0.0054543,0,0,0,0.03573,0.0074701,0.01296,-4.2689,0.01872,0.025954,7.6428e-07,0.15,0.66,0
0.0043564,-0.0011005,0.035694,0.0071885,0.012865,-0.0020331,0,0,0.029678,-0.0073792,0,-0.005286,0,0,0,0.035838,0.0070442,0.012865,-4.0591,0.018582,0.02637,7.8933e-07,0.16,0.66,0
0.0046546,-0.0011699,0.035808,0.0067553,0.012769,-0.0019663,0,0,0.029951,-0.0078177,0,-0.0051125,0,0,0,0.03594,0.0066228,0.012769,-3.8545,0.018444,0.026779,8.1384e-07,0.17,0.66,0
0.0049554,-0.0012388,0.035915,0.0063275,0.012673,-0.0018983,0,0,0.030215,-0.0082488,0,-0.0049356,0,0,0,0.036036,0.0062062,0.012673,-3.6561,0.018305,0.02718,8.3778e-07,0.18,0.66,0
0.0052589,-0.0013072,0.036016,0.0059053,0.012576,-0.0018298,0,0,0.030471,-0.0086723,0,-0.0047574,0,0,0,0.036126,0.0057945,0.012576,-3.4648,0.018166,0.027574,8.6112e-07,0.19,0.66,0
0.0055648,-0.0013749,0.03611,0.0054887,0.01248,-0.0017614,0,0,0.030719,-0.0090881,0,-0.0045797,0,0,0,0.036211,0.0053877,0.01248,-3.2814,0.018026,0.02796,8.8384e-07,0.2,0.66,0
0.0058732,-0.001442,0.036198,0.0050777,0.012383,-0.0016939,0,0,0.03096,-0.0094964,0,-0.0044041,0,0,0,0.03629,0.0049858,0.012383,-3.1064,0.017886,0.028339,9.0593e-07,0.21,0.66,0
0.006184,-0.0015084,0.03628,0.0046723,0.012286,-0.0016279,0,0,0.031192,-0.0098973,0,-0.0042324,0,0,0,0.036363,0.0045887,0.012286,-2.9405,0.017746,0.028711,9.2738e-07,0.22,0.66,0
0.0064971,-0.0015742,0.036356,0.0042721,0.012188,-0.0015639,0,0,0.031418,-0.010291,0,-0.004066,0,0,0,0.036432,0.0041961,0.012188,-2.784,0.017606,0.029076,9.4822e-07,0.23,0.66,0
0.0068124,-0.0016394,0.036427,0.0038771,0.012091,-0.0015024,0,0,0.031637,-0.010678,0,-0.0039062,0,0,0,0.036496,0.0038079,0.012091,-2.6371,0.017465,0.029434,9.6845e-07,0.24,0.66,0
0.0071298,-0.001704,0.036493,0.0034867,0.011994,-0.0014439,0,0,0.031849,-0.011059,0,-0.0037542,0,0,0,0.036556,0.0034236,0.011994,-2.5002,0.017325,0.029787,9.881e-07,0.25,0.66,0
0.0074494,-0.0017679,0.036555,0.0031006,0.011897,-0.0013888,0,0,0.032056,-0.011435,0,-0.0036109,0,0,0,0.036612,0.0030431,0.011897,-2.3731,0.017184,0.030134,1.0072e-06,0.26,0.66,0
0.0077709,-0.0018313,0.036612,0.0027184,0.011799,-0.0013374,0,0,0.032257,-0.011805,0,-0.0034772,0,0,0,0.036665,0.0026658,0.011799,-2.2561,0.017043,0.030477,1.0258e-06,0.27,0.66,0
0.0080945,-0.0018942,0.036666,0.0023397,0.011702,-0.0012898,0,0,0.032454,-0.012171,0,-0.0033535,0,0,0,0.036714,0.0022913,0.011702,-2.1488,0.016903,0.030815,1.0439e-06,0.28,0.66,0
0.00842,-0.0019565,0.036717,0.0019638,0.011604,-0.0012462,0,0,0.032647,-0.012533,0,-0.0032403,0,0,0,0.036762,0.0019191,0.011604,-2.0511,0.016762,0.03115,1.0615e-06,0.29,0.66,0
0.0087474,-0.0020184,0.036765,0.0015903,0.011507,-0.0012068,0,0,0.032836,-0.012891,0,-0.0031377,0,0,0,0.036806,0.0015489,0.011507,-1.9627,0.016621,0.031483,1.0788e-06,0.3,0.66,0
0.0090767,-0.0020798,0.036811,0.0012186,0.011409,-0.0011715,0,0,0.033023,-0.013247,0,-0.003046,0,0,0,0.036849,0.0011801,0.011409,-1.8832,0.01648,0.031813,1.0957e-06,0.31,0.66,0
0.0094079,-0.0021409,0.036855,0.0008484,0.011311,-0.0011403,0,0,0.033207,-0.013601,0,-0.0029647,0,0,0,0.036891,0.00081233,0.011311,-1.812,0.016338,0.032142,1.1123e-06,0.32,0.66,0
0.0097409,-0.0022016,0.036898,0.00047903,0.011213,-0.0011129,0,0,0.03339,-0.013954,0,-0.0028937,0,0,0,0.036932,0.00044505,0.011213,-1.7488,0.016197,0.032471,1.1286e-06,0.33,0.66,0
0.010076,-0.002262,0.03694,0.00011008,0.011115,-0.0010893,0,0,0.033573,-0.014306,0,-0.0028323,0,0,0,0.036972,7.7885e-05,0.011115,-1.6927,0.016055,0.0328,1.1447e-06,0.34,0.66,0
0.010412,-0.0023221,0.036982,-0.00025887,0.011017,-0.0010692,0,0,0.033754,-0.014658,0,-0.0027798,0,0,0,0.037012,-0.00028954,0.011017,-1.6431,0.015913,0.033129,1.1606e-06,0.35,0.66,0
0.010751,-0.002382,0.037024,-0.0006282,0.010919,-0.0010521,0,0,0.033936,-0.015011,0,-0.0027355,0,0,0,0.037053,-0.00065758,0.010919,-1.5994,0.015771,0.03346,1.1764e-06,0.36,0.66,0
0.011091,-0.0024416,0.037065,-0.00099821,0.01082,-0.0010378,0,0,0.034119,-0.015364,0,-0.0026983,0,0,0,0.037094,-0.0010265,0.01082,-1.5606,0.015629,0.033792,1.192e-06,0.37,0.66,0
0.011433,-0.002501,0.037108,-0.0013692,0.010722,-0.0010258,0,0,0.034302,-0.015718,0,-0.002667,0,0,0,0.037135,-0.0013965,0.010722,-1.526,0.015487,0.034126,1.2076e-06,0.38,0.66,0
0.011777,-0.0025602,0.037151,-0.0017412,0.010623,-0.0010156,0,0,0.034487,-0.016073,0,-0.0026405,0,0,0,0.037178,-0.0017677,0.010623,-1.4948,0.015344,0.034463,1.223e-06,0.39,0.66,0
0.012123,-0.0026192,0.037195,-0.0021145,0.010524,-0.0010067,0,0,0.034672,-0.01643,0,-0.0026174,0,0,0,0.037221,-0.0021403,0.010524,-1.466,0.015202,0.034802,1.2384e-06,0.4,0.66,0
0.012471,-0.0026779,0.037241,-0.0024891,0.010425,-0.00099858,0,0,0.03486,-0.016789,0,-0.0025963,0,0,0,0.037266,-0.0025142,0.010425,-1.4389,0.015059,0.035144,1.2537e-06,0.41,0.66,0
0.01282,-0.0027364,0.037287,-0.0028648,0.010327,-0.00099069,0,0,0.035048,-0.017149,0,-0.0025758,0,0,0,0.037311,-0.0028892,0.010327,-1.4125,0.014916,0.035489,1.2689e-06,0.42,0.66,0
0.013171,-0.0027946,0.037334,-0.0032414,0.010228,-0.00098245,0,0,0.035239,-0.01751,0,-0.0025544,0,0,0,0.037358,-0.0032652,0.010228,-1.3862,0.014774,0.035836,1.2841e-06,0.43,0.66,0
0.013525,-0.0028525,0.037383,-0.0036189,0.010129,-0.00097331,0,0,0.03543,-0.017873,0,-0.0025306,0,0,0,0.037406,-0.003642,0.010129,-1.3591,0.014631,0.036185,1.2991e-06,0.44,0.66,0
0.01388,-0.0029101,0.037433,-0.0039968,0.010031,-0.00096271,0,0,0.035623,-0.018236,0,-0.002503,0,0,0,0.037455,-0.0040191,0.010031,-1.3304,0.014489,0.036535,1.3139e-06,0.45,0.66,0
0.014237,-0.0029673,0.037484,-0.0043746,0.0099327,-0.00095011,0,0,0.035816,-0.0186,0,-0.0024703,0,0,0,0.037505,-0.0043962,0.0099327,-1.2996,0.014347,0.036887,1.3286e-06,0.46,0.66,0
0.014596,-0.0030239,0.037535,-0.004752,0.0098348,-0.00093502,0,0,0.03601,-0.018963,0,-0.0024311,0,0,0,0.037555,-0.0047727,0.0098348,-1.2661,0.014206,0.037239,1.343e-06,0.47,0.66,0
0.014958,-0.0030801,0.037586,-0.0051284,0.0097374,-0.00091696,0,0,0.036203,-0.019325,0,-0.0023841,0,0,0,0.037606,-0.0051481,0.0097374,-1.2292,0.014065,0.037591,1.3572e-06,0.48,0.66,0
0.015321,-0.0031356,0.037638,-0.0055031,0.0096404,-0.00089549,0,0,0.036397,-0.019686,0,-0.0023283,0,0,0,0.037656,-0.0055216,0.0096404,-1.1886,0.013925,0.037942,1.371e-06,0.49,0.66,0
0.015685,-0.0031903,0.037673,-0.00037537,0.011189,-0.00087233,0,0,0.050611,-0.020045,0,-0.0033846,0,0,0,0.037693,-0.00039569,0.011189,-1.3371,0.016162,0.033888,1.199e-06,0.5,0.66,0
0.016333,-0.0032668,0.03774,0.0048924,0.01279,-0.00085145,0,0,0.064871,-0.020533,0,-0.0044275,0,0,0,0.037762,0.0048703,0.01279,-1.4838,0.018474,0.029734,1.0342e-06,0.51,0.66,0
0.016983,-0.0033419,0.03779,0.0046498,0.012732,-0.00083058,0,0,0.065151,-0.021014,0,-0.004319,0,0,0,0.037811,0.004629,0.012732,-1.4348,0.018391,0.029964,1.0485e-06,0.52,0.66,0
0.017636,-0.0034156,0.037839,0.0044113,0.012675,-0.00080805,0,0,0.065426,-0.021486,0,-0.0042018,0,0,0,0.037858,0.0043917,0.012675,-1.3839,0.018308,0.03019,1.0627e-06,0.53,0.66,0
0.018291,-0.0034879,0.037886,0.0041772,0.012619,-0.00078384,0,0,0.065695,-0.021949,0,-0.004076,0,0,0,0.037904,0.0041589,0.012619,-1.3314,0.018227,0.030411,1.0765e-06,0.54,0.66,0
0.01895,-0.0035587,0.037932,0.0039479,0.012564,-0.00075802,0,0,0.065957,-0.022402,0,-0.0039417,0,0,0,0.037949,0.003931,0.012564,-1.2771,0.018148,0.030628,1.0899e-06,0.55,0.66,0
0.01961,-0.0036278,0.037976,0.0037238,0.01251,-0.00073066,0,0,0.066212,-0.022844,0,-0.0037994,0,0,0,0.037992,0.0037083,0.01251,-1.2215,0.01807,0.030839,1.103e-06,0.56,0.66,0
0.020274,-0.0036952,0.038018,0.0035053,0.012457,-0.00070189,0,0,0.066459,-0.023275,0,-0.0036498,0,0,0,0.038032,0.0034911,0.012457,-1.1646,0.017994,0.031045,1.1156e-06,0.57,0.66,0
0.02094,-0.0037609,0.038058,0.0032928,0.012405,-0.00067185,0,0,0.066698,-0.023693,0,-0.0034936,0,0,0,0.038071,0.0032798,0.012405,-1.1067,0.017919,0.031245,1.1278e-06,0.58,0.66,0
0.021608,-0.0038248,0.038096,0.0030863,0.012355,-0.00064071,0,0,0.066928,-0.024098,0,-0.0033317,0,0,0,0.038108,0.0030746,0.012355,-1.0481,0.017846,0.031438,1.1395e-06,0.59,0.66,0
0.022278,-0.0038868,0.038132,0.0028863,0.012306,-0.00060867,0,0,0.067149,-0.02449,0,-0.0031651,0,0,0,0.038142,0.0028758,0.012306,-0.98907,0.017775,0.031624,1.1507e-06,0.6,0.66,0
0.022951,-0.0039469,0.038165,0.002693,0.012257,-0.00057593,0,0,0.06736,-0.024868,0,-0.0029948,0,0,0,0.038175,0.0026836,0.012257,-0.92993,0.017705,0.031804,1.1614e-06,0.61,0.66,0
0.023625,-0.0040051,0.038196,0.0025064,0.012211,-0.0005427,0,0,0.067561,-0.025231,0,-0.002822,0,0,0,0.038204,0.0024981,0.012211,-0.87098,0.017638,0.031976,1.1716e-06,0.62,0.66,0
0.024302,-0.0040612,0.038224,0.0023267,0.012165,-0.0005092,0,0,0.067753,-0.02558,0,-0.0026478,0,0,0,0.038231,0.0023195,0.012165,-0.81252,0.017572,0.032141,1.1813e-06,0.63,0.66,0
0.02498,-0.0041154,0.03825,0.002154,0.012121,-0.00047565,0,0,0.067935,-0.025915,0,-0.0024734,0,0,0,0.038256,0.0021478,0.012121,-0.75484,0.017508,0.032298,1.1904e-06,0.64,0.66,0
0.025661,-0.0041675,0.038273,0.0019884,0.012079,-0.00044227,0,0,0.068107,-0.026234,0,-0.0022998,0,0,0,0.038279,0.001983,0.012079,-0.69822,0.017447,0.032448,1.199e-06,0.65,0.66,0
0.026343,-0.0042176,0.038294,0.0018298,0.012037,-0.00040924,0,0,0.068268,-0.026539,0,-0.0021281,0,0,0,0.038299,0.0018252,0.012037,-0.64292,0.017387,0.032591,1.2071e-06,0.66,0.66,0
0.027026,-0.0042657,0.038313,0.0016781,0.011997,-0.00037677,0,0,0.06842,-0.02683,0,-0.0019592,0,0,0,0.038317,0.0016743,0.011997,-0.58918,0.017329,0.032726,1.2147e-06,0.67,0.66,0
0.027711,-0.0043117,0.038329,0.0015335,0.011959,-0.00034504,0,0,0.068563,-0.027106,0,-0.0017942,0,0,0,0.038332,0.0015302,0.011959,-0.53721,0.017274,0.032854,1.2218e-06,0.68,0.66,0
0.028397,-0.0043557,0.038343,0.0013957,0.011922,-0.00031421,0,0,0.068696,-0.027368,0,-0.0016339,0,0,0,0.038346,0.001393,0.011922,-0.4872,0.01722,0.032974,1.2284e-06,0.69,0.66,0
0.029085,-0.0043977,0.038356,0.0012646,0.011886,-0.00028442,0,0,0.068821,-0.027616,0,-0.001479,0,0,0,0.038358,0.0012624,0.011886,-0.43932,0.017169,0.033088,1.2345e-06,0.7,0.66,0
0.029774,-0.0044378,0.038366,0.0011401,0.011852,-0.0002558,0,0,0.068936,-0.02785,0,-0.0013301,0,0,0,0.038367,0.0011383,0.011852,-0.39369,0.017119,0.033195,1.2402e-06,0.71,0.66,0
0.030464,-0.0044759,0.038374,0.0010221,0.011819,-0.00022846,0,0,0.069043,-0.028071,0,-0.001188,0,0,0,0.038375,0.0010207,0.011819,-0.35043,0.017072,0.033296,1.2454e-06,0.72,0.66,0
0.031155,-0.0045121,0.038381,0.00091034,0.011787,-0.00020249,0,0,0.069143,-0.02828,0,-0.001053,0,0,0,0.038382,0.00090925,0.011787,-0.30962,0.017026,0.03339,1.2502e-06,0.73,0.66,0
0.031846,-0.0045465,0.038386,0.00080472,0.011757,-0.00017797,0,0,0.069234,-0.028476,0,-0.00092546,0,0,0,0.038387,0.00080388,0.011757,-0.27133,0.016983,0.033478,1.2546e-06,0.74,0.66,0
0.032539,-0.004579,0.038389,0.00070504,0.011728,-0.00015496,0,0,0.069319,-0.028661,0,-0.00080578,0,0,0,0.03839,0.0007044,0.011728,-0.23559,0.016941,0.03356,1.2587e-06,0.75,0.66,0
0.033233,-0.0046097,0.038392,0.00061109,0.011701,-0.00013348,0,0,0.069396,-0.028833,0,-0.00069412,0,0,0,0.038392,0.00061062,0.011701,-0.20243,0.016901,0.033637,1.2624e-06,0.76,0.66,0
0.033927,-0.0046387,0.038393,0.0005227,0.011675,-0.00011358,0,0,0.069468,-0.028995,0,-0.00059062,0,0,0,0.038393,0.00052236,0.011675,-0.17184,0.016864,0.033708,1.2657e-06,0.77,0.66,0
0.034622,-0.0046661,0.038393,0.00043967,0.01165,-9.5255e-05,0,0,0.069533,-0.029147,0,-0.00049532,0,0,0,0.038393,0.00043943,0.01165,-0.1438,0.016828,0.033774,1.2688e-06,0.78,0.66,0
0.035318,-0.0046917,0.038393,0.0003618,0.011626,-7.8506e-05,0,0,0.069592,-0.029288,0,-0.00040823,0,0,0,0.038393,0.00036164,0.011626,-0.11827,0.016794,0.033836,1.2716e-06,0.79,0.66,0
0.036014,-0.0047158,0.038391,0.00028892,0.011604,-6.3319e-05,0,0,0.069647,-0.029419,0,-0.00032926,0,0,0,0.038391,0.00028882,0.011604,-0.095214,0.016761,0.033892,1.2741e-06,0.8,0.66,0
0.036711,-0.0047384,0.038389,0.00022084,0.011583,-4.9668e-05,0,0,0.069696,-0.029542,0,-0.00025827,0,0,0,0.038389,0.00022078,0.011583,-0.074558,0.016731,0.033945,1.2764e-06,0.81,0.66,0
0.037408,-0.0047594,0.038386,0.00015738,0.011563,-3.7518e-05,0,0,0.069741,-0.029655,0,-0.00019509,0,0,0,0.038386,0.00015734,0.011563,-0.05623,0.016702,0.033993,1.2784e-06,0.82,0.66,0
0.038106,-0.004779,0.038383,9.8362e-05,0.011544,-2.6825e-05,0,0,0.069781,-0.02976,0,-0.00013949,0,0,0,0.038383,9.8343e-05,0.011544,-0.040145,0.016675,0.034037,1.2802e-06,0.83,0.66,0
0.038804,-0.0047973,0.03838,4.3628e-05,0.011527,-1.7537e-05,0,0,0.069818,-0.029857,0,-9.1194e-05,0,0,0,0.03838,4.362e-05,0.011527,-0.02621,0.01665,0.034078,1.2818e-06,0.84,0.66,0
0.039502,-0.0048141,0.038376,-6.9824e-06,0.011511,-9.5962e-06,0,0,0.06985,-0.029946,0,-4.99e-05,0,0,0,0.038376,-6.9848e-06,0.011511,-0.014325,0.016627,0.034115,1.2833e-06,0.85,0.66,0
0.040201,-0.0048297,0.038372,-5.3618e-05,0.011496,-2.9376e-06,0,0,0.06988,-0.030028,0,-1.5275e-05,0,0,0,0.038372,-5.3618e-05,0.011496,-0.0043801,0.016605,0.034149,1.2846e-06,0.86,0.66,0
0.0409,-0.004844,0.038369,-9.6419e-05,0.011482,2.5079e-06,0,0,0.069906,-0.030103,0,1.3041e-05,0,0,0,0.038369,-9.6419e-05,0.011482,0.0037357,0.016585,0.03418,1.2857e-06,0.87,0.66,0
0.041599,-0.004857,0.038365,-0.00013552,0.011469,6.814e-06,0,0,0.06993,-0.030171,0,3.5433e-05,0,0,0,0.038365,-0.00013552,0.011469,0.010141,0.016566,0.034208,1.2867e-06,0.88,0.66,0
0.042298,-0.0048689,0.038361,-0.00017103,0.011457,1.0058e-05,0,0,0.06995,-0.030233,0,5.2301e-05,0,0,0,0.038361,-0.00017104,0.011457,0.014956,0.016549,0.034233,1.2876e-06,0.89,0.66,0
0.042998,-0.0048796,0.038357,-0.00020309,0.011446,1.232e-05,0,0,0.069969,-0.030288,0,6.4064e-05,0,0,0,0.038357,-0.00020309,0.011446,0.018306,0.016533,0.034255,1.2884e-06,0.9,0.66,0
0.043698,-0.0048892,0.038354,-0.00023177,0.011437,1.3684e-05,0,0,0.069985,-0.030338,0,7.1154e-05,0,0,0,0.038354,-0.00023178,0.011437,0.020319,0.016519,0.034275,1.289e-06,0.91,0.66,0
0.044397,-0.0048977,0.038351,-0.00025719,0.011428,1.4233e-05,0,0,0.069998,-0.030381,0,7.4014e-05,0,0,0,0.038351,-0.00025719,0.011428,0.021123,0.016507,0.034292,1.2896e-06,0.92,0.66,0
0.045097,-0.0049051,0.038347,-0.00027942,0.01142,1.4057e-05,0,0,0.07001,-0.03042,0,7.3094e-05,0,0,0,0.038347,-0.00027942,0.01142,0.02085,0.016496,0.034307,1.2901e-06,0.93,0.66,0
0.045798,-0.0049115,0.038345,-0.00029853,0.011414,1.3241e-05,0,0,0.07002,-0.030452,0,6.8854e-05,0,0,0,0.038345,-0.00029854,0.011414,0.019632,0.016487,0.03432,1.2905e-06,0.94,0.66,0
0.046498,-0.0049169,0.038343,-0.0003146,0.011408,1.1877e-05,0,0,0.070029,-0.03048,0,6.1758e-05,0,0,0,0.038343,-0.0003146,0.011408,0.017603,0.016479,0.034331,1.2908e-06,0.95,0.66,0
0.047198,-0.0049213,0.038341,-0.00032767,0.011404,1.0053e-05,0,0,0.070035,-0.030502,0,5.2278e-05,0,0,0,0.038341,-0.00032767,0.011404,0.014896,0.016472,0.03434,1.2911e-06,0.96,0.66,0
0.047899,-0.0049247,0.038339,-0.00033779,0.0114,7.8625e-06,0,0,0.070041,-0.030519,0,4.0885e-05,0,0,0,0.038339,-0.00033779,0.0114,0.011647,0.016467,0.034347,1.2913e-06,0.97,0.66,0
0.048599,-0.0049271,0.038338,-0.00034499,0.011398,5.3953e-06,0,0,0.070044,-0.030531,0,2.8055e-05,0,0,0,0.038338,-0.00034499,0.011398,0.0079913,0.016464,0.034351,1.2914e-06,0.98,0.66,0
0.0493,-0.0049285,0.038337,-0.00034931,0.011396,2.7438e-06,0,0,0.070046,-0.030539,0,1.4268e-05,0,0,0,0.038337,-0.00034931,0.011396,0.0040636,0.016462,0.034354,1.2915e-06,0.99,0.66,0
0.05,-0.004929,0.038337,-0.00035074,0.011396,-9.2454e-06,0,0,0.070047,-0.030541,0,-4.8076e-05,0,0,0,0.038337,-0.00035074,0.011396,-0.013692,0.016461,0.034355,1.2915e-06,1,0.66,0
0,0,0.033538,0.014374,0.014374,-0.0025844,0,0,0.024914,-1.0842e-19,0,-0.0067194,0,0,0,0.033881,0.014031,0.014374,-7.5468,0.020762,0.019681,3.911e-07,0,0.67,0
0.00024914,-6.7194e-05,0.033497,0.013873,0.014211,-0.0025869,0,0,0.025072,-0.00043999,0,-0.0067259,0,0,0,0.033833,0.013537,0.014211,-7.3845,0.020527,0.019967,4.0729e-07,0.01,0.67,0
0.00050145,-0.00013598,0.033667,0.01345,0.014135,-0.0026145,0,0,0.025392,-0.00089105,0,-0.0067978,0,0,0,0.034,0.013117,0.014135,-7.2506,0.020417,0.020393,4.3191e-07,0.02,0.67,0
0.00075698,-0.00020621,0.033838,0.013017,0.014056,-0.0026333,0,0,0.025716,-0.0013516,0,-0.0068466,0,0,0,0.034166,0.012689,0.014056,-7.0974,0.020304,0.020827,4.5725e-07,0.03,0.67,0
0.0010158,-0.0002777,0.034009,0.012575,0.013976,-0.0026431,0,0,0.026044,-0.00182,0,-0.0068719,0,0,0,0.034331,0.012254,0.013976,-6.927,0.020187,0.021268,4.8319e-07,0.04,0.67,0
0.0012779,-0.00035029,0.03418,0.012127,0.013892,-0.0026437,0,0,0.026374,-0.0022946,0,-0.0068737,0,0,0,0.034493,0.011815,0.013892,-6.7413,0.020067,0.021714,5.0963e-07,0.05,0.67,0
0.0015433,-0.00042381,0.03435,0.011673,0.013807,-0.0026353,0,0,0.026706,-0.0027738,0,-0.0068519,0,0,0,0.034652,0.011371,0.013807,-6.5424,0.019943,0.022164,5.3647e-07,0.06,0.67,0
0.001812,-0.00049807,0.034517,0.011215,0.01372,-0.0026181,0,0,0.027037,-0.0032558,0,-0.0068071,0,0,0,0.034807,0.010925,0.01372,-6.3324,0.019817,0.022615,5.6358e-07,0.07,0.67,0
0.002084,-0.00057293,0.034681,0.010755,0.013631,-0.0025924,0,0,0.027366,-0.003739,0,-0.0067402,0,0,0,0.034959,0.010477,0.013631,-6.1133,0.019689,0.023067,5.9085e-07,0.08,0.67,0
0.0023593,-0.0006482,0.034841,0.010293,0.01354,-0.0025585,0,0,0.027692,-0.0042219,0,-0.0066521,0,0,0,0.035105,0.010029,0.01354,-5.8872,0.019558,0.023518,6.1817e-07,0.09,0.67,0
0.0026378,-0.00072373,0.034997,0.0098306,0.013448,-0.0025171,0,0,0.028013,-0.004703,0,-0.0065444,0,0,0,0.035246,0.0095814,0.013448,-5.6559,0.019425,0.023967,6.4543e-07,0.1,0.67,0
0.0029195,-0.00079938,0.035148,0.00937,0.013355,-0.0024687,0,0,0.02833,-0.0051809,0,-0.0064185,0,0,0,0.035382,0.0091357,0.013355,-5.4214,0.019291,0.024411,6.7252e-07,0.11,0.67,0
0.0032044,-0.000875,0.035292,0.0089116,0.013261,-0.002414,0,0,0.028641,-0.0056546,0,-0.0062765,0,0,0,0.035512,0.0086925,0.013261,-5.1856,0.019155,0.024852,6.9934e-07,0.12,0.67,0
0.0034924,-0.00095046,0.035431,0.0084565,0.013166,-0.0023539,0,0,0.028944,-0.0061227,0,-0.0061202,0,0,0,0.035635,0.0082526,0.013166,-4.95,0.019018,0.025286,7.2581e-07,0.13,0.67,0
0.0037833,-0.0010256,0.035563,0.0080056,0.013071,-0.0022891,0,0,0.02924,-0.0065846,0,-0.0059517,0,0,0,0.035752,0.0078167,0.013071,-4.7163,0.01888,0.025714,7.5184e-07,0.14,0.67,0
0.0040772,-0.0011005,0.035689,0.0075595,0.012974,-0.0022205,0,0,0.029528,-0.0070394,0,-0.0057734,0,0,0,0.035863,0.0073853,0.012974,-4.4859,0.018741,0.026135,7.7737e-07,0.15,0.67,0
0.0043739,-0.0011748,0.035807,0.0071189,0.012878,-0.002149,0,0,0.029808,-0.0074865,0,-0.0055873,0,0,0,0.035967,0.0069588,0.012878,-4.2603,0.018601,0.026548,8.0233e-07,0.16,0.67,0
0.0046733,-0.0012486,0.035918,0.0066841,0.012781,-0.0020753,0,0,0.030079,-0.0079255,0,-0.0053959,0,0,0,0.036065,0.0065375,0.012781,-4.0405,0.018461,0.026953,8.2668e-07,0.17,0.67,0
0.0049755,-0.0013218,0.036022,0.0062554,0.012683,-0.0020004,0,0,0.03034,-0.0083562,0,-0.0052012,0,0,0,0.036156,0.0061216,0.012683,-3.8276,0.01832,0.02735,8.5037e-07,0.18,0.67,0
0.0052801,-0.0013944,0.036119,0.0058331,0.012586,-0.0019252,0,0,0.030593,-0.0087783,0,-0.0050054,0,0,0,0.036241,0.0057112,0.012586,-3.6226,0.018179,0.027739,8.734e-07,0.19,0.67,0
0.0055873,-0.0014663,0.036209,0.0054172,0.012488,-0.0018502,0,0,0.030838,-0.009192,0,-0.0048106,0,0,0,0.03632,0.0053064,0.012488,-3.4263,0.018038,0.028119,8.9574e-07,0.2,0.67,0
0.0058969,-0.0015374,0.036293,0.0050075,0.01239,-0.0017764,0,0,0.031074,-0.0095974,0,-0.0046186,0,0,0,0.036394,0.004907,0.01239,-3.2394,0.017897,0.028492,9.1738e-07,0.21,0.67,0
0.0062088,-0.0016079,0.03637,0.004604,0.012292,-0.0017043,0,0,0.031301,-0.0099947,0,-0.0044312,0,0,0,0.036461,0.0045129,0.012292,-3.0623,0.017756,0.028856,9.3834e-07,0.22,0.67,0
0.0065229,-0.0016776,0.036441,0.0042064,0.012194,-0.0016347,0,0,0.031521,-0.010384,0,-0.0042501,0,0,0,0.036524,0.0041237,0.012194,-2.8956,0.017614,0.029213,9.5863e-07,0.23,0.67,0
0.0068392,-0.0017466,0.036507,0.0038144,0.012096,-0.0015679,0,0,0.031734,-0.010767,0,-0.0040766,0,0,0,0.036582,0.0037393,0.012096,-2.7395,0.017473,0.029564,9.7827e-07,0.24,0.67,0
0.0071576,-0.001815,0.036568,0.0034274,0.011999,-0.0015046,0,0,0.03194,-0.011142,0,-0.003912,0,0,0,0.036636,0.0033592,0.011999,-2.5942,0.017331,0.029908,9.9729e-07,0.25,0.67,0
0.007478,-0.0018827,0.036624,0.0030451,0.011901,-0.0014451,0,0,0.03214,-0.011512,0,-0.0037574,0,0,0,0.036686,0.0029831,0.011901,-2.4598,0.01719,0.030246,1.0157e-06,0.26,0.67,0
0.0078004,-0.0019497,0.036675,0.002667,0.011803,-0.0013898,0,0,0.032334,-0.011876,0,-0.0036134,0,0,0,0.036732,0.0026103,0.011803,-2.3363,0.017048,0.03058,1.0336e-06,0.27,0.67,0
0.0081247,-0.0020162,0.036723,0.0022925,0.011705,-0.0013388,0,0,0.032524,-0.012236,0,-0.0034809,0,0,0,0.036775,0.0022405,0.011705,-2.2234,0.016907,0.030909,1.051e-06,0.28,0.67,0
0.0084509,-0.0020821,0.036768,0.001921,0.011607,-0.0012924,0,0,0.03271,-0.012591,0,-0.0033602,0,0,0,0.036816,0.0018731,0.011607,-2.121,0.016765,0.031235,1.068e-06,0.29,0.67,0
0.0087789,-0.0021475,0.03681,0.0015519,0.011509,-0.0012506,0,0,0.032892,-0.012944,0,-0.0032514,0,0,0,0.036854,0.0015076,0.011509,-2.0288,0.016623,0.031558,1.0846e-06,0.3,0.67,0
0.0091087,-0.0022125,0.03685,0.0011846,0.01141,-0.0012133,0,0,0.033072,-0.013294,0,-0.0031547,0,0,0,0.036891,0.0011434,0.01141,-1.9462,0.016482,0.03188,1.1008e-06,0.31,0.67,0
0.0094403,-0.0022771,0.036889,0.00081863,0.011312,-0.0011807,0,0,0.033249,-0.013642,0,-0.0030698,0,0,0,0.036927,0.00078002,0.011312,-1.8728,0.01634,0.0322,1.1167e-06,0.32,0.67,0
0.0097737,-0.0023413,0.036926,0.00045334,0.011214,-0.0011524,0,0,0.033426,-0.013989,0,-0.0029963,0,0,0,0.036962,0.00041696,0.011214,-1.8079,0.016198,0.03252,1.1324e-06,0.33,0.67,0
0.010109,-0.0024052,0.036963,8.8213e-05,0.011115,-0.0011283,0,0,0.033602,-0.014335,0,-0.0029335,0,0,0,0.036997,5.3722e-05,0.011115,-1.751,0.016055,0.032841,1.1478e-06,0.34,0.67,0
0.010446,-0.0024688,0.036999,-0.00027723,0.011017,-0.001108,0,0,0.033777,-0.014682,0,-0.0028808,0,0,0,0.037032,-0.00031014,0.011017,-1.7011,0.015913,0.033163,1.1631e-06,0.35,0.67,0
0.010784,-0.0025322,0.037036,-0.00064343,0.010918,-0.0010912,0,0,0.033953,-0.015029,0,-0.0028372,0,0,0,0.037067,-0.000675,0.010918,-1.6575,0.01577,0.033486,1.1783e-06,0.36,0.67,0
0.011125,-0.0025953,0.037073,-0.0010107,0.010819,-0.0010775,0,0,0.034131,-0.015378,0,-0.0028015,0,0,0,0.037103,-0.0010412,0.010819,-1.6193,0.015627,0.033812,1.1934e-06,0.37,0.67,0
0.011467,-0.0026582,0.037111,-0.0013795,0.010719,-0.0010663,0,0,0.034309,-0.015729,0,-0.0027724,0,0,0,0.03714,-0.001409,0.010719,-1.5857,0.015484,0.034141,1.2085e-06,0.38,0.67,0
0.011811,-0.002721,0.03715,-0.0017499,0.01062,-0.0010572,0,0,0.034489,-0.016081,0,-0.0027487,0,0,0,0.037179,-0.0017786,0.01062,-1.5556,0.01534,0.034473,1.2235e-06,0.39,0.67,0
0.012157,-0.0027835,0.03719,-0.0021221,0.010521,-0.0010496,0,0,0.034671,-0.016435,0,-0.0027289,0,0,0,0.037218,-0.0021501,0.010521,-1.5282,0.015196,0.034808,1.2385e-06,0.4,0.67,0
0.012504,-0.0028458,0.037232,-0.0024961,0.010421,-0.0010428,0,0,0.034855,-0.016792,0,-0.0027113,0,0,0,0.03726,-0.0025234,0.010421,-1.5025,0.015052,0.035147,1.2534e-06,0.41,0.67,0
0.012854,-0.0029079,0.037276,-0.0028718,0.010321,-0.0010363,0,0,0.035041,-0.017151,0,-0.0026944,0,0,0,0.037303,-0.0028985,0.010321,-1.4776,0.014908,0.035488,1.2683e-06,0.42,0.67,0
0.013205,-0.0029697,0.037321,-0.0032492,0.010221,-0.0010294,0,0,0.035229,-0.017512,0,-0.0026765,0,0,0,0.037347,-0.0032752,0.010221,-1.4526,0.014764,0.035834,1.2832e-06,0.43,0.67,0
0.013558,-0.0030313,0.037367,-0.0036279,0.010122,-0.0010215,0,0,0.035419,-0.017875,0,-0.002656,0,0,0,0.037393,-0.0036533,0.010122,-1.4266,0.01462,0.036182,1.298e-06,0.44,0.67,0
0.013914,-0.0030925,0.037415,-0.0040076,0.010022,-0.0010121,0,0,0.035611,-0.018239,0,-0.0026314,0,0,0,0.03744,-0.0040323,0.010022,-1.3988,0.014476,0.036532,1.3127e-06,0.45,0.67,0
0.014271,-0.0031533,0.037464,-0.0043878,0.0099228,-0.0010004,0,0,0.035803,-0.018604,0,-0.0026011,0,0,0,0.037488,-0.0044117,0.0099228,-1.3685,0.014333,0.036884,1.3272e-06,0.46,0.67,0
0.01463,-0.0032136,0.037514,-0.0047681,0.0098237,-0.00098599,0,0,0.035997,-0.018969,0,-0.0025636,0,0,0,0.037537,-0.0047911,0.0098237,-1.3351,0.01419,0.037237,1.3415e-06,0.47,0.67,0
0.014991,-0.0032734,0.037564,-0.0051478,0.0097249,-0.0009683,0,0,0.036191,-0.019335,0,-0.0025176,0,0,0,0.037586,-0.0051697,0.0097249,-1.298,0.014047,0.037591,1.3556e-06,0.48,0.67,0
0.015354,-0.0033325,0.037615,-0.0055263,0.0096267,-0.00094688,0,0,0.036385,-0.019699,0,-0.0024619,0,0,0,0.037636,-0.0055471,0.0096267,-1.2567,0.013905,0.037944,1.3694e-06,0.49,0.67,0
0.015718,-0.0033909,0.03765,-0.00039857,0.011175,-0.00092338,0,0,0.050592,-0.020061,0,-0.003583,0,0,0,0.037672,-0.00042134,0.011175,-1.4153,0.016142,0.03389,1.1978e-06,0.5,0.67,0
0.016365,-0.0034722,0.037716,0.0048719,0.012776,-0.00090177,0,0,0.064844,-0.020552,0,-0.0046892,0,0,0,0.037741,0.0048472,0.012776,-1.5715,0.018455,0.029733,1.0333e-06,0.51,0.67,0
0.017015,-0.0035521,0.037766,0.0046276,0.012718,-0.00087991,0,0,0.065125,-0.021035,0,-0.0045755,0,0,0,0.037789,0.0046042,0.012718,-1.5199,0.018371,0.029964,1.0477e-06,0.52,0.67,0
0.017668,-0.0036306,0.037814,0.0043872,0.01266,-0.00085614,0,0,0.0654,-0.02151,0,-0.0044519,0,0,0,0.037836,0.0043653,0.01266,-1.4662,0.018287,0.030191,1.0618e-06,0.53,0.67,0
0.018323,-0.0037075,0.037861,0.0041513,0.012604,-0.00083047,0,0,0.06567,-0.021977,0,-0.0043184,0,0,0,0.037882,0.0041309,0.012604,-1.4104,0.018206,0.030413,1.0756e-06,0.54,0.67,0
0.018981,-0.0037828,0.037907,0.0039204,0.012548,-0.00080297,0,0,0.065933,-0.022433,0,-0.0041754,0,0,0,0.037926,0.0039014,0.012548,-1.3527,0.018125,0.030631,1.0891e-06,0.55,0.67,0
0.019642,-0.0038564,0.037951,0.0036947,0.012494,-0.00077374,0,0,0.066189,-0.022877,0,-0.0040234,0,0,0,0.037968,0.0036772,0.012494,-1.2933,0.018046,0.030843,1.1021e-06,0.56,0.67,0
0.020305,-0.0039282,0.037993,0.0034748,0.01244,-0.00074292,0,0,0.066436,-0.02331,0,-0.0038632,0,0,0,0.038009,0.0034588,0.01244,-1.2324,0.017969,0.031049,1.1147e-06,0.57,0.67,0
0.020971,-0.003998,0.038032,0.0032609,0.012388,-0.00071068,0,0,0.066675,-0.02373,0,-0.0036955,0,0,0,0.038047,0.0032464,0.012388,-1.1704,0.017894,0.031249,1.1269e-06,0.58,0.67,0
0.021639,-0.004066,0.03807,0.0030535,0.012337,-0.00067721,0,0,0.066905,-0.024137,0,-0.0035215,0,0,0,0.038083,0.0030404,0.012337,-1.1076,0.01782,0.031442,1.1385e-06,0.59,0.67,0
0.022309,-0.0041319,0.038105,0.0028526,0.012287,-0.00064275,0,0,0.067125,-0.02453,0,-0.0033423,0,0,0,0.038116,0.0028409,0.012287,-1.0442,0.017748,0.031628,1.1497e-06,0.6,0.67,0
0.022981,-0.0041958,0.038137,0.0026586,0.012239,-0.00060752,0,0,0.067336,-0.024908,0,-0.0031591,0,0,0,0.038147,0.0026482,0.012239,-0.98073,0.017678,0.031808,1.1603e-06,0.61,0.67,0
0.023655,-0.0042576,0.038167,0.0024716,0.012192,-0.00057176,0,0,0.067536,-0.025272,0,-0.0029732,0,0,0,0.038176,0.0024625,0.012192,-0.91744,0.01761,0.031979,1.1704e-06,0.62,0.67,0
0.024332,-0.0043172,0.038194,0.0022918,0.012146,-0.00053573,0,0,0.067726,-0.02562,0,-0.0027858,0,0,0,0.038202,0.0022838,0.012146,-0.8547,0.017544,0.032143,1.1799e-06,0.63,0.67,0
0.02501,-0.0043747,0.038219,0.0021192,0.012101,-0.00049966,0,0,0.067906,-0.025954,0,-0.0025982,0,0,0,0.038226,0.0021123,0.012101,-0.79283,0.01748,0.032299,1.1889e-06,0.64,0.67,0
0.02569,-0.00443,0.038241,0.0019539,0.012058,-0.00046379,0,0,0.068075,-0.026272,0,-0.0024117,0,0,0,0.038247,0.0019479,0.012058,-0.73213,0.017418,0.032448,1.1974e-06,0.65,0.67,0
0.026371,-0.0044832,0.038261,0.0017957,0.012017,-0.00042834,0,0,0.068234,-0.026575,0,-0.0022274,0,0,0,0.038266,0.0017907,0.012017,-0.6729,0.017358,0.032589,1.2053e-06,0.66,0.67,0
0.027054,-0.0045341,0.038278,0.0016448,0.011977,-0.00039353,0,0,0.068384,-0.026863,0,-0.0020464,0,0,0,0.038282,0.0016406,0.011977,-0.6154,0.0173,0.032722,1.2127e-06,0.67,0.67,0
0.027739,-0.0045829,0.038293,0.001501,0.011938,-0.00035956,0,0,0.068523,-0.027137,0,-0.0018697,0,0,0,0.038297,0.0014975,0.011938,-0.55985,0.017244,0.032848,1.2196e-06,0.68,0.67,0
0.028425,-0.0046295,0.038306,0.0013643,0.011901,-0.00032658,0,0,0.068653,-0.027396,0,-0.0016982,0,0,0,0.038309,0.0013614,0.011901,-0.50647,0.017191,0.032967,1.226e-06,0.69,0.67,0
0.029112,-0.004674,0.038317,0.0012343,0.011865,-0.00029478,0,0,0.068774,-0.027641,0,-0.0015329,0,0,0,0.038319,0.001232,0.011865,-0.45542,0.017139,0.033078,1.2319e-06,0.7,0.67,0
0.029801,-0.0047164,0.038326,0.0011112,0.011831,-0.00026427,0,0,0.068886,-0.027872,0,-0.0013742,0,0,0,0.038328,0.0011093,0.011831,-0.40685,0.017089,0.033183,1.2374e-06,0.71,0.67,0
0.03049,-0.0047567,0.038333,0.00099455,0.011798,-0.00023518,0,0,0.06899,-0.028089,0,-0.0012229,0,0,0,0.038334,0.00099307,0.011798,-0.36087,0.017042,0.033281,1.2424e-06,0.72,0.67,0
0.03118,-0.004795,0.038338,0.00088431,0.011767,-0.0002076,0,0,0.069085,-0.028294,0,-0.0010795,0,0,0,0.038339,0.00088316,0.011767,-0.31757,0.016996,0.033373,1.247e-06,0.73,0.67,0
0.031872,-0.0048313,0.038342,0.00078025,0.011737,-0.00018161,0,0,0.069173,-0.028487,0,-0.00094435,0,0,0,0.038343,0.00077937,0.011737,-0.27701,0.016953,0.033458,1.2512e-06,0.74,0.67,0
0.032564,-0.0048656,0.038344,0.00068216,0.011708,-0.00015725,0,0,0.069254,-0.028667,0,-0.00081772,0,0,0,0.038345,0.0006815,0.011708,-0.23923,0.016911,0.033538,1.255e-06,0.75,0.67,0
0.033257,-0.0048981,0.038345,0.00058985,0.01168,-0.00013458,0,0,0.069328,-0.028836,0,-0.00069984,0,0,0,0.038346,0.00058937,0.01168,-0.20424,0.016872,0.033612,1.2585e-06,0.76,0.67,0
0.03395,-0.0049287,0.038345,0.0005031,0.011654,-0.00011362,0,0,0.069396,-0.028994,0,-0.00059082,0,0,0,0.038345,0.00050276,0.011654,-0.17203,0.016834,0.033681,1.2617e-06,0.77,0.67,0
0.034645,-0.0049575,0.038344,0.00042172,0.01163,-9.4365e-05,0,0,0.069457,-0.029141,0,-0.0004907,0,0,0,0.038344,0.00042148,0.01163,-0.14257,0.016799,0.033745,1.2646e-06,0.78,0.67,0
0.035339,-0.0049846,0.038342,0.00034549,0.011606,-7.6813e-05,0,0,0.069514,-0.029278,0,-0.00039943,0,0,0,0.038343,0.00034534,0.011606,-0.11583,0.016765,0.033804,1.2672e-06,0.79,0.67,0
0.036035,-0.00501,0.03834,0.00027423,0.011584,-6.0945e-05,0,0,0.069565,-0.029406,0,-0.00031691,0,0,0,0.03834,0.00027413,0.011584,-0.091733,0.016733,0.033858,1.2695e-06,0.8,0.67,0
0.036731,-0.0050337,0.038337,0.00020772,0.011563,-4.6729e-05,0,0,0.069611,-0.029524,0,-0.00024299,0,0,0,0.038337,0.00020766,0.011563,-0.070219,0.016703,0.033909,1.2716e-06,0.81,0.67,0
0.037427,-0.0050559,0.038333,0.00014579,0.011544,-3.4123e-05,0,0,0.069652,-0.029634,0,-0.00017744,0,0,0,0.038333,0.00014576,0.011544,-0.051198,0.016674,0.033955,1.2735e-06,0.82,0.67,0
0.038124,-0.0050765,0.038329,8.8261e-05,0.011525,-2.3078e-05,0,0,0.06969,-0.029736,0,-0.00012001,0,0,0,0.038329,8.8247e-05,0.011525,-0.034578,0.016647,0.033997,1.2751e-06,0.83,0.67,0
0.038821,-0.0050957,0.038325,3.4951e-05,0.011508,-1.3535e-05,0,0,0.069724,-0.02983,0,-7.038e-05,0,0,0,0.038325,3.4947e-05,0.011508,-0.020253,0.016623,0.034036,1.2766e-06,0.84,0.67,0
0.039518,-0.0051134,0.03832,-1.4299e-05,0.011492,-5.4283e-06,0,0,0.069754,-0.029916,0,-2.8227e-05,0,0,0,0.03832,-1.43e-05,0.011492,-0.0081133,0.016599,0.034071,1.2779e-06,0.85,0.67,0
0.040216,-0.0051298,0.038316,-5.9645e-05,0.011477,1.312e-06,0,0,0.069781,-0.029995,0,6.8222e-06,0,0,0,0.038316,-5.9645e-05,0.011477,0.0019588,0.016578,0.034104,1.2791e-06,0.86,0.67,0
0.040914,-0.0051448,0.038311,-0.00010123,0.011463,6.762e-06,0,0,0.069805,-0.030067,0,3.5162e-05,0,0,0,0.038311,-0.00010123,0.011463,0.010086,0.016558,0.034133,1.2801e-06,0.87,0.67,0
0.041612,-0.0051585,0.038307,-0.00013919,0.01145,1.1002e-05,0,0,0.069827,-0.030133,0,5.7209e-05,0,0,0,0.038307,-0.0001392,0.01145,0.016396,0.016539,0.034159,1.281e-06,0.88,0.67,0
0.04231,-0.005171,0.038302,-0.00017366,0.011439,1.4115e-05,0,0,0.069846,-0.030192,0,7.3398e-05,0,0,0,0.038302,-0.00017367,0.011439,0.021019,0.016522,0.034183,1.2818e-06,0.89,0.67,0
0.043009,-0.0051823,0.038298,-0.00020474,0.011428,1.6188e-05,0,0,0.069862,-0.030245,0,8.4177e-05,0,0,0,0.038298,-0.00020475,0.011428,0.024089,0.016507,0.034204,1.2825e-06,0.9,0.67,0
0.043708,-0.0051924,0.038294,-0.00023255,0.011418,1.731e-05,0,0,0.069877,-0.030293,0,9.0011e-05,0,0,0,0.038294,-0.00023256,0.011418,0.025743,0.016493,0.034223,1.2831e-06,0.91,0.67,0
0.044407,-0.0052013,0.03829,-0.00025717,0.01141,1.7571e-05,0,0,0.069889,-0.030335,0,9.1371e-05,0,0,0,0.03829,-0.00025718,0.01141,0.026117,0.016481,0.034239,1.2836e-06,0.92,0.67,0
0.045105,-0.0052091,0.038287,-0.0002787,0.011402,1.7065e-05,0,0,0.0699,-0.030371,0,8.8738e-05,0,0,0,0.038287,-0.00027871,0.011402,0.025353,0.01647,0.034253,1.284e-06,0.93,0.67,0
0.045804,-0.0052158,0.038284,-0.0002972,0.011396,1.5885e-05,0,0,0.069909,-0.030403,0,8.2601e-05,0,0,0,0.038284,-0.00029721,0.011396,0.02359,0.016461,0.034265,1.2843e-06,0.94,0.67,0
0.046504,-0.0052215,0.038282,-0.00031275,0.011391,1.4125e-05,0,0,0.069917,-0.030429,0,7.3451e-05,0,0,0,0.038282,-0.00031276,0.011391,0.02097,0.016453,0.034276,1.2846e-06,0.95,0.67,0
0.047203,-0.0052261,0.03828,-0.0003254,0.011386,1.1882e-05,0,0,0.069922,-0.03045,0,6.1786e-05,0,0,0,0.03828,-0.0003254,0.011386,0.017635,0.016447,0.034284,1.2849e-06,0.96,0.67,0
0.047902,-0.0052296,0.038278,-0.00033519,0.011383,9.2511e-06,0,0,0.069927,-0.030467,0,4.8106e-05,0,0,0,0.038278,-0.00033519,0.011383,0.013727,0.016442,0.03429,1.285e-06,0.97,0.67,0
0.048601,-0.0052321,0.038277,-0.00034216,0.01138,6.3293e-06,0,0,0.06993,-0.030478,0,3.2912e-05,0,0,0,0.038277,-0.00034216,0.01138,0.0093902,0.016438,0.034295,1.2852e-06,0.98,0.67,0
0.049301,-0.0052337,0.038276,-0.00034633,0.011379,3.2132e-06,0,0,0.069932,-0.030485,0,1.6709e-05,0,0,0,0.038276,-0.00034633,0.011379,0.0047668,0.016436,0.034297,1.2852e-06,0.99,0.67,0
0.05,-0.0052342,0.038276,-0.00034772,0.011378,-9.7048e-06,0,0,0.069933,-0.030488,0,-5.0465e-05,0,0,0,0.038276,-0.00034772,0.011378,-0.014397,0.016435,0.034298,1.2853e-06,1,0.67,0
0,0,0.03364,0.014417,0.014417,-0.0027553,0,0,0.02499,-2.9816e-19,0,-0.0071638,0,0,0,0.034028,0.01403,0.014417,-7.9979,0.020825,0.019807,3.9857e-07,0,0.68,0
0.0002499,-7.1638e-05,0.033599,0.013906,0.014251,-0.0027579,0,0,0.025152,-0.00044939,0,-0.0071706,0,0,0,0.033978,0.013527,0.014251,-7.8235,0.020585,0.020098,4.1515e-07,0.01,0.68,0
0.00050303,-0.00014499,0.033772,0.013473,0.014174,-0.0027872,0,0,0.025478,-0.00091022,0,-0.0072467,0,0,0,0.034148,0.013098,0.014174,-7.678,0.020473,0.020533,4.4052e-07,0.02,0.68,0
0.00075946,-0.00021986,0.033947,0.013031,0.014093,-0.0028068,0,0,0.025809,-0.0013808,0,-0.0072976,0,0,0,0.034317,0.012661,0.014093,-7.5118,0.020357,0.020976,4.6658e-07,0.03,0.68,0
0.0010192,-0.00029609,0.034121,0.01258,0.014011,-0.0028164,0,0,0.026144,-0.0018593,0,-0.0073225,0,0,0,0.034484,0.012218,0.014011,-7.327,0.020237,0.021426,4.9324e-07,0.04,0.68,0
0.0012823,-0.00037347,0.034295,0.012122,0.013925,-0.0028159,0,0,0.026481,-0.0023439,0,-0.0073215,0,0,0,0.034647,0.01177,0.013925,-7.1258,0.020114,0.021879,5.2038e-07,0.05,0.68,0
0.0015488,-0.00045182,0.034468,0.011659,0.013838,-0.0028056,0,0,0.026819,-0.0028328,0,-0.0072946,0,0,0,0.034808,0.011319,0.013838,-6.9104,0.019988,0.022336,5.4787e-07,0.06,0.68,0
0.0018187,-0.00053096,0.034638,0.011192,0.013749,-0.0027855,0,0,0.027155,-0.0033242,0,-0.0072423,0,0,0,0.034964,0.010865,0.013749,-6.6831,0.019859,0.022794,5.7558e-07,0.07,0.68,0
0.0020919,-0.00061068,0.034804,0.010722,0.013658,-0.0027561,0,0,0.02749,-0.0038163,0,-0.0071657,0,0,0,0.035115,0.010411,0.013658,-6.4462,0.019728,0.023252,6.034e-07,0.08,0.68,0
0.0023685,-0.00069082,0.034966,0.010252,0.013565,-0.0027177,0,0,0.027821,-0.0043074,0,-0.0070661,0,0,0,0.035261,0.0099568,0.013565,-6.2019,0.019595,0.023707,6.3121e-07,0.09,0.68,0
0.0026484,-0.0007712,0.035123,0.0097825,0.013472,-0.0026711,0,0,0.028147,-0.0047959,0,-0.0069448,0,0,0,0.035402,0.009504,0.013472,-5.9523,0.019459,0.024159,6.5887e-07,0.1,0.68,0
0.0029314,-0.00085166,0.035274,0.0093149,0.013377,-0.0026169,0,0,0.028467,-0.0052804,0,-0.0068039,0,0,0,0.035536,0.0090537,0.013377,-5.6994,0.019322,0.024607,6.8629e-07,0.11,0.68,0
0.0032177,-0.00093205,0.035419,0.0088504,0.013281,-0.0025559,0,0,0.02878,-0.0057597,0,-0.0066455,0,0,0,0.035663,0.0086068,0.013281,-5.4453,0.019184,0.025048,7.1335e-07,0.12,0.68,0
0.003507,-0.0010122,0.035558,0.0083901,0.013184,-0.0024891,0,0,0.029085,-0.0062325,0,-0.0064716,0,0,0,0.035784,0.0081639,0.013184,-5.1918,0.019044,0.025483,7.3997e-07,0.13,0.68,0
0.0037994,-0.001092,0.035689,0.0079348,0.013087,-0.0024172,0,0,0.029382,-0.0066979,0,-0.0062848,0,0,0,0.035897,0.0077258,0.013087,-4.9406,0.018904,0.02591,7.6607e-07,0.14,0.68,0
0.0040947,-0.0011714,0.035812,0.0074852,0.012989,-0.0023413,0,0,0.02967,-0.0071552,0,-0.0060875,0,0,0,0.036004,0.007293,0.012989,-4.6933,0.018762,0.026329,7.9156e-07,0.15,0.68,0
0.0043928,-0.0012502,0.035928,0.007042,0.012891,-0.0022624,0,0,0.029948,-0.0076037,0,-0.0058822,0,0,0,0.036104,0.0068659,0.012891,-4.4513,0.01862,0.02674,8.164e-07,0.16,0.68,0
0.0046937,-0.0013284,0.036036,0.0066056,0.012793,-0.0021813,0,0,0.030217,-0.0080431,0,-0.0056714,0,0,0,0.036197,0.0064448,0.012793,-4.2159,0.018478,0.027141,8.4055e-07,0.17,0.68,0
0.0049971,-0.001406,0.036137,0.0061762,0.012694,-0.002099,0,0,0.030476,-0.0084731,0,-0.0054575,0,0,0,0.036283,0.0060299,0.012694,-3.9882,0.018336,0.027533,8.6396e-07,0.18,0.68,0
0.0053032,-0.0014827,0.03623,0.005754,0.012595,-0.0020165,0,0,0.030725,-0.0088936,0,-0.0052429,0,0,0,0.036363,0.0056212,0.012595,-3.7692,0.018193,0.027916,8.8662e-07,0.19,0.68,0
0.0056117,-0.0015587,0.036316,0.005339,0.012497,-0.0019346,0,0,0.030965,-0.0093048,0,-0.0050299,0,0,0,0.036436,0.0052186,0.012497,-3.5598,0.01805,0.02829,9.0852e-07,0.2,0.68,0
0.0059225,-0.0016339,0.036395,0.0049309,0.012398,-0.001854,0,0,0.031196,-0.0097068,0,-0.0048205,0,0,0,0.036504,0.0048221,0.012398,-3.3607,0.017908,0.028655,9.2967e-07,0.21,0.68,0
0.0062356,-0.0017083,0.036467,0.0045298,0.012299,-0.0017756,0,0,0.031418,-0.0101,0,-0.0046166,0,0,0,0.036565,0.0044314,0.012299,-3.1725,0.017765,0.029011,9.5007e-07,0.22,0.68,0
0.0065509,-0.0017819,0.036533,0.0041351,0.0122,-0.0017,0,0,0.031632,-0.010485,0,-0.00442,0,0,0,0.036621,0.0040461,0.0122,-2.9955,0.017623,0.02936,9.6975e-07,0.23,0.68,0
0.0068682,-0.0018548,0.036592,0.0037465,0.012102,-0.0016278,0,0,0.031838,-0.010862,0,-0.0042322,0,0,0,0.036673,0.003666,0.012102,-2.8302,0.01748,0.029701,9.8874e-07,0.24,0.68,0
0.0071876,-0.0019268,0.036647,0.0033635,0.012003,-0.0015594,0,0,0.032037,-0.011232,0,-0.0040545,0,0,0,0.03672,0.0032906,0.012003,-2.6766,0.017338,0.030036,1.0071e-06,0.25,0.68,0
0.007509,-0.0019982,0.036696,0.0029855,0.011905,-0.0014954,0,0,0.03223,-0.011595,0,-0.0038881,0,0,0,0.036763,0.0029192,0.011905,-2.535,0.017195,0.030365,1.0248e-06,0.26,0.68,0
0.0078322,-0.0020688,0.036742,0.0026119,0.011806,-0.0014361,0,0,0.032417,-0.011952,0,-0.0037338,0,0,0,0.036802,0.0025516,0.011806,-2.4051,0.017053,0.030688,1.042e-06,0.27,0.68,0
0.0081573,-0.0021389,0.036783,0.0022421,0.011708,-0.0013816,0,0,0.032599,-0.012305,0,-0.0035923,0,0,0,0.036839,0.002187,0.011708,-2.2869,0.016911,0.031008,1.0586e-06,0.28,0.68,0
0.0084842,-0.0022083,0.036822,0.0018755,0.011609,-0.0013323,0,0,0.032777,-0.012654,0,-0.003464,0,0,0,0.036873,0.0018248,0.011609,-2.1801,0.016769,0.031323,1.0748e-06,0.29,0.68,0
0.0088128,-0.0022773,0.036858,0.0015114,0.011511,-0.0012881,0,0,0.032951,-0.012999,0,-0.0033491,0,0,0,0.036905,0.0014645,0.011511,-2.0844,0.016627,0.031637,1.0906e-06,0.3,0.68,0
0.0091432,-0.0023457,0.036891,0.001149,0.011412,-0.0012491,0,0,0.033123,-0.013342,0,-0.0032477,0,0,0,0.036935,0.0011054,0.011412,-1.9991,0.016484,0.031948,1.1061e-06,0.31,0.68,0
0.0094753,-0.0024137,0.036924,0.00078776,0.011313,-0.0012152,0,0,0.033293,-0.013683,0,-0.0031594,0,0,0,0.036964,0.00074695,0.011313,-1.9238,0.016342,0.032259,1.1212e-06,0.32,0.68,0
0.009809,-0.0024814,0.036955,0.00042702,0.011215,-0.0011861,0,0,0.033462,-0.014024,0,-0.0030839,0,0,0,0.036993,0.00038855,0.011215,-1.8579,0.016199,0.03257,1.1362e-06,0.33,0.68,0
0.010145,-0.0025487,0.036986,6.617e-05,0.011116,-0.0011617,0,0,0.033631,-0.014364,0,-0.0030203,0,0,0,0.037022,2.9655e-05,0.011116,-1.8004,0.016056,0.032882,1.151e-06,0.34,0.68,0
0.010482,-0.0026157,0.037017,-0.00029536,0.011016,-0.0011415,0,0,0.0338,-0.014705,0,-0.002968,0,0,0,0.037052,-0.00033025,0.011016,-1.7507,0.015912,0.033196,1.1656e-06,0.35,0.68,0
0.010821,-0.0026826,0.037048,-0.00065806,0.010917,-0.0011253,0,0,0.03397,-0.015048,0,-0.0029257,0,0,0,0.037081,-0.00069162,0.010917,-1.7079,0.015769,0.033512,1.1802e-06,0.36,0.68,0
0.011161,-0.0027492,0.03708,-0.0010224,0.010817,-0.0011124,0,0,0.034141,-0.015392,0,-0.0028923,0,0,0,0.037112,-0.0010548,0.010817,-1.6709,0.015625,0.033831,1.1947e-06,0.37,0.68,0
0.011503,-0.0028156,0.037113,-0.0013887,0.010717,-0.0011025,0,0,0.034315,-0.015738,0,-0.0028664,0,0,0,0.037145,-0.0014202,0.010717,-1.6388,0.015481,0.034154,1.2092e-06,0.38,0.68,0
0.011847,-0.0028818,0.037148,-0.0017572,0.010617,-0.0010948,0,0,0.03449,-0.016087,0,-0.0028464,0,0,0,0.037179,-0.0017879,0.010617,-1.6106,0.015336,0.03448,1.2238e-06,0.39,0.68,0
0.012193,-0.0029479,0.037185,-0.0021281,0.010517,-0.0010888,0,0,0.034668,-0.016439,0,-0.0028307,0,0,0,0.037215,-0.0021582,0.010517,-1.5852,0.015191,0.034811,1.2383e-06,0.4,0.68,0
0.012541,-0.0030137,0.037223,-0.0025014,0.010416,-0.0010837,0,0,0.034848,-0.016793,0,-0.0028177,0,0,0,0.037252,-0.002531,0.010416,-1.5615,0.015046,0.035146,1.2529e-06,0.41,0.68,0
0.01289,-0.0030794,0.037263,-0.0028772,0.010316,-0.001079,0,0,0.035032,-0.017151,0,-0.0028053,0,0,0,0.037292,-0.0029062,0.010316,-1.5386,0.014901,0.035486,1.2675e-06,0.42,0.68,0
0.013241,-0.0031449,0.037305,-0.0032553,0.010215,-0.0010739,0,0,0.035217,-0.017511,0,-0.002792,0,0,0,0.037334,-0.0032837,0.010215,-1.5155,0.014755,0.035829,1.2821e-06,0.43,0.68,0
0.013595,-0.00321,0.037349,-0.0036354,0.010114,-0.0010676,0,0,0.035406,-0.017874,0,-0.0027759,0,0,0,0.037377,-0.0036632,0.010114,-1.4912,0.014609,0.036176,1.2967e-06,0.44,0.68,0
0.01395,-0.0032749,0.037395,-0.0040171,0.010013,-0.0010597,0,0,0.035596,-0.01824,0,-0.0027551,0,0,0,0.037422,-0.0040442,0.010013,-1.4648,0.014464,0.036526,1.3112e-06,0.45,0.68,0
0.014306,-0.0033393,0.037442,-0.0044,0.0099127,-0.0010493,0,0,0.035789,-0.018607,0,-0.0027281,0,0,0,0.037469,-0.0044263,0.0099127,-1.4356,0.014318,0.036879,1.3256e-06,0.46,0.68,0
0.014665,-0.0034033,0.037491,-0.0047834,0.0098122,-0.0010358,0,0,0.035982,-0.018974,0,-0.0026931,0,0,0,0.037516,-0.0048088,0.0098122,-1.4028,0.014173,0.037234,1.3398e-06,0.47,0.68,0
0.015026,-0.0034668,0.03754,-0.0051669,0.0097121,-0.0010188,0,0,0.036177,-0.019343,0,-0.0026489,0,0,0,0.037565,-0.0051912,0.0097121,-1.3658,0.014029,0.037589,1.3538e-06,0.48,0.68,0
0.015389,-0.0035295,0.037591,-0.0055495,0.0096123,-0.00099767,0,0,0.036372,-0.01971,0,-0.0025939,0,0,0,0.037614,-0.0055726,0.0096123,-1.3241,0.013884,0.037945,1.3676e-06,0.49,0.68,0
0.015754,-0.0035916,0.037624,-0.00042228,0.011161,-0.00097403,0,0,0.05057,-0.020077,0,-0.0037799,0,0,0,0.037649,-0.00044762,0.011161,-1.493,0.016121,0.03389,1.1963e-06,0.5,0.68,0
0.0164,-0.0036778,0.037691,0.0048506,0.012762,-0.00095179,0,0,0.064814,-0.020571,0,-0.0049493,0,0,0,0.037718,0.004823,0.012762,-1.6587,0.018435,0.029732,1.0323e-06,0.51,0.68,0
0.01705,-0.0037626,0.03774,0.0046042,0.012703,-0.00092897,0,0,0.065096,-0.021058,0,-0.0048306,0,0,0,0.037766,0.0045782,0.012703,-1.6046,0.018349,0.029963,1.0467e-06,0.52,0.68,0
0.017702,-0.0038458,0.037788,0.0043618,0.012645,-0.00090397,0,0,0.065373,-0.021537,0,-0.0047006,0,0,0,0.037813,0.0043374,0.012645,-1.548,0.018265,0.030191,1.0609e-06,0.53,0.68,0
0.018357,-0.0039274,0.037835,0.0041239,0.012588,-0.00087683,0,0,0.065643,-0.022006,0,-0.0045595,0,0,0,0.037858,0.0041011,0.012588,-1.4889,0.018182,0.030415,1.0747e-06,0.54,0.68,0
0.019015,-0.0040073,0.03788,0.003891,0.012531,-0.00084761,0,0,0.065907,-0.022465,0,-0.0044076,0,0,0,0.037902,0.0038699,0.012531,-1.4276,0.018101,0.030634,1.0882e-06,0.55,0.68,0
0.019675,-0.0040853,0.037924,0.0036636,0.012476,-0.00081645,0,0,0.066164,-0.022913,0,-0.0042455,0,0,0,0.037943,0.0036441,0.012476,-1.3644,0.018021,0.030846,1.1012e-06,0.56,0.68,0
0.020338,-0.0041614,0.037965,0.003442,0.012422,-0.0007835,0,0,0.066412,-0.023348,0,-0.0040742,0,0,0,0.037983,0.0034243,0.012422,-1.2994,0.017943,0.031053,1.1138e-06,0.57,0.68,0
0.021004,-0.0042355,0.038004,0.0032268,0.012369,-0.00074896,0,0,0.066651,-0.023771,0,-0.0038946,0,0,0,0.038021,0.0032107,0.012369,-1.2331,0.017867,0.031254,1.1259e-06,0.58,0.68,0
0.021671,-0.0043076,0.038041,0.0030181,0.012318,-0.00071307,0,0,0.066881,-0.024179,0,-0.003708,0,0,0,0.038056,0.0030036,0.012318,-1.1659,0.017792,0.031447,1.1375e-06,0.59,0.68,0
0.022341,-0.0043774,0.038075,0.0028164,0.012268,-0.00067608,0,0,0.0671,-0.024573,0,-0.0035156,0,0,0,0.038088,0.0028034,0.012268,-1.0981,0.01772,0.031633,1.1486e-06,0.6,0.68,0
0.023013,-0.0044451,0.038107,0.0026217,0.012219,-0.00063826,0,0,0.06731,-0.024952,0,-0.003319,0,0,0,0.038118,0.0026102,0.012219,-1.0301,0.017649,0.031812,1.1591e-06,0.61,0.68,0
0.023687,-0.0045105,0.038136,0.0024343,0.012171,-0.00059988,0,0,0.067509,-0.025316,0,-0.0031193,0,0,0,0.038146,0.0024242,0.012171,-0.96235,0.01758,0.031982,1.1691e-06,0.62,0.68,0
0.024363,-0.0045736,0.038162,0.0022543,0.012125,-0.0005612,0,0,0.067697,-0.025664,0,-0.0029183,0,0,0,0.038171,0.0022456,0.012125,-0.89518,0.017514,0.032145,1.1785e-06,0.63,0.68,0
0.025041,-0.0046345,0.038186,0.0020818,0.01208,-0.00052252,0,0,0.067874,-0.025996,0,-0.0027171,0,0,0,0.038193,0.0020743,0.01208,-0.82899,0.017449,0.0323,1.1873e-06,0.64,0.68,0
0.025721,-0.004693,0.038207,0.0019168,0.012037,-0.00048409,0,0,0.068041,-0.026313,0,-0.0025173,0,0,0,0.038213,0.0019104,0.012037,-0.76411,0.017387,0.032447,1.1956e-06,0.65,0.68,0
0.026402,-0.0047491,0.038225,0.0017593,0.011995,-0.00044615,0,0,0.068198,-0.026614,0,-0.00232,0,0,0,0.038231,0.0017538,0.011995,-0.70086,0.017327,0.032586,1.2033e-06,0.66,0.68,0
0.027085,-0.0048029,0.038241,0.0016092,0.011955,-0.00040894,0,0,0.068344,-0.026899,0,-0.0021265,0,0,0,0.038246,0.0016046,0.011955,-0.63952,0.017268,0.032718,1.2105e-06,0.67,0.68,0
0.027769,-0.0048544,0.038255,0.0014664,0.011916,-0.00037268,0,0,0.06848,-0.02717,0,-0.0019379,0,0,0,0.038259,0.0014626,0.011916,-0.58034,0.017212,0.032842,1.2172e-06,0.68,0.68,0
0.028455,-0.0049036,0.038266,0.0013307,0.011879,-0.00033754,0,0,0.068607,-0.027426,0,-0.0017552,0,0,0,0.038269,0.0013277,0.011879,-0.52355,0.017159,0.032958,1.2234e-06,0.69,0.68,0
0.029141,-0.0049506,0.038275,0.0012022,0.011843,-0.0003037,0,0,0.068724,-0.027667,0,-0.0015792,0,0,0,0.038278,0.0011997,0.011843,-0.46932,0.017107,0.033067,1.2291e-06,0.7,0.68,0
0.029829,-0.0049952,0.038283,0.0010804,0.011809,-0.0002713,0,0,0.068832,-0.027894,0,-0.0014108,0,0,0,0.038285,0.0010784,0.011809,-0.41781,0.017057,0.033169,1.2343e-06,0.71,0.68,0
0.030518,-0.0050377,0.038288,0.00096536,0.011776,-0.00024047,0,0,0.068932,-0.028108,0,-0.0012504,0,0,0,0.03829,0.00096381,0.011776,-0.36913,0.01701,0.033265,1.2391e-06,0.72,0.68,0
0.031208,-0.005078,0.038292,0.00085675,0.011745,-0.00021129,0,0,0.069023,-0.028309,0,-0.0010987,0,0,0,0.038293,0.00085556,0.011745,-0.32337,0.016965,0.033354,1.2435e-06,0.73,0.68,0
0.031898,-0.0051162,0.038294,0.00075438,0.011715,-0.00018385,0,0,0.069107,-0.028497,0,-0.00095601,0,0,0,0.038295,0.00075348,0.011715,-0.28059,0.016921,0.033437,1.2475e-06,0.74,0.68,0
0.03259,-0.0051523,0.038295,0.00065804,0.011686,-0.0001582,0,0,0.069184,-0.028673,0,-0.00082263,0,0,0,0.038296,0.00065738,0.011686,-0.24082,0.01688,0.033514,1.2511e-06,0.75,0.68,0
0.033282,-0.0051865,0.038295,0.0005675,0.011659,-0.00013438,0,0,0.069254,-0.028837,0,-0.00069875,0,0,0,0.038296,0.00056702,0.011659,-0.20407,0.016841,0.033586,1.2544e-06,0.76,0.68,0
0.033975,-0.0052186,0.038294,0.00048254,0.011633,-0.0001124,0,0,0.069318,-0.028991,0,-0.00058446,0,0,0,0.038294,0.00048221,0.011633,-0.17031,0.016803,0.033652,1.2574e-06,0.77,0.68,0
0.034668,-0.0052489,0.038291,0.00040294,0.011608,-9.2266e-05,0,0,0.069376,-0.029134,0,-0.00047978,0,0,0,0.038292,0.00040271,0.011608,-0.13953,0.016768,0.033713,1.26e-06,0.78,0.68,0
0.035362,-0.0052773,0.038289,0.00032847,0.011585,-7.3969e-05,0,0,0.069429,-0.029267,0,-0.00038464,0,0,0,0.038289,0.00032833,0.011585,-0.11165,0.016734,0.03377,1.2624e-06,0.79,0.68,0
0.036057,-0.0053039,0.038285,0.00025894,0.011563,-5.748e-05,0,0,0.069476,-0.029391,0,-0.0002989,0,0,0,0.038285,0.00025885,0.011563,-0.086608,0.016702,0.033822,1.2646e-06,0.8,0.68,0
0.036752,-0.0053289,0.038281,0.00019413,0.011542,-4.2761e-05,0,0,0.069519,-0.029506,0,-0.00022236,0,0,0,0.038281,0.00019408,0.011542,-0.064328,0.016672,0.03387,1.2665e-06,0.81,0.68,0
0.037447,-0.0053521,0.038276,0.00013384,0.011523,-2.9763e-05,0,0,0.069558,-0.029612,0,-0.00015477,0,0,0,0.038276,0.00013382,0.011523,-0.044709,0.016644,0.033914,1.2682e-06,0.82,0.68,0
0.038143,-0.0053738,0.038271,7.7892e-05,0.011505,-1.843e-05,0,0,0.069593,-0.02971,0,-9.5834e-05,0,0,0,0.038271,7.7883e-05,0.011505,-0.027647,0.016618,0.033954,1.2697e-06,0.83,0.68,0
0.038839,-0.0053939,0.038266,2.61e-05,0.011488,-8.6944e-06,0,0,0.069624,-0.0298,0,-4.5211e-05,0,0,0,0.038266,2.6098e-05,0.011488,-0.013027,0.016593,0.033991,1.2711e-06,0.84,0.68,0
0.039536,-0.0054124,0.038261,-2.1704e-05,0.011472,-4.8588e-07,0,0,0.069651,-0.029883,0,-2.5265e-06,0,0,0,0.038261,-2.1704e-05,0.011472,-0.00072719,0.01657,0.034024,1.2722e-06,0.85,0.68,0
0.040232,-0.0054296,0.038255,-6.5681e-05,0.011457,6.2739e-06,0,0,0.069676,-0.029959,0,3.2624e-05,0,0,0,0.038255,-6.5682e-05,0.011457,0.0093805,0.016549,0.034055,1.2733e-06,0.86,0.68,0
0.040929,-0.0054453,0.03825,-0.00010598,0.011443,1.1668e-05,0,0,0.069698,-0.030028,0,6.0672e-05,0,0,0,0.03825,-0.00010598,0.011443,0.017429,0.016529,0.034082,1.2742e-06,0.87,0.68,0
0.041626,-0.0054597,0.038245,-0.00014274,0.011431,1.5782e-05,0,0,0.069717,-0.030091,0,8.2066e-05,0,0,0,0.038245,-0.00014275,0.011431,0.023555,0.016511,0.034107,1.275e-06,0.88,0.68,0
0.042323,-0.0054727,0.03824,-0.00017609,0.011419,1.8707e-05,0,0,0.069734,-0.030148,0,9.7274e-05,0,0,0,0.03824,-0.0001761,0.011419,0.0279,0.016494,0.034129,1.2757e-06,0.89,0.68,0
0.043021,-0.0054845,0.038235,-0.00020615,0.011409,2.0535e-05,0,0,0.069749,-0.030199,0,0.00010678,0,0,0,0.038235,-0.00020616,0.011409,0.030606,0.016479,0.034149,1.2762e-06,0.9,0.68,0
0.043718,-0.005495,0.038231,-0.00023303,0.011399,2.1361e-05,0,0,0.069762,-0.030244,0,0.00011108,0,0,0,0.038231,-0.00023304,0.011399,0.031819,0.016466,0.034167,1.2767e-06,0.91,0.68,0
0.044416,-0.0055044,0.038227,-0.00025682,0.011391,2.1282e-05,0,0,0.069773,-0.030284,0,0.00011066,0,0,0,0.038227,-0.00025683,0.011391,0.031685,0.016454,0.034182,1.2772e-06,0.92,0.68,0
0.045114,-0.0055126,0.038223,-0.0002776,0.011384,2.0395e-05,0,0,0.069783,-0.030319,0,0.00010606,0,0,0,0.038223,-0.00027762,0.011384,0.030352,0.016443,0.034195,1.2775e-06,0.93,0.68,0
0.045812,-0.0055196,0.03822,-0.00029547,0.011377,1.8801e-05,0,0,0.069791,-0.030349,0,9.7766e-05,0,0,0,0.03822,-0.00029548,0.011377,0.027969,0.016434,0.034207,1.2778e-06,0.94,0.68,0
0.04651,-0.0055255,0.038217,-0.00031047,0.011372,1.6599e-05,0,0,0.069797,-0.030374,0,8.6314e-05,0,0,0,0.038217,-0.00031048,0.011372,0.024685,0.016426,0.034216,1.2781e-06,0.95,0.68,0
0.047208,-0.0055303,0.038215,-0.00032267,0.011368,1.3889e-05,0,0,0.069803,-0.030395,0,7.2223e-05,0,0,0,0.038215,-0.00032268,0.011368,0.02065,0.01642,0.034224,1.2783e-06,0.96,0.68,0
0.047906,-0.005534,0.038213,-0.00033212,0.011364,1.0773e-05,0,0,0.069806,-0.030411,0,5.6018e-05,0,0,0,0.038213,-0.00033212,0.011364,0.016013,0.016415,0.03423,1.2784e-06,0.97,0.68,0
0.048604,-0.0055367,0.038212,-0.00033884,0.011362,7.3514e-06,0,0,0.069809,-0.030422,0,3.8227e-05,0,0,0,0.038212,-0.00033884,0.011362,0.010926,0.016411,0.034234,1.2785e-06,0.98,0.68,0
0.049302,-0.0055382,0.038211,-0.00034286,0.01136,3.7266e-06,0,0,0.069811,-0.030428,0,1.9378e-05,0,0,0,0.038211,-0.00034286,0.01136,0.0055382,0.016409,0.034237,1.2786e-06,0.99,0.68,0
0.05,-0.0055388,0.038211,-0.0003442,0.01136,-1.0144e-05,0,0,0.069812,-0.030431,0,-5.2748e-05,0,0,0,0.038211,-0.0003442,0.01136,-0.015075,0.016409,0.034237,1.2786e-06,1,0.68,0
0,0,0.03375,0.014464,0.014464,-0.0029301,0,0,0.025072,0,0,-0.0076181,0,0,0,0.034186,0.014029,0.014464,-8.4509,0.020893,0.019942,4.0668e-07,0,0.69,0
0.00025071,-7.6182e-05,0.033708,0.013941,0.014294,-0.0029327,0,0,0.025237,-0.00045973,0,-0.007625,0,0,0,0.034133,0.013515,0.014294,-8.2637,0.020648,0.02024,4.2372e-07,0.01,0.69,0
0.00050474,-0.00015419,0.033885,0.013499,0.014215,-0.0029637,0,0,0.025571,-0.0009313,0,-0.0077056,0,0,0,0.034307,0.013076,0.014215,-8.106,0.020533,0.020685,4.4989e-07,0.02,0.69,0
0.00076213,-0.00023382,0.034063,0.013046,0.014133,-0.0029839,0,0,0.02591,-0.0014128,0,-0.0077582,0,0,0,0.034479,0.01263,0.014133,-7.926,0.020414,0.021137,4.7677e-07,0.03,0.69,0
0.0010229,-0.00031489,0.034242,0.012584,0.014048,-0.0029932,0,0,0.026252,-0.0019024,0,-0.0077824,0,0,0,0.034648,0.012178,0.014048,-7.7259,0.020291,0.021596,5.0421e-07,0.04,0.69,0
0.0012872,-0.00039717,0.034419,0.012116,0.013961,-0.0029915,0,0,0.026596,-0.0023981,0,-0.0077779,0,0,0,0.034814,0.011722,0.013961,-7.5082,0.020165,0.022058,5.321e-07,0.05,0.69,0
0.0015549,-0.00048046,0.034595,0.011642,0.013871,-0.0029788,0,0,0.026941,-0.0028977,0,-0.007745,0,0,0,0.034975,0.011262,0.013871,-7.2754,0.020036,0.022523,5.6031e-07,0.06,0.69,0
0.001826,-0.00056456,0.034768,0.011165,0.01378,-0.0029555,0,0,0.027284,-0.0033994,0,-0.0076843,0,0,0,0.035132,0.0108,0.01378,-7.0299,0.019904,0.022987,5.8868e-07,0.07,0.69,0
0.0021005,-0.00064925,0.034937,0.010686,0.013687,-0.0029219,0,0,0.027625,-0.0039012,0,-0.0075969,0,0,0,0.035284,0.010339,0.013687,-6.7742,0.01977,0.023451,6.171e-07,0.08,0.69,0
0.0023785,-0.00073435,0.0351,0.010207,0.013592,-0.0028785,0,0,0.027961,-0.0044013,0,-0.0074842,0,0,0,0.035429,0.009878,0.013592,-6.5107,0.019633,0.023911,6.4542e-07,0.09,0.69,0
0.0026598,-0.00081965,0.035259,0.0097286,0.013496,-0.0028261,0,0,0.028291,-0.0048979,0,-0.007348,0,0,0,0.035568,0.0094195,0.013496,-6.2419,0.019495,0.024367,6.7351e-07,0.1,0.69,0
0.0029443,-0.00090499,0.035411,0.0092535,0.013399,-0.0027655,0,0,0.028615,-0.0053896,0,-0.0071904,0,0,0,0.0357,0.0089643,0.013399,-5.9698,0.019355,0.024817,7.0127e-07,0.11,0.69,0
0.0032321,-0.00099019,0.035556,0.0087824,0.013302,-0.0026976,0,0,0.028931,-0.0058749,0,-0.0070138,0,0,0,0.035825,0.0085133,0.013302,-5.6967,0.019213,0.02526,7.2858e-07,0.12,0.69,0
0.0035229,-0.0010751,0.035693,0.0083164,0.013203,-0.0026234,0,0,0.029238,-0.0063526,0,-0.0068208,0,0,0,0.035943,0.0080672,0.013203,-5.4245,0.019071,0.025695,7.5534e-07,0.13,0.69,0
0.0038168,-0.0011596,0.035823,0.0078564,0.013104,-0.0025438,0,0,0.029535,-0.0068217,0,-0.0066139,0,0,0,0.036053,0.0076269,0.013104,-5.1551,0.018928,0.026121,7.8148e-07,0.14,0.69,0
0.0041136,-0.0012436,0.035945,0.0074032,0.013004,-0.00246,0,0,0.029822,-0.0072815,0,-0.006396,0,0,0,0.036155,0.0071928,0.013004,-4.8902,0.018784,0.026538,8.0692e-07,0.15,0.69,0
0.0044133,-0.0013269,0.036058,0.0069574,0.012905,-0.002373,0,0,0.0301,-0.0077314,0,-0.0061698,0,0,0,0.03625,0.0067652,0.012905,-4.6314,0.01864,0.026945,8.3161e-07,0.16,0.69,0
0.0047156,-0.0014095,0.036163,0.0065194,0.012805,-0.0022839,0,0,0.030366,-0.0081709,0,-0.0059381,0,0,0,0.036338,0.0063445,0.012805,-4.3799,0.018496,0.027342,8.555e-07,0.17,0.69,0
0.0050206,-0.0014913,0.03626,0.0060894,0.012705,-0.0021937,0,0,0.030622,-0.0086,0,-0.0057037,0,0,0,0.036419,0.0059307,0.012705,-4.137,0.018351,0.027728,8.7858e-07,0.18,0.69,0
0.005328,-0.0015723,0.036349,0.0056675,0.012605,-0.0021035,0,0,0.030867,-0.0090186,0,-0.005469,0,0,0,0.036492,0.005524,0.012605,-3.9038,0.018207,0.028105,9.0082e-07,0.19,0.69,0
0.0056379,-0.0016524,0.03643,0.0052536,0.012505,-0.0020141,0,0,0.031102,-0.0094267,0,-0.0052366,0,0,0,0.036559,0.0051241,0.012505,-3.6811,0.018063,0.028472,9.2223e-07,0.2,0.69,0
0.0059501,-0.0017316,0.036503,0.0048476,0.012405,-0.0019264,0,0,0.031327,-0.0098249,0,-0.0050086,0,0,0,0.03662,0.0047308,0.012405,-3.4697,0.017919,0.028828,9.4281e-07,0.21,0.69,0
0.0062645,-0.0018099,0.036569,0.0044492,0.012306,-0.0018413,0,0,0.031543,-0.010213,0,-0.0047873,0,0,0,0.036675,0.004344,0.012306,-3.2702,0.017775,0.029176,9.6259e-07,0.22,0.69,0
0.006581,-0.0018873,0.036629,0.0040579,0.012206,-0.0017594,0,0,0.03175,-0.010593,0,-0.0045744,0,0,0,0.036724,0.0039631,0.012206,-3.083,0.017631,0.029516,9.8159e-07,0.23,0.69,0
0.0068995,-0.0019639,0.036683,0.0036732,0.012107,-0.0016814,0,0,0.031949,-0.010964,0,-0.0043716,0,0,0,0.036768,0.0035878,0.012107,-2.9084,0.017488,0.029847,9.9985e-07,0.24,0.69,0
0.0072199,-0.0020396,0.036731,0.0032946,0.012008,-0.0016078,0,0,0.03214,-0.011327,0,-0.0041804,0,0,0,0.036808,0.0032175,0.012008,-2.7467,0.017344,0.030172,1.0174e-06,0.25,0.69,0
0.0075423,-0.0021146,0.036774,0.0029214,0.011909,-0.0015392,0,0,0.032325,-0.011683,0,-0.0040018,0,0,0,0.036844,0.0028516,0.011909,-2.5979,0.017201,0.03049,1.0344e-06,0.26,0.69,0
0.0078664,-0.0021888,0.036812,0.002553,0.01181,-0.0014757,0,0,0.032503,-0.012034,0,-0.0038369,0,0,0,0.036876,0.0024896,0.01181,-2.462,0.017058,0.030803,1.0507e-06,0.27,0.69,0
0.0081923,-0.0022623,0.036847,0.0021886,0.011711,-0.0014178,0,0,0.032677,-0.012379,0,-0.0036863,0,0,0,0.036905,0.0021307,0.011711,-2.3387,0.016915,0.031111,1.0665e-06,0.28,0.69,0
0.00852,-0.0023352,0.036879,0.0018275,0.011612,-0.0013656,0,0,0.032847,-0.01272,0,-0.0035505,0,0,0,0.036932,0.0017743,0.011612,-2.2277,0.016773,0.031416,1.0819e-06,0.29,0.69,0
0.0088493,-0.0024075,0.036908,0.0014688,0.011513,-0.0013191,0,0,0.033013,-0.013057,0,-0.0034297,0,0,0,0.036957,0.0014198,0.011513,-2.1288,0.01663,0.031718,1.0969e-06,0.3,0.69,0
0.0091802,-0.0024794,0.036935,0.0011119,0.011414,-0.0012784,0,0,0.033177,-0.013393,0,-0.0033238,0,0,0,0.03698,0.0010663,0.011414,-2.0412,0.016487,0.032019,1.1115e-06,0.31,0.69,0
0.0095128,-0.0025508,0.03696,0.00075596,0.011315,-0.0012433,0,0,0.033339,-0.013727,0,-0.0032325,0,0,0,0.037003,0.00071331,0.011315,-1.9645,0.016344,0.03232,1.1259e-06,0.32,0.69,0
0.009847,-0.0026218,0.036985,0.00040029,0.011216,-0.0012136,0,0,0.0335,-0.01406,0,-0.0031554,0,0,0,0.037025,0.00036007,0.011216,-1.8979,0.0162,0.032621,1.1401e-06,0.33,0.69,0
0.010183,-0.0026925,0.03701,4.4184e-05,0.011116,-0.0011891,0,0,0.033661,-0.014394,0,-0.0030916,0,0,0,0.037048,5.9727e-06,0.011116,-1.8405,0.016057,0.032924,1.1541e-06,0.34,0.69,0
0.01052,-0.0027629,0.037034,-0.00031299,0.011016,-0.0011693,0,0,0.033823,-0.014728,0,-0.0030403,0,0,0,0.037071,-0.00034956,0.011016,-1.7916,0.015913,0.033229,1.1681e-06,0.35,0.69,0
0.010859,-0.0028331,0.03706,-0.0006718,0.010916,-0.0011539,0,0,0.033987,-0.015065,0,-0.0030002,0,0,0,0.037095,-0.00070706,0.010916,-1.7501,0.015768,0.033537,1.182e-06,0.36,0.69,0
0.0112,-0.0029031,0.037087,-0.0010328,0.010816,-0.0011423,0,0,0.034152,-0.015404,0,-0.00297,0,0,0,0.037121,-0.001067,0.010816,-1.7149,0.015623,0.033848,1.1959e-06,0.37,0.69,0
0.011542,-0.002973,0.037115,-0.0013963,0.010716,-0.0011339,0,0,0.034319,-0.015745,0,-0.0029481,0,0,0,0.037148,-0.0014296,0.010716,-1.685,0.015478,0.034165,1.2099e-06,0.38,0.69,0
0.011886,-0.0030427,0.037145,-0.0017627,0.010615,-0.001128,0,0,0.034489,-0.016091,0,-0.0029329,0,0,0,0.037178,-0.0017954,0.010615,-1.6593,0.015332,0.034486,1.2239e-06,0.39,0.69,0
0.012232,-0.0031122,0.037177,-0.0021322,0.010514,-0.001124,0,0,0.034663,-0.016439,0,-0.0029225,0,0,0,0.037209,-0.0021643,0.010514,-1.6366,0.015186,0.034812,1.238e-06,0.4,0.69,0
0.01258,-0.0031817,0.037212,-0.0025048,0.010412,-0.0011212,0,0,0.03484,-0.016792,0,-0.002915,0,0,0,0.037243,-0.0025365,0.010412,-1.6157,0.01504,0.035143,1.2522e-06,0.41,0.69,0
0.012929,-0.0032509,0.037249,-0.0028807,0.01031,-0.0011186,0,0,0.03502,-0.017148,0,-0.0029084,0,0,0,0.03728,-0.0029118,0.01031,-1.5955,0.014893,0.035479,1.2664e-06,0.42,0.69,0
0.01328,-0.00332,0.037288,-0.0032595,0.010209,-0.0011156,0,0,0.035203,-0.017508,0,-0.0029007,0,0,0,0.037319,-0.0032902,0.010209,-1.5749,0.014746,0.035821,1.2807e-06,0.43,0.69,0
0.013633,-0.0033888,0.037329,-0.0036411,0.010106,-0.0011115,0,0,0.03539,-0.017872,0,-0.0028899,0,0,0,0.03736,-0.0036712,0.010106,-1.5529,0.014598,0.036167,1.2951e-06,0.44,0.69,0
0.013988,-0.0034573,0.037373,-0.004025,0.010004,-0.0011054,0,0,0.035579,-0.018238,0,-0.002874,0,0,0,0.037403,-0.0040545,0.010004,-1.5284,0.014451,0.036517,1.3094e-06,0.45,0.69,0
0.014344,-0.0035254,0.037419,-0.0044108,0.0099024,-0.0010966,0,0,0.035771,-0.018607,0,-0.0028512,0,0,0,0.037448,-0.0044395,0.0099024,-1.5007,0.014303,0.036871,1.3237e-06,0.46,0.69,0
0.014703,-0.0035931,0.037466,-0.0047978,0.0098005,-0.0010845,0,0,0.035965,-0.018978,0,-0.0028198,0,0,0,0.037494,-0.0048256,0.0098005,-1.469,0.014156,0.037227,1.3379e-06,0.47,0.69,0
0.015064,-0.0036602,0.037514,-0.0051853,0.0096988,-0.0010685,0,0,0.03616,-0.019349,0,-0.002778,0,0,0,0.037541,-0.005212,0.0096988,-1.4325,0.014009,0.037586,1.3519e-06,0.48,0.69,0
0.015426,-0.0037267,0.037564,-0.0055725,0.0095975,-0.0010479,0,0,0.036356,-0.019721,0,-0.0027245,0,0,0,0.037589,-0.0055979,0.0095975,-1.3908,0.013863,0.037945,1.3656e-06,0.49,0.69,0
0.015791,-0.0037924,0.037596,-0.00044635,0.011145,-0.0010243,0,0,0.050547,-0.020092,0,-0.0039754,0,0,0,0.037624,-0.00047438,0.011145,-1.5701,0.016098,0.03389,1.1947e-06,0.5,0.69,0
0.016437,-0.0038836,0.037663,0.0048285,0.012748,-0.0010015,0,0,0.064781,-0.02059,0,-0.005208,0,0,0,0.037694,0.004798,0.012748,-1.7455,0.018413,0.029729,1.0312e-06,0.51,0.69,0
0.017087,-0.0039733,0.037713,0.0045797,0.012688,-0.0009778,0,0,0.065064,-0.021081,0,-0.0050846,0,0,0,0.037741,0.0045509,0.012688,-1.6889,0.018327,0.029962,1.0457e-06,0.52,0.69,0
0.017739,-0.0040613,0.037761,0.004335,0.012629,-0.00095159,0,0,0.065343,-0.021563,0,-0.0049483,0,0,0,0.037788,0.0043079,0.012629,-1.6294,0.018241,0.030192,1.0599e-06,0.53,0.69,0
0.018394,-0.0041477,0.037807,0.0040948,0.012571,-0.00092294,0,0,0.065615,-0.022037,0,-0.0047993,0,0,0,0.037832,0.0040696,0.012571,-1.567,0.018158,0.030417,1.0737e-06,0.54,0.69,0
0.019051,-0.0042321,0.037852,0.0038598,0.012514,-0.00089196,0,0,0.06588,-0.0225,0,-0.0046382,0,0,0,0.037876,0.0038364,0.012514,-1.5021,0.018075,0.030637,1.0872e-06,0.55,0.69,0
0.019711,-0.0043146,0.037895,0.0036304,0.012458,-0.00085878,0,0,0.066138,-0.022951,0,-0.0044657,0,0,0,0.037917,0.0036089,0.012458,-1.4348,0.017994,0.03085,1.1002e-06,0.56,0.69,0
0.020374,-0.0043951,0.037936,0.003407,0.012403,-0.00082361,0,0,0.066386,-0.023389,0,-0.0042828,0,0,0,0.037956,0.0033874,0.012403,-1.3656,0.017915,0.031058,1.1128e-06,0.57,0.69,0
0.021039,-0.0044735,0.037975,0.0031902,0.012349,-0.00078668,0,0,0.066626,-0.023814,0,-0.0040907,0,0,0,0.037993,0.0031724,0.012349,-1.2949,0.017838,0.031259,1.1249e-06,0.58,0.69,0
0.021706,-0.0045496,0.038011,0.0029802,0.012297,-0.00074825,0,0,0.066855,-0.024224,0,-0.0038909,0,0,0,0.038027,0.0029643,0.012297,-1.2231,0.017763,0.031452,1.1364e-06,0.59,0.69,0
0.022376,-0.0046234,0.038044,0.0027775,0.012247,-0.00070862,0,0,0.067074,-0.02462,0,-0.0036848,0,0,0,0.038059,0.0027632,0.012247,-1.1506,0.017689,0.031638,1.1474e-06,0.6,0.69,0
0.023048,-0.0046948,0.038075,0.0025821,0.012197,-0.00066808,0,0,0.067283,-0.024999,0,-0.003474,0,0,0,0.038088,0.0025695,0.012197,-1.078,0.017618,0.031816,1.1578e-06,0.61,0.69,0
0.023721,-0.0047639,0.038103,0.0023943,0.012149,-0.00062695,0,0,0.06748,-0.025363,0,-0.0032601,0,0,0,0.038114,0.0023833,0.012149,-1.0055,0.017549,0.031986,1.1677e-06,0.62,0.69,0
0.024397,-0.0048305,0.038128,0.0022141,0.012103,-0.00058553,0,0,0.067666,-0.02571,0,-0.0030448,0,0,0,0.038138,0.0022046,0.012103,-0.9338,0.017482,0.032148,1.1769e-06,0.63,0.69,0
0.025075,-0.0048946,0.03815,0.0020418,0.012058,-0.00054414,0,0,0.067841,-0.026041,0,-0.0028295,0,0,0,0.038159,0.0020336,0.012058,-0.86315,0.017417,0.032301,1.1856e-06,0.64,0.69,0
0.025754,-0.0049563,0.03817,0.0018772,0.012014,-0.00050305,0,0,0.068005,-0.026356,0,-0.0026159,0,0,0,0.038177,0.0018702,0.012014,-0.79397,0.017354,0.032447,1.1937e-06,0.65,0.69,0
0.026435,-0.0050155,0.038187,0.0017204,0.011972,-0.00046256,0,0,0.068159,-0.026655,0,-0.0024053,0,0,0,0.038193,0.0017145,0.011972,-0.7266,0.017293,0.032584,1.2012e-06,0.66,0.69,0
0.027117,-0.0050721,0.038202,0.0015712,0.011932,-0.00042289,0,0,0.068302,-0.026938,0,-0.002199,0,0,0,0.038207,0.0015663,0.011932,-0.66135,0.017235,0.032713,1.2082e-06,0.67,0.69,0
0.027801,-0.0051263,0.038214,0.0014295,0.011893,-0.00038429,0,0,0.068434,-0.027205,0,-0.0019983,0,0,0,0.038218,0.0014254,0.011893,-0.5985,0.017179,0.032835,1.2147e-06,0.68,0.69,0
0.028486,-0.0051781,0.038224,0.0012951,0.011856,-0.00034696,0,0,0.068557,-0.027457,0,-0.0018042,0,0,0,0.038227,0.0012919,0.011856,-0.53826,0.017125,0.032949,1.2206e-06,0.69,0.69,0
0.029172,-0.0052274,0.038231,0.001168,0.01182,-0.00031108,0,0,0.06867,-0.027695,0,-0.0016176,0,0,0,0.038234,0.0011654,0.01182,-0.48085,0.017073,0.033055,1.2261e-06,0.7,0.69,0
0.029859,-0.0052743,0.038237,0.0010479,0.011785,-0.00027679,0,0,0.068774,-0.027918,0,-0.0014393,0,0,0,0.038239,0.0010458,0.011785,-0.42641,0.017023,0.033155,1.2311e-06,0.71,0.69,0
0.030548,-0.0053189,0.038241,0.0009345,0.011753,-0.00024422,0,0,0.068869,-0.028127,0,-0.0012699,0,0,0,0.038242,0.00093291,0.011753,-0.37506,0.016976,0.033247,1.2356e-06,0.72,0.69,0
0.031237,-0.0053612,0.038243,0.00082768,0.011721,-0.00021347,0,0,0.068957,-0.028323,0,-0.0011101,0,0,0,0.038244,0.00082646,0.011721,-0.32688,0.016931,0.033334,1.2398e-06,0.73,0.69,0
0.031927,-0.0054012,0.038244,0.00072717,0.011691,-0.00018462,0,0,0.069037,-0.028507,0,-0.00096001,0,0,0,0.038245,0.00072626,0.011691,-0.28194,0.016887,0.033414,1.2435e-06,0.74,0.69,0
0.032618,-0.0054391,0.038243,0.00063272,0.011663,-0.00015771,0,0,0.069109,-0.028678,0,-0.0008201,0,0,0,0.038244,0.00063206,0.011663,-0.24025,0.016846,0.033488,1.2469e-06,0.75,0.69,0
0.033309,-0.0054748,0.038242,0.0005441,0.011636,-0.00013279,0,0,0.069175,-0.028838,0,-0.00069048,0,0,0,0.038242,0.00054363,0.011636,-0.20181,0.016807,0.033557,1.25e-06,0.76,0.69,0
0.034001,-0.0055085,0.038239,0.00046107,0.01161,-0.00010985,0,0,0.069235,-0.028987,0,-0.00057122,0,0,0,0.038239,0.00046075,0.01161,-0.1666,0.01677,0.03362,1.2527e-06,0.77,0.69,0
0.034694,-0.0055402,0.038235,0.00038338,0.011586,-8.8905e-05,0,0,0.069289,-0.029126,0,-0.00046231,0,0,0,0.038235,0.00038317,0.011586,-0.13457,0.016735,0.033679,1.2552e-06,0.78,0.69,0
0.035387,-0.0055699,0.038231,0.00031081,0.011563,-6.9928e-05,0,0,0.069338,-0.029254,0,-0.00036362,0,0,0,0.038231,0.00031068,0.011563,-0.10566,0.016702,0.033733,1.2574e-06,0.79,0.69,0
0.03608,-0.0055978,0.038226,0.00024313,0.011541,-5.2885e-05,0,0,0.069382,-0.029374,0,-0.000275,0,0,0,0.038226,0.00024305,0.011541,-0.079774,0.01667,0.033782,1.2593e-06,0.8,0.69,0
0.036774,-0.0056238,0.038221,0.00018012,0.01152,-3.7732e-05,0,0,0.069421,-0.029484,0,-0.0001962,0,0,0,0.038221,0.00018009,0.01152,-0.05683,0.01664,0.033828,1.2611e-06,0.81,0.69,0
0.037469,-0.0056481,0.038215,0.00012159,0.011501,-2.4411e-05,0,0,0.069457,-0.029587,0,-0.00012694,0,0,0,0.038215,0.00012157,0.011501,-0.036716,0.016613,0.033869,1.2626e-06,0.82,0.69,0
0.038164,-0.0056707,0.038209,6.7322e-05,0.011483,-1.2858e-05,0,0,0.069488,-0.029681,0,-6.6861e-05,0,0,0,0.038209,6.7317e-05,0.011483,-0.019315,0.016587,0.033907,1.264e-06,0.83,0.69,0
0.038859,-0.0056917,0.038203,1.714e-05,0.011466,-2.9996e-06,0,0,0.069516,-0.029767,0,-1.5598e-05,0,0,0,0.038203,1.714e-05,0.011466,-0.0045007,0.016562,0.033942,1.2651e-06,0.84,0.69,0
0.039554,-0.0057111,0.038197,-2.9133e-05,0.01145,5.2438e-06,0,0,0.069542,-0.029847,0,2.7268e-05,0,0,0,0.038197,-2.9134e-05,0.01145,0.0078598,0.016539,0.033974,1.2662e-06,0.85,0.69,0
0.040249,-0.005729,0.038191,-7.1663e-05,0.011436,1.1957e-05,0,0,0.069564,-0.02992,0,6.2178e-05,0,0,0,0.038191,-7.1667e-05,0.011436,0.017905,0.016518,0.034002,1.2671e-06,0.86,0.69,0
0.040945,-0.0057454,0.038185,-0.0001106,0.011422,1.7231e-05,0,0,0.069583,-0.029986,0,8.96e-05,0,0,0,0.038185,-0.00011061,0.011422,0.02578,0.016499,0.034028,1.2679e-06,0.87,0.69,0
0.041641,-0.0057604,0.038179,-0.0001461,0.01141,2.1158e-05,0,0,0.0696,-0.030046,0,0.00011002,0,0,0,0.038179,-0.00014611,0.01141,0.03163,0.016481,0.034051,1.2685e-06,0.88,0.69,0
0.042337,-0.005774,0.038174,-0.00017828,0.011399,2.3834e-05,0,0,0.069615,-0.0301,0,0.00012394,0,0,0,0.038174,-0.00017829,0.011399,0.035607,0.016465,0.034072,1.2691e-06,0.89,0.69,0
0.043033,-0.0057862,0.038169,-0.00020726,0.011388,2.536e-05,0,0,0.069629,-0.030149,0,0.00013187,0,0,0,0.038169,-0.00020728,0.011388,0.037862,0.01645,0.034091,1.2696e-06,0.9,0.69,0
0.04373,-0.0057972,0.038164,-0.00023316,0.011379,2.5835e-05,0,0,0.06964,-0.030192,0,0.00013434,0,0,0,0.038164,-0.00023318,0.011379,0.038551,0.016437,0.034107,1.2701e-06,0.91,0.69,0
0.044426,-0.005807,0.038159,-0.00025608,0.011371,2.5362e-05,0,0,0.06965,-0.03023,0,0.00013188,0,0,0,0.038159,-0.00025609,0.011371,0.037827,0.016425,0.034121,1.2704e-06,0.92,0.69,0
0.045123,-0.0058155,0.038155,-0.00027609,0.011364,2.4045e-05,0,0,0.069658,-0.030264,0,0.00012503,0,0,0,0.038155,-0.0002761,0.011364,0.035847,0.016414,0.034134,1.2707e-06,0.93,0.69,0
0.045819,-0.0058228,0.038152,-0.00029328,0.011357,2.1987e-05,0,0,0.069665,-0.030292,0,0.00011433,0,0,0,0.038152,-0.00029329,0.011357,0.032768,0.016405,0.034145,1.271e-06,0.94,0.69,0
0.046516,-0.005829,0.038149,-0.00030771,0.011352,1.9294e-05,0,0,0.069671,-0.030316,0,0.00010033,0,0,0,0.038149,-0.00030772,0.011352,0.028747,0.016398,0.034153,1.2712e-06,0.95,0.69,0
0.047213,-0.005834,0.038146,-0.00031945,0.011348,1.6072e-05,0,0,0.069675,-0.030335,0,8.3574e-05,0,0,0,0.038146,-0.00031946,0.011348,0.02394,0.016392,0.03416,1.2713e-06,0.96,0.69,0
0.04791,-0.0058378,0.038144,-0.00032853,0.011345,1.2425e-05,0,0,0.069679,-0.03035,0,6.4611e-05,0,0,0,0.038144,-0.00032853,0.011345,0.018504,0.016387,0.034166,1.2714e-06,0.97,0.69,0
0.048606,-0.0058406,0.038143,-0.00033499,0.011342,8.4603e-06,0,0,0.069681,-0.030361,0,4.3994e-05,0,0,0,0.038143,-0.00033499,0.011342,0.012598,0.016383,0.03417,1.2715e-06,0.98,0.69,0
0.049303,-0.0058422,0.038142,-0.00033885,0.011341,4.2832e-06,0,0,0.069682,-0.030367,0,2.2273e-05,0,0,0,0.038142,-0.00033885,0.011341,0.0063775,0.016381,0.034172,1.2715e-06,0.99,0.69,0
0.05,-0.0058428,0.038142,-0.00034014,0.01134,-1.0562e-05,0,0,0.069683,-0.03037,0,-5.4922e-05,0,0,0,0.038142,-0.00034014,0.01134,-0.015726,0.016381,0.034173,1.2716e-06,1,0.69,0
0,0,0.033868,0.014515,0.014515,-0.003109,0,0,0.025159,-2.7105e-20,0,-0.0080833,0,0,0,0.034355,0.014028,0.014515,-8.9059,0.020966,0.020088,4.1551e-07,0,0.7,0
0.00025159,-8.0833e-05,0.033824,0.013978,0.014341,-0.0031116,0,0,0.025328,-0.00047108,0,-0.0080903,0,0,0,0.0343,0.013502,0.014341,-8.7053,0.020714,0.020392,4.3304e-07,0.01,0.7,0
0.00050657,-0.00016361,0.034006,0.013525,0.014259,-0.0031443,0,0,0.02567,-0.00095446,0,-0.0081752,0,0,0,0.034477,0.013053,0.014259,-8.5346,0.020597,0.020848,4.601e-07,0.02,0.7,0
0.00076499,-0.00024812,0.034188,0.013061,0.014175,-0.0031652,0,0,0.026018,-0.0014481,0,-0.0082294,0,0,0,0.034652,0.012597,0.014175,-8.3398,0.020474,0.02131,4.8786e-07,0.03,0.7,0
0.0010269,-0.00033414,0.034371,0.012588,0.014087,-0.003174,0,0,0.026368,-0.0019499,0,-0.0082524,0,0,0,0.034824,0.012135,0.014087,-8.1235,0.020349,0.021779,5.1618e-07,0.04,0.7,0
0.0012924,-0.00042143,0.034552,0.012108,0.013998,-0.0031707,0,0,0.026721,-0.0024576,0,-0.0082438,0,0,0,0.034992,0.011668,0.013998,-7.8883,0.020219,0.02225,5.449e-07,0.05,0.7,0
0.0015613,-0.00050978,0.034732,0.011622,0.013906,-0.0031554,0,0,0.027073,-0.0029691,0,-0.008204,0,0,0,0.035155,0.011199,0.013906,-7.637,0.020087,0.022723,5.7388e-07,0.06,0.7,0
0.0018338,-0.00059895,0.034908,0.011134,0.013812,-0.0031283,0,0,0.027424,-0.0034821,0,-0.0081336,0,0,0,0.035312,0.010729,0.013812,-7.3723,0.019951,0.023196,6.0297e-07,0.07,0.7,0
0.0021098,-0.00068871,0.035079,0.010644,0.013717,-0.00309,0,0,0.027771,-0.0039945,0,-0.008034,0,0,0,0.035464,0.01026,0.013717,-7.0968,0.019813,0.023665,6.3202e-07,0.08,0.7,0
0.0023892,-0.00077885,0.035245,0.010155,0.01362,-0.003041,0,0,0.028112,-0.0045044,0,-0.0079067,0,0,0,0.035608,0.0097918,0.01362,-6.8132,0.019673,0.024131,6.6089e-07,0.09,0.7,0
0.0026721,-0.00086916,0.035405,0.0096682,0.013522,-0.0029823,0,0,0.028448,-0.0050098,0,-0.0077539,0,0,0,0.035746,0.0093271,0.013522,-6.5241,0.019532,0.024591,6.8944e-07,0.1,0.7,0
0.0029582,-0.00095945,0.035557,0.0091849,0.013423,-0.0029146,0,0,0.028775,-0.0055091,0,-0.0075778,0,0,0,0.035876,0.0088667,0.013423,-6.2319,0.019388,0.025044,7.1755e-07,0.11,0.7,0
0.0032476,-0.0010495,0.035702,0.0087067,0.013323,-0.002839,0,0,0.029094,-0.0060008,0,-0.0073813,0,0,0,0.035998,0.0084114,0.013323,-5.9389,0.019244,0.025488,7.451e-07,0.12,0.7,0
0.0035401,-0.0011393,0.035839,0.0082347,0.013222,-0.0027566,0,0,0.029402,-0.0064837,0,-0.0071671,0,0,0,0.036112,0.0079621,0.013222,-5.6473,0.019099,0.025923,7.7199e-07,0.13,0.7,0
0.0038356,-0.0012285,0.035967,0.0077698,0.013121,-0.0026686,0,0,0.0297,-0.0069567,0,-0.0069383,0,0,0,0.036218,0.0075195,0.013121,-5.359,0.018953,0.026348,7.9815e-07,0.14,0.7,0
0.0041341,-0.001317,0.036087,0.0073129,0.01302,-0.0025762,0,0,0.029987,-0.0074191,0,-0.006698,0,0,0,0.036316,0.007084,0.01302,-5.076,0.018807,0.026762,8.235e-07,0.15,0.7,0
0.0044353,-0.0014049,0.036197,0.0068645,0.012918,-0.0024805,0,0,0.030262,-0.0078702,0,-0.0064492,0,0,0,0.036405,0.0066562,0.012918,-4.7997,0.01866,0.027165,8.4799e-07,0.16,0.7,0
0.0047393,-0.0014919,0.036298,0.0064249,0.012817,-0.0023827,0,0,0.030526,-0.0083097,0,-0.0061951,0,0,0,0.036487,0.0062361,0.012817,-4.5317,0.018513,0.027557,8.7159e-07,0.17,0.7,0
0.0050459,-0.001578,0.036391,0.0059945,0.012716,-0.002284,0,0,0.030778,-0.0087375,0,-0.0059385,0,0,0,0.036562,0.0058238,0.012716,-4.2733,0.018367,0.027937,8.9427e-07,0.18,0.7,0
0.0053549,-0.0016631,0.036475,0.0055731,0.012614,-0.0021855,0,0,0.031019,-0.0091537,0,-0.0056824,0,0,0,0.036629,0.0054193,0.012614,-4.0255,0.018221,0.028306,9.1603e-07,0.19,0.7,0
0.0056662,-0.0017473,0.03655,0.0051608,0.012513,-0.0020882,0,0,0.031248,-0.0095584,0,-0.0054293,0,0,0,0.036689,0.0050225,0.012513,-3.7893,0.018075,0.028665,9.3688e-07,0.2,0.7,0
0.0059798,-0.0018304,0.036618,0.0047572,0.012413,-0.001993,0,0,0.031467,-0.0099521,0,-0.0051818,0,0,0,0.036742,0.004633,0.012413,-3.5655,0.017929,0.029013,9.5682e-07,0.21,0.7,0
0.0062956,-0.0019126,0.036678,0.0043619,0.012312,-0.0019008,0,0,0.031676,-0.010335,0,-0.004942,0,0,0,0.03679,0.0042505,0.012312,-3.3546,0.017784,0.029351,9.759e-07,0.22,0.7,0
0.0066133,-0.0019938,0.036732,0.0039745,0.012212,-0.0018123,0,0,0.031876,-0.010708,0,-0.0047121,0,0,0,0.036832,0.0038745,0.012212,-3.1571,0.017639,0.02968,9.9415e-07,0.23,0.7,0
0.0069331,-0.002074,0.036778,0.0035943,0.012112,-0.0017283,0,0,0.032066,-0.011073,0,-0.0044937,0,0,0,0.036868,0.0035045,0.012112,-2.9734,0.017495,0.030001,1.0116e-06,0.24,0.7,0
0.0072547,-0.0021534,0.036819,0.0032207,0.012012,-0.0016494,0,0,0.03225,-0.011429,0,-0.0042883,0,0,0,0.0369,0.00314,0.012012,-2.8037,0.017351,0.030314,1.0284e-06,0.25,0.7,0
0.0075781,-0.0022318,0.036855,0.002853,0.011912,-0.0015759,0,0,0.032426,-0.011777,0,-0.0040973,0,0,0,0.036928,0.0027801,0.011912,-2.6479,0.017207,0.030621,1.0444e-06,0.26,0.7,0
0.0079032,-0.0023095,0.036886,0.0024903,0.011813,-0.0015083,0,0,0.032595,-0.01212,0,-0.0039216,0,0,0,0.036952,0.0024243,0.011813,-2.5061,0.017063,0.030922,1.0599e-06,0.27,0.7,0
0.00823,-0.0023865,0.036914,0.0021319,0.011714,-0.0014468,0,0,0.03276,-0.012456,0,-0.0037618,0,0,0,0.036974,0.0020718,0.011714,-2.3779,0.01692,0.031219,1.0748e-06,0.28,0.7,0
0.0085584,-0.0024627,0.036938,0.0017768,0.011614,-0.0013917,0,0,0.032921,-0.012789,0,-0.0036185,0,0,0,0.036993,0.0017218,0.011614,-2.2631,0.016776,0.031512,1.0893e-06,0.29,0.7,0
0.0088884,-0.0025384,0.03696,0.0014243,0.011515,-0.001343,0,0,0.033078,-0.013118,0,-0.0034918,0,0,0,0.03701,0.0013736,0.011515,-2.1613,0.016633,0.031803,1.1034e-06,0.3,0.7,0
0.0092199,-0.0026136,0.036979,0.0010734,0.011416,-0.0013007,0,0,0.033233,-0.013445,0,-0.0033818,0,0,0,0.037026,0.0010264,0.011416,-2.0719,0.01649,0.032092,1.1172e-06,0.31,0.7,0
0.009553,-0.0026883,0.036998,0.00072338,0.011316,-0.0012646,0,0,0.033386,-0.013771,0,-0.0032879,0,0,0,0.037042,0.00067935,0.011316,-1.9942,0.016346,0.032382,1.1307e-06,0.32,0.7,0
0.0098877,-0.0027626,0.037016,0.00037333,0.011217,-0.0012345,0,0,0.033539,-0.014096,0,-0.0032097,0,0,0,0.037057,0.00033179,0.011217,-1.9274,0.016202,0.032673,1.1441e-06,0.33,0.7,0
0.010224,-0.0028366,0.037034,2.2509e-05,0.011117,-0.0012102,0,0,0.033692,-0.014423,0,-0.0031464,0,0,0,0.037073,-1.7018e-05,0.011117,-1.8707,0.016058,0.032965,1.1573e-06,0.34,0.7,0
0.010561,-0.0029103,0.037052,-0.00032982,0.011017,-0.0011911,0,0,0.033846,-0.01475,0,-0.0030969,0,0,0,0.03709,-0.00036773,0.011017,-1.8232,0.015913,0.03326,1.1705e-06,0.35,0.7,0
0.010901,-0.0029839,0.037072,-0.00068431,0.010916,-0.0011768,0,0,0.034002,-0.015081,0,-0.0030598,0,0,0,0.037108,-0.00072095,0.010916,-1.7836,0.015768,0.03356,1.1837e-06,0.36,0.7,0
0.011241,-0.0030572,0.037093,-0.0010415,0.010815,-0.0011668,0,0,0.034161,-0.015414,0,-0.0030337,0,0,0,0.037128,-0.0010772,0.010815,-1.7509,0.015622,0.033863,1.197e-06,0.37,0.7,0
0.011584,-0.0031305,0.037116,-0.001402,0.010714,-0.0011604,0,0,0.034322,-0.015751,0,-0.0030169,0,0,0,0.037151,-0.0014369,0.010714,-1.724,0.015476,0.034173,1.2103e-06,0.38,0.7,0
0.011928,-0.0032036,0.037141,-0.001766,0.010612,-0.0011567,0,0,0.034487,-0.016092,0,-0.0030075,0,0,0,0.037175,-0.0018004,0.010612,-1.7014,0.015329,0.034487,1.2238e-06,0.39,0.7,0
0.012274,-0.0032766,0.037169,-0.0021339,0.01051,-0.0011552,0,0,0.034656,-0.016438,0,-0.0030035,0,0,0,0.037202,-0.0021678,0.01051,-1.6821,0.015182,0.034808,1.2374e-06,0.4,0.7,0
0.012621,-0.0033496,0.037199,-0.0025058,0.010408,-0.0011549,0,0,0.034828,-0.016788,0,-0.0030027,0,0,0,0.037233,-0.0025394,0.010408,-1.6647,0.015034,0.035136,1.2512e-06,0.41,0.7,0
0.01297,-0.0034224,0.037232,-0.0028817,0.010305,-0.001155,0,0,0.035005,-0.017143,0,-0.0030031,0,0,0,0.037266,-0.0029149,0.010305,-1.6479,0.014885,0.035469,1.2651e-06,0.42,0.7,0
0.013321,-0.003495,0.037269,-0.0032614,0.010202,-0.0011547,0,0,0.035186,-0.017503,0,-0.0030022,0,0,0,0.037302,-0.0032942,0.010202,-1.6306,0.014736,0.035809,1.2791e-06,0.43,0.7,0
0.013674,-0.0035675,0.037308,-0.0036446,0.010099,-0.001153,0,0,0.035371,-0.017867,0,-0.0029979,0,0,0,0.03734,-0.003677,0.010099,-1.6115,0.014587,0.036154,1.2933e-06,0.44,0.7,0
0.014029,-0.0036396,0.037349,-0.004031,0.0099954,-0.0011493,0,0,0.03556,-0.018234,0,-0.002988,0,0,0,0.037381,-0.0040629,0.0099954,-1.5896,0.014438,0.036505,1.3074e-06,0.45,0.7,0
0.014385,-0.0037115,0.037393,-0.0044199,0.0098919,-0.0011425,0,0,0.035751,-0.018605,0,-0.0029705,0,0,0,0.037424,-0.0044511,0.0098919,-1.564,0.014288,0.03686,1.3216e-06,0.46,0.7,0
0.014744,-0.0037829,0.037439,-0.0048108,0.0097885,-0.0011321,0,0,0.035946,-0.018979,0,-0.0029434,0,0,0,0.037469,-0.0048411,0.0097885,-1.5338,0.014139,0.037218,1.3357e-06,0.47,0.7,0
0.015104,-0.0038537,0.037486,-0.0052028,0.0096851,-0.0011173,0,0,0.036142,-0.019354,0,-0.002905,0,0,0,0.037516,-0.005232,0.0096851,-1.4983,0.01399,0.03758,1.3497e-06,0.48,0.7,0
0.015466,-0.003924,0.037535,-0.005595,0.0095821,-0.0010976,0,0,0.036339,-0.01973,0,-0.0028537,0,0,0,0.037563,-0.0056229,0.0095821,-1.4568,0.013841,0.037942,1.3634e-06,0.49,0.7,0
0.015831,-0.0039934,0.037567,-0.00047064,0.011129,-0.0010743,0,0,0.05052,-0.020106,0,-0.0041698,0,0,0,0.037598,-0.00050147,0.011129,-1.6469,0.016075,0.033888,1.1929e-06,0.5,0.7,0
0.016477,-0.0040896,0.037634,0.0048057,0.012732,-0.0010511,0,0,0.064746,-0.020608,0,-0.0054657,0,0,0,0.037668,0.004772,0.012732,-1.832,0.018391,0.029726,1.03e-06,0.51,0.7,0
0.017126,-0.0041842,0.037683,0.0045543,0.012671,-0.0010265,0,0,0.065031,-0.021104,0,-0.0053376,0,0,0,0.037715,0.0045225,0.012671,-1.773,0.018303,0.029961,1.0445e-06,0.52,0.7,0
0.017778,-0.0042771,0.037731,0.0043069,0.012611,-0.00099903,0,0,0.065311,-0.021592,0,-0.0051949,0,0,0,0.037761,0.004277,0.012611,-1.7105,0.018216,0.030192,1.0588e-06,0.53,0.7,0
0.018432,-0.0043682,0.037777,0.0040641,0.012552,-0.00096884,0,0,0.065585,-0.02207,0,-0.005038,0,0,0,0.037805,0.0040363,0.012552,-1.6447,0.018131,0.030418,1.0727e-06,0.54,0.7,0
0.019089,-0.0044573,0.037822,0.0038266,0.012495,-0.00093603,0,0,0.065851,-0.022537,0,-0.0048674,0,0,0,0.037848,0.0038009,0.012495,-1.576,0.018048,0.03064,1.0861e-06,0.55,0.7,0
0.019749,-0.0045443,0.037865,0.003595,0.012438,-0.00090076,0,0,0.06611,-0.022992,0,-0.0046839,0,0,0,0.037888,0.0035713,0.012438,-1.5046,0.017966,0.030855,1.0992e-06,0.56,0.7,0
0.020411,-0.0046292,0.037905,0.0033696,0.012382,-0.00086325,0,0,0.066359,-0.023433,0,-0.0044889,0,0,0,0.037927,0.0033481,0.012382,-1.431,0.017886,0.031063,1.1117e-06,0.57,0.7,0
0.021076,-0.0047118,0.037943,0.0031511,0.012328,-0.0008238,0,0,0.066599,-0.023861,0,-0.0042838,0,0,0,0.037963,0.0031316,0.012328,-1.3556,0.017808,0.031265,1.1238e-06,0.58,0.7,0
0.021743,-0.004792,0.037979,0.0029397,0.012276,-0.0007827,0,0,0.066828,-0.024273,0,-0.00407,0,0,0,0.037996,0.0029222,0.012276,-1.279,0.017731,0.031458,1.1353e-06,0.59,0.7,0
0.022413,-0.0048698,0.038011,0.0027358,0.012224,-0.00074028,0,0,0.067047,-0.02467,0,-0.0038494,0,0,0,0.038027,0.0027203,0.012224,-1.2017,0.017657,0.031644,1.1462e-06,0.6,0.7,0
0.023084,-0.0049451,0.038041,0.0025396,0.012174,-0.00069689,0,0,0.067254,-0.02505,0,-0.0036238,0,0,0,0.038055,0.002526,0.012174,-1.1241,0.017585,0.031821,1.1565e-06,0.61,0.7,0
0.023758,-0.0050178,0.038068,0.0023514,0.012126,-0.00065288,0,0,0.06745,-0.025413,0,-0.003395,0,0,0,0.03808,0.0023395,0.012126,-1.0469,0.017515,0.03199,1.1662e-06,0.62,0.7,0
0.024433,-0.0050878,0.038092,0.0021712,0.012079,-0.0006086,0,0,0.067634,-0.02576,0,-0.0031647,0,0,0,0.038102,0.0021609,0.012079,-0.97039,0.017447,0.032151,1.1753e-06,0.63,0.7,0
0.025111,-0.0051553,0.038113,0.001999,0.012034,-0.00056439,0,0,0.067806,-0.02609,0,-0.0029348,0,0,0,0.038122,0.0019902,0.012034,-0.89513,0.017382,0.032303,1.1838e-06,0.64,0.7,0
0.025789,-0.0052201,0.038131,0.001835,0.01199,-0.00052057,0,0,0.067967,-0.026403,0,-0.002707,0,0,0,0.038139,0.0018275,0.01199,-0.82152,0.017319,0.032446,1.1917e-06,0.65,0.7,0
0.02647,-0.0052822,0.038147,0.0016789,0.011948,-0.00047743,0,0,0.068117,-0.026699,0,-0.0024826,0,0,0,0.038153,0.0016726,0.011948,-0.74994,0.017258,0.032581,1.199e-06,0.66,0.7,0
0.027152,-0.0053417,0.038159,0.0015307,0.011907,-0.00043525,0,0,0.068256,-0.026978,0,-0.0022633,0,0,0,0.038165,0.0015255,0.011907,-0.68071,0.017199,0.032708,1.2057e-06,0.67,0.7,0
0.027835,-0.0053985,0.03817,0.0013903,0.011868,-0.00039428,0,0,0.068385,-0.027242,0,-0.0020503,0,0,0,0.038174,0.001386,0.011868,-0.61412,0.017143,0.032827,1.212e-06,0.68,0.7,0
0.028519,-0.0054528,0.038178,0.0012574,0.011831,-0.00035473,0,0,0.068503,-0.02749,0,-0.0018446,0,0,0,0.038181,0.001254,0.011831,-0.55043,0.017089,0.032938,1.2176e-06,0.69,0.7,0
0.029205,-0.0055045,0.038184,0.0011319,0.011795,-0.00031679,0,0,0.068612,-0.027723,0,-0.0016473,0,0,0,0.038187,0.0011292,0.011795,-0.48983,0.017037,0.033042,1.2229e-06,0.7,0.7,0
0.029892,-0.0055536,0.038188,0.0010135,0.01176,-0.00028062,0,0,0.068711,-0.027942,0,-0.0014592,0,0,0,0.03819,0.0010114,0.01176,-0.43248,0.016987,0.033138,1.2276e-06,0.71,0.7,0
0.030579,-0.0056003,0.03819,0.00090201,0.011728,-0.00024634,0,0,0.068802,-0.028147,0,-0.001281,0,0,0,0.038192,0.00090039,0.011728,-0.3785,0.01694,0.033228,1.2319e-06,0.72,0.7,0
0.031268,-0.0056445,0.038191,0.00079715,0.011696,-0.00021405,0,0,0.068885,-0.028338,0,-0.0011131,0,0,0,0.038192,0.00079592,0.011696,-0.32797,0.016895,0.033311,1.2358e-06,0.73,0.7,0
0.031957,-0.0056863,0.03819,0.00069865,0.011666,-0.00018383,0,0,0.06896,-0.028517,0,-0.00095592,0,0,0,0.038191,0.00069775,0.011666,-0.28093,0.016852,0.033388,1.2393e-06,0.74,0.7,0
0.032647,-0.0057259,0.038188,0.00060626,0.011638,-0.00015572,0,0,0.069029,-0.028683,0,-0.00080975,0,0,0,0.038188,0.00060561,0.011638,-0.2374,0.016811,0.03346,1.2424e-06,0.75,0.7,0
0.033338,-0.0057632,0.038185,0.00051971,0.011611,-0.00012975,0,0,0.06909,-0.028838,0,-0.0006747,0,0,0,0.038185,0.00051927,0.011611,-0.19737,0.016772,0.033525,1.2453e-06,0.76,0.7,0
0.034029,-0.0057984,0.03818,0.00043875,0.011586,-0.00010593,0,0,0.069146,-0.028982,0,-0.00055081,0,0,0,0.038181,0.00043845,0.011586,-0.16081,0.016735,0.033586,1.2478e-06,0.77,0.7,0
0.034721,-0.0058314,0.038175,0.00036312,0.011562,-8.4235e-05,0,0,0.069196,-0.029116,0,-0.00043802,0,0,0,0.038176,0.00036293,0.011562,-0.12764,0.0167,0.033642,1.25e-06,0.78,0.7,0
0.035413,-0.0058624,0.03817,0.00029257,0.011539,-6.465e-05,0,0,0.069241,-0.02924,0,-0.00033618,0,0,0,0.03817,0.00029246,0.011539,-0.097793,0.016667,0.033693,1.252e-06,0.79,0.7,0
0.036105,-0.0058914,0.038164,0.00022687,0.011517,-4.7128e-05,0,0,0.069281,-0.029355,0,-0.00024506,0,0,0,0.038164,0.00022681,0.011517,-0.071177,0.016636,0.03374,1.2538e-06,0.8,0.7,0
0.036798,-0.0059186,0.038157,0.00016578,0.011497,-3.1616e-05,0,0,0.069317,-0.029461,0,-0.0001644,0,0,0,0.038157,0.00016576,0.011497,-0.04768,0.016607,0.033783,1.2553e-06,0.81,0.7,0
0.037492,-0.0059438,0.038151,0.0001091,0.011478,-1.8047e-05,0,0,0.069349,-0.029559,0,-9.3846e-05,0,0,0,0.038151,0.0001091,0.011478,-0.027182,0.016579,0.033822,1.2567e-06,0.82,0.7,0
0.038185,-0.0059674,0.038144,5.6621e-05,0.01146,-6.3498e-06,0,0,0.069377,-0.029649,0,-3.3019e-05,0,0,0,0.038144,5.662e-05,0.01146,-0.0095522,0.016553,0.033858,1.2578e-06,0.83,0.7,0
0.038879,-0.0059892,0.038137,8.1415e-06,0.011444,3.5586e-06,0,0,0.069403,-0.029732,0,1.8505e-05,0,0,0,0.038137,8.1412e-06,0.011444,0.0053475,0.016529,0.03389,1.2589e-06,0.84,0.7,0
0.039573,-0.0060094,0.03813,-3.6517e-05,0.011428,1.1765e-05,0,0,0.069425,-0.029808,0,6.118e-05,0,0,0,0.03813,-3.6521e-05,0.011428,0.017662,0.016507,0.03392,1.2598e-06,0.85,0.7,0
0.040268,-0.006028,0.038123,-7.7524e-05,0.011414,1.8364e-05,0,0,0.069444,-0.029877,0,9.5491e-05,0,0,0,0.038123,-7.7533e-05,0.011414,0.027543,0.016486,0.033946,1.2605e-06,0.86,0.7,0
0.040962,-0.006045,0.038116,-0.00011504,0.0114,2.345e-05,0,0,0.069461,-0.02994,0,0.00012194,0,0,0,0.038116,-0.00011505,0.0114,0.035144,0.016467,0.033971,1.2612e-06,0.87,0.7,0
0.041657,-0.0060606,0.03811,-0.0001492,0.011388,2.7125e-05,0,0,0.069476,-0.029997,0,0.00014105,0,0,0,0.03811,-0.00014922,0.011388,0.040622,0.01645,0.033992,1.2618e-06,0.88,0.7,0
0.042352,-0.0060747,0.038104,-0.00018016,0.011377,2.9493e-05,0,0,0.06949,-0.030049,0,0.00015336,0,0,0,0.038104,-0.00018018,0.011377,0.044139,0.016434,0.034012,1.2622e-06,0.89,0.7,0
0.043047,-0.0060875,0.038098,-0.00020802,0.011367,3.0657e-05,0,0,0.069501,-0.030095,0,0.00015942,0,0,0,0.038098,-0.00020804,0.011367,0.045855,0.016419,0.034029,1.2627e-06,0.9,0.7,0
0.043742,-0.0060989,0.038093,-0.00023289,0.011358,3.0725e-05,0,0,0.069511,-0.030136,0,0.00015977,0,0,0,0.038093,-0.00023292,0.011358,0.045933,0.016406,0.034044,1.263e-06,0.91,0.7,0
0.044437,-0.006109,0.038088,-0.00025489,0.01135,2.9805e-05,0,0,0.069519,-0.030173,0,0.00015499,0,0,0,0.038088,-0.00025492,0.01135,0.044538,0.016394,0.034057,1.2633e-06,0.92,0.7,0
0.045132,-0.0061178,0.038084,-0.0002741,0.011343,2.8006e-05,0,0,0.069526,-0.030204,0,0.00014563,0,0,0,0.038084,-0.00027412,0.011343,0.041833,0.016384,0.034069,1.2635e-06,0.93,0.7,0
0.045828,-0.0061254,0.03808,-0.00029059,0.011337,2.5436e-05,0,0,0.069532,-0.030231,0,0.00013227,0,0,0,0.03808,-0.00029061,0.011337,0.037982,0.016375,0.034078,1.2637e-06,0.94,0.7,0
0.046523,-0.0061318,0.038076,-0.00030443,0.011332,2.2206e-05,0,0,0.069537,-0.030254,0,0.00011547,0,0,0,0.038077,-0.00030444,0.011332,0.03315,0.016368,0.034087,1.2639e-06,0.95,0.7,0
0.047218,-0.006137,0.038074,-0.00031568,0.011327,1.8426e-05,0,0,0.069541,-0.030272,0,9.5814e-05,0,0,0,0.038074,-0.00031569,0.011327,0.0275,0.016362,0.034093,1.264e-06,0.96,0.7,0
0.047914,-0.006141,0.038072,-0.00032438,0.011324,1.4205e-05,0,0,0.069543,-0.030286,0,7.3865e-05,0,0,0,0.038072,-0.00032439,0.011324,0.021197,0.016357,0.034098,1.2641e-06,0.97,0.7,0
0.048609,-0.0061439,0.03807,-0.00033057,0.011322,9.6534e-06,0,0,0.069545,-0.030296,0,5.0198e-05,0,0,0,0.03807,-0.00033057,0.011322,0.014403,0.016354,0.034102,1.2641e-06,0.98,0.7,0
0.049305,-0.0061456,0.038069,-0.00033427,0.011321,4.8817e-06,0,0,0.069547,-0.030302,0,2.5385e-05,0,0,0,0.038069,-0.00033427,0.011321,0.0072833,0.016352,0.034104,1.2642e-06,0.99,0.7,0
0.05,-0.0061462,0.038069,-0.00033551,0.01132,-1.0958e-05,0,0,0.069547,-0.030304,0,-5.6983e-05,0,0,0,0.038069,-0.00033551,0.01132,-0.016349,0.016351,0.034105,1.2642e-06,1,0.7,0
0,0,0.033993,0.014568,0.014568,-0.0032924,0,0,0.025252,-2.7105e-20,0,-0.0085603,0,0,0,0.034536,0.014026,0.014568,-9.3632,0.021043,0.020244,4.251e-07,0,0.71,0
0.00025252,-8.5603e-05,0.033948,0.014018,0.01439,-0.0032951,0,0,0.025426,-0.00048353,0,-0.0085673,0,0,0,0.034479,0.013487,0.01439,-9.1485,0.020785,0.020555,4.4317e-07,0.01,0.71,0
0.00050852,-0.00017328,0.034135,0.013552,0.014306,-0.0033295,0,0,0.025777,-0.00097988,0,-0.0086567,0,0,0,0.03466,0.013027,0.014306,-8.9639,0.020664,0.021022,4.7122e-07,0.02,0.71,0
0.00076806,-0.00026279,0.034322,0.013076,0.014219,-0.0033509,0,0,0.026134,-0.0014868,0,-0.0087123,0,0,0,0.034838,0.01256,0.014219,-8.7534,0.020539,0.021497,4.9996e-07,0.03,0.71,0
0.0010312,-0.00035388,0.034509,0.01259,0.01413,-0.0033591,0,0,0.026493,-0.002002,0,-0.0087335,0,0,0,0.035013,0.012087,0.01413,-8.5198,0.02041,0.021976,5.2922e-07,0.04,0.71,0
0.0012979,-0.00044632,0.034695,0.012097,0.014037,-0.0033539,0,0,0.026855,-0.0025231,0,-0.0087201,0,0,0,0.035182,0.01161,0.014037,-8.2661,0.020276,0.022457,5.5885e-07,0.05,0.71,0
0.0015683,-0.00053984,0.034878,0.011599,0.013943,-0.0033355,0,0,0.027216,-0.0030475,0,-0.0086722,0,0,0,0.035347,0.01113,0.013943,-7.9951,0.02014,0.02294,5.8868e-07,0.06,0.71,0
0.0018422,-0.0006342,0.035057,0.011098,0.013847,-0.0033042,0,0,0.027574,-0.0035729,0,-0.0085909,0,0,0,0.035505,0.010651,0.013847,-7.7099,0.020001,0.02342,6.1854e-07,0.07,0.71,0
0.0021198,-0.00072914,0.035232,0.010597,0.013749,-0.0032606,0,0,0.027928,-0.0040969,0,-0.0084775,0,0,0,0.035656,0.010173,0.013749,-7.4135,0.019859,0.023897,6.4828e-07,0.08,0.71,0
0.0024008,-0.00082443,0.0354,0.010097,0.013649,-0.0032053,0,0,0.028276,-0.0046174,0,-0.0083339,0,0,0,0.0358,0.0096976,0.013649,-7.1087,0.019716,0.024368,6.7773e-07,0.09,0.71,0
0.0026853,-0.00091985,0.035561,0.0096005,0.013548,-0.0031394,0,0,0.028616,-0.0051323,0,-0.0081625,0,0,0,0.035935,0.0092263,0.013548,-6.7983,0.01957,0.024832,7.0676e-07,0.1,0.71,0
0.0029731,-0.0010152,0.035715,0.0091085,0.013447,-0.0030639,0,0,0.028948,-0.0056399,0,-0.007966,0,0,0,0.036063,0.0087603,0.013447,-6.4849,0.019423,0.025287,7.3522e-07,0.11,0.71,0
0.0032642,-0.0011102,0.035859,0.0086227,0.013345,-0.0029798,0,0,0.029269,-0.0061385,0,-0.0077475,0,0,0,0.036181,0.0083005,0.013345,-6.1712,0.019276,0.025732,7.6301e-07,0.12,0.71,0
0.0035585,-0.0012048,0.035995,0.0081442,0.013242,-0.0028885,0,0,0.029579,-0.0066268,0,-0.0075102,0,0,0,0.036291,0.0078478,0.013242,-5.8593,0.019127,0.026167,7.9001e-07,0.13,0.71,0
0.0038558,-0.0012987,0.036121,0.0076742,0.013139,-0.0027913,0,0,0.029878,-0.0071038,0,-0.0072574,0,0,0,0.036393,0.0074029,0.013139,-5.5515,0.018978,0.02659,8.1615e-07,0.14,0.71,0
0.0041561,-0.001392,0.036238,0.0072134,0.013036,-0.0026895,0,0,0.030163,-0.0075687,0,-0.0069927,0,0,0,0.036485,0.0069663,0.013036,-5.2496,0.018829,0.027001,8.4137e-07,0.15,0.71,0
0.0044591,-0.0014843,0.036345,0.0067624,0.012932,-0.0025844,0,0,0.030437,-0.0080209,0,-0.0067195,0,0,0,0.036569,0.0065383,0.012932,-4.9554,0.01868,0.027399,8.6561e-07,0.16,0.71,0
0.0047648,-0.0015757,0.036443,0.0063215,0.012829,-0.0024773,0,0,0.030697,-0.0084601,0,-0.0064411,0,0,0,0.036645,0.0061191,0.012829,-4.6705,0.018531,0.027785,8.8885e-07,0.17,0.71,0
0.005073,-0.0016661,0.03653,0.0058908,0.012726,-0.0023695,0,0,0.030945,-0.0088862,0,-0.0061608,0,0,0,0.036713,0.0057086,0.012726,-4.3962,0.018382,0.028159,9.1107e-07,0.18,0.71,0
0.0053837,-0.0017553,0.036609,0.0054703,0.012624,-0.0022622,0,0,0.031181,-0.0092995,0,-0.0058817,0,0,0,0.036772,0.0053069,0.012624,-4.1336,0.018234,0.02852,9.3228e-07,0.19,0.71,0
0.0056967,-0.0018435,0.036679,0.0050599,0.012522,-0.0021564,0,0,0.031404,-0.0097002,0,-0.0056068,0,0,0,0.036825,0.0049135,0.012522,-3.8837,0.018087,0.028869,9.5249e-07,0.2,0.71,0
0.0060118,-0.0019306,0.03674,0.0046592,0.01242,-0.0020533,0,0,0.031616,-0.010089,0,-0.0053385,0,0,0,0.036871,0.0045283,0.01242,-3.6473,0.01794,0.029208,9.7172e-07,0.21,0.71,0
0.006329,-0.0020166,0.036793,0.0042676,0.012318,-0.0019536,0,0,0.031818,-0.010466,0,-0.0050794,0,0,0,0.03691,0.0041507,0.012318,-3.425,0.017793,0.029535,9.9003e-07,0.22,0.71,0
0.0066482,-0.0021015,0.03684,0.0038847,0.012217,-0.0018583,0,0,0.032009,-0.010832,0,-0.0048316,0,0,0,0.036944,0.0037802,0.012217,-3.2173,0.017647,0.029853,1.0074e-06,0.23,0.71,0
0.0069692,-0.0021853,0.036879,0.0035096,0.012117,-0.0017681,0,0,0.032191,-0.011189,0,-0.004597,0,0,0,0.036972,0.0034162,0.012117,-3.0245,0.017502,0.030162,1.024e-06,0.24,0.71,0
0.007292,-0.0022682,0.036913,0.0031417,0.012016,-0.0016835,0,0,0.032365,-0.011537,0,-0.0043771,0,0,0,0.036996,0.003058,0.012016,-2.8468,0.017357,0.030464,1.0399e-06,0.25,0.71,0
0.0076165,-0.0023501,0.036941,0.00278,0.011916,-0.0016051,0,0,0.032532,-0.011877,0,-0.0041732,0,0,0,0.037016,0.0027048,0.011916,-2.6843,0.017212,0.030758,1.055e-06,0.26,0.71,0
0.0079426,-0.0024311,0.036964,0.0024238,0.011816,-0.0015332,0,0,0.032692,-0.01221,0,-0.0039864,0,0,0,0.037032,0.0023558,0.011816,-2.5367,0.017068,0.031046,1.0695e-06,0.27,0.71,0
0.0082703,-0.0025114,0.036984,0.002072,0.011717,-0.0014682,0,0,0.032847,-0.012538,0,-0.0038175,0,0,0,0.037045,0.0020103,0.011717,-2.404,0.016924,0.03133,1.0835e-06,0.28,0.71,0
0.0085995,-0.002591,0.037,0.0017237,0.011617,-0.0014103,0,0,0.032998,-0.012861,0,-0.0036667,0,0,0,0.037056,0.0016674,0.011617,-2.2857,0.01678,0.031611,1.097e-06,0.29,0.71,0
0.0089303,-0.0026699,0.037014,0.0013779,0.011517,-0.0013594,0,0,0.033145,-0.013182,0,-0.0035344,0,0,0,0.037066,0.0013261,0.011517,-2.1814,0.016636,0.031889,1.1101e-06,0.3,0.71,0
0.0092625,-0.0027483,0.037026,0.0010337,0.011418,-0.0013156,0,0,0.03329,-0.013499,0,-0.0034205,0,0,0,0.037074,0.00098573,0.011418,-2.0905,0.016493,0.032167,1.1229e-06,0.31,0.71,0
0.0095961,-0.0028262,0.037037,0.00069022,0.011318,-0.0012787,0,0,0.033434,-0.013816,0,-0.0033245,0,0,0,0.037082,0.00064529,0.011318,-2.0123,0.016348,0.032445,1.1356e-06,0.32,0.71,0
0.0099311,-0.0029037,0.037047,0.0003464,0.011218,-0.0012484,0,0,0.033578,-0.014133,0,-0.0032459,0,0,0,0.03709,0.00030398,0.011218,-1.946,0.016204,0.032724,1.148e-06,0.33,0.71,0
0.010268,-0.0029809,0.037058,1.4197e-06,0.011118,-0.0012245,0,0,0.033722,-0.014451,0,-0.0031837,0,0,0,0.037099,-3.8997e-05,0.011118,-1.8905,0.016059,0.033005,1.1604e-06,0.34,0.71,0
0.010606,-0.0030579,0.03707,-0.00034554,0.011017,-0.0012064,0,0,0.033868,-0.014772,0,-0.0031367,0,0,0,0.037109,-0.0003844,0.011017,-1.8449,0.015914,0.03329,1.1728e-06,0.35,0.71,0
0.010945,-0.0031347,0.037083,-0.00069523,0.010916,-0.0011937,0,0,0.034017,-0.015095,0,-0.0031035,0,0,0,0.037121,-0.0007329,0.010916,-1.808,0.015768,0.03358,1.1853e-06,0.36,0.71,0
0.011286,-0.0032114,0.037098,-0.0010483,0.010815,-0.0011856,0,0,0.034168,-0.015422,0,-0.0030826,0,0,0,0.037135,-0.0010851,0.010815,-1.7785,0.015621,0.033876,1.1978e-06,0.37,0.71,0
0.011628,-0.003288,0.037115,-0.0014053,0.010713,-0.0011815,0,0,0.034323,-0.015754,0,-0.0030719,0,0,0,0.037151,-0.0014415,0.010713,-1.7552,0.015474,0.034177,1.2105e-06,0.38,0.71,0
0.011972,-0.0033645,0.037135,-0.0017667,0.010611,-0.0011806,0,0,0.034482,-0.016091,0,-0.0030695,0,0,0,0.037171,-0.0018025,0.010611,-1.7367,0.015326,0.034485,1.2235e-06,0.39,0.71,0
0.012318,-0.003441,0.037158,-0.0021328,0.010508,-0.001182,0,0,0.034646,-0.016433,0,-0.0030732,0,0,0,0.037194,-0.0021684,0.010508,-1.7215,0.015178,0.034801,1.2366e-06,0.4,0.71,0
0.012665,-0.0035174,0.037185,-0.0025038,0.010404,-0.0011848,0,0,0.034814,-0.016781,0,-0.0030804,0,0,0,0.03722,-0.0025392,0.010404,-1.7084,0.015028,0.035124,1.2499e-06,0.41,0.71,0
0.013014,-0.0035938,0.037214,-0.0028797,0.0103,-0.0011881,0,0,0.034988,-0.017134,0,-0.003089,0,0,0,0.037249,-0.0029149,0.0103,-1.6958,0.014878,0.035455,1.2635e-06,0.42,0.71,0
0.013365,-0.00367,0.037247,-0.0032603,0.010196,-0.0011909,0,0,0.035167,-0.017493,0,-0.0030962,0,0,0,0.037282,-0.0032953,0.010196,-1.6825,0.014728,0.035792,1.2772e-06,0.43,0.71,0
0.013718,-0.0037461,0.037283,-0.0036454,0.010091,-0.0011922,0,0,0.03535,-0.017858,0,-0.0030997,0,0,0,0.037318,-0.0036801,0.010091,-1.6671,0.014576,0.036137,1.2911e-06,0.44,0.71,0
0.014072,-0.003822,0.037323,-0.0040345,0.0099865,-0.0011912,0,0,0.035537,-0.018227,0,-0.0030971,0,0,0,0.037357,-0.0040688,0.0099865,-1.6484,0.014425,0.036488,1.3051e-06,0.45,0.71,0
0.014428,-0.0038975,0.037365,-0.004427,0.0098814,-0.0011869,0,0,0.035729,-0.018601,0,-0.003086,0,0,0,0.037399,-0.0044607,0.0098814,-1.6255,0.014273,0.036845,1.3192e-06,0.46,0.71,0
0.014787,-0.0039727,0.03741,-0.0048221,0.0097763,-0.0011786,0,0,0.035923,-0.018978,0,-0.0030643,0,0,0,0.037442,-0.004855,0.0097763,-1.5973,0.014121,0.037206,1.3332e-06,0.47,0.71,0
0.015147,-0.0040473,0.037456,-0.005219,0.0096712,-0.0011654,0,0,0.036121,-0.019357,0,-0.0030302,0,0,0,0.037488,-0.0052508,0.0096712,-1.5632,0.013969,0.03757,1.3472e-06,0.48,0.71,0
0.015509,-0.0041213,0.037505,-0.0056168,0.0095663,-0.0011469,0,0,0.03632,-0.019738,0,-0.0029818,0,0,0,0.037535,-0.0056473,0.0095663,-1.5224,0.013818,0.037937,1.361e-06,0.49,0.71,0
0.015873,-0.0041945,0.037535,-0.000495,0.011112,-0.001124,0,0,0.050491,-0.020119,0,-0.0043633,0,0,0,0.037569,-0.00052876,0.011112,-1.7234,0.016051,0.033884,1.191e-06,0.5,0.71,0
0.016519,-0.0042958,0.037603,0.0047821,0.012715,-0.0011005,0,0,0.064707,-0.020627,0,-0.0057226,0,0,0,0.03764,0.0047453,0.012715,-1.9183,0.018367,0.029722,1.0287e-06,0.51,0.71,0
0.017167,-0.0043954,0.037651,0.0045277,0.012654,-0.001075,0,0,0.064994,-0.021128,0,-0.0055901,0,0,0,0.037686,0.0044928,0.012654,-1.8569,0.018278,0.029959,1.0433e-06,0.52,0.71,0
0.017819,-0.0044932,0.037699,0.0042773,0.012593,-0.0010463,0,0,0.065276,-0.021621,0,-0.005441,0,0,0,0.037732,0.0042446,0.012593,-1.7914,0.01819,0.030192,1.0576e-06,0.53,0.71,0
0.018473,-0.004589,0.037746,0.0040317,0.012533,-0.0010146,0,0,0.065552,-0.022104,0,-0.0052758,0,0,0,0.037776,0.0040012,0.012533,-1.7222,0.018104,0.03042,1.0715e-06,0.54,0.71,0
0.01913,-0.0046829,0.03779,0.0037915,0.012474,-0.00097985,0,0,0.065821,-0.022576,0,-0.0050952,0,0,0,0.037818,0.0037632,0.012474,-1.6495,0.018019,0.030643,1.085e-06,0.55,0.71,0
0.019789,-0.0047745,0.037833,0.0035573,0.012417,-0.00094237,0,0,0.066081,-0.023035,0,-0.0049003,0,0,0,0.037859,0.0035314,0.012417,-1.5737,0.017936,0.030859,1.0981e-06,0.56,0.71,0
0.020451,-0.0048638,0.037873,0.0033297,0.012361,-0.0009024,0,0,0.066331,-0.023481,0,-0.0046925,0,0,0,0.037896,0.0033062,0.012361,-1.4954,0.017854,0.031069,1.1106e-06,0.57,0.71,0
0.021116,-0.0049507,0.03791,0.0031093,0.012306,-0.00086028,0,0,0.066571,-0.023911,0,-0.0044734,0,0,0,0.037931,0.003088,0.012306,-1.4152,0.017775,0.031271,1.1226e-06,0.58,0.71,0
0.021783,-0.005035,0.037945,0.0028963,0.012252,-0.00081635,0,0,0.0668,-0.024326,0,-0.004245,0,0,0,0.037964,0.0028773,0.012252,-1.3336,0.017698,0.031465,1.134e-06,0.59,0.71,0
0.022452,-0.0051168,0.037977,0.0026912,0.0122,-0.00077099,0,0,0.067018,-0.024724,0,-0.0040091,0,0,0,0.037993,0.0026744,0.0122,-1.2511,0.017623,0.03165,1.1448e-06,0.6,0.71,0
0.023123,-0.0051958,0.038005,0.0024942,0.01215,-0.0007246,0,0,0.067224,-0.025104,0,-0.0037679,0,0,0,0.03802,0.0024795,0.01215,-1.1685,0.01755,0.031827,1.155e-06,0.61,0.71,0
0.023796,-0.0052722,0.038031,0.0023056,0.012101,-0.00067757,0,0,0.067418,-0.025468,0,-0.0035234,0,0,0,0.038044,0.0022927,0.012101,-1.0862,0.017479,0.031995,1.1646e-06,0.62,0.71,0
0.024472,-0.0053457,0.038053,0.0021253,0.012054,-0.0006303,0,0,0.067599,-0.025814,0,-0.0032775,0,0,0,0.038064,0.0021142,0.012054,-1.0047,0.017411,0.032154,1.1735e-06,0.63,0.71,0
0.025148,-0.0054164,0.038073,0.0019534,0.012008,-0.00058315,0,0,0.067769,-0.026142,0,-0.0030324,0,0,0,0.038082,0.001944,0.012008,-0.92472,0.017345,0.032304,1.1818e-06,0.64,0.71,0
0.025827,-0.0054843,0.038089,0.00179,0.011964,-0.00053649,0,0,0.067927,-0.026452,0,-0.0027897,0,0,0,0.038097,0.001782,0.011964,-0.84656,0.017281,0.032446,1.1895e-06,0.65,0.71,0
0.026507,-0.0055494,0.038103,0.0016348,0.011921,-0.00049064,0,0,0.068073,-0.026745,0,-0.0025513,0,0,0,0.03811,0.0016282,0.011921,-0.77065,0.01722,0.032578,1.1966e-06,0.66,0.71,0
0.027188,-0.0056117,0.038114,0.0014878,0.011881,-0.00044589,0,0,0.068208,-0.027021,0,-0.0023186,0,0,0,0.03812,0.0014824,0.011881,-0.69737,0.017161,0.032703,1.2031e-06,0.67,0.71,0
0.027871,-0.0056712,0.038123,0.0013488,0.011841,-0.00040251,0,0,0.068332,-0.027281,0,-0.002093,0,0,0,0.038127,0.0013444,0.011841,-0.62702,0.017104,0.032819,1.209e-06,0.68,0.71,0
0.028555,-0.0057279,0.038129,0.0012175,0.011804,-0.00036072,0,0,0.068446,-0.027525,0,-0.0018758,0,0,0,0.038133,0.001214,0.011804,-0.55986,0.01705,0.032927,1.2145e-06,0.69,0.71,0
0.02924,-0.0057818,0.038133,0.0010938,0.011768,-0.00032073,0,0,0.068549,-0.027753,0,-0.0016678,0,0,0,0.038136,0.001091,0.011768,-0.49608,0.016998,0.033027,1.2194e-06,0.7,0.71,0
0.029926,-0.0058331,0.038136,0.00097737,0.011734,-0.00028269,0,0,0.068644,-0.027967,0,-0.00147,0,0,0,0.038138,0.00097522,0.011734,-0.43586,0.016949,0.033121,1.2238e-06,0.71,0.71,0
0.030613,-0.0058818,0.038136,0.00086792,0.011701,-0.00024673,0,0,0.06873,-0.028166,0,-0.001283,0,0,0,0.038138,0.00086629,0.011701,-0.3793,0.016902,0.033207,1.2279e-06,0.72,0.71,0
0.031301,-0.0059279,0.038135,0.00076519,0.01167,-0.00021295,0,0,0.068808,-0.028352,0,-0.0011073,0,0,0,0.038136,0.00076397,0.01167,-0.32648,0.016857,0.033287,1.2315e-06,0.73,0.71,0
0.031989,-0.0059716,0.038132,0.00066888,0.01164,-0.00018141,0,0,0.068879,-0.028526,0,-0.00094332,0,0,0,0.038133,0.000668,0.01164,-0.27743,0.016814,0.033361,1.2347e-06,0.74,0.71,0
0.032678,-0.0060128,0.038129,0.00057871,0.011612,-0.00015216,0,0,0.068942,-0.028687,0,-0.00079122,0,0,0,0.038129,0.0005781,0.011612,-0.23217,0.016773,0.033429,1.2376e-06,0.75,0.71,0
0.033368,-0.0060516,0.038124,0.0004944,0.011585,-0.00012521,0,0,0.069,-0.028837,0,-0.00065111,0,0,0,0.038124,0.00049398,0.011585,-0.19065,0.016734,0.033491,1.2402e-06,0.76,0.71,0
0.034058,-0.0060882,0.038118,0.00041566,0.01156,-0.00010057,0,0,0.069051,-0.028976,0,-0.00052298,0,0,0,0.038118,0.00041539,0.01156,-0.15284,0.016698,0.033549,1.2425e-06,0.77,0.71,0
0.034749,-0.0061225,0.038112,0.00034222,0.011536,-7.8216e-05,0,0,0.069096,-0.029104,0,-0.00040672,0,0,0,0.038112,0.00034206,0.011536,-0.11865,0.016663,0.033602,1.2445e-06,0.78,0.71,0
0.03544,-0.0061547,0.038105,0.00027383,0.011514,-5.8104e-05,0,0,0.069137,-0.029223,0,-0.00030214,0,0,0,0.038105,0.00027374,0.011514,-0.088,0.016631,0.03365,1.2463e-06,0.79,0.71,0
0.036132,-0.0061849,0.038097,0.00021023,0.011492,-4.0186e-05,0,0,0.069173,-0.029333,0,-0.00020897,0,0,0,0.038097,0.00021019,0.011492,-0.060772,0.0166,0.033694,1.2478e-06,0.8,0.71,0
0.036824,-0.0062131,0.03809,0.00015119,0.011472,-2.4397e-05,0,0,0.069206,-0.029435,0,-0.00012687,0,0,0,0.03809,0.00015117,0.011472,-0.036845,0.016571,0.033734,1.2492e-06,0.81,0.71,0
0.037516,-0.0062393,0.038082,9.6471e-05,0.011454,-1.0663e-05,0,0,0.069234,-0.029528,0,-5.5448e-05,0,0,0,0.038082,9.6468e-05,0.011454,-0.016084,0.016544,0.033771,1.2503e-06,0.82,0.71,0
0.038208,-0.0062637,0.038074,4.5868e-05,0.011436,1.0991e-06,0,0,0.069259,-0.029614,0,5.7152e-06,0,0,0,0.038074,4.5868e-05,0.011436,0.0016559,0.016519,0.033805,1.2514e-06,0.83,0.71,0
0.038901,-0.0062863,0.038066,-8.2156e-07,0.01142,1.098e-05,0,0,0.069281,-0.029693,0,5.7094e-05,0,0,0,0.038066,-8.2473e-07,0.01142,0.016526,0.016495,0.033835,1.2522e-06,0.84,0.71,0
0.039594,-0.0063073,0.038059,-4.3785e-05,0.011404,1.9075e-05,0,0,0.069301,-0.029765,0,9.9188e-05,0,0,0,0.038059,-4.3794e-05,0.011404,0.028683,0.016473,0.033862,1.253e-06,0.85,0.71,0
0.040287,-0.0063265,0.038051,-8.3196e-05,0.01139,2.5485e-05,0,0,0.069318,-0.029831,0,0.00013252,0,0,0,0.038051,-8.3213e-05,0.01139,0.038291,0.016453,0.033887,1.2536e-06,0.86,0.71,0
0.04098,-0.0063442,0.038044,-0.00011922,0.011377,3.0316e-05,0,0,0.069333,-0.029891,0,0.00015764,0,0,0,0.038044,-0.00011924,0.011377,0.045514,0.016434,0.033909,1.2542e-06,0.87,0.71,0
0.041674,-0.0063603,0.038037,-0.00015199,0.011365,3.3674e-05,0,0,0.069345,-0.029945,0,0.0001751,0,0,0,0.038037,-0.00015202,0.011365,0.050522,0.016417,0.033929,1.2546e-06,0.88,0.71,0
0.042367,-0.0063749,0.03803,-0.00018166,0.011355,3.5669e-05,0,0,0.069357,-0.029994,0,0.00018548,0,0,0,0.03803,-0.0001817,0.011355,0.053483,0.016401,0.033947,1.255e-06,0.89,0.71,0
0.043061,-0.0063882,0.038024,-0.00020835,0.011345,3.6413e-05,0,0,0.069366,-0.030038,0,0.00018935,0,0,0,0.038024,-0.00020839,0.011345,0.05457,0.016387,0.033963,1.2553e-06,0.9,0.71,0
0.043755,-0.0064,0.038018,-0.00023217,0.011336,3.6019e-05,0,0,0.069374,-0.030077,0,0.0001873,0,0,0,0.038018,-0.00023221,0.011336,0.053953,0.016374,0.033977,1.2556e-06,0.91,0.71,0
0.044448,-0.0064104,0.038013,-0.00025322,0.011328,3.4598e-05,0,0,0.069381,-0.030111,0,0.00017991,0,0,0,0.038013,-0.00025325,0.011328,0.051804,0.016363,0.033989,1.2558e-06,0.92,0.71,0
0.045142,-0.0064196,0.038008,-0.00027159,0.011321,3.2267e-05,0,0,0.069387,-0.030141,0,0.00016779,0,0,0,0.038008,-0.00027161,0.011321,0.048296,0.016353,0.034,1.256e-06,0.93,0.71,0
0.045836,-0.0064274,0.038004,-0.00028735,0.011315,2.9138e-05,0,0,0.069392,-0.030166,0,0.00015151,0,0,0,0.038004,-0.00028737,0.011315,0.043598,0.016344,0.034009,1.2561e-06,0.94,0.71,0
0.04653,-0.006434,0.038001,-0.00030057,0.01131,2.5325e-05,0,0,0.069396,-0.030188,0,0.00013169,0,0,0,0.038001,-0.00030059,0.01131,0.037884,0.016337,0.034016,1.2562e-06,0.95,0.71,0
0.047224,-0.0064394,0.037998,-0.00031132,0.011306,2.0943e-05,0,0,0.069399,-0.030205,0,0.0001089,0,0,0,0.037998,-0.00031133,0.011306,0.031322,0.016331,0.034022,1.2563e-06,0.96,0.71,0
0.047918,-0.0064436,0.037996,-0.00031963,0.011303,1.6105e-05,0,0,0.069401,-0.030218,0,8.3746e-05,0,0,0,0.037996,-0.00031964,0.011303,0.024083,0.016326,0.034027,1.2564e-06,0.97,0.71,0
0.048612,-0.0064465,0.037994,-0.00032554,0.0113,1.0926e-05,0,0,0.069403,-0.030228,0,5.6817e-05,0,0,0,0.037994,-0.00032555,0.0113,0.016337,0.016323,0.03403,1.2564e-06,0.98,0.71,0
0.049306,-0.0064483,0.037993,-0.00032908,0.011299,5.52e-06,0,0,0.069404,-0.030233,0,2.8704e-05,0,0,0,0.037993,-0.00032908,0.011299,0.0082531,0.016321,0.034032,1.2564e-06,0.99,0.71,0
0.05,-0.0064489,0.037993,-0.00033026,0.011299,-1.1332e-05,0,0,0.069404,-0.030235,0,-5.8929e-05,0,0,0,0.037993,-0.00033026,0.011299,-0.016943,0.01632,0.034033,1.2564e-06,1,0.71,0
0,0,0.034127,0.014626,0.014626,-0.0034809,0,0,0.025352,2.7105e-20,0,-0.0090504,0,0,0,0.03473,0.014023,0.014626,-9.823,0.021126,0.020412,4.3552e-07,0,0.72,0
0.00025352,-9.0504e-05,0.034082,0.01406,0.014442,-0.0034836,0,0,0.025531,-0.00049718,0,-0.0090574,0,0,0,0.03467,0.013471,0.014442,-9.5936,0.020861,0.02073,4.5418e-07,0.01,0.72,0
0.00051061,-0.00018321,0.034273,0.013581,0.014356,-0.0035197,0,0,0.025892,-0.0010078,0,-0.0091512,0,0,0,0.034855,0.012999,0.014356,-9.3941,0.020737,0.02121,4.8332e-07,0.02,0.72,0
0.00077135,-0.00027786,0.034465,0.01309,0.014267,-0.0035415,0,0,0.026258,-0.0015294,0,-0.0092079,0,0,0,0.035037,0.012519,0.014267,-9.1668,0.020608,0.021697,5.1313e-07,0.03,0.72,0
0.0010358,-0.00037418,0.034658,0.01259,0.014174,-0.0035488,0,0,0.026628,-0.0020593,0,-0.0092268,0,0,0,0.035214,0.012034,0.014174,-8.9148,0.020474,0.022188,5.4344e-07,0.04,0.72,0
0.0013039,-0.00047189,0.034848,0.012083,0.014079,-0.0035414,0,0,0.026999,-0.002595,0,-0.0092076,0,0,0,0.035386,0.011545,0.014079,-8.6412,0.020337,0.02268,5.7406e-07,0.05,0.72,0
0.0015758,-0.00057073,0.035035,0.011572,0.013982,-0.0035194,0,0,0.027369,-0.0031336,0,-0.0091505,0,0,0,0.035552,0.011055,0.013982,-8.3493,0.020196,0.023172,6.0481e-07,0.06,0.72,0
0.0018513,-0.0006704,0.035218,0.011058,0.013883,-0.0034834,0,0,0.027736,-0.0036726,0,-0.0090567,0,0,0,0.03571,0.010566,0.013883,-8.0425,0.020053,0.023661,6.3551e-07,0.07,0.72,0
0.0021305,-0.00077065,0.035396,0.010544,0.013782,-0.0034338,0,0,0.028098,-0.0042093,0,-0.0089278,0,0,0,0.035861,0.010078,0.013782,-7.7238,0.019907,0.024145,6.6598e-07,0.08,0.72,0
0.0024133,-0.0008712,0.035566,0.010032,0.01368,-0.0033715,0,0,0.028452,-0.0047413,0,-0.0087659,0,0,0,0.036004,0.0095947,0.01368,-7.3966,0.019759,0.024622,6.9606e-07,0.09,0.72,0
0.0026995,-0.00097181,0.035729,0.0095249,0.013576,-0.0032976,0,0,0.028798,-0.0052665,0,-0.0085738,0,0,0,0.036137,0.0091163,0.013576,-7.0637,0.01961,0.02509,7.2557e-07,0.1,0.72,0
0.0029892,-0.0010723,0.035883,0.0090234,0.013472,-0.0032133,0,0,0.029134,-0.0057829,0,-0.0083547,0,0,0,0.036262,0.0086444,0.013472,-6.7282,0.019459,0.025548,7.5439e-07,0.11,0.72,0
0.0032822,-0.0011723,0.036027,0.0085294,0.013367,-0.00312,0,0,0.029458,-0.0062888,0,-0.0081119,0,0,0,0.036377,0.0081799,0.013367,-6.3927,0.019308,0.025994,7.824e-07,0.12,0.72,0
0.0035784,-0.0012718,0.036162,0.0080442,0.013262,-0.0030189,0,0,0.02977,-0.0067828,0,-0.0078491,0,0,0,0.036482,0.0077238,0.013262,-6.0597,0.019156,0.026428,8.0948e-07,0.13,0.72,0
0.0038776,-0.0013705,0.036286,0.0075689,0.013156,-0.0029116,0,0,0.030068,-0.0072638,0,-0.0075702,0,0,0,0.036578,0.0072766,0.013156,-5.7315,0.019004,0.026849,8.3557e-07,0.14,0.72,0
0.0041798,-0.0014684,0.0364,0.0071041,0.013051,-0.0027996,0,0,0.030353,-0.0077311,0,-0.007279,0,0,0,0.036665,0.006839,0.013051,-5.4102,0.018852,0.027256,8.606e-07,0.15,0.72,0
0.0044847,-0.0015653,0.036503,0.0066505,0.012946,-0.0026843,0,0,0.030624,-0.0081841,0,-0.0069793,0,0,0,0.036742,0.0064111,0.012946,-5.0976,0.0187,0.027649,8.8453e-07,0.16,0.72,0
0.0047922,-0.0016611,0.036596,0.0062084,0.012841,-0.0025673,0,0,0.030881,-0.0086226,0,-0.0066749,0,0,0,0.036811,0.005993,0.012841,-4.7953,0.018548,0.028028,9.0734e-07,0.17,0.72,0
0.0051023,-0.0017557,0.036678,0.0057778,0.012737,-0.0024497,0,0,0.031124,-0.0090467,0,-0.0063692,0,0,0,0.036871,0.0055848,0.012737,-4.5047,0.018398,0.028394,9.2903e-07,0.18,0.72,0
0.0054147,-0.0018491,0.036751,0.0053586,0.012633,-0.002333,0,0,0.031353,-0.0094564,0,-0.0060657,0,0,0,0.036923,0.0051862,0.012633,-4.2271,0.018247,0.028746,9.496e-07,0.19,0.72,0
0.0057294,-0.0019413,0.036814,0.0049506,0.012529,-0.0022183,0,0,0.03157,-0.0098524,0,-0.0057675,0,0,0,0.036968,0.0047969,0.012529,-3.9633,0.018098,0.029086,9.6908e-07,0.2,0.72,0
0.0060461,-0.0020322,0.036868,0.0045533,0.012427,-0.0021067,0,0,0.031775,-0.010235,0,-0.0054774,0,0,0,0.037005,0.0044165,0.012427,-3.7143,0.017949,0.029413,9.8752e-07,0.21,0.72,0
0.0063649,-0.0021219,0.036915,0.004166,0.012324,-0.0019992,0,0,0.031968,-0.010606,0,-0.005198,0,0,0,0.037036,0.0040444,0.012324,-3.4806,0.017802,0.02973,1.005e-06,0.22,0.72,0
0.0066855,-0.0022104,0.036953,0.0037882,0.012222,-0.0018968,0,0,0.03215,-0.010965,0,-0.0049316,0,0,0,0.037061,0.00368,0.012222,-3.2627,0.017655,0.030035,1.0215e-06,0.23,0.72,0
0.0070079,-0.0022978,0.036985,0.0034189,0.012121,-0.0018,0,0,0.032323,-0.011313,0,-0.0046801,0,0,0,0.037081,0.0033226,0.012121,-3.0609,0.017508,0.030332,1.0371e-06,0.24,0.72,0
0.0073319,-0.0023841,0.03701,0.0030573,0.01202,-0.0017097,0,0,0.032487,-0.011652,0,-0.0044452,0,0,0,0.037096,0.0029714,0.01202,-2.8754,0.017362,0.03062,1.0519e-06,0.25,0.72,0
0.0076576,-0.0024694,0.03703,0.0027024,0.01192,-0.0016262,0,0,0.032643,-0.011983,0,-0.0042282,0,0,0,0.037107,0.0026255,0.01192,-2.7063,0.017217,0.030901,1.066e-06,0.26,0.72,0
0.0079848,-0.0025537,0.037045,0.0023533,0.01182,-0.0015501,0,0,0.032793,-0.012306,0,-0.0040302,0,0,0,0.037114,0.0022842,0.01182,-2.5533,0.017073,0.031176,1.0795e-06,0.27,0.72,0
0.0083135,-0.0026372,0.037056,0.0020089,0.01172,-0.0014815,0,0,0.032938,-0.012624,0,-0.003852,0,0,0,0.037119,0.0019463,0.01172,-2.4163,0.016928,0.031446,1.0925e-06,0.28,0.72,0
0.0086435,-0.00272,0.037064,0.001668,0.01162,-0.0014207,0,0,0.033078,-0.012937,0,-0.003694,0,0,0,0.037121,0.0016111,0.01162,-2.2948,0.016784,0.031713,1.1049e-06,0.29,0.72,0
0.008975,-0.002802,0.03707,0.0013298,0.01152,-0.0013678,0,0,0.033215,-0.013247,0,-0.0035563,0,0,0,0.037122,0.0012775,0.01152,-2.1885,0.01664,0.031978,1.117e-06,0.3,0.72,0
0.0093078,-0.0028835,0.037074,0.00099302,0.01142,-0.0013226,0,0,0.03335,-0.013555,0,-0.0034388,0,0,0,0.037122,0.0009446,0.01142,-2.0966,0.016496,0.032243,1.1288e-06,0.31,0.72,0
0.009642,-0.0029646,0.037077,0.00065668,0.01132,-0.0012851,0,0,0.033484,-0.013862,0,-0.0033412,0,0,0,0.037122,0.00061139,0.01132,-2.0183,0.016351,0.032507,1.1405e-06,0.32,0.72,0
0.0099775,-0.0030452,0.03708,0.00031973,0.01122,-0.0012549,0,0,0.033618,-0.01417,0,-0.0032627,0,0,0,0.037123,0.00027694,0.01122,-1.9529,0.016206,0.032774,1.152e-06,0.33,0.72,0
0.010314,-0.0031256,0.037083,-1.8791e-05,0.011119,-0.0012316,0,0,0.033753,-0.014479,0,-0.0032023,0,0,0,0.037124,-5.9633e-05,0.011119,-1.8992,0.016061,0.033044,1.1635e-06,0.34,0.72,0
0.010653,-0.0032057,0.037088,-0.00035981,0.011018,-0.0012149,0,0,0.03389,-0.014792,0,-0.0031587,0,0,0,0.037127,-0.00039919,0.011018,-1.8562,0.015915,0.033318,1.175e-06,0.35,0.72,0
0.010992,-0.0032858,0.037094,-0.00070418,0.010917,-0.001204,0,0,0.03403,-0.015107,0,-0.0031305,0,0,0,0.037132,-0.0007425,0.010917,-1.8227,0.015769,0.033598,1.1866e-06,0.36,0.72,0
0.011333,-0.0033657,0.037102,-0.0010527,0.010815,-0.0011983,0,0,0.034174,-0.015428,0,-0.0031157,0,0,0,0.03714,-0.0010903,0.010815,-1.7972,0.015621,0.033884,1.1985e-06,0.37,0.72,0
0.011676,-0.0034455,0.037114,-0.0014059,0.010712,-0.0011971,0,0,0.034322,-0.015754,0,-0.0031124,0,0,0,0.037151,-0.001443,0.010712,-1.7783,0.015473,0.034178,1.2105e-06,0.38,0.72,0
0.01202,-0.0035254,0.037128,-0.0017643,0.010609,-0.0011993,0,0,0.034475,-0.016085,0,-0.0031183,0,0,0,0.037165,-0.0018013,0.010609,-1.7646,0.015324,0.034479,1.2229e-06,0.39,0.72,0
0.012365,-0.0036053,0.037146,-0.0021285,0.010505,-0.0012042,0,0,0.034633,-0.016424,0,-0.0031309,0,0,0,0.037183,-0.0021653,0.010505,-1.7545,0.015174,0.034789,1.2354e-06,0.4,0.72,0
0.012712,-0.0036852,0.037168,-0.0024984,0.010401,-0.0012106,0,0,0.034797,-0.016769,0,-0.0031476,0,0,0,0.037205,-0.0025353,0.010401,-1.7465,0.015024,0.035108,1.2483e-06,0.41,0.72,0
0.013061,-0.0037651,0.037194,-0.0028743,0.010296,-0.0012176,0,0,0.034967,-0.017121,0,-0.0031657,0,0,0,0.037231,-0.0029113,0.010296,-1.7389,0.014872,0.035435,1.2615e-06,0.42,0.72,0
0.013412,-0.0038449,0.037223,-0.0032559,0.01019,-0.001224,0,0,0.035143,-0.01748,0,-0.0031825,0,0,0,0.037261,-0.0032929,0.01019,-1.7304,0.014719,0.035771,1.275e-06,0.43,0.72,0
0.013764,-0.0039246,0.037257,-0.003643,0.010084,-0.0012289,0,0,0.035325,-0.017845,0,-0.0031952,0,0,0,0.037294,-0.0036799,0.010084,-1.7195,0.014566,0.036116,1.2887e-06,0.44,0.72,0
0.014118,-0.0040042,0.037294,-0.0040351,0.0099777,-0.0012312,0,0,0.035511,-0.018217,0,-0.0032011,0,0,0,0.037331,-0.0040717,0.0099777,-1.7048,0.014412,0.036467,1.3025e-06,0.45,0.72,0
0.014474,-0.0040835,0.037335,-0.0044315,0.0098709,-0.0012298,0,0,0.035703,-0.018593,0,-0.0031976,0,0,0,0.037371,-0.0044677,0.0098709,-1.6852,0.014258,0.036826,1.3165e-06,0.46,0.72,0
0.014832,-0.0041624,0.037378,-0.0048313,0.009764,-0.001224,0,0,0.035898,-0.018974,0,-0.0031825,0,0,0,0.037414,-0.0048668,0.009764,-1.6597,0.014104,0.03719,1.3305e-06,0.47,0.72,0
0.015192,-0.0042409,0.037424,-0.0052337,0.009657,-0.0012129,0,0,0.036097,-0.019358,0,-0.0031535,0,0,0,0.037458,-0.0052682,0.009657,-1.6274,0.013949,0.037558,1.3445e-06,0.48,0.72,0
0.015554,-0.0043187,0.037471,-0.0056375,0.0095502,-0.0011957,0,0,0.036298,-0.019744,0,-0.0031089,0,0,0,0.037505,-0.0056707,0.0095502,-1.5876,0.013795,0.037929,1.3583e-06,0.49,0.72,0
0.015918,-0.0043958,0.037502,-0.00051926,0.011095,-0.0011736,0,0,0.050459,-0.020131,0,-0.0045564,0,0,0,0.037539,-0.00055607,0.011095,-1.7999,0.016026,0.033879,1.1888e-06,0.5,0.72,0
0.016563,-0.0045021,0.037569,0.0047579,0.012698,-0.0011499,0,0,0.064665,-0.020645,0,-0.0059793,0,0,0,0.03761,0.0047177,0.012698,-2.0046,0.018342,0.029717,1.0272e-06,0.51,0.72,0
0.017211,-0.0046068,0.037618,0.0045001,0.012635,-0.0011235,0,0,0.064955,-0.021152,0,-0.0058424,0,0,0,0.037656,0.004462,0.012635,-1.9408,0.018251,0.029956,1.0419e-06,0.52,0.72,0
0.017862,-0.0047095,0.037666,0.0042463,0.012574,-0.0010936,0,0,0.06524,-0.021651,0,-0.0056868,0,0,0,0.037702,0.0042106,0.012574,-1.8723,0.018162,0.030191,1.0563e-06,0.53,0.72,0
0.018516,-0.0048103,0.037712,0.0039974,0.012513,-0.0010602,0,0,0.065518,-0.02214,0,-0.005513,0,0,0,0.037746,0.0039641,0.012513,-1.7994,0.018074,0.030422,1.0703e-06,0.54,0.72,0
0.019173,-0.0049088,0.037757,0.0037541,0.012453,-0.0010234,0,0,0.065789,-0.022618,0,-0.0053219,0,0,0,0.037787,0.0037233,0.012453,-1.7225,0.017988,0.030646,1.0839e-06,0.55,0.72,0
0.019832,-0.0050051,0.037799,0.0035172,0.012395,-0.00098361,0,0,0.06605,-0.023082,0,-0.0051148,0,0,0,0.037827,0.003489,0.012395,-1.6421,0.017903,0.030864,1.0969e-06,0.56,0.72,0
0.020494,-0.0050988,0.037838,0.0032871,0.012338,-0.00094103,0,0,0.066302,-0.023531,0,-0.0048934,0,0,0,0.037864,0.0032615,0.012338,-1.559,0.017821,0.031075,1.1095e-06,0.57,0.72,0
0.021158,-0.00519,0.037875,0.0030646,0.012282,-0.00089607,0,0,0.066543,-0.023965,0,-0.0046596,0,0,0,0.037898,0.0030415,0.012282,-1.4736,0.017741,0.031278,1.1214e-06,0.58,0.72,0
0.021825,-0.0052785,0.037909,0.0028499,0.012228,-0.00084913,0,0,0.066771,-0.024382,0,-0.0044155,0,0,0,0.03793,0.0028294,0.012228,-1.3866,0.017662,0.031472,1.1328e-06,0.59,0.72,0
0.022493,-0.0053643,0.03794,0.0026436,0.012175,-0.00080065,0,0,0.066988,-0.024782,0,-0.0041634,0,0,0,0.037958,0.0026254,0.012175,-1.2988,0.017586,0.031657,1.1435e-06,0.6,0.72,0
0.023164,-0.0054472,0.037967,0.0024458,0.012124,-0.00075109,0,0,0.067193,-0.025163,0,-0.0039057,0,0,0,0.037983,0.0024299,0.012124,-1.2108,0.017512,0.031833,1.1535e-06,0.61,0.72,0
0.023837,-0.0055271,0.037991,0.0022566,0.012074,-0.00070088,0,0,0.067384,-0.025526,0,-0.0036446,0,0,0,0.038005,0.0022429,0.012074,-1.1232,0.017441,0.032,1.1629e-06,0.62,0.72,0
0.024512,-0.0056041,0.038012,0.0020763,0.012027,-0.00065047,0,0,0.067563,-0.025871,0,-0.0033825,0,0,0,0.038024,0.0020646,0.012027,-1.0367,0.017372,0.032158,1.1716e-06,0.63,0.72,0
0.025188,-0.0056781,0.03803,0.0019049,0.011981,-0.00060027,0,0,0.067729,-0.026197,0,-0.0031214,0,0,0,0.03804,0.0018949,0.011981,-0.95169,0.017305,0.032306,1.1797e-06,0.64,0.72,0
0.025867,-0.0057491,0.038045,0.0017421,0.011936,-0.00055067,0,0,0.067883,-0.026505,0,-0.0028635,0,0,0,0.038054,0.0017338,0.011936,-0.86884,0.017241,0.032445,1.1871e-06,0.65,0.72,0
0.026546,-0.0058171,0.038057,0.001588,0.011894,-0.00050203,0,0,0.068025,-0.026794,0,-0.0026105,0,0,0,0.038064,0.0015811,0.011894,-0.78852,0.01718,0.032575,1.194e-06,0.66,0.72,0
0.027227,-0.0058821,0.038066,0.0014424,0.011853,-0.00045465,0,0,0.068156,-0.027067,0,-0.0023642,0,0,0,0.038072,0.0014367,0.011853,-0.71113,0.01712,0.032696,1.2002e-06,0.67,0.72,0
0.027909,-0.0059442,0.038073,0.0013049,0.011813,-0.00040883,0,0,0.068275,-0.027322,0,-0.0021259,0,0,0,0.038078,0.0013004,0.011813,-0.63698,0.017064,0.032809,1.2059e-06,0.68,0.72,0
0.028593,-0.0060033,0.038077,0.0011755,0.011776,-0.0003648,0,0,0.068384,-0.027561,0,-0.001897,0,0,0,0.038081,0.0011719,0.011776,-0.56634,0.01701,0.032914,1.211e-06,0.69,0.72,0
0.029277,-0.0060595,0.03808,0.0010538,0.01174,-0.00032277,0,0,0.068483,-0.027784,0,-0.0016784,0,0,0,0.038082,0.001051,0.01174,-0.49942,0.016958,0.033011,1.2157e-06,0.7,0.72,0
0.029962,-0.0061129,0.03808,0.00093947,0.011706,-0.00028289,0,0,0.068572,-0.027992,0,-0.001471,0,0,0,0.038082,0.00093732,0.011706,-0.43637,0.016908,0.033101,1.2198e-06,0.71,0.72,0
0.030648,-0.0061636,0.038078,0.00083227,0.011673,-0.00024529,0,0,0.068653,-0.028186,0,-0.0012755,0,0,0,0.03808,0.00083066,0.011673,-0.37731,0.016861,0.033184,1.2236e-06,0.72,0.72,0
0.031335,-0.0062115,0.038075,0.00073186,0.011642,-0.00021006,0,0,0.068726,-0.028367,0,-0.0010923,0,0,0,0.038076,0.00073068,0.011642,-0.32228,0.016816,0.033261,1.2269e-06,0.73,0.72,0
0.032023,-0.0062569,0.038071,0.00063793,0.011613,-0.00017728,0,0,0.068791,-0.028534,0,-0.00092183,0,0,0,0.038072,0.00063709,0.011613,-0.27133,0.016774,0.033331,1.2299e-06,0.74,0.72,0
0.032711,-0.0062996,0.038065,0.00055015,0.011585,-0.00014696,0,0,0.06885,-0.02869,0,-0.00076418,0,0,0,0.038066,0.00054958,0.011585,-0.22444,0.016733,0.033396,1.2325e-06,0.75,0.72,0
0.0334,-0.0063399,0.038059,0.00046824,0.011558,-0.00011912,0,0,0.068902,-0.028834,0,-0.00061943,0,0,0,0.038059,0.00046786,0.011558,-0.18156,0.016695,0.033455,1.2348e-06,0.76,0.72,0
0.034089,-0.0063779,0.038052,0.00039188,0.011533,-9.3753e-05,0,0,0.068949,-0.028967,0,-0.00048751,0,0,0,0.038052,0.00039164,0.011533,-0.14263,0.016659,0.033509,1.2368e-06,0.77,0.72,0
0.034779,-0.0064135,0.038044,0.00032079,0.01151,-7.0819e-05,0,0,0.06899,-0.02909,0,-0.00036826,0,0,0,0.038044,0.00032065,0.01151,-0.10756,0.016625,0.033558,1.2386e-06,0.78,0.72,0
0.035469,-0.0064469,0.038036,0.00025469,0.011487,-5.0271e-05,0,0,0.069027,-0.029204,0,-0.00026141,0,0,0,0.038036,0.00025462,0.011487,-0.076237,0.016593,0.033604,1.2402e-06,0.79,0.72,0
0.036159,-0.0064781,0.038027,0.00019332,0.011466,-3.2047e-05,0,0,0.069059,-0.029309,0,-0.00016664,0,0,0,0.038027,0.00019329,0.011466,-0.048532,0.016562,0.033645,1.2415e-06,0.8,0.72,0
0.03685,-0.0065073,0.038018,0.00013642,0.011447,-1.6071e-05,0,0,0.069087,-0.029406,0,-8.357e-05,0,0,0,0.038018,0.00013642,0.011447,-0.024307,0.016534,0.033683,1.2427e-06,0.81,0.72,0
0.037541,-0.0065344,0.03801,8.3771e-05,0.011428,-2.2592e-06,0,0,0.069112,-0.029495,0,-1.1748e-05,0,0,0,0.03801,8.3771e-05,0.011428,-0.003413,0.016507,0.033717,1.2436e-06,0.82,0.72,0
0.038232,-0.0065597,0.038001,3.5143e-05,0.011411,9.4821e-06,0,0,0.069134,-0.029577,0,4.9307e-05,0,0,0,0.038001,3.514e-05,0.011411,0.01431,0.016482,0.033748,1.2445e-06,0.83,0.72,0
0.038924,-0.0065831,0.037992,-9.6704e-06,0.011395,1.9252e-05,0,0,0.069153,-0.029651,0,0.00010011,0,0,0,0.037992,-9.6801e-06,0.011395,0.029027,0.016459,0.033776,1.2452e-06,0.84,0.72,0
0.039615,-0.0066047,0.037984,-5.086e-05,0.01138,2.7157e-05,0,0,0.06917,-0.02972,0,0.00014122,0,0,0,0.037984,-5.088e-05,0.01138,0.04091,0.016438,0.033801,1.2458e-06,0.85,0.72,0
0.040307,-0.0066246,0.037975,-8.8606e-05,0.011366,3.3305e-05,0,0,0.069184,-0.029782,0,0.00017319,0,0,0,0.037975,-8.8635e-05,0.011366,0.050132,0.016418,0.033824,1.2463e-06,0.86,0.72,0
0.040999,-0.0066428,0.037967,-0.00012307,0.011353,3.7809e-05,0,0,0.069196,-0.029838,0,0.0001966,0,0,0,0.037967,-0.00012311,0.011353,0.056872,0.016399,0.033844,1.2467e-06,0.87,0.72,0
0.041691,-0.0066595,0.03796,-0.0001544,0.011342,4.0782e-05,0,0,0.069207,-0.029889,0,0.00021207,0,0,0,0.03796,-0.00015445,0.011342,0.061307,0.016382,0.033863,1.2471e-06,0.88,0.72,0
0.042383,-0.0066746,0.037953,-0.00018274,0.011331,4.2343e-05,0,0,0.069216,-0.029936,0,0.00022018,0,0,0,0.037953,-0.00018279,0.011331,0.063617,0.016367,0.033879,1.2474e-06,0.89,0.72,0
0.043076,-0.0066882,0.037946,-0.00020822,0.011321,4.2608e-05,0,0,0.069224,-0.029977,0,0.00022156,0,0,0,0.037946,-0.00020827,0.011321,0.063984,0.016353,0.033894,1.2476e-06,0.9,0.72,0
0.043768,-0.0067004,0.03794,-0.00023094,0.011313,4.1695e-05,0,0,0.06923,-0.030013,0,0.00021681,0,0,0,0.03794,-0.00023098,0.011313,0.062586,0.016341,0.033906,1.2478e-06,0.91,0.72,0
0.04446,-0.0067112,0.037934,-0.000251,0.011305,3.9723e-05,0,0,0.069236,-0.030045,0,0.00020656,0,0,0,0.037934,-0.00025104,0.011305,0.059603,0.016329,0.033917,1.2479e-06,0.92,0.72,0
0.045152,-0.0067206,0.037929,-0.0002685,0.011298,3.681e-05,0,0,0.069241,-0.030073,0,0.00019141,0,0,0,0.037929,-0.00026854,0.011298,0.055214,0.01632,0.033927,1.2481e-06,0.93,0.72,0
0.045845,-0.0067288,0.037925,-0.00028352,0.011292,3.3075e-05,0,0,0.069244,-0.030097,0,0.00017199,0,0,0,0.037925,-0.00028354,0.011292,0.049598,0.016311,0.033935,1.2481e-06,0.94,0.72,0
0.046537,-0.0067356,0.037921,-0.00029611,0.011288,2.8636e-05,0,0,0.069247,-0.030117,0,0.00014891,0,0,0,0.037921,-0.00029613,0.011288,0.042932,0.016304,0.033942,1.2482e-06,0.95,0.72,0
0.04723,-0.0067411,0.037918,-0.00030633,0.011284,2.3611e-05,0,0,0.06925,-0.030134,0,0.00012278,0,0,0,0.037918,-0.00030635,0.011284,0.035392,0.016298,0.033947,1.2483e-06,0.96,0.72,0
0.047922,-0.0067454,0.037916,-0.00031424,0.01128,1.8118e-05,0,0,0.069252,-0.030146,0,9.4213e-05,0,0,0,0.037916,-0.00031425,0.01128,0.027154,0.016294,0.033951,1.2483e-06,0.97,0.72,0
0.048615,-0.0067484,0.037914,-0.00031986,0.011278,1.2273e-05,0,0,0.069253,-0.030155,0,6.3822e-05,0,0,0,0.037914,-0.00031987,0.011278,0.018392,0.016291,0.033954,1.2483e-06,0.98,0.72,0
0.049307,-0.0067503,0.037913,-0.00032323,0.011277,6.1952e-06,0,0,0.069253,-0.03016,0,3.2215e-05,0,0,0,0.037913,-0.00032323,0.011277,0.0092833,0.016289,0.033956,1.2483e-06,0.99,0.72,0
0.05,-0.0067509,0.037913,-0.00032435,0.011277,-1.1684e-05,0,0,0.069254,-0.030162,0,-6.0756e-05,0,0,0,0.037913,-0.00032435,0.011277,-0.017507,0.016288,0.033957,1.2483e-06,1,0.72,0
0,0,0.034271,0.014687,0.014687,-0.0036749,0,0,0.025458,-5.421e-20,0,-0.0095547,0,0,0,0.034938,0.014021,0.014687,-10.286,0.021215,0.020592,4.4685e-07,0,0.73,0
0.00025458,-9.5547e-05,0.034223,0.014104,0.014498,-0.0036775,0,0,0.025643,-0.00051214,0,-0.0095616,0,0,0,0.034875,0.013453,0.014498,-10.041,0.020942,0.020918,4.6616e-07,0.01,0.73,0
0.00051285,-0.00019343,0.03442,0.013611,0.014409,-0.0037154,0,0,0.026015,-0.0010384,0,-0.0096599,0,0,0,0.035064,0.012967,0.014409,-9.8252,0.020813,0.021412,4.965e-07,0.02,0.73,0
0.00077487,-0.00029337,0.034619,0.013105,0.014317,-0.0037375,0,0,0.026392,-0.0015761,0,-0.0097176,0,0,0,0.035249,0.012474,0.014317,-9.5799,0.02068,0.021912,5.2749e-07,0.03,0.73,0
0.0010407,-0.00039507,0.034816,0.012589,0.014222,-0.0037436,0,0,0.026773,-0.0021222,0,-0.0097335,0,0,0,0.03543,0.011976,0.014222,-9.3081,0.020542,0.022416,5.5894e-07,0.04,0.73,0
0.0013103,-0.00049822,0.035012,0.012067,0.014124,-0.0037336,0,0,0.027155,-0.002674,0,-0.0097074,0,0,0,0.035604,0.011474,0.014124,-9.0134,0.020401,0.02292,5.9065e-07,0.05,0.73,0
0.0015838,-0.00060251,0.035204,0.01154,0.014023,-0.0037076,0,0,0.027535,-0.0032282,0,-0.0096397,0,0,0,0.035771,0.010972,0.014023,-8.6993,0.020255,0.023423,6.224e-07,0.06,0.73,0
0.001861,-0.00070765,0.035391,0.011011,0.013921,-0.003666,0,0,0.027911,-0.003782,0,-0.0095317,0,0,0,0.03593,0.010472,0.013921,-8.3693,0.020108,0.023921,6.5401e-07,0.07,0.73,0
0.002142,-0.00081333,0.035571,0.010484,0.013817,-0.0036097,0,0,0.028281,-0.0043325,0,-0.0093852,0,0,0,0.03608,0.0099747,0.013817,-8.0271,0.019957,0.024412,6.8526e-07,0.08,0.73,0
0.0024266,-0.00091926,0.035744,0.0099594,0.013711,-0.0035396,0,0,0.028643,-0.0048771,0,-0.0092029,0,0,0,0.036221,0.0094823,0.013711,-7.6761,0.019805,0.024895,7.1598e-07,0.09,0.73,0
0.0027149,-0.0010252,0.035908,0.0094404,0.013605,-0.0034568,0,0,0.028994,-0.0054133,0,-0.0089877,0,0,0,0.036352,0.0089964,0.013605,-7.3196,0.019651,0.025367,7.46e-07,0.1,0.73,0
0.0030065,-0.0011308,0.036062,0.0089287,0.013497,-0.0033629,0,0,0.029334,-0.0059391,0,-0.0087434,0,0,0,0.036473,0.0085182,0.013497,-6.9608,0.019496,0.025828,7.7517e-07,0.11,0.73,0
0.0033016,-0.001236,0.036206,0.0084261,0.01339,-0.0032592,0,0,0.029662,-0.0064527,0,-0.0084738,0,0,0,0.036583,0.0080488,0.01339,-6.6025,0.019341,0.026274,8.0338e-07,0.12,0.73,0
0.0035998,-0.0013404,0.036339,0.0079338,0.013282,-0.0031474,0,0,0.029975,-0.0069526,0,-0.0081832,0,0,0,0.036684,0.0075892,0.013282,-6.2475,0.019185,0.026707,8.3051e-07,0.13,0.73,0
0.003901,-0.001444,0.036461,0.0074528,0.013174,-0.0030291,0,0,0.030273,-0.0074376,0,-0.0078757,0,0,0,0.036774,0.0071399,0.013174,-5.8982,0.019029,0.027125,8.5649e-07,0.14,0.73,0
0.0042052,-0.0015466,0.036571,0.0069841,0.013067,-0.002906,0,0,0.030556,-0.0079072,0,-0.0075557,0,0,0,0.036854,0.0067014,0.013067,-5.5568,0.018874,0.027527,8.8127e-07,0.15,0.73,0
0.0045122,-0.001648,0.03667,0.0065281,0.012959,-0.0027798,0,0,0.030824,-0.0083607,0,-0.0072274,0,0,0,0.036924,0.0062739,0.012959,-5.2252,0.018719,0.027915,9.0481e-07,0.16,0.73,0
0.0048217,-0.0017481,0.036758,0.006085,0.012853,-0.0026519,0,0,0.031076,-0.0087981,0,-0.0068949,0,0,0,0.036985,0.0058575,0.012853,-4.9052,0.018565,0.028286,9.2711e-07,0.17,0.73,0
0.0051337,-0.001847,0.036834,0.0056549,0.012747,-0.0025239,0,0,0.031314,-0.0092194,0,-0.0065621,0,0,0,0.037037,0.0054519,0.012747,-4.5981,0.018412,0.028643,9.4817e-07,0.18,0.73,0
0.005448,-0.0019445,0.036901,0.0052375,0.012641,-0.0023972,0,0,0.031537,-0.0096251,0,-0.0062327,0,0,0,0.037081,0.005057,0.012641,-4.3051,0.01826,0.028986,9.6802e-07,0.19,0.73,0
0.0057644,-0.0020406,0.036957,0.0048324,0.012537,-0.002273,0,0,0.031746,-0.010016,0,-0.0059099,0,0,0,0.037117,0.0046723,0.012537,-4.0274,0.018109,0.029314,9.8669e-07,0.2,0.73,0
0.0060829,-0.0021353,0.037004,0.004439,0.012433,-0.0021526,0,0,0.031942,-0.010392,0,-0.0055969,0,0,0,0.037145,0.0042974,0.012433,-3.7657,0.017958,0.02963,1.0042e-06,0.21,0.73,0
0.0064033,-0.0022287,0.037042,0.0040568,0.01233,-0.002037,0,0,0.032126,-0.010755,0,-0.0052963,0,0,0,0.037167,0.0039314,0.01233,-3.5206,0.017809,0.029934,1.0207e-06,0.22,0.73,0
0.0067254,-0.0023208,0.037072,0.0036847,0.012227,-0.0019271,0,0,0.032299,-0.011105,0,-0.0050105,0,0,0,0.037183,0.0035738,0.012227,-3.2925,0.017661,0.030226,1.0362e-06,0.23,0.73,0
0.0070492,-0.0024116,0.037095,0.0033219,0.012125,-0.0018237,0,0,0.032461,-0.011444,0,-0.0047416,0,0,0,0.037193,0.0032237,0.012125,-3.0819,0.017514,0.030509,1.0508e-06,0.24,0.73,0
0.0073746,-0.0025012,0.037112,0.0029674,0.012024,-0.0017274,0,0,0.032614,-0.011773,0,-0.0044913,0,0,0,0.037199,0.0028802,0.012024,-2.8888,0.017368,0.030783,1.0645e-06,0.25,0.73,0
0.0077015,-0.0025898,0.037123,0.0026201,0.011923,-0.0016388,0,0,0.03276,-0.012094,0,-0.0042609,0,0,0,0.037201,0.0025424,0.011923,-2.7133,0.017222,0.03105,1.0775e-06,0.26,0.73,0
0.0080298,-0.0026773,0.037129,0.0022789,0.011822,-0.0015583,0,0,0.032899,-0.012407,0,-0.0040516,0,0,0,0.037199,0.0022093,0.011822,-2.5552,0.017077,0.03131,1.0899e-06,0.27,0.73,0
0.0083595,-0.0027639,0.037132,0.0019426,0.011722,-0.0014862,0,0,0.033032,-0.012714,0,-0.0038642,0,0,0,0.037194,0.0018799,0.011722,-2.4142,0.016932,0.031566,1.1017e-06,0.28,0.73,0
0.0086905,-0.0028497,0.037131,0.00161,0.011622,-0.0014227,0,0,0.033161,-0.013016,0,-0.003699,0,0,0,0.037188,0.0015531,0.011622,-2.2899,0.016788,0.031818,1.1131e-06,0.29,0.73,0
0.0090227,-0.0029348,0.037128,0.00128,0.011522,-0.0013678,0,0,0.033287,-0.013315,0,-0.0035562,0,0,0,0.03718,0.0012279,0.011522,-2.1819,0.016643,0.032069,1.1241e-06,0.3,0.73,0
0.0093562,-0.0030194,0.037123,0.00095139,0.011422,-0.0013214,0,0,0.033411,-0.013612,0,-0.0034356,0,0,0,0.037171,0.00090319,0.011422,-2.0894,0.016499,0.032319,1.1348e-06,0.31,0.73,0
0.0096909,-0.0031034,0.037118,0.00062296,0.011322,-0.0012834,0,0,0.033534,-0.013909,0,-0.0033369,0,0,0,0.037163,0.00057788,0.011322,-2.0116,0.016354,0.03257,1.1454e-06,0.32,0.73,0
0.010027,-0.0031871,0.037112,0.00029359,0.011222,-0.0012535,0,0,0.033658,-0.014207,0,-0.0032591,0,0,0,0.037155,0.00025096,0.011222,-1.9477,0.016209,0.032824,1.1559e-06,0.33,0.73,0
0.010364,-0.0032705,0.037108,-3.7816e-05,0.011121,-0.0012313,0,0,0.033783,-0.014507,0,-0.0032013,0,0,0,0.037149,-7.8585e-05,0.011121,-1.8964,0.016064,0.033081,1.1664e-06,0.34,0.73,0
0.010703,-0.0033537,0.037105,-0.00037229,0.01102,-0.0012162,0,0,0.033911,-0.01481,0,-0.0031621,0,0,0,0.037144,-0.00041171,0.01102,-1.8567,0.015918,0.033344,1.1771e-06,0.35,0.73,0
0.011042,-0.0034369,0.037104,-0.00071078,0.010918,-0.0012076,0,0,0.034042,-0.015117,0,-0.0031397,0,0,0,0.037142,-0.0007493,0.010918,-1.8272,0.01577,0.033613,1.1879e-06,0.36,0.73,0
0.011383,-0.00352,0.037106,-0.0010541,0.010816,-0.0012047,0,0,0.034177,-0.01543,0,-0.0031322,0,0,0,0.037144,-0.0010921,0.010816,-1.8064,0.015622,0.033889,1.1989e-06,0.37,0.73,0
0.011726,-0.0036031,0.037111,-0.0014031,0.010712,-0.0012067,0,0,0.034318,-0.01575,0,-0.0031375,0,0,0,0.037149,-0.0014409,0.010712,-1.7929,0.015473,0.034174,1.2102e-06,0.38,0.73,0
0.01207,-0.0036862,0.037119,-0.0017583,0.010608,-0.0012127,0,0,0.034465,-0.016077,0,-0.003153,0,0,0,0.037157,-0.0017961,0.010608,-1.7849,0.015323,0.034468,1.2219e-06,0.39,0.73,0
0.012415,-0.0037695,0.037132,-0.0021202,0.010504,-0.0012215,0,0,0.034617,-0.016411,0,-0.003176,0,0,0,0.03717,-0.0021582,0.010504,-1.7807,0.015172,0.034772,1.234e-06,0.4,0.73,0
0.012762,-0.0038528,0.03715,-0.002489,0.010398,-0.0012321,0,0,0.034777,-0.016753,0,-0.0032036,0,0,0,0.037188,-0.0025273,0.010398,-1.7787,0.01502,0.035086,1.2464e-06,0.41,0.73,0
0.013111,-0.0039362,0.037171,-0.0028648,0.010292,-0.0012434,0,0,0.034943,-0.017104,0,-0.0032329,0,0,0,0.03721,-0.0029034,0.010292,-1.7772,0.014866,0.03541,1.2592e-06,0.42,0.73,0
0.013461,-0.0040196,0.037198,-0.0032476,0.010185,-0.0012541,0,0,0.035116,-0.017462,0,-0.0032607,0,0,0,0.037236,-0.0032864,0.010185,-1.7744,0.014712,0.035745,1.2724e-06,0.43,0.73,0
0.013813,-0.004103,0.037228,-0.0036369,0.010077,-0.0012631,0,0,0.035296,-0.017829,0,-0.0032841,0,0,0,0.037267,-0.0036759,0.010077,-1.7687,0.014556,0.036089,1.2859e-06,0.44,0.73,0
0.014167,-0.0041863,0.037263,-0.0040323,0.0099692,-0.0012692,0,0,0.035482,-0.018202,0,-0.0032999,0,0,0,0.037302,-0.0040712,0.0099692,-1.7588,0.0144,0.036441,1.2996e-06,0.45,0.73,0
0.014523,-0.0042694,0.037302,-0.0044329,0.0098606,-0.0012713,0,0,0.035673,-0.018582,0,-0.0033055,0,0,0,0.03734,-0.0044716,0.0098606,-1.7432,0.014243,0.036802,1.3135e-06,0.46,0.73,0
0.01488,-0.0043521,0.037344,-0.004838,0.0097518,-0.0012685,0,0,0.03587,-0.018967,0,-0.003298,0,0,0,0.037382,-0.0048761,0.0097518,-1.7209,0.014086,0.03717,1.3275e-06,0.47,0.73,0
0.01524,-0.0044345,0.037389,-0.0052464,0.0096428,-0.0012597,0,0,0.03607,-0.019356,0,-0.0032753,0,0,0,0.037426,-0.0052836,0.0096428,-1.6909,0.013928,0.037542,1.3415e-06,0.48,0.73,0
0.015602,-0.0045162,0.037436,-0.005657,0.0095338,-0.0012443,0,0,0.036273,-0.019748,0,-0.0032353,0,0,0,0.037472,-0.0056929,0.0095338,-1.6526,0.013771,0.037919,1.3553e-06,0.49,0.73,0
0.015966,-0.0045972,0.037466,-0.00054328,0.011077,-0.0012232,0,0,0.050424,-0.020141,0,-0.0047493,0,0,0,0.037506,-0.00058328,0.011077,-1.8763,0.016,0.033872,1.1865e-06,0.5,0.73,0
0.01661,-0.0047087,0.037534,0.0047331,0.01268,-0.0011993,0,0,0.06462,-0.020662,0,-0.0062362,0,0,0,0.037578,0.0046893,0.01268,-2.0911,0.018316,0.02971,1.0256e-06,0.51,0.73,0
0.017258,-0.0048184,0.037583,0.0044714,0.012616,-0.0011721,0,0,0.064913,-0.021177,0,-0.006095,0,0,0,0.037624,0.00443,0.012616,-2.0248,0.018224,0.029952,1.0404e-06,0.52,0.73,0
0.017909,-0.0049262,0.037631,0.0042138,0.012553,-0.0011409,0,0,0.065201,-0.021683,0,-0.0059327,0,0,0,0.03767,0.0041749,0.012553,-1.9531,0.018133,0.03019,1.0549e-06,0.53,0.73,0
0.018562,-0.0050319,0.037677,0.0039612,0.012491,-0.0011057,0,0,0.065482,-0.022179,0,-0.0057498,0,0,0,0.037713,0.003925,0.012491,-1.8764,0.018043,0.030423,1.069e-06,0.54,0.73,0
0.019218,-0.0051352,0.037721,0.0037145,0.012431,-0.0010668,0,0,0.065755,-0.022662,0,-0.0055475,0,0,0,0.037755,0.0036811,0.012431,-1.7951,0.017955,0.03065,1.0826e-06,0.55,0.73,0
0.019877,-0.0052361,0.037763,0.0034744,0.012371,-0.0010245,0,0,0.066019,-0.023132,0,-0.0053274,0,0,0,0.037794,0.0034438,0.012371,-1.7099,0.017869,0.03087,1.0957e-06,0.56,0.73,0
0.020539,-0.0053344,0.037802,0.0032417,0.012313,-0.00097912,0,0,0.066271,-0.023586,0,-0.0050914,0,0,0,0.03783,0.003214,0.012313,-1.6215,0.017786,0.031082,1.1083e-06,0.57,0.73,0
0.021202,-0.00543,0.037838,0.0030168,0.012257,-0.00093111,0,0,0.066513,-0.024023,0,-0.0048418,0,0,0,0.037863,0.0029919,0.012257,-1.5306,0.017704,0.031285,1.1202e-06,0.58,0.73,0
0.021869,-0.0055227,0.037871,0.0028004,0.012202,-0.00088096,0,0,0.066741,-0.024443,0,-0.004581,0,0,0,0.037893,0.0027782,0.012202,-1.438,0.017624,0.03148,1.1314e-06,0.59,0.73,0
0.022537,-0.0056124,0.037901,0.0025926,0.012148,-0.00082917,0,0,0.066957,-0.024844,0,-0.0043117,0,0,0,0.03792,0.0025732,0.012148,-1.3445,0.017547,0.031665,1.142e-06,0.6,0.73,0
0.023208,-0.0056991,0.037927,0.002394,0.012096,-0.00077624,0,0,0.06716,-0.025226,0,-0.0040364,0,0,0,0.037944,0.002377,0.012096,-1.2509,0.017472,0.03184,1.1519e-06,0.61,0.73,0
0.02388,-0.0057827,0.03795,0.0022045,0.012046,-0.00072268,0,0,0.067349,-0.025589,0,-0.0037579,0,0,0,0.037964,0.0021899,0.012046,-1.1578,0.0174,0.032006,1.1611e-06,0.62,0.73,0
0.024555,-0.0058631,0.037969,0.0020242,0.011998,-0.00066898,0,0,0.067525,-0.025932,0,-0.0034787,0,0,0,0.037982,0.0020118,0.011998,-1.0658,0.01733,0.032161,1.1696e-06,0.63,0.73,0
0.025231,-0.0059404,0.037985,0.0018532,0.011952,-0.0006156,0,0,0.067688,-0.026256,0,-0.0032011,0,0,0,0.037996,0.0018427,0.011952,-0.97579,0.017263,0.032307,1.1775e-06,0.64,0.73,0
0.025909,-0.0060144,0.037998,0.0016914,0.011907,-0.00056296,0,0,0.067837,-0.02656,0,-0.0029274,0,0,0,0.038007,0.0016826,0.011907,-0.88812,0.017199,0.032444,1.1846e-06,0.65,0.73,0
0.026588,-0.0060853,0.038008,0.0015385,0.011864,-0.00051144,0,0,0.067975,-0.026846,0,-0.0026595,0,0,0,0.038015,0.0015313,0.011864,-0.80329,0.017137,0.032571,1.1912e-06,0.66,0.73,0
0.027268,-0.006153,0.038015,0.0013944,0.011823,-0.00046139,0,0,0.0681,-0.027114,0,-0.0023992,0,0,0,0.038021,0.0013886,0.011823,-0.72173,0.017077,0.032689,1.1971e-06,0.67,0.73,0
0.02795,-0.0062176,0.03802,0.0012588,0.011784,-0.00041311,0,0,0.068214,-0.027364,0,-0.0021482,0,0,0,0.038024,0.0012541,0.011784,-0.64376,0.017021,0.032799,1.2025e-06,0.68,0.73,0
0.028632,-0.0062791,0.038022,0.0011313,0.011746,-0.00036683,0,0,0.068318,-0.027598,0,-0.0019075,0,0,0,0.038026,0.0011277,0.011746,-0.56966,0.016966,0.0329,1.2073e-06,0.69,0.73,0
0.029316,-0.0063375,0.038022,0.0010118,0.01171,-0.00032278,0,0,0.068411,-0.027816,0,-0.0016784,0,0,0,0.038025,0.001009,0.01171,-0.49964,0.016915,0.032994,1.2117e-06,0.7,0.73,0
0.030001,-0.006393,0.03802,0.00089987,0.011676,-0.00028109,0,0,0.068495,-0.028018,0,-0.0014617,0,0,0,0.038022,0.00089774,0.011676,-0.43384,0.016865,0.03308,1.2155e-06,0.71,0.73,0
0.030686,-0.0064455,0.038017,0.00079512,0.011643,-0.00024191,0,0,0.06857,-0.028206,0,-0.001258,0,0,0,0.038018,0.00079355,0.011643,-0.37236,0.016819,0.033159,1.219e-06,0.72,0.73,0
0.031372,-0.0064953,0.038012,0.00069723,0.011613,-0.00020532,0,0,0.068638,-0.02838,0,-0.0010677,0,0,0,0.038013,0.0006961,0.011613,-0.31525,0.016774,0.033232,1.222e-06,0.73,0.73,0
0.032059,-0.0065422,0.038006,0.00060586,0.011583,-0.00017136,0,0,0.068698,-0.028542,0,-0.00089109,0,0,0,0.038006,0.00060508,0.011583,-0.26252,0.016732,0.033298,1.2247e-06,0.74,0.73,0
0.032746,-0.0065866,0.037998,0.00052067,0.011556,-0.00014007,0,0,0.068751,-0.028691,0,-0.00072836,0,0,0,0.037999,0.00052015,0.011556,-0.21413,0.016692,0.033359,1.227e-06,0.75,0.73,0
0.033434,-0.0066283,0.03799,0.00044132,0.011529,-0.00011144,0,0,0.068798,-0.028829,0,-0.00057946,0,0,0,0.037991,0.00044099,0.011529,-0.17004,0.016654,0.033415,1.2291e-06,0.76,0.73,0
0.034122,-0.0066675,0.037982,0.0003675,0.011505,-8.5435e-05,0,0,0.06884,-0.028957,0,-0.00044426,0,0,0,0.037982,0.00036731,0.011505,-0.13014,0.016618,0.033466,1.2308e-06,0.77,0.73,0
0.034811,-0.0067043,0.037972,0.0002989,0.011481,-6.2024e-05,0,0,0.068876,-0.029074,0,-0.00032252,0,0,0,0.037972,0.0002988,0.011481,-0.094329,0.016584,0.033512,1.2324e-06,0.78,0.73,0
0.0355,-0.0067388,0.037963,0.00023523,0.011459,-4.1141e-05,0,0,0.068909,-0.029183,0,-0.00021393,0,0,0,0.037963,0.00023518,0.011459,-0.062479,0.016553,0.033554,1.2337e-06,0.79,0.73,0
0.036189,-0.0067711,0.037953,0.00017621,0.011439,-2.271e-05,0,0,0.068937,-0.029283,0,-0.00011809,0,0,0,0.037953,0.00017619,0.011439,-0.034444,0.016523,0.033593,1.2348e-06,0.8,0.73,0
0.036878,-0.0068012,0.037943,0.00012158,0.011419,-6.6448e-06,0,0,0.068961,-0.029374,0,-3.4553e-05,0,0,0,0.037943,0.00012158,0.011419,-0.010066,0.016495,0.033627,1.2358e-06,0.81,0.73,0
0.037568,-0.0068292,0.037933,7.1095e-05,0.011401,7.1508e-06,0,0,0.068983,-0.029458,0,3.7184e-05,0,0,0,0.037933,7.1093e-05,0.011401,0.010821,0.016469,0.033659,1.2366e-06,0.82,0.73,0
0.038258,-0.0068552,0.037923,2.4532e-05,0.011384,1.8781e-05,0,0,0.069001,-0.029535,0,9.766e-05,0,0,0,0.037923,2.4523e-05,0.011384,0.028393,0.016444,0.033687,1.2373e-06,0.83,0.73,0
0.038948,-0.0068794,0.037914,-1.8323e-05,0.011369,2.8355e-05,0,0,0.069017,-0.029606,0,0.00014744,0,0,0,0.037914,-1.8344e-05,0.011369,0.042829,0.016421,0.033713,1.2378e-06,0.84,0.73,0
0.039638,-0.0069016,0.037904,-5.7666e-05,0.011354,3.5987e-05,0,0,0.069031,-0.02967,0,0.00018713,0,0,0,0.037904,-5.77e-05,0.011354,0.054314,0.0164,0.033736,1.2383e-06,0.85,0.73,0
0.040329,-0.0069221,0.037895,-9.368e-05,0.01134,4.1795e-05,0,0,0.069043,-0.029729,0,0.00021733,0,0,0,0.037895,-9.3726e-05,0.01134,0.063036,0.016381,0.033757,1.2387e-06,0.86,0.73,0
0.041019,-0.0069409,0.037887,-0.00012653,0.011328,4.5899e-05,0,0,0.069053,-0.029782,0,0.00023868,0,0,0,0.037887,-0.00012659,0.011328,0.069182,0.016363,0.033776,1.239e-06,0.87,0.73,0
0.04171,-0.0069581,0.037879,-0.00015637,0.011317,4.8421e-05,0,0,0.069061,-0.02983,0,0.00025179,0,0,0,0.037879,-0.00015643,0.011317,0.072942,0.016346,0.033792,1.2392e-06,0.88,0.73,0
0.0424,-0.0069737,0.037871,-0.00018334,0.011306,4.9484e-05,0,0,0.069068,-0.029873,0,0.00025732,0,0,0,0.037871,-0.0001834,0.011306,0.074505,0.016331,0.033807,1.2394e-06,0.89,0.73,0
0.043091,-0.0069877,0.037864,-0.00020756,0.011297,4.9212e-05,0,0,0.069074,-0.029912,0,0.0002559,0,0,0,0.037864,-0.00020762,0.011297,0.074061,0.016318,0.03382,1.2395e-06,0.9,0.73,0
0.043782,-0.0070002,0.037858,-0.00022914,0.011288,4.7727e-05,0,0,0.069079,-0.029946,0,0.00024818,0,0,0,0.037858,-0.0002292,0.011288,0.071798,0.016306,0.033832,1.2397e-06,0.91,0.73,0
0.044473,-0.0070113,0.037852,-0.0002482,0.011281,4.5153e-05,0,0,0.069084,-0.029976,0,0.00023479,0,0,0,0.037852,-0.00024825,0.011281,0.067902,0.016295,0.033842,1.2397e-06,0.92,0.73,0
0.045164,-0.007021,0.037846,-0.0002648,0.011274,4.1612e-05,0,0,0.069087,-0.030002,0,0.00021639,0,0,0,0.037846,-0.00026485,0.011274,0.062559,0.016285,0.03385,1.2398e-06,0.93,0.73,0
0.045854,-0.0070294,0.037842,-0.00027905,0.011269,3.7229e-05,0,0,0.06909,-0.030024,0,0.00019359,0,0,0,0.037842,-0.00027908,0.011269,0.055955,0.016277,0.033858,1.2398e-06,0.94,0.73,0
0.046545,-0.0070364,0.037838,-0.00029098,0.011264,3.2123e-05,0,0,0.069092,-0.030043,0,0.00016704,0,0,0,0.037838,-0.00029101,0.011264,0.048271,0.01627,0.033864,1.2399e-06,0.95,0.73,0
0.047236,-0.0070421,0.037835,-0.00030068,0.01126,2.6417e-05,0,0,0.069094,-0.030058,0,0.00013737,0,0,0,0.037835,-0.0003007,0.01126,0.03969,0.016265,0.033869,1.2399e-06,0.96,0.73,0
0.047927,-0.0070465,0.037832,-0.00030817,0.011257,2.0232e-05,0,0,0.069095,-0.03007,0,0.00010521,0,0,0,0.037832,-0.00030818,0.011257,0.030393,0.01626,0.033872,1.2399e-06,0.97,0.73,0
0.048618,-0.0070496,0.03783,-0.0003135,0.011255,1.3687e-05,0,0,0.069096,-0.030078,0,7.1174e-05,0,0,0,0.03783,-0.0003135,0.011255,0.02056,0.016257,0.033875,1.2399e-06,0.98,0.73,0
0.049309,-0.0070515,0.037829,-0.00031668,0.011254,6.9034e-06,0,0,0.069096,-0.030083,0,3.5898e-05,0,0,0,0.037829,-0.00031669,0.011254,0.010369,0.016255,0.033876,1.2399e-06,0.99,0.73,0
0.05,-0.0070521,0.037829,-0.00031774,0.011253,-1.2012e-05,0,0,0.069096,-0.030085,0,-6.2464e-05,0,0,0,0.037829,-0.00031775,0.011253,-0.018042,0.016255,0.033877,1.2399e-06,1,0.73,0
0,0,0.034424,0.014753,0.014753,-0.0038749,0,0,0.025572,-1.0842e-19,0,-0.010075,0,0,0,0.03516,0.014017,0.014753,-10.752,0.02131,0.020784,4.5918e-07,0,0.74,0
0.00025572,-0.00010075,0.034375,0.014151,0.014558,-0.0038775,0,0,0.025762,-0.00052853,0,-0.010081,0,0,0,0.035093,0.013433,0.014558,-10.49,0.021028,0.02112,4.792e-07,0.01,0.74,0
0.00051524,-0.00020398,0.034578,0.013641,0.014466,-0.0039171,0,0,0.026146,-0.001072,0,-0.010184,0,0,0,0.035287,0.012932,0.014466,-10.257,0.020895,0.021629,5.1086e-07,0.02,0.74,0
0.00077864,-0.00030938,0.034782,0.013118,0.01437,-0.0039394,0,0,0.026536,-0.0016273,0,-0.010242,0,0,0,0.035477,0.012424,0.01437,-9.9927,0.020757,0.022143,5.4315e-07,0.03,0.74,0
0.001046,-0.00041662,0.034986,0.012586,0.014272,-0.0039441,0,0,0.026929,-0.0021914,0,-0.010255,0,0,0,0.03566,0.011912,0.014272,-9.6999,0.020615,0.022661,5.7586e-07,0.04,0.74,0
0.0013172,-0.00052537,0.035187,0.012046,0.01417,-0.003931,0,0,0.027322,-0.0027608,0,-0.010221,0,0,0,0.035837,0.011397,0.01417,-9.3825,0.020468,0.023178,6.0875e-07,0.05,0.74,0
0.0015924,-0.00063529,0.035384,0.011503,0.014066,-0.0039003,0,0,0.027713,-0.0033322,0,-0.010141,0,0,0,0.036005,0.010882,0.014066,-9.0445,0.020318,0.023692,6.416e-07,0.06,0.74,0
0.0018715,-0.00074604,0.035575,0.010958,0.01396,-0.0038525,0,0,0.0281,-0.0039022,0,-0.010016,0,0,0,0.036164,0.01037,0.01396,-8.69,0.020164,0.0242,6.7417e-07,0.07,0.74,0
0.0021544,-0.0008573,0.035759,0.010416,0.013852,-0.0037885,0,0,0.028479,-0.0044678,0,-0.0098502,0,0,0,0.036313,0.0098614,0.013852,-8.3227,0.020009,0.024699,7.0626e-07,0.08,0.74,0
0.0024411,-0.00096874,0.035934,0.0098774,0.013744,-0.0037095,0,0,0.028848,-0.0050259,0,-0.0096448,0,0,0,0.036452,0.0093596,0.013744,-7.9465,0.019852,0.025188,7.3765e-07,0.09,0.74,0
0.0027314,-0.0010801,0.036099,0.009346,0.013634,-0.0036169,0,0,0.029206,-0.005574,0,-0.0094039,0,0,0,0.03658,0.0088656,0.013634,-7.5651,0.019693,0.025665,7.6818e-07,0.1,0.74,0
0.0030252,-0.001191,0.036254,0.0088234,0.013523,-0.0035122,0,0,0.02955,-0.0061098,0,-0.0091316,0,0,0,0.036697,0.0083809,0.013523,-7.1817,0.019534,0.026127,7.9769e-07,0.11,0.74,0
0.0033223,-0.0013014,0.036397,0.0083116,0.013413,-0.0033971,0,0,0.02988,-0.0066314,0,-0.0088325,0,0,0,0.036802,0.0079065,0.013413,-6.7996,0.019374,0.026574,8.2606e-07,0.12,0.74,0
0.0036228,-0.0014108,0.036528,0.0078118,0.013302,-0.0032735,0,0,0.030194,-0.0071372,0,-0.0085112,0,0,0,0.036897,0.0074434,0.013302,-6.4217,0.019214,0.027005,8.5318e-07,0.13,0.74,0
0.0039262,-0.0015193,0.036647,0.0073252,0.013192,-0.0031433,0,0,0.030492,-0.0076263,0,-0.0081725,0,0,0,0.03698,0.0069921,0.013192,-6.0505,0.019055,0.027419,8.7898e-07,0.14,0.74,0
0.0042326,-0.0016266,0.036753,0.0068526,0.013082,-0.0030082,0,0,0.030773,-0.0080978,0,-0.0078213,0,0,0,0.037053,0.006553,0.013082,-5.6884,0.018896,0.027816,9.0343e-07,0.15,0.74,0
0.0045417,-0.0017325,0.036847,0.0063944,0.012972,-0.00287,0,0,0.031037,-0.0085514,0,-0.0074621,0,0,0,0.037115,0.0061262,0.012972,-5.3373,0.018738,0.028196,9.265e-07,0.16,0.74,0
0.0048533,-0.001837,0.036929,0.0059507,0.012864,-0.0027306,0,0,0.031284,-0.0089871,0,-0.0070996,0,0,0,0.037167,0.0057118,0.012864,-4.9991,0.018581,0.02856,9.4819e-07,0.17,0.74,0
0.0051674,-0.0019401,0.036999,0.0055214,0.012756,-0.0025915,0,0,0.031516,-0.009405,0,-0.0067379,0,0,0,0.037211,0.0053095,0.012756,-4.6752,0.018425,0.028907,9.6853e-07,0.18,0.74,0
0.0054836,-0.0020416,0.037058,0.0051063,0.012649,-0.0024542,0,0,0.031731,-0.0098058,0,-0.006381,0,0,0,0.037245,0.0049189,0.012649,-4.3668,0.018271,0.029238,9.8755e-07,0.19,0.74,0
0.005802,-0.0021416,0.037106,0.0047048,0.012543,-0.0023201,0,0,0.031932,-0.01019,0,-0.0060324,0,0,0,0.037272,0.0045395,0.012543,-4.075,0.018118,0.029555,1.0053e-06,0.2,0.74,0
0.0061223,-0.00224,0.037145,0.0043161,0.012438,-0.0021905,0,0,0.032119,-0.010559,0,-0.0056953,0,0,0,0.03729,0.0041706,0.012438,-3.8006,0.017966,0.029857,1.0219e-06,0.21,0.74,0
0.0064444,-0.002337,0.037175,0.0039396,0.012334,-0.0020664,0,0,0.032293,-0.010913,0,-0.0053726,0,0,0,0.037303,0.0038116,0.012334,-3.5442,0.017816,0.030147,1.0373e-06,0.22,0.74,0
0.0067681,-0.0024325,0.037196,0.0035741,0.012231,-0.0019488,0,0,0.032455,-0.011254,0,-0.0050668,0,0,0,0.037309,0.0034615,0.012231,-3.3062,0.017667,0.030426,1.0517e-06,0.23,0.74,0
0.0070935,-0.0025267,0.03721,0.0032186,0.012129,-0.0018385,0,0,0.032606,-0.011583,0,-0.00478,0,0,0,0.037309,0.0031194,0.012129,-3.0869,0.017519,0.030693,1.0651e-06,0.24,0.74,0
0.0074203,-0.0026196,0.037218,0.002872,0.012027,-0.0017361,0,0,0.032748,-0.011901,0,-0.0045139,0,0,0,0.037305,0.0027844,0.012027,-2.8864,0.017372,0.030952,1.0777e-06,0.25,0.74,0
0.0077484,-0.0027113,0.037219,0.002533,0.011926,-0.0016423,0,0,0.032882,-0.012211,0,-0.0042701,0,0,0,0.037297,0.0024555,0.011926,-2.7048,0.017226,0.031203,1.0895e-06,0.26,0.74,0
0.0080779,-0.0028018,0.037216,0.0022005,0.011825,-0.0015575,0,0,0.033009,-0.012512,0,-0.0040494,0,0,0,0.037286,0.0021314,0.011825,-2.5418,0.017081,0.031448,1.1007e-06,0.27,0.74,0
0.0084086,-0.0028915,0.037209,0.0018732,0.011725,-0.0014819,0,0,0.03313,-0.012807,0,-0.0038528,0,0,0,0.037271,0.0018112,0.011725,-2.3971,0.016936,0.031689,1.1113e-06,0.28,0.74,0
0.0087405,-0.0029803,0.0372,0.0015497,0.011625,-0.0014156,0,0,0.033247,-0.013098,0,-0.0036806,0,0,0,0.037256,0.0014936,0.011625,-2.2704,0.016791,0.031926,1.1215e-06,0.29,0.74,0
0.0090735,-0.0030683,0.037187,0.0012288,0.011525,-0.0013589,0,0,0.033361,-0.013385,0,-0.003533,0,0,0,0.037239,0.0011775,0.011525,-2.1611,0.016647,0.032161,1.1313e-06,0.3,0.74,0
0.0094077,-0.0031558,0.037174,0.00090906,0.011425,-0.0013115,0,0,0.033474,-0.013671,0,-0.0034098,0,0,0,0.037221,0.00086169,0.011425,-2.0684,0.016502,0.032396,1.1409e-06,0.31,0.74,0
0.009743,-0.0032427,0.03716,0.00058931,0.011325,-0.0012733,0,0,0.033585,-0.013956,0,-0.0033105,0,0,0,0.037204,0.00054503,0.011325,-1.9916,0.016358,0.032633,1.1504e-06,0.32,0.74,0
0.010079,-0.0033294,0.037146,0.00026824,0.011224,-0.0012439,0,0,0.033698,-0.014243,0,-0.0032342,0,0,0,0.037188,0.00022633,0.011224,-1.9297,0.016213,0.032872,1.1598e-06,0.33,0.74,0
0.010417,-0.0034157,0.037133,-5.5337e-05,0.011123,-0.001223,0,0,0.033813,-0.014532,0,-0.0031797,0,0,0,0.037173,-9.5511e-05,0.011123,-1.8815,0.016067,0.033117,1.1693e-06,0.34,0.74,0
0.010756,-0.0035019,0.037122,-0.00038259,0.011022,-0.0012099,0,0,0.03393,-0.014826,0,-0.0031457,0,0,0,0.037161,-0.00042158,0.011022,-1.8458,0.01592,0.033367,1.179e-06,0.35,0.74,0
0.011096,-0.0035881,0.037113,-0.00071459,0.01092,-0.0012039,0,0,0.034052,-0.015125,0,-0.0031302,0,0,0,0.037152,-0.00075287,0.01092,-1.8211,0.015773,0.033624,1.1889e-06,0.36,0.74,0
0.011437,-0.0036743,0.037108,-0.0010523,0.010817,-0.0012043,0,0,0.034179,-0.01543,0,-0.0031313,0,0,0,0.037146,-0.0010903,0.010817,-1.8059,0.015624,0.03389,1.1991e-06,0.37,0.74,0
0.011779,-0.0037606,0.037107,-0.0013966,0.010713,-0.0012102,0,0,0.034312,-0.015742,0,-0.0031464,0,0,0,0.037144,-0.0014346,0.010713,-1.7985,0.015474,0.034165,1.2097e-06,0.38,0.74,0
0.012123,-0.003847,0.037109,-0.0017481,0.010608,-0.0012204,0,0,0.034451,-0.016063,0,-0.0031729,0,0,0,0.037147,-0.0017864,0.010608,-1.7971,0.015323,0.034452,1.2207e-06,0.39,0.74,0
0.012468,-0.0039335,0.037117,-0.0021075,0.010503,-0.0012338,0,0,0.034598,-0.016393,0,-0.0032078,0,0,0,0.037155,-0.0021463,0.010503,-1.7998,0.015171,0.034749,1.2322e-06,0.4,0.74,0
0.012815,-0.0040203,0.037129,-0.002475,0.010396,-0.0012492,0,0,0.034752,-0.016733,0,-0.003248,0,0,0,0.037168,-0.0025143,0.010396,-1.8049,0.015017,0.035058,1.2441e-06,0.41,0.74,0
0.013163,-0.0041071,0.037146,-0.0028507,0.010289,-0.0012654,0,0,0.034915,-0.017081,0,-0.0032901,0,0,0,0.037186,-0.0028907,0.010289,-1.8103,0.014861,0.035379,1.2565e-06,0.42,0.74,0
0.013513,-0.0041941,0.037169,-0.0032347,0.01018,-0.001281,0,0,0.035085,-0.017439,0,-0.0033307,0,0,0,0.037209,-0.0032752,0.01018,-1.8142,0.014705,0.035712,1.2694e-06,0.43,0.74,0
0.013865,-0.0042812,0.037197,-0.0036264,0.010071,-0.0012947,0,0,0.035263,-0.017807,0,-0.0033663,0,0,0,0.037238,-0.0036675,0.010071,-1.8148,0.014547,0.036055,1.2827e-06,0.44,0.74,0
0.014219,-0.0043682,0.037229,-0.0040254,0.0099611,-0.0013053,0,0,0.035449,-0.018183,0,-0.0033937,0,0,0,0.03727,-0.0040667,0.0099611,-1.8104,0.014388,0.03641,1.2963e-06,0.45,0.74,0
0.014574,-0.0044551,0.037266,-0.0044309,0.0098506,-0.0013114,0,0,0.03564,-0.018566,0,-0.0034097,0,0,0,0.037308,-0.0044721,0.0098506,-1.7996,0.014229,0.036773,1.3101e-06,0.46,0.74,0
0.014931,-0.0045418,0.037307,-0.0048418,0.0097397,-0.001312,0,0,0.035838,-0.018956,0,-0.0034112,0,0,0,0.037348,-0.0048826,0.0097397,-1.7812,0.014068,0.037145,1.3241e-06,0.47,0.74,0
0.015291,-0.004628,0.037352,-0.0052569,0.0096284,-0.0013061,0,0,0.03604,-0.019351,0,-0.0033958,0,0,0,0.037392,-0.0052969,0.0096284,-1.7541,0.013908,0.037523,1.3382e-06,0.48,0.74,0
0.015652,-0.0047137,0.037399,-0.0056748,0.0095171,-0.0012928,0,0,0.036246,-0.01975,0,-0.0033613,0,0,0,0.037437,-0.0057136,0.0095171,-1.7176,0.013747,0.037905,1.3521e-06,0.49,0.74,0
0.016016,-0.0047986,0.037428,-0.00056691,0.011058,-0.0012728,0,0,0.050386,-0.02015,0,-0.0049426,0,0,0,0.037471,-0.00061024,0.011058,-1.9531,0.015973,0.033862,1.1839e-06,0.5,0.74,0
0.01666,-0.0049154,0.037496,0.0047078,0.012661,-0.0012488,0,0,0.064571,-0.020679,0,-0.0064939,0,0,0,0.037544,0.0046603,0.012661,-2.178,0.018288,0.029703,1.0239e-06,0.51,0.74,0
0.017307,-0.0050303,0.037546,0.0044416,0.012596,-0.0012209,0,0,0.064868,-0.021202,0,-0.0063484,0,0,0,0.03759,0.0043967,0.012596,-2.1092,0.018194,0.029948,1.0388e-06,0.52,0.74,0
0.017957,-0.0051432,0.037593,0.0041797,0.012532,-0.0011883,0,0,0.06516,-0.021716,0,-0.0061791,0,0,0,0.037636,0.0041375,0.012532,-2.0342,0.018102,0.030189,1.0534e-06,0.53,0.74,0
0.01861,-0.0052538,0.03764,0.003923,0.012469,-0.0011513,0,0,0.065444,-0.022219,0,-0.0059865,0,0,0,0.037679,0.0038837,0.012469,-1.9533,0.01801,0.030425,1.0676e-06,0.54,0.74,0
0.019266,-0.0053621,0.037684,0.0036724,0.012407,-0.0011101,0,0,0.06572,-0.02271,0,-0.0057723,0,0,0,0.03772,0.0036362,0.012407,-1.8673,0.017921,0.030654,1.0813e-06,0.55,0.74,0
0.019925,-0.0054677,0.037726,0.0034289,0.012346,-0.001065,0,0,0.065986,-0.023185,0,-0.0055381,0,0,0,0.037759,0.0033959,0.012346,-1.7769,0.017834,0.030876,1.0945e-06,0.56,0.74,0
0.020586,-0.0055705,0.037764,0.0031931,0.012287,-0.0010166,0,0,0.06624,-0.023644,0,-0.0052864,0,0,0,0.037794,0.0031633,0.012287,-1.6829,0.017748,0.03109,1.107e-06,0.57,0.74,0
0.021249,-0.0056705,0.0378,0.0029658,0.01223,-0.00096534,0,0,0.066482,-0.024086,0,-0.0050197,0,0,0,0.037826,0.0029391,0.01223,-1.5862,0.017665,0.031294,1.1189e-06,0.58,0.74,0
0.021915,-0.0057674,0.037832,0.0027474,0.012174,-0.00091174,0,0,0.066711,-0.024508,0,-0.0047411,0,0,0,0.037855,0.0027237,0.012174,-1.4876,0.017584,0.031489,1.1301e-06,0.59,0.74,0
0.022584,-0.0058612,0.03786,0.0025382,0.01212,-0.0008564,0,0,0.066925,-0.024911,0,-0.0044533,0,0,0,0.037881,0.0025175,0.01212,-1.3881,0.017506,0.031673,1.1405e-06,0.6,0.74,0
0.023254,-0.0059517,0.037885,0.0023387,0.012067,-0.0007999,0,0,0.067126,-0.025294,0,-0.0041595,0,0,0,0.037903,0.0023207,0.012067,-1.2885,0.01743,0.031848,1.1503e-06,0.61,0.74,0
0.023926,-0.0060389,0.037906,0.0021488,0.012016,-0.0007428,0,0,0.067312,-0.025656,0,-0.0038626,0,0,0,0.037921,0.0021334,0.012016,-1.1896,0.017357,0.032012,1.1593e-06,0.62,0.74,0
0.0246,-0.0061228,0.037923,0.0019688,0.011968,-0.00068564,0,0,0.067485,-0.025997,0,-0.0035653,0,0,0,0.037936,0.0019557,0.011968,-1.0921,0.017287,0.032165,1.1675e-06,0.63,0.74,0
0.025276,-0.0062032,0.037937,0.0017984,0.011921,-0.00062894,0,0,0.067643,-0.026318,0,-0.0032705,0,0,0,0.037948,0.0017875,0.011921,-0.99674,0.017219,0.032309,1.1751e-06,0.64,0.74,0
0.025953,-0.0062803,0.037948,0.0016376,0.011876,-0.00057316,0,0,0.067788,-0.026619,0,-0.0029804,0,0,0,0.037957,0.0016286,0.011876,-0.90411,0.017154,0.032442,1.182e-06,0.65,0.74,0
0.026632,-0.006354,0.037956,0.0014862,0.011833,-0.0005187,0,0,0.067921,-0.026901,0,-0.0026973,0,0,0,0.037963,0.0014788,0.011833,-0.81469,0.017092,0.032566,1.1882e-06,0.66,0.74,0
0.027311,-0.0064244,0.037961,0.0013438,0.011791,-0.00046594,0,0,0.068041,-0.027164,0,-0.0024229,0,0,0,0.037967,0.0013379,0.011791,-0.72892,0.017032,0.032681,1.1938e-06,0.67,0.74,0
0.027992,-0.0064915,0.037963,0.0012102,0.011752,-0.00041518,0,0,0.068149,-0.027409,0,-0.0021589,0,0,0,0.037968,0.0012055,0.011752,-0.64714,0.016975,0.032787,1.1989e-06,0.68,0.74,0
0.028674,-0.0065552,0.037963,0.0010851,0.011714,-0.00036668,0,0,0.068246,-0.027636,0,-0.0019067,0,0,0,0.037967,0.0010814,0.011714,-0.56961,0.016921,0.032884,1.2034e-06,0.69,0.74,0
0.029357,-0.0066158,0.037961,0.000968,0.011679,-0.00032063,0,0,0.068334,-0.027848,0,-0.0016673,0,0,0,0.037964,0.00096522,0.011679,-0.49656,0.016869,0.032974,1.2074e-06,0.7,0.74,0
0.030041,-0.0066733,0.037957,0.00085862,0.011645,-0.00027721,0,0,0.068412,-0.028044,0,-0.0014415,0,0,0,0.037959,0.00085655,0.011645,-0.4281,0.01682,0.033056,1.2109e-06,0.71,0.74,0
0.030726,-0.0067277,0.037951,0.00075654,0.011612,-0.00023652,0,0,0.068481,-0.028225,0,-0.0012299,0,0,0,0.037953,0.00075504,0.011612,-0.36432,0.016773,0.033131,1.214e-06,0.72,0.74,0
0.031411,-0.0067791,0.037944,0.00066139,0.011582,-0.00019864,0,0,0.068543,-0.028393,0,-0.0010329,0,0,0,0.037945,0.00066033,0.011582,-0.30526,0.016729,0.0332,1.2168e-06,0.73,0.74,0
0.032096,-0.0068277,0.037936,0.00057279,0.011553,-0.00016361,0,0,0.068597,-0.028548,0,-0.00085079,0,0,0,0.037937,0.00057207,0.011553,-0.25089,0.016687,0.033263,1.2191e-06,0.74,0.74,0
0.032783,-0.0068735,0.037927,0.00049036,0.011525,-0.00013145,0,0,0.068645,-0.028691,0,-0.00068352,0,0,0,0.037928,0.0004899,0.011525,-0.20117,0.016648,0.03332,1.2212e-06,0.75,0.74,0
0.033469,-0.0069165,0.037917,0.00041376,0.011499,-0.00010212,0,0,0.068687,-0.028823,0,-0.00053104,0,0,0,0.037918,0.00041348,0.011499,-0.15602,0.01661,0.033372,1.223e-06,0.76,0.74,0
0.034156,-0.006957,0.037907,0.00034264,0.011475,-7.5603e-05,0,0,0.068724,-0.028944,0,-0.00039313,0,0,0,0.037907,0.00034248,0.011475,-0.11531,0.016575,0.033419,1.2245e-06,0.77,0.74,0
0.034844,-0.006995,0.037896,0.00027667,0.011452,-5.1827e-05,0,0,0.068756,-0.029056,0,-0.0002695,0,0,0,0.037896,0.0002766,0.011452,-0.078933,0.016542,0.033462,1.2258e-06,0.78,0.74,0
0.035532,-0.0070305,0.037885,0.00021556,0.01143,-3.0718e-05,0,0,0.068783,-0.029158,0,-0.00015973,0,0,0,0.037886,0.00021553,0.01143,-0.046722,0.01651,0.033501,1.2269e-06,0.79,0.74,0
0.03622,-0.0070637,0.037874,0.00015901,0.01141,-1.2189e-05,0,0,0.068807,-0.029253,0,-6.3384e-05,0,0,0,0.037874,0.00015901,0.01141,-0.018517,0.016481,0.033536,1.2278e-06,0.8,0.74,0
0.036908,-0.0070948,0.037863,0.00010675,0.011391,3.8606e-06,0,0,0.068828,-0.029339,0,2.0075e-05,0,0,0,0.037863,0.00010675,0.011391,0.0058584,0.016454,0.033568,1.2285e-06,0.81,0.74,0
0.037596,-0.0071236,0.037852,5.8536e-05,0.011373,1.754e-05,0,0,0.068846,-0.029418,0,9.1205e-05,0,0,0,0.037852,5.8528e-05,0.011373,0.02659,0.016428,0.033597,1.2292e-06,0.82,0.74,0
0.038285,-0.0071504,0.037842,1.4126e-05,0.011357,2.8962e-05,0,0,0.068861,-0.029491,0,0.0001506,0,0,0,0.037842,1.4104e-05,0.011357,0.043868,0.016404,0.033623,1.2297e-06,0.83,0.74,0
0.038973,-0.0071752,0.037831,-2.6693e-05,0.011341,3.825e-05,0,0,0.068874,-0.029557,0,0.0001989,0,0,0,0.037831,-2.6731e-05,0.011341,0.057889,0.016382,0.033647,1.2301e-06,0.84,0.74,0
0.039662,-0.0071981,0.037821,-6.4122e-05,0.011327,4.5525e-05,0,0,0.068885,-0.029617,0,0.00023673,0,0,0,0.037821,-6.4177e-05,0.011327,0.06885,0.016361,0.033668,1.2304e-06,0.85,0.74,0
0.040351,-0.0072192,0.037812,-9.8345e-05,0.011314,5.0915e-05,0,0,0.068894,-0.029672,0,0.00026476,0,0,0,0.037812,-9.8413e-05,0.011314,0.076951,0.016342,0.033686,1.2306e-06,0.86,0.74,0
0.04104,-0.0072385,0.037802,-0.00012953,0.011302,5.4547e-05,0,0,0.068901,-0.029722,0,0.00028365,0,0,0,0.037803,-0.00012961,0.011302,0.082393,0.016325,0.033703,1.2308e-06,0.87,0.74,0
0.041729,-0.0072561,0.037794,-0.00015783,0.011291,5.6551e-05,0,0,0.068908,-0.029766,0,0.00029406,0,0,0,0.037794,-0.00015791,0.011291,0.085375,0.016309,0.033718,1.231e-06,0.88,0.74,0
0.042418,-0.0072721,0.037786,-0.00018338,0.011281,5.7054e-05,0,0,0.068913,-0.029807,0,0.00029668,0,0,0,0.037786,-0.00018347,0.011281,0.086095,0.016294,0.033731,1.2311e-06,0.89,0.74,0
0.043107,-0.0072865,0.037778,-0.00020631,0.011272,5.6187e-05,0,0,0.068917,-0.029843,0,0.00029217,0,0,0,0.037778,-0.0002064,0.011272,0.084753,0.016281,0.033743,1.2311e-06,0.9,0.74,0
0.043796,-0.0072993,0.037771,-0.00022674,0.011263,5.4079e-05,0,0,0.068921,-0.029874,0,0.00028121,0,0,0,0.037771,-0.00022681,0.011263,0.081542,0.016269,0.033753,1.2312e-06,0.91,0.74,0
0.044486,-0.0073107,0.037765,-0.00024475,0.011256,5.0855e-05,0,0,0.068924,-0.029902,0,0.00026445,0,0,0,0.037765,-0.00024482,0.011256,0.076658,0.016259,0.033762,1.2312e-06,0.92,0.74,0
0.045175,-0.0073207,0.03776,-0.00026045,0.01125,4.6644e-05,0,0,0.068926,-0.029927,0,0.00024255,0,0,0,0.03776,-0.0002605,0.01125,0.070292,0.01625,0.03377,1.2312e-06,0.93,0.74,0
0.045864,-0.0073292,0.037755,-0.0002739,0.011244,4.1572e-05,0,0,0.068928,-0.029947,0,0.00021618,0,0,0,0.037755,-0.00027394,0.011244,0.062634,0.016242,0.033776,1.2312e-06,0.94,0.74,0
0.046553,-0.0073364,0.037751,-0.00028517,0.01124,3.5763e-05,0,0,0.068929,-0.029965,0,0.00018597,0,0,0,0.037751,-0.0002852,0.01124,0.053872,0.016235,0.033782,1.2312e-06,0.95,0.74,0
0.047243,-0.0073423,0.037748,-0.00029432,0.011236,2.9343e-05,0,0,0.06893,-0.029979,0,0.00015258,0,0,0,0.037748,-0.00029434,0.011236,0.044194,0.01623,0.033786,1.2311e-06,0.96,0.74,0
0.047932,-0.0073468,0.037745,-0.00030139,0.011233,2.2434e-05,0,0,0.068931,-0.02999,0,0.00011666,0,0,0,0.037745,-0.0003014,0.011233,0.033784,0.016226,0.03379,1.2311e-06,0.97,0.74,0
0.048621,-0.00735,0.037743,-0.00030642,0.011231,1.5159e-05,0,0,0.068932,-0.029997,0,7.8826e-05,0,0,0,0.037743,-0.00030642,0.011231,0.022826,0.016223,0.033792,1.2311e-06,0.98,0.74,0
0.049311,-0.0073519,0.037742,-0.00030942,0.01123,7.6403e-06,0,0,0.068932,-0.030002,0,3.9729e-05,0,0,0,0.037742,-0.00030942,0.01123,0.011504,0.016221,0.033793,1.2311e-06,0.99,0.74,0
0.05,-0.0073526,0.037742,-0.00031042,0.011229,-1.2318e-05,0,0,0.068932,-0.030003,0,-6.4052e-05,0,0,0,0.037742,-0.00031043,0.011229,-0.018547,0.01622,0.033794,1.2311e-06,1,0.74,0
0,0,0.034587,0.014823,0.014823,-0.0040814,0,0,0.025693,-1.3552e-19,0,-0.010612,0,0,0,0.035397,0.014013,0.014823,-11.221,0.021411,0.02099,4.7259e-07,0,0.75,0
0.00025693,-0.00010612,0.034536,0.014201,0.014621,-0.004084,0,0,0.02589,-0.0005465,0,-0.010618,0,0,0,0.035326,0.013411,0.014621,-10.942,0.021119,0.021336,4.934e-07,0.01,0.75,0
0.0005178,-0.00021487,0.034746,0.013673,0.014526,-0.0041253,0,0,0.026287,-0.0011088,0,-0.010726,0,0,0,0.035525,0.012894,0.014526,-10.691,0.020982,0.021861,5.2652e-07,0.02,0.75,0
0.00078267,-0.00032592,0.034958,0.013132,0.014427,-0.0041478,0,0,0.02669,-0.0016837,0,-0.010784,0,0,0,0.035719,0.01237,0.014427,-10.405,0.020839,0.022392,5.6025e-07,0.03,0.75,0
0.0010516,-0.0004389,0.035168,0.01258,0.014324,-0.0041507,0,0,0.027096,-0.0022674,0,-0.010792,0,0,0,0.035906,0.011842,0.014324,-10.09,0.020691,0.022924,5.9434e-07,0.04,0.75,0
0.0013246,-0.00055344,0.035375,0.012022,0.014219,-0.0041339,0,0,0.027502,-0.0028563,0,-0.010748,0,0,0,0.036085,0.011312,0.014219,-9.748,0.020539,0.023455,6.2853e-07,0.05,0.75,0
0.0016017,-0.00066916,0.035577,0.01146,0.014111,-0.0040978,0,0,0.027906,-0.0034465,0,-0.010654,0,0,0,0.036254,0.010783,0.014111,-9.3846,0.020383,0.023981,6.6256e-07,0.06,0.75,0
0.0018827,-0.00078569,0.035773,0.010898,0.014001,-0.0040429,0,0,0.028303,-0.0040343,0,-0.010512,0,0,0,0.036413,0.010257,0.014001,-9.0037,0.020224,0.0245,6.9617e-07,0.07,0.75,0
0.0021677,-0.00090268,0.03596,0.010339,0.01389,-0.0039704,0,0,0.028692,-0.0046162,0,-0.010323,0,0,0,0.036561,0.0097375,0.01389,-8.6098,0.020063,0.025007,7.2913e-07,0.08,0.75,0
0.0024565,-0.0010198,0.036138,0.0097853,0.013777,-0.0038814,0,0,0.029069,-0.005189,0,-0.010092,0,0,0,0.036697,0.0092255,0.013777,-8.2069,0.0199,0.025503,7.6123e-07,0.09,0.75,0
0.0027491,-0.0011367,0.036304,0.0092405,0.013663,-0.0037777,0,0,0.029433,-0.0057498,0,-0.0098219,0,0,0,0.036822,0.0087231,0.013663,-7.799,0.019736,0.025983,7.9226e-07,0.1,0.75,0
0.0030452,-0.001253,0.036459,0.0087063,0.01355,-0.003661,0,0,0.029782,-0.0062962,0,-0.0095186,0,0,0,0.036934,0.0082315,0.01355,-7.3898,0.019571,0.026447,8.2208e-07,0.11,0.75,0
0.0033447,-0.0013686,0.036601,0.0081848,0.013436,-0.0035334,0,0,0.030114,-0.0068261,0,-0.0091867,0,0,0,0.037033,0.007752,0.013436,-6.9828,0.019407,0.026894,8.5056e-07,0.12,0.75,0
0.0036475,-0.0014832,0.036729,0.0076773,0.013322,-0.0033968,0,0,0.030429,-0.007338,0,-0.0088318,0,0,0,0.037121,0.0072854,0.013322,-6.581,0.019243,0.027322,8.776e-07,0.13,0.75,0
0.0039533,-0.0015965,0.036844,0.007185,0.013209,-0.0032535,0,0,0.030726,-0.0078308,0,-0.0084591,0,0,0,0.037197,0.0068323,0.013209,-6.1871,0.019079,0.027732,9.0315e-07,0.14,0.75,0
0.004262,-0.0017085,0.036945,0.0067086,0.013096,-0.0031054,0,0,0.031004,-0.0083039,0,-0.008074,0,0,0,0.037261,0.0063929,0.013096,-5.8037,0.018917,0.028122,9.2718e-07,0.15,0.75,0
0.0045734,-0.001819,0.037034,0.0062484,0.012985,-0.0029545,0,0,0.031264,-0.0087571,0,-0.0076817,0,0,0,0.037315,0.0059674,0.012985,-5.4327,0.018756,0.028494,9.4966e-07,0.16,0.75,0
0.0048873,-0.0019279,0.037109,0.0058045,0.012874,-0.0028027,0,0,0.031505,-0.0091903,0,-0.0072871,0,0,0,0.037358,0.0055556,0.012874,-5.076,0.018596,0.028848,9.7063e-07,0.17,0.75,0
0.0052035,-0.0020351,0.037172,0.0053767,0.012764,-0.0026518,0,0,0.031729,-0.0096041,0,-0.0068947,0,0,0,0.037391,0.0051571,0.012764,-4.7351,0.018438,0.029184,9.9013e-07,0.18,0.75,0
0.0055219,-0.0021406,0.037223,0.0049646,0.012656,-0.0025034,0,0,0.031936,-0.0099991,0,-0.0065087,0,0,0,0.037416,0.0047715,0.012656,-4.4112,0.018281,0.029503,1.0082e-06,0.19,0.75,0
0.0058422,-0.0022444,0.037263,0.0045674,0.012549,-0.0023589,0,0,0.032128,-0.010376,0,-0.006133,0,0,0,0.037432,0.004398,0.012549,-4.1053,0.018126,0.029806,1.0249e-06,0.2,0.75,0
0.0061644,-0.0023465,0.037292,0.0041842,0.012443,-0.0022196,0,0,0.032304,-0.010736,0,-0.0057709,0,0,0,0.037441,0.0040361,0.012443,-3.8183,0.017973,0.030095,1.0404e-06,0.21,0.75,0
0.0064883,-0.0024469,0.037313,0.0038141,0.012338,-0.0020867,0,0,0.032467,-0.011081,0,-0.0054254,0,0,0,0.037442,0.0036846,0.012338,-3.5507,0.017822,0.03037,1.0546e-06,0.22,0.75,0
0.0068138,-0.0025458,0.037325,0.003456,0.012234,-0.0019611,0,0,0.032618,-0.011412,0,-0.005099,0,0,0,0.037438,0.0033429,0.012234,-3.3029,0.017672,0.030633,1.0678e-06,0.23,0.75,0
0.0071407,-0.0026432,0.037329,0.0031087,0.012131,-0.0018438,0,0,0.032757,-0.01173,0,-0.0047939,0,0,0,0.037428,0.0030096,0.012131,-3.0752,0.017523,0.030885,1.08e-06,0.24,0.75,0
0.0074689,-0.0027392,0.037327,0.0027709,0.012029,-0.0017353,0,0,0.032887,-0.012036,0,-0.0045118,0,0,0,0.037414,0.002684,0.012029,-2.8676,0.017376,0.031128,1.0913e-06,0.25,0.75,0
0.0077984,-0.002834,0.037319,0.0024412,0.011928,-0.0016363,0,0,0.033008,-0.012333,0,-0.0042543,0,0,0,0.037396,0.0023646,0.011928,-2.6801,0.017229,0.031363,1.1019e-06,0.26,0.75,0
0.0081291,-0.0029275,0.037306,0.0021183,0.011827,-0.0015471,0,0,0.033123,-0.012622,0,-0.0040224,0,0,0,0.037374,0.0020504,0.011827,-2.5126,0.017084,0.031591,1.1118e-06,0.27,0.75,0
0.0084609,-0.00302,0.03729,0.0018008,0.011727,-0.001468,0,0,0.033231,-0.012904,0,-0.0038167,0,0,0,0.03735,0.0017401,0.011727,-2.3646,0.016939,0.031815,1.1211e-06,0.28,0.75,0
0.0087937,-0.0031117,0.03727,0.0014872,0.011627,-0.0013992,0,0,0.033336,-0.013182,0,-0.0036379,0,0,0,0.037325,0.0014326,0.011627,-2.2358,0.016795,0.032035,1.13e-06,0.29,0.75,0
0.0091276,-0.0032025,0.037248,0.0011761,0.011527,-0.0013407,0,0,0.033437,-0.013456,0,-0.0034858,0,0,0,0.037298,0.0011264,0.011527,-2.1256,0.016651,0.032254,1.1386e-06,0.3,0.75,0
0.0094625,-0.0032928,0.037225,0.0008662,0.011428,-0.0012925,0,0,0.033537,-0.01373,0,-0.0033604,0,0,0,0.037271,0.00082032,0.011428,-2.0333,0.016506,0.032474,1.147e-06,0.31,0.75,0
0.0097983,-0.0033825,0.037202,0.00055594,0.011327,-0.0012542,0,0,0.033637,-0.014003,0,-0.003261,0,0,0,0.037245,0.00051306,0.011327,-1.9579,0.016362,0.032695,1.1553e-06,0.32,0.75,0
0.010135,-0.003472,0.037179,0.00024398,0.011227,-0.0012257,0,0,0.033738,-0.014278,0,-0.0031868,0,0,0,0.03722,0.00020335,0.011227,-1.8986,0.016217,0.032919,1.1636e-06,0.33,0.75,0
0.010473,-0.0035612,0.037158,-7.1025e-05,0.011126,-0.0012064,0,0,0.033841,-0.014556,0,-0.0031365,0,0,0,0.037197,-0.00011008,0.011126,-1.854,0.016071,0.033149,1.172e-06,0.34,0.75,0
0.010812,-0.0036503,0.037139,-0.00039035,0.011024,-0.0011956,0,0,0.033948,-0.014839,0,-0.0031086,0,0,0,0.037177,-0.0004284,0.011024,-1.8229,0.015924,0.033386,1.1807e-06,0.35,0.75,0
0.011152,-0.0037394,0.037122,-0.00071519,0.010922,-0.0011928,0,0,0.03406,-0.015128,0,-0.0031012,0,0,0,0.03716,-0.00075275,0.010922,-1.8038,0.015776,0.033631,1.1896e-06,0.36,0.75,0
0.011493,-0.0038286,0.037109,-0.0010467,0.010819,-0.0011969,0,0,0.034178,-0.015425,0,-0.003112,0,0,0,0.037147,-0.0010842,0.010819,-1.7949,0.015627,0.033886,1.199e-06,0.37,0.75,0
0.011836,-0.0039179,0.037101,-0.0013857,0.010715,-0.001207,0,0,0.034302,-0.01573,0,-0.0031383,0,0,0,0.037139,-0.0014235,0.010715,-1.7946,0.015477,0.034151,1.2088e-06,0.38,0.75,0
0.012179,-0.0040075,0.037097,-0.0017332,0.010609,-0.001222,0,0,0.034434,-0.016045,0,-0.0031773,0,0,0,0.037136,-0.0017716,0.010609,-1.8008,0.015324,0.034429,1.2191e-06,0.39,0.75,0
0.012524,-0.0040973,0.037099,-0.0020897,0.010503,-0.0012407,0,0,0.034575,-0.01637,0,-0.0032258,0,0,0,0.037138,-0.0021289,0.010503,-1.8115,0.015171,0.03472,1.23e-06,0.4,0.75,0
0.012871,-0.0041875,0.037106,-0.0024557,0.010395,-0.0012616,0,0,0.034724,-0.016706,0,-0.0032802,0,0,0,0.037146,-0.0024959,0.010395,-1.8247,0.015015,0.035023,1.2414e-06,0.41,0.75,0
0.013219,-0.0042778,0.037119,-0.0028313,0.010286,-0.0012834,0,0,0.034882,-0.017053,0,-0.0033368,0,0,0,0.03716,-0.0028725,0.010286,-1.8381,0.014858,0.035341,1.2534e-06,0.42,0.75,0
0.013568,-0.0043684,0.037138,-0.0032165,0.010176,-0.0013046,0,0,0.03505,-0.017411,0,-0.003392,0,0,0,0.03718,-0.0032587,0.010176,-1.8497,0.014699,0.035672,1.266e-06,0.43,0.75,0
0.01392,-0.0044591,0.037163,-0.003611,0.010065,-0.0013237,0,0,0.035226,-0.017779,0,-0.0034417,0,0,0,0.037206,-0.0036539,0.010065,-1.8575,0.014539,0.036016,1.2791e-06,0.44,0.75,0
0.014273,-0.0045499,0.037193,-0.004014,0.0099536,-0.0013394,0,0,0.035411,-0.018158,0,-0.0034824,0,0,0,0.037236,-0.0040575,0.0099536,-1.8597,0.014377,0.036372,1.2926e-06,0.45,0.75,0
0.014628,-0.0046407,0.037228,-0.0044248,0.009841,-0.0013501,0,0,0.035603,-0.018545,0,-0.0035103,0,0,0,0.037272,-0.0044685,0.009841,-1.8546,0.014215,0.036739,1.3064e-06,0.46,0.75,0
0.014985,-0.0047313,0.037268,-0.0048421,0.0097278,-0.0013547,0,0,0.035802,-0.018941,0,-0.0035223,0,0,0,0.037312,-0.0048857,0.0097278,-1.8407,0.014051,0.037115,1.3204e-06,0.47,0.75,0
0.015344,-0.0048215,0.037312,-0.0052647,0.0096142,-0.0013521,0,0,0.036007,-0.019342,0,-0.0035154,0,0,0,0.037355,-0.0053075,0.0096142,-1.8171,0.013887,0.037498,1.3346e-06,0.48,0.75,0
0.015705,-0.0049112,0.037359,-0.0056908,0.0095003,-0.0013412,0,0,0.036216,-0.019748,0,-0.0034872,0,0,0,0.0374,-0.0057326,0.0095003,-1.7828,0.013723,0.037887,1.3486e-06,0.49,0.75,0
0.016068,-0.0050002,0.037387,-0.00059,0.011039,-0.0013226,0,0,0.050344,-0.020157,0,-0.0051367,0,0,0,0.037434,-0.00063681,0.011039,-2.0304,0.015946,0.033851,1.1812e-06,0.5,0.75,0
0.016712,-0.0051223,0.037457,0.0046819,0.012642,-0.0012987,0,0,0.064519,-0.020695,0,-0.0067531,0,0,0,0.037508,0.0046305,0.012642,-2.2656,0.01826,0.029694,1.022e-06,0.51,0.75,0
0.017359,-0.0052424,0.037506,0.0044107,0.012575,-0.0012699,0,0,0.064821,-0.021227,0,-0.0066032,0,0,0,0.037555,0.0043621,0.012575,-2.1941,0.018164,0.029943,1.0371e-06,0.52,0.75,0
0.018008,-0.0053605,0.037554,0.0041439,0.012509,-0.0012358,0,0,0.065117,-0.02175,0,-0.0064264,0,0,0,0.0376,0.0040983,0.012509,-2.1155,0.018069,0.030188,1.0519e-06,0.53,0.75,0
0.018661,-0.0054762,0.037601,0.0038826,0.012445,-0.0011968,0,0,0.065405,-0.022262,0,-0.0062235,0,0,0,0.037643,0.0038401,0.012445,-2.0303,0.017976,0.030427,1.0662e-06,0.54,0.75,0
0.019317,-0.0055894,0.037645,0.0036277,0.012382,-0.0011531,0,0,0.065684,-0.022761,0,-0.0059962,0,0,0,0.037684,0.0035887,0.012382,-1.9392,0.017885,0.030659,1.08e-06,0.55,0.75,0
0.019975,-0.0056998,0.037686,0.0033804,0.01232,-0.0011052,0,0,0.065952,-0.023243,0,-0.0057468,0,0,0,0.037722,0.0033448,0.01232,-1.8432,0.017795,0.030884,1.0932e-06,0.56,0.75,0
0.020636,-0.0058073,0.037724,0.0031413,0.01226,-0.0010535,0,0,0.066208,-0.023708,0,-0.005478,0,0,0,0.037756,0.0031092,0.01226,-1.7432,0.017708,0.031099,1.1057e-06,0.57,0.75,0
0.021299,-0.0059117,0.037759,0.0029112,0.012201,-0.00099865,0,0,0.06645,-0.024154,0,-0.005193,0,0,0,0.037788,0.0028826,0.012201,-1.6402,0.017624,0.031304,1.1176e-06,0.58,0.75,0
0.021965,-0.0060128,0.03779,0.0026907,0.012144,-0.00094134,0,0,0.066679,-0.024579,0,-0.004895,0,0,0,0.037815,0.0026655,0.012144,-1.5352,0.017542,0.031499,1.1287e-06,0.59,0.75,0
0.022632,-0.0061106,0.037817,0.0024801,0.012089,-0.0008822,0,0,0.066892,-0.024983,0,-0.0045875,0,0,0,0.037839,0.0024581,0.012089,-1.4292,0.017462,0.031683,1.139e-06,0.6,0.75,0
0.023302,-0.006205,0.03784,0.0022797,0.012036,-0.00082189,0,0,0.06709,-0.025366,0,-0.0042738,0,0,0,0.037859,0.0022607,0.012036,-1.3233,0.017385,0.031856,1.1485e-06,0.61,0.75,0
0.023974,-0.0062958,0.037859,0.0020896,0.011985,-0.00076104,0,0,0.067274,-0.025727,0,-0.0039574,0,0,0,0.037875,0.0020734,0.011985,-1.2183,0.017311,0.032018,1.1573e-06,0.62,0.75,0
0.024648,-0.0063831,0.037875,0.0019099,0.011935,-0.00070026,0,0,0.067442,-0.026066,0,-0.0036414,0,0,0,0.037888,0.0018962,0.011935,-1.115,0.01724,0.03217,1.1653e-06,0.63,0.75,0
0.025323,-0.0064667,0.037886,0.0017403,0.011888,-0.00064011,0,0,0.067596,-0.026384,0,-0.0033286,0,0,0,0.037898,0.001729,0.011888,-1.0142,0.017172,0.03231,1.1725e-06,0.64,0.75,0
0.026,-0.0065468,0.037895,0.0015808,0.011843,-0.00058108,0,0,0.067736,-0.026681,0,-0.0030216,0,0,0,0.037904,0.0015715,0.011843,-0.9165,0.017106,0.032441,1.1791e-06,0.65,0.75,0
0.026678,-0.0066233,0.0379,0.001431,0.011799,-0.00052363,0,0,0.067863,-0.026958,0,-0.0027229,0,0,0,0.037908,0.0014235,0.011799,-0.82243,0.017044,0.032561,1.185e-06,0.66,0.75,0
0.027357,-0.0066963,0.037903,0.0012906,0.011758,-0.00046812,0,0,0.067976,-0.027215,0,-0.0024342,0,0,0,0.037909,0.0012847,0.011758,-0.73242,0.016984,0.032672,1.1903e-06,0.67,0.75,0
0.028037,-0.0067658,0.037903,0.0011593,0.011719,-0.00041489,0,0,0.068079,-0.027454,0,-0.0021574,0,0,0,0.037907,0.0011547,0.011719,-0.64685,0.016927,0.032773,1.195e-06,0.68,0.75,0
0.028719,-0.0068318,0.0379,0.0010367,0.011681,-0.00036418,0,0,0.06817,-0.027675,0,-0.0018938,0,0,0,0.037904,0.0010331,0.011681,-0.56597,0.016873,0.032867,1.1991e-06,0.69,0.75,0
0.029401,-0.0068945,0.037896,0.00092235,0.011645,-0.00031621,0,0,0.068251,-0.02788,0,-0.0016443,0,0,0,0.037898,0.00091965,0.011645,-0.48997,0.016821,0.032952,1.2028e-06,0.7,0.75,0
0.030084,-0.0069539,0.037889,0.0008158,0.011612,-0.00027112,0,0,0.068322,-0.028069,0,-0.0014098,0,0,0,0.037891,0.00081381,0.011612,-0.41898,0.016772,0.03303,1.206e-06,0.71,0.75,0
0.030767,-0.00701,0.037881,0.00071663,0.011579,-0.00022902,0,0,0.068385,-0.028243,0,-0.0011909,0,0,0,0.037883,0.00071522,0.011579,-0.35305,0.016726,0.033101,1.2087e-06,0.72,0.75,0
0.031451,-0.0070631,0.037873,0.00062444,0.011549,-0.00018996,0,0,0.068441,-0.028404,0,-0.0009878,0,0,0,0.037873,0.00062347,0.011549,-0.29219,0.016682,0.033166,1.2111e-06,0.73,0.75,0
0.032136,-0.0071132,0.037862,0.00053881,0.01152,-0.00015398,0,0,0.068489,-0.028552,0,-0.00080068,0,0,0,0.037863,0.00053818,0.01152,-0.23637,0.01664,0.033224,1.2132e-06,0.74,0.75,0
0.032821,-0.0071604,0.037852,0.00045935,0.011493,-0.00012106,0,0,0.068531,-0.028688,0,-0.00062951,0,0,0,0.037852,0.00045895,0.011493,-0.18549,0.016601,0.033277,1.2149e-06,0.75,0.75,0
0.033507,-0.0072047,0.03784,0.00038566,0.011468,-9.117e-05,0,0,0.068568,-0.028813,0,-0.00047408,0,0,0,0.03784,0.00038544,0.011468,-0.13947,0.016564,0.033326,1.2165e-06,0.76,0.75,0
0.034193,-0.0072464,0.037828,0.0003174,0.011444,-6.4255e-05,0,0,0.0686,-0.028928,0,-0.00033413,0,0,0,0.037828,0.00031729,0.011444,-0.098146,0.01653,0.033369,1.2177e-06,0.77,0.75,0
0.034879,-0.0072854,0.037816,0.00025422,0.011421,-4.0238e-05,0,0,0.068627,-0.029034,0,-0.00020923,0,0,0,0.037816,0.00025418,0.011421,-0.061377,0.016497,0.033409,1.2187e-06,0.78,0.75,0
0.035565,-0.007322,0.037804,0.0001958,0.0114,-1.9025e-05,0,0,0.06865,-0.029131,0,-9.8933e-05,0,0,0,0.037804,0.00019579,0.0114,-0.028985,0.016466,0.033444,1.2196e-06,0.79,0.75,0
0.036252,-0.0073561,0.037791,0.00014184,0.01138,-5.1517e-07,0,0,0.06867,-0.029219,0,-2.6789e-06,0,0,0,0.037791,0.00014184,0.01138,-0.000784,0.016438,0.033477,1.2203e-06,0.8,0.75,0
0.036938,-0.0073879,0.037779,9.2055e-05,0.011361,1.5407e-05,0,0,0.068687,-0.0293,0,8.0118e-05,0,0,0,0.037779,9.2048e-05,0.011361,0.023424,0.016411,0.033506,1.2209e-06,0.81,0.75,0
0.037625,-0.0074176,0.037768,4.6196e-05,0.011344,2.8863e-05,0,0,0.068701,-0.029375,0,0.00015009,0,0,0,0.037768,4.6174e-05,0.011344,0.043841,0.016386,0.033532,1.2213e-06,0.82,0.75,0
0.038312,-0.007445,0.037756,4.0204e-06,0.011328,3.998e-05,0,0,0.068713,-0.029442,0,0.0002079,0,0,0,0.037756,3.978e-06,0.011328,0.060677,0.016363,0.033555,1.2217e-06,0.83,0.75,0
0.039,-0.0074705,0.037745,-3.4693e-05,0.011313,4.8888e-05,0,0,0.068723,-0.029504,0,0.00025422,0,0,0,0.037745,-3.4756e-05,0.011313,0.074142,0.016341,0.033576,1.2219e-06,0.84,0.75,0
0.039687,-0.007494,0.037734,-7.0146e-05,0.011299,5.572e-05,0,0,0.068731,-0.02956,0,0.00028974,0,0,0,0.037734,-7.0228e-05,0.011299,0.084449,0.016321,0.033595,1.2221e-06,0.85,0.75,0
0.040374,-0.0075156,0.037724,-0.00010252,0.011286,6.0612e-05,0,0,0.068737,-0.029611,0,0.00031518,0,0,0,0.037724,-0.00010262,0.011286,0.09181,0.016303,0.033612,1.2223e-06,0.86,0.75,0
0.041062,-0.0075354,0.037714,-0.000132,0.011275,6.37e-05,0,0,0.068743,-0.029657,0,0.00033124,0,0,0,0.037714,-0.0001321,0.011275,0.096436,0.016286,0.033627,1.2223e-06,0.87,0.75,0
0.041749,-0.0075534,0.037705,-0.00015871,0.011264,6.5118e-05,0,0,0.068747,-0.029699,0,0.00033862,0,0,0,0.037705,-0.00015883,0.011264,0.098537,0.01627,0.03364,1.2224e-06,0.88,0.75,0
0.042437,-0.0075698,0.037697,-0.00018282,0.011254,6.5003e-05,0,0,0.06875,-0.029736,0,0.00033801,0,0,0,0.037697,-0.00018293,0.011254,0.098322,0.016256,0.033652,1.2224e-06,0.89,0.75,0
0.043124,-0.0075845,0.037689,-0.00020443,0.011245,6.3488e-05,0,0,0.068753,-0.029769,0,0.00033014,0,0,0,0.037689,-0.00020454,0.011245,0.095995,0.016243,0.033662,1.2224e-06,0.9,0.75,0
0.043812,-0.0075977,0.037682,-0.00022367,0.011237,6.0706e-05,0,0,0.068755,-0.029799,0,0.00031567,0,0,0,0.037682,-0.00022377,0.011237,0.09176,0.016232,0.033671,1.2223e-06,0.91,0.75,0
0.044499,-0.0076094,0.037675,-0.00024063,0.01123,5.679e-05,0,0,0.068757,-0.029825,0,0.00029531,0,0,0,0.037675,-0.00024071,0.01123,0.085817,0.016222,0.033679,1.2223e-06,0.92,0.75,0
0.045187,-0.0076196,0.03767,-0.00025539,0.011224,5.1869e-05,0,0,0.068758,-0.029847,0,0.00026972,0,0,0,0.03767,-0.00025546,0.011224,0.078362,0.016213,0.033686,1.2222e-06,0.93,0.75,0
0.045874,-0.0076283,0.037665,-0.00026804,0.011219,4.6074e-05,0,0,0.068759,-0.029866,0,0.00023958,0,0,0,0.037665,-0.00026809,0.011219,0.069592,0.016205,0.033691,1.2222e-06,0.94,0.75,0
0.046562,-0.0076357,0.03766,-0.00027863,0.011215,3.953e-05,0,0,0.068759,-0.029882,0,0.00020556,0,0,0,0.03766,-0.00027867,0.011215,0.059699,0.016199,0.033696,1.2221e-06,0.95,0.75,0
0.04725,-0.0076416,0.037657,-0.00028723,0.011211,3.2367e-05,0,0,0.06876,-0.029895,0,0.00016831,0,0,0,0.037657,-0.00028726,0.011211,0.048873,0.016194,0.0337,1.2221e-06,0.96,0.75,0
0.047937,-0.0076463,0.037654,-0.00029387,0.011208,2.4707e-05,0,0,0.06876,-0.029905,0,0.00012848,0,0,0,0.037654,-0.00029389,0.011208,0.037304,0.016189,0.033703,1.222e-06,0.97,0.75,0
0.048625,-0.0076496,0.037652,-0.00029859,0.011206,1.6677e-05,0,0,0.06876,-0.029912,0,8.672e-05,0,0,0,0.037652,-0.0002986,0.011206,0.025178,0.016187,0.033705,1.222e-06,0.98,0.75,0
0.049312,-0.0076515,0.037651,-0.00030141,0.011205,8.4001e-06,0,0,0.06876,-0.029917,0,4.3681e-05,0,0,0,0.037651,-0.00030142,0.011205,0.012681,0.016185,0.033706,1.222e-06,0.99,0.75,0
0.05,-0.0076522,0.037651,-0.00030235,0.011205,-1.26e-05,0,0,0.068761,-0.029918,0,-6.552e-05,0,0,0,0.037651,-0.00030236,0.011205,-0.019022,0.016184,0.033707,1.222e-06,1,0.75,0
0,0,0.034761,0.014898,0.014898,-0.0042952,0,0,0.025823,-1.3552e-19,0,-0.011168,0,0,0,0.03565,0.014009,0.014898,-11.694,0.021519,0.021211,4.8722e-07,0,0.76,0
0.00025823,-0.00011168,0.034709,0.014253,0.014689,-0.0042977,0,0,0.026026,-0.0005662,0,-0.011174,0,0,0,0.035575,0.013387,0.014689,-11.396,0.021217,0.021567,5.0888e-07,0.01,0.76,0
0.00052053,-0.00022615,0.034926,0.013705,0.01459,-0.0043409,0,0,0.026438,-0.0011493,0,-0.011286,0,0,0,0.03578,0.012852,0.01459,-11.125,0.021074,0.022111,5.4362e-07,0.02,0.76,0
0.00078698,-0.00034305,0.035145,0.013144,0.014487,-0.0043631,0,0,0.026856,-0.0017457,0,-0.011344,0,0,0,0.035978,0.01231,0.014487,-10.817,0.020925,0.022659,5.7894e-07,0.03,0.76,0
0.0010576,-0.00046197,0.035362,0.012571,0.01438,-0.0043639,0,0,0.027276,-0.0023511,0,-0.011346,0,0,0,0.036169,0.011764,0.01438,-10.477,0.020771,0.023207,6.1455e-07,0.04,0.76,0
0.0013325,-0.0005825,0.035576,0.011992,0.01427,-0.0043429,0,0,0.027697,-0.0029615,0,-0.011292,0,0,0,0.03635,0.011218,0.01427,-10.11,0.020613,0.023753,6.5016e-07,0.05,0.76,0
0.0016116,-0.00070422,0.035784,0.01141,0.014158,-0.0043006,0,0,0.028113,-0.0035723,0,-0.011181,0,0,0,0.03652,0.010674,0.014158,-9.7187,0.020451,0.024292,6.8547e-07,0.06,0.76,0
0.0018948,-0.00082673,0.035984,0.010829,0.014044,-0.0042376,0,0,0.028522,-0.0041796,0,-0.011018,0,0,0,0.036679,0.010134,0.014044,-9.3097,0.020286,0.024822,7.202e-07,0.07,0.76,0
0.002182,-0.00094962,0.036175,0.010252,0.013928,-0.0041552,0,0,0.028921,-0.0047793,0,-0.010804,0,0,0,0.036825,0.0096019,0.013928,-8.8873,0.020118,0.025338,7.5408e-07,0.08,0.76,0
0.0024732,-0.0010725,0.036355,0.0096819,0.013811,-0.004055,0,0,0.029307,-0.0053679,0,-0.010543,0,0,0,0.036958,0.0090791,0.013811,-8.456,0.019949,0.02584,7.8688e-07,0.09,0.76,0
0.0027682,-0.0011951,0.036522,0.0091226,0.013694,-0.0039388,0,0,0.029678,-0.0059422,0,-0.010241,0,0,0,0.037077,0.0085676,0.013694,-8.0202,0.01978,0.026324,8.184e-07,0.1,0.76,0
0.0030668,-0.001317,0.036677,0.0085761,0.013576,-0.0038089,0,0,0.030031,-0.0064996,0,-0.0099031,0,0,0,0.037184,0.008069,0.013576,-7.5839,0.019609,0.026789,8.4849e-07,0.11,0.76,0
0.0033688,-0.0014379,0.036817,0.0080444,0.013458,-0.0036674,0,0,0.030366,-0.007038,0,-0.0095352,0,0,0,0.037277,0.0075844,0.013458,-7.1508,0.01944,0.027235,8.7701e-07,0.12,0.76,0
0.0036741,-0.0015576,0.036942,0.0075291,0.013341,-0.0035167,0,0,0.030681,-0.0075559,0,-0.0091433,0,0,0,0.037357,0.0071144,0.013341,-6.7241,0.019271,0.02766,9.0389e-07,0.13,0.76,0
0.0039824,-0.0016759,0.037053,0.007031,0.013225,-0.0033591,0,0,0.030976,-0.0080523,0,-0.0087336,0,0,0,0.037424,0.0066598,0.013225,-6.3068,0.019103,0.028063,9.2908e-07,0.14,0.76,0
0.0042936,-0.0017926,0.037149,0.0065511,0.01311,-0.0031969,0,0,0.03125,-0.0085264,0,-0.0083119,0,0,0,0.037479,0.0062206,0.01311,-5.9015,0.018936,0.028446,9.5256e-07,0.15,0.76,0
0.0046074,-0.0019076,0.03723,0.0060894,0.012996,-0.0030323,0,0,0.031505,-0.0089784,0,-0.007884,0,0,0,0.037523,0.0057969,0.012996,-5.5102,0.018772,0.028809,9.7434e-07,0.16,0.76,0
0.0049237,-0.0020208,0.037298,0.0056459,0.012883,-0.0028674,0,0,0.031739,-0.0094084,0,-0.0074551,0,0,0,0.037556,0.0053883,0.012883,-5.1347,0.018609,0.029152,9.9446e-07,0.17,0.76,0
0.0052422,-0.0021322,0.037353,0.0052203,0.012772,-0.002704,0,0,0.031955,-0.0098171,0,-0.0070303,0,0,0,0.037579,0.0049943,0.012772,-4.7767,0.018448,0.029475,1.013e-06,0.18,0.76,0
0.0055628,-0.0022416,0.037395,0.0048118,0.012662,-0.0025438,0,0,0.032153,-0.010205,0,-0.0066139,0,0,0,0.037592,0.0046144,0.012662,-4.4373,0.01829,0.029781,1.03e-06,0.19,0.76,0
0.0058852,-0.0023491,0.037426,0.0044197,0.012554,-0.0023884,0,0,0.032334,-0.010574,0,-0.0062099,0,0,0,0.037598,0.0042478,0.012554,-4.1175,0.018133,0.03007,1.0456e-06,0.2,0.76,0
0.0062094,-0.0024548,0.037446,0.0040429,0.012447,-0.0022392,0,0,0.032499,-0.010925,0,-0.0058219,0,0,0,0.037595,0.0038935,0.012447,-3.8181,0.017978,0.030343,1.0598e-06,0.21,0.76,0
0.0065352,-0.0025586,0.037456,0.0036802,0.012341,-0.0020972,0,0,0.03265,-0.011259,0,-0.0054528,0,0,0,0.037586,0.0035505,0.012341,-3.5395,0.017826,0.030602,1.0728e-06,0.22,0.76,0
0.0068624,-0.0026608,0.037458,0.0033305,0.012237,-0.0019636,0,0,0.032788,-0.011578,0,-0.0051054,0,0,0,0.037571,0.0032179,0.012237,-3.2822,0.017675,0.030849,1.0846e-06,0.23,0.76,0
0.007191,-0.0027613,0.037452,0.0029922,0.012133,-0.0018391,0,0,0.032915,-0.011883,0,-0.0047817,0,0,0,0.03755,0.0028944,0.012133,-3.0463,0.017526,0.031084,1.0955e-06,0.24,0.76,0
0.0075207,-0.0028603,0.03744,0.0026641,0.012031,-0.0017245,0,0,0.033031,-0.012177,0,-0.0044836,0,0,0,0.037525,0.0025788,0.012031,-2.8319,0.017378,0.031309,1.1054e-06,0.25,0.76,0
0.0078516,-0.0029579,0.037422,0.0023446,0.01193,-0.0016202,0,0,0.033139,-0.012461,0,-0.0042125,0,0,0,0.037496,0.0022699,0.01193,-2.639,0.017232,0.031527,1.1146e-06,0.26,0.76,0
0.0081835,-0.0030543,0.037399,0.0020322,0.011829,-0.0015267,0,0,0.03324,-0.012736,0,-0.0039694,0,0,0,0.037464,0.0019664,0.011829,-2.4672,0.017087,0.031738,1.1232e-06,0.27,0.76,0
0.0085164,-0.0031496,0.037372,0.0017254,0.011729,-0.0014442,0,0,0.033335,-0.013005,0,-0.003755,0,0,0,0.03743,0.001667,0.011729,-2.3163,0.016942,0.031944,1.1312e-06,0.28,0.76,0
0.0088502,-0.0032439,0.037342,0.0014226,0.011629,-0.001373,0,0,0.033427,-0.013269,0,-0.0035697,0,0,0,0.037395,0.0013702,0.011629,-2.1858,0.016798,0.032147,1.1388e-06,0.29,0.76,0
0.0091849,-0.0033375,0.037311,0.0011224,0.01153,-0.0013129,0,0,0.033515,-0.01353,0,-0.0034136,0,0,0,0.037358,0.0010748,0.01153,-2.0751,0.016654,0.032349,1.1461e-06,0.3,0.76,0
0.0095205,-0.0034304,0.037278,0.00082302,0.01143,-0.001264,0,0,0.033602,-0.013789,0,-0.0032865,0,0,0,0.037322,0.00077925,0.01143,-1.9835,0.01651,0.032551,1.1532e-06,0.31,0.76,0
0.009857,-0.0035228,0.037245,0.0005231,0.011331,-0.001226,0,0,0.033689,-0.01405,0,-0.0031876,0,0,0,0.037286,0.00048221,0.011331,-1.9101,0.016366,0.032756,1.1602e-06,0.32,0.76,0
0.010194,-0.0036149,0.037213,0.00022106,0.01123,-0.0011985,0,0,0.033778,-0.014312,0,-0.0031162,0,0,0,0.037252,0.00018227,0.01123,-1.8538,0.016221,0.032965,1.1674e-06,0.33,0.76,0
0.010533,-0.0037068,0.037183,-8.4555e-05,0.01113,-0.0011811,0,0,0.033869,-0.014578,0,-0.0030709,0,0,0,0.03722,-0.00012195,0.01113,-1.8134,0.016076,0.03318,1.1746e-06,0.34,0.76,0
0.010872,-0.0037987,0.037155,-0.00039518,0.011028,-0.0011731,0,0,0.033965,-0.01485,0,-0.00305,0,0,0,0.037192,-0.00043179,0.011028,-1.7876,0.015929,0.033402,1.1822e-06,0.35,0.76,0
0.011212,-0.0038907,0.03713,-0.00071214,0.010925,-0.0011737,0,0,0.034066,-0.015129,0,-0.0030517,0,0,0,0.037167,-0.00074851,0.010925,-1.7748,0.015781,0.033634,1.1902e-06,0.36,0.76,0
0.011553,-0.0039828,0.03711,-0.0010367,0.010822,-0.0011821,0,0,0.034174,-0.015416,0,-0.0030734,0,0,0,0.037146,-0.0010733,0.010822,-1.7732,0.015632,0.033876,1.1986e-06,0.37,0.76,0
0.011895,-0.0040751,0.037094,-0.0013699,0.010717,-0.0011971,0,0,0.03429,-0.015713,0,-0.0031123,0,0,0,0.037131,-0.0014072,0.010717,-1.7808,0.01548,0.034131,1.2075e-06,0.38,0.76,0
0.012239,-0.0041678,0.037084,-0.0017129,0.010611,-0.0012175,0,0,0.034414,-0.016021,0,-0.0031654,0,0,0,0.037122,-0.001751,0.010611,-1.7956,0.015327,0.0344,1.2171e-06,0.39,0.76,0
0.012584,-0.0042609,0.037079,-0.0020662,0.010504,-0.001242,0,0,0.034548,-0.016341,0,-0.0032291,0,0,0,0.037118,-0.0021055,0.010504,-1.8154,0.015172,0.034683,1.2274e-06,0.4,0.76,0
0.01293,-0.0043544,0.037081,-0.0024304,0.010395,-0.0012691,0,0,0.034691,-0.016673,0,-0.0032995,0,0,0,0.037122,-0.0024711,0.010395,-1.8377,0.015015,0.034982,1.2383e-06,0.41,0.76,0
0.013277,-0.0044482,0.037089,-0.0028058,0.010285,-0.0012972,0,0,0.034845,-0.017018,0,-0.0033727,0,0,0,0.037131,-0.002848,0.010285,-1.8604,0.014856,0.035295,1.2499e-06,0.42,0.76,0
0.013627,-0.0045424,0.037104,-0.0031924,0.010174,-0.0013247,0,0,0.03501,-0.017376,0,-0.0034443,0,0,0,0.037148,-0.0032359,0.010174,-1.8809,0.014695,0.035625,1.2622e-06,0.43,0.76,0
0.013978,-0.0046368,0.037126,-0.0035898,0.010061,-0.00135,0,0,0.035184,-0.017746,0,-0.0035101,0,0,0,0.03717,-0.0036345,0.010061,-1.897,0.014532,0.035969,1.275e-06,0.44,0.76,0
0.01433,-0.0047314,0.037154,-0.0039973,0.0099469,-0.0013715,0,0,0.035369,-0.018128,0,-0.0035659,0,0,0,0.037199,-0.004043,0.0099469,-1.9067,0.014368,0.036327,1.2884e-06,0.45,0.76,0
0.014685,-0.004826,0.037187,-0.004414,0.009832,-0.0013875,0,0,0.035562,-0.01852,0,-0.0036075,0,0,0,0.037234,-0.0044602,0.009832,-1.9081,0.014202,0.036698,1.3023e-06,0.46,0.76,0
0.015042,-0.0049206,0.037226,-0.0048385,0.0097163,-0.0013967,0,0,0.035763,-0.018921,0,-0.0036314,0,0,0,0.037273,-0.0048848,0.0097163,-1.8996,0.014035,0.03708,1.3164e-06,0.47,0.76,0
0.0154,-0.0050149,0.037269,-0.0052693,0.0096001,-0.0013978,0,0,0.03597,-0.01933,0,-0.0036343,0,0,0,0.037315,-0.0053152,0.0096001,-1.88,0.013867,0.03747,1.3306e-06,0.48,0.76,0
0.015761,-0.0051087,0.037316,-0.0057046,0.0094835,-0.0013898,0,0,0.036183,-0.019745,0,-0.0036135,0,0,0,0.037361,-0.0057494,0.0094835,-1.8484,0.013698,0.037866,1.3449e-06,0.49,0.76,0
0.016124,-0.0052018,0.037345,-0.00061243,0.01102,-0.0013728,0,0,0.0503,-0.020162,0,-0.0053323,0,0,0,0.037395,-0.00066289,0.01102,-2.1084,0.015917,0.033837,1.1782e-06,0.5,0.76,0
0.016767,-0.0053293,0.037415,0.0046554,0.012621,-0.0013489,0,0,0.064464,-0.020711,0,-0.0070145,0,0,0,0.03747,0.0046,0.012621,-2.354,0.018231,0.029684,1.02e-06,0.51,0.76,0
0.017413,-0.0054548,0.037465,0.0043786,0.012553,-0.0013192,0,0,0.064771,-0.021254,0,-0.0068601,0,0,0,0.037517,0.0043261,0.012553,-2.2797,0.018132,0.029938,1.0353e-06,0.52,0.76,0
0.018062,-0.0055782,0.037513,0.0041063,0.012486,-0.0012837,0,0,0.065072,-0.021787,0,-0.0066751,0,0,0,0.037563,0.004057,0.012486,-2.1973,0.018035,0.030187,1.0503e-06,0.53,0.76,0
0.018715,-0.0056991,0.03756,0.0038397,0.01242,-0.0012425,0,0,0.065364,-0.022308,0,-0.0064609,0,0,0,0.037606,0.003794,0.01242,-2.1073,0.01794,0.03043,1.0647e-06,0.54,0.76,0
0.01937,-0.0058173,0.037604,0.0035801,0.012355,-0.001196,0,0,0.065647,-0.022815,0,-0.0062194,0,0,0,0.037646,0.0035381,0.012355,-2.0108,0.017847,0.030665,1.0786e-06,0.55,0.76,0
0.020028,-0.0059325,0.037645,0.0033285,0.012292,-0.0011449,0,0,0.065918,-0.023305,0,-0.0059533,0,0,0,0.037683,0.0032904,0.012292,-1.9087,0.017755,0.030892,1.0919e-06,0.56,0.76,0
0.020688,-0.0060447,0.037683,0.0030858,0.012231,-0.0010896,0,0,0.066175,-0.023776,0,-0.0056659,0,0,0,0.037717,0.0030516,0.012231,-1.8021,0.017666,0.031109,1.1044e-06,0.57,0.76,0
0.021351,-0.0061536,0.037716,0.0028529,0.012171,-0.0010309,0,0,0.066419,-0.024227,0,-0.0053609,0,0,0,0.037747,0.0028224,0.012171,-1.6923,0.01758,0.031315,1.1162e-06,0.58,0.76,0
0.022016,-0.006259,0.037746,0.0026301,0.012113,-0.00096961,0,0,0.066646,-0.024655,0,-0.005042,0,0,0,0.037773,0.0026033,0.012113,-1.5804,0.017496,0.03151,1.1272e-06,0.59,0.76,0
0.022684,-0.0063608,0.037771,0.002418,0.012057,-0.00090639,0,0,0.066858,-0.025061,0,-0.0047132,0,0,0,0.037795,0.0023948,0.012057,-1.4676,0.017415,0.031693,1.1373e-06,0.6,0.76,0
0.023354,-0.006459,0.037793,0.0022168,0.012003,-0.00084201,0,0,0.067054,-0.025444,0,-0.0043784,0,0,0,0.037813,0.0021969,0.012003,-1.3551,0.017337,0.031865,1.1467e-06,0.61,0.76,0
0.024025,-0.0065534,0.03781,0.0020266,0.011951,-0.00077719,0,0,0.067233,-0.025803,0,-0.0040414,0,0,0,0.037827,0.0020097,0.011951,-1.2436,0.017263,0.032025,1.1552e-06,0.62,0.76,0
0.024698,-0.0066441,0.037823,0.0018473,0.011901,-0.00071261,0,0,0.067397,-0.02614,0,-0.0037056,0,0,0,0.037837,0.0018332,0.011901,-1.1343,0.017191,0.032174,1.1629e-06,0.63,0.76,0
0.025373,-0.0067309,0.037832,0.0016788,0.011853,-0.00064886,0,0,0.067546,-0.026454,0,-0.0033741,0,0,0,0.037844,0.0016671,0.011853,-1.0279,0.017122,0.032311,1.1698e-06,0.64,0.76,0
0.026049,-0.006814,0.037838,0.0015208,0.011808,-0.00058651,0,0,0.06768,-0.026746,0,-0.0030498,0,0,0,0.037848,0.0015113,0.011808,-0.92497,0.017056,0.032438,1.176e-06,0.65,0.76,0
0.026727,-0.0068932,0.037841,0.0013729,0.011764,-0.000526,0,0,0.0678,-0.027017,0,-0.0027352,0,0,0,0.037849,0.0013653,0.011764,-0.82618,0.016993,0.032554,1.1816e-06,0.66,0.76,0
0.027405,-0.0069687,0.037841,0.0012349,0.011723,-0.00046774,0,0,0.067907,-0.027269,0,-0.0024323,0,0,0,0.037847,0.0012289,0.011723,-0.73196,0.016933,0.032661,1.1865e-06,0.67,0.76,0
0.028085,-0.0070405,0.037838,0.0011062,0.011683,-0.00041206,0,0,0.068003,-0.027501,0,-0.0021427,0,0,0,0.037843,0.0011015,0.011683,-0.64264,0.016876,0.032758,1.1908e-06,0.68,0.76,0
0.028765,-0.0071087,0.037833,0.00098636,0.011646,-0.00035922,0,0,0.068087,-0.027715,0,-0.0018679,0,0,0,0.037837,0.00098286,0.011646,-0.5585,0.016822,0.032847,1.1945e-06,0.69,0.76,0
0.029447,-0.0071734,0.037826,0.00087496,0.01161,-0.0003094,0,0,0.068161,-0.027912,0,-0.0016088,0,0,0,0.037829,0.00087237,0.01161,-0.4797,0.016771,0.032928,1.1978e-06,0.7,0.76,0
0.030128,-0.0072347,0.037817,0.0007715,0.011577,-0.00026274,0,0,0.068226,-0.028093,0,-0.0013662,0,0,0,0.037819,0.00076964,0.011577,-0.40633,0.016722,0.033001,1.2006e-06,0.71,0.76,0
0.030811,-0.0072926,0.037807,0.0006755,0.011545,-0.00021934,0,0,0.068282,-0.02826,0,-0.0011405,0,0,0,0.037809,0.00067421,0.011545,-0.33843,0.016676,0.033067,1.2031e-06,0.72,0.76,0
0.031494,-0.0073472,0.037796,0.0005865,0.011515,-0.00017923,0,0,0.068332,-0.028414,0,-0.00093199,0,0,0,0.037797,0.00058564,0.011515,-0.27597,0.016633,0.033128,1.2051e-06,0.73,0.76,0
0.032178,-0.0073987,0.037784,0.00050407,0.011486,-0.00014242,0,0,0.068374,-0.028554,0,-0.0007406,0,0,0,0.037785,0.00050352,0.011486,-0.21889,0.016591,0.033182,1.2069e-06,0.74,0.76,0
0.032862,-0.0074472,0.037771,0.00042775,0.01146,-0.00010889,0,0,0.06841,-0.028683,0,-0.00056624,0,0,0,0.037772,0.00042744,0.01146,-0.16707,0.016553,0.033231,1.2083e-06,0.75,0.76,0
0.033546,-0.0074928,0.037758,0.00035717,0.011435,-7.8579e-05,0,0,0.068441,-0.028801,0,-0.00040861,0,0,0,0.037758,0.000357,0.011435,-0.12038,0.016517,0.033275,1.2095e-06,0.76,0.76,0
0.03423,-0.0075356,0.037745,0.00029193,0.011411,-5.1409e-05,0,0,0.068468,-0.02891,0,-0.00026733,0,0,0,0.037745,0.00029186,0.011411,-0.078646,0.016483,0.033315,1.2105e-06,0.77,0.76,0
0.034915,-0.0075756,0.037731,0.00023167,0.011389,-2.7287e-05,0,0,0.06849,-0.029009,0,-0.00014189,0,0,0,0.037731,0.00023165,0.011389,-0.041691,0.016451,0.033351,1.2113e-06,0.78,0.76,0
0.0356,-0.0076131,0.037718,0.00017607,0.011368,-6.1026e-06,0,0,0.068509,-0.029099,0,-3.1734e-05,0,0,0,0.037718,0.00017606,0.011368,-0.0093138,0.016421,0.033384,1.212e-06,0.79,0.76,0
0.036285,-0.0076481,0.037704,0.0001248,0.011349,1.2263e-05,0,0,0.068524,-0.029182,0,6.3769e-05,0,0,0,0.037704,0.0001248,0.011349,0.018697,0.016393,0.033413,1.2125e-06,0.8,0.76,0
0.036971,-0.0076808,0.037691,7.7596e-05,0.011331,2.794e-05,0,0,0.068537,-0.029258,0,0.00014529,0,0,0,0.037691,7.7575e-05,0.011331,0.04256,0.016366,0.033439,1.2128e-06,0.81,0.76,0
0.037656,-0.0077111,0.037678,3.418e-05,0.011314,4.1062e-05,0,0,0.068548,-0.029327,0,0.00021352,0,0,0,0.037678,3.4135e-05,0.011314,0.062497,0.016342,0.033462,1.2131e-06,0.82,0.76,0
0.038342,-0.0077392,0.037666,-5.6887e-06,0.011298,5.1768e-05,0,0,0.068556,-0.02939,0,0.0002692,0,0,0,0.037666,-5.7599e-06,0.011298,0.078736,0.016319,0.033483,1.2133e-06,0.83,0.76,0
0.039027,-0.0077653,0.037654,-4.2232e-05,0.011284,6.0201e-05,0,0,0.068563,-0.029447,0,0.00031305,0,0,0,0.037654,-4.2328e-05,0.011284,0.091502,0.016298,0.033501,1.2134e-06,0.84,0.76,0
0.039713,-0.0077893,0.037643,-7.5655e-05,0.01127,6.6504e-05,0,0,0.068569,-0.029499,0,0.00034582,0,0,0,0.037643,-7.5772e-05,0.01127,0.10102,0.016279,0.033518,1.2135e-06,0.85,0.76,0
0.040399,-0.0078114,0.037632,-0.00010614,0.011258,7.0819e-05,0,0,0.068573,-0.029546,0,0.00036826,0,0,0,0.037632,-0.00010627,0.011258,0.10752,0.016261,0.033533,1.2135e-06,0.86,0.76,0
0.041084,-0.0078316,0.037622,-0.00013386,0.011246,7.3291e-05,0,0,0.068576,-0.029589,0,0.00038111,0,0,0,0.037622,-0.000134,0.011246,0.11122,0.016245,0.033546,1.2135e-06,0.87,0.76,0
0.04177,-0.0078501,0.037612,-0.00015897,0.011236,7.406e-05,0,0,0.068579,-0.029627,0,0.00038511,0,0,0,0.037613,-0.00015911,0.011236,0.11234,0.01623,0.033558,1.2134e-06,0.88,0.76,0
0.042456,-0.0078668,0.037604,-0.00018159,0.011227,7.3269e-05,0,0,0.06858,-0.029661,0,0.000381,0,0,0,0.037604,-0.00018174,0.011227,0.1111,0.016216,0.033568,1.2133e-06,0.89,0.76,0
0.043142,-0.0078819,0.037596,-0.00020187,0.011218,7.1055e-05,0,0,0.068581,-0.029692,0,0.00036949,0,0,0,0.037596,-0.000202,0.011218,0.10771,0.016204,0.033577,1.2132e-06,0.9,0.76,0
0.043828,-0.0078953,0.037588,-0.0002199,0.01121,6.7557e-05,0,0,0.068582,-0.029719,0,0.0003513,0,0,0,0.037588,-0.00022002,0.01121,0.10238,0.016193,0.033585,1.2131e-06,0.91,0.76,0
0.044513,-0.0079072,0.037582,-0.00023578,0.011204,6.2909e-05,0,0,0.068583,-0.029743,0,0.00032713,0,0,0,0.037582,-0.00023589,0.011204,0.095311,0.016183,0.033592,1.213e-06,0.92,0.76,0
0.045199,-0.0079176,0.037576,-0.0002496,0.011198,5.7245e-05,0,0,0.068583,-0.029763,0,0.00029767,0,0,0,0.037576,-0.00024969,0.011198,0.086711,0.016175,0.033598,1.2129e-06,0.93,0.76,0
0.045885,-0.0079266,0.037571,-0.00026144,0.011193,5.0696e-05,0,0,0.068583,-0.029781,0,0.00026362,0,0,0,0.037571,-0.00026151,0.011193,0.076777,0.016167,0.033603,1.2128e-06,0.94,0.76,0
0.046571,-0.0079341,0.037567,-0.00027135,0.011189,4.3392e-05,0,0,0.068583,-0.029796,0,0.00022564,0,0,0,0.037567,-0.0002714,0.011189,0.065707,0.016161,0.033607,1.2128e-06,0.95,0.76,0
0.047257,-0.0079402,0.037563,-0.00027938,0.011185,3.5462e-05,0,0,0.068583,-0.029808,0,0.0001844,0,0,0,0.037563,-0.00027942,0.011185,0.053692,0.016156,0.03361,1.2127e-06,0.96,0.76,0
0.047942,-0.0079449,0.03756,-0.00028559,0.011182,2.7032e-05,0,0,0.068582,-0.029817,0,0.00014057,0,0,0,0.03756,-0.00028561,0.011182,0.040925,0.016152,0.033613,1.2126e-06,0.97,0.76,0
0.048628,-0.0079483,0.037558,-0.00029,0.01118,1.8229e-05,0,0,0.068582,-0.029823,0,9.4789e-05,0,0,0,0.037558,-0.00029001,0.01118,0.027595,0.01615,0.033614,1.2126e-06,0.98,0.76,0
0.049314,-0.0079503,0.037557,-0.00029264,0.011179,9.1764e-06,0,0,0.068582,-0.029827,0,4.7717e-05,0,0,0,0.037557,-0.00029264,0.011179,0.013891,0.016148,0.033615,1.2126e-06,0.99,0.76,0
0.05,-0.0079509,0.037557,-0.00029352,0.011179,-1.286e-05,0,0,0.068582,-0.029829,0,-6.687e-05,0,0,0,0.037557,-0.00029352,0.011179,-0.019466,0.016147,0.033616,1.2126e-06,1,0.76,0
0,0,0.034947,0.014977,0.014977,-0.004517,0,0,0.025961,2.1684e-19,0,-0.011744,0,0,0,0.035921,0.014003,0.014977,-12.171,0.021634,0.021448,5.0319e-07,0,0.77,0
0.00025961,-0.00011744,0.034893,0.014308,0.01476,-0.0045192,0,0,0.026172,-0.00058783,0,-0.01175,0,0,0,0.035841,0.01336,0.01476,-11.853,0.02132,0.021815,5.258e-07,0.01,0.77,0
0.00052345,-0.00023786,0.035119,0.013739,0.014657,-0.0045643,0,0,0.0266,-0.0011939,0,-0.011867,0,0,0,0.036052,0.012805,0.014657,-11.561,0.021172,0.022379,5.6233e-07,0.02,0.77,0
0.0007916,-0.00036083,0.035345,0.013154,0.01455,-0.0045863,0,0,0.027034,-0.001814,0,-0.011924,0,0,0,0.036256,0.012244,0.01455,-11.229,0.021017,0.022946,5.9941e-07,0.03,0.77,0
0.0010641,-0.00048592,0.03557,0.012559,0.014439,-0.0045844,0,0,0.027471,-0.0024434,0,-0.011919,0,0,0,0.03645,0.011679,0.014439,-10.863,0.020856,0.023512,6.367e-07,0.04,0.77,0
0.001341,-0.00061266,0.035791,0.011957,0.014324,-0.0045585,0,0,0.027906,-0.0030774,0,-0.011852,0,0,0,0.036633,0.011115,0.014324,-10.466,0.020691,0.024074,6.7386e-07,0.05,0.77,0
0.0016222,-0.0007406,0.036005,0.011353,0.014207,-0.0045089,0,0,0.028337,-0.0037111,0,-0.011723,0,0,0,0.036804,0.010554,0.014207,-10.046,0.020522,0.024627,7.1055e-07,0.06,0.77,0
0.0019077,-0.00086929,0.03621,0.01075,0.014088,-0.0044366,0,0,0.028759,-0.0043396,0,-0.011535,0,0,0,0.036961,0.009999,0.014088,-9.607,0.020349,0.025168,7.4646e-07,0.07,0.77,0
0.0021974,-0.00099827,0.036405,0.010153,0.013968,-0.0043431,0,0,0.029169,-0.0049586,0,-0.011292,0,0,0,0.037105,0.0094533,0.013968,-9.1541,0.020175,0.025694,7.8129e-07,0.08,0.77,0
0.0024911,-0.0011271,0.036587,0.0095658,0.013846,-0.0042302,0,0,0.029564,-0.0055641,0,-0.010998,0,0,0,0.037234,0.0089191,0.013846,-8.6926,0.02,0.026201,8.1481e-07,0.09,0.77,0
0.0027887,-0.0012555,0.036755,0.008991,0.013724,-0.0041001,0,0,0.029941,-0.0061528,0,-0.01066,0,0,0,0.037348,0.0083982,0.013724,-8.2272,0.019823,0.026689,8.4678e-07,0.1,0.77,0
0.00309,-0.001383,0.036909,0.0084315,0.013602,-0.0039553,0,0,0.030298,-0.0067217,0,-0.010284,0,0,0,0.037448,0.0078923,0.013602,-7.7624,0.019647,0.027155,8.7707e-07,0.11,0.77,0
0.0033947,-0.0015094,0.037046,0.0078892,0.013481,-0.0037985,0,0,0.030635,-0.0072688,0,-0.0098761,0,0,0,0.037533,0.0074025,0.013481,-7.302,0.019472,0.027598,9.0555e-07,0.12,0.77,0
0.0037027,-0.0016343,0.037167,0.0073658,0.01336,-0.0036322,0,0,0.03095,-0.0077924,0,-0.0094438,0,0,0,0.037604,0.0069295,0.01336,-6.8496,0.019298,0.028018,9.3215e-07,0.13,0.77,0
0.0040137,-0.0017576,0.037273,0.0068623,0.013241,-0.0034591,0,0,0.031242,-0.0082917,0,-0.0089937,0,0,0,0.037661,0.0064738,0.013241,-6.4082,0.019125,0.028415,9.5684e-07,0.14,0.77,0
0.0043275,-0.0018791,0.037362,0.0063791,0.013122,-0.0032818,0,0,0.031512,-0.0087663,0,-0.0085326,0,0,0,0.037706,0.0060353,0.013122,-5.9804,0.018955,0.028789,9.7964e-07,0.15,0.77,0
0.0046439,-0.0019986,0.037436,0.0059165,0.013006,-0.0031025,0,0,0.03176,-0.0092162,0,-0.0080666,0,0,0,0.037739,0.005614,0.013006,-5.5685,0.018786,0.029141,1.0006e-06,0.16,0.77,0
0.0049627,-0.002116,0.037496,0.0054741,0.012891,-0.0029236,0,0,0.031986,-0.0096419,0,-0.0076014,0,0,0,0.037761,0.0052093,0.012891,-5.1742,0.01862,0.029471,1.0197e-06,0.17,0.77,0
0.0052836,-0.0022314,0.037541,0.0050514,0.012778,-0.0027471,0,0,0.032192,-0.010044,0,-0.0071424,0,0,0,0.037772,0.0048208,0.012778,-4.799,0.018457,0.029781,1.0371e-06,0.18,0.77,0
0.0056065,-0.0023447,0.037574,0.0046475,0.012666,-0.0025747,0,0,0.03238,-0.010424,0,-0.0066942,0,0,0,0.037774,0.0044474,0.012666,-4.4443,0.018296,0.030072,1.0529e-06,0.19,0.77,0
0.0059312,-0.0024559,0.037595,0.0042615,0.012557,-0.0024081,0,0,0.032549,-0.010784,0,-0.0062609,0,0,0,0.037768,0.0040884,0.012557,-4.1107,0.018138,0.030344,1.0672e-06,0.2,0.77,0
0.0062575,-0.002565,0.037604,0.003892,0.012449,-0.0022486,0,0,0.032702,-0.011124,0,-0.0058463,0,0,0,0.037754,0.0037427,0.012449,-3.7991,0.017982,0.030601,1.08e-06,0.21,0.77,0
0.0065853,-0.0026721,0.037604,0.0035378,0.012343,-0.0020974,0,0,0.03284,-0.011446,0,-0.0054533,0,0,0,0.037733,0.0034091,0.012343,-3.5099,0.017828,0.030843,1.0916e-06,0.22,0.77,0
0.0069143,-0.0027774,0.037595,0.0031973,0.012238,-0.0019556,0,0,0.032965,-0.011753,0,-0.0050846,0,0,0,0.037706,0.0030865,0.012238,-3.2435,0.017677,0.031072,1.1021e-06,0.23,0.77,0
0.0072445,-0.0028809,0.037579,0.0028691,0.012134,-0.0018239,0,0,0.033078,-0.012045,0,-0.0047422,0,0,0,0.037674,0.0027736,0.012134,-2.9998,0.017527,0.031289,1.1115e-06,0.24,0.77,0
0.0075759,-0.0029828,0.037555,0.0025517,0.012032,-0.0017031,0,0,0.03318,-0.012325,0,-0.0044281,0,0,0,0.037638,0.002469,0.012032,-2.779,0.01738,0.031496,1.12e-06,0.25,0.77,0
0.0079082,-0.0030832,0.037526,0.0022433,0.011931,-0.0015937,0,0,0.033274,-0.012594,0,-0.0041435,0,0,0,0.037598,0.0021714,0.011931,-2.5809,0.017233,0.031695,1.1278e-06,0.26,0.77,0
0.0082413,-0.0031822,0.037493,0.0019423,0.011831,-0.001496,0,0,0.033361,-0.012855,0,-0.0038895,0,0,0,0.037556,0.0018795,0.011831,-2.4053,0.017089,0.031887,1.1349e-06,0.27,0.77,0
0.0085754,-0.0032801,0.037456,0.0016472,0.011731,-0.0014103,0,0,0.033442,-0.013109,0,-0.0036667,0,0,0,0.037511,0.0015917,0.011731,-2.2518,0.016945,0.032075,1.1415e-06,0.28,0.77,0
0.0089102,-0.003377,0.037416,0.0013561,0.011632,-0.0013367,0,0,0.033519,-0.013358,0,-0.0034754,0,0,0,0.037465,0.0013066,0.011632,-2.12,0.016801,0.03226,1.1476e-06,0.29,0.77,0
0.0092458,-0.0034731,0.037374,0.0010675,0.011532,-0.0012753,0,0,0.033594,-0.013604,0,-0.0033157,0,0,0,0.037419,0.0010228,0.011532,-2.0092,0.016658,0.032444,1.1536e-06,0.3,0.77,0
0.0095821,-0.0035686,0.037331,0.00077972,0.011433,-0.0012259,0,0,0.033668,-0.01385,0,-0.0031873,0,0,0,0.037373,0.00073865,0.011433,-1.9187,0.016515,0.032629,1.1594e-06,0.31,0.77,0
0.0099191,-0.0036635,0.037289,0.00049101,0.011334,-0.0011883,0,0,0.033742,-0.014096,0,-0.0030895,0,0,0,0.037327,0.00045268,0.011334,-1.8476,0.016371,0.032816,1.1651e-06,0.32,0.77,0
0.010257,-0.0037582,0.037248,0.00019978,0.011234,-0.0011621,0,0,0.033817,-0.014345,0,-0.0030215,0,0,0,0.037284,0.00016336,0.011234,-1.7949,0.016227,0.033008,1.171e-06,0.33,0.77,0
0.010596,-0.0038527,0.037208,-9.5609e-05,0.011134,-0.0011469,0,0,0.033897,-0.014598,0,-0.002982,0,0,0,0.037243,-0.00013084,0.011134,-1.7594,0.016082,0.033207,1.1771e-06,0.34,0.77,0
0.010935,-0.0039473,0.037171,-0.00039671,0.011032,-0.001142,0,0,0.03398,-0.014858,0,-0.0029691,0,0,0,0.037206,-0.00043139,0.011032,-1.7395,0.015936,0.033414,1.1835e-06,0.35,0.77,0
0.011275,-0.0040419,0.037138,-0.00070502,0.01093,-0.0011465,0,0,0.03407,-0.015125,0,-0.0029808,0,0,0,0.037173,-0.00073972,0.01093,-1.7337,0.015788,0.033632,1.1904e-06,0.36,0.77,0
0.011616,-0.0041369,0.037109,-0.0010219,0.010826,-0.0011595,0,0,0.034168,-0.015403,0,-0.0030146,0,0,0,0.037144,-0.0010572,0.010826,-1.7401,0.015638,0.033862,1.1979e-06,0.37,0.77,0
0.011958,-0.0042322,0.037086,-0.0013487,0.010721,-0.0011799,0,0,0.034274,-0.015691,0,-0.0030676,0,0,0,0.037122,-0.0013849,0.010721,-1.7566,0.015486,0.034105,1.206e-06,0.38,0.77,0
0.012302,-0.0043279,0.037068,-0.0016865,0.010615,-0.0012063,0,0,0.03439,-0.015991,0,-0.0031363,0,0,0,0.037106,-0.001724,0.010615,-1.7811,0.015332,0.034364,1.2148e-06,0.39,0.77,0
0.012646,-0.0044242,0.037057,-0.0020362,0.010506,-0.0012373,0,0,0.034516,-0.016305,0,-0.003217,0,0,0,0.037096,-0.0020753,0.010506,-1.811,0.015176,0.034639,1.2243e-06,0.4,0.77,0
0.012992,-0.0045209,0.037054,-0.0023984,0.010396,-0.0012713,0,0,0.034654,-0.016633,0,-0.0033054,0,0,0,0.037094,-0.0024393,0.010396,-1.8438,0.015017,0.034932,1.2347e-06,0.41,0.77,0
0.013339,-0.0046182,0.037057,-0.0027735,0.010285,-0.0013066,0,0,0.034803,-0.016976,0,-0.0033971,0,0,0,0.0371,-0.0028164,0.010285,-1.8768,0.014856,0.035242,1.2459e-06,0.42,0.77,0
0.013688,-0.0047159,0.037068,-0.0031615,0.010172,-0.0013413,0,0,0.034965,-0.017334,0,-0.0034873,0,0,0,0.037112,-0.0032062,0.010172,-1.9075,0.014693,0.035569,1.2579e-06,0.43,0.77,0
0.014039,-0.0048141,0.037086,-0.0035622,0.010057,-0.0013736,0,0,0.035138,-0.017705,0,-0.0035713,0,0,0,0.037132,-0.0036085,0.010057,-1.9332,0.014527,0.035914,1.2706e-06,0.44,0.77,0
0.014391,-0.0049125,0.037112,-0.0039746,0.0099411,-0.0014016,0,0,0.035322,-0.01809,0,-0.0036442,0,0,0,0.037159,-0.0040224,0.0099411,-1.9515,0.014359,0.036275,1.2839e-06,0.45,0.77,0
0.014745,-0.0050111,0.037144,-0.0043978,0.0098237,-0.0014236,0,0,0.035516,-0.018488,0,-0.0037015,0,0,0,0.037192,-0.0044466,0.0098237,-1.9605,0.01419,0.03665,1.2977e-06,0.46,0.77,0
0.015101,-0.0051097,0.037182,-0.0048303,0.0097054,-0.001438,0,0,0.035719,-0.018896,0,-0.0037389,0,0,0,0.037231,-0.0048795,0.0097054,-1.9582,0.014019,0.037038,1.312e-06,0.47,0.77,0
0.015459,-0.0052081,0.037225,-0.0052704,0.0095862,-0.0014434,0,0,0.03593,-0.019314,0,-0.0037529,0,0,0,0.037274,-0.0053194,0.0095862,-1.9432,0.013847,0.037436,1.3264e-06,0.48,0.77,0
0.01582,-0.0053061,0.037271,-0.0057159,0.0094667,-0.0014386,0,0,0.036146,-0.019737,0,-0.0037405,0,0,0,0.037319,-0.005764,0.0094667,-1.9146,0.013674,0.037841,1.3408e-06,0.49,0.77,0
0.016182,-0.0054034,0.037299,-0.00063405,0.011,-0.0014235,0,0,0.050252,-0.020165,0,-0.0055301,0,0,0,0.037354,-0.00068834,0.011,-2.1875,0.015888,0.033821,1.175e-06,0.5,0.77,0
0.016825,-0.0055365,0.037371,0.0046284,0.0126,-0.0013998,0,0,0.064406,-0.020726,0,-0.0072789,0,0,0,0.037431,0.0045687,0.0126,-2.4435,0.0182,0.029673,1.0178e-06,0.51,0.77,0
0.01747,-0.0056675,0.037422,0.0043452,0.01253,-0.0013692,0,0,0.064718,-0.021281,0,-0.0071196,0,0,0,0.037478,0.0042886,0.01253,-2.3663,0.018099,0.029932,1.0334e-06,0.52,0.77,0
0.018119,-0.0057963,0.037471,0.0040667,0.012461,-0.0013319,0,0,0.065025,-0.021826,0,-0.0069258,0,0,0,0.037524,0.0040137,0.012461,-2.2797,0.018,0.030186,1.0486e-06,0.53,0.77,0
0.018771,-0.0059224,0.037518,0.0037943,0.012394,-0.0012883,0,0,0.065323,-0.022358,0,-0.006699,0,0,0,0.037567,0.0037451,0.012394,-2.1845,0.017902,0.030433,1.0632e-06,0.54,0.77,0
0.019426,-0.0060457,0.037562,0.0035293,0.012327,-0.0012388,0,0,0.065609,-0.022875,0,-0.0064418,0,0,0,0.037607,0.0034843,0.012327,-2.0819,0.017806,0.030672,1.0773e-06,0.55,0.77,0
0.020083,-0.0061659,0.037602,0.0032731,0.012263,-0.0011841,0,0,0.065883,-0.023373,0,-0.0061573,0,0,0,0.037643,0.0032323,0.012263,-1.9731,0.017713,0.030902,1.0906e-06,0.56,0.77,0
0.020743,-0.0062828,0.037639,0.0030264,0.0122,-0.0011249,0,0,0.066143,-0.02385,0,-0.0058495,0,0,0,0.037676,0.0029899,0.0122,-1.8595,0.017622,0.03112,1.1031e-06,0.57,0.77,0
0.021406,-0.0063962,0.037672,0.0027903,0.012139,-0.001062,0,0,0.066386,-0.024306,0,-0.0055226,0,0,0,0.037704,0.002758,0.012139,-1.7423,0.017534,0.031328,1.1148e-06,0.58,0.77,0
0.022071,-0.0065059,0.0377,0.0025652,0.01208,-0.00099636,0,0,0.066613,-0.024737,0,-0.0051811,0,0,0,0.037728,0.002537,0.01208,-1.6231,0.017448,0.031523,1.1257e-06,0.59,0.77,0
0.022738,-0.0066118,0.037724,0.0023516,0.012023,-0.00092873,0,0,0.066823,-0.025145,0,-0.0048294,0,0,0,0.037748,0.0023273,0.012023,-1.503,0.017366,0.031705,1.1356e-06,0.6,0.77,0
0.023408,-0.0067139,0.037743,0.0021497,0.011968,-0.00086,0,0,0.067015,-0.025527,0,-0.004472,0,0,0,0.037764,0.002129,0.011968,-1.3833,0.017287,0.031875,1.1447e-06,0.61,0.77,0
0.024079,-0.0068119,0.037758,0.0019595,0.011915,-0.00079099,0,0,0.067191,-0.025885,0,-0.0041131,0,0,0,0.037775,0.0019421,0.011915,-1.2652,0.017211,0.032033,1.1529e-06,0.62,0.77,0
0.024751,-0.0069059,0.037768,0.0017809,0.011865,-0.00072242,0,0,0.067349,-0.026218,0,-0.0037566,0,0,0,0.037783,0.0017664,0.011865,-1.1496,0.017138,0.032178,1.1603e-06,0.63,0.77,0
0.025426,-0.0069958,0.037775,0.0016137,0.011817,-0.00065496,0,0,0.067492,-0.026528,0,-0.0034058,0,0,0,0.037787,0.0016019,0.011817,-1.0373,0.017069,0.032312,1.1669e-06,0.64,0.77,0
0.026101,-0.0070818,0.037778,0.0014575,0.011771,-0.00058919,0,0,0.067619,-0.026814,0,-0.0030638,0,0,0,0.037788,0.001448,0.011771,-0.92912,0.017002,0.032435,1.1727e-06,0.65,0.77,0
0.026778,-0.0071637,0.037778,0.001312,0.011727,-0.00052561,0,0,0.067733,-0.027079,0,-0.0027332,0,0,0,0.037786,0.0013044,0.011727,-0.82561,0.016939,0.032547,1.1778e-06,0.66,0.77,0
0.027456,-0.0072417,0.037775,0.0011765,0.011685,-0.00046461,0,0,0.067833,-0.027323,0,-0.002416,0,0,0,0.037781,0.0011707,0.011685,-0.72721,0.016879,0.032648,1.1823e-06,0.67,0.77,0
0.028135,-0.0073158,0.037769,0.0010508,0.011646,-0.00040654,0,0,0.067921,-0.027548,0,-0.002114,0,0,0,0.037774,0.0010463,0.011646,-0.63425,0.016822,0.032741,1.1862e-06,0.68,0.77,0
0.028814,-0.0073861,0.037762,0.00093406,0.011609,-0.00035162,0,0,0.067998,-0.027754,0,-0.0018284,0,0,0,0.037765,0.0009307,0.011609,-0.54699,0.016768,0.032825,1.1896e-06,0.69,0.77,0
0.029494,-0.0074527,0.037752,0.00082594,0.011573,-0.00030006,0,0,0.068064,-0.027943,0,-0.0015603,0,0,0,0.037754,0.0008235,0.011573,-0.46555,0.016717,0.032901,1.1925e-06,0.7,0.77,0
0.030176,-0.0075157,0.037741,0.00072586,0.01154,-0.00025197,0,0,0.068122,-0.028117,0,-0.0013102,0,0,0,0.037742,0.00072414,0.01154,-0.39,0.016669,0.032969,1.1949e-06,0.71,0.77,0
0.030857,-0.0075753,0.037728,0.00063329,0.011508,-0.00020741,0,0,0.068172,-0.028275,0,-0.0010785,0,0,0,0.037729,0.00063213,0.011508,-0.32035,0.016623,0.033031,1.197e-06,0.72,0.77,0
0.031539,-0.0076314,0.037715,0.00054772,0.011479,-0.00016641,0,0,0.068214,-0.028421,0,-0.00086531,0,0,0,0.037716,0.00054698,0.011479,-0.25652,0.016581,0.033086,1.1987e-06,0.73,0.77,0
0.032221,-0.0076843,0.037701,0.00046869,0.011451,-0.00012894,0,0,0.06825,-0.028554,0,-0.00067047,0,0,0,0.037701,0.00046825,0.011451,-0.19841,0.01654,0.033136,1.2001e-06,0.74,0.77,0
0.032904,-0.007734,0.037686,0.00039574,0.011425,-9.4952e-05,0,0,0.06828,-0.028675,0,-0.00049375,0,0,0,0.037686,0.0003955,0.011425,-0.14589,0.016502,0.033181,1.2013e-06,0.75,0.77,0
0.033587,-0.0077808,0.037671,0.00032843,0.0114,-6.4374e-05,0,0,0.068306,-0.028786,0,-0.00033474,0,0,0,0.037671,0.00032832,0.0114,-0.098769,0.016467,0.033221,1.2022e-06,0.76,0.77,0
0.03427,-0.0078246,0.037657,0.00026636,0.011377,-3.7103e-05,0,0,0.068327,-0.028887,0,-0.00019294,0,0,0,0.037657,0.00026632,0.011377,-0.056856,0.016433,0.033257,1.2029e-06,0.77,0.77,0
0.034953,-0.0078656,0.037642,0.00020917,0.011355,-1.3026e-05,0,0,0.068344,-0.02898,0,-6.7733e-05,0,0,0,0.037642,0.00020916,0.011355,-0.019938,0.016402,0.033289,1.2035e-06,0.78,0.77,0
0.035637,-0.007904,0.037627,0.0001565,0.011335,7.9882e-06,0,0,0.068359,-0.029064,0,4.1539e-05,0,0,0,0.037627,0.0001565,0.011335,0.012215,0.016373,0.033319,1.2039e-06,0.79,0.77,0
0.036321,-0.0079398,0.037612,0.00010804,0.011316,2.6076e-05,0,0,0.06837,-0.029141,0,0.00013559,0,0,0,0.037612,0.00010802,0.011316,0.039836,0.016345,0.033344,1.2042e-06,0.8,0.77,0
0.037004,-0.0079731,0.037598,6.3494e-05,0.011298,4.1381e-05,0,0,0.068379,-0.029211,0,0.00021518,0,0,0,0.037598,6.3448e-05,0.011298,0.063167,0.01632,0.033367,1.2044e-06,0.81,0.77,0
0.037688,-0.0080041,0.037585,2.2596e-05,0.011282,5.4054e-05,0,0,0.068386,-0.029275,0,0.00028108,0,0,0,0.037585,2.2518e-05,0.011282,0.082451,0.016296,0.033388,1.2045e-06,0.82,0.77,0
0.038372,-0.0080328,0.037572,-1.4901e-05,0.011267,6.4244e-05,0,0,0.068392,-0.029333,0,0.00033407,0,0,0,0.037572,-1.5011e-05,0.011267,0.097932,0.016275,0.033406,1.2045e-06,0.83,0.77,0
0.039056,-0.0080594,0.037559,-4.9221e-05,0.011253,7.2106e-05,0,0,0.068396,-0.029386,0,0.00037495,0,0,0,0.037559,-4.9359e-05,0.011253,0.10985,0.016254,0.033423,1.2045e-06,0.84,0.77,0
0.03974,-0.008084,0.037547,-8.0567e-05,0.01124,7.7792e-05,0,0,0.068399,-0.029434,0,0.00040452,0,0,0,0.037547,-8.0728e-05,0.01124,0.11845,0.016236,0.033437,1.2044e-06,0.85,0.77,0
0.040424,-0.0081065,0.037536,-0.00010912,0.011228,8.1453e-05,0,0,0.068401,-0.029477,0,0.00042355,0,0,0,0.037536,-0.0001093,0.011228,0.12397,0.016218,0.03345,1.2043e-06,0.86,0.77,0
0.041108,-0.0081271,0.037526,-0.00013506,0.011217,8.324e-05,0,0,0.068402,-0.029516,0,0.00043285,0,0,0,0.037526,-0.00013525,0.011217,0.12664,0.016203,0.033462,1.2042e-06,0.87,0.77,0
0.041792,-0.008146,0.037516,-0.00015853,0.011207,8.33e-05,0,0,0.068403,-0.029551,0,0.00043316,0,0,0,0.037516,-0.00015871,0.011207,0.12668,0.016188,0.033472,1.2041e-06,0.88,0.77,0
0.042476,-0.008163,0.037507,-0.00017966,0.011198,8.178e-05,0,0,0.068403,-0.029582,0,0.00042525,0,0,0,0.037507,-0.00017984,0.011198,0.12433,0.016175,0.033481,1.2039e-06,0.89,0.77,0
0.04316,-0.0081784,0.037499,-0.00019858,0.01119,7.8822e-05,0,0,0.068402,-0.02961,0,0.00040987,0,0,0,0.037499,-0.00019874,0.01119,0.1198,0.016163,0.033488,1.2038e-06,0.9,0.77,0
0.043844,-0.0081921,0.037491,-0.00021539,0.011183,7.4568e-05,0,0,0.068402,-0.029635,0,0.00038775,0,0,0,0.037491,-0.00021554,0.011183,0.11331,0.016153,0.033495,1.2036e-06,0.91,0.77,0
0.044528,-0.0082042,0.037484,-0.00023019,0.011176,6.9156e-05,0,0,0.068401,-0.029657,0,0.00035961,0,0,0,0.037485,-0.00023031,0.011176,0.10506,0.016144,0.033501,1.2035e-06,0.92,0.77,0
0.045212,-0.0082148,0.037479,-0.00024306,0.011171,6.272e-05,0,0,0.068401,-0.029676,0,0.00032614,0,0,0,0.037479,-0.00024316,0.011171,0.095266,0.016135,0.033506,1.2034e-06,0.93,0.77,0
0.045896,-0.008224,0.037473,-0.00025407,0.011166,5.5395e-05,0,0,0.0684,-0.029692,0,0.00028806,0,0,0,0.037473,-0.00025415,0.011166,0.084127,0.016128,0.03351,1.2032e-06,0.94,0.77,0
0.04658,-0.0082316,0.037469,-0.00026329,0.011162,4.7312e-05,0,0,0.068399,-0.029705,0,0.00024602,0,0,0,0.037469,-0.00026335,0.011162,0.071842,0.016123,0.033514,1.2031e-06,0.95,0.77,0
0.047264,-0.0082378,0.037466,-0.00027077,0.011158,3.86e-05,0,0,0.068399,-0.029716,0,0.00020072,0,0,0,0.037466,-0.00027081,0.011158,0.058607,0.016118,0.033517,1.203e-06,0.96,0.77,0
0.047948,-0.0082426,0.037463,-0.00027654,0.011156,2.9387e-05,0,0,0.068398,-0.029724,0,0.00015281,0,0,0,0.037463,-0.00027656,0.011156,0.044615,0.016114,0.033519,1.203e-06,0.97,0.77,0
0.048632,-0.008246,0.037461,-0.00028064,0.011154,1.9799e-05,0,0,0.068398,-0.02973,0,0.00010295,0,0,0,0.037461,-0.00028065,0.011154,0.030057,0.016111,0.03352,1.2029e-06,0.98,0.77,0
0.049316,-0.0082481,0.03746,-0.00028309,0.011153,9.9616e-06,0,0,0.068397,-0.029734,0,5.18e-05,0,0,0,0.03746,-0.00028309,0.011153,0.015122,0.01611,0.033521,1.2029e-06,0.99,0.77,0
0.05,-0.0082487,0.037459,-0.0002839,0.011153,-1.3097e-05,0,0,0.068397,-0.029735,0,-6.8104e-05,0,0,0,0.037459,-0.00028391,0.011153,-0.019882,0.016109,0.033522,1.2029e-06,1,0.77,0
0,0,0.035146,0.015062,0.015062,-0.0047474,0,0,0.026108,3.2526e-19,0,-0.012343,0,0,0,0.036212,0.013997,0.015062,-12.652,0.021757,0.021701,5.2065e-07,0,0.78,0
0.00026108,-0.00012343,0.03509,0.014366,0.014837,-0.0047495,0,0,0.026329,-0.00061161,0,-0.012349,0,0,0,0.036126,0.01333,0.014837,-12.313,0.021431,0.022082,5.4431e-07,0.01,0.78,0
0.00052657,-0.00025003,0.035324,0.013773,0.014729,-0.0047965,0,0,0.026774,-0.001243,0,-0.012471,0,0,0,0.036344,0.012754,0.014729,-11.998,0.021276,0.022667,5.8284e-07,0.02,0.78,0
0.00079656,-0.00037933,0.03556,0.013164,0.014617,-0.0048179,0,0,0.027225,-0.0018894,0,-0.012526,0,0,0,0.036552,0.012171,0.014617,-11.64,0.021114,0.023255,6.2186e-07,0.03,0.78,0
0.0010711,-0.00051084,0.035793,0.012543,0.014501,-0.0048128,0,0,0.02768,-0.0025454,0,-0.012513,0,0,0,0.03675,0.011586,0.014501,-11.245,0.020945,0.023841,6.61e-07,0.04,0.78,0
0.0013502,-0.00064405,0.036021,0.011915,0.014381,-0.004781,0,0,0.028133,-0.0032056,0,-0.012431,0,0,0,0.036935,0.011002,0.014381,-10.818,0.020772,0.02442,6.9986e-07,0.05,0.78,0
0.0016337,-0.00077844,0.036242,0.011286,0.014258,-0.0047231,0,0,0.028579,-0.0038642,0,-0.01228,0,0,0,0.037106,0.010422,0.014258,-10.366,0.020595,0.024988,7.3804e-07,0.06,0.78,0
0.0019217,-0.00091352,0.036453,0.01066,0.014134,-0.0046401,0,0,0.029015,-0.004516,0,-0.012064,0,0,0,0.037262,0.0098507,0.014134,-9.8943,0.020416,0.025541,7.752e-07,0.07,0.78,0
0.002214,-0.0010488,0.036651,0.010042,0.014008,-0.0045338,0,0,0.029436,-0.0051559,0,-0.011788,0,0,0,0.037402,0.0092905,0.014008,-9.4088,0.020234,0.026075,8.1102e-07,0.08,0.78,0
0.0025105,-0.0011838,0.036835,0.0094353,0.013881,-0.0044066,0,0,0.02984,-0.0057796,0,-0.011457,0,0,0,0.037526,0.0087441,0.013881,-8.9151,0.020051,0.026589,8.4522e-07,0.09,0.78,0
0.0028108,-0.0013181,0.037004,0.008844,0.013754,-0.0042609,0,0,0.030224,-0.0063833,0,-0.011078,0,0,0,0.037634,0.0082134,0.013754,-8.4185,0.019867,0.027079,8.776e-07,0.1,0.78,0
0.0031149,-0.0014514,0.037155,0.0082708,0.013628,-0.0040996,0,0,0.030586,-0.0069641,0,-0.010659,0,0,0,0.037726,0.0077002,0.013628,-7.9237,0.019685,0.027544,9.0799e-07,0.11,0.78,0
0.0034225,-0.0015833,0.037289,0.0077176,0.013502,-0.0039258,0,0,0.030923,-0.0075198,0,-0.010207,0,0,0,0.037802,0.0072053,0.013502,-7.4348,0.019503,0.027984,9.3631e-07,0.12,0.78,0
0.0037334,-0.0017135,0.037406,0.0071862,0.013378,-0.0037425,0,0,0.031237,-0.0080488,0,-0.0097305,0,0,0,0.037862,0.0067296,0.013378,-6.9558,0.019323,0.028398,9.6248e-07,0.13,0.78,0
0.0040473,-0.0018418,0.037505,0.0066774,0.013255,-0.0035526,0,0,0.031525,-0.0085504,0,-0.0092368,0,0,0,0.037909,0.0062733,0.013255,-6.4896,0.019146,0.028787,9.8652e-07,0.14,0.78,0
0.0043639,-0.001968,0.037587,0.0061916,0.013133,-0.0033589,0,0,0.031789,-0.0090244,0,-0.0087332,0,0,0,0.037942,0.0058363,0.013133,-6.039,0.018971,0.02915,1.0085e-06,0.15,0.78,0
0.0046831,-0.002092,0.037652,0.0057288,0.013014,-0.0031641,0,0,0.032029,-0.0094711,0,-0.0082266,0,0,0,0.037963,0.0054182,0.013014,-5.6062,0.018798,0.029489,1.0284e-06,0.16,0.78,0
0.0050045,-0.0022137,0.037702,0.0052883,0.012897,-0.0029704,0,0,0.032246,-0.0098913,0,-0.0077231,0,0,0,0.037972,0.0050184,0.012897,-5.1931,0.018629,0.029805,1.0463e-06,0.17,0.78,0
0.005328,-0.002333,0.037737,0.0048696,0.012782,-0.0027801,0,0,0.032442,-0.010286,0,-0.0072284,0,0,0,0.037971,0.0046361,0.012782,-4.801,0.018463,0.0301,1.0624e-06,0.18,0.78,0
0.0056533,-0.0024501,0.037759,0.0044713,0.012669,-0.0025951,0,0,0.032617,-0.010657,0,-0.0067472,0,0,0,0.03796,0.0042702,0.012669,-4.4311,0.0183,0.030374,1.0768e-06,0.19,0.78,0
0.0059803,-0.0025648,0.037769,0.0040924,0.012558,-0.0024169,0,0,0.032773,-0.011006,0,-0.0062839,0,0,0,0.037941,0.0039198,0.012558,-4.0842,0.01814,0.03063,1.0897e-06,0.2,0.78,0
0.0063088,-0.0026772,0.037767,0.0037314,0.01245,-0.002247,0,0,0.032913,-0.011334,0,-0.0058422,0,0,0,0.037915,0.0035836,0.01245,-3.7608,0.017983,0.030868,1.1011e-06,0.21,0.78,0
0.0066386,-0.0027876,0.037756,0.0033866,0.012343,-0.0020865,0,0,0.033037,-0.011643,0,-0.005425,0,0,0,0.037882,0.0032604,0.012343,-3.4615,0.017828,0.031092,1.1111e-06,0.22,0.78,0
0.0069695,-0.0028958,0.037735,0.0030565,0.012238,-0.0019365,0,0,0.033147,-0.011935,0,-0.0050349,0,0,0,0.037843,0.0029487,0.012238,-3.1863,0.017677,0.031301,1.1201e-06,0.23,0.78,0
0.0073015,-0.0030022,0.037707,0.0027395,0.012134,-0.0017978,0,0,0.033245,-0.012213,0,-0.0046741,0,0,0,0.0378,0.0026473,0.012134,-2.9353,0.017527,0.031499,1.1279e-06,0.24,0.78,0
0.0076344,-0.0031068,0.037673,0.0024336,0.012032,-0.0016709,0,0,0.033333,-0.012478,0,-0.0043442,0,0,0,0.037752,0.0023546,0.012032,-2.7086,0.01738,0.031687,1.135e-06,0.25,0.78,0
0.0079682,-0.0032098,0.037633,0.0021374,0.011931,-0.0015564,0,0,0.033413,-0.012732,0,-0.0040465,0,0,0,0.037701,0.0020692,0.011931,-2.5058,0.017234,0.031867,1.1412e-06,0.26,0.78,0
0.0083027,-0.0033114,0.037589,0.0018488,0.011831,-0.0014546,0,0,0.033485,-0.012977,0,-0.0037819,0,0,0,0.037648,0.0017897,0.011831,-2.3268,0.01709,0.03204,1.1468e-06,0.27,0.78,0
0.0086379,-0.0034117,0.037541,0.0015663,0.011732,-0.0013658,0,0,0.033551,-0.013216,0,-0.0035511,0,0,0,0.037593,0.0015145,0.011732,-2.1711,0.016946,0.032209,1.1519e-06,0.28,0.78,0
0.0089737,-0.0035111,0.03749,0.0012879,0.011633,-0.0012901,0,0,0.033614,-0.013449,0,-0.0033542,0,0,0,0.037536,0.001242,0.011633,-2.0383,0.016804,0.032375,1.1566e-06,0.29,0.78,0
0.0093102,-0.0036095,0.037438,0.0010119,0.011535,-0.0012274,0,0,0.033674,-0.01368,0,-0.0031914,0,0,0,0.03748,0.00097057,0.011535,-1.9278,0.016662,0.03254,1.1612e-06,0.3,0.78,0
0.0096472,-0.0037074,0.037386,0.00073649,0.011437,-0.0011778,0,0,0.033734,-0.01391,0,-0.0030622,0,0,0,0.037423,0.00069868,0.011437,-1.8388,0.01652,0.032706,1.1656e-06,0.31,0.78,0
0.0099848,-0.0038047,0.037333,0.00045992,0.011338,-0.0011408,0,0,0.033794,-0.014141,0,-0.0029662,0,0,0,0.037368,0.00042465,0.011338,-1.7704,0.016377,0.032875,1.17e-06,0.32,0.78,0
0.010323,-0.0039018,0.037282,0.00018038,0.011239,-0.0011162,0,0,0.033856,-0.014376,0,-0.0029022,0,0,0,0.037316,0.00014682,0.011239,-1.7217,0.016234,0.03305,1.1746e-06,0.33,0.78,0
0.010662,-0.0039988,0.037233,-0.00010389,0.011139,-0.0011035,0,0,0.033923,-0.014615,0,-0.0028691,0,0,0,0.037266,-0.00013647,0.011139,-1.6914,0.016089,0.033231,1.1794e-06,0.34,0.78,0
0.011002,-0.0040959,0.037187,-0.0003946,0.011038,-0.0011019,0,0,0.033994,-0.014862,0,-0.002865,0,0,0,0.037219,-0.00042688,0.011038,-1.678,0.015943,0.033423,1.1847e-06,0.35,0.78,0
0.011342,-0.0041932,0.037145,-0.00069341,0.010936,-0.0011107,0,0,0.034072,-0.015118,0,-0.0028878,0,0,0,0.037178,-0.00072598,0.010936,-1.6799,0.015796,0.033625,1.1905e-06,0.36,0.78,0
0.011683,-0.0042908,0.037108,-0.0010019,0.010832,-0.0011288,0,0,0.034159,-0.015384,0,-0.0029349,0,0,0,0.037141,-0.0010353,0.010832,-1.6951,0.015646,0.033841,1.1969e-06,0.37,0.78,0
0.012025,-0.004389,0.037076,-0.0013215,0.010726,-0.0011551,0,0,0.034255,-0.015662,0,-0.0030032,0,0,0,0.037111,-0.0013563,0.010726,-1.7215,0.015494,0.034073,1.204e-06,0.38,0.78,0
0.012368,-0.0044877,0.037052,-0.0016536,0.010619,-0.0011881,0,0,0.034362,-0.015955,0,-0.0030892,0,0,0,0.037088,-0.00169,0.010619,-1.7566,0.015339,0.034321,1.212e-06,0.39,0.78,0
0.012712,-0.004587,0.037034,-0.0019991,0.010511,-0.0012264,0,0,0.034481,-0.016262,0,-0.0031886,0,0,0,0.037072,-0.0020376,0.010511,-1.7978,0.015182,0.034588,1.2209e-06,0.4,0.78,0
0.013058,-0.004687,0.037024,-0.002359,0.0104,-0.0012681,0,0,0.034612,-0.016586,0,-0.003297,0,0,0,0.037065,-0.0023997,0.0104,-1.8423,0.015022,0.034873,1.2307e-06,0.41,0.78,0
0.013404,-0.0047877,0.037022,-0.0027336,0.010287,-0.0013113,0,0,0.034756,-0.016926,0,-0.0034094,0,0,0,0.037066,-0.0027768,0.010287,-1.8871,0.014858,0.035179,1.2414e-06,0.42,0.78,0
0.013753,-0.004889,0.037029,-0.0031231,0.010172,-0.001354,0,0,0.034914,-0.017283,0,-0.0035205,0,0,0,0.037075,-0.0031687,0.010172,-1.9292,0.014693,0.035505,1.2531e-06,0.43,0.78,0
0.014103,-0.0049909,0.037044,-0.0035272,0.010055,-0.0013942,0,0,0.035085,-0.017657,0,-0.0036249,0,0,0,0.037092,-0.003575,0.010055,-1.9658,0.014524,0.035851,1.2656e-06,0.44,0.78,0
0.014455,-0.0050932,0.037067,-0.0039451,0.0099365,-0.0014297,0,0,0.035269,-0.018046,0,-0.0037172,0,0,0,0.037116,-0.0039948,0.0099365,-1.9942,0.014353,0.036214,1.2789e-06,0.45,0.78,0
0.014808,-0.0051958,0.037097,-0.0043756,0.0098165,-0.0014586,0,0,0.035465,-0.01845,0,-0.0037923,0,0,0,0.037148,-0.0044268,0.0098165,-2.0117,0.014179,0.036595,1.2928e-06,0.46,0.78,0
0.015164,-0.0052985,0.037134,-0.004817,0.0096952,-0.0014789,0,0,0.035671,-0.018866,0,-0.0038451,0,0,0,0.037186,-0.0048691,0.0096952,-2.0165,0.014004,0.03699,1.3072e-06,0.47,0.78,0
0.015522,-0.0054011,0.037177,-0.0052674,0.0095729,-0.0014891,0,0,0.035885,-0.019292,0,-0.0038718,0,0,0,0.037229,-0.0053196,0.0095729,-2.0069,0.013827,0.037397,1.3218e-06,0.48,0.78,0
0.015881,-0.0055034,0.037224,-0.0057243,0.00945,-0.001488,0,0,0.036107,-0.019727,0,-0.0038687,0,0,0,0.037276,-0.0057758,0.00945,-1.9819,0.01365,0.037812,1.3365e-06,0.49,0.78,0
0.016244,-0.0056051,0.037252,-0.00065477,0.010979,-0.0014749,0,0,0.050201,-0.020166,0,-0.0057306,0,0,0,0.037311,-0.00071309,0.010979,-2.2679,0.015859,0.033802,1.1716e-06,0.5,0.78,0
0.016886,-0.0057438,0.037325,0.0046009,0.012578,-0.0014514,0,0,0.064344,-0.02074,0,-0.0075472,0,0,0,0.03739,0.0045366,0.012578,-2.5345,0.018168,0.029662,1.0156e-06,0.51,0.78,0
0.017531,-0.0058804,0.037377,0.0043104,0.012506,-0.0014197,0,0,0.064663,-0.021309,0,-0.0073826,0,0,0,0.037437,0.0042496,0.012506,-2.454,0.018064,0.029926,1.0314e-06,0.52,0.78,0
0.018179,-0.0060147,0.037426,0.0040249,0.012435,-0.0013806,0,0,0.064976,-0.021867,0,-0.0071789,0,0,0,0.037483,0.0039679,0.012435,-2.3628,0.017962,0.030186,1.0468e-06,0.53,0.78,0
0.01883,-0.0061462,0.037473,0.0037459,0.012366,-0.0013343,0,0,0.06528,-0.022412,0,-0.0069382,0,0,0,0.037526,0.0036932,0.012366,-2.2619,0.017862,0.030438,1.0617e-06,0.54,0.78,0
0.019484,-0.0062748,0.037518,0.003475,0.012298,-0.0012814,0,0,0.065571,-0.022939,0,-0.0066634,0,0,0,0.037566,0.0034269,0.012298,-2.1527,0.017763,0.030681,1.0759e-06,0.55,0.78,0
0.020141,-0.0064,0.037558,0.0032136,0.012231,-0.0012228,0,0,0.065849,-0.023446,0,-0.0063586,0,0,0,0.037601,0.0031701,0.012231,-2.0365,0.017668,0.030913,1.0893e-06,0.56,0.78,0
0.020801,-0.0065217,0.037594,0.0029627,0.012167,-0.0011593,0,0,0.06611,-0.023931,0,-0.0060282,0,0,0,0.037633,0.0029239,0.012167,-1.9151,0.017574,0.031134,1.1018e-06,0.57,0.78,0
0.021464,-0.0066397,0.037625,0.0027232,0.012105,-0.0010918,0,0,0.066354,-0.024391,0,-0.0056772,0,0,0,0.037659,0.0026891,0.012105,-1.7899,0.017484,0.031342,1.1134e-06,0.58,0.78,0
0.022128,-0.0067537,0.037652,0.0024958,0.012044,-0.0010213,0,0,0.066579,-0.024826,0,-0.005311,0,0,0,0.037681,0.0024661,0.012044,-1.6627,0.017397,0.031537,1.1241e-06,0.59,0.78,0
0.022795,-0.0068637,0.037673,0.0022807,0.011986,-0.00094896,0,0,0.066787,-0.025234,0,-0.0049346,0,0,0,0.037699,0.0022553,0.011986,-1.5348,0.017313,0.031718,1.1338e-06,0.6,0.78,0
0.023464,-0.0069695,0.03769,0.0020782,0.011931,-0.00087559,0,0,0.066975,-0.025616,0,-0.0045531,0,0,0,0.037712,0.0020567,0.011931,-1.4076,0.017233,0.031886,1.1426e-06,0.61,0.78,0
0.024135,-0.0070711,0.037702,0.0018883,0.011877,-0.00080214,0,0,0.067145,-0.025971,0,-0.0041711,0,0,0,0.03772,0.0018703,0.011877,-1.2824,0.017156,0.032041,1.1505e-06,0.62,0.78,0
0.024807,-0.0071684,0.03771,0.0017107,0.011826,-0.00072941,0,0,0.067298,-0.026301,0,-0.0037929,0,0,0,0.037725,0.0016959,0.011826,-1.1603,0.017082,0.032183,1.1575e-06,0.63,0.78,0
0.025481,-0.0072615,0.037714,0.0015451,0.011778,-0.00065812,0,0,0.067434,-0.026605,0,-0.0034222,0,0,0,0.037726,0.0015331,0.011778,-1.0421,0.017012,0.032312,1.1637e-06,0.64,0.78,0
0.026156,-0.0073502,0.037714,0.0013911,0.011732,-0.00058888,0,0,0.067554,-0.026885,0,-0.0030622,0,0,0,0.037723,0.0013815,0.011732,-0.92858,0.016945,0.03243,1.1691e-06,0.65,0.78,0
0.026832,-0.0074348,0.037711,0.0012481,0.011688,-0.00052221,0,0,0.06766,-0.027143,0,-0.0027155,0,0,0,0.037718,0.0012407,0.011688,-0.82035,0.016882,0.032537,1.1738e-06,0.66,0.78,0
0.027509,-0.0075152,0.037705,0.0011157,0.011646,-0.00045852,0,0,0.067752,-0.027379,0,-0.0023843,0,0,0,0.03771,0.0011099,0.011646,-0.71786,0.016822,0.032634,1.1779e-06,0.67,0.78,0
0.028187,-0.0075915,0.037696,0.00099316,0.011607,-0.00039813,0,0,0.067832,-0.027595,0,-0.0020703,0,0,0,0.0377,0.00098884,0.011607,-0.62141,0.016765,0.032721,1.1813e-06,0.68,0.78,0
0.028866,-0.0076638,0.037685,0.00087994,0.011569,-0.00034127,0,0,0.067901,-0.027793,0,-0.0017746,0,0,0,0.037688,0.00087678,0.011569,-0.53121,0.016712,0.0328,1.1842e-06,0.69,0.78,0
0.029545,-0.0077323,0.037673,0.00077543,0.011534,-0.00028811,0,0,0.06796,-0.027973,0,-0.0014982,0,0,0,0.037675,0.00077318,0.011534,-0.44736,0.016661,0.03287,1.1867e-06,0.7,0.78,0
0.030225,-0.007797,0.037659,0.00067902,0.011501,-0.00023874,0,0,0.06801,-0.028138,0,-0.0012415,0,0,0,0.037661,0.00067748,0.011501,-0.36988,0.016613,0.032933,1.1888e-06,0.71,0.78,0
0.030905,-0.0078581,0.037644,0.00059015,0.01147,-0.0001932,0,0,0.068052,-0.028288,0,-0.0010046,0,0,0,0.037645,0.00058914,0.01147,-0.29873,0.016568,0.03299,1.1904e-06,0.72,0.78,0
0.031586,-0.0079156,0.037629,0.00050827,0.011441,-0.00015148,0,0,0.068088,-0.028425,0,-0.00078767,0,0,0,0.037629,0.00050766,0.011441,-0.2338,0.016526,0.033041,1.1918e-06,0.73,0.78,0
0.032267,-0.0079698,0.037613,0.00043287,0.011414,-0.00011353,0,0,0.068117,-0.02855,0,-0.00059033,0,0,0,0.037613,0.00043253,0.011414,-0.17495,0.016486,0.033086,1.1929e-06,0.74,0.78,0
0.032948,-0.0080207,0.037596,0.00036347,0.011388,-7.9269e-05,0,0,0.068141,-0.028664,0,-0.0004122,0,0,0,0.037596,0.0003633,0.011388,-0.12198,0.016449,0.033126,1.1938e-06,0.75,0.78,0
0.03363,-0.0080685,0.03758,0.0002996,0.011364,-4.8603e-05,0,0,0.068161,-0.028767,0,-0.00025274,0,0,0,0.03758,0.00029954,0.011364,-0.074698,0.016414,0.033162,1.1944e-06,0.76,0.78,0
0.034311,-0.0081133,0.037563,0.00024086,0.011341,-2.1403e-05,0,0,0.068177,-0.028861,0,-0.0001113,0,0,0,0.037563,0.00024085,0.011341,-0.032857,0.016382,0.033195,1.1949e-06,0.77,0.78,0
0.034993,-0.0081552,0.037547,0.00018686,0.01132,2.4685e-06,0,0,0.06819,-0.028947,0,1.2836e-05,0,0,0,0.037547,0.00018686,0.01132,0.0037857,0.016351,0.033223,1.1952e-06,0.78,0.78,0
0.035675,-0.0081944,0.037531,0.00013724,0.0113,2.316e-05,0,0,0.0682,-0.029025,0,0.00012043,0,0,0,0.037531,0.00013722,0.0113,0.035486,0.016323,0.033249,1.1954e-06,0.79,0.78,0
0.036357,-0.008231,0.037516,9.1673e-05,0.011282,4.0828e-05,0,0,0.068207,-0.029095,0,0.0002123,0,0,0,0.037516,9.1628e-05,0.011282,0.062507,0.016296,0.033272,1.1955e-06,0.8,0.78,0
0.037039,-0.008265,0.037501,4.987e-05,0.011265,5.5632e-05,0,0,0.068213,-0.02916,0,0.00028929,0,0,0,0.037501,4.9787e-05,0.011265,0.08511,0.016272,0.033292,1.1955e-06,0.81,0.78,0
0.037721,-0.0082966,0.037486,1.1555e-05,0.011249,6.7736e-05,0,0,0.068216,-0.029218,0,0.00035223,0,0,0,0.037487,1.1433e-05,0.011249,0.10356,0.016249,0.03331,1.1955e-06,0.82,0.78,0
0.038404,-0.0083259,0.037473,-2.3516e-05,0.011235,7.7304e-05,0,0,0.068219,-0.029272,0,0.00040198,0,0,0,0.037473,-2.3675e-05,0.011235,0.11812,0.016228,0.033326,1.1954e-06,0.83,0.78,0
0.039086,-0.008353,0.03746,-5.5567e-05,0.011221,8.4498e-05,0,0,0.06822,-0.02932,0,0.00043939,0,0,0,0.03746,-5.5758e-05,0.011221,0.12905,0.016209,0.03334,1.1952e-06,0.84,0.78,0
0.039768,-0.008378,0.037448,-8.4803e-05,0.011209,8.9482e-05,0,0,0.068221,-0.029364,0,0.00046531,0,0,0,0.037448,-8.5016e-05,0.011209,0.1366,0.016191,0.033352,1.195e-06,0.85,0.78,0
0.04045,-0.0084009,0.037436,-0.0001114,0.011197,9.2414e-05,0,0,0.068221,-0.029403,0,0.00048055,0,0,0,0.037436,-0.00011163,0.011197,0.14102,0.016174,0.033363,1.1949e-06,0.86,0.78,0
0.041133,-0.0084219,0.037425,-0.00013554,0.011187,9.3451e-05,0,0,0.06822,-0.029438,0,0.00048594,0,0,0,0.037426,-0.00013577,0.011187,0.14255,0.016159,0.033373,1.1946e-06,0.87,0.78,0
0.041815,-0.0084411,0.037415,-0.00015735,0.011177,9.2746e-05,0,0,0.068219,-0.029471,0,0.00048228,0,0,0,0.037416,-0.00015757,0.011177,0.14143,0.016145,0.033382,1.1944e-06,0.88,0.78,0
0.042497,-0.0084584,0.037406,-0.00017697,0.011169,9.0449e-05,0,0,0.068218,-0.029499,0,0.00047034,0,0,0,0.037407,-0.00017719,0.011169,0.13789,0.016133,0.033389,1.1942e-06,0.89,0.78,0
0.043179,-0.0084741,0.037398,-0.00019452,0.011161,8.6709e-05,0,0,0.068216,-0.029524,0,0.00045088,0,0,0,0.037398,-0.00019472,0.011161,0.13215,0.016122,0.033396,1.194e-06,0.9,0.78,0
0.043861,-0.008488,0.037391,-0.0002101,0.011154,8.1667e-05,0,0,0.068215,-0.029547,0,0.00042467,0,0,0,0.037391,-0.00021028,0.011154,0.12444,0.016112,0.033402,1.1938e-06,0.91,0.78,0
0.044543,-0.0085004,0.037384,-0.00022382,0.011148,7.5464e-05,0,0,0.068213,-0.029567,0,0.00039241,0,0,0,0.037384,-0.00022397,0.011148,0.11497,0.016103,0.033407,1.1936e-06,0.92,0.78,0
0.045226,-0.0085112,0.037378,-0.00023573,0.011143,6.8237e-05,0,0,0.068212,-0.029584,0,0.00035483,0,0,0,0.037378,-0.00023586,0.011143,0.10394,0.016095,0.033411,1.1934e-06,0.93,0.78,0
0.045908,-0.0085204,0.037373,-0.00024593,0.011138,6.0121e-05,0,0,0.06821,-0.029598,0,0.00031263,0,0,0,0.037373,-0.00024602,0.011138,0.091568,0.016088,0.033414,1.1933e-06,0.94,0.78,0
0.04659,-0.0085282,0.037368,-0.00025445,0.011134,5.1247e-05,0,0,0.068209,-0.02961,0,0.00026649,0,0,0,0.037368,-0.00025452,0.011134,0.078044,0.016083,0.033417,1.1932e-06,0.95,0.78,0
0.047272,-0.0085345,0.037365,-0.00026137,0.011131,4.1746e-05,0,0,0.068208,-0.02962,0,0.00021708,0,0,0,0.037365,-0.00026141,0.011131,0.063569,0.016078,0.03342,1.1931e-06,0.96,0.78,0
0.047954,-0.0085394,0.037362,-0.0002667,0.011129,3.1745e-05,0,0,0.068207,-0.029628,0,0.00016507,0,0,0,0.037362,-0.00026673,0.011129,0.048337,0.016075,0.033421,1.193e-06,0.97,0.78,0
0.048636,-0.0085428,0.03736,-0.00027049,0.011127,2.137e-05,0,0,0.068206,-0.029633,0,0.00011113,0,0,0,0.03736,-0.0002705,0.011127,0.032538,0.016072,0.033423,1.1929e-06,0.98,0.78,0
0.049318,-0.0085449,0.037359,-0.00027276,0.011126,1.0747e-05,0,0,0.068206,-0.029636,0,5.5885e-05,0,0,0,0.037359,-0.00027276,0.011126,0.016363,0.016071,0.033423,1.1929e-06,0.99,0.78,0
0.05,-0.0085456,0.037359,-0.00027351,0.011125,-1.3312e-05,0,0,0.068206,-0.029638,0,-6.9224e-05,0,0,0,0.037359,-0.00027351,0.011125,-0.020268,0.01607,0.033424,1.1929e-06,1,0.78,0
0,0,0.035359,0.015154,0.015154,-0.0049875,0,0,0.026267,-3.2526e-19,0,-0.012967,0,0,0,0.036523,0.01399,0.015154,-13.137,0.021889,0.021974,5.3981e-07,0,0.79,0
0.00026267,-0.00012967,0.0353,0.014428,0.014918,-0.0049892,0,0,0.026496,-0.00063779,0,-0.012972,0,0,0,0.036431,0.013296,0.014918,-12.776,0.021549,0.022368,5.6462e-07,0.01,0.79,0
0.00052993,-0.00026272,0.035545,0.013808,0.014806,-0.0050383,0,0,0.026961,-0.0012973,0,-0.0131,0,0,0,0.036656,0.012697,0.014806,-12.435,0.021386,0.022977,6.0537e-07,0.02,0.79,0
0.00080188,-0.00039862,0.03579,0.013171,0.014688,-0.0050588,0,0,0.027432,-0.0019728,0,-0.013153,0,0,0,0.03687,0.012091,0.014688,-12.049,0.021216,0.023588,6.4657e-07,0.03,0.79,0
0.0010786,-0.00053683,0.036032,0.012521,0.014566,-0.0050498,0,0,0.027906,-0.0026584,0,-0.01313,0,0,0,0.037071,0.011482,0.014566,-11.623,0.02104,0.024195,6.8775e-07,0.04,0.79,0
0.00136,-0.00067678,0.036269,0.011865,0.01444,-0.0050112,0,0,0.028377,-0.0033475,0,-0.013029,0,0,0,0.037258,0.010876,0.01444,-11.164,0.020858,0.024792,7.2846e-07,0.05,0.79,0
0.0016461,-0.00081789,0.036497,0.011209,0.014312,-0.0049435,0,0,0.028841,-0.0040338,0,-0.012853,0,0,0,0.037429,0.010277,0.014312,-10.677,0.020672,0.025376,7.6825e-07,0.06,0.79,0
0.0019368,-0.00095961,0.036713,0.010557,0.014181,-0.0048481,0,0,0.029291,-0.004711,0,-0.012605,0,0,0,0.037583,0.0096875,0.014181,-10.17,0.020484,0.025942,8.0672e-07,0.07,0.79,0
0.0022319,-0.0011014,0.036915,0.0099156,0.014049,-0.0047273,0,0,0.029725,-0.0053735,0,-0.012291,0,0,0,0.037719,0.0091119,0.014049,-9.6497,0.020293,0.026485,8.4353e-07,0.08,0.79,0
0.0025313,-0.0012427,0.0371,0.0092886,0.013917,-0.0045837,0,0,0.030139,-0.0060165,0,-0.011918,0,0,0,0.037836,0.0085526,0.013917,-9.1217,0.020102,0.027004,8.7838e-07,0.09,0.79,0
0.0028347,-0.0013832,0.037268,0.0086797,0.013784,-0.0044204,0,0,0.030529,-0.006636,0,-0.011493,0,0,0,0.037936,0.0080119,0.013784,-8.592,0.019911,0.027496,9.1106e-07,0.1,0.79,0
0.0031419,-0.0015223,0.037417,0.0080922,0.013653,-0.0042408,0,0,0.030894,-0.0072288,0,-0.011026,0,0,0,0.038018,0.0074912,0.013653,-8.0657,0.019721,0.02796,9.4144e-07,0.11,0.79,0
0.0034526,-0.0016598,0.037547,0.007528,0.013522,-0.0040483,0,0,0.031231,-0.0077927,0,-0.010526,0,0,0,0.038083,0.0069917,0.013522,-7.5473,0.019532,0.028395,9.6942e-07,0.12,0.79,0
0.0037665,-0.0017953,0.037657,0.0069888,0.013394,-0.0038463,0,0,0.031542,-0.0083264,0,-0.010001,0,0,0,0.038132,0.0065138,0.013394,-7.0407,0.019346,0.028801,9.9499e-07,0.13,0.79,0
0.0040834,-0.0019286,0.037748,0.0064753,0.013267,-0.0036382,0,0,0.031825,-0.0088293,0,-0.0094594,0,0,0,0.038166,0.0060576,0.013267,-6.5492,0.019163,0.029179,1.0182e-06,0.14,0.79,0
0.004403,-0.0020595,0.037821,0.0059876,0.013143,-0.0034271,0,0,0.032082,-0.0093014,0,-0.0089104,0,0,0,0.038186,0.0056229,0.013143,-6.0755,0.018984,0.02953,1.0391e-06,0.15,0.79,0
0.0047251,-0.002188,0.037876,0.0055255,0.013021,-0.0032157,0,0,0.032313,-0.0097436,0,-0.0083608,0,0,0,0.038193,0.0052089,0.013021,-5.622,0.018808,0.029855,1.0577e-06,0.16,0.79,0
0.0050493,-0.0023139,0.037915,0.0050881,0.012901,-0.0030066,0,0,0.032519,-0.010157,0,-0.0078172,0,0,0,0.038189,0.004815,0.012901,-5.1901,0.018635,0.030155,1.0743e-06,0.17,0.79,0
0.0053755,-0.0024371,0.037939,0.0046743,0.012784,-0.0028021,0,0,0.032702,-0.010543,0,-0.0072854,0,0,0,0.038174,0.0044399,0.012784,-4.7814,0.018466,0.030432,1.089e-06,0.18,0.79,0
0.0057033,-0.0025578,0.037949,0.0042829,0.01267,-0.002604,0,0,0.032864,-0.010903,0,-0.0067705,0,0,0,0.03815,0.0040827,0.01267,-4.3968,0.018301,0.030688,1.1018e-06,0.19,0.79,0
0.0060327,-0.002676,0.037947,0.0039123,0.012558,-0.0024141,0,0,0.033006,-0.011239,0,-0.0062766,0,0,0,0.038117,0.003742,0.012558,-4.0371,0.018139,0.030925,1.1131e-06,0.2,0.79,0
0.0063634,-0.0027917,0.037933,0.0035609,0.012448,-0.0022337,0,0,0.033131,-0.011554,0,-0.0058076,0,0,0,0.038078,0.0034163,0.012448,-3.7026,0.017981,0.031144,1.1228e-06,0.21,0.79,0
0.0066953,-0.002905,0.03791,0.0032268,0.012341,-0.002064,0,0,0.03324,-0.011848,0,-0.0053663,0,0,0,0.038032,0.0031044,0.012341,-3.3936,0.017826,0.031347,1.1313e-06,0.22,0.79,0
0.0070282,-0.0030161,0.037878,0.0029082,0.012236,-0.0019058,0,0,0.033335,-0.012126,0,-0.0049552,0,0,0,0.037981,0.0028046,0.012236,-3.1103,0.017674,0.031537,1.1386e-06,0.23,0.79,0
0.007362,-0.0031252,0.037838,0.0026033,0.012132,-0.0017601,0,0,0.033418,-0.012388,0,-0.0045763,0,0,0,0.037926,0.0025156,0.012132,-2.8527,0.017525,0.031715,1.1448e-06,0.24,0.79,0
0.0076966,-0.0032323,0.037792,0.0023102,0.012031,-0.0016274,0,0,0.03349,-0.012637,0,-0.0042311,0,0,0,0.037867,0.0022357,0.012031,-2.6205,0.017378,0.031883,1.1502e-06,0.25,0.79,0
0.0080318,-0.0033378,0.037741,0.002027,0.01193,-0.001508,0,0,0.033554,-0.012874,0,-0.0039208,0,0,0,0.037805,0.0019635,0.01193,-2.4135,0.017233,0.032042,1.1549e-06,0.26,0.79,0
0.0083677,-0.0034418,0.037686,0.0017519,0.011831,-0.0014024,0,0,0.033611,-0.013103,0,-0.0036462,0,0,0,0.03774,0.0016972,0.011831,-2.2316,0.01709,0.032195,1.1589e-06,0.27,0.79,0
0.008704,-0.0035444,0.037627,0.0014828,0.011733,-0.0013107,0,0,0.033662,-0.013325,0,-0.0034078,0,0,0,0.037674,0.0014354,0.011733,-2.0741,0.016948,0.032344,1.1625e-06,0.28,0.79,0
0.0090409,-0.003646,0.037566,0.0012181,0.011635,-0.001233,0,0,0.03371,-0.013542,0,-0.0032059,0,0,0,0.037608,0.0011763,0.011635,-1.9407,0.016806,0.03249,1.1657e-06,0.29,0.79,0
0.0093782,-0.0037467,0.037503,0.00095558,0.011538,-0.0011694,0,0,0.033755,-0.013757,0,-0.0030404,0,0,0,0.037541,0.0009182,0.011538,-1.8308,0.016665,0.032635,1.1688e-06,0.3,0.79,0
0.009716,-0.0038468,0.037441,0.00069354,0.01144,-0.0011196,0,0,0.0338,-0.013971,0,-0.0029111,0,0,0,0.037475,0.00065945,0.01144,-1.7436,0.016525,0.032782,1.1718e-06,0.31,0.79,0
0.010054,-0.0039464,0.037378,0.00043001,0.011342,-0.0010835,0,0,0.033846,-0.014186,0,-0.0028172,0,0,0,0.03741,0.00039826,0.011342,-1.6783,0.016383,0.032933,1.1748e-06,0.32,0.79,0
0.010393,-0.0040457,0.037317,0.00016309,0.011244,-0.0010607,0,0,0.033895,-0.014405,0,-0.0027578,0,0,0,0.037347,0.00013283,0.011244,-1.6339,0.016241,0.033089,1.178e-06,0.33,0.79,0
0.010732,-0.004145,0.037258,-0.00010913,0.011145,-0.0010506,0,0,0.033948,-0.01463,0,-0.0027317,0,0,0,0.037288,-0.00013865,0.011145,-1.6093,0.016098,0.033253,1.1816e-06,0.34,0.79,0
0.011072,-0.0042445,0.037203,-0.00038852,0.011044,-0.0010527,0,0,0.034006,-0.014863,0,-0.0027371,0,0,0,0.037233,-0.00041798,0.011044,-1.6029,0.015953,0.033427,1.1856e-06,0.35,0.79,0
0.011412,-0.0043443,0.037152,-0.00067693,0.010943,-0.0010661,0,0,0.034072,-0.015105,0,-0.0027719,0,0,0,0.037182,-0.00070695,0.010943,-1.613,0.015806,0.033614,1.1903e-06,0.36,0.79,0
0.011753,-0.0044446,0.037106,-0.00097612,0.010839,-0.0010898,0,0,0.034147,-0.01536,0,-0.0028334,0,0,0,0.037137,-0.0010073,0.010839,-1.6378,0.015656,0.033815,1.1956e-06,0.37,0.79,0
0.012095,-0.0045454,0.037067,-0.0012878,0.010734,-0.0011224,0,0,0.034233,-0.015628,0,-0.0029183,0,0,0,0.037099,-0.0013206,0.010734,-1.6748,0.015504,0.034033,1.2018e-06,0.38,0.79,0
0.012438,-0.004647,0.037034,-0.0016133,0.010626,-0.0011627,0,0,0.03433,-0.015911,0,-0.003023,0,0,0,0.037069,-0.0016483,0.010626,-1.7217,0.015349,0.03427,1.2089e-06,0.39,0.79,0
0.012782,-0.0047494,0.037009,-0.0019541,0.010516,-0.0012089,0,0,0.03444,-0.016212,0,-0.003143,0,0,0,0.037047,-0.0019916,0.010516,-1.7754,0.01519,0.034527,1.217e-06,0.4,0.79,0
0.013127,-0.0048526,0.036993,-0.0023112,0.010405,-0.001259,0,0,0.034565,-0.01653,0,-0.0032734,0,0,0,0.037033,-0.0023515,0.010405,-1.8328,0.015029,0.034806,1.2262e-06,0.41,0.79,0
0.013473,-0.0049567,0.036985,-0.0026851,0.01029,-0.0013111,0,0,0.034704,-0.016868,0,-0.0034088,0,0,0,0.037029,-0.0027283,0.01029,-1.8908,0.014863,0.035107,1.2365e-06,0.42,0.79,0
0.013821,-0.0050616,0.036987,-0.003076,0.010173,-0.0013628,0,0,0.034858,-0.017224,0,-0.0035432,0,0,0,0.037034,-0.0031224,0.010173,-1.946,0.014695,0.035431,1.2478e-06,0.43,0.79,0
0.01417,-0.0051672,0.036999,-0.0034839,0.010054,-0.0014118,0,0,0.035028,-0.0176,0,-0.0036707,0,0,0,0.037048,-0.0035331,0.010054,-1.9949,0.014523,0.035778,1.2602e-06,0.44,0.79,0
0.014521,-0.0052734,0.037019,-0.0039078,0.0099334,-0.0014557,0,0,0.035211,-0.017994,0,-0.0037849,0,0,0,0.037071,-0.0039595,0.0099334,-2.0345,0.014348,0.036145,1.2734e-06,0.45,0.79,0
0.014875,-0.0053801,0.037048,-0.0043464,0.0098105,-0.0014923,0,0,0.035409,-0.018404,0,-0.00388,0,0,0,0.037102,-0.0044001,0.0098105,-2.062,0.014171,0.036532,1.2874e-06,0.46,0.79,0
0.01523,-0.005487,0.037084,-0.0047979,0.0096859,-0.0015194,0,0,0.035618,-0.018829,0,-0.0039504,0,0,0,0.037139,-0.0048529,0.0096859,-2.0749,0.013991,0.036935,1.302e-06,0.47,0.79,0
0.015587,-0.0055939,0.037127,-0.0052599,0.0095601,-0.0015351,0,0,0.035837,-0.019266,0,-0.0039913,0,0,0,0.037183,-0.0053154,0.0095601,-2.0714,0.013809,0.037352,1.3169e-06,0.48,0.79,0
0.015946,-0.0057006,0.037175,-0.0057296,0.0094335,-0.001538,0,0,0.036063,-0.019712,0,-0.0039988,0,0,0,0.03723,-0.0057847,0.0094335,-2.0504,0.013626,0.037779,1.3319e-06,0.49,0.79,0
0.016308,-0.0058067,0.037203,-0.00067448,0.010958,-0.0015272,0,0,0.050146,-0.020164,0,-0.0059349,0,0,0,0.037265,-0.00073706,0.010958,-2.35,0.015829,0.033781,1.1679e-06,0.5,0.79,0
0.016949,-0.0059513,0.037278,0.0045727,0.012555,-0.0015039,0,0,0.064279,-0.020754,0,-0.0078204,0,0,0,0.037347,0.0045037,0.012555,-2.6273,0.018135,0.029649,1.0132e-06,0.51,0.79,0
0.017594,-0.0060937,0.03733,0.004274,0.012481,-0.0014711,0,0,0.064606,-0.021338,0,-0.0076498,0,0,0,0.037395,0.0042087,0.012481,-2.5432,0.018028,0.02992,1.0294e-06,0.52,0.79,0
0.018241,-0.0062336,0.03738,0.0039805,0.012408,-0.0014298,0,0,0.064927,-0.021912,0,-0.007435,0,0,0,0.037441,0.0039194,0.012408,-2.4468,0.017923,0.030186,1.0451e-06,0.53,0.79,0
0.018892,-0.0063706,0.037428,0.0036942,0.012337,-0.0013805,0,0,0.065237,-0.02247,0,-0.0071785,0,0,0,0.037484,0.0036378,0.012337,-2.3395,0.017819,0.030444,1.0602e-06,0.54,0.79,0
0.019546,-0.0065045,0.037472,0.0034168,0.012267,-0.0013239,0,0,0.065533,-0.023009,0,-0.0068841,0,0,0,0.037523,0.0033654,0.012267,-2.2229,0.017718,0.030691,1.0745e-06,0.55,0.79,0
0.020203,-0.0066349,0.037512,0.0031497,0.012198,-0.0012608,0,0,0.065814,-0.023527,0,-0.0065563,0,0,0,0.037558,0.0031035,0.012198,-2.0986,0.01762,0.030927,1.088e-06,0.56,0.79,0
0.020862,-0.0067614,0.037547,0.0028941,0.012132,-0.0011925,0,0,0.066077,-0.024019,0,-0.0062008,0,0,0,0.037588,0.0028532,0.012132,-1.9686,0.017524,0.031149,1.1005e-06,0.57,0.79,0
0.021524,-0.0068841,0.037576,0.0026511,0.012068,-0.0011199,0,0,0.066321,-0.024485,0,-0.0058234,0,0,0,0.037612,0.0026153,0.012068,-1.8347,0.017432,0.031358,1.112e-06,0.58,0.79,0
0.022189,-0.0070025,0.037601,0.0024212,0.012007,-0.0010443,0,0,0.066545,-0.024922,0,-0.0054302,0,0,0,0.037632,0.0023903,0.012007,-1.6988,0.017343,0.031552,1.1225e-06,0.59,0.79,0
0.022855,-0.0071165,0.03762,0.0022048,0.011947,-0.00096676,0,0,0.066749,-0.025331,0,-0.0050272,0,0,0,0.037647,0.0021785,0.011947,-1.5625,0.017258,0.031732,1.132e-06,0.6,0.79,0
0.023524,-0.0072262,0.037634,0.002002,0.011891,-0.00088843,0,0,0.066933,-0.025711,0,-0.0046199,0,0,0,0.037657,0.0019798,0.011891,-1.4274,0.017176,0.031898,1.1404e-06,0.61,0.79,0
0.024194,-0.0073313,0.037644,0.0018126,0.011837,-0.0008103,0,0,0.067097,-0.026063,0,-0.0042135,0,0,0,0.037662,0.0017943,0.011837,-1.2948,0.017098,0.032049,1.1479e-06,0.62,0.79,0
0.024866,-0.0074319,0.037648,0.0016363,0.011785,-0.00073323,0,0,0.067243,-0.026387,0,-0.0038128,0,0,0,0.037663,0.0016214,0.011785,-1.166,0.017023,0.032187,1.1545e-06,0.63,0.79,0
0.025539,-0.0075279,0.037648,0.0014728,0.011736,-0.00065801,0,0,0.067371,-0.026685,0,-0.0034217,0,0,0,0.03766,0.0014608,0.011736,-1.0417,0.016952,0.032311,1.1602e-06,0.64,0.79,0
0.026213,-0.0076194,0.037645,0.0013213,0.01169,-0.00058528,0,0,0.067483,-0.026958,0,-0.0030435,0,0,0,0.037655,0.0013119,0.01169,-0.92288,0.016885,0.032424,1.1652e-06,0.65,0.79,0
0.026889,-0.0077065,0.037638,0.0011814,0.011646,-0.00051556,0,0,0.06758,-0.027208,0,-0.0026809,0,0,0,0.037646,0.0011741,0.011646,-0.81003,0.016822,0.032525,1.1694e-06,0.66,0.79,0
0.027565,-0.0077893,0.037629,0.0010524,0.011604,-0.00044926,0,0,0.067664,-0.027435,0,-0.0023361,0,0,0,0.037635,0.0010469,0.011604,-0.7036,0.016762,0.032616,1.173e-06,0.67,0.79,0
0.028242,-0.0078677,0.037617,0.00093354,0.011565,-0.00038668,0,0,0.067735,-0.027642,0,-0.0020107,0,0,0,0.037621,0.00092946,0.011565,-0.60386,0.016705,0.032698,1.176e-06,0.68,0.79,0
0.02892,-0.0079419,0.037603,0.00082416,0.011528,-0.00032803,0,0,0.067795,-0.027831,0,-0.0017058,0,0,0,0.037606,0.00082124,0.011528,-0.51096,0.016652,0.032771,1.1785e-06,0.69,0.79,0
0.029598,-0.0080122,0.037588,0.00072359,0.011494,-0.00027345,0,0,0.067846,-0.028002,0,-0.0014219,0,0,0,0.03759,0.00072156,0.011494,-0.42497,0.016602,0.032836,1.1805e-06,0.7,0.79,0
0.030276,-0.0080785,0.037572,0.00063118,0.011461,-0.000223,0,0,0.067888,-0.028157,0,-0.0011596,0,0,0,0.037573,0.00062983,0.011461,-0.34586,0.016555,0.032894,1.1821e-06,0.71,0.79,0
0.030956,-0.008141,0.037555,0.00054629,0.01143,-0.00017668,0,0,0.067923,-0.028298,0,-0.00091875,0,0,0,0.037555,0.00054545,0.01143,-0.27353,0.01651,0.032945,1.1835e-06,0.72,0.79,0
0.031635,-0.0081999,0.037537,0.00046835,0.011402,-0.00013445,0,0,0.067952,-0.028426,0,-0.00069915,0,0,0,0.037537,0.00046786,0.011402,-0.20781,0.016469,0.032991,1.1845e-06,0.73,0.79,0
0.032315,-0.0082553,0.037519,0.0003968,0.011375,-9.623e-05,0,0,0.067975,-0.028542,0,-0.00050039,0,0,0,0.037519,0.00039655,0.011375,-0.14852,0.01643,0.033031,1.1852e-06,0.74,0.79,0
0.032994,-0.0083073,0.037501,0.00033113,0.01135,-6.1905e-05,0,0,0.067993,-0.028648,0,-0.00032191,0,0,0,0.037501,0.00033103,0.01135,-0.095425,0.016394,0.033067,1.1858e-06,0.75,0.79,0
0.033674,-0.0083561,0.037483,0.00027088,0.011326,-3.1346e-05,0,0,0.068007,-0.028743,0,-0.000163,0,0,0,0.037483,0.00027085,0.011326,-0.048265,0.01636,0.033099,1.1861e-06,0.76,0.79,0
0.034355,-0.0084018,0.037465,0.0002156,0.011304,-4.4019e-06,0,0,0.068018,-0.02883,0,-2.289e-05,0,0,0,0.037465,0.0002156,0.011304,-0.0067709,0.016328,0.033127,1.1864e-06,0.77,0.79,0
0.035035,-0.0084445,0.037447,0.00016491,0.011284,1.9089e-05,0,0,0.068026,-0.028909,0,9.9265e-05,0,0,0,0.037447,0.0001649,0.011284,0.029337,0.016299,0.033152,1.1865e-06,0.78,0.79,0
0.035715,-0.0084844,0.03743,0.00011843,0.011265,3.9298e-05,0,0,0.068031,-0.02898,0,0.00020435,0,0,0,0.037431,0.00011839,0.011265,0.060345,0.016271,0.033175,1.1864e-06,0.79,0.79,0
0.036395,-0.0085217,0.037414,7.5845e-05,0.011247,5.6398e-05,0,0,0.068035,-0.029045,0,0.00029327,0,0,0,0.037414,7.576e-05,0.011247,0.086542,0.016246,0.033194,1.1864e-06,0.8,0.79,0
0.037076,-0.0085563,0.037399,3.6849e-05,0.011231,7.0567e-05,0,0,0.068037,-0.029104,0,0.00036695,0,0,0,0.037399,3.6716e-05,0.011231,0.10822,0.016222,0.033211,1.1862e-06,0.81,0.79,0
0.037756,-0.0085885,0.037384,1.1717e-06,0.011215,8.1982e-05,0,0,0.068038,-0.029157,0,0.00042631,0,0,0,0.037384,9.9195e-07,0.011215,0.12565,0.0162,0.033227,1.186e-06,0.82,0.79,0
0.038436,-0.0086183,0.03737,-3.1432e-05,0.011201,9.082e-05,0,0,0.068037,-0.029206,0,0.00047226,0,0,0,0.03737,-3.1653e-05,0.011201,0.13913,0.01618,0.03324,1.1858e-06,0.83,0.79,0
0.039117,-0.0086458,0.037356,-6.1184e-05,0.011189,9.7253e-05,0,0,0.068036,-0.029249,0,0.00050572,0,0,0,0.037357,-6.1437e-05,0.011189,0.14892,0.016161,0.033252,1.1855e-06,0.84,0.79,0
0.039797,-0.0086712,0.037344,-8.8284e-05,0.011177,0.00010145,0,0,0.068035,-0.029289,0,0.00052755,0,0,0,0.037344,-8.8558e-05,0.011177,0.15529,0.016144,0.033263,1.1853e-06,0.85,0.79,0
0.040478,-0.0086946,0.037332,-0.00011291,0.011166,0.00010359,0,0,0.068033,-0.029325,0,0.00053864,0,0,0,0.037332,-0.0001132,0.011166,0.1585,0.016128,0.033272,1.185e-06,0.86,0.79,0
0.041158,-0.0087159,0.037321,-0.00013522,0.011156,0.00010381,0,0,0.06803,-0.029357,0,0.00053982,0,0,0,0.037322,-0.00013551,0.011156,0.15879,0.016114,0.03328,1.1847e-06,0.87,0.79,0
0.041838,-0.0087354,0.037311,-0.00015537,0.011147,0.00010229,0,0,0.068028,-0.029386,0,0.00053192,0,0,0,0.037312,-0.00015565,0.011147,0.15643,0.016101,0.033288,1.1844e-06,0.88,0.79,0
0.042518,-0.008753,0.037302,-0.00017348,0.011139,9.918e-05,0,0,0.068025,-0.029412,0,0.00051574,0,0,0,0.037303,-0.00017374,0.011139,0.15163,0.016089,0.033294,1.1842e-06,0.89,0.79,0
0.043199,-0.0087689,0.037294,-0.00018966,0.011131,9.4624e-05,0,0,0.068023,-0.029434,0,0.00049204,0,0,0,0.037294,-0.0001899,0.011131,0.14464,0.016078,0.0333,1.1839e-06,0.9,0.79,0
0.043879,-0.008783,0.037286,-0.00020402,0.011125,8.877e-05,0,0,0.06802,-0.029455,0,0.0004616,0,0,0,0.037287,-0.00020423,0.011125,0.13566,0.016069,0.033304,1.1837e-06,0.91,0.79,0
0.044559,-0.0087956,0.03728,-0.00021665,0.011119,8.1759e-05,0,0,0.068018,-0.029472,0,0.00042515,0,0,0,0.03728,-0.00021683,0.011119,0.12493,0.016061,0.033308,1.1835e-06,0.92,0.79,0
0.045239,-0.0088065,0.037274,-0.00022761,0.011114,7.373e-05,0,0,0.068016,-0.029488,0,0.00038339,0,0,0,0.037274,-0.00022776,0.011114,0.11265,0.016053,0.033312,1.1833e-06,0.93,0.79,0
0.045919,-0.0088159,0.037269,-0.00023699,0.011109,6.4816e-05,0,0,0.068014,-0.029501,0,0.00033704,0,0,0,0.037269,-0.0002371,0.011109,0.099016,0.016047,0.033315,1.1831e-06,0.94,0.79,0
0.0466,-0.0088238,0.037264,-0.00024483,0.011106,5.5151e-05,0,0,0.068012,-0.029512,0,0.00028678,0,0,0,0.037264,-0.00024491,0.011106,0.084243,0.016042,0.033317,1.183e-06,0.95,0.79,0
0.04728,-0.0088302,0.037261,-0.00025118,0.011103,4.4862e-05,0,0,0.068011,-0.029521,0,0.00023328,0,0,0,0.037261,-0.00025123,0.011103,0.068522,0.016038,0.033319,1.1828e-06,0.96,0.79,0
0.04796,-0.0088352,0.037258,-0.00025608,0.011101,3.4078e-05,0,0,0.06801,-0.029528,0,0.00017721,0,0,0,0.037258,-0.00025611,0.011101,0.052048,0.016034,0.033321,1.1827e-06,0.97,0.79,0
0.04864,-0.0088387,0.037256,-0.00025956,0.011099,2.2924e-05,0,0,0.068009,-0.029532,0,0.0001192,0,0,0,0.037256,-0.00025958,0.011099,0.03501,0.016032,0.033322,1.1827e-06,0.98,0.79,0
0.04932,-0.0088408,0.037255,-0.00026165,0.011098,1.1523e-05,0,0,0.068008,-0.029535,0,5.9921e-05,0,0,0,0.037255,-0.00026165,0.011098,0.017598,0.01603,0.033322,1.1826e-06,0.99,0.79,0
0.05,-0.0088415,0.037255,-0.00026234,0.011098,-1.3507e-05,0,0,0.068008,-0.029536,0,-7.0235e-05,0,0,0,0.037255,-0.00026234,0.011098,-0.020627,0.01603,0.033322,1.1826e-06,1,0.79,0
0,0,0.035587,0.015252,0.015252,-0.005238,0,0,0.026436,-2.1684e-19,0,-0.013619,0,0,0,0.036857,0.013982,0.015252,-13.628,0.02203,0.022268,5.6086e-07,0,0.8,0
0.00026436,-0.00013619,0.035526,0.014493,0.015006,-0.0052395,0,0,0.026676,-0.00066669,0,-0.013623,0,0,0,0.036759,0.01326,0.015006,-13.242,0.021675,0.022677,5.8696e-07,0.01,0.8,0
0.00053353,-0.00027598,0.035782,0.013843,0.014887,-0.0052906,0,0,0.027162,-0.0013573,0,-0.013756,0,0,0,0.036991,0.012634,0.014887,-12.874,0.021504,0.023312,6.302e-07,0.02,0.8,0
0.00080761,-0.00041879,0.036037,0.013175,0.014764,-0.0053099,0,0,0.027656,-0.0020654,0,-0.013806,0,0,0,0.037211,0.012002,0.014764,-12.458,0.021325,0.023948,6.7382e-07,0.03,0.8,0
0.0010866,-0.00056401,0.03629,0.012494,0.014635,-0.0052962,0,0,0.028151,-0.0027839,0,-0.01377,0,0,0,0.037415,0.011368,0.014635,-11.998,0.021139,0.024577,7.1726e-07,0.04,0.8,0
0.0013706,-0.000711,0.036535,0.011806,0.014502,-0.0052494,0,0,0.028643,-0.0035052,0,-0.013648,0,0,0,0.037604,0.010738,0.014502,-11.502,0.020948,0.025195,7.5999e-07,0.05,0.8,0
0.0016595,-0.00085912,0.036771,0.011119,0.014367,-0.0051703,0,0,0.029125,-0.0042218,0,-0.013443,0,0,0,0.037774,0.010117,0.014367,-10.978,0.020752,0.025796,8.015e-07,0.06,0.8,0
0.0019531,-0.0010077,0.036992,0.01044,0.01423,-0.0050606,0,0,0.029591,-0.0049268,0,-0.013158,0,0,0,0.037924,0.0095078,0.01423,-10.433,0.020554,0.026374,8.4133e-07,0.07,0.8,0
0.0022513,-0.0011563,0.037197,0.0097727,0.014091,-0.004923,0,0,0.030038,-0.0056137,0,-0.0128,0,0,0,0.038054,0.0089157,0.014091,-9.8748,0.020354,0.026926,8.7911e-07,0.08,0.8,0
0.0025539,-0.0013041,0.037383,0.0091234,0.013952,-0.0047608,0,0,0.030461,-0.0062772,0,-0.012378,0,0,0,0.038164,0.008343,0.013952,-9.3102,0.020153,0.02745,9.1453e-07,0.09,0.8,0
0.0028605,-0.0014509,0.03755,0.0084961,0.013814,-0.0045777,0,0,0.030857,-0.0069129,0,-0.011902,0,0,0,0.038254,0.0077919,0.013814,-8.7454,0.019953,0.027942,9.474e-07,0.1,0.8,0
0.003171,-0.001596,0.037695,0.0078938,0.013677,-0.0043776,0,0,0.031224,-0.0075176,0,-0.011382,0,0,0,0.038324,0.0072641,0.013677,-8.1861,0.019755,0.028402,9.7757e-07,0.11,0.8,0
0.003485,-0.0017391,0.037818,0.0073187,0.013541,-0.0041645,0,0,0.031561,-0.0080892,0,-0.010828,0,0,0,0.038377,0.0067603,0.013541,-7.637,0.01956,0.028831,1.005e-06,0.12,0.8,0
0.0038022,-0.00188,0.037921,0.0067721,0.013408,-0.0039422,0,0,0.031867,-0.0086266,0,-0.01025,0,0,0,0.038412,0.006281,0.013408,-7.1022,0.019367,0.029227,1.0298e-06,0.13,0.8,0
0.0041224,-0.0020183,0.038003,0.0062546,0.013277,-0.0037145,0,0,0.032143,-0.0091294,0,-0.0096578,0,0,0,0.038432,0.0058258,0.013277,-6.5851,0.019178,0.029592,1.0518e-06,0.14,0.8,0
0.0044451,-0.002154,0.038065,0.0057661,0.013149,-0.0034848,0,0,0.032391,-0.0095983,0,-0.0090604,0,0,0,0.038437,0.0053944,0.013149,-6.0884,0.018993,0.029928,1.0714e-06,0.15,0.8,0
0.0047702,-0.0022868,0.038109,0.0053058,0.013024,-0.003256,0,0,0.03261,-0.010034,0,-0.0084656,0,0,0,0.038429,0.0049857,0.013024,-5.6141,0.018813,0.030236,1.0886e-06,0.16,0.8,0
0.0050973,-0.0024168,0.038136,0.0048727,0.012903,-0.0030309,0,0,0.032803,-0.010439,0,-0.0078803,0,0,0,0.03841,0.0045988,0.012903,-5.164,0.018637,0.030518,1.1036e-06,0.17,0.8,0
0.0054262,-0.0025439,0.038147,0.0044654,0.012784,-0.0028117,0,0,0.032972,-0.010814,0,-0.0073104,0,0,0,0.03838,0.0042323,0.012784,-4.7393,0.018465,0.030776,1.1166e-06,0.18,0.8,0
0.0057567,-0.0026681,0.038144,0.0040822,0.012668,-0.0026004,0,0,0.033119,-0.011161,0,-0.0067611,0,0,0,0.038342,0.0038848,0.012668,-4.3407,0.018298,0.031012,1.1277e-06,0.19,0.8,0
0.0060886,-0.0027896,0.038129,0.0037212,0.012555,-0.0023987,0,0,0.033246,-0.011484,0,-0.0062367,0,0,0,0.038295,0.0035548,0.012555,-3.9688,0.018135,0.031228,1.1372e-06,0.2,0.8,0
0.0064217,-0.0029083,0.038102,0.0033807,0.012445,-0.0022079,0,0,0.033355,-0.011784,0,-0.0057405,0,0,0,0.038242,0.0032408,0.012445,-3.6239,0.017976,0.031427,1.1452e-06,0.21,0.8,0
0.0067557,-0.0030245,0.038066,0.0030584,0.012337,-0.0020291,0,0,0.033447,-0.012063,0,-0.0052756,0,0,0,0.038183,0.0029412,0.012337,-3.3062,0.017821,0.031609,1.1519e-06,0.22,0.8,0
0.0070906,-0.0031383,0.038021,0.0027525,0.012232,-0.0018631,0,0,0.033526,-0.012323,0,-0.0048441,0,0,0,0.03812,0.0026544,0.012232,-3.0155,0.017669,0.031778,1.1574e-06,0.23,0.8,0
0.0074262,-0.0032499,0.03797,0.0024609,0.012129,-0.0017107,0,0,0.033593,-0.012569,0,-0.0044478,0,0,0,0.038052,0.0023787,0.012129,-2.7518,0.01752,0.031935,1.162e-06,0.24,0.8,0
0.0077625,-0.0033595,0.037912,0.0021816,0.012028,-0.0015723,0,0,0.033649,-0.0128,0,-0.0040881,0,0,0,0.037981,0.0021126,0.012028,-2.5149,0.017374,0.032081,1.1657e-06,0.25,0.8,0
0.0080992,-0.0034673,0.037849,0.0019126,0.011929,-0.0014484,0,0,0.033697,-0.013021,0,-0.0037659,0,0,0,0.037908,0.0018543,0.011929,-2.3043,0.01723,0.03222,1.1687e-06,0.26,0.8,0
0.0084364,-0.0035735,0.037783,0.0016518,0.01183,-0.0013392,0,0,0.033738,-0.013232,0,-0.003482,0,0,0,0.037832,0.0016022,0.01183,-2.1199,0.017088,0.032352,1.1712e-06,0.27,0.8,0
0.008774,-0.0036783,0.037713,0.0013972,0.011733,-0.0012449,0,0,0.033774,-0.013437,0,-0.0032368,0,0,0,0.037756,0.0013545,0.011733,-1.9611,0.016948,0.03248,1.1732e-06,0.28,0.8,0
0.0091119,-0.0037819,0.037642,0.0011469,0.011637,-0.0011656,0,0,0.033807,-0.013637,0,-0.0030305,0,0,0,0.037679,0.0011097,0.011637,-1.8274,0.016808,0.032606,1.1749e-06,0.29,0.8,0
0.0094501,-0.0038847,0.037569,0.00089882,0.01154,-0.0011011,0,0,0.033837,-0.013834,0,-0.0028629,0,0,0,0.037602,0.00086579,0.01154,-1.7184,0.016669,0.032731,1.1764e-06,0.3,0.8,0
0.0097886,-0.0039868,0.037496,0.00065103,0.011444,-0.0010514,0,0,0.033867,-0.014031,0,-0.0027338,0,0,0,0.037526,0.00062105,0.011444,-1.6333,0.01653,0.032858,1.178e-06,0.31,0.8,0
0.010127,-0.0040885,0.037423,0.00040146,0.011347,-0.0010163,0,0,0.033899,-0.01423,0,-0.0026425,0,0,0,0.037451,0.00037358,0.011347,-1.5713,0.016391,0.032989,1.1796e-06,0.32,0.8,0
0.010467,-0.0041899,0.037353,0.0001481,0.01125,-0.00099544,0,0,0.033933,-0.014433,0,-0.0025881,0,0,0,0.037379,0.00012148,0.01125,-1.5315,0.01625,0.033126,1.1815e-06,0.33,0.8,0
0.010806,-0.0042914,0.037284,-0.00011112,0.011152,-0.00098828,0,0,0.033972,-0.014642,0,-0.0025695,0,0,0,0.037311,-0.00013722,0.011152,-1.5128,0.016108,0.033272,1.1837e-06,0.34,0.8,0
0.011146,-0.0043931,0.03722,-0.00037822,0.011052,-0.00099423,0,0,0.034017,-0.01486,0,-0.002585,0,0,0,0.037246,-0.0004045,0.011052,-1.5137,0.015965,0.033428,1.1865e-06,0.35,0.8,0
0.011487,-0.0044953,0.037159,-0.00065525,0.010951,-0.0010125,0,0,0.03407,-0.015088,0,-0.0026324,0,0,0,0.037186,-0.00068234,0.010951,-1.5326,0.015818,0.033598,1.1899e-06,0.36,0.8,0
0.011827,-0.004598,0.037104,-0.00094419,0.010848,-0.001042,0,0,0.034133,-0.01533,0,-0.0027092,0,0,0,0.037133,-0.0009727,0.010848,-1.5675,0.015669,0.033784,1.1941e-06,0.37,0.8,0
0.012169,-0.0047015,0.037056,-0.0012469,0.010743,-0.0010815,0,0,0.034207,-0.015587,0,-0.0028119,0,0,0,0.037087,-0.0012774,0.010743,-1.6161,0.015517,0.033987,1.1992e-06,0.38,0.8,0
0.012512,-0.0048059,0.037015,-0.0015652,0.010635,-0.0011295,0,0,0.034294,-0.01586,0,-0.0029368,0,0,0,0.037048,-0.0015982,0.010635,-1.6756,0.015362,0.034212,1.2054e-06,0.39,0.8,0
0.012855,-0.0049113,0.036983,-0.0019005,0.010525,-0.0011843,0,0,0.034396,-0.016153,0,-0.0030792,0,0,0,0.037019,-0.0019366,0.010525,-1.7429,0.015202,0.034459,1.2127e-06,0.4,0.8,0
0.013199,-0.0050176,0.03696,-0.0022542,0.010412,-0.0012437,0,0,0.034513,-0.016466,0,-0.0032337,0,0,0,0.036999,-0.0022936,0.010412,-1.8148,0.015039,0.03473,1.2213e-06,0.41,0.8,0
0.013545,-0.0051251,0.036947,-0.0026271,0.010296,-0.0013056,0,0,0.034646,-0.0168,0,-0.0033945,0,0,0,0.03699,-0.0026701,0.010296,-1.8875,0.014872,0.035026,1.231e-06,0.42,0.8,0
0.013892,-0.0052335,0.036944,-0.0030195,0.010177,-0.0013673,0,0,0.034797,-0.017156,0,-0.0035549,0,0,0,0.036991,-0.0030662,0.010177,-1.9572,0.014701,0.035347,1.242e-06,0.43,0.8,0
0.014241,-0.0053429,0.036951,-0.0034313,0.010056,-0.0014262,0,0,0.034964,-0.017534,0,-0.0037081,0,0,0,0.037002,-0.0034816,0.010056,-2.0201,0.014525,0.035695,1.2542e-06,0.44,0.8,0
0.014592,-0.0054531,0.036969,-0.0038618,0.0099322,-0.0014796,0,0,0.035148,-0.017932,0,-0.003847,0,0,0,0.037022,-0.0039153,0.0099322,-2.0726,0.014346,0.036066,1.2675e-06,0.45,0.8,0
0.014944,-0.0055639,0.036996,-0.0043094,0.009806,-0.0015249,0,0,0.035347,-0.01835,0,-0.0039648,0,0,0,0.037052,-0.0043656,0.009806,-2.1114,0.014164,0.03646,1.2816e-06,0.46,0.8,0
0.015299,-0.0056751,0.037032,-0.0047721,0.0096778,-0.0015596,0,0,0.03556,-0.018785,0,-0.0040549,0,0,0,0.03709,-0.0048302,0.0096778,-2.1336,0.013979,0.036873,1.2964e-06,0.47,0.8,0
0.015655,-0.0057864,0.037074,-0.0052472,0.0095482,-0.0015815,0,0,0.035784,-0.019234,0,-0.0041119,0,0,0,0.037133,-0.0053062,0.0095482,-2.1371,0.013792,0.037301,1.3116e-06,0.48,0.8,0
0.016014,-0.0058976,0.037123,-0.0057314,0.0094174,-0.0015889,0,0,0.036017,-0.019693,0,-0.0041313,0,0,0,0.037182,-0.0057903,0.0094174,-2.1205,0.013603,0.037741,1.327e-06,0.49,0.8,0
0.016376,-0.0060083,0.037151,-0.0006931,0.010937,-0.0015806,0,0,0.050088,-0.02016,0,-0.0061436,0,0,0,0.037218,-0.00076021,0.010937,-2.4341,0.015799,0.033758,1.1641e-06,0.5,0.8,0
0.017016,-0.0061589,0.037228,0.0045438,0.012531,-0.0015576,0,0,0.064211,-0.020768,0,-0.0080995,0,0,0,0.037302,0.0044697,0.012531,-2.7222,0.018101,0.029636,1.0108e-06,0.51,0.8,0
0.01766,-0.0063072,0.037281,0.0042358,0.012455,-0.0015235,0,0,0.064548,-0.02137,0,-0.007922,0,0,0,0.037351,0.0041657,0.012455,-2.634,0.017991,0.029915,1.0273e-06,0.52,0.8,0
0.018307,-0.0064529,0.037332,0.0039334,0.01238,-0.0014797,0,0,0.064877,-0.021961,0,-0.0076945,0,0,0,0.037398,0.0038679,0.01238,-2.5318,0.017882,0.030188,1.0434e-06,0.53,0.8,0
0.018957,-0.0065956,0.03738,0.0036388,0.012306,-0.0014269,0,0,0.065194,-0.022534,0,-0.0074201,0,0,0,0.037441,0.0035786,0.012306,-2.4173,0.017775,0.030451,1.0587e-06,0.54,0.8,0
0.019611,-0.006735,0.037424,0.003354,0.012233,-0.001366,0,0,0.065496,-0.023087,0,-0.0071032,0,0,0,0.037479,0.0032994,0.012233,-2.2923,0.017671,0.030704,1.0732e-06,0.55,0.8,0
0.020267,-0.0068705,0.037464,0.0030808,0.012163,-0.001298,0,0,0.065781,-0.023615,0,-0.0067498,0,0,0,0.037512,0.0030318,0.012163,-2.159,0.017569,0.030943,1.0867e-06,0.56,0.8,0
0.020927,-0.0070021,0.037497,0.0028203,0.012095,-0.0012243,0,0,0.066045,-0.024115,0,-0.0063663,0,0,0,0.037541,0.0027771,0.012095,-2.0195,0.017471,0.031167,1.0992e-06,0.57,0.8,0
0.021588,-0.0071294,0.037526,0.0025736,0.01203,-0.0011461,0,0,0.066289,-0.024586,0,-0.0059596,0,0,0,0.037563,0.0025361,0.01203,-1.8761,0.017376,0.031377,1.1105e-06,0.58,0.8,0
0.022252,-0.0072522,0.037548,0.0023413,0.011967,-0.0010648,0,0,0.066511,-0.025026,0,-0.0055369,0,0,0,0.03758,0.0023091,0.011967,-1.7308,0.017285,0.03157,1.1208e-06,0.59,0.8,0
0.022919,-0.0073704,0.037564,0.0021237,0.011906,-0.00098173,0,0,0.06671,-0.025435,0,-0.005105,0,0,0,0.037591,0.0020965,0.011906,-1.5855,0.017198,0.031748,1.13e-06,0.6,0.8,0
0.023586,-0.0074838,0.037575,0.0019208,0.011849,-0.00089812,0,0,0.066889,-0.025813,0,-0.0046702,0,0,0,0.037598,0.0018981,0.011849,-1.442,0.017115,0.03191,1.1381e-06,0.61,0.8,0
0.024256,-0.0075924,0.037581,0.0017323,0.011794,-0.00081506,0,0,0.067046,-0.02616,0,-0.0042383,0,0,0,0.037599,0.0017137,0.011794,-1.3018,0.017036,0.032057,1.1451e-06,0.62,0.8,0
0.024927,-0.0076962,0.037582,0.0015578,0.011742,-0.00073352,0,0,0.067184,-0.026479,0,-0.0038143,0,0,0,0.037597,0.0015428,0.011742,-1.166,0.01696,0.03219,1.1512e-06,0.63,0.8,0
0.0256,-0.0077952,0.037578,0.0013967,0.011692,-0.00065431,0,0,0.067303,-0.026769,0,-0.0034024,0,0,0,0.03759,0.0013849,0.011692,-1.0357,0.016889,0.032309,1.1565e-06,0.64,0.8,0
0.026274,-0.0078894,0.037571,0.0012484,0.011646,-0.0005781,0,0,0.067406,-0.027034,0,-0.0030061,0,0,0,0.03758,0.0012392,0.011646,-0.91158,0.016822,0.032416,1.1609e-06,0.65,0.8,0
0.026948,-0.0079789,0.037561,0.001112,0.011602,-0.0005054,0,0,0.067494,-0.027274,0,-0.0026281,0,0,0,0.037568,0.001105,0.011602,-0.79426,0.016758,0.032511,1.1646e-06,0.66,0.8,0
0.027623,-0.0080639,0.037548,0.00098682,0.01156,-0.00043662,0,0,0.067568,-0.027491,0,-0.0022704,0,0,0,0.037553,0.0009816,0.01156,-0.6841,0.016698,0.032596,1.1677e-06,0.67,0.8,0
0.028299,-0.0081443,0.037533,0.00087205,0.011522,-0.00037202,0,0,0.067629,-0.027688,0,-0.0019345,0,0,0,0.037537,0.00086828,0.011522,-0.58134,0.016642,0.032671,1.1702e-06,0.68,0.8,0
0.028976,-0.0082205,0.037516,0.00076692,0.011485,-0.00031179,0,0,0.067681,-0.027867,0,-0.0016213,0,0,0,0.037519,0.00076427,0.011485,-0.48607,0.016589,0.032738,1.1722e-06,0.69,0.8,0
0.029653,-0.0082923,0.037498,0.00067066,0.011451,-0.00025602,0,0,0.067723,-0.028028,0,-0.0013313,0,0,0,0.037499,0.00066887,0.011451,-0.3983,0.01654,0.032797,1.1738e-06,0.7,0.8,0
0.03033,-0.0083602,0.037479,0.00058255,0.011418,-0.00020473,0,0,0.067757,-0.028173,0,-0.0010646,0,0,0,0.03748,0.00058142,0.011418,-0.31791,0.016493,0.032849,1.175e-06,0.71,0.8,0
0.031008,-0.008424,0.037459,0.00050193,0.011388,-0.00015788,0,0,0.067784,-0.028304,0,-0.00082096,0,0,0,0.03746,0.00050126,0.011388,-0.24475,0.01645,0.032895,1.1759e-06,0.72,0.8,0
0.031686,-0.0084842,0.037439,0.00042817,0.01136,-0.00011538,0,0,0.067805,-0.028423,0,-0.00059997,0,0,0,0.03744,0.00042781,0.01136,-0.17861,0.016409,0.032936,1.1766e-06,0.73,0.8,0
0.032364,-0.0085407,0.037419,0.00036069,0.011334,-7.7121e-05,0,0,0.067822,-0.028531,0,-0.00040103,0,0,0,0.037419,0.00036053,0.011334,-0.11924,0.016371,0.032971,1.177e-06,0.74,0.8,0
0.033043,-0.0085937,0.037399,0.00029895,0.01131,-4.2955e-05,0,0,0.067834,-0.028627,0,-0.00022337,0,0,0,0.037399,0.00029889,0.01131,-0.066338,0.016336,0.033003,1.1773e-06,0.75,0.8,0
0.033721,-0.0086434,0.03738,0.00024245,0.011287,-1.2717e-05,0,0,0.067842,-0.028715,0,-6.613e-05,0,0,0,0.03738,0.00024245,0.011287,-0.01962,0.016303,0.03303,1.1774e-06,0.76,0.8,0
0.034399,-0.0086899,0.037361,0.00019077,0.011265,1.3772e-05,0,0,0.067848,-0.028794,0,7.1612e-05,0,0,0,0.037361,0.00019076,0.011265,0.021228,0.016272,0.033055,1.1773e-06,0.77,0.8,0
0.035078,-0.0087334,0.037343,0.00014349,0.011246,3.6698e-05,0,0,0.067851,-0.028866,0,0.00019083,0,0,0,0.037343,0.00014345,0.011246,0.056524,0.016244,0.033076,1.1772e-06,0.78,0.8,0
0.035756,-0.008774,0.037325,0.00010024,0.011227,5.6255e-05,0,0,0.067853,-0.028931,0,0.00029253,0,0,0,0.037325,0.00010016,0.011227,0.086587,0.016217,0.033095,1.177e-06,0.79,0.8,0
0.036435,-0.0088119,0.037308,6.0697e-05,0.011211,7.2636e-05,0,0,0.067853,-0.02899,0,0.00037771,0,0,0,0.037308,6.0555e-05,0.011211,0.11173,0.016193,0.033112,1.1768e-06,0.8,0.8,0
0.037114,-0.0088471,0.037292,2.4559e-05,0.011195,8.6034e-05,0,0,0.067852,-0.029043,0,0.00044738,0,0,0,0.037292,2.436e-05,0.011195,0.13227,0.01617,0.033126,1.1765e-06,0.81,0.8,0
0.037792,-0.0088797,0.037276,-8.4433e-06,0.01118,9.664e-05,0,0,0.06785,-0.029091,0,0.00050253,0,0,0,0.037277,-8.6938e-06,0.01118,0.14851,0.01615,0.033139,1.1762e-06,0.82,0.8,0
0.03847,-0.00891,0.037262,-3.8552e-05,0.011167,0.00010464,0,0,0.067847,-0.029135,0,0.00054414,0,0,0,0.037262,-3.8846e-05,0.011167,0.16073,0.01613,0.033151,1.1758e-06,0.83,0.8,0
0.039149,-0.008938,0.037249,-6.5985e-05,0.011155,0.00011022,0,0,0.067844,-0.029174,0,0.00057316,0,0,0,0.037249,-6.6311e-05,0.011155,0.16924,0.016112,0.033161,1.1755e-06,0.84,0.8,0
0.039827,-0.0089637,0.037236,-9.0937e-05,0.011144,0.00011356,0,0,0.06784,-0.02921,0,0.00059052,0,0,0,0.037236,-9.1283e-05,0.011144,0.17431,0.016096,0.033169,1.1751e-06,0.85,0.8,0
0.040506,-0.0089874,0.037224,-0.00011358,0.011133,0.00011483,0,0,0.067837,-0.029242,0,0.00059712,0,0,0,0.037225,-0.00011394,0.011133,0.17621,0.016081,0.033177,1.1748e-06,0.86,0.8,0
0.041184,-0.0090091,0.037213,-0.00013408,0.011124,0.0001142,0,0,0.067833,-0.029271,0,0.00059382,0,0,0,0.037214,-0.00013443,0.011124,0.17519,0.016068,0.033184,1.1745e-06,0.87,0.8,0
0.041862,-0.0090288,0.037204,-0.00015257,0.011115,0.00011182,0,0,0.067829,-0.029296,0,0.00058146,0,0,0,0.037204,-0.0001529,0.011115,0.1715,0.016055,0.03319,1.1741e-06,0.88,0.8,0
0.042541,-0.0090467,0.037194,-0.00016917,0.011108,0.00010786,0,0,0.067826,-0.02932,0,0.00056087,0,0,0,0.037195,-0.00016948,0.011108,0.1654,0.016044,0.033195,1.1738e-06,0.89,0.8,0
0.043219,-0.0090627,0.037186,-0.00018399,0.011101,0.00010247,0,0,0.067822,-0.02934,0,0.00053282,0,0,0,0.037186,-0.00018427,0.011101,0.1571,0.016034,0.033199,1.1735e-06,0.9,0.8,0
0.043897,-0.0090771,0.037179,-0.00019713,0.011095,9.5784e-05,0,0,0.067819,-0.029358,0,0.00049808,0,0,0,0.037179,-0.00019738,0.011095,0.14683,0.016025,0.033203,1.1733e-06,0.91,0.8,0
0.044575,-0.0090898,0.037172,-0.00020868,0.011089,8.7958e-05,0,0,0.067816,-0.029374,0,0.00045738,0,0,0,0.037172,-0.00020888,0.011089,0.13482,0.016018,0.033207,1.173e-06,0.92,0.8,0
0.045254,-0.0091009,0.037167,-0.0002187,0.011084,7.9124e-05,0,0,0.067814,-0.029388,0,0.00041145,0,0,0,0.037167,-0.00021887,0.011084,0.12126,0.016011,0.03321,1.1728e-06,0.93,0.8,0
0.045932,-0.0091104,0.037162,-0.00022726,0.01108,6.9418e-05,0,0,0.067811,-0.0294,0,0.00036097,0,0,0,0.037162,-0.00022739,0.01108,0.10638,0.016005,0.033212,1.1726e-06,0.94,0.8,0
0.04661,-0.0091184,0.037158,-0.00023442,0.011077,5.8969e-05,0,0,0.067809,-0.02941,0,0.00030664,0,0,0,0.037158,-0.00023452,0.011077,0.090358,0.016,0.033214,1.1725e-06,0.95,0.8,0
0.047288,-0.0091249,0.037154,-0.00024022,0.011074,4.7906e-05,0,0,0.067808,-0.029417,0,0.00024911,0,0,0,0.037154,-0.00024028,0.011074,0.073401,0.015996,0.033215,1.1723e-06,0.96,0.8,0
0.047966,-0.0091299,0.037151,-0.0002447,0.011072,3.6354e-05,0,0,0.067807,-0.029423,0,0.00018904,0,0,0,0.037151,-0.00024473,0.011072,0.055699,0.015993,0.033217,1.1722e-06,0.97,0.8,0
0.048644,-0.0091335,0.03715,-0.00024787,0.011071,2.4438e-05,0,0,0.067806,-0.029428,0,0.00012708,0,0,0,0.03715,-0.00024789,0.011071,0.037441,0.015991,0.033217,1.1722e-06,0.98,0.8,0
0.049322,-0.0091356,0.037149,-0.00024977,0.01107,1.2279e-05,0,0,0.067805,-0.02943,0,6.3853e-05,0,0,0,0.037149,-0.00024977,0.01107,0.018813,0.015989,0.033218,1.1721e-06,0.99,0.8,0
0.05,-0.0091363,0.037148,-0.0002504,0.011069,-1.3681e-05,0,0,0.067805,-0.029431,0,-7.1142e-05,0,0,0,0.037148,-0.00025041,0.011069,-0.02096,0.015989,0.033218,1.1721e-06,1,0.8,0
0,0,0.035833,0.015357,0.015357,-0.0055003,0,0,0.026619,1.8973e-19,0,-0.014301,0,0,0,0.037217,0.013973,0.015357,-14.123,0.022182,0.022584,5.8409e-07,0,0.81,0
0.00026619,-0.00014301,0.035769,0.014562,0.015099,-0.0055014,0,0,0.026871,-0.00069869,0,-0.014304,0,0,0,0.037111,0.01322,0.015099,-13.711,0.02181,0.023009,6.116e-07,0.01,0.81,0
0.00053741,-0.00028987,0.036037,0.013879,0.014975,-0.0055546,0,0,0.02738,-0.0014241,0,-0.014442,0,0,0,0.037351,0.012565,0.014975,-13.314,0.02163,0.023674,6.5766e-07,0.02,0.81,0
0.00081379,-0.00043993,0.036304,0.013176,0.014844,-0.0055722,0,0,0.027898,-0.0021686,0,-0.014488,0,0,0,0.037577,0.011903,0.014844,-12.864,0.021441,0.024337,7.0398e-07,0.03,0.81,0
0.0010954,-0.00059251,0.036568,0.012459,0.014708,-0.0055529,0,0,0.028418,-0.0029238,0,-0.014437,0,0,0,0.037785,0.011241,0.014708,-12.367,0.021245,0.024991,7.4993e-07,0.04,0.81,0
0.0013821,-0.00074688,0.036823,0.011736,0.014568,-0.0054963,0,0,0.028931,-0.0036809,0,-0.01429,0,0,0,0.037974,0.010585,0.014568,-11.831,0.021042,0.025631,7.9486e-07,0.05,0.81,0
0.001674,-0.00090233,0.037065,0.011016,0.014424,-0.0054037,0,0,0.029433,-0.0044312,0,-0.014049,0,0,0,0.038142,0.0099393,0.014424,-11.266,0.020835,0.026249,8.382e-07,0.06,0.81,0
0.0019708,-0.0010581,0.037292,0.010305,0.014279,-0.0052773,0,0,0.029917,-0.0051664,0,-0.013721,0,0,0,0.038287,0.0093097,0.014279,-10.68,0.020625,0.02684,8.7942e-07,0.07,0.81,0
0.0022723,-0.0012137,0.0375,0.0096103,0.014133,-0.0051204,0,0,0.030377,-0.0058795,0,-0.013313,0,0,0,0.03841,0.0086999,0.014133,-10.081,0.020414,0.027401,9.1812e-07,0.08,0.81,0
0.0025783,-0.0013683,0.037686,0.0089375,0.013987,-0.004937,0,0,0.030808,-0.0065644,0,-0.012836,0,0,0,0.03851,0.0081133,0.013987,-9.4778,0.020203,0.027927,9.5398e-07,0.09,0.81,0
0.0028885,-0.0015214,0.037849,0.0082908,0.013842,-0.0047315,0,0,0.031209,-0.0072166,0,-0.012302,0,0,0,0.038588,0.0075519,0.013842,-8.876,0.019994,0.028418,9.8684e-07,0.1,0.81,0
0.0032025,-0.0016726,0.037989,0.0076735,0.013699,-0.0045085,0,0,0.031577,-0.0078328,0,-0.011722,0,0,0,0.038645,0.0070172,0.013699,-8.2823,0.019787,0.028873,1.0166e-06,0.11,0.81,0
0.0035201,-0.0018215,0.038105,0.0070878,0.013558,-0.0042727,0,0,0.031911,-0.0084111,0,-0.011109,0,0,0,0.038683,0.00651,0.013558,-7.7015,0.019584,0.029292,1.0432e-06,0.12,0.81,0
0.0038408,-0.0019678,0.038198,0.0065346,0.01342,-0.0040283,0,0,0.032211,-0.0089507,0,-0.010474,0,0,0,0.038702,0.0060301,0.01342,-7.138,0.019384,0.029676,1.0668e-06,0.13,0.81,0
0.0041643,-0.0021112,0.038268,0.0060142,0.013285,-0.0037797,0,0,0.032479,-0.0094518,0,-0.0098271,0,0,0,0.038705,0.0055772,0.013285,-6.5951,0.019189,0.030026,1.0876e-06,0.14,0.81,0
0.0044903,-0.0022515,0.038318,0.0055261,0.013153,-0.0035302,0,0,0.032714,-0.0099154,0,-0.0091786,0,0,0,0.038694,0.0051503,0.013153,-6.0755,0.018999,0.030344,1.1055e-06,0.15,0.81,0
0.0048186,-0.0023887,0.038349,0.0050691,0.013025,-0.0032833,0,0,0.03292,-0.010343,0,-0.0085367,0,0,0,0.03867,0.0047483,0.013025,-5.5811,0.018814,0.030633,1.121e-06,0.16,0.81,0
0.0051487,-0.0025226,0.038361,0.0046419,0.012901,-0.0030417,0,0,0.033099,-0.010737,0,-0.0079084,0,0,0,0.038634,0.0043697,0.012901,-5.1134,0.018635,0.030895,1.1342e-06,0.17,0.81,0
0.0054805,-0.0026534,0.038358,0.0042426,0.01278,-0.0028077,0,0,0.033252,-0.011099,0,-0.0073,0,0,0,0.038588,0.004013,0.01278,-4.6734,0.018461,0.031131,1.1452e-06,0.18,0.81,0
0.0058138,-0.0027811,0.038342,0.003869,0.012663,-0.0025832,0,0,0.033382,-0.011432,0,-0.0067164,0,0,0,0.038534,0.0036765,0.012663,-4.2618,0.018291,0.031346,1.1545e-06,0.19,0.81,0
0.0061482,-0.0029057,0.038312,0.0035192,0.012549,-0.0023699,0,0,0.033492,-0.011739,0,-0.0061617,0,0,0,0.038473,0.0033586,0.012549,-3.8788,0.018127,0.03154,1.162e-06,0.2,0.81,0
0.0064836,-0.0030273,0.038272,0.003191,0.012439,-0.0021689,0,0,0.033583,-0.012022,0,-0.0056392,0,0,0,0.038406,0.0030574,0.012439,-3.5245,0.017967,0.031716,1.1681e-06,0.21,0.81,0
0.0068198,-0.0031462,0.038222,0.0028819,0.012331,-0.0019814,0,0,0.033658,-0.012284,0,-0.0051515,0,0,0,0.038333,0.0027712,0.012331,-3.1989,0.017812,0.031876,1.1729e-06,0.22,0.81,0
0.0071568,-0.0032626,0.038165,0.0025899,0.012226,-0.0018079,0,0,0.03372,-0.012528,0,-0.0047006,0,0,0,0.038257,0.0024983,0.012226,-2.9018,0.01766,0.032022,1.1766e-06,0.23,0.81,0
0.0074943,-0.0033765,0.038101,0.0023127,0.012124,-0.0016493,0,0,0.03377,-0.012755,0,-0.0042881,0,0,0,0.038177,0.0022369,0.012124,-2.633,0.017513,0.032157,1.1793e-06,0.24,0.81,0
0.0078322,-0.0034883,0.038031,0.0020482,0.012024,-0.0015057,0,0,0.03381,-0.012968,0,-0.0039149,0,0,0,0.038094,0.0019853,0.012024,-2.392,0.017368,0.032282,1.1813e-06,0.25,0.81,0
0.0081704,-0.0035982,0.037957,0.0017943,0.011925,-0.0013777,0,0,0.033841,-0.01317,0,-0.0035819,0,0,0,0.03801,0.0017419,0.011925,-2.1785,0.017226,0.032399,1.1827e-06,0.26,0.81,0
0.008509,-0.0037064,0.03788,0.0015487,0.011829,-0.0012653,0,0,0.033867,-0.013364,0,-0.0032897,0,0,0,0.037924,0.0015047,0.011829,-1.9922,0.017086,0.032511,1.1835e-06,0.27,0.81,0
0.0088478,-0.0038132,0.037799,0.0013095,0.011733,-0.0011686,0,0,0.033887,-0.01355,0,-0.0030385,0,0,0,0.037837,0.0012721,0.011733,-1.8325,0.016947,0.032618,1.1839e-06,0.28,0.81,0
0.0091867,-0.0039188,0.037718,0.0010746,0.011638,-0.0010878,0,0,0.033904,-0.013732,0,-0.0028283,0,0,0,0.03775,0.0010423,0.011638,-1.6989,0.01681,0.032723,1.1841e-06,0.29,0.81,0
0.0095259,-0.0040234,0.037635,0.00084179,0.011543,-0.0010228,0,0,0.033919,-0.013912,0,-0.0026592,0,0,0,0.037663,0.00081339,0.011543,-1.5911,0.016673,0.032828,1.1841e-06,0.3,0.81,0
0.0098651,-0.0041274,0.037552,0.00060912,0.011448,-0.00097335,0,0,0.033935,-0.014091,0,-0.0025307,0,0,0,0.037577,0.00058349,0.011448,-1.5082,0.016536,0.032934,1.1842e-06,0.31,0.81,0
0.010205,-0.004231,0.03747,0.00037442,0.011353,-0.00093937,0,0,0.033951,-0.014272,0,-0.0024424,0,0,0,0.037493,0.00035065,0.011353,-1.4497,0.016399,0.033045,1.1844e-06,0.32,0.81,0
0.010544,-0.0043344,0.037389,0.00013554,0.011257,-0.00092053,0,0,0.033971,-0.014458,0,-0.0023934,0,0,0,0.037412,0.00011281,0.011257,-1.4146,0.016261,0.033162,1.1849e-06,0.33,0.81,0
0.010884,-0.0044379,0.037311,-0.0001097,0.011161,-0.00091638,0,0,0.033996,-0.014651,0,-0.0023826,0,0,0,0.037334,-0.00013213,0.011161,-1.402,0.016121,0.033288,1.1858e-06,0.34,0.81,0
0.011224,-0.0045417,0.037237,-0.00036352,0.011062,-0.00092633,0,0,0.034028,-0.014853,0,-0.0024085,0,0,0,0.03726,-0.00038633,0.011062,-1.4104,0.015978,0.033426,1.1872e-06,0.35,0.81,0
0.011565,-0.0046461,0.037167,-0.00062814,0.010962,-0.00094962,0,0,0.034067,-0.015067,0,-0.002469,0,0,0,0.037191,-0.00065199,0.010962,-1.4384,0.015834,0.033578,1.1894e-06,0.36,0.81,0
0.011905,-0.0047512,0.037103,-0.00090577,0.010859,-0.00098526,0,0,0.034117,-0.015295,0,-0.0025617,0,0,0,0.037129,-0.0009313,0.010859,-1.4839,0.015686,0.033747,1.1924e-06,0.37,0.81,0
0.012247,-0.0048572,0.037046,-0.0011986,0.010754,-0.001032,0,0,0.03418,-0.015539,0,-0.0026832,0,0,0,0.037074,-0.0012264,0.010754,-1.5446,0.015534,0.033935,1.1964e-06,0.38,0.81,0
0.012589,-0.0049642,0.036997,-0.0015086,0.010646,-0.0010883,0,0,0.034256,-0.015802,0,-0.0028295,0,0,0,0.037028,-0.0015393,0.010646,-1.6176,0.015378,0.034146,1.2016e-06,0.39,0.81,0
0.012932,-0.0050725,0.036957,-0.0018376,0.010536,-0.0011523,0,0,0.034347,-0.016085,0,-0.0029959,0,0,0,0.036991,-0.0018718,0.010536,-1.6998,0.015218,0.034381,1.2081e-06,0.4,0.81,0
0.013276,-0.005182,0.036926,-0.0021872,0.010422,-0.0012218,0,0,0.034456,-0.016392,0,-0.0031767,0,0,0,0.036964,-0.0022253,0.010422,-1.7874,0.015054,0.034643,1.2159e-06,0.41,0.81,0
0.013621,-0.0052927,0.036907,-0.0025585,0.010304,-0.0012943,0,0,0.034583,-0.016722,0,-0.0033652,0,0,0,0.036949,-0.0026009,0.010304,-1.8764,0.014884,0.034934,1.2251e-06,0.42,0.81,0
0.013968,-0.0054047,0.036899,-0.0029522,0.010184,-0.0013671,0,0,0.034729,-0.017077,0,-0.0035544,0,0,0,0.036945,-0.0029991,0.010184,-1.9625,0.01471,0.035253,1.2357e-06,0.43,0.81,0
0.014316,-0.0055179,0.036902,-0.0033683,0.01006,-0.0014371,0,0,0.034894,-0.017457,0,-0.0037364,0,0,0,0.036953,-0.0034195,0.01006,-2.0412,0.014531,0.035601,1.2478e-06,0.44,0.81,0
0.014665,-0.0056321,0.036916,-0.0038059,0.0099331,-0.0015012,0,0,0.035078,-0.017861,0,-0.0039031,0,0,0,0.036972,-0.0038611,0.0099331,-2.1084,0.014348,0.035977,1.261e-06,0.45,0.81,0
0.015017,-0.0057471,0.036942,-0.0042635,0.0098034,-0.0015563,0,0,0.03528,-0.018287,0,-0.0040465,0,0,0,0.037,-0.0043222,0.0098034,-2.16,0.01416,0.036378,1.2753e-06,0.46,0.81,0
0.015371,-0.0058627,0.036977,-0.0047389,0.0096713,-0.0015996,0,0,0.035497,-0.018733,0,-0.0041591,0,0,0,0.037038,-0.0048001,0.0096713,-2.1928,0.01397,0.036802,1.2904e-06,0.47,0.81,0
0.015727,-0.0059786,0.037019,-0.0052287,0.0095372,-0.0016286,0,0,0.035727,-0.019196,0,-0.0042342,0,0,0,0.037082,-0.0052914,0.0095372,-2.2042,0.013776,0.037243,1.3061e-06,0.48,0.81,0
0.016086,-0.0060945,0.037069,-0.0057294,0.0094018,-0.0016411,0,0,0.035967,-0.019671,0,-0.0042667,0,0,0,0.037132,-0.0057922,0.0094018,-2.1926,0.01358,0.037698,1.3219e-06,0.49,0.81,0
0.016446,-0.0062099,0.037097,-0.00071059,0.010916,-0.0016355,0,0,0.050027,-0.020153,0,-0.0063578,0,0,0,0.037169,-0.0007825,0.010916,-2.5207,0.015768,0.033732,1.1601e-06,0.5,0.81,0
0.017086,-0.0063666,0.037177,0.0045141,0.012507,-0.0016126,0,0,0.064141,-0.020782,0,-0.0083856,0,0,0,0.037256,0.0044347,0.012507,-2.8197,0.018066,0.029622,1.0082e-06,0.51,0.81,0
0.017729,-0.0065211,0.037231,0.0041954,0.012428,-0.0015769,0,0,0.064488,-0.021405,0,-0.0082001,0,0,0,0.037306,0.0041203,0.012428,-2.7267,0.017951,0.02991,1.0252e-06,0.52,0.81,0
0.018376,-0.0066728,0.037283,0.0038829,0.01235,-0.0015303,0,0,0.064827,-0.022014,0,-0.0079578,0,0,0,0.037353,0.0038129,0.01235,-2.6179,0.017839,0.030191,1.0416e-06,0.53,0.81,0
0.019026,-0.0068213,0.037332,0.0035791,0.012273,-0.0014736,0,0,0.065152,-0.022605,0,-0.0076627,0,0,0,0.037396,0.0035149,0.012273,-2.4951,0.017728,0.030461,1.0573e-06,0.54,0.81,0
0.019679,-0.0069662,0.037375,0.0032863,0.012198,-0.0014077,0,0,0.06546,-0.023172,0,-0.0073203,0,0,0,0.037434,0.0032282,0.012198,-2.3607,0.01762,0.030719,1.0719e-06,0.55,0.81,0
0.020335,-0.0071071,0.037414,0.0030062,0.012126,-0.0013342,0,0,0.065748,-0.023711,0,-0.0069377,0,0,0,0.037465,0.0029546,0.012126,-2.2172,0.017515,0.030961,1.0855e-06,0.56,0.81,0
0.020994,-0.0072438,0.037446,0.0027405,0.012056,-0.0012544,0,0,0.066015,-0.02422,0,-0.0065228,0,0,0,0.037491,0.0026952,0.012056,-2.0673,0.017414,0.031188,1.0979e-06,0.57,0.81,0
0.021655,-0.0073758,0.037472,0.00249,0.011989,-0.0011699,0,0,0.066257,-0.024696,0,-0.0060837,0,0,0,0.037511,0.0024509,0.011989,-1.9134,0.017317,0.031397,1.1091e-06,0.58,0.81,0
0.022319,-0.007503,0.037492,0.0022554,0.011924,-0.0010825,0,0,0.066475,-0.025139,0,-0.0056288,0,0,0,0.037525,0.0022222,0.011924,-1.7579,0.017224,0.031589,1.1191e-06,0.59,0.81,0
0.022985,-0.0076252,0.037505,0.0020369,0.011862,-0.00099341,0,0,0.06667,-0.025547,0,-0.0051657,0,0,0,0.037533,0.0020091,0.011862,-1.6031,0.017135,0.031764,1.1278e-06,0.6,0.81,0
0.023652,-0.0077424,0.037512,0.0018343,0.011804,-0.00090418,0,0,0.066841,-0.025921,0,-0.0047017,0,0,0,0.037535,0.0018114,0.011804,-1.4508,0.01705,0.031923,1.1355e-06,0.61,0.81,0
0.024322,-0.0078545,0.037514,0.0016472,0.011748,-0.00081598,0,0,0.06699,-0.026263,0,-0.0042431,0,0,0,0.037532,0.0016286,0.011748,-1.3026,0.01697,0.032065,1.142e-06,0.62,0.81,0
0.024992,-0.0079614,0.037511,0.001475,0.011696,-0.00072985,0,0,0.067119,-0.026574,0,-0.0037952,0,0,0,0.037525,0.0014602,0.011696,-1.1598,0.016894,0.032192,1.1476e-06,0.63,0.81,0
0.025664,-0.0080633,0.037503,0.001317,0.011646,-0.00064663,0,0,0.067228,-0.026856,0,-0.0033625,0,0,0,0.037515,0.0013054,0.011646,-1.0234,0.016822,0.032305,1.1523e-06,0.64,0.81,0
0.026337,-0.0081601,0.037492,0.0011722,0.011599,-0.000567,0,0,0.067321,-0.02711,0,-0.0029484,0,0,0,0.037501,0.0011634,0.011599,-0.89418,0.016754,0.032405,1.1562e-06,0.65,0.81,0
0.02701,-0.008252,0.037478,0.0010399,0.011555,-0.00049147,0,0,0.067398,-0.02734,0,-0.0025557,0,0,0,0.037484,0.0010333,0.011555,-0.77262,0.016691,0.032494,1.1593e-06,0.66,0.81,0
0.027685,-0.0083391,0.037461,0.00091913,0.011514,-0.0004204,0,0,0.067462,-0.027547,0,-0.0021861,0,0,0,0.037466,0.00091429,0.011514,-0.65906,0.016631,0.032572,1.1619e-06,0.67,0.81,0
0.02836,-0.0084215,0.037442,0.00080893,0.011475,-0.00035403,0,0,0.067514,-0.027733,0,-0.001841,0,0,0,0.037446,0.00080551,0.011475,-0.55364,0.016575,0.03264,1.1639e-06,0.68,0.81,0
0.029035,-0.0084993,0.037422,0.00070845,0.011439,-0.00029248,0,0,0.067556,-0.0279,0,-0.0015209,0,0,0,0.037424,0.00070612,0.011439,-0.45641,0.016523,0.032701,1.1654e-06,0.69,0.81,0
0.029711,-0.0085727,0.037401,0.00061687,0.011405,-0.00023579,0,0,0.067588,-0.02805,0,-0.0012261,0,0,0,0.037402,0.00061536,0.011405,-0.36725,0.016474,0.032753,1.1665e-06,0.7,0.81,0
0.030387,-0.008642,0.037379,0.00053341,0.011374,-0.00018394,0,0,0.067614,-0.028185,0,-0.00095648,0,0,0,0.03738,0.00053249,0.011374,-0.28602,0.016429,0.0328,1.1673e-06,0.71,0.81,0
0.031063,-0.0087071,0.037357,0.00045734,0.011344,-0.00013683,0,0,0.067633,-0.028306,0,-0.00071154,0,0,0,0.037358,0.00045684,0.011344,-0.21246,0.016386,0.03284,1.1678e-06,0.72,0.81,0
0.031739,-0.0087684,0.037335,0.00038801,0.011317,-9.4347e-05,0,0,0.067647,-0.028415,0,-0.0004906,0,0,0,0.037335,0.00038776,0.011317,-0.14631,0.016347,0.032875,1.1681e-06,0.73,0.81,0
0.032416,-0.0088259,0.037313,0.00032479,0.011291,-5.6315e-05,0,0,0.067657,-0.028513,0,-0.00029284,0,0,0,0.037313,0.0003247,0.011291,-0.087233,0.01631,0.032906,1.1683e-06,0.74,0.81,0
0.033093,-0.0088798,0.037292,0.00026713,0.011268,-2.2556e-05,0,0,0.067663,-0.028602,0,-0.00011729,0,0,0,0.037292,0.00026712,0.011268,-0.034906,0.016276,0.032933,1.1682e-06,0.75,0.81,0
0.033769,-0.0089304,0.037271,0.00021454,0.011246,7.1292e-06,0,0,0.067667,-0.028681,0,3.7072e-05,0,0,0,0.037271,0.00021454,0.011246,0.011023,0.016244,0.032956,1.1681e-06,0.76,0.81,0
0.034446,-0.0089777,0.037251,0.00016656,0.011225,3.295e-05,0,0,0.067668,-0.028753,0,0.00017134,0,0,0,0.037251,0.00016653,0.011225,0.050908,0.016214,0.032977,1.1678e-06,0.77,0.81,0
0.035123,-0.0090219,0.037232,0.00012277,0.011206,5.5119e-05,0,0,0.067667,-0.028818,0,0.00028662,0,0,0,0.037232,0.00012269,0.011206,0.085102,0.016187,0.032995,1.1675e-06,0.78,0.81,0
0.035799,-0.0090631,0.037214,8.2822e-05,0.011189,7.3851e-05,0,0,0.067665,-0.028876,0,0.00038403,0,0,0,0.037214,8.2675e-05,0.011189,0.11396,0.016162,0.03301,1.1671e-06,0.79,0.81,0
0.036476,-0.0091015,0.037196,4.6371e-05,0.011173,8.9358e-05,0,0,0.067661,-0.028929,0,0.00046466,0,0,0,0.037197,4.6156e-05,0.011173,0.13781,0.016139,0.033024,1.1668e-06,0.8,0.81,0
0.037153,-0.0091372,0.03718,1.3125e-05,0.011158,0.00010185,0,0,0.067657,-0.028976,0,0.00052962,0,0,0,0.03718,1.2846e-05,0.011158,0.15701,0.016117,0.033036,1.1663e-06,0.81,0.81,0
0.037829,-0.0091703,0.037165,-1.718e-05,0.011144,0.00011153,0,0,0.067653,-0.02902,0,0.00057995,0,0,0,0.037165,-1.7514e-05,0.011144,0.17186,0.016097,0.033047,1.1659e-06,0.82,0.81,0
0.038506,-0.009201,0.03715,-4.4782e-05,0.011132,0.0001186,0,0,0.067648,-0.029059,0,0.0006167,0,0,0,0.03715,-4.516e-05,0.011132,0.18268,0.016079,0.033056,1.1655e-06,0.83,0.81,0
0.039182,-0.0092293,0.037137,-6.9892e-05,0.01112,0.00012324,0,0,0.067643,-0.029094,0,0.00064085,0,0,0,0.037137,-7.03e-05,0.01112,0.18978,0.016062,0.033064,1.165e-06,0.84,0.81,0
0.039858,-0.0092554,0.037124,-9.2699e-05,0.011109,0.00012565,0,0,0.067638,-0.029125,0,0.00065337,0,0,0,0.037124,-9.3123e-05,0.011109,0.19343,0.016047,0.033071,1.1646e-06,0.85,0.81,0
0.040535,-0.0092794,0.037112,-0.00011337,0.0111,0.000126,0,0,0.067633,-0.029154,0,0.00065518,0,0,0,0.037113,-0.0001138,0.0111,0.19392,0.016033,0.033078,1.1642e-06,0.86,0.81,0
0.041211,-0.0093013,0.037102,-0.00013206,0.011091,0.00012445,0,0,0.067628,-0.02918,0,0.00064717,0,0,0,0.037102,-0.00013248,0.011091,0.19151,0.01602,0.033083,1.1639e-06,0.87,0.81,0
0.041887,-0.0093213,0.037092,-0.0001489,0.011083,0.00012119,0,0,0.067624,-0.029203,0,0.00063019,0,0,0,0.037092,-0.00014929,0.011083,0.18645,0.016009,0.033088,1.1635e-06,0.88,0.81,0
0.042564,-0.0093394,0.037083,-0.000164,0.011076,0.00011636,0,0,0.067619,-0.029223,0,0.00060507,0,0,0,0.037084,-0.00016437,0.011076,0.17899,0.015998,0.033092,1.1632e-06,0.89,0.81,0
0.04324,-0.0093557,0.037075,-0.00017748,0.011069,0.00011012,0,0,0.067615,-0.029242,0,0.00057261,0,0,0,0.037075,-0.00017781,0.011069,0.16936,0.015989,0.033096,1.1629e-06,0.9,0.81,0
0.043916,-0.0093702,0.037068,-0.00018942,0.011064,0.0001026,0,0,0.067612,-0.029258,0,0.00053354,0,0,0,0.037068,-0.0001897,0.011064,0.15779,0.015981,0.033099,1.1626e-06,0.91,0.81,0
0.044592,-0.0093831,0.037062,-0.0001999,0.011059,9.3966e-05,0,0,0.067608,-0.029272,0,0.00048863,0,0,0,0.037062,-0.00020014,0.011059,0.14449,0.015974,0.033101,1.1623e-06,0.92,0.81,0
0.045268,-0.0093943,0.037056,-0.000209,0.011054,8.4339e-05,0,0,0.067605,-0.029284,0,0.00043856,0,0,0,0.037056,-0.00020919,0.011054,0.12967,0.015967,0.033104,1.1621e-06,0.93,0.81,0
0.045944,-0.0094039,0.037052,-0.00021677,0.01105,7.3855e-05,0,0,0.067603,-0.029295,0,0.00038405,0,0,0,0.037052,-0.00021691,0.01105,0.11354,0.015962,0.033106,1.1619e-06,0.94,0.81,0
0.04662,-0.009412,0.037048,-0.00022326,0.011047,6.2643e-05,0,0,0.067601,-0.029303,0,0.00032574,0,0,0,0.037048,-0.00022336,0.011047,0.0963,0.015957,0.033107,1.1617e-06,0.95,0.81,0
0.047296,-0.0094185,0.037044,-0.00022851,0.011045,5.0829e-05,0,0,0.067599,-0.02931,0,0.00026431,0,0,0,0.037044,-0.00022858,0.011045,0.078135,0.015953,0.033108,1.1616e-06,0.96,0.81,0
0.047972,-0.0094236,0.037042,-0.00023257,0.011043,3.8538e-05,0,0,0.067598,-0.029316,0,0.0002004,0,0,0,0.037042,-0.00023261,0.011043,0.059238,0.015951,0.03311,1.1615e-06,0.97,0.81,0
0.048648,-0.0094272,0.03704,-0.00023544,0.011041,2.5889e-05,0,0,0.067597,-0.02932,0,0.00013463,0,0,0,0.03704,-0.00023546,0.011041,0.039794,0.015949,0.03311,1.1614e-06,0.98,0.81,0
0.049324,-0.0094294,0.037039,-0.00023716,0.01104,1.3004e-05,0,0,0.067596,-0.029322,0,6.762e-05,0,0,0,0.037039,-0.00023717,0.01104,0.019988,0.015947,0.033111,1.1614e-06,0.99,0.81,0
0.05,-0.0094301,0.037039,-0.00023773,0.01104,-1.3837e-05,0,0,0.067596,-0.029323,0,-7.1952e-05,0,0,0,0.037039,-0.00023774,0.01104,-0.021268,0.015947,0.033111,1.1614e-06,1,0.81,0
0,0,0.036098,0.015471,0.015471,-0.0057755,0,0,0.026816,4.3368e-19,0,-0.015016,0,0,0,0.037605,0.013964,0.015471,-14.624,0.022346,0.022925,6.098e-07,0,0.82,0
0.00026816,-0.00015016,0.036031,0.014635,0.0152,-0.0057761,0,0,0.027081,-0.00073426,0,-0.015018,0,0,0,0.037491,0.013175,0.0152,-14.183,0.021955,0.023369,6.389e-07,0.01,0.82,0
0.00054161,-0.00030446,0.036312,0.013916,0.015068,-0.0058316,0,0,0.027617,-0.0014986,0,-0.015162,0,0,0,0.037739,0.012488,0.015068,-13.754,0.021765,0.024065,6.8813e-07,0.02,0.82,0
0.00082049,-0.00046216,0.036593,0.013173,0.01493,-0.0058469,0,0,0.028162,-0.002284,0,-0.015202,0,0,0,0.037971,0.011794,0.01493,-13.267,0.021565,0.024759,7.375e-07,0.03,0.82,0
0.0011049,-0.00062248,0.036868,0.012415,0.014785,-0.0058205,0,0,0.028708,-0.0030805,0,-0.015133,0,0,0,0.038183,0.0111,0.014785,-12.729,0.021356,0.025441,7.8623e-07,0.04,0.82,0
0.0013947,-0.00078462,0.037133,0.011653,0.014636,-0.0057522,0,0,0.029246,-0.0038776,0,-0.014956,0,0,0,0.038372,0.010415,0.014636,-12.15,0.021141,0.026104,8.3356e-07,0.05,0.82,0
0.0016898,-0.00094774,0.037384,0.010895,0.014484,-0.0056436,0,0,0.02977,-0.004665,0,-0.014673,0,0,0,0.038536,0.0097429,0.014484,-11.54,0.020921,0.02674,8.7881e-07,0.06,0.82,0
0.0019901,-0.0011111,0.037615,0.01015,0.01433,-0.0054976,0,0,0.030271,-0.0054332,0,-0.014294,0,0,0,0.038675,0.0090907,0.01433,-10.909,0.020698,0.027343,9.2141e-07,0.07,0.82,0
0.0022952,-0.0012738,0.037824,0.0094257,0.014175,-0.0053183,0,0,0.030744,-0.0061741,0,-0.013828,0,0,0,0.038788,0.0084624,0.014175,-10.267,0.020475,0.027911,9.6092e-07,0.08,0.82,0
0.0026049,-0.0014354,0.038009,0.0087278,0.014021,-0.0051106,0,0,0.031184,-0.0068813,0,-0.013288,0,0,0,0.038875,0.0078614,0.014021,-9.6213,0.020253,0.028439,9.9704e-07,0.09,0.82,0
0.0029189,-0.0015952,0.038168,0.0080611,0.013869,-0.0048798,0,0,0.031589,-0.0075498,0,-0.012688,0,0,0,0.038939,0.0072899,0.013869,-8.9806,0.020033,0.028926,1.0296e-06,0.1,0.82,0
0.0032367,-0.0017526,0.0383,0.007429,0.013719,-0.0046314,0,0,0.031956,-0.0081766,0,-0.012042,0,0,0,0.03898,0.0067491,0.013719,-8.351,0.019816,0.029373,1.0586e-06,0.11,0.82,0
0.003558,-0.0019073,0.038406,0.0068333,0.013572,-0.0043707,0,0,0.032285,-0.0087601,0,-0.011364,0,0,0,0.039,0.0062394,0.013572,-7.7378,0.019604,0.029779,1.0841e-06,0.12,0.82,0
0.0038824,-0.002059,0.038487,0.0062746,0.013428,-0.0041025,0,0,0.032576,-0.0092999,0,-0.010667,0,0,0,0.039001,0.0057603,0.013428,-7.1452,0.019397,0.030147,1.1062e-06,0.13,0.82,0
0.0042095,-0.0022074,0.038544,0.0057528,0.013289,-0.0038315,0,0,0.032831,-0.009797,0,-0.0099619,0,0,0,0.038985,0.0053111,0.013289,-6.5767,0.019195,0.030479,1.1252e-06,0.14,0.82,0
0.004539,-0.0023523,0.038579,0.0052668,0.013154,-0.0035615,0,0,0.033053,-0.010253,0,-0.0092598,0,0,0,0.038955,0.0048903,0.013154,-6.0348,0.019,0.030777,1.1413e-06,0.15,0.82,0
0.0048706,-0.0024937,0.038594,0.0048151,0.013023,-0.0032959,0,0,0.033243,-0.01067,0,-0.0085693,0,0,0,0.038912,0.0044965,0.013023,-5.5211,0.018811,0.031044,1.1547e-06,0.16,0.82,0
0.0052039,-0.0026315,0.038591,0.0043955,0.012896,-0.0030375,0,0,0.033404,-0.011051,0,-0.0078975,0,0,0,0.038859,0.0041278,0.012896,-5.0369,0.018628,0.031282,1.1658e-06,0.17,0.82,0
0.0055386,-0.0027659,0.038572,0.0040059,0.012774,-0.0027887,0,0,0.033538,-0.011398,0,-0.0072505,0,0,0,0.038796,0.0037823,0.012774,-4.5828,0.018451,0.031496,1.1747e-06,0.18,0.82,0
0.0058746,-0.0028968,0.03854,0.0036438,0.012655,-0.0025512,0,0,0.03365,-0.011715,0,-0.0066332,0,0,0,0.038725,0.0034583,0.012655,-4.1594,0.01828,0.031686,1.1818e-06,0.19,0.82,0
0.0062116,-0.0030243,0.038495,0.0033067,0.012541,-0.0023267,0,0,0.033741,-0.012004,0,-0.0060493,0,0,0,0.038649,0.0031536,0.012541,-3.7665,0.018114,0.031856,1.1872e-06,0.2,0.82,0
0.0065495,-0.0031488,0.038441,0.0029922,0.01243,-0.0021161,0,0,0.033814,-0.012269,0,-0.0055018,0,0,0,0.038567,0.0028663,0.01243,-3.4041,0.017954,0.032009,1.1913e-06,0.21,0.82,0
0.0068879,-0.0032702,0.038377,0.0026977,0.012323,-0.0019203,0,0,0.033871,-0.012512,0,-0.0049929,0,0,0,0.038481,0.0025946,0.012323,-3.0719,0.017799,0.032146,1.1941e-06,0.22,0.82,0
0.0072269,-0.0033889,0.038307,0.0024208,0.012218,-0.0017401,0,0,0.033915,-0.012737,0,-0.0045242,0,0,0,0.038391,0.0023366,0.012218,-2.7695,0.017649,0.032269,1.1958e-06,0.23,0.82,0
0.0075662,-0.003505,0.03823,0.0021592,0.012117,-0.0015757,0,0,0.033947,-0.012945,0,-0.0040968,0,0,0,0.038299,0.0020905,0.012117,-2.4965,0.017502,0.032381,1.1968e-06,0.24,0.82,0
0.0079058,-0.0036189,0.038149,0.0019105,0.012018,-0.0014276,0,0,0.03397,-0.01314,0,-0.0037117,0,0,0,0.038205,0.0018544,0.012018,-2.2525,0.017359,0.032484,1.197e-06,0.25,0.82,0
0.0082456,-0.0037307,0.038064,0.0016726,0.011921,-0.0012959,0,0,0.033986,-0.013323,0,-0.0033693,0,0,0,0.03811,0.0016265,0.011921,-2.0368,0.017219,0.032579,1.1966e-06,0.26,0.82,0
0.0085856,-0.0038407,0.037975,0.0014432,0.011825,-0.0011807,0,0,0.033995,-0.013497,0,-0.0030698,0,0,0,0.038013,0.001405,0.011825,-1.8492,0.017081,0.032669,1.1958e-06,0.27,0.82,0
0.0089255,-0.0039492,0.037885,0.0012201,0.011732,-0.0010821,0,0,0.033999,-0.013665,0,-0.0028135,0,0,0,0.037917,0.0011882,0.011732,-1.6891,0.016945,0.032755,1.1946e-06,0.28,0.82,0
0.0092655,-0.0040565,0.037793,0.0010014,0.011638,-0.0010001,0,0,0.034001,-0.013828,0,-0.0026004,0,0,0,0.03782,0.00097418,0.011638,-1.556,0.016811,0.032839,1.1933e-06,0.29,0.82,0
0.0096055,-0.0041629,0.0377,0.00078468,0.011546,-0.00093471,0,0,0.034001,-0.013989,0,-0.0024303,0,0,0,0.037724,0.00076102,0.011546,-1.4495,0.016677,0.032923,1.1918e-06,0.3,0.82,0
0.0099456,-0.0042686,0.037608,0.00056795,0.011453,-0.0008857,0,0,0.034002,-0.01415,0,-0.0023028,0,0,0,0.037629,0.00054678,0.011453,-1.369,0.016543,0.03301,1.1904e-06,0.31,0.82,0
0.010286,-0.0043739,0.037517,0.00034896,0.01136,-0.00085295,0,0,0.034004,-0.014314,0,-0.0022177,0,0,0,0.037536,0.0003294,0.01136,-1.3139,0.016408,0.0331,1.1892e-06,0.32,0.82,0
0.010626,-0.0044791,0.037427,0.00012547,0.011266,-0.00083619,0,0,0.03401,-0.014482,0,-0.0021741,0,0,0,0.037446,0.00010674,0.011266,-1.2835,0.016273,0.033197,1.1883e-06,0.33,0.82,0
0.010966,-0.0045844,0.03734,-0.00010484,0.01117,-0.00083506,0,0,0.03402,-0.014658,0,-0.0021712,0,0,0,0.037358,-0.00012345,0.01117,-1.2769,0.016135,0.033303,1.1878e-06,0.34,0.82,0
0.011306,-0.0046902,0.037256,-0.00034434,0.011074,-0.00084905,0,0,0.034037,-0.014843,0,-0.0022075,0,0,0,0.037275,-0.0003635,0.011074,-1.2929,0.015995,0.033422,1.1879e-06,0.35,0.82,0
0.011647,-0.0047966,0.037177,-0.00059546,0.010974,-0.00087745,0,0,0.034063,-0.015041,0,-0.0022814,0,0,0,0.037198,-0.00061583,0.010974,-1.33,0.015852,0.033555,1.1888e-06,0.36,0.82,0
0.011987,-0.0049039,0.037104,-0.00086065,0.010873,-0.00091935,0,0,0.0341,-0.015254,0,-0.0023903,0,0,0,0.037126,-0.0008829,0.010873,-1.3864,0.015705,0.033705,1.1906e-06,0.37,0.82,0
0.012328,-0.0050123,0.037038,-0.0011424,0.010769,-0.00097353,0,0,0.03415,-0.015484,0,-0.0025312,0,0,0,0.037062,-0.0011672,0.010769,-1.4597,0.015555,0.033877,1.1935e-06,0.38,0.82,0
0.01267,-0.0051219,0.036979,-0.0014429,0.010661,-0.0010385,0,0,0.034214,-0.015735,0,-0.0027,0,0,0,0.037007,-0.001471,0.010661,-1.5471,0.015399,0.034073,1.1976e-06,0.39,0.82,0
0.013013,-0.005233,0.036931,-0.0017646,0.01055,-0.0011123,0,0,0.034295,-0.016009,0,-0.0028919,0,0,0,0.036963,-0.0017966,0.01055,-1.6451,0.015239,0.034295,1.2031e-06,0.4,0.82,0
0.013356,-0.0053455,0.036893,-0.0021093,0.010435,-0.0011926,0,0,0.034395,-0.016308,0,-0.0031008,0,0,0,0.036929,-0.0021457,0.010435,-1.7498,0.015073,0.034547,1.2101e-06,0.41,0.82,0
0.013701,-0.0054595,0.036866,-0.0024785,0.010316,-0.0012768,0,0,0.034515,-0.016633,0,-0.0033197,0,0,0,0.036907,-0.0025199,0.010316,-1.8568,0.014901,0.034831,1.2188e-06,0.42,0.82,0
0.014046,-0.005575,0.036852,-0.0028731,0.010194,-0.0013618,0,0,0.034656,-0.016987,0,-0.0035406,0,0,0,0.036899,-0.0029198,0.010194,-1.961,0.014724,0.035147,1.229e-06,0.43,0.82,0
0.014394,-0.005692,0.03685,-0.0032935,0.010067,-0.0014441,0,0,0.034818,-0.017369,0,-0.0037547,0,0,0,0.036902,-0.0033453,0.010067,-2.0576,0.014541,0.035496,1.2408e-06,0.44,0.82,0
0.014743,-0.0058103,0.036862,-0.0037388,0.0099369,-0.0015202,0,0,0.035002,-0.017778,0,-0.0039526,0,0,0,0.036918,-0.0037956,0.0099369,-2.1414,0.014353,0.035876,1.2541e-06,0.45,0.82,0
0.015094,-0.0059296,0.036885,-0.0042076,0.0098032,-0.0015865,0,0,0.035206,-0.018214,0,-0.004125,0,0,0,0.036946,-0.0042687,0.0098032,-2.2078,0.01416,0.036286,1.2686e-06,0.46,0.82,0
0.015447,-0.0060497,0.036919,-0.0046971,0.0096666,-0.0016396,0,0,0.035428,-0.018673,0,-0.004263,0,0,0,0.036984,-0.0047616,0.0096666,-2.2527,0.013963,0.036722,1.284e-06,0.47,0.82,0
0.015802,-0.0061704,0.036962,-0.0052037,0.0095276,-0.0016764,0,0,0.035665,-0.019151,0,-0.0043587,0,0,0,0.037029,-0.0052703,0.0095276,-2.2732,0.013762,0.037179,1.3001e-06,0.48,0.82,0
0.01616,-0.0062911,0.037013,-0.005723,0.0093869,-0.0016946,0,0,0.035914,-0.019643,0,-0.0044059,0,0,0,0.03708,-0.0057901,0.0093869,-2.2671,0.013559,0.03765,1.3165e-06,0.49,0.82,0
0.016521,-0.0064114,0.037042,-0.00072693,0.010894,-0.001692,0,0,0.049963,-0.020144,0,-0.0065785,0,0,0,0.037119,-0.00080397,0.010894,-2.6102,0.015737,0.033705,1.156e-06,0.5,0.82,0
0.01716,-0.0065745,0.037124,0.0044834,0.012482,-0.0016692,0,0,0.064068,-0.020797,0,-0.0086799,0,0,0,0.037209,0.0043983,0.012482,-2.9199,0.01803,0.029608,1.0056e-06,0.51,0.82,0
0.017802,-0.0067353,0.03718,0.0041526,0.0124,-0.0016317,0,0,0.064428,-0.021442,0,-0.0084848,0,0,0,0.03726,0.0040722,0.0124,-2.8215,0.017911,0.029907,1.0232e-06,0.52,0.82,0
0.018448,-0.0068932,0.037233,0.0038287,0.012318,-0.0015818,0,0,0.064777,-0.022073,0,-0.0082252,0,0,0,0.037308,0.0037539,0.012318,-2.705,0.017793,0.030196,1.04e-06,0.53,0.82,0
0.019098,-0.0070477,0.037282,0.0035145,0.012239,-0.0015204,0,0,0.065111,-0.022683,0,-0.007906,0,0,0,0.03735,0.0034462,0.012239,-2.5728,0.017678,0.030474,1.0559e-06,0.54,0.82,0
0.01975,-0.0071984,0.037325,0.0032127,0.012161,-0.0014489,0,0,0.065426,-0.023267,0,-0.0075343,0,0,0,0.037387,0.0031513,0.012161,-2.4278,0.017566,0.030737,1.0708e-06,0.55,0.82,0
0.020406,-0.0073448,0.037362,0.0029254,0.012086,-0.001369,0,0,0.065718,-0.023818,0,-0.0071185,0,0,0,0.037417,0.002871,0.012086,-2.2729,0.017458,0.030984,1.0844e-06,0.56,0.82,0
0.021065,-0.0074865,0.037393,0.0026541,0.012014,-0.0012824,0,0,0.065985,-0.024336,0,-0.0066682,0,0,0,0.03744,0.0026068,0.012014,-2.1112,0.017354,0.031212,1.0966e-06,0.57,0.82,0
0.021726,-0.0076233,0.037416,0.0023998,0.011945,-0.001191,0,0,0.066225,-0.024817,0,-0.0061932,0,0,0,0.037456,0.0023594,0.011945,-1.9458,0.017254,0.031421,1.1076e-06,0.58,0.82,0
0.022389,-0.007755,0.037432,0.0021631,0.011879,-0.0010967,0,0,0.066439,-0.02526,0,-0.0057029,0,0,0,0.037466,0.0021291,0.011879,-1.7794,0.017158,0.031611,1.1172e-06,0.59,0.82,0
0.023055,-0.0078813,0.037442,0.0019441,0.011816,-0.0010012,0,0,0.066627,-0.025666,0,-0.0052064,0,0,0,0.03747,0.0019158,0.011816,-1.6143,0.017067,0.031782,1.1256e-06,0.6,0.82,0
0.023722,-0.0080022,0.037444,0.0017423,0.011756,-0.00090606,0,0,0.06679,-0.026036,0,-0.0047115,0,0,0,0.037467,0.0017193,0.011756,-1.4528,0.016981,0.031935,1.1327e-06,0.61,0.82,0
0.02439,-0.0081177,0.037442,0.0015571,0.0117,-0.00081254,0,0,0.066929,-0.026371,0,-0.0042252,0,0,0,0.03746,0.0015388,0.0117,-1.2965,0.0169,0.032072,1.1387e-06,0.62,0.82,0
0.02506,-0.0082277,0.037434,0.0013879,0.011647,-0.00072176,0,0,0.067047,-0.026672,0,-0.0037531,0,0,0,0.037448,0.0013735,0.011647,-1.1466,0.016823,0.032192,1.1436e-06,0.63,0.82,0
0.025731,-0.0083323,0.037422,0.0012336,0.011597,-0.00063458,0,0,0.067146,-0.026944,0,-0.0032998,0,0,0,0.037433,0.0012224,0.011597,-1.0043,0.016751,0.032298,1.1477e-06,0.64,0.82,0
0.026403,-0.0084316,0.037406,0.0010931,0.01155,-0.00055168,0,0,0.067227,-0.027187,0,-0.0028688,0,0,0,0.037415,0.0010847,0.01155,-0.8702,0.016683,0.032391,1.151e-06,0.65,0.82,0
0.027076,-0.0085257,0.037388,0.00096548,0.011506,-0.00047353,0,0,0.067293,-0.027405,0,-0.0024624,0,0,0,0.037394,0.00095932,0.011506,-0.74475,0.01662,0.032472,1.1535e-06,0.66,0.82,0
0.027749,-0.0086148,0.037367,0.00084959,0.011465,-0.00040044,0,0,0.067345,-0.0276,0,-0.0020823,0,0,0,0.037371,0.0008452,0.011465,-0.62819,0.01656,0.032543,1.1555e-06,0.67,0.82,0
0.028423,-0.008699,0.037345,0.00074445,0.011427,-0.00033259,0,0,0.067387,-0.027774,0,-0.0017295,0,0,0,0.037348,0.00074143,0.011427,-0.52059,0.016505,0.032604,1.1569e-06,0.68,0.82,0
0.029097,-0.0087784,0.037321,0.00064907,0.011391,-0.00027004,0,0,0.067418,-0.027929,0,-0.0014042,0,0,0,0.037323,0.00064709,0.011391,-0.42187,0.016454,0.032658,1.158e-06,0.69,0.82,0
0.029771,-0.0088533,0.037297,0.00056256,0.011358,-0.00021277,0,0,0.067442,-0.028068,0,-0.0011064,0,0,0,0.037298,0.00056133,0.011358,-0.33185,0.016406,0.032704,1.1586e-06,0.7,0.82,0
0.030446,-0.0089239,0.037273,0.00048406,0.011327,-0.00016069,0,0,0.067459,-0.028192,0,-0.0008356,0,0,0,0.037274,0.00048336,0.011327,-0.25026,0.016361,0.032744,1.159e-06,0.71,0.82,0
0.03112,-0.0089902,0.037248,0.00041282,0.011298,-0.00011366,0,0,0.06747,-0.028303,0,-0.00059103,0,0,0,0.037249,0.00041247,0.011298,-0.17679,0.01632,0.032778,1.1592e-06,0.72,0.82,0
0.031795,-0.0090525,0.037225,0.00034813,0.011272,-7.149e-05,0,0,0.067477,-0.028402,0,-0.00037175,0,0,0,0.037225,0.00034799,0.011272,-0.11107,0.016282,0.032808,1.1591e-06,0.73,0.82,0
0.03247,-0.0091109,0.037201,0.00028936,0.011247,-3.3977e-05,0,0,0.067481,-0.02849,0,-0.00017668,0,0,0,0.037201,0.00028933,0.011247,-0.05274,0.016246,0.032834,1.1589e-06,0.74,0.82,0
0.033145,-0.0091657,0.037179,0.00023595,0.011224,-8.9391e-07,0,0,0.067481,-0.02857,0,-4.6484e-06,0,0,0,0.037179,0.00023595,0.011224,-0.0013864,0.016213,0.032857,1.1586e-06,0.75,0.82,0
0.03382,-0.009217,0.037157,0.00018737,0.011203,2.7993e-05,0,0,0.067479,-0.028641,0,0.00014556,0,0,0,0.037157,0.00018735,0.011203,0.043384,0.016182,0.032876,1.1582e-06,0.76,0.82,0
0.034494,-0.009265,0.037136,0.00014318,0.011184,5.2923e-05,0,0,0.067476,-0.028705,0,0.0002752,0,0,0,0.037136,0.0001431,0.011184,0.081969,0.016154,0.032893,1.1578e-06,0.77,0.82,0
0.035169,-0.0093098,0.037116,0.00010296,0.011166,7.4136e-05,0,0,0.067471,-0.028763,0,0.00038551,0,0,0,0.037116,0.00010281,0.011166,0.11476,0.016128,0.032908,1.1573e-06,0.78,0.82,0
0.035844,-0.0093515,0.037097,6.6341e-05,0.011149,9.1867e-05,0,0,0.067466,-0.028815,0,0.00047771,0,0,0,0.037098,6.6114e-05,0.011149,0.14214,0.016104,0.03292,1.1568e-06,0.79,0.82,0
0.036518,-0.0093904,0.03708,3.301e-05,0.011134,0.00010635,0,0,0.06746,-0.028862,0,0.000553,0,0,0,0.03708,3.2705e-05,0.011134,0.16447,0.016082,0.032931,1.1563e-06,0.8,0.82,0
0.037193,-0.0094266,0.037063,2.6709e-06,0.01112,0.0001178,0,0,0.067453,-0.028904,0,0.00061255,0,0,0,0.037064,2.2965e-06,0.01112,0.18211,0.016062,0.032941,1.1557e-06,0.81,0.82,0
0.037867,-0.0094601,0.037048,-2.4934e-05,0.011107,0.00012644,0,0,0.067447,-0.028943,0,0.00065749,0,0,0,0.037048,-2.5365e-05,0.011107,0.19541,0.016043,0.032949,1.1552e-06,0.82,0.82,0
0.038542,-0.0094912,0.037033,-5.0033e-05,0.011095,0.00013248,0,0,0.06744,-0.028977,0,0.00068888,0,0,0,0.037034,-5.0506e-05,0.011095,0.20468,0.016026,0.032957,1.1547e-06,0.83,0.82,0
0.039216,-0.0095198,0.03702,-7.2832e-05,0.011084,0.00013611,0,0,0.067434,-0.029008,0,0.00070776,0,0,0,0.037021,-7.3331e-05,0.011084,0.21024,0.016011,0.032963,1.1543e-06,0.84,0.82,0
0.039891,-0.0095462,0.037008,-9.351e-05,0.011074,0.00013752,0,0,0.067427,-0.029036,0,0.00071513,0,0,0,0.037008,-9.402e-05,0.011074,0.21238,0.015996,0.032969,1.1538e-06,0.85,0.82,0
0.040565,-0.0095705,0.036997,-0.00011223,0.011065,0.00013691,0,0,0.067421,-0.029062,0,0.00071191,0,0,0,0.036997,-0.00011273,0.011065,0.21138,0.015983,0.032974,1.1534e-06,0.86,0.82,0
0.041239,-0.0095927,0.036986,-0.00012913,0.011057,0.00013443,0,0,0.067416,-0.029084,0,0.00069903,0,0,0,0.036987,-0.00012962,0.011057,0.20752,0.015971,0.032978,1.153e-06,0.87,0.82,0
0.041913,-0.0096128,0.036977,-0.00014435,0.01105,0.00013025,0,0,0.067411,-0.029105,0,0.00067733,0,0,0,0.036978,-0.0001448,0.01105,0.20104,0.015961,0.032982,1.1526e-06,0.88,0.82,0
0.042587,-0.0096311,0.036969,-0.00015798,0.011043,0.00012454,0,0,0.067406,-0.029123,0,0.00064764,0,0,0,0.036969,-0.0001584,0.011043,0.1922,0.015951,0.032985,1.1522e-06,0.89,0.82,0
0.043261,-0.0096476,0.036961,-0.00017014,0.011037,0.00011745,0,0,0.067402,-0.029139,0,0.00061074,0,0,0,0.036961,-0.00017051,0.011037,0.18123,0.015943,0.032988,1.1519e-06,0.9,0.82,0
0.043935,-0.0096623,0.036954,-0.0001809,0.011032,0.00010912,0,0,0.067398,-0.029153,0,0.00056741,0,0,0,0.036955,-0.00018122,0.011032,0.16835,0.015935,0.032991,1.1517e-06,0.91,0.82,0
0.044609,-0.0096753,0.036948,-0.00019034,0.011027,9.9683e-05,0,0,0.067394,-0.029166,0,0.00051835,0,0,0,0.036949,-0.00019061,0.011027,0.15379,0.015928,0.032993,1.1514e-06,0.92,0.82,0
0.045283,-0.0096866,0.036943,-0.00019853,0.011023,8.9284e-05,0,0,0.067391,-0.029177,0,0.00046428,0,0,0,0.036943,-0.00019874,0.011023,0.13773,0.015923,0.032995,1.1512e-06,0.93,0.82,0
0.045957,-0.0096963,0.036939,-0.00020552,0.01102,7.8051e-05,0,0,0.067389,-0.029186,0,0.00040586,0,0,0,0.036939,-0.00020568,0.01102,0.12039,0.015918,0.032996,1.151e-06,0.94,0.82,0
0.046631,-0.0097045,0.036935,-0.00021136,0.011017,6.6109e-05,0,0,0.067386,-0.029194,0,0.00034377,0,0,0,0.036935,-0.00021147,0.011017,0.10197,0.015914,0.032998,1.1508e-06,0.95,0.82,0
0.047305,-0.0097111,0.036932,-0.00021608,0.011015,5.3582e-05,0,0,0.067385,-0.0292,0,0.00027863,0,0,0,0.036932,-0.00021616,0.011015,0.082643,0.01591,0.032999,1.1507e-06,0.96,0.82,0
0.047979,-0.0097162,0.03693,-0.00021972,0.011013,4.0591e-05,0,0,0.067383,-0.029205,0,0.00021107,0,0,0,0.03693,-0.00021977,0.011013,0.062603,0.015908,0.033,1.1506e-06,0.97,0.82,0
0.048652,-0.0097199,0.036928,-0.00022231,0.011012,2.7252e-05,0,0,0.067382,-0.029208,0,0.00014171,0,0,0,0.036928,-0.00022233,0.011012,0.04203,0.015906,0.033,1.1505e-06,0.98,0.82,0
0.049326,-0.0097221,0.036927,-0.00022385,0.011011,1.3684e-05,0,0,0.067382,-0.02921,0,7.1154e-05,0,0,0,0.036927,-0.00022386,0.011011,0.021103,0.015905,0.033,1.1505e-06,0.99,0.82,0
0.05,-0.0097228,0.036927,-0.00022437,0.011011,-1.3975e-05,0,0,0.067381,-0.029211,0,-7.2671e-05,0,0,0,0.036927,-0.00022437,0.011011,-0.021553,0.015904,0.033001,1.1505e-06,1,0.82,0
0,0,0.036385,0.015594,0.015594,-0.0060651,0,0,0.027029,0,0,-0.015769,0,0,0,0.038025,0.013954,0.015594,-15.13,0.022524,0.023295,6.3839e-07,0,0.83,0
0.00027029,-0.00015769,0.036315,0.014713,0.015308,-0.006065,0,0,0.027308,-0.00077397,0,-0.015769,0,0,0,0.037901,0.013127,0.015308,-14.658,0.022112,0.023759,6.6927e-07,0.01,0.83,0
0.00054617,-0.00031984,0.03661,0.013952,0.015169,-0.0061229,0,0,0.027874,-0.0015822,0,-0.015919,0,0,0,0.038159,0.012403,0.015169,-14.194,0.02191,0.024491,7.2212e-07,0.02,0.83,0
0.00082778,-0.00048561,0.036905,0.013164,0.015021,-0.0061352,0,0,0.02845,-0.0024139,0,-0.015952,0,0,0,0.038397,0.011672,0.015021,-13.666,0.021697,0.025218,7.7492e-07,0.03,0.83,0
0.0011152,-0.00065412,0.037194,0.012361,0.014866,-0.0061001,0,0,0.029025,-0.0032569,0,-0.01586,0,0,0,0.038611,0.010944,0.014866,-13.082,0.021474,0.02593,8.2674e-07,0.04,0.83,0
0.0014083,-0.00082443,0.03747,0.011554,0.014707,-0.0060176,0,0,0.029591,-0.0040988,0,-0.015646,0,0,0,0.038799,0.010225,0.014707,-12.455,0.021244,0.026617,8.7667e-07,0.05,0.83,0
0.001707,-0.00099562,0.037728,0.010755,0.014545,-0.0058899,0,0,0.030138,-0.0049271,0,-0.015314,0,0,0,0.038958,0.0095246,0.014545,-11.796,0.021009,0.027272,9.2391e-07,0.06,0.83,0
0.002011,-0.0011668,0.037963,0.0099721,0.014381,-0.0057208,0,0,0.030658,-0.0057311,0,-0.014874,0,0,0,0.039087,0.0088481,0.014381,-11.116,0.020772,0.027888,9.6782e-07,0.07,0.83,0
0.0023201,-0.0013371,0.038173,0.0092154,0.014216,-0.0055154,0,0,0.031144,-0.0065015,0,-0.01434,0,0,0,0.039188,0.0082005,0.014216,-10.427,0.020535,0.02846,1.008e-06,0.08,0.83,0
0.0026339,-0.0015059,0.038354,0.0084911,0.014054,-0.0052799,0,0,0.031591,-0.0072313,0,-0.013728,0,0,0,0.03926,0.0075851,0.014054,-9.7369,0.0203,0.028987,1.044e-06,0.09,0.83,0
0.002952,-0.0016724,0.038506,0.0078042,0.013893,-0.0050206,0,0,0.031997,-0.0079155,0,-0.013053,0,0,0,0.039306,0.0070041,0.013893,-9.0552,0.020068,0.029468,1.076e-06,0.1,0.83,0
0.0032739,-0.0018362,0.038628,0.0071577,0.013736,-0.0047438,0,0,0.03236,-0.0085514,0,-0.012334,0,0,0,0.039328,0.0064582,0.013736,-8.3886,0.019841,0.029902,1.1038e-06,0.11,0.83,0
0.0035992,-0.0019967,0.038721,0.0065532,0.013582,-0.0044559,0,0,0.03268,-0.0091378,0,-0.011585,0,0,0,0.039327,0.0059474,0.013582,-7.7424,0.019619,0.030292,1.1277e-06,0.12,0.83,0
0.0039275,-0.0021538,0.038787,0.0059907,0.013433,-0.0041621,0,0,0.03296,-0.0096753,0,-0.010821,0,0,0,0.039307,0.0054708,0.013433,-7.1209,0.019404,0.030641,1.148e-06,0.13,0.83,0
0.0042584,-0.0023071,0.038828,0.0054695,0.013289,-0.0038675,0,0,0.0332,-0.010165,0,-0.010056,0,0,0,0.03927,0.0050269,0.013289,-6.5274,0.019195,0.03095,1.1648e-06,0.14,0.83,0
0.0045915,-0.0024566,0.038845,0.0049877,0.01315,-0.0035761,0,0,0.033404,-0.010611,0,-0.009298,0,0,0,0.039219,0.0046141,0.01315,-5.9641,0.018994,0.031225,1.1785e-06,0.15,0.83,0
0.0049264,-0.0026021,0.038843,0.0045433,0.013016,-0.0032915,0,0,0.033575,-0.011014,0,-0.008558,0,0,0,0.039156,0.0042303,0.013016,-5.4323,0.018801,0.031466,1.1896e-06,0.16,0.83,0
0.005263,-0.0027437,0.038822,0.0041335,0.012887,-0.0030165,0,0,0.033716,-0.011379,0,-0.0078429,0,0,0,0.039082,0.0038732,0.012887,-4.933,0.018614,0.031679,1.1982e-06,0.17,0.83,0
0.0056008,-0.0028814,0.038786,0.0037557,0.012763,-0.0027532,0,0,0.033831,-0.011709,0,-0.0071583,0,0,0,0.039001,0.0035406,0.012763,-4.4665,0.018435,0.031867,1.2047e-06,0.18,0.83,0
0.0059396,-0.0030153,0.038737,0.0034069,0.012643,-0.0025033,0,0,0.033922,-0.012007,0,-0.0065087,0,0,0,0.038913,0.0032304,0.012643,-4.0329,0.018262,0.032031,1.2094e-06,0.19,0.83,0
0.0062792,-0.0031457,0.038677,0.0030843,0.012528,-0.0022682,0,0,0.033993,-0.012277,0,-0.0058974,0,0,0,0.03882,0.0029404,0.012528,-3.6318,0.018096,0.032176,1.2126e-06,0.2,0.83,0
0.0066194,-0.0032727,0.038607,0.0027851,0.012417,-0.0020488,0,0,0.034046,-0.012522,0,-0.0053269,0,0,0,0.038724,0.0026683,0.012417,-3.2629,0.017936,0.032303,1.2145e-06,0.21,0.83,0
0.0069601,-0.0033965,0.038529,0.0025065,0.012311,-0.0018457,0,0,0.034084,-0.012745,0,-0.0047989,0,0,0,0.038623,0.0024122,0.012311,-2.9255,0.017782,0.032416,1.2152e-06,0.22,0.83,0
0.0073011,-0.0035173,0.038445,0.002246,0.012207,-0.0016594,0,0,0.034109,-0.01295,0,-0.0043145,0,0,0,0.038521,0.0021701,0.012207,-2.6192,0.017633,0.032516,1.215e-06,0.23,0.83,0
0.0076423,-0.0036354,0.038356,0.002001,0.012107,-0.0014902,0,0,0.034124,-0.013138,0,-0.0038745,0,0,0,0.038417,0.00194,0.012107,-2.3433,0.017488,0.032605,1.2141e-06,0.24,0.83,0
0.0079836,-0.0037511,0.038263,0.0017691,0.01201,-0.0013381,0,0,0.03413,-0.013313,0,-0.0034792,0,0,0,0.038312,0.0017201,0.01201,-2.0971,0.017347,0.032686,1.2125e-06,0.25,0.83,0
0.0083249,-0.0038647,0.038167,0.001548,0.011915,-0.0012034,0,0,0.034128,-0.013477,0,-0.0031289,0,0,0,0.038207,0.0015085,0.011915,-1.8802,0.01721,0.032759,1.2104e-06,0.26,0.83,0
0.0086662,-0.0039764,0.038069,0.0013355,0.011821,-0.001086,0,0,0.034122,-0.013631,0,-0.0028237,0,0,0,0.038101,0.0013035,0.011821,-1.692,0.017075,0.032828,1.208e-06,0.27,0.83,0
0.0090073,-0.0040865,0.037969,0.0011294,0.011729,-0.00098595,0,0,0.034111,-0.01378,0,-0.0025635,0,0,0,0.037995,0.0011031,0.011729,-1.532,0.016942,0.032892,1.2053e-06,0.28,0.83,0
0.0093484,-0.0041953,0.037868,0.00092752,0.011639,-0.00090315,0,0,0.034098,-0.013924,0,-0.0023482,0,0,0,0.03789,0.00090545,0.011639,-1.3997,0.016811,0.032956,1.2025e-06,0.29,0.83,0
0.0096893,-0.0043032,0.037766,0.00072764,0.011548,-0.00083755,0,0,0.034084,-0.014067,0,-0.0021776,0,0,0,0.037785,0.00070871,0.011548,-1.2947,0.016681,0.033019,1.1996e-06,0.3,0.83,0
0.01003,-0.0044104,0.037665,0.00052759,0.011458,-0.00078907,0,0,0.03407,-0.014209,0,-0.0020516,0,0,0,0.037682,0.00051083,0.011458,-1.2166,0.01655,0.033085,1.1967e-06,0.31,0.83,0
0.010371,-0.0045172,0.037565,0.0003251,0.011367,-0.00075756,0,0,0.034057,-0.014354,0,-0.0019697,0,0,0,0.03758,0.0003097,0.011367,-1.1649,0.016419,0.033155,1.1941e-06,0.32,0.83,0
0.010711,-0.004624,0.037466,0.00011786,0.011275,-0.00074285,0,0,0.034049,-0.014505,0,-0.0019314,0,0,0,0.037481,0.00010309,0.011275,-1.139,0.016286,0.033232,1.1918e-06,0.33,0.83,0
0.011052,-0.004731,0.03737,-9.6578e-05,0.011182,-0.00074465,0,0,0.034045,-0.014662,0,-0.0019361,0,0,0,0.037385,-0.00011137,0.011182,-1.1381,0.016152,0.033318,1.1899e-06,0.34,0.83,0
0.011392,-0.0048386,0.037278,-0.00032072,0.011087,-0.00076255,0,0,0.034048,-0.01483,0,-0.0019826,0,0,0,0.037293,-0.00033618,0.011087,-1.1614,0.016015,0.033416,1.1887e-06,0.35,0.83,0
0.011733,-0.0049469,0.03719,-0.00055721,0.01099,-0.00079597,0,0,0.03406,-0.015011,0,-0.0020695,0,0,0,0.037206,-0.00057399,0.01099,-1.2075,0.015874,0.033529,1.1883e-06,0.36,0.83,0
0.012073,-0.0050562,0.037107,-0.00080875,0.010889,-0.00084409,0,0,0.034083,-0.015208,0,-0.0021946,0,0,0,0.037126,-0.00082753,0.010889,-1.2747,0.015729,0.033661,1.1888e-06,0.37,0.83,0
0.012414,-0.0051668,0.037031,-0.0010781,0.010786,-0.00090581,0,0,0.034119,-0.015423,0,-0.0023551,0,0,0,0.037053,-0.0010996,0.010786,-1.3608,0.01558,0.033814,1.1904e-06,0.38,0.83,0
0.012756,-0.0052789,0.036964,-0.001368,0.010679,-0.00097965,0,0,0.034171,-0.015661,0,-0.0025471,0,0,0,0.036989,-0.001393,0.010679,-1.463,0.015425,0.033994,1.1934e-06,0.39,0.83,0
0.013098,-0.0053926,0.036906,-0.001681,0.010568,-0.0010637,0,0,0.03424,-0.015923,0,-0.0027656,0,0,0,0.036936,-0.0017104,0.010568,-1.5778,0.015264,0.034202,1.1979e-06,0.4,0.83,0
0.01344,-0.0055081,0.03686,-0.0020197,0.010452,-0.0011556,0,0,0.03433,-0.016213,0,-0.0030045,0,0,0,0.036894,-0.002054,0.010452,-1.7009,0.015097,0.034442,1.2041e-06,0.41,0.83,0
0.013784,-0.0056254,0.036825,-0.0023859,0.010332,-0.0012524,0,0,0.034442,-0.016533,0,-0.0032562,0,0,0,0.036866,-0.0024258,0.010332,-1.8275,0.014924,0.034717,1.212e-06,0.42,0.83,0
0.014129,-0.0057444,0.036805,-0.002781,0.010207,-0.0013507,0,0,0.034577,-0.016885,0,-0.0035119,0,0,0,0.036851,-0.002827,0.010207,-1.952,0.014744,0.035029,1.2218e-06,0.43,0.83,0
0.014476,-0.0058652,0.036798,-0.0032056,0.010078,-0.0014468,0,0,0.034736,-0.017268,0,-0.0037616,0,0,0,0.03685,-0.0032578,0.010078,-2.0686,0.014557,0.035378,1.2334e-06,0.44,0.83,0
0.014824,-0.0059876,0.036805,-0.0036591,0.0099439,-0.0015364,0,0,0.03492,-0.017684,0,-0.0039946,0,0,0,0.036864,-0.0037174,0.0099439,-2.1713,0.014363,0.035764,1.2466e-06,0.45,0.83,0
0.015174,-0.0061114,0.036826,-0.0041401,0.0098058,-0.0016153,0,0,0.035127,-0.01813,0,-0.0041999,0,0,0,0.03689,-0.0042037,0.0098058,-2.2546,0.014164,0.036184,1.2614e-06,0.46,0.83,0
0.015527,-0.0062362,0.03686,-0.0046456,0.0096642,-0.0016795,0,0,0.035354,-0.018603,0,-0.0043668,0,0,0,0.036928,-0.0047134,0.0096642,-2.3135,0.013959,0.036633,1.2773e-06,0.47,0.83,0
0.015881,-0.0063616,0.036903,-0.0051713,0.0095196,-0.0017253,0,0,0.035599,-0.019098,0,-0.0044858,0,0,0,0.036974,-0.0052419,0.0095196,-2.3442,0.013751,0.037107,1.2939e-06,0.48,0.83,0
0.016238,-0.0064873,0.036955,-0.005712,0.0093729,-0.0017498,0,0,0.035857,-0.01961,0,-0.0045494,0,0,0,0.037027,-0.0057837,0.0093729,-2.3445,0.013539,0.037598,1.3109e-06,0.49,0.83,0
0.016598,-0.0066128,0.036985,-0.00074213,0.010873,-0.0017503,0,0,0.049897,-0.020133,0,-0.0068067,0,0,0,0.037067,-0.00082467,0.010873,-2.7029,0.015705,0.033675,1.1517e-06,0.5,0.83,0
0.017236,-0.0067826,0.03707,0.0044515,0.012456,-0.0017276,0,0,0.063995,-0.020813,0,-0.0089835,0,0,0,0.037161,0.0043603,0.012456,-3.0234,0.017993,0.029595,1.0031e-06,0.51,0.83,0
0.017878,-0.0069499,0.037127,0.0041069,0.01237,-0.0016879,0,0,0.064368,-0.021485,0,-0.0087769,0,0,0,0.037213,0.0040208,0.01237,-2.9186,0.017868,0.029905,1.0211e-06,0.52,0.83,0
0.018524,-0.0071143,0.037181,0.00377,0.012285,-0.001634,0,0,0.064729,-0.02214,0,-0.0084968,0,0,0,0.037261,0.0036902,0.012285,-2.7932,0.017746,0.030205,1.0385e-06,0.53,0.83,0
0.019173,-0.007275,0.037231,0.0034442,0.012202,-0.0015672,0,0,0.065073,-0.022772,0,-0.0081494,0,0,0,0.037303,0.0033716,0.012202,-2.6501,0.017626,0.030491,1.0547e-06,0.54,0.83,0
0.019825,-0.0074316,0.037274,0.0031325,0.012122,-0.0014892,0,0,0.065394,-0.023372,0,-0.0077436,0,0,0,0.037338,0.0030677,0.012122,-2.4928,0.017509,0.03076,1.0697e-06,0.55,0.83,0
0.020481,-0.0075835,0.037309,0.0028373,0.012044,-0.0014019,0,0,0.06569,-0.023937,0,-0.0072899,0,0,0,0.037366,0.0027804,0.012044,-2.325,0.017397,0.03101,1.0833e-06,0.56,0.83,0
0.021139,-0.0077305,0.037337,0.0025603,0.011969,-0.0013076,0,0,0.065957,-0.024463,0,-0.0067997,0,0,0,0.037386,0.0025112,0.011969,-2.1503,0.017289,0.031239,1.0954e-06,0.57,0.83,0
0.0218,-0.0078721,0.037357,0.0023023,0.011898,-0.0012086,0,0,0.066194,-0.024948,0,-0.0062847,0,0,0,0.037399,0.0022607,0.011898,-1.9723,0.017186,0.031447,1.1061e-06,0.58,0.83,0
0.022463,-0.0080082,0.037369,0.0020639,0.01183,-0.0011069,0,0,0.066402,-0.025392,0,-0.0057558,0,0,0,0.037404,0.0020292,0.01183,-1.794,0.017088,0.031634,1.1153e-06,0.59,0.83,0
0.023128,-0.0081386,0.037374,0.0018448,0.011766,-0.0010045,0,0,0.066581,-0.025794,0,-0.0052234,0,0,0,0.037402,0.0018164,0.011766,-1.6182,0.016995,0.031801,1.1231e-06,0.6,0.83,0
0.023795,-0.0082631,0.037372,0.0016445,0.011705,-0.00090311,0,0,0.066734,-0.026157,0,-0.0046962,0,0,0,0.037395,0.0016217,0.011705,-1.4471,0.016907,0.031948,1.1296e-06,0.61,0.83,0
0.024463,-0.0083819,0.037364,0.0014621,0.011648,-0.00080414,0,0,0.066862,-0.026483,0,-0.0041816,0,0,0,0.037382,0.0014441,0.011648,-1.2825,0.016825,0.032077,1.1349e-06,0.62,0.83,0
0.025132,-0.0084949,0.037351,0.0012966,0.011594,-0.00070873,0,0,0.066967,-0.026774,0,-0.0036854,0,0,0,0.037365,0.0012827,0.011594,-1.1257,0.016747,0.03219,1.1392e-06,0.63,0.83,0
0.025802,-0.0086022,0.037334,0.0011467,0.011544,-0.00061775,0,0,0.067053,-0.027033,0,-0.0032123,0,0,0,0.037344,0.0011362,0.011544,-0.97771,0.016675,0.032288,1.1426e-06,0.64,0.83,0
0.026473,-0.0087039,0.037313,0.0010112,0.011497,-0.00053181,0,0,0.067122,-0.027264,0,-0.0027654,0,0,0,0.037321,0.0010034,0.011497,-0.83912,0.016607,0.032373,1.1452e-06,0.65,0.83,0
0.027144,-0.0088001,0.03729,0.00088892,0.011454,-0.00045135,0,0,0.067175,-0.027469,0,-0.002347,0,0,0,0.037296,0.00088333,0.011454,-0.71027,0.016544,0.032446,1.1471e-06,0.66,0.83,0
0.027816,-0.0088911,0.037266,0.00077855,0.011413,-0.00037659,0,0,0.067216,-0.02765,0,-0.0019583,0,0,0,0.037269,0.00077466,0.011413,-0.59128,0.016486,0.032508,1.1484e-06,0.67,0.83,0
0.028489,-0.0089769,0.037239,0.00067898,0.011376,-0.00030764,0,0,0.067246,-0.027811,0,-0.0015997,0,0,0,0.037242,0.00067639,0.011376,-0.48208,0.016431,0.032562,1.1493e-06,0.68,0.83,0
0.029161,-0.0090579,0.037213,0.00058915,0.01134,-0.00024449,0,0,0.067267,-0.027954,0,-0.0012714,0,0,0,0.037214,0.00058752,0.01134,-0.38247,0.016381,0.032608,1.1499e-06,0.69,0.83,0
0.029834,-0.0091341,0.037186,0.00050807,0.011308,-0.00018703,0,0,0.067282,-0.02808,0,-0.00097258,0,0,0,0.037187,0.00050712,0.011308,-0.29217,0.016334,0.032648,1.1501e-06,0.7,0.83,0
0.030507,-0.0092058,0.037159,0.00043486,0.011278,-0.00013511,0,0,0.06729,-0.028192,0,-0.00070259,0,0,0,0.037159,0.00043436,0.011278,-0.2108,0.016291,0.032681,1.15e-06,0.71,0.83,0
0.03118,-0.0092732,0.037132,0.0003687,0.01125,-8.8517e-05,0,0,0.067294,-0.028292,0,-0.00046029,0,0,0,0.037133,0.00036849,0.01125,-0.13795,0.016251,0.03271,1.1498e-06,0.72,0.83,0
0.031853,-0.0093364,0.037107,0.00030887,0.011225,-4.7008e-05,0,0,0.067294,-0.028381,0,-0.00024444,0,0,0,0.037107,0.0003088,0.011225,-0.073193,0.016213,0.032735,1.1495e-06,0.73,0.83,0
0.032526,-0.0093957,0.037082,0.00025471,0.011201,-1.0328e-05,0,0,0.067291,-0.02846,0,-5.3703e-05,0,0,0,0.037082,0.00025471,0.011201,-0.016067,0.016179,0.032756,1.149e-06,0.74,0.83,0
0.033199,-0.0094512,0.037059,0.00020565,0.011179,2.1792e-05,0,0,0.067286,-0.028531,0,0.00011332,0,0,0,0.037059,0.00020564,0.011179,0.033881,0.016148,0.032774,1.1484e-06,0.75,0.83,0
0.033871,-0.0095032,0.037036,0.00016118,0.011159,4.9622e-05,0,0,0.06728,-0.028595,0,0.00025803,0,0,0,0.037036,0.00016111,0.011159,0.077102,0.016119,0.03279,1.1478e-06,0.76,0.83,0
0.034544,-0.0095518,0.037015,0.00012084,0.011141,7.3432e-05,0,0,0.067272,-0.028651,0,0.00038185,0,0,0,0.037015,0.00012069,0.011141,0.11404,0.016092,0.032803,1.1472e-06,0.77,0.83,0
0.035217,-0.0095971,0.036994,8.4215e-05,0.011124,9.3487e-05,0,0,0.067264,-0.028702,0,0.00048613,0,0,0,0.036995,8.3978e-05,0.011124,0.14512,0.016067,0.032815,1.1466e-06,0.78,0.83,0
0.035889,-0.0096394,0.036976,5.096e-05,0.011108,0.00011004,0,0,0.067256,-0.028748,0,0.00057222,0,0,0,0.036976,5.0632e-05,0.011108,0.17075,0.016045,0.032824,1.146e-06,0.79,0.83,0
0.036562,-0.0096787,0.036958,2.0753e-05,0.011094,0.00012334,0,0,0.067248,-0.028789,0,0.0006414,0,0,0,0.036958,2.0341e-05,0.011094,0.19133,0.016024,0.032833,1.1453e-06,0.8,0.83,0
0.037234,-0.0097152,0.036942,-6.687e-06,0.011081,0.00013363,0,0,0.067239,-0.028827,0,0.00069489,0,0,0,0.036942,-7.1703e-06,0.011081,0.20722,0.016005,0.032841,1.1447e-06,0.81,0.83,0
0.037907,-0.0097491,0.036927,-3.1607e-05,0.011069,0.00014113,0,0,0.067231,-0.02886,0,0.00073388,0,0,0,0.036927,-3.2146e-05,0.011069,0.21879,0.015988,0.032847,1.1442e-06,0.82,0.83,0
0.038579,-0.0097805,0.036913,-5.4228e-05,0.011057,0.00014605,0,0,0.067223,-0.02889,0,0.00075949,0,0,0,0.036913,-5.4806e-05,0.011057,0.22637,0.015972,0.032853,1.1436e-06,0.83,0.83,0
0.039251,-0.0098095,0.0369,-7.4744e-05,0.011048,0.00014861,0,0,0.067216,-0.028918,0,0.00077276,0,0,0,0.0369,-7.5342e-05,0.011048,0.23028,0.015957,0.032858,1.1431e-06,0.84,0.83,0
0.039923,-0.0098362,0.036888,-9.3327e-05,0.011038,0.00014898,0,0,0.067209,-0.028942,0,0.00077472,0,0,0,0.036888,-9.3927e-05,0.011038,0.23082,0.015944,0.032862,1.1426e-06,0.85,0.83,0
0.040595,-0.0098606,0.036877,-0.00011013,0.01103,0.00014737,0,0,0.067202,-0.028965,0,0.00076632,0,0,0,0.036878,-0.00011072,0.01103,0.22828,0.015932,0.032866,1.1422e-06,0.86,0.83,0
0.041267,-0.009883,0.036867,-0.00012528,0.011023,0.00014393,0,0,0.067197,-0.028985,0,0.00074845,0,0,0,0.036868,-0.00012584,0.011023,0.22292,0.015922,0.03287,1.1418e-06,0.87,0.83,0
0.041939,-0.0099034,0.036859,-0.00013891,0.011016,0.00013884,0,0,0.067191,-0.029003,0,0.00072199,0,0,0,0.036859,-0.00013943,0.011016,0.21502,0.015912,0.032873,1.1414e-06,0.88,0.83,0
0.042611,-0.0099218,0.036851,-0.00015111,0.01101,0.00013226,0,0,0.067186,-0.029019,0,0.00068775,0,0,0,0.036851,-0.00015158,0.01101,0.20479,0.015903,0.032875,1.1411e-06,0.89,0.83,0
0.043283,-0.0099385,0.036844,-0.00016198,0.011005,0.00012433,0,0,0.067182,-0.029033,0,0.00064651,0,0,0,0.036844,-0.00016239,0.011005,0.19249,0.015895,0.032878,1.1408e-06,0.9,0.83,0
0.043955,-0.0099533,0.036838,-0.00017159,0.011,0.00011519,0,0,0.067178,-0.029045,0,0.00059901,0,0,0,0.036838,-0.00017195,0.011,0.17834,0.015888,0.03288,1.1405e-06,0.91,0.83,0
0.044627,-0.0099664,0.036832,-0.00018002,0.010996,0.000105,0,0,0.067175,-0.029057,0,0.00054598,0,0,0,0.036832,-0.00018032,0.010996,0.16254,0.015883,0.032881,1.1402e-06,0.92,0.83,0
0.045298,-0.0099778,0.036827,-0.00018733,0.010992,9.3862e-05,0,0,0.067172,-0.029066,0,0.00048809,0,0,0,0.036827,-0.00018756,0.010992,0.14529,0.015877,0.032883,1.14e-06,0.93,0.83,0
0.04597,-0.0099876,0.036823,-0.00019356,0.010989,8.1922e-05,0,0,0.067169,-0.029074,0,0.000426,0,0,0,0.036823,-0.00019374,0.010989,0.1268,0.015873,0.032884,1.1398e-06,0.94,0.83,0
0.046642,-0.0099959,0.03682,-0.00019876,0.010986,6.9298e-05,0,0,0.067167,-0.029081,0,0.00036035,0,0,0,0.03682,-0.00019889,0.010986,0.10726,0.015869,0.032885,1.1397e-06,0.95,0.83,0
0.047314,-0.010003,0.036817,-0.00020297,0.010984,5.6109e-05,0,0,0.067165,-0.029087,0,0.00029176,0,0,0,0.036817,-0.00020306,0.010984,0.086839,0.015866,0.032886,1.1396e-06,0.96,0.83,0
0.047985,-0.010008,0.036815,-0.00020622,0.010983,4.2471e-05,0,0,0.067164,-0.029091,0,0.00022085,0,0,0,0.036815,-0.00020627,0.010983,0.06573,0.015864,0.032887,1.1395e-06,0.97,0.83,0
0.048657,-0.010011,0.036813,-0.00020852,0.010981,2.8499e-05,0,0,0.067163,-0.029094,0,0.00014819,0,0,0,0.036813,-0.00020855,0.010981,0.044105,0.015862,0.032887,1.1394e-06,0.98,0.83,0
0.049328,-0.010014,0.036813,-0.0002099,0.010981,1.4305e-05,0,0,0.067163,-0.029096,0,7.4385e-05,0,0,0,0.036813,-0.00020991,0.010981,0.022138,0.015861,0.032888,1.1394e-06,0.99,0.83,0
0.05,-0.010014,0.036812,-0.00021036,0.010981,-1.4098e-05,0,0,0.067162,-0.029096,0,-7.3309e-05,0,0,0,0.036812,-0.00021036,0.010981,-0.021818,0.015861,0.032888,1.1394e-06,1,0.83,0
0,0,0.036698,0.015728,0.015728,-0.0063708,0,0,0.027261,-4.8789e-19,0,-0.016564,0,0,0,0.038482,0.013944,0.015728,-15.642,0.022718,0.023696,6.7033e-07,0,0.84,0
0.00027261,-0.00016564,0.036624,0.014796,0.015426,-0.00637,0,0,0.027557,-0.00081858,0,-0.016562,0,0,0,0.038347,0.013073,0.015426,-15.135,0.022282,0.024183,7.0323e-07,0.01,0.84,0
0.00055114,-0.0003361,0.036936,0.013987,0.015277,-0.0064302,0,0,0.028157,-0.0016766,0,-0.016719,0,0,0,0.038615,0.012308,0.015277,-14.633,0.022067,0.024955,7.6021e-07,0.02,0.84,0
0.00083574,-0.00051044,0.037247,0.013149,0.015118,-0.0064385,0,0,0.028766,-0.002561,0,-0.01674,0,0,0,0.038859,0.011536,0.015118,-14.059,0.021838,0.025719,8.1692e-07,0.03,0.84,0
0.0011265,-0.00068762,0.037549,0.012294,0.014953,-0.0063925,0,0,0.029375,-0.0034568,0,-0.01662,0,0,0,0.039075,0.010768,0.014953,-13.425,0.021598,0.026464,8.7217e-07,0.04,0.84,0
0.0014232,-0.00086659,0.037836,0.011436,0.014782,-0.0062926,0,0,0.029971,-0.0043489,0,-0.016361,0,0,0,0.039259,0.010013,0.014782,-12.744,0.021351,0.027177,9.2488e-07,0.05,0.84,0
0.0017259,-0.0010463,0.038102,0.01059,0.014608,-0.0061419,0,0,0.030542,-0.0052226,0,-0.015969,0,0,0,0.03941,0.0092812,0.014608,-12.03,0.0211,0.027851,9.7413e-07,0.06,0.84,0
0.0020341,-0.0012257,0.03834,0.0097665,0.014432,-0.0059453,0,0,0.031081,-0.0060651,0,-0.015458,0,0,0,0.039528,0.0085789,0.014432,-11.297,0.020846,0.028477,1.0192e-06,0.07,0.84,0
0.0023475,-0.0014039,0.038548,0.0089753,0.014257,-0.0057095,0,0,0.031578,-0.0068662,0,-0.014845,0,0,0,0.039612,0.0079113,0.014257,-10.557,0.020594,0.029052,1.0597e-06,0.08,0.84,0
0.0026656,-0.00158,0.038723,0.0082237,0.014084,-0.005442,0,0,0.032031,-0.0076184,0,-0.014149,0,0,0,0.039665,0.0072818,0.014084,-9.8197,0.020344,0.029575,1.0953e-06,0.09,0.84,0
0.0029881,-0.0017535,0.038865,0.0075168,0.013914,-0.0051505,0,0,0.032435,-0.0083169,0,-0.013391,0,0,0,0.039689,0.0066922,0.013914,-9.0953,0.020098,0.030044,1.1262e-06,0.1,0.84,0
0.0033144,-0.0019237,0.038973,0.0068571,0.013749,-0.0048424,0,0,0.032791,-0.0089594,0,-0.01259,0,0,0,0.039687,0.0061428,0.013749,-8.3907,0.01986,0.030462,1.1523e-06,0.11,0.84,0
0.0036439,-0.0020901,0.039049,0.0062456,0.013588,-0.0045249,0,0,0.033099,-0.0095458,0,-0.011765,0,0,0,0.039662,0.0056329,0.013588,-7.7114,0.019628,0.030831,1.1741e-06,0.12,0.84,0
0.0039763,-0.0022525,0.039097,0.0056816,0.013433,-0.0042039,0,0,0.033362,-0.010077,0,-0.01093,0,0,0,0.039618,0.0051608,0.013433,-7.0617,0.019404,0.031155,1.1918e-06,0.13,0.84,0
0.0043112,-0.0024107,0.039118,0.0051634,0.013284,-0.0038847,0,0,0.033584,-0.010557,0,-0.0101,0,0,0,0.039557,0.0047247,0.013284,-6.4443,0.019189,0.031439,1.206e-06,0.14,0.84,0
0.004648,-0.0025645,0.039115,0.0046886,0.013141,-0.0035716,0,0,0.033766,-0.010988,0,-0.0092863,0,0,0,0.039482,0.0043219,0.013141,-5.861,0.018982,0.031685,1.217e-06,0.15,0.84,0
0.0049865,-0.002714,0.039093,0.004254,0.013004,-0.0032681,0,0,0.033915,-0.011375,0,-0.0084971,0,0,0,0.039397,0.0039501,0.013004,-5.313,0.018784,0.031898,1.2253e-06,0.16,0.84,0
0.0053263,-0.0028591,0.039052,0.0038565,0.012873,-0.0029768,0,0,0.034034,-0.011721,0,-0.0077398,0,0,0,0.039302,0.0036065,0.012873,-4.8006,0.018594,0.032082,1.2312e-06,0.17,0.84,0
0.0056672,-0.0030001,0.038997,0.0034927,0.012747,-0.0026998,0,0,0.034125,-0.01203,0,-0.0070195,0,0,0,0.039201,0.0032886,0.012747,-4.3237,0.018412,0.032241,1.235e-06,0.18,0.84,0
0.0060088,-0.0031369,0.03893,0.0031593,0.012627,-0.0024385,0,0,0.034194,-0.012308,0,-0.00634,0,0,0,0.039095,0.0029938,0.012627,-3.8819,0.018239,0.032378,1.2372e-06,0.19,0.84,0
0.006351,-0.0032699,0.038852,0.002853,0.012512,-0.0021939,0,0,0.034243,-0.012556,0,-0.0057041,0,0,0,0.038986,0.0027198,0.012512,-3.4746,0.018072,0.032496,1.2379e-06,0.2,0.84,0
0.0066937,-0.0033992,0.038767,0.0025706,0.012401,-0.0019667,0,0,0.034276,-0.01278,0,-0.0051135,0,0,0,0.038874,0.0024641,0.012401,-3.101,0.017913,0.032598,1.2375e-06,0.21,0.84,0
0.0070366,-0.0035251,0.038675,0.0023094,0.012295,-0.0017574,0,0,0.034294,-0.012982,0,-0.0045692,0,0,0,0.03876,0.0022246,0.012295,-2.7603,0.01776,0.032685,1.2361e-06,0.22,0.84,0
0.0073796,-0.0036479,0.038578,0.0020663,0.012193,-0.0015661,0,0,0.0343,-0.013165,0,-0.0040719,0,0,0,0.038645,0.0019993,0.012193,-2.4516,0.017613,0.032761,1.2339e-06,0.23,0.84,0
0.0077226,-0.0037678,0.038477,0.001839,0.012095,-0.001393,0,0,0.034297,-0.013333,0,-0.0036217,0,0,0,0.03853,0.0017861,0.012095,-2.1742,0.01747,0.032827,1.2311e-06,0.24,0.84,0
0.0080655,-0.0038851,0.038373,0.0016247,0.011999,-0.0012379,0,0,0.034286,-0.013487,0,-0.0032186,0,0,0,0.038415,0.0015831,0.011999,-1.9272,0.017332,0.032885,1.2278e-06,0.25,0.84,0
0.0084083,-0.0040002,0.038267,0.0014213,0.011907,-0.001101,0,0,0.034269,-0.013631,0,-0.0028626,0,0,0,0.0383,0.0013884,0.011907,-1.71,0.017198,0.032937,1.224e-06,0.26,0.84,0
0.0087509,-0.0041133,0.038159,0.0012264,0.011816,-0.00098201,0,0,0.034246,-0.013766,0,-0.0025532,0,0,0,0.038185,0.0012003,0.011816,-1.522,0.017067,0.032984,1.2201e-06,0.27,0.84,0
0.0090932,-0.0042248,0.03805,0.0010378,0.011726,-0.00088093,0,0,0.034221,-0.013895,0,-0.0022904,0,0,0,0.038071,0.0010168,0.011726,-1.3627,0.016938,0.033029,1.2159e-06,0.28,0.84,0
0.0094353,-0.004335,0.037941,0.00085335,0.011638,-0.00079767,0,0,0.034194,-0.01402,0,-0.0020739,0,0,0,0.037958,0.0008362,0.011638,-1.2315,0.016811,0.033072,1.2116e-06,0.29,0.84,0
0.0097771,-0.0044442,0.037832,0.00067085,0.011551,-0.00073213,0,0,0.034165,-0.014144,0,-0.0019035,0,0,0,0.037846,0.00065643,0.011551,-1.1282,0.016684,0.033115,1.2073e-06,0.3,0.84,0
0.010119,-0.0045528,0.037723,0.00048809,0.011463,-0.00068426,0,0,0.034137,-0.014268,0,-0.0017791,0,0,0,0.037735,0.00047552,0.011463,-1.0525,0.016558,0.033161,1.2031e-06,0.31,0.84,0
0.01046,-0.004661,0.037615,0.00030279,0.011375,-0.00065397,0,0,0.034111,-0.014394,0,-0.0017003,0,0,0,0.037626,0.00029133,0.011375,-1.0038,0.016431,0.03321,1.1991e-06,0.32,0.84,0
0.010801,-0.0047692,0.037508,0.00011255,0.011286,-0.00064116,0,0,0.034089,-0.014526,0,-0.001667,0,0,0,0.037519,0.00010156,0.011286,-0.98196,0.016302,0.033267,1.1955e-06,0.33,0.84,0
0.011142,-0.0048777,0.037404,-8.5124e-05,0.011196,-0.00064566,0,0,0.034071,-0.014665,0,-0.0016787,0,0,0,0.037415,-9.624e-05,0.011196,-0.98638,0.016172,0.033332,1.1923e-06,0.34,0.84,0
0.011482,-0.0049868,0.037303,-0.0002929,0.011103,-0.00066719,0,0,0.03406,-0.014815,0,-0.0017347,0,0,0,0.037315,-0.00030474,0.011103,-1.0164,0.016038,0.03341,1.1897e-06,0.35,0.84,0
0.011823,-0.0050968,0.037206,-0.00051359,0.011008,-0.00070535,0,0,0.034058,-0.014978,0,-0.0018339,0,0,0,0.037219,-0.00052678,0.011008,-1.0709,0.0159,0.033502,1.1879e-06,0.36,0.84,0
0.012163,-0.0052081,0.037114,-0.00075017,0.010909,-0.00075946,0,0,0.034066,-0.015157,0,-0.0019746,0,0,0,0.037129,-0.0007654,0.010909,-1.1486,0.015758,0.033614,1.1871e-06,0.37,0.84,0
0.012504,-0.0053208,0.037029,-0.0010057,0.010807,-0.00082858,0,0,0.034089,-0.015357,0,-0.0021543,0,0,0,0.037047,-0.0010238,0.010807,-1.2474,0.01561,0.033748,1.1875e-06,0.38,0.84,0
0.012845,-0.0054351,0.036952,-0.0012834,0.010701,-0.00091135,0,0,0.034127,-0.015579,0,-0.0023695,0,0,0,0.036974,-0.0013051,0.010701,-1.3646,0.015456,0.033909,1.1893e-06,0.39,0.84,0
0.013187,-0.0055514,0.036885,-0.0015864,0.010589,-0.0010059,0,0,0.034184,-0.015829,0,-0.0026154,0,0,0,0.036911,-0.0016127,0.010589,-1.4968,0.015296,0.034101,1.1927e-06,0.4,0.84,0
0.013529,-0.0056697,0.036829,-0.0019176,0.010474,-0.0011099,0,0,0.034262,-0.016108,0,-0.0028857,0,0,0,0.036861,-0.0019494,0.010474,-1.6394,0.015128,0.034328,1.1979e-06,0.41,0.84,0
0.013872,-0.0057902,0.036786,-0.0022796,0.010352,-0.0012202,0,0,0.034365,-0.016421,0,-0.0031725,0,0,0,0.036825,-0.0023177,0.010352,-1.7872,0.014953,0.034594,1.205e-06,0.42,0.84,0
0.014216,-0.0059127,0.036758,-0.0026744,0.010225,-0.0013331,0,0,0.034493,-0.016769,0,-0.0034661,0,0,0,0.036803,-0.0027194,0.010225,-1.9341,0.01477,0.0349,1.2142e-06,0.43,0.84,0
0.014562,-0.0060374,0.036745,-0.003103,0.010093,-0.0014443,0,0,0.034648,-0.017154,0,-0.0037553,0,0,0,0.036798,-0.0031552,0.010093,-2.0731,0.014578,0.035248,1.2255e-06,0.44,0.84,0
0.014909,-0.006164,0.036748,-0.0035652,0.0099549,-0.0015491,0,0,0.034831,-0.017576,0,-0.0040277,0,0,0,0.036808,-0.0036247,0.0099549,-2.1974,0.014379,0.035639,1.2387e-06,0.45,0.84,0
0.015258,-0.0062922,0.036766,-0.0040597,0.009812,-0.0016424,0,0,0.035041,-0.018033,0,-0.0042703,0,0,0,0.036832,-0.0041256,0.009812,-2.3001,0.014173,0.036069,1.2537e-06,0.46,0.84,0
0.01561,-0.0064218,0.036799,-0.004583,0.0096647,-0.0017193,0,0,0.035274,-0.018522,0,-0.0044703,0,0,0,0.03687,-0.0046543,0.0096647,-2.3751,0.01396,0.036534,1.2701e-06,0.47,0.84,0
0.015964,-0.0065523,0.036843,-0.0051305,0.0095137,-0.0017754,0,0,0.035528,-0.019037,0,-0.0046159,0,0,0,0.036918,-0.0052055,0.0095137,-2.4177,0.013742,0.037027,1.2874e-06,0.48,0.84,0
0.016321,-0.0066832,0.036896,-0.0056958,0.00936,-0.0018069,0,0,0.035797,-0.019573,0,-0.004698,0,0,0,0.036972,-0.0057723,0.00936,-2.4249,0.01352,0.03754,1.305e-06,0.49,0.84,0
0.01668,-0.0068141,0.036926,-0.00075625,0.010851,-0.0018109,0,0,0.049829,-0.020119,0,-0.0070436,0,0,0,0.037015,-0.0008447,0.010851,-2.7993,0.015674,0.033645,1.1473e-06,0.5,0.84,0
0.017317,-0.0069908,0.037015,0.0044181,0.01243,-0.001788,0,0,0.063921,-0.020831,0,-0.0092978,0,0,0,0.037112,0.0043203,0.01243,-3.1303,0.017954,0.029583,1.0005e-06,0.51,0.84,0
0.017958,-0.007165,0.037074,0.0040576,0.012339,-0.0017456,0,0,0.06431,-0.021533,0,-0.009077,0,0,0,0.037166,0.0039656,0.012339,-3.018,0.017824,0.029906,1.0193e-06,0.52,0.84,0
0.018603,-0.007336,0.037129,0.0037059,0.01225,-0.001687,0,0,0.064685,-0.022216,0,-0.0087723,0,0,0,0.037214,0.003621,0.01225,-2.8821,0.017695,0.030217,1.0371e-06,0.53,0.84,0
0.019252,-0.0075032,0.037179,0.0033671,0.012164,-0.0016138,0,0,0.065039,-0.022871,0,-0.0083917,0,0,0,0.037255,0.0032902,0.012164,-2.7264,0.01757,0.030512,1.0537e-06,0.54,0.84,0
0.019904,-0.0076658,0.03722,0.0030446,0.012079,-0.0015281,0,0,0.065367,-0.023491,0,-0.0079462,0,0,0,0.037289,0.0029764,0.012079,-2.5551,0.017448,0.030787,1.0688e-06,0.55,0.84,0
0.020559,-0.0078235,0.037254,0.002741,0.011999,-0.0014325,0,0,0.065665,-0.02407,0,-0.0074488,0,0,0,0.037313,0.0026817,0.011999,-2.3726,0.017331,0.03104,1.0824e-06,0.56,0.84,0
0.021217,-0.0079758,0.037279,0.0024581,0.011921,-0.0013295,0,0,0.06593,-0.024604,0,-0.0069135,0,0,0,0.03733,0.0024074,0.011921,-2.1834,0.017219,0.03127,1.0943e-06,0.57,0.84,0
0.021878,-0.0081223,0.037295,0.0021968,0.011847,-0.0012219,0,0,0.066163,-0.025092,0,-0.006354,0,0,0,0.037337,0.0021543,0.011847,-1.9915,0.017113,0.031476,1.1045e-06,0.58,0.84,0
0.022541,-0.0082628,0.037302,0.0019571,0.011778,-0.0011122,0,0,0.066363,-0.025533,0,-0.0057833,0,0,0,0.037337,0.0019222,0.011778,-1.8005,0.017012,0.031659,1.1131e-06,0.59,0.84,0
0.023205,-0.0083972,0.037301,0.0017388,0.011712,-0.0010024,0,0,0.066531,-0.02593,0,-0.0052127,0,0,0,0.037329,0.0017106,0.011712,-1.6134,0.016917,0.03182,1.1203e-06,0.6,0.84,0
0.023871,-0.0085253,0.037293,0.0015409,0.01165,-0.00089461,0,0,0.066672,-0.026284,0,-0.004652,0,0,0,0.037316,0.0015185,0.01165,-1.4325,0.016828,0.031959,1.1261e-06,0.61,0.84,0
0.024539,-0.0086473,0.037279,0.0013621,0.011593,-0.00079016,0,0,0.066786,-0.026599,0,-0.0041088,0,0,0,0.037297,0.0013448,0.011593,-1.2597,0.016745,0.03208,1.1306e-06,0.62,0.84,0
0.025207,-0.0087631,0.037261,0.0012012,0.011539,-0.00069025,0,0,0.066878,-0.026877,0,-0.0035893,0,0,0,0.037274,0.001188,0.011539,-1.0962,0.016667,0.032184,1.1342e-06,0.63,0.84,0
0.025876,-0.008873,0.037238,0.0010567,0.011488,-0.0005957,0,0,0.066949,-0.027123,0,-0.0030977,0,0,0,0.037248,0.0010469,0.011488,-0.943,0.016594,0.032273,1.1368e-06,0.64,0.84,0
0.026546,-0.0089769,0.037212,0.00092696,0.011442,-0.00050709,0,0,0.067003,-0.027339,0,-0.0026369,0,0,0,0.03722,0.00091988,0.011442,-0.8005,0.016527,0.032349,1.1387e-06,0.65,0.84,0
0.027216,-0.0090751,0.037185,0.00081067,0.011399,-0.00042472,0,0,0.067044,-0.027529,0,-0.0022086,0,0,0,0.03719,0.00080571,0.011399,-0.6689,0.016465,0.032413,1.1399e-06,0.66,0.84,0
0.027887,-0.0091678,0.037156,0.00070642,0.011359,-0.00034876,0,0,0.067072,-0.027696,0,-0.0018136,0,0,0,0.037159,0.00070309,0.011359,-0.54817,0.016407,0.032467,1.1407e-06,0.67,0.84,0
0.028558,-0.0092552,0.037126,0.00061296,0.011322,-0.00027919,0,0,0.067091,-0.027842,0,-0.0014518,0,0,0,0.037128,0.00061083,0.011322,-0.43807,0.016353,0.032513,1.141e-06,0.68,0.84,0
0.029229,-0.0093375,0.037096,0.00052912,0.011287,-0.00021591,0,0,0.067101,-0.027972,0,-0.0011227,0,0,0,0.037097,0.00052784,0.011287,-0.33829,0.016304,0.032551,1.141e-06,0.69,0.84,0
0.0299,-0.0094149,0.037066,0.00045385,0.011256,-0.00015873,0,0,0.067106,-0.028085,0,-0.00082538,0,0,0,0.037067,0.00045316,0.011256,-0.24839,0.016259,0.032584,1.1408e-06,0.7,0.84,0
0.030571,-0.0094877,0.037037,0.0003862,0.011227,-0.0001074,0,0,0.067106,-0.028186,0,-0.00055847,0,0,0,0.037037,0.00038589,0.011227,-0.16789,0.016217,0.032612,1.1403e-06,0.71,0.84,0
0.031242,-0.009556,0.037009,0.00032535,0.0112,-6.1644e-05,0,0,0.067102,-0.028275,0,-0.00032055,0,0,0,0.037009,0.00032525,0.0112,-0.096282,0.016178,0.032635,1.1398e-06,0.72,0.84,0
0.031913,-0.0096201,0.036982,0.00027055,0.011176,-2.1167e-05,0,0,0.067096,-0.028353,0,-0.00011007,0,0,0,0.036982,0.00027053,0.011176,-0.033036,0.016143,0.032654,1.1391e-06,0.73,0.84,0
0.032584,-0.0096801,0.036956,0.00022113,0.011153,1.4344e-05,0,0,0.067087,-0.028423,0,7.4588e-05,0,0,0,0.036956,0.00022112,0.011153,0.022372,0.01611,0.032671,1.1384e-06,0.74,0.84,0
0.033254,-0.0097363,0.036931,0.00017652,0.011132,4.5199e-05,0,0,0.067078,-0.028485,0,0.00023504,0,0,0,0.036931,0.00017646,0.011132,0.070459,0.01608,0.032685,1.1376e-06,0.75,0.84,0
0.033925,-0.0097889,0.036908,0.00013621,0.011113,7.1707e-05,0,0,0.067067,-0.028541,0,0.00037288,0,0,0,0.036909,0.00013607,0.011113,0.11173,0.016053,0.032697,1.1369e-06,0.76,0.84,0
0.034596,-0.009838,0.036887,9.9747e-05,0.011096,9.4166e-05,0,0,0.067057,-0.02859,0,0.00048966,0,0,0,0.036887,9.9506e-05,0.011096,0.14666,0.016028,0.032707,1.1361e-06,0.77,0.84,0
0.035266,-0.0098838,0.036867,6.6737e-05,0.01108,0.00011286,0,0,0.067046,-0.028635,0,0.00058689,0,0,0,0.036867,6.6391e-05,0.01108,0.17572,0.016005,0.032715,1.1354e-06,0.78,0.84,0
0.035937,-0.0099265,0.036848,3.6833e-05,0.011066,0.00012807,0,0,0.067035,-0.028675,0,0.00066598,0,0,0,0.036849,3.6387e-05,0.011066,0.19934,0.015984,0.032723,1.1346e-06,0.79,0.84,0
0.036607,-0.0099662,0.036831,9.7295e-06,0.011052,0.00014006,0,0,0.067025,-0.02871,0,0.00072831,0,0,0,0.036832,9.1967e-06,0.011052,0.21793,0.015964,0.032729,1.1339e-06,0.8,0.84,0
0.037277,-0.010003,0.036815,-1.4842e-05,0.01104,0.00014907,0,0,0.067015,-0.028743,0,0.00077515,0,0,0,0.036816,-1.5445e-05,0.01104,0.2319,0.015947,0.032735,1.1333e-06,0.81,0.84,0
0.037947,-0.010037,0.036801,-3.7116e-05,0.011029,0.00015533,0,0,0.067006,-0.028772,0,0.00080772,0,0,0,0.036801,-3.7771e-05,0.011029,0.24159,0.015931,0.03274,1.1327e-06,0.82,0.84,0
0.038617,-0.010069,0.036787,-5.7302e-05,0.011019,0.00015907,0,0,0.066997,-0.028798,0,0.00082717,0,0,0,0.036788,-5.7989e-05,0.011019,0.24736,0.015916,0.032744,1.1321e-06,0.83,0.84,0
0.039287,-0.010098,0.036775,-7.5583e-05,0.01101,0.0001605,0,0,0.06699,-0.028822,0,0.00083458,0,0,0,0.036776,-7.6282e-05,0.01101,0.24954,0.015903,0.032748,1.1316e-06,0.84,0.84,0
0.039957,-0.010125,0.036764,-9.2118e-05,0.011002,0.0001598,0,0,0.066982,-0.028844,0,0.00083096,0,0,0,0.036765,-9.281e-05,0.011002,0.24842,0.015891,0.032751,1.1311e-06,0.85,0.84,0
0.040627,-0.01015,0.036754,-0.00010705,0.010994,0.00015717,0,0,0.066976,-0.028863,0,0.00081727,0,0,0,0.036755,-0.00010772,0.010994,0.24429,0.01588,0.032754,1.1307e-06,0.86,0.84,0
0.041297,-0.010172,0.036745,-0.0001205,0.010987,0.00015277,0,0,0.06697,-0.02888,0,0.00079441,0,0,0,0.036746,-0.00012114,0.010987,0.23743,0.015871,0.032757,1.1303e-06,0.87,0.84,0
0.041966,-0.010193,0.036737,-0.00013259,0.010981,0.00014678,0,0,0.066965,-0.028896,0,0.00076323,0,0,0,0.036738,-0.00013317,0.010981,0.22809,0.015862,0.03276,1.13e-06,0.88,0.84,0
0.042636,-0.010212,0.03673,-0.0001434,0.010976,0.00013934,0,0,0.06696,-0.02891,0,0.00072455,0,0,0,0.03673,-0.00014392,0.010976,0.2165,0.015854,0.032762,1.1296e-06,0.89,0.84,0
0.043305,-0.010228,0.036723,-0.00015302,0.010971,0.0001306,0,0,0.066956,-0.028923,0,0.00067911,0,0,0,0.036724,-0.00015348,0.010971,0.20291,0.015847,0.032764,1.1294e-06,0.9,0.84,0
0.043975,-0.010243,0.036718,-0.00016153,0.010967,0.0001207,0,0,0.066953,-0.028934,0,0.00062766,0,0,0,0.036718,-0.00016192,0.010967,0.18752,0.015841,0.032765,1.1291e-06,0.91,0.84,0
0.044645,-0.010256,0.036713,-0.00016898,0.010963,0.00010978,0,0,0.06695,-0.028944,0,0.00057088,0,0,0,0.036713,-0.00016931,0.010963,0.17055,0.015836,0.032767,1.1289e-06,0.92,0.84,0
0.045314,-0.010268,0.036709,-0.00017544,0.01096,9.797e-05,0,0,0.066947,-0.028952,0,0.00050944,0,0,0,0.036709,-0.0001757,0.01096,0.15218,0.015831,0.032768,1.1287e-06,0.93,0.84,0
0.045983,-0.010278,0.036705,-0.00018094,0.010957,8.538e-05,0,0,0.066945,-0.028959,0,0.00044398,0,0,0,0.036706,-0.00018114,0.010957,0.13262,0.015827,0.032769,1.1286e-06,0.94,0.84,0
0.046653,-0.010286,0.036702,-0.00018554,0.010955,7.2135e-05,0,0,0.066943,-0.028966,0,0.0003751,0,0,0,0.036702,-0.00018568,0.010955,0.11204,0.015824,0.03277,1.1284e-06,0.95,0.84,0
0.047322,-0.010293,0.0367,-0.00018925,0.010953,5.8349e-05,0,0,0.066942,-0.02897,0,0.00030342,0,0,0,0.0367,-0.00018935,0.010953,0.090627,0.015821,0.032771,1.1283e-06,0.96,0.84,0
0.047992,-0.010298,0.036698,-0.00019212,0.010952,4.4134e-05,0,0,0.066941,-0.028974,0,0.0002295,0,0,0,0.036698,-0.00019217,0.010952,0.068547,0.015819,0.032772,1.1282e-06,0.97,0.84,0
0.048661,-0.010302,0.036697,-0.00019415,0.010951,2.96e-05,0,0,0.06694,-0.028977,0,0.00015392,0,0,0,0.036697,-0.00019417,0.010951,0.045971,0.015818,0.032772,1.1282e-06,0.98,0.84,0
0.049331,-0.010304,0.036696,-0.00019536,0.01095,1.4853e-05,0,0,0.066939,-0.028979,0,7.7234e-05,0,0,0,0.036696,-0.00019537,0.01095,0.023068,0.015817,0.032772,1.1281e-06,0.99,0.84,0
0.05,-0.010305,0.036696,-0.00019577,0.01095,-1.4207e-05,0,0,0.066939,-0.028979,0,-7.3876e-05,0,0,0,0.036696,-0.00019577,0.01095,-0.022064,0.015817,0.032773,1.1281e-06,1,0.84,0
0,0,0.03704,0.015874,0.015874,-0.0066948,0,0,0.027515,3.7947e-19,0,-0.017406,0,0,0,0.03898,0.013934,0.015874,-16.159,0.022929,0.024134,7.0624e-07,0,0.85,0
0.00027515,-0.00017406,0.036962,0.014886,0.015554,-0.0066928,0,0,0.02783,-0.00086903,0,-0.017401,0,0,0,0.038832,0.013015,0.015554,-15.615,0.022467,0.024646,7.4142e-07,0.01,0.85,0
0.00055659,-0.00035337,0.037292,0.014022,0.015394,-0.0067555,0,0,0.028467,-0.001784,0,-0.017564,0,0,0,0.039111,0.012203,0.015394,-15.07,0.022236,0.025463,8.0319e-07,0.02,0.85,0
0.0008445,-0.00053683,0.03762,0.013124,0.015223,-0.0067583,0,0,0.029116,-0.0027288,0,-0.017572,0,0,0,0.039361,0.011383,0.015223,-14.445,0.021989,0.026269,8.6434e-07,0.03,0.85,0
0.0011389,-0.00072325,0.037938,0.01221,0.015044,-0.0066986,0,0,0.029762,-0.0036849,0,-0.017416,0,0,0,0.039578,0.01057,0.015044,-13.753,0.021731,0.027049,9.2341e-07,0.04,0.85,0
0.0014397,-0.00091141,0.038236,0.011295,0.014859,-0.0065772,0,0,0.03039,-0.0046335,0,-0.017101,0,0,0,0.039756,0.0097753,0.014859,-13.012,0.021464,0.02779,9.7908e-07,0.05,0.85,0
0.0017467,-0.0011001,0.038509,0.010397,0.014672,-0.0063985,0,0,0.030988,-0.0055572,0,-0.016636,0,0,0,0.039896,0.009009,0.014672,-12.238,0.021192,0.028481,1.0303e-06,0.06,0.85,0
0.0020595,-0.0012881,0.038748,0.0095284,0.014483,-0.0061691,0,0,0.031545,-0.0064409,0,-0.01604,0,0,0,0.039997,0.0082793,0.014483,-11.446,0.02092,0.029116,1.0763e-06,0.07,0.85,0
0.0023776,-0.0014745,0.038951,0.0087007,0.014296,-0.0058976,0,0,0.032053,-0.0072735,0,-0.015334,0,0,0,0.040061,0.0075915,0.014296,-10.651,0.020649,0.02969,1.1166e-06,0.08,0.85,0
0.0027005,-0.0016583,0.039117,0.0079214,0.014111,-0.0055934,0,0,0.032507,-0.008047,0,-0.014543,0,0,0,0.040089,0.0069488,0.014111,-9.864,0.020383,0.030203,1.1512e-06,0.09,0.85,0
0.0030277,-0.0018388,0.039244,0.0071953,0.013932,-0.0052656,0,0,0.032905,-0.0087572,0,-0.01369,0,0,0,0.040086,0.0063524,0.013932,-9.0954,0.020123,0.030655,1.1803e-06,0.1,0.85,0
0.0033586,-0.0020154,0.039334,0.0065244,0.013757,-0.0049231,0,0,0.033249,-0.0094029,0,-0.0128,0,0,0,0.040056,0.0058016,0.013757,-8.3524,0.019872,0.031051,1.204e-06,0.11,0.85,0
0.0036927,-0.0021877,0.039389,0.0059086,0.013589,-0.0045737,0,0,0.03354,-0.009985,0,-0.011892,0,0,0,0.040003,0.005295,0.013589,-7.6406,0.019629,0.031394,1.223e-06,0.12,0.85,0
0.0040295,-0.0023554,0.039414,0.0053462,0.013428,-0.0042242,0,0,0.033782,-0.010507,0,-0.010983,0,0,0,0.03993,0.0048302,0.013428,-6.9637,0.019396,0.031688,1.2377e-06,0.13,0.85,0
0.0043684,-0.0025183,0.039412,0.0048343,0.013274,-0.0038798,0,0,0.033979,-0.010971,0,-0.010088,0,0,0,0.039842,0.0044043,0.013274,-6.3242,0.019173,0.03194,1.2486e-06,0.14,0.85,0
0.004709,-0.0026763,0.039386,0.0043695,0.013127,-0.0035451,0,0,0.034137,-0.011384,0,-0.0092172,0,0,0,0.039741,0.0040142,0.013127,-5.7233,0.018961,0.032154,1.2564e-06,0.15,0.85,0
0.0050511,-0.0028296,0.03934,0.0039478,0.012986,-0.0032232,0,0,0.03426,-0.01175,0,-0.0083804,0,0,0,0.039631,0.0036567,0.012986,-5.1614,0.018758,0.032335,1.2614e-06,0.16,0.85,0
0.0053942,-0.0029781,0.039278,0.0035654,0.012853,-0.0029166,0,0,0.034352,-0.012074,0,-0.0075833,0,0,0,0.039514,0.0033287,0.012853,-4.6384,0.018565,0.032488,1.2642e-06,0.17,0.85,0
0.0057382,-0.003122,0.039202,0.0032181,0.012726,-0.0026271,0,0,0.034419,-0.01236,0,-0.0068304,0,0,0,0.039393,0.0030273,0.012726,-4.1537,0.018382,0.032616,1.2652e-06,0.18,0.85,0
0.0060826,-0.0032615,0.039115,0.0029022,0.012605,-0.0023557,0,0,0.034463,-0.012614,0,-0.0061247,0,0,0,0.039268,0.0027496,0.012605,-3.7063,0.018208,0.032723,1.2646e-06,0.19,0.85,0
0.0064274,-0.0033969,0.03902,0.002614,0.01249,-0.0021031,0,0,0.034489,-0.012839,0,-0.005468,0,0,0,0.039142,0.0024929,0.01249,-3.2951,0.018042,0.032813,1.2628e-06,0.2,0.85,0
0.0067724,-0.0035283,0.038919,0.0023501,0.012381,-0.0018696,0,0,0.0345,-0.01304,0,-0.004861,0,0,0,0.039015,0.0022548,0.012381,-2.9191,0.017883,0.032887,1.26e-06,0.21,0.85,0
0.0071174,-0.0036561,0.038813,0.0021075,0.012276,-0.0016555,0,0,0.034498,-0.013219,0,-0.0043042,0,0,0,0.038887,0.0020329,0.012276,-2.5771,0.017732,0.032949,1.2564e-06,0.22,0.85,0
0.0074624,-0.0037806,0.038703,0.0018831,0.012176,-0.0014605,0,0,0.034485,-0.013381,0,-0.0037974,0,0,0,0.038761,0.0018252,0.012176,-2.268,0.017587,0.033001,1.2522e-06,0.23,0.85,0
0.0078071,-0.0039021,0.038591,0.0016742,0.012079,-0.0012847,0,0,0.034465,-0.013527,0,-0.0033402,0,0,0,0.038635,0.0016295,0.012079,-1.9907,0.017448,0.033044,1.2476e-06,0.24,0.85,0
0.0081516,-0.0040209,0.038476,0.0014784,0.011986,-0.0011278,0,0,0.034437,-0.013661,0,-0.0029322,0,0,0,0.038511,0.001444,0.011986,-1.7443,0.017314,0.03308,1.2425e-06,0.25,0.85,0
0.0084959,-0.0041373,0.038361,0.0012932,0.011896,-0.00098948,0,0,0.034404,-0.013784,0,-0.0025727,0,0,0,0.038387,0.0012668,0.011896,-1.528,0.017184,0.033111,1.2373e-06,0.26,0.85,0
0.0088397,-0.0042517,0.038245,0.0011163,0.011808,-0.00086969,0,0,0.034368,-0.0139,0,-0.0022612,0,0,0,0.038265,0.001096,0.011808,-1.3411,0.017057,0.033138,1.2318e-06,0.27,0.85,0
0.0091832,-0.0043644,0.038129,0.00094573,0.011722,-0.0007682,0,0,0.034328,-0.01401,0,-0.0019973,0,0,0,0.038145,0.00092986,0.011722,-1.183,0.016932,0.033163,1.2262e-06,0.28,0.85,0
0.0095263,-0.0044757,0.038012,0.00077914,0.011638,-0.00068487,0,0,0.034287,-0.014116,0,-0.0017807,0,0,0,0.038025,0.00076655,0.011638,-1.0534,0.01681,0.033187,1.2206e-06,0.29,0.85,0
0.009869,-0.0045861,0.037896,0.00061445,0.011553,-0.00061963,0,0,0.034246,-0.014221,0,-0.001611,0,0,0,0.037907,0.00060416,0.011553,-0.95191,0.016688,0.033211,1.215e-06,0.3,0.85,0
0.010211,-0.0046958,0.037781,0.00044945,0.011469,-0.00057243,0,0,0.034205,-0.014326,0,-0.0014883,0,0,0,0.03779,0.00044068,0.011469,-0.87828,0.016567,0.033237,1.2096e-06,0.31,0.85,0
0.010553,-0.0048051,0.037667,0.00028187,0.011385,-0.00054325,0,0,0.034167,-0.014434,0,-0.0014124,0,0,0,0.037674,0.00027397,0.011385,-0.83235,0.016444,0.033267,1.2044e-06,0.32,0.85,0
0.010894,-0.0049145,0.037553,0.00010929,0.011299,-0.00053208,0,0,0.034131,-0.014546,0,-0.0013834,0,0,0,0.037561,0.00010173,0.011299,-0.81395,0.016321,0.033304,1.1995e-06,0.33,0.85,0
0.011236,-0.0050243,0.037442,-7.0835e-05,0.011211,-0.00053889,0,0,0.0341,-0.014667,0,-0.0014011,0,0,0,0.03745,-7.8575e-05,0.011211,-0.82286,0.016194,0.033349,1.195e-06,0.34,0.85,0
0.011576,-0.0051349,0.037333,-0.00026128,0.011122,-0.0005636,0,0,0.034075,-0.014798,0,-0.0014654,0,0,0,0.037342,-0.00026973,0.011122,-0.8587,0.016064,0.033406,1.1911e-06,0.35,0.85,0
0.011917,-0.0052464,0.037228,-0.00046503,0.011029,-0.00060597,0,0,0.034059,-0.014942,0,-0.0015755,0,0,0,0.037238,-0.00047477,0.011029,-0.9208,0.015931,0.033477,1.188e-06,0.36,0.85,0
0.012258,-0.0053594,0.037127,-0.0006853,0.010933,-0.00066558,0,0,0.034053,-0.015103,0,-0.0017305,0,0,0,0.037139,-0.00069701,0.010933,-1.0081,0.015792,0.033568,1.1859e-06,0.37,0.85,0
0.012598,-0.005474,0.037033,-0.00092554,0.010832,-0.00074168,0,0,0.034061,-0.015285,0,-0.0019284,0,0,0,0.037047,-0.00094002,0.010832,-1.119,0.015647,0.033681,1.1849e-06,0.38,0.85,0
0.012939,-0.0055905,0.036946,-0.0011894,0.010727,-0.00083314,0,0,0.034085,-0.015491,0,-0.0021662,0,0,0,0.036964,-0.0012075,0.010727,-1.2509,0.015494,0.033822,1.1854e-06,0.39,0.85,0
0.01328,-0.0057092,0.036869,-0.0014805,0.010616,-0.00093824,0,0,0.034128,-0.015726,0,-0.0024394,0,0,0,0.036892,-0.0015034,0.010616,-1.4007,0.015335,0.033996,1.1875e-06,0.4,0.85,0
0.013621,-0.0058303,0.036803,-0.0018025,0.0105,-0.0010546,0,0,0.034194,-0.015993,0,-0.002742,0,0,0,0.036832,-0.0018313,0.0105,-1.5637,0.015167,0.034207,1.1916e-06,0.41,0.85,0
0.013964,-0.0059538,0.036751,-0.0021587,0.010378,-0.0011792,0,0,0.034285,-0.016297,0,-0.0030658,0,0,0,0.036786,-0.0021944,0.010378,-1.7342,0.01499,0.03446,1.1978e-06,0.42,0.85,0
0.014307,-0.0060798,0.036714,-0.002552,0.010249,-0.0013078,0,0,0.034405,-0.016641,0,-0.0034004,0,0,0,0.036757,-0.0025955,0.010249,-1.9056,0.014804,0.034759,1.2064e-06,0.43,0.85,0
0.014652,-0.0062083,0.036694,-0.002984,0.010113,-0.0014359,0,0,0.034555,-0.017026,0,-0.0037332,0,0,0,0.036746,-0.0030359,0.010113,-2.0698,0.014608,0.035105,1.2172e-06,0.44,0.85,0
0.014998,-0.0063391,0.036691,-0.0034552,0.0099708,-0.0015577,0,0,0.034736,-0.017454,0,-0.0040499,0,0,0,0.036751,-0.0035155,0.0099708,-2.2186,0.014402,0.0355,1.2304e-06,0.45,0.85,0
0.015347,-0.006472,0.036706,-0.0039642,0.0098225,-0.0016673,0,0,0.034948,-0.017923,0,-0.0043351,0,0,0,0.036774,-0.0040324,0.0098225,-2.3437,0.014188,0.035941,1.2457e-06,0.46,0.85,0
0.015697,-0.0066066,0.036736,-0.0045077,0.0096687,-0.0017588,0,0,0.035188,-0.018429,0,-0.004573,0,0,0,0.036811,-0.0045825,0.0096687,-2.4375,0.013966,0.036423,1.2626e-06,0.47,0.85,0
0.01605,-0.0067424,0.036781,-0.00508,0.0095103,-0.0018267,0,0,0.035452,-0.018967,0,-0.0047494,0,0,0,0.03686,-0.0051596,0.0095103,-2.4939,0.013737,0.036939,1.2806e-06,0.48,0.85,0
0.016406,-0.0068788,0.036836,-0.0056738,0.0093485,-0.0018663,0,0,0.035733,-0.019529,0,-0.0048524,0,0,0,0.036917,-0.0057556,0.0093485,-2.5091,0.013503,0.037478,1.2991e-06,0.49,0.85,0
0.016765,-0.0070152,0.036867,-0.00076939,0.010829,-0.001874,0,0,0.049759,-0.020104,0,-0.0072903,0,0,0,0.036962,-0.00086422,0.010829,-2.8998,0.015642,0.033613,1.1428e-06,0.5,0.85,0
0.017402,-0.0071992,0.036959,0.0043828,0.012403,-0.0018507,0,0,0.063847,-0.020851,0,-0.0096238,0,0,0,0.037064,0.0042779,0.012403,-3.2412,0.017915,0.029573,9.9805e-07,0.51,0.85,0
0.018042,-0.0073806,0.03702,0.004004,0.012307,-0.0018049,0,0,0.064254,-0.021589,0,-0.0093856,0,0,0,0.037119,0.0039056,0.012307,-3.1198,0.017777,0.029911,1.0175e-06,0.52,0.85,0
0.018687,-0.0075586,0.037076,0.0036355,0.012214,-0.0017406,0,0,0.064644,-0.022303,0,-0.0090512,0,0,0,0.037167,0.0035451,0.012214,-2.9716,0.017642,0.030234,1.0359e-06,0.53,0.85,0
0.019335,-0.0077324,0.037126,0.0032821,0.012122,-0.0016598,0,0,0.065009,-0.022985,0,-0.0086309,0,0,0,0.037207,0.0032009,0.012122,-2.801,0.01751,0.030539,1.0529e-06,0.54,0.85,0
0.019987,-0.0079014,0.037166,0.0029478,0.012034,-0.0015652,0,0,0.065343,-0.023625,0,-0.0081388,0,0,0,0.037238,0.0028763,0.012034,-2.6134,0.017383,0.03082,1.0681e-06,0.55,0.85,0
0.020642,-0.0080649,0.037197,0.0026354,0.01195,-0.0014598,0,0,0.065643,-0.024217,0,-0.0075911,0,0,0,0.037258,0.0025738,0.01195,-2.4144,0.017261,0.031076,1.0815e-06,0.56,0.85,0
0.0213,-0.0082225,0.037218,0.0023467,0.011869,-0.0013471,0,0,0.065905,-0.024759,0,-0.0070048,0,0,0,0.037269,0.0022947,0.011869,-2.209,0.017145,0.031305,1.0931e-06,0.57,0.85,0
0.02196,-0.0083739,0.037228,0.0020824,0.011793,-0.00123,0,0,0.066131,-0.025248,0,-0.0063961,0,0,0,0.037271,0.0020394,0.011793,-2.002,0.017035,0.031508,1.1028e-06,0.58,0.85,0
0.022622,-0.0085188,0.037229,0.0018424,0.011721,-0.0011115,0,0,0.06632,-0.025686,0,-0.0057801,0,0,0,0.037264,0.0018075,0.011721,-1.7974,0.016931,0.031685,1.1107e-06,0.59,0.85,0
0.023286,-0.0086572,0.037222,0.0016258,0.011654,-0.00099412,0,0,0.066476,-0.026074,0,-0.0051694,0,0,0,0.03725,0.0015981,0.011654,-1.5985,0.016834,0.031838,1.1171e-06,0.6,0.85,0
0.023952,-0.0087888,0.037207,0.0014313,0.011592,-0.00087971,0,0,0.066601,-0.026417,0,-0.0045745,0,0,0,0.037229,0.0014097,0.011592,-1.4077,0.016744,0.031969,1.1221e-06,0.61,0.85,0
0.024618,-0.0089139,0.037187,0.0012573,0.011533,-0.00076988,0,0,0.0667,-0.026718,0,-0.0040034,0,0,0,0.037204,0.0012408,0.011533,-1.2269,0.016659,0.03208,1.1258e-06,0.62,0.85,0
0.025286,-0.0090324,0.037162,0.0011021,0.011479,-0.00066575,0,0,0.066775,-0.026981,0,-0.0034619,0,0,0,0.037174,0.0010898,0.011479,-1.0573,0.016581,0.032173,1.1285e-06,0.63,0.85,0
0.025954,-0.0091446,0.037133,0.00096382,0.011429,-0.00056806,0,0,0.066831,-0.02721,0,-0.0029539,0,0,0,0.037142,0.0009549,0.011429,-0.89956,0.016509,0.032252,1.1303e-06,0.64,0.85,0
0.026622,-0.0092506,0.037102,0.00084075,0.011383,-0.00047726,0,0,0.06687,-0.027409,0,-0.0024817,0,0,0,0.037108,0.00083447,0.011383,-0.75393,0.016442,0.032318,1.1314e-06,0.65,0.85,0
0.027291,-0.0093507,0.037069,0.00073123,0.01134,-0.00039355,0,0,0.066896,-0.027583,0,-0.0020465,0,0,0,0.037074,0.00072697,0.01134,-0.62043,0.01638,0.032372,1.132e-06,0.66,0.85,0
0.02796,-0.009445,0.037036,0.00063375,0.011301,-0.00031695,0,0,0.066911,-0.027735,0,-0.0016481,0,0,0,0.037039,0.00063099,0.011301,-0.49882,0.016324,0.032418,1.1321e-06,0.67,0.85,0
0.028629,-0.0095338,0.037003,0.00054691,0.011265,-0.00024733,0,0,0.066918,-0.027866,0,-0.0012861,0,0,0,0.037004,0.00054523,0.011265,-0.3887,0.016271,0.032455,1.1318e-06,0.68,0.85,0
0.029299,-0.0096173,0.036969,0.00046948,0.011232,-0.00018447,0,0,0.066918,-0.027982,0,-0.00095927,0,0,0,0.03697,0.00046855,0.011232,-0.28957,0.016223,0.032486,1.1313e-06,0.69,0.85,0
0.029968,-0.0096958,0.036937,0.00040034,0.011201,-0.00012808,0,0,0.066913,-0.028082,0,-0.00066604,0,0,0,0.036938,0.0003999,0.011201,-0.20085,0.01618,0.032512,1.1306e-06,0.7,0.85,0
0.030637,-0.0097695,0.036906,0.00033853,0.011173,-7.7832e-05,0,0,0.066905,-0.028171,0,-0.00040473,0,0,0,0.036906,0.00033837,0.011173,-0.12195,0.016139,0.032533,1.1299e-06,0.71,0.85,0
0.031306,-0.0098387,0.036876,0.00028318,0.011148,-3.3363e-05,0,0,0.066894,-0.028248,0,-0.00017349,0,0,0,0.036877,0.00028315,0.011148,-0.052238,0.016102,0.032551,1.129e-06,0.72,0.85,0
0.031975,-0.0099035,0.036848,0.00023354,0.011125,5.6852e-06,0,0,0.066882,-0.028317,0,2.9563e-05,0,0,0,0.036848,0.00023354,0.011125,0.0088964,0.016069,0.032565,1.128e-06,0.73,0.85,0
0.032643,-0.0099642,0.036822,0.00018895,0.011103,3.9674e-05,0,0,0.066869,-0.028377,0,0.00020631,0,0,0,0.036822,0.00018891,0.011103,0.062052,0.016038,0.032577,1.1271e-06,0.74,0.85,0
0.033312,-0.010021,0.036797,0.00014884,0.011084,6.8958e-05,0,0,0.066855,-0.028431,0,0.00035858,0,0,0,0.036797,0.00014871,0.011084,0.10781,0.01601,0.032587,1.1262e-06,0.75,0.85,0
0.033981,-0.010074,0.036774,0.00011271,0.011066,9.3877e-05,0,0,0.066841,-0.028479,0,0.00048816,0,0,0,0.036775,0.00011247,0.011066,0.14671,0.015984,0.032596,1.1253e-06,0.76,0.85,0
0.034649,-0.010124,0.036753,8.0121e-05,0.01105,0.00011476,0,0,0.066828,-0.028522,0,0.00059673,0,0,0,0.036753,7.9762e-05,0.01105,0.17929,0.015961,0.032603,1.1244e-06,0.77,0.85,0
0.035317,-0.01017,0.036733,5.0698e-05,0.011035,0.00013191,0,0,0.066815,-0.02856,0,0.00068591,0,0,0,0.036734,5.0224e-05,0.011035,0.20602,0.01594,0.032609,1.1236e-06,0.78,0.85,0
0.035985,-0.010213,0.036715,2.4107e-05,0.011022,0.00014561,0,0,0.066803,-0.028594,0,0.00075719,0,0,0,0.036716,2.3529e-05,0.011022,0.22738,0.01592,0.032615,1.1228e-06,0.79,0.85,0
0.036653,-0.010253,0.036699,5.8769e-08,0.01101,0.00015615,0,0,0.066792,-0.028625,0,0.000812,0,0,0,0.036699,-6.0566e-07,0.01101,0.24379,0.015903,0.03262,1.1221e-06,0.8,0.85,0
0.037321,-0.01029,0.036684,-2.17e-05,0.010999,0.00016378,0,0,0.066781,-0.028653,0,0.00085167,0,0,0,0.036684,-2.2431e-05,0.010999,0.25565,0.015887,0.032624,1.1214e-06,0.81,0.85,0
0.037989,-0.010325,0.03667,-4.139e-05,0.010989,0.00016874,0,0,0.066772,-0.028678,0,0.00087743,0,0,0,0.036671,-4.2165e-05,0.010989,0.26334,0.015872,0.032627,1.1208e-06,0.82,0.85,0
0.038657,-0.010356,0.036658,-5.9205e-05,0.010979,0.00017124,0,0,0.066763,-0.028701,0,0.00089045,0,0,0,0.036658,-6.0003e-05,0.010979,0.26721,0.015859,0.032631,1.1203e-06,0.83,0.85,0
0.039324,-0.010386,0.036646,-7.5314e-05,0.010971,0.0001715,0,0,0.066755,-0.028721,0,0.00089182,0,0,0,0.036647,-7.6115e-05,0.010971,0.26758,0.015848,0.032634,1.1198e-06,0.84,0.85,0
0.039992,-0.010413,0.036637,-8.9867e-05,0.010964,0.00016972,0,0,0.066749,-0.02874,0,0.00088254,0,0,0,0.036637,-9.0651e-05,0.010964,0.26477,0.015837,0.032636,1.1193e-06,0.85,0.85,0
0.040659,-0.010438,0.036628,-0.00010299,0.010957,0.00016607,0,0,0.066742,-0.028757,0,0.00086357,0,0,0,0.036628,-0.00010374,0.010957,0.25905,0.015827,0.032639,1.119e-06,0.86,0.85,0
0.041327,-0.010461,0.036619,-0.00011481,0.010951,0.00016073,0,0,0.066737,-0.028772,0,0.00083579,0,0,0,0.03662,-0.00011551,0.010951,0.25069,0.015819,0.032641,1.1186e-06,0.87,0.85,0
0.041994,-0.010481,0.036612,-0.00012541,0.010946,0.00015385,0,0,0.066733,-0.028786,0,0.00080003,0,0,0,0.036613,-0.00012605,0.010946,0.23994,0.015811,0.032643,1.1183e-06,0.88,0.85,0
0.042661,-0.0105,0.036606,-0.00013488,0.010941,0.00014559,0,0,0.066728,-0.028798,0,0.0007571,0,0,0,0.036607,-0.00013546,0.010941,0.22704,0.015804,0.032645,1.118e-06,0.89,0.85,0
0.043328,-0.010517,0.036601,-0.00014331,0.010937,0.0001361,0,0,0.066725,-0.028809,0,0.00070772,0,0,0,0.036601,-0.00014382,0.010937,0.21222,0.015798,0.032647,1.1178e-06,0.9,0.85,0
0.043996,-0.010532,0.036596,-0.00015076,0.010934,0.0001255,0,0,0.066722,-0.028819,0,0.00065259,0,0,0,0.036596,-0.00015118,0.010934,0.19567,0.015793,0.032648,1.1176e-06,0.91,0.85,0
0.044663,-0.010545,0.036592,-0.00015728,0.01093,0.00011392,0,0,0.06672,-0.028828,0,0.0005924,0,0,0,0.036592,-0.00015763,0.01093,0.17761,0.015788,0.03265,1.1174e-06,0.92,0.85,0
0.04533,-0.010557,0.036588,-0.00016292,0.010928,0.00010149,0,0,0.066718,-0.028835,0,0.00052777,0,0,0,0.036589,-0.0001632,0.010928,0.15823,0.015784,0.032651,1.1172e-06,0.93,0.85,0
0.045997,-0.010567,0.036585,-0.00016774,0.010925,8.8329e-05,0,0,0.066716,-0.028842,0,0.00045931,0,0,0,0.036586,-0.00016795,0.010925,0.1377,0.015781,0.032652,1.1171e-06,0.94,0.85,0
0.046664,-0.010575,0.036583,-0.00017175,0.010923,7.4542e-05,0,0,0.066715,-0.028847,0,0.00038762,0,0,0,0.036583,-0.0001719,0.010923,0.1162,0.015778,0.032653,1.117e-06,0.95,0.85,0
0.047331,-0.010582,0.036581,-0.000175,0.010922,6.0242e-05,0,0,0.066714,-0.028852,0,0.00031326,0,0,0,0.036581,-0.0001751,0.010922,0.093905,0.015776,0.032654,1.1169e-06,0.96,0.85,0
0.047999,-0.010587,0.03658,-0.0001775,0.010921,4.5534e-05,0,0,0.066713,-0.028855,0,0.00023678,0,0,0,0.03658,-0.00017756,0.010921,0.070977,0.015774,0.032655,1.1169e-06,0.97,0.85,0
0.048666,-0.010591,0.036578,-0.00017927,0.01092,3.0524e-05,0,0,0.066713,-0.028858,0,0.00015872,0,0,0,0.036578,-0.0001793,0.01092,0.047579,0.015773,0.032655,1.1168e-06,0.98,0.85,0
0.049333,-0.010593,0.036578,-0.00018033,0.010919,1.5312e-05,0,0,0.066712,-0.028859,0,7.9622e-05,0,0,0,0.036578,-0.00018034,0.010919,0.023867,0.015772,0.032655,1.1168e-06,0.99,0.85,0
0.05,-0.010594,0.036578,-0.00018068,0.010919,-1.4304e-05,0,0,0.066712,-0.028859,0,-7.438e-05,0,0,0,0.036578,-0.00018069,0.010919,-0.022296,0.015772,0.032655,1.1168e-06,1,0.85,0
0,0,0.037417,0.016036,0.016036,-0.0070393,0,0,0.027795,5.421e-19,0,-0.018302,0,0,0,0.039526,0.013926,0.016036,-16.682,0.023163,0.024613,7.4687e-07,0,0.86,0
0.00027795,-0.00018302,0.037334,0.014982,0.015695,-0.007036,0,0,0.028131,-0.0009266,0,-0.018294,0,0,0,0.039364,0.012952,0.015695,-16.097,0.02267,0.025153,7.8468e-07,0.01,0.86,0
0.00056262,-0.00037178,0.037685,0.014055,0.015522,-0.0071011,0,0,0.028812,-0.0019075,0,-0.018463,0,0,0,0.039655,0.012085,0.015522,-15.503,0.02242,0.026022,8.5202e-07,0.02,0.86,0
0.00085419,-0.00056501,0.038033,0.013089,0.015336,-0.0070964,0,0,0.029505,-0.0029222,0,-0.018451,0,0,0,0.03991,0.011211,0.015336,-14.82,0.022153,0.026875,9.1826e-07,0.03,0.86,0
0.0011527,-0.00076132,0.038367,0.012105,0.015142,-0.007019,0,0,0.030193,-0.0039474,0,-0.018249,0,0,0,0.040125,0.010347,0.015142,-14.063,0.021871,0.027694,9.8156e-07,0.04,0.86,0
0.0014581,-0.00095926,0.038676,0.011125,0.014941,-0.0068708,0,0,0.030857,-0.0049598,0,-0.017864,0,0,0,0.040295,0.0095068,0.014941,-13.254,0.021581,0.028463,1.0403e-06,0.05,0.86,0
0.0017698,-0.0011574,0.038953,0.010169,0.014737,-0.0066578,0,0,0.031482,-0.0059383,0,-0.01731,0,0,0,0.040419,0.0087034,0.014737,-12.412,0.021286,0.02917,1.0933e-06,0.06,0.86,0
0.0020877,-0.0013545,0.039191,0.0092516,0.014533,-0.006389,0,0,0.032056,-0.0068655,0,-0.016612,0,0,0,0.040497,0.0079452,0.014533,-11.556,0.020992,0.029809,1.1397e-06,0.07,0.86,0
0.002411,-0.0015493,0.039385,0.0083859,0.014331,-0.0060756,0,0,0.03257,-0.0077292,0,-0.015797,0,0,0,0.040534,0.0072377,0.014331,-10.702,0.020701,0.030377,1.1792e-06,0.08,0.86,0
0.0027391,-0.001741,0.039536,0.0075795,0.014135,-0.0057291,0,0,0.033022,-0.0085217,0,-0.014896,0,0,0,0.040532,0.0065834,0.014135,-9.8629,0.020417,0.030873,1.212e-06,0.09,0.86,0
0.0030714,-0.0019286,0.039643,0.0068363,0.013944,-0.0053608,0,0,0.033409,-0.0092396,0,-0.013938,0,0,0,0.040496,0.0059825,0.013944,-9.049,0.020141,0.031302,1.2384e-06,0.1,0.86,0
0.0034073,-0.0021117,0.039709,0.0061572,0.01376,-0.0049807,0,0,0.033734,-0.0098834,0,-0.01295,0,0,0,0.040433,0.0054335,0.01376,-8.2679,0.019875,0.031668,1.2589e-06,0.11,0.86,0
0.0037461,-0.0022898,0.039739,0.0055408,0.013584,-0.0045976,0,0,0.034001,-0.010456,0,-0.011954,0,0,0,0.040346,0.0049335,0.013584,-7.5249,0.019621,0.031977,1.2742e-06,0.12,0.86,0
0.0040873,-0.0024626,0.039736,0.0049839,0.013416,-0.0042185,0,0,0.034216,-0.010962,0,-0.010968,0,0,0,0.040241,0.0044791,0.013416,-6.823,0.019379,0.032236,1.2851e-06,0.13,0.86,0
0.0044304,-0.0026301,0.039706,0.0044822,0.013256,-0.003849,0,0,0.034384,-0.011406,0,-0.010008,0,0,0,0.040121,0.0040665,0.013256,-6.164,0.019148,0.032451,1.2922e-06,0.14,0.86,0
0.004775,-0.0027922,0.039653,0.0040312,0.013105,-0.0034933,0,0,0.034512,-0.011796,0,-0.0090826,0,0,0,0.039992,0.0036919,0.013105,-5.5484,0.01893,0.032628,1.2961e-06,0.15,0.86,0
0.0051206,-0.002949,0.039581,0.0036259,0.012962,-0.0031543,0,0,0.034605,-0.012137,0,-0.0082012,0,0,0,0.039856,0.0033513,0.012962,-4.9759,0.018723,0.032773,1.2975e-06,0.16,0.86,0
0.0054671,-0.0031006,0.039494,0.0032615,0.012827,-0.002834,0,0,0.034668,-0.012435,0,-0.0073685,0,0,0,0.039715,0.0030412,0.012827,-4.4455,0.018527,0.032891,1.2969e-06,0.17,0.86,0
0.005814,-0.0032473,0.039396,0.0029334,0.012699,-0.0025338,0,0,0.034707,-0.012695,0,-0.0065878,0,0,0,0.039572,0.0027582,0.012699,-3.9561,0.018343,0.032986,1.2947e-06,0.18,0.86,0
0.0061612,-0.0033892,0.03929,0.0026372,0.012578,-0.0022541,0,0,0.034725,-0.012923,0,-0.0058607,0,0,0,0.039428,0.0024991,0.012578,-3.5061,0.018168,0.033062,1.2912e-06,0.19,0.86,0
0.0065085,-0.0035267,0.039177,0.002369,0.012464,-0.0019954,0,0,0.034727,-0.013123,0,-0.0051881,0,0,0,0.039284,0.0022612,0.012464,-3.094,0.018003,0.033122,1.2867e-06,0.2,0.86,0
0.0068557,-0.00366,0.039059,0.0021252,0.012355,-0.0017576,0,0,0.034715,-0.013299,0,-0.0045696,0,0,0,0.039143,0.0020418,0.012355,-2.7183,0.017847,0.033169,1.2815e-06,0.21,0.86,0
0.0072028,-0.0037895,0.038939,0.0019024,0.012252,-0.0015403,0,0,0.034693,-0.013455,0,-0.0040048,0,0,0,0.039003,0.0018384,0.012252,-2.3774,0.017698,0.033206,1.2758e-06,0.22,0.86,0
0.0075496,-0.0039155,0.038817,0.0016975,0.012154,-0.0013434,0,0,0.034661,-0.013594,0,-0.0034928,0,0,0,0.038866,0.001649,0.012154,-2.0699,0.017556,0.033234,1.2696e-06,0.23,0.86,0
0.007896,-0.0040383,0.038694,0.0015079,0.012061,-0.0011663,0,0,0.034624,-0.013718,0,-0.0030324,0,0,0,0.038731,0.0014714,0.012061,-1.7947,0.017421,0.033254,1.2632e-06,0.24,0.86,0
0.0082421,-0.0041583,0.038571,0.0013311,0.011971,-0.0010087,0,0,0.034581,-0.013832,0,-0.0026226,0,0,0,0.038598,0.0013038,0.011971,-1.5504,0.017291,0.033269,1.2566e-06,0.25,0.86,0
0.0085876,-0.0042759,0.038448,0.0011645,0.011884,-0.0008702,0,0,0.034534,-0.013935,0,-0.0022625,0,0,0,0.038468,0.0011442,0.011884,-1.3363,0.017165,0.03328,1.2499e-06,0.26,0.86,0
0.0089327,-0.0043913,0.038325,0.0010061,0.011799,-0.00075046,0,0,0.034484,-0.014031,0,-0.0019512,0,0,0,0.03834,0.00099104,0.011799,-1.1516,0.017044,0.033288,1.2431e-06,0.27,0.86,0
0.0092773,-0.004505,0.038203,0.00085372,0.011717,-0.00064921,0,0,0.034432,-0.014122,0,-0.0016879,0,0,0,0.038214,0.00084244,0.011717,-0.99552,0.016925,0.033294,1.2363e-06,0.28,0.86,0
0.0096214,-0.0046174,0.038082,0.00070524,0.011636,-0.00056628,0,0,0.034379,-0.01421,0,-0.0014723,0,0,0,0.03809,0.00069666,0.011636,-0.86781,0.016808,0.0333,1.2295e-06,0.29,0.86,0
0.0099649,-0.0047287,0.037961,0.00055858,0.011556,-0.00050157,0,0,0.034326,-0.014296,0,-0.0013041,0,0,0,0.037967,0.00055185,0.011556,-0.76817,0.016692,0.033306,1.2228e-06,0.3,0.86,0
0.010308,-0.0048393,0.03784,0.00041161,0.011476,-0.00045506,0,0,0.034274,-0.014383,0,-0.0011832,0,0,0,0.037846,0.00040608,0.011476,-0.69647,0.016576,0.033314,1.2163e-06,0.31,0.86,0
0.01065,-0.0049497,0.037721,0.00026211,0.011395,-0.0004268,0,0,0.034224,-0.014473,0,-0.0011097,0,0,0,0.037726,0.00025724,0.011395,-0.65271,0.016459,0.033326,1.2099e-06,0.32,0.86,0
0.010992,-0.0050601,0.037602,0.00010768,0.011313,-0.00041691,0,0,0.034176,-0.014567,0,-0.001084,0,0,0,0.037607,0.00010305,0.011313,-0.63697,0.016341,0.033344,1.2039e-06,0.33,0.86,0
0.011334,-0.005171,0.037485,-5.4247e-05,0.011229,-0.0004255,0,0,0.034133,-0.014669,0,-0.0011063,0,0,0,0.03749,-5.9069e-05,0.011229,-0.64932,0.01622,0.033369,1.1982e-06,0.34,0.86,0
0.011675,-0.0052828,0.03737,-0.0002265,0.011143,-0.00045269,0,0,0.034095,-0.014781,0,-0.001177,0,0,0,0.037376,-0.00023195,0.011143,-0.68975,0.016096,0.033406,1.1931e-06,0.35,0.86,0
0.012016,-0.0053957,0.037258,-0.00041221,0.011054,-0.0004985,0,0,0.034065,-0.014906,0,-0.0012961,0,0,0,0.037264,-0.0004188,0.011054,-0.75804,0.015966,0.033456,1.1887e-06,0.36,0.86,0
0.012356,-0.0055101,0.037149,-0.0006148,0.01096,-0.00056278,0,0,0.034045,-0.015048,0,-0.0014632,0,0,0,0.037157,-0.00062319,0.01096,-0.85361,0.015831,0.033525,1.1852e-06,0.37,0.86,0
0.012697,-0.0056265,0.037045,-0.00083807,0.010862,-0.00064511,0,0,0.034038,-0.01521,0,-0.0016773,0,0,0,0.037056,-0.00084906,0.010862,-0.97531,0.01569,0.033616,1.1828e-06,0.38,0.86,0
0.013037,-0.005745,0.036948,-0.0010861,0.010759,-0.00074463,0,0,0.034046,-0.015398,0,-0.001936,0,0,0,0.036963,-0.0011007,0.010759,-1.1212,0.01554,0.033735,1.1819e-06,0.39,0.86,0
0.013378,-0.0058659,0.03686,-0.0013633,0.010649,-0.00085992,0,0,0.034075,-0.015616,0,-0.0022358,0,0,0,0.03688,-0.0013826,0.010649,-1.2881,0.015382,0.033888,1.1827e-06,0.4,0.86,0
0.013719,-0.0059896,0.036784,-0.0016739,0.010533,-0.00098878,0,0,0.034126,-0.015869,0,-0.0025708,0,0,0,0.036809,-0.0016993,0.010533,-1.4718,0.015214,0.03408,1.1855e-06,0.41,0.86,0
0.01406,-0.0061161,0.036721,-0.0020224,0.01041,-0.0011281,0,0,0.034205,-0.016161,0,-0.002933,0,0,0,0.036754,-0.0020552,0.01041,-1.6664,0.015036,0.034318,1.1907e-06,0.42,0.86,0
0.014403,-0.0062456,0.036674,-0.0024125,0.010278,-0.0012736,0,0,0.034314,-0.016498,0,-0.0033113,0,0,0,0.036715,-0.0024539,0.010278,-1.8643,0.014847,0.034607,1.1983e-06,0.43,0.86,0
0.014746,-0.0063779,0.036645,-0.0028469,0.010139,-0.00142,0,0,0.034457,-0.016882,0,-0.003692,0,0,0,0.036696,-0.0028978,0.010139,-2.0566,0.014646,0.034949,1.2087e-06,0.44,0.86,0
0.015092,-0.006513,0.036636,-0.0033268,0.0099926,-0.0015609,0,0,0.034636,-0.017315,0,-0.0040584,0,0,0,0.036696,-0.0033877,0.0099926,-2.2334,0.014434,0.035347,1.2217e-06,0.45,0.86,0
0.015439,-0.0066507,0.036646,-0.0038515,0.0098382,-0.0016893,0,0,0.03485,-0.017797,0,-0.0043922,0,0,0,0.036716,-0.0039219,0.0098382,-2.3845,0.014211,0.035799,1.2372e-06,0.46,0.86,0
0.015789,-0.0067904,0.036674,-0.0044175,0.009677,-0.0017977,0,0,0.035096,-0.018323,0,-0.0046741,0,0,0,0.036753,-0.004496,0.009677,-2.5003,0.013978,0.0363,1.2547e-06,0.47,0.86,0
0.016141,-0.0069317,0.036719,-0.0050184,0.0095101,-0.0018793,0,0,0.035371,-0.018887,0,-0.0048861,0,0,0,0.036803,-0.0051029,0.0095101,-2.5729,0.013737,0.036841,1.2735e-06,0.48,0.86,0
0.016496,-0.0070738,0.036775,-0.0056453,0.0093389,-0.0019282,0,0,0.035667,-0.01948,0,-0.0050133,0,0,0,0.036862,-0.0057328,0.0093389,-2.5972,0.013489,0.03741,1.293e-06,0.49,0.86,0
0.016854,-0.0072161,0.036807,-0.0007817,0.010807,-0.00194,0,0,0.049689,-0.020088,0,-0.0075482,0,0,0,0.036909,-0.00088344,0.010807,-3.005,0.015611,0.033581,1.1383e-06,0.5,0.86,0
0.01749,-0.0074078,0.036904,0.004345,0.012375,-0.0019159,0,0,0.063775,-0.020877,0,-0.0099629,0,0,0,0.037016,0.0042326,0.012375,-3.3562,0.017874,0.029566,9.9576e-07,0.51,0.86,0
0.01813,-0.0075968,0.036967,0.0039451,0.012273,-0.0018659,0,0,0.064202,-0.021654,0,-0.0097029,0,0,0,0.037072,0.00384,0.012273,-3.2239,0.017728,0.02992,1.0161e-06,0.52,0.86,0
0.018774,-0.0077821,0.037024,0.0035574,0.012174,-0.0017947,0,0,0.064608,-0.022404,0,-0.0093322,0,0,0,0.03712,0.0034614,0.012174,-3.0608,0.017585,0.030258,1.0351e-06,0.53,0.86,0
0.019422,-0.0079629,0.037072,0.0031877,0.012078,-0.0017047,0,0,0.064985,-0.023115,0,-0.0088643,0,0,0,0.037158,0.0031021,0.012078,-2.8728,0.017446,0.030572,1.0524e-06,0.54,0.86,0
0.020074,-0.0081383,0.03711,0.0028405,0.011985,-0.0015995,0,0,0.065325,-0.023776,0,-0.0083173,0,0,0,0.037185,0.002766,0.011985,-2.6664,0.017312,0.03086,1.0677e-06,0.55,0.86,0
0.020729,-0.0083079,0.037137,0.002519,0.011897,-0.001483,0,0,0.065625,-0.024383,0,-0.0077113,0,0,0,0.037201,0.0024556,0.011897,-2.4484,0.017184,0.031118,1.0808e-06,0.56,0.86,0
0.021386,-0.0084709,0.037152,0.0022249,0.011813,-0.0013591,0,0,0.065882,-0.02493,0,-0.0070673,0,0,0,0.037205,0.0021721,0.011813,-2.225,0.017063,0.031345,1.0919e-06,0.57,0.86,0
0.022046,-0.0086272,0.037156,0.0019585,0.011735,-0.0012316,0,0,0.066097,-0.025418,0,-0.0064045,0,0,0,0.0372,0.0019154,0.011735,-2.0016,0.01695,0.031542,1.1009e-06,0.58,0.86,0
0.022708,-0.0087765,0.03715,0.0017192,0.011661,-0.0011038,0,0,0.066273,-0.025848,0,-0.00574,0,0,0,0.037185,0.0016849,0.011661,-1.7827,0.016844,0.031711,1.108e-06,0.59,0.86,0
0.023372,-0.0089186,0.037135,0.0015057,0.011592,-0.00097844,0,0,0.066412,-0.026225,0,-0.0050879,0,0,0,0.037162,0.0014788,0.011592,-1.5718,0.016744,0.031855,1.1134e-06,0.6,0.86,0
0.024036,-0.0090537,0.037113,0.001316,0.011529,-0.00085751,0,0,0.066519,-0.026553,0,-0.004459,0,0,0,0.037134,0.0012954,0.011529,-1.3715,0.016653,0.031974,1.1174e-06,0.61,0.86,0
0.024702,-0.0091817,0.037085,0.001148,0.01147,-0.00074259,0,0,0.0666,-0.026837,0,-0.0038615,0,0,0,0.037101,0.0011327,0.01147,-1.1833,0.016568,0.032074,1.1202e-06,0.62,0.86,0
0.025368,-0.0093028,0.037053,0.00099967,0.011416,-0.0006347,0,0,0.066657,-0.027082,0,-0.0033005,0,0,0,0.037064,0.0009885,0.011416,-1.0083,0.01649,0.032156,1.122e-06,0.63,0.86,0
0.026035,-0.0094172,0.037018,0.00086874,0.011366,-0.00053446,0,0,0.066695,-0.027293,0,-0.0027792,0,0,0,0.037026,0.00086084,0.011366,-0.84687,0.016418,0.032223,1.1229e-06,0.64,0.86,0
0.026702,-0.0095251,0.036981,0.00075322,0.01132,-0.00044215,0,0,0.066718,-0.027474,0,-0.0022992,0,0,0,0.036986,0.00074783,0.01132,-0.69914,0.016352,0.032278,1.1232e-06,0.65,0.86,0
0.02737,-0.0096268,0.036943,0.00065125,0.011278,-0.0003578,0,0,0.066729,-0.027631,0,-0.0018606,0,0,0,0.036947,0.00064772,0.011278,-0.5648,0.016291,0.032323,1.123e-06,0.66,0.86,0
0.028037,-0.0097225,0.036906,0.00056116,0.01124,-0.00028126,0,0,0.066731,-0.027765,0,-0.0014626,0,0,0,0.036908,0.00055898,0.01124,-0.44337,0.016236,0.032359,1.1225e-06,0.67,0.86,0
0.028704,-0.0098125,0.036869,0.00048145,0.011205,-0.00021227,0,0,0.066726,-0.027882,0,-0.0011038,0,0,0,0.03687,0.00048021,0.011205,-0.33423,0.016185,0.032388,1.1217e-06,0.68,0.86,0
0.029371,-0.0098972,0.036833,0.00041081,0.011173,-0.00015047,0,0,0.066716,-0.027982,0,-0.00078245,0,0,0,0.036834,0.00041019,0.011173,-0.2367,0.016139,0.032411,1.1207e-06,0.69,0.86,0
0.030038,-0.0099766,0.036799,0.0003481,0.011144,-9.5458e-05,0,0,0.066702,-0.028069,0,-0.00049638,0,0,0,0.036799,0.00034785,0.011144,-0.15005,0.016097,0.03243,1.1197e-06,0.7,0.86,0
0.030706,-0.010051,0.036766,0.00029232,0.011118,-4.681e-05,0,0,0.066686,-0.028146,0,-0.00024341,0,0,0,0.036766,0.00029226,0.011118,-0.073532,0.016059,0.032445,1.1185e-06,0.71,0.86,0
0.031372,-0.010121,0.036735,0.00024261,0.011093,-4.0955e-06,0,0,0.066669,-0.028212,0,-2.1297e-05,0,0,0,0.036735,0.00024261,0.011093,-0.0064302,0.016024,0.032458,1.1174e-06,0.72,0.86,0
0.032039,-0.010186,0.036707,0.00019821,0.011071,3.311e-05,0,0,0.066652,-0.028271,0,0.00017217,0,0,0,0.036707,0.00019818,0.011071,0.051962,0.015992,0.032468,1.1162e-06,0.73,0.86,0
0.032705,-0.010248,0.03668,0.00015849,0.011052,6.5219e-05,0,0,0.066634,-0.028322,0,0.00033914,0,0,0,0.03668,0.00015837,0.011052,0.10232,0.015963,0.032476,1.1151e-06,0.74,0.86,0
0.033371,-0.010305,0.036656,0.00012288,0.011033,9.2623e-05,0,0,0.066617,-0.028368,0,0.00048164,0,0,0,0.036656,0.00012265,0.011033,0.14526,0.015937,0.032482,1.1141e-06,0.75,0.86,0
0.034038,-0.010358,0.036633,9.0911e-05,0.011017,0.00011569,0,0,0.066601,-0.028408,0,0.0006016,0,0,0,0.036633,9.0545e-05,0.011017,0.1814,0.015914,0.032488,1.1131e-06,0.76,0.86,0
0.034704,-0.010408,0.036612,6.2157e-05,0.011002,0.00013478,0,0,0.066586,-0.028445,0,0.00070084,0,0,0,0.036613,6.166e-05,0.011002,0.21127,0.015892,0.032493,1.1122e-06,0.77,0.86,0
0.035369,-0.010455,0.036594,3.6261e-05,0.010989,0.0001502,0,0,0.066572,-0.028477,0,0.00078104,0,0,0,0.036594,3.5644e-05,0.010989,0.2354,0.015873,0.032497,1.1113e-06,0.78,0.86,0
0.036035,-0.010498,0.036576,1.2913e-05,0.010977,0.00016227,0,0,0.066559,-0.028506,0,0.00084378,0,0,0,0.036577,1.2193e-05,0.010977,0.25427,0.015855,0.032501,1.1105e-06,0.79,0.86,0
0.0367,-0.010539,0.036561,-8.1583e-06,0.010966,0.00017125,0,0,0.066548,-0.028532,0,0.00089051,0,0,0,0.036562,-8.9603e-06,0.010966,0.26831,0.01584,0.032504,1.1098e-06,0.8,0.86,0
0.037366,-0.010576,0.036547,-2.7187e-05,0.010956,0.00017742,0,0,0.066537,-0.028556,0,0.00092259,0,0,0,0.036548,-2.8047e-05,0.010956,0.27793,0.015825,0.032507,1.1092e-06,0.81,0.86,0
0.038031,-0.010611,0.036535,-4.4377e-05,0.010947,0.00018101,0,0,0.066528,-0.028578,0,0.00094126,0,0,0,0.036536,-4.5272e-05,0.010947,0.28352,0.015813,0.03251,1.1086e-06,0.82,0.86,0
0.038697,-0.010643,0.036524,-5.9905e-05,0.010939,0.00018225,0,0,0.06652,-0.028598,0,0.00094769,0,0,0,0.036525,-6.0813e-05,0.010939,0.28542,0.015801,0.032512,1.1081e-06,0.83,0.86,0
0.039362,-0.010673,0.036514,-7.3928e-05,0.010932,0.00018134,0,0,0.066513,-0.028615,0,0.00094295,0,0,0,0.036515,-7.4827e-05,0.010932,0.28396,0.015791,0.032515,1.1077e-06,0.84,0.86,0
0.040027,-0.0107,0.036505,-8.658e-05,0.010926,0.00017847,0,0,0.066507,-0.028632,0,0.00092804,0,0,0,0.036506,-8.745e-05,0.010926,0.27944,0.015782,0.032517,1.1073e-06,0.85,0.86,0
0.040692,-0.010725,0.036498,-9.7978e-05,0.01092,0.00017383,0,0,0.066502,-0.028646,0,0.0009039,0,0,0,0.036499,-9.8804e-05,0.01092,0.27214,0.015773,0.032519,1.107e-06,0.86,0.86,0
0.041357,-0.010748,0.036491,-0.00010823,0.010915,0.00016757,0,0,0.066498,-0.02866,0,0.00087138,0,0,0,0.036492,-0.00010899,0.010915,0.26233,0.015766,0.032522,1.1067e-06,0.87,0.86,0
0.042022,-0.010769,0.036485,-0.00011741,0.01091,0.00015986,0,0,0.066494,-0.028672,0,0.00083129,0,0,0,0.036486,-0.00011811,0.01091,0.25024,0.015759,0.032524,1.1064e-06,0.88,0.86,0
0.042687,-0.010788,0.03648,-0.00012562,0.010906,0.00015085,0,0,0.066491,-0.028683,0,0.0007844,0,0,0,0.036481,-0.00012624,0.010906,0.2361,0.015754,0.032525,1.1062e-06,0.89,0.86,0
0.043352,-0.010804,0.036476,-0.00013291,0.010903,0.00014066,0,0,0.066489,-0.028693,0,0.00073142,0,0,0,0.036476,-0.00013346,0.010903,0.22014,0.015748,0.032527,1.106e-06,0.9,0.86,0
0.044017,-0.01082,0.036472,-0.00013935,0.0109,0.00012943,0,0,0.066487,-0.028702,0,0.00067301,0,0,0,0.036472,-0.00013981,0.0109,0.20255,0.015744,0.032529,1.1059e-06,0.91,0.86,0
0.044681,-0.010833,0.036469,-0.00014499,0.010897,0.00011727,0,0,0.066486,-0.028709,0,0.00060982,0,0,0,0.036469,-0.00014537,0.010897,0.18352,0.01574,0.03253,1.1058e-06,0.92,0.86,0
0.045346,-0.010845,0.036466,-0.00014987,0.010895,0.00010432,0,0,0.066485,-0.028716,0,0.00054245,0,0,0,0.036466,-0.00015017,0.010895,0.16323,0.015737,0.032532,1.1057e-06,0.93,0.86,0
0.046011,-0.010855,0.036464,-0.00015402,0.010893,9.067e-05,0,0,0.066484,-0.028722,0,0.00047148,0,0,0,0.036464,-0.00015425,0.010893,0.14187,0.015734,0.032533,1.1056e-06,0.94,0.86,0
0.046676,-0.010863,0.036462,-0.00015749,0.010891,7.6436e-05,0,0,0.066483,-0.028727,0,0.00039747,0,0,0,0.036462,-0.00015765,0.010891,0.11959,0.015732,0.032534,1.1055e-06,0.95,0.86,0
0.047341,-0.01087,0.03646,-0.00016029,0.01089,6.172e-05,0,0,0.066483,-0.028731,0,0.00032094,0,0,0,0.03646,-0.0001604,0.01089,0.096565,0.01573,0.032535,1.1055e-06,0.96,0.86,0
0.048005,-0.010875,0.036459,-0.00016245,0.010889,4.6621e-05,0,0,0.066482,-0.028734,0,0.00024243,0,0,0,0.036459,-0.00016251,0.010889,0.072941,0.015729,0.032536,1.1054e-06,0.97,0.86,0
0.04867,-0.010879,0.036458,-0.00016398,0.010888,3.1238e-05,0,0,0.066482,-0.028736,0,0.00016244,0,0,0,0.036458,-0.00016401,0.010888,0.048872,0.015728,0.032536,1.1054e-06,0.98,0.86,0
0.049335,-0.010881,0.036458,-0.0001649,0.010888,1.5666e-05,0,0,0.066482,-0.028737,0,8.1464e-05,0,0,0,0.036458,-0.0001649,0.010888,0.024509,0.015727,0.032536,1.1054e-06,0.99,0.86,0
0.05,-0.010882,0.036458,-0.0001652,0.010888,-1.4391e-05,0,0,0.066482,-0.028738,0,-7.4835e-05,0,0,0,0.036458,-0.00016521,0.010888,-0.022515,0.015727,0.032537,1.1054e-06,1,0.86,0
0,0,0.037835,0.016215,0.016215,-0.0074075,0,0,0.028106,4.3368e-19,0,-0.01926,0,0,0,0.04013,0.013921,0.016215,-17.21,0.023422,0.025141,7.9323e-07,0,0.87,0
0.00028106,-0.0001926,0.037747,0.015086,0.01585,-0.0074023,0,0,0.028466,-0.00099297,0,-0.019246,0,0,0,0.039951,0.012882,0.01585,-16.578,0.022894,0.025713,8.3409e-07,0.01,0.87,0
0.00056932,-0.00039152,0.038122,0.014084,0.015662,-0.0074696,0,0,0.029198,-0.0020509,0,-0.019421,0,0,0,0.040254,0.011952,0.015662,-15.93,0.022623,0.026641,9.0799e-07,0.02,0.87,0
0.00086502,-0.00059527,0.038491,0.013038,0.015459,-0.0074546,0,0,0.029942,-0.0031473,0,-0.019382,0,0,0,0.040514,0.011015,0.015459,-15.18,0.022329,0.027547,9.801e-07,0.03,0.87,0
0.0011682,-0.0008022,0.038842,0.011974,0.015245,-0.0073543,0,0,0.030677,-0.0042524,0,-0.019121,0,0,0,0.040724,0.010092,0.015245,-14.349,0.02202,0.028407,1.048e-06,0.04,0.87,0
0.0014786,-0.0010106,0.039162,0.010919,0.015024,-0.0071721,0,0,0.031379,-0.0053369,0,-0.018647,0,0,0,0.040879,0.0092022,0.015024,-13.463,0.021702,0.029205,1.1099e-06,0.05,0.87,0
0.0017958,-0.0012188,0.039441,0.0098979,0.014802,-0.0069166,0,0,0.032031,-0.0063751,0,-0.017983,0,0,0,0.040981,0.0083588,0.014802,-12.545,0.02138,0.029925,1.1642e-06,0.06,0.87,0
0.0021192,-0.0014254,0.039673,0.0089287,0.01458,-0.0066003,0,0,0.03262,-0.0073472,0,-0.017161,0,0,0,0.04103,0.0075717,0.01458,-11.619,0.021061,0.030562,1.2103e-06,0.07,0.87,0
0.0024482,-0.001629,0.039852,0.0080246,0.014363,-0.0062376,0,0,0.033136,-0.0082401,0,-0.016218,0,0,0,0.041031,0.0068458,0.014363,-10.701,0.020747,0.031116,1.2481e-06,0.08,0.87,0
0.0027819,-0.0018287,0.039981,0.0071928,0.014152,-0.0058428,0,0,0.033578,-0.0090472,0,-0.015191,0,0,0,0.040991,0.0061827,0.014152,-9.8079,0.020442,0.031587,1.2779e-06,0.09,0.87,0
0.0031197,-0.0020235,0.040061,0.006436,0.013949,-0.0054294,0,0,0.033945,-0.0097669,0,-0.014116,0,0,0,0.040916,0.0055811,0.013949,-8.9487,0.020149,0.031982,1.3004e-06,0.1,0.87,0
0.0034608,-0.002213,0.040096,0.0057533,0.013755,-0.0050088,0,0,0.034244,-0.010402,0,-0.013023,0,0,0,0.040812,0.0050377,0.013755,-8.1309,0.019868,0.03231,1.3166e-06,0.11,0.87,0
0.0038046,-0.0023968,0.040093,0.0051413,0.01357,-0.0045906,0,0,0.03448,-0.010958,0,-0.011936,0,0,0,0.040686,0.0045484,0.01357,-7.359,0.019602,0.032578,1.3273e-06,0.12,0.87,0
0.0041504,-0.0025746,0.040057,0.0045948,0.013396,-0.0041819,0,0,0.03466,-0.011441,0,-0.010873,0,0,0,0.040544,0.0041084,0.013396,-6.6354,0.019349,0.032793,1.3334e-06,0.13,0.87,0
0.0044978,-0.0027464,0.039994,0.0041082,0.013231,-0.0037881,0,0,0.034793,-0.011859,0,-0.0098491,0,0,0,0.04039,0.0037127,0.013231,-5.9606,0.019111,0.032965,1.3359e-06,0.14,0.87,0
0.0048463,-0.0029123,0.03991,0.0036753,0.013076,-0.003413,0,0,0.034885,-0.012221,0,-0.0088738,0,0,0,0.040229,0.0033566,0.013076,-5.3342,0.018887,0.033101,1.3355e-06,0.15,0.87,0
0.0051955,-0.0030723,0.03981,0.0032901,0.01293,-0.0030589,0,0,0.034944,-0.012532,0,-0.0079532,0,0,0,0.040064,0.0030357,0.01293,-4.755,0.018677,0.033206,1.3329e-06,0.16,0.87,0
0.0055451,-0.0032268,0.039697,0.0029471,0.012793,-0.0027273,0,0,0.034975,-0.0128,0,-0.007091,0,0,0,0.039898,0.0027458,0.012793,-4.2213,0.018479,0.033286,1.3285e-06,0.17,0.87,0
0.005895,-0.0033759,0.039575,0.0026409,0.012665,-0.0024188,0,0,0.034984,-0.013031,0,-0.0062888,0,0,0,0.039733,0.0024831,0.012665,-3.7309,0.018294,0.033346,1.3229e-06,0.18,0.87,0
0.0062448,-0.00352,0.039448,0.0023667,0.012544,-0.0021334,0,0,0.034974,-0.013231,0,-0.0055469,0,0,0,0.03957,0.0022443,0.012544,-3.282,0.01812,0.033389,1.3164e-06,0.19,0.87,0
0.0065945,-0.0036593,0.039317,0.0021203,0.012431,-0.001871,0,0,0.034951,-0.013404,0,-0.0048645,0,0,0,0.039411,0.0020264,0.012431,-2.8723,0.017956,0.033419,1.3092e-06,0.2,0.87,0
0.0069438,-0.0037943,0.039184,0.0018979,0.012325,-0.001631,0,0,0.034917,-0.013555,0,-0.0042406,0,0,0,0.039255,0.0018267,0.012325,-2.4999,0.017802,0.033439,1.3016e-06,0.21,0.87,0
0.0072928,-0.0039252,0.039051,0.0016959,0.012224,-0.0014128,0,0,0.034875,-0.013686,0,-0.0036732,0,0,0,0.039104,0.0016426,0.012224,-2.1629,0.017657,0.03345,1.2938e-06,0.22,0.87,0
0.0076413,-0.0040525,0.038918,0.0015115,0.012129,-0.0012157,0,0,0.034826,-0.013802,0,-0.0031609,0,0,0,0.038957,0.001472,0.012129,-1.8595,0.017519,0.033455,1.2858e-06,0.23,0.87,0
0.0079893,-0.0041765,0.038786,0.0013417,0.012038,-0.0010391,0,0,0.034772,-0.013905,0,-0.0027017,0,0,0,0.038814,0.0013129,0.012038,-1.5884,0.017389,0.033454,1.2777e-06,0.24,0.87,0
0.0083368,-0.0042975,0.038655,0.0011841,0.011952,-0.00088232,0,0,0.034714,-0.013998,0,-0.002294,0,0,0,0.038676,0.0011633,0.011952,-1.3481,0.017264,0.03345,1.2697e-06,0.25,0.87,0
0.0086836,-0.004416,0.038526,0.0010364,0.011869,-0.0007448,0,0,0.034654,-0.014082,0,-0.0019365,0,0,0,0.038541,0.0010216,0.011869,-1.1377,0.017144,0.033442,1.2617e-06,0.26,0.87,0
0.0090298,-0.0045323,0.038398,0.00089654,0.011789,-0.00062609,0,0,0.034593,-0.01416,0,-0.0016278,0,0,0,0.038409,0.00088609,0.011789,-0.95619,0.017028,0.033432,1.2538e-06,0.27,0.87,0
0.0093755,-0.0046468,0.038272,0.00076238,0.01171,-0.00052583,0,0,0.03453,-0.014233,0,-0.0013671,0,0,0,0.03828,0.00075501,0.01171,-0.80298,0.016915,0.033422,1.2459e-06,0.28,0.87,0
0.0097205,-0.0047599,0.038148,0.00063199,0.011634,-0.00044379,0,0,0.034468,-0.014302,0,-0.0011538,0,0,0,0.038153,0.00062674,0.011634,-0.67765,0.016804,0.033411,1.2382e-06,0.29,0.87,0
0.010065,-0.004872,0.038024,0.00050336,0.011558,-0.00037985,0,0,0.034405,-0.014371,0,-0.00098762,0,0,0,0.038028,0.00049952,0.011558,-0.57998,0.016695,0.033401,1.2306e-06,0.3,0.87,0
0.010409,-0.0049834,0.037901,0.00037448,0.011483,-0.00033404,0,0,0.034344,-0.014441,0,-0.0008685,0,0,0,0.037904,0.00037151,0.011483,-0.50996,0.016586,0.033393,1.2231e-06,0.31,0.87,0
0.010752,-0.0050946,0.037778,0.00024319,0.011406,-0.00030646,0,0,0.034284,-0.014512,0,-0.00079681,0,0,0,0.037781,0.00024069,0.011406,-0.46776,0.016476,0.033388,1.2158e-06,0.32,0.87,0
0.011094,-0.0052059,0.037657,0.00010718,0.011329,-0.00029736,0,0,0.034226,-0.014589,0,-0.00077313,0,0,0,0.037659,0.00010483,0.011329,-0.45369,0.016364,0.033388,1.2088e-06,0.33,0.87,0
0.011436,-0.0053177,0.037536,-3.6084e-05,0.01125,-0.00030702,0,0,0.034172,-0.014672,0,-0.00079825,0,0,0,0.037538,-3.8593e-05,0.01125,-0.46815,0.01625,0.033396,1.2021e-06,0.34,0.87,0
0.011778,-0.0054305,0.037416,-0.00018945,0.011168,-0.00033578,0,0,0.034122,-0.014764,0,-0.00087303,0,0,0,0.037419,-0.00019245,0.011168,-0.51155,0.016131,0.033412,1.1959e-06,0.35,0.87,0
0.012119,-0.0055445,0.037297,-0.00035612,0.011082,-0.00038396,0,0,0.034079,-0.01487,0,-0.00099829,0,0,0,0.037301,-0.00036004,0.011082,-0.58417,0.016008,0.033442,1.1902e-06,0.36,0.87,0
0.012459,-0.0056603,0.037181,-0.00053972,0.010992,-0.00045174,0,0,0.034045,-0.014992,0,-0.0011745,0,0,0,0.037186,-0.00054513,0.010992,-0.68604,0.015878,0.033488,1.1854e-06,0.37,0.87,0
0.0128,-0.0057782,0.037069,-0.00074433,0.010897,-0.0005391,0,0,0.034023,-0.015134,0,-0.0014017,0,0,0,0.037076,-0.00075201,0.010897,-0.81665,0.015741,0.033556,1.1817e-06,0.38,0.87,0
0.01314,-0.0058985,0.036962,-0.00097452,0.010796,-0.00064561,0,0,0.034015,-0.015302,0,-0.0016786,0,0,0,0.036973,-0.00098551,0.010796,-0.9747,0.015595,0.033652,1.1793e-06,0.39,0.87,0
0.01348,-0.0060215,0.036863,-0.0012353,0.010688,-0.00077025,0,0,0.034027,-0.015501,0,-0.0020027,0,0,0,0.036879,-0.0012509,0.010688,-1.1577,0.015439,0.033781,1.1786e-06,0.4,0.87,0
0.01382,-0.0061477,0.036775,-0.001532,0.010573,-0.00091115,0,0,0.034062,-0.015736,0,-0.002369,0,0,0,0.036796,-0.0015537,0.010573,-1.3618,0.015272,0.033952,1.18e-06,0.41,0.87,0
0.014161,-0.006277,0.0367,-0.0018701,0.010449,-0.0010654,0,0,0.034126,-0.016015,0,-0.0027699,0,0,0,0.036729,-0.0018995,0.010449,-1.581,0.015093,0.034171,1.1838e-06,0.42,0.87,0
0.014503,-0.0064098,0.036641,-0.0022545,0.010316,-0.0012286,0,0,0.034222,-0.016341,0,-0.0031943,0,0,0,0.03668,-0.0022933,0.010316,-1.8074,0.014901,0.034445,1.1904e-06,0.43,0.87,0
0.014846,-0.006546,0.036601,-0.0026896,0.010174,-0.001395,0,0,0.034356,-0.016722,0,-0.003627,0,0,0,0.036651,-0.002739,0.010174,-2.0309,0.014695,0.03478,1.2001e-06,0.44,0.87,0
0.01519,-0.0066854,0.036583,-0.0031777,0.010022,-0.0015574,0,0,0.03453,-0.017159,0,-0.0040492,0,0,0,0.036644,-0.0032386,0.010022,-2.2396,0.014476,0.03518,1.2128e-06,0.45,0.87,0
0.015536,-0.006828,0.036587,-0.0037189,0.0098606,-0.0017072,0,0,0.034745,-0.017653,0,-0.0044387,0,0,0,0.03666,-0.003791,0.0098606,-2.421,0.014243,0.035643,1.2284e-06,0.46,0.87,0
0.015885,-0.006973,0.036613,-0.0043099,0.0096909,-0.0018354,0,0,0.034999,-0.018201,0,-0.004772,0,0,0,0.036695,-0.004392,0.0096909,-2.5628,0.013998,0.036164,1.2465e-06,0.47,0.87,0
0.016236,-0.0071201,0.036657,-0.0049437,0.0095139,-0.001933,0,0,0.035286,-0.018795,0,-0.0050259,0,0,0,0.036746,-0.0050333,0.0095139,-2.6547,0.013742,0.036734,1.2663e-06,0.48,0.87,0
0.016591,-0.0072684,0.036714,-0.0056094,0.0093315,-0.0019928,0,0,0.035598,-0.019423,0,-0.0051812,0,0,0,0.036808,-0.005703,0.0093315,-2.6898,0.013479,0.037338,1.2868e-06,0.49,0.87,0
0.016948,-0.0074169,0.036747,-0.00079341,0.010786,-0.002009,0,0,0.049619,-0.020071,0,-0.0078183,0,0,0,0.036856,-0.00090266,0.010786,-3.1152,0.01558,0.03355,1.1339e-06,0.5,0.87,0
0.017583,-0.0076167,0.036849,0.004304,0.012346,-0.0019838,0,0,0.063707,-0.020909,0,-0.010316,0,0,0,0.036969,0.0041835,0.012346,-3.4755,0.017833,0.029562,9.9371e-07,0.51,0.87,0
0.018222,-0.0078137,0.036914,0.0038796,0.012238,-0.0019286,0,0,0.064157,-0.021732,0,-0.010028,0,0,0,0.037026,0.0037674,0.012238,-3.3299,0.017677,0.029936,1.015e-06,0.52,0.87,0
0.018866,-0.0080067,0.036971,0.0034699,0.012132,-0.0018487,0,0,0.064581,-0.022522,0,-0.0096131,0,0,0,0.037073,0.0033682,0.012132,-3.149,0.017524,0.030289,1.0346e-06,0.53,0.87,0
0.019514,-0.0081947,0.037018,0.0030819,0.01203,-0.0017476,0,0,0.064969,-0.023265,0,-0.0090877,0,0,0,0.037108,0.0029921,0.01203,-2.9402,0.017377,0.030614,1.0522e-06,0.54,0.87,0
0.020165,-0.0083769,0.037053,0.002721,0.011932,-0.0016299,0,0,0.065314,-0.023949,0,-0.0084754,0,0,0,0.03713,0.0026438,0.011932,-2.7119,0.017235,0.030908,1.0674e-06,0.55,0.87,0
0.02082,-0.0085526,0.037075,0.0023903,0.011839,-0.0015004,0,0,0.065611,-0.024568,0,-0.0078021,0,0,0,0.037139,0.0023256,0.011839,-2.4724,0.017101,0.031166,1.0802e-06,0.56,0.87,0
0.021478,-0.0087211,0.037083,0.0020915,0.011752,-0.001364,0,0,0.065859,-0.025118,0,-0.007093,0,0,0,0.037136,0.0020384,0.011752,-2.229,0.016976,0.031389,1.0906e-06,0.57,0.87,0
0.022137,-0.0088823,0.037079,0.0018242,0.011671,-0.0012252,0,0,0.06606,-0.025601,0,-0.0063711,0,0,0,0.037121,0.0017817,0.011671,-1.988,0.016858,0.031578,1.0987e-06,0.58,0.87,0
0.022799,-0.0090358,0.037064,0.0015872,0.011595,-0.0010876,0,0,0.066218,-0.026021,0,-0.0056556,0,0,0,0.037097,0.0015539,0.011595,-1.7544,0.016749,0.031737,1.1048e-06,0.59,0.87,0
0.023462,-0.0091817,0.03704,0.0013784,0.011525,-0.00095418,0,0,0.066337,-0.026382,0,-0.0049618,0,0,0,0.037065,0.0013529,0.011525,-1.5316,0.016648,0.031868,1.1091e-06,0.6,0.87,0
0.024126,-0.0093199,0.037008,0.0011951,0.011461,-0.00082702,0,0,0.066423,-0.026691,0,-0.0043005,0,0,0,0.037028,0.0011761,0.011461,-1.3222,0.016555,0.031975,1.112e-06,0.61,0.87,0
0.02479,-0.0094506,0.036972,0.0010348,0.011402,-0.00070755,0,0,0.066482,-0.026955,0,-0.0036793,0,0,0,0.036986,0.0010209,0.011402,-1.1275,0.01647,0.032061,1.1137e-06,0.62,0.87,0
0.025455,-0.0095741,0.036932,0.00089463,0.011348,-0.00059664,0,0,0.066519,-0.027179,0,-0.0031025,0,0,0,0.036942,0.00088475,0.011348,-0.94824,0.016392,0.03213,1.1144e-06,0.63,0.87,0
0.026121,-0.0096905,0.03689,0.0007722,0.011299,-0.00049468,0,0,0.066538,-0.027369,0,-0.0025723,0,0,0,0.036897,0.00076543,0.011299,-0.78453,0.016321,0.032185,1.1144e-06,0.64,0.87,0
0.026786,-0.0098001,0.036848,0.00066518,0.011254,-0.00040172,0,0,0.066544,-0.027531,0,-0.002089,0,0,0,0.036852,0.00066072,0.011254,-0.63603,0.016256,0.032228,1.1139e-06,0.65,0.87,0
0.027451,-0.0099033,0.036805,0.00057152,0.011213,-0.00031759,0,0,0.06654,-0.027668,0,-0.0016515,0,0,0,0.036808,0.00056873,0.011213,-0.50216,0.016197,0.032262,1.113e-06,0.66,0.87,0
0.028117,-0.01,0.036764,0.0004894,0.011176,-0.00024195,0,0,0.066528,-0.027785,0,-0.0012582,0,0,0,0.036765,0.00048779,0.011176,-0.38215,0.016143,0.032289,1.1119e-06,0.67,0.87,0
0.028782,-0.010091,0.036724,0.00041727,0.011142,-0.00017437,0,0,0.066512,-0.027885,0,-0.0009067,0,0,0,0.036725,0.00041643,0.011142,-0.27516,0.016094,0.032309,1.1106e-06,0.68,0.87,0
0.029447,-0.010177,0.036686,0.00035375,0.011112,-0.00011433,0,0,0.066492,-0.027971,0,-0.00059451,0,0,0,0.036686,0.00035339,0.011112,-0.1803,0.01605,0.032325,1.1092e-06,0.69,0.87,0
0.030112,-0.010257,0.03665,0.00029769,0.011084,-6.1329e-05,0,0,0.06647,-0.028045,0,-0.00031891,0,0,0,0.03665,0.00029759,0.011084,-0.096663,0.016011,0.032337,1.1077e-06,0.7,0.87,0
0.030776,-0.010332,0.036616,0.00024809,0.011059,-1.4846e-05,0,0,0.066448,-0.028109,0,-7.7201e-05,0,0,0,0.036616,0.00024808,0.011059,-0.02339,0.015974,0.032347,1.1063e-06,0.71,0.87,0
0.031441,-0.010403,0.036585,0.00020409,0.011037,2.5625e-05,0,0,0.066425,-0.028165,0,0.00013325,0,0,0,0.036585,0.00020407,0.011037,0.040357,0.015942,0.032355,1.1049e-06,0.72,0.87,0
0.032105,-0.010469,0.036556,0.00016496,0.011016,6.0569e-05,0,0,0.066404,-0.028214,0,0.00031496,0,0,0,0.036556,0.00016486,0.011016,0.095362,0.015912,0.03236,1.1036e-06,0.73,0.87,0
0.032769,-0.010531,0.03653,0.00013008,0.010998,9.0441e-05,0,0,0.066383,-0.028257,0,0.0004703,0,0,0,0.03653,0.00012986,0.010998,0.14236,0.015886,0.032365,1.1024e-06,0.74,0.87,0
0.033433,-0.010588,0.036506,9.8931e-05,0.010982,0.00011567,0,0,0.066364,-0.028295,0,0.00060148,0,0,0,0.036507,9.8563e-05,0.010982,0.18203,0.015862,0.032369,1.1013e-06,0.75,0.87,0
0.034096,-0.010642,0.036485,7.1044e-05,0.010967,0.00013665,0,0,0.066347,-0.028329,0,0.00071056,0,0,0,0.036485,7.0532e-05,0.010967,0.21501,0.015841,0.032372,1.1003e-06,0.76,0.87,0
0.034759,-0.010693,0.036465,4.6035e-05,0.010953,0.00015374,0,0,0.066331,-0.028359,0,0.00079944,0,0,0,0.036466,4.5386e-05,0.010953,0.24186,0.015821,0.032375,1.0993e-06,0.77,0.87,0
0.035423,-0.010739,0.036448,2.3569e-05,0.010941,0.00016728,0,0,0.066317,-0.028386,0,0.00086987,0,0,0,0.036449,2.2801e-05,0.010941,0.26313,0.015804,0.032378,1.0985e-06,0.78,0.87,0
0.036086,-0.010783,0.036432,3.3587e-06,0.010931,0.00017759,0,0,0.066304,-0.028411,0,0.00092346,0,0,0,0.036433,2.493e-06,0.010931,0.2793,0.015789,0.03238,1.0977e-06,0.79,0.87,0
0.036749,-0.010824,0.036418,-1.4843e-05,0.010921,0.00018494,0,0,0.066293,-0.028433,0,0.00096167,0,0,0,0.036419,-1.5782e-05,0.010921,0.29083,0.015775,0.032383,1.0971e-06,0.8,0.87,0
0.037412,-0.010861,0.036406,-3.1251e-05,0.010913,0.00018959,0,0,0.066284,-0.028454,0,0.00098587,0,0,0,0.036407,-3.2237e-05,0.010913,0.29811,0.015762,0.032385,1.0965e-06,0.81,0.87,0
0.038074,-0.010896,0.036395,-4.6049e-05,0.010905,0.00019179,0,0,0.066276,-0.028472,0,0.0009973,0,0,0,0.036396,-4.7058e-05,0.010905,0.30153,0.015751,0.032387,1.0961e-06,0.82,0.87,0
0.038737,-0.010928,0.036386,-5.9398e-05,0.010898,0.00019175,0,0,0.066269,-0.028489,0,0.0009971,0,0,0,0.036387,-6.0406e-05,0.010898,0.30144,0.015742,0.03239,1.0956e-06,0.83,0.87,0
0.0394,-0.010958,0.036378,-7.1435e-05,0.010892,0.00018968,0,0,0.066264,-0.028505,0,0.00098633,0,0,0,0.036379,-7.2422e-05,0.010892,0.29815,0.015733,0.032392,1.0953e-06,0.84,0.87,0
0.040063,-0.010986,0.036371,-8.2284e-05,0.010887,0.00018576,0,0,0.066259,-0.028519,0,0.00096595,0,0,0,0.036372,-8.323e-05,0.010887,0.29196,0.015725,0.032394,1.095e-06,0.85,0.87,0
0.040725,-0.011011,0.036365,-9.2047e-05,0.010882,0.00018017,0,0,0.066256,-0.028532,0,0.00093687,0,0,0,0.036366,-9.2937e-05,0.010882,0.28314,0.015718,0.032397,1.0947e-06,0.86,0.87,0
0.041388,-0.011034,0.03636,-0.00010082,0.010878,0.00017306,0,0,0.066253,-0.028544,0,0.00089991,0,0,0,0.03636,-0.00010164,0.010878,0.27195,0.015712,0.032399,1.0945e-06,0.87,0.87,0
0.04205,-0.011055,0.036355,-0.00010867,0.010874,0.00016459,0,0,0.066251,-0.028555,0,0.00085585,0,0,0,0.036356,-0.00010942,0.010874,0.25861,0.015707,0.032401,1.0944e-06,0.88,0.87,0
0.042713,-0.011074,0.036351,-0.00011569,0.010871,0.00015489,0,0,0.06625,-0.028565,0,0.00080542,0,0,0,0.036352,-0.00011634,0.010871,0.24335,0.015702,0.032403,1.0943e-06,0.89,0.87,0
0.043375,-0.011091,0.036348,-0.00012191,0.010868,0.00014409,0,0,0.066249,-0.028574,0,0.00074928,0,0,0,0.036349,-0.00012248,0.010868,0.22637,0.015698,0.032405,1.0942e-06,0.9,0.87,0
0.044038,-0.011106,0.036346,-0.00012741,0.010866,0.00013232,0,0,0.066248,-0.028581,0,0.00068808,0,0,0,0.036346,-0.00012789,0.010866,0.20786,0.015695,0.032407,1.0941e-06,0.91,0.87,0
0.0447,-0.011119,0.036344,-0.00013221,0.010863,0.0001197,0,0,0.066248,-0.028588,0,0.00062242,0,0,0,0.036344,-0.00013261,0.010863,0.18801,0.015692,0.032409,1.094e-06,0.92,0.87,0
0.045363,-0.011131,0.036342,-0.00013637,0.010862,0.00010632,0,0,0.066248,-0.028595,0,0.00055286,0,0,0,0.036342,-0.00013668,0.010862,0.16699,0.015689,0.032411,1.094e-06,0.93,0.87,0
0.046025,-0.011141,0.03634,-0.00013992,0.01086,9.2297e-05,0,0,0.066248,-0.0286,0,0.00047995,0,0,0,0.03634,-0.00014015,0.01086,0.14496,0.015687,0.032412,1.094e-06,0.94,0.87,0
0.046687,-0.01115,0.036339,-0.00014287,0.010859,7.7731e-05,0,0,0.066249,-0.028605,0,0.0004042,0,0,0,0.036339,-0.00014303,0.010859,0.12208,0.015685,0.032413,1.094e-06,0.95,0.87,0
0.04735,-0.011157,0.036338,-0.00014525,0.010858,6.2715e-05,0,0,0.066249,-0.028608,0,0.00032612,0,0,0,0.036338,-0.00014536,0.010858,0.098491,0.015684,0.032414,1.0939e-06,0.96,0.87,0
0.048012,-0.011162,0.036338,-0.00014709,0.010857,4.7344e-05,0,0,0.066249,-0.028611,0,0.00024619,0,0,0,0.036338,-0.00014715,0.010857,0.07435,0.015683,0.032415,1.0939e-06,0.97,0.87,0
0.048675,-0.011166,0.036337,-0.0001484,0.010857,3.1709e-05,0,0,0.066249,-0.028613,0,0.00016489,0,0,0,0.036337,-0.00014842,0.010857,0.049795,0.015682,0.032416,1.0939e-06,0.98,0.87,0
0.049337,-0.011168,0.036337,-0.00014917,0.010856,1.5898e-05,0,0,0.06625,-0.028614,0,8.2671e-05,0,0,0,0.036337,-0.00014918,0.010856,0.024966,0.015681,0.032416,1.0939e-06,0.99,0.87,0
0.05,-0.011169,0.036337,-0.00014943,0.010856,-1.4471e-05,0,0,0.06625,-0.028615,0,-7.5251e-05,0,0,0,0.036337,-0.00014944,0.010856,-0.022725,0.015681,0.032416,1.0939e-06,1,0.87,0
0,0,0.038305,0.016416,0.016416,-0.0078032,0,0,0.028455,-3.7947e-19,0,-0.020288,0,0,0,0.040802,0.013919,0.016416,-17.744,0.023713,0.025725,8.4664e-07,0,0.88,0
0.00028455,-0.00020288,0.03821,0.015199,0.016023,-0.0077953,0,0,0.028844,-0.0010705,0,-0.020268,0,0,0,0.040602,0.012807,0.016023,-17.06,0.023144,0.026335,8.9106e-07,0.01,0.88,0
0.00057687,-0.0004128,0.038612,0.014109,0.015816,-0.0078643,0,0,0.029634,-0.0022197,0,-0.020447,0,0,0,0.040919,0.011802,0.015816,-16.348,0.022846,0.027332,9.728e-07,0.02,0.88,0
0.00087724,-0.00062796,0.039005,0.012966,0.015591,-0.0078349,0,0,0.030438,-0.0034129,0,-0.020371,0,0,0,0.041181,0.01079,0.015591,-15.519,0.022521,0.028297,1.0517e-06,0.03,0.88,0
0.0011856,-0.00084637,0.039374,0.011808,0.015354,-0.0077043,0,0,0.031225,-0.0046109,0,-0.020031,0,0,0,0.041381,0.0098004,0.015354,-14.602,0.022179,0.029202,1.1246e-06,0.04,0.88,0
0.0015017,-0.001066,0.039702,0.010667,0.015111,-0.0074783,0,0,0.031969,-0.0057766,0,-0.019444,0,0,0,0.041515,0.0088544,0.015111,-13.627,0.021827,0.030026,1.1893e-06,0.05,0.88,0
0.001825,-0.0012849,0.039979,0.0095747,0.014866,-0.0071699,0,0,0.032647,-0.0068788,0,-0.018642,0,0,0,0.041585,0.0079688,0.014866,-12.625,0.021473,0.030753,1.2442e-06,0.06,0.88,0
0.0021547,-0.0015015,0.040197,0.0085511,0.014624,-0.006796,0,0,0.033244,-0.0078954,0,-0.01767,0,0,0,0.041595,0.0071533,0.014624,-11.622,0.021124,0.03138,1.2889e-06,0.07,0.88,0
0.0024899,-0.0017142,0.040354,0.0076096,0.014389,-0.0063754,0,0,0.033754,-0.0088133,0,-0.016576,0,0,0,0.041551,0.006412,0.014389,-10.638,0.020784,0.031908,1.3235e-06,0.08,0.88,0
0.0028298,-0.0019219,0.040452,0.0067562,0.014162,-0.0059259,0,0,0.034176,-0.0096279,0,-0.015407,0,0,0,0.041463,0.0057444,0.014162,-9.6893,0.020457,0.032342,1.3488e-06,0.09,0.88,0
0.0031734,-0.002124,0.040495,0.0059913,0.013946,-0.0054632,0,0,0.034514,-0.010341,0,-0.014204,0,0,0,0.041339,0.005147,0.013946,-8.7858,0.020144,0.032693,1.3661e-06,0.1,0.88,0
0.00352,-0.0023198,0.040491,0.0053113,0.013741,-0.005,0,0,0.034775,-0.010958,0,-0.013,0,0,0,0.041188,0.0046145,0.013741,-7.934,0.019848,0.032972,1.3765e-06,0.11,0.88,0
0.0038689,-0.0025089,0.040447,0.0047101,0.013547,-0.0045462,0,0,0.03497,-0.011488,0,-0.01182,0,0,0,0.041017,0.0041408,0.013547,-7.1372,0.019568,0.033188,1.3814e-06,0.12,0.88,0
0.0042194,-0.0026915,0.040372,0.0041802,0.013366,-0.0041089,0,0,0.035108,-0.011941,0,-0.010683,0,0,0,0.040832,0.0037196,0.013366,-6.3964,0.019306,0.033353,1.3819e-06,0.13,0.88,0
0.0045711,-0.0028673,0.040271,0.0037141,0.013196,-0.0036928,0,0,0.035198,-0.012326,0,-0.0096012,0,0,0,0.040641,0.0033449,0.013196,-5.7108,0.01906,0.033476,1.3791e-06,0.14,0.88,0
0.0049234,-0.0030366,0.040152,0.0033042,0.013037,-0.0033009,0,0,0.03525,-0.012653,0,-0.0085824,0,0,0,0.040446,0.0030108,0.013037,-5.0788,0.018831,0.033564,1.3738e-06,0.15,0.88,0
0.0052761,-0.0031996,0.04002,0.0029433,0.012889,-0.0029348,0,0,0.03527,-0.012929,0,-0.0076305,0,0,0,0.040251,0.0027125,0.012889,-4.4979,0.018617,0.033626,1.3666e-06,0.16,0.88,0
0.0056288,-0.0033566,0.039879,0.002625,0.012751,-0.002595,0,0,0.035266,-0.013164,0,-0.006747,0,0,0,0.040059,0.0024451,0.012751,-3.9655,0.018418,0.033666,1.3583e-06,0.17,0.88,0
0.0059814,-0.0035079,0.039733,0.0023434,0.012623,-0.0022814,0,0,0.035243,-0.013363,0,-0.0059317,0,0,0,0.039872,0.0022047,0.012623,-3.4788,0.018233,0.033689,1.3491e-06,0.18,0.88,0
0.0063337,-0.0036538,0.039585,0.0020933,0.012503,-0.0019934,0,0,0.035206,-0.013533,0,-0.005183,0,0,0,0.03969,0.0019876,0.012503,-3.0351,0.01806,0.033699,1.3395e-06,0.19,0.88,0
0.0066855,-0.0037947,0.039436,0.0018704,0.012392,-0.0017303,0,0,0.035157,-0.013678,0,-0.0044987,0,0,0,0.039515,0.0017909,0.012392,-2.6316,0.017899,0.033699,1.3297e-06,0.2,0.88,0
0.0070368,-0.0039311,0.039288,0.0016705,0.012288,-0.0014908,0,0,0.035101,-0.013802,0,-0.0038761,0,0,0,0.039347,0.0016115,0.012288,-2.2659,0.017749,0.033691,1.3198e-06,0.21,0.88,0
0.0073875,-0.0040632,0.039143,0.0014903,0.01219,-0.0012741,0,0,0.035039,-0.01391,0,-0.0033127,0,0,0,0.039186,0.0014473,0.01219,-1.9359,0.017608,0.033678,1.31e-06,0.22,0.88,0
0.0077376,-0.0041915,0.039001,0.0013267,0.012098,-0.0010791,0,0,0.034973,-0.014003,0,-0.0028057,0,0,0,0.039032,0.0012959,0.012098,-1.6394,0.017475,0.033661,1.3003e-06,0.23,0.88,0
0.008087,-0.0043164,0.038862,0.0011771,0.012012,-0.00090487,0,0,0.034905,-0.014085,0,-0.0023526,0,0,0,0.038883,0.0011554,0.012012,-1.3747,0.01735,0.03364,1.2908e-06,0.24,0.88,0
0.0084357,-0.0044383,0.038726,0.0010389,0.011929,-0.00075052,0,0,0.034835,-0.014158,0,-0.0019513,0,0,0,0.038741,0.0010239,0.011929,-1.1404,0.017231,0.033618,1.2815e-06,0.25,0.88,0
0.0087837,-0.0045575,0.038593,0.00091003,0.011851,-0.00061534,0,0,0.034765,-0.014223,0,-0.0015999,0,0,0,0.038603,0.00089998,0.011851,-0.93528,0.017118,0.033594,1.2725e-06,0.26,0.88,0
0.009131,-0.0046745,0.038463,0.00078849,0.011775,-0.00049875,0,0,0.034694,-0.014283,0,-0.0012967,0,0,0,0.038469,0.00078189,0.011775,-0.75833,0.017009,0.033569,1.2637e-06,0.27,0.88,0
0.0094776,-0.0047897,0.038335,0.00067235,0.011702,-0.00040029,0,0,0.034623,-0.014339,0,-0.0010408,0,0,0,0.03834,0.0006681,0.011702,-0.60886,0.016903,0.033544,1.255e-06,0.28,0.88,0
0.0098234,-0.0049034,0.03821,0.00055979,0.011631,-0.00031969,0,0,0.034552,-0.014392,0,-0.00083119,0,0,0,0.038213,0.00055707,0.011631,-0.48646,0.0168,0.03352,1.2466e-06,0.29,0.88,0
0.010169,-0.0050161,0.038086,0.00044894,0.01156,-0.00025681,0,0,0.034483,-0.014445,0,-0.0006677,0,0,0,0.038087,0.00044719,0.01156,-0.39092,0.016698,0.033496,1.2383e-06,0.3,0.88,0
0.010513,-0.0051281,0.037962,0.00033793,0.01149,-0.00021168,0,0,0.034414,-0.014498,0,-0.00055037,0,0,0,0.037964,0.00033674,0.01149,-0.32234,0.016597,0.033474,1.2302e-06,0.31,0.88,0
0.010857,-0.0052399,0.03784,0.00022473,0.011419,-0.0001845,0,0,0.034347,-0.014553,0,-0.00047971,0,0,0,0.037841,0.00022382,0.011419,-0.28103,0.016495,0.033455,1.2222e-06,0.32,0.88,0
0.0112,-0.0053519,0.037717,0.00010715,0.011347,-0.00017561,0,0,0.034281,-0.014612,0,-0.0004566,0,0,0,0.037718,0.00010633,0.011347,-0.26753,0.01639,0.03344,1.2144e-06,0.33,0.88,0
0.011543,-0.0054645,0.037595,-1.7249e-05,0.011273,-0.00018548,0,0,0.034218,-0.014678,0,-0.00048226,0,0,0,0.037595,-1.8163e-05,0.011273,-0.28255,0.016283,0.03343,1.2069e-06,0.34,0.88,0
0.011884,-0.005578,0.037472,-0.00015126,0.011196,-0.00021469,0,0,0.034158,-0.014752,0,-0.00055819,0,0,0,0.037473,-0.00015249,0.011196,-0.32693,0.016172,0.033429,1.1997e-06,0.35,0.88,0
0.012226,-0.0056931,0.037349,-0.0002981,0.011115,-0.00026386,0,0,0.034104,-0.014837,0,-0.00068603,0,0,0,0.037351,-0.00029995,0.011115,-0.40154,0.016056,0.033438,1.193e-06,0.36,0.88,0
0.012566,-0.00581,0.037227,-0.0004615,0.01103,-0.00033358,0,0,0.034057,-0.014939,0,-0.0008673,0,0,0,0.03723,-0.00046445,0.01103,-0.50706,0.015932,0.033463,1.187e-06,0.37,0.88,0
0.012907,-0.0059292,0.037108,-0.00064578,0.010939,-0.0004243,0,0,0.03402,-0.01506,0,-0.0011032,0,0,0,0.037112,-0.00065054,0.010939,-0.64382,0.0158,0.033507,1.1818e-06,0.38,0.88,0
0.013247,-0.006051,0.036991,-0.00085594,0.010841,-0.00053614,0,0,0.033996,-0.015206,0,-0.001394,0,0,0,0.036999,-0.00086354,0.010841,-0.81143,0.015659,0.033577,1.1779e-06,0.39,0.88,0
0.013587,-0.006176,0.036881,-0.0010977,0.010735,-0.00066867,0,0,0.03399,-0.015383,0,-0.0017385,0,0,0,0.036893,-0.0011095,0.010735,-1.0083,0.015506,0.03368,1.1756e-06,0.4,0.88,0
0.013927,-0.0063043,0.03678,-0.0013773,0.010621,-0.00082056,0,0,0.034007,-0.015598,0,-0.0021334,0,0,0,0.036798,-0.001395,0.010621,-1.2314,0.015341,0.033825,1.1753e-06,0.41,0.88,0
0.014267,-0.0064364,0.036691,-0.0017016,0.010497,-0.00098927,0,0,0.034053,-0.015858,0,-0.0025721,0,0,0,0.036717,-0.0017271,0.010497,-1.475,0.015162,0.034021,1.1776e-06,0.42,0.88,0
0.014608,-0.0065724,0.036619,-0.0020772,0.010363,-0.0011706,0,0,0.034133,-0.016172,0,-0.0030436,0,0,0,0.036654,-0.0021126,0.010363,-1.7312,0.014968,0.034276,1.1829e-06,0.43,0.88,0
0.01495,-0.0067123,0.036567,-0.0025102,0.010217,-0.0013585,0,0,0.034255,-0.016545,0,-0.0035322,0,0,0,0.036614,-0.0025573,0.010217,-1.9887,0.014758,0.0346,1.1915e-06,0.44,0.88,0
0.015293,-0.0068562,0.036537,-0.0030049,0.01006,-0.0015448,0,0,0.034421,-0.016984,0,-0.0040165,0,0,0,0.036598,-0.0030652,0.01006,-2.2338,0.014531,0.034998,1.2037e-06,0.45,0.88,0
0.015638,-0.0070037,0.036533,-0.003563,0.0098911,-0.0017193,0,0,0.034635,-0.01749,0,-0.0044701,0,0,0,0.036607,-0.0036365,0.0098911,-2.4508,0.014287,0.03547,1.2194e-06,0.46,0.88,0
0.015985,-0.0071544,0.036554,-0.0041816,0.0097117,-0.0018707,0,0,0.034895,-0.018061,0,-0.0048638,0,0,0,0.036639,-0.0042673,0.0097117,-2.6238,0.014028,0.036013,1.238e-06,0.47,0.88,0
0.016336,-0.0073076,0.036596,-0.0048532,0.0095229,-0.0019876,0,0,0.035195,-0.018689,0,-0.0051678,0,0,0,0.036691,-0.0049483,0.0095229,-2.7391,0.013755,0.036616,1.2589e-06,0.48,0.88,0
0.016689,-0.0074623,0.036655,-0.0055648,0.0093271,-0.0020602,0,0,0.035527,-0.01936,0,-0.0053564,0,0,0,0.036756,-0.0056651,0.0093271,-2.787,0.013473,0.03726,1.2807e-06,0.49,0.88,0
0.017046,-0.0076175,0.036687,-0.00080484,0.010765,-0.0020814,0,0,0.04955,-0.020054,0,-0.0081019,0,0,0,0.036805,-0.00092224,0.010765,-3.2308,0.015549,0.03352,1.1296e-06,0.5,0.88,0
0.01768,-0.007826,0.036795,0.004259,0.012316,-0.0020546,0,0,0.063645,-0.020949,0,-0.010684,0,0,0,0.036924,0.0041298,0.012316,-3.5991,0.01779,0.029564,9.9202e-07,0.51,0.88,0
0.018319,-0.0080314,0.036862,0.0038058,0.0122,-0.0019926,0,0,0.06412,-0.021826,0,-0.010361,0,0,0,0.036981,0.0036861,0.0122,-3.4372,0.017623,0.02996,1.0143e-06,0.52,0.88,0
0.018963,-0.0082325,0.036919,0.0033708,0.012087,-0.001902,0,0,0.064564,-0.022662,0,-0.0098904,0,0,0,0.037027,0.0032633,0.012087,-3.2345,0.017459,0.03033,1.0346e-06,0.53,0.88,0
0.019611,-0.0084282,0.036964,0.0029625,0.011978,-0.0017875,0,0,0.064964,-0.02344,0,-0.0092947,0,0,0,0.037058,0.0028688,0.011978,-3.001,0.017302,0.030666,1.0525e-06,0.54,0.88,0
0.020262,-0.0086173,0.036994,0.0025871,0.011874,-0.0016548,0,0,0.065311,-0.024147,0,-0.0086049,0,0,0,0.037073,0.0025077,0.011874,-2.7472,0.017152,0.030964,1.0675e-06,0.55,0.88,0
0.020917,-0.0087992,0.037008,0.0022477,0.011777,-0.0015103,0,0,0.065601,-0.024775,0,-0.0078536,0,0,0,0.037073,0.0021823,0.011777,-2.4832,0.017011,0.03122,1.0797e-06,0.56,0.88,0
0.021574,-0.0089733,0.037007,0.0019454,0.011686,-0.00136,0,0,0.065835,-0.025325,0,-0.0070718,0,0,0,0.03706,0.0018928,0.011686,-2.2179,0.016879,0.031436,1.0891e-06,0.57,0.88,0
0.022233,-0.0091392,0.036993,0.0016791,0.011602,-0.0012089,0,0,0.066017,-0.025798,0,-0.0062863,0,0,0,0.037034,0.0016378,0.011602,-1.9584,0.016758,0.031615,1.0961e-06,0.58,0.88,0
0.022894,-0.0092969,0.036967,0.0014465,0.011524,-0.0010612,0,0,0.066152,-0.026202,0,-0.0055185,0,0,0,0.036999,0.0014148,0.011524,-1.7098,0.016646,0.03176,1.1009e-06,0.59,0.88,0
0.023557,-0.0094463,0.036932,0.0012444,0.011453,-0.00092002,0,0,0.066246,-0.026542,0,-0.0047841,0,0,0,0.036956,0.0012207,0.011453,-1.4757,0.016543,0.031876,1.1039e-06,0.6,0.88,0
0.024219,-0.0095875,0.036891,0.0010695,0.011388,-0.00078724,0,0,0.066308,-0.026829,0,-0.0040936,0,0,0,0.036908,0.0010522,0.011388,-1.2584,0.01645,0.031967,1.1055e-06,0.61,0.88,0
0.024883,-0.0097208,0.036846,0.00091842,0.011329,-0.00066412,0,0,0.066343,-0.027068,0,-0.0034534,0,0,0,0.036858,0.00090615,0.011329,-1.0586,0.016364,0.032038,1.106e-06,0.62,0.88,0
0.025546,-0.0098463,0.036798,0.00078795,0.011276,-0.00055121,0,0,0.066357,-0.027268,0,-0.0028663,0,0,0,0.036806,0.00077951,0.011276,-0.87677,0.016287,0.032093,1.1057e-06,0.63,0.88,0
0.02621,-0.0099645,0.036749,0.00067519,0.011227,-0.00044862,0,0,0.066356,-0.027435,0,-0.0023328,0,0,0,0.036755,0.00066962,0.011227,-0.7124,0.016217,0.032134,1.1047e-06,0.64,0.88,0
0.026873,-0.010076,0.0367,0.00057761,0.011183,-0.00035611,0,0,0.066344,-0.027575,0,-0.0018518,0,0,0,0.036704,0.0005741,0.011183,-0.56477,0.016154,0.032165,1.1034e-06,0.65,0.88,0
0.027537,-0.01018,0.036653,0.00049296,0.011144,-0.00027325,0,0,0.066325,-0.027692,0,-0.0014209,0,0,0,0.036656,0.00049089,0.011144,-0.43293,0.016097,0.032189,1.1018e-06,0.66,0.88,0
0.0282,-0.010278,0.036608,0.00041935,0.011108,-0.00019947,0,0,0.0663,-0.027791,0,-0.0010372,0,0,0,0.03661,0.00041825,0.011108,-0.31579,0.016045,0.032206,1.1001e-06,0.67,0.88,0
0.028863,-0.01037,0.036566,0.00035515,0.011076,-0.00013415,0,0,0.066273,-0.027875,0,-0.00069757,0,0,0,0.036566,0.00035465,0.011076,-0.21226,0.015999,0.032218,1.0983e-06,0.68,0.88,0
0.029525,-0.010457,0.036526,0.00029899,0.011048,-7.6649e-05,0,0,0.066244,-0.027946,0,-0.00039857,0,0,0,0.036526,0.00029883,0.011048,-0.12122,0.015957,0.032227,1.0965e-06,0.69,0.88,0
0.030188,-0.010537,0.036489,0.00024972,0.011022,-2.6334e-05,0,0,0.066216,-0.028007,0,-0.00013694,0,0,0,0.036489,0.0002497,0.011022,-0.041635,0.01592,0.032233,1.0948e-06,0.7,0.88,0
0.03085,-0.010613,0.036455,0.00020634,0.010998,1.7405e-05,0,0,0.066188,-0.02806,0,9.0505e-05,0,0,0,0.036455,0.00020634,0.010998,0.02751,0.015887,0.032238,1.0931e-06,0.71,0.88,0
0.031511,-0.010684,0.036425,0.00016805,0.010978,5.5143e-05,0,0,0.066162,-0.028105,0,0.00028674,0,0,0,0.036425,0.00016797,0.010978,0.087141,0.015857,0.032241,1.0916e-06,0.72,0.88,0
0.032173,-0.010751,0.036397,0.00013414,0.010959,8.7414e-05,0,0,0.066137,-0.028145,0,0.00045455,0,0,0,0.036397,0.00013393,0.010959,0.13812,0.01583,0.032243,1.0902e-06,0.73,0.88,0
0.032834,-0.010813,0.036372,0.00010404,0.010943,0.00011471,0,0,0.066115,-0.028181,0,0.00059651,0,0,0,0.036372,0.00010367,0.010943,0.18122,0.015806,0.032245,1.089e-06,0.74,0.88,0
0.033495,-0.010871,0.036349,7.723e-05,0.010928,0.00013749,0,0,0.066095,-0.028212,0,0.00071495,0,0,0,0.03635,7.6709e-05,0.010928,0.21718,0.015785,0.032247,1.0878e-06,0.75,0.88,0
0.034156,-0.010925,0.036329,5.3307e-05,0.010915,0.00015616,0,0,0.066077,-0.02824,0,0.00081202,0,0,0,0.03633,5.2635e-05,0.010915,0.24664,0.015766,0.032249,1.0868e-06,0.76,0.88,0
0.034817,-0.010976,0.036311,3.1911e-05,0.010903,0.00017109,0,0,0.066062,-0.028265,0,0.00088968,0,0,0,0.036312,3.1105e-05,0.010903,0.2702,0.015749,0.03225,1.0859e-06,0.77,0.88,0
0.035477,-0.011023,0.036296,1.2737e-05,0.010893,0.00018263,0,0,0.066049,-0.028288,0,0.0009497,0,0,0,0.036297,1.1818e-05,0.010893,0.28839,0.015734,0.032252,1.0852e-06,0.78,0.88,0
0.036138,-0.011067,0.036282,-4.4747e-06,0.010883,0.00019109,0,0,0.066037,-0.028308,0,0.00099369,0,0,0,0.036283,-5.481e-06,0.010883,0.30172,0.01572,0.032254,1.0845e-06,0.79,0.88,0
0.036798,-0.011107,0.036271,-1.9946e-05,0.010875,0.00019675,0,0,0.066028,-0.028327,0,0.0010231,0,0,0,0.036272,-2.1013e-05,0.010875,0.31062,0.015709,0.032256,1.084e-06,0.8,0.88,0
0.037458,-0.011145,0.036261,-3.3869e-05,0.010868,0.00019987,0,0,0.066021,-0.028345,0,0.0010393,0,0,0,0.036262,-3.497e-05,0.010868,0.31551,0.015698,0.032258,1.0835e-06,0.81,0.88,0
0.038118,-0.01118,0.036252,-4.6407e-05,0.010862,0.00020068,0,0,0.066015,-0.028361,0,0.0010435,0,0,0,0.036253,-4.7516e-05,0.010862,0.31675,0.015689,0.03226,1.0832e-06,0.82,0.88,0
0.038779,-0.011213,0.036245,-5.7701e-05,0.010856,0.00019939,0,0,0.06601,-0.028376,0,0.0010368,0,0,0,0.036246,-5.8796e-05,0.010856,0.31468,0.015681,0.032263,1.0829e-06,0.83,0.88,0
0.039439,-0.011243,0.036238,-6.7873e-05,0.010851,0.00019619,0,0,0.066007,-0.02839,0,0.0010202,0,0,0,0.03624,-6.8933e-05,0.010851,0.30961,0.015674,0.032266,1.0826e-06,0.84,0.88,0
0.040099,-0.01127,0.036233,-7.703e-05,0.010847,0.00019128,0,0,0.066005,-0.028402,0,0.00099466,0,0,0,0.036234,-7.8038e-05,0.010847,0.30182,0.015668,0.032268,1.0825e-06,0.85,0.88,0
0.040759,-0.011296,0.036229,-8.5264e-05,0.010843,0.00018481,0,0,0.066004,-0.028414,0,0.000961,0,0,0,0.03623,-8.6204e-05,0.010843,0.29157,0.015662,0.032271,1.0823e-06,0.86,0.88,0
0.041419,-0.011319,0.036226,-9.2653e-05,0.01084,0.00017693,0,0,0.066003,-0.028425,0,0.00092004,0,0,0,0.036227,-9.3515e-05,0.01084,0.27912,0.015658,0.032274,1.0823e-06,0.87,0.88,0
0.042079,-0.01134,0.036223,-9.9268e-05,0.010837,0.00016779,0,0,0.066003,-0.028435,0,0.00087249,0,0,0,0.036224,-0.00010004,0.010837,0.26466,0.015654,0.032276,1.0822e-06,0.88,0.88,0
0.042739,-0.011359,0.036221,-0.00010517,0.010835,0.00015751,0,0,0.066004,-0.028444,0,0.00081904,0,0,0,0.036222,-0.00010585,0.010835,0.24843,0.01565,0.032279,1.0822e-06,0.89,0.88,0
0.043399,-0.011376,0.036219,-0.0001104,0.010833,0.00014622,0,0,0.066005,-0.028452,0,0.00076032,0,0,0,0.03622,-0.00011099,0.010833,0.23059,0.015647,0.032281,1.0822e-06,0.9,0.88,0
0.044059,-0.011391,0.036218,-0.00011502,0.010831,0.00013402,0,0,0.066006,-0.028459,0,0.00069693,0,0,0,0.036218,-0.00011552,0.010831,0.21135,0.015645,0.032284,1.0822e-06,0.91,0.88,0
0.044719,-0.011405,0.036217,-0.00011906,0.010829,0.00012104,0,0,0.066008,-0.028466,0,0.00062942,0,0,0,0.036217,-0.00011946,0.010829,0.19086,0.015642,0.032286,1.0823e-06,0.92,0.88,0
0.045379,-0.011416,0.036216,-0.00012255,0.010828,0.00010737,0,0,0.066009,-0.028472,0,0.00055833,0,0,0,0.036217,-0.00012287,0.010828,0.16929,0.015641,0.032288,1.0823e-06,0.93,0.88,0
0.046039,-0.011427,0.036216,-0.00012553,0.010827,9.3104e-05,0,0,0.066011,-0.028477,0,0.00048414,0,0,0,0.036216,-0.00012576,0.010827,0.14679,0.015639,0.03229,1.0823e-06,0.94,0.88,0
0.046699,-0.011435,0.036215,-0.000128,0.010826,7.8337e-05,0,0,0.066012,-0.028481,0,0.00040735,0,0,0,0.036216,-0.00012817,0.010826,0.1235,0.015638,0.032292,1.0824e-06,0.95,0.88,0
0.047359,-0.011442,0.036215,-0.00013001,0.010826,6.3157e-05,0,0,0.066013,-0.028484,0,0.00032842,0,0,0,0.036215,-0.00013012,0.010826,0.099562,0.015637,0.032293,1.0824e-06,0.96,0.88,0
0.048019,-0.011447,0.036215,-0.00013155,0.010825,4.7651e-05,0,0,0.066014,-0.028487,0,0.00024778,0,0,0,0.036215,-0.00013161,0.010825,0.075115,0.015636,0.032294,1.0824e-06,0.97,0.88,0
0.04868,-0.011451,0.036215,-0.00013264,0.010825,3.1901e-05,0,0,0.066015,-0.028489,0,0.00016589,0,0,0,0.036215,-0.00013267,0.010825,0.050286,0.015636,0.032295,1.0825e-06,0.98,0.88,0
0.04934,-0.011454,0.036215,-0.00013329,0.010825,1.5991e-05,0,0,0.066015,-0.02849,0,8.3152e-05,0,0,0,0.036215,-0.0001333,0.010825,0.025206,0.015635,0.032295,1.0825e-06,0.99,0.88,0
0.05,-0.011454,0.036215,-0.00013351,0.010824,-1.4547e-05,0,0,0.066015,-0.028491,0,-7.5643e-05,0,0,0,0.036215,-0.00013352,0.010824,-0.02293,0.015635,0.032295,1.0825e-06,1,0.88,0
0,0,0.038837,0.016644,0.016644,-0.008231,0,0,0.02885,-5.9631e-19,0,-0.021401,0,0,0,0.041557,0.013925,0.016644,-18.284,0.024042,0.026377,9.0887e-07,0,0.89,0
0.0002885,-0.00021401,0.038735,0.015323,0.016218,-0.0082195,0,0,0.029273,-0.0011625,0,-0.021371,0,0,0,0.041333,0.012726,0.016218,-17.538,0.023425,0.027031,9.5755e-07,0.01,0.89,0
0.00058546,-0.00043591,0.039167,0.014125,0.015988,-0.0082889,0,0,0.030134,-0.0024218,0,-0.021551,0,0,0,0.041662,0.01163,0.015988,-16.752,0.023093,0.028108,1.0487e-06,0.02,0.89,0
0.00089118,-0.00066353,0.039587,0.012866,0.015736,-0.008239,0,0,0.031006,-0.0037308,0,-0.021421,0,0,0,0.041923,0.01053,0.015736,-15.83,0.02273,0.029141,1.1355e-06,0.03,0.89,0
0.0012056,-0.00089442,0.039973,0.011595,0.01547,-0.0080675,0,0,0.031853,-0.0050376,0,-0.020976,0,0,0,0.042106,0.0094622,0.01547,-14.811,0.022346,0.030093,1.2137e-06,0.04,0.89,0
0.0015282,-0.0011261,0.040306,0.010357,0.015199,-0.0077848,0,0,0.032639,-0.0062943,0,-0.020241,0,0,0,0.042209,0.0084546,0.015199,-13.734,0.021954,0.030938,1.2807e-06,0.05,0.89,0
0.0018584,-0.0013564,0.040573,0.009187,0.014928,-0.0074098,0,0,0.033339,-0.0074634,0,-0.019266,0,0,0,0.042235,0.0075256,0.014928,-12.638,0.021563,0.031664,1.3349e-06,0.06,0.89,0
0.002195,-0.0015833,0.040768,0.0081081,0.014663,-0.0069663,0,0,0.033937,-0.0085211,0,-0.018112,0,0,0,0.042192,0.0066843,0.014663,-11.551,0.02118,0.032267,1.3762e-06,0.07,0.89,0
0.0025371,-0.0018053,0.04089,0.0071331,0.014407,-0.0064782,0,0,0.034428,-0.0094561,0,-0.016843,0,0,0,0.042091,0.0059326,0.014407,-10.499,0.02081,0.032754,1.4056e-06,0.08,0.89,0
0.0028836,-0.0020213,0.040945,0.0062648,0.014163,-0.0059674,0,0,0.034816,-0.010268,0,-0.015515,0,0,0,0.041943,0.0052667,0.014163,-9.4952,0.020457,0.033136,1.4245e-06,0.09,0.89,0
0.0032334,-0.0022304,0.04094,0.0054999,0.013932,-0.0054518,0,0,0.035111,-0.010962,0,-0.014175,0,0,0,0.04176,0.0046802,0.013932,-8.5505,0.020124,0.033428,1.4346e-06,0.1,0.89,0
0.0035858,-0.0024322,0.040886,0.004831,0.013715,-0.0049451,0,0,0.035323,-0.01155,0,-0.012857,0,0,0,0.041552,0.004165,0.013715,-7.6696,0.019811,0.033645,1.4377e-06,0.11,0.89,0
0.0039399,-0.0026266,0.040794,0.0042486,0.013513,-0.0044569,0,0,0.035465,-0.012043,0,-0.011588,0,0,0,0.041329,0.0037129,0.013513,-6.8537,0.019518,0.033799,1.4355e-06,0.12,0.89,0
0.0042951,-0.0028134,0.040671,0.0037426,0.013324,-0.0039935,0,0,0.035551,-0.012456,0,-0.010383,0,0,0,0.041098,0.0033157,0.013324,-6.102,0.019246,0.033905,1.4293e-06,0.13,0.89,0
0.0046509,-0.0029929,0.040528,0.0033034,0.013149,-0.0035586,0,0,0.035592,-0.0128,0,-0.0092524,0,0,0,0.040865,0.0029662,0.013149,-5.4121,0.018993,0.033972,1.4204e-06,0.14,0.89,0
0.0050069,-0.0031653,0.04037,0.0029216,0.012988,-0.003154,0,0,0.035597,-0.013086,0,-0.0082003,0,0,0,0.040634,0.0026578,0.012988,-4.7807,0.01876,0.034009,1.4096e-06,0.15,0.89,0
0.0053629,-0.0033309,0.040204,0.0025892,0.012838,-0.00278,0,0,0.035576,-0.013323,0,-0.0072281,0,0,0,0.040408,0.0023848,0.012838,-4.2042,0.018544,0.034023,1.3977e-06,0.16,0.89,0
0.0057185,-0.0034901,0.040034,0.0022989,0.0127,-0.0024363,0,0,0.035534,-0.013521,0,-0.0063343,0,0,0,0.04019,0.0021423,0.0127,-3.6788,0.018344,0.034021,1.3852e-06,0.17,0.89,0
0.0060735,-0.0036432,0.039863,0.0020445,0.012572,-0.0021217,0,0,0.035478,-0.013686,0,-0.0055163,0,0,0,0.039982,0.0019258,0.012572,-3.2009,0.01816,0.034007,1.3725e-06,0.18,0.89,0
0.006428,-0.0037906,0.039694,0.0018205,0.012454,-0.0018348,0,0,0.035412,-0.013824,0,-0.0047705,0,0,0,0.039783,0.0017318,0.012454,-2.7671,0.01799,0.033983,1.3598e-06,0.19,0.89,0
0.0067818,-0.0039329,0.039529,0.0016223,0.012345,-0.0015743,0,0,0.035339,-0.01394,0,-0.0040932,0,0,0,0.039594,0.001557,0.012345,-2.3741,0.017832,0.033954,1.3474e-06,0.2,0.89,0
0.0071348,-0.0040703,0.039368,0.0014459,0.012244,-0.0013385,0,0,0.035261,-0.014038,0,-0.0034802,0,0,0,0.039415,0.0013988,0.012244,-2.019,0.017686,0.03392,1.3354e-06,0.21,0.89,0
0.007487,-0.0042034,0.039213,0.001288,0.01215,-0.0011261,0,0,0.035181,-0.014121,0,-0.0029278,0,0,0,0.039246,0.0012546,0.01215,-1.6992,0.01755,0.033884,1.3238e-06,0.22,0.89,0
0.0078384,-0.0043326,0.039063,0.0011455,0.012063,-0.00093557,0,0,0.035101,-0.014192,0,-0.0024325,0,0,0,0.039087,0.0011225,0.012063,-1.4125,0.017424,0.033847,1.3127e-06,0.23,0.89,0
0.008189,-0.0044582,0.038919,0.0010159,0.011981,-0.00076578,0,0,0.03502,-0.014254,0,-0.001991,0,0,0,0.038935,0.0010005,0.011981,-1.1569,0.017305,0.033809,1.302e-06,0.24,0.89,0
0.0085388,-0.0045807,0.038781,0.00089697,0.011903,-0.00061566,0,0,0.03494,-0.014308,0,-0.0016007,0,0,0,0.038791,0.00088697,0.011903,-0.93081,0.017194,0.033771,1.2918e-06,0.25,0.89,0
0.0088878,-0.0047005,0.038647,0.0007866,0.01183,-0.00048432,0,0,0.034862,-0.014356,0,-0.0012592,0,0,0,0.038653,0.00078041,0.01183,-0.73279,0.017088,0.033733,1.282e-06,0.26,0.89,0
0.0092361,-0.004818,0.038517,0.00068298,0.01176,-0.00037103,0,0,0.034784,-0.0144,0,-0.00096468,0,0,0,0.038521,0.00067934,0.01176,-0.56182,0.016987,0.033696,1.2726e-06,0.27,0.89,0
0.0095835,-0.0049336,0.038391,0.00058436,0.011692,-0.00027528,0,0,0.034708,-0.014441,0,-0.00071572,0,0,0,0.038393,0.00058236,0.011692,-0.41716,0.016889,0.03366,1.2635e-06,0.28,0.89,0
0.0099302,-0.0050478,0.038267,0.00048908,0.011627,-0.00019672,0,0,0.034632,-0.014479,0,-0.00051146,0,0,0,0.038268,0.00048806,0.011627,-0.29834,0.016794,0.033624,1.2546e-06,0.29,0.89,0
0.010276,-0.0051609,0.038146,0.00039547,0.011562,-0.0001352,0,0,0.034558,-0.014517,0,-0.00035152,0,0,0,0.038146,0.00039499,0.011562,-0.2052,0.016701,0.03359,1.246e-06,0.3,0.89,0
0.010621,-0.0052734,0.038025,0.00030182,0.011498,-9.0776e-05,0,0,0.034485,-0.014555,0,-0.00023602,0,0,0,0.038026,0.0003016,0.011498,-0.13787,0.016609,0.033557,1.2375e-06,0.31,0.89,0
0.010966,-0.0053856,0.037905,0.00020629,0.011433,-6.3689e-05,0,0,0.034413,-0.014595,0,-0.00016559,0,0,0,0.037905,0.00020618,0.011433,-0.096795,0.016515,0.033527,1.2291e-06,0.32,0.89,0
0.01131,-0.0054981,0.037785,0.00010684,0.011367,-5.4383e-05,0,0,0.034343,-0.014639,0,-0.00014139,0,0,0,0.037785,0.00010677,0.011367,-0.082698,0.01642,0.033499,1.2209e-06,0.33,0.89,0
0.011653,-0.0056113,0.037664,1.2046e-06,0.011299,-6.3491e-05,0,0,0.034273,-0.014688,0,-0.00016508,0,0,0,0.037664,1.0976e-06,0.011299,-0.096588,0.016321,0.033475,1.2128e-06,0.34,0.89,0
0.011995,-0.0057255,0.037541,-0.0001133,0.011228,-9.1821e-05,0,0,0.034206,-0.014744,0,-0.00023874,0,0,0,0.037541,-0.00011352,0.011228,-0.13972,0.016219,0.033458,1.205e-06,0.35,0.89,0
0.012337,-0.0058413,0.037417,-0.00023979,0.011153,-0.00014032,0,0,0.034143,-0.014811,0,-0.00036484,0,0,0,0.037417,-0.00024031,0.011153,-0.2135,0.01611,0.033449,1.1974e-06,0.36,0.89,0
0.012678,-0.0059591,0.037292,-0.00038202,0.011073,-0.00021002,0,0,0.034084,-0.014891,0,-0.00054604,0,0,0,0.037293,-0.00038319,0.011073,-0.31939,0.015994,0.033453,1.1902e-06,0.37,0.89,0
0.013019,-0.0060794,0.037166,-0.00054445,0.010986,-0.00030189,0,0,0.034033,-0.01499,0,-0.00078492,0,0,0,0.037168,-0.00054687,0.010986,-0.45864,0.015869,0.033474,1.1838e-06,0.38,0.89,0
0.013359,-0.0062026,0.037041,-0.00073242,0.010893,-0.00041674,0,0,0.033993,-0.015113,0,-0.0010835,0,0,0,0.037046,-0.00073702,0.010893,-0.63201,0.015734,0.033517,1.1783e-06,0.39,0.89,0
0.013698,-0.0063292,0.036921,-0.00095223,0.01079,-0.00055489,0,0,0.033969,-0.015265,0,-0.0014427,0,0,0,0.036929,-0.00096036,0.01079,-0.83923,0.015586,0.033592,1.1743e-06,0.4,0.89,0
0.014038,-0.0064596,0.036806,-0.0012112,0.010678,-0.00071585,0,0,0.033966,-0.015456,0,-0.0018612,0,0,0,0.036819,-0.0012247,0.010678,-1.0783,0.015424,0.033708,1.1722e-06,0.41,0.89,0
0.014378,-0.0065942,0.036702,-0.0015175,0.010555,-0.0008978,0,0,0.033991,-0.015695,0,-0.0023343,0,0,0,0.036723,-0.0015386,0.010555,-1.3449,0.015247,0.033875,1.1726e-06,0.42,0.89,0
0.014718,-0.0067332,0.036613,-0.0018799,0.01042,-0.0010971,0,0,0.034051,-0.01599,0,-0.0028524,0,0,0,0.036644,-0.0019112,0.01042,-1.6312,0.015051,0.034105,1.1761e-06,0.43,0.89,0
0.015059,-0.0068769,0.036545,-0.0023069,0.010271,-0.0013075,0,0,0.034155,-0.016352,0,-0.0033996,0,0,0,0.036589,-0.0023508,0.010271,-1.9253,0.014836,0.034411,1.1834e-06,0.44,0.89,0
0.015401,-0.0070251,0.036501,-0.0028055,0.010109,-0.0015202,0,0,0.03431,-0.016789,0,-0.0039524,0,0,0,0.03656,-0.0028642,0.010109,-2.2115,0.014601,0.034801,1.1947e-06,0.45,0.89,0
0.015745,-0.0071778,0.036486,-0.0033798,0.0099318,-0.001723,0,0,0.03452,-0.017305,0,-0.0044799,0,0,0,0.03656,-0.0034541,0.0099318,-2.4703,0.014346,0.03528,1.2102e-06,0.46,0.89,0
0.016091,-0.0073343,0.036499,-0.0040285,0.0097412,-0.001902,0,0,0.034785,-0.017901,0,-0.0049453,0,0,0,0.036588,-0.0041176,0.0097412,-2.6812,0.014071,0.035846,1.2294e-06,0.47,0.89,0
0.016441,-0.0074939,0.036539,-0.0047437,0.0095386,-0.0020423,0,0,0.0351,-0.018567,0,-0.00531,0,0,0,0.03664,-0.0048445,0.0095386,-2.8253,0.013778,0.036485,1.2514e-06,0.48,0.89,0
0.016793,-0.0076556,0.036599,-0.0055099,0.0093266,-0.0021304,0,0,0.035454,-0.019287,0,-0.0055392,0,0,0,0.036706,-0.0056175,0.0093266,-2.889,0.013472,0.037177,1.2747e-06,0.49,0.89,0
0.01715,-0.007818,0.03663,-0.00081637,0.010744,-0.0021576,0,0,0.049485,-0.020038,0,-0.0084002,0,0,0,0.036756,-0.00094266,0.010744,-3.3521,0.015519,0.033494,1.1255e-06,0.5,0.89,0
0.017783,-0.0080357,0.036744,0.0042086,0.012286,-0.0021283,0,0,0.063591,-0.021,0,-0.011067,0,0,0,0.036882,0.00407,0.012286,-3.7268,0.017746,0.029573,9.9082e-07,0.51,0.89,0
0.018422,-0.0082502,0.036812,0.0037214,0.01216,-0.0020576,0,0,0.064095,-0.02194,0,-0.0107,0,0,0,0.036939,0.003594,0.01216,-3.5446,0.017564,0.029994,1.0143e-06,0.52,0.89,0
0.019065,-0.0084599,0.036868,0.0032573,0.012038,-0.0019536,0,0,0.06456,-0.022829,0,-0.010159,0,0,0,0.036982,0.0031441,0.012038,-3.3153,0.017388,0.030383,1.0353e-06,0.53,0.89,0
0.019713,-0.0086635,0.036909,0.0028266,0.011921,-0.0018224,0,0,0.06497,-0.023645,0,-0.0094764,0,0,0,0.037006,0.0027295,0.011921,-3.052,0.017219,0.03073,1.0532e-06,0.54,0.89,0
0.020364,-0.0088598,0.036932,0.0024363,0.01181,-0.0016719,0,0,0.065315,-0.024373,0,-0.008694,0,0,0,0.037012,0.0023555,0.01181,-2.7684,0.017059,0.031029,1.0678e-06,0.55,0.89,0
0.021019,-0.0090481,0.036936,0.0020893,0.011708,-0.0015102,0,0,0.065594,-0.025007,0,-0.0078528,0,0,0,0.037001,0.002024,0.011708,-2.4769,0.016911,0.031281,1.079e-06,0.56,0.89,0
0.021676,-0.0092276,0.036923,0.0017856,0.011613,-0.0013444,0,0,0.065808,-0.02555,0,-0.0069907,0,0,0,0.036975,0.0017343,0.011613,-2.1879,0.016774,0.031486,1.0872e-06,0.57,0.89,0
0.022335,-0.0093983,0.036896,0.0015228,0.011526,-0.0011805,0,0,0.065963,-0.026007,0,-0.0061384,0,0,0,0.036936,0.0014835,0.011526,-1.9092,0.016648,0.031649,1.0927e-06,0.58,0.89,0
0.022995,-0.0095598,0.036858,0.0012972,0.011446,-0.0010229,0,0,0.066069,-0.026388,0,-0.0053189,0,0,0,0.036887,0.0012678,0.011446,-1.6463,0.016534,0.031777,1.096e-06,0.59,0.89,0
0.023657,-0.0097125,0.036811,0.0011044,0.011374,-0.00087455,0,0,0.066134,-0.026702,0,-0.0045477,0,0,0,0.036832,0.001083,0.011374,-1.4022,0.01643,0.031875,1.0975e-06,0.6,0.89,0
0.024318,-0.0098565,0.036758,0.00094015,0.01131,-0.00073726,0,0,0.066167,-0.02696,0,-0.0038337,0,0,0,0.036773,0.00092498,0.01131,-1.1787,0.016336,0.031948,1.0977e-06,0.61,0.89,0
0.02498,-0.009992,0.036703,0.0008002,0.011251,-0.00061179,0,0,0.066175,-0.027172,0,-0.0031813,0,0,0,0.036713,0.00078978,0.011251,-0.97596,0.016251,0.032002,1.0969e-06,0.62,0.89,0
0.025642,-0.010119,0.036646,0.00068089,0.011198,-0.0004983,0,0,0.066166,-0.027345,0,-0.0025911,0,0,0,0.036653,0.00067399,0.011198,-0.79362,0.016175,0.032041,1.0954e-06,0.63,0.89,0
0.026303,-0.010239,0.036591,0.00057897,0.011151,-0.00039647,0,0,0.066144,-0.027487,0,-0.0020616,0,0,0,0.036595,0.00057461,0.011151,-0.63069,0.016107,0.032068,1.0935e-06,0.64,0.89,0
0.026964,-0.010352,0.036537,0.00049167,0.011109,-0.00030572,0,0,0.066114,-0.027604,0,-0.0015898,0,0,0,0.03654,0.00048908,0.011109,-0.48591,0.016046,0.032087,1.0914e-06,0.65,0.89,0
0.027626,-0.010457,0.036486,0.00041665,0.011071,-0.00022533,0,0,0.06608,-0.027701,0,-0.0011717,0,0,0,0.036488,0.00041524,0.011071,-0.35791,0.015991,0.0321,1.0892e-06,0.66,0.89,0
0.028286,-0.010556,0.036438,0.00035195,0.011037,-0.00015448,0,0,0.066044,-0.027782,0,-0.00080331,0,0,0,0.036439,0.00035129,0.011037,-0.24527,0.015942,0.032107,1.0869e-06,0.67,0.89,0
0.028946,-0.010649,0.036394,0.00029593,0.011007,-9.2378e-05,0,0,0.066007,-0.027849,0,-0.00048037,0,0,0,0.036395,0.0002957,0.011007,-0.14662,0.015899,0.032112,1.0847e-06,0.68,0.89,0
0.029606,-0.010736,0.036354,0.00024726,0.01098,-3.8226e-05,0,0,0.065971,-0.027906,0,-0.00019877,0,0,0,0.036354,0.00024722,0.01098,-0.060659,0.01586,0.032114,1.0827e-06,0.69,0.89,0
0.030266,-0.010817,0.036317,0.00020479,0.010956,8.716e-06,0,0,0.065937,-0.027954,0,4.5323e-05,0,0,0,0.036317,0.00020479,0.010956,0.013829,0.015826,0.032116,1.0807e-06,0.7,0.89,0
0.030925,-0.010894,0.036284,0.00016761,0.010935,4.9137e-05,0,0,0.065906,-0.027996,0,0.00025551,0,0,0,0.036284,0.00016754,0.010935,0.077953,0.015796,0.032116,1.079e-06,0.71,0.89,0
0.031584,-0.010965,0.036254,0.00013493,0.010917,8.3669e-05,0,0,0.065877,-0.028032,0,0.00043508,0,0,0,0.036254,0.00013474,0.010917,0.13272,0.015769,0.032116,1.0774e-06,0.72,0.89,0
0.032243,-0.011032,0.036228,0.00010612,0.0109,0.00011289,0,0,0.065851,-0.028064,0,0.00058701,0,0,0,0.036228,0.00010577,0.0109,0.17906,0.015745,0.032116,1.076e-06,0.73,0.89,0
0.032901,-0.011094,0.036204,8.0623e-05,0.010885,0.00013731,0,0,0.065829,-0.028093,0,0.00071399,0,0,0,0.036205,8.0102e-05,0.010885,0.21778,0.015724,0.032116,1.0748e-06,0.74,0.89,0
0.033559,-0.011152,0.036184,5.7999e-05,0.010873,0.0001574,0,0,0.06581,-0.028118,0,0.00081846,0,0,0,0.036185,5.7313e-05,0.010873,0.24963,0.015705,0.032116,1.0737e-06,0.75,0.89,0
0.034217,-0.011207,0.036166,3.7866e-05,0.010861,0.00017358,0,0,0.065793,-0.028141,0,0.00090261,0,0,0,0.036167,3.7032e-05,0.010861,0.27527,0.015689,0.032116,1.0728e-06,0.76,0.89,0
0.034875,-0.011258,0.036151,1.9905e-05,0.010851,0.00018623,0,0,0.06578,-0.028162,0,0.00096838,0,0,0,0.036152,1.8945e-05,0.010851,0.2953,0.015674,0.032118,1.072e-06,0.77,0.89,0
0.035533,-0.011305,0.036138,3.8448e-06,0.010843,0.00019568,0,0,0.065769,-0.028181,0,0.0010176,0,0,0,0.036139,2.7851e-06,0.010843,0.31027,0.015662,0.032119,1.0714e-06,0.78,0.89,0
0.03619,-0.011349,0.036127,-1.0542e-05,0.010835,0.00020225,0,0,0.06576,-0.028199,0,0.0010517,0,0,0,0.036129,-1.1674e-05,0.010835,0.32065,0.015651,0.032121,1.0709e-06,0.79,0.89,0
0.036848,-0.01139,0.036118,-2.3452e-05,0.010828,0.00020621,0,0,0.065753,-0.028215,0,0.0010723,0,0,0,0.036119,-2.4629e-05,0.010828,0.32689,0.015641,0.032123,1.0705e-06,0.8,0.89,0
0.037505,-0.011428,0.036111,-3.5051e-05,0.010823,0.0002078,0,0,0.065749,-0.02823,0,0.0010806,0,0,0,0.036112,-3.6246e-05,0.010823,0.32938,0.015633,0.032126,1.0702e-06,0.81,0.89,0
0.038163,-0.011463,0.036105,-4.5481e-05,0.010818,0.00020725,0,0,0.065746,-0.028244,0,0.0010777,0,0,0,0.036106,-4.6669e-05,0.010818,0.32847,0.015626,0.032129,1.07e-06,0.82,0.89,0
0.03882,-0.011496,0.0361,-5.4865e-05,0.010814,0.00020477,0,0,0.065744,-0.028258,0,0.0010648,0,0,0,0.036101,-5.6025e-05,0.010814,0.32449,0.015619,0.032132,1.0699e-06,0.83,0.89,0
0.039478,-0.011526,0.036096,-6.3308e-05,0.01081,0.00020053,0,0,0.065744,-0.02827,0,0.0010428,0,0,0,0.036097,-6.442e-05,0.01081,0.31773,0.015614,0.032135,1.0698e-06,0.84,0.89,0
0.040135,-0.011554,0.036093,-7.0901e-05,0.010807,0.00019471,0,0,0.065745,-0.028282,0,0.0010125,0,0,0,0.036094,-7.1949e-05,0.010807,0.30847,0.01561,0.032139,1.0698e-06,0.85,0.89,0
0.040793,-0.011579,0.036091,-7.7722e-05,0.010804,0.00018746,0,0,0.065747,-0.028293,0,0.00097477,0,0,0,0.036092,-7.8693e-05,0.010804,0.29694,0.015606,0.032142,1.0698e-06,0.86,0.89,0
0.04145,-0.011602,0.03609,-8.3839e-05,0.010802,0.00017892,0,0,0.065749,-0.028303,0,0.00093037,0,0,0,0.036091,-8.4723e-05,0.010802,0.28338,0.015603,0.032146,1.0699e-06,0.87,0.89,0
0.042108,-0.011624,0.036089,-8.931e-05,0.0108,0.00016922,0,0,0.065752,-0.028312,0,0.00087995,0,0,0,0.03609,-9.0102e-05,0.0108,0.26799,0.0156,0.032149,1.07e-06,0.88,0.89,0
0.042765,-0.011643,0.036089,-9.4188e-05,0.010798,0.00015849,0,0,0.065755,-0.028321,0,0.00082414,0,0,0,0.036089,-9.4882e-05,0.010798,0.25096,0.015598,0.032153,1.0701e-06,0.89,0.89,0
0.043423,-0.01166,0.036089,-9.8514e-05,0.010797,0.00014683,0,0,0.065758,-0.028328,0,0.00076353,0,0,0,0.036089,-9.911e-05,0.010797,0.23248,0.015596,0.032156,1.0702e-06,0.9,0.89,0
0.04408,-0.011675,0.036089,-0.00010233,0.010796,0.00013436,0,0,0.065762,-0.028336,0,0.00069866,0,0,0,0.036089,-0.00010283,0.010796,0.2127,0.015594,0.032159,1.0703e-06,0.91,0.89,0
0.044738,-0.011689,0.036089,-0.00010566,0.010795,0.00012116,0,0,0.065765,-0.028342,0,0.00063005,0,0,0,0.03609,-0.00010607,0.010795,0.1918,0.015593,0.032162,1.0704e-06,0.92,0.89,0
0.045396,-0.011701,0.03609,-0.00010854,0.010794,0.00010734,0,0,0.065768,-0.028348,0,0.00055817,0,0,0,0.03609,-0.00010886,0.010794,0.1699,0.015592,0.032165,1.0706e-06,0.93,0.89,0
0.046053,-0.011711,0.03609,-0.000111,0.010794,9.298e-05,0,0,0.065771,-0.028353,0,0.0004835,0,0,0,0.036091,-0.00011124,0.010794,0.14716,0.015591,0.032167,1.0707e-06,0.94,0.89,0
0.046711,-0.011719,0.036091,-0.00011304,0.010793,7.8163e-05,0,0,0.065774,-0.028357,0,0.00040645,0,0,0,0.036091,-0.00011321,0.010793,0.1237,0.015591,0.032169,1.0708e-06,0.95,0.89,0
0.047369,-0.011726,0.036092,-0.00011469,0.010793,6.2973e-05,0,0,0.065776,-0.02836,0,0.00032746,0,0,0,0.036092,-0.0001148,0.010793,0.099653,0.01559,0.032171,1.0709e-06,0.96,0.89,0
0.048027,-0.011732,0.036092,-0.00011597,0.010793,4.7486e-05,0,0,0.065778,-0.028363,0,0.00024693,0,0,0,0.036092,-0.00011603,0.010793,0.075142,0.01559,0.032172,1.071e-06,0.97,0.89,0
0.048684,-0.011735,0.036092,-0.00011687,0.010793,3.1779e-05,0,0,0.065779,-0.028365,0,0.00016525,0,0,0,0.036092,-0.00011689,0.010793,0.050285,0.015589,0.032173,1.071e-06,0.98,0.89,0
0.049342,-0.011738,0.036093,-0.0001174,0.010793,1.5926e-05,0,0,0.06578,-0.028366,0,8.2814e-05,0,0,0,0.036093,-0.00011741,0.010793,0.0252,0.015589,0.032174,1.0711e-06,0.99,0.89,0
0.05,-0.011739,0.036093,-0.00011758,0.010793,-1.462e-05,0,0,0.06578,-0.028366,0,-7.6024e-05,0,0,0,0.036093,-0.00011759,0.010793,-0.023133,0.015589,0.032174,1.0711e-06,1,0.89,0
0,0,0.039449,0.016907,0.016907,-0.0086974,0,0,0.029305,-2.1684e-19,0,-0.022613,0,0,0,0.042414,0.013941,0.016907,-18.828,0.024421,0.027113,9.8243e-07,0,0.9,0
0.00029305,-0.00022613,0.039338,0.015459,0.016439,-0.0086805,0,0,0.029768,-0.0012737,0,-0.022569,0,0,0,0.04216,0.012637,0.016439,-18.009,0.023746,0.027817,1.0362e-06,0.01,0.9,0
0.00059537,-0.00046123,0.039806,0.014127,0.01618,-0.0087482,0,0,0.030713,-0.0026684,0,-0.022745,0,0,0,0.042503,0.01143,0.01618,-17.135,0.023371,0.028991,1.139e-06,0.02,0.9,0
0.00090732,-0.00070258,0.040254,0.012726,0.015894,-0.0086682,0,0,0.031668,-0.0041183,0,-0.022537,0,0,0,0.042756,0.010224,0.015894,-16.101,0.022958,0.0301,1.2348e-06,0.03,0.9,0
0.0012287,-0.00094712,0.040655,0.011322,0.015593,-0.0084408,0,0,0.03258,-0.0055527,0,-0.021946,0,0,0,0.04291,0.0090662,0.015593,-14.96,0.022523,0.031099,1.3183e-06,0.04,0.9,0
0.0015589,-0.0011919,0.040986,0.009972,0.015287,-0.0080834,0,0,0.033408,-0.0069098,0,-0.021017,0,0,0,0.042966,0.0079917,0.015287,-13.766,0.022082,0.031957,1.3863e-06,0.05,0.9,0
0.0018969,-0.0014342,0.041232,0.0087195,0.014985,-0.0076244,0,0,0.03412,-0.0081456,0,-0.019824,0,0,0,0.042931,0.0070202,0.014985,-12.564,0.021646,0.032665,1.4376e-06,0.06,0.9,0
0.0022413,-0.0016719,0.041388,0.0075883,0.014693,-0.0070966,0,0,0.034704,-0.0092361,0,-0.018451,0,0,0,0.042818,0.0061587,0.014693,-11.389,0.021223,0.033224,1.4729e-06,0.07,0.9,0
0.002591,-0.0019033,0.041459,0.0065874,0.014414,-0.0065309,0,0,0.035159,-0.010175,0,-0.01698,0,0,0,0.042642,0.0054045,0.014414,-10.267,0.02082,0.03365,1.4943e-06,0.08,0.9,0
0.0029445,-0.0021273,0.041455,0.0057148,0.014151,-0.0059531,0,0,0.035495,-0.010967,0,-0.015478,0,0,0,0.04242,0.0047493,0.014151,-9.2122,0.02044,0.033961,1.504e-06,0.09,0.9,0
0.0033009,-0.0023432,0.041388,0.0049611,0.013905,-0.0053829,0,0,0.035728,-0.011627,0,-0.013995,0,0,0,0.042167,0.0041823,0.013905,-8.2324,0.020085,0.034177,1.5047e-06,0.1,0.9,0
0.0036591,-0.0025507,0.041272,0.0043141,0.013676,-0.0048339,0,0,0.035875,-0.01217,0,-0.012568,0,0,0,0.041894,0.0036923,0.013676,-7.3296,0.019754,0.034317,1.4987e-06,0.11,0.9,0
0.0040184,-0.0027498,0.041121,0.0037602,0.013464,-0.0043146,0,0,0.035953,-0.012615,0,-0.011218,0,0,0,0.041613,0.0032684,0.013464,-6.5028,0.019449,0.034399,1.488e-06,0.12,0.9,0
0.0043781,-0.0029406,0.040945,0.0032864,0.013269,-0.0038299,0,0,0.035978,-0.012978,0,-0.0099577,0,0,0,0.04133,0.0029008,0.013269,-5.7486,0.019167,0.034437,1.4742e-06,0.13,0.9,0
0.0047379,-0.0031233,0.040753,0.0028806,0.01309,-0.0033816,0,0,0.035962,-0.013272,0,-0.0087921,0,0,0,0.041053,0.0025811,0.01309,-5.0625,0.018908,0.034441,1.4585e-06,0.14,0.9,0
0.0050974,-0.0032983,0.040554,0.0025324,0.012926,-0.0029698,0,0,0.035916,-0.013512,0,-0.0077215,0,0,0,0.040785,0.0023018,0.012926,-4.4394,0.018671,0.034423,1.4419e-06,0.15,0.9,0
0.0054563,-0.0034661,0.040352,0.0022326,0.012776,-0.0025935,0,0,0.03585,-0.013706,0,-0.0067431,0,0,0,0.040528,0.002057,0.012776,-3.8744,0.018454,0.034388,1.425e-06,0.16,0.9,0
0.0058144,-0.003627,0.040153,0.0019734,0.012638,-0.002251,0,0,0.035769,-0.013864,0,-0.0058526,0,0,0,0.040285,0.0018412,0.012638,-3.3625,0.018255,0.034343,1.4082e-06,0.17,0.9,0
0.0061716,-0.0037816,0.039958,0.0017484,0.012512,-0.0019402,0,0,0.03568,-0.013993,0,-0.0050444,0,0,0,0.040056,0.0016501,0.012512,-2.8994,0.018073,0.034291,1.392e-06,0.18,0.9,0
0.006528,-0.0039303,0.03977,0.001552,0.012397,-0.0016588,0,0,0.035585,-0.014098,0,-0.004313,0,0,0,0.039842,0.0014801,0.012397,-2.4807,0.017906,0.034235,1.3764e-06,0.19,0.9,0
0.0068834,-0.0040735,0.03959,0.0013795,0.012291,-0.0014049,0,0,0.035489,-0.014185,0,-0.0036526,0,0,0,0.039642,0.0013279,0.012291,-2.1028,0.017753,0.034177,1.3617e-06,0.2,0.9,0
0.0072378,-0.0042118,0.039418,0.0012271,0.012194,-0.0011762,0,0,0.035392,-0.014257,0,-0.0030582,0,0,0,0.039455,0.0011909,0.012194,-1.7624,0.017613,0.03412,1.3478e-06,0.21,0.9,0
0.0075912,-0.0043457,0.039256,0.0010916,0.012104,-0.00097105,0,0,0.035297,-0.014316,0,-0.0025247,0,0,0,0.039281,0.0010669,0.012104,-1.4566,0.017484,0.034063,1.3347e-06,0.22,0.9,0
0.0079437,-0.0044754,0.039102,0.00097012,0.012021,-0.00078765,0,0,0.035204,-0.014367,0,-0.0020479,0,0,0,0.039118,0.00095386,0.012021,-1.1828,0.017364,0.034009,1.3225e-06,0.23,0.9,0
0.0082953,-0.0046015,0.038956,0.00086029,0.011945,-0.00062458,0,0,0.035114,-0.01441,0,-0.0016239,0,0,0,0.038966,0.00085005,0.011945,-0.93905,0.017254,0.033956,1.311e-06,0.24,0.9,0
0.008646,-0.0047245,0.038817,0.00076003,0.011873,-0.0004806,0,0,0.035027,-0.014447,0,-0.0012496,0,0,0,0.038823,0.00075396,0.011873,-0.7234,0.01715,0.033906,1.3002e-06,0.25,0.9,0
0.0089958,-0.0048447,0.038685,0.00066751,0.011806,-0.00035466,0,0,0.034943,-0.01448,0,-0.00092211,0,0,0,0.038688,0.0006642,0.011806,-0.53444,0.017053,0.033857,1.29e-06,0.26,0.9,0
0.0093449,-0.0049625,0.038559,0.00058107,0.011742,-0.00024595,0,0,0.034862,-0.014509,0,-0.00063947,0,0,0,0.03856,0.00057948,0.011742,-0.37103,0.016961,0.033811,1.2803e-06,0.27,0.9,0
0.0096931,-0.0050785,0.038437,0.00049918,0.011681,-0.00015387,0,0,0.034783,-0.014536,0,-0.00040005,0,0,0,0.038438,0.00049856,0.011681,-0.23237,0.016872,0.033767,1.2711e-06,0.28,0.9,0
0.010041,-0.005193,0.038319,0.00042037,0.011622,-7.8021e-05,0,0,0.034707,-0.014562,0,-0.00020285,0,0,0,0.038319,0.0004202,0.011622,-0.11795,0.016787,0.033724,1.2622e-06,0.29,0.9,0
0.010387,-0.0053064,0.038204,0.00034316,0.011564,-1.824e-05,0,0,0.034632,-0.014587,0,-4.7423e-05,0,0,0,0.038204,0.00034315,0.011564,-0.027603,0.016704,0.033682,1.2535e-06,0.3,0.9,0
0.010733,-0.0054192,0.03809,0.00026605,0.011507,2.5427e-05,0,0,0.034558,-0.014613,0,6.611e-05,0,0,0,0.03809,0.00026604,0.011507,0.038517,0.016621,0.033642,1.245e-06,0.31,0.9,0
0.011078,-0.0055318,0.037976,0.00018743,0.011449,5.2698e-05,0,0,0.034485,-0.01464,0,0.00013702,0,0,0,0.037976,0.00018735,0.011449,0.079903,0.016537,0.033604,1.2367e-06,0.32,0.9,0
0.011423,-0.0056447,0.037861,0.00010548,0.01139,6.3055e-05,0,0,0.034412,-0.01467,0,0.00016394,0,0,0,0.037861,0.00010537,0.01139,0.095688,0.016452,0.033568,1.2284e-06,0.33,0.9,0
0.011767,-0.0057582,0.037745,1.812e-05,0.011329,5.5732e-05,0,0,0.034341,-0.014704,0,0.0001449,0,0,0,0.037745,1.8038e-05,0.011329,0.084641,0.016364,0.033534,1.2201e-06,0.34,0.9,0
0.01211,-0.0058729,0.037625,-7.7097e-05,0.011265,2.9718e-05,0,0,0.034269,-0.014744,0,7.7266e-05,0,0,0,0.037625,-7.712e-05,0.011265,0.045162,0.016271,0.033504,1.2118e-06,0.35,0.9,0
0.012452,-0.0059893,0.037503,-0.00018313,0.011196,-1.6235e-05,0,0,0.034199,-0.014793,0,-4.2212e-05,0,0,0,0.037503,-0.00018314,0.011196,-0.024683,0.016172,0.03348,1.2037e-06,0.36,0.9,0
0.012794,-0.0061078,0.037378,-0.00030361,0.011122,-8.3575e-05,0,0,0.034132,-0.014854,0,-0.00021729,0,0,0,0.037378,-0.00030379,0.011122,-0.12708,0.016065,0.033465,1.1957e-06,0.37,0.9,0
0.013135,-0.0062289,0.037249,-0.00044298,0.011042,-0.00017387,0,0,0.034069,-0.01493,0,-0.00045206,0,0,0,0.03725,-0.00044378,0.011042,-0.2643,0.015949,0.033463,1.1881e-06,0.38,0.9,0
0.013475,-0.0063533,0.037118,-0.00060676,0.010953,-0.00028867,0,0,0.034014,-0.015028,0,-0.00075054,0,0,0,0.03712,-0.00060897,0.010953,-0.43839,0.015821,0.03348,1.1812e-06,0.39,0.9,0
0.013815,-0.0064813,0.036987,-0.00080173,0.010856,-0.00042925,0,0,0.033971,-0.015154,0,-0.0011161,0,0,0,0.036992,-0.0008066,0.010856,-0.65072,0.01568,0.033525,1.1754e-06,0.4,0.9,0
0.014154,-0.0066135,0.036859,-0.0010361,0.010747,-0.00059623,0,0,0.033946,-0.015318,0,-0.0015502,0,0,0,0.036868,-0.0010455,0.010747,-0.90117,0.015523,0.033607,1.1713e-06,0.41,0.9,0
0.014494,-0.0067503,0.036739,-0.0013195,0.010626,-0.00078896,0,0,0.033947,-0.015529,0,-0.0020513,0,0,0,0.036755,-0.0013359,0.010626,-1.1871,0.015348,0.03374,1.1695e-06,0.42,0.9,0
0.014833,-0.0068922,0.036631,-0.0016631,0.01049,-0.0010048,0,0,0.033983,-0.0158,0,-0.0026124,0,0,0,0.036657,-0.0016894,0.01049,-1.502,0.015153,0.033938,1.1708e-06,0.43,0.9,0
0.015173,-0.0070394,0.036543,-0.0020784,0.010339,-0.0012381,0,0,0.034064,-0.016143,0,-0.0032189,0,0,0,0.036582,-0.002118,0.010339,-1.8342,0.014935,0.034217,1.1762e-06,0.44,0.9,0
0.015515,-0.007192,0.036481,-0.0025763,0.010171,-0.0014793,0,0,0.034202,-0.016572,0,-0.0038462,0,0,0,0.036537,-0.0026323,0.010171,-2.166,0.014692,0.034592,1.1862e-06,0.45,0.9,0
0.015858,-0.0073498,0.03645,-0.0031646,0.0099855,-0.0017148,0,0,0.034403,-0.017095,0,-0.0044584,0,0,0,0.036524,-0.0032387,0.0099855,-2.4739,0.014424,0.035073,1.2011e-06,0.46,0.9,0
0.016203,-0.0075124,0.036452,-0.0038451,0.0097822,-0.0019268,0,0,0.034671,-0.017715,0,-0.0050097,0,0,0,0.036545,-0.003937,0.0097822,-2.7313,0.01413,0.035659,1.2208e-06,0.47,0.9,0
0.016551,-0.0076789,0.036487,-0.0046104,0.009563,-0.0020959,0,0,0.035001,-0.018425,0,-0.0054493,0,0,0,0.036594,-0.0047171,0.009563,-2.9119,0.013813,0.03634,1.244e-06,0.48,0.9,0
0.016903,-0.0078481,0.036546,-0.0054422,0.0093311,-0.0022034,0,0,0.035379,-0.019205,0,-0.0057289,0,0,0,0.036661,-0.0055575,0.0093311,-2.9958,0.013478,0.037088,1.269e-06,0.49,0.9,0
0.017258,-0.0080183,0.036575,-0.00082852,0.010724,-0.0022376,0,0,0.049425,-0.020025,0,-0.008714,0,0,0,0.036711,-0.0009645,0.010724,-3.4793,0.01549,0.033471,1.1218e-06,0.5,0.9,0
0.017891,-0.008246,0.036696,0.0041511,0.012254,-0.0022049,0,0,0.063549,-0.021068,0,-0.011465,0,0,0,0.036845,0.0040024,0.012254,-3.8582,0.0177,0.029592,9.9029e-07,0.51,0.9,0
0.01853,-0.0084702,0.036765,0.0036234,0.012117,-0.0021229,0,0,0.064086,-0.022082,0,-0.011039,0,0,0,0.036901,0.0034879,0.012117,-3.6503,0.017502,0.030042,1.015e-06,0.52,0.9,0
0.019173,-0.0086891,0.036819,0.0031256,0.011983,-0.0020016,0,0,0.064573,-0.02303,0,-0.010408,0,0,0,0.036937,0.0030071,0.011983,-3.3879,0.017309,0.030451,1.0367e-06,0.53,0.9,0
0.019821,-0.0089011,0.036853,0.0026706,0.011857,-0.0018499,0,0,0.06499,-0.023885,0,-0.0096194,0,0,0,0.036953,0.0025708,0.011857,-3.0887,0.017127,0.030807,1.0545e-06,0.54,0.9,0
0.020473,-0.0091048,0.036865,0.0022658,0.011739,-0.0016781,0,0,0.065328,-0.024631,0,-0.0087263,0,0,0,0.036947,0.0021846,0.011739,-2.7703,0.016957,0.031105,1.0683e-06,0.55,0.9,0
0.021128,-0.0092994,0.036856,0.0019134,0.011631,-0.0014966,0,0,0.065586,-0.025266,0,-0.0077825,0,0,0,0.03692,0.0018494,0.011631,-2.448,0.0168,0.031346,1.0782e-06,0.56,0.9,0
0.021784,-0.0094843,0.036829,0.0016114,0.011532,-0.0013141,0,0,0.065771,-0.025793,0,-0.0068335,0,0,0,0.036877,0.0015624,0.011532,-2.134,0.016657,0.031535,1.0847e-06,0.57,0.9,0
0.022443,-0.0096594,0.036785,0.0013556,0.011442,-0.0011373,0,0,0.065892,-0.026225,0,-0.0059138,0,0,0,0.036822,0.0013191,0.011442,-1.8366,0.016528,0.031678,1.0883e-06,0.58,0.9,0
0.023102,-0.0098247,0.036732,0.0011404,0.011362,-0.0009705,0,0,0.065962,-0.026575,0,-0.0050466,0,0,0,0.036758,0.0011139,0.011362,-1.5608,0.016411,0.031784,1.0898e-06,0.59,0.9,0
0.023762,-0.0099803,0.036671,0.00095987,0.011289,-0.00081647,0,0,0.065992,-0.026856,0,-0.0042456,0,0,0,0.036689,0.00094121,0.011289,-1.3091,0.016307,0.03186,1.0895e-06,0.6,0.9,0
0.024422,-0.010127,0.036606,0.00080863,0.011224,-0.00067636,0,0,0.065992,-0.027081,0,-0.0035171,0,0,0,0.036619,0.00079585,0.011224,-1.082,0.016213,0.031913,1.0882e-06,0.61,0.9,0
0.025082,-0.010264,0.03654,0.00068176,0.011167,-0.00055038,0,0,0.065972,-0.027261,0,-0.002862,0,0,0,0.036549,0.00067332,0.011167,-0.87913,0.01613,0.031949,1.086e-06,0.62,0.9,0
0.025742,-0.010393,0.036476,0.00057507,0.011115,-0.00043811,0,0,0.065938,-0.027405,0,-0.0022782,0,0,0,0.036481,0.00056972,0.011115,-0.69905,0.016056,0.031971,1.0835e-06,0.63,0.9,0
0.026401,-0.010514,0.036414,0.00048503,0.01107,-0.00033874,0,0,0.065895,-0.02752,0,-0.0017614,0,0,0,0.036417,0.00048183,0.01107,-0.54012,0.01599,0.031984,1.0806e-06,0.64,0.9,0
0.02706,-0.010628,0.036356,0.00040872,0.011029,-0.00025129,0,0,0.065849,-0.027614,0,-0.0013067,0,0,0,0.036358,0.00040697,0.011029,-0.40051,0.015931,0.031991,1.0778e-06,0.65,0.9,0
0.027718,-0.010734,0.036302,0.00034377,0.010994,-0.00017472,0,0,0.065801,-0.02769,0,-0.00090854,0,0,0,0.036303,0.00034292,0.010994,-0.27839,0.01588,0.031993,1.075e-06,0.66,0.9,0
0.028376,-0.010834,0.036253,0.00028822,0.010962,-0.00010797,0,0,0.065755,-0.027752,0,-0.00056145,0,0,0,0.036253,0.0002879,0.010962,-0.17201,0.015834,0.031992,1.0723e-06,0.67,0.9,0
0.029033,-0.010927,0.036208,0.00024049,0.010934,-5.0063e-05,0,0,0.06571,-0.027804,0,-0.00026033,0,0,0,0.036208,0.00024042,0.010934,-0.07975,0.015794,0.03199,1.0699e-06,0.68,0.9,0
0.02969,-0.011015,0.036167,0.00019927,0.01091,-7.65e-08,0,0,0.065669,-0.027848,0,-3.978e-07,0,0,0,0.036167,0.00019927,0.01091,-0.00012186,0.015759,0.031987,1.0676e-06,0.69,0.9,0
0.030346,-0.011097,0.036132,0.00016352,0.010889,4.2822e-05,0,0,0.065632,-0.027885,0,0.00022268,0,0,0,0.036132,0.00016347,0.010889,0.068214,0.015728,0.031984,1.0656e-06,0.7,0.9,0
0.031002,-0.011173,0.0361,0.00013238,0.01087,7.9384e-05,0,0,0.065599,-0.027917,0,0.0004128,0,0,0,0.0361,0.0001322,0.01087,0.12646,0.015701,0.031981,1.0638e-06,0.71,0.9,0
0.031658,-0.011245,0.036073,0.00010513,0.010853,0.00011028,0,0,0.06557,-0.027945,0,0.00057346,0,0,0,0.036073,0.00010479,0.010853,0.17567,0.015677,0.031979,1.0623e-06,0.72,0.9,0
0.032314,-0.011312,0.036049,8.1189e-05,0.010839,0.00013611,0,0,0.065546,-0.02797,0,0.00070776,0,0,0,0.036049,8.0674e-05,0.010839,0.21681,0.015656,0.031977,1.0609e-06,0.73,0.9,0
0.032969,-0.011375,0.036028,6.0083e-05,0.010826,0.0001574,0,0,0.065525,-0.027993,0,0.00081847,0,0,0,0.036029,5.9395e-05,0.010826,0.25072,0.015638,0.031976,1.0598e-06,0.74,0.9,0
0.033624,-0.011433,0.036011,4.1411e-05,0.010816,0.00017462,0,0,0.065508,-0.028013,0,0.00090802,0,0,0,0.036012,4.0563e-05,0.010816,0.27814,0.015623,0.031976,1.0589e-06,0.75,0.9,0
0.034279,-0.011488,0.035997,2.4838e-05,0.010806,0.00018819,0,0,0.065494,-0.028032,0,0.00097859,0,0,0,0.035998,2.3854e-05,0.010806,0.29974,0.015609,0.031976,1.0582e-06,0.76,0.9,0
0.034934,-0.011539,0.035985,1.0088e-05,0.010798,0.00019848,0,0,0.065484,-0.02805,0,0.0010321,0,0,0,0.035986,8.993e-06,0.010798,0.3161,0.015598,0.031978,1.0576e-06,0.77,0.9,0
0.035589,-0.011586,0.035975,-3.0732e-06,0.010792,0.00020582,0,0,0.065477,-0.028066,0,0.0010703,0,0,0,0.035976,-4.2505e-06,0.010792,0.32776,0.015588,0.03198,1.0572e-06,0.78,0.9,0
0.036244,-0.011631,0.035967,-1.4842e-05,0.010786,0.0002105,0,0,0.065472,-0.028081,0,0.0010946,0,0,0,0.035968,-1.6074e-05,0.010786,0.33517,0.015579,0.031982,1.0569e-06,0.79,0.9,0
0.036898,-0.011672,0.035961,-2.5386e-05,0.010781,0.00021278,0,0,0.065469,-0.028096,0,0.0011065,0,0,0,0.035962,-2.6644e-05,0.010781,0.33876,0.015572,0.031985,1.0567e-06,0.8,0.9,0
0.037553,-0.01171,0.035957,-3.4845e-05,0.010777,0.0002129,0,0,0.065468,-0.02811,0,0.0011071,0,0,0,0.035958,-3.6105e-05,0.010777,0.33891,0.015566,0.031989,1.0566e-06,0.81,0.9,0
0.038208,-0.011745,0.035954,-4.3341e-05,0.010773,0.00021108,0,0,0.065469,-0.028123,0,0.0010976,0,0,0,0.035955,-4.4579e-05,0.010773,0.33595,0.015561,0.031993,1.0566e-06,0.82,0.9,0
0.038863,-0.011778,0.035952,-5.0976e-05,0.01077,0.00020749,0,0,0.065472,-0.028135,0,0.0010789,0,0,0,0.035953,-5.2172e-05,0.01077,0.33019,0.015557,0.031997,1.0566e-06,0.83,0.9,0
0.039517,-0.011808,0.035951,-5.7839e-05,0.010768,0.00020231,0,0,0.065476,-0.028147,0,0.001052,0,0,0,0.035952,-5.8976e-05,0.010768,0.3219,0.015554,0.032002,1.0568e-06,0.84,0.9,0
0.040172,-0.011836,0.035951,-6.4005e-05,0.010766,0.00019571,0,0,0.06548,-0.028158,0,0.0010177,0,0,0,0.035952,-6.5069e-05,0.010766,0.31133,0.015551,0.032007,1.0569e-06,0.85,0.9,0
0.040827,-0.011861,0.035951,-6.9541e-05,0.010764,0.00018781,0,0,0.065485,-0.028168,0,0.00097659,0,0,0,0.035952,-7.052e-05,0.010764,0.29872,0.015549,0.032011,1.0571e-06,0.86,0.9,0
0.041482,-0.011885,0.035952,-7.4502e-05,0.010763,0.00017874,0,0,0.065491,-0.028178,0,0.00092947,0,0,0,0.035953,-7.5389e-05,0.010763,0.28426,0.015547,0.032016,1.0574e-06,0.87,0.9,0
0.042137,-0.011906,0.035954,-7.8937e-05,0.010762,0.00016864,0,0,0.065497,-0.028188,0,0.00087694,0,0,0,0.035954,-7.9726e-05,0.010762,0.26815,0.015546,0.032021,1.0576e-06,0.88,0.9,0
0.042792,-0.011925,0.035955,-8.2888e-05,0.010762,0.00015761,0,0,0.065503,-0.028196,0,0.00081956,0,0,0,0.035956,-8.3578e-05,0.010762,0.25057,0.015545,0.032025,1.0579e-06,0.89,0.9,0
0.043447,-0.011942,0.035957,-8.6392e-05,0.010761,0.00014574,0,0,0.065509,-0.028204,0,0.00075788,0,0,0,0.035958,-8.6981e-05,0.010761,0.23167,0.015544,0.03203,1.0582e-06,0.9,0.9,0
0.044102,-0.011958,0.035959,-8.948e-05,0.010761,0.00013315,0,0,0.065516,-0.028211,0,0.00069237,0,0,0,0.03596,-8.9972e-05,0.010761,0.21162,0.015544,0.032033,1.0584e-06,0.91,0.9,0
0.044757,-0.011972,0.035961,-9.2178e-05,0.010761,0.0001199,0,0,0.065521,-0.028217,0,0.00062351,0,0,0,0.035962,-9.2576e-05,0.010761,0.19055,0.015543,0.032037,1.0587e-06,0.92,0.9,0
0.045412,-0.011983,0.035963,-9.4509e-05,0.010761,0.0001061,0,0,0.065527,-0.028223,0,0.00055172,0,0,0,0.035963,-9.4821e-05,0.010761,0.16859,0.015543,0.032041,1.0589e-06,0.93,0.9,0
0.046068,-0.011994,0.035965,-9.6493e-05,0.01076,9.1813e-05,0,0,0.065531,-0.028228,0,0.00047743,0,0,0,0.035965,-9.6727e-05,0.01076,0.14588,0.015543,0.032044,1.0591e-06,0.94,0.9,0
0.046723,-0.012002,0.035966,-9.8146e-05,0.01076,7.7118e-05,0,0,0.065535,-0.028232,0,0.00040102,0,0,0,0.035967,-9.8311e-05,0.01076,0.12252,0.015543,0.032046,1.0593e-06,0.95,0.9,0
0.047378,-0.012009,0.035968,-9.9481e-05,0.01076,6.209e-05,0,0,0.065539,-0.028236,0,0.00032287,0,0,0,0.035968,-9.9588e-05,0.01076,0.098634,0.015543,0.032049,1.0594e-06,0.96,0.9,0
0.048034,-0.012015,0.035969,-0.00010051,0.01076,4.6796e-05,0,0,0.065542,-0.028239,0,0.00024334,0,0,0,0.035969,-0.00010057,0.01076,0.074335,0.015543,0.03205,1.0596e-06,0.97,0.9,0
0.048689,-0.012018,0.03597,-0.00010124,0.01076,3.1306e-05,0,0,0.065544,-0.028241,0,0.00016279,0,0,0,0.03597,-0.00010127,0.01076,0.049727,0.015543,0.032051,1.0597e-06,0.98,0.9,0
0.049344,-0.012021,0.03597,-0.00010167,0.01076,1.5686e-05,0,0,0.065545,-0.028242,0,8.1565e-05,0,0,0,0.03597,-0.00010168,0.01076,0.024915,0.015543,0.032052,1.0597e-06,0.99,0.9,0
0.05,-0.012021,0.03597,-0.00010182,0.01076,-1.4694e-05,0,0,0.065545,-0.028242,0,-7.6407e-05,0,0,0,0.03597,-0.00010182,0.01076,-0.023339,0.015543,0.032052,1.0597e-06,1,0.9,0
0,0,0.040163,0.017213,0.017213,-0.0092108,0,0,0.029836,3.2526e-19,0,-0.023948,0,0,0,0.043403,0.013973,0.017213,-19.376,0.024863,0.027951,1.0709e-06,0,0.91,0
0.00029836,-0.00023948,0.040041,0.015609,0.016695,-0.0091857,0,0,0.03035,-0.0014116,0,-0.023883,0,0,0,0.043109,0.012541,0.016695,-18.471,0.024115,0.028717,1.131e-06,0.01,0.91,0
0.000607,-0.00048928,0.040549,0.014107,0.016397,-0.0092475,0,0,0.031398,-0.0029766,0,-0.024043,0,0,0,0.043462,0.011194,0.016397,-17.485,0.023685,0.030007,1.2482e-06,0.02,0.91,0
0.00092632,-0.0007459,0.041027,0.012528,0.016067,-0.0091226,0,0,0.032449,-0.0046003,0,-0.023719,0,0,0,0.043697,0.009858,0.016067,-16.314,0.023207,0.031202,1.3543e-06,0.03,0.91,0
0.001256,-0.0010055,0.041439,0.010963,0.015721,-0.0088168,0,0,0.033433,-0.0061842,0,-0.022924,0,0,0,0.043806,0.0085965,0.015721,-15.027,0.022708,0.032243,1.4423e-06,0.04,0.91,0
0.001595,-0.0012643,0.041754,0.0094894,0.015373,-0.0083601,0,0,0.034296,-0.0076489,0,-0.021736,0,0,0,0.043792,0.0074519,0.015373,-13.697,0.022206,0.033098,1.5088e-06,0.05,0.91,0
0.0019419,-0.0015193,0.041961,0.008154,0.015034,-0.0077952,0,0,0.035004,-0.0089447,0,-0.020267,0,0,0,0.043672,0.0064432,0.015034,-12.379,0.021716,0.033763,1.5536e-06,0.06,0.91,0
0.0022951,-0.001768,0.042058,0.0069791,0.014711,-0.0071668,0,0,0.035551,-0.010052,0,-0.018634,0,0,0,0.043466,0.0055714,0.014711,-11.113,0.021249,0.034251,1.579e-06,0.07,0.91,0
0.0026529,-0.0020088,0.042056,0.0059664,0.014407,-0.0065138,0,0,0.035944,-0.010972,0,-0.016936,0,0,0,0.043196,0.0048267,0.014407,-9.9243,0.02081,0.034589,1.5885e-06,0.08,0.91,0
0.003014,-0.0022406,0.041972,0.0051047,0.014123,-0.0058655,0,0,0.036204,-0.011724,0,-0.01525,0,0,0,0.042883,0.004194,0.014123,-8.8254,0.0204,0.034803,1.5858e-06,0.09,0.91,0
0.003377,-0.0024629,0.041826,0.0043773,0.013861,-0.005242,0,0,0.036354,-0.012329,0,-0.013629,0,0,0,0.042546,0.0036573,0.013861,-7.8201,0.020021,0.034923,1.5744e-06,0.1,0.91,0
0.003741,-0.0026756,0.041635,0.0037654,0.01362,-0.0046553,0,0,0.036419,-0.012811,0,-0.012104,0,0,0,0.042198,0.0032015,0.01362,-6.9065,0.019673,0.034972,1.5573e-06,0.11,0.91,0
0.0041054,-0.0028789,0.041414,0.003251,0.0134,-0.0041116,0,0,0.036419,-0.013193,0,-0.01069,0,0,0,0.041852,0.0028131,0.0134,-6.0799,0.019355,0.034969,1.5367e-06,0.12,0.91,0
0.0044694,-0.003073,0.041178,0.0028181,0.013199,-0.0036128,0,0,0.036373,-0.013495,0,-0.0093934,0,0,0,0.041515,0.0024808,0.013199,-5.3338,0.019065,0.034931,1.5143e-06,0.13,0.91,0
0.0048328,-0.0032584,0.040935,0.0024527,0.013016,-0.0031587,0,0,0.036294,-0.013733,0,-0.0082125,0,0,0,0.041192,0.0021951,0.013016,-4.6613,0.018801,0.034869,1.4914e-06,0.14,0.91,0
0.0051953,-0.0034355,0.040692,0.002143,0.012851,-0.0027471,0,0,0.036194,-0.01392,0,-0.0071423,0,0,0,0.040887,0.0019483,0.012851,-4.0557,0.018562,0.034793,1.4687e-06,0.15,0.91,0
0.0055567,-0.003605,0.040455,0.0018795,0.0127,-0.0023753,0,0,0.036081,-0.014067,0,-0.0061757,0,0,0,0.0406,0.0017338,0.0127,-3.5103,0.018345,0.034708,1.4469e-06,0.16,0.91,0
0.0059169,-0.0037673,0.040226,0.001654,0.012564,-0.0020402,0,0,0.035961,-0.014183,0,-0.0053044,0,0,0,0.040334,0.0015464,0.012564,-3.0192,0.018148,0.03462,1.4261e-06,0.17,0.91,0
0.0062759,-0.003923,0.04001,0.00146,0.012441,-0.0017387,0,0,0.035839,-0.014275,0,-0.0045205,0,0,0,0.040088,0.0013817,0.012441,-2.5772,0.01797,0.034531,1.4066e-06,0.18,0.91,0
0.0066337,-0.0040726,0.039805,0.0012921,0.012329,-0.0014677,0,0,0.035719,-0.014348,0,-0.0038161,0,0,0,0.039861,0.0012362,0.012329,-2.1793,0.017809,0.034445,1.3885e-06,0.19,0.91,0
0.0069903,-0.0042166,0.039613,0.0011458,0.012228,-0.0012246,0,0,0.035601,-0.014406,0,-0.0031839,0,0,0,0.039652,0.0011068,0.012228,-1.8215,0.017662,0.034362,1.3718e-06,0.2,0.91,0
0.0073457,-0.0043555,0.039434,0.0010174,0.012135,-0.0010068,0,0,0.035488,-0.014453,0,-0.0026176,0,0,0,0.03946,0.00099106,0.012135,-1.5002,0.017529,0.034284,1.3563e-06,0.21,0.91,0
0.0077,-0.0044897,0.039267,0.00090401,0.012051,-0.00081207,0,0,0.03538,-0.014491,0,-0.0021114,0,0,0,0.039284,0.00088683,0.012051,-1.2121,0.017407,0.03421,1.3422e-06,0.22,0.91,0
0.0080533,-0.0046199,0.039112,0.00080299,0.011974,-0.00063853,0,0,0.035279,-0.014523,0,-0.0016602,0,0,0,0.039122,0.00079235,0.011974,-0.95465,0.017296,0.034141,1.3292e-06,0.23,0.91,0
0.0084056,-0.0047464,0.038967,0.00071221,0.011904,-0.00048451,0,0,0.035182,-0.014549,0,-0.0012597,0,0,0,0.038973,0.00070607,0.011904,-0.72551,0.017195,0.034077,1.3173e-06,0.24,0.91,0
0.008757,-0.0048696,0.038832,0.00062981,0.011839,-0.00034862,0,0,0.035092,-0.014571,0,-0.00090641,0,0,0,0.038836,0.00062663,0.011839,-0.5228,0.0171,0.034018,1.3063e-06,0.25,0.91,0
0.0091075,-0.0049901,0.038706,0.00055419,0.011778,-0.00022972,0,0,0.035006,-0.014591,0,-0.00059728,0,0,0,0.038707,0.00055281,0.011778,-0.34498,0.017013,0.033963,1.2961e-06,0.26,0.91,0
0.0094571,-0.0051081,0.038587,0.00048392,0.011721,-0.00012692,0,0,0.034925,-0.014608,0,-0.00032998,0,0,0,0.038587,0.0004835,0.011721,-0.19084,0.016931,0.033911,1.2866e-06,0.27,0.91,0
0.009806,-0.0052243,0.038474,0.00041768,0.011667,-3.9539e-05,0,0,0.034848,-0.014625,0,-0.0001028,0,0,0,0.038474,0.00041764,0.011667,-0.059529,0.016853,0.033863,1.2776e-06,0.28,0.91,0
0.010154,-0.005339,0.038365,0.00035421,0.011616,3.2846e-05,0,0,0.034774,-0.01464,0,8.5399e-05,0,0,0,0.038365,0.00035418,0.011616,0.049511,0.016778,0.033817,1.2691e-06,0.29,0.91,0
0.010501,-0.0054526,0.038259,0.00029227,0.011565,9.0441e-05,0,0,0.034702,-0.014655,0,0.00023514,0,0,0,0.038259,0.00029206,0.011565,0.13648,0.016706,0.033772,1.2608e-06,0.3,0.91,0
0.010848,-0.0055656,0.038155,0.00023059,0.011516,0.00013321,0,0,0.034631,-0.014671,0,0.00034634,0,0,0,0.038156,0.00023012,0.011516,0.20124,0.016634,0.03373,1.2528e-06,0.31,0.91,0
0.011194,-0.0056784,0.038051,0.00016778,0.011466,0.00016086,0,0,0.034561,-0.014687,0,0.00041822,0,0,0,0.038052,0.0001671,0.011466,0.24327,0.016562,0.033688,1.2449e-06,0.32,0.91,0
0.011539,-0.0057915,0.037946,0.00010229,0.011415,0.00017283,0,0,0.034491,-0.014706,0,0.00044935,0,0,0,0.037947,0.00010151,0.011415,0.26165,0.016488,0.033647,1.2369e-06,0.33,0.91,0
0.011884,-0.0059054,0.037839,3.2327e-05,0.011361,0.00016827,0,0,0.034421,-0.014728,0,0.0004375,0,0,0,0.03784,3.1578e-05,0.011361,0.25501,0.016411,0.033607,1.2289e-06,0.34,0.91,0
0.012228,-0.0060204,0.037728,-4.4299e-05,0.011305,0.00014603,0,0,0.034349,-0.014754,0,0.00037968,0,0,0,0.037728,-4.4864e-05,0.011305,0.22151,0.01633,0.03357,1.2207e-06,0.35,0.91,0
0.012571,-0.0061372,0.037611,-0.00013026,0.011244,0.00010462,0,0,0.034277,-0.014787,0,0.000272,0,0,0,0.037612,-0.00013055,0.011244,0.15882,0.016242,0.033534,1.2123e-06,0.36,0.91,0
0.012913,-0.0062562,0.03749,-0.00022892,0.011178,4.2209e-05,0,0,0.034205,-0.014829,0,0.00010974,0,0,0,0.03749,-0.00022897,0.011178,0.064117,0.016146,0.033504,1.2039e-06,0.37,0.91,0
0.013255,-0.006378,0.037361,-0.00034455,0.011105,-4.3315e-05,0,0,0.034133,-0.014885,0,-0.00011262,0,0,0,0.037361,-0.0003446,0.011105,-0.065818,0.016041,0.033483,1.1955e-06,0.38,0.91,0
0.013596,-0.0065032,0.037227,-0.00048261,0.011024,-0.00015429,0,0,0.034065,-0.014958,0,-0.00040116,0,0,0,0.037228,-0.00048324,0.011024,-0.23442,0.015923,0.033476,1.1874e-06,0.39,0.91,0
0.013936,-0.0066323,0.037089,-0.00065007,0.010932,-0.00029308,0,0,0.034005,-0.015056,0,-0.000762,0,0,0,0.037091,-0.00065234,0.010932,-0.44491,0.01579,0.033489,1.1799e-06,0.4,0.91,0
0.014276,-0.006766,0.036949,-0.00085579,0.010828,-0.00046167,0,0,0.033957,-0.015189,0,-0.0012003,0,0,0,0.036954,-0.00086142,0.010828,-0.69956,0.01564,0.033536,1.1736e-06,0.41,0.91,0
0.014615,-0.0069048,0.036811,-0.0011108,0.01071,-0.00066108,0,0,0.033931,-0.015367,0,-0.0017188,0,0,0,0.036822,-0.0011224,0.01071,-0.99842,0.01547,0.033628,1.1693e-06,0.42,0.91,0
0.014955,-0.0070492,0.036682,-0.0014286,0.010576,-0.00089037,0,0,0.033938,-0.015606,0,-0.002315,0,0,0,0.036703,-0.0014494,0.010576,-1.3376,0.015276,0.033785,1.168e-06,0.43,0.91,0
0.015294,-0.0071997,0.03657,-0.0018245,0.010424,-0.0011453,0,0,0.03399,-0.015922,0,-0.0029777,0,0,0,0.036604,-0.0018586,0.010424,-1.707,0.015056,0.034027,1.1707e-06,0.44,0.91,0
0.015634,-0.0073566,0.036483,-0.0023143,0.010251,-0.0014166,0,0,0.034102,-0.016334,0,-0.0036831,0,0,0,0.036535,-0.0023659,0.010251,-2.0883,0.014807,0.034375,1.1787e-06,0.45,0.91,0
0.015976,-0.0075197,0.036431,-0.0029119,0.010056,-0.001689,0,0,0.034288,-0.016858,0,-0.0043915,0,0,0,0.036504,-0.0029843,0.010056,-2.4537,0.014525,0.034848,1.1925e-06,0.46,0.91,0
0.01632,-0.0076886,0.036418,-0.0036244,0.0098381,-0.0019409,0,0,0.034554,-0.017501,0,-0.0050463,0,0,0,0.036512,-0.0037182,0.0098381,-2.7685,0.014211,0.035452,1.2122e-06,0.47,0.91,0
0.016667,-0.0078624,0.036444,-0.0044468,0.0095991,-0.0021461,0,0,0.034898,-0.01826,0,-0.0055798,0,0,0,0.036556,-0.0045591,0.0095991,-2.9961,0.013865,0.036177,1.2367e-06,0.48,0.91,0
0.017018,-0.0080397,0.0365,-0.0053581,0.0093426,-0.0022786,0,0,0.035305,-0.019111,0,-0.0059244,0,0,0,0.036624,-0.0054817,0.0093426,-3.1067,0.013495,0.036993,1.2636e-06,0.49,0.91,0
0.017373,-0.0082185,0.036526,-0.00084198,0.010705,-0.0023217,0,0,0.049373,-0.020015,0,-0.009044,0,0,0,0.036672,-0.00098849,0.010705,-3.6123,0.015463,0.033456,1.1186e-06,0.5,0.91,0
0.018006,-0.0084571,0.036654,0.0040839,0.012221,-0.0022841,0,0,0.063524,-0.021157,0,-0.011877,0,0,0,0.036813,0.0039245,0.012221,-3.992,0.017653,0.029625,9.9064e-07,0.51,0.91,0
0.018644,-0.0086918,0.036722,0.0035073,0.012069,-0.0021871,0,0,0.064099,-0.02226,0,-0.011373,0,0,0,0.036866,0.0033639,0.012069,-3.7512,0.017433,0.030108,1.0168e-06,0.52,0.91,0
0.019288,-0.0089205,0.036771,0.0029707,0.011923,-0.0020436,0,0,0.064606,-0.023275,0,-0.010627,0,0,0,0.036894,0.0028476,0.011923,-3.4473,0.017222,0.030538,1.0389e-06,0.53,0.91,0
0.019936,-0.0091412,0.036795,0.0024899,0.011786,-0.0018661,0,0,0.065025,-0.024169,0,-0.0097038,0,0,0,0.036896,0.0023887,0.011786,-3.1045,0.017024,0.0309,1.0563e-06,0.54,0.91,0
0.020588,-0.0093525,0.036793,0.0020724,0.011659,-0.001669,0,0,0.065346,-0.024927,0,-0.008679,0,0,0,0.036873,0.0019923,0.011659,-2.7458,0.016841,0.031191,1.0687e-06,0.55,0.91,0
0.021243,-0.0095534,0.036765,0.0017182,0.011545,-0.0014654,0,0,0.065573,-0.02555,0,-0.0076202,0,0,0,0.036827,0.0016571,0.011545,-2.3901,0.016676,0.031415,1.0767e-06,0.56,0.91,0
0.0219,-0.0097435,0.036718,0.0014227,0.011442,-0.0012655,0,0,0.065717,-0.026051,0,-0.0065808,0,0,0,0.036763,0.0013774,0.011442,-2.0509,0.016528,0.03158,1.081e-06,0.57,0.91,0
0.022557,-0.0099228,0.036656,0.0011785,0.01135,-0.0010764,0,0,0.065795,-0.026447,0,-0.0055975,0,0,0,0.036688,0.0011458,0.01135,-1.7363,0.016395,0.031697,1.0824e-06,0.58,0.91,0
0.023216,-0.010091,0.036584,0.00097768,0.011269,-0.00090222,0,0,0.065821,-0.026756,0,-0.0046916,0,0,0,0.036607,0.00095483,0.011269,-1.4506,0.016277,0.031776,1.0817e-06,0.59,0.91,0
0.023874,-0.01025,0.036508,0.00081278,0.011196,-0.00074472,0,0,0.06581,-0.026997,0,-0.0038726,0,0,0,0.036523,0.00079725,0.011196,-1.1947,0.016172,0.031827,1.0796e-06,0.6,0.91,0
0.024532,-0.010398,0.03643,0.00067715,0.011132,-0.00060424,0,0,0.065775,-0.027183,0,-0.0031421,0,0,0,0.036441,0.00066694,0.011132,-0.96795,0.01608,0.031857,1.0766e-06,0.61,0.91,0
0.025189,-0.010537,0.036355,0.00056521,0.011076,-0.00048017,0,0,0.065725,-0.027328,0,-0.0024969,0,0,0,0.036361,0.00055877,0.011076,-0.76852,0.015999,0.031873,1.0731e-06,0.62,0.91,0
0.025846,-0.010667,0.036283,0.00047242,0.011027,-0.00037135,0,0,0.065666,-0.027441,0,-0.001931,0,0,0,0.036287,0.00046857,0.011027,-0.59407,0.015927,0.031879,1.0694e-06,0.63,0.91,0
0.026502,-0.01079,0.036216,0.00039508,0.010983,-0.00027643,0,0,0.065605,-0.027529,0,-0.0014375,0,0,0,0.036218,0.00039295,0.010983,-0.44212,0.015865,0.031878,1.0658e-06,0.64,0.91,0
0.027158,-0.010904,0.036154,0.00033025,0.010945,-0.000194,0,0,0.065544,-0.027599,0,-0.0010088,0,0,0,0.036156,0.0003292,0.010945,-0.31026,0.01581,0.031873,1.0624e-06,0.65,0.91,0
0.027813,-0.011011,0.036099,0.00027559,0.010912,-0.00012269,0,0,0.065485,-0.027656,0,-0.00063797,0,0,0,0.036099,0.00027517,0.010912,-0.19622,0.015762,0.031866,1.0591e-06,0.66,0.91,0
0.028468,-0.011111,0.036049,0.00022923,0.010884,-6.1233e-05,0,0,0.065431,-0.027701,0,-0.00031841,0,0,0,0.036049,0.00022912,0.010884,-0.097945,0.015721,0.031858,1.0562e-06,0.67,0.91,0
0.029122,-0.011205,0.036005,0.00018967,0.010859,-8.4946e-06,0,0,0.065382,-0.027739,0,-4.4172e-05,0,0,0,0.036005,0.00018967,0.010859,-0.013589,0.015685,0.031851,1.0536e-06,0.68,0.91,0
0.029776,-0.011293,0.035967,0.00015574,0.010837,3.6546e-05,0,0,0.065338,-0.027771,0,0.00019004,0,0,0,0.035967,0.0001557,0.010837,0.058472,0.015653,0.031844,1.0513e-06,0.69,0.91,0
0.030429,-0.011375,0.035934,0.00012646,0.010818,7.4787e-05,0,0,0.0653,-0.027798,0,0.00038889,0,0,0,0.035934,0.00012631,0.010818,0.11967,0.015626,0.031838,1.0493e-06,0.7,0.91,0
0.031082,-0.011452,0.035905,0.00010108,0.010802,0.00010702,0,0,0.065268,-0.027822,0,0.00055648,0,0,0,0.035905,0.00010076,0.010802,0.17125,0.015603,0.031833,1.0476e-06,0.71,0.91,0
0.031734,-0.011524,0.035881,7.8958e-05,0.010788,0.00013392,0,0,0.065241,-0.027843,0,0.00069637,0,0,0,0.035881,7.8457e-05,0.010788,0.21431,0.015583,0.031829,1.0462e-06,0.72,0.91,0
0.032386,-0.011591,0.03586,5.96e-05,0.010776,0.0001561,0,0,0.06522,-0.027863,0,0.0008117,0,0,0,0.035861,5.8919e-05,0.010776,0.24981,0.015565,0.031827,1.0451e-06,0.73,0.91,0
0.033038,-0.011654,0.035844,4.2586e-05,0.010766,0.00017407,0,0,0.065203,-0.027881,0,0.00090519,0,0,0,0.035845,4.174e-05,0.010766,0.27858,0.015551,0.031826,1.0442e-06,0.74,0.91,0
0.03369,-0.011713,0.03583,2.7575e-05,0.010757,0.00018831,0,0,0.06519,-0.027897,0,0.00097923,0,0,0,0.035831,2.6584e-05,0.010757,0.30135,0.015539,0.031826,1.0435e-06,0.75,0.91,0
0.034342,-0.011768,0.03582,1.4284e-05,0.01075,0.00019922,0,0,0.065181,-0.027914,0,0.0010359,0,0,0,0.035821,1.3175e-05,0.01075,0.31877,0.015528,0.031828,1.043e-06,0.76,0.91,0
0.034994,-0.011819,0.035812,2.4792e-06,0.010744,0.00020714,0,0,0.065176,-0.027929,0,0.0010771,0,0,0,0.035813,1.2811e-06,0.010744,0.33141,0.01552,0.03183,1.0427e-06,0.77,0.91,0
0.035646,-0.011866,0.035806,-8.0345e-06,0.010739,0.00021238,0,0,0.065173,-0.027943,0,0.0011044,0,0,0,0.035807,-9.2939e-06,0.010739,0.33975,0.015513,0.031834,1.0425e-06,0.78,0.91,0
0.036298,-0.011911,0.035802,-1.7421e-05,0.010735,0.00021523,0,0,0.065173,-0.027957,0,0.0011192,0,0,0,0.035803,-1.8714e-05,0.010735,0.34426,0.015507,0.031838,1.0425e-06,0.79,0.91,0
0.036949,-0.011952,0.0358,-2.5819e-05,0.010732,0.00021592,0,0,0.065176,-0.027971,0,0.0011228,0,0,0,0.035801,-2.712e-05,0.010732,0.34531,0.015502,0.031843,1.0426e-06,0.8,0.91,0
0.037601,-0.01199,0.035799,-3.3343e-05,0.01073,0.00021468,0,0,0.065181,-0.027984,0,0.0011163,0,0,0,0.0358,-3.4629e-05,0.01073,0.34325,0.015499,0.031848,1.0427e-06,0.81,0.91,0
0.038253,-0.012026,0.0358,-4.0094e-05,0.010728,0.00021169,0,0,0.065187,-0.027997,0,0.0011008,0,0,0,0.035801,-4.1345e-05,0.010728,0.33841,0.015496,0.031853,1.043e-06,0.82,0.91,0
0.038905,-0.012059,0.035801,-4.6156e-05,0.010726,0.00020714,0,0,0.065194,-0.028009,0,0.0010771,0,0,0,0.035802,-4.7353e-05,0.010726,0.33106,0.015494,0.03186,1.0433e-06,0.83,0.91,0
0.039557,-0.012089,0.035803,-5.16e-05,0.010726,0.00020117,0,0,0.065202,-0.028021,0,0.0010461,0,0,0,0.035804,-5.2729e-05,0.010726,0.32146,0.015492,0.031866,1.0436e-06,0.84,0.91,0
0.040209,-0.012117,0.035806,-5.6488e-05,0.010725,0.00019393,0,0,0.065211,-0.028032,0,0.0010084,0,0,0,0.035807,-5.7537e-05,0.010725,0.30982,0.015492,0.031872,1.044e-06,0.85,0.91,0
0.040861,-0.012143,0.03581,-6.0873e-05,0.010725,0.00018555,0,0,0.065221,-0.028042,0,0.00096483,0,0,0,0.035811,-6.1833e-05,0.010725,0.29636,0.015491,0.031878,1.0444e-06,0.86,0.91,0
0.041513,-0.012166,0.035813,-6.4802e-05,0.010724,0.00017613,0,0,0.065231,-0.028052,0,0.00091588,0,0,0,0.035814,-6.5666e-05,0.010724,0.28127,0.015491,0.031885,1.0449e-06,0.87,0.91,0
0.042166,-0.012187,0.035817,-6.8312e-05,0.010725,0.0001658,0,0,0.065241,-0.028062,0,0.00086215,0,0,0,0.035818,-6.9078e-05,0.010725,0.26471,0.015491,0.031891,1.0453e-06,0.88,0.91,0
0.042818,-0.012207,0.035821,-7.1438e-05,0.010725,0.00015464,0,0,0.06525,-0.028071,0,0.00080413,0,0,0,0.035822,-7.2104e-05,0.010725,0.24685,0.015492,0.031897,1.0457e-06,0.89,0.91,0
0.043471,-0.012224,0.035825,-7.4209e-05,0.010725,0.00014275,0,0,0.06526,-0.028079,0,0.00074231,0,0,0,0.035826,-7.4776e-05,0.010725,0.22783,0.015492,0.031902,1.0462e-06,0.9,0.91,0
0.044123,-0.012239,0.035829,-7.6649e-05,0.010726,0.00013022,0,0,0.065269,-0.028086,0,0.00067713,0,0,0,0.03583,-7.7122e-05,0.010726,0.20779,0.015493,0.031908,1.0466e-06,0.91,0.91,0
0.044776,-0.012253,0.035833,-7.8782e-05,0.010726,0.00011711,0,0,0.065277,-0.028093,0,0.00060899,0,0,0,0.035833,-7.9164e-05,0.010726,0.18685,0.015493,0.031912,1.0469e-06,0.92,0.91,0
0.045429,-0.012265,0.035836,-8.0624e-05,0.010727,0.00010351,0,0,0.065285,-0.028099,0,0.00053827,0,0,0,0.035836,-8.0923e-05,0.010727,0.16513,0.015494,0.031917,1.0473e-06,0.93,0.91,0
0.046082,-0.012275,0.035839,-8.2192e-05,0.010727,8.9491e-05,0,0,0.065291,-0.028104,0,0.00046535,0,0,0,0.035839,-8.2415e-05,0.010727,0.14274,0.015495,0.031921,1.0476e-06,0.94,0.91,0
0.046735,-0.012284,0.035842,-8.3498e-05,0.010727,7.511e-05,0,0,0.065297,-0.028109,0,0.00039057,0,0,0,0.035842,-8.3655e-05,0.010727,0.11979,0.015495,0.031924,1.0479e-06,0.95,0.91,0
0.047388,-0.012291,0.035844,-8.4552e-05,0.010728,6.0435e-05,0,0,0.065302,-0.028112,0,0.00031426,0,0,0,0.035844,-8.4654e-05,0.010728,0.096376,0.015496,0.031927,1.0481e-06,0.96,0.91,0
0.048041,-0.012296,0.035846,-8.5364e-05,0.010728,4.5527e-05,0,0,0.065306,-0.028115,0,0.00023674,0,0,0,0.035846,-8.5422e-05,0.010728,0.072597,0.015496,0.031929,1.0483e-06,0.97,0.91,0
0.048694,-0.0123,0.035847,-8.5939e-05,0.010728,3.0447e-05,0,0,0.065309,-0.028117,0,0.00015832,0,0,0,0.035847,-8.5965e-05,0.010728,0.048548,0.015497,0.03193,1.0484e-06,0.98,0.91,0
0.049347,-0.012303,0.035848,-8.6283e-05,0.010729,1.5252e-05,0,0,0.065311,-0.028119,0,7.931e-05,0,0,0,0.035848,-8.6289e-05,0.010729,0.024319,0.015497,0.031931,1.0485e-06,0.99,0.91,0
0.05,-0.012303,0.035848,-8.6397e-05,0.010729,-1.477e-05,0,0,0.065311,-0.028119,0,-7.6806e-05,0,0,0,0.035848,-8.6403e-05,0.010729,-0.02355,0.015497,0.031932,1.0485e-06,1,0.91,0
0,0,0.041014,0.017577,0.017577,-0.0097832,0,0,0.030467,8.6736e-19,0,-0.025436,0,0,0,0.044561,0.01403,0.017577,-19.929,0.025389,0.028921,1.1796e-06,0,0.92,0
0.00030467,-0.00025436,0.040877,0.015774,0.016995,-0.0097451,0,0,0.031046,-0.0015875,0,-0.025337,0,0,0,0.044215,0.012435,0.016995,-18.913,0.024549,0.029764,1.2477e-06,0.01,0.92,0
0.00062091,-0.00052077,0.041431,0.01405,0.016644,-0.0097927,0,0,0.032223,-0.0033728,0,-0.025461,0,0,0,0.044573,0.010908,0.016644,-17.788,0.024042,0.031195,1.3831e-06,0.02,0.92,0
0.00094914,-0.00079458,0.041938,0.012244,0.016255,-0.0095989,0,0,0.033389,-0.0052139,0,-0.024957,0,0,0,0.044771,0.0094113,0.016255,-16.442,0.023479,0.032483,1.5003e-06,0.03,0.92,0
0.0012887,-0.0010708,0.042348,0.010489,0.015851,-0.0091814,0,0,0.034446,-0.0069712,0,-0.023872,0,0,0,0.044805,0.0080321,0.015851,-14.979,0.022896,0.033553,1.5907e-06,0.04,0.92,0
0.0016381,-0.0013449,0.042628,0.0088804,0.015452,-0.0085916,0,0,0.035328,-0.0085437,0,-0.022338,0,0,0,0.044689,0.0068191,0.015452,-13.492,0.02232,0.034376,1.6512e-06,0.05,0.92,0
0.0019953,-0.0016131,0.042766,0.0074702,0.015071,-0.0078939,0,0,0.036004,-0.0098809,0,-0.020524,0,0,0,0.044451,0.0057851,0.015071,-12.05,0.021769,0.03496,1.6838e-06,0.06,0.92,0
0.0023581,-0.0018729,0.042772,0.0062698,0.014712,-0.0071485,0,0,0.036477,-0.010975,0,-0.018586,0,0,0,0.044122,0.0049198,0.014712,-10.694,0.021251,0.035339,1.6934e-06,0.07,0.92,0
0.0027248,-0.0021227,0.042667,0.005267,0.01438,-0.0064016,0,0,0.036773,-0.011847,0,-0.016644,0,0,0,0.043733,0.0042016,0.01438,-9.4488,0.020771,0.035552,1.686e-06,0.08,0.92,0
0.0030936,-0.0023618,0.042479,0.0044377,0.014075,-0.0056841,0,0,0.036925,-0.012528,0,-0.014779,0,0,0,0.04331,0.0036066,0.014075,-8.3191,0.020331,0.035642,1.6669e-06,0.09,0.92,0
0.0034633,-0.0025898,0.042233,0.003755,0.013796,-0.0050137,0,0,0.036968,-0.013054,0,-0.013036,0,0,0,0.042876,0.0031125,0.013796,-7.3031,0.019928,0.035643,1.6406e-06,0.1,0.92,0
0.003833,-0.002807,0.041953,0.0031933,0.013544,-0.0043985,0,0,0.036932,-0.013456,0,-0.011436,0,0,0,0.042446,0.0027004,0.013544,-6.3937,0.019563,0.035585,1.6105e-06,0.11,0.92,0
0.0042019,-0.0030137,0.041655,0.0027301,0.013316,-0.0038407,0,0,0.036842,-0.013761,0,-0.0099857,0,0,0,0.042031,0.0023548,0.013316,-5.5815,0.019234,0.035488,1.5789e-06,0.12,0.92,0
0.0045698,-0.0032105,0.041353,0.0023468,0.01311,-0.0033385,0,0,0.036716,-0.013992,0,-0.0086801,0,0,0,0.041637,0.0020632,0.01311,-4.8568,0.018937,0.035369,1.5475e-06,0.13,0.92,0
0.0049363,-0.0033979,0.041056,0.002028,0.012925,-0.0028884,0,0,0.03657,-0.014167,0,-0.0075099,0,0,0,0.041269,0.0018154,0.012925,-4.2098,0.01867,0.035238,1.5171e-06,0.14,0.92,0
0.0053012,-0.0035767,0.04077,0.0017613,0.01276,-0.0024861,0,0,0.036414,-0.014298,0,-0.0064638,0,0,0,0.040928,0.0016035,0.01276,-3.6319,0.01843,0.035102,1.4885e-06,0.15,0.92,0
0.0056645,-0.0037474,0.040499,0.0015369,0.012611,-0.0021269,0,0,0.036255,-0.014396,0,-0.0055298,0,0,0,0.040615,0.0014211,0.012611,-3.1153,0.018216,0.034969,1.4619e-06,0.16,0.92,0
0.0060263,-0.0039107,0.040245,0.0013468,0.012478,-0.0018062,0,0,0.036098,-0.01447,0,-0.0046962,0,0,0,0.040329,0.0012631,0.012478,-2.6529,0.018023,0.03484,1.4375e-06,0.17,0.92,0
0.0063865,-0.0040671,0.040009,0.0011846,0.012358,-0.0015201,0,0,0.035946,-0.014526,0,-0.0039524,0,0,0,0.040069,0.0011252,0.012358,-2.2388,0.017851,0.034718,1.4152e-06,0.18,0.92,0
0.0067452,-0.0042172,0.039792,0.0010455,0.012251,-0.0012648,0,0,0.035803,-0.014567,0,-0.0032886,0,0,0,0.039833,0.0010042,0.012251,-1.8677,0.017696,0.034604,1.395e-06,0.19,0.92,0
0.0071026,-0.0043617,0.039592,0.00092508,0.012155,-0.001037,0,0,0.035668,-0.014599,0,-0.0026963,0,0,0,0.03962,0.00089728,0.012155,-1.5352,0.017557,0.0345,1.3768e-06,0.2,0.92,0
0.0074586,-0.0045009,0.039409,0.00082021,0.012069,-0.00083386,0,0,0.035542,-0.014623,0,-0.002168,0,0,0,0.039427,0.0008022,0.012069,-1.2373,0.017433,0.034404,1.3604e-06,0.21,0.92,0
0.0078134,-0.0046355,0.039242,0.00072814,0.011991,-0.00065287,0,0,0.035427,-0.014642,0,-0.0016975,0,0,0,0.039253,0.00071707,0.011991,-0.97087,0.01732,0.034318,1.3456e-06,0.22,0.92,0
0.0081671,-0.0047659,0.03909,0.00064662,0.011921,-0.00049194,0,0,0.03532,-0.014657,0,-0.001279,0,0,0,0.039096,0.00064032,0.011921,-0.73303,0.017219,0.034239,1.3324e-06,0.23,0.92,0
0.0085198,-0.0048925,0.038951,0.00057379,0.011857,-0.00034931,0,0,0.035222,-0.014669,0,-0.0009082,0,0,0,0.038954,0.00057061,0.011857,-0.52145,0.017128,0.034168,1.3205e-06,0.24,0.92,0
0.0088716,-0.0050159,0.038824,0.00050808,0.0118,-0.00022349,0,0,0.035132,-0.014679,0,-0.00058107,0,0,0,0.038825,0.00050677,0.0118,-0.33418,0.017044,0.034104,1.3098e-06,0.25,0.92,0
0.0092224,-0.0051365,0.038707,0.00044812,0.011747,-0.00011328,0,0,0.035049,-0.014688,0,-0.00029452,0,0,0,0.038707,0.00044778,0.011747,-0.16964,0.016967,0.034047,1.3e-06,0.26,0.92,0
0.0095725,-0.0052547,0.038599,0.00039271,0.011697,-1.7729e-05,0,0,0.034972,-0.014696,0,-4.6095e-05,0,0,0,0.038599,0.0003927,0.011697,-0.026587,0.016896,0.033994,1.2911e-06,0.27,0.92,0
0.0099219,-0.005371,0.038498,0.00034077,0.011652,6.3864e-05,0,0,0.0349,-0.014704,0,0.00016605,0,0,0,0.038498,0.00034066,0.011652,0.095896,0.01683,0.033946,1.2829e-06,0.28,0.92,0
0.010271,-0.0054858,0.038402,0.00029126,0.011608,0.00013197,0,0,0.034833,-0.014712,0,0.00034312,0,0,0,0.038403,0.0002908,0.011608,0.1984,0.016767,0.033901,1.2752e-06,0.29,0.92,0
0.010618,-0.0055995,0.038311,0.00024318,0.011566,0.00018683,0,0,0.034768,-0.01472,0,0.00048575,0,0,0,0.038311,0.00024227,0.011566,0.28119,0.016707,0.033859,1.2678e-06,0.3,0.92,0
0.010966,-0.0057126,0.038221,0.0001955,0.011525,0.00022842,0,0,0.034705,-0.014728,0,0.0005939,0,0,0,0.038222,0.00019413,0.011525,0.34416,0.016647,0.033818,1.2607e-06,0.31,0.92,0
0.011313,-0.0058256,0.038132,0.00014708,0.011484,0.00025649,0,0,0.034643,-0.014738,0,0.00066687,0,0,0,0.038134,0.00014535,0.011484,0.38686,0.016588,0.033778,1.2537e-06,0.32,0.92,0
0.011659,-0.0059388,0.038041,9.6669e-05,0.011442,0.00027047,0,0,0.03458,-0.014748,0,0.00070323,0,0,0,0.038043,9.4742e-05,0.011442,0.40838,0.016526,0.033738,1.2466e-06,0.33,0.92,0
0.012004,-0.0060528,0.037948,4.2757e-05,0.011397,0.00026951,0,0,0.034516,-0.014761,0,0.00070072,0,0,0,0.03795,4.0841e-05,0.011397,0.40735,0.016463,0.033698,1.2393e-06,0.34,0.92,0
0.012349,-0.006168,0.03785,-1.6484e-05,0.01135,0.00025237,0,0,0.03445,-0.014776,0,0.00065616,0,0,0,0.037851,-1.8166e-05,0.01135,0.38184,0.016394,0.033657,1.2317e-06,0.35,0.92,0
0.012693,-0.006285,0.037745,-8.3359e-05,0.011298,0.00021742,0,0,0.03438,-0.014796,0,0.0005653,0,0,0,0.037746,-8.4609e-05,0.011298,0.3293,0.01632,0.033617,1.2238e-06,0.36,0.92,0
0.013037,-0.0064044,0.037632,-0.00016083,0.011241,0.00016258,0,0,0.034308,-0.014823,0,0.00042272,0,0,0,0.037632,-0.00016153,0.011241,0.24648,0.016237,0.033578,1.2154e-06,0.37,0.92,0
0.013379,-0.0065266,0.03751,-0.00025278,0.011177,8.5287e-05,0,0,0.034232,-0.014859,0,0.00022174,0,0,0,0.03751,-0.00025297,0.011177,0.1294,0.016145,0.033542,1.2067e-06,0.38,0.92,0
0.013721,-0.0066524,0.037377,-0.00036432,0.011104,-1.7523e-05,0,0,0.034155,-0.014909,0,-4.5559e-05,0,0,0,0.037377,-0.00036433,0.011104,-0.026601,0.016039,0.033513,1.1977e-06,0.39,0.92,0
0.014063,-0.0067824,0.037235,-0.00050228,0.01102,-0.00014929,0,0,0.03408,-0.014979,0,-0.00038814,0,0,0,0.037236,-0.00050287,0.01102,-0.22665,0.015918,0.033498,1.1888e-06,0.4,0.92,0
0.014403,-0.0069172,0.037086,-0.00067574,0.010923,-0.00031357,0,0,0.034011,-0.015078,0,-0.00081529,0,0,0,0.037088,-0.00067834,0.010923,-0.47574,0.015777,0.033508,1.1804e-06,0.41,0.92,0
0.014743,-0.0070576,0.036931,-0.00089667,0.01081,-0.00051351,0,0,0.033957,-0.015219,0,-0.0013351,0,0,0,0.036938,-0.00090364,0.01081,-0.77759,0.015615,0.033555,1.1734e-06,0.42,0.92,0
0.015082,-0.0072043,0.036779,-0.0011806,0.01068,-0.00075071,0,0,0.03393,-0.015418,0,-0.0019518,0,0,0,0.036794,-0.0011954,0.01068,-1.1325,0.015426,0.033661,1.1689e-06,0.43,0.92,0
0.015421,-0.0073578,0.036638,-0.0015468,0.010528,-0.0010235,0,0,0.033944,-0.015697,0,-0.0026612,0,0,0,0.036666,-0.0015742,0.010528,-1.5343,0.015206,0.033853,1.1682e-06,0.44,0.92,0
0.015761,-0.0075187,0.036521,-0.0020177,0.010351,-0.0013246,0,0,0.034021,-0.016079,0,-0.0034439,0,0,0,0.036567,-0.0020631,0.010351,-1.9662,0.014951,0.034159,1.1731e-06,0.45,0.92,0
0.016102,-0.007687,0.036439,-0.0026156,0.010147,-0.001638,0,0,0.03418,-0.016592,0,-0.0042588,0,0,0,0.036508,-0.0026842,0.010147,-2.3974,0.014657,0.034609,1.1849e-06,0.46,0.92,0
0.016445,-0.0078624,0.036403,-0.003357,0.0099138,-0.0019378,0,0,0.034436,-0.017252,0,-0.0050383,0,0,0,0.036497,-0.0034512,0.0099138,-2.7837,0.01432,0.035222,1.204e-06,0.47,0.92,0
0.01679,-0.0080441,0.036414,-0.0042433,0.0096512,-0.0021892,0,0,0.034792,-0.018063,0,-0.005692,0,0,0,0.036532,-0.0043609,0.0096512,-3.0733,0.013941,0.035994,1.2296e-06,0.48,0.92,0
0.01714,-0.0082303,0.036464,-0.0052518,0.0093638,-0.0023548,0,0,0.035231,-0.019,0,-0.0061226,0,0,0,0.036597,-0.0053843,0.0093638,-3.2207,0.013525,0.036889,1.2589e-06,0.49,0.92,0
0.017495,-0.0084186,0.036482,-0.00085761,0.010687,-0.0024098,0,0,0.049333,-0.020011,0,-0.0093903,0,0,0,0.03664,-0.0010155,0.010687,-3.7506,0.015437,0.033449,1.1161e-06,0.5,0.92,0
0.018127,-0.0086691,0.036619,0.0040035,0.012187,-0.0023653,0,0,0.063524,-0.021276,0,-0.012299,0,0,0,0.03679,0.0038328,0.012187,-4.1263,0.017603,0.029675,9.922e-07,0.51,0.92,0
0.018766,-0.0089154,0.036685,0.003367,0.012016,-0.0022479,0,0,0.06414,-0.022486,0,-0.011689,0,0,0,0.036836,0.003216,0.012016,-3.8424,0.017356,0.030197,1.0199e-06,0.52,0.92,0
0.01941,-0.0091546,0.036725,0.002786,0.011853,-0.0020751,0,0,0.064666,-0.023575,0,-0.01079,0,0,0,0.036851,0.0026596,0.011853,-3.4859,0.017121,0.030647,1.0422e-06,0.53,0.92,0
0.020059,-0.0093844,0.036733,0.0022793,0.011704,-0.0018655,0,0,0.065077,-0.024504,0,-0.0097004,0,0,0,0.036834,0.0021786,0.011704,-3.0902,0.016905,0.03101,1.0585e-06,0.54,0.92,0
0.020711,-0.0096033,0.036709,0.001853,0.011569,-0.0016386,0,0,0.065366,-0.025261,0,-0.0085208,0,0,0,0.036786,0.0017762,0.011569,-2.6856,0.01671,0.031285,1.0689e-06,0.55,0.92,0
0.021366,-0.0098104,0.036658,0.0015033,0.011448,-0.001411,0,0,0.065545,-0.025857,0,-0.0073373,0,0,0,0.036715,0.0014467,0.011448,-2.2948,0.016537,0.031482,1.0742e-06,0.56,0.92,0
0.022022,-0.010005,0.036586,0.0012206,0.011342,-0.0011942,0,0,0.065634,-0.026316,0,-0.0062101,0,0,0,0.036626,0.0011803,0.011342,-1.9319,0.016383,0.031615,1.0756e-06,0.57,0.92,0
0.022679,-0.010188,0.0365,0.00099372,0.011248,-0.00099508,0,0,0.065656,-0.026662,0,-0.0051744,0,0,0,0.036528,0.00096586,0.011248,-1.604,0.016248,0.031698,1.0743e-06,0.58,0.92,0
0.023335,-0.01036,0.036409,0.00081202,0.011166,-0.00081646,0,0,0.065631,-0.026921,0,-0.0042456,0,0,0,0.036428,0.00079331,0.011166,-1.3132,0.016129,0.031745,1.0712e-06,0.59,0.92,0
0.023991,-0.01052,0.036316,0.00066617,0.011095,-0.00065887,0,0,0.065576,-0.027114,0,-0.0034261,0,0,0,0.036328,0.000654,0.011095,-1.0584,0.016026,0.031768,1.067e-06,0.6,0.92,0
0.024647,-0.01067,0.036226,0.00054855,0.011033,-0.00052134,0,0,0.065504,-0.027258,0,-0.002711,0,0,0,0.036234,0.00054094,0.011033,-0.83699,0.015936,0.031774,1.0624e-06,0.61,0.92,0
0.025302,-0.010811,0.036142,0.00045313,0.010978,-0.00040217,0,0,0.065424,-0.027366,0,-0.0020913,0,0,0,0.036146,0.0004486,0.010978,-0.64554,0.015858,0.03177,1.0577e-06,0.62,0.92,0
0.025955,-0.010942,0.036064,0.00037517,0.010932,-0.00029942,0,0,0.065343,-0.027447,0,-0.001557,0,0,0,0.036066,0.00037266,0.010932,-0.48065,0.01579,0.031759,1.0531e-06,0.63,0.92,0
0.026608,-0.011065,0.035993,0.00031101,0.010891,-0.00021115,0,0,0.065265,-0.027509,0,-0.001098,0,0,0,0.035995,0.00030977,0.010891,-0.33903,0.015732,0.031746,1.0488e-06,0.64,0.92,0
0.027261,-0.01118,0.035931,0.00025781,0.010856,-0.00013553,0,0,0.065193,-0.027557,0,-0.00070477,0,0,0,0.035931,0.0002573,0.010856,-0.21768,0.015682,0.031731,1.0449e-06,0.65,0.92,0
0.027912,-0.011287,0.035875,0.00021337,0.010827,-7.0941e-05,0,0,0.065127,-0.027595,0,-0.00036889,0,0,0,0.035876,0.00021323,0.010827,-0.11398,0.015638,0.031717,1.0415e-06,0.66,0.92,0
0.028563,-0.011388,0.035827,0.00017598,0.010801,-1.5934e-05,0,0,0.065069,-0.027625,0,-8.2855e-05,0,0,0,0.035827,0.00017597,0.010801,-0.025607,0.015602,0.031704,1.0385e-06,0.67,0.92,0
0.029214,-0.011482,0.035786,0.00014429,0.010779,3.0737e-05,0,0,0.065018,-0.027651,0,0.00015983,0,0,0,0.035786,0.00014427,0.010779,0.049411,0.01557,0.031692,1.0359e-06,0.68,0.92,0
0.029864,-0.01157,0.035751,0.00011727,0.01076,7.0146e-05,0,0,0.064976,-0.027672,0,0.00036476,0,0,0,0.035751,0.00011713,0.01076,0.11279,0.015543,0.031683,1.0337e-06,0.69,0.92,0
0.030513,-0.011652,0.035722,9.4075e-05,0.010745,0.00010322,0,0,0.06494,-0.027692,0,0.00053672,0,0,0,0.035722,9.3776e-05,0.010745,0.16599,0.01552,0.031676,1.0319e-06,0.7,0.92,0
0.031162,-0.01173,0.035698,7.4052e-05,0.010731,0.00013074,0,0,0.064912,-0.027709,0,0.00067984,0,0,0,0.035698,7.3572e-05,0.010731,0.21027,0.015501,0.03167,1.0304e-06,0.71,0.92,0
0.031811,-0.011802,0.035678,5.6672e-05,0.01072,0.00015339,0,0,0.06489,-0.027726,0,0.00079764,0,0,0,0.035679,5.6012e-05,0.01072,0.24672,0.015485,0.031667,1.0293e-06,0.72,0.92,0
0.03246,-0.011869,0.035663,4.151e-05,0.010711,0.00017176,0,0,0.064874,-0.027741,0,0.00089315,0,0,0,0.035664,4.0682e-05,0.010711,0.27626,0.015472,0.031666,1.0285e-06,0.73,0.92,0
0.033109,-0.011932,0.035651,2.8222e-05,0.010704,0.00018634,0,0,0.064863,-0.027756,0,0.00096898,0,0,0,0.035652,2.7247e-05,0.010704,0.2997,0.015461,0.031666,1.0279e-06,0.74,0.92,0
0.033757,-0.011991,0.035642,1.6525e-05,0.010698,0.00019757,0,0,0.064856,-0.027771,0,0.0010274,0,0,0,0.035643,1.543e-05,0.010698,0.31774,0.015452,0.031668,1.0275e-06,0.75,0.92,0
0.034406,-0.012046,0.035637,6.1915e-06,0.010693,0.00020583,0,0,0.064854,-0.027785,0,0.0010703,0,0,0,0.035638,5.0025e-06,0.010693,0.33098,0.015445,0.031672,1.0273e-06,0.76,0.92,0
0.035055,-0.012097,0.035633,-2.9703e-06,0.010689,0.00021144,0,0,0.064855,-0.027799,0,0.0010995,0,0,0,0.035635,-4.2248e-06,0.010689,0.33994,0.01544,0.031676,1.0273e-06,0.77,0.92,0
0.035703,-0.012145,0.035632,-1.1118e-05,0.010686,0.00021469,0,0,0.064859,-0.027813,0,0.0011164,0,0,0,0.035633,-1.2411e-05,0.010686,0.34509,0.015436,0.031682,1.0275e-06,0.78,0.92,0
0.036352,-0.01219,0.035633,-1.8382e-05,0.010684,0.00021582,0,0,0.064866,-0.027827,0,0.0011223,0,0,0,0.035634,-1.9688e-05,0.010684,0.34684,0.015433,0.031688,1.0278e-06,0.79,0.92,0
0.037,-0.012231,0.035635,-2.4873e-05,0.010683,0.00021507,0,0,0.064875,-0.027841,0,0.0011183,0,0,0,0.035636,-2.617e-05,0.010683,0.34554,0.015431,0.031695,1.0282e-06,0.8,0.92,0
0.037649,-0.012269,0.035638,-3.0684e-05,0.010682,0.00021261,0,0,0.064886,-0.027854,0,0.0011056,0,0,0,0.03564,-3.1951e-05,0.010682,0.34151,0.01543,0.031703,1.0287e-06,0.81,0.92,0
0.038298,-0.012305,0.035643,-3.5893e-05,0.010682,0.00020864,0,0,0.064898,-0.027867,0,0.0010849,0,0,0,0.035644,-3.7113e-05,0.010682,0.33503,0.01543,0.031711,1.0292e-06,0.82,0.92,0
0.038947,-0.012338,0.035648,-4.0567e-05,0.010682,0.00020329,0,0,0.064911,-0.027879,0,0.0010571,0,0,0,0.035649,-4.1725e-05,0.010682,0.32636,0.01543,0.031719,1.0298e-06,0.83,0.92,0
0.039596,-0.012368,0.035654,-4.4762e-05,0.010683,0.00019672,0,0,0.064925,-0.027892,0,0.0010229,0,0,0,0.035655,-4.5846e-05,0.010683,0.31572,0.015431,0.031728,1.0304e-06,0.84,0.92,0
0.040246,-0.012396,0.03566,-4.8526e-05,0.010684,0.00018904,0,0,0.06494,-0.027903,0,0.00098299,0,0,0,0.035661,-4.9527e-05,0.010684,0.3033,0.015432,0.031736,1.0311e-06,0.85,0.92,0
0.040895,-0.012422,0.035667,-5.1902e-05,0.010684,0.00018036,0,0,0.064954,-0.027915,0,0.00093789,0,0,0,0.035668,-5.2813e-05,0.010684,0.28931,0.015433,0.031744,1.0317e-06,0.86,0.92,0
0.041545,-0.012446,0.035673,-5.4925e-05,0.010686,0.0001708,0,0,0.064969,-0.027925,0,0.00088815,0,0,0,0.035674,-5.5741e-05,0.010686,0.27389,0.015435,0.031753,1.0324e-06,0.87,0.92,0
0.042195,-0.012467,0.03568,-5.7625e-05,0.010687,0.00016044,0,0,0.064983,-0.027935,0,0.00083427,0,0,0,0.035681,-5.8345e-05,0.010687,0.25721,0.015436,0.03176,1.033e-06,0.88,0.92,0
0.042844,-0.012487,0.035687,-6.0029e-05,0.010688,0.00014936,0,0,0.064997,-0.027945,0,0.00077668,0,0,0,0.035687,-6.0653e-05,0.010688,0.23939,0.015438,0.031768,1.0337e-06,0.89,0.92,0
0.043494,-0.012504,0.035693,-6.2159e-05,0.010689,0.00013766,0,0,0.06501,-0.027954,0,0.00071581,0,0,0,0.035694,-6.2689e-05,0.010689,0.22058,0.01544,0.031775,1.0343e-06,0.9,0.92,0
0.044145,-0.01252,0.035699,-6.4036e-05,0.010691,0.00012539,0,0,0.065022,-0.027962,0,0.00065203,0,0,0,0.035699,-6.4475e-05,0.010691,0.20088,0.015442,0.031782,1.0348e-06,0.91,0.92,0
0.044795,-0.012533,0.035705,-6.5675e-05,0.010692,0.00011263,0,0,0.065033,-0.027969,0,0.0005857,0,0,0,0.035705,-6.6029e-05,0.010692,0.18041,0.015444,0.031788,1.0353e-06,0.92,0.92,0
0.045445,-0.012545,0.03571,-6.709e-05,0.010693,9.9452e-05,0,0,0.065044,-0.027976,0,0.00051715,0,0,0,0.03571,-6.7367e-05,0.010693,0.15927,0.015445,0.031793,1.0358e-06,0.93,0.92,0
0.046096,-0.012556,0.035714,-6.8295e-05,0.010694,8.5903e-05,0,0,0.065053,-0.027981,0,0.00044669,0,0,0,0.035714,-6.8501e-05,0.010694,0.13755,0.015447,0.031798,1.0363e-06,0.94,0.92,0
0.046746,-0.012564,0.035718,-6.9298e-05,0.010695,7.2046e-05,0,0,0.065061,-0.027986,0,0.00037464,0,0,0,0.035718,-6.9443e-05,0.010695,0.11535,0.015448,0.031802,1.0366e-06,0.95,0.92,0
0.047397,-0.012571,0.035721,-7.0108e-05,0.010695,5.7936e-05,0,0,0.065067,-0.02799,0,0.00030126,0,0,0,0.035721,-7.0202e-05,0.010695,0.092745,0.015449,0.031806,1.0369e-06,0.96,0.92,0
0.048048,-0.012577,0.035724,-7.0731e-05,0.010696,4.3625e-05,0,0,0.065073,-0.027993,0,0.00022685,0,0,0,0.035724,-7.0784e-05,0.010696,0.06983,0.01545,0.031809,1.0372e-06,0.97,0.92,0
0.048698,-0.012581,0.035726,-7.1173e-05,0.010696,2.9165e-05,0,0,0.065076,-0.027995,0,0.00015166,0,0,0,0.035726,-7.1197e-05,0.010696,0.046682,0.01545,0.031811,1.0373e-06,0.98,0.92,0
0.049349,-0.012583,0.035727,-7.1437e-05,0.010697,1.4607e-05,0,0,0.065078,-0.027997,0,7.5958e-05,0,0,0,0.035727,-7.1443e-05,0.010697,0.023379,0.015451,0.031812,1.0374e-06,0.99,0.92,0
0.05,-0.012584,0.035727,-7.1525e-05,0.010697,-1.4853e-05,0,0,0.065079,-0.027997,0,-7.7236e-05,0,0,0,0.035727,-7.1531e-05,0.010697,-0.023772,0.015451,0.031812,1.0375e-06,1,0.92,0
0,0,0.042051,0.018022,0.018022,-0.010432,0,0,0.031238,1.0842e-19,0,-0.027123,0,0,0,0.045948,0.014125,0.018022,-20.484,0.026031,0.030065,1.317e-06,0,0.93,0
0.00031238,-0.00027123,0.041891,0.015953,0.017353,-0.010372,0,0,0.0319,-0.0018208,0,-0.026968,0,0,0,0.045529,0.012315,0.017353,-19.326,0.025066,0.031003,1.3953e-06,0.01,0.93,0
0.000638,-0.00055674,0.042498,0.013928,0.016928,-0.010389,0,0,0.033242,-0.0039003,0,-0.027012,0,0,0,0.045877,0.010549,0.016928,-18.014,0.024451,0.03261,1.5538e-06,0.02,0.93,0
0.00097721,-0.00085017,0.043028,0.011829,0.016457,-0.010086,0,0,0.034542,-0.0060161,0,-0.026225,0,0,0,0.046004,0.0088523,0.016457,-16.444,0.023771,0.033994,1.6822e-06,0.03,0.93,0
0.0013288,-0.0011449,0.043414,0.0098506,0.015979,-0.0095069,0,0,0.035665,-0.0079673,0,-0.024718,0,0,0,0.045919,0.0073448,0.015979,-14.766,0.023081,0.035064,1.7697e-06,0.04,0.93,0
0.0016905,-0.0014352,0.04362,0.0081098,0.015519,-0.0087391,0,0,0.036531,-0.0096317,0,-0.022722,0,0,0,0.045654,0.0060757,0.015519,-13.103,0.022416,0.035803,1.8159e-06,0.05,0.93,0
0.0020594,-0.001717,0.043645,0.0066482,0.015088,-0.0078788,0,0,0.037124,-0.010972,0,-0.020485,0,0,0,0.045253,0.0050402,0.015088,-11.535,0.021794,0.036249,1.8274e-06,0.06,0.93,0
0.002433,-0.0019876,0.043515,0.0054546,0.014691,-0.0070033,0,0,0.037471,-0.012007,0,-0.018209,0,0,0,0.044763,0.0042068,0.014691,-10.102,0.02122,0.036463,1.8133e-06,0.07,0.93,0
0.0028089,-0.0022458,0.043269,0.0044935,0.014329,-0.0061632,0,0,0.037623,-0.012786,0,-0.016024,0,0,0,0.044225,0.0035374,0.014329,-8.8174,0.020697,0.036509,1.7827e-06,0.08,0.93,0
0.0031854,-0.0024912,0.042947,0.0037236,0.014001,-0.0053859,0,0,0.03763,-0.013361,0,-0.014003,0,0,0,0.043674,0.0029975,0.014001,-7.678,0.020224,0.036442,1.7429e-06,0.09,0.93,0
0.0035615,-0.002724,0.042583,0.0031069,0.013707,-0.0046824,0,0,0.037539,-0.01378,0,-0.012174,0,0,0,0.043131,0.0025592,0.013707,-6.6728,0.019799,0.036305,1.699e-06,0.1,0.93,0
0.0039362,-0.0029447,0.042201,0.0026112,0.013444,-0.0040542,0,0,0.037385,-0.014082,0,-0.010541,0,0,0,0.042612,0.0022003,0.013444,-5.7874,0.019419,0.036127,1.6544e-06,0.11,0.93,0
0.0043092,-0.0031541,0.04182,0.0022105,0.013209,-0.0034974,0,0,0.037194,-0.014298,0,-0.0090933,0,0,0,0.042126,0.001904,0.013209,-5.0075,0.01908,0.035929,1.6113e-06,0.12,0.93,0
0.0046801,-0.0033528,0.04145,0.0018843,0.013,-0.0030057,0,0,0.036985,-0.014451,0,-0.0078148,0,0,0,0.041677,0.0016573,0.013,-4.3195,0.018778,0.035726,1.5707e-06,0.13,0.93,0
0.0050489,-0.0035417,0.041101,0.0016171,0.012815,-0.002572,0,0,0.036771,-0.014558,0,-0.0066873,0,0,0,0.041267,0.0014502,0.012815,-3.7114,0.018511,0.035525,1.5332e-06,0.14,0.93,0
0.0054155,-0.0037215,0.040774,0.0013963,0.012651,-0.0021896,0,0,0.03656,-0.014631,0,-0.0056928,0,0,0,0.040896,0.0012749,0.012651,-3.1728,0.018274,0.035334,1.4992e-06,0.15,0.93,0
0.0057801,-0.0038929,0.040474,0.0012125,0.012506,-0.0018519,0,0,0.036358,-0.014681,0,-0.0048149,0,0,0,0.040561,0.0011253,0.012506,-2.6946,0.018064,0.035155,1.4685e-06,0.16,0.93,0
0.0061427,-0.0040567,0.040199,0.0010583,0.012377,-0.0015534,0,0,0.036168,-0.014714,0,-0.0040388,0,0,0,0.04026,0.00099673,0.012377,-2.2692,0.017878,0.03499,1.4411e-06,0.17,0.93,0
0.0065034,-0.0042135,0.039949,0.00092792,0.012263,-0.0012891,0,0,0.035992,-0.014736,0,-0.0033516,0,0,0,0.039992,0.00088538,0.012263,-1.8901,0.017713,0.03484,1.4167e-06,0.18,0.93,0
0.0068625,-0.0043639,0.039724,0.00081685,0.012162,-0.0010548,0,0,0.03583,-0.014749,0,-0.0027424,0,0,0,0.039752,0.00078827,0.012162,-1.5518,0.017568,0.034704,1.3951e-06,0.19,0.93,0
0.00722,-0.0045086,0.039521,0.00072146,0.012073,-0.00084675,0,0,0.035683,-0.014757,0,-0.0022016,0,0,0,0.03954,0.00070299,0.012073,-1.2496,0.017438,0.034583,1.3761e-06,0.2,0.93,0
0.0075762,-0.0046479,0.03934,0.0006389,0.011994,-0.00066199,0,0,0.03555,-0.014761,0,-0.0017212,0,0,0,0.039351,0.00062758,0.011994,-0.97968,0.017324,0.034475,1.3593e-06,0.21,0.93,0
0.007931,-0.0047826,0.039178,0.00056685,0.011923,-0.00049787,0,0,0.035431,-0.014763,0,-0.0012945,0,0,0,0.039184,0.00056043,0.011923,-0.73864,0.017223,0.034381,1.3445e-06,0.22,0.93,0
0.0082848,-0.004913,0.039033,0.00050344,0.011861,-0.00035222,0,0,0.035324,-0.014765,0,-0.00091577,0,0,0,0.039036,0.00050022,0.011861,-0.52371,0.017132,0.034297,1.3316e-06,0.23,0.93,0
0.0086375,-0.0050397,0.038904,0.00044711,0.011805,-0.00022321,0,0,0.035229,-0.014766,0,-0.00058035,0,0,0,0.038906,0.00044581,0.011805,-0.33254,0.017052,0.034224,1.3202e-06,0.24,0.93,0
0.0089893,-0.0051632,0.038789,0.00039658,0.011756,-0.00010935,0,0,0.035144,-0.014767,0,-0.00028432,0,0,0,0.038789,0.00039626,0.011756,-0.1632,0.01698,0.034161,1.3103e-06,0.25,0.93,0
0.0093404,-0.0052838,0.038686,0.00035074,0.011711,-9.4309e-06,0,0,0.035068,-0.014768,0,-2.452e-05,0,0,0,0.038686,0.00035074,0.011711,-0.014095,0.016916,0.034105,1.3015e-06,0.26,0.93,0
0.0096907,-0.0054021,0.038593,0.00030864,0.011671,7.7519e-05,0,0,0.034999,-0.014771,0,0.00020155,0,0,0,0.038593,0.00030848,0.011671,0.11601,0.016858,0.034056,1.2937e-06,0.27,0.93,0
0.01004,-0.0055184,0.038509,0.00026941,0.011633,0.00015222,0,0,0.034938,-0.014773,0,0.00039576,0,0,0,0.038509,0.0002688,0.011633,0.22807,0.016804,0.034013,1.2866e-06,0.28,0.93,0
0.010389,-0.0056333,0.038431,0.00023226,0.011599,0.00021515,0,0,0.034881,-0.014777,0,0.0005594,0,0,0,0.038432,0.00023105,0.011599,0.32271,0.016754,0.033975,1.2803e-06,0.29,0.93,0
0.010738,-0.005747,0.038357,0.0001964,0.011566,0.0002666,0,0,0.034829,-0.014781,0,0.00069315,0,0,0,0.038359,0.00019453,0.011566,0.40025,0.016707,0.033939,1.2743e-06,0.3,0.93,0
0.011086,-0.0058602,0.038287,0.00016103,0.011534,0.00030658,0,0,0.034778,-0.014785,0,0.00079711,0,0,0,0.038289,0.00015856,0.011534,0.46069,0.016661,0.033906,1.2686e-06,0.31,0.93,0
0.011434,-0.0059732,0.038217,0.00012529,0.011503,0.00033489,0,0,0.034729,-0.014791,0,0.00087071,0,0,0,0.03822,0.00012235,0.011503,0.50367,0.016615,0.033873,1.2631e-06,0.32,0.93,0
0.011781,-0.0060865,0.038146,8.82e-05,0.01147,0.00035102,0,0,0.034679,-0.014797,0,0.00091265,0,0,0,0.03815,8.4963e-05,0.01147,0.52839,0.016568,0.03384,1.2574e-06,0.33,0.93,0
0.012127,-0.0062006,0.038072,4.8587e-05,0.011436,0.00035417,0,0,0.034627,-0.014804,0,0.00092083,0,0,0,0.038075,4.5289e-05,0.011436,0.53361,0.016519,0.033806,1.2515e-06,0.34,0.93,0
0.012473,-0.0063159,0.037993,5.0026e-06,0.011399,0.00034313,0,0,0.034571,-0.014813,0,0.00089214,0,0,0,0.037996,1.9034e-06,0.011399,0.51748,0.016466,0.03377,1.2452e-06,0.35,0.93,0
0.012819,-0.0064331,0.037905,-4.4414e-05,0.011358,0.00031627,0,0,0.034511,-0.014823,0,0.00082231,0,0,0,0.037908,-4.705e-05,0.011358,0.47746,0.016406,0.033731,1.2383e-06,0.36,0.93,0
0.013163,-0.0065526,0.037808,-0.00010211,0.011312,0.00027141,0,0,0.034445,-0.014838,0,0.00070568,0,0,0,0.03781,-0.00010406,0.011312,0.41018,0.016339,0.033689,1.2307e-06,0.37,0.93,0
0.013508,-0.0066752,0.037698,-0.00017139,0.011258,0.00020573,0,0,0.034372,-0.014858,0,0.0005349,0,0,0,0.0377,-0.0001725,0.011258,0.31125,0.016262,0.033646,1.2223e-06,0.38,0.93,0
0.013851,-0.0068013,0.037575,-0.00025674,0.011196,0.00011566,0,0,0.034293,-0.014888,0,0.00030072,0,0,0,0.037575,-0.00025709,0.011196,0.17517,0.016171,0.033603,1.2131e-06,0.39,0.93,0
0.014193,-0.0069319,0.037436,-0.0003644,0.011121,-3.1433e-06,0,0,0.034209,-0.014932,0,-8.1725e-06,0,0,0,0.037436,-0.0003644,0.011121,-0.0047644,0.016064,0.033565,1.2033e-06,0.4,0.93,0
0.014535,-0.0070675,0.037282,-0.00050306,0.011034,-0.00015578,0,0,0.034123,-0.014998,0,-0.00040503,0,0,0,0.037283,-0.0005037,0.011034,-0.23621,0.015938,0.033541,1.1933e-06,0.41,0.93,0
0.014876,-0.0072091,0.037115,-0.00068483,0.010929,-0.00034774,0,0,0.034042,-0.015098,0,-0.00090412,0,0,0,0.037118,-0.00068803,0.010929,-0.52703,0.015786,0.033542,1.1836e-06,0.42,0.93,0
0.015216,-0.0073576,0.03694,-0.00092651,0.010804,-0.00058401,0,0,0.033977,-0.01525,0,-0.0015184,0,0,0,0.036949,-0.00093552,0.010804,-0.88338,0.015606,0.033591,1.1755e-06,0.43,0.93,0
0.015555,-0.0075137,0.036768,-0.0012509,0.010655,-0.00086716,0,0,0.033946,-0.015478,0,-0.0022546,0,0,0,0.036787,-0.0012706,0.010655,-1.3059,0.015391,0.033716,1.1705e-06,0.44,0.93,0
0.015895,-0.0076782,0.036611,-0.0016873,0.010477,-0.001194,0,0,0.033974,-0.015814,0,-0.0031043,0,0,0,0.036649,-0.0017245,0.010477,-1.7839,0.015134,0.033958,1.1711e-06,0.45,0.93,0
0.016235,-0.0078515,0.03649,-0.0022702,0.010266,-0.0015505,0,0,0.034091,-0.016297,0,-0.0040312,0,0,0,0.036552,-0.0023321,0.010266,-2.2871,0.014828,0.034363,1.1793e-06,0.46,0.93,0
0.016577,-0.0080336,0.036419,-0.0030313,0.010016,-0.0019073,0,0,0.034323,-0.016962,0,-0.0049591,0,0,0,0.036511,-0.0031233,0.010016,-2.7616,0.014468,0.034967,1.1969e-06,0.47,0.93,0
0.016921,-0.0082237,0.036406,-0.0039861,0.009726,-0.0022187,0,0,0.034684,-0.017826,0,-0.0057687,0,0,0,0.036527,-0.0041076,0.009726,-3.1347,0.014049,0.035783,1.2232e-06,0.48,0.93,0
0.01727,-0.0084197,0.036444,-0.0051145,0.009399,-0.0024298,0,0,0.035159,-0.018867,0,-0.0063174,0,0,0,0.036586,-0.005256,0.009399,-3.3347,0.013576,0.036774,1.2551e-06,0.49,0.93,0
0.017625,-0.0086187,0.036449,-0.00087658,0.010672,-0.0025014,0,0,0.04931,-0.020017,0,-0.0097515,0,0,0,0.036619,-0.0010468,0.010672,-3.8931,0.015415,0.033456,1.1146e-06,0.5,0.93,0
0.018256,-0.0088826,0.036594,0.003904,0.012149,-0.002447,0,0,0.063556,-0.021438,0,-0.012724,0,0,0,0.036776,0.0037219,0.012149,-4.2573,0.017549,0.02975,9.9536e-07,0.51,0.93,0
0.018896,-0.0091416,0.036653,0.0031935,0.011954,-0.0023012,0,0,0.064218,-0.022777,0,-0.011966,0,0,0,0.036811,0.0030359,0.011954,-3.9159,0.017267,0.030316,1.0246e-06,0.52,0.93,0
0.019541,-0.009392,0.036678,0.0025624,0.011772,-0.0020893,0,0,0.064756,-0.023946,0,-0.010865,0,0,0,0.036806,0.0024349,0.011772,-3.4915,0.017004,0.030783,1.0466e-06,0.53,0.93,0
0.020191,-0.0096313,0.036663,0.0020327,0.011609,-0.0018395,0,0,0.065141,-0.024898,0,-0.0095653,0,0,0,0.03676,0.0019352,0.011609,-3.032,0.016768,0.031137,1.0608e-06,0.54,0.93,0
0.020844,-0.0098577,0.036609,0.0016056,0.011464,-0.0015786,0,0,0.065376,-0.025633,0,-0.0082086,0,0,0,0.03668,0.0015345,0.011464,-2.5769,0.01656,0.031382,1.068e-06,0.55,0.93,0
0.021498,-0.01007,0.036525,0.0012696,0.011338,-0.0013267,0,0,0.065486,-0.026179,0,-0.0068988,0,0,0,0.036575,0.0012197,0.011338,-2.152,0.016378,0.031538,1.0697e-06,0.56,0.93,0
0.022153,-0.01027,0.036422,0.0010082,0.011229,-0.0010957,0,0,0.065502,-0.026575,0,-0.0056978,0,0,0,0.036456,0.00097435,0.011229,-1.7705,0.01622,0.031627,1.0676e-06,0.57,0.93,0
0.022808,-0.010456,0.03631,0.00080545,0.011135,-0.00089078,0,0,0.065457,-0.026856,0,-0.004632,0,0,0,0.036333,0.00078312,0.011135,-1.4363,0.016084,0.031669,1.0631e-06,0.58,0.93,0
0.023463,-0.01063,0.036197,0.00064764,0.011054,-0.00071259,0,0,0.065374,-0.027055,0,-0.0037055,0,0,0,0.036212,0.00063336,0.011054,-1.1479,0.015966,0.031681,1.0574e-06,0.59,0.93,0
0.024116,-0.010792,0.036089,0.000524,0.010984,-0.00055958,0,0,0.065273,-0.027196,0,-0.0029098,0,0,0,0.036098,0.0005152,0.010984,-0.90121,0.015866,0.031673,1.0512e-06,0.6,0.93,0
0.024768,-0.010943,0.035988,0.00042633,0.010924,-0.00042914,0,0,0.065166,-0.027295,0,-0.0022315,0,0,0,0.035993,0.00042115,0.010924,-0.69128,0.015779,0.031655,1.0451e-06,0.61,0.93,0
0.025419,-0.011085,0.035897,0.00034844,0.010873,-0.00031838,0,0,0.06506,-0.027365,0,-0.0016556,0,0,0,0.035899,0.00034559,0.010873,-0.5131,0.015706,0.031632,1.0394e-06,0.62,0.93,0
0.026069,-0.011217,0.035815,0.00028574,0.01083,-0.00022456,0,0,0.064961,-0.027416,0,-0.0011677,0,0,0,0.035817,0.00028432,0.01083,-0.36211,0.015644,0.031608,1.0341e-06,0.63,0.93,0
0.026718,-0.01134,0.035744,0.00023476,0.010794,-0.0001452,0,0,0.064871,-0.027453,0,-0.00075506,0,0,0,0.035745,0.00023417,0.010794,-0.23429,0.015591,0.031584,1.0294e-06,0.64,0.93,0
0.027367,-0.011455,0.035683,0.00019294,0.010763,-7.8179e-05,0,0,0.064792,-0.027481,0,-0.00040653,0,0,0,0.035683,0.00019276,0.010763,-0.12621,0.015546,0.031562,1.0254e-06,0.65,0.93,0
0.028014,-0.011563,0.03563,0.0001583,0.010737,-2.1661e-05,0,0,0.064724,-0.027504,0,-0.00011264,0,0,0,0.03563,0.00015829,0.010737,-0.034988,0.015508,0.031543,1.0219e-06,0.66,0.93,0
0.028661,-0.011664,0.035586,0.00012937,0.010715,2.5884e-05,0,0,0.064666,-0.027522,0,0.0001346,0,0,0,0.035586,0.00012935,0.010715,0.041827,0.015477,0.031527,1.0191e-06,0.67,0.93,0
0.029308,-0.011758,0.03555,0.00010502,0.010696,6.5743e-05,0,0,0.064619,-0.027538,0,0.00034186,0,0,0,0.03555,0.0001049,0.010696,0.10627,0.015451,0.031514,1.0167e-06,0.68,0.93,0
0.029953,-0.011846,0.03552,8.4357e-05,0.010681,9.8991e-05,0,0,0.064581,-0.027552,0,0.00051475,0,0,0,0.035521,8.4081e-05,0.010681,0.16006,0.015429,0.031504,1.0148e-06,0.69,0.93,0
0.030599,-0.011929,0.035497,6.6706e-05,0.010669,0.00012653,0,0,0.064552,-0.027566,0,0.00065797,0,0,0,0.035497,6.6254e-05,0.010669,0.20462,0.015411,0.031498,1.0133e-06,0.7,0.93,0
0.031245,-0.012006,0.035479,5.1527e-05,0.010659,0.00014913,0,0,0.064531,-0.027579,0,0.00077545,0,0,0,0.035479,5.0899e-05,0.010659,0.24118,0.015396,0.031494,1.0123e-06,0.71,0.93,0
0.03189,-0.012078,0.035465,3.8395e-05,0.010651,0.00016741,0,0,0.064516,-0.027593,0,0.00087054,0,0,0,0.035466,3.7604e-05,0.010651,0.27075,0.015385,0.031493,1.0115e-06,0.72,0.93,0
0.032535,-0.012146,0.035456,2.6971e-05,0.010645,0.00018193,0,0,0.064508,-0.027606,0,0.00094604,0,0,0,0.035457,2.6036e-05,0.010645,0.29421,0.015376,0.031494,1.0111e-06,0.73,0.93,0
0.03318,-0.012209,0.03545,1.6982e-05,0.01064,0.00019314,0,0,0.064505,-0.02762,0,0.0010043,0,0,0,0.035451,1.5929e-05,0.01064,0.3123,0.015369,0.031497,1.0109e-06,0.74,0.93,0
0.033825,-0.012268,0.035447,8.2075e-06,0.010637,0.00020144,0,0,0.064508,-0.027634,0,0.0010475,0,0,0,0.035448,7.0625e-06,0.010637,0.32567,0.015364,0.031502,1.011e-06,0.75,0.93,0
0.03447,-0.012323,0.035447,4.6844e-07,0.010634,0.00020717,0,0,0.064514,-0.027648,0,0.0010773,0,0,0,0.035449,-7.4237e-07,0.010634,0.33486,0.015361,0.031508,1.0112e-06,0.76,0.93,0
0.035115,-0.012375,0.03545,-6.383e-06,0.010633,0.00021062,0,0,0.064523,-0.027662,0,0.0010952,0,0,0,0.035451,-7.6341e-06,0.010633,0.34034,0.015359,0.031516,1.0117e-06,0.77,0.93,0
0.035761,-0.012423,0.035454,-1.2468e-05,0.010632,0.00021204,0,0,0.064536,-0.027677,0,0.0011026,0,0,0,0.035455,-1.3736e-05,0.010632,0.34253,0.015358,0.031524,1.0122e-06,0.78,0.93,0
0.036406,-0.012467,0.03546,-1.7889e-05,0.010633,0.00021165,0,0,0.064551,-0.027691,0,0.0011006,0,0,0,0.035461,-1.9151e-05,0.010633,0.34179,0.015358,0.031534,1.0129e-06,0.79,0.93,0
0.037052,-0.012509,0.035467,-2.2728e-05,0.010633,0.00020964,0,0,0.064568,-0.027706,0,0.0010901,0,0,0,0.035468,-2.3966e-05,0.010633,0.33843,0.015359,0.031544,1.0136e-06,0.8,0.93,0
0.037697,-0.012547,0.035475,-2.7057e-05,0.010634,0.00020619,0,0,0.064586,-0.02772,0,0.0010722,0,0,0,0.035476,-2.8255e-05,0.010634,0.33274,0.015361,0.031555,1.0145e-06,0.81,0.93,0
0.038343,-0.012583,0.035484,-3.0936e-05,0.010636,0.00020144,0,0,0.064605,-0.027734,0,0.0010475,0,0,0,0.035485,-3.2078e-05,0.010636,0.32496,0.015363,0.031566,1.0153e-06,0.82,0.93,0
0.038989,-0.012616,0.035493,-3.4414e-05,0.010638,0.00019553,0,0,0.064625,-0.027748,0,0.0010167,0,0,0,0.035495,-3.549e-05,0.010638,0.31531,0.015366,0.031577,1.0163e-06,0.83,0.93,0
0.039636,-0.012647,0.035503,-3.7534e-05,0.01064,0.00018857,0,0,0.064645,-0.027761,0,0.00098057,0,0,0,0.035504,-3.8535e-05,0.01064,0.30399,0.015369,0.031588,1.0172e-06,0.84,0.93,0
0.040282,-0.012675,0.035514,-4.0334e-05,0.010642,0.00018068,0,0,0.064666,-0.027774,0,0.00093954,0,0,0,0.035514,-4.1252e-05,0.010642,0.29116,0.015372,0.031599,1.0181e-06,0.85,0.93,0
0.040929,-0.012701,0.035523,-4.2843e-05,0.010644,0.00017195,0,0,0.064686,-0.027786,0,0.00089413,0,0,0,0.035524,-4.3674e-05,0.010644,0.27699,0.015375,0.03161,1.0191e-06,0.86,0.93,0
0.041576,-0.012724,0.035533,-4.509e-05,0.010646,0.00016247,0,0,0.064706,-0.027798,0,0.00084482,0,0,0,0.035534,-4.5832e-05,0.010646,0.26163,0.015378,0.03162,1.02e-06,0.87,0.93,0
0.042223,-0.012746,0.035543,-4.7096e-05,0.010649,0.00015231,0,0,0.064725,-0.027809,0,0.000792,0,0,0,0.035544,-4.7748e-05,0.010649,0.24519,0.015382,0.03163,1.0208e-06,0.88,0.93,0
0.04287,-0.012765,0.035552,-4.8882e-05,0.010651,0.00014155,0,0,0.064743,-0.02782,0,0.00073605,0,0,0,0.035553,-4.9445e-05,0.010651,0.2278,0.015385,0.03164,1.0217e-06,0.89,0.93,0
0.043518,-0.012783,0.035561,-5.0465e-05,0.010653,0.00013026,0,0,0.064761,-0.02783,0,0.00067734,0,0,0,0.035562,-5.0941e-05,0.010653,0.20957,0.015388,0.031649,1.0225e-06,0.9,0.93,0
0.044166,-0.012799,0.035569,-5.1858e-05,0.010655,0.00011849,0,0,0.064777,-0.027839,0,0.00061617,0,0,0,0.03557,-5.2253e-05,0.010655,0.19059,0.015391,0.031657,1.0232e-06,0.91,0.93,0
0.044814,-0.012812,0.035577,-5.3075e-05,0.010657,0.00010632,0,0,0.064792,-0.027847,0,0.00055286,0,0,0,0.035577,-5.3393e-05,0.010657,0.17097,0.015394,0.031664,1.0239e-06,0.92,0.93,0
0.045462,-0.012825,0.035584,-5.4127e-05,0.010659,9.3784e-05,0,0,0.064805,-0.027854,0,0.00048768,0,0,0,0.035584,-5.4374e-05,0.010659,0.15078,0.015396,0.031671,1.0245e-06,0.93,0.93,0
0.04611,-0.012835,0.03559,-5.5021e-05,0.01066,8.094e-05,0,0,0.064817,-0.02786,0,0.00042089,0,0,0,0.03559,-5.5205e-05,0.01066,0.1301,0.015399,0.031677,1.0251e-06,0.94,0.93,0
0.046758,-0.012844,0.035595,-5.5766e-05,0.010662,6.7837e-05,0,0,0.064827,-0.027866,0,0.00035276,0,0,0,0.035595,-5.5895e-05,0.010662,0.10902,0.0154,0.031683,1.0256e-06,0.95,0.93,0
0.047406,-0.012851,0.035599,-5.6368e-05,0.010663,5.4521e-05,0,0,0.064835,-0.02787,0,0.00028351,0,0,0,0.0356,-5.6451e-05,0.010663,0.087611,0.015402,0.031687,1.0259e-06,0.96,0.93,0
0.048055,-0.012856,0.035603,-5.6831e-05,0.010664,4.1037e-05,0,0,0.064842,-0.027874,0,0.00021339,0,0,0,0.035603,-5.6878e-05,0.010664,0.065935,0.015403,0.03169,1.0262e-06,0.97,0.93,0
0.048703,-0.01286,0.035605,-5.7159e-05,0.010665,2.7427e-05,0,0,0.064846,-0.027876,0,0.00014262,0,0,0,0.035605,-5.718e-05,0.010665,0.044064,0.015404,0.031692,1.0265e-06,0.98,0.93,0
0.049351,-0.012863,0.035607,-5.7355e-05,0.010665,1.3734e-05,0,0,0.064849,-0.027878,0,7.1417e-05,0,0,0,0.035607,-5.736e-05,0.010665,0.022064,0.015405,0.031694,1.0266e-06,0.99,0.93,0
0.05,-0.012863,0.035607,-5.742e-05,0.010665,-1.4944e-05,0,0,0.06485,-0.027878,0,-7.771e-05,0,0,0,0.035607,-5.7426e-05,0.010665,-0.024008,0.015405,0.031694,1.0266e-06,1,0.93,0
0,0,0.043353,0.01858,0.01858,-0.011184,0,0,0.032205,-1.0842e-19,0,-0.029078,0,0,0,0.047655,0.014278,0.01858,-21.039,0.026838,0.031448,1.497e-06,0,0.94,0
0.00032205,-0.00029078,0.043159,0.016139,0.017789,-0.011086,0,0,0.03298,-0.0021456,0,-0.028824,0,0,0,0.047125,0.012173,0.017789,-19.686,0.025696,0.03251,1.5886e-06,0.01,0.94,0
0.00065961,-0.00059877,0.043819,0.013688,0.017252,-0.01104,0,0,0.034537,-0.0046332,0,-0.028703,0,0,0,0.047431,0.010077,0.017252,-18.116,0.02492,0.034334,1.7764e-06,0.02,0.94,0
0.0010128,-0.0009149,0.044351,0.01121,0.016668,-0.010559,0,0,0.035988,-0.0070957,0,-0.027452,0,0,0,0.047429,0.0081322,0.016668,-16.252,0.024077,0.035801,1.9126e-06,0.03,0.94,0
0.0013794,-0.0012301,0.044669,0.0089853,0.016096,-0.0097408,0,0,0.037144,-0.0092441,0,-0.025326,0,0,0,0.047155,0.0064995,0.016096,-14.316,0.02325,0.036807,1.9861e-06,0.04,0.94,0
0.0017557,-0.0015375,0.044738,0.0071399,0.015563,-0.008739,0,0,0.037927,-0.01095,0,-0.022721,0,0,0,0.04667,0.005208,0.015563,-12.466,0.02248,0.037376,2.0038e-06,0.05,0.94,0
0.0021379,-0.0018325,0.044581,0.0056765,0.015077,-0.0076896,0,0,0.038354,-0.012221,0,-0.019993,0,0,0,0.046045,0.0042118,0.015077,-10.785,0.021778,0.037597,1.9806e-06,0.06,0.94,0
0.0025228,-0.002113,0.044254,0.0045399,0.014638,-0.0066829,0,0,0.038501,-0.013128,0,-0.017376,0,0,0,0.045349,0.0034455,0.014638,-9.3003,0.021144,0.037579,1.9324e-06,0.07,0.94,0
0.0029079,-0.0023784,0.043822,0.0036618,0.014245,-0.0057643,0,0,0.03845,-0.013758,0,-0.014987,0,0,0,0.044633,0.0028508,0.014245,-8.0085,0.020576,0.03741,1.8718e-06,0.08,0.94,0
0.0032918,-0.002629,0.043336,0.0029823,0.013895,-0.0049491,0,0,0.038273,-0.014187,0,-0.012868,0,0,0,0.043934,0.0023841,0.013895,-6.8909,0.020071,0.037157,1.8073e-06,0.09,0.94,0
0.0036734,-0.0028654,0.042836,0.0024531,0.013587,-0.0042364,0,0,0.038024,-0.014474,0,-0.011014,0,0,0,0.043275,0.0020134,0.013587,-5.9247,0.019625,0.036864,1.7439e-06,0.1,0.94,0
0.0040522,-0.0030886,0.042345,0.0020376,0.013315,-0.0036176,0,0,0.037739,-0.01466,0,-0.0094057,0,0,0,0.042667,0.0017155,0.013315,-5.0881,0.019232,0.036559,1.6843e-06,0.11,0.94,0
0.0044281,-0.0032996,0.041879,0.0017083,0.013076,-0.0030816,0,0,0.037444,-0.014778,0,-0.0080122,0,0,0,0.042114,0.0014732,0.013076,-4.3613,0.018888,0.036259,1.6298e-06,0.12,0.94,0
0.0048011,-0.0034995,0.041446,0.0014447,0.012867,-0.0026172,0,0,0.037152,-0.014849,0,-0.0068048,0,0,0,0.041616,0.0012742,0.012867,-3.7277,0.018586,0.035975,1.5809e-06,0.13,0.94,0
0.0051712,-0.0036891,0.041049,0.0012316,0.012684,-0.0022141,0,0,0.036874,-0.014888,0,-0.0057566,0,0,0,0.041171,0.0011089,0.012684,-3.173,0.018321,0.035711,1.5373e-06,0.14,0.94,0
0.0055386,-0.0038694,0.040689,0.0010577,0.012524,-0.001863,0,0,0.036614,-0.014906,0,-0.0048439,0,0,0,0.040776,0.00097035,0.012524,-2.6856,0.01809,0.03547,1.4989e-06,0.15,0.94,0
0.0059035,-0.0040411,0.040365,0.00091447,0.012384,-0.0015565,0,0,0.036376,-0.01491,0,-0.0040468,0,0,0,0.040427,0.00085316,0.012384,-2.2558,0.017888,0.035252,1.4652e-06,0.16,0.94,0
0.0062661,-0.004205,0.040077,0.00079535,0.012262,-0.0012878,0,0,0.036159,-0.014906,0,-0.0033482,0,0,0,0.040119,0.00075318,0.012262,-1.8757,0.017711,0.035058,1.4358e-06,0.17,0.94,0
0.0066267,-0.0043618,0.03982,0.00069544,0.012155,-0.0010516,0,0,0.035965,-0.014897,0,-0.0027341,0,0,0,0.039849,0.00066719,0.012155,-1.5385,0.017557,0.034886,1.4102e-06,0.18,0.94,0
0.0069854,-0.0045122,0.039594,0.0006109,0.012061,-0.00084339,0,0,0.035792,-0.014886,0,-0.0021928,0,0,0,0.039612,0.00059266,0.012061,-1.2388,0.017422,0.034735,1.388e-06,0.19,0.94,0
0.0073425,-0.0046568,0.039395,0.00053877,0.01198,-0.0006594,0,0,0.035639,-0.014874,0,-0.0017144,0,0,0,0.039406,0.00052758,0.01198,-0.97195,0.017305,0.034604,1.3689e-06,0.2,0.94,0
0.0076982,-0.0047961,0.039221,0.00047671,0.011909,-0.00049652,0,0,0.035505,-0.014862,0,-0.0012909,0,0,0,0.039227,0.00047034,0.011909,-0.7341,0.017202,0.034491,1.3525e-06,0.21,0.94,0
0.0080526,-0.0049308,0.039069,0.00042285,0.011848,-0.00035216,0,0,0.035388,-0.014852,0,-0.00091563,0,0,0,0.039072,0.00041964,0.011848,-0.52205,0.017113,0.034394,1.3384e-06,0.22,0.94,0
0.008406,-0.0050612,0.038938,0.00037572,0.011794,-0.0002242,0,0,0.035287,-0.014844,0,-0.00058292,0,0,0,0.038939,0.00037441,0.011794,-0.33311,0.017036,0.034311,1.3263e-06,0.23,0.94,0
0.0087583,-0.0051878,0.038824,0.00033408,0.011747,-0.00011087,0,0,0.035199,-0.014837,0,-0.00028825,0,0,0,0.038824,0.00033376,0.011747,-0.16503,0.016968,0.034241,1.3161e-06,0.24,0.94,0
0.0091099,-0.0053112,0.038726,0.00029694,0.011707,-1.0709e-05,0,0,0.035125,-0.014833,0,-2.7843e-05,0,0,0,0.038726,0.00029694,0.011707,-0.015967,0.01691,0.034183,1.3075e-06,0.25,0.94,0
0.0094608,-0.0054319,0.038641,0.00026346,0.011671,7.7438e-05,0,0,0.035061,-0.01483,0,0.00020134,0,0,0,0.038641,0.0002633,0.011671,0.11561,0.016859,0.034135,1.3001e-06,0.26,0.94,0
0.0098111,-0.0055501,0.038568,0.0002329,0.01164,0.0001545,0,0,0.035006,-0.01483,0,0.00040171,0,0,0,0.038568,0.00023227,0.01164,0.23092,0.016814,0.034095,1.2939e-06,0.27,0.94,0
0.010161,-0.0056665,0.038504,0.00020462,0.011613,0.00022119,0,0,0.034959,-0.01483,0,0.0005751,0,0,0,0.038506,0.00020334,0.011613,0.33088,0.016774,0.034062,1.2887e-06,0.28,0.94,0
0.01051,-0.0057813,0.038448,0.00017803,0.011588,0.000278,0,0,0.034919,-0.014833,0,0.0007228,0,0,0,0.03845,0.00017601,0.011588,0.41618,0.016738,0.034035,1.2841e-06,0.29,0.94,0
0.010859,-0.0058951,0.038398,0.00015257,0.011565,0.00032523,0,0,0.034883,-0.014836,0,0.00084559,0,0,0,0.038401,0.0001498,0.011565,0.48718,0.016705,0.034012,1.2801e-06,0.3,0.94,0
0.011208,-0.0060083,0.038351,0.00012764,0.011544,0.00036295,0,0,0.03485,-0.014841,0,0.00094368,0,0,0,0.038355,0.00012419,0.011544,0.54399,0.016674,0.033991,1.2764e-06,0.31,0.94,0
0.011556,-0.0061214,0.038306,0.00010263,0.011523,0.00039104,0,0,0.034819,-0.014846,0,0.0010167,0,0,0,0.03831,9.8629e-05,0.011523,0.58638,0.016644,0.033972,1.2729e-06,0.32,0.94,0
0.011904,-0.0062347,0.03826,7.6835e-05,0.011501,0.00040909,0,0,0.034787,-0.014852,0,0.0010636,0,0,0,0.038264,7.2452e-05,0.011501,0.61376,0.016613,0.033952,1.2693e-06,0.33,0.94,0
0.012252,-0.0063488,0.038211,4.9403e-05,0.011478,0.00041642,0,0,0.034753,-0.014857,0,0.0010827,0,0,0,0.038216,4.486e-05,0.011478,0.6251,0.01658,0.033931,1.2654e-06,0.34,0.94,0
0.012599,-0.0064643,0.038157,1.9272e-05,0.011453,0.00041196,0,0,0.034715,-0.014864,0,0.0010711,0,0,0,0.038161,1.4823e-05,0.011453,0.61881,0.016543,0.033907,1.2611e-06,0.35,0.94,0
0.012946,-0.0065815,0.038094,-1.4945e-05,0.011424,0.00039422,0,0,0.034672,-0.01487,0,0.001025,0,0,0,0.038098,-1.9023e-05,0.011424,0.59261,0.016501,0.033878,1.256e-06,0.36,0.94,0
0.013293,-0.0067011,0.03802,-5.5116e-05,0.01139,0.00036113,0,0,0.03462,-0.014878,0,0.00093894,0,0,0,0.038024,-5.8541e-05,0.01139,0.54336,0.016452,0.033843,1.2501e-06,0.37,0.94,0
0.013639,-0.0068238,0.037932,-0.00010382,0.011349,0.00030989,0,0,0.034559,-0.014888,0,0.00080571,0,0,0,0.037935,-0.00010634,0.011349,0.46676,0.016392,0.033802,1.243e-06,0.38,0.94,0
0.013984,-0.0069502,0.037827,-0.00016468,0.011299,0.00023678,0,0,0.034487,-0.014902,0,0.00061563,0,0,0,0.037829,-0.00016616,0.011299,0.35707,0.01632,0.033756,1.2346e-06,0.39,0.94,0
0.014328,-0.007081,0.037701,-0.00024294,0.011237,0.00013694,0,0,0.034403,-0.014925,0,0.00035605,0,0,0,0.037702,-0.00024343,0.011237,0.20678,0.016232,0.033705,1.2249e-06,0.4,0.94,0
0.014672,-0.0072172,0.037553,-0.00034619,0.011162,4.1537e-06,0,0,0.034308,-0.014961,0,1.08e-05,0,0,0,0.037553,-0.00034619,0.011162,0.0062795,0.016123,0.033654,1.214e-06,0.41,0.94,0
0.015015,-0.0073596,0.037381,-0.00048566,0.011069,-0.00016924,0,0,0.034206,-0.015021,0,-0.00044001,0,0,0,0.037382,-0.00048642,0.011069,-0.25606,0.015988,0.033615,1.2022e-06,0.42,0.94,0
0.015356,-0.0075093,0.037188,-0.00067796,0.010953,-0.00039193,0,0,0.034106,-0.01512,0,-0.001019,0,0,0,0.037192,-0.00068202,0.010953,-0.59294,0.015821,0.033603,1.1904e-06,0.43,0.94,0
0.015697,-0.0076674,0.036983,-0.00094759,0.010811,-0.00067221,0,0,0.034024,-0.015286,0,-0.0017477,0,0,0,0.036995,-0.0009595,0.010811,-1.015,0.015615,0.03365,1.1805e-06,0.44,0.94,0
0.016037,-0.007835,0.036781,-0.00133,0.010635,-0.0010142,0,0,0.033989,-0.015555,0,-0.0026371,0,0,0,0.036808,-0.001357,0.010635,-1.5234,0.015362,0.033803,1.1751e-06,0.45,0.94,0
0.016377,-0.0080129,0.036605,-0.0018733,0.01042,-0.0014109,0,0,0.034041,-0.015981,0,-0.0036682,0,0,0,0.036657,-0.001925,0.01042,-2.0971,0.01505,0.034127,1.1777e-06,0.46,0.94,0
0.016717,-0.0082017,0.036483,-0.0026336,0.010155,-0.0018332,0,0,0.034227,-0.016625,0,-0.0047663,0,0,0,0.036569,-0.0027193,0.010155,-2.6773,0.014668,0.034692,1.1917e-06,0.47,0.94,0
0.017061,-0.0084006,0.036433,-0.0036545,0.0098335,-0.0022231,0,0,0.034579,-0.017534,0,-0.00578,0,0,0,0.036556,-0.0037774,0.0098335,-3.1644,0.014204,0.035539,1.2179e-06,0.48,0.94,0
0.017409,-0.0086076,0.036449,-0.0049306,0.0094556,-0.0024988,0,0,0.035092,-0.018702,0,-0.0064968,0,0,0,0.036599,-0.0050809,0.0094556,-3.4432,0.013658,0.036643,1.2526e-06,0.49,0.94,0
0.017763,-0.008819,0.03643,-0.00090051,0.010659,-0.0025954,0,0,0.049313,-0.020036,0,-0.010124,0,0,0,0.036613,-0.0010837,0.010659,-4.0372,0.015396,0.033481,1.1145e-06,0.5,0.94,0
0.018395,-0.0090979,0.036583,0.0037764,0.012108,-0.0025265,0,0,0.063635,-0.021662,0,-0.013138,0,0,0,0.036776,0.0035829,0.012108,-4.378,0.017489,0.029858,1.0007e-06,0.51,0.94,0
0.019036,-0.009371,0.036629,0.0029728,0.01188,-0.0023397,0,0,0.064345,-0.02316,0,-0.012167,0,0,0,0.036791,0.0028109,0.01188,-3.9577,0.017161,0.030475,1.0313e-06,0.52,0.94,0
0.019682,-0.0096335,0.036628,0.0022884,0.011675,-0.002075,0,0,0.064879,-0.024405,0,-0.01079,0,0,0,0.036753,0.0021634,0.011675,-3.4454,0.016864,0.03095,1.0519e-06,0.53,0.94,0
0.020333,-0.0098824,0.036576,0.0017445,0.011496,-0.0017756,0,0,0.065208,-0.025355,0,-0.0092331,0,0,0,0.036667,0.0016542,0.011496,-2.9107,0.016606,0.031275,1.0626e-06,0.54,0.94,0
0.020986,-0.010116,0.03648,0.0013304,0.011343,-0.0014781,0,0,0.065356,-0.026033,0,-0.0076861,0,0,0,0.036542,0.0012684,0.011343,-2.4037,0.016384,0.03147,1.0651e-06,0.55,0.94,0
0.02164,-0.010334,0.036354,0.0010215,0.011213,-0.0012051,0,0,0.065367,-0.026497,0,-0.0062663,0,0,0,0.036395,0.0009804,0.011213,-1.9511,0.016196,0.031568,1.062e-06,0.56,0.94,0
0.022294,-0.010537,0.036214,0.0007917,0.011102,-0.00096612,0,0,0.065293,-0.026806,0,-0.0050238,0,0,0,0.036241,0.00076536,0.011102,-1.5611,0.016036,0.031601,1.0555e-06,0.57,0.94,0
0.022946,-0.010726,0.036074,0.0006199,0.011008,-0.00076261,0,0,0.06517,-0.027009,0,-0.0039656,0,0,0,0.03609,0.00060351,0.011008,-1.2317,0.015901,0.031596,1.0477e-06,0.58,0.94,0
0.023597,-0.010901,0.03594,0.0004902,0.010929,-0.00059173,0,0,0.065028,-0.027141,0,-0.003077,0,0,0,0.03595,0.00048032,0.010929,-0.95604,0.015786,0.03157,1.0394e-06,0.59,0.94,0
0.024247,-0.011064,0.035818,0.00039109,0.010863,-0.00044922,0,0,0.064884,-0.027226,0,-0.0023359,0,0,0,0.035824,0.00038539,0.010863,-0.72637,0.015691,0.031533,1.0315e-06,0.6,0.94,0
0.024895,-0.011216,0.035709,0.00031438,0.010807,-0.00033066,0,0,0.064746,-0.027281,0,-0.0017194,0,0,0,0.035713,0.00031129,0.010807,-0.5352,0.01561,0.031494,1.0242e-06,0.61,0.94,0
0.025542,-0.011358,0.035615,0.00025425,0.010761,-0.00023207,0,0,0.064621,-0.027317,0,-0.0012068,0,0,0,0.035617,0.00025272,0.010761,-0.376,0.015543,0.031455,1.0178e-06,0.62,0.94,0
0.026187,-0.01149,0.035534,0.0002065,0.010722,-0.00015003,0,0,0.064511,-0.027341,0,-0.00078016,0,0,0,0.035535,0.00020587,0.010722,-0.24332,0.015488,0.03142,1.0123e-06,0.63,0.94,0
0.026832,-0.011614,0.035466,0.00016814,0.01069,-8.1727e-05,0,0,0.064417,-0.027357,0,-0.00042498,0,0,0,0.035466,0.00016795,0.01069,-0.13266,0.015442,0.031389,1.0076e-06,0.64,0.94,0
0.027476,-0.011729,0.035409,0.00013696,0.010664,-2.4844e-05,0,0,0.064338,-0.02737,0,-0.00012919,0,0,0,0.035409,0.00013695,0.010664,-0.040357,0.015403,0.031363,1.0037e-06,0.65,0.94,0
0.028119,-0.011837,0.035363,0.00011135,0.010642,2.2494e-05,0,0,0.064273,-0.02738,0,0.00011697,0,0,0,0.035363,0.00011134,0.010642,0.036561,0.015372,0.031342,1.0005e-06,0.66,0.94,0
0.028761,-0.011938,0.035326,9.0109e-05,0.010625,6.1815e-05,0,0,0.064222,-0.02739,0,0.00032144,0,0,0,0.035326,9.0001e-05,0.010625,0.10052,0.015347,0.031326,9.98e-07,0.67,0.94,0
0.029403,-0.012033,0.035296,7.2322e-05,0.010611,9.436e-05,0,0,0.064183,-0.0274,0,0.00049067,0,0,0,0.035297,7.2069e-05,0.010611,0.15349,0.015326,0.031315,9.9608e-07,0.68,0.94,0
0.030045,-0.012121,0.035274,5.7302e-05,0.010599,0.00012115,0,0,0.064155,-0.02741,0,0.00062996,0,0,0,0.035275,5.6885e-05,0.010599,0.19709,0.01531,0.031307,9.9468e-07,0.69,0.94,0
0.030686,-0.012204,0.035258,4.452e-05,0.010591,0.00014301,0,0,0.064135,-0.027421,0,0.00074363,0,0,0,0.035259,4.3939e-05,0.010591,0.23268,0.015298,0.031304,9.9374e-07,0.7,0.94,0
0.031328,-0.012281,0.035248,3.3564e-05,0.010584,0.00016063,0,0,0.064125,-0.027432,0,0.00083529,0,0,0,0.035249,3.2831e-05,0.010584,0.26135,0.015289,0.031303,9.932e-07,0.71,0.94,0
0.031969,-0.012354,0.035242,2.4111e-05,0.01058,0.0001746,0,0,0.064121,-0.027445,0,0.0009079,0,0,0,0.035243,2.3245e-05,0.01058,0.28404,0.015282,0.031306,9.93e-07,0.72,0.94,0
0.03261,-0.012421,0.03524,1.5905e-05,0.010577,0.00018538,0,0,0.064124,-0.027458,0,0.00096396,0,0,0,0.035241,1.493e-05,0.010577,0.30152,0.015278,0.031311,9.931e-07,0.73,0.94,0
0.033251,-0.012485,0.035242,8.7442e-06,0.010575,0.00019338,0,0,0.064133,-0.027472,0,0.0010056,0,0,0,0.035243,7.6829e-06,0.010575,0.31446,0.015275,0.031318,9.9345e-07,0.74,0.94,0
0.033892,-0.012544,0.035246,2.4634e-06,0.010575,0.00019894,0,0,0.064145,-0.027487,0,0.0010345,0,0,0,0.035247,1.3405e-06,0.010575,0.32341,0.015274,0.031327,9.9402e-07,0.75,0.94,0
0.034534,-0.012599,0.035253,-3.0695e-06,0.010575,0.00020236,0,0,0.064162,-0.027503,0,0.0010523,0,0,0,0.035254,-4.231e-06,0.010575,0.32885,0.015275,0.031338,9.9477e-07,0.76,0.94,0
0.035176,-0.012651,0.035261,-7.9629e-06,0.010576,0.00020388,0,0,0.064182,-0.027518,0,0.0010602,0,0,0,0.035263,-9.1414e-06,0.010576,0.33119,0.015277,0.031349,9.9566e-07,0.77,0.94,0
0.035818,-0.012699,0.035272,-1.2306e-05,0.010578,0.00020372,0,0,0.064204,-0.027534,0,0.0010593,0,0,0,0.035273,-1.3482e-05,0.010578,0.33079,0.015279,0.031362,9.9668e-07,0.78,0.94,0
0.03646,-0.012744,0.035284,-1.6171e-05,0.01058,0.00020206,0,0,0.064229,-0.027551,0,0.0010507,0,0,0,0.035285,-1.7328e-05,0.01058,0.32795,0.015283,0.031376,9.9779e-07,0.79,0.94,0
0.037102,-0.012785,0.035296,-1.962e-05,0.010583,0.00019907,0,0,0.064255,-0.027567,0,0.0010351,0,0,0,0.035297,-2.0743e-05,0.010583,0.32295,0.015287,0.03139,9.9897e-07,0.8,0.94,0
0.037745,-0.012824,0.03531,-2.2705e-05,0.010586,0.00019488,0,0,0.064282,-0.027583,0,0.0010134,0,0,0,0.035311,-2.378e-05,0.010586,0.31601,0.015291,0.031404,1.0002e-06,0.81,0.94,0
0.038388,-0.01286,0.035324,-2.5467e-05,0.010589,0.00018963,0,0,0.064309,-0.027599,0,0.00098607,0,0,0,0.035325,-2.6485e-05,0.010589,0.30735,0.015296,0.031419,1.0015e-06,0.82,0.94,0
0.039031,-0.012893,0.035338,-2.7944e-05,0.010593,0.00018342,0,0,0.064337,-0.027614,0,0.00095379,0,0,0,0.035339,-2.8895e-05,0.010593,0.29715,0.015301,0.031433,1.0027e-06,0.83,0.94,0
0.039675,-0.012924,0.035352,-3.0166e-05,0.010597,0.00017636,0,0,0.064365,-0.02763,0,0.00091705,0,0,0,0.035353,-3.1044e-05,0.010597,0.28557,0.015306,0.031447,1.004e-06,0.84,0.94,0
0.040318,-0.012952,0.035366,-3.2158e-05,0.0106,0.00016852,0,0,0.064392,-0.027644,0,0.00087632,0,0,0,0.035367,-3.2961e-05,0.0106,0.27276,0.015312,0.031461,1.0053e-06,0.85,0.94,0
0.040962,-0.012978,0.03538,-3.3945e-05,0.010604,0.00016,0,0,0.064419,-0.027658,0,0.000832,0,0,0,0.035381,-3.4667e-05,0.010604,0.25885,0.015317,0.031475,1.0065e-06,0.86,0.94,0
0.041607,-0.013002,0.035394,-3.5544e-05,0.010607,0.00015086,0,0,0.064444,-0.027672,0,0.00078447,0,0,0,0.035394,-3.6186e-05,0.010607,0.24396,0.015322,0.031488,1.0077e-06,0.87,0.94,0
0.042251,-0.013023,0.035407,-3.6972e-05,0.010611,0.00014117,0,0,0.064469,-0.027685,0,0.00073408,0,0,0,0.035407,-3.7534e-05,0.010611,0.2282,0.015327,0.031501,1.0088e-06,0.88,0.94,0
0.042896,-0.013043,0.035419,-3.8243e-05,0.010614,0.00013099,0,0,0.064492,-0.027696,0,0.00068113,0,0,0,0.035419,-3.8727e-05,0.010614,0.21166,0.015332,0.031512,1.0099e-06,0.89,0.94,0
0.043541,-0.013061,0.03543,-3.9369e-05,0.010617,0.00012037,0,0,0.064514,-0.027707,0,0.00062592,0,0,0,0.035431,-3.9777e-05,0.010617,0.19443,0.015336,0.031523,1.0109e-06,0.9,0.94,0
0.044186,-0.013076,0.035441,-4.0361e-05,0.01062,0.00010936,0,0,0.064534,-0.027718,0,0.00056869,0,0,0,0.035442,-4.0698e-05,0.01062,0.1766,0.01534,0.031534,1.0119e-06,0.91,0.94,0
0.044832,-0.01309,0.035451,-4.1227e-05,0.010623,9.8022e-05,0,0,0.064553,-0.027727,0,0.00050971,0,0,0,0.035451,-4.1498e-05,0.010623,0.15824,0.015344,0.031543,1.0127e-06,0.92,0.94,0
0.045477,-0.013102,0.03546,-4.1975e-05,0.010625,8.6386e-05,0,0,0.064569,-0.027735,0,0.00044921,0,0,0,0.03546,-4.2186e-05,0.010625,0.13942,0.015348,0.031551,1.0135e-06,0.93,0.94,0
0.046123,-0.013113,0.035467,-4.2612e-05,0.010627,7.4498e-05,0,0,0.064584,-0.027742,0,0.00038739,0,0,0,0.035468,-4.2768e-05,0.010627,0.1202,0.015351,0.031558,1.0142e-06,0.94,0.94,0
0.046769,-0.013122,0.035474,-4.3142e-05,0.010629,6.2398e-05,0,0,0.064596,-0.027748,0,0.00032447,0,0,0,0.035474,-4.3252e-05,0.010629,0.10066,0.015353,0.031565,1.0147e-06,0.95,0.94,0
0.047415,-0.013129,0.035479,-4.357e-05,0.010631,5.0124e-05,0,0,0.064607,-0.027753,0,0.00026064,0,0,0,0.03548,-4.3641e-05,0.010631,0.080845,0.015356,0.03157,1.0152e-06,0.96,0.94,0
0.048061,-0.013134,0.035484,-4.39e-05,0.010632,3.7712e-05,0,0,0.064615,-0.027757,0,0.0001961,0,0,0,0.035484,-4.394e-05,0.010632,0.060818,0.015357,0.031574,1.0156e-06,0.97,0.94,0
0.048708,-0.013138,0.035487,-4.4134e-05,0.010633,2.5198e-05,0,0,0.064621,-0.02776,0,0.00013103,0,0,0,0.035487,-4.4151e-05,0.010633,0.040633,0.015359,0.031577,1.0158e-06,0.98,0.94,0
0.049354,-0.013141,0.035489,-4.4273e-05,0.010633,1.2616e-05,0,0,0.064624,-0.027762,0,6.5602e-05,0,0,0,0.035489,-4.4277e-05,0.010633,0.020342,0.015359,0.031579,1.016e-06,0.99,0.94,0
0.05,-0.013142,0.035489,-4.4319e-05,0.010634,-1.5047e-05,0,0,0.064625,-0.027762,0,-7.8243e-05,0,0,0,0.035489,-4.4326e-05,0.010634,-0.024262,0.015359,0.031579,1.0161e-06,1,0.94,0
0,0,0.045053,0.019308,0.019308,-0.012082,0,0,0.033468,-7.5894e-19,0,-0.031414,0,0,0,0.049835,0.014526,0.019308,-21.593,0.02789,0.033177,1.745e-06,0,0.95,0
0.00033468,-0.00031414,0.044796,0.01631,0.018332,-0.011911,0,0,0.034403,-0.0026283,0,-0.030969,0,0,0,0.04912,0.011986,0.018332,-19.953,0.026479,0.034403,1.8537e-06,0.01,0.95,0
0.00068807,-0.0006494,0.045497,0.013229,0.017618,-0.011732,0,0,0.036243,-0.0057057,0,-0.030503,0,0,0,0.049312,0.0094144,0.017618,-18.011,0.025448,0.036494,2.0773e-06,0.02,0.95,0
0.0010596,-0.00099209,0.045984,0.010267,0.016875,-0.010949,0,0,0.037842,-0.0085912,0,-0.028469,0,0,0,0.049074,0.0071773,0.016875,-15.757,0.024376,0.037988,2.2089e-06,0.03,0.95,0
0.0014449,-0.0013298,0.046146,0.0078146,0.016188,-0.0097845,0,0,0.038945,-0.010886,0,-0.02544,0,0,0,0.048499,0.0054614,0.016188,-13.523,0.023383,0.038803,2.2454e-06,0.04,0.95,0
0.0018384,-0.0016542,0.045967,0.0059446,0.015574,-0.0084901,0,0,0.039512,-0.012518,0,-0.022074,0,0,0,0.047694,0.0042181,0.015574,-11.495,0.022495,0.039056,2.2103e-06,0.05,0.95,0
0.0022351,-0.0019614,0.045526,0.0045667,0.015028,-0.0072454,0,0,0.039647,-0.013599,0,-0.018838,0,0,0,0.04677,0.0033228,0.015028,-9.7416,0.021707,0.038937,2.1337e-06,0.06,0.95,0
0.0026314,-0.0022501,0.044925,0.0035536,0.014544,-0.0061325,0,0,0.039496,-0.014287,0,-0.015945,0,0,0,0.045815,0.0026637,0.014544,-8.2565,0.021007,0.038608,2.0395e-06,0.07,0.95,0
0.0030251,-0.0025209,0.044259,0.0028047,0.014119,-0.0051728,0,0,0.039182,-0.014709,0,-0.013449,0,0,0,0.044894,0.0021689,0.014119,-7.0065,0.020394,0.03818,1.9428e-06,0.08,0.95,0
0.003415,-0.0027749,0.043586,0.0022449,0.013749,-0.0043584,0,0,0.038788,-0.014956,0,-0.011332,0,0,0,0.04404,0.0017904,0.013749,-5.9533,0.01986,0.03772,1.8513e-06,0.09,0.95,0
0.0038008,-0.0030135,0.042942,0.001821,0.013429,-0.0036711,0,0,0.038367,-0.01509,0,-0.0095449,0,0,0,0.043267,0.0014959,0.013429,-5.0618,0.019397,0.037266,1.7683e-06,0.1,0.95,0
0.0041824,-0.0032379,0.042345,0.0014958,0.013152,-0.0030909,0,0,0.03795,-0.015153,0,-0.0080364,0,0,0,0.042577,0.0012632,0.013152,-4.3028,0.018997,0.036838,1.6948e-06,0.11,0.95,0
0.0045598,-0.0034496,0.041801,0.0012427,0.012913,-0.0025995,0,0,0.037555,-0.015172,0,-0.0067588,0,0,0,0.041967,0.0010768,0.012913,-3.6523,0.018652,0.036444,1.6306e-06,0.12,0.95,0
0.0049334,-0.0036498,0.041314,0.0010433,0.012707,-0.0021813,0,0,0.037189,-0.015163,0,-0.0056715,0,0,0,0.041432,0.0009255,0.012707,-3.0915,0.018355,0.036088,1.575e-06,0.13,0.95,0
0.0053036,-0.0038395,0.040881,0.00088419,0.01253,-0.0018235,0,0,0.036857,-0.015139,0,-0.0047412,0,0,0,0.040964,0.00080123,0.01253,-2.6051,0.018098,0.035771,1.5271e-06,0.14,0.95,0
0.0056706,-0.0040196,0.040498,0.00075574,0.012376,-0.0015157,0,0,0.036559,-0.015107,0,-0.0039408,0,0,0,0.040556,0.00069801,0.012376,-2.1809,0.017877,0.03549,1.4859e-06,0.15,0.95,0
0.0060348,-0.0041912,0.040163,0.00065088,0.012244,-0.0012493,0,0,0.036294,-0.015071,0,-0.0032483,0,0,0,0.040202,0.00061142,0.012244,-1.8093,0.017686,0.035245,1.4506e-06,0.16,0.95,0
0.0063965,-0.0043549,0.03987,0.0005644,0.01213,-0.0010177,0,0,0.036062,-0.015036,0,-0.0026461,0,0,0,0.039896,0.00053807,0.01213,-1.4822,0.017522,0.035032,1.4205e-06,0.17,0.95,0
0.006756,-0.0045115,0.039616,0.00049237,0.012032,-0.00081539,0,0,0.035859,-0.015002,0,-0.00212,0,0,0,0.039633,0.00047538,0.012032,-1.1934,0.01738,0.034847,1.3949e-06,0.18,0.95,0
0.0071136,-0.0046616,0.039397,0.0004318,0.011949,-0.00063787,0,0,0.035683,-0.014972,0,-0.0016585,0,0,0,0.039407,0.00042136,0.011949,-0.93761,0.017259,0.03469,1.3731e-06,0.19,0.95,0
0.0074697,-0.004806,0.039209,0.00038042,0.011877,-0.00048157,0,0,0.035532,-0.014945,0,-0.0012521,0,0,0,0.039215,0.00037445,0.011877,-0.71046,0.017155,0.034556,1.3549e-06,0.2,0.95,0
0.0078243,-0.0049452,0.039049,0.00033645,0.011816,-0.00034355,0,0,0.035403,-0.014923,0,-0.00089323,0,0,0,0.039052,0.0003334,0.011816,-0.50841,0.017067,0.034444,1.3395e-06,0.21,0.95,0
0.0081777,-0.0050796,0.038914,0.0002985,0.011764,-0.00022141,0,0,0.035295,-0.014905,0,-0.00057566,0,0,0,0.038915,0.00029723,0.011764,-0.3285,0.016992,0.034352,1.3268e-06,0.22,0.95,0
0.0085302,-0.0052099,0.038801,0.00026544,0.01172,-0.00011317,0,0,0.035206,-0.014891,0,-0.00029425,0,0,0,0.038801,0.00026511,0.01172,-0.16827,0.016929,0.034276,1.3164e-06,0.23,0.95,0
0.0088818,-0.0053365,0.038708,0.0002364,0.011683,-1.7234e-05,0,0,0.035132,-0.014881,0,-4.4809e-05,0,0,0,0.038708,0.00023639,0.011683,-0.025667,0.016876,0.034216,1.3079e-06,0.24,0.95,0
0.0092328,-0.0054598,0.038631,0.00021064,0.011653,6.7729e-05,0,0,0.035072,-0.014875,0,0.0001761,0,0,0,0.038631,0.00021052,0.011653,0.101,0.016832,0.034168,1.3011e-06,0.25,0.95,0
0.0095833,-0.0055804,0.03857,0.00018756,0.011627,0.00014278,0,0,0.035026,-0.014872,0,0.00037124,0,0,0,0.038571,0.00018703,0.011627,0.21314,0.016795,0.034133,1.2958e-06,0.26,0.95,0
0.0099333,-0.0056987,0.038521,0.00016663,0.011606,0.00020878,0,0,0.034989,-0.014872,0,0.00054283,0,0,0,0.038522,0.0001655,0.011606,0.31187,0.016765,0.034107,1.2917e-06,0.27,0.95,0
0.010283,-0.005815,0.038483,0.00014742,0.011589,0.00026638,0,0,0.034962,-0.014874,0,0.00069258,0,0,0,0.038485,0.00014557,0.011589,0.3981,0.01674,0.03409,1.2887e-06,0.28,0.95,0
0.010633,-0.0059299,0.038454,0.00012951,0.011575,0.00031606,0,0,0.034942,-0.014879,0,0.00082175,0,0,0,0.038456,0.0001269,0.011575,0.47247,0.016719,0.034079,1.2865e-06,0.29,0.95,0
0.010982,-0.0060438,0.038431,0.00011251,0.011563,0.00035813,0,0,0.034928,-0.014886,0,0.00093113,0,0,0,0.038434,0.00010916,0.011563,0.53543,0.016702,0.034074,1.2849e-06,0.3,0.95,0
0.011331,-0.006157,0.038413,9.6036e-05,0.011553,0.00039273,0,0,0.034918,-0.014894,0,0.0010211,0,0,0,0.038417,9.2011e-05,0.011553,0.58717,0.016687,0.034072,1.2838e-06,0.31,0.95,0
0.01168,-0.0062701,0.038397,7.9679e-05,0.011543,0.0004198,0,0,0.03491,-0.014902,0,0.0010915,0,0,0,0.038401,7.508e-05,0.011543,0.62762,0.016673,0.034072,1.2829e-06,0.32,0.95,0
0.012029,-0.0063835,0.038381,6.2971e-05,0.011533,0.00043908,0,0,0.034903,-0.014911,0,0.0011416,0,0,0,0.038386,5.794e-05,0.011533,0.65643,0.016659,0.034072,1.282e-06,0.33,0.95,0
0.012378,-0.0064977,0.038364,4.5353e-05,0.011523,0.00045007,0,0,0.034893,-0.014921,0,0.0011702,0,0,0,0.038369,4.0067e-05,0.011523,0.67285,0.016644,0.034071,1.2809e-06,0.34,0.95,0
0.012727,-0.0066132,0.038341,2.6117e-05,0.01151,0.00045194,0,0,0.034881,-0.014929,0,0.001175,0,0,0,0.038347,2.0787e-05,0.01151,0.6757,0.016626,0.034067,1.2793e-06,0.35,0.95,0
0.013076,-0.0067305,0.038311,4.3278e-06,0.011495,0.00044346,0,0,0.034862,-0.014937,0,0.001153,0,0,0,0.038316,-8.0532e-07,0.011495,0.66317,0.016603,0.034057,1.2771e-06,0.36,0.95,0
0.013424,-0.0068502,0.03827,-2.1297e-05,0.011475,0.00042289,0,0,0.034834,-0.014945,0,0.0010995,0,0,0,0.038275,-2.5967e-05,0.011475,0.63267,0.016574,0.03404,1.2738e-06,0.37,0.95,0
0.013773,-0.0069729,0.038214,-5.2573e-05,0.011448,0.00038775,0,0,0.034795,-0.014951,0,0.0010082,0,0,0,0.038218,-5.6502e-05,0.011448,0.5805,0.016536,0.034014,1.2692e-06,0.38,0.95,0
0.01412,-0.0070994,0.038138,-9.2136e-05,0.011414,0.00033463,0,0,0.034742,-0.014958,0,0.00087005,0,0,0,0.038141,-9.5064e-05,0.011414,0.50146,0.016487,0.033977,1.263e-06,0.39,0.95,0
0.014467,-0.0072304,0.038039,-0.00014391,0.011369,0.00025877,0,0,0.034672,-0.014966,0,0.00067281,0,0,0,0.038041,-0.00014566,0.011369,0.38828,0.016421,0.033928,1.2548e-06,0.4,0.95,0
0.014814,-0.0073667,0.03791,-0.00021386,0.011309,0.00015363,0,0,0.034582,-0.01498,0,0.00039943,0,0,0,0.037911,-0.00021448,0.011309,0.23087,0.016335,0.033868,1.2444e-06,0.41,0.95,0
0.015159,-0.0075096,0.037748,-0.00031123,0.011231,1.0291e-05,0,0,0.034473,-0.015005,0,2.6757e-05,0,0,0,0.037748,-0.00031123,0.011231,0.015493,0.016223,0.0338,1.2318e-06,0.42,0.95,0
0.015503,-0.00766,0.037551,-0.00045061,0.01113,-0.00018296,0,0,0.034347,-0.015055,0,-0.00047569,0,0,0,0.037552,-0.00045149,0.01113,-0.27584,0.016077,0.033738,1.2174e-06,0.43,0.95,0
0.015846,-0.0078194,0.03732,-0.00065532,0.010999,-0.00044052,0,0,0.034216,-0.015151,0,-0.0011454,0,0,0,0.037325,-0.00066043,0.010999,-0.66453,0.015888,0.033703,1.2024e-06,0.44,0.95,0
0.016188,-0.0079892,0.037068,-0.00096268,0.010832,-0.00077705,0,0,0.034107,-0.015333,0,-0.0020203,0,0,0,0.037084,-0.00097855,0.010832,-1.17,0.015646,0.033745,1.1896e-06,0.45,0.95,0
0.016528,-0.0081711,0.036825,-0.0014323,0.010618,-0.0011995,0,0,0.034069,-0.015665,0,-0.0031188,0,0,0,0.036862,-0.0014698,0.010618,-1.7942,0.015337,0.033943,1.1837e-06,0.46,0.95,0
0.016869,-0.0083661,0.036629,-0.0021515,0.010343,-0.0016898,0,0,0.034172,-0.016243,0,-0.0043934,0,0,0,0.036703,-0.0022249,0.010343,-2.4902,0.01494,0.03441,1.1907e-06,0.47,0.95,0
0.017212,-0.0085743,0.036518,-0.0032176,0.0099901,-0.0021811,0,0,0.034486,-0.01717,0,-0.0056708,0,0,0,0.036637,-0.0033369,0.0099901,-3.1324,0.01443,0.035254,1.2147e-06,0.48,0.95,0
0.017559,-0.0087937,0.036495,-0.0046726,0.0095466,-0.0025523,0,0,0.035032,-0.018485,0,-0.0066359,0,0,0,0.036652,-0.0048302,0.0095466,-3.5342,0.01379,0.036484,1.2524e-06,0.49,0.95,0
0.017912,-0.0090195,0.036432,-0.00093178,0.01065,-0.0026888,0,0,0.049353,-0.020075,0,-0.010498,0,0,0,0.036629,-0.0011283,0.01065,-4.1774,0.015383,0.033531,1.1164e-06,0.5,0.95,0
0.018546,-0.0093158,0.036589,0.0036044,0.012058,-0.0025977,0,0,0.063781,-0.021979,0,-0.013508,0,0,0,0.036792,0.0034011,0.012058,-4.4755,0.017417,0.030014,1.0091e-06,0.51,0.95,0
0.019188,-0.0096048,0.036609,0.0026833,0.011788,-0.0023498,0,0,0.064536,-0.023672,0,-0.012219,0,0,0,0.036771,0.0025214,0.011788,-3.9434,0.017027,0.030685,1.0404e-06,0.52,0.95,0
0.019836,-0.0098801,0.036566,0.0019498,0.011555,-0.0020131,0,0,0.06503,-0.024973,0,-0.010468,0,0,0,0.036683,0.0018331,0.011555,-3.3171,0.01669,0.031148,1.0577e-06,0.53,0.95,0
0.020488,-0.010138,0.036458,0.0014125,0.011361,-0.0016556,0,0,0.065253,-0.025867,0,-0.0086092,0,0,0,0.036536,0.0013344,0.011361,-2.6987,0.016411,0.031413,1.0623e-06,0.54,0.95,0
0.021142,-0.010378,0.036302,0.0010339,0.011201,-0.0013242,0,0,0.065264,-0.026434,0,-0.006886,0,0,0,0.036352,0.00098422,0.011201,-2.1473,0.016179,0.031527,1.058e-06,0.55,0.95,0
0.021794,-0.010601,0.036124,0.00076864,0.011068,-0.0010395,0,0,0.065146,-0.026778,0,-0.0054056,0,0,0,0.036154,0.0007381,0.011068,-1.6827,0.015987,0.031546,1.0489e-06,0.56,0.95,0
0.022444,-0.010806,0.035944,0.00058073,0.010957,-0.00080413,0,0,0.064964,-0.026979,0,-0.0041815,0,0,0,0.035962,0.00056246,0.010957,-1.302,0.015827,0.031515,1.0378e-06,0.57,0.95,0
0.023093,-0.010996,0.035775,0.00044554,0.010866,-0.00061271,0,0,0.064764,-0.027094,0,-0.0031861,0,0,0,0.035786,0.00043492,0.010866,-0.99326,0.015696,0.03146,1.0266e-06,0.58,0.95,0
0.02374,-0.011173,0.035625,0.00034654,0.010792,-0.00045786,0,0,0.064568,-0.027157,0,-0.0023809,0,0,0,0.035631,0.0003406,0.010792,-0.74344,0.015588,0.031398,1.0163e-06,0.59,0.95,0
0.024384,-0.011336,0.035495,0.00027271,0.01073,-0.00033255,0,0,0.064389,-0.02719,0,-0.0017293,0,0,0,0.035499,0.00026957,0.01073,-0.54089,0.015499,0.031337,1.0072e-06,0.6,0.95,0
0.025027,-0.011489,0.035385,0.00021668,0.010681,-0.00023083,0,0,0.064232,-0.027206,0,-0.0012003,0,0,0,0.035387,0.00021517,0.010681,-0.37605,0.015428,0.031281,9.9934e-07,0.61,0.95,0
0.025669,-0.011631,0.035293,0.00017345,0.01064,-0.00014796,0,0,0.064099,-0.027213,0,-0.00076941,0,0,0,0.035294,0.00017283,0.01064,-0.24138,0.015369,0.031232,9.9279e-07,0.62,0.95,0
0.026309,-0.011763,0.035218,0.00013957,0.010607,-8.0203e-05,0,0,0.063988,-0.027216,0,-0.00041706,0,0,0,0.035218,0.00013938,0.010607,-0.131,0.015322,0.031192,9.8742e-07,0.63,0.95,0
0.026949,-0.011887,0.035158,0.00011262,0.010581,-2.4647e-05,0,0,0.063899,-0.027218,0,-0.00012816,0,0,0,0.035158,0.0001126,0.010581,-0.040295,0.015284,0.031159,9.8312e-07,0.64,0.95,0
0.027587,-0.012002,0.03511,9.0907e-05,0.01056,2.0975e-05,0,0,0.063829,-0.02722,0,0.00010907,0,0,0,0.03511,9.0894e-05,0.01056,0.034318,0.015254,0.031134,9.7975e-07,0.65,0.95,0
0.028225,-0.01211,0.035073,7.3194e-05,0.010544,5.8438e-05,0,0,0.063775,-0.027224,0,0.00030388,0,0,0,0.035073,7.3097e-05,0.010544,0.095666,0.01523,0.031115,9.772e-07,0.66,0.95,0
0.028863,-0.012212,0.035045,5.8583e-05,0.010531,8.9145e-05,0,0,0.063737,-0.027229,0,0.00046355,0,0,0,0.035046,5.8356e-05,0.010531,0.14599,0.015212,0.031103,9.7536e-07,0.67,0.95,0
0.0295,-0.012306,0.035026,4.6406e-05,0.010522,0.00011421,0,0,0.063711,-0.027236,0,0.00059388,0,0,0,0.035026,4.6033e-05,0.010522,0.18707,0.015198,0.031095,9.7414e-07,0.68,0.95,0
0.030137,-0.012394,0.035014,3.6162e-05,0.010515,0.00013452,0,0,0.063697,-0.027245,0,0.00069951,0,0,0,0.035014,3.5645e-05,0.010515,0.22035,0.015188,0.031093,9.7344e-07,0.69,0.95,0
0.030774,-0.012477,0.035008,2.7471e-05,0.010511,0.0001508,0,0,0.063692,-0.027256,0,0.00078418,0,0,0,0.035008,2.6821e-05,0.010511,0.247,0.015182,0.031095,9.732e-07,0.7,0.95,0
0.031411,-0.012555,0.035007,2.004e-05,0.010508,0.00016364,0,0,0.063696,-0.027269,0,0.00085095,0,0,0,0.035007,1.9274e-05,0.010508,0.26798,0.015178,0.0311,9.7334e-07,0.71,0.95,0
0.032048,-0.012627,0.03501,1.364e-05,0.010507,0.00017352,0,0,0.063707,-0.027283,0,0.00090232,0,0,0,0.035011,1.278e-05,0.010507,0.28408,0.015177,0.031108,9.7381e-07,0.72,0.95,0
0.032685,-0.012695,0.035017,8.0944e-06,0.010507,0.00018084,0,0,0.063724,-0.027298,0,0.00094039,0,0,0,0.035018,7.1603e-06,0.010507,0.29596,0.015177,0.031119,9.7456e-07,0.73,0.95,0
0.033322,-0.012759,0.035027,3.2602e-06,0.010509,0.00018594,0,0,0.063746,-0.027315,0,0.00096687,0,0,0,0.035028,2.2731e-06,0.010509,0.30417,0.01518,0.031131,9.7554e-07,0.74,0.95,0
0.03396,-0.012818,0.035039,-9.7557e-07,0.010511,0.00018908,0,0,0.063772,-0.027332,0,0.00098322,0,0,0,0.03504,-1.9959e-06,0.010511,0.30917,0.015183,0.031146,9.7671e-07,0.75,0.95,0
0.034598,-0.012873,0.035053,-4.7043e-06,0.010515,0.00019051,0,0,0.063801,-0.02735,0,0.00099068,0,0,0,0.035054,-5.7396e-06,0.010515,0.31135,0.015188,0.031162,9.7803e-07,0.76,0.95,0
0.035236,-0.012925,0.035069,-8.0003e-06,0.010518,0.00019044,0,0,0.063833,-0.027369,0,0.00099029,0,0,0,0.03507,-9.0342e-06,0.010518,0.31106,0.015193,0.031179,9.7947e-07,0.77,0.95,0
0.035874,-0.012973,0.035087,-1.0924e-05,0.010523,0.00018903,0,0,0.063867,-0.027388,0,0.00098297,0,0,0,0.035088,-1.1942e-05,0.010523,0.30858,0.015199,0.031196,9.8101e-07,0.78,0.95,0
0.036513,-0.013018,0.035105,-1.3526e-05,0.010528,0.00018644,0,0,0.063902,-0.027407,0,0.00096948,0,0,0,0.035106,-1.4516e-05,0.010528,0.30416,0.015206,0.031214,9.8262e-07,0.79,0.95,0
0.037153,-0.01306,0.035124,-1.5848e-05,0.010532,0.00018279,0,0,0.063938,-0.027425,0,0.0009505,0,0,0,0.035125,-1.6798e-05,0.010532,0.29803,0.015213,0.031233,9.8427e-07,0.8,0.95,0
0.037792,-0.013099,0.035143,-1.7923e-05,0.010538,0.0001782,0,0,0.063975,-0.027444,0,0.00092662,0,0,0,0.035144,-1.8826e-05,0.010538,0.29036,0.015221,0.031252,9.8595e-07,0.81,0.95,0
0.038432,-0.013135,0.035163,-1.9782e-05,0.010543,0.00017276,0,0,0.064011,-0.027463,0,0.00089836,0,0,0,0.035163,-2.063e-05,0.010543,0.28134,0.015229,0.03127,9.8763e-07,0.82,0.95,0
0.039072,-0.013168,0.035182,-2.1449e-05,0.010548,0.00016657,0,0,0.064048,-0.027481,0,0.00086618,0,0,0,0.035183,-2.2237e-05,0.010548,0.2711,0.015236,0.031289,9.893e-07,0.83,0.95,0
0.039713,-0.013199,0.035201,-2.2944e-05,0.010553,0.00015971,0,0,0.064084,-0.027498,0,0.00083048,0,0,0,0.035202,-2.3668e-05,0.010553,0.25978,0.015244,0.031307,9.9095e-07,0.84,0.95,0
0.040354,-0.013228,0.03522,-2.4285e-05,0.010559,0.00015224,0,0,0.064118,-0.027515,0,0.00079164,0,0,0,0.03522,-2.4943e-05,0.010559,0.24749,0.015251,0.031324,9.9255e-07,0.85,0.95,0
0.040995,-0.013254,0.035238,-2.5488e-05,0.010564,0.00014422,0,0,0.064152,-0.027532,0,0.00074997,0,0,0,0.035238,-2.6077e-05,0.010564,0.23433,0.015259,0.031341,9.941e-07,0.86,0.95,0
0.041637,-0.013278,0.035255,-2.6564e-05,0.010568,0.00013573,0,0,0.064185,-0.027547,0,0.00070577,0,0,0,0.035255,-2.7086e-05,0.010568,0.22041,0.015266,0.031357,9.9559e-07,0.87,0.95,0
0.042279,-0.0133,0.035271,-2.7526e-05,0.010573,0.00012679,0,0,0.064215,-0.027562,0,0.00065931,0,0,0,0.035272,-2.7981e-05,0.010573,0.2058,0.015272,0.031373,9.9701e-07,0.88,0.95,0
0.042921,-0.013319,0.035287,-2.8382e-05,0.010578,0.00011747,0,0,0.064244,-0.027575,0,0.00061085,0,0,0,0.035287,-2.8772e-05,0.010578,0.19058,0.015279,0.031387,9.9834e-07,0.89,0.95,0
0.043564,-0.013337,0.035301,-2.914e-05,0.010582,0.00010781,0,0,0.064271,-0.027588,0,0.00056059,0,0,0,0.035302,-2.9469e-05,0.010582,0.17483,0.015285,0.0314,9.9958e-07,0.9,0.95,0
0.044207,-0.013353,0.035315,-2.9808e-05,0.010585,9.7838e-05,0,0,0.064296,-0.0276,0,0.00050876,0,0,0,0.035315,-3.0079e-05,0.010585,0.1586,0.01529,0.031413,1.0007e-06,0.91,0.95,0
0.04485,-0.013367,0.035327,-3.0392e-05,0.010589,8.7604e-05,0,0,0.064318,-0.02761,0,0.00045554,0,0,0,0.035327,-3.0609e-05,0.010589,0.14196,0.015295,0.031424,1.0018e-06,0.92,0.95,0
0.045493,-0.013379,0.035338,-3.0896e-05,0.010592,7.7139e-05,0,0,0.064338,-0.02762,0,0.00040112,0,0,0,0.035338,-3.1064e-05,0.010592,0.12496,0.0153,0.031434,1.0027e-06,0.93,0.95,0
0.046137,-0.01339,0.035347,-3.1325e-05,0.010595,6.6475e-05,0,0,0.064356,-0.027628,0,0.00034567,0,0,0,0.035347,-3.145e-05,0.010595,0.10766,0.015303,0.031442,1.0035e-06,0.94,0.95,0
0.04678,-0.013399,0.035355,-3.1682e-05,0.010597,5.5645e-05,0,0,0.064371,-0.027635,0,0.00028935,0,0,0,0.035355,-3.177e-05,0.010597,0.090096,0.015307,0.03145,1.0042e-06,0.95,0.95,0
0.047424,-0.013406,0.035362,-3.1971e-05,0.010599,4.4678e-05,0,0,0.064383,-0.02764,0,0.00023232,0,0,0,0.035362,-3.2027e-05,0.010599,0.072325,0.01531,0.031456,1.0048e-06,0.96,0.95,0
0.048068,-0.013411,0.035367,-3.2193e-05,0.0106,3.3602e-05,0,0,0.064393,-0.027645,0,0.00017473,0,0,0,0.035367,-3.2225e-05,0.0106,0.054387,0.015312,0.031461,1.0052e-06,0.97,0.95,0
0.048712,-0.013415,0.035371,-3.235e-05,0.010601,2.2446e-05,0,0,0.0644,-0.027648,0,0.00011672,0,0,0,0.035371,-3.2364e-05,0.010601,0.036326,0.015313,0.031464,1.0056e-06,0.98,0.95,0
0.049356,-0.013418,0.035373,-3.2444e-05,0.010602,1.1236e-05,0,0,0.064404,-0.02765,0,5.8428e-05,0,0,0,0.035373,-3.2448e-05,0.010602,0.018183,0.015314,0.031466,1.0058e-06,0.99,0.95,0
0.05,-0.013418,0.035374,-3.2475e-05,0.010602,-1.5163e-05,0,0,0.064406,-0.027651,0,-7.8847e-05,0,0,0,0.035374,-3.2482e-05,0.010602,-0.024537,0.015315,0.031467,1.0058e-06,1,0.95,0
0,0,0.047395,0.020312,0.020312,-0.013206,0,0,0.035208,6.5052e-19,0,-0.034334,0,0,0,0.052768,0.014939,0.020312,-22.14,0.02934,0.035449,2.1118e-06,0,0.96,0
0.00035208,-0.00034334,0.046995,0.016386,0.019015,-0.012882,0,0,0.036375,-0.0034165,0,-0.033494,0,0,0,0.051695,0.011686,0.019015,-20.044,0.027465,0.036895,2.2402e-06,0.01,0.96,0
0.0007275,-0.00071289,0.047688,0.012332,0.018006,-0.012405,0,0,0.038586,-0.0073759,0,-0.032252,0,0,0,0.051606,0.0084142,0.018006,-17.529,0.026009,0.039284,2.4989e-06,0.02,0.96,0
0.0011238,-0.0010867,0.048021,0.0088189,0.017052,-0.011109,0,0,0.04026,-0.010703,0,-0.028885,0,0,0,0.050951,0.0058895,0.017052,-14.772,0.024631,0.040646,2.592e-06,0.03,0.96,0
0.0015327,-0.0014479,0.047851,0.0062708,0.016237,-0.0094539,0,0,0.041099,-0.012956,0,-0.02458,0,0,0,0.049899,0.0042222,0.016237,-12.226,0.023453,0.041012,2.5447e-06,0.04,0.96,0
0.0019458,-0.0017878,0.047244,0.0045524,0.015539,-0.0078461,0,0,0.041217,-0.014283,0,-0.0204,0,0,0,0.048641,0.003156,0.015539,-10.091,0.022445,0.04073,2.4196e-06,0.05,0.96,0
0.002357,-0.0021045,0.046372,0.0033731,0.014923,-0.0064535,0,0,0.040883,-0.015015,0,-0.016779,0,0,0,0.047319,0.0024254,0.014923,-8.3542,0.021556,0.040132,2.2666e-06,0.06,0.96,0
0.0027634,-0.0023988,0.045418,0.0025541,0.014392,-0.0053046,0,0,0.040334,-0.015389,0,-0.013792,0,0,0,0.046065,0.0019074,0.014392,-6.9509,0.020788,0.039427,2.1165e-06,0.07,0.96,0
0.0031637,-0.0026726,0.044485,0.0019736,0.013938,-0.0043711,0,0,0.039711,-0.015553,0,-0.011365,0,0,0,0.044929,0.0015289,0.013938,-5.8103,0.020132,0.038717,1.9813e-06,0.08,0.96,0
0.0035577,-0.0029281,0.04362,0.001554,0.013552,-0.0036136,0,0,0.039088,-0.015598,0,-0.0093953,0,0,0,0.043929,0.0012459,0.013552,-4.8742,0.019576,0.038052,1.8642e-06,0.09,0.96,0
0.0039455,-0.0031672,0.042843,0.0012445,0.013226,-0.0029957,0,0,0.038502,-0.015576,0,-0.0077887,0,0,0,0.043058,0.0010299,0.013226,-4.0979,0.019105,0.03745,1.7646e-06,0.1,0.96,0
0.0043277,-0.0033917,0.042156,0.0010119,0.01295,-0.0024875,0,0,0.037967,-0.01552,0,-0.0064676,0,0,0,0.042306,0.00086209,0.01295,-3.4473,0.018706,0.036915,1.6806e-06,0.11,0.96,0
0.0047048,-0.0036031,0.041555,0.00083404,0.012717,-0.0020659,0,0,0.037489,-0.015447,0,-0.0053713,0,0,0,0.041659,0.0007295,0.012717,-2.8969,0.018368,0.036446,1.6099e-06,0.12,0.96,0
0.0050775,-0.0038028,0.041032,0.00069577,0.012518,-0.0017127,0,0,0.037068,-0.015369,0,-0.0044531,0,0,0,0.041104,0.00062318,0.012518,-2.4271,0.018082,0.036037,1.5505e-06,0.13,0.96,0
0.0054462,-0.0039919,0.040579,0.00058669,0.01235,-0.0014144,0,0,0.036698,-0.015292,0,-0.0036774,0,0,0,0.040629,0.00053673,0.01235,-2.023,0.017839,0.035684,1.5007e-06,0.14,0.96,0
0.0058115,-0.0041715,0.04019,0.00049947,0.012207,-0.0011602,0,0,0.036378,-0.01522,0,-0.0030166,0,0,0,0.040224,0.00046558,0.012207,-1.673,0.017632,0.03538,1.4589e-06,0.15,0.96,0
0.0061738,-0.0043425,0.039856,0.00042884,0.012086,-0.00094212,0,0,0.036102,-0.015154,0,-0.0024495,0,0,0,0.039879,0.00040634,0.012086,-1.368,0.017457,0.035121,1.4238e-06,0.16,0.96,0
0.0065335,-0.0045057,0.039572,0.00037098,0.011983,-0.00075363,0,0,0.035866,-0.015095,0,-0.0019594,0,0,0,0.039586,0.0003565,0.011983,-1.101,0.017309,0.034901,1.3945e-06,0.17,0.96,0
0.0068911,-0.0046619,0.039331,0.00032308,0.011896,-0.00058976,0,0,0.035665,-0.015045,0,-0.0015334,0,0,0,0.03934,0.00031417,0.011896,-0.86599,0.017183,0.034715,1.3702e-06,0.18,0.96,0
0.0072468,-0.0048117,0.039128,0.00028303,0.011823,-0.00044651,0,0,0.035497,-0.015003,0,-0.0011609,0,0,0,0.039134,0.00027789,0.011823,-0.65848,0.017078,0.034561,1.3501e-06,0.19,0.96,0
0.007601,-0.0049557,0.03896,0.00024921,0.011763,-0.00032071,0,0,0.035356,-0.014968,0,-0.00083385,0,0,0,0.038963,0.00024655,0.011763,-0.47464,0.016991,0.034434,1.3336e-06,0.2,0.96,0
0.0079539,-0.0050946,0.038822,0.00022041,0.011713,-0.0002098,0,0,0.035242,-0.01494,0,-0.00054547,0,0,0,0.038823,0.00021927,0.011713,-0.31139,0.016918,0.034331,1.3202e-06,0.21,0.96,0
0.0083058,-0.0052289,0.03871,0.00019565,0.011672,-0.00011169,0,0,0.03515,-0.014919,0,-0.0002904,0,0,0,0.03871,0.00019533,0.011672,-0.16615,0.016859,0.034251,1.3097e-06,0.22,0.96,0
0.0086569,-0.005359,0.038622,0.0001742,0.011639,-2.4709e-05,0,0,0.035078,-0.014904,0,-6.4244e-05,0,0,0,0.038622,0.00017418,0.011639,-0.036822,0.016812,0.034189,1.3015e-06,0.23,0.96,0
0.0090074,-0.0054854,0.038554,0.00015544,0.011613,5.2523e-05,0,0,0.035024,-0.014895,0,0.00013656,0,0,0,0.038554,0.00015537,0.011613,0.078371,0.016774,0.034144,1.2953e-06,0.24,0.96,0
0.0093574,-0.0056087,0.038505,0.00013889,0.011593,0.00012113,0,0,0.034985,-0.01489,0,0.00031493,0,0,0,0.038505,0.00013851,0.011593,0.18089,0.016746,0.034114,1.291e-06,0.25,0.96,0
0.0097071,-0.0057293,0.038471,0.00012416,0.011579,0.00018201,0,0,0.034961,-0.014891,0,0.00047324,0,0,0,0.038472,0.00012329,0.011579,0.27194,0.016725,0.034097,1.2882e-06,0.26,0.96,0
0.010057,-0.0058475,0.038452,0.00011089,0.011569,0.00023592,0,0,0.034948,-0.014895,0,0.00061338,0,0,0,0.038453,0.00010944,0.011569,0.35253,0.01671,0.03409,1.2868e-06,0.27,0.96,0
0.010406,-0.0059639,0.038443,9.8816e-05,0.011563,0.00028341,0,0,0.034945,-0.014903,0,0.00073687,0,0,0,0.038445,9.6721e-05,0.011563,0.42345,0.016702,0.034094,1.2865e-06,0.28,0.96,0
0.010755,-0.0060789,0.038445,8.7666e-05,0.01156,0.00032494,0,0,0.034951,-0.014914,0,0.00084484,0,0,0,0.038448,8.4913e-05,0.01156,0.48533,0.016697,0.034105,1.2871e-06,0.29,0.96,0
0.011105,-0.0061928,0.038454,7.7203e-05,0.011559,0.0003608,0,0,0.034963,-0.014927,0,0.00093808,0,0,0,0.038457,7.3812e-05,0.011559,0.53861,0.016697,0.034123,1.2885e-06,0.3,0.96,0
0.011455,-0.0063062,0.038469,6.7195e-05,0.011561,0.00039118,0,0,0.03498,-0.014942,0,0.0010171,0,0,0,0.038473,6.3211e-05,0.011561,0.58356,0.016699,0.034145,1.2905e-06,0.31,0.96,0
0.011805,-0.0064194,0.038487,5.7395e-05,0.011563,0.0004161,0,0,0.035001,-0.014958,0,0.0010819,0,0,0,0.038492,5.289e-05,0.011563,0.62027,0.016703,0.03417,1.2928e-06,0.32,0.96,0
0.012155,-0.006533,0.038508,4.753e-05,0.011567,0.00043544,0,0,0.035023,-0.014975,0,0.0011322,0,0,0,0.038513,4.26e-05,0.011567,0.64859,0.016707,0.034197,1.2952e-06,0.33,0.96,0
0.012505,-0.0066473,0.038527,3.7272e-05,0.011569,0.00044891,0,0,0.035045,-0.014992,0,0.0011672,0,0,0,0.038532,3.2037e-05,0.011569,0.66812,0.016711,0.034223,1.2976e-06,0.34,0.96,0
0.012856,-0.0067628,0.038544,2.6208e-05,0.011571,0.00045596,0,0,0.035064,-0.015008,0,0.0011855,0,0,0,0.038549,2.0811e-05,0.011571,0.67812,0.016714,0.034247,1.2997e-06,0.35,0.96,0
0.013206,-0.0068803,0.038554,1.3784e-05,0.01157,0.00045573,0,0,0.035079,-0.015024,0,0.0011849,0,0,0,0.038559,8.396e-06,0.01157,0.67739,0.016713,0.034265,1.3012e-06,0.36,0.96,0
0.013557,-0.007,0.038554,-7.6992e-07,0.011566,0.00044697,0,0,0.035085,-0.015037,0,0.0011621,0,0,0,0.03856,-5.9508e-06,0.011566,0.6641,0.016707,0.034277,1.3017e-06,0.37,0.96,0
0.013908,-0.0071228,0.038541,-1.8569e-05,0.011557,0.00042781,0,0,0.03508,-0.015048,0,0.0011123,0,0,0,0.038546,-2.3315e-05,0.011557,0.63557,0.016693,0.034279,1.301e-06,0.38,0.96,0
0.014259,-0.0072493,0.03851,-4.1278e-05,0.011541,0.00039555,0,0,0.03506,-0.015056,0,0.0010284,0,0,0,0.038514,-4.5336e-05,0.011541,0.5878,0.01667,0.034268,1.2985e-06,0.39,0.96,0
0.014609,-0.0073804,0.038453,-7.1458e-05,0.011515,0.00034625,0,0,0.03502,-0.015062,0,0.00090025,0,0,0,0.038456,-7.457e-05,0.011515,0.51491,0.016632,0.03424,1.2937e-06,0.4,0.96,0
0.014959,-0.0075168,0.038365,-0.00011316,0.011475,0.00027411,0,0,0.034956,-0.015065,0,0.0007127,0,0,0,0.038367,-0.00011511,0.011475,0.40814,0.016576,0.034193,1.2862e-06,0.41,0.96,0
0.015308,-0.0076597,0.038236,-0.00017298,0.011419,0.00017058,0,0,0.034862,-0.015069,0,0.0004435,0,0,0,0.038237,-0.00017374,0.011419,0.25444,0.016494,0.034125,1.2752e-06,0.42,0.96,0
0.015657,-0.0078104,0.038058,-0.00026193,0.011339,2.2989e-05,0,0,0.034735,-0.015081,0,5.9771e-05,0,0,0,0.038058,-0.00026195,0.011339,0.034373,0.016378,0.034036,1.2605e-06,0.43,0.96,0
0.016003,-0.0079704,0.037823,-0.00039891,0.011227,-0.000187,0,0,0.034575,-0.015114,0,-0.00048619,0,0,0,0.037824,-0.00039982,0.011227,-0.2803,0.016217,0.033939,1.2422e-06,0.44,0.96,0
0.016348,-0.0081416,0.037533,-0.0006172,0.011075,-0.00048453,0,0,0.034396,-0.0152,0,-0.0012598,0,0,0,0.03754,-0.00062335,0.011075,-0.72753,0.015997,0.033865,1.2219e-06,0.45,0.96,0
0.016691,-0.0083262,0.037211,-0.00097591,0.010871,-0.0008978,0,0,0.034243,-0.0154,0,-0.0023343,0,0,0,0.037232,-0.00099701,0.010871,-1.3461,0.015702,0.033891,1.2044e-06,0.46,0.96,0
0.017033,-0.0085266,0.036914,-0.0015867,0.010598,-0.0014387,0,0,0.03421,-0.01584,0,-0.0037407,0,0,0,0.036967,-0.0016404,0.010598,-2.1371,0.015308,0.034174,1.1989e-06,0.47,0.96,0
0.017375,-0.008744,0.036707,-0.0026339,0.010222,-0.002053,0,0,0.034431,-0.016713,0,-0.0053377,0,0,0,0.036814,-0.0027407,0.010222,-2.9792,0.014765,0.034926,1.2158e-06,0.48,0.96,0
0.017722,-0.0089773,0.036614,-0.004287,0.009698,-0.0025689,0,0,0.03499,-0.01818,0,-0.006679,0,0,0,0.036774,-0.0044477,0.009698,-3.5798,0.014008,0.03628,1.2557e-06,0.49,0.96,0
0.018075,-0.0092205,0.036467,-0.00097352,0.010648,-0.0027746,0,0,0.04945,-0.020144,0,-0.01085,0,0,0,0.036676,-0.0011825,0.010648,-4.3013,0.015381,0.033618,1.1212e-06,0.5,0.96,0
0.018711,-0.0095375,0.036617,0.0033573,0.011992,-0.0026474,0,0,0.064024,-0.022451,0,-0.013767,0,0,0,0.036826,0.0031479,0.011992,-4.5227,0.017322,0.030242,1.0217e-06,0.51,0.96,0
0.019356,-0.0098444,0.036588,0.0022921,0.011664,-0.0023044,0,0,0.064802,-0.024367,0,-0.011983,0,0,0,0.036742,0.002138,0.011664,-3.827,0.016848,0.03096,1.0519e-06,0.52,0.96,0
0.020006,-0.010133,0.036473,0.0015355,0.011403,-0.0018719,0,0,0.065184,-0.025655,0,-0.0097338,0,0,0,0.036574,0.0014355,0.011403,-3.0581,0.016471,0.031366,1.0621e-06,0.53,0.96,0
0.020659,-0.0104,0.03628,0.0010459,0.011198,-0.0014549,0,0,0.065214,-0.026395,0,-0.0075657,0,0,0,0.03634,0.00098595,0.011198,-2.3606,0.016175,0.031515,1.0569e-06,0.54,0.96,0
0.021311,-0.010645,0.036044,0.0007332,0.011033,-0.0011051,0,0,0.065028,-0.02678,0,-0.0057466,0,0,0,0.036079,0.00069865,0.011033,-1.7909,0.015937,0.03151,1.0435e-06,0.55,0.96,0
0.02196,-0.01087,0.035805,0.00052735,0.0109,-0.00082854,0,0,0.064753,-0.026968,0,-0.0043084,0,0,0,0.035824,0.0005079,0.0109,-1.3447,0.015744,0.031436,1.0276e-06,0.56,0.96,0
0.022606,-0.011076,0.035587,0.00038852,0.010793,-0.0006142,0,0,0.064465,-0.027051,0,-0.0031938,0,0,0,0.035597,0.0003778,0.010793,-0.99939,0.015589,0.031338,1.0122e-06,0.57,0.96,0
0.023249,-0.011267,0.035399,0.00029227,0.010707,-0.00044823,0,0,0.064198,-0.027079,0,-0.0023308,0,0,0,0.035405,0.00028655,0.010707,-0.73138,0.015466,0.03124,9.9865e-07,0.58,0.96,0
0.02389,-0.011444,0.035242,0.0002238,0.01064,-0.00031893,0,0,0.063966,-0.027082,0,-0.0016584,0,0,0,0.035245,0.00022089,0.01064,-0.52176,0.015369,0.03115,9.8717e-07,0.59,0.96,0
0.024528,-0.011608,0.035114,0.00017388,0.010586,-0.00021729,0,0,0.063772,-0.027072,0,-0.0011299,0,0,0,0.035115,0.00017253,0.010586,-0.3563,0.015291,0.031073,9.7776e-07,0.6,0.96,0
0.025165,-0.01176,0.035011,0.00013667,0.010544,-0.00013669,0,0,0.063613,-0.02706,0,-0.00071081,0,0,0,0.035011,0.00013613,0.010544,-0.22457,0.015231,0.03101,9.7019e-07,0.61,0.96,0
0.025801,-0.011902,0.034929,0.00010835,0.010511,-7.2277e-05,0,0,0.063487,-0.027048,0,-0.00037584,0,0,0,0.03493,0.0001082,0.010511,-0.11893,0.015183,0.03096,9.6422e-07,0.62,0.96,0
0.026435,-0.012035,0.034866,8.6403e-05,0.010486,-2.0465e-05,0,0,0.063389,-0.027038,0,-0.00010642,0,0,0,0.034866,8.6391e-05,0.010486,-0.033713,0.015146,0.030921,9.5964e-07,0.63,0.96,0
0.027068,-0.012158,0.034819,6.9101e-05,0.010466,2.1398e-05,0,0,0.063316,-0.027033,0,0.00011127,0,0,0,0.034819,6.9088e-05,0.010466,0.035281,0.015118,0.030892,9.5622e-07,0.64,0.96,0
0.027701,-0.012274,0.034784,5.5256e-05,0.010452,5.5303e-05,0,0,0.063264,-0.027031,0,0.00028757,0,0,0,0.034784,5.5168e-05,0.010452,0.091238,0.015097,0.030873,9.5379e-07,0.65,0.96,0
0.028334,-0.012382,0.03476,4.4024e-05,0.010441,8.2765e-05,0,0,0.06323,-0.027033,0,0.00043038,0,0,0,0.034761,4.3827e-05,0.010441,0.13659,0.015082,0.030861,9.522e-07,0.66,0.96,0
0.028966,-0.012483,0.034746,3.4799e-05,0.010434,0.00010495,0,0,0.063211,-0.027039,0,0.00054575,0,0,0,0.034747,3.4482e-05,0.010434,0.17324,0.015072,0.030856,9.5131e-07,0.67,0.96,0
0.029598,-0.012578,0.03474,2.7137e-05,0.01043,0.00012277,0,0,0.063205,-0.027048,0,0.00063843,0,0,0,0.03474,2.6703e-05,0.01043,0.20264,0.015066,0.030856,9.5101e-07,0.68,0.96,0
0.03023,-0.012666,0.03474,2.0709e-05,0.010428,0.00013695,0,0,0.06321,-0.027059,0,0.00071213,0,0,0,0.03474,2.0169e-05,0.010428,0.226,0.015063,0.030862,9.5122e-07,0.69,0.96,0
0.030862,-0.012749,0.034745,1.5266e-05,0.010428,0.00014805,0,0,0.063225,-0.027074,0,0.00076984,0,0,0,0.034746,1.4635e-05,0.010428,0.24423,0.015063,0.030871,9.5185e-07,0.7,0.96,0
0.031495,-0.012827,0.034756,1.0619e-05,0.01043,0.00015653,0,0,0.063247,-0.02709,0,0.00081395,0,0,0,0.034756,9.9142e-06,0.01043,0.25811,0.015065,0.030884,9.5283e-07,0.71,0.96,0
0.032127,-0.012899,0.034769,6.6227e-06,0.010433,0.00016277,0,0,0.063275,-0.027108,0,0.00084641,0,0,0,0.03477,5.8605e-06,0.010433,0.26827,0.01507,0.0309,9.5409e-07,0.72,0.96,0
0.03276,-0.012967,0.034786,3.1618e-06,0.010437,0.00016708,0,0,0.063309,-0.027128,0,0.00086883,0,0,0,0.034787,2.3592e-06,0.010437,0.27521,0.015076,0.030918,9.556e-07,0.73,0.96,0
0.033393,-0.013031,0.034806,1.4668e-07,0.010442,0.00016972,0,0,0.063347,-0.027148,0,0.00088254,0,0,0,0.034807,-6.8088e-07,0.010442,0.27937,0.015083,0.030937,9.573e-07,0.74,0.96,0
0.034027,-0.01309,0.034827,-2.4943e-06,0.010448,0.00017089,0,0,0.063388,-0.02717,0,0.00088864,0,0,0,0.034828,-3.3328e-06,0.010448,0.28111,0.015091,0.030959,9.5915e-07,0.75,0.96,0
0.034661,-0.013146,0.03485,-4.8188e-06,0.010454,0.00017078,0,0,0.063432,-0.027192,0,0.00088807,0,0,0,0.034851,-5.6555e-06,0.010454,0.28073,0.0151,0.030981,9.6113e-07,0.76,0.96,0
0.035296,-0.013198,0.034875,-6.8734e-06,0.01046,0.00016955,0,0,0.063477,-0.027215,0,0.00088163,0,0,0,0.034875,-7.6975e-06,0.01046,0.27848,0.015109,0.031004,9.6318e-07,0.77,0.96,0
0.035931,-0.013246,0.034899,-8.6962e-06,0.010467,0.00016731,0,0,0.063524,-0.027238,0,0.00087,0,0,0,0.0349,-9.4981e-06,0.010467,0.2746,0.015119,0.031028,9.653e-07,0.78,0.96,0
0.036566,-0.013292,0.034925,-1.0319e-05,0.010474,0.00016418,0,0,0.063572,-0.02726,0,0.00085375,0,0,0,0.034926,-1.109e-05,0.010474,0.26926,0.01513,0.031051,9.6746e-07,0.79,0.96,0
0.037202,-0.013334,0.034951,-1.1766e-05,0.010482,0.00016027,0,0,0.063619,-0.027283,0,0.00083341,0,0,0,0.034951,-1.2501e-05,0.010482,0.26264,0.01514,0.031075,9.6963e-07,0.8,0.96,0
0.037838,-0.013373,0.034976,-1.3061e-05,0.010489,0.00015565,0,0,0.063667,-0.027305,0,0.0008094,0,0,0,0.034977,-1.3754e-05,0.010489,0.25488,0.015151,0.031099,9.7179e-07,0.81,0.96,0
0.038475,-0.013409,0.035001,-1.4221e-05,0.010496,0.00015041,0,0,0.063714,-0.027327,0,0.00078212,0,0,0,0.035002,-1.4867e-05,0.010496,0.24611,0.015161,0.031122,9.7393e-07,0.82,0.96,0
0.039113,-0.013443,0.035026,-1.5262e-05,0.010503,0.0001446,0,0,0.06376,-0.027348,0,0.00075192,0,0,0,0.035027,-1.5859e-05,0.010503,0.23643,0.015171,0.031145,9.7603e-07,0.83,0.96,0
0.039751,-0.013474,0.03505,-1.6195e-05,0.01051,0.00013829,0,0,0.063804,-0.027369,0,0.00071908,0,0,0,0.035051,-1.6741e-05,0.01051,0.22594,0.015182,0.031167,9.7807e-07,0.84,0.96,0
0.040389,-0.013502,0.035074,-1.7033e-05,0.010517,0.00013152,0,0,0.063848,-0.027389,0,0.0006839,0,0,0,0.035074,-1.7526e-05,0.010517,0.21474,0.015191,0.031189,9.8005e-07,0.85,0.96,0
0.041028,-0.013529,0.035096,-1.7785e-05,0.010523,0.00012435,0,0,0.063889,-0.027407,0,0.0006466,0,0,0,0.035097,-1.8225e-05,0.010523,0.20289,0.015201,0.031209,9.8195e-07,0.86,0.96,0
0.041667,-0.013553,0.035118,-1.8457e-05,0.01053,0.00011681,0,0,0.063928,-0.027425,0,0.00060742,0,0,0,0.035118,-1.8846e-05,0.01053,0.19048,0.01521,0.031229,9.8376e-07,0.87,0.96,0
0.042306,-0.013575,0.035138,-1.9059e-05,0.010536,0.00010895,0,0,0.063966,-0.027442,0,0.00056655,0,0,0,0.035138,-1.9396e-05,0.010536,0.17756,0.015218,0.031247,9.8546e-07,0.88,0.96,0
0.042946,-0.013595,0.035157,-1.9594e-05,0.010541,0.0001008,0,0,0.064001,-0.027458,0,0.00052418,0,0,0,0.035157,-1.9883e-05,0.010541,0.16419,0.015226,0.031264,9.8707e-07,0.89,0.96,0
0.043586,-0.013612,0.035174,-2.0068e-05,0.010546,9.2398e-05,0,0,0.064033,-0.027472,0,0.00048047,0,0,0,0.035174,-2.0311e-05,0.010546,0.15042,0.015234,0.03128,9.8855e-07,0.9,0.96,0
0.044227,-0.013628,0.03519,-2.0487e-05,0.010551,8.3766e-05,0,0,0.064062,-0.027486,0,0.00043558,0,0,0,0.03519,-2.0686e-05,0.010551,0.13631,0.01524,0.031295,9.8992e-07,0.91,0.96,0
0.044867,-0.013643,0.035205,-2.0852e-05,0.010555,7.4935e-05,0,0,0.064089,-0.027498,0,0.00038966,0,0,0,0.035205,-2.1011e-05,0.010555,0.12188,0.015246,0.031308,9.9115e-07,0.92,0.96,0
0.045508,-0.013655,0.035218,-2.1167e-05,0.010559,6.5931e-05,0,0,0.064113,-0.027509,0,0.00034284,0,0,0,0.035218,-2.1291e-05,0.010559,0.1072,0.015252,0.03132,9.9226e-07,0.93,0.96,0
0.04615,-0.013666,0.035229,-2.1436e-05,0.010562,5.6779e-05,0,0,0.064134,-0.027518,0,0.00029525,0,0,0,0.035229,-2.1527e-05,0.010562,0.092287,0.015257,0.03133,9.9322e-07,0.94,0.96,0
0.046791,-0.013674,0.035239,-2.166e-05,0.010565,4.7502e-05,0,0,0.064152,-0.027526,0,0.00024701,0,0,0,0.035239,-2.1724e-05,0.010565,0.077187,0.015261,0.031338,9.9404e-07,0.95,0.96,0
0.047433,-0.013682,0.035247,-2.184e-05,0.010568,3.8122e-05,0,0,0.064166,-0.027532,0,0.00019824,0,0,0,0.035247,-2.1882e-05,0.010568,0.061932,0.015264,0.031346,9.9472e-07,0.96,0.96,0
0.048074,-0.013687,0.035253,-2.1979e-05,0.010569,2.8662e-05,0,0,0.064178,-0.027537,0,0.00014904,0,0,0,0.035253,-2.2003e-05,0.010569,0.046554,0.015267,0.031351,9.9525e-07,0.97,0.96,0
0.048716,-0.013691,0.035258,-2.2078e-05,0.010571,1.9141e-05,0,0,0.064186,-0.027541,0,9.9534e-05,0,0,0,0.035258,-2.2088e-05,0.010571,0.031086,0.015269,0.031355,9.9563e-07,0.98,0.96,0
0.049358,-0.013694,0.03526,-2.2137e-05,0.010571,9.5805e-06,0,0,0.064191,-0.027543,0,4.9819e-05,0,0,0,0.03526,-2.214e-05,0.010571,0.015558,0.01527,0.031358,9.9586e-07,0.99,0.96,0
0.05,-0.013695,0.035261,-2.2157e-05,0.010572,-1.5295e-05,0,0,0.064193,-0.027544,0,-7.9535e-05,0,0,0,0.035261,-2.2163e-05,0.010572,-0.024837,0.01527,0.031359,9.9594e-07,1,0.96,0
0,0,0.050842,0.02179,0.02179,-0.01471,0,0,0.037769,4.3368e-19,0,-0.038247,0,0,0,0.05699,0.015642,0.02179,-22.68,0.031474,0.038643,2.7125e-06,0,0.97,0
0.00037769,-0.00038247,0.050122,0.016129,0.019875,-0.013987,0,0,0.039321,-0.0048706,0,-0.036367,0,0,0,0.055137,0.011113,0.019875,-19.726,0.028709,0.040363,2.8482e-06,0.01,0.97,0
0.00078642,-0.00079692,0.050624,0.010541,0.018349,-0.012871,0,0,0.041957,-0.010151,0,-0.033464,0,0,0,0.054401,0.0067638,0.018349,-16.354,0.026505,0.04303,3.114e-06,0.02,0.97,0
0.0012168,-0.0012062,0.050538,0.0066385,0.017153,-0.010663,0,0,0.0434,-0.013669,0,-0.027723,0,0,0,0.05299,0.0041857,0.017153,-12.955,0.024776,0.043786,3.0708e-06,0.03,0.97,0
0.0016544,-0.0015889,0.049726,0.0044561,0.016255,-0.0084538,0,0,0.043513,-0.015338,0,-0.02198,0,0,0,0.051254,0.0029289,0.016255,-10.24,0.023479,0.043231,2.8591e-06,0.04,0.97,0
0.0020871,-0.0019399,0.048359,0.0030838,0.015433,-0.0066367,0,0,0.042804,-0.016054,0,-0.017256,0,0,0,0.049312,0.002131,0.015433,-8.1699,0.022292,0.042135,2.5906e-06,0.05,0.97,0
0.0025105,-0.0022617,0.046912,0.0022087,0.014736,-0.0052447,0,0,0.041828,-0.016286,0,-0.013636,0,0,0,0.047519,0.0016016,0.014736,-6.6026,0.021286,0.040961,2.3449e-06,0.06,0.97,0
0.0029237,-0.0025579,0.045565,0.0016298,0.014158,-0.0041851,0,0,0.040828,-0.016287,0,-0.010881,0,0,0,0.04596,0.0012347,0.014158,-5.3932,0.020451,0.039867,2.1387e-06,0.07,0.97,0
0.0033271,-0.002832,0.044377,0.0012353,0.013684,-0.0033722,0,0,0.039901,-0.016183,0,-0.0087676,0,0,0,0.044639,0.00097328,0.013684,-4.4425,0.019765,0.0389,1.971e-06,0.08,0.97,0
0.0037217,-0.0030869,0.043353,0.00095844,0.013293,-0.0027388,0,0,0.039078,-0.016036,0,-0.007121,0,0,0,0.043529,0.00078224,0.013293,-3.6811,0.019202,0.038066,1.8357e-06,0.09,0.97,0
0.0041086,-0.003325,0.04248,0.000759,0.012972,-0.0022374,0,0,0.038361,-0.015876,0,-0.0058173,0,0,0,0.042599,0.00063936,0.012972,-3.061,0.018737,0.037353,1.7263e-06,0.1,0.97,0
0.0044889,-0.0035483,0.041738,0.00061184,0.012705,-0.0018341,0,0,0.037743,-0.015721,0,-0.0047687,0,0,0,0.04182,0.00053021,0.012705,-2.5485,0.018352,0.036747,1.6375e-06,0.11,0.97,0
0.0048635,-0.0037586,0.04111,0.00050093,0.012483,-0.001505,0,0,0.037215,-0.015577,0,-0.003913,0,0,0,0.041166,0.00044523,0.012483,-2.1196,0.018031,0.036234,1.5651e-06,0.12,0.97,0
0.0052332,-0.0039572,0.040579,0.00041572,0.012298,-0.0012329,0,0,0.036765,-0.015447,0,-0.0032056,0,0,0,0.040617,0.00037791,0.012298,-1.7567,0.017764,0.035799,1.5058e-06,0.13,0.97,0
0.0055988,-0.0041453,0.040131,0.00034915,0.012144,-0.0010053,0,0,0.036383,-0.015333,0,-0.0026139,0,0,0,0.040156,0.00032376,0.012144,-1.4467,0.017541,0.035433,1.4572e-06,0.14,0.97,0
0.0059609,-0.004324,0.039754,0.00029633,0.012015,-0.00081294,0,0,0.036061,-0.015234,0,-0.0021136,0,0,0,0.039771,0.00027958,0.012015,-1.1798,0.017355,0.035126,1.4172e-06,0.15,0.97,0
0.00632,-0.0044942,0.039439,0.00025384,0.011908,-0.00064879,0,0,0.035791,-0.01515,0,-0.0016869,0,0,0,0.03945,0.0002431,0.011908,-0.9483,0.0172,0.03487,1.3845e-06,0.16,0.97,0
0.0066767,-0.0046568,0.039177,0.00021923,0.011819,-0.00050758,0,0,0.035566,-0.01508,0,-0.0013197,0,0,0,0.039184,0.00021262,0.011819,-0.74634,0.017072,0.034658,1.3578e-06,0.17,0.97,0
0.0070313,-0.0048124,0.038962,0.00019071,0.011746,-0.00038521,0,0,0.035381,-0.015021,0,-0.0010015,0,0,0,0.038965,0.00018689,0.011746,-0.5692,0.016966,0.034484,1.3361e-06,0.18,0.97,0
0.0073843,-0.0049617,0.038786,0.00016697,0.011686,-0.00027848,0,0,0.03523,-0.014975,0,-0.00072406,0,0,0,0.038788,0.00016497,0.011686,-0.41313,0.01688,0.034344,1.3187e-06,0.19,0.97,0
0.0077359,-0.0051054,0.038646,0.00014701,0.011638,-0.00018487,0,0,0.035111,-0.014938,0,-0.00048067,0,0,0,0.038647,0.00014612,0.011638,-0.27513,0.01681,0.034234,1.3051e-06,0.2,0.97,0
0.0080865,-0.005244,0.038538,0.00013008,0.0116,-0.00010237,0,0,0.035018,-0.014911,0,-0.00026616,0,0,0,0.038538,0.0001298,0.0116,-0.15271,0.016756,0.034149,1.2946e-06,0.21,0.97,0
0.0084363,-0.005378,0.038456,0.00011558,0.011572,-2.9351e-05,0,0,0.03495,-0.014893,0,-7.6312e-05,0,0,0,0.038456,0.00011556,0.011572,-0.043861,0.016714,0.034088,1.2869e-06,0.22,0.97,0
0.0087855,-0.005508,0.038399,0.00010306,0.011551,3.5488e-05,0,0,0.034903,-0.014882,0,9.2268e-05,0,0,0,0.038399,0.00010303,0.011551,0.053095,0.016684,0.034047,1.2816e-06,0.23,0.97,0
0.0091343,-0.0056344,0.038363,9.2171e-05,0.011536,9.3212e-05,0,0,0.034874,-0.014878,0,0.00024235,0,0,0,0.038363,9.1944e-05,0.011536,0.13955,0.016664,0.034024,1.2784e-06,0.24,0.97,0
0.009483,-0.0057576,0.038345,8.2612e-05,0.011528,0.00014469,0,0,0.034862,-0.014879,0,0.0003762,0,0,0,0.038346,8.2065e-05,0.011528,0.21666,0.016652,0.034017,1.277e-06,0.25,0.97,0
0.0098316,-0.0058782,0.038344,7.4151e-05,0.011525,0.00019064,0,0,0.034864,-0.014887,0,0.00049566,0,0,0,0.038345,7.3201e-05,0.011525,0.2854,0.016648,0.034023,1.2773e-06,0.26,0.97,0
0.01018,-0.0059966,0.038358,6.6592e-05,0.011527,0.00023163,0,0,0.034879,-0.014899,0,0.00060223,0,0,0,0.038359,6.5191e-05,0.011527,0.34657,0.01665,0.034042,1.279e-06,0.27,0.97,0
0.010529,-0.0061131,0.038383,5.977e-05,0.011533,0.00026812,0,0,0.034906,-0.014915,0,0.00069712,0,0,0,0.038385,5.7894e-05,0.011533,0.40083,0.016659,0.034071,1.2819e-06,0.28,0.97,0
0.010878,-0.0062282,0.03842,5.354e-05,0.011542,0.0003005,0,0,0.034941,-0.014935,0,0.00078129,0,0,0,0.038422,5.1187e-05,0.011542,0.44872,0.016672,0.034109,1.2858e-06,0.29,0.97,0
0.011228,-0.0063423,0.038465,4.7773e-05,0.011554,0.00032902,0,0,0.034984,-0.014958,0,0.00085546,0,0,0,0.038468,4.4956e-05,0.011554,0.49066,0.016689,0.034155,1.2906e-06,0.3,0.97,0
0.011578,-0.0064558,0.038517,4.2343e-05,0.011568,0.00035389,0,0,0.035034,-0.014983,0,0.00092011,0,0,0,0.03852,3.9089e-05,0.011568,0.52694,0.016709,0.034206,1.2961e-06,0.31,0.97,0
0.011929,-0.0065693,0.038574,3.7124e-05,0.011584,0.00037519,0,0,0.035088,-0.01501,0,0.0009755,0,0,0,0.038578,3.3472e-05,0.011584,0.55775,0.016732,0.034262,1.3022e-06,0.32,0.97,0
0.01228,-0.006683,0.038635,3.1978e-05,0.0116,0.00039294,0,0,0.035146,-0.015039,0,0.0010216,0,0,0,0.038639,2.7978e-05,0.0116,0.58312,0.016756,0.034321,1.3086e-06,0.33,0.97,0
0.012632,-0.0067976,0.038698,2.6741e-05,0.011617,0.000407,0,0,0.035204,-0.015068,0,0.0010582,0,0,0,0.038702,2.2458e-05,0.011617,0.60294,0.016781,0.034381,1.3152e-06,0.34,0.97,0
0.012984,-0.0069134,0.038759,2.121e-05,0.011634,0.00041714,0,0,0.035263,-0.015097,0,0.0010846,0,0,0,0.038764,1.6719e-05,0.011634,0.61688,0.016805,0.03444,1.3217e-06,0.35,0.97,0
0.013337,-0.007031,0.038817,1.5111e-05,0.01165,0.00042288,0,0,0.035318,-0.015125,0,0.0010995,0,0,0,0.038822,1.0503e-05,0.01165,0.62433,0.016827,0.034497,1.3278e-06,0.36,0.97,0
0.01369,-0.0071509,0.038869,8.0562e-06,0.011663,0.00042351,0,0,0.035367,-0.015152,0,0.0011011,0,0,0,0.038873,3.4413e-06,0.011663,0.62432,0.016847,0.034549,1.3334e-06,0.37,0.97,0
0.014044,-0.0072739,0.03891,-5.2478e-07,0.011673,0.00041791,0,0,0.035408,-0.015175,0,0.0010866,0,0,0,0.038915,-5.0127e-06,0.011673,0.61528,0.016861,0.034592,1.338e-06,0.38,0.97,0
0.014398,-0.0074005,0.038936,-1.1508e-05,0.011678,0.00040438,0,0,0.035437,-0.015196,0,0.0010514,0,0,0,0.038941,-1.5706e-05,0.011678,0.59479,0.016868,0.034624,1.3411e-06,0.39,0.97,0
0.014753,-0.0075316,0.038942,-2.6288e-05,0.011675,0.00038032,0,0,0.035447,-0.015211,0,0.00098884,0,0,0,0.038945,-3e-05,0.011675,0.55913,0.016863,0.034639,1.3421e-06,0.4,0.97,0
0.015107,-0.007668,0.038918,-4.7159e-05,0.011661,0.00034167,0,0,0.035433,-0.015221,0,0.00088834,0,0,0,0.03892,-5.0155e-05,0.011661,0.50236,0.016844,0.034633,1.3402e-06,0.41,0.97,0
0.015462,-0.0078109,0.038853,-7.8037e-05,0.011633,0.00028198,0,0,0.035387,-0.015224,0,0.00073316,0,0,0,0.038855,-8.0079e-05,0.011633,0.41497,0.016803,0.034599,1.3346e-06,0.42,0.97,0
0.015815,-0.0079616,0.038734,-0.00012584,0.011583,0.0001908,0,0,0.035297,-0.015221,0,0.00049609,0,0,0,0.038735,-0.00012678,0.011583,0.28131,0.01673,0.03453,1.324e-06,0.43,0.97,0
0.016168,-0.0081217,0.038543,-0.00020329,0.011502,5.0781e-05,0,0,0.035153,-0.015217,0,0.00013203,0,0,0,0.038543,-0.00020336,0.011502,0.075092,0.016614,0.03442,1.3071e-06,0.44,0.97,0
0.016518,-0.0082933,0.038259,-0.00033442,0.011377,-0.00016686,0,0,0.034946,-0.015225,0,-0.00043384,0,0,0,0.038259,-0.00033514,0.011377,-0.24772,0.016434,0.034273,1.2832e-06,0.45,0.97,0
0.016866,-0.0084791,0.037874,-0.00056744,0.011192,-0.00050889,0,0,0.034686,-0.015287,0,-0.0013231,0,0,0,0.03788,-0.00057418,0.011192,-0.75832,0.016166,0.034128,1.2537e-06,0.46,0.97,0
0.017212,-0.0086829,0.037441,-0.00099562,0.010934,-0.0010352,0,0,0.03446,-0.015508,0,-0.0026915,0,0,0,0.037469,-0.0010235,0.010934,-1.5416,0.015793,0.034123,1.2282e-06,0.47,0.97,0
0.017556,-0.0089086,0.037091,-0.0018678,0.010567,-0.0017623,0,0,0.034481,-0.016165,0,-0.0045821,0,0,0,0.03717,-0.0019474,0.010567,-2.5848,0.015263,0.034602,1.2277e-06,0.48,0.97,0
0.017902,-0.0091573,0.036881,-0.0036631,0.0099655,-0.0024978,0,0,0.034991,-0.017717,0,-0.0064944,0,0,0,0.037034,-0.0038164,0.0099655,-3.5121,0.014394,0.035996,1.2661e-06,0.49,0.97,0
0.018255,-0.0094223,0.036555,-0.0010317,0.010657,-0.0028311,0,0,0.04964,-0.020261,0,-0.011106,0,0,0,0.036773,-0.0012489,0.010657,-4.3745,0.015394,0.033758,1.1303e-06,0.5,0.97,0
0.018894,-0.0097648,0.036666,0.0029721,0.011891,-0.0026426,0,0,0.064414,-0.02319,0,-0.013742,0,0,0,0.036872,0.0027661,0.011891,-4.4574,0.017177,0.030582,1.0401e-06,0.51,0.97,0
0.019544,-0.010092,0.036541,0.001752,0.011488,-0.0021481,0,0,0.065138,-0.025313,0,-0.01117,0,0,0,0.036673,0.0016199,0.011488,-3.52,0.016594,0.031308,1.0644e-06,0.52,0.97,0
0.020197,-0.010393,0.036308,0.001057,0.011209,-0.0015991,0,0,0.065255,-0.026396,0,-0.0083154,0,0,0,0.03638,0.00098457,0.011209,-2.5921,0.016191,0.031551,1.0605e-06,0.53,0.97,0
0.020849,-0.010666,0.035986,0.00068218,0.011,-0.0011499,0,0,0.064963,-0.026828,0,-0.0059797,0,0,0,0.036024,0.00064477,0.011,-1.8636,0.01589,0.031504,1.0405e-06,0.54,0.97,0
0.021496,-0.010914,0.03565,0.0004576,0.010832,-0.00081943,0,0,0.064526,-0.026974,0,-0.004261,0,0,0,0.035669,0.00043853,0.010832,-1.3331,0.015647,0.031353,1.0165e-06,0.55,0.97,0
0.022139,-0.01114,0.035357,0.00031889,0.010703,-0.00058234,0,0,0.064102,-0.026998,0,-0.0030282,0,0,0,0.035367,0.00030921,0.010703,-0.95191,0.01546,0.031188,9.9475e-07,0.56,0.97,0
0.022778,-0.011347,0.035118,0.00022938,0.010604,-0.0004103,0,0,0.063736,-0.026975,0,-0.0021336,0,0,0,0.035123,0.00022456,0.010604,-0.67368,0.015317,0.031039,9.7683e-07,0.57,0.97,0
0.023414,-0.011538,0.034929,0.00016946,0.01053,-0.00028322,0,0,0.063439,-0.026936,0,-0.0014727,0,0,0,0.034931,0.00016715,0.01053,-0.4668,0.015209,0.030914,9.6262e-07,0.58,0.97,0
0.024047,-0.011714,0.034782,0.00012794,0.010473,-0.00018752,0,0,0.063203,-0.026897,0,-0.0009751,0,0,0,0.034783,0.00012692,0.010473,-0.31002,0.015128,0.030815,9.5157e-07,0.59,0.97,0
0.024678,-0.011878,0.034669,9.8273e-05,0.01043,-0.00011421,0,0,0.063022,-0.026863,0,-0.0005939,0,0,0,0.03467,9.7896e-05,0.01043,-0.18929,0.015066,0.030737,9.4315e-07,0.6,0.97,0
0.025308,-0.01203,0.034585,7.6493e-05,0.010398,-5.7246e-05,0,0,0.062884,-0.026837,0,-0.00029768,0,0,0,0.034585,7.6398e-05,0.010398,-0.095048,0.01502,0.030679,9.3685e-07,0.61,0.97,0
0.025936,-0.012172,0.034523,6.0112e-05,0.010375,-1.2472e-05,0,0,0.062784,-0.026818,0,-6.4855e-05,0,0,0,0.034523,6.0107e-05,0.010375,-0.020736,0.014986,0.030636,9.3228e-07,0.62,0.97,0
0.026563,-0.012304,0.034479,4.7527e-05,0.010358,2.3015e-05,0,0,0.062715,-0.026807,0,0.00011968,0,0,0,0.034479,4.7511e-05,0.010358,0.038298,0.014962,0.030608,9.2912e-07,0.63,0.97,0
0.02719,-0.012428,0.034451,3.7674e-05,0.010346,5.1296e-05,0,0,0.062671,-0.026803,0,0.00026674,0,0,0,0.034451,3.7598e-05,0.010346,0.085405,0.014945,0.03059,9.271e-07,0.64,0.97,0
0.027817,-0.012543,0.034434,2.983e-05,0.010339,7.3888e-05,0,0,0.062647,-0.026804,0,0.00038421,0,0,0,0.034434,2.9672e-05,0.010339,0.12305,0.014934,0.030582,9.2603e-07,0.65,0.97,0
0.028443,-0.012651,0.034428,2.3492e-05,0.010335,9.192e-05,0,0,0.062641,-0.026811,0,0.00047799,0,0,0,0.034428,2.3246e-05,0.010335,0.15308,0.014929,0.030582,9.2573e-07,0.66,0.97,0
0.02907,-0.012752,0.03443,1.8301e-05,0.010335,0.00010625,0,0,0.062649,-0.026822,0,0.00055249,0,0,0,0.034431,1.7973e-05,0.010335,0.1769,0.014928,0.030588,9.2607e-07,0.67,0.97,0
0.029696,-0.012847,0.034439,1.3999e-05,0.010336,0.00011753,0,0,0.062669,-0.026837,0,0.00061116,0,0,0,0.03444,1.3598e-05,0.010336,0.19561,0.01493,0.0306,9.2693e-07,0.68,0.97,0
0.030323,-0.012936,0.034454,1.0395e-05,0.010339,0.00012628,0,0,0.062699,-0.026855,0,0.00065664,0,0,0,0.034455,9.932e-06,0.010339,0.21005,0.014935,0.030616,9.2823e-07,0.69,0.97,0
0.03095,-0.013019,0.034473,7.3464e-06,0.010344,0.00013289,0,0,0.062736,-0.026876,0,0.00069104,0,0,0,0.034474,6.834e-06,0.010344,0.22091,0.014942,0.030636,9.2989e-07,0.7,0.97,0
0.031578,-0.013097,0.034496,4.7453e-06,0.01035,0.0001377,0,0,0.06278,-0.026899,0,0.00071606,0,0,0,0.034497,4.1956e-06,0.01035,0.22874,0.014951,0.030658,9.3183e-07,0.71,0.97,0
0.032206,-0.01317,0.034523,2.5087e-06,0.010358,0.00014097,0,0,0.062829,-0.026923,0,0.00073304,0,0,0,0.034523,1.9331e-06,0.010358,0.23397,0.014961,0.030683,9.3401e-07,0.72,0.97,0
0.032834,-0.013238,0.034551,5.7202e-07,0.010365,0.00014291,0,0,0.062882,-0.026949,0,0.00074311,0,0,0,0.034551,-1.9048e-08,0.010365,0.23698,0.014972,0.03071,9.3637e-07,0.73,0.97,0
0.033463,-0.013302,0.034581,-1.1155e-06,0.010374,0.00014369,0,0,0.062938,-0.026975,0,0.00074718,0,0,0,0.034582,-1.7125e-06,0.010374,0.23806,0.014985,0.030738,9.3888e-07,0.74,0.97,0
0.034093,-0.013361,0.034613,-2.5941e-06,0.010383,0.00014347,0,0,0.062997,-0.027003,0,0.00074602,0,0,0,0.034613,-3.1886e-06,0.010383,0.23746,0.014998,0.030767,9.4149e-07,0.75,0.97,0
0.034723,-0.013417,0.034645,-3.896e-06,0.010392,0.00014236,0,0,0.063057,-0.02703,0,0.00074028,0,0,0,0.034646,-4.4809e-06,0.010392,0.23541,0.015011,0.030797,9.4418e-07,0.76,0.97,0
0.035354,-0.013469,0.034678,-5.0473e-06,0.010402,0.00014048,0,0,0.063118,-0.027058,0,0.0007305,0,0,0,0.034679,-5.6163e-06,0.010402,0.23207,0.015025,0.030828,9.4691e-07,0.77,0.97,0
0.035986,-0.013518,0.034711,-6.0693e-06,0.010412,0.00013791,0,0,0.063179,-0.027086,0,0.00071715,0,0,0,0.034712,-6.6172e-06,0.010412,0.2276,0.015039,0.030858,9.4966e-07,0.78,0.97,0
0.036618,-0.013563,0.034744,-6.9795e-06,0.010421,0.00013474,0,0,0.06324,-0.027113,0,0.00070062,0,0,0,0.034745,-7.5019e-06,0.010421,0.22214,0.015053,0.030888,9.524e-07,0.79,0.97,0
0.03725,-0.013606,0.034777,-7.7923e-06,0.010431,0.00013102,0,0,0.063301,-0.02714,0,0.00068128,0,0,0,0.034778,-8.2857e-06,0.010431,0.2158,0.015067,0.030918,9.5513e-07,0.8,0.97,0
0.037884,-0.013645,0.03481,-8.5196e-06,0.01044,0.00012681,0,0,0.06336,-0.027167,0,0.00065941,0,0,0,0.03481,-8.9815e-06,0.01044,0.20867,0.01508,0.030947,9.5781e-07,0.81,0.97,0
0.038518,-0.013682,0.034841,-9.1717e-06,0.01045,0.00012217,0,0,0.063418,-0.027193,0,0.00063529,0,0,0,0.034841,-9.5999e-06,0.01045,0.20085,0.015094,0.030975,9.6044e-07,0.82,0.97,0
0.039152,-0.013716,0.034872,-9.7568e-06,0.010459,0.00011714,0,0,0.063474,-0.027218,0,0.00060915,0,0,0,0.034872,-1.015e-05,0.010459,0.19242,0.015107,0.031003,9.6299e-07,0.83,0.97,0
0.039787,-0.013747,0.034901,-1.0282e-05,0.010467,0.00011177,0,0,0.063529,-0.027242,0,0.0005812,0,0,0,0.034902,-1.064e-05,0.010467,0.18343,0.015119,0.03103,9.6546e-07,0.84,0.97,0
0.040423,-0.013776,0.03493,-1.0754e-05,0.010476,0.00010608,0,0,0.063581,-0.027265,0,0.00055162,0,0,0,0.03493,-1.1076e-05,0.010476,0.17395,0.015132,0.031055,9.6783e-07,0.85,0.97,0
0.041059,-0.013802,0.034957,-1.1177e-05,0.010484,0.00010011,0,0,0.06363,-0.027287,0,0.00052059,0,0,0,0.034957,-1.1464e-05,0.010484,0.16403,0.015143,0.03108,9.7009e-07,0.86,0.97,0
0.041695,-0.013826,0.034983,-1.1556e-05,0.010491,9.3895e-05,0,0,0.063677,-0.027307,0,0.00048825,0,0,0,0.034983,-1.1808e-05,0.010491,0.15373,0.015154,0.031103,9.7224e-07,0.87,0.97,0
0.042332,-0.013848,0.035007,-1.1895e-05,0.010498,8.7452e-05,0,0,0.063722,-0.027327,0,0.00045475,0,0,0,0.035007,-1.2114e-05,0.010498,0.14308,0.015164,0.031125,9.7426e-07,0.88,0.97,0
0.04297,-0.013869,0.035029,-1.2197e-05,0.010505,8.0809e-05,0,0,0.063763,-0.027345,0,0.00042021,0,0,0,0.035029,-1.2384e-05,0.010505,0.13213,0.015174,0.031145,9.7614e-07,0.89,0.97,0
0.043608,-0.013887,0.03505,-1.2465e-05,0.010511,7.3988e-05,0,0,0.063801,-0.027362,0,0.00038474,0,0,0,0.03505,-1.2621e-05,0.010511,0.1209,0.015183,0.031163,9.7789e-07,0.9,0.97,0
0.044246,-0.013903,0.035069,-1.2701e-05,0.010517,6.7011e-05,0,0,0.063836,-0.027377,0,0.00034846,0,0,0,0.035069,-1.2829e-05,0.010517,0.10944,0.015191,0.03118,9.7948e-07,0.91,0.97,0
0.044884,-0.013917,0.035086,-1.2907e-05,0.010522,5.9895e-05,0,0,0.063867,-0.027391,0,0.00031145,0,0,0,0.035086,-1.301e-05,0.010522,0.097772,0.015198,0.031196,9.8092e-07,0.92,0.97,0
0.045523,-0.013929,0.035102,-1.3086e-05,0.010526,5.266e-05,0,0,0.063895,-0.027403,0,0.00027383,0,0,0,0.035102,-1.3165e-05,0.010526,0.085924,0.015205,0.03121,9.8221e-07,0.93,0.97,0
0.046162,-0.01394,0.035115,-1.3237e-05,0.01053,4.5322e-05,0,0,0.063919,-0.027414,0,0.00023567,0,0,0,0.035115,-1.3296e-05,0.01053,0.073922,0.015211,0.031221,9.8333e-07,0.94,0.97,0
0.046801,-0.013949,0.035126,-1.3364e-05,0.010534,3.7897e-05,0,0,0.06394,-0.027423,0,0.00019707,0,0,0,0.035126,-1.3405e-05,0.010534,0.061793,0.015215,0.031232,9.8428e-07,0.95,0.97,0
0.047441,-0.013957,0.035136,-1.3466e-05,0.010537,3.0402e-05,0,0,0.063957,-0.02743,0,0.00015809,0,0,0,0.035136,-1.3492e-05,0.010537,0.049557,0.01522,0.03124,9.8507e-07,0.96,0.97,0
0.04808,-0.013962,0.035143,-1.3545e-05,0.010539,2.285e-05,0,0,0.06397,-0.027436,0,0.00011882,0,0,0,0.035143,-1.3559e-05,0.010539,0.03724,0.015223,0.031246,9.8568e-07,0.97,0.97,0
0.04872,-0.013966,0.035148,-1.36e-05,0.01054,1.5256e-05,0,0,0.06398,-0.02744,0,7.9333e-05,0,0,0,0.035148,-1.3607e-05,0.01054,0.02486,0.015225,0.031251,9.8612e-07,0.98,0.97,0
0.04936,-0.013969,0.035151,-1.3634e-05,0.010541,7.6351e-06,0,0,0.063986,-0.027443,0,3.9702e-05,0,0,0,0.035151,-1.3635e-05,0.010541,0.01244,0.015226,0.031254,9.8638e-07,0.99,0.97,0
0.05,-0.013969,0.035152,-1.3645e-05,0.010542,-1.5446e-05,0,0,0.063988,-0.027443,0,-8.0318e-05,0,0,0,0.035152,-1.3651e-05,0.010542,-0.025166,0.015227,0.031255,9.8647e-07,1,0.97,0
0,0,0.056761,0.024326,0.024326,-0.016952,0,0,0.042165,-8.6736e-19,0,-0.044075,0,0,0,0.064004,0.017084,0.024326,-23.134,0.035138,0.043751,3.9068e-06,0,0.98,0
0.00042165,-0.00044075,0.054604,0.014346,0.020685,-0.015246,0,0,0.044095,-0.0082408,0,-0.03964,0,0,0,0.059726,0.0092237,0.020685,-18.57,0.029878,0.045859,3.9297e-06,0.01,0.98,0
0.00088189,-0.00091591,0.054556,0.0068268,0.018415,-0.012191,0,0,0.046983,-0.015064,0,-0.031696,0,0,0,0.057489,0.0038934,0.018415,-13.53,0.026599,0.048012,3.9802e-06,0.02,0.98,0
0.0013613,-0.0013601,0.053741,0.0042509,0.017397,-0.008923,0,0,0.047246,-0.017091,0,-0.0232,0,0,0,0.0553,0.0026912,0.017397,-9.9146,0.02513,0.047014,3.6295e-06,0.03,0.98,0
0.0018268,-0.0017546,0.051262,0.0026715,0.01618,-0.0064364,0,0,0.045606,-0.017561,0,-0.016735,0,0,0,0.0521,0.0018333,0.01618,-7.4192,0.023371,0.044849,3.0851e-06,0.04,0.98,0
0.0022735,-0.0021089,0.048865,0.0017718,0.015191,-0.004778,0,0,0.043776,-0.017445,0,-0.012423,0,0,0,0.049345,0.0012919,0.015191,-5.7353,0.021943,0.04283,2.649e-06,0.05,0.98,0
0.0027023,-0.0024302,0.046826,0.0012264,0.014416,-0.0036364,0,0,0.042133,-0.017146,0,-0.0094545,0,0,0,0.047114,0.00093824,0.014416,-4.5309,0.020823,0.041128,2.3224e-06,0.06,0.98,0
0.0031161,-0.0027245,0.045159,0.0008831,0.013813,-0.0028286,0,0,0.04075,-0.016808,0,-0.0073543,0,0,0,0.045339,0.00070312,0.013813,-3.6406,0.019952,0.039738,2.08e-06,0.07,0.98,0
0.0035173,-0.0029963,0.043805,0.0006575,0.013339,-0.0022369,0,0,0.039607,-0.016486,0,-0.0058159,0,0,0,0.043921,0.00054185,0.013339,-2.9598,0.019267,0.038606,1.8976e-06,0.08,0.98,0
0.0039082,-0.0032488,0.042703,0.00050356,0.012962,-0.0017904,0,0,0.038663,-0.016196,0,-0.004655,0,0,0,0.042779,0.00042774,0.012962,-2.4251,0.018723,0.037681,1.758e-06,0.09,0.98,0
0.0042906,-0.0034847,0.041801,0.00039497,0.012659,-0.0014447,0,0,0.037885,-0.015943,0,-0.0037562,0,0,0,0.041851,0.00034462,0.012659,-1.9959,0.018285,0.036923,1.6492e-06,0.1,0.98,0
0.0046659,-0.0037061,0.041059,0.00031612,0.012413,-0.0011711,0,0,0.037241,-0.015725,0,-0.0030448,0,0,0,0.041093,0.00028249,0.012413,-1.645,0.017929,0.036299,1.5636e-06,0.11,0.98,0
0.0050354,-0.0039146,0.040448,0.00025743,0.012212,-0.00095041,0,0,0.036707,-0.01554,0,-0.0024711,0,0,0,0.04047,0.00023497,0.012212,-1.3539,0.017639,0.035783,1.4953e-06,0.12,0.98,0
0.0054001,-0.0041117,0.039944,0.00021278,0.012047,-0.00076954,0,0,0.036266,-0.015384,0,-0.0020008,0,0,0,0.039959,0.00019788,0.012047,-1.1092,0.017401,0.035358,1.4406e-06,0.13,0.98,0
0.0057607,-0.0042985,0.039528,0.00017817,0.011912,-0.00061922,0,0,0.035901,-0.015254,0,-0.00161,0,0,0,0.039538,0.00016843,0.011912,-0.90132,0.017206,0.035007,1.3967e-06,0.14,0.98,0
0.0061181,-0.0044762,0.039187,0.00015088,0.011801,-0.00049274,0,0,0.035601,-0.015146,0,-0.0012811,0,0,0,0.039193,0.00014466,0.011801,-0.72308,0.017046,0.03472,1.3613e-06,0.15,0.98,0
0.0064728,-0.0046455,0.038909,0.00012904,0.011711,-0.00038521,0,0,0.035357,-0.015057,0,-0.0010015,0,0,0,0.038913,0.00012522,0.011711,-0.56905,0.016917,0.034487,1.333e-06,0.16,0.98,0
0.0068252,-0.0048073,0.038685,0.00011134,0.011639,-0.00029291,0,0,0.03516,-0.014986,0,-0.00076156,0,0,0,0.038687,0.00010911,0.011639,-0.43504,0.016812,0.034299,1.3105e-06,0.17,0.98,0
0.007176,-0.0049623,0.038508,9.6801e-05,0.011581,-0.00021304,0,0,0.035004,-0.01493,0,-0.00055391,0,0,0,0.038509,9.562e-05,0.011581,-0.31777,0.016729,0.034151,1.2929e-06,0.18,0.98,0
0.0075253,-0.0051112,0.03837,8.4743e-05,0.011536,-0.00014343,0,0,0.034884,-0.014887,0,-0.00037291,0,0,0,0.038371,8.4205e-05,0.011536,-0.21464,0.016664,0.034037,1.2795e-06,0.19,0.98,0
0.0078736,-0.0052545,0.038268,7.4637e-05,0.011503,-8.2359e-05,0,0,0.034795,-0.014857,0,-0.00021414,0,0,0,0.038268,7.4459e-05,0.011503,-0.12355,0.016615,0.033954,1.2696e-06,0.2,0.98,0
0.0082212,-0.0053928,0.038197,6.6088e-05,0.011479,-2.8488e-05,0,0,0.034733,-0.014837,0,-7.4069e-05,0,0,0,0.038197,6.6067e-05,0.011479,-0.042807,0.016581,0.033897,1.2627e-06,0.21,0.98,0
0.0085683,-0.0055267,0.038152,5.8795e-05,0.011463,1.9269e-05,0,0,0.034696,-0.014826,0,5.01e-05,0,0,0,0.038152,5.8785e-05,0.011463,0.028983,0.016558,0.033863,1.2586e-06,0.22,0.98,0
0.0089151,-0.0056566,0.038132,5.2522e-05,0.011455,6.1786e-05,0,0,0.034679,-0.014824,0,0.00016065,0,0,0,0.038132,5.2422e-05,0.011455,0.092966,0.016546,0.03385,1.2568e-06,0.23,0.98,0
0.0092619,-0.005783,0.038132,4.7085e-05,0.011454,9.9775e-05,0,0,0.034682,-0.014829,0,0.00025942,0,0,0,0.038133,4.6824e-05,0.011454,0.1501,0.016544,0.033856,1.2571e-06,0.24,0.98,0
0.0096088,-0.0059063,0.038152,4.2336e-05,0.011458,0.00013382,0,0,0.034702,-0.014841,0,0.00034793,0,0,0,0.038152,4.1866e-05,0.011458,0.20119,0.016551,0.033877,1.2592e-06,0.25,0.98,0
0.0099559,-0.006027,0.038188,3.8158e-05,0.011468,0.0001644,0,0,0.034736,-0.014858,0,0.00042744,0,0,0,0.038188,3.7449e-05,0.011468,0.2469,0.016564,0.033913,1.2629e-06,0.26,0.98,0
0.010304,-0.0061455,0.038238,3.4453e-05,0.011482,0.00019191,0,0,0.034783,-0.014882,0,0.00049897,0,0,0,0.038239,3.3489e-05,0.011482,0.28781,0.016585,0.033961,1.2681e-06,0.27,0.98,0
0.010652,-0.0062622,0.038302,3.1141e-05,0.0115,0.00021668,0,0,0.034842,-0.014909,0,0.00056337,0,0,0,0.038303,2.9914e-05,0.0115,0.32438,0.016611,0.034021,1.2746e-06,0.28,0.98,0
0.011,-0.0063776,0.038377,2.8153e-05,0.011521,0.00023897,0,0,0.034912,-0.014941,0,0.00062133,0,0,0,0.038378,2.6664e-05,0.011521,0.35703,0.016642,0.03409,1.2823e-06,0.29,0.98,0
0.01135,-0.006492,0.038461,2.5429e-05,0.011546,0.00025901,0,0,0.03499,-0.014977,0,0.00067342,0,0,0,0.038463,2.3683e-05,0.011546,0.38607,0.016678,0.034168,1.2909e-06,0.3,0.98,0
0.0117,-0.0066059,0.038554,2.2912e-05,0.011573,0.00027695,0,0,0.035076,-0.015015,0,0.00072006,0,0,0,0.038557,2.0922e-05,0.011573,0.41179,0.016717,0.034253,1.3004e-06,0.31,0.98,0
0.012051,-0.0067196,0.038655,2.055e-05,0.011602,0.00029291,0,0,0.035168,-0.015057,0,0.00076158,0,0,0,0.038657,1.833e-05,0.011602,0.43437,0.016759,0.034344,1.3107e-06,0.32,0.98,0
0.012403,-0.0068337,0.03876,1.8286e-05,0.011633,0.00030698,0,0,0.035264,-0.0151,0,0.00079815,0,0,0,0.038762,1.5853e-05,0.011633,0.45396,0.016804,0.03444,1.3216e-06,0.33,0.98,0
0.012757,-0.0069486,0.03887,1.6055e-05,0.011666,0.00031917,0,0,0.035365,-0.015144,0,0.00082984,0,0,0,0.038872,1.3433e-05,0.011666,0.47062,0.01685,0.03454,1.3329e-06,0.34,0.98,0
0.013111,-0.0070648,0.038981,1.3777e-05,0.011699,0.00032942,0,0,0.035468,-0.01519,0,0.00085651,0,0,0,0.038984,1.0992e-05,0.011699,0.48432,0.016898,0.034641,1.3446e-06,0.35,0.98,0
0.013466,-0.0071827,0.039094,1.1348e-05,0.011732,0.00033762,0,0,0.035571,-0.015236,0,0.00087781,0,0,0,0.039096,8.4316e-06,0.011732,0.49491,0.016945,0.034743,1.3563e-06,0.36,0.98,0
0.013822,-0.0073031,0.039204,8.6162e-06,0.011764,0.00034349,0,0,0.035672,-0.015282,0,0.00089308,0,0,0,0.039207,5.6062e-06,0.011764,0.50207,0.016992,0.034843,1.3679e-06,0.37,0.98,0
0.014179,-0.0074263,0.03931,5.3547e-06,0.011794,0.00034661,0,0,0.03577,-0.015326,0,0.00090118,0,0,0,0.039313,2.2983e-06,0.011794,0.50521,0.017036,0.03494,1.3792e-06,0.38,0.98,0
0.014538,-0.0075533,0.039407,1.204e-06,0.011822,0.00034625,0,0,0.03586,-0.015368,0,0.00090025,0,0,0,0.03941,-1.8382e-06,0.011822,0.50339,0.017077,0.03503,1.3896e-06,0.39,0.98,0
0.014897,-0.0076846,0.039492,-4.4292e-06,0.011846,0.00034125,0,0,0.035939,-0.015406,0,0.00088725,0,0,0,0.039495,-7.3774e-06,0.011846,0.49499,0.017111,0.03511,1.3988e-06,0.4,0.98,0
0.015256,-0.0078212,0.039557,-1.2569e-05,0.011863,0.00032966,0,0,0.036001,-0.015439,0,0.00085712,0,0,0,0.039559,-1.5315e-05,0.011863,0.4773,0.017136,0.035173,1.406e-06,0.41,0.98,0
0.015617,-0.0079642,0.039592,-2.5061e-05,0.01187,0.00030819,0,0,0.036038,-0.015464,0,0.00080128,0,0,0,0.039594,-2.7459e-05,0.01187,0.44568,0.017146,0.035214,1.4102e-06,0.42,0.98,0
0.015977,-0.0081148,0.039583,-4.5402e-05,0.011861,0.00027097,0,0,0.036038,-0.015479,0,0.00070452,0,0,0,0.039585,-4.7255e-05,0.011861,0.39175,0.017133,0.035221,1.4099e-06,0.43,0.98,0
0.016337,-0.0082747,0.039506,-8.0536e-05,0.011828,0.00020721,0,0,0.035982,-0.015481,0,0.00053876,0,0,0,0.039507,-8.1621e-05,0.011828,0.2999,0.017084,0.03518,1.403e-06,0.44,0.98,0
0.016697,-0.0084461,0.039326,-0.00014509,0.011754,9.567e-05,0,0,0.035843,-0.015469,0,0.00024874,0,0,0,0.039326,-0.00014532,0.011754,0.13887,0.016978,0.03507,1.3861e-06,0.45,0.98,0
0.017054,-0.008632,0.038989,-0.00027036,0.011616,-0.00010605,0,0,0.035585,-0.015452,0,-0.00027572,0,0,0,0.038989,-0.00027065,0.011616,-0.15477,0.016778,0.034871,1.3555e-06,0.46,0.98,0
0.017409,-0.0088367,0.038438,-0.00053162,0.011372,-0.00049044,0,0,0.035186,-0.015475,0,-0.0012751,0,0,0,0.038444,-0.0005378,0.011372,-0.72092,0.016426,0.0346,1.3089e-06,0.47,0.98,0
0.017758,-0.0090673,0.037837,-0.0010506,0.011036,-0.0011939,0,0,0.034841,-0.015712,0,-0.0031041,0,0,0,0.037873,-0.0010872,0.011036,-1.7568,0.015941,0.034534,1.2701e-06,0.48,0.98,0
0.018105,-0.0093317,0.037491,-0.0025782,0.010474,-0.0021846,0,0,0.035123,-0.016968,0,-0.0056799,0,0,0,0.03761,-0.002697,0.010474,-3.1115,0.015129,0.035599,1.2935e-06,0.49,0.98,0
0.018461,-0.0096257,0.036773,-0.0010688,0.010711,-0.0027936,0,0,0.050003,-0.020418,0,-0.011045,0,0,0,0.036984,-0.0012804,0.010711,-4.2994,0.015472,0.033973,1.1488e-06,0.5,0.98,0
0.019105,-0.010001,0.036689,0.0022692,0.011687,-0.0024913,0,0,0.065004,-0.024487,0,-0.012955,0,0,0,0.036868,0.0020898,0.011687,-4.1185,0.016882,0.03111,1.0648e-06,0.51,0.98,0
0.019761,-0.010351,0.036416,0.0010606,0.011243,-0.0017517,0,0,0.06545,-0.026474,0,-0.009109,0,0,0,0.036503,0.00097401,0.011243,-2.8295,0.01624,0.031669,1.0717e-06,0.52,0.98,0
0.020414,-0.010661,0.035977,0.00062325,0.01098,-0.001143,0,0,0.064991,-0.026927,0,-0.0059435,0,0,0,0.036013,0.00058634,0.01098,-1.8498,0.01586,0.031542,1.0415e-06,0.53,0.98,0
0.02106,-0.010936,0.035456,0.000376,0.01075,-0.00074393,0,0,0.064237,-0.026971,0,-0.0038684,0,0,0,0.035472,0.00036023,0.01075,-1.2143,0.015527,0.031241,1.0021e-06,0.54,0.98,0
0.021699,-0.011184,0.035045,0.00024139,0.010586,-0.00049468,0,0,0.063594,-0.026896,0,-0.0025723,0,0,0,0.035053,0.00023436,0.010586,-0.81414,0.015291,0.030968,9.7064e-07,0.55,0.98,0
0.022332,-0.011409,0.03474,0.0001627,0.010471,-0.00033084,0,0,0.0631,-0.026801,0,-0.0017204,0,0,0,0.034743,0.00015954,0.010471,-0.54814,0.015125,0.030753,9.4735e-07,0.56,0.98,0
0.022961,-0.011616,0.034518,0.00011434,0.01039,-0.00021871,0,0,0.062733,-0.026716,0,-0.0011373,0,0,0,0.034519,0.00011295,0.01039,-0.36423,0.015007,0.030591,9.3047e-07,0.57,0.98,0
0.023587,-0.011806,0.034357,8.306e-05,0.010332,-0.00013893,0,0,0.062465,-0.026648,0,-0.00072245,0,0,0,0.034358,8.2496e-05,0.010332,-0.23225,0.014924,0.030472,9.1834e-07,0.58,0.98,0
0.02421,-0.011982,0.034243,6.192e-05,0.010291,-8.0405e-05,0,0,0.062273,-0.026596,0,-0.00041811,0,0,0,0.034243,6.1731e-05,0.010291,-0.13478,0.014865,0.030386,9.0972e-07,0.59,0.98,0
0.024832,-0.012145,0.034162,4.7086e-05,0.010263,-3.6427e-05,0,0,0.062139,-0.026561,0,-0.00018942,0,0,0,0.034162,4.7047e-05,0.010263,-0.061178,0.014824,0.030327,9.0376e-07,0.6,0.98,0
0.025453,-0.012297,0.034109,3.6336e-05,0.010244,-2.7714e-06,0,0,0.06205,-0.026539,0,-1.4411e-05,0,0,0,0.034109,3.6335e-05,0.010244,-0.0046603,0.014796,0.030288,8.9982e-07,0.61,0.98,0
0.026073,-0.012439,0.034076,2.8326e-05,0.010231,2.3333e-05,0,0,0.061997,-0.026528,0,0.00012133,0,0,0,0.034076,2.831e-05,0.010231,0.039265,0.014779,0.030265,8.9746e-07,0.62,0.98,0
0.026693,-0.012571,0.03406,2.2214e-05,0.010225,4.3766e-05,0,0,0.061971,-0.026526,0,0.00022758,0,0,0,0.03406,2.2157e-05,0.010225,0.073671,0.014769,0.030255,8.9633e-07,0.63,0.98,0
0.027313,-0.012694,0.034056,1.7452e-05,0.010222,5.984e-05,0,0,0.061969,-0.026532,0,0.00031117,0,0,0,0.034056,1.7347e-05,0.010222,0.10072,0.014765,0.030256,8.962e-07,0.64,0.98,0
0.027932,-0.01281,0.034063,1.3673e-05,0.010223,7.2498e-05,0,0,0.061984,-0.026544,0,0.00037699,0,0,0,0.034063,1.3519e-05,0.010223,0.12199,0.014767,0.030265,8.9685e-07,0.65,0.98,0
0.028553,-0.012918,0.034078,1.0627e-05,0.010227,8.2431e-05,0,0,0.062014,-0.026562,0,0.00042864,0,0,0,0.034078,1.0428e-05,0.010227,0.13863,0.014772,0.030281,8.9814e-07,0.66,0.98,0
0.029173,-0.013019,0.0341,8.1362e-06,0.010233,9.0158e-05,0,0,0.062056,-0.026583,0,0.00046882,0,0,0,0.0341,7.8978e-06,0.010233,0.15152,0.01478,0.030303,8.9995e-07,0.67,0.98,0
0.029794,-0.013114,0.034127,6.0734e-06,0.01024,9.6072e-05,0,0,0.062107,-0.026608,0,0.00049958,0,0,0,0.034128,5.8029e-06,0.01024,0.16132,0.014791,0.030329,9.0217e-07,0.68,0.98,0
0.030415,-0.013203,0.034159,4.3459e-06,0.010249,0.00010048,0,0,0.062166,-0.026636,0,0.0005225,0,0,0,0.034159,4.0503e-06,0.010249,0.16856,0.014804,0.030358,9.0472e-07,0.69,0.98,0
0.031037,-0.013286,0.034194,2.8846e-06,0.010259,0.00010363,0,0,0.062231,-0.026666,0,0.00053885,0,0,0,0.034194,2.5705e-06,0.010259,0.17365,0.014819,0.03039,9.0754e-07,0.7,0.98,0
0.03166,-0.013365,0.034231,1.6374e-06,0.01027,0.0001057,0,0,0.0623,-0.026697,0,0.00054963,0,0,0,0.034232,1.311e-06,0.01027,0.17692,0.014834,0.030425,9.1057e-07,0.71,0.98,0
0.032283,-0.013438,0.034271,5.644e-07,0.010281,0.00010685,0,0,0.062372,-0.02673,0,0.00055563,0,0,0,0.034271,2.3125e-07,0.010281,0.17864,0.014851,0.030461,9.1375e-07,0.72,0.98,0
0.032907,-0.013506,0.034312,-3.6539e-07,0.010293,0.00010721,0,0,0.062448,-0.026764,0,0.00055751,0,0,0,0.034312,-7.004e-07,0.010293,0.17903,0.014868,0.030498,9.1706e-07,0.73,0.98,0
0.033532,-0.01357,0.034354,-1.1762e-06,0.010306,0.00010689,0,0,0.062524,-0.026798,0,0.00055583,0,0,0,0.034354,-1.5088e-06,0.010306,0.17827,0.014886,0.030536,9.2044e-07,0.74,0.98,0
0.034158,-0.013631,0.034396,-1.8873e-06,0.010318,0.00010597,0,0,0.062602,-0.026832,0,0.00055103,0,0,0,0.034396,-2.2137e-06,0.010318,0.17651,0.014904,0.030574,9.2387e-07,0.75,0.98,0
0.034784,-0.013687,0.034438,-2.514e-06,0.010331,0.00010452,0,0,0.06268,-0.026867,0,0.0005435,0,0,0,0.034439,-2.8312e-06,0.010331,0.17387,0.014922,0.030612,9.2732e-07,0.76,0.98,0
0.035411,-0.013739,0.034481,-3.0688e-06,0.010343,0.0001026,0,0,0.062758,-0.026901,0,0.00053354,0,0,0,0.034481,-3.374e-06,0.010343,0.17048,0.01494,0.03065,9.3077e-07,0.77,0.98,0
0.036039,-0.013788,0.034523,-3.5617e-06,0.010356,0.00010028,0,0,0.062835,-0.026934,0,0.00052145,0,0,0,0.034523,-3.8529e-06,0.010356,0.16641,0.014958,0.030688,9.3419e-07,0.78,0.98,0
0.036668,-0.013834,0.034564,-4.0011e-06,0.010368,9.7588e-05,0,0,0.06291,-0.026967,0,0.00050746,0,0,0,0.034565,-4.2766e-06,0.010368,0.16175,0.014976,0.030725,9.3756e-07,0.79,0.98,0
0.037297,-0.013876,0.034605,-4.3939e-06,0.01038,9.4571e-05,0,0,0.062984,-0.027,0,0.00049177,0,0,0,0.034605,-4.6523e-06,0.01038,0.15656,0.014993,0.030761,9.4087e-07,0.8,0.98,0
0.037928,-0.013916,0.034644,-4.7457e-06,0.010392,9.1262e-05,0,0,0.063056,-0.027031,0,0.00047456,0,0,0,0.034645,-4.9861e-06,0.010392,0.15091,0.01501,0.030797,9.441e-07,0.81,0.98,0
0.038558,-0.013953,0.034683,-5.0614e-06,0.010403,8.7692e-05,0,0,0.063126,-0.027062,0,0.000456,0,0,0,0.034683,-5.2831e-06,0.010403,0.14485,0.015027,0.030831,9.4724e-07,0.82,0.98,0
0.03919,-0.013987,0.03472,-5.3449e-06,0.010414,8.3887e-05,0,0,0.063194,-0.027091,0,0.00043621,0,0,0,0.03472,-5.5475e-06,0.010414,0.13841,0.015043,0.030864,9.5027e-07,0.83,0.98,0
0.039822,-0.014019,0.034755,-5.5997e-06,0.010425,7.9873e-05,0,0,0.063258,-0.027119,0,0.00041534,0,0,0,0.034755,-5.7832e-06,0.010425,0.13165,0.015058,0.030896,9.5319e-07,0.84,0.98,0
0.040455,-0.014048,0.034789,-5.8286e-06,0.010435,7.5669e-05,0,0,0.06332,-0.027146,0,0.00039348,0,0,0,0.034789,-5.9932e-06,0.010435,0.1246,0.015073,0.030926,9.5597e-07,0.85,0.98,0
0.041089,-0.014074,0.034821,-6.0341e-06,0.010444,7.1296e-05,0,0,0.063378,-0.027171,0,0.00037074,0,0,0,0.034821,-6.1801e-06,0.010444,0.11729,0.015086,0.030954,9.5862e-07,0.86,0.98,0
0.041723,-0.014099,0.034851,-6.2184e-06,0.010453,6.677e-05,0,0,0.063433,-0.027195,0,0.0003472,0,0,0,0.034851,-6.3463e-06,0.010453,0.10975,0.015099,0.030981,9.6111e-07,0.87,0.98,0
0.042357,-0.014121,0.034879,-6.3833e-06,0.010462,6.2109e-05,0,0,0.063485,-0.027217,0,0.00032296,0,0,0,0.034879,-6.4938e-06,0.010462,0.10201,0.015111,0.031006,9.6346e-07,0.88,0.98,0
0.042992,-0.014141,0.034905,-6.5302e-06,0.01047,5.7325e-05,0,0,0.063533,-0.027238,0,0.00029809,0,0,0,0.034905,-6.6243e-06,0.01047,0.094079,0.015123,0.03103,9.6564e-07,0.89,0.98,0
0.043628,-0.01416,0.03493,-6.6606e-06,0.010477,5.2434e-05,0,0,0.063577,-0.027257,0,0.00027266,0,0,0,0.03493,-6.7393e-06,0.010477,0.085992,0.015133,0.031051,9.6765e-07,0.9,0.98,0
0.044264,-0.014176,0.034952,-6.7755e-06,0.010483,4.7447e-05,0,0,0.063617,-0.027275,0,0.00024673,0,0,0,0.034952,-6.8399e-06,0.010483,0.077765,0.015143,0.031071,9.6948e-07,0.91,0.98,0
0.0449,-0.01419,0.034971,-6.876e-06,0.010489,4.2377e-05,0,0,0.063653,-0.02729,0,0.00022036,0,0,0,0.034971,-6.9273e-06,0.010489,0.069415,0.015151,0.031089,9.7114e-07,0.92,0.98,0
0.045537,-0.014203,0.034989,-6.9629e-06,0.010495,3.7233e-05,0,0,0.063685,-0.027304,0,0.00019361,0,0,0,0.034989,-7.0025e-06,0.010495,0.060958,0.015159,0.031105,9.7261e-07,0.93,0.98,0
0.046174,-0.014214,0.035004,-7.0368e-06,0.010499,3.2027e-05,0,0,0.063713,-0.027316,0,0.00016654,0,0,0,0.035004,-7.0661e-06,0.010499,0.052411,0.015166,0.031118,9.7389e-07,0.94,0.98,0
0.046811,-0.014223,0.035017,-7.0985e-06,0.010503,2.6768e-05,0,0,0.063737,-0.027327,0,0.00013919,0,0,0,0.035017,-7.1189e-06,0.010503,0.043789,0.015171,0.03113,9.7498e-07,0.95,0.98,0
0.047449,-0.01423,0.035028,-7.1483e-06,0.010506,2.1465e-05,0,0,0.063757,-0.027335,0,0.00011162,0,0,0,0.035028,-7.1614e-06,0.010506,0.035104,0.015176,0.031139,9.7588e-07,0.96,0.98,0
0.048086,-0.014236,0.035036,-7.1867e-06,0.010509,1.6129e-05,0,0,0.063772,-0.027342,0,8.387e-05,0,0,0,0.035036,-7.1941e-06,0.010509,0.02637,0.015179,0.031147,9.7658e-07,0.97,0.98,0
0.048724,-0.01424,0.035042,-7.2139e-06,0.010511,1.0767e-05,0,0,0.063783,-0.027346,0,5.5986e-05,0,0,0,0.035042,-7.2172e-06,0.010511,0.0176,0.015182,0.031152,9.7708e-07,0.98,0.98,0
0.049362,-0.014243,0.035046,-7.2301e-06,0.010512,5.3875e-06,0,0,0.063789,-0.027349,0,2.8015e-05,0,0,0,0.035046,-7.2309e-06,0.010512,0.008806,0.015184,0.031155,9.7738e-07,0.99,0.98,0
0.05,-0.014243,0.035047,-7.2355e-06,0.010512,-1.5616e-05,0,0,0.063792,-0.02735,0,-8.1206e-05,0,0,0,0.035047,-7.2424e-06,0.010512,-0.025525,0.015184,0.031157,9.7748e-07,1,0.98,0
0,0,0.067416,0.028893,0.028893,-0.02105,0,0,0.050081,1.7347e-18,0,-0.054729,0,0,0,0.076687,0.019622,0.028893,-23.77,0.041734,0.053041,6.8814e-06,0,0.99,0
0.00050081,-0.00054729,0.061403,0.0058591,0.020179,-0.01311,0,0,0.053592,-0.018616,0,-0.034086,0,0,0,0.064342,0.0029202,0.020179,-12.635,0.029147,0.054868,5.7398e-06,0.01,0.99,0
0.0010718,-0.0010982,0.061896,0.0045848,0.019944,-0.0085308,0,0,0.054537,-0.019967,0,-0.02218,0,0,0,0.063139,0.003342,0.019944,-8.2892,0.028808,0.053465,5.3732e-06,0.02,0.99,0
0.0015915,-0.001548,0.05579,0.0023922,0.017455,-0.0051136,0,0,0.049836,-0.019581,0,-0.013295,0,0,0,0.056275,0.0019069,0.017455,-5.4213,0.025212,0.048501,3.8939e-06,0.03,0.99,0
0.0020686,-0.0019401,0.051289,0.0013806,0.015801,-0.0034337,0,0,0.046134,-0.018746,0,-0.0089277,0,0,0,0.051524,0.0011454,0.015801,-3.9174,0.022823,0.044882,3.0294e-06,0.04,0.99,0
0.0025142,-0.0022888,0.048084,0.0008533,0.014681,-0.0024328,0,0,0.043423,-0.017976,0,-0.0063254,0,0,0,0.048209,0.00072831,0.014681,-2.9409,0.021206,0.042268,2.5016e-06,0.05,0.99,0
0.002937,-0.0026046,0.045759,0.00056597,0.013898,-0.0018054,0,0,0.04142,-0.017331,0,-0.0046939,0,0,0,0.045831,0.00049397,0.013898,-2.284,0.020074,0.040341,2.1598e-06,0.06,0.99,0
0.0033426,-0.0028941,0.044016,0.00039636,0.013324,-0.0013807,0,0,0.0399,-0.016806,0,-0.0035899,0,0,0,0.04406,0.0003527,0.013324,-1.8112,0.019245,0.038879,1.9248e-06,0.07,0.99,0
0.003735,-0.0031617,0.042674,0.0002898,0.012889,-0.0010788,0,0,0.03872,-0.016379,0,-0.0028049,0,0,0,0.042701,0.00026236,0.012889,-1.4571,0.018617,0.037744,1.7558e-06,0.08,0.99,0
0.004117,-0.0034108,0.04162,0.00021923,0.012552,-0.0008551,0,0,0.037788,-0.016032,0,-0.0022232,0,0,0,0.041637,0.00020158,0.012552,-1.1827,0.01813,0.036847,1.6301e-06,0.09,0.99,0
0.0044908,-0.0036438,0.040781,0.0001705,0.012285,-0.000684,0,0,0.037044,-0.015749,0,-0.0017784,0,0,0,0.040792,0.00015898,0.012285,-0.96467,0.017746,0.03613,1.5345e-06,0.1,0.99,0
0.0048579,-0.0038628,0.040107,0.00013564,0.012073,-0.00054969,0,0,0.036444,-0.015518,0,-0.0014292,0,0,0,0.040115,0.00012809,0.012073,-0.78774,0.017438,0.035552,1.4604e-06,0.11,0.99,0
0.0052197,-0.0040694,0.039564,0.00010999,0.011902,-0.00044199,0,0,0.03596,-0.01533,0,-0.0011492,0,0,0,0.039569,0.00010504,0.011902,-0.64176,0.017192,0.035085,1.4024e-06,0.12,0.99,0
0.0055771,-0.0042649,0.039125,9.0638e-05,0.011765,-0.00035406,0,0,0.035568,-0.015176,0,-0.00092055,0,0,0,0.039128,8.7426e-05,0.011765,-0.51964,0.016994,0.034708,1.3567e-06,0.13,0.99,0
0.005931,-0.0044504,0.038772,7.5733e-05,0.011654,-0.00028116,0,0,0.035253,-0.015052,0,-0.00073102,0,0,0,0.038774,7.3691e-05,0.011654,-0.41627,0.016834,0.034404,1.3207e-06,0.14,0.99,0
0.0062822,-0.0046269,0.038491,6.4044e-05,0.011566,-0.00021994,0,0,0.035002,-0.014953,0,-0.00057183,0,0,0,0.038492,6.2786e-05,0.011566,-0.32792,0.016707,0.034162,1.2924e-06,0.15,0.99,0
0.0066311,-0.0047954,0.038269,5.4731e-05,0.011497,-0.00016792,0,0,0.034804,-0.014875,0,-0.00043659,0,0,0,0.03827,5.3993e-05,0.011497,-0.25176,0.016607,0.033972,1.2705e-06,0.16,0.99,0
0.0069782,-0.0049565,0.038099,4.7204e-05,0.011444,-0.00012329,0,0,0.034651,-0.014816,0,-0.00032055,0,0,0,0.038099,4.6805e-05,0.011444,-0.18564,0.01653,0.033826,1.2538e-06,0.17,0.99,0
0.0073241,-0.005111,0.037972,4.1046e-05,0.011404,-8.4654e-05,0,0,0.034538,-0.014772,0,-0.0002201,0,0,0,0.037972,4.0857e-05,0.011404,-0.12787,0.016472,0.033718,1.2415e-06,0.18,0.99,0
0.007669,-0.0052594,0.037883,3.5951e-05,0.011376,-5.095e-05,0,0,0.03446,-0.014742,0,-0.00013247,0,0,0,0.037883,3.5883e-05,0.011376,-0.077132,0.016432,0.033643,1.233e-06,0.19,0.99,0
0.0080133,-0.0054025,0.037828,3.1693e-05,0.011358,-2.1344e-05,0,0,0.034411,-0.014724,0,-5.5495e-05,0,0,0,0.037828,3.1681e-05,0.011358,-0.032356,0.016406,0.033597,1.2277e-06,0.2,0.99,0
0.0083572,-0.0055407,0.037801,2.81e-05,0.011349,4.8229e-06,0,0,0.034388,-0.014717,0,1.254e-05,0,0,0,0.037801,2.81e-05,0.011349,0.0073156,0.016393,0.033576,1.2252e-06,0.21,0.99,0
0.0087011,-0.0056745,0.0378,2.5045e-05,0.011348,2.8078e-05,0,0,0.034388,-0.014719,0,7.3004e-05,0,0,0,0.0378,2.5024e-05,0.011348,0.042588,0.016391,0.033578,1.2252e-06,0.22,0.99,0
0.009045,-0.0058045,0.037822,2.2426e-05,0.011353,4.8849e-05,0,0,0.034409,-0.01473,0,0.00012701,0,0,0,0.037822,2.2363e-05,0.011353,0.074044,0.016399,0.033599,1.2275e-06,0.23,0.99,0
0.0093892,-0.0059309,0.037864,2.0165e-05,0.011365,6.7484e-05,0,0,0.034449,-0.014749,0,0.00017546,0,0,0,0.037864,2.0045e-05,0.011365,0.10217,0.016417,0.033639,1.2317e-06,0.24,0.99,0
0.009734,-0.0060545,0.037925,1.8202e-05,0.011383,8.4269e-05,0,0,0.034504,-0.014774,0,0.0002191,0,0,0,0.037925,1.8014e-05,0.011383,0.12737,0.016442,0.033694,1.2376e-06,0.25,0.99,0
0.010079,-0.0061754,0.038001,1.6485e-05,0.011405,9.9443e-05,0,0,0.034575,-0.014805,0,0.00025855,0,0,0,0.038002,1.6225e-05,0.011405,0.15,0.016474,0.033764,1.2453e-06,0.26,0.99,0
0.010426,-0.0062942,0.038093,1.4977e-05,0.011432,0.0001132,0,0,0.034659,-0.014842,0,0.00029433,0,0,0,0.038093,1.4641e-05,0.011432,0.17034,0.016513,0.033846,1.2543e-06,0.27,0.99,0
0.010773,-0.0064113,0.038197,1.3645e-05,0.011463,0.00012573,0,0,0.034754,-0.014885,0,0.00032688,0,0,0,0.038198,1.3231e-05,0.011463,0.18865,0.016558,0.03394,1.2647e-06,0.28,0.99,0
0.011121,-0.006527,0.038314,1.2462e-05,0.011498,0.00013714,0,0,0.034861,-0.014931,0,0.00035657,0,0,0,0.038314,1.1971e-05,0.011498,0.20515,0.016608,0.034045,1.2764e-06,0.29,0.99,0
0.01147,-0.0066418,0.038441,1.1405e-05,0.011536,0.00014758,0,0,0.034977,-0.014982,0,0.00038371,0,0,0,0.038442,1.0838e-05,0.011536,0.22003,0.016663,0.034159,1.2892e-06,0.3,0.99,0
0.01182,-0.0067561,0.038578,1.0456e-05,0.011576,0.00015714,0,0,0.035102,-0.015036,0,0.00040856,0,0,0,0.038579,9.8158e-06,0.011576,0.23344,0.016722,0.034281,1.3031e-06,0.31,0.99,0
0.012172,-0.0068704,0.038723,9.5971e-06,0.01162,0.00016591,0,0,0.035235,-0.015093,0,0.00043136,0,0,0,0.038724,8.8861e-06,0.01162,0.24554,0.016784,0.034412,1.3179e-06,0.32,0.99,0
0.012525,-0.006985,0.038877,8.8119e-06,0.011666,0.00017396,0,0,0.035374,-0.015154,0,0.00045229,0,0,0,0.038877,8.0333e-06,0.011666,0.25643,0.01685,0.034549,1.3336e-06,0.33,0.99,0
0.012879,-0.0071004,0.039037,8.0837e-06,0.011713,0.00018134,0,0,0.03552,-0.015217,0,0.00047149,0,0,0,0.039038,7.2411e-06,0.011713,0.26621,0.016919,0.034692,1.3502e-06,0.34,0.99,0
0.013235,-0.0072172,0.039203,7.3933e-06,0.011763,0.00018811,0,0,0.035671,-0.015282,0,0.00048907,0,0,0,0.039203,6.4906e-06,0.011763,0.27497,0.016991,0.03484,1.3675e-06,0.35,0.99,0
0.013593,-0.0073357,0.039373,6.7163e-06,0.011814,0.00019427,0,0,0.035827,-0.01535,0,0.0005051,0,0,0,0.039374,5.7576e-06,0.011814,0.28274,0.017065,0.034992,1.3855e-06,0.36,0.99,0
0.013952,-0.0074566,0.039548,6.018e-06,0.011866,0.00019983,0,0,0.035986,-0.015418,0,0.00051957,0,0,0,0.039549,5.0081e-06,0.011866,0.28955,0.01714,0.035148,1.4041e-06,0.37,0.99,0
0.014312,-0.0075804,0.039725,5.2448e-06,0.011919,0.00020475,0,0,0.036148,-0.015488,0,0.00053235,0,0,0,0.039726,4.1894e-06,0.011919,0.29534,0.017216,0.035306,1.4231e-06,0.38,0.99,0
0.014675,-0.0077079,0.039904,4.3081e-06,0.011972,0.00020892,0,0,0.036311,-0.015558,0,0.00054319,0,0,0,0.039905,3.2142e-06,0.011972,0.3,0.017293,0.035465,1.4424e-06,0.39,0.99,0
0.015039,-0.0078397,0.040081,3.0518e-06,0.012025,0.00021213,0,0,0.036472,-0.015629,0,0.00055153,0,0,0,0.040082,1.9291e-06,0.012025,0.30325,0.01737,0.035624,1.4617e-06,0.4,0.99,0
0.015404,-0.0079768,0.040254,1.187e-06,0.012077,0.00021397,0,0,0.036631,-0.015698,0,0.00055631,0,0,0,0.040255,4.9681e-08,0.012077,0.30455,0.017444,0.035779,1.4808e-06,0.41,0.99,0
0.015771,-0.0081202,0.040419,-1.8542e-06,0.012125,0.00021366,0,0,0.036782,-0.015765,0,0.00055551,0,0,0,0.04042,-2.9835e-06,0.012125,0.30284,0.017514,0.035928,1.4992e-06,0.42,0.99,0
0.01614,-0.0082712,0.040567,-7.2602e-06,0.012168,0.00020965,0,0,0.036919,-0.015828,0,0.00054509,0,0,0,0.040568,-8.3435e-06,0.012168,0.29604,0.017576,0.036065,1.516e-06,0.43,0.99,0
0.01651,-0.0084313,0.040686,-1.773e-05,0.0122,0.00019866,0,0,0.037031,-0.015884,0,0.00051651,0,0,0,0.040687,-1.8699e-05,0.0122,0.27963,0.017623,0.036178,1.5298e-06,0.44,0.99,0
0.01688,-0.0086026,0.040748,-3.9897e-05,0.012212,0.00017341,0,0,0.037096,-0.015928,0,0.00045087,0,0,0,0.040749,-4.0634e-05,0.012212,0.24359,0.01764,0.036251,1.5376e-06,0.45,0.99,0
0.017251,-0.0087882,0.040695,-9.242e-05,0.012181,0.00011442,0,0,0.037068,-0.015955,0,0.0002975,0,0,0,0.040695,-9.2741e-05,0.012181,0.16073,0.017594,0.036245,1.5337e-06,0.46,0.99,0
0.017622,-0.0089924,0.040396,-0.0002269,0.012051,-2.5716e-05,0,0,0.036849,-0.015961,0,-6.6861e-05,0,0,0,0.040396,-0.00022692,0.012051,-0.03627,0.017407,0.036086,1.5054e-06,0.47,0.99,0
0.017989,-0.0092228,0.039537,-0.00063537,0.011671,-0.00044257,0,0,0.036227,-0.015998,0,-0.0011507,0,0,0,0.039542,-0.00064024,0.011671,-0.63111,0.016858,0.035658,1.4275e-06,0.48,0.99,0
0.018346,-0.0094967,0.038752,-0.0013326,0.011226,-0.0013743,0,0,0.035784,-0.016326,0,-0.0035732,0,0,0,0.038799,-0.0013796,0.011226,-1.9613,0.016215,0.035592,1.3746e-06,0.49,0.99,0
0.018704,-0.0098307,0.037229,-0.0010705,0.010847,-0.0021243,0,0,0.050696,-0.020658,0,-0.0088618,0,0,0,0.03736,-0.0012018,0.010847,-3.3066,0.015668,0.034248,1.1791e-06,0.5,0.99,0
0.01936,-0.010255,0.036644,0.0010804,0.011317,-0.0018041,0,0,0.065849,-0.026616,0,-0.0093815,0,0,0,0.036735,0.0009891,0.011317,-2.8967,0.016347,0.031863,1.092e-06,0.51,0.99,0
0.020021,-0.010622,0.036096,0.00066078,0.011027,-0.0010075,0,0,0.06518,-0.026953,0,-0.0052391,0,0,0,0.036125,0.00063216,0.011027,-1.6273,0.015928,0.031605,1.0498e-06,0.52,0.99,0
0.020664,-0.010932,0.035122,0.00031459,0.010631,-0.00053884,0,0,0.063676,-0.026822,0,-0.002802,0,0,0,0.03513,0.00030625,0.010631,-0.8867,0.015356,0.03098,9.7491e-07,0.53,0.99,0
0.021295,-0.011206,0.034531,0.00017211,0.010411,-0.00032308,0,0,0.062713,-0.026621,0,-0.00168,0,0,0,0.034535,0.00016907,0.010411,-0.53869,0.015038,0.03056,9.3006e-07,0.54,0.99,0
0.021918,-0.011452,0.034166,0.00010303,0.010281,-0.00020039,0,0,0.062101,-0.026462,0,-0.001042,0,0,0,0.034167,0.00010185,0.010281,-0.33705,0.01485,0.030287,9.0256e-07,0.55,0.99,0
0.022537,-0.011676,0.033933,6.678e-05,0.0102,-0.00012549,0,0,0.061707,-0.026347,0,-0.00065254,0,0,0,0.033934,6.6315e-05,0.0102,-0.2123,0.014734,0.030108,8.852e-07,0.56,0.99,0
0.023152,-0.011881,0.033784,4.581e-05,0.010149,-7.588e-05,0,0,0.06145,-0.026268,0,-0.00039457,0,0,0,0.033784,4.5639e-05,0.010149,-0.12886,0.014659,0.029991,8.7406e-07,0.57,0.99,0
0.023766,-0.012071,0.033688,3.2765e-05,0.010116,-4.1327e-05,0,0,0.061287,-0.026217,0,-0.0002149,0,0,0,0.033688,3.2714e-05,0.010116,-0.070355,0.014612,0.029917,8.6702e-07,0.58,0.99,0
0.024378,-0.012246,0.033631,2.416e-05,0.010096,-1.6315e-05,0,0,0.061189,-0.026188,0,-8.484e-05,0,0,0,0.033631,2.4152e-05,0.010096,-0.027816,0.014584,0.029872,8.6282e-07,0.59,0.99,0
0.02499,-0.012409,0.0336,1.8214e-05,0.010086,2.2899e-06,0,0,0.061139,-0.026175,0,1.1908e-05,0,0,0,0.0336,1.8213e-05,0.010086,0.003907,0.014568,0.02985,8.6066e-07,0.6,0.99,0
0.025601,-0.012561,0.033591,1.3946e-05,0.010081,1.6404e-05,0,0,0.061124,-0.026175,0,8.5304e-05,0,0,0,0.033591,1.3938e-05,0.010081,0.027993,0.014562,0.029845,8.6002e-07,0.61,0.99,0
0.026212,-0.012702,0.033596,1.0787e-05,0.010082,2.7256e-05,0,0,0.061137,-0.026186,0,0.00014173,0,0,0,0.033596,1.0765e-05,0.010082,0.046498,0.014563,0.029853,8.6055e-07,0.62,0.99,0
0.026824,-0.012835,0.033614,8.3845e-06,0.010087,3.5666e-05,0,0,0.061171,-0.026204,0,0.00018546,0,0,0,0.033614,8.3467e-06,0.010087,0.060809,0.01457,0.02987,8.6197e-07,0.63,0.99,0
0.027435,-0.012958,0.033641,6.5168e-06,0.010094,4.2202e-05,0,0,0.061221,-0.026228,0,0.00021945,0,0,0,0.033641,6.4639e-06,0.010094,0.071891,0.01458,0.029895,8.6409e-07,0.64,0.99,0
0.028048,-0.013074,0.033675,5.0362e-06,0.010104,4.727e-05,0,0,0.061285,-0.026257,0,0.0002458,0,0,0,0.033675,4.9699e-06,0.010104,0.080438,0.014595,0.029927,8.6677e-07,0.65,0.99,0
0.028661,-0.013182,0.033715,3.8425e-06,0.010116,5.1165e-05,0,0,0.061358,-0.026291,0,0.00026606,0,0,0,0.033715,3.7649e-06,0.010116,0.08696,0.014611,0.029963,8.6988e-07,0.66,0.99,0
0.029275,-0.013284,0.033759,2.8658e-06,0.010129,5.4108e-05,0,0,0.061439,-0.026327,0,0.00028136,0,0,0,0.033759,2.779e-06,0.010129,0.09184,0.01463,0.030003,8.7334e-07,0.67,0.99,0
0.02989,-0.013379,0.033807,2.056e-06,0.010143,5.6268e-05,0,0,0.061526,-0.026365,0,0.0002926,0,0,0,0.033807,1.9623e-06,0.010143,0.09537,0.01465,0.030047,8.7706e-07,0.68,0.99,0
0.030506,-0.013468,0.033857,1.3769e-06,0.010157,5.7776e-05,0,0,0.061618,-0.026406,0,0.00030044,0,0,0,0.033857,1.2783e-06,0.010157,0.097779,0.014672,0.030092,8.8099e-07,0.69,0.99,0
0.031122,-0.013552,0.033909,8.0156e-07,0.010173,5.8735e-05,0,0,0.061713,-0.026447,0,0.00030542,0,0,0,0.033909,6.9983e-07,0.010173,0.099247,0.014694,0.030138,8.8507e-07,0.7,0.99,0
0.03174,-0.013631,0.033962,3.0963e-07,0.010189,5.9226e-05,0,0,0.061811,-0.02649,0,0.00030798,0,0,0,0.033962,2.0635e-07,0.010189,0.099918,0.014717,0.030186,8.8927e-07,0.71,0.99,0
0.032358,-0.013704,0.034016,-1.1439e-07,0.010205,5.9316e-05,0,0,0.061909,-0.026533,0,0.00030844,0,0,0,0.034016,-2.1782e-07,0.010205,0.099909,0.01474,0.030234,8.9353e-07,0.72,0.99,0
0.032978,-0.013773,0.03407,-4.825e-07,0.010221,5.9059e-05,0,0,0.062009,-0.026576,0,0.00030711,0,0,0,0.034071,-5.8488e-07,0.010221,0.099317,0.014764,0.030283,8.9783e-07,0.73,0.99,0
0.033599,-0.013838,0.034125,-8.0414e-07,0.010237,5.85e-05,0,0,0.062108,-0.026619,0,0.0003042,0,0,0,0.034125,-9.0442e-07,0.010237,0.098219,0.014787,0.030332,9.0214e-07,0.74,0.99,0
0.03422,-0.013898,0.034179,-1.0867e-06,0.010253,5.7676e-05,0,0,0.062206,-0.026661,0,0.00029992,0,0,0,0.034179,-1.1841e-06,0.010253,0.096683,0.01481,0.03038,9.0643e-07,0.75,0.99,0
0.034843,-0.013955,0.034232,-1.3363e-06,0.010269,5.662e-05,0,0,0.062303,-0.026704,0,0.00029442,0,0,0,0.034232,-1.4299e-06,0.010269,0.094763,0.014833,0.030427,9.1069e-07,0.76,0.99,0
0.035466,-0.014007,0.034285,-1.5576e-06,0.010285,5.5357e-05,0,0,0.062399,-0.026745,0,0.00028786,0,0,0,0.034285,-1.6469e-06,0.010285,0.092508,0.014856,0.030474,9.1489e-07,0.77,0.99,0
0.036091,-0.014057,0.034336,-1.7545e-06,0.0103,5.3912e-05,0,0,0.062493,-0.026785,0,0.00028034,0,0,0,0.034336,-1.8392e-06,0.0103,0.089957,0.014878,0.03052,9.1901e-07,0.78,0.99,0
0.036716,-0.014103,0.034386,-1.9304e-06,0.010315,5.2303e-05,0,0,0.062584,-0.026825,0,0.00027197,0,0,0,0.034386,-2.01e-06,0.010315,0.087144,0.0149,0.030565,9.2304e-07,0.79,0.99,0
0.037342,-0.014146,0.034434,-2.0879e-06,0.01033,5.0548e-05,0,0,0.062673,-0.026863,0,0.00026285,0,0,0,0.034435,-2.1621e-06,0.01033,0.084101,0.014921,0.030608,9.2696e-07,0.8,0.99,0
0.03797,-0.014186,0.034481,-2.2292e-06,0.010344,4.8662e-05,0,0,0.062758,-0.0269,0,0.00025304,0,0,0,0.034482,-2.2978e-06,0.010344,0.080854,0.014941,0.03065,9.3077e-07,0.81,0.99,0
0.038598,-0.014223,0.034527,-2.3561e-06,0.010357,4.666e-05,0,0,0.06284,-0.026935,0,0.00024263,0,0,0,0.034527,-2.4191e-06,0.010357,0.077424,0.014961,0.03069,9.3444e-07,0.82,0.99,0
0.039226,-0.014257,0.03457,-2.4702e-06,0.01037,4.4551e-05,0,0,0.06292,-0.026969,0,0.00023167,0,0,0,0.03457,-2.5276e-06,0.01037,0.073833,0.014979,0.030729,9.3797e-07,0.83,0.99,0
0.039856,-0.014289,0.034612,-2.5729e-06,0.010383,4.2348e-05,0,0,0.062995,-0.027002,0,0.00022021,0,0,0,0.034612,-2.6247e-06,0.010383,0.070097,0.014997,0.030766,9.4134e-07,0.84,0.99,0
0.040486,-0.014318,0.034651,-2.6653e-06,0.010394,4.0059e-05,0,0,0.063066,-0.027032,0,0.00020831,0,0,0,0.034651,-2.7116e-06,0.010394,0.066234,0.015014,0.030801,9.4455e-07,0.85,0.99,0
0.041117,-0.014346,0.034688,-2.7483e-06,0.010405,3.7694e-05,0,0,0.063134,-0.027061,0,0.00019601,0,0,0,0.034688,-2.7893e-06,0.010405,0.062256,0.01503,0.030833,9.4759e-07,0.86,0.99,0
0.041749,-0.01437,0.034723,-2.8229e-06,0.010416,3.5259e-05,0,0,0.063198,-0.027089,0,0.00018335,0,0,0,0.034723,-2.8587e-06,0.010416,0.058177,0.015045,0.030864,9.5045e-07,0.87,0.99,0
0.042381,-0.014393,0.034755,-2.8896e-06,0.010426,3.2763e-05,0,0,0.063257,-0.027114,0,0.00017037,0,0,0,0.034755,-2.9205e-06,0.010426,0.054007,0.015059,0.030894,9.5312e-07,0.88,0.99,0
0.043014,-0.014413,0.034785,-2.9491e-06,0.010435,3.0212e-05,0,0,0.063312,-0.027138,0,0.0001571,0,0,0,0.034785,-2.9753e-06,0.010435,0.049759,0.015072,0.03092,9.5561e-07,0.89,0.99,0
0.043647,-0.014432,0.034813,-3.0019e-06,0.010443,2.7612e-05,0,0,0.063362,-0.02716,0,0.00014358,0,0,0,0.034813,-3.0238e-06,0.010443,0.045439,0.015084,0.030945,9.5789e-07,0.9,0.99,0
0.044281,-0.014448,0.034838,-3.0485e-06,0.010451,2.4968e-05,0,0,0.063408,-0.027179,0,0.00012983,0,0,0,0.034838,-3.0664e-06,0.010451,0.041058,0.015095,0.030967,9.5998e-07,0.91,0.99,0
0.044916,-0.014463,0.034861,-3.0893e-06,0.010457,2.2285e-05,0,0,0.063449,-0.027197,0,0.00011588,0,0,0,0.034861,-3.1036e-06,0.010457,0.036624,0.015105,0.030988,9.6185e-07,0.92,0.99,0
0.04555,-0.014476,0.034881,-3.1246e-06,0.010463,1.957e-05,0,0,0.063486,-0.027213,0,0.00010176,0,0,0,0.034881,-3.1356e-06,0.010463,0.032142,0.015114,0.031005,9.6351e-07,0.93,0.99,0
0.046185,-0.014486,0.034898,-3.1546e-06,0.010469,1.6826e-05,0,0,0.063518,-0.027227,0,8.7493e-05,0,0,0,0.034898,-3.1628e-06,0.010469,0.027621,0.015121,0.031021,9.6496e-07,0.94,0.99,0
0.046821,-0.014496,0.034913,-3.1797e-06,0.010473,1.4057e-05,0,0,0.063545,-0.027238,0,7.3098e-05,0,0,0,0.034913,-3.1854e-06,0.010473,0.023067,0.015128,0.031034,9.6619e-07,0.95,0.99,0
0.047456,-0.014503,0.034925,-3.2e-06,0.010477,1.1269e-05,0,0,0.063567,-0.027248,0,5.86e-05,0,0,0,0.034925,-3.2036e-06,0.010477,0.018486,0.015133,0.031045,9.672e-07,0.96,0.99,0
0.048092,-0.014509,0.034935,-3.2156e-06,0.010479,8.4655e-06,0,0,0.063584,-0.027255,0,4.4021e-05,0,0,0,0.034935,-3.2176e-06,0.010479,0.013883,0.015137,0.031054,9.6799e-07,0.97,0.99,0
0.048728,-0.014513,0.034942,-3.2266e-06,0.010482,5.6501e-06,0,0,0.063597,-0.02726,0,2.9381e-05,0,0,0,0.034942,-3.2275e-06,0.010482,0.0092639,0.01514,0.03106,9.6856e-07,0.98,0.99,0
0.049364,-0.014516,0.034946,-3.2332e-06,0.010483,2.827e-06,0,0,0.063604,-0.027264,0,1.47e-05,0,0,0,0.034946,-3.2334e-06,0.010483,0.0046346,0.015142,0.031063,9.689e-07,0.99,0.99,0
0.05,-0.014516,0.034947,-3.2354e-06,0.010483,-1.5809e-05,0,0,0.063606,-0.027265,0,-8.2208e-05,0,0,0,0.034947,-3.2426e-06,0.010483,-0.025917,0.015142,0.031064,9.6901e-07,1,0.99,0
0,0,0.11283,0.048354,0.048354,-0.031272,0,0,0.083814,-6.9389e-18,0,-0.081307,0,0,0,0.1255,0.035678,0.048354,-22.065,0.069845,0.084205,2.8336e-05,0,1,0
0.00083814,-0.00081306,0.08152,0.0057313,0.026175,-0.012319,0,0,0.071948,-0.026577,0,-0.03203,0,0,0,0.083472,0.0037792,0.026175,-9.0044,0.037809,0.071188,1.2534e-05,0.01,1,0
0.001439,-0.0013153,0.061461,0.0024892,0.019185,-0.003931,0,0,0.054959,-0.021705,0,-0.010221,0,0,0,0.061722,0.0022283,0.019185,-3.7969,0.027712,0.053087,5.124e-06,0.02,1,0
0.0019373,-0.0017517,0.052194,-2.2495e-05,0.015651,-0.0023607,0,0,0.047505,-0.020376,0,-0.0061378,0,0,0,0.052301,-0.000129,0.015651,-2.5833,0.022608,0.046589,3.2562e-06,0.03,1,0
0.0023891,-0.0021296,0.047905,-0.0002875,0.014285,-0.0014555,0,0,0.043705,-0.018944,0,-0.0037842,0,0,0,0.047949,-0.00033141,0.014285,-1.7283,0.020634,0.042882,2.5209e-06,0.04,1,0
0.0028114,-0.0024685,0.045141,-0.00039864,0.013423,-0.0010172,0,0,0.041234,-0.017968,0,-0.0026448,0,0,0,0.045164,-0.00042135,0.013423,-1.279,0.019388,0.04048,2.1121e-06,0.05,1,0
0.0032138,-0.0027768,0.043235,-0.00039936,0.012851,-0.00074476,0,0,0.0395,-0.017225,0,-0.0019364,0,0,0,0.043248,-0.00041207,0.012851,-0.97756,0.018562,0.038769,1.8549e-06,0.06,1,0
0.0036014,-0.0030606,0.041827,-0.00038011,0.012434,-0.00056596,0,0,0.038211,-0.016659,0,-0.0014715,0,0,0,0.041835,-0.0003877,0.012434,-0.7681,0.017961,0.037494,1.6785e-06,0.07,1,0
0.003978,-0.0033239,0.040756,-0.00035308,0.012121,-0.00043989,0,0,0.037225,-0.016216,0,-0.0011437,0,0,0,0.04076,-0.00035778,0.012121,-0.61301,0.017508,0.036515,1.5517e-06,0.08,1,0
0.0043459,-0.0035694,0.039922,-0.00032529,0.011879,-0.00034711,0,0,0.036456,-0.015866,0,-0.0009025,0,0,0,0.039926,-0.00032828,0.011879,-0.4941,0.017159,0.035749,1.4574e-06,0.09,1,0
0.0047071,-0.0037997,0.039267,-0.00029868,0.01169,-0.0002764,0,0,0.03585,-0.015586,0,-0.00071864,0,0,0,0.039269,-0.00030061,0.01169,-0.40023,0.016886,0.035143,1.3859e-06,0.1,1,0
0.0050629,-0.0040165,0.038749,-0.00027395,0.011543,-0.00022101,0,0,0.035368,-0.015361,0,-0.00057463,0,0,0,0.03875,-0.0002752,0.011543,-0.32449,0.016672,0.034662,1.3309e-06,0.11,1,0
0.0054145,-0.0042212,0.038339,-0.0002512,0.011426,-0.00017664,0,0,0.034986,-0.015181,0,-0.00045926,0,0,0,0.03834,-0.00025201,0.011426,-0.26226,0.016505,0.034279,1.2883e-06,0.12,1,0
0.0057627,-0.0044152,0.038017,-0.00023031,0.011336,-0.00014043,0,0,0.034685,-0.015036,0,-0.00036513,0,0,0,0.038018,-0.00023083,0.011336,-0.21037,0.016374,0.033975,1.2554e-06,0.13,1,0
0.0061082,-0.0045996,0.037767,-0.0002111,0.011267,-0.00011042,0,0,0.034451,-0.014921,0,-0.00028709,0,0,0,0.037768,-0.00021142,0.011267,-0.16658,0.016274,0.033737,1.2302e-06,0.14,1,0
0.0064516,-0.0047752,0.037578,-0.00019336,0.011215,-8.5202e-05,0,0,0.034271,-0.014831,0,-0.00022153,0,0,0,0.037578,-0.00019356,0.011215,-0.12924,0.0162,0.033555,1.2112e-06,0.15,1,0
0.0067936,-0.004943,0.03744,-0.0001769,0.011179,-6.3766e-05,0,0,0.034139,-0.014762,0,-0.00016579,0,0,0,0.03744,-0.00017701,0.011179,-0.097125,0.016147,0.033418,1.1974e-06,0.16,1,0
0.0071344,-0.0051036,0.037345,-0.00016154,0.011155,-4.5357e-05,0,0,0.034047,-0.014712,0,-0.00011793,0,0,0,0.037345,-0.0001616,0.011155,-0.069289,0.016113,0.033322,1.1878e-06,0.17,1,0
0.0074745,-0.0052577,0.037288,-0.00014711,0.011142,-2.9405e-05,0,0,0.03399,-0.014676,0,-7.6454e-05,0,0,0,0.037288,-0.00014714,0.011142,-0.045005,0.016095,0.03326,1.1819e-06,0.18,1,0
0.0078142,-0.005406,0.037265,-0.00013348,0.011139,-1.5471e-05,0,0,0.033963,-0.014655,0,-4.0225e-05,0,0,0,0.037265,-0.00013349,0.011139,-0.023703,0.01609,0.033228,1.1792e-06,0.19,1,0
0.0081538,-0.005549,0.03727,-0.00012052,0.011145,-3.2123e-06,0,0,0.033963,-0.014645,0,-8.352e-06,0,0,0,0.03727,-0.00012052,0.011145,-0.0049224,0.016098,0.033223,1.1793e-06,0.2,1,0
0.0084935,-0.0056872,0.037301,-0.00010811,0.011158,7.6426e-06,0,0,0.033986,-0.014646,0,1.9871e-05,0,0,0,0.037301,-0.00010811,0.011158,0.011705,0.016117,0.033241,1.1819e-06,0.21,1,0
0.0088335,-0.0058211,0.037356,-9.6155e-05,0.011178,1.7311e-05,0,0,0.034031,-0.014656,0,4.5008e-05,0,0,0,0.037356,-9.6163e-05,0.011178,0.026483,0.016146,0.033279,1.1866e-06,0.22,1,0
0.0091741,-0.0059512,0.03743,-8.4563e-05,0.011204,2.5969e-05,0,0,0.034095,-0.014675,0,6.7518e-05,0,0,0,0.03743,-8.4581e-05,0.011204,0.039661,0.016183,0.033336,1.1934e-06,0.23,1,0
0.0095154,-0.006078,0.037524,-7.3246e-05,0.011235,3.376e-05,0,0,0.034175,-0.014701,0,8.7776e-05,0,0,0,0.037524,-7.3276e-05,0.011235,0.051448,0.016229,0.033411,1.2019e-06,0.24,1,0
0.0098576,-0.0062018,0.037634,-6.2122e-05,0.011272,4.0805e-05,0,0,0.034271,-0.014734,0,0.00010609,0,0,0,0.037634,-6.2166e-05,0.011272,0.06202,0.016281,0.0335,1.2122e-06,0.25,1,0
0.010201,-0.0063231,0.03776,-5.111e-05,0.011313,4.7203e-05,0,0,0.034382,-0.014773,0,0.00012273,0,0,0,0.03776,-5.1169e-05,0.011313,0.071527,0.016341,0.033603,1.224e-06,0.26,1,0
0.010545,-0.0064424,0.0379,-4.0132e-05,0.011358,5.3039e-05,0,0,0.034505,-0.014818,0,0.0001379,0,0,0,0.0379,-4.0206e-05,0.011358,0.080097,0.016406,0.033718,1.2373e-06,0.27,1,0
0.010891,-0.0065599,0.038053,-2.9104e-05,0.011407,5.8385e-05,0,0,0.03464,-0.014867,0,0.0001518,0,0,0,0.038053,-2.9194e-05,0.011407,0.087841,0.016477,0.033846,1.2519e-06,0.28,1,0
0.011238,-0.0066762,0.038219,-1.794e-05,0.01146,6.3303e-05,0,0,0.034786,-0.014922,0,0.00016459,0,0,0,0.038219,-1.8045e-05,0.01146,0.094857,0.016554,0.033984,1.2679e-06,0.29,1,0
0.011587,-0.0067916,0.038395,-6.5463e-06,0.011517,6.7849e-05,0,0,0.034943,-0.01498,0,0.00017641,0,0,0,0.038396,-6.6662e-06,0.011517,0.10123,0.016635,0.034132,1.2852e-06,0.3,1,0
0.011937,-0.0069066,0.038583,5.183e-06,0.011577,7.2071e-05,0,0,0.035109,-0.015043,0,0.00018739,0,0,0,0.038583,5.0483e-06,0.011577,0.10704,0.016722,0.03429,1.3037e-06,0.31,1,0
0.012289,-0.0070215,0.038781,1.7369e-05,0.01164,7.6014e-05,0,0,0.035284,-0.015109,0,0.00019764,0,0,0,0.038782,1.722e-05,0.01164,0.11235,0.016813,0.034456,1.3235e-06,0.32,1,0
0.012643,-0.0071368,0.03899,3.0153e-05,0.011706,7.9718e-05,0,0,0.035469,-0.015179,0,0.00020727,0,0,0,0.03899,2.999e-05,0.011706,0.11724,0.016909,0.034631,1.3445e-06,0.33,1,0
0.012998,-0.007253,0.039208,4.3707e-05,0.011775,8.3221e-05,0,0,0.035662,-0.015251,0,0.00021637,0,0,0,0.039208,4.353e-05,0.011775,0.12175,0.017009,0.034814,1.3667e-06,0.34,1,0
0.013356,-0.0073704,0.039436,5.8244e-05,0.011848,8.6561e-05,0,0,0.035864,-0.015327,0,0.00022506,0,0,0,0.039436,5.8054e-05,0.011848,0.12595,0.017114,0.035005,1.3901e-06,0.35,1,0
0.013716,-0.0074897,0.039674,7.4031e-05,0.011924,8.9774e-05,0,0,0.036075,-0.015406,0,0.00023341,0,0,0,0.039675,7.3827e-05,0.011924,0.12989,0.017224,0.035204,1.4149e-06,0.36,1,0
0.014077,-0.0076114,0.039923,9.1415e-05,0.012004,9.2897e-05,0,0,0.036294,-0.015487,0,0.00024153,0,0,0,0.039923,9.1198e-05,0.012004,0.13363,0.01734,0.035412,1.441e-06,0.37,1,0
0.014441,-0.0077361,0.040183,0.00011086,0.012088,9.5968e-05,0,0,0.036523,-0.01557,0,0.00024952,0,0,0,0.040183,0.00011063,0.012088,0.13722,0.017461,0.035627,1.4685e-06,0.38,1,0
0.014808,-0.0078644,0.040455,0.00013298,0.012176,9.9023e-05,0,0,0.036762,-0.015656,0,0.00025746,0,0,0,0.040455,0.00013274,0.012176,0.14071,0.017588,0.035851,1.4977e-06,0.39,1,0
0.015177,-0.0079971,0.040741,0.00015867,0.01227,0.0001021,0,0,0.037012,-0.015745,0,0.00026546,0,0,0,0.040741,0.00015841,0.01227,0.14415,0.017723,0.036085,1.5287e-06,0.4,1,0
0.015548,-0.0081352,0.041043,0.00018919,0.01237,0.00010522,0,0,0.037276,-0.015835,0,0.00027356,0,0,0,0.041044,0.00018892,0.01237,0.14756,0.017867,0.03633,1.5618e-06,0.41,1,0
0.015922,-0.0082795,0.041366,0.00022646,0.012478,0.00010837,0,0,0.037555,-0.015927,0,0.00028177,0,0,0,0.041366,0.00022618,0.012478,0.15093,0.018023,0.036587,1.5974e-06,0.42,1,0
0.016299,-0.0084314,0.041715,0.00027355,0.012597,0.00011145,0,0,0.037854,-0.01602,0,0.00028978,0,0,0,0.041715,0.00027325,0.012597,0.15409,0.018195,0.036859,1.6362e-06,0.43,1,0
0.016679,-0.0085924,0.042099,0.00033541,0.01273,0.00011415,0,0,0.038179,-0.016113,0,0.00029678,0,0,0,0.042099,0.0003351,0.01273,0.1566,0.018388,0.037151,1.6792e-06,0.44,1,0
0.017063,-0.0087647,0.042534,0.00042164,0.012887,0.00011503,0,0,0.038541,-0.016205,0,0.00029907,0,0,0,0.042534,0.00042133,0.012887,0.1565,0.018614,0.037469,1.7281e-06,0.45,1,0
0.01745,-0.0089511,0.043044,0.00054553,0.013077,0.00011142,0,0,0.038958,-0.016291,0,0.0002897,0,0,0,0.043045,0.00054524,0.013077,0.15021,0.018889,0.037824,1.7856e-06,0.46,1,0
0.017842,-0.0091559,0.043687,0.00075589,0.013333,7.7278e-05,0,0,0.039461,-0.01635,0,0.00020092,0,0,0,0.043687,0.00075575,0.013333,0.10314,0.019259,0.038227,1.8571e-06,0.47,1,0
0.018239,-0.0093873,0.044352,0.00093923,0.013587,-1.4133e-05,0,0,0.039994,-0.016443,0,-3.6745e-05,0,0,0,0.044352,0.00093923,0.013587,-0.018652,0.019626,0.038672,1.9346e-06,0.48,1,0
0.018642,-0.0096582,0.044656,0.0013909,0.013814,-0.0011664,0,0,0.040094,-0.01615,0,-0.0030326,0,0,0,0.044687,0.0013595,0.013814,-1.5431,0.019953,0.038636,1.9577e-06,0.49,1,0
0.019041,-0.010039,0.040341,0.00013597,0.012143,-0.0023578,0,0,0.053345,-0.020812,0,-0.010076,0,0,0,0.040507,-2.9871e-05,0.012143,-3.5828,0.01754,0.036081,1.5029e-06,0.5,1,0
0.019709,-0.010534,0.035426,-0.0001487,0.010583,-0.0014812,0,0,0.064591,-0.027903,0,-0.0077021,0,0,0,0.035487,-0.00021026,0.010583,-2.3801,0.015287,0.03171,1.0209e-06,0.51,1,0
0.020333,-0.01089,0.033789,-0.00025214,0.010061,-0.00038619,0,0,0.061693,-0.026814,0,-0.0020082,0,0,0,0.033794,-0.00025652,0.010061,-0.6499,0.014533,0.030241,8.8317e-07,0.52,1,0
0.020942,-0.011197,0.033192,-0.00036781,0.0098472,-0.00020794,0,0,0.060696,-0.026559,0,-0.0010813,0,0,0,0.033193,-0.0003691,0.0098472,-0.355,0.014224,0.029798,8.3999e-07,0.53,1,0
0.021547,-0.011469,0.032999,-0.00030842,0.009807,-0.00011186,0,0,0.060298,-0.0263,0,-0.00058168,0,0,0,0.032999,-0.0003088,0.009807,-0.19243,0.014166,0.029577,8.2384e-07,0.54,1,0
0.022148,-0.011713,0.0329,-0.00026826,0.0097896,-6.6861e-05,0,0,0.060088,-0.02615,0,-0.00034767,0,0,0,0.0329,-0.00026839,0.0097896,-0.1155,0.014141,0.029457,8.1545e-07,0.55,1,0
0.022749,-0.011936,0.032858,-0.00023382,0.0097872,-3.9131e-05,0,0,0.059984,-0.026055,0,-0.00020348,0,0,0,0.032858,-0.00023387,0.0097872,-0.067752,0.014137,0.029392,8.1142e-07,0.56,1,0
0.023348,-0.012141,0.032848,-0.00020703,0.0097923,-2.1116e-05,0,0,0.059945,-0.025998,0,-0.0001098,0,0,0,0.032848,-0.00020704,0.0097923,-0.0366,0.014145,0.029361,8.1e-07,0.57,1,0
0.023948,-0.01233,0.032861,-0.00018537,0.0098026,-8.5715e-06,0,0,0.059951,-0.025969,0,-4.4572e-05,0,0,0,0.032861,-0.00018537,0.0098026,-0.014861,0.014159,0.029355,8.1038e-07,0.58,1,0
0.024547,-0.012506,0.03289,-0.00016757,0.0098166,4.8903e-07,0,0,0.05999,-0.025959,0,2.543e-06,0,0,0,0.03289,-0.00016757,0.0098166,0.0008476,0.01418,0.029367,8.1204e-07,0.59,1,0
0.025147,-0.012669,0.03293,-0.00015265,0.0098333,7.2194e-06,0,0,0.060052,-0.025963,0,3.7541e-05,0,0,0,0.03293,-0.00015265,0.0098333,0.012503,0.014204,0.029391,8.1466e-07,0.6,1,0
0.025748,-0.012821,0.03298,-0.00013994,0.009852,1.2312e-05,0,0,0.060132,-0.025979,0,6.4022e-05,0,0,0,0.03298,-0.00013995,0.009852,0.021299,0.014231,0.029425,8.18e-07,0.61,1,0
0.02635,-0.012962,0.033036,-0.00012897,0.0098721,1.6211e-05,0,0,0.060226,-0.026003,0,8.4296e-05,0,0,0,0.033036,-0.00012898,0.0098721,0.028006,0.01426,0.029466,8.219e-07,0.62,1,0
0.026953,-0.013095,0.033098,-0.00011938,0.0098934,1.9213e-05,0,0,0.060331,-0.026033,0,9.9907e-05,0,0,0,0.033098,-0.00011939,0.0098934,0.03314,0.01429,0.029513,8.2624e-07,0.63,1,0
0.027557,-0.013219,0.033163,-0.00011091,0.0099155,2.1524e-05,0,0,0.060443,-0.026069,0,0.00011192,0,0,0,0.033163,-0.00011092,0.0099155,0.037063,0.014322,0.029564,8.309e-07,0.64,1,0
0.028162,-0.013335,0.033231,-0.00010337,0.0099382,2.3291e-05,0,0,0.060561,-0.026108,0,0.00012111,0,0,0,0.033231,-0.00010339,0.0099382,0.040033,0.014355,0.029619,8.3581e-07,0.65,1,0
0.028768,-0.013444,0.033301,-9.6613e-05,0.0099612,2.4621e-05,0,0,0.060683,-0.02615,0,0.00012803,0,0,0,0.033301,-9.6631e-05,0.0099612,0.04224,0.014389,0.029676,8.4092e-07,0.66,1,0
0.029375,-0.013546,0.033372,-9.0512e-05,0.0099845,2.5596e-05,0,0,0.060808,-0.026195,0,0.0001331,0,0,0,0.033372,-9.0532e-05,0.0099845,0.043826,0.014422,0.029734,8.4617e-07,0.67,1,0
0.029984,-0.013642,0.033444,-8.4975e-05,0.010008,2.6277e-05,0,0,0.060935,-0.026241,0,0.00013664,0,0,0,0.033444,-8.4996e-05,0.010008,0.044903,0.014456,0.029794,8.5152e-07,0.68,1,0
0.030594,-0.013731,0.033517,-7.9927e-05,0.010031,2.6712e-05,0,0,0.061063,-0.026288,0,0.0001389,0,0,0,0.033517,-7.9948e-05,0.010031,0.045555,0.014489,0.029854,8.5692e-07,0.69,1,0
0.031205,-0.013815,0.033589,-7.5305e-05,0.010054,2.6939e-05,0,0,0.061191,-0.026337,0,0.00014008,0,0,0,0.033589,-7.5327e-05,0.010054,0.04585,0.014523,0.029915,8.6235e-07,0.7,1,0
0.031818,-0.013894,0.033661,-7.1059e-05,0.010077,2.6989e-05,0,0,0.061318,-0.026385,0,0.00014034,0,0,0,0.033661,-7.1081e-05,0.010077,0.045842,0.014556,0.029975,8.6778e-07,0.71,1,0
0.032432,-0.013968,0.033732,-6.7147e-05,0.0101,2.6885e-05,0,0,0.061445,-0.026433,0,0.0001398,0,0,0,0.033732,-6.7169e-05,0.0101,0.045575,0.014588,0.030035,8.7319e-07,0.72,1,0
0.033047,-0.014038,0.033802,-6.3534e-05,0.010122,2.6649e-05,0,0,0.06157,-0.026482,0,0.00013857,0,0,0,0.033802,-6.3555e-05,0.010122,0.045085,0.01462,0.030095,8.7855e-07,0.73,1,0
0.033663,-0.014103,0.033871,-6.0189e-05,0.010143,2.6296e-05,0,0,0.061693,-0.026529,0,0.00013674,0,0,0,0.033871,-6.021e-05,0.010143,0.044403,0.014651,0.030154,8.8384e-07,0.74,1,0
0.03428,-0.014164,0.033939,-5.7089e-05,0.010164,2.5842e-05,0,0,0.061813,-0.026576,0,0.00013438,0,0,0,0.033939,-5.7108e-05,0.010164,0.043554,0.014682,0.030211,8.8904e-07,0.75,1,0
0.034899,-0.014221,0.034005,-5.421e-05,0.010185,2.5298e-05,0,0,0.061931,-0.026622,0,0.00013155,0,0,0,0.034005,-5.4229e-05,0.010185,0.042557,0.014712,0.030267,8.9414e-07,0.76,1,0
0.035519,-0.014274,0.034069,-5.1536e-05,0.010205,2.4674e-05,0,0,0.062045,-0.026668,0,0.0001283,0,0,0,0.034069,-5.1554e-05,0.010205,0.041433,0.014741,0.030322,8.9913e-07,0.77,1,0
0.03614,-0.014324,0.034131,-4.905e-05,0.010225,2.3978e-05,0,0,0.062157,-0.026711,0,0.00012469,0,0,0,0.034131,-4.9067e-05,0.010225,0.040195,0.014769,0.030375,9.0399e-07,0.78,1,0
0.036762,-0.01437,0.034191,-4.6739e-05,0.010243,2.3219e-05,0,0,0.062264,-0.026754,0,0.00012074,0,0,0,0.034191,-4.6755e-05,0.010243,0.038857,0.014796,0.030427,9.087e-07,0.79,1,0
0.037385,-0.014414,0.034249,-4.459e-05,0.010261,2.2403e-05,0,0,0.062368,-0.026795,0,0.0001165,0,0,0,0.034249,-4.4605e-05,0.010261,0.03743,0.014822,0.030477,9.1327e-07,0.8,1,0
0.03801,-0.014454,0.034305,-4.2593e-05,0.010279,2.1536e-05,0,0,0.062468,-0.026835,0,0.00011199,0,0,0,0.034305,-4.2607e-05,0.010279,0.035926,0.014847,0.030525,9.1767e-07,0.81,1,0
0.038635,-0.014492,0.034358,-4.0739e-05,0.010295,2.0623e-05,0,0,0.062563,-0.026873,0,0.00010724,0,0,0,0.034358,-4.0752e-05,0.010295,0.034351,0.014871,0.030571,9.2189e-07,0.82,1,0
0.039261,-0.014526,0.034409,-3.902e-05,0.010311,1.9669e-05,0,0,0.062654,-0.02691,0,0.00010228,0,0,0,0.034409,-3.9032e-05,0.010311,0.032715,0.014894,0.030614,9.2594e-07,0.83,1,0
0.039888,-0.014559,0.034457,-3.7429e-05,0.010326,1.8677e-05,0,0,0.062741,-0.026944,0,9.712e-05,0,0,0,0.034457,-3.7439e-05,0.010326,0.031023,0.014915,0.030656,9.2979e-07,0.84,1,0
0.040516,-0.014588,0.034503,-3.596e-05,0.01034,1.7651e-05,0,0,0.062823,-0.026978,0,9.1788e-05,0,0,0,0.034503,-3.5968e-05,0.01034,0.029282,0.014936,0.030695,9.3344e-07,0.85,1,0
0.041144,-0.014616,0.034545,-3.4606e-05,0.010353,1.6596e-05,0,0,0.0629,-0.027009,0,8.6298e-05,0,0,0,0.034546,-3.4614e-05,0.010353,0.027497,0.014955,0.030732,9.3689e-07,0.86,1,0
0.041774,-0.014641,0.034586,-3.3364e-05,0.010366,1.5513e-05,0,0,0.062972,-0.027038,0,8.0666e-05,0,0,0,0.034586,-3.3371e-05,0.010366,0.025674,0.014973,0.030767,9.4013e-07,0.87,1,0
0.042404,-0.014663,0.034623,-3.2228e-05,0.010377,1.4405e-05,0,0,0.063039,-0.027065,0,7.4907e-05,0,0,0,0.034623,-3.2234e-05,0.010377,0.023816,0.014989,0.0308,9.4315e-07,0.88,1,0
0.043035,-0.014684,0.034658,-3.1196e-05,0.010388,1.3276e-05,0,0,0.063102,-0.02709,0,6.9034e-05,0,0,0,0.034658,-3.1201e-05,0.010388,0.021928,0.015005,0.030829,9.4595e-07,0.89,1,0
0.043666,-0.014703,0.034689,-3.0263e-05,0.010398,1.2127e-05,0,0,0.063159,-0.027113,0,6.306e-05,0,0,0,0.034689,-3.0268e-05,0.010398,0.020012,0.015019,0.030857,9.4853e-07,0.9,1,0
0.044298,-0.014719,0.034718,-2.9428e-05,0.010407,1.0961e-05,0,0,0.06321,-0.027134,0,5.6996e-05,0,0,0,0.034718,-2.9431e-05,0.010407,0.018073,0.015032,0.030882,9.5087e-07,0.91,1,0
0.04493,-0.014734,0.034744,-2.8687e-05,0.010415,9.7795e-06,0,0,0.063257,-0.027153,0,5.0853e-05,0,0,0,0.034744,-2.8689e-05,0.010415,0.016114,0.015043,0.030904,9.5297e-07,0.92,1,0
0.045563,-0.014747,0.034767,-2.8037e-05,0.010422,8.5849e-06,0,0,0.063298,-0.027169,0,4.4642e-05,0,0,0,0.034767,-2.8039e-05,0.010422,0.014136,0.015054,0.030924,9.5483e-07,0.93,1,0
0.046196,-0.014758,0.034787,-2.7478e-05,0.010428,7.379e-06,0,0,0.063334,-0.027184,0,3.8371e-05,0,0,0,0.034787,-2.748e-05,0.010428,0.012144,0.015062,0.030941,9.5646e-07,0.94,1,0
0.046829,-0.014768,0.034804,-2.7008e-05,0.010433,6.1635e-06,0,0,0.063364,-0.027196,0,3.205e-05,0,0,0,0.034804,-2.7009e-05,0.010433,0.010139,0.01507,0.030956,9.5783e-07,0.95,1,0
0.047463,-0.014775,0.034818,-2.6625e-05,0.010437,4.9401e-06,0,0,0.063389,-0.027206,0,2.5689e-05,0,0,0,0.034818,-2.6626e-05,0.010437,0.0081233,0.015076,0.030968,9.5896e-07,0.96,1,0
0.048097,-0.014781,0.034828,-2.6328e-05,0.010441,3.7105e-06,0,0,0.063408,-0.027214,0,1.9295e-05,0,0,0,0.034828,-2.6328e-05,0.010441,0.0060995,0.015081,0.030977,9.5984e-07,0.97,1,0
0.048731,-0.014785,0.034836,-2.6116e-05,0.010443,2.4762e-06,0,0,0.063422,-0.02722,0,1.2876e-05,0,0,0,0.034836,-2.6117e-05,0.010443,0.0040697,0.015084,0.030984,9.6047e-07,0.98,1,0
0.049366,-0.014788,0.034841,-2.599e-05,0.010444,1.2389e-06,0,0,0.06343,-0.027223,0,6.4422e-06,0,0,0,0.034841,-2.599e-05,0.010444,0.0020358,0.015086,0.030988,9.6085e-07,0.99,1,0
0.05,-0.014789,0.034842,-2.5948e-05,0.010445,-1.6026e-05,0,0,0.063433,-0.027224,0,-8.3333e-05,0,0,0,0.034842,-2.5955e-05,0.010445,-0.026333,0.015087,0.030989,9.6098e-07,1,1,0
