"Displacements:0","Displacements:1","Stress/Strain:0","Stress/Strain:1","Stress/Strain:2","Stress/Strain:3","Stress/Strain:4","Stress/Strain:5","Stress/Strain:6","Stress/Strain:7","Stress/Strain:8","Stress/Strain:9","Stress/Strain:10","Stress/Strain:11","Stress/Strain:12","Principal Stress:0","Principal Stress:1","Principal Stress:2","Principal Stress:3","Principal Stress:4","Principal Stress:5","Principal Stress:6","nodes:0","nodes:1","nodes:2"
0,0,0.08585,0.036793,0.036793,0.024012,0,0,0.12755,-6.9389e-18,0,0.12486,0,0,0,0.095647,0.026996,0.036793,22.195,0.053145,0.064314,1.2601e-05,0,0,0
0.0012755,0.0012486,0.061887,0.004482,0.019911,0.00949,0,0,0.10914,-0.040115,0,0.049348,0,0,0,0.063415,0.0029539,0.019911,9.1477,0.02876,0.054018,5.4873e-06,0.01,0,0
0.0021828,0.0020352,0.046222,0.0019833,0.014462,0.0031235,0,0,0.082578,-0.032444,0,0.016242,0,0,0,0.046442,0.0017638,0.014462,4.0188,0.020889,0.039875,2.1779e-06,0.02,0,0
0.002927,0.0027269,0.038788,3.3378e-05,0.011646,0.0019222,0,0,0.070568,-0.030194,0,0.0099952,0,0,0,0.038883,-6.1724e-05,0.011646,2.8325,0.016822,0.034609,1.3368e-06,0.03,0,0
0.0035941,0.0033314,0.035188,-0.00019581,0.010498,0.0012231,0,0,0.064195,-0.027803,0,0.00636,0,0,0,0.03523,-0.00023804,0.010498,1.9773,0.015163,0.031503,9.9978e-07,0.04,0,0
0.0042109,0.003877,0.032789,-0.00030016,0.0097467,0.00087976,0,0,0.05991,-0.026122,0,0.0045748,0,0,0,0.032813,-0.00032354,0.0097467,1.5219,0.014079,0.029423,8.1039e-07,0.05,0,0
0.0047923,0.0043753,0.031074,-0.00031526,0.0092277,0.00066372,0,0,0.056801,-0.024812,0,0.0034514,0,0,0,0.031088,-0.00032929,0.0092277,1.2108,0.013329,0.027895,6.8975e-07,0.06,0,0
0.005347,0.0048344,0.029764,-0.00031169,0.0088358,0.00052014,0,0,0.054414,-0.023783,0,0.0027047,0,0,0,0.029773,-0.00032069,0.0088358,0.99048,0.012763,0.02672,6.0599e-07,0.07,0,0
0.0058806,0.0052599,0.028731,-0.00029981,0.0085293,0.00041772,0,0,0.052524,-0.022956,0,0.0021721,0,0,0,0.028737,-0.00030582,0.0085293,0.8242,0.01232,0.025786,5.448e-07,0.08,0,0
0.0063974,0.0056557,0.027896,-0.00028567,0.0082831,0.00034155,0,0,0.050993,-0.022279,0,0.001776,0,0,0,0.0279,-0.00028981,0.0082831,0.69427,0.011964,0.02503,4.9845e-07,0.09,0,0
0.0069005,0.006025,0.027211,-0.0002712,0.0080818,0.00028294,0,0,0.049735,-0.021718,0,0.0014713,0,0,0,0.027214,-0.00027412,0.0080818,0.5898,0.011674,0.024407,4.624e-07,0.1,0,0
0.0073921,0.0063702,0.026642,-0.00025726,0.0079153,0.00023664,0,0,0.048689,-0.021249,0,0.0012305,0,0,0,0.026644,-0.00025935,0.0079153,0.50401,0.011433,0.023889,4.3382e-07,0.11,0,0
0.0078743,0.0066933,0.026166,-0.00024416,0.0077765,0.00019929,0,0,0.047812,-0.020854,0,0.0010363,0,0,0,0.026167,-0.00024566,0.0077765,0.43233,0.011233,0.023454,4.108e-07,0.12,0,0
0.0083484,0.006996,0.025765,-0.00023197,0.00766,0.00016863,0,0,0.047074,-0.020519,0,0.00087688,0,0,0,0.025766,-0.00023307,0.00766,0.37163,0.011064,0.023088,3.9206e-07,0.13,0,0
0.0088157,0.0072799,0.025427,-0.00022069,0.0075619,0.00014308,0,0,0.046449,-0.020235,0,0.00074403,0,0,0,0.025428,-0.00022149,0.0075619,0.31963,0.010923,0.022778,3.7669e-07,0.14,0,0
0.0092774,0.007546,0.025141,-0.00021026,0.0074793,0.00012152,0,0,0.045921,-0.019993,0,0.00063193,0,0,0,0.025142,-0.00021084,0.0074793,0.27464,0.010803,0.022515,3.64e-07,0.15,0,0
0.0097342,0.0077955,0.0249,-0.0002006,0.0074098,0.00010313,0,0,0.045474,-0.019787,0,0.00053629,0,0,0,0.0249,-0.00020102,0.0074098,0.23541,0.010703,0.022293,3.5349e-07,0.16,0,0
0.010187,0.0080293,0.024697,-0.00019164,0.0073515,8.7284e-05,0,0,0.045098,-0.019612,0,0.00045388,0,0,0,0.024697,-0.00019195,0.0073515,0.20094,0.010619,0.022105,3.4479e-07,0.17,0,0
0.010636,0.0082483,0.024527,-0.00018331,0.007303,7.3508e-05,0,0,0.044781,-0.019464,0,0.00038224,0,0,0,0.024527,-0.00018353,0.007303,0.17044,0.010549,0.021947,3.3761e-07,0.18,0,0
0.011083,0.0084533,0.024385,-0.00017555,0.0072629,6.1433e-05,0,0,0.044518,-0.01934,0,0.00031945,0,0,0,0.024385,-0.0001757,0.0072629,0.14331,0.010491,0.021815,3.3171e-07,0.19,0,0
0.011527,0.008645,0.024269,-0.00016828,0.0072303,5.0767e-05,0,0,0.044301,-0.019236,0,0.00026399,0,0,0,0.024269,-0.00016838,0.0072303,0.11903,0.010444,0.021706,3.269e-07,0.2,0,0
0.011968,0.0088239,0.024176,-0.00016146,0.0072043,4.1277e-05,0,0,0.044126,-0.019151,0,0.00021464,0,0,0,0.024176,-0.00016153,0.0072043,0.097176,0.010406,0.021617,3.2306e-07,0.21,0,0
0.012409,0.0089908,0.024102,-0.00015504,0.0071842,3.2774e-05,0,0,0.043988,-0.019082,0,0.00017042,0,0,0,0.024103,-0.00015508,0.0071842,0.077411,0.010377,0.021547,3.2004e-07,0.22,0,0
0.012848,0.009146,0.024047,-0.00014897,0.0071695,2.5101e-05,0,0,0.043882,-0.019028,0,0.00013053,0,0,0,0.024047,-0.00014899,0.0071695,0.059438,0.010356,0.021493,3.1777e-07,0.23,0,0
0.013287,0.0092902,0.024009,-0.00014321,0.0071596,1.8131e-05,0,0,0.043807,-0.018987,0,9.4283e-05,0,0,0,0.024009,-0.00014322,0.0071596,0.043013,0.010342,0.021454,3.1616e-07,0.24,0,0
0.013724,0.0094237,0.023985,-0.00013772,0.0071542,1.1757e-05,0,0,0.04376,-0.018959,0,6.1139e-05,0,0,0,0.023985,-0.00013773,0.0071542,0.027926,0.010334,0.021428,3.1515e-07,0.25,0,0
0.014162,0.0095471,0.023975,-0.00013248,0.0071528,5.8902e-06,0,0,0.043738,-0.018942,0,3.0629e-05,0,0,0,0.023975,-0.00013248,0.0071528,0.013999,0.010332,0.021415,3.1469e-07,0.26,0,0
0.014599,0.0096607,0.023978,-0.00012745,0.0071552,4.5482e-07,0,0,0.043739,-0.018935,0,2.365e-06,0,0,0,0.023978,-0.00012745,0.0071552,0.001081,0.010335,0.021414,3.1473e-07,0.27,0,0
0.015037,0.0097649,0.023993,-0.0001226,0.0071611,-4.6118e-06,0,0,0.043763,-0.018937,0,-2.3981e-05,0,0,0,0.023993,-0.0001226,0.0071611,-0.010957,0.010344,0.021423,3.1525e-07,0.28,0,0
0.015474,0.0098601,0.024019,-0.00011791,0.0071703,-9.3626e-06,0,0,0.043806,-0.018949,0,-4.8685e-05,0,0,0,0.024019,-0.00011791,0.0071703,-0.022225,0.010357,0.021443,3.1621e-07,0.29,0,0
0.015913,0.0099467,0.024055,-0.00011334,0.0071826,-1.3842e-05,0,0,0.043869,-0.018969,0,-7.1977e-05,0,0,0,0.024055,-0.00011335,0.0071826,-0.032814,0.010375,0.021472,3.1759e-07,0.3,0,0
0.016352,0.010025,0.024102,-0.00010888,0.0071979,-1.8086e-05,0,0,0.04395,-0.018998,0,-9.4047e-05,0,0,0,0.024102,-0.00010889,0.0071979,-0.042801,0.010397,0.021509,3.1937e-07,0.31,0,0
0.016792,0.010095,0.024158,-0.00010451,0.007216,-2.2125e-05,0,0,0.044049,-0.019033,0,-0.00011505,0,0,0,0.024158,-0.00010453,0.007216,-0.052248,0.010423,0.021556,3.2154e-07,0.32,0,0
0.017233,0.010158,0.024223,-0.0001002,0.0072369,-2.5983e-05,0,0,0.044164,-0.019076,0,-0.00013511,0,0,0,0.024223,-0.00010023,0.0072369,-0.061205,0.010453,0.02161,3.2409e-07,0.33,0,0
0.017675,0.010213,0.024297,-9.5936e-05,0.0072604,-2.9678e-05,0,0,0.044296,-0.019126,0,-0.00015433,0,0,0,0.024297,-9.5972e-05,0.0072604,-0.069709,0.010487,0.021673,3.27e-07,0.34,0,0
0.018119,0.010261,0.02438,-9.1702e-05,0.0072864,-3.3224e-05,0,0,0.044442,-0.019183,0,-0.00017276,0,0,0,0.02438,-9.1747e-05,0.0072864,-0.077788,0.010525,0.021742,3.3027e-07,0.35,0,0
0.018564,0.010303,0.02447,-8.7481e-05,0.0073148,-3.6628e-05,0,0,0.044604,-0.019246,0,-0.00019047,0,0,0,0.02447,-8.7535e-05,0.0073148,-0.085457,0.010566,0.02182,3.339e-07,0.36,0,0
0.019011,0.010338,0.024569,-8.3258e-05,0.0073456,-3.9896e-05,0,0,0.04478,-0.019315,0,-0.00020746,0,0,0,0.024569,-8.3322e-05,0.0073456,-0.092725,0.01061,0.021904,3.3788e-07,0.37,0,0
0.01946,0.010367,0.024675,-7.902e-05,0.0073787,-4.3026e-05,0,0,0.044969,-0.01939,0,-0.00022374,0,0,0,0.024675,-7.9095e-05,0.0073787,-0.09959,0.010658,0.021995,3.4221e-07,0.38,0,0
0.01991,0.01039,0.024788,-7.4757e-05,0.0074139,-4.6016e-05,0,0,0.045172,-0.019471,0,-0.00023928,0,0,0,0.024788,-7.4842e-05,0.0074139,-0.10604,0.010709,0.022092,3.4687e-07,0.39,0,0
0.020363,0.010408,0.024908,-7.046e-05,0.0074513,-4.8857e-05,0,0,0.045388,-0.019557,0,-0.00025406,0,0,0,0.024908,-7.0555e-05,0.0074513,-0.11207,0.010763,0.022195,3.5187e-07,0.4,0,0
0.020818,0.01042,0.025035,-6.6121e-05,0.0074906,-5.1539e-05,0,0,0.045615,-0.019647,0,-0.000268,0,0,0,0.025035,-6.6226e-05,0.0074906,-0.11764,0.01082,0.022305,3.572e-07,0.41,0,0
0.021275,0.010428,0.025168,-6.1734e-05,0.0075318,-5.4048e-05,0,0,0.045854,-0.019743,0,-0.00028105,0,0,0,0.025168,-6.185e-05,0.0075318,-0.12274,0.010879,0.022419,3.6285e-07,0.42,0,0
0.021735,0.010431,0.025307,-5.7299e-05,0.0075748,-5.6366e-05,0,0,0.046103,-0.019844,0,-0.0002931,0,0,0,0.025307,-5.7424e-05,0.0075748,-0.12733,0.010941,0.022539,3.6882e-07,0.43,0,0
0.022197,0.01043,0.025451,-5.2813e-05,0.0076194,-5.8476e-05,0,0,0.046362,-0.019948,0,-0.00030407,0,0,0,0.025451,-5.2947e-05,0.0076194,-0.13137,0.011006,0.022664,3.7508e-07,0.44,0,0
0.022662,0.010425,0.0256,-4.8279e-05,0.0076654,-6.0355e-05,0,0,0.046629,-0.020056,0,-0.00031385,0,0,0,0.0256,-4.8421e-05,0.0076654,-0.13483,0.011072,0.022792,3.8163e-07,0.45,0,0
0.02313,0.010417,0.025753,-4.3701e-05,0.0077128,-6.1982e-05,0,0,0.046905,-0.020167,0,-0.00032231,0,0,0,0.025753,-4.385e-05,0.0077128,-0.13767,0.011141,0.022925,3.8845e-07,0.46,0,0
0.0236,0.010405,0.02591,-3.9087e-05,0.0077612,-6.3334e-05,0,0,0.047186,-0.020281,0,-0.00032933,0,0,0,0.02591,-3.9242e-05,0.0077612,-0.13984,0.011211,0.023061,3.9551e-07,0.47,0,0
0.024074,0.01039,0.02607,-3.4446e-05,0.0078105,-6.4385e-05,0,0,0.047474,-0.020397,0,-0.0003348,0,0,0,0.02607,-3.4605e-05,0.0078105,-0.14132,0.011282,0.023199,4.0279e-07,0.48,0,0
0.02455,0.010373,0.026232,-2.9791e-05,0.0078605,-6.5113e-05,0,0,0.047765,-0.020515,0,-0.00033859,0,0,0,0.026232,-2.9953e-05,0.0078605,-0.14206,0.011354,0.023339,4.1026e-07,0.49,0,0
0.025029,0.010354,0.026395,-2.5137e-05,0.0079109,-6.5496e-05,0,0,0.048058,-0.020634,0,-0.00034058,0,0,0,0.026395,-2.5299e-05,0.0079109,-0.14204,0.011427,0.023481,4.1788e-07,0.5,0,0
0.025511,0.010333,0.026558,-2.0501e-05,0.0079614,-6.551e-05,0,0,0.048352,-0.020753,0,-0.00034065,0,0,0,0.026559,-2.0662e-05,0.0079614,-0.14122,0.0115,0.023622,4.2562e-07,0.51,0,0
0.025996,0.010311,0.026722,-1.5903e-05,0.0080117,-6.5139e-05,0,0,0.048646,-0.020872,0,-0.00033872,0,0,0,0.026722,-1.6061e-05,0.0080117,-0.13958,0.011572,0.023764,4.3344e-07,0.52,0,0
0.026484,0.010288,0.026884,-1.1365e-05,0.0080617,-6.4365e-05,0,0,0.048937,-0.02099,0,-0.0003347,0,0,0,0.026884,-1.1519e-05,0.0080617,-0.13712,0.011645,0.023904,4.4128e-07,0.53,0,0
0.026975,0.010264,0.027043,-6.9106e-06,0.0081108,-6.3175e-05,0,0,0.049223,-0.021106,0,-0.00032851,0,0,0,0.027043,-7.0581e-06,0.0081108,-0.13381,0.011716,0.024042,4.4909e-07,0.54,0,0
0.027468,0.010239,0.027199,-2.5655e-06,0.0081589,-6.156e-05,0,0,0.049504,-0.02122,0,-0.00032011,0,0,0,0.027199,-2.7048e-06,0.0081589,-0.12967,0.011785,0.024177,4.5682e-07,0.55,0,0
0.027965,0.010215,0.02735,1.6438e-06,0.0082055,-5.9517e-05,0,0,0.049776,-0.02133,0,-0.00030949,0,0,0,0.02735,1.5143e-06,0.0082055,-0.12469,0.011852,0.024308,4.6441e-07,0.56,0,0
0.028464,0.010191,0.027496,5.6901e-06,0.0082504,-5.7046e-05,0,0,0.050038,-0.021436,0,-0.00029664,0,0,0,0.027496,5.5717e-06,0.0082504,-0.1189,0.011917,0.024434,4.7179e-07,0.57,0,0
0.028966,0.010168,0.027635,9.5454e-06,0.0082933,-5.4154e-05,0,0,0.050288,-0.021538,0,-0.0002816,0,0,0,0.027635,9.4393e-06,0.0082933,-0.11232,0.011979,0.024555,4.7891e-07,0.58,0,0
0.02947,0.010146,0.027766,1.3182e-05,0.0083337,-5.0852e-05,0,0,0.050524,-0.021633,0,-0.00026443,0,0,0,0.027766,1.3089e-05,0.0083337,-0.10498,0.012038,0.024668,4.857e-07,0.59,0,0
0.029976,0.010124,0.027888,1.6573e-05,0.0083715,-4.7159e-05,0,0,0.050744,-0.021723,0,-0.00024523,0,0,0,0.027888,1.6494e-05,0.0083715,-0.096945,0.012092,0.024775,4.9209e-07,0.6,0,0
0.030485,0.010105,0.028001,1.9693e-05,0.0084063,-4.3099e-05,0,0,0.050947,-0.021805,0,-0.00022411,0,0,0,0.028001,1.9627e-05,0.0084063,-0.08825,0.012142,0.024872,4.9802e-07,0.61,0,0
0.030995,0.010087,0.028103,2.2516e-05,0.0084378,-3.87e-05,0,0,0.051131,-0.02188,0,-0.00020124,0,0,0,0.028103,2.2463e-05,0.0084378,-0.078963,0.012188,0.024961,5.0344e-07,0.62,0,0
0.031507,0.010072,0.028194,2.5021e-05,0.0084658,-3.3999e-05,0,0,0.051294,-0.021946,0,-0.00017679,0,0,0,0.028194,2.498e-05,0.0084658,-0.069153,0.012228,0.02504,5.083e-07,0.63,0,0
0.032021,0.010058,0.028273,2.7187e-05,0.00849,-2.9035e-05,0,0,0.051436,-0.022003,0,-0.00015098,0,0,0,0.028273,2.7157e-05,0.00849,-0.058897,0.012263,0.025108,5.1252e-07,0.64,0,0
0.032536,0.010048,0.028339,2.8997e-05,0.0085104,-2.3855e-05,0,0,0.051554,-0.022052,0,-0.00012404,0,0,0,0.028339,2.8977e-05,0.0085104,-0.048279,0.012293,0.025165,5.1609e-07,0.65,0,0
0.033052,0.010039,0.028392,3.0438e-05,0.0085267,-1.8506e-05,0,0,0.051649,-0.02209,0,-9.6231e-05,0,0,0,0.028392,3.0426e-05,0.0085267,-0.037386,0.012316,0.025211,5.1895e-07,0.66,0,0
0.033569,0.010034,0.028431,3.1499e-05,0.0085388,-1.3042e-05,0,0,0.05172,-0.022119,0,-6.7817e-05,0,0,0,0.028431,3.1493e-05,0.0085388,-0.026312,0.012334,0.025245,5.2109e-07,0.67,0,0
0.034086,0.010031,0.028457,3.2175e-05,0.0085467,-7.5172e-06,0,0,0.051766,-0.022138,0,-3.9089e-05,0,0,0,0.028457,3.2173e-05,0.0085467,-0.015152,0.012345,0.025267,5.2248e-07,0.68,0,0
0.034604,0.010031,0.028468,3.2461e-05,0.0085503,-1.9888e-06,0,0,0.051787,-0.022146,0,-1.0342e-05,0,0,0,0.028468,3.2461e-05,0.0085503,-0.0040072,0.01235,0.025277,5.2312e-07,0.69,0,0
0.035122,0.010034,0.028466,3.2362e-05,0.0085496,3.486e-06,0,0,0.051783,-0.022145,0,1.8127e-05,0,0,0,0.028466,3.2361e-05,0.0085496,0.0070244,0.012349,0.025276,5.2301e-07,0.7,0,0
0.03564,0.010039,0.028451,3.1882e-05,0.0085448,8.8499e-06,0,0,0.051755,-0.022134,0,4.6019e-05,0,0,0,0.028451,3.1879e-05,0.0085448,0.017843,0.012342,0.025262,5.2216e-07,0.71,0,0
0.036157,0.010048,0.028422,3.1032e-05,0.0085358,1.4047e-05,0,0,0.051703,-0.022113,0,7.3044e-05,0,0,0,0.028422,3.1025e-05,0.0085358,0.028348,0.01233,0.025237,5.2059e-07,0.72,0,0
0.036674,0.010059,0.02838,2.9826e-05,0.008523,1.9023e-05,0,0,0.051629,-0.022082,0,9.892e-05,0,0,0,0.02838,2.9813e-05,0.008523,0.038445,0.012311,0.025201,5.1832e-07,0.73,0,0
0.03719,0.010072,0.028326,2.8282e-05,0.0085064,2.3727e-05,0,0,0.051532,-0.022043,0,0.00012338,0,0,0,0.028326,2.8262e-05,0.0085064,0.048041,0.012287,0.025154,5.1541e-07,0.74,0,0
0.037705,0.010089,0.028261,2.6421e-05,0.0084863,2.8111e-05,0,0,0.051415,-0.021996,0,0.00014618,0,0,0,0.028261,2.6393e-05,0.0084863,0.057045,0.012258,0.025098,5.119e-07,0.75,0,0
0.038218,0.010107,0.028186,2.4269e-05,0.008463,3.2133e-05,0,0,0.051279,-0.021941,0,0.00016709,0,0,0,0.028186,2.4233e-05,0.008463,0.065377,0.012224,0.025033,5.0784e-07,0.76,0,0
0.03873,0.010128,0.0281,2.1854e-05,0.0084367,3.5754e-05,0,0,0.051126,-0.021878,0,0.00018592,0,0,0,0.0281,2.1808e-05,0.0084367,0.072958,0.012186,0.024959,5.033e-07,0.77,0,0
0.03924,0.01015,0.028007,1.9204e-05,0.0084078,3.8941e-05,0,0,0.050957,-0.02181,0,0.00020249,0,0,0,0.028007,1.915e-05,0.0084078,0.07972,0.012145,0.024878,4.9833e-07,0.78,0,0
0.039749,0.010174,0.027905,1.6354e-05,0.0083766,4.1667e-05,0,0,0.050775,-0.021736,0,0.00021667,0,0,0,0.027906,1.6291e-05,0.0083766,0.085602,0.012099,0.02479,4.93e-07,0.79,0,0
0.040256,0.0102,0.027798,1.3336e-05,0.0083435,4.3912e-05,0,0,0.050582,-0.021658,0,0.00022834,0,0,0,0.027798,1.3266e-05,0.0083435,0.090551,0.012052,0.024697,4.8739e-07,0.8,0,0
0.040761,0.010226,0.027686,1.0185e-05,0.0083088,4.5659e-05,0,0,0.050381,-0.021576,0,0.00023743,0,0,0,0.027686,1.011e-05,0.0083088,0.094526,0.012002,0.0246,4.8157e-07,0.81,0,0
0.041264,0.010254,0.02757,6.9376e-06,0.0082731,4.6901e-05,0,0,0.050172,-0.021492,0,0.00024388,0,0,0,0.02757,6.8577e-06,0.0082731,0.097493,0.01195,0.024499,4.756e-07,0.82,0,0
0.041764,0.010282,0.027452,3.629e-06,0.0082365,4.7633e-05,0,0,0.049959,-0.021406,0,0.00024769,0,0,0,0.027452,3.5464e-06,0.0082365,0.099431,0.011897,0.024397,4.6956e-07,0.83,0,0
0.042263,0.01031,0.027332,2.9506e-07,0.0081997,4.7859e-05,0,0,0.049744,-0.021318,0,0.00024887,0,0,0,0.027332,2.1126e-07,0.0081997,0.10033,0.011844,0.024293,4.6351e-07,0.84,0,0
0.042759,0.010338,0.027212,-3.0294e-06,0.0081628,4.7585e-05,0,0,0.049529,-0.021231,0,0.00024744,0,0,0,0.027213,-3.1125e-06,0.0081628,0.10018,0.011791,0.024189,4.5752e-07,0.85,0,0
0.043253,0.010367,0.027094,-6.3101e-06,0.0081264,4.6826e-05,0,0,0.049316,-0.021145,0,0.00024349,0,0,0,0.027094,-6.3911e-06,0.0081264,0.098999,0.011738,0.024087,4.5164e-07,0.86,0,0
0.043745,0.010394,0.026978,-9.5146e-06,0.0080907,4.5597e-05,0,0,0.049108,-0.021061,0,0.0002371,0,0,0,0.026979,-9.5916e-06,0.0080907,0.096803,0.011687,0.023987,4.4594e-07,0.87,0,0
0.044235,0.010421,0.026867,-1.2611e-05,0.0080562,4.392e-05,0,0,0.048907,-0.020979,0,0.00022839,0,0,0,0.026867,-1.2683e-05,0.0080562,0.093621,0.011637,0.02389,4.4046e-07,0.88,0,0
0.044724,0.010446,0.026759,-1.5571e-05,0.0080231,4.182e-05,0,0,0.048714,-0.020901,0,0.00021747,0,0,0,0.026759,-1.5637e-05,0.0080231,0.089492,0.011589,0.023797,4.3526e-07,0.89,0,0
0.04521,0.010471,0.026658,-1.8367e-05,0.0079918,3.9324e-05,0,0,0.048531,-0.020827,0,0.00020449,0,0,0,0.026658,-1.8425e-05,0.0079918,0.084462,0.011544,0.023709,4.3037e-07,0.9,0,0
0.045694,0.010493,0.026563,-2.0973e-05,0.0079626,3.6463e-05,0,0,0.048361,-0.020757,0,0.00018961,0,0,0,0.026563,-2.1023e-05,0.0079626,0.078588,0.011501,0.023627,4.2584e-07,0.91,0,0
0.046177,0.010514,0.026476,-2.3367e-05,0.0079357,3.3269e-05,0,0,0.048204,-0.020694,0,0.000173,0,0,0,0.026476,-2.3409e-05,0.0079357,0.071932,0.011463,0.023551,4.2171e-07,0.92,0,0
0.046658,0.010533,0.026397,-2.5527e-05,0.0079114,2.9775e-05,0,0,0.048063,-0.020636,0,0.00015483,0,0,0,0.026397,-2.5561e-05,0.0079114,0.064564,0.011428,0.023483,4.1799e-07,0.93,0,0
0.047138,0.01055,0.026327,-2.7437e-05,0.0078899,2.6017e-05,0,0,0.047937,-0.020585,0,0.00013529,0,0,0,0.026327,-2.7462e-05,0.0078899,0.056561,0.011397,0.023422,4.1472e-07,0.94,0,0
0.047617,0.010565,0.026267,-2.9078e-05,0.0078715,2.2031e-05,0,0,0.047829,-0.020541,0,0.00011456,0,0,0,0.026267,-2.9097e-05,0.0078715,0.048002,0.01137,0.02337,4.1192e-07,0.95,0,0
0.048095,0.010577,0.026217,-3.044e-05,0.0078561,1.7855e-05,0,0,0.047739,-0.020505,0,9.2844e-05,0,0,0,0.026217,-3.0452e-05,0.0078561,0.038974,0.011348,0.023327,4.096e-07,0.96,0,0
0.048572,0.010587,0.026178,-3.151e-05,0.007844,1.3525e-05,0,0,0.047669,-0.020476,0,7.0331e-05,0,0,0,0.026178,-3.1517e-05,0.007844,0.029567,0.01133,0.023293,4.0778e-07,0.97,0,0
0.049048,0.010593,0.02615,-3.2281e-05,0.0078353,9.0809e-06,0,0,0.047618,-0.020456,0,4.722e-05,0,0,0,0.02615,-3.2284e-05,0.0078353,0.019872,0.011318,0.023268,4.0648e-07,0.98,0,0
0.049524,0.010597,0.026133,-3.2746e-05,0.00783,4.5596e-06,0,0,0.047587,-0.020443,0,2.371e-05,0,0,0,0.026133,-3.2747e-05,0.00783,0.0099844,0.01131,0.023254,4.0569e-07,0.99,0,0
0.05,0.010599,0.026127,-3.2901e-05,0.0078283,2.6636e-05,0,0,0.047577,-0.020439,0,0.00013851,0,0,0,0.026127,-3.2928e-05,0.0078283,0.058339,0.011307,0.023249,4.0543e-07,1,0,0
0,0,0.050573,0.021674,0.021674,0.016297,0,0,0.075137,3.4694e-18,0,0.084746,0,0,0,0.057904,0.014343,0.021674,24.22,0.031307,0.040397,3.0135e-06,0,0.01,0
0.00075137,0.00084746,0.046008,0.0044,0.015123,0.010211,0,0,0.080303,-0.027879,0,0.053098,0,0,0,0.048379,0.0020292,0.015123,13.071,0.021844,0.041387,2.4503e-06,0.01,0.01,0
0.0016061,0.0017108,0.046206,0.0034851,0.014907,0.0067607,0,0,0.081376,-0.029698,0,0.035156,0,0,0,0.04725,0.0024407,0.014907,8.7815,0.021533,0.040058,2.2555e-06,0.02,0.01,0
0.0023789,0.0024249,0.041353,0.0018353,0.012956,0.0041564,0,0,0.07383,-0.028915,0,0.021614,0,0,0,0.041785,0.0014028,0.012956,5.9398,0.018715,0.036023,1.5946e-06,0.03,0.01,0
0.0030827,0.0030534,0.037708,0.0010703,0.011633,0.0028632,0,0,0.067794,-0.027464,0,0.014888,0,0,0,0.03793,0.00084788,0.011633,4.4416,0.016804,0.033037,1.2085e-06,0.04,0.01,0
0.0037348,0.0036158,0.035052,0.00066905,0.010716,0.0020843,0,0,0.063273,-0.026123,0,0.010838,0,0,0,0.035178,0.00054316,0.010716,3.4564,0.015479,0.030834,9.7164e-07,0.05,0.01,0
0.0043481,0.0041272,0.033076,0.00044888,0.010057,0.0015902,0,0,0.059848,-0.024982,0,0.0082692,0,0,0,0.033153,0.00037155,0.010057,2.7838,0.014527,0.029171,8.1716e-07,0.06,0.01,0
0.0049317,0.0045966,0.031553,0.00031788,0.0095612,0.001252,0,0,0.057178,-0.024033,0,0.0065106,0,0,0,0.031603,0.00026778,0.0095612,2.2918,0.013811,0.027876,7.0996e-07,0.07,0.01,0
0.0054917,0.0050303,0.030346,0.00023487,0.0091744,0.0010089,0,0,0.055047,-0.023243,0,0.0052461,0,0,0,0.03038,0.00020111,0.0091744,1.9168,0.013252,0.026842,6.3198e-07,0.08,0.01,0
0.0060326,0.0054329,0.02937,0.00017941,0.0088648,0.00082686,0,0,0.053313,-0.022582,0,0.0042997,0,0,0,0.029393,0.00015601,0.0088648,1.6213,0.012805,0.026001,5.7319e-07,0.09,0.01,0
0.006558,0.0058078,0.028567,0.00014075,0.0086122,0.00068634,0,0,0.051881,-0.022026,0,0.0035689,0,0,0,0.028583,0.00012419,0.0086122,1.3823,0.01244,0.025306,5.2764e-07,0.1,0.01,0
0.0070703,0.0061577,0.027898,0.00011285,0.0084032,0.0005751,0,0,0.050686,-0.021555,0,0.0029905,0,0,0,0.02791,0.00010095,0.0084032,1.1852,0.012138,0.024726,4.916e-07,0.11,0.01,0
0.0075717,0.0064848,0.027336,9.2133e-05,0.0082284,0.00048524,0,0,0.049679,-0.021154,0,0.0025232,0,0,0,0.027344,8.3493e-05,0.0082284,1.0201,0.011885,0.024237,4.6262e-07,0.12,0.01,0
0.0080639,0.0067909,0.02686,7.6373e-05,0.008081,0.0004114,0,0,0.048826,-0.020812,0,0.0021393,0,0,0,0.026867,7.0056e-05,0.008081,0.87977,0.011673,0.023824,4.3901e-07,0.13,0.01,0
0.0085482,0.0070775,0.026457,6.4144e-05,0.0079562,0.00034984,0,0,0.048101,-0.020519,0,0.0018192,0,0,0,0.026461,5.9508e-05,0.0079562,0.75929,0.011492,0.023472,4.1959e-07,0.14,0.01,0
0.0090259,0.007346,0.026113,5.4492e-05,0.0078501,0.00029788,0,0,0.047482,-0.020268,0,0.0015489,0,0,0,0.026116,5.1088e-05,0.0078501,0.65485,0.011339,0.023172,4.035e-07,0.15,0.01,0
0.0094979,0.0075976,0.025819,4.6763e-05,0.0077597,0.00025354,0,0,0.046954,-0.020054,0,0.0013184,0,0,0,0.025821,4.4269e-05,0.0077597,0.56358,0.011208,0.022915,3.9011e-07,0.16,0.01,0
0.009965,0.0078332,0.025569,4.0498e-05,0.0076827,0.00021533,0,0,0.046503,-0.01987,0,0.0011197,0,0,0,0.02557,3.8682e-05,0.0076827,0.48325,0.011097,0.022697,3.7892e-07,0.17,0.01,0
0.010428,0.0080537,0.025355,3.5366e-05,0.0076173,0.00018212,0,0,0.04612,-0.019713,0,0.00094703,0,0,0,0.025357,3.4056e-05,0.0076173,0.41208,0.011003,0.02251,3.6958e-07,0.18,0.01,0
0.010887,0.0082599,0.025175,3.1125e-05,0.0075619,0.00015302,0,0,0.045794,-0.01958,0,0.00079569,0,0,0,0.025176,3.0194e-05,0.0075619,0.34866,0.010923,0.022353,3.6178e-07,0.19,0.01,0
0.011344,0.0084526,0.025023,2.7595e-05,0.0075152,0.00012732,0,0,0.04552,-0.019468,0,0.00066205,0,0,0,0.025024,2.6946e-05,0.0075152,0.29183,0.010855,0.02222,3.5531e-07,0.2,0.01,0
0.011798,0.0086324,0.024896,2.4637e-05,0.0074763,0.00010446,0,0,0.045292,-0.019374,0,0.00054318,0,0,0,0.024897,2.4199e-05,0.0074763,0.24063,0.010799,0.02211,3.4997e-07,0.21,0.01,0
0.01225,0.0087999,0.024792,2.2148e-05,0.0074443,8.3985e-05,0,0,0.045105,-0.019298,0,0.00043672,0,0,0,0.024793,2.1863e-05,0.0074443,0.19426,0.010753,0.022019,3.4562e-07,0.22,0.01,0
0.0127,0.0089557,0.024708,2.0042e-05,0.0074185,6.5524e-05,0,0,0.044954,-0.019236,0,0.00034073,0,0,0,0.024709,1.9868e-05,0.0074185,0.15207,0.010716,0.021945,3.4215e-07,0.23,0.01,0
0.013149,0.0091003,0.024643,1.8256e-05,0.0073983,4.8768e-05,0,0,0.044835,-0.019188,0,0.00025359,0,0,0,0.024643,1.8159e-05,0.0073983,0.11347,0.010686,0.021888,3.3944e-07,0.24,0.01,0
0.013597,0.0092341,0.024593,1.6736e-05,0.0073831,3.3458e-05,0,0,0.044747,-0.019152,0,0.00017398,0,0,0,0.024594,1.6691e-05,0.0073831,0.078002,0.010664,0.021846,3.3744e-07,0.25,0.01,0
0.014044,0.0093577,0.024559,1.544e-05,0.0073725,1.9382e-05,0,0,0.044686,-0.019128,0,0.00010079,0,0,0,0.02456,1.5425e-05,0.0073725,0.045246,0.010649,0.021817,3.3606e-07,0.26,0.01,0
0.01449,0.0094714,0.024539,1.4331e-05,0.0073661,6.3586e-06,0,0,0.044651,-0.019115,0,3.3065e-05,0,0,0,0.024539,1.433e-05,0.0073661,0.014855,0.01064,0.0218,3.3525e-07,0.27,0.01,0
0.014937,0.0095756,0.024532,1.3381e-05,0.0073637,-5.7635e-06,0,0,0.044638,-0.019111,0,-2.997e-05,0,0,0,0.024532,1.338e-05,0.0073637,-0.013468,0.010637,0.021794,3.3497e-07,0.28,0.01,0
0.015383,0.0096706,0.024537,1.2563e-05,0.0073649,-1.7111e-05,0,0,0.044648,-0.019116,0,-8.8979e-05,0,0,0,0.024537,1.2551e-05,0.0073649,-0.039976,0.010638,0.021799,3.3519e-07,0.29,0.01,0
0.01583,0.009757,0.024553,1.1856e-05,0.0073696,-2.7791e-05,0,0,0.044678,-0.01913,0,-0.00014452,0,0,0,0.024553,1.1824e-05,0.0073696,-0.064883,0.010645,0.021814,3.3586e-07,0.3,0.01,0
0.016277,0.009835,0.02458,1.1239e-05,0.0073774,-3.7892e-05,0,0,0.044727,-0.019152,0,-0.00019704,0,0,0,0.02458,1.1181e-05,0.0073774,-0.088365,0.010656,0.021838,3.3697e-07,0.31,0.01,0
0.016724,0.0099049,0.024617,1.0697e-05,0.0073883,-4.7485e-05,0,0,0.044794,-0.019182,0,-0.00024692,0,0,0,0.024617,1.0605e-05,0.0073883,-0.11057,0.010672,0.021872,3.3849e-07,0.32,0.01,0
0.017173,0.0099671,0.024663,1.0213e-05,0.007402,-5.6628e-05,0,0,0.044879,-0.019219,0,-0.00029447,0,0,0,0.024663,1.0083e-05,0.007402,-0.13161,0.010692,0.021913,3.4042e-07,0.33,0.01,0
0.017622,0.010022,0.024719,9.7732e-06,0.0074185,-6.5367e-05,0,0,0.04498,-0.019263,0,-0.00033991,0,0,0,0.024719,9.6002e-06,0.0074185,-0.15157,0.010716,0.021963,3.4272e-07,0.34,0.01,0
0.018072,0.01007,0.024782,9.3643e-06,0.0074375,-7.3734e-05,0,0,0.045097,-0.019313,0,-0.00038342,0,0,0,0.024783,9.1448e-06,0.0074375,-0.17053,0.010743,0.02202,3.4539e-07,0.35,0.01,0
0.018524,0.01011,0.024855,8.9741e-06,0.007459,-8.1751e-05,0,0,0.045228,-0.01937,0,-0.00042511,0,0,0,0.024855,8.7051e-06,0.007459,-0.18852,0.010774,0.022084,3.4843e-07,0.36,0.01,0
0.018977,0.010145,0.024934,8.5913e-06,0.0074829,-8.943e-05,0,0,0.045374,-0.019433,0,-0.00046504,0,0,0,0.024935,8.2704e-06,0.0074829,-0.20556,0.010809,0.022156,3.5181e-07,0.37,0.01,0
0.019431,0.010173,0.025022,8.2051e-06,0.007509,-9.6772e-05,0,0,0.045534,-0.019502,0,-0.00050321,0,0,0,0.025022,7.8307e-06,0.007509,-0.22166,0.010846,0.022234,3.5554e-07,0.38,0.01,0
0.019887,0.010195,0.025117,7.8056e-06,0.0075373,-0.00010377,0,0,0.045706,-0.019577,0,-0.0005396,0,0,0,0.025117,7.3767e-06,0.0075373,-0.23679,0.010887,0.022319,3.5959e-07,0.39,0.01,0
0.020345,0.010212,0.025218,7.3834e-06,0.0075676,-0.00011041,0,0,0.045891,-0.019657,0,-0.00057412,0,0,0,0.025218,6.8999e-06,0.0075676,-0.25092,0.010931,0.022409,3.6398e-07,0.4,0.01,0
0.020805,0.010224,0.025326,6.9303e-06,0.0075998,-0.00011666,0,0,0.046087,-0.019741,0,-0.00060665,0,0,0,0.025326,6.3927e-06,0.0075998,-0.264,0.010977,0.022505,3.6867e-07,0.41,0.01,0
0.021267,0.010231,0.025439,6.4384e-06,0.0076337,-0.0001225,0,0,0.046295,-0.019831,0,-0.00063703,0,0,0,0.02544,5.8483e-06,0.0076337,-0.27597,0.011026,0.022607,3.7367e-07,0.42,0.01,0
0.021731,0.010233,0.025559,5.9012e-06,0.0076693,-0.0001279,0,0,0.046512,-0.019925,0,-0.00066506,0,0,0,0.025559,5.2611e-06,0.0076693,-0.28677,0.011078,0.022713,3.7896e-07,0.43,0.01,0
0.022197,0.010231,0.025683,5.313e-06,0.0077064,-0.0001328,0,0,0.046739,-0.020023,0,-0.00069054,0,0,0,0.025684,4.6262e-06,0.0077064,-0.29631,0.011132,0.022824,3.8453e-07,0.44,0.01,0
0.022666,0.010224,0.025812,4.6692e-06,0.0077449,-0.00013716,0,0,0.046973,-0.020125,0,-0.00071322,0,0,0,0.025812,3.9403e-06,0.0077449,-0.3045,0.011187,0.022939,3.9035e-07,0.45,0.01,0
0.023137,0.010215,0.025944,3.9668e-06,0.0077845,-0.00014093,0,0,0.047216,-0.020229,0,-0.00073283,0,0,0,0.025945,3.2012e-06,0.0077845,-0.31127,0.011244,0.023058,3.9642e-07,0.46,0.01,0
0.02361,0.010202,0.02608,3.2039e-06,0.0078251,-0.00014406,0,0,0.047464,-0.020337,0,-0.00074911,0,0,0,0.026081,2.4081e-06,0.0078251,-0.31651,0.011303,0.02318,4.0271e-07,0.47,0.01,0
0.024086,0.010186,0.026219,2.3802e-06,0.0078665,-0.0001465,0,0,0.047717,-0.020447,0,-0.00076179,0,0,0,0.02622,1.5616e-06,0.0078665,-0.32015,0.011363,0.023304,4.0919e-07,0.48,0.01,0
0.024564,0.010168,0.02636,1.4971e-06,0.0079085,-0.00014819,0,0,0.047974,-0.020558,0,-0.00077059,0,0,0,0.026361,6.6395e-07,0.0079085,-0.32211,0.011423,0.023429,4.1583e-07,0.49,0.01,0
0.025045,0.010148,0.026502,5.5748e-07,0.0079508,-0.00014909,0,0,0.048233,-0.020671,0,-0.00077525,0,0,0,0.026503,-2.8119e-07,0.0079508,-0.32231,0.011484,0.023557,4.2261e-07,0.5,0.01,0
0.025529,0.010126,0.026645,-4.3384e-07,0.0079933,-0.00014914,0,0,0.048494,-0.020784,0,-0.00077552,0,0,0,0.026645,-1.2686e-06,0.0079933,-0.32068,0.011546,0.023684,4.2948e-07,0.51,0.01,0
0.026015,0.010102,0.026787,-1.4704e-06,0.0080356,-0.0001483,0,0,0.048753,-0.020896,0,-0.00077118,0,0,0,0.026788,-2.2914e-06,0.0080356,-0.31718,0.011607,0.023811,4.3641e-07,0.52,0.01,0
0.026504,0.010078,0.026928,-2.5442e-06,0.0080775,-0.00014655,0,0,0.04901,-0.021008,0,-0.00076205,0,0,0,0.026929,-3.3416e-06,0.0080775,-0.31178,0.011668,0.023937,4.4335e-07,0.53,0.01,0
0.026996,0.010053,0.027067,-3.6453e-06,0.0081189,-0.00014384,0,0,0.049264,-0.021118,0,-0.00074798,0,0,0,0.027067,-4.4096e-06,0.0081189,-0.30444,0.011727,0.024061,4.5025e-07,0.54,0.01,0
0.02749,0.010027,0.027202,-4.7626e-06,0.0081592,-0.00014017,0,0,0.049512,-0.021226,0,-0.00072887,0,0,0,0.027203,-5.4847e-06,0.0081592,-0.29517,0.011786,0.024183,4.5707e-07,0.55,0.01,0
0.027986,0.010002,0.027334,-5.8834e-06,0.0081984,-0.00013551,0,0,0.049752,-0.021331,0,-0.00070467,0,0,0,0.027335,-6.5551e-06,0.0081984,-0.28399,0.011842,0.024301,4.6376e-07,0.56,0.01,0
0.028484,0.0099767,0.027461,-6.9941e-06,0.0082361,-0.00012989,0,0,0.049984,-0.021432,0,-0.00067541,0,0,0,0.027461,-7.6083e-06,0.0082361,-0.27093,0.011897,0.024414,4.7026e-07,0.57,0.01,0
0.028986,0.0099524,0.027582,-8.0802e-06,0.008272,-0.0001233,0,0,0.050205,-0.021528,0,-0.00064116,0,0,0,0.027582,-8.6313e-06,0.008272,-0.25605,0.011949,0.024522,4.7652e-07,0.58,0.01,0
0.029489,0.0099292,0.027696,-9.1266e-06,0.008306,-0.00011578,0,0,0.050413,-0.021619,0,-0.00060206,0,0,0,0.027696,-9.6105e-06,0.008306,-0.23944,0.011997,0.024625,4.8247e-07,0.59,0.01,0
0.029994,0.0099073,0.027802,-1.0118e-05,0.0083377,-0.00010737,0,0,0.050608,-0.021704,0,-0.00055834,0,0,0,0.027803,-1.0532e-05,0.0083377,-0.22119,0.012043,0.02472,4.8807e-07,0.6,0.01,0
0.030501,0.009887,0.0279,-1.1039e-05,0.0083668,-9.813e-05,0,0,0.050787,-0.021782,0,-0.00051028,0,0,0,0.027901,-1.1384e-05,0.0083668,-0.20144,0.012085,0.024808,4.9327e-07,0.61,0.01,0
0.031009,0.0098686,0.027989,-1.1875e-05,0.0083932,-8.812e-05,0,0,0.05095,-0.021853,0,-0.00045822,0,0,0,0.02799,-1.2153e-05,0.0083932,-0.18031,0.012124,0.024887,4.9802e-07,0.62,0.01,0
0.03152,0.0098524,0.028068,-1.2613e-05,0.0084168,-7.7422e-05,0,0,0.051094,-0.021916,0,-0.00040259,0,0,0,0.028069,-1.2826e-05,0.0084168,-0.15797,0.012157,0.024958,5.0226e-07,0.63,0.01,0
0.032031,0.0098385,0.028137,-1.3238e-05,0.0084371,-6.6129e-05,0,0,0.05122,-0.021971,0,-0.00034387,0,0,0,0.028137,-1.3393e-05,0.0084371,-0.1346,0.012187,0.02502,5.0595e-07,0.64,0.01,0
0.032544,0.0098271,0.028195,-1.374e-05,0.0084543,-5.4344e-05,0,0,0.051325,-0.022017,0,-0.00028259,0,0,0,0.028195,-1.3845e-05,0.0084543,-0.11038,0.012212,0.025071,5.0907e-07,0.65,0.01,0
0.033058,0.0098184,0.028241,-1.411e-05,0.008468,-4.2179e-05,0,0,0.051409,-0.022054,0,-0.00021933,0,0,0,0.028241,-1.4173e-05,0.008468,-0.08553,0.012232,0.025112,5.1158e-07,0.66,0.01,0
0.033572,0.0098125,0.028275,-1.434e-05,0.0084783,-2.9751e-05,0,0,0.051472,-0.022081,0,-0.0001547,0,0,0,0.028275,-1.4371e-05,0.0084783,-0.060256,0.012246,0.025143,5.1346e-07,0.67,0.01,0
0.034087,0.0098095,0.028298,-1.4424e-05,0.008485,-1.7187e-05,0,0,0.051513,-0.022099,0,-8.9372e-05,0,0,0,0.028298,-1.4434e-05,0.008485,-0.034781,0.012256,0.025163,5.1469e-07,0.68,0.01,0
0.034603,0.0098094,0.028308,-1.4359e-05,0.0084882,-4.6144e-06,0,0,0.051532,-0.022107,0,-2.3995e-05,0,0,0,0.028308,-1.436e-05,0.0084882,-0.0093347,0.012261,0.025173,5.1526e-07,0.69,0.01,0
0.035118,0.0098122,0.028307,-1.4144e-05,0.0084879,7.8361e-06,0,0,0.05153,-0.022105,0,4.0748e-05,0,0,0,0.028307,-1.4147e-05,0.0084879,0.015853,0.01226,0.025171,5.1519e-07,0.7,0.01,0
0.035633,0.0098179,0.028294,-1.3783e-05,0.0084841,2.0035e-05,0,0,0.051506,-0.022094,0,0.00010418,0,0,0,0.028294,-1.3797e-05,0.0084841,0.040551,0.012255,0.025159,5.1447e-07,0.71,0.01,0
0.036148,0.0098266,0.028269,-1.3277e-05,0.0084769,3.1855e-05,0,0,0.051461,-0.022074,0,0.00016564,0,0,0,0.028269,-1.3313e-05,0.0084769,0.064532,0.012244,0.025137,5.1312e-07,0.72,0.01,0
0.036662,0.009838,0.028234,-1.2635e-05,0.0084664,4.3173e-05,0,0,0.051396,-0.022045,0,0.0002245,0,0,0,0.028234,-1.27e-05,0.0084664,0.087573,0.012229,0.025105,5.1118e-07,0.73,0.01,0
0.037176,0.0098521,0.028188,-1.1863e-05,0.0084528,5.3875e-05,0,0,0.051311,-0.022008,0,0.00028015,0,0,0,0.028188,-1.1966e-05,0.0084528,0.10946,0.01221,0.025064,5.0868e-07,0.74,0.01,0
0.037689,0.0098687,0.028132,-1.0974e-05,0.0084363,6.385e-05,0,0,0.051209,-0.021963,0,0.00033202,0,0,0,0.028132,-1.1119e-05,0.0084363,0.12999,0.012186,0.025013,5.0564e-07,0.75,0.01,0
0.0382,0.0098877,0.028067,-9.9784e-06,0.0084171,7.3003e-05,0,0,0.05109,-0.02191,0,0.00037962,0,0,0,0.028067,-1.0168e-05,0.0084171,0.14897,0.012158,0.024955,5.0213e-07,0.76,0.01,0
0.03871,0.0099088,0.027994,-8.8902e-06,0.0083955,8.1246e-05,0,0,0.050956,-0.021851,0,0.00042248,0,0,0,0.027994,-9.1259e-06,0.0083955,0.16623,0.012127,0.024889,4.982e-07,0.77,0.01,0
0.039219,0.0099319,0.027913,-7.7238e-06,0.0083716,8.8504e-05,0,0,0.050808,-0.021786,0,0.00046022,0,0,0,0.027914,-8.0043e-06,0.0083716,0.18161,0.012092,0.024816,4.9388e-07,0.78,0.01,0
0.039727,0.0099567,0.027826,-6.4944e-06,0.0083459,9.4715e-05,0,0,0.050648,-0.021716,0,0.00049252,0,0,0,0.027826,-6.8167e-06,0.0083459,0.19498,0.012055,0.024738,4.8925e-07,0.79,0.01,0
0.040232,0.009983,0.027734,-5.2177e-06,0.0083185,9.9832e-05,0,0,0.050479,-0.021642,0,0.00051913,0,0,0,0.027734,-5.577e-06,0.0083185,0.2062,0.012016,0.024655,4.8437e-07,0.8,0.01,0
0.040736,0.01001,0.027637,-3.9092e-06,0.0082898,0.00010382,0,0,0.050302,-0.021564,0,0.00053987,0,0,0,0.027637,-4.2992e-06,0.0082898,0.2152,0.011974,0.024568,4.7929e-07,0.81,0.01,0
0.041238,0.010039,0.027536,-2.5847e-06,0.0082602,0.00010666,0,0,0.050119,-0.021483,0,0.00055462,0,0,0,0.027537,-2.9977e-06,0.0082602,0.2219,0.011931,0.024478,4.7407e-07,0.82,0.01,0
0.041739,0.010068,0.027434,-1.2589e-06,0.0082299,0.00010834,0,0,0.049931,-0.021401,0,0.00056336,0,0,0,0.027435,-1.6867e-06,0.0082299,0.22625,0.011888,0.024386,4.6878e-07,0.83,0.01,0
0.042237,0.010097,0.027331,5.3827e-08,0.0081992,0.00010887,0,0,0.049742,-0.021318,0,0.0005661,0,0,0,0.027331,-3.7981e-07,0.0081992,0.22822,0.011843,0.024293,4.6348e-07,0.84,0.01,0
0.042733,0.010126,0.027227,1.3401e-06,0.0081686,0.00010826,0,0,0.049553,-0.021235,0,0.00056294,0,0,0,0.027228,9.0968e-07,0.0081686,0.22782,0.011799,0.0242,4.5822e-07,0.85,0.01,0
0.043228,0.010155,0.027125,2.5878e-06,0.0081383,0.00010654,0,0,0.049365,-0.021153,0,0.00055403,0,0,0,0.027125,2.1693e-06,0.0081383,0.22507,0.011755,0.024108,4.5304e-07,0.86,0.01,0
0.043721,0.010183,0.027025,3.7858e-06,0.0081086,0.00010376,0,0,0.049182,-0.021072,0,0.00053956,0,0,0,0.027025,3.3874e-06,0.0081086,0.22001,0.011712,0.024018,4.4802e-07,0.87,0.01,0
0.044212,0.010211,0.026928,4.9243e-06,0.0080798,9.9957e-05,0,0,0.049004,-0.020995,0,0.00051978,0,0,0,0.026928,4.5532e-06,0.0080798,0.21272,0.011671,0.023931,4.4318e-07,0.88,0.01,0
0.044701,0.010237,0.026835,5.9947e-06,0.0080522,9.5188e-05,0,0,0.048834,-0.02092,0,0.00049498,0,0,0,0.026835,5.657e-06,0.0080522,0.20328,0.011631,0.023847,4.3858e-07,0.89,0.01,0
0.045188,0.010263,0.026746,6.9898e-06,0.0080261,8.9517e-05,0,0,0.048673,-0.02085,0,0.00046549,0,0,0,0.026747,6.6901e-06,0.0080261,0.19181,0.011593,0.023768,4.3426e-07,0.9,0.01,0
0.045674,0.010286,0.026664,7.9035e-06,0.0080016,8.3012e-05,0,0,0.048523,-0.020784,0,0.00043166,0,0,0,0.026665,7.645e-06,0.0080016,0.17843,0.011558,0.023694,4.3024e-07,0.91,0.01,0
0.046159,0.010308,0.026589,8.7308e-06,0.0079792,7.5746e-05,0,0,0.048384,-0.020723,0,0.00039388,0,0,0,0.026589,8.5149e-06,0.0079792,0.16328,0.011525,0.023626,4.2657e-07,0.92,0.01,0
0.046642,0.010327,0.02652,9.4676e-06,0.0079588,6.7797e-05,0,0,0.048259,-0.020668,0,0.00035254,0,0,0,0.02652,9.2942e-06,0.0079588,0.14652,0.011496,0.023564,4.2327e-07,0.93,0.01,0
0.047124,0.010345,0.026459,1.0111e-05,0.0079408,5.9244e-05,0,0,0.048148,-0.02062,0,0.00030807,0,0,0,0.02646,9.9782e-06,0.0079408,0.12834,0.01147,0.02351,4.2036e-07,0.94,0.01,0
0.047605,0.01036,0.026407,1.0658e-05,0.0079253,5.0171e-05,0,0,0.048053,-0.020578,0,0.00026089,0,0,0,0.026407,1.0563e-05,0.0079253,0.1089,0.011448,0.023463,4.1786e-07,0.95,0.01,0
0.048085,0.010372,0.026364,1.1108e-05,0.0079125,4.0663e-05,0,0,0.047973,-0.020543,0,0.00021145,0,0,0,0.026364,1.1045e-05,0.0079125,0.088408,0.011429,0.023424,4.1579e-07,0.96,0.01,0
0.048564,0.010382,0.02633,1.1459e-05,0.0079023,3.0804e-05,0,0,0.047911,-0.020516,0,0.00016018,0,0,0,0.02633,1.1423e-05,0.0079023,0.067062,0.011414,0.023393,4.1417e-07,0.97,0.01,0
0.049043,0.010389,0.026305,1.171e-05,0.007895,2.0683e-05,0,0,0.047866,-0.020497,0,0.00010755,0,0,0,0.026305,1.1694e-05,0.007895,0.045069,0.011404,0.023371,4.1301e-07,0.98,0.01,0
0.049522,0.010393,0.02629,1.1861e-05,0.0078906,1.0385e-05,0,0,0.047839,-0.020485,0,5.4003e-05,0,0,0,0.02629,1.1857e-05,0.0078906,0.022643,0.011398,0.023358,4.1231e-07,0.99,0.01,0
0.05,0.010394,0.026285,1.1911e-05,0.0078891,2.7436e-05,0,0,0.04783,-0.020481,0,0.00014267,0,0,0,0.026285,1.1883e-05,0.0078891,0.059832,0.011395,0.023353,4.1207e-07,1,0.01,0
0,0,0.042181,0.018078,0.018078,0.013289,0,0,0.062669,-4.3368e-19,0,0.069104,0,0,0,0.048069,0.012189,0.018078,23.898,0.026112,0.033328,1.703e-06,0,0.02,0
0.00062669,0.00069104,0.040582,0.010819,0.01542,0.011997,0,0,0.06542,-0.011964,0,0.062382,0,0,0,0.044815,0.0065856,0.01542,19.437,0.022274,0.034667,1.6804e-06,0.01,0.02,0
0.0013084,0.0014412,0.040407,0.0051817,0.013677,0.0097183,0,0,0.0695,-0.022087,0,0.050535,0,0,0,0.042911,0.0026784,0.013677,14.444,0.019755,0.036015,1.6665e-06,0.02,0.02,0
0.0020167,0.0021486,0.039655,0.0032551,0.012873,0.007242,0,0,0.069633,-0.025007,0,0.037659,0,0,0,0.041043,0.0018671,0.012873,10.849,0.018594,0.034996,1.4896e-06,0.03,0.02,0
0.0027011,0.0027821,0.037623,0.0020655,0.011907,0.0053386,0,0,0.066862,-0.025587,0,0.027761,0,0,0,0.038407,0.0012812,0.011907,8.3569,0.017198,0.033117,1.2386e-06,0.04,0.02,0
0.0033539,0.0033545,0.035644,0.0013838,0.011108,0.0040563,0,0,0.063792,-0.025284,0,0.021093,0,0,0,0.036117,0.00091009,0.011108,6.661,0.016045,0.031377,1.0399e-06,0.05,0.02,0
0.0039769,0.0038756,0.033933,0.00096787,0.01047,0.0031646,0,0,0.061004,-0.024706,0,0.016456,0,0,0,0.034235,0.00066682,0.01047,5.4341,0.015124,0.029897,8.9144e-07,0.06,0.02,0
0.004574,0.0043538,0.032508,0.00070411,0.0099636,0.0025271,0,0,0.058615,-0.024075,0,0.013141,0,0,0,0.032708,0.00050456,0.0099636,4.5149,0.014392,0.028669,7.8098e-07,0.07,0.02,0
0.0051492,0.004795,0.031324,0.00052942,0.0095562,0.0020554,0,0,0.056598,-0.02347,0,0.010688,0,0,0,0.031461,0.00039284,0.0095562,3.8017,0.013803,0.02765,6.9733e-07,0.08,0.02,0
0.005706,0.0052041,0.030337,0.00040922,0.0092239,0.001696,0,0,0.054894,-0.022918,0,0.0088193,0,0,0,0.030433,0.00031342,0.0092239,3.2332,0.013323,0.026799,6.3271e-07,0.09,0.02,0
0.0062471,0.0055845,0.029507,0.0003237,0.0089493,0.0014153,0,0,0.053451,-0.022427,0,0.0073593,0,0,0,0.029576,0.00025523,0.0089493,2.7699,0.012927,0.026084,5.8181e-07,0.1,0.02,0
0.006775,0.0059391,0.028805,0.00026108,0.0087199,0.0011912,0,0,0.052222,-0.021993,0,0.0061941,0,0,0,0.028855,0.00021146,0.0087199,2.3855,0.012595,0.025478,5.4108e-07,0.11,0.02,0
0.0072915,0.0062702,0.028208,0.00021407,0.0085266,0.0010091,0,0,0.051171,-0.021612,0,0.0052473,0,0,0,0.028244,0.00017774,0.0085266,2.0618,0.012316,0.024962,5.0801e-07,0.12,0.02,0
0.0077984,0.0065798,0.027697,0.00017803,0.0083625,0.00085884,0,0,0.050269,-0.021279,0,0.0044659,0,0,0,0.027724,0.00015126,0.0083625,1.7858,0.012079,0.024521,4.8088e-07,0.13,0.02,0
0.0082969,0.0068695,0.027258,0.0001499,0.0082224,0.00073319,0,0,0.049493,-0.020989,0,0.0038126,0,0,0,0.027278,0.00013008,0.0082224,1.5481,0.011877,0.024141,4.584e-07,0.14,0.02,0
0.0087883,0.0071406,0.026881,0.00012759,0.0081024,0.00062688,0,0,0.048823,-0.020735,0,0.0032598,0,0,0,0.026895,0.00011291,0.0081024,1.3416,0.011704,0.023815,4.3965e-07,0.15,0.02,0
0.0092734,0.0073944,0.026555,0.00010965,0.0079994,0.000536,0,0,0.048245,-0.020513,0,0.0027872,0,0,0,0.026566,9.8794e-05,0.0079994,1.1606,0.011555,0.023533,4.2392e-07,0.16,0.02,0
0.0097532,0.0076319,0.026274,9.5071e-05,0.0079109,0.00045759,0,0,0.047746,-0.020321,0,0.0023795,0,0,0,0.026283,8.7075e-05,0.0079109,1.0011,0.011427,0.023291,4.1068e-07,0.17,0.02,0
0.010228,0.0078541,0.026033,8.3095e-05,0.0078348,0.00038936,0,0,0.047315,-0.020154,0,0.0020247,0,0,0,0.026039,7.7254e-05,0.0078348,0.85943,0.011317,0.023082,3.9951e-07,0.18,0.02,0
0.0107,0.0080617,0.025826,7.3176e-05,0.0077696,0.00032953,0,0,0.046945,-0.020011,0,0.0017136,0,0,0,0.02583,6.896e-05,0.0077696,0.73301,0.011223,0.022903,3.9009e-07,0.19,0.02,0
0.011167,0.0082556,0.025648,6.4902e-05,0.0077139,0.00027668,0,0,0.046629,-0.019887,0,0.0014387,0,0,0,0.025651,6.191e-05,0.0077139,0.61955,0.011142,0.02275,3.8215e-07,0.2,0.02,0
0.011632,0.0084364,0.025497,5.7957e-05,0.0076666,0.00022966,0,0,0.04636,-0.019782,0,0.0011942,0,0,0,0.025499,5.5884e-05,0.0076666,0.5172,0.011074,0.02262,3.755e-07,0.21,0.02,0
0.012094,0.0086048,0.02537,5.2099e-05,0.0076267,0.00018756,0,0,0.046133,-0.019694,0,0.0009753,0,0,0,0.025372,5.0709e-05,0.0076267,0.42442,0.011016,0.02251,3.6996e-07,0.22,0.02,0
0.012555,0.0087613,0.025264,4.7136e-05,0.0075935,0.00014961,0,0,0.045944,-0.01962,0,0.00077795,0,0,0,0.025265,4.6248e-05,0.0075935,0.3399,0.010968,0.022419,3.654e-07,0.23,0.02,0
0.013013,0.0089064,0.025178,4.2917e-05,0.0075662,0.00011518,0,0,0.04579,-0.019561,0,0.00059894,0,0,0,0.025178,4.2389e-05,0.0075662,0.26255,0.010929,0.022345,3.617e-07,0.24,0.02,0
0.01347,0.0090407,0.025109,3.932e-05,0.0075444,8.3758e-05,0,0,0.045667,-0.019513,0,0.00043554,0,0,0,0.025109,3.904e-05,0.0075444,0.19143,0.010897,0.022286,3.5877e-07,0.25,0.02,0
0.013927,0.0091645,0.025056,3.6244e-05,0.0075276,5.4901e-05,0,0,0.045573,-0.019477,0,0.00028549,0,0,0,0.025056,3.6124e-05,0.0075276,0.12573,0.010873,0.022241,3.5653e-07,0.26,0.02,0
0.014382,0.0092784,0.025017,3.3607e-05,0.0075152,2.8243e-05,0,0,0.045505,-0.019452,0,0.00014687,0,0,0,0.025017,3.3575e-05,0.0075152,0.064772,0.010855,0.022209,3.5492e-07,0.27,0.02,0
0.014837,0.0093827,0.024992,3.134e-05,0.007507,3.4744e-06,0,0,0.045461,-0.019437,0,1.8067e-05,0,0,0,0.024992,3.134e-05,0.007507,0.0079753,0.010844,0.022188,3.5389e-07,0.28,0.02,0
0.015291,0.0094778,0.02498,2.9383e-05,0.0075027,-1.9665e-05,0,0,0.04544,-0.019431,0,-0.00010226,0,0,0,0.02498,2.9368e-05,0.0075027,-0.045159,0.010837,0.022179,3.5339e-07,0.29,0.02,0
0.015745,0.0095641,0.024979,2.7686e-05,0.007502,-4.1394e-05,0,0,0.04544,-0.019433,0,-0.00021525,0,0,0,0.024979,2.7617e-05,0.007502,-0.095052,0.010836,0.02218,3.5339e-07,0.3,0.02,0
0.0162,0.0096419,0.024989,2.6203e-05,0.0075046,-6.1892e-05,0,0,0.04546,-0.019444,0,-0.00032184,0,0,0,0.024989,2.6049e-05,0.0075046,-0.14206,0.01084,0.02219,3.5385e-07,0.31,0.02,0
0.016655,0.0097116,0.02501,2.4894e-05,0.0075103,-8.1309e-05,0,0,0.045498,-0.019462,0,-0.00042281,0,0,0,0.02501,2.4629e-05,0.0075103,-0.18646,0.010848,0.02221,3.5475e-07,0.32,0.02,0
0.01711,0.0097734,0.02504,2.3724e-05,0.007519,-9.9766e-05,0,0,0.045554,-0.019488,0,-0.00051878,0,0,0,0.02504,2.3326e-05,0.007519,-0.2285,0.010861,0.022238,3.5606e-07,0.33,0.02,0
0.017566,0.0098278,0.025079,2.2659e-05,0.0075305,-0.00011736,0,0,0.045626,-0.01952,0,-0.00061025,0,0,0,0.02508,2.211e-05,0.0075305,-0.26835,0.010877,0.022274,3.5777e-07,0.34,0.02,0
0.018023,0.0098751,0.025127,2.167e-05,0.0075446,-0.00013415,0,0,0.045714,-0.01956,0,-0.00069757,0,0,0,0.025128,2.0953e-05,0.0075446,-0.30614,0.010898,0.022317,3.5985e-07,0.35,0.02,0
0.01848,0.0099154,0.025184,2.0729e-05,0.0075613,-0.00015019,0,0,0.045818,-0.019605,0,-0.000781,0,0,0,0.025184,1.9832e-05,0.0075613,-0.34197,0.010922,0.022368,3.623e-07,0.36,0.02,0
0.018939,0.0099493,0.025248,1.9809e-05,0.0075802,-0.00016552,0,0,0.045935,-0.019657,0,-0.00086069,0,0,0,0.025249,1.8723e-05,0.0075802,-0.37589,0.010949,0.022427,3.6511e-07,0.37,0.02,0
0.019399,0.0099769,0.025319,1.8885e-05,0.0076014,-0.00018013,0,0,0.046066,-0.019715,0,-0.00093667,0,0,0,0.02532,1.7603e-05,0.0076014,-0.4079,0.01098,0.022491,3.6825e-07,0.38,0.02,0
0.01986,0.0099986,0.025398,1.7937e-05,0.0076247,-0.00019402,0,0,0.04621,-0.019778,0,-0.0010089,0,0,0,0.025399,1.6453e-05,0.0076247,-0.43797,0.011014,0.022562,3.7172e-07,0.39,0.02,0
0.020323,0.010015,0.025483,1.6941e-05,0.00765,-0.00020717,0,0,0.046366,-0.019846,0,-0.0010773,0,0,0,0.025485,1.5256e-05,0.00765,-0.46606,0.01105,0.022639,3.755e-07,0.4,0.02,0
0.020788,0.010025,0.025575,1.5879e-05,0.0076771,-0.00021952,0,0,0.046533,-0.019919,0,-0.0011415,0,0,0,0.025576,1.3994e-05,0.0076771,-0.49207,0.011089,0.022722,3.7958e-07,0.41,0.02,0
0.021254,0.010031,0.025672,1.4735e-05,0.0077059,-0.00023104,0,0,0.046711,-0.019997,0,-0.0012014,0,0,0,0.025674,1.2655e-05,0.0077059,-0.51589,0.011131,0.022809,3.8396e-07,0.42,0.02,0
0.021722,0.010033,0.025774,1.3492e-05,0.0077363,-0.00024165,0,0,0.046899,-0.020079,0,-0.0012566,0,0,0,0.025777,1.1226e-05,0.0077363,-0.53741,0.011175,0.022902,3.8862e-07,0.43,0.02,0
0.022192,0.01003,0.025882,1.2139e-05,0.0077682,-0.00025128,0,0,0.047095,-0.020166,0,-0.0013067,0,0,0,0.025884,9.6981e-06,0.0077682,-0.55647,0.011221,0.022999,3.9353e-07,0.44,0.02,0
0.022664,0.010023,0.025993,1.0664e-05,0.0078013,-0.00025984,0,0,0.0473,-0.020256,0,-0.0013512,0,0,0,0.025996,8.0658e-06,0.0078013,-0.57291,0.011269,0.023099,3.9868e-07,0.45,0.02,0
0.023138,0.010012,0.026109,9.0613e-06,0.0078355,-0.00026724,0,0,0.047512,-0.020349,0,-0.0013897,0,0,0,0.026112,6.3252e-06,0.0078355,-0.58658,0.011318,0.023204,4.0407e-07,0.46,0.02,0
0.023614,0.0099982,0.026228,7.3262e-06,0.0078706,-0.00027339,0,0,0.047729,-0.020445,0,-0.0014216,0,0,0,0.026231,4.476e-06,0.0078706,-0.59731,0.011369,0.023311,4.0964e-07,0.47,0.02,0
0.024092,0.0099815,0.02635,5.4582e-06,0.0079065,-0.00027819,0,0,0.047952,-0.020543,0,-0.0014466,0,0,0,0.026352,2.521e-06,0.0079065,-0.60494,0.011421,0.023421,4.154e-07,0.48,0.02,0
0.024573,0.0099623,0.026473,3.4602e-06,0.0079429,-0.00028153,0,0,0.048178,-0.020643,0,-0.001464,0,0,0,0.026476,4.6612e-07,0.0079429,-0.60932,0.011473,0.023532,4.213e-07,0.49,0.02,0
0.025056,0.0099409,0.026598,1.3389e-06,0.0079797,-0.00028334,0,0,0.048407,-0.020744,0,-0.0014734,0,0,0,0.026601,-1.6793e-06,0.0079797,-0.6103,0.011526,0.023645,4.2732e-07,0.5,0.02,0
0.025541,0.0099177,0.026723,-8.9534e-07,0.0080166,-0.00028352,0,0,0.048636,-0.020845,0,-0.0014743,0,0,0,0.026726,-3.9029e-06,0.0080166,-0.60777,0.011579,0.023758,4.3343e-07,0.51,0.02,0
0.026028,0.0098932,0.026848,-3.2281e-06,0.0080534,-0.00028199,0,0,0.048866,-0.020947,0,-0.0014664,0,0,0,0.026851,-6.1893e-06,0.0080534,-0.60164,0.011633,0.023871,4.3957e-07,0.52,0.02,0
0.026518,0.0098676,0.026972,-5.6413e-06,0.0080899,-0.0002787,0,0,0.049093,-0.021048,0,-0.0014492,0,0,0,0.026975,-8.5202e-06,0.0080899,-0.59182,0.011685,0.023983,4.4573e-07,0.53,0.02,0
0.02701,0.0098414,0.027094,-8.1133e-06,0.0081258,-0.00027358,0,0,0.049318,-0.021148,0,-0.0014226,0,0,0,0.027097,-1.0875e-05,0.0081258,-0.57829,0.011737,0.024093,4.5185e-07,0.54,0.02,0
0.027505,0.0098149,0.027214,-1.0619e-05,0.0081609,-0.00026661,0,0,0.049537,-0.021246,0,-0.0013864,0,0,0,0.027216,-1.323e-05,0.0081609,-0.56104,0.011788,0.024201,4.5789e-07,0.55,0.02,0
0.028001,0.0097885,0.02733,-1.3131e-05,0.008195,-0.00025778,0,0,0.049751,-0.021341,0,-0.0013404,0,0,0,0.027332,-1.5561e-05,0.008195,-0.5401,0.011837,0.024306,4.6381e-07,0.56,0.02,0
0.0285,0.0097625,0.027442,-1.5618e-05,0.0082278,-0.00024708,0,0,0.049956,-0.021433,0,-0.0012848,0,0,0,0.027444,-1.7841e-05,0.0082278,-0.51554,0.011885,0.024407,4.6955e-07,0.57,0.02,0
0.029,0.0097372,0.027548,-1.8048e-05,0.008259,-0.00023456,0,0,0.050152,-0.02152,0,-0.0012197,0,0,0,0.02755,-2.0044e-05,0.008259,-0.48748,0.01193,0.024503,4.7507e-07,0.58,0.02,0
0.029503,0.0097131,0.027649,-2.0389e-05,0.0082886,-0.00022026,0,0,0.050337,-0.021603,0,-0.0011454,0,0,0,0.027651,-2.2142e-05,0.0082886,-0.45607,0.011972,0.024594,4.8033e-07,0.59,0.02,0
0.030007,0.0096904,0.027743,-2.2605e-05,0.0083161,-0.00020427,0,0,0.05051,-0.021681,0,-0.0010622,0,0,0,0.027744,-2.4108e-05,0.0083161,-0.4215,0.012012,0.024679,4.8526e-07,0.6,0.02,0
0.030513,0.0096694,0.027829,-2.4663e-05,0.0083414,-0.0001867,0,0,0.050669,-0.021752,0,-0.00097083,0,0,0,0.027831,-2.5915e-05,0.0083414,-0.38401,0.012049,0.024757,4.8984e-07,0.61,0.02,0
0.03102,0.0096504,0.027908,-2.6531e-05,0.0083644,-0.00016766,0,0,0.050813,-0.021816,0,-0.00087185,0,0,0,0.027909,-2.7537e-05,0.0083644,-0.34388,0.012082,0.024828,4.9401e-07,0.62,0.02,0
0.031529,0.0096335,0.027978,-2.8177e-05,0.0083848,-0.00014733,0,0,0.050941,-0.021874,0,-0.0007661,0,0,0,0.027978,-2.8952e-05,0.0083848,-0.3014,0.012112,0.024891,4.9774e-07,0.63,0.02,0
0.032039,0.0096191,0.028038,-2.9574e-05,0.0084026,-0.00012586,0,0,0.051053,-0.021924,0,-0.00065448,0,0,0,0.028039,-3.0138e-05,0.0084026,-0.25692,0.012137,0.024945,5.0099e-07,0.64,0.02,0
0.03255,0.0096073,0.028089,-3.0695e-05,0.0084175,-0.00010346,0,0,0.051146,-0.021965,0,-0.000538,0,0,0,0.028089,-3.1076e-05,0.0084175,-0.2108,0.012159,0.024991,5.0372e-07,0.65,0.02,0
0.033062,0.0095983,0.02813,-3.152e-05,0.0084295,-8.0339e-05,0,0,0.051221,-0.021999,0,-0.00041777,0,0,0,0.02813,-3.1749e-05,0.0084295,-0.16345,0.012176,0.025028,5.0593e-07,0.66,0.02,0
0.033575,0.0095921,0.02816,-3.2033e-05,0.0084385,-5.6722e-05,0,0,0.051277,-0.022023,0,-0.00029496,0,0,0,0.028161,-3.2147e-05,0.0084385,-0.11528,0.012189,0.025055,5.0757e-07,0.67,0.02,0
0.034088,0.0095889,0.02818,-3.222e-05,0.0084444,-3.2846e-05,0,0,0.051313,-0.022039,0,-0.0001708,0,0,0,0.02818,-3.2258e-05,0.0084444,-0.066706,0.012198,0.025073,5.0865e-07,0.68,0.02,0
0.034601,0.0095887,0.02819,-3.2075e-05,0.0084473,-8.9548e-06,0,0,0.051331,-0.022047,0,-4.6565e-05,0,0,0,0.02819,-3.2078e-05,0.0084473,-0.01818,0.012202,0.025081,5.0916e-07,0.69,0.02,0
0.035114,0.0095915,0.028189,-3.1597e-05,0.0084472,1.4705e-05,0,0,0.051328,-0.022045,0,7.6467e-05,0,0,0,0.028189,-3.1605e-05,0.0084472,0.029856,0.012202,0.02508,5.091e-07,0.7,0.02,0
0.035627,0.0095974,0.028178,-3.079e-05,0.008444,3.7888e-05,0,0,0.051307,-0.022034,0,0.00019702,0,0,0,0.028178,-3.0841e-05,0.008444,0.076957,0.012197,0.025069,5.0847e-07,0.71,0.02,0
0.03614,0.0096062,0.028156,-2.9663e-05,0.0084379,6.0353e-05,0,0,0.051267,-0.022016,0,0.00031384,0,0,0,0.028156,-2.9792e-05,0.0084379,0.12269,0.012188,0.025049,5.0729e-07,0.72,0.02,0
0.036653,0.0096179,0.028125,-2.823e-05,0.008429,8.1868e-05,0,0,0.051209,-0.021989,0,0.00042571,0,0,0,0.028125,-2.8468e-05,0.008429,0.16661,0.012175,0.025021,5.0559e-07,0.73,0.02,0
0.037165,0.0096323,0.028084,-2.651e-05,0.0084174,0.00010221,0,0,0.051134,-0.021954,0,0.0005315,0,0,0,0.028085,-2.6881e-05,0.0084174,0.20833,0.012158,0.024984,5.034e-07,0.74,0.02,0
0.037676,0.0096494,0.028035,-2.4526e-05,0.0084033,0.00012118,0,0,0.051044,-0.021912,0,0.00063015,0,0,0,0.028036,-2.5049e-05,0.0084033,0.24744,0.012138,0.024939,5.0074e-07,0.75,0.02,0
0.038185,0.0096689,0.027978,-2.2305e-05,0.0083868,0.00013859,0,0,0.050938,-0.021864,0,0.00072068,0,0,0,0.027979,-2.2991e-05,0.0083868,0.28358,0.012114,0.024887,4.9765e-07,0.76,0.02,0
0.038694,0.0096906,0.027914,-1.9877e-05,0.0083682,0.00015427,0,0,0.050819,-0.021809,0,0.00080223,0,0,0,0.027915,-2.0729e-05,0.0083682,0.31643,0.012087,0.024828,4.9419e-07,0.77,0.02,0
0.039202,0.0097143,0.027843,-1.7274e-05,0.0083477,0.00016809,0,0,0.050688,-0.021749,0,0.00087408,0,0,0,0.027844,-1.8288e-05,0.0083477,0.34567,0.012058,0.024763,4.9039e-07,0.78,0.02,0
0.039708,0.0097398,0.027766,-1.453e-05,0.0083255,0.00017992,0,0,0.050546,-0.021684,0,0.0009356,0,0,0,0.027767,-1.5695e-05,0.0083255,0.37106,0.012026,0.024693,4.8631e-07,0.79,0.02,0
0.040213,0.0097667,0.027685,-1.168e-05,0.0083019,0.00018968,0,0,0.050395,-0.021615,0,0.00098632,0,0,0,0.027686,-1.2978e-05,0.0083019,0.39236,0.011992,0.024618,4.82e-07,0.8,0.02,0
0.040716,0.0097949,0.027599,-8.7579e-06,0.0082772,0.00019729,0,0,0.050238,-0.021544,0,0.0010259,0,0,0,0.027601,-1.0168e-05,0.0082772,0.40941,0.011956,0.02454,4.7751e-07,0.81,0.02,0
0.041217,0.0098239,0.027511,-5.7994e-06,0.0082516,0.00020271,0,0,0.050075,-0.021469,0,0.0010541,0,0,0,0.027513,-7.2927e-06,0.0082516,0.42206,0.011919,0.02446,4.729e-07,0.82,0.02,0
0.041717,0.0098536,0.027421,-2.8376e-06,0.0082254,0.00020594,0,0,0.049908,-0.021393,0,0.0010709,0,0,0,0.027422,-4.384e-06,0.0082254,0.43023,0.011881,0.024377,4.6821e-07,0.83,0.02,0
0.042216,0.0098837,0.02733,9.5851e-08,0.0081989,0.00020698,0,0,0.04974,-0.021317,0,0.0010763,0,0,0,0.027331,-1.4716e-06,0.0081989,0.43389,0.011843,0.024294,4.635e-07,0.84,0.02,0
0.042712,0.0099137,0.027238,2.9711e-06,0.0081724,0.00020585,0,0,0.049572,-0.021241,0,0.0010704,0,0,0,0.02724,1.4153e-06,0.0081724,0.43302,0.011805,0.02421,4.5883e-07,0.85,0.02,0
0.043207,0.0099434,0.027148,5.7609e-06,0.0081462,0.00020262,0,0,0.049405,-0.021165,0,0.0010536,0,0,0,0.02715,4.2483e-06,0.0081462,0.42769,0.011767,0.024128,4.5422e-07,0.86,0.02,0
0.0437,0.0099726,0.02706,8.4403e-06,0.0081204,0.00019736,0,0,0.049242,-0.021091,0,0.0010263,0,0,0,0.027061,7.0005e-06,0.0081204,0.41799,0.01173,0.024047,4.4975e-07,0.87,0.02,0
0.044192,0.010001,0.026974,1.0987e-05,0.0080955,0.00019015,0,0,0.049084,-0.02102,0,0.00098879,0,0,0,0.026975,9.6465e-06,0.0080955,0.40404,0.011694,0.023969,4.4543e-07,0.88,0.02,0
0.044682,0.010028,0.026892,1.3383e-05,0.0080716,0.00018111,0,0,0.048933,-0.020951,0,0.00094175,0,0,0,0.026893,1.2163e-05,0.0080716,0.38603,0.011659,0.023893,4.4132e-07,0.89,0.02,0
0.045171,0.010054,0.026814,1.5611e-05,0.0080489,0.00017034,0,0,0.048789,-0.020886,0,0.00088575,0,0,0,0.026815,1.4528e-05,0.0080489,0.36417,0.011626,0.023822,4.3746e-07,0.9,0.02,0
0.045658,0.010078,0.026741,1.7657e-05,0.0080277,0.00015798,0,0,0.048655,-0.020826,0,0.00082148,0,0,0,0.026742,1.6723e-05,0.0080277,0.33869,0.011596,0.023756,4.3386e-07,0.91,0.02,0
0.046144,0.0101,0.026674,1.951e-05,0.0080082,0.00014417,0,0,0.048532,-0.020771,0,0.00074966,0,0,0,0.026675,1.873e-05,0.0080082,0.30988,0.011567,0.023694,4.3057e-07,0.92,0.02,0
0.046628,0.01012,0.026614,2.1161e-05,0.0079905,0.00012905,0,0,0.048421,-0.02072,0,0.00067105,0,0,0,0.026614,2.0535e-05,0.0079905,0.27804,0.011542,0.023639,4.276e-07,0.93,0.02,0
0.047112,0.010138,0.02656,2.2603e-05,0.0079748,0.00011278,0,0,0.048322,-0.020676,0,0.00058645,0,0,0,0.026561,2.2124e-05,0.0079748,0.24349,0.011519,0.02359,4.2499e-07,0.94,0.02,0
0.047595,0.010153,0.026514,2.383e-05,0.0079614,9.5516e-05,0,0,0.048237,-0.020638,0,0.00049668,0,0,0,0.026514,2.3486e-05,0.0079614,0.20659,0.0115,0.023548,4.2275e-07,0.95,0.02,0
0.048077,0.010166,0.026476,2.4839e-05,0.0079501,7.7418e-05,0,0,0.048166,-0.020606,0,0.00040257,0,0,0,0.026476,2.4612e-05,0.0079501,0.1677,0.011484,0.023513,4.2089e-07,0.96,0.02,0
0.048558,0.010176,0.026446,2.5625e-05,0.0079413,5.8651e-05,0,0,0.048111,-0.020581,0,0.00030499,0,0,0,0.026446,2.5495e-05,0.0079413,0.12719,0.011471,0.023485,4.1943e-07,0.97,0.02,0
0.049039,0.010183,0.026424,2.6189e-05,0.007935,3.9381e-05,0,0,0.048071,-0.020563,0,0.00020478,0,0,0,0.026424,2.613e-05,0.007935,0.085476,0.011462,0.023465,4.1838e-07,0.98,0.02,0
0.04952,0.010188,0.026411,2.6527e-05,0.0079311,1.9775e-05,0,0,0.048047,-0.020552,0,0.00010283,0,0,0,0.026411,2.6512e-05,0.0079311,0.042943,0.011456,0.023453,4.1775e-07,0.99,0.02,0
0.05,0.010189,0.026406,2.664e-05,0.0079299,2.816e-05,0,0,0.048039,-0.020548,0,0.00014643,0,0,0,0.026406,2.661e-05,0.0079299,0.061162,0.011454,0.023449,4.1754e-07,1,0.02,0
0,0,0.037541,0.016089,0.016089,0.011696,0,0,0.055776,-1.7347e-18,0,0.060819,0,0,0,0.042685,0.010946,0.016089,23.738,0.02324,0.029506,1.1853e-06,0,0.03,0
0.00055776,0.00060819,0.037038,0.012112,0.014745,0.011157,0,0,0.057961,-0.0068457,0,0.058018,0,0,0,0.041302,0.0078473,0.014745,20.918,0.021298,0.030595,1.2226e-06,0.01,0.03,0
0.0011592,0.001269,0.037308,0.0079875,0.013589,0.010351,0,0,0.061671,-0.014563,0,0.053824,0,0,0,0.040594,0.0047018,0.013589,17.612,0.019628,0.032377,1.3105e-06,0.02,0.03,0
0.0017912,0.0019248,0.037139,0.0050742,0.012664,0.0086903,0,0,0.063635,-0.019734,0,0.045189,0,0,0,0.039343,0.0028704,0.012664,14.23,0.018292,0.032695,1.2669e-06,0.03,0.03,0
0.0024319,0.0025416,0.036416,0.0034375,0.011956,0.0070083,0,0,0.063597,-0.022149,0,0.036443,0,0,0,0.037844,0.00201,0.011956,11.513,0.01727,0.03204,1.1568e-06,0.04,0.03,0
0.0030631,0.0031101,0.035263,0.0024018,0.011299,0.005611,0,0,0.062304,-0.023134,0,0.029177,0,0,0,0.036194,0.0014701,0.011299,9.4276,0.016321,0.031001,1.0277e-06,0.05,0.03,0
0.003678,0.003633,0.034042,0.001737,0.010734,0.0045304,0,0,0.060602,-0.023391,0,0.023558,0,0,0,0.034665,0.0011137,0.010734,7.8338,0.015504,0.029925,9.1207e-07,0.06,0.03,0
0.0042751,0.0041151,0.032894,0.0012941,0.010256,0.0037003,0,0,0.058858,-0.023302,0,0.019242,0,0,0,0.033321,0.00086657,0.010256,6.5905,0.014815,0.028926,8.1586e-07,0.07,0.03,0
0.0048552,0.0045609,0.031866,0.00098997,0.0098567,0.0030575,0,0,0.057223,-0.023054,0,0.015899,0,0,0,0.032166,0.00069011,0.0098567,5.6013,0.014238,0.028039,7.3773e-07,0.08,0.03,0
0.0054196,0.0049746,0.030963,0.00077489,0.0095214,0.0025523,0,0,0.055749,-0.022741,0,0.013272,0,0,0,0.031178,0.00056063,0.0095214,4.7987,0.013753,0.027264,6.7447e-07,0.09,0.03,0
0.0059701,0.0053593,0.030177,0.00061867,0.0092388,0.0021488,0,0,0.05444,-0.022412,0,0.011174,0,0,0,0.030333,0.00046327,0.0092388,4.1363,0.013345,0.026591,6.2301e-07,0.1,0.03,0
0.0065084,0.0057178,0.029494,0.00050248,0.008999,0.0018218,0,0,0.053287,-0.022091,0,0.0094734,0,0,0,0.029608,0.00038845,0.008999,3.5816,0.012998,0.026006,5.8083e-07,0.11,0.03,0
0.0070359,0.0060525,0.0289,0.00041422,0.0087944,0.001553,0,0,0.052276,-0.021788,0,0.0080754,0,0,0,0.028985,0.00032981,0.0087944,3.1113,0.012703,0.025499,5.4597e-07,0.12,0.03,0
0.0075539,0.0063653,0.028384,0.00034592,0.0086189,0.0013291,0,0,0.051389,-0.02151,0,0.0069115,0,0,0,0.028447,0.00028305,0.0086189,2.708,0.01245,0.025058,5.1694e-07,0.13,0.03,0
0.0080637,0.0066577,0.027934,0.00029221,0.0084679,0.0011407,0,0,0.050612,-0.021257,0,0.0059316,0,0,0,0.027981,0.00024522,0.0084679,2.3591,0.012231,0.024674,4.926e-07,0.14,0.03,0
0.0085662,0.0069314,0.027542,0.00024936,0.0083373,0.0009804,0,0,0.049931,-0.021029,0,0.0050981,0,0,0,0.027577,0.00021419,0.0083373,2.0547,0.012043,0.02434,4.7209e-07,0.15,0.03,0
0.0090623,0.0071873,0.0272,0.00021475,0.0082243,0.0008428,0,0,0.049336,-0.020825,0,0.0043826,0,0,0,0.027226,0.00018846,0.0082243,1.7872,0.011879,0.024048,4.5471e-07,0.16,0.03,0
0.0095529,0.0074268,0.026901,0.0001865,0.0081263,0.00072368,0,0,0.048815,-0.020643,0,0.0037632,0,0,0,0.026921,0.00016691,0.0081263,1.5506,0.011738,0.023794,4.3994e-07,0.17,0.03,0
0.010039,0.0076506,0.026641,0.00016323,0.0080413,0.00061976,0,0,0.04836,-0.020483,0,0.0032228,0,0,0,0.026656,0.00014873,0.0080413,1.3401,0.011615,0.023573,4.2736e-07,0.18,0.03,0
0.01052,0.0078597,0.026415,0.00014389,0.0079677,0.00052844,0,0,0.047963,-0.020342,0,0.0027479,0,0,0,0.026426,0.00013327,0.0079677,1.1519,0.011509,0.023381,4.1664e-07,0.19,0.03,0
0.010998,0.0080549,0.026219,0.00012772,0.0079041,0.00044763,0,0,0.047619,-0.020219,0,0.0023277,0,0,0,0.026227,0.00012004,0.0079041,0.98259,0.011417,0.023215,4.0751e-07,0.2,0.03,0
0.011473,0.0082368,0.02605,0.00011411,0.0078493,0.00037567,0,0,0.047322,-0.020111,0,0.0019535,0,0,0,0.026055,0.00010867,0.0078493,0.82966,0.011338,0.023072,3.9975e-07,0.21,0.03,0
0.011944,0.0084061,0.025905,0.00010261,0.0078023,0.00031117,0,0,0.047067,-0.020019,0,0.0016181,0,0,0,0.025909,9.886e-05,0.0078023,0.69084,0.01127,0.022949,3.9319e-07,0.22,0.03,0
0.012414,0.0085633,0.025782,9.2848e-05,0.0077623,0.00025301,0,0,0.04685,-0.019941,0,0.0013157,0,0,0,0.025784,9.0356e-05,0.0077623,0.56425,0.011212,0.022845,3.8767e-07,0.23,0.03,0
0.012881,0.0087091,0.025678,8.4529e-05,0.0077287,0.00020026,0,0,0.046668,-0.019875,0,0.0010413,0,0,0,0.025679,8.2962e-05,0.0077287,0.44829,0.011164,0.022758,3.8308e-07,0.24,0.03,0
0.013347,0.0088439,0.025592,7.7421e-05,0.0077008,0.00015212,0,0,0.046517,-0.019821,0,0.00079104,0,0,0,0.025593,7.6514e-05,0.0077008,0.34159,0.011123,0.022686,3.7932e-07,0.25,0.03,0
0.013812,0.0089681,0.025522,7.1329e-05,0.0076781,0.00010794,0,0,0.046395,-0.019777,0,0.00056132,0,0,0,0.025523,7.0871e-05,0.0076781,0.243,0.01109,0.022628,3.7629e-07,0.26,0.03,0
0.014275,0.0090823,0.025468,6.6094e-05,0.0076601,6.7175e-05,0,0,0.046299,-0.019744,0,0.00034931,0,0,0,0.025468,6.5916e-05,0.0076601,0.15152,0.011065,0.022583,3.7394e-07,0.27,0.03,0
0.014738,0.0091868,0.025427,6.1582e-05,0.0076465,2.9345e-05,0,0,0.046228,-0.019721,0,0.0001526,0,0,0,0.025427,6.1548e-05,0.0076465,0.066286,0.011045,0.022551,3.7221e-07,0.28,0.03,0
0.0152,0.009282,0.025399,5.7677e-05,0.0076369,-5.9384e-06,0,0,0.04618,-0.019706,0,-3.088e-05,0,0,0,0.025399,5.7675e-05,0.0076369,-0.013427,0.011031,0.022529,3.7103e-07,0.29,0.03,0
0.015661,0.0093683,0.025382,5.428e-05,0.007631,-3.9007e-05,0,0,0.046154,-0.0197,0,-0.00020284,0,0,0,0.025382,5.422e-05,0.007631,-0.088238,0.011023,0.022517,3.7038e-07,0.3,0.03,0
0.016123,0.0094461,0.025377,5.1305e-05,0.0076286,-7.0136e-05,0,0,0.046147,-0.019701,0,-0.00036471,0,0,0,0.025378,5.1111e-05,0.0076286,-0.15867,0.011019,0.022515,3.7022e-07,0.31,0.03,0
0.016584,0.0095156,0.025383,4.8675e-05,0.0076294,-9.9554e-05,0,0,0.046159,-0.01971,0,-0.00051768,0,0,0,0.025383,4.8283e-05,0.0076294,-0.22515,0.01102,0.022522,3.7051e-07,0.32,0.03,0
0.017046,0.0095773,0.025398,4.6318e-05,0.0076333,-0.00012745,0,0,0.046188,-0.019726,0,-0.00066272,0,0,0,0.025399,4.5678e-05,0.0076333,-0.28802,0.011026,0.022538,3.7122e-07,0.33,0.03,0
0.017508,0.0096314,0.025422,4.4173e-05,0.0076399,-0.00015396,0,0,0.046234,-0.019749,0,-0.00080059,0,0,0,0.025423,4.3239e-05,0.0076399,-0.34757,0.011036,0.022562,3.7234e-07,0.34,0.03,0
0.017971,0.0096783,0.025455,4.2181e-05,0.0076493,-0.0001792,0,0,0.046296,-0.019778,0,-0.00093186,0,0,0,0.025457,4.0917e-05,0.0076493,-0.404,0.011049,0.022594,3.7385e-07,0.35,0.03,0
0.018434,0.0097183,0.025497,4.0287e-05,0.0076611,-0.00020326,0,0,0.046373,-0.019814,0,-0.001057,0,0,0,0.025498,3.8664e-05,0.0076611,-0.45744,0.011066,0.022633,3.7573e-07,0.36,0.03,0
0.018898,0.0097517,0.025546,3.8442e-05,0.0076753,-0.00022618,0,0,0.046463,-0.019856,0,-0.0011761,0,0,0,0.025548,3.6437e-05,0.0076753,-0.50799,0.011086,0.022678,3.7796e-07,0.37,0.03,0
0.019363,0.0097787,0.025602,3.66e-05,0.0076917,-0.00024797,0,0,0.046568,-0.019903,0,-0.0012894,0,0,0,0.025605,3.4195e-05,0.0076917,-0.55566,0.01111,0.022731,3.8053e-07,0.38,0.03,0
0.019829,0.0097999,0.025666,3.4715e-05,0.0077101,-0.00026864,0,0,0.046685,-0.019956,0,-0.0013969,0,0,0,0.025669,3.19e-05,0.0077101,-0.60043,0.011137,0.022789,3.8342e-07,0.39,0.03,0
0.020297,0.0098153,0.025736,3.2749e-05,0.0077306,-0.00028816,0,0,0.046814,-0.020014,0,-0.0014984,0,0,0,0.025739,2.9519e-05,0.0077306,-0.64224,0.011166,0.022854,3.8662e-07,0.4,0.03,0
0.020766,0.0098255,0.025812,3.0665e-05,0.0077527,-0.00030647,0,0,0.046954,-0.020077,0,-0.0015936,0,0,0,0.025815,2.7022e-05,0.0077527,-0.68097,0.011198,0.022924,3.9012e-07,0.41,0.03,0
0.021236,0.0098306,0.025893,2.843e-05,0.0077766,-0.00032351,0,0,0.047104,-0.020145,0,-0.0016822,0,0,0,0.025898,2.4384e-05,0.0077766,-0.71648,0.011233,0.022999,3.939e-07,0.42,0.03,0
0.021708,0.0098311,0.02598,2.6015e-05,0.0078019,-0.00033918,0,0,0.047264,-0.020217,0,-0.0017637,0,0,0,0.025985,2.1583e-05,0.0078019,-0.7486,0.011269,0.023079,3.9794e-07,0.43,0.03,0
0.022181,0.0098273,0.026072,2.3395e-05,0.0078286,-0.00035339,0,0,0.047433,-0.020294,0,-0.0018376,0,0,0,0.026077,1.8602e-05,0.0078286,-0.77712,0.011308,0.023163,4.0224e-07,0.44,0.03,0
0.022656,0.0098194,0.026168,2.0553e-05,0.0078566,-0.00036602,0,0,0.04761,-0.020374,0,-0.0019033,0,0,0,0.026173,1.543e-05,0.0078566,-0.80184,0.011348,0.023251,4.0676e-07,0.45,0.03,0
0.023133,0.009808,0.026268,1.7474e-05,0.0078855,-0.00037695,0,0,0.047794,-0.020457,0,-0.0019601,0,0,0,0.026273,1.2062e-05,0.0078855,-0.82253,0.01139,0.023342,4.115e-07,0.46,0.03,0
0.023612,0.0097932,0.026371,1.4149e-05,0.0079154,-0.00038604,0,0,0.047983,-0.020543,0,-0.0020074,0,0,0,0.026376,8.4961e-06,0.0079154,-0.83896,0.011433,0.023437,4.1642e-07,0.47,0.03,0
0.024093,0.0097756,0.026476,1.0579e-05,0.007946,-0.00039316,0,0,0.048178,-0.020632,0,-0.0020444,0,0,0,0.026482,4.7392e-06,0.007946,-0.85091,0.011477,0.023534,4.2151e-07,0.48,0.03,0
0.024576,0.0097554,0.026583,6.7671e-06,0.007977,-0.00039818,0,0,0.048377,-0.020723,0,-0.0020705,0,0,0,0.026589,8.0277e-07,0.007977,-0.85816,0.011522,0.023633,4.2673e-07,0.49,0.03,0
0.02506,0.0097331,0.026692,2.7272e-06,0.0080085,-0.00040097,0,0,0.048578,-0.020815,0,-0.0020851,0,0,0,0.026698,-3.2954e-06,0.0080085,-0.86053,0.011568,0.023733,4.3207e-07,0.5,0.03,0
0.025547,0.009709,0.026802,-1.5213e-06,0.0080401,-0.00040142,0,0,0.04878,-0.020908,0,-0.0020874,0,0,0,0.026808,-7.5318e-06,0.0080401,-0.85784,0.011613,0.023833,4.3748e-07,0.51,0.03,0
0.026036,0.0096834,0.026911,-5.9517e-06,0.0080716,-0.00039942,0,0,0.048983,-0.021002,0,-0.002077,0,0,0,0.026917,-1.1877e-05,0.0080716,-0.84995,0.011659,0.023934,4.4293e-07,0.52,0.03,0
0.026527,0.0096569,0.02702,-1.053e-05,0.0081028,-0.00039487,0,0,0.049184,-0.021095,0,-0.0020533,0,0,0,0.027026,-1.6297e-05,0.0081028,-0.83677,0.011704,0.024034,4.4839e-07,0.53,0.03,0
0.02702,0.0096297,0.027127,-1.5216e-05,0.0081336,-0.00038773,0,0,0.049383,-0.021187,0,-0.0020162,0,0,0,0.027133,-2.0753e-05,0.0081336,-0.81824,0.011749,0.024133,4.5382e-07,0.54,0.03,0
0.027515,0.0096023,0.027232,-1.9961e-05,0.0081637,-0.00037793,0,0,0.049578,-0.021278,0,-0.0019652,0,0,0,0.027238,-2.5201e-05,0.0081637,-0.79436,0.011792,0.024229,4.5918e-07,0.55,0.03,0
0.028011,0.009575,0.027334,-2.4715e-05,0.0081929,-0.00036546,0,0,0.049768,-0.021366,0,-0.0019004,0,0,0,0.027339,-2.9596e-05,0.0081929,-0.76517,0.011834,0.024323,4.6442e-07,0.56,0.03,0
0.02851,0.0095481,0.027433,-2.942e-05,0.008221,-0.00035034,0,0,0.049951,-0.021451,0,-0.0018218,0,0,0,0.027437,-3.3889e-05,0.008221,-0.73078,0.011875,0.024414,4.6951e-07,0.57,0.03,0
0.02901,0.009522,0.027527,-3.4015e-05,0.0082478,-0.00033262,0,0,0.050125,-0.021533,0,-0.0017296,0,0,0,0.027531,-3.8029e-05,0.0082478,-0.69135,0.011914,0.0245,4.7439e-07,0.58,0.03,0
0.029513,0.0094971,0.027615,-3.8438e-05,0.0082731,-0.00031238,0,0,0.05029,-0.02161,0,-0.0016244,0,0,0,0.027619,-4.1966e-05,0.0082731,-0.6471,0.01195,0.024582,4.7904e-07,0.59,0.03,0
0.030016,0.0094737,0.027698,-4.2625e-05,0.0082967,-0.00028972,0,0,0.050444,-0.021682,0,-0.0015066,0,0,0,0.027701,-4.565e-05,0.0082967,-0.59831,0.011984,0.024658,4.834e-07,0.6,0.03,0
0.030521,0.009452,0.027775,-4.6512e-05,0.0083184,-0.00026482,0,0,0.050586,-0.021749,0,-0.001377,0,0,0,0.027777,-4.9032e-05,0.0083184,-0.54531,0.012016,0.024728,4.8745e-07,0.61,0.03,0
0.031028,0.0094323,0.027844,-5.0038e-05,0.0083381,-0.00023783,0,0,0.050715,-0.021809,0,-0.0012367,0,0,0,0.027846,-5.2066e-05,0.0083381,-0.48848,0.012044,0.024791,4.9113e-07,0.62,0.03,0
0.031536,0.0094149,0.027905,-5.3146e-05,0.0083556,-0.000209,0,0,0.050829,-0.021863,0,-0.0010868,0,0,0,0.027907,-5.4708e-05,0.0083556,-0.42828,0.012069,0.024848,4.9441e-07,0.63,0.03,0
0.032044,0.0094,0.027959,-5.5782e-05,0.0083709,-0.00017857,0,0,0.050928,-0.021909,0,-0.00092855,0,0,0,0.02796,-5.692e-05,0.0083709,-0.36519,0.012091,0.024897,4.9727e-07,0.64,0.03,0
0.032554,0.0093878,0.028004,-5.7898e-05,0.0083837,-0.00014681,0,0,0.051012,-0.021948,0,-0.0007634,0,0,0,0.028004,-5.8666e-05,0.0083837,-0.29974,0.01211,0.024938,4.9968e-07,0.65,0.03,0
0.033065,0.0093784,0.028039,-5.9456e-05,0.008394,-0.00011402,0,0,0.051078,-0.021979,0,-0.00059292,0,0,0,0.02804,-5.9918e-05,0.008394,-0.2325,0.012125,0.02497,5.0161e-07,0.66,0.03,0
0.033576,0.009372,0.028066,-6.0423e-05,0.0084018,-8.0534e-05,0,0,0.051128,-0.022002,0,-0.00041878,0,0,0,0.028067,-6.0653e-05,0.0084018,-0.16405,0.012136,0.024994,5.0306e-07,0.67,0.03,0
0.034087,0.0093687,0.028084,-6.0777e-05,0.0084069,-4.6677e-05,0,0,0.05116,-0.022016,0,-0.00024272,0,0,0,0.028084,-6.0854e-05,0.0084069,-0.095023,0.012143,0.02501,5.04e-07,0.68,0.03,0
0.034599,0.0093684,0.028092,-6.0506e-05,0.0084095,-1.2797e-05,0,0,0.051175,-0.022022,0,-6.6544e-05,0,0,0,0.028092,-6.0512e-05,0.0084095,-0.026044,0.012147,0.025017,5.0443e-07,0.69,0.03,0
0.035111,0.0093713,0.028091,-5.9606e-05,0.0084094,2.0757e-05,0,0,0.051172,-0.02202,0,0.00010794,0,0,0,0.028091,-5.9622e-05,0.0084094,0.042247,0.012147,0.025016,5.0436e-07,0.7,0.03,0
0.035623,0.0093773,0.028081,-5.8086e-05,0.0084069,5.3637e-05,0,0,0.051153,-0.022009,0,0.00027891,0,0,0,0.028081,-5.8189e-05,0.0084069,0.10921,0.012143,0.025005,5.0379e-07,0.71,0.03,0
0.036134,0.0093863,0.028062,-5.5963e-05,0.0084017,8.5501e-05,0,0,0.051116,-0.02199,0,0.0004446,0,0,0,0.028062,-5.6223e-05,0.0084017,0.17422,0.012136,0.024987,5.0273e-07,0.72,0.03,0
0.036645,0.0093982,0.028034,-5.3262e-05,0.0083943,0.00011602,0,0,0.051064,-0.021964,0,0.00060331,0,0,0,0.028035,-5.3741e-05,0.0083943,0.23666,0.012125,0.024961,5.0121e-07,0.73,0.03,0
0.037155,0.009413,0.027998,-5.0021e-05,0.0083845,0.00014488,0,0,0.050996,-0.02193,0,0.00075339,0,0,0,0.027999,-5.0769e-05,0.0083845,0.29595,0.012111,0.024927,4.9925e-07,0.74,0.03,0
0.037665,0.0094305,0.027955,-4.6282e-05,0.0083725,0.0001718,0,0,0.050914,-0.021889,0,0.00089337,0,0,0,0.027956,-4.7336e-05,0.0083725,0.35152,0.012094,0.024885,4.9688e-07,0.75,0.03,0
0.038173,0.0094504,0.027904,-4.2095e-05,0.0083586,0.00019651,0,0,0.050818,-0.021842,0,0.0010218,0,0,0,0.027905,-4.3477e-05,0.0083586,0.40286,0.012073,0.024838,4.9412e-07,0.76,0.03,0
0.038681,0.0094727,0.027847,-3.7518e-05,0.0083428,0.00021877,0,0,0.05071,-0.021789,0,0.0011376,0,0,0,0.027849,-3.9235e-05,0.0083428,0.44949,0.012051,0.024784,4.9103e-07,0.77,0.03,0
0.039188,0.009497,0.027784,-3.2611e-05,0.0083254,0.00023839,0,0,0.050592,-0.021731,0,0.0012396,0,0,0,0.027786,-3.4654e-05,0.0083254,0.49099,0.012025,0.024724,4.8764e-07,0.78,0.03,0
0.039693,0.009523,0.027716,-2.7437e-05,0.0083065,0.0002552,0,0,0.050464,-0.021668,0,0.001327,0,0,0,0.027718,-2.9785e-05,0.0083065,0.52698,0.011998,0.02466,4.84e-07,0.79,0.03,0
0.040197,0.0095507,0.027644,-2.2062e-05,0.0082865,0.00026906,0,0,0.050328,-0.021602,0,0.0013991,0,0,0,0.027646,-2.4679e-05,0.0082865,0.55716,0.011969,0.024592,4.8014e-07,0.8,0.03,0
0.040699,0.0095795,0.027568,-1.6552e-05,0.0082654,0.00027989,0,0,0.050186,-0.021533,0,0.0014554,0,0,0,0.027571,-1.9392e-05,0.0082654,0.58128,0.011939,0.024521,4.7612e-07,0.81,0.03,0
0.041201,0.0096093,0.02749,-1.0971e-05,0.0082436,0.00028762,0,0,0.05004,-0.021462,0,0.0014956,0,0,0,0.027493,-1.3979e-05,0.0082436,0.59914,0.011907,0.024447,4.7199e-07,0.82,0.03,0
0.0417,0.0096397,0.02741,-5.3834e-06,0.0082213,0.00029222,0,0,0.04989,-0.021389,0,0.0015196,0,0,0,0.027413,-8.4979e-06,0.0082213,0.61064,0.011875,0.024372,4.6779e-07,0.83,0.03,0
0.042198,0.0096705,0.027329,1.5212e-07,0.0081987,0.00029372,0,0,0.049738,-0.021316,0,0.0015274,0,0,0,0.027332,-3.0044e-06,0.0081987,0.61571,0.011843,0.024296,4.6356e-07,0.84,0.03,0
0.042695,0.0097012,0.027248,5.5789e-06,0.008176,0.00029216,0,0,0.049587,-0.021243,0,0.0015192,0,0,0,0.027251,2.446e-06,0.008176,0.61437,0.01181,0.024219,4.5936e-07,0.85,0.03,0
0.04319,0.0097317,0.027168,1.0845e-05,0.0081536,0.0002876,0,0,0.049437,-0.021171,0,0.0014955,0,0,0,0.027171,7.7997e-06,0.0081536,0.6067,0.011777,0.024144,4.5522e-07,0.86,0.03,0
0.043684,0.0097616,0.027089,1.5904e-05,0.0081316,0.00028016,0,0,0.04929,-0.021101,0,0.0014568,0,0,0,0.027092,1.3005e-05,0.0081316,0.59282,0.011746,0.02407,4.5119e-07,0.87,0.03,0
0.044176,0.0097906,0.027013,2.0715e-05,0.0081102,0.00026995,0,0,0.049148,-0.021033,0,0.0014038,0,0,0,0.027016,1.8015e-05,0.0081102,0.57294,0.011715,0.023998,4.473e-07,0.88,0.03,0
0.044667,0.0098184,0.02694,2.524e-05,0.0080897,0.00025713,0,0,0.049012,-0.020968,0,0.0013371,0,0,0,0.026943,2.2783e-05,0.0080897,0.5473,0.011685,0.023929,4.4359e-07,0.89,0.03,0
0.045156,0.0098448,0.026871,2.9449e-05,0.0080703,0.00024186,0,0,0.048883,-0.020906,0,0.0012577,0,0,0,0.026874,2.7269e-05,0.0080703,0.51622,0.011657,0.023864,4.401e-07,0.9,0.03,0
0.045644,0.0098694,0.026807,3.3315e-05,0.0080521,0.00022433,0,0,0.048763,-0.020849,0,0.0011665,0,0,0,0.026809,3.1436e-05,0.0080521,0.48003,0.011631,0.023803,4.3685e-07,0.91,0.03,0
0.046131,0.0098922,0.026748,3.6817e-05,0.0080353,0.00020473,0,0,0.048652,-0.020796,0,0.0010646,0,0,0,0.026749,3.5248e-05,0.0080353,0.43913,0.011607,0.023747,4.3387e-07,0.92,0.03,0
0.046617,0.0099128,0.026694,3.9938e-05,0.0080202,0.00018328,0,0,0.048552,-0.020748,0,0.00095305,0,0,0,0.026695,3.8678e-05,0.0080202,0.39395,0.011585,0.023696,4.3119e-07,0.93,0.03,0
0.047102,0.009931,0.026646,4.2664e-05,0.0080067,0.00016018,0,0,0.048463,-0.020706,0,0.00083295,0,0,0,0.026647,4.17e-05,0.0080067,0.34497,0.011565,0.023651,4.2882e-07,0.94,0.03,0
0.047587,0.0099468,0.026605,4.4985e-05,0.0079951,0.00013567,0,0,0.048387,-0.02067,0,0.00070548,0,0,0,0.026606,4.4292e-05,0.0079951,0.29265,0.011548,0.023613,4.2679e-07,0.95,0.03,0
0.04807,0.0099599,0.026571,4.6892e-05,0.0079855,0.00010997,0,0,0.048323,-0.02064,0,0.00057184,0,0,0,0.026572,4.6436e-05,0.0079855,0.23754,0.011535,0.023581,4.251e-07,0.96,0.03,0
0.048553,0.0099702,0.026545,4.8381e-05,0.0079779,8.3314e-05,0,0,0.048273,-0.020617,0,0.00043323,0,0,0,0.026545,4.8119e-05,0.0079779,0.18016,0.011524,0.023555,4.2378e-07,0.97,0.03,0
0.049036,0.0099776,0.026525,4.9446e-05,0.0079724,5.5942e-05,0,0,0.048238,-0.0206,0,0.0002909,0,0,0,0.026525,4.9328e-05,0.0079724,0.12106,0.011516,0.023537,4.2283e-07,0.98,0.03,0
0.049518,0.0099821,0.026514,5.0086e-05,0.0079691,2.8091e-05,0,0,0.048216,-0.02059,0,0.00014607,0,0,0,0.026514,5.0057e-05,0.0079691,0.060819,0.011511,0.023526,4.2226e-07,0.99,0.03,0
0.05,0.0099836,0.02651,5.03e-05,0.007968,2.8832e-05,0,0,0.048209,-0.020586,0,0.00014992,0,0,0,0.02651,5.0269e-05,0.007968,0.062433,0.011509,0.023522,4.2207e-07,1,0.03,0
0,0,0.034868,0.014943,0.014943,0.010656,0,0,0.051803,2.1684e-19,0,0.055413,0,0,0,0.039493,0.010318,0.014943,23.464,0.021585,0.02716,9.2915e-07,0,0.04,0
0.00051803,0.00055413,0.034603,0.012261,0.014059,0.010421,0,0,0.053413,-0.0046746,0,0.054191,0,0,0,0.038709,0.0081548,0.014059,21.506,0.020308,0.028071,9.6885e-07,0.01,0.04,0
0.0010683,0.00115,0.035034,0.009322,0.013307,0.010088,0,0,0.05649,-0.01036,0,0.052457,0,0,0,0.038519,0.0058366,0.013307,19.061,0.019221,0.029662,1.0592e-06,0.02,0.04,0
0.0016478,0.0017539,0.035201,0.006727,0.012578,0.0091227,0,0,0.058819,-0.015214,0,0.047438,0,0,0,0.037873,0.004055,0.012578,16.325,0.018169,0.030464,1.078e-06,0.03,0.04,0
0.0022446,0.0023392,0.034988,0.0048267,0.011944,0.0078678,0,0,0.059913,-0.018506,0,0.040912,0,0,0,0.036917,0.0028977,0.011944,13.776,0.017253,0.030519,1.039e-06,0.04,0.04,0
0.0028461,0.0028919,0.03444,0.0035361,0.011393,0.0066363,0,0,0.059922,-0.020427,0,0.034509,0,0,0,0.035805,0.0021713,0.011393,11.621,0.016456,0.030101,9.7034e-07,0.05,0.04,0
0.0034431,0.0034078,0.033684,0.0026443,0.010898,0.0055601,0,0,0.059242,-0.021461,0,0.028912,0,0,0,0.03465,0.0016784,0.010898,9.8552,0.015742,0.029464,8.9305e-07,0.06,0.04,0
0.0040309,0.0038877,0.032862,0.0020204,0.010465,0.0046645,0,0,0.058232,-0.021955,0,0.024255,0,0,0,0.033552,0.0013304,0.010465,8.4149,0.015116,0.028764,8.1957e-07,0.07,0.04,0
0.0046077,0.0043339,0.032052,0.001575,0.010088,0.0039307,0,0,0.057107,-0.022134,0,0.02044,0,0,0,0.032551,0.0010762,0.010088,7.2319,0.014572,0.028075,7.5432e-07,0.08,0.04,0
0.0051731,0.0047492,0.031294,0.0012505,0.0097633,0.0033304,0,0,0.055979,-0.022133,0,0.017318,0,0,0,0.031658,0.00088577,0.0097633,6.2504,0.014103,0.027433,6.981e-07,0.09,0.04,0
0.0057273,0.0051362,0.030601,0.0010094,0.0094831,0.0028369,0,0,0.054907,-0.022032,0,0.014752,0,0,0,0.030871,0.00073988,0.0094831,5.427,0.013698,0.026849,6.5029e-07,0.1,0.04,0
0.0062712,0.0054973,0.029978,0.00082679,0.0092413,0.002428,0,0,0.053914,-0.021878,0,0.012625,0,0,0,0.030178,0.00062594,0.0092413,4.7288,0.013348,0.026324,6.0976e-07,0.11,0.04,0
0.0068056,0.0058344,0.02942,0.00068609,0.0090319,0.0020862,0,0,0.05301,-0.021699,0,0.010848,0,0,0,0.029571,0.00053542,0.0090319,4.131,0.013046,0.025857,5.7541e-07,0.12,0.04,0
0.0073314,0.0061496,0.028925,0.00057598,0.0088503,0.001798,0,0,0.052194,-0.021513,0,0.0093494,0,0,0,0.029038,0.00046241,0.0088503,3.6145,0.012784,0.025441,5.4622e-07,0.13,0.04,0
0.0078495,0.0064443,0.028485,0.0004886,0.0086921,0.0015528,0,0,0.051462,-0.021329,0,0.0080747,0,0,0,0.028571,0.00040274,0.0086921,3.1649,0.012555,0.025073,5.2134e-07,0.14,0.04,0
0.0083606,0.00672,0.028096,0.00041838,0.0085542,0.0013426,0,0,0.050808,-0.021153,0,0.0069816,0,0,0,0.028161,0.0003534,0.0085542,2.7707,0.012356,0.024748,5.0006e-07,0.15,0.04,0
0.0088656,0.0069779,0.027751,0.00036132,0.0084338,0.001161,0,0,0.050225,-0.020988,0,0.0060371,0,0,0,0.0278,0.00031219,0.0084338,2.4228,0.012182,0.02446,4.8181e-07,0.16,0.04,0
0.0093651,0.007219,0.027447,0.0003145,0.0083284,0.0010029,0,0,0.049708,-0.020836,0,0.0052151,0,0,0,0.027484,0.00027748,0.0083284,2.114,0.01203,0.024207,4.6613e-07,0.17,0.04,0
0.0098598,0.0074444,0.027178,0.00027575,0.0082363,0.00086441,0,0,0.04925,-0.020697,0,0.0044949,0,0,0,0.027206,0.00024801,0.0082363,1.8384,0.011897,0.023984,4.5263e-07,0.18,0.04,0
0.01035,0.0076549,0.026942,0.00024345,0.0081557,0.00074227,0,0,0.048845,-0.020572,0,0.0038598,0,0,0,0.026963,0.00022283,0.0081557,1.5913,0.01178,0.023787,4.41e-07,0.19,0.04,0
0.010837,0.0078513,0.026735,0.00021634,0.0080853,0.00063388,0,0,0.048488,-0.020459,0,0.0032962,0,0,0,0.02675,0.0002012,0.0080853,1.3685,0.011679,0.023615,4.3099e-07,0.2,0.04,0
0.01132,0.0080342,0.026553,0.00019347,0.008024,0.00053714,0,0,0.048176,-0.020359,0,0.0027931,0,0,0,0.026564,0.00018253,0.008024,1.1669,0.01159,0.023465,4.2238e-07,0.21,0.04,0
0.0118,0.0082044,0.026395,0.00017408,0.0079708,0.00045028,0,0,0.047904,-0.020271,0,0.0023415,0,0,0,0.026403,0.00016635,0.0079708,0.98353,0.011513,0.023335,4.1499e-07,0.22,0.04,0
0.012278,0.0083625,0.026259,0.00015757,0.0079248,0.00037186,0,0,0.047668,-0.020195,0,0.0019337,0,0,0,0.026264,0.00015228,0.0079248,0.81607,0.011447,0.023222,4.0869e-07,0.23,0.04,0
0.012754,0.0085089,0.026141,0.00014348,0.0078854,0.00030066,0,0,0.047465,-0.020129,0,0.0015635,0,0,0,0.026145,0.00014,0.0078854,0.66251,0.01139,0.023126,4.0335e-07,0.24,0.04,0
0.013227,0.0086443,0.026042,0.0001314,0.0078519,0.00023567,0,0,0.047293,-0.020073,0,0.0012255,0,0,0,0.026044,0.00012926,0.0078519,0.52108,0.011342,0.023045,3.9887e-07,0.25,0.04,0
0.013699,0.008769,0.025958,0.00012103,0.0078238,0.00017602,0,0,0.04715,-0.020027,0,0.0009153,0,0,0,0.025959,0.00011983,0.0078238,0.39031,0.011301,0.022978,3.9516e-07,0.26,0.04,0
0.01417,0.0088835,0.02589,0.00011209,0.0078006,0.00012099,0,0,0.047032,-0.01999,0,0.00062913,0,0,0,0.02589,0.00011152,0.0078006,0.26891,0.011267,0.022923,3.9214e-07,0.27,0.04,0
0.01464,0.0089883,0.025835,0.00010436,0.0077818,6.9958e-05,0,0,0.046939,-0.019962,0,0.00036378,0,0,0,0.025835,0.00010417,0.0077818,0.15578,0.011241,0.02288,3.8976e-07,0.28,0.04,0
0.015109,0.0090837,0.025793,9.7657e-05,0.0077673,2.2411e-05,0,0,0.046868,-0.019941,0,0.00011654,0,0,0,0.025793,9.7637e-05,0.0077673,0.049972,0.011219,0.022848,3.8797e-07,0.29,0.04,0
0.015577,0.0091701,0.025763,9.181e-05,0.0077566,-2.2093e-05,0,0,0.046818,-0.019928,0,-0.00011488,0,0,0,0.025763,9.1791e-05,0.0077566,-0.049308,0.011204,0.022826,3.8671e-07,0.3,0.04,0
0.016045,0.0092479,0.025745,8.6676e-05,0.0077494,-6.3922e-05,0,0,0.046787,-0.019923,0,-0.0003324,0,0,0,0.025745,8.6517e-05,0.0077494,-0.14274,0.011194,0.022813,3.8596e-07,0.31,0.04,0
0.016513,0.0093174,0.025736,8.2125e-05,0.0077455,-0.00010338,0,0,0.046776,-0.019925,0,-0.0005376,0,0,0,0.025736,8.1709e-05,0.0077455,-0.23089,0.011188,0.02281,3.8567e-07,0.32,0.04,0
0.016981,0.0093789,0.025737,7.8043e-05,0.0077446,-0.00014073,0,0,0.046781,-0.019933,0,-0.00073178,0,0,0,0.025738,7.7271e-05,0.0077446,-0.31422,0.011187,0.022815,3.8581e-07,0.33,0.04,0
0.017449,0.0094329,0.025748,7.4323e-05,0.0077467,-0.00017615,0,0,0.046803,-0.019948,0,-0.00091599,0,0,0,0.025749,7.3114e-05,0.0077467,-0.39309,0.01119,0.022828,3.8638e-07,0.34,0.04,0
0.017917,0.0094795,0.025767,7.0869e-05,0.0077514,-0.00020981,0,0,0.046841,-0.019969,0,-0.001091,0,0,0,0.025769,6.9156e-05,0.0077514,-0.46778,0.011196,0.022849,3.8733e-07,0.35,0.04,0
0.018386,0.0095192,0.025794,6.7592e-05,0.0077586,-0.00024182,0,0,0.046893,-0.019997,0,-0.0012575,0,0,0,0.025797,6.5319e-05,0.0077586,-0.53848,0.011207,0.022877,3.8865e-07,0.36,0.04,0
0.018855,0.0095522,0.025829,6.4408e-05,0.0077682,-0.00027224,0,0,0.046959,-0.02003,0,-0.0014157,0,0,0,0.025832,6.1532e-05,0.0077682,-0.60532,0.011221,0.022911,3.9032e-07,0.37,0.04,0
0.019325,0.0095788,0.025872,6.124e-05,0.0077799,-0.00030113,0,0,0.047039,-0.020068,0,-0.0015658,0,0,0,0.025875,5.7727e-05,0.0077799,-0.66834,0.011238,0.022952,3.9234e-07,0.38,0.04,0
0.019796,0.0095995,0.025921,5.8017e-05,0.0077937,-0.00032847,0,0,0.047131,-0.020113,0,-0.001708,0,0,0,0.025925,5.3846e-05,0.0077937,-0.72752,0.011258,0.023,3.9467e-07,0.39,0.04,0
0.020267,0.0096144,0.025976,5.4672e-05,0.0078093,-0.00035424,0,0,0.047234,-0.020162,0,-0.0018421,0,0,0,0.025981,4.9832e-05,0.0078093,-0.7828,0.01128,0.023053,3.9731e-07,0.4,0.04,0
0.02074,0.009624,0.026038,5.1145e-05,0.0078267,-0.00037839,0,0,0.047349,-0.020216,0,-0.0019676,0,0,0,0.026043,4.5636e-05,0.0078267,-0.83404,0.011305,0.023111,4.0024e-07,0.41,0.04,0
0.021214,0.0096285,0.026105,4.7382e-05,0.0078457,-0.00040083,0,0,0.047474,-0.020276,0,-0.0020843,0,0,0,0.026111,4.1217e-05,0.0078457,-0.88108,0.011333,0.023175,4.0345e-07,0.42,0.04,0
0.02169,0.0096283,0.026177,4.3335e-05,0.0078662,-0.00042146,0,0,0.047609,-0.020339,0,-0.0021916,0,0,0,0.026184,3.654e-05,0.0078662,-0.9237,0.011362,0.023244,4.0691e-07,0.43,0.04,0
0.022167,0.0096237,0.026254,3.8965e-05,0.0078879,-0.00044017,0,0,0.047752,-0.020407,0,-0.0022889,0,0,0,0.026261,3.1577e-05,0.0078879,-0.96167,0.011394,0.023316,4.1062e-07,0.44,0.04,0
0.022645,0.0096151,0.026335,3.424e-05,0.0079108,-0.0004568,0,0,0.047903,-0.020479,0,-0.0023753,0,0,0,0.026343,2.6309e-05,0.0079108,-0.99472,0.011427,0.023393,4.1455e-07,0.45,0.04,0
0.023125,0.0096029,0.02642,2.9138e-05,0.0079347,-0.0004712,0,0,0.048062,-0.020554,0,-0.0024503,0,0,0,0.026428,2.0727e-05,0.0079347,-1.0226,0.011461,0.023474,4.1869e-07,0.46,0.04,0
0.023606,0.0095873,0.026508,2.3645e-05,0.0079595,-0.00048323,0,0,0.048226,-0.020633,0,-0.0025128,0,0,0,0.026517,1.4831e-05,0.0079595,-1.045,0.011497,0.023557,4.2301e-07,0.47,0.04,0
0.024089,0.0095688,0.026599,1.7758e-05,0.0079849,-0.00049271,0,0,0.048396,-0.020715,0,-0.0025621,0,0,0,0.026608,8.6286e-06,0.0079849,-1.0616,0.011534,0.023643,4.2748e-07,0.48,0.04,0
0.024574,0.0095478,0.026691,1.1487e-05,0.0080108,-0.00049949,0,0,0.048569,-0.020798,0,-0.0025973,0,0,0,0.026701,2.1396e-06,0.0080108,-1.0722,0.011571,0.02373,4.3209e-07,0.49,0.04,0
0.02506,0.0095246,0.026786,4.8517e-06,0.0080371,-0.0005034,0,0,0.048746,-0.020884,0,-0.0026177,0,0,0,0.026795,-4.6075e-06,0.0080371,-1.0765,0.011609,0.02382,4.3681e-07,0.5,0.04,0
0.025549,0.0094996,0.026881,-2.1171e-06,0.0080636,-0.00050431,0,0,0.048925,-0.020971,0,-0.0026224,0,0,0,0.02689,-1.1575e-05,0.0080636,-1.0743,0.011647,0.02391,4.416e-07,0.51,0.04,0
0.026039,0.0094731,0.026976,-9.3757e-06,0.00809,-0.00050209,0,0,0.049104,-0.021058,0,-0.0026109,0,0,0,0.026985,-1.8714e-05,0.00809,-1.0655,0.011685,0.024,4.4643e-07,0.52,0.04,0
0.026531,0.0094457,0.027071,-1.6869e-05,0.0081162,-0.00049662,0,0,0.049282,-0.021146,0,-0.0025824,0,0,0,0.02708,-2.5971e-05,0.0081162,-1.05,0.011723,0.02409,4.5128e-07,0.53,0.04,0
0.027025,0.0094176,0.027165,-2.4531e-05,0.0081421,-0.00048783,0,0,0.049459,-0.021233,0,-0.0025367,0,0,0,0.027173,-3.3281e-05,0.0081421,-1.0276,0.011761,0.024179,4.5609e-07,0.54,0.04,0
0.02752,0.0093893,0.027257,-3.2286e-05,0.0081674,-0.00047567,0,0,0.049633,-0.021319,0,-0.0024735,0,0,0,0.027265,-4.0575e-05,0.0081674,-0.99831,0.011797,0.024266,4.6085e-07,0.55,0.04,0
0.028017,0.0093611,0.027346,-4.0049e-05,0.0081919,-0.00046011,0,0,0.049802,-0.021403,0,-0.0023926,0,0,0,0.027354,-4.7778e-05,0.0081919,-0.96226,0.011833,0.024351,4.6551e-07,0.56,0.04,0
0.028516,0.0093334,0.027433,-4.7729e-05,0.0082155,-0.00044119,0,0,0.049965,-0.021484,0,-0.0022942,0,0,0,0.02744,-5.481e-05,0.0082155,-0.91955,0.011867,0.024433,4.7002e-07,0.57,0.04,0
0.029017,0.0093066,0.027515,-5.5225e-05,0.008238,-0.00041896,0,0,0.050121,-0.021562,0,-0.0021786,0,0,0,0.027522,-6.159e-05,0.008238,-0.87039,0.011899,0.024511,4.7436e-07,0.58,0.04,0
0.029519,0.0092809,0.027593,-6.2438e-05,0.0082593,-0.00039352,0,0,0.050269,-0.021636,0,-0.0020463,0,0,0,0.027599,-6.8037e-05,0.0082593,-0.81505,0.01193,0.024585,4.7849e-07,0.59,0.04,0
0.030022,0.0092568,0.027666,-6.9264e-05,0.0082791,-0.00036503,0,0,0.050407,-0.021706,0,-0.0018981,0,0,0,0.027671,-7.4067e-05,0.0082791,-0.75389,0.011959,0.024654,4.8236e-07,0.6,0.04,0
0.030527,0.0092344,0.027734,-7.56e-05,0.0082974,-0.00033367,0,0,0.050534,-0.02177,0,-0.0017351,0,0,0,0.027738,-7.9603e-05,0.0082974,-0.68734,0.011985,0.024717,4.8594e-07,0.61,0.04,0
0.031033,0.0092142,0.027794,-8.1346e-05,0.008314,-0.0002997,0,0,0.05065,-0.021828,0,-0.0015584,0,0,0,0.027798,-8.4568e-05,0.008314,-0.6159,0.012009,0.024775,4.892e-07,0.62,0.04,0
0.03154,0.0091963,0.027849,-8.641e-05,0.0083287,-0.00026337,0,0,0.050752,-0.021879,0,-0.0013695,0,0,0,0.027851,-8.8893e-05,0.0083287,-0.54011,0.01203,0.024826,4.9211e-07,0.63,0.04,0
0.032048,0.0091809,0.027896,-9.0704e-05,0.0083415,-0.00022501,0,0,0.050841,-0.021924,0,-0.00117,0,0,0,0.027898,-9.2513e-05,0.0083415,-0.46062,0.012049,0.02487,4.9463e-07,0.64,0.04,0
0.032557,0.0091684,0.027935,-9.4153e-05,0.0083523,-0.00018497,0,0,0.050916,-0.021961,0,-0.00096184,0,0,0,0.027936,-9.5373e-05,0.0083523,-0.37808,0.012065,0.024907,4.9675e-07,0.65,0.04,0
0.033066,0.0091587,0.027967,-9.6691e-05,0.008361,-0.00014363,0,0,0.050975,-0.02199,0,-0.00074688,0,0,0,0.027967,-9.7427e-05,0.008361,-0.29323,0.012077,0.024936,4.9845e-07,0.66,0.04,0
0.033576,0.0091521,0.02799,-9.8269e-05,0.0083676,-0.0001014,0,0,0.051019,-0.022011,0,-0.00052726,0,0,0,0.027991,-9.8635e-05,0.0083676,-0.20683,0.012087,0.024957,4.9971e-07,0.67,0.04,0
0.034086,0.0091486,0.028005,-9.885e-05,0.008372,-5.8691e-05,0,0,0.051047,-0.022024,0,-0.00030519,0,0,0,0.028006,-9.8973e-05,0.008372,-0.11965,0.012093,0.024971,5.0052e-07,0.68,0.04,0
0.034597,0.0091483,0.028012,-9.8413e-05,0.0083742,-1.5953e-05,0,0,0.051059,-0.022029,0,-8.2953e-05,0,0,0,0.028012,-9.8422e-05,0.0083742,-0.032514,0.012096,0.024977,5.0087e-07,0.69,0.04,0
0.035108,0.0091511,0.028011,-9.6954e-05,0.0083742,2.6378e-05,0,0,0.051056,-0.022025,0,0.00013717,0,0,0,0.028011,-9.6979e-05,0.0083742,0.05377,0.012096,0.024974,5.0078e-07,0.7,0.04,0
0.035618,0.0091572,0.028002,-9.4486e-05,0.0083722,6.7862e-05,0,0,0.051037,-0.022013,0,0.00035288,0,0,0,0.028002,-9.465e-05,0.0083722,0.13839,0.012093,0.024964,5.0024e-07,0.71,0.04,0
0.036128,0.0091664,0.027984,-9.1036e-05,0.008368,0.00010807,0,0,0.051002,-0.021993,0,0.00056195,0,0,0,0.027985,-9.1452e-05,0.008368,0.22054,0.012087,0.024946,4.9926e-07,0.72,0.04,0
0.036638,0.0091786,0.027959,-8.6647e-05,0.0083618,0.00014658,0,0,0.050953,-0.021966,0,0.00076221,0,0,0,0.02796,-8.7414e-05,0.0083618,0.29944,0.012078,0.024921,4.9787e-07,0.73,0.04,0
0.037147,0.0091938,0.027927,-8.1379e-05,0.0083537,0.000183,0,0,0.050891,-0.021931,0,0.00095161,0,0,0,0.027928,-8.2575e-05,0.0083537,0.37434,0.012066,0.024889,4.9607e-07,0.74,0.04,0
0.037656,0.0092116,0.027888,-7.5301e-05,0.0083438,0.00021697,0,0,0.050815,-0.021889,0,0.0011283,0,0,0,0.02789,-7.6985e-05,0.0083438,0.44454,0.012052,0.02485,4.9391e-07,0.75,0.04,0
0.038164,0.0092321,0.027842,-6.8496e-05,0.0083321,0.00024816,0,0,0.050727,-0.021842,0,0.0012904,0,0,0,0.027845,-7.0702e-05,0.0083321,0.50937,0.012035,0.024805,4.9141e-07,0.76,0.04,0
0.03867,0.0092548,0.027791,-6.1054e-05,0.008319,0.00027626,0,0,0.050627,-0.021788,0,0.0014365,0,0,0,0.027794,-6.3794e-05,0.008319,0.56823,0.012016,0.024755,4.8861e-07,0.77,0.04,0
0.039176,0.0092797,0.027735,-5.3075e-05,0.0083045,0.00030102,0,0,0.050519,-0.02173,0,0.0015653,0,0,0,0.027738,-5.6335e-05,0.0083045,0.62058,0.011995,0.024699,4.8553e-07,0.78,0.04,0
0.039681,0.0093064,0.027674,-4.4661e-05,0.0082887,0.00032224,0,0,0.050401,-0.021667,0,0.0016756,0,0,0,0.027678,-4.8407e-05,0.0082887,0.66597,0.011973,0.024639,4.8222e-07,0.79,0.04,0
0.040184,0.0093347,0.027609,-3.5919e-05,0.008272,0.00033974,0,0,0.050277,-0.021601,0,0.0017667,0,0,0,0.027613,-4.0094e-05,0.008272,0.70399,0.011948,0.024575,4.7872e-07,0.8,0.04,0
0.040686,0.0093642,0.027542,-2.6956e-05,0.0082544,0.00035341,0,0,0.050146,-0.021531,0,0.0018377,0,0,0,0.027546,-3.1486e-05,0.0082544,0.73433,0.011923,0.024509,4.7507e-07,0.81,0.04,0
0.041187,0.0093947,0.027471,-1.7878e-05,0.0082361,0.00036317,0,0,0.050012,-0.02146,0,0.0018885,0,0,0,0.027476,-2.2675e-05,0.0082361,0.75677,0.011897,0.02444,4.7131e-07,0.82,0.04,0
0.041687,0.0094258,0.0274,-8.7868e-06,0.0082174,0.00036899,0,0,0.049875,-0.021388,0,0.0019187,0,0,0,0.027405,-1.3753e-05,0.0082174,0.77115,0.01187,0.024369,4.6749e-07,0.83,0.04,0
0.042185,0.0094573,0.027328,2.2008e-07,0.0081984,0.00037088,0,0,0.049737,-0.021315,0,0.0019286,0,0,0,0.027333,-4.8126e-06,0.0081984,0.77742,0.011842,0.024298,4.6365e-07,0.84,0.04,0
0.042681,0.0094888,0.027256,9.0512e-06,0.0081794,0.00036891,0,0,0.049598,-0.021243,0,0.0019184,0,0,0,0.027261,4.0571e-06,0.0081794,0.77558,0.011815,0.024227,4.5982e-07,0.85,0.04,0
0.043177,0.00952,0.027184,1.7622e-05,0.0081606,0.00036317,0,0,0.049462,-0.021172,0,0.0018885,0,0,0,0.027189,1.2768e-05,0.0081606,0.76575,0.011787,0.024156,4.5605e-07,0.86,0.04,0
0.043671,0.0095506,0.027114,2.5857e-05,0.008142,0.00035377,0,0,0.049328,-0.021102,0,0.0018396,0,0,0,0.027119,2.1238e-05,0.008142,0.74811,0.011761,0.024087,4.5238e-07,0.87,0.04,0
0.044163,0.0095802,0.027047,3.3688e-05,0.0081241,0.00034089,0,0,0.049198,-0.021035,0,0.0017726,0,0,0,0.027051,2.9387e-05,0.0081241,0.72289,0.011735,0.02402,4.4883e-07,0.88,0.04,0
0.044655,0.0096087,0.026982,4.1056e-05,0.0081068,0.00032471,0,0,0.049074,-0.020971,0,0.0016885,0,0,0,0.026985,3.7143e-05,0.0081068,0.69043,0.01171,0.023956,4.4545e-07,0.89,0.04,0
0.045145,0.0096357,0.02692,4.791e-05,0.0080904,0.00030543,0,0,0.048957,-0.02091,0,0.0015882,0,0,0,0.026924,4.4439e-05,0.0080904,0.65111,0.011686,0.023895,4.4226e-07,0.9,0.04,0
0.045634,0.0096609,0.026863,5.4207e-05,0.0080751,0.00028329,0,0,0.048848,-0.020854,0,0.0014731,0,0,0,0.026866,5.1214e-05,0.0080751,0.60538,0.011664,0.023838,4.3929e-07,0.91,0.04,0
0.046122,0.0096842,0.02681,5.9912e-05,0.0080609,0.00025855,0,0,0.048747,-0.020803,0,0.0013445,0,0,0,0.026812,5.7413e-05,0.0080609,0.55372,0.011643,0.023785,4.3657e-07,0.92,0.04,0
0.046609,0.0097052,0.026762,6.4996e-05,0.0080481,0.00023146,0,0,0.048656,-0.020756,0,0.0012036,0,0,0,0.026764,6.299e-05,0.0080481,0.49669,0.011625,0.023738,4.3411e-07,0.93,0.04,0
0.047095,0.0097239,0.02672,6.9438e-05,0.0080367,0.00020229,0,0,0.048576,-0.020715,0,0.0010519,0,0,0,0.026721,6.7902e-05,0.0080367,0.43488,0.011609,0.023696,4.3194e-07,0.94,0.04,0
0.04758,0.00974,0.026683,7.3219e-05,0.0080269,0.00017134,0,0,0.048506,-0.02068,0,0.00089095,0,0,0,0.026684,7.2116e-05,0.0080269,0.3689,0.011594,0.02366,4.3008e-07,0.95,0.04,0
0.048065,0.0097533,0.026653,7.6327e-05,0.0080188,0.00013888,0,0,0.048449,-0.02065,0,0.00072218,0,0,0,0.026654,7.5601e-05,0.0080188,0.2994,0.011583,0.02363,4.2854e-07,0.96,0.04,0
0.048549,0.0097639,0.026629,7.8752e-05,0.0080124,0.00010522,0,0,0.048404,-0.020627,0,0.00054714,0,0,0,0.02663,7.8335e-05,0.0080124,0.22706,0.011573,0.023606,4.2733e-07,0.97,0.04,0
0.049033,0.0097715,0.026612,8.0489e-05,0.0080077,7.0651e-05,0,0,0.048371,-0.020611,0,0.00036739,0,0,0,0.026612,8.0301e-05,0.0080077,0.15257,0.011567,0.023589,4.2646e-07,0.98,0.04,0
0.049517,0.0097761,0.026602,8.1532e-05,0.0080049,3.5477e-05,0,0,0.048351,-0.020601,0,0.00018448,0,0,0,0.026602,8.1485e-05,0.0080049,0.076647,0.011563,0.023579,4.2593e-07,0.99,0.04,0
0.05,0.0097776,0.026598,8.1881e-05,0.008004,2.9476e-05,0,0,0.048345,-0.020598,0,0.00015328,0,0,0,0.026598,8.1848e-05,0.008004,0.063692,0.011561,0.023576,4.2576e-07,1,0.04,0
0,0,0.033088,0.014181,0.014181,0.0098981,0,0,0.049159,6.5052e-19,0,0.05147,0,0,0,0.037321,0.0099468,0.014181,23.158,0.020483,0.025523,7.7527e-07,0,0.05,0
0.00049159,0.0005147,0.032926,0.012176,0.013531,0.0097764,0,0,0.050429,-0.0035223,0,0.050837,0,0,0,0.036807,0.0082956,0.013531,21.649,0.019544,0.026288,8.0967e-07,0.01,0.05,0
0.0010086,0.0010618,0.033375,0.0099807,0.013007,0.0096567,0,0,0.052958,-0.007868,0,0.050215,0,0,0,0.036846,0.0065097,0.013007,19.771,0.018788,0.027666,8.8872e-07,0.02,0.05,0
0.0015508,0.0016205,0.033671,0.0078183,0.012447,0.0090763,0,0,0.055183,-0.012034,0,0.047197,0,0,0,0.036539,0.0049501,0.012447,17.537,0.017979,0.028588,9.2752e-07,0.03,0.05,0
0.0021122,0.0021715,0.033724,0.006004,0.011918,0.0081959,0,0,0.056694,-0.015377,0,0.042619,0,0,0,0.035966,0.0037621,0.011918,15.299,0.017215,0.028999,9.2646e-07,0.04,0.05,0
0.0026846,0.0027016,0.033518,0.0046076,0.011438,0.0072071,0,0,0.057408,-0.017758,0,0.037477,0,0,0,0.035215,0.0029106,0.011438,13.25,0.016521,0.028997,8.9677e-07,0.05,0.05,0
0.0032604,0.0032038,0.033109,0.0035705,0.011004,0.006248,0,0,0.057473,-0.019327,0,0.03249,0,0,0,0.034376,0.0023033,0.011004,11.465,0.015894,0.028728,8.5177e-07,0.06,0.05,0
0.0038341,0.003676,0.032576,0.0028023,0.010613,0.0053835,0,0,0.057103,-0.020309,0,0.027994,0,0,0,0.03352,0.0018588,0.010613,9.9408,0.015331,0.028317,8.0143e-07,0.07,0.05,0
0.0044024,0.0041183,0.031989,0.0022301,0.010266,0.0046323,0,0,0.056481,-0.020893,0,0.024088,0,0,0,0.032694,0.0015257,0.010266,8.6463,0.014828,0.027846,7.5182e-07,0.08,0.05,0
0.0049637,0.0045319,0.031395,0.0017993,0.0099584,0.00399,0,0,0.055736,-0.021214,0,0.020748,0,0,0,0.031924,0.0012708,0.0099584,7.545,0.014384,0.027364,7.0583e-07,0.09,0.05,0
0.0055172,0.0049186,0.030822,0.0014706,0.0096877,0.003444,0,0,0.054948,-0.021364,0,0.017909,0,0,0,0.03122,0.0010719,0.0096877,6.6034,0.013993,0.026896,6.6454e-07,0.1,0.05,0
0.0060627,0.0052803,0.030283,0.0012166,0.0094499,0.0029797,0,0,0.054166,-0.021407,0,0.015494,0,0,0,0.030585,0.00091426,0.0094499,5.7933,0.01365,0.026457,6.2809e-07,0.11,0.05,0
0.0066005,0.0056185,0.029786,0.0010176,0.0092409,0.0025838,0,0,0.053416,-0.021381,0,0.013436,0,0,0,0.030016,0.00078735,0.0092409,5.0917,0.013348,0.026051,5.9619e-07,0.12,0.05,0
0.007131,0.005935,0.029331,0.00085974,0.0090573,0.0022446,0,0,0.052712,-0.021314,0,0.011672,0,0,0,0.029507,0.00068388,0.0090573,4.48,0.013083,0.025682,5.6839e-07,0.13,0.05,0
0.0076547,0.0062312,0.028919,0.00073311,0.0088957,0.0019523,0,0,0.052061,-0.021223,0,0.010152,0,0,0,0.029054,0.00059853,0.0088957,3.9435,0.012849,0.025347,5.4419e-07,0.14,0.05,0
0.0081722,0.0065083,0.028547,0.00063044,0.0087533,0.0016991,0,0,0.051464,-0.021119,0,0.0088355,0,0,0,0.02865,0.0005274,0.0087533,3.4702,0.012644,0.025045,5.2314e-07,0.15,0.05,0
0.008684,0.0067675,0.028213,0.00054637,0.0086278,0.0014785,0,0,0.050922,-0.021012,0,0.0076882,0,0,0,0.028292,0.00046759,0.0086278,3.0503,0.012462,0.024773,5.0482e-07,0.16,0.05,0
0.0091907,0.00701,0.027913,0.00047697,0.0085171,0.0012852,0,0,0.05043,-0.020904,0,0.0066828,0,0,0,0.027973,0.0004169,0.0085171,2.676,0.012302,0.024531,4.8886e-07,0.17,0.05,0
0.0096926,0.0072366,0.027645,0.00041922,0.0084194,0.0011148,0,0,0.049988,-0.0208,0,0.0057967,0,0,0,0.027691,0.00037365,0.0084194,2.3407,0.012161,0.024314,4.7495e-07,0.18,0.05,0
0.01019,0.0074483,0.027407,0.00037084,0.0083332,0.00096376,0,0,0.049591,-0.020702,0,0.0050115,0,0,0,0.027441,0.00033653,0.0083332,2.039,0.012037,0.024122,4.6283e-07,0.19,0.05,0
0.010684,0.0076457,0.027194,0.00033008,0.0082573,0.00082924,0,0,0.049236,-0.020611,0,0.004312,0,0,0,0.02722,0.00030451,0.0082573,1.7664,0.011927,0.02395,4.5228e-07,0.2,0.05,0
0.011175,0.0078296,0.027006,0.00029557,0.0081905,0.00070877,0,0,0.048921,-0.020527,0,0.0036856,0,0,0,0.027025,0.00027677,0.0081905,1.5189,0.011831,0.023799,4.431e-07,0.21,0.05,0
0.011663,0.0080006,0.02684,0.00026621,0.0081319,0.00060032,0,0,0.048641,-0.020451,0,0.0031217,0,0,0,0.026854,0.00025265,0.0081319,1.2935,0.011746,0.023667,4.3513e-07,0.22,0.05,0
0.012148,0.0081594,0.026694,0.00024114,0.0080807,0.0005022,0,0,0.048396,-0.020383,0,0.0026115,0,0,0,0.026704,0.00023161,0.0080807,1.0872,0.011672,0.02355,4.2824e-07,0.23,0.05,0
0.012631,0.0083065,0.026567,0.00021967,0.0080361,0.00041298,0,0,0.048181,-0.020323,0,0.0021475,0,0,0,0.026574,0.0002132,0.0080361,0.89777,0.011608,0.023449,4.2231e-07,0.24,0.05,0
0.013112,0.0084424,0.026457,0.00020122,0.0079976,0.00033143,0,0,0.047996,-0.020271,0,0.0017234,0,0,0,0.026462,0.00019703,0.0079976,0.72309,0.011552,0.023362,4.1724e-07,0.25,0.05,0
0.013591,0.0085676,0.026363,0.00018532,0.0079645,0.00025653,0,0,0.047836,-0.020226,0,0.001334,0,0,0,0.026366,0.00018281,0.0079645,0.56141,0.011504,0.023288,4.1295e-07,0.26,0.05,0
0.014068,0.0086825,0.026283,0.00017159,0.0079365,0.00018741,0,0,0.047702,-0.020189,0,0.00097454,0,0,0,0.026285,0.00017024,0.0079365,0.4112,0.011464,0.023227,4.0937e-07,0.27,0.05,0
0.014545,0.0087876,0.026217,0.00015968,0.0079131,0.00012332,0,0,0.047591,-0.020159,0,0.00064127,0,0,0,0.026218,0.0001591,0.0079131,0.27115,0.01143,0.023176,4.0643e-07,0.28,0.05,0
0.01502,0.0088832,0.026163,0.00014933,0.0078939,6.3624e-05,0,0,0.047501,-0.020136,0,0.00033085,0,0,0,0.026164,0.00014917,0.0078939,0.14013,0.011402,0.023136,4.0408e-07,0.29,0.05,0
0.015495,0.0089698,0.026121,0.00014027,0.0078785,7.7857e-06,0,0,0.047432,-0.020119,0,4.0485e-05,0,0,0,0.026121,0.00014027,0.0078785,0.01717,0.01138,0.023105,4.0227e-07,0.3,0.05,0
0.015969,0.0090476,0.02609,0.00013229,0.0078668,-4.4649e-05,0,0,0.047381,-0.02011,0,-0.00023218,0,0,0,0.02609,0.00013222,0.0078668,-0.098552,0.011363,0.023084,4.0097e-07,0.31,0.05,0
0.016442,0.0091171,0.02607,0.00012521,0.0078584,-9.4059e-05,0,0,0.047349,-0.020106,0,-0.00048911,0,0,0,0.02607,0.00012487,0.0078584,-0.20772,0.011351,0.023072,4.0015e-07,0.32,0.05,0
0.016916,0.0091786,0.026058,0.00011885,0.0078531,-0.00014076,0,0,0.047333,-0.020109,0,-0.00073193,0,0,0,0.026059,0.00011808,0.0078531,-0.31089,0.011343,0.023068,3.9976e-07,0.33,0.05,0
0.017389,0.0092325,0.026056,0.00011304,0.0078507,-0.00018499,0,0,0.047334,-0.020118,0,-0.00096195,0,0,0,0.026057,0.00011172,0.0078507,-0.40853,0.01134,0.023071,3.9979e-07,0.34,0.05,0
0.017862,0.0092789,0.026062,0.00010765,0.007851,-0.00022696,0,0,0.04735,-0.020133,0,-0.0011802,0,0,0,0.026064,0.00010567,0.007851,-0.50096,0.01134,0.023082,4.0021e-07,0.35,0.05,0
0.018336,0.0093183,0.026077,0.00010255,0.0078538,-0.0002668,0,0,0.047379,-0.020153,0,-0.0013874,0,0,0,0.026079,9.9807e-05,0.0078538,-0.58845,0.011344,0.0231,4.01e-07,0.36,0.05,0
0.01881,0.0093511,0.026099,9.7599e-05,0.0078588,-0.00030462,0,0,0.047423,-0.020179,0,-0.0015841,0,0,0,0.026102,9.4031e-05,0.0078588,-0.67115,0.011352,0.023125,4.0215e-07,0.37,0.05,0
0.019284,0.0093774,0.026128,9.2694e-05,0.0078661,-0.00034048,0,0,0.04748,-0.020211,0,-0.0017705,0,0,0,0.026132,8.8242e-05,0.0078661,-0.74913,0.011362,0.023156,4.0363e-07,0.38,0.05,0
0.01976,0.0093976,0.026163,8.7724e-05,0.0078753,-0.00037437,0,0,0.047549,-0.020248,0,-0.0019467,0,0,0,0.026169,8.235e-05,0.0078753,-0.82239,0.011375,0.023193,4.0543e-07,0.39,0.05,0
0.020236,0.0094121,0.026205,8.2592e-05,0.0078863,-0.00040629,0,0,0.047629,-0.02029,0,-0.0021127,0,0,0,0.026211,7.6274e-05,0.0078863,-0.89085,0.011391,0.023236,4.0753e-07,0.4,0.05,0
0.020712,0.0094211,0.026253,7.7207e-05,0.0078991,-0.00043618,0,0,0.04772,-0.020337,0,-0.0022681,0,0,0,0.02626,6.9941e-05,0.0078991,-0.95438,0.01141,0.023285,4.0992e-07,0.41,0.05,0
0.02119,0.0094251,0.026306,7.1489e-05,0.0079134,-0.00046394,0,0,0.047822,-0.020389,0,-0.0024125,0,0,0,0.026315,6.3288e-05,0.0079134,-1.0128,0.01143,0.023338,4.1259e-07,0.42,0.05,0
0.021669,0.0094243,0.026365,6.5368e-05,0.0079291,-0.00048946,0,0,0.047933,-0.020446,0,-0.0025452,0,0,0,0.026374,5.6262e-05,0.0079291,-1.0658,0.011453,0.023397,4.1551e-07,0.43,0.05,0
0.022149,0.0094191,0.026428,5.8784e-05,0.007946,-0.0005126,0,0,0.048053,-0.020507,0,-0.0026655,0,0,0,0.026438,4.8823e-05,0.007946,-1.1132,0.011478,0.02346,4.1866e-07,0.44,0.05,0
0.02263,0.0094098,0.026495,5.1689e-05,0.0079641,-0.00053321,0,0,0.048181,-0.020572,0,-0.0027727,0,0,0,0.026506,4.0942e-05,0.0079641,-1.1547,0.011504,0.023526,4.2204e-07,0.45,0.05,0
0.023112,0.0093969,0.026566,4.405e-05,0.0079831,-0.00055111,0,0,0.048316,-0.020641,0,-0.0028658,0,0,0,0.026578,3.2604e-05,0.0079831,-1.1899,0.011531,0.023597,4.2562e-07,0.46,0.05,0
0.023596,0.0093806,0.02664,3.5847e-05,0.0080029,-0.00056611,0,0,0.048458,-0.020714,0,-0.0029438,0,0,0,0.026652,2.3806e-05,0.0080029,-1.2185,0.01156,0.02367,4.2938e-07,0.47,0.05,0
0.024081,0.0093613,0.026717,2.7076e-05,0.0080233,-0.00057805,0,0,0.048605,-0.02079,0,-0.0030058,0,0,0,0.02673,1.4562e-05,0.0080233,-1.2401,0.011589,0.023746,4.333e-07,0.48,0.05,0
0.024568,0.0093394,0.026797,1.7747e-05,0.0080443,-0.00058671,0,0,0.048756,-0.020869,0,-0.0030509,0,0,0,0.026809,4.8992e-06,0.0080443,-1.2545,0.011619,0.023825,4.3735e-07,0.49,0.05,0
0.025056,0.0093154,0.026877,7.8916e-06,0.0080656,-0.00059193,0,0,0.048911,-0.02095,0,-0.003078,0,0,0,0.026891,-5.1419e-06,0.0080656,-1.2614,0.01165,0.023905,4.415e-07,0.5,0.05,0
0.025546,0.0092895,0.026959,-2.4459e-06,0.0080871,-0.00059353,0,0,0.049068,-0.021033,0,-0.0030864,0,0,0,0.026972,-1.5505e-05,0.0080871,-1.2605,0.011681,0.023986,4.4574e-07,0.51,0.05,0
0.026038,0.0092623,0.027042,-1.3202e-05,0.0081086,-0.00059137,0,0,0.049227,-0.021117,0,-0.0030751,0,0,0,0.027055,-2.6122e-05,0.0081086,-1.2516,0.011712,0.024068,4.5002e-07,0.52,0.05,0
0.026531,0.009234,0.027124,-2.4296e-05,0.00813,-0.00058533,0,0,0.049385,-0.021201,0,-0.0030437,0,0,0,0.027137,-3.691e-05,0.00813,-1.2345,0.011743,0.024149,4.5432e-07,0.53,0.05,0
0.027026,0.0092051,0.027206,-3.5631e-05,0.0081511,-0.0005753,0,0,0.049543,-0.021285,0,-0.0029915,0,0,0,0.027218,-4.7775e-05,0.0081511,-1.2093,0.011774,0.02423,4.586e-07,0.54,0.05,0
0.027522,0.0091759,0.027286,-4.7098e-05,0.0081718,-0.00056123,0,0,0.049698,-0.021369,0,-0.0029184,0,0,0,0.027298,-5.8616e-05,0.0081718,-1.1758,0.011804,0.02431,4.6284e-07,0.55,0.05,0
0.028019,0.0091469,0.027365,-5.857e-05,0.0081918,-0.00054311,0,0,0.049849,-0.021451,0,-0.0028242,0,0,0,0.027375,-6.9322e-05,0.0081918,-1.1341,0.011833,0.024387,4.6698e-07,0.56,0.05,0
0.028519,0.0091184,0.02744,-6.9913e-05,0.0082111,-0.00052095,0,0,0.049996,-0.021531,0,-0.002709,0,0,0,0.02745,-7.9775e-05,0.0082111,-1.0845,0.01186,0.024462,4.7101e-07,0.57,0.05,0
0.029019,0.0090908,0.027513,-8.0983e-05,0.0082295,-0.00049485,0,0,0.050136,-0.021607,0,-0.0025732,0,0,0,0.027522,-8.9855e-05,0.0082295,-1.0271,0.011887,0.024533,4.7488e-07,0.58,0.05,0
0.029521,0.0090644,0.027581,-9.1631e-05,0.0082469,-0.00046491,0,0,0.050269,-0.02168,0,-0.0024175,0,0,0,0.027589,-9.9439e-05,0.0082469,-0.96222,0.011912,0.024601,4.7855e-07,0.59,0.05,0
0.030025,0.0090396,0.027645,-0.00010171,0.0082631,-0.00043132,0,0,0.050394,-0.021749,0,-0.0022429,0,0,0,0.027652,-0.00010841,0.0082631,-0.89036,0.011936,0.024664,4.82e-07,0.6,0.05,0
0.030529,0.0090166,0.027705,-0.00011105,0.0082781,-0.00039432,0,0,0.050509,-0.021812,0,-0.0020504,0,0,0,0.02771,-0.00011664,0.0082781,-0.81201,0.011957,0.024723,4.8519e-07,0.61,0.05,0
0.031035,0.0089958,0.027758,-0.00011953,0.0082916,-0.00035417,0,0,0.050613,-0.021869,0,-0.0018417,0,0,0,0.027763,-0.00012403,0.0082916,-0.72776,0.011977,0.024775,4.8809e-07,0.62,0.05,0
0.031542,0.0089773,0.027806,-0.000127,0.0083037,-0.00031122,0,0,0.050706,-0.02192,0,-0.0016184,0,0,0,0.027809,-0.00013047,0.0083037,-0.63827,0.011994,0.024822,4.9067e-07,0.63,0.05,0
0.032049,0.0089616,0.027847,-0.00013334,0.0083142,-0.00026585,0,0,0.050786,-0.021964,0,-0.0013824,0,0,0,0.02785,-0.00013587,0.0083142,-0.54431,0.012009,0.024862,4.9291e-07,0.64,0.05,0
0.032557,0.0089486,0.027882,-0.00013843,0.008323,-0.00021846,0,0,0.050853,-0.022,0,-0.001136,0,0,0,0.027883,-0.00014013,0.008323,-0.44666,0.012022,0.024895,4.9478e-07,0.65,0.05,0
0.033066,0.0089386,0.027909,-0.00014218,0.0083302,-0.00016951,0,0,0.050906,-0.022028,0,-0.00088145,0,0,0,0.02791,-0.00014321,0.0083302,-0.34621,0.012032,0.024922,4.9627e-07,0.66,0.05,0
0.033575,0.0089318,0.02793,-0.00014452,0.0083356,-0.00011949,0,0,0.050945,-0.022048,0,-0.00062134,0,0,0,0.02793,-0.00014502,0.0083356,-0.24385,0.01204,0.024941,4.9736e-07,0.67,0.05,0
0.034085,0.0089282,0.027943,-0.00014538,0.0083392,-6.89e-05,0,0,0.050969,-0.02206,0,-0.00035828,0,0,0,0.027943,-0.00014555,0.0083392,-0.14055,0.012046,0.024953,4.9805e-07,0.68,0.05,0
0.034595,0.0089278,0.027948,-0.00014475,0.0083411,-1.8261e-05,0,0,0.050979,-0.022063,0,-9.4958e-05,0,0,0,0.027948,-0.00014476,0.0083411,-0.037244,0.012048,0.024957,4.9832e-07,0.69,0.05,0
0.035105,0.0089308,0.027947,-0.00014261,0.0083412,3.1901e-05,0,0,0.050974,-0.022058,0,0.00016589,0,0,0,0.027947,-0.00014265,0.0083412,0.065072,0.012048,0.024953,4.9819e-07,0.7,0.05,0
0.035614,0.008937,0.027938,-0.00013898,0.0083395,8.1065e-05,0,0,0.050955,-0.022044,0,0.00042154,0,0,0,0.027938,-0.00013922,0.0083395,0.16543,0.012046,0.024943,4.9765e-07,0.71,0.05,0
0.036124,0.0089464,0.027921,-0.00013391,0.0083362,0.00012872,0,0,0.050921,-0.022022,0,0.00066932,0,0,0,0.027922,-0.00013451,0.0083362,0.26286,0.012041,0.024925,4.9672e-07,0.72,0.05,0
0.036633,0.0089589,0.027898,-0.00012746,0.0083312,0.00017436,0,0,0.050874,-0.021993,0,0.00090667,0,0,0,0.027899,-0.00012855,0.0083312,0.35644,0.012034,0.0249,4.954e-07,0.73,0.05,0
0.037141,0.0089744,0.027869,-0.00011972,0.0083247,0.00021753,0,0,0.050814,-0.021955,0,0.0011312,0,0,0,0.02787,-0.00012141,0.0083247,0.44527,0.012025,0.024869,4.9373e-07,0.74,0.05,0
0.037649,0.0089927,0.027833,-0.00011078,0.0083167,0.00025779,0,0,0.050742,-0.021911,0,0.0013405,0,0,0,0.027835,-0.00011316,0.0083167,0.52851,0.012013,0.024831,4.9172e-07,0.75,0.05,0
0.038156,0.0090136,0.027792,-0.00010077,0.0083073,0.00029474,0,0,0.050659,-0.021861,0,0.0015327,0,0,0,0.027795,-0.00010388,0.0083073,0.60536,0.011999,0.024788,4.894e-07,0.76,0.05,0
0.038662,0.0090369,0.027745,-8.9824e-05,0.0082966,0.00032804,0,0,0.050566,-0.021805,0,0.0017058,0,0,0,0.027749,-9.3689e-05,0.0082966,0.67512,0.011984,0.024739,4.868e-07,0.77,0.05,0
0.039167,0.0090624,0.027694,-7.8085e-05,0.0082848,0.00035738,0,0,0.050464,-0.021743,0,0.0018584,0,0,0,0.027699,-8.2684e-05,0.0082848,0.73713,0.011967,0.024685,4.8396e-07,0.78,0.05,0
0.039671,0.0090897,0.027639,-6.5708e-05,0.008272,0.00038251,0,0,0.050354,-0.021678,0,0.001989,0,0,0,0.027644,-7.0988e-05,0.008272,0.79086,0.011948,0.024628,4.809e-07,0.79,0.05,0
0.040174,0.0091187,0.027581,-5.2847e-05,0.0082583,0.00040323,0,0,0.050238,-0.021609,0,0.0020968,0,0,0,0.027586,-5.873e-05,0.0082583,0.83582,0.011929,0.024566,4.7767e-07,0.8,0.05,0
0.040676,0.0091489,0.02752,-3.966e-05,0.008244,0.0004194,0,0,0.050117,-0.021537,0,0.0021809,0,0,0,0.027526,-4.6041e-05,0.008244,0.87166,0.011908,0.024502,4.743e-07,0.81,0.05,0
0.041177,0.0091801,0.027456,-2.6303e-05,0.0082291,0.00043093,0,0,0.049991,-0.021464,0,0.0022408,0,0,0,0.027463,-3.3059e-05,0.0082291,0.89811,0.011886,0.024436,4.7083e-07,0.82,0.05,0
0.041676,0.009212,0.027392,-1.2927e-05,0.0082138,0.0004378,0,0,0.049864,-0.021389,0,0.0022766,0,0,0,0.027399,-1.9919e-05,0.0082138,0.91499,0.011864,0.024369,4.673e-07,0.83,0.05,0
0.042174,0.0092442,0.027327,3.2598e-07,0.0081983,0.00044001,0,0,0.049735,-0.021315,0,0.002288,0,0,0,0.027334,-6.7571e-06,0.0081983,0.92224,0.011842,0.024301,4.6375e-07,0.84,0.05,0
0.042671,0.0092764,0.027262,1.3321e-05,0.0081827,0.00043763,0,0,0.049607,-0.02124,0,0.0022757,0,0,0,0.027269,6.2937e-06,0.0081827,0.91988,0.011819,0.024232,4.6022e-07,0.85,0.05,0
0.043166,0.0093083,0.027198,2.5933e-05,0.0081672,0.00043078,0,0,0.04948,-0.021167,0,0.0022401,0,0,0,0.027205,1.9105e-05,0.0081672,0.90805,0.011797,0.024165,4.5673e-07,0.86,0.05,0
0.04366,0.0093396,0.027135,3.8051e-05,0.008152,0.00041961,0,0,0.049356,-0.021096,0,0.002182,0,0,0,0.027142,3.1555e-05,0.008152,0.88695,0.011775,0.024099,4.5334e-07,0.87,0.05,0
0.044153,0.0093699,0.027075,4.9575e-05,0.0081372,0.0004043,0,0,0.049237,-0.021028,0,0.0021023,0,0,0,0.027081,4.3528e-05,0.0081372,0.8569,0.011754,0.024035,4.5006e-07,0.88,0.05,0
0.044645,0.009399,0.027016,6.0418e-05,0.008123,0.00038508,0,0,0.049122,-0.020963,0,0.0020024,0,0,0,0.027022,5.4918e-05,0.008123,0.81828,0.011733,0.023974,4.4693e-07,0.89,0.05,0
0.045136,0.0094266,0.026961,7.0505e-05,0.0081095,0.0003622,0,0,0.049014,-0.020901,0,0.0018834,0,0,0,0.026966,6.5627e-05,0.0081095,0.77154,0.011714,0.023915,4.4398e-07,0.9,0.05,0
0.045625,0.0094524,0.02691,7.9773e-05,0.0080968,0.00033593,0,0,0.048913,-0.020844,0,0.0017468,0,0,0,0.026914,7.5567e-05,0.0080968,0.71723,0.011695,0.023861,4.4123e-07,0.91,0.05,0
0.046114,0.0094761,0.026862,8.8169e-05,0.0080852,0.00030657,0,0,0.048821,-0.020792,0,0.0015942,0,0,0,0.026866,8.4659e-05,0.0080852,0.65594,0.011679,0.023811,4.3871e-07,0.92,0.05,0
0.046602,0.0094977,0.02682,9.5653e-05,0.0080746,0.00027444,0,0,0.048737,-0.020745,0,0.0014271,0,0,0,0.026822,9.2834e-05,0.0080746,0.5883,0.011663,0.023766,4.3644e-07,0.93,0.05,0
0.047089,0.0095167,0.026782,0.00010219,0.0080652,0.00023985,0,0,0.048663,-0.020704,0,0.0012472,0,0,0,0.026784,0.00010003,0.0080652,0.51502,0.01165,0.023726,4.3443e-07,0.94,0.05,0
0.047575,0.0095332,0.026749,0.00010776,0.0080571,0.00020314,0,0,0.0486,-0.020668,0,0.0010563,0,0,0,0.026751,0.00010621,0.0080571,0.43684,0.011638,0.023692,4.3271e-07,0.95,0.05,0
0.048061,0.0095469,0.026722,0.00011233,0.0080504,0.00016465,0,0,0.048547,-0.020639,0,0.00085619,0,0,0,0.026723,0.00011131,0.0080504,0.35451,0.011628,0.023663,4.3128e-07,0.96,0.05,0
0.048546,0.0095576,0.026701,0.0001159,0.008045,0.00012474,0,0,0.048505,-0.020616,0,0.00064866,0,0,0,0.026701,0.00011532,0.008045,0.26883,0.011621,0.023641,4.3016e-07,0.97,0.05,0
0.049031,0.0095654,0.026686,0.00011846,0.0080412,8.3759e-05,0,0,0.048475,-0.020599,0,0.00043555,0,0,0,0.026686,0.00011819,0.0080412,0.18063,0.011615,0.023624,4.2935e-07,0.98,0.05,0
0.049515,0.0095701,0.026676,0.00011999,0.0080389,4.2059e-05,0,0,0.048457,-0.020589,0,0.00021871,0,0,0,0.026676,0.00011993,0.0080389,0.090742,0.011612,0.023615,4.2887e-07,0.99,0.05,0
0.05,0.0095716,0.026673,0.00012051,0.0080381,3.0114e-05,0,0,0.048451,-0.020586,0,0.00015659,0,0,0,0.026673,0.00012047,0.0080381,0.06498,0.011611,0.023612,4.2871e-07,1,0.05,0
0,0,0.031834,0.013643,0.013643,0.0093015,0,0,0.047297,1.0842e-18,0,0.048368,0,0,0,0.035748,0.0097293,0.013643,22.821,0.019707,0.0243,6.7292e-07,0,0.06,0
0.00047297,0.00048368,0.031716,0.012035,0.013126,0.0092335,0,0,0.048336,-0.0028342,0,0.048014,0,0,0,0.03537,0.0083817,0.013126,21.589,0.018959,0.024957,7.021e-07,0.01,0.06,0
0.00096672,0.00099262,0.032143,0.010316,0.012738,0.0092025,0,0,0.050454,-0.0062968,0,0.047853,0,0,0,0.035505,0.0069537,0.012738,20.069,0.018399,0.026144,7.6849e-07,0.02,0.06,0
0.001482,0.0015132,0.032481,0.0085274,0.012302,0.0088443,0,0,0.052464,-0.0098153,0,0.04599,0,0,0,0.035393,0.0056158,0.012302,18.222,0.01777,0.02706,8.1204e-07,0.03,0.06,0
0.002016,0.0020316,0.032661,0.0068949,0.011867,0.008226,0,0,0.054066,-0.012927,0,0.042775,0,0,0,0.035064,0.0044927,0.011867,16.279,0.017141,0.027632,8.2899e-07,0.04,0.06,0
0.0025634,0.0025367,0.032655,0.0055254,0.011454,0.0074613,0,0,0.055122,-0.015415,0,0.038798,0,0,0,0.034572,0.0036088,0.011454,14.406,0.016545,0.027881,8.2311e-07,0.05,0.06,0
0.0031185,0.0030213,0.032476,0.0044295,0.011072,0.0066537,0,0,0.055652,-0.01727,0,0.034599,0,0,0,0.033975,0.0029311,0.011072,12.691,0.015992,0.027879,8.0136e-07,0.06,0.06,0
0.0036764,0.0034815,0.032167,0.0035714,0.010721,0.0058733,0,0,0.055758,-0.01859,0,0.030541,0,0,0,0.033326,0.002412,0.010721,11.166,0.015487,0.02771,7.7061e-07,0.07,0.06,0
0.0042336,0.0039161,0.031773,0.0029034,0.010403,0.0051561,0,0,0.055563,-0.019499,0,0.026812,0,0,0,0.032667,0.0020101,0.010403,9.8282,0.015027,0.02744,7.3609e-07,0.08,0.06,0
0.0047877,0.004325,0.031337,0.0023825,0.010116,0.0045153,0,0,0.055176,-0.020107,0,0.02348,0,0,0,0.032025,0.0016947,0.010116,8.6609,0.014612,0.027119,7.012e-07,0.09,0.06,0
0.0053371,0.0047089,0.030888,0.001974,0.0098587,0.0039512,0,0,0.054677,-0.0205,0,0.020546,0,0,0,0.031419,0.0014438,0.0098587,7.6429,0.01424,0.026778,6.6783e-07,0.1,0.06,0
0.0058812,0.0050691,0.030445,0.001651,0.0096289,0.0034581,0,0,0.054123,-0.020743,0,0.017982,0,0,0,0.030855,0.0012415,0.0096289,6.7531,0.013908,0.026437,6.3694e-07,0.11,0.06,0
0.0064196,0.0054068,0.03002,0.0013933,0.0094241,0.0030282,0,0,0.05355,-0.02088,0,0.015747,0,0,0,0.030337,0.0010765,0.0094241,5.9727,0.013613,0.026108,6.0888e-07,0.12,0.06,0
0.0069522,0.0057233,0.02962,0.0011858,0.0092418,0.0026532,0,0,0.052984,-0.020945,0,0.013797,0,0,0,0.029865,0.00094039,0.0092418,5.2855,0.013349,0.025796,5.8368e-07,0.13,0.06,0
0.0074792,0.0060199,0.029248,0.0010173,0.0090796,0.0023254,0,0,0.052438,-0.020962,0,0.012092,0,0,0,0.029438,0.00082704,0.0090796,4.6776,0.013115,0.025507,5.6121e-07,0.14,0.06,0
0.0080009,0.0062976,0.028905,0.00087923,0.0089352,0.002038,0,0,0.051921,-0.020946,0,0.010597,0,0,0,0.029052,0.00073181,0.0089352,4.1375,0.012906,0.025239,5.4125e-07,0.15,0.06,0
0.0085177,0.0065577,0.028591,0.0007652,0.0088068,0.001785,0,0,0.051438,-0.020908,0,0.009282,0,0,0,0.028705,0.00065116,0.0088068,3.6555,0.012721,0.024994,5.2357e-07,0.16,0.06,0
0.0090297,0.0068009,0.028305,0.00067035,0.0086925,0.0015615,0,0,0.050992,-0.020858,0,0.0081195,0,0,0,0.028393,0.0005824,0.0086925,3.2238,0.012556,0.024772,5.0793e-07,0.17,0.06,0
0.0095375,0.0070284,0.028045,0.00059092,0.0085908,0.001363,0,0,0.050581,-0.0208,0,0.0070879,0,0,0,0.028113,0.00052341,0.0085908,2.8354,0.012409,0.02457,4.9412e-07,0.18,0.06,0
0.010041,0.0072408,0.027811,0.00052403,0.0085004,0.0011862,0,0,0.050207,-0.020738,0,0.0061683,0,0,0,0.027862,0.00047256,0.0085004,2.4845,0.012278,0.024387,4.8193e-07,0.19,0.06,0
0.010542,0.007439,0.027599,0.00046739,0.00842,0.0010279,0,0,0.049866,-0.020677,0,0.005345,0,0,0,0.027638,0.0004285,0.00842,2.1665,0.012162,0.024224,4.7118e-07,0.2,0.06,0
0.011039,0.0076237,0.02741,0.00041922,0.0083487,0.00088552,0,0,0.049559,-0.020617,0,0.0046047,0,0,0,0.027439,0.0003902,0.0083487,1.8771,0.012059,0.024077,4.6172e-07,0.21,0.06,0
0.011533,0.0077954,0.027241,0.00037809,0.0082856,0.00075691,0,0,0.049283,-0.02056,0,0.0039359,0,0,0,0.027262,0.00035678,0.0082856,1.6127,0.011968,0.023946,4.5342e-07,0.22,0.06,0
0.012024,0.0079548,0.02709,0.00034284,0.0082298,0.00064021,0,0,0.049036,-0.020506,0,0.0033291,0,0,0,0.027105,0.00032753,0.0082298,1.3704,0.011888,0.02383,4.4614e-07,0.23,0.06,0
0.012514,0.0081025,0.026957,0.00031255,0.0081807,0.00053385,0,0,0.048817,-0.020457,0,0.002776,0,0,0,0.026967,0.00030186,0.0081807,1.1474,0.011817,0.023728,4.398e-07,0.24,0.06,0
0.013001,0.0082389,0.026839,0.00028644,0.0081377,0.00043646,0,0,0.048624,-0.020413,0,0.0022696,0,0,0,0.026846,0.00027927,0.0081377,0.94146,0.011754,0.023639,4.3429e-07,0.25,0.06,0
0.013486,0.0083645,0.026737,0.00026387,0.0081002,0.0003469,0,0,0.048455,-0.020375,0,0.0018039,0,0,0,0.026741,0.00025933,0.0081002,0.75062,0.0117,0.023561,4.2955e-07,0.26,0.06,0
0.01397,0.0084797,0.026648,0.00024432,0.0080678,0.00026416,0,0,0.048309,-0.020341,0,0.0013736,0,0,0,0.026651,0.00024167,0.0080678,0.57315,0.011654,0.023495,4.2551e-07,0.27,0.06,0
0.014452,0.0085851,0.026573,0.00022732,0.00804,0.00018741,0,0,0.048185,-0.020313,0,0.00097451,0,0,0,0.026574,0.00022598,0.00804,0.40754,0.011613,0.023439,4.2209e-07,0.28,0.06,0
0.014934,0.008681,0.026509,0.00021248,0.0080165,0.0001159,0,0,0.048081,-0.02029,0,0.00060266,0,0,0,0.02651,0.00021197,0.0080165,0.25251,0.011579,0.023393,4.1926e-07,0.29,0.06,0
0.015414,0.0087677,0.026457,0.00019948,0.0079969,4.9014e-05,0,0,0.047996,-0.020273,0,0.00025488,0,0,0,0.026457,0.00019939,0.0079969,0.10695,0.011551,0.023356,4.1698e-07,0.3,0.06,0
0.015893,0.0088457,0.026415,0.000188,0.0079809,-1.3769e-05,0,0,0.047929,-0.020262,0,-7.1598e-05,0,0,0,0.026415,0.00018799,0.0079809,-0.03008,0.011528,0.023328,4.1519e-07,0.31,0.06,0
0.016372,0.0089153,0.026383,0.00017778,0.0079683,-7.2896e-05,0,0,0.047879,-0.020255,0,-0.00037906,0,0,0,0.026383,0.00017758,0.0079683,-0.15938,0.01151,0.023308,4.1388e-07,0.32,0.06,0
0.016851,0.0089768,0.026361,0.00016858,0.0079588,-0.00012873,0,0,0.047845,-0.020254,0,-0.00066942,0,0,0,0.026361,0.00016795,0.0079588,-0.2816,0.011496,0.023296,4.13e-07,0.33,0.06,0
0.017329,0.0090305,0.026347,0.00016018,0.0079521,-0.00018158,0,0,0.047826,-0.020259,0,-0.00094423,0,0,0,0.026348,0.00015893,0.0079521,-0.39727,0.011486,0.023292,4.1253e-07,0.34,0.06,0
0.017808,0.0090768,0.026341,0.00015239,0.0079481,-0.00023168,0,0,0.047822,-0.020269,0,-0.0012047,0,0,0,0.026343,0.00015034,0.0079481,-0.50681,0.011481,0.023294,4.1246e-07,0.35,0.06,0
0.018286,0.0091161,0.026344,0.00014501,0.0079466,-0.00027919,0,0,0.047832,-0.020284,0,-0.0014518,0,0,0,0.026347,0.00014204,0.0079466,-0.61049,0.011478,0.023304,4.1275e-07,0.36,0.06,0
0.018764,0.0091486,0.026353,0.00013788,0.0079474,-0.00032425,0,0,0.047856,-0.020305,0,-0.0016861,0,0,0,0.026357,0.00013387,0.0079474,-0.70853,0.01148,0.02332,4.134e-07,0.37,0.06,0
0.019243,0.0091746,0.02637,0.00013083,0.0079502,-0.00036693,0,0,0.047891,-0.02033,0,-0.001908,0,0,0,0.026375,0.0001257,0.0079502,-0.80102,0.011484,0.023342,4.1438e-07,0.38,0.06,0
0.019722,0.0091945,0.026393,0.00012371,0.0079551,-0.00040725,0,0,0.047939,-0.020362,0,-0.0021177,0,0,0,0.026399,0.0001174,0.0079551,-0.88797,0.011491,0.023371,4.1567e-07,0.39,0.06,0
0.020202,0.0092086,0.026423,0.0001164,0.0079617,-0.0004452,0,0,0.047998,-0.020398,0,-0.0023151,0,0,0,0.02643,0.00010887,0.0079617,-0.9693,0.0115,0.023405,4.1726e-07,0.4,0.06,0
0.020682,0.0092172,0.026458,0.00010876,0.0079699,-0.00048073,0,0,0.048068,-0.020439,0,-0.0024998,0,0,0,0.026466,9.999e-05,0.0079699,-1.0449,0.011512,0.023444,4.1915e-07,0.41,0.06,0
0.021163,0.0092207,0.026498,0.00010068,0.0079797,-0.00051373,0,0,0.048148,-0.020485,0,-0.0026714,0,0,0,0.026508,9.0683e-05,0.0079797,-1.1145,0.011526,0.023489,4.213e-07,0.42,0.06,0
0.021645,0.0092194,0.026544,9.2061e-05,0.0079907,-0.00054409,0,0,0.048238,-0.020537,0,-0.0028293,0,0,0,0.026555,8.0874e-05,0.0079907,-1.1779,0.011542,0.023538,4.237e-07,0.43,0.06,0
0.022128,0.0092136,0.026594,8.2825e-05,0.008003,-0.00057166,0,0,0.048336,-0.020592,0,-0.0029726,0,0,0,0.026606,7.0504e-05,0.008003,-1.2347,0.01156,0.023592,4.2634e-07,0.44,0.06,0
0.022612,0.0092037,0.026648,7.2904e-05,0.0080164,-0.00059625,0,0,0.048443,-0.020653,0,-0.0031005,0,0,0,0.026662,5.9533e-05,0.0080164,-1.2846,0.011579,0.02365,4.2921e-07,0.45,0.06,0
0.023097,0.00919,0.026706,6.2251e-05,0.0080306,-0.00061769,0,0,0.048557,-0.020718,0,-0.003212,0,0,0,0.026721,4.7938e-05,0.0080306,-1.3273,0.0116,0.023712,4.3227e-07,0.46,0.06,0
0.023583,0.009173,0.026768,5.0835e-05,0.0080456,-0.00063576,0,0,0.048678,-0.020786,0,-0.003306,0,0,0,0.026783,3.5715e-05,0.0080456,-1.3624,0.011621,0.023777,4.3552e-07,0.47,0.06,0
0.02407,0.009153,0.026832,3.8652e-05,0.0080613,-0.00065027,0,0,0.048805,-0.020859,0,-0.0033814,0,0,0,0.026848,2.2879e-05,0.0080613,-1.3894,0.011644,0.023845,4.3892e-07,0.48,0.06,0
0.024559,0.0091304,0.026899,2.5715e-05,0.0080774,-0.00066098,0,0,0.048936,-0.020934,0,-0.0034371,0,0,0,0.026915,9.467e-06,0.0080774,-1.4081,0.011667,0.023915,4.4247e-07,0.49,0.06,0
0.025049,0.0091056,0.026968,1.2064e-05,0.0080939,-0.00066772,0,0,0.049072,-0.021013,0,-0.0034721,0,0,0,0.026984,-4.4662e-06,0.0080939,-1.4181,0.011691,0.023988,4.4612e-07,0.5,0.06,0
0.02554,0.0090789,0.027038,-2.2399e-06,0.0081106,-0.00067027,0,0,0.04921,-0.021093,0,-0.0034854,0,0,0,0.027054,-1.8845e-05,0.0081106,-1.4191,0.011715,0.024061,4.4986e-07,0.51,0.06,0
0.026033,0.0090508,0.027108,-1.7109e-05,0.0081274,-0.00066849,0,0,0.04935,-0.021176,0,-0.0034761,0,0,0,0.027125,-3.3574e-05,0.0081274,-1.4109,0.011739,0.024136,4.5365e-07,0.52,0.06,0
0.026527,0.0090217,0.027179,-3.2436e-05,0.0081441,-0.00066222,0,0,0.049492,-0.021259,0,-0.0034435,0,0,0,0.027196,-4.8542e-05,0.0081441,-1.3932,0.011764,0.024211,4.5747e-07,0.53,0.06,0
0.027023,0.0089919,0.02725,-4.8087e-05,0.0081606,-0.00065136,0,0,0.049633,-0.021343,0,-0.0033871,0,0,0,0.027266,-6.362e-05,0.0081606,-1.3661,0.011787,0.024285,4.6129e-07,0.54,0.06,0
0.02752,0.0089619,0.02732,-6.3912e-05,0.0081767,-0.00063584,0,0,0.049772,-0.021426,0,-0.0033064,0,0,0,0.027335,-7.8668e-05,0.0081767,-1.3294,0.011811,0.024358,4.6507e-07,0.55,0.06,0
0.028018,0.0089321,0.027388,-7.9739e-05,0.0081925,-0.00061565,0,0,0.049908,-0.021508,0,-0.0032014,0,0,0,0.027402,-9.3531e-05,0.0081925,-1.2833,0.011834,0.02443,4.6877e-07,0.56,0.06,0
0.028518,0.0089028,0.027454,-9.5383e-05,0.0082076,-0.00059081,0,0,0.050041,-0.021588,0,-0.0030722,0,0,0,0.027467,-0.00010805,0.0082076,-1.228,0.011855,0.024499,4.7238e-07,0.57,0.06,0
0.029019,0.0088745,0.027517,-0.00011065,0.008222,-0.00056142,0,0,0.050168,-0.021665,0,-0.0029194,0,0,0,0.027529,-0.00012205,0.008222,-1.1637,0.011876,0.024566,4.7584e-07,0.58,0.06,0
0.029521,0.0088473,0.027578,-0.00012533,0.0082357,-0.00052762,0,0,0.050289,-0.021739,0,-0.0027436,0,0,0,0.027588,-0.00013537,0.0082357,-1.0907,0.011896,0.024629,4.7914e-07,0.59,0.06,0
0.030025,0.0088218,0.027634,-0.00013922,0.0082484,-0.00048961,0,0,0.050402,-0.021808,0,-0.0025459,0,0,0,0.027643,-0.00014784,0.0082484,-1.0096,0.011914,0.024687,4.8223e-07,0.6,0.06,0
0.03053,0.0087982,0.027686,-0.0001521,0.0082601,-0.00044765,0,0,0.050507,-0.021872,0,-0.0023278,0,0,0,0.027693,-0.0001593,0.0082601,-0.92104,0.011931,0.024741,4.8508e-07,0.61,0.06,0
0.031035,0.0087768,0.027733,-0.00016379,0.0082708,-0.00040208,0,0,0.050602,-0.02193,0,-0.0020908,0,0,0,0.027739,-0.00016959,0.0082708,-0.82558,0.011947,0.02479,4.8767e-07,0.62,0.06,0
0.031542,0.0087579,0.027775,-0.00017409,0.0082802,-0.00035327,0,0,0.050686,-0.021981,0,-0.001837,0,0,0,0.027779,-0.00017856,0.0082802,-0.72405,0.01196,0.024834,4.8998e-07,0.63,0.06,0
0.032049,0.0087417,0.027811,-0.00018283,0.0082885,-0.00030165,0,0,0.050759,-0.022025,0,-0.0015686,0,0,0,0.027814,-0.00018608,0.0082885,-0.61731,0.011972,0.024871,4.9197e-07,0.64,0.06,0
0.032557,0.0087283,0.027841,-0.00018986,0.0082954,-0.00024771,0,0,0.050819,-0.022062,0,-0.0012881,0,0,0,0.027843,-0.00019205,0.0082954,-0.50628,0.011982,0.024901,4.9362e-07,0.65,0.06,0
0.033065,0.0087181,0.027865,-0.00019503,0.008301,-0.00019197,0,0,0.050867,-0.02209,0,-0.00099825,0,0,0,0.027866,-0.00019635,0.008301,-0.39196,0.01199,0.024925,4.9493e-07,0.66,0.06,0
0.033574,0.0087111,0.027883,-0.00019826,0.0083053,-0.00013498,0,0,0.050901,-0.022109,0,-0.00070189,0,0,0,0.027883,-0.00019891,0.0083053,-0.2754,0.011997,0.024942,4.9587e-07,0.67,0.06,0
0.034083,0.0087074,0.027894,-0.00019947,0.0083082,-7.7321e-05,0,0,0.050922,-0.02212,0,-0.00040207,0,0,0,0.027894,-0.00019969,0.0083082,-0.15769,0.012001,0.024952,4.9644e-07,0.68,0.06,0
0.034592,0.008707,0.027898,-0.00019862,0.0083097,-1.9591e-05,0,0,0.050929,-0.022122,0,-0.00010187,0,0,0,0.027898,-0.00019864,0.0083097,-0.03995,0.012003,0.024955,4.9663e-07,0.69,0.06,0
0.035102,0.00871,0.027895,-0.0001957,0.0083098,3.7607e-05,0,0,0.050922,-0.022114,0,0.00019556,0,0,0,0.027895,-0.00019575,0.0083098,0.076705,0.012003,0.02495,4.9644e-07,0.7,0.06,0
0.035611,0.0087163,0.027886,-0.00019074,0.0083086,9.3671e-05,0,0,0.050902,-0.022098,0,0.00048709,0,0,0,0.027886,-0.00019105,0.0083086,0.19115,0.012001,0.024939,4.9589e-07,0.71,0.06,0
0.03612,0.008726,0.027871,-0.00018378,0.0083061,0.00014801,0,0,0.050868,-0.022074,0,0.00076966,0,0,0,0.027871,-0.00018456,0.0083061,0.30228,0.011998,0.02492,4.9497e-07,0.72,0.06,0
0.036628,0.0087388,0.027849,-0.00017493,0.0083022,0.00020006,0,0,0.050822,-0.022041,0,0.0010403,0,0,0,0.027851,-0.00017636,0.0083022,0.40901,0.011992,0.024895,4.937e-07,0.73,0.06,0
0.037136,0.0087546,0.027821,-0.0001643,0.0082972,0.00024929,0,0,0.050763,-0.022,0,0.0012963,0,0,0,0.027824,-0.00016652,0.0082972,0.51032,0.011985,0.024863,4.921e-07,0.74,0.06,0
0.037644,0.0087734,0.027789,-0.00015203,0.0082909,0.00029519,0,0,0.050694,-0.021952,0,0.001535,0,0,0,0.027792,-0.00015515,0.0082909,0.60524,0.011976,0.024826,4.9019e-07,0.75,0.06,0
0.03815,0.0087948,0.02775,-0.00013829,0.0082836,0.00033731,0,0,0.050613,-0.021897,0,0.001754,0,0,0,0.027754,-0.00014236,0.0082836,0.69285,0.011965,0.024782,4.88e-07,0.76,0.06,0
0.038656,0.0088187,0.027708,-0.00012326,0.0082753,0.00037525,0,0,0.050524,-0.021836,0,0.0019513,0,0,0,0.027713,-0.00012831,0.0082753,0.77235,0.011953,0.024734,4.8554e-07,0.77,0.06,0
0.039161,0.0088448,0.027661,-0.00010714,0.0082661,0.00040866,0,0,0.050426,-0.02177,0,0.002125,0,0,0,0.027667,-0.00011315,0.0082661,0.84299,0.01194,0.024681,4.8286e-07,0.78,0.06,0
0.039664,0.0088728,0.02761,-9.0141e-05,0.0082561,0.00043726,0,0,0.050321,-0.0217,0,0.0022738,0,0,0,0.027617,-9.7042e-05,0.0082561,0.90414,0.011926,0.024624,4.7998e-07,0.79,0.06,0
0.040167,0.0089025,0.027557,-7.2482e-05,0.0082454,0.00046083,0,0,0.05021,-0.021626,0,0.0023963,0,0,0,0.027565,-8.0166e-05,0.0082454,0.95527,0.01191,0.024564,4.7694e-07,0.8,0.06,0
0.040669,0.0089335,0.027501,-5.4376e-05,0.0082341,0.00047919,0,0,0.050095,-0.02155,0,0.0024918,0,0,0,0.02751,-6.2707e-05,0.0082341,0.99597,0.011894,0.024501,4.7377e-07,0.81,0.06,0
0.041169,0.0089654,0.027444,-3.6038e-05,0.0082224,0.00049226,0,0,0.049976,-0.021472,0,0.0025598,0,0,0,0.027453,-4.4853e-05,0.0082224,1.0259,0.011877,0.024436,4.7051e-07,0.82,0.06,0
0.041668,0.0089981,0.027386,-1.7673e-05,0.0082104,0.0005,0,0,0.049855,-0.021393,0,0.0026,0,0,0,0.027395,-2.6793e-05,0.0082104,1.045,0.011859,0.02437,4.672e-07,0.83,0.06,0
0.042166,0.009031,0.027327,5.1981e-07,0.0081981,0.00050243,0,0,0.049734,-0.021314,0,0.0026126,0,0,0,0.027336,-8.7149e-06,0.0081981,1.053,0.011842,0.024303,4.6387e-07,0.84,0.06,0
0.042663,0.009064,0.027268,1.8357e-05,0.0081858,0.00049962,0,0,0.049613,-0.021235,0,0.002598,0,0,0,0.027277,9.1993e-06,0.0081858,1.0501,0.011824,0.024237,4.6055e-07,0.85,0.06,0
0.043158,0.0090966,0.02721,3.5668e-05,0.0081736,0.00049171,0,0,0.049494,-0.021159,0,0.0025569,0,0,0,0.027218,2.6773e-05,0.0081736,1.0363,0.011806,0.024171,4.5728e-07,0.86,0.06,0
0.043653,0.0091286,0.027153,5.2299e-05,0.0081615,0.00047888,0,0,0.049377,-0.021084,0,0.0024902,0,0,0,0.027161,4.384e-05,0.0081615,1.012,0.011789,0.024106,4.5409e-07,0.87,0.06,0
0.044146,0.0091597,0.027098,6.8114e-05,0.0081498,0.00046133,0,0,0.049265,-0.021012,0,0.0023989,0,0,0,0.027106,6.0242e-05,0.0081498,0.97752,0.011772,0.024044,4.5102e-07,0.88,0.06,0
0.044638,0.0091894,0.027045,8.2992e-05,0.0081385,0.00043934,0,0,0.049158,-0.020944,0,0.0022846,0,0,0,0.027053,7.5835e-05,0.0081385,0.93327,0.011756,0.023984,4.4808e-07,0.89,0.06,0
0.045129,0.0092176,0.026996,9.6832e-05,0.0081278,0.00041318,0,0,0.049057,-0.02088,0,0.0021485,0,0,0,0.027002,9.0487e-05,0.0081278,0.8798,0.01174,0.023928,4.4532e-07,0.9,0.06,0
0.045619,0.009244,0.026949,0.00010955,0.0081177,0.00038316,0,0,0.048962,-0.020821,0,0.0019924,0,0,0,0.026955,0.00010408,0.0081177,0.81773,0.011725,0.023875,4.4274e-07,0.91,0.06,0
0.046108,0.0092683,0.026907,0.00012106,0.0081084,0.00034964,0,0,0.048876,-0.020767,0,0.0018181,0,0,0,0.026911,0.0001165,0.0081084,0.74772,0.011712,0.023826,4.4038e-07,0.92,0.06,0
0.046597,0.0092903,0.026868,0.00013133,0.0080999,0.00031295,0,0,0.048798,-0.020718,0,0.0016274,0,0,0,0.026872,0.00012767,0.0080999,0.67051,0.0117,0.023782,4.3825e-07,0.93,0.06,0
0.047084,0.0093098,0.026834,0.0001403,0.0080924,0.00027348,0,0,0.048729,-0.020675,0,0.0014221,0,0,0,0.026837,0.0001375,0.0080924,0.58692,0.011689,0.023744,4.3637e-07,0.94,0.06,0
0.047571,0.0093266,0.026805,0.00014793,0.0080859,0.00023161,0,0,0.04867,-0.020639,0,0.0012044,0,0,0,0.026807,0.00014592,0.0080859,0.49776,0.01168,0.02371,4.3475e-07,0.95,0.06,0
0.048058,0.0093406,0.026781,0.00015421,0.0080805,0.00018772,0,0,0.048621,-0.020608,0,0.00097613,0,0,0,0.026782,0.00015288,0.0080805,0.40391,0.011672,0.023682,4.3341e-07,0.96,0.06,0
0.048544,0.0093516,0.026762,0.0001591,0.0080763,0.00014221,0,0,0.048582,-0.020585,0,0.00073948,0,0,0,0.026763,0.00015834,0.0080763,0.30627,0.011666,0.023661,4.3236e-07,0.97,0.06,0
0.049029,0.0093595,0.026748,0.00016261,0.0080732,9.5483e-05,0,0,0.048555,-0.020567,0,0.00049651,0,0,0,0.026748,0.00016227,0.0080732,0.20578,0.011661,0.023645,4.3161e-07,0.98,0.06,0
0.049515,0.0093643,0.02674,0.00016471,0.0080713,4.7945e-05,0,0,0.048538,-0.020557,0,0.00024931,0,0,0,0.02674,0.00016463,0.0080713,0.10337,0.011659,0.023636,4.3115e-07,0.99,0.06,0
0.05,0.0093659,0.026737,0.00016542,0.0080707,3.0762e-05,0,0,0.048532,-0.020554,0,0.00015996,0,0,0,0.026737,0.00016538,0.0080707,0.066332,0.011658,0.023632,4.31e-07,1,0.06,0
0,0,0.030911,0.013248,0.013248,0.008808,0,0,0.045925,-4.3368e-19,0,0.045802,0,0,0,0.034552,0.009606,0.013248,22.462,0.019135,0.023339,5.9975e-07,0,0.07,0
0.00045924,0.00045802,0.030815,0.011897,0.012814,0.0087668,0,0,0.046804,-0.0023835,0,0.045587,0,0,0,0.034253,0.0084592,0.012814,21.412,0.018509,0.023916,6.2478e-07,0.01,0.07,0
0.00093609,0.00093587,0.031209,0.010493,0.012511,0.0087738,0,0,0.048616,-0.005246,0,0.045624,0,0,0,0.034426,0.0072765,0.012511,20.133,0.018071,0.024947,6.8061e-07,0.02,0.07,0
0.0014316,0.0014242,0.031552,0.0089941,0.012164,0.0085434,0,0,0.050409,-0.0082413,0,0.044426,0,0,0,0.034422,0.0061237,0.012164,18.571,0.01757,0.025814,7.2306e-07,0.03,0.07,0
0.0019443,0.001913,0.031792,0.0075538,0.011804,0.0081025,0,0,0.051969,-0.01105,0,0.042133,0,0,0,0.034251,0.0050947,0.011804,16.883,0.01705,0.026448,7.48e-07,0.04,0.07,0
0.0024709,0.0023933,0.031898,0.0062698,0.01145,0.007515,0,0,0.053164,-0.013469,0,0.039078,0,0,0,0.033939,0.0042287,0.01145,15.195,0.016539,0.026838,7.5581e-07,0.05,0.07,0
0.0030075,0.0028584,0.031867,0.0051807,0.011114,0.0068527,0,0,0.053958,-0.015428,0,0.035634,0,0,0,0.033524,0.0035239,0.011114,13.592,0.016054,0.027017,7.4975e-07,0.06,0.07,0
0.0035501,0.0033042,0.031718,0.0042833,0.0108,0.0061743,0,0,0.054386,-0.016945,0,0.032106,0,0,0,0.033044,0.0029578,0.0108,12.116,0.015601,0.027032,7.3398e-07,0.07,0.07,0
0.0040953,0.0037283,0.031479,0.003555,0.01051,0.0055192,0,0,0.054519,-0.018084,0,0.0287,0,0,0,0.03253,0.0025037,0.01051,10.784,0.015182,0.026931,7.1237e-07,0.08,0.07,0
0.0046405,0.0041297,0.03118,0.0029672,0.010244,0.0049093,0,0,0.054434,-0.01892,0,0.025528,0,0,0,0.03201,0.0021374,0.010244,9.5943,0.014797,0.026757,6.8793e-07,0.09,0.07,0
0.0051839,0.0045086,0.030847,0.002493,0.010002,0.0043539,0,0,0.054197,-0.019523,0,0.02264,0,0,0,0.031501,0.0018395,0.010002,8.5361,0.014447,0.026539,6.627e-07,0.1,0.07,0
0.0057244,0.0048654,0.030499,0.0021092,0.0097825,0.0038548,0,0,0.053864,-0.019951,0,0.020045,0,0,0,0.031013,0.0015951,0.0097825,7.5964,0.01413,0.026298,6.3799e-07,0.11,0.07,0
0.0062612,0.0052009,0.030151,0.0017971,0.0095844,0.0034095,0,0,0.053473,-0.020247,0,0.01773,0,0,0,0.030555,0.0013928,0.0095844,6.7614,0.013844,0.026051,6.1454e-07,0.12,0.07,0
0.0067939,0.0055161,0.029811,0.0015417,0.0094058,0.0030137,0,0,0.053054,-0.020447,0,0.015671,0,0,0,0.030129,0.001224,0.0094058,6.0181,0.013586,0.025806,5.9275e-07,0.13,0.07,0
0.0073223,0.0058119,0.029486,0.0013314,0.0092452,0.0026623,0,0,0.052626,-0.020576,0,0.013844,0,0,0,0.029736,0.0010819,0.0092452,5.3547,0.013354,0.025569,5.7276e-07,0.14,0.07,0
0.0078464,0.0060894,0.029179,0.0011572,0.0091009,0.0023501,0,0,0.052204,-0.020654,0,0.01222,0,0,0,0.029375,0.00096145,0.0091009,4.7608,0.013146,0.025344,5.5458e-07,0.15,0.07,0
0.0083664,0.0063494,0.028893,0.0010119,0.0089714,0.0020722,0,0,0.051796,-0.020695,0,0.010776,0,0,0,0.029046,0.0008587,0.0089714,4.2275,0.012959,0.025133,5.3815e-07,0.16,0.07,0
0.0088823,0.0065929,0.028627,0.00089001,0.0088551,0.0018244,0,0,0.051407,-0.020709,0,0.0094868,0,0,0,0.028747,0.00077052,0.0088551,3.7471,0.012791,0.024937,5.2336e-07,0.17,0.07,0
0.0093945,0.0068207,0.028382,0.00078723,0.0087508,0.0016027,0,0,0.051041,-0.020705,0,0.0083341,0,0,0,0.028475,0.00069446,0.0087508,3.3129,0.01264,0.024756,5.1009e-07,0.18,0.07,0
0.0099031,0.0070335,0.028158,0.00070013,0.0086573,0.0014038,0,0,0.050701,-0.020689,0,0.0072997,0,0,0,0.028229,0.00062855,0.0086573,2.9191,0.012505,0.02459,4.9821e-07,0.19,0.07,0
0.010408,0.0072321,0.027953,0.00062599,0.0085736,0.0012247,0,0,0.050386,-0.020664,0,0.0063682,0,0,0,0.028007,0.00057121,0.0085736,2.5609,0.012384,0.024438,4.8761e-07,0.2,0.07,0
0.010911,0.0074173,0.027766,0.00056262,0.0084987,0.0010628,0,0,0.050096,-0.020634,0,0.0055265,0,0,0,0.027808,0.00052116,0.0084987,2.2339,0.012276,0.024301,4.7815e-07,0.21,0.07,0
0.01141,0.0075894,0.027598,0.00050827,0.0084318,0.00091597,0,0,0.049832,-0.020601,0,0.0047631,0,0,0,0.027629,0.00047733,0.0084318,1.9344,0.012179,0.024176,4.6975e-07,0.22,0.07,0
0.011907,0.0077493,0.027446,0.00046151,0.0083722,0.00078229,0,0,0.049591,-0.020568,0,0.0040679,0,0,0,0.027468,0.00043885,0.0083722,1.6592,0.012093,0.024065,4.6231e-07,0.23,0.07,0
0.012402,0.0078974,0.02731,0.00042117,0.0083192,0.00066009,0,0,0.049375,-0.020535,0,0.0034325,0,0,0,0.027326,0.00040497,0.0083192,1.4054,0.012017,0.023965,4.5573e-07,0.24,0.07,0
0.012895,0.0080342,0.027188,0.00038628,0.0082723,0.00054794,0,0,0.049181,-0.020504,0,0.0028493,0,0,0,0.027199,0.00037508,0.0082723,1.1707,0.011949,0.023876,4.4994e-07,0.25,0.07,0
0.013386,0.0081601,0.02708,0.00035603,0.0082308,0.0004446,0,0,0.049008,-0.020474,0,0.0023119,0,0,0,0.027087,0.00034863,0.0082308,0.95286,0.011889,0.023798,4.4487e-07,0.26,0.07,0
0.013875,0.0082757,0.026985,0.00032973,0.0081944,0.000349,0,0,0.048856,-0.020448,0,0.0018148,0,0,0,0.026989,0.00032516,0.0081944,0.75,0.011836,0.023729,4.4047e-07,0.27,0.07,0
0.014363,0.0083813,0.026902,0.0003068,0.0081627,0.00026021,0,0,0.048722,-0.020425,0,0.0013531,0,0,0,0.026905,0.00030425,0.0081627,0.56051,0.011791,0.023671,4.3668e-07,0.28,0.07,0
0.01485,0.0084774,0.02683,0.00028673,0.0081352,0.00017743,0,0,0.048608,-0.020406,0,0.00092263,0,0,0,0.026832,0.00028554,0.0081352,0.38296,0.011751,0.023621,4.3346e-07,0.29,0.07,0
0.015335,0.0085643,0.02677,0.00026908,0.0081116,9.9972e-05,0,0,0.048511,-0.02039,0,0.00051986,0,0,0,0.02677,0.00026871,0.0081116,0.21614,0.011717,0.023579,4.3077e-07,0.3,0.07,0
0.01582,0.0086424,0.026719,0.00025347,0.0080916,2.7251e-05,0,0,0.04843,-0.020379,0,0.00014171,0,0,0,0.026719,0.00025344,0.0080916,0.058998,0.011688,0.023546,4.2856e-07,0.31,0.07,0
0.016304,0.008712,0.026677,0.00023955,0.008075,-4.1231e-05,0,0,0.048365,-0.020372,0,-0.0002144,0,0,0,0.026677,0.00023948,0.008075,-0.089357,0.011664,0.02352,4.2681e-07,0.32,0.07,0
0.016787,0.0087735,0.026645,0.00022699,0.0080615,-0.00010589,0,0,0.048316,-0.02037,0,-0.00055063,0,0,0,0.026645,0.00022657,0.0080615,-0.22966,0.011644,0.023502,4.2548e-07,0.33,0.07,0
0.01727,0.0088273,0.02662,0.00021552,0.0080508,-0.00016707,0,0,0.048281,-0.020372,0,-0.00086874,0,0,0,0.026621,0.00021446,0.0080508,-0.3625,0.011629,0.023491,4.2457e-07,0.34,0.07,0
0.017753,0.0088735,0.026604,0.00020487,0.0080427,-0.00022503,0,0,0.04826,-0.020379,0,-0.0011701,0,0,0,0.026606,0.00020295,0.0080427,-0.48834,0.011617,0.023486,4.2403e-07,0.35,0.07,0
0.018235,0.0089127,0.026596,0.0001948,0.0080371,-0.00027998,0,0,0.048252,-0.02039,0,-0.0014559,0,0,0,0.026599,0.00019183,0.0080371,-0.60754,0.011609,0.023488,4.2387e-07,0.36,0.07,0
0.018718,0.008945,0.026594,0.00018508,0.0080338,-0.00033208,0,0,0.048257,-0.020407,0,-0.0017268,0,0,0,0.026598,0.0001809,0.0080338,-0.72031,0.011604,0.023497,4.2404e-07,0.37,0.07,0
0.0192,0.0089708,0.026599,0.0001755,0.0080325,-0.0003814,0,0,0.048274,-0.020428,0,-0.0019833,0,0,0,0.026605,0.00016999,0.0080325,-0.82678,0.011602,0.023511,4.2455e-07,0.38,0.07,0
0.019683,0.0089904,0.026611,0.00016586,0.008033,-0.000428,0,0,0.048302,-0.020455,0,-0.0022256,0,0,0,0.026618,0.00015893,0.008033,-0.92698,0.011603,0.023532,4.2537e-07,0.39,0.07,0
0.020167,0.0090041,0.026629,0.00015598,0.0080354,-0.00047186,0,0,0.048342,-0.020486,0,-0.0024536,0,0,0,0.026637,0.00014757,0.0080354,-1.0208,0.011607,0.023558,4.2648e-07,0.4,0.07,0
0.02065,0.0090124,0.026652,0.00014571,0.0080393,-0.00051292,0,0,0.048393,-0.020523,0,-0.0026672,0,0,0,0.026662,0.00013579,0.0080393,-1.1082,0.011612,0.023589,4.2788e-07,0.41,0.07,0
0.021134,0.0090154,0.02668,0.00013488,0.0080446,-0.0005511,0,0,0.048453,-0.020565,0,-0.0028657,0,0,0,0.026692,0.00012345,0.0080446,-1.1888,0.01162,0.023626,4.2955e-07,0.42,0.07,0
0.021619,0.0090136,0.026714,0.00012338,0.0080512,-0.00058626,0,0,0.048523,-0.020612,0,-0.0030486,0,0,0,0.026727,0.00011046,0.0080512,-1.2624,0.011629,0.023667,4.3148e-07,0.43,0.07,0
0.022105,0.0090073,0.026752,0.00011109,0.008059,-0.00061824,0,0,0.048602,-0.020664,0,-0.0032149,0,0,0,0.026766,9.6751e-05,0.008059,-1.3287,0.011641,0.023713,4.3364e-07,0.44,0.07,0
0.022591,0.0089968,0.026795,9.7922e-05,0.0080678,-0.00064686,0,0,0.04869,-0.020722,0,-0.0033637,0,0,0,0.02681,8.2257e-05,0.0080678,-1.3872,0.011653,0.023764,4.3603e-07,0.45,0.07,0
0.023079,0.0089825,0.026841,8.3812e-05,0.0080774,-0.00067191,0,0,0.048785,-0.020783,0,-0.0034939,0,0,0,0.026858,6.695e-05,0.0080774,-1.4376,0.011667,0.023818,4.3862e-07,0.46,0.07,0
0.023567,0.0089648,0.02689,6.8722e-05,0.0080877,-0.00069316,0,0,0.048887,-0.020849,0,-0.0036044,0,0,0,0.026908,5.0821e-05,0.0080877,-1.4794,0.011682,0.023876,4.4139e-07,0.47,0.07,0
0.024056,0.0089441,0.026943,5.2642e-05,0.0080987,-0.00071038,0,0,0.048995,-0.02092,0,-0.003694,0,0,0,0.026962,3.3888e-05,0.0080987,-1.5122,0.011698,0.023937,4.4434e-07,0.48,0.07,0
0.024547,0.0089208,0.026998,3.5588e-05,0.0081102,-0.00072335,0,0,0.049109,-0.020994,0,-0.0037614,0,0,0,0.027018,1.6197e-05,0.0081102,-1.5356,0.011715,0.024001,4.4742e-07,0.49,0.07,0
0.025039,0.0088951,0.027056,1.7611e-05,0.008122,-0.00073183,0,0,0.049228,-0.021071,0,-0.0038055,0,0,0,0.027075,-2.1825e-06,0.008122,-1.5493,0.011732,0.024067,4.5062e-07,0.5,0.07,0
0.025531,0.0088677,0.027115,-1.2099e-06,0.008134,-0.00073562,0,0,0.04935,-0.021152,0,-0.0038252,0,0,0,0.027135,-2.1152e-05,0.008134,-1.5528,0.011749,0.024135,4.5392e-07,0.51,0.07,0
0.026026,0.0088388,0.027175,-2.0764e-05,0.0081462,-0.00073453,0,0,0.049474,-0.021234,0,-0.0038195,0,0,0,0.027194,-4.0588e-05,0.0081462,-1.546,0.011767,0.024203,4.5729e-07,0.52,0.07,0
0.026521,0.0088088,0.027235,-4.0908e-05,0.0081583,-0.0007284,0,0,0.0496,-0.021318,0,-0.0037877,0,0,0,0.027255,-6.0346e-05,0.0081583,-1.5286,0.011784,0.024273,4.6069e-07,0.53,0.07,0
0.027017,0.0087782,0.027296,-6.1473e-05,0.0081704,-0.00071711,0,0,0.049727,-0.021403,0,-0.003729,0,0,0,0.027315,-8.0257e-05,0.0081704,-1.5005,0.011802,0.024342,4.641e-07,0.54,0.07,0
0.027515,0.0087474,0.027356,-8.2259e-05,0.0081822,-0.00070059,0,0,0.049853,-0.021488,0,-0.0036431,0,0,0,0.027374,-0.00010014,0.0081822,-1.4617,0.011819,0.024411,4.6748e-07,0.55,0.07,0
0.028015,0.0087167,0.027415,-0.00010304,0.0081937,-0.00067881,0,0,0.049976,-0.021572,0,-0.0035298,0,0,0,0.027432,-0.00011978,0.0081937,-1.4122,0.011835,0.024478,4.7081e-07,0.56,0.07,0
0.028515,0.0086866,0.027473,-0.00012359,0.0082048,-0.00065181,0,0,0.050097,-0.021654,0,-0.0033894,0,0,0,0.027488,-0.00013897,0.0082048,-1.3523,0.011851,0.024543,4.7405e-07,0.57,0.07,0
0.029017,0.0086575,0.027528,-0.00014363,0.0082154,-0.00061968,0,0,0.050213,-0.021733,0,-0.0032223,0,0,0,0.027542,-0.0001575,0.0082154,-1.2822,0.011867,0.024606,4.7717e-07,0.58,0.07,0
0.029519,0.0086296,0.027581,-0.0001629,0.0082253,-0.00058259,0,0,0.050324,-0.021809,0,-0.0030294,0,0,0,0.027593,-0.00017513,0.0082253,-1.2024,0.011881,0.024665,4.8014e-07,0.59,0.07,0
0.030023,0.0086034,0.02763,-0.00018114,0.0082347,-0.00054075,0,0,0.050428,-0.021881,0,-0.0028119,0,0,0,0.02764,-0.00019165,0.0082347,-1.1135,0.011895,0.024721,4.8293e-07,0.6,0.07,0
0.030528,0.0085791,0.027676,-0.00019807,0.0082433,-0.00049448,0,0,0.050524,-0.021947,0,-0.0025713,0,0,0,0.027684,-0.00020683,0.0082433,-1.016,0.011907,0.024772,4.855e-07,0.61,0.07,0
0.031033,0.0085572,0.027717,-0.00021342,0.008251,-0.00044413,0,0,0.050611,-0.022008,0,-0.0023095,0,0,0,0.027724,-0.00022048,0.008251,-0.91077,0.011918,0.024818,4.8783e-07,0.62,0.07,0
0.03154,0.0085377,0.027754,-0.00022695,0.008258,-0.00039012,0,0,0.050688,-0.022061,0,-0.0020286,0,0,0,0.027759,-0.00023239,0.008258,-0.79864,0.011928,0.024858,4.899e-07,0.63,0.07,0
0.032047,0.0085211,0.027785,-0.00023843,0.008264,-0.00033294,0,0,0.050755,-0.022106,0,-0.0017313,0,0,0,0.027789,-0.00024239,0.008264,-0.68059,0.011937,0.024893,4.9168e-07,0.64,0.07,0
0.032555,0.0085074,0.027811,-0.00024767,0.0082691,-0.00027314,0,0,0.05081,-0.022144,0,-0.0014203,0,0,0,0.027814,-0.00025033,0.0082691,-0.55767,0.011944,0.024922,4.9315e-07,0.65,0.07,0
0.033063,0.0084969,0.027832,-0.00025449,0.0082733,-0.00021129,0,0,0.050853,-0.022172,0,-0.0010987,0,0,0,0.027834,-0.00025608,0.0082733,-0.43099,0.01195,0.024944,4.9429e-07,0.66,0.07,0
0.033572,0.0084896,0.027847,-0.00025875,0.0082764,-0.00014802,0,0,0.050883,-0.022191,0,-0.00076969,0,0,0,0.027848,-0.00025953,0.0082764,-0.30174,0.011955,0.024959,4.951e-07,0.67,0.07,0
0.034081,0.0084858,0.027856,-0.00026037,0.0082786,-8.3976e-05,0,0,0.0509,-0.022201,0,-0.00043667,0,0,0,0.027856,-0.00026062,0.0082786,-0.17113,0.011958,0.024967,4.9555e-07,0.68,0.07,0
0.03459,0.0084854,0.027858,-0.00025929,0.0082797,-1.9835e-05,0,0,0.050904,-0.022201,0,-0.00010314,0,0,0,0.027858,-0.0002593,0.0082797,-0.040417,0.01196,0.024968,4.9566e-07,0.69,0.07,0
0.035099,0.0084885,0.027855,-0.0002555,0.0082799,4.3729e-05,0,0,0.050895,-0.022192,0,0.00022739,0,0,0,0.027855,-0.00025556,0.0082799,0.089129,0.01196,0.024962,4.9542e-07,0.7,0.07,0
0.035608,0.008495,0.027846,-0.00024902,0.008279,0.00010604,0,0,0.050873,-0.022173,0,0.00055141,0,0,0,0.027846,-0.00024943,0.008279,0.21625,0.011959,0.02495,4.9483e-07,0.71,0.07,0
0.036117,0.0085049,0.027831,-0.00023995,0.0082772,0.00016644,0,0,0.050839,-0.022145,0,0.00086548,0,0,0,0.027832,-0.00024094,0.0082772,0.33971,0.011956,0.02493,4.939e-07,0.72,0.07,0
0.036625,0.0085181,0.02781,-0.00022839,0.0082744,0.00022429,0,0,0.050792,-0.022107,0,0.0011663,0,0,0,0.027812,-0.00023018,0.0082744,0.45829,0.011952,0.024904,4.9265e-07,0.73,0.07,0
0.037132,0.0085344,0.027784,-0.0002145,0.0082708,0.00027899,0,0,0.050734,-0.022062,0,0.0014507,0,0,0,0.027787,-0.00021728,0.0082708,0.57084,0.011947,0.024871,4.9108e-07,0.74,0.07,0
0.037639,0.0085536,0.027753,-0.00019846,0.0082663,0.00032997,0,0,0.050665,-0.022008,0,0.0017159,0,0,0,0.027757,-0.00020236,0.0082663,0.67627,0.01194,0.024832,4.8922e-07,0.75,0.07,0
0.038146,0.0085757,0.027717,-0.0001805,0.008261,0.00037675,0,0,0.050586,-0.021948,0,0.0019591,0,0,0,0.027722,-0.00018559,0.008261,0.77357,0.011933,0.024788,4.871e-07,0.76,0.07,0
0.038651,0.0086002,0.027677,-0.00016085,0.0082549,0.00041885,0,0,0.050498,-0.021881,0,0.002178,0,0,0,0.027684,-0.00016715,0.0082549,0.86181,0.011924,0.024739,4.8473e-07,0.77,0.07,0
0.039156,0.008627,0.027634,-0.00013979,0.0082482,0.00045591,0,0,0.050403,-0.021809,0,0.0023707,0,0,0,0.027641,-0.00014727,0.0082482,0.94018,0.011914,0.024686,4.8215e-07,0.78,0.07,0
0.039659,0.0086557,0.027587,-0.00011757,0.0082409,0.00048759,0,0,0.0503,-0.021732,0,0.0025355,0,0,0,0.027596,-0.00012615,0.0082409,1.008,0.011903,0.024628,4.7939e-07,0.79,0.07,0
0.040162,0.0086861,0.027538,-9.4495e-05,0.008233,0.00051366,0,0,0.050193,-0.021652,0,0.002671,0,0,0,0.027547,-0.00010404,0.008233,1.0646,0.011892,0.024568,4.7648e-07,0.8,0.07,0
0.040663,0.0087179,0.027487,-7.0837e-05,0.0082247,0.00053394,0,0,0.050081,-0.021568,0,0.0027765,0,0,0,0.027497,-8.1178e-05,0.0082247,1.1096,0.01188,0.024505,4.7344e-07,0.81,0.07,0
0.041163,0.0087507,0.027434,-4.6878e-05,0.0082161,0.00054832,0,0,0.049966,-0.021484,0,0.0028512,0,0,0,0.027445,-5.7814e-05,0.0082161,1.1426,0.011868,0.02444,4.7033e-07,0.82,0.07,0
0.041662,0.0087841,0.02738,-2.2889e-05,0.0082071,0.00055676,0,0,0.04985,-0.021398,0,0.0028951,0,0,0,0.027391,-3.4196e-05,0.0082071,1.1635,0.011855,0.024373,4.6716e-07,0.83,0.07,0
0.04216,0.0088179,0.027326,8.7156e-07,0.0081981,0.00055929,0,0,0.049733,-0.021313,0,0.0029083,0,0,0,0.027338,-1.0571e-05,0.0081981,1.1721,0.011842,0.024307,4.6398e-07,0.84,0.07,0
0.042657,0.0088517,0.027272,2.4162e-05,0.0081889,0.00055601,0,0,0.049617,-0.021228,0,0.0028912,0,0,0,0.027283,1.2822e-05,0.0081889,1.1685,0.011828,0.02424,4.6082e-07,0.85,0.07,0
0.043153,0.0088851,0.027219,4.6761e-05,0.0081798,0.00054705,0,0,0.049502,-0.021146,0,0.0028447,0,0,0,0.02723,3.5752e-05,0.0081798,1.1529,0.011815,0.024174,4.5771e-07,0.86,0.07,0
0.043647,0.0089179,0.027167,6.8468e-05,0.0081708,0.00053263,0,0,0.049391,-0.021066,0,0.0027697,0,0,0,0.027178,5.8003e-05,0.0081708,1.1256,0.011802,0.02411,4.5467e-07,0.87,0.07,0
0.04414,0.0089496,0.027117,8.9104e-05,0.0081619,0.00051299,0,0,0.049284,-0.020989,0,0.0026675,0,0,0,0.027127,7.9371e-05,0.0081619,1.0869,0.011789,0.024048,4.5174e-07,0.88,0.07,0
0.044633,0.0089801,0.02707,0.00010851,0.0081535,0.00048841,0,0,0.049182,-0.020917,0,0.0025398,0,0,0,0.027078,9.9669e-05,0.0081535,1.0375,0.011777,0.023988,4.4895e-07,0.89,0.07,0
0.045124,0.0090089,0.027025,0.00012657,0.0081454,0.00045923,0,0,0.049086,-0.020849,0,0.002388,0,0,0,0.027033,0.00011873,0.0081454,0.97783,0.011765,0.023932,4.4632e-07,0.9,0.07,0
0.045615,0.0090359,0.026983,0.00014315,0.0081377,0.00042578,0,0,0.048997,-0.020786,0,0.0022141,0,0,0,0.026989,0.00013639,0.0081377,0.90864,0.011754,0.02388,4.4387e-07,0.91,0.07,0
0.046104,0.0090608,0.026944,0.00015816,0.0081307,0.00038846,0,0,0.048915,-0.020729,0,0.00202,0,0,0,0.02695,0.00015253,0.0081307,0.83068,0.011744,0.023832,4.4163e-07,0.92,0.07,0
0.046593,0.0090833,0.026909,0.00017154,0.0081243,0.00034764,0,0,0.048841,-0.020677,0,0.0018077,0,0,0,0.026914,0.00016703,0.0081243,0.74478,0.011735,0.023788,4.396e-07,0.93,0.07,0
0.047081,0.0091032,0.026879,0.00018323,0.0081186,0.00030375,0,0,0.048776,-0.020632,0,0.0015795,0,0,0,0.026882,0.00017977,0.0081186,0.65182,0.011727,0.02375,4.3782e-07,0.94,0.07,0
0.047568,0.0091204,0.026852,0.00019318,0.0081137,0.00025721,0,0,0.048721,-0.020593,0,0.0013375,0,0,0,0.026855,0.0001907,0.0081137,0.55272,0.01172,0.023717,4.3629e-07,0.95,0.07,0
0.048055,0.0091347,0.026831,0.00020135,0.0081096,0.00020844,0,0,0.048674,-0.020561,0,0.0010839,0,0,0,0.026832,0.00019972,0.0081096,0.44846,0.011714,0.023689,4.3502e-07,0.96,0.07,0
0.048542,0.0091459,0.026813,0.00020773,0.0081063,0.0001579,0,0,0.048638,-0.020536,0,0.00082107,0,0,0,0.026814,0.00020679,0.0081063,0.34002,0.011709,0.023668,4.3402e-07,0.97,0.07,0
0.049028,0.009154,0.026801,0.0002123,0.008104,0.00010601,0,0,0.048612,-0.020518,0,0.00055126,0,0,0,0.026801,0.00021188,0.008104,0.22844,0.011706,0.023652,4.333e-07,0.98,0.07,0
0.049514,0.0091589,0.026794,0.00021504,0.0081026,5.3229e-05,0,0,0.048596,-0.020508,0,0.00027679,0,0,0,0.026794,0.00021494,0.0081026,0.11475,0.011704,0.023643,4.3287e-07,0.99,0.07,0
0.05,0.0091605,0.026791,0.00021596,0.0081021,3.1437e-05,0,0,0.048591,-0.020504,0,0.00016347,0,0,0,0.026791,0.00021592,0.0081021,0.067778,0.011703,0.02364,4.3273e-07,1,0.07,0
0,0,0.03021,0.012947,0.012947,0.0083848,0,0,0.044884,-8.6736e-19,0,0.043601,0,0,0,0.033612,0.0095452,0.012947,22.085,0.018702,0.022559,5.4473e-07,0,0.08,0
0.00044884,0.00043601,0.030128,0.011775,0.012571,0.0083581,0,0,0.045649,-0.0020693,0,0.043462,0,0,0,0.033364,0.0085393,0.012571,21.164,0.018158,0.023075,5.6661e-07,0.01,0.08,0
0.00091298,0.0008877,0.030489,0.01059,0.012324,0.0083794,0,0,0.047231,-0.0045074,0,0.043573,0,0,0,0.033548,0.0075319,0.012324,20.052,0.017801,0.023982,6.1413e-07,0.02,0.08,0
0.0013935,0.0013484,0.030821,0.009311,0.01204,0.0082249,0,0,0.048832,-0.0070947,0,0.04277,0,0,0,0.033606,0.0065265,0.01204,18.703,0.017391,0.024787,6.536e-07,0.03,0.08,0
0.0018896,0.0018106,0.031085,0.008042,0.011738,0.0079027,0,0,0.050302,-0.00961,0,0.041094,0,0,0,0.033535,0.0055922,0.011738,17.223,0.016955,0.025433,6.8147e-07,0.04,0.08,0
0.0023995,0.0022673,0.031254,0.0068624,0.011435,0.0074486,0,0,0.051529,-0.011888,0,0.038733,0,0,0,0.033348,0.0047677,0.011435,15.707,0.016517,0.025899,6.9685e-07,0.05,0.08,0
0.0029202,0.0027127,0.031316,0.0058163,0.01114,0.0069098,0,0,0.052459,-0.013841,0,0.035931,0,0,0,0.033068,0.0040644,0.01114,14.227,0.016091,0.026193,7.0092e-07,0.06,0.08,0
0.0034487,0.0031426,0.031279,0.0049175,0.010859,0.0063314,0,0,0.053092,-0.015448,0,0.032923,0,0,0,0.032721,0.0034757,0.010859,12.829,0.015685,0.026341,6.96e-07,0.07,0.08,0
0.003982,0.0035544,0.031156,0.0041603,0.010595,0.0057489,0,0,0.05346,-0.01673,0,0.029894,0,0,0,0.03233,0.002987,0.010595,11.535,0.015304,0.026375,6.8468e-07,0.08,0.08,0
0.0045179,0.0039466,0.030969,0.0035294,0.01035,0.0051863,0,0,0.053611,-0.017733,0,0.026969,0,0,0,0.031917,0.0025818,0.01035,10.354,0.014949,0.026325,6.6926e-07,0.09,0.08,0
0.0050543,0.0043184,0.030737,0.0030063,0.010123,0.0046576,0,0,0.053596,-0.018503,0,0.02422,0,0,0,0.031498,0.0022449,0.010123,9.2841,0.014622,0.026218,6.516e-07,0.1,0.08,0
0.0055898,0.0046701,0.030477,0.0025731,0.009915,0.0041697,0,0,0.053461,-0.019089,0,0.021682,0,0,0,0.031087,0.0019633,0.009915,8.3197,0.014322,0.026073,6.3304e-07,0.11,0.08,0
0.0061235,0.0050019,0.030203,0.0022138,0.0097249,0.0037245,0,0,0.053242,-0.019529,0,0.019367,0,0,0,0.03069,0.0017267,0.0097249,7.4516,0.014047,0.025907,6.1448e-07,0.12,0.08,0
0.0066546,0.0053144,0.029924,0.001915,0.0095518,0.0033211,0,0,0.052968,-0.019856,0,0.01727,0,0,0,0.030313,0.0015266,0.0095518,6.6705,0.013797,0.02573,5.9651e-07,0.13,0.08,0
0.0071828,0.0056084,0.029649,0.0016655,0.0093945,0.0029571,0,0,0.052663,-0.020095,0,0.015377,0,0,0,0.029958,0.0013564,0.0093945,5.9668,0.01357,0.02555,5.7947e-07,0.14,0.08,0
0.0077079,0.0058846,0.029383,0.0014562,0.0092518,0.0026293,0,0,0.052341,-0.020268,0,0.013673,0,0,0,0.029628,0.0012108,0.0092518,5.332,0.013364,0.025372,5.6354e-07,0.15,0.08,0
0.0082297,0.0061438,0.029129,0.0012799,0.0091225,0.0023342,0,0,0.052015,-0.020391,0,0.012138,0,0,0,0.029323,0.0010856,0.0091225,4.7582,0.013177,0.025199,5.4882e-07,0.16,0.08,0
0.0087482,0.0063868,0.028888,0.0011307,0.0090056,0.0020683,0,0,0.051694,-0.020475,0,0.010755,0,0,0,0.029041,0.00097744,0.0090056,4.2382,0.013008,0.025034,5.3529e-07,0.17,0.08,0
0.0092636,0.0066143,0.028662,0.0010039,0.0088999,0.0018284,0,0,0.051382,-0.020529,0,0.0095079,0,0,0,0.028783,0.00088356,0.0088999,3.7659,0.012855,0.024879,5.2295e-07,0.18,0.08,0
0.0097758,0.0068271,0.028452,0.00089572,0.0088044,0.0016116,0,0,0.051084,-0.020563,0,0.0083804,0,0,0,0.028546,0.00080179,0.0088044,3.3357,0.012717,0.024734,5.1173e-07,0.19,0.08,0
0.010285,0.0070258,0.028258,0.00080307,0.0087182,0.0014151,0,0,0.050803,-0.020579,0,0.0073586,0,0,0,0.02833,0.00073032,0.0087182,2.9429,0.012593,0.024599,5.0156e-07,0.2,0.08,0
0.010792,0.007211,0.028078,0.00072346,0.0086406,0.0012366,0,0,0.050539,-0.020584,0,0.0064303,0,0,0,0.028134,0.00066767,0.0086406,2.5831,0.012481,0.024474,4.9237e-07,0.21,0.08,0
0.011296,0.0073834,0.027914,0.00065485,0.0085707,0.0010739,0,0,0.050293,-0.020581,0,0.0055843,0,0,0,0.027956,0.00061261,0.0085707,2.2526,0.01238,0.02436,4.841e-07,0.22,0.08,0
0.011798,0.0075435,0.027764,0.00059557,0.0085079,0.00092518,0,0,0.050066,-0.020572,0,0.004811,0,0,0,0.027796,0.0005641,0.0085079,1.9481,0.012289,0.024256,4.7668e-07,0.23,0.08,0
0.012297,0.0076918,0.027628,0.00054423,0.0084516,0.00078877,0,0,0.049858,-0.020559,0,0.0041016,0,0,0,0.027651,0.00052128,0.0084516,1.6668,0.012208,0.024161,4.7004e-07,0.24,0.08,0
0.012795,0.0078288,0.027505,0.00049965,0.0084012,0.00066322,0,0,0.049668,-0.020544,0,0.0034487,0,0,0,0.027521,0.00048338,0.0084012,1.406,0.012135,0.024076,4.6412e-07,0.25,0.08,0
0.013291,0.007955,0.027394,0.00046087,0.0083563,0.00054726,0,0,0.049497,-0.020528,0,0.0028458,0,0,0,0.027405,0.00044975,0.0083563,1.1636,0.01207,0.023999,4.5886e-07,0.26,0.08,0
0.013785,0.0080708,0.027294,0.00042704,0.0083164,0.00043978,0,0,0.049342,-0.020512,0,0.0022868,0,0,0,0.027301,0.00041985,0.0083164,0.93751,0.012013,0.023931,4.5422e-07,0.27,0.08,0
0.014278,0.0081766,0.027206,0.00039745,0.008281,0.0003398,0,0,0.049205,-0.020497,0,0.0017669,0,0,0,0.02721,0.00039315,0.008281,0.72606,0.011961,0.023871,4.5016e-07,0.28,0.08,0
0.014769,0.0082729,0.027128,0.00037148,0.0082499,0.00024647,0,0,0.049083,-0.020484,0,0.0012817,0,0,0,0.02713,0.00036921,0.0082499,0.52773,0.011917,0.02382,4.4663e-07,0.29,0.08,0
0.015259,0.0083599,0.02706,0.00034859,0.0082226,0.00015907,0,0,0.048978,-0.020473,0,0.00082717,0,0,0,0.027061,0.00034764,0.0082226,0.34119,0.011877,0.023775,4.4359e-07,0.3,0.08,0
0.015748,0.0084381,0.027002,0.00032828,0.008199,7.6964e-05,0,0,0.048887,-0.020464,0,0.00040021,0,0,0,0.027002,0.00032806,0.008199,0.16532,0.011843,0.023738,4.4103e-07,0.31,0.08,0
0.016237,0.0085078,0.026952,0.00031012,0.0081786,-3.9089e-07,0,0,0.048811,-0.020458,0,-2.0326e-06,0,0,0,0.026952,0.00031012,0.0081786,-0.00084064,0.011814,0.023708,4.389e-07,0.32,0.08,0
0.016725,0.0085694,0.026911,0.00029373,0.0081613,-7.3444e-05,0,0,0.048748,-0.020456,0,-0.00038191,0,0,0,0.026911,0.00029353,0.0081613,-0.1581,0.011789,0.023685,4.3719e-07,0.33,0.08,0
0.017212,0.0086231,0.026877,0.00027874,0.0081468,-0.00014257,0,0,0.048699,-0.020457,0,-0.00074136,0,0,0,0.026878,0.00027798,0.0081468,-0.3071,0.011768,0.023668,4.3587e-07,0.34,0.08,0
0.017699,0.0086693,0.026852,0.00026482,0.0081349,-0.00020807,0,0,0.048663,-0.020462,0,-0.001082,0,0,0,0.026853,0.00026319,0.0081349,-0.44836,0.011751,0.023658,4.3492e-07,0.35,0.08,0
0.018185,0.0087083,0.026833,0.00025166,0.0081254,-0.00027017,0,0,0.04864,-0.020472,0,-0.0014049,0,0,0,0.026836,0.00024891,0.0081254,-0.58227,0.011737,0.023654,4.3432e-07,0.36,0.08,0
0.018672,0.0087405,0.026821,0.00023898,0.0081181,-0.00032905,0,0,0.048628,-0.020486,0,-0.001711,0,0,0,0.026825,0.0002349,0.0081181,-0.70909,0.011726,0.023655,4.3406e-07,0.37,0.08,0
0.019158,0.008766,0.026816,0.00022651,0.0081128,-0.0003848,0,0,0.048628,-0.020504,0,-0.002001,0,0,0,0.026822,0.00022094,0.0081128,-0.82895,0.011718,0.023663,4.3413e-07,0.38,0.08,0
0.019644,0.0087854,0.026817,0.000214,0.0081093,-0.00043749,0,0,0.04864,-0.020528,0,-0.002275,0,0,0,0.026824,0.0002068,0.0081093,-0.9419,0.011713,0.023677,4.345e-07,0.39,0.08,0
0.02013,0.0087989,0.026824,0.00020122,0.0081075,-0.00048711,0,0,0.048662,-0.020556,0,-0.002533,0,0,0,0.026833,0.00019231,0.0081075,-1.0479,0.011711,0.023696,4.3517e-07,0.4,0.08,0
0.020617,0.0088068,0.026836,0.00018797,0.0081072,-0.00053361,0,0,0.048695,-0.02059,0,-0.0027747,0,0,0,0.026847,0.00017729,0.0081072,-1.1467,0.01171,0.02372,4.3612e-07,0.41,0.08,0
0.021104,0.0088094,0.026853,0.00017405,0.0081082,-0.00057689,0,0,0.048738,-0.020629,0,-0.0029998,0,0,0,0.026866,0.00016159,0.0081082,-1.2381,0.011712,0.02375,4.3735e-07,0.42,0.08,0
0.021592,0.0088071,0.026876,0.00015931,0.0081105,-0.00061682,0,0,0.04879,-0.020673,0,-0.0032074,0,0,0,0.02689,0.00014508,0.0081105,-1.3219,0.011715,0.023785,4.3882e-07,0.43,0.08,0
0.02208,0.0088003,0.026903,0.00014359,0.0081139,-0.00065322,0,0,0.048851,-0.020723,0,-0.0033968,0,0,0,0.026919,0.00012766,0.0081139,-1.3976,0.01172,0.023824,4.4054e-07,0.44,0.08,0
0.022569,0.0087893,0.026934,0.0001268,0.0081183,-0.00068591,0,0,0.048921,-0.020778,0,-0.0035667,0,0,0,0.026952,0.00010926,0.0081183,-1.4647,0.011726,0.023868,4.4249e-07,0.45,0.08,0
0.023059,0.0087744,0.026969,0.00010883,0.0081234,-0.00071465,0,0,0.048999,-0.020838,0,-0.0037162,0,0,0,0.026988,8.9829e-05,0.0081234,-1.523,0.011734,0.023916,4.4464e-07,0.46,0.08,0
0.023549,0.008756,0.027008,8.9644e-05,0.0081293,-0.0007392,0,0,0.049085,-0.020903,0,-0.0038438,0,0,0,0.027028,6.936e-05,0.0081293,-1.5718,0.011742,0.023968,4.4699e-07,0.47,0.08,0
0.02404,0.0087346,0.02705,6.9223e-05,0.0081357,-0.00075931,0,0,0.049177,-0.020973,0,-0.0039484,0,0,0,0.027071,4.7871e-05,0.0081357,-1.6108,0.011752,0.024023,4.4951e-07,0.48,0.08,0
0.024533,0.0087105,0.027094,4.7588e-05,0.0081426,-0.00077474,0,0,0.049275,-0.021047,0,-0.0040286,0,0,0,0.027117,2.5414e-05,0.0081426,-1.6394,0.011761,0.024081,4.5218e-07,0.49,0.08,0
0.025026,0.0086841,0.027141,2.4796e-05,0.0081499,-0.00078522,0,0,0.049378,-0.021125,0,-0.0040831,0,0,0,0.027164,2.0774e-06,0.0081499,-1.6573,0.011772,0.024142,4.5498e-07,0.5,0.08,0
0.02552,0.0086559,0.02719,9.4762e-07,0.0081574,-0.00079053,0,0,0.049486,-0.021207,0,-0.0041108,0,0,0,0.027213,-2.2018e-05,0.0081574,-1.664,0.011783,0.024205,4.5789e-07,0.51,0.08,0
0.026016,0.0086261,0.027241,-2.382e-05,0.008165,-0.00079046,0,0,0.049596,-0.021291,0,-0.0041104,0,0,0,0.027263,-4.6718e-05,0.008165,-1.6593,0.011794,0.02427,4.6088e-07,0.52,0.08,0
0.026512,0.0085953,0.027292,-4.9329e-05,0.0081727,-0.00078484,0,0,0.049709,-0.021377,0,-0.0040812,0,0,0,0.027314,-7.184e-05,0.0081727,-1.6429,0.011805,0.024335,4.6391e-07,0.53,0.08,0
0.02701,0.0085639,0.027343,-7.5366e-05,0.0081804,-0.00077352,0,0,0.049824,-0.021465,0,-0.0040223,0,0,0,0.027365,-9.7171e-05,0.0081804,-1.6147,0.011816,0.0244,4.6697e-07,0.54,0.08,0
0.027509,0.0085322,0.027395,-0.00010168,0.008188,-0.00075643,0,0,0.049938,-0.021553,0,-0.0039334,0,0,0,0.027416,-0.00012248,0.008188,-1.5746,0.011827,0.024466,4.7001e-07,0.55,0.08,0
0.028008,0.0085007,0.027446,-0.000128,0.0081953,-0.00073353,0,0,0.050051,-0.021641,0,-0.0038143,0,0,0,0.027465,-0.0001475,0.0081953,-1.5228,0.011838,0.02453,4.7302e-07,0.56,0.08,0
0.02851,0.0084698,0.027495,-0.00015401,0.0082025,-0.00070485,0,0,0.050162,-0.021727,0,-0.0036652,0,0,0,0.027513,-0.00017196,0.0082025,-1.4593,0.011848,0.024592,4.7596e-07,0.57,0.08,0
0.029012,0.0084398,0.027544,-0.00017938,0.0082093,-0.0006705,0,0,0.050269,-0.021811,0,-0.0034866,0,0,0,0.02756,-0.00019559,0.0082093,-1.3847,0.011858,0.024652,4.7879e-07,0.58,0.08,0
0.029515,0.0084111,0.027589,-0.00020379,0.0082157,-0.00063064,0,0,0.050372,-0.021891,0,-0.0032793,0,0,0,0.027604,-0.00021809,0.0082157,-1.2992,0.011867,0.024709,4.8149e-07,0.59,0.08,0
0.030019,0.0083842,0.027632,-0.00022689,0.0082217,-0.00058554,0,0,0.050468,-0.021966,0,-0.0030448,0,0,0,0.027645,-0.00023919,0.0082217,-1.2035,0.011876,0.024762,4.8402e-07,0.6,0.08,0
0.030524,0.0083593,0.027672,-0.00024833,0.0082272,-0.00053551,0,0,0.050557,-0.022036,0,-0.0027846,0,0,0,0.027682,-0.0002586,0.0082272,-1.0984,0.011884,0.024812,4.8636e-07,0.61,0.08,0
0.03103,0.0083367,0.027708,-0.00026778,0.0082322,-0.00048094,0,0,0.050638,-0.0221,0,-0.0025009,0,0,0,0.027717,-0.00027605,0.0082322,-0.9846,0.011891,0.024856,4.8847e-07,0.62,0.08,0
0.031537,0.0083167,0.02774,-0.00028494,0.0082366,-0.00042232,0,0,0.05071,-0.022156,0,-0.0021961,0,0,0,0.027747,-0.0002913,0.0082366,-0.86314,0.011897,0.024895,4.9034e-07,0.63,0.08,0
0.032044,0.0082995,0.027768,-0.00029951,0.0082405,-0.00036017,0,0,0.050771,-0.022204,0,-0.0018729,0,0,0,0.027772,-0.00030413,0.0082405,-0.73507,0.011903,0.024928,4.9193e-07,0.64,0.08,0
0.032552,0.0082855,0.02779,-0.00031123,0.0082438,-0.00029508,0,0,0.050821,-0.022243,0,-0.0015344,0,0,0,0.027794,-0.00031433,0.0082438,-0.60155,0.011908,0.024955,4.9324e-07,0.65,0.08,0
0.033061,0.0082747,0.027808,-0.0003199,0.0082465,-0.00022771,0,0,0.05086,-0.022273,0,-0.0011841,0,0,0,0.02781,-0.00032174,0.0082465,-0.4638,0.011912,0.024975,4.9424e-07,0.66,0.08,0
0.03357,0.0082673,0.02782,-0.00032534,0.0082485,-0.00015874,0,0,0.050887,-0.022292,0,-0.00082546,0,0,0,0.027821,-0.00032624,0.0082485,-0.32314,0.011914,0.024989,4.9493e-07,0.67,0.08,0
0.034079,0.0082633,0.027827,-0.00032744,0.0082499,-8.8896e-05,0,0,0.050901,-0.022301,0,-0.00046226,0,0,0,0.027827,-0.00032772,0.0082499,-0.1809,0.011917,0.024996,4.9528e-07,0.68,0.08,0
0.034588,0.008263,0.027828,-0.00032612,0.0082507,-1.8912e-05,0,0,0.050902,-0.0223,0,-9.8343e-05,0,0,0,0.027828,-0.00032614,0.0082507,-0.038487,0.011918,0.024995,4.9531e-07,0.69,0.08,0
0.035097,0.0082661,0.027824,-0.00032138,0.0082508,5.0459e-05,0,0,0.050891,-0.022288,0,0.00026239,0,0,0,0.027824,-0.00032147,0.0082508,0.10272,0.011918,0.024988,4.95e-07,0.7,0.08,0
0.035605,0.0082729,0.027814,-0.00031326,0.0082504,0.00011847,0,0,0.050867,-0.022265,0,0.00061606,0,0,0,0.027815,-0.00031375,0.0082504,0.24132,0.011917,0.024973,4.9436e-07,0.71,0.08,0
0.036114,0.0082831,0.027799,-0.00030184,0.0082492,0.0001844,0,0,0.05083,-0.022233,0,0.00095887,0,0,0,0.0278,-0.00030305,0.0082492,0.37595,0.011916,0.024952,4.934e-07,0.72,0.08,0
0.036622,0.0082966,0.027779,-0.00028728,0.0082475,0.00024753,0,0,0.050782,-0.022191,0,0.0012872,0,0,0,0.027781,-0.00028947,0.0082475,0.50527,0.011913,0.024924,4.9213e-07,0.73,0.08,0
0.03713,0.0083134,0.027754,-0.00026978,0.0082453,0.00030721,0,0,0.050723,-0.022139,0,0.0015975,0,0,0,0.027757,-0.00027315,0.0082453,0.62801,0.01191,0.02489,4.9057e-07,0.74,0.08,0
0.037637,0.0083332,0.027724,-0.00024958,0.0082424,0.00036282,0,0,0.050653,-0.022079,0,0.0018867,0,0,0,0.027729,-0.00025428,0.0082424,0.74296,0.011906,0.024849,4.8873e-07,0.75,0.08,0
0.038143,0.0083559,0.02769,-0.00022694,0.0082391,0.0004138,0,0,0.050574,-0.022012,0,0.0021518,0,0,0,0.027697,-0.00023308,0.0082391,0.84901,0.011901,0.024804,4.8663e-07,0.76,0.08,0
0.038648,0.0083811,0.027653,-0.00020219,0.0082352,0.00045967,0,0,0.050486,-0.021937,0,0.0023903,0,0,0,0.027661,-0.00020977,0.0082352,0.94515,0.011895,0.024753,4.843e-07,0.77,0.08,0
0.039152,0.0084087,0.027612,-0.00017564,0.0082309,0.00049998,0,0,0.050391,-0.021857,0,0.0025999,0,0,0,0.027621,-0.00018464,0.0082309,1.0305,0.011889,0.024698,4.8178e-07,0.78,0.08,0
0.039656,0.0084382,0.027568,-0.00014766,0.0082262,0.00053441,0,0,0.050289,-0.021772,0,0.0027789,0,0,0,0.027578,-0.00015796,0.0082262,1.1042,0.011882,0.024639,4.7908e-07,0.79,0.08,0
0.040158,0.0084695,0.027522,-0.00011859,0.0082211,0.00056268,0,0,0.050183,-0.021683,0,0.002926,0,0,0,0.027534,-0.00013004,0.0082211,1.1657,0.011875,0.024576,4.7624e-07,0.8,0.08,0
0.04066,0.0085021,0.027474,-8.8791e-05,0.0082157,0.00058461,0,0,0.050073,-0.021592,0,0.00304,0,0,0,0.027487,-0.00010119,0.0082157,1.2145,0.011867,0.024512,4.7328e-07,0.81,0.08,0
0.04116,0.0085357,0.027425,-5.8625e-05,0.00821,0.00060007,0,0,0.04996,-0.021498,0,0.0031204,0,0,0,0.027438,-7.172e-05,0.00821,1.2502,0.011859,0.024445,4.7026e-07,0.82,0.08,0
0.041659,0.0085701,0.027376,-2.843e-05,0.0082041,0.00060904,0,0,0.049846,-0.021405,0,0.003167,0,0,0,0.027389,-4.1959e-05,0.0082041,1.2725,0.01185,0.024377,4.6718e-07,0.83,0.08,0
0.042157,0.0086048,0.027325,1.4685e-06,0.0081981,0.00061156,0,0,0.049731,-0.021311,0,0.0031801,0,0,0,0.027339,-1.2212e-05,0.0081981,1.2815,0.011842,0.024309,4.641e-07,0.84,0.08,0
0.042653,0.0086394,0.027276,3.0766e-05,0.008192,0.00060773,0,0,0.049618,-0.021219,0,0.0031602,0,0,0,0.027289,1.7217e-05,0.008192,1.2772,0.011833,0.024242,4.6104e-07,0.85,0.08,0
0.043149,0.0086737,0.027227,5.9183e-05,0.0081858,0.00059772,0,0,0.049507,-0.021129,0,0.0031081,0,0,0,0.02724,4.6039e-05,0.0081858,1.2597,0.011824,0.024175,4.5802e-07,0.86,0.08,0
0.043644,0.0087073,0.027179,8.6469e-05,0.0081798,0.00058175,0,0,0.049399,-0.021043,0,0.0030251,0,0,0,0.027192,7.3983e-05,0.0081798,1.2295,0.011815,0.02411,4.5509e-07,0.87,0.08,0
0.044137,0.0087399,0.027134,0.0001124,0.0081738,0.0005601,0,0,0.049295,-0.02096,0,0.0029125,0,0,0,0.027145,0.00010079,0.0081738,1.187,0.011807,0.024047,4.5226e-07,0.88,0.08,0
0.044629,0.0087711,0.02709,0.00013678,0.008168,0.0005331,0,0,0.049197,-0.020881,0,0.0027721,0,0,0,0.0271,0.00012624,0.008168,1.1326,0.011798,0.023987,4.4957e-07,0.89,0.08,0
0.045121,0.0088007,0.027049,0.00015945,0.0081625,0.00050109,0,0,0.049105,-0.020808,0,0.0026057,0,0,0,0.027058,0.00015011,0.0081625,1.0672,0.01179,0.02393,4.4703e-07,0.9,0.08,0
0.045611,0.0088283,0.027011,0.00018026,0.0081572,0.00046446,0,0,0.049019,-0.02074,0,0.0024152,0,0,0,0.027019,0.00017222,0.0081572,0.99145,0.011783,0.023877,4.4467e-07,0.91,0.08,0
0.046101,0.0088537,0.026976,0.0001991,0.0081524,0.00042363,0,0,0.04894,-0.020679,0,0.0022029,0,0,0,0.026982,0.0001924,0.0081524,0.90618,0.011776,0.023829,4.4251e-07,0.92,0.08,0
0.04659,0.0088768,0.026944,0.00021588,0.008148,0.00037903,0,0,0.04887,-0.020623,0,0.001971,0,0,0,0.026949,0.00021051,0.008148,0.8123,0.011769,0.023785,4.4057e-07,0.93,0.08,0
0.047079,0.0088972,0.026916,0.00023054,0.008144,0.00033111,0,0,0.048808,-0.020575,0,0.0017218,0,0,0,0.02692,0.00022643,0.008144,0.71077,0.011764,0.023747,4.3885e-07,0.94,0.08,0
0.047566,0.0089147,0.026892,0.00024301,0.0081406,0.00028033,0,0,0.048754,-0.020534,0,0.0014577,0,0,0,0.026895,0.00024006,0.0081406,0.60261,0.011759,0.023713,4.3738e-07,0.95,0.08,0
0.048054,0.0089294,0.026873,0.00025326,0.0081377,0.00022715,0,0,0.04871,-0.0205,0,0.0011812,0,0,0,0.026874,0.00025132,0.0081377,0.48887,0.011754,0.023686,4.3616e-07,0.96,0.08,0
0.048541,0.0089408,0.026857,0.00026125,0.0081355,0.00017205,0,0,0.048676,-0.020473,0,0.00089463,0,0,0,0.026858,0.00026014,0.0081355,0.37062,0.011751,0.023664,4.352e-07,0.97,0.08,0
0.049027,0.0089491,0.026846,0.00026698,0.0081338,0.0001155,0,0,0.048651,-0.020454,0,0.0006006,0,0,0,0.026846,0.00026647,0.0081338,0.24898,0.011749,0.023649,4.3452e-07,0.98,0.08,0
0.049514,0.0089541,0.026839,0.00027041,0.0081328,5.7991e-05,0,0,0.048636,-0.020442,0,0.00030155,0,0,0,0.026839,0.00027029,0.0081328,0.12506,0.011747,0.02364,4.341e-07,0.99,0.08,0
0.05,0.0089558,0.026837,0.00027156,0.0081325,3.2151e-05,0,0,0.048631,-0.020438,0,0.00016718,0,0,0,0.026837,0.00027152,0.0081325,0.069342,0.011747,0.023636,4.3396e-07,1,0.08,0
0,0,0.029668,0.012715,0.012715,0.0080121,0,0,0.044078,1.6263e-18,0,0.041663,0,0,0,0.032855,0.0095275,0.012715,21.693,0.018366,0.021909,5.0178e-07,0,0.09,0
0.00044078,0.00041663,0.029595,0.011673,0.01238,0.0079937,0,0,0.044758,-0.0018394,0,0.041567,0,0,0,0.032642,0.0086255,0.01238,20.867,0.017883,0.022377,5.2125e-07,0.01,0.09,0
0.00089515,0.00084572,0.029927,0.010646,0.012172,0.0080184,0,0,0.046163,-0.003967,0,0.041696,0,0,0,0.032826,0.0077473,0.012172,19.876,0.017582,0.023185,5.6232e-07,0.02,0.09,0
0.001364,0.0012823,0.030242,0.0095341,0.011933,0.0079098,0,0,0.047605,-0.0062371,0,0.041131,0,0,0,0.032918,0.0068585,0.011933,18.689,0.017236,0.023929,5.9845e-07,0.03,0.09,0
0.0018472,0.0017208,0.030512,0.0084094,0.011676,0.0076679,0,0,0.048973,-0.0084945,0,0.039873,0,0,0,0.032912,0.0060098,0.011676,17.377,0.016866,0.024564,6.2681e-07,0.04,0.09,0
0.0023435,0.0021555,0.030714,0.0073333,0.011414,0.0073121,0,0,0.050179,-0.01061,0,0.038023,0,0,0,0.032812,0.0052348,0.011414,16.013,0.016487,0.025066,6.4612e-07,0.05,0.09,0
0.0028508,0.0025816,0.030834,0.0063467,0.011154,0.0068731,0,0,0.051168,-0.0125,0,0.03574,0,0,0,0.032631,0.0045495,0.011154,14.654,0.016112,0.025431,6.5654e-07,0.06,0.09,0
0.0033669,0.0029952,0.030872,0.00547,0.010903,0.006384,0,0,0.051921,-0.014125,0,0.033197,0,0,0,0.032387,0.0039559,0.010903,13.343,0.015748,0.025672,6.5921e-07,0.07,0.09,0
0.0038892,0.0033937,0.030836,0.0047077,0.010663,0.0058738,0,0,0.052449,-0.015484,0,0.030544,0,0,0,0.032095,0.003448,0.010663,12.105,0.015402,0.025808,6.5571e-07,0.08,0.09,0
0.0044158,0.0037751,0.030736,0.0040542,0.010437,0.0053651,0,0,0.052777,-0.016595,0,0.027898,0,0,0,0.031774,0.0030158,0.010437,10.954,0.015076,0.025859,6.4771e-07,0.09,0.09,0
0.0049448,0.0041386,0.030588,0.0034986,0.010226,0.0048734,0,0,0.052941,-0.017491,0,0.025341,0,0,0,0.031438,0.0026486,0.010226,9.8945,0.014771,0.025847,6.3667e-07,0.1,0.09,0
0.0054746,0.0044836,0.030404,0.0030283,0.01003,0.0044082,0,0,0.052973,-0.018204,0,0.022923,0,0,0,0.031096,0.002336,0.01003,8.9256,0.014487,0.025789,6.2379e-07,0.11,0.09,0
0.0060043,0.0048103,0.030198,0.0026309,0.0098486,0.0039746,0,0,0.052908,-0.018766,0,0.020668,0,0,0,0.030759,0.0020692,0.0098486,8.0427,0.014226,0.025699,6.1e-07,0.12,0.09,0
0.0065328,0.005119,0.029978,0.0022948,0.0096819,0.0035744,0,0,0.05277,-0.019207,0,0.018587,0,0,0,0.030432,0.0018407,0.0096819,7.2397,0.013985,0.025589,5.9594e-07,0.13,0.09,0
0.0070597,0.00541,0.029753,0.0020102,0.009529,0.0032075,0,0,0.052583,-0.019549,0,0.016679,0,0,0,0.030119,0.0016442,0.009529,6.5098,0.013764,0.025465,5.8207e-07,0.14,0.09,0
0.0075845,0.005684,0.029528,0.0017685,0.0093891,0.0028724,0,0,0.052362,-0.019813,0,0.014937,0,0,0,0.029822,0.0014744,0.0093891,5.8461,0.013562,0.025336,5.6869e-07,0.15,0.09,0
0.0081069,0.0059416,0.029308,0.0015628,0.0092613,0.0025672,0,0,0.052122,-0.020016,0,0.013349,0,0,0,0.029544,0.0013272,0.0092613,5.2421,0.013377,0.025204,5.5597e-07,0.16,0.09,0
0.0086269,0.0061834,0.029095,0.001387,0.0091447,0.0022893,0,0,0.051872,-0.02017,0,0.011904,0,0,0,0.029283,0.0011991,0.0091447,4.6915,0.013209,0.025074,5.4402e-07,0.17,0.09,0
0.0091444,0.0064101,0.028892,0.0012364,0.0090386,0.0020364,0,0,0.051619,-0.020286,0,0.010589,0,0,0,0.029041,0.0010873,0.0090386,4.1887,0.013056,0.024948,5.329e-07,0.18,0.09,0
0.0096593,0.0066222,0.0287,0.001107,0.008942,0.0018059,0,0,0.05137,-0.020371,0,0.0093909,0,0,0,0.028817,0.00098933,0.008942,3.7288,0.012916,0.024826,5.226e-07,0.19,0.09,0
0.010172,0.0068205,0.028519,0.0009955,0.0088543,0.0015957,0,0,0.051128,-0.020433,0,0.0082978,0,0,0,0.028611,0.00090329,0.0088543,3.3071,0.01279,0.024711,5.1312e-07,0.2,0.09,0
0.010682,0.0070056,0.02835,0.00089913,0.0087746,0.0014036,0,0,0.050895,-0.020476,0,0.0072988,0,0,0,0.028421,0.00082755,0.0087746,2.9195,0.012675,0.024602,5.0443e-07,0.21,0.09,0
0.01119,0.0071778,0.028192,0.00081566,0.0087024,0.0012276,0,0,0.050674,-0.020506,0,0.0063837,0,0,0,0.028247,0.00076072,0.0087024,2.5624,0.01257,0.024501,4.965e-07,0.22,0.09,0
0.011695,0.0073379,0.028047,0.0007432,0.0086371,0.0010661,0,0,0.050466,-0.020524,0,0.0055435,0,0,0,0.028089,0.00070164,0.0086371,2.2325,0.012476,0.024407,4.8928e-07,0.23,0.09,0
0.012199,0.0074862,0.027913,0.00068017,0.008578,0.0009173,0,0,0.050271,-0.020534,0,0.00477,0,0,0,0.027944,0.00064931,0.008578,1.927,0.012391,0.02432,4.8273e-07,0.24,0.09,0
0.012701,0.0076233,0.02779,0.00062524,0.0085247,0.00077993,0,0,0.050091,-0.020539,0,0.0040557,0,0,0,0.027813,0.00060286,0.0085247,1.6432,0.012313,0.02424,4.7682e-07,0.25,0.09,0
0.013201,0.0077496,0.027679,0.00057726,0.0084768,0.00065271,0,0,0.049925,-0.020539,0,0.0033941,0,0,0,0.027694,0.00056155,0.0084768,1.3788,0.012244,0.024168,4.715e-07,0.26,0.09,0
0.013699,0.0078654,0.027577,0.00053528,0.0084337,0.00053451,0,0,0.049773,-0.020536,0,0.0027795,0,0,0,0.027588,0.00052472,0.0084337,1.1319,0.012182,0.024102,4.6673e-07,0.27,0.09,0
0.014196,0.0079714,0.027485,0.00049844,0.0083951,0.00042436,0,0,0.049634,-0.020531,0,0.0022067,0,0,0,0.027492,0.00049177,0.0083951,0.90065,0.012126,0.024043,4.6249e-07,0.28,0.09,0
0.014692,0.0080677,0.027403,0.00046601,0.0083607,0.00032137,0,0,0.04951,-0.020526,0,0.0016711,0,0,0,0.027407,0.00046218,0.0083607,0.68343,0.012077,0.023991,4.5874e-07,0.29,0.09,0
0.015186,0.0081549,0.02733,0.00043734,0.0083301,0.00022479,0,0,0.049399,-0.020521,0,0.0011689,0,0,0,0.027332,0.00043546,0.0083301,0.47889,0.012032,0.023946,4.5544e-07,0.3,0.09,0
0.01568,0.0082331,0.027265,0.00041185,0.008303,0.00013397,0,0,0.049301,-0.020517,0,0.00069665,0,0,0,0.027266,0.00041118,0.008303,0.28584,0.011993,0.023906,4.5259e-07,0.31,0.09,0
0.016172,0.0083029,0.027208,0.00038901,0.0082792,4.8338e-05,0,0,0.049216,-0.020515,0,0.00025136,0,0,0,0.027208,0.00038892,0.0082792,0.10327,0.011959,0.023873,4.5015e-07,0.32,0.09,0
0.016664,0.0083644,0.027159,0.00036836,0.0082584,-3.2587e-05,0,0,0.049143,-0.020514,0,-0.00016945,0,0,0,0.027159,0.00036832,0.0082584,-0.069691,0.011929,0.023846,4.4809e-07,0.33,0.09,0
0.017155,0.0084181,0.027118,0.00034945,0.0082403,-0.0001092,0,0,0.049082,-0.020516,0,-0.00056786,0,0,0,0.027119,0.00034901,0.0082403,-0.23373,0.011903,0.023825,4.4641e-07,0.34,0.09,0
0.017646,0.0084643,0.027084,0.00033189,0.0082247,-0.00018184,0,0,0.049034,-0.020521,0,-0.00094555,0,0,0,0.027085,0.00033066,0.0082247,-0.38942,0.01188,0.02381,4.4509e-07,0.35,0.09,0
0.018136,0.0085032,0.027056,0.0003153,0.0082115,-0.00025074,0,0,0.048997,-0.02053,0,-0.0013038,0,0,0,0.027059,0.00031295,0.0082115,-0.53717,0.011861,0.023801,4.4411e-07,0.36,0.09,0
0.018626,0.0085352,0.027035,0.00029932,0.0082004,-0.00031609,0,0,0.048971,-0.020543,0,-0.0016437,0,0,0,0.027039,0.00029559,0.0082004,-0.67726,0.011845,0.023797,4.4345e-07,0.37,0.09,0
0.019115,0.0085607,0.02702,0.00028364,0.0081912,-0.00037802,0,0,0.048956,-0.02056,0,-0.0019657,0,0,0,0.027026,0.0002783,0.0081912,-0.80986,0.011832,0.023799,4.4311e-07,0.38,0.09,0
0.019605,0.0085798,0.027012,0.00026795,0.0081838,-0.00043659,0,0,0.048952,-0.020581,0,-0.0022703,0,0,0,0.027019,0.00026083,0.0081838,-0.93502,0.011821,0.023807,4.4307e-07,0.39,0.09,0
0.020094,0.008593,0.027008,0.00025197,0.0081781,-0.00049179,0,0,0.048958,-0.020608,0,-0.0025573,0,0,0,0.027017,0.00024294,0.0081781,-1.0527,0.011813,0.02382,4.4333e-07,0.4,0.09,0
0.020584,0.0086006,0.02701,0.00023544,0.0081737,-0.0005436,0,0,0.048975,-0.02064,0,-0.0028267,0,0,0,0.027021,0.00022441,0.0081737,-1.1626,0.011806,0.023838,4.4386e-07,0.41,0.09,0
0.021074,0.0086028,0.027017,0.00021813,0.0081707,-0.0005919,0,0,0.049002,-0.020677,0,-0.0030779,0,0,0,0.02703,0.00020506,0.0081707,-1.2646,0.011802,0.023862,4.4467e-07,0.42,0.09,0
0.021564,0.0086001,0.02703,0.00019983,0.0081688,-0.00063656,0,0,0.049038,-0.020719,0,-0.0033101,0,0,0,0.027045,0.00018473,0.0081688,-1.3584,0.011799,0.02389,4.4573e-07,0.43,0.09,0
0.022055,0.0085928,0.027046,0.00018036,0.0081679,-0.00067739,0,0,0.049083,-0.020768,0,-0.0035224,0,0,0,0.027063,0.00016329,0.0081679,-1.4434,0.011798,0.023924,4.4704e-07,0.44,0.09,0
0.022546,0.0085812,0.027067,0.00015959,0.008168,-0.00071419,0,0,0.049137,-0.020822,0,-0.0037138,0,0,0,0.027086,0.00014065,0.008168,-1.5194,0.011798,0.023962,4.4858e-07,0.45,0.09,0
0.023037,0.0085658,0.027092,0.00013741,0.0081688,-0.00074672,0,0,0.0492,-0.020882,0,-0.003883,0,0,0,0.027112,0.00011674,0.0081688,-1.5857,0.011799,0.024005,4.5033e-07,0.46,0.09,0
0.02353,0.0085468,0.02712,0.00011375,0.0081702,-0.00077471,0,0,0.04927,-0.020947,0,-0.0040285,0,0,0,0.027142,9.1546e-05,0.0081702,-1.6418,0.011801,0.024052,4.5229e-07,0.47,0.09,0
0.024023,0.0085247,0.027152,8.8589e-05,0.0081722,-0.0007979,0,0,0.049348,-0.021017,0,-0.0041491,0,0,0,0.027176,6.5086e-05,0.0081722,-1.6873,0.011804,0.024102,4.5443e-07,0.48,0.09,0
0.024517,0.0084998,0.027187,6.1947e-05,0.0081747,-0.000816,0,0,0.049432,-0.021093,0,-0.0042432,0,0,0,0.027211,3.7422e-05,0.0081747,-1.7215,0.011808,0.024156,4.5673e-07,0.49,0.09,0
0.025011,0.0084726,0.027224,3.3893e-05,0.0081774,-0.00082874,0,0,0.049522,-0.021173,0,-0.0043095,0,0,0,0.027249,8.6571e-06,0.0081774,-1.7442,0.011812,0.024213,4.5917e-07,0.5,0.09,0
0.025507,0.0084435,0.027264,4.5453e-06,0.0081805,-0.00083588,0,0,0.049617,-0.021257,0,-0.0043466,0,0,0,0.027289,-2.1062e-05,0.0081805,-1.7547,0.011816,0.024272,4.6173e-07,0.51,0.09,0
0.026004,0.0084129,0.027305,-2.593e-05,0.0081838,-0.00083716,0,0,0.049716,-0.021345,0,-0.0043533,0,0,0,0.027331,-5.1549e-05,0.0081838,-1.7528,0.011821,0.024333,4.6439e-07,0.52,0.09,0
0.026502,0.0083813,0.027348,-5.7317e-05,0.0081871,-0.00083241,0,0,0.049818,-0.021435,0,-0.0043285,0,0,0,0.027373,-8.2578e-05,0.0081871,-1.7382,0.011826,0.024396,4.671e-07,0.53,0.09,0
0.027,0.0083489,0.027391,-8.9355e-05,0.0081905,-0.00082146,0,0,0.049922,-0.021528,0,-0.0042716,0,0,0,0.027416,-0.00011389,0.0081905,-1.7107,0.011831,0.024459,4.6986e-07,0.54,0.09,0
0.0275,0.0083163,0.027435,-0.00012174,0.0081939,-0.00080422,0,0,0.050026,-0.021621,0,-0.0041819,0,0,0,0.027458,-0.00014519,0.0081939,-1.6702,0.011836,0.024521,4.7261e-07,0.55,0.09,0
0.028001,0.0082839,0.027478,-0.00015413,0.0081972,-0.00078063,0,0,0.050131,-0.021714,0,-0.0040593,0,0,0,0.0275,-0.00017617,0.0081972,-1.6169,0.01184,0.024584,4.7535e-07,0.56,0.09,0
0.028503,0.0082521,0.027521,-0.00018615,0.0082004,-0.00075074,0,0,0.050233,-0.021805,0,-0.0039038,0,0,0,0.027541,-0.00020648,0.0082004,-1.5509,0.011845,0.024644,4.7803e-07,0.57,0.09,0
0.029005,0.0082213,0.027563,-0.0002174,0.0082035,-0.00071464,0,0,0.050333,-0.021894,0,-0.0037161,0,0,0,0.027581,-0.00023578,0.0082035,-1.4726,0.01185,0.024703,4.8062e-07,0.58,0.09,0
0.029509,0.0081918,0.027602,-0.00024747,0.0082064,-0.00067252,0,0,0.050429,-0.02198,0,-0.0034971,0,0,0,0.027619,-0.0002637,0.0082064,-1.3825,0.011854,0.024759,4.8309e-07,0.59,0.09,0
0.030014,0.0081641,0.02764,-0.00027593,0.0082091,-0.00062464,0,0,0.05052,-0.022061,0,-0.0032481,0,0,0,0.027654,-0.0002899,0.0082091,-1.2812,0.011858,0.024811,4.8541e-07,0.6,0.09,0
0.03052,0.0081384,0.027674,-0.00030236,0.0082116,-0.00057135,0,0,0.050603,-0.022136,0,-0.002971,0,0,0,0.027686,-0.00031402,0.0082116,-1.1695,0.011861,0.024859,4.8755e-07,0.61,0.09,0
0.031026,0.0081152,0.027706,-0.00032635,0.0082138,-0.00051309,0,0,0.050679,-0.022204,0,-0.002668,0,0,0,0.027715,-0.00033574,0.0082138,-1.0482,0.011865,0.024902,4.8949e-07,0.62,0.09,0
0.031533,0.0080946,0.027734,-0.00034752,0.0082159,-0.00045035,0,0,0.050746,-0.022265,0,-0.0023418,0,0,0,0.027741,-0.00035474,0.0082159,-0.91856,0.011867,0.02494,4.9119e-07,0.63,0.09,0
0.032041,0.008077,0.027758,-0.0003655,0.0082176,-0.00038372,0,0,0.050804,-0.022316,0,-0.0019954,0,0,0,0.027763,-0.00037074,0.0082176,-0.78158,0.01187,0.024973,4.9264e-07,0.64,0.09,0
0.032549,0.0080625,0.027777,-0.00037999,0.0082191,-0.00031386,0,0,0.05085,-0.022358,0,-0.0016321,0,0,0,0.02778,-0.00038349,0.0082191,-0.63856,0.011872,0.024998,4.9381e-07,0.65,0.09,0
0.033058,0.0080514,0.027792,-0.00039073,0.0082203,-0.00024146,0,0,0.050886,-0.022389,0,-0.0012556,0,0,0,0.027794,-0.0003928,0.0082203,-0.49086,0.011874,0.025018,4.9469e-07,0.66,0.09,0
0.033567,0.0080438,0.027802,-0.0003975,0.0082212,-0.00016729,0,0,0.050909,-0.022409,0,-0.0008699,0,0,0,0.027803,-0.00039849,0.0082212,-0.33988,0.011875,0.02503,4.9526e-07,0.67,0.09,0
0.034076,0.0080398,0.027807,-0.00040015,0.0082219,-9.2118e-05,0,0,0.05092,-0.022417,0,-0.00047902,0,0,0,0.027807,-0.00040045,0.0082219,-0.18712,0.011876,0.025036,4.9552e-07,0.68,0.09,0
0.034585,0.0080394,0.027806,-0.0003986,0.0082223,-1.6767e-05,0,0,0.050918,-0.022414,0,-8.7186e-05,0,0,0,0.027806,-0.00039861,0.0082223,-0.03406,0.011877,0.025034,4.9546e-07,0.69,0.09,0
0.035095,0.0080427,0.027801,-0.00039285,0.0082224,5.7948e-05,0,0,0.050904,-0.0224,0,0.00030133,0,0,0,0.027801,-0.00039297,0.0082224,0.11776,0.011877,0.025025,4.9508e-07,0.7,0.09,0
0.035603,0.0080497,0.027791,-0.00038293,0.0082223,0.00013121,0,0,0.050878,-0.022374,0,0.00068229,0,0,0,0.027791,-0.00038354,0.0082223,0.26683,0.011877,0.025008,4.9438e-07,0.71,0.09,0
0.036112,0.0080603,0.027775,-0.00036897,0.0082219,0.00020222,0,0,0.050839,-0.022336,0,0.0010516,0,0,0,0.027777,-0.00037042,0.0082219,0.41165,0.011876,0.024985,4.9337e-07,0.72,0.09,0
0.03662,0.0080743,0.027755,-0.00035115,0.0082212,0.00027021,0,0,0.050788,-0.022288,0,0.0014051,0,0,0,0.027758,-0.00035375,0.0082212,0.55077,0.011875,0.024955,4.9207e-07,0.73,0.09,0
0.037128,0.0080916,0.027731,-0.00032971,0.0082203,0.00033446,0,0,0.050727,-0.02223,0,0.0017392,0,0,0,0.027735,-0.0003337,0.0082203,0.6828,0.011874,0.024918,4.9048e-07,0.74,0.09,0
0.037635,0.0081121,0.027702,-0.00030496,0.0082191,0.0003943,0,0,0.050655,-0.022163,0,0.0020504,0,0,0,0.027707,-0.00031051,0.0082191,0.80644,0.011872,0.024875,4.8862e-07,0.75,0.09,0
0.038141,0.0081354,0.027669,-0.00027722,0.0082176,0.00044911,0,0,0.050575,-0.022087,0,0.0023354,0,0,0,0.027677,-0.00028444,0.0082176,0.92045,0.01187,0.024827,4.8652e-07,0.76,0.09,0
0.038646,0.0081614,0.027633,-0.00024689,0.0082159,0.00049838,0,0,0.050485,-0.022003,0,0.0025916,0,0,0,0.027642,-0.00025579,0.0082159,1.0238,0.011867,0.024774,4.8419e-07,0.77,0.09,0
0.039151,0.0081898,0.027594,-0.00021436,0.008214,0.00054162,0,0,0.050389,-0.021914,0,0.0028164,0,0,0,0.027605,-0.00022491,0.008214,1.1154,0.011865,0.024716,4.8168e-07,0.78,0.09,0
0.039654,0.0082203,0.027553,-0.00018008,0.0082118,0.00057849,0,0,0.050287,-0.021819,0,0.0030081,0,0,0,0.027565,-0.00019214,0.0082118,1.1945,0.011862,0.024654,4.79e-07,0.79,0.09,0
0.040156,0.0082525,0.027509,-0.00014448,0.0082095,0.00060868,0,0,0.05018,-0.02172,0,0.0031651,0,0,0,0.027523,-0.00015787,0.0082095,1.2603,0.011858,0.024589,4.7618e-07,0.8,0.09,0
0.040658,0.008286,0.027464,-0.000108,0.0082069,0.00063201,0,0,0.050069,-0.021619,0,0.0032864,0,0,0,0.027479,-0.00012248,0.0082069,1.3124,0.011854,0.024522,4.7326e-07,0.81,0.09,0
0.041158,0.0083207,0.027418,-7.1084e-05,0.0082041,0.00064835,0,0,0.049957,-0.021515,0,0.0033714,0,0,0,0.027433,-8.6368e-05,0.0082041,1.3503,0.01185,0.024452,4.7027e-07,0.82,0.09,0
0.041657,0.008356,0.027371,-3.4146e-05,0.0082012,0.00065768,0,0,0.049843,-0.021412,0,0.0034199,0,0,0,0.027387,-4.992e-05,0.0082012,1.3739,0.011846,0.024382,4.6724e-07,0.83,0.09,0
0.042155,0.0083917,0.027325,2.4135e-06,0.0081982,0.00066005,0,0,0.049729,-0.021309,0,0.0034323,0,0,0,0.027341,-1.3523e-05,0.0081982,1.3831,0.011842,0.024312,4.6421e-07,0.84,0.09,0
0.042651,0.0084273,0.027279,3.8221e-05,0.0081951,0.00065558,0,0,0.049617,-0.021208,0,0.003409,0,0,0,0.027294,2.2453e-05,0.0081951,1.3779,0.011837,0.024242,4.612e-07,0.85,0.09,0
0.043147,0.0084625,0.027233,7.2936e-05,0.0081919,0.00064447,0,0,0.049508,-0.021109,0,0.0033512,0,0,0,0.027249,5.7653e-05,0.0081919,1.3585,0.011833,0.024173,4.5824e-07,0.86,0.09,0
0.043641,0.008497,0.027189,0.00010625,0.0081887,0.00062696,0,0,0.049402,-0.021014,0,0.0032602,0,0,0,0.027204,9.1746e-05,0.0081887,1.3254,0.011828,0.024106,4.5536e-07,0.87,0.09,0
0.044135,0.0085305,0.027147,0.0001379,0.0081855,0.00060337,0,0,0.0493,-0.020924,0,0.0031375,0,0,0,0.027161,0.00012442,0.0081855,1.2791,0.011824,0.024041,4.526e-07,0.88,0.09,0
0.044628,0.0085625,0.027107,0.00016763,0.0081823,0.00057403,0,0,0.049204,-0.020838,0,0.002985,0,0,0,0.027119,0.00015541,0.0081823,1.2202,0.011819,0.02398,4.4997e-07,0.89,0.09,0
0.045119,0.0085928,0.027069,0.00019527,0.0081793,0.00053935,0,0,0.049113,-0.020758,0,0.0028046,0,0,0,0.02708,0.00018445,0.0081793,1.1493,0.011815,0.023922,4.4749e-07,0.9,0.09,0
0.04561,0.0086211,0.027034,0.00022063,0.0081764,0.00049975,0,0,0.04903,-0.020685,0,0.0025987,0,0,0,0.027043,0.00021131,0.0081764,1.0674,0.01181,0.023868,4.4519e-07,0.91,0.09,0
0.0461,0.0086472,0.027002,0.00024358,0.0081737,0.00045566,0,0,0.048954,-0.020618,0,0.0023694,0,0,0,0.02701,0.00023582,0.0081737,0.9753,0.011806,0.023819,4.4309e-07,0.92,0.09,0
0.046589,0.0086708,0.026973,0.00026401,0.0081712,0.00040757,0,0,0.048885,-0.020559,0,0.0021194,0,0,0,0.026979,0.00025779,0.0081712,0.87403,0.011803,0.023774,4.4119e-07,0.93,0.09,0
0.047077,0.0086917,0.026948,0.00028185,0.0081689,0.00035594,0,0,0.048825,-0.020506,0,0.0018509,0,0,0,0.026953,0.00027709,0.0081689,0.76461,0.011799,0.023735,4.3953e-07,0.94,0.09,0
0.047565,0.0087097,0.026926,0.00029702,0.0081669,0.00030128,0,0,0.048774,-0.020462,0,0.0015667,0,0,0,0.02693,0.00029361,0.0081669,0.64813,0.011797,0.023701,4.381e-07,0.95,0.09,0
0.048053,0.0087247,0.026908,0.00030948,0.0081653,0.00024408,0,0,0.048731,-0.020425,0,0.0012692,0,0,0,0.02691,0.00030724,0.0081653,0.52571,0.011794,0.023673,4.3692e-07,0.96,0.09,0
0.04854,0.0087365,0.026894,0.0003192,0.008164,0.00018484,0,0,0.048698,-0.020397,0,0.00096118,0,0,0,0.026895,0.00031791,0.008164,0.39849,0.011792,0.023651,4.3599e-07,0.97,0.09,0
0.049027,0.0087449,0.026884,0.00032615,0.008163,0.00012408,0,0,0.048674,-0.020376,0,0.0006452,0,0,0,0.026884,0.00032557,0.008163,0.26768,0.011791,0.023636,4.3532e-07,0.98,0.09,0
0.049513,0.0087501,0.026878,0.00033033,0.0081625,6.2294e-05,0,0,0.04866,-0.020363,0,0.00032393,0,0,0,0.026878,0.00033019,0.0081625,0.13444,0.01179,0.023626,4.3492e-07,0.99,0.09,0
0.05,0.0087518,0.026876,0.00033173,0.0081623,3.2915e-05,0,0,0.048655,-0.020359,0,0.00017116,0,0,0,0.026876,0.00033169,0.0081623,0.071047,0.01179,0.023623,4.3479e-07,1,0.09,0
0,0,0.029242,0.012532,0.012532,0.0076773,0,0,0.043446,4.3368e-19,0,0.039922,0,0,0,0.032234,0.0095408,0.012532,21.29,0.018102,0.021355,4.6726e-07,0,0.1,0
0.00043446,0.00039922,0.029175,0.011589,0.012229,0.0076638,0,0,0.044059,-0.0016649,0,0.039852,0,0,0,0.032046,0.0087178,0.012229,20.537,0.017664,0.021786,4.8489e-07,0.01,0.1,0
0.00088119,0.00080837,0.029482,0.01068,0.012049,0.0076868,0,0,0.045327,-0.0035581,0,0.039971,0,0,0,0.032225,0.0079378,0.012049,19.636,0.017404,0.022515,5.2092e-07,0.02,0.1,0
0.001341,0.0012237,0.029781,0.0096974,0.011843,0.0076066,0,0,0.046636,-0.0055795,0,0.039554,0,0,0,0.032336,0.0071416,0.011843,18.572,0.017107,0.023204,5.5389e-07,0.03,0.1,0
0.0018139,0.0016407,0.030047,0.0086917,0.011622,0.0074196,0,0,0.047907,-0.007618,0,0.038582,0,0,0,0.032372,0.006367,0.011622,17.397,0.016787,0.023817,5.816e-07,0.04,0.1,0
0.0022991,0.0020551,0.030265,0.0077101,0.011392,0.0071362,0,0,0.049068,-0.0095741,0,0.037108,0,0,0,0.032333,0.0056419,0.011392,16.163,0.016456,0.024331,6.0276e-07,0.05,0.1,0
0.0027953,0.0024627,0.03042,0.0067876,0.011162,0.0067761,0,0,0.05007,-0.011374,0,0.035236,0,0,0,0.032225,0.0049826,0.011162,14.916,0.016123,0.024739,6.1705e-07,0.06,0.1,0
0.0033006,0.0028602,0.030509,0.005946,0.010937,0.0063628,0,0,0.050889,-0.012975,0,0.033086,0,0,0,0.032059,0.0043956,0.010937,13.694,0.015797,0.025042,6.2489e-07,0.07,0.1,0
0.0038131,0.0032447,0.030534,0.0051947,0.010719,0.0059191,0,0,0.05152,-0.014362,0,0.03078,0,0,0,0.031848,0.0038802,0.010719,12.521,0.015482,0.025253,6.2719e-07,0.08,0.1,0
0.0043309,0.0036147,0.030501,0.0045346,0.010511,0.0054647,0,0,0.051975,-0.015538,0,0.028417,0,0,0,0.031604,0.0034314,0.010511,11.413,0.015182,0.025385,6.2504e-07,0.09,0.1,0
0.0048525,0.0039686,0.03042,0.0039606,0.010314,0.0050145,0,0,0.052276,-0.016519,0,0.026075,0,0,0,0.031339,0.0030422,0.010314,10.379,0.014898,0.025452,6.1955e-07,0.1,0.1,0
0.0053764,0.004306,0.030302,0.0034649,0.01013,0.0045789,0,0,0.052447,-0.017329,0,0.02381,0,0,0,0.031061,0.0027051,0.01013,9.4209,0.014632,0.025469,6.117e-07,0.11,0.1,0
0.0059015,0.0046266,0.030155,0.0030384,0.009958,0.0041648,0,0,0.052512,-0.017991,0,0.021657,0,0,0,0.03078,0.0024131,0.009958,8.5378,0.014384,0.025448,6.0231e-07,0.12,0.1,0
0.0064267,0.0049303,0.029989,0.002672,0.0097984,0.0037758,0,0,0.052496,-0.018528,0,0.019634,0,0,0,0.030502,0.0021597,0.0097984,7.7265,0.014153,0.025399,5.9204e-07,0.13,0.1,0
0.0069514,0.0052174,0.029811,0.0023574,0.0096506,0.0034136,0,0,0.052418,-0.018962,0,0.017751,0,0,0,0.030229,0.0019393,0.0096506,6.9825,0.01394,0.02533,5.8135e-07,0.14,0.1,0
0.0074751,0.0054883,0.029627,0.002087,0.0095142,0.0030784,0,0,0.052294,-0.019311,0,0.016008,0,0,0,0.029967,0.0017471,0.0095142,6.3008,0.013743,0.025249,5.7061e-07,0.15,0.1,0
0.0079973,0.0057434,0.029441,0.0018543,0.0093887,0.0027693,0,0,0.052137,-0.01959,0,0.0144,0,0,0,0.029717,0.001579,0.0093887,5.6761,0.013562,0.025159,5.6007e-07,0.16,0.1,0
0.0085178,0.0059834,0.029258,0.0016536,0.0092734,0.002485,0,0,0.051959,-0.019811,0,0.012922,0,0,0,0.02948,0.0014317,0.0092734,5.1033,0.013395,0.025065,5.499e-07,0.17,0.1,0
0.0090365,0.0062086,0.029079,0.0014803,0.0091676,0.0022239,0,0,0.051768,-0.019987,0,0.011564,0,0,0,0.029257,0.0013022,0.0091676,4.5776,0.013242,0.024969,5.4019e-07,0.18,0.1,0
0.0095532,0.0064196,0.028906,0.0013302,0.0090708,0.0019841,0,0,0.051571,-0.020126,0,0.010317,0,0,0,0.029048,0.0011882,0.0090708,4.0944,0.013102,0.024873,5.3103e-07,0.19,0.1,0
0.010068,0.0066171,0.02874,0.0012,0.0089821,0.0017638,0,0,0.051372,-0.020234,0,0.0091717,0,0,0,0.028853,0.0010875,0.0089821,3.6495,0.012974,0.02478,5.2244e-07,0.2,0.1,0
0.010581,0.0068015,0.028584,0.0010868,0.0089012,0.0015612,0,0,0.051175,-0.020317,0,0.0081183,0,0,0,0.028672,0.00099848,0.0089012,3.2392,0.012857,0.02469,5.1443e-07,0.21,0.1,0
0.011091,0.0069733,0.028436,0.00098829,0.0088273,0.0013747,0,0,0.050983,-0.020381,0,0.0071482,0,0,0,0.028505,0.00091962,0.0088273,2.86,0.01275,0.024604,5.0701e-07,0.22,0.1,0
0.0116,0.007133,0.028297,0.00090233,0.0087599,0.0012025,0,0,0.050798,-0.02043,0,0.0062532,0,0,0,0.02835,0.00084965,0.0087599,2.5086,0.012653,0.024522,5.0015e-07,0.23,0.1,0
0.012107,0.0072811,0.028168,0.00082723,0.0086986,0.0010434,0,0,0.050621,-0.020466,0,0.0054258,0,0,0,0.028208,0.00078747,0.0086986,2.1824,0.012565,0.024445,4.9385e-07,0.24,0.1,0
0.012613,0.007418,0.028048,0.00076151,0.0086429,0.00089599,0,0,0.050453,-0.020492,0,0.0046591,0,0,0,0.028077,0.00073212,0.0086429,1.8787,0.012484,0.024373,4.8808e-07,0.25,0.1,0
0.013116,0.0075442,0.027937,0.0007039,0.0085923,0.00075901,0,0,0.050297,-0.02051,0,0.0039469,0,0,0,0.027958,0.00068277,0.0085923,1.5952,0.012411,0.024306,4.8281e-07,0.26,0.1,0
0.013619,0.0076601,0.027835,0.00065331,0.0085465,0.00063141,0,0,0.05015,-0.020522,0,0.0032833,0,0,0,0.02785,0.00063865,0.0085465,1.33,0.012345,0.024244,4.7802e-07,0.27,0.1,0
0.014119,0.007766,0.027741,0.00060877,0.008505,0.00051222,0,0,0.050014,-0.02053,0,0.0026636,0,0,0,0.027751,0.0005991,0.008505,1.0812,0.012285,0.024188,4.7369e-07,0.28,0.1,0
0.014619,0.0078624,0.027656,0.00056944,0.0084677,0.00040058,0,0,0.04989,-0.020535,0,0.002083,0,0,0,0.027662,0.00056352,0.0084677,0.84709,0.012231,0.024137,4.698e-07,0.29,0.1,0
0.015117,0.0079495,0.027579,0.00053458,0.008434,0.00029571,0,0,0.049776,-0.020539,0,0.0015377,0,0,0,0.027582,0.00053135,0.008434,0.62639,0.012182,0.024092,4.6632e-07,0.3,0.1,0
0.015614,0.0080278,0.027509,0.00050351,0.0084038,0.00019696,0,0,0.049674,-0.020541,0,0.0010242,0,0,0,0.027511,0.00050207,0.0084038,0.41784,0.012139,0.024052,4.6324e-07,0.31,0.1,0
0.016111,0.0080975,0.027447,0.00047562,0.0083768,0.00010373,0,0,0.049582,-0.020543,0,0.00053941,0,0,0,0.027447,0.00047522,0.0083768,0.22036,0.0121,0.024017,4.6054e-07,0.32,0.1,0
0.016606,0.0081591,0.027392,0.00045035,0.0083526,1.5541e-05,0,0,0.049502,-0.020546,0,8.0815e-05,0,0,0,0.027392,0.00045034,0.0083526,0.033051,0.012065,0.023987,4.582e-07,0.33,0.1,0
0.017101,0.0082127,0.027343,0.0004272,0.0083312,-6.8032e-05,0,0,0.049432,-0.02055,0,-0.00035377,0,0,0,0.027344,0.00042703,0.0083312,-0.14482,0.012034,0.023963,4.5621e-07,0.34,0.1,0
0.017595,0.0082588,0.027302,0.00040568,0.0083122,-0.00014733,0,0,0.049372,-0.020557,0,-0.00076611,0,0,0,0.027302,0.00040487,0.0083122,-0.31384,0.012006,0.023944,4.5455e-07,0.35,0.1,0
0.018088,0.0082977,0.027266,0.00038536,0.0082954,-0.00022262,0,0,0.049324,-0.020566,0,-0.0011576,0,0,0,0.027268,0.00038352,0.0082954,-0.47446,0.011982,0.02393,4.5323e-07,0.36,0.1,0
0.018581,0.0083296,0.027237,0.00036581,0.0082808,-0.0002941,0,0,0.049286,-0.020579,0,-0.0015293,0,0,0,0.02724,0.00036259,0.0082808,-0.62699,0.011961,0.023922,4.5221e-07,0.37,0.1,0
0.019074,0.0083549,0.027213,0.00034666,0.0082679,-0.0003619,0,0,0.049258,-0.020595,0,-0.0018819,0,0,0,0.027218,0.00034178,0.0082679,-0.7716,0.011943,0.023919,4.515e-07,0.38,0.1,0
0.019566,0.0083738,0.027195,0.00032752,0.0082568,-0.0004261,0,0,0.04924,-0.020616,0,-0.0022157,0,0,0,0.027202,0.00032077,0.0082568,-0.90835,0.011926,0.023922,4.5108e-07,0.39,0.1,0
0.020059,0.0083867,0.027183,0.00030808,0.0082472,-0.0004867,0,0,0.049232,-0.020642,0,-0.0025308,0,0,0,0.027191,0.00029927,0.0082472,-1.0372,0.011913,0.023929,4.5095e-07,0.4,0.1,0
0.020551,0.008394,0.027175,0.00028801,0.008239,-0.00054366,0,0,0.049234,-0.020672,0,-0.002827,0,0,0,0.027186,0.00027702,0.008239,-1.1579,0.011901,0.023942,4.511e-07,0.41,0.1,0
0.021043,0.0083959,0.027173,0.00026704,0.0082319,-0.00059688,0,0,0.049246,-0.020709,0,-0.0031038,0,0,0,0.027186,0.0002538,0.0082319,-1.2702,0.011891,0.023961,4.5152e-07,0.42,0.1,0
0.021536,0.0083927,0.027175,0.00024491,0.008226,-0.00064622,0,0,0.049268,-0.020751,0,-0.0033603,0,0,0,0.027191,0.00022941,0.008226,-1.3738,0.011882,0.023984,4.5219e-07,0.43,0.1,0
0.022029,0.0083849,0.027182,0.00022142,0.008221,-0.00069149,0,0,0.049299,-0.020799,0,-0.0035957,0,0,0,0.0272,0.00020369,0.008221,-1.4682,0.011875,0.024013,4.5312e-07,0.44,0.1,0
0.022522,0.0083728,0.027193,0.00019638,0.0082169,-0.00073245,0,0,0.049338,-0.020853,0,-0.0038088,0,0,0,0.027213,0.00017652,0.0082169,-1.553,0.011869,0.024046,4.5428e-07,0.45,0.1,0
0.023016,0.0083567,0.027208,0.00016967,0.0082134,-0.00076886,0,0,0.049387,-0.020914,0,-0.0039981,0,0,0,0.02723,0.00014783,0.0082134,-1.6275,0.011864,0.024085,4.5567e-07,0.46,0.1,0
0.02351,0.0083371,0.027227,0.0001412,0.0082106,-0.00080043,0,0,0.049444,-0.02098,0,-0.0041622,0,0,0,0.027251,0.00011757,0.0082106,-1.6912,0.01186,0.024127,4.5727e-07,0.47,0.1,0
0.024004,0.0083143,0.02725,0.00011094,0.0082083,-0.00082687,0,0,0.049508,-0.021053,0,-0.0042997,0,0,0,0.027275,8.5772e-05,0.0082083,-1.7435,0.011856,0.024174,4.5907e-07,0.48,0.1,0
0.0245,0.0082887,0.027276,7.8909e-05,0.0082063,-0.00084787,0,0,0.04958,-0.021131,0,-0.0044089,0,0,0,0.027302,5.2502e-05,0.0082063,-1.7839,0.011854,0.024225,4.6103e-07,0.49,0.1,0
0.024996,0.0082607,0.027304,4.5183e-05,0.0082048,-0.00086314,0,0,0.049658,-0.021215,0,-0.0044884,0,0,0,0.027331,1.7879e-05,0.0082048,-1.8118,0.011851,0.024278,4.6316e-07,0.5,0.1,0
0.025493,0.0082307,0.027335,9.9005e-06,0.0082035,-0.0008724,0,0,0.049742,-0.021303,0,-0.0045365,0,0,0,0.027363,-1.7924e-05,0.0082035,-1.8268,0.01185,0.024335,4.6541e-07,0.51,0.1,0
0.025991,0.0081992,0.027368,-2.6742e-05,0.0082024,-0.00087538,0,0,0.049831,-0.021396,0,-0.004552,0,0,0,0.027396,-5.4686e-05,0.0082024,-1.8284,0.011848,0.024394,4.6777e-07,0.52,0.1,0
0.026489,0.0081666,0.027403,-6.4491e-05,0.0082015,-0.00087187,0,0,0.049923,-0.021492,0,-0.0045337,0,0,0,0.02743,-9.2138e-05,0.0082015,-1.8162,0.011847,0.024454,4.7022e-07,0.53,0.1,0
0.026989,0.0081333,0.027439,-0.00010303,0.0082007,-0.00086168,0,0,0.050019,-0.02159,0,-0.0044807,0,0,0,0.027466,-0.00012997,0.0082007,-1.7902,0.011845,0.024516,4.7271e-07,0.54,0.1,0
0.02749,0.0080998,0.027475,-0.00014201,0.0081999,-0.00084469,0,0,0.050115,-0.021689,0,-0.0043924,0,0,0,0.027501,-0.00016782,0.0081999,-1.7503,0.011844,0.024577,4.7523e-07,0.55,0.1,0
0.027991,0.0080664,0.027512,-0.000181,0.0081992,-0.00082085,0,0,0.050213,-0.021789,0,-0.0042684,0,0,0,0.027536,-0.00020531,0.0081992,-1.6963,0.011843,0.024639,4.7774e-07,0.56,0.1,0
0.028494,0.0080336,0.027548,-0.00021957,0.0081986,-0.00079018,0,0,0.050309,-0.021887,0,-0.0041089,0,0,0,0.027571,-0.00024204,0.0081986,-1.6287,0.011842,0.024699,4.802e-07,0.57,0.1,0
0.028998,0.0080019,0.027584,-0.00025722,0.008198,-0.00075278,0,0,0.050403,-0.021983,0,-0.0039145,0,0,0,0.027604,-0.00027756,0.008198,-1.5477,0.011841,0.024757,4.8259e-07,0.58,0.1,0
0.029502,0.0079715,0.027618,-0.00029347,0.0081974,-0.00070884,0,0,0.050494,-0.022076,0,-0.003686,0,0,0,0.027636,-0.00031146,0.0081974,-1.4538,0.011841,0.024813,4.8488e-07,0.59,0.1,0
0.030008,0.007943,0.027651,-0.00032778,0.0081968,-0.00065864,0,0,0.05058,-0.022164,0,-0.0034249,0,0,0,0.027666,-0.00034328,0.0081968,-1.3478,0.01184,0.024865,4.8703e-07,0.6,0.1,0
0.030514,0.0079165,0.027681,-0.00035967,0.0081963,-0.00060255,0,0,0.050659,-0.022246,0,-0.0031333,0,0,0,0.027693,-0.00037262,0.0081963,-1.2305,0.011839,0.024913,4.8901e-07,0.61,0.1,0
0.031021,0.0078926,0.027708,-0.00038864,0.0081958,-0.00054103,0,0,0.050731,-0.022319,0,-0.0028134,0,0,0,0.027718,-0.00039905,0.0081958,-1.1027,0.011838,0.024956,4.908e-07,0.62,0.1,0
0.031528,0.0078714,0.027732,-0.0004142,0.0081953,-0.00047463,0,0,0.050795,-0.022385,0,-0.002468,0,0,0,0.02774,-0.0004222,0.0081953,-0.96581,0.011838,0.024994,4.9237e-07,0.63,0.1,0
0.032037,0.0078532,0.027752,-0.00043595,0.0081949,-0.00040397,0,0,0.050849,-0.02244,0,-0.0021006,0,0,0,0.027758,-0.00044174,0.0081949,-0.82088,0.011837,0.025025,4.9369e-07,0.64,0.1,0
0.032545,0.0078383,0.027769,-0.00045349,0.0081946,-0.00032975,0,0,0.050893,-0.022485,0,-0.0017147,0,0,0,0.027773,-0.00045734,0.0081946,-0.66933,0.011837,0.025051,4.9474e-07,0.65,0.1,0
0.033055,0.0078269,0.027781,-0.00046651,0.0081944,-0.00025275,0,0,0.050925,-0.022518,0,-0.0013143,0,0,0,0.027783,-0.00046877,0.0081944,-0.51262,0.011836,0.02507,4.9551e-07,0.66,0.1,0
0.033564,0.0078191,0.027789,-0.00047476,0.0081942,-0.00017378,0,0,0.050946,-0.022539,0,-0.00090366,0,0,0,0.02779,-0.00047583,0.0081942,-0.35227,0.011836,0.025081,4.9599e-07,0.67,0.1,0
0.034073,0.007815,0.027792,-0.00047805,0.0081942,-9.3691e-05,0,0,0.050954,-0.022548,0,-0.00048719,0,0,0,0.027792,-0.00047836,0.0081942,-0.18988,0.011836,0.025085,4.9616e-07,0.68,0.1,0
0.034583,0.0078147,0.02779,-0.00047629,0.0081942,-1.3364e-05,0,0,0.05095,-0.022543,0,-6.9494e-05,0,0,0,0.02779,-0.0004763,0.0081942,-0.027089,0.011836,0.025082,4.9602e-07,0.69,0.1,0
0.035092,0.0078181,0.027784,-0.00046947,0.0081943,6.631e-05,0,0,0.050933,-0.022526,0,0.00034481,0,0,0,0.027784,-0.00046962,0.0081943,0.13447,0.011836,0.025071,4.9556e-07,0.7,0.1,0
0.035602,0.0078254,0.027773,-0.00045763,0.0081945,0.00014444,0,0,0.050903,-0.022496,0,0.00075112,0,0,0,0.027773,-0.00045837,0.0081945,0.29315,0.011836,0.025052,4.948e-07,0.71,0.1,0
0.03611,0.0078363,0.027757,-0.00044093,0.0081948,0.00022018,0,0,0.050862,-0.022453,0,0.0011449,0,0,0,0.027759,-0.00044265,0.0081948,0.44734,0.011837,0.025027,4.9373e-07,0.72,0.1,0
0.036619,0.0078509,0.027737,-0.00041959,0.0081952,0.00029267,0,0,0.050808,-0.022398,0,0.0015219,0,0,0,0.02774,-0.00042263,0.0081952,0.59547,0.011838,0.024994,4.9237e-07,0.73,0.1,0
0.037127,0.0078688,0.027713,-0.00039391,0.0081956,0.00036114,0,0,0.050744,-0.022333,0,0.0018779,0,0,0,0.027717,-0.00039855,0.0081956,0.73604,0.011838,0.024954,4.9073e-07,0.74,0.1,0
0.037634,0.00789,0.027684,-0.00036423,0.008196,0.00042487,0,0,0.050669,-0.022257,0,0.0022093,0,0,0,0.027691,-0.00037067,0.008196,0.86763,0.011839,0.024909,4.8883e-07,0.75,0.1,0
0.03814,0.0079142,0.027653,-0.00033098,0.0081965,0.0004832,0,0,0.050586,-0.022171,0,0.0025126,0,0,0,0.027661,-0.00033933,0.0081965,0.98894,0.011839,0.024857,4.8669e-07,0.76,0.1,0
0.038645,0.007941,0.027618,-0.00029462,0.0081969,0.00053554,0,0,0.050494,-0.022078,0,0.0027848,0,0,0,0.027628,-0.00030489,0.0081969,1.0988,0.01184,0.0248,4.8434e-07,0.77,0.1,0
0.03915,0.0079704,0.02758,-0.00025564,0.0081974,0.00058143,0,0,0.050395,-0.021978,0,0.0030234,0,0,0,0.027592,-0.00026778,0.0081974,1.1961,0.011841,0.024739,4.818e-07,0.78,0.1,0
0.039653,0.0080018,0.02754,-0.00021456,0.0081977,0.00062045,0,0,0.050291,-0.021872,0,0.0032263,0,0,0,0.027554,-0.00022843,0.0081977,1.28,0.011841,0.024673,4.7909e-07,0.79,0.1,0
0.040156,0.0080351,0.027499,-0.00017192,0.008198,0.00065231,0,0,0.050182,-0.021762,0,0.003392,0,0,0,0.027514,-0.00018729,0.008198,1.3497,0.011842,0.024605,4.7627e-07,0.8,0.1,0
0.040657,0.0080697,0.027456,-0.00012825,0.0081983,0.0006768,0,0,0.05007,-0.021649,0,0.0035194,0,0,0,0.027472,-0.00014484,0.0081983,1.4047,0.011842,0.024534,4.7334e-07,0.81,0.1,0
0.041157,0.0081054,0.027412,-8.4064e-05,0.0081984,0.00069382,0,0,0.049955,-0.021534,0,0.0036079,0,0,0,0.02743,-0.00010156,0.0081984,1.4445,0.011842,0.024461,4.7035e-07,0.82,0.1,0
0.041656,0.0081419,0.027368,-3.9881e-05,0.0081984,0.00070333,0,0,0.049841,-0.02142,0,0.0036573,0,0,0,0.027386,-5.7918e-05,0.0081984,1.469,0.011842,0.024387,4.6732e-07,0.83,0.1,0
0.042154,0.0081786,0.027324,3.8231e-06,0.0081984,0.00070542,0,0,0.049727,-0.021306,0,0.0036682,0,0,0,0.027342,-1.4379e-05,0.0081984,1.4781,0.011842,0.024314,4.643e-07,0.84,0.1,0
0.042651,0.0082153,0.027281,4.6603e-05,0.0081982,0.00070021,0,0,0.049614,-0.021194,0,0.0036411,0,0,0,0.027299,2.8612e-05,0.0081982,1.4718,0.011842,0.024241,4.613e-07,0.85,0.1,0
0.043146,0.0082515,0.027238,8.805e-05,0.0081979,0.00068793,0,0,0.049505,-0.021086,0,0.0035772,0,0,0,0.027256,7.0631e-05,0.0081979,1.4505,0.011841,0.024169,4.5837e-07,0.86,0.1,0
0.043641,0.008287,0.027197,0.0001278,0.0081975,0.00066886,0,0,0.049399,-0.020981,0,0.0034781,0,0,0,0.027214,0.00011128,0.0081975,1.4146,0.011841,0.024099,4.5551e-07,0.87,0.1,0
0.044134,0.0083214,0.027158,0.00016553,0.0081971,0.00064333,0,0,0.049299,-0.020882,0,0.0033453,0,0,0,0.027173,0.00015021,0.0081971,1.3645,0.01184,0.024032,4.5278e-07,0.88,0.1,0
0.044627,0.0083543,0.027121,0.00020097,0.0081966,0.00061174,0,0,0.049203,-0.020789,0,0.0031811,0,0,0,0.027135,0.00018707,0.0081966,1.3011,0.011839,0.023969,4.5018e-07,0.89,0.1,0
0.045118,0.0083855,0.027086,0.00023387,0.008196,0.0005745,0,0,0.049114,-0.020702,0,0.0029874,0,0,0,0.027098,0.00022158,0.008196,1.2251,0.011839,0.023909,4.4773e-07,0.9,0.1,0
0.045609,0.0084146,0.027054,0.00026405,0.0081954,0.00053208,0,0,0.049032,-0.020621,0,0.0027668,0,0,0,0.027064,0.00025348,0.0081954,1.1374,0.011838,0.023853,4.4547e-07,0.91,0.1,0
0.046099,0.0084414,0.027024,0.00029134,0.0081947,0.00048494,0,0,0.048957,-0.020549,0,0.0025217,0,0,0,0.027033,0.00028255,0.0081947,1.0389,0.011837,0.023802,4.434e-07,0.92,0.1,0
0.046588,0.0084656,0.026998,0.00031563,0.0081941,0.00043359,0,0,0.04889,-0.020484,0,0.0022547,0,0,0,0.027005,0.00030859,0.0081941,0.93074,0.011836,0.023756,4.4154e-07,0.93,0.1,0
0.047077,0.008487,0.026975,0.00033682,0.0081935,0.00037855,0,0,0.048832,-0.020428,0,0.0019684,0,0,0,0.02698,0.00033144,0.0081935,0.81399,0.011835,0.023716,4.3991e-07,0.94,0.1,0
0.047565,0.0085055,0.026955,0.00035483,0.008193,0.00032032,0,0,0.048782,-0.020379,0,0.0016657,0,0,0,0.026959,0.00035097,0.008193,0.68982,0.011834,0.023682,4.3851e-07,0.95,0.1,0
0.048052,0.0085208,0.026939,0.00036962,0.0081925,0.00025944,0,0,0.04874,-0.02034,0,0.0013491,0,0,0,0.026941,0.00036709,0.0081925,0.55941,0.011834,0.023653,4.3735e-07,0.96,0.1,0
0.04854,0.0085329,0.026926,0.00038115,0.0081922,0.00019644,0,0,0.048708,-0.020309,0,0.0010215,0,0,0,0.026928,0.0003797,0.0081922,0.42398,0.011833,0.023631,4.3644e-07,0.97,0.1,0
0.049027,0.0085416,0.026917,0.0003894,0.0081919,0.00013185,0,0,0.048685,-0.020286,0,0.0006856,0,0,0,0.026918,0.00038875,0.0081919,0.28476,0.011833,0.023615,4.3579e-07,0.98,0.1,0
0.049513,0.0085469,0.026911,0.00039436,0.0081917,6.6188e-05,0,0,0.048671,-0.020273,0,0.00034418,0,0,0,0.026912,0.00039419,0.0081917,0.14301,0.011832,0.023605,4.354e-07,0.99,0.1,0
0.05,0.0085486,0.026909,0.00039601,0.0081916,3.3738e-05,0,0,0.048666,-0.020269,0,0.00017543,0,0,0,0.026909,0.00039597,0.0081916,0.072907,0.011832,0.023602,4.3527e-07,1,0.1,0
0,0,0.028905,0.012388,0.012388,0.0073718,0,0,0.042945,7.5894e-19,0,0.038333,0,0,0,0.031717,0.0095764,0.012388,20.876,0.017894,0.020877,4.3889e-07,0,0.11,0
0.00042945,0.00038333,0.028843,0.011521,0.012109,0.0073612,0,0,0.043507,-0.0015284,0,0.038278,0,0,0,0.031548,0.0088156,0.012109,20.182,0.017491,0.021278,4.5507e-07,0.01,0.11,0
0.00087013,0.00077456,0.029129,0.010703,0.01195,0.0073803,0,0,0.044665,-0.0032402,0,0.038378,0,0,0,0.03172,0.0081117,0.01195,19.349,0.017261,0.021943,4.8714e-07,0.02,0.11,0
0.0013228,0.0011707,0.02941,0.0098217,0.01177,0.0073179,0,0,0.045865,-0.0050643,0,0.038053,0,0,0,0.031842,0.0073898,0.01177,18.383,0.017,0.022583,5.1732e-07,0.03,0.11,0
0.0017874,0.0015684,0.02967,0.0089137,0.011575,0.0071692,0,0,0.047046,-0.0069193,0,0.03728,0,0,0,0.031905,0.0066783,0.011575,17.319,0.01672,0.02317,5.439e-07,0.04,0.11,0
0.0022637,0.001964,0.029893,0.0080152,0.011373,0.0069394,0,0,0.048153,-0.0087288,0,0.036085,0,0,0,0.031908,0.0059998,0.011373,16.195,0.016427,0.023684,5.6573e-07,0.05,0.11,0
0.0027505,0.0023541,0.030069,0.0071553,0.011167,0.006641,0,0,0.049144,-0.010431,0,0.034533,0,0,0,0.031854,0.0053697,0.011167,15.05,0.01613,0.024114,5.8227e-07,0.06,0.11,0
0.0032466,0.0027357,0.030191,0.0063543,0.010964,0.0062905,0,0,0.049992,-0.011984,0,0.032711,0,0,0,0.031749,0.0047961,0.010964,13.912,0.015836,0.02446,5.9357e-07,0.07,0.11,0
0.0037503,0.0031064,0.03026,0.005624,0.010765,0.0059057,0,0,0.050686,-0.013367,0,0.030709,0,0,0,0.031602,0.0042815,0.010765,12.807,0.01555,0.024725,6.0006e-07,0.08,0.11,0
0.0042603,0.0034643,0.030277,0.0049687,0.010574,0.0055024,0,0,0.051229,-0.014573,0,0.028612,0,0,0,0.031422,0.0038242,0.010574,11.75,0.015273,0.024918,6.0244e-07,0.09,0.11,0
0.0047749,0.0038082,0.03025,0.0043876,0.010391,0.0050942,0,0,0.051632,-0.015609,0,0.02649,0,0,0,0.031217,0.0034203,0.010391,10.751,0.01501,0.025049,6.0146e-07,0.1,0.11,0
0.0052929,0.004137,0.030184,0.0038765,0.010218,0.0046914,0,0,0.051912,-0.016489,0,0.024396,0,0,0,0.030996,0.0030649,0.010218,9.8146,0.01476,0.02513,5.9791e-07,0.11,0.11,0
0.0058132,0.0044505,0.030089,0.0034294,0.010056,0.0043015,0,0,0.052087,-0.017228,0,0.022368,0,0,0,0.030766,0.0027525,0.010056,8.9424,0.014525,0.025169,5.9245e-07,0.12,0.11,0
0.0063347,0.0047484,0.029971,0.0030396,0.009903,0.0039293,0,0,0.052175,-0.017845,0,0.020432,0,0,0,0.030532,0.002478,0.009903,8.1337,0.014304,0.025177,5.8567e-07,0.13,0.11,0
0.0068567,0.0050308,0.029836,0.0027004,0.0097608,0.0035776,0,0,0.052194,-0.018357,0,0.018603,0,0,0,0.030299,0.0022367,0.0097608,7.386,0.014099,0.025159,5.7804e-07,0.14,0.11,0
0.0073786,0.0052978,0.02969,0.0024055,0.0096286,0.0032478,0,0,0.052159,-0.01878,0,0.016889,0,0,0,0.030071,0.0020242,0.0096286,6.6956,0.013908,0.025123,5.6993e-07,0.15,0.11,0
0.0078998,0.0055498,0.029538,0.0021489,0.009506,0.0029403,0,0,0.052082,-0.019128,0,0.015289,0,0,0,0.02985,0.0018368,0.009506,6.0589,0.013731,0.025074,5.6162e-07,0.16,0.11,0
0.0084202,0.0057871,0.029383,0.0019257,0.0093926,0.0026545,0,0,0.051975,-0.019414,0,0.013803,0,0,0,0.029637,0.0016714,0.0093926,5.4717,0.013567,0.025015,5.5331e-07,0.17,0.11,0
0.0089393,0.0060103,0.029228,0.0017311,0.0092878,0.0023896,0,0,0.051845,-0.019647,0,0.012426,0,0,0,0.029434,0.001525,0.0092878,4.9299,0.013416,0.024951,5.4516e-07,0.18,0.11,0
0.0094571,0.0062197,0.029076,0.0015615,0.0091912,0.0021443,0,0,0.0517,-0.019837,0,0.011151,0,0,0,0.029242,0.0013954,0.0091912,4.4296,0.013276,0.024882,5.3727e-07,0.19,0.11,0
0.0099734,0.0064159,0.028928,0.0014133,0.0091023,0.0019174,0,0,0.051546,-0.019991,0,0.0099705,0,0,0,0.029061,0.0012803,0.0091023,3.9672,0.013148,0.024812,5.2971e-07,0.2,0.11,0
0.010488,0.0065992,0.028785,0.0012837,0.0090206,0.0017074,0,0,0.051387,-0.020116,0,0.0088786,0,0,0,0.02889,0.0011781,0.0090206,3.5391,0.01303,0.024742,5.2253e-07,0.21,0.11,0
0.011001,0.0067702,0.028648,0.0011703,0.0089455,0.001513,0,0,0.051227,-0.020216,0,0.0078675,0,0,0,0.028731,0.0010872,0.0089455,3.1421,0.012921,0.024672,5.1576e-07,0.22,0.11,0
0.011513,0.0069293,0.028518,0.0010708,0.0088767,0.0013327,0,0,0.051068,-0.020295,0,0.00693,0,0,0,0.028583,0.0010063,0.0088767,2.7733,0.012822,0.024604,5.094e-07,0.23,0.11,0
0.012023,0.0070769,0.028395,0.00098355,0.0088136,0.0011653,0,0,0.050912,-0.020358,0,0.0060596,0,0,0,0.028445,0.0009341,0.0088136,2.4299,0.012731,0.024539,5.0346e-07,0.24,0.11,0
0.012531,0.0072134,0.028279,0.00090685,0.0087558,0.0010096,0,0,0.050761,-0.020407,0,0.00525,0,0,0,0.028317,0.00086966,0.0087558,2.1095,0.012647,0.024476,4.9794e-07,0.25,0.11,0
0.013038,0.0073393,0.028171,0.00083936,0.0087031,0.00086448,0,0,0.050616,-0.020446,0,0.0044953,0,0,0,0.028198,0.00081204,0.0087031,1.8098,0.012571,0.024416,4.9283e-07,0.26,0.11,0
0.013543,0.007455,0.02807,0.00077987,0.0086549,0.00072889,0,0,0.050479,-0.020475,0,0.0037902,0,0,0,0.028089,0.00076042,0.0086549,1.5289,0.012502,0.024361,4.8812e-07,0.27,0.11,0
0.014047,0.0075608,0.027976,0.00072733,0.0086109,0.00060191,0,0,0.050348,-0.020497,0,0.0031299,0,0,0,0.027989,0.00071404,0.0086109,1.2648,0.012438,0.024308,4.8379e-07,0.28,0.11,0
0.01455,0.007657,0.027889,0.00068081,0.0085709,0.0004827,0,0,0.050227,-0.020514,0,0.0025101,0,0,0,0.027897,0.00067225,0.0085709,1.0161,0.01238,0.02426,4.7984e-07,0.29,0.11,0
0.015052,0.0077441,0.027809,0.00063944,0.0085345,0.00037052,0,0,0.050113,-0.020527,0,0.0019267,0,0,0,0.027814,0.00063439,0.0085345,0.78117,0.012327,0.024216,4.7625e-07,0.3,0.11,0
0.015552,0.0078223,0.027735,0.00060249,0.0085014,0.00026469,0,0,0.050008,-0.020537,0,0.0013764,0,0,0,0.027738,0.00059991,0.0085014,0.55888,0.01228,0.024176,4.73e-07,0.31,0.11,0
0.016052,0.007892,0.027669,0.00056926,0.0084714,0.00016464,0,0,0.049913,-0.020546,0,0.00085615,0,0,0,0.02767,0.00056826,0.0084714,0.34809,0.012236,0.02414,4.701e-07,0.32,0.11,0
0.016551,0.0079535,0.027608,0.00053911,0.0084442,6.9868e-05,0,0,0.049827,-0.020553,0,0.00036332,0,0,0,0.027608,0.00053892,0.0084442,0.14789,0.012197,0.024109,4.6753e-07,0.33,0.11,0
0.017049,0.0080071,0.027554,0.00051144,0.0084196,-2.0059e-05,0,0,0.049749,-0.020561,0,-0.00010431,0,0,0,0.027554,0.00051143,0.0084196,-0.0425,0.012162,0.024083,4.6527e-07,0.34,0.11,0
0.017546,0.0080532,0.027506,0.00048573,0.0083974,-0.00010549,0,0,0.049681,-0.02057,0,-0.00054855,0,0,0,0.027506,0.00048531,0.0083974,-0.22369,0.01213,0.024061,4.6333e-07,0.35,0.11,0
0.018042,0.0080919,0.027463,0.00046144,0.0083773,-0.0001867,0,0,0.049623,-0.020581,0,-0.00097086,0,0,0,0.027464,0.00046015,0.0083773,-0.39615,0.012101,0.024044,4.6169e-07,0.36,0.11,0
0.018538,0.0081237,0.027426,0.0004381,0.0083592,-0.00026391,0,0,0.049574,-0.020595,0,-0.0013723,0,0,0,0.027429,0.00043552,0.0083592,-0.56021,0.012075,0.024032,4.6034e-07,0.37,0.11,0
0.019034,0.0081488,0.027394,0.00041525,0.0083429,-0.00033724,0,0,0.049534,-0.020612,0,-0.0017537,0,0,0,0.027399,0.00041103,0.0083429,-0.71605,0.012051,0.024025,4.5929e-07,0.38,0.11,0
0.019529,0.0081675,0.027368,0.00039246,0.0083282,-0.00040679,0,0,0.049504,-0.020633,0,-0.0021153,0,0,0,0.027374,0.00038633,0.0083282,-0.86375,0.01203,0.024023,4.5853e-07,0.39,0.11,0
0.020024,0.0081802,0.027347,0.00036935,0.0083149,-0.00047256,0,0,0.049484,-0.020659,0,-0.0024573,0,0,0,0.027355,0.00036108,0.0083149,-1.0032,0.012011,0.024026,4.5804e-07,0.4,0.11,0
0.020518,0.0081871,0.027331,0.00034554,0.008303,-0.00053451,0,0,0.049473,-0.020689,0,-0.0027795,0,0,0,0.027342,0.00033496,0.008303,-1.1343,0.011993,0.024035,4.5783e-07,0.41,0.11,0
0.021013,0.0081887,0.02732,0.0003207,0.0082921,-0.00059254,0,0,0.049472,-0.020726,0,-0.0030812,0,0,0,0.027333,0.0003077,0.0082921,-1.2566,0.011978,0.024048,4.5789e-07,0.42,0.11,0
0.021508,0.0081851,0.027313,0.00029453,0.0082823,-0.00064649,0,0,0.04948,-0.020768,0,-0.0033618,0,0,0,0.027328,0.00027907,0.0082823,-1.3699,0.011963,0.024067,4.5821e-07,0.43,0.11,0
0.022003,0.0081768,0.027311,0.00026678,0.0082733,-0.00069617,0,0,0.049498,-0.020817,0,-0.0036201,0,0,0,0.027329,0.00024887,0.0082733,-1.4736,0.01195,0.024092,4.5878e-07,0.44,0.11,0
0.022498,0.0081642,0.027313,0.00023723,0.008265,-0.00074134,0,0,0.049524,-0.020872,0,-0.003855,0,0,0,0.027333,0.00021695,0.008265,-1.5672,0.011938,0.024121,4.596e-07,0.45,0.11,0
0.022993,0.0081475,0.027319,0.00020572,0.0082575,-0.00078172,0,0,0.049561,-0.020935,0,-0.0040649,0,0,0,0.027342,0.00018321,0.0082575,-1.6501,0.011928,0.024156,4.6065e-07,0.46,0.11,0
0.023489,0.0081272,0.027329,0.00017216,0.0082504,-0.000817,0,0,0.049605,-0.021004,0,-0.0042484,0,0,0,0.027354,0.0001476,0.0082504,-1.7216,0.011917,0.024195,4.6192e-07,0.47,0.11,0
0.023985,0.0081036,0.027343,0.00013648,0.0082439,-0.00084688,0,0,0.049658,-0.021079,0,-0.0044038,0,0,0,0.027369,0.00011015,0.0082439,-1.7812,0.011908,0.024238,4.634e-07,0.48,0.11,0
0.024482,0.0080772,0.02736,9.8719e-05,0.0082377,-0.00087101,0,0,0.049719,-0.021161,0,-0.0045293,0,0,0,0.027388,7.0919e-05,0.0082377,-1.8281,0.011899,0.024286,4.6507e-07,0.49,0.11,0
0.02498,0.0080483,0.02738,5.895e-05,0.0082318,-0.00088908,0,0,0.049786,-0.02125,0,-0.0046232,0,0,0,0.027409,3.0049e-05,0.0082318,-1.8619,0.01189,0.024338,4.6691e-07,0.5,0.11,0
0.025478,0.0080175,0.027403,1.7333e-05,0.0082262,-0.00090076,0,0,0.049861,-0.021343,0,-0.004684,0,0,0,0.027433,-1.2263e-05,0.0082262,-1.8818,0.011882,0.024393,4.689e-07,0.51,0.11,0
0.025977,0.007985,0.027429,-2.5908e-05,0.0082209,-0.00090577,0,0,0.049941,-0.021442,0,-0.00471,0,0,0,0.027459,-5.5759e-05,0.0082209,-1.8875,0.011875,0.02445,4.7101e-07,0.52,0.11,0
0.026477,0.0079514,0.027456,-7.0475e-05,0.0082157,-0.00090385,0,0,0.050025,-0.021544,0,-0.0047,0,0,0,0.027486,-0.00010012,0.0082157,-1.8786,0.011867,0.02451,4.7322e-07,0.53,0.11,0
0.026977,0.0079171,0.027485,-0.000116,0.0082107,-0.0008948,0,0,0.050113,-0.021649,0,-0.004653,0,0,0,0.027514,-0.00014498,0.0082107,-1.8549,0.01186,0.024571,4.7549e-07,0.54,0.11,0
0.027479,0.0078826,0.027515,-0.00016207,0.0082059,-0.00087847,0,0,0.050204,-0.021757,0,-0.0045681,0,0,0,0.027543,-0.00018992,0.0082059,-1.8161,0.011853,0.024632,4.778e-07,0.55,0.11,0
0.027981,0.0078482,0.027546,-0.00020818,0.0082012,-0.00085479,0,0,0.050295,-0.021864,0,-0.0044449,0,0,0,0.027572,-0.00023449,0.0082012,-1.7625,0.011846,0.024694,4.8012e-07,0.56,0.11,0
0.028485,0.0078144,0.027576,-0.00025382,0.0081967,-0.00082377,0,0,0.050387,-0.021971,0,-0.0042836,0,0,0,0.027601,-0.00027818,0.0081967,-1.694,0.01184,0.024754,4.8241e-07,0.57,0.11,0
0.028989,0.0077816,0.027606,-0.0002984,0.0081924,-0.0007855,0,0,0.050476,-0.022076,0,-0.0040846,0,0,0,0.027629,-0.00032049,0.0081924,-1.6111,0.011834,0.024813,4.8465e-07,0.58,0.11,0
0.029494,0.0077503,0.027636,-0.00034133,0.0081883,-0.00074016,0,0,0.050563,-0.022177,0,-0.0038489,0,0,0,0.027655,-0.0003609,0.0081883,-1.5144,0.011828,0.024869,4.8679e-07,0.59,0.11,0
0.03,0.0077208,0.027664,-0.00038202,0.0081845,-0.00068806,0,0,0.050646,-0.022273,0,-0.0035779,0,0,0,0.02768,-0.00039889,0.0081845,-1.4045,0.011822,0.024922,4.888e-07,0.6,0.11,0
0.030507,0.0076935,0.027689,-0.00041984,0.0081809,-0.00062958,0,0,0.050722,-0.022362,0,-0.0032738,0,0,0,0.027704,-0.00043393,0.0081809,-1.2824,0.011817,0.024971,4.9066e-07,0.61,0.11,0
0.031015,0.0076688,0.027713,-0.00045421,0.0081776,-0.0005652,0,0,0.050792,-0.022443,0,-0.002939,0,0,0,0.027724,-0.00046555,0.0081776,-1.1491,0.011812,0.025014,4.9233e-07,0.62,0.11,0
0.031523,0.0076469,0.027734,-0.00048458,0.0081747,-0.00049552,0,0,0.050853,-0.022514,0,-0.0025767,0,0,0,0.027742,-0.00049328,0.0081747,-1.0057,0.011808,0.025053,4.9378e-07,0.63,0.11,0
0.032032,0.0076282,0.027751,-0.00051044,0.0081722,-0.00042121,0,0,0.050905,-0.022575,0,-0.0021903,0,0,0,0.027757,-0.00051671,0.0081722,-0.85368,0.011804,0.025085,4.95e-07,0.64,0.11,0
0.032541,0.0076128,0.027765,-0.00053132,0.0081701,-0.00034302,0,0,0.050946,-0.022624,0,-0.0017837,0,0,0,0.027769,-0.00053548,0.0081701,-0.69442,0.011801,0.02511,4.9596e-07,0.65,0.11,0
0.033051,0.007601,0.027775,-0.00054686,0.0081684,-0.00026177,0,0,0.050977,-0.02266,0,-0.0013612,0,0,0,0.027777,-0.00054928,0.0081684,-0.5295,0.011799,0.025129,4.9664e-07,0.66,0.11,0
0.033561,0.007593,0.02778,-0.00055675,0.0081671,-0.00017834,0,0,0.050995,-0.022682,0,-0.00092739,0,0,0,0.027782,-0.00055788,0.0081671,-0.36058,0.011797,0.025139,4.9703e-07,0.67,0.11,0
0.034071,0.0075888,0.027782,-0.00056078,0.0081663,-9.367e-05,0,0,0.051,-0.02269,0,-0.00048708,0,0,0,0.027782,-0.00056109,0.0081663,-0.18935,0.011796,0.025143,4.9712e-07,0.68,0.11,0
0.034581,0.0075886,0.027779,-0.00055884,0.008166,-8.694e-06,0,0,0.050993,-0.022684,0,-4.5209e-05,0,0,0,0.027779,-0.00055884,0.008166,-0.017578,0.011795,0.025138,4.969e-07,0.69,0.11,0
0.035091,0.0075922,0.027771,-0.00055089,0.0081661,7.5621e-05,0,0,0.050973,-0.022664,0,0.00039323,0,0,0,0.027771,-0.00055109,0.0081661,0.15298,0.011796,0.025125,4.9637e-07,0.7,0.11,0
0.0356,0.0075998,0.027759,-0.00053702,0.0081667,0.00015832,0,0,0.050941,-0.02263,0,0.00082327,0,0,0,0.02776,-0.0005379,0.0081667,0.32056,0.011796,0.025104,4.9553e-07,0.71,0.11,0
0.03611,0.0076112,0.027743,-0.0005174,0.0081677,0.00023847,0,0,0.050896,-0.022581,0,0.00124,0,0,0,0.027745,-0.00051941,0.0081677,0.48343,0.011798,0.025076,4.9439e-07,0.72,0.11,0
0.036618,0.0076263,0.027723,-0.00049229,0.0081691,0.00031517,0,0,0.050839,-0.02252,0,0.0016389,0,0,0,0.027726,-0.00049581,0.0081691,0.6399,0.0118,0.02504,4.9296e-07,0.73,0.11,0
0.037126,0.0076449,0.027698,-0.00046205,0.0081708,0.00038757,0,0,0.050771,-0.022446,0,0.0020154,0,0,0,0.027703,-0.00046738,0.0081708,0.78837,0.011802,0.024997,4.9125e-07,0.74,0.11,0
0.037634,0.0076669,0.02767,-0.0004271,0.0081729,0.0004549,0,0,0.050693,-0.02236,0,0.0023655,0,0,0,0.027678,-0.00043446,0.0081729,0.92731,0.011805,0.024948,4.8929e-07,0.75,0.11,0
0.03814,0.007692,0.027639,-0.00038793,0.0081753,0.00051645,0,0,0.050605,-0.022264,0,0.0026856,0,0,0,0.027648,-0.00039745,0.0081753,1.0553,0.011809,0.024893,4.8709e-07,0.76,0.11,0
0.038646,0.0077199,0.027605,-0.0003451,0.0081779,0.00057162,0,0,0.05051,-0.02216,0,0.0029724,0,0,0,0.027616,-0.00035679,0.0081779,1.1711,0.011813,0.024831,4.8468e-07,0.77,0.11,0
0.03915,0.0077503,0.027568,-0.0002992,0.0081807,0.00061987,0,0,0.050408,-0.022048,0,0.0032233,0,0,0,0.027582,-0.00031298,0.0081807,1.2736,0.011817,0.024766,4.8208e-07,0.78,0.11,0
0.039654,0.0077828,0.02753,-0.00025084,0.0081837,0.0006608,0,0,0.0503,-0.02193,0,0.0034361,0,0,0,0.027545,-0.00026655,0.0081837,1.3618,0.011821,0.024696,4.7933e-07,0.79,0.11,0
0.040156,0.0078172,0.02749,-0.00020067,0.0081867,0.00069409,0,0,0.050188,-0.021807,0,0.0036093,0,0,0,0.027507,-0.00021805,0.0081867,1.435,0.011825,0.024623,4.7646e-07,0.8,0.11,0
0.040658,0.0078531,0.027448,-0.0001493,0.0081897,0.00071953,0,0,0.050073,-0.021681,0,0.0037415,0,0,0,0.027467,-0.00016805,0.0081897,1.4925,0.01183,0.024548,4.7349e-07,0.81,0.11,0
0.041158,0.00789,0.027407,-9.737e-05,0.0081928,0.00073701,0,0,0.049956,-0.021554,0,0.0038324,0,0,0,0.027426,-0.0001171,0.0081928,1.5338,0.011834,0.024471,4.7047e-07,0.82,0.11,0
0.041657,0.0079276,0.027365,-4.5472e-05,0.0081958,0.00074653,0,0,0.049839,-0.021427,0,0.0038819,0,0,0,0.027385,-6.5789e-05,0.0081958,1.5589,0.011838,0.024393,4.6741e-07,0.83,0.11,0
0.042154,0.0079656,0.027323,5.8276e-06,0.0081987,0.00074817,0,0,0.049723,-0.021301,0,0.0038905,0,0,0,0.027343,-1.4648e-05,0.0081987,1.5677,0.011843,0.024315,4.6437e-07,0.84,0.11,0
0.042651,0.0080034,0.027282,5.6004e-05,0.0082014,0.0007421,0,0,0.04961,-0.021178,0,0.0038589,0,0,0,0.027302,3.5791e-05,0.0082014,1.5602,0.011846,0.024238,4.6136e-07,0.85,0.11,0
0.043147,0.0080408,0.027242,0.00010458,0.008204,0.00072857,0,0,0.049499,-0.021059,0,0.0037886,0,0,0,0.027262,8.5033e-05,0.008204,1.5368,0.01185,0.024163,4.5841e-07,0.86,0.11,0
0.043641,0.0080774,0.027204,0.00015113,0.0082065,0.0007079,0,0,0.049393,-0.020944,0,0.0036811,0,0,0,0.027222,0.00013262,0.0082065,1.4979,0.011854,0.02409,4.5556e-07,0.87,0.11,0
0.044135,0.0081128,0.027167,0.00019527,0.0082088,0.00068044,0,0,0.049292,-0.020835,0,0.0035383,0,0,0,0.027184,0.00017812,0.0082088,1.4442,0.011857,0.02402,4.5282e-07,0.88,0.11,0
0.044627,0.0081467,0.027133,0.0002367,0.0082108,0.00064662,0,0,0.049197,-0.020733,0,0.0033624,0,0,0,0.027148,0.00022116,0.0082108,1.3764,0.01186,0.023953,4.5023e-07,0.89,0.11,0
0.045118,0.0081788,0.0271,0.00027513,0.0082127,0.00060691,0,0,0.049108,-0.020638,0,0.0031559,0,0,0,0.027114,0.00026141,0.0082127,1.2954,0.011863,0.023891,4.478e-07,0.9,0.11,0
0.045609,0.0082087,0.027071,0.00031035,0.0082143,0.00056178,0,0,0.049027,-0.02055,0,0.0029213,0,0,0,0.027083,0.00029856,0.0082143,1.2021,0.011865,0.023833,4.4555e-07,0.91,0.11,0
0.046099,0.0082363,0.027044,0.00034219,0.0082158,0.00051176,0,0,0.048953,-0.020471,0,0.0026612,0,0,0,0.027054,0.00033238,0.0082158,1.0976,0.011867,0.023781,4.435e-07,0.92,0.11,0
0.046588,0.0082612,0.02702,0.00037049,0.0082171,0.00045737,0,0,0.048887,-0.020401,0,0.0023783,0,0,0,0.027027,0.00036264,0.0082171,0.98296,0.011869,0.023733,4.4166e-07,0.93,0.11,0
0.047077,0.0082832,0.026999,0.00039517,0.0082181,0.00039914,0,0,0.048829,-0.02034,0,0.0020755,0,0,0,0.027005,0.00038918,0.0082181,0.85938,0.011871,0.023692,4.4004e-07,0.94,0.11,0
0.047565,0.0083021,0.026981,0.00041613,0.008219,0.00033763,0,0,0.04878,-0.020287,0,0.0017557,0,0,0,0.026985,0.00041184,0.008219,0.72808,0.011872,0.023656,4.3866e-07,0.95,0.11,0
0.048052,0.0083179,0.026966,0.00043334,0.0082197,0.00027339,0,0,0.048739,-0.020244,0,0.0014216,0,0,0,0.026968,0.00043052,0.0082197,0.59029,0.011873,0.023627,4.3752e-07,0.96,0.11,0
0.04854,0.0083303,0.026954,0.00044675,0.0082202,0.00020695,0,0,0.048708,-0.020211,0,0.0010761,0,0,0,0.026956,0.00044514,0.0082202,0.44729,0.011874,0.023604,4.3663e-07,0.97,0.11,0
0.049027,0.0083392,0.026946,0.00045634,0.0082206,0.00013888,0,0,0.048685,-0.020187,0,0.00072217,0,0,0,0.026947,0.00045562,0.0082206,0.30038,0.011874,0.023587,4.3599e-07,0.98,0.11,0
0.049513,0.0083446,0.026941,0.0004621,0.0082209,6.9712e-05,0,0,0.048672,-0.020173,0,0.0003625,0,0,0,0.026941,0.00046192,0.0082209,0.15085,0.011875,0.023577,4.356e-07,0.99,0.11,0
0.05,0.0083464,0.026939,0.00046403,0.0082209,3.4626e-05,0,0,0.048667,-0.020168,0,0.00018005,0,0,0,0.026939,0.00046398,0.0082209,0.074935,0.011875,0.023574,4.3547e-07,1,0.11,0
0,0,0.028637,0.012273,0.012273,0.0070894,0,0,0.042546,5.421e-20,0,0.036865,0,0,0,0.031281,0.0096287,0.012273,20.454,0.017728,0.020459,4.1514e-07,0,0.12,0
0.00042546,0.00036865,0.028578,0.011468,0.012014,0.0070807,0,0,0.043066,-0.0014192,0,0.03682,0,0,0,0.031128,0.0089176,0.012014,19.807,0.017353,0.020835,4.3017e-07,0.01,0.12,0
0.00086133,0.00074356,0.028846,0.010721,0.01187,0.007095,0,0,0.044137,-0.0029874,0,0.036894,0,0,0,0.031293,0.008274,0.01187,19.029,0.017146,0.021448,4.5909e-07,0.02,0.12,0
0.0013082,0.0011224,0.029112,0.00992,0.011709,0.0070439,0,0,0.045246,-0.0046527,0,0.036628,0,0,0,0.03142,0.0076122,0.011709,18.14,0.016914,0.022046,4.8687e-07,0.03,0.12,0
0.0017662,0.0015023,0.029362,0.0090925,0.011536,0.0069224,0,0,0.046348,-0.0063544,0,0.035996,0,0,0,0.031501,0.006954,0.011536,17.167,0.016664,0.022607,5.1217e-07,0.04,0.12,0
0.0022351,0.0018805,0.029586,0.0082659,0.011356,0.0067326,0,0,0.047399,-0.0080333,0,0.035009,0,0,0,0.031534,0.0063178,0.011356,16.137,0.016403,0.023113,5.34e-07,0.05,0.12,0
0.0027142,0.0022541,0.029773,0.007464,0.011171,0.0064825,0,0,0.048365,-0.0096386,0,0.033709,0,0,0,0.03152,0.0057171,0.011171,15.081,0.016136,0.023554,5.5178e-07,0.06,0.12,0
0.0032025,0.0026205,0.029917,0.006705,0.010987,0.0061836,0,0,0.04922,-0.011133,0,0.032155,0,0,0,0.031462,0.0051605,0.010987,14.024,0.01587,0.023926,5.6534e-07,0.07,0.12,0
0.0036986,0.0029774,0.030017,0.0060009,0.010805,0.0058493,0,0,0.049949,-0.012491,0,0.030416,0,0,0,0.031365,0.004652,0.010805,12.986,0.015607,0.02423,5.7483e-07,0.08,0.12,0
0.0042014,0.0033232,0.030071,0.005358,0.010629,0.0054924,0,0,0.05055,-0.013704,0,0.028561,0,0,0,0.031237,0.0041923,0.010629,11.982,0.015353,0.02447,5.8064e-07,0.09,0.12,0
0.0047096,0.0036564,0.030085,0.004778,0.010459,0.0051246,0,0,0.051028,-0.01477,0,0.026648,0,0,0,0.031083,0.0037797,0.010459,11.024,0.015107,0.024652,5.8328e-07,0.1,0.12,0
0.005222,0.0039762,0.030063,0.0042597,0.010297,0.0047553,0,0,0.051392,-0.015696,0,0.024727,0,0,0,0.030911,0.0034112,0.010297,10.117,0.014873,0.024785,5.8329e-07,0.11,0.12,0
0.0057375,0.004282,0.03001,0.0037994,0.010143,0.004392,0,0,0.051655,-0.016493,0,0.022838,0,0,0,0.030727,0.0030831,0.010143,9.2637,0.014651,0.024876,5.8124e-07,0.12,0.12,0
0.0062551,0.0045734,0.029933,0.0033927,0.0099977,0.0040399,0,0,0.051831,-0.017173,0,0.021008,0,0,0,0.030534,0.0027914,0.0099977,8.4662,0.014441,0.024933,5.776e-07,0.13,0.12,0
0.0067741,0.0048502,0.029836,0.0030343,0.0098612,0.0037028,0,0,0.051935,-0.01775,0,0.019255,0,0,0,0.030339,0.0025321,0.0098612,7.7229,0.014244,0.024962,5.7281e-07,0.14,0.12,0
0.0072938,0.0051127,0.029726,0.0027191,0.0097334,0.0033828,0,0,0.05198,-0.018237,0,0.01759,0,0,0,0.030143,0.0023018,0.0097334,7.032,0.014059,0.024969,5.672e-07,0.15,0.12,0
0.0078137,0.0053609,0.029605,0.0024421,0.0096141,0.003081,0,0,0.051976,-0.018647,0,0.016021,0,0,0,0.02995,0.002097,0.0096141,6.3907,0.013887,0.024958,5.6108e-07,0.16,0.12,0
0.0083333,0.0055951,0.029478,0.0021988,0.009503,0.0027978,0,0,0.051935,-0.018991,0,0.014549,0,0,0,0.029762,0.0019149,0.009503,5.796,0.013727,0.024934,5.5466e-07,0.17,0.12,0
0.0088524,0.0058156,0.029347,0.0019852,0.0093998,0.0025329,0,0,0.051864,-0.019278,0,0.013171,0,0,0,0.02958,0.0017527,0.0093998,5.2445,0.013577,0.024901,5.4812e-07,0.18,0.12,0
0.0093706,0.0060229,0.029216,0.0017974,0.009304,0.0022858,0,0,0.051771,-0.019517,0,0.011886,0,0,0,0.029405,0.0016082,0.009304,4.7329,0.013439,0.024859,5.4159e-07,0.19,0.12,0
0.0098878,0.0062173,0.029086,0.0016323,0.0092154,0.0020554,0,0,0.051663,-0.019716,0,0.010688,0,0,0,0.029239,0.0014793,0.0092154,4.2581,0.013311,0.024813,5.3516e-07,0.2,0.12,0
0.010404,0.0063992,0.028957,0.0014871,0.0091333,0.001841,0,0,0.051542,-0.01988,0,0.009573,0,0,0,0.02908,0.0013642,0.0091333,3.817,0.013193,0.024763,5.2892e-07,0.21,0.12,0
0.010919,0.006569,0.028833,0.0013592,0.0090576,0.0016412,0,0,0.051415,-0.020016,0,0.0085342,0,0,0,0.02893,0.0012615,0.0090576,3.4066,0.013083,0.024711,5.229e-07,0.22,0.12,0
0.011432,0.0067271,0.028712,0.0012465,0.0089876,0.0014551,0,0,0.051284,-0.020127,0,0.0075664,0,0,0,0.028789,0.0011697,0.0089876,3.0241,0.012982,0.024658,5.1715e-07,0.23,0.12,0
0.011944,0.0068739,0.028597,0.0011472,0.0089232,0.0012815,0,0,0.051151,-0.020217,0,0.0066637,0,0,0,0.028657,0.0010875,0.0089232,2.6671,0.012889,0.024605,5.1168e-07,0.24,0.12,0
0.012455,0.0070099,0.028487,0.0010596,0.0088638,0.0011194,0,0,0.051019,-0.020291,0,0.0058206,0,0,0,0.028532,0.001014,0.0088638,2.3332,0.012803,0.024553,5.0651e-07,0.25,0.12,0
0.012965,0.0071353,0.028382,0.00098213,0.0088092,0.00096769,0,0,0.050889,-0.02035,0,0.005032,0,0,0,0.028416,0.00094799,0.0088092,2.0202,0.012724,0.024502,5.0164e-07,0.26,0.12,0
0.013473,0.0072506,0.028283,0.00091364,0.008759,0.00082557,0,0,0.050762,-0.020398,0,0.0042929,0,0,0,0.028308,0.00088876,0.008759,1.7262,0.012652,0.024453,4.9708e-07,0.27,0.12,0
0.01398,0.0073561,0.02819,0.00085295,0.0087128,0.0006921,0,0,0.05064,-0.020436,0,0.0035989,0,0,0,0.028207,0.00083544,0.0087128,1.4493,0.012585,0.024406,4.9284e-07,0.28,0.12,0
0.014486,0.0074521,0.028102,0.00079904,0.0086704,0.0005665,0,0,0.050523,-0.020466,0,0.0029458,0,0,0,0.028114,0.0007873,0.0086704,1.1881,0.012524,0.024361,4.8889e-07,0.29,0.12,0
0.01499,0.0075389,0.028021,0.000751,0.0086315,0.00044804,0,0,0.050412,-0.020489,0,0.0023298,0,0,0,0.028028,0.00074364,0.0086315,0.94102,0.012468,0.02432,4.8525e-07,0.3,0.12,0
0.015494,0.007617,0.027945,0.00070797,0.0085959,0.00033607,0,0,0.050308,-0.020509,0,0.0017476,0,0,0,0.027949,0.00070382,0.0085959,0.70681,0.012416,0.024281,4.8191e-07,0.31,0.12,0
0.015997,0.0076866,0.027875,0.00066919,0.0085632,0.00023002,0,0,0.05021,-0.020524,0,0.0011961,0,0,0,0.027877,0.00066725,0.0085632,0.48439,0.012369,0.024246,4.7886e-07,0.32,0.12,0
0.016498,0.007748,0.02781,0.00063396,0.0085332,0.0001294,0,0,0.05012,-0.020538,0,0.0006729,0,0,0,0.02781,0.00063334,0.0085332,0.27282,0.012326,0.024214,4.761e-07,0.33,0.12,0
0.016999,0.0078015,0.027751,0.00060161,0.0085057,3.3779e-05,0,0,0.050037,-0.02055,0,0.00017565,0,0,0,0.027751,0.00060156,0.0085057,0.071287,0.012286,0.024186,4.7362e-07,0.34,0.12,0
0.017499,0.0078474,0.027697,0.00057151,0.0084804,-5.7204e-05,0,0,0.049962,-0.020563,0,-0.00029746,0,0,0,0.027697,0.00057139,0.0084804,-0.12083,0.012249,0.024162,4.7143e-07,0.35,0.12,0
0.017998,0.0078861,0.027648,0.00054309,0.0084572,-0.00014383,0,0,0.049895,-0.020577,0,-0.00074792,0,0,0,0.027648,0.00054232,0.0084572,-0.30403,0.012216,0.024142,4.6952e-07,0.36,0.12,0
0.018497,0.0079177,0.027604,0.00051579,0.0084359,-0.00022631,0,0,0.049837,-0.020592,0,-0.0011768,0,0,0,0.027606,0.0005139,0.0084359,-0.47864,0.012185,0.024127,4.6788e-07,0.37,0.12,0
0.018995,0.0079426,0.027565,0.00048909,0.0084163,-0.0003048,0,0,0.049787,-0.020611,0,-0.001585,0,0,0,0.027569,0.00048566,0.0084163,-0.64488,0.012157,0.024116,4.6652e-07,0.38,0.12,0
0.019493,0.0079611,0.027532,0.00046251,0.0083982,-0.00037938,0,0,0.049746,-0.020633,0,-0.0019728,0,0,0,0.027537,0.00045719,0.0083982,-0.80281,0.012131,0.024111,4.6543e-07,0.39,0.12,0
0.01999,0.0079736,0.027502,0.00043558,0.0083814,-0.00045006,0,0,0.049715,-0.020659,0,-0.0023403,0,0,0,0.02751,0.0004281,0.0083814,-0.95234,0.012106,0.02411,4.6462e-07,0.4,0.12,0
0.020487,0.0079802,0.027478,0.00040787,0.0083658,-0.0005168,0,0,0.049692,-0.020691,0,-0.0026873,0,0,0,0.027488,0.00039801,0.0083658,-1.0933,0.012084,0.024115,4.6407e-07,0.41,0.12,0
0.020984,0.0079813,0.027459,0.00037901,0.0083513,-0.00057949,0,0,0.049679,-0.020728,0,-0.0030133,0,0,0,0.027471,0.00036661,0.0083513,-1.2253,0.012063,0.024124,4.638e-07,0.42,0.12,0
0.02148,0.0079774,0.027443,0.00034863,0.0083376,-0.00063797,0,0,0.049675,-0.020771,0,-0.0033175,0,0,0,0.027459,0.00033362,0.0083376,-1.3481,0.012043,0.02414,4.6378e-07,0.43,0.12,0
0.021977,0.0079686,0.027433,0.00031644,0.0083248,-0.00069204,0,0,0.049681,-0.020822,0,-0.0035986,0,0,0,0.02745,0.00029879,0.0083248,-1.461,0.012025,0.02416,4.6403e-07,0.44,0.12,0
0.022474,0.0079554,0.027426,0.00028219,0.0083126,-0.00074144,0,0,0.049696,-0.020879,0,-0.0038555,0,0,0,0.027447,0.00026195,0.0083126,-1.5635,0.012007,0.024186,4.6452e-07,0.45,0.12,0
0.022971,0.0079381,0.027424,0.00024568,0.008301,-0.00078587,0,0,0.049721,-0.020944,0,-0.0040865,0,0,0,0.027447,0.00022297,0.008301,-1.6549,0.01199,0.024217,4.6526e-07,0.46,0.12,0
0.023468,0.007917,0.027426,0.00020678,0.0082898,-0.000825,0,0,0.049754,-0.021016,0,-0.00429,0,0,0,0.027451,0.00018179,0.0082898,-1.7345,0.011974,0.024254,4.6624e-07,0.47,0.12,0
0.023966,0.0078927,0.027432,0.00016542,0.0082791,-0.00085849,0,0,0.049797,-0.021096,0,-0.0044642,0,0,0,0.027459,0.00013842,0.0082791,-1.8016,0.011959,0.024295,4.6743e-07,0.48,0.12,0
0.024464,0.0078654,0.027441,0.00012162,0.0082687,-0.00088598,0,0,0.049847,-0.021182,0,-0.0046071,0,0,0,0.027469,9.2921e-05,0.0082687,-1.8556,0.011944,0.024341,4.6883e-07,0.49,0.12,0
0.024963,0.0078357,0.027453,7.548e-05,0.0082586,-0.00090711,0,0,0.049906,-0.021276,0,-0.004717,0,0,0,0.027483,4.5458e-05,0.0082586,-1.8956,0.011929,0.024391,4.7041e-07,0.5,0.12,0
0.025463,0.0078039,0.027469,2.716e-05,0.0082487,-0.00092152,0,0,0.049972,-0.021376,0,-0.0047919,0,0,0,0.0275,-3.751e-06,0.0082487,-1.9212,0.011915,0.024445,4.7216e-07,0.51,0.12,0
0.025963,0.0077704,0.027487,-2.308e-05,0.0082391,-0.00092888,0,0,0.050044,-0.021482,0,-0.0048302,0,0,0,0.027518,-5.4408e-05,0.0082391,-1.9317,0.011901,0.024502,4.7405e-07,0.52,0.12,0
0.026463,0.0077357,0.027507,-7.4898e-05,0.0082297,-0.00092892,0,0,0.050122,-0.021592,0,-0.0048304,0,0,0,0.027539,-0.00010615,0.0082297,-1.9267,0.011887,0.024562,4.7606e-07,0.53,0.12,0
0.026965,0.0077003,0.02753,-0.00012788,0.0082206,-0.00092139,0,0,0.050204,-0.021706,0,-0.0047912,0,0,0,0.02756,-0.00015854,0.0082206,-1.9059,0.011874,0.024623,4.7815e-07,0.54,0.12,0
0.027467,0.0076647,0.027554,-0.00018152,0.0082116,-0.00090611,0,0,0.050289,-0.021822,0,-0.0047118,0,0,0,0.027583,-0.00021109,0.0082116,-1.8692,0.011861,0.024685,4.8029e-07,0.55,0.12,0
0.027971,0.0076291,0.027578,-0.00023526,0.008203,-0.00088299,0,0,0.050376,-0.021939,0,-0.0045916,0,0,0,0.027606,-0.00026326,0.008203,-1.8165,0.011849,0.024748,4.8245e-07,0.56,0.12,0
0.028475,0.0075942,0.027604,-0.00028848,0.0081946,-0.00085202,0,0,0.050464,-0.022056,0,-0.0044305,0,0,0,0.02763,-0.00031448,0.0081946,-1.748,0.011837,0.024809,4.8461e-07,0.57,0.12,0
0.02898,0.0075604,0.027629,-0.00034052,0.0081866,-0.00081327,0,0,0.050551,-0.02217,0,-0.004229,0,0,0,0.027653,-0.00036415,0.0081866,-1.6641,0.011825,0.02487,4.8671e-07,0.58,0.12,0
0.029486,0.007528,0.027654,-0.00039067,0.008179,-0.00076694,0,0,0.050635,-0.022281,0,-0.0039881,0,0,0,0.027675,-0.00041163,0.008179,-1.5653,0.011814,0.024927,4.8874e-07,0.59,0.12,0
0.029993,0.0074975,0.027678,-0.00043822,0.0081718,-0.00071332,0,0,0.050715,-0.022386,0,-0.0037093,0,0,0,0.027696,-0.00045631,0.0081718,-1.4524,0.011804,0.024982,4.9065e-07,0.6,0.12,0
0.0305,0.0074693,0.0277,-0.00048246,0.0081652,-0.00065283,0,0,0.05079,-0.022484,0,-0.0033947,0,0,0,0.027715,-0.00049757,0.0081652,-1.3263,0.011794,0.025032,4.9241e-07,0.61,0.12,0
0.031009,0.0074437,0.02772,-0.0005227,0.0081592,-0.00058596,0,0,0.050858,-0.022573,0,-0.003047,0,0,0,0.027732,-0.00053485,0.0081592,-1.1881,0.011786,0.025077,4.9399e-07,0.62,0.12,0
0.031517,0.0074211,0.027738,-0.00055829,0.0081538,-0.00051335,0,0,0.050918,-0.022651,0,-0.0026694,0,0,0,0.027747,-0.0005676,0.0081538,-1.039,0.011778,0.025116,4.9536e-07,0.63,0.12,0
0.032027,0.0074017,0.027752,-0.00058861,0.0081491,-0.00043572,0,0,0.050968,-0.022718,0,-0.0022657,0,0,0,0.027759,-0.00059531,0.0081491,-0.8806,0.011771,0.025149,4.965e-07,0.64,0.12,0
0.032537,0.0073859,0.027763,-0.00061315,0.0081451,-0.00035386,0,0,0.051008,-0.022772,0,-0.0018401,0,0,0,0.027768,-0.00061756,0.0081451,-0.71435,0.011765,0.025175,4.9738e-07,0.65,0.12,0
0.033047,0.0073737,0.027771,-0.00063145,0.0081419,-0.00026868,0,0,0.051036,-0.022811,0,-0.0013971,0,0,0,0.027774,-0.00063399,0.0081419,-0.54192,0.011761,0.025194,4.9798e-07,0.66,0.12,0
0.033558,0.0073654,0.027775,-0.00064316,0.0081396,-0.00018109,0,0,0.051052,-0.022835,0,-0.0009417,0,0,0,0.027776,-0.00064432,0.0081396,-0.3651,0.011757,0.025204,4.983e-07,0.67,0.12,0
0.034068,0.0073612,0.027775,-0.00064804,0.008138,-9.2118e-05,0,0,0.051055,-0.022844,0,-0.00047902,0,0,0,0.027775,-0.00064833,0.008138,-0.18569,0.011755,0.025206,4.9831e-07,0.68,0.12,0
0.034579,0.007361,0.02777,-0.00064593,0.0081373,-2.7664e-06,0,0,0.051046,-0.022836,0,-1.4385e-05,0,0,0,0.02777,-0.00064593,0.0081373,-0.0055779,0.011754,0.0252,4.9801e-07,0.69,0.12,0
0.035089,0.0073649,0.027762,-0.00063682,0.0081374,8.5926e-05,0,0,0.051023,-0.022813,0,0.00044681,0,0,0,0.027762,-0.00063708,0.0081374,0.17336,0.011754,0.025185,4.9741e-07,0.7,0.12,0
0.035599,0.0073728,0.027749,-0.00062081,0.0081384,0.00017293,0,0,0.050987,-0.022774,0,0.00089923,0,0,0,0.02775,-0.00062186,0.0081384,0.34924,0.011756,0.025163,4.9649e-07,0.71,0.12,0
0.036109,0.0073847,0.027732,-0.00059808,0.0081401,0.00025724,0,0,0.050938,-0.022719,0,0.0013376,0,0,0,0.027734,-0.00060042,0.0081401,0.5202,0.011758,0.025131,4.9527e-07,0.72,0.12,0
0.036618,0.0074005,0.027711,-0.00056896,0.0081426,0.00033789,0,0,0.050878,-0.02265,0,0.001757,0,0,0,0.027715,-0.000573,0.0081426,0.68445,0.011761,0.025092,4.9376e-07,0.73,0.12,0
0.037126,0.0074199,0.027686,-0.00053386,0.0081458,0.00041398,0,0,0.050806,-0.022567,0,0.0021527,0,0,0,0.027692,-0.00053993,0.0081458,0.84026,0.011766,0.025046,4.9198e-07,0.74,0.12,0
0.037634,0.0074428,0.027658,-0.00049328,0.0081496,0.00048466,0,0,0.050723,-0.022471,0,0.0025202,0,0,0,0.027667,-0.00050162,0.0081496,0.98602,0.011772,0.024992,4.8993e-07,0.75,0.12,0
0.038141,0.0074689,0.027627,-0.0004478,0.0081539,0.0005492,0,0,0.050631,-0.022364,0,0.0028558,0,0,0,0.027638,-0.00045854,0.0081539,1.1202,0.011778,0.024932,4.8765e-07,0.76,0.12,0
0.038647,0.0074978,0.027594,-0.00039807,0.0081587,0.00060693,0,0,0.050531,-0.022248,0,0.0031561,0,0,0,0.027607,-0.00041123,0.0081587,1.2415,0.011785,0.024867,4.8516e-07,0.77,0.12,0
0.039151,0.0075294,0.027558,-0.00034479,0.008164,0.00065732,0,0,0.050425,-0.022123,0,0.0034181,0,0,0,0.027574,-0.00036027,0.008164,1.3487,0.011792,0.024796,4.8249e-07,0.78,0.12,0
0.039655,0.0075632,0.02752,-0.00028868,0.0081695,0.00069991,0,0,0.050312,-0.021991,0,0.0036396,0,0,0,0.027538,-0.00030629,0.0081695,1.4408,0.0118,0.024721,4.7967e-07,0.79,0.12,0
0.040158,0.0075989,0.027481,-0.00023049,0.0081753,0.0007344,0,0,0.050196,-0.021855,0,0.0038189,0,0,0,0.027501,-0.00024994,0.0081753,1.517,0.011809,0.024643,4.7672e-07,0.8,0.12,0
0.040659,0.0076361,0.027442,-0.00017096,0.0081812,0.00076056,0,0,0.050077,-0.021716,0,0.0039549,0,0,0,0.027463,-0.00019189,0.0081812,1.5766,0.011817,0.024563,4.7369e-07,0.81,0.12,0
0.041159,0.0076744,0.027401,-0.00011081,0.0081872,0.00077831,0,0,0.049957,-0.021575,0,0.0040472,0,0,0,0.027423,-0.00013281,0.0081872,1.6192,0.011826,0.024481,4.706e-07,0.82,0.12,0
0.041658,0.0077133,0.027361,-5.0747e-05,0.0081932,0.00078765,0,0,0.049837,-0.021434,0,0.0040958,0,0,0,0.027384,-7.3361e-05,0.0081932,1.6445,0.011835,0.024398,4.675e-07,0.83,0.12,0
0.042156,0.0077526,0.027322,8.5697e-06,0.0081991,0.00078869,0,0,0.049719,-0.021295,0,0.0041012,0,0,0,0.027344,-1.4186e-05,0.0081991,1.6526,0.011843,0.024316,4.644e-07,0.84,0.12,0
0.042653,0.0077917,0.027283,6.6535e-05,0.0082048,0.00078164,0,0,0.049603,-0.02116,0,0.0040645,0,0,0,0.027305,4.4105e-05,0.0082048,1.6437,0.011851,0.024234,4.6135e-07,0.85,0.12,0
0.043148,0.0078304,0.027245,0.0001226,0.0082104,0.00076675,0,0,0.049491,-0.021028,0,0.0039871,0,0,0,0.027267,0.00010094,0.0082104,1.618,0.011859,0.024155,4.5838e-07,0.86,0.12,0
0.043642,0.0078682,0.027209,0.00017627,0.0082156,0.0007444,0,0,0.049383,-0.020902,0,0.0038709,0,0,0,0.02723,0.00015578,0.0082156,1.5761,0.011867,0.024078,4.555e-07,0.87,0.12,0
0.044136,0.0079047,0.027175,0.00022712,0.0082206,0.00071498,0,0,0.049281,-0.020783,0,0.0037179,0,0,0,0.027194,0.00020816,0.0082206,1.5188,0.011874,0.024004,4.5275e-07,0.88,0.12,0
0.044628,0.0079397,0.027143,0.00027478,0.0082253,0.00067896,0,0,0.049186,-0.020671,0,0.0035306,0,0,0,0.02716,0.00025764,0.0082253,1.4466,0.011881,0.023935,4.5015e-07,0.89,0.12,0
0.045119,0.0079727,0.027113,0.00031896,0.0082296,0.00063682,0,0,0.049097,-0.020568,0,0.0033115,0,0,0,0.027128,0.00030384,0.0082296,1.3607,0.011887,0.02387,4.4772e-07,0.9,0.12,0
0.04561,0.0080036,0.027086,0.00035941,0.0082335,0.0005891,0,0,0.049015,-0.020473,0,0.0030633,0,0,0,0.027099,0.00034643,0.0082335,1.2621,0.011893,0.023809,4.4547e-07,0.91,0.12,0
0.0461,0.0080319,0.027061,0.00039593,0.008237,0.00053633,0,0,0.048942,-0.020387,0,0.0027889,0,0,0,0.027072,0.00038515,0.008237,1.1518,0.011898,0.023755,4.4343e-07,0.92,0.12,0
0.046589,0.0080576,0.027039,0.00042838,0.0082402,0.00047907,0,0,0.048877,-0.020311,0,0.0024912,0,0,0,0.027047,0.00041976,0.0082402,1.0311,0.011902,0.023706,4.416e-07,0.93,0.12,0
0.047077,0.0080802,0.02702,0.00045664,0.0082429,0.00041789,0,0,0.048819,-0.020244,0,0.002173,0,0,0,0.027026,0.00045007,0.0082429,0.90108,0.011906,0.023662,4.3999e-07,0.94,0.12,0
0.047565,0.0080998,0.027003,0.00048064,0.0082451,0.00035335,0,0,0.048771,-0.020188,0,0.0018374,0,0,0,0.027008,0.00047594,0.0082451,0.76314,0.01191,0.023626,4.3862e-07,0.95,0.12,0
0.048053,0.008116,0.02699,0.00050033,0.008247,0.00028601,0,0,0.048731,-0.020141,0,0.0014873,0,0,0,0.026993,0.00049724,0.008247,0.61854,0.011912,0.023595,4.3749e-07,0.96,0.12,0
0.04854,0.0081287,0.026979,0.00051566,0.0082485,0.00021645,0,0,0.0487,-0.020105,0,0.0011255,0,0,0,0.026981,0.00051389,0.0082485,0.46859,0.011914,0.023572,4.3661e-07,0.97,0.12,0
0.049027,0.0081379,0.026972,0.00052662,0.0082495,0.00014522,0,0,0.048678,-0.02008,0,0.00075517,0,0,0,0.026973,0.00052582,0.0082495,0.31463,0.011916,0.023555,4.3597e-07,0.98,0.12,0
0.049513,0.0081434,0.026967,0.0005332,0.0082501,7.2889e-05,0,0,0.048664,-0.020064,0,0.00037902,0,0,0,0.026967,0.000533,0.0082501,0.15799,0.011917,0.023544,4.3559e-07,0.99,0.12,0
0.05,0.0081452,0.026966,0.0005354,0.0082504,3.5583e-05,0,0,0.04866,-0.020059,0,0.00018503,0,0,0,0.026966,0.00053535,0.0082504,0.077137,0.011917,0.023541,4.3547e-07,1,0.12,0
0,0,0.028423,0.012181,0.012181,0.0068259,0,0,0.042228,0,0,0.035495,0,0,0,0.030911,0.0096935,0.012181,20.024,0.017595,0.020089,3.9495e-07,0,0.13,0
0.00042228,0.00035495,0.028366,0.011426,0.011938,0.0068183,0,0,0.042715,-0.00133,0,0.035455,0,0,0,0.03077,0.0090229,0.011938,19.417,0.017243,0.020446,4.0906e-07,0.01,0.13,0
0.00085429,0.00071481,0.028619,0.010737,0.011807,0.0068278,0,0,0.043713,-0.0027825,0,0.035504,0,0,0,0.030928,0.0084278,0.011807,18.683,0.017054,0.021016,4.3545e-07,0.02,0.13,0
0.0012965,0.0010777,0.028872,0.010001,0.011662,0.0067839,0,0,0.044746,-0.0043184,0,0.035276,0,0,0,0.031057,0.0078152,0.011662,17.858,0.016845,0.021577,4.6118e-07,0.03,0.13,0
0.0017492,0.0014413,0.029113,0.0092397,0.011506,0.0066819,0,0,0.045779,-0.0058918,0,0.034746,0,0,0,0.031151,0.007202,0.011506,16.959,0.016619,0.022113,4.8521e-07,0.04,0.13,0
0.0022121,0.0018034,0.029334,0.0084748,0.011343,0.0065224,0,0,0.046777,-0.0074563,0,0.033916,0,0,0,0.031206,0.0066033,0.011343,16.01,0.016384,0.022608,5.067e-07,0.05,0.13,0
0.0026848,0.0021613,0.029526,0.0077254,0.011175,0.0063102,0,0,0.047712,-0.0089703,0,0.032813,0,0,0,0.031221,0.0060307,0.011175,15.033,0.016142,0.023053,5.2508e-07,0.06,0.13,0
0.0031664,0.0025131,0.029684,0.0070072,0.011007,0.0060535,0,0,0.048559,-0.010401,0,0.031478,0,0,0,0.031199,0.0054924,0.011007,14.049,0.0159,0.023441,5.4009e-07,0.07,0.13,0
0.0036559,0.0028566,0.029804,0.0063315,0.010841,0.0057621,0,0,0.049305,-0.011724,0,0.029963,0,0,0,0.031143,0.0049933,0.010841,13.075,0.015659,0.023771,5.5169e-07,0.08,0.13,0
0.0041525,0.0031902,0.029886,0.0057056,0.010678,0.0054464,0,0,0.049943,-0.012927,0,0.028321,0,0,0,0.031057,0.0045355,0.010678,12.125,0.015423,0.024046,5.6007e-07,0.09,0.13,0
0.0046548,0.0035127,0.029932,0.0051327,0.010519,0.0051159,0,0,0.050473,-0.014006,0,0.026603,0,0,0,0.030946,0.0041188,0.010519,11.21,0.015195,0.024268,5.6555e-07,0.1,0.13,0
0.0051619,0.0038231,0.029944,0.0046134,0.010367,0.0047792,0,0,0.0509,-0.01496,0,0.024852,0,0,0,0.030816,0.0037417,0.010367,10.337,0.014975,0.024444,5.685e-07,0.11,0.13,0
0.0056728,0.0041207,0.029927,0.0041461,0.010222,0.0044431,0,0,0.051233,-0.015797,0,0.023104,0,0,0,0.030671,0.0034019,0.010222,9.5092,0.014765,0.024579,5.6934e-07,0.12,0.13,0
0.0061866,0.004405,0.029884,0.0037279,0.010084,0.0041131,0,0,0.051482,-0.016525,0,0.021388,0,0,0,0.030516,0.0030964,0.010084,8.7293,0.014565,0.024679,5.6846e-07,0.13,0.13,0
0.0067024,0.0046758,0.029821,0.0033552,0.009953,0.0037932,0,0,0.051658,-0.017154,0,0.019724,0,0,0,0.030354,0.0028223,0.009953,7.9973,0.014377,0.02475,5.6623e-07,0.14,0.13,0
0.0072197,0.004933,0.029742,0.0030239,0.0098298,0.003486,0,0,0.051772,-0.017695,0,0.018127,0,0,0,0.030189,0.0025766,0.0098298,7.3124,0.014199,0.024795,5.6296e-07,0.15,0.13,0
0.0077379,0.0051768,0.02965,0.00273,0.0097141,0.0031932,0,0,0.051834,-0.018159,0,0.016605,0,0,0,0.030024,0.0023564,0.0097141,6.673,0.014031,0.02482,5.5892e-07,0.16,0.13,0
0.0082564,0.0054073,0.029549,0.0024695,0.0096057,0.0029159,0,0,0.051853,-0.018554,0,0.015163,0,0,0,0.02986,0.0021591,0.0096057,6.0767,0.013875,0.02483,5.5435e-07,0.17,0.13,0
0.008775,0.0056248,0.029442,0.0022389,0.0095043,0.0026543,0,0,0.051838,-0.01889,0,0.013802,0,0,0,0.029699,0.0019823,0.0095043,5.5211,0.013728,0.024825,5.4942e-07,0.18,0.13,0
0.0092932,0.0058294,0.029331,0.0020348,0.0094098,0.0024083,0,0,0.051795,-0.019175,0,0.012523,0,0,0,0.029542,0.0018239,0.0094098,5.0035,0.013592,0.024811,5.4427e-07,0.19,0.13,0
0.0098109,0.0060216,0.029218,0.0018541,0.0093217,0.0021774,0,0,0.051731,-0.019416,0,0.011322,0,0,0,0.02939,0.0016819,0.0093217,4.5212,0.013465,0.024788,5.3903e-07,0.2,0.13,0
0.010328,0.0062016,0.029105,0.0016942,0.0092398,0.001961,0,0,0.05165,-0.019619,0,0.010197,0,0,0,0.029245,0.0015546,0.0092398,4.0714,0.013346,0.024759,5.3379e-07,0.21,0.13,0
0.010844,0.0063699,0.028993,0.0015527,0.0091637,0.0017584,0,0,0.051556,-0.019789,0,0.0091436,0,0,0,0.029105,0.0014405,0.0091637,3.6516,0.013237,0.024725,5.286e-07,0.22,0.13,0
0.011359,0.0065267,0.028883,0.0014273,0.0090931,0.0015686,0,0,0.051454,-0.019931,0,0.0081567,0,0,0,0.028972,0.001338,0.0090931,3.2593,0.013135,0.024688,5.2353e-07,0.23,0.13,0
0.011873,0.0066725,0.028776,0.0013163,0.0090277,0.0013908,0,0,0.051346,-0.02005,0,0.0072321,0,0,0,0.028846,0.0012461,0.0090277,2.8921,0.01304,0.024649,5.1861e-07,0.24,0.13,0
0.012386,0.0068076,0.028672,0.0012179,0.0089671,0.001224,0,0,0.051234,-0.020148,0,0.006365,0,0,0,0.028727,0.0011635,0.0089671,2.5478,0.012952,0.024608,5.1387e-07,0.25,0.13,0
0.012898,0.0069323,0.028572,0.0011307,0.0089109,0.0010675,0,0,0.05112,-0.020229,0,0.005551,0,0,0,0.028614,0.0010892,0.0089109,2.2244,0.012871,0.024566,5.0933e-07,0.26,0.13,0
0.013408,0.0070471,0.028477,0.0010532,0.008859,0.00092031,0,0,0.051006,-0.020295,0,0.0047856,0,0,0,0.028508,0.0010224,0.008859,1.9199,0.012796,0.024525,5.05e-07,0.27,0.13,0
0.013918,0.0071521,0.028385,0.00098439,0.0088109,0.00078168,0,0,0.050894,-0.020349,0,0.0040647,0,0,0,0.028408,0.0009621,0.0088109,1.6327,0.012727,0.024484,5.009e-07,0.28,0.13,0
0.014426,0.0072477,0.028299,0.00092305,0.0087665,0.00065088,0,0,0.050784,-0.020393,0,0.0033846,0,0,0,0.028314,0.00090758,0.0087665,1.3612,0.012663,0.024444,4.9703e-07,0.29,0.13,0
0.014933,0.0073343,0.028216,0.00086824,0.0087254,0.00052722,0,0,0.050677,-0.020429,0,0.0027416,0,0,0,0.028227,0.00085808,0.0087254,1.104,0.012603,0.024405,4.934e-07,0.3,0.13,0
0.01544,0.0074122,0.028139,0.00081904,0.0086874,0.00041009,0,0,0.050574,-0.020458,0,0.0021325,0,0,0,0.028145,0.00081289,0.0086874,0.85978,0.012549,0.024369,4.9001e-07,0.31,0.13,0
0.015945,0.0074815,0.028066,0.00077462,0.0086522,0.00029892,0,0,0.050476,-0.020482,0,0.0015544,0,0,0,0.028069,0.00077135,0.0086522,0.62746,0.012498,0.024334,4.8686e-07,0.32,0.13,0
0.016449,0.0075428,0.027998,0.0007342,0.0086196,0.00019324,0,0,0.050384,-0.020502,0,0.0010049,0,0,0,0.027999,0.00073283,0.0086196,0.40608,0.012451,0.024303,4.8395e-07,0.33,0.13,0
0.016953,0.0075961,0.027934,0.00069704,0.0085894,9.2626e-05,0,0,0.050297,-0.02052,0,0.00048165,0,0,0,0.027935,0.00069673,0.0085894,0.19484,0.012407,0.024274,4.813e-07,0.34,0.13,0
0.017455,0.0076419,0.027876,0.00066246,0.0085614,-3.2814e-06,0,0,0.050217,-0.020537,0,-1.7063e-05,0,0,0,0.027876,0.00066246,0.0085614,-0.0069089,0.012366,0.024248,4.7889e-07,0.35,0.13,0
0.017957,0.0076804,0.027821,0.00062981,0.0085353,-9.4765e-05,0,0,0.050143,-0.020554,0,-0.00049278,0,0,0,0.027821,0.00062948,0.0085353,-0.19968,0.012329,0.024227,4.7674e-07,0.36,0.13,0
0.018458,0.0077118,0.027771,0.00059846,0.0085109,-0.00018204,0,0,0.050077,-0.020573,0,-0.00094662,0,0,0,0.027773,0.00059724,0.0085109,-0.38383,0.012294,0.024209,4.7484e-07,0.37,0.13,0
0.018958,0.0077366,0.027726,0.00056782,0.0084882,-0.00026526,0,0,0.050019,-0.020593,0,-0.0013794,0,0,0,0.027729,0.00056523,0.0084882,-0.55956,0.012261,0.024195,4.732e-07,0.38,0.13,0
0.019458,0.0077548,0.027685,0.00053735,0.0084668,-0.00034452,0,0,0.049968,-0.020617,0,-0.0017915,0,0,0,0.02769,0.00053298,0.0084668,-0.72694,0.01223,0.024186,4.7182e-07,0.39,0.13,0
0.019958,0.007767,0.027649,0.00050651,0.0084467,-0.00041981,0,0,0.049926,-0.020644,0,-0.002183,0,0,0,0.027656,0.00050002,0.0084467,-0.88591,0.012201,0.024182,4.707e-07,0.4,0.13,0
0.020457,0.0077733,0.027617,0.00047483,0.0084276,-0.00049111,0,0,0.049893,-0.020677,0,-0.0025538,0,0,0,0.027626,0.00046594,0.0084276,-1.0362,0.012173,0.024183,4.6984e-07,0.41,0.13,0
0.020956,0.0077741,0.02759,0.00044184,0.0084095,-0.0005583,0,0,0.049869,-0.020716,0,-0.0029032,0,0,0,0.027601,0.00043037,0.0084095,-1.1776,0.012147,0.024189,4.6925e-07,0.42,0.13,0
0.021454,0.0077697,0.027567,0.00040715,0.0083922,-0.00062121,0,0,0.049854,-0.020761,0,-0.0032303,0,0,0,0.027581,0.00039295,0.0083922,-1.3096,0.012122,0.024201,4.6892e-07,0.43,0.13,0
0.021953,0.0077604,0.027548,0.00037041,0.0083756,-0.00067962,0,0,0.049849,-0.020813,0,-0.003534,0,0,0,0.027565,0.00035343,0.0083756,-1.4316,0.012098,0.024219,4.6886e-07,0.44,0.13,0
0.022451,0.0077466,0.027534,0.00033131,0.0083596,-0.00073326,0,0,0.049853,-0.020873,0,-0.0038129,0,0,0,0.027554,0.00031156,0.0083596,-1.5429,0.012075,0.024242,4.6906e-07,0.45,0.13,0
0.02295,0.0077286,0.027524,0.00028963,0.008344,-0.0007818,0,0,0.049867,-0.020941,0,-0.0040654,0,0,0,0.027546,0.00026721,0.008344,-1.643,0.012052,0.02427,4.6951e-07,0.46,0.13,0
0.023449,0.0077069,0.027518,0.0002452,0.0083288,-0.0008249,0,0,0.049891,-0.021017,0,-0.0042895,0,0,0,0.027542,0.00022028,0.0083288,-1.7309,0.01203,0.024304,4.702e-07,0.47,0.13,0
0.023948,0.0076817,0.027515,0.00019795,0.008314,-0.00086218,0,0,0.049924,-0.021102,0,-0.0044833,0,0,0,0.027543,0.00017076,0.008314,-1.8059,0.012009,0.024344,4.7113e-07,0.48,0.13,0
0.024447,0.0076535,0.027517,0.00014787,0.0082994,-0.00089324,0,0,0.049965,-0.021194,0,-0.0046448,0,0,0,0.027546,0.00011874,0.0082994,-1.8673,0.011988,0.024389,4.7228e-07,0.49,0.13,0
0.024947,0.0076228,0.027522,9.5052e-05,0.0082851,-0.00091768,0,0,0.050016,-0.021294,0,-0.0047719,0,0,0,0.027553,6.4382e-05,0.0082851,-1.9142,0.011967,0.024438,4.7364e-07,0.5,0.13,0
0.025447,0.0075899,0.02753,3.9698e-05,0.008271,-0.00093512,0,0,0.050074,-0.021402,0,-0.0048626,0,0,0,0.027562,7.9259e-06,0.008271,-1.946,0.011947,0.024491,4.7518e-07,0.51,0.13,0
0.025948,0.0075554,0.027542,-1.7911e-05,0.0082572,-0.00094517,0,0,0.05014,-0.021515,0,-0.0049149,0,0,0,0.027574,-5.0288e-05,0.0082572,-1.9619,0.011927,0.024549,4.7687e-07,0.52,0.13,0
0.02645,0.0075196,0.027556,-7.7391e-05,0.0082435,-0.00094752,0,0,0.050212,-0.021634,0,-0.0049271,0,0,0,0.027588,-0.00010984,0.0082435,-1.9615,0.011907,0.024609,4.787e-07,0.53,0.13,0
0.026953,0.007483,0.027572,-0.00013826,0.0082302,-0.00094188,0,0,0.050289,-0.021758,0,-0.0048978,0,0,0,0.027604,-0.00017024,0.0082302,-1.9445,0.011888,0.024671,4.8064e-07,0.54,0.13,0
0.027456,0.0074461,0.02759,-0.00019996,0.0082171,-0.00092804,0,0,0.05037,-0.021884,0,-0.0048258,0,0,0,0.027621,-0.00023092,0.0082171,-1.9105,0.011869,0.024735,4.8264e-07,0.55,0.13,0
0.02796,0.0074094,0.02761,-0.00026183,0.0082044,-0.00090587,0,0,0.050454,-0.022012,0,-0.0047105,0,0,0,0.027639,-0.00029124,0.0082044,-1.8596,0.011851,0.024799,4.8468e-07,0.56,0.13,0
0.028465,0.0073732,0.02763,-0.00032317,0.0081922,-0.00087534,0,0,0.050539,-0.02214,0,-0.0045518,0,0,0,0.027658,-0.00035055,0.0081922,-1.7918,0.011833,0.024863,4.8673e-07,0.57,0.13,0
0.028971,0.0073382,0.027651,-0.00038319,0.0081804,-0.00083651,0,0,0.050624,-0.022265,0,-0.0043498,0,0,0,0.027676,-0.00040812,0.0081804,-1.7076,0.011816,0.024925,4.8873e-07,0.58,0.13,0
0.029478,0.0073047,0.027672,-0.00044108,0.0081692,-0.00078956,0,0,0.050707,-0.022387,0,-0.0041057,0,0,0,0.027694,-0.00046324,0.0081692,-1.6075,0.0118,0.024986,4.9067e-07,0.59,0.13,0
0.029985,0.0072731,0.027692,-0.00049602,0.0081587,-0.00073479,0,0,0.050786,-0.022502,0,-0.0038209,0,0,0,0.027711,-0.00051516,0.0081587,-1.4922,0.011785,0.025042,4.925e-07,0.6,0.13,0
0.030493,0.0072438,0.02771,-0.00054719,0.008149,-0.00067263,0,0,0.05086,-0.02261,0,-0.0034977,0,0,0,0.027726,-0.00056319,0.008149,-1.3628,0.011771,0.025095,4.9419e-07,0.61,0.13,0
0.031002,0.0072173,0.027727,-0.00059376,0.0081401,-0.00060361,0,0,0.050927,-0.022708,0,-0.0031388,0,0,0,0.02774,-0.00060662,0.0081401,-1.2204,0.011758,0.025142,4.957e-07,0.62,0.13,0
0.031512,0.0071939,0.027742,-0.00063499,0.0081321,-0.00052839,0,0,0.050986,-0.022794,0,-0.0027476,0,0,0,0.027752,-0.00064482,0.0081321,-1.0664,0.011746,0.025183,4.9701e-07,0.63,0.13,0
0.032022,0.0071738,0.027754,-0.00067017,0.0081252,-0.00044773,0,0,0.051035,-0.022868,0,-0.0023282,0,0,0,0.027761,-0.00067722,0.0081252,-0.90221,0.011736,0.025217,4.9809e-07,0.64,0.13,0
0.032532,0.0071574,0.027763,-0.00069867,0.0081194,-0.0003625,0,0,0.051074,-0.022927,0,-0.001885,0,0,0,0.027768,-0.00070329,0.0081194,-0.72957,0.011728,0.025244,4.989e-07,0.65,0.13,0
0.033043,0.0071448,0.027769,-0.00071999,0.0081147,-0.00027363,0,0,0.051101,-0.02297,0,-0.0014229,0,0,0,0.027772,-0.00072262,0.0081147,-0.55025,0.011721,0.025263,4.9945e-07,0.66,0.13,0
0.033555,0.0071363,0.027771,-0.00073372,0.0081112,-0.00018215,0,0,0.051116,-0.022997,0,-0.00094717,0,0,0,0.027772,-0.00073488,0.0081112,-0.36611,0.011716,0.025273,4.9969e-07,0.67,0.13,0
0.034066,0.0071319,0.027769,-0.00073954,0.0081089,-8.9109e-05,0,0,0.051117,-0.023006,0,-0.00046337,0,0,0,0.027769,-0.00073982,0.0081089,-0.17909,0.011713,0.025275,4.9964e-07,0.68,0.13,0
0.034577,0.0071318,0.027763,-0.00073732,0.0081078,4.3874e-06,0,0,0.051105,-0.022997,0,2.2815e-05,0,0,0,0.027763,-0.00073733,0.0081078,0.0088202,0.011711,0.025267,4.9927e-07,0.69,0.13,0
0.035088,0.007136,0.027754,-0.00072702,0.008108,9.7232e-05,0,0,0.051079,-0.022971,0,0.00050561,0,0,0,0.027754,-0.00072736,0.008108,0.1956,0.011711,0.025251,4.9859e-07,0.7,0.13,0
0.035598,0.0071443,0.02774,-0.00070875,0.0081093,0.00018832,0,0,0.051039,-0.022927,0,0.00097927,0,0,0,0.027741,-0.00071,0.0081093,0.37926,0.011713,0.025226,4.9759e-07,0.71,0.13,0
0.036109,0.0071568,0.027722,-0.00068275,0.0081119,0.00027658,0,0,0.050987,-0.022866,0,0.0014382,0,0,0,0.027725,-0.00068544,0.0081119,0.55781,0.011717,0.025191,4.9629e-07,0.72,0.13,0
0.036618,0.0071733,0.027701,-0.00064937,0.0081154,0.00036097,0,0,0.050922,-0.022788,0,0.001877,0,0,0,0.027706,-0.00065397,0.0081154,0.72936,0.011722,0.025149,4.947e-07,0.73,0.13,0
0.037127,0.0071936,0.027676,-0.00060911,0.0081201,0.00044052,0,0,0.050846,-0.022696,0,0.0022907,0,0,0,0.027683,-0.00061597,0.0081201,0.89205,0.011729,0.025098,4.9283e-07,0.74,0.13,0
0.037635,0.0072175,0.027648,-0.00056254,0.0081256,0.00051435,0,0,0.050758,-0.022589,0,0.0026746,0,0,0,0.027657,-0.00057192,0.0081256,1.0442,0.011737,0.02504,4.9069e-07,0.75,0.13,0
0.038142,0.0072447,0.027617,-0.00051035,0.008132,0.00058164,0,0,0.050661,-0.02247,0,0.0030245,0,0,0,0.027629,-0.00052238,0.008132,1.1841,0.011746,0.024975,4.8832e-07,0.76,0.13,0
0.038648,0.0072749,0.027584,-0.00045329,0.0081392,0.00064172,0,0,0.050556,-0.02234,0,0.003337,0,0,0,0.027599,-0.00046797,0.0081392,1.3105,0.011757,0.024905,4.8573e-07,0.77,0.13,0
0.039153,0.0073078,0.027549,-0.00039217,0.0081469,0.00069401,0,0,0.050444,-0.022202,0,0.0036089,0,0,0,0.027566,-0.0004094,0.0081469,1.422,0.011768,0.024828,4.8297e-07,0.78,0.13,0
0.039657,0.007343,0.027512,-0.00032784,0.0081551,0.00073805,0,0,0.050327,-0.022056,0,0.0038379,0,0,0,0.027531,-0.0003474,0.0081551,1.5175,0.01178,0.024748,4.8005e-07,0.79,0.13,0
0.04016,0.0073801,0.027474,-0.00026116,0.0081638,0.00077351,0,0,0.050206,-0.021905,0,0.0040223,0,0,0,0.027495,-0.00028272,0.0081638,1.5963,0.011792,0.024664,4.7702e-07,0.8,0.13,0
0.040661,0.0074188,0.027435,-0.00019299,0.0081726,0.00080019,0,0,0.050082,-0.021751,0,0.004161,0,0,0,0.027458,-0.00021615,0.0081726,1.6576,0.011805,0.024578,4.739e-07,0.81,0.13,0
0.041161,0.0074585,0.027396,-0.00012418,0.0081816,0.000818,0,0,0.049958,-0.021595,0,0.0042536,0,0,0,0.027421,-0.00014847,0.0081816,1.701,0.011818,0.024491,4.7074e-07,0.82,0.13,0
0.04166,0.0074989,0.027358,-5.5529e-05,0.0081907,0.00082697,0,0,0.049834,-0.02144,0,0.0043002,0,0,0,0.027383,-8.0453e-05,0.0081907,1.7263,0.011831,0.024403,4.6756e-07,0.83,0.13,0
0.042158,0.0075397,0.02732,1.2204e-05,0.0081996,0.00082723,0,0,0.049713,-0.021287,0,0.0043016,0,0,0,0.027345,-1.2833e-05,0.0081996,1.7335,0.011844,0.024315,4.644e-07,0.84,0.13,0
0.042655,0.0075802,0.027283,7.8322e-05,0.0082084,0.00081903,0,0,0.049594,-0.021138,0,0.004259,0,0,0,0.027308,5.3686e-05,0.0082084,1.7229,0.011857,0.024229,4.613e-07,0.85,0.13,0
0.04315,0.0076203,0.027248,0.0001422,0.0082169,0.00080268,0,0,0.04948,-0.020994,0,0.004174,0,0,0,0.027271,0.00011845,0.0082169,1.6947,0.011869,0.024145,4.5828e-07,0.86,0.13,0
0.043644,0.0076593,0.027214,0.00020327,0.0082251,0.00077857,0,0,0.04937,-0.020857,0,0.0040486,0,0,0,0.027236,0.00018085,0.0082251,1.6497,0.011881,0.024064,4.5536e-07,0.87,0.13,0
0.044137,0.0076971,0.027182,0.00026107,0.0082328,0.00074715,0,0,0.049267,-0.020727,0,0.0038852,0,0,0,0.027202,0.00024035,0.0082328,1.5885,0.011892,0.023986,4.5259e-07,0.88,0.13,0
0.04463,0.0077333,0.027152,0.00031519,0.0082401,0.00070891,0,0,0.049171,-0.020605,0,0.0036863,0,0,0,0.027171,0.00029648,0.0082401,1.5121,0.011902,0.023913,4.4996e-07,0.89,0.13,0
0.045121,0.0077674,0.027124,0.00036529,0.0082469,0.00066439,0,0,0.049081,-0.020492,0,0.0034548,0,0,0,0.027141,0.00034881,0.0082469,1.4214,0.011912,0.023845,4.4752e-07,0.9,0.13,0
0.045611,0.0077992,0.027099,0.00041111,0.0082531,0.00061414,0,0,0.049,-0.020389,0,0.0031936,0,0,0,0.027113,0.00039698,0.0082531,1.3176,0.011921,0.023782,4.4527e-07,0.91,0.13,0
0.046101,0.0078285,0.027076,0.00045243,0.0082587,0.00055875,0,0,0.048926,-0.020296,0,0.0029055,0,0,0,0.027088,0.00044071,0.0082587,1.2017,0.011929,0.023725,4.4323e-07,0.92,0.13,0
0.04659,0.0078549,0.027057,0.0004891,0.0082637,0.00049879,0,0,0.048861,-0.020214,0,0.0025937,0,0,0,0.027066,0.00047974,0.0082637,1.0752,0.011936,0.023674,4.414e-07,0.93,0.13,0
0.047078,0.0078783,0.027039,0.00052102,0.008268,0.00043485,0,0,0.048805,-0.020142,0,0.0022612,0,0,0,0.027046,0.00051389,0.008268,0.93922,0.011943,0.02363,4.398e-07,0.94,0.13,0
0.047566,0.0078984,0.027024,0.00054809,0.0082717,0.00036752,0,0,0.048757,-0.020081,0,0.0019111,0,0,0,0.027029,0.00054299,0.0082717,0.79512,0.011948,0.023592,4.3844e-07,0.95,0.13,0
0.048053,0.0079151,0.027012,0.00057029,0.0082748,0.00029737,0,0,0.048717,-0.020032,0,0.0015463,0,0,0,0.027016,0.00056694,0.0082748,0.64424,0.011952,0.02356,4.3732e-07,0.96,0.13,0
0.04854,0.0079282,0.027003,0.00058756,0.0082771,0.00022497,0,0,0.048687,-0.019993,0,0.0011699,0,0,0,0.027005,0.00058564,0.0082771,0.48793,0.011956,0.023536,4.3645e-07,0.97,0.13,0
0.049027,0.0079376,0.026996,0.00059991,0.0082788,0.00015091,0,0,0.048665,-0.019965,0,0.00078473,0,0,0,0.026997,0.00059904,0.0082788,0.32755,0.011958,0.023518,4.3582e-07,0.98,0.13,0
0.049514,0.0079433,0.026992,0.00060731,0.0082799,7.5732e-05,0,0,0.048652,-0.019949,0,0.00039381,0,0,0,0.026992,0.0006071,0.0082799,0.16445,0.01196,0.023508,4.3544e-07,0.99,0.13,0
0.05,0.0079452,0.026991,0.00060978,0.0082802,3.6613e-05,0,0,0.048648,-0.019943,0,0.00019039,0,0,0,0.026991,0.00060973,0.0082802,0.079517,0.01196,0.023504,4.3532e-07,1,0.13,0
0,0,0.028253,0.012108,0.012108,0.0065779,0,0,0.041975,-9.2157e-19,0,0.034205,0,0,0,0.030593,0.0097676,0.012108,19.588,0.01749,0.01976,3.7757e-07,0,0.14,0
0.00041976,0.00034205,0.028199,0.011395,0.011878,0.006571,0,0,0.042434,-0.0012561,0,0.034169,0,0,0,0.030463,0.0091306,0.011878,19.014,0.017157,0.0201,3.9094e-07,0.01,0.14,0
0.00084867,0.00068791,0.028439,0.010752,0.011757,0.0065758,0,0,0.043372,-0.0026139,0,0.034194,0,0,0,0.030616,0.0085749,0.011757,18.317,0.016983,0.020634,4.1528e-07,0.02,0.14,0
0.0012872,0.001036,0.028679,0.010069,0.011624,0.0065365,0,0,0.044341,-0.0040432,0,0.03399,0,0,0,0.030745,0.0080029,0.011624,17.544,0.016791,0.021165,4.3928e-07,0.03,0.14,0
0.0017355,0.0013845,0.028911,0.0093637,0.011482,0.0064489,0,0,0.045314,-0.0055086,0,0.033534,0,0,0,0.030847,0.0074278,0.011482,16.709,0.016586,0.021678,4.6212e-07,0.04,0.14,0
0.0021935,0.0017314,0.029127,0.0086516,0.011334,0.0063125,0,0,0.046264,-0.0069734,0,0.032825,0,0,0,0.030917,0.006862,0.011334,15.829,0.016371,0.02216,4.8309e-07,0.05,0.14,0
0.0026608,0.0020747,0.029321,0.0079489,0.011181,0.0061304,0,0,0.047165,-0.0084036,0,0.031878,0,0,0,0.030955,0.0063153,0.011181,14.921,0.016151,0.022603,5.0169e-07,0.06,0.14,0
0.0031368,0.0024125,0.029487,0.0072689,0.011027,0.0059082,0,0,0.047997,-0.0097707,0,0.030722,0,0,0,0.030961,0.0057956,0.011027,14.003,0.015928,0.023,5.1758e-07,0.07,0.14,0
0.0036207,0.0027429,0.029622,0.0066221,0.010873,0.0056532,0,0,0.048747,-0.011053,0,0.029396,0,0,0,0.030936,0.0053077,0.010873,13.089,0.015706,0.023349,5.3065e-07,0.08,0.14,0
0.0041117,0.0030646,0.029724,0.0060156,0.010722,0.0053734,0,0,0.049406,-0.012236,0,0.027942,0,0,0,0.030885,0.0048546,0.010722,12.192,0.015487,0.023649,5.4094e-07,0.09,0.14,0
0.0046088,0.0033763,0.029794,0.0054537,0.010574,0.0050768,0,0,0.049971,-0.013314,0,0.0264,0,0,0,0.03081,0.0044372,0.010574,11.322,0.015274,0.023903,5.4863e-07,0.1,0.14,0
0.0051111,0.003677,0.029833,0.004938,0.010431,0.0047708,0,0,0.050445,-0.014283,0,0.024808,0,0,0,0.030716,0.0040551,0.010431,10.485,0.015067,0.024114,5.5396e-07,0.11,0.14,0
0.0056177,0.0039661,0.029845,0.0044685,0.010294,0.0044615,0,0,0.050832,-0.015146,0,0.0232,0,0,0,0.030606,0.0037069,0.010294,9.6866,0.014869,0.024285,5.5722e-07,0.12,0.14,0
0.0061278,0.0042429,0.029831,0.0040436,0.010162,0.0041542,0,0,0.051139,-0.015909,0,0.021602,0,0,0,0.030484,0.0033909,0.010162,8.929,0.014679,0.024422,5.5872e-07,0.13,0.14,0
0.0066405,0.0045072,0.029797,0.0036608,0.010037,0.0038528,0,0,0.051376,-0.016579,0,0.020035,0,0,0,0.030353,0.0031047,0.010037,8.2134,0.014498,0.024529,5.5877e-07,0.14,0.14,0
0.0071553,0.0047588,0.029746,0.0033172,0.0099188,0.0035605,0,0,0.051549,-0.017164,0,0.018514,0,0,0,0.030217,0.0028459,0.0099188,7.5399,0.014327,0.024609,5.5762e-07,0.15,0.14,0
0.0076715,0.0049977,0.02968,0.0030096,0.0098068,0.0032792,0,0,0.05167,-0.017673,0,0.017052,0,0,0,0.030077,0.0026123,0.0098068,6.9076,0.014165,0.024667,5.5554e-07,0.16,0.14,0
0.0081887,0.005224,0.029603,0.0027347,0.0097012,0.0030102,0,0,0.051744,-0.018113,0,0.015653,0,0,0,0.029936,0.0024016,0.0097012,6.315,0.014013,0.024707,5.5273e-07,0.17,0.14,0
0.0087064,0.0054378,0.029517,0.0024895,0.0096021,0.0027545,0,0,0.05178,-0.018493,0,0.014323,0,0,0,0.029795,0.0022116,0.0096021,5.7603,0.01387,0.024731,5.4936e-07,0.18,0.14,0
0.0092243,0.0056394,0.029426,0.0022709,0.009509,0.0025122,0,0,0.051784,-0.018819,0,0.013063,0,0,0,0.029656,0.0020404,0.009509,5.2413,0.013735,0.024742,5.456e-07,0.19,0.14,0
0.0097421,0.005829,0.02933,0.0020762,0.0094219,0.0022832,0,0,0.051761,-0.019099,0,0.011873,0,0,0,0.02952,0.0018862,0.0094219,4.7558,0.013609,0.024742,5.4156e-07,0.2,0.14,0
0.010259,0.0060068,0.029232,0.0019028,0.0093405,0.0020673,0,0,0.051718,-0.019338,0,0.01075,0,0,0,0.029388,0.0017473,0.0093405,4.3015,0.013492,0.024734,5.3735e-07,0.21,0.14,0
0.010776,0.0061732,0.029133,0.0017485,0.0092644,0.001864,0,0,0.051658,-0.019541,0,0.0096928,0,0,0,0.029259,0.0016222,0.0092644,3.8762,0.013382,0.024718,5.3305e-07,0.22,0.14,0
0.011293,0.0063285,0.029034,0.0016112,0.0091935,0.0016726,0,0,0.051585,-0.019714,0,0.0086976,0,0,0,0.029135,0.0015095,0.0091935,3.4775,0.013279,0.024697,5.2871e-07,0.23,0.14,0
0.011808,0.0064729,0.028935,0.001489,0.0091274,0.0014925,0,0,0.051501,-0.01986,0,0.0077608,0,0,0,0.029016,0.0014081,0.0091274,3.1034,0.013184,0.024672,5.244e-07,0.24,0.14,0
0.012323,0.0066069,0.028839,0.0013803,0.0090658,0.0013228,0,0,0.05141,-0.019982,0,0.0068787,0,0,0,0.028903,0.0013167,0.0090658,2.7518,0.013095,0.024643,5.2015e-07,0.25,0.14,0
0.012836,0.0067307,0.028745,0.0012835,0.0090084,0.001163,0,0,0.051314,-0.020085,0,0.0060475,0,0,0,0.028794,0.0012343,0.0090084,2.4207,0.013012,0.024611,5.16e-07,0.26,0.14,0
0.013349,0.0068447,0.028653,0.0011973,0.0089551,0.0010122,0,0,0.051215,-0.02017,0,0.0052634,0,0,0,0.02869,0.00116,0.0089551,2.1084,0.012935,0.024578,5.1196e-07,0.27,0.14,0
0.013861,0.0069491,0.028564,0.0011204,0.0089055,0.00086972,0,0,0.051113,-0.020241,0,0.0045226,0,0,0,0.028592,0.0010929,0.0089055,1.8133,0.012863,0.024544,5.0806e-07,0.28,0.14,0
0.014371,0.0070442,0.028479,0.0010517,0.0088592,0.00073493,0,0,0.051012,-0.0203,0,0.0038216,0,0,0,0.028499,0.001032,0.0088592,1.5338,0.012797,0.024509,5.0432e-07,0.29,0.14,0
0.014881,0.0071304,0.028397,0.00099014,0.0088162,0.00060717,0,0,0.05091,-0.020348,0,0.0031573,0,0,0,0.028411,0.0009767,0.0088162,1.2685,0.012734,0.024475,5.0075e-07,0.3,0.14,0
0.015389,0.0072079,0.028319,0.00093478,0.0087761,0.00048587,0,0,0.050811,-0.020387,0,0.0025265,0,0,0,0.028327,0.00092616,0.0087761,1.0162,0.012677,0.024441,4.9736e-07,0.31,0.14,0
0.015897,0.007277,0.028244,0.0008847,0.0087387,0.00037049,0,0,0.050714,-0.02042,0,0.0019266,0,0,0,0.028249,0.00087968,0.0087387,0.77569,0.012623,0.024408,4.9415e-07,0.32,0.14,0
0.016404,0.007338,0.028173,0.00083906,0.0087037,0.00026058,0,0,0.050621,-0.020448,0,0.001355,0,0,0,0.028176,0.00083658,0.0087037,0.54613,0.012572,0.024377,4.9115e-07,0.33,0.14,0
0.01691,0.0073911,0.028106,0.00079707,0.008671,0.00015571,0,0,0.050532,-0.020472,0,0.00080969,0,0,0,0.028107,0.00079619,0.008671,0.32667,0.012525,0.024348,4.8835e-07,0.34,0.14,0
0.017414,0.0074367,0.028043,0.00075798,0.0086404,5.5544e-05,0,0,0.050447,-0.020494,0,0.00028883,0,0,0,0.028043,0.00075787,0.0086404,0.11663,0.012481,0.024322,4.8576e-07,0.35,0.14,0
0.017918,0.007475,0.027984,0.00072106,0.0086116,-4.0204e-05,0,0,0.050369,-0.020515,0,-0.00020906,0,0,0,0.027984,0.000721,0.0086116,-0.084492,0.012439,0.024299,4.834e-07,0.36,0.14,0
0.018422,0.0075062,0.027929,0.00068563,0.0085844,-0.00013175,0,0,0.050296,-0.020537,0,-0.00068511,0,0,0,0.027929,0.00068499,0.0085844,-0.27708,0.0124,0.024279,4.8126e-07,0.37,0.14,0
0.018924,0.0075308,0.027878,0.00065103,0.0085586,-0.00021925,0,0,0.05023,-0.02056,0,-0.0011401,0,0,0,0.02788,0.00064926,0.0085586,-0.46135,0.012363,0.024262,4.7937e-07,0.38,0.14,0
0.019426,0.0075488,0.027831,0.00061664,0.0085342,-0.00030279,0,0,0.050171,-0.020586,0,-0.0015745,0,0,0,0.027834,0.00061328,0.0085342,-0.63738,0.012327,0.024251,4.7771e-07,0.39,0.14,0
0.019928,0.0075607,0.027788,0.00058188,0.0085109,-0.00038238,0,0,0.05012,-0.020615,0,-0.0019884,0,0,0,0.027793,0.00057651,0.0085109,-0.80508,0.012294,0.024244,4.763e-07,0.4,0.14,0
0.020429,0.0075666,0.027749,0.00054618,0.0084885,-0.00045798,0,0,0.050077,-0.02065,0,-0.0023815,0,0,0,0.027756,0.00053848,0.0084885,-0.96425,0.012261,0.024241,4.7516e-07,0.41,0.14,0
0.020929,0.007567,0.027714,0.00050905,0.008467,-0.00052946,0,0,0.050043,-0.020691,0,-0.0027532,0,0,0,0.027724,0.00049875,0.008467,-1.1145,0.01223,0.024244,4.7427e-07,0.42,0.14,0
0.02143,0.0075622,0.027684,0.00047001,0.0084461,-0.00059667,0,0,0.050018,-0.020738,0,-0.0031027,0,0,0,0.027697,0.00045693,0.0084461,-1.2554,0.0122,0.024253,4.7365e-07,0.43,0.14,0
0.02193,0.0075523,0.027657,0.00042865,0.0084258,-0.00065934,0,0,0.050002,-0.020793,0,-0.0034286,0,0,0,0.027673,0.00041269,0.0084258,-1.3863,0.012171,0.024268,4.7329e-07,0.44,0.14,0
0.02243,0.0075379,0.027635,0.00038463,0.008406,-0.00071721,0,0,0.049996,-0.020856,0,-0.0037295,0,0,0,0.027654,0.00036576,0.008406,-1.5066,0.012142,0.024288,4.7321e-07,0.45,0.14,0
0.02293,0.0075192,0.027618,0.00033767,0.0083866,-0.00076992,0,0,0.050001,-0.020927,0,-0.0040036,0,0,0,0.027639,0.00031596,0.0083866,-1.6154,0.012114,0.024314,4.7338e-07,0.46,0.14,0
0.02343,0.0074967,0.027604,0.00028758,0.0083675,-0.0008171,0,0,0.050015,-0.021008,0,-0.0042489,0,0,0,0.027628,0.00026316,0.0083675,-1.7118,0.012086,0.024347,4.7382e-07,0.47,0.14,0
0.02393,0.0074707,0.027594,0.00023425,0.0083486,-0.00085832,0,0,0.050039,-0.021097,0,-0.0044633,0,0,0,0.027621,0.00020735,0.0083486,-1.7951,0.012059,0.024385,4.745e-07,0.48,0.14,0
0.02443,0.0074416,0.027589,0.00017768,0.0083299,-0.00089316,0,0,0.050073,-0.021196,0,-0.0046444,0,0,0,0.027618,0.00014861,0.0083299,-1.8643,0.012032,0.024428,4.7542e-07,0.49,0.14,0
0.024931,0.0074098,0.027587,0.00011794,0.0083114,-0.00092117,0,0,0.050116,-0.021303,0,-0.0047901,0,0,0,0.027617,8.7086e-05,0.0083114,-1.9186,0.012005,0.024477,4.7657e-07,0.5,0.14,0
0.025433,0.0073758,0.027588,5.5259e-05,0.0082931,-0.00094192,0,0,0.050168,-0.021418,0,-0.004898,0,0,0,0.02762,2.3073e-05,0.0082931,-1.9571,0.011979,0.024531,4.7792e-07,0.51,0.14,0
0.025935,0.0073401,0.027593,-1.0063e-05,0.008275,-0.00095499,0,0,0.050228,-0.021541,0,-0.0049659,0,0,0,0.027626,-4.3063e-05,0.008275,-1.9791,0.011953,0.024589,4.7944e-07,0.52,0.14,0
0.026437,0.0073031,0.027601,-7.7591e-05,0.0082571,-0.00095999,0,0,0.050295,-0.02167,0,-0.004992,0,0,0,0.027634,-0.00011085,0.0082571,-1.984,0.011927,0.024651,4.8112e-07,0.53,0.14,0
0.026941,0.0072652,0.027612,-0.00014679,0.0082395,-0.00095661,0,0,0.050368,-0.021804,0,-0.0049744,0,0,0,0.027645,-0.00017972,0.0082395,-1.9714,0.011902,0.024715,4.8293e-07,0.54,0.14,0
0.027445,0.007227,0.027624,-0.00021701,0.0082222,-0.00094459,0,0,0.050446,-0.021942,0,-0.0049119,0,0,0,0.027657,-0.00024902,0.0082222,-1.9409,0.011877,0.024781,4.8481e-07,0.55,0.14,0
0.027949,0.0071889,0.027639,-0.00028751,0.0082054,-0.00092376,0,0,0.050527,-0.022082,0,-0.0048036,0,0,0,0.027669,-0.00031803,0.0082054,-1.8925,0.011852,0.024848,4.8676e-07,0.56,0.14,0
0.028455,0.0071514,0.027655,-0.00035748,0.0081892,-0.00089405,0,0,0.050611,-0.022221,0,-0.0046491,0,0,0,0.027683,-0.00038598,0.0081892,-1.8262,0.011829,0.024914,4.8871e-07,0.57,0.14,0
0.028962,0.0071151,0.027671,-0.00042602,0.0081736,-0.00085551,0,0,0.050694,-0.022359,0,-0.0044487,0,0,0,0.027697,-0.00045204,0.0081736,-1.7424,0.011806,0.02498,4.9065e-07,0.58,0.14,0
0.029469,0.0070803,0.027688,-0.00049221,0.0081587,-0.00080831,0,0,0.050776,-0.022492,0,-0.0042032,0,0,0,0.027711,-0.00051537,0.0081587,-1.6417,0.011785,0.025043,4.9252e-07,0.59,0.14,0
0.029977,0.0070475,0.027704,-0.00055508,0.0081448,-0.00075274,0,0,0.050855,-0.02262,0,-0.0039143,0,0,0,0.027724,-0.00057511,0.0081448,-1.5247,0.011765,0.025102,4.943e-07,0.6,0.14,0
0.030486,0.0070171,0.02772,-0.00061368,0.0081318,-0.00068925,0,0,0.050929,-0.022738,0,-0.0035841,0,0,0,0.027737,-0.00063043,0.0081318,-1.3927,0.011746,0.025158,4.9594e-07,0.61,0.14,0
0.030996,0.0069895,0.027734,-0.00066708,0.00812,-0.00061838,0,0,0.050996,-0.022846,0,-0.0032156,0,0,0,0.027747,-0.00068053,0.00812,-1.2467,0.011729,0.025207,4.974e-07,0.62,0.14,0
0.031506,0.0069652,0.027746,-0.00071439,0.0081095,-0.00054084,0,0,0.051055,-0.022942,0,-0.0028124,0,0,0,0.027756,-0.00072466,0.0081095,-1.0883,0.011714,0.025251,4.9866e-07,0.63,0.14,0
0.032017,0.0069444,0.027756,-0.00075482,0.0081003,-0.00045743,0,0,0.051104,-0.023023,0,-0.0023786,0,0,0,0.027763,-0.00076215,0.0081003,-0.91895,0.0117,0.025287,4.9969e-07,0.64,0.14,0
0.032528,0.0069273,0.027763,-0.00078763,0.0080925,-0.00036907,0,0,0.051142,-0.023088,0,-0.0019192,0,0,0,0.027767,-0.0007924,0.0080925,-0.7405,0.011689,0.025315,5.0046e-07,0.65,0.14,0
0.03304,0.0069143,0.027766,-0.00081224,0.0080863,-0.00027677,0,0,0.051168,-0.023136,0,-0.0014392,0,0,0,0.027769,-0.00081492,0.0080863,-0.55481,0.01168,0.025335,5.0095e-07,0.66,0.14,0
0.033551,0.0069055,0.027767,-0.00082817,0.0080816,-0.00018161,0,0,0.051182,-0.023165,0,-0.00094435,0,0,0,0.027768,-0.00082933,0.0080816,-0.36386,0.011673,0.025345,5.0114e-07,0.67,0.14,0
0.034063,0.0069011,0.027764,-0.00083509,0.0080786,-8.472e-05,0,0,0.051181,-0.023176,0,-0.00044055,0,0,0,0.027764,-0.00083534,0.0080786,-0.16973,0.011669,0.025346,5.0103e-07,0.68,0.14,0
0.034575,0.006901,0.027757,-0.0008328,0.0080771,1.2716e-05,0,0,0.051167,-0.023166,0,6.6122e-05,0,0,0,0.027757,-0.00083281,0.0080771,0.025484,0.011667,0.025338,5.0059e-07,0.69,0.14,0
0.035087,0.0069054,0.027746,-0.00082128,0.0080774,0.00010951,0,0,0.051138,-0.023136,0,0.00056948,0,0,0,0.027746,-0.0008217,0.0080774,0.21965,0.011667,0.02532,4.9984e-07,0.7,0.14,0
0.035598,0.0069143,0.027731,-0.00080065,0.0080792,0.0002045,0,0,0.051095,-0.023088,0,0.0010634,0,0,0,0.027733,-0.00080212,0.0080792,0.41063,0.01167,0.025292,4.9877e-07,0.71,0.14,0
0.036109,0.0069274,0.027713,-0.00077119,0.0080825,0.00029651,0,0,0.051039,-0.02302,0,0.0015418,0,0,0,0.027716,-0.00077428,0.0080825,0.59634,0.011675,0.025255,4.9739e-07,0.72,0.14,0
0.036619,0.0069447,0.027691,-0.00073332,0.0080873,0.00038444,0,0,0.05097,-0.022934,0,0.0019991,0,0,0,0.027696,-0.00073852,0.0080873,0.77475,0.011682,0.025208,4.957e-07,0.73,0.14,0
0.037128,0.006966,0.027666,-0.00068759,0.0080935,0.00046727,0,0,0.050888,-0.022831,0,0.0024298,0,0,0,0.027674,-0.00069529,0.0080935,0.9439,0.01169,0.025154,4.9373e-07,0.74,0.14,0
0.037637,0.006991,0.027638,-0.00063468,0.0081009,0.00054403,0,0,0.050796,-0.022713,0,0.002829,0,0,0,0.027648,-0.00064514,0.0081009,1.102,0.011701,0.025091,4.915e-07,0.75,0.14,0
0.038144,0.0070194,0.027607,-0.00057537,0.0081094,0.00061389,0,0,0.050693,-0.02258,0,0.0031922,0,0,0,0.02762,-0.00058874,0.0081094,1.2473,0.011714,0.025021,4.8903e-07,0.76,0.14,0
0.03865,0.007051,0.027574,-0.00051055,0.008119,0.00067611,0,0,0.050583,-0.022437,0,0.0035158,0,0,0,0.02759,-0.00052681,0.008119,1.3783,0.011727,0.024944,4.8634e-07,0.77,0.14,0
0.039156,0.0070854,0.027539,-0.00044113,0.0081294,0.00073009,0,0,0.050465,-0.022283,0,0.0037964,0,0,0,0.027558,-0.00046017,0.0081294,1.4937,0.011742,0.024862,4.8347e-07,0.78,0.14,0
0.03966,0.0071221,0.027503,-0.0003681,0.0081404,0.00077535,0,0,0.050342,-0.022122,0,0.0040318,0,0,0,0.027524,-0.00038966,0.0081404,1.5923,0.011758,0.024776,4.8045e-07,0.79,0.14,0
0.040162,0.0071608,0.027466,-0.00029246,0.008152,0.00081156,0,0,0.050216,-0.021955,0,0.0042201,0,0,0,0.027489,-0.00031617,0.008152,1.6732,0.011775,0.024686,4.7732e-07,0.8,0.14,0
0.040664,0.0072011,0.027428,-0.0002152,0.0081639,0.00083853,0,0,0.050087,-0.021786,0,0.0043604,0,0,0,0.027454,-0.00024061,0.0081639,1.7359,0.011792,0.024594,4.7411e-07,0.81,0.14,0
0.041164,0.0072425,0.027391,-0.00013728,0.0081761,0.00085619,0,0,0.049958,-0.021615,0,0.0044522,0,0,0,0.027417,-0.00016389,0.0081761,1.7797,0.01181,0.0245,4.7085e-07,0.82,0.14,0
0.041663,0.0072845,0.027354,-5.9628e-05,0.0081882,0.00086459,0,0,0.04983,-0.021444,0,0.0044959,0,0,0,0.027381,-8.6869e-05,0.0081882,1.8047,0.011827,0.024406,4.6759e-07,0.83,0.14,0
0.042161,0.0073268,0.027318,1.6896e-05,0.0082004,0.0008639,0,0,0.049705,-0.021277,0,0.0044923,0,0,0,0.027345,-1.0414e-05,0.0082004,1.8107,0.011845,0.024313,4.6436e-07,0.84,0.14,0
0.042657,0.007369,0.027283,9.1504e-05,0.0082123,0.00085441,0,0,0.049583,-0.021114,0,0.0044429,0,0,0,0.02731,6.4683e-05,0.0082123,1.798,0.011862,0.024221,4.6119e-07,0.85,0.14,0
0.043152,0.0074105,0.027249,0.00016349,0.0082238,0.00083646,0,0,0.049466,-0.020957,0,0.0043496,0,0,0,0.027275,0.00013768,0.0082238,1.7671,0.011879,0.024133,4.5811e-07,0.86,0.14,0
0.043646,0.007451,0.027217,0.00023222,0.0082349,0.00081049,0,0,0.049355,-0.020807,0,0.0042146,0,0,0,0.027242,0.0002079,0.0082349,1.7188,0.011895,0.024047,4.5516e-07,0.87,0.14,0
0.044139,0.0074902,0.027188,0.00029718,0.0082455,0.000777,0,0,0.04925,-0.020666,0,0.0040404,0,0,0,0.02721,0.00027475,0.0082455,1.6537,0.01191,0.023966,4.5235e-07,0.88,0.14,0
0.044631,0.0075276,0.02716,0.00035791,0.0082555,0.00073653,0,0,0.049153,-0.020534,0,0.00383,0,0,0,0.02718,0.00033769,0.0082555,1.5729,0.011924,0.023889,4.497e-07,0.89,0.14,0
0.045123,0.0075629,0.027135,0.00041406,0.0082647,0.00068965,0,0,0.049063,-0.020412,0,0.0035862,0,0,0,0.027153,0.00039628,0.0082647,1.4775,0.011938,0.023818,4.4724e-07,0.9,0.14,0
0.045613,0.0075958,0.027112,0.00046534,0.0082732,0.00063696,0,0,0.048981,-0.0203,0,0.0033122,0,0,0,0.027127,0.00045013,0.0082732,1.3685,0.01195,0.023752,4.4498e-07,0.91,0.14,0
0.046102,0.007626,0.027092,0.00051153,0.008281,0.00057905,0,0,0.048908,-0.0202,0,0.0030111,0,0,0,0.027104,0.00049892,0.008281,1.2474,0.011961,0.023693,4.4294e-07,0.92,0.14,0
0.046591,0.0076533,0.027074,0.00055248,0.0082878,0.00051655,0,0,0.048843,-0.020112,0,0.002686,0,0,0,0.027084,0.00054242,0.0082878,1.1154,0.011971,0.02364,4.4112e-07,0.93,0.14,0
0.047079,0.0076774,0.027058,0.00058806,0.0082939,0.00045005,0,0,0.048787,-0.020035,0,0.0023402,0,0,0,0.027066,0.00058042,0.0082939,0.97377,0.01198,0.023594,4.3953e-07,0.94,0.14,0
0.047567,0.0076981,0.027045,0.00061823,0.008299,0.00038015,0,0,0.04874,-0.01997,0,0.0019768,0,0,0,0.027051,0.00061276,0.008299,0.82398,0.011987,0.023555,4.3818e-07,0.95,0.14,0
0.048054,0.0077153,0.027034,0.00064293,0.0083032,0.00030745,0,0,0.048701,-0.019917,0,0.0015987,0,0,0,0.027038,0.00063935,0.0083032,0.66735,0.011994,0.023522,4.3707e-07,0.96,0.14,0
0.048541,0.0077288,0.027026,0.00066214,0.0083065,0.00023252,0,0,0.048671,-0.019875,0,0.0012091,0,0,0,0.027028,0.00066009,0.0083065,0.50528,0.011998,0.023497,4.362e-07,0.97,0.14,0
0.049027,0.0077386,0.02702,0.00067587,0.0083088,0.00015593,0,0,0.04865,-0.019846,0,0.00081084,0,0,0,0.027021,0.00067494,0.0083088,0.33911,0.012002,0.023479,4.3559e-07,0.98,0.14,0
0.049514,0.0077444,0.027017,0.0006841,0.0083102,7.824e-05,0,0,0.048637,-0.019828,0,0.00040685,0,0,0,0.027017,0.00068387,0.0083102,0.17024,0.012004,0.023468,4.3521e-07,0.99,0.14,0
0.05,0.0077464,0.027016,0.00068684,0.0083107,3.7714e-05,0,0,0.048633,-0.019822,0,0.00019611,0,0,0,0.027016,0.00068679,0.0083107,0.082072,0.012004,0.023465,4.3509e-07,1,0.14,0
0,0,0.028119,0.012051,0.012051,0.0063428,0,0,0.041776,-1.7347e-18,0,0.032983,0,0,0,0.030321,0.0098487,0.012051,19.146,0.017407,0.019464,3.6245e-07,0,0.15,0
0.00041776,0.00032983,0.028067,0.011372,0.011832,0.0063364,0,0,0.042211,-0.0011942,0,0.032949,0,0,0,0.030199,0.0092398,0.011832,18.601,0.01709,0.019791,3.7522e-07,0.01,0.15,0
0.00084421,0.00066254,0.028295,0.010768,0.011719,0.0063368,0,0,0.043098,-0.0024732,0,0.032952,0,0,0,0.030346,0.0087166,0.011719,17.935,0.016927,0.020296,3.9788e-07,0.02,0.15,0
0.0012797,0.00099683,0.028525,0.010129,0.011596,0.0063005,0,0,0.044014,-0.0038137,0,0.032763,0,0,0,0.030475,0.0081783,0.011596,17.206,0.01675,0.0208,4.2042e-07,0.03,0.15,0
0.0017245,0.0013312,0.028748,0.0094701,0.011465,0.0062236,0,0,0.044935,-0.0051878,0,0.032363,0,0,0,0.030583,0.0076355,0.011465,16.425,0.016561,0.021292,4.4218e-07,0.04,0.15,0
0.0021784,0.0016639,0.028959,0.0088034,0.011329,0.0061053,0,0,0.045839,-0.0065662,0,0.031747,0,0,0,0.030664,0.0070983,0.011329,15.604,0.016364,0.021761,4.6258e-07,0.05,0.15,0
0.0026413,0.0019933,0.029153,0.0081419,0.011188,0.0059471,0,0,0.046707,-0.0079208,0,0.030925,0,0,0,0.030719,0.0065754,0.011188,14.757,0.016161,0.0222,4.8114e-07,0.06,0.15,0
0.0031126,0.0023177,0.029323,0.0074971,0.011046,0.0057532,0,0,0.047521,-0.0092274,0,0.029917,0,0,0,0.030747,0.0060735,0.011046,13.899,0.015956,0.022601,4.9755e-07,0.07,0.15,0
0.0035917,0.0026355,0.029468,0.0068782,0.010904,0.0055288,0,0,0.048266,-0.010466,0,0.02875,0,0,0,0.030748,0.0055976,0.010904,13.041,0.01575,0.022962,5.1163e-07,0.08,0.15,0
0.0040779,0.0029455,0.029584,0.0062922,0.010763,0.0052803,0,0,0.048935,-0.011624,0,0.027458,0,0,0,0.030725,0.005151,0.010763,12.195,0.015546,0.023281,5.2334e-07,0.09,0.15,0
0.0045704,0.0032465,0.029672,0.0057435,0.010625,0.0050142,0,0,0.049523,-0.012691,0,0.026074,0,0,0,0.03068,0.0047353,0.010625,11.369,0.015347,0.023559,5.3273e-07,0.1,0.15,0
0.0050684,0.0035375,0.029732,0.0052347,0.01049,0.0047365,0,0,0.05003,-0.013664,0,0.02463,0,0,0,0.030616,0.0043508,0.01049,10.57,0.015152,0.023797,5.3997e-07,0.11,0.15,0
0.005571,0.0038177,0.029767,0.0047666,0.01036,0.0044528,0,0,0.050458,-0.014543,0,0.023155,0,0,0,0.030537,0.0039972,0.01036,9.8034,0.014965,0.023999,5.4524e-07,0.12,0.15,0
0.0060775,0.0040868,0.029778,0.0043387,0.010235,0.004168,0,0,0.050812,-0.015331,0,0.021674,0,0,0,0.030444,0.0036732,0.010235,9.0714,0.014784,0.024167,5.4878e-07,0.13,0.15,0
0.0065872,0.0043442,0.029769,0.0039495,0.010115,0.0038859,0,0,0.051098,-0.016031,0,0.020206,0,0,0,0.030341,0.0033774,0.010115,8.3761,0.014611,0.024305,5.5082e-07,0.14,0.15,0
0.0070995,0.0045898,0.029741,0.003597,0.010001,0.0036095,0,0,0.051323,-0.016651,0,0.01877,0,0,0,0.03023,0.0031078,0.010001,7.7181,0.014446,0.024417,5.5158e-07,0.15,0.15,0
0.0076137,0.0048234,0.029698,0.0032788,0.0098931,0.0033412,0,0,0.051493,-0.017197,0,0.017374,0,0,0,0.030114,0.0028628,0.0098931,7.0972,0.01429,0.024505,5.5129e-07,0.16,0.15,0
0.0081294,0.0050451,0.029643,0.0029922,0.0097906,0.0030826,0,0,0.051616,-0.017676,0,0.01603,0,0,0,0.029995,0.0026402,0.0097906,6.5126,0.014142,0.024573,5.5012e-07,0.17,0.15,0
0.008646,0.0052549,0.029578,0.0027346,0.0096937,0.0028347,0,0,0.051698,-0.018094,0,0.014741,0,0,0,0.029874,0.0024385,0.0096937,5.963,0.014002,0.024623,5.4825e-07,0.18,0.15,0
0.0091633,0.005453,0.029504,0.0025034,0.0096024,0.0025982,0,0,0.051745,-0.018457,0,0.013511,0,0,0,0.029752,0.0022556,0.0096024,5.4468,0.01387,0.024658,5.4583e-07,0.19,0.15,0
0.0096809,0.0056396,0.029425,0.0022962,0.0095164,0.0023733,0,0,0.051763,-0.018773,0,0.012341,0,0,0,0.029631,0.0020901,0.0095164,4.9621,0.013746,0.024681,5.4299e-07,0.2,0.15,0
0.010199,0.0058148,0.029342,0.0021107,0.0094357,0.0021599,0,0,0.051756,-0.019045,0,0.011232,0,0,0,0.029512,0.0019404,0.0094357,4.5071,0.013629,0.024692,5.3982e-07,0.21,0.15,0
0.010716,0.005979,0.029255,0.0019447,0.00936,0.0019579,0,0,0.051728,-0.01928,0,0.010181,0,0,0,0.029395,0.001805,0.00936,4.0797,0.01352,0.024695,5.3642e-07,0.22,0.15,0
0.011233,0.0061325,0.029167,0.0017962,0.009289,0.0017667,0,0,0.051683,-0.019481,0,0.0091869,0,0,0,0.029281,0.0016827,0.009289,3.678,0.013417,0.02469,5.3285e-07,0.23,0.15,0
0.01175,0.0062753,0.029078,0.0016636,0.0092225,0.001586,0,0,0.051624,-0.019653,0,0.0082471,0,0,0,0.02917,0.0015721,0.0092225,3.3,0.013321,0.024678,5.2919e-07,0.24,0.15,0
0.012266,0.006408,0.028989,0.001545,0.0091602,0.0014151,0,0,0.051555,-0.0198,0,0.0073586,0,0,0,0.029062,0.0014723,0.0091602,2.944,0.013232,0.024661,5.2548e-07,0.25,0.15,0
0.012781,0.0065306,0.028901,0.0014391,0.009102,0.0012535,0,0,0.051477,-0.019924,0,0.0065181,0,0,0,0.028958,0.001382,0.009102,2.608,0.013147,0.02464,5.2176e-07,0.26,0.15,0
0.013295,0.0066436,0.028814,0.0013444,0.0090475,0.0011005,0,0,0.051393,-0.020028,0,0.0057224,0,0,0,0.028858,0.0013004,0.0090475,2.2904,0.013069,0.024616,5.1806e-07,0.27,0.15,0
0.013809,0.0067472,0.028729,0.0012597,0.0089965,0.00095546,0,0,0.051304,-0.020116,0,0.0049684,0,0,0,0.028762,0.0012265,0.0089965,1.9897,0.012995,0.024589,5.1442e-07,0.28,0.15,0
0.014321,0.0068417,0.028645,0.0011838,0.0089488,0.00081787,0,0,0.051211,-0.020189,0,0.0042529,0,0,0,0.02867,0.0011595,0.0089488,1.7044,0.012926,0.02456,5.1085e-07,0.29,0.15,0
0.014833,0.0069273,0.028564,0.0011157,0.008904,0.00068711,0,0,0.051117,-0.02025,0,0.003573,0,0,0,0.028582,0.0010985,0.008904,1.4331,0.012861,0.02453,5.0738e-07,0.3,0.15,0
0.015344,0.0070044,0.028486,0.0010542,0.0088621,0.00056265,0,0,0.051022,-0.0203,0,0.0029258,0,0,0,0.028497,0.0010427,0.0088621,1.1745,0.012801,0.0245,5.0403e-07,0.31,0.15,0
0.015853,0.0070731,0.02841,0.00099856,0.0088226,0.00044399,0,0,0.050928,-0.020343,0,0.0023088,0,0,0,0.028417,0.00099137,0.0088226,0.9277,0.012744,0.024469,5.0081e-07,0.32,0.15,0
0.016362,0.0071338,0.028337,0.00094776,0.0087856,0.00033068,0,0,0.050835,-0.020378,0,0.0017196,0,0,0,0.028341,0.00094377,0.0087856,0.69162,0.01269,0.024439,4.9774e-07,0.33,0.15,0
0.01687,0.0071867,0.028268,0.00090099,0.0087506,0.00022234,0,0,0.050744,-0.020409,0,0.0011562,0,0,0,0.028269,0.00089918,0.0087506,0.46545,0.01264,0.024411,4.9483e-07,0.34,0.15,0
0.017377,0.007232,0.028201,0.00085742,0.0087175,0.00011861,0,0,0.050657,-0.020436,0,0.00061678,0,0,0,0.028202,0.0008569,0.0087175,0.24853,0.012592,0.024384,4.9209e-07,0.35,0.15,0
0.017883,0.0072701,0.028138,0.00081627,0.0086862,1.9227e-05,0,0,0.050574,-0.020462,0,9.9982e-05,0,0,0,0.028138,0.00081626,0.0086862,0.040322,0.012547,0.024359,4.8954e-07,0.36,0.15,0
0.018388,0.0073011,0.028078,0.0007768,0.0086563,-7.6032e-05,0,0,0.050495,-0.020487,0,-0.00039537,0,0,0,0.028078,0.00077659,0.0086563,-0.15957,0.012504,0.024338,4.872e-07,0.37,0.15,0
0.018893,0.0073254,0.028021,0.00073828,0.0086278,-0.00016732,0,0,0.050423,-0.020513,0,-0.00087005,0,0,0,0.028022,0.00073725,0.0086278,-0.35136,0.012462,0.024319,4.8506e-07,0.38,0.15,0
0.019397,0.0073431,0.027968,0.00070002,0.0086004,-0.00025471,0,0,0.050356,-0.020541,0,-0.0013245,0,0,0,0.02797,0.00069764,0.0086004,-0.53514,0.012423,0.024305,4.8315e-07,0.39,0.15,0
0.0199,0.0073547,0.027919,0.00066137,0.0085741,-0.00033824,0,0,0.050297,-0.020573,0,-0.0017588,0,0,0,0.027923,0.00065717,0.0085741,-0.71084,0.012385,0.024295,4.8148e-07,0.4,0.15,0
0.020403,0.0073603,0.027873,0.0006217,0.0085485,-0.00041784,0,0,0.050245,-0.02061,0,-0.0021728,0,0,0,0.02788,0.0006153,0.0085485,-0.87823,0.012348,0.02429,4.8005e-07,0.41,0.15,0
0.020905,0.0073603,0.027832,0.00058044,0.0085237,-0.0004934,0,0,0.050201,-0.020652,0,-0.0025657,0,0,0,0.027841,0.00057151,0.0085237,-1.0369,0.012312,0.02429,4.7888e-07,0.42,0.15,0
0.021407,0.0073549,0.027794,0.00053707,0.0084994,-0.00056474,0,0,0.050167,-0.020702,0,-0.0029366,0,0,0,0.027806,0.00052537,0.0084994,-1.1864,0.012277,0.024296,4.7798e-07,0.43,0.15,0
0.021908,0.0073445,0.027761,0.0004911,0.0084756,-0.00063159,0,0,0.050142,-0.02076,0,-0.0032842,0,0,0,0.027775,0.00047648,0.0084756,-1.3261,0.012242,0.024307,4.7734e-07,0.44,0.15,0
0.02241,0.0073295,0.027731,0.00044214,0.0084521,-0.00069365,0,0,0.050126,-0.020826,0,-0.003607,0,0,0,0.027749,0.00042452,0.0084521,-1.4551,0.012209,0.024325,4.7698e-07,0.45,0.15,0
0.022911,0.0073101,0.027706,0.00038986,0.0084289,-0.00075055,0,0,0.050121,-0.020901,0,-0.0039029,0,0,0,0.027727,0.00036926,0.0084289,-1.5727,0.012175,0.02435,4.769e-07,0.46,0.15,0
0.023412,0.0072867,0.027685,0.00033403,0.0084058,-0.00080189,0,0,0.050127,-0.020987,0,-0.0041698,0,0,0,0.027709,0.00031055,0.0084058,-1.6779,0.012142,0.02438,4.7708e-07,0.47,0.15,0
0.023914,0.0072597,0.027668,0.00027452,0.0083829,-0.0008472,0,0,0.050143,-0.021082,0,-0.0044054,0,0,0,0.027695,0.00024834,0.0083829,-1.7697,0.012109,0.024417,4.7753e-07,0.48,0.15,0
0.024415,0.0072296,0.027656,0.00021128,0.0083601,-0.00088601,0,0,0.050169,-0.021187,0,-0.0046073,0,0,0,0.027684,0.00018271,0.0083601,-1.8472,0.012076,0.024461,4.7824e-07,0.49,0.15,0
0.024917,0.0071968,0.027647,0.00014442,0.0083375,-0.00091784,0,0,0.050205,-0.021302,0,-0.0047728,0,0,0,0.027678,0.00011383,0.0083375,-1.9093,0.012043,0.02451,4.7919e-07,0.5,0.15,0
0.025419,0.0071616,0.027642,7.4147e-05,0.0083149,-0.00094218,0,0,0.050251,-0.021426,0,-0.0048993,0,0,0,0.027674,4.1984e-05,0.0083149,-1.9551,0.01201,0.024564,4.8037e-07,0.51,0.15,0
0.025922,0.0071246,0.027641,8.0155e-07,0.0082925,-0.00095858,0,0,0.050306,-0.021558,0,-0.0049846,0,0,0,0.027674,-3.2403e-05,0.0082925,-1.9839,0.011978,0.024623,4.8174e-07,0.52,0.15,0
0.026425,0.0070862,0.027643,-7.514e-05,0.0082703,-0.00096658,0,0,0.050369,-0.021698,0,-0.0050262,0,0,0,0.027676,-0.00010881,0.0082703,-1.9948,0.011946,0.024686,4.8328e-07,0.53,0.15,0
0.026929,0.0070469,0.027648,-0.00015307,0.0082484,-0.00096583,0,0,0.050438,-0.021844,0,-0.0050223,0,0,0,0.027681,-0.00018659,0.0082484,-1.9873,0.011914,0.024753,4.8497e-07,0.54,0.15,0
0.027434,0.0070073,0.027655,-0.00023228,0.0082269,-0.000956,0,0,0.050514,-0.021994,0,-0.0049712,0,0,0,0.027688,-0.00026501,0.0082269,-1.961,0.011883,0.024822,4.8676e-07,0.55,0.15,0
0.027939,0.0069677,0.027665,-0.00031191,0.0082059,-0.00093688,0,0,0.050594,-0.022146,0,-0.0048718,0,0,0,0.027696,-0.00034325,0.0082059,-1.9159,0.011853,0.024892,4.8863e-07,0.56,0.15,0
0.028446,0.0069288,0.027676,-0.00039104,0.0081856,-0.00090838,0,0,0.050676,-0.022299,0,-0.0047236,0,0,0,0.027706,-0.00042041,0.0081856,-1.8518,0.011824,0.024962,4.9052e-07,0.57,0.15,0
0.028953,0.006891,0.027689,-0.00046866,0.008166,-0.0008705,0,0,0.050759,-0.02245,0,-0.0045266,0,0,0,0.027716,-0.00049554,0.008166,-1.7691,0.011795,0.025031,4.924e-07,0.58,0.15,0
0.029461,0.0068548,0.027702,-0.00054369,0.0081474,-0.00082339,0,0,0.050841,-0.022597,0,-0.0042816,0,0,0,0.027726,-0.00056767,0.0081474,-1.6684,0.011768,0.025097,4.9423e-07,0.59,0.15,0
0.02997,0.0068207,0.027715,-0.00061504,0.0081299,-0.00076736,0,0,0.05092,-0.022737,0,-0.0039903,0,0,0,0.027735,-0.00063581,0.0081299,-1.5505,0.011743,0.025161,4.9597e-07,0.6,0.15,0
0.030479,0.0067891,0.027727,-0.00068162,0.0081136,-0.00070285,0,0,0.050995,-0.022868,0,-0.0036548,0,0,0,0.027744,-0.00069899,0.0081136,-1.4164,0.01172,0.025219,4.9757e-07,0.61,0.15,0
0.03099,0.0067604,0.027738,-0.00074235,0.0080988,-0.00063044,0,0,0.051062,-0.022987,0,-0.0032783,0,0,0,0.027752,-0.00075629,0.0080988,-1.2675,0.011698,0.025272,4.99e-07,0.62,0.15,0
0.031501,0.006735,0.027748,-0.00079622,0.0080855,-0.00055085,0,0,0.051122,-0.023092,0,-0.0028644,0,0,0,0.027758,-0.00080684,0.0080855,-1.1052,0.011679,0.025319,5.0023e-07,0.63,0.15,0
0.032012,0.0067133,0.027755,-0.0008423,0.0080739,-0.00046495,0,0,0.051172,-0.023182,0,-0.0024178,0,0,0,0.027763,-0.00084986,0.0080739,-0.93121,0.011662,0.025357,5.0123e-07,0.64,0.15,0
0.032524,0.0066956,0.02776,-0.00087978,0.0080641,-0.00037371,0,0,0.05121,-0.023254,0,-0.0019433,0,0,0,0.027765,-0.00088466,0.0080641,-0.74745,0.011648,0.025387,5.0196e-07,0.65,0.15,0
0.033036,0.0066821,0.027762,-0.00090797,0.0080563,-0.0002782,0,0,0.051236,-0.023307,0,-0.0014466,0,0,0,0.027765,-0.00091067,0.0080563,-0.55589,0.011637,0.025408,5.024e-07,0.66,0.15,0
0.033549,0.006673,0.027761,-0.00092632,0.0080504,-0.00017957,0,0,0.051248,-0.02334,0,-0.00093375,0,0,0,0.027762,-0.00092744,0.0080504,-0.35862,0.011628,0.025419,5.0255e-07,0.67,0.15,0
0.034061,0.0066684,0.027756,-0.00093445,0.0080466,-7.9036e-05,0,0,0.051246,-0.023351,0,-0.00041099,0,0,0,0.027757,-0.00093467,0.0080466,-0.15783,0.011623,0.02542,5.0238e-07,0.68,0.15,0
0.034574,0.0066685,0.027748,-0.00093215,0.0080449,2.2147e-05,0,0,0.051229,-0.02334,0,0.00011517,0,0,0,0.027748,-0.00093217,0.0080449,0.044244,0.01162,0.02541,5.0189e-07,0.69,0.15,0
0.035086,0.0066732,0.027737,-0.0009194,0.0080451,0.00012271,0,0,0.051198,-0.023308,0,0.00063811,0,0,0,0.027737,-0.00091992,0.0080451,0.24535,0.011621,0.025391,5.0107e-07,0.7,0.15,0
0.035598,0.0066826,0.027721,-0.00089631,0.0080474,0.00022141,0,0,0.051152,-0.023254,0,0.0011513,0,0,0,0.027723,-0.00089803,0.0080474,0.44325,0.011624,0.02536,4.9992e-07,0.71,0.15,0
0.036109,0.0066964,0.027702,-0.00086322,0.0080517,0.00031699,0,0,0.051091,-0.023179,0,0.0016484,0,0,0,0.027706,-0.00086674,0.0080517,0.63571,0.01163,0.02532,4.9846e-07,0.72,0.15,0
0.036619,0.0067146,0.02768,-0.00082061,0.0080578,0.00040829,0,0,0.051017,-0.023084,0,0.0021231,0,0,0,0.027686,-0.00082645,0.0080578,0.82059,0.011639,0.02527,4.9669e-07,0.73,0.15,0
0.037129,0.006737,0.027654,-0.0007691,0.0080656,0.00049421,0,0,0.050931,-0.02297,0,0.0025699,0,0,0,0.027663,-0.00077769,0.0080656,0.99582,0.01165,0.025211,4.9463e-07,0.74,0.15,0
0.037638,0.0067632,0.027626,-0.00070948,0.008075,0.00057372,0,0,0.050833,-0.02284,0,0.0029834,0,0,0,0.027638,-0.00072109,0.008075,1.1595,0.011664,0.025143,4.923e-07,0.75,0.15,0
0.038146,0.0067931,0.027595,-0.00064265,0.0080859,0.00064595,0,0,0.050725,-0.022694,0,0.0033589,0,0,0,0.02761,-0.00065742,0.0080859,1.3097,0.01168,0.025067,4.8972e-07,0.76,0.15,0
0.038653,0.0068262,0.027563,-0.00056961,0.0080979,0.0007101,0,0,0.050609,-0.022536,0,0.0036925,0,0,0,0.027581,-0.00058753,0.0080979,1.445,0.011697,0.024985,4.8693e-07,0.77,0.15,0
0.039158,0.0068621,0.027529,-0.00049144,0.0081111,0.00076555,0,0,0.050485,-0.022367,0,0.0039809,0,0,0,0.027549,-0.00051234,0.0081111,1.5639,0.011716,0.024896,4.8395e-07,0.78,0.15,0
0.039662,0.0069006,0.027493,-0.00040924,0.0081251,0.00081182,0,0,0.050356,-0.022189,0,0.0042215,0,0,0,0.027517,-0.00043284,0.0081251,1.6652,0.011736,0.024804,4.8082e-07,0.79,0.15,0
0.040165,0.006941,0.027457,-0.00032417,0.0081398,0.00084857,0,0,0.050224,-0.022006,0,0.0044126,0,0,0,0.027483,-0.00035007,0.0081398,1.7479,0.011758,0.024707,4.7758e-07,0.8,0.15,0
0.040667,0.006983,0.027421,-0.00023736,0.008155,0.00087561,0,0,0.050091,-0.02182,0,0.0045532,0,0,0,0.027448,-0.00026505,0.008155,1.8115,0.011779,0.024608,4.7427e-07,0.81,0.15,0
0.041167,0.0070262,0.027384,-0.0001499,0.0081704,0.0008929,0,0,0.049957,-0.021633,0,0.0046431,0,0,0,0.027413,-0.00017882,0.0081704,1.8554,0.011802,0.024509,4.7092e-07,0.82,0.15,0
0.041666,0.00707,0.027349,-6.2849e-05,0.0081859,0.00090052,0,0,0.049824,-0.021447,0,0.0046827,0,0,0,0.027379,-9.24e-05,0.0081859,1.8795,0.011824,0.024408,4.6757e-07,0.83,0.15,0
0.042164,0.0071141,0.027315,2.2824e-05,0.0082013,0.00089869,0,0,0.049695,-0.021264,0,0.0046732,0,0,0,0.027344,-6.7366e-06,0.0082013,1.884,0.011846,0.02431,4.6426e-07,0.84,0.15,0
0.04266,0.0071579,0.027282,0.00010623,0.0082164,0.00088772,0,0,0.04957,-0.021087,0,0.0046162,0,0,0,0.027311,7.7264e-05,0.0082164,1.869,0.011868,0.024213,4.6103e-07,0.85,0.15,0
0.043155,0.0072011,0.027251,0.00018658,0.0082311,0.00086803,0,0,0.04945,-0.020916,0,0.0045138,0,0,0,0.027278,0.00015877,0.0082311,1.8352,0.011889,0.024119,4.579e-07,0.86,0.15,0
0.043649,0.0072432,0.027221,0.00026319,0.0082453,0.00084011,0,0,0.049337,-0.020754,0,0.0043686,0,0,0,0.027247,0.00023704,0.0082453,1.7832,0.01191,0.024029,4.5489e-07,0.87,0.15,0
0.044142,0.0072838,0.027194,0.00033547,0.0082588,0.00080449,0,0,0.049231,-0.020601,0,0.0041833,0,0,0,0.027218,0.0003114,0.0082588,1.7141,0.011929,0.023943,4.5205e-07,0.88,0.15,0
0.044633,0.0073226,0.027169,0.00040295,0.0082715,0.00076176,0,0,0.049133,-0.020458,0,0.0039612,0,0,0,0.02719,0.00038129,0.0082715,1.6289,0.011948,0.023863,4.4938e-07,0.89,0.15,0
0.045124,0.0073592,0.027146,0.00046523,0.0082833,0.00071254,0,0,0.049043,-0.020327,0,0.0037052,0,0,0,0.027165,0.00044622,0.0082833,1.5287,0.011965,0.023789,4.4691e-07,0.9,0.15,0
0.045614,0.0073932,0.027125,0.00052202,0.0082942,0.00065746,0,0,0.048961,-0.020208,0,0.0034188,0,0,0,0.027141,0.00050578,0.0082942,1.4148,0.01198,0.023721,4.4465e-07,0.91,0.15,0
0.046104,0.0074245,0.027107,0.0005731,0.0083041,0.00059716,0,0,0.048888,-0.020101,0,0.0031052,0,0,0,0.02712,0.00055966,0.0083041,1.2886,0.011995,0.023659,4.4261e-07,0.92,0.15,0
0.046592,0.0074527,0.027091,0.00061831,0.0083129,0.00053227,0,0,0.048824,-0.020006,0,0.0027678,0,0,0,0.027102,0.00060761,0.0083129,1.1514,0.012008,0.023605,4.408e-07,0.93,0.15,0
0.04708,0.0074776,0.027078,0.00065756,0.0083205,0.00046341,0,0,0.048768,-0.019924,0,0.0024097,0,0,0,0.027086,0.00064943,0.0083205,1.0046,0.012019,0.023557,4.3923e-07,0.94,0.15,0
0.047567,0.007499,0.027066,0.00069078,0.0083271,0.0003912,0,0,0.048722,-0.019855,0,0.0020342,0,0,0,0.027072,0.00068498,0.0083271,0.84955,0.012028,0.023516,4.3789e-07,0.95,0.15,0
0.048054,0.0075167,0.027057,0.00071796,0.0083325,0.00031622,0,0,0.048684,-0.019798,0,0.0016443,0,0,0,0.027061,0.00071417,0.0083325,0.68774,0.012036,0.023483,4.368e-07,0.96,0.15,0
0.048541,0.0075307,0.02705,0.00073909,0.0083367,0.00023906,0,0,0.048655,-0.019754,0,0.0012431,0,0,0,0.027052,0.00073692,0.0083367,0.52052,0.012042,0.023458,4.3594e-07,0.97,0.15,0
0.049028,0.0075407,0.027045,0.00075417,0.0083397,0.00016027,0,0,0.048634,-0.019723,0,0.00083338,0,0,0,0.027046,0.00075319,0.0083397,0.34925,0.012046,0.023439,4.3534e-07,0.98,0.15,0
0.049514,0.0075468,0.027042,0.00076321,0.0083415,8.04e-05,0,0,0.048621,-0.019704,0,0.00041808,0,0,0,0.027042,0.00076297,0.0083415,0.1753,0.012049,0.023428,4.3497e-07,0.99,0.15,0
0.05,0.0075488,0.027041,0.00076623,0.0083422,3.8885e-05,0,0,0.048617,-0.019697,0,0.0002022,0,0,0,0.027041,0.00076617,0.0083422,0.084794,0.01205,0.023425,4.3485e-07,1,0.15,0
0,0,0.028014,0.012006,0.012006,0.0061186,0,0,0.041621,-6.5052e-19,0,0.031817,0,0,0,0.030085,0.0099351,0.012006,18.698,0.017342,0.019198,3.4919e-07,0,0.16,0
0.00041621,0.00031817,0.027964,0.011357,0.011796,0.0061125,0,0,0.042035,-0.0011416,0,0.031785,0,0,0,0.029971,0.0093498,0.011796,18.18,0.017039,0.019513,3.6146e-07,0.01,0.16,0
0.0008407,0.00063844,0.028183,0.010784,0.01169,0.0061091,0,0,0.04288,-0.0023547,0,0.031767,0,0,0,0.030113,0.0088536,0.01169,17.54,0.016886,0.019993,3.8274e-07,0.02,0.16,0
0.0012738,0.00095974,0.028402,0.010183,0.011576,0.0060746,0,0,0.043749,-0.0036206,0,0.031588,0,0,0,0.030242,0.0083435,0.011576,16.848,0.01672,0.020475,4.0405e-07,0.03,0.16,0
0.0017157,0.0012807,0.028618,0.0095632,0.011454,0.0060059,0,0,0.044625,-0.004917,0,0.031231,0,0,0,0.030353,0.0078282,0.011454,16.113,0.016545,0.020948,4.2485e-07,0.04,0.16,0
0.0021663,0.0016001,0.028824,0.0089353,0.011328,0.0059017,0,0,0.04549,-0.0062203,0,0.030689,0,0,0,0.030443,0.0073159,0.011328,15.344,0.016362,0.021405,4.4466e-07,0.05,0.16,0
0.0026255,0.0019163,0.029015,0.0083102,0.011198,0.005763,0,0,0.046326,-0.0075074,0,0.029968,0,0,0,0.030511,0.0068142,0.011198,14.552,0.016174,0.021838,4.6306e-07,0.06,0.16,0
0.0030928,0.0022279,0.029188,0.0076973,0.011066,0.0055924,0,0,0.047118,-0.0087574,0,0.02908,0,0,0,0.030556,0.0063291,0.011066,13.747,0.015984,0.02224,4.7974e-07,0.07,0.16,0
0.0035679,0.0025336,0.029338,0.0071049,0.010933,0.005394,0,0,0.047854,-0.0099531,0,0.028049,0,0,0,0.030578,0.0058654,0.010933,12.942,0.015792,0.022609,4.945e-07,0.08,0.16,0
0.0040499,0.0028322,0.029465,0.0065393,0.010801,0.0051726,0,0,0.048526,-0.011081,0,0.026897,0,0,0,0.030578,0.0054262,0.010801,12.143,0.015602,0.022941,5.0724e-07,0.09,0.16,0
0.0045384,0.0031225,0.029567,0.0060051,0.010672,0.0049334,0,0,0.049127,-0.012133,0,0.025654,0,0,0,0.030558,0.0050138,0.010672,11.361,0.015414,0.023238,5.1795e-07,0.1,0.16,0
0.0050325,0.0034038,0.029644,0.0055053,0.010545,0.0046816,0,0,0.049658,-0.013102,0,0.024344,0,0,0,0.03052,0.0046291,0.010545,10.601,0.015231,0.023498,5.2672e-07,0.11,0.16,0
0.0055315,0.0036752,0.029697,0.0050413,0.010422,0.004422,0,0,0.050117,-0.013989,0,0.022995,0,0,0,0.030466,0.0042722,0.010422,9.8665,0.015053,0.023725,5.3365e-07,0.12,0.16,0
0.0060348,0.0039363,0.029728,0.0046133,0.010302,0.0041589,0,0,0.050507,-0.014792,0,0.021626,0,0,0,0.030399,0.0039425,0.010302,9.1623,0.014881,0.023919,5.3891e-07,0.13,0.16,0
0.0065417,0.0041865,0.029739,0.0042207,0.010188,0.003896,0,0,0.050833,-0.015515,0,0.020259,0,0,0,0.030321,0.0036392,0.010188,8.49,0.014716,0.024085,5.4268e-07,0.14,0.16,0
0.0070515,0.0044257,0.029732,0.0038622,0.010078,0.0036363,0,0,0.051101,-0.016162,0,0.018909,0,0,0,0.030234,0.0033608,0.010078,7.8507,0.014558,0.024223,5.4513e-07,0.15,0.16,0
0.0075637,0.0046537,0.02971,0.003536,0.0099738,0.003382,0,0,0.051314,-0.016738,0,0.017586,0,0,0,0.03014,0.003106,0.0099738,7.2448,0.014407,0.024338,5.4645e-07,0.16,0.16,0
0.0080777,0.0048705,0.029674,0.00324,0.0098742,0.003135,0,0,0.05148,-0.017249,0,0.016302,0,0,0,0.030041,0.0028733,0.0098742,6.6718,0.014263,0.024431,5.4681e-07,0.17,0.16,0
0.0085933,0.005076,0.029627,0.0029722,0.0097798,0.0028965,0,0,0.051603,-0.0177,0,0.015062,0,0,0,0.029938,0.0026611,0.0097798,6.1309,0.014126,0.024506,5.4635e-07,0.18,0.16,0
0.0091098,0.0052702,0.029571,0.0027304,0.0096903,0.0026675,0,0,0.051689,-0.018096,0,0.013871,0,0,0,0.029833,0.0024678,0.0096903,5.621,0.013997,0.024564,5.4521e-07,0.19,0.16,0
0.009627,0.0054535,0.029507,0.0025123,0.0096058,0.0024483,0,0,0.051743,-0.018443,0,0.012731,0,0,0,0.029727,0.002292,0.0096058,5.1406,0.013875,0.024607,5.4352e-07,0.2,0.16,0
0.010145,0.0056259,0.029437,0.002316,0.009526,0.0022392,0,0,0.05177,-0.018746,0,0.011644,0,0,0,0.029621,0.0021323,0.009526,4.6881,0.01376,0.024638,5.4139e-07,0.21,0.16,0
0.010662,0.0057876,0.029363,0.0021394,0.0094508,0.0020401,0,0,0.051772,-0.01901,0,0.010608,0,0,0,0.029515,0.0019874,0.0094508,4.2618,0.013651,0.024658,5.3889e-07,0.22,0.16,0
0.01118,0.0059388,0.029286,0.0019808,0.00938,0.0018508,0,0,0.051755,-0.019238,0,0.0096243,0,0,0,0.029411,0.0018559,0.00938,3.8602,0.013549,0.024669,5.3612e-07,0.23,0.16,0
0.011697,0.0060799,0.029206,0.0018384,0.0093134,0.0016711,0,0,0.051721,-0.019435,0,0.0086897,0,0,0,0.029308,0.0017367,0.0093134,3.4813,0.013453,0.024671,5.3313e-07,0.24,0.16,0
0.012214,0.0062109,0.029125,0.0017106,0.0092507,0.0015005,0,0,0.051673,-0.019604,0,0.0078024,0,0,0,0.029207,0.0016287,0.0092507,3.1235,0.013362,0.024667,5.2998e-07,0.25,0.16,0
0.012731,0.0063323,0.029043,0.0015961,0.0091918,0.0013385,0,0,0.051614,-0.019749,0,0.00696,0,0,0,0.029108,0.001531,0.0091918,2.7852,0.013277,0.024656,5.2673e-07,0.26,0.16,0
0.013247,0.0064441,0.028961,0.0014933,0.0091364,0.0011846,0,0,0.051545,-0.019872,0,0.0061598,0,0,0,0.029012,0.0014423,0.0091364,2.4648,0.013197,0.024641,5.2341e-07,0.27,0.16,0
0.013762,0.0065468,0.02888,0.0014011,0.0090843,0.0010383,0,0,0.051469,-0.019976,0,0.0053991,0,0,0,0.028919,0.001362,0.0090843,2.1608,0.013122,0.024622,5.2006e-07,0.28,0.16,0
0.014276,0.0066404,0.028799,0.0013183,0.0090353,0.00089907,0,0,0.051386,-0.020064,0,0.0046752,0,0,0,0.028829,0.0012889,0.0090353,1.8718,0.013051,0.024599,5.167e-07,0.29,0.16,0
0.01479,0.0067254,0.02872,0.0012438,0.0089891,0.0007664,0,0,0.0513,-0.020138,0,0.0039853,0,0,0,0.028741,0.0012224,0.0089891,1.5965,0.012984,0.024574,5.1338e-07,0.3,0.16,0
0.015302,0.0068019,0.028642,0.0011764,0.0089455,0.00063979,0,0,0.051211,-0.0202,0,0.0033269,0,0,0,0.028657,0.0011615,0.0089455,1.3337,0.012921,0.024547,5.101e-07,0.31,0.16,0
0.015814,0.0068701,0.028566,0.0011153,0.0089043,0.00051878,0,0,0.051119,-0.020251,0,0.0026976,0,0,0,0.028576,0.0011055,0.0089043,1.0823,0.012862,0.024519,5.069e-07,0.32,0.16,0
0.016325,0.0069304,0.028491,0.0010595,0.0088653,0.00040294,0,0,0.051028,-0.020295,0,0.0020953,0,0,0,0.028497,0.0010536,0.0088653,0.84136,0.012805,0.024491,5.0379e-07,0.33,0.16,0
0.016834,0.0069829,0.028419,0.001008,0.0088282,0.0002919,0,0,0.050937,-0.020332,0,0.0015179,0,0,0,0.028422,0.0010049,0.0088282,0.61005,0.012752,0.024463,5.008e-07,0.34,0.16,0
0.017343,0.007028,0.02835,0.0009601,0.008793,0.00018534,0,0,0.050848,-0.020365,0,0.00096376,0,0,0,0.028351,0.00095885,0.008793,0.38768,0.012701,0.024436,4.9794e-07,0.35,0.16,0
0.017851,0.0070657,0.028283,0.00091484,0.0087593,8.2973e-05,0,0,0.050761,-0.020396,0,0.00043146,0,0,0,0.028283,0.00091458,0.0087593,0.1737,0.012652,0.024411,4.9523e-07,0.36,0.16,0
0.018358,0.0070965,0.028218,0.00087143,0.0087269,-1.5408e-05,0,0,0.050678,-0.020424,0,-8.0122e-05,0,0,0,0.028218,0.00087142,0.0087269,-0.032282,0.012606,0.024387,4.9269e-07,0.37,0.16,0
0.018865,0.0071205,0.028157,0.00082909,0.0086958,-0.00010996,0,0,0.050599,-0.020453,0,-0.00057177,0,0,0,0.028157,0.00082865,0.0086958,-0.23053,0.012561,0.024367,4.9033e-07,0.38,0.16,0
0.01937,0.007138,0.028099,0.00078707,0.0086657,-0.00020075,0,0,0.050526,-0.020484,0,-0.0010439,0,0,0,0.0281,0.0007856,0.0086657,-0.42112,0.012517,0.02435,4.8818e-07,0.39,0.16,0
0.019875,0.0071492,0.028043,0.00074464,0.0086364,-0.00028782,0,0,0.050458,-0.020519,0,-0.0014967,0,0,0,0.028046,0.0007416,0.0086364,-0.604,0.012475,0.024338,4.8626e-07,0.4,0.16,0
0.02038,0.0071544,0.027992,0.0007011,0.0086079,-0.0003711,0,0,0.050398,-0.020558,0,-0.0019297,0,0,0,0.027997,0.00069606,0.0086079,-0.77892,0.012434,0.02433,4.8456e-07,0.41,0.16,0
0.020883,0.007154,0.027944,0.00065582,0.0085798,-0.00045047,0,0,0.050346,-0.020602,0,-0.0023425,0,0,0,0.027951,0.00064838,0.0085798,-0.9455,0.012393,0.024327,4.8312e-07,0.42,0.16,0
0.021387,0.0071481,0.027899,0.00060819,0.0085523,-0.00052574,0,0,0.050302,-0.020655,0,-0.0027338,0,0,0,0.02791,0.00059807,0.0085523,-1.1032,0.012353,0.02433,4.8194e-07,0.43,0.16,0
0.021889,0.0071371,0.027859,0.00055768,0.008525,-0.00059663,0,0,0.050268,-0.020715,0,-0.0031025,0,0,0,0.027872,0.00054465,0.008525,-1.2513,0.012314,0.024339,4.8103e-07,0.44,0.16,0
0.022392,0.0071214,0.027823,0.00050383,0.0084979,-0.00066282,0,0,0.050244,-0.020785,0,-0.0034467,0,0,0,0.027838,0.00048775,0.0084979,-1.3891,0.012275,0.024355,4.804e-07,0.45,0.16,0
0.022894,0.0071012,0.02779,0.00044625,0.0084709,-0.00072392,0,0,0.05023,-0.020864,0,-0.0037644,0,0,0,0.027809,0.0004271,0.0084709,-1.5155,0.012236,0.024377,4.8006e-07,0.46,0.16,0
0.023397,0.007077,0.027762,0.00038466,0.008444,-0.00077948,0,0,0.050227,-0.020954,0,-0.0040533,0,0,0,0.027784,0.00036249,0.008444,-1.6295,0.012197,0.024406,4.8001e-07,0.47,0.16,0
0.023899,0.007049,0.027738,0.0003189,0.0084171,-0.000829,0,0,0.050235,-0.021055,0,-0.0043108,0,0,0,0.027763,0.00029386,0.0084171,-1.7302,0.012158,0.024442,4.8023e-07,0.48,0.16,0
0.024401,0.0070178,0.027719,0.0002489,0.0083903,-0.00087197,0,0,0.050254,-0.021168,0,-0.0045342,0,0,0,0.027746,0.00022125,0.0083903,-1.8163,0.012119,0.024485,4.8073e-07,0.49,0.16,0
0.024904,0.0069838,0.027703,0.00017474,0.0083634,-0.00090783,0,0,0.050284,-0.021291,0,-0.0047207,0,0,0,0.027733,0.00014484,0.0083634,-1.8868,0.01208,0.024534,4.815e-07,0.5,0.16,0
0.025407,0.0069473,0.027692,9.6659e-05,0.0083365,-0.00093605,0,0,0.050324,-0.021424,0,-0.0048674,0,0,0,0.027724,6.4945e-05,0.0083365,-1.9405,0.012042,0.024589,4.825e-07,0.51,0.16,0
0.02591,0.0069089,0.027684,1.501e-05,0.0083098,-0.00095608,0,0,0.050374,-0.021566,0,-0.0049716,0,0,0,0.027717,-1.7986e-05,0.0083098,-1.9766,0.012003,0.02465,4.8373e-07,0.52,0.16,0
0.026414,0.0068691,0.027681,-6.9684e-05,0.0082832,-0.00096742,0,0,0.050433,-0.021718,0,-0.0050306,0,0,0,0.027714,-0.00010337,0.0082832,-1.9942,0.011965,0.024716,4.8515e-07,0.53,0.16,0
0.026919,0.0068283,0.02768,-0.00015676,0.008257,-0.00096965,0,0,0.0505,-0.021876,0,-0.0050422,0,0,0,0.027714,-0.00019049,0.008257,-1.9926,0.011927,0.024785,4.8674e-07,0.54,0.16,0
0.027424,0.0067871,0.027682,-0.00024539,0.0082311,-0.00096238,0,0,0.050573,-0.022039,0,-0.0050044,0,0,0,0.027715,-0.00027852,0.0082311,-1.9713,0.011889,0.024857,4.8845e-07,0.55,0.16,0
0.027931,0.006746,0.027687,-0.00033465,0.0082057,-0.00094536,0,0,0.050652,-0.022205,0,-0.0049159,0,0,0,0.027719,-0.00036651,0.0082057,-1.93,0.011853,0.02493,4.9025e-07,0.56,0.16,0
0.028437,0.0067054,0.027694,-0.00042348,0.0081812,-0.00091843,0,0,0.050733,-0.022372,0,-0.0047758,0,0,0,0.027724,-0.00045345,0.0081812,-1.8688,0.011817,0.025004,4.9209e-07,0.57,0.16,0
0.028945,0.0066661,0.027702,-0.00051073,0.0081575,-0.00088157,0,0,0.050817,-0.022537,0,-0.0045842,0,0,0,0.02773,-0.00053825,0.0081575,-1.788,0.011783,0.025078,4.9393e-07,0.58,0.16,0
0.029454,0.0066283,0.027712,-0.00059518,0.0081349,-0.00083492,0,0,0.050899,-0.022698,0,-0.0043416,0,0,0,0.027736,-0.00061979,0.0081349,-1.688,0.01175,0.025149,4.9573e-07,0.59,0.16,0
0.029963,0.0065927,0.027721,-0.00067559,0.0081137,-0.00077876,0,0,0.050979,-0.022852,0,-0.0040495,0,0,0,0.027742,-0.00069693,0.0081137,-1.5697,0.01172,0.025216,4.9744e-07,0.6,0.16,0
0.030473,0.0065597,0.027731,-0.0007507,0.0080939,-0.00071354,0,0,0.051055,-0.022996,0,-0.0037104,0,0,0,0.027748,-0.00076856,0.0080939,-1.4342,0.011691,0.025279,4.9902e-07,0.61,0.16,0
0.030984,0.0065298,0.027739,-0.00081929,0.0080759,-0.00063987,0,0,0.051124,-0.023127,0,-0.0033273,0,0,0,0.027753,-0.00083361,0.0080759,-1.2829,0.011665,0.025336,5.0043e-07,0.62,0.16,0
0.031496,0.0065033,0.027746,-0.0008802,0.0080598,-0.00055851,0,0,0.051185,-0.023244,0,-0.0029043,0,0,0,0.027757,-0.00089109,0.0080598,-1.1173,0.011642,0.025385,5.0164e-07,0.63,0.16,0
0.032008,0.0064807,0.027751,-0.00093237,0.0080457,-0.00047038,0,0,0.051235,-0.023343,0,-0.002446,0,0,0,0.027759,-0.00094009,0.0080457,-0.93924,0.011622,0.025427,5.0261e-07,0.64,0.16,0
0.032521,0.0064622,0.027754,-0.00097488,0.0080339,-0.00037649,0,0,0.051273,-0.023423,0,-0.0019577,0,0,0,0.027759,-0.00097982,0.0080339,-0.75067,0.011605,0.025459,5.0331e-07,0.65,0.16,0
0.033033,0.0064482,0.027755,-0.0010069,0.0080243,-0.00027799,0,0,0.051299,-0.023481,0,-0.0014456,0,0,0,0.027758,-0.0010096,0.0080243,-0.55372,0.011591,0.025481,5.0372e-07,0.66,0.16,0
0.033546,0.0064387,0.027752,-0.0010279,0.0080173,-0.00017611,0,0,0.051311,-0.023518,0,-0.00091579,0,0,0,0.027753,-0.001029,0.0080173,-0.35059,0.011581,0.025493,5.0383e-07,0.67,0.16,0
0.03406,0.006434,0.027746,-0.0010374,0.0080126,-7.2141e-05,0,0,0.051307,-0.02353,0,-0.00037514,0,0,0,0.027746,-0.0010376,0.0080126,-0.1436,0.011574,0.025494,5.0361e-07,0.68,0.16,0
0.034573,0.0064342,0.027737,-0.0010352,0.0080105,3.259e-05,0,0,0.051289,-0.023519,0,0.00016947,0,0,0,0.027737,-0.0010352,0.0080105,0.064898,0.011571,0.025483,5.0307e-07,0.69,0.16,0
0.035085,0.0064393,0.027724,-0.0010212,0.0080109,0.00013673,0,0,0.051255,-0.023484,0,0.00071101,0,0,0,0.027725,-0.0010218,0.0080109,0.27253,0.011571,0.025462,5.0219e-07,0.7,0.16,0
0.035598,0.0064492,0.027708,-0.00099555,0.0080138,0.00023895,0,0,0.051206,-0.023424,0,0.0012425,0,0,0,0.02771,-0.00099753,0.0080138,0.47692,0.011576,0.025429,5.0098e-07,0.71,0.16,0
0.03611,0.0064638,0.027689,-0.00095865,0.008019,0.00033792,0,0,0.051141,-0.023342,0,0.0017572,0,0,0,0.027693,-0.00096264,0.008019,0.67573,0.011583,0.025386,4.9944e-07,0.72,0.16,0
0.036621,0.006483,0.027666,-0.00091105,0.0080265,0.00043241,0,0,0.051063,-0.023238,0,0.0022485,0,0,0,0.027673,-0.00091759,0.0080265,0.86669,0.011594,0.025332,4.9759e-07,0.73,0.16,0
0.037131,0.0065066,0.027641,-0.00085346,0.0080362,0.00052123,0,0,0.050972,-0.023113,0,0.0027104,0,0,0,0.02765,-0.00086299,0.0080362,1.0476,0.011608,0.025268,4.9544e-07,0.74,0.16,0
0.03764,0.0065342,0.027613,-0.00078676,0.0080477,0.00060331,0,0,0.050868,-0.02297,0,0.0031372,0,0,0,0.027625,-0.00079957,0.0080477,1.2165,0.011624,0.025195,4.9301e-07,0.75,0.16,0
0.038148,0.0065656,0.027582,-0.00071199,0.008061,0.0006777,0,0,0.050755,-0.02281,0,0.003524,0,0,0,0.027598,-0.00072822,0.008061,1.3713,0.011644,0.025113,4.9033e-07,0.76,0.16,0
0.038655,0.0066003,0.02755,-0.00063029,0.0080759,0.00074358,0,0,0.050632,-0.022636,0,0.0038666,0,0,0,0.02757,-0.0006499,0.0080759,1.5105,0.011665,0.025025,4.8744e-07,0.77,0.16,0
0.039161,0.0066381,0.027516,-0.00054288,0.008092,0.0008003,0,0,0.050503,-0.022451,0,0.0041616,0,0,0,0.027539,-0.00056569,0.008092,1.6324,0.011688,0.02493,4.8435e-07,0.78,0.16,0
0.039665,0.0066783,0.027482,-0.00045103,0.0081092,0.00084736,0,0,0.050368,-0.022257,0,0.0044062,0,0,0,0.027507,-0.00047672,0.0081092,1.736,0.011713,0.024831,4.8112e-07,0.79,0.16,0
0.040168,0.0067207,0.027447,-0.00035606,0.0081272,0.00088441,0,0,0.050231,-0.022056,0,0.0045989,0,0,0,0.027475,-0.00038416,0.0081272,1.8201,0.011739,0.024727,4.7778e-07,0.8,0.16,0
0.04067,0.0067647,0.027412,-0.00025924,0.0081458,0.00091129,0,0,0.050092,-0.021853,0,0.0047387,0,0,0,0.027442,-0.00028922,0.0081458,1.8842,0.011766,0.024622,4.7436e-07,0.81,0.16,0
0.04117,0.0068098,0.027377,-0.00016182,0.0081646,0.00092798,0,0,0.049953,-0.021649,0,0.0048255,0,0,0,0.027408,-0.00019305,0.0081646,1.9278,0.011793,0.024516,4.7092e-07,0.82,0.16,0
0.041669,0.0068556,0.027344,-6.4985e-05,0.0081836,0.00093461,0,0,0.049816,-0.021446,0,0.00486,0,0,0,0.027376,-9.6817e-05,0.0081836,1.9507,0.011821,0.024409,4.6749e-07,0.83,0.16,0
0.042166,0.0069016,0.027311,3.0172e-05,0.0082025,0.00093144,0,0,0.049683,-0.021248,0,0.0048435,0,0,0,0.027343,-1.5923e-06,0.0082025,1.9532,0.011848,0.024304,4.6411e-07,0.84,0.16,0
0.042662,0.0069472,0.027281,0.00012266,0.008221,0.00091883,0,0,0.049555,-0.021056,0,0.0047779,0,0,0,0.027312,9.1612e-05,0.008221,1.9355,0.011875,0.024202,4.6081e-07,0.85,0.16,0
0.043157,0.0069922,0.027252,0.00021161,0.008239,0.00089726,0,0,0.049433,-0.020871,0,0.0046657,0,0,0,0.027281,0.00018187,0.008239,1.8984,0.011901,0.024103,4.5763e-07,0.86,0.16,0
0.043651,0.007036,0.027225,0.00029627,0.0082563,0.00086726,0,0,0.049318,-0.020696,0,0.0045097,0,0,0,0.027253,0.00026837,0.0082563,1.8427,0.011926,0.024009,4.5459e-07,0.87,0.16,0
0.044144,0.0070782,0.0272,0.000376,0.0082728,0.00082943,0,0,0.049211,-0.020532,0,0.0043131,0,0,0,0.027226,0.00035038,0.0082728,1.7694,0.01195,0.023919,4.5172e-07,0.88,0.16,0
0.044635,0.0071184,0.027178,0.00045029,0.0082883,0.00078443,0,0,0.049112,-0.020379,0,0.004079,0,0,0,0.027201,0.00042729,0.0082883,1.6797,0.011972,0.023836,4.4904e-07,0.89,0.16,0
0.045126,0.0071563,0.027157,0.00051874,0.0083028,0.00073289,0,0,0.049022,-0.020239,0,0.003811,0,0,0,0.027178,0.00049859,0.0083028,1.5748,0.011993,0.023758,4.4657e-07,0.9,0.16,0
0.045616,0.0071916,0.027139,0.00058104,0.0083161,0.0006755,0,0,0.04894,-0.020111,0,0.0035126,0,0,0,0.027157,0.00056387,0.0083161,1.456,0.012012,0.023688,4.4432e-07,0.91,0.16,0
0.046105,0.007224,0.027124,0.00063698,0.0083282,0.00061293,0,0,0.048868,-0.019997,0,0.0031872,0,0,0,0.027138,0.00062281,0.0083282,1.3249,0.01203,0.023624,4.4229e-07,0.92,0.16,0
0.046593,0.0072532,0.02711,0.00068642,0.008339,0.00054582,0,0,0.048805,-0.019897,0,0.0028383,0,0,0,0.027121,0.00067515,0.008339,1.1828,0.012045,0.023568,4.405e-07,0.93,0.16,0
0.047081,0.0072789,0.027099,0.00072927,0.0083484,0.00047482,0,0,0.048751,-0.01981,0,0.0024691,0,0,0,0.027107,0.00072072,0.0083484,1.0312,0.012059,0.023519,4.3895e-07,0.94,0.16,0
0.047568,0.007301,0.027089,0.00076549,0.0083564,0.00040054,0,0,0.048705,-0.019736,0,0.0020828,0,0,0,0.027095,0.0007594,0.0083564,0.87155,0.01207,0.023478,4.3763e-07,0.95,0.16,0
0.048055,0.0073194,0.027082,0.00079509,0.008363,0.00032358,0,0,0.048668,-0.019677,0,0.0016826,0,0,0,0.027086,0.00079111,0.008363,0.70516,0.01208,0.023444,4.3656e-07,0.96,0.16,0
0.048542,0.0073338,0.027076,0.00081808,0.0083682,0.00024451,0,0,0.04864,-0.01963,0,0.0012714,0,0,0,0.027078,0.0008158,0.0083682,0.53347,0.012087,0.023418,4.3573e-07,0.97,0.16,0
0.049028,0.0073441,0.027072,0.00083447,0.0083719,0.00016387,0,0,0.04862,-0.019597,0,0.0008521,0,0,0,0.027073,0.00083345,0.0083719,0.35782,0.012093,0.023399,4.3513e-07,0.98,0.16,0
0.049514,0.0073504,0.027069,0.0008443,0.0083741,8.219e-05,0,0,0.048608,-0.019577,0,0.00042739,0,0,0,0.02707,0.00084404,0.0083741,0.17956,0.012096,0.023388,4.3478e-07,0.99,0.16,0
0.05,0.0073524,0.027068,0.00084757,0.0083748,4.0122e-05,0,0,0.048604,-0.019571,0,0.00020863,0,0,0,0.027069,0.00084751,0.0083748,0.08767,0.012097,0.023384,4.3466e-07,1,0.16,0
0,0,0.027934,0.011972,0.011972,0.0059037,0,0,0.041502,-1.6263e-19,0,0.030699,0,0,0,0.02988,0.010025,0.011972,18.245,0.017292,0.018957,3.3747e-07,0,0.17,0
0.00041502,0.00030699,0.027885,0.011348,0.01177,0.0058978,0,0,0.041899,-0.0010967,0,0.030669,0,0,0,0.029773,0.0094603,0.01177,17.75,0.017001,0.019262,3.4932e-07,0.01,0.17,0
0.00083799,0.00061544,0.028096,0.010803,0.011669,0.0058909,0,0,0.042708,-0.002254,0,0.030633,0,0,0,0.029912,0.0089865,0.011669,17.133,0.016856,0.019721,3.6947e-07,0.02,0.17,0
0.0012692,0.00092442,0.028307,0.010232,0.011562,0.0058577,0,0,0.043538,-0.0034566,0,0.03046,0,0,0,0.03004,0.0085001,0.011562,16.475,0.016701,0.020184,3.8974e-07,0.03,0.17,0
0.0017087,0.0012328,0.028515,0.0096458,0.011448,0.0057953,0,0,0.044374,-0.0046867,0,0.030136,0,0,0,0.030153,0.0080081,0.011448,15.78,0.016537,0.020641,4.097e-07,0.04,0.17,0
0.0021567,0.0015395,0.028716,0.0090515,0.01133,0.0057025,0,0,0.045203,-0.0059248,0,0.029653,0,0,0,0.03025,0.0075175,0.01133,15.056,0.016366,0.021086,4.2894e-07,0.05,0.17,0
0.0026128,0.0018431,0.028905,0.0084582,0.011209,0.0055795,0,0,0.046009,-0.0071517,0,0.029014,0,0,0,0.030328,0.0070347,0.011209,14.312,0.016191,0.021512,4.4711e-07,0.06,0.17,0
0.0030768,0.0021425,0.029078,0.0078741,0.011085,0.0054284,0,0,0.04678,-0.0083498,0,0.028228,0,0,0,0.030387,0.0065651,0.011085,13.557,0.016012,0.021914,4.639e-07,0.07,0.17,0
0.0035484,0.0024365,0.029232,0.0073062,0.010962,0.005252,0,0,0.047503,-0.0095037,0,0.02731,0,0,0,0.030425,0.0061131,0.010962,12.799,0.015833,0.022287,4.791e-07,0.08,0.17,0
0.0040269,0.0027239,0.029366,0.0067605,0.010838,0.0050541,0,0,0.048173,-0.010601,0,0.026281,0,0,0,0.030444,0.0056819,0.010838,12.046,0.015655,0.022629,4.926e-07,0.09,0.17,0
0.0045119,0.0030038,0.029478,0.0062413,0.010716,0.0048388,0,0,0.048781,-0.011634,0,0.025162,0,0,0,0.030445,0.0052739,0.010716,11.305,0.015478,0.02294,5.0433e-07,0.1,0.17,0
0.0050025,0.0032754,0.029568,0.0057517,0.010596,0.0046105,0,0,0.049327,-0.012595,0,0.023974,0,0,0,0.030429,0.0048903,0.010596,10.583,0.015305,0.023218,5.1431e-07,0.11,0.17,0
0.0054984,0.003538,0.029636,0.0052936,0.010479,0.0043732,0,0,0.049808,-0.013482,0,0.022741,0,0,0,0.030398,0.0045318,0.010479,9.882,0.015136,0.023465,5.2261e-07,0.12,0.17,0
0.0059987,0.0037909,0.029684,0.0048678,0.010365,0.0041309,0,0,0.050227,-0.014294,0,0.02148,0,0,0,0.030353,0.0041983,0.010365,9.2069,0.014972,0.023681,5.2932e-07,0.13,0.17,0
0.0065029,0.0040339,0.029712,0.0044742,0.010256,0.0038867,0,0,0.050586,-0.015032,0,0.020211,0,0,0,0.030297,0.0038892,0.010256,8.5597,0.014814,0.02387,5.3458e-07,0.14,0.17,0
0.0070104,0.0042665,0.029723,0.0041121,0.01015,0.0036436,0,0,0.050888,-0.0157,0,0.018947,0,0,0,0.030231,0.0036038,0.01015,7.9416,0.014662,0.024032,5.3852e-07,0.15,0.17,0
0.0075207,0.0044886,0.029718,0.0037802,0.010049,0.0034039,0,0,0.051138,-0.0163,0,0.0177,0,0,0,0.030157,0.003341,0.010049,7.3533,0.014516,0.024171,5.4129e-07,0.16,0.17,0
0.0080332,0.0047001,0.029699,0.0034771,0.0099529,0.0031694,0,0,0.05134,-0.016837,0,0.016481,0,0,0,0.030077,0.0030995,0.0099529,6.7948,0.014376,0.024287,5.4304e-07,0.17,0.17,0
0.0085475,0.0049009,0.029669,0.0032011,0.0098609,0.0029414,0,0,0.0515,-0.017316,0,0.015296,0,0,0,0.029992,0.0028781,0.0098609,6.2656,0.014243,0.024384,5.4388e-07,0.18,0.17,0
0.0090632,0.0050911,0.029628,0.0029503,0.0097734,0.0027211,0,0,0.051621,-0.01774,0,0.01415,0,0,0,0.029902,0.0026755,0.0097734,5.7651,0.014117,0.024463,5.4396e-07,0.19,0.17,0
0.0095799,0.0052707,0.029578,0.0027229,0.0096904,0.002509,0,0,0.051709,-0.018116,0,0.013047,0,0,0,0.029811,0.0024905,0.0096904,5.2919,0.013997,0.024526,5.4338e-07,0.2,0.17,0
0.010097,0.0054399,0.029522,0.0025171,0.0096117,0.0023056,0,0,0.051767,-0.018446,0,0.011989,0,0,0,0.029717,0.0023216,0.0096117,4.845,0.013884,0.024576,5.4224e-07,0.21,0.17,0
0.010615,0.0055989,0.02946,0.0023311,0.0095372,0.0021109,0,0,0.051798,-0.018736,0,0.010977,0,0,0,0.029623,0.0021678,0.0095372,4.4228,0.013776,0.024612,5.4064e-07,0.22,0.17,0
0.011133,0.0057477,0.029393,0.0021632,0.0094668,0.001925,0,0,0.051808,-0.018989,0,0.01001,0,0,0,0.029528,0.0020278,0.0094668,4.0239,0.013674,0.024638,5.3866e-07,0.23,0.17,0
0.011651,0.0058866,0.029322,0.002012,0.0094003,0.0017477,0,0,0.051797,-0.01921,0,0.0090881,0,0,0,0.029434,0.0019006,0.0094003,3.6468,0.013578,0.024654,5.3635e-07,0.24,0.17,0
0.012169,0.0060159,0.029249,0.0018757,0.0093374,0.0015787,0,0,0.05177,-0.019401,0,0.0082092,0,0,0,0.02934,0.001785,0.0093374,3.2899,0.013487,0.024662,5.338e-07,0.25,0.17,0
0.012687,0.0061357,0.029174,0.0017531,0.0092781,0.0014176,0,0,0.051729,-0.019565,0,0.0073718,0,0,0,0.029247,0.00168,0.0092781,2.9517,0.013402,0.024662,5.3104e-07,0.26,0.17,0
0.013204,0.0062462,0.029097,0.0016428,0.009222,0.0012641,0,0,0.051676,-0.019706,0,0.0065736,0,0,0,0.029155,0.0015847,0.009222,2.6308,0.013321,0.024656,5.2812e-07,0.27,0.17,0
0.01372,0.0063477,0.02902,0.0015435,0.009169,0.0011178,0,0,0.051612,-0.019826,0,0.0058123,0,0,0,0.029065,0.0014981,0.009169,2.3257,0.013244,0.024644,5.2509e-07,0.28,0.17,0
0.014236,0.0064404,0.028942,0.0014541,0.0091189,0.00097803,0,0,0.051541,-0.019929,0,0.0050858,0,0,0,0.028977,0.0014193,0.0091189,2.0351,0.013172,0.024628,5.2198e-07,0.29,0.17,0
0.014751,0.0065246,0.028865,0.0013734,0.0090715,0.0008445,0,0,0.051463,-0.020015,0,0.0043914,0,0,0,0.028891,0.0013475,0.0090715,1.7578,0.013103,0.024608,5.1883e-07,0.3,0.17,0
0.015265,0.0066004,0.028788,0.0013004,0.0090265,0.00071674,0,0,0.05138,-0.020088,0,0.003727,0,0,0,0.028807,0.0012817,0.0090265,1.4926,0.013038,0.024585,5.1566e-07,0.31,0.17,0
0.015779,0.0066681,0.028712,0.0012341,0.0089838,0.0005943,0,0,0.051293,-0.020149,0,0.0030903,0,0,0,0.028725,0.0012212,0.0089838,1.2384,0.012977,0.02456,5.125e-07,0.32,0.17,0
0.016291,0.0067279,0.028637,0.0011734,0.008943,0.0004768,0,0,0.051203,-0.020201,0,0.0024793,0,0,0,0.028645,0.0011651,0.008943,0.99433,0.012918,0.024534,5.0938e-07,0.33,0.17,0
0.016803,0.00678,0.028563,0.0011175,0.0089041,0.00036387,0,0,0.051113,-0.020245,0,0.0018921,0,0,0,0.028568,0.0011126,0.0089041,0.75945,0.012861,0.024507,5.0633e-07,0.34,0.17,0
0.017313,0.0068247,0.028491,0.0010653,0.0088668,0.00025521,0,0,0.051022,-0.020284,0,0.0013271,0,0,0,0.028493,0.001063,0.0088668,0.53311,0.012808,0.02448,5.0337e-07,0.35,0.17,0
0.017823,0.0068622,0.028421,0.0010161,0.008831,0.00015054,0,0,0.050933,-0.020319,0,0.00078283,0,0,0,0.028421,0.0010153,0.008831,0.31474,0.012756,0.024454,5.0052e-07,0.36,0.17,0
0.018332,0.0068926,0.028352,0.00096895,0.0087963,4.9659e-05,0,0,0.050845,-0.020351,0,0.00025823,0,0,0,0.028352,0.00096886,0.0087963,0.1039,0.012706,0.024429,4.978e-07,0.37,0.17,0
0.01884,0.0069163,0.028286,0.00092296,0.0087628,-4.7593e-05,0,0,0.050761,-0.020383,0,-0.00024748,0,0,0,0.028286,0.00092288,0.0087628,-0.099654,0.012657,0.024407,4.9524e-07,0.38,0.17,0
0.019347,0.0069334,0.028223,0.00087735,0.0087301,-0.0001413,0,0,0.050681,-0.020417,0,-0.00073475,0,0,0,0.028224,0.00087662,0.0087301,-0.29605,0.01261,0.024388,4.9286e-07,0.39,0.17,0
0.019854,0.0069443,0.028162,0.0008313,0.0086981,-0.00023148,0,0,0.050607,-0.020454,0,-0.0012037,0,0,0,0.028164,0.00082934,0.0086981,-0.48521,0.012564,0.024373,4.9068e-07,0.4,0.17,0
0.020359,0.0069492,0.028105,0.00078407,0.0086666,-0.00031807,0,0,0.050539,-0.020495,0,-0.001654,0,0,0,0.028108,0.00078037,0.0086666,-0.66692,0.012519,0.024362,4.8873e-07,0.41,0.17,0
0.020865,0.0069482,0.02805,0.00073492,0.0086356,-0.00040095,0,0,0.050478,-0.020542,0,-0.0020849,0,0,0,0.028056,0.00072904,0.0086356,-0.84078,0.012474,0.024356,4.8702e-07,0.42,0.17,0
0.021369,0.0069418,0.027999,0.0006832,0.0086048,-0.00047992,0,0,0.050426,-0.020596,0,-0.0024956,0,0,0,0.028008,0.00067477,0.0086048,-1.0062,0.012429,0.024356,4.8557e-07,0.43,0.17,0
0.021873,0.0069302,0.027952,0.00062828,0.0085741,-0.00055469,0,0,0.050383,-0.020659,0,-0.0028844,0,0,0,0.027963,0.00061702,0.0085741,-1.1625,0.012385,0.024363,4.8439e-07,0.44,0.17,0
0.022377,0.0069138,0.027909,0.00056964,0.0085436,-0.00062492,0,0,0.05035,-0.020732,0,-0.0032496,0,0,0,0.027923,0.00055537,0.0085436,-1.3088,0.012341,0.024376,4.8349e-07,0.45,0.17,0
0.02288,0.0068928,0.02787,0.00050685,0.0085129,-0.00069018,0,0,0.050327,-0.020816,0,-0.0035889,0,0,0,0.027887,0.00048945,0.0085129,-1.444,0.012296,0.024396,4.829e-07,0.46,0.17,0
0.023383,0.0068676,0.027835,0.00043955,0.0084822,-0.00074999,0,0,0.050316,-0.020911,0,-0.0039,0,0,0,0.027855,0.00041903,0.0084822,-1.567,0.012252,0.024424,4.826e-07,0.47,0.17,0
0.023886,0.0068386,0.027804,0.00036753,0.0084513,-0.00080383,0,0,0.050316,-0.021018,0,-0.0041799,0,0,0,0.027827,0.000344,0.0084513,-1.6767,0.012207,0.024459,4.826e-07,0.48,0.17,0
0.02439,0.0068063,0.027777,0.00029071,0.0084204,-0.0008511,0,0,0.050328,-0.021137,0,-0.0044257,0,0,0,0.027803,0.00026438,0.0084204,-1.7719,0.012163,0.024501,4.829e-07,0.49,0.17,0
0.024893,0.006771,0.027755,0.00020915,0.0083893,-0.00089121,0,0,0.050351,-0.021268,0,-0.0046343,0,0,0,0.027784,0.00018035,0.0083893,-1.8511,0.012118,0.024551,4.8347e-07,0.5,0.17,0
0.025397,0.0067331,0.027737,0.00012308,0.0083581,-0.00092355,0,0,0.050386,-0.021411,0,-0.0048024,0,0,0,0.027768,9.2226e-05,0.0083581,-1.9134,0.012073,0.024607,4.8432e-07,0.51,0.17,0
0.025901,0.0066932,0.027724,3.2882e-05,0.0083269,-0.00094751,0,0,0.050431,-0.021565,0,-0.004927,0,0,0,0.027756,4.9799e-07,0.0083269,-1.9575,0.012028,0.02467,4.8541e-07,0.52,0.17,0
0.026405,0.0066518,0.027714,-6.0878e-05,0.0082959,-0.00096253,0,0,0.050486,-0.021728,0,-0.0050051,0,0,0,0.027747,-9.4194e-05,0.0082959,-1.9824,0.011983,0.024737,4.8671e-07,0.53,0.17,0
0.02691,0.0066094,0.027708,-0.00015746,0.008265,-0.00096808,0,0,0.050551,-0.021899,0,-0.005034,0,0,0,0.027741,-0.00019106,0.008265,-1.9874,0.011938,0.02481,4.882e-07,0.54,0.17,0
0.027416,0.0065665,0.027705,-0.00025598,0.0082346,-0.00096375,0,0,0.050622,-0.022076,0,-0.0050115,0,0,0,0.027738,-0.00028916,0.0082346,-1.9717,0.011895,0.024885,4.8983e-07,0.55,0.17,0
0.027923,0.0065236,0.027705,-0.00035536,0.0082048,-0.00094919,0,0,0.0507,-0.022256,0,-0.0049358,0,0,0,0.027737,-0.00038743,0.0082048,-1.9352,0.011851,0.024963,4.9157e-07,0.56,0.17,0
0.02843,0.0064814,0.027707,-0.00045443,0.0081758,-0.0009242,0,0,0.050782,-0.022439,0,-0.0048059,0,0,0,0.027737,-0.00048473,0.0081758,-1.8776,0.01181,0.025042,4.9337e-07,0.57,0.17,0
0.028938,0.0064403,0.027711,-0.00055189,0.0081478,-0.00088873,0,0,0.050865,-0.022619,0,-0.0046214,0,0,0,0.027739,-0.0005798,0.0081478,-1.7993,0.011769,0.025119,4.9518e-07,0.58,0.17,0
0.029448,0.0064008,0.027717,-0.00064635,0.0081212,-0.00084287,0,0,0.050949,-0.022795,0,-0.004383,0,0,0,0.027742,-0.00067138,0.0081212,-1.7007,0.011731,0.025195,4.9695e-07,0.59,0.17,0
0.029958,0.0063636,0.027723,-0.0007364,0.008096,-0.00078691,0,0,0.05103,-0.022964,0,-0.0040919,0,0,0,0.027745,-0.00075814,0.008096,-1.5826,0.011694,0.025267,4.9864e-07,0.6,0.17,0
0.030468,0.0063291,0.027729,-0.00082062,0.0080726,-0.0007213,0,0,0.051107,-0.023122,0,-0.0037508,0,0,0,0.027748,-0.00083883,0.0080726,-1.4463,0.01166,0.025335,5.0021e-07,0.61,0.17,0
0.03098,0.0062978,0.027735,-0.00089761,0.0080512,-0.00064667,0,0,0.051178,-0.023267,0,-0.0033627,0,0,0,0.027749,-0.00091221,0.0080512,-1.2932,0.011629,0.025396,5.016e-07,0.62,0.17,0
0.031492,0.0062702,0.02774,-0.00096606,0.0080321,-0.00056382,0,0,0.05124,-0.023395,0,-0.0029319,0,0,0,0.027751,-0.00097713,0.0080321,-1.1248,0.011602,0.025449,5.0279e-07,0.63,0.17,0
0.032004,0.0062465,0.027743,-0.0010248,0.0080154,-0.00047371,0,0,0.051291,-0.023504,0,-0.0024633,0,0,0,0.02775,-0.0010326,0.0080154,-0.94315,0.011578,0.025493,5.0374e-07,0.64,0.17,0
0.032517,0.0062272,0.027744,-0.0010727,0.0080013,-0.00037743,0,0,0.05133,-0.023592,0,-0.0019627,0,0,0,0.027749,-0.0010776,0.0080013,-0.75028,0.011557,0.025528,5.0442e-07,0.65,0.17,0
0.033031,0.0062125,0.027742,-0.0011089,0.00799,-0.0002762,0,0,0.051356,-0.023657,0,-0.0014362,0,0,0,0.027745,-0.0011116,0.00799,-0.54843,0.011541,0.025552,5.0481e-07,0.66,0.17,0
0.033545,0.0062026,0.027738,-0.0011328,0.0079816,-0.0001713,0,0,0.051367,-0.023697,0,-0.00089078,0,0,0,0.027739,-0.0011338,0.0079816,-0.33994,0.011529,0.025565,5.0488e-07,0.67,0.17,0
0.034058,0.0061978,0.027731,-0.0011438,0.0079762,-6.4123e-05,0,0,0.051363,-0.023712,0,-0.00033344,0,0,0,0.027731,-0.0011439,0.0079762,-0.12724,0.011521,0.025566,5.0462e-07,0.68,0.17,0
0.034572,0.0061981,0.027721,-0.0011417,0.0079738,4.3932e-05,0,0,0.051343,-0.0237,0,0.00022845,0,0,0,0.027721,-0.0011418,0.0079738,0.087211,0.011518,0.025555,5.0403e-07,0.69,0.17,0
0.035085,0.0062036,0.027707,-0.0011264,0.0079743,0.00015144,0,0,0.051306,-0.023662,0,0.00078746,0,0,0,0.027708,-0.0011272,0.0079743,0.3009,0.011518,0.025532,5.031e-07,0.7,0.17,0
0.035598,0.0062141,0.027691,-0.0010981,0.0079778,0.00025696,0,0,0.051254,-0.023598,0,0.0013362,0,0,0,0.027693,-0.0011004,0.0079778,0.51135,0.011524,0.025497,5.0183e-07,0.71,0.17,0
0.03611,0.0062296,0.027671,-0.0010573,0.0079842,0.00035913,0,0,0.051186,-0.023508,0,0.0018675,0,0,0,0.027676,-0.0010618,0.0079842,0.71609,0.011533,0.02545,5.0023e-07,0.72,0.17,0
0.036622,0.0062499,0.027648,-0.0010045,0.0079932,0.0004566,0,0,0.051104,-0.023394,0,0.0023743,0,0,0,0.027656,-0.0010117,0.0079932,0.91272,0.011546,0.025392,4.9831e-07,0.73,0.17,0
0.037132,0.0062747,0.027623,-0.00094046,0.0080048,0.00054812,0,0,0.051008,-0.023258,0,0.0028502,0,0,0,0.027634,-0.00095098,0.0080048,1.0989,0.011562,0.025324,4.9608e-07,0.74,0.17,0
0.037642,0.0063038,0.027595,-0.00086632,0.0080187,0.00063256,0,0,0.050899,-0.023101,0,0.0032893,0,0,0,0.027609,-0.00088037,0.0080187,1.2726,0.011583,0.025245,4.9357e-07,0.75,0.17,0
0.03815,0.0063369,0.027565,-0.00078319,0.0080347,0.00070891,0,0,0.05078,-0.022926,0,0.0036864,0,0,0,0.027583,-0.00080091,0.0080347,1.4316,0.011606,0.025158,4.908e-07,0.76,0.17,0
0.038657,0.0063735,0.027534,-0.00069236,0.0080525,0.00077632,0,0,0.050652,-0.022737,0,0.0040369,0,0,0,0.027555,-0.0007137,0.0080525,1.5742,0.011631,0.025063,4.8781e-07,0.77,0.17,0
0.039163,0.0064131,0.027501,-0.00059523,0.0080719,0.00083408,0,0,0.050517,-0.022534,0,0.0043372,0,0,0,0.027526,-0.00061997,0.0080719,1.6989,0.011659,0.024962,4.8463e-07,0.78,0.17,0
0.039668,0.0064554,0.027468,-0.00049325,0.0080924,0.0008817,0,0,0.050377,-0.022323,0,0.0045848,0,0,0,0.027496,-0.00052103,0.0080924,1.8043,0.011689,0.024856,4.813e-07,0.79,0.17,0
0.040171,0.0064999,0.027435,-0.00038789,0.008114,0.00091882,0,0,0.050234,-0.022105,0,0.0047779,0,0,0,0.027465,-0.0004182,0.008114,1.8894,0.01172,0.024746,4.7787e-07,0.8,0.17,0
0.040673,0.006546,0.027401,-0.00028061,0.0081362,0.00094531,0,0,0.050089,-0.021884,0,0.0049156,0,0,0,0.027434,-0.00031285,0.0081362,1.9536,0.011752,0.024634,4.7437e-07,0.81,0.17,0
0.041173,0.0065932,0.027369,-0.00017281,0.0081588,0.00096118,0,0,0.049946,-0.021662,0,0.0049981,0,0,0,0.027402,-0.00020631,0.0081588,1.9963,0.011785,0.024521,4.7084e-07,0.82,0.17,0
0.041671,0.0066411,0.027337,-6.5825e-05,0.0081815,0.00096659,0,0,0.049805,-0.021443,0,0.0050263,0,0,0,0.027371,-9.9877e-05,0.0081815,2.0176,0.011818,0.024408,4.6734e-07,0.83,0.17,0
0.042169,0.0066891,0.027307,3.9132e-05,0.008204,0.00096186,0,0,0.049669,-0.021229,0,0.0050017,0,0,0,0.027341,5.2453e-06,0.008204,2.0177,0.01185,0.024297,4.6389e-07,0.84,0.17,0
0.042665,0.0067368,0.027279,0.00014096,0.0082261,0.00094743,0,0,0.049538,-0.021021,0,0.0049266,0,0,0,0.027312,0.00010793,0.0082261,1.997,0.011882,0.024189,4.6054e-07,0.85,0.17,0
0.04316,0.0067837,0.027253,0.00023871,0.0082475,0.00092382,0,0,0.049414,-0.020823,0,0.0048039,0,0,0,0.027285,0.00020715,0.0082475,1.9563,0.011913,0.024086,4.5732e-07,0.86,0.17,0
0.043653,0.0068293,0.027229,0.00033155,0.0082682,0.00089164,0,0,0.049298,-0.020635,0,0.0046365,0,0,0,0.027259,0.00030202,0.0082682,1.8966,0.011943,0.023987,4.5426e-07,0.87,0.17,0
0.044145,0.0068732,0.027207,0.00041881,0.0082878,0.00085155,0,0,0.04919,-0.020459,0,0.0044281,0,0,0,0.027234,0.00039176,0.0082878,1.8189,0.011971,0.023894,4.5138e-07,0.88,0.17,0
0.044637,0.006915,0.027188,0.00049994,0.0083063,0.00080424,0,0,0.049092,-0.020296,0,0.0041821,0,0,0,0.027212,0.00047573,0.0083063,1.7245,0.011998,0.023807,4.4871e-07,0.89,0.17,0
0.045127,0.0069544,0.02717,0.00057454,0.0083235,0.00075043,0,0,0.049002,-0.020147,0,0.0039022,0,0,0,0.027192,0.00055339,0.0083235,1.6149,0.012023,0.023727,4.4625e-07,0.9,0.17,0
0.045617,0.006991,0.027155,0.00064231,0.0083393,0.00069082,0,0,0.048922,-0.020012,0,0.0035922,0,0,0,0.027173,0.00062432,0.0083393,1.4915,0.012046,0.023655,4.4401e-07,0.91,0.17,0
0.046106,0.0070246,0.027142,0.00070303,0.0083537,0.00062611,0,0,0.048851,-0.019892,0,0.0032558,0,0,0,0.027157,0.00068821,0.0083537,1.3558,0.012066,0.02359,4.4202e-07,0.92,0.17,0
0.046594,0.0070548,0.027131,0.00075659,0.0083664,0.00055698,0,0,0.048789,-0.019786,0,0.0028963,0,0,0,0.027143,0.00074483,0.0083664,1.2092,0.012085,0.023532,4.4026e-07,0.93,0.17,0
0.047082,0.0070814,0.027122,0.00080294,0.0083776,0.00048408,0,0,0.048737,-0.019694,0,0.0025172,0,0,0,0.027131,0.00079404,0.0083776,1.0533,0.012101,0.023483,4.3875e-07,0.94,0.17,0
0.047569,0.0071043,0.027115,0.00084206,0.0083871,0.00040802,0,0,0.048693,-0.019617,0,0.0021217,0,0,0,0.027121,0.00083572,0.0083871,0.88953,0.012115,0.023441,4.3747e-07,0.95,0.17,0
0.048055,0.0071232,0.027109,0.00087398,0.008395,0.00032941,0,0,0.048657,-0.019555,0,0.0017129,0,0,0,0.027113,0.00086984,0.008395,0.71924,0.012126,0.023407,4.3643e-07,0.96,0.17,0
0.048542,0.0071381,0.027105,0.00089874,0.0084011,0.00024877,0,0,0.04863,-0.019506,0,0.0012936,0,0,0,0.027107,0.00089638,0.0084011,0.54384,0.012135,0.02338,4.3562e-07,0.97,0.17,0
0.049028,0.0071488,0.027102,0.00091638,0.0084055,0.00016666,0,0,0.048611,-0.019472,0,0.00086664,0,0,0,0.027103,0.00091532,0.0084055,0.36465,0.012141,0.023361,4.3505e-07,0.98,0.17,0
0.049514,0.0071552,0.0271,0.00092695,0.0084081,8.3572e-05,0,0,0.048599,-0.019451,0,0.00043458,0,0,0,0.0271,0.00092669,0.0084081,0.18295,0.012145,0.02335,4.3471e-07,0.99,0.17,0
0.05,0.0071574,0.027099,0.00093047,0.008409,4.1417e-05,0,0,0.048595,-0.019444,0,0.00021537,0,0,0,0.027099,0.00093041,0.008409,0.090681,0.012146,0.023346,4.346e-07,1,0.17,0
0,0,0.027875,0.011946,0.011946,0.0056968,0,0,0.041414,-2.1684e-19,0,0.029623,0,0,0,0.029702,0.010119,0.011946,17.788,0.017256,0.018737,3.2703e-07,0,0.18,0
0.00041414,0.00029623,0.027827,0.011345,0.011751,0.005691,0,0,0.041797,-0.0010582,0,0.029593,0,0,0,0.029601,0.0095705,0.011751,17.314,0.016975,0.019034,3.3856e-07,0.01,0.18,0
0.00083594,0.00059336,0.028031,0.010822,0.011656,0.0056811,0,0,0.042575,-0.0021678,0,0.029542,0,0,0,0.029737,0.0091157,0.011656,16.718,0.016836,0.019476,3.5775e-07,0.02,0.18,0
0.0012656,0.0008906,0.028235,0.010278,0.011554,0.0056487,0,0,0.04337,-0.0033166,0,0.029373,0,0,0,0.029864,0.0086492,0.011554,16.088,0.016689,0.019922,3.7714e-07,0.03,0.18,0
0.0017033,0.001187,0.028436,0.0097202,0.011447,0.0055913,0,0,0.044173,-0.0044896,0,0.029075,0,0,0,0.02998,0.0081771,0.011447,15.429,0.016535,0.020365,3.9637e-07,0.04,0.18,0
0.0021491,0.0014816,0.028632,0.0091549,0.011336,0.0055077,0,0,0.044969,-0.005671,0,0.02864,0,0,0,0.030082,0.0077053,0.011336,14.745,0.016374,0.0208,4.151e-07,0.05,0.18,0
0.0026027,0.0017733,0.028817,0.0085895,0.011222,0.0053978,0,0,0.045748,-0.0068446,0,0.028069,0,0,0,0.030168,0.0072393,0.011222,14.044,0.01621,0.021219,4.33e-07,0.06,0.18,0
0.003064,0.0020609,0.02899,0.0080311,0.011106,0.005263,0,0,0.046497,-0.0079954,0,0.027367,0,0,0,0.030237,0.0067837,0.011106,13.334,0.016042,0.021619,4.498e-07,0.07,0.18,0
0.0035327,0.0023435,0.029146,0.0074858,0.01099,0.0051053,0,0,0.047207,-0.0091099,0,0.026548,0,0,0,0.030289,0.0063428,0.01099,12.62,0.015874,0.021994,4.6529e-07,0.08,0.18,0
0.0040082,0.0026201,0.029285,0.006959,0.010873,0.0049278,0,0,0.047871,-0.010177,0,0.025625,0,0,0,0.030324,0.0059197,0.010873,11.909,0.015706,0.022343,4.7934e-07,0.09,0.18,0
0.0044901,0.0028898,0.029404,0.0064547,0.010758,0.0047337,0,0,0.048481,-0.011188,0,0.024615,0,0,0,0.030343,0.0055166,0.010758,11.209,0.015539,0.022665,4.9185e-07,0.1,0.18,0
0.0049778,0.0031519,0.029504,0.005976,0.010644,0.0045266,0,0,0.049036,-0.012137,0,0.023538,0,0,0,0.030345,0.0051352,0.010644,10.523,0.015375,0.022957,5.028e-07,0.11,0.18,0
0.0054708,0.0034056,0.029584,0.0055251,0.010533,0.0043099,0,0,0.049534,-0.01302,0,0.022412,0,0,0,0.030333,0.0047764,0.010533,9.8557,0.015214,0.02322,5.1222e-07,0.12,0.18,0
0.0059685,0.0036504,0.029645,0.0051031,0.010424,0.004087,0,0,0.049974,-0.013836,0,0.021253,0,0,0,0.030308,0.0044404,0.010424,9.2104,0.015058,0.023455,5.2015e-07,0.13,0.18,0
0.0064703,0.0038859,0.029688,0.0047103,0.01032,0.0038609,0,0,0.050359,-0.014584,0,0.020077,0,0,0,0.030271,0.0041271,0.01032,8.5895,0.014906,0.023664,5.2669e-07,0.14,0.18,0
0.0069757,0.0041118,0.029714,0.0043465,0.010218,0.0036343,0,0,0.050689,-0.015266,0,0.018898,0,0,0,0.030225,0.0038361,0.010218,7.9943,0.01476,0.023847,5.3194e-07,0.15,0.18,0
0.0074841,0.0043278,0.029725,0.0040109,0.010121,0.0034092,0,0,0.05097,-0.015885,0,0.017728,0,0,0,0.030169,0.0035666,0.010121,7.4257,0.014619,0.024006,5.36e-07,0.16,0.18,0
0.0079951,0.0045337,0.029721,0.0037025,0.010027,0.0031877,0,0,0.051204,-0.016444,0,0.016576,0,0,0,0.030106,0.0033177,0.010027,6.884,0.014484,0.024143,5.39e-07,0.17,0.18,0
0.0085082,0.0047296,0.029705,0.00342,0.0099376,0.002971,0,0,0.051396,-0.016946,0,0.015449,0,0,0,0.030037,0.0030884,0.0099376,6.3691,0.014354,0.02426,5.4105e-07,0.18,0.18,0
0.009023,0.0049155,0.029679,0.0031619,0.0098521,0.0027604,0,0,0.051548,-0.017395,0,0.014354,0,0,0,0.029963,0.0028776,0.0098521,5.8805,0.014231,0.024359,5.4226e-07,0.19,0.18,0
0.0095391,0.0050912,0.029642,0.0029266,0.0097707,0.0025565,0,0,0.051666,-0.017795,0,0.013294,0,0,0,0.029885,0.0026842,0.0097707,5.4172,0.014113,0.02444,5.4273e-07,0.2,0.18,0
0.010056,0.005257,0.029598,0.0027127,0.0096932,0.0023599,0,0,0.051753,-0.018149,0,0.012271,0,0,0,0.029804,0.0025071,0.0096932,4.9784,0.014001,0.024507,5.4256e-07,0.21,0.18,0
0.010574,0.0054129,0.029547,0.0025184,0.0096196,0.0021709,0,0,0.051811,-0.018463,0,0.011288,0,0,0,0.02972,0.0023451,0.0096196,4.5629,0.013895,0.02456,5.4183e-07,0.22,0.18,0
0.011092,0.0055591,0.02949,0.0023423,0.0095498,0.0019896,0,0,0.051845,-0.018739,0,0.010346,0,0,0,0.029635,0.0021973,0.0095498,4.1693,0.013794,0.0246,5.4063e-07,0.23,0.18,0
0.011611,0.0056957,0.029429,0.002183,0.0094835,0.0018159,0,0,0.051858,-0.018981,0,0.0094427,0,0,0,0.029549,0.0020625,0.0094835,3.7963,0.013698,0.024629,5.3901e-07,0.24,0.18,0
0.01213,0.0058229,0.029363,0.002039,0.0094207,0.0016497,0,0,0.051851,-0.019192,0,0.0085786,0,0,0,0.029462,0.0019397,0.0094207,3.4426,0.013608,0.024649,5.3705e-07,0.25,0.18,0
0.012648,0.005941,0.029295,0.0019089,0.0093611,0.0014908,0,0,0.051827,-0.019376,0,0.0077524,0,0,0,0.029376,0.001828,0.0093611,3.1069,0.013522,0.02466,5.348e-07,0.26,0.18,0
0.013166,0.00605,0.029224,0.0017916,0.0093046,0.0013389,0,0,0.05179,-0.019534,0,0.0069622,0,0,0,0.029289,0.0017264,0.0093046,2.7876,0.01344,0.024663,5.3231e-07,0.27,0.18,0
0.013684,0.0061502,0.029151,0.0016856,0.0092509,0.0011935,0,0,0.05174,-0.01967,0,0.0062063,0,0,0,0.029202,0.0016339,0.0092509,2.4836,0.013362,0.024659,5.2962e-07,0.28,0.18,0
0.014201,0.0062419,0.029077,0.00159,0.0092,0.0010543,0,0,0.051679,-0.019786,0,0.0054826,0,0,0,0.029117,0.0015496,0.0092,2.1935,0.013289,0.024649,5.2678e-07,0.29,0.18,0
0.014717,0.0063251,0.029001,0.0015036,0.0091515,0.00092099,0,0,0.05161,-0.019885,0,0.0047891,0,0,0,0.029032,0.0014728,0.0091515,1.9162,0.013219,0.024635,5.2382e-07,0.3,0.18,0
0.015233,0.0064001,0.028926,0.0014252,0.0091053,0.00079303,0,0,0.051533,-0.019968,0,0.0041238,0,0,0,0.028949,0.0014024,0.0091053,1.6504,0.013152,0.024616,5.2078e-07,0.31,0.18,0
0.015748,0.0064671,0.02885,0.0013539,0.0090612,0.00067009,0,0,0.051451,-0.020039,0,0.0034845,0,0,0,0.028866,0.0013376,0.0090612,1.3952,0.013088,0.024594,5.177e-07,0.32,0.18,0
0.016262,0.0065264,0.028774,0.0012887,0.0090189,0.00055178,0,0,0.051364,-0.020099,0,0.0028693,0,0,0,0.028785,0.0012776,0.0090189,1.1496,0.013027,0.02457,5.1459e-07,0.33,0.18,0
0.016775,0.006578,0.028699,0.0012285,0.0089784,0.00043778,0,0,0.051275,-0.02015,0,0.0022765,0,0,0,0.028706,0.0012215,0.0089784,0.91277,0.012969,0.024544,5.115e-07,0.34,0.18,0
0.017288,0.0066223,0.028625,0.0011724,0.0089393,0.00032778,0,0,0.051183,-0.020194,0,0.0017044,0,0,0,0.028629,0.0011685,0.0089393,0.68397,0.012912,0.024517,5.0845e-07,0.35,0.18,0
0.017799,0.0066594,0.028552,0.0011195,0.0089014,0.00022151,0,0,0.051091,-0.020233,0,0.0011519,0,0,0,0.028554,0.0011177,0.0089014,0.46261,0.012858,0.02449,5.0547e-07,0.36,0.18,0
0.01831,0.0066895,0.02848,0.0010688,0.0088647,0.00011877,0,0,0.051,-0.020269,0,0.00061759,0,0,0,0.028481,0.0010682,0.0088647,0.24824,0.012805,0.024465,5.0259e-07,0.37,0.18,0
0.018819,0.0067128,0.02841,0.0010194,0.0088289,1.9397e-05,0,0,0.050911,-0.020305,0,0.00010087,0,0,0,0.02841,0.0010193,0.0088289,0.040574,0.012753,0.024441,4.9984e-07,0.38,0.18,0
0.019328,0.0067296,0.028342,0.00097037,0.0087937,-7.6688e-05,0,0,0.050826,-0.020341,0,-0.00039878,0,0,0,0.028342,0.00097016,0.0087937,-0.16053,0.012702,0.024419,4.9724e-07,0.39,0.18,0
0.019836,0.0067401,0.028276,0.00092095,0.0087592,-0.00016951,0,0,0.050744,-0.020379,0,-0.00088145,0,0,0,0.028277,0.0009199,0.0087592,-0.35502,0.012652,0.024401,4.9482e-07,0.4,0.18,0
0.020343,0.0067446,0.028213,0.00087025,0.008725,-0.00025901,0,0,0.050669,-0.020422,0,-0.0013469,0,0,0,0.028216,0.0008678,0.008725,-0.54268,0.012603,0.024388,4.9261e-07,0.41,0.18,0
0.020849,0.0067431,0.028153,0.00081747,0.008691,-0.00034507,0,0,0.0506,-0.020471,0,-0.0017943,0,0,0,0.028157,0.00081311,0.008691,-0.72312,0.012554,0.024379,4.9063e-07,0.42,0.18,0
0.021355,0.0067362,0.028095,0.00076186,0.0086572,-0.00042746,0,0,0.050539,-0.020528,0,-0.0022228,0,0,0,0.028102,0.00075518,0.0086572,-0.89574,0.012505,0.024376,4.889e-07,0.43,0.18,0
0.02186,0.006724,0.028041,0.00070274,0.0086233,-0.00050591,0,0,0.050487,-0.020593,0,-0.0026307,0,0,0,0.028051,0.00069338,0.0086233,-1.0598,0.012456,0.02438,4.8745e-07,0.44,0.18,0
0.022364,0.0067068,0.027991,0.0006395,0.0085892,-0.00058003,0,0,0.050445,-0.020669,0,-0.0030162,0,0,0,0.028004,0.00062721,0.0085892,-1.2143,0.012407,0.02439,4.8629e-07,0.45,0.18,0
0.022869,0.0066849,0.027945,0.00057164,0.008555,-0.00064939,0,0,0.050414,-0.020757,0,-0.0033768,0,0,0,0.02796,0.00055624,0.008555,-1.3582,0.012357,0.024408,4.8543e-07,0.46,0.18,0
0.023373,0.0066587,0.027903,0.00049873,0.0085205,-0.00071346,0,0,0.050394,-0.020857,0,-0.00371,0,0,0,0.027921,0.00048017,0.0085205,-1.4903,0.012307,0.024434,4.8489e-07,0.47,0.18,0
0.023877,0.0066287,0.027865,0.00042053,0.0084857,-0.00077167,0,0,0.050386,-0.020969,0,-0.0040127,0,0,0,0.027887,0.00039885,0.0084857,-1.6093,0.012257,0.024468,4.8466e-07,0.48,0.18,0
0.02438,0.0065951,0.027832,0.00033689,0.0084506,-0.00082337,0,0,0.050391,-0.021096,0,-0.0042815,0,0,0,0.027856,0.00031226,0.0084506,-1.7138,0.012206,0.02451,4.8474e-07,0.49,0.18,0
0.024884,0.0065584,0.027803,0.00024787,0.0084152,-0.00086792,0,0,0.050408,-0.021235,0,-0.0045132,0,0,0,0.02783,0.00022056,0.0084152,-1.8023,0.012155,0.02456,4.8513e-07,0.5,0.18,0
0.025389,0.0065191,0.027778,0.00015368,0.0083796,-0.00090461,0,0,0.050437,-0.021387,0,-0.004704,0,0,0,0.027808,0.00012408,0.0083796,-1.8736,0.012104,0.024617,4.8581e-07,0.51,0.18,0
0.025893,0.0064776,0.027758,5.4722e-05,0.0083439,-0.00093278,0,0,0.050477,-0.021552,0,-0.0048505,0,0,0,0.02779,2.335e-05,0.0083439,-1.9263,0.012052,0.024681,4.8675e-07,0.52,0.18,0
0.026398,0.0064345,0.027742,-4.8387e-05,0.0083082,-0.00095178,0,0,0.050529,-0.021727,0,-0.0049493,0,0,0,0.027775,-8.0945e-05,0.0083082,-1.9592,0.012001,0.024752,4.8794e-07,0.53,0.18,0
0.026904,0.0063903,0.027731,-0.00015485,0.0082727,-0.00096101,0,0,0.05059,-0.021912,0,-0.0049973,0,0,0,0.027764,-0.00018793,0.0082727,-1.9715,0.01195,0.024827,4.8933e-07,0.54,0.18,0
0.02741,0.0063456,0.027722,-0.00026367,0.0082376,-0.00095997,0,0,0.05066,-0.022103,0,-0.0049918,0,0,0,0.027755,-0.00029655,0.0082376,-1.9623,0.011899,0.024907,4.9088e-07,0.55,0.18,0
0.027917,0.0063008,0.027717,-0.00037367,0.0082031,-0.00094824,0,0,0.050737,-0.0223,0,-0.0049308,0,0,0,0.027749,-0.00040564,0.0082031,-1.9311,0.011849,0.024989,4.9256e-07,0.56,0.18,0
0.028425,0.0062567,0.027715,-0.00048352,0.0081694,-0.00092556,0,0,0.050819,-0.022498,0,-0.0048129,0,0,0,0.027745,-0.00051387,0.0081694,-1.8779,0.0118,0.025072,4.9431e-07,0.57,0.18,0
0.028933,0.0062137,0.027715,-0.00059177,0.0081369,-0.00089183,0,0,0.050903,-0.022695,0,-0.0046375,0,0,0,0.027743,-0.00061984,0.0081369,-1.8028,0.011753,0.025155,4.9609e-07,0.58,0.18,0
0.029443,0.0061724,0.027716,-0.00069685,0.0081059,-0.00084712,0,0,0.050987,-0.022887,0,-0.004405,0,0,0,0.027742,-0.00072208,0.0081059,-1.7062,0.011709,0.025236,4.9784e-07,0.59,0.18,0
0.029953,0.0061334,0.027719,-0.00079715,0.0080765,-0.0007917,0,0,0.05107,-0.023072,0,-0.0041168,0,0,0,0.027741,-0.00081911,0.0080765,-1.5891,0.011666,0.025313,4.9951e-07,0.6,0.18,0
0.030464,0.0060973,0.027722,-0.00089107,0.0080492,-0.00072601,0,0,0.051149,-0.023245,0,-0.0037752,0,0,0,0.02774,-0.00090947,0.0080492,-1.4526,0.011627,0.025385,5.0106e-07,0.61,0.18,0
0.030976,0.0060645,0.027724,-0.00097702,0.0080243,-0.00065072,0,0,0.051221,-0.023403,0,-0.0033838,0,0,0,0.027739,-0.00099176,0.0080243,-1.2981,0.011591,0.02545,5.0244e-07,0.62,0.18,0
0.031489,0.0060355,0.027727,-0.0010535,0.0080019,-0.00056668,0,0,0.051284,-0.023544,0,-0.0029467,0,0,0,0.027738,-0.0010647,0.0080019,-1.1276,0.011558,0.025508,5.0361e-07,0.63,0.18,0
0.032002,0.0060106,0.027727,-0.0011192,0.0079824,-0.00047488,0,0,0.051337,-0.023664,0,-0.0024694,0,0,0,0.027735,-0.001127,0.0079824,-0.94288,0.01153,0.025555,5.0454e-07,0.64,0.18,0
0.032515,0.0059904,0.027726,-0.0011729,0.007966,-0.00037649,0,0,0.051376,-0.023761,0,-0.0019578,0,0,0,0.027731,-0.0011778,0.007966,-0.74628,0.011506,0.025593,5.0519e-07,0.65,0.18,0
0.033029,0.005975,0.027723,-0.0012137,0.0079528,-0.0002728,0,0,0.051402,-0.023833,0,-0.0014186,0,0,0,0.027726,-0.0012162,0.0079528,-0.54009,0.011487,0.025619,5.0555e-07,0.66,0.18,0
0.033543,0.0059648,0.027717,-0.0012406,0.007943,-0.00016517,0,0,0.051413,-0.023878,0,-0.00085891,0,0,0,0.027718,-0.0012416,0.007943,-0.3268,0.011473,0.025633,5.0559e-07,0.67,0.18,0
0.034057,0.0059598,0.027709,-0.0012533,0.0079368,-5.5064e-05,0,0,0.051408,-0.023894,0,-0.00028633,0,0,0,0.027709,-0.0012534,0.0079368,-0.10893,0.011464,0.025635,5.053e-07,0.68,0.18,0
0.034571,0.0059602,0.027698,-0.0012514,0.007934,5.6042e-05,0,0,0.051387,-0.023882,0,0.00029142,0,0,0,0.027698,-0.0012515,0.007934,0.11091,0.01146,0.025623,5.0467e-07,0.69,0.18,0
0.035085,0.005966,0.027684,-0.0012349,0.0079348,0.00016664,0,0,0.051348,-0.023841,0,0.00086651,0,0,0,0.027685,-0.0012358,0.0079348,0.33013,0.011461,0.025599,5.037e-07,0.7,0.18,0
0.035598,0.0059772,0.027667,-0.0012039,0.007939,0.00027522,0,0,0.051294,-0.023772,0,0.0014311,0,0,0,0.02767,-0.0012065,0.007939,0.54612,0.011468,0.025562,5.0239e-07,0.71,0.18,0
0.036111,0.0059937,0.027648,-0.0011589,0.0079466,0.00038032,0,0,0.051223,-0.023674,0,0.0019777,0,0,0,0.027653,-0.0011639,0.0079466,0.75628,0.011479,0.025512,5.0074e-07,0.72,0.18,0
0.036623,0.0060152,0.027625,-0.0011006,0.0079574,0.00048054,0,0,0.051136,-0.023551,0,0.0024988,0,0,0,0.027633,-0.0011086,0.0079574,0.95812,0.011494,0.02545,4.9876e-07,0.73,0.18,0
0.037134,0.0060414,0.0276,-0.0010299,0.0079711,0.00057455,0,0,0.051036,-0.023403,0,0.0029876,0,0,0,0.027612,-0.0010414,0.0079711,1.1492,0.011514,0.025377,4.9648e-07,0.74,0.18,0
0.037644,0.0060722,0.027573,-0.00094794,0.0079876,0.00066113,0,0,0.050923,-0.023232,0,0.0034379,0,0,0,0.027589,-0.00096326,0.0079876,1.3272,0.011538,0.025294,4.939e-07,0.75,0.18,0
0.038152,0.006107,0.027544,-0.00085602,0.0080065,0.00073922,0,0,0.050799,-0.023043,0,0.003844,0,0,0,0.027564,-0.00087525,0.0080065,1.49,0.011565,0.025201,4.9106e-07,0.76,0.18,0
0.03866,0.0061456,0.027514,-0.00075561,0.0080276,0.00080792,0,0,0.050665,-0.022836,0,0.0042012,0,0,0,0.027537,-0.00077868,0.0080276,1.6357,0.011595,0.0251,4.88e-07,0.77,0.18,0
0.039166,0.0061874,0.027483,-0.00064827,0.0080505,0.0008665,0,0,0.050525,-0.022617,0,0.0045058,0,0,0,0.02751,-0.00067493,0.0080505,1.7626,0.011628,0.024992,4.8474e-07,0.78,0.18,0
0.03967,0.0062319,0.027452,-0.00053566,0.0080748,0.00091444,0,0,0.05038,-0.022387,0,0.0047551,0,0,0,0.027481,-0.0005655,0.0080748,1.8694,0.011664,0.024879,4.8133e-07,0.79,0.18,0
0.040173,0.0062786,0.02742,-0.00041943,0.0081002,0.0009514,0,0,0.050231,-0.022151,0,0.0049473,0,0,0,0.027452,-0.00045191,0.0081002,1.955,0.0117,0.024762,4.7782e-07,0.8,0.18,0
0.040675,0.006327,0.027389,-0.00030123,0.0081263,0.00097725,0,0,0.050083,-0.021912,0,0.0050817,0,0,0,0.027423,-0.00033568,0.0081263,2.0187,0.011738,0.024643,4.7425e-07,0.81,0.18,0
0.041175,0.0063766,0.027359,-0.00018265,0.0081528,0.00099205,0,0,0.049935,-0.021672,0,0.0051586,0,0,0,0.027394,-0.00021833,0.0081528,2.0602,0.011776,0.024523,4.7066e-07,0.82,0.18,0
0.041674,0.0064267,0.02733,-6.5151e-05,0.0081795,0.00099602,0,0,0.049792,-0.021436,0,0.0051793,0,0,0,0.027366,-0.00010132,0.0081795,2.0795,0.011815,0.024405,4.671e-07,0.83,0.18,0
0.042171,0.006477,0.027303,4.9899e-05,0.0082059,0.00098953,0,0,0.049653,-0.021205,0,0.0051456,0,0,0,0.027339,1.4017e-05,0.0082059,2.0767,0.011853,0.024288,4.6361e-07,0.84,0.18,0
0.042667,0.0065268,0.027278,0.0001613,0.0082317,0.0009731,0,0,0.04952,-0.020983,0,0.0050601,0,0,0,0.027313,0.00012642,0.0082317,2.0526,0.01189,0.024175,4.6023e-07,0.85,0.18,0
0.043161,0.0065757,0.027255,0.00026799,0.0082569,0.00094731,0,0,0.049395,-0.020771,0,0.004926,0,0,0,0.027288,0.00023478,0.0082569,2.0079,0.011927,0.024067,4.5699e-07,0.86,0.18,0
0.043654,0.0066232,0.027234,0.00036911,0.008281,0.00091284,0,0,0.049278,-0.020571,0,0.0047468,0,0,0,0.027265,0.00033813,0.008281,1.9439,0.011961,0.023964,4.5393e-07,0.87,0.18,0
0.044147,0.006669,0.027216,0.00046392,0.0083039,0.00087043,0,0,0.049171,-0.020384,0,0.0045262,0,0,0,0.027244,0.00043563,0.0083039,1.8616,0.011994,0.023868,4.5106e-07,0.88,0.18,0
0.044638,0.0067125,0.0272,0.00055188,0.0083255,0.00082082,0,0,0.049073,-0.020211,0,0.0042683,0,0,0,0.027225,0.00052662,0.0083255,1.7626,0.012026,0.023778,4.4841e-07,0.89,0.18,0
0.045128,0.0067534,0.027186,0.00063256,0.0083455,0.00076478,0,0,0.048985,-0.020054,0,0.0039768,0,0,0,0.027208,0.00061055,0.0083455,1.6484,0.012055,0.023696,4.4598e-07,0.9,0.18,0
0.045617,0.0067914,0.027174,0.00070567,0.008364,0.00070305,0,0,0.048907,-0.019911,0,0.0036559,0,0,0,0.027193,0.00068701,0.008364,1.5205,0.012081,0.023622,4.438e-07,0.91,0.18,0
0.046106,0.0068262,0.027164,0.00077105,0.0083806,0.00063638,0,0,0.048838,-0.019785,0,0.0033092,0,0,0,0.02718,0.00075571,0.0083806,1.3804,0.012105,0.023556,4.4185e-07,0.92,0.18,0
0.046594,0.0068575,0.027156,0.00082859,0.0083955,0.00056545,0,0,0.048778,-0.019674,0,0.0029403,0,0,0,0.027169,0.00081645,0.0083955,1.2298,0.012127,0.023498,4.4015e-07,0.93,0.18,0
0.047082,0.006885,0.02715,0.00087828,0.0084085,0.00049092,0,0,0.048728,-0.019578,0,0.0025528,0,0,0,0.027159,0.00086911,0.0084085,1.0702,0.012146,0.023448,4.3868e-07,0.94,0.18,0
0.047569,0.0069087,0.027145,0.00092015,0.0084195,0.00041342,0,0,0.048686,-0.019498,0,0.0021498,0,0,0,0.027151,0.00091363,0.0084195,0.90293,0.012162,0.023406,4.3746e-07,0.95,0.18,0
0.048056,0.0069283,0.027141,0.00095426,0.0084286,0.0003335,0,0,0.048653,-0.019433,0,0.0017342,0,0,0,0.027145,0.00095001,0.0084286,0.72954,0.012175,0.023371,4.3647e-07,0.96,0.18,0
0.048542,0.0069436,0.027138,0.00098068,0.0084357,0.00025172,0,0,0.048627,-0.019383,0,0.0013089,0,0,0,0.027141,0.00097826,0.0084357,0.5513,0.012185,0.023345,4.357e-07,0.97,0.18,0
0.049028,0.0069547,0.027137,0.00099949,0.0084408,0.00016856,0,0,0.048609,-0.019347,0,0.00087651,0,0,0,0.027138,0.00099841,0.0084408,0.36949,0.012192,0.023326,4.3516e-07,0.98,0.18,0
0.049514,0.0069613,0.027135,0.0010107,0.0084438,8.4502e-05,0,0,0.048598,-0.019326,0,0.00043941,0,0,0,0.027136,0.0010105,0.0084438,0.18532,0.012197,0.023315,4.3483e-07,0.99,0.18,0
0.05,0.0069636,0.027135,0.0010145,0.0084449,4.2763e-05,0,0,0.048594,-0.019319,0,0.00022237,0,0,0,0.027135,0.0010144,0.0084449,0.093802,0.012198,0.023311,4.3473e-07,1,0.18,0
0,0,0.027833,0.011928,0.011928,0.0054967,0,0,0.041352,-5.421e-20,0,0.028583,0,0,0,0.029548,0.010214,0.011928,17.326,0.01723,0.018537,3.177e-07,0,0.19,0
0.00041352,0.00028583,0.027787,0.011345,0.01174,0.0054911,0,0,0.041723,-0.0010249,0,0.028554,0,0,0,0.029452,0.0096803,0.01174,16.871,0.016957,0.018827,3.2894e-07,0.01,0.19,0
0.00083445,0.00057208,0.027984,0.010843,0.011648,0.0054785,0,0,0.042473,-0.0020938,0,0.028488,0,0,0,0.029585,0.0092413,0.011648,16.294,0.016825,0.019254,3.4735e-07,0.02,0.19,0
0.001263,0.00085808,0.028182,0.010322,0.011551,0.0054466,0,0,0.04324,-0.0031964,0,0.028323,0,0,0,0.029712,0.0087917,0.011551,15.69,0.016685,0.019686,3.6601e-07,0.03,0.19,0
0.0016993,0.001143,0.028377,0.009788,0.01145,0.0053933,0,0,0.044012,-0.0043203,0,0.028045,0,0,0,0.029829,0.0083366,0.01145,15.062,0.016538,0.020117,3.8461e-07,0.04,0.19,0
0.0021432,0.0014261,0.028568,0.0092477,0.011345,0.0053172,0,0,0.044781,-0.0054522,0,0.02765,0,0,0,0.029935,0.007881,0.011345,14.415,0.016387,0.020542,4.0287e-07,0.05,0.19,0
0.0025949,0.0017062,0.02875,0.0087069,0.011237,0.0052183,0,0,0.045534,-0.0065787,0,0.027135,0,0,0,0.030027,0.0074297,0.011237,13.753,0.016231,0.020955,4.2049e-07,0.06,0.19,0
0.0030539,0.0019826,0.028921,0.0081714,0.011128,0.0050973,0,0,0.046263,-0.0076866,0,0.026506,0,0,0,0.030106,0.0069869,0.011128,13.083,0.016074,0.021352,4.3724e-07,0.07,0.19,0
0.0035201,0.0022543,0.029079,0.0076467,0.011018,0.0049558,0,0,0.046959,-0.0087644,0,0.02577,0,0,0,0.030169,0.0065563,0.011018,12.409,0.015914,0.021729,4.5292e-07,0.08,0.19,0
0.0039931,0.0025204,0.029221,0.0071375,0.010908,0.0047961,0,0,0.047614,-0.0098019,0,0.024939,0,0,0,0.030217,0.0061409,0.010908,11.739,0.015755,0.022083,4.6736e-07,0.09,0.19,0
0.0044724,0.0027801,0.029346,0.0066477,0.010798,0.0046207,0,0,0.048224,-0.010791,0,0.024028,0,0,0,0.03025,0.0057431,0.010798,11.077,0.015597,0.022412,4.8048e-07,0.1,0.19,0
0.0049576,0.0030327,0.029453,0.0061802,0.01069,0.0044327,0,0,0.048785,-0.011726,0,0.02305,0,0,0,0.030269,0.0053645,0.01069,10.427,0.015441,0.022715,4.9221e-07,0.11,0.19,0
0.0054481,0.0032776,0.029543,0.0057372,0.010584,0.0042349,0,0,0.049293,-0.012602,0,0.022021,0,0,0,0.030274,0.0050063,0.010584,9.7924,0.015288,0.022992,5.0255e-07,0.12,0.19,0
0.0059435,0.0035142,0.029615,0.00532,0.010481,0.0040302,0,0,0.049749,-0.013417,0,0.020957,0,0,0,0.030266,0.0046689,0.010481,9.1773,0.015138,0.023243,5.1151e-07,0.13,0.19,0
0.0064431,0.0037422,0.02967,0.0049294,0.01038,0.0038213,0,0,0.050154,-0.014171,0,0.019871,0,0,0,0.030246,0.0043526,0.01038,8.5833,0.014993,0.023468,5.1914e-07,0.14,0.19,0
0.0069465,0.0039612,0.029708,0.0045655,0.010282,0.0036106,0,0,0.050508,-0.014863,0,0.018775,0,0,0,0.030217,0.0040573,0.010282,8.0122,0.014852,0.023669,5.2553e-07,0.15,0.19,0
0.0074533,0.0041709,0.029732,0.0042279,0.010188,0.0034002,0,0,0.050814,-0.015496,0,0.017681,0,0,0,0.030177,0.0037823,0.010188,7.4649,0.014716,0.023847,5.3074e-07,0.16,0.19,0
0.0079628,0.0043712,0.029742,0.0039158,0.010097,0.0031918,0,0,0.051076,-0.016072,0,0.016597,0,0,0,0.03013,0.0035272,0.010097,6.9419,0.014585,0.024002,5.3488e-07,0.17,0.19,0
0.0084748,0.004562,0.029739,0.0036284,0.01001,0.0029868,0,0,0.051295,-0.016593,0,0.015532,0,0,0,0.030076,0.003291,0.01001,6.4433,0.014459,0.024138,5.3803e-07,0.18,0.19,0
0.0089887,0.0047432,0.029725,0.0033644,0.0099268,0.0027865,0,0,0.051475,-0.017062,0,0.01449,0,0,0,0.030016,0.003073,0.0099268,5.9687,0.014339,0.024254,5.4029e-07,0.19,0.19,0
0.0095043,0.0049148,0.029701,0.0031226,0.0098471,0.0025916,0,0,0.05162,-0.017484,0,0.013476,0,0,0,0.029951,0.0028722,0.0098471,5.5176,0.014224,0.024353,5.4175e-07,0.2,0.19,0
0.010021,0.0050769,0.029668,0.0029016,0.0097709,0.0024028,0,0,0.051733,-0.01786,0,0.012495,0,0,0,0.029882,0.0026877,0.0097709,5.0891,0.014114,0.024435,5.4249e-07,0.21,0.19,0
0.010539,0.0052296,0.029628,0.0027002,0.0096983,0.0022204,0,0,0.051816,-0.018195,0,0.011546,0,0,0,0.029809,0.0025183,0.0096983,4.6825,0.014009,0.024503,5.4261e-07,0.22,0.19,0
0.011057,0.0053729,0.02958,0.0025169,0.0096292,0.0020448,0,0,0.051873,-0.018492,0,0.010633,0,0,0,0.029734,0.0023632,0.0096292,4.2964,0.013909,0.024558,5.4216e-07,0.23,0.19,0
0.011576,0.005507,0.029527,0.0023503,0.0095633,0.0018759,0,0,0.051907,-0.018754,0,0.0097544,0,0,0,0.029656,0.0022215,0.0095633,3.9299,0.013814,0.0246,5.4122e-07,0.24,0.19,0
0.012096,0.005632,0.02947,0.0021993,0.0095006,0.0017136,0,0,0.051919,-0.018984,0,0.0089109,0,0,0,0.029577,0.002092,0.0095006,3.5816,0.013723,0.024631,5.3986e-07,0.25,0.19,0
0.012615,0.0057482,0.029408,0.0020624,0.009441,0.001558,0,0,0.051913,-0.019184,0,0.0081014,0,0,0,0.029496,0.001974,0.009441,3.2504,0.013637,0.024652,5.3813e-07,0.26,0.19,0
0.013134,0.0058555,0.029342,0.0019386,0.0093842,0.0014086,0,0,0.051891,-0.019359,0,0.0073248,0,0,0,0.029414,0.0018664,0.0093842,2.9349,0.013555,0.024664,5.3607e-07,0.27,0.19,0
0.013653,0.0059543,0.029274,0.0018265,0.0093301,0.0012653,0,0,0.051854,-0.019509,0,0.0065797,0,0,0,0.029332,0.0017683,0.0093301,2.6339,0.013477,0.024668,5.3375e-07,0.28,0.19,0
0.014171,0.0060447,0.029203,0.0017251,0.0092785,0.0011277,0,0,0.051804,-0.019639,0,0.0058642,0,0,0,0.029249,0.0016789,0.0092785,2.3462,0.013402,0.024665,5.312e-07,0.29,0.19,0
0.014689,0.0061269,0.029131,0.0016333,0.0092292,0.00099551,0,0,0.051744,-0.019749,0,0.0051766,0,0,0,0.029167,0.0015973,0.0092292,2.0707,0.013331,0.024656,5.2846e-07,0.3,0.19,0
0.015206,0.006201,0.029057,0.00155,0.009182,0.0008683,0,0,0.051674,-0.019843,0,0.0045151,0,0,0,0.029084,0.0015226,0.009182,1.8062,0.013263,0.024641,5.2557e-07,0.31,0.19,0
0.015722,0.0062673,0.028982,0.001474,0.0091367,0.00074574,0,0,0.051597,-0.019923,0,0.0038779,0,0,0,0.029002,0.0014538,0.0091367,1.5518,0.013197,0.024623,5.2258e-07,0.32,0.19,0
0.016238,0.0063259,0.028906,0.0014045,0.0090932,0.00062749,0,0,0.051513,-0.019991,0,0.003263,0,0,0,0.02892,0.0013902,0.0090932,1.3064,0.013135,0.024601,5.195e-07,0.33,0.19,0
0.016752,0.006377,0.02883,0.0013403,0.0090511,0.00051323,0,0,0.051425,-0.020048,0,0.0026688,0,0,0,0.02884,0.0013308,0.0090511,1.0692,0.013074,0.024576,5.1639e-07,0.34,0.19,0
0.017266,0.0064208,0.028754,0.0012806,0.0090104,0.00040265,0,0,0.051334,-0.020098,0,0.0020938,0,0,0,0.02876,0.0012747,0.0090104,0.83947,0.013015,0.024549,5.1327e-07,0.35,0.19,0
0.017779,0.0064575,0.028679,0.0012242,0.0089708,0.00029549,0,0,0.05124,-0.020141,0,0.0015366,0,0,0,0.028682,0.001221,0.0089708,0.61658,0.012958,0.024522,5.1018e-07,0.36,0.19,0
0.018291,0.0064872,0.028604,0.0011702,0.0089322,0.00019156,0,0,0.051146,-0.020181,0,0.00099612,0,0,0,0.028605,0.0011689,0.0089322,0.40006,0.012902,0.024495,5.0714e-07,0.37,0.19,0
0.018802,0.0065102,0.02853,0.0011177,0.0088942,9.0691e-05,0,0,0.051053,-0.020219,0,0.00047159,0,0,0,0.02853,0.0011174,0.0088942,0.18956,0.012847,0.024469,5.042e-07,0.38,0.19,0
0.019312,0.0065266,0.028457,0.0010656,0.0088569,-7.2101e-06,0,0,0.050961,-0.020257,0,-3.7493e-05,0,0,0,0.028457,0.0010656,0.0088569,-0.015082,0.012793,0.024446,5.0139e-07,0.39,0.19,0
0.019821,0.0065367,0.028386,0.0010131,0.0088199,-0.00010217,0,0,0.050873,-0.020298,0,-0.00053127,0,0,0,0.028387,0.0010127,0.0088199,-0.21385,0.01274,0.024425,4.9873e-07,0.4,0.19,0
0.02033,0.0065407,0.028318,0.00095925,0.0087831,-0.00019413,0,0,0.05079,-0.020342,0,-0.0010095,0,0,0,0.028319,0.00095787,0.0087831,-0.40654,0.012687,0.024408,4.9626e-07,0.41,0.19,0
0.020837,0.0065388,0.028251,0.00090313,0.0087464,-0.00028297,0,0,0.050713,-0.020392,0,-0.0014715,0,0,0,0.028254,0.0009002,0.0087464,-0.59276,0.012634,0.024396,4.94e-07,0.42,0.19,0
0.021344,0.0065313,0.028188,0.00084393,0.0087095,-0.00036848,0,0,0.050644,-0.020451,0,-0.0019161,0,0,0,0.028193,0.00083896,0.0087095,-0.77192,0.01258,0.02439,4.92e-07,0.43,0.19,0
0.02185,0.0065184,0.028127,0.00078087,0.0086725,-0.00045035,0,0,0.050583,-0.020518,0,-0.0023418,0,0,0,0.028135,0.00077346,0.0086725,-0.94322,0.012527,0.024391,4.9026e-07,0.44,0.19,0
0.022356,0.0065004,0.02807,0.00071329,0.0086351,-0.00052819,0,0,0.050532,-0.020597,0,-0.0027466,0,0,0,0.028081,0.00070309,0.0086351,-1.1057,0.012473,0.024398,4.8882e-07,0.45,0.19,0
0.02286,0.0064776,0.028017,0.00064056,0.0085973,-0.00060153,0,0,0.050492,-0.020688,0,-0.003128,0,0,0,0.02803,0.00062735,0.0085973,-1.2581,0.012418,0.024414,4.8769e-07,0.46,0.19,0
0.023365,0.0064505,0.027968,0.00056223,0.008559,-0.00066982,0,0,0.050463,-0.020792,0,-0.0034831,0,0,0,0.027984,0.00054587,0.008559,-1.3992,0.012363,0.024438,4.8689e-07,0.47,0.19,0
0.02387,0.0064192,0.027923,0.00047796,0.0085203,-0.00073242,0,0,0.050447,-0.02091,0,-0.0038086,0,0,0,0.027942,0.00045843,0.0085203,-1.5276,0.012307,0.02447,4.8642e-07,0.48,0.19,0
0.024374,0.0063844,0.027883,0.00038757,0.008481,-0.00078865,0,0,0.050444,-0.021043,0,-0.004101,0,0,0,0.027905,0.00036497,0.008481,-1.6417,0.01225,0.024511,4.8628e-07,0.49,0.19,0
0.024879,0.0063463,0.027847,0.00029108,0.0084413,-0.00083778,0,0,0.050454,-0.021191,0,-0.0043565,0,0,0,0.027872,0.00026563,0.0084413,-1.7398,0.012193,0.024561,4.8646e-07,0.5,0.19,0
0.025383,0.0063054,0.027815,0.00018869,0.0084012,-0.00087904,0,0,0.050477,-0.021352,0,-0.004571,0,0,0,0.027843,0.00016075,0.0084012,-1.8206,0.012135,0.024619,4.8696e-07,0.51,0.19,0
0.025888,0.0062622,0.027789,8.0815e-05,0.0083608,-0.00091168,0,0,0.050512,-0.021528,0,-0.0047407,0,0,0,0.027819,5.085e-05,0.0083608,-1.8825,0.012077,0.024685,4.8775e-07,0.52,0.19,0
0.026394,0.0062173,0.027766,-3.1891e-05,0.0083204,-0.00093496,0,0,0.05056,-0.021716,0,-0.0048618,0,0,0,0.027798,-6.3302e-05,0.0083204,-1.9242,0.012018,0.024758,4.8881e-07,0.53,0.19,0
0.026899,0.0061712,0.027748,-0.00014856,0.00828,-0.00094818,0,0,0.050618,-0.021914,0,-0.0049306,0,0,0,0.027781,-0.00018075,0.00828,-1.9444,0.01196,0.024837,4.9009e-07,0.54,0.19,0
0.027406,0.0061244,0.027734,-0.0002681,0.0082399,-0.00095077,0,0,0.050686,-0.022121,0,-0.004944,0,0,0,0.027767,-0.00030034,0.0082399,-1.9424,0.011902,0.02492,4.9156e-07,0.55,0.19,0
0.027913,0.0060776,0.027724,-0.00038921,0.0082005,-0.00094222,0,0,0.050762,-0.022333,0,-0.0048996,0,0,0,0.027756,-0.00042075,0.0082005,-1.9174,0.011845,0.025006,4.9317e-07,0.56,0.19,0
0.028421,0.0060314,0.027717,-0.00051039,0.0081619,-0.00092222,0,0,0.050843,-0.022548,0,-0.0047955,0,0,0,0.027747,-0.00054049,0.0081619,-1.8693,0.011789,0.025095,4.9487e-07,0.57,0.19,0
0.02893,0.0059864,0.027712,-0.00063002,0.0081246,-0.00089059,0,0,0.050927,-0.022762,0,-0.0046311,0,0,0,0.02774,-0.00065798,0.0081246,-1.798,0.011735,0.025183,4.966e-07,0.58,0.19,0
0.02944,0.0059431,0.027709,-0.00074633,0.0080888,-0.00084738,0,0,0.051013,-0.022971,0,-0.0044063,0,0,0,0.027734,-0.00077154,0.0080888,-1.7042,0.011684,0.025269,4.9832e-07,0.59,0.19,0
0.02995,0.0059022,0.027708,-0.0008575,0.008055,-0.00079282,0,0,0.051097,-0.023173,0,-0.0041227,0,0,0,0.02773,-0.00087949,0.008055,-1.5886,0.011635,0.025351,4.9996e-07,0.6,0.19,0
0.030462,0.0058642,0.027707,-0.00096172,0.0080236,-0.00072739,0,0,0.051177,-0.023362,0,-0.0037824,0,0,0,0.027725,-0.00098016,0.0080236,-1.4525,0.01159,0.025429,5.0149e-07,0.61,0.19,0
0.030974,0.0058298,0.027706,-0.0010572,0.0079947,-0.00065177,0,0,0.05125,-0.023535,0,-0.0033892,0,0,0,0.027721,-0.001072,0.0079947,-1.2974,0.011548,0.025499,5.0284e-07,0.62,0.19,0
0.031487,0.0057993,0.027705,-0.0011423,0.0079689,-0.00056685,0,0,0.051315,-0.023689,0,-0.0029476,0,0,0,0.027716,-0.0011534,0.0079689,-1.1253,0.011511,0.02556,5.0398e-07,0.63,0.19,0
0.032,0.0057732,0.027703,-0.0012154,0.0079464,-0.00047369,0,0,0.051368,-0.023821,0,-0.0024632,0,0,0,0.027711,-0.0012232,0.0079464,-0.93817,0.011478,0.025612,5.0488e-07,0.64,0.19,0
0.032514,0.0057519,0.0277,-0.0012753,0.0079274,-0.00037353,0,0,0.051409,-0.023927,0,-0.0019424,0,0,0,0.027705,-0.0012801,0.0079274,-0.73846,0.011451,0.025652,5.0551e-07,0.65,0.19,0
0.033028,0.0057358,0.027695,-0.0013208,0.0079122,-0.00026772,0,0,0.051435,-0.024006,0,-0.0013922,0,0,0,0.027697,-0.0013233,0.0079122,-0.5286,0.011429,0.02568,5.0583e-07,0.66,0.19,0
0.033543,0.0057251,0.027688,-0.0013511,0.007901,-0.00015772,0,0,0.051446,-0.024056,0,-0.00082014,0,0,0,0.027689,-0.001352,0.007901,-0.31118,0.011413,0.025696,5.0584e-07,0.67,0.19,0
0.034057,0.0057199,0.027679,-0.0013656,0.0078939,-4.5038e-05,0,0,0.05144,-0.024075,0,-0.0002342,0,0,0,0.027679,-0.0013657,0.0078939,-0.088847,0.011402,0.025698,5.0553e-07,0.68,0.19,0
0.034571,0.0057205,0.027667,-0.001364,0.0078908,6.8761e-05,0,0,0.051417,-0.024063,0,0.00035756,0,0,0,0.027667,-0.0013642,0.0078908,0.13571,0.011398,0.025686,5.0487e-07,0.69,0.19,0
0.035085,0.0057267,0.027652,-0.0013462,0.0078919,0.0001821,0,0,0.051377,-0.024019,0,0.00094692,0,0,0,0.027654,-0.0013474,0.0078919,0.35978,0.011399,0.025661,5.0387e-07,0.7,0.19,0
0.035599,0.0057386,0.027636,-0.0013124,0.0078969,0.00029341,0,0,0.05132,-0.023944,0,0.0015257,0,0,0,0.027639,-0.0013154,0.0078969,0.58065,0.011407,0.025622,5.0253e-07,0.71,0.19,0
0.036112,0.0057561,0.027616,-0.0012632,0.0079059,0.00040114,0,0,0.051247,-0.02384,0,0.0020859,0,0,0,0.027622,-0.0012688,0.0079059,0.79565,0.01142,0.025569,5.0085e-07,0.72,0.19,0
0.036624,0.0057789,0.027595,-0.0011992,0.0079186,0.00050382,0,0,0.051158,-0.023706,0,0.0026198,0,0,0,0.027603,-0.001208,0.0079186,1.0021,0.011438,0.025504,4.9885e-07,0.73,0.19,0
0.037135,0.0058067,0.027571,-0.0011215,0.0079348,0.00060003,0,0,0.051054,-0.023546,0,0.0031202,0,0,0,0.027583,-0.0011341,0.0079348,1.1975,0.011461,0.025426,4.9653e-07,0.74,0.19,0
0.037645,0.0058392,0.027545,-0.0010314,0.0079541,0.0006885,0,0,0.050937,-0.023362,0,0.0035802,0,0,0,0.027562,-0.001048,0.0079541,1.3794,0.011489,0.025338,4.9392e-07,0.75,0.19,0
0.038154,0.005876,0.027518,-0.00093026,0.0079763,0.00076809,0,0,0.050808,-0.023157,0,0.0039941,0,0,0,0.027539,-0.00095098,0.0079763,1.5455,0.011521,0.025239,4.9104e-07,0.76,0.19,0
0.038661,0.0059167,0.02749,-0.00081978,0.0080009,0.00083784,0,0,0.05067,-0.022934,0,0.0043568,0,0,0,0.027514,-0.00084456,0.0080009,1.6938,0.011557,0.025132,4.8792e-07,0.77,0.19,0
0.039167,0.0059608,0.02746,-0.00070175,0.0080276,0.00089699,0,0,0.050525,-0.022696,0,0.0046644,0,0,0,0.027489,-0.00073029,0.0080276,1.8225,0.011595,0.025018,4.8462e-07,0.78,0.19,0
0.039672,0.0060077,0.027431,-0.00057801,0.008056,0.000945,0,0,0.050376,-0.022448,0,0.004914,0,0,0,0.027463,-0.00060985,0.008056,1.9302,0.011636,0.024898,4.8116e-07,0.79,0.19,0
0.040175,0.0060569,0.027402,-0.00045043,0.0080856,0.00098155,0,0,0.050223,-0.022194,0,0.005104,0,0,0,0.027437,-0.00048498,0.0080856,2.0158,0.011679,0.024775,4.7759e-07,0.8,0.19,0
0.040676,0.0061078,0.027374,-0.00032087,0.008116,0.0010065,0,0,0.050071,-0.021936,0,0.0052339,0,0,0,0.027411,-0.0003574,0.008116,2.0786,0.011723,0.024649,4.7397e-07,0.81,0.19,0
0.041176,0.0061598,0.027347,-0.00019109,0.0081468,0.00102,0,0,0.049921,-0.021678,0,0.0053041,0,0,0,0.027385,-0.00022882,0.0081468,2.1184,0.011768,0.024523,4.7035e-07,0.82,0.19,0
0.041675,0.0062124,0.027322,-6.2747e-05,0.0081777,0.0010223,0,0,0.049774,-0.021425,0,0.005316,0,0,0,0.02736,-0.00010086,0.0081777,2.135,0.011812,0.024399,4.6676e-07,0.83,0.19,0
0.042172,0.006265,0.027298,6.2664e-05,0.0082082,0.0010139,0,0,0.049634,-0.021178,0,0.0052721,0,0,0,0.027336,2.4974e-05,0.0082082,2.129,0.011856,0.024277,4.6325e-07,0.84,0.19,0
0.042667,0.0063172,0.027277,0.00018382,0.0082382,0.00099525,0,0,0.0495,-0.020941,0,0.0051753,0,0,0,0.027313,0.00014731,0.0082382,2.101,0.0119,0.024159,4.5987e-07,0.85,0.19,0
0.043162,0.0063683,0.027258,0.00029958,0.0082672,0.00096715,0,0,0.049375,-0.020716,0,0.0050292,0,0,0,0.027292,0.00026493,0.0082672,2.052,0.011942,0.024046,4.5665e-07,0.86,0.19,0
0.043655,0.0064179,0.027241,0.00040902,0.008295,0.00093031,0,0,0.049259,-0.020504,0,0.0048376,0,0,0,0.027273,0.0003768,0.008295,1.9834,0.011982,0.02394,4.5361e-07,0.87,0.19,0
0.044147,0.0064655,0.027227,0.00051137,0.0083214,0.00088553,0,0,0.049154,-0.020306,0,0.0046048,0,0,0,0.027256,0.00048205,0.0083214,1.8964,0.01202,0.023841,4.5078e-07,0.88,0.19,0
0.044638,0.0065108,0.027214,0.00060606,0.0083462,0.00083364,0,0,0.049058,-0.020124,0,0.0043349,0,0,0,0.027241,0.00057997,0.0083462,1.7927,0.012056,0.02375,4.4818e-07,0.89,0.19,0
0.045128,0.0065533,0.027205,0.00069269,0.0083692,0.00077546,0,0,0.048972,-0.019959,0,0.0040324,0,0,0,0.027227,0.00067003,0.0083692,1.674,0.012089,0.023666,4.4582e-07,0.9,0.19,0
0.045617,0.0065928,0.027197,0.00077099,0.0083903,0.00071177,0,0,0.048897,-0.01981,0,0.0037012,0,0,0,0.027216,0.00075183,0.0083903,1.5417,0.012119,0.023591,4.4371e-07,0.91,0.19,0
0.046106,0.0066289,0.027191,0.00084082,0.0084094,0.00064333,0,0,0.048831,-0.019678,0,0.0033453,0,0,0,0.027206,0.00082512,0.0084094,1.3978,0.012147,0.023525,4.4184e-07,0.92,0.19,0
0.046594,0.0066613,0.027186,0.00090213,0.0084264,0.00057087,0,0,0.048775,-0.019563,0,0.0029685,0,0,0,0.027198,0.00088974,0.0084264,1.2436,0.012172,0.023466,4.4021e-07,0.93,0.19,0
0.047081,0.0066898,0.027183,0.00095496,0.0084413,0.00049504,0,0,0.048727,-0.019464,0,0.0025742,0,0,0,0.027192,0.00094562,0.0084413,1.0809,0.012193,0.023416,4.3883e-07,0.94,0.19,0
0.047568,0.0067143,0.02718,0.00099939,0.0084539,0.00041645,0,0,0.048689,-0.019382,0,0.0021656,0,0,0,0.027187,0.00099277,0.0084539,0.91108,0.012211,0.023374,4.3768e-07,0.95,0.19,0
0.048055,0.0067345,0.027179,0.0010355,0.0084643,0.00033566,0,0,0.048657,-0.019315,0,0.0017454,0,0,0,0.027183,0.0010312,0.0084643,0.73548,0.012226,0.023341,4.3675e-07,0.96,0.19,0
0.048542,0.0067504,0.027178,0.0010635,0.0084724,0.00025317,0,0,0.048634,-0.019263,0,0.0013165,0,0,0,0.02718,0.001061,0.0084724,0.5554,0.012238,0.023314,4.3603e-07,0.97,0.19,0
0.049028,0.0067618,0.027177,0.0010833,0.0084781,0.00016945,0,0,0.048617,-0.019227,0,0.00088113,0,0,0,0.027178,0.0010822,0.0084781,0.37205,0.012246,0.023296,4.3553e-07,0.98,0.19,0
0.049514,0.0067687,0.027177,0.0010952,0.0084816,8.4922e-05,0,0,0.048608,-0.019205,0,0.0004416,0,0,0,0.027177,0.0010949,0.0084816,0.18655,0.012251,0.023285,4.3523e-07,0.99,0.19,0
0.05,0.006771,0.027177,0.0010992,0.0084828,4.4148e-05,0,0,0.048604,-0.019197,0,0.00022957,0,0,0,0.027177,0.0010991,0.0084828,0.096999,0.012253,0.023281,4.3513e-07,1,0.19,0
0,0,0.027807,0.011917,0.011917,0.0053026,0,0,0.041313,-1.1926e-18,0,0.027574,0,0,0,0.029414,0.01031,0.011917,16.86,0.017214,0.018353,3.0931e-07,0,0.2,0
0.00041313,0.00027573,0.027761,0.01135,0.011734,0.0052971,0,0,0.041673,-0.00099613,0,0.027545,0,0,0,0.029323,0.0097892,0.011734,16.422,0.016948,0.018638,3.2033e-07,0.01,0.2,0
0.00083345,0.00055149,0.027953,0.010864,0.011645,0.0052822,0,0,0.0424,-0.00203,0,0.027467,0,0,0,0.029454,0.0093635,0.011645,15.863,0.016821,0.019052,3.3808e-07,0.02,0.2,0
0.0012611,0.00082668,0.028145,0.010363,0.011552,0.0052507,0,0,0.043141,-0.0030928,0,0.027304,0,0,0,0.02958,0.0089282,0.011552,15.282,0.016687,0.019473,3.5611e-07,0.03,0.2,0
0.0016963,0.0011006,0.028336,0.0098503,0.011456,0.0052007,0,0,0.043888,-0.0041742,0,0.027044,0,0,0,0.029698,0.0084876,0.011456,14.683,0.016547,0.019894,3.7418e-07,0.04,0.2,0
0.0021389,0.0013725,0.028522,0.0093318,0.011356,0.005131,0,0,0.044631,-0.0052631,0,0.026681,0,0,0,0.029808,0.008046,0.011356,14.068,0.016403,0.02031,3.9202e-07,0.05,0.2,0
0.0025889,0.0016417,0.028701,0.0088125,0.011254,0.0050414,0,0,0.045362,-0.0063478,0,0.026215,0,0,0,0.029906,0.0076076,0.011254,13.442,0.016256,0.020717,4.0939e-07,0.06,0.2,0
0.0030461,0.0019072,0.02887,0.0082975,0.01115,0.0049322,0,0,0.046072,-0.0074173,0,0.025648,0,0,0,0.029992,0.0071761,0.01115,12.809,0.016106,0.021111,4.2606e-07,0.07,0.2,0
0.0035103,0.0021682,0.029028,0.0077915,0.011046,0.0048047,0,0,0.046753,-0.0084612,0,0.024984,0,0,0,0.030064,0.006755,0.011046,12.173,0.015955,0.021488,4.4184e-07,0.08,0.2,0
0.0039812,0.0024241,0.029172,0.0072986,0.010941,0.0046605,0,0,0.0474,-0.0094706,0,0.024234,0,0,0,0.030124,0.006347,0.010941,11.54,0.015804,0.021845,4.5658e-07,0.09,0.2,0
0.0044583,0.002674,0.029301,0.0068225,0.010837,0.0045018,0,0,0.048006,-0.010438,0,0.023409,0,0,0,0.030169,0.0059545,0.010837,10.914,0.015654,0.02218,4.7017e-07,0.1,0.2,0
0.0049413,0.0029174,0.029414,0.006366,0.010734,0.0043309,0,0,0.048569,-0.011357,0,0.022521,0,0,0,0.030201,0.0055791,0.010734,10.298,0.015505,0.022492,4.8252e-07,0.11,0.2,0
0.0054297,0.0031535,0.029511,0.0059312,0.010633,0.0041504,0,0,0.049085,-0.012224,0,0.021582,0,0,0,0.030221,0.005222,0.010633,9.6966,0.015359,0.02278,4.9362e-07,0.12,0.2,0
0.005923,0.003382,0.029592,0.0055197,0.010534,0.0039626,0,0,0.049553,-0.013036,0,0.020606,0,0,0,0.030228,0.0048842,0.010534,9.1114,0.015215,0.023044,5.0344e-07,0.13,0.2,0
0.0064207,0.0036025,0.029657,0.0051323,0.010437,0.00377,0,0,0.049973,-0.013792,0,0.019604,0,0,0,0.030224,0.0045659,0.010437,8.5449,0.015075,0.023284,5.1202e-07,0.14,0.2,0
0.0069225,0.0038145,0.029707,0.0047694,0.010343,0.0035747,0,0,0.050346,-0.014491,0,0.018588,0,0,0,0.030209,0.0042671,0.010343,7.9987,0.01494,0.023501,5.194e-07,0.15,0.2,0
0.0074277,0.0040178,0.029742,0.004431,0.010252,0.0033786,0,0,0.050674,-0.015134,0,0.017569,0,0,0,0.030185,0.0039878,0.010252,7.4738,0.014808,0.023695,5.2563e-07,0.16,0.2,0
0.0079359,0.0042123,0.029763,0.0041166,0.010164,0.0031833,0,0,0.050958,-0.015723,0,0.016553,0,0,0,0.030152,0.0037274,0.010164,6.9708,0.014681,0.023867,5.3079e-07,0.17,0.2,0
0.0084468,0.0043978,0.029772,0.0038256,0.010079,0.0029903,0,0,0.051201,-0.016259,0,0.01555,0,0,0,0.030112,0.0034854,0.010079,6.49,0.014559,0.024019,5.3495e-07,0.18,0.2,0
0.0089599,0.0045742,0.029769,0.003557,0.0099979,0.0028007,0,0,0.051406,-0.016746,0,0.014564,0,0,0,0.030065,0.0032611,0.0099979,6.0312,0.014441,0.024151,5.3818e-07,0.19,0.2,0
0.0094749,0.0047415,0.029756,0.0033099,0.0099198,0.0026154,0,0,0.051575,-0.017186,0,0.0136,0,0,0,0.030012,0.0030537,0.0099198,5.5941,0.014329,0.024265,5.4056e-07,0.2,0.2,0
0.0099914,0.0048998,0.029734,0.0030831,0.0098451,0.0024351,0,0,0.051711,-0.017581,0,0.012663,0,0,0,0.029954,0.0028625,0.0098451,5.178,0.014221,0.024363,5.4218e-07,0.21,0.2,0
0.010509,0.005049,0.029703,0.0028755,0.0097736,0.0022602,0,0,0.051817,-0.017935,0,0.011753,0,0,0,0.029892,0.0026864,0.0097736,4.7822,0.014117,0.024445,5.431e-07,0.22,0.2,0
0.011028,0.0051892,0.029665,0.0026858,0.0097053,0.0020911,0,0,0.051895,-0.01825,0,0.010873,0,0,0,0.029826,0.0025247,0.0097053,4.4057,0.014019,0.024513,5.4339e-07,0.23,0.2,0
0.011547,0.0053206,0.02962,0.0025129,0.00964,0.0019278,0,0,0.051949,-0.01853,0,0.010025,0,0,0,0.029757,0.0023765,0.00964,4.0476,0.013924,0.024567,5.4312e-07,0.24,0.2,0
0.012067,0.0054432,0.02957,0.0023556,0.0095776,0.0017705,0,0,0.05198,-0.018777,0,0.0092066,0,0,0,0.029684,0.0022409,0.0095776,3.7067,0.013834,0.02461,5.4235e-07,0.25,0.2,0
0.012587,0.0055573,0.029514,0.0022126,0.0095181,0.001619,0,0,0.05199,-0.018994,0,0.008419,0,0,0,0.02961,0.0021169,0.0095181,3.3819,0.013748,0.024641,5.4114e-07,0.26,0.2,0
0.013107,0.0056628,0.029455,0.0020828,0.0094612,0.0014733,0,0,0.051983,-0.019184,0,0.007661,0,0,0,0.029534,0.0020038,0.0094612,3.0721,0.013666,0.024662,5.3953e-07,0.27,0.2,0
0.013626,0.00576,0.029391,0.0019652,0.0094068,0.001333,0,0,0.051958,-0.019348,0,0.0069315,0,0,0,0.029455,0.0019005,0.0094068,2.7761,0.013588,0.024674,5.3758e-07,0.28,0.2,0
0.014146,0.0058491,0.029324,0.0018585,0.0093547,0.0011979,0,0,0.05192,-0.01949,0,0.0062292,0,0,0,0.029376,0.0018063,0.0093547,2.4927,0.013512,0.024677,5.3533e-07,0.29,0.2,0
0.014665,0.0059301,0.029254,0.0017617,0.0093048,0.0010678,0,0,0.051869,-0.019612,0,0.0055524,0,0,0,0.029296,0.0017203,0.0093048,2.2208,0.01344,0.024674,5.3283e-07,0.3,0.2,0
0.015183,0.0060032,0.029182,0.0016737,0.0092568,0.00094221,0,0,0.051806,-0.019716,0,0.0048995,0,0,0,0.029215,0.0016415,0.0092568,1.9594,0.013371,0.024664,5.3011e-07,0.31,0.2,0
0.015701,0.0060687,0.029108,0.0015935,0.0092105,0.00082092,0,0,0.051734,-0.019804,0,0.0042688,0,0,0,0.029133,0.001569,0.0092105,1.7074,0.013304,0.024648,5.2722e-07,0.32,0.2,0
0.016218,0.0061266,0.029033,0.00152,0.0091659,0.00070357,0,0,0.051654,-0.019879,0,0.0036585,0,0,0,0.029051,0.001502,0.0091659,1.4639,0.01324,0.024628,5.242e-07,0.33,0.2,0
0.016734,0.0061771,0.028956,0.0014522,0.0091226,0.00058984,0,0,0.051568,-0.019943,0,0.0030672,0,0,0,0.028969,0.0014396,0.0091226,1.228,0.013177,0.024605,5.2108e-07,0.34,0.2,0
0.017249,0.0062203,0.028879,0.0013891,0.0090804,0.00047946,0,0,0.051476,-0.019998,0,0.0024932,0,0,0,0.028887,0.0013807,0.0090804,0.9989,0.013116,0.024579,5.179e-07,0.35,0.2,0
0.017763,0.0062565,0.028801,0.0013296,0.0090393,0.00037216,0,0,0.051381,-0.020045,0,0.0019352,0,0,0,0.028806,0.0013245,0.0090393,0.77599,0.013057,0.024551,5.1471e-07,0.36,0.2,0
0.018277,0.0062859,0.028724,0.0012727,0.0089989,0.00026773,0,0,0.051284,-0.020088,0,0.0013922,0,0,0,0.028726,0.0012701,0.0089989,0.55873,0.012998,0.024523,5.1153e-07,0.37,0.2,0
0.018789,0.0063085,0.028646,0.0012173,0.0089591,0.000166,0,0,0.051187,-0.020129,0,0.00086322,0,0,0,0.028647,0.0012163,0.0089591,0.34675,0.012941,0.024495,5.0841e-07,0.38,0.2,0
0.019301,0.0063245,0.02857,0.0011626,0.0089196,6.6887e-05,0,0,0.05109,-0.020168,0,0.00034781,0,0,0,0.02857,0.0011624,0.0089196,0.13983,0.012884,0.024469,5.0537e-07,0.39,0.2,0
0.019811,0.0063342,0.028494,0.0011073,0.0088804,-2.966e-05,0,0,0.050995,-0.02021,0,-0.00015423,0,0,0,0.028494,0.0011073,0.0088804,-0.062053,0.012827,0.024445,5.0247e-07,0.4,0.2,0
0.02032,0.0063377,0.02842,0.0010506,0.0088412,-0.00012359,0,0,0.050905,-0.020255,0,-0.0006427,0,0,0,0.02842,0.0010501,0.0088412,-0.25873,0.012771,0.024425,4.9974e-07,0.41,0.2,0
0.020829,0.0063353,0.028348,0.00099152,0.0088018,-0.00021479,0,0,0.050819,-0.020307,0,-0.0011169,0,0,0,0.028349,0.00098983,0.0088018,-0.44983,0.012714,0.02441,4.9721e-07,0.42,0.2,0
0.021337,0.0063272,0.028278,0.00092907,0.0087621,-0.00030304,0,0,0.050741,-0.020366,0,-0.0015758,0,0,0,0.028281,0.00092572,0.0087621,-0.63476,0.012656,0.0244,4.9491e-07,0.43,0.2,0
0.021844,0.0063136,0.028211,0.00086243,0.008722,-0.00038803,0,0,0.050671,-0.020435,0,-0.0020177,0,0,0,0.028216,0.00085693,0.008722,-0.81271,0.012598,0.024397,4.9288e-07,0.44,0.2,0
0.02235,0.0062948,0.028147,0.00079081,0.0086813,-0.00046935,0,0,0.050611,-0.020515,0,-0.0024406,0,0,0,0.028155,0.00078276,0.0086813,-0.98264,0.01254,0.024401,4.9115e-07,0.45,0.2,0
0.022856,0.0062711,0.028087,0.00071352,0.00864,-0.00054651,0,0,0.050561,-0.020609,0,-0.0028418,0,0,0,0.028098,0.00070261,0.00864,-1.1433,0.01248,0.024414,4.8973e-07,0.46,0.2,0
0.023361,0.0062429,0.02803,0.00063001,0.0085981,-0.00061892,0,0,0.050523,-0.020717,0,-0.0032184,0,0,0,0.028044,0.00061604,0.0085981,-1.2933,0.012419,0.024435,4.8865e-07,0.47,0.2,0
0.023866,0.0062105,0.027978,0.00053987,0.0085553,-0.0006859,0,0,0.050499,-0.02084,0,-0.0035667,0,0,0,0.027995,0.00052273,0.0085553,-1.4311,0.012358,0.024466,4.8791e-07,0.48,0.2,0
0.024371,0.0061742,0.02793,0.00044286,0.0085119,-0.0007467,0,0,0.050487,-0.020979,0,-0.0038828,0,0,0,0.02795,0.00042259,0.0085119,-1.5549,0.012295,0.024506,4.8753e-07,0.49,0.2,0
0.024876,0.0061346,0.027887,0.00033895,0.0084677,-0.00080052,0,0,0.05049,-0.021135,0,-0.0041627,0,0,0,0.02791,0.00031571,0.0084677,-1.6631,0.012231,0.024555,4.875e-07,0.5,0.2,0
0.025381,0.006092,0.027848,0.00022833,0.008423,-0.00084652,0,0,0.050506,-0.021306,0,-0.0044019,0,0,0,0.027874,0.00020241,0.008423,-1.7538,0.012167,0.024614,4.878e-07,0.51,0.2,0
0.025886,0.0060471,0.027815,0.00011142,0.0083778,-0.00088384,0,0,0.050536,-0.021493,0,-0.004596,0,0,0,0.027843,8.325e-05,0.0083778,-1.8255,0.012101,0.024681,4.8842e-07,0.52,0.2,0
0.026392,0.0060002,0.027786,-1.1098e-05,0.0083324,-0.00091165,0,0,0.050579,-0.021693,0,-0.0047406,0,0,0,0.027816,-4.0966e-05,0.0083324,-1.8764,0.012036,0.024756,4.8933e-07,0.53,0.2,0
0.026898,0.0059521,0.027761,-0.00013828,0.0082869,-0.00092918,0,0,0.050633,-0.021906,0,-0.0048317,0,0,0,0.027792,-0.00016919,0.0082869,-1.9054,0.01197,0.024837,4.9049e-07,0.54,0.2,0
0.027405,0.0059032,0.027741,-0.00026894,0.0082416,-0.00093572,0,0,0.050699,-0.022128,0,-0.0048657,0,0,0,0.027772,-0.00030017,0.0082416,-1.9112,0.011905,0.024925,4.9185e-07,0.55,0.2,0
0.027912,0.0058542,0.027725,-0.00040163,0.0081969,-0.0009307,0,0,0.050772,-0.022356,0,-0.0048397,0,0,0,0.027755,-0.00043239,0.0081969,-1.8932,0.01184,0.025016,4.9337e-07,0.56,0.2,0
0.02842,0.0058057,0.027712,-0.00053469,0.0081531,-0.00091371,0,0,0.050853,-0.022588,0,-0.0047513,0,0,0,0.027741,-0.00056422,0.0081531,-1.8508,0.011777,0.025109,4.95e-07,0.57,0.2,0
0.028929,0.0057584,0.027702,-0.00066629,0.0081106,-0.00088454,0,0,0.050937,-0.02282,0,-0.0045996,0,0,0,0.027729,-0.00069385,0.0081106,-1.7842,0.011715,0.025202,4.9668e-07,0.58,0.2,0
0.029439,0.005713,0.027694,-0.00079445,0.0080699,-0.00084316,0,0,0.051023,-0.023047,0,-0.0043844,0,0,0,0.027719,-0.00081938,0.0080699,-1.6938,0.011657,0.025294,4.9834e-07,0.59,0.2,0
0.029949,0.00567,0.027688,-0.00091712,0.0080313,-0.00078982,0,0,0.051108,-0.023266,0,-0.0041071,0,0,0,0.02771,-0.00093892,0.0080313,-1.5804,0.011601,0.025382,4.9994e-07,0.6,0.2,0
0.030461,0.0056301,0.027683,-0.0010322,0.0079952,-0.00072499,0,0,0.051188,-0.023471,0,-0.00377,0,0,0,0.027701,-0.0010505,0.0079952,-1.4453,0.011549,0.025464,5.0141e-07,0.61,0.2,0
0.030973,0.0055938,0.027679,-0.0011378,0.0079622,-0.00064939,0,0,0.051263,-0.02366,0,-0.0033768,0,0,0,0.027693,-0.0011524,0.0079622,-1.2903,0.011501,0.025539,5.0272e-07,0.62,0.2,0
0.031486,0.0055617,0.027674,-0.001232,0.0079326,-0.00056395,0,0,0.051328,-0.023828,0,-0.0029325,0,0,0,0.027685,-0.001243,0.0079326,-1.1173,0.011458,0.025604,5.0382e-07,0.63,0.2,0
0.032,0.0055342,0.027669,-0.001313,0.0079068,-0.00046982,0,0,0.051382,-0.023971,0,-0.002443,0,0,0,0.027677,-0.0013206,0.0079068,-0.92847,0.011421,0.02566,5.0467e-07,0.64,0.2,0
0.032514,0.0055118,0.027663,-0.0013794,0.0078851,-0.00036829,0,0,0.051423,-0.024088,0,-0.0019151,0,0,0,0.027668,-0.001384,0.0078851,-0.72642,0.01139,0.025703,5.0525e-07,0.65,0.2,0
0.033028,0.0054949,0.027656,-0.00143,0.0078678,-0.00026081,0,0,0.051449,-0.024174,0,-0.0013562,0,0,0,0.027658,-0.0014323,0.0078678,-0.5137,0.011365,0.025733,5.0553e-07,0.66,0.2,0
0.033543,0.0054837,0.027647,-0.0014638,0.007855,-0.00014888,0,0,0.051459,-0.024229,0,-0.00077419,0,0,0,0.027648,-0.0014646,0.007855,-0.29302,0.011346,0.02575,5.0551e-07,0.67,0.2,0
0.034057,0.0054783,0.027637,-0.0014803,0.0078469,-3.4104e-05,0,0,0.051453,-0.024251,0,-0.00017734,0,0,0,0.027637,-0.0014804,0.0078469,-0.067109,0.011334,0.025753,5.0516e-07,0.68,0.2,0
0.034572,0.005479,0.027624,-0.0014791,0.0078435,8.1911e-05,0,0,0.05143,-0.024239,0,0.00042594,0,0,0,0.027624,-0.0014793,0.0078435,0.16126,0.01133,0.025741,5.0449e-07,0.69,0.2,0
0.035086,0.0054857,0.02761,-0.0014601,0.0078449,0.00019753,0,0,0.051389,-0.024193,0,0.0010271,0,0,0,0.027611,-0.0014614,0.0078449,0.3893,0.011332,0.025715,5.0348e-07,0.7,0.2,0
0.0356,0.0054983,0.027593,-0.0014235,0.007851,0.00031112,0,0,0.05133,-0.024114,0,0.0016178,0,0,0,0.027597,-0.0014268,0.007851,0.61423,0.01134,0.025674,5.0214e-07,0.71,0.2,0
0.036113,0.0055169,0.027575,-0.0013698,0.0078616,0.00042108,0,0,0.051255,-0.024002,0,0.0021896,0,0,0,0.027581,-0.001376,0.0078616,0.83327,0.011356,0.025619,5.0046e-07,0.72,0.2,0
0.036625,0.005541,0.027555,-0.0013,0.0078764,0.00052584,0,0,0.051164,-0.023859,0,0.0027344,0,0,0,0.027564,-0.0013096,0.0078764,1.0437,0.011377,0.025551,4.9846e-07,0.73,0.2,0
0.037136,0.0055705,0.027533,-0.0012151,0.0078953,0.00062393,0,0,0.051057,-0.023687,0,0.0032444,0,0,0,0.027546,-0.0012286,0.0078953,1.2427,0.011404,0.025469,4.9614e-07,0.74,0.2,0
0.037646,0.0056049,0.027509,-0.0011164,0.0079178,0.00071398,0,0,0.050937,-0.023489,0,0.0037127,0,0,0,0.027527,-0.0011342,0.0079178,1.4279,0.011437,0.025376,4.9353e-07,0.75,0.2,0
0.038155,0.0056439,0.027484,-0.0010056,0.0079436,0.00079479,0,0,0.050806,-0.023268,0,0.0041329,0,0,0,0.027506,-0.0010278,0.0079436,1.5967,0.011474,0.025272,4.9064e-07,0.76,0.2,0
0.038662,0.0056869,0.027459,-0.00088465,0.0079722,0.00086532,0,0,0.050665,-0.023028,0,0.0044997,0,0,0,0.027485,-0.00091104,0.0079722,1.7471,0.011515,0.025159,4.8752e-07,0.77,0.2,0
0.039168,0.0057334,0.027432,-0.00075543,0.0080031,0.00092479,0,0,0.050516,-0.022772,0,0.0048089,0,0,0,0.027463,-0.00078574,0.0080031,1.8771,0.01156,0.025039,4.842e-07,0.78,0.2,0
0.039672,0.0057829,0.027407,-0.00062005,0.0080359,0.00097262,0,0,0.050363,-0.022506,0,0.0050576,0,0,0,0.02744,-0.00065377,0.0080359,1.9852,0.011607,0.024913,4.8073e-07,0.79,0.2,0
0.040175,0.0058347,0.027381,-0.00048065,0.0080701,0.0010085,0,0,0.050208,-0.022232,0,0.0052442,0,0,0,0.027418,-0.0005171,0.0080701,2.0703,0.011657,0.024783,4.7716e-07,0.8,0.2,0
0.040676,0.0058883,0.027357,-0.00033927,0.0081052,0.0010323,0,0,0.050054,-0.021956,0,0.0053682,0,0,0,0.027395,-0.0003777,0.0081052,2.1317,0.011707,0.024651,4.7353e-07,0.81,0.2,0
0.041176,0.005943,0.027334,-0.00019792,0.0081407,0.0010443,0,0,0.049901,-0.02168,0,0.0054303,0,0,0,0.027373,-0.00023747,0.0081407,2.1691,0.011759,0.02452,4.699e-07,0.82,0.2,0
0.041675,0.0059982,0.027312,-5.8405e-05,0.0081762,0.0010447,0,0,0.049754,-0.02141,0,0.0054325,0,0,0,0.027352,-9.8223e-05,0.0081762,2.1827,0.01181,0.02439,4.6632e-07,0.83,0.2,0
0.042171,0.0060534,0.027293,7.7608e-05,0.0082112,0.0010341,0,0,0.049613,-0.021147,0,0.0053774,0,0,0,0.027332,3.8371e-05,0.0082112,2.1729,0.011861,0.024263,4.6283e-07,0.84,0.2,0
0.042667,0.006108,0.027276,0.00020868,0.0082455,0.0010132,0,0,0.04948,-0.020896,0,0.0052685,0,0,0,0.027314,0.00017081,0.0082455,2.1406,0.01191,0.024141,4.5949e-07,0.85,0.2,0
0.043161,0.0061614,0.027262,0.00033358,0.0082786,0.00098263,0,0,0.049356,-0.020657,0,0.0051097,0,0,0,0.027298,0.00029778,0.0082786,2.0871,0.011958,0.024025,4.5631e-07,0.86,0.2,0
0.043654,0.0062132,0.02725,0.00045133,0.0083104,0.00094335,0,0,0.049243,-0.020434,0,0.0049054,0,0,0,0.027283,0.00041816,0.0083104,2.0136,0.012004,0.023916,4.5333e-07,0.87,0.2,0
0.044146,0.0062629,0.02724,0.00056113,0.0083404,0.00089622,0,0,0.04914,-0.020226,0,0.0046603,0,0,0,0.02727,0.00053106,0.0083404,1.9218,0.012047,0.023815,4.5059e-07,0.88,0.2,0
0.044637,0.00631,0.027233,0.00066241,0.0083686,0.0008421,0,0,0.049047,-0.020036,0,0.0043789,0,0,0,0.02726,0.00063575,0.0083686,1.8135,0.012088,0.023722,4.4808e-07,0.89,0.2,0
0.045127,0.0063542,0.027228,0.00075479,0.0083947,0.00078189,0,0,0.048966,-0.019864,0,0.0040658,0,0,0,0.027251,0.00073172,0.0083947,1.6903,0.012126,0.023638,4.4582e-07,0.9,0.2,0
0.045616,0.0063952,0.027224,0.00083805,0.0084187,0.00071642,0,0,0.048894,-0.01971,0,0.0037254,0,0,0,0.027244,0.00081861,0.0084187,1.5541,0.01216,0.023563,4.4381e-07,0.91,0.2,0
0.046105,0.0064326,0.027222,0.00091208,0.0084403,0.00064648,0,0,0.048833,-0.019573,0,0.0033617,0,0,0,0.027238,0.0008962,0.0084403,1.4067,0.012191,0.023496,4.4205e-07,0.92,0.2,0
0.046593,0.0064662,0.027221,0.0009769,0.0084595,0.0005728,0,0,0.048781,-0.019455,0,0.0029786,0,0,0,0.027234,0.00096441,0.0084595,1.2497,0.012219,0.023439,4.4053e-07,0.93,0.2,0
0.04708,0.0064957,0.027222,0.0010326,0.0084763,0.00049604,0,0,0.048738,-0.019353,0,0.0025794,0,0,0,0.027231,0.0010232,0.0084763,1.0847,0.012243,0.02339,4.3925e-07,0.94,0.2,0
0.047567,0.0065211,0.027222,0.0010793,0.0084905,0.00041681,0,0,0.048703,-0.019269,0,0.0021674,0,0,0,0.027229,0.0010727,0.0084905,0.91318,0.012264,0.023349,4.3819e-07,0.95,0.2,0
0.048054,0.006542,0.027223,0.0011173,0.0085022,0.00033561,0,0,0.048675,-0.019201,0,0.0017452,0,0,0,0.027228,0.001113,0.0085022,0.73642,0.012281,0.023315,4.3735e-07,0.96,0.2,0
0.048541,0.0065584,0.027224,0.0011466,0.0085113,0.00025294,0,0,0.048654,-0.019148,0,0.0013153,0,0,0,0.027227,0.0011441,0.0085113,0.55566,0.012294,0.02329,4.367e-07,0.97,0.2,0
0.049027,0.0065702,0.027225,0.0011674,0.0085178,0.0001692,0,0,0.04864,-0.019111,0,0.00087982,0,0,0,0.027226,0.0011663,0.0085178,0.372,0.012304,0.023272,4.3625e-07,0.98,0.2,0
0.049514,0.0065772,0.027226,0.0011798,0.0085217,8.4767e-05,0,0,0.048631,-0.019089,0,0.00044079,0,0,0,0.027226,0.0011795,0.0085217,0.18646,0.012309,0.023262,4.3598e-07,0.99,0.2,0
0.05,0.0065796,0.027226,0.0011839,0.008523,4.5558e-05,0,0,0.048628,-0.019082,0,0.0002369,0,0,0,0.027226,0.0011838,0.008523,0.10023,0.012311,0.023258,4.359e-07,1,0.2,0
0,0,0.027793,0.011911,0.011911,0.0051136,0,0,0.041293,-5.9631e-19,0,0.026591,0,0,0,0.029297,0.010407,0.011911,16.39,0.017205,0.018185,3.0173e-07,0,0.21,0
0.00041293,0.00026591,0.027749,0.011359,0.011732,0.0051082,0,0,0.041643,-0.00097125,0,0.026562,0,0,0,0.02921,0.009897,0.011732,15.968,0.016946,0.018464,3.1257e-07,0.01,0.21,0
0.00083286,0.00053148,0.027935,0.010887,0.011647,0.0050913,0,0,0.04235,-0.0019749,0,0.026475,0,0,0,0.02934,0.0094825,0.011647,15.425,0.016823,0.018869,3.2978e-07,0.02,0.21,0
0.0012599,0.00079623,0.028123,0.010402,0.011558,0.0050602,0,0,0.04307,-0.0030034,0,0.026313,0,0,0,0.029466,0.0090592,0.011558,14.866,0.016694,0.019279,3.473e-07,0.03,0.21,0
0.0016943,0.0010596,0.028309,0.0099081,0.011465,0.005013,0,0,0.043793,-0.0040481,0,0.026068,0,0,0,0.029586,0.008631,0.011465,14.293,0.016561,0.019691,3.6491e-07,0.04,0.21,0
0.0021358,0.0013208,0.028491,0.0094085,0.01137,0.0049488,0,0,0.044514,-0.0050993,0,0.025734,0,0,0,0.029698,0.0082014,0.01137,13.707,0.016423,0.0201,3.8239e-07,0.05,0.21,0
0.0025845,0.0015793,0.028667,0.0089081,0.011272,0.0048671,0,0,0.045225,-0.0061472,0,0.025309,0,0,0,0.0298,0.0077743,0.011272,13.114,0.016282,0.020502,3.9952e-07,0.06,0.21,0
0.0030403,0.0018343,0.028834,0.0084112,0.011174,0.0047681,0,0,0.045917,-0.0071822,0,0.024794,0,0,0,0.029892,0.0073529,0.011174,12.515,0.01614,0.020893,4.161e-07,0.07,0.21,0
0.0035029,0.0020851,0.028991,0.007922,0.011074,0.0046527,0,0,0.046585,-0.0081952,0,0.024194,0,0,0,0.029973,0.0069403,0.011074,11.915,0.015996,0.021269,4.3194e-07,0.08,0.21,0
0.003972,0.002331,0.029137,0.0074442,0.010974,0.0045223,0,0,0.047223,-0.0091782,0,0.023516,0,0,0,0.030042,0.0065392,0.010974,11.317,0.015852,0.021629,4.4689e-07,0.09,0.21,0
0.0044473,0.0025713,0.029269,0.006981,0.010875,0.0043784,0,0,0.047824,-0.010124,0,0.022767,0,0,0,0.030098,0.0061518,0.010875,10.725,0.015708,0.021969,4.6085e-07,0.1,0.21,0
0.0049285,0.0028055,0.029387,0.0065352,0.010777,0.004223,0,0,0.048386,-0.011028,0,0.02196,0,0,0,0.030142,0.0057797,0.010777,10.142,0.015566,0.022288,4.7372e-07,0.11,0.21,0
0.0054151,0.0030331,0.02949,0.0061087,0.01068,0.0040583,0,0,0.048907,-0.011884,0,0.021103,0,0,0,0.030174,0.0054243,0.01068,9.572,0.015426,0.022586,4.8545e-07,0.12,0.21,0
0.0059066,0.0032535,0.029578,0.0057032,0.010584,0.0038862,0,0,0.049383,-0.012691,0,0.020209,0,0,0,0.030195,0.0050866,0.010584,9.0164,0.015289,0.02286,4.9601e-07,0.13,0.21,0
0.0064027,0.0034664,0.029651,0.0053197,0.010491,0.0037089,0,0,0.049816,-0.013446,0,0.019287,0,0,0,0.030204,0.0047669,0.010491,8.4774,0.015154,0.023113,5.054e-07,0.14,0.21,0
0.0069029,0.0036714,0.02971,0.0049588,0.010401,0.0035283,0,0,0.050204,-0.014149,0,0.018347,0,0,0,0.030203,0.0044657,0.010401,7.9565,0.015023,0.023343,5.1364e-07,0.15,0.21,0
0.0074068,0.0038682,0.029755,0.0046206,0.010313,0.0033461,0,0,0.050549,-0.014799,0,0.0174,0,0,0,0.030193,0.0041828,0.010313,7.4548,0.014896,0.023551,5.2078e-07,0.16,0.21,0
0.0079139,0.0040568,0.029786,0.004305,0.010227,0.0031638,0,0,0.050853,-0.015398,0,0.016452,0,0,0,0.030173,0.003918,0.010227,6.9729,0.014773,0.023738,5.2685e-07,0.17,0.21,0
0.0084239,0.0042368,0.029805,0.0040114,0.010145,0.0029828,0,0,0.051117,-0.015947,0,0.01551,0,0,0,0.030146,0.003671,0.010145,6.5112,0.014654,0.023904,5.3192e-07,0.18,0.21,0
0.0089363,0.0044083,0.029813,0.0037394,0.010066,0.0028042,0,0,0.051343,-0.016448,0,0.014582,0,0,0,0.030111,0.0034412,0.010066,6.0697,0.014539,0.024052,5.3605e-07,0.19,0.21,0
0.0094507,0.0045711,0.02981,0.003488,0.0099894,0.0026289,0,0,0.051533,-0.016903,0,0.01367,0,0,0,0.03007,0.003228,0.0099894,5.6481,0.014429,0.024181,5.393e-07,0.2,0.21,0
0.0099669,0.0047253,0.029797,0.0032564,0.0099161,0.0024576,0,0,0.051691,-0.017315,0,0.012779,0,0,0,0.030023,0.0030308,0.0099161,5.246,0.014323,0.024293,5.4174e-07,0.21,0.21,0
0.010485,0.0048709,0.029775,0.0030436,0.0098457,0.0022908,0,0,0.051817,-0.017686,0,0.011912,0,0,0,0.02997,0.0028487,0.0098457,4.8627,0.014222,0.024388,5.4343e-07,0.22,0.21,0
0.011003,0.0050079,0.029746,0.0028484,0.0097783,0.0021289,0,0,0.051916,-0.018018,0,0.01107,0,0,0,0.029913,0.002681,0.0097783,4.4976,0.014124,0.024468,5.4444e-07,0.23,0.21,0
0.011523,0.0051364,0.029709,0.0026699,0.0097137,0.0019721,0,0,0.051988,-0.018314,0,0.010255,0,0,0,0.029852,0.0025268,0.0097137,4.1496,0.014031,0.024535,5.4482e-07,0.24,0.21,0
0.012043,0.0052565,0.029666,0.002507,0.0096518,0.0018205,0,0,0.052036,-0.018577,0,0.0094667,0,0,0,0.029787,0.0023855,0.0096518,3.8179,0.013942,0.024588,5.4463e-07,0.25,0.21,0
0.012564,0.0053683,0.029617,0.0023585,0.0095925,0.0016741,0,0,0.052063,-0.018808,0,0.0087054,0,0,0,0.029719,0.0022561,0.0095925,3.5014,0.013856,0.024628,5.4394e-07,0.26,0.21,0
0.013084,0.0054719,0.029562,0.0022234,0.0095357,0.0015328,0,0,0.052069,-0.019012,0,0.0079706,0,0,0,0.029648,0.0021377,0.0095357,3.199,0.013774,0.024658,5.4278e-07,0.27,0.21,0
0.013605,0.0055674,0.029503,0.0021006,0.0094812,0.0013964,0,0,0.052057,-0.019189,0,0.0072614,0,0,0,0.029574,0.0020297,0.0094812,2.9097,0.013695,0.024678,5.4121e-07,0.28,0.21,0
0.014125,0.0056549,0.02944,0.0019891,0.0094288,0.0012648,0,0,0.05203,-0.019343,0,0.0065767,0,0,0,0.029498,0.001931,0.0094288,2.6324,0.013619,0.024688,5.3928e-07,0.29,0.21,0
0.014646,0.0057347,0.029374,0.0018878,0.0093784,0.0011375,0,0,0.051987,-0.019476,0,0.0059152,0,0,0,0.029421,0.0018408,0.0093784,2.3659,0.013547,0.02469,5.3703e-07,0.3,0.21,0
0.015165,0.0058067,0.029304,0.0017956,0.0093298,0.0010145,0,0,0.051932,-0.019589,0,0.0052754,0,0,0,0.029341,0.0017582,0.0093298,2.1092,0.013476,0.024684,5.345e-07,0.31,0.21,0
0.015684,0.0058712,0.029231,0.0017115,0.0092828,0.00089531,0,0,0.051866,-0.019686,0,0.0046556,0,0,0,0.02926,0.0016824,0.0092828,1.8614,0.013409,0.024672,5.3173e-07,0.32,0.21,0
0.016203,0.0059283,0.029156,0.0016344,0.0092372,0.00077968,0,0,0.05179,-0.019767,0,0.0040543,0,0,0,0.029178,0.0016123,0.0092372,1.6214,0.013343,0.024654,5.2877e-07,0.33,0.21,0
0.01672,0.0059782,0.02908,0.0015633,0.0091929,0.0006673,0,0,0.051705,-0.019837,0,0.00347,0,0,0,0.029096,0.0015471,0.0091929,1.3884,0.013279,0.024632,5.2566e-07,0.34,0.21,0
0.017237,0.0060209,0.029001,0.0014972,0.0091495,0.00055789,0,0,0.051614,-0.019896,0,0.002901,0,0,0,0.029013,0.0014859,0.0091495,1.1616,0.013216,0.024607,5.2244e-07,0.35,0.21,0
0.017752,0.0060566,0.028922,0.0014349,0.009107,0.00045119,0,0,0.051518,-0.019947,0,0.0023462,0,0,0,0.028929,0.0014275,0.009107,0.94017,0.013154,0.024579,5.1915e-07,0.36,0.21,0
0.018267,0.0060855,0.028841,0.0013754,0.009065,0.00034698,0,0,0.051418,-0.019993,0,0.0018043,0,0,0,0.028846,0.0013711,0.009065,0.72367,0.013094,0.024549,5.1583e-07,0.37,0.21,0
0.018781,0.0061076,0.028761,0.0013177,0.0090235,0.00024508,0,0,0.051317,-0.020035,0,0.0012744,0,0,0,0.028763,0.0013155,0.0090235,0.51163,0.013034,0.024519,5.1253e-07,0.38,0.21,0
0.019293,0.0061233,0.02868,0.0012606,0.0089821,0.00014538,0,0,0.051214,-0.020076,0,0.00075599,0,0,0,0.028681,0.0012598,0.0089821,0.30378,0.012974,0.024491,5.0928e-07,0.39,0.21,0
0.019805,0.0061325,0.0286,0.001203,0.0089408,4.7836e-05,0,0,0.051113,-0.020118,0,0.00024875,0,0,0,0.0286,0.0012029,0.0089408,0.10004,0.012915,0.024464,5.0614e-07,0.4,0.21,0
0.020316,0.0061356,0.028521,0.0011439,0.0088993,-4.7528e-05,0,0,0.051015,-0.020164,0,-0.00024715,0,0,0,0.028521,0.0011438,0.0088993,-0.09947,0.012855,0.02444,5.0313e-07,0.41,0.21,0
0.020825,0.0061327,0.028443,0.0010822,0.0088575,-0.0001406,0,0,0.050922,-0.020216,0,-0.0007311,0,0,0,0.028443,0.0010815,0.0088575,-0.29441,0.012794,0.024421,5.0031e-07,0.42,0.21,0
0.021334,0.006124,0.028367,0.0010169,0.0088151,-0.00023116,0,0,0.050834,-0.020275,0,-0.001202,0,0,0,0.028369,0.001015,0.0088151,-0.48421,0.012733,0.024407,4.9771e-07,0.43,0.21,0
0.021842,0.0061097,0.028293,0.0009471,0.008772,-0.0003189,0,0,0.050755,-0.020345,0,-0.0016583,0,0,0,0.028297,0.00094339,0.008772,-0.66804,0.012671,0.0244,4.9537e-07,0.44,0.21,0
0.022349,0.0060901,0.028222,0.00087183,0.0087282,-0.00040341,0,0,0.050684,-0.020427,0,-0.0020977,0,0,0,0.028228,0.00086589,0.0087282,-0.84485,0.012607,0.0244,4.9332e-07,0.45,0.21,0
0.022856,0.0060655,0.028155,0.00079034,0.0086835,-0.00048416,0,0,0.050625,-0.020522,0,-0.0025177,0,0,0,0.028163,0.00078178,0.0086835,-1.0133,0.012543,0.024409,4.9159e-07,0.46,0.21,0
0.023362,0.0060361,0.028091,0.00070197,0.0086378,-0.00056054,0,0,0.050577,-0.020633,0,-0.0029148,0,0,0,0.028102,0.00069051,0.0086378,-1.172,0.012477,0.024428,4.9021e-07,0.47,0.21,0
0.023867,0.0060025,0.028031,0.00060623,0.0085911,-0.00063181,0,0,0.050543,-0.020761,0,-0.0032854,0,0,0,0.028045,0.00059168,0.0085911,-1.3191,0.012409,0.024456,4.8919e-07,0.48,0.21,0
0.024372,0.0059648,0.027975,0.0005028,0.0085434,-0.00069717,0,0,0.050523,-0.020906,0,-0.0036253,0,0,0,0.027993,0.00048511,0.0085434,-1.4528,0.01234,0.024494,4.8854e-07,0.49,0.21,0
0.024878,0.0059235,0.027924,0.00039159,0.0084948,-0.00075574,0,0,0.050517,-0.021068,0,-0.0039299,0,0,0,0.027945,0.00037086,0.0084948,-1.5711,0.01227,0.024542,4.8826e-07,0.5,0.21,0
0.025383,0.0058792,0.027878,0.00027277,0.0084453,-0.00080659,0,0,0.050525,-0.021249,0,-0.0041943,0,0,0,0.027902,0.00024922,0.0084453,-1.6722,0.012199,0.024601,4.8834e-07,0.51,0.21,0
0.025888,0.0058324,0.027837,0.00014675,0.0083951,-0.00084877,0,0,0.050549,-0.021446,0,-0.0044136,0,0,0,0.027863,0.00012076,0.0083951,-1.7541,0.012126,0.024669,4.8876e-07,0.52,0.21,0
0.026394,0.0057834,0.0278,1.4251e-05,0.0083444,-0.00088134,0,0,0.050586,-0.021659,0,-0.004583,0,0,0,0.027828,-1.3675e-05,0.0083444,-1.8149,0.012053,0.024745,4.8949e-07,0.53,0.21,0
0.0269,0.0057331,0.027769,-0.00012372,0.0082935,-0.00090342,0,0,0.050636,-0.021885,0,-0.0046978,0,0,0,0.027798,-0.00015295,0.0082935,-1.8532,0.01198,0.02483,4.9049e-07,0.54,0.21,0
0.027407,0.0056819,0.027742,-0.00026587,0.0082428,-0.00091421,0,0,0.050697,-0.022122,0,-0.0047539,0,0,0,0.027772,-0.00029568,0.0082428,-1.8676,0.011906,0.02492,4.9173e-07,0.55,0.21,0
0.027914,0.0056305,0.027719,-0.0004106,0.0081924,-0.00091303,0,0,0.050768,-0.022368,0,-0.0047478,0,0,0,0.027748,-0.00044021,0.0081924,-1.8571,0.011834,0.025015,4.9314e-07,0.56,0.21,0
0.028422,0.0055797,0.027699,-0.00055608,0.008143,-0.00089939,0,0,0.050847,-0.022618,0,-0.0046768,0,0,0,0.027728,-0.00058468,0.008143,-1.8213,0.011762,0.025113,4.9467e-07,0.57,0.21,0
0.028931,0.00553,0.027683,-0.00070025,0.008095,-0.00087299,0,0,0.05093,-0.022867,0,-0.0045396,0,0,0,0.02771,-0.00072707,0.008095,-1.76,0.011693,0.025212,4.9625e-07,0.58,0.21,0
0.02944,0.0054822,0.02767,-0.00084088,0.0080487,-0.0008338,0,0,0.051015,-0.023113,0,-0.0043358,0,0,0,0.027694,-0.00086524,0.0080487,-1.6737,0.011626,0.025309,4.9783e-07,0.59,0.21,0
0.029951,0.0054369,0.027659,-0.00097567,0.0080049,-0.00078202,0,0,0.0511,-0.023349,0,-0.0040665,0,0,0,0.02768,-0.00099701,0.0080049,-1.5632,0.011563,0.025402,4.9935e-07,0.6,0.21,0
0.030462,0.0053948,0.027649,-0.0011023,0.0079639,-0.00071815,0,0,0.05118,-0.023572,0,-0.0037344,0,0,0,0.027667,-0.0011202,0.0079639,-1.43,0.011503,0.025489,5.0074e-07,0.61,0.21,0
0.030975,0.0053566,0.02764,-0.0012185,0.0079263,-0.00064294,0,0,0.051255,-0.023777,0,-0.0033433,0,0,0,0.027654,-0.0012328,0.0079263,-1.2757,0.011449,0.025569,5.0197e-07,0.62,0.21,0
0.031488,0.0053227,0.027631,-0.0013222,0.0078926,-0.0005574,0,0,0.05132,-0.023959,0,-0.0028985,0,0,0,0.027642,-0.0013329,0.0078926,-1.1025,0.0114,0.025639,5.0299e-07,0.63,0.21,0
0.032001,0.0052938,0.027622,-0.0014114,0.0078632,-0.00046274,0,0,0.051373,-0.024114,0,-0.0024063,0,0,0,0.02763,-0.0014188,0.0078632,-0.91288,0.011358,0.025697,5.0377e-07,0.64,0.21,0
0.032515,0.0052702,0.027613,-0.0014847,0.0078385,-0.00036036,0,0,0.051414,-0.02424,0,-0.0018739,0,0,0,0.027618,-0.0014892,0.0078385,-0.70943,0.011322,0.025743,5.0428e-07,0.65,0.21,0
0.033029,0.0052523,0.027603,-0.0015406,0.0078188,-0.00025176,0,0,0.05144,-0.024334,0,-0.0013092,0,0,0,0.027606,-0.0015428,0.0078188,-0.4949,0.011294,0.025776,5.0451e-07,0.66,0.21,0
0.033544,0.0052405,0.027593,-0.0015782,0.0078043,-0.00013853,0,0,0.05145,-0.024394,0,-0.00072036,0,0,0,0.027593,-0.0015788,0.0078043,-0.27209,0.011273,0.025794,5.0443e-07,0.67,0.21,0
0.034058,0.0052349,0.027581,-0.0015968,0.0077952,-2.2299e-05,0,0,0.051443,-0.024419,0,-0.00011595,0,0,0,0.027581,-0.0015968,0.0077952,-0.043788,0.01126,0.025798,5.0406e-07,0.68,0.21,0
0.034573,0.0052357,0.027568,-0.001596,0.0077916,9.5279e-05,0,0,0.051419,-0.024408,0,0.00049545,0,0,0,0.027568,-0.0015963,0.0077916,0.18718,0.011255,0.025786,5.0337e-07,0.69,0.21,0
0.035087,0.0052429,0.027554,-0.0015758,0.0077934,0.00021254,0,0,0.051377,-0.02436,0,0.0011052,0,0,0,0.027555,-0.0015774,0.0077934,0.41802,0.011257,0.025759,5.0237e-07,0.7,0.21,0
0.0356,0.0052564,0.027538,-0.0015364,0.0078006,0.00032782,0,0,0.051318,-0.024276,0,0.0017046,0,0,0,0.027542,-0.0015401,0.0078006,0.64589,0.011267,0.025717,5.0105e-07,0.71,0.21,0
0.036113,0.0052761,0.027522,-0.0014784,0.007813,0.00043945,0,0,0.051243,-0.024157,0,0.0022852,0,0,0,0.027528,-0.001485,0.007813,0.86797,0.011285,0.02566,4.9942e-07,0.72,0.21,0
0.036625,0.0053017,0.027504,-0.0014025,0.0078303,0.00054583,0,0,0.05115,-0.024005,0,0.0028383,0,0,0,0.027514,-0.0014128,0.0078303,1.0814,0.01131,0.025589,4.9746e-07,0.73,0.21,0
0.037136,0.0053329,0.027484,-0.0013101,0.0078522,0.00064538,0,0,0.051043,-0.023822,0,0.0033559,0,0,0,0.027498,-0.0013246,0.0078522,1.2833,0.011342,0.025504,4.9519e-07,0.74,0.21,0
0.037646,0.0053694,0.027463,-0.0012026,0.0078783,0.00073665,0,0,0.050922,-0.02361,0,0.0038306,0,0,0,0.027482,-0.0012215,0.0078783,1.4711,0.01138,0.025407,4.9263e-07,0.75,0.21,0
0.038155,0.0054107,0.027442,-0.0010819,0.0079081,0.00081835,0,0,0.050789,-0.023374,0,0.0042554,0,0,0,0.027466,-0.0011053,0.0079081,1.642,0.011423,0.025299,4.898e-07,0.76,0.21,0
0.038662,0.0054562,0.02742,-0.00094993,0.0079411,0.00088939,0,0,0.050646,-0.023117,0,0.0046248,0,0,0,0.027448,-0.00097779,0.0079411,1.7938,0.01147,0.02518,4.8672e-07,0.77,0.21,0
0.039167,0.0055054,0.027398,-0.00080904,0.0079768,0.0009489,0,0,0.050496,-0.022843,0,0.0049343,0,0,0,0.02743,-0.00084093,0.0079768,1.9245,0.011522,0.025054,4.8344e-07,0.78,0.21,0
0.039672,0.0055576,0.027377,-0.00066155,0.0080145,0.0009963,0,0,0.050341,-0.022558,0,0.0051807,0,0,0,0.027412,-0.00069691,0.0080145,2.0325,0.011576,0.024923,4.8001e-07,0.79,0.21,0
0.040174,0.0056122,0.027356,-0.00050984,0.0080538,0.0010313,0,0,0.050185,-0.022265,0,0.0053626,0,0,0,0.027394,-0.00054795,0.0080538,2.1166,0.011633,0.024787,4.7647e-07,0.8,0.21,0
0.040675,0.0056686,0.027336,-0.00035622,0.008094,0.0010537,0,0,0.050029,-0.021971,0,0.0054795,0,0,0,0.027376,-0.00039626,0.008094,2.176,0.011691,0.02465,4.7289e-07,0.81,0.21,0
0.041175,0.0057262,0.027318,-0.00020291,0.0081346,0.0010639,0,0,0.049877,-0.021677,0,0.0055325,0,0,0,0.027359,-0.00024398,0.0081346,2.2106,0.01175,0.024512,4.693e-07,0.82,0.21,0
0.041673,0.0057842,0.027302,-5.1933e-05,0.008175,0.0010623,0,0,0.04973,-0.02139,0,0.0055238,0,0,0,0.027343,-9.3124e-05,0.008175,2.2206,0.011808,0.024378,4.6578e-07,0.83,0.21,0
0.042169,0.0058421,0.027288,9.4889e-05,0.008215,0.0010494,0,0,0.049591,-0.021112,0,0.0054567,0,0,0,0.027329,5.4456e-05,0.008215,2.2066,0.011866,0.024247,4.6236e-07,0.84,0.21,0
0.042665,0.0058993,0.027277,0.00023599,0.0082539,0.001026,0,0,0.04946,-0.020847,0,0.0053349,0,0,0,0.027316,0.00019712,0.0082539,2.1697,0.011922,0.024122,4.5909e-07,0.85,0.21,0
0.043159,0.0059551,0.027268,0.00037006,0.0082915,0.00099291,0,0,0.04934,-0.020596,0,0.0051631,0,0,0,0.027305,0.00033346,0.0082915,2.1112,0.011977,0.024003,4.5601e-07,0.86,0.21,0
0.043651,0.0060092,0.027262,0.00049604,0.0083274,0.00095117,0,0,0.04923,-0.020362,0,0.0049461,0,0,0,0.027296,0.00046229,0.0083274,2.0327,0.012028,0.023892,4.5314e-07,0.87,0.21,0
0.044143,0.006061,0.027258,0.00061315,0.0083613,0.0009017,0,0,0.049131,-0.020145,0,0.0046888,0,0,0,0.027288,0.00058267,0.0083613,1.936,0.012077,0.02379,4.5051e-07,0.88,0.21,0
0.044634,0.0061101,0.027256,0.00072082,0.0083931,0.00084546,0,0,0.049044,-0.019948,0,0.0043964,0,0,0,0.027283,0.00069391,0.0083931,1.8231,0.012123,0.023697,4.4814e-07,0.89,0.21,0
0.045124,0.006156,0.027256,0.00081869,0.0084224,0.0007834,0,0,0.048968,-0.01977,0,0.0040737,0,0,0,0.027279,0.00079549,0.0084224,1.6958,0.012166,0.023613,4.4602e-07,0.9,0.21,0
0.045613,0.0061986,0.027258,0.00090659,0.0084493,0.00071639,0,0,0.048902,-0.019611,0,0.0037252,0,0,0,0.027277,0.00088713,0.0084493,1.5561,0.012205,0.023538,4.4416e-07,0.91,0.21,0
0.046102,0.0062374,0.027261,0.0009845,0.0084735,0.00064526,0,0,0.048846,-0.019471,0,0.0033554,0,0,0,0.027276,0.00096867,0.0084735,1.4059,0.01224,0.023473,4.4255e-07,0.92,0.21,0
0.04659,0.0062722,0.027264,0.0010525,0.008495,0.00057075,0,0,0.0488,-0.019351,0,0.0029679,0,0,0,0.027277,0.0010401,0.008495,1.2468,0.012271,0.023417,4.4117e-07,0.93,0.21,0
0.047078,0.0063028,0.027268,0.0011108,0.0085138,0.00049351,0,0,0.048762,-0.019248,0,0.0025662,0,0,0,0.027278,0.0011015,0.0085138,1.0805,0.012298,0.023369,4.4003e-07,0.94,0.21,0
0.047566,0.0063289,0.027273,0.0011595,0.0085296,0.00041412,0,0,0.048732,-0.019162,0,0.0021534,0,0,0,0.027279,0.001153,0.0085296,0.90833,0.012321,0.02333,4.3909e-07,0.95,0.21,0
0.048053,0.0063505,0.027276,0.001199,0.0085427,0.00033307,0,0,0.048708,-0.019093,0,0.001732,0,0,0,0.027281,0.0011948,0.0085427,0.73164,0.012339,0.023298,4.3836e-07,0.96,0.21,0
0.04854,0.0063675,0.02728,0.0012294,0.0085528,0.0002508,0,0,0.04869,-0.019041,0,0.0013041,0,0,0,0.027282,0.001227,0.0085528,0.55154,0.012354,0.023274,4.378e-07,0.97,0.21,0
0.049027,0.0063796,0.027283,0.001251,0.0085601,0.00016765,0,0,0.048678,-0.019004,0,0.0008718,0,0,0,0.027284,0.0012499,0.0085601,0.36899,0.012365,0.023257,4.3741e-07,0.98,0.21,0
0.049513,0.0063869,0.027284,0.0012639,0.0085644,8.3961e-05,0,0,0.048671,-0.018981,0,0.0004366,0,0,0,0.027284,0.0012636,0.0085644,0.18488,0.012371,0.023247,4.3718e-07,0.99,0.21,0
0.05,0.0063894,0.027285,0.0012682,0.0085659,4.6978e-05,0,0,0.048669,-0.018974,0,0.00024428,0,0,0,0.027285,0.0012681,0.0085659,0.10346,0.012373,0.023244,4.3711e-07,1,0.21,0
0,0,0.027791,0.01191,0.01191,0.004929,0,0,0.041289,-1.0842e-19,0,0.025631,0,0,0,0.029196,0.010505,0.01191,15.915,0.017204,0.01803,2.9487e-07,0,0.22,0
0.00041289,0.00025631,0.027747,0.01137,0.011735,0.0049237,0,0,0.041631,-0.00094976,0,0.025603,0,0,0,0.029113,0.010004,0.011735,15.509,0.016951,0.018306,3.0556e-07,0.01,0.22,0
0.00083263,0.00051199,0.02793,0.010911,0.011652,0.0049052,0,0,0.042321,-0.0019273,0,0.025507,0,0,0,0.029242,0.0095983,0.011652,14.98,0.016831,0.018702,3.2233e-07,0.02,0.22,0
0.0012593,0.00076661,0.028113,0.010441,0.011566,0.0048743,0,0,0.043022,-0.0029263,0,0.025347,0,0,0,0.029368,0.0091852,0.011566,14.441,0.016706,0.019104,3.3942e-07,0.03,0.22,0
0.0016931,0.0010196,0.028294,0.0099619,0.011477,0.0048296,0,0,0.043726,-0.003939,0,0.025114,0,0,0,0.029489,0.0087674,0.011477,13.892,0.016578,0.019508,3.5665e-07,0.04,0.22,0
0.0021338,0.0012706,0.028473,0.0094788,0.011385,0.0047701,0,0,0.044427,-0.0049573,0,0.024805,0,0,0,0.029603,0.0083482,0.011385,13.335,0.016446,0.019911,3.7382e-07,0.05,0.22,0
0.0025816,0.0015187,0.028646,0.008995,0.011292,0.0046953,0,0,0.045119,-0.0059728,0,0.024415,0,0,0,0.02971,0.0079308,0.011292,12.771,0.016311,0.020308,3.9074e-07,0.06,0.22,0
0.0030362,0.0017635,0.028812,0.0085143,0.011198,0.0046052,0,0,0.045796,-0.0069771,0,0.023947,0,0,0,0.029808,0.0075183,0.011198,12.204,0.016175,0.020696,4.0722e-07,0.07,0.22,0
0.0034975,0.0020043,0.028968,0.0080402,0.011102,0.0045005,0,0,0.046451,-0.0079621,0,0.023403,0,0,0,0.029895,0.0071134,0.011102,11.636,0.016037,0.021072,4.231e-07,0.08,0.22,0
0.0039652,0.0022405,0.029114,0.0075761,0.011007,0.0043822,0,0,0.047079,-0.0089206,0,0.022788,0,0,0,0.029972,0.0067186,0.011007,11.071,0.015899,0.021433,4.3822e-07,0.09,0.22,0
0.0044391,0.0024715,0.029248,0.0071249,0.010912,0.0042517,0,0,0.047675,-0.0098463,0,0.022109,0,0,0,0.030037,0.006336,0.010912,10.512,0.015762,0.021777,4.5247e-07,0.1,0.22,0
0.0049187,0.0026968,0.02937,0.0066892,0.010818,0.0041103,0,0,0.048235,-0.010734,0,0.021374,0,0,0,0.030092,0.0059673,0.010818,9.9617,0.015626,0.022102,4.6576e-07,0.11,0.22,0
0.0054038,0.0029159,0.029478,0.0062709,0.010725,0.00396,0,0,0.048758,-0.011579,0,0.020592,0,0,0,0.030135,0.0056138,0.010725,9.422,0.015491,0.022407,4.7802e-07,0.12,0.22,0
0.0058939,0.0031282,0.029572,0.0058717,0.010633,0.0038026,0,0,0.04924,-0.012379,0,0.019773,0,0,0,0.030167,0.0052765,0.010633,8.8955,0.015359,0.022691,4.892e-07,0.13,0.22,0
0.0063886,0.0033335,0.029652,0.0054925,0.010543,0.0036396,0,0,0.049682,-0.013132,0,0.018926,0,0,0,0.030188,0.0049561,0.010543,8.3838,0.015229,0.022954,4.993e-07,0.14,0.22,0
0.0068875,0.0035315,0.029718,0.0051342,0.010456,0.0034729,0,0,0.050083,-0.013836,0,0.018059,0,0,0,0.0302,0.004653,0.010456,7.8884,0.015103,0.023196,5.0831e-07,0.15,0.22,0
0.0073903,0.0037219,0.029772,0.004797,0.010371,0.0033041,0,0,0.050443,-0.014491,0,0.017181,0,0,0,0.030201,0.0043672,0.010371,7.4103,0.01498,0.023417,5.1625e-07,0.16,0.22,0
0.0078964,0.0039043,0.029812,0.004481,0.010288,0.0031345,0,0,0.050763,-0.015098,0,0.0163,0,0,0,0.030194,0.0040988,0.010288,6.9503,0.01486,0.023617,5.2315e-07,0.17,0.22,0
0.0084055,0.0040788,0.02984,0.0041859,0.010208,0.0029655,0,0,0.051044,-0.015657,0,0.01542,0,0,0,0.030179,0.0038475,0.010208,6.5086,0.014745,0.023797,5.2906e-07,0.18,0.22,0
0.0089173,0.0042452,0.029857,0.0039113,0.010131,0.0027979,0,0,0.051289,-0.01617,0,0.014549,0,0,0,0.030155,0.003613,0.010131,6.0854,0.014633,0.023958,5.3401e-07,0.19,0.22,0
0.0094313,0.0044034,0.029863,0.0036566,0.010056,0.0026329,0,0,0.051499,-0.016638,0,0.013691,0,0,0,0.030125,0.0033946,0.010056,5.6806,0.014525,0.0241,5.3807e-07,0.2,0.22,0
0.0099472,0.0045535,0.029859,0.003421,0.0099841,0.002471,0,0,0.051675,-0.017064,0,0.012849,0,0,0,0.030088,0.003192,0.0099841,5.2939,0.014421,0.024225,5.4128e-07,0.21,0.22,0
0.010465,0.0046952,0.029846,0.0032037,0.009915,0.0023128,0,0,0.051821,-0.017449,0,0.012027,0,0,0,0.030045,0.0030045,0.009915,4.9247,0.014322,0.024333,5.437e-07,0.22,0.22,0
0.010984,0.0048289,0.029825,0.0030039,0.0098485,0.0021587,0,0,0.051938,-0.017796,0,0.011225,0,0,0,0.029997,0.0028313,0.0098485,4.5724,0.014226,0.024425,5.454e-07,0.23,0.22,0
0.011504,0.0049543,0.029795,0.0028205,0.0097847,0.002009,0,0,0.052027,-0.018107,0,0.010447,0,0,0,0.029944,0.0026717,0.0097847,4.2362,0.014134,0.024503,5.4641e-07,0.24,0.22,0
0.012024,0.0050717,0.029759,0.0026527,0.0097234,0.0018639,0,0,0.052092,-0.018384,0,0.0096922,0,0,0,0.029886,0.0025251,0.0097234,3.9152,0.014045,0.024566,5.4681e-07,0.25,0.22,0
0.012545,0.0051811,0.029716,0.0024993,0.0096645,0.0017233,0,0,0.052133,-0.01863,0,0.008961,0,0,0,0.029824,0.0023906,0.0096645,3.6086,0.01396,0.024616,5.4663e-07,0.26,0.22,0
0.013067,0.0052826,0.029667,0.0023595,0.0096079,0.0015872,0,0,0.052153,-0.018846,0,0.0082534,0,0,0,0.029759,0.0022675,0.0096079,3.3153,0.013878,0.024655,5.4592e-07,0.27,0.22,0
0.013588,0.0053762,0.029613,0.0022321,0.0095534,0.0014555,0,0,0.052154,-0.019036,0,0.0075687,0,0,0,0.02969,0.0021549,0.0095534,3.0344,0.013799,0.024682,5.4474e-07,0.28,0.22,0
0.01411,0.0054622,0.029554,0.0021162,0.0095009,0.0013281,0,0,0.052137,-0.0192,0,0.006906,0,0,0,0.029618,0.0020521,0.0095009,2.7647,0.013724,0.024699,5.4314e-07,0.29,0.22,0
0.014631,0.0055406,0.02949,0.0020107,0.0094503,0.0012046,0,0,0.052104,-0.019343,0,0.006264,0,0,0,0.029543,0.001958,0.0094503,2.5053,0.01365,0.024706,5.4115e-07,0.3,0.22,0
0.015152,0.0056115,0.029423,0.0019147,0.0094012,0.0010849,0,0,0.052056,-0.019465,0,0.0056415,0,0,0,0.029465,0.001872,0.0094012,2.2551,0.01358,0.024705,5.3882e-07,0.31,0.22,0
0.015672,0.005675,0.029352,0.0018271,0.0093537,0.00096864,0,0,0.051995,-0.019569,0,0.0050369,0,0,0,0.029386,0.0017931,0.0093537,2.013,0.013511,0.024696,5.3619e-07,0.32,0.22,0
0.016192,0.0057312,0.029278,0.0017469,0.0093074,0.00085554,0,0,0.051923,-0.019657,0,0.0044488,0,0,0,0.029304,0.0017203,0.0093074,1.7782,0.013444,0.024681,5.3331e-07,0.33,0.22,0
0.016711,0.0057803,0.029201,0.0016729,0.0092621,0.0007453,0,0,0.051841,-0.019732,0,0.0038756,0,0,0,0.029221,0.0016527,0.0092621,1.5497,0.013379,0.02466,5.3022e-07,0.34,0.22,0
0.017229,0.0058224,0.029122,0.0016041,0.0092177,0.00063764,0,0,0.05175,-0.019796,0,0.0033158,0,0,0,0.029136,0.0015893,0.0092177,1.3267,0.013314,0.024635,5.2696e-07,0.35,0.22,0
0.017746,0.0058576,0.029041,0.0015395,0.009174,0.0005323,0,0,0.051653,-0.01985,0,0.002768,0,0,0,0.029051,0.0015292,0.009174,1.1084,0.013251,0.024607,5.2359e-07,0.36,0.22,0
0.018262,0.005886,0.028958,0.0014778,0.0091307,0.00042904,0,0,0.051551,-0.019898,0,0.002231,0,0,0,0.028965,0.0014711,0.0091307,0.89425,0.013189,0.024576,5.2014e-07,0.37,0.22,0
0.018777,0.0059077,0.028874,0.001418,0.0090877,0.00032767,0,0,0.051445,-0.019941,0,0.0017039,0,0,0,0.028878,0.0014141,0.0090877,0.68366,0.013127,0.024544,5.1666e-07,0.38,0.22,0
0.019291,0.005923,0.02879,0.001359,0.0090447,0.00022807,0,0,0.051338,-0.019983,0,0.001186,0,0,0,0.028792,0.0013571,0.0090447,0.47633,0.013064,0.024512,5.132e-07,0.39,0.22,0
0.019804,0.0059318,0.028705,0.0012996,0.0090015,0.00013016,0,0,0.05123,-0.020025,0,0.00067684,0,0,0,0.028706,0.0012989,0.0090015,0.27211,0.013002,0.024482,5.098e-07,0.4,0.22,0
0.020315,0.0059344,0.028621,0.0012385,0.0089579,3.396e-05,0,0,0.051124,-0.02007,0,0.00017659,0,0,0,0.028621,0.0012385,0.0089579,0.071059,0.012939,0.024455,5.0652e-07,0.41,0.22,0
0.020826,0.005931,0.028538,0.0011747,0.0089137,-6.0433e-05,0,0,0.051022,-0.020121,0,-0.00031425,0,0,0,0.028538,0.0011746,0.0089137,-0.12654,0.012875,0.024431,5.0339e-07,0.42,0.22,0
0.021336,0.0059217,0.028455,0.0011071,0.0088687,-0.00015282,0,0,0.050925,-0.02018,0,-0.00079465,0,0,0,0.028456,0.0011062,0.0088687,-0.32015,0.01281,0.024413,5.0047e-07,0.43,0.22,0
0.021844,0.0059067,0.028375,0.0010345,0.0088229,-0.00024289,0,0,0.050836,-0.02025,0,-0.001263,0,0,0,0.028377,0.0010324,0.0088229,-0.50895,0.012744,0.024401,4.978e-07,0.44,0.22,0
0.022353,0.0058863,0.028297,0.00095607,0.0087759,-0.00033022,0,0,0.050755,-0.020332,0,-0.0017171,0,0,0,0.028301,0.00095208,0.0087759,-0.69187,0.012676,0.024397,4.9542e-07,0.45,0.22,0
0.02286,0.0058607,0.028222,0.0008708,0.0087278,-0.00041427,0,0,0.050685,-0.020428,0,-0.0021542,0,0,0,0.028228,0.00086453,0.0087278,-0.86755,0.012607,0.024402,4.9335e-07,0.46,0.22,0
0.023366,0.0058303,0.02815,0.00077796,0.0086785,-0.00049439,0,0,0.050627,-0.020541,0,-0.0025708,0,0,0,0.028159,0.00076904,0.0086785,-1.0344,0.012536,0.024416,4.9164e-07,0.47,0.22,0
0.023872,0.0057953,0.028082,0.00067695,0.0086278,-0.0005698,0,0,0.050582,-0.020672,0,-0.0029629,0,0,0,0.028094,0.0006651,0.0086278,-1.1906,0.012462,0.024441,4.9031e-07,0.48,0.22,0
0.024378,0.0057561,0.028019,0.00056736,0.0085758,-0.00063963,0,0,0.050551,-0.020822,0,-0.0033261,0,0,0,0.028033,0.00055246,0.0085758,-1.3341,0.012387,0.024476,4.8935e-07,0.49,0.22,0
0.024883,0.0057132,0.02796,0.00044904,0.0085226,-0.00070293,0,0,0.050536,-0.020991,0,-0.0036553,0,0,0,0.027977,0.00043109,0.0085226,-1.4627,0.01231,0.024523,4.8879e-07,0.5,0.22,0
0.025389,0.0056671,0.027905,0.00032211,0.0084682,-0.00075868,0,0,0.050536,-0.02118,0,-0.0039451,0,0,0,0.027926,0.00030126,0.0084682,-1.5744,0.012232,0.024581,4.8861e-07,0.51,0.22,0
0.025894,0.0056182,0.027856,0.00018697,0.0084128,-0.00080582,0,0,0.050551,-0.021387,0,-0.0041903,0,0,0,0.027879,0.00016352,0.0084128,-1.6668,0.012152,0.024649,4.8879e-07,0.52,0.22,0
0.0264,0.005567,0.027811,4.4363e-05,0.0083566,-0.00084332,0,0,0.050582,-0.021612,0,-0.0043853,0,0,0,0.027837,1.8774e-05,0.0083566,-1.738,0.012071,0.024727,4.8931e-07,0.53,0.22,0
0.026906,0.0055144,0.027772,-0.00010464,0.0083,-0.00087015,0,0,0.050626,-0.021852,0,-0.0045248,0,0,0,0.027799,-0.00013177,0.0083,-1.7862,0.011989,0.024813,4.9013e-07,0.54,0.22,0
0.027412,0.0054607,0.027737,-0.00025862,0.0082434,-0.00088542,0,0,0.050682,-0.022105,0,-0.0046042,0,0,0,0.027765,-0.0002866,0.0082434,-1.8097,0.011907,0.024907,4.9119e-07,0.55,0.22,0
0.027919,0.0054068,0.027706,-0.00041584,0.008187,-0.00088835,0,0,0.050749,-0.022367,0,-0.0046194,0,0,0,0.027734,-0.00044388,0.008187,-1.8075,0.011826,0.025006,4.9244e-07,0.56,0.22,0
0.028427,0.0053534,0.027679,-0.00057425,0.0081315,-0.00087834,0,0,0.050824,-0.022635,0,-0.0045674,0,0,0,0.027707,-0.00060154,0.0081315,-1.7789,0.011746,0.025108,4.9383e-07,0.57,0.22,0
0.028936,0.0053011,0.027656,-0.00073156,0.0080774,-0.00085503,0,0,0.050905,-0.022903,0,-0.0044462,0,0,0,0.027682,-0.00075729,0.0080774,-1.7236,0.011667,0.025211,4.9528e-07,0.58,0.22,0
0.029445,0.0052507,0.027636,-0.00088528,0.0080252,-0.00081834,0,0,0.050988,-0.023167,0,-0.0042553,0,0,0,0.02766,-0.00090874,0.0080252,-1.6421,0.011592,0.025313,4.9673e-07,0.59,0.22,0
0.029955,0.005203,0.027618,-0.0010328,0.0079756,-0.00076846,0,0,0.051071,-0.023422,0,-0.003996,0,0,0,0.027639,-0.0010534,0.0079756,-1.5353,0.01152,0.025411,4.9812e-07,0.6,0.22,0
0.030467,0.0051586,0.027602,-0.0011715,0.0079292,-0.00070591,0,0,0.05115,-0.023662,0,-0.0036707,0,0,0,0.02762,-0.0011888,0.0079292,-1.4045,0.011453,0.025503,4.9939e-07,0.61,0.22,0
0.030978,0.0051182,0.027588,-0.0012988,0.0078866,-0.00063151,0,0,0.051222,-0.023882,0,-0.0032839,0,0,0,0.027601,-0.0013126,0.0078866,-1.2518,0.011392,0.025586,5.0049e-07,0.62,0.22,0
0.031491,0.0050825,0.027574,-0.0014124,0.0078484,-0.00054634,0,0,0.051286,-0.024078,0,-0.002841,0,0,0,0.027584,-0.0014227,0.0078484,-1.0794,0.011336,0.02566,5.0138e-07,0.63,0.22,0
0.032004,0.0050519,0.02756,-0.0015103,0.007815,-0.00045172,0,0,0.051338,-0.024246,0,-0.002349,0,0,0,0.027567,-0.0015173,0.007815,-0.89002,0.011288,0.025721,5.0204e-07,0.64,0.22,0
0.032518,0.005027,0.027547,-0.0015906,0.007787,-0.00034913,0,0,0.051377,-0.024382,0,-0.0018155,0,0,0,0.027551,-0.0015948,0.007787,-0.68639,0.011248,0.02577,5.0244e-07,0.65,0.22,0
0.033032,0.0050082,0.027534,-0.001652,0.0077647,-0.00024016,0,0,0.051401,-0.024483,0,-0.0012488,0,0,0,0.027536,-0.001654,0.0077647,-0.47141,0.011216,0.025804,5.0258e-07,0.66,0.22,0
0.033546,0.0049958,0.027521,-0.0016934,0.0077484,-0.00012644,0,0,0.05141,-0.024549,0,-0.00065747,0,0,0,0.027522,-0.001694,0.0077484,-0.24796,0.011192,0.025823,5.0244e-07,0.67,0.22,0
0.03406,0.0049899,0.027508,-0.0017142,0.0077382,-9.6261e-06,0,0,0.051402,-0.024576,0,-5.0056e-05,0,0,0,0.027508,-0.0017142,0.0077382,-0.018874,0.011177,0.025828,5.0203e-07,0.68,0.22,0
0.034574,0.0049908,0.027495,-0.001714,0.0077343,0.00010862,0,0,0.051378,-0.024566,0,0.00056483,0,0,0,0.027495,-0.0017144,0.0077343,0.21307,0.011172,0.025817,5.0135e-07,0.69,0.22,0
0.035087,0.0049985,0.027481,-0.0016927,0.0077366,0.00022665,0,0,0.051337,-0.024516,0,0.0011786,0,0,0,0.027483,-0.0016945,0.0077366,0.44509,0.011175,0.02579,5.0038e-07,0.7,0.22,0
0.035601,0.0050128,0.027468,-0.0016506,0.0077451,0.00034281,0,0,0.051278,-0.024429,0,0.0017826,0,0,0,0.027472,-0.0016546,0.0077451,0.67441,0.011187,0.025747,4.9912e-07,0.71,0.22,0
0.036113,0.0050337,0.027453,-0.0015881,0.0077595,0.0004554,0,0,0.051204,-0.024304,0,0.0023681,0,0,0,0.02746,-0.0015953,0.0077595,0.89816,0.011208,0.025689,4.9757e-07,0.72,0.22,0
0.036625,0.0050609,0.027438,-0.0015063,0.0077796,0.00056276,0,0,0.051113,-0.024143,0,0.0029263,0,0,0,0.027449,-0.0015172,0.0077796,1.1134,0.011237,0.025616,4.9572e-07,0.73,0.22,0
0.037135,0.0050941,0.027423,-0.0014063,0.0078049,0.00066325,0,0,0.051006,-0.023949,0,0.0034489,0,0,0,0.027438,-0.0014215,0.0078049,1.3172,0.011274,0.025529,4.9356e-07,0.74,0.22,0
0.037645,0.0051327,0.027407,-0.0012897,0.0078351,0.00075531,0,0,0.050886,-0.023724,0,0.0039276,0,0,0,0.027426,-0.0013096,0.0078351,1.5067,0.011317,0.025428,4.9112e-07,0.75,0.22,0
0.038153,0.0051764,0.02739,-0.0011587,0.0078694,0.00083754,0,0,0.050754,-0.023473,0,0.0043552,0,0,0,0.027415,-0.0011832,0.0078694,1.679,0.011367,0.025316,4.884e-07,0.76,0.22,0
0.03866,0.0052246,0.027373,-0.0010154,0.0079074,0.00090876,0,0,0.050611,-0.023199,0,0.0047256,0,0,0,0.027402,-0.0010444,0.0079074,1.8316,0.011422,0.025193,4.8544e-07,0.77,0.22,0
0.039165,0.0052766,0.027357,-0.00086234,0.0079483,0.00096805,0,0,0.050462,-0.022908,0,0.0050339,0,0,0,0.02739,-0.00089551,0.0079483,1.9624,0.011481,0.025063,4.8227e-07,0.78,0.22,0
0.039669,0.0053317,0.027341,-0.00070226,0.0079916,0.0010148,0,0,0.050308,-0.022604,0,0.0052768,0,0,0,0.027378,-0.00073893,0.0079916,2.0697,0.011543,0.024926,4.7894e-07,0.79,0.22,0
0.040171,0.0053894,0.027326,-0.00053778,0.0080365,0.0010486,0,0,0.050153,-0.022293,0,0.0054527,0,0,0,0.027365,-0.00057718,0.0080365,2.1521,0.011608,0.024785,4.7551e-07,0.8,0.22,0
0.040672,0.0054489,0.027312,-0.0003715,0.0080823,0.0010695,0,0,0.049999,-0.02198,0,0.0055614,0,0,0,0.027354,-0.00041275,0.0080823,2.2091,0.011674,0.024643,4.7203e-07,0.81,0.22,0
0.041171,0.0055094,0.027301,-0.00020588,0.0081285,0.0010778,0,0,0.049848,-0.021669,0,0.0056043,0,0,0,0.027343,-0.00024804,0.0081285,2.2404,0.011741,0.024501,4.6855e-07,0.82,0.22,0
0.041669,0.0055704,0.027291,-4.3177e-05,0.0081745,0.0010739,0,0,0.049704,-0.021366,0,0.0055841,0,0,0,0.027334,-8.5299e-05,0.0081745,2.2463,0.011808,0.024363,4.6514e-07,0.83,0.22,0
0.042165,0.0056312,0.027284,0.00011463,0.0082197,0.0010585,0,0,0.049568,-0.021073,0,0.0055042,0,0,0,0.027325,7.345e-05,0.0082197,2.2277,0.011873,0.024229,4.6184e-07,0.84,0.22,0
0.04266,0.005691,0.02728,0.00026583,0.0082637,0.0010325,0,0,0.049442,-0.020794,0,0.0053692,0,0,0,0.027319,0.00022642,0.0082637,2.1858,0.011936,0.024101,4.5871e-07,0.85,0.22,0
0.043154,0.0057495,0.027278,0.00040903,0.008306,0.00099697,0,0,0.049326,-0.020532,0,0.0051842,0,0,0,0.027314,0.00037209,0.008306,2.1221,0.011997,0.023981,4.5577e-07,0.86,0.22,0
0.043647,0.0058059,0.027278,0.00054313,0.0083463,0.0009528,0,0,0.049222,-0.020288,0,0.0049545,0,0,0,0.027312,0.00050922,0.0083463,2.0385,0.012056,0.023869,4.5307e-07,0.87,0.22,0
0.044139,0.00586,0.02728,0.00066734,0.0083844,0.00090109,0,0,0.04913,-0.020064,0,0.0046857,0,0,0,0.027311,0.00063686,0.0083844,1.937,0.012111,0.023767,4.5062e-07,0.88,0.22,0
0.04463,0.005911,0.027285,0.0007811,0.0084199,0.0008429,0,0,0.04905,-0.019861,0,0.0043831,0,0,0,0.027312,0.00075432,0.0084199,1.8197,0.012162,0.023675,4.4842e-07,0.89,0.22,0
0.04512,0.0059588,0.027291,0.00088413,0.0084527,0.00077922,0,0,0.048981,-0.019678,0,0.004052,0,0,0,0.027314,0.00086115,0.0084527,1.6887,0.012209,0.023592,4.465e-07,0.9,0.22,0
0.045609,0.006003,0.027299,0.00097631,0.0084826,0.00071099,0,0,0.048922,-0.019516,0,0.0036971,0,0,0,0.027318,0.00095712,0.0084826,1.5461,0.012253,0.023519,4.4483e-07,0.91,0.22,0
0.046098,0.0060432,0.027307,0.0010577,0.0085095,0.00063905,0,0,0.048874,-0.019375,0,0.0033231,0,0,0,0.027323,0.0010422,0.0085095,1.3938,0.012292,0.023456,4.4341e-07,0.92,0.22,0
0.046587,0.0060792,0.027316,0.0011285,0.0085333,0.00056415,0,0,0.048835,-0.019253,0,0.0029336,0,0,0,0.027328,0.0011163,0.0085333,1.2335,0.012326,0.023402,4.4222e-07,0.93,0.22,0
0.047075,0.0061108,0.027325,0.001189,0.0085541,0.00048695,0,0,0.048803,-0.019149,0,0.0025321,0,0,0,0.027334,0.0011799,0.0085541,1.067,0.012356,0.023357,4.4125e-07,0.94,0.22,0
0.047563,0.0061378,0.027333,0.0012394,0.0085716,0.00040798,0,0,0.048779,-0.019064,0,0.0021215,0,0,0,0.027339,0.001233,0.0085716,0.89555,0.012381,0.02332,4.4047e-07,0.95,0.22,0
0.04805,0.0061601,0.02734,0.0012801,0.008586,0.00032771,0,0,0.04876,-0.018995,0,0.0017041,0,0,0,0.027344,0.001276,0.008586,0.72036,0.012402,0.02329,4.3987e-07,0.96,0.22,0
0.048538,0.0061776,0.027346,0.0013114,0.0085972,0.0002465,0,0,0.048747,-0.018943,0,0.0012818,0,0,0,0.027348,0.0013091,0.0085972,0.54243,0.012418,0.023268,4.3942e-07,0.97,0.22,0
0.049025,0.0061901,0.02735,0.0013336,0.0086052,0.00016466,0,0,0.048738,-0.018906,0,0.00085623,0,0,0,0.027352,0.0013325,0.0086052,0.3626,0.01243,0.023252,4.3911e-07,0.98,0.22,0
0.049513,0.0061976,0.027353,0.0013468,0.00861,8.2423e-05,0,0,0.048732,-0.018884,0,0.0004286,0,0,0,0.027354,0.0013465,0.00861,0.18159,0.012437,0.023243,4.3893e-07,0.99,0.22,0
0.05,0.0062001,0.027354,0.0013512,0.0086116,4.8388e-05,0,0,0.048731,-0.018877,0,0.00025162,0,0,0,0.027354,0.0013511,0.0086116,0.10662,0.012439,0.02324,4.3888e-07,1,0.22,0
0,0,0.027798,0.011914,0.011914,0.0047483,0,0,0.0413,2.1684e-19,0,0.024691,0,0,0,0.029109,0.010602,0.011914,15.437,0.017208,0.017888,2.8863e-07,0,0.23,0
0.000413,0.00024691,0.027755,0.011383,0.011742,0.004743,0,0,0.041635,-0.00093126,0,0.024664,0,0,0,0.02903,0.010108,0.011742,15.044,0.01696,0.01816,2.9922e-07,0.01,0.23,0
0.0008327,0.00049294,0.027934,0.010935,0.011661,0.0047232,0,0,0.04231,-0.0018864,0,0.02456,0,0,0,0.029158,0.009711,0.011661,14.531,0.016843,0.018549,3.1561e-07,0.02,0.23,0
0.0012592,0.0007377,0.028113,0.010477,0.011577,0.0046926,0,0,0.042994,-0.0028598,0,0.024402,0,0,0,0.029284,0.0093063,0.011577,14.01,0.016723,0.018945,3.3236e-07,0.03,0.23,0
0.0016926,0.00098077,0.028291,0.010012,0.011491,0.0046501,0,0,0.043681,-0.0038448,0,0.024181,0,0,0,0.029406,0.0088974,0.011491,13.483,0.016598,0.019343,3.4927e-07,0.04,0.23,0
0.0021328,0.0012216,0.028466,0.0095436,0.011403,0.0045947,0,0,0.044365,-0.0048345,0,0.023892,0,0,0,0.029523,0.008487,0.011403,12.951,0.016471,0.01974,3.6619e-07,0.05,0.23,0
0.0025799,0.0014598,0.028637,0.0090744,0.011313,0.0045259,0,0,0.045041,-0.0058214,0,0.023535,0,0,0,0.029633,0.008078,0.011313,12.415,0.016341,0.020133,3.8293e-07,0.06,0.23,0
0.0030336,0.0016947,0.028801,0.0086079,0.011223,0.0044437,0,0,0.045703,-0.0067982,0,0.023107,0,0,0,0.029735,0.0076732,0.011223,11.878,0.01621,0.020519,3.9932e-07,0.07,0.23,0
0.0034939,0.0019258,0.028957,0.0081474,0.011131,0.0043485,0,0,0.046346,-0.0077579,0,0.022612,0,0,0,0.029829,0.0072752,0.011131,11.341,0.016078,0.020894,4.1522e-07,0.08,0.23,0
0.0039606,0.0021525,0.029103,0.0076957,0.01104,0.0042411,0,0,0.046965,-0.008694,0,0.022054,0,0,0,0.029913,0.0068861,0.01104,10.807,0.015946,0.021256,4.3047e-07,0.09,0.23,0
0.0044332,0.0023744,0.029239,0.0072557,0.010948,0.0041224,0,0,0.047555,-0.0096007,0,0.021437,0,0,0,0.029986,0.006508,0.010948,10.28,0.015814,0.021603,4.4497e-07,0.1,0.23,0
0.0049117,0.0025909,0.029363,0.0068295,0.010858,0.0039939,0,0,0.048113,-0.010473,0,0.020768,0,0,0,0.03005,0.0061426,0.010858,9.7594,0.015683,0.021933,4.5861e-07,0.11,0.23,0
0.0053955,0.0028015,0.029474,0.0064191,0.010768,0.0038568,0,0,0.048636,-0.011307,0,0.020055,0,0,0,0.030103,0.005791,0.010768,9.2494,0.015554,0.022245,4.7131e-07,0.12,0.23,0
0.0058844,0.0030059,0.029573,0.006026,0.01068,0.0037128,0,0,0.049123,-0.0121,0,0.019307,0,0,0,0.030145,0.0054545,0.01068,8.7512,0.015426,0.022537,4.8304e-07,0.13,0.23,0
0.006378,0.0032037,0.029659,0.0056515,0.010593,0.0035633,0,0,0.049572,-0.012849,0,0.018529,0,0,0,0.030177,0.0051338,0.010593,8.2666,0.015301,0.022809,4.9375e-07,0.14,0.23,0
0.0068758,0.0033946,0.029733,0.0052961,0.010509,0.0034099,0,0,0.049983,-0.013553,0,0.017731,0,0,0,0.0302,0.0048292,0.010509,7.7967,0.015179,0.023061,5.0344e-07,0.15,0.23,0
0.0073776,0.0035784,0.029793,0.0049605,0.010426,0.0032539,0,0,0.050355,-0.014211,0,0.01692,0,0,0,0.030213,0.0045412,0.010426,7.3425,0.01506,0.023293,5.121e-07,0.16,0.23,0
0.0078829,0.0037548,0.029841,0.0046447,0.010346,0.0030967,0,0,0.050689,-0.014823,0,0.016103,0,0,0,0.030217,0.0042698,0.010346,6.9047,0.014944,0.023505,5.1975e-07,0.17,0.23,0
0.0083914,0.0039237,0.029878,0.0043488,0.010268,0.0029393,0,0,0.050986,-0.01539,0,0.015284,0,0,0,0.030212,0.0040148,0.010268,6.4838,0.014832,0.023698,5.2642e-07,0.18,0.23,0
0.0089026,0.0040849,0.029903,0.0040725,0.010193,0.0027829,0,0,0.051247,-0.015912,0,0.014471,0,0,0,0.030199,0.003776,0.010193,6.0799,0.014723,0.023871,5.3213e-07,0.19,0.23,0
0.0094163,0.0042384,0.029917,0.0038152,0.01012,0.0026282,0,0,0.051473,-0.016392,0,0.013667,0,0,0,0.030179,0.0035532,0.01012,5.6929,0.014617,0.024026,5.3694e-07,0.2,0.23,0
0.0099321,0.004384,0.029921,0.0035764,0.010049,0.002476,0,0,0.051667,-0.01683,0,0.012875,0,0,0,0.030152,0.0033458,0.010049,5.3227,0.014516,0.024162,5.4088e-07,0.21,0.23,0
0.01045,0.0045219,0.029916,0.0033555,0.0099815,0.0023267,0,0,0.05183,-0.017228,0,0.012099,0,0,0,0.030118,0.0031533,0.0099815,4.9687,0.014418,0.024282,5.4401e-07,0.22,0.23,0
0.010969,0.004652,0.029902,0.0031517,0.0099162,0.002181,0,0,0.051964,-0.017588,0,0.011341,0,0,0,0.030079,0.0029751,0.0099162,4.6306,0.014323,0.024386,5.4636e-07,0.23,0.23,0
0.011489,0.0047743,0.02988,0.0029642,0.0098532,0.0020389,0,0,0.052069,-0.017912,0,0.010602,0,0,0,0.030034,0.0028106,0.0098532,4.3075,0.014232,0.024474,5.48e-07,0.24,0.23,0
0.01201,0.0048888,0.02985,0.002792,0.0097926,0.0019008,0,0,0.052149,-0.018202,0,0.009884,0,0,0,0.029983,0.0026591,0.0097926,3.9987,0.014145,0.024547,5.4896e-07,0.25,0.23,0
0.012532,0.0049957,0.029813,0.0026343,0.0097342,0.0017666,0,0,0.052205,-0.01846,0,0.0091865,0,0,0,0.029927,0.00252,0.0097342,3.7035,0.014061,0.024607,5.4929e-07,0.26,0.23,0
0.013054,0.0050949,0.02977,0.0024902,0.009678,0.0016365,0,0,0.052239,-0.018688,0,0.0085097,0,0,0,0.029868,0.0023924,0.009678,3.4208,0.013979,0.024653,5.4904e-07,0.27,0.23,0
0.013577,0.0051867,0.02972,0.0023588,0.0096237,0.0015102,0,0,0.052251,-0.018889,0,0.0078532,0,0,0,0.029803,0.0022756,0.0096237,3.1497,0.013901,0.024688,5.4826e-07,0.28,0.23,0
0.014099,0.0052709,0.029665,0.0022389,0.0095713,0.0013877,0,0,0.052244,-0.019064,0,0.0072162,0,0,0,0.029735,0.0021689,0.0095713,2.8893,0.013825,0.024711,5.4699e-07,0.29,0.23,0
0.014622,0.0053478,0.029605,0.0021298,0.0095205,0.0012688,0,0,0.05222,-0.019216,0,0.0065978,0,0,0,0.029664,0.0020714,0.0095205,2.6384,0.013752,0.024724,5.4527e-07,0.3,0.23,0
0.015144,0.0054174,0.02954,0.0020304,0.0094712,0.0011532,0,0,0.05218,-0.019346,0,0.0059966,0,0,0,0.029589,0.0019822,0.0094712,2.3962,0.013681,0.024728,5.4316e-07,0.31,0.23,0
0.015665,0.0054799,0.029471,0.0019397,0.0094233,0.0010406,0,0,0.052125,-0.019457,0,0.0054113,0,0,0,0.02951,0.0019004,0.0094233,2.1616,0.013611,0.024723,5.4068e-07,0.32,0.23,0
0.016186,0.0055352,0.029398,0.0018566,0.0093764,0.00093085,0,0,0.052057,-0.019552,0,0.0048404,0,0,0,0.02943,0.0018252,0.0093764,1.9336,0.013544,0.02471,5.379e-07,0.33,0.23,0
0.016706,0.0055835,0.029322,0.0017801,0.0093305,0.00082354,0,0,0.051977,-0.019631,0,0.0042824,0,0,0,0.029346,0.0017555,0.0093305,1.7112,0.013477,0.024691,5.3485e-07,0.34,0.23,0
0.017226,0.005625,0.029242,0.0017091,0.0092853,0.00071841,0,0,0.051887,-0.019698,0,0.0037357,0,0,0,0.029261,0.0016904,0.0092853,1.4936,0.013412,0.024666,5.3157e-07,0.35,0.23,0
0.017744,0.0056596,0.02916,0.0016425,0.0092406,0.00061519,0,0,0.05179,-0.019755,0,0.003199,0,0,0,0.029173,0.0016287,0.0092406,1.2801,0.013348,0.024637,5.2812e-07,0.36,0.23,0
0.018261,0.0056875,0.029075,0.0015791,0.0091962,0.00051364,0,0,0.051685,-0.019805,0,0.0026709,0,0,0,0.029085,0.0015695,0.0091962,1.0698,0.013284,0.024605,5.2454e-07,0.37,0.23,0
0.018778,0.0057088,0.028989,0.0015177,0.0091519,0.00041354,0,0,0.051575,-0.019849,0,0.0021504,0,0,0,0.028995,0.0015115,0.0091519,0.86226,0.013219,0.024571,5.2089e-07,0.38,0.23,0
0.019293,0.0057236,0.028901,0.0014572,0.0091074,0.00031474,0,0,0.051463,-0.01989,0,0.0016367,0,0,0,0.028904,0.0014536,0.0091074,0.657,0.013155,0.024536,5.1721e-07,0.39,0.23,0
0.019807,0.005732,0.028812,0.0013963,0.0090625,0.00021715,0,0,0.051348,-0.019932,0,0.0011292,0,0,0,0.028814,0.0013946,0.0090625,0.45379,0.01309,0.024502,5.1356e-07,0.4,0.23,0
0.02032,0.0057342,0.028723,0.0013338,0.009017,0.00012076,0,0,0.051235,-0.019976,0,0.00062797,0,0,0,0.028723,0.0013333,0.009017,0.25262,0.013024,0.02447,5.0999e-07,0.41,0.23,0
0.020832,0.0057303,0.028634,0.0012685,0.0089706,2.5651e-05,0,0,0.051124,-0.020026,0,0.00013338,0,0,0,0.028634,0.0012684,0.0089706,0.053706,0.012958,0.024442,5.0655e-07,0.42,0.23,0
0.021342,0.0057203,0.028545,0.001199,0.0089233,-6.8001e-05,0,0,0.051017,-0.020083,0,-0.00035361,0,0,0,0.028546,0.0011988,0.0089233,-0.14247,0.012889,0.024419,5.0329e-07,0.43,0.23,0
0.021852,0.0057047,0.028458,0.0011243,0.0088748,-0.00015989,0,0,0.050917,-0.020151,0,-0.00083144,0,0,0,0.028459,0.0011233,0.0088748,-0.33514,0.012819,0.024402,5.0026e-07,0.44,0.23,0
0.022361,0.0056834,0.028373,0.0010431,0.0088248,-0.0002496,0,0,0.050825,-0.020232,0,-0.0012979,0,0,0,0.028375,0.0010409,0.0088248,-0.52322,0.012747,0.024392,4.9752e-07,0.45,0.23,0
0.022869,0.0056569,0.02829,0.00095459,0.0087734,-0.00033657,0,0,0.050744,-0.020329,0,-0.0017502,0,0,0,0.028294,0.00095045,0.0087734,-0.70531,0.012673,0.024392,4.9509e-07,0.46,0.23,0
0.023376,0.0056253,0.02821,0.00085774,0.0087204,-0.00042011,0,0,0.050674,-0.020443,0,-0.0021846,0,0,0,0.028217,0.00085129,0.0087204,-0.87974,0.012596,0.024402,4.9302e-07,0.47,0.23,0
0.023882,0.005589,0.028134,0.00075186,0.0086658,-0.00049942,0,0,0.050617,-0.020576,0,-0.002597,0,0,0,0.028143,0.00074275,0.0086658,-1.0446,0.012517,0.024422,4.9133e-07,0.48,0.23,0
0.024388,0.0055483,0.028062,0.00063645,0.0086094,-0.00057356,0,0,0.050576,-0.02073,0,-0.0029825,0,0,0,0.028074,0.00062446,0.0086094,-1.1976,0.012436,0.024455,4.9003e-07,0.49,0.23,0
0.024893,0.0055037,0.027994,0.00051127,0.0085515,-0.00064148,0,0,0.050549,-0.020904,0,-0.0033357,0,0,0,0.028008,0.00049631,0.0085515,-1.3364,0.012352,0.024499,4.8915e-07,0.5,0.23,0
0.025399,0.0054556,0.02793,0.00037638,0.008492,-0.00070209,0,0,0.050539,-0.021101,0,-0.0036509,0,0,0,0.027948,0.0003585,0.008492,-1.4587,0.012266,0.024555,4.8866e-07,0.51,0.23,0
0.025904,0.0054046,0.027872,0.00023216,0.0084312,-0.00075421,0,0,0.050545,-0.021317,0,-0.0039219,0,0,0,0.027892,0.00021159,0.0084312,-1.5619,0.012178,0.024622,4.8857e-07,0.52,0.23,0
0.02641,0.0053512,0.027818,7.9366e-05,0.0083692,-0.0007967,0,0,0.050567,-0.021554,0,-0.0041428,0,0,0,0.027841,5.6503e-05,0.0083692,-1.6438,0.012089,0.024701,4.8883e-07,0.53,0.23,0
0.026916,0.005296,0.027769,-8.0858e-05,0.0083066,-0.00082841,0,0,0.050604,-0.021807,0,-0.0043077,0,0,0,0.027794,-0.00010548,0.0083066,-1.7023,0.011998,0.024788,4.894e-07,0.54,0.23,0
0.027422,0.0052398,0.027726,-0.00024699,0.0082436,-0.00084832,0,0,0.050653,-0.022076,0,-0.0044113,0,0,0,0.027751,-0.00027269,0.0082436,-1.7355,0.011907,0.024884,4.9024e-07,0.55,0.23,0
0.027929,0.0051832,0.027686,-0.0004171,0.0081807,-0.00085554,0,0,0.050714,-0.022354,0,-0.0044488,0,0,0,0.027712,-0.00044312,0.0081807,-1.7421,0.011817,0.024986,4.9128e-07,0.56,0.23,0
0.028436,0.0051269,0.027651,-0.00058895,0.0081186,-0.00084939,0,0,0.050784,-0.02264,0,-0.0044168,0,0,0,0.027677,-0.00061448,0.0081186,-1.7212,0.011727,0.025091,4.9246e-07,0.57,0.23,0
0.028944,0.0050719,0.02762,-0.00075996,0.0080579,-0.00082942,0,0,0.05086,-0.022926,0,-0.004313,0,0,0,0.027644,-0.00078418,0.0080579,-1.6726,0.011639,0.025198,4.9372e-07,0.58,0.23,0
0.029453,0.0050188,0.027591,-0.00092734,0.0079992,-0.00079551,0,0,0.050939,-0.023209,0,-0.0041367,0,0,0,0.027613,-0.00094951,0.0079992,-1.5966,0.011554,0.025305,4.9497e-07,0.59,0.23,0
0.029963,0.0049685,0.027565,-0.0010881,0.0079432,-0.00074786,0,0,0.051018,-0.023481,0,-0.0038889,0,0,0,0.027585,-0.0011076,0.0079432,-1.4941,0.011473,0.025406,4.9617e-07,0.6,0.23,0
0.030474,0.0049216,0.027542,-0.0012394,0.0078908,-0.00068701,0,0,0.051093,-0.023738,0,-0.0035725,0,0,0,0.027558,-0.0012558,0.0078908,-1.3666,0.011398,0.025502,4.9724e-07,0.61,0.23,0
0.030985,0.0048789,0.02752,-0.0013783,0.0078426,-0.00061387,0,0,0.051162,-0.023974,0,-0.0031921,0,0,0,0.027533,-0.0013914,0.0078426,-1.2164,0.011328,0.025589,4.9814e-07,0.62,0.23,0
0.031497,0.0048411,0.0275,-0.0015022,0.0077993,-0.00052962,0,0,0.051221,-0.024184,0,-0.002754,0,0,0,0.027509,-0.0015119,0.0077993,-1.0458,0.011266,0.025665,4.9884e-07,0.63,0.23,0
0.03201,0.0048088,0.027481,-0.0016088,0.0077615,-0.0004357,0,0,0.05127,-0.024363,0,-0.0022657,0,0,0,0.027487,-0.0016154,0.0077615,-0.85793,0.011211,0.025729,4.9932e-07,0.64,0.23,0
0.032522,0.0047825,0.027462,-0.0016963,0.0077298,-0.00033372,0,0,0.051305,-0.024508,0,-0.0017354,0,0,0,0.027466,-0.0017001,0.0077298,-0.65563,0.011165,0.025779,4.9955e-07,0.65,0.23,0
0.033036,0.0047627,0.027445,-0.0017632,0.0077047,-0.00022534,0,0,0.051326,-0.024616,0,-0.0011718,0,0,0,0.027447,-0.0017649,0.0077047,-0.44199,0.011129,0.025815,4.9956e-07,0.66,0.23,0
0.033549,0.0047495,0.027429,-0.0018085,0.0076863,-0.00011223,0,0,0.051332,-0.024686,0,-0.00058362,0,0,0,0.02743,-0.0018089,0.0076863,-0.21993,0.011102,0.025835,4.9933e-07,0.67,0.23,0
0.034062,0.0047434,0.027415,-0.0018315,0.007675,3.9591e-06,0,0,0.051324,-0.024717,0,2.0587e-05,0,0,0,0.027415,-0.0018315,0.007675,0.0077562,0.011086,0.02584,4.9887e-07,0.68,0.23,0
0.034575,0.0047444,0.027401,-0.001832,0.0076708,0.00012165,0,0,0.051299,-0.024707,0,0.00063258,0,0,0,0.027402,-0.0018325,0.0076708,0.23842,0.01108,0.025829,4.9819e-07,0.69,0.23,0
0.035088,0.0047526,0.027389,-0.0018098,0.0076738,0.00023926,0,0,0.05126,-0.024657,0,0.0012441,0,0,0,0.027391,-0.0018117,0.0076738,0.46945,0.011084,0.025802,4.9729e-07,0.7,0.23,0
0.035601,0.0047678,0.027377,-0.0017651,0.0076837,0.00035518,0,0,0.051204,-0.024567,0,0.0018469,0,0,0,0.027382,-0.0017694,0.0076837,0.69817,0.011099,0.02576,4.9614e-07,0.71,0.23,0
0.036112,0.00479,0.027367,-0.0016984,0.0077005,0.00046777,0,0,0.051132,-0.024437,0,0.0024324,0,0,0,0.027374,-0.0017059,0.0077005,0.92179,0.011123,0.025702,4.9474e-07,0.72,0.23,0
0.036623,0.0048188,0.027356,-0.0016106,0.0077237,0.00057531,0,0,0.051045,-0.024269,0,0.0029916,0,0,0,0.027368,-0.0016221,0.0077237,1.1373,0.011156,0.025628,4.9306e-07,0.73,0.23,0
0.037133,0.004854,0.027346,-0.001503,0.007753,0.00067608,0,0,0.050942,-0.024066,0,0.0035156,0,0,0,0.027362,-0.0015188,0.007753,1.3417,0.011199,0.02554,4.9111e-07,0.74,0.23,0
0.037642,0.0048949,0.027336,-0.0013773,0.0077877,0.0007684,0,0,0.050826,-0.023829,0,0.0039957,0,0,0,0.027357,-0.0013978,0.0077877,1.5318,0.011249,0.025438,4.8887e-07,0.75,0.23,0
0.03815,0.0049412,0.027326,-0.0012356,0.0078271,0.00085076,0,0,0.050697,-0.023563,0,0.004424,0,0,0,0.027351,-0.001261,0.0078271,1.7046,0.011306,0.025323,4.8636e-07,0.76,0.23,0
0.038656,0.0049922,0.027316,-0.0010806,0.0078707,0.00092185,0,0,0.050559,-0.023273,0,0.0047936,0,0,0,0.027346,-0.0011105,0.0078707,1.8574,0.011369,0.025197,4.8361e-07,0.77,0.23,0
0.039161,0.0050472,0.027307,-0.00091509,0.0079176,0.00098064,0,0,0.050413,-0.022965,0,0.0050993,0,0,0,0.027341,-0.00094912,0.0079176,1.9877,0.011437,0.025062,4.8063e-07,0.78,0.23,0
0.039664,0.0051055,0.027299,-0.00074197,0.007967,0.0010264,0,0,0.050262,-0.022643,0,0.0053375,0,0,0,0.027336,-0.00077949,0.007967,2.0936,0.011508,0.024921,4.7749e-07,0.79,0.23,0
0.040166,0.0051664,0.027291,-0.00056428,0.0080182,0.0010589,0,0,0.050111,-0.022314,0,0.0055065,0,0,0,0.027332,-0.00060448,0.0080182,2.1739,0.011582,0.024777,4.7424e-07,0.8,0.23,0
0.040667,0.005229,0.027286,-0.00038495,0.0080703,0.0010781,0,0,0.04996,-0.021984,0,0.0056063,0,0,0,0.027328,-0.00042689,0.0080703,2.2279,0.011657,0.024631,4.7094e-07,0.81,0.23,0
0.041165,0.0052928,0.027282,-0.0002067,0.0081226,0.0010843,0,0,0.049815,-0.021656,0,0.0056385,0,0,0,0.027325,-0.00024941,0.0081226,2.2554,0.011733,0.024486,4.6764e-07,0.82,0.23,0
0.041663,0.0053569,0.027281,-3.2037e-05,0.0081746,0.0010781,0,0,0.049676,-0.021337,0,0.0056061,0,0,0,0.027323,-7.4526e-05,0.0081746,2.2569,0.011808,0.024345,4.6442e-07,0.83,0.23,0
0.042159,0.0054206,0.027282,0.00013688,0.0082255,0.0010602,0,0,0.049546,-0.021031,0,0.0055132,0,0,0,0.027323,9.5528e-05,0.0082255,2.2334,0.011881,0.024209,4.6131e-07,0.84,0.23,0
0.042654,0.0054834,0.027285,0.0002982,0.008275,0.0010317,0,0,0.049426,-0.02074,0,0.005365,0,0,0,0.027324,0.00025881,0.008275,2.1862,0.011953,0.02408,4.5838e-07,0.85,0.23,0
0.043147,0.0055445,0.027291,0.00045045,0.0083224,0.00099366,0,0,0.049318,-0.020467,0,0.0051671,0,0,0,0.027328,0.00041371,0.0083224,2.1173,0.012021,0.023959,4.5566e-07,0.86,0.23,0
0.04364,0.0056034,0.027299,0.00059249,0.0083675,0.00094717,0,0,0.049222,-0.020215,0,0.0049253,0,0,0,0.027333,0.00055894,0.0083675,2.0286,0.012086,0.023848,4.5318e-07,0.87,0.23,0
0.044132,0.0056597,0.027309,0.00072351,0.0084099,0.0008934,0,0,0.049139,-0.019985,0,0.0046457,0,0,0,0.027339,0.00069353,0.0084099,1.9225,0.012148,0.023747,4.5096e-07,0.88,0.23,0
0.044623,0.0057129,0.027321,0.00084303,0.0084493,0.00083349,0,0,0.049068,-0.019776,0,0.0043342,0,0,0,0.027348,0.00081682,0.0084493,1.8012,0.012205,0.023657,4.4901e-07,0.89,0.23,0
0.045113,0.0057625,0.027335,0.0009508,0.0084857,0.00076851,0,0,0.049008,-0.019591,0,0.0039963,0,0,0,0.027357,0.00092843,0.0084857,1.667,0.012257,0.023577,4.4733e-07,0.9,0.23,0
0.045603,0.0058083,0.027349,0.0010468,0.0085188,0.00069945,0,0,0.048959,-0.019427,0,0.0036371,0,0,0,0.027368,0.0010282,0.0085188,1.5222,0.012305,0.023507,4.459e-07,0.91,0.23,0
0.046092,0.0058499,0.027364,0.0011312,0.0085485,0.00062716,0,0,0.04892,-0.019285,0,0.0032612,0,0,0,0.027379,0.0011162,0.0085485,1.3688,0.012348,0.023447,4.4472e-07,0.92,0.23,0
0.046581,0.0058871,0.027378,0.0012044,0.0085747,0.00055242,0,0,0.048889,-0.019163,0,0.0028726,0,0,0,0.02739,0.0011927,0.0085747,1.2086,0.012386,0.023396,4.4377e-07,0.93,0.23,0
0.04707,0.0059198,0.027392,0.0012665,0.0085975,0.00047585,0,0,0.048865,-0.019061,0,0.0024744,0,0,0,0.027401,0.0012579,0.0085975,1.0431,0.012419,0.023355,4.4301e-07,0.94,0.23,0
0.047559,0.0059476,0.027404,0.0013182,0.0086168,0.00039797,0,0,0.048848,-0.018976,0,0.0020694,0,0,0,0.027411,0.0013122,0.0086168,0.87383,0.012446,0.02332,4.4242e-07,0.95,0.23,0
0.048047,0.0059706,0.027415,0.0013598,0.0086326,0.00031918,0,0,0.048835,-0.018909,0,0.0016597,0,0,0,0.027419,0.0013559,0.0086326,0.70174,0.012469,0.023294,4.4198e-07,0.96,0.23,0
0.048535,0.0059886,0.027424,0.0013917,0.0086448,0.0002398,0,0,0.048827,-0.018858,0,0.0012469,0,0,0,0.027427,0.0013895,0.0086448,0.52772,0.012487,0.023274,4.4167e-07,0.97,0.23,0
0.049024,0.0060015,0.027431,0.0014143,0.0086536,0.00016004,0,0,0.048821,-0.018822,0,0.0008322,0,0,0,0.027432,0.0014133,0.0086536,0.35243,0.0125,0.02326,4.4146e-07,0.98,0.23,0
0.049512,0.0060092,0.027435,0.0014277,0.0086588,8.0067e-05,0,0,0.048818,-0.018801,0,0.00041635,0,0,0,0.027435,0.0014275,0.0086588,0.17639,0.012507,0.023251,4.4134e-07,0.99,0.23,0
0.05,0.0060118,0.027436,0.0014322,0.0086606,4.9767e-05,0,0,0.048817,-0.018794,0,0.00025879,0,0,0,0.027436,0.0014321,0.0086606,0.10965,0.01251,0.023249,4.413e-07,1,0.23,0
0,0,0.027814,0.01192,0.01192,0.0045709,0,0,0.041323,7.5894e-19,0,0.023769,0,0,0,0.029035,0.010699,0.01192,14.953,0.017218,0.017756,2.8295e-07,0,0.24,0
0.00041323,0.00023769,0.027771,0.011399,0.011751,0.0045657,0,0,0.041652,-0.00091542,0,0.023742,0,0,0,0.028958,0.010212,0.011751,14.575,0.016974,0.018026,2.9346e-07,0.01,0.24,0
0.00083304,0.00047426,0.027947,0.01096,0.011672,0.0045447,0,0,0.042314,-0.0018513,0,0.023632,0,0,0,0.029086,0.0098206,0.011672,14.075,0.01686,0.01841,3.0956e-07,0.02,0.24,0
0.0012595,0.00070941,0.028123,0.010513,0.011591,0.0045145,0,0,0.042984,-0.0028026,0,0.023475,0,0,0,0.029213,0.0094229,0.011591,13.572,0.016742,0.0188,3.2602e-07,0.03,0.24,0
0.0016927,0.00094276,0.028298,0.01006,0.011507,0.0044739,0,0,0.043656,-0.0037637,0,0.023265,0,0,0,0.029336,0.0090214,0.011507,13.066,0.016622,0.019193,3.4268e-07,0.04,0.24,0
0.0021326,0.0011739,0.02847,0.0096035,0.011422,0.0044222,0,0,0.044325,-0.0047284,0,0.022996,0,0,0,0.029455,0.0086184,0.011422,12.558,0.016499,0.019586,3.5938e-07,0.05,0.24,0
0.0025792,0.0014023,0.028638,0.009147,0.011336,0.0043588,0,0,0.044987,-0.0056902,0,0.022666,0,0,0,0.029569,0.0082167,0.011336,12.049,0.016374,0.019976,3.7597e-07,0.06,0.24,0
0.0030324,0.0016276,0.0288,0.0086932,0.011248,0.0042836,0,0,0.045636,-0.0066428,0,0.022275,0,0,0,0.029675,0.0078186,0.011248,11.539,0.016247,0.020359,3.923e-07,0.07,0.24,0
0.003492,0.0018492,0.028955,0.0082448,0.01116,0.0041969,0,0,0.046268,-0.0075798,0,0.021824,0,0,0,0.029774,0.0074266,0.01116,11.031,0.01612,0.020734,4.0821e-07,0.08,0.24,0
0.0039577,0.0020667,0.029102,0.0078044,0.011072,0.0040992,0,0,0.046878,-0.0084954,0,0.021316,0,0,0,0.029864,0.0070426,0.011072,10.527,0.015993,0.021097,4.2357e-07,0.09,0.24,0
0.0044295,0.0022795,0.029239,0.0073745,0.010984,0.0039913,0,0,0.047462,-0.0093845,0,0.020755,0,0,0,0.029944,0.0066687,0.010984,10.029,0.015866,0.021446,4.3827e-07,0.1,0.24,0
0.004907,0.0024874,0.029365,0.0069572,0.010897,0.0038744,0,0,0.048017,-0.010242,0,0.020147,0,0,0,0.030016,0.0063062,0.010897,9.5379,0.01574,0.02178,4.5221e-07,0.11,0.24,0
0.0053898,0.0026897,0.02948,0.0065543,0.01081,0.0037495,0,0,0.048541,-0.011065,0,0.019497,0,0,0,0.030077,0.0059567,0.01081,9.0565,0.015615,0.022097,4.6531e-07,0.12,0.24,0
0.0058778,0.0028862,0.029583,0.0061673,0.010725,0.0036179,0,0,0.04903,-0.01185,0,0.018813,0,0,0,0.030129,0.0056211,0.010725,8.5861,0.015492,0.022396,4.7751e-07,0.13,0.24,0
0.0063704,0.0030766,0.029674,0.0057974,0.010641,0.0034811,0,0,0.049485,-0.012594,0,0.018102,0,0,0,0.030171,0.0053002,0.010641,8.128,0.015371,0.022677,4.8877e-07,0.14,0.24,0
0.0068675,0.0032605,0.029753,0.0054453,0.010559,0.0033402,0,0,0.049903,-0.013297,0,0.017369,0,0,0,0.030204,0.0049946,0.010559,7.6835,0.015253,0.022939,4.9905e-07,0.15,0.24,0
0.0073685,0.0034376,0.02982,0.0051116,0.010479,0.0031965,0,0,0.050285,-0.013956,0,0.016622,0,0,0,0.030227,0.0047048,0.010479,7.2533,0.015137,0.02318,5.0836e-07,0.16,0.24,0
0.0078732,0.0036079,0.029875,0.0047967,0.010401,0.0030512,0,0,0.050631,-0.014573,0,0.015866,0,0,0,0.030241,0.0044308,0.010401,6.8381,0.015024,0.023403,5.1669e-07,0.17,0.24,0
0.0083811,0.003771,0.029919,0.0045005,0.010326,0.0029053,0,0,0.050942,-0.015146,0,0.015108,0,0,0,0.030246,0.0041726,0.010326,6.4384,0.014915,0.023607,5.2406e-07,0.18,0.24,0
0.008892,0.003927,0.029951,0.004223,0.010252,0.0027598,0,0,0.051217,-0.015676,0,0.014351,0,0,0,0.030244,0.0039303,0.010252,6.0543,0.014809,0.023791,5.3048e-07,0.19,0.24,0
0.0094055,0.0040756,0.029973,0.0039638,0.010181,0.0026156,0,0,0.051459,-0.016165,0,0.013601,0,0,0,0.030233,0.0037034,0.010181,5.686,0.014706,0.023957,5.36e-07,0.2,0.24,0
0.0099212,0.0042169,0.029985,0.0037225,0.010112,0.0024731,0,0,0.051669,-0.016613,0,0.01286,0,0,0,0.030216,0.0034917,0.010112,5.3331,0.014606,0.024105,5.4063e-07,0.21,0.24,0
0.010439,0.0043507,0.029987,0.0034986,0.010046,0.0023331,0,0,0.051847,-0.017022,0,0.012132,0,0,0,0.030191,0.0032947,0.010046,4.9955,0.01451,0.024236,5.4443e-07,0.22,0.24,0
0.010958,0.0044771,0.02998,0.0032914,0.0099814,0.002196,0,0,0.051996,-0.017394,0,0.011419,0,0,0,0.030159,0.0031119,0.0099814,4.6726,0.014418,0.024351,5.4742e-07,0.23,0.24,0
0.011479,0.0045961,0.029965,0.0031003,0.0099194,0.002062,0,0,0.052117,-0.01773,0,0.010722,0,0,0,0.030122,0.0029429,0.0099194,4.3638,0.014328,0.024449,5.4965e-07,0.24,0.24,0
0.012001,0.0047077,0.029941,0.0029243,0.0098596,0.0019314,0,0,0.052212,-0.018032,0,0.010043,0,0,0,0.030078,0.002787,0.0098596,4.0685,0.014242,0.024532,5.5117e-07,0.25,0.24,0
0.012523,0.0048119,0.02991,0.0027629,0.0098019,0.0018043,0,0,0.052281,-0.018301,0,0.0093823,0,0,0,0.030029,0.0026435,0.0098019,3.7859,0.014158,0.024601,5.5201e-07,0.26,0.24,0
0.013046,0.0049088,0.029872,0.002615,0.0097461,0.0016807,0,0,0.052327,-0.018541,0,0.0087394,0,0,0,0.029975,0.0025118,0.0097461,3.5151,0.014078,0.024656,5.5223e-07,0.27,0.24,0
0.013569,0.0049985,0.029827,0.0024799,0.0096922,0.0015605,0,0,0.052351,-0.018752,0,0.0081145,0,0,0,0.029916,0.0023912,0.0096922,3.2553,0.014,0.024698,5.5185e-07,0.28,0.24,0
0.014093,0.0050809,0.029776,0.0023566,0.0096399,0.0014436,0,0,0.052355,-0.018936,0,0.0075068,0,0,0,0.029852,0.0022808,0.0096399,3.0055,0.013924,0.024727,5.5092e-07,0.29,0.24,0
0.014617,0.0051563,0.02972,0.0022443,0.0095892,0.0013299,0,0,0.052339,-0.019097,0,0.0069156,0,0,0,0.029784,0.00218,0.0095892,2.7647,0.013851,0.024746,5.495e-07,0.3,0.24,0
0.01514,0.0052245,0.029658,0.0021418,0.0095399,0.0012191,0,0,0.052306,-0.019235,0,0.0063396,0,0,0,0.029712,0.0020879,0.0095399,2.532,0.01378,0.024754,5.4761e-07,0.31,0.24,0
0.015663,0.0052858,0.029591,0.0020484,0.0094917,0.001111,0,0,0.052257,-0.019353,0,0.0057774,0,0,0,0.029635,0.0020036,0.0094917,2.3063,0.01371,0.024752,5.4531e-07,0.32,0.24,0
0.016185,0.0053402,0.029519,0.0019628,0.0094446,0.0010053,0,0,0.052194,-0.019453,0,0.0052277,0,0,0,0.029556,0.0019262,0.0094446,2.0866,0.013642,0.024742,5.4263e-07,0.33,0.24,0
0.016707,0.0053877,0.029443,0.0018842,0.0093982,0.0009017,0,0,0.052117,-0.019536,0,0.0046888,0,0,0,0.029473,0.0018547,0.0093982,1.872,0.013575,0.024725,5.3963e-07,0.34,0.24,0
0.017227,0.0054285,0.029363,0.0018113,0.0093524,0.00079987,0,0,0.052029,-0.019607,0,0.0041593,0,0,0,0.029387,0.0017882,0.0093524,1.6615,0.013509,0.024701,5.3635e-07,0.35,0.24,0
0.017747,0.0054625,0.02928,0.0017431,0.009307,0.00069956,0,0,0.05193,-0.019666,0,0.0036377,0,0,0,0.029298,0.0017254,0.009307,1.4543,0.013443,0.024671,5.3284e-07,0.36,0.24,0
0.018266,0.0054899,0.029194,0.0016784,0.0092617,0.00060048,0,0,0.051824,-0.019716,0,0.0031225,0,0,0,0.029207,0.0016653,0.0092617,1.2496,0.013378,0.024638,5.2914e-07,0.37,0.24,0
0.018784,0.0055108,0.029105,0.001616,0.0092162,0.00050241,0,0,0.05171,-0.019761,0,0.0026125,0,0,0,0.029114,0.0016068,0.0092162,1.0467,0.013312,0.024602,5.2532e-07,0.38,0.24,0
0.0193,0.0055252,0.029014,0.0015545,0.0091705,0.00040517,0,0,0.051592,-0.019801,0,0.0021069,0,0,0,0.02902,0.0015485,0.0091705,0.84518,0.013246,0.024564,5.2143e-07,0.39,0.24,0
0.019815,0.0055332,0.028921,0.0014927,0.0091241,0.00030863,0,0,0.051472,-0.019842,0,0.0016049,0,0,0,0.028924,0.0014892,0.0091241,0.64461,0.013179,0.024526,5.1752e-07,0.4,0.24,0
0.02033,0.0055349,0.028827,0.0014293,0.0090769,0.00021276,0,0,0.05135,-0.019884,0,0.0011064,0,0,0,0.028829,0.0014276,0.0090769,0.4449,0.013111,0.024489,5.1365e-07,0.41,0.24,0
0.020843,0.0055305,0.028732,0.0013629,0.0090286,0.0001176,0,0,0.05123,-0.019931,0,0.00061152,0,0,0,0.028733,0.0013624,0.0090286,0.24618,0.013041,0.024456,5.0988e-07,0.42,0.24,0
0.021354,0.00552,0.028638,0.0012921,0.008979,2.3313e-05,0,0,0.051113,-0.019986,0,0.00012123,0,0,0,0.028638,0.0012921,0.008979,0.048847,0.01297,0.024427,5.0627e-07,0.43,0.24,0
0.021865,0.0055037,0.028544,0.0012158,0.008928,-6.9815e-05,0,0,0.051002,-0.020052,0,-0.00036304,0,0,0,0.028544,0.0012156,0.008928,-0.14637,0.012896,0.024404,5.0286e-07,0.44,0.24,0
0.022374,0.0054816,0.028451,0.0011326,0.0088752,-0.00016137,0,0,0.050898,-0.020131,0,-0.00083911,0,0,0,0.028452,0.0011316,0.0088752,-0.33842,0.01282,0.024389,4.9973e-07,0.45,0.24,0
0.022883,0.0054541,0.028361,0.0010413,0.0088206,-0.00025078,0,0,0.050804,-0.020226,0,-0.001304,0,0,0,0.028363,0.001039,0.0088206,-0.52589,0.012741,0.024383,4.969e-07,0.46,0.24,0
0.02339,0.0054214,0.028272,0.00094097,0.008764,-0.00033734,0,0,0.050722,-0.02034,0,-0.0017542,0,0,0,0.028276,0.0009368,0.008764,-0.70704,0.012659,0.024387,4.9443e-07,0.47,0.24,0
0.023897,0.0053837,0.028187,0.0008307,0.0087054,-0.0004202,0,0,0.050653,-0.020474,0,-0.002185,0,0,0,0.028194,0.00082424,0.0087054,-0.87979,0.012574,0.024403,4.9234e-07,0.48,0.24,0
0.024403,0.0053415,0.028105,0.00070987,0.0086446,-0.00049835,0,0,0.050598,-0.02063,0,-0.0025914,0,0,0,0.028115,0.00070081,0.0086446,-1.0418,0.012487,0.024431,4.9067e-07,0.49,0.24,0
0.024909,0.0052951,0.028028,0.00057814,0.0085818,-0.00057069,0,0,0.05056,-0.02081,0,-0.0029676,0,0,0,0.02804,0.00056628,0.0085818,-1.1905,0.012396,0.024471,4.8941e-07,0.5,0.24,0
0.025415,0.0052451,0.027955,0.0004355,0.0085171,-0.00063599,0,0,0.050538,-0.021012,0,-0.0033072,0,0,0,0.027969,0.00042081,0.0085171,-1.3232,0.012302,0.024524,4.8857e-07,0.51,0.24,0
0.02592,0.0051918,0.027886,0.00028229,0.0084505,-0.000693,0,0,0.050533,-0.021237,0,-0.0036036,0,0,0,0.027904,0.0002649,0.0084505,-1.4372,0.012206,0.02459,4.8814e-07,0.52,0.24,0
0.026425,0.005136,0.027823,0.00011928,0.0083825,-0.00074042,0,0,0.050544,-0.021485,0,-0.0038502,0,0,0,0.027842,9.9509e-05,0.0083825,-1.5299,0.012108,0.024667,4.8808e-07,0.53,0.24,0
0.026931,0.0050782,0.027764,-5.2315e-05,0.0083134,-0.000777,0,0,0.050571,-0.021751,0,-0.0040404,0,0,0,0.027785,-7.4002e-05,0.0083134,-1.5988,0.012008,0.024755,4.8835e-07,0.54,0.24,0
0.027437,0.0050192,0.02771,-0.00023086,0.0082436,-0.0008016,0,0,0.050611,-0.022034,0,-0.0041683,0,0,0,0.027732,-0.00025383,0.0082436,-1.642,0.011907,0.024852,4.8889e-07,0.55,0.24,0
0.027943,0.0049597,0.02766,-0.00041425,0.0081737,-0.0008132,0,0,0.050664,-0.022329,0,-0.0042287,0,0,0,0.027683,-0.00043779,0.0081737,-1.6578,0.011806,0.024956,4.8966e-07,0.56,0.24,0
0.02845,0.0049006,0.027614,-0.0006,0.0081043,-0.00081103,0,0,0.050726,-0.022631,0,-0.0042174,0,0,0,0.027638,-0.00062329,0.0081043,-1.6452,0.011706,0.025064,4.9056e-07,0.57,0.24,0
0.028958,0.0048426,0.027573,-0.00078523,0.0080362,-0.00079457,0,0,0.050795,-0.022936,0,-0.0041318,0,0,0,0.027595,-0.00080748,0.0080362,-1.6037,0.011608,0.025174,4.9154e-07,0.58,0.24,0
0.029466,0.0047865,0.027534,-0.00096681,0.0079703,-0.00076367,0,0,0.050867,-0.023236,0,-0.0039711,0,0,0,0.027555,-0.00098725,0.0079703,-1.5337,0.011513,0.025283,4.9252e-07,0.59,0.24,0
0.029975,0.0047334,0.027499,-0.0011414,0.0079073,-0.00071852,0,0,0.050938,-0.023527,0,-0.0037363,0,0,0,0.027517,-0.0011594,0.0079073,-1.4362,0.011422,0.025388,4.9343e-07,0.6,0.24,0
0.030485,0.0046838,0.027466,-0.0013057,0.0078481,-0.00065974,0,0,0.051007,-0.0238,0,-0.0034306,0,0,0,0.027481,-0.0013208,0.0078481,-1.3129,0.011336,0.025486,4.9421e-07,0.61,0.24,0
0.030995,0.0046388,0.027435,-0.0014565,0.0077936,-0.00058832,0,0,0.051068,-0.02405,0,-0.0030593,0,0,0,0.027447,-0.0014685,0.0077936,-1.1661,0.011258,0.025575,4.9482e-07,0.62,0.24,0
0.031506,0.0045988,0.027406,-0.0015908,0.0077447,-0.00050562,0,0,0.051121,-0.024272,0,-0.0026292,0,0,0,0.027415,-0.0015996,0.0077447,-0.99865,0.011187,0.025653,4.9523e-07,0.63,0.24,0
0.032017,0.0045647,0.02738,-0.0017062,0.007702,-0.00041323,0,0,0.051162,-0.024462,0,-0.0021488,0,0,0,0.027386,-0.0017121,0.007702,-0.8138,0.011125,0.025717,4.9543e-07,0.64,0.24,0
0.032529,0.0045369,0.027355,-0.0018008,0.0076663,-0.0003129,0,0,0.05119,-0.024614,0,-0.0016271,0,0,0,0.027358,-0.0018041,0.0076663,-0.6148,0.011074,0.025767,4.9542e-07,0.65,0.24,0
0.033041,0.0045159,0.027333,-0.001873,0.0076379,-0.00020639,0,0,0.051206,-0.024728,0,-0.0010732,0,0,0,0.027334,-0.0018744,0.0076379,-0.40486,0.011033,0.025803,4.9523e-07,0.66,0.24,0
0.033553,0.004502,0.027313,-0.0019219,0.0076173,-9.5379e-05,0,0,0.051209,-0.024802,0,-0.00049597,0,0,0,0.027313,-0.0019223,0.0076173,-0.18692,0.011003,0.025823,4.9486e-07,0.67,0.24,0
0.034065,0.0044956,0.027296,-0.0019472,0.0076048,1.8569e-05,0,0,0.051198,-0.024835,0,9.6557e-05,0,0,0,0.027296,-0.0019472,0.0076048,0.036381,0.010985,0.025828,4.9434e-07,0.68,0.24,0
0.034577,0.0044967,0.027283,-0.0019484,0.0076003,0.00013402,0,0,0.051174,-0.024827,0,0.00069688,0,0,0,0.027283,-0.001949,0.0076003,0.26268,0.010978,0.025818,4.9367e-07,0.69,0.24,0
0.035089,0.0045053,0.027272,-0.0019255,0.007604,0.00024957,0,0,0.051137,-0.024777,0,0.0012977,0,0,0,0.027274,-0.0019276,0.007604,0.48968,0.010984,0.025793,4.9286e-07,0.7,0.24,0
0.0356,0.0045215,0.027264,-0.0018786,0.0076157,0.00036377,0,0,0.051086,-0.024685,0,0.0018916,0,0,0,0.027269,-0.0018832,0.0076157,0.71504,0.011,0.025752,4.9189e-07,0.71,0.24,0
0.036111,0.004545,0.027259,-0.0018081,0.0076351,0.00047507,0,0,0.051021,-0.024552,0,0.0024704,0,0,0,0.027266,-0.0018158,0.0076351,0.93612,0.011029,0.025695,4.9072e-07,0.72,0.24,0
0.036621,0.0045755,0.027254,-0.0017147,0.0076619,0.00058174,0,0,0.05094,-0.024379,0,0.003025,0,0,0,0.027266,-0.0017264,0.0076619,1.15,0.011067,0.025622,4.8932e-07,0.73,0.24,0
0.03713,0.0046127,0.027252,-0.0015996,0.0076956,0.00068198,0,0,0.050846,-0.024168,0,0.0035463,0,0,0,0.027268,-0.0016158,0.0076956,1.3533,0.011116,0.025535,4.8767e-07,0.74,0.24,0
0.037637,0.0046562,0.02725,-0.0014648,0.0077355,0.00077396,0,0,0.050737,-0.023921,0,0.0040246,0,0,0,0.027271,-0.0014856,0.0077355,1.5428,0.011173,0.025432,4.8575e-07,0.75,0.24,0
0.038144,0.0047052,0.027249,-0.0013125,0.0077808,0.00085599,0,0,0.050616,-0.023643,0,0.0044512,0,0,0,0.027274,-0.0013381,0.0077808,1.7151,0.011239,0.025316,4.8357e-07,0.76,0.24,0
0.03865,0.0047591,0.027248,-0.0011455,0.0078307,0.0009266,0,0,0.050485,-0.023338,0,0.0048183,0,0,0,0.027278,-0.0011757,0.0078307,1.8672,0.011311,0.025189,4.8112e-07,0.77,0.24,0
0.039154,0.0048173,0.027248,-0.00096706,0.0078844,0.00098466,0,0,0.050346,-0.023014,0,0.0051202,0,0,0,0.027283,-0.0010014,0.0078844,1.9963,0.011388,0.025052,4.7846e-07,0.78,0.24,0
0.039657,0.0048789,0.027249,-0.00078051,0.0079407,0.0010294,0,0,0.050203,-0.022675,0,0.0053529,0,0,0,0.027287,-0.00081827,0.0079407,2.1004,0.01147,0.024909,4.7561e-07,0.79,0.24,0
0.040158,0.0049431,0.027252,-0.00058923,0.0079988,0.0010605,0,0,0.050058,-0.022329,0,0.0055144,0,0,0,0.027292,-0.00062957,0.0079988,2.1782,0.011554,0.024762,4.7265e-07,0.8,0.24,0
0.040658,0.0050092,0.027256,-0.00039649,0.0080579,0.0010778,0,0,0.049916,-0.021982,0,0.0056048,0,0,0,0.027298,-0.00043844,0.0080579,2.2288,0.011639,0.024614,4.6962e-07,0.81,0.24,0
0.041156,0.0050763,0.027262,-0.00020533,0.0081171,0.0010819,0,0,0.049778,-0.021638,0,0.005626,0,0,0,0.027305,-0.00024788,0.0081171,2.2522,0.011725,0.024467,4.666e-07,0.82,0.24,0
0.041653,0.0051437,0.027271,-1.8506e-05,0.0081757,0.0010734,0,0,0.049647,-0.021305,0,0.0055816,0,0,0,0.027313,-6.066e-05,0.0081757,2.249,0.011809,0.024325,4.6364e-07,0.83,0.24,0
0.042149,0.0052106,0.027281,0.00016161,0.0082329,0.0010531,0,0,0.049526,-0.020985,0,0.005476,0,0,0,0.027322,0.00012078,0.0082329,2.2204,0.011892,0.024188,4.6081e-07,0.84,0.24,0
0.042644,0.0052762,0.027294,0.00033303,0.0082882,0.0010221,0,0,0.049416,-0.020684,0,0.0053151,0,0,0,0.027333,0.00029434,0.0082882,2.168,0.011972,0.024059,4.5816e-07,0.85,0.24,0
0.043138,0.0053401,0.02731,0.00049419,0.0083412,0.00098171,0,0,0.049318,-0.020402,0,0.0051049,0,0,0,0.027346,0.0004583,0.0083412,2.0939,0.012048,0.02394,4.5572e-07,0.86,0.24,0
0.04363,0.0054017,0.027327,0.00064392,0.0083913,0.00093309,0,0,0.049233,-0.020143,0,0.0048521,0,0,0,0.02736,0.00061133,0.0083913,2.0003,0.012121,0.023831,4.5354e-07,0.87,0.24,0
0.044122,0.0054603,0.027346,0.00078142,0.0084383,0.00087752,0,0,0.049161,-0.019908,0,0.0045631,0,0,0,0.027375,0.00075246,0.0084383,1.8899,0.012189,0.023732,4.5162e-07,0.88,0.24,0
0.044614,0.0055155,0.027367,0.00090626,0.0084819,0.00081624,0,0,0.049101,-0.019697,0,0.0042444,0,0,0,0.027392,0.0008811,0.0084819,1.7652,0.012252,0.023645,4.4997e-07,0.89,0.24,0
0.045104,0.005567,0.027388,0.0010183,0.008522,0.00075037,0,0,0.049052,-0.01951,0,0.0039019,0,0,0,0.02741,0.00099695,0.008522,1.6286,0.012309,0.023569,4.486e-07,0.9,0.24,0
0.045595,0.0056144,0.02741,0.0011176,0.0085583,0.00068095,0,0,0.049015,-0.019346,0,0.0035409,0,0,0,0.027428,0.0011,0.0085583,1.4826,0.012362,0.023504,4.4748e-07,0.91,0.24,0
0.046085,0.0056575,0.027432,0.0012045,0.0085909,0.00060888,0,0,0.048986,-0.019205,0,0.0031662,0,0,0,0.027446,0.0011904,0.0085909,1.3292,0.012409,0.023448,4.466e-07,0.92,0.24,0
0.046574,0.0056959,0.027453,0.0012794,0.0086196,0.00053492,0,0,0.048966,-0.019085,0,0.0027816,0,0,0,0.027463,0.0012685,0.0086196,1.1703,0.01245,0.023402,4.4592e-07,0.93,0.24,0
0.047064,0.0057296,0.027472,0.0013429,0.0086445,0.00045967,0,0,0.048952,-0.018984,0,0.0023903,0,0,0,0.02748,0.0013348,0.0086445,1.0075,0.012486,0.023364,4.4541e-07,0.94,0.24,0
0.047553,0.0057583,0.02749,0.0013954,0.0086655,0.00038363,0,0,0.048943,-0.018902,0,0.0019949,0,0,0,0.027495,0.0013897,0.0086655,0.84211,0.012517,0.023334,4.4506e-07,0.95,0.24,0
0.048043,0.0057819,0.027505,0.0014375,0.0086826,0.00030713,0,0,0.048937,-0.018837,0,0.0015971,0,0,0,0.027508,0.0014338,0.0086826,0.67496,0.012542,0.023311,4.4481e-07,0.96,0.24,0
0.048532,0.0058004,0.027517,0.0014697,0.0086959,0.00023042,0,0,0.048934,-0.018788,0,0.0011982,0,0,0,0.027519,0.0014676,0.0086959,0.50679,0.012561,0.023294,4.4466e-07,0.97,0.24,0
0.049021,0.0058136,0.027526,0.0014923,0.0087054,0.00015362,0,0,0.048933,-0.018754,0,0.00079881,0,0,0,0.027527,0.0014914,0.0087054,0.33807,0.012575,0.023282,4.4456e-07,0.98,0.24,0
0.049511,0.0058216,0.027531,0.0015058,0.0087111,7.6806e-05,0,0,0.048932,-0.018734,0,0.00039939,0,0,0,0.027532,0.0015056,0.0087111,0.16909,0.012583,0.023275,4.4451e-07,0.99,0.24,0
0.05,0.0058242,0.027533,0.0015103,0.008713,5.1094e-05,0,0,0.048932,-0.018727,0,0.00026569,0,0,0,0.027533,0.0015102,0.008713,0.1125,0.012585,0.023273,4.4451e-07,1,0.24,0
0,0,0.027837,0.01193,0.01193,0.0043962,0,0,0.041357,3.7947e-19,0,0.02286,0,0,0,0.028971,0.010796,0.01193,14.466,0.017232,0.017635,2.7776e-07,0,0.25,0
0.00041357,0.0002286,0.027794,0.011416,0.011763,0.0043912,0,0,0.041681,-0.00090197,0,0.022834,0,0,0,0.028897,0.010313,0.011763,14.101,0.016991,0.017903,2.8822e-07,0.01,0.25,0
0.00083362,0.00045591,0.027967,0.010985,0.011686,0.0043692,0,0,0.042332,-0.0018214,0,0.02272,0,0,0,0.029026,0.0099271,0.011686,13.614,0.016879,0.018283,3.0409e-07,0.02,0.25,0
0.0012602,0.00068165,0.028141,0.010547,0.011606,0.0043394,0,0,0.042989,-0.0027538,0,0.022565,0,0,0,0.029153,0.0095352,0.011606,13.128,0.016765,0.018669,3.2033e-07,0.03,0.25,0
0.0016934,0.00090549,0.028313,0.010104,0.011525,0.0043007,0,0,0.043648,-0.0036942,0,0.022364,0,0,0,0.029278,0.0091397,0.011525,12.643,0.016648,0.019058,3.3679e-07,0.04,0.25,0
0.0021332,0.0011271,0.028483,0.0096591,0.011443,0.0042523,0,0,0.044305,-0.0046371,0,0.022112,0,0,0,0.029399,0.008743,0.011443,12.157,0.016528,0.019447,3.5332e-07,0.05,0.25,0
0.0025795,0.001346,0.028649,0.0092137,0.011359,0.0041938,0,0,0.044954,-0.005577,0,0.021808,0,0,0,0.029515,0.0083474,0.011359,11.672,0.016407,0.019834,3.6979e-07,0.06,0.25,0
0.0030323,0.0015619,0.028809,0.008771,0.011274,0.0041249,0,0,0.045592,-0.006508,0,0.021449,0,0,0,0.029625,0.0079551,0.011274,11.188,0.016285,0.020216,3.8606e-07,0.07,0.25,0
0.0034913,0.0017742,0.028963,0.0083334,0.011189,0.0040457,0,0,0.046213,-0.0074248,0,0.021038,0,0,0,0.029729,0.0075683,0.011189,10.708,0.016162,0.02059,4.0199e-07,0.08,0.25,0
0.0039565,0.0019826,0.02911,0.0079031,0.011104,0.0039568,0,0,0.046815,-0.008322,0,0.020576,0,0,0,0.029824,0.0071889,0.011104,10.232,0.016039,0.020954,4.1745e-07,0.09,0.25,0
0.0044276,0.0021867,0.029247,0.0074825,0.011019,0.0038588,0,0,0.047394,-0.0091948,0,0.020066,0,0,0,0.029911,0.0068186,0.011019,9.7619,0.015916,0.021305,4.3234e-07,0.1,0.25,0
0.0049044,0.002386,0.029375,0.0070734,0.010935,0.0037524,0,0,0.047946,-0.010039,0,0.019513,0,0,0,0.02999,0.006459,0.010935,9.2993,0.015794,0.021643,4.4654e-07,0.11,0.25,0
0.0053866,0.0025802,0.029493,0.0066776,0.010851,0.0036387,0,0,0.048468,-0.010851,0,0.018921,0,0,0,0.030059,0.0061113,0.010851,8.8456,0.015674,0.021965,4.5998e-07,0.12,0.25,0
0.0058738,0.0027689,0.0296,0.0062964,0.010769,0.0035188,0,0,0.04896,-0.011628,0,0.018298,0,0,0,0.030119,0.0057766,0.010769,8.4022,0.015555,0.02227,4.726e-07,0.13,0.25,0
0.0063658,0.0029518,0.029695,0.005931,0.010688,0.0033937,0,0,0.049419,-0.012368,0,0.017647,0,0,0,0.03017,0.0054558,0.010688,7.9702,0.015438,0.022558,4.8434e-07,0.14,0.25,0
0.0068622,0.0031287,0.029779,0.0055823,0.010608,0.0032647,0,0,0.049844,-0.013068,0,0.016976,0,0,0,0.030212,0.0051495,0.010608,7.5506,0.015323,0.022828,4.9517e-07,0.15,0.25,0
0.0073626,0.0032993,0.029852,0.0052508,0.010531,0.0031327,0,0,0.050234,-0.013728,0,0.01629,0,0,0,0.030244,0.0048582,0.010531,7.1443,0.015211,0.023079,5.0507e-07,0.16,0.25,0
0.0078668,0.0034634,0.029913,0.004937,0.010455,0.0029989,0,0,0.05059,-0.014347,0,0.015594,0,0,0,0.030268,0.004582,0.010455,6.7518,0.015102,0.023311,5.1402e-07,0.17,0.25,0
0.0083744,0.0036207,0.029963,0.0046411,0.010381,0.0028642,0,0,0.050913,-0.014924,0,0.014894,0,0,0,0.030283,0.0043211,0.010381,6.3736,0.014995,0.023525,5.2203e-07,0.18,0.25,0
0.0088851,0.0037714,0.030002,0.0043629,0.01031,0.0027295,0,0,0.051201,-0.015461,0,0.014194,0,0,0,0.03029,0.0040755,0.01031,6.0099,0.014892,0.02372,5.2912e-07,0.19,0.25,0
0.0093985,0.003915,0.030031,0.0041023,0.01024,0.0025956,0,0,0.051457,-0.015958,0,0.013497,0,0,0,0.030288,0.003845,0.01024,5.6607,0.014791,0.023897,5.3529e-07,0.2,0.25,0
0.0099142,0.0040518,0.03005,0.0038591,0.010173,0.0024631,0,0,0.051681,-0.016415,0,0.012808,0,0,0,0.03028,0.0036294,0.010173,5.326,0.014694,0.024055,5.4059e-07,0.21,0.25,0
0.010432,0.0041815,0.030059,0.0036327,0.010108,0.0023324,0,0,0.051874,-0.016834,0,0.012129,0,0,0,0.030263,0.0034284,0.010108,5.0055,0.0146,0.024197,5.4502e-07,0.22,0.25,0
0.010952,0.0043041,0.030059,0.0034227,0.010044,0.0022042,0,0,0.052037,-0.017217,0,0.011462,0,0,0,0.03024,0.0032415,0.010044,4.6987,0.014509,0.024321,5.4863e-07,0.23,0.25,0
0.011473,0.0044197,0.03005,0.0032284,0.0099835,0.0020786,0,0,0.052172,-0.017563,0,0.010809,0,0,0,0.03021,0.0030683,0.0099835,4.4053,0.014421,0.024429,5.5145e-07,0.24,0.25,0
0.011995,0.0045282,0.030033,0.0030492,0.0099245,0.0019559,0,0,0.052281,-0.017876,0,0.010171,0,0,0,0.030174,0.0029082,0.0099245,4.1245,0.014335,0.024522,5.5352e-07,0.25,0.25,0
0.012518,0.0046296,0.030007,0.0028845,0.0098675,0.0018363,0,0,0.052364,-0.018156,0,0.0095487,0,0,0,0.030131,0.0027607,0.0098675,3.8556,0.014253,0.024599,5.5487e-07,0.26,0.25,0
0.013042,0.0047241,0.029975,0.0027333,0.0098124,0.0017197,0,0,0.052422,-0.018406,0,0.0089425,0,0,0,0.030083,0.0026252,0.0098124,3.598,0.014173,0.024662,5.5555e-07,0.27,0.25,0
0.013567,0.0048116,0.029935,0.002595,0.0097589,0.0016062,0,0,0.052457,-0.018626,0,0.0083521,0,0,0,0.030029,0.0025009,0.0097589,3.3507,0.014096,0.024712,5.5558e-07,0.28,0.25,0
0.014092,0.0048922,0.029888,0.0024686,0.0097071,0.0014956,0,0,0.052471,-0.01882,0,0.007777,0,0,0,0.02997,0.0023873,0.0097071,3.1128,0.014021,0.024748,5.5502e-07,0.29,0.25,0
0.014616,0.0049659,0.029835,0.0023534,0.0096566,0.0013878,0,0,0.052465,-0.018988,0,0.0072163,0,0,0,0.029905,0.0022835,0.0096566,2.8835,0.013948,0.024772,5.539e-07,0.3,0.25,0
0.015141,0.0050327,0.029776,0.0022483,0.0096074,0.0012825,0,0,0.052439,-0.019134,0,0.0066689,0,0,0,0.029836,0.0021887,0.0096074,2.6616,0.013877,0.024785,5.5226e-07,0.31,0.25,0
0.015665,0.0050928,0.029712,0.0021525,0.0095592,0.0011795,0,0,0.052396,-0.019258,0,0.0061336,0,0,0,0.029762,0.0021021,0.0095592,2.4463,0.013808,0.024788,5.5014e-07,0.32,0.25,0
0.016189,0.0051461,0.029642,0.0020649,0.009512,0.0010786,0,0,0.052337,-0.019363,0,0.0056089,0,0,0,0.029684,0.0020227,0.009512,2.2365,0.013739,0.02478,5.476e-07,0.33,0.25,0
0.016712,0.0051928,0.029567,0.0019844,0.0094654,0.00097944,0,0,0.052264,-0.01945,0,0.0050931,0,0,0,0.029601,0.0019497,0.0094654,2.0311,0.013672,0.024765,5.4467e-07,0.34,0.25,0
0.017234,0.0052328,0.029487,0.0019101,0.0094192,0.00088169,0,0,0.052177,-0.019524,0,0.0045848,0,0,0,0.029515,0.001882,0.0094192,1.8294,0.013605,0.024741,5.4139e-07,0.35,0.25,0
0.017755,0.0052663,0.029403,0.0018407,0.0093732,0.00078505,0,0,0.052078,-0.019584,0,0.0040822,0,0,0,0.029426,0.0018184,0.0093732,1.6302,0.013539,0.024712,5.3783e-07,0.36,0.25,0
0.018276,0.0052932,0.029316,0.0017751,0.0093272,0.00068923,0,0,0.05197,-0.019636,0,0.003584,0,0,0,0.029333,0.0017579,0.0093272,1.4327,0.013473,0.024677,5.3404e-07,0.37,0.25,0
0.018795,0.0053136,0.029225,0.001712,0.0092809,0.00059399,0,0,0.051853,-0.019679,0,0.0030887,0,0,0,0.029237,0.0016992,0.0092809,1.2362,0.013406,0.024638,5.3006e-07,0.38,0.25,0
0.019313,0.0053276,0.02913,0.00165,0.0092341,0.00049909,0,0,0.05173,-0.019719,0,0.0025953,0,0,0,0.029139,0.0016409,0.0092341,1.0401,0.013338,0.024597,5.2596e-07,0.39,0.25,0
0.019829,0.0053352,0.029034,0.0015878,0.0091865,0.00040438,0,0,0.051603,-0.019757,0,0.0021028,0,0,0,0.02904,0.0015819,0.0091865,0.84393,0.013269,0.024555,5.2179e-07,0.4,0.25,0
0.020345,0.0053365,0.028935,0.0015241,0.0091378,0.00030979,0,0,0.051474,-0.019796,0,0.0016109,0,0,0,0.028939,0.0015206,0.0091378,0.64741,0.013199,0.024514,5.1762e-07,0.41,0.25,0
0.020859,0.0053316,0.028836,0.0014572,0.0090878,0.00021532,0,0,0.051344,-0.01984,0,0.0011197,0,0,0,0.028837,0.0014555,0.0090878,0.45057,0.013127,0.024475,5.1351e-07,0.42,0.25,0
0.021372,0.0053206,0.028735,0.0013858,0.0090362,0.00012111,0,0,0.051217,-0.019891,0,0.00062977,0,0,0,0.028736,0.0013853,0.0090362,0.25372,0.013052,0.02444,5.0952e-07,0.43,0.25,0
0.021883,0.0053037,0.028634,0.0013085,0.0089828,2.742e-05,0,0,0.051094,-0.019953,0,0.00014258,0,0,0,0.028634,0.0013085,0.0089828,0.057493,0.012975,0.024411,5.0571e-07,0.44,0.25,0
0.022394,0.0052808,0.028534,0.0012238,0.0089274,-6.5345e-05,0,0,0.050978,-0.020029,0,-0.0003398,0,0,0,0.028534,0.0012237,0.0089274,-0.13709,0.012895,0.024389,5.0216e-07,0.45,0.25,0
0.022903,0.0052524,0.028435,0.0011305,0.0088697,-0.00015662,0,0,0.05087,-0.020122,0,-0.00081443,0,0,0,0.028436,0.0011295,0.0088697,-0.32864,0.012812,0.024376,4.989e-07,0.46,0.25,0
0.023411,0.0052185,0.028338,0.0010272,0.0088096,-0.00024568,0,0,0.050774,-0.020234,0,-0.0012775,0,0,0,0.02834,0.001025,0.0088096,-0.51535,0.012725,0.024374,4.9599e-07,0.47,0.25,0
0.023918,0.0051795,0.028244,0.00091308,0.008747,-0.00033161,0,0,0.050691,-0.020368,0,-0.0017244,0,0,0,0.028248,0.00090905,0.008747,-0.69506,0.012634,0.024383,4.9346e-07,0.48,0.25,0
0.024425,0.0051357,0.028152,0.00078729,0.0086818,-0.00041337,0,0,0.050623,-0.020526,0,-0.0021495,0,0,0,0.028158,0.00078105,0.0086818,-0.86525,0.01254,0.024406,4.9135e-07,0.49,0.25,0
0.024931,0.0050875,0.028064,0.00064938,0.0086141,-0.00048976,0,0,0.05057,-0.020708,0,-0.0025467,0,0,0,0.028073,0.00064064,0.0086141,-1.0231,0.012443,0.024441,4.8967e-07,0.5,0.25,0
0.025436,0.0050354,0.02798,0.00049925,0.0085439,-0.00055946,0,0,0.050535,-0.020916,0,-0.0029092,0,0,0,0.027992,0.00048786,0.0085439,-1.1658,0.012341,0.024491,4.8843e-07,0.51,0.25,0
0.025941,0.0049799,0.027901,0.00033719,0.0084714,-0.00062109,0,0,0.050516,-0.021149,0,-0.0032297,0,0,0,0.027915,0.0003232,0.0084714,-1.2902,0.012236,0.024553,4.8759e-07,0.52,0.25,0
0.026447,0.0049215,0.027826,0.00016399,0.0083969,-0.00067324,0,0,0.050515,-0.021406,0,-0.0035008,0,0,0,0.027842,0.00014761,0.0083969,-1.3934,0.012129,0.024629,4.8714e-07,0.53,0.25,0
0.026952,0.004861,0.027755,-1.9093e-05,0.0083208,-0.00071453,0,0,0.050529,-0.021684,0,-0.0037155,0,0,0,0.027773,-3.7463e-05,0.0083208,-1.4727,0.012019,0.024716,4.8704e-07,0.54,0.25,0
0.027457,0.0047991,0.027689,-0.00021028,0.0082436,-0.00074368,0,0,0.050558,-0.02198,0,-0.0038671,0,0,0,0.027709,-0.00023009,0.0082436,-1.5258,0.011907,0.024812,4.8721e-07,0.55,0.25,0
0.027963,0.0047366,0.027627,-0.00040728,0.008166,-0.00075959,0,0,0.050599,-0.022291,0,-0.0039499,0,0,0,0.027648,-0.00042785,0.008166,-1.5509,0.011795,0.024916,4.876e-07,0.56,0.25,0
0.028469,0.0046743,0.02757,-0.00060734,0.0080887,-0.00076137,0,0,0.05065,-0.02261,0,-0.0039591,0,0,0,0.02759,-0.00062789,0.0080887,-1.5467,0.011684,0.025025,4.8814e-07,0.57,0.25,0
0.028976,0.0046132,0.027516,-0.00080725,0.0080125,-0.00074846,0,0,0.050708,-0.022931,0,-0.003892,0,0,0,0.027535,-0.00082701,0.0080125,-1.5127,0.011574,0.025137,4.8873e-07,0.58,0.25,0
0.029483,0.0045541,0.027465,-0.0010035,0.0079384,-0.00072066,0,0,0.050769,-0.023249,0,-0.0037474,0,0,0,0.027483,-0.0010217,0.0079384,-1.4492,0.011467,0.025247,4.8931e-07,0.59,0.25,0
0.029991,0.0044979,0.027417,-0.0011923,0.0078675,-0.00067822,0,0,0.05083,-0.023556,0,-0.0035268,0,0,0,0.027433,-0.0012084,0.0078675,-1.3572,0.011364,0.025353,4.8982e-07,0.6,0.25,0
0.0305,0.0044456,0.027373,-0.00137,0.0078008,-0.00062184,0,0,0.050887,-0.023844,0,-0.0032335,0,0,0,0.027386,-0.0013834,0.0078008,-1.2388,0.011268,0.025452,4.9018e-07,0.61,0.25,0
0.031009,0.0043979,0.02733,-0.0015328,0.0077392,-0.00055265,0,0,0.050937,-0.024107,0,-0.0028738,0,0,0,0.027341,-0.0015434,0.0077392,-1.0965,0.011179,0.025541,4.9038e-07,0.62,0.25,0
0.031518,0.0043557,0.02729,-0.0016775,0.0076839,-0.0004722,0,0,0.050977,-0.02434,0,-0.0024555,0,0,0,0.027298,-0.0016852,0.0076839,-0.93364,0.011099,0.025618,4.9037e-07,0.63,0.25,0
0.032029,0.0043196,0.027254,-0.0018015,0.0076357,-0.00038233,0,0,0.051007,-0.024537,0,-0.0019881,0,0,0,0.027259,-0.0018065,0.0076357,-0.75376,0.011029,0.025681,4.9018e-07,0.64,0.25,0
0.032539,0.0042903,0.027221,-0.0019026,0.0075954,-0.00028496,0,0,0.051025,-0.024695,0,-0.0014818,0,0,0,0.027223,-0.0019054,0.0075954,-0.56055,0.010971,0.025729,4.8982e-07,0.65,0.25,0
0.033049,0.0042681,0.027191,-0.0019796,0.0075635,-0.00018199,0,0,0.051032,-0.024812,0,-0.00094635,0,0,0,0.027192,-0.0019808,0.0075635,-0.35744,0.010925,0.025763,4.8933e-07,0.66,0.25,0
0.033559,0.0042535,0.027167,-0.0020319,0.0075405,-7.5072e-05,0,0,0.051028,-0.024888,0,-0.00039037,0,0,0,0.027167,-0.0020321,0.0075405,-0.14731,0.010892,0.025782,4.8876e-07,0.67,0.25,0
0.03407,0.0042467,0.027148,-0.0020591,0.0075265,3.4408e-05,0,0,0.051015,-0.024923,0,0.00017892,0,0,0,0.027148,-0.0020592,0.0075265,0.067499,0.010872,0.025787,4.8814e-07,0.68,0.25,0
0.03458,0.0042479,0.027134,-0.0020612,0.0075218,0.0001453,0,0,0.050992,-0.024916,0,0.00075558,0,0,0,0.027135,-0.0020619,0.0075218,0.28515,0.010865,0.025777,4.875e-07,0.69,0.25,0
0.035089,0.004257,0.027126,-0.002038,0.0075264,0.00025656,0,0,0.050959,-0.024867,0,0.0013341,0,0,0,0.027128,-0.0020402,0.0075264,0.50399,0.010871,0.025754,4.8683e-07,0.7,0.25,0
0.035599,0.0042741,0.027123,-0.0019895,0.00754,0.00036703,0,0,0.050915,-0.024777,0,0.0019086,0,0,0,0.027127,-0.0019941,0.00754,0.72221,0.010891,0.025716,4.861e-07,0.71,0.25,0
0.036108,0.0042989,0.027124,-0.0019158,0.0075625,0.00047534,0,0,0.05086,-0.024643,0,0.0024718,0,0,0,0.027132,-0.0019236,0.0075625,0.93752,0.010923,0.025663,4.8527e-07,0.72,0.25,0
0.036616,0.0043312,0.027129,-0.0018174,0.0075934,0.0005798,0,0,0.050792,-0.024468,0,0.003015,0,0,0,0.02714,-0.001829,0.0075934,1.147,0.010968,0.025594,4.8428e-07,0.73,0.25,0
0.037123,0.0043706,0.027136,-0.0016955,0.0076321,0.0006785,0,0,0.05071,-0.024252,0,0.0035282,0,0,0,0.027152,-0.0017114,0.0076321,1.3474,0.011024,0.025509,4.8307e-07,0.74,0.25,0
0.03763,0.0044165,0.027145,-0.0015517,0.007678,0.00076942,0,0,0.050614,-0.023997,0,0.004001,0,0,0,0.027165,-0.0015723,0.007678,1.5348,0.01109,0.025409,4.8162e-07,0.75,0.25,0
0.038136,0.0044684,0.027155,-0.0013887,0.00773,0.00085064,0,0,0.050506,-0.023709,0,0.0044233,0,0,0,0.027181,-0.0014141,0.00773,1.7054,0.011166,0.025294,4.799e-07,0.76,0.25,0
0.03864,0.0045254,0.027167,-0.0012097,0.0077871,0.00092048,0,0,0.050387,-0.023392,0,0.0047865,0,0,0,0.027197,-0.0012395,0.0077871,1.856,0.011248,0.025168,4.7792e-07,0.77,0.25,0
0.039143,0.0045869,0.027179,-0.0010181,0.0078483,0.00097763,0,0,0.05026,-0.023053,0,0.0050837,0,0,0,0.027213,-0.001052,0.0078483,1.9833,0.011336,0.025031,4.757e-07,0.78,0.25,0
0.039646,0.004652,0.027193,-0.00081784,0.0079125,0.0010212,0,0,0.050129,-0.022699,0,0.0053103,0,0,0,0.02723,-0.00085502,0.0079125,2.0852,0.011429,0.024888,4.7328e-07,0.79,0.25,0
0.040146,0.0047198,0.027208,-0.00061263,0.0079785,0.0010508,0,0,0.049996,-0.022337,0,0.0054643,0,0,0,0.027247,-0.00065226,0.0079785,2.1601,0.011525,0.02474,4.7073e-07,0.8,0.25,0
0.040645,0.0047894,0.027224,-0.00040616,0.0080454,0.0010665,0,0,0.049865,-0.021974,0,0.0055457,0,0,0,0.027265,-0.00044727,0.0080454,2.2071,0.011621,0.024592,4.6809e-07,0.81,0.25,0
0.041143,0.00486,0.027242,-0.00020185,0.0081122,0.0010686,0,0,0.049739,-0.021617,0,0.0055567,0,0,0,0.027284,-0.00024339,0.0081122,2.2264,0.011718,0.024445,4.6545e-07,0.82,0.25,0
0.04164,0.0049308,0.027263,-2.7058e-06,0.008178,0.0010579,0,0,0.04962,-0.02127,0,0.0055009,0,0,0,0.027304,-4.3689e-05,0.008178,2.2186,0.011813,0.024303,4.6286e-07,0.83,0.25,0
0.042136,0.0050009,0.027285,0.00018866,0.0082421,0.0010353,0,0,0.049511,-0.020939,0,0.0053837,0,0,0,0.027324,0.00014916,0.0082421,2.185,0.011905,0.024167,4.604e-07,0.84,0.25,0
0.04263,0.0050697,0.027309,0.00037012,0.0083038,0.0010022,0,0,0.049414,-0.020628,0,0.0052113,0,0,0,0.027346,0.00033289,0.0083038,2.1275,0.011994,0.02404,4.5812e-07,0.85,0.25,0
0.043124,0.0051364,0.027335,0.00054,0.0083626,0.00095969,0,0,0.049329,-0.020339,0,0.0049904,0,0,0,0.02737,0.00050568,0.0083626,2.0486,0.012079,0.023924,4.5605e-07,0.86,0.25,0
0.043617,0.0052006,0.027363,0.00069711,0.0084182,0.00090927,0,0,0.049258,-0.020075,0,0.0047282,0,0,0,0.027394,0.00066615,0.0084182,1.9507,0.01216,0.023818,4.5424e-07,0.87,0.25,0
0.044109,0.0052616,0.027393,0.00084069,0.00847,0.0008523,0,0,0.049199,-0.019836,0,0.004432,0,0,0,0.02742,0.00081336,0.00847,1.8366,0.012235,0.023724,4.5269e-07,0.88,0.25,0
0.044601,0.0053189,0.027423,0.00097036,0.008518,0.00079009,0,0,0.049153,-0.019624,0,0.0041084,0,0,0,0.027447,0.00094679,0.008518,1.7093,0.012304,0.023642,4.5142e-07,0.89,0.25,0
0.045092,0.0053723,0.027454,0.0010861,0.0085619,0.00072384,0,0,0.049118,-0.019437,0,0.003764,0,0,0,0.027474,0.0010662,0.0085619,1.5713,0.012367,0.023571,4.5042e-07,0.9,0.25,0
0.045583,0.0054214,0.027484,0.0011881,0.0086016,0.00065466,0,0,0.049094,-0.019275,0,0.0034042,0,0,0,0.0275,0.0011718,0.0086016,1.4253,0.012425,0.023511,4.4967e-07,0.91,0.25,0
0.046074,0.0054658,0.027513,0.0012769,0.0086371,0.00058346,0,0,0.049078,-0.019137,0,0.003034,0,0,0,0.027526,0.0012639,0.0086371,1.2733,0.012476,0.023461,4.4914e-07,0.92,0.25,0
0.046565,0.0055055,0.027541,0.001353,0.0086683,0.00051101,0,0,0.04907,-0.01902,0,0.0026572,0,0,0,0.027551,0.001343,0.0086683,1.1174,0.012521,0.023421,4.4879e-07,0.93,0.25,0
0.047056,0.0055401,0.027567,0.0014171,0.0086953,0.00043788,0,0,0.049067,-0.018923,0,0.002277,0,0,0,0.027574,0.0014098,0.0086953,0.95907,0.01256,0.023389,4.4859e-07,0.94,0.25,0
0.047546,0.0055696,0.02759,0.0014699,0.008718,0.00036453,0,0,0.049067,-0.018845,0,0.0018955,0,0,0,0.027595,0.0014648,0.008718,0.7994,0.012593,0.023364,4.485e-07,0.95,0.25,0
0.048037,0.0055939,0.02761,0.0015121,0.0087365,0.00029121,0,0,0.04907,-0.018784,0,0.0015143,0,0,0,0.027613,0.0015088,0.0087365,0.63923,0.012619,0.023345,4.4849e-07,0.96,0.25,0
0.048528,0.0056128,0.027625,0.0015442,0.0087509,0.00021809,0,0,0.049074,-0.018737,0,0.0011341,0,0,0,0.027627,0.0015424,0.0087509,0.47907,0.01264,0.023331,4.4852e-07,0.97,0.25,0
0.049018,0.0056264,0.027637,0.0015668,0.0087611,0.00014522,0,0,0.049077,-0.018705,0,0.00075513,0,0,0,0.027638,0.0015659,0.0087611,0.31914,0.012655,0.023322,4.4856e-07,0.98,0.25,0
0.049509,0.0056346,0.027644,0.0015801,0.0087672,7.255e-05,0,0,0.049079,-0.018686,0,0.00037726,0,0,0,0.027644,0.0015799,0.0087672,0.15948,0.012664,0.023317,4.4859e-07,0.99,0.25,0
0.05,0.0056373,0.027646,0.0015846,0.0087693,5.2343e-05,0,0,0.04908,-0.01868,0,0.00027218,0,0,0,0.027646,0.0015845,0.0087693,0.11507,0.012667,0.023315,4.4861e-07,1,0.25,0
0,0,0.027866,0.011942,0.011942,0.0042239,0,0,0.0414,7.0473e-19,0,0.021965,0,0,0,0.028917,0.010891,0.011942,13.974,0.01725,0.017524,2.7302e-07,0,0.26,0
0.000414,0.00021965,0.027824,0.011435,0.011778,0.004219,0,0,0.04172,-0.00089069,0,0.021939,0,0,0,0.028846,0.010413,0.011778,13.621,0.017012,0.01779,2.8344e-07,0.01,0.26,0
0.00083439,0.00043784,0.027995,0.011011,0.011702,0.0041963,0,0,0.042362,-0.0017961,0,0.021821,0,0,0,0.028975,0.010031,0.011702,13.148,0.016902,0.018166,2.9915e-07,0.02,0.26,0
0.0012612,0.00065434,0.028166,0.010581,0.011624,0.004167,0,0,0.043008,-0.0027124,0,0.021668,0,0,0,0.029103,0.0096432,0.011624,12.679,0.01679,0.018549,3.1522e-07,0.03,0.26,0
0.0016946,0.00086887,0.028336,0.010147,0.011545,0.00413,0,0,0.043656,-0.0036349,0,0.021476,0,0,0,0.029229,0.0092528,0.011545,12.212,0.016676,0.018935,3.3152e-07,0.04,0.26,0
0.0021344,0.0010811,0.028503,0.0097107,0.011464,0.0040847,0,0,0.044301,-0.0045591,0,0.02124,0,0,0,0.029353,0.0088612,0.011464,11.748,0.016559,0.019322,3.4792e-07,0.05,0.26,0
0.0025806,0.0012908,0.028667,0.0092751,0.011383,0.0040305,0,0,0.04494,-0.0054797,0,0.020959,0,0,0,0.029472,0.0084708,0.011383,11.286,0.016442,0.019707,3.6431e-07,0.06,0.26,0
0.0030332,0.0014974,0.028827,0.0088422,0.011301,0.0039673,0,0,0.045567,-0.0063919,0,0.02063,0,0,0,0.029585,0.0080834,0.011301,10.828,0.016323,0.020087,3.8054e-07,0.07,0.26,0
0.0034919,0.0017007,0.02898,0.008414,0.011218,0.0038951,0,0,0.04618,-0.0072907,0,0.020255,0,0,0,0.029693,0.0077011,0.011218,10.373,0.016204,0.020461,3.965e-07,0.08,0.26,0
0.0039568,0.0019002,0.029126,0.0079929,0.011136,0.0038142,0,0,0.046775,-0.0081713,0,0.019834,0,0,0,0.029793,0.0073256,0.011136,9.9239,0.016085,0.020826,4.1205e-07,0.09,0.26,0
0.0044274,0.0020956,0.029264,0.0075806,0.011054,0.0037251,0,0,0.047348,-0.0090294,0,0.01937,0,0,0,0.029886,0.0069585,0.011054,9.4809,0.015966,0.021179,4.271e-07,0.1,0.26,0
0.0049037,0.0022866,0.029394,0.007179,0.010972,0.0036284,0,0,0.047897,-0.0098612,0,0.018868,0,0,0,0.029971,0.0066014,0.010972,9.0453,0.015848,0.02152,4.4154e-07,0.11,0.26,0
0.0053854,0.0024727,0.029513,0.0067897,0.010891,0.0035251,0,0,0.048418,-0.010663,0,0.01833,0,0,0,0.030048,0.0062555,0.010891,8.6184,0.015731,0.021847,4.553e-07,0.12,0.26,0
0.0058721,0.0026537,0.029623,0.0064141,0.010811,0.0034159,0,0,0.048911,-0.011432,0,0.017763,0,0,0,0.030115,0.0059217,0.010811,8.2012,0.015616,0.022157,4.6829e-07,0.13,0.26,0
0.0063636,0.0028292,0.029722,0.0060531,0.010733,0.0033019,0,0,0.049373,-0.012167,0,0.01717,0,0,0,0.030174,0.0056011,0.010733,7.7946,0.015503,0.022452,4.8047e-07,0.14,0.26,0
0.0068596,0.0029991,0.029811,0.0057078,0.010656,0.003184,0,0,0.049804,-0.012864,0,0.016557,0,0,0,0.030224,0.0052942,0.010656,7.3997,0.015391,0.022729,4.9179e-07,0.15,0.26,0
0.0073597,0.0031631,0.029888,0.0053786,0.01058,0.0030632,0,0,0.050202,-0.013524,0,0.015929,0,0,0,0.030266,0.0050016,0.01058,7.0171,0.015282,0.022988,5.0222e-07,0.16,0.26,0
0.0078636,0.003321,0.029955,0.0050662,0.010507,0.0029405,0,0,0.050567,-0.014145,0,0.015291,0,0,0,0.030298,0.0047235,0.010507,6.6472,0.015176,0.023229,5.1175e-07,0.17,0.26,0
0.008371,0.0034726,0.030011,0.0047708,0.010435,0.0028167,0,0,0.0509,-0.014726,0,0.014647,0,0,0,0.030322,0.0044603,0.010435,6.2907,0.015072,0.023452,5.2037e-07,0.18,0.26,0
0.0088816,0.0036178,0.030057,0.0044923,0.010365,0.0026926,0,0,0.0512,-0.015268,0,0.014001,0,0,0,0.030337,0.0042118,0.010365,5.9476,0.014971,0.023657,5.2807e-07,0.19,0.26,0
0.009395,0.0037565,0.030092,0.0042308,0.010297,0.0025688,0,0,0.051468,-0.015772,0,0.013358,0,0,0,0.030345,0.0039781,0.010297,5.6181,0.014873,0.023844,5.3488e-07,0.2,0.26,0
0.0099109,0.0038886,0.030117,0.003986,0.010231,0.0024461,0,0,0.051705,-0.016237,0,0.01272,0,0,0,0.030344,0.003759,0.010231,5.302,0.014778,0.024013,5.408e-07,0.21,0.26,0
0.010429,0.004014,0.030133,0.0037576,0.010167,0.002325,0,0,0.051911,-0.016665,0,0.01209,0,0,0,0.030336,0.0035542,0.010167,4.9992,0.014686,0.024164,5.4585e-07,0.22,0.26,0
0.010949,0.0041328,0.030139,0.0035452,0.010105,0.0022058,0,0,0.052089,-0.017056,0,0.01147,0,0,0,0.030321,0.0033635,0.010105,4.7094,0.014597,0.024299,5.5006e-07,0.23,0.26,0
0.011471,0.0042448,0.030137,0.0033483,0.010046,0.0020889,0,0,0.052237,-0.017413,0,0.010862,0,0,0,0.030299,0.0031864,0.010046,4.4321,0.01451,0.024416,5.5346e-07,0.24,0.26,0
0.011994,0.0043502,0.030125,0.0031663,0.0099875,0.0019745,0,0,0.052359,-0.017735,0,0.010267,0,0,0,0.030269,0.0030224,0.0099875,4.1667,0.014427,0.024518,5.5607e-07,0.25,0.26,0
0.012518,0.0044488,0.030106,0.0029986,0.0099314,0.0018627,0,0,0.052454,-0.018025,0,0.009686,0,0,0,0.030233,0.0028712,0.0099314,3.9126,0.014345,0.024604,5.5793e-07,0.26,0.26,0
0.013043,0.0045407,0.030079,0.0028445,0.009877,0.0017536,0,0,0.052525,-0.018284,0,0.0091189,0,0,0,0.030191,0.0027321,0.009877,3.6691,0.014267,0.024675,5.5907e-07,0.27,0.26,0
0.013569,0.004626,0.030044,0.0027033,0.0098241,0.0016472,0,0,0.052571,-0.018514,0,0.0085656,0,0,0,0.030143,0.0026045,0.0098241,3.4354,0.01419,0.024732,5.5953e-07,0.28,0.26,0
0.014094,0.0047045,0.030002,0.0025743,0.0097728,0.0015434,0,0,0.052595,-0.018716,0,0.0080258,0,0,0,0.030088,0.0024877,0.0097728,3.2107,0.014116,0.024775,5.5934e-07,0.29,0.26,0
0.01462,0.0047765,0.029953,0.0024565,0.0097227,0.0014421,0,0,0.052598,-0.018892,0,0.0074988,0,0,0,0.030028,0.0023811,0.0097227,2.994,0.014044,0.024805,5.5855e-07,0.3,0.26,0
0.015146,0.0048419,0.029897,0.0023491,0.0096738,0.001343,0,0,0.05258,-0.019044,0,0.0069833,0,0,0,0.029962,0.0022838,0.0096738,2.7843,0.013973,0.024823,5.5718e-07,0.31,0.26,0
0.015672,0.0049007,0.029835,0.0022512,0.0096259,0.0012458,0,0,0.052544,-0.019174,0,0.0064783,0,0,0,0.029891,0.0021951,0.0096259,2.5808,0.013904,0.024829,5.5527e-07,0.32,0.26,0
0.016197,0.0049529,0.029767,0.0021619,0.0095787,0.0011504,0,0,0.05249,-0.019284,0,0.0059821,0,0,0,0.029815,0.002114,0.0095787,2.3822,0.013836,0.024825,5.5288e-07,0.33,0.26,0
0.016722,0.0049987,0.029694,0.00208,0.0095321,0.0010564,0,0,0.05242,-0.019375,0,0.0054932,0,0,0,0.029734,0.0020397,0.0095321,2.1877,0.013768,0.024811,5.5004e-07,0.34,0.26,0
0.017246,0.005038,0.029614,0.0020046,0.0094857,0.00096346,0,0,0.052335,-0.019451,0,0.00501,0,0,0,0.029648,0.001971,0.0094857,1.9961,0.013702,0.024789,5.468e-07,0.35,0.26,0
0.017768,0.0050708,0.029531,0.0019345,0.0094395,0.00087127,0,0,0.052237,-0.019513,0,0.0045306,0,0,0,0.029558,0.001907,0.0094395,1.8066,0.013635,0.02476,5.4322e-07,0.36,0.26,0
0.01829,0.0050972,0.029442,0.0018684,0.0093931,0.00077952,0,0,0.052127,-0.019564,0,0.0040535,0,0,0,0.029464,0.0018464,0.0093931,1.6181,0.013568,0.024724,5.3933e-07,0.37,0.26,0
0.018811,0.0051172,0.029349,0.001805,0.0093462,0.0006879,0,0,0.052007,-0.019607,0,0.0035771,0,0,0,0.029366,0.0017878,0.0093462,1.4298,0.0135,0.024683,5.3521e-07,0.38,0.26,0
0.019331,0.0051308,0.029252,0.001743,0.0092986,0.00059617,0,0,0.05188,-0.019644,0,0.0031001,0,0,0,0.029265,0.0017301,0.0092986,1.2409,0.013431,0.024639,5.309e-07,0.39,0.26,0
0.019849,0.005138,0.029152,0.001681,0.00925,0.00050411,0,0,0.051746,-0.019679,0,0.0026214,0,0,0,0.029162,0.0016717,0.00925,1.0509,0.013361,0.024593,5.2648e-07,0.4,0.26,0
0.020365,0.005139,0.02905,0.0016174,0.0092001,0.00041162,0,0,0.051609,-0.019715,0,0.0021404,0,0,0,0.029056,0.0016112,0.0092001,0.85945,0.013289,0.024546,5.2201e-07,0.41,0.26,0
0.020881,0.0051337,0.028945,0.0015507,0.0091486,0.00031865,0,0,0.05147,-0.019755,0,0.001657,0,0,0,0.028948,0.001547,0.0091486,0.66636,0.013215,0.024502,5.1755e-07,0.42,0.26,0
0.021395,0.0051222,0.028838,0.0014793,0.0090953,0.00022531,0,0,0.051332,-0.019801,0,0.0011716,0,0,0,0.02884,0.0014775,0.0090953,0.47182,0.013138,0.02446,5.1317e-07,0.43,0.26,0
0.021907,0.0051046,0.028731,0.0014017,0.0090397,0.00013183,0,0,0.051197,-0.019859,0,0.00068551,0,0,0,0.028731,0.0014011,0.0090397,0.27637,0.013057,0.024424,5.0895e-07,0.44,0.26,0
0.022419,0.0050811,0.028623,0.0013162,0.0089818,3.8584e-05,0,0,0.051067,-0.01993,0,0.00020064,0,0,0,0.028623,0.0013162,0.0089818,0.080957,0.012974,0.024395,5.0494e-07,0.45,0.26,0
0.022929,0.0050517,0.028516,0.0012214,0.0089211,-5.386e-05,0,0,0.050946,-0.020019,0,-0.00028007,0,0,0,0.028516,0.0012213,0.0089211,-0.11306,0.012886,0.024375,5.0122e-07,0.46,0.26,0
0.023438,0.0050167,0.02841,0.0011159,0.0088576,-0.00014475,0,0,0.050835,-0.020129,0,-0.00075272,0,0,0,0.02841,0.0011151,0.0088576,-0.30386,0.012794,0.024365,4.9783e-07,0.47,0.26,0
0.023946,0.0049764,0.028305,0.00099848,0.0087911,-0.00023316,0,0,0.050737,-0.020261,0,-0.0012125,0,0,0,0.028307,0.00099649,0.0087911,-0.48918,0.012698,0.024367,4.9482e-07,0.48,0.26,0
0.024452,0.004931,0.028203,0.00086824,0.0087215,-0.00031797,0,0,0.050653,-0.020418,0,-0.0016534,0,0,0,0.028207,0.00086455,0.0087215,-0.66636,0.012598,0.024383,4.9223e-07,0.49,0.26,0
0.024959,0.004881,0.028105,0.00072457,0.0086487,-0.00039789,0,0,0.050585,-0.020603,0,-0.002069,0,0,0,0.02811,0.00071879,0.0086487,-0.83239,0.012493,0.024412,4.9007e-07,0.5,0.26,0
0.025464,0.0048267,0.028009,0.00056724,0.0085728,-0.00047149,0,0,0.050534,-0.020815,0,-0.0024518,0,0,0,0.028017,0.00055914,0.0085728,-0.98405,0.012383,0.024456,4.8835e-07,0.51,0.26,0
0.025969,0.0047688,0.027917,0.00039651,0.0084941,-0.00053729,0,0,0.0505,-0.021054,0,-0.0027939,0,0,0,0.027928,0.00038602,0.0084941,-1.118,0.012269,0.024515,4.8705e-07,0.52,0.26,0
0.026474,0.0047079,0.027829,0.00021316,0.0084127,-0.00059373,0,0,0.050483,-0.021319,0,-0.0030874,0,0,0,0.027842,0.0002004,0.0084127,-1.2311,0.012152,0.024587,4.8614e-07,0.53,0.26,0
0.026979,0.0046445,0.027745,1.8511e-05,0.0083292,-0.00063932,0,0,0.050482,-0.021608,0,-0.0033245,0,0,0,0.02776,3.7778e-06,0.0083292,-1.3202,0.012031,0.024671,4.8556e-07,0.54,0.26,0
0.027484,0.0045796,0.027665,-0.00018551,0.008244,-0.00067267,0,0,0.050496,-0.021917,0,-0.0034979,0,0,0,0.027682,-0.00020174,0.008244,-1.3828,0.011908,0.024765,4.8527e-07,0.55,0.26,0
0.027989,0.0045139,0.027589,-0.0003964,0.0081579,-0.00069256,0,0,0.050522,-0.022241,0,-0.0036013,0,0,0,0.027606,-0.00041353,0.0081579,-1.4167,0.011784,0.024868,4.8518e-07,0.56,0.26,0
0.028494,0.0044484,0.027517,-0.00061111,0.0080718,-0.00069804,0,0,0.050558,-0.022575,0,-0.0036298,0,0,0,0.027534,-0.00062842,0.0080718,-1.4207,0.011659,0.024976,4.8521e-07,0.57,0.26,0
0.029,0.0043839,0.027448,-0.00082608,0.0079866,-0.0006885,0,0,0.0506,-0.022913,0,-0.0035802,0,0,0,0.027465,-0.00084284,0.0079866,-1.3941,0.011536,0.025087,4.8529e-07,0.58,0.26,0
0.029506,0.0043216,0.027382,-0.0010374,0.0079034,-0.00066376,0,0,0.050645,-0.023246,0,-0.0034516,0,0,0,0.027398,-0.0010528,0.0079034,-1.3372,0.011416,0.025196,4.8534e-07,0.59,0.26,0
0.030013,0.0042623,0.027319,-0.0012407,0.0078236,-0.00062411,0,0,0.050689,-0.023567,0,-0.0032454,0,0,0,0.027333,-0.0012543,0.0078236,-1.2513,0.011301,0.025301,4.8528e-07,0.6,0.26,0
0.03052,0.004207,0.027259,-0.0014318,0.0077482,-0.00057038,0,0,0.050729,-0.023868,0,-0.002966,0,0,0,0.027271,-0.0014431,0.0077482,-1.1384,0.011192,0.025398,4.8507e-07,0.61,0.26,0
0.031027,0.0041566,0.027202,-0.0016066,0.0076787,-0.0005039,0,0,0.050761,-0.024142,0,-0.0026203,0,0,0,0.027211,-0.0016154,0.0076787,-1.0018,0.011091,0.025484,4.8468e-07,0.62,0.26,0
0.031535,0.004112,0.027148,-0.0017614,0.0076161,-0.00042651,0,0,0.050784,-0.024381,0,-0.0022178,0,0,0,0.027155,-0.0017676,0.0076161,-0.84504,0.011001,0.025557,4.8409e-07,0.63,0.26,0
0.032043,0.0040739,0.027099,-0.0018932,0.0075617,-0.00034032,0,0,0.050796,-0.024583,0,-0.0017697,0,0,0,0.027103,-0.0018972,0.0075617,-0.67245,0.010922,0.025616,4.8334e-07,0.64,0.26,0
0.032551,0.004043,0.027054,-0.0020001,0.0075162,-0.00024759,0,0,0.050798,-0.024742,0,-0.0012875,0,0,0,0.027056,-0.0020022,0.0075162,-0.48821,0.010857,0.025659,4.8248e-07,0.65,0.26,0
0.033059,0.0040196,0.027016,-0.002081,0.0074804,-0.00015034,0,0,0.050791,-0.024859,0,-0.00078174,0,0,0,0.027016,-0.0020818,0.0074804,-0.29602,0.010805,0.025688,4.8157e-07,0.66,0.26,0
0.033567,0.0040043,0.026985,-0.0021358,0.0074546,-5.0176e-05,0,0,0.050778,-0.024935,0,-0.00026092,0,0,0,0.026985,-0.0021358,0.0074546,-0.098724,0.010768,0.025704,4.8071e-07,0.67,0.26,0
0.034075,0.0039971,0.026962,-0.0021645,0.0074392,5.1812e-05,0,0,0.050759,-0.02497,0,0.00026942,0,0,0,0.026962,-0.0021646,0.0074392,0.10192,0.010745,0.025707,4.7995e-07,0.68,0.26,0
0.034582,0.0039984,0.026948,-0.0021675,0.0074343,0.00015499,0,0,0.050737,-0.024965,0,0.00080597,0,0,0,0.026949,-0.0021683,0.0074343,0.30499,0.010738,0.025699,4.7933e-07,0.69,0.26,0
0.035089,0.004008,0.026944,-0.0021446,0.0074398,0.00025891,0,0,0.05071,-0.024919,0,0.0013463,0,0,0,0.026946,-0.0021469,0.0074398,0.50993,0.010746,0.025679,4.7886e-07,0.7,0.26,0
0.035596,0.004026,0.026947,-0.0020955,0.0074556,0.00036294,0,0,0.050679,-0.024833,0,0.0018873,0,0,0,0.026952,-0.0021,0.0074556,0.71586,0.010769,0.025646,4.7848e-07,0.71,0.26,0
0.036103,0.0040521,0.026958,-0.0020198,0.0074815,0.00046603,0,0,0.050639,-0.024703,0,0.0024234,0,0,0,0.026966,-0.0020273,0.0074815,0.92113,0.010807,0.025599,4.7812e-07,0.72,0.26,0
0.036609,0.0040862,0.026974,-0.0019175,0.0075171,0.00056657,0,0,0.050589,-0.02453,0,0.0029462,0,0,0,0.026986,-0.0019286,0.0075171,1.123,0.010858,0.025537,4.7769e-07,0.73,0.26,0
0.037115,0.0041277,0.026995,-0.0017895,0.0075617,0.00066251,0,0,0.050527,-0.024313,0,0.0034451,0,0,0,0.02701,-0.0018047,0.0075617,1.3178,0.010922,0.025459,4.7711e-07,0.74,0.26,0
0.03762,0.0041762,0.027019,-0.0016374,0.0076143,0.00075155,0,0,0.050451,-0.024055,0,0.0039081,0,0,0,0.027038,-0.0016571,0.0076143,1.5013,0.010998,0.025364,4.7631e-07,0.75,0.26,0
0.038124,0.004231,0.027044,-0.0014641,0.007674,0.00083145,0,0,0.050362,-0.023759,0,0.0043235,0,0,0,0.027068,-0.0014884,0.007674,1.6692,0.011085,0.025254,4.7524e-07,0.76,0.26,0
0.038627,0.0042913,0.027071,-0.001273,0.0077395,0.00090025,0,0,0.050263,-0.023432,0,0.0046813,0,0,0,0.0271,-0.0013016,0.0077395,1.8174,0.011179,0.025132,4.739e-07,0.77,0.26,0
0.039129,0.0043562,0.027099,-0.0010683,0.0078094,0.00095643,0,0,0.050154,-0.023082,0,0.0049734,0,0,0,0.027132,-0.0011007,0.0078094,1.9425,0.01128,0.024998,4.723e-07,0.78,0.26,0
0.03963,0.0044249,0.027129,-0.00085402,0.0078824,0.00099894,0,0,0.050041,-0.022715,0,0.0051945,0,0,0,0.027164,-0.00088963,0.0078824,2.0419,0.011386,0.024857,4.7048e-07,0.79,0.26,0
0.04013,0.0044964,0.027159,-0.00063463,0.0079574,0.0010273,0,0,0.049925,-0.022339,0,0.005342,0,0,0,0.027197,-0.00067255,0.0079574,2.1139,0.011494,0.024712,4.6849e-07,0.8,0.26,0
0.040628,0.0045697,0.027191,-0.00041421,0.008033,0.0010415,0,0,0.04981,-0.021963,0,0.0054159,0,0,0,0.02723,-0.00045345,0.008033,2.1576,0.011603,0.024565,4.6639e-07,0.81,0.26,0
0.041126,0.004644,0.027224,-0.00019654,0.0081081,0.001042,0,0,0.0497,-0.021592,0,0.0054182,0,0,0,0.027263,-0.00023607,0.0081081,2.1731,0.011712,0.024421,4.6426e-07,0.82,0.26,0
0.041622,0.0047183,0.027258,1.5045e-05,0.0081819,0.0010295,0,0,0.049598,-0.021234,0,0.0053533,0,0,0,0.027297,-2.3802e-05,0.0081819,2.161,0.011818,0.024281,4.6216e-07,0.83,0.26,0
0.042118,0.0047918,0.027294,0.00021769,0.0082535,0.0010051,0,0,0.049505,-0.020893,0,0.0052265,0,0,0,0.027331,0.00018043,0.0082535,2.123,0.011922,0.024149,4.6018e-07,0.84,0.26,0
0.042613,0.0048637,0.027332,0.00040909,0.0083222,0.00097016,0,0,0.049424,-0.020574,0,0.0050448,0,0,0,0.027366,0.00037417,0.0083222,2.0611,0.012021,0.024025,4.5835e-07,0.85,0.26,0
0.043106,0.0049334,0.02737,0.00058748,0.0083874,0.00092608,0,0,0.049356,-0.02028,0,0.0048156,0,0,0,0.027402,0.0005555,0.0083874,1.978,0.012115,0.023913,4.5675e-07,0.86,0.26,0
0.0436,0.0050002,0.02741,0.00075163,0.0084486,0.00087437,0,0,0.049301,-0.020012,0,0.0045467,0,0,0,0.027439,0.00072299,0.0084486,1.8765,0.012204,0.023813,4.5539e-07,0.87,0.26,0
0.044092,0.0050635,0.027451,0.00090083,0.0085056,0.00081652,0,0,0.049259,-0.019772,0,0.0042459,0,0,0,0.027476,0.00087575,0.0085056,1.7598,0.012286,0.023724,4.543e-07,0.88,0.26,0
0.044585,0.005123,0.027492,0.0010348,0.0085581,0.00075396,0,0,0.049229,-0.019561,0,0.0039206,0,0,0,0.027514,0.0010133,0.0085581,1.631,0.012362,0.023649,4.5348e-07,0.89,0.26,0
0.045077,0.0051783,0.027533,0.0011536,0.008606,0.00068798,0,0,0.04921,-0.019376,0,0.0035775,0,0,0,0.027551,0.0011357,0.008606,1.4929,0.012431,0.023585,4.5292e-07,0.9,0.26,0
0.045569,0.0052289,0.027573,0.0012577,0.0086491,0.00061974,0,0,0.049202,-0.019218,0,0.0032227,0,0,0,0.027587,0.0012431,0.0086491,1.3484,0.012493,0.023532,4.526e-07,0.91,0.26,0
0.046061,0.0052747,0.027611,0.0013477,0.0086876,0.00055018,0,0,0.049201,-0.019084,0,0.002861,0,0,0,0.027622,0.0013361,0.0086876,1.1996,0.012549,0.02349,4.5248e-07,0.92,0.26,0
0.046553,0.0053155,0.027647,0.0014243,0.0087213,0.00048007,0,0,0.049206,-0.018972,0,0.0024964,0,0,0,0.027655,0.0014155,0.0087213,1.0485,0.012597,0.023456,4.5252e-07,0.93,0.26,0
0.047045,0.0053511,0.027679,0.0014885,0.0087503,0.00040995,0,0,0.049215,-0.018881,0,0.0021318,0,0,0,0.027686,0.0014821,0.0087503,0.89654,0.012639,0.023431,4.5268e-07,0.94,0.26,0
0.047537,0.0053814,0.027708,0.001541,0.0087747,0.00034022,0,0,0.049227,-0.018808,0,0.0017691,0,0,0,0.027712,0.0015366,0.0087747,0.74478,0.012675,0.023411,4.529e-07,0.95,0.26,0
0.04803,0.0054062,0.027733,0.0015828,0.0087946,0.00027107,0,0,0.049238,-0.018751,0,0.0014096,0,0,0,0.027735,0.00158,0.0087946,0.59385,0.012703,0.023398,4.5315e-07,0.96,0.26,0
0.048522,0.0054256,0.027752,0.0016144,0.0088099,0.00020258,0,0,0.04925,-0.018708,0,0.0010534,0,0,0,0.027754,0.0016128,0.0088099,0.44403,0.012726,0.023388,4.5339e-07,0.97,0.26,0
0.049015,0.0054395,0.027766,0.0016366,0.0088209,0.00013467,0,0,0.049258,-0.018679,0,0.0007003,0,0,0,0.027767,0.0016359,0.0088209,0.29529,0.012741,0.023382,4.5359e-07,0.98,0.26,0
0.049507,0.0054479,0.027775,0.0016497,0.0088274,6.7217e-05,0,0,0.049264,-0.018662,0,0.00034953,0,0,0,0.027775,0.0016495,0.0088274,0.14741,0.012751,0.023378,4.5371e-07,0.99,0.26,0
0.05,0.0054506,0.027778,0.001654,0.0088296,5.3489e-05,0,0,0.049266,-0.018656,0,0.00027814,0,0,0,0.027778,0.0016539,0.0088296,0.11731,0.012754,0.023377,4.5376e-07,1,0.26,0
0,0,0.0279,0.011957,0.011957,0.0040536,0,0,0.041451,-3.7947e-19,0,0.021079,0,0,0,0.028871,0.010986,0.011957,13.477,0.017271,0.01742,2.6867e-07,0,0.27,0
0.00041451,0.00021079,0.027858,0.011455,0.011794,0.0040488,0,0,0.041767,-0.00088137,0,0.021054,0,0,0,0.028803,0.01051,0.011794,13.137,0.017036,0.017686,2.7909e-07,0.01,0.27,0
0.00083534,0.00041999,0.028027,0.011036,0.011719,0.0040256,0,0,0.042402,-0.0017751,0,0.020933,0,0,0,0.028933,0.010131,0.011719,12.677,0.016928,0.01806,2.9468e-07,0.02,0.27,0
0.0012625,0.0006274,0.028196,0.010613,0.011643,0.0039968,0,0,0.04304,-0.0026776,0,0.020783,0,0,0,0.029062,0.0097472,0.011643,12.223,0.016817,0.01844,3.1062e-07,0.03,0.27,0
0.0016961,0.0008328,0.028365,0.010186,0.011565,0.0039615,0,0,0.043678,-0.0035849,0,0.020599,0,0,0,0.02919,0.0093607,0.011565,11.775,0.016705,0.018824,3.2681e-07,0.04,0.27,0
0.0021361,0.0010359,0.02853,0.0097587,0.011487,0.003919,0,0,0.044313,-0.0044928,0,0.020379,0,0,0,0.029316,0.0089734,0.011487,11.331,0.016592,0.019209,3.4313e-07,0.05,0.27,0
0.0025824,0.0012364,0.028693,0.0093316,0.011407,0.0038688,0,0,0.044942,-0.0053968,0,0.020118,0,0,0,0.029437,0.0085871,0.011407,10.892,0.016477,0.019593,3.5946e-07,0.06,0.27,0
0.0030349,0.001434,0.028851,0.0089072,0.011327,0.0038108,0,0,0.045561,-0.0062925,0,0.019816,0,0,0,0.029554,0.0082039,0.011327,10.457,0.016362,0.019973,3.7568e-07,0.07,0.27,0
0.0034936,0.0016284,0.029004,0.0084875,0.011247,0.0037449,0,0,0.046166,-0.0071754,0,0.019474,0,0,0,0.029666,0.0078253,0.011247,10.028,0.016246,0.020346,3.9167e-07,0.08,0.27,0
0.0039583,0.0018192,0.02915,0.0080744,0.011167,0.0036713,0,0,0.046754,-0.0080413,0,0.019091,0,0,0,0.029771,0.0074532,0.011167,9.6042,0.01613,0.020712,4.0731e-07,0.09,0.27,0
0.0044287,0.0020061,0.029288,0.0076697,0.011087,0.0035904,0,0,0.047323,-0.0088862,0,0.01867,0,0,0,0.029869,0.007089,0.011087,9.1871,0.016015,0.021067,4.2252e-07,0.1,0.27,0
0.0049047,0.0021888,0.029419,0.0072749,0.011008,0.0035027,0,0,0.047868,-0.0097065,0,0.018214,0,0,0,0.02996,0.0067341,0.011008,8.7775,0.015901,0.021411,4.3718e-07,0.11,0.27,0
0.0053861,0.0023669,0.029541,0.0068916,0.01093,0.0034089,0,0,0.048389,-0.010499,0,0.017726,0,0,0,0.030043,0.0063897,0.01093,8.3764,0.015787,0.021742,4.5122e-07,0.12,0.27,0
0.0058725,0.0025403,0.029653,0.0065211,0.010852,0.0033098,0,0,0.048882,-0.011261,0,0.017211,0,0,0,0.030117,0.0060568,0.010852,7.9846,0.015675,0.022057,4.6456e-07,0.13,0.27,0
0.0063637,0.0027085,0.029756,0.0061643,0.010776,0.0032061,0,0,0.049347,-0.01199,0,0.016672,0,0,0,0.030184,0.0057364,0.010776,7.6029,0.015565,0.022358,4.7714e-07,0.14,0.27,0
0.0068594,0.0028714,0.029848,0.0058223,0.010701,0.0030988,0,0,0.049782,-0.012685,0,0.016114,0,0,0,0.030242,0.0054291,0.010701,7.2322,0.015457,0.022641,4.8891e-07,0.15,0.27,0
0.0073594,0.0030288,0.02993,0.0054956,0.010628,0.0029886,0,0,0.050187,-0.013344,0,0.015541,0,0,0,0.030291,0.0051353,0.010628,6.8729,0.015351,0.022908,4.9984e-07,0.16,0.27,0
0.0078632,0.0031805,0.030002,0.0051847,0.010556,0.0028765,0,0,0.05056,-0.013966,0,0.014958,0,0,0,0.030331,0.0048556,0.010556,6.5257,0.015248,0.023158,5.0991e-07,0.17,0.27,0
0.0083706,0.0033262,0.030064,0.0048899,0.010486,0.0027632,0,0,0.050902,-0.01455,0,0.014368,0,0,0,0.030364,0.0045902,0.010486,6.1908,0.015147,0.02339,5.1909e-07,0.18,0.27,0
0.0088812,0.003466,0.030115,0.0046114,0.010418,0.0026493,0,0,0.051213,-0.015097,0,0.013777,0,0,0,0.030388,0.0043391,0.010418,5.8684,0.015048,0.023604,5.2738e-07,0.19,0.27,0
0.0093948,0.0035996,0.030157,0.0043492,0.010352,0.0025357,0,0,0.051493,-0.015607,0,0.013186,0,0,0,0.030403,0.0041025,0.010352,5.5588,0.014953,0.0238,5.3478e-07,0.2,0.27,0
0.0099111,0.003727,0.030188,0.0041033,0.010287,0.0024228,0,0,0.051742,-0.016079,0,0.012599,0,0,0,0.030411,0.0038801,0.010287,5.2617,0.01486,0.023978,5.413e-07,0.21,0.27,0
0.01043,0.0038482,0.03021,0.0038732,0.010225,0.0023111,0,0,0.051961,-0.016515,0,0.012018,0,0,0,0.030411,0.0036719,0.010225,4.9772,0.014769,0.024139,5.4695e-07,0.22,0.27,0
0.01095,0.003963,0.030222,0.0036588,0.010164,0.0022011,0,0,0.052151,-0.016914,0,0.011446,0,0,0,0.030404,0.0034777,0.010164,4.7048,0.014682,0.024283,5.5175e-07,0.23,0.27,0
0.011473,0.0040714,0.030226,0.0034596,0.010106,0.002093,0,0,0.052313,-0.01728,0,0.010884,0,0,0,0.030389,0.0032969,0.010106,4.4443,0.014597,0.02441,5.5571e-07,0.24,0.27,0
0.011997,0.0041735,0.030221,0.0032752,0.010049,0.0019871,0,0,0.052447,-0.017611,0,0.010333,0,0,0,0.030366,0.0031294,0.010049,4.195,0.014515,0.024521,5.5887e-07,0.25,0.27,0
0.012522,0.0042692,0.030207,0.0031049,0.0099936,0.0018835,0,0,0.052555,-0.01791,0,0.0097942,0,0,0,0.030337,0.0029746,0.0099936,3.9565,0.014435,0.024615,5.6125e-07,0.26,0.27,0
0.013048,0.0043584,0.030185,0.0029483,0.00994,0.0017823,0,0,0.052637,-0.018179,0,0.009268,0,0,0,0.030301,0.0028321,0.00994,3.7281,0.014358,0.024695,5.6287e-07,0.27,0.27,0
0.013574,0.0044413,0.030155,0.0028045,0.0098879,0.0016835,0,0,0.052695,-0.018417,0,0.0087541,0,0,0,0.030258,0.0027013,0.0098879,3.509,0.014283,0.024759,5.6377e-07,0.28,0.27,0
0.014101,0.0045179,0.030118,0.0026731,0.0098372,0.001587,0,0,0.052729,-0.018627,0,0.0082522,0,0,0,0.030209,0.0025816,0.0098372,3.2984,0.014209,0.024809,5.6397e-07,0.29,0.27,0
0.014629,0.004588,0.030073,0.002553,0.0097877,0.0014926,0,0,0.052741,-0.01881,0,0.0077615,0,0,0,0.030153,0.0024723,0.0097877,3.0955,0.014138,0.024845,5.6352e-07,0.3,0.27,0
0.015156,0.0046518,0.030021,0.0024436,0.0097393,0.0014002,0,0,0.052732,-0.018969,0,0.007281,0,0,0,0.030092,0.0023727,0.0097393,2.8992,0.014068,0.024868,5.6244e-07,0.31,0.27,0
0.015684,0.0047093,0.029962,0.002344,0.0096918,0.0013095,0,0,0.052702,-0.019104,0,0.0068095,0,0,0,0.030024,0.0022821,0.0096918,2.7086,0.013999,0.024879,5.6077e-07,0.32,0.27,0
0.01621,0.0047605,0.029896,0.0022533,0.0096449,0.0012203,0,0,0.052654,-0.019218,0,0.0063453,0,0,0,0.02995,0.0021995,0.0096449,2.5227,0.013931,0.024878,5.5856e-07,0.33,0.27,0
0.016737,0.0048053,0.029825,0.0021703,0.0095984,0.0011321,0,0,0.052588,-0.019313,0,0.005887,0,0,0,0.029871,0.002124,0.0095984,2.3404,0.013864,0.024867,5.5584e-07,0.34,0.27,0
0.017262,0.0048438,0.029747,0.0020941,0.0095522,0.0010447,0,0,0.052505,-0.019391,0,0.0054326,0,0,0,0.029786,0.0020547,0.0095522,2.1606,0.013798,0.024846,5.5267e-07,0.35,0.27,0
0.017787,0.004876,0.029663,0.0020235,0.009506,0.00095777,0,0,0.052408,-0.019454,0,0.0049804,0,0,0,0.029696,0.0019904,0.009506,1.9823,0.013731,0.024817,5.4908e-07,0.36,0.27,0
0.01831,0.0049019,0.029574,0.0019573,0.0094594,0.00087087,0,0,0.052298,-0.019505,0,0.0045286,0,0,0,0.029601,0.0019299,0.0094594,1.8044,0.013664,0.02478,5.4513e-07,0.37,0.27,0
0.018833,0.0049214,0.02948,0.0018942,0.0094122,0.00078371,0,0,0.052176,-0.019547,0,0.0040753,0,0,0,0.029502,0.0018719,0.0094122,1.626,0.013595,0.024737,5.4088e-07,0.38,0.27,0
0.019354,0.0049347,0.029381,0.0018327,0.0093641,0.00069599,0,0,0.052044,-0.019582,0,0.0036191,0,0,0,0.029399,0.0018151,0.0093641,1.4463,0.013526,0.02469,5.3639e-07,0.39,0.27,0
0.019874,0.0049416,0.029278,0.0017713,0.0093148,0.00060745,0,0,0.051904,-0.019613,0,0.0031587,0,0,0,0.029292,0.0017579,0.0093148,1.2645,0.013455,0.02464,5.3172e-07,0.4,0.27,0
0.020392,0.0049422,0.029171,0.0017085,0.009264,0.00051793,0,0,0.051759,-0.019644,0,0.0026932,0,0,0,0.029181,0.0016987,0.009264,1.08,0.013381,0.024589,5.2695e-07,0.41,0.27,0
0.020909,0.0049365,0.029062,0.0016426,0.0092113,0.00042735,0,0,0.051611,-0.019679,0,0.0022222,0,0,0,0.029068,0.0016359,0.0092113,0.8927,0.013305,0.024538,5.2214e-07,0.42,0.27,0
0.021424,0.0049246,0.02895,0.0015718,0.0091564,0.00033575,0,0,0.051462,-0.01972,0,0.0017459,0,0,0,0.028954,0.0015677,0.0091564,0.70252,0.013226,0.02449,5.1737e-07,0.43,0.27,0
0.021938,0.0049065,0.028836,0.0014946,0.009099,0.00024333,0,0,0.051315,-0.019772,0,0.0012653,0,0,0,0.028838,0.0014924,0.009099,0.50988,0.013143,0.024446,5.1271e-07,0.44,0.27,0
0.02245,0.0048822,0.02872,0.001409,0.0090388,0.00015045,0,0,0.051172,-0.019838,0,0.00078235,0,0,0,0.028721,0.0014081,0.0090388,0.31562,0.013056,0.024409,5.0824e-07,0.45,0.27,0
0.022961,0.004852,0.028605,0.0013134,0.0089754,5.7659e-05,0,0,0.051036,-0.019921,0,0.00029983,0,0,0,0.028605,0.0013133,0.0089754,0.12105,0.012965,0.024381,5.0402e-07,0.46,0.27,0
0.023471,0.0048159,0.028489,0.0012063,0.0089087,-3.4287e-05,0,0,0.05091,-0.020026,0,-0.00017829,0,0,0,0.028489,0.0012063,0.0089087,-0.072005,0.012868,0.024363,5.0012e-07,0.47,0.27,0
0.02398,0.0047743,0.028375,0.0010862,0.0088383,-0.00012441,0,0,0.050795,-0.020155,0,-0.00064694,0,0,0,0.028376,0.0010857,0.0088383,-0.26121,0.012767,0.024357,4.9659e-07,0.48,0.27,0
0.024487,0.0047274,0.028262,0.00095209,0.0087642,-0.00021153,0,0,0.050694,-0.020312,0,-0.0010999,0,0,0,0.028264,0.00095045,0.0087642,-0.44374,0.01266,0.024365,4.9346e-07,0.49,0.27,0
0.024993,0.0046755,0.028151,0.00080308,0.0086863,-0.00029425,0,0,0.050609,-0.020497,0,-0.0015301,0,0,0,0.028154,0.00079991,0.0086863,-0.61638,0.012547,0.024387,4.9077e-07,0.5,0.27,0
0.025499,0.0046191,0.028043,0.00063887,0.0086046,-0.00037106,0,0,0.05054,-0.020711,0,-0.0019295,0,0,0,0.028048,0.00063384,0.0086046,-0.77561,0.012429,0.024425,4.8851e-07,0.51,0.27,0
0.026004,0.0045588,0.027938,0.00045964,0.0085193,-0.00044031,0,0,0.050489,-0.020955,0,-0.0022896,0,0,0,0.027945,0.00045259,0.0085193,-0.91778,0.012306,0.024477,4.8667e-07,0.52,0.27,0
0.026509,0.0044951,0.027836,0.00026618,0.0084306,-0.00050033,0,0,0.050454,-0.021227,0,-0.0026017,0,0,0,0.027845,0.00025711,0.0084306,-1.0393,0.012178,0.024544,4.852e-07,0.53,0.27,0
0.027013,0.0044288,0.027737,5.9909e-05,0.008339,-0.0005495,0,0,0.050434,-0.021526,0,-0.0028574,0,0,0,0.027748,4.9003e-05,0.008339,-1.137,0.012045,0.024624,4.8407e-07,0.54,0.27,0
0.027518,0.0043608,0.027641,-0.0001571,0.0082451,-0.00058634,0,0,0.050429,-0.021846,0,-0.0030489,0,0,0,0.027653,-0.00016946,0.0082451,-1.2078,0.01191,0.024714,4.8318e-07,0.55,0.27,0
0.028022,0.0042918,0.027548,-0.00038211,0.0081498,-0.00060954,0,0,0.050435,-0.022183,0,-0.0031696,0,0,0,0.027561,-0.00039541,0.0081498,-1.2496,0.011772,0.024813,4.8248e-07,0.56,0.27,0
0.028526,0.0042228,0.027458,-0.00061175,0.0080538,-0.00061813,0,0,0.050451,-0.02253,0,-0.0032143,0,0,0,0.027471,-0.00062535,0.0080538,-1.2609,0.011633,0.024918,4.8187e-07,0.57,0.27,0
0.029031,0.0041549,0.02737,-0.00084204,0.0079585,-0.00061148,0,0,0.050471,-0.022881,0,-0.0031797,0,0,0,0.027384,-0.00085529,0.0079585,-1.2411,0.011496,0.025025,4.8126e-07,0.58,0.27,0
0.029536,0.0040892,0.027286,-0.0010685,0.0078651,-0.00058947,0,0,0.050493,-0.023228,0,-0.0030652,0,0,0,0.027298,-0.0010808,0.0078651,-1.1905,0.011361,0.02513,4.8059e-07,0.59,0.27,0
0.030041,0.0040266,0.027204,-0.0012865,0.0077751,-0.00055249,0,0,0.050514,-0.02356,0,-0.0028729,0,0,0,0.027214,-0.0012972,0.0077751,-1.1105,0.011231,0.02523,4.7977e-07,0.6,0.27,0
0.030546,0.0039682,0.027124,-0.001491,0.00769,-0.00050154,0,0,0.050529,-0.02387,0,-0.002608,0,0,0,0.027133,-0.0014997,0.00769,-1.0038,0.011108,0.025321,4.7878e-07,0.61,0.27,0
0.031051,0.0039151,0.027048,-0.0016773,0.0076112,-0.00043824,0,0,0.050536,-0.02415,0,-0.0022788,0,0,0,0.027055,-0.001684,0.0076112,-0.87384,0.010994,0.0254,4.7758e-07,0.62,0.27,0
0.031557,0.0038681,0.026976,-0.0018414,0.0075404,-0.00036476,0,0,0.050533,-0.024393,0,-0.0018967,0,0,0,0.026981,-0.001846,0.0075404,-0.72508,0.010892,0.025466,4.762e-07,0.63,0.27,0
0.032062,0.003828,0.026909,-0.0019799,0.0074788,-0.00028367,0,0,0.050519,-0.024592,0,-0.0014751,0,0,0,0.026912,-0.0019827,0.0074788,-0.56254,0.010803,0.025515,4.7467e-07,0.64,0.27,0
0.032567,0.0037954,0.026849,-0.002091,0.0074275,-0.00019763,0,0,0.050497,-0.024748,0,-0.0010277,0,0,0,0.026851,-0.0020923,0.0074275,-0.39124,0.010729,0.02555,4.7311e-07,0.65,0.27,0
0.033072,0.0037709,0.026798,-0.0021742,0.0073873,-0.00010892,0,0,0.050469,-0.02486,0,-0.0005664,0,0,0,0.026799,-0.0021746,0.0073873,-0.2154,0.01067,0.02557,4.7162e-07,0.66,0.27,0
0.033577,0.0037548,0.026759,-0.00223,0.0073586,-1.9089e-05,0,0,0.05044,-0.02493,0,-9.9265e-05,0,0,0,0.026759,-0.00223,0.0073586,-0.03773,0.010629,0.02558,4.7033e-07,0.67,0.27,0
0.034081,0.0037473,0.026732,-0.0022595,0.0073416,7.1294e-05,0,0,0.050414,-0.024963,0,0.00037073,0,0,0,0.026732,-0.0022597,0.0073416,0.1409,0.010605,0.02558,4.6936e-07,0.68,0.27,0
0.034585,0.0037486,0.026718,-0.0022634,0.0073364,0.00016243,0,0,0.050392,-0.02496,0,0.00084466,0,0,0,0.026719,-0.0022643,0.0073364,0.32111,0.010597,0.025572,4.6878e-07,0.69,0.27,0
0.035089,0.0037586,0.026718,-0.0022418,0.007343,0.00025486,0,0,0.050376,-0.02492,0,0.0013253,0,0,0,0.026721,-0.002244,0.007343,0.50418,0.010606,0.025557,4.6857e-07,0.7,0.27,0
0.035592,0.0037774,0.026731,-0.0021936,0.0073612,0.00034882,0,0,0.050362,-0.024843,0,0.0018139,0,0,0,0.026735,-0.0021978,0.0073612,0.69083,0.010633,0.025533,4.6867e-07,0.71,0.27,0
0.036096,0.0038049,0.026755,-0.0021177,0.007391,0.00044378,0,0,0.050345,-0.024723,0,0.0023076,0,0,0,0.026761,-0.0021246,0.007391,0.88038,0.010676,0.025497,4.6897e-07,0.72,0.27,0
0.036599,0.0038406,0.026787,-0.0020134,0.007432,0.00053825,0,0,0.050322,-0.024558,0,0.0027989,0,0,0,0.026797,-0.0020234,0.007432,1.0703,0.010735,0.025446,4.6932e-07,0.73,0.27,0
0.037102,0.0038843,0.026825,-0.0018807,0.0074832,0.00062995,0,0,0.050288,-0.024346,0,0.0032758,0,0,0,0.026839,-0.0018945,0.0074832,1.2566,0.010809,0.025379,4.6958e-07,0.74,0.27,0
0.037605,0.0039354,0.026867,-0.0017213,0.0075438,0.00071619,0,0,0.050241,-0.024089,0,0.0037242,0,0,0,0.026885,-0.0017393,0.0075438,1.4341,0.010897,0.025295,4.6966e-07,0.75,0.27,0
0.038107,0.0039932,0.026913,-0.0015383,0.0076123,0.00079428,0,0,0.050181,-0.023792,0,0.0041302,0,0,0,0.026935,-0.0015604,0.0076123,1.5979,0.010996,0.025194,4.6948e-07,0.76,0.27,0
0.038609,0.0040568,0.02696,-0.0013355,0.0076873,0.00086188,0,0,0.050109,-0.02346,0,0.0044818,0,0,0,0.026986,-0.0013618,0.0076873,1.7431,0.011104,0.025079,4.6901e-07,0.77,0.27,0
0.039109,0.0041253,0.027008,-0.0011176,0.0077672,0.00091719,0,0,0.050027,-0.0231,0,0.0047694,0,0,0,0.027038,-0.0011475,0.0077672,1.8658,0.011219,0.024953,4.6825e-07,0.78,0.27,0
0.039609,0.0041977,0.027057,-0.00088939,0.0078504,0.00095897,0,0,0.049938,-0.022723,0,0.0049866,0,0,0,0.02709,-0.00092226,0.0078504,1.963,0.011339,0.024818,4.6722e-07,0.79,0.27,0
0.040108,0.004273,0.027107,-0.00065569,0.0079354,0.00098657,0,0,0.049846,-0.022337,0,0.0051302,0,0,0,0.027142,-0.00069071,0.0079354,2.0326,0.011462,0.024678,4.6598e-07,0.8,0.27,0
0.040606,0.0043502,0.027157,-0.00042115,0.0080208,0.00099992,0,0,0.049754,-0.021949,0,0.0051996,0,0,0,0.027193,-0.00045736,0.0080208,2.0738,0.011586,0.024536,4.6458e-07,0.81,0.27,0
0.041103,0.0044282,0.027208,-0.00018997,0.0081054,0.0009994,0,0,0.049666,-0.021568,0,0.0051969,0,0,0,0.027244,-0.00022637,0.0081054,2.0863,0.011708,0.024396,4.6312e-07,0.82,0.27,0
0.041599,0.0045061,0.027259,3.4156e-05,0.008188,0.00098582,0,0,0.049585,-0.0212,0,0.0051263,0,0,0,0.027295,-1.4942e-06,0.008188,2.0711,0.011827,0.024261,4.6165e-07,0.83,0.27,0
0.042095,0.0045831,0.027311,0.00024809,0.0082678,0.00096033,0,0,0.049513,-0.020851,0,0.0049937,0,0,0,0.027345,0.00021406,0.0082678,2.0297,0.011942,0.024134,4.6026e-07,0.84,0.27,0
0.04259,0.0046582,0.027364,0.00044934,0.0083439,0.00092431,0,0,0.049452,-0.020526,0,0.0048064,0,0,0,0.027395,0.00041764,0.0083439,1.9646,0.012052,0.024017,4.5901e-07,0.85,0.27,0
0.043084,0.0047308,0.027417,0.00063602,0.0084159,0.00087932,0,0,0.049403,-0.020228,0,0.0045725,0,0,0,0.027446,0.00060718,0.0084159,1.8785,0.012156,0.023911,4.5796e-07,0.86,0.27,0
0.043578,0.0048003,0.027471,0.00080687,0.0084832,0.000827,0,0,0.049367,-0.019959,0,0.0043004,0,0,0,0.027496,0.00078124,0.0084832,1.7748,0.012254,0.023817,4.5714e-07,0.87,0.27,0
0.044071,0.0048661,0.027524,0.0009612,0.0085456,0.00076898,0,0,0.049344,-0.01972,0,0.0039987,0,0,0,0.027546,0.00093896,0.0085456,1.6568,0.012344,0.023737,4.5659e-07,0.88,0.27,0
0.044565,0.0049277,0.027577,0.0010988,0.0086028,0.00070681,0,0,0.049333,-0.01951,0,0.0036754,0,0,0,0.027596,0.00108,0.0086028,1.528,0.012426,0.023669,4.563e-07,0.89,0.27,0
0.045058,0.0049848,0.027629,0.0012201,0.0086547,0.00064187,0,0,0.049333,-0.01933,0,0.0033378,0,0,0,0.027645,0.0012045,0.0086547,1.3915,0.012501,0.023614,4.5626e-07,0.9,0.27,0
0.045551,0.005037,0.027679,0.0013255,0.0087014,0.0005754,0,0,0.049342,-0.019177,0,0.0029921,0,0,0,0.027692,0.001313,0.0087014,1.2502,0.012569,0.02357,4.5643e-07,0.91,0.27,0
0.046045,0.0050841,0.027727,0.001416,0.0087427,0.00050836,0,0,0.049358,-0.01905,0,0.0026435,0,0,0,0.027736,0.0014061,0.0087427,1.1065,0.012628,0.023536,4.5678e-07,0.92,0.27,0
0.046538,0.005126,0.027771,0.0014924,0.0087789,0.00044152,0,0,0.049378,-0.018945,0,0.0022959,0,0,0,0.027778,0.001485,0.0087789,0.9623,0.012681,0.023511,4.5726e-07,0.93,0.27,0
0.047032,0.0051625,0.02781,0.001556,0.0088099,0.0003754,0,0,0.049402,-0.01886,0,0.0019521,0,0,0,0.027816,0.0015506,0.0088099,0.81902,0.012726,0.023492,4.5782e-07,0.94,0.27,0
0.047526,0.0051934,0.027846,0.0016076,0.008836,0.00031032,0,0,0.049425,-0.018794,0,0.0016137,0,0,0,0.027849,0.001604,0.008836,0.67753,0.012763,0.02348,4.584e-07,0.95,0.27,0
0.048021,0.0052188,0.027875,0.0016484,0.0088571,0.00024642,0,0,0.049447,-0.018743,0,0.0012814,0,0,0,0.027878,0.0016461,0.0088571,0.53826,0.012794,0.023472,4.5895e-07,0.96,0.27,0
0.048515,0.0052387,0.027899,0.0016792,0.0088734,0.00018364,0,0,0.049466,-0.018705,0,0.00095495,0,0,0,0.0279,0.0016779,0.0088734,0.40127,0.012817,0.023467,4.5943e-07,0.97,0.27,0
0.04901,0.0052528,0.027916,0.0017006,0.0088851,0.00012184,0,0,0.049481,-0.01868,0,0.00063356,0,0,0,0.027917,0.0017001,0.0088851,0.26628,0.012834,0.023464,4.598e-07,0.98,0.27,0
0.049505,0.0052613,0.027927,0.0017133,0.008892,6.0736e-05,0,0,0.04949,-0.018665,0,0.00031583,0,0,0,0.027927,0.0017132,0.008892,0.13275,0.012844,0.023463,4.6003e-07,0.99,0.27,0
0.05,0.0052641,0.02793,0.0017175,0.0088943,5.4504e-05,0,0,0.049493,-0.01866,0,0.00028342,0,0,0,0.02793,0.0017174,0.0088943,0.11913,0.012847,0.023463,4.6012e-07,1,0.27,0
0,0,0.027939,0.011974,0.011974,0.003885,0,0,0.041509,-1.2468e-18,0,0.020202,0,0,0,0.028834,0.011079,0.011974,12.976,0.017295,0.017325,2.6469e-07,0,0.28,0
0.00041509,0.00020202,0.027897,0.011476,0.011812,0.0038803,0,0,0.041822,-0.00087384,0,0.020177,0,0,0,0.028768,0.010605,0.011812,12.647,0.017062,0.017591,2.7512e-07,0.01,0.28,0
0.00083644,0.00040233,0.028065,0.011062,0.011738,0.0038567,0,0,0.04245,-0.0017579,0,0.020055,0,0,0,0.028899,0.010228,0.011738,12.201,0.016955,0.017964,2.9063e-07,0.02,0.28,0
0.0012641,0.00060078,0.028233,0.010644,0.011663,0.0038284,0,0,0.043081,-0.0026488,0,0.019908,0,0,0,0.02903,0.0098471,0.011663,11.763,0.016847,0.018342,3.0649e-07,0.03,0.28,0
0.0016981,0.00079718,0.028399,0.010224,0.011587,0.0037947,0,0,0.043711,-0.0035432,0,0.019732,0,0,0,0.029159,0.0094637,0.011587,11.332,0.016737,0.018725,3.2261e-07,0.04,0.28,0
0.0021383,0.00099128,0.028563,0.0098033,0.01151,0.0037549,0,0,0.044338,-0.0044372,0,0.019525,0,0,0,0.029287,0.0090797,0.01151,10.908,0.016626,0.019108,3.3887e-07,0.05,0.28,0
0.0025848,0.0011828,0.028724,0.0093836,0.011432,0.0037084,0,0,0.044959,-0.0053269,0,0.019284,0,0,0,0.029411,0.0086969,0.011432,10.491,0.016514,0.019491,3.5517e-07,0.06,0.28,0
0.0030375,0.0013716,0.028882,0.0089667,0.011355,0.0036552,0,0,0.04557,-0.0062082,0,0.019007,0,0,0,0.029531,0.008317,0.011355,10.079,0.016401,0.01987,3.714e-07,0.07,0.28,0
0.0034962,0.0015572,0.029034,0.0085544,0.011276,0.0035951,0,0,0.046169,-0.0070772,0,0.018694,0,0,0,0.029646,0.0079416,0.011276,9.673,0.016288,0.020244,3.8744e-07,0.08,0.28,0
0.0039609,0.0017394,0.02918,0.0081485,0.011199,0.0035282,0,0,0.046751,-0.00793,0,0.018347,0,0,0,0.029756,0.0075724,0.011199,9.2738,0.016176,0.020611,4.0319e-07,0.09,0.28,0
0.0044313,0.0019179,0.029319,0.0077504,0.011121,0.0034548,0,0,0.047315,-0.0087631,0,0.017965,0,0,0,0.029859,0.0072105,0.011121,8.8816,0.016063,0.020969,4.1854e-07,0.1,0.28,0
0.0049072,0.0020924,0.029451,0.0073618,0.011044,0.0033754,0,0,0.047858,-0.0095731,0,0.017552,0,0,0,0.029955,0.0068575,0.011044,8.4971,0.015952,0.021315,4.3341e-07,0.11,0.28,0
0.0053884,0.0022627,0.029574,0.006984,0.010967,0.0032905,0,0,0.048378,-0.010357,0,0.017111,0,0,0,0.030044,0.0065145,0.010967,8.1209,0.015842,0.021649,4.4771e-07,0.12,0.28,0
0.0058747,0.0024284,0.029689,0.0066182,0.010892,0.0032007,0,0,0.048872,-0.011113,0,0.016644,0,0,0,0.030125,0.0061824,0.010892,7.7538,0.015733,0.02197,4.6137e-07,0.13,0.28,0
0.0063659,0.0025894,0.029795,0.0062654,0.010818,0.0031068,0,0,0.04934,-0.011837,0,0.016155,0,0,0,0.030198,0.0058621,0.010818,7.3964,0.015626,0.022276,4.7433e-07,0.14,0.28,0
0.0068615,0.0027454,0.029891,0.0059265,0.010745,0.0030094,0,0,0.049779,-0.012529,0,0.015649,0,0,0,0.030263,0.0055543,0.010745,7.0493,0.015521,0.022566,4.8652e-07,0.15,0.28,0
0.0073615,0.0028962,0.029977,0.0056021,0.010674,0.0029094,0,0,0.050189,-0.013187,0,0.015129,0,0,0,0.03032,0.0052596,0.010674,6.713,0.015418,0.02284,4.9792e-07,0.16,0.28,0
0.0078653,0.0030416,0.030054,0.0052927,0.010604,0.0028074,0,0,0.05057,-0.013809,0,0.014598,0,0,0,0.030368,0.0049784,0.010604,6.3881,0.015317,0.023097,5.0849e-07,0.17,0.28,0
0.0083728,0.0031816,0.030121,0.0049988,0.010536,0.0027042,0,0,0.050921,-0.014396,0,0.014062,0,0,0,0.030409,0.004711,0.010536,6.0747,0.015218,0.023337,5.182e-07,0.18,0.28,0
0.0088837,0.0033158,0.030177,0.0047205,0.010469,0.0026003,0,0,0.051241,-0.014947,0,0.013522,0,0,0,0.03044,0.0044576,0.010469,5.7731,0.015123,0.023559,5.2705e-07,0.19,0.28,0
0.0093977,0.0034443,0.030225,0.0044579,0.010405,0.0024965,0,0,0.051532,-0.015462,0,0.012982,0,0,0,0.030464,0.0042182,0.010405,5.4835,0.015029,0.023765,5.3503e-07,0.2,0.28,0
0.0099144,0.003567,0.030262,0.004211,0.010342,0.0023933,0,0,0.051792,-0.01594,0,0.012445,0,0,0,0.03048,0.0039929,0.010342,5.2057,0.014938,0.023952,5.4213e-07,0.21,0.28,0
0.010434,0.0036837,0.03029,0.0039795,0.010281,0.0022911,0,0,0.052023,-0.016383,0,0.011914,0,0,0,0.030488,0.0037815,0.010281,4.9397,0.01485,0.024123,5.4836e-07,0.22,0.28,0
0.010955,0.0037945,0.030308,0.0037634,0.010221,0.0021902,0,0,0.052226,-0.016791,0,0.011389,0,0,0,0.030488,0.0035839,0.010221,4.6852,0.014764,0.024276,5.5374e-07,0.23,0.28,0
0.011478,0.0038992,0.030318,0.0035622,0.010164,0.0020911,0,0,0.0524,-0.017165,0,0.010873,0,0,0,0.03048,0.0033998,0.010164,4.442,0.014681,0.024412,5.5827e-07,0.24,0.28,0
0.012003,0.0039979,0.030319,0.0033756,0.010108,0.0019938,0,0,0.052547,-0.017505,0,0.010368,0,0,0,0.030465,0.0032289,0.010108,4.2095,0.014601,0.024531,5.6197e-07,0.25,0.28,0
0.012529,0.0040906,0.030311,0.0032031,0.010054,0.0018987,0,0,0.052667,-0.017813,0,0.0098731,0,0,0,0.030443,0.0030707,0.010054,3.9872,0.014523,0.024634,5.6487e-07,0.26,0.28,0
0.013056,0.0041771,0.030294,0.0030441,0.010001,0.0018057,0,0,0.052761,-0.018089,0,0.0093894,0,0,0,0.030413,0.002925,0.010001,3.7746,0.014447,0.024722,5.6698e-07,0.27,0.28,0
0.013584,0.0042576,0.03027,0.0028981,0.0099503,0.0017148,0,0,0.05283,-0.018336,0,0.0089167,0,0,0,0.030377,0.0027911,0.0099503,3.5709,0.014373,0.024793,5.6834e-07,0.28,0.28,0
0.014113,0.004332,0.030237,0.0027645,0.0099004,0.0016259,0,0,0.052875,-0.018553,0,0.0084548,0,0,0,0.030333,0.0026686,0.0099004,3.3753,0.014301,0.02485,5.6896e-07,0.29,0.28,0
0.014642,0.0044003,0.030197,0.0026425,0.0098517,0.001539,0,0,0.052896,-0.018744,0,0.008003,0,0,0,0.030282,0.0025568,0.0098517,3.1871,0.01423,0.024893,5.6887e-07,0.3,0.28,0
0.015171,0.0044625,0.030149,0.0025313,0.0098039,0.0014539,0,0,0.052896,-0.018909,0,0.0075601,0,0,0,0.030225,0.002455,0.0098039,3.0052,0.014161,0.024922,5.6812e-07,0.31,0.28,0
0.0157,0.0045186,0.030093,0.0024303,0.009757,0.0013702,0,0,0.052874,-0.01905,0,0.007125,0,0,0,0.030161,0.0023626,0.009757,2.8287,0.014093,0.024937,5.6672e-07,0.32,0.28,0
0.016228,0.0045686,0.030031,0.0023383,0.0097106,0.0012877,0,0,0.052832,-0.019168,0,0.0066961,0,0,0,0.03009,0.0022785,0.0097106,2.6567,0.014027,0.024941,5.6472e-07,0.33,0.28,0
0.016756,0.0046124,0.029961,0.0022545,0.0096646,0.0012061,0,0,0.05277,-0.019266,0,0.0062717,0,0,0,0.030013,0.0022021,0.0096646,2.4879,0.01396,0.024932,5.6216e-07,0.34,0.28,0
0.017284,0.0046502,0.029885,0.0021779,0.0096188,0.001125,0,0,0.052691,-0.019346,0,0.0058499,0,0,0,0.02993,0.0021323,0.0096188,2.3213,0.013894,0.024913,5.5907e-07,0.35,0.28,0
0.01781,0.0046817,0.029802,0.0021072,0.0095727,0.001044,0,0,0.052596,-0.01941,0,0.0054288,0,0,0,0.029841,0.0020679,0.0095727,2.1558,0.013827,0.024885,5.5552e-07,0.36,0.28,0
0.018336,0.0047071,0.029713,0.0020412,0.0095263,0.00096275,0,0,0.052485,-0.019461,0,0.0050063,0,0,0,0.029746,0.0020078,0.0095263,1.9902,0.01376,0.024848,5.5154e-07,0.37,0.28,0
0.01886,0.0047263,0.029618,0.0019787,0.0094791,0.00088088,0,0,0.052362,-0.019501,0,0.0045806,0,0,0,0.029646,0.0019506,0.0094791,1.8236,0.013692,0.024804,5.4719e-07,0.38,0.28,0
0.019383,0.0047392,0.029518,0.0019181,0.0094308,0.00079802,0,0,0.052227,-0.019533,0,0.0041497,0,0,0,0.029541,0.001895,0.0094308,1.6548,0.013622,0.024754,5.4254e-07,0.39,0.28,0
0.019904,0.0047458,0.029413,0.0018579,0.0093811,0.0007139,0,0,0.052082,-0.019561,0,0.0037123,0,0,0,0.029431,0.0018394,0.0093811,1.4831,0.013551,0.0247,5.3765e-07,0.4,0.28,0
0.020424,0.0047461,0.029303,0.0017964,0.0093297,0.00062827,0,0,0.05193,-0.019587,0,0.003267,0,0,0,0.029317,0.001782,0.0093297,1.3078,0.013476,0.024644,5.3259e-07,0.41,0.28,0
0.020943,0.0047401,0.029189,0.0017318,0.0092762,0.00054102,0,0,0.051773,-0.019615,0,0.0028133,0,0,0,0.029199,0.0017212,0.0092762,1.1284,0.013399,0.024587,5.2744e-07,0.42,0.28,0
0.02146,0.0047278,0.029071,0.0016624,0.0092201,0.00045212,0,0,0.051613,-0.01965,0,0.002351,0,0,0,0.029079,0.001655,0.0092201,0.94476,0.013318,0.024532,5.2227e-07,0.43,0.28,0
0.021975,0.0047092,0.028951,0.0015862,0.0091611,0.00036172,0,0,0.051453,-0.019695,0,0.0018809,0,0,0,0.028956,0.0015814,0.0091611,0.75718,0.013233,0.024481,5.1717e-07,0.44,0.28,0
0.022489,0.0046843,0.028828,0.0015012,0.0090989,0.00027015,0,0,0.051297,-0.019754,0,0.0014048,0,0,0,0.028831,0.0014985,0.0090989,0.56634,0.013143,0.024436,5.1222e-07,0.45,0.28,0
0.023001,0.0046533,0.028705,0.0014056,0.0090331,0.00017795,0,0,0.051146,-0.019831,0,0.00092535,0,0,0,0.028706,0.0014045,0.0090331,0.37347,0.013048,0.024399,5.0749e-07,0.46,0.28,0
0.023512,0.0046162,0.02858,0.0012976,0.0089633,8.5887e-05,0,0,0.051003,-0.019931,0,0.00044661,0,0,0,0.02858,0.0012973,0.0089633,0.18037,0.012947,0.024372,5.0304e-07,0.47,0.28,0
0.024021,0.0045733,0.028455,0.0011755,0.0088892,-5.0273e-06,0,0,0.050872,-0.020056,0,-2.6142e-05,0,0,0,0.028455,0.0011755,0.0088892,-0.010559,0.01284,0.024357,4.9895e-07,0.48,0.28,0
0.024529,0.0045248,0.028331,0.001038,0.0088107,-9.3531e-05,0,0,0.050753,-0.020209,0,-0.00048636,0,0,0,0.028331,0.0010377,0.0088107,-0.19634,0.012727,0.024356,4.9525e-07,0.49,0.28,0
0.025036,0.004471,0.028208,0.00088408,0.0087276,-0.00017814,0,0,0.050649,-0.020393,0,-0.00092631,0,0,0,0.028209,0.00088292,0.0087276,-0.37351,0.012607,0.02437,4.9197e-07,0.5,0.28,0
0.025542,0.0044125,0.028087,0.00071327,0.0086399,-0.00025717,0,0,0.050561,-0.020609,0,-0.0013373,0,0,0,0.028089,0.00071086,0.0086399,-0.53823,0.01248,0.0244,4.8911e-07,0.51,0.28,0
0.026047,0.0043497,0.027967,0.00052568,0.0085477,-0.00032885,0,0,0.050489,-0.020857,0,-0.00171,0,0,0,0.027971,0.00052174,0.0085477,-0.6865,0.012347,0.024445,4.8665e-07,0.52,0.28,0
0.026552,0.0042833,0.027849,0.00032212,0.0084513,-0.00039137,0,0,0.050433,-0.021136,0,-0.0020351,0,0,0,0.027854,0.00031655,0.0084513,-0.81441,0.012207,0.024505,4.8455e-07,0.53,0.28,0
0.027056,0.004214,0.027733,0.00010411,0.008351,-0.00044299,0,0,0.050392,-0.021442,0,-0.0023035,0,0,0,0.02774,9.7007e-05,0.008351,-0.91835,0.012063,0.024578,4.8274e-07,0.54,0.28,0
0.02756,0.0041427,0.027618,-0.00012607,0.0082476,-0.00048213,0,0,0.050363,-0.021772,0,-0.0025071,0,0,0,0.027626,-0.00013444,0.0082476,-0.99526,0.011913,0.024663,4.8115e-07,0.55,0.28,0
0.028063,0.0040703,0.027505,-0.00036539,0.008142,-0.00050748,0,0,0.050345,-0.022119,0,-0.0026389,0,0,0,0.027515,-0.00037463,0.008142,-1.0428,0.011761,0.024755,4.7967e-07,0.56,0.28,0
0.028567,0.0039978,0.027394,-0.00061013,0.0080351,-0.00051808,0,0,0.050333,-0.022478,0,-0.002694,0,0,0,0.027404,-0.00061971,0.0080351,-1.0595,0.011606,0.024853,4.7823e-07,0.57,0.28,0
0.02907,0.0039263,0.027284,-0.00085585,0.0079285,-0.00051337,0,0,0.050325,-0.022839,0,-0.0026695,0,0,0,0.027293,-0.00086521,0.0079285,-1.0448,0.011452,0.024952,4.7673e-07,0.58,0.28,0
0.029573,0.003857,0.027176,-0.0010976,0.0078234,-0.00049334,0,0,0.050316,-0.023194,0,-0.0025653,0,0,0,0.027184,-0.0011061,0.0078234,-0.99934,0.0113,0.025049,4.7509e-07,0.59,0.28,0
0.030076,0.0037911,0.027069,-0.0013298,0.0077218,-0.00045858,0,0,0.050303,-0.023534,0,-0.0023846,0,0,0,0.027076,-0.0013372,0.0077218,-0.92488,0.011154,0.02514,4.7327e-07,0.6,0.28,0
0.030579,0.0037296,0.026965,-0.0015472,0.0076253,-0.00041037,0,0,0.050283,-0.023849,0,-0.0021339,0,0,0,0.026971,-0.0015531,0.0076253,-0.82442,0.011014,0.02522,4.7122e-07,0.61,0.28,0
0.031082,0.0036736,0.026864,-0.0017443,0.007536,-0.00035064,0,0,0.050253,-0.024129,0,-0.0018233,0,0,0,0.026869,-0.0017486,0.007536,-0.70211,0.010885,0.025287,4.6894e-07,0.62,0.28,0
0.031584,0.0036242,0.026768,-0.0019163,0.0074556,-0.00028202,0,0,0.050213,-0.024367,0,-0.0014665,0,0,0,0.026771,-0.0019191,0.0074556,-0.56324,0.010769,0.025339,4.6648e-07,0.63,0.28,0
0.032086,0.0035821,0.026679,-0.0020597,0.0073858,-0.00020766,0,0,0.050162,-0.024558,0,-0.0010798,0,0,0,0.02668,-0.0020612,0.0073858,-0.41398,0.010668,0.025373,4.6391e-07,0.64,0.28,0
0.032588,0.003548,0.026599,-0.0021726,0.007328,-0.00013086,0,0,0.050105,-0.024701,0,-0.00068045,0,0,0,0.0266,-0.0021732,0.007328,-0.26058,0.010585,0.025392,4.6139e-07,0.65,0.28,0
0.033088,0.0035224,0.026532,-0.0022553,0.0072829,-5.4342e-05,0,0,0.050047,-0.024799,0,-0.00028258,0,0,0,0.026532,-0.0022554,0.0072829,-0.10816,0.01052,0.025399,4.5909e-07,0.66,0.28,0
0.033589,0.0035057,0.02648,-0.0023098,0.0072511,2.0421e-05,0,0,0.049995,-0.024858,0,0.00010619,0,0,0,0.02648,-0.0023098,0.0072511,0.04064,0.010474,0.025397,4.5721e-07,0.67,0.28,0
0.034088,0.0034979,0.026447,-0.0023386,0.0072324,9.361e-05,0,0,0.049957,-0.024885,0,0.00048677,0,0,0,0.026447,-0.0023389,0.0072324,0.18632,0.010447,0.025391,4.5595e-07,0.68,0.28,0
0.034588,0.0034992,0.026433,-0.0023436,0.007227,0.00016679,0,0,0.049937,-0.024883,0,0.0008673,0,0,0,0.026434,-0.0023446,0.007227,0.33206,0.010439,0.025385,4.5539e-07,0.69,0.28,0
0.035087,0.0035096,0.02644,-0.0023246,0.0072347,0.00024208,0,0,0.049934,-0.024854,0,0.0012588,0,0,0,0.026442,-0.0023267,0.0072347,0.48214,0.01045,0.025377,4.5553e-07,0.7,0.28,0
0.035586,0.0035291,0.026465,-0.0022799,0.0072556,0.00032111,0,0,0.049945,-0.024792,0,0.0016698,0,0,0,0.026469,-0.0022835,0.0072556,0.63994,0.01048,0.025366,4.5629e-07,0.71,0.28,0
0.036086,0.0035576,0.026506,-0.0022068,0.0072897,0.00040417,0,0,0.049962,-0.024691,0,0.0021017,0,0,0,0.026512,-0.0022125,0.0072897,0.8063,0.01053,0.025346,4.5746e-07,0.72,0.28,0
0.036586,0.003595,0.026559,-0.002103,0.0073367,0.0004899,0,0,0.049977,-0.024543,0,0.0025475,0,0,0,0.026567,-0.0021113,0.0073367,0.97895,0.010597,0.025313,4.5885e-07,0.73,0.28,0
0.037086,0.0036408,0.02662,-0.0019678,0.0073957,0.00057562,0,0,0.049984,-0.024345,0,0.0029932,0,0,0,0.026632,-0.0019793,0.0073957,1.153,0.010683,0.025264,4.6025e-07,0.74,0.28,0
0.037585,0.0036944,0.026688,-0.0018027,0.0074655,0.00065801,0,0,0.049977,-0.024097,0,0.0034217,0,0,0,0.026703,-0.0018179,0.0074655,1.3224,0.010783,0.025196,4.615e-07,0.75,0.28,0
0.038085,0.0037552,0.026759,-0.001611,0.0075443,0.00073382,0,0,0.049957,-0.023804,0,0.0038159,0,0,0,0.026778,-0.00163,0.0075443,1.4807,0.010897,0.025111,4.625e-07,0.76,0.28,0
0.038584,0.0038221,0.026832,-0.0013973,0.0076303,0.00080024,0,0,0.049924,-0.023472,0,0.0041612,0,0,0,0.026854,-0.0014199,0.0076303,1.6225,0.011022,0.025009,4.6318e-07,0.77,0.28,0
0.039084,0.0038942,0.026906,-0.0011667,0.0077217,0.00085508,0,0,0.049878,-0.02311,0,0.0044464,0,0,0,0.026932,-0.0011927,0.0077217,1.7431,0.011154,0.024894,4.6353e-07,0.78,0.28,0
0.039582,0.0039704,0.02698,-0.00092466,0.0078165,0.00089684,0,0,0.049824,-0.022727,0,0.0046636,0,0,0,0.027008,-0.00095345,0.0078165,1.839,0.01129,0.02477,4.6355e-07,0.79,0.28,0
0.04008,0.0040497,0.027053,-0.00067668,0.0079129,0.00092463,0,0,0.049764,-0.022333,0,0.0048081,0,0,0,0.027084,-0.00070748,0.0079129,1.9077,0.01143,0.024639,4.6329e-07,0.8,0.28,0
0.040577,0.0041307,0.027126,-0.00042794,0.0080093,0.0009382,0,0,0.049702,-0.021937,0,0.0048786,0,0,0,0.027158,-0.00045985,0.0080093,1.9479,0.011569,0.024506,4.6281e-07,0.81,0.28,0
0.041074,0.0042126,0.027198,-0.00018312,0.0081043,0.00093785,0,0,0.049642,-0.021547,0,0.0048768,0,0,0,0.02723,-0.00021521,0.0081043,1.9594,0.011706,0.024374,4.6218e-07,0.82,0.28,0
0.04157,0.0042943,0.027269,5.3654e-05,0.0081967,0.00092434,0,0,0.049587,-0.021172,0,0.0048066,0,0,0,0.0273,2.2296e-05,0.0081967,1.943,0.01184,0.024247,4.6149e-07,0.83,0.28,0
0.042066,0.0043748,0.027339,0.00027895,0.0082855,0.00089883,0,0,0.04954,-0.020817,0,0.0046739,0,0,0,0.027369,0.00024913,0.0082855,1.9003,0.011968,0.024127,4.6082e-07,0.84,0.28,0
0.042561,0.0044532,0.027409,0.00049002,0.0083698,0.00086278,0,0,0.049503,-0.020487,0,0.0044865,0,0,0,0.027437,0.00046239,0.0083698,1.8339,0.01209,0.024018,4.6026e-07,0.85,0.28,0
0.043056,0.0045288,0.027479,0.00068481,0.008449,0.00081786,0,0,0.049477,-0.020187,0,0.0042529,0,0,0,0.027504,0.00065987,0.008449,1.7467,0.012204,0.02392,4.5986e-07,0.86,0.28,0
0.04355,0.004601,0.027547,0.00086202,0.0085228,0.00076585,0,0,0.049464,-0.019918,0,0.0039824,0,0,0,0.027569,0.00084006,0.0085228,1.6426,0.012311,0.023835,4.5968e-07,0.87,0.28,0
0.044045,0.0046691,0.027615,0.001021,0.0085907,0.00070855,0,0,0.049462,-0.019681,0,0.0036845,0,0,0,0.027633,0.0010021,0.0085907,1.5251,0.012409,0.023764,4.5974e-07,0.88,0.28,0
0.04454,0.0047328,0.027681,0.0011617,0.0086527,0.00064766,0,0,0.049473,-0.019477,0,0.0033678,0,0,0,0.027696,0.0011459,0.0086527,1.3982,0.012498,0.023706,4.6005e-07,0.89,0.28,0
0.045034,0.0047917,0.027744,0.0012847,0.0087087,0.00058469,0,0,0.049493,-0.019303,0,0.0030404,0,0,0,0.027757,0.0012718,0.0087087,1.2652,0.012579,0.023661,4.6059e-07,0.9,0.28,0
0.04553,0.0048454,0.027805,0.0013907,0.0087588,0.00052092,0,0,0.049521,-0.019157,0,0.0027088,0,0,0,0.027816,0.0013804,0.0087588,1.1293,0.012652,0.023627,4.6133e-07,0.91,0.28,0
0.046025,0.0048938,0.027863,0.0014808,0.0088031,0.0004574,0,0,0.049555,-0.019038,0,0.0023785,0,0,0,0.027871,0.0014729,0.0088031,0.99297,0.012716,0.023602,4.6221e-07,0.92,0.28,0
0.046521,0.0049366,0.027916,0.0015563,0.0088416,0.00039487,0,0,0.049593,-0.018942,0,0.0020533,0,0,0,0.027922,0.0015504,0.0088416,0.85804,0.012771,0.023587,4.6319e-07,0.93,0.28,0
0.047017,0.0049739,0.027963,0.0016185,0.0088746,0.00033382,0,0,0.049631,-0.018866,0,0.0017359,0,0,0,0.027968,0.0016143,0.0088746,0.72585,0.012819,0.023577,4.6419e-07,0.94,0.28,0
0.047513,0.0050055,0.028005,0.0016687,0.0089022,0.00027452,0,0,0.049668,-0.018807,0,0.0014275,0,0,0,0.028008,0.0016658,0.0089022,0.59713,0.012859,0.023572,4.6517e-07,0.95,0.28,0
0.04801,0.0050314,0.02804,0.001708,0.0089245,0.00021699,0,0,0.049701,-0.018763,0,0.0011284,0,0,0,0.028042,0.0017062,0.0089245,0.47211,0.012891,0.023571,4.6605e-07,0.96,0.28,0
0.048507,0.0050516,0.028068,0.0017374,0.0089417,0.00016112,0,0,0.049729,-0.018731,0,0.00083781,0,0,0,0.028069,0.0017364,0.0089417,0.35057,0.012916,0.023571,4.6679e-07,0.97,0.28,0
0.049005,0.0050659,0.028088,0.0017578,0.0089539,0.0001066,0,0,0.04975,-0.01871,0,0.00055431,0,0,0,0.028089,0.0017574,0.0089539,0.23195,0.012933,0.023572,4.6736e-07,0.98,0.28,0
0.049502,0.0050746,0.028101,0.0017698,0.0089612,5.3048e-05,0,0,0.049763,-0.018698,0,0.00027585,0,0,0,0.028101,0.0017697,0.0089612,0.11543,0.012944,0.023573,4.6771e-07,0.99,0.28,0
0.05,0.0050775,0.028105,0.0017738,0.0089636,5.5362e-05,0,0,0.049767,-0.018694,0,0.00028788,0,0,0,0.028105,0.0017737,0.0089636,0.12046,0.012948,0.023574,4.6784e-07,1,0.28,0
0,0,0.027982,0.011992,0.011992,0.0037176,0,0,0.041573,3.2526e-19,0,0.019331,0,0,0,0.028804,0.01117,0.011992,12.469,0.017322,0.017237,2.6103e-07,0,0.29,0
0.00041573,0.00019331,0.02794,0.011498,0.011831,0.003713,0,0,0.041883,-0.00086795,0,0.019308,0,0,0,0.02874,0.010698,0.011831,12.153,0.01709,0.017503,2.715e-07,0.01,0.29,0
0.00083767,0.00038483,0.028107,0.011088,0.011758,0.0036892,0,0,0.042506,-0.0017441,0,0.019184,0,0,0,0.028872,0.010322,0.011758,11.719,0.016984,0.017875,2.8697e-07,0.02,0.29,0
0.0012659,0.00057443,0.028273,0.010674,0.011684,0.0036616,0,0,0.043131,-0.0026255,0,0.01904,0,0,0,0.029004,0.009943,0.011684,11.297,0.016877,0.018253,3.0279e-07,0.03,0.29,0
0.0017003,0.00076193,0.028438,0.01026,0.011609,0.0036294,0,0,0.043755,-0.003509,0,0.018873,0,0,0,0.029136,0.0095619,0.011609,10.884,0.016769,0.018635,3.1887e-07,0.04,0.29,0
0.0021409,0.00094716,0.028601,0.0098449,0.011534,0.0035921,0,0,0.044375,-0.0043912,0,0.018679,0,0,0,0.029266,0.0091805,0.011534,10.479,0.01666,0.019018,3.3511e-07,0.05,0.29,0
0.0025878,0.0011299,0.028761,0.0094315,0.011458,0.0035491,0,0,0.044989,-0.0052686,0,0.018455,0,0,0,0.029392,0.0088004,0.011458,10.082,0.01655,0.0194,3.5141e-07,0.06,0.29,0
0.0030407,0.0013099,0.028918,0.0090211,0.011382,0.0035003,0,0,0.045594,-0.0061375,0,0.018202,0,0,0,0.029516,0.0084233,0.011382,9.6922,0.01644,0.01978,3.6766e-07,0.07,0.29,0
0.0034997,0.0014869,0.02907,0.0086153,0.011305,0.0034455,0,0,0.046187,-0.0069944,0,0.017917,0,0,0,0.029634,0.0080505,0.011305,9.3094,0.01633,0.020154,3.8376e-07,0.08,0.29,0
0.0039645,0.0016606,0.029216,0.0082156,0.011229,0.0033849,0,0,0.046764,-0.0078359,0,0.017601,0,0,0,0.029748,0.0076835,0.011229,8.9338,0.01622,0.020522,3.9962e-07,0.09,0.29,0
0.004435,0.0018308,0.029356,0.0078235,0.011154,0.0033185,0,0,0.047325,-0.0086586,0,0.017256,0,0,0,0.029855,0.0073237,0.011154,8.5655,0.016111,0.020882,4.1512e-07,0.1,0.29,0
0.004911,0.0019973,0.029488,0.0074404,0.011079,0.0032467,0,0,0.047865,-0.0094594,0,0.016883,0,0,0,0.029957,0.0069723,0.011079,8.2052,0.016002,0.021231,4.3019e-07,0.11,0.29,0
0.0053923,0.0021598,0.029614,0.0070675,0.011004,0.0031701,0,0,0.048384,-0.010236,0,0.016484,0,0,0,0.030051,0.0066303,0.011004,7.8531,0.015895,0.021569,4.4475e-07,0.12,0.29,0
0.0058787,0.002318,0.029731,0.006706,0.010931,0.003089,0,0,0.048879,-0.010985,0,0.016063,0,0,0,0.030138,0.0062988,0.010931,7.5099,0.015789,0.021894,4.5871e-07,0.13,0.29,0
0.0063698,0.0024718,0.029839,0.0063569,0.010859,0.0030042,0,0,0.049349,-0.011705,0,0.015622,0,0,0,0.030218,0.0059786,0.010859,7.1761,0.015685,0.022205,4.7202e-07,0.14,0.29,0
0.0068656,0.0026208,0.029939,0.0060209,0.010788,0.0029162,0,0,0.049792,-0.012394,0,0.015164,0,0,0,0.030289,0.0056704,0.010788,6.8521,0.015583,0.022501,4.8461e-07,0.15,0.29,0
0.0073657,0.0027651,0.030029,0.0056987,0.010718,0.0028258,0,0,0.050208,-0.013051,0,0.014694,0,0,0,0.030353,0.0053748,0.010718,6.5384,0.015482,0.022781,4.9645e-07,0.16,0.29,0
0.0078698,0.0029043,0.03011,0.0053909,0.01065,0.0027335,0,0,0.050596,-0.013675,0,0.014214,0,0,0,0.030409,0.0050922,0.01065,6.2354,0.015384,0.023046,5.075e-07,0.17,0.29,0
0.0083776,0.0030383,0.030182,0.0050978,0.010584,0.0026399,0,0,0.050954,-0.014264,0,0.013728,0,0,0,0.030457,0.004823,0.010584,5.9433,0.015288,0.023294,5.1773e-07,0.18,0.29,0
0.0088889,0.003167,0.030244,0.0048198,0.010519,0.0025458,0,0,0.051284,-0.014818,0,0.013238,0,0,0,0.030496,0.0045674,0.010519,5.6624,0.015194,0.023525,5.2711e-07,0.19,0.29,0
0.0094033,0.0032904,0.030296,0.0045569,0.010456,0.0024516,0,0,0.051585,-0.015338,0,0.012748,0,0,0,0.030528,0.0043255,0.010456,5.3927,0.015103,0.023738,5.3564e-07,0.2,0.29,0
0.0099206,0.0034082,0.030339,0.0043092,0.010394,0.0023579,0,0,0.051856,-0.015822,0,0.012261,0,0,0,0.030551,0.0040973,0.010394,5.1343,0.015014,0.023935,5.4331e-07,0.21,0.29,0
0.01044,0.0035205,0.030373,0.0040766,0.010335,0.002265,0,0,0.052099,-0.016272,0,0.011778,0,0,0,0.030567,0.003883,0.010335,4.887,0.014928,0.024114,5.5011e-07,0.22,0.29,0
0.010963,0.0036271,0.030398,0.003859,0.010277,0.0021733,0,0,0.052314,-0.016687,0,0.011301,0,0,0,0.030574,0.0036822,0.010277,4.6507,0.014845,0.024276,5.5606e-07,0.23,0.29,0
0.011487,0.0037281,0.030413,0.003656,0.010221,0.0020831,0,0,0.0525,-0.017068,0,0.010832,0,0,0,0.030574,0.0034948,0.010221,4.4251,0.014763,0.024421,5.6116e-07,0.24,0.29,0
0.012013,0.0038234,0.03042,0.0034675,0.010166,0.0019947,0,0,0.052659,-0.017417,0,0.010372,0,0,0,0.030566,0.0033206,0.010166,4.2097,0.014684,0.02455,5.6541e-07,0.25,0.29,0
0.01254,0.0039129,0.030418,0.0032929,0.010113,0.0019081,0,0,0.052791,-0.017733,0,0.0099221,0,0,0,0.030551,0.0031593,0.010113,4.0042,0.014608,0.024661,5.6884e-07,0.26,0.29,0
0.013068,0.0039967,0.030407,0.0031318,0.010062,0.0018235,0,0,0.052898,-0.018017,0,0.0094821,0,0,0,0.030528,0.0030105,0.010062,3.8079,0.014533,0.024757,5.7146e-07,0.27,0.29,0
0.013598,0.0040746,0.030388,0.0029838,0.010011,0.0017408,0,0,0.052978,-0.018272,0,0.0090522,0,0,0,0.030498,0.0028737,0.010011,3.6203,0.014461,0.024837,5.7329e-07,0.28,0.29,0
0.014128,0.0041468,0.03036,0.0028482,0.0099625,0.00166,0,0,0.053034,-0.018497,0,0.0086322,0,0,0,0.03046,0.0027484,0.0099625,3.4405,0.01439,0.024901,5.7435e-07,0.29,0.29,0
0.014658,0.0042131,0.030325,0.0027244,0.0099147,0.001581,0,0,0.053066,-0.018695,0,0.0082212,0,0,0,0.030415,0.0026342,0.0099147,3.2678,0.014321,0.02495,5.7466e-07,0.3,0.29,0
0.015189,0.0042737,0.030281,0.0026117,0.0098678,0.0015035,0,0,0.053074,-0.018866,0,0.0078184,0,0,0,0.030362,0.0025302,0.0098678,3.1013,0.014254,0.024985,5.7426e-07,0.31,0.29,0
0.01572,0.0043283,0.030229,0.0025093,0.0098217,0.0014274,0,0,0.05306,-0.019012,0,0.0074224,0,0,0,0.030303,0.002436,0.0098217,2.9399,0.014187,0.025006,5.7318e-07,0.32,0.29,0
0.016251,0.0043771,0.03017,0.0024164,0.009776,0.0013522,0,0,0.053025,-0.019135,0,0.0070317,0,0,0,0.030236,0.0023507,0.009776,2.7828,0.014121,0.025014,5.7143e-07,0.33,0.29,0
0.016781,0.00442,0.030104,0.002332,0.0097307,0.0012778,0,0,0.05297,-0.019237,0,0.0066444,0,0,0,0.030162,0.0022733,0.0097307,2.6288,0.014056,0.025009,5.6906e-07,0.34,0.29,0
0.01731,0.0044569,0.03003,0.0022551,0.0096855,0.0012036,0,0,0.052895,-0.019319,0,0.0062587,0,0,0,0.030082,0.0022031,0.0096855,2.4767,0.01399,0.024992,5.6612e-07,0.35,0.29,0
0.017838,0.0044878,0.029949,0.0021846,0.00964,0.0011293,0,0,0.052803,-0.019384,0,0.0058724,0,0,0,0.029995,0.0021388,0.00964,2.3254,0.013924,0.024965,5.6263e-07,0.36,0.29,0
0.018366,0.0045127,0.029861,0.0021193,0.0095939,0.0010545,0,0,0.052693,-0.019434,0,0.0054833,0,0,0,0.029901,0.0020792,0.0095939,2.1737,0.013858,0.024928,5.5866e-07,0.37,0.29,0
0.018892,0.0045314,0.029766,0.0020577,0.009547,0.00097872,0,0,0.052569,-0.019472,0,0.0050894,0,0,0,0.0298,0.0020232,0.009547,2.0205,0.01379,0.024883,5.5425e-07,0.38,0.29,0
0.019417,0.004544,0.029665,0.0019984,0.009499,0.00090162,0,0,0.052431,-0.019501,0,0.0046884,0,0,0,0.029694,0.001969,0.009499,1.8646,0.013721,0.024832,5.4948e-07,0.39,0.29,0
0.019941,0.0045504,0.029558,0.0019398,0.0094493,0.00082283,0,0,0.052282,-0.019525,0,0.0042787,0,0,0,0.029582,0.0019153,0.0094493,1.705,0.013649,0.024775,5.4439e-07,0.4,0.29,0
0.020463,0.0045505,0.029445,0.0018801,0.0093976,0.00074205,0,0,0.052124,-0.019545,0,0.0038587,0,0,0,0.029465,0.0018602,0.0093976,1.5409,0.013574,0.024714,5.3908e-07,0.41,0.29,0
0.020983,0.0045442,0.029327,0.0018176,0.0093435,0.0006591,0,0,0.051958,-0.019568,0,0.0034274,0,0,0,0.029343,0.0018018,0.0093435,1.3717,0.013496,0.024652,5.336e-07,0.42,0.29,0
0.021502,0.0045316,0.029205,0.0017501,0.0092866,0.00057392,0,0,0.051789,-0.019595,0,0.0029844,0,0,0,0.029217,0.0017381,0.0092866,1.197,0.013414,0.02459,5.2805e-07,0.43,0.29,0
0.022019,0.0045126,0.029079,0.0016756,0.0092265,0.00048658,0,0,0.051618,-0.019632,0,0.0025302,0,0,0,0.029088,0.0016669,0.0092265,1.0169,0.013327,0.024531,5.2252e-07,0.44,0.29,0
0.022534,0.0044871,0.02895,0.0015919,0.0091626,0.00039738,0,0,0.051448,-0.019684,0,0.0020664,0,0,0,0.028956,0.0015861,0.0091626,0.832,0.013235,0.024477,5.1708e-07,0.45,0.29,0
0.023048,0.0044554,0.028818,0.001497,0.0090946,0.00030684,0,0,0.051282,-0.019754,0,0.0015956,0,0,0,0.028822,0.0014936,0.0090946,0.64337,0.013137,0.024431,5.1182e-07,0.46,0.29,0
0.02356,0.0044173,0.028685,0.0013888,0.009022,0.00021573,0,0,0.051123,-0.019846,0,0.0011218,0,0,0,0.028686,0.0013871,0.009022,0.4528,0.013032,0.024395,5.0682e-07,0.47,0.29,0
0.024071,0.0043732,0.02855,0.0012653,0.0089445,0.00012511,0,0,0.050973,-0.019966,0,0.0006506,0,0,0,0.02855,0.0012647,0.0089445,0.26273,0.01292,0.024371,5.0214e-07,0.48,0.29,0
0.02458,0.0043232,0.028414,0.0011249,0.0088617,3.6339e-05,0,0,0.050836,-0.020116,0,0.00018897,0,0,0,0.028414,0.0011249,0.0088617,0.076297,0.0128,0.024361,4.9783e-07,0.49,0.29,0
0.025087,0.0042676,0.028279,0.0009665,0.0087735,-4.8974e-05,0,0,0.050713,-0.020298,0,-0.00025466,0,0,0,0.028279,0.00096641,0.0087735,-0.10274,0.012673,0.024365,4.9392e-07,0.5,0.29,0
0.025594,0.0042069,0.028143,0.00078929,0.0086796,-0.00012898,0,0,0.050604,-0.020515,0,-0.00067071,0,0,0,0.028143,0.00078868,0.0086796,-0.27016,0.012537,0.024386,4.9041e-07,0.51,0.29,0
0.026099,0.0041416,0.028008,0.00059336,0.0085802,-0.00020171,0,0,0.050511,-0.020766,0,-0.0010489,0,0,0,0.028009,0.00059187,0.0085802,-0.42156,0.012394,0.024423,4.8728e-07,0.52,0.29,0
0.026604,0.0040724,0.027872,0.00037955,0.0084755,-0.00026519,0,0,0.050431,-0.02105,0,-0.001379,0,0,0,0.027875,0.00037699,0.0084755,-0.5526,0.012242,0.024475,4.8446e-07,0.53,0.29,0
0.027108,0.004,0.027737,0.00014958,0.008366,-0.00031755,0,0,0.050365,-0.021363,0,-0.0016512,0,0,0,0.027741,0.00014592,0.008366,-0.65939,0.012084,0.02454,4.8187e-07,0.54,0.29,0
0.027611,0.0039253,0.027601,-9.4009e-05,0.0082522,-0.00035718,0,0,0.050308,-0.0217,0,-0.0018574,0,0,0,0.027606,-9.8615e-05,0.0082522,-0.73877,0.01192,0.024615,4.7941e-07,0.55,0.29,0
0.028114,0.0038494,0.027465,-0.00034784,0.0081352,-0.00038282,0,0,0.050258,-0.022056,0,-0.0019907,0,0,0,0.02747,-0.00035311,0.0081352,-0.78843,0.011751,0.024699,4.7699e-07,0.56,0.29,0
0.028616,0.0037733,0.027328,-0.00060777,0.0080161,-0.00039359,0,0,0.050211,-0.022422,0,-0.0020467,0,0,0,0.027334,-0.00061331,0.0080161,-0.80704,0.011579,0.024786,4.745e-07,0.57,0.29,0
0.029118,0.0036981,0.027191,-0.00086884,0.0078965,-0.00038913,0,0,0.050165,-0.02279,0,-0.0020235,0,0,0,0.027196,-0.00087423,0.0078965,-0.79439,0.011406,0.024873,4.7185e-07,0.58,0.29,0
0.02962,0.0036253,0.027053,-0.0011254,0.0077782,-0.00036969,0,0,0.050114,-0.023149,0,-0.0019224,0,0,0,0.027058,-0.0011302,0.0077782,-0.75153,0.011235,0.024956,4.6896e-07,0.59,0.29,0
0.030121,0.0035559,0.026915,-0.0013713,0.0076632,-0.00033621,0,0,0.050055,-0.02349,0,-0.0017483,0,0,0,0.026919,-0.0013753,0.0076632,-0.68089,0.011069,0.025031,4.6579e-07,0.6,0.29,0
0.030621,0.0034912,0.026779,-0.0016005,0.0075537,-0.00029038,0,0,0.049987,-0.023801,0,-0.00151,0,0,0,0.026782,-0.0016035,0.0075537,-0.58617,0.010911,0.025093,4.6234e-07,0.61,0.29,0
0.03112,0.0034325,0.026647,-0.0018069,0.007452,-0.00023456,0,0,0.049907,-0.024073,0,-0.0012197,0,0,0,0.026649,-0.0018088,0.007452,-0.47227,0.010764,0.025141,4.5863e-07,0.62,0.29,0
0.031619,0.0033807,0.02652,-0.001985,0.0073604,-0.00017184,0,0,0.049814,-0.024298,0,-0.00089355,0,0,0,0.026521,-0.001986,0.0073604,-0.34538,0.010632,0.02517,4.5473e-07,0.63,0.29,0
0.032117,0.0033368,0.026401,-0.0021305,0.0072811,-0.00010611,0,0,0.049711,-0.02447,0,-0.00055176,0,0,0,0.026401,-0.0021309,0.0072811,-0.21308,0.010517,0.025182,4.5078e-07,0.64,0.29,0
0.032613,0.0033014,0.026294,-0.0022414,0.0072159,-4.1642e-05,0,0,0.049604,-0.024589,0,-0.00021654,0,0,0,0.026294,-0.0022415,0.0072159,-0.083611,0.010423,0.025177,4.4696e-07,0.65,0.29,0
0.033109,0.0032749,0.026205,-0.0023193,0.0071656,1.803e-05,0,0,0.049502,-0.024661,0,9.3757e-05,0,0,0,0.026205,-0.0023194,0.0071656,0.036217,0.01035,0.02516,4.4356e-07,0.66,0.29,0
0.033603,0.0032576,0.026137,-0.0023688,0.0071305,7.1422e-05,0,0,0.049417,-0.024698,0,0.0003714,0,0,0,0.026137,-0.0023689,0.0071305,0.14355,0.0103,0.025141,4.4087e-07,0.67,0.29,0
0.034097,0.0032496,0.026095,-0.0023948,0.0071102,0.00011984,0,0,0.049362,-0.024713,0,0.00062318,0,0,0,0.026096,-0.0023953,0.0071102,0.24101,0.01027,0.025125,4.3918e-07,0.68,0.29,0
0.034591,0.0032509,0.026082,-0.0024007,0.0071045,0.00016697,0,0,0.049342,-0.024713,0,0.00086826,0,0,0,0.026083,-0.0024017,0.0071045,0.33586,0.010262,0.025119,4.3864e-07,0.69,0.29,0
0.035084,0.0032616,0.026098,-0.0023867,0.0071133,0.00021746,0,0,0.04936,-0.0247,0,0.0011308,0,0,0,0.026099,-0.0023884,0.0071133,0.43739,0.010275,0.025123,4.3926e-07,0.7,0.29,0
0.035578,0.0032816,0.026139,-0.0023493,0.007137,0.00027512,0,0,0.049406,-0.024664,0,0.0014306,0,0,0,0.026142,-0.002352,0.007137,0.55324,0.010309,0.025131,4.4088e-07,0.71,0.29,0
0.036072,0.003311,0.026203,-0.0022833,0.0071758,0.00034144,0,0,0.04947,-0.024594,0,0.0017755,0,0,0,0.026207,-0.0022874,0.0071758,0.68663,0.010365,0.025136,4.4323e-07,0.72,0.29,0
0.036567,0.0033498,0.026283,-0.002184,0.0072297,0.00041514,0,0,0.049538,-0.024476,0,0.0021587,0,0,0,0.026289,-0.00219,0.0072297,0.83532,0.010443,0.02513,4.4599e-07,0.73,0.29,0
0.037063,0.0033974,0.026375,-0.0020493,0.0072977,0.00049281,0,0,0.049601,-0.024302,0,0.0025626,0,0,0,0.026384,-0.0020579,0.0072977,0.99298,0.010541,0.025107,4.4887e-07,0.74,0.29,0
0.037559,0.0034535,0.026475,-0.0018807,0.0073782,0.00057019,0,0,0.049651,-0.024073,0,0.002965,0,0,0,0.026486,-0.0018922,0.0073782,1.1515,0.010657,0.025064,4.5166e-07,0.75,0.29,0
0.038056,0.0035171,0.026579,-0.0016822,0.0074691,0.00064327,0,0,0.049686,-0.023793,0,0.003345,0,0,0,0.026594,-0.0016968,0.0074691,1.3033,0.010789,0.025001,4.542e-07,0.76,0.29,0
0.038553,0.0035873,0.026685,-0.0014588,0.007568,0.00070876,0,0,0.049705,-0.02347,0,0.0036856,0,0,0,0.026703,-0.0014766,0.007568,1.4417,0.010932,0.024921,4.564e-07,0.77,0.29,0
0.03905,0.0036631,0.026792,-0.0012164,0.0076726,0.00076403,0,0,0.04971,-0.023111,0,0.003973,0,0,0,0.026813,-0.0012372,0.0076726,1.5614,0.011083,0.024825,4.582e-07,0.78,0.29,0
0.039547,0.0037432,0.026897,-0.00096113,0.0077807,0.00080711,0,0,0.049702,-0.022729,0,0.004197,0,0,0,0.02692,-0.00098449,0.0077807,1.6582,0.011239,0.024717,4.5959e-07,0.79,0.29,0
0.040044,0.0038263,0.027,-0.00069909,0.0078902,0.00083673,0,0,0.049685,-0.022332,0,0.004351,0,0,0,0.027025,-0.00072435,0.0078902,1.7287,0.011397,0.024601,4.6059e-07,0.8,0.29,0
0.040541,0.0039114,0.0271,-0.00043616,0.0079991,0.00085232,0,0,0.049662,-0.021932,0,0.004432,0,0,0,0.027126,-0.00046251,0.0079991,1.7712,0.011554,0.02448,4.6126e-07,0.81,0.29,0
0.041037,0.0039972,0.027197,-0.00017759,0.0081058,0.00085396,0,0,0.049637,-0.021537,0,0.0044406,0,0,0,0.027224,-0.0002042,0.0081058,1.7851,0.011708,0.02436,4.6167e-07,0.82,0.29,0
0.041534,0.0040827,0.027291,7.205e-05,0.0082089,0.0008423,0,0,0.049614,-0.021156,0,0.0043799,0,0,0,0.027317,4.601e-05,0.0082089,1.7708,0.011857,0.024243,4.6192e-07,0.83,0.29,0
0.042029,0.0041667,0.027383,0.0003089,0.0083075,0.00081841,0,0,0.049596,-0.020796,0,0.0042557,0,0,0,0.027407,0.00028419,0.0083075,1.7299,0.012,0.024133,4.6211e-07,0.84,0.29,0
0.042525,0.0042485,0.027472,0.00052989,0.0084005,0.00078379,0,0,0.049586,-0.020464,0,0.0040757,0,0,0,0.027495,0.00050711,0.0084005,1.665,0.012134,0.024034,4.6234e-07,0.85,0.29,0
0.043021,0.0043271,0.027559,0.00073274,0.0084875,0.00074025,0,0,0.049586,-0.020162,0,0.0038493,0,0,0,0.027579,0.00071233,0.0084875,1.5794,0.01226,0.023946,4.6269e-07,0.86,0.29,0
0.043517,0.004402,0.027644,0.00091606,0.0085679,0.00068974,0,0,0.049597,-0.019895,0,0.0035866,0,0,0,0.027661,0.00089827,0.0085679,1.4773,0.012376,0.023871,4.6322e-07,0.87,0.29,0
0.044013,0.0044725,0.027726,0.0010792,0.0086416,0.00063426,0,0,0.04962,-0.019662,0,0.0032982,0,0,0,0.027741,0.0010642,0.0086416,1.3627,0.012482,0.02381,4.6398e-07,0.88,0.29,0
0.04451,0.0045382,0.027806,0.0012224,0.0087085,0.00057571,0,0,0.049653,-0.019464,0,0.0029937,0,0,0,0.027818,0.00121,0.0087085,1.2401,0.012579,0.023764,4.6496e-07,0.89,0.29,0
0.045006,0.0045987,0.027882,0.0013464,0.0087686,0.00051575,0,0,0.049696,-0.019298,0,0.0026819,0,0,0,0.027892,0.0013363,0.0087686,1.113,0.012666,0.02373,4.6614e-07,0.9,0.29,0
0.045503,0.0046539,0.027955,0.0014521,0.0088221,0.00045577,0,0,0.049745,-0.019162,0,0.00237,0,0,0,0.027963,0.0014443,0.0088221,0.98494,0.012743,0.023707,4.675e-07,0.91,0.29,0
0.046001,0.0047034,0.028023,0.0015411,0.0088691,0.00039685,0,0,0.049799,-0.019053,0,0.0020637,0,0,0,0.028029,0.0015352,0.0088691,0.85839,0.012811,0.023693,4.6897e-07,0.92,0.29,0
0.046499,0.0047472,0.028085,0.0016149,0.0089099,0.00033976,0,0,0.049855,-0.018967,0,0.0017667,0,0,0,0.028089,0.0016105,0.0089099,0.73526,0.01287,0.023688,4.7049e-07,0.93,0.29,0
0.046998,0.0047852,0.02814,0.001675,0.0089446,0.00028493,0,0,0.049909,-0.018901,0,0.0014817,0,0,0,0.028143,0.001672,0.0089446,0.61677,0.01292,0.023688,4.7199e-07,0.94,0.29,0
0.047498,0.0048173,0.028189,0.001723,0.0089736,0.00023258,0,0,0.04996,-0.018852,0,0.0012094,0,0,0,0.028191,0.001721,0.0089736,0.50346,0.012962,0.023692,4.7339e-07,0.95,0.29,0
0.047997,0.0048436,0.02823,0.0017603,0.008997,0.00018264,0,0,0.050005,-0.018815,0,0.00094976,0,0,0,0.028231,0.001759,0.008997,0.39533,0.012996,0.023697,4.7464e-07,0.96,0.29,0
0.048498,0.004864,0.028262,0.0017879,0.009015,0.00013488,0,0,0.050042,-0.01879,0,0.00070137,0,0,0,0.028263,0.0017872,0.009015,0.2919,0.013022,0.023703,4.7567e-07,0.97,0.29,0
0.048998,0.0048786,0.028286,0.0018069,0.0090277,8.8878e-05,0,0,0.05007,-0.018774,0,0.00046217,0,0,0,0.028286,0.0018066,0.0090277,0.19232,0.01304,0.023708,4.7645e-07,0.98,0.29,0
0.049499,0.0048874,0.0283,0.0018181,0.0090353,4.4119e-05,0,0,0.050087,-0.018765,0,0.00022942,0,0,0,0.0283,0.001818,0.0090353,0.095456,0.013051,0.023712,4.7693e-07,0.99,0.29,0
0.05,0.0048903,0.028304,0.0018217,0.0090379,5.6035e-05,0,0,0.050093,-0.018762,0,0.00029138,0,0,0,0.028304,0.0018216,0.0090379,0.12123,0.013055,0.023713,4.771e-07,1,0.29,0
0,0,0.028028,0.012012,0.012012,0.0035511,0,0,0.041641,4.3368e-19,0,0.018466,0,0,0,0.02878,0.01126,0.012012,11.957,0.017351,0.017156,2.5768e-07,0,0.3,0
0.00041641,0.00018466,0.027987,0.01152,0.011852,0.0035467,0,0,0.04195,-0.00086356,0,0.018443,0,0,0,0.028718,0.010788,0.011852,11.653,0.017119,0.017422,2.682e-07,0.01,0.3,0
0.00083901,0.00036745,0.028152,0.011113,0.01178,0.0035229,0,0,0.042569,-0.0017335,0,0.018319,0,0,0,0.028852,0.010413,0.01178,11.232,0.017015,0.017795,2.8366e-07,0.02,0.3,0
0.0012678,0.00054827,0.028317,0.010704,0.011706,0.0034959,0,0,0.043189,-0.0026071,0,0.018179,0,0,0,0.028986,0.010035,0.011706,10.825,0.016909,0.018173,2.9947e-07,0.03,0.3,0
0.0017028,0.000727,0.028481,0.010293,0.011633,0.0034653,0,0,0.043807,-0.0034816,0,0.01802,0,0,0,0.029119,0.0096555,0.011633,10.43,0.016802,0.018555,3.1555e-07,0.04,0.3,0
0.0021439,0.00090345,0.028644,0.0098836,0.011558,0.0034303,0,0,0.044422,-0.0043539,0,0.017838,0,0,0,0.029251,0.009276,0.011558,10.044,0.016695,0.018937,3.318e-07,0.05,0.3,0
0.0025912,0.0010775,0.028803,0.0094755,0.011484,0.0033906,0,0,0.045031,-0.0052209,0,0.017631,0,0,0,0.029381,0.008898,0.011484,9.667,0.016587,0.01932,3.4812e-07,0.06,0.3,0
0.0030446,0.0012488,0.028959,0.0090707,0.011409,0.003346,0,0,0.04563,-0.0060792,0,0.017399,0,0,0,0.029507,0.0085229,0.011409,9.2985,0.01648,0.0197,3.6442e-07,0.07,0.3,0
0.0035038,0.0014173,0.02911,0.0086705,0.011334,0.0032961,0,0,0.046218,-0.0069257,0,0.01714,0,0,0,0.029629,0.0081521,0.011334,8.9378,0.016372,0.020076,3.806e-07,0.08,0.3,0
0.0039689,0.0015827,0.029257,0.0082763,0.01126,0.0032412,0,0,0.046792,-0.0077573,0,0.016854,0,0,0,0.029746,0.007787,0.01126,8.5848,0.016264,0.020445,3.9656e-07,0.09,0.3,0
0.0044397,0.0017447,0.029397,0.0078895,0.011186,0.0031813,0,0,0.047349,-0.008571,0,0.016543,0,0,0,0.029858,0.0074288,0.011186,8.2397,0.016158,0.020806,4.1223e-07,0.1,0.3,0
0.0049159,0.0019032,0.029531,0.0075112,0.011113,0.0031166,0,0,0.047888,-0.0093638,0,0.016206,0,0,0,0.029964,0.0070786,0.011113,7.9027,0.016052,0.021159,4.275e-07,0.11,0.3,0
0.0053974,0.002058,0.029658,0.0071428,0.01104,0.0030476,0,0,0.048406,-0.010133,0,0.015848,0,0,0,0.030063,0.0067376,0.01104,7.5739,0.015947,0.0215,4.4229e-07,0.12,0.3,0
0.005884,0.0022087,0.029777,0.0067852,0.010969,0.0029748,0,0,0.048902,-0.010877,0,0.015469,0,0,0,0.030156,0.0064065,0.010969,7.2539,0.015844,0.021829,4.5655e-07,0.13,0.3,0
0.0063755,0.0023553,0.029889,0.0064393,0.010898,0.0028985,0,0,0.049375,-0.011594,0,0.015072,0,0,0,0.030242,0.0060863,0.010898,6.943,0.015742,0.022145,4.7019e-07,0.14,0.3,0
0.0068715,0.0024975,0.029991,0.006106,0.010829,0.0028194,0,0,0.049822,-0.01228,0,0.014661,0,0,0,0.03032,0.0057777,0.010829,6.6415,0.015642,0.022447,4.8317e-07,0.15,0.3,0
0.0073719,0.0026352,0.030085,0.0057858,0.010761,0.002738,0,0,0.050243,-0.012936,0,0.014238,0,0,0,0.03039,0.0054811,0.010761,6.3499,0.015544,0.022734,4.9543e-07,0.16,0.3,0
0.0078764,0.0027682,0.030171,0.0054795,0.010695,0.002655,0,0,0.050637,-0.01356,0,0.013806,0,0,0,0.030453,0.0051972,0.010695,6.0685,0.015448,0.023005,5.0693e-07,0.17,0.3,0
0.0083846,0.0028963,0.030247,0.0051873,0.01063,0.0025708,0,0,0.051003,-0.014152,0,0.013368,0,0,0,0.030508,0.0049263,0.01063,5.7974,0.015355,0.02326,5.1765e-07,0.18,0.3,0
0.0088964,0.0030195,0.030314,0.0049095,0.010567,0.002486,0,0,0.051341,-0.014709,0,0.012927,0,0,0,0.030555,0.0046685,0.010567,5.5369,0.015263,0.023499,5.2755e-07,0.19,0.3,0
0.0094115,0.0031376,0.030371,0.0046465,0.010505,0.0024012,0,0,0.051652,-0.015233,0,0.012486,0,0,0,0.030594,0.0044243,0.010505,5.2871,0.015175,0.023721,5.3662e-07,0.2,0.3,0
0.0099295,0.0032506,0.03042,0.0043981,0.010445,0.0023167,0,0,0.051934,-0.015723,0,0.012047,0,0,0,0.030625,0.0041935,0.010445,5.048,0.015088,0.023926,5.4485e-07,0.21,0.3,0
0.01045,0.0033583,0.03046,0.0041645,0.010387,0.002233,0,0,0.052188,-0.016179,0,0.011611,0,0,0,0.030648,0.0039762,0.010387,4.8195,0.015004,0.024114,5.5222e-07,0.22,0.3,0
0.010973,0.0034607,0.03049,0.0039455,0.010331,0.0021503,0,0,0.052415,-0.016602,0,0.011182,0,0,0,0.030663,0.0037724,0.010331,4.6015,0.014922,0.024285,5.5873e-07,0.23,0.3,0
0.011498,0.0035579,0.030512,0.003741,0.010276,0.0020691,0,0,0.052613,-0.016991,0,0.010759,0,0,0,0.030671,0.003582,0.010276,4.3937,0.014843,0.024439,5.644e-07,0.24,0.3,0
0.012025,0.0036496,0.030524,0.0035506,0.010223,0.0019895,0,0,0.052785,-0.017347,0,0.010346,0,0,0,0.03067,0.0034047,0.010223,4.1957,0.014766,0.024577,5.6921e-07,0.25,0.3,0
0.012554,0.0037359,0.030528,0.0033741,0.010171,0.0019116,0,0,0.052929,-0.017671,0,0.0099405,0,0,0,0.030662,0.0032402,0.010171,4.0073,0.014691,0.024697,5.7318e-07,0.26,0.3,0
0.013084,0.0038168,0.030523,0.0032112,0.01012,0.0018356,0,0,0.053048,-0.017964,0,0.0095451,0,0,0,0.030646,0.0030884,0.01012,3.8278,0.014618,0.024801,5.7633e-07,0.27,0.3,0
0.013615,0.0038922,0.03051,0.0030612,0.010071,0.0017614,0,0,0.05314,-0.018226,0,0.0091591,0,0,0,0.030622,0.0029487,0.010071,3.6567,0.014547,0.024889,5.7866e-07,0.28,0.3,0
0.014147,0.0039621,0.030488,0.0029238,0.010023,0.0016889,0,0,0.053207,-0.018459,0,0.0087823,0,0,0,0.030591,0.0028207,0.010023,3.4932,0.014478,0.024961,5.8019e-07,0.29,0.3,0
0.014679,0.0040264,0.030457,0.0027984,0.0099768,0.0016181,0,0,0.05325,-0.018664,0,0.008414,0,0,0,0.030552,0.0027041,0.0099768,3.3367,0.014411,0.025017,5.8094e-07,0.3,0.3,0
0.015212,0.0040852,0.030419,0.0026843,0.0099309,0.0015487,0,0,0.053269,-0.018841,0,0.0080532,0,0,0,0.030505,0.0025981,0.0099309,3.1862,0.014345,0.025059,5.8094e-07,0.31,0.3,0
0.015745,0.0041383,0.030372,0.0025808,0.0098858,0.0014805,0,0,0.053264,-0.018993,0,0.0076987,0,0,0,0.030451,0.0025021,0.0098858,3.0408,0.01428,0.025085,5.802e-07,0.32,0.3,0
0.016277,0.0041859,0.030317,0.002487,0.0098412,0.0014132,0,0,0.053237,-0.019121,0,0.0073488,0,0,0,0.030388,0.0024154,0.0098412,2.8996,0.014215,0.025098,5.7875e-07,0.33,0.3,0
0.016809,0.0042277,0.030254,0.0024022,0.0097968,0.0013465,0,0,0.053188,-0.019226,0,0.0070016,0,0,0,0.030319,0.0023372,0.0097968,2.7613,0.014151,0.025097,5.7663e-07,0.34,0.3,0
0.017341,0.0042638,0.030183,0.0023253,0.0097524,0.0012798,0,0,0.053119,-0.019311,0,0.0066552,0,0,0,0.030242,0.0022666,0.0097524,2.625,0.014087,0.025084,5.7387e-07,0.35,0.3,0
0.017872,0.004294,0.030104,0.0022552,0.0097078,0.0012129,0,0,0.05303,-0.019377,0,0.0063073,0,0,0,0.030157,0.0022024,0.0097078,2.4892,0.014022,0.025059,5.7051e-07,0.36,0.3,0
0.018402,0.0043184,0.030018,0.0021906,0.0096625,0.0011453,0,0,0.052923,-0.019427,0,0.0059556,0,0,0,0.030065,0.0021436,0.0096625,2.3529,0.013957,0.025024,5.666e-07,0.37,0.3,0
0.01893,0.0043368,0.029924,0.0021303,0.0096162,0.0010765,0,0,0.0528,-0.019464,0,0.0055975,0,0,0,0.029965,0.0020887,0.0096162,2.2147,0.01389,0.024979,5.6219e-07,0.38,0.3,0
0.019457,0.0043491,0.029823,0.0020727,0.0095687,0.001006,0,0,0.052661,-0.01949,0,0.005231,0,0,0,0.029859,0.0020363,0.0095687,2.0734,0.013821,0.024926,5.5733e-07,0.39,0.3,0
0.019983,0.0043553,0.029715,0.0020161,0.0095194,0.00093342,0,0,0.052509,-0.019508,0,0.0048538,0,0,0,0.029746,0.0019847,0.0095194,1.9279,0.01375,0.024866,5.521e-07,0.4,0.3,0
0.020508,0.0043552,0.029601,0.0019588,0.0094679,0.00085847,0,0,0.052346,-0.019524,0,0.004464,0,0,0,0.029627,0.0019322,0.0094679,1.7771,0.013676,0.024801,5.4656e-07,0.41,0.3,0
0.02103,0.0043488,0.02948,0.0018987,0.0094137,0.00078086,0,0,0.052173,-0.019539,0,0.0040605,0,0,0,0.029503,0.0018766,0.0094137,1.6203,0.013598,0.024734,5.408e-07,0.42,0.3,0
0.021551,0.0043359,0.029354,0.0018338,0.0093565,0.00070045,0,0,0.051995,-0.019559,0,0.0036423,0,0,0,0.029372,0.0018159,0.0093565,1.457,0.013515,0.024666,5.3489e-07,0.43,0.3,0
0.02207,0.0043165,0.029223,0.0017616,0.0092955,0.00061728,0,0,0.051813,-0.019588,0,0.0032099,0,0,0,0.029237,0.0017478,0.0092955,1.287,0.013427,0.0246,5.2894e-07,0.44,0.3,0
0.022587,0.0042906,0.029088,0.00168,0.0092305,0.00053159,0,0,0.05163,-0.019631,0,0.0027643,0,0,0,0.029098,0.0016697,0.0092305,1.1107,0.013333,0.024538,5.2303e-07,0.45,0.3,0
0.023103,0.0042582,0.028949,0.0015865,0.0091607,0.00044388,0,0,0.05145,-0.019693,0,0.0023082,0,0,0,0.028956,0.0015793,0.0091607,0.92913,0.013232,0.024483,5.1725e-07,0.46,0.3,0
0.023616,0.0042192,0.028807,0.0014787,0.0090857,0.00035493,0,0,0.051275,-0.019778,0,0.0018456,0,0,0,0.028812,0.0014741,0.0090857,0.74397,0.013124,0.024437,5.1169e-07,0.47,0.3,0
0.024128,0.004174,0.028662,0.0013544,0.009005,0.00026585,0,0,0.051109,-0.019891,0,0.0013824,0,0,0,0.028665,0.0013518,0.009005,0.55773,0.013007,0.024404,5.0642e-07,0.48,0.3,0
0.024639,0.0041225,0.028515,0.0012117,0.0089181,0.00017811,0,0,0.050953,-0.020037,0,0.00092618,0,0,0,0.028517,0.0012105,0.0089181,0.37374,0.012882,0.024384,5.0148e-07,0.49,0.3,0
0.025147,0.0040651,0.028367,0.001049,0.0088248,9.3492e-05,0,0,0.05081,-0.020217,0,0.00048616,0,0,0,0.028367,0.0010487,0.0088248,0.19608,0.012747,0.024379,4.9693e-07,0.5,0.3,0
0.025655,0.0040022,0.028217,0.00086544,0.0087247,1.4066e-05,0,0,0.05068,-0.020434,0,7.3146e-05,0,0,0,0.028217,0.00086544,0.0087247,0.029466,0.012602,0.024391,4.9274e-07,0.51,0.3,0
0.026161,0.0039344,0.028065,0.00066096,0.0086179,-5.7932e-05,0,0,0.050564,-0.020688,0,-0.00030125,0,0,0,0.028066,0.00066084,0.0086179,-0.12112,0.012448,0.024419,4.8888e-07,0.52,0.3,0
0.026666,0.0038623,0.027912,0.0004365,0.0085045,-0.00012028,0,0,0.050459,-0.020977,0,-0.00062546,0,0,0,0.027912,0.00043598,0.0085045,-0.25082,0.012284,0.024461,4.8527e-07,0.53,0.3,0
0.02717,0.0037868,0.027755,0.00019406,0.0083849,-0.00017098,0,0,0.050364,-0.021296,0,-0.00088909,0,0,0,0.027757,0.000193,0.0083849,-0.35542,0.012112,0.024517,4.8181e-07,0.54,0.3,0
0.027673,0.0037087,0.027596,-6.337e-05,0.0082598,-0.00020842,0,0,0.050274,-0.02164,0,-0.0010838,0,0,0,0.027598,-6.494e-05,0.0082598,-0.43171,0.011931,0.024581,4.7835e-07,0.55,0.3,0
0.028176,0.0036291,0.027433,-0.00033197,0.0081302,-0.00023149,0,0,0.050186,-0.022002,0,-0.0012037,0,0,0,0.027435,-0.00033391,0.0081302,-0.47766,0.011744,0.024651,4.7479e-07,0.56,0.3,0
0.028677,0.0035493,0.027265,-0.00060713,0.0079974,-0.00023956,0,0,0.050096,-0.022372,0,-0.0012457,0,0,0,0.027267,-0.00060919,0.0079974,-0.4924,0.011552,0.024723,4.71e-07,0.57,0.3,0
0.029178,0.0034705,0.027094,-0.00088332,0.0078631,-0.00023259,0,0,0.05,-0.022741,0,-0.0012094,0,0,0,0.027096,-0.00088525,0.0078631,-0.47628,0.011358,0.024793,4.6688e-07,0.58,0.3,0
0.029677,0.003394,0.026919,-0.001154,0.0077294,-0.00021127,0,0,0.049892,-0.023097,0,-0.0010986,0,0,0,0.02692,-0.0011556,0.0077294,-0.43117,0.011165,0.024855,4.6236e-07,0.59,0.3,0
0.030175,0.0033213,0.026742,-0.0014122,0.0075989,-0.00017727,0,0,0.049772,-0.023429,0,-0.00092179,0,0,0,0.026743,-0.0014133,0.0075989,-0.36073,0.010976,0.024905,4.5743e-07,0.6,0.3,0
0.030672,0.0032536,0.026565,-0.001651,0.0074742,-0.00013299,0,0,0.049636,-0.023726,0,-0.00069153,0,0,0,0.026566,-0.0016516,0.0074742,-0.27003,0.010796,0.02494,4.5212e-07,0.61,0.3,0
0.031168,0.0031921,0.026391,-0.0018643,0.0073581,-8.1359e-05,0,0,0.049486,-0.023978,0,-0.00042306,0,0,0,0.026391,-0.0018645,0.0073581,-0.16498,0.010628,0.024957,4.4652e-07,0.62,0.3,0
0.031662,0.0031382,0.026223,-0.0020457,0.0072533,-2.5808e-05,0,0,0.049322,-0.024177,0,-0.0001342,0,0,0,0.026223,-0.0020457,0.0072533,-0.052308,0.010477,0.024955,4.4075e-07,0.63,0.3,0
0.032155,0.0030927,0.026066,-0.0021896,0.0071629,2.9007e-05,0,0,0.049148,-0.024316,0,0.00015084,0,0,0,0.026066,-0.0021896,0.0071629,0.05882,0.010346,0.024932,4.3497e-07,0.64,0.3,0
0.032645,0.0030562,0.025924,-0.0022932,0.0070893,7.741e-05,0,0,0.048971,-0.024395,0,0.00040253,0,0,0,0.025924,-0.0022934,0.0070893,0.15718,0.01024,0.02489,4.2946e-07,0.65,0.3,0
0.033134,0.0030292,0.025805,-0.00236,0.0070336,0.00011433,0,0,0.048806,-0.024423,0,0.00059454,0,0,0,0.025806,-0.0023604,0.0070336,0.23258,0.01016,0.024839,4.2458e-07,0.66,0.3,0
0.033621,0.0030117,0.025716,-0.0023984,0.0069952,0.00013804,0,0,0.048674,-0.024423,0,0.00071784,0,0,0,0.025716,-0.002399,0.0069952,0.28132,0.010104,0.024791,4.2079e-07,0.67,0.3,0
0.034107,0.0030036,0.025663,-0.0024179,0.0069734,0.00015148,0,0,0.048592,-0.024418,0,0.00078769,0,0,0,0.025664,-0.0024187,0.0069734,0.30906,0.010073,0.02476,4.1851e-07,0.68,0.3,0
0.034593,0.0030049,0.02565,-0.0024248,0.0069675,0.0001616,0,0,0.048574,-0.02442,0,0.0008403,0,0,0,0.025651,-0.0024258,0.0069675,0.32978,0.010064,0.024755,4.1798e-07,0.69,0.3,0
0.035079,0.0030156,0.025677,-0.0024192,0.0069773,0.00017695,0,0,0.048619,-0.024431,0,0.00092012,0,0,0,0.025678,-0.0024203,0.0069773,0.36082,0.010078,0.024774,4.1922e-07,0.7,0.3,0
0.035565,0.0030358,0.02574,-0.0023951,0.0070036,0.00020469,0,0,0.048716,-0.024436,0,0.0010644,0,0,0,0.025742,-0.0023966,0.0070036,0.41681,0.010116,0.024812,4.2198e-07,0.71,0.3,0
0.036053,0.0030658,0.025834,-0.0023429,0.0070473,0.00024811,0,0,0.048845,-0.024414,0,0.0012902,0,0,0,0.025836,-0.0023451,0.0070473,0.50446,0.010179,0.024854,4.2585e-07,0.72,0.3,0
0.036542,0.0031055,0.02595,-0.0022537,0.0071089,0.0003058,0,0,0.048987,-0.024343,0,0.0015901,0,0,0,0.025953,-0.002257,0.0071089,0.62113,0.010268,0.024886,4.3039e-07,0.73,0.3,0
0.037033,0.0031547,0.026082,-0.0021236,0.0071876,0.00037291,0,0,0.049126,-0.024209,0,0.0019391,0,0,0,0.026087,-0.0021285,0.0071876,0.75734,0.010382,0.024901,4.3518e-07,0.74,0.3,0
0.037525,0.003213,0.026224,-0.0019545,0.0072809,0.00044381,0,0,0.049252,-0.024012,0,0.0023078,0,0,0,0.026231,-0.0019615,0.0072809,0.90211,0.010517,0.024893,4.3996e-07,0.75,0.3,0
0.038018,0.0032793,0.026371,-0.0017517,0.0073859,0.00051371,0,0,0.049362,-0.023758,0,0.0026713,0,0,0,0.026381,-0.0017611,0.0073859,1.0461,0.010668,0.024864,4.4451e-07,0.76,0.3,0
0.038512,0.0033527,0.02652,-0.0015211,0.0074998,0.00057897,0,0,0.049454,-0.023454,0,0.0030106,0,0,0,0.026532,-0.0015331,0.0074998,1.1823,0.010833,0.024814,4.4869e-07,0.77,0.3,0
0.039007,0.003432,0.026668,-0.0012687,0.0076199,0.00063636,0,0,0.049526,-0.02311,0,0.0033091,0,0,0,0.026683,-0.0012832,0.0076199,1.3042,0.011007,0.024746,4.5239e-07,0.78,0.3,0
0.039503,0.0035159,0.026812,-0.0010011,0.0077434,0.00068314,0,0,0.049579,-0.022736,0,0.0035523,0,0,0,0.026829,-0.0010178,0.0077434,1.4061,0.011185,0.024663,4.5553e-07,0.79,0.3,0
0.039999,0.003603,0.026951,-0.00072534,0.0078678,0.00071727,0,0,0.049617,-0.022342,0,0.0037298,0,0,0,0.02697,-0.00074392,0.0078678,1.4836,0.011365,0.024567,4.5813e-07,0.8,0.3,0
0.040495,0.0036921,0.027084,-0.00044828,0.0079908,0.0007377,0,0,0.049643,-0.021941,0,0.0038361,0,0,0,0.027104,-0.00046803,0.0079908,1.5337,0.011542,0.024465,4.6023e-07,0.81,0.3,0
0.040992,0.0037819,0.027211,-0.00017575,0.0081105,0.00074414,0,0,0.049661,-0.021544,0,0.0038695,0,0,0,0.027231,-0.00019595,0.0081105,1.5553,0.011715,0.02436,4.6191e-07,0.82,0.3,0
0.041488,0.0038712,0.027331,8.7153e-05,0.0082256,0.00073693,0,0,0.049675,-0.02116,0,0.0038321,0,0,0,0.027351,6.7234e-05,0.0082256,1.5483,0.011881,0.024257,4.6327e-07,0.83,0.3,0
0.041985,0.0039588,0.027447,0.00033605,0.0083348,0.000717,0,0,0.049691,-0.020797,0,0.0037284,0,0,0,0.027466,0.0003171,0.0083348,1.5139,0.012039,0.024159,4.6445e-07,0.84,0.3,0
0.042482,0.0040439,0.027557,0.00056735,0.0084373,0.0006858,0,0,0.049711,-0.020462,0,0.0035662,0,0,0,0.027574,0.00054993,0.0084373,1.4546,0.012187,0.02407,4.6557e-07,0.85,0.3,0
0.042979,0.0041256,0.027663,0.00077844,0.0085324,0.00064531,0,0,0.049739,-0.02016,0,0.0033556,0,0,0,0.027678,0.00076295,0.0085324,1.3742,0.012325,0.023993,4.6674e-07,0.86,0.3,0
0.043477,0.0042031,0.027765,0.00096776,0.0086198,0.00059774,0,0,0.049777,-0.019895,0,0.0031083,0,0,0,0.027778,0.00095443,0.0086198,1.2772,0.012451,0.02393,4.6805e-07,0.87,0.3,0
0.043975,0.0042759,0.027863,0.0011348,0.0086993,0.00054539,0,0,0.049825,-0.019668,0,0.002836,0,0,0,0.027874,0.0011237,0.0086993,1.1685,0.012566,0.023881,4.6956e-07,0.88,0.3,0
0.044473,0.0043435,0.027957,0.0012799,0.008771,0.0004904,0,0,0.049883,-0.019477,0,0.0025501,0,0,0,0.027966,0.0012709,0.008771,1.0528,0.012669,0.023846,4.7126e-07,0.89,0.3,0
0.044972,0.0044057,0.028046,0.0014041,0.0088351,0.00043463,0,0,0.049949,-0.019321,0,0.0022601,0,0,0,0.028053,0.001397,0.0088351,0.93437,0.012762,0.023825,4.7316e-07,0.9,0.3,0
0.045472,0.0044621,0.02813,0.0015088,0.0088918,0.00037961,0,0,0.050021,-0.019196,0,0.001974,0,0,0,0.028136,0.0015034,0.0088918,0.81679,0.012844,0.023814,4.7518e-07,0.91,0.3,0
0.045973,0.0045127,0.028209,0.0015958,0.0089414,0.00032648,0,0,0.050095,-0.019099,0,0.0016977,0,0,0,0.028213,0.0015918,0.0089414,0.70275,0.012915,0.023813,4.7729e-07,0.92,0.3,0
0.046474,0.0045573,0.02828,0.001667,0.0089842,0.00027601,0,0,0.05017,-0.019025,0,0.0014352,0,0,0,0.028283,0.0016642,0.0089842,0.59413,0.012977,0.023818,4.7939e-07,0.93,0.3,0
0.046976,0.0045959,0.028344,0.0017243,0.0090205,0.00022862,0,0,0.050241,-0.01897,0,0.0011888,0,0,0,0.028346,0.0017223,0.0090205,0.49203,0.01303,0.023828,4.8142e-07,0.94,0.3,0
0.047479,0.0046285,0.028399,0.0017694,0.0090507,0.00018444,0,0,0.050307,-0.018931,0,0.00095907,0,0,0,0.028401,0.0017681,0.0090507,0.3968,0.013073,0.023841,4.8328e-07,0.95,0.3,0
0.047982,0.0046551,0.028446,0.001804,0.0090749,0.00014332,0,0,0.050364,-0.018904,0,0.00074525,0,0,0,0.028446,0.0018032,0.0090749,0.30821,0.013108,0.023854,4.8492e-07,0.96,0.3,0
0.048486,0.0046757,0.028482,0.0018294,0.0090936,0.0001049,0,0,0.050411,-0.018887,0,0.00054549,0,0,0,0.028483,0.001829,0.0090936,0.2255,0.013135,0.023866,4.8626e-07,0.97,0.3,0
0.048991,0.0046905,0.028509,0.0018467,0.0091067,6.8662e-05,0,0,0.050446,-0.018876,0,0.00035704,0,0,0,0.028509,0.0018465,0.0091067,0.14755,0.013154,0.023875,4.8726e-07,0.98,0.3,0
0.049495,0.0046993,0.028525,0.0018568,0.0091146,3.3941e-05,0,0,0.050467,-0.01887,0,0.00017649,0,0,0,0.028525,0.0018567,0.0091146,0.07292,0.013166,0.023881,4.8787e-07,0.99,0.3,0
0.05,0.0047022,0.02853,0.0018601,0.0091172,5.65e-05,0,0,0.050474,-0.018868,0,0.0002938,0,0,0,0.028531,0.00186,0.0091172,0.12138,0.013169,0.023884,4.8809e-07,1,0.3,0
0,0,0.028077,0.012033,0.012033,0.0033854,0,0,0.041714,5.421e-20,0,0.017604,0,0,0,0.028762,0.011348,0.012033,11.44,0.017381,0.017082,2.546e-07,0,0.31,0
0.00041714,0.00017604,0.028036,0.011542,0.011873,0.0033812,0,0,0.042022,-0.00086054,0,0.017582,0,0,0,0.028702,0.010876,0.011873,11.147,0.01715,0.017348,2.6518e-07,0.01,0.31,0
0.00084043,0.00035016,0.0282,0.011138,0.011801,0.0033573,0,0,0.042637,-0.0017258,0,0.017458,0,0,0,0.028837,0.010501,0.011801,10.741,0.017046,0.017722,2.8068e-07,0.02,0.31,0
0.0012699,0.00052228,0.028365,0.010731,0.011729,0.0033312,0,0,0.043254,-0.0025932,0,0.017322,0,0,0,0.028973,0.010123,0.011729,10.349,0.016942,0.018101,2.9652e-07,0.03,0.31,0
0.0017055,0.0006923,0.028528,0.010325,0.011656,0.0033021,0,0,0.043868,-0.0034604,0,0.017171,0,0,0,0.029109,0.0097446,0.011656,9.9704,0.016836,0.018483,3.1262e-07,0.04,0.31,0
0.0021472,0.00086008,0.02869,0.0099195,0.011583,0.0032694,0,0,0.044478,-0.0043245,0,0.017001,0,0,0,0.029243,0.0093663,0.011583,9.6031,0.016731,0.018866,3.289e-07,0.05,0.31,0
0.0025951,0.0010255,0.028849,0.009516,0.011509,0.0032328,0,0,0.045082,-0.0051828,0,0.01681,0,0,0,0.029375,0.0089897,0.011509,9.2459,0.016625,0.019249,3.4526e-07,0.06,0.31,0
0.0030489,0.0011883,0.029004,0.0091159,0.011436,0.0031919,0,0,0.045677,-0.0060322,0,0.016598,0,0,0,0.029504,0.0086162,0.011436,8.898,0.016519,0.01963,3.6163e-07,0.07,0.31,0
0.0035086,0.0013483,0.029156,0.0087206,0.011363,0.0031467,0,0,0.046261,-0.0068699,0,0.016363,0,0,0,0.029629,0.008247,0.011363,8.5587,0.016413,0.020007,3.779e-07,0.08,0.31,0
0.0039741,0.0015055,0.029302,0.0083311,0.01129,0.0030971,0,0,0.046832,-0.007693,0,0.016105,0,0,0,0.02975,0.0078833,0.01129,8.2277,0.016308,0.020378,3.9399e-07,0.09,0.31,0
0.0044452,0.0016594,0.029443,0.0079489,0.011218,0.0030432,0,0,0.047387,-0.0084989,0,0.015824,0,0,0,0.029866,0.0075263,0.011218,7.9049,0.016203,0.020742,4.0981e-07,0.1,0.31,0
0.0049218,0.00181,0.029579,0.0075749,0.011146,0.0029852,0,0,0.047925,-0.0092849,0,0.015523,0,0,0,0.029976,0.0071771,0.011146,7.5904,0.0161,0.021097,4.2528e-07,0.11,0.31,0
0.0054037,0.0019571,0.029707,0.0072103,0.011075,0.0029233,0,0,0.048443,-0.010049,0,0.015201,0,0,0,0.030081,0.0068367,0.011075,7.2842,0.015998,0.021441,4.4032e-07,0.12,0.31,0
0.0058907,0.0021005,0.029828,0.0068562,0.011005,0.0028581,0,0,0.04894,-0.010788,0,0.014862,0,0,0,0.030179,0.0065059,0.011005,6.9866,0.015897,0.021774,4.5485e-07,0.13,0.31,0
0.0063825,0.0022399,0.029942,0.0065132,0.010937,0.0027899,0,0,0.049415,-0.011501,0,0.014507,0,0,0,0.03027,0.0061856,0.010937,6.6979,0.015797,0.022095,4.6882e-07,0.14,0.31,0
0.006879,0.0023752,0.030048,0.0061823,0.010869,0.0027192,0,0,0.049865,-0.012186,0,0.01414,0,0,0,0.030354,0.0058764,0.010869,6.4184,0.0157,0.022402,4.8217e-07,0.15,0.31,0
0.0073798,0.0025063,0.030146,0.005864,0.010803,0.0026464,0,0,0.050292,-0.012841,0,0.013761,0,0,0,0.030431,0.005579,0.010803,6.1483,0.015604,0.022695,4.9484e-07,0.16,0.31,0
0.0078848,0.0026331,0.030235,0.005559,0.010738,0.0025721,0,0,0.050692,-0.013466,0,0.013375,0,0,0,0.0305,0.0052937,0.010738,5.888,0.015511,0.022973,5.0678e-07,0.17,0.31,0
0.0083937,0.0027553,0.030316,0.0052676,0.010675,0.0024969,0,0,0.051066,-0.014059,0,0.012984,0,0,0,0.030562,0.0050211,0.010675,5.6375,0.015419,0.023236,5.1798e-07,0.18,0.31,0
0.0089061,0.0028729,0.030388,0.0049901,0.010613,0.0024211,0,0,0.051413,-0.01462,0,0.01259,0,0,0,0.030616,0.0047614,0.010613,5.3971,0.01533,0.023482,5.2839e-07,0.19,0.31,0
0.0094219,0.0029857,0.03045,0.0047269,0.010553,0.0023453,0,0,0.051733,-0.015149,0,0.012195,0,0,0,0.030663,0.0045148,0.010553,5.167,0.015244,0.023712,5.3798e-07,0.2,0.31,0
0.0099408,0.0030938,0.030505,0.0044779,0.010495,0.0022698,0,0,0.052026,-0.015644,0,0.011803,0,0,0,0.030701,0.0042815,0.010495,4.947,0.015159,0.023926,5.4676e-07,0.21,0.31,0
0.010462,0.0031969,0.03055,0.0042433,0.010438,0.0021951,0,0,0.052291,-0.016106,0,0.011414,0,0,0,0.030732,0.0040614,0.010438,4.7372,0.015077,0.024123,5.5469e-07,0.22,0.31,0
0.010987,0.0032951,0.030586,0.0040231,0.010383,0.0021214,0,0,0.052529,-0.016535,0,0.011031,0,0,0,0.030755,0.0038547,0.010383,4.5374,0.014997,0.024303,5.6178e-07,0.23,0.31,0
0.011513,0.0033883,0.030614,0.003817,0.010329,0.0020491,0,0,0.05274,-0.016932,0,0.010655,0,0,0,0.03077,0.0036613,0.010329,4.3475,0.01492,0.024466,5.6801e-07,0.24,0.31,0
0.012041,0.0034764,0.030633,0.003625,0.010277,0.0019782,0,0,0.052924,-0.017296,0,0.010287,0,0,0,0.030777,0.0034809,0.010277,4.1672,0.014845,0.024612,5.734e-07,0.25,0.31,0
0.012571,0.0035595,0.030643,0.0034468,0.010227,0.0019091,0,0,0.053081,-0.017628,0,0.0099274,0,0,0,0.030776,0.0033134,0.010227,3.996,0.014772,0.024741,5.7793e-07,0.26,0.31,0
0.013103,0.0036374,0.030644,0.003282,0.010178,0.0018417,0,0,0.053212,-0.017929,0,0.0095769,0,0,0,0.030767,0.0031585,0.010178,3.8335,0.014701,0.024854,5.8163e-07,0.27,0.31,0
0.013636,0.0037101,0.030637,0.0031302,0.01013,0.0017761,0,0,0.053317,-0.018199,0,0.0092356,0,0,0,0.030751,0.003016,0.01013,3.6792,0.014632,0.02495,5.8449e-07,0.28,0.31,0
0.014169,0.0037776,0.03062,0.0029911,0.010084,0.0017121,0,0,0.053396,-0.01844,0,0.0089031,0,0,0,0.030726,0.0028854,0.010084,3.5325,0.014565,0.02503,5.8652e-07,0.29,0.31,0
0.014704,0.0038399,0.030596,0.0028641,0.010038,0.0016498,0,0,0.05345,-0.018652,0,0.0085788,0,0,0,0.030694,0.0027663,0.010038,3.3926,0.014499,0.025094,5.8775e-07,0.3,0.31,0
0.015238,0.0038968,0.030563,0.0027487,0.0099934,0.0015888,0,0,0.05348,-0.018836,0,0.0082618,0,0,0,0.030653,0.0026582,0.0099934,3.2588,0.014435,0.025143,5.8818e-07,0.31,0.31,0
0.015773,0.0039485,0.030521,0.0026441,0.0099495,0.001529,0,0,0.053485,-0.018994,0,0.0079506,0,0,0,0.030604,0.0025605,0.0099495,3.13,0.014372,0.025176,5.8784e-07,0.32,0.31,0
0.016308,0.0039947,0.030471,0.0025496,0.0099061,0.00147,0,0,0.053468,-0.019127,0,0.0076438,0,0,0,0.030548,0.0024725,0.0099061,3.0054,0.014309,0.025195,5.8675e-07,0.33,0.31,0
0.016843,0.0040355,0.030412,0.0024645,0.0098629,0.0014114,0,0,0.053427,-0.019236,0,0.0073394,0,0,0,0.030483,0.0023934,0.0098629,2.8838,0.014246,0.025199,5.8493e-07,0.34,0.31,0
0.017377,0.0040707,0.030345,0.0023876,0.0098197,0.0013529,0,0,0.053365,-0.019323,0,0.0070352,0,0,0,0.03041,0.0023223,0.0098197,2.7641,0.014184,0.02519,5.8242e-07,0.35,0.31,0
0.01791,0.0041003,0.030269,0.0023181,0.0097762,0.001294,0,0,0.053282,-0.019391,0,0.006729,0,0,0,0.030329,0.0022583,0.0097762,2.645,0.014121,0.025168,5.7924e-07,0.36,0.31,0
0.018442,0.0041241,0.030186,0.0022546,0.009732,0.0012343,0,0,0.053179,-0.019441,0,0.0064181,0,0,0,0.03024,0.0022001,0.009732,2.5253,0.014057,0.025135,5.7545e-07,0.37,0.31,0
0.018974,0.0041422,0.030094,0.0021958,0.0096868,0.0011731,0,0,0.053058,-0.019477,0,0.0061001,0,0,0,0.030143,0.0021465,0.0096868,2.4036,0.013992,0.025091,5.7109e-07,0.38,0.31,0
0.019503,0.0041542,0.029994,0.0021401,0.0096402,0.0011101,0,0,0.05292,-0.0195,0,0.0057723,0,0,0,0.030038,0.002096,0.0096402,2.2786,0.013925,0.025037,5.6622e-07,0.39,0.31,0
0.020032,0.0041602,0.029886,0.002086,0.0095917,0.0010447,0,0,0.052766,-0.019515,0,0.0054322,0,0,0,0.029926,0.0020468,0.0095917,2.149,0.013855,0.024976,5.609e-07,0.4,0.31,0
0.020559,0.00416,0.029771,0.0020314,0.0095408,0.00097651,0,0,0.052599,-0.019525,0,0.0050778,0,0,0,0.029806,0.0019971,0.0095408,2.0136,0.013781,0.024909,5.5519e-07,0.41,0.31,0
0.021084,0.0041535,0.029649,0.0019743,0.0094871,0.00090526,0,0,0.052422,-0.019533,0,0.0047073,0,0,0,0.029679,0.0019447,0.0094871,1.8715,0.013704,0.024837,5.492e-07,0.42,0.31,0
0.021607,0.0041404,0.029521,0.0019124,0.0094299,0.00083072,0,0,0.052236,-0.019546,0,0.0043197,0,0,0,0.029546,0.0018874,0.0094299,1.7219,0.013621,0.024764,5.4299e-07,0.43,0.31,0
0.022129,0.0041208,0.029386,0.0018433,0.0093688,0.00075287,0,0,0.052045,-0.019566,0,0.0039149,0,0,0,0.029407,0.0018227,0.0093688,1.5646,0.013533,0.024691,5.3666e-07,0.44,0.31,0
0.022648,0.0040945,0.029246,0.0017643,0.009303,0.00067189,0,0,0.051851,-0.019601,0,0.0034938,0,0,0,0.029262,0.0017479,0.009303,1.3997,0.013438,0.024622,5.3031e-07,0.45,0.31,0
0.023166,0.0040615,0.0291,0.0016728,0.0092319,0.00058826,0,0,0.051658,-0.019654,0,0.0030589,0,0,0,0.029113,0.0016602,0.0092319,1.2281,0.013335,0.024558,5.2404e-07,0.46,0.31,0
0.023681,0.0040218,0.028951,0.0015661,0.009155,0.00050278,0,0,0.051468,-0.019731,0,0.0026144,0,0,0,0.02896,0.0015569,0.009155,1.0515,0.013224,0.024504,5.1794e-07,0.47,0.31,0
0.024195,0.0039754,0.028797,0.0014416,0.0090715,0.00041662,0,0,0.051286,-0.019838,0,0.0021664,0,0,0,0.028803,0.0014352,0.0090715,0.87235,0.013103,0.024461,5.1209e-07,0.48,0.31,0
0.024707,0.0039224,0.028639,0.0012968,0.0089809,0.00033138,0,0,0.051112,-0.019978,0,0.0017232,0,0,0,0.028643,0.0012928,0.0089809,0.69427,0.012972,0.024431,5.0655e-07,0.49,0.31,0
0.025217,0.0038633,0.028479,0.00113,0.0088827,0.00024907,0,0,0.05095,-0.020157,0,0.0012951,0,0,0,0.028481,0.0011278,0.0088827,0.52174,0.01283,0.024418,5.0135e-07,0.5,0.31,0
0.025726,0.0037982,0.028315,0.00093995,0.0087765,0.00017206,0,0,0.0508,-0.020375,0,0.0008947,0,0,0,0.028316,0.00093887,0.0087765,0.3601,0.012677,0.024421,4.9649e-07,0.51,0.31,0
0.026233,0.0037279,0.028147,0.00072636,0.008662,0.00010298,0,0,0.050661,-0.020633,0,0.00053548,0,0,0,0.028147,0.00072597,0.008662,0.21517,0.012512,0.02444,4.9189e-07,0.52,0.31,0
0.026739,0.0036529,0.027974,0.00049034,0.0085394,4.4435e-05,0,0,0.050531,-0.020928,0,0.00023106,0,0,0,0.027974,0.00049027,0.0085394,0.092632,0.012335,0.024473,4.8747e-07,0.53,0.31,0
0.027244,0.0035741,0.027796,0.00023439,0.008409,-1.3179e-06,0,0,0.050405,-0.021254,0,-6.8529e-06,0,0,0,0.027796,0.00023439,0.008409,-0.0027397,0.012146,0.024518,4.8306e-07,0.54,0.31,0
0.027747,0.0034925,0.027609,-3.7771e-05,0.0082715,-3.2718e-05,0,0,0.050279,-0.021604,0,-0.00017014,0,0,0,0.027609,-3.781e-05,0.0082715,-0.067805,0.011948,0.02457,4.7848e-07,0.55,0.31,0
0.028249,0.0034094,0.027415,-0.00032158,0.008128,-4.899e-05,0,0,0.050146,-0.021969,0,-0.00025475,0,0,0,0.027415,-0.00032167,0.008128,-0.1012,0.01174,0.024624,4.7357e-07,0.56,0.31,0
0.02875,0.0033258,0.027211,-0.00061201,0.0079799,-5.0018e-05,0,0,0.050002,-0.022339,0,-0.00026009,0,0,0,0.027212,-0.0006121,0.0079799,-0.103,0.011527,0.024676,4.682e-07,0.57,0.31,0
0.02925,0.0032433,0.026999,-0.00090301,0.0078287,-3.6183e-05,0,0,0.049842,-0.022703,0,-0.00018815,0,0,0,0.026999,-0.00090305,0.0078287,-0.0743,0.011308,0.024721,4.6224e-07,0.58,0.31,0
0.029747,0.0031633,0.026778,-0.0011869,0.0076772,-8.8754e-06,0,0,0.049661,-0.023047,0,-4.6152e-05,0,0,0,0.026778,-0.0011869,0.0076772,-0.018185,0.011089,0.024753,4.5564e-07,0.59,0.31,0
0.030243,0.0030873,0.02655,-0.0014548,0.0075286,2.9101e-05,0,0,0.049456,-0.023357,0,0.00015132,0,0,0,0.02655,-0.0014549,0.0075286,0.059537,0.010875,0.024767,4.4839e-07,0.6,0.31,0
0.030736,0.0030167,0.02632,-0.0016992,0.0073863,7.3496e-05,0,0,0.049228,-0.023622,0,0.00038218,0,0,0,0.02632,-0.0016994,0.0073863,0.15029,0.010669,0.02476,4.4062e-07,0.61,0.31,0
0.031227,0.002953,0.026092,-0.0019149,0.0072531,0.00012058,0,0,0.048981,-0.023837,0,0.00062703,0,0,0,0.026093,-0.0019155,0.0072531,0.24668,0.010477,0.024733,4.3253e-07,0.62,0.31,0
0.031716,0.0028972,0.025871,-0.0020962,0.0071324,0.00016695,0,0,0.04872,-0.023994,0,0.00086814,0,0,0,0.025872,-0.0020972,0.0071324,0.34201,0.010302,0.024684,4.2432e-07,0.63,0.31,0
0.032202,0.0028505,0.025663,-0.0022341,0.0070285,0.00020803,0,0,0.048448,-0.024083,0,0.0010818,0,0,0,0.025664,-0.0022357,0.0070285,0.42724,0.010152,0.024612,4.162e-07,0.64,0.31,0
0.032685,0.0028135,0.025475,-0.0023229,0.0069456,0.0002358,0,0,0.048176,-0.024098,0,0.0012262,0,0,0,0.025477,-0.0023249,0.0069456,0.48597,0.010032,0.024518,4.0849e-07,0.65,0.31,0
0.033165,0.0027865,0.025317,-0.0023687,0.0068845,0.00024252,0,0,0.047924,-0.024058,0,0.0012611,0,0,0,0.025319,-0.0023708,0.0068845,0.50185,0.0099443,0.024415,4.0169e-07,0.66,0.31,0
0.033643,0.0027692,0.025199,-0.002387,0.0068436,0.00022555,0,0,0.047724,-0.024,0,0.0011729,0,0,0,0.025201,-0.0023889,0.0068436,0.46842,0.0098852,0.024325,3.9645e-07,0.67,0.31,0
0.03412,0.0027613,0.025131,-0.002395,0.0068207,0.00019043,0,0,0.047606,-0.023961,0,0.00099024,0,0,0,0.025132,-0.0023964,0.0068207,0.39636,0.0098521,0.02427,3.9337e-07,0.68,0.31,0
0.034595,0.0027625,0.025118,-0.0024027,0.0068144,0.00014896,0,0,0.047588,-0.023965,0,0.00077458,0,0,0,0.025118,-0.0024035,0.0068144,0.31011,0.0098431,0.024264,3.9284e-07,0.69,0.31,0
0.035071,0.0027729,0.02516,-0.0024105,0.0068249,0.00011543,0,0,0.047671,-0.024012,0,0.00060026,0,0,0,0.02516,-0.0024109,0.0068249,0.23988,0.0098581,0.024307,3.9486e-07,0.7,0.31,0
0.035549,0.0027929,0.025252,-0.0024085,0.0068531,0.00010197,0,0,0.047838,-0.02408,0,0.00053027,0,0,0,0.025253,-0.0024089,0.0068531,0.21122,0.009899,0.024387,3.9908e-07,0.71,0.31,0
0.036028,0.0028228,0.025385,-0.0023799,0.0069016,0.00011467,0,0,0.048058,-0.024132,0,0.00059626,0,0,0,0.025386,-0.0023804,0.0069016,0.23661,0.009969,0.024482,4.0491e-07,0.72,0.31,0
0.03651,0.0028629,0.025548,-0.0023087,0.0069719,0.00015142,0,0,0.048299,-0.02413,0,0.00078739,0,0,0,0.025549,-0.0023096,0.0069719,0.31143,0.01007,0.02457,4.117e-07,0.73,0.31,0
0.036994,0.0029133,0.025732,-0.0021879,0.0070634,0.00020487,0,0,0.04854,-0.024053,0,0.0010653,0,0,0,0.025734,-0.0021894,0.0070634,0.42039,0.010203,0.024637,4.1893e-07,0.74,0.31,0
0.037481,0.0029732,0.02593,-0.0020223,0.0071722,0.00026702,0,0,0.048769,-0.023905,0,0.0013885,0,0,0,0.025932,-0.0020248,0.0071722,0.54728,0.01036,0.024679,4.2625e-07,0.75,0.31,0
0.03797,0.0030419,0.026133,-0.00182,0.0072939,0.00033316,0,0,0.048981,-0.023696,0,0.0017324,0,0,0,0.026137,-0.001824,0.0072939,0.68275,0.010536,0.024698,4.3341e-07,0.76,0.31,0
0.03846,0.0031182,0.026337,-0.0015866,0.0074252,0.00039961,0,0,0.049172,-0.023431,0,0.002078,0,0,0,0.026343,-0.0015923,0.0074252,0.81972,0.010725,0.024694,4.4019e-07,0.77,0.31,0
0.038953,0.0032009,0.026538,-0.0013269,0.0075634,0.00046239,0,0,0.049335,-0.023115,0,0.0024044,0,0,0,0.026546,-0.0013346,0.0075634,0.95041,0.010925,0.024666,4.4635e-07,0.78,0.31,0
0.039447,0.0032885,0.026731,-0.0010481,0.007705,0.00051686,0,0,0.049468,-0.022758,0,0.0026877,0,0,0,0.026741,-0.0010577,0.007705,1.0655,0.011129,0.024616,4.5174e-07,0.79,0.31,0
0.039942,0.0033795,0.026914,-0.00075916,0.0078465,0.00055978,0,0,0.049576,-0.022375,0,0.0029109,0,0,0,0.026926,-0.00077048,0.0078465,1.1584,0.011334,0.024549,4.5634e-07,0.8,0.31,0
0.040439,0.0034726,0.027086,-0.00046803,0.0079854,0.00058932,0,0,0.049661,-0.021979,0,0.0030644,0,0,0,0.027099,-0.00048062,0.0079854,1.2247,0.011534,0.02447,4.6018e-07,0.81,0.31,0
0.040936,0.0035663,0.027247,-0.00018116,0.0081196,0.00060469,0,0,0.04973,-0.021582,0,0.0031444,0,0,0,0.02726,-0.00019448,0.0081196,1.2624,0.011728,0.024385,4.6335e-07,0.82,0.31,0
0.041433,0.0036595,0.027397,9.5864e-05,0.0082478,0.00060571,0,0,0.049787,-0.021195,0,0.0031497,0,0,0,0.02741,8.2432e-05,0.0082478,1.2704,0.011914,0.024297,4.6599e-07,0.83,0.31,0
0.041931,0.0037508,0.027537,0.00035785,0.0083686,0.00059291,0,0,0.049839,-0.020828,0,0.0030831,0,0,0,0.02755,0.00034492,0.0083686,1.2491,0.012088,0.024212,4.6827e-07,0.84,0.31,0
0.04243,0.0038392,0.02767,0.00060037,0.0084811,0.00056771,0,0,0.049891,-0.02049,0,0.0029521,0,0,0,0.027682,0.00058847,0.0084811,1.2009,0.01225,0.024135,4.7034e-07,0.85,0.31,0
0.042929,0.0039239,0.027796,0.00082023,0.0085848,0.00053232,0,0,0.049948,-0.020188,0,0.0027681,0,0,0,0.027806,0.00080973,0.0085848,1.13,0.0124,0.02407,4.7239e-07,0.86,0.31,0
0.043429,0.0040041,0.027915,0.0010157,0.0086793,0.00048938,0,0,0.050014,-0.019925,0,0.0025448,0,0,0,0.027924,0.0010068,0.0086793,1.0419,0.012537,0.024019,4.7452e-07,0.87,0.31,0
0.043929,0.0040791,0.028029,0.0011864,0.0087647,0.00044162,0,0,0.050088,-0.019704,0,0.0022964,0,0,0,0.028036,0.0011791,0.0087647,0.9423,0.01266,0.023982,4.7681e-07,0.88,0.31,0
0.044431,0.0041486,0.028137,0.0013328,0.0088411,0.00039153,0,0,0.050171,-0.019522,0,0.002036,0,0,0,0.028143,0.0013271,0.0088411,0.83667,0.012771,0.02396,4.7928e-07,0.89,0.31,0
0.044933,0.0042123,0.02824,0.0014566,0.0089089,0.00034124,0,0,0.05026,-0.019376,0,0.0017744,0,0,0,0.028244,0.0014522,0.0089089,0.72983,0.012868,0.023951,4.8191e-07,0.9,0.31,0
0.045436,0.0042699,0.028336,0.0015594,0.0089686,0.00029242,0,0,0.050355,-0.019264,0,0.0015206,0,0,0,0.028339,0.0015563,0.0089686,0.62562,0.012955,0.023953,4.8464e-07,0.91,0.31,0
0.04594,0.0043214,0.028424,0.0016437,0.0090204,0.00024631,0,0,0.05045,-0.019179,0,0.0012808,0,0,0,0.028427,0.0016414,0.0090204,0.5269,0.013029,0.023963,4.8741e-07,0.92,0.31,0
0.046445,0.0043667,0.028505,0.0017115,0.0090649,0.00020369,0,0,0.050544,-0.019119,0,0.0010592,0,0,0,0.028507,0.0017099,0.0090649,0.43554,0.013094,0.02398,4.9013e-07,0.93,0.31,0
0.046951,0.0044058,0.028577,0.0017651,0.0091025,0.00016496,0,0,0.050633,-0.019077,0,0.00085781,0,0,0,0.028578,0.0017641,0.0091025,0.3525,0.013148,0.024001,4.927e-07,0.94,0.31,0
0.047457,0.0044387,0.028639,0.0018067,0.0091336,0.00013018,0,0,0.050713,-0.01905,0,0.00067692,0,0,0,0.028639,0.0018061,0.0091336,0.27797,0.013193,0.024023,4.9505e-07,0.95,0.31,0
0.047965,0.0044655,0.028691,0.001838,0.0091585,9.9101e-05,0,0,0.050783,-0.019033,0,0.00051532,0,0,0,0.028691,0.0018376,0.0091585,0.21145,0.013229,0.024044,4.971e-07,0.96,0.31,0
0.048473,0.0044863,0.028731,0.0018607,0.0091776,7.1261e-05,0,0,0.05084,-0.019024,0,0.00037056,0,0,0,0.028732,0.0018605,0.0091776,0.15195,0.013257,0.024062,4.9876e-07,0.97,0.31,0
0.048982,0.0045011,0.028761,0.001876,0.0091911,4.6005e-05,0,0,0.050882,-0.019019,0,0.00023923,0,0,0,0.028761,0.0018759,0.0091911,0.098042,0.013276,0.024076,4.9999e-07,0.98,0.31,0
0.049491,0.00451,0.028779,0.0018847,0.0091991,2.2543e-05,0,0,0.050907,-0.019017,0,0.00011722,0,0,0,0.028779,0.0018847,0.0091991,0.048026,0.013288,0.024085,5.0075e-07,0.99,0.31,0
0.05,0.0045129,0.028785,0.0018876,0.0092017,5.6733e-05,0,0,0.050916,-0.019017,0,0.00029501,0,0,0,0.028785,0.0018875,0.0092017,0.12085,0.013291,0.024088,5.0101e-07,1,0.31,0
0,0,0.028128,0.012055,0.012055,0.0032202,0,0,0.04179,0,0,0.016745,0,0,0,0.028749,0.011434,0.012055,10.918,0.017412,0.017013,2.5178e-07,0,0.32,0
0.0004179,0.00016745,0.028086,0.011565,0.011895,0.0032161,0,0,0.042097,-0.00085877,0,0.016724,0,0,0,0.02869,0.010961,0.011895,10.636,0.017182,0.017281,2.6244e-07,0.01,0.32,0
0.00084193,0.00033294,0.028251,0.011162,0.011824,0.0031924,0,0,0.04271,-0.0017206,0,0.016601,0,0,0,0.028828,0.010585,0.011824,10.244,0.017079,0.017656,2.7799e-07,0.02,0.32,0
0.0012721,0.00049641,0.028415,0.010758,0.011752,0.0031671,0,0,0.043324,-0.0025834,0,0.016469,0,0,0,0.028966,0.010207,0.011752,9.8676,0.016975,0.018036,2.9388e-07,0.03,0.32,0
0.0017084,0.00065779,0.028578,0.010355,0.01168,0.0031395,0,0,0.043935,-0.0034448,0,0.016325,0,0,0,0.029104,0.0098292,0.01168,9.506,0.016871,0.018419,3.1004e-07,0.04,0.32,0
0.0021508,0.00081696,0.028739,0.0099528,0.011607,0.003109,0,0,0.044542,-0.0043023,0,0.016167,0,0,0,0.02924,0.0094516,0.011607,9.1569,0.016766,0.018803,3.2637e-07,0.05,0.32,0
0.0025992,0.0009738,0.028897,0.0095531,0.011535,0.0030753,0,0,0.045142,-0.0051534,0,0.015991,0,0,0,0.029375,0.009076,0.011535,8.819,0.016662,0.019187,3.428e-07,0.06,0.32,0
0.0030536,0.0011282,0.029053,0.009157,0.011463,0.003038,0,0,0.045734,-0.0059953,0,0.015798,0,0,0,0.029506,0.0087035,0.011463,8.4912,0.016558,0.01957,3.5925e-07,0.07,0.32,0
0.0035139,0.0012799,0.029204,0.0087658,0.011391,0.0029971,0,0,0.046315,-0.0068257,0,0.015585,0,0,0,0.029635,0.0083353,0.011391,8.1727,0.016454,0.019948,3.7563e-07,0.08,0.32,0
0.0039799,0.0014288,0.029351,0.0083804,0.01132,0.0029525,0,0,0.046883,-0.0076417,0,0.015353,0,0,0,0.029759,0.0079727,0.01132,7.863,0.016351,0.020321,3.9185e-07,0.09,0.32,0
0.0044516,0.0015748,0.029493,0.0080021,0.011249,0.0029041,0,0,0.047436,-0.0084411,0,0.015102,0,0,0,0.029879,0.0076166,0.011249,7.5618,0.016248,0.020687,4.0784e-07,0.1,0.32,0
0.0049287,0.0017175,0.02963,0.0076319,0.011178,0.0028523,0,0,0.047973,-0.0092212,0,0.014832,0,0,0,0.029994,0.007268,0.011178,7.269,0.016147,0.021045,4.2351e-07,0.11,0.32,0
0.005411,0.001857,0.02976,0.0072707,0.011109,0.0027972,0,0,0.048492,-0.0099801,0,0.014545,0,0,0,0.030103,0.006928,0.011109,6.9846,0.016047,0.021393,4.3878e-07,0.12,0.32,0
0.0058985,0.001993,0.029883,0.0069195,0.011041,0.0027391,0,0,0.048991,-0.010715,0,0.014243,0,0,0,0.030206,0.0065973,0.011041,6.7088,0.015948,0.02173,4.536e-07,0.13,0.32,0
0.0063908,0.0021253,0.03,0.0065792,0.010974,0.0026784,0,0,0.049468,-0.011426,0,0.013928,0,0,0,0.030302,0.0062768,0.010974,6.4416,0.015851,0.022055,4.6788e-07,0.14,0.32,0
0.0068879,0.0022538,0.030109,0.0062504,0.010908,0.0026156,0,0,0.049923,-0.012109,0,0.013601,0,0,0,0.030392,0.005967,0.010908,6.1834,0.015756,0.022368,4.8159e-07,0.15,0.32,0
0.0073893,0.0023784,0.03021,0.0059337,0.010843,0.0025509,0,0,0.050354,-0.012764,0,0.013265,0,0,0,0.030475,0.0056686,0.010843,5.9343,0.015662,0.022667,4.9465e-07,0.16,0.32,0
0.0078949,0.0024988,0.030303,0.0056298,0.01078,0.002485,0,0,0.050761,-0.01339,0,0.012922,0,0,0,0.030551,0.0053821,0.01078,5.6945,0.015571,0.022951,5.0703e-07,0.17,0.32,0
0.0084045,0.0026151,0.030388,0.0053391,0.010718,0.0024183,0,0,0.051142,-0.013986,0,0.012575,0,0,0,0.03062,0.0051078,0.010718,5.4642,0.015482,0.023221,5.1869e-07,0.18,0.32,0
0.0089178,0.002727,0.030465,0.0050619,0.010658,0.0023511,0,0,0.051498,-0.01455,0,0.012226,0,0,0,0.030681,0.0048461,0.010658,5.2436,0.015395,0.023474,5.296e-07,0.19,0.32,0
0.0094345,0.0028346,0.030533,0.0047984,0.010599,0.002284,0,0,0.051827,-0.015083,0,0.011877,0,0,0,0.030734,0.0045973,0.010599,5.0327,0.01531,0.023713,5.3972e-07,0.2,0.32,0
0.0099543,0.0029377,0.030593,0.0045489,0.010542,0.0022173,0,0,0.052131,-0.015583,0,0.01153,0,0,0,0.03078,0.0043614,0.010542,4.8316,0.015228,0.023934,5.4903e-07,0.21,0.32,0
0.010477,0.0030362,0.030644,0.0043133,0.010487,0.0021513,0,0,0.052407,-0.016052,0,0.011187,0,0,0,0.030818,0.0041387,0.010487,4.6403,0.015148,0.02414,5.5753e-07,0.22,0.32,0
0.011003,0.00313,0.030686,0.0040919,0.010433,0.0020864,0,0,0.052657,-0.016488,0,0.010849,0,0,0,0.030849,0.0039292,0.010433,4.4587,0.01507,0.024328,5.6519e-07,0.23,0.32,0
0.01153,0.0032192,0.03072,0.0038844,0.010381,0.0020228,0,0,0.05288,-0.016892,0,0.010519,0,0,0,0.030871,0.0037327,0.010381,4.2866,0.014995,0.024501,5.7201e-07,0.24,0.32,0
0.01206,0.0033037,0.030745,0.0036907,0.010331,0.0019607,0,0,0.053077,-0.017264,0,0.010196,0,0,0,0.030886,0.0035493,0.010331,4.1237,0.014922,0.024656,5.7798e-07,0.25,0.32,0
0.012592,0.0033834,0.030761,0.0035107,0.010282,0.0019003,0,0,0.053247,-0.017604,0,0.0098814,0,0,0,0.030893,0.0033788,0.010282,3.9699,0.014851,0.024794,5.831e-07,0.26,0.32,0
0.013125,0.0034582,0.030769,0.0033441,0.010234,0.0018416,0,0,0.053391,-0.017913,0,0.0095761,0,0,0,0.030892,0.003221,0.010234,3.8245,0.014782,0.024916,5.8736e-07,0.27,0.32,0
0.01366,0.0035282,0.030768,0.0031906,0.010188,0.0017846,0,0,0.053509,-0.018192,0,0.0092798,0,0,0,0.030883,0.0030756,0.010188,3.6872,0.014715,0.025021,5.9078e-07,0.28,0.32,0
0.014195,0.0035933,0.030758,0.0030498,0.010142,0.0017293,0,0,0.053601,-0.018441,0,0.0089923,0,0,0,0.030866,0.0029423,0.010142,3.5575,0.01465,0.02511,5.9336e-07,0.29,0.32,0
0.014732,0.0036534,0.03074,0.0029213,0.010098,0.0016756,0,0,0.053668,-0.01866,0,0.008713,0,0,0,0.03084,0.0028208,0.010098,3.4345,0.014586,0.025182,5.9511e-07,0.3,0.32,0
0.015269,0.0037084,0.030713,0.0028046,0.010055,0.0016232,0,0,0.053709,-0.018851,0,0.0084408,0,0,0,0.030807,0.0027105,0.010055,3.3176,0.014524,0.025239,5.9603e-07,0.31,0.32,0
0.015806,0.0037585,0.030677,0.002699,0.010013,0.001572,0,0,0.053726,-0.019016,0,0.0081746,0,0,0,0.030765,0.0026109,0.010013,3.206,0.014463,0.025279,5.9615e-07,0.32,0.32,0
0.016343,0.0038033,0.030632,0.0026038,0.0099707,0.0015217,0,0,0.053719,-0.019154,0,0.0079127,0,0,0,0.030714,0.0025215,0.0099707,3.0985,0.014402,0.025304,5.9547e-07,0.33,0.32,0
0.01688,0.003843,0.030579,0.0025184,0.0099291,0.0014718,0,0,0.053688,-0.019268,0,0.0076532,0,0,0,0.030655,0.0024414,0.0099291,2.9943,0.014342,0.025315,5.9402e-07,0.34,0.32,0
0.017417,0.0038773,0.030516,0.0024417,0.0098873,0.0014219,0,0,0.053635,-0.019359,0,0.0073939,0,0,0,0.030588,0.0023699,0.0098873,2.892,0.014282,0.025311,5.9182e-07,0.35,0.32,0
0.017953,0.0039062,0.030445,0.0023728,0.0098453,0.0013716,0,0,0.053559,-0.019429,0,0.0071322,0,0,0,0.030512,0.0023059,0.0098453,2.7906,0.014221,0.025293,5.8891e-07,0.36,0.32,0
0.018488,0.0039296,0.030365,0.0023104,0.0098026,0.0013203,0,0,0.053462,-0.01948,0,0.0068655,0,0,0,0.030427,0.0022484,0.0098026,2.6885,0.014159,0.025263,5.8531e-07,0.37,0.32,0
0.019022,0.0039473,0.030276,0.0022533,0.0097588,0.0012675,0,0,0.053345,-0.019514,0,0.0065911,0,0,0,0.030333,0.0021961,0.0097588,2.5846,0.014096,0.025221,5.8108e-07,0.38,0.32,0
0.019555,0.0039591,0.030179,0.0021999,0.0097136,0.0012127,0,0,0.053209,-0.019536,0,0.0063061,0,0,0,0.030231,0.0021474,0.0097136,2.4772,0.014031,0.025169,5.7627e-07,0.39,0.32,0
0.020086,0.003965,0.030073,0.0021484,0.0096664,0.0011553,0,0,0.053057,-0.019547,0,0.0060077,0,0,0,0.030121,0.0021006,0.0096664,2.3651,0.013962,0.025107,5.7093e-07,0.4,0.32,0
0.020616,0.0039647,0.029959,0.0020969,0.0096167,0.0010949,0,0,0.052889,-0.019551,0,0.0056935,0,0,0,0.030002,0.0020539,0.0096167,2.247,0.013891,0.025038,5.6514e-07,0.41,0.32,0
0.021144,0.0039581,0.029836,0.0020432,0.0095639,0.001031,0,0,0.052709,-0.019554,0,0.0053613,0,0,0,0.029875,0.002005,0.0095639,2.1216,0.013815,0.024964,5.5898e-07,0.42,0.32,0
0.02167,0.003945,0.029707,0.0019849,0.0095075,0.00096343,0,0,0.052518,-0.019559,0,0.0050098,0,0,0,0.02974,0.0019514,0.0095075,1.988,0.013733,0.024886,5.5253e-07,0.43,0.32,0
0.022194,0.0039252,0.02957,0.0019193,0.0094466,0.00089204,0,0,0.05232,-0.019571,0,0.0046386,0,0,0,0.029598,0.0018905,0.0094466,1.8459,0.013645,0.024808,5.459e-07,0.44,0.32,0
0.022717,0.0038986,0.029426,0.0018436,0.0093808,0.00081699,0,0,0.052117,-0.019597,0,0.0042484,0,0,0,0.02945,0.0018194,0.0093808,1.6951,0.01355,0.024733,5.3918e-07,0.45,0.32,0
0.023237,0.0038651,0.029275,0.0017547,0.0093091,0.00073874,0,0,0.051913,-0.019641,0,0.0038415,0,0,0,0.029295,0.0017349,0.0093091,1.5365,0.013446,0.024662,5.3247e-07,0.46,0.32,0
0.023755,0.0038246,0.02912,0.0016496,0.0092307,0.00065811,0,0,0.051711,-0.019711,0,0.0034222,0,0,0,0.029135,0.0016339,0.0092307,1.3716,0.013333,0.024599,5.2589e-07,0.47,0.32,0
0.024271,0.0037772,0.028958,0.0015253,0.009145,0.00057634,0,0,0.051514,-0.019811,0,0.002997,0,0,0,0.02897,0.0015132,0.009145,1.203,0.01321,0.024548,5.1951e-07,0.48,0.32,0
0.024785,0.0037229,0.028792,0.0013788,0.0090512,0.00049519,0,0,0.051326,-0.019948,0,0.002575,0,0,0,0.028801,0.0013699,0.0090512,1.0345,0.013074,0.02451,5.134e-07,0.49,0.32,0
0.025298,0.003662,0.02862,0.0012079,0.0089484,0.00041693,0,0,0.051147,-0.020126,0,0.002168,0,0,0,0.028627,0.0012015,0.0089484,0.87118,0.012925,0.024489,5.0761e-07,0.5,0.32,0
0.025808,0.0035947,0.028443,0.0010108,0.0088362,0.00034438,0,0,0.050978,-0.020346,0,0.0017908,0,0,0,0.028448,0.0010065,0.0088362,0.71912,0.012763,0.024484,5.0211e-07,0.51,0.32,0
0.026317,0.0035218,0.02826,0.00078703,0.0087141,0.00028072,0,0,0.050819,-0.02061,0,0.0014597,0,0,0,0.028263,0.00078416,0.0087141,0.58536,0.012587,0.024496,4.9684e-07,0.52,0.32,0
0.026825,0.0034438,0.028069,0.00053778,0.0085819,0.00022923,0,0,0.050665,-0.020915,0,0.001192,0,0,0,0.028071,0.00053587,0.0085819,0.47702,0.012396,0.024522,4.9164e-07,0.53,0.32,0
0.02733,0.0033617,0.027867,0.00026622,0.0084399,0.0001927,0,0,0.05051,-0.021252,0,0.0010021,0,0,0,0.027868,0.00026487,0.0084399,0.40001,0.012191,0.024558,4.8627e-07,0.54,0.32,0
0.027835,0.0032766,0.027652,-2.2468e-05,0.0082889,0.00017275,0,0,0.050344,-0.02161,0,0.0008983,0,0,0,0.027653,-2.3546e-05,0.0082889,0.35763,0.011973,0.024598,4.8049e-07,0.55,0.32,0
0.028337,0.0031898,0.027423,-0.00032234,0.0081301,0.0001694,0,0,0.050161,-0.021976,0,0.0008809,0,0,0,0.027424,-0.00032338,0.0081301,0.34982,0.011744,0.024633,4.7405e-07,0.56,0.32,0
0.028838,0.0031025,0.027177,-0.0006278,0.0079649,0.0001818,0,0,0.049952,-0.022341,0,0.00094537,0,0,0,0.027179,-0.00062899,0.0079649,0.3746,0.011505,0.02466,4.6679e-07,0.57,0.32,0
0.029336,0.0030164,0.026915,-0.00093358,0.0077944,0.00020883,0,0,0.049713,-0.022693,0,0.0010859,0,0,0,0.026916,-0.00093515,0.0077944,0.42962,0.011258,0.024674,4.5859e-07,0.58,0.32,0
0.029832,0.0029331,0.026636,-0.0012303,0.0076217,0.00024906,0,0,0.049437,-0.023015,0,0.0012951,0,0,0,0.026638,-0.0012325,0.0076217,0.51203,0.011009,0.024666,4.4936e-07,0.59,0.32,0
0.030325,0.0028541,0.026343,-0.0015049,0.0074513,0.00029733,0,0,0.049118,-0.023286,0,0.0015461,0,0,0,0.026346,-0.0015081,0.0074513,0.61166,0.010763,0.024629,4.3908e-07,0.6,0.32,0
0.030815,0.0027811,0.026043,-0.0017465,0.0072889,0.00034593,0,0,0.04876,-0.023492,0,0.0017988,0,0,0,0.026047,-0.0017508,0.0072889,0.71309,0.010528,0.024559,4.2801e-07,0.61,0.32,0
0.0313,0.0027154,0.025743,-0.0019558,0.0071361,0.00038728,0,0,0.048377,-0.023639,0,0.0020139,0,0,0,0.025748,-0.0019612,0.0071361,0.8009,0.010308,0.024464,4.1659e-07,0.62,0.32,0
0.031782,0.0026583,0.025451,-0.0021325,0.0069954,0.00042105,0,0,0.047983,-0.023733,0,0.0021895,0,0,0,0.025457,-0.0021389,0.0069954,0.87435,0.010105,0.02435,4.0521e-07,0.63,0.32,0
0.03226,0.002611,0.025175,-0.0022604,0.0068746,0.00044385,0,0,0.047583,-0.023751,0,0.002308,0,0,0,0.025183,-0.0022676,0.0068746,0.92659,0.0099299,0.02421,3.9413e-07,0.64,0.32,0
0.032734,0.0025743,0.024928,-0.0023241,0.0067812,0.00044565,0,0,0.047182,-0.023674,0,0.0023174,0,0,0,0.024935,-0.0023314,0.0067812,0.93661,0.0097951,0.024043,3.8367e-07,0.65,0.32,0
0.033203,0.0025481,0.024721,-0.0023337,0.0067161,0.00041203,0,0,0.046812,-0.023529,0,0.0021426,0,0,0,0.024727,-0.0023399,0.0067161,0.87234,0.0097011,0.023865,3.7446e-07,0.66,0.32,0
0.03367,0.0025317,0.024566,-0.0023198,0.0066738,0.00033985,0,0,0.046519,-0.023384,0,0.0017672,0,0,0,0.02457,-0.0023241,0.0066738,0.7241,0.00964,0.023712,3.6737e-07,0.67,0.32,0
0.034134,0.0025244,0.024478,-0.0023096,0.0066504,0.00023868,0,0,0.046351,-0.023296,0,0.0012411,0,0,0,0.02448,-0.0023117,0.0066504,0.51047,0.0096062,0.023622,3.6328e-07,0.68,0.32,0
0.034597,0.0025256,0.024464,-0.0023179,0.006644,0.00012738,0,0,0.046333,-0.023301,0,0.00066239,0,0,0,0.024465,-0.0023185,0.006644,0.2725,0.0095968,0.023614,3.6271e-07,0.69,0.32,0
0.035061,0.0025353,0.024526,-0.0023451,0.0066543,2.7299e-05,0,0,0.046467,-0.023398,0,0.00014196,0,0,0,0.024526,-0.0023451,0.0066543,0.058209,0.0096118,0.02369,3.6568e-07,0.7,0.32,0
0.035526,0.0025542,0.024655,-0.0023773,0.0066834,-4.2269e-05,0,0,0.046727,-0.023558,0,-0.0002198,0,0,0,0.024656,-0.0023773,0.0066834,-0.08959,0.0096539,0.023831,3.7173e-07,0.71,0.32,0
0.035995,0.0025831,0.024838,-0.0023878,0.0067351,-7.0919e-05,0,0,0.047068,-0.02372,0,-0.00036878,0,0,0,0.024838,-0.0023879,0.0067351,-0.14924,0.0097286,0.024002,3.7998e-07,0.72,0.32,0
0.036468,0.0026229,0.025062,-0.0023452,0.006815,-6.0876e-05,0,0,0.047442,-0.023817,0,-0.00031655,0,0,0,0.025062,-0.0023454,0.006815,-0.12726,0.0098439,0.024167,3.8957e-07,0.73,0.32,0
0.036944,0.0026737,0.025314,-0.0022382,0.0069228,-2.5989e-05,0,0,0.047818,-0.023819,0,-0.00013514,0,0,0,0.025314,-0.0022382,0.0069228,-0.054045,0.0099996,0.024303,3.9982e-07,0.74,0.32,0
0.037424,0.0027349,0.025584,-0.0020806,0.007051,2.3679e-05,0,0,0.048185,-0.023742,0,0.00012313,0,0,0,0.025584,-0.0020806,0.007051,0.049041,0.010185,0.024415,4.1039e-07,0.75,0.32,0
0.037908,0.0028054,0.025861,-0.0018879,0.0071919,8.4456e-05,0,0,0.04854,-0.023608,0,0.00043917,0,0,0,0.025861,-0.0018882,0.0071919,0.17438,0.010388,0.024505,4.2099e-07,0.76,0.32,0
0.038395,0.0028841,0.026138,-0.0016606,0.0073433,0.00015582,0,0,0.048867,-0.02341,0,0.00081024,0,0,0,0.026139,-0.0016615,0.0073433,0.32114,0.010607,0.024569,4.312e-07,0.77,0.32,0
0.038885,0.0029697,0.026408,-0.0013969,0.0075032,0.00023003,0,0,0.049151,-0.02314,0,0.0011961,0,0,0,0.026409,-0.0013988,0.0075032,0.47397,0.010838,0.024597,4.4057e-07,0.78,0.32,0
0.039378,0.0030607,0.026662,-0.0011077,0.0076662,0.00029894,0,0,0.049388,-0.022812,0,0.0015545,0,0,0,0.026665,-0.001111,0.0076662,0.61671,0.011073,0.024591,4.4879e-07,0.79,0.32,0
0.039873,0.0031555,0.026898,-0.00080584,0.0078275,0.00035687,0,0,0.049582,-0.022447,0,0.0018557,0,0,0,0.026902,-0.00081044,0.0078275,0.7379,0.011306,0.024561,4.5582e-07,0.8,0.32,0
0.04037,0.0032525,0.027115,-0.000501,0.0079841,0.0004018,0,0,0.04974,-0.022061,0,0.0020893,0,0,0,0.027121,-0.00050685,0.0079841,0.8334,0.011533,0.024511,4.6174e-07,0.81,0.32,0
0.040868,0.0033502,0.027314,-0.00019901,0.0081345,0.00043216,0,0,0.049867,-0.021667,0,0.0022473,0,0,0,0.027321,-0.00020579,0.0081345,0.89969,0.01175,0.024448,4.6665e-07,0.82,0.32,0
0.041367,0.0034473,0.027496,9.392e-05,0.0082771,0.00044672,0,0,0.04997,-0.021276,0,0.002323,0,0,0,0.027504,8.6639e-05,0.0082771,0.93373,0.011956,0.024377,4.707e-07,0.83,0.32,0
0.041867,0.0035423,0.027664,0.00037111,0.0084105,0.00044524,0,0,0.050059,-0.020903,0,0.0023152,0,0,0,0.027671,0.00036385,0.0084105,0.93435,0.012148,0.024304,4.7412e-07,0.84,0.32,0
0.042368,0.0036341,0.027819,0.00062655,0.0085337,0.00042915,0,0,0.050142,-0.020559,0,0.0022316,0,0,0,0.027826,0.00061978,0.0085337,0.90393,0.012327,0.024238,4.7716e-07,0.85,0.32,0
0.04287,0.0037218,0.027964,0.00085625,0.0086462,0.00040121,0,0,0.050227,-0.020254,0,0.0020863,0,0,0,0.02797,0.00085032,0.0086462,0.84775,0.012489,0.024184,4.8007e-07,0.86,0.32,0
0.043373,0.0038046,0.028101,0.0010583,0.0087478,0.00036477,0,0,0.050318,-0.019993,0,0.0018968,0,0,0,0.028106,0.0010534,0.0087478,0.77266,0.012636,0.024143,4.8302e-07,0.87,0.32,0
0.043876,0.0038818,0.02823,0.0012325,0.0088388,0.00032318,0,0,0.050418,-0.019776,0,0.0016805,0,0,0,0.028234,0.0012286,0.0088388,0.68573,0.012767,0.024118,4.861e-07,0.88,0.32,0
0.044381,0.0039531,0.028352,0.00138,0.0089197,0.00027941,0,0,0.050525,-0.019603,0,0.0014529,0,0,0,0.028355,0.0013771,0.0089197,0.59345,0.012884,0.024109,4.8935e-07,0.89,0.32,0
0.044887,0.0040182,0.028467,0.0015026,0.0089909,0.00023592,0,0,0.050638,-0.01947,0,0.0012268,0,0,0,0.028469,0.0015006,0.0089909,0.50124,0.012987,0.024112,4.9272e-07,0.9,0.32,0
0.045394,0.0040769,0.028574,0.0016029,0.0090531,0.00019458,0,0,0.050755,-0.019371,0,0.0010118,0,0,0,0.028576,0.0016015,0.0090531,0.41333,0.013077,0.024127,4.9617e-07,0.91,0.32,0
0.045902,0.0041291,0.028673,0.0016835,0.0091068,0.00015673,0,0,0.050871,-0.019301,0,0.000815,0,0,0,0.028674,0.0016826,0.0091068,0.33271,0.013154,0.02415,4.9962e-07,0.92,0.32,0
0.046411,0.0041749,0.028762,0.0017471,0.0091526,0.00012318,0,0,0.050984,-0.019254,0,0.00064056,0,0,0,0.028762,0.0017465,0.0091526,0.26126,0.01322,0.024179,5.0296e-07,0.93,0.32,0
0.046921,0.0042144,0.028841,0.0017963,0.0091911,9.4318e-05,0,0,0.051089,-0.019227,0,0.00049045,0,0,0,0.028841,0.001796,0.0091911,0.19982,0.013276,0.02421,5.061e-07,0.94,0.32,0
0.047433,0.0042475,0.028909,0.0018336,0.0092228,7.0119e-05,0,0,0.051184,-0.019212,0,0.00036462,0,0,0,0.028909,0.0018334,0.0092228,0.14838,0.013322,0.024241,5.0894e-07,0.95,0.32,0
0.047945,0.0042744,0.028966,0.0018611,0.0092481,5.0262e-05,0,0,0.051266,-0.019206,0,0.00026136,0,0,0,0.028966,0.001861,0.0092481,0.10625,0.013358,0.02427,5.114e-07,0.96,0.32,0
0.048458,0.0042953,0.029011,0.0018806,0.0092674,3.4165e-05,0,0,0.051333,-0.019206,0,0.00017766,0,0,0,0.029011,0.0018805,0.0092674,0.072152,0.013386,0.024294,5.1339e-07,0.97,0.32,0
0.048972,0.0043101,0.029043,0.0018935,0.0092809,2.1049e-05,0,0,0.051381,-0.019207,0,0.00010946,0,0,0,0.029043,0.0018935,0.0092809,0.044422,0.013406,0.024313,5.1486e-07,0.98,0.32,0
0.049486,0.0043189,0.029063,0.0019008,0.009289,9.9975e-06,0,0,0.051411,-0.019209,0,5.1987e-05,0,0,0,0.029063,0.0019008,0.009289,0.021089,0.013417,0.024324,5.1576e-07,0.99,0.32,0
0.05,0.0043219,0.029069,0.0019032,0.0092917,5.6715e-05,0,0,0.051421,-0.01921,0,0.00029492,0,0,0,0.029069,0.0019031,0.0092917,0.11962,0.013421,0.024328,5.1607e-07,1,0.32,0
0,0,0.02818,0.012077,0.012077,0.0030551,0,0,0.041868,5.421e-20,0,0.015887,0,0,0,0.02874,0.011517,0.012077,10.39,0.017445,0.01695,2.492e-07,0,0.33,0
0.00041868,0.00015887,0.028139,0.011588,0.011918,0.0030512,0,0,0.042174,-0.00085815,0,0.015866,0,0,0,0.028684,0.011043,0.011918,10.12,0.017215,0.017219,2.5995e-07,0.01,0.33,0
0.00084348,0.00031575,0.028303,0.011186,0.011847,0.0030279,0,0,0.042787,-0.0017179,0,0.015745,0,0,0,0.028823,0.010666,0.011847,9.7414,0.017112,0.017596,2.7558e-07,0.02,0.33,0
0.0012744,0.00047062,0.028467,0.010784,0.011775,0.0030034,0,0,0.043399,-0.0025773,0,0.015618,0,0,0,0.028963,0.010288,0.011775,9.3812,0.017009,0.017978,2.9155e-07,0.03,0.33,0
0.0017115,0.0006234,0.02863,0.010383,0.011704,0.0029773,0,0,0.044007,-0.0034342,0,0.015482,0,0,0,0.029103,0.0099094,0.011704,9.0366,0.016906,0.018363,3.0778e-07,0.04,0.33,0
0.0021546,0.00077403,0.028791,0.0099836,0.011632,0.0029489,0,0,0.044612,-0.0042865,0,0.015334,0,0,0,0.029242,0.009532,0.011632,8.7056,0.016802,0.018748,3.2419e-07,0.05,0.33,0
0.0026037,0.00092239,0.028949,0.009587,0.011561,0.0029179,0,0,0.045209,-0.0051318,0,0.015173,0,0,0,0.029379,0.0091568,0.011561,8.3866,0.016699,0.019134,3.4071e-07,0.06,0.33,0
0.0030587,0.0010684,0.029104,0.0091943,0.01149,0.0028841,0,0,0.045798,-0.0059678,0,0.014997,0,0,0,0.029514,0.0087849,0.01149,8.0785,0.016596,0.019518,3.5726e-07,0.07,0.33,0
0.0035197,0.0012118,0.029256,0.0088065,0.011419,0.0028472,0,0,0.046377,-0.006792,0,0.014805,0,0,0,0.029645,0.0084175,0.011419,7.7801,0.016494,0.019898,3.7375e-07,0.08,0.33,0
0.0039863,0.0013526,0.029404,0.0084246,0.011348,0.0028072,0,0,0.046944,-0.0076023,0,0.014597,0,0,0,0.029773,0.0080555,0.011348,7.4911,0.016392,0.020273,3.9012e-07,0.09,0.33,0
0.0044585,0.0014906,0.029547,0.0080496,0.011279,0.0027641,0,0,0.047496,-0.0083962,0,0.014373,0,0,0,0.029896,0.0076999,0.011279,7.2108,0.016292,0.020641,4.0628e-07,0.1,0.33,0
0.0049362,0.0016256,0.029684,0.0076826,0.01121,0.002718,0,0,0.048033,-0.0091716,0,0.014134,0,0,0,0.030015,0.0073518,0.01121,6.9391,0.016192,0.021002,4.2215e-07,0.11,0.33,0
0.0054192,0.0017575,0.029816,0.0073243,0.011142,0.0026691,0,0,0.048553,-0.0099264,0,0.013879,0,0,0,0.030129,0.0070119,0.011142,6.6758,0.016094,0.021353,4.3766e-07,0.12,0.33,0
0.0059073,0.0018862,0.029942,0.0069758,0.011075,0.0026177,0,0,0.049053,-0.010659,0,0.013612,0,0,0,0.030236,0.0066812,0.011075,6.421,0.015998,0.021695,4.5275e-07,0.13,0.33,0
0.0064003,0.0020114,0.030061,0.0066376,0.01101,0.0025641,0,0,0.049534,-0.011367,0,0.013333,0,0,0,0.030338,0.0063602,0.01101,6.1747,0.015903,0.022025,4.6735e-07,0.14,0.33,0
0.0068979,0.0021331,0.030173,0.0063106,0.010945,0.0025087,0,0,0.049992,-0.012049,0,0.013045,0,0,0,0.030434,0.0060497,0.010945,5.9371,0.01581,0.022342,4.814e-07,0.15,0.33,0
0.0074001,0.0022511,0.030278,0.0059954,0.010882,0.0024517,0,0,0.050429,-0.012705,0,0.012749,0,0,0,0.030523,0.0057503,0.010882,5.7083,0.015718,0.022647,4.9486e-07,0.16,0.33,0
0.0079065,0.0023653,0.030375,0.0056925,0.01082,0.0023938,0,0,0.050842,-0.013332,0,0.012448,0,0,0,0.030605,0.0054624,0.01082,5.4886,0.015629,0.022938,5.0766e-07,0.17,0.33,0
0.0084169,0.0024756,0.030464,0.0054022,0.01076,0.0023351,0,0,0.051231,-0.01393,0,0.012143,0,0,0,0.03068,0.0051865,0.01076,5.2779,0.015542,0.023214,5.1978e-07,0.18,0.33,0
0.0089311,0.0025819,0.030545,0.0051251,0.010701,0.0022762,0,0,0.051595,-0.014498,0,0.011836,0,0,0,0.030748,0.0049229,0.010701,5.0766,0.015457,0.023475,5.3117e-07,0.19,0.33,0
0.0094488,0.0026841,0.030619,0.0048614,0.010644,0.0022174,0,0,0.051934,-0.015035,0,0.011531,0,0,0,0.030808,0.0046719,0.010644,4.8846,0.015375,0.023721,5.4181e-07,0.2,0.33,0
0.0099698,0.0027821,0.030684,0.0046112,0.010589,0.0021591,0,0,0.052248,-0.015541,0,0.011227,0,0,0,0.030861,0.0044336,0.010589,4.7021,0.015295,0.023951,5.5167e-07,0.21,0.33,0
0.010494,0.0028759,0.030741,0.0043747,0.010535,0.0021017,0,0,0.052536,-0.016016,0,0.010929,0,0,0,0.030907,0.0042083,0.010535,4.529,0.015217,0.024165,5.6073e-07,0.22,0.33,0
0.011021,0.0029654,0.030789,0.004152,0.010482,0.0020453,0,0,0.052797,-0.016459,0,0.010635,0,0,0,0.030945,0.0039959,0.010482,4.3652,0.015141,0.024362,5.6897e-07,0.23,0.33,0
0.01155,0.0030505,0.030829,0.003943,0.010432,0.0019902,0,0,0.053033,-0.01687,0,0.010349,0,0,0,0.030975,0.0037965,0.010432,4.2107,0.015068,0.024544,5.7638e-07,0.24,0.33,0
0.012081,0.0031312,0.03086,0.0037478,0.010382,0.0019367,0,0,0.053243,-0.01725,0,0.010071,0,0,0,0.030998,0.0036101,0.010382,4.0652,0.014997,0.024708,5.8295e-07,0.25,0.33,0
0.012615,0.0032074,0.030884,0.003566,0.010335,0.0018849,0,0,0.053427,-0.017599,0,0.0098013,0,0,0,0.031013,0.0034366,0.010335,3.9285,0.014928,0.024856,5.8868e-07,0.26,0.33,0
0.01315,0.0032791,0.030898,0.0033977,0.010289,0.0018348,0,0,0.053584,-0.017917,0,0.0095408,0,0,0,0.03102,0.0032758,0.010289,3.8002,0.014861,0.024987,5.9355e-07,0.27,0.33,0
0.013686,0.0033463,0.030904,0.0032424,0.010244,0.0017864,0,0,0.053716,-0.018204,0,0.0092895,0,0,0,0.031019,0.0031275,0.010244,3.6799,0.014797,0.025101,5.9756e-07,0.28,0.33,0
0.014224,0.0034088,0.030901,0.0030999,0.0102,0.0017399,0,0,0.053822,-0.018461,0,0.0090472,0,0,0,0.031009,0.0029915,0.0102,3.5671,0.014734,0.025199,6.0073e-07,0.29,0.33,0
0.014763,0.0034667,0.030889,0.0029699,0.010158,0.0016949,0,0,0.053902,-0.018689,0,0.0088133,0,0,0,0.030992,0.0028674,0.010158,3.4612,0.014672,0.02528,6.0304e-07,0.3,0.33,0
0.015302,0.0035198,0.030869,0.0028518,0.010116,0.0016513,0,0,0.053957,-0.018888,0,0.0085869,0,0,0,0.030966,0.0027548,0.010116,3.3615,0.014612,0.025345,6.0451e-07,0.31,0.33,0
0.015842,0.0035681,0.03084,0.0027451,0.010075,0.001609,0,0,0.053987,-0.019059,0,0.0083667,0,0,0,0.030931,0.0026533,0.010075,3.2671,0.014553,0.025394,6.0514e-07,0.32,0.33,0
0.016382,0.0036116,0.030801,0.0026493,0.010035,0.0015675,0,0,0.053992,-0.019203,0,0.0081511,0,0,0,0.030888,0.0025623,0.010035,3.1772,0.014495,0.025427,6.0494e-07,0.33,0.33,0
0.016922,0.0036501,0.030754,0.0025635,0.0099952,0.0015266,0,0,0.053973,-0.019322,0,0.0079382,0,0,0,0.030836,0.0024811,0.0099952,3.0906,0.014438,0.025444,6.0393e-07,0.34,0.33,0
0.017461,0.0036835,0.030697,0.002487,0.0099553,0.0014857,0,0,0.053929,-0.019418,0,0.0077257,0,0,0,0.030776,0.0024089,0.0099553,3.0064,0.01438,0.025447,6.0213e-07,0.35,0.33,0
0.018,0.0037117,0.030632,0.0024187,0.0099151,0.0014444,0,0,0.053863,-0.019491,0,0.007511,0,0,0,0.030706,0.002345,0.0099151,2.9232,0.014322,0.025435,5.9956e-07,0.36,0.33,0
0.018538,0.0037345,0.030557,0.0023575,0.0098743,0.0014022,0,0,0.053774,-0.019543,0,0.0072914,0,0,0,0.030626,0.002288,0.0098743,2.8397,0.014263,0.025409,5.9625e-07,0.37,0.33,0
0.019076,0.0037519,0.030472,0.0023022,0.0098324,0.0013584,0,0,0.053664,-0.019578,0,0.0070638,0,0,0,0.030538,0.0022368,0.0098324,2.7544,0.014202,0.025371,5.9224e-07,0.38,0.33,0
0.019612,0.0037635,0.030379,0.0022511,0.009789,0.0013125,0,0,0.053534,-0.019599,0,0.0068252,0,0,0,0.03044,0.00219,0.009789,2.6659,0.01414,0.025321,5.8758e-07,0.39,0.33,0
0.020147,0.0037693,0.030276,0.0022025,0.0097436,0.001264,0,0,0.053385,-0.019607,0,0.0065725,0,0,0,0.030333,0.0021457,0.0097436,2.5727,0.014074,0.02526,5.8233e-07,0.4,0.33,0
0.020679,0.003769,0.030164,0.0021544,0.0096956,0.0012121,0,0,0.053219,-0.019607,0,0.0063029,0,0,0,0.030217,0.002102,0.0096956,2.4733,0.014005,0.025191,5.7655e-07,0.41,0.33,0
0.021211,0.0037624,0.030044,0.0021044,0.0096445,0.0011565,0,0,0.053038,-0.019604,0,0.006014,0,0,0,0.030092,0.0020567,0.0096445,2.3664,0.013931,0.025116,5.7032e-07,0.42,0.33,0
0.02174,0.0037492,0.029914,0.0020501,0.0095894,0.0010969,0,0,0.052845,-0.019602,0,0.005704,0,0,0,0.029958,0.002007,0.0095894,2.2509,0.013851,0.025036,5.6373e-07,0.43,0.33,0
0.022268,0.0037294,0.029777,0.0019885,0.0095296,0.0010331,0,0,0.052643,-0.019607,0,0.005372,0,0,0,0.029815,0.0019502,0.0095296,2.1262,0.013765,0.024954,5.5688e-07,0.44,0.33,0
0.022793,0.0037026,0.029632,0.0019166,0.0094644,0.00096515,0,0,0.052434,-0.019624,0,0.0050188,0,0,0,0.029665,0.001883,0.0094644,1.9921,0.013671,0.024874,5.4988e-07,0.45,0.33,0
0.023316,0.0036687,0.029479,0.0018308,0.0093928,0.00089355,0,0,0.052223,-0.019661,0,0.0046465,0,0,0,0.029507,0.001802,0.0093928,1.8492,0.013567,0.024797,5.4284e-07,0.46,0.33,0
0.023838,0.0036275,0.029319,0.0017278,0.0093139,0.00081913,0,0,0.052012,-0.019724,0,0.0042595,0,0,0,0.029343,0.0017035,0.0093139,1.699,0.013453,0.024729,5.3586e-07,0.47,0.33,0
0.024357,0.0035791,0.029152,0.001604,0.0092267,0.00074324,0,0,0.051805,-0.019819,0,0.0038648,0,0,0,0.029172,0.001584,0.0092267,1.5443,0.013328,0.024671,5.2904e-07,0.48,0.33,0
0.024874,0.0035235,0.028978,0.001456,0.0091302,0.00066781,0,0,0.051604,-0.019953,0,0.0034726,0,0,0,0.028994,0.0014398,0.0091302,1.3892,0.013188,0.024627,5.2247e-07,0.49,0.33,0
0.025389,0.0034608,0.028798,0.0012806,0.0090235,0.00059545,0,0,0.051413,-0.020132,0,0.0030963,0,0,0,0.028811,0.0012678,0.0090235,1.2391,0.013034,0.0246,5.1619e-07,0.5,0.33,0
0.025902,0.0033913,0.02861,0.0010758,0.0089057,0.00052947,0,0,0.051231,-0.020358,0,0.0027533,0,0,0,0.02862,0.0010656,0.0089057,1.1012,0.012864,0.02459,5.1017e-07,0.51,0.33,0
0.026413,0.0033157,0.028413,0.00084023,0.008776,0.00047387,0,0,0.051057,-0.020633,0,0.0024641,0,0,0,0.028421,0.00083209,0.008776,0.98429,0.012677,0.024599,5.0434e-07,0.52,0.33,0
0.026923,0.0032346,0.028205,0.00057505,0.008634,0.00043302,0,0,0.050884,-0.020953,0,0.0022517,0,0,0,0.028212,0.00056827,0.008634,0.89765,0.012471,0.024622,4.985e-07,0.53,0.33,0
0.027431,0.0031491,0.027981,0.00028412,0.0084796,0.00041091,0,0,0.050704,-0.021308,0,0.0021367,0,0,0,0.027987,0.00027802,0.0084796,0.84977,0.012248,0.024654,4.923e-07,0.54,0.33,0
0.027937,0.0030603,0.027737,-2.5233e-05,0.0083136,0.00040973,0,0,0.050501,-0.021681,0,0.0021306,0,0,0,0.027743,-3.1278e-05,0.0083136,0.84535,0.012009,0.024684,4.8534e-07,0.55,0.33,0
0.028441,0.0029698,0.02747,-0.0003429,0.008138,0.00042852,0,0,0.050262,-0.02205,0,0.0022283,0,0,0,0.027476,-0.0003495,0.008138,0.88251,0.011755,0.024701,4.7723e-07,0.56,0.33,0
0.028942,0.002879,0.027176,-0.00066242,0.0079541,0.00046343,0,0,0.049977,-0.022403,0,0.0024098,0,0,0,0.027184,-0.00067013,0.0079541,0.95344,0.011489,0.024698,4.6777e-07,0.57,0.33,0
0.029441,0.0027895,0.026856,-0.0009813,0.0077624,0.00051248,0,0,0.049643,-0.022734,0,0.0026649,0,0,0,0.026865,-0.00099073,0.0077624,1.0543,0.011212,0.024673,4.5692e-07,0.58,0.33,0
0.029935,0.002703,0.026505,-0.0012949,0.0075629,0.00057509,0,0,0.049249,-0.02303,0,0.0029905,0,0,0,0.026517,-0.0013068,0.0075629,1.1846,0.010924,0.024618,4.4447e-07,0.59,0.33,0
0.030426,0.0026216,0.026127,-0.0015748,0.0073656,0.00064749,0,0,0.048779,-0.023245,0,0.003367,0,0,0,0.026142,-0.0015899,0.0073656,1.3382,0.010639,0.024513,4.3032e-07,0.6,0.33,0
0.030911,0.0025469,0.025732,-0.0017987,0.0071799,0.00070853,0,0,0.048235,-0.023344,0,0.0036843,0,0,0,0.02575,-0.0018169,0.0071799,1.4733,0.010371,0.024349,4.1472e-07,0.61,0.33,0
0.03139,0.0024802,0.025336,-0.001978,0.0070075,0.00074453,0,0,0.047655,-0.023362,0,0.0038716,0,0,0,0.025357,-0.0019983,0.0070075,1.5602,0.010122,0.024146,3.9873e-07,0.62,0.33,0
0.031864,0.0024225,0.024947,-0.0021456,0.0068405,0.00075487,0,0,0.047078,-0.023364,0,0.0039253,0,0,0,0.024968,-0.0021666,0.0068405,1.5947,0.0098807,0.023938,3.8315e-07,0.63,0.33,0
0.032332,0.0023755,0.024582,-0.0022657,0.0066948,0.00075423,0,0,0.046506,-0.023297,0,0.003922,0,0,0,0.024603,-0.0022868,0.0066948,1.6079,0.0096703,0.023711,3.6836e-07,0.64,0.33,0
0.032794,0.00234,0.02426,-0.0022863,0.0065922,0.00072079,0,0,0.045937,-0.023084,0,0.0037481,0,0,0,0.02428,-0.0023058,0.0065922,1.5542,0.009522,0.023439,3.5459e-07,0.65,0.33,0
0.033251,0.0023159,0.023991,-0.0022378,0.0065259,0.00063279,0,0,0.045409,-0.022786,0,0.0032905,0,0,0,0.024006,-0.002253,0.0065259,1.3813,0.0094263,0.023154,3.4244e-07,0.66,0.33,0
0.033702,0.0023015,0.023793,-0.0021761,0.006485,0.00048447,0,0,0.045,-0.022519,0,0.0025192,0,0,0,0.023802,-0.0021852,0.006485,1.0684,0.0093672,0.022917,3.3324e-07,0.67,0.33,0
0.034151,0.0022953,0.02368,-0.0021447,0.0064607,0.00029696,0,0,0.044771,-0.022374,0,0.0015442,0,0,0,0.023684,-0.0021481,0.0064607,0.65871,0.0093322,0.022782,3.2803e-07,0.68,0.33,0
0.034598,0.0022965,0.023667,-0.0021533,0.006454,9.6487e-05,0,0,0.044753,-0.022379,0,0.00050173,0,0,0,0.023667,-0.0021536,0.006454,0.21411,0.0093224,0.022772,3.2741e-07,0.69,0.33,0
0.035046,0.002305,0.023752,-0.0022025,0.0064648,-9.0568e-05,0,0,0.044946,-0.022535,0,-0.00047095,0,0,0,0.023752,-0.0022028,0.0064648,-0.19993,0.009338,0.022887,3.314e-07,0.7,0.33,0
0.035497,0.0023217,0.023924,-0.0022838,0.006492,-0.00023755,0,0,0.045323,-0.022817,0,-0.0012353,0,0,0,0.023926,-0.002286,0.006492,-0.51928,0.0093773,0.023109,3.3947e-07,0.71,0.33,0
0.035952,0.0023484,0.024169,-0.0023551,0.006544,-0.00032219,0,0,0.045824,-0.023138,0,-0.0016754,0,0,0,0.024172,-0.002359,0.006544,-0.69584,0.0094525,0.023387,3.5062e-07,0.72,0.33,0
0.036413,0.0023866,0.024467,-0.0023599,0.0066321,-0.0003487,0,0,0.04637,-0.023379,0,-0.0018133,0,0,0,0.024471,-0.0023644,0.0066321,-0.74458,0.0095797,0.023657,3.6352e-07,0.73,0.33,0
0.03688,0.0024369,0.02481,-0.0022653,0.0067635,-0.00033789,0,0,0.046922,-0.023475,0,-0.001757,0,0,0,0.024815,-0.0022695,0.0067635,-0.71488,0.0097695,0.023885,3.7752e-07,0.74,0.33,0
0.037352,0.0024984,0.025179,-0.0021201,0.0069175,-0.00031196,0,0,0.047479,-0.023498,0,-0.0016222,0,0,0,0.025182,-0.0021236,0.0069175,-0.65465,0.009992,0.024093,3.9232e-07,0.75,0.33,0
0.037829,0.0025698,0.025554,-0.0019607,0.0070779,-0.0002569,0,0,0.048037,-0.023501,0,-0.0013359,0,0,0,0.025556,-0.0019631,0.0070779,-0.5349,0.010224,0.024295,4.0755e-07,0.76,0.33,0
0.038312,0.0026501,0.025929,-0.0017548,0.0072522,-0.00017307,0,0,0.048559,-0.023418,0,-0.00089995,0,0,0,0.02593,-0.0017559,0.0072522,-0.35817,0.010475,0.024459,4.2244e-07,0.77,0.33,0
0.0388,0.0027381,0.026286,-0.0014896,0.007439,-7.3993e-05,0,0,0.049003,-0.023214,0,-0.00038476,0,0,0,0.026287,-0.0014898,0.007439,-0.15263,0.010745,0.024561,4.359e-07,0.78,0.33,0
0.039292,0.0028322,0.026617,-0.0011862,0.0076292,1.8685e-05,0,0,0.049368,-0.02292,0,9.716e-05,0,0,0,0.026617,-0.0011862,0.0076292,0.038505,0.01102,0.024609,4.4758e-07,0.79,0.33,0
0.039788,0.0029306,0.026915,-0.00087319,0.0078124,0.00010031,0,0,0.049666,-0.022583,0,0.00052161,0,0,0,0.026915,-0.00087355,0.0078124,0.20682,0.011285,0.024623,4.5751e-07,0.8,0.33,0
0.040286,0.0030314,0.027184,-0.00055576,0.0079885,0.00016961,0,0,0.049908,-0.022215,0,0.00088196,0,0,0,0.027185,-0.0005568,0.0079885,0.3503,0.011539,0.024608,4.6589e-07,0.81,0.33,0
0.040786,0.003133,0.027426,-0.00023701,0.0081566,0.0002241,0,0,0.0501,-0.021823,0,0.0011653,0,0,0,0.027428,-0.00023882,0.0081566,0.46412,0.011782,0.024569,4.7273e-07,0.82,0.33,0
0.041288,0.003234,0.027642,7.5954e-05,0.0083154,0.00025948,0,0,0.050249,-0.021423,0,0.0013493,0,0,0,0.027644,7.3512e-05,0.0083154,0.53926,0.012011,0.024512,4.7822e-07,0.83,0.33,0
0.041791,0.0033327,0.027836,0.00037218,0.0084624,0.00027441,0,0,0.050371,-0.021035,0,0.0014269,0,0,0,0.027839,0.00036944,0.0084624,0.5724,0.012223,0.024449,4.8271e-07,0.84,0.33,0
0.042295,0.0034281,0.028013,0.00064333,0.0085968,0.00027087,0,0,0.050481,-0.020679,0,0.0014085,0,0,0,0.028015,0.00064065,0.0085968,0.56698,0.012418,0.02439,4.8664e-07,0.85,0.33,0
0.0428,0.0035188,0.028176,0.00088452,0.0087181,0.00025283,0,0,0.05059,-0.020367,0,0.0013147,0,0,0,0.028178,0.00088218,0.0087181,0.53074,0.012593,0.024343,4.9034e-07,0.86,0.33,0
0.043307,0.0036042,0.028328,0.0010939,0.0088267,0.00022481,0,0,0.050705,-0.020105,0,0.001169,0,0,0,0.02833,0.0010921,0.0088267,0.4729,0.01275,0.024312,4.9405e-07,0.87,0.33,0
0.043814,0.0036836,0.028472,0.0012718,0.0089231,0.000191,0,0,0.050827,-0.019893,0,0.00099319,0,0,0,0.028473,0.0012705,0.0089231,0.4023,0.012889,0.024298,4.9788e-07,0.88,0.33,0
0.044323,0.0037566,0.028606,0.00142,0.0090079,0.00015498,0,0,0.050956,-0.019729,0,0.00080592,0,0,0,0.028607,0.0014191,0.0090079,0.32662,0.013012,0.0243,5.0186e-07,0.89,0.33,0
0.044834,0.0038229,0.028732,0.001541,0.009082,0.00011961,0,0,0.051091,-0.019607,0,0.00062195,0,0,0,0.028733,0.0015405,0.009082,0.25202,0.013118,0.024315,5.0596e-07,0.9,0.33,0
0.045345,0.0038825,0.028849,0.0016379,0.0091461,8.6985e-05,0,0,0.051228,-0.019521,0,0.00045232,0,0,0,0.02885,0.0016377,0.0091461,0.18315,0.013211,0.024342,5.1012e-07,0.91,0.33,0
0.045858,0.0039354,0.028956,0.0017141,0.0092011,5.8575e-05,0,0,0.051363,-0.019466,0,0.00030459,0,0,0,0.028956,0.001714,0.0092011,0.12319,0.013291,0.024377,5.1422e-07,0.92,0.33,0
0.046372,0.0039816,0.029053,0.0017727,0.0092477,3.5244e-05,0,0,0.051494,-0.019435,0,0.00018327,0,0,0,0.029053,0.0017726,0.0092477,0.074023,0.013358,0.024417,5.1818e-07,0.93,0.33,0
0.046888,0.0040212,0.029139,0.0018168,0.0092866,1.7353e-05,0,0,0.051615,-0.019422,0,9.0236e-05,0,0,0,0.029139,0.0018167,0.0092866,0.036391,0.013414,0.024458,5.2187e-07,0.94,0.33,0
0.047405,0.0040545,0.029212,0.0018491,0.0093184,4.8331e-06,0,0,0.051724,-0.01942,0,2.5132e-05,0,0,0,0.029212,0.0018491,0.0093184,0.01012,0.01346,0.024498,5.252e-07,0.95,0.33,0
0.047922,0.0040814,0.029273,0.0018722,0.0093437,-2.7313e-06,0,0,0.051817,-0.019426,0,-1.4203e-05,0,0,0,0.029273,0.0018722,0.0093437,-0.0057112,0.013496,0.024534,5.2806e-07,0.96,0.33,0
0.048441,0.0041022,0.029322,0.0018881,0.0093629,-6.0309e-06,0,0,0.051893,-0.019435,0,-3.136e-05,0,0,0,0.029322,0.0018881,0.0093629,-0.012596,0.013524,0.024564,5.3037e-07,0.97,0.33,0
0.04896,0.0041169,0.029356,0.0018982,0.0093764,-5.9633e-06,0,0,0.051948,-0.019443,0,-3.1009e-05,0,0,0,0.029356,0.0018982,0.0093764,-0.012443,0.013544,0.024587,5.3208e-07,0.98,0.33,0
0.04948,0.0041258,0.029377,0.0019039,0.0093843,-3.5736e-06,0,0,0.051982,-0.019449,0,-1.8583e-05,0,0,0,0.029377,0.0019039,0.0093843,-0.0074527,0.013555,0.024601,5.3312e-07,0.99,0.33,0
0.05,0.0041287,0.029384,0.0019057,0.009387,5.6432e-05,0,0,0.051993,-0.019452,0,0.00029345,0,0,0,0.029384,0.0019055,0.009387,0.11767,0.013559,0.024606,5.3348e-07,1,0.33,0
0,0,0.028234,0.0121,0.0121,0.0028901,0,0,0.041948,2.1684e-19,0,0.015029,0,0,0,0.028736,0.011598,0.0121,9.8555,0.017478,0.016892,2.4684e-07,0,0.34,0
0.00041948,0.00015029,0.028193,0.011611,0.011941,0.0028864,0,0,0.042254,-0.00085857,0,0.015009,0,0,0,0.028681,0.011123,0.011941,9.5976,0.017248,0.017163,2.5769e-07,0.01,0.34,0
0.00084508,0.00029858,0.028357,0.011209,0.01187,0.0028635,0,0,0.042867,-0.0017173,0,0.01489,0,0,0,0.028823,0.010744,0.01187,9.2341,0.017146,0.017543,2.7343e-07,0.02,0.34,0
0.0012768,0.00044486,0.028521,0.010809,0.011799,0.0028399,0,0,0.043477,-0.0025745,0,0.014768,0,0,0,0.028965,0.010364,0.011799,8.8899,0.017043,0.017927,2.895e-07,0.03,0.34,0
0.0017146,0.0005891,0.028683,0.010409,0.011728,0.0028152,0,0,0.044084,-0.0034282,0,0.014639,0,0,0,0.029107,0.0099853,0.011728,8.5624,0.01694,0.018313,3.0582e-07,0.04,0.34,0
0.0021585,0.00073123,0.028844,0.010012,0.011657,0.0027889,0,0,0.044687,-0.0042766,0,0.014502,0,0,0,0.029248,0.0096077,0.011657,8.2493,0.016838,0.018701,3.2233e-07,0.05,0.34,0
0.0026084,0.00087117,0.029003,0.0096179,0.011586,0.0027606,0,0,0.045283,-0.0051174,0,0.014355,0,0,0,0.029388,0.0092325,0.011586,7.949,0.016736,0.019088,3.3895e-07,0.06,0.34,0
0.0030641,0.0010088,0.029158,0.009228,0.011516,0.0027299,0,0,0.04587,-0.0059486,0,0.014196,0,0,0,0.029525,0.0088608,0.011516,7.6601,0.016634,0.019473,3.5561e-07,0.07,0.34,0
0.0035258,0.001144,0.02931,0.008843,0.011446,0.0026968,0,0,0.046448,-0.006768,0,0.014023,0,0,0,0.02966,0.0084936,0.011446,7.3815,0.016533,0.019855,3.7224e-07,0.08,0.34,0
0.0039931,0.0012768,0.029459,0.008464,0.011377,0.0026611,0,0,0.047013,-0.0075735,0,0.013838,0,0,0,0.029791,0.0081319,0.011377,7.1125,0.016433,0.020233,3.8876e-07,0.09,0.34,0
0.004466,0.0014068,0.029603,0.0080918,0.011308,0.0026229,0,0,0.047566,-0.0083631,0,0.013639,0,0,0,0.029918,0.0077766,0.011308,6.8525,0.016334,0.020604,4.0509e-07,0.1,0.34,0
0.0049444,0.0015341,0.029742,0.0077275,0.011241,0.0025822,0,0,0.048103,-0.0091347,0,0.013427,0,0,0,0.030041,0.0074286,0.011241,6.6012,0.016237,0.020968,4.2117e-07,0.11,0.34,0
0.0054281,0.0016585,0.029875,0.0073717,0.011174,0.0025392,0,0,0.048624,-0.0098864,0,0.013204,0,0,0,0.030158,0.0070887,0.011174,6.3583,0.01614,0.021323,4.3693e-07,0.12,0.34,0
0.0059169,0.0017798,0.030003,0.0070253,0.011109,0.002494,0,0,0.049126,-0.010616,0,0.012969,0,0,0,0.030271,0.0067577,0.011109,6.1238,0.016046,0.021668,4.5229e-07,0.13,0.34,0
0.0064106,0.001898,0.030125,0.006689,0.011044,0.002447,0,0,0.04961,-0.011323,0,0.012725,0,0,0,0.030378,0.0064363,0.011044,5.8977,0.015953,0.022002,4.672e-07,0.14,0.34,0
0.0069091,0.0020128,0.03024,0.0063636,0.010981,0.0023985,0,0,0.050073,-0.012005,0,0.012472,0,0,0,0.030478,0.006125,0.010981,5.6801,0.015862,0.022325,4.8159e-07,0.15,0.34,0
0.0074121,0.0021243,0.030348,0.0060495,0.010919,0.0023488,0,0,0.050515,-0.012661,0,0.012214,0,0,0,0.030573,0.0058245,0.010919,5.4711,0.015772,0.022635,4.9543e-07,0.16,0.34,0
0.0079194,0.0022322,0.030449,0.0057473,0.010859,0.0022983,0,0,0.050935,-0.01329,0,0.011951,0,0,0,0.030661,0.0055353,0.010859,5.2707,0.015685,0.022932,5.0865e-07,0.17,0.34,0
0.0084308,0.0023365,0.030543,0.0054574,0.0108,0.0022474,0,0,0.051331,-0.013891,0,0.011686,0,0,0,0.030742,0.0052577,0.0108,5.0792,0.0156,0.023215,5.2122e-07,0.18,0.34,0
0.008946,0.0024371,0.030629,0.0051803,0.010743,0.0021963,0,0,0.051704,-0.014462,0,0.011421,0,0,0,0.030817,0.0049921,0.010743,4.8966,0.015517,0.023484,5.331e-07,0.19,0.34,0
0.0094648,0.0025339,0.030707,0.0049161,0.010687,0.0021455,0,0,0.052053,-0.015004,0,0.011157,0,0,0,0.030885,0.0047389,0.010687,4.723,0.015437,0.023737,5.4425e-07,0.2,0.34,0
0.0099871,0.0026269,0.030778,0.0046652,0.010633,0.0020953,0,0,0.052377,-0.015516,0,0.010896,0,0,0,0.030945,0.0044982,0.010633,4.5586,0.015359,0.023976,5.5466e-07,0.21,0.34,0
0.010512,0.0027159,0.030841,0.0044278,0.01058,0.002046,0,0,0.052676,-0.015997,0,0.010639,0,0,0,0.030998,0.0042702,0.01058,4.4032,0.015283,0.024198,5.6428e-07,0.22,0.34,0
0.011041,0.0028009,0.030895,0.0042038,0.01053,0.0019979,0,0,0.05295,-0.016447,0,0.010389,0,0,0,0.031044,0.004055,0.01053,4.257,0.01521,0.024404,5.7311e-07,0.23,0.34,0
0.011571,0.0028818,0.030942,0.0039933,0.010481,0.0019511,0,0,0.053199,-0.016867,0,0.010146,0,0,0,0.031082,0.0038528,0.010481,4.1197,0.015138,0.024595,5.8113e-07,0.24,0.34,0
0.012105,0.0029587,0.03098,0.0037963,0.010433,0.001906,0,0,0.053422,-0.017255,0,0.0099111,0,0,0,0.031113,0.0036634,0.010433,3.9913,0.01507,0.024768,5.8832e-07,0.25,0.34,0
0.01264,0.0030314,0.03101,0.0036128,0.010387,0.0018626,0,0,0.05362,-0.017612,0,0.0096854,0,0,0,0.031136,0.0034868,0.010387,3.8715,0.015003,0.024926,5.9467e-07,0.26,0.34,0
0.013177,0.0030999,0.031031,0.0034427,0.010342,0.001821,0,0,0.053792,-0.017939,0,0.0094691,0,0,0,0.031151,0.003323,0.010342,3.7601,0.014939,0.025067,6.0017e-07,0.27,0.34,0
0.013716,0.0031641,0.031044,0.0032856,0.010299,0.0017812,0,0,0.053938,-0.018235,0,0.0092624,0,0,0,0.031158,0.0031718,0.010299,3.6566,0.014876,0.025191,6.0482e-07,0.28,0.34,0
0.014256,0.003224,0.031049,0.0031414,0.010257,0.0017433,0,0,0.054059,-0.018501,0,0.009065,0,0,0,0.031157,0.0030329,0.010257,3.5606,0.014816,0.025298,6.0861e-07,0.29,0.34,0
0.014797,0.0032796,0.031045,0.0030097,0.010216,0.001707,0,0,0.054154,-0.018737,0,0.0088766,0,0,0,0.031148,0.0029061,0.010216,3.4716,0.014757,0.025389,6.1154e-07,0.3,0.34,0
0.015339,0.0033307,0.031032,0.0028902,0.010176,0.0016723,0,0,0.054223,-0.018944,0,0.0086961,0,0,0,0.031131,0.0027912,0.010176,3.389,0.0147,0.025463,6.1362e-07,0.31,0.34,0
0.015881,0.0033773,0.03101,0.0027824,0.010138,0.0016389,0,0,0.054267,-0.019124,0,0.0085225,0,0,0,0.031105,0.0026875,0.010138,3.3119,0.014643,0.025521,6.1483e-07,0.32,0.34,0
0.016424,0.0034193,0.030979,0.0026857,0.010099,0.0016065,0,0,0.054287,-0.019275,0,0.0083541,0,0,0,0.03107,0.0025948,0.010099,3.2395,0.014588,0.025563,6.1519e-07,0.33,0.34,0
0.016967,0.0034565,0.030939,0.0025996,0.010061,0.0015748,0,0,0.054281,-0.019401,0,0.0081889,0,0,0,0.031026,0.0025123,0.010061,3.1709,0.014533,0.025588,6.147e-07,0.34,0.34,0
0.01751,0.003489,0.030889,0.0025231,0.010024,0.0015432,0,0,0.05425,-0.019501,0,0.0080248,0,0,0,0.030973,0.0024394,0.010024,3.1049,0.014479,0.025598,6.1338e-07,0.35,0.34,0
0.018052,0.0035164,0.03083,0.0024554,0.0099856,0.0015113,0,0,0.054195,-0.019578,0,0.0078589,0,0,0,0.03091,0.0023752,0.0099856,3.0403,0.014424,0.025593,6.1125e-07,0.36,0.34,0
0.018594,0.0035387,0.030761,0.0023955,0.0099471,0.0014786,0,0,0.054117,-0.019634,0,0.0076886,0,0,0,0.030838,0.0023186,0.0099471,2.9758,0.014368,0.025573,6.0833e-07,0.37,0.34,0
0.019134,0.0035557,0.030683,0.0023419,0.0099075,0.0014443,0,0,0.054017,-0.019671,0,0.0075105,0,0,0,0.030756,0.0022685,0.0099075,2.9099,0.014311,0.02554,6.0465e-07,0.38,0.34,0
0.019674,0.0035671,0.030595,0.0022932,0.0098665,0.001408,0,0,0.053894,-0.01969,0,0.0073213,0,0,0,0.030665,0.0022233,0.0098665,2.841,0.014252,0.025494,6.0026e-07,0.39,0.34,0
0.020212,0.0035729,0.030497,0.0022476,0.0098234,0.0013688,0,0,0.053752,-0.019697,0,0.0071178,0,0,0,0.030563,0.0021814,0.0098234,2.7676,0.014189,0.025437,5.952e-07,0.4,0.34,0
0.020749,0.0035726,0.03039,0.0022031,0.0097778,0.0013263,0,0,0.053591,-0.019694,0,0.0068967,0,0,0,0.030452,0.0021408,0.0097778,2.6881,0.014124,0.02537,5.8955e-07,0.41,0.34,0
0.021284,0.003566,0.030273,0.0021572,0.0097289,0.0012799,0,0,0.053414,-0.019687,0,0.0066553,0,0,0,0.030331,0.002099,0.0097289,2.601,0.014053,0.025295,5.8338e-07,0.42,0.34,0
0.021817,0.0035529,0.030146,0.0021072,0.009676,0.0012291,0,0,0.053222,-0.019679,0,0.0063913,0,0,0,0.0302,0.0020534,0.009676,2.5052,0.013976,0.025215,5.7677e-07,0.43,0.34,0
0.022349,0.0035331,0.03001,0.00205,0.0096182,0.0011738,0,0,0.05302,-0.019677,0,0.0061038,0,0,0,0.03006,0.0020008,0.0096182,2.3997,0.013893,0.025132,5.6984e-07,0.44,0.34,0
0.022878,0.0035061,0.029866,0.0019822,0.0095545,0.001114,0,0,0.05281,-0.019688,0,0.0057931,0,0,0,0.02991,0.0019378,0.0095545,2.2843,0.013801,0.025049,5.6269e-07,0.45,0.34,0
0.023405,0.0034719,0.029713,0.0019,0.0094839,0.0010503,0,0,0.052596,-0.019718,0,0.0054614,0,0,0,0.029753,0.0018604,0.0094839,2.1595,0.013699,0.024969,5.5544e-07,0.46,0.34,0
0.02393,0.0034302,0.029552,0.0017994,0.0094053,0.00098333,0,0,0.052381,-0.019775,0,0.0051133,0,0,0,0.029587,0.0017646,0.0094053,2.0267,0.013586,0.024897,5.4821e-07,0.47,0.34,0
0.024452,0.0033808,0.029382,0.0016764,0.0093176,0.00091473,0,0,0.052168,-0.019867,0,0.0047566,0,0,0,0.029413,0.0016462,0.0093176,1.8889,0.013459,0.024836,5.4111e-07,0.48,0.34,0
0.024973,0.0033238,0.029205,0.0015267,0.0092194,0.00084661,0,0,0.051962,-0.020001,0,0.0044024,0,0,0,0.029231,0.0015008,0.0092194,1.7504,0.013317,0.024789,5.3423e-07,0.49,0.34,0
0.025492,0.0032593,0.029019,0.0013465,0.0091096,0.00078194,0,0,0.051764,-0.020184,0,0.0040661,0,0,0,0.029041,0.0013244,0.0091096,1.6173,0.013158,0.02476,5.2762e-07,0.5,0.34,0
0.026008,0.0031876,0.028823,0.0011326,0.0089868,0.00072463,0,0,0.051575,-0.020421,0,0.0037681,0,0,0,0.028842,0.0011137,0.0089868,1.498,0.012981,0.02475,5.2128e-07,0.51,0.34,0
0.026523,0.0031091,0.028617,0.00088329,0.00885,0.00067963,0,0,0.051393,-0.020713,0,0.0035341,0,0,0,0.028633,0.00086665,0.00885,1.403,0.012783,0.02476,5.1511e-07,0.52,0.34,0
0.027036,0.0030247,0.028395,0.00059849,0.0086982,0.0006528,0,0,0.051213,-0.021059,0,0.0033946,0,0,0,0.028411,0.00058317,0.0086982,1.3446,0.012564,0.024787,5.089e-07,0.53,0.34,0
0.027547,0.0029355,0.028154,0.00028216,0.0085308,0.00065051,0,0,0.05102,-0.021446,0,0.0033826,0,0,0,0.028169,0.00026699,0.0085308,1.3363,0.012322,0.024824,5.0221e-07,0.54,0.34,0
0.028057,0.002843,0.027883,-5.5749e-05,0.0083482,0.00067724,0,0,0.050791,-0.02185,0,0.0035217,0,0,0,0.0279,-7.2156e-05,0.0083482,1.3878,0.012058,0.024855,4.9436e-07,0.55,0.34,0
0.028563,0.0027487,0.027574,-0.00039915,0.0081524,0.00073176,0,0,0.050496,-0.022234,0,0.0038051,0,0,0,0.027593,-0.00041828,0.0081524,1.4974,0.011776,0.02486,4.8456e-07,0.56,0.34,0
0.029066,0.0026545,0.027227,-0.00072803,0.0079498,0.00080509,0,0,0.050121,-0.022562,0,0.0041865,0,0,0,0.02725,-0.00075119,0.0079498,1.6482,0.011483,0.024823,4.7257e-07,0.57,0.34,0
0.029566,0.0025618,0.026841,-0.0010522,0.0077366,0.00088534,0,0,0.049671,-0.022851,0,0.0046038,0,0,0,0.026869,-0.0010803,0.0077366,1.8162,0.011175,0.024748,4.5854e-07,0.58,0.34,0
0.03006,0.0024725,0.026409,-0.0013864,0.0075069,0.0009821,0,0,0.049147,-0.023123,0,0.0051069,0,0,0,0.026444,-0.0014211,0.0075069,2.021,0.010843,0.024645,4.4262e-07,0.59,0.34,0
0.030548,0.0023892,0.025912,-0.0017023,0.0072629,0.0010982,0,0,0.048488,-0.02331,0,0.0057106,0,0,0,0.025956,-0.0017459,0.0072629,2.2738,0.010491,0.024474,4.2355e-07,0.6,0.34,0
0.03103,0.0023142,0.025393,-0.0018733,0.0070559,0.0012066,0,0,0.047676,-0.023216,0,0.0062745,0,0,0,0.025446,-0.0019266,0.0070559,2.529,0.010192,0.024168,4.0195e-07,0.61,0.34,0
0.031502,0.0022482,0.024864,-0.001962,0.0068706,0.001228,0,0,0.046783,-0.022965,0,0.0063854,0,0,0,0.02492,-0.0020181,0.0068706,2.6154,0.0099242,0.023775,3.7917e-07,0.62,0.34,0
0.031965,0.002191,0.024335,-0.0021163,0.0066657,0.0012046,0,0,0.045941,-0.022833,0,0.0062639,0,0,0,0.02439,-0.0021711,0.0066657,2.6021,0.0096282,0.023428,3.5778e-07,0.63,0.34,0
0.032421,0.0021451,0.023845,-0.002244,0.0064804,0.0011567,0,0,0.045149,-0.022683,0,0.0060148,0,0,0,0.023897,-0.0022952,0.0064804,2.5337,0.0093606,0.02309,3.3835e-07,0.64,0.34,0
0.032868,0.0021126,0.023428,-0.0021944,0.0063701,0.0010819,0,0,0.044351,-0.022268,0,0.0056256,0,0,0,0.023474,-0.00224,0.0063701,2.4134,0.0092013,0.02267,3.2055e-07,0.65,0.34,0
0.033308,0.0020924,0.023098,-0.0020404,0.0063173,0.00090542,0,0,0.04363,-0.02173,0,0.0047082,0,0,0,0.023131,-0.002073,0.0063173,2.0601,0.009125,0.02223,3.0532e-07,0.66,0.34,0
0.033741,0.0020813,0.02285,-0.0019371,0.0062738,0.00065206,0,0,0.043097,-0.021348,0,0.0033907,0,0,0,0.022867,-0.0019543,0.0062738,1.5059,0.0090621,0.021899,2.9402e-07,0.67,0.34,0
0.03417,0.0020769,0.022721,-0.0018907,0.006249,0.00036103,0,0,0.042826,-0.021163,0,0.0018774,0,0,0,0.022726,-0.001896,0.006249,0.84025,0.0090263,0.021726,2.8814e-07,0.68,0.34,0
0.034597,0.002078,0.022706,-0.0018995,0.006242,6.0551e-05,0,0,0.042807,-0.021168,0,0.00031486,0,0,0,0.022706,-0.0018997,0.006242,0.14099,0.0090163,0.021712,2.8746e-07,0.69,0.34,0
0.035026,0.0020846,0.022807,-0.0019641,0.0062529,-0.00023044,0,0,0.043041,-0.021364,0,-0.0011983,0,0,0,0.022809,-0.0019663,0.0062529,-0.53296,0.0090319,0.021857,2.9197e-07,0.7,0.34,0
0.035458,0.0020979,0.023028,-0.0020873,0.0062823,-0.00048368,0,0,0.04354,-0.021761,0,-0.0025152,0,0,0,0.023038,-0.0020966,0.0062823,-1.1029,0.0090745,0.022166,3.0198e-07,0.71,0.34,0
0.035897,0.0021204,0.023333,-0.0022658,0.0063202,-0.00065907,0,0,0.044234,-0.022324,0,-0.0034272,0,0,0,0.02335,-0.0022828,0.0063202,-1.4738,0.0091292,0.022595,3.1608e-07,0.72,0.34,0
0.036343,0.0021553,0.023727,-0.0023464,0.0064141,-0.00072915,0,0,0.045013,-0.022777,0,-0.0037916,0,0,0,0.023747,-0.0023667,0.0064141,-1.6006,0.0092648,0.023016,3.3296e-07,0.73,0.34,0
0.036797,0.0022042,0.024195,-0.0022502,0.0065833,-0.0007664,0,0,0.045789,-0.022967,0,-0.0039853,0,0,0,0.024217,-0.0022724,0.0065833,-1.6586,0.0095092,0.023356,3.5153e-07,0.74,0.34,0
0.037259,0.0022649,0.024704,-0.00212,0.0067752,-0.00077517,0,0,0.046615,-0.023128,0,-0.0040309,0,0,0,0.024726,-0.0021424,0.0067752,-1.6539,0.0097864,0.023703,3.7209e-07,0.75,0.34,0
0.037729,0.0023354,0.025215,-0.0020539,0.0069483,-0.00073661,0,0,0.047494,-0.023406,0,-0.0038304,0,0,0,0.025235,-0.0020738,0.0069483,-1.5462,0.010037,0.024099,3.9411e-07,0.76,0.34,0
0.038208,0.0024157,0.025717,-0.0019068,0.0071432,-0.00060671,0,0,0.048293,-0.02353,0,-0.0031549,0,0,0,0.025731,-0.0019201,0.0071432,-1.2576,0.010318,0.024415,4.152e-07,0.77,0.34,0
0.038695,0.0025054,0.026199,-0.0016106,0.0073764,-0.00046338,0,0,0.048938,-0.023366,0,-0.0024096,0,0,0,0.026206,-0.0016183,0.0073764,-0.95434,0.010655,0.024594,4.3387e-07,0.78,0.34,0
0.039187,0.0026023,0.026614,-0.0012894,0.0075975,-0.00033528,0,0,0.049444,-0.023106,0,-0.0017435,0,0,0,0.026618,-0.0012934,0.0075975,-0.68831,0.010974,0.024697,4.4932e-07,0.79,0.34,0
0.039684,0.0027039,0.026984,-0.0009731,0.0078031,-0.00022097,0,0,0.049869,-0.022818,0,-0.001149,0,0,0,0.026985,-0.00097484,0.0078031,-0.45282,0.011271,0.024767,4.6273e-07,0.8,0.34,0
0.040185,0.0028082,0.027311,-0.00064812,0.007999,-0.00011157,0,0,0.050212,-0.022482,0,-0.00058017,0,0,0,0.027312,-0.00064856,0.007999,-0.22863,0.011554,0.024795,4.7398e-07,0.81,0.34,0
0.040688,0.0029138,0.0276,-0.00030492,0.0081885,-1.937e-05,0,0,0.05047,-0.022083,0,-0.00010072,0,0,0,0.0276,-0.00030493,0.0081885,-0.039771,0.011828,0.024775,4.8287e-07,0.82,0.34,0
0.041194,0.0030188,0.027848,3.6035e-05,0.0083652,4.5998e-05,0,0,0.050655,-0.021656,0,0.00023919,0,0,0,0.027848,3.5959e-05,0.0083652,0.094761,0.012083,0.024723,4.8959e-07,0.83,0.34,0
0.041701,0.0031216,0.028065,0.00035749,0.0085268,8.2711e-05,0,0,0.0508,-0.02124,0,0.0004301,0,0,0,0.028066,0.00035725,0.0085268,0.17103,0.012316,0.02466,4.9491e-07,0.84,0.34,0
0.04221,0.0032205,0.02826,0.0006482,0.0086725,9.4983e-05,0,0,0.050928,-0.020863,0,0.00049391,0,0,0,0.028261,0.00064788,0.0086725,0.19709,0.012527,0.024602,4.995e-07,0.85,0.34,0
0.04272,0.0033145,0.028439,0.00090302,0.0088025,8.9185e-05,0,0,0.051054,-0.020539,0,0.00046376,0,0,0,0.028439,0.00090273,0.0088025,0.18557,0.012715,0.024559,5.0383e-07,0.86,0.34,0
0.043231,0.0034025,0.028605,0.0011209,0.0089177,7.1406e-05,0,0,0.051186,-0.020272,0,0.00037131,0,0,0,0.028605,0.0011207,0.0089177,0.14886,0.012881,0.024533,5.0817e-07,0.87,0.34,0
0.043744,0.003484,0.02876,0.0013028,0.0090188,4.6926e-05,0,0,0.051327,-0.020061,0,0.00024402,0,0,0,0.02876,0.0013028,0.0090188,0.097923,0.013027,0.024527,5.1265e-07,0.88,0.34,0
0.044258,0.0035585,0.028905,0.0014516,0.0091069,2.0008e-05,0,0,0.051474,-0.019904,0,0.00010404,0,0,0,0.028905,0.0014516,0.0091069,0.041757,0.013154,0.024538,5.1728e-07,0.89,0.34,0
0.044773,0.0036261,0.02904,0.0015705,0.009183,-6.0567e-06,0,0,0.051627,-0.019793,0,-3.1495e-05,0,0,0,0.02904,0.0015705,0.009183,-0.012633,0.013264,0.024564,5.2203e-07,0.9,0.34,0
0.04529,0.0036864,0.029164,0.0016635,0.0092483,-2.8867e-05,0,0,0.051782,-0.019721,0,-0.00015011,0,0,0,0.029164,0.0016634,0.0092483,-0.060142,0.013359,0.024602,5.2682e-07,0.91,0.34,0
0.045809,0.0037398,0.029278,0.0017344,0.0093039,-4.6807e-05,0,0,0.051934,-0.019681,0,-0.0002434,0,0,0,0.029278,0.0017343,0.0093039,-0.097366,0.013439,0.024647,5.3154e-07,0.92,0.34,0
0.046329,0.0037862,0.029381,0.0017872,0.0093505,-5.894e-05,0,0,0.05208,-0.019665,0,-0.00030649,0,0,0,0.029381,0.0017871,0.0093505,-0.12238,0.013506,0.024697,5.3607e-07,0.93,0.34,0
0.04685,0.0038259,0.029472,0.0018254,0.0093892,-6.4905e-05,0,0,0.052215,-0.019666,0,-0.0003375,0,0,0,0.029472,0.0018253,0.0093892,-0.13451,0.013562,0.024747,5.4028e-07,0.94,0.34,0
0.047373,0.0038591,0.02955,0.0018522,0.0094206,-6.4819e-05,0,0,0.052336,-0.019678,0,-0.00033706,0,0,0,0.02955,0.0018521,0.0094206,-0.13409,0.013607,0.024796,5.4406e-07,0.95,0.34,0
0.047897,0.0038859,0.029614,0.0018704,0.0094455,-5.9185e-05,0,0,0.05244,-0.019695,0,-0.00030776,0,0,0,0.029615,0.0018702,0.0094455,-0.12222,0.013643,0.024839,5.4731e-07,0.96,0.34,0
0.048422,0.0039066,0.029665,0.0018821,0.0094643,-4.88e-05,0,0,0.052523,-0.019714,0,-0.00025376,0,0,0,0.029666,0.001882,0.0094643,-0.10064,0.013671,0.024875,5.4993e-07,0.97,0.34,0
0.048948,0.0039212,0.029702,0.0018892,0.0094774,-3.468e-05,0,0,0.052584,-0.019729,0,-0.00018034,0,0,0,0.029702,0.0018892,0.0094774,-0.071443,0.01369,0.024902,5.5185e-07,0.98,0.34,0
0.049474,0.0039299,0.029724,0.001893,0.0094851,-1.7993e-05,0,0,0.052621,-0.01974,0,-9.3566e-05,0,0,0,0.029724,0.001893,0.0094851,-0.037043,0.013701,0.024918,5.5302e-07,0.99,0.34,0
0.05,0.0039329,0.029732,0.0018942,0.0094877,5.5875e-05,0,0,0.052634,-0.019743,0,0.00029055,0,0,0,0.029732,0.0018941,0.0094877,0.115,0.013704,0.024924,5.5343e-07,1,0.34,0
0,0,0.028288,0.012124,0.012124,0.0027249,0,0,0.042029,5.421e-19,0,0.014169,0,0,0,0.028735,0.011677,0.012124,9.3155,0.017512,0.01684,2.4468e-07,0,0.35,0
0.00042029,0.0001417,0.028247,0.011633,0.011964,0.0027214,0,0,0.042335,-0.00085991,0,0.014151,0,0,0,0.028681,0.011199,0.011964,9.0697,0.017281,0.017113,2.5565e-07,0.01,0.35,0
0.00084671,0.0002814,0.028412,0.011232,0.011893,0.002699,0,0,0.042948,-0.0017187,0,0.014035,0,0,0,0.028826,0.010818,0.011893,8.7216,0.017179,0.017495,2.7151e-07,0.02,0.35,0
0.0012793,0.00041913,0.028576,0.010832,0.011822,0.0026764,0,0,0.043558,-0.0025747,0,0.013917,0,0,0,0.02897,0.010437,0.011822,8.3937,0.017077,0.017881,2.877e-07,0.03,0.35,0
0.0017179,0.00055484,0.028738,0.010434,0.011752,0.0026532,0,0,0.044165,-0.0034264,0,0.013797,0,0,0,0.029115,0.010057,0.011752,8.0833,0.016975,0.01827,3.0413e-07,0.04,0.35,0
0.0021626,0.0006885,0.028899,0.010038,0.011681,0.0026288,0,0,0.044767,-0.0042719,0,0.01367,0,0,0,0.029259,0.0096786,0.011681,7.7882,0.016873,0.018659,3.2075e-07,0.05,0.35,0
0.0026132,0.00082005,0.029058,0.009646,0.011611,0.002603,0,0,0.045361,-0.0051094,0,0.013536,0,0,0,0.029401,0.009303,0.011611,7.5063,0.016772,0.019049,3.375e-07,0.06,0.35,0
0.0030698,0.0009494,0.029214,0.0092582,0.011542,0.0025754,0,0,0.045948,-0.0059369,0,0.013392,0,0,0,0.029541,0.0089312,0.011542,7.2363,0.016671,0.019436,3.5429e-07,0.07,0.35,0
0.0035322,0.0010765,0.029367,0.0088755,0.011473,0.0025458,0,0,0.046525,-0.0067526,0,0.013238,0,0,0,0.029678,0.008564,0.011473,6.977,0.016572,0.019821,3.7106e-07,0.08,0.35,0
0.0040003,0.0012012,0.029516,0.0084989,0.011404,0.0025142,0,0,0.04709,-0.0075545,0,0.013074,0,0,0,0.029813,0.0082023,0.011404,6.7276,0.016473,0.0202,3.8774e-07,0.09,0.35,0
0.004474,0.0013233,0.029661,0.0081291,0.011337,0.0024805,0,0,0.047642,-0.0083407,0,0.012899,0,0,0,0.029943,0.007847,0.011337,6.4873,0.016376,0.020574,4.0426e-07,0.1,0.35,0
0.0049531,0.0014429,0.029802,0.0077669,0.01127,0.0024448,0,0,0.048181,-0.0091095,0,0.012713,0,0,0,0.030069,0.0074989,0.01127,6.2557,0.01628,0.020941,4.2055e-07,0.11,0.35,0
0.0054376,0.0015598,0.029937,0.0074132,0.011205,0.0024072,0,0,0.048703,-0.0098589,0,0.012517,0,0,0,0.030191,0.0071588,0.011205,6.0326,0.016185,0.0213,4.3654e-07,0.12,0.35,0
0.0059272,0.0016738,0.030067,0.0070686,0.011141,0.0023679,0,0,0.049209,-0.010587,0,0.012313,0,0,0,0.030308,0.0068273,0.011141,5.8178,0.016092,0.021649,4.5217e-07,0.13,0.35,0
0.0064218,0.0017849,0.030191,0.0067338,0.011078,0.0023271,0,0,0.049696,-0.011294,0,0.012101,0,0,0,0.03042,0.0065052,0.011078,5.6112,0.016001,0.021988,4.6739e-07,0.14,0.35,0
0.0069211,0.0018929,0.030309,0.0064096,0.011016,0.0022851,0,0,0.050163,-0.011976,0,0.011883,0,0,0,0.030526,0.0061931,0.011016,5.4129,0.015911,0.022316,4.8213e-07,0.15,0.35,0
0.007425,0.0019978,0.030421,0.0060964,0.010955,0.0022423,0,0,0.050611,-0.012633,0,0.01166,0,0,0,0.030626,0.0058914,0.010955,5.2229,0.015824,0.022632,4.9634e-07,0.16,0.35,0
0.0079333,0.0020995,0.030526,0.0057947,0.010896,0.0021988,0,0,0.051037,-0.013264,0,0.011434,0,0,0,0.03072,0.0056007,0.010896,5.0413,0.015739,0.022935,5.0998e-07,0.17,0.35,0
0.0084458,0.0021977,0.030624,0.005505,0.010839,0.0021551,0,0,0.051442,-0.013867,0,0.011206,0,0,0,0.030808,0.0053215,0.010839,4.8683,0.015656,0.023224,5.23e-07,0.18,0.35,0
0.0089621,0.0022926,0.030715,0.0052277,0.010783,0.0021114,0,0,0.051823,-0.014443,0,0.01098,0,0,0,0.030889,0.005054,0.010783,4.7039,0.015575,0.0235,5.3536e-07,0.19,0.35,0
0.0094822,0.002384,0.030798,0.0049631,0.010728,0.0020682,0,0,0.052182,-0.01499,0,0.010755,0,0,0,0.030963,0.0047985,0.010728,4.5482,0.015497,0.023761,5.4703e-07,0.2,0.35,0
0.010006,0.0024718,0.030875,0.0047113,0.010676,0.0020257,0,0,0.052517,-0.015508,0,0.010534,0,0,0,0.03103,0.0045554,0.010676,4.4013,0.015421,0.024007,5.5797e-07,0.21,0.35,0
0.010533,0.0025559,0.030943,0.0044727,0.010625,0.0019843,0,0,0.052828,-0.015995,0,0.010318,0,0,0,0.031091,0.0043248,0.010625,4.2632,0.015347,0.024238,5.6817e-07,0.22,0.35,0
0.011062,0.0026364,0.031004,0.0042474,0.010575,0.001944,0,0,0.053114,-0.016453,0,0.010109,0,0,0,0.031144,0.0041069,0.010575,4.134,0.015276,0.024454,5.776e-07,0.23,0.35,0
0.011595,0.0027131,0.031057,0.0040354,0.010528,0.0019053,0,0,0.053376,-0.01688,0,0.0099077,0,0,0,0.031191,0.0039017,0.010528,4.0135,0.015207,0.024653,5.8624e-07,0.24,0.35,0
0.01213,0.0027861,0.031102,0.0038367,0.010482,0.0018683,0,0,0.053614,-0.017277,0,0.0097152,0,0,0,0.03123,0.0037093,0.010482,3.9017,0.01514,0.024837,5.9406e-07,0.25,0.35,0
0.012667,0.0028551,0.031139,0.0036513,0.010437,0.0018331,0,0,0.053826,-0.017643,0,0.0095321,0,0,0,0.031261,0.0035296,0.010437,3.7985,0.015076,0.025004,6.0107e-07,0.26,0.35,0
0.013206,0.0029203,0.031168,0.0034792,0.010394,0.0017998,0,0,0.054013,-0.017979,0,0.0093589,0,0,0,0.031285,0.0033627,0.010394,3.7035,0.015014,0.025155,6.0723e-07,0.27,0.35,0
0.013747,0.0029816,0.031189,0.0033202,0.010353,0.0017684,0,0,0.054174,-0.018285,0,0.0091959,0,0,0,0.031301,0.0032085,0.010353,3.6164,0.014954,0.025289,6.1255e-07,0.28,0.35,0
0.01429,0.0030388,0.031202,0.0031742,0.010313,0.001739,0,0,0.054311,-0.01856,0,0.0090429,0,0,0,0.031309,0.0030667,0.010313,3.537,0.014896,0.025406,6.1702e-07,0.29,0.35,0
0.014834,0.0030919,0.031205,0.0030408,0.010274,0.0017114,0,0,0.054422,-0.018806,0,0.0088994,0,0,0,0.031309,0.0029372,0.010274,3.4646,0.01484,0.025507,6.2062e-07,0.3,0.35,0
0.015378,0.0031409,0.0312,0.0029197,0.010236,0.0016855,0,0,0.054508,-0.019023,0,0.0087647,0,0,0,0.031301,0.0028196,0.010236,3.3988,0.014785,0.025592,6.2335e-07,0.31,0.35,0
0.015924,0.0031857,0.031187,0.0028107,0.010199,0.0016611,0,0,0.054568,-0.01921,0,0.0086376,0,0,0,0.031284,0.0027138,0.010199,3.3388,0.014732,0.02566,6.2522e-07,0.32,0.35,0
0.01647,0.0032261,0.031164,0.0027131,0.010163,0.0016378,0,0,0.054602,-0.01937,0,0.0085165,0,0,0,0.031258,0.0026191,0.010163,3.2838,0.01468,0.025711,6.2621e-07,0.33,0.35,0
0.017016,0.0032621,0.031132,0.0026264,0.010128,0.0016153,0,0,0.054612,-0.019503,0,0.0083997,0,0,0,0.031223,0.0025351,0.010128,3.233,0.014629,0.025746,6.2634e-07,0.34,0.35,0
0.017562,0.0032935,0.031091,0.0025498,0.010092,0.0015932,0,0,0.054596,-0.01961,0,0.0082847,0,0,0,0.031179,0.0024612,0.010092,3.1852,0.014578,0.025765,6.256e-07,0.35,0.35,0
0.018108,0.0033201,0.03104,0.0024826,0.010057,0.0015709,0,0,0.054556,-0.019693,0,0.0081689,0,0,0,0.031126,0.0023965,0.010057,3.1392,0.014526,0.025768,6.2401e-07,0.36,0.35,0
0.018653,0.0033418,0.030979,0.0024238,0.010021,0.0015479,0,0,0.054492,-0.019752,0,0.0080493,0,0,0,0.031063,0.0023401,0.010021,3.0938,0.014475,0.025756,6.2159e-07,0.37,0.35,0
0.019198,0.0033585,0.030908,0.0023719,0.0099841,0.0015236,0,0,0.054403,-0.019792,0,0.0079226,0,0,0,0.03099,0.0022908,0.0099841,3.0475,0.014422,0.02573,6.1837e-07,0.38,0.35,0
0.019741,0.0033697,0.030828,0.0023256,0.009946,0.0014971,0,0,0.054293,-0.019813,0,0.0077852,0,0,0,0.030906,0.0022472,0.009946,2.9986,0.014366,0.02569,6.1437e-07,0.39,0.35,0
0.020283,0.0033754,0.030737,0.0022831,0.009906,0.001468,0,0,0.05416,-0.01982,0,0.0076334,0,0,0,0.030812,0.0022076,0.009906,2.9455,0.014309,0.025638,6.0965e-07,0.4,0.35,0
0.020824,0.0033751,0.030636,0.0022422,0.0098634,0.0014354,0,0,0.054008,-0.019815,0,0.0074639,0,0,0,0.030708,0.0021699,0.0098634,2.8866,0.014247,0.025575,6.0426e-07,0.41,0.35,0
0.021364,0.0033686,0.030524,0.0022006,0.0098175,0.0013987,0,0,0.053838,-0.019804,0,0.0072733,0,0,0,0.030593,0.0021317,0.0098175,2.8203,0.014181,0.025503,5.9829e-07,0.42,0.35,0
0.021901,0.0033557,0.030403,0.0021552,0.0097676,0.0013575,0,0,0.053653,-0.019792,0,0.0070592,0,0,0,0.030468,0.0020901,0.0097676,2.7451,0.014109,0.025424,5.9183e-07,0.43,0.35,0
0.022437,0.0033358,0.030273,0.0021028,0.0097126,0.0013116,0,0,0.053456,-0.019786,0,0.0068201,0,0,0,0.030333,0.0020419,0.0097126,2.66,0.014029,0.025342,5.8497e-07,0.44,0.35,0
0.02297,0.0033088,0.030132,0.0020395,0.0096515,0.0012608,0,0,0.053249,-0.019791,0,0.0065562,0,0,0,0.030189,0.001983,0.0096515,2.5646,0.013941,0.02526,5.7785e-07,0.45,0.35,0
0.023502,0.0032743,0.029982,0.0019612,0.009583,0.0012057,0,0,0.053038,-0.019817,0,0.0062698,0,0,0,0.030034,0.0019094,0.009583,2.4593,0.013842,0.025181,5.7059e-07,0.46,0.35,0
0.024031,0.003232,0.029823,0.0018633,0.009506,0.0011473,0,0,0.052825,-0.019871,0,0.0059661,0,0,0,0.029871,0.0018163,0.009506,2.3458,0.013731,0.025109,5.6331e-07,0.47,0.35,0
0.024558,0.0031818,0.029656,0.001741,0.0094189,0.0010872,0,0,0.052615,-0.019963,0,0.0056534,0,0,0,0.029698,0.0016987,0.0094189,2.227,0.013605,0.025048,5.5615e-07,0.48,0.35,0
0.025083,0.0031235,0.029478,0.0015893,0.0093203,0.0010278,0,0,0.052411,-0.020101,0,0.0053444,0,0,0,0.029516,0.0015515,0.0093203,2.1077,0.013463,0.025002,5.492e-07,0.49,0.35,0
0.025606,0.0030571,0.029291,0.0014035,0.0092084,0.00097243,0,0,0.052215,-0.020293,0,0.0050567,0,0,0,0.029325,0.0013697,0.0092084,1.9947,0.013301,0.024976,5.4252e-07,0.5,0.35,0
0.026128,0.0029829,0.029093,0.0011793,0.0090816,0.00092577,0,0,0.052029,-0.020546,0,0.004814,0,0,0,0.029123,0.0011486,0.0090816,1.8975,0.013118,0.024972,5.3613e-07,0.51,0.35,0
0.026647,0.0029014,0.028881,0.00091338,0.0089383,0.00089365,0,0,0.051851,-0.020865,0,0.004647,0,0,0,0.02891,0.00088486,0.0089383,1.8283,0.012911,0.024991,5.2995e-07,0.52,0.35,0
0.027165,0.0028134,0.028653,0.00060526,0.0087775,0.00088372,0,0,0.051677,-0.021248,0,0.0045954,0,0,0,0.028681,0.00057744,0.0087775,1.8029,0.012679,0.025032,5.2379e-07,0.53,0.35,0
0.02768,0.0027201,0.028401,0.00025593,0.0085972,0.00090505,0,0,0.051491,-0.021687,0,0.0047063,0,0,0,0.02843,0.00022686,0.0085972,1.8399,0.012418,0.025088,5.1717e-07,0.54,0.35,0
0.028194,0.0026233,0.028113,-0.00012447,0.0083964,0.00096837,0,0,0.051262,-0.022154,0,0.0050355,0,0,0,0.028146,-0.00015763,0.0083964,1.9618,0.012128,0.025143,5.0918e-07,0.55,0.35,0
0.028706,0.0025251,0.027769,-0.00050951,0.0081778,0.0010773,0,0,0.050937,-0.022587,0,0.005602,0,0,0,0.02781,-0.0005505,0.0081778,2.1785,0.011812,0.025159,4.9841e-07,0.56,0.35,0
0.029213,0.0024278,0.027349,-0.00086549,0.0079452,0.0012159,0,0,0.050451,-0.022908,0,0.0063229,0,0,0,0.027402,-0.0009178,0.0079452,2.4631,0.011476,0.025091,4.8327e-07,0.57,0.35,0
0.029715,0.0023325,0.026894,-0.0011478,0.007724,0.0013547,0,0,0.049843,-0.023067,0,0.0070444,0,0,0,0.02696,-0.0012131,0.007724,2.7593,0.011157,0.024936,4.6529e-07,0.58,0.35,0
0.03021,0.0022406,0.026378,-0.0014886,0.0074669,0.0014724,0,0,0.049169,-0.023284,0,0.0076565,0,0,0,0.026456,-0.0015662,0.0074669,3.0162,0.010785,0.024773,4.4536e-07,0.59,0.35,0
0.030698,0.0021554,0.02576,-0.0019098,0.0071549,0.0016636,0,0,0.048372,-0.023568,0,0.0086509,0,0,0,0.025859,-0.0020095,0.0071549,3.4285,0.010335,0.024602,4.2253e-07,0.6,0.35,0
0.031177,0.0020826,0.024999,-0.002123,0.0068628,0.0018729,0,0,0.047154,-0.023363,0,0.009739,0,0,0,0.025128,-0.0022517,0.0068628,3.9317,0.0099129,0.024149,3.9142e-07,0.61,0.35,0
0.031641,0.0020209,0.024351,-0.0018283,0.0067568,0.0019614,0,0,0.045745,-0.022321,0,0.010199,0,0,0,0.024497,-0.0019744,0.0067568,4.261,0.0097599,0.023363,3.6007e-07,0.62,0.35,0
0.032092,0.0019659,0.023584,-0.0019857,0.0064794,0.0017881,0,0,0.044471,-0.022009,0,0.0092979,0,0,0,0.023708,-0.0021101,0.0064794,3.9809,0.0093591,0.022773,3.286e-07,0.63,0.35,0
0.032531,0.0019218,0.022856,-0.0022484,0.0061821,0.0017285,0,0,0.043351,-0.021919,0,0.008988,0,0,0,0.022974,-0.0023668,0.0061821,3.9203,0.0089298,0.022329,3.0225e-07,0.64,0.35,0
0.032959,0.0018947,0.022409,-0.0019074,0.0061503,0.0015254,0,0,0.042271,-0.02095,0,0.0079319,0,0,0,0.022504,-0.0020027,0.0061503,3.5756,0.0088838,0.021616,2.8102e-07,0.65,0.35,0
0.033376,0.0018813,0.021964,-0.0017097,0.0060764,0.0011946,0,0,0.041308,-0.020244,0,0.0062121,0,0,0,0.022024,-0.0017698,0.0060764,2.8815,0.008777,0.021001,2.6162e-07,0.66,0.35,0
0.033786,0.0018745,0.021715,-0.0016033,0.0060335,0.00080733,0,0,0.040772,-0.019856,0,0.0041981,0,0,0,0.021743,-0.0016312,0.0060335,1.9806,0.008715,0.020638,2.5061e-07,0.67,0.35,0
0.034191,0.0018721,0.021606,-0.0015574,0.0060146,0.00041812,0,0,0.040538,-0.019687,0,0.0021742,0,0,0,0.021614,-0.0015649,0.0060146,1.0338,0.0086878,0.02047,2.4563e-07,0.68,0.35,0
0.034596,0.0018731,0.021592,-0.0015666,0.0060076,3.1627e-05,0,0,0.040519,-0.019693,0,0.00016446,0,0,0,0.021592,-0.0015666,0.0060076,0.078248,0.0086776,0.020452,2.4492e-07,0.69,0.35,0
0.035002,0.0018777,0.021672,-0.0016313,0.0060121,-0.00035714,0,0,0.040715,-0.019873,0,-0.0018571,0,0,0,0.021677,-0.0016367,0.0060121,-0.87784,0.0086842,0.020584,2.4845e-07,0.7,0.35,0
0.03541,0.0018865,0.021891,-0.0017577,0.0060401,-0.00074431,0,0,0.041213,-0.020274,0,-0.0038704,0,0,0,0.021915,-0.0017811,0.0060401,-1.8009,0.0087246,0.020913,2.5793e-07,0.71,0.35,0
0.035826,0.0019019,0.022309,-0.0019778,0.0060993,-0.0010758,0,0,0.042145,-0.021,0,-0.0055941,0,0,0,0.022356,-0.0020253,0.0060993,-2.5313,0.0088101,0.021503,2.7588e-07,0.72,0.35,0
0.036253,0.001931,0.022731,-0.0023543,0.006113,-0.0012781,0,0,0.043207,-0.022015,0,-0.0066463,0,0,0,0.022796,-0.0024192,0.006113,-2.9093,0.0088299,0.022214,2.9595e-07,0.73,0.35,0
0.03669,0.0019775,0.023432,-0.002138,0.0063881,-0.001328,0,0,0.044313,-0.022168,0,-0.0069056,0,0,0,0.0235,-0.0022068,0.0063881,-2.9651,0.0092272,0.022667,3.2127e-07,0.74,0.35,0
0.03714,0.0020359,0.024184,-0.0019957,0.0066563,-0.001488,0,0,0.04557,-0.022495,0,-0.0077376,0,0,0,0.024268,-0.00208,0.0066563,-3.2427,0.0096147,0.023245,3.515e-07,0.75,0.35,0
0.037602,0.0021017,0.024815,-0.0023158,0.0067498,-0.0013895,0,0,0.04697,-0.023571,0,-0.0072253,0,0,0,0.024886,-0.0023868,0.0067498,-2.9241,0.0097498,0.024044,3.8212e-07,0.76,0.35,0
0.038079,0.0021795,0.025562,-0.0021409,0.0070262,-0.0011609,0,0,0.048192,-0.023834,0,-0.0060366,0,0,0,0.02561,-0.0021894,0.0070262,-2.3954,0.010149,0.024526,4.1304e-07,0.77,0.35,0
0.038566,0.0022708,0.026172,-0.0017442,0.0073283,-0.00094131,0,0,0.048993,-0.023588,0,-0.0048948,0,0,0,0.026204,-0.0017759,0.0073283,-1.929,0.010585,0.024718,4.3598e-07,0.78,0.35,0
0.039059,0.0023701,0.026679,-0.0014177,0.0075783,-0.0007909,0,0,0.049661,-0.02339,0,-0.0041127,0,0,0,0.026701,-0.00144,0.0075783,-1.6112,0.010946,0.024889,4.5572e-07,0.79,0.35,0
0.039559,0.0024742,0.027122,-0.0011458,0.007793,-0.00061746,0,0,0.050257,-0.023241,0,-0.0032108,0,0,0,0.027136,-0.0011593,0.007793,-1.2507,0.011256,0.025049,4.7347e-07,0.8,0.35,0
0.040064,0.0025817,0.027529,-0.00079686,0.0080197,-0.00044114,0,0,0.050724,-0.022923,0,-0.0022939,0,0,0,0.027536,-0.00080373,0.0080197,-0.89203,0.011584,0.025118,4.8836e-07,0.81,0.35,0
0.040573,0.0026913,0.027859,-0.00041344,0.0082336,-0.00029229,0,0,0.051026,-0.022482,0,-0.0015199,0,0,0,0.027862,-0.00041646,0.0082336,-0.59227,0.011893,0.025097,4.9874e-07,0.82,0.35,0
0.041085,0.0028008,0.028131,-3.0363e-05,0.0084303,-0.00018803,0,0,0.051223,-0.021998,0,-0.00097774,0,0,0,0.028133,-3.1618e-05,0.0084303,-0.38253,0.012177,0.02503,5.0606e-07,0.83,0.35,0
0.041598,0.0029079,0.028365,0.00032429,0.0086067,-0.00012568,0,0,0.051371,-0.021534,0,-0.00065353,0,0,0,0.028365,0.00032373,0.0086067,-0.2568,0.012432,0.024953,5.1168e-07,0.84,0.35,0
0.042112,0.0030108,0.028572,0.00063853,0.0087632,-9.4864e-05,0,0,0.051503,-0.021124,0,-0.00049329,0,0,0,0.028573,0.00063821,0.0087632,-0.19458,0.012658,0.024887,5.1658e-07,0.85,0.35,0
0.042628,0.0031081,0.028762,0.00090987,0.0089016,-8.6373e-05,0,0,0.051637,-0.020778,0,-0.00044914,0,0,0,0.028762,0.0009096,0.0089016,-0.17768,0.012858,0.024841,5.2128e-07,0.86,0.35,0
0.043145,0.0031988,0.028937,0.0011377,0.0090225,-9.221e-05,0,0,0.051779,-0.020501,0,-0.00047949,0,0,0,0.028938,0.0011374,0.0090225,-0.19004,0.013033,0.024816,5.2604e-07,0.87,0.35,0
0.043663,0.0032824,0.0291,0.0013244,0.0091274,-0.00010602,0,0,0.05193,-0.020288,0,-0.0005513,0,0,0,0.029101,0.0013239,0.0091274,-0.21869,0.013184,0.024813,5.3097e-07,0.88,0.35,0
0.044183,0.0033585,0.029252,0.0014737,0.0092177,-0.00012274,0,0,0.052089,-0.020134,0,-0.00063823,0,0,0,0.029253,0.0014731,0.0092177,-0.25315,0.013314,0.02483,5.3609e-07,0.89,0.35,0
0.044705,0.0034271,0.029393,0.0015902,0.0092949,-0.00013856,0,0,0.052255,-0.020032,0,-0.00072049,0,0,0,0.029394,0.0015895,0.0092949,-0.28553,0.013426,0.024864,5.4136e-07,0.9,0.35,0
0.045228,0.0034881,0.029523,0.0016786,0.0093604,-0.00015074,0,0,0.052422,-0.019973,0,-0.00078386,0,0,0,0.029524,0.0016778,0.0093604,-0.31017,0.013521,0.02491,5.4667e-07,0.91,0.35,0
0.045754,0.0035418,0.029641,0.0017437,0.0094155,-0.00015747,0,0,0.052587,-0.019947,0,-0.00081883,0,0,0,0.029642,0.0017428,0.0094155,-0.32339,0.0136,0.024964,5.5191e-07,0.92,0.35,0
0.04628,0.0035883,0.029748,0.00179,0.0094614,-0.00015769,0,0,0.052745,-0.019946,0,-0.00082,0,0,0,0.029749,0.0017891,0.0094614,-0.32315,0.013666,0.025022,5.5693e-07,0.93,0.35,0
0.046808,0.0036279,0.029842,0.0018216,0.0094991,-0.00015104,0,0,0.052892,-0.019962,0,-0.00078539,0,0,0,0.029843,0.0018208,0.0094991,-0.30882,0.013721,0.02508,5.616e-07,0.94,0.35,0
0.047338,0.0036609,0.029923,0.0018421,0.0095295,-0.00013766,0,0,0.053023,-0.019987,0,-0.00071584,0,0,0,0.029924,0.0018415,0.0095295,-0.28088,0.013765,0.025136,5.6579e-07,0.95,0.35,0
0.047869,0.0036875,0.02999,0.0018548,0.0095534,-0.00011816,0,0,0.053135,-0.020016,0,-0.00061443,0,0,0,0.02999,0.0018543,0.0095534,-0.24062,0.013799,0.025185,5.6937e-07,0.96,0.35,0
0.048401,0.0037079,0.030042,0.001862,0.0095714,-9.3438e-05,0,0,0.053225,-0.020044,0,-0.00048588,0,0,0,0.030043,0.0018617,0.0095714,-0.18997,0.013825,0.025226,5.7226e-07,0.97,0.35,0
0.048933,0.0037224,0.03008,0.0018658,0.0095839,-6.4632e-05,0,0,0.053291,-0.020067,0,-0.00033608,0,0,0,0.030081,0.0018657,0.0095839,-0.13125,0.013843,0.025256,5.7438e-07,0.98,0.35,0
0.049467,0.003731,0.030103,0.0018676,0.0095912,-3.3026e-05,0,0,0.053331,-0.020082,0,-0.00017174,0,0,0,0.030103,0.0018675,0.0095912,-0.067017,0.013854,0.025275,5.7568e-07,0.99,0.35,0
0.05,0.0037338,0.030111,0.001868,0.0095937,5.5039e-05,0,0,0.053345,-0.020087,0,0.0002862,0,0,0,0.030111,0.0018679,0.0095937,0.11166,0.013858,0.025282,5.7612e-07,1,0.35,0
0,0,0.028343,0.012147,0.012147,0.0025594,0,0,0.04211,-1.6263e-19,0,0.013309,0,0,0,0.028738,0.011752,0.012147,8.7695,0.017546,0.016792,2.4272e-07,0,0.36,0
0.0004211,0.00013309,0.028301,0.011655,0.011987,0.002556,0,0,0.042417,-0.00086208,0,0.013291,0,0,0,0.028685,0.011272,0.011987,8.5361,0.017315,0.017067,2.5381e-07,0.01,0.36,0
0.00084835,0.0002642,0.028466,0.011254,0.011916,0.0025343,0,0,0.043031,-0.0017217,0,0.013178,0,0,0,0.028832,0.010889,0.011916,8.2039,0.017212,0.017452,2.6982e-07,0.02,0.36,0
0.0012817,0.00039337,0.028631,0.010854,0.011845,0.0025127,0,0,0.043642,-0.0025776,0,0.013066,0,0,0,0.028979,0.010506,0.011845,7.8928,0.01711,0.017841,2.8614e-07,0.03,0.36,0
0.0017212,0.00052057,0.028794,0.010457,0.011775,0.002491,0,0,0.044248,-0.0034282,0,0.012953,0,0,0,0.029126,0.010124,0.011775,7.5997,0.017008,0.018232,3.027e-07,0.04,0.36,0
0.0021667,0.00064579,0.028955,0.010062,0.011705,0.0024685,0,0,0.04485,-0.0042719,0,0.012836,0,0,0,0.029272,0.0097449,0.011705,7.3224,0.016907,0.018625,3.1945e-07,0.05,0.36,0
0.0026182,0.00076898,0.029114,0.0096714,0.011636,0.002445,0,0,0.045444,-0.0051071,0,0.012714,0,0,0,0.029417,0.0093686,0.011636,7.0589,0.016807,0.019016,3.3632e-07,0.06,0.36,0
0.0030756,0.00089007,0.029271,0.0092853,0.011567,0.0024203,0,0,0.04603,-0.005932,0,0.012585,0,0,0,0.02956,0.0089964,0.011567,6.8075,0.016708,0.019406,3.5326e-07,0.07,0.36,0
0.0035388,0.001009,0.029424,0.0089044,0.011499,0.002394,0,0,0.046607,-0.006745,0,0.012449,0,0,0,0.0297,0.0086288,0.011499,6.5671,0.016609,0.019793,3.7018e-07,0.08,0.36,0
0.0040077,0.0011257,0.029575,0.0085296,0.011431,0.0023662,0,0,0.047173,-0.0075442,0,0.012304,0,0,0,0.029837,0.0082669,0.011431,6.3367,0.016512,0.020175,3.8703e-07,0.09,0.36,0
0.0044822,0.00124,0.029721,0.0081617,0.011365,0.0023367,0,0,0.047726,-0.008328,0,0.012151,0,0,0,0.029971,0.0079113,0.011365,6.1155,0.016416,0.020552,4.0374e-07,0.1,0.36,0
0.0049622,0.0013519,0.029863,0.0078013,0.011299,0.0023057,0,0,0.048266,-0.0090948,0,0.01199,0,0,0,0.030101,0.0075629,0.011299,5.9031,0.016321,0.020922,4.2024e-07,0.11,0.36,0
0.0054475,0.0014613,0.03,0.0074492,0.011235,0.0022732,0,0,0.04879,-0.0098427,0,0.011821,0,0,0,0.030227,0.0072223,0.011235,5.6991,0.016228,0.021284,4.3648e-07,0.12,0.36,0
0.005938,0.0015681,0.030133,0.007106,0.011172,0.0022393,0,0,0.049299,-0.01057,0,0.011645,0,0,0,0.030348,0.0068903,0.011172,5.5033,0.016137,0.021637,4.5239e-07,0.13,0.36,0
0.0064335,0.0016721,0.030259,0.0067725,0.01111,0.0022043,0,0,0.04979,-0.011276,0,0.011463,0,0,0,0.030464,0.0065674,0.01111,5.3156,0.016047,0.021981,4.6791e-07,0.14,0.36,0
0.0069338,0.0017733,0.030381,0.0064491,0.011049,0.0021685,0,0,0.050262,-0.011959,0,0.011276,0,0,0,0.030575,0.0062543,0.011049,5.1359,0.01596,0.022314,4.8298e-07,0.15,0.36,0
0.0074388,0.0018716,0.030496,0.0061366,0.01099,0.002132,0,0,0.050716,-0.012618,0,0.011086,0,0,0,0.030681,0.0059514,0.01099,4.9643,0.015874,0.022635,4.9757e-07,0.16,0.36,0
0.0079481,0.0019669,0.030605,0.0058352,0.010932,0.0020951,0,0,0.051149,-0.013252,0,0.010894,0,0,0,0.030781,0.0056592,0.010932,4.8009,0.015791,0.022944,5.1162e-07,0.17,0.36,0
0.0084617,0.0020592,0.030707,0.0055455,0.010876,0.0020582,0,0,0.051561,-0.013859,0,0.010703,0,0,0,0.030874,0.0053782,0.010876,4.6456,0.015709,0.02324,5.2508e-07,0.18,0.36,0
0.0089794,0.0021482,0.030803,0.0052678,0.010821,0.0020216,0,0,0.051952,-0.014439,0,0.010512,0,0,0,0.030962,0.0051088,0.010821,4.4988,0.015631,0.023523,5.3792e-07,0.19,0.36,0
0.0095008,0.0022341,0.030891,0.0050025,0.010768,0.0019856,0,0,0.052321,-0.014991,0,0.010325,0,0,0,0.031043,0.0048511,0.010768,4.3603,0.015554,0.023792,5.501e-07,0.2,0.36,0
0.010026,0.0023167,0.030973,0.0047499,0.010717,0.0019504,0,0,0.052666,-0.015514,0,0.010142,0,0,0,0.031118,0.0046056,0.010717,4.2304,0.01548,0.024046,5.616e-07,0.21,0.36,0
0.010554,0.0023959,0.031048,0.00451,0.010667,0.0019163,0,0,0.052989,-0.016009,0,0.009965,0,0,0,0.031186,0.0043724,0.010667,4.109,0.015409,0.024286,5.7237e-07,0.22,0.36,0
0.011086,0.0024718,0.031115,0.0042832,0.01062,0.0018837,0,0,0.053289,-0.016474,0,0.0097952,0,0,0,0.031247,0.0041516,0.01062,3.9962,0.015339,0.02451,5.824e-07,0.23,0.36,0
0.01162,0.0025442,0.031175,0.0040695,0.010573,0.0018526,0,0,0.053564,-0.01691,0,0.0096338,0,0,0,0.031301,0.0039435,0.010573,3.892,0.015273,0.024719,5.9167e-07,0.24,0.36,0
0.012157,0.0026131,0.031227,0.0038691,0.010529,0.0018234,0,0,0.053816,-0.017316,0,0.0094817,0,0,0,0.031348,0.0037481,0.010529,3.7963,0.015208,0.024912,6.0016e-07,0.25,0.36,0
0.012696,0.0026785,0.031272,0.0036818,0.010486,0.0017961,0,0,0.054043,-0.017691,0,0.0093397,0,0,0,0.031388,0.0035653,0.010486,3.709,0.015147,0.025089,6.0784e-07,0.26,0.36,0
0.013238,0.0027403,0.031309,0.0035076,0.010445,0.0017708,0,0,0.054246,-0.018037,0,0.0092082,0,0,0,0.031421,0.0033953,0.010445,3.6299,0.015087,0.02525,6.147e-07,0.27,0.36,0
0.013781,0.0027984,0.031338,0.0033466,0.010405,0.0017476,0,0,0.054424,-0.018353,0,0.0090876,0,0,0,0.031446,0.0032379,0.010405,3.5588,0.01503,0.025395,6.2073e-07,0.28,0.36,0
0.014326,0.0028528,0.031358,0.0031986,0.010367,0.0017265,0,0,0.054578,-0.018638,0,0.0089777,0,0,0,0.031464,0.0030931,0.010367,3.4954,0.014975,0.025524,6.2591e-07,0.29,0.36,0
0.014873,0.0029035,0.031371,0.0030633,0.01033,0.0017074,0,0,0.054706,-0.018894,0,0.0088782,0,0,0,0.031474,0.0029607,0.01033,3.4391,0.014922,0.025635,6.3024e-07,0.3,0.36,0
0.01542,0.0029503,0.031375,0.0029405,0.010295,0.0016901,0,0,0.054809,-0.019121,0,0.0087884,0,0,0,0.031475,0.0028404,0.010295,3.3896,0.01487,0.025731,6.337e-07,0.31,0.36,0
0.015969,0.0029931,0.031371,0.00283,0.01026,0.0016745,0,0,0.054887,-0.019318,0,0.0087072,0,0,0,0.031468,0.0027321,0.01026,3.3462,0.01482,0.025809,6.3629e-07,0.32,0.36,0
0.016518,0.0030319,0.031357,0.0027313,0.010226,0.0016602,0,0,0.05494,-0.019488,0,0.0086332,0,0,0,0.031453,0.0026353,0.010226,3.3082,0.014772,0.025871,6.3801e-07,0.33,0.36,0
0.017068,0.0030665,0.031335,0.0026438,0.010193,0.001647,0,0,0.054967,-0.019629,0,0.0085644,0,0,0,0.031429,0.0025496,0.010193,3.2748,0.014724,0.025917,6.3883e-07,0.34,0.36,0
0.017617,0.0030968,0.031303,0.0025671,0.010161,0.0016344,0,0,0.054969,-0.019744,0,0.0084987,0,0,0,0.031395,0.0024744,0.010161,3.2448,0.014677,0.025946,6.3878e-07,0.35,0.36,0
0.018167,0.0031226,0.031261,0.0025002,0.010128,0.0016218,0,0,0.054945,-0.019833,0,0.0084333,0,0,0,0.031352,0.002409,0.010128,3.2172,0.01463,0.025959,6.3785e-07,0.36,0.36,0
0.018716,0.0031437,0.03121,0.0024422,0.010096,0.0016087,0,0,0.054897,-0.019899,0,0.0083652,0,0,0,0.0313,0.0023525,0.010096,3.1907,0.014582,0.025957,6.3606e-07,0.37,0.36,0
0.019265,0.0031599,0.031148,0.0023919,0.010062,0.0015944,0,0,0.054825,-0.019943,0,0.0082908,0,0,0,0.031237,0.0023038,0.010062,3.1638,0.014534,0.025939,6.3342e-07,0.38,0.36,0
0.019813,0.0031709,0.031077,0.002348,0.010027,0.0015782,0,0,0.054729,-0.019967,0,0.0082065,0,0,0,0.031164,0.0022615,0.010027,3.1348,0.014484,0.025907,6.2996e-07,0.39,0.36,0
0.020359,0.0031765,0.030995,0.0023085,0.0099911,0.0015593,0,0,0.054611,-0.019975,0,0.0081082,0,0,0,0.03108,0.002224,0.0099911,3.1022,0.014432,0.025862,6.2573e-07,0.4,0.36,0
0.020905,0.0031763,0.030903,0.0022714,0.0099523,0.001537,0,0,0.054472,-0.01997,0,0.0079922,0,0,0,0.030985,0.0021892,0.0099523,3.064,0.014376,0.025806,6.2078e-07,0.41,0.36,0
0.021449,0.0031699,0.0308,0.0022342,0.0099103,0.0015105,0,0,0.054314,-0.019958,0,0.0078547,0,0,0,0.03088,0.0021545,0.0099103,3.0185,0.014315,0.025739,6.1518e-07,0.42,0.36,0
0.021991,0.0031571,0.030687,0.0021937,0.0098643,0.0014794,0,0,0.05414,-0.019944,0,0.0076927,0,0,0,0.030764,0.0021171,0.0098643,2.9641,0.014249,0.025666,6.0904e-07,0.43,0.36,0
0.022532,0.0031374,0.030564,0.0021463,0.0098132,0.0014432,0,0,0.053953,-0.019934,0,0.0075044,0,0,0,0.030638,0.0020732,0.0098132,2.8997,0.014175,0.025588,6.0247e-07,0.44,0.36,0
0.02307,0.0031103,0.030432,0.0020879,0.0097559,0.0014019,0,0,0.053757,-0.019937,0,0.0072898,0,0,0,0.030501,0.0020187,0.0097559,2.8247,0.014092,0.025509,5.9558e-07,0.45,0.36,0
0.023607,0.0030755,0.030289,0.0020137,0.0096909,0.001356,0,0,0.053556,-0.019961,0,0.0070514,0,0,0,0.030354,0.0019489,0.0096909,2.7394,0.013998,0.025434,5.8855e-07,0.46,0.36,0
0.024141,0.0030327,0.030138,0.0019186,0.0096168,0.0013067,0,0,0.053354,-0.020015,0,0.0067949,0,0,0,0.030198,0.0018582,0.0096168,2.6456,0.013891,0.025367,5.815e-07,0.47,0.36,0
0.024674,0.0029816,0.029976,0.0017969,0.0095319,0.0012558,0,0,0.053155,-0.020111,0,0.0065301,0,0,0,0.030032,0.001741,0.0095319,2.5466,0.013768,0.025312,5.7458e-07,0.48,0.36,0
0.025205,0.0029218,0.029805,0.0016428,0.0094343,0.001206,0,0,0.052964,-0.020258,0,0.0062712,0,0,0,0.029857,0.0015912,0.0094343,2.4476,0.013627,0.025274,5.679e-07,0.49,0.36,0
0.025733,0.0028535,0.029623,0.0014504,0.009322,0.0011613,0,0,0.052783,-0.020466,0,0.0060386,0,0,0,0.029671,0.0014026,0.009322,2.3564,0.013465,0.025257,5.6155e-07,0.5,0.36,0
0.02626,0.0027766,0.029428,0.0012136,0.0091926,0.0011269,0,0,0.052613,-0.020745,0,0.0058597,0,0,0,0.029473,0.0011687,0.0091926,2.2835,0.013278,0.025267,5.5555e-07,0.51,0.36,0
0.026786,0.0026918,0.029219,0.00092817,0.009044,0.00111,0,0,0.052454,-0.021101,0,0.0057721,0,0,0,0.029262,0.00088468,0.009044,2.2435,0.013064,0.025304,5.4982e-07,0.52,0.36,0
0.027309,0.0025998,0.028989,0.0005905,0.0088739,0.0011193,0,0,0.0523,-0.021537,0,0.0058201,0,0,0,0.029033,0.00054645,0.0088739,2.2535,0.012818,0.02537,5.4414e-07,0.53,0.36,0
0.027831,0.0025018,0.02874,0.00020552,0.0086835,0.0011668,0,0,0.052146,-0.022043,0,0.0060674,0,0,0,0.028787,0.00015789,0.0086835,2.3377,0.012543,0.025461,5.3836e-07,0.54,0.36,0
0.028352,0.0023999,0.028451,-0.00023319,0.0084652,0.0012674,0,0,0.051962,-0.022616,0,0.0065907,0,0,0,0.028507,-0.00028908,0.0084652,2.5252,0.012228,0.025568,5.3153e-07,0.55,0.36,0
0.028871,0.002297,0.02809,-0.00069888,0.0082172,0.0014462,0,0,0.051668,-0.023182,0,0.0075201,0,0,0,0.028162,-0.00077135,0.0082172,2.8686,0.011869,0.025649,5.2152e-07,0.56,0.36,0
0.029386,0.0021963,0.02763,-0.001101,0.0079586,0.0016965,0,0,0.051145,-0.023555,0,0.0088216,0,0,0,0.02773,-0.0012009,0.0079586,3.3676,0.011496,0.02561,5.055e-07,0.57,0.36,0
0.029894,0.0021004,0.02699,-0.0014123,0.0076734,0.0019424,0,0,0.050224,-0.023623,0,0.010101,0,0,0,0.027122,-0.0015445,0.0076734,3.8942,0.011084,0.025348,4.7893e-07,0.58,0.36,0
0.03039,0.0020068,0.02644,-0.0015023,0.0074814,0.002146,0,0,0.049293,-0.023358,0,0.011159,0,0,0,0.026604,-0.0016662,0.0074814,4.3661,0.010807,0.024986,4.5427e-07,0.59,0.36,0
0.03088,0.0019179,0.025706,-0.0021254,0.0070742,0.0022788,0,0,0.048443,-0.023919,0,0.01185,0,0,0,0.025892,-0.0023108,0.0070742,4.6499,0.010218,0.024875,4.2809e-07,0.6,0.36,0
0.031359,0.0018469,0.024808,-0.0025765,0.0066695,0.0027149,0,0,0.047161,-0.02404,0,0.014117,0,0,0,0.025075,-0.0028431,0.0066695,5.6076,0.0096337,0.024583,3.9596e-07,0.61,0.36,0
0.031823,0.0018017,0.023608,-0.0020548,0.0064661,0.0028838,0,0,0.04457,-0.022154,0,0.014996,0,0,0,0.023928,-0.0023748,0.0064661,6.3331,0.0093399,0.023183,3.4053e-07,0.62,0.36,0
0.03225,0.0017509,0.022574,-0.0017546,0.006246,0.0031018,0,0,0.042454,-0.020801,0,0.01613,0,0,0,0.022964,-0.0021438,0.006246,7.1525,0.0090219,0.022139,2.9963e-07,0.63,0.36,0
0.032672,0.0017067,0.021745,-0.0016385,0.0060321,0.0024184,0,0,0.040855,-0.019943,0,0.012576,0,0,0,0.021993,-0.001886,0.0060321,5.8433,0.008713,0.021067,2.6164e-07,0.64,0.36,0
0.033067,0.0016936,0.02084,-0.0014016,0.0058314,0.0019285,0,0,0.039021,-0.018806,0,0.010028,0,0,0,0.021006,-0.0015675,0.0058314,4.919,0.0084232,0.019932,2.259e-07,0.65,0.36,0
0.033452,0.0016875,0.020507,-0.001291,0.0057648,0.0013715,0,0,0.03833,-0.018345,0,0.007132,0,0,0,0.020593,-0.001377,0.0057648,3.5862,0.0083269,0.019411,2.1145e-07,0.66,0.36,0
0.033834,0.0016842,0.020428,-0.0012117,0.0057647,0.0008853,0,0,0.038123,-0.018139,0,0.0046035,0,0,0,0.020464,-0.0012479,0.0057647,2.3389,0.0083268,0.019191,2.0644e-07,0.67,0.36,0
0.034215,0.0016832,0.020403,-0.0011805,0.0057666,0.00044829,0,0,0.038053,-0.018062,0,0.0023311,0,0,0,0.020412,-0.0011898,0.0057666,1.1894,0.0083296,0.019099,2.0439e-07,0.68,0.36,0
0.034595,0.0016842,0.02039,-0.0011905,0.0057598,2.7528e-05,0,0,0.038038,-0.018071,0,0.00014315,0,0,0,0.02039,-0.0011906,0.0057598,0.073087,0.0083197,0.01908,2.0375e-07,0.69,0.36,0
0.034975,0.0016872,0.020388,-0.0012421,0.0057438,-0.00040754,0,0,0.038075,-0.018163,0,-0.0021192,0,0,0,0.020396,-0.0012498,0.0057438,-1.079,0.0082967,0.019133,2.0445e-07,0.7,0.36,0
0.035357,0.0016924,0.020437,-0.0013428,0.0057284,-0.00089059,0,0,0.038243,-0.018385,0,-0.0046311,0,0,0,0.020474,-0.0013791,0.0057284,-2.3376,0.0082743,0.019307,2.0789e-07,0.71,0.36,0
0.03574,0.0017004,0.020733,-0.0014764,0.005777,-0.001446,0,0,0.038886,-0.018859,0,-0.0075193,0,0,0,0.020827,-0.0015701,0.005777,-3.7096,0.0083445,0.019775,2.2032e-07,0.72,0.36,0
0.036134,0.001715,0.021611,-0.0017374,0.0059622,-0.0019362,0,0,0.040688,-0.020019,0,-0.010068,0,0,0,0.021771,-0.0018969,0.0059622,-4.7083,0.0086121,0.020879,2.5407e-07,0.73,0.36,0
0.036554,0.0017608,0.0224,-0.0019318,0.0061404,-0.002612,0,0,0.042274,-0.020987,0,-0.013583,0,0,0,0.022677,-0.002209,0.0061404,-6.0588,0.0088694,0.021937,2.8944e-07,0.74,0.36,0
0.03698,0.001815,0.023427,-0.002204,0.0063668,-0.0023957,0,0,0.044356,-0.022284,0,-0.012458,0,0,0,0.023649,-0.002426,0.0063668,-5.2943,0.0091965,0.022977,3.2956e-07,0.75,0.36,0
0.037441,0.0018639,0.024604,-0.0027811,0.0065467,-0.0022266,0,0,0.046948,-0.024252,0,-0.011579,0,0,0,0.024783,-0.0029609,0.0065467,-4.6183,0.0094564,0.024421,3.8396e-07,0.76,0.36,0
0.037919,0.001939,0.025498,-0.0023914,0.0069321,-0.001772,0,0,0.048272,-0.024241,0,-0.0092146,0,0,0,0.02561,-0.0025035,0.0069321,-3.621,0.010013,0.024782,4.1704e-07,0.77,0.36,0
0.038407,0.0020336,0.026235,-0.0017887,0.0073339,-0.0016063,0,0,0.049143,-0.023719,0,-0.0083526,0,0,0,0.026327,-0.0018805,0.0073339,-3.2698,0.010593,0.024913,4.4354e-07,0.78,0.36,0
0.038902,0.0021345,0.026782,-0.0017114,0.0075211,-0.0013724,0,0,0.050078,-0.024005,0,-0.0071363,0,0,0,0.026848,-0.0017774,0.0075211,-2.7511,0.010864,0.025292,4.683e-07,0.79,0.36,0
0.039408,0.002239,0.027415,-0.0014189,0.0077989,-0.0010918,0,0,0.051003,-0.023966,0,-0.0056771,0,0,0,0.027457,-0.0014602,0.0077989,-2.1652,0.011265,0.025577,4.9519e-07,0.8,0.36,0
0.039922,0.0023498,0.027872,-0.0010276,0.0080534,-0.00080181,0,0,0.051529,-0.023611,0,-0.0041694,0,0,0,0.027894,-0.0010498,0.0080534,-1.588,0.011633,0.025635,5.1183e-07,0.81,0.36,0
0.040439,0.0024641,0.028227,-0.0005651,0.0082986,-0.00057993,0,0,0.051814,-0.023046,0,-0.0030156,0,0,0,0.028239,-0.00057678,0.0082986,-1.1534,0.011987,0.025561,5.2217e-07,0.82,0.36,0
0.040958,0.0025789,0.028507,-0.00012322,0.0085152,-0.00043555,0,0,0.051979,-0.02246,0,-0.0022649,0,0,0,0.028514,-0.00012984,0.0085152,-0.87137,0.0123,0.025447,5.2884e-07,0.83,0.36,0
0.041478,0.0026909,0.028745,0.00026785,0.0087039,-0.00034493,0,0,0.052107,-0.021934,0,-0.0017937,0,0,0,0.028749,0.00026367,0.0087039,-0.69386,0.012572,0.025343,5.3407e-07,0.84,0.36,0
0.042,0.002798,0.028961,0.00061219,0.008872,-0.00029347,0,0,0.052232,-0.021475,0,-0.001526,0,0,0,0.028964,0.00060915,0.008872,-0.59304,0.012815,0.025258,5.389e-07,0.85,0.36,0
0.042523,0.0028989,0.029156,0.00090325,0.0090177,-0.00026856,0,0,0.052359,-0.021098,0,-0.0013965,0,0,0,0.029158,0.0009007,0.0090177,-0.54457,0.013026,0.025199,5.4358e-07,0.86,0.36,0
0.043047,0.0029925,0.029335,0.0011431,0.0091433,-0.00026115,0,0,0.052497,-0.0208,0,-0.001358,0,0,0,0.029337,0.0011407,0.0091433,-0.53069,0.013207,0.025168,5.4839e-07,0.87,0.36,0
0.043573,0.0030782,0.0295,0.0013355,0.0092506,-0.00026334,0,0,0.052648,-0.020579,0,-0.0013694,0,0,0,0.029502,0.001333,0.0092506,-0.53566,0.013362,0.025163,5.5346e-07,0.88,0.36,0
0.0441,0.0031558,0.029653,0.0014857,0.0093417,-0.00026922,0,0,0.05281,-0.020426,0,-0.0014,0,0,0,0.029656,0.0014831,0.0093417,-0.54756,0.013494,0.025181,5.5882e-07,0.89,0.36,0
0.044629,0.0032254,0.029796,0.0015996,0.0094186,-0.00027437,0,0,0.052981,-0.020329,0,-0.0014267,0,0,0,0.029798,0.0015969,0.0094186,-0.55745,0.013605,0.025217,5.6438e-07,0.9,0.36,0
0.04516,0.003287,0.029927,0.001683,0.009483,-0.00027561,0,0,0.053154,-0.02028,0,-0.0014332,0,0,0,0.02993,0.0016803,0.009483,-0.55902,0.013698,0.025268,5.7004e-07,0.91,0.36,0
0.045692,0.0033408,0.030047,0.0017415,0.0095365,-0.00027083,0,0,0.053327,-0.020267,0,-0.0014083,0,0,0,0.030049,0.0017389,0.0095365,-0.54814,0.013775,0.025329,5.7565e-07,0.92,0.36,0
0.046226,0.0033873,0.030155,0.0017805,0.0095806,-0.00025884,0,0,0.053493,-0.02028,0,-0.001346,0,0,0,0.030157,0.0017781,0.0095806,-0.52261,0.013839,0.025393,5.8105e-07,0.93,0.36,0
0.046762,0.0034267,0.03025,0.0018047,0.0096164,-0.00023922,0,0,0.053647,-0.02031,0,-0.001244,0,0,0,0.030252,0.0018027,0.0096164,-0.48181,0.01389,0.025458,5.8608e-07,0.94,0.36,0
0.047299,0.0034593,0.030332,0.0018184,0.0096451,-0.0002122,0,0,0.053785,-0.020349,0,-0.0011035,0,0,0,0.030333,0.0018168,0.0096451,-0.42638,0.013932,0.025519,5.9059e-07,0.95,0.36,0
0.047838,0.0034856,0.0304,0.001825,0.0096674,-0.00017847,0,0,0.053904,-0.02039,0,-0.00092805,0,0,0,0.030401,0.0018239,0.0096674,-0.35784,0.013964,0.025574,5.9446e-07,0.96,0.36,0
0.048377,0.0035057,0.030453,0.0018273,0.009684,-0.00013906,0,0,0.053999,-0.020428,0,-0.00072311,0,0,0,0.030454,0.0018266,0.009684,-0.27833,0.013988,0.025618,5.9757e-07,0.97,0.36,0
0.048918,0.0035199,0.030491,0.0018275,0.0096956,-9.5226e-05,0,0,0.054068,-0.020457,0,-0.00049518,0,0,0,0.030492,0.0018272,0.0096956,-0.19034,0.014005,0.025652,5.9985e-07,0.98,0.36,0
0.049459,0.0035283,0.030514,0.001827,0.0097024,-4.8377e-05,0,0,0.054111,-0.020476,0,-0.00025156,0,0,0,0.030514,0.0018269,0.0097024,-0.09662,0.014015,0.025672,6.0125e-07,0.99,0.36,0
0.05,0.0035311,0.030522,0.0018268,0.0097046,5.3926e-05,0,0,0.054125,-0.020482,0,0.00028042,0,0,0,0.030522,0.0018267,0.0097046,0.10768,0.014018,0.025679,6.0172e-07,1,0.36,0
0,0,0.028398,0.012171,0.012171,0.0023933,0,0,0.042191,5.421e-20,0,0.012445,0,0,0,0.028743,0.011825,0.012171,8.2174,0.01758,0.016748,2.4095e-07,0,0.37,0
0.00042191,0.00012445,0.028356,0.011677,0.01201,0.0023902,0,0,0.042499,-0.00086498,0,0.012429,0,0,0,0.028692,0.011341,0.01201,7.9967,0.017348,0.017026,2.5216e-07,0.01,0.37,0
0.00084999,0.00024697,0.028521,0.011275,0.011939,0.0023691,0,0,0.043115,-0.0017263,0,0.01232,0,0,0,0.028841,0.010955,0.011939,7.6811,0.017245,0.017415,2.6833e-07,0.02,0.37,0
0.0012842,0.00036757,0.028686,0.010875,0.011868,0.0023487,0,0,0.043726,-0.0025828,0,0.012213,0,0,0,0.028991,0.01057,0.011868,7.3871,0.017143,0.017807,2.848e-07,0.03,0.37,0
0.0017245,0.00048627,0.02885,0.010478,0.011798,0.0023283,0,0,0.044333,-0.0034332,0,0.012107,0,0,0,0.02914,0.010187,0.011798,7.1116,0.017042,0.018201,3.015e-07,0.04,0.37,0
0.0021709,0.00060306,0.029011,0.010084,0.011729,0.0023078,0,0,0.044935,-0.004276,0,0.012,0,0,0,0.029289,0.0098066,0.011729,6.8522,0.016941,0.018596,3.184e-07,0.05,0.37,0
0.0026232,0.00071791,0.029171,0.0096942,0.01166,0.0022866,0,0,0.04553,-0.0051098,0,0.01189,0,0,0,0.029436,0.0094294,0.01166,6.6068,0.016842,0.01899,3.3541e-07,0.06,0.37,0
0.0030815,0.00083076,0.029328,0.0093093,0.011591,0.0022645,0,0,0.046116,-0.0059331,0,0.011775,0,0,0,0.029581,0.0090564,0.011591,6.3739,0.016743,0.019382,3.5249e-07,0.07,0.37,0
0.0035455,0.00094157,0.029483,0.0089298,0.011524,0.0022414,0,0,0.046693,-0.0067443,0,0.011655,0,0,0,0.029724,0.0086882,0.011524,6.152,0.016646,0.019772,3.6958e-07,0.08,0.37,0
0.0040153,0.0010503,0.029634,0.0085565,0.011457,0.0022171,0,0,0.04726,-0.0075418,0,0.011529,0,0,0,0.029865,0.0083258,0.011457,5.9402,0.016549,0.020157,3.866e-07,0.09,0.37,0
0.0044907,0.0011568,0.029782,0.00819,0.011392,0.0021916,0,0,0.047815,-0.008324,0,0.011396,0,0,0,0.030002,0.0079698,0.011392,5.7376,0.016454,0.020536,4.0351e-07,0.1,0.37,0
0.0049716,0.001261,0.029925,0.0078309,0.011327,0.0021649,0,0,0.048356,-0.0090895,0,0.011258,0,0,0,0.030135,0.0076208,0.011327,5.5438,0.016361,0.02091,4.2023e-07,0.11,0.37,0
0.0054579,0.0013629,0.030065,0.0074801,0.011263,0.0021371,0,0,0.048883,-0.0098367,0,0.011113,0,0,0,0.030265,0.0072797,0.011263,5.3583,0.016269,0.021275,4.3671e-07,0.12,0.37,0
0.0059493,0.0014624,0.030199,0.007138,0.011201,0.0021083,0,0,0.049395,-0.010564,0,0.010963,0,0,0,0.030391,0.0069469,0.011201,5.1808,0.016179,0.021632,4.5289e-07,0.13,0.37,0
0.0064458,0.0015594,0.030329,0.0068054,0.01114,0.0020787,0,0,0.04989,-0.011271,0,0.010809,0,0,0,0.030511,0.0066231,0.01114,5.0113,0.016092,0.02198,4.6871e-07,0.14,0.37,0
0.0069471,0.0016538,0.030453,0.0064827,0.011081,0.0020485,0,0,0.050368,-0.011955,0,0.010652,0,0,0,0.030627,0.0063089,0.011081,4.8496,0.016005,0.022318,4.8413e-07,0.15,0.37,0
0.0074531,0.0017455,0.030572,0.0061705,0.011023,0.0020179,0,0,0.050828,-0.012616,0,0.010493,0,0,0,0.030738,0.0060047,0.011023,4.6957,0.015922,0.022645,4.9908e-07,0.16,0.37,0
0.0079637,0.0018344,0.030685,0.0058692,0.010966,0.0019872,0,0,0.051268,-0.013252,0,0.010334,0,0,0,0.030843,0.005711,0.010966,4.5497,0.01584,0.02296,5.1354e-07,0.17,0.37,0
0.0084785,0.0019206,0.030791,0.0055793,0.010911,0.0019568,0,0,0.051689,-0.013863,0,0.010175,0,0,0,0.030942,0.0054283,0.010911,4.4116,0.015761,0.023262,5.2744e-07,0.18,0.37,0
0.0089974,0.0020038,0.030892,0.0053011,0.010858,0.0019267,0,0,0.052089,-0.014448,0,0.010019,0,0,0,0.031036,0.0051568,0.010858,4.2816,0.015684,0.023552,5.4076e-07,0.19,0.37,0
0.0095203,0.0020842,0.030986,0.005035,0.010806,0.0018974,0,0,0.052467,-0.015005,0,0.0098666,0,0,0,0.031124,0.004897,0.010806,4.1597,0.015609,0.023828,5.5345e-07,0.2,0.37,0
0.010047,0.0021615,0.031074,0.0047812,0.010756,0.0018691,0,0,0.052825,-0.015536,0,0.0097195,0,0,0,0.031206,0.004649,0.010756,4.0461,0.015537,0.024091,5.655e-07,0.21,0.37,0
0.010577,0.0022357,0.031154,0.0045401,0.010708,0.0018421,0,0,0.05316,-0.016037,0,0.0095791,0,0,0,0.031281,0.0044132,0.010708,3.9407,0.015468,0.024339,5.7685e-07,0.22,0.37,0
0.01111,0.0023069,0.031228,0.0043117,0.010662,0.0018166,0,0,0.053472,-0.016511,0,0.0094465,0,0,0,0.03135,0.0041896,0.010662,3.8438,0.015401,0.024572,5.875e-07,0.23,0.37,0
0.011646,0.0023749,0.031295,0.0040962,0.010617,0.0017929,0,0,0.053762,-0.016955,0,0.009323,0,0,0,0.031413,0.0039785,0.010617,3.7551,0.015336,0.024791,5.9741e-07,0.24,0.37,0
0.012185,0.0024398,0.031355,0.0038938,0.010575,0.001771,0,0,0.054029,-0.01737,0,0.0092094,0,0,0,0.031469,0.00378,0.010575,3.6749,0.015274,0.024994,6.0657e-07,0.25,0.37,0
0.012727,0.0025013,0.031407,0.0037044,0.010533,0.0017513,0,0,0.054272,-0.017756,0,0.0091065,0,0,0,0.031517,0.0035941,0.010533,3.6029,0.015215,0.025181,6.1495e-07,0.26,0.37,0
0.013271,0.0025596,0.031452,0.0035281,0.010494,0.0017336,0,0,0.054491,-0.018111,0,0.009015,0,0,0,0.031559,0.0034209,0.010494,3.5391,0.015158,0.025353,6.2253e-07,0.27,0.37,0
0.013817,0.0026145,0.03149,0.0033649,0.010456,0.0017183,0,0,0.054686,-0.018438,0,0.008935,0,0,0,0.031594,0.0032603,0.010456,3.4832,0.015104,0.025509,6.2931e-07,0.28,0.37,0
0.014364,0.002666,0.031519,0.0032147,0.01042,0.0017051,0,0,0.054858,-0.018734,0,0.0088666,0,0,0,0.031622,0.0031124,0.01042,3.435,0.015051,0.025648,6.3526e-07,0.29,0.37,0
0.014914,0.002714,0.031541,0.0030774,0.010386,0.0016942,0,0,0.055004,-0.019001,0,0.0088096,0,0,0,0.031642,0.0029769,0.010386,3.3943,0.015001,0.025772,6.4037e-07,0.3,0.37,0
0.015465,0.0027585,0.031555,0.0029528,0.010352,0.0016852,0,0,0.055127,-0.019239,0,0.0087633,0,0,0,0.031654,0.0028538,0.010352,3.3604,0.014953,0.025879,6.4463e-07,0.31,0.37,0
0.016016,0.0027993,0.03156,0.0028406,0.01032,0.0016782,0,0,0.055224,-0.019447,0,0.0087268,0,0,0,0.031658,0.0027428,0.01032,3.3329,0.014907,0.025969,6.4802e-07,0.32,0.37,0
0.016569,0.0028364,0.031557,0.0027405,0.010289,0.0016728,0,0,0.055296,-0.019627,0,0.0086986,0,0,0,0.031654,0.0026437,0.010289,3.3112,0.014862,0.026043,6.5053e-07,0.33,0.37,0
0.017122,0.0028695,0.031545,0.0026521,0.010259,0.0016687,0,0,0.055343,-0.019778,0,0.008677,0,0,0,0.031641,0.002556,0.010259,3.2944,0.014819,0.0261,6.5216e-07,0.34,0.37,0
0.017676,0.0028986,0.031524,0.0025748,0.01023,0.0016653,0,0,0.055365,-0.019902,0,0.0086598,0,0,0,0.031619,0.0024793,0.01023,3.2816,0.014776,0.026141,6.529e-07,0.35,0.37,0
0.018229,0.0029235,0.031493,0.002508,0.0102,0.0016624,0,0,0.055361,-0.02,0,0.0086443,0,0,0,0.031588,0.002413,0.0102,3.2718,0.014734,0.026166,6.5275e-07,0.36,0.37,0
0.018783,0.0029439,0.031453,0.0024507,0.010171,0.0016591,0,0,0.055333,-0.020073,0,0.0086274,0,0,0,0.031548,0.0023561,0.010171,3.2635,0.014692,0.026174,6.5171e-07,0.37,0.37,0
0.019336,0.0029596,0.031403,0.0024019,0.010141,0.0016549,0,0,0.05528,-0.020123,0,0.0086054,0,0,0,0.031497,0.0023077,0.010141,3.2554,0.014649,0.026167,6.498e-07,0.38,0.37,0
0.019889,0.0029704,0.031343,0.0023601,0.010111,0.0016489,0,0,0.055203,-0.020152,0,0.0085743,0,0,0,0.031436,0.0022666,0.010111,3.2458,0.014604,0.026145,6.4704e-07,0.39,0.37,0
0.02044,0.0029759,0.031272,0.0023237,0.010079,0.0016404,0,0,0.055103,-0.020163,0,0.0085301,0,0,0,0.031365,0.002231,0.010079,3.2329,0.014558,0.02611,6.4347e-07,0.4,0.37,0
0.020991,0.0029757,0.031191,0.0022904,0.010044,0.0016285,0,0,0.054982,-0.020161,0,0.0084682,0,0,0,0.031283,0.0021989,0.010044,3.2149,0.014509,0.026062,6.3913e-07,0.41,0.37,0
0.02154,0.0029695,0.0311,0.0022577,0.010007,0.0016124,0,0,0.054841,-0.020149,0,0.0083844,0,0,0,0.03119,0.0021678,0.010007,3.1898,0.014455,0.026004,6.3412e-07,0.42,0.37,0
0.022087,0.0029568,0.030998,0.0022223,0.0099662,0.0015914,0,0,0.054684,-0.020134,0,0.0082753,0,0,0,0.031086,0.0021345,0.0099662,3.1558,0.014396,0.025938,6.2851e-07,0.43,0.37,0
0.022634,0.0029372,0.030887,0.0021804,0.0099203,0.001565,0,0,0.054514,-0.020124,0,0.0081382,0,0,0,0.030972,0.0020953,0.0099203,3.1114,0.014329,0.025868,6.2244e-07,0.44,0.37,0
0.023178,0.0029101,0.030766,0.0021272,0.009868,0.0015332,0,0,0.054335,-0.020126,0,0.0079728,0,0,0,0.030848,0.0020454,0.009868,3.0558,0.014254,0.025797,6.1606e-07,0.45,0.37,0
0.02372,0.0028751,0.030636,0.0020576,0.0098081,0.0014965,0,0,0.054153,-0.020151,0,0.0077817,0,0,0,0.030714,0.0019794,0.0098081,2.9894,0.014167,0.02573,6.0954e-07,0.46,0.37,0
0.024261,0.0028317,0.030497,0.0019653,0.0097386,0.0014561,0,0,0.053971,-0.020211,0,0.0075716,0,0,0,0.030571,0.0018912,0.0097386,2.9139,0.014067,0.025672,6.0306e-07,0.47,0.37,0
0.0248,0.0027796,0.030349,0.0018439,0.0096578,0.0014142,0,0,0.053796,-0.020316,0,0.0073541,0,0,0,0.030419,0.0017739,0.0096578,2.8334,0.01395,0.025629,5.9679e-07,0.48,0.37,0
0.025337,0.0027183,0.030191,0.0016866,0.0095633,0.0013743,0,0,0.053632,-0.020479,0,0.0071462,0,0,0,0.030257,0.0016205,0.0095633,2.7538,0.013814,0.025607,5.9087e-07,0.49,0.37,0
0.025872,0.0026478,0.030023,0.0014861,0.0094526,0.0013406,0,0,0.053482,-0.020713,0,0.0069709,0,0,0,0.030085,0.0014232,0.0094526,2.6837,0.013654,0.02561,5.854e-07,0.5,0.37,0
0.026406,0.002568,0.029842,0.0012349,0.0093229,0.0013195,0,0,0.053349,-0.021029,0,0.0068612,0,0,0,0.029902,0.0011741,0.0093229,2.6353,0.013466,0.025644,5.8044e-07,0.51,0.37,0
0.026939,0.0024794,0.029643,0.00092417,0.0091702,0.0013193,0,0,0.053229,-0.02144,0,0.0068605,0,0,0,0.029704,0.00086368,0.0091702,2.6248,0.013246,0.025713,5.7586e-07,0.52,0.37,0
0.027471,0.0023827,0.029423,0.00055238,0.0089928,0.0013526,0,0,0.05312,-0.021945,0,0.0070335,0,0,0,0.029487,0.00048915,0.0089928,2.6765,0.01299,0.025818,5.7148e-07,0.53,0.37,0
0.028002,0.0022793,0.029168,0.00011297,0.0087844,0.0014279,0,0,0.052998,-0.022546,0,0.007425,0,0,0,0.029238,4.2973e-05,0.0087844,2.8067,0.012689,0.025953,5.6653e-07,0.54,0.37,0
0.028531,0.002171,0.028912,-0.00035845,0.0085661,0.0015673,0,0,0.0529,-0.023204,0,0.0081498,0,0,0,0.028996,-0.00044213,0.0085661,3.0562,0.012373,0.026126,5.6233e-07,0.55,0.37,0
0.02906,0.0020615,0.028581,-0.00094766,0.0082902,0.0017924,0,0,0.052757,-0.024018,0,0.0093204,0,0,0,0.02869,-0.0010561,0.0082902,3.4609,0.011975,0.026347,5.5644e-07,0.56,0.37,0
0.029586,0.0019567,0.028095,-0.0015351,0.0079679,0.0021843,0,0,0.05233,-0.024708,0,0.011358,0,0,0,0.028255,-0.0016953,0.0079679,4.1936,0.011509,0.026476,5.4293e-07,0.57,0.37,0
0.030106,0.00186,0.027554,-0.0017087,0.0077537,0.002659,0,0,0.051482,-0.024602,0,0.013827,0,0,0,0.027794,-0.0019484,0.0077537,5.15,0.0112,0.026271,5.2133e-07,0.58,0.37,0
0.030616,0.0017734,0.026241,-0.0021485,0.0072278,0.0029621,0,0,0.049435,-0.024378,0,0.015403,0,0,0,0.026547,-0.0024543,0.0072278,5.8936,0.01044,0.025574,4.6258e-07,0.59,0.37,0
0.031095,0.001677,0.025367,-0.0023589,0.0069023,0.0036896,0,0,0.048007,-0.024079,0,0.019186,0,0,0,0.025849,-0.0028415,0.0069023,7.4519,0.00997,0.025269,4.3271e-07,0.6,0.37,0
0.031576,0.0016018,0.025044,-0.0019634,0.0069242,0.0033533,0,0,0.047112,-0.023108,0,0.017437,0,0,0,0.025454,-0.0023735,0.0069242,6.9728,0.010002,0.024538,4.0804e-07,0.61,0.37,0
0.032037,0.0015778,0.025201,-0.0010732,0.0072383,0.003003,0,0,0.046703,-0.02161,0,0.015616,0,0,0,0.02554,-0.001412,0.0072383,6.4381,0.010455,0.023835,3.993e-07,0.62,0.37,0
0.03251,0.0015498,0.028849,-0.0021639,0.0080056,0.0025057,0,0,0.037721,-0.017981,0,0.010755,0,0,0,0.02911,-0.0024244,0.0080056,5.1553,0.011564,0.027828,6.7703e-07,0.63,0.37,0
0.032839,0.0015229,0.026978,-0.0013962,0.0076744,0.002224,0,0,0.033459,-0.016386,0,0.0095804,0,0,0,0.027219,-0.0016374,0.0076744,5.2689,0.011085,0.025521,6.3959e-07,0.64,0.37,0
0.033179,0.0015186,0.027902,-0.0011116,0.0080372,0.0017619,0,0,0.034433,-0.01627,0,0.0072668,0,0,0,0.028036,-0.0012452,0.0080372,4.017,0.011609,0.025923,6.9459e-07,0.65,0.37,0
0.033528,0.0015144,0.028565,-0.00091988,0.0082936,0.0012269,0,0,0.035138,-0.016305,0,0.0050002,0,0,0,0.028628,-0.00098222,0.0082936,2.748,0.01198,0.026235,7.353e-07,0.66,0.37,0
0.033882,0.0015118,0.028899,-0.00084793,0.0084153,0.00080573,0,0,0.035505,-0.016354,0,0.0032474,0,0,0,0.028925,-0.00087396,0.0084153,1.7781,0.012155,0.026411,7.5684e-07,0.67,0.37,0
0.034238,0.0015108,0.029038,-0.00082516,0.008464,0.00042956,0,0,0.035662,-0.016384,0,0.0017022,0,0,0,0.029045,-0.00083226,0.008464,0.93096,0.012226,0.026485,7.6591e-07,0.68,0.37,0
0.034595,0.0015117,0.029028,-0.00083672,0.0084572,6.853e-05,0,0,0.035655,-0.016393,0,0.00022395,0,0,0,0.029028,-0.00083688,0.0084572,0.12366,0.012216,0.026473,7.6492e-07,0.69,0.37,0
0.034951,0.0015144,0.028865,-0.00088301,0.0083945,-0.00030368,0,0,0.035481,-0.01638,0,-0.001307,0,0,0,0.028869,-0.00088747,0.0083945,-0.71458,0.012125,0.026373,7.5376e-07,0.7,0.37,0
0.035305,0.0015188,0.028502,-0.00098004,0.0082566,-0.00071662,0,0,0.035092,-0.016347,0,-0.0030304,0,0,0,0.028526,-0.0010037,0.0082566,-1.6669,0.011926,0.026162,7.2968e-07,0.71,0.37,0
0.035653,0.0015247,0.02779,-0.0012038,0.007976,-0.0012386,0,0,0.034345,-0.016325,0,-0.0052533,0,0,0,0.027862,-0.0012757,0.007976,-2.9134,0.011521,0.025793,6.8508e-07,0.72,0.37,0
0.035992,0.0015307,0.026768,-0.001537,0.0075692,-0.0016912,0,0,0.033278,-0.016447,0,-0.0075499,0,0,0,0.026926,-0.0016952,0.0075692,-4.1723,0.010933,0.025307,6.2423e-07,0.73,0.37,0
0.036319,0.0015578,0.028528,-0.0023793,0.0078445,-0.0019283,0,0,0.037426,-0.01809,0,-0.0086309,0,0,0,0.028704,-0.0025563,0.0078445,-4.1219,0.011331,0.027575,6.5376e-07,0.74,0.37,0
0.036787,0.0015902,0.024939,-0.0012581,0.0071043,-0.0025112,0,0,0.04637,-0.021742,0,-0.013058,0,0,0,0.025178,-0.0014966,0.0071043,-5.4264,0.010262,0.023581,3.8397e-07,0.75,0.37,0
0.037246,0.0016166,0.02483,-0.0021711,0.0067978,-0.0028616,0,0,0.046885,-0.023319,0,-0.01488,0,0,0,0.025131,-0.002471,0.0067978,-5.9835,0.0098191,0.024329,3.942e-07,0.76,0.37,0
0.037725,0.0016946,0.025147,-0.0026643,0.0067448,-0.0031752,0,0,0.047846,-0.024464,0,-0.016511,0,0,0,0.025505,-0.0030222,0.0067448,-6.4311,0.0097425,0.025111,4.1819e-07,0.77,0.37,0
0.038203,0.0017964,0.026031,-0.002447,0.0070751,-0.0024249,0,0,0.049285,-0.024758,0,-0.01261,0,0,0,0.026236,-0.002652,0.0070751,-4.8325,0.01022,0.025458,4.4948e-07,0.78,0.37,0
0.038711,0.00189,0.027338,-0.0020408,0.0075893,-0.0020935,0,0,0.051348,-0.025038,0,-0.010886,0,0,0,0.027487,-0.0021892,0.0075893,-4.0555,0.010962,0.026193,5.0825e-07,0.79,0.37,0
0.03923,0.0019949,0.027892,-0.001893,0.0077997,-0.0015857,0,0,0.05224,-0.025201,0,-0.0082457,0,0,0,0.027976,-0.0019771,0.0077997,-3.0389,0.011266,0.026456,5.319e-07,0.8,0.37,0
0.039756,0.0021095,0.028386,-0.0013241,0.0081186,-0.0011487,0,0,0.052695,-0.024551,0,-0.0059733,0,0,0,0.02843,-0.0013684,0.0081186,-2.2109,0.011727,0.026368,5.4724e-07,0.81,0.37,0
0.040284,0.0022304,0.028721,-0.00073649,0.0083954,-0.00087557,0,0,0.052847,-0.023743,0,-0.004553,0,0,0,0.028747,-0.0007625,0.0083954,-1.701,0.012127,0.026162,5.5422e-07,0.82,0.37,0
0.040813,0.0023516,0.028976,-0.00026028,0.0086147,-0.00068943,0,0,0.052939,-0.023075,0,-0.003585,0,0,0,0.028992,-0.00027653,0.0086147,-1.3501,0.012443,0.02599,5.5881e-07,0.83,0.37,0
0.041343,0.0024693,0.029226,0.00018626,0.0088238,-0.00056901,0,0,0.053047,-0.022458,0,-0.0029588,0,0,0,0.029237,0.00017511,0.0088238,-1.1221,0.012745,0.025847,5.6371e-07,0.84,0.37,0
0.041874,0.0025813,0.02944,0.0005659,0.0090017,-0.00049213,0,0,0.053139,-0.021933,0,-0.0025591,0,0,0,0.029448,0.00055752,0.0090017,-0.97618,0.013003,0.02573,5.6774e-07,0.85,0.37,0
0.042405,0.0026861,0.029631,0.00088265,0.0091542,-0.0004496,0,0,0.05324,-0.021506,0,-0.0023379,0,0,0,0.029638,0.00087562,0.0091542,-0.89576,0.013223,0.025646,5.7176e-07,0.86,0.37,0
0.042938,0.0027828,0.029804,0.0011367,0.0092823,-0.00042821,0,0,0.053357,-0.021178,0,-0.0022267,0,0,0,0.029811,0.0011303,0.0092823,-0.85558,0.013408,0.025597,5.7605e-07,0.87,0.37,0
0.043472,0.0028708,0.029964,0.001336,0.0093901,-0.00041872,0,0,0.053493,-0.020941,0,-0.0021773,0,0,0,0.02997,0.0013299,0.0093901,-0.83777,0.013563,0.025581,5.808e-07,0.88,0.37,0
0.044008,0.00295,0.030113,0.0014877,0.0094801,-0.00041397,0,0,0.053645,-0.02078,0,-0.0021526,0,0,0,0.030119,0.0014817,0.0094801,-0.82837,0.013694,0.025593,5.8598e-07,0.89,0.37,0
0.044545,0.0030205,0.030251,0.0015989,0.0095549,-0.00040885,0,0,0.053809,-0.020686,0,-0.002126,0,0,0,0.030257,0.0015931,0.0095549,-0.81737,0.013802,0.025628,5.9152e-07,0.9,0.37,0
0.045084,0.0030825,0.030379,0.0016767,0.0096166,-0.0003996,0,0,0.053981,-0.020644,0,-0.0020779,0,0,0,0.030384,0.0016711,0.0096166,-0.79749,0.013891,0.025679,5.9727e-07,0.91,0.37,0
0.045625,0.0031364,0.030496,0.0017278,0.0096671,-0.00038369,0,0,0.054155,-0.020642,0,-0.0019952,0,0,0,0.030501,0.0017227,0.0096671,-0.76399,0.013964,0.025743,6.0305e-07,0.92,0.37,0
0.046167,0.0031827,0.030602,0.0017586,0.0097081,-0.00035972,0,0,0.054323,-0.020669,0,-0.0018705,0,0,0,0.030606,0.0017541,0.0097081,-0.71442,0.014023,0.025811,6.0868e-07,0.93,0.37,0
0.046712,0.0032217,0.030696,0.0017747,0.009741,-0.00032727,0,0,0.054482,-0.020712,0,-0.0017018,0,0,0,0.030699,0.001771,0.009741,-0.64825,0.01407,0.025881,6.1394e-07,0.94,0.37,0
0.047257,0.0032539,0.030776,0.0017808,0.0097671,-0.00028665,0,0,0.054623,-0.020764,0,-0.0014906,0,0,0,0.030779,0.0017779,0.0097671,-0.56636,0.014108,0.025946,6.1868e-07,0.95,0.37,0
0.047804,0.0032797,0.030843,0.0017808,0.0097871,-0.0002387,0,0,0.054745,-0.020816,0,-0.0012412,0,0,0,0.030845,0.0017789,0.0097871,-0.47055,0.014137,0.026004,6.2274e-07,0.96,0.37,0
0.048352,0.0032994,0.030895,0.0017779,0.009802,-0.0001846,0,0,0.054843,-0.020863,0,-0.00095993,0,0,0,0.030897,0.0017767,0.009802,-0.36323,0.014158,0.026051,6.2601e-07,0.97,0.37,0
0.048901,0.0033132,0.030933,0.0017742,0.0098122,-0.00012576,0,0,0.054915,-0.020899,0,-0.00065394,0,0,0,0.030934,0.0017736,0.0098122,-0.2471,0.014173,0.026087,6.2841e-07,0.98,0.37,0
0.04945,0.0033215,0.030956,0.0017713,0.0098182,-6.3691e-05,0,0,0.054958,-0.020922,0,-0.0003312,0,0,0,0.030956,0.0017712,0.0098182,-0.12504,0.014182,0.026109,6.2987e-07,0.99,0.37,0
0.05,0.0033242,0.030964,0.0017703,0.0098202,5.2546e-05,0,0,0.054973,-0.02093,0,0.00027324,0,0,0,0.030964,0.0017702,0.0098202,0.10313,0.014185,0.026116,6.3036e-07,1,0.37,0
0,0,0.028452,0.012194,0.012194,0.0022267,0,0,0.042271,-1.0842e-19,0,0.011579,0,0,0,0.028751,0.011894,0.012194,7.6592,0.017613,0.016709,2.3935e-07,0,0.38,0
0.00042271,0.00011579,0.02841,0.011698,0.012032,0.0022238,0,0,0.042581,-0.0008685,0,0.011564,0,0,0,0.028701,0.011407,0.012032,7.4516,0.01738,0.016989,2.507e-07,0.01,0.38,0
0.00085162,0.00022968,0.028576,0.011295,0.011961,0.0022035,0,0,0.043198,-0.0017322,0,0.011458,0,0,0,0.028852,0.011019,0.011961,7.1533,0.017277,0.017382,2.6704e-07,0.02,0.38,0
0.0012867,0.00034171,0.028741,0.010894,0.011891,0.0021841,0,0,0.043811,-0.0025901,0,0.011357,0,0,0,0.029005,0.010631,0.011891,6.8768,0.017175,0.017777,2.8366e-07,0.03,0.38,0
0.0017278,0.00045191,0.028905,0.010497,0.011821,0.0021652,0,0,0.04442,-0.0034411,0,0.011259,0,0,0,0.029156,0.010246,0.011821,6.6191,0.017074,0.018174,3.0052e-07,0.04,0.38,0
0.0021751,0.00056027,0.029067,0.010104,0.011751,0.0021464,0,0,0.045022,-0.0042838,0,0.011162,0,0,0,0.029307,0.0098639,0.011751,6.3777,0.016974,0.018572,3.1757e-07,0.05,0.38,0
0.0026283,0.00066678,0.029228,0.0097147,0.011683,0.0021274,0,0,0.045617,-0.0051171,0,0.011063,0,0,0,0.029457,0.0094854,0.011683,6.1504,0.016875,0.018969,3.3474e-07,0.06,0.38,0
0.0030874,0.00077141,0.029386,0.0093306,0.011615,0.0021079,0,0,0.046205,-0.0059395,0,0.010961,0,0,0,0.029605,0.0091114,0.011615,5.9356,0.016777,0.019364,3.5198e-07,0.07,0.38,0
0.0035524,0.00087411,0.029541,0.008952,0.011548,0.0020877,0,0,0.046783,-0.0067497,0,0.010856,0,0,0,0.029751,0.0087425,0.011548,5.7319,0.016681,0.019756,3.6923e-07,0.08,0.38,0
0.0040231,0.00097484,0.029694,0.0085797,0.011482,0.0020667,0,0,0.047351,-0.0075462,0,0.010747,0,0,0,0.029894,0.0083793,0.011482,5.5383,0.016585,0.020144,3.8644e-07,0.09,0.38,0
0.0044994,0.0010735,0.029843,0.0082142,0.011417,0.0020449,0,0,0.047907,-0.0083277,0,0.010634,0,0,0,0.030035,0.0080226,0.011417,5.3539,0.016491,0.020526,4.0354e-07,0.1,0.38,0
0.0049812,0.0011701,0.029989,0.0078562,0.011353,0.0020223,0,0,0.048451,-0.0090927,0,0.010516,0,0,0,0.030172,0.007673,0.011353,5.1781,0.016399,0.020903,4.2048e-07,0.11,0.38,0
0.0054684,0.0012646,0.03013,0.0075063,0.011291,0.0019988,0,0,0.048981,-0.0098398,0,0.010394,0,0,0,0.030305,0.0073311,0.011291,5.0105,0.016309,0.021272,4.3721e-07,0.12,0.38,0
0.0059608,0.0013568,0.030267,0.007165,0.011229,0.0019747,0,0,0.049497,-0.010568,0,0.010269,0,0,0,0.030434,0.0069974,0.011229,4.8507,0.01622,0.021634,4.5366e-07,0.13,0.38,0
0.0064583,0.0014467,0.030399,0.0068329,0.01117,0.0019501,0,0,0.049997,-0.011275,0,0.010141,0,0,0,0.030559,0.0066726,0.01117,4.6987,0.016134,0.021986,4.6978e-07,0.14,0.38,0
0.0069608,0.0015342,0.030527,0.0065106,0.011111,0.0019252,0,0,0.05048,-0.011961,0,0.010011,0,0,0,0.03068,0.0063572,0.011111,4.5542,0.016049,0.022329,4.8553e-07,0.15,0.38,0
0.007468,0.0016193,0.030649,0.0061985,0.011054,0.0019001,0,0,0.050946,-0.012625,0,0.0098808,0,0,0,0.030796,0.0060517,0.011054,4.4174,0.015967,0.022661,5.0085e-07,0.16,0.38,0
0.0079797,0.0017019,0.030766,0.0058971,0.010999,0.0018752,0,0,0.051394,-0.013265,0,0.0097512,0,0,0,0.030906,0.0057565,0.010999,4.2881,0.015887,0.022981,5.1571e-07,0.17,0.38,0
0.0084958,0.0017819,0.030877,0.0056067,0.010945,0.0018507,0,0,0.051823,-0.01388,0,0.0096236,0,0,0,0.031012,0.0054719,0.010945,4.1665,0.01581,0.02329,5.3005e-07,0.18,0.38,0
0.0090162,0.0018593,0.030982,0.0053279,0.010893,0.0018268,0,0,0.052232,-0.014469,0,0.0094993,0,0,0,0.031112,0.0051985,0.010893,4.0526,0.015734,0.023587,5.4384e-07,0.19,0.38,0
0.0095405,0.001934,0.031082,0.0050608,0.010843,0.0018038,0,0,0.052621,-0.015033,0,0.0093797,0,0,0,0.031206,0.0049364,0.010843,3.9466,0.015662,0.023871,5.5705e-07,0.2,0.38,0
0.010069,0.002006,0.031175,0.0048059,0.010794,0.001782,0,0,0.05299,-0.01557,0,0.0092661,0,0,0,0.031295,0.004686,0.010794,3.8486,0.015592,0.024141,5.6964e-07,0.21,0.38,0
0.0106,0.0020752,0.031262,0.0045632,0.010748,0.0017615,0,0,0.053337,-0.016079,0,0.0091599,0,0,0,0.031377,0.0044475,0.010748,3.7586,0.015524,0.024398,5.8158e-07,0.22,0.38,0
0.011135,0.0021416,0.031342,0.0043332,0.010703,0.0017427,0,0,0.053663,-0.016561,0,0.0090623,0,0,0,0.031454,0.0042212,0.010703,3.6767,0.015459,0.02464,5.9285e-07,0.23,0.38,0
0.011673,0.0022051,0.031416,0.0041158,0.01066,0.0017258,0,0,0.053967,-0.017014,0,0.0089743,0,0,0,0.031525,0.0040071,0.01066,3.6029,0.015397,0.024868,6.0342e-07,0.24,0.38,0
0.012215,0.0022657,0.031483,0.0039113,0.010618,0.001711,0,0,0.054249,-0.017439,0,0.008897,0,0,0,0.031589,0.0038055,0.010618,3.5373,0.015338,0.025081,6.1326e-07,0.25,0.38,0
0.012759,0.0023234,0.031544,0.0037197,0.010579,0.0016983,0,0,0.054509,-0.017834,0,0.0088311,0,0,0,0.031647,0.0036164,0.010579,3.4799,0.015281,0.025279,6.2236e-07,0.26,0.38,0
0.013305,0.0023781,0.031598,0.0035411,0.010542,0.0016879,0,0,0.054745,-0.018201,0,0.0087772,0,0,0,0.031699,0.00344,0.010542,3.4305,0.015227,0.025462,6.307e-07,0.27,0.38,0
0.013853,0.0024297,0.031644,0.0033756,0.010506,0.0016799,0,0,0.054959,-0.018539,0,0.0087358,0,0,0,0.031743,0.0032761,0.010506,3.3891,0.015175,0.025629,6.3826e-07,0.28,0.38,0
0.014404,0.0024782,0.031683,0.0032231,0.010472,0.0016744,0,0,0.055149,-0.018847,0,0.0087068,0,0,0,0.031781,0.0031249,0.010472,3.3554,0.015126,0.02578,6.4502e-07,0.29,0.38,0
0.014956,0.0025234,0.031715,0.0030835,0.01044,0.0016712,0,0,0.055316,-0.019126,0,0.0086902,0,0,0,0.031812,0.0029863,0.01044,3.3293,0.015079,0.025916,6.5096e-07,0.3,0.38,0
0.01551,0.0025655,0.031739,0.0029568,0.010409,0.0016703,0,0,0.055458,-0.019375,0,0.0086854,0,0,0,0.031835,0.0028602,0.010409,3.3102,0.015035,0.026035,6.5607e-07,0.31,0.38,0
0.016066,0.0026041,0.031755,0.0028427,0.010379,0.0016715,0,0,0.055577,-0.019595,0,0.0086915,0,0,0,0.031851,0.0027464,0.010379,3.2977,0.014992,0.026138,6.6033e-07,0.32,0.38,0
0.016622,0.0026393,0.031763,0.002741,0.010351,0.0016745,0,0,0.05567,-0.019786,0,0.0087074,0,0,0,0.031859,0.0026447,0.010351,3.2913,0.014952,0.026225,6.6373e-07,0.33,0.38,0
0.017179,0.0026709,0.031762,0.0026513,0.010324,0.0016791,0,0,0.055739,-0.019949,0,0.0087313,0,0,0,0.031859,0.0025548,0.010324,3.2902,0.014913,0.026295,6.6626e-07,0.34,0.38,0
0.017737,0.0026987,0.031753,0.0025733,0.010298,0.0016848,0,0,0.055783,-0.020084,0,0.0087611,0,0,0,0.03185,0.0024763,0.010298,3.2936,0.014875,0.026349,6.679e-07,0.35,0.38,0
0.018295,0.0027225,0.031735,0.0025063,0.010272,0.0016911,0,0,0.055803,-0.020192,0,0.008794,0,0,0,0.031832,0.0024087,0.010272,3.3004,0.014838,0.026386,6.6865e-07,0.36,0.38,0
0.018853,0.0027422,0.031707,0.0024495,0.010247,0.0016975,0,0,0.055797,-0.020274,0,0.0088269,0,0,0,0.031806,0.0023513,0.010247,3.3094,0.014801,0.026407,6.6851e-07,0.37,0.38,0
0.019411,0.0027574,0.03167,0.0024018,0.010222,0.0017031,0,0,0.055767,-0.020332,0,0.0088562,0,0,0,0.031769,0.0023031,0.010222,3.319,0.014765,0.026413,6.6748e-07,0.38,0.38,0
0.019968,0.0027679,0.031624,0.0023621,0.010196,0.0017072,0,0,0.055713,-0.020368,0,0.0088775,0,0,0,0.031723,0.0022628,0.010196,3.3277,0.014727,0.026403,6.6559e-07,0.39,0.38,0
0.020525,0.0027732,0.031567,0.0023285,0.010169,0.0017089,0,0,0.055635,-0.020384,0,0.0088863,0,0,0,0.031666,0.002229,0.010169,3.3337,0.014688,0.02638,6.6286e-07,0.4,0.38,0
0.021081,0.002773,0.0315,0.0022991,0.01014,0.0017073,0,0,0.055537,-0.020386,0,0.0088777,0,0,0,0.0316,0.0021996,0.01014,3.3347,0.014646,0.026343,6.5934e-07,0.41,0.38,0
0.021636,0.0027669,0.031423,0.0022711,0.010108,0.0017013,0,0,0.055419,-0.020377,0,0.0088468,0,0,0,0.031522,0.0021721,0.010108,3.3287,0.014601,0.026296,6.5511e-07,0.42,0.38,0
0.022189,0.0027544,0.031336,0.0022411,0.010073,0.0016902,0,0,0.055284,-0.020363,0,0.0087891,0,0,0,0.031434,0.0021433,0.010073,3.3136,0.01455,0.026241,6.5027e-07,0.43,0.38,0
0.022741,0.0027349,0.03124,0.0022051,0.010034,0.0016733,0,0,0.055137,-0.020354,0,0.0087013,0,0,0,0.031337,0.002109,0.010034,3.2875,0.014493,0.026181,6.4496e-07,0.44,0.38,0
0.023292,0.0027078,0.031136,0.0021579,0.0099881,0.0016504,0,0,0.054984,-0.020358,0,0.0085819,0,0,0,0.031229,0.0020642,0.0099881,3.2492,0.014427,0.026121,6.3936e-07,0.45,0.38,0
0.023841,0.0026725,0.031023,0.0020934,0.0099349,0.0016218,0,0,0.054829,-0.020388,0,0.0084333,0,0,0,0.031113,0.0020028,0.0099349,3.1987,0.01435,0.026066,6.3369e-07,0.46,0.38,0
0.024388,0.0026285,0.030903,0.0020044,0.0098722,0.001589,0,0,0.05468,-0.020456,0,0.0082629,0,0,0,0.03099,0.0019173,0.0098722,3.1379,0.01426,0.026024,6.2819e-07,0.47,0.38,0
0.024934,0.0025752,0.030776,0.001883,0.0097976,0.0015548,0,0,0.054543,-0.020578,0,0.0080851,0,0,0,0.030859,0.0017996,0.0097976,3.0715,0.014152,0.026,6.2309e-07,0.48,0.38,0
0.025479,0.0025122,0.030641,0.0017212,0.0097086,0.0015233,0,0,0.054424,-0.020767,0,0.0079213,0,0,0,0.030721,0.0016412,0.0097086,3.0069,0.014024,0.026002,6.1856e-07,0.49,0.38,0
0.026023,0.0024392,0.030497,0.0015111,0.0096026,0.0014998,0,0,0.054327,-0.021038,0,0.0077989,0,0,0,0.030575,0.0014337,0.0096026,2.9541,0.01387,0.026036,6.1475e-07,0.5,0.38,0
0.026566,0.0023561,0.030343,0.0012423,0.0094754,0.0014909,0,0,0.054254,-0.021406,0,0.0077529,0,0,0,0.030419,0.0011661,0.0094754,2.9253,0.013687,0.026109,6.1172e-07,0.51,0.38,0
0.027108,0.002263,0.030175,0.00090485,0.0093238,0.0015084,0,0,0.054212,-0.021889,0,0.0078437,0,0,0,0.030252,0.00082732,0.0093238,2.9423,0.013468,0.02623,6.096e-07,0.52,0.38,0
0.02765,0.0021609,0.029974,0.00047852,0.0091357,0.0015656,0,0,0.054179,-0.022509,0,0.0081413,0,0,0,0.030057,0.00039565,0.0091357,3.03,0.013196,0.026399,6.076e-07,0.53,0.38,0
0.028192,0.0020509,0.029745,-1.2424e-05,0.0089197,0.0016904,0,0,0.054145,-0.023224,0,0.0087902,0,0,0,0.02984,-0.00010814,0.0089197,3.2409,0.012884,0.026609,6.0555e-07,0.54,0.38,0
0.028733,0.0019358,0.029403,-0.00061458,0.0086366,0.0018648,0,0,0.053993,-0.024053,0,0.0096971,0,0,0,0.029519,-0.00072999,0.0086366,3.5413,0.012475,0.026821,5.9899e-07,0.55,0.38,0
0.029271,0.0018166,0.029238,-0.0010908,0.0084441,0.0021571,0,0,0.054064,-0.024791,0,0.011217,0,0,0,0.02939,-0.0012434,0.0084441,4.0479,0.012197,0.02712,6.0132e-07,0.56,0.38,0
0.029814,0.0017022,0.028837,-0.0020685,0.0080304,0.0025386,0,0,0.054096,-0.026257,0,0.013201,0,0,0,0.029044,-0.0022756,0.0080304,4.6647,0.0116,0.027647,5.9896e-07,0.57,0.38,0
0.030353,0.0016084,0.02827,-0.0024258,0.0077532,0.0031944,0,0,0.053343,-0.026465,0,0.016611,0,0,0,0.028599,-0.0027547,0.0077532,5.8786,0.011199,0.02764,5.8009e-07,0.58,0.38,0
0.030881,0.0015192,0.029037,-0.0015693,0.0082404,0.0038242,0,0,0.054072,-0.025505,0,0.019886,0,0,0,0.029508,-0.0020399,0.0082404,7.0153,0.011903,0.027868,6.2331e-07,0.59,0.38,0
0.031435,0.0014363,0.032921,-0.0024902,0.0091294,0.0036661,0,0,0.043259,-0.020702,0,0.014564,0,0,0,0.033326,-0.0028944,0.0091294,6.1938,0.013187,0.031955,1.0082e-06,0.6,0.38,0
0.031807,0.0013848,0.030395,-0.0013989,0.0086988,0.0028489,0,0,0.037607,-0.018552,0,0.012348,0,0,0,0.030747,-0.0017512,0.0086988,5.9366,0.012565,0.028763,9.1299e-07,0.61,0.38,0
0.032187,0.0013695,0.031655,-0.00070319,0.0092854,0.0020157,0,0,0.038773,-0.018191,0,0.0089345,0,0,0,0.031845,-0.00089359,0.0092854,4.2957,0.013412,0.029039,9.9594e-07,0.62,0.38,0
0.032582,0.0013806,0.02908,-0.0010811,0.0083998,0.00096814,0,0,0.036768,-0.016555,0,0.0046046,0,0,0,0.029141,-0.0011415,0.0083998,2.3486,0.012133,0.026818,7.0096e-07,0.63,0.38,0
0.032895,0.001379,0.034542,-0.0013179,0.0099673,0.00096608,0,0,0.031947,-0.014671,0,0.0025118,0,0,0,0.034568,-0.0013439,0.0099673,1.5421,0.014397,0.031803,9.7526e-07,0.64,0.38,0
0.033221,0.0013682,0.036118,-0.00089373,0.010567,0.00083648,0,0,0.033216,-0.014899,0,0.0021748,0,0,0,0.036137,-0.00091263,0.010567,1.294,0.015264,0.03285,1.0995e-06,0.65,0.38,0
0.033559,0.0013614,0.03714,-0.00067097,0.010941,0.00073846,0,0,0.034059,-0.015095,0,0.00192,0,0,0,0.037155,-0.00068539,0.010941,1.1184,0.015803,0.033572,1.187e-06,0.66,0.38,0
0.033903,0.0013571,0.037642,-0.00059907,0.011113,0.00055898,0,0,0.034488,-0.015225,0,0.0014533,0,0,0,0.03765,-0.00060724,0.011113,0.83727,0.016052,0.03395,1.2322e-06,0.67,0.38,0
0.034249,0.0013555,0.037855,-0.00058052,0.011182,0.00035954,0,0,0.034675,-0.015292,0,0.0009348,0,0,0,0.037859,-0.00058388,0.011182,0.5359,0.016152,0.034117,1.2519e-06,0.68,0.38,0
0.034596,0.0013563,0.037848,-0.00059398,0.011176,0.00015615,0,0,0.034674,-0.015301,0,0.00040599,0,0,0,0.037849,-0.00059461,0.011176,0.23273,0.016144,0.034117,1.2513e-06,0.69,0.38,0
0.034942,0.0013596,0.037622,-0.00063956,0.011095,-3.8261e-05,0,0,0.034485,-0.015254,0,-9.9478e-05,0,0,0,0.037622,-0.0006396,0.011095,-0.057295,0.016026,0.033951,1.2305e-06,0.7,0.38,0
0.035286,0.0013654,0.037109,-0.00073858,0.010911,-0.00020736,0,0,0.034057,-0.015145,0,-0.00053913,0,0,0,0.03711,-0.00073971,0.010911,-0.3139,0.01576,0.033576,1.1845e-06,0.71,0.38,0
0.035623,0.0013739,0.036091,-0.00098425,0.010532,-0.00028941,0,0,0.033227,-0.014971,0,-0.00075246,0,0,0,0.036094,-0.00098651,0.010532,-0.44721,0.015213,0.032871,1.0979e-06,0.72,0.38,0
0.03595,0.0013861,0.034566,-0.0014185,0.0099444,-0.0004099,0,0,0.032009,-0.014772,0,-0.0010657,0,0,0,0.034571,-0.0014232,0.0099444,-0.65253,0.014364,0.031869,9.7761e-07,0.73,0.38,0
0.036264,0.001388,0.029147,-0.0011024,0.0084133,-0.00047035,0,0,0.036858,-0.016616,0,-0.0027948,0,0,0,0.029181,-0.0011368,0.0084133,-1.3861,0.012153,0.02685,7.0528e-07,0.74,0.38,0
0.03666,0.0013801,0.031587,-0.0008713,0.0092146,-0.0014855,0,0,0.038778,-0.018362,0,-0.006934,0,0,0,0.031711,-0.00099587,0.0092146,-3.319,0.01331,0.029001,9.9118e-07,0.75,0.38,0
0.037039,0.0013976,0.030161,-0.0016426,0.0085556,-0.0023056,0,0,0.03745,-0.018735,0,-0.010297,0,0,0,0.030417,-0.0018984,0.0085556,-4.9553,0.012358,0.028588,8.9372e-07,0.76,0.38,0
0.037409,0.0014498,0.032556,-0.002841,0.0089145,-0.0030661,0,0,0.042986,-0.020964,0,-0.012363,0,0,0,0.032847,-0.0031322,0.0089145,-5.2562,0.012877,0.031723,9.7289e-07,0.77,0.38,0
0.037959,0.0015385,0.028747,-0.0019359,0.0080434,-0.0033011,0,0,0.05383,-0.025946,0,-0.017166,0,0,0,0.029098,-0.0022871,0.0080434,-6.0717,0.011618,0.027704,6.0247e-07,0.78,0.38,0
0.038485,0.0016338,0.028063,-0.0027688,0.0075882,-0.0026567,0,0,0.053234,-0.026928,0,-0.013815,0,0,0,0.02829,-0.0029961,0.0075882,-4.889,0.010961,0.027563,5.6556e-07,0.79,0.38,0
0.039024,0.001735,0.028639,-0.0024861,0.0078459,-0.0019583,0,0,0.054062,-0.026863,0,-0.010183,0,0,0,0.028762,-0.0026089,0.0078459,-3.586,0.011333,0.027667,5.8749e-07,0.8,0.38,0
0.039567,0.0018588,0.029069,-0.0015191,0.008265,-0.0015218,0,0,0.054091,-0.025439,0,-0.0079133,0,0,0,0.029145,-0.0015946,0.008265,-2.8412,0.011938,0.027185,5.9307e-07,0.81,0.38,0
0.040106,0.0019893,0.029246,-0.00104,0.0084619,-0.0011772,0,0,0.05404,-0.024705,0,-0.0061214,0,0,0,0.029292,-0.0010857,0.0084619,-2.2225,0.012223,0.026906,5.9237e-07,0.82,0.38,0
0.040647,0.0021174,0.029593,-0.00043372,0.0087477,-0.0009527,0,0,0.054197,-0.023872,0,-0.004954,0,0,0,0.029623,-0.00046392,0.0087477,-1.8155,0.012636,0.026701,5.9986e-07,0.83,0.38,0
0.041189,0.0022417,0.029827,6.727e-05,0.0089682,-0.00078072,0,0,0.054232,-0.023142,0,-0.0040597,0,0,0,0.029847,4.6802e-05,0.0089682,-1.5017,0.012954,0.026491,6.0259e-07,0.84,0.38,0
0.041732,0.0023594,0.03003,0.00050316,0.0091598,-0.00067836,0,0,0.054261,-0.022507,0,-0.0035275,0,0,0,0.030045,0.00048758,0.0091598,-1.3154,0.013231,0.026316,6.0481e-07,0.85,0.38,0
0.042275,0.0024688,0.030199,0.00084772,0.0093139,-0.00061756,0,0,0.0543,-0.022012,0,-0.0032113,0,0,0,0.030212,0.00083473,0.0093139,-1.2048,0.013453,0.026188,6.0695e-07,0.86,0.38,0
0.042818,0.0025689,0.030354,0.0011193,0.009442,-0.00058357,0,0,0.054371,-0.021639,0,-0.0030346,0,0,0,0.030366,0.0011076,0.009442,-1.1431,0.013638,0.026108,6.0988e-07,0.87,0.38,0
0.043362,0.0026594,0.030498,0.0013269,0.0095474,-0.00056359,0,0,0.054471,-0.021373,0,-0.0029307,0,0,0,0.030509,0.0013161,0.0095474,-1.1064,0.013791,0.02607,6.1358e-07,0.88,0.38,0
0.043908,0.0027403,0.030633,0.001481,0.0096341,-0.00054988,0,0,0.054596,-0.021198,0,-0.0028594,0,0,0,0.030643,0.0014706,0.0096341,-1.0802,0.013916,0.026068,6.1803e-07,0.89,0.38,0
0.044454,0.0028117,0.030759,0.0015895,0.0097046,-0.0005363,0,0,0.054742,-0.021099,0,-0.0027888,0,0,0,0.030769,0.0015796,0.0097046,-1.0529,0.014018,0.026094,6.231e-07,0.9,0.38,0
0.045002,0.0028741,0.030878,0.0016608,0.0097616,-0.00051817,0,0,0.054902,-0.021062,0,-0.0026945,0,0,0,0.030887,0.0016517,0.0097616,-1.0157,0.0141,0.026142,6.2862e-07,0.91,0.38,0
0.045552,0.002928,0.030988,0.0017034,0.0098074,-0.00049237,0,0,0.055069,-0.02107,0,-0.0025603,0,0,0,0.030996,0.0016952,0.0098074,-0.96296,0.014166,0.026204,6.3434e-07,0.92,0.38,0
0.046104,0.0029739,0.031088,0.0017249,0.0098439,-0.00045731,0,0,0.055235,-0.021109,0,-0.002378,0,0,0,0.031095,0.0017178,0.0098439,-0.89204,0.014219,0.026274,6.3999e-07,0.93,0.38,0
0.046657,0.0030124,0.031177,0.0017318,0.0098728,-0.00041266,0,0,0.055392,-0.021166,0,-0.0021458,0,0,0,0.031183,0.0017261,0.0098728,-0.80275,0.014261,0.026346,6.4534e-07,0.94,0.38,0
0.047212,0.003044,0.031254,0.0017296,0.0098952,-0.00035894,0,0,0.055534,-0.02123,0,-0.0018665,0,0,0,0.031259,0.0017253,0.0098952,-0.69643,0.014293,0.026414,6.5018e-07,0.95,0.38,0
0.047767,0.0030692,0.031318,0.0017225,0.0099122,-0.00029721,0,0,0.055656,-0.021293,0,-0.0015455,0,0,0,0.031321,0.0017195,0.0099122,-0.57531,0.014318,0.026474,6.5433e-07,0.96,0.38,0
0.048325,0.0030884,0.031369,0.0017139,0.0099247,-0.00022885,0,0,0.055754,-0.021348,0,-0.00119,0,0,0,0.03137,0.0017121,0.0099247,-0.44212,0.014336,0.026523,6.5768e-07,0.97,0.38,0
0.048883,0.0031019,0.031405,0.001706,0.0099332,-0.00015541,0,0,0.055826,-0.021391,0,-0.00080815,0,0,0,0.031406,0.0017052,0.0099332,-0.29982,0.014348,0.02656,6.6012e-07,0.98,0.38,0
0.049441,0.0031099,0.031427,0.0017007,0.0099382,-7.8564e-05,0,0,0.05587,-0.021417,0,-0.00040853,0,0,0,0.031427,0.0017005,0.0099382,-0.15143,0.014355,0.026583,6.6162e-07,0.99,0.38,0
0.05,0.0031125,0.031434,0.0016988,0.0099398,5.0912e-05,0,0,0.055884,-0.021427,0,0.00026474,0,0,0,0.031434,0.0016987,0.0099398,0.098102,0.014358,0.02659,6.6213e-07,1,0.38,0
0,0,0.028505,0.012216,0.012216,0.0020593,0,0,0.04235,2.1684e-19,0,0.010708,0,0,0,0.028761,0.01196,0.012216,7.095,0.017646,0.016674,2.3793e-07,0,0.39,0
0.0004235,0.00010708,0.028463,0.011719,0.012054,0.0020566,0,0,0.042661,-0.00087257,0,0.010694,0,0,0,0.028711,0.01147,0.012054,6.9008,0.017412,0.016957,2.4941e-07,0.01,0.39,0
0.00085322,0.00021232,0.028629,0.011314,0.011983,0.0020372,0,0,0.043281,-0.0017392,0,0.010593,0,0,0,0.028866,0.011078,0.011983,6.6204,0.017309,0.017353,2.6593e-07,0.02,0.39,0
0.0012891,0.00031577,0.028796,0.010913,0.011912,0.0020189,0,0,0.043896,-0.0025992,0,0.010499,0,0,0,0.029021,0.010688,0.011912,6.362,0.017207,0.017752,2.8272e-07,0.03,0.39,0
0.0017311,0.00041745,0.02896,0.010515,0.011843,0.0020015,0,0,0.044506,-0.0034514,0,0.010408,0,0,0,0.029175,0.010301,0.011843,6.1224,0.017106,0.018152,2.9975e-07,0.04,0.39,0
0.0021792,0.00051739,0.029123,0.010122,0.011773,0.0019845,0,0,0.045109,-0.0042948,0,0.010319,0,0,0,0.029328,0.0099166,0.011773,5.899,0.017006,0.018553,3.1695e-07,0.05,0.39,0
0.0026333,0.00061556,0.029285,0.0097328,0.011705,0.0019675,0,0,0.045706,-0.0051282,0,0.010231,0,0,0,0.02948,0.0095368,0.011705,5.6898,0.016907,0.018953,3.3428e-07,0.06,0.39,0
0.0030933,0.00071197,0.029444,0.0093491,0.011638,0.0019504,0,0,0.046295,-0.0059505,0,0.010142,0,0,0,0.029631,0.0091616,0.011638,5.4929,0.01681,0.019351,3.5168e-07,0.07,0.39,0
0.0035592,0.00080657,0.0296,0.0089712,0.011571,0.001933,0,0,0.046875,-0.0067605,0,0.010051,0,0,0,0.02978,0.0087916,0.011571,5.3071,0.016714,0.019745,3.6911e-07,0.08,0.39,0
0.0040308,0.00089934,0.029754,0.0085996,0.011506,0.0019151,0,0,0.047444,-0.0075568,0,0.0099583,0,0,0,0.029926,0.0084276,0.011506,5.1313,0.01662,0.020136,3.865e-07,0.09,0.39,0
0.0045081,0.00099022,0.029904,0.0082348,0.011442,0.0018967,0,0,0.048003,-0.0083381,0,0.0098626,0,0,0,0.030069,0.00807,0.011442,4.9646,0.016527,0.020522,4.038e-07,0.1,0.39,0
0.0049909,0.0010792,0.030052,0.0078775,0.011379,0.0018777,0,0,0.048549,-0.0091033,0,0.0097643,0,0,0,0.03021,0.0077196,0.011379,4.8063,0.016436,0.020902,4.2097e-07,0.11,0.39,0
0.0054791,0.0011661,0.030195,0.0075281,0.011317,0.0018584,0,0,0.049083,-0.0098509,0,0.0096635,0,0,0,0.030346,0.0073768,0.011317,4.656,0.016347,0.021275,4.3794e-07,0.12,0.39,0
0.0059726,0.0012511,0.030334,0.0071873,0.011256,0.0018386,0,0,0.049603,-0.01058,0,0.0095608,0,0,0,0.030479,0.0070422,0.011256,4.5134,0.016259,0.02164,4.5466e-07,0.13,0.39,0
0.0064712,0.0013339,0.03047,0.0068555,0.011198,0.0018186,0,0,0.050107,-0.011289,0,0.0094568,0,0,0,0.030609,0.0067163,0.011198,4.3782,0.016174,0.021997,4.7108e-07,0.14,0.39,0
0.0069747,0.0014145,0.0306,0.0065333,0.01114,0.0017986,0,0,0.050596,-0.011977,0,0.0093525,0,0,0,0.030734,0.0063996,0.01114,4.2504,0.016091,0.022344,4.8716e-07,0.15,0.39,0
0.0074831,0.001493,0.030726,0.0062211,0.011084,0.0017786,0,0,0.051069,-0.012644,0,0.0092488,0,0,0,0.030854,0.0060927,0.011084,4.1298,0.01601,0.022682,5.0285e-07,0.16,0.39,0
0.0079961,0.0015691,0.030847,0.0059193,0.01103,0.001759,0,0,0.051524,-0.013287,0,0.0091469,0,0,0,0.03097,0.0057958,0.01103,4.0166,0.015932,0.023008,5.181e-07,0.17,0.39,0
0.0085135,0.001643,0.030962,0.0056284,0.010977,0.00174,0,0,0.051961,-0.013907,0,0.0090479,0,0,0,0.031081,0.0055095,0.010977,3.9107,0.015856,0.023324,5.3287e-07,0.18,0.39,0
0.0090353,0.0017144,0.031072,0.0053487,0.010926,0.0017218,0,0,0.05238,-0.014502,0,0.0089532,0,0,0,0.031187,0.005234,0.010926,3.8123,0.015783,0.023627,5.4714e-07,0.19,0.39,0
0.0095611,0.0017835,0.031177,0.0050805,0.010877,0.0017046,0,0,0.05278,-0.015072,0,0.008864,0,0,0,0.031288,0.0049697,0.010877,3.7214,0.015712,0.023918,5.6085e-07,0.2,0.39,0
0.010091,0.0018501,0.031276,0.0048242,0.01083,0.0016887,0,0,0.05316,-0.015615,0,0.0087815,0,0,0,0.031384,0.0047168,0.01083,3.6382,0.015644,0.024196,5.7399e-07,0.21,0.39,0
0.010624,0.0019142,0.031369,0.00458,0.010785,0.0016745,0,0,0.05352,-0.016133,0,0.0087071,0,0,0,0.031474,0.0044757,0.010785,3.5627,0.015578,0.024461,5.8652e-07,0.22,0.39,0
0.011161,0.0019757,0.031457,0.0043481,0.010741,0.0016619,0,0,0.05386,-0.016623,0,0.0086419,0,0,0,0.031558,0.0042466,0.010741,3.4951,0.015515,0.024713,5.9841e-07,0.23,0.39,0
0.011702,0.0020347,0.031538,0.0041287,0.0107,0.0016514,0,0,0.054179,-0.017085,0,0.0085871,0,0,0,0.031637,0.0040296,0.0107,3.4354,0.015456,0.02495,6.0964e-07,0.24,0.39,0
0.012245,0.002091,0.031613,0.003922,0.01066,0.001643,0,0,0.054476,-0.01752,0,0.0085435,0,0,0,0.03171,0.0038248,0.01066,3.3837,0.015399,0.025173,6.2019e-07,0.25,0.39,0
0.012791,0.0021446,0.031682,0.0037281,0.010623,0.0016369,0,0,0.054753,-0.017927,0,0.008512,0,0,0,0.031777,0.0036326,0.010623,3.3399,0.015344,0.025382,6.3003e-07,0.26,0.39,0
0.01334,0.0021956,0.031744,0.0035471,0.010587,0.0016333,0,0,0.055007,-0.018305,0,0.0084933,0,0,0,0.031838,0.0034528,0.010587,3.3041,0.015293,0.025576,6.3914e-07,0.27,0.39,0
0.013891,0.0022437,0.0318,0.0033791,0.010554,0.0016323,0,0,0.05524,-0.018654,0,0.0084877,0,0,0,0.031893,0.0032856,0.010554,3.2763,0.015244,0.025755,6.4751e-07,0.28,0.39,0
0.014445,0.0022891,0.031849,0.003224,0.010522,0.0016338,0,0,0.05545,-0.018974,0,0.0084956,0,0,0,0.031942,0.0031311,0.010522,3.2561,0.015198,0.025918,6.5512e-07,0.29,0.39,0
0.015,0.0023315,0.031891,0.003082,0.010492,0.0016378,0,0,0.055637,-0.019266,0,0.0085168,0,0,0,0.031984,0.0029892,0.010492,3.2435,0.015155,0.026066,6.6194e-07,0.3,0.39,0
0.015558,0.002371,0.031926,0.002953,0.010464,0.0016444,0,0,0.055802,-0.019528,0,0.0085509,0,0,0,0.032019,0.0028599,0.010464,3.2381,0.015114,0.026198,6.6796e-07,0.31,0.39,0
0.016116,0.0024074,0.031953,0.0028367,0.010437,0.0016533,0,0,0.055942,-0.019761,0,0.0085972,0,0,0,0.032047,0.0027431,0.010437,3.2395,0.015076,0.026314,6.7316e-07,0.32,0.39,0
0.016676,0.0024406,0.031973,0.0027332,0.010412,0.0016643,0,0,0.05606,-0.019965,0,0.0086546,0,0,0,0.032068,0.0026387,0.010412,3.2473,0.01504,0.026415,6.7753e-07,0.33,0.39,0
0.017237,0.0024705,0.031986,0.002642,0.010388,0.0016772,0,0,0.056153,-0.02014,0,0.0087214,0,0,0,0.032081,0.0025465,0.010388,3.2607,0.015005,0.026499,6.8105e-07,0.34,0.39,0
0.017799,0.0024969,0.03199,0.0025629,0.010366,0.0016915,0,0,0.056222,-0.020287,0,0.0087956,0,0,0,0.032086,0.002466,0.010366,3.279,0.014973,0.026567,6.837e-07,0.35,0.39,0
0.018362,0.0025196,0.031985,0.0024954,0.010344,0.0017066,0,0,0.056267,-0.020407,0,0.0088745,0,0,0,0.032084,0.002397,0.010344,3.3011,0.014942,0.026618,6.8548e-07,0.36,0.39,0
0.018925,0.0025384,0.031972,0.0024388,0.010323,0.0017221,0,0,0.056287,-0.0205,0,0.0089549,0,0,0,0.032072,0.0023387,0.010323,3.3259,0.014911,0.026654,6.8637e-07,0.37,0.39,0
0.019488,0.002553,0.03195,0.0023921,0.010303,0.0017371,0,0,0.056283,-0.020567,0,0.009033,0,0,0,0.032052,0.0022904,0.010303,3.3519,0.014882,0.026673,6.8638e-07,0.38,0.39,0
0.02005,0.002563,0.031919,0.0023542,0.010282,0.0017508,0,0,0.056256,-0.020612,0,0.0091044,0,0,0,0.032022,0.0022509,0.010282,3.3774,0.014852,0.026678,6.8552e-07,0.39,0.39,0
0.020613,0.0025682,0.031878,0.0023235,0.01026,0.0017623,0,0,0.056205,-0.020636,0,0.009164,0,0,0,0.031983,0.0022188,0.01026,3.4004,0.014821,0.026668,6.8382e-07,0.4,0.39,0
0.021174,0.002568,0.031828,0.0022979,0.010238,0.0017704,0,0,0.056134,-0.020643,0,0.0092063,0,0,0,0.031933,0.0021921,0.010238,3.4188,0.014788,0.026646,6.8132e-07,0.41,0.39,0
0.021735,0.002562,0.031768,0.0022748,0.010213,0.0017741,0,0,0.056044,-0.020639,0,0.0092255,0,0,0,0.031875,0.0021685,0.010213,3.4301,0.014752,0.026612,6.781e-07,0.42,0.39,0
0.022295,0.0025495,0.0317,0.0022508,0.010185,0.0017723,0,0,0.055938,-0.020629,0,0.009216,0,0,0,0.031806,0.0021445,0.010185,3.4317,0.014712,0.02657,6.7427e-07,0.43,0.39,0
0.022854,0.0025301,0.031623,0.0022214,0.010153,0.001764,0,0,0.055821,-0.020623,0,0.009173,0,0,0,0.031728,0.0021159,0.010153,3.4213,0.014666,0.026523,6.6998e-07,0.44,0.39,0
0.023412,0.0025029,0.031538,0.0021811,0.010116,0.0017487,0,0,0.055699,-0.02063,0,0.0090932,0,0,0,0.031642,0.0020773,0.010116,3.3968,0.014612,0.026477,6.6545e-07,0.45,0.39,0
0.023968,0.0024674,0.031448,0.002123,0.010071,0.0017264,0,0,0.05558,-0.020666,0,0.0089773,0,0,0,0.03155,0.0020217,0.010071,3.3576,0.014548,0.026439,6.6097e-07,0.46,0.39,0
0.024523,0.0024226,0.031354,0.0020384,0.010018,0.0016986,0,0,0.055475,-0.020746,0,0.0088324,0,0,0,0.031452,0.0019404,0.010018,3.305,0.01447,0.026416,6.5688e-07,0.47,0.39,0
0.025078,0.002368,0.031257,0.0019176,0.0099524,0.0016684,0,0,0.055392,-0.02089,0,0.0086758,0,0,0,0.031351,0.001823,0.0099524,3.2443,0.014376,0.026419,6.5354e-07,0.48,0.39,0
0.025631,0.0023029,0.031156,0.0017497,0.0098718,0.0016416,0,0,0.05534,-0.021117,0,0.0085365,0,0,0,0.031248,0.0016584,0.0098718,3.1854,0.014259,0.026457,6.5122e-07,0.49,0.39,0
0.026184,0.002227,0.031051,0.0015265,0.0097732,0.0016251,0,0,0.055322,-0.021441,0,0.0084506,0,0,0,0.03114,0.0014373,0.0097732,3.1411,0.014117,0.026536,6.5007e-07,0.5,0.39,0
0.026738,0.0021399,0.030942,0.0012405,0.0096546,0.0016262,0,0,0.055346,-0.021877,0,0.0084564,0,0,0,0.03103,0.0011518,0.0096546,3.1247,0.013946,0.026664,6.5031e-07,0.51,0.39,0
0.027291,0.0020416,0.03082,0.00086754,0.0095062,0.0016536,0,0,0.055416,-0.022461,0,0.0085986,0,0,0,0.030911,0.00077652,0.0095062,3.1504,0.013731,0.026856,6.5197e-07,0.52,0.39,0
0.027846,0.0019325,0.030697,0.00039991,0.0093292,0.0017378,0,0,0.055558,-0.023216,0,0.0090368,0,0,0,0.030797,0.00030055,0.0093292,3.2721,0.013475,0.027133,6.5607e-07,0.53,0.39,0
0.028403,0.0018148,0.030478,-0.00023988,0.0090715,0.0018942,0,0,0.055657,-0.02421,0,0.0098496,0,0,0,0.030595,-0.00035624,0.0090715,3.5152,0.013103,0.027478,6.5813e-07,0.54,0.39,0
0.028959,0.00169,0.030272,-0.00084777,0.0088273,0.0022242,0,0,0.055757,-0.025155,0,0.011566,0,0,0,0.03043,-0.0010059,0.0088273,4.0675,0.01275,0.027853,6.6159e-07,0.55,0.39,0
0.029518,0.0015657,0.029383,-0.0019033,0.008244,0.0025196,0,0,0.054962,-0.026383,0,0.013102,0,0,0,0.029585,-0.0021049,0.008244,4.5749,0.011908,0.027989,6.293e-07,0.56,0.39,0
0.030058,0.0014315,0.029285,-0.0024225,0.0080588,0.0034797,0,0,0.055188,-0.027251,0,0.018094,0,0,0,0.029662,-0.0027999,0.0080588,6.1897,0.01164,0.028622,6.4629e-07,0.57,0.39,0
0.030621,0.0013307,0.030353,-0.0014352,0.0086753,0.0029442,0,0,0.056361,-0.026287,0,0.01531,0,0,0,0.030623,-0.0017056,0.0086753,5.2472,0.012531,0.028588,6.8858e-07,0.58,0.39,0
0.031186,0.0012633,0.034715,-0.0015533,0.0099486,0.0025066,0,0,0.044856,-0.020744,0,0.010835,0,0,0,0.034939,-0.0017774,0.0099486,4.3884,0.01437,0.032482,1.1469e-06,0.59,0.39,0
0.031576,0.0012461,0.028392,-0.0022713,0.0078362,0.0016791,0,0,0.036491,-0.017894,0,0.0074718,0,0,0,0.02853,-0.0024097,0.0078362,3.7295,0.011319,0.027299,6.8771e-07,0.6,0.39,0
0.03189,0.0012308,0.034685,-0.0015937,0.0099273,0.0012555,0,0,0.032184,-0.014977,0,0.0032643,0,0,0,0.034728,-0.0016371,0.0099273,1.9797,0.014339,0.032181,9.965e-07,0.61,0.39,0
0.03222,0.001214,0.03627,-0.00069959,0.010671,0.00076961,0,0,0.033278,-0.014782,0,0.002001,0,0,0,0.036286,-0.0007156,0.010671,1.1921,0.015414,0.032824,1.107e-06,0.62,0.39,0
0.032555,0.0012224,0.037013,-0.0010744,0.010782,5.4021e-05,0,0,0.034101,-0.015413,0,0.00014045,0,0,0,0.037013,-0.0010745,0.010782,0.081264,0.015574,0.033759,1.1859e-06,0.63,0.39,0
0.032902,0.0012295,0.037297,-0.00080438,0.010948,0.00022184,0,0,0.034254,-0.015278,0,0.00057679,0,0,0,0.037298,-0.00080567,0.010948,0.33359,0.015813,0.033796,1.2046e-06,0.64,0.39,0
0.03324,0.0012206,0.036861,-0.00058715,0.010882,0.00020526,0,0,0.033772,-0.01491,0,0.00053368,0,0,0,0.036862,-0.00058828,0.010882,0.31404,0.015718,0.033234,1.1562e-06,0.65,0.39,0
0.033578,0.0012125,0.036955,-0.0005143,0.010932,0.00030186,0,0,0.03383,-0.01488,0,0.00078483,0,0,0,0.036958,-0.00051673,0.010932,0.46154,0.015791,0.033262,1.1629e-06,0.66,0.39,0
0.033917,0.0012072,0.037179,-0.00045126,0.011019,0.00031857,0,0,0.034009,-0.014911,0,0.00082829,0,0,0,0.037182,-0.00045396,0.011019,0.48501,0.015916,0.033411,1.182e-06,0.67,0.39,0
0.034258,0.001205,0.037305,-0.00043214,0.011062,0.00028517,0,0,0.034116,-0.014942,0,0.00074143,0,0,0,0.037307,-0.00043429,0.011062,0.43293,0.015978,0.033507,1.1933e-06,0.68,0.39,0
0.034599,0.0012057,0.037305,-0.00044754,0.011057,0.00023845,0,0,0.034122,-0.014956,0,0.00061997,0,0,0,0.037306,-0.00044905,0.011057,0.36187,0.015971,0.033517,1.1937e-06,0.69,0.39,0
0.03494,0.0012093,0.037179,-0.00049755,0.011004,0.00020898,0,0,0.034027,-0.014953,0,0.00054334,0,0,0,0.03718,-0.00049871,0.011004,0.31779,0.015895,0.033445,1.1833e-06,0.7,0.39,0
0.03528,0.0012159,0.036959,-0.0005914,0.01091,0.00023264,0,0,0.033864,-0.014952,0,0.00060487,0,0,0,0.036961,-0.00059284,0.01091,0.35495,0.015759,0.033326,1.1656e-06,0.71,0.39,0
0.035617,0.0012253,0.036876,-0.00069519,0.010854,0.00033453,0,0,0.033828,-0.015014,0,0.00086979,0,0,0,0.036879,-0.00069817,0.010854,0.51011,0.015678,0.033337,1.1613e-06,0.72,0.39,0
0.035956,0.0012352,0.037298,-0.00094692,0.010905,0.00032327,0,0,0.034311,-0.015408,0,0.0008405,0,0,0,0.037301,-0.00094965,0.010905,0.48425,0.015752,0.033914,1.2095e-06,0.73,0.39,0
0.036304,0.0012291,0.037025,-0.0011635,0.010758,0.00051124,0,0,0.034146,-0.015498,0,0.0013292,0,0,0,0.037032,-0.0011703,0.010758,0.76686,0.01554,0.033852,1.1906e-06,0.74,0.39,0
0.036639,0.0012229,0.036259,-0.0008943,0.010609,-0.00017743,0,0,0.033344,-0.014955,0,-0.00046132,0,0,0,0.03626,-0.00089515,0.010609,-0.27362,0.015325,0.032945,1.1102e-06,0.75,0.39,0
0.036971,0.0012419,0.034705,-0.0018148,0.0098671,-0.00065323,0,0,0.032289,-0.015187,0,-0.0016984,0,0,0,0.034717,-0.0018265,0.0098671,-1.0244,0.014252,0.032324,1.0005e-06,0.76,0.39,0
0.037285,0.0012577,0.028366,-0.0024308,0.0077806,-0.0011584,0,0,0.036528,-0.018075,0,-0.0056144,0,0,0,0.028456,-0.0025208,0.0077806,-2.7625,0.011239,0.027324,6.8723e-07,0.77,0.39,0
0.037676,0.0012775,0.034509,-0.001947,0.0097687,-0.0018825,0,0,0.044791,-0.021135,0,-0.0085863,0,0,0,0.034659,-0.0020967,0.0097687,-3.4131,0.01411,0.032491,1.1327e-06,0.78,0.39,0
0.038238,0.0013514,0.030149,-0.0018051,0.0085032,-0.0024215,0,0,0.05628,-0.026802,0,-0.012592,0,0,0,0.030332,-0.0019875,0.0085032,-4.309,0.012283,0.028557,6.7491e-07,0.79,0.39,0
0.038801,0.0014576,0.029114,-0.0029099,0.0078611,-0.0029236,0,0,0.055257,-0.028005,0,-0.015203,0,0,0,0.029378,-0.0031747,0.0078611,-5.1739,0.011355,0.028675,6.3438e-07,0.8,0.39,0
0.039343,0.0016007,0.029245,-0.0023728,0.0080618,-0.0019041,0,0,0.055077,-0.02713,0,-0.0099013,0,0,0,0.02936,-0.002487,0.0080618,-3.4339,0.011645,0.028099,6.2193e-07,0.81,0.39,0
0.039903,0.0017363,0.030141,-0.0013318,0.0086428,-0.0015504,0,0,0.055896,-0.025934,0,-0.0080619,0,0,0,0.030217,-0.001408,0.0086428,-2.8133,0.012484,0.027988,6.5613e-07,0.82,0.39,0
0.040461,0.0018742,0.030371,-0.00071163,0.0088977,-0.0011676,0,0,0.055829,-0.024984,0,-0.0060716,0,0,0,0.030414,-0.00075543,0.0088977,-2.1483,0.012852,0.027638,6.5526e-07,0.83,0.39,0
0.041019,0.0020064,0.030603,-5.9571e-05,0.0091631,-0.00095989,0,0,0.055744,-0.023979,0,-0.0049914,0,0,0,0.030633,-8.9591e-05,0.0091631,-1.7913,0.013236,0.027299,6.546e-07,0.84,0.39,0
0.041576,0.0021312,0.030738,0.00042185,0.0093478,-0.00082908,0,0,0.055613,-0.023207,0,-0.0043112,0,0,0,0.03076,0.00039919,0.0093478,-1.5654,0.013502,0.027022,6.514e-07,0.85,0.39,0
0.042132,0.0022459,0.030869,0.00080334,0.0095016,-0.00075777,0,0,0.055554,-0.022616,0,-0.0039404,0,0,0,0.030888,0.00078425,0.0095016,-1.4429,0.013725,0.026829,6.5031e-07,0.86,0.39,0
0.042687,0.00235,0.030988,0.001092,0.0096239,-0.00071383,0,0,0.055546,-0.022183,0,-0.0037119,0,0,0,0.031005,0.001075,0.0096239,-1.367,0.013901,0.026702,6.5059e-07,0.87,0.39,0
0.043243,0.0024433,0.031103,0.0013115,0.0097242,-0.00068687,0,0,0.055584,-0.021873,0,-0.0035717,0,0,0,0.031118,0.0012957,0.0097242,-1.3201,0.014046,0.026628,6.523e-07,0.88,0.39,0
0.043799,0.002526,0.031213,0.0014693,0.0098046,-0.00066835,0,0,0.055661,-0.021672,0,-0.0034754,0,0,0,0.031228,0.0014543,0.0098046,-1.2866,0.014162,0.0266,6.5524e-07,0.89,0.39,0
0.044356,0.0025985,0.03132,0.0015742,0.0098681,-0.0006503,0,0,0.055774,-0.021564,0,-0.0033815,0,0,0,0.031334,0.00156,0.0098681,-1.2518,0.014254,0.026611,6.5931e-07,0.9,0.39,0
0.044914,0.0026613,0.031423,0.0016374,0.0099181,-0.00062639,0,0,0.055912,-0.02153,0,-0.0032572,0,0,0,0.031436,0.0016243,0.0099181,-1.2042,0.014326,0.026651,6.6423e-07,0.91,0.39,0
0.045474,0.002715,0.031521,0.0016697,0.0099572,-0.00059289,0,0,0.056066,-0.021548,0,-0.003083,0,0,0,0.031533,0.0016579,0.0099572,-1.1374,0.014383,0.02671,6.6962e-07,0.92,0.39,0
0.046036,0.0027605,0.031612,0.0016803,0.0099876,-0.00054831,0,0,0.056223,-0.021599,0,-0.0028512,0,0,0,0.031622,0.0016703,0.0099876,-1.0491,0.014427,0.02678,6.7511e-07,0.93,0.39,0
0.046599,0.0027984,0.031693,0.001677,0.010011,-0.00049266,0,0,0.056374,-0.021669,0,-0.0025618,0,0,0,0.031701,0.0016689,0.010011,-0.94005,0.01446,0.026852,6.8036e-07,0.94,0.39,0
0.047163,0.0028293,0.031764,0.0016656,0.010029,-0.00042682,0,0,0.056511,-0.021745,0,-0.0022195,0,0,0,0.03177,0.0016595,0.010029,-0.81229,0.014486,0.02692,6.8515e-07,0.95,0.39,0
0.047729,0.0028538,0.031823,0.0016507,0.010042,-0.00035221,0,0,0.05663,-0.021818,0,-0.0018315,0,0,0,0.031827,0.0016466,0.010042,-0.6687,0.014505,0.026981,6.8927e-07,0.96,0.39,0
0.048295,0.0028724,0.031869,0.001636,0.010052,-0.00027044,0,0,0.056726,-0.021881,0,-0.0014063,0,0,0,0.031872,0.0016335,0.010052,-0.51247,0.014519,0.027031,6.926e-07,0.97,0.39,0
0.048863,0.0028854,0.031903,0.0016238,0.010058,-0.00018329,0,0,0.056796,-0.021929,0,-0.00095313,0,0,0,0.031904,0.0016227,0.010058,-0.34682,0.014528,0.027068,6.9503e-07,0.98,0.39,0
0.049432,0.0028931,0.031923,0.0016158,0.010062,-9.2545e-05,0,0,0.056839,-0.021959,0,-0.00048124,0,0,0,0.031923,0.0016155,0.010062,-0.17496,0.014533,0.027091,6.9651e-07,0.99,0.39,0
0.05,0.0028957,0.031929,0.001613,0.010063,4.9044e-05,0,0,0.056854,-0.021969,0,0.00025503,0,0,0,0.03193,0.0016129,0.010063,0.092689,0.014535,0.027099,6.9702e-07,1,0.39,0
0,0,0.028557,0.012239,0.012239,0.0018911,0,0,0.042427,-3.2526e-19,0,0.0098336,0,0,0,0.028773,0.012022,0.012239,6.5247,0.017678,0.016644,2.3666e-07,0,0.4,0
0.00042427,9.8336e-05,0.028514,0.011738,0.012076,0.0018886,0,0,0.04274,-0.00087707,0,0.0098206,0,0,0,0.028724,0.011528,0.012076,6.3444,0.017443,0.016929,2.4829e-07,0.01,0.4,0
0.00085479,0.00019489,0.028682,0.011332,0.012004,0.0018701,0,0,0.043362,-0.0017472,0,0.0097245,0,0,0,0.028881,0.011133,0.012004,6.0828,0.01734,0.017329,2.6499e-07,0.02,0.4,0
0.0012915,0.00028973,0.028849,0.01093,0.011934,0.0018531,0,0,0.043979,-0.0026097,0,0.009636,0,0,0,0.029038,0.01074,0.011934,5.8428,0.017237,0.017732,2.8196e-07,0.03,0.4,0
0.0017344,0.00038288,0.029014,0.010531,0.011864,0.0018371,0,0,0.044591,-0.0034637,0,0.0095527,0,0,0,0.029195,0.010351,0.011864,5.6216,0.017136,0.018135,2.9915e-07,0.04,0.4,0
0.0021833,0.00047438,0.029178,0.010138,0.011795,0.0018217,0,0,0.045197,-0.0043084,0,0.0094729,0,0,0,0.029351,0.0099649,0.011795,5.4164,0.017037,0.018539,3.1652e-07,0.05,0.4,0
0.0026383,0.00056422,0.02934,0.0097487,0.011727,0.0018067,0,0,0.045795,-0.0051427,0,0.009395,0,0,0,0.029505,0.0095835,0.011727,5.2251,0.016938,0.018942,3.3401e-07,0.06,0.4,0
0.0030992,0.0006524,0.0295,0.0093652,0.01166,0.0017919,0,0,0.046386,-0.0059655,0,0.0093178,0,0,0,0.029659,0.009207,0.01166,5.0461,0.016842,0.019342,3.5159e-07,0.07,0.4,0
0.003566,0.0007389,0.029658,0.0089876,0.011594,0.001777,0,0,0.046967,-0.0067759,0,0.0092405,0,0,0,0.02981,0.0088359,0.011594,4.878,0.016746,0.01974,3.6919e-07,0.08,0.4,0
0.0040386,0.00082371,0.029813,0.0086163,0.011529,0.001762,0,0,0.047539,-0.0075725,0,0.0091623,0,0,0,0.029958,0.0084708,0.011529,4.7196,0.016653,0.020134,3.8677e-07,0.09,0.4,0
0.0045168,0.00090678,0.029965,0.0082519,0.011465,0.0017468,0,0,0.0481,-0.0083544,0,0.0090831,0,0,0,0.030105,0.0081123,0.011465,4.5701,0.016561,0.020523,4.0428e-07,0.1,0.4,0
0.0050006,0.00098807,0.030114,0.0078949,0.011403,0.0017313,0,0,0.04865,-0.0091203,0,0.0090027,0,0,0,0.030248,0.0077608,0.011403,4.4288,0.016471,0.020906,4.2167e-07,0.11,0.4,0
0.0054898,0.0010676,0.03026,0.0075459,0.011342,0.0017156,0,0,0.049187,-0.0098691,0,0.0089214,0,0,0,0.030389,0.007417,0.011342,4.2953,0.016382,0.021282,4.3888e-07,0.12,0.4,0
0.0059843,0.0011452,0.030402,0.0072053,0.011282,0.0016999,0,0,0.049711,-0.0106,0,0.0088395,0,0,0,0.030526,0.0070814,0.011282,4.1692,0.016296,0.021652,4.5587e-07,0.13,0.4,0
0.006484,0.0012209,0.03054,0.0068735,0.011224,0.0016842,0,0,0.05022,-0.011311,0,0.0087577,0,0,0,0.030659,0.0067543,0.011224,4.0502,0.016212,0.022013,4.7258e-07,0.14,0.4,0
0.0069887,0.0012947,0.030673,0.0065512,0.011167,0.0016686,0,0,0.050715,-0.012002,0,0.0086767,0,0,0,0.030788,0.0064363,0.011167,3.9383,0.016131,0.022365,4.8899e-07,0.15,0.4,0
0.0074983,0.0013664,0.030803,0.0062387,0.011112,0.0016534,0,0,0.051194,-0.012672,0,0.0085974,0,0,0,0.030913,0.0061279,0.011112,3.8334,0.016051,0.022707,5.0503e-07,0.16,0.4,0
0.0080126,0.0014361,0.030927,0.0059364,0.011059,0.0016386,0,0,0.051657,-0.013319,0,0.0085209,0,0,0,0.031034,0.0058294,0.011059,3.7355,0.015974,0.02304,5.2067e-07,0.17,0.4,0
0.0085315,0.0015038,0.031047,0.0056447,0.011008,0.0016247,0,0,0.052103,-0.013943,0,0.0084483,0,0,0,0.031151,0.0055412,0.011008,3.6447,0.0159,0.023361,5.3588e-07,0.18,0.4,0
0.0090547,0.0015692,0.031162,0.005364,0.010958,0.0016117,0,0,0.052532,-0.014544,0,0.0083807,0,0,0,0.031263,0.0052637,0.010958,3.5609,0.015828,0.023671,5.5061e-07,0.19,0.4,0
0.0095821,0.0016326,0.031272,0.0050946,0.01091,0.0015999,0,0,0.052942,-0.01512,0,0.0083194,0,0,0,0.03137,0.0049972,0.01091,3.4844,0.015759,0.02397,5.6483e-07,0.2,0.4,0
0.010113,0.0016937,0.031377,0.0048368,0.010864,0.0015895,0,0,0.053334,-0.015671,0,0.0082656,0,0,0,0.031472,0.0047419,0.010864,3.4152,0.015693,0.024256,5.7851e-07,0.21,0.4,0
0.010649,0.0017526,0.031477,0.0045908,0.01082,0.0015808,0,0,0.053707,-0.016196,0,0.0082204,0,0,0,0.031569,0.0044982,0.01082,3.3535,0.015629,0.024529,5.9162e-07,0.22,0.4,0
0.011188,0.0018091,0.031571,0.004357,0.010778,0.0015741,0,0,0.05406,-0.016695,0,0.0081851,0,0,0,0.031662,0.0042662,0.010778,3.2993,0.015569,0.024789,6.0413e-07,0.23,0.4,0
0.01173,0.0018634,0.031659,0.0041355,0.010738,0.0015693,0,0,0.054394,-0.017168,0,0.0081606,0,0,0,0.031748,0.0040463,0.010738,3.2528,0.015511,0.025036,6.1603e-07,0.24,0.4,0
0.012275,0.0019153,0.031742,0.0039264,0.010701,0.0015669,0,0,0.054708,-0.017613,0,0.008148,0,0,0,0.03183,0.0038385,0.010701,3.214,0.015456,0.02527,6.2729e-07,0.25,0.4,0
0.012824,0.0019649,0.031819,0.0037301,0.010665,0.0015669,0,0,0.055002,-0.01803,0,0.0081481,0,0,0,0.031907,0.0036429,0.010665,3.183,0.015405,0.025489,6.3788e-07,0.26,0.4,0
0.013376,0.002012,0.031891,0.0035465,0.010631,0.0015696,0,0,0.055275,-0.01842,0,0.0081616,0,0,0,0.031977,0.0034599,0.010631,3.1599,0.015356,0.025694,6.4779e-07,0.27,0.4,0
0.01393,0.0020566,0.031956,0.0033759,0.0106,0.0015748,0,0,0.055527,-0.018782,0,0.0081891,0,0,0,0.032043,0.0032893,0.0106,3.1444,0.01531,0.025884,6.5699e-07,0.28,0.4,0
0.014486,0.0020987,0.032015,0.0032182,0.01057,0.0015828,0,0,0.055758,-0.019115,0,0.0082308,0,0,0,0.032102,0.0031314,0.01057,3.1367,0.015268,0.02606,6.6548e-07,0.29,0.4,0
0.015045,0.0021381,0.032068,0.0030735,0.010542,0.0015936,0,0,0.055967,-0.019419,0,0.0082867,0,0,0,0.032155,0.0029862,0.010542,3.1365,0.015228,0.026221,6.7323e-07,0.3,0.4,0
0.015605,0.0021749,0.032115,0.0029419,0.010517,0.001607,0,0,0.056154,-0.019695,0,0.0083566,0,0,0,0.032203,0.0028536,0.010517,3.1436,0.015191,0.026367,6.8021e-07,0.31,0.4,0
0.016168,0.0022089,0.032154,0.0028233,0.010493,0.001623,0,0,0.056319,-0.019942,0,0.0084398,0,0,0,0.032244,0.0027338,0.010493,3.1576,0.015157,0.026497,6.8642e-07,0.32,0.4,0
0.016732,0.00224,0.032187,0.0027176,0.010471,0.0016414,0,0,0.056461,-0.02016,0,0.0085353,0,0,0,0.032278,0.0026265,0.010471,3.1782,0.015126,0.026611,6.9183e-07,0.33,0.4,0
0.017297,0.0022681,0.032213,0.0026247,0.010451,0.0016619,0,0,0.05658,-0.020349,0,0.0086417,0,0,0,0.032306,0.0025316,0.010451,3.2047,0.015096,0.02671,6.9642e-07,0.34,0.4,0
0.017863,0.002293,0.032231,0.0025443,0.010433,0.001684,0,0,0.056676,-0.02051,0,0.0087569,0,0,0,0.032327,0.002449,0.010433,3.2363,0.015069,0.026793,7.0019e-07,0.35,0.4,0
0.018431,0.0023144,0.032242,0.002476,0.010415,0.0017074,0,0,0.056749,-0.020643,0,0.0088784,0,0,0,0.03234,0.0023783,0.010415,3.2722,0.015045,0.02686,7.0311e-07,0.36,0.4,0
0.018998,0.0023322,0.032245,0.0024192,0.010399,0.0017313,0,0,0.056798,-0.020748,0,0.0090028,0,0,0,0.032345,0.0023191,0.010399,3.3111,0.015021,0.026911,7.0517e-07,0.37,0.4,0
0.019567,0.0023461,0.032239,0.0023733,0.010384,0.001755,0,0,0.056824,-0.020827,0,0.0091262,0,0,0,0.032342,0.0022705,0.010384,3.3516,0.014999,0.026947,7.0637e-07,0.38,0.4,0
0.020135,0.0023556,0.032225,0.002337,0.010369,0.0017777,0,0,0.056827,-0.020882,0,0.0092439,0,0,0,0.032331,0.0022317,0.010369,3.3919,0.014977,0.026967,7.0672e-07,0.39,0.4,0
0.020703,0.0023605,0.032203,0.0023091,0.010354,0.0017982,0,0,0.056808,-0.020916,0,0.0093505,0,0,0,0.032311,0.0022013,0.010354,3.43,0.014955,0.026974,7.0623e-07,0.4,0.4,0
0.021271,0.0023602,0.032172,0.0022874,0.010338,0.0018153,0,0,0.056769,-0.020931,0,0.0094396,0,0,0,0.032282,0.0021776,0.010338,3.4634,0.014932,0.026967,7.0496e-07,0.41,0.4,0
0.021839,0.0023542,0.032133,0.0022696,0.010321,0.0018278,0,0,0.056711,-0.020933,0,0.0095045,0,0,0,0.032244,0.0021581,0.010321,3.4895,0.014908,0.026948,7.0298e-07,0.42,0.4,0
0.022405,0.0023418,0.032086,0.002252,0.010301,0.0018342,0,0,0.056639,-0.020928,0,0.009538,0,0,0,0.032198,0.0021396,0.010301,3.5051,0.01488,0.026922,7.0039e-07,0.43,0.4,0
0.022971,0.0023224,0.032031,0.0022302,0.010278,0.0018333,0,0,0.056558,-0.020925,0,0.009533,0,0,0,0.032144,0.0021179,0.010278,3.507,0.014847,0.026891,6.9738e-07,0.44,0.4,0
0.023536,0.0022952,0.031972,0.0021984,0.010251,0.0018238,0,0,0.056474,-0.020937,0,0.0094836,0,0,0,0.032083,0.0020871,0.010251,3.4923,0.014807,0.026861,6.9419e-07,0.45,0.4,0
0.024101,0.0022592,0.031909,0.0021488,0.010217,0.0018052,0,0,0.056398,-0.020978,0,0.0093869,0,0,0,0.032018,0.0020397,0.010217,3.4585,0.014758,0.026841,6.9118e-07,0.46,0.4,0
0.024664,0.0022136,0.031846,0.0020715,0.010175,0.0017781,0,0,0.056345,-0.02107,0,0.0092461,0,0,0,0.031952,0.0019657,0.010175,3.4054,0.014698,0.02684,6.8886e-07,0.47,0.4,0
0.025228,0.0021574,0.031788,0.0019537,0.010122,0.0017457,0,0,0.05633,-0.021239,0,0.0090774,0,0,0,0.03189,0.0018519,0.010122,3.3373,0.014621,0.026874,6.8783e-07,0.48,0.4,0
0.025791,0.0020899,0.031735,0.0017806,0.010055,0.0017153,0,0,0.05637,-0.021513,0,0.0089196,0,0,0,0.031833,0.0016827,0.010055,3.2667,0.014524,0.026958,6.8872e-07,0.49,0.4,0
0.026355,0.0020104,0.031685,0.0015371,0.0099666,0.0016984,0,0,0.056467,-0.021917,0,0.0088317,0,0,0,0.03178,0.0014418,0.0099666,3.2142,0.014396,0.027101,6.9166e-07,0.5,0.4,0
0.02692,0.0019185,0.031633,0.0012238,0.0098571,0.0017045,0,0,0.056618,-0.022447,0,0.0088632,0,0,0,0.031728,0.0011285,0.0098571,3.1981,0.014238,0.027303,6.9649e-07,0.51,0.4,0
0.027487,0.0018138,0.031603,0.00084261,0.0097338,0.0017387,0,0,0.056861,-0.023117,0,0.0090411,0,0,0,0.031701,0.00074465,0.0097338,3.2248,0.01406,0.027583,7.0459e-07,0.52,0.4,0
0.028058,0.0016965,0.031541,0.00027798,0.0095456,0.0018067,0,0,0.057187,-0.024096,0,0.0093949,0,0,0,0.031645,0.00017391,0.0095456,3.2966,0.013788,0.027987,7.151e-07,0.53,0.4,0
0.028631,0.0015667,0.031595,-0.00036936,0.0093676,0.0020319,0,0,0.057791,-0.025316,0,0.010566,0,0,0,0.031724,-0.00049802,0.0093676,3.6228,0.013531,0.028595,7.3676e-07,0.54,0.4,0
0.029213,0.0014327,0.031261,-0.0014688,0.0089377,0.0023079,0,0,0.058041,-0.027057,0,0.012001,0,0,0,0.031423,-0.0016307,0.0089377,4.0137,0.01291,0.029239,7.4142e-07,0.55,0.4,0
0.029792,0.001289,0.032124,-0.0018214,0.0090908,0.0031665,0,0,0.059886,-0.028372,0,0.016466,0,0,0,0.032417,-0.0021142,0.0090908,5.2839,0.013131,0.030513,8.2367e-07,0.56,0.4,0
0.030411,0.0011572,0.036986,-0.0024866,0.01035,0.0029455,0,0,0.048419,-0.022991,0,0.011909,0,0,0,0.037228,-0.0027289,0.01035,4.5431,0.01495,0.035287,1.3985e-06,0.57,0.4,0
0.030828,0.0010827,0.034067,-0.00086275,0.0099612,0.0019364,0,0,0.041783,-0.020272,0,0.0092326,0,0,0,0.034272,-0.0010679,0.0099612,3.955,0.014388,0.031364,1.239e-06,0.58,0.4,0
0.031247,0.0010801,0.030491,-0.0010124,0.0088435,0.00065974,0,0,0.038615,-0.017393,0,0.0031815,0,0,0,0.030519,-0.0010403,0.0088435,1.5285,0.012774,0.02796,7.9553e-07,0.59,0.4,0
0.031567,0.0010896,0.035327,-0.0018688,0.010037,-0.00012431,0,0,0.032876,-0.015478,0,-0.0003232,0,0,0,0.035327,-0.0018692,0.010037,-0.19148,0.014499,0.032901,1.0545e-06,0.6,0.4,0
0.031904,0.0010853,0.036388,-0.00074234,0.010694,-6.9477e-06,0,0,0.033403,-0.014867,0,-1.8064e-05,0,0,0,0.036388,-0.00074234,0.010694,-0.010721,0.015446,0.032937,1.1172e-06,0.61,0.4,0
0.032235,0.0010739,0.036531,-5.5186e-05,0.010943,0.00018949,0,0,0.033265,-0.014297,0,0.00049266,0,0,0,0.036532,-5.6168e-05,0.010943,0.29673,0.015806,0.032515,1.1086e-06,0.62,0.4,0
0.03257,0.0010724,0.036669,-0.00067826,0.010797,0.0004513,0,0,0.033634,-0.014918,0,0.0011734,0,0,0,0.036675,-0.00068371,0.010797,0.69221,0.015596,0.033145,1.1418e-06,0.63,0.4,0
0.032908,0.0010734,0.036852,-0.0011155,0.010721,0.00024404,0,0,0.03397,-0.015387,0,0.00063451,0,0,0,0.036853,-0.0011171,0.010721,0.36826,0.015486,0.033651,1.172e-06,0.64,0.4,0
0.033249,0.00107,0.037056,-0.00071119,0.010903,0.00012253,0,0,0.033999,-0.015099,0,0.00031857,0,0,0,0.037056,-0.00071158,0.010903,0.18588,0.015749,0.033506,1.1785e-06,0.65,0.4,0
0.033588,0.0010638,0.037002,-0.00051992,0.010945,0.00013094,0,0,0.033875,-0.014904,0,0.00034044,0,0,0,0.037003,-0.00052038,0.010945,0.19994,0.015809,0.033305,1.1672e-06,0.66,0.4,0
0.033926,0.0010589,0.03702,-0.00043241,0.010976,0.00018949,0,0,0.033857,-0.014831,0,0.00049267,0,0,0,0.037021,-0.00043337,0.010976,0.28988,0.015855,0.033252,1.1661e-06,0.67,0.4,0
0.034265,0.0010566,0.037056,-0.0004008,0.010996,0.00023872,0,0,0.033877,-0.014816,0,0.00062069,0,0,0,0.037057,-0.00040232,0.010996,0.36515,0.015884,0.033259,1.1685e-06,0.68,0.4,0
0.034604,0.0010572,0.03706,-0.00041798,0.010993,0.00028238,0,0,0.033887,-0.014834,0,0.0007342,0,0,0,0.037062,-0.00042011,0.010993,0.43168,0.015878,0.033277,1.1695e-06,0.69,0.4,0
0.034943,0.0010605,0.037032,-0.00048392,0.010965,0.00033397,0,0,0.033888,-0.014883,0,0.00086833,0,0,0,0.037035,-0.00048689,0.010965,0.51,0.015838,0.033307,1.1692e-06,0.7,0.4,0
0.035282,0.0010664,0.037024,-0.00060549,0.010925,0.00039605,0,0,0.033928,-0.01499,0,0.0010297,0,0,0,0.037028,-0.00060966,0.010925,0.60295,0.015781,0.033399,1.1725e-06,0.71,0.4,0
0.035622,0.0010736,0.037082,-0.00082965,0.010876,0.00040868,0,0,0.034068,-0.015217,0,0.0010626,0,0,0,0.037086,-0.00083406,0.010876,0.61755,0.015709,0.033631,1.1852e-06,0.72,0.4,0
0.035963,0.0010779,0.036882,-0.0012481,0.01069,0.00029619,0,0,0.034049,-0.01552,0,0.00077009,0,0,0,0.036884,-0.0012504,0.01069,0.44503,0.015441,0.033786,1.1791e-06,0.73,0.4,0
0.036303,0.001078,0.036715,-0.00081511,0.01077,0.00011521,0,0,0.033729,-0.015061,0,0.00029955,0,0,0,0.036715,-0.00081546,0.01077,0.17589,0.015557,0.033286,1.1497e-06,0.74,0.4,0
0.036638,0.0010811,0.036589,-0.00025236,0.010901,0.00040393,0,0,0.033394,-0.014499,0,0.0010502,0,0,0,0.036593,-0.00025679,0.010901,0.62809,0.015746,0.03273,1.1207e-06,0.75,0.4,0
0.03697,0.0010938,0.036449,-0.001001,0.010634,0.00061472,0,0,0.033559,-0.015126,0,0.0015983,0,0,0,0.036459,-0.001011,0.010634,0.94013,0.015361,0.033216,1.132e-06,0.76,0.4,0
0.037309,0.0010995,0.035463,-0.0020637,0.01002,0.00074065,0,0,0.033077,-0.015709,0,0.0019257,0,0,0,0.035478,-0.0020783,0.01002,1.1302,0.014473,0.033204,1.0735e-06,0.77,0.4,0
0.037632,0.0010909,0.030616,-0.0011978,0.0088254,-0.00011509,0,0,0.038865,-0.017693,0,-0.0012239,0,0,0,0.030629,-0.0012115,0.0088254,-0.52786,0.012748,0.028196,8.0977e-07,0.78,0.4,0
0.038053,0.0010977,0.034022,-0.0012437,0.0098336,-0.0013534,0,0,0.041927,-0.020743,0,-0.0070841,0,0,0,0.034166,-0.0013874,0.0098336,-2.9682,0.014204,0.031527,1.2463e-06,0.79,0.4,0
0.03847,0.0011749,0.03677,-0.003052,0.010115,-0.0022993,0,0,0.048451,-0.023601,0,-0.0095407,0,0,0,0.036925,-0.003207,0.010115,-3.5873,0.014611,0.035405,1.3813e-06,0.8,0.4,0
0.03909,0.0013162,0.031953,-0.0023969,0.0088667,-0.0025823,0,0,0.060024,-0.029285,0,-0.013428,0,0,0,0.032146,-0.0025899,0.0088667,-4.2753,0.012807,0.030657,8.1359e-07,0.81,0.4,0
0.039671,0.0014706,0.031175,-0.0020058,0.0087506,-0.0016686,0,0,0.058302,-0.027967,0,-0.0086766,0,0,0,0.031258,-0.0020895,0.0087506,-2.8716,0.01264,0.029463,7.395e-07,0.82,0.4,0
0.040256,0.0016177,0.031532,-0.0009038,0.0091885,-0.0013249,0,0,0.058094,-0.02624,0,-0.0068895,0,0,0,0.031586,-0.00095783,0.0091885,-2.3352,0.013272,0.028842,7.3793e-07,0.83,0.4,0
0.040833,0.0017622,0.031508,-0.00023013,0.0093832,-0.001045,0,0,0.057523,-0.024995,0,-0.0054341,0,0,0,0.031542,-0.00026451,0.0093832,-1.8839,0.013554,0.028247,7.1874e-07,0.84,0.4,0
0.041406,0.0018952,0.031589,0.0003518,0.0095822,-0.0009278,0,0,0.057217,-0.023999,0,-0.0048246,0,0,0,0.031616,0.00032426,0.0095822,-1.6998,0.013841,0.027842,7.0947e-07,0.85,0.4,0
0.041977,0.0020165,0.031638,0.00074421,0.0097145,-0.00084977,0,0,0.057,-0.023323,0,-0.0044188,0,0,0,0.031661,0.00072085,0.0097145,-1.5744,0.014032,0.027566,7.0249e-07,0.86,0.4,0
0.042546,0.0021252,0.031707,0.0010601,0.0098302,-0.000801,0,0,0.05688,-0.022802,0,-0.0041652,0,0,0,0.031728,0.0010392,0.0098302,-1.4961,0.014199,0.027373,6.988e-07,0.87,0.4,0
0.043115,0.0022219,0.031777,0.0012988,0.0099227,-0.00077486,0,0,0.056821,-0.022422,0,-0.0040293,0,0,0,0.031797,0.0012792,0.0099227,-1.4554,0.014333,0.027244,6.9707e-07,0.88,0.4,0
0.043683,0.0023068,0.031848,0.0014594,0.0099924,-0.00076027,0,0,0.056826,-0.022186,0,-0.0039534,0,0,0,0.031867,0.0014404,0.0099924,-1.4322,0.014433,0.02718,6.9751e-07,0.89,0.4,0
0.044251,0.0023804,0.031927,0.0015576,0.010045,-0.00074463,0,0,0.056892,-0.022068,0,-0.0038721,0,0,0,0.031945,0.0015394,0.010045,-1.4037,0.01451,0.02717,7.0004e-07,0.9,0.4,0
0.044821,0.0024435,0.032009,0.0016093,0.010086,-0.00071952,0,0,0.057001,-0.022038,0,-0.0037415,0,0,0,0.032026,0.0015923,0.010086,-1.3551,0.014568,0.0272,7.0405e-07,0.91,0.4,0
0.045391,0.0024971,0.032091,0.0016286,0.010116,-0.00068135,0,0,0.057135,-0.022067,0,-0.003543,0,0,0,0.032106,0.0016133,0.010116,-1.2807,0.014612,0.027255,7.0888e-07,0.92,0.4,0
0.045963,0.0025419,0.032169,0.0016264,0.010139,-0.00062937,0,0,0.057279,-0.022132,0,-0.0032727,0,0,0,0.032182,0.0016134,0.010139,-1.18,0.014645,0.027322,7.14e-07,0.93,0.4,0
0.046537,0.0025791,0.03224,0.0016113,0.010155,-0.00056438,0,0,0.057419,-0.022214,0,-0.0029348,0,0,0,0.03225,0.0016009,0.010155,-1.0553,0.014669,0.027393,7.1899e-07,0.94,0.4,0
0.047112,0.0026092,0.032301,0.0015897,0.010167,-0.0004879,0,0,0.057549,-0.022302,0,-0.0025371,0,0,0,0.032309,0.001582,0.010167,-0.90991,0.014686,0.02746,7.2356e-07,0.95,0.4,0
0.047688,0.0026329,0.032353,0.0015666,0.010176,-0.00040177,0,0,0.057661,-0.022384,0,-0.0020892,0,0,0,0.032358,0.0015613,0.010176,-0.74754,0.014698,0.02752,7.2751e-07,0.96,0.4,0
0.048265,0.0026508,0.032394,0.0015453,0.010182,-0.00030796,0,0,0.057751,-0.022455,0,-0.0016014,0,0,0,0.032397,0.0015422,0.010182,-0.5719,0.014707,0.02757,7.307e-07,0.97,0.4,0
0.048843,0.0026633,0.032423,0.0015285,0.010186,-0.00020844,0,0,0.057818,-0.022508,0,-0.0010839,0,0,0,0.032425,0.0015271,0.010186,-0.38654,0.014712,0.027606,7.3303e-07,0.98,0.4,0
0.049421,0.0026707,0.032441,0.0015178,0.010188,-0.00010516,0,0,0.057859,-0.022542,0,-0.00054681,0,0,0,0.032441,0.0015174,0.010188,-0.19483,0.014715,0.027629,7.3446e-07,0.99,0.4,0
0.05,0.0026731,0.032447,0.0015141,0.010188,4.6964e-05,0,0,0.057872,-0.022553,0,0.00024421,0,0,0,0.032447,0.001514,0.010188,0.086989,0.014716,0.027636,7.3494e-07,1,0.4,0
0,0,0.028607,0.01226,0.01226,0.001722,0,0,0.042502,0,0,0.0089542,0,0,0,0.028787,0.012081,0.01226,5.9485,0.017709,0.016617,2.3556e-07,0,0.41,0
0.00042502,8.9542e-05,0.028564,0.011757,0.012096,0.0017197,0,0,0.042816,-0.00088192,0,0.0089422,0,0,0,0.028738,0.011583,0.012096,5.7826,0.017472,0.016904,2.4732e-07,0.01,0.41,0
0.00085632,0.00017738,0.028733,0.011349,0.012025,0.0017022,0,0,0.043441,-0.0017559,0,0.0088515,0,0,0,0.028898,0.011184,0.012025,5.5403,0.017369,0.017309,2.6422e-07,0.02,0.41,0
0.0012939,0.00026358,0.0289,0.010946,0.011954,0.0016864,0,0,0.044061,-0.0026214,0,0.0087693,0,0,0,0.029057,0.010789,0.011954,5.3195,0.017267,0.017715,2.8137e-07,0.03,0.41,0
0.0017376,0.00034818,0.029067,0.010546,0.011884,0.0016718,0,0,0.044675,-0.0034778,0,0.0086934,0,0,0,0.029216,0.010397,0.011884,5.1168,0.017166,0.018122,2.9873e-07,0.04,0.41,0
0.0021874,0.00043122,0.029232,0.010152,0.011815,0.0016581,0,0,0.045283,-0.0043242,0,0.0086221,0,0,0,0.029375,0.010009,0.011815,4.9299,0.017066,0.018529,3.1627e-07,0.05,0.41,0
0.0026432,0.00051271,0.029395,0.0097626,0.011747,0.001645,0,0,0.045884,-0.0051599,0,0.008554,0,0,0,0.029532,0.0096257,0.011747,4.7567,0.016968,0.018934,3.3393e-07,0.06,0.41,0
0.003105,0.00059266,0.029556,0.0093789,0.01168,0.0016323,0,0,0.046476,-0.0059838,0,0.0084879,0,0,0,0.029687,0.0092477,0.01168,4.5954,0.016872,0.019338,3.5168e-07,0.07,0.41,0
0.0035727,0.00067106,0.029715,0.0090013,0.011615,0.0016198,0,0,0.04706,-0.0067951,0,0.008423,0,0,0,0.029841,0.0088754,0.011615,4.4446,0.016777,0.019739,3.6946e-07,0.08,0.41,0
0.0040462,0.00074789,0.029871,0.0086301,0.01155,0.0016075,0,0,0.047634,-0.0075928,0,0.0083587,0,0,0,0.029992,0.0085091,0.01155,4.3033,0.016684,0.020135,3.8723e-07,0.09,0.41,0
0.0045254,0.00082314,0.030025,0.0082658,0.011487,0.0015951,0,0,0.048198,-0.0083757,0,0.0082948,0,0,0,0.030141,0.0081495,0.011487,4.1706,0.016593,0.020527,4.0494e-07,0.1,0.41,0
0.0050102,0.00089677,0.030176,0.0079089,0.011425,0.0015829,0,0,0.048751,-0.0091428,0,0.008231,0,0,0,0.030288,0.007797,0.011425,4.0458,0.016503,0.020914,4.2255e-07,0.11,0.41,0
0.0055004,0.00096876,0.030323,0.0075599,0.011365,0.0015707,0,0,0.049292,-0.0098932,0,0.0081675,0,0,0,0.030431,0.0074521,0.011365,3.9286,0.016416,0.021294,4.4e-07,0.12,0.41,0
0.005996,0.0010391,0.030468,0.0072193,0.011306,0.0015586,0,0,0.04982,-0.010626,0,0.0081047,0,0,0,0.030572,0.0071153,0.011306,3.8184,0.016331,0.021667,4.5725e-07,0.13,0.41,0
0.0064968,0.0011076,0.030608,0.0068874,0.011249,0.0015468,0,0,0.050335,-0.01134,0,0.0080432,0,0,0,0.030709,0.0067869,0.011249,3.7151,0.016248,0.022033,4.7426e-07,0.14,0.41,0
0.0070027,0.0011745,0.030745,0.0065647,0.011193,0.0015353,0,0,0.050836,-0.012034,0,0.0079835,0,0,0,0.030842,0.0064676,0.011193,3.6185,0.016168,0.022389,4.9098e-07,0.15,0.41,0
0.0075135,0.0012395,0.030878,0.0062517,0.011139,0.0015244,0,0,0.051322,-0.012707,0,0.0079266,0,0,0,0.030972,0.0061577,0.011139,3.5286,0.01609,0.022737,5.0738e-07,0.16,0.41,0
0.0080292,0.0013028,0.031007,0.0059487,0.011087,0.0015141,0,0,0.051792,-0.013359,0,0.0078734,0,0,0,0.031098,0.0058575,0.011087,3.4453,0.016014,0.023075,5.234e-07,0.17,0.41,0
0.0085494,0.0013641,0.031131,0.0056561,0.011036,0.0015048,0,0,0.052247,-0.013988,0,0.0078248,0,0,0,0.03122,0.0055675,0.011036,3.3687,0.015941,0.023402,5.3903e-07,0.18,0.41,0
0.0090741,0.0014236,0.031251,0.0053742,0.010988,0.0014965,0,0,0.052685,-0.014595,0,0.007782,0,0,0,0.031337,0.0052879,0.010988,3.299,0.015871,0.023719,5.5421e-07,0.19,0.41,0
0.0096031,0.0014811,0.031366,0.0051034,0.010941,0.0014896,0,0,0.053106,-0.015178,0,0.0077462,0,0,0,0.03145,0.0050192,0.010941,3.236,0.015804,0.024024,5.6893e-07,0.2,0.41,0
0.010136,0.0015367,0.031477,0.004844,0.010896,0.0014843,0,0,0.05351,-0.015736,0,0.0077184,0,0,0,0.031559,0.0047615,0.010896,3.1801,0.015739,0.024318,5.8314e-07,0.21,0.41,0
0.010673,0.0015902,0.031583,0.0045962,0.010854,0.0014807,0,0,0.053895,-0.016269,0,0.0076998,0,0,0,0.031664,0.0045152,0.010854,3.1313,0.015678,0.024599,5.9683e-07,0.22,0.41,0
0.011214,0.0016418,0.031684,0.0043604,0.010813,0.0014791,0,0,0.054263,-0.016777,0,0.0076915,0,0,0,0.031763,0.0042805,0.010813,3.0896,0.015619,0.024869,6.0997e-07,0.23,0.41,0
0.011759,0.0016913,0.03178,0.0041366,0.010775,0.0014797,0,0,0.054612,-0.017259,0,0.0076946,0,0,0,0.031858,0.0040576,0.010775,3.0554,0.015564,0.025125,6.2253e-07,0.24,0.41,0
0.012306,0.0017387,0.03187,0.0039252,0.010739,0.0014827,0,0,0.054942,-0.017715,0,0.00771,0,0,0,0.031949,0.0038467,0.010739,3.0286,0.015511,0.025368,6.345e-07,0.25,0.41,0
0.012857,0.001784,0.031956,0.0037262,0.010705,0.0014882,0,0,0.055253,-0.018144,0,0.0077387,0,0,0,0.032034,0.003648,0.010705,3.0094,0.015462,0.025598,6.4585e-07,0.26,0.41,0
0.013411,0.0018272,0.032037,0.00354,0.010673,0.0014964,0,0,0.055545,-0.018546,0,0.0077813,0,0,0,0.032115,0.0034616,0.010673,2.9977,0.015416,0.025814,6.5657e-07,0.27,0.41,0
0.013968,0.0018681,0.032112,0.0033666,0.010644,0.0015074,0,0,0.055817,-0.01892,0,0.0078385,0,0,0,0.03219,0.0032877,0.010644,2.9937,0.015374,0.026017,6.6663e-07,0.28,0.41,0
0.014528,0.0019068,0.032181,0.0032061,0.010616,0.0015213,0,0,0.056069,-0.019266,0,0.0079105,0,0,0,0.032261,0.0031264,0.010616,2.9971,0.015334,0.026205,6.7602e-07,0.29,0.41,0
0.01509,0.0019431,0.032245,0.0030586,0.010591,0.001538,0,0,0.056301,-0.019585,0,0.0079976,0,0,0,0.032326,0.0029778,0.010591,3.0081,0.015298,0.026379,6.8472e-07,0.3,0.41,0
0.015654,0.0019771,0.032304,0.0029243,0.010568,0.0015576,0,0,0.056512,-0.019875,0,0.0080996,0,0,0,0.032386,0.0028419,0.010568,3.0263,0.015265,0.026538,6.9272e-07,0.31,0.41,0
0.01622,0.0020086,0.032356,0.0028031,0.010548,0.00158,0,0,0.056702,-0.020136,0,0.0082159,0,0,0,0.03244,0.0027188,0.010548,3.0516,0.015236,0.026683,6.9998e-07,0.32,0.41,0
0.016788,0.0020374,0.032403,0.002695,0.010529,0.0016049,0,0,0.056871,-0.020369,0,0.0083456,0,0,0,0.032489,0.0026086,0.010529,3.0834,0.015209,0.026812,7.065e-07,0.33,0.41,0
0.017357,0.0020635,0.032443,0.0026001,0.010513,0.0016322,0,0,0.057018,-0.020573,0,0.0084875,0,0,0,0.032532,0.0025111,0.010513,3.1213,0.015185,0.026927,7.1225e-07,0.34,0.41,0
0.017928,0.0020867,0.032476,0.002518,0.010498,0.0016614,0,0,0.057143,-0.020749,0,0.0086394,0,0,0,0.032568,0.0024262,0.010498,3.1646,0.015164,0.027026,7.1721e-07,0.35,0.41,0
0.0185,0.0021068,0.032503,0.0024487,0.010486,0.0016921,0,0,0.057246,-0.020896,0,0.0087989,0,0,0,0.032598,0.0023537,0.010486,3.2123,0.015146,0.027109,7.2138e-07,0.36,0.41,0
0.019073,0.0021234,0.032523,0.0023916,0.010474,0.0017236,0,0,0.057327,-0.021015,0,0.0089628,0,0,0,0.032621,0.0022933,0.010474,3.2633,0.01513,0.027177,7.2474e-07,0.37,0.41,0
0.019647,0.0021364,0.032536,0.0023461,0.010465,0.0017551,0,0,0.057385,-0.021108,0,0.0091267,0,0,0,0.032637,0.0022445,0.010465,3.3161,0.015116,0.02723,7.2727e-07,0.38,0.41,0
0.020221,0.0021454,0.032541,0.0023115,0.010456,0.0017857,0,0,0.057422,-0.021175,0,0.0092859,0,0,0,0.032646,0.0022063,0.010456,3.369,0.015103,0.027268,7.2898e-07,0.39,0.41,0
0.020795,0.0021499,0.032539,0.0022862,0.010448,0.0018143,0,0,0.057438,-0.021219,0,0.0094341,0,0,0,0.032647,0.0021778,0.010448,3.4197,0.015091,0.027291,7.299e-07,0.4,0.41,0
0.02137,0.0021494,0.03253,0.0022687,0.01044,0.0018393,0,0,0.057434,-0.021244,0,0.0095644,0,0,0,0.032641,0.0021573,0.01044,3.4655,0.015079,0.027302,7.3005e-07,0.41,0.41,0
0.021944,0.0021433,0.032513,0.0022564,0.010431,0.0018594,0,0,0.057414,-0.021254,0,0.0096686,0,0,0,0.032627,0.0021426,0.010431,3.5034,0.015067,0.027301,7.2952e-07,0.42,0.41,0
0.022518,0.002131,0.03249,0.0022461,0.010421,0.0018727,0,0,0.057381,-0.021255,0,0.0097379,0,0,0,0.032606,0.0021306,0.010421,3.5297,0.015052,0.027291,7.2841e-07,0.43,0.41,0
0.023092,0.0021116,0.032462,0.0022332,0.010409,0.0018774,0,0,0.05734,-0.021256,0,0.0097625,0,0,0,0.032579,0.0021171,0.010409,3.5403,0.015035,0.027278,7.2691e-07,0.44,0.41,0
0.023665,0.0020842,0.032431,0.0022118,0.010393,0.0018717,0,0,0.057299,-0.021271,0,0.0097328,0,0,0,0.032546,0.0020963,0.010393,3.5308,0.015012,0.027266,7.253e-07,0.45,0.41,0
0.024237,0.0020478,0.032399,0.0021737,0.010372,0.0018539,0,0,0.057271,-0.021315,0,0.0096401,0,0,0,0.032512,0.0020604,0.010372,3.4968,0.014982,0.027263,7.2399e-07,0.46,0.41,0
0.02481,0.0020012,0.032371,0.0021082,0.010344,0.0018228,0,0,0.057272,-0.021413,0,0.0094788,0,0,0,0.032481,0.0019988,0.010344,3.4345,0.014941,0.027284,7.236e-07,0.47,0.41,0
0.025383,0.0019432,0.032357,0.0020004,0.010307,0.0017798,0,0,0.057329,-0.021598,0,0.0092547,0,0,0,0.032461,0.0018964,0.010307,3.3439,0.014888,0.027347,7.2514e-07,0.48,0.41,0
0.025957,0.0018727,0.032364,0.001828,0.010257,0.0017309,0,0,0.057476,-0.021917,0,0.0090009,0,0,0,0.032461,0.0017302,0.010257,3.2341,0.014816,0.027478,7.2988e-07,0.49,0.41,0
0.026532,0.0017887,0.032398,0.0015684,0.01019,0.001695,0,0,0.057742,-0.022416,0,0.008814,0,0,0,0.032491,0.0014755,0.01019,3.1374,0.014719,0.027706,7.391e-07,0.5,0.41,0
0.027112,0.0016909,0.032428,0.0011925,0.010086,0.0016956,0,0,0.058089,-0.023123,0,0.008817,0,0,0,0.03252,0.0011007,0.010086,3.0981,0.014569,0.028028,7.5143e-07,0.51,0.41,0
0.027694,0.0015792,0.032459,0.00076875,0.0099682,0.0017339,0,0,0.058475,-0.023918,0,0.0090161,0,0,0,0.032553,0.00067416,0.0099682,3.1224,0.014398,0.028397,7.6537e-07,0.52,0.41,0
0.028281,0.0014506,0.032653,0.00032662,0.0098938,0.0018007,0,0,0.059173,-0.024875,0,0.0093638,0,0,0,0.032753,0.00022662,0.0098938,3.1786,0.014291,0.02893,7.9164e-07,0.53,0.41,0
0.028878,0.0013085,0.032488,-0.00085019,0.0094914,0.0018754,0,0,0.059792,-0.026888,0,0.0097522,0,0,0,0.032593,-0.00095536,0.0094914,3.2096,0.01371,0.029735,8.0999e-07,0.54,0.41,0
0.029477,0.0011488,0.033562,-0.0014886,0.009622,0.0025292,0,0,0.062243,-0.028887,0,0.013152,0,0,0,0.033743,-0.0016701,0.009622,4.1061,0.013898,0.031333,9.1609e-07,0.55,0.41,0
0.030122,0.00099826,0.038739,-0.0017081,0.011109,0.0023816,0,0,0.050274,-0.023196,0,0.0096477,0,0,0,0.038893,-0.0018627,0.011109,3.5821,0.016047,0.036065,1.563e-06,0.56,0.41,0
0.030554,0.00094947,0.03091,-0.002097,0.008644,0.0011757,0,0,0.039728,-0.019155,0,0.0054033,0,0,0,0.03098,-0.0021666,0.008644,2.4668,0.012486,0.029278,8.5901e-07,0.57,0.41,0
0.030883,0.00092526,0.03592,-0.0010127,0.010472,0.00077594,0,0,0.033082,-0.01493,0,0.0020175,0,0,0,0.035936,-0.001029,0.010472,1.203,0.015126,0.032765,1.0849e-06,0.58,0.41,0
0.031215,0.00092474,0.037183,-0.00063013,0.010966,-0.00012216,0,0,0.034082,-0.015075,0,-0.00031762,0,0,0,0.037184,-0.00063052,0.010966,-0.1851,0.01584,0.033554,1.1879e-06,0.59,0.41,0
0.031565,0.00093654,0.037503,-0.00089298,0.010983,0.00015713,0,0,0.034476,-0.015439,0,0.00040853,0,0,0,0.037504,-0.00089362,0.010983,0.23446,0.015864,0.034049,1.2273e-06,0.6,0.41,0
0.031905,0.00093342,0.036867,-0.00090139,0.01079,-8.9383e-05,0,0,0.033901,-0.015199,0,-0.0002324,0,0,0,0.036868,-0.0009016,0.01079,-0.13559,0.015585,0.033491,1.1667e-06,0.61,0.41,0
0.032243,0.00092802,0.036841,-0.00046684,0.010912,5.2704e-05,0,0,0.033708,-0.014793,0,0.00013703,0,0,0,0.036841,-0.00046692,0.010912,0.080939,0.015762,0.033119,1.1504e-06,0.62,0.41,0
0.032579,0.00092402,0.036799,-0.00059335,0.010862,0.00019465,0,0,0.033718,-0.014891,0,0.00050608,0,0,0,0.0368,-0.00059437,0.010862,0.29824,0.015689,0.033184,1.1506e-06,0.63,0.41,0
0.032917,0.00092176,0.036864,-0.00079935,0.010819,0.00020856,0,0,0.033858,-0.015104,0,0.00054226,0,0,0,0.036865,-0.0008005,0.010819,0.31727,0.015628,0.033407,1.1632e-06,0.64,0.41,0
0.033256,0.00091858,0.036943,-0.00075563,0.010856,0.00012875,0,0,0.033913,-0.015095,0,0.00033476,0,0,0,0.036943,-0.00075607,0.010856,0.19568,0.015681,0.033441,1.1692e-06,0.65,0.41,0
0.033595,0.00091438,0.036977,-0.00058268,0.010918,0.00011095,0,0,0.033876,-0.014951,0,0.00028848,0,0,0,0.036977,-0.00058301,0.010918,0.16925,0.015771,0.033333,1.1669e-06,0.66,0.41,0
0.033934,0.00091063,0.036964,-0.00047986,0.010945,0.00015194,0,0,0.033824,-0.014852,0,0.00039505,0,0,0,0.036964,-0.00048047,0.010945,0.2325,0.01581,0.033239,1.1623e-06,0.67,0.41,0
0.034272,0.00090867,0.036962,-0.00044134,0.010956,0.00021908,0,0,0.033808,-0.014817,0,0.0005696,0,0,0,0.036963,-0.00044262,0.010956,0.33558,0.015826,0.033208,1.161e-06,0.68,0.41,0
0.03461,0.00090902,0.036969,-0.00045982,0.010953,0.00029173,0,0,0.033821,-0.014836,0,0.00075849,0,0,0,0.036971,-0.00046209,0.010953,0.44654,0.015821,0.03323,1.1624e-06,0.69,0.41,0
0.034948,0.00091167,0.036984,-0.000535,0.010935,0.0003605,0,0,0.033864,-0.014911,0,0.00093729,0,0,0,0.036988,-0.00053847,0.010935,0.55045,0.015795,0.033306,1.1664e-06,0.7,0.41,0
0.035287,0.0009161,0.03701,-0.0006733,0.010901,0.00040476,0,0,0.033942,-0.015047,0,0.0010524,0,0,0,0.037015,-0.00067765,0.010901,0.61532,0.015746,0.033442,1.1734e-06,0.71,0.41,0
0.035627,0.00092095,0.036988,-0.00087676,0.010833,0.00039298,0,0,0.034001,-0.015223,0,0.0010218,0,0,0,0.036992,-0.00088084,0.010833,0.59456,0.015648,0.033585,1.1778e-06,0.72,0.41,0
0.035967,0.00092483,0.036922,-0.00094476,0.010793,0.00032564,0,0,0.033968,-0.015259,0,0.00084667,0,0,0,0.036925,-0.00094756,0.010793,0.49267,0.01559,0.033579,1.1735e-06,0.73,0.41,0
0.036306,0.00092793,0.036874,-0.00076714,0.010832,0.00035881,0,0,0.033855,-0.015079,0,0.00093291,0,0,0,0.036878,-0.00077056,0.010832,0.5461,0.015646,0.033395,1.1635e-06,0.74,0.41,0
0.036644,0.00093293,0.036932,-0.00068541,0.010874,0.00052026,0,0,0.033876,-0.015027,0,0.0013527,0,0,0,0.03694,-0.00069261,0.010874,0.7922,0.015707,0.033387,1.1668e-06,0.75,0.41,0
0.036984,0.00093942,0.03698,-0.0011512,0.010749,0.00067534,0,0,0.034101,-0.01547,0,0.0017559,0,0,0,0.036992,-0.0011632,0.010749,1.0143,0.015526,0.033812,1.1867e-06,0.76,0.41,0
0.037326,0.00094357,0.037617,-0.0011668,0.010935,0.00045044,0,0,0.034687,-0.015732,0,0.0011711,0,0,0,0.037622,-0.0011721,0.010935,0.66531,0.015795,0.034379,1.248e-06,0.77,0.41,0
0.037678,0.00093318,0.037314,-0.00087592,0.010932,0.00077005,0,0,0.034298,-0.01535,0,0.0020021,0,0,0,0.03733,-0.00089144,0.010932,1.1547,0.01579,0.033894,1.2104e-06,0.78,0.41,0
0.038012,0.00093656,0.03606,-0.0013959,0.010399,-0.00011605,0,0,0.033358,-0.015333,0,-0.00030173,0,0,0,0.03606,-0.0013963,0.010399,-0.17752,0.015021,0.03317,1.1069e-06,0.79,0.41,0
0.038345,0.00096225,0.031016,-0.002424,0.0085775,-0.00061531,0,0,0.04002,-0.019619,0,-0.0034188,0,0,0,0.031055,-0.0024636,0.0085775,-1.4899,0.01239,0.029586,8.7471e-07,0.8,0.41,0
0.038779,0.001015,0.038702,-0.0023389,0.010909,-0.0017073,0,0,0.050562,-0.023985,0,-0.0072012,0,0,0,0.038788,-0.0024246,0.010909,-2.6026,0.015758,0.036425,1.573e-06,0.81,0.41,0
0.039428,0.001177,0.033502,-0.0021358,0.0094098,-0.0019217,0,0,0.062639,-0.030019,0,-0.0099928,0,0,0,0.033605,-0.0022392,0.0094098,-3.0777,0.013592,0.03167,9.1873e-07,0.82,0.41,0
0.040032,0.0013494,0.032497,-0.0014418,0.0093166,-0.0012025,0,0,0.060269,-0.027972,0,-0.0062529,0,0,0,0.03254,-0.0014844,0.0093166,-2.0267,0.013457,0.030113,8.1859e-07,0.83,0.41,0
0.040633,0.0015065,0.032685,-0.00023673,0.0097345,-0.0010602,0,0,0.059672,-0.025925,0,-0.0055128,0,0,0,0.032719,-0.00027084,0.0097345,-1.8425,0.014061,0.029298,8.0217e-07,0.84,0.41,0
0.041225,0.0016512,0.032522,0.00023561,0.0098273,-0.00094579,0,0,0.059006,-0.024938,0,-0.0049181,0,0,0,0.03255,0.00020793,0.0098273,-1.6765,0.014195,0.028765,7.7747e-07,0.85,0.41,0
0.041813,0.0017794,0.032515,0.00066916,0.0099553,-0.00086299,0,0,0.058656,-0.024144,0,-0.0044875,0,0,0,0.032539,0.00064579,0.0099553,-1.5511,0.01438,0.028406,7.651e-07,0.86,0.41,0
0.042398,0.0018939,0.032514,0.0010495,0.010069,-0.00082004,0,0,0.058356,-0.023451,0,-0.0042642,0,0,0,0.032535,0.0010281,0.010069,-1.4919,0.014544,0.028099,7.5451e-07,0.87,0.41,0
0.04298,0.0019949,0.032506,0.0013038,0.010143,-0.00081384,0,0,0.058145,-0.022982,0,-0.004232,0,0,0,0.032528,0.0012826,0.010143,-1.4931,0.014651,0.027891,7.4698e-07,0.88,0.41,0
0.043561,0.0020823,0.032528,0.0014609,0.010197,-0.00081891,0,0,0.058062,-0.022713,0,-0.0042583,0,0,0,0.03255,0.0014393,0.010197,-1.5089,0.014729,0.027787,7.4418e-07,0.89,0.41,0
0.044142,0.0021571,0.032573,0.0015448,0.010235,-0.00081468,0,0,0.058077,-0.022595,0,-0.0042363,0,0,0,0.032594,0.0015234,0.010235,-1.503,0.014784,0.027759,7.449e-07,0.9,0.41,0
0.044723,0.0022205,0.03263,0.0015799,0.010263,-0.00079358,0,0,0.058155,-0.022576,0,-0.0041266,0,0,0,0.032651,0.0015596,0.010263,-1.4631,0.014824,0.027781,7.4786e-07,0.91,0.41,0
0.045305,0.0022737,0.032693,0.0015825,0.010283,-0.00075404,0,0,0.058267,-0.02262,0,-0.003921,0,0,0,0.032711,0.0015643,0.010283,-1.3876,0.014853,0.027831,7.5197e-07,0.92,0.41,0
0.045888,0.0023179,0.032754,0.0015651,0.010296,-0.00069716,0,0,0.058392,-0.0227,0,-0.0036252,0,0,0,0.03277,0.0015495,0.010296,-1.2799,0.014872,0.027895,7.5653e-07,0.93,0.41,0
0.046473,0.0023541,0.032811,0.0015366,0.010304,-0.00062494,0,0,0.058518,-0.022796,0,-0.0032497,0,0,0,0.032824,0.0015241,0.010304,-1.1443,0.014884,0.027963,7.6106e-07,0.94,0.41,0
0.047058,0.0023833,0.032862,0.0015038,0.01031,-0.00053972,0,0,0.058635,-0.022895,0,-0.0028065,0,0,0,0.032871,0.0014945,0.01031,-0.98577,0.014892,0.028028,7.6524e-07,0.95,0.41,0
0.047645,0.0024061,0.032904,0.0014716,0.010313,-0.00044393,0,0,0.058737,-0.022987,0,-0.0023084,0,0,0,0.03291,0.0014653,0.010313,-0.80899,0.014896,0.028086,7.6887e-07,0.96,0.41,0
0.048233,0.0024233,0.032937,0.0014435,0.010314,-0.0003399,0,0,0.05882,-0.023064,0,-0.0017675,0,0,0,0.032941,0.0014398,0.010314,-0.61829,0.014898,0.028134,7.718e-07,0.97,0.41,0
0.048822,0.0024352,0.032961,0.0014218,0.010315,-0.00022987,0,0,0.05888,-0.023122,0,-0.0011953,0,0,0,0.032963,0.0014202,0.010315,-0.41756,0.014899,0.028169,7.7394e-07,0.98,0.41,0
0.049411,0.0024423,0.032976,0.0014083,0.010315,-0.0001159,0,0,0.058917,-0.023158,0,-0.00060269,0,0,0,0.032976,0.0014078,0.010315,-0.21036,0.0149,0.028191,7.7525e-07,0.99,0.41,0
0.05,0.0024446,0.032981,0.0014036,0.010315,4.4698e-05,0,0,0.05893,-0.02317,0,0.00023243,0,0,0,0.032981,0.0014036,0.010315,0.081104,0.0149,0.028198,7.7569e-07,1,0.41,0
0,0,0.028655,0.012281,0.012281,0.0015519,0,0,0.042574,0,0,0.0080698,0,0,0,0.028801,0.012135,0.012281,5.3665,0.017739,0.016594,2.3461e-07,0,0.42,0
0.00042574,8.0698e-05,0.028612,0.011775,0.012116,0.0015498,0,0,0.042889,-0.00088702,0,0.0080589,0,0,0,0.028754,0.011633,0.012116,5.2154,0.017501,0.016884,2.4652e-07,0.01,0.42,0
0.00085779,0.00015977,0.028782,0.011365,0.012044,0.0015334,0,0,0.043518,-0.0017652,0,0.0079739,0,0,0,0.028916,0.011231,0.012044,4.9934,0.017397,0.017292,2.636e-07,0.02,0.42,0
0.0012961,0.0002373,0.02895,0.01096,0.011973,0.0015188,0,0,0.044141,-0.0026341,0,0.007898,0,0,0,0.029078,0.010833,0.011973,4.792,0.017295,0.017702,2.8093e-07,0.03,0.42,0
0.0017406,0.00031333,0.029118,0.01056,0.011903,0.0015057,0,0,0.044757,-0.0034932,0,0.0078294,0,0,0,0.029239,0.010438,0.011903,4.6084,0.017194,0.018113,2.9847e-07,0.04,0.42,0
0.0021913,0.00038789,0.029283,0.010164,0.011834,0.0014935,0,0,0.045367,-0.0043419,0,0.0077664,0,0,0,0.029399,0.010048,0.011834,4.4399,0.017094,0.018523,3.1618e-07,0.05,0.42,0
0.002648,0.00046102,0.029447,0.0097745,0.011767,0.0014822,0,0,0.04597,-0.0051794,0,0.0077076,0,0,0,0.029559,0.0096635,0.011767,4.2847,0.016996,0.018931,3.3401e-07,0.06,0.42,0
0.0031106,0.00053272,0.02961,0.0093905,0.0117,0.0014716,0,0,0.046565,-0.0060049,0,0.0076521,0,0,0,0.029716,0.0092839,0.0117,4.1409,0.0169,0.019338,3.5193e-07,0.07,0.42,0
0.0035793,0.000603,0.02977,0.0090125,0.011635,0.0014613,0,0,0.047151,-0.0068176,0,0.0075988,0,0,0,0.029872,0.0089102,0.011635,4.0073,0.016806,0.019741,3.6989e-07,0.08,0.42,0
0.0040537,0.00067185,0.029928,0.0086412,0.011571,0.0014514,0,0,0.047728,-0.0076167,0,0.0075474,0,0,0,0.030026,0.0085427,0.011571,3.8828,0.016713,0.020141,3.8785e-07,0.09,0.42,0
0.0045338,0.00073926,0.030083,0.0082768,0.011508,0.0014418,0,0,0.048295,-0.0084011,0,0.0074975,0,0,0,0.030178,0.0081818,0.011508,3.7665,0.016623,0.020536,4.0576e-07,0.1,0.42,0
0.0050196,0.00080522,0.030236,0.0079198,0.011447,0.0014325,0,0,0.048852,-0.00917,0,0.0074489,0,0,0,0.030327,0.0078282,0.011447,3.6578,0.016534,0.020926,4.2359e-07,0.11,0.42,0
0.0055109,0.00086969,0.030386,0.0075706,0.011387,0.0014234,0,0,0.049397,-0.0099224,0,0.0074018,0,0,0,0.030474,0.0074821,0.011387,3.5563,0.016448,0.02131,4.4127e-07,0.12,0.42,0
0.0060075,0.00093266,0.030532,0.0072296,0.011329,0.0014147,0,0,0.04993,-0.010657,0,0.0073565,0,0,0,0.030618,0.0071441,0.011329,3.4615,0.016363,0.021687,4.5879e-07,0.13,0.42,0
0.0065095,0.0009941,0.030676,0.0068974,0.011272,0.0014064,0,0,0.05045,-0.011374,0,0.0073135,0,0,0,0.030759,0.0068145,0.011272,3.3732,0.016282,0.022056,4.7608e-07,0.14,0.42,0
0.0070165,0.001054,0.030816,0.0065742,0.011217,0.0013987,0,0,0.050957,-0.012071,0,0.0072733,0,0,0,0.030896,0.0064938,0.011217,3.2913,0.016202,0.022417,4.9311e-07,0.15,0.42,0
0.0075286,0.0011123,0.030952,0.0062605,0.011164,0.0013917,0,0,0.05145,-0.012748,0,0.0072367,0,0,0,0.03103,0.0061823,0.011164,3.2157,0.016125,0.02277,5.0985e-07,0.16,0.42,0
0.0080455,0.0011689,0.031085,0.0059566,0.011112,0.0013855,0,0,0.051928,-0.013405,0,0.0072045,0,0,0,0.031161,0.0058804,0.011112,3.1464,0.016051,0.023113,5.2625e-07,0.17,0.42,0
0.0085672,0.001224,0.031213,0.0056629,0.011063,0.0013803,0,0,0.052391,-0.01404,0,0.0071778,0,0,0,0.031288,0.0055886,0.011063,3.0834,0.01598,0.023446,5.4228e-07,0.18,0.42,0
0.0090933,0.0012774,0.031338,0.0053798,0.011015,0.0013764,0,0,0.052839,-0.014652,0,0.0071574,0,0,0,0.031411,0.005307,0.011015,3.0268,0.015911,0.023769,5.5791e-07,0.19,0.42,0
0.0096239,0.001329,0.031458,0.0051076,0.01097,0.0013739,0,0,0.05327,-0.015242,0,0.0071445,0,0,0,0.03153,0.0050361,0.01097,2.9767,0.015845,0.024081,5.7311e-07,0.2,0.42,0
0.010159,0.001379,0.031575,0.0048465,0.010926,0.0013731,0,0,0.053686,-0.015808,0,0.0071401,0,0,0,0.031645,0.0047761,0.010926,2.9332,0.015783,0.024383,5.8785e-07,0.21,0.42,0
0.010698,0.0014272,0.031687,0.0045968,0.010885,0.0013741,0,0,0.054084,-0.016349,0,0.0071454,0,0,0,0.031756,0.0045273,0.010885,2.8964,0.015723,0.024672,6.0211e-07,0.22,0.42,0
0.01124,0.0014736,0.031794,0.0043588,0.010846,0.0013772,0,0,0.054466,-0.016866,0,0.0071614,0,0,0,0.031863,0.0042898,0.010846,2.8665,0.015666,0.02495,6.1586e-07,0.23,0.42,0
0.011787,0.0015182,0.031898,0.0041327,0.010809,0.0013825,0,0,0.05483,-0.017358,0,0.007189,0,0,0,0.031966,0.004064,0.010809,2.8436,0.015613,0.025215,6.2909e-07,0.24,0.42,0
0.012337,0.001561,0.031996,0.0039188,0.010774,0.0013903,0,0,0.055177,-0.017825,0,0.0072294,0,0,0,0.032065,0.0038501,0.010774,2.8278,0.015563,0.025469,6.4176e-07,0.25,0.42,0
0.01289,0.001602,0.032091,0.0037172,0.010742,0.0014007,0,0,0.055505,-0.018265,0,0.0072834,0,0,0,0.032159,0.0036482,0.010742,2.8193,0.015517,0.025709,6.5387e-07,0.26,0.42,0
0.013447,0.0016411,0.03218,0.0035282,0.010712,0.0014138,0,0,0.055816,-0.018679,0,0.0073517,0,0,0,0.03225,0.0034586,0.010712,2.818,0.015474,0.025937,6.654e-07,0.27,0.42,0
0.014007,0.0016782,0.032265,0.0033519,0.010685,0.0014298,0,0,0.056108,-0.019066,0,0.007435,0,0,0,0.032336,0.0032813,0.010685,2.8242,0.015434,0.026151,6.7633e-07,0.28,0.42,0
0.014569,0.0017133,0.032345,0.0031884,0.01066,0.0014488,0,0,0.056382,-0.019426,0,0.0075336,0,0,0,0.032417,0.0031166,0.01066,2.8376,0.015398,0.026351,6.8664e-07,0.29,0.42,0
0.015134,0.0017464,0.032421,0.003038,0.010638,0.0014708,0,0,0.056636,-0.019759,0,0.0076479,0,0,0,0.032494,0.0029646,0.010638,2.8584,0.015366,0.026539,6.9632e-07,0.3,0.42,0
0.015702,0.0017774,0.032492,0.0029008,0.010618,0.0014957,0,0,0.056872,-0.020064,0,0.0077778,0,0,0,0.032567,0.0028254,0.010618,2.8863,0.015337,0.026712,7.0535e-07,0.31,0.42,0
0.016272,0.0018062,0.032557,0.0027768,0.0106,0.0015236,0,0,0.057088,-0.020341,0,0.0079228,0,0,0,0.032635,0.0026991,0.0106,2.9212,0.015311,0.026871,7.1371e-07,0.32,0.42,0
0.016844,0.0018327,0.032618,0.0026662,0.010585,0.0015543,0,0,0.057284,-0.020589,0,0.0080822,0,0,0,0.032698,0.0025858,0.010585,2.9627,0.01529,0.027016,7.2139e-07,0.33,0.42,0
0.017418,0.0018566,0.032673,0.002569,0.010573,0.0015874,0,0,0.05746,-0.020809,0,0.0082546,0,0,0,0.032756,0.0024855,0.010573,3.0102,0.015271,0.027146,7.2836e-07,0.34,0.42,0
0.017993,0.001878,0.032722,0.0024852,0.010562,0.0016228,0,0,0.057616,-0.021,0,0.0084383,0,0,0,0.032809,0.0023983,0.010562,3.0632,0.015257,0.027262,7.3461e-07,0.35,0.42,0
0.01857,0.0018965,0.032766,0.0024145,0.010554,0.0016597,0,0,0.057751,-0.021163,0,0.0086306,0,0,0,0.032857,0.002324,0.010554,3.1207,0.015245,0.027362,7.4011e-07,0.36,0.42,0
0.019148,0.0019119,0.032804,0.0023569,0.010548,0.0016977,0,0,0.057865,-0.021298,0,0.0088282,0,0,0,0.032899,0.0022625,0.010548,3.1816,0.015237,0.027448,7.4487e-07,0.37,0.42,0
0.019727,0.0019239,0.032836,0.0023118,0.010545,0.0017359,0,0,0.057959,-0.021405,0,0.0090269,0,0,0,0.032935,0.0022134,0.010545,3.2445,0.015231,0.027519,7.4885e-07,0.38,0.42,0
0.020307,0.0019321,0.032862,0.0022785,0.010542,0.0017733,0,0,0.058032,-0.021486,0,0.0092211,0,0,0,0.032965,0.0021761,0.010542,3.3073,0.015228,0.027575,7.5208e-07,0.39,0.42,0
0.020888,0.0019361,0.032882,0.0022561,0.010542,0.0018085,0,0,0.058086,-0.021542,0,0.0094044,0,0,0,0.032989,0.0021497,0.010542,3.3678,0.015227,0.027617,7.5455e-07,0.4,0.42,0
0.021469,0.0019353,0.032897,0.0022429,0.010542,0.0018401,0,0,0.058122,-0.021577,0,0.0095686,0,0,0,0.033007,0.0021328,0.010542,3.423,0.015227,0.027646,7.563e-07,0.41,0.42,0
0.02205,0.0019291,0.032905,0.0022368,0.010543,0.0018662,0,0,0.058143,-0.021595,0,0.0097044,0,0,0,0.033018,0.0021237,0.010543,3.4695,0.015228,0.027664,7.5741e-07,0.42,0.42,0
0.022632,0.0019167,0.03291,0.0022348,0.010543,0.0018847,0,0,0.058152,-0.021602,0,0.0098007,0,0,0,0.033025,0.0021194,0.010543,3.5029,0.015229,0.027672,7.5799e-07,0.43,0.42,0
0.023213,0.0018973,0.03291,0.0022324,0.010543,0.0018932,0,0,0.058156,-0.021607,0,0.0098449,0,0,0,0.033027,0.002116,0.010543,3.5181,0.015229,0.027677,7.5823e-07,0.44,0.42,0
0.023795,0.0018698,0.03291,0.0022237,0.01054,0.001889,0,0,0.058162,-0.021623,0,0.009823,0,0,0,0.033026,0.0021079,0.01054,3.5095,0.015225,0.027682,7.584e-07,0.45,0.42,0
0.024377,0.0018329,0.032912,0.0022007,0.010534,0.0018693,0,0,0.058182,-0.021666,0,0.0097202,0,0,0,0.033025,0.0020873,0.010534,3.4703,0.015215,0.027698,7.5894e-07,0.46,0.42,0
0.024959,0.0017853,0.03292,0.0021522,0.010522,0.0018307,0,0,0.058236,-0.021761,0,0.0095198,0,0,0,0.033029,0.0020436,0.010522,3.3932,0.015198,0.027735,7.605e-07,0.47,0.42,0
0.025541,0.0017255,0.032946,0.0020635,0.010503,0.0017699,0,0,0.058352,-0.021942,0,0.0092035,0,0,0,0.033047,0.0019624,0.010503,3.2694,0.015171,0.027816,7.6421e-07,0.48,0.42,0
0.026126,0.0016515,0.033013,0.0019123,0.010478,0.0016867,0,0,0.058591,-0.022269,0,0.008771,0,0,0,0.033104,0.0018211,0.010478,3.0954,0.015134,0.027978,7.7241e-07,0.49,0.42,0
0.026713,0.001562,0.033139,0.0016488,0.010436,0.0015926,0,0,0.059027,-0.022848,0,0.0082818,0,0,0,0.033219,0.0015684,0.010436,2.888,0.015075,0.02828,7.8816e-07,0.5,0.42,0
0.027306,0.0014561,0.033366,0.0012503,0.010385,0.0015428,0,0,0.059751,-0.02375,0,0.0080227,0,0,0,0.03344,0.0011764,0.010385,2.7441,0.015,0.028786,8.1576e-07,0.51,0.42,0
0.027908,0.0013354,0.033488,0.00060717,0.010228,0.0015768,0,0,0.060475,-0.025016,0,0.0081994,0,0,0,0.033563,0.00053173,0.010228,2.7393,0.014775,0.029408,8.435e-07,0.52,0.42,0
0.028516,0.001199,0.033583,0.00016443,0.010124,0.0016384,0,0,0.060992,-0.025895,0,0.0085199,0,0,0,0.033663,8.4294e-05,0.010124,2.8002,0.014624,0.029853,8.6362e-07,0.53,0.42,0
0.029128,0.0010289,0.034654,-0.00061586,0.010212,0.0019062,0,0,0.063551,-0.028151,0,0.0099123,0,0,0,0.034757,-0.00071859,0.010212,3.0846,0.01475,0.031468,9.7387e-07,0.54,0.42,0
0.029787,0.00085496,0.039462,-0.0017909,0.011301,0.0017874,0,0,0.051249,-0.023649,0,0.0072525,0,0,0,0.039548,-0.0018768,0.011301,2.6486,0.016324,0.036658,1.6433e-06,0.55,0.42,0
0.030226,0.00079568,0.031449,-0.0014519,0.0089993,0.00054025,0,0,0.04017,-0.018651,0,0.0025108,0,0,0,0.031465,-0.0014672,0.0089993,1.1457,0.012999,0.029144,8.7533e-07,0.56,0.42,0
0.030552,0.00079016,0.035985,-0.0015326,0.010336,-6.5026e-05,0,0,0.033344,-0.015429,0,-0.00016907,0,0,0,0.035985,-0.0015327,0.010336,-0.099305,0.014929,0.033214,1.104e-06,0.57,0.42,0
0.030893,0.00078405,0.037177,-1.8771e-05,0.011148,9.227e-05,0,0,0.033839,-0.014516,0,0.0002399,0,0,0,0.037178,-1.9e-05,0.011148,0.14213,0.016102,0.033059,1.1671e-06,0.58,0.42,0
0.031229,0.00077861,0.036908,-0.00028314,0.010987,0.00034959,0,0,0.033696,-0.014652,0,0.00090892,0,0,0,0.036911,-0.00028642,0.010987,0.53851,0.015871,0.033036,1.151e-06,0.59,0.42,0
0.031567,0.00078085,0.036872,-0.0010243,0.010754,0.0002412,0,0,0.033952,-0.015312,0,0.00062711,0,0,0,0.036873,-0.0010258,0.010754,0.36465,0.015534,0.033595,1.1711e-06,0.6,0.42,0
0.031908,0.00078128,0.037044,-0.00083391,0.010863,0.00011031,0,0,0.034035,-0.015206,0,0.0002868,0,0,0,0.037044,-0.00083423,0.010863,0.16686,0.015691,0.033593,1.1812e-06,0.61,0.42,0
0.032247,0.00077805,0.036942,-0.00069744,0.010873,6.5482e-05,0,0,0.03389,-0.015042,0,0.00017025,0,0,0,0.036942,-0.00069756,0.010873,0.099678,0.015706,0.033393,1.1672e-06,0.62,0.42,0
0.032586,0.00077455,0.036906,-0.00065732,0.010875,0.0001161,0,0,0.033841,-0.014991,0,0.00030186,0,0,0,0.036906,-0.00065768,0.010875,0.17709,0.015708,0.033329,1.1626e-06,0.63,0.42,0
0.032924,0.00077134,0.0369,-0.00070773,0.010858,0.0001349,0,0,0.033855,-0.015035,0,0.00035073,0,0,0,0.0369,-0.00070822,0.010858,0.20551,0.015683,0.033365,1.1636e-06,0.64,0.42,0
0.033263,0.0007681,0.036923,-0.00069348,0.010869,0.00012289,0,0,0.03387,-0.015031,0,0.00031952,0,0,0,0.036924,-0.00069388,0.010869,0.18718,0.0157,0.033374,1.1654e-06,0.65,0.42,0
0.033602,0.00076473,0.036935,-0.00061698,0.010896,0.00011952,0,0,0.033852,-0.014966,0,0.00031076,0,0,0,0.036936,-0.00061736,0.010896,0.18236,0.015738,0.033323,1.1641e-06,0.66,0.42,0
0.03394,0.00076189,0.036934,-0.00053962,0.010918,0.00015266,0,0,0.03382,-0.014895,0,0.00039692,0,0,0,0.036935,-0.00054024,0.010918,0.23341,0.015771,0.03326,1.1615e-06,0.67,0.42,0
0.034278,0.00076031,0.036931,-0.00050756,0.010927,0.00021267,0,0,0.033805,-0.014865,0,0.00055294,0,0,0,0.036932,-0.00050876,0.010927,0.32545,0.015783,0.033233,1.1602e-06,0.68,0.42,0
0.034616,0.00076046,0.03694,-0.00052698,0.010924,0.00028224,0,0,0.033821,-0.014886,0,0.00073382,0,0,0,0.036942,-0.0005291,0.010924,0.43158,0.015779,0.033258,1.1618e-06,0.69,0.42,0
0.034955,0.00076232,0.036961,-0.00059745,0.010909,0.00034396,0,0,0.033868,-0.014959,0,0.00089429,0,0,0,0.036964,-0.0006006,0.010909,0.52465,0.015758,0.033335,1.1662e-06,0.7,0.42,0
0.035294,0.00076546,0.03698,-0.00071156,0.010881,0.00038095,0,0,0.033929,-0.01507,0,0.00099047,0,0,0,0.036984,-0.00071541,0.010881,0.57901,0.015716,0.033445,1.1717e-06,0.71,0.42,0
0.035633,0.00076912,0.036986,-0.00082218,0.010849,0.00038472,0,0,0.033978,-0.015173,0,0.0010003,0,0,0,0.03699,-0.0008261,0.010849,0.58294,0.015671,0.033538,1.1758e-06,0.72,0.42,0
0.035973,0.00077273,0.036981,-0.00086904,0.010834,0.00038421,0,0,0.033992,-0.015213,0,0.00099896,0,0,0,0.036985,-0.00087294,0.010834,0.58153,0.015649,0.033572,1.1769e-06,0.73,0.42,0
0.036313,0.00077641,0.037007,-0.00085373,0.010846,0.00041836,0,0,0.034009,-0.01521,0,0.0010877,0,0,0,0.037011,-0.00085836,0.010846,0.63302,0.015666,0.033584,1.1789e-06,0.74,0.42,0
0.036653,0.0007805,0.037063,-0.00093123,0.01084,0.0004854,0,0,0.034091,-0.015302,0,0.001262,0,0,0,0.03707,-0.00093743,0.01084,0.73182,0.015657,0.033699,1.1869e-06,0.75,0.42,0
0.036995,0.00078443,0.03718,-0.0011026,0.010823,0.00045859,0,0,0.034264,-0.015504,0,0.0011923,0,0,0,0.037186,-0.0011081,0.010823,0.68621,0.015634,0.033939,1.2035e-06,0.76,0.42,0
0.037339,0.00078487,0.037026,-0.0013117,0.010714,0.00035257,0,0,0.034205,-0.015634,0,0.00091668,0,0,0,0.037029,-0.001315,0.010714,0.52687,0.015476,0.033966,1.1949e-06,0.77,0.42,0
0.037679,0.00078394,0.037093,-0.00058823,0.010951,0.00028207,0,0,0.033984,-0.015001,0,0.00073337,0,0,0,0.037095,-0.00059034,0.010951,0.42886,0.015819,0.033443,1.1782e-06,0.78,0.42,0
0.038018,0.00079104,0.037361,-0.00041863,0.011083,0.00057658,0,0,0.034161,-0.014952,0,0.0014991,0,0,0,0.037369,-0.00042743,0.011083,0.87417,0.016008,0.033557,1.199e-06,0.79,0.42,0
0.038362,0.00079905,0.036228,-0.0019187,0.010293,0.0007423,0,0,0.033716,-0.015875,0,0.00193,0,0,0,0.036243,-0.0019331,0.010293,1.1144,0.014868,0.033766,1.1391e-06,0.8,0.42,0
0.038693,0.00080582,0.031648,-0.0018403,0.0089423,4.3731e-05,0,0,0.040619,-0.019247,0,-0.00043394,0,0,0,0.031655,-0.001847,0.0089423,-0.13197,0.012917,0.029619,9.0212e-07,0.81,0.42,0
0.039137,0.00087022,0.039553,-0.0025353,0.011105,-0.0010836,0,0,0.05176,-0.024649,0,-0.0046922,0,0,0,0.039589,-0.0025716,0.011105,-1.6436,0.016041,0.037256,1.6764e-06,0.82,0.42,0
0.039801,0.0010582,0.034704,-0.0013369,0.01001,-0.0012572,0,0,0.064204,-0.029502,0,-0.0065376,0,0,0,0.034748,-0.0013807,0.01001,-1.9954,0.014459,0.031992,9.9134e-07,0.83,0.42,0
0.040421,0.0012437,0.033712,-0.00042769,0.0099852,-0.00093182,0,0,0.061689,-0.027074,0,-0.0048455,0,0,0,0.033737,-0.0004531,0.0099852,-1.5623,0.014423,0.030349,8.8411e-07,0.84,0.42,0
0.041035,0.0013965,0.033631,2.1229e-05,0.010096,-0.00081827,0,0,0.061192,-0.026194,0,-0.004255,0,0,0,0.033651,1.3192e-06,0.010096,-1.3938,0.014583,0.029909,8.6501e-07,0.85,0.42,0
0.041645,0.0015336,0.033548,0.00068298,0.010269,-0.0007393,0,0,0.060525,-0.024925,0,-0.0038443,0,0,0,0.033565,0.00066636,0.010269,-1.288,0.014834,0.029302,8.398e-07,0.86,0.42,0
0.042246,0.0016562,0.033356,0.0010904,0.010334,-0.00074692,0,0,0.059856,-0.024033,0,-0.003884,0,0,0,0.033373,0.0010731,0.010334,-1.3254,0.014927,0.028808,8.1377e-07,0.87,0.42,0
0.042842,0.0017623,0.033263,0.0013482,0.010383,-0.00080138,0,0,0.059487,-0.023491,0,-0.0041672,0,0,0,0.033283,0.0013281,0.010383,-1.4375,0.014998,0.028526,7.998e-07,0.88,0.42,0
0.043435,0.0018525,0.033233,0.0014805,0.010414,-0.0008433,0,0,0.05933,-0.023228,0,-0.0043852,0,0,0,0.033256,0.0014582,0.010414,-1.5203,0.015043,0.028399,7.9402e-07,0.89,0.42,0
0.044028,0.0019285,0.033247,0.0015401,0.010436,-0.00085834,0,0,0.059308,-0.02313,0,-0.0044634,0,0,0,0.03327,0.0015168,0.010436,-1.5495,0.015074,0.028366,7.9336e-07,0.9,0.42,0
0.044622,0.001992,0.03328,0.0015523,0.01045,-0.00084532,0,0,0.059358,-0.023133,0,-0.0043957,0,0,0,0.033302,0.0015298,0.01045,-1.5251,0.015094,0.028384,7.953e-07,0.91,0.42,0
0.045215,0.0020446,0.03332,0.0015343,0.010456,-0.00080755,0,0,0.059445,-0.023197,0,-0.0041993,0,0,0,0.03334,0.0015138,0.010456,-1.4544,0.015103,0.02843,7.9856e-07,0.92,0.42,0
0.04581,0.0020879,0.033362,0.0014988,0.010458,-0.00074846,0,0,0.059549,-0.023294,0,-0.003892,0,0,0,0.033379,0.0014812,0.010458,-1.3449,0.015106,0.028491,8.0237e-07,0.93,0.42,0
0.046406,0.0021231,0.033402,0.001455,0.010457,-0.00067147,0,0,0.059656,-0.023405,0,-0.0034917,0,0,0,0.033416,0.0014409,0.010457,-1.2036,0.015105,0.028555,8.0625e-07,0.94,0.42,0
0.047003,0.0021513,0.033438,0.0014098,0.010454,-0.00057989,0,0,0.059757,-0.023516,0,-0.0030154,0,0,0,0.033448,0.0013993,0.010454,-1.0369,0.015101,0.028617,8.0987e-07,0.95,0.42,0
0.047602,0.0021732,0.033468,0.0013679,0.010451,-0.00047676,0,0,0.059846,-0.023616,0,-0.0024792,0,0,0,0.033475,0.0013608,0.010451,-0.85072,0.015096,0.028672,8.1301e-07,0.96,0.42,0
0.048201,0.0021895,0.033493,0.0013325,0.010448,-0.00036485,0,0,0.059918,-0.023699,0,-0.0018972,0,0,0,0.033497,0.0013284,0.010448,-0.64989,0.015091,0.028716,8.1556e-07,0.97,0.42,0
0.0488,0.0022009,0.03351,0.0013059,0.010445,-0.00024662,0,0,0.059971,-0.023762,0,-0.0012824,0,0,0,0.033512,0.001304,0.010445,-0.43872,0.015087,0.028749,8.1742e-07,0.98,0.42,0
0.0494,0.0022075,0.033521,0.0012894,0.010443,-0.00012431,0,0,0.060003,-0.0238,0,-0.0006464,0,0,0,0.033522,0.0012889,0.010443,-0.22097,0.015085,0.028769,8.1855e-07,0.99,0.42,0
0.05,0.0022097,0.033525,0.0012838,0.010443,4.2274e-05,0,0,0.060014,-0.023813,0,0.00021982,0,0,0,0.033525,0.0012837,0.010443,0.075125,0.015084,0.028776,8.1894e-07,1,0.42,0
0,0,0.028702,0.012301,0.012301,0.0013808,0,0,0.042642,-1.0842e-19,0,0.0071802,0,0,0,0.028817,0.012185,0.012301,4.779,0.017768,0.016574,2.3381e-07,0,0.43,0
0.00042642,7.1802e-05,0.028658,0.011792,0.012135,0.0013789,0,0,0.04296,-0.0008923,0,0.0071703,0,0,0,0.02877,0.01168,0.012135,4.6432,0.017528,0.016867,2.4586e-07,0.01,0.43,0
0.00085919,0.00014208,0.028829,0.01138,0.012063,0.0013637,0,0,0.043592,-0.0017749,0,0.0070913,0,0,0,0.028934,0.011274,0.012063,4.4421,0.017424,0.01728,2.6313e-07,0.02,0.43,0
0.0012983,0.0002109,0.028998,0.010973,0.011991,0.0013504,0,0,0.044217,-0.0026474,0,0.007022,0,0,0,0.029099,0.010873,0.011991,4.2608,0.017321,0.017693,2.8065e-07,0.03,0.43,0
0.0017435,0.00027832,0.029166,0.010571,0.011921,0.0013386,0,0,0.044837,-0.0035096,0,0.0069606,0,0,0,0.029262,0.010476,0.011921,4.0964,0.01722,0.018107,2.9836e-07,0.04,0.43,0
0.002195,0.00034438,0.029333,0.010175,0.011853,0.001328,0,0,0.045449,-0.0043609,0,0.0069057,0,0,0,0.029425,0.010084,0.011853,3.9466,0.01712,0.01852,3.1624e-07,0.05,0.43,0
0.0026525,0.00040912,0.029498,0.0097846,0.011785,0.0013184,0,0,0.046055,-0.0052006,0,0.0068558,0,0,0,0.029586,0.0096968,0.011785,3.8093,0.017022,0.018932,3.3424e-07,0.06,0.43,0
0.0031161,0.00047256,0.029662,0.0093999,0.011718,0.0013096,0,0,0.046652,-0.0060281,0,0.0068101,0,0,0,0.029746,0.0093156,0.011718,3.6829,0.016927,0.019341,3.5233e-07,0.07,0.43,0
0.0035856,0.0005347,0.029823,0.0090215,0.011653,0.0013015,0,0,0.047241,-0.0068427,0,0.0067677,0,0,0,0.029904,0.0089404,0.011653,3.5663,0.016833,0.019748,3.7047e-07,0.08,0.43,0
0.0040609,0.00059556,0.029982,0.0086498,0.01159,0.0012939,0,0,0.047821,-0.0076436,0,0.0067282,0,0,0,0.030061,0.0085716,0.01159,3.4583,0.016741,0.02015,3.8861e-07,0.09,0.43,0
0.004542,0.00065511,0.030139,0.008285,0.011527,0.0012868,0,0,0.048391,-0.00843,0,0.0066912,0,0,0,0.030215,0.0082095,0.011527,3.3581,0.016651,0.020548,4.0672e-07,0.1,0.43,0
0.0050287,0.00071337,0.030294,0.0079277,0.011466,0.0012801,0,0,0.048951,-0.0092009,0,0.0066566,0,0,0,0.030367,0.0078546,0.011466,3.2651,0.016563,0.020941,4.2476e-07,0.11,0.43,0
0.005521,0.00077031,0.030446,0.0075781,0.011407,0.0012739,0,0,0.049501,-0.0099556,0,0.0066245,0,0,0,0.030517,0.0075074,0.011407,3.1788,0.016477,0.021328,4.4268e-07,0.12,0.43,0
0.0060187,0.00082592,0.030595,0.0072367,0.01135,0.0012683,0,0,0.050038,-0.010693,0,0.0065951,0,0,0,0.030664,0.007168,0.01135,3.0989,0.016394,0.021709,4.6044e-07,0.13,0.43,0
0.0065218,0.00088017,0.030741,0.0069039,0.011293,0.0012632,0,0,0.050564,-0.011413,0,0.0065688,0,0,0,0.030808,0.0068371,0.011293,3.0251,0.016313,0.022082,4.7801e-07,0.14,0.43,0
0.00703,0.00093306,0.030884,0.00658,0.011239,0.0012589,0,0,0.051076,-0.012114,0,0.0065462,0,0,0,0.030949,0.006515,0.011239,2.9572,0.016234,0.022448,4.9534e-07,0.15,0.43,0
0.0075433,0.00098456,0.031024,0.0062655,0.011187,0.0012554,0,0,0.051576,-0.012795,0,0.006528,0,0,0,0.031087,0.006202,0.011187,2.8953,0.016159,0.022805,5.1241e-07,0.16,0.43,0
0.0080615,0.0010347,0.03116,0.0059606,0.011136,0.0012529,0,0,0.052062,-0.013456,0,0.0065149,0,0,0,0.031222,0.0058985,0.011136,2.8393,0.016086,0.023154,5.2917e-07,0.17,0.43,0
0.0085845,0.0010833,0.031293,0.0056658,0.011088,0.0012515,0,0,0.052534,-0.014097,0,0.0065077,0,0,0,0.031354,0.0056048,0.011088,2.7891,0.016015,0.023492,5.456e-07,0.18,0.43,0
0.0091122,0.0011305,0.031422,0.0053813,0.011041,0.0012514,0,0,0.052991,-0.014715,0,0.0065074,0,0,0,0.031482,0.0053213,0.011041,2.745,0.015948,0.023822,5.6166e-07,0.19,0.43,0
0.0096444,0.0011763,0.031548,0.0051075,0.010996,0.0012529,0,0,0.053433,-0.015312,0,0.006515,0,0,0,0.031607,0.0050482,0.010996,2.7069,0.015884,0.02414,5.7733e-07,0.2,0.43,0
0.010181,0.0012205,0.03167,0.0048446,0.010954,0.0012561,0,0,0.05386,-0.015885,0,0.0065315,0,0,0,0.031728,0.0047859,0.010954,2.675,0.015823,0.024449,5.9258e-07,0.21,0.43,0
0.010722,0.0012633,0.031788,0.004593,0.010914,0.0012611,0,0,0.054271,-0.016435,0,0.0065578,0,0,0,0.031846,0.0045346,0.010914,2.6494,0.015765,0.024746,6.074e-07,0.22,0.43,0
0.011266,0.0013045,0.031902,0.0043528,0.010876,0.0012683,0,0,0.054666,-0.016961,0,0.0065951,0,0,0,0.03196,0.0042945,0.010876,2.6303,0.01571,0.025032,6.2175e-07,0.23,0.43,0
0.011815,0.0013441,0.032012,0.0041244,0.010841,0.0012778,0,0,0.055045,-0.017463,0,0.0066443,0,0,0,0.032071,0.0040659,0.010841,2.6178,0.015659,0.025307,6.3562e-07,0.24,0.43,0
0.012367,0.0013822,0.032119,0.0039079,0.010808,0.0012897,0,0,0.055408,-0.01794,0,0.0067064,0,0,0,0.032178,0.0038491,0.010808,2.6121,0.015612,0.025569,6.49e-07,0.25,0.43,0
0.012923,0.0014187,0.032222,0.0037036,0.010778,0.0013043,0,0,0.055754,-0.018392,0,0.0067823,0,0,0,0.032281,0.0036441,0.010778,2.6132,0.015568,0.02582,6.6186e-07,0.26,0.43,0
0.013482,0.0014536,0.03232,0.0035118,0.01075,0.0013217,0,0,0.056084,-0.018818,0,0.0068727,0,0,0,0.032381,0.0034513,0.01075,2.6212,0.015527,0.026058,6.7419e-07,0.27,0.43,0
0.014045,0.0014868,0.032415,0.0033325,0.010724,0.001342,0,0,0.056396,-0.019219,0,0.0069783,0,0,0,0.032477,0.0032707,0.010724,2.6364,0.015491,0.026284,6.8599e-07,0.28,0.43,0
0.01461,0.0015183,0.032506,0.0031661,0.010702,0.0013653,0,0,0.056692,-0.019593,0,0.0070995,0,0,0,0.03257,0.0031027,0.010702,2.6585,0.015458,0.026498,6.9722e-07,0.29,0.43,0
0.015179,0.001548,0.032593,0.0030126,0.010682,0.0013917,0,0,0.05697,-0.01994,0,0.0072368,0,0,0,0.032659,0.0029473,0.010682,2.6877,0.015429,0.026698,7.0789e-07,0.3,0.43,0
0.01575,0.0015758,0.032676,0.0028724,0.010665,0.0014211,0,0,0.05723,-0.02026,0,0.00739,0,0,0,0.032744,0.0028048,0.010665,2.7238,0.015404,0.026885,7.1798e-07,0.31,0.43,0
0.016323,0.0016018,0.032755,0.0027455,0.01065,0.0014536,0,0,0.057473,-0.020552,0,0.0075589,0,0,0,0.032825,0.0026753,0.01065,2.7667,0.015384,0.027059,7.2746e-07,0.32,0.43,0
0.016899,0.0016256,0.03283,0.0026322,0.010639,0.001489,0,0,0.057697,-0.020817,0,0.0077428,0,0,0,0.032903,0.002559,0.010639,2.8161,0.015367,0.027219,7.3633e-07,0.33,0.43,0
0.017477,0.0016473,0.0329,0.0025326,0.01063,0.001527,0,0,0.057903,-0.021053,0,0.0079404,0,0,0,0.032977,0.002456,0.01063,2.8714,0.015354,0.027365,7.4457e-07,0.34,0.43,0
0.018057,0.0016667,0.032966,0.0024467,0.010624,0.0015673,0,0,0.05809,-0.021261,0,0.00815,0,0,0,0.033047,0.0023664,0.010624,2.9321,0.015346,0.027498,7.5215e-07,0.35,0.43,0
0.018639,0.0016835,0.033028,0.0023746,0.010621,0.0016094,0,0,0.058259,-0.02144,0,0.008369,0,0,0,0.033112,0.0022904,0.010621,2.9973,0.015341,0.027616,7.5907e-07,0.36,0.43,0
0.019222,0.0016975,0.033085,0.0023163,0.01062,0.0016527,0,0,0.058408,-0.021591,0,0.008594,0,0,0,0.033174,0.0022278,0.01062,3.0658,0.015341,0.027719,7.6531e-07,0.37,0.43,0
0.019807,0.0017083,0.033138,0.0022714,0.010623,0.0016963,0,0,0.058539,-0.021713,0,0.0088205,0,0,0,0.03323,0.0021785,0.010623,3.1361,0.015344,0.027809,7.7085e-07,0.38,0.43,0
0.020393,0.0017157,0.033185,0.0022396,0.010627,0.001739,0,0,0.05865,-0.021808,0,0.0090426,0,0,0,0.033283,0.0021422,0.010627,3.2062,0.015351,0.027884,7.7569e-07,0.39,0.43,0
0.02098,0.001719,0.033229,0.0022201,0.010635,0.0017794,0,0,0.058744,-0.021878,0,0.0092531,0,0,0,0.03333,0.0021183,0.010635,3.2736,0.015361,0.027945,7.7985e-07,0.4,0.43,0
0.021568,0.0017178,0.033268,0.0022116,0.010644,0.0018159,0,0,0.058822,-0.021924,0,0.0094428,0,0,0,0.033374,0.0021058,0.010644,3.3351,0.015374,0.027993,7.8335e-07,0.41,0.43,0
0.022156,0.0017114,0.033303,0.0022125,0.010655,0.0018463,0,0,0.058887,-0.02195,0,0.0096009,0,0,0,0.033413,0.0021032,0.010655,3.3866,0.01539,0.02803,7.8626e-07,0.42,0.43,0
0.022746,0.0016989,0.033337,0.0022198,0.010667,0.0018681,0,0,0.058941,-0.021962,0,0.0097138,0,0,0,0.033448,0.0021081,0.010667,3.4233,0.015408,0.028058,7.8869e-07,0.43,0.43,0
0.023335,0.0016794,0.033369,0.0022298,0.010679,0.0018781,0,0,0.058992,-0.021969,0,0.0097659,0,0,0,0.033481,0.002117,0.010679,3.439,0.015426,0.02808,7.9083e-07,0.44,0.43,0
0.023925,0.0016517,0.033402,0.0022369,0.010692,0.0018728,0,0,0.059047,-0.021982,0,0.0097388,0,0,0,0.033514,0.0021248,0.010692,3.4267,0.015444,0.028103,7.9298e-07,0.45,0.43,0
0.024516,0.0016145,0.03344,0.002233,0.010702,0.0018484,0,0,0.059119,-0.022019,0,0.0096117,0,0,0,0.033549,0.0021239,0.010702,3.3779,0.015458,0.028135,7.9555e-07,0.46,0.43,0
0.025108,0.001566,0.033486,0.0022067,0.010708,0.0018001,0,0,0.059223,-0.022103,0,0.0093607,0,0,0,0.033589,0.0021035,0.010708,3.283,0.015467,0.028186,7.9912e-07,0.47,0.43,0
0.025701,0.0015044,0.033545,0.0021439,0.010707,0.0017215,0,0,0.05938,-0.022263,0,0.0089517,0,0,0,0.033639,0.0020498,0.010707,3.1286,0.015465,0.028273,8.0444e-07,0.48,0.43,0
0.026295,0.0014273,0.033638,0.0020292,0.0107,0.0015985,0,0,0.059639,-0.022545,0,0.0083124,0,0,0,0.033719,0.0019485,0.0107,2.8877,0.015456,0.028424,8.1342e-07,0.49,0.43,0
0.026894,0.0013317,0.033836,0.0018311,0.0107,0.0014235,0,0,0.060154,-0.02306,0,0.0074025,0,0,0,0.033899,0.0017679,0.0107,2.5418,0.015456,0.028726,8.3243e-07,0.5,0.43,0
0.027499,0.0012159,0.034159,0.0013921,0.010665,0.0012057,0,0,0.061084,-0.02411,0,0.0062698,0,0,0,0.034203,0.0013478,0.010665,2.1045,0.015406,0.029329,8.6851e-07,0.51,0.43,0
0.028115,0.0010789,0.034987,0.00090921,0.010769,0.001122,0,0,0.062967,-0.025635,0,0.0058343,0,0,0,0.035024,0.00087231,0.010769,1.8837,0.015555,0.030435,9.4862e-07,0.52,0.43,0
0.028758,0.00093267,0.035922,0.00018028,0.010831,0.00082967,0,0,0.065238,-0.027691,0,0.0043143,0,0,0,0.035942,0.00016103,0.010831,1.329,0.015644,0.031817,1.0489e-06,0.53,0.43,0
0.02942,0.00074545,0.041332,-0.0016742,0.011897,0.0021962,0,0,0.05319,-0.024213,0,0.0080226,0,0,0,0.041444,-0.0017863,0.011897,2.9447,0.017185,0.038271,1.9257e-06,0.54,0.43,0
0.029887,0.00064715,0.033147,-0.00087358,0.009682,0.00011849,0,0,0.042175,-0.018918,0,0.00035366,0,0,0,0.033147,-0.00087409,0.009682,0.17613,0.013985,0.030162,9.8957e-07,0.55,0.43,0
0.030218,0.00064131,0.036748,-0.00082375,0.010777,3.4844e-05,0,0,0.033762,-0.015081,0,9.0595e-05,0,0,0,0.036748,-0.00082378,0.010777,0.053136,0.015567,0.033322,1.153e-06,0.56,0.43,0
0.030562,0.0006409,0.037174,-0.00057355,0.01098,0.0001974,0,0,0.034052,-0.01502,0,0.00051323,0,0,0,0.037175,-0.00057458,0.01098,0.29961,0.01586,0.033502,1.1853e-06,0.57,0.43,0
0.030899,0.00063493,0.036833,-0.00056479,0.010881,8.4547e-05,0,0,0.033739,-0.014879,0,0.00021982,0,0,0,0.036834,-0.00056498,0.010881,0.12953,0.015716,0.03319,1.1528e-06,0.58,0.43,0
0.031237,0.00063171,0.036917,-0.00042082,0.010949,0.00019079,0,0,0.033759,-0.014781,0,0.00049605,0,0,0,0.036918,-0.00042179,0.010949,0.29275,0.015815,0.033151,1.1561e-06,0.59,0.43,0
0.031575,0.0006303,0.036886,-0.00068591,0.01086,0.00023422,0,0,0.033834,-0.01501,0,0.00060898,0,0,0,0.036888,-0.00068737,0.01086,0.35716,0.015687,0.033337,1.1618e-06,0.6,0.43,0
0.031913,0.0006293,0.036923,-0.00080551,0.010835,0.00016365,0,0,0.033914,-0.015133,0,0.00042549,0,0,0,0.036923,-0.00080622,0.010835,0.24852,0.015651,0.033464,1.1689e-06,0.61,0.43,0
0.032253,0.00062717,0.036955,-0.00073994,0.010865,0.00011546,0,0,0.033918,-0.015086,0,0.0003002,0,0,0,0.036956,-0.00074029,0.010865,0.17549,0.015693,0.03344,1.1699e-06,0.62,0.43,0
0.032592,0.00062419,0.036934,-0.00070557,0.010868,0.00010537,0,0,0.033885,-0.015046,0,0.00027396,0,0,0,0.036934,-0.00070586,0.010868,0.16039,0.015699,0.033393,1.1667e-06,0.63,0.43,0
0.032931,0.00062106,0.036923,-0.00069369,0.010869,0.00011142,0,0,0.03387,-0.015031,0,0.00028968,0,0,0,0.036923,-0.00069402,0.010869,0.1697,0.015699,0.033374,1.1653e-06,0.64,0.43,0
0.033269,0.00061796,0.036921,-0.00067411,0.010874,0.00011487,0,0,0.033861,-0.015012,0,0.00029865,0,0,0,0.036921,-0.00067446,0.010874,0.17506,0.015707,0.033356,1.1645e-06,0.65,0.43,0
0.033608,0.00061506,0.036921,-0.00063197,0.010887,0.00012712,0,0,0.033845,-0.014974,0,0.0003305,0,0,0,0.036922,-0.0006324,0.010887,0.19394,0.015725,0.033323,1.1632e-06,0.66,0.43,0
0.033946,0.00061272,0.03692,-0.00058973,0.010899,0.00015853,0,0,0.033827,-0.014936,0,0.00041219,0,0,0,0.036921,-0.0005904,0.010899,0.24215,0.015743,0.033288,1.1618e-06,0.67,0.43,0
0.034284,0.00061137,0.036923,-0.00057203,0.010905,0.0002085,0,0,0.033823,-0.01492,0,0.00054211,0,0,0,0.036924,-0.00057319,0.010905,0.3186,0.015752,0.033277,1.1615e-06,0.68,0.43,0
0.034623,0.0006113,0.036934,-0.0005923,0.010902,0.00026611,0,0,0.033841,-0.014943,0,0.0006919,0,0,0,0.036936,-0.00059419,0.010902,0.40629,0.015748,0.033305,1.1633e-06,0.69,0.43,0
0.034961,0.0006125,0.036954,-0.00065016,0.010891,0.00031799,0,0,0.033881,-0.015004,0,0.00082679,0,0,0,0.036956,-0.00065285,0.010891,0.48447,0.015731,0.03337,1.1671e-06,0.7,0.43,0
0.0353,0.0006147,0.036977,-0.00073152,0.010874,0.00035362,0,0,0.033934,-0.015087,0,0.0009194,0,0,0,0.03698,-0.00073484,0.010874,0.53724,0.015706,0.033457,1.172e-06,0.71,0.43,0
0.03564,0.0006175,0.036999,-0.00081157,0.010856,0.00037298,0,0,0.033985,-0.015168,0,0.00096975,0,0,0,0.037002,-0.00081525,0.010856,0.56512,0.015681,0.033541,1.1767e-06,0.72,0.43,0
0.03598,0.00062056,0.037024,-0.00086862,0.010847,0.00038689,0,0,0.03403,-0.01523,0,0.0010059,0,0,0,0.037028,-0.00087257,0.010847,0.58491,0.015667,0.03361,1.1809e-06,0.73,0.43,0
0.03632,0.00062374,0.037058,-0.00091844,0.010842,0.00040648,0,0,0.034081,-0.015289,0,0.0010569,0,0,0,0.037063,-0.00092279,0.010842,0.61316,0.015661,0.033681,1.1858e-06,0.74,0.43,0
0.036661,0.00062689,0.037103,-0.00099098,0.010834,0.00041275,0,0,0.03415,-0.015372,0,0.0010731,0,0,0,0.037108,-0.00099545,0.010834,0.6207,0.015649,0.033779,1.1924e-06,0.75,0.43,0
0.037004,0.00062934,0.037094,-0.0010912,0.010801,0.00038472,0,0,0.034181,-0.015459,0,0.0010003,0,0,0,0.037098,-0.0010951,0.010801,0.57719,0.015601,0.03385,1.1946e-06,0.76,0.43,0
0.037345,0.0006309,0.037084,-0.0010027,0.010824,0.00034091,0,0,0.034137,-0.015375,0,0.00088637,0,0,0,0.037087,-0.0010057,0.010824,0.5128,0.015635,0.033769,1.1907e-06,0.77,0.43,0
0.037686,0.00063315,0.037139,-0.00077917,0.010908,0.00041707,0,0,0.034101,-0.015194,0,0.0010844,0,0,0,0.037144,-0.00078376,0.010908,0.6301,0.015756,0.033642,1.1891e-06,0.78,0.43,0
0.038027,0.00063753,0.037085,-0.00096797,0.010835,0.00055203,0,0,0.034125,-0.015344,0,0.0014353,0,0,0,0.037093,-0.00097598,0.010835,0.83095,0.015651,0.033751,1.1904e-06,0.79,0.43,0
0.038369,0.00064475,0.037441,-0.0010253,0.010925,0.00047285,0,0,0.034471,-0.015535,0,0.0012294,0,0,0,0.037446,-0.0010312,0.010925,0.70418,0.01578,0.034109,1.2262e-06,0.8,0.43,0
0.038717,0.0006468,0.037083,-0.0012567,0.010748,0.00065306,0,0,0.034235,-0.015606,0,0.001698,0,0,0,0.037094,-0.0012678,0.010748,0.97558,0.015525,0.033986,1.1996e-06,0.81,0.43,0
0.039053,0.00065389,0.033477,-0.001325,0.0096456,0.00049029,0,0,0.042833,-0.01967,0,0.0018302,0,0,0,0.033484,-0.001332,0.0096456,0.82893,0.013933,0.03083,1.0333e-06,0.82,0.43,0
0.039528,0.00075935,0.041562,-0.0025868,0.011692,-0.001483,0,0,0.053956,-0.025485,0,-0.0053799,0,0,0,0.041612,-0.0026366,0.011692,-1.9322,0.016889,0.039106,1.9869e-06,0.83,0.43,0
0.040198,0.00096504,0.036129,-0.00047975,0.010695,-0.00014403,0,0,0.066129,-0.029054,0,-0.00074898,0,0,0,0.03613,-0.00048032,0.010695,-0.22542,0.015448,0.032497,1.0857e-06,0.84,0.43,0
0.04085,0.0011273,0.035242,0.00026788,0.010653,-0.00039825,0,0,0.063931,-0.027001,0,-0.0020709,0,0,0,0.035246,0.00026334,0.010653,-0.65233,0.015388,0.031117,9.8598e-07,0.85,0.43,0
0.041477,0.0012809,0.034451,0.00078633,0.010571,-0.00043183,0,0,0.062088,-0.025441,0,-0.0022455,0,0,0,0.034457,0.00078079,0.010571,-0.73478,0.01527,0.030004,9.0564e-07,0.86,0.43,0
0.042092,0.0014133,0.03416,0.0012385,0.01062,-0.00061185,0,0,0.061205,-0.024391,0,-0.0031816,0,0,0,0.034171,0.0012271,0.01062,-1.0644,0.015339,0.029396,8.6971e-07,0.87,0.43,0
0.042701,0.001525,0.034001,0.0014295,0.010629,-0.0007531,0,0,0.060768,-0.023919,0,-0.0039161,0,0,0,0.034019,0.0014121,0.010629,-1.3238,0.015353,0.029114,8.5236e-07,0.88,0.43,0
0.043307,0.0016178,0.033953,0.0015195,0.010642,-0.00083875,0,0,0.06061,-0.023718,0,-0.0043615,0,0,0,0.033975,0.0014979,0.010642,-1.4804,0.015372,0.029007,8.4641e-07,0.89,0.43,0
0.043913,0.0016945,0.033944,0.0015469,0.010647,-0.00087382,0,0,0.06057,-0.023661,0,-0.0045439,0,0,0,0.033967,0.0015234,0.010647,-1.5439,0.015379,0.02898,8.4503e-07,0.9,0.43,0
0.044519,0.0017579,0.033949,0.0015303,0.010644,-0.00087146,0,0,0.060593,-0.023695,0,-0.0045316,0,0,0,0.033972,0.0015069,0.010644,-1.5387,0.015374,0.028997,8.4593e-07,0.91,0.43,0
0.045125,0.0018098,0.033963,0.001487,0.010635,-0.00083852,0,0,0.060653,-0.023785,0,-0.0043603,0,0,0,0.033985,0.0014653,0.010635,-1.478,0.015362,0.029042,8.4815e-07,0.92,0.43,0
0.045732,0.001852,0.033982,0.0014301,0.010624,-0.00078022,0,0,0.060733,-0.023903,0,-0.0040571,0,0,0,0.034001,0.0014115,0.010624,-1.3722,0.015345,0.029099,8.5102e-07,0.93,0.43,0
0.046339,0.001886,0.034003,0.0013692,0.010612,-0.00070134,0,0,0.060817,-0.02403,0,-0.003647,0,0,0,0.034018,0.0013541,0.010612,-1.2306,0.015328,0.029159,8.5406e-07,0.94,0.43,0
0.046948,0.001913,0.034023,0.0013104,0.0106,-0.00060619,0,0,0.060899,-0.024153,0,-0.0031522,0,0,0,0.034034,0.0012992,0.0106,-1.0613,0.015311,0.029216,8.5693e-07,0.95,0.43,0
0.047557,0.0019338,0.03404,0.0012581,0.010589,-0.0004985,0,0,0.060971,-0.024261,0,-0.0025922,0,0,0,0.034047,0.0012505,0.010589,-0.87101,0.015296,0.029267,8.5944e-07,0.96,0.43,0
0.048167,0.0019493,0.034054,0.001215,0.010581,-0.00038146,0,0,0.06103,-0.024351,0,-0.0019836,0,0,0,0.034058,0.0012106,0.010581,-0.66545,0.015283,0.029308,8.6147e-07,0.97,0.43,0
0.048778,0.00196,0.034064,0.0011831,0.010574,-0.00025781,0,0,0.061074,-0.024417,0,-0.0013406,0,0,0,0.034066,0.0011811,0.010574,-0.44921,0.015274,0.029339,8.6296e-07,0.98,0.43,0
0.049389,0.0019663,0.03407,0.0011636,0.01057,-0.00012994,0,0,0.0611,-0.024457,0,-0.00067566,0,0,0,0.034071,0.0011631,0.01057,-0.22623,0.015268,0.029357,8.6386e-07,0.99,0.43,0
0.05,0.0019683,0.034072,0.001157,0.010569,3.9715e-05,0,0,0.061109,-0.024471,0,0.00020652,0,0,0,0.034072,0.0011569,0.010569,0.069132,0.015266,0.029363,8.6417e-07,1,0.43,0
0,0,0.028745,0.012319,0.012319,0.0012087,0,0,0.042707,1.0842e-19,0,0.0062852,0,0,0,0.028834,0.012231,0.012319,4.1861,0.017795,0.016559,2.3316e-07,0,0.44,0
0.00042707,6.2852e-05,0.028701,0.011807,0.012152,0.001207,0,0,0.043026,-0.00089766,0,0.0062764,0,0,0,0.028787,0.011721,0.012152,4.0661,0.017553,0.016854,2.4534e-07,0.01,0.44,0
0.00086052,0.00012428,0.028873,0.011393,0.01208,0.001193,0,0,0.043662,-0.0017848,0,0.0062037,0,0,0,0.028954,0.011312,0.01208,3.8866,0.017449,0.017271,2.6281e-07,0.02,0.44,0
0.0013003,0.00018435,0.029043,0.010985,0.012009,0.001181,0,0,0.04429,-0.0026612,0,0.0061411,0,0,0,0.02912,0.010908,0.012009,3.7259,0.017345,0.017688,2.805e-07,0.03,0.44,0
0.0017463,0.00024314,0.029212,0.010582,0.011938,0.0011706,0,0,0.044913,-0.0035267,0,0.0060869,0,0,0,0.029286,0.010509,0.011938,3.5811,0.017244,0.018105,2.9838e-07,0.04,0.44,0
0.0021986,0.00030067,0.02938,0.010185,0.011869,0.0011615,0,0,0.045528,-0.0043808,0,0.0060397,0,0,0,0.02945,0.010114,0.011869,3.45,0.017145,0.018521,3.1643e-07,0.05,0.44,0
0.0026569,0.00035701,0.029546,0.0097929,0.011802,0.0011535,0,0,0.046136,-0.0052231,0,0.0059983,0,0,0,0.029614,0.0097258,0.011802,3.3307,0.017047,0.018935,3.346e-07,0.06,0.44,0
0.0031213,0.00041216,0.029711,0.0094075,0.011735,0.0011465,0,0,0.046736,-0.0060529,0,0.0059619,0,0,0,0.029775,0.0093429,0.011735,3.2218,0.016951,0.019348,3.5286e-07,0.07,0.44,0
0.0035916,0.00046615,0.029874,0.0090284,0.011671,0.0011403,0,0,0.047328,-0.0068697,0,0.0059296,0,0,0,0.029936,0.0089662,0.011671,3.1219,0.016858,0.019757,3.7117e-07,0.08,0.44,0
0.0040678,0.00051898,0.030034,0.0086561,0.011607,0.0011348,0,0,0.047911,-0.0076728,0,0.0059011,0,0,0,0.030094,0.008596,0.011607,3.0301,0.016766,0.020162,3.895e-07,0.09,0.44,0
0.0045498,0.00057066,0.030193,0.0082908,0.011545,0.00113,0,0,0.048485,-0.0084614,0,0.005876,0,0,0,0.030251,0.0082326,0.011545,2.9456,0.016676,0.020563,4.078e-07,0.1,0.44,0
0.0050375,0.0006212,0.03035,0.0079329,0.011485,0.0011258,0,0,0.049049,-0.0092347,0,0.0058541,0,0,0,0.030406,0.0078765,0.011485,2.8679,0.016589,0.020959,4.2604e-07,0.11,0.44,0
0.0055308,0.00067058,0.030503,0.0075828,0.011426,0.0011222,0,0,0.049602,-0.0099921,0,0.0058357,0,0,0,0.030558,0.007528,0.011426,2.7964,0.016504,0.02135,4.4418e-07,0.12,0.44,0
0.0060296,0.0007188,0.030655,0.0072408,0.011369,0.0011194,0,0,0.050144,-0.010733,0,0.0058207,0,0,0,0.030708,0.0071874,0.011369,2.7308,0.016421,0.021734,4.6219e-07,0.13,0.44,0
0.0065337,0.00076584,0.030804,0.0069072,0.011313,0.0011172,0,0,0.050675,-0.011456,0,0.0058096,0,0,0,0.030856,0.0068551,0.011313,2.671,0.016341,0.022111,4.8002e-07,0.14,0.44,0
0.0070431,0.0008117,0.03095,0.0065826,0.01126,0.0011159,0,0,0.051194,-0.01216,0,0.0058029,0,0,0,0.031001,0.0065316,0.01126,2.6167,0.016264,0.022481,4.9764e-07,0.15,0.44,0
0.0075576,0.00085636,0.031093,0.0062671,0.011208,0.0011156,0,0,0.0517,-0.012846,0,0.0058011,0,0,0,0.031143,0.006217,0.011208,2.5678,0.016189,0.022843,5.1503e-07,0.16,0.44,0
0.0080771,0.00089982,0.031232,0.0059611,0.011158,0.0011163,0,0,0.052193,-0.013512,0,0.005805,0,0,0,0.031282,0.0059119,0.011158,2.5244,0.016117,0.023196,5.3214e-07,0.17,0.44,0
0.0086014,0.00094205,0.031369,0.005665,0.01111,0.0011183,0,0,0.052673,-0.014158,0,0.0058152,0,0,0,0.031418,0.0056164,0.01111,2.4865,0.016048,0.02354,5.4894e-07,0.18,0.44,0
0.0091305,0.00098304,0.031503,0.0053791,0.011065,0.0011217,0,0,0.05314,-0.014782,0,0.0058328,0,0,0,0.031551,0.005331,0.011065,2.4541,0.015982,0.023875,5.6542e-07,0.19,0.44,0
0.0096642,0.0010228,0.031634,0.0051036,0.011021,0.0011266,0,0,0.053592,-0.015385,0,0.0058584,0,0,0,0.031681,0.0050559,0.011021,2.4273,0.015919,0.024201,5.8154e-07,0.2,0.44,0
0.010202,0.0010613,0.031761,0.0048389,0.01098,0.0011333,0,0,0.05403,-0.015966,0,0.0058931,0,0,0,0.031808,0.0047913,0.01098,2.4062,0.01586,0.024516,5.9729e-07,0.21,0.44,0
0.010745,0.0010985,0.031885,0.0045853,0.010941,0.0011419,0,0,0.054454,-0.016525,0,0.0059379,0,0,0,0.031932,0.0045376,0.010941,2.391,0.015804,0.02482,6.1264e-07,0.22,0.44,0
0.011291,0.0011344,0.032005,0.004343,0.010904,0.0011526,0,0,0.054862,-0.01706,0,0.0059936,0,0,0,0.032053,0.004295,0.010904,2.3819,0.015751,0.025115,6.2757e-07,0.23,0.44,0
0.011842,0.001169,0.032123,0.0041122,0.01087,0.0011656,0,0,0.055256,-0.017572,0,0.0060613,0,0,0,0.032171,0.0040637,0.01087,2.3788,0.015702,0.025398,6.4207e-07,0.24,0.44,0
0.012397,0.0012022,0.032237,0.0038932,0.010839,0.0011811,0,0,0.055635,-0.018059,0,0.0061418,0,0,0,0.032286,0.003844,0.010839,2.3821,0.015656,0.02567,6.5613e-07,0.25,0.44,0
0.012955,0.0012342,0.032348,0.0036862,0.01081,0.0011993,0,0,0.055998,-0.018523,0,0.0062361,0,0,0,0.032398,0.0036361,0.01081,2.3918,0.015615,0.02593,6.6972e-07,0.26,0.44,0
0.013517,0.0012647,0.032456,0.0034915,0.010784,0.0012202,0,0,0.056346,-0.018961,0,0.0063448,0,0,0,0.032507,0.0034401,0.010784,2.408,0.015577,0.026179,6.8285e-07,0.27,0.44,0
0.014082,0.0012938,0.03256,0.0033092,0.010761,0.001244,0,0,0.056678,-0.019374,0,0.0064688,0,0,0,0.032613,0.0032564,0.010761,2.4308,0.015544,0.026416,6.955e-07,0.28,0.44,0
0.01465,0.0013215,0.032662,0.0031398,0.010741,0.0012708,0,0,0.056995,-0.019762,0,0.0066084,0,0,0,0.032716,0.0030851,0.010741,2.4604,0.015514,0.026642,7.0765e-07,0.29,0.44,0
0.015222,0.0013476,0.03276,0.0029832,0.010723,0.0013008,0,0,0.057297,-0.020123,0,0.006764,0,0,0,0.032817,0.0029265,0.010723,2.4966,0.015489,0.026855,7.193e-07,0.3,0.44,0
0.015796,0.0013722,0.032856,0.0028399,0.010709,0.0013338,0,0,0.057582,-0.020459,0,0.0069358,0,0,0,0.032915,0.0027808,0.010709,2.5394,0.015468,0.027055,7.3045e-07,0.31,0.44,0
0.016373,0.0013952,0.032948,0.0027101,0.010697,0.0013699,0,0,0.057851,-0.020767,0,0.0071234,0,0,0,0.03301,0.0026482,0.010697,2.5887,0.015452,0.027244,7.4106e-07,0.32,0.44,0
0.016953,0.0014163,0.033037,0.002594,0.010689,0.0014089,0,0,0.058104,-0.021048,0,0.0073263,0,0,0,0.033102,0.0025289,0.010689,2.6441,0.01544,0.027419,7.5114e-07,0.33,0.44,0
0.017535,0.0014356,0.033123,0.0024918,0.010684,0.0014506,0,0,0.05834,-0.021301,0,0.0075433,0,0,0,0.033191,0.0024233,0.010684,2.7054,0.015433,0.027581,7.6066e-07,0.34,0.44,0
0.01812,0.0014528,0.033205,0.0024038,0.010683,0.0014947,0,0,0.058559,-0.021525,0,0.0077726,0,0,0,0.033278,0.0023315,0.010683,2.7717,0.015431,0.027731,7.6962e-07,0.35,0.44,0
0.018707,0.0014677,0.033285,0.0023302,0.010685,0.0015407,0,0,0.058761,-0.021721,0,0.0080117,0,0,0,0.033362,0.0022537,0.010685,2.8424,0.015433,0.027866,7.78e-07,0.36,0.44,0
0.019295,0.0014801,0.033362,0.0022711,0.01069,0.0015879,0,0,0.058947,-0.021889,0,0.0082569,0,0,0,0.033443,0.0021902,0.01069,2.9161,0.015441,0.027988,7.8577e-07,0.37,0.44,0
0.019885,0.0014896,0.033435,0.0022265,0.010698,0.0016353,0,0,0.059115,-0.022027,0,0.0085037,0,0,0,0.03352,0.002141,0.010698,2.9914,0.015453,0.028096,7.9293e-07,0.38,0.44,0
0.020477,0.0014959,0.033505,0.0021962,0.01071,0.0016818,0,0,0.059266,-0.022137,0,0.0087456,0,0,0,0.033595,0.0021061,0.01071,3.066,0.015471,0.02819,7.9947e-07,0.39,0.44,0
0.021071,0.0014985,0.033572,0.0021798,0.010726,0.0017259,0,0,0.059402,-0.022219,0,0.0089747,0,0,0,0.033667,0.0020852,0.010726,3.1374,0.015493,0.02827,8.054e-07,0.4,0.44,0
0.021665,0.0014968,0.033638,0.0021766,0.010744,0.0017655,0,0,0.059523,-0.022276,0,0.0091806,0,0,0,0.033736,0.0020779,0.010744,3.2019,0.01552,0.028337,8.1074e-07,0.41,0.44,0
0.022261,0.0014901,0.033701,0.0021852,0.010766,0.0017982,0,0,0.059631,-0.02231,0,0.0093507,0,0,0,0.033803,0.002083,0.010766,3.2551,0.015551,0.028393,8.1554e-07,0.42,0.44,0
0.022858,0.0014775,0.033764,0.0022035,0.01079,0.001821,0,0,0.059732,-0.022326,0,0.0094691,0,0,0,0.033869,0.0020988,0.01079,3.2913,0.015586,0.028438,8.1993e-07,0.43,0.44,0
0.023456,0.0014579,0.033829,0.0022281,0.010817,0.00183,0,0,0.05983,-0.022331,0,0.0095162,0,0,0,0.033934,0.0021225,0.010817,3.3034,0.015625,0.028478,8.2408e-07,0.44,0.44,0
0.024055,0.0014301,0.033898,0.0022543,0.010846,0.0018208,0,0,0.059935,-0.022337,0,0.0094684,0,0,0,0.034002,0.0021499,0.010846,3.2825,0.015666,0.028517,8.283e-07,0.45,0.44,0
0.024654,0.0013925,0.033975,0.0022747,0.010875,0.0017882,0,0,0.06006,-0.022361,0,0.0092986,0,0,0,0.034076,0.0021741,0.010875,3.2184,0.015708,0.028563,8.3307e-07,0.46,0.44,0
0.025256,0.0013433,0.034066,0.0022777,0.010903,0.0017267,0,0,0.060223,-0.022426,0,0.008979,0,0,0,0.034159,0.0021842,0.010903,3.1002,0.015749,0.028629,8.3906e-07,0.47,0.44,0
0.025859,0.0012802,0.034167,0.0022452,0.010924,0.0016313,0,0,0.060433,-0.022564,0,0.0084828,0,0,0,0.034251,0.0021621,0.010924,2.9178,0.015779,0.028728,8.467e-07,0.48,0.44,0
0.026464,0.0012006,0.034264,0.0021589,0.010927,0.0014911,0,0,0.060676,-0.022797,0,0.007754,0,0,0,0.034333,0.0020898,0.010927,2.6536,0.015783,0.028858,8.5529e-07,0.49,0.44,0
0.027072,0.0011009,0.034381,0.0020296,0.010923,0.0012563,0,0,0.06099,-0.023123,0,0.0065325,0,0,0,0.03443,0.0019808,0.010923,2.2204,0.015778,0.02903,8.6623e-07,0.5,0.44,0
0.027684,0.00097386,0.03471,0.001788,0.010949,0.00092319,0,0,0.061778,-0.02382,0,0.0048006,0,0,0,0.034736,0.0017621,0.010949,1.605,0.015816,0.029475,8.9721e-07,0.51,0.44,0
0.028308,0.00082272,0.034644,0.0006392,0.010585,0.00047256,0,0,0.062554,-0.025859,0,0.0024573,0,0,0,0.034651,0.00063263,0.010585,0.79603,0.015289,0.030294,9.2564e-07,0.52,0.44,0
0.028935,0.00064521,0.035103,-2.4431e-05,0.010523,0.00088293,0,0,0.063906,-0.027425,0,0.0045912,0,0,0,0.035125,-4.661e-05,0.010523,1.4389,0.015201,0.031257,9.8517e-07,0.53,0.44,0
0.029586,0.00052399,0.03437,-0.0016978,0.0098018,0.000528,0,0,0.048209,-0.019932,0,0.00028902,0,0,0,0.034426,-0.0017535,0.0098018,0.63868,0.014158,0.032122,9.1662e-07,0.54,0.44,0
0.0299,0.00049525,0.035182,-0.00097312,0.010263,-0.00011986,0,0,0.032395,-0.014606,0,-0.00031162,0,0,0,0.035182,-0.00097352,0.010263,-0.18994,0.014824,0.03205,1.0171e-06,0.55,0.44,0
0.030234,0.00049405,0.036536,-0.00057222,0.010789,0.00032144,0,0,0.033471,-0.01477,0,0.00083573,0,0,0,0.036539,-0.000575,0.010789,0.49624,0.015584,0.032937,1.1258e-06,0.56,0.44,0
0.030569,0.00048977,0.036622,-0.00075259,0.010761,0.00012249,0,0,0.033619,-0.014967,0,0.00031846,0,0,0,0.036622,-0.00075299,0.010761,0.18777,0.015543,0.033154,1.1391e-06,0.57,0.44,0
0.030906,0.00048647,0.036828,-0.00056587,0.010878,0.00012207,0,0,0.033734,-0.014878,0,0.00031738,0,0,0,0.036828,-0.00056626,0.010878,0.18704,0.015713,0.033187,1.1523e-06,0.58,0.44,0
0.031244,0.000483,0.036839,-0.00057198,0.01088,0.00014133,0,0,0.033747,-0.014888,0,0.00036746,0,0,0,0.03684,-0.00057251,0.01088,0.21645,0.015716,0.033202,1.1536e-06,0.59,0.44,0
0.031581,0.00048066,0.036876,-0.00064095,0.010871,0.00016857,0,0,0.033807,-0.014965,0,0.00043829,0,0,0,0.036877,-0.00064171,0.010871,0.25743,0.015702,0.033291,1.1593e-06,0.6,0.44,0
0.03192,0.00047862,0.036903,-0.00071713,0.010856,0.00015736,0,0,0.033861,-0.015045,0,0.00040912,0,0,0,0.036903,-0.00071779,0.010856,0.23965,0.01568,0.033375,1.1642e-06,0.61,0.44,0
0.032259,0.00047633,0.036924,-0.00073297,0.010857,0.00012847,0,0,0.033887,-0.015067,0,0.00033402,0,0,0,0.036925,-0.0007334,0.010857,0.19547,0.015683,0.033406,1.1667e-06,0.62,0.44,0
0.032598,0.00047363,0.036931,-0.0007145,0.010865,0.00011228,0,0,0.033886,-0.015053,0,0.00029193,0,0,0,0.036931,-0.00071484,0.010865,0.17089,0.015694,0.033397,1.1668e-06,0.63,0.44,0
0.032936,0.00047072,0.036925,-0.00069732,0.010868,0.00010901,0,0,0.033874,-0.015036,0,0.00028343,0,0,0,0.036926,-0.00069764,0.010868,0.16601,0.015699,0.033379,1.1657e-06,0.64,0.44,0
0.033275,0.00046785,0.036921,-0.00067653,0.010873,0.00011524,0,0,0.033862,-0.015015,0,0.00029963,0,0,0,0.036921,-0.00067689,0.010873,0.17562,0.015706,0.033358,1.1646e-06,0.65,0.44,0
0.033614,0.00046525,0.036918,-0.00065129,0.01088,0.00013154,0,0,0.033849,-0.014991,0,0.00034199,0,0,0,0.036918,-0.00065175,0.01088,0.2006,0.015716,0.033335,1.1635e-06,0.66,0.44,0
0.033952,0.00046318,0.036918,-0.00062991,0.010887,0.00016098,0,0,0.033841,-0.014971,0,0.00041854,0,0,0,0.036919,-0.0006306,0.010887,0.24563,0.015725,0.033319,1.1629e-06,0.67,0.44,0
0.03429,0.0004619,0.036924,-0.0006256,0.010889,0.00020208,0,0,0.033844,-0.01497,0,0.0005254,0,0,0,0.036925,-0.00062668,0.010889,0.30833,0.015729,0.033321,1.1633e-06,0.68,0.44,0
0.034629,0.00046159,0.036937,-0.00064675,0.010887,0.00024842,0,0,0.033864,-0.014994,0,0.00064589,0,0,0,0.036938,-0.00064839,0.010887,0.37869,0.015726,0.03335,1.1653e-06,0.69,0.44,0
0.034968,0.00046225,0.036957,-0.00069315,0.010879,0.00029148,0,0,0.033901,-0.015044,0,0.00075786,0,0,0,0.036959,-0.0006954,0.010879,0.44354,0.015714,0.033407,1.1688e-06,0.7,0.44,0
0.035307,0.00046372,0.036983,-0.00075609,0.010868,0.0003251,0,0,0.03395,-0.015111,0,0.00084525,0,0,0,0.036986,-0.00075889,0.010868,0.49351,0.015698,0.033481,1.1733e-06,0.71,0.44,0
0.035647,0.00046576,0.037013,-0.00082239,0.010857,0.00034813,0,0,0.034002,-0.015183,0,0.00090513,0,0,0,0.037016,-0.00082559,0.010857,0.52713,0.015682,0.033561,1.1783e-06,0.72,0.44,0
0.035987,0.00046814,0.037044,-0.00088399,0.010848,0.00036396,0,0,0.034055,-0.015252,0,0.00094629,0,0,0,0.037048,-0.00088749,0.010848,0.54974,0.015669,0.03364,1.1833e-06,0.73,0.44,0
0.036328,0.00047064,0.037078,-0.00094203,0.010841,0.00037335,0,0,0.034108,-0.015318,0,0.00097071,0,0,0,0.037081,-0.0009457,0.010841,0.56257,0.015659,0.033716,1.1883e-06,0.74,0.44,0
0.036669,0.00047306,0.037099,-0.0010009,0.01083,0.00037322,0,0,0.034151,-0.01538,0,0.00097037,0,0,0,0.037103,-0.0010046,0.01083,0.56118,0.015643,0.033783,1.1922e-06,0.75,0.44,0
0.037011,0.00047524,0.037108,-0.0010245,0.010825,0.00036469,0,0,0.034168,-0.015404,0,0.0009482,0,0,0,0.037111,-0.001028,0.010825,0.5479,0.015636,0.033809,1.1938e-06,0.76,0.44,0
0.037352,0.00047736,0.037112,-0.00098866,0.010837,0.00037884,0,0,0.034157,-0.015373,0,0.00098499,0,0,0,0.037116,-0.00099243,0.010837,0.56963,0.015653,0.033784,1.1931e-06,0.77,0.44,0
0.037694,0.00048007,0.037107,-0.00096228,0.010844,0.00043511,0,0,0.034143,-0.015348,0,0.0011313,0,0,0,0.037112,-0.00096725,0.010844,0.65473,0.015663,0.033761,1.192e-06,0.78,0.44,0
0.038035,0.00048416,0.037125,-0.001003,0.010837,0.00048626,0,0,0.034175,-0.015391,0,0.0012643,0,0,0,0.037131,-0.0010092,0.010837,0.73055,0.015653,0.033811,1.1951e-06,0.79,0.44,0
0.038378,0.00048835,0.03695,-0.0012254,0.010717,0.00051754,0,0,0.034102,-0.015525,0,0.0013456,0,0,0,0.036957,-0.0012324,0.010717,0.77657,0.01548,0.033835,1.1854e-06,0.8,0.44,0
0.038717,0.00049371,0.036853,-0.0011016,0.010726,0.00036109,0,0,0.033966,-0.015375,0,0.00093882,0,0,0,0.036857,-0.001105,0.010726,0.54502,0.015492,0.033645,1.172e-06,0.81,0.44,0
0.039057,0.00049646,0.035505,-0.0015121,0.010198,0.00083353,0,0,0.032899,-0.015223,0,0.0021672,0,0,0,0.035524,-0.0015309,0.010198,1.2893,0.01473,0.032803,1.0626e-06,0.82,0.44,0
0.039375,0.00052652,0.034681,-0.0023884,0.0096876,0.00013872,0,0,0.049051,-0.020932,0,0.0022473,0,0,0,0.034729,-0.0024367,0.0096876,0.40977,0.013993,0.032948,9.5318e-07,0.83,0.44,0
0.040038,0.00066257,0.035448,-0.00077545,0.010402,-0.00024419,0,0,0.065121,-0.029061,0,-0.0012698,0,0,0,0.03545,-0.00077709,0.010402,-0.38621,0.015025,0.032131,1.0346e-06,0.84,0.44,0
0.040678,0.00085644,0.035033,-4.2594e-05,0.010497,0.00022881,0,0,0.063793,-0.027403,0,0.0011898,0,0,0,0.035034,-4.4086e-05,0.010497,0.37374,0.015162,0.031174,9.7748e-07,0.85,0.44,0
0.041314,0.0010248,0.035109,0.0011485,0.010877,-0.00017596,0,0,0.063002,-0.025295,0,-0.00091497,0,0,0,0.03511,0.0011476,0.010877,-0.29685,0.015711,0.030293,9.4694e-07,0.86,0.44,0
0.041938,0.0011684,0.034816,0.0014142,0.010869,-0.0004849,0,0,0.062262,-0.024583,0,-0.0025215,0,0,0,0.034823,0.0014071,0.010869,-0.83154,0.0157,0.029832,9.1547e-07,0.87,0.44,0
0.042559,0.0012839,0.034742,0.0015274,0.010881,-0.00069426,0,0,0.062039,-0.024319,0,-0.0036102,0,0,0,0.034757,0.0015129,0.010881,-1.1969,0.015717,0.02969,9.0678e-07,0.88,0.44,0
0.043179,0.0013782,0.034701,0.0015824,0.010885,-0.00080189,0,0,0.061921,-0.024187,0,-0.0041698,0,0,0,0.03472,0.001563,0.010885,-1.3862,0.015723,0.029618,9.0232e-07,0.89,0.44,0
0.043797,0.0014553,0.034658,0.0015717,0.010869,-0.00085608,0,0,0.061852,-0.024173,0,-0.0044516,0,0,0,0.03468,0.0015496,0.010869,-1.4812,0.0157,0.029593,8.9956e-07,0.9,0.44,0
0.044416,0.0015181,0.034628,0.0015183,0.010844,-0.00086813,0,0,0.061839,-0.024247,0,-0.0045143,0,0,0,0.034651,0.0014955,0.010844,-1.5009,0.015664,0.02961,8.9896e-07,0.91,0.44,0
0.045034,0.0015689,0.034613,0.0014439,0.010817,-0.00084391,0,0,0.061869,-0.02437,0,-0.0043883,0,0,0,0.034634,0.0014225,0.010817,-1.4565,0.015625,0.029652,8.9993e-07,0.92,0.44,0
0.045653,0.0016099,0.034606,0.0013623,0.010791,-0.00078984,0,0,0.061921,-0.024514,0,-0.0041072,0,0,0,0.034625,0.0013436,0.010791,-1.3603,0.015586,0.029707,9.017e-07,0.93,0.44,0
0.046273,0.0016425,0.034605,0.001282,0.010766,-0.0007123,0,0,0.061982,-0.024659,0,-0.003704,0,0,0,0.034621,0.0012668,0.010766,-1.224,0.015551,0.029764,9.0373e-07,0.94,0.44,0
0.046893,0.0016682,0.034607,0.0012084,0.010745,-0.00061675,0,0,0.062042,-0.024794,0,-0.0032071,0,0,0,0.034618,0.001197,0.010745,-1.0576,0.01552,0.029817,9.057e-07,0.95,0.44,0
0.047513,0.0016879,0.034609,0.0011449,0.010726,-0.00050766,0,0,0.062095,-0.024911,0,-0.0026399,0,0,0,0.034617,0.0011372,0.010726,-0.86894,0.015493,0.029863,9.0744e-07,0.96,0.44,0
0.048135,0.0017025,0.034611,0.0010938,0.010712,-0.00038866,0,0,0.062139,-0.025006,0,-0.0020211,0,0,0,0.034616,0.0010893,0.010712,-0.66428,0.015472,0.0299,9.0886e-07,0.97,0.44,0
0.048756,0.0017125,0.034613,0.0010565,0.010701,-0.00026274,0,0,0.062172,-0.025075,0,-0.0013663,0,0,0,0.034615,0.0010545,0.010701,-0.44858,0.015457,0.029927,9.0989e-07,0.98,0.44,0
0.049378,0.0017184,0.034614,0.0010338,0.010694,-0.00013243,0,0,0.062192,-0.025118,0,-0.00068865,0,0,0,0.034615,0.0010333,0.010694,-0.22595,0.015448,0.029944,9.1052e-07,0.99,0.44,0
0.05,0.0017203,0.034615,0.0010262,0.010692,3.704e-05,0,0,0.062198,-0.025132,0,0.00019261,0,0,0,0.034615,0.0010262,0.010692,0.063184,0.015444,0.029949,9.1074e-07,1,0.44,0
0,0,0.028786,0.012337,0.012337,0.0010356,0,0,0.042767,1.0842e-19,0,0.0053849,0,0,0,0.028851,0.012272,0.012337,3.5882,0.01782,0.016546,2.3266e-07,0,0.45,0
0.00042767,5.3849e-05,0.028741,0.011822,0.012169,0.0010341,0,0,0.043088,-0.00090303,0,0.0053771,0,0,0,0.028804,0.011759,0.012169,3.4844,0.017577,0.016844,2.4497e-07,0.01,0.45,0
0.00086177,0.00010638,0.028914,0.011406,0.012096,0.0010214,0,0,0.043727,-0.0017948,0,0.005311,0,0,0,0.028973,0.011346,0.012096,3.3273,0.017472,0.017265,2.6262e-07,0.02,0.45,0
0.0013022,0.00015767,0.029086,0.010995,0.012024,0.0010106,0,0,0.04436,-0.0026752,0,0.0052551,0,0,0,0.029142,0.010939,0.012024,3.1876,0.017368,0.017685,2.8049e-07,0.03,0.45,0
0.001749,0.00020778,0.029256,0.010591,0.011954,0.0010015,0,0,0.044985,-0.0035442,0,0.005208,0,0,0,0.029309,0.010537,0.011954,3.0627,0.017267,0.018105,2.9854e-07,0.04,0.45,0
0.0022019,0.00025676,0.029425,0.010192,0.011885,0.00099391,0,0,0.045603,-0.0044014,0,0.0051683,0,0,0,0.029476,0.010141,0.011885,2.9505,0.017167,0.018524,3.1675e-07,0.05,0.45,0
0.002661,0.00030466,0.029592,0.0097996,0.011817,0.00098751,0,0,0.046213,-0.0052464,0,0.0051351,0,0,0,0.029641,0.0097504,0.011817,2.8493,0.01707,0.018942,3.3508e-07,0.06,0.45,0
0.0031262,0.0003515,0.029758,0.0094132,0.011751,0.00098218,0,0,0.046816,-0.0060789,0,0.0051074,0,0,0,0.029805,0.0093659,0.011751,2.7576,0.016974,0.019357,3.535e-07,0.07,0.45,0
0.0035973,0.00039731,0.029922,0.0090333,0.011687,0.0009778,0,0,0.047411,-0.0068981,0,0.0050846,0,0,0,0.029967,0.0089877,0.011687,2.6743,0.01688,0.019769,3.7198e-07,0.08,0.45,0
0.0040744,0.0004421,0.030084,0.0086603,0.011623,0.00097427,0,0,0.047997,-0.0077037,0,0.0050662,0,0,0,0.030128,0.0086161,0.011623,2.5985,0.016789,0.020177,3.9049e-07,0.09,0.45,0
0.0045573,0.00048589,0.030244,0.0082943,0.011562,0.00097154,0,0,0.048575,-0.0084947,0,0.005052,0,0,0,0.030287,0.0082514,0.011562,2.5294,0.0167,0.020581,4.0898e-07,0.1,0.45,0
0.0050459,0.00052868,0.030402,0.0079357,0.011501,0.00096958,0,0,0.049142,-0.0092707,0,0.0050418,0,0,0,0.030444,0.0078939,0.011501,2.4666,0.016613,0.02098,4.2742e-07,0.11,0.45,0
0.0055401,0.00057047,0.030558,0.0075849,0.011443,0.0009684,0,0,0.0497,-0.010031,0,0.0050357,0,0,0,0.030599,0.0075441,0.011443,2.4095,0.016529,0.021374,4.4577e-07,0.12,0.45,0
0.0060399,0.00061126,0.030712,0.0072421,0.011386,0.00096803,0,0,0.050247,-0.010775,0,0.0050338,0,0,0,0.030752,0.0072022,0.011386,2.3579,0.016447,0.021761,4.6401e-07,0.13,0.45,0
0.0065451,0.00065106,0.030863,0.0069077,0.011331,0.00096853,0,0,0.050783,-0.011501,0,0.0050364,0,0,0,0.030902,0.0068686,0.011331,2.3115,0.016367,0.022142,4.8209e-07,0.14,0.45,0
0.0070555,0.00068985,0.031012,0.0065821,0.011278,0.00096997,0,0,0.051307,-0.01221,0,0.0050438,0,0,0,0.03105,0.0065437,0.011278,2.2701,0.016291,0.022516,4.9999e-07,0.15,0.45,0
0.0075712,0.00072764,0.031158,0.0062656,0.011227,0.00097246,0,0,0.05182,-0.0129,0,0.0050568,0,0,0,0.031196,0.0062277,0.011227,2.2338,0.016217,0.022882,5.1767e-07,0.16,0.45,0
0.008092,0.00076441,0.031301,0.0059585,0.011178,0.0009761,0,0,0.052321,-0.013571,0,0.0050757,0,0,0,0.031339,0.0059209,0.011178,2.2024,0.016146,0.02324,5.3511e-07,0.17,0.45,0
0.0086176,0.00080015,0.031442,0.005661,0.011131,0.00098103,0,0,0.052809,-0.014222,0,0.0051014,0,0,0,0.031479,0.0056238,0.011131,2.1761,0.016078,0.023589,5.5228e-07,0.18,0.45,0
0.0091481,0.00083487,0.03158,0.0053736,0.011086,0.0009874,0,0,0.053284,-0.014852,0,0.0051345,0,0,0,0.031617,0.0053365,0.011086,2.1547,0.016013,0.02393,5.6915e-07,0.19,0.45,0
0.0096833,0.00086855,0.031715,0.0050965,0.011043,0.00099536,0,0,0.053746,-0.015462,0,0.0051759,0,0,0,0.031752,0.0050594,0.011043,2.1385,0.015952,0.024261,5.857e-07,0.2,0.45,0
0.010223,0.00090118,0.031847,0.00483,0.011003,0.0010051,0,0,0.054195,-0.01605,0,0.0052263,0,0,0,0.031885,0.0047927,0.011003,2.1275,0.015894,0.024582,6.0192e-07,0.21,0.45,0
0.010767,0.00093276,0.031977,0.0045744,0.010965,0.0010167,0,0,0.05463,-0.016617,0,0.0052868,0,0,0,0.032015,0.0045367,0.010965,2.1219,0.015839,0.024894,6.1777e-07,0.22,0.45,0
0.011316,0.00096327,0.032104,0.0043298,0.01093,0.0010304,0,0,0.055052,-0.017161,0,0.0053581,0,0,0,0.032142,0.0042917,0.01093,2.1218,0.015788,0.025196,6.3326e-07,0.23,0.45,0
0.011868,0.0009927,0.032228,0.0040967,0.010897,0.0010464,0,0,0.055459,-0.017682,0,0.0054412,0,0,0,0.032267,0.0040578,0.010897,2.1273,0.015741,0.025487,6.4836e-07,0.24,0.45,0
0.012425,0.001021,0.032349,0.0038752,0.010867,0.0010648,0,0,0.055853,-0.01818,0,0.0055369,0,0,0,0.032389,0.0038354,0.010867,2.1386,0.015697,0.025768,6.6307e-07,0.25,0.45,0
0.012985,0.0010483,0.032468,0.0036655,0.01084,0.0010858,0,0,0.056233,-0.018654,0,0.0056461,0,0,0,0.032509,0.0036247,0.01084,2.1558,0.015658,0.026038,6.7738e-07,0.26,0.45,0
0.01355,0.0010744,0.032585,0.003468,0.010816,0.0011095,0,0,0.056599,-0.019104,0,0.0057694,0,0,0,0.032627,0.0034258,0.010816,2.1791,0.015623,0.026297,6.9127e-07,0.27,0.45,0
0.014117,0.0010993,0.032699,0.0032828,0.010795,0.0011361,0,0,0.056951,-0.01953,0,0.0059076,0,0,0,0.032743,0.003239,0.010795,2.2084,0.015592,0.026545,7.0475e-07,0.28,0.45,0
0.014689,0.001123,0.032811,0.0031103,0.010776,0.0011656,0,0,0.057289,-0.019932,0,0.0060612,0,0,0,0.032856,0.0030647,0.010776,2.244,0.015566,0.026782,7.178e-07,0.29,0.45,0
0.015263,0.0011455,0.03292,0.0029508,0.010761,0.0011982,0,0,0.057613,-0.020307,0,0.0062306,0,0,0,0.032968,0.0029029,0.010761,2.2859,0.015544,0.027007,7.3042e-07,0.3,0.45,0
0.015841,0.0011666,0.033028,0.0028044,0.01075,0.0012338,0,0,0.057923,-0.020657,0,0.0064159,0,0,0,0.033078,0.0027541,0.01075,2.3339,0.015527,0.027221,7.426e-07,0.31,0.45,0
0.016421,0.0011864,0.033133,0.0026716,0.010741,0.0012725,0,0,0.058218,-0.020981,0,0.0066169,0,0,0,0.033186,0.0026185,0.010741,2.3879,0.015515,0.027423,7.5434e-07,0.32,0.45,0
0.017005,0.0012047,0.033236,0.0025527,0.010737,0.001314,0,0,0.058499,-0.021278,0,0.006833,0,0,0,0.033292,0.0024965,0.010737,2.4478,0.015508,0.027614,7.6562e-07,0.33,0.45,0
0.017591,0.0012213,0.033337,0.0024479,0.010736,0.0013583,0,0,0.058765,-0.021548,0,0.0070631,0,0,0,0.033397,0.0023883,0.010736,2.513,0.015507,0.027792,7.7643e-07,0.34,0.45,0
0.01818,0.0012362,0.033437,0.0023578,0.010738,0.0014049,0,0,0.059016,-0.021789,0,0.0073056,0,0,0,0.0335,0.0022944,0.010738,2.583,0.015511,0.027957,7.8676e-07,0.35,0.45,0
0.018772,0.0012491,0.033534,0.0022826,0.010745,0.0014534,0,0,0.059252,-0.022002,0,0.0075577,0,0,0,0.033602,0.0022151,0.010745,2.657,0.015521,0.02811,7.966e-07,0.36,0.45,0
0.019366,0.0012597,0.03363,0.0022227,0.010756,0.001503,0,0,0.059473,-0.022186,0,0.0078158,0,0,0,0.033702,0.0021509,0.010756,2.7336,0.015536,0.028249,8.0593e-07,0.37,0.45,0
0.019961,0.0012678,0.033724,0.0021784,0.010771,0.0015529,0,0,0.059679,-0.02234,0,0.0080749,0,0,0,0.0338,0.0021021,0.010771,2.8114,0.015558,0.028375,8.1474e-07,0.38,0.45,0
0.020559,0.0012729,0.033817,0.0021498,0.01079,0.0016016,0,0,0.05987,-0.022464,0,0.0083283,0,0,0,0.033898,0.002069,0.01079,2.888,0.015586,0.028488,8.2301e-07,0.39,0.45,0
0.021159,0.0012746,0.033908,0.002137,0.010814,0.0016475,0,0,0.060046,-0.022559,0,0.0085671,0,0,0,0.033994,0.0020518,0.010814,2.9605,0.01562,0.028586,8.3073e-07,0.4,0.45,0
0.02176,0.0012723,0.033999,0.0021397,0.010842,0.0016884,0,0,0.06021,-0.022625,0,0.0087797,0,0,0,0.034089,0.0020505,0.010842,3.0251,0.01566,0.028672,8.3794e-07,0.41,0.45,0
0.022363,0.0012652,0.034091,0.0021572,0.010874,0.0017215,0,0,0.060362,-0.022665,0,0.0089515,0,0,0,0.034183,0.0020646,0.010874,3.0768,0.015707,0.028745,8.4467e-07,0.42,0.45,0
0.022967,0.0012524,0.034184,0.0021879,0.010911,0.001743,0,0,0.060508,-0.022681,0,0.0090638,0,0,0,0.034278,0.0020933,0.010911,3.1091,0.015761,0.028807,8.5102e-07,0.43,0.45,0
0.023573,0.0012328,0.03428,0.0022297,0.010953,0.0017487,0,0,0.060651,-0.022681,0,0.009093,0,0,0,0.034376,0.0021346,0.010953,3.1137,0.015821,0.028861,8.5715e-07,0.44,0.45,0
0.02418,0.001205,0.034385,0.0022789,0.010999,0.0017325,0,0,0.060802,-0.022672,0,0.0090089,0,0,0,0.034478,0.0021857,0.010999,3.0799,0.015887,0.028911,8.6337e-07,0.45,0.45,0
0.024789,0.0011673,0.034502,0.0023297,0.011049,0.0016873,0,0,0.060976,-0.022671,0,0.0087741,0,0,0,0.03459,0.0022414,0.011049,2.994,0.01596,0.028967,8.7023e-07,0.46,0.45,0
0.0254,0.0011175,0.034642,0.0023727,0.011104,0.0016048,0,0,0.061197,-0.022702,0,0.0083448,0,0,0,0.034721,0.0022931,0.011104,2.8401,0.01604,0.029043,8.7877e-07,0.47,0.45,0
0.026013,0.0010531,0.034819,0.0023901,0.011163,0.0014801,0,0,0.061507,-0.022809,0,0.0076967,0,0,0,0.034887,0.0023227,0.011163,2.6079,0.016124,0.029167,8.9077e-07,0.48,0.45,0
0.02663,0.00097138,0.035011,0.0023371,0.011204,0.0013202,0,0,0.061897,-0.023055,0,0.0068651,0,0,0,0.035064,0.0022838,0.011204,2.31,0.016184,0.029355,9.0615e-07,0.49,0.45,0
0.027251,0.00086925,0.035077,0.0021794,0.011177,0.0011247,0,0,0.06214,-0.023393,0,0.0058486,0,0,0,0.035115,0.002141,0.011177,1.9559,0.016144,0.029512,9.1497e-07,0.5,0.45,0
0.027873,0.00073954,0.035005,0.0020614,0.01112,0.00075615,0,0,0.062101,-0.023552,0,0.003932,0,0,0,0.035022,0.0020441,0.01112,1.3142,0.016062,0.029506,9.1077e-07,0.51,0.45,0
0.028493,0.00056175,0.035526,0.0011136,0.010992,0.00070905,0,0,0.063788,-0.025683,0,0.0036871,0,0,0,0.03554,0.001099,0.010992,1.1799,0.015877,0.030714,9.8427e-07,0.52,0.45,0
0.029149,0.00038417,0.039492,0.00023369,0.011918,0.00070945,0,0,0.050331,-0.021088,0,0.0026152,0,0,0,0.039504,0.00022085,0.011918,1.0429,0.017214,0.034937,1.5424e-06,0.53,0.45,0
0.029576,0.0003468,0.031776,-0.00011417,0.0094985,-0.001005,0,0,0.039641,-0.016926,0,-0.00381,0,0,0,0.031809,-0.000147,0.0094985,-1.9015,0.01372,0.02839,8.8371e-07,0.54,0.45,0
0.02991,0.00035503,0.036255,-0.00064625,0.010683,-3.7018e-05,0,0,0.033244,-0.014727,0,-9.6246e-05,0,0,0,0.036255,-0.00064629,0.010683,-0.057477,0.01543,0.032741,1.1021e-06,0.55,0.45,0
0.030241,0.00034591,0.036234,-0.00077397,0.010638,-0.00011316,0,0,0.033275,-0.014835,0,-0.00029422,0,0,0,0.036234,-0.00077432,0.010638,-0.1752,0.015366,0.032826,1.1042e-06,0.56,0.45,0
0.030576,0.00034155,0.036647,-0.00063927,0.010802,4.6033e-05,0,0,0.033598,-0.014874,0,0.00011969,0,0,0,0.036647,-0.00063933,0.010802,0.070736,0.015603,0.033084,1.1378e-06,0.57,0.45,0
0.030912,0.00033738,0.036759,-0.00063705,0.010837,7.1202e-05,0,0,0.0337,-0.014916,0,0.00018512,0,0,0,0.03676,-0.00063719,0.010837,0.10909,0.015653,0.033182,1.1482e-06,0.58,0.45,0
0.03125,0.00033395,0.036836,-0.00061576,0.010866,0.00010669,0,0,0.03376,-0.014926,0,0.00027741,0,0,0,0.036836,-0.00061606,0.010866,0.16323,0.015695,0.033233,1.1546e-06,0.59,0.45,0
0.031588,0.000331,0.036865,-0.00065113,0.010864,0.000128,0,0,0.033801,-0.01497,0,0.00033279,0,0,0,0.036866,-0.00065157,0.010864,0.19548,0.015693,0.033288,1.1586e-06,0.6,0.45,0
0.031926,0.00032841,0.036892,-0.00068994,0.010861,0.00013207,0,0,0.03384,-0.015016,0,0.00034339,0,0,0,0.036892,-0.0006904,0.010861,0.20135,0.015687,0.033343,1.1623e-06,0.61,0.45,0
0.032265,0.00032582,0.03691,-0.00071056,0.01086,0.00012333,0,0,0.033865,-0.015041,0,0.00032065,0,0,0,0.03691,-0.00071097,0.01086,0.18782,0.015686,0.033376,1.1646e-06,0.62,0.45,0
0.032603,0.00032312,0.036919,-0.00071084,0.010862,0.0001138,0,0,0.033873,-0.015045,0,0.00029587,0,0,0,0.036919,-0.00071118,0.010862,0.17327,0.01569,0.033384,1.1655e-06,0.63,0.45,0
0.032942,0.00032035,0.036921,-0.00070025,0.010866,0.00011137,0,0,0.033871,-0.015036,0,0.00028955,0,0,0,0.036921,-0.00070058,0.010866,0.16961,0.015696,0.033377,1.1653e-06,0.64,0.45,0
0.033281,0.00031766,0.036919,-0.00068627,0.01087,0.00011771,0,0,0.033864,-0.015023,0,0.00030605,0,0,0,0.036919,-0.00068664,0.01087,0.17935,0.015701,0.033364,1.1647e-06,0.65,0.45,0
0.033619,0.00031524,0.036918,-0.00067212,0.010874,0.00013367,0,0,0.033858,-0.01501,0,0.00034755,0,0,0,0.036918,-0.0006726,0.010874,0.20375,0.015707,0.033352,1.1642e-06,0.66,0.45,0
0.033958,0.00031329,0.036921,-0.00066377,0.010877,0.00015934,0,0,0.033857,-0.015003,0,0.00041429,0,0,0,0.036921,-0.00066445,0.010877,0.24291,0.015711,0.033348,1.1642e-06,0.67,0.45,0
0.034296,0.00031198,0.036928,-0.00066824,0.010878,0.0001929,0,0,0.033865,-0.01501,0,0.00050153,0,0,0,0.036929,-0.00066923,0.010878,0.29396,0.015713,0.033359,1.1651e-06,0.68,0.45,0
0.034635,0.00031142,0.036943,-0.00069028,0.010876,0.00023002,0,0,0.033887,-0.015036,0,0.00059806,0,0,0,0.036944,-0.00069169,0.010876,0.35019,0.01571,0.033391,1.1673e-06,0.69,0.45,0
0.034974,0.00031162,0.036965,-0.00072982,0.01087,0.00026544,0,0,0.033922,-0.01508,0,0.00069015,0,0,0,0.036966,-0.00073169,0.01087,0.40345,0.015702,0.033442,1.1706e-06,0.7,0.45,0
0.035314,0.00031247,0.036992,-0.00078198,0.010863,0.000295,0,0,0.033967,-0.015138,0,0.00076701,0,0,0,0.036994,-0.00078428,0.010863,0.44743,0.015691,0.033509,1.1749e-06,0.71,0.45,0
0.035653,0.00031383,0.037023,-0.00083979,0.010855,0.00031713,0,0,0.034018,-0.015203,0,0.00082453,0,0,0,0.037026,-0.00084244,0.010855,0.47985,0.015679,0.033584,1.1797e-06,0.72,0.45,0
0.035994,0.00031552,0.037056,-0.00089743,0.010847,0.00033221,0,0,0.034071,-0.015268,0,0.00086374,0,0,0,0.037059,-0.00090034,0.010847,0.50146,0.015668,0.033659,1.1847e-06,0.73,0.45,0
0.036335,0.00031739,0.037086,-0.00095179,0.01084,0.00034141,0,0,0.034119,-0.01533,0,0.00088767,0,0,0,0.037089,-0.00095485,0.01084,0.51421,0.015658,0.03373,1.1893e-06,0.74,0.45,0
0.036676,0.0003193,0.03711,-0.0009954,0.010835,0.0003469,0,0,0.034159,-0.015379,0,0.00090193,0,0,0,0.037114,-0.00099856,0.010835,0.52153,0.01565,0.033787,1.1931e-06,0.75,0.45,0
0.037018,0.00032126,0.037127,-0.001019,0.010833,0.00035712,0,0,0.034183,-0.015407,0,0.00092851,0,0,0,0.037131,-0.0010224,0.010833,0.53633,0.015647,0.033822,1.1955e-06,0.76,0.45,0
0.03736,0.00032343,0.037138,-0.0010253,0.010834,0.00038442,0,0,0.034196,-0.015417,0,0.00099949,0,0,0,0.037142,-0.0010292,0.010834,0.57706,0.015649,0.033837,1.1968e-06,0.77,0.45,0
0.037702,0.0003262,0.037147,-0.0010367,0.010833,0.00043323,0,0,0.034208,-0.015431,0,0.0011264,0,0,0,0.037152,-0.0010416,0.010833,0.64995,0.015648,0.033856,1.1981e-06,0.78,0.45,0
0.038044,0.00032971,0.037112,-0.0011035,0.010802,0.00050003,0,0,0.034202,-0.015478,0,0.0013001,0,0,0,0.037118,-0.0011101,0.010802,0.74952,0.015604,0.033881,1.197e-06,0.79,0.45,0
0.038386,0.00033424,0.037038,-0.0011507,0.010766,0.00056233,0,0,0.034154,-0.015492,0,0.0014621,0,0,0,0.037047,-0.001159,0.010766,0.84343,0.015551,0.033857,1.1917e-06,0.8,0.45,0
0.038727,0.0003393,0.036681,-0.0013166,0.010609,0.00076538,0,0,0.033894,-0.015504,0,0.00199,0,0,0,0.036697,-0.001332,0.010609,1.1535,0.015325,0.033685,1.1639e-06,0.81,0.45,0
0.039064,0.00034942,0.036782,-0.0012346,0.010664,0.00071699,0,0,0.033953,-0.015468,0,0.0018642,0,0,0,0.036795,-0.0012482,0.010664,1.0801,0.015404,0.033705,1.1706e-06,0.82,0.45,0
0.039406,0.00034072,0.032287,-0.00054546,0.0095225,0.0016366,0,0,0.040503,-0.017733,0,0.006106,0,0,0,0.03237,-0.00062856,0.0095225,2.9627,0.013755,0.029275,9.4542e-07,0.83,0.45,0
0.039843,0.00038382,0.03995,-0.00063773,0.011794,3.107e-05,0,0,0.05139,-0.022452,0,9.6083e-05,0,0,0,0.039951,-0.00063776,0.011794,0.039998,0.017036,0.03602,1.6319e-06,0.84,0.45,0
0.040512,0.00057923,0.035946,0.00030475,0.010875,-2.7647e-05,0,0,0.065184,-0.027483,0,-0.00014376,0,0,0,0.035946,0.00030473,0.010875,-0.044445,0.015709,0.031706,1.0447e-06,0.85,0.45,0
0.041146,0.00077503,0.035518,0.0014276,0.011084,-4.6249e-05,0,0,0.063529,-0.025106,0,-0.0002405,0,0,0,0.035518,0.0014276,0.011084,-0.077731,0.01601,0.030434,9.7164e-07,0.86,0.45,0
0.041782,0.00092164,0.035616,0.0015411,0.011147,-0.00040199,0,0,0.063619,-0.024976,0,-0.0020904,0,0,0,0.035621,0.0015363,0.011147,-0.67582,0.016101,0.030439,9.766e-07,0.87,0.45,0
0.042419,0.0010387,0.035613,0.0016787,0.011187,-0.00058086,0,0,0.063506,-0.024723,0,-0.0030205,0,0,0,0.035623,0.0016687,0.011187,-0.98036,0.01616,0.030336,9.7234e-07,0.88,0.45,0
0.043052,0.001134,0.035485,0.0016923,0.011153,-0.0007119,0,0,0.063262,-0.024598,0,-0.0037019,0,0,0,0.0355,0.0016773,0.011153,-1.2063,0.01611,0.03022,9.6181e-07,0.89,0.45,0
0.043684,0.0012111,0.035373,0.0016224,0.011099,-0.00079814,0,0,0.063113,-0.024638,0,-0.0041503,0,0,0,0.035392,0.0016035,0.011099,-1.3539,0.016031,0.030183,9.5535e-07,0.9,0.45,0
0.044315,0.0012729,0.035301,0.0015203,0.011046,-0.00083273,0,0,0.063062,-0.024768,0,-0.0043302,0,0,0,0.035322,0.0014998,0.011046,-1.4113,0.015956,0.030202,9.5299e-07,0.91,0.45,0
0.044945,0.0013224,0.035254,0.0014085,0.010999,-0.00082184,0,0,0.063064,-0.024935,0,-0.0042736,0,0,0,0.035274,0.0013885,0.010999,-1.3902,0.015887,0.030248,9.5271e-07,0.92,0.45,0
0.045576,0.0013617,0.035222,0.0012985,0.010956,-0.00077561,0,0,0.06309,-0.02511,0,-0.0040332,0,0,0,0.035239,0.0012807,0.010956,-1.3091,0.015825,0.030302,9.5333e-07,0.93,0.45,0
0.046207,0.0013928,0.035198,0.0011967,0.010918,-0.00070283,0,0,0.063126,-0.025276,0,-0.0036547,0,0,0,0.035212,0.0011822,0.010918,-1.1837,0.015771,0.030356,9.5427e-07,0.94,0.45,0
0.046838,0.0014171,0.03518,0.0011071,0.010886,-0.00061031,0,0,0.063163,-0.025425,0,-0.0031736,0,0,0,0.03519,0.0010962,0.010886,-1.0258,0.015724,0.030405,9.5525e-07,0.95,0.45,0
0.04747,0.0014356,0.035166,0.0010318,0.010859,-0.00050326,0,0,0.063197,-0.025552,0,-0.0026169,0,0,0,0.035174,0.0010244,0.010859,-0.84449,0.015686,0.030447,9.5613e-07,0.96,0.45,0
0.048102,0.0014492,0.035156,0.00097229,0.010838,-0.00038572,0,0,0.063226,-0.025652,0,-0.0020057,0,0,0,0.03516,0.00096793,0.010838,-0.64639,0.015656,0.030481,9.5685e-07,0.97,0.45,0
0.048735,0.0014585,0.035149,0.0009293,0.010824,-0.00026092,0,0,0.063247,-0.025725,0,-0.0013568,0,0,0,0.035151,0.00092731,0.010824,-0.43684,0.015634,0.030505,9.5738e-07,0.98,0.45,0
0.049367,0.0014639,0.035145,0.00090336,0.010815,-0.00013156,0,0,0.06326,-0.025769,0,-0.00068413,0,0,0,0.035146,0.00090285,0.010815,-0.22013,0.015621,0.030519,9.577e-07,0.99,0.45,0
0.05,0.0014657,0.035144,0.00089468,0.010812,3.4258e-05,0,0,0.063264,-0.025784,0,0.00017814,0,0,0,0.035144,0.00089465,0.010812,0.05731,0.015617,0.030524,9.5781e-07,1,0.45,0
0,0,0.028823,0.012353,0.012353,0.00086138,0,0,0.042823,5.421e-20,0,0.0044792,0,0,0,0.028868,0.012308,0.012353,2.9856,0.017843,0.016538,2.323e-07,0,0.46,0
0.00042823,4.4792e-05,0.028779,0.011835,0.012184,0.00086009,0,0,0.043146,-0.00090833,0,0.0044725,0,0,0,0.028822,0.011791,0.012184,2.8985,0.017599,0.016838,2.4474e-07,0.01,0.46,0
0.00086292,8.8382e-05,0.028952,0.011417,0.012111,0.00084869,0,0,0.043789,-0.0018047,0,0.0044132,0,0,0,0.028993,0.011376,0.012111,2.7644,0.017493,0.017262,2.6256e-07,0.02,0.46,0
0.001304,0.00013085,0.029125,0.011005,0.012039,0.00083926,0,0,0.044424,-0.0026892,0,0.0043641,0,0,0,0.029164,0.010966,0.012039,2.6461,0.017389,0.017686,2.806e-07,0.03,0.46,0
0.0017514,0.00017225,0.029296,0.010598,0.011968,0.00083154,0,0,0.045052,-0.0035618,0,0.004324,0,0,0,0.029333,0.010561,0.011968,2.5414,0.017288,0.018109,2.9881e-07,0.04,0.46,0
0.002205,0.00021265,0.029466,0.010198,0.011899,0.00082532,0,0,0.045673,-0.0044222,0,0.0042917,0,0,0,0.029501,0.010163,0.011899,2.4483,0.017188,0.018531,3.1718e-07,0.05,0.46,0
0.0026649,0.00025208,0.029634,0.0098046,0.011832,0.00082041,0,0,0.046287,-0.0052702,0,0.0042661,0,0,0,0.029668,0.0097707,0.011832,2.3651,0.01709,0.018951,3.3567e-07,0.06,0.46,0
0.0031308,0.00029058,0.029801,0.0094172,0.011765,0.00081667,0,0,0.046892,-0.0061054,0,0.0042467,0,0,0,0.029834,0.0093846,0.011765,2.2906,0.016995,0.019369,3.5425e-07,0.07,0.46,0
0.0036027,0.00032818,0.029966,0.0090364,0.011701,0.00081398,0,0,0.04749,-0.0069274,0,0.0042327,0,0,0,0.029998,0.0090048,0.011701,2.2238,0.016901,0.019783,3.7289e-07,0.08,0.46,0
0.0040806,0.00036491,0.03013,0.0086625,0.011638,0.00081225,0,0,0.04808,-0.0077355,0,0.0042237,0,0,0,0.030161,0.0086318,0.011638,2.1638,0.01681,0.020194,3.9156e-07,0.09,0.46,0
0.0045643,0.00040077,0.030292,0.0082957,0.011576,0.00081145,0,0,0.04866,-0.0085293,0,0.0042195,0,0,0,0.030322,0.0082658,0.011576,2.1099,0.016721,0.020601,4.1023e-07,0.1,0.46,0
0.0050538,0.00043578,0.030451,0.0079363,0.011516,0.00081153,0,0,0.049231,-0.0093081,0,0.00422,0,0,0,0.030481,0.0079071,0.011516,2.0616,0.016635,0.021003,4.2886e-07,0.11,0.46,0
0.0055489,0.00046996,0.030609,0.0075846,0.011458,0.00081251,0,0,0.049793,-0.010071,0,0.0042251,0,0,0,0.030638,0.007556,0.011458,2.0185,0.016551,0.021399,4.4742e-07,0.12,0.46,0
0.0060497,0.0005033,0.030765,0.007241,0.011402,0.00081441,0,0,0.050345,-0.010818,0,0.0042349,0,0,0,0.030793,0.0072128,0.011402,1.9804,0.016469,0.02179,4.6587e-07,0.13,0.46,0
0.0065558,0.00053582,0.030919,0.0069057,0.011347,0.00081726,0,0,0.050886,-0.011548,0,0.0042498,0,0,0,0.030947,0.0068779,0.011347,1.947,0.016391,0.022174,4.8419e-07,0.14,0.46,0
0.0070674,0.00056751,0.03107,0.0065791,0.011295,0.00082114,0,0,0.051416,-0.012261,0,0.0042699,0,0,0,0.031098,0.0065516,0.011295,1.9181,0.016315,0.022552,5.0235e-07,0.15,0.46,0
0.0075841,0.00059837,0.031219,0.0062614,0.011244,0.00082613,0,0,0.051935,-0.012955,0,0.0042959,0,0,0,0.031247,0.0062341,0.011244,1.8938,0.016242,0.022922,5.2032e-07,0.16,0.46,0
0.0081061,0.0006284,0.031366,0.005953,0.011196,0.00083233,0,0,0.052443,-0.013631,0,0.0043281,0,0,0,0.031393,0.0059258,0.011196,1.8739,0.016172,0.023284,5.3806e-07,0.17,0.46,0
0.008633,0.00065761,0.03151,0.0056543,0.011149,0.00083985,0,0,0.052938,-0.014287,0,0.0043672,0,0,0,0.031538,0.005627,0.011149,1.8585,0.016105,0.023638,5.5557e-07,0.18,0.46,0
0.0091648,0.00068599,0.031652,0.0053654,0.011105,0.00084882,0,0,0.053422,-0.014924,0,0.0044138,0,0,0,0.031679,0.005338,0.011105,1.8476,0.016041,0.023984,5.728e-07,0.19,0.46,0
0.0097014,0.00071354,0.031792,0.0050866,0.011064,0.00085937,0,0,0.053893,-0.01554,0,0.0044687,0,0,0,0.031819,0.005059,0.011064,1.8412,0.015981,0.02432,5.8976e-07,0.2,0.46,0
0.010243,0.00074025,0.031929,0.0048183,0.011024,0.00087164,0,0,0.054352,-0.016135,0,0.0045325,0,0,0,0.031957,0.0047903,0.011024,1.8396,0.015924,0.024648,6.0641e-07,0.21,0.46,0
0.010788,0.00076613,0.032064,0.0045607,0.010987,0.0008858,0,0,0.054799,-0.016709,0,0.0046061,0,0,0,0.032092,0.0045322,0.010987,1.8428,0.015871,0.024966,6.2275e-07,0.22,0.46,0
0.011339,0.00079116,0.032196,0.004314,0.010953,0.00090198,0,0,0.055232,-0.017262,0,0.0046903,0,0,0,0.032225,0.0042849,0.010953,1.8509,0.015821,0.025275,6.3876e-07,0.23,0.46,0
0.011893,0.00081533,0.032327,0.0040786,0.010922,0.00092035,0,0,0.055654,-0.017792,0,0.0047858,0,0,0,0.032357,0.0040486,0.010922,1.8641,0.015776,0.025574,6.5443e-07,0.24,0.46,0
0.012452,0.00083864,0.032455,0.0038546,0.010893,0.00094105,0,0,0.056062,-0.0183,0,0.0048935,0,0,0,0.032486,0.0038237,0.010893,1.8825,0.015734,0.025863,6.6976e-07,0.25,0.46,0
0.013014,0.00086107,0.032582,0.0036424,0.010867,0.00096424,0,0,0.056458,-0.018785,0,0.005014,0,0,0,0.032614,0.0036103,0.010867,1.9062,0.015697,0.026142,6.8474e-07,0.26,0.46,0
0.013581,0.0008826,0.032706,0.0034421,0.010845,0.00099005,0,0,0.056841,-0.019246,0,0.0051483,0,0,0,0.03274,0.0034087,0.010845,1.9354,0.015664,0.02641,6.9936e-07,0.27,0.46,0
0.014151,0.00090321,0.032829,0.0032541,0.010825,0.0010186,0,0,0.057211,-0.019685,0,0.0052968,0,0,0,0.032864,0.0032191,0.010825,1.9702,0.015636,0.026669,7.1363e-07,0.28,0.46,0
0.014725,0.00092286,0.032951,0.0030787,0.010809,0.00105,0,0,0.05757,-0.020099,0,0.00546,0,0,0,0.032988,0.0030418,0.010809,2.0106,0.015613,0.026916,7.2754e-07,0.29,0.46,0
0.015303,0.0009415,0.033071,0.0029161,0.010796,0.0010843,0,0,0.057915,-0.020488,0,0.0056385,0,0,0,0.03311,0.0028772,0.010796,2.0567,0.015595,0.027154,7.4108e-07,0.3,0.46,0
0.015883,0.00095909,0.03319,0.0027668,0.010787,0.0011216,0,0,0.058248,-0.020853,0,0.0058322,0,0,0,0.033231,0.0027255,0.010787,2.1084,0.015581,0.02738,7.5427e-07,0.31,0.46,0
0.016467,0.00097554,0.033308,0.0026311,0.010782,0.0011617,0,0,0.058568,-0.021192,0,0.0060411,0,0,0,0.033352,0.0025871,0.010782,2.1657,0.015574,0.027596,7.6709e-07,0.32,0.46,0
0.017055,0.00099076,0.033425,0.0025094,0.01078,0.0012047,0,0,0.058876,-0.021504,0,0.0062645,0,0,0,0.033472,0.0024625,0.01078,2.2282,0.015572,0.0278,7.7954e-07,0.33,0.46,0
0.017645,0.0010046,0.033541,0.0024021,0.010783,0.0012503,0,0,0.059171,-0.02179,0,0.0065016,0,0,0,0.033591,0.002352,0.010783,2.2956,0.015575,0.027993,7.9162e-07,0.34,0.46,0
0.018238,0.001017,0.033657,0.0023099,0.01079,0.0012982,0,0,0.059453,-0.022048,0,0.0067504,0,0,0,0.03371,0.0022562,0.01079,2.3674,0.015586,0.028174,8.033e-07,0.35,0.46,0
0.018834,0.0010276,0.033772,0.0022332,0.010802,0.0013478,0,0,0.059723,-0.022277,0,0.0070084,0,0,0,0.033829,0.0021757,0.010802,2.4426,0.015602,0.028343,8.1459e-07,0.36,0.46,0
0.019433,0.0010364,0.033886,0.0021726,0.010818,0.0013984,0,0,0.059979,-0.022477,0,0.0072719,0,0,0,0.033948,0.0021111,0.010818,2.52,0.015626,0.028499,8.2546e-07,0.37,0.46,0
0.020034,0.0010428,0.034001,0.0021287,0.010839,0.0014491,0,0,0.060221,-0.022646,0,0.0075355,0,0,0,0.034067,0.002063,0.010839,2.5979,0.015656,0.028642,8.3589e-07,0.38,0.46,0
0.020637,0.0010467,0.034115,0.0021021,0.010865,0.0014985,0,0,0.06045,-0.022784,0,0.0077921,0,0,0,0.034185,0.0020321,0.010865,2.6741,0.015694,0.028772,8.4586e-07,0.39,0.46,0
0.021243,0.0010474,0.03423,0.0020933,0.010897,0.0015446,0,0,0.060666,-0.02289,0,0.0080319,0,0,0,0.034305,0.0020193,0.010897,2.7454,0.01574,0.028888,8.5536e-07,0.4,0.46,0
0.02185,0.0010443,0.034347,0.0021026,0.010935,0.001585,0,0,0.060871,-0.022964,0,0.0082423,0,0,0,0.034424,0.0020249,0.010935,2.8075,0.015795,0.02899,8.644e-07,0.41,0.46,0
0.02246,0.0010368,0.034465,0.0021301,0.010978,0.0016166,0,0,0.061064,-0.023006,0,0.0084063,0,0,0,0.034545,0.0020494,0.010978,2.8551,0.015858,0.029078,8.7298e-07,0.42,0.46,0
0.023072,0.0010238,0.034586,0.0021752,0.011028,0.0016351,0,0,0.06125,-0.023018,0,0.0085025,0,0,0,0.034668,0.0020929,0.011028,2.8808,0.01593,0.029153,8.8117e-07,0.43,0.46,0
0.023685,0.0010043,0.034713,0.0022368,0.011085,0.0016352,0,0,0.061433,-0.023005,0,0.0085029,0,0,0,0.034795,0.0021547,0.011085,2.8751,0.016012,0.029218,8.8911e-07,0.44,0.46,0
0.0243,0.00097666,0.034849,0.0023129,0.011149,0.0016098,0,0,0.061621,-0.022973,0,0.008371,0,0,0,0.034928,0.0022334,0.011149,2.8256,0.016103,0.029274,8.9703e-07,0.45,0.46,0
0.024917,0.00093909,0.034999,0.0024001,0.01122,0.0015493,0,0,0.061826,-0.022931,0,0.0080564,0,0,0,0.035072,0.0023266,0.01122,2.7149,0.016206,0.029329,9.0537e-07,0.46,0.46,0
0.025537,0.00088923,0.035176,0.0024937,0.011301,0.0014397,0,0,0.062075,-0.022899,0,0.0074864,0,0,0,0.035239,0.0024304,0.011301,2.5175,0.016323,0.029395,9.1518e-07,0.47,0.46,0
0.026159,0.00082402,0.035416,0.0025871,0.011401,0.0012608,0,0,0.062439,-0.022916,0,0.0065562,0,0,0,0.035464,0.0025387,0.011401,2.1962,0.016468,0.02951,9.2961e-07,0.48,0.46,0
0.026786,0.00073955,0.035819,0.0026619,0.011544,0.001007,0,0,0.063115,-0.023094,0,0.0052366,0,0,0,0.03585,0.0026313,0.011544,1.738,0.016675,0.02978,9.5798e-07,0.49,0.46,0
0.027421,0.00063299,0.036406,0.0025897,0.011699,0.00072418,0,0,0.06424,-0.023684,0,0.0037658,0,0,0,0.036422,0.0025742,0.011699,1.2262,0.016898,0.030333,1.0082e-06,0.5,0.46,0
0.028071,0.00050282,0.037306,0.0026973,0.012001,0.00022699,0,0,0.065793,-0.02419,0,0.0011803,0,0,0,0.037308,0.0026958,0.012001,0.37577,0.017335,0.031024,1.0813e-06,0.51,0.46,0
0.028737,0.00030906,0.042679,0.00077219,0.013035,0.0010287,0,0,0.053566,-0.021829,0,0.0037773,0,0,0,0.042704,0.00074687,0.013035,1.4248,0.018829,0.037362,1.982e-06,0.52,0.46,0
0.029207,0.00019837,0.03432,0.0006562,0.010493,-0.00077934,0,0,0.042729,-0.017433,0,-0.0033223,0,0,0,0.034344,0.00063278,0.010493,-1.5119,0.015156,0.030022,1.0557e-06,0.53,0.46,0
0.029549,0.00019339,0.037823,-0.00036502,0.011237,-0.00024065,0,0,0.034562,-0.015083,0,-0.00062568,0,0,0,0.037825,-0.00036654,0.011237,-0.36104,0.016232,0.033912,1.2411e-06,0.54,0.46,0
0.029899,0.0002007,0.0377,-0.00084985,0.011055,-8.9789e-05,0,0,0.034638,-0.015476,0,-0.00023345,0,0,0,0.0377,-0.00085005,0.011055,-0.13345,0.015968,0.034189,1.2451e-06,0.55,0.46,0
0.030242,0.00019734,0.037188,-0.00058608,0.010981,-0.00010188,0,0,0.034069,-0.015037,0,-0.00026489,0,0,0,0.037188,-0.00058635,0.010981,-0.15453,0.015861,0.033523,1.1869e-06,0.56,0.46,0
0.03058,0.00019228,0.036865,-0.00065966,0.010862,-2.536e-05,0,0,0.033805,-0.014978,0,-6.5936e-05,0,0,0,0.036865,-0.00065968,0.010862,-0.038722,0.015689,0.033294,1.1588e-06,0.57,0.46,0
0.030918,0.00018815,0.036849,-0.00064412,0.010861,4.3442e-05,0,0,0.033783,-0.014957,0,0.00011295,0,0,0,0.036849,-0.00064417,0.010861,0.066387,0.015689,0.033267,1.1567e-06,0.58,0.46,0
0.031256,0.00018448,0.036856,-0.00064964,0.010862,7.9057e-05,0,0,0.033792,-0.014965,0,0.00020555,0,0,0,0.036856,-0.0006498,0.010862,0.12077,0.015689,0.033278,1.1576e-06,0.59,0.46,0
0.031594,0.00018126,0.036874,-0.00066312,0.010863,0.00010234,0,0,0.033814,-0.014984,0,0.00026608,0,0,0,0.036874,-0.0006634,0.010863,0.15621,0.015691,0.033305,1.1597e-06,0.6,0.46,0
0.031932,0.00017831,0.036889,-0.0006851,0.010861,0.00011211,0,0,0.033836,-0.01501,0,0.00029149,0,0,0,0.036889,-0.00068543,0.010861,0.17095,0.015688,0.033336,1.1619e-06,0.61,0.46,0
0.03227,0.0001755,0.036902,-0.00070054,0.01086,0.00011284,0,0,0.033854,-0.015029,0,0.00029337,0,0,0,0.036902,-0.00070088,0.01086,0.17193,0.015687,0.03336,1.1636e-06,0.62,0.46,0
0.032609,0.00017272,0.03691,-0.00070573,0.010861,0.0001108,0,0,0.033863,-0.015037,0,0.00028809,0,0,0,0.03691,-0.00070606,0.010861,0.16877,0.015689,0.033372,1.1645e-06,0.63,0.46,0
0.032948,0.00016999,0.036914,-0.00070304,0.010863,0.00011161,0,0,0.033866,-0.015036,0,0.00029019,0,0,0,0.036914,-0.00070337,0.010863,0.17,0.015692,0.033373,1.1648e-06,0.64,0.46,0
0.033286,0.00016739,0.036916,-0.00069681,0.010866,0.00011855,0,0,0.033865,-0.015031,0,0.00030823,0,0,0,0.036916,-0.00069718,0.010866,0.18059,0.015695,0.03337,1.1648e-06,0.65,0.46,0
0.033625,0.00016505,0.036918,-0.00069158,0.010868,0.00013285,0,0,0.033865,-0.015027,0,0.0003454,0,0,0,0.036919,-0.00069205,0.010868,0.20238,0.015698,0.033368,1.1648e-06,0.66,0.46,0
0.033964,0.00016312,0.036924,-0.00069188,0.01087,0.00015434,0,0,0.03387,-0.01503,0,0.00040127,0,0,0,0.036924,-0.00069251,0.01087,0.23508,0.0157,0.033373,1.1654e-06,0.67,0.46,0
0.034302,0.0001617,0.036934,-0.0007021,0.01087,0.00018135,0,0,0.033883,-0.015043,0,0.00047152,0,0,0,0.036935,-0.00070297,0.01087,0.27608,0.0157,0.033391,1.1667e-06,0.68,0.46,0
0.034641,0.00016087,0.03695,-0.00072498,0.010868,0.00021094,0,0,0.033907,-0.01507,0,0.00054845,0,0,0,0.036951,-0.00072616,0.010868,0.32079,0.015697,0.033424,1.169e-06,0.69,0.46,0
0.03498,0.00016064,0.036972,-0.00076053,0.010863,0.00023962,0,0,0.033941,-0.015111,0,0.00062302,0,0,0,0.036973,-0.00076205,0.010863,0.36384,0.015692,0.033473,1.1722e-06,0.7,0.46,0
0.03532,0.00016096,0.036999,-0.00080601,0.010858,0.00026454,0,0,0.033984,-0.015163,0,0.00068782,0,0,0,0.037001,-0.00080786,0.010858,0.4009,0.015684,0.033534,1.1763e-06,0.71,0.46,0
0.03566,0.0001617,0.037031,-0.00085713,0.010852,0.00028424,0,0,0.034032,-0.015222,0,0.00073902,0,0,0,0.037033,-0.00085926,0.010852,0.42981,0.015675,0.033603,1.1809e-06,0.72,0.46,0
0.036001,0.00016277,0.037063,-0.00090951,0.010846,0.0002988,0,0,0.034082,-0.015282,0,0.00077689,0,0,0,0.037066,-0.00091186,0.010846,0.45082,0.015667,0.033675,1.1857e-06,0.73,0.46,0
0.036342,0.00016405,0.037095,-0.0009588,0.010841,0.0003098,0,0,0.034131,-0.01534,0,0.00080548,0,0,0,0.037098,-0.00096133,0.010841,0.46641,0.015659,0.033743,1.1904e-06,0.74,0.46,0
0.036683,0.00016548,0.037125,-0.0010009,0.010837,0.00032096,0,0,0.034174,-0.01539,0,0.00083449,0,0,0,0.037127,-0.0010036,0.010837,0.48229,0.015654,0.033804,1.1946e-06,0.75,0.46,0
0.037025,0.00016709,0.037152,-0.0010337,0.010836,0.00033833,0,0,0.034212,-0.01543,0,0.00087966,0,0,0,0.037155,-0.0010367,0.010836,0.50759,0.015651,0.033855,1.1983e-06,0.76,0.46,0
0.037368,0.00016903,0.03718,-0.0010611,0.010836,0.00036866,0,0,0.034248,-0.015466,0,0.0009585,0,0,0,0.037184,-0.0010647,0.010836,0.55227,0.015652,0.033903,1.2019e-06,0.77,0.46,0
0.03771,0.00017146,0.037209,-0.0010979,0.010833,0.00041671,0,0,0.034288,-0.015511,0,0.0010834,0,0,0,0.037213,-0.0011024,0.010833,0.62317,0.015648,0.033959,1.2059e-06,0.78,0.46,0
0.038053,0.00017461,0.037251,-0.0011426,0.010833,0.00048179,0,0,0.034344,-0.015568,0,0.0012527,0,0,0,0.037257,-0.0011486,0.010833,0.71883,0.015647,0.034036,1.2116e-06,0.79,0.46,0
0.038397,0.0001785,0.037324,-0.001205,0.010836,0.00058475,0,0,0.034435,-0.015653,0,0.0015203,0,0,0,0.037333,-0.0012139,0.010836,0.8693,0.015652,0.034155,1.221e-06,0.8,0.46,0
0.038742,0.00018363,0.037713,-0.0011757,0.010961,0.00069543,0,0,0.034777,-0.015778,0,0.0018081,0,0,0,0.037725,-0.0011882,0.010961,1.0242,0.015833,0.034483,1.2586e-06,0.81,0.46,0
0.039093,0.00018709,0.038268,-0.0014913,0.011033,0.00071795,0,0,0.035406,-0.016282,0,0.0018667,0,0,0,0.038281,-0.0015042,0.011033,1.0342,0.015937,0.035232,1.325e-06,0.82,0.46,0
0.03945,0.00018032,0.03852,-0.00091584,0.011281,0.00090422,0,0,0.035411,-0.015856,0,0.002351,0,0,0,0.038541,-0.00093656,0.011281,1.3128,0.016295,0.035006,1.3327e-06,0.83,0.46,0
0.039801,0.00018642,0.035002,0.00010739,0.010533,0.0014171,0,0,0.043882,-0.018488,0,0.0056486,0,0,0,0.035066,4.3862e-05,0.010533,2.5149,0.015214,0.031133,1.1439e-06,0.84,0.46,0
0.040284,0.00030678,0.043353,-0.0002417,0.012933,-0.00028847,0,0,0.054948,-0.023467,0,-0.0010299,0,0,0,0.043355,-0.00024361,0.012933,-0.37716,0.018682,0.038731,2.1288e-06,0.85,0.46,0
0.040967,0.00052264,0.037934,0.0020594,0.011998,0.00045995,0,0,0.067433,-0.02584,0,0.0023917,0,0,0,0.03794,0.0020535,0.011998,0.73443,0.01733,0.032091,1.1641e-06,0.86,0.46,0
0.041632,0.00066889,0.037085,0.0019394,0.011707,-5.8447e-05,0,0,0.065983,-0.025397,0,-0.00030392,0,0,0,0.037086,0.0019393,0.011707,-0.09528,0.016911,0.031422,1.0897e-06,0.87,0.46,0
0.042286,0.00078944,0.03656,0.0019867,0.011564,-0.00032755,0,0,0.064989,-0.024901,0,-0.0017033,0,0,0,0.036563,0.0019836,0.011564,-0.54277,0.016703,0.030923,1.0417e-06,0.88,0.46,0
0.042932,0.00088623,0.036218,0.00186,0.011423,-0.0005594,0,0,0.064467,-0.024865,0,-0.0029089,0,0,0,0.036227,0.0018509,0.011423,-0.93252,0.016501,0.03073,1.0173e-06,0.89,0.46,0
0.043575,0.00096253,0.036048,0.0017009,0.011325,-0.0007037,0,0,0.06428,-0.025022,0,-0.0036593,0,0,0,0.036062,0.0016865,0.011325,-1.1732,0.016358,0.030713,1.0089e-06,0.9,0.46,0
0.044218,0.0010227,0.035945,0.0015384,0.011245,-0.00076705,0,0,0.06422,-0.025237,0,-0.0039887,0,0,0,0.035962,0.0015213,0.011245,-1.2765,0.016243,0.030755,1.006e-06,0.91,0.46,0
0.04486,0.0010703,0.035871,0.0013833,0.011176,-0.00077254,0,0,0.064207,-0.025462,0,-0.0040172,0,0,0,0.035889,0.001366,0.011176,-1.2826,0.016144,0.030812,1.005e-06,0.92,0.46,0
0.045502,0.0011077,0.035814,0.0012418,0.011117,-0.00073712,0,0,0.064212,-0.025675,0,-0.0038331,0,0,0,0.035829,0.0012261,0.011117,-1.2209,0.016057,0.03087,1.0046e-06,0.93,0.46,0
0.046144,0.001137,0.035767,0.0011168,0.011065,-0.0006724,0,0,0.064225,-0.025866,0,-0.0034965,0,0,0,0.03578,0.0011037,0.011065,-1.1113,0.015983,0.030923,1.0044e-06,0.94,0.46,0
0.046786,0.0011597,0.03573,0.0010099,0.011022,-0.0005864,0,0,0.064241,-0.026031,0,-0.0030493,0,0,0,0.03574,0.001,0.011022,-0.96733,0.015921,0.03097,1.0044e-06,0.95,0.46,0
0.047429,0.0011769,0.035701,0.00092214,0.010987,-0.00048493,0,0,0.064256,-0.026168,0,-0.0025216,0,0,0,0.035708,0.00091538,0.010987,-0.79869,0.01587,0.031008,1.0044e-06,0.96,0.46,0
0.048072,0.0011895,0.035679,0.00085371,0.01096,-0.00037238,0,0,0.064269,-0.026276,0,-0.0019364,0,0,0,0.035682,0.00084972,0.01096,-0.61257,0.015831,0.031038,1.0044e-06,0.97,0.46,0
0.048714,0.001198,0.035663,0.00080481,0.01094,-0.0002522,0,0,0.064279,-0.026352,0,-0.0013115,0,0,0,0.035665,0.00080298,0.01094,-0.41451,0.015803,0.03106,1.0044e-06,0.98,0.46,0
0.049357,0.001203,0.035654,0.00077547,0.010929,-0.00012725,0,0,0.064285,-0.026399,0,-0.00066171,0,0,0,0.035654,0.00077501,0.010929,-0.20904,0.015786,0.031073,1.0044e-06,0.99,0.46,0
0.05,0.0012046,0.035651,0.0007657,0.010925,3.1362e-05,0,0,0.064287,-0.026414,0,0.00016308,0,0,0,0.035651,0.00076567,0.010925,0.051509,0.01578,0.031077,1.0044e-06,1,0.46,0
0,0,0.028858,0.012368,0.012368,0.00068619,0,0,0.042874,2.1684e-19,0,0.0035682,0,0,0,0.028886,0.012339,0.012368,2.3788,0.017864,0.016533,2.3209e-07,0,0.47,0
0.00042874,3.5682e-05,0.028813,0.011846,0.012198,0.00068512,0,0,0.043199,-0.00091349,0,0.0035626,0,0,0,0.02884,0.011819,0.012198,2.3087,0.017619,0.016835,2.4465e-07,0.01,0.47,0
0.00086398,7.0286e-05,0.028987,0.011426,0.012124,0.00067506,0,0,0.043845,-0.0018144,0,0.0035103,0,0,0,0.029013,0.0114,0.012124,2.1982,0.017513,0.017263,2.6264e-07,0.02,0.47,0
0.0013056,0.00010389,0.029161,0.011012,0.012052,0.00066696,0,0,0.044483,-0.002703,0,0.0034682,0,0,0,0.029185,0.010988,0.012052,2.1019,0.017408,0.017689,2.8083e-07,0.03,0.47,0
0.0017536,0.00013655,0.029333,0.010605,0.011981,0.00066058,0,0,0.045114,-0.0035792,0,0.003435,0,0,0,0.029356,0.010581,0.011981,2.0176,0.017306,0.018115,2.9919e-07,0.04,0.47,0
0.0022079,0.00016832,0.029504,0.010203,0.011912,0.00065573,0,0,0.045738,-0.004443,0,0.0034098,0,0,0,0.029526,0.010181,0.011912,1.9436,0.017206,0.01854,3.1771e-07,0.05,0.47,0
0.0026684,0.00019926,0.029673,0.0098082,0.011844,0.00065224,0,0,0.046355,-0.0052941,0,0.0033917,0,0,0,0.029694,0.0097868,0.011844,1.8785,0.017109,0.018963,3.3635e-07,0.06,0.47,0
0.003135,0.00022939,0.029841,0.0094197,0.011778,0.00065,0,0,0.046963,-0.0061322,0,0.00338,0,0,0,0.029862,0.009399,0.011778,1.8212,0.017013,0.019383,3.5508e-07,0.07,0.47,0
0.0036077,0.00025876,0.030007,0.0090379,0.011714,0.00064888,0,0,0.047564,-0.006957,0,0.0033742,0,0,0,0.030028,0.0090178,0.011714,1.7707,0.01692,0.0198,3.7388e-07,0.08,0.47,0
0.0040863,0.00028739,0.030172,0.0086629,0.011651,0.00064884,0,0,0.048157,-0.0077679,0,0.003374,0,0,0,0.030192,0.0086434,0.011651,1.7262,0.016829,0.020213,3.9271e-07,0.09,0.47,0
0.0045708,0.0003153,0.030336,0.0082952,0.011589,0.0006498,0,0,0.048741,-0.0085646,0,0.003379,0,0,0,0.030355,0.0082761,0.011589,1.6872,0.01674,0.020623,4.1155e-07,0.1,0.47,0
0.0050611,0.00034251,0.030497,0.0079349,0.01153,0.00065175,0,0,0.049316,-0.0093463,0,0.0033891,0,0,0,0.030516,0.0079161,0.01153,1.6533,0.016654,0.021027,4.3035e-07,0.11,0.47,0
0.0055571,0.00036904,0.030657,0.0075823,0.011472,0.00065468,0,0,0.049881,-0.010113,0,0.0034043,0,0,0,0.030675,0.0075637,0.011472,1.6239,0.01657,0.021427,4.491e-07,0.12,0.47,0
0.0060587,0.0003949,0.030815,0.0072377,0.011416,0.00065861,0,0,0.050437,-0.010863,0,0.0034248,0,0,0,0.030833,0.0072193,0.011416,1.5989,0.016489,0.02182,4.6776e-07,0.13,0.47,0
0.0065659,0.00042009,0.030971,0.0069014,0.011362,0.00066358,0,0,0.050983,-0.011596,0,0.0034506,0,0,0,0.030989,0.0068831,0.011362,1.578,0.016411,0.022208,4.863e-07,0.14,0.47,0
0.0070784,0.00044464,0.031124,0.0065737,0.011309,0.00066963,0,0,0.051519,-0.012313,0,0.0034821,0,0,0,0.031143,0.0065554,0.011309,1.5612,0.016336,0.022589,5.047e-07,0.15,0.47,0
0.0075962,0.00046853,0.031276,0.0062548,0.011259,0.00067683,0,0,0.052044,-0.013012,0,0.0035195,0,0,0,0.031294,0.0062366,0.011259,1.5484,0.016263,0.022962,5.2292e-07,0.16,0.47,0
0.0081193,0.00049179,0.031426,0.0059452,0.011211,0.00068527,0,0,0.052558,-0.013692,0,0.0035634,0,0,0,0.031444,0.0059268,0.011211,1.5394,0.016194,0.023328,5.4096e-07,0.17,0.47,0
0.0086474,0.00051441,0.031573,0.0056451,0.011166,0.00069503,0,0,0.05306,-0.014353,0,0.0036142,0,0,0,0.031592,0.0056264,0.011166,1.5344,0.016128,0.023687,5.5877e-07,0.18,0.47,0
0.0091805,0.0005364,0.031719,0.0053547,0.011122,0.00070623,0,0,0.053552,-0.014995,0,0.0036724,0,0,0,0.031738,0.0053358,0.011122,1.5333,0.016065,0.024037,5.7635e-07,0.19,0.47,0
0.0097184,0.00055775,0.031863,0.0050743,0.011081,0.00071897,0,0,0.054032,-0.015618,0,0.0037386,0,0,0,0.031882,0.005055,0.011081,1.5363,0.016006,0.024379,5.9367e-07,0.2,0.47,0
0.010261,0.00057848,0.032004,0.0048042,0.011043,0.00073338,0,0,0.0545,-0.01622,0,0.0038136,0,0,0,0.032024,0.0047845,0.011043,1.5433,0.01595,0.024712,6.1073e-07,0.21,0.47,0
0.010808,0.00059857,0.032144,0.0045447,0.011007,0.00074959,0,0,0.054957,-0.016801,0,0.0038979,0,0,0,0.032164,0.0045244,0.011007,1.5546,0.015898,0.025036,6.2751e-07,0.22,0.47,0
0.01136,0.00061804,0.032282,0.004296,0.010973,0.00076773,0,0,0.055402,-0.017361,0,0.0039922,0,0,0,0.032303,0.004275,0.010973,1.5702,0.01585,0.025351,6.44e-07,0.23,0.47,0
0.011917,0.00063686,0.032418,0.0040584,0.010943,0.00078795,0,0,0.055836,-0.0179,0,0.0040973,0,0,0,0.03244,0.0040365,0.010943,1.5903,0.015807,0.025657,6.602e-07,0.24,0.47,0
0.012477,0.00065505,0.032553,0.0038321,0.010916,0.00081036,0,0,0.056258,-0.018417,0,0.0042139,0,0,0,0.032576,0.0038093,0.010916,1.6149,0.015767,0.025954,6.761e-07,0.25,0.47,0
0.013042,0.00067258,0.032687,0.0036174,0.010891,0.00083511,0,0,0.056668,-0.018912,0,0.0043426,0,0,0,0.032711,0.0035934,0.010891,1.6442,0.015732,0.026241,6.9171e-07,0.26,0.47,0
0.01361,0.00068943,0.032819,0.0034146,0.01087,0.00086231,0,0,0.057067,-0.019384,0,0.004484,0,0,0,0.032844,0.0033893,0.01087,1.6783,0.015701,0.026518,7.0701e-07,0.27,0.47,0
0.014183,0.0007056,0.032951,0.0032239,0.010852,0.00089209,0,0,0.057455,-0.019834,0,0.0046389,0,0,0,0.032977,0.0031971,0.010852,1.7174,0.015676,0.026786,7.2202e-07,0.28,0.47,0
0.014759,0.00072105,0.033081,0.0030457,0.010838,0.00092453,0,0,0.057832,-0.02026,0,0.0048076,0,0,0,0.03311,0.0030172,0.010838,1.7614,0.015655,0.027044,7.3673e-07,0.29,0.47,0
0.01534,0.00073573,0.033211,0.0028803,0.010828,0.0009597,0,0,0.058198,-0.020663,0,0.0049904,0,0,0,0.033242,0.00285,0.010828,1.8105,0.01564,0.027292,7.5116e-07,0.3,0.47,0
0.015923,0.0007496,0.033341,0.0027281,0.010821,0.00099763,0,0,0.058553,-0.021041,0,0.0051877,0,0,0,0.033374,0.0026956,0.010821,1.8645,0.01563,0.02753,7.6529e-07,0.31,0.47,0
0.016511,0.00076258,0.033471,0.0025896,0.010818,0.0010383,0,0,0.058897,-0.021394,0,0.005399,0,0,0,0.033506,0.0025548,0.010818,1.9235,0.015626,0.027758,7.7915e-07,0.32,0.47,0
0.017101,0.0007746,0.033601,0.0024653,0.01082,0.0010816,0,0,0.059231,-0.021722,0,0.0056241,0,0,0,0.033639,0.0024278,0.01082,1.9871,0.015629,0.027975,7.9271e-07,0.33,0.47,0
0.017695,0.00078553,0.033731,0.0023557,0.010826,0.0011273,0,0,0.059554,-0.022023,0,0.0058618,0,0,0,0.033772,0.0023152,0.010826,2.055,0.015638,0.028182,8.0599e-07,0.34,0.47,0
0.018292,0.00079523,0.033862,0.0022614,0.010837,0.0011751,0,0,0.059865,-0.022297,0,0.0061105,0,0,0,0.033906,0.0022178,0.010837,2.1267,0.015654,0.028378,8.1897e-07,0.35,0.47,0
0.018893,0.00080352,0.033994,0.0021834,0.010853,0.0012245,0,0,0.060166,-0.022541,0,0.0063674,0,0,0,0.034041,0.0021363,0.010853,2.2012,0.015677,0.028562,8.3164e-07,0.36,0.47,0
0.019496,0.00081016,0.034126,0.0021222,0.010875,0.0012748,0,0,0.060455,-0.022756,0,0.0066289,0,0,0,0.034177,0.0020715,0.010875,2.2774,0.015708,0.028734,8.4399e-07,0.37,0.47,0
0.020102,0.00081486,0.03426,0.002079,0.010902,0.0013249,0,0,0.060732,-0.022939,0,0.0068895,0,0,0,0.034315,0.0020245,0.010902,2.3535,0.015747,0.028893,8.5598e-07,0.38,0.47,0
0.02071,0.00081724,0.034396,0.0020547,0.010935,0.0013734,0,0,0.060997,-0.023089,0,0.0071416,0,0,0,0.034454,0.0019964,0.010935,2.4273,0.015795,0.029039,8.6759e-07,0.39,0.47,0
0.021322,0.00081683,0.034533,0.0020503,0.010975,0.0014182,0,0,0.06125,-0.023204,0,0.0073748,0,0,0,0.034594,0.0019885,0.010975,2.4953,0.015853,0.02917,8.7878e-07,0.4,0.47,0
0.021935,0.00081303,0.034672,0.0020669,0.011022,0.0014568,0,0,0.061491,-0.023282,0,0.0075753,0,0,0,0.034737,0.002002,0.011022,2.5532,0.01592,0.029286,8.8952e-07,0.41,0.47,0
0.022551,0.00080509,0.034815,0.0021055,0.011076,0.0014854,0,0,0.06172,-0.023323,0,0.0077243,0,0,0,0.034882,0.0020382,0.011076,2.5949,0.015999,0.029386,8.998e-07,0.42,0.47,0
0.02317,0.00079205,0.034962,0.0021669,0.011139,0.0014995,0,0,0.061941,-0.023327,0,0.0077972,0,0,0,0.03503,0.0020984,0.011139,2.6124,0.016089,0.029471,9.0962e-07,0.43,0.47,0
0.02379,0.0007727,0.035116,0.0022511,0.01121,0.0014927,0,0,0.062155,-0.023293,0,0.0077621,0,0,0,0.035183,0.0021834,0.01121,2.5953,0.016192,0.02954,9.1904e-07,0.44,0.47,0
0.024413,0.00074554,0.035278,0.0023578,0.011291,0.0014572,0,0,0.062368,-0.023226,0,0.0075777,0,0,0,0.035343,0.0022934,0.011291,2.5296,0.016309,0.029595,9.282e-07,0.45,0.47,0
0.025038,0.00070863,0.035452,0.0024859,0.011381,0.0013823,0,0,0.062585,-0.023129,0,0.0071877,0,0,0,0.03551,0.002428,0.011381,2.3967,0.01644,0.029638,9.372e-07,0.46,0.47,0
0.025665,0.00065951,0.03564,0.0026348,0.011482,0.0012507,0,0,0.06281,-0.023004,0,0.0065036,0,0,0,0.035687,0.0025874,0.011482,2.167,0.016586,0.02967,9.4614e-07,0.47,0.47,0
0.026294,0.00059479,0.035848,0.0028056,0.011596,0.0010294,0,0,0.063055,-0.022855,0,0.0053526,0,0,0,0.03588,0.0027736,0.011596,1.7826,0.01675,0.029695,9.5542e-07,0.48,0.47,0
0.026926,0.00050949,0.036162,0.0030197,0.011754,0.00064358,0,0,0.063459,-0.022711,0,0.0033466,0,0,0,0.036174,0.0030072,0.011754,1.112,0.016979,0.029773,9.7147e-07,0.49,0.47,0
0.027563,0.00039558,0.036975,0.0032898,0.012079,6.9666e-05,0,0,0.064728,-0.022853,0,0.00036226,0,0,0,0.036975,0.0032897,0.012079,0.1185,0.017448,0.030264,1.0291e-06,0.5,0.47,0
0.02822,0.00025575,0.037355,0.0027828,0.012041,-0.00056909,0,0,0.065815,-0.024072,0,-0.0029593,0,0,0,0.037364,0.0027735,0.012041,-0.9428,0.017393,0.031013,1.0834e-06,0.51,0.47,0
0.028879,0.00010797,0.036566,-0.00013073,0.010931,0.00013658,0,0,0.049803,-0.019173,0,-0.00097325,0,0,0,0.036603,-0.00016726,0.010931,0.017523,0.015789,0.032758,1.0712e-06,0.52,0.47,0
0.029216,4.6992e-05,0.037532,0.00019808,0.011319,-0.00036984,0,0,0.034077,-0.014457,0,-0.00096158,0,0,0,0.037536,0.00019441,0.011319,-0.56751,0.01635,0.033207,1.1939e-06,0.53,0.47,0
0.029561,4.514e-05,0.037628,-9.0733e-05,0.011261,0.00049152,0,0,0.034277,-0.014758,0,0.0012779,0,0,0,0.037635,-9.7137e-05,0.011261,0.74645,0.016266,0.033528,1.2134e-06,0.54,0.47,0
0.029902,4.5499e-05,0.037165,-0.00082535,0.010902,0.00024756,0,0,0.034142,-0.015245,0,0.00064365,0,0,0,0.037166,-0.00082696,0.010902,0.37334,0.015747,0.033696,1.1926e-06,0.55,0.47,0
0.030244,4.5181e-05,0.037146,-0.00075903,0.010916,8.7005e-05,0,0,0.034099,-0.015178,0,0.00022621,0,0,0,0.037146,-0.00075923,0.010916,0.13151,0.015768,0.033624,1.1886e-06,0.56,0.47,0
0.030584,4.1993e-05,0.037011,-0.00068037,0.010899,3.895e-05,0,0,0.033946,-0.015054,0,0.00010127,0,0,0,0.037012,-0.00068041,0.010899,0.059209,0.015744,0.033441,1.1732e-06,0.57,0.47,0
0.030923,3.8235e-05,0.036916,-0.0006729,0.010873,5.1589e-05,0,0,0.033856,-0.01501,0,0.00013413,0,0,0,0.036916,-0.00067298,0.010873,0.078634,0.015706,0.033351,1.164e-06,0.58,0.47,0
0.031261,3.4657e-05,0.036891,-0.00066882,0.010867,7.3841e-05,0,0,0.033831,-0.014996,0,0.00019199,0,0,0,0.036891,-0.00066897,0.010867,0.11264,0.015696,0.033325,1.1615e-06,0.59,0.47,0
0.031599,3.132e-05,0.036886,-0.00067627,0.010863,9.0146e-05,0,0,0.03383,-0.015001,0,0.00023438,0,0,0,0.036886,-0.00067649,0.010863,0.1375,0.015691,0.033327,1.1613e-06,0.6,0.47,0
0.031938,2.8205e-05,0.036891,-0.00068767,0.010861,9.9883e-05,0,0,0.033839,-0.015013,0,0.0002597,0,0,0,0.036891,-0.00068793,0.010861,0.15229,0.015688,0.03334,1.1621e-06,0.61,0.47,0
0.032276,2.5239e-05,0.036898,-0.00069834,0.01086,0.00010405,0,0,0.033849,-0.015026,0,0.00027054,0,0,0,0.036898,-0.00069863,0.01086,0.15857,0.015686,0.033355,1.1631e-06,0.62,0.47,0
0.032615,2.2378e-05,0.036904,-0.00070456,0.01086,0.00010602,0,0,0.033857,-0.015034,0,0.00027566,0,0,0,0.036904,-0.00070486,0.01086,0.16152,0.015686,0.033365,1.1639e-06,0.63,0.47,0
0.032953,1.9625e-05,0.036908,-0.00070657,0.010861,0.00010933,0,0,0.033862,-0.015037,0,0.00028426,0,0,0,0.036909,-0.00070688,0.010861,0.16653,0.015688,0.033371,1.1644e-06,0.64,0.47,0
0.033292,1.7036e-05,0.036913,-0.00070674,0.010862,0.00011656,0,0,0.033866,-0.015039,0,0.00030305,0,0,0,0.036913,-0.0007071,0.010862,0.17752,0.015689,0.033375,1.1648e-06,0.65,0.47,0
0.033631,1.4695e-05,0.036918,-0.00070831,0.010863,0.00012896,0,0,0.033871,-0.015043,0,0.0003353,0,0,0,0.036918,-0.00070875,0.010863,0.19637,0.015691,0.033381,1.1653e-06,0.66,0.47,0
0.033969,1.2697e-05,0.036926,-0.0007147,0.010863,0.00014647,0,0,0.033881,-0.015051,0,0.00038083,0,0,0,0.036926,-0.00071527,0.010863,0.22296,0.015691,0.033393,1.1663e-06,0.67,0.47,0
0.034308,1.1122e-05,0.036938,-0.00072882,0.010863,0.0001679,0,0,0.033898,-0.015069,0,0.00043653,0,0,0,0.036939,-0.00072957,0.010863,0.25539,0.015691,0.033416,1.1679e-06,0.68,0.47,0
0.034647,1.0019e-05,0.036955,-0.00075245,0.010861,0.00019118,0,0,0.033923,-0.015097,0,0.00049708,0,0,0,0.036956,-0.00075342,0.010861,0.29049,0.015688,0.03345,1.1703e-06,0.69,0.47,0
0.034987,9.3924e-06,0.036978,-0.0007856,0.010858,0.00021399,0,0,0.033956,-0.015136,0,0.00055638,0,0,0,0.036979,-0.00078682,0.010858,0.32466,0.015683,0.033497,1.1735e-06,0.7,0.47,0
0.035326,9.2068e-06,0.037005,-0.00082665,0.010854,0.00023435,0,0,0.033997,-0.015184,0,0.00060931,0,0,0,0.037006,-0.0008281,0.010854,0.3549,0.015677,0.033555,1.1775e-06,0.71,0.47,0
0.035666,9.3949e-06,0.037036,-0.00087282,0.010849,0.0002512,0,0,0.034043,-0.015238,0,0.00065311,0,0,0,0.037038,-0.00087449,0.010849,0.37964,0.015671,0.03362,1.1819e-06,0.72,0.47,0
0.036007,9.8791e-06,0.037069,-0.00092091,0.010844,0.00026468,0,0,0.034092,-0.015295,0,0.00068816,0,0,0,0.037071,-0.00092276,0.010844,0.39915,0.015664,0.033689,1.1866e-06,0.73,0.47,0
0.036348,1.0594e-05,0.037104,-0.00096795,0.010841,0.00027631,0,0,0.034142,-0.015351,0,0.00071842,0,0,0,0.037106,-0.00096995,0.010841,0.41581,0.015659,0.033757,1.1914e-06,0.74,0.47,0
0.03669,1.1512e-05,0.037139,-0.0010119,0.010838,0.00028903,0,0,0.034191,-0.015405,0,0.00075149,0,0,0,0.037141,-0.0010141,0.010838,0.43405,0.015655,0.033824,1.1962e-06,0.75,0.47,0
0.037032,1.2657e-05,0.037177,-0.0010527,0.010837,0.00030679,0,0,0.034242,-0.015457,0,0.00079766,0,0,0,0.037179,-0.0010552,0.010837,0.45976,0.015654,0.033891,1.2012e-06,0.76,0.47,0
0.037375,1.411e-05,0.037221,-0.0010945,0.010838,0.00033345,0,0,0.034298,-0.015512,0,0.00086697,0,0,0,0.037224,-0.0010974,0.010838,0.49859,0.015655,0.033964,1.2067e-06,0.77,0.47,0
0.037718,1.5985e-05,0.037278,-0.0011416,0.010841,0.00037061,0,0,0.034368,-0.015577,0,0.00096358,0,0,0,0.037282,-0.0011451,0.010841,0.55263,0.015659,0.034054,1.2139e-06,0.78,0.47,0
0.038062,1.8348e-05,0.037361,-0.0012006,0.010848,0.00041821,0,0,0.034467,-0.015663,0,0.0010874,0,0,0,0.037366,-0.0012051,0.010848,0.6213,0.015669,0.034177,1.2239e-06,0.79,0.47,0
0.038407,2.1182e-05,0.037517,-0.001262,0.010877,0.0004604,0,0,0.034632,-0.01578,0,0.001197,0,0,0,0.037522,-0.0012674,0.010877,0.68011,0.01571,0.034367,1.2412e-06,0.8,0.47,0
0.038755,2.3741e-05,0.037707,-0.0013923,0.010894,0.00044535,0,0,0.034856,-0.015973,0,0.0011579,0,0,0,0.037712,-0.0013973,0.010894,0.6525,0.015737,0.03464,1.2641e-06,0.81,0.47,0
0.039105,2.379e-05,0.03778,-0.0014839,0.010889,0.00031953,0,0,0.034958,-0.016084,0,0.00083077,0,0,0,0.037782,-0.0014865,0.010889,0.46624,0.015728,0.034774,1.2739e-06,0.82,0.47,0
0.039454,2.3589e-05,0.03827,-0.00077112,0.01125,0.00012557,0,0,0.035126,-0.015627,0,0.00032648,0,0,0,0.03827,-0.00077152,0.01125,0.18428,0.01625,0.034633,1.2994e-06,0.83,0.47,0
0.039807,2.658e-05,0.038259,-0.00046784,0.011337,0.0010561,0,0,0.034998,-0.015347,0,0.0027458,0,0,0,0.038288,-0.00049662,0.011337,1.5609,0.016376,0.034428,1.2916e-06,0.84,0.47,0
0.040154,9.1007e-05,0.03727,-0.00097368,0.010889,0.00052697,0,0,0.051248,-0.020562,0,0.00354,0,0,0,0.037316,-0.001019,0.010889,0.98776,0.015728,0.03408,1.1564e-06,0.85,0.47,0
0.040832,0.00025822,0.038157,0.0021465,0.012091,0.0012146,0,0,0.067771,-0.025856,0,0.0063158,0,0,0,0.038198,0.0021055,0.012091,1.9296,0.017465,0.03228,1.1865e-06,0.86,0.47,0
0.041509,0.0004137,0.037822,0.0026568,0.012143,0.00055744,0,0,0.066763,-0.024665,0,0.0028987,0,0,0,0.03783,0.002648,0.012143,0.90797,0.017541,0.031526,1.1307e-06,0.87,0.47,0
0.042167,0.00054065,0.037041,0.0023435,0.011815,-2.4041e-05,0,0,0.065586,-0.024627,0,-0.00012501,0,0,0,0.037041,0.0023435,0.011815,-0.039699,0.017067,0.031064,1.0708e-06,0.88,0.47,0
0.042821,0.00063672,0.036785,0.0020532,0.011652,-0.00039953,0,0,0.065348,-0.024956,0,-0.0020776,0,0,0,0.03679,0.0020486,0.011652,-0.65898,0.01683,0.031073,1.0593e-06,0.89,0.47,0
0.043474,0.00071065,0.036652,0.0018004,0.011536,-0.00059056,0,0,0.065302,-0.025312,0,-0.0030709,0,0,0,0.036662,0.0017904,0.011536,-0.97051,0.016663,0.031163,1.0573e-06,0.9,0.47,0
0.044127,0.00076816,0.036543,0.0015723,0.011435,-0.00067679,0,0,0.065282,-0.025642,0,-0.0035193,0,0,0,0.036556,0.0015592,0.011435,-1.1083,0.016517,0.031252,1.0562e-06,0.91,0.47,0
0.04478,0.00081311,0.036449,0.0013707,0.011346,-0.00069799,0,0,0.065268,-0.025936,0,-0.0036295,0,0,0,0.036463,0.0013568,0.011346,-1.1395,0.016389,0.03133,1.055e-06,0.92,0.47,0
0.045433,0.00084822,0.036369,0.0011953,0.011269,-0.00067538,0,0,0.065259,-0.026192,0,-0.003512,0,0,0,0.036382,0.0011823,0.011269,-1.0996,0.016278,0.031396,1.0539e-06,0.93,0.47,0
0.046085,0.00087549,0.036301,0.0010454,0.011204,-0.00062175,0,0,0.065253,-0.026412,0,-0.0032331,0,0,0,0.036312,0.0010344,0.011204,-1.01,0.016184,0.031451,1.0528e-06,0.94,0.47,0
0.046738,0.00089644,0.036246,0.00092034,0.01115,-0.00054563,0,0,0.06525,-0.026597,0,-0.0028373,0,0,0,0.036254,0.00091192,0.01115,-0.88469,0.016105,0.031497,1.0519e-06,0.95,0.47,0
0.04739,0.00091222,0.036202,0.00081926,0.011106,-0.00045316,0,0,0.065249,-0.026746,0,-0.0023564,0,0,0,0.036208,0.00081346,0.011106,-0.73365,0.016043,0.031534,1.0511e-06,0.96,0.47,0
0.048043,0.00092368,0.036168,0.00074148,0.011073,-0.000349,0,0,0.065248,-0.026862,0,-0.0018148,0,0,0,0.036172,0.00073804,0.011073,-0.56437,0.015994,0.031562,1.0504e-06,0.97,0.47,0
0.048695,0.00093145,0.036145,0.00068638,0.011049,-0.00023681,0,0,0.065248,-0.026944,0,-0.0012314,0,0,0,0.036146,0.0006848,0.011049,-0.38264,0.01596,0.031582,1.0499e-06,0.98,0.47,0
0.049348,0.00093595,0.036131,0.00065351,0.011035,-0.00011961,0,0,0.065248,-0.026992,0,-0.00062198,0,0,0,0.036131,0.00065311,0.011035,-0.19317,0.01594,0.031593,1.0496e-06,0.99,0.47,0
0.05,0.00093742,0.036126,0.00064259,0.011031,2.8328e-05,0,0,0.065248,-0.027009,0,0.0001473,0,0,0,0.036126,0.00064257,0.011031,0.045741,0.015933,0.031597,1.0495e-06,1,0.47,0
0,0,0.028888,0.012381,0.012381,0.00051004,0,0,0.04292,5.421e-20,0,0.0026522,0,0,0,0.028904,0.012365,0.012381,1.768,0.017883,0.016531,2.3203e-07,0,0.48,0
0.0004292,2.6522e-05,0.028843,0.011857,0.01221,0.00050916,0,0,0.043246,-0.00091845,0,0.0026476,0,0,0,0.028858,0.011841,0.01221,1.7154,0.017637,0.016836,2.4469e-07,0.01,0.48,0
0.00086492,5.2094e-05,0.029019,0.011435,0.012136,0.00050049,0,0,0.043895,-0.0018238,0,0.0026026,0,0,0,0.029033,0.01142,0.012136,1.629,0.01753,0.017266,2.6283e-07,0.02,0.48,0
0.0013071,7.6788e-05,0.029193,0.011019,0.012064,0.00049373,0,0,0.044537,-0.0027164,0,0.0025674,0,0,0,0.029207,0.011005,0.012064,1.555,0.017425,0.017696,2.8117e-07,0.03,0.48,0
0.0017557,0.00010067,0.029366,0.01061,0.011993,0.00048867,0,0,0.045171,-0.0035963,0,0.0025411,0,0,0,0.029379,0.010597,0.011993,1.4914,0.017323,0.018125,2.9968e-07,0.04,0.48,0
0.0022105,0.00012379,0.029538,0.010207,0.011923,0.00048516,0,0,0.045798,-0.0044634,0,0.0025228,0,0,0,0.02955,0.010195,0.011923,1.4367,0.017223,0.018552,3.1834e-07,0.05,0.48,0
0.0026716,0.0001462,0.029708,0.0098104,0.011856,0.00048304,0,0,0.046417,-0.0053176,0,0.0025118,0,0,0,0.02972,0.0097987,0.011856,1.3898,0.017125,0.018977,3.3712e-07,0.06,0.48,0
0.0031389,0.00016794,0.029877,0.0094206,0.011789,0.00048221,0,0,0.047029,-0.0061588,0,0.0025075,0,0,0,0.029889,0.0094093,0.011789,1.3496,0.017029,0.019399,3.5599e-07,0.07,0.48,0
0.0036122,0.00018904,0.030045,0.0090377,0.011725,0.00048258,0,0,0.047632,-0.0069865,0,0.0025094,0,0,0,0.030056,0.0090266,0.011725,1.3153,0.016936,0.019819,3.7494e-07,0.08,0.48,0
0.0040915,0.00020955,0.030211,0.0086617,0.011662,0.00048409,0,0,0.048228,-0.0078003,0,0.0025172,0,0,0,0.030222,0.0086508,0.011662,1.2862,0.016845,0.020234,3.9392e-07,0.09,0.48,0
0.0045768,0.00022948,0.030376,0.008293,0.011601,0.00048668,0,0,0.048815,-0.0085999,0,0.0025308,0,0,0,0.030386,0.0082822,0.011601,1.2619,0.016756,0.020646,4.1291e-07,0.1,0.48,0
0.0050678,0.00024886,0.030539,0.0079316,0.011541,0.00049034,0,0,0.049394,-0.0093846,0,0.0025498,0,0,0,0.030549,0.007921,0.011541,1.2419,0.016671,0.021053,4.3188e-07,0.11,0.48,0
0.0055646,0.00026771,0.0307,0.007578,0.011483,0.00049505,0,0,0.049963,-0.010154,0,0.0025743,0,0,0,0.030711,0.0075674,0.011483,1.226,0.016587,0.021455,4.508e-07,0.12,0.48,0
0.0060671,0.00028605,0.03086,0.0072324,0.011428,0.00050082,0,0,0.050523,-0.010908,0,0.0026043,0,0,0,0.03087,0.0072218,0.011428,1.2138,0.016507,0.021851,4.6965e-07,0.13,0.48,0
0.0065751,0.00030389,0.031017,0.006895,0.011374,0.00050768,0,0,0.051074,-0.011645,0,0.0026399,0,0,0,0.031028,0.0068843,0.011374,1.2051,0.016429,0.022242,4.8839e-07,0.14,0.48,0
0.0070886,0.00032125,0.031174,0.0065662,0.011322,0.00051566,0,0,0.051614,-0.012365,0,0.0026814,0,0,0,0.031184,0.0065554,0.011322,1.2,0.016354,0.022625,5.0701e-07,0.15,0.48,0
0.0076074,0.00033814,0.031328,0.0062462,0.011272,0.00052481,0,0,0.052145,-0.013068,0,0.002729,0,0,0,0.031339,0.0062352,0.011272,1.1982,0.016282,0.023002,5.2547e-07,0.16,0.48,0
0.0081315,0.00035457,0.03148,0.0059353,0.011225,0.0005352,0,0,0.052665,-0.013752,0,0.002783,0,0,0,0.031491,0.0059241,0.011225,1.1997,0.016213,0.023372,5.4376e-07,0.17,0.48,0
0.0086607,0.00037055,0.031631,0.0056338,0.011179,0.00054689,0,0,0.053174,-0.014419,0,0.0028438,0,0,0,0.031642,0.0056223,0.011179,1.2046,0.016148,0.023735,5.6186e-07,0.18,0.48,0
0.0091949,0.00038609,0.03178,0.0053419,0.011137,0.00055998,0,0,0.053673,-0.015066,0,0.0029119,0,0,0,0.031792,0.0053301,0.011137,1.2128,0.016086,0.024089,5.7974e-07,0.19,0.48,0
0.0097341,0.00040119,0.031927,0.00506,0.011096,0.00057454,0,0,0.054161,-0.015694,0,0.0029876,0,0,0,0.031939,0.0050477,0.011096,1.2245,0.016028,0.024435,5.974e-07,0.2,0.48,0
0.010278,0.00041586,0.032073,0.0047883,0.011058,0.0005907,0,0,0.054638,-0.016302,0,0.0030716,0,0,0,0.032086,0.0047755,0.011058,1.2396,0.015973,0.024774,6.1483e-07,0.21,0.48,0
0.010827,0.00043011,0.032217,0.004527,0.011023,0.00060853,0,0,0.055104,-0.01689,0,0.0031644,0,0,0,0.03223,0.0045136,0.011023,1.2584,0.015922,0.025103,6.3201e-07,0.22,0.48,0
0.01138,0.00044393,0.03236,0.0042763,0.010991,0.00062817,0,0,0.055559,-0.017458,0,0.0032665,0,0,0,0.032374,0.0042623,0.010991,1.2807,0.015876,0.025424,6.4893e-07,0.23,0.48,0
0.011938,0.00045733,0.032501,0.0040367,0.010961,0.00064971,0,0,0.056004,-0.018004,0,0.0033785,0,0,0,0.032516,0.0040219,0.010961,1.3069,0.015833,0.025736,6.6561e-07,0.24,0.48,0
0.0125,0.0004703,0.032642,0.0038082,0.010935,0.00067328,0,0,0.056438,-0.01853,0,0.0035011,0,0,0,0.032658,0.0037925,0.010935,1.3369,0.015795,0.026039,6.8203e-07,0.25,0.48,0
0.013067,0.00048283,0.032782,0.0035912,0.010912,0.00069899,0,0,0.056862,-0.019034,0,0.0036347,0,0,0,0.032799,0.0035745,0.010912,1.3709,0.015762,0.026334,6.982e-07,0.26,0.48,0
0.013638,0.00049491,0.032921,0.003386,0.010892,0.00072694,0,0,0.057276,-0.019516,0,0.0037801,0,0,0,0.032939,0.0033681,0.010892,1.409,0.015733,0.026619,7.1413e-07,0.27,0.48,0
0.014212,0.00050653,0.033061,0.0031929,0.010876,0.00075722,0,0,0.05768,-0.019976,0,0.0039375,0,0,0,0.03308,0.0031737,0.010876,1.4513,0.01571,0.026895,7.2981e-07,0.28,0.48,0
0.014791,0.00051765,0.0332,0.0030121,0.010863,0.00078993,0,0,0.058074,-0.020414,0,0.0041076,0,0,0,0.03322,0.0029914,0.010863,1.4979,0.015692,0.027162,7.4526e-07,0.29,0.48,0
0.015374,0.00052825,0.033339,0.0028441,0.010855,0.00082511,0,0,0.058459,-0.020828,0,0.0042906,0,0,0,0.033361,0.0028218,0.010855,1.5488,0.015679,0.02742,7.6049e-07,0.3,0.48,0
0.01596,0.00053827,0.033479,0.0026893,0.010851,0.00086278,0,0,0.058834,-0.021219,0,0.0044865,0,0,0,0.033503,0.0026652,0.010851,1.6039,0.015673,0.027669,7.755e-07,0.31,0.48,0
0.01655,0.00054765,0.03362,0.0025483,0.01085,0.00090293,0,0,0.0592,-0.021586,0,0.0046952,0,0,0,0.033646,0.0025221,0.01085,1.6631,0.015673,0.027908,7.9031e-07,0.32,0.48,0
0.017144,0.00055632,0.033762,0.0024215,0.010855,0.00094545,0,0,0.059557,-0.021927,0,0.0049163,0,0,0,0.03379,0.002393,0.010855,1.7264,0.015679,0.028137,8.0491e-07,0.33,0.48,0
0.017742,0.00056416,0.033905,0.0023097,0.010864,0.00099015,0,0,0.059905,-0.022242,0,0.0051488,0,0,0,0.033936,0.0022787,0.010864,1.7932,0.015693,0.028357,8.193e-07,0.34,0.48,0
0.018342,0.00057106,0.03405,0.0022137,0.010879,0.0010367,0,0,0.060244,-0.02253,0,0.0053909,0,0,0,0.034084,0.00218,0.010879,1.8632,0.015714,0.028566,8.3349e-07,0.35,0.48,0
0.018947,0.00057682,0.034197,0.0021344,0.010899,0.0010847,0,0,0.060574,-0.022789,0,0.0056402,0,0,0,0.034234,0.0020978,0.010899,1.9353,0.015744,0.028763,8.4746e-07,0.36,0.48,0
0.019554,0.00058124,0.034346,0.002073,0.010926,0.0011332,0,0,0.060893,-0.023017,0,0.0058929,0,0,0,0.034386,0.0020332,0.010926,2.0086,0.015782,0.02895,8.6118e-07,0.37,0.48,0
0.020164,0.00058405,0.034498,0.0020306,0.010958,0.0011814,0,0,0.061202,-0.023213,0,0.0061435,0,0,0,0.034541,0.0019876,0.010958,2.0813,0.015829,0.029123,8.7463e-07,0.38,0.48,0
0.020778,0.00058487,0.034652,0.0020087,0.010998,0.0012278,0,0,0.0615,-0.023373,0,0.0063844,0,0,0,0.034698,0.0019626,0.010998,2.1509,0.015886,0.029283,8.8775e-07,0.39,0.48,0
0.021394,0.00058327,0.034809,0.0020092,0.011046,0.0012702,0,0,0.061786,-0.023495,0,0.0066049,0,0,0,0.034859,0.0019601,0.011046,2.2143,0.015955,0.029427,9.0049e-07,0.4,0.48,0
0.022014,0.00057867,0.03497,0.0020337,0.011101,0.0013058,0,0,0.062059,-0.023575,0,0.0067902,0,0,0,0.035022,0.001982,0.011101,2.2668,0.016035,0.029555,9.1276e-07,0.41,0.48,0
0.022636,0.00057033,0.035134,0.0020845,0.011166,0.0013308,0,0,0.062318,-0.023611,0,0.00692,0,0,0,0.035188,0.002031,0.011166,2.3021,0.016128,0.029664,9.2448e-07,0.42,0.48,0
0.02326,0.00055732,0.035303,0.0021636,0.01124,0.0013399,0,0,0.062564,-0.023599,0,0.0069672,0,0,0,0.035357,0.0021095,0.01124,2.3115,0.016235,0.029752,9.3559e-07,0.43,0.48,0
0.023887,0.00053843,0.035478,0.0022731,0.011325,0.0013261,0,0,0.062798,-0.023536,0,0.0068956,0,0,0,0.035531,0.0022202,0.011325,2.2833,0.016359,0.02982,9.4606e-07,0.44,0.48,0
0.024516,0.00051214,0.035663,0.0024145,0.011423,0.0012807,0,0,0.063023,-0.023422,0,0.0066595,0,0,0,0.035712,0.0023652,0.011423,2.2026,0.0165,0.029866,9.5592e-07,0.45,0.48,0
0.025147,0.00047652,0.035857,0.0025885,0.011534,0.0011931,0,0,0.063241,-0.023257,0,0.0062039,0,0,0,0.0359,0.0025457,0.011534,2.0512,0.01666,0.029891,9.6515e-07,0.46,0.48,0
0.025781,0.00042916,0.036055,0.0027957,0.011655,0.0010504,0,0,0.063439,-0.023034,0,0.0054622,0,0,0,0.036088,0.0027625,0.011655,1.8072,0.016835,0.029888,9.731e-07,0.47,0.48,0
0.026416,0.00036692,0.03622,0.003039,0.011778,0.00083194,0,0,0.06355,-0.022721,0,0.0043261,0,0,0,0.036241,0.0030182,0.011778,1.4354,0.017012,0.029824,9.7663e-07,0.48,0.48,0
0.027052,0.00028534,0.036201,0.003302,0.011851,0.00048115,0,0,0.063311,-0.022227,0,0.002502,0,0,0,0.036208,0.0032949,0.011851,0.83772,0.017118,0.029579,9.6371e-07,0.49,0.48,0
0.027682,0.00017593,0.035802,0.0035984,0.01182,-0.00016171,0,0,0.062354,-0.021377,0,-0.00084089,0,0,0,0.035803,0.0035976,0.01182,-0.2877,0.017074,0.028983,9.1938e-07,0.5,0.48,0
0.028299,2.1378e-05,0.035571,0.0032454,0.011645,-0.0001687,0,0,0.062209,-0.021839,0,-0.00087725,0,0,0,0.035572,0.0032445,0.011645,-0.299,0.016821,0.029053,9.1355e-07,0.51,0.48,0
0.028927,-7.4403e-05,0.03533,0.00061284,0.010783,-0.00091681,0,0,0.047602,-0.017628,0,-0.0045017,0,0,0,0.035374,0.00056949,0.010783,-1.656,0.015575,0.031065,9.5166e-07,0.52,0.48,0
0.029251,-9.0774e-05,0.035534,-0.0003551,0.010554,4.1e-05,0,0,0.032475,-0.014181,0,0.0001066,0,0,0,0.035534,-0.00035515,0.010554,0.065454,0.015244,0.031868,1.0294e-06,0.53,0.48,0
0.029576,-0.00010176,0.036039,-0.0005839,0.010637,0.0001708,0,0,0.033023,-0.014587,0,0.00044408,0,0,0,0.03604,-0.0005847,0.010637,0.2672,0.015364,0.032501,1.0808e-06,0.54,0.48,0
0.029911,-0.00010421,0.03675,-0.0006284,0.010836,0.00024713,0,0,0.033687,-0.014904,0,0.00064254,0,0,0,0.036751,-0.00063004,0.010836,0.3788,0.015652,0.033169,1.1472e-06,0.55,0.48,0
0.03025,-0.00010621,0.036913,-0.00073172,0.010854,0.00016202,0,0,0.033876,-0.015062,0,0.00042126,0,0,0,0.036914,-0.00073242,0.010854,0.24659,0.015679,0.033396,1.1657e-06,0.56,0.48,0
0.030589,-0.00010879,0.036953,-0.00070898,0.010873,0.00010231,0,0,0.033904,-0.015057,0,0.000266,0,0,0,0.036954,-0.00070926,0.010873,0.15564,0.015706,0.033413,1.1687e-06,0.57,0.48,0
0.030928,-0.00011204,0.036928,-0.00068816,0.010872,8.1492e-05,0,0,0.033873,-0.015028,0,0.00021188,0,0,0,0.036928,-0.00068834,0.010872,0.12413,0.015704,0.033373,1.1656e-06,0.58,0.48,0
0.031266,-0.00011544,0.036903,-0.00068347,0.010866,8.2173e-05,0,0,0.033848,-0.015014,0,0.00021365,0,0,0,0.036903,-0.00068365,0.010866,0.12526,0.015695,0.033347,1.1631e-06,0.59,0.48,0
0.031605,-0.00011876,0.036893,-0.00068551,0.010862,8.8569e-05,0,0,0.03384,-0.015012,0,0.00023028,0,0,0,0.036893,-0.00068571,0.010862,0.13504,0.01569,0.03334,1.1622e-06,0.6,0.48,0
0.031943,-0.00012195,0.036891,-0.00069216,0.01086,9.4226e-05,0,0,0.033841,-0.015017,0,0.00024499,0,0,0,0.036892,-0.00069239,0.01086,0.14365,0.015686,0.033344,1.1623e-06,0.61,0.48,0
0.032282,-0.00012501,0.036894,-0.00069967,0.010858,9.8089e-05,0,0,0.033846,-0.015025,0,0.00025503,0,0,0,0.036894,-0.00069993,0.010858,0.14949,0.015684,0.033353,1.1628e-06,0.62,0.48,0
0.03262,-0.00012795,0.036898,-0.00070605,0.010858,0.00010116,0,0,0.033853,-0.015033,0,0.00026301,0,0,0,0.036899,-0.00070633,0.010858,0.15413,0.015683,0.033362,1.1634e-06,0.63,0.48,0
0.032959,-0.00013076,0.036903,-0.00071094,0.010858,0.00010527,0,0,0.033859,-0.015039,0,0.00027372,0,0,0,0.036904,-0.00071124,0.010858,0.16036,0.015683,0.03337,1.164e-06,0.64,0.48,0
0.033297,-0.00013339,0.036909,-0.00071558,0.010858,0.00011206,0,0,0.033866,-0.015046,0,0.00029136,0,0,0,0.036909,-0.00071591,0.010858,0.17065,0.015684,0.033379,1.1647e-06,0.65,0.48,0
0.033636,-0.0001358,0.036916,-0.00072208,0.010858,0.0001224,0,0,0.033875,-0.015054,0,0.00031823,0,0,0,0.036916,-0.00072247,0.010858,0.18632,0.015684,0.03339,1.1656e-06,0.66,0.48,0
0.033975,-0.00013791,0.036926,-0.00073276,0.010858,0.00013629,0,0,0.033889,-0.015068,0,0.00035434,0,0,0,0.036927,-0.00073325,0.010858,0.20735,0.015684,0.033408,1.1669e-06,0.67,0.48,0
0.034314,-0.00013968,0.03694,-0.00074962,0.010857,0.0001529,0,0,0.033908,-0.015089,0,0.00039755,0,0,0,0.036941,-0.00075024,0.010857,0.23244,0.015682,0.033434,1.1688e-06,0.68,0.48,0
0.034653,-0.00014107,0.036958,-0.00077384,0.010855,0.00017085,0,0,0.033934,-0.015118,0,0.0004442,0,0,0,0.036959,-0.00077462,0.010855,0.25943,0.01568,0.03347,1.1713e-06,0.69,0.48,0
0.034992,-0.00014208,0.036981,-0.00080549,0.010853,0.00018853,0,0,0.033967,-0.015156,0,0.00049018,0,0,0,0.036982,-0.00080643,0.010853,0.28586,0.015676,0.033516,1.1744e-06,0.7,0.48,0
0.035332,-0.00014273,0.037008,-0.00084356,0.010849,0.0002046,0,0,0.034006,-0.015201,0,0.00053196,0,0,0,0.037009,-0.00084467,0.010849,0.30969,0.015671,0.033571,1.1782e-06,0.71,0.48,0
0.035673,-0.00014306,0.037039,-0.00088626,0.010846,0.00021831,0,0,0.034051,-0.015252,0,0.00056761,0,0,0,0.03704,-0.00088752,0.010846,0.3298,0.015666,0.033633,1.1825e-06,0.72,0.48,0
0.036013,-0.00014313,0.037073,-0.00093152,0.010842,0.00022979,0,0,0.034099,-0.015306,0,0.00059746,0,0,0,0.037074,-0.00093291,0.010842,0.34642,0.015661,0.033699,1.1872e-06,0.73,0.48,0
0.036354,-0.00014298,0.037109,-0.00097754,0.01084,0.00024009,0,0,0.034151,-0.015362,0,0.00062424,0,0,0,0.037111,-0.00097905,0.01084,0.36117,0.015657,0.033769,1.1922e-06,0.74,0.48,0
0.036696,-0.00014262,0.037149,-0.0010235,0.010838,0.00025106,0,0,0.034205,-0.015419,0,0.00065276,0,0,0,0.037151,-0.0010251,0.010838,0.37682,0.015654,0.033841,1.1975e-06,0.75,0.48,0
0.037039,-0.00014205,0.037194,-0.00107,0.010837,0.00026486,0,0,0.034264,-0.015479,0,0.00068864,0,0,0,0.037196,-0.0010719,0.010837,0.39657,0.015654,0.033919,1.2033e-06,0.76,0.48,0
0.037382,-0.00014122,0.037248,-0.0011196,0.010838,0.00028297,0,0,0.034332,-0.015545,0,0.00073571,0,0,0,0.03725,-0.0011217,0.010838,0.42254,0.015655,0.034007,1.21e-06,0.77,0.48,0
0.037725,-0.00014009,0.037315,-0.0011759,0.010842,0.00030506,0,0,0.034415,-0.015623,0,0.00079317,0,0,0,0.037317,-0.0011783,0.010842,0.45407,0.01566,0.034113,1.2184e-06,0.78,0.48,0
0.03807,-0.00013866,0.037402,-0.0012407,0.010849,0.00032577,0,0,0.03452,-0.015716,0,0.00084701,0,0,0,0.037405,-0.0012434,0.010849,0.48297,0.01567,0.034243,1.229e-06,0.79,0.48,0
0.038416,-0.00013709,0.037494,-0.0013218,0.010852,0.00033102,0,0,0.034635,-0.015825,0,0.00086065,0,0,0,0.037497,-0.0013246,0.010852,0.48857,0.015675,0.03439,1.2405e-06,0.8,0.48,0
0.038763,-0.00013582,0.037519,-0.0013987,0.010836,0.00030587,0,0,0.034688,-0.015905,0,0.00079527,0,0,0,0.037521,-0.0014011,0.010836,0.45028,0.015652,0.034473,1.2454e-06,0.81,0.48,0
0.039109,-0.0001346,0.03741,-0.0013389,0.010821,0.00026925,0,0,0.034565,-0.015808,0,0.00070005,0,0,0,0.037412,-0.0013408,0.010821,0.3981,0.015631,0.034327,1.2327e-06,0.82,0.48,0
0.039454,-0.00013222,0.036739,-0.0013212,0.010625,0.00040847,0,0,0.033947,-0.01553,0,0.001062,0,0,0,0.036743,-0.0013255,0.010625,0.61482,0.015348,0.033721,1.168e-06,0.83,0.48,0
0.039788,-0.00012051,0.036273,-0.0011338,0.010542,0.0005874,0,0,0.033451,-0.015178,0,0.0015272,0,0,0,0.036282,-0.001143,0.010542,0.89943,0.015227,0.033164,1.1197e-06,0.84,0.48,0
0.040123,-0.00010446,0.036131,-6.8572e-05,0.010819,0.0015508,0,0,0.049086,-0.018871,0,0.0069417,0,0,0,0.036218,-0.00015536,0.010819,2.5958,0.015627,0.032399,1.0405e-06,0.85,0.48,0
0.04077,5.5261e-06,0.036405,0.0025697,0.011692,0.00075914,0,0,0.064252,-0.023719,0,0.0039475,0,0,0,0.036422,0.0025527,0.011692,1.2847,0.016889,0.03035,1.009e-06,0.86,0.48,0
0.041408,0.00017558,0.036743,0.0030103,0.011926,0.00074511,0,0,0.064525,-0.023181,0,0.0038746,0,0,0,0.03676,0.0029939,0.011926,1.2647,0.017227,0.030304,1.0218e-06,0.87,0.48,0
0.042061,0.00029691,0.037189,0.0026277,0.011945,6.9957e-05,0,0,0.065635,-0.024225,0,0.00036378,0,0,0,0.037189,0.0026276,0.011945,0.11597,0.017254,0.030973,1.0733e-06,0.88,0.48,0
0.042721,0.00038711,0.037288,0.0022622,0.011865,-0.0002811,0,0,0.0661,-0.024968,0,-0.0014617,0,0,0,0.03729,0.0022599,0.011865,-0.45979,0.017138,0.031351,1.0963e-06,0.89,0.48,0
0.043383,0.0004563,0.037204,0.0019181,0.011737,-0.00046884,0,0,0.066215,-0.025528,0,-0.002438,0,0,0,0.03721,0.0019119,0.011737,-0.76111,0.016953,0.031555,1.102e-06,0.9,0.48,0
0.044045,0.0005099,0.037086,0.0016232,0.011613,-0.0005653,0,0,0.066231,-0.025973,0,-0.0029396,0,0,0,0.037095,0.0016142,0.011613,-0.91301,0.016774,0.031688,1.1025e-06,0.91,0.48,0
0.044707,0.00055154,0.036972,0.0013729,0.011504,-0.00060078,0,0,0.066219,-0.02634,0,-0.0031241,0,0,0,0.036983,0.0013628,0.011504,-0.96656,0.016616,0.031787,1.1013e-06,0.92,0.48,0
0.045369,0.00058385,0.036872,0.0011619,0.01141,-0.00059286,0,0,0.0662,-0.026645,0,-0.0030829,0,0,0,0.036882,0.001152,0.01141,-0.95089,0.016481,0.031864,1.0996e-06,0.93,0.48,0
0.046031,0.00060877,0.036786,0.00098573,0.011332,-0.00055309,0,0,0.066182,-0.026899,0,-0.0028761,0,0,0,0.036795,0.00097719,0.011332,-0.88489,0.016368,0.031926,1.0978e-06,0.94,0.48,0
0.046693,0.00062777,0.036716,0.00084136,0.011267,-0.00048982,0,0,0.066167,-0.027107,0,-0.002547,0,0,0,0.036722,0.00083467,0.011267,-0.7821,0.016275,0.031975,1.0962e-06,0.95,0.48,0
0.047355,0.00064198,0.036659,0.0007263,0.011216,-0.00040935,0,0,0.066153,-0.027272,0,-0.0021286,0,0,0,0.036664,0.00072163,0.011216,-0.6526,0.0162,0.032012,1.0948e-06,0.96,0.48,0
0.048016,0.00065224,0.036616,0.00063869,0.011176,-0.00031657,0,0,0.066143,-0.027398,0,-0.0016462,0,0,0,0.036619,0.00063591,0.011176,-0.50411,0.016144,0.03204,1.0936e-06,0.97,0.48,0
0.048677,0.00065917,0.036585,0.00057712,0.011149,-0.00021538,0,0,0.066135,-0.027486,0,-0.00112,0,0,0,0.036587,0.00057583,0.011149,-0.3427,0.016104,0.03206,1.0927e-06,0.98,0.48,0
0.049339,0.00066316,0.036567,0.00054058,0.011132,-0.00010895,0,0,0.06613,-0.027538,0,-0.00056652,0,0,0,0.036567,0.00054025,0.011132,-0.17326,0.01608,0.032071,1.0922e-06,0.99,0.48,0
0.05,0.00066447,0.036561,0.00052846,0.011127,2.5115e-05,0,0,0.066129,-0.027556,0,0.0001306,0,0,0,0.036561,0.00052844,0.011127,0.039936,0.016072,0.032074,1.092e-06,1,0.48,0
0,0,0.028915,0.012392,0.012392,0.00033294,0,0,0.04296,0,0,0.0017313,0,0,0,0.028922,0.012386,0.012392,1.1539,0.0179,0.016533,2.3211e-07,0,0.49,0
0.0004296,1.7313e-05,0.02887,0.011866,0.012221,0.00033227,0,0,0.043288,-0.00092315,0,0.0017278,0,0,0,0.028876,0.011859,0.012221,1.119,0.017652,0.016839,2.4487e-07,0.01,0.49,0
0.00086576,3.3809e-05,0.029047,0.011442,0.012146,0.00032502,0,0,0.04394,-0.0018328,0,0.0016901,0,0,0,0.029053,0.011435,0.012146,1.0573,0.017545,0.017273,2.6315e-07,0.02,0.49,0
0.0013084,4.9558e-05,0.029222,0.011024,0.012074,0.00031961,0,0,0.044585,-0.0027292,0,0.001662,0,0,0,0.029227,0.011018,0.012074,1.0059,0.01744,0.017705,2.8163e-07,0.03,0.49,0
0.0017575,6.4621e-05,0.029396,0.010613,0.012003,0.00031586,0,0,0.045222,-0.0036127,0,0.0016425,0,0,0,0.029401,0.010608,0.012003,0.96317,0.017337,0.018136,3.0027e-07,0.04,0.49,0
0.0022129,7.9053e-05,0.029568,0.010209,0.011933,0.00031365,0,0,0.045852,-0.0044832,0,0.001631,0,0,0,0.029573,0.010204,0.011933,0.92793,0.017237,0.018565,3.1906e-07,0.05,0.49,0
0.0026745,9.2904e-05,0.02974,0.0098112,0.011865,0.00031285,0,0,0.046474,-0.0053406,0,0.0016268,0,0,0,0.029745,0.0098063,0.011865,0.89916,0.017139,0.018993,3.3797e-07,0.06,0.49,0
0.0031423,0.00010622,0.02991,0.0094202,0.011799,0.00031337,0,0,0.047088,-0.0061848,0,0.0016295,0,0,0,0.029915,0.0094154,0.011799,0.87602,0.017043,0.019417,3.5697e-07,0.07,0.49,0
0.0036163,0.00011903,0.030078,0.0090361,0.011734,0.00031514,0,0,0.047695,-0.0070155,0,0.0016387,0,0,0,0.030083,0.0090313,0.011734,0.85784,0.01695,0.019839,3.7605e-07,0.08,0.49,0
0.0040962,0.00013138,0.030246,0.008659,0.011671,0.0003181,0,0,0.048293,-0.0078323,0,0.0016541,0,0,0,0.03025,0.0086543,0.011671,0.84406,0.016859,0.020257,3.9517e-07,0.09,0.49,0
0.0045821,0.0001433,0.030412,0.0082891,0.01161,0.00032221,0,0,0.048883,-0.0086348,0,0.0016755,0,0,0,0.030416,0.0082844,0.01161,0.83426,0.01677,0.020671,4.143e-07,0.1,0.49,0
0.0050739,0.00015482,0.030576,0.0079267,0.011551,0.00032743,0,0,0.049465,-0.0094226,0,0.0017026,0,0,0,0.030581,0.007922,0.011551,0.82808,0.016684,0.02108,4.3342e-07,0.11,0.49,0
0.0055714,0.00016596,0.030739,0.007572,0.011493,0.00033377,0,0,0.050038,-0.010195,0,0.0017356,0,0,0,0.030743,0.0075672,0.011493,0.82524,0.016601,0.021484,4.525e-07,0.12,0.49,0
0.0060746,0.00017675,0.0309,0.0072253,0.011438,0.00034121,0,0,0.050602,-0.010952,0,0.0017743,0,0,0,0.030905,0.0072204,0.011438,0.82554,0.016521,0.021883,4.7152e-07,0.13,0.49,0
0.0065835,0.0001872,0.03106,0.0068868,0.011384,0.00034977,0,0,0.051157,-0.011692,0,0.0018188,0,0,0,0.031065,0.0068817,0.011384,0.82881,0.016443,0.022276,4.9044e-07,0.14,0.49,0
0.0070978,0.00019734,0.031218,0.0065568,0.011332,0.00035947,0,0,0.051702,-0.012416,0,0.0018692,0,0,0,0.031223,0.0065516,0.011332,0.83493,0.016369,0.022662,5.0926e-07,0.15,0.49,0
0.0076175,0.00020718,0.031374,0.0062356,0.011283,0.00037034,0,0,0.052237,-0.013123,0,0.0019258,0,0,0,0.03138,0.0062302,0.011283,0.84383,0.016298,0.023042,5.2793e-07,0.16,0.49,0
0.0081425,0.00021674,0.031529,0.0059235,0.011236,0.00038243,0,0,0.052762,-0.013812,0,0.0019886,0,0,0,0.031535,0.0059178,0.011236,0.85548,0.016229,0.023415,5.4645e-07,0.17,0.49,0
0.0086727,0.00022604,0.031682,0.0056207,0.011191,0.00039578,0,0,0.053278,-0.014483,0,0.0020581,0,0,0,0.031688,0.0056147,0.011191,0.86984,0.016165,0.023781,5.6479e-07,0.18,0.49,0
0.0092081,0.00023508,0.031834,0.0053275,0.011149,0.00041046,0,0,0.053783,-0.015135,0,0.0021344,0,0,0,0.031841,0.0053211,0.011149,0.88695,0.016103,0.024139,5.8295e-07,0.19,0.49,0
0.0097484,0.00024387,0.031985,0.0050441,0.011109,0.00042653,0,0,0.054278,-0.015768,0,0.002218,0,0,0,0.031991,0.0050373,0.011109,0.90682,0.016046,0.02449,6.009e-07,0.2,0.49,0
0.010294,0.00025244,0.032134,0.0047708,0.011071,0.00044406,0,0,0.054762,-0.016382,0,0.0023091,0,0,0,0.032141,0.0047636,0.011071,0.92951,0.015992,0.024832,6.1865e-07,0.21,0.49,0
0.010844,0.00026077,0.032282,0.0045078,0.011037,0.00046314,0,0,0.055237,-0.016976,0,0.0024084,0,0,0,0.03229,0.0045001,0.011037,0.95508,0.015942,0.025166,6.3618e-07,0.22,0.49,0
0.011398,0.00026888,0.032429,0.0042555,0.011005,0.00048385,0,0,0.055702,-0.01755,0,0.002516,0,0,0,0.032437,0.0042471,0.011005,0.9836,0.015897,0.025492,6.5349e-07,0.23,0.49,0
0.011958,0.00027678,0.032575,0.0040139,0.010977,0.00050627,0,0,0.056156,-0.018103,0,0.0026326,0,0,0,0.032584,0.004005,0.010977,1.0152,0.015855,0.02581,6.7059e-07,0.24,0.49,0
0.012521,0.00028445,0.032721,0.0037835,0.010951,0.00053049,0,0,0.056601,-0.018637,0,0.0027586,0,0,0,0.032731,0.0037738,0.010951,1.0499,0.015819,0.026119,6.8747e-07,0.25,0.49,0
0.01309,0.0002919,0.032867,0.0035645,0.010929,0.0005566,0,0,0.057037,-0.019149,0,0.0028943,0,0,0,0.032877,0.0035539,0.010929,1.0878,0.015787,0.026419,7.0414e-07,0.26,0.49,0
0.013662,0.00029911,0.033012,0.0033571,0.010911,0.00058469,0,0,0.057464,-0.01964,0,0.0030404,0,0,0,0.033024,0.0033456,0.010911,1.1291,0.01576,0.026712,7.2061e-07,0.27,0.49,0
0.014239,0.00030608,0.033158,0.0031618,0.010896,0.00061483,0,0,0.057882,-0.020109,0,0.0031971,0,0,0,0.033171,0.0031491,0.010896,1.1737,0.015739,0.026995,7.369e-07,0.28,0.49,0
0.01482,0.00031277,0.033305,0.0029787,0.010885,0.00064708,0,0,0.058291,-0.020556,0,0.0033648,0,0,0,0.033319,0.0029649,0.010885,1.2218,0.015723,0.02727,7.53e-07,0.29,0.49,0
0.015405,0.00031916,0.033452,0.0028084,0.010878,0.00068149,0,0,0.058693,-0.020982,0,0.0035438,0,0,0,0.033467,0.0027933,0.010878,1.2734,0.015713,0.027537,7.6895e-07,0.3,0.49,0
0.015994,0.00032522,0.033601,0.0026513,0.010876,0.00071808,0,0,0.059086,-0.021383,0,0.003734,0,0,0,0.033618,0.0026347,0.010876,1.3284,0.015709,0.027795,7.8474e-07,0.31,0.49,0
0.016587,0.00033087,0.033752,0.002508,0.010878,0.0007568,0,0,0.059472,-0.021762,0,0.0039353,0,0,0,0.03377,0.0024897,0.010878,1.3867,0.015713,0.028043,8.004e-07,0.32,0.49,0
0.017183,0.00033606,0.033904,0.0023791,0.010885,0.00079756,0,0,0.05985,-0.022115,0,0.0041473,0,0,0,0.033925,0.0023589,0.010885,1.4483,0.015723,0.028283,8.1593e-07,0.33,0.49,0
0.017784,0.00034069,0.034059,0.0022654,0.010897,0.00084019,0,0,0.060221,-0.022443,0,0.004369,0,0,0,0.034082,0.0022433,0.010897,1.5127,0.015741,0.028514,8.3133e-07,0.34,0.49,0
0.018388,0.00034463,0.034217,0.0021679,0.010915,0.00088439,0,0,0.060584,-0.022744,0,0.0045988,0,0,0,0.034242,0.0021435,0.010915,1.5795,0.015767,0.028734,8.466e-07,0.35,0.49,0
0.018995,0.00034774,0.034378,0.0020876,0.01094,0.00092969,0,0,0.060939,-0.023015,0,0.0048344,0,0,0,0.034405,0.0020609,0.01094,1.6478,0.015802,0.028944,8.6174e-07,0.36,0.49,0
0.019606,0.00034982,0.034542,0.002026,0.01097,0.00097541,0,0,0.061286,-0.023255,0,0.0050721,0,0,0,0.034571,0.0019968,0.01097,1.7167,0.015846,0.029143,8.767e-07,0.37,0.49,0
0.020221,0.00035061,0.03471,0.0019847,0.011008,0.0010205,0,0,0.061623,-0.023461,0,0.0053068,0,0,0,0.034741,0.0019529,0.011008,1.7845,0.015901,0.029329,8.9146e-07,0.38,0.49,0
0.020839,0.00034979,0.034881,0.0019655,0.011054,0.0010636,0,0,0.06195,-0.02363,0,0.0055309,0,0,0,0.034915,0.0019312,0.011054,1.8489,0.015967,0.0295,9.0593e-07,0.39,0.49,0
0.02146,0.00034694,0.035056,0.0019709,0.011108,0.0011027,0,0,0.062264,-0.023756,0,0.0057341,0,0,0,0.035092,0.0019342,0.011108,1.9068,0.016045,0.029655,9.2003e-07,0.4,0.49,0
0.022084,0.00034153,0.035234,0.0020036,0.011171,0.0011349,0,0,0.062564,-0.023836,0,0.0059014,0,0,0,0.035273,0.0019649,0.011171,1.9537,0.016136,0.029792,9.3361e-07,0.41,0.49,0
0.022711,0.00033287,0.035416,0.002067,0.011245,0.0011562,0,0,0.062846,-0.023863,0,0.0060121,0,0,0,0.035457,0.002027,0.011245,1.9832,0.016243,0.029906,9.465e-07,0.42,0.49,0
0.023341,0.00032007,0.035602,0.0021648,0.01133,0.001161,0,0,0.063108,-0.02383,0,0.0060373,0,0,0,0.035643,0.0021246,0.01133,1.9863,0.016366,0.029994,9.585e-07,0.43,0.49,0
0.023973,0.00030198,0.035793,0.0023014,0.011428,0.0011417,0,0,0.063348,-0.02373,0,0.0059369,0,0,0,0.035832,0.0022625,0.011428,1.9502,0.016507,0.030053,9.6942e-07,0.44,0.49,0
0.024608,0.00027709,0.03599,0.0024813,0.011541,0.001088,0,0,0.063566,-0.023556,0,0.0056574,0,0,0,0.036025,0.002446,0.011541,1.8577,0.016671,0.030081,9.7918e-07,0.45,0.49,0
0.025245,0.00024348,0.0362,0.0027088,0.011673,0.00098771,0,0,0.063772,-0.023306,0,0.0051361,0,0,0,0.036229,0.0026797,0.011673,1.6878,0.016861,0.030079,9.88e-07,0.46,0.49,0
0.025883,0.00019882,0.036429,0.002985,0.011824,0.00083044,0,0,0.063973,-0.022982,0,0.0043183,0,0,0,0.03645,0.0029644,0.011824,1.4215,0.01708,0.030052,9.9628e-07,0.47,0.49,0
0.026524,0.00014038,0.036678,0.0033203,0.011999,0.00061327,0,0,0.064164,-0.022566,0,0.003189,0,0,0,0.036689,0.0033091,0.011999,1.0529,0.017333,0.029994,1.0037e-06,0.48,0.49,0
0.027167,6.4943e-05,0.036944,0.0037678,0.012214,0.00034127,0,0,0.0643,-0.021959,0,0.0017746,0,0,0,0.036948,0.0037643,0.012214,0.58929,0.017642,0.029869,1.0084e-06,0.49,0.49,0
0.02781,-3.1959e-05,0.037257,0.0044765,0.01252,-0.00017562,0,0,0.064317,-0.020914,0,-0.00091323,0,0,0,0.037258,0.0044756,0.01252,-0.30695,0.018085,0.029592,1.0067e-06,0.5,0.49,0
0.028453,-0.00018103,0.041942,0.0033234,0.01358,0.00096583,0,0,0.051322,-0.018129,0,0.0029426,0,0,0,0.041971,0.0032947,0.01358,1.2819,0.019615,0.0347,1.7406e-06,0.51,0.49,0
0.028901,-0.0002446,0.033616,0.0010984,0.010414,-0.0014353,0,0,0.041372,-0.016366,0,-0.0059472,0,0,0,0.033693,0.0010211,0.010414,-2.8475,0.015043,0.029135,1.0003e-06,0.52,0.49,0
0.029246,-0.00023664,0.037171,-0.00066908,0.010951,-0.00021188,0,0,0.034087,-0.015106,0,-0.00055089,0,0,0,0.037173,-0.00067026,0.010951,-0.3208,0.015818,0.033576,1.1882e-06,0.53,0.49,0
0.029583,-0.00024659,0.036819,-0.00041572,0.010921,-0.00010915,0,0,0.033668,-0.014738,0,-0.0002838,0,0,0,0.036819,-0.00041604,0.010921,-0.16796,0.015775,0.033059,1.1467e-06,0.54,0.49,0
0.029919,-0.00025258,0.036758,-0.00058033,0.010853,8.8105e-05,0,0,0.033676,-0.014864,0,0.00022907,0,0,0,0.036758,-0.00058053,0.010853,0.1352,0.015677,0.033136,1.1463e-06,0.55,0.49,0
0.030257,-0.00025606,0.036853,-0.00065364,0.01086,0.00013578,0,0,0.033792,-0.014968,0,0.00035304,0,0,0,0.036854,-0.00065413,0.01086,0.20742,0.015687,0.03328,1.1576e-06,0.56,0.49,0
0.030595,-0.00025915,0.036892,-0.00068763,0.010861,0.0001188,0,0,0.03384,-0.015014,0,0.00030889,0,0,0,0.036893,-0.00068801,0.010861,0.18113,0.015689,0.033342,1.1623e-06,0.57,0.49,0
0.030933,-0.00026233,0.036901,-0.00068911,0.010864,0.00010066,0,0,0.033849,-0.015019,0,0.00026171,0,0,0,0.036901,-0.00068938,0.010864,0.15342,0.015692,0.03335,1.1631e-06,0.58,0.49,0
0.031272,-0.00026563,0.036895,-0.00068797,0.010862,9.2419e-05,0,0,0.033842,-0.015015,0,0.00024029,0,0,0,0.036895,-0.00068819,0.010862,0.14089,0.01569,0.033344,1.1625e-06,0.59,0.49,0
0.03161,-0.00026892,0.036889,-0.00069031,0.010859,9.1005e-05,0,0,0.033838,-0.015015,0,0.00023661,0,0,0,0.036889,-0.00069053,0.010859,0.13875,0.015686,0.03334,1.162e-06,0.6,0.49,0
0.031949,-0.00027214,0.036887,-0.00069527,0.010857,9.2199e-05,0,0,0.033838,-0.015019,0,0.00023972,0,0,0,0.036887,-0.0006955,0.010857,0.14056,0.015683,0.033342,1.162e-06,0.61,0.49,0
0.032287,-0.00027527,0.036888,-0.00070169,0.010856,9.4057e-05,0,0,0.033842,-0.015025,0,0.00024455,0,0,0,0.036888,-0.00070193,0.010856,0.14336,0.015681,0.033349,1.1623e-06,0.62,0.49,0
0.032626,-0.00027828,0.036892,-0.00070843,0.010855,9.6442e-05,0,0,0.033848,-0.015033,0,0.00025075,0,0,0,0.036892,-0.00070868,0.010855,0.14696,0.01568,0.033358,1.1629e-06,0.63,0.49,0
0.032964,-0.00028116,0.036897,-0.0007153,0.010855,0.00010003,0,0,0.033855,-0.015041,0,0.00026007,0,0,0,0.036898,-0.00071557,0.010855,0.15237,0.015679,0.033368,1.1636e-06,0.64,0.49,0
0.033303,-0.00028388,0.036904,-0.00072303,0.010854,0.00010563,0,0,0.033865,-0.015051,0,0.00027464,0,0,0,0.036904,-0.00072333,0.010854,0.16084,0.015679,0.03338,1.1645e-06,0.65,0.49,0
0.033641,-0.00028639,0.036913,-0.00073296,0.010854,0.00011373,0,0,0.033877,-0.015063,0,0.0002957,0,0,0,0.036913,-0.0007333,0.010854,0.17309,0.015678,0.033396,1.1656e-06,0.66,0.49,0
0.03398,-0.00028866,0.036924,-0.00074663,0.010853,0.00012429,0,0,0.033892,-0.01508,0,0.00032314,0,0,0,0.036925,-0.00074704,0.010853,0.18903,0.015677,0.033418,1.1672e-06,0.67,0.49,0
0.034319,-0.00029065,0.036939,-0.0007654,0.010852,0.00013672,0,0,0.033913,-0.015103,0,0.00035547,0,0,0,0.03694,-0.0007659,0.010852,0.20775,0.015675,0.033446,1.1692e-06,0.68,0.49,0
0.034659,-0.00029234,0.036958,-0.00079007,0.010851,0.00015007,0,0,0.03394,-0.015133,0,0.00039019,0,0,0,0.036959,-0.00079067,0.010851,0.22778,0.015673,0.033483,1.1718e-06,0.69,0.49,0
0.034998,-0.00029372,0.036981,-0.00082073,0.010848,0.00016325,0,0,0.033973,-0.01517,0,0.00042445,0,0,0,0.036982,-0.00082144,0.010848,0.24743,0.01567,0.033528,1.1749e-06,0.7,0.49,0
0.035338,-0.00029481,0.037008,-0.00085677,0.010845,0.00017531,0,0,0.034012,-0.015213,0,0.0004558,0,0,0,0.037009,-0.00085758,0.010845,0.26526,0.015666,0.033581,1.1786e-06,0.71,0.49,0
0.035678,-0.00029564,0.037039,-0.00089706,0.010842,0.00018569,0,0,0.034055,-0.015262,0,0.0004828,0,0,0,0.03704,-0.00089797,0.010842,0.28045,0.015661,0.033641,1.1828e-06,0.72,0.49,0
0.036019,-0.00029624,0.037073,-0.00094034,0.01084,0.0001944,0,0,0.034103,-0.015314,0,0.00050543,0,0,0,0.037074,-0.00094133,0.01084,0.293,0.015657,0.033706,1.1875e-06,0.73,0.49,0
0.03636,-0.00029665,0.03711,-0.00098561,0.010837,0.00020195,0,0,0.034155,-0.01537,0,0.00052507,0,0,0,0.037111,-0.00098668,0.010837,0.30372,0.015654,0.033776,1.1925e-06,0.74,0.49,0
0.036702,-0.00029688,0.037152,-0.0010326,0.010836,0.00020924,0,0,0.034211,-0.015429,0,0.00054402,0,0,0,0.037153,-0.0010337,0.010836,0.31395,0.015652,0.03385,1.1979e-06,0.75,0.49,0
0.037045,-0.00029693,0.037199,-0.0010819,0.010835,0.00021709,0,0,0.034273,-0.015492,0,0.00056442,0,0,0,0.037201,-0.0010831,0.010835,0.3249,0.015651,0.033932,1.2041e-06,0.76,0.49,0
0.037388,-0.0002968,0.037255,-0.0011351,0.010836,0.00022567,0,0,0.034345,-0.015562,0,0.00058675,0,0,0,0.037256,-0.0011365,0.010836,0.33679,0.015652,0.034025,1.2111e-06,0.77,0.49,0
0.037731,-0.00029647,0.037321,-0.001194,0.010838,0.00023376,0,0,0.034428,-0.015642,0,0.00060778,0,0,0,0.037322,-0.0011954,0.010838,0.34773,0.015655,0.034131,1.2194e-06,0.78,0.49,0
0.038076,-0.00029597,0.037394,-0.0012593,0.01084,0.00023865,0,0,0.03452,-0.01573,0,0.00062048,0,0,0,0.037396,-0.0012608,0.01084,0.35372,0.015659,0.034249,1.2286e-06,0.79,0.49,0
0.038422,-0.00029533,0.037461,-0.0013241,0.010841,0.00024026,0,0,0.034606,-0.015815,0,0.00062467,0,0,0,0.037462,-0.0013255,0.010841,0.35491,0.015659,0.03436,1.2372e-06,0.8,0.49,0
0.038768,-0.00029436,0.037504,-0.0013559,0.010844,0.00025531,0,0,0.034658,-0.01586,0,0.00066382,0,0,0,0.037506,-0.0013576,0.010844,0.37642,0.015664,0.034424,1.2424e-06,0.81,0.49,0
0.039115,-0.00029238,0.037497,-0.0013415,0.010847,0.00035371,0,0,0.034645,-0.015845,0,0.00091964,0,0,0,0.0375,-0.0013447,0.010847,0.52175,0.015667,0.034409,1.2414e-06,0.82,0.49,0
0.039461,-0.00028702,0.037661,-0.0012155,0.010934,0.0006211,0,0,0.034746,-0.015794,0,0.0016149,0,0,0,0.037671,-0.0012254,0.010934,0.91506,0.015793,0.034465,1.2545e-06,0.83,0.49,0
0.03981,-0.00027698,0.03813,-0.0014918,0.010991,0.00076564,0,0,0.03528,-0.016228,0,0.0019907,0,0,0,0.038145,-0.0015066,0.010991,1.1066,0.015877,0.035112,1.3111e-06,0.84,0.49,0
0.040167,-0.00028642,0.034592,0.00061754,0.010563,0.0020036,0,0,0.042843,-0.017478,0,0.0080629,0,0,0,0.034726,0.00048332,0.010563,3.7062,0.015258,0.030481,1.1145e-06,0.85,0.49,0
0.040631,-0.00021616,0.043018,0.0025427,0.013668,-0.00036948,0,0,0.053098,-0.019696,0,-0.00071039,0,0,0,0.043027,0.0025334,0.013668,-0.35676,0.019743,0.036236,1.9233e-06,0.86,0.49,0
0.041295,-4.9926e-05,0.038288,0.003948,0.012671,0.00070391,0,0,0.066604,-0.022679,0,0.0036603,0,0,0,0.038302,0.0039335,0.012671,1.1738,0.018302,0.03094,1.1221e-06,0.87,0.49,0
0.041963,5.6153e-05,0.038062,0.0031066,0.012351,0.00012193,0,0,0.06685,-0.024034,0,0.00063403,0,0,0,0.038062,0.0031061,0.012351,0.19985,0.01784,0.031373,1.134e-06,0.88,0.49,0
0.042632,0.00013737,0.037881,0.0025143,0.012119,-0.00014437,0,0,0.066983,-0.024972,0,-0.00075073,0,0,0,0.037882,0.0025137,0.012119,-0.23388,0.017505,0.031677,1.1408e-06,0.89,0.49,0
0.043303,0.00020008,0.037713,0.0020599,0.011932,-0.0003244,0,0,0.067031,-0.025667,0,-0.0016869,0,0,0,0.037716,0.002057,0.011932,-0.52127,0.017235,0.03189,1.143e-06,0.9,0.49,0
0.043973,0.0002487,0.037559,0.0016933,0.011776,-0.00043272,0,0,0.067037,-0.026214,0,-0.0022501,0,0,0,0.037564,0.0016881,0.011776,-0.69113,0.017009,0.032046,1.1428e-06,0.91,0.49,0
0.044644,0.00028632,0.037424,0.0013921,0.011645,-0.00048516,0,0,0.067026,-0.026657,0,-0.0025228,0,0,0,0.03743,0.0013856,0.011645,-0.77128,0.01682,0.032167,1.1415e-06,0.92,0.49,0
0.045314,0.00031531,0.037308,0.0011437,0.011536,-0.00049426,0,0,0.067008,-0.027019,0,-0.0025701,0,0,0,0.037315,0.0011369,0.011536,-0.78286,0.016662,0.032261,1.1398e-06,0.93,0.49,0
0.045984,0.0003375,0.03721,0.00093996,0.011445,-0.00047046,0,0,0.066989,-0.027313,0,-0.0024464,0,0,0,0.037216,0.00093386,0.011445,-0.74301,0.016532,0.032335,1.1379e-06,0.94,0.49,0
0.046653,0.0003543,0.037129,0.00077535,0.011371,-0.0004221,0,0,0.066969,-0.027549,0,-0.0021949,0,0,0,0.037133,0.00077045,0.011371,-0.66515,0.016425,0.032391,1.136e-06,0.95,0.49,0
0.047323,0.00036677,0.037063,0.00064572,0.011313,-0.00035579,0,0,0.066951,-0.027734,0,-0.0018501,0,0,0,0.037066,0.00064224,0.011313,-0.5597,0.01634,0.032433,1.1342e-06,0.96,0.49,0
0.047992,0.00037572,0.037012,0.00054794,0.011268,-0.00027669,0,0,0.066934,-0.027872,0,-0.0014388,0,0,0,0.037014,0.00054584,0.011268,-0.43473,0.016276,0.032464,1.1327e-06,0.97,0.49,0
0.048662,0.00038173,0.036976,0.0004797,0.011237,-0.0001889,0,0,0.066922,-0.027968,0,-0.0009823,0,0,0,0.036977,0.00047873,0.011237,-0.29655,0.016231,0.032484,1.1316e-06,0.98,0.49,0
0.049331,0.00038519,0.036954,0.00043939,0.011218,-9.5735e-05,0,0,0.066914,-0.028025,0,-0.00049782,0,0,0,0.036955,0.00043914,0.011218,-0.15022,0.016204,0.032496,1.1309e-06,0.99,0.49,0
0.05,0.00038631,0.036947,0.00042606,0.011212,2.1672e-05,0,0,0.066911,-0.028043,0,0.00011269,0,0,0,0.036947,0.00042605,0.011212,0.033999,0.016195,0.032499,1.1306e-06,1,0.49,0
0,0,0.028939,0.012402,0.012402,0.00015498,0,0,0.042994,2.7105e-19,0,0.00080588,0,0,0,0.02894,0.012401,0.012402,0.53691,0.017914,0.016539,2.3233e-07,0,0.5,0
0.00042994,8.0588e-06,0.028893,0.011873,0.01223,0.00015451,0,0,0.043324,-0.00092755,0,0.00080344,0,0,0,0.028894,0.011872,0.01223,0.52007,0.017665,0.016846,2.4518e-07,0.01,0.5,0
0.00086648,1.5438e-05,0.02907,0.011447,0.012155,0.0001487,0,0,0.043979,-0.0018412,0,0.00077325,0,0,0,0.029072,0.011446,0.012155,0.4834,0.017558,0.017282,2.6359e-07,0.02,0.5,0
0.0013095,2.2203e-05,0.029247,0.011028,0.012082,0.00014464,0,0,0.044627,-0.0027414,0,0.00075213,0,0,0,0.029248,0.011027,0.012082,0.45484,0.017452,0.017717,2.8219e-07,0.03,0.5,0
0.001759,2.8414e-05,0.029421,0.010615,0.012011,0.00014219,0,0,0.045267,-0.0036284,0,0.00073941,0,0,0,0.029422,0.010614,0.012011,0.43319,0.017349,0.01815,3.0095e-07,0.04,0.5,0
0.0022149,3.4124e-05,0.029595,0.01021,0.011941,0.00014125,0,0,0.045899,-0.0045022,0,0.00073453,0,0,0,0.029596,0.010209,0.011941,0.41747,0.017249,0.018581,3.1986e-07,0.05,0.5,0
0.002677,3.9384e-05,0.029767,0.0098107,0.011873,0.00014173,0,0,0.046524,-0.0053628,0,0.00073701,0,0,0,0.029768,0.0098096,0.011873,0.4069,0.01715,0.019011,3.3889e-07,0.06,0.5,0
0.0031453,4.424e-05,0.029938,0.0094184,0.011807,0.00014355,0,0,0.047141,-0.0062101,0,0.00074647,0,0,0,0.029939,0.0094174,0.011807,0.40081,0.017054,0.019437,3.5801e-07,0.07,0.5,0
0.0036198,4.8733e-05,0.030107,0.009033,0.011742,0.00014665,0,0,0.04775,-0.0070437,0,0.00076258,0,0,0,0.030108,0.009032,0.011742,0.39868,0.016961,0.019861,3.7721e-07,0.08,0.5,0
0.0041003,5.2902e-05,0.030276,0.0086547,0.011679,0.00015098,0,0,0.048351,-0.0078635,0,0.00078509,0,0,0,0.030277,0.0086537,0.011679,0.40007,0.01687,0.02028,3.9645e-07,0.09,0.5,0
0.0045868,5.6781e-05,0.030443,0.0082837,0.011618,0.0001565,0,0,0.048945,-0.008669,0,0.0008138,0,0,0,0.030444,0.0082826,0.011618,0.40463,0.016782,0.020696,4.1571e-07,0.1,0.5,0
0.0050792,6.0406e-05,0.030608,0.0079202,0.011559,0.00016318,0,0,0.049529,-0.0094597,0,0.00084856,0,0,0,0.03061,0.007919,0.011559,0.41207,0.016696,0.021107,4.3497e-07,0.11,0.5,0
0.0055774,6.3805e-05,0.030773,0.0075644,0.011501,0.00017102,0,0,0.050106,-0.010235,0,0.00088929,0,0,0,0.030774,0.0075631,0.011501,0.42217,0.016613,0.021514,4.5419e-07,0.12,0.5,0
0.0060813,6.7006e-05,0.030935,0.0072166,0.011446,0.00017998,0,0,0.050673,-0.010995,0,0.00093592,0,0,0,0.030937,0.0072152,0.011446,0.43475,0.016532,0.021915,4.7336e-07,0.13,0.5,0
0.0065909,7.0036e-05,0.031096,0.0068769,0.011392,0.00019009,0,0,0.051232,-0.011739,0,0.00098847,0,0,0,0.031098,0.0068755,0.011392,0.44966,0.016455,0.02231,4.9244e-07,0.14,0.5,0
0.007106,7.2919e-05,0.031256,0.0065458,0.011341,0.00020134,0,0,0.051781,-0.012467,0,0.001047,0,0,0,0.031258,0.0065442,0.011341,0.46679,0.016381,0.022699,5.1142e-07,0.15,0.5,0
0.0076265,7.5677e-05,0.031415,0.0062235,0.011291,0.00021374,0,0,0.05232,-0.013177,0,0.0011114,0,0,0,0.031416,0.0062217,0.011291,0.48609,0.01631,0.023081,5.3028e-07,0.16,0.5,0
0.0081524,7.8329e-05,0.031572,0.0059101,0.011244,0.00022732,0,0,0.05285,-0.013869,0,0.0011821,0,0,0,0.031574,0.0059081,0.011244,0.50749,0.016242,0.023457,5.49e-07,0.17,0.5,0
0.0086835,8.0896e-05,0.031727,0.0056061,0.0112,0.0002421,0,0,0.053371,-0.014544,0,0.0012589,0,0,0,0.031729,0.0056038,0.0112,0.53097,0.016178,0.023826,5.6755e-07,0.18,0.5,0
0.0092198,8.3392e-05,0.031882,0.0053115,0.011158,0.00025812,0,0,0.053881,-0.015201,0,0.0013422,0,0,0,0.031884,0.005309,0.011158,0.55654,0.016117,0.024187,5.8594e-07,0.19,0.5,0
0.0097611,8.5833e-05,0.032035,0.0050268,0.011118,0.00027541,0,0,0.054382,-0.015838,0,0.0014321,0,0,0,0.032037,0.005024,0.011118,0.58419,0.01606,0.024541,6.0415e-07,0.2,0.5,0
0.010307,8.8231e-05,0.032187,0.0047521,0.011082,0.00029403,0,0,0.054873,-0.016457,0,0.0015289,0,0,0,0.03219,0.0047489,0.011082,0.61396,0.016007,0.024887,6.2217e-07,0.21,0.5,0
0.010859,9.0597e-05,0.032338,0.0044877,0.011048,0.00031401,0,0,0.055355,-0.017056,0,0.0016329,0,0,0,0.032342,0.0044841,0.011048,0.6459,0.015958,0.025225,6.3999e-07,0.22,0.5,0
0.011414,9.2939e-05,0.032489,0.0042337,0.011017,0.00033542,0,0,0.055828,-0.017636,0,0.0017442,0,0,0,0.032493,0.0042298,0.011017,0.68005,0.015913,0.025555,6.5763e-07,0.23,0.5,0
0.011975,9.5263e-05,0.032639,0.0039906,0.010989,0.00035832,0,0,0.056291,-0.018196,0,0.0018633,0,0,0,0.032644,0.0039861,0.010989,0.71647,0.015873,0.025877,6.7508e-07,0.24,0.5,0
0.01254,9.7569e-05,0.032789,0.0037585,0.010964,0.00038275,0,0,0.056745,-0.018735,0,0.0019903,0,0,0,0.032794,0.0037535,0.010964,0.75523,0.015838,0.026191,6.9235e-07,0.25,0.5,0
0.01311,9.9857e-05,0.03294,0.0035377,0.010943,0.00040879,0,0,0.057191,-0.019255,0,0.0021257,0,0,0,0.032946,0.003532,0.010943,0.7964,0.015807,0.026497,7.0944e-07,0.26,0.5,0
0.013684,0.00010212,0.033091,0.0033285,0.010926,0.00043649,0,0,0.057629,-0.019753,0,0.0022697,0,0,0,0.033097,0.0033221,0.010926,0.84005,0.015782,0.026795,7.2638e-07,0.27,0.5,0
0.014263,0.00010435,0.033242,0.0031312,0.010912,0.0004659,0,0,0.058059,-0.02023,0,0.0024227,0,0,0,0.03325,0.003124,0.010912,0.88623,0.015762,0.027085,7.4317e-07,0.28,0.5,0
0.014845,0.00010652,0.033395,0.0029462,0.010902,0.00049706,0,0,0.058481,-0.020686,0,0.0025847,0,0,0,0.033403,0.0029381,0.010902,0.93498,0.015748,0.027366,7.5984e-07,0.29,0.5,0
0.015432,0.00010862,0.03355,0.002774,0.010897,0.00053001,0,0,0.058897,-0.02112,0,0.002756,0,0,0,0.033559,0.0027648,0.010897,0.98633,0.01574,0.02764,7.764e-07,0.3,0.5,0
0.016023,0.0001106,0.033706,0.0026149,0.010896,0.00056473,0,0,0.059306,-0.021532,0,0.0029366,0,0,0,0.033717,0.0026047,0.010896,1.0402,0.015739,0.027906,7.9286e-07,0.31,0.5,0
0.016618,0.00011242,0.033865,0.0024697,0.010901,0.0006012,0,0,0.059708,-0.02192,0,0.0031263,0,0,0,0.033877,0.0024582,0.010901,1.0966,0.015745,0.028163,8.0925e-07,0.32,0.5,0
0.017218,0.00011401,0.034027,0.0023391,0.01091,0.00063933,0,0,0.060105,-0.022284,0,0.0033245,0,0,0,0.03404,0.0023262,0.01091,1.1554,0.015759,0.028412,8.2557e-07,0.33,0.5,0
0.01782,0.0001153,0.034192,0.0022238,0.010925,0.00067895,0,0,0.060495,-0.022623,0,0.0035305,0,0,0,0.034207,0.0022094,0.010925,1.2161,0.01578,0.028651,8.4184e-07,0.34,0.5,0
0.018427,0.00011618,0.034361,0.0021251,0.010946,0.00071978,0,0,0.060879,-0.022934,0,0.0037429,0,0,0,0.034377,0.002109,0.010946,1.2785,0.015811,0.028882,8.5806e-07,0.35,0.5,0
0.019038,0.00011652,0.034533,0.0020441,0.010973,0.00076141,0,0,0.061256,-0.023216,0,0.0039594,0,0,0,0.034551,0.0020263,0.010973,1.3418,0.01585,0.029102,8.742e-07,0.36,0.5,0
0.019652,0.00011614,0.03471,0.0019825,0.011008,0.00080322,0,0,0.061626,-0.023466,0,0.0041768,0,0,0,0.03473,0.0019628,0.011008,1.4051,0.0159,0.029311,8.9024e-07,0.37,0.5,0
0.020271,0.00011482,0.034892,0.0019423,0.01105,0.0008443,0,0,0.061988,-0.023681,0,0.0043904,0,0,0,0.034913,0.0019207,0.01105,1.4669,0.015961,0.029507,9.0612e-07,0.38,0.5,0
0.020892,0.00011228,0.035077,0.0019259,0.011101,0.00088335,0,0,0.062339,-0.023855,0,0.0045934,0,0,0,0.035101,0.0019023,0.011101,1.5252,0.016035,0.029688,9.2176e-07,0.39,0.5,0
0.021517,0.00010815,0.035267,0.0019361,0.011161,0.0009185,0,0,0.062676,-0.023985,0,0.0047762,0,0,0,0.035293,0.0019108,0.011161,1.5773,0.016122,0.029852,9.3701e-07,0.4,0.5,0
0.022146,0.00010195,0.035461,0.0019768,0.011231,0.00094713,0,0,0.062997,-0.024062,0,0.0049251,0,0,0,0.035488,0.0019501,0.011231,1.6189,0.016223,0.029994,9.5167e-07,0.41,0.5,0
0.022777,9.3076e-05,0.035657,0.0020524,0.011313,0.00096547,0,0,0.063296,-0.024077,0,0.0050205,0,0,0,0.035685,0.0020247,0.011313,1.6443,0.016341,0.030111,9.6545e-07,0.42,0.5,0
0.023412,8.0725e-05,0.035855,0.0021686,0.011407,0.00096811,0,0,0.063565,-0.02402,0,0.0050342,0,0,0,0.035883,0.0021408,0.011407,1.6448,0.016477,0.030195,9.7798e-07,0.43,0.5,0
0.024049,6.3839e-05,0.036053,0.0023322,0.011516,0.00094712,0,0,0.063798,-0.023877,0,0.004925,0,0,0,0.03608,0.0023056,0.011516,1.6076,0.016634,0.03024,9.8875e-07,0.44,0.5,0
0.024688,4.1018e-05,0.036251,0.0025516,0.011641,0.00089085,0,0,0.063986,-0.023632,0,0.0046324,0,0,0,0.036274,0.0025281,0.011641,1.5132,0.016814,0.030238,9.9728e-07,0.45,0.5,0
0.025328,1.0397e-05,0.036453,0.0028367,0.011787,0.00078231,0,0,0.064132,-0.023271,0,0.004068,0,0,0,0.036471,0.0028185,0.011787,1.3324,0.017026,0.030185,1.0035e-06,0.46,0.5,0
0.02597,-3.0489e-05,0.036685,0.003198,0.011965,0.00060195,0,0,0.064272,-0.022794,0,0.0031301,0,0,0,0.036696,0.0031872,0.011965,1.0295,0.017282,0.030095,1.0089e-06,0.47,0.5,0
0.026614,-8.4394e-05,0.036975,0.0036245,0.01218,0.00033734,0,0,0.064468,-0.022244,0,0.0017541,0,0,0,0.036979,0.0036211,0.01218,0.57946,0.017593,0.030008,1.0166e-06,0.48,0.5,0
0.02726,-0.00015384,0.0374,0.0041719,0.012471,-1.025e-05,0,0,0.064814,-0.021579,0,-5.33e-05,0,0,0,0.0374,0.0041719,0.012471,-0.017674,0.018014,0.029953,1.0313e-06,0.49,0.5,0
0.02791,-0.00024234,0.037797,0.004952,0.012825,-0.00045613,0,0,0.064928,-0.020469,0,-0.0023719,0,0,0,0.037803,0.0049457,0.012825,-0.79548,0.018525,0.029712,1.0346e-06,0.5,0.5,0
0.028558,-0.00035177,0.03721,0.0024421,0.011896,-7.8038e-06,0,0,0.049113,-0.016386,0,-0.0011275,0,0,0,0.037231,0.0024214,0.011896,-0.15553,0.017183,0.031244,1.0546e-06,0.51,0.5,0
0.028892,-0.00039518,0.03757,1.0414e-05,0.011274,-0.00039845,0,0,0.034185,-0.014643,0,-0.001036,0,0,0,0.037574,6.1871e-06,0.011274,-0.60773,0.016285,0.033392,1.2041e-06,0.52,0.5,0
0.029242,-0.00039289,0.03779,-0.00079293,0.011099,0.00016936,0,0,0.034698,-0.01546,0,0.00044033,0,0,0,0.037791,-0.00079367,0.011099,0.25149,0.016032,0.034225,1.2522e-06,0.53,0.5,0
0.029586,-0.00039652,0.037324,-0.00054246,0.011035,4.0706e-05,0,0,0.034177,-0.01505,0,0.00010584,0,0,0,0.037325,-0.0005425,0.011035,0.061592,0.015939,0.033609,1.1985e-06,0.54,0.5,0
0.029925,-0.00040148,0.036961,-0.00056605,0.010918,7.505e-05,0,0,0.033855,-0.01493,0,0.00019513,0,0,0,0.036961,-0.0005662,0.010918,0.11459,0.015771,0.033304,1.1647e-06,0.55,0.5,0
0.030263,-0.00040557,0.036869,-0.00062866,0.010872,0.00010891,0,0,0.033796,-0.014951,0,0.00028317,0,0,0,0.036869,-0.00062898,0.010872,0.16641,0.015704,0.033274,1.1582e-06,0.56,0.5,0
0.030601,-0.00040906,0.036868,-0.00066278,0.010862,0.00011349,0,0,0.033808,-0.014982,0,0.00029507,0,0,0,0.036868,-0.00066312,0.010862,0.17325,0.015689,0.0333,1.1592e-06,0.57,0.5,0
0.03094,-0.00041241,0.036874,-0.00067894,0.010859,0.00010508,0,0,0.03382,-0.014999,0,0.00027321,0,0,0,0.036875,-0.00067924,0.010859,0.16032,0.015685,0.033319,1.1603e-06,0.58,0.5,0
0.031278,-0.00041574,0.036877,-0.00068547,0.010857,9.7148e-05,0,0,0.033825,-0.015006,0,0.00025258,0,0,0,0.036877,-0.00068572,0.010857,0.14818,0.015683,0.033326,1.1607e-06,0.59,0.5,0
0.031616,-0.00041906,0.036877,-0.00069041,0.010856,9.2612e-05,0,0,0.033827,-0.01501,0,0.00024079,0,0,0,0.036877,-0.00069064,0.010856,0.14125,0.015681,0.03333,1.1609e-06,0.6,0.5,0
0.031954,-0.00042232,0.036877,-0.00069613,0.010854,9.0756e-05,0,0,0.03383,-0.015016,0,0.00023597,0,0,0,0.036877,-0.00069635,0.010854,0.13839,0.015679,0.033335,1.1611e-06,0.61,0.5,0
0.032293,-0.00042551,0.03688,-0.00070284,0.010853,9.0519e-05,0,0,0.033835,-0.015023,0,0.00023535,0,0,0,0.03688,-0.00070305,0.010853,0.138,0.015677,0.033342,1.1615e-06,0.62,0.5,0
0.032631,-0.0004286,0.036884,-0.00071037,0.010852,9.1489e-05,0,0,0.033841,-0.015031,0,0.00023787,0,0,0,0.036884,-0.00071059,0.010852,0.13943,0.015675,0.033352,1.1622e-06,0.63,0.5,0
0.032969,-0.00043157,0.03689,-0.00071882,0.010851,9.379e-05,0,0,0.03385,-0.015041,0,0.00024385,0,0,0,0.03689,-0.00071906,0.010851,0.14289,0.015674,0.033364,1.163e-06,0.64,0.5,0
0.033308,-0.0004344,0.036898,-0.00072875,0.010851,9.7724e-05,0,0,0.033861,-0.015053,0,0.00025408,0,0,0,0.036898,-0.000729,0.010851,0.14881,0.015673,0.033379,1.1641e-06,0.65,0.5,0
0.033647,-0.00043706,0.036908,-0.00074106,0.01085,0.00010347,0,0,0.033875,-0.015068,0,0.00026903,0,0,0,0.036908,-0.00074134,0.01085,0.15747,0.015672,0.033398,1.1654e-06,0.66,0.5,0
0.033986,-0.00043951,0.036921,-0.00075679,0.010849,0.00011093,0,0,0.033893,-0.015088,0,0.00028841,0,0,0,0.036921,-0.00075712,0.010849,0.16868,0.015671,0.033422,1.1671e-06,0.67,0.5,0
0.034325,-0.00044174,0.036936,-0.00077686,0.010848,0.00011966,0,0,0.033915,-0.015112,0,0.00031111,0,0,0,0.036937,-0.00077724,0.010848,0.18179,0.015669,0.033452,1.1693e-06,0.68,0.5,0
0.034664,-0.00044373,0.036956,-0.00080184,0.010846,0.000129,0,0,0.033942,-0.015142,0,0.00033539,0,0,0,0.036956,-0.00080228,0.010846,0.19575,0.015667,0.03349,1.1719e-06,0.69,0.5,0
0.035003,-0.00044547,0.036979,-0.0008318,0.010844,0.00013818,0,0,0.033975,-0.015179,0,0.00035926,0,0,0,0.036979,-0.00083231,0.010844,0.20938,0.015664,0.033534,1.175e-06,0.7,0.5,0
0.035343,-0.00044699,0.037005,-0.00086639,0.010842,0.00014651,0,0,0.034013,-0.01522,0,0.00038093,0,0,0,0.037006,-0.00086696,0.010842,0.22165,0.01566,0.033586,1.1786e-06,0.71,0.5,0
0.035684,-0.00044829,0.037035,-0.00090493,0.010839,0.00015355,0,0,0.034055,-0.015267,0,0.00039922,0,0,0,0.037036,-0.00090555,0.010839,0.23187,0.015657,0.033644,1.1827e-06,0.72,0.5,0
0.036024,-0.00044941,0.037069,-0.00094662,0.010837,0.00015913,0,0,0.034102,-0.015318,0,0.00041373,0,0,0,0.03707,-0.00094729,0.010837,0.23983,0.015653,0.033707,1.1872e-06,0.73,0.5,0
0.036366,-0.00045038,0.037106,-0.0009909,0.010835,0.00016336,0,0,0.034153,-0.015373,0,0.00042473,0,0,0,0.037107,-0.00099161,0.010835,0.24568,0.01565,0.033775,1.1922e-06,0.74,0.5,0
0.036707,-0.0004512,0.037147,-0.0010376,0.010833,0.00016644,0,0,0.034208,-0.015432,0,0.00043275,0,0,0,0.037148,-0.0010384,0.010833,0.24974,0.015647,0.033849,1.1976e-06,0.75,0.5,0
0.03705,-0.00045189,0.037193,-0.0010872,0.010832,0.00016841,0,0,0.03427,-0.015495,0,0.00043787,0,0,0,0.037194,-0.001088,0.010832,0.25206,0.015646,0.03393,1.2036e-06,0.76,0.5,0
0.037393,-0.00045246,0.037245,-0.0011405,0.010831,0.00016885,0,0,0.034338,-0.015563,0,0.00043901,0,0,0,0.037246,-0.0011412,0.010831,0.25202,0.015645,0.03402,1.2103e-06,0.77,0.5,0
0.037737,-0.00045292,0.037305,-0.001198,0.010832,0.000167,0,0,0.034415,-0.015639,0,0.00043421,0,0,0,0.037305,-0.0011987,0.010832,0.24851,0.015646,0.034119,1.2179e-06,0.78,0.5,0
0.038081,-0.00045326,0.037371,-0.001258,0.010834,0.00016324,0,0,0.034498,-0.015719,0,0.00042442,0,0,0,0.037372,-0.0012587,0.010834,0.24211,0.015649,0.034225,1.2262e-06,0.79,0.5,0
0.038427,-0.00045339,0.037446,-0.0013135,0.01084,0.00016326,0,0,0.034588,-0.015799,0,0.00042448,0,0,0,0.037447,-0.0013142,0.01084,0.24133,0.015657,0.034337,1.2353e-06,0.8,0.5,0
0.038773,-0.00045303,0.037546,-0.0013567,0.010857,0.00018614,0,0,0.034696,-0.015877,0,0.00048397,0,0,0,0.037547,-0.0013575,0.010857,0.27414,0.015682,0.034461,1.2465e-06,0.81,0.5,0
0.039121,-0.00045149,0.037756,-0.001376,0.010914,0.00025761,0,0,0.034894,-0.015977,0,0.00066978,0,0,0,0.037757,-0.0013777,0.010914,0.37716,0.015765,0.034664,1.268e-06,0.82,0.5,0
0.039471,-0.0004481,0.038238,-0.0014331,0.011042,0.00035182,0,0,0.035356,-0.016217,0,0.00091473,0,0,0,0.038241,-0.0014362,0.011042,0.50807,0.015949,0.035141,1.3187e-06,0.83,0.5,0
0.039828,-0.00044508,0.038774,-0.0017096,0.011119,0.00030208,0,0,0.035951,-0.016678,0,0.0007854,0,0,0,0.038777,-0.0017118,0.011119,0.42749,0.016061,0.035839,1.3834e-06,0.84,0.5,0
0.04019,-0.00044683,0.038657,-0.00068734,0.011391,0.00095924,0,0,0.035446,-0.015702,0,0.002494,0,0,0,0.03868,-0.00071071,0.011391,1.3958,0.016453,0.034948,1.3391e-06,0.85,0.5,0
0.040537,-0.00040076,0.038315,0.0018561,0.012051,0.0005386,0,0,0.050951,-0.017672,0,0.0031451,0,0,0,0.038343,0.0018277,0.012051,0.98626,0.017407,0.032706,1.1742e-06,0.86,0.5,0
0.041209,-0.000278,0.039017,0.0045352,0.013066,0.00089642,0,0,0.067474,-0.022179,0,0.0046614,0,0,0,0.03904,0.0045119,0.013066,1.4882,0.018873,0.031145,1.1661e-06,0.87,0.5,0
0.041886,-0.00018378,0.038677,0.0035253,0.012661,0.00038924,0,0,0.067642,-0.023752,0,0.002024,0,0,0,0.038681,0.003521,0.012661,0.63434,0.018288,0.031598,1.1749e-06,0.88,0.5,0
0.042562,-0.00011232,0.038319,0.0027725,0.012327,5.6212e-05,0,0,0.067577,-0.024842,0,0.0002923,0,0,0,0.038319,0.0027724,0.012327,0.090607,0.017806,0.031862,1.1715e-06,0.89,0.5,0
0.043237,-5.7048e-05,0.038094,0.0022181,0.012094,-0.00015527,0,0,0.0676,-0.025676,0,-0.0008074,0,0,0,0.038094,0.0022175,0.012094,-0.24797,0.017469,0.032099,1.1723e-06,0.9,0.5,0
0.043914,-1.4392e-05,0.037923,0.001781,0.011911,-0.00028807,0,0,0.067631,-0.026339,0,-0.0014979,0,0,0,0.037926,0.0017787,0.011911,-0.45663,0.017205,0.032296,1.1733e-06,0.91,0.5,0
0.04459,1.8403e-05,0.037783,0.0014279,0.011763,-0.00036063,0,0,0.067651,-0.026872,0,-0.0018753,0,0,0,0.037787,0.0014243,0.011763,-0.56828,0.016991,0.032452,1.1735e-06,0.92,0.5,0
0.045267,4.3476e-05,0.037664,0.001141,0.011641,-0.00038738,0,0,0.067658,-0.027301,0,-0.0020144,0,0,0,0.037668,0.0011369,0.011641,-0.60762,0.016815,0.032575,1.1728e-06,0.93,0.5,0
0.045943,6.2503e-05,0.037562,0.00090882,0.011541,-0.00037974,0,0,0.067653,-0.027644,0,-0.0019746,0,0,0,0.037566,0.00090489,0.011541,-0.59352,0.016671,0.032668,1.1716e-06,0.94,0.5,0
0.04662,7.6783e-05,0.037476,0.00072352,0.01146,-0.00034676,0,0,0.067641,-0.027914,0,-0.0018031,0,0,0,0.037479,0.00072025,0.01146,-0.54053,0.016553,0.032738,1.17e-06,0.95,0.5,0
0.047296,8.7303e-05,0.037405,0.00057911,0.011395,-0.0002955,0,0,0.067625,-0.028122,0,-0.0015366,0,0,0,0.037407,0.00057674,0.011395,-0.45971,0.01646,0.032788,1.1683e-06,0.96,0.5,0
0.047972,9.48e-05,0.03735,0.00047111,0.011346,-0.00023138,0,0,0.067609,-0.028275,0,-0.0012032,0,0,0,0.037351,0.00046966,0.011346,-0.35947,0.016389,0.032824,1.1668e-06,0.97,0.5,0
0.048648,9.9803e-05,0.03731,0.00039622,0.011312,-0.00015863,0,0,0.067595,-0.02838,0,-0.00082488,0,0,0,0.03731,0.00039553,0.011312,-0.24621,0.016339,0.032847,1.1655e-06,0.98,0.5,0
0.049324,0.00010267,0.037286,0.00035217,0.011291,-8.0575e-05,0,0,0.067586,-0.028442,0,-0.00041899,0,0,0,0.037286,0.00035199,0.011291,-0.125,0.01631,0.03286,1.1647e-06,0.99,0.5,0
0.05,0.0001036,0.037278,0.00033763,0.011285,1.7944e-05,0,0,0.067582,-0.028462,0,9.3308e-05,0,0,0,0.037278,0.00033762,0.011285,0.027832,0.0163,0.032864,1.1644e-06,1,0.5,0
0,0,0.028958,0.01241,0.01241,-2.3806e-05,0,0,0.043023,-4.3368e-19,0,-0.00012379,0,0,0,0.028958,0.01241,0.01241,-0.082429,0.017926,0.016547,2.3271e-07,0,0.51,0
0.00043023,-1.2379e-06,0.028912,0.011879,0.012237,-2.4075e-05,0,0,0.043354,-0.0009316,0,-0.00012519,0,0,0,0.028912,0.011879,0.012237,-0.080985,0.017676,0.016857,2.4563e-07,0.01,0.51,0
0.00086708,-3.0152e-06,0.02909,0.011451,0.012162,-2.8419e-05,0,0,0.044012,-0.0018491,0,-0.00014778,0,0,0,0.02909,0.011451,0.012162,-0.092311,0.017568,0.017294,2.6415e-07,0.02,0.51,0
0.0013105,-5.2705e-06,0.029267,0.011031,0.012089,-3.1122e-05,0,0,0.044662,-0.0027528,0,-0.00016183,0,0,0,0.029267,0.01103,0.012089,-0.097778,0.017462,0.017731,2.8286e-07,0.03,0.51,0
0.0017603,-7.9467e-06,0.029443,0.010616,0.012018,-3.2275e-05,0,0,0.045305,-0.0036432,0,-0.00016783,0,0,0,0.029443,0.010616,0.012018,-0.098227,0.017359,0.018166,3.0173e-07,0.04,0.51,0
0.0022166,-1.0991e-05,0.029617,0.010209,0.011948,-3.1958e-05,0,0,0.045939,-0.0045202,0,-0.00016618,0,0,0,0.029617,0.010209,0.011948,-0.094346,0.017258,0.018599,3.2074e-07,0.05,0.51,0
0.0026791,-1.4352e-05,0.02979,0.0098089,0.01188,-3.0235e-05,0,0,0.046567,-0.0053839,0,-0.00015722,0,0,0,0.02979,0.0098088,0.01188,-0.086698,0.017159,0.01903,3.3988e-07,0.06,0.51,0
0.0031479,-1.7984e-05,0.029962,0.0094153,0.011813,-2.7163e-05,0,0,0.047186,-0.0062342,0,-0.00014125,0,0,0,0.029962,0.0094153,0.011813,-0.075746,0.017063,0.019459,3.5911e-07,0.07,0.51,0
0.0036228,-2.1843e-05,0.030132,0.0090287,0.011748,-2.279e-05,0,0,0.047798,-0.0070709,0,-0.00011851,0,0,0,0.030132,0.0090286,0.011748,-0.061874,0.01697,0.019884,3.7841e-07,0.08,0.51,0
0.0041039,-2.5887e-05,0.030301,0.0086492,0.011685,-1.7156e-05,0,0,0.048402,-0.0078936,0,-8.9213e-05,0,0,0,0.030301,0.0086491,0.011685,-0.045399,0.016879,0.020305,3.9776e-07,0.09,0.51,0
0.0045909,-3.0077e-05,0.030469,0.008277,0.011624,-1.0297e-05,0,0,0.048998,-0.008702,0,-5.3542e-05,0,0,0,0.030469,0.0082769,0.011624,-0.026584,0.01679,0.020723,4.1714e-07,0.1,0.51,0
0.0050838,-3.4375e-05,0.030636,0.0079123,0.011565,-2.2392e-06,0,0,0.049586,-0.0094957,0,-1.1644e-05,0,0,0,0.030636,0.0079123,0.011565,-0.0056458,0.016704,0.021136,4.3651e-07,0.11,0.51,0
0.0055826,-3.8748e-05,0.030801,0.0075553,0.011507,6.9925e-06,0,0,0.050165,-0.010274,0,3.6361e-05,0,0,0,0.030801,0.0075553,0.011507,0.017235,0.016621,0.021544,4.5585e-07,0.12,0.51,0
0.0060871,-4.3161e-05,0.030965,0.0072064,0.011451,1.7379e-05,0,0,0.050736,-0.011037,0,9.0372e-05,0,0,0,0.030965,0.0072063,0.011451,0.041911,0.016541,0.021947,4.7515e-07,0.13,0.51,0
0.0065973,-4.7586e-05,0.031128,0.0068656,0.011398,2.8907e-05,0,0,0.051297,-0.011784,0,0.00015032,0,0,0,0.031128,0.0068656,0.011398,0.068264,0.016464,0.022343,4.9437e-07,0.14,0.51,0
0.0071131,-5.1992e-05,0.031289,0.0065334,0.011347,4.1564e-05,0,0,0.05185,-0.012515,0,0.00021614,0,0,0,0.031289,0.0065333,0.011347,0.096198,0.01639,0.022735,5.1349e-07,0.15,0.51,0
0.0076343,-5.6354e-05,0.031449,0.0062099,0.011298,5.5346e-05,0,0,0.052393,-0.013228,0,0.0002878,0,0,0,0.031449,0.0062097,0.011298,0.12564,0.016319,0.023119,5.325e-07,0.16,0.51,0
0.0081609,-6.0646e-05,0.031608,0.0058954,0.011251,7.0249e-05,0,0,0.052927,-0.013924,0,0.0003653,0,0,0,0.031608,0.0058952,0.011251,0.15654,0.016251,0.023497,5.5138e-07,0.17,0.51,0
0.0086929,-6.4847e-05,0.031765,0.0055901,0.011206,8.6275e-05,0,0,0.053452,-0.014603,0,0.00044863,0,0,0,0.031765,0.0055899,0.011206,0.18885,0.016187,0.023868,5.7011e-07,0.18,0.51,0
0.00923,-6.8935e-05,0.031921,0.0052944,0.011165,0.00010343,0,0,0.053967,-0.015263,0,0.00053784,0,0,0,0.031922,0.005294,0.011165,0.22256,0.016127,0.024232,5.8869e-07,0.19,0.51,0
0.0097722,-7.2893e-05,0.032077,0.0050085,0.011126,0.00012173,0,0,0.054473,-0.015904,0,0.00063298,0,0,0,0.032077,0.0050079,0.011126,0.25765,0.01607,0.024588,6.071e-07,0.2,0.51,0
0.010319,-7.6704e-05,0.032231,0.0047325,0.011089,0.00014118,0,0,0.05497,-0.016527,0,0.00073411,0,0,0,0.032232,0.0047318,0.011089,0.29414,0.016018,0.024937,6.2533e-07,0.21,0.51,0
0.010872,-8.0355e-05,0.032385,0.0044668,0.011056,0.0001618,0,0,0.055457,-0.017131,0,0.00084134,0,0,0,0.032386,0.0044659,0.011056,0.33203,0.015969,0.025278,6.434e-07,0.22,0.51,0
0.011429,-8.3836e-05,0.032539,0.0042116,0.011025,0.00018361,0,0,0.055936,-0.017715,0,0.00095478,0,0,0,0.03254,0.0042104,0.011025,0.37135,0.015925,0.025612,6.613e-07,0.23,0.51,0
0.01199,-8.7138e-05,0.032692,0.0039671,0.010998,0.00020664,0,0,0.056406,-0.01828,0,0.0010746,0,0,0,0.032694,0.0039656,0.010998,0.41214,0.015886,0.025937,6.7903e-07,0.24,0.51,0
0.012557,-9.0257e-05,0.032846,0.0037336,0.010974,0.00023092,0,0,0.056868,-0.018825,0,0.0012008,0,0,0,0.032848,0.0037317,0.010974,0.45444,0.015851,0.026255,6.9661e-07,0.25,0.51,0
0.013128,-9.3192e-05,0.033,0.0035113,0.010953,0.00025648,0,0,0.057322,-0.01935,0,0.0013337,0,0,0,0.033003,0.0035091,0.010953,0.49828,0.015822,0.026565,7.1405e-07,0.26,0.51,0
0.013703,-9.5947e-05,0.033155,0.0033006,0.010937,0.00028334,0,0,0.057768,-0.019854,0,0.0014734,0,0,0,0.033158,0.0032979,0.010937,0.5437,0.015798,0.026868,7.3136e-07,0.27,0.51,0
0.014283,-9.8529e-05,0.033312,0.0031018,0.010924,0.00031153,0,0,0.058208,-0.020338,0,0.0016199,0,0,0,0.033315,0.0030986,0.010924,0.59075,0.015779,0.027163,7.4856e-07,0.28,0.51,0
0.014867,-0.00010095,0.03347,0.0029153,0.010915,0.00034106,0,0,0.058641,-0.020801,0,0.0017735,0,0,0,0.033474,0.0029115,0.010915,0.63945,0.015767,0.02745,7.6567e-07,0.29,0.51,0
0.015456,-0.00010324,0.03363,0.0027415,0.010911,0.00037195,0,0,0.059068,-0.021242,0,0.0019341,0,0,0,0.033634,0.002737,0.010911,0.6898,0.015761,0.027729,7.8272e-07,0.3,0.51,0
0.016049,-0.00010542,0.033793,0.0025809,0.010912,0.00040417,0,0,0.05949,-0.021661,0,0.0021017,0,0,0,0.033798,0.0025757,0.010912,0.74178,0.015762,0.028001,7.9973e-07,0.31,0.51,0
0.016646,-0.00010753,0.033958,0.0024342,0.010918,0.00043769,0,0,0.059906,-0.022057,0,0.002276,0,0,0,0.033964,0.0024281,0.010918,0.79531,0.01577,0.028265,8.1671e-07,0.32,0.51,0
0.017247,-0.00010962,0.034128,0.0023022,0.010929,0.00047242,0,0,0.060317,-0.02243,0,0.0024566,0,0,0,0.034135,0.0022952,0.010929,0.85026,0.015786,0.02852,8.3368e-07,0.33,0.51,0
0.017852,-0.00011176,0.034301,0.0021858,0.010946,0.00050822,0,0,0.060723,-0.022777,0,0.0026427,0,0,0,0.034309,0.0021777,0.010946,0.90639,0.015811,0.028767,8.5066e-07,0.34,0.51,0
0.018461,-0.00011404,0.034479,0.0020861,0.010969,0.00054484,0,0,0.061124,-0.023096,0,0.0028332,0,0,0,0.034488,0.002077,0.010969,0.96335,0.015845,0.029006,8.6763e-07,0.35,0.51,0
0.019075,-0.00011657,0.034661,0.0020047,0.011,0.00058193,0,0,0.061519,-0.023387,0,0.0030261,0,0,0,0.034671,0.0019944,0.011,1.0206,0.015888,0.029234,8.846e-07,0.36,0.51,0
0.019692,-0.0001195,0.034848,0.0019434,0.011038,0.00061898,0,0,0.061908,-0.023645,0,0.0032187,0,0,0,0.03486,0.0019318,0.011038,1.0773,0.015943,0.029451,9.0152e-07,0.37,0.51,0
0.020313,-0.000123,0.035041,0.0019044,0.011084,0.0006552,0,0,0.062289,-0.023866,0,0.0034071,0,0,0,0.035054,0.0018914,0.011084,1.1323,0.01601,0.029655,9.1832e-07,0.38,0.51,0
0.020937,-0.00012732,0.035238,0.0018905,0.011139,0.00068953,0,0,0.062659,-0.024045,0,0.0035855,0,0,0,0.035253,0.0018762,0.011139,1.184,0.016089,0.029843,9.349e-07,0.39,0.51,0
0.021566,-0.00013276,0.03544,0.0019053,0.011204,0.00072039,0,0,0.063016,-0.024176,0,0.003746,0,0,0,0.035456,0.0018898,0.011204,1.2301,0.016183,0.030013,9.5108e-07,0.4,0.51,0
0.022198,-0.0001397,0.035646,0.0019531,0.01128,0.0007456,0,0,0.063353,-0.024249,0,0.0038771,0,0,0,0.035663,0.0019366,0.01128,1.2671,0.016293,0.03016,9.666e-07,0.41,0.51,0
0.022833,-0.00014867,0.035854,0.0020397,0.011368,0.00076203,0,0,0.063663,-0.024254,0,0.0039625,0,0,0,0.035871,0.0020226,0.011368,1.2903,0.016421,0.030278,9.8107e-07,0.42,0.51,0
0.023471,-0.00016033,0.036061,0.0021723,0.01147,0.00076517,0,0,0.063936,-0.024174,0,0.0039789,0,0,0,0.036078,0.002155,0.01147,1.2928,0.016568,0.030357,9.9391e-07,0.43,0.51,0
0.024112,-0.00017556,0.036262,0.0023599,0.011587,0.00074832,0,0,0.064156,-0.023989,0,0.0038913,0,0,0,0.036278,0.0023434,0.011587,1.2639,0.016736,0.030387,1.0043e-06,0.44,0.51,0
0.024754,-0.00019555,0.03645,0.0026147,0.011719,0.0007008,0,0,0.064299,-0.023672,0,0.0036442,0,0,0,0.036464,0.0026001,0.011719,1.186,0.016928,0.03035,1.0109e-06,0.45,0.51,0
0.025398,-0.00022193,0.036615,0.0029521,0.01187,0.00060454,0,0,0.064337,-0.023187,0,0.0031436,0,0,0,0.036626,0.0029413,0.01187,1.0285,0.017146,0.030226,1.0122e-06,0.46,0.51,0
0.026041,-0.00025706,0.036757,0.0033935,0.012045,0.00042529,0,0,0.064252,-0.022495,0,0.0022115,0,0,0,0.036763,0.0033881,0.012045,0.7302,0.017399,0.029998,1.0071e-06,0.47,0.51,0
0.026683,-0.00030451,0.03694,0.0039655,0.012272,0.00012572,0,0,0.064138,-0.021596,0,0.00065374,0,0,0,0.036941,0.0039651,0.012272,0.21844,0.017726,0.029706,9.9991e-07,0.48,0.51,0
0.027324,-0.00036664,0.037037,0.0044929,0.012459,-0.0002945,0,0,0.063902,-0.020712,0,-0.0015314,0,0,0,0.037039,0.0044902,0.012459,-0.51844,0.017996,0.029386,9.8745e-07,0.49,0.51,0
0.027961,-0.00044134,0.036837,0.0052005,0.012611,-0.0005849,0,0,0.062987,-0.019268,0,-0.0030415,0,0,0,0.036848,0.0051897,0.012611,-1.0588,0.018216,0.028677,9.4323e-07,0.5,0.51,0
0.028583,-0.00050876,0.03684,0.002647,0.011846,-0.00053139,0,0,0.048059,-0.015945,0,-0.0024875,0,0,0,0.036853,0.0026344,0.011846,-0.96788,0.017111,0.030727,1.0246e-06,0.51,0.51,0
0.028922,-0.00053745,0.036909,-0.00011352,0.011039,0.00020972,0,0,0.033631,-0.014498,0,0.00054528,0,0,0,0.03691,-0.0001147,0.011039,0.32455,0.015945,0.032898,1.1453e-06,0.52,0.51,0
0.029256,-0.00054583,0.036631,-0.00068907,0.010782,0.00034132,0,0,0.033603,-0.014913,0,0.00088742,0,0,0,0.036634,-0.00069219,0.010782,0.52395,0.015575,0.033115,1.1382e-06,0.53,0.51,0
0.029594,-0.0005476,0.036861,-0.00067723,0.010855,0.00021797,0,0,0.033808,-0.014992,0,0.00056671,0,0,0,0.036862,-0.00067849,0.010855,0.33268,0.01568,0.033307,1.1591e-06,0.54,0.51,0
0.029932,-0.00055118,0.036878,-0.00062505,0.010876,0.00012163,0,0,0.033803,-0.014951,0,0.00031623,0,0,0,0.036878,-0.00062545,0.010876,0.18582,0.01571,0.033279,1.1589e-06,0.55,0.51,0
0.03027,-0.00055508,0.036851,-0.00063375,0.010865,0.00010707,0,0,0.033781,-0.014948,0,0.00027837,0,0,0,0.036851,-0.00063406,0.010865,0.16365,0.015694,0.033261,1.1566e-06,0.56,0.51,0
0.030608,-0.00055878,0.036846,-0.00065458,0.010858,0.00010571,0,0,0.033785,-0.014966,0,0.00027485,0,0,0,0.036846,-0.00065488,0.010858,0.16151,0.015683,0.033274,1.1569e-06,0.57,0.51,0
0.030946,-0.0005623,0.036852,-0.00066984,0.010855,0.00010177,0,0,0.033796,-0.014982,0,0.00026461,0,0,0,0.036852,-0.00067011,0.010855,0.15541,0.015679,0.033291,1.1579e-06,0.58,0.51,0
0.031284,-0.00056574,0.036857,-0.00068005,0.010853,9.6141e-05,0,0,0.033805,-0.014993,0,0.00024997,0,0,0,0.036857,-0.0006803,0.010853,0.14675,0.015677,0.033304,1.1587e-06,0.59,0.51,0
0.031622,-0.00056912,0.036861,-0.00068768,0.010852,9.1346e-05,0,0,0.033812,-0.015001,0,0.0002375,0,0,0,0.036861,-0.0006879,0.010852,0.13939,0.015675,0.033313,1.1593e-06,0.6,0.51,0
0.03196,-0.00057246,0.036864,-0.0006949,0.010851,8.8115e-05,0,0,0.033818,-0.015009,0,0.0002291,0,0,0,0.036865,-0.0006951,0.010851,0.13442,0.015673,0.033322,1.1598e-06,0.61,0.51,0
0.032298,-0.00057572,0.036868,-0.00070261,0.01085,8.6342e-05,0,0,0.033824,-0.015018,0,0.00022449,0,0,0,0.036869,-0.0007028,0.01085,0.13167,0.015672,0.033332,1.1605e-06,0.62,0.51,0
0.032636,-0.0005789,0.036874,-0.00071118,0.010849,8.5842e-05,0,0,0.033833,-0.015028,0,0.00022319,0,0,0,0.036874,-0.00071137,0.010849,0.13086,0.015671,0.033344,1.1613e-06,0.63,0.51,0
0.032975,-0.00058198,0.036881,-0.00072097,0.010848,8.6586e-05,0,0,0.033843,-0.01504,0,0.00022513,0,0,0,0.036881,-0.00072117,0.010848,0.13193,0.015669,0.033358,1.1622e-06,0.64,0.51,0
0.033313,-0.00058494,0.03689,-0.0007325,0.010847,8.864e-05,0,0,0.033855,-0.015054,0,0.00023046,0,0,0,0.03689,-0.00073271,0.010847,0.13499,0.015668,0.033375,1.1634e-06,0.65,0.51,0
0.033652,-0.00058776,0.036901,-0.00074646,0.010846,9.2016e-05,0,0,0.033871,-0.015071,0,0.00023924,0,0,0,0.036901,-0.00074669,0.010846,0.14004,0.015667,0.033396,1.1649e-06,0.66,0.51,0
0.033991,-0.00059042,0.036914,-0.0007636,0.010845,9.6572e-05,0,0,0.03389,-0.015091,0,0.00025109,0,0,0,0.036915,-0.00076384,0.010845,0.14685,0.015665,0.033422,1.1667e-06,0.67,0.51,0
0.03433,-0.00059289,0.036931,-0.00078454,0.010844,0.00010198,0,0,0.033913,-0.015117,0,0.00026515,0,0,0,0.036931,-0.00078481,0.010844,0.15492,0.015663,0.033453,1.169e-06,0.68,0.51,0
0.034669,-0.00059519,0.03695,-0.00080969,0.010842,0.00010776,0,0,0.033941,-0.015147,0,0.00028018,0,0,0,0.036951,-0.00080999,0.010842,0.16351,0.015661,0.033491,1.1716e-06,0.69,0.51,0
0.035008,-0.00059729,0.036973,-0.00083913,0.01084,0.00011337,0,0,0.033973,-0.015183,0,0.00029476,0,0,0,0.036974,-0.00083947,0.01084,0.17178,0.015658,0.033535,1.1747e-06,0.7,0.51,0
0.035348,-0.00059922,0.036999,-0.00087264,0.010838,0.0001183,0,0,0.03401,-0.015224,0,0.00030758,0,0,0,0.037,-0.00087301,0.010838,0.17897,0.015655,0.033585,1.1783e-06,0.71,0.51,0
0.035689,-0.00060098,0.037029,-0.00090979,0.010836,0.00012216,0,0,0.034051,-0.015269,0,0.00031761,0,0,0,0.037029,-0.00091019,0.010836,0.18448,0.015652,0.033641,1.1822e-06,0.72,0.51,0
0.036029,-0.00060261,0.037061,-0.00095007,0.010833,0.0001247,0,0,0.034096,-0.015319,0,0.00032421,0,0,0,0.037062,-0.00095048,0.010833,0.18796,0.015648,0.033702,1.1866e-06,0.73,0.51,0
0.036371,-0.00060411,0.037097,-0.00099307,0.010831,0.00012576,0,0,0.034145,-0.015371,0,0.00032698,0,0,0,0.037097,-0.00099348,0.010831,0.18917,0.015645,0.033768,1.1913e-06,0.74,0.51,0
0.036712,-0.00060551,0.037135,-0.0010386,0.010829,0.00012516,0,0,0.034198,-0.015428,0,0.00032543,0,0,0,0.037136,-0.001039,0.010829,0.18786,0.015642,0.033839,1.1965e-06,0.75,0.51,0
0.037055,-0.00060682,0.037178,-0.0010869,0.010827,0.00012254,0,0,0.034255,-0.015488,0,0.00031862,0,0,0,0.037178,-0.0010873,0.010827,0.18349,0.015639,0.033916,1.202e-06,0.76,0.51,0
0.037397,-0.00060807,0.037224,-0.0011381,0.010826,0.00011731,0,0,0.034317,-0.015553,0,0.00030501,0,0,0,0.037224,-0.0011385,0.010826,0.17521,0.015637,0.033998,1.2081e-06,0.77,0.51,0
0.037741,-0.00060925,0.037275,-0.0011922,0.010825,0.00010895,0,0,0.034385,-0.015622,0,0.00028328,0,0,0,0.037275,-0.0011925,0.010825,0.16228,0.015636,0.034086,1.2147e-06,0.78,0.51,0
0.038085,-0.00061036,0.037332,-0.0012484,0.010825,9.804e-05,0,0,0.034459,-0.015696,0,0.0002549,0,0,0,0.037333,-0.0012487,0.010825,0.1456,0.015636,0.034183,1.2221e-06,0.79,0.51,0
0.03843,-0.00061131,0.037404,-0.0013062,0.010829,8.7761e-05,0,0,0.034547,-0.015776,0,0.00022818,0,0,0,0.037404,-0.0013064,0.010829,0.1299,0.015642,0.034293,1.2309e-06,0.8,0.51,0
0.038776,-0.00061191,0.03751,-0.0013683,0.010842,8.2035e-05,0,0,0.034667,-0.015874,0,0.00021329,0,0,0,0.03751,-0.0013685,0.010842,0.1209,0.015661,0.034437,1.2432e-06,0.81,0.51,0
0.039123,-0.00061191,0.037672,-0.0014568,0.010865,7.3538e-05,0,0,0.03485,-0.016018,0,0.0001912,0,0,0,0.037673,-0.0014569,0.010865,0.10768,0.015693,0.034653,1.2621e-06,0.82,0.51,0
0.039473,-0.00061136,0.037815,-0.0016244,0.010857,2.0228e-05,0,0,0.035045,-0.016226,0,5.2593e-05,0,0,0,0.037815,-0.0016244,0.010857,0.029387,0.015682,0.034914,1.2816e-06,0.83,0.51,0
0.039824,-0.00061054,0.037675,-0.0017426,0.01078,6.8083e-06,0,0,0.034964,-0.016279,0,1.7702e-05,0,0,0,0.037675,-0.0017426,0.01078,0.0098962,0.015571,0.034885,1.2713e-06,0.84,0.51,0
0.040172,-0.00060045,0.038081,-0.00097996,0.01113,0.00029746,0,0,0.035036,-0.015743,0,0.00077339,0,0,0,0.038083,-0.00098223,0.01113,0.43629,0.016077,0.034636,1.2876e-06,0.85,0.51,0
0.040525,-0.00056959,0.038126,0.0022838,0.012123,0.0010125,0,0,0.049972,-0.017054,0,0.0042636,0,0,0,0.038158,0.0022514,0.012123,1.6891,0.017511,0.032192,1.1544e-06,0.86,0.51,0
0.041172,-0.00049351,0.038178,0.004928,0.012932,0.00094319,0,0,0.065641,-0.02081,0,0.0049046,0,0,0,0.038205,0.0049013,0.012932,1.6235,0.018679,0.030103,1.0721e-06,0.87,0.51,0
0.041838,-0.00041889,0.038442,0.003809,0.012675,0.00058072,0,0,0.066993,-0.023052,0,0.0030197,0,0,0,0.038451,0.0037992,0.012675,0.96037,0.018309,0.031177,1.1416e-06,0.88,0.51,0
0.042512,-0.00035948,0.038401,0.0030136,0.012424,0.00023188,0,0,0.06754,-0.024468,0,0.0012058,0,0,0,0.038403,0.003012,0.012424,0.3754,0.017946,0.031749,1.1697e-06,0.89,0.51,0
0.043189,-0.00031344,0.038277,0.0023824,0.012198,-5.4144e-06,0,0,0.067805,-0.02552,0,-2.8155e-05,0,0,0,0.038277,0.0023824,0.012198,-0.0086427,0.017619,0.032131,1.1831e-06,0.9,0.51,0
0.043868,-0.00027808,0.038153,0.0018801,0.01201,-0.00015601,0,0,0.067972,-0.026337,0,-0.00081125,0,0,0,0.038154,0.0018795,0.01201,-0.24642,0.017348,0.032419,1.1911e-06,0.91,0.51,0
0.044548,-0.00025112,0.038038,0.0014762,0.011854,-0.00024279,0,0,0.068077,-0.026982,0,-0.0012625,0,0,0,0.038039,0.0014746,0.011854,-0.38046,0.017123,0.032637,1.1956e-06,0.92,0.51,0
0.045229,-0.00023071,0.037931,0.0011512,0.011725,-0.00028248,0,0,0.068137,-0.027491,0,-0.0014689,0,0,0,0.037934,0.001149,0.011725,-0.44001,0.016936,0.032801,1.1977e-06,0.93,0.51,0
0.045911,-0.00021538,0.037835,0.00089105,0.011618,-0.00028784,0,0,0.068165,-0.02789,0,-0.0014968,0,0,0,0.037838,0.00088881,0.011618,-0.44636,0.016782,0.032923,1.1981e-06,0.94,0.51,0
0.046593,-0.00020398,0.037751,0.00068561,0.011531,-0.0002685,0,0,0.068172,-0.028198,0,-0.0013962,0,0,0,0.037753,0.00068367,0.011531,-0.41501,0.016656,0.03301,1.1974e-06,0.95,0.51,0
0.047274,-0.00019566,0.037679,0.00052698,0.011462,-0.00023168,0,0,0.068166,-0.028431,0,-0.0012048,0,0,0,0.037681,0.00052554,0.011462,-0.35728,0.016556,0.033072,1.1961e-06,0.96,0.51,0
0.047956,-0.00018978,0.037622,0.00040925,0.011409,-0.00018279,0,0,0.068154,-0.028601,0,-0.00095051,0,0,0,0.037623,0.00040835,0.011409,-0.28143,0.01648,0.033114,1.1948e-06,0.97,0.51,0
0.048637,-0.00018588,0.037581,0.00032808,0.011373,-0.00012588,0,0,0.068141,-0.028716,0,-0.00065457,0,0,0,0.037581,0.00032766,0.011373,-0.1936,0.016427,0.033141,1.1936e-06,0.98,0.51,0
0.049319,-0.00018365,0.037556,0.00028052,0.011351,-6.409e-05,0,0,0.068132,-0.028783,0,-0.00033327,0,0,0,0.037556,0.00028041,0.011351,-0.098513,0.016396,0.033156,1.1928e-06,0.99,0.51,0
0.05,-0.00018293,0.037547,0.00026486,0.011344,1.3894e-05,0,0,0.068129,-0.028805,0,7.2251e-05,0,0,0,0.037547,0.00026485,0.011344,0.021353,0.016385,0.033161,1.1925e-06,1,0.51,0
0,0,0.028973,0.012417,0.012417,-0.00020333,0,0,0.043046,2.7105e-19,0,-0.0010573,0,0,0,0.028976,0.012415,0.012417,-0.70354,0.017936,0.01656,2.3323e-07,0,0.52,0
0.00043046,-1.0573e-05,0.028927,0.011883,0.012243,-0.0002034,0,0,0.043378,-0.00093528,0,-0.0010577,0,0,0,0.028929,0.011881,0.012243,-0.68366,0.017684,0.01687,2.4622e-07,0.01,0.52,0
0.00086756,-2.1543e-05,0.029106,0.011454,0.012168,-0.00020627,0,0,0.044039,-0.0018562,0,-0.0010726,0,0,0,0.029108,0.011452,0.012168,-0.66941,0.017576,0.01731,2.6483e-07,0.02,0.52,0
0.0013112,-3.2854e-05,0.029284,0.011032,0.012095,-0.00020761,0,0,0.044691,-0.0027633,0,-0.0010796,0,0,0,0.029286,0.011029,0.012095,-0.65162,0.01747,0.017748,2.8363e-07,0.03,0.52,0
0.0017614,-4.445e-05,0.02946,0.010616,0.012023,-0.00020748,0,0,0.045336,-0.0036569,0,-0.0010789,0,0,0,0.029462,0.010614,0.012023,-0.63077,0.017366,0.018185,3.026e-07,0.04,0.52,0
0.002218,-5.628e-05,0.029635,0.010208,0.011953,-0.00020592,0,0,0.045973,-0.0045371,0,-0.0010708,0,0,0,0.029637,0.010205,0.011953,-0.60723,0.017265,0.018619,3.217e-07,0.05,0.52,0
0.0026808,-6.8294e-05,0.029808,0.0098058,0.011884,-0.00020298,0,0,0.046603,-0.0054039,0,-0.0010555,0,0,0,0.02981,0.0098038,0.011884,-0.58133,0.017166,0.019052,3.4093e-07,0.06,0.52,0
0.00315,-8.0445e-05,0.029981,0.0094109,0.011817,-0.00019868,0,0,0.047225,-0.0062572,0,-0.0010332,0,0,0,0.029983,0.009409,0.011817,-0.55334,0.01707,0.019481,3.6025e-07,0.07,0.52,0
0.0036253,-9.2685e-05,0.030152,0.009023,0.011753,-0.00019307,0,0,0.047839,-0.0070968,0,-0.001004,0,0,0,0.030154,0.0090213,0.011753,-0.52349,0.016976,0.019908,3.7965e-07,0.08,0.52,0
0.0041068,-0.00010497,0.030322,0.0086423,0.011689,-0.00018618,0,0,0.048446,-0.0079224,0,-0.00096812,0,0,0,0.030324,0.0086407,0.011689,-0.49198,0.016885,0.020331,3.9909e-07,0.09,0.52,0
0.0045943,-0.00011726,0.030491,0.0082689,0.011628,-0.00017803,0,0,0.049044,-0.0087337,0,-0.00092576,0,0,0,0.030492,0.0082674,0.011628,-0.45898,0.016796,0.02075,4.1857e-07,0.1,0.52,0
0.0050877,-0.00012951,0.030659,0.007903,0.011569,-0.00016866,0,0,0.049634,-0.0095303,0,-0.00087703,0,0,0,0.03066,0.0079017,0.011569,-0.42463,0.01671,0.021164,4.3804e-07,0.11,0.52,0
0.0055869,-0.00014168,0.030825,0.0075448,0.011511,-0.00015809,0,0,0.050216,-0.010312,0,-0.00082209,0,0,0,0.030826,0.0075438,0.011511,-0.38907,0.016627,0.021574,4.5749e-07,0.12,0.52,0
0.006092,-0.00015374,0.03099,0.0071947,0.011455,-0.00014636,0,0,0.050789,-0.011078,0,-0.0007611,0,0,0,0.030991,0.0071938,0.011455,-0.35241,0.016547,0.021978,4.7688e-07,0.13,0.52,0
0.0066027,-0.00016565,0.031153,0.0068529,0.011402,-0.0001335,0,0,0.051354,-0.011827,0,-0.00069419,0,0,0,0.031154,0.0068521,0.011402,-0.31475,0.016469,0.022377,4.9621e-07,0.14,0.52,0
0.0071191,-0.00017737,0.031316,0.0065195,0.011351,-0.00011953,0,0,0.051909,-0.012561,0,-0.00062153,0,0,0,0.031316,0.0065189,0.011351,-0.27618,0.016395,0.022769,5.1545e-07,0.15,0.52,0
0.0076409,-0.00018889,0.031477,0.0061949,0.011302,-0.00010447,0,0,0.052456,-0.013277,0,-0.00054325,0,0,0,0.031477,0.0061945,0.011302,-0.23675,0.016324,0.023155,5.3458e-07,0.16,0.52,0
0.0081682,-0.00020016,0.031637,0.0058794,0.011255,-8.8362e-05,0,0,0.052993,-0.013976,0,-0.00045948,0,0,0,0.031637,0.0058791,0.011255,-0.19655,0.016257,0.023535,5.5358e-07,0.17,0.52,0
0.0087008,-0.00021116,0.031796,0.0055731,0.011211,-7.1224e-05,0,0,0.053521,-0.014658,0,-0.00037037,0,0,0,0.031796,0.0055729,0.011211,-0.15562,0.016193,0.023908,5.7245e-07,0.18,0.52,0
0.0092386,-0.00022186,0.031953,0.0052763,0.011169,-5.308e-05,0,0,0.05404,-0.015321,0,-0.00027602,0,0,0,0.031954,0.0052762,0.011169,-0.114,0.016133,0.024273,5.9117e-07,0.19,0.52,0
0.0097816,-0.00023226,0.03211,0.0049893,0.01113,-3.3951e-05,0,0,0.054549,-0.015966,0,-0.00017654,0,0,0,0.032111,0.0049892,0.01113,-0.071724,0.016077,0.024632,6.0973e-07,0.2,0.52,0
0.01033,-0.00024232,0.032267,0.0047123,0.011094,-1.3854e-05,0,0,0.05505,-0.016592,0,-7.2041e-05,0,0,0,0.032267,0.0047123,0.011094,-0.028807,0.016024,0.024983,6.2813e-07,0.21,0.52,0
0.010883,-0.00025202,0.032423,0.0044455,0.01106,7.1945e-06,0,0,0.055542,-0.017199,0,3.7411e-05,0,0,0,0.032423,0.0044455,0.01106,0.014734,0.015976,0.025326,6.4637e-07,0.22,0.52,0
0.01144,-0.00026137,0.032579,0.0041892,0.01103,2.9182e-05,0,0,0.056025,-0.017787,0,0.00015175,0,0,0,0.032579,0.0041892,0.01103,0.058896,0.015933,0.025662,6.6446e-07,0.23,0.52,0
0.012003,-0.00027034,0.032734,0.0039436,0.011003,5.21e-05,0,0,0.0565,-0.018355,0,0.00027092,0,0,0,0.032734,0.0039435,0.011003,0.10368,0.015894,0.02599,6.824e-07,0.24,0.52,0
0.01257,-0.00027893,0.032891,0.003709,0.01098,7.594e-05,0,0,0.056968,-0.018904,0,0.00039489,0,0,0,0.032891,0.0037089,0.01098,0.1491,0.01586,0.026311,7.0021e-07,0.25,0.52,0
0.013142,-0.00028714,0.033048,0.0034857,0.01096,0.0001007,0,0,0.057428,-0.019433,0,0.00052362,0,0,0,0.033048,0.0034854,0.01096,0.19516,0.015831,0.026624,7.1789e-07,0.26,0.52,0
0.013719,-0.00029496,0.033206,0.0032739,0.010944,0.00012637,0,0,0.057881,-0.019942,0,0.00065711,0,0,0,0.033206,0.0032734,0.010944,0.24189,0.015808,0.02693,7.3547e-07,0.27,0.52,0
0.0143,-0.00030241,0.033365,0.003074,0.010932,0.00015294,0,0,0.058328,-0.020431,0,0.0007953,0,0,0,0.033366,0.0030732,0.010932,0.28928,0.01579,0.027228,7.5297e-07,0.28,0.52,0
0.014885,-0.00030949,0.033527,0.0028864,0.010924,0.00018042,0,0,0.058768,-0.020898,0,0.00093817,0,0,0,0.033528,0.0028853,0.010924,0.33735,0.015779,0.027519,7.7042e-07,0.29,0.52,0
0.015475,-0.00031622,0.033692,0.0027114,0.010921,0.00020877,0,0,0.059204,-0.021345,0,0.0010856,0,0,0,0.033693,0.00271,0.010921,0.38608,0.015775,0.027802,7.8783e-07,0.3,0.52,0
0.01607,-0.00032262,0.033859,0.0025498,0.010923,0.00023798,0,0,0.059635,-0.021769,0,0.0012375,0,0,0,0.033861,0.002548,0.010923,0.43546,0.015777,0.028078,8.0523e-07,0.31,0.52,0
0.016668,-0.00032873,0.03403,0.0024021,0.01093,0.00026798,0,0,0.060061,-0.022171,0,0.0013935,0,0,0,0.034032,0.0023998,0.01093,0.48542,0.015787,0.028347,8.2265e-07,0.32,0.52,0
0.017271,-0.00033458,0.034205,0.0022692,0.010942,0.00029871,0,0,0.060483,-0.02255,0,0.0015533,0,0,0,0.034207,0.0022664,0.010942,0.53585,0.015805,0.028608,8.401e-07,0.33,0.52,0
0.017878,-0.00034023,0.034384,0.002152,0.010961,0.00033003,0,0,0.0609,-0.022903,0,0.0017162,0,0,0,0.034387,0.0021486,0.010961,0.58658,0.015832,0.02886,8.576e-07,0.34,0.52,0
0.018489,-0.00034575,0.034568,0.0020519,0.010986,0.00036176,0,0,0.061314,-0.023229,0,0.0018812,0,0,0,0.034572,0.0020478,0.010986,0.63734,0.015869,0.029104,8.7515e-07,0.35,0.52,0
0.019104,-0.00035122,0.034758,0.0019704,0.011019,0.00039363,0,0,0.061723,-0.023525,0,0.0020469,0,0,0,0.034763,0.0019656,0.011019,0.68772,0.015916,0.029338,8.9273e-07,0.36,0.52,0
0.019723,-0.00035676,0.034953,0.0019094,0.011059,0.00042522,0,0,0.062126,-0.023788,0,0.0022111,0,0,0,0.034959,0.001904,0.011059,0.73714,0.015974,0.02956,9.103e-07,0.37,0.52,0
0.020347,-0.0003625,0.035154,0.0018716,0.011108,0.00045596,0,0,0.062521,-0.024014,0,0.002371,0,0,0,0.03516,0.0018653,0.011108,0.78474,0.016044,0.02977,9.2779e-07,0.38,0.52,0
0.020974,-0.00036863,0.035361,0.0018599,0.011166,0.00048504,0,0,0.062906,-0.024196,0,0.0025222,0,0,0,0.035368,0.0018529,0.011166,0.82932,0.016129,0.029964,9.4508e-07,0.39,0.52,0
0.021605,-0.00037538,0.035572,0.0018785,0.011235,0.00051131,0,0,0.063276,-0.024327,0,0.0026588,0,0,0,0.03558,0.0018707,0.011235,0.86921,0.016229,0.030139,9.6196e-07,0.4,0.52,0
0.022239,-0.00038304,0.035787,0.0019323,0.011316,0.00053318,0,0,0.063626,-0.024397,0,0.0027725,0,0,0,0.035796,0.0019239,0.011316,0.90205,0.016345,0.030288,9.7814e-07,0.41,0.52,0
0.022877,-0.000392,0.036004,0.0020278,0.01141,0.00054847,0,0,0.063946,-0.024393,0,0.002852,0,0,0,0.036013,0.002019,0.01141,0.92459,0.01648,0.030406,9.9316e-07,0.42,0.52,0
0.023518,-0.00040275,0.036219,0.0021734,0.011518,0.00055419,0,0,0.064223,-0.024295,0,0.0028818,0,0,0,0.036228,0.0021644,0.011518,0.93233,0.016637,0.030483,1.0063e-06,0.43,0.52,0
0.024162,-0.00041595,0.036425,0.0023798,0.011641,0.00054626,0,0,0.064437,-0.02408,0,0.0028405,0,0,0,0.036434,0.002371,0.011641,0.919,0.016815,0.030503,1.0166e-06,0.44,0.52,0
0.024807,-0.00043243,0.036609,0.0026611,0.011781,0.00051882,0,0,0.064553,-0.023712,0,0.0026979,0,0,0,0.036617,0.0026532,0.011781,0.87536,0.017017,0.030444,1.0221e-06,0.45,0.52,0
0.025453,-0.00045334,0.036746,0.0030357,0.011935,0.000462,0,0,0.06451,-0.023137,0,0.0024024,0,0,0,0.036752,0.0030294,0.011935,0.78504,0.017239,0.030269,1.0198e-06,0.46,0.52,0
0.026097,-0.00048038,0.036778,0.003527,0.012092,0.000355,0,0,0.064185,-0.022268,0,0.001846,0,0,0,0.036782,0.0035232,0.012092,0.61162,0.017466,0.02991,1.0035e-06,0.47,0.52,0
0.026736,-0.00051632,0.03665,0.0041871,0.012251,0.00012654,0,0,0.063438,-0.020967,0,0.00065802,0,0,0,0.036651,0.0041866,0.012251,0.22334,0.017696,0.029277,9.6676e-07,0.48,0.52,0
0.027366,-0.00056807,0.03668,0.0051445,0.012547,-0.00022035,0,0,0.062745,-0.019248,0,-0.0011458,0,0,0,0.036682,0.005143,0.012547,-0.40031,0.018124,0.028566,9.3148e-07,0.49,0.52,0
0.027991,-0.0006277,0.036337,0.0053819,0.012516,-0.00051683,0,0,0.061936,-0.018548,0,-0.0026875,0,0,0,0.036346,0.0053733,0.012516,-0.95625,0.018078,0.028091,8.9514e-07,0.5,0.52,0
0.028605,-0.00067067,0.036132,0.0019572,0.011427,-0.00011366,0,0,0.047448,-0.016414,0,-0.00086934,0,0,0,0.036136,0.0019533,0.011427,-0.2633,0.016505,0.030627,9.8633e-07,0.51,0.52,0
0.02894,-0.00068513,0.036389,-0.00037653,0.010804,1.3795e-05,0,0,0.033261,-0.014535,0,3.5866e-05,0,0,0,0.036389,-0.00037653,0.010804,0.021497,0.015605,0.032645,1.1059e-06,0.52,0.52,0
0.02927,-0.00069115,0.036202,-0.0004845,0.010715,0.00012304,0,0,0.033133,-0.01456,0,0.00031991,0,0,0,0.036203,-0.00048491,0.010715,0.19216,0.015478,0.032566,1.0924e-06,0.53,0.52,0
0.029603,-0.00069636,0.036502,-0.00065737,0.010753,0.0001105,0,0,0.033473,-0.014834,0,0.0002873,0,0,0,0.036502,-0.0006577,0.010753,0.17038,0.015532,0.03297,1.125e-06,0.54,0.52,0
0.029939,-0.00070051,0.03673,-0.00065334,0.010823,0.00010331,0,0,0.033679,-0.014919,0,0.00026861,0,0,0,0.03673,-0.00065362,0.010823,0.15834,0.015633,0.03317,1.146e-06,0.55,0.52,0
0.030277,-0.00070454,0.036801,-0.00064723,0.010846,9.7347e-05,0,0,0.033742,-0.014941,0,0.0002531,0,0,0,0.036802,-0.00064748,0.010846,0.14894,0.015667,0.033228,1.1524e-06,0.56,0.52,0
0.030614,-0.00070838,0.036821,-0.00065411,0.01085,9.7002e-05,0,0,0.033763,-0.014956,0,0.0002522,0,0,0,0.036822,-0.00065436,0.01085,0.1483,0.015672,0.033252,1.1545e-06,0.57,0.52,0
0.030952,-0.00071205,0.036831,-0.0006649,0.01085,9.5156e-05,0,0,0.033775,-0.014969,0,0.00024741,0,0,0,0.036831,-0.00066514,0.01085,0.1454,0.015672,0.033269,1.1558e-06,0.58,0.52,0
0.03129,-0.00071561,0.036838,-0.00067493,0.010849,9.1494e-05,0,0,0.033786,-0.014981,0,0.00023788,0,0,0,0.036838,-0.00067515,0.010849,0.13974,0.015671,0.033283,1.1568e-06,0.59,0.52,0
0.031628,-0.00071909,0.036844,-0.00068384,0.010848,8.7359e-05,0,0,0.033795,-0.014991,0,0.00022713,0,0,0,0.036844,-0.00068404,0.010848,0.13337,0.015669,0.033295,1.1576e-06,0.6,0.52,0
0.031966,-0.00072251,0.03685,-0.00069231,0.010847,8.3752e-05,0,0,0.033803,-0.015001,0,0.00021776,0,0,0,0.03685,-0.00069249,0.010847,0.12782,0.015668,0.033307,1.1584e-06,0.61,0.52,0
0.032304,-0.00072587,0.036855,-0.00070106,0.010846,8.103e-05,0,0,0.033812,-0.015012,0,0.00021068,0,0,0,0.036856,-0.00070123,0.010846,0.12362,0.015667,0.033319,1.1592e-06,0.62,0.52,0
0.032642,-0.00072916,0.036862,-0.00071063,0.010845,7.9261e-05,0,0,0.033822,-0.015023,0,0.00020608,0,0,0,0.036862,-0.0007108,0.010845,0.12087,0.015666,0.033333,1.1602e-06,0.63,0.52,0
0.03298,-0.00073237,0.03687,-0.0007215,0.010845,7.8449e-05,0,0,0.033833,-0.015036,0,0.00020397,0,0,0,0.03687,-0.00072167,0.010845,0.11957,0.015664,0.033349,1.1612e-06,0.64,0.52,0
0.033318,-0.00073547,0.03688,-0.0007342,0.010844,7.8596e-05,0,0,0.033847,-0.015051,0,0.00020435,0,0,0,0.03688,-0.00073436,0.010844,0.11972,0.015663,0.033368,1.1625e-06,0.65,0.52,0
0.033657,-0.00073847,0.036892,-0.00074929,0.010843,7.9657e-05,0,0,0.033864,-0.01507,0,0.00020711,0,0,0,0.036892,-0.00074946,0.010843,0.12125,0.015662,0.03339,1.1641e-06,0.66,0.52,0
0.033996,-0.00074134,0.036906,-0.00076734,0.010842,8.1498e-05,0,0,0.033883,-0.015092,0,0.0002119,0,0,0,0.036906,-0.00076752,0.010842,0.12395,0.01566,0.033417,1.1661e-06,0.67,0.52,0
0.034335,-0.00074408,0.036923,-0.00078883,0.01084,8.3877e-05,0,0,0.033907,-0.015118,0,0.00021808,0,0,0,0.036923,-0.00078902,0.01084,0.12743,0.015658,0.03345,1.1683e-06,0.68,0.52,0
0.034674,-0.00074668,0.036943,-0.00081406,0.010838,8.6458e-05,0,0,0.033935,-0.015148,0,0.00022479,0,0,0,0.036943,-0.00081425,0.010838,0.1312,0.015656,0.033487,1.171e-06,0.69,0.52,0
0.035013,-0.00074913,0.036965,-0.00084309,0.010837,8.8862e-05,0,0,0.033967,-0.015184,0,0.00023104,0,0,0,0.036965,-0.00084329,0.010837,0.13466,0.015653,0.033531,1.1741e-06,0.7,0.52,0
0.035353,-0.00075146,0.036991,-0.00087577,0.010835,9.0719e-05,0,0,0.034003,-0.015223,0,0.00023587,0,0,0,0.036991,-0.00087599,0.010835,0.13726,0.01565,0.03358,1.1775e-06,0.71,0.52,0
0.035693,-0.00075368,0.03702,-0.00091181,0.010832,9.1711e-05,0,0,0.034043,-0.015267,0,0.00023845,0,0,0,0.03702,-0.00091203,0.010832,0.13853,0.015647,0.033634,1.1814e-06,0.72,0.52,0
0.036034,-0.00075578,0.037051,-0.00095082,0.01083,9.1577e-05,0,0,0.034087,-0.015315,0,0.0002381,0,0,0,0.037051,-0.00095104,0.01083,0.13807,0.015643,0.033693,1.1856e-06,0.73,0.52,0
0.036375,-0.0007578,0.037084,-0.00099244,0.010828,9.0069e-05,0,0,0.034133,-0.015366,0,0.00023418,0,0,0,0.037084,-0.00099265,0.010828,0.13553,0.01564,0.033756,1.1901e-06,0.74,0.52,0
0.036717,-0.00075976,0.037119,-0.0010364,0.010825,8.687e-05,0,0,0.034183,-0.01542,0,0.00022586,0,0,0,0.03712,-0.0010366,0.010825,0.13045,0.015636,0.033823,1.1949e-06,0.75,0.52,0
0.037059,-0.00076166,0.037157,-0.0010827,0.010822,8.1515e-05,0,0,0.034235,-0.015476,0,0.00021194,0,0,0,0.037157,-0.0010828,0.010822,0.12214,0.015632,0.033894,1.1999e-06,0.76,0.52,0
0.037401,-0.00076352,0.037196,-0.0011311,0.010819,7.3373e-05,0,0,0.034289,-0.015536,0,0.00019077,0,0,0,0.037196,-0.0011312,0.010819,0.10969,0.015628,0.033967,1.2052e-06,0.77,0.52,0
0.037745,-0.00076536,0.037236,-0.0011817,0.010816,6.1773e-05,0,0,0.034346,-0.015598,0,0.00016061,0,0,0,0.037236,-0.0011818,0.010816,0.092127,0.015624,0.034044,1.2107e-06,0.78,0.52,0
0.038088,-0.00076717,0.03728,-0.0012352,0.010813,4.622e-05,0,0,0.034406,-0.015663,0,0.00012017,0,0,0,0.03728,-0.0012353,0.010813,0.068757,0.015619,0.034125,1.2165e-06,0.79,0.52,0
0.038433,-0.00076891,0.037329,-0.001294,0.01081,2.5999e-05,0,0,0.034474,-0.015736,0,6.7598e-05,0,0,0,0.037329,-0.001294,0.01081,0.038569,0.015615,0.034216,1.2231e-06,0.8,0.52,0
0.038778,-0.00077051,0.037385,-0.0013661,0.010806,-1.5103e-06,0,0,0.034553,-0.015824,0,-3.9266e-06,0,0,0,0.037385,-0.0013661,0.010806,-0.002233,0.015608,0.034324,1.2309e-06,0.81,0.52,0
0.039124,-0.00077185,0.037432,-0.001466,0.01079,-4.234e-05,0,0,0.034635,-0.015932,0,-0.00011008,0,0,0,0.037432,-0.0014661,0.01079,-0.062366,0.015585,0.034446,1.2386e-06,0.82,0.52,0
0.03947,-0.00077262,0.037415,-0.0015815,0.01075,-7.5318e-05,0,0,0.034665,-0.016031,0,-0.00019583,0,0,0,0.037415,-0.0015816,0.01075,-0.11066,0.015528,0.034524,1.2406e-06,0.83,0.52,0
0.039817,-0.00077066,0.037451,-0.001572,0.010764,-9.4097e-06,0,0,0.034694,-0.016036,0,-2.4465e-05,0,0,0,0.037451,-0.001572,0.010764,-0.013816,0.015548,0.034548,1.2438e-06,0.84,0.52,0
0.040164,-0.0007617,0.037567,-0.0018065,0.010728,0.00030516,0,0,0.03489,-0.016295,0,0.00079342,0,0,0,0.037569,-0.0018089,0.010728,0.44404,0.015496,0.034844,1.2628e-06,0.85,0.52,0
0.040515,-0.00074185,0.037683,0.0018773,0.011868,0.00062111,0,0,0.049595,-0.017318,0,0.0026163,0,0,0,0.037696,0.0018651,0.011868,1.0394,0.017143,0.032087,1.1248e-06,0.86,0.52,0
0.041156,-0.00069421,0.037939,0.00535,0.012986,0.00070482,0,0,0.064875,-0.019855,0,0.0036651,0,0,0,0.037954,0.0053347,0.012986,1.2384,0.018758,0.029546,1.0312e-06,0.87,0.52,0
0.041812,-0.00064482,0.03815,0.0041365,0.012686,0.00052193,0,0,0.066206,-0.022228,0,0.002714,0,0,0,0.038158,0.0041285,0.012686,0.87892,0.018324,0.03066,1.1007e-06,0.88,0.52,0
0.04248,-0.00060168,0.038292,0.0032441,0.012461,0.00027829,0,0,0.067161,-0.023963,0,0.0014471,0,0,0,0.038294,0.0032419,0.012461,0.45491,0.017999,0.031472,1.15e-06,0.89,0.52,0
0.043155,-0.00056745,0.038309,0.0025422,0.012256,7.5039e-05,0,0,0.06774,-0.025254,0,0.0003902,0,0,0,0.03831,0.0025421,0.012256,0.12021,0.017702,0.032035,1.1799e-06,0.9,0.52,0
0.043835,-0.00054114,0.038265,0.0019796,0.012073,-6.3455e-05,0,0,0.068099,-0.026244,0,-0.00032997,0,0,0,0.038265,0.0019794,0.012073,-0.1002,0.017439,0.032439,1.1979e-06,0.91,0.52,0
0.044518,-0.00052125,0.038195,0.0015287,0.011917,-0.00014699,0,0,0.068322,-0.02701,0,-0.00076433,0,0,0,0.038196,0.0015282,0.011917,-0.22968,0.017214,0.032734,1.2086e-06,0.92,0.52,0
0.045202,-0.00050635,0.038114,0.0011688,0.011785,-0.00018894,0,0,0.068456,-0.027602,0,-0.00098252,0,0,0,0.038115,0.0011678,0.011785,-0.29301,0.017022,0.032947,1.2145e-06,0.93,0.52,0
0.045887,-0.00049529,0.038031,0.00088342,0.011674,-0.00020081,0,0,0.068528,-0.028056,0,-0.0010442,0,0,0,0.038032,0.00088233,0.011674,-0.30971,0.016863,0.033101,1.2171e-06,0.94,0.52,0
0.046572,-0.00048718,0.037953,0.00066003,0.011584,-0.00019137,0,0,0.068559,-0.028402,0,-0.00099513,0,0,0,0.037954,0.00065905,0.011584,-0.29401,0.016732,0.033209,1.2176e-06,0.95,0.52,0
0.047258,-0.00048132,0.037884,0.00048889,0.011512,-0.00016712,0,0,0.068567,-0.02866,0,-0.00086903,0,0,0,0.037885,0.00048814,0.011512,-0.25605,0.016628,0.033283,1.2171e-06,0.96,0.52,0
0.047944,-0.00047721,0.037827,0.00036268,0.011457,-0.00013278,0,0,0.068563,-0.028845,0,-0.00069045,0,0,0,0.037828,0.00036221,0.011457,-0.20306,0.016549,0.033333,1.216e-06,0.97,0.52,0
0.048629,-0.00047452,0.037785,0.00027609,0.011418,-9.181e-05,0,0,0.068554,-0.02897,0,-0.00047741,0,0,0,0.037785,0.00027587,0.011418,-0.14024,0.016493,0.033364,1.215e-06,0.98,0.52,0
0.049315,-0.00047299,0.03776,0.00022552,0.011395,-4.6844e-05,0,0,0.068546,-0.029042,0,-0.00024359,0,0,0,0.03776,0.00022546,0.011395,-0.071507,0.01646,0.033381,1.2143e-06,0.99,0.52,0
0.05,-0.00047249,0.037751,0.00020889,0.011388,9.5186e-06,0,0,0.068543,-0.029065,0,4.9497e-05,0,0,0,0.037751,0.00020889,0.011388,0.014527,0.016449,0.033387,1.214e-06,1,0.52,0
0,0,0.028984,0.012422,0.012422,-0.00038353,0,0,0.043062,-1.0842e-19,0,-0.0019944,0,0,0,0.028993,0.012413,0.012422,-1.3258,0.017943,0.016576,2.339e-07,0,0.53,0
0.00043062,-1.9943e-05,0.028938,0.011886,0.012247,-0.0003834,0,0,0.043395,-0.00093855,0,-0.0019937,0,0,0,0.028946,0.011878,0.012247,-1.2874,0.01769,0.016887,2.4693e-07,0.01,0.53,0
0.00086791,-4.014e-05,0.029117,0.011455,0.012172,-0.00038479,0,0,0.044059,-0.0018627,0,-0.0020009,0,0,0,0.029126,0.011447,0.012172,-1.2475,0.017582,0.017328,2.6563e-07,0.02,0.53,0
0.0013118,-6.0538e-05,0.029296,0.011032,0.012098,-0.00038477,0,0,0.044713,-0.0027729,0,-0.0020008,0,0,0,0.029304,0.011024,0.012098,-1.2063,0.017475,0.017767,2.8451e-07,0.03,0.53,0
0.0017622,-8.1085e-05,0.029472,0.010615,0.012026,-0.00038335,0,0,0.04536,-0.0036696,0,-0.0019934,0,0,0,0.02948,0.010607,0.012026,-1.1641,0.017371,0.018205,3.0355e-07,0.04,0.53,0
0.002219,-0.00010173,0.029648,0.010205,0.011956,-0.00038056,0,0,0.046,-0.0045528,0,-0.0019789,0,0,0,0.029656,0.010197,0.011956,-1.1209,0.01727,0.018641,3.2273e-07,0.05,0.53,0
0.0026822,-0.00012243,0.029822,0.0098016,0.011887,-0.00037641,0,0,0.046631,-0.0054225,0,-0.0019573,0,0,0,0.029829,0.0097946,0.011887,-1.0767,0.01717,0.019075,3.4204e-07,0.06,0.53,0
0.0031516,-0.00014313,0.029996,0.0094054,0.01182,-0.00037091,0,0,0.047256,-0.0062788,0,-0.0019287,0,0,0,0.030002,0.0093987,0.01182,-1.0317,0.017074,0.019506,3.6144e-07,0.07,0.53,0
0.0036273,-0.00016378,0.030167,0.0090162,0.011755,-0.00036408,0,0,0.047872,-0.0071212,0,-0.0018932,0,0,0,0.030174,0.0090099,0.011755,-0.98584,0.01698,0.019934,3.8092e-07,0.08,0.53,0
0.0041091,-0.00018433,0.030338,0.0086341,0.011692,-0.00035595,0,0,0.048481,-0.0079497,0,-0.0018509,0,0,0,0.030344,0.0086283,0.011692,-0.93931,0.016888,0.020358,4.0044e-07,0.09,0.53,0
0.0045969,-0.00020475,0.030508,0.0082594,0.01163,-0.00034654,0,0,0.049082,-0.0087638,0,-0.001802,0,0,0,0.030513,0.0082541,0.01163,-0.89215,0.016799,0.020778,4.1999e-07,0.1,0.53,0
0.0050907,-0.00022498,0.030676,0.0078923,0.01157,-0.00033588,0,0,0.049674,-0.0095632,0,-0.0017466,0,0,0,0.030681,0.0078874,0.01157,-0.84443,0.016713,0.021193,4.3955e-07,0.11,0.53,0
0.0055904,-0.00024498,0.030843,0.0075331,0.011513,-0.00032402,0,0,0.050258,-0.010347,0,-0.0016849,0,0,0,0.030847,0.0075285,0.011513,-0.79624,0.01663,0.021604,4.5907e-07,0.12,0.53,0
0.0060959,-0.00026471,0.031009,0.0071818,0.011457,-0.00031099,0,0,0.050834,-0.011116,0,-0.0016171,0,0,0,0.031013,0.0071777,0.011457,-0.74766,0.016549,0.02201,4.7855e-07,0.13,0.53,0
0.0066071,-0.00028413,0.031173,0.0068388,0.011404,-0.00029683,0,0,0.051401,-0.011868,0,-0.0015435,0,0,0,0.031177,0.0068352,0.011404,-0.69876,0.016472,0.022409,4.9797e-07,0.14,0.53,0
0.0071239,-0.00030321,0.031336,0.0065044,0.011352,-0.00028159,0,0,0.051958,-0.012604,0,-0.0014643,0,0,0,0.031339,0.0065012,0.011352,-0.64962,0.016397,0.022803,5.1729e-07,0.15,0.53,0
0.0076462,-0.0003219,0.031498,0.0061788,0.011303,-0.00026532,0,0,0.052507,-0.013323,0,-0.0013797,0,0,0,0.031501,0.006176,0.011303,-0.60032,0.016327,0.02319,5.365e-07,0.16,0.53,0
0.008174,-0.00034017,0.031659,0.0058622,0.011256,-0.00024808,0,0,0.053047,-0.014025,0,-0.00129,0,0,0,0.031661,0.0058598,0.011256,-0.55093,0.016259,0.023571,5.5559e-07,0.17,0.53,0
0.0087072,-0.000358,0.031819,0.0055549,0.011212,-0.00022991,0,0,0.053577,-0.014708,0,-0.0011955,0,0,0,0.031821,0.0055529,0.011212,-0.50151,0.016195,0.023945,5.7455e-07,0.18,0.53,0
0.0092456,-0.00037535,0.031977,0.0052572,0.01117,-0.00021087,0,0,0.054098,-0.015374,0,-0.0010965,0,0,0,0.031979,0.0052556,0.01117,-0.45212,0.016135,0.024312,5.9336e-07,0.19,0.53,0
0.0097891,-0.00039221,0.032135,0.0049693,0.011131,-0.00019101,0,0,0.05461,-0.016021,0,-0.00099324,0,0,0,0.032137,0.004968,0.011131,-0.40283,0.016079,0.024671,6.1202e-07,0.2,0.53,0
0.010338,-0.00040854,0.032293,0.0046915,0.011095,-0.00017038,0,0,0.055114,-0.01665,0,-0.00088599,0,0,0,0.032294,0.0046904,0.011095,-0.35367,0.016027,0.025024,6.3052e-07,0.21,0.53,0
0.010891,-0.00042433,0.03245,0.0044239,0.011062,-0.00014904,0,0,0.055608,-0.01726,0,-0.00077501,0,0,0,0.032451,0.0044231,0.011062,-0.30468,0.015979,0.025368,6.4888e-07,0.22,0.53,0
0.01145,-0.00043957,0.032607,0.0041668,0.011032,-0.00012703,0,0,0.056095,-0.01785,0,-0.00066057,0,0,0,0.032608,0.0041663,0.011032,-0.25592,0.015935,0.025706,6.6708e-07,0.23,0.53,0
0.012013,-0.00045424,0.032764,0.0039205,0.011005,-0.00010441,0,0,0.056573,-0.018421,0,-0.00054291,0,0,0,0.032765,0.0039201,0.011005,-0.20739,0.015897,0.026035,6.8515e-07,0.24,0.53,0
0.012581,-0.00046834,0.032922,0.0036852,0.010982,-8.1202e-05,0,0,0.057044,-0.018972,0,-0.00042225,0,0,0,0.032923,0.003685,0.010982,-0.15913,0.015863,0.026358,7.0309e-07,0.25,0.53,0
0.013154,-0.00048186,0.033081,0.0034612,0.010963,-5.7464e-05,0,0,0.057508,-0.019504,0,-0.00029882,0,0,0,0.033081,0.003461,0.010963,-0.11116,0.015835,0.026673,7.2093e-07,0.26,0.53,0
0.013732,-0.00049479,0.033241,0.0032487,0.010947,-3.3232e-05,0,0,0.057965,-0.020015,0,-0.0001728,0,0,0,0.033241,0.0032486,0.010947,-0.063483,0.015812,0.02698,7.3868e-07,0.27,0.53,0
0.014313,-0.00050714,0.033403,0.0030481,0.010935,-8.5422e-06,0,0,0.058416,-0.020507,0,-4.4419e-05,0,0,0,0.033403,0.0030481,0.010935,-0.016124,0.015796,0.02728,7.5636e-07,0.28,0.53,0
0.0149,-0.00051892,0.033567,0.0028598,0.010928,1.6565e-05,0,0,0.058862,-0.020977,0,8.6136e-05,0,0,0,0.033567,0.0028598,0.010928,0.030907,0.015785,0.027573,7.74e-07,0.29,0.53,0
0.015491,-0.00053013,0.033734,0.0026843,0.010925,4.2048e-05,0,0,0.059302,-0.021427,0,0.00021865,0,0,0,0.033734,0.0026842,0.010925,0.07759,0.015781,0.027859,7.9164e-07,0.3,0.53,0
0.016086,-0.0005408,0.033904,0.0025221,0.010928,6.7859e-05,0,0,0.059739,-0.021855,0,0.00035287,0,0,0,0.033904,0.0025219,0.010928,0.12389,0.015785,0.028138,8.0929e-07,0.31,0.53,0
0.016685,-0.00055095,0.034078,0.0023739,0.010936,9.3943e-05,0,0,0.060171,-0.022261,0,0.0004885,0,0,0,0.034079,0.0023736,0.010936,0.16977,0.015796,0.028409,8.2697e-07,0.32,0.53,0
0.017289,-0.00056061,0.034257,0.0022406,0.010949,0.00012023,0,0,0.0606,-0.022642,0,0.00062517,0,0,0,0.034257,0.0022401,0.010949,0.21515,0.015815,0.028672,8.4472e-07,0.33,0.53,0
0.017898,-0.00056982,0.03444,0.0021231,0.010969,0.00014661,0,0,0.061025,-0.022999,0,0.00076236,0,0,0,0.034441,0.0021225,0.010969,0.25992,0.015844,0.028928,8.6255e-07,0.34,0.53,0
0.01851,-0.00057862,0.034629,0.0020229,0.010996,0.00017296,0,0,0.061446,-0.023329,0,0.00089937,0,0,0,0.03463,0.002022,0.010996,0.30391,0.015882,0.029175,8.8045e-07,0.35,0.53,0
0.019126,-0.00058708,0.034823,0.0019416,0.011029,0.00019908,0,0,0.061864,-0.023628,0,0.0010352,0,0,0,0.034824,0.0019404,0.011029,0.34688,0.015931,0.029412,8.9842e-07,0.36,0.53,0
0.019747,-0.00059527,0.035023,0.0018812,0.011071,0.00022472,0,0,0.062275,-0.023894,0,0.0011685,0,0,0,0.035025,0.0018797,0.011071,0.38847,0.015992,0.029639,9.164e-07,0.37,0.53,0
0.020372,-0.00060328,0.03523,0.0018444,0.011122,0.00024951,0,0,0.06268,-0.024123,0,0.0012975,0,0,0,0.035232,0.0018426,0.011122,0.42818,0.016066,0.029851,9.3433e-07,0.38,0.53,0
0.021001,-0.00061124,0.035442,0.0018346,0.011183,0.00027295,0,0,0.063074,-0.024306,0,0.0014193,0,0,0,0.035444,0.0018324,0.011183,0.46529,0.016153,0.030048,9.5207e-07,0.39,0.53,0
0.021633,-0.0006193,0.03566,0.0018561,0.011255,0.00029433,0,0,0.063453,-0.024437,0,0.0015305,0,0,0,0.035662,0.0018535,0.011255,0.49883,0.016257,0.030225,9.694e-07,0.4,0.53,0
0.02227,-0.00062765,0.035881,0.0019143,0.011339,0.00031275,0,0,0.063811,-0.024504,0,0.0016263,0,0,0,0.035884,0.0019114,0.011339,0.52748,0.016378,0.030377,9.8602e-07,0.41,0.53,0
0.02291,-0.00063652,0.036105,0.0020161,0.011436,0.00032699,0,0,0.064139,-0.024493,0,0.0017003,0,0,0,0.036108,0.002013,0.011436,0.54953,0.016519,0.030496,1.0015e-06,0.42,0.53,0
0.023553,-0.00064623,0.036327,0.0021707,0.011549,0.00033563,0,0,0.064423,-0.024385,0,0.0017453,0,0,0,0.036331,0.0021674,0.011549,0.56292,0.016682,0.030572,1.015e-06,0.43,0.53,0
0.024198,-0.00065717,0.036543,0.0023897,0.01168,0.00033725,0,0,0.064644,-0.024154,0,0.0017537,0,0,0,0.036546,0.0023864,0.01168,0.56569,0.016871,0.030591,1.0258e-06,0.44,0.53,0
0.024845,-0.00066979,0.036743,0.0026882,0.011829,0.00033127,0,0,0.064775,-0.023767,0,0.0017226,0,0,0,0.036746,0.002685,0.011829,0.55728,0.017087,0.030534,1.0321e-06,0.45,0.53,0
0.025494,-0.00068466,0.036907,0.0030851,0.011998,0.00032041,0,0,0.064764,-0.023172,0,0.0016661,0,0,0,0.03691,0.0030821,0.011998,0.54273,0.01733,0.030368,1.0314e-06,0.46,0.53,0
0.026141,-0.00070241,0.03698,0.0036018,0.012174,0.00031471,0,0,0.064494,-0.022289,0,0.0016365,0,0,0,0.036983,0.0035988,0.012174,0.54016,0.017585,0.030029,1.0179e-06,0.47,0.53,0
0.026783,-0.00072384,0.036737,0.0042236,0.012288,0.00032967,0,0,0.063566,-0.020968,0,0.0017143,0,0,0,0.03674,0.0042203,0.012288,0.58088,0.01775,0.02933,9.7292e-07,0.48,0.53,0
0.027412,-0.00075159,0.035838,0.0050298,0.01226,0.00019342,0,0,0.061302,-0.018799,0,0.0010058,0,0,0,0.035839,0.0050286,0.01226,0.35969,0.017709,0.027907,8.686e-07,0.49,0.53,0
0.028009,-0.0008123,0.035783,0.0058454,0.012489,0.00053914,0,0,0.060566,-0.017272,0,0.0028035,0,0,0,0.035793,0.0058357,0.012489,1.0314,0.018039,0.027247,8.3381e-07,0.5,0.53,0
0.028623,-0.00083703,0.035381,0.0022235,0.011281,-0.00059659,0,0,0.046676,-0.0157,0,-0.0026285,0,0,0,0.035394,0.0022101,0.011281,-1.0846,0.016295,0.029773,9.1008e-07,0.51,0.53,0
0.028943,-0.00082814,0.035269,-0.0010664,0.010261,-0.00030598,0,0,0.03251,-0.014725,0,-0.00079554,0,0,0,0.035271,-0.001069,0.010261,-0.48244,0.014821,0.032206,1.0275e-06,0.52,0.53,0
0.029274,-0.00083703,0.036262,-0.00076925,0.010648,-0.00026243,0,0,0.033298,-0.014842,0,-0.00068231,0,0,0,0.036264,-0.00077111,0.010648,-0.40601,0.01538,0.032849,1.1067e-06,0.53,0.53,0
0.029609,-0.00084427,0.036646,-0.0006565,0.010797,-4.4357e-05,0,0,0.033604,-0.014889,0,-0.00011533,0,0,0,0.036646,-0.00065655,0.010797,-0.068132,0.015595,0.033097,1.1383e-06,0.54,0.53,0
0.029946,-0.00084957,0.036746,-0.00065515,0.010827,5.0079e-05,0,0,0.033694,-0.014927,0,0.00013021,0,0,0,0.036746,-0.00065522,0.010827,0.076719,0.015639,0.033185,1.1475e-06,0.55,0.53,0
0.030283,-0.00085391,0.036789,-0.00065145,0.010841,8.0107e-05,0,0,0.033732,-0.01494,0,0.00020828,0,0,0,0.036789,-0.00065162,0.010841,0.12259,0.015659,0.03322,1.1514e-06,0.56,0.53,0
0.03062,-0.00085789,0.036805,-0.0006544,0.010845,8.7298e-05,0,0,0.033748,-0.014949,0,0.00022698,0,0,0,0.036805,-0.00065461,0.010845,0.13353,0.015665,0.033237,1.153e-06,0.57,0.53,0
0.030958,-0.00086168,0.036814,-0.00066187,0.010846,8.7577e-05,0,0,0.033759,-0.01496,0,0.0002277,0,0,0,0.036814,-0.00066208,0.010846,0.13389,0.015666,0.033251,1.1541e-06,0.58,0.53,0
0.031295,-0.00086536,0.036821,-0.00067082,0.010845,8.5094e-05,0,0,0.033769,-0.014971,0,0.00022124,0,0,0,0.036821,-0.00067101,0.010845,0.13004,0.015665,0.033265,1.155e-06,0.59,0.53,0
0.031633,-0.00086895,0.036828,-0.00067989,0.010844,8.1587e-05,0,0,0.033779,-0.014982,0,0.00021212,0,0,0,0.036828,-0.00068007,0.010844,0.12463,0.015664,0.033278,1.156e-06,0.6,0.53,0
0.031971,-0.00087248,0.036835,-0.00068899,0.010844,7.7949e-05,0,0,0.033788,-0.014993,0,0.00020267,0,0,0,0.036835,-0.00068915,0.010844,0.11902,0.015663,0.033291,1.1569e-06,0.61,0.53,0
0.032309,-0.00087595,0.036841,-0.00069845,0.010843,7.4623e-05,0,0,0.033798,-0.015004,0,0.00019402,0,0,0,0.036842,-0.0006986,0.010843,0.11389,0.015662,0.033305,1.1578e-06,0.62,0.53,0
0.032647,-0.00087936,0.036849,-0.00070874,0.010842,7.1788e-05,0,0,0.033809,-0.015016,0,0.00018665,0,0,0,0.036849,-0.00070888,0.010842,0.10951,0.015661,0.03332,1.1588e-06,0.63,0.53,0
0.032985,-0.0008827,0.036858,-0.00072037,0.010841,6.9508e-05,0,0,0.033821,-0.01503,0,0.00018072,0,0,0,0.036858,-0.0007205,0.010841,0.10598,0.015659,0.033337,1.16e-06,0.64,0.53,0
0.033323,-0.00088597,0.036868,-0.00073383,0.01084,6.78e-05,0,0,0.033836,-0.015046,0,0.00017628,0,0,0,0.036868,-0.00073395,0.01084,0.10331,0.015658,0.033357,1.1614e-06,0.65,0.53,0
0.033662,-0.00088915,0.03688,-0.00074964,0.010839,6.6633e-05,0,0,0.033854,-0.015066,0,0.00017325,0,0,0,0.036881,-0.00074975,0.010839,0.10146,0.015657,0.03338,1.1631e-06,0.66,0.53,0
0.034001,-0.00089225,0.036895,-0.00076826,0.010838,6.5916e-05,0,0,0.033874,-0.015088,0,0.00017138,0,0,0,0.036895,-0.00076837,0.010838,0.10027,0.015655,0.033408,1.1651e-06,0.67,0.53,0
0.034339,-0.00089525,0.036912,-0.00079006,0.010837,6.549e-05,0,0,0.033898,-0.015115,0,0.00017028,0,0,0,0.036913,-0.00079017,0.010837,0.099524,0.015653,0.033441,1.1674e-06,0.68,0.53,0
0.034679,-0.00089815,0.036932,-0.00081528,0.010835,6.5144e-05,0,0,0.033926,-0.015145,0,0.00016937,0,0,0,0.036932,-0.0008154,0.010835,0.098879,0.015651,0.033479,1.1701e-06,0.69,0.53,0
0.035018,-0.00090096,0.036955,-0.00084398,0.010833,6.4633e-05,0,0,0.033958,-0.01518,0,0.00016805,0,0,0,0.036955,-0.0008441,0.010833,0.097971,0.015648,0.033522,1.1731e-06,0.7,0.53,0
0.035358,-0.00090369,0.03698,-0.00087606,0.010831,6.3719e-05,0,0,0.033994,-0.01522,0,0.00016567,0,0,0,0.03698,-0.00087616,0.010831,0.096439,0.015645,0.033571,1.1765e-06,0.71,0.53,0
0.035698,-0.00090633,0.037008,-0.00091125,0.010829,6.2184e-05,0,0,0.034033,-0.015262,0,0.00016168,0,0,0,0.037008,-0.00091135,0.010829,0.09396,0.015642,0.033623,1.1803e-06,0.72,0.53,0
0.036038,-0.00090891,0.037038,-0.00094924,0.010827,5.9833e-05,0,0,0.034075,-0.015309,0,0.00015557,0,0,0,0.037038,-0.00094934,0.010827,0.090246,0.015638,0.033681,1.1843e-06,0.73,0.53,0
0.036379,-0.00091143,0.03707,-0.00098967,0.010824,5.6468e-05,0,0,0.034119,-0.015358,0,0.00014682,0,0,0,0.03707,-0.00098975,0.010824,0.085009,0.015635,0.033741,1.1886e-06,0.74,0.53,0
0.036721,-0.0009139,0.037102,-0.0010322,0.010821,5.1838e-05,0,0,0.034166,-0.015409,0,0.00013478,0,0,0,0.037102,-0.0010323,0.010821,0.077884,0.01563,0.033804,1.193e-06,0.75,0.53,0
0.037063,-0.00091635,0.037135,-0.0010766,0.010818,4.559e-05,0,0,0.034213,-0.015462,0,0.00011853,0,0,0,0.037135,-0.0010766,0.010818,0.068359,0.015625,0.033869,1.1976e-06,0.76,0.53,0
0.037405,-0.00091878,0.037167,-0.0011226,0.010814,3.7234e-05,0,0,0.03426,-0.015517,0,9.6809e-05,0,0,0,0.037168,-0.0011226,0.010814,0.055716,0.015619,0.033935,1.2022e-06,0.77,0.53,0
0.037748,-0.0009212,0.037198,-0.0011704,0.010808,2.6108e-05,0,0,0.034307,-0.015572,0,6.7882e-05,0,0,0,0.037198,-0.0011704,0.010808,0.038988,0.015612,0.034,1.2066e-06,0.78,0.53,0
0.038091,-0.00092362,0.037225,-0.0012209,0.010801,1.1223e-05,0,0,0.034351,-0.015629,0,2.9179e-05,0,0,0,0.037225,-0.0012209,0.010801,0.016725,0.015602,0.034065,1.2108e-06,0.79,0.53,0
0.038435,-0.00092603,0.037247,-0.0012769,0.010791,-9.0156e-06,0,0,0.034392,-0.015688,0,-2.3441e-05,0,0,0,0.037247,-0.0012769,0.010791,-0.013409,0.015587,0.034129,1.2146e-06,0.8,0.53,0
0.038779,-0.00092838,0.037257,-0.0013442,0.010774,-3.6318e-05,0,0,0.034428,-0.015753,0,-9.4426e-05,0,0,0,0.037257,-0.0013442,0.010774,-0.053907,0.015562,0.034193,1.2177e-06,0.81,0.53,0
0.039123,-0.00093056,0.037247,-0.0014287,0.010745,-6.5125e-05,0,0,0.034452,-0.015826,0,-0.00016933,0,0,0,0.037247,-0.0014288,0.010745,-0.096479,0.015521,0.034252,1.2194e-06,0.82,0.53,0
0.039468,-0.00093198,0.037235,-0.0015266,0.010713,-6.8774e-05,0,0,0.034479,-0.015911,0,-0.00017881,0,0,0,0.037235,-0.0015267,0.010713,-0.10166,0.015474,0.03432,1.2213e-06,0.83,0.53,0
0.039813,-0.00093127,0.037256,-0.0017151,0.010662,8.6251e-06,0,0,0.034572,-0.016091,0,2.2425e-05,0,0,0,0.037256,-0.0017152,0.010662,0.012681,0.015401,0.034491,1.2291e-06,0.84,0.53,0
0.040159,-0.00092635,0.037362,-0.0021744,0.010556,0.00017455,0,0,0.034848,-0.01655,0,0.00045382,0,0,0,0.037363,-0.0021752,0.010556,0.25294,0.015248,0.034957,1.2535e-06,0.85,0.53,0
0.04051,-0.00091594,0.03751,0.0016802,0.011757,0.00035102,0,0,0.049433,-0.017467,0,0.0014655,0,0,0,0.037514,0.0016763,0.011757,0.58587,0.016982,0.032074,1.1154e-06,0.86,0.53,0
0.041148,-0.00089061,0.037763,0.0054391,0.012961,0.0004,0,0,0.064487,-0.019556,0,0.00208,0,0,0,0.037768,0.0054342,0.012961,0.70887,0.018721,0.029305,1.0108e-06,0.87,0.53,0
0.0418,-0.00086345,0.038003,0.0043689,0.012712,0.00033036,0,0,0.065757,-0.021691,0,0.0017179,0,0,0,0.038006,0.0043656,0.012712,0.5627,0.018361,0.030341,1.077e-06,0.88,0.53,0
0.042463,-0.00083875,0.038182,0.0034323,0.012484,0.00020025,0,0,0.066815,-0.023536,0,0.0010413,0,0,0,0.038184,0.0034311,0.012484,0.33016,0.018033,0.031226,1.132e-06,0.89,0.53,0
0.043136,-0.00081852,0.038281,0.0026729,0.012286,7.3852e-05,0,0,0.067587,-0.024995,0,0.00038403,0,0,0,0.038282,0.0026727,0.012286,0.11883,0.017747,0.031907,1.172e-06,0.9,0.53,0
0.043815,-0.00080296,0.038304,0.0020618,0.01211,-2.0569e-05,0,0,0.068105,-0.026125,0,-0.00010696,0,0,0,0.038304,0.0020618,0.01211,-0.032517,0.017492,0.032408,1.1984e-06,0.91,0.53,0
0.044498,-0.00079131,0.038277,0.0015736,0.011955,-8.0025e-05,0,0,0.068436,-0.026992,0,-0.00041613,0,0,0,0.038277,0.0015734,0.011955,-0.12492,0.017268,0.03277,1.2148e-06,0.92,0.53,0
0.045184,-0.00078274,0.038222,0.0011863,0.011822,-0.00011124,0,0,0.068638,-0.027654,0,-0.00057847,0,0,0,0.038222,0.0011859,0.011822,-0.1721,0.017077,0.033028,1.2242e-06,0.93,0.53,0
0.045871,-0.00077651,0.038153,0.0008814,0.01171,-0.00012175,0,0,0.068751,-0.028155,0,-0.00063311,0,0,0,0.038154,0.000881,0.01171,-0.18716,0.016915,0.03321,1.2289e-06,0.94,0.53,0
0.046559,-0.00077202,0.038083,0.00064432,0.011618,-0.00011768,0,0,0.068808,-0.028532,0,-0.00061191,0,0,0,0.038083,0.00064395,0.011618,-0.18009,0.016782,0.033335,1.2307e-06,0.95,0.53,0
0.047247,-0.00076885,0.038017,0.00046373,0.011544,-0.00010354,0,0,0.068829,-0.028809,0,-0.00053841,0,0,0,0.038017,0.00046345,0.011544,-0.15797,0.016675,0.033421,1.2309e-06,0.96,0.53,0
0.047935,-0.00076668,0.037962,0.00033118,0.011488,-8.2616e-05,0,0,0.068832,-0.029007,0,-0.0004296,0,0,0,0.037962,0.00033099,0.011488,-0.12579,0.016594,0.033477,1.2302e-06,0.97,0.53,0
0.048624,-0.00076528,0.03792,0.00024055,0.011448,-5.7264e-05,0,0,0.068827,-0.02914,0,-0.00029777,0,0,0,0.03792,0.00024046,0.011448,-0.087075,0.016536,0.033512,1.2293e-06,0.98,0.53,0
0.049312,-0.00076449,0.037894,0.00018774,0.011425,-2.9254e-05,0,0,0.068821,-0.029216,0,-0.00015212,0,0,0,0.037894,0.00018772,0.011425,-0.044452,0.016502,0.033531,1.2287e-06,0.99,0.53,0
0.05,-0.00076424,0.037886,0.0001704,0.011417,4.8565e-06,0,0,0.068819,-0.029241,0,2.5254e-05,0,0,0,0.037886,0.0001704,0.011417,0.0073778,0.016491,0.033537,1.2285e-06,1,0.53,0
0,0,0.028991,0.012425,0.012425,-0.00056431,0,0,0.043072,5.421e-20,0,-0.0029344,0,0,0,0.02901,0.012405,0.012425,-1.9487,0.017947,0.016595,2.3473e-07,0,0.54,0
0.00043072,-2.9344e-05,0.028945,0.011888,0.01225,-0.00056399,0,0,0.043407,-0.00094142,0,-0.0029327,0,0,0,0.028963,0.011869,0.01225,-1.8917,0.017694,0.016907,2.4779e-07,0.01,0.54,0
0.00086814,-5.8797e-05,0.029125,0.011455,0.012174,-0.00056389,0,0,0.044072,-0.0018684,0,-0.0029322,0,0,0,0.029143,0.011437,0.012174,-1.826,0.017585,0.017349,2.6655e-07,0.02,0.54,0
0.0013122,-8.8312e-05,0.029303,0.01103,0.0121,-0.00056251,0,0,0.044729,-0.0027816,0,-0.002925,0,0,0,0.029321,0.011013,0.0121,-1.7615,0.017478,0.017789,2.8549e-07,0.03,0.54,0
0.0017627,-0.00011784,0.029481,0.010612,0.012028,-0.00055982,0,0,0.045378,-0.0036811,0,-0.0029111,0,0,0,0.029497,0.010596,0.012028,-1.6979,0.017374,0.018228,3.0459e-07,0.04,0.54,0
0.0022197,-0.00014734,0.029657,0.010201,0.011957,-0.0005558,0,0,0.046019,-0.0045672,0,-0.0028901,0,0,0,0.029673,0.010185,0.011957,-1.6349,0.017272,0.018665,3.2384e-07,0.05,0.54,0
0.0026831,-0.00017674,0.029832,0.0097962,0.011888,-0.00055044,0,0,0.046653,-0.0054399,0,-0.0028623,0,0,0,0.029847,0.0097811,0.011888,-1.5725,0.017172,0.0191,3.4321e-07,0.06,0.54,0
0.0031528,-0.00020602,0.030006,0.0093986,0.011821,-0.00054373,0,0,0.047279,-0.006299,0,-0.0028274,0,0,0,0.03002,0.0093843,0.011821,-1.5104,0.017075,0.019532,3.6267e-07,0.07,0.54,0
0.0036287,-0.00023511,0.030178,0.0090081,0.011756,-0.00053569,0,0,0.047898,-0.0071443,0,-0.0027856,0,0,0,0.030192,0.0089945,0.011756,-1.4486,0.016981,0.01996,3.8221e-07,0.08,0.54,0
0.0041107,-0.00026397,0.030349,0.0086247,0.011692,-0.00052632,0,0,0.048509,-0.0079755,0,-0.0027368,0,0,0,0.030362,0.008612,0.011692,-1.387,0.016889,0.020385,4.018e-07,0.09,0.54,0
0.0045988,-0.00029254,0.030519,0.0082488,0.011631,-0.00051565,0,0,0.049111,-0.0087924,0,-0.0026814,0,0,0,0.030531,0.0082368,0.011631,-1.3257,0.016799,0.020806,4.2142e-07,0.1,0.54,0
0.005093,-0.00032077,0.030688,0.0078804,0.011571,-0.00050371,0,0,0.049706,-0.0095944,0,-0.0026193,0,0,0,0.030699,0.0078693,0.011571,-1.2646,0.016713,0.021223,4.4103e-07,0.11,0.54,0
0.005593,-0.00034863,0.030856,0.0075199,0.011513,-0.00049055,0,0,0.050292,-0.010381,0,-0.0025509,0,0,0,0.030866,0.0075096,0.011513,-1.2037,0.016629,0.021634,4.6062e-07,0.12,0.54,0
0.0060988,-0.00037606,0.031022,0.0071675,0.011457,-0.00047622,0,0,0.050869,-0.011152,0,-0.0024763,0,0,0,0.031031,0.007158,0.011457,-1.1432,0.016549,0.022041,4.8015e-07,0.13,0.54,0
0.0066103,-0.00040302,0.031187,0.0068235,0.011403,-0.00046077,0,0,0.051437,-0.011907,0,-0.002396,0,0,0,0.031195,0.0068147,0.011403,-1.0831,0.016471,0.022441,4.9962e-07,0.14,0.54,0
0.0071275,-0.00042946,0.03135,0.006488,0.011351,-0.00044428,0,0,0.051997,-0.012645,0,-0.0023102,0,0,0,0.031358,0.0064801,0.011351,-1.0234,0.016397,0.022835,5.1899e-07,0.15,0.54,0
0.0076503,-0.00045535,0.031512,0.0061614,0.011302,-0.00042681,0,0,0.052547,-0.013366,0,-0.0022194,0,0,0,0.03152,0.0061542,0.011302,-0.96426,0.016325,0.023224,5.3826e-07,0.16,0.54,0
0.0081785,-0.00048065,0.031674,0.0058439,0.011255,-0.00040845,0,0,0.053088,-0.01407,0,-0.0021239,0,0,0,0.03168,0.0058375,0.011255,-0.90571,0.016258,0.023605,5.574e-07,0.17,0.54,0
0.008712,-0.00050533,0.031834,0.0055358,0.011211,-0.00038927,0,0,0.05362,-0.014755,0,-0.0020242,0,0,0,0.03184,0.0055301,0.011211,-0.84785,0.016194,0.023979,5.764e-07,0.18,0.54,0
0.0092509,-0.00052935,0.031993,0.0052374,0.011169,-0.00036936,0,0,0.054142,-0.015423,0,-0.0019207,0,0,0,0.031998,0.0052323,0.011169,-0.79076,0.016133,0.024347,5.9525e-07,0.19,0.54,0
0.0097949,-0.00055269,0.032152,0.0049488,0.01113,-0.00034881,0,0,0.054656,-0.016071,0,-0.0018138,0,0,0,0.032156,0.0049443,0.01113,-0.73451,0.016077,0.024707,6.1395e-07,0.2,0.54,0
0.010344,-0.00057531,0.032309,0.0046703,0.011094,-0.0003277,0,0,0.055161,-0.016702,0,-0.001704,0,0,0,0.032313,0.0046664,0.011094,-0.67919,0.016025,0.025059,6.325e-07,0.21,0.54,0
0.010898,-0.00059721,0.032467,0.0044022,0.011061,-0.00030613,0,0,0.055656,-0.017312,0,-0.0015919,0,0,0,0.03247,0.0043989,0.011061,-0.62487,0.015977,0.025404,6.509e-07,0.22,0.54,0
0.011457,-0.00061837,0.032625,0.0041446,0.011031,-0.00028417,0,0,0.056144,-0.017904,0,-0.0014777,0,0,0,0.032627,0.0041418,0.011031,-0.57162,0.015933,0.025742,6.6914e-07,0.23,0.54,0
0.012021,-0.00063876,0.032782,0.0038979,0.011004,-0.00026192,0,0,0.056624,-0.018476,0,-0.001362,0,0,0,0.032785,0.0038955,0.011004,-0.5195,0.015895,0.026072,6.8725e-07,0.24,0.54,0
0.01259,-0.00065837,0.032941,0.0036622,0.010981,-0.00023946,0,0,0.057096,-0.019029,0,-0.0012452,0,0,0,0.032943,0.0036602,0.010981,-0.46855,0.015861,0.026395,7.0524e-07,0.25,0.54,0
0.013163,-0.00067722,0.0331,0.0034379,0.010961,-0.00021686,0,0,0.057561,-0.019561,0,-0.0011277,0,0,0,0.033102,0.0034363,0.010961,-0.41885,0.015833,0.02671,7.2313e-07,0.26,0.54,0
0.013741,-0.00069527,0.033261,0.0032251,0.010946,-0.00019419,0,0,0.05802,-0.020074,0,-0.0010098,0,0,0,0.033262,0.0032239,0.010946,-0.37042,0.015811,0.027018,7.4093e-07,0.27,0.54,0
0.014323,-0.00071255,0.033424,0.0030244,0.010934,-0.00017155,0,0,0.058472,-0.020566,0,-0.00089204,0,0,0,0.033425,0.0030234,0.010934,-0.32331,0.015794,0.027319,7.5867e-07,0.28,0.54,0
0.01491,-0.00072904,0.033589,0.0028359,0.010927,-0.00014898,0,0,0.058919,-0.021038,0,-0.00077471,0,0,0,0.033589,0.0028352,0.010927,-0.27756,0.015784,0.027612,7.7638e-07,0.29,0.54,0
0.015502,-0.00074476,0.033757,0.0026604,0.010925,-0.00012657,0,0,0.059362,-0.021488,0,-0.00065815,0,0,0,0.033757,0.0026598,0.010925,-0.2332,0.015781,0.027899,7.9409e-07,0.3,0.54,0
0.016098,-0.00075973,0.033928,0.0024981,0.010928,-0.00010437,0,0,0.0598,-0.021917,0,-0.00054271,0,0,0,0.033928,0.0024978,0.010928,-0.19026,0.015785,0.028178,8.1182e-07,0.31,0.54,0
0.016698,-0.00077394,0.034103,0.00235,0.010936,-8.2445e-05,0,0,0.060235,-0.022324,0,-0.00042872,0,0,0,0.034104,0.0023497,0.010936,-0.14876,0.015796,0.02845,8.296e-07,0.32,0.54,0
0.017302,-0.00078743,0.034283,0.0022167,0.01095,-6.0869e-05,0,0,0.060666,-0.022706,0,-0.00031652,0,0,0,0.034283,0.0022166,0.01095,-0.10876,0.015817,0.028714,8.4745e-07,0.33,0.54,0
0.017911,-0.00080022,0.034468,0.0020995,0.01097,-3.9709e-05,0,0,0.061094,-0.023064,0,-0.00020649,0,0,0,0.034468,0.0020995,0.01097,-0.070289,0.015846,0.02897,8.654e-07,0.34,0.54,0
0.018524,-0.00081232,0.034659,0.0019996,0.010997,-1.9042e-05,0,0,0.061519,-0.023394,0,-9.9018e-05,0,0,0,0.034659,0.0019996,0.010997,-0.033406,0.015885,0.029218,8.8343e-07,0.35,0.54,0
0.019141,-0.00082379,0.034855,0.0019188,0.011032,1.0398e-06,0,0,0.061939,-0.023695,0,5.4067e-06,0,0,0,0.034855,0.0019188,0.011032,0.0018088,0.015935,0.029456,9.0154e-07,0.36,0.54,0
0.019763,-0.00083465,0.035057,0.0018591,0.011075,2.0425e-05,0,0,0.062355,-0.023961,0,0.00010621,0,0,0,0.035057,0.0018591,0.011075,0.03525,0.015997,0.029684,9.1969e-07,0.37,0.54,0
0.020389,-0.00084495,0.035266,0.0018233,0.011127,3.8972e-05,0,0,0.062762,-0.024189,0,0.00020265,0,0,0,0.035266,0.0018233,0.011127,0.066768,0.016072,0.029897,9.3778e-07,0.38,0.54,0
0.021018,-0.00085475,0.035481,0.0018149,0.011189,5.65e-05,0,0,0.06316,-0.024372,0,0.0002938,0,0,0,0.035481,0.0018148,0.011189,0.096156,0.016162,0.030095,9.5569e-07,0.39,0.54,0
0.021652,-0.00086411,0.035702,0.0018382,0.011262,7.2776e-05,0,0,0.063543,-0.024502,0,0.00037843,0,0,0,0.035702,0.0018381,0.011262,0.12313,0.016267,0.030273,9.7321e-07,0.4,0.54,0
0.022289,-0.00087311,0.035926,0.001899,0.011348,8.7501e-05,0,0,0.063905,-0.024566,0,0.00045501,0,0,0,0.035927,0.0018988,0.011348,0.14733,0.016391,0.030424,9.9001e-07,0.41,0.54,0
0.02293,-0.00088185,0.036153,0.0020045,0.011447,0.00010032,0,0,0.064236,-0.024552,0,0.00052166,0,0,0,0.036154,0.0020042,0.011447,0.16832,0.016535,0.030543,1.0056e-06,0.42,0.54,0
0.023574,-0.00089045,0.036381,0.002164,0.011563,0.00011088,0,0,0.064525,-0.024438,0,0.00057656,0,0,0,0.036381,0.0021636,0.011563,0.18566,0.016703,0.030619,1.0195e-06,0.43,0.54,0
0.02422,-0.00089903,0.036605,0.0023896,0.011698,0.00011903,0,0,0.064757,-0.024203,0,0.00061896,0,0,0,0.036606,0.0023892,0.011698,0.19932,0.016898,0.030641,1.0308e-06,0.44,0.54,0
0.024869,-0.00090777,0.036826,0.0026972,0.011857,0.0001256,0,0,0.06492,-0.023815,0,0.00065311,0,0,0,0.036826,0.0026967,0.011857,0.21085,0.017127,0.030596,1.0387e-06,0.45,0.54,0
0.025519,-0.00091679,0.037051,0.0031087,0.012048,0.00013451,0,0,0.065008,-0.023242,0,0.00069946,0,0,0,0.037051,0.0031082,0.012048,0.22706,0.017403,0.030473,1.0428e-06,0.46,0.54,0
0.026169,-0.00092617,0.037315,0.0036577,0.012292,0.00015939,0,0,0.065061,-0.022449,0,0.00082881,0,0,0,0.037316,0.0036569,0.012292,0.27132,0.017755,0.03028,1.0446e-06,0.47,0.54,0
0.02682,-0.00093567,0.037757,0.0044189,0.012653,0.00024558,0,0,0.065271,-0.021408,0,0.001277,0,0,0,0.037759,0.004417,0.012653,0.42203,0.018276,0.030082,1.0528e-06,0.48,0.54,0
0.027474,-0.00094406,0.038403,0.0054424,0.013154,0.00030436,0,0,0.065648,-0.020049,0,0.0015826,0,0,0,0.038406,0.0054396,0.013154,0.52901,0.019,0.029866,1.0666e-06,0.49,0.54,0
0.028133,-0.00097315,0.042074,0.0049703,0.014113,0.00048637,0,0,0.050947,-0.015882,0,0.0027916,0,0,0,0.042098,0.0049458,0.014113,1.0469,0.020386,0.033534,1.6243e-06,0.5,0.54,0
0.028568,-0.00098468,0.034102,0.0026243,0.011018,-0.00092967,0,0,0.040884,-0.014603,0,-0.0040941,0,0,0,0.034143,0.0025833,0.011018,-2.044,0.015915,0.028303,1.0096e-06,0.51,0.54,0
0.028924,-0.00097963,0.038364,-0.00079515,0.011271,-0.00029845,0,0,0.035222,-0.015686,0,-0.00077597,0,0,0,0.038367,-0.00079743,0.011271,-0.43664,0.01628,0.034739,1.31e-06,0.52,0.54,0
0.029272,-0.00098799,0.037546,-0.00070166,0.011053,-0.00018013,0,0,0.03444,-0.015281,0,-0.00046834,0,0,0,0.037546,-0.00070251,0.011053,-0.26983,0.015966,0.033934,1.2252e-06,0.53,0.54,0
0.029613,-0.00099415,0.037033,-0.00066848,0.010909,-9.7584e-06,0,0,0.033961,-0.015051,0,-2.5372e-05,0,0,0,0.037033,-0.00066848,0.010909,-0.01483,0.015758,0.033451,1.1749e-06,0.54,0.54,0
0.029951,-0.00099905,0.036856,-0.00065069,0.010861,5.5743e-05,0,0,0.033793,-0.014966,0,0.00014493,0,0,0,0.036856,-0.00065077,0.010861,0.085155,0.015689,0.033279,1.1576e-06,0.55,0.54,0
0.030289,-0.0010033,0.036804,-0.00064975,0.010846,7.6358e-05,0,0,0.033745,-0.014945,0,0.00019853,0,0,0,0.036804,-0.00064991,0.010846,0.11681,0.015667,0.033232,1.1528e-06,0.56,0.54,0
0.030626,-0.0010074,0.036796,-0.00065309,0.010843,8.1126e-05,0,0,0.033739,-0.014945,0,0.00021093,0,0,0,0.036796,-0.00065327,0.010843,0.12412,0.015662,0.033228,1.1521e-06,0.57,0.54,0
0.030964,-0.0010112,0.036799,-0.00065935,0.010842,8.0625e-05,0,0,0.033744,-0.014952,0,0.00020963,0,0,0,0.036799,-0.00065953,0.010842,0.12332,0.015661,0.033236,1.1526e-06,0.58,0.54,0
0.031301,-0.001015,0.036805,-0.00066737,0.010841,7.8241e-05,0,0,0.033753,-0.014961,0,0.00020343,0,0,0,0.036806,-0.00066753,0.010841,0.11963,0.01566,0.033248,1.1535e-06,0.59,0.54,0
0.031639,-0.0010187,0.036812,-0.00067614,0.010841,7.4972e-05,0,0,0.033763,-0.014972,0,0.00019493,0,0,0,0.036812,-0.00067628,0.010841,0.11458,0.015659,0.033261,1.1544e-06,0.6,0.54,0
0.031976,-0.0010224,0.036819,-0.0006853,0.01084,7.1296e-05,0,0,0.033773,-0.014983,0,0.00018537,0,0,0,0.036819,-0.00068543,0.01084,0.10892,0.015658,0.033274,1.1553e-06,0.61,0.54,0
0.032314,-0.001026,0.036827,-0.00069498,0.01084,6.748e-05,0,0,0.033783,-0.014995,0,0.00017545,0,0,0,0.036827,-0.00069511,0.01084,0.10304,0.015657,0.033289,1.1563e-06,0.62,0.54,0
0.032652,-0.0010295,0.036835,-0.00070559,0.010839,6.3682e-05,0,0,0.033795,-0.015008,0,0.00016557,0,0,0,0.036835,-0.0007057,0.010839,0.097193,0.015656,0.033304,1.1574e-06,0.63,0.54,0
0.03299,-0.001033,0.036844,-0.00071758,0.010838,5.9999e-05,0,0,0.033808,-0.015022,0,0.000156,0,0,0,0.036844,-0.00071767,0.010838,0.091521,0.015655,0.033322,1.1586e-06,0.64,0.54,0
0.033328,-0.0010364,0.036855,-0.00073142,0.010837,5.6486e-05,0,0,0.033823,-0.015039,0,0.00014687,0,0,0,0.036855,-0.00073151,0.010837,0.086107,0.015653,0.033343,1.1601e-06,0.65,0.54,0
0.033667,-0.0010398,0.036867,-0.00074759,0.010836,5.316e-05,0,0,0.033841,-0.015059,0,0.00013821,0,0,0,0.036868,-0.00074767,0.010836,0.080974,0.015652,0.033367,1.1618e-06,0.66,0.54,0
0.034005,-0.0010431,0.036882,-0.00076649,0.010835,4.9991e-05,0,0,0.033862,-0.015082,0,0.00012998,0,0,0,0.036882,-0.00076656,0.010835,0.076079,0.01565,0.033396,1.1638e-06,0.67,0.54,0
0.034344,-0.0010464,0.0369,-0.00078843,0.010833,4.6911e-05,0,0,0.033886,-0.015108,0,0.00012197,0,0,0,0.0369,-0.00078849,0.010833,0.071316,0.015648,0.033429,1.1661e-06,0.68,0.54,0
0.034683,-0.0010496,0.03692,-0.0008136,0.010832,4.3817e-05,0,0,0.033914,-0.015139,0,0.00011392,0,0,0,0.03692,-0.00081365,0.010832,0.066533,0.015646,0.033467,1.1688e-06,0.69,0.54,0
0.035022,-0.0010527,0.036943,-0.00084207,0.01083,4.0592e-05,0,0,0.033946,-0.015174,0,0.00010554,0,0,0,0.036943,-0.00084211,0.01083,0.061553,0.015644,0.033509,1.1719e-06,0.7,0.54,0
0.035362,-0.0010559,0.036968,-0.00087373,0.010828,3.7123e-05,0,0,0.033981,-0.015212,0,9.6519e-05,0,0,0,0.036968,-0.00087377,0.010828,0.056208,0.015641,0.033557,1.1752e-06,0.71,0.54,0
0.035702,-0.0010589,0.036995,-0.00090839,0.010826,3.3316e-05,0,0,0.03402,-0.015255,0,8.6621e-05,0,0,0,0.036995,-0.00090842,0.010826,0.050361,0.015637,0.033609,1.1789e-06,0.72,0.54,0
0.036042,-0.001062,0.037024,-0.00094574,0.010823,2.9101e-05,0,0,0.034061,-0.0153,0,7.5662e-05,0,0,0,0.037024,-0.00094576,0.010823,0.043912,0.015634,0.033665,1.1829e-06,0.73,0.54,0
0.036383,-0.001065,0.037055,-0.00098543,0.010821,2.4424e-05,0,0,0.034104,-0.015348,0,6.3501e-05,0,0,0,0.037055,-0.00098545,0.010821,0.036786,0.01563,0.033724,1.187e-06,0.74,0.54,0
0.036724,-0.0010679,0.037086,-0.0010271,0.010818,1.923e-05,0,0,0.034149,-0.015398,0,4.9998e-05,0,0,0,0.037086,-0.0010271,0.010818,0.028909,0.015626,0.033786,1.1913e-06,0.75,0.54,0
0.037066,-0.0010709,0.037116,-0.0010704,0.010814,1.3441e-05,0,0,0.034193,-0.015449,0,3.4947e-05,0,0,0,0.037116,-0.0010704,0.010814,0.020167,0.01562,0.033847,1.1956e-06,0.76,0.54,0
0.037408,-0.0010739,0.037145,-0.0011151,0.010809,6.9288e-06,0,0,0.034237,-0.015501,0,1.8015e-05,0,0,0,0.037145,-0.0011151,0.010809,0.010376,0.015613,0.033909,1.1997e-06,0.77,0.54,0
0.037751,-0.0010768,0.037169,-0.0011612,0.010802,-5.2896e-07,0,0,0.034277,-0.015553,0,-1.3753e-06,0,0,0,0.037169,-0.0011612,0.010802,-0.00079069,0.015603,0.033967,1.2035e-06,0.78,0.54,0
0.038094,-0.0010797,0.037186,-0.0012097,0.010793,-9.3313e-06,0,0,0.034311,-0.015603,0,-2.4262e-05,0,0,0,0.037186,-0.0012097,0.010793,-0.013925,0.01559,0.034021,1.2066e-06,0.79,0.54,0
0.038437,-0.0010827,0.037191,-0.0012624,0.010778,-2.0124e-05,0,0,0.034336,-0.015653,0,-5.2323e-05,0,0,0,0.037191,-0.0012624,0.010778,-0.029985,0.015569,0.034068,1.2088e-06,0.8,0.54,0
0.03878,-0.0010856,0.037179,-0.0013232,0.010757,-3.286e-05,0,0,0.034349,-0.015704,0,-8.5436e-05,0,0,0,0.037179,-0.0013232,0.010757,-0.048899,0.015538,0.034107,1.2096e-06,0.81,0.54,0
0.039124,-0.0010884,0.037156,-0.0014008,0.010727,-4.414e-05,0,0,0.034359,-0.015766,0,-0.00011476,0,0,0,0.037156,-0.0014008,0.010727,-0.065591,0.015494,0.034149,1.2098e-06,0.82,0.54,0
0.039468,-0.0010908,0.03714,-0.0015309,0.010683,-4.2459e-05,0,0,0.034395,-0.015878,0,-0.00011039,0,0,0,0.03714,-0.0015309,0.010683,-0.062907,0.015431,0.034239,1.2122e-06,0.83,0.54,0
0.039812,-0.0010925,0.037169,-0.0017978,0.010611,-1.5685e-05,0,0,0.034525,-0.016132,0,-4.078e-05,0,0,0,0.037169,-0.0017978,0.010611,-0.023063,0.015327,0.03448,1.2231e-06,0.84,0.54,0
0.040158,-0.0010927,0.037273,-0.002333,0.010482,3.898e-05,0,0,0.034828,-0.016659,0,0.00010135,0,0,0,0.037273,-0.0023331,0.010482,0.056391,0.015141,0.035004,1.2492e-06,0.85,0.54,0
0.040508,-0.0010912,0.037425,0.0015833,0.011703,9.2127e-05,0,0,0.049363,-0.01754,0,0.00039146,0,0,0,0.037426,0.0015831,0.011703,0.15489,0.016904,0.03207,1.1106e-06,0.86,0.54,0
0.041145,-0.0010853,0.037682,0.0054627,0.012944,0.00011173,0,0,0.064321,-0.01945,0,0.00058101,0,0,0,0.037683,0.0054623,0.012944,0.19869,0.018696,0.029207,1.0022e-06,0.87,0.54,0
0.041795,-0.0010786,0.037925,0.0044592,0.012715,9.3878e-05,0,0,0.065545,-0.021466,0,0.00048816,0,0,0,0.037925,0.0044589,0.012715,0.16072,0.018367,0.030197,1.0658e-06,0.88,0.54,0
0.042456,-0.0010724,0.038124,0.0035322,0.012497,5.601e-05,0,0,0.066631,-0.023308,0,0.00029125,0,0,0,0.038124,0.0035321,0.012497,0.092771,0.018051,0.031095,1.1223e-06,0.89,0.54,0
0.043127,-0.0010673,0.038253,0.002746,0.012299,1.5297e-05,0,0,0.067478,-0.024839,0,7.9545e-05,0,0,0,0.038253,0.002746,0.012299,0.024685,0.017766,0.031824,1.1663e-06,0.9,0.54,0
0.043806,-0.0010636,0.038309,0.0021079,0.012125,-1.6469e-05,0,0,0.068077,-0.026044,0,-8.564e-05,0,0,0,0.038309,0.0021079,0.012125,-0.026066,0.017514,0.032376,1.197e-06,0.91,0.54,0
0.044489,-0.0010611,0.038307,0.0015988,0.011972,-3.6705e-05,0,0,0.068471,-0.026969,0,-0.00019086,0,0,0,0.038307,0.0015988,0.011972,-0.057291,0.017292,0.032777,1.2167e-06,0.92,0.54,0
0.045175,-0.0010594,0.038267,0.0011963,0.011839,-4.6984e-05,0,0,0.068713,-0.027671,0,-0.00024431,0,0,0,0.038267,0.0011962,0.011839,-0.072616,0.017101,0.03306,1.2282e-06,0.93,0.54,0
0.045863,-0.0010584,0.038208,0.00088063,0.011727,-4.9833e-05,0,0,0.068852,-0.0282,0,-0.00025913,0,0,0,0.038208,0.00088056,0.011727,-0.076491,0.016938,0.033259,1.2343e-06,0.94,0.54,0
0.046552,-0.0010578,0.038143,0.00063604,0.011634,-4.7416e-05,0,0,0.068923,-0.028594,0,-0.00024656,0,0,0,0.038143,0.00063598,0.011634,-0.072433,0.016804,0.033395,1.2368e-06,0.95,0.54,0
0.047242,-0.0010575,0.038079,0.0004503,0.011559,-4.1356e-05,0,0,0.068953,-0.028882,0,-0.00021505,0,0,0,0.03808,0.00045025,0.011559,-0.06297,0.016696,0.033487,1.2374e-06,0.96,0.54,0
0.047931,-0.0010574,0.038025,0.00031429,0.011502,-3.2828e-05,0,0,0.068961,-0.029088,0,-0.00017071,0,0,0,0.038025,0.00031426,0.011502,-0.049877,0.016614,0.033547,1.237e-06,0.97,0.54,0
0.048621,-0.0010573,0.037984,0.00022147,0.011462,-2.2686e-05,0,0,0.068958,-0.029224,0,-0.00011797,0,0,0,0.037984,0.00022145,0.011462,-0.034421,0.016556,0.033584,1.2363e-06,0.98,0.54,0
0.049311,-0.0010573,0.037958,0.00016745,0.011438,-1.1571e-05,0,0,0.068954,-0.029303,0,-6.0171e-05,0,0,0,0.037958,0.00016744,0.011438,-0.017544,0.016521,0.033604,1.2357e-06,0.99,0.54,0
0.05,-0.0010573,0.03795,0.00014972,0.01143,-5.1238e-09,0,0,0.068951,-0.029328,0,-2.6644e-08,0,0,0,0.03795,0.00014972,0.01143,-7.7665e-06,0.01651,0.033611,1.2354e-06,1,0.54,0
0,0,0.028994,0.012426,0.012426,-0.00074561,0,0,0.043076,-1.0842e-19,0,-0.0038772,0,0,0,0.029027,0.012392,0.012426,-2.5716,0.017948,0.016618,2.357e-07,0,0.55,0
0.00043076,-3.8772e-05,0.028947,0.011887,0.01225,-0.00074509,0,0,0.043412,-0.00094386,0,-0.0038745,0,0,0,0.02898,0.011855,0.01225,-2.4961,0.017695,0.016931,2.4879e-07,0.01,0.55,0
0.00086823,-7.7509e-05,0.029128,0.011454,0.012174,-0.00074351,0,0,0.044078,-0.0018735,0,-0.0038663,0,0,0,0.029159,0.011423,0.012174,-2.4047,0.017585,0.017373,2.6759e-07,0.02,0.55,0
0.0013123,-0.00011617,0.029307,0.011028,0.0121,-0.00074077,0,0,0.044737,-0.0027892,0,-0.003852,0,0,0,0.029337,0.010998,0.0121,-2.3169,0.017478,0.017814,2.8657e-07,0.03,0.55,0
0.001763,-0.00015471,0.029485,0.010608,0.012028,-0.0007368,0,0,0.045388,-0.0036915,0,-0.0038314,0,0,0,0.029514,0.010579,0.012028,-2.2319,0.017374,0.018253,3.0572e-07,0.04,0.55,0
0.0022201,-0.00019308,0.029662,0.010195,0.011957,-0.00073155,0,0,0.046032,-0.0045804,0,-0.003804,0,0,0,0.029689,0.010168,0.011957,-2.1492,0.017271,0.018691,3.2502e-07,0.05,0.55,0
0.0026836,-0.00023123,0.029837,0.0097895,0.011888,-0.00072497,0,0,0.046667,-0.0054558,0,-0.0037698,0,0,0,0.029863,0.0097634,0.011888,-2.0684,0.017171,0.019126,3.4444e-07,0.06,0.55,0
0.0031534,-0.00026911,0.030011,0.0093906,0.01182,-0.00071705,0,0,0.047295,-0.0063177,0,-0.0037287,0,0,0,0.030036,0.0093657,0.01182,-1.9892,0.017074,0.019559,3.6395e-07,0.07,0.55,0
0.0036295,-0.00030666,0.030184,0.0089987,0.011755,-0.00070777,0,0,0.047916,-0.0071658,0,-0.0036804,0,0,0,0.030208,0.0089751,0.011755,-1.9113,0.016979,0.019988,3.8354e-07,0.08,0.55,0
0.0041118,-0.00034385,0.030356,0.008614,0.011691,-0.00069714,0,0,0.048528,-0.0079998,0,-0.0036251,0,0,0,0.030378,0.0085917,0.011691,-1.8347,0.016887,0.020414,4.0318e-07,0.09,0.55,0
0.0046001,-0.0003806,0.030526,0.0082368,0.011629,-0.00068519,0,0,0.049133,-0.0088193,0,-0.003563,0,0,0,0.030547,0.0082158,0.011629,-1.7591,0.016797,0.020835,4.2284e-07,0.1,0.55,0
0.0050944,-0.00041687,0.030695,0.0078672,0.011569,-0.00067194,0,0,0.049729,-0.0096239,0,-0.0034941,0,0,0,0.030715,0.0078474,0.011569,-1.6846,0.01671,0.021253,4.4249e-07,0.11,0.55,0
0.0055947,-0.0004526,0.030863,0.0075055,0.01151,-0.00065745,0,0,0.050316,-0.010413,0,-0.0034187,0,0,0,0.030881,0.007487,0.01151,-1.611,0.016626,0.021665,4.6211e-07,0.12,0.55,0
0.0061007,-0.00048775,0.031029,0.0071519,0.011454,-0.00064178,0,0,0.050895,-0.011186,0,-0.0033372,0,0,0,0.031046,0.0071347,0.011454,-1.5385,0.016545,0.022071,4.8168e-07,0.13,0.55,0
0.0066126,-0.00052227,0.031194,0.0068068,0.0114,-0.00062501,0,0,0.051464,-0.011943,0,-0.00325,0,0,0,0.03121,0.0067908,0.0114,-1.4671,0.016467,0.022472,5.0118e-07,0.14,0.55,0
0.00713,-0.00055611,0.031358,0.0064703,0.011348,-0.00060722,0,0,0.052024,-0.012683,0,-0.0031575,0,0,0,0.031373,0.0064555,0.011348,-1.3968,0.016392,0.022867,5.2057e-07,0.15,0.55,0
0.007653,-0.00058922,0.03152,0.0061428,0.011299,-0.00058851,0,0,0.052575,-0.013406,0,-0.0030603,0,0,0,0.031534,0.0061292,0.011299,-1.3278,0.016321,0.023255,5.3985e-07,0.16,0.55,0
0.0081815,-0.00062156,0.031681,0.0058246,0.011252,-0.00056899,0,0,0.053117,-0.014111,0,-0.0029588,0,0,0,0.031694,0.005812,0.011252,-1.26,0.016253,0.023636,5.5899e-07,0.17,0.55,0
0.0087154,-0.0006531,0.031842,0.0055157,0.011207,-0.00054877,0,0,0.053649,-0.014798,0,-0.0028536,0,0,0,0.031853,0.0055043,0.011207,-1.1937,0.016188,0.024011,5.7799e-07,0.18,0.55,0
0.0092545,-0.0006838,0.032001,0.0052167,0.011165,-0.00052796,0,0,0.054172,-0.015466,0,-0.0027454,0,0,0,0.032011,0.0052063,0.011165,-1.1288,0.016127,0.024378,5.9684e-07,0.19,0.55,0
0.0097988,-0.00071364,0.032159,0.0049276,0.011126,-0.00050669,0,0,0.054686,-0.016116,0,-0.0026348,0,0,0,0.032168,0.0049182,0.011126,-1.0656,0.016071,0.024737,6.1553e-07,0.2,0.55,0
0.010348,-0.00074257,0.032316,0.0046487,0.01109,-0.00048509,0,0,0.05519,-0.016746,0,-0.0025224,0,0,0,0.032325,0.0046402,0.01109,-1.0041,0.016018,0.02509,6.3405e-07,0.21,0.55,0
0.010903,-0.00077058,0.032474,0.0043803,0.011056,-0.00046326,0,0,0.055686,-0.017357,0,-0.002409,0,0,0,0.032481,0.0043727,0.011056,-0.94447,0.01597,0.025434,6.5242e-07,0.22,0.55,0
0.011462,-0.00079765,0.032631,0.0041226,0.011026,-0.00044135,0,0,0.056173,-0.017949,0,-0.002295,0,0,0,0.032638,0.0041157,0.011026,-0.88674,0.015926,0.025771,6.7063e-07,0.23,0.55,0
0.012026,-0.00082377,0.032788,0.0038757,0.010999,-0.00041947,0,0,0.056652,-0.018521,0,-0.0021812,0,0,0,0.032794,0.0038697,0.010999,-0.83103,0.015888,0.026101,6.887e-07,0.24,0.55,0
0.012595,-0.00084891,0.032946,0.0036401,0.010976,-0.00039775,0,0,0.057123,-0.019073,0,-0.0020683,0,0,0,0.032952,0.0036347,0.010976,-0.77743,0.015854,0.026423,7.0664e-07,0.25,0.55,0
0.013168,-0.00087308,0.033105,0.0034159,0.010956,-0.00037629,0,0,0.057587,-0.019605,0,-0.0019567,0,0,0,0.03311,0.0034111,0.010956,-0.72603,0.015826,0.026737,7.2447e-07,0.26,0.55,0
0.013747,-0.00089626,0.033265,0.0032034,0.010941,-0.00035522,0,0,0.058044,-0.020117,0,-0.0018472,0,0,0,0.033269,0.0031991,0.010941,-0.6769,0.015803,0.027044,7.4221e-07,0.27,0.55,0
0.014329,-0.00091846,0.033427,0.0030029,0.010929,-0.00033465,0,0,0.058495,-0.020608,0,-0.0017402,0,0,0,0.033431,0.0029992,0.010929,-0.63011,0.015786,0.027343,7.5988e-07,0.28,0.55,0
0.014917,-0.00093967,0.033592,0.0028148,0.010922,-0.00031466,0,0,0.058941,-0.021079,0,-0.0016362,0,0,0,0.033595,0.0028116,0.010922,-0.58571,0.015776,0.027636,7.7752e-07,0.29,0.55,0
0.015508,-0.0009599,0.033759,0.0026397,0.01092,-0.00029536,0,0,0.059382,-0.021528,0,-0.0015359,0,0,0,0.033762,0.0026369,0.01092,-0.54375,0.015773,0.027921,7.9515e-07,0.3,0.55,0
0.016104,-0.00097915,0.03393,0.002478,0.010922,-0.00027683,0,0,0.059819,-0.021955,0,-0.0014395,0,0,0,0.033932,0.0024756,0.010922,-0.50426,0.015777,0.028198,8.128e-07,0.31,0.55,0
0.016705,-0.00099743,0.034104,0.0023304,0.01093,-0.00025914,0,0,0.060252,-0.02236,0,-0.0013475,0,0,0,0.034106,0.0023283,0.01093,-0.46725,0.015788,0.028469,8.3049e-07,0.32,0.55,0
0.017309,-0.0010147,0.034283,0.0021979,0.010944,-0.00024235,0,0,0.060681,-0.022741,0,-0.0012602,0,0,0,0.034285,0.002196,0.010944,-0.43273,0.015808,0.028732,8.4826e-07,0.33,0.55,0
0.017918,-0.0010311,0.034467,0.0020813,0.010965,-0.00022649,0,0,0.061107,-0.023097,0,-0.0011777,0,0,0,0.034469,0.0020798,0.010965,-0.40067,0.015838,0.028987,8.661e-07,0.34,0.55,0
0.018531,-0.0010465,0.034657,0.0019822,0.010992,-0.00021159,0,0,0.06153,-0.023425,0,-0.0011003,0,0,0,0.034659,0.0019808,0.010992,-0.37101,0.015877,0.029233,8.8404e-07,0.35,0.55,0
0.019149,-0.001061,0.034853,0.0019021,0.011026,-0.00019765,0,0,0.061948,-0.023723,0,-0.0010278,0,0,0,0.034854,0.0019009,0.011026,-0.34367,0.015927,0.02947,9.0205e-07,0.36,0.55,0
0.01977,-0.0010745,0.035055,0.0018433,0.011069,-0.00018462,0,0,0.062362,-0.023988,0,-0.00096002,0,0,0,0.035056,0.0018422,0.011069,-0.31849,0.015989,0.029695,9.2008e-07,0.37,0.55,0
0.020396,-0.0010871,0.035263,0.0018083,0.011121,-0.00017241,0,0,0.062767,-0.024214,0,-0.00089652,0,0,0,0.035264,0.0018074,0.011121,-0.29527,0.016064,0.029907,9.3807e-07,0.38,0.55,0
0.021026,-0.0010987,0.035477,0.0018008,0.011183,-0.00016088,0,0,0.063163,-0.024394,0,-0.00083656,0,0,0,0.035478,0.0018,0.011183,-0.2737,0.016154,0.030103,9.5587e-07,0.39,0.55,0
0.021659,-0.0011093,0.035696,0.001825,0.011256,-0.0001498,0,0,0.063544,-0.024522,0,-0.00077898,0,0,0,0.035697,0.0018243,0.011256,-0.2534,0.016259,0.030279,9.7327e-07,0.4,0.55,0
0.022297,-0.001119,0.03592,0.0018866,0.011342,-0.00013889,0,0,0.063903,-0.024584,0,-0.00072221,0,0,0,0.035921,0.0018861,0.011342,-0.23381,0.016383,0.030429,9.8995e-07,0.41,0.55,0
0.022937,-0.0011276,0.036146,0.0019929,0.011442,-0.00012773,0,0,0.064232,-0.024567,0,-0.00066421,0,0,0,0.036147,0.0019924,0.011442,-0.21428,0.016527,0.030546,1.0055e-06,0.42,0.55,0
0.023581,-0.001135,0.036373,0.0021532,0.011558,-0.00011592,0,0,0.064519,-0.024452,0,-0.00060278,0,0,0,0.036373,0.0021528,0.011558,-0.19409,0.016695,0.030621,1.0192e-06,0.43,0.55,0
0.024228,-0.0011412,0.036597,0.0023795,0.011693,-0.0001032,0,0,0.06475,-0.024215,0,-0.00053664,0,0,0,0.036597,0.0023792,0.011693,-0.1728,0.01689,0.030641,1.0304e-06,0.44,0.55,0
0.024876,-0.0011461,0.036817,0.0026878,0.011851,-9.0238e-05,0,0,0.06491,-0.023825,0,-0.00046924,0,0,0,0.036817,0.0026875,0.011851,-0.15149,0.017119,0.030595,1.0382e-06,0.45,0.55,0
0.025526,-0.0011495,0.03704,0.0030998,0.012042,-8.0779e-05,0,0,0.064996,-0.02325,0,-0.00042005,0,0,0,0.037041,0.0030996,0.012042,-0.13636,0.017394,0.030471,1.0422e-06,0.46,0.55,0
0.026176,-0.0011514,0.037304,0.0036489,0.012286,-8.8205e-05,0,0,0.065047,-0.022456,0,-0.00045866,0,0,0,0.037304,0.0036487,0.012286,-0.15016,0.017746,0.030275,1.0439e-06,0.47,0.55,0
0.026827,-0.001152,0.037741,0.0044091,0.012645,-0.00015769,0,0,0.06525,-0.021414,0,-0.00081996,0,0,0,0.037742,0.0044084,0.012645,-0.27104,0.018265,0.030073,1.0517e-06,0.48,0.55,0
0.027481,-0.0011526,0.038377,0.0054303,0.013142,-0.00019782,0,0,0.065611,-0.020051,0,-0.0010287,0,0,0,0.038378,0.0054291,0.013142,-0.344,0.018983,0.02985,1.0647e-06,0.49,0.55,0
0.028139,-0.0011309,0.042058,0.0049541,0.014104,-0.00034225,0,0,0.050932,-0.015899,0,-0.0022678,0,0,0,0.042079,0.0049329,0.014104,-0.82365,0.020372,0.033527,1.6235e-06,0.5,0.55,0
0.028574,-0.0011275,0.034115,0.0026406,0.011027,0.0010617,0,0,0.04089,-0.014587,0,0.0045785,0,0,0,0.034166,0.0025907,0.011027,2.2912,0.015928,0.028317,1.0112e-06,0.51,0.55,0
0.028931,-0.0011419,0.038374,-0.00079489,0.011274,0.00044554,0,0,0.03523,-0.015689,0,0.0011584,0,0,0,0.038379,-0.00079995,0.011274,0.65162,0.016284,0.034752,1.3114e-06,0.52,0.55,0
0.029279,-0.0011427,0.037541,-0.00070314,0.011051,0.00033331,0,0,0.034436,-0.015281,0,0.0008666,0,0,0,0.037544,-0.00070605,0.011051,0.4993,0.015963,0.033934,1.2251e-06,0.53,0.55,0
0.029619,-0.0011453,0.037022,-0.00066985,0.010906,0.00016862,0,0,0.033951,-0.015048,0,0.00043842,0,0,0,0.037023,-0.00067061,0.010906,0.25632,0.015753,0.033443,1.174e-06,0.54,0.55,0
0.029958,-0.0011489,0.036843,-0.00065097,0.010858,0.00010553,0,0,0.033781,-0.014961,0,0.00027438,0,0,0,0.036843,-0.00065126,0.010858,0.16127,0.015683,0.033268,1.1565e-06,0.55,0.55,0
0.030295,-0.0011528,0.03679,-0.00064905,0.010842,8.4795e-05,0,0,0.033732,-0.014939,0,0.00022047,0,0,0,0.036791,-0.00064924,0.010842,0.12977,0.015661,0.03322,1.1515e-06,0.56,0.55,0
0.030632,-0.0011568,0.036782,-0.0006515,0.010839,7.7861e-05,0,0,0.033725,-0.014938,0,0.00020244,0,0,0,0.036782,-0.00065167,0.010839,0.11917,0.015656,0.033214,1.1507e-06,0.57,0.55,0
0.03097,-0.0011607,0.036785,-0.00065698,0.010838,7.4474e-05,0,0,0.03373,-0.014944,0,0.00019363,0,0,0,0.036785,-0.00065713,0.010838,0.11396,0.015655,0.033221,1.1512e-06,0.58,0.55,0
0.031307,-0.0011646,0.036791,-0.00066432,0.010838,7.1511e-05,0,0,0.033739,-0.014953,0,0.00018593,0,0,0,0.036791,-0.00066446,0.010838,0.10939,0.015655,0.033232,1.152e-06,0.59,0.55,0
0.031644,-0.0011684,0.036797,-0.00067256,0.010837,6.8233e-05,0,0,0.033748,-0.014963,0,0.00017741,0,0,0,0.036797,-0.00067268,0.010837,0.10434,0.015654,0.033245,1.1529e-06,0.6,0.55,0
0.031982,-0.0011722,0.036804,-0.00068132,0.010837,6.4428e-05,0,0,0.033758,-0.014974,0,0.00016751,0,0,0,0.036804,-0.00068143,0.010837,0.098476,0.015653,0.033258,1.1538e-06,0.61,0.55,0
0.03232,-0.0011758,0.036811,-0.00069074,0.010836,6.0095e-05,0,0,0.033768,-0.014985,0,0.00015625,0,0,0,0.036812,-0.00069084,0.010836,0.091812,0.015652,0.033272,1.1548e-06,0.62,0.55,0
0.032657,-0.0011795,0.03682,-0.0007012,0.010835,5.5322e-05,0,0,0.033779,-0.014998,0,0.00014384,0,0,0,0.03682,-0.00070128,0.010835,0.084479,0.015651,0.033287,1.1558e-06,0.63,0.55,0
0.032995,-0.0011832,0.036829,-0.00071314,0.010835,5.0226e-05,0,0,0.033792,-0.015012,0,0.00013059,0,0,0,0.036829,-0.0007132,0.010835,0.076654,0.01565,0.033305,1.1571e-06,0.64,0.55,0
0.033333,-0.0011868,0.03684,-0.000727,0.010834,4.4909e-05,0,0,0.033808,-0.015029,0,0.00011676,0,0,0,0.03684,-0.00072706,0.010834,0.068493,0.015649,0.033326,1.1585e-06,0.65,0.55,0
0.033671,-0.0011903,0.036853,-0.00074321,0.010833,3.9442e-05,0,0,0.033826,-0.015049,0,0.00010255,0,0,0,0.036853,-0.00074326,0.010833,0.060109,0.015647,0.03335,1.1603e-06,0.66,0.55,0
0.03401,-0.0011939,0.036868,-0.00076214,0.010832,3.3867e-05,0,0,0.033847,-0.015072,0,8.8055e-05,0,0,0,0.036868,-0.00076217,0.010832,0.051567,0.015646,0.033379,1.1623e-06,0.67,0.55,0
0.034348,-0.0011974,0.036885,-0.00078406,0.01083,2.82e-05,0,0,0.033871,-0.015099,0,7.3319e-05,0,0,0,0.036885,-0.00078408,0.01083,0.042892,0.015644,0.033412,1.1646e-06,0.68,0.55,0
0.034687,-0.0012009,0.036905,-0.00080915,0.010829,2.244e-05,0,0,0.033899,-0.015129,0,5.8345e-05,0,0,0,0.036905,-0.00080916,0.010829,0.034091,0.015642,0.03345,1.1673e-06,0.69,0.55,0
0.035026,-0.0012044,0.036928,-0.00083747,0.010827,1.6587e-05,0,0,0.033931,-0.015164,0,4.3126e-05,0,0,0,0.036928,-0.00083747,0.010827,0.025165,0.015639,0.033493,1.1703e-06,0.7,0.55,0
0.035366,-0.0012079,0.036953,-0.00086894,0.010825,1.0649e-05,0,0,0.033966,-0.015203,0,2.7688e-05,0,0,0,0.036953,-0.00086894,0.010825,0.016132,0.015637,0.033541,1.1737e-06,0.71,0.55,0
0.035706,-0.0012114,0.036981,-0.00090338,0.010823,4.6613e-06,0,0,0.034005,-0.015244,0,1.2119e-05,0,0,0,0.036981,-0.00090339,0.010823,0.0070498,0.015634,0.033592,1.1774e-06,0.72,0.55,0
0.036046,-0.0012149,0.03701,-0.00094054,0.010821,-1.3024e-06,0,0,0.034046,-0.01529,0,-3.3863e-06,0,0,0,0.03701,-0.00094054,0.010821,-0.0019663,0.01563,0.033648,1.1813e-06,0.73,0.55,0
0.036387,-0.0012184,0.037041,-0.0009801,0.010818,-7.1152e-06,0,0,0.034089,-0.015338,0,-1.85e-05,0,0,0,0.037041,-0.0009801,0.010818,-0.010722,0.015626,0.033708,1.1855e-06,0.74,0.55,0
0.036728,-0.0012219,0.037072,-0.0010217,0.010815,-1.2586e-05,0,0,0.034134,-0.015388,0,-3.2723e-05,0,0,0,0.037072,-0.0010217,0.010815,-0.01893,0.015622,0.033769,1.1898e-06,0.75,0.55,0
0.037069,-0.0012253,0.037103,-0.001065,0.010811,-1.7451e-05,0,0,0.034179,-0.015439,0,-4.5373e-05,0,0,0,0.037103,-0.0010651,0.010811,-0.026197,0.015616,0.033831,1.1941e-06,0.76,0.55,0
0.037411,-0.0012288,0.037131,-0.0011099,0.010806,-2.1372e-05,0,0,0.034222,-0.015491,0,-5.5568e-05,0,0,0,0.037131,-0.0011099,0.010806,-0.032022,0.015609,0.033892,1.1983e-06,0.77,0.55,0
0.037754,-0.0012323,0.037156,-0.0011563,0.0108,-2.3908e-05,0,0,0.034263,-0.015543,0,-6.2161e-05,0,0,0,0.037156,-0.0011563,0.0108,-0.035755,0.0156,0.033951,1.2021e-06,0.78,0.55,0
0.038096,-0.0012357,0.037173,-0.0012052,0.01079,-2.445e-05,0,0,0.034297,-0.015594,0,-6.3571e-05,0,0,0,0.037173,-0.0012052,0.01079,-0.036503,0.015586,0.034006,1.2053e-06,0.79,0.55,0
0.03844,-0.0012391,0.037178,-0.0012584,0.010776,-2.2165e-05,0,0,0.034323,-0.015645,0,-5.763e-05,0,0,0,0.037178,-0.0012584,0.010776,-0.033041,0.015565,0.034053,1.2074e-06,0.8,0.55,0
0.038783,-0.0012425,0.037167,-0.0013197,0.010754,-1.6933e-05,0,0,0.034337,-0.015696,0,-4.4026e-05,0,0,0,0.037167,-0.0013197,0.010754,-0.025208,0.015534,0.034093,1.2083e-06,0.81,0.55,0
0.039126,-0.0012459,0.037144,-0.0013979,0.010724,-1.1982e-05,0,0,0.034347,-0.015759,0,-3.1153e-05,0,0,0,0.037144,-0.0013979,0.010724,-0.017812,0.01549,0.034136,1.2085e-06,0.82,0.55,0
0.03947,-0.0012495,0.037129,-0.0015287,0.01068,-1.8595e-05,0,0,0.034384,-0.015872,0,-4.8346e-05,0,0,0,0.037129,-0.0015287,0.01068,-0.02756,0.015427,0.034227,1.2111e-06,0.83,0.55,0
0.039814,-0.0012539,0.037158,-0.0017966,0.010608,-4.8653e-05,0,0,0.034514,-0.016126,0,-0.0001265,0,0,0,0.037158,-0.0017966,0.010608,-0.07156,0.015323,0.034469,1.222e-06,0.84,0.55,0
0.04016,-0.0012595,0.037262,-0.0023328,0.010479,-0.00010485,0,0,0.034819,-0.016655,0,-0.00027261,0,0,0,0.037263,-0.0023331,0.010479,-0.15172,0.015136,0.034995,1.2482e-06,0.85,0.55,0
0.04051,-0.0012667,0.037415,0.001582,0.011699,-0.00015727,0,0,0.04935,-0.017536,0,-0.00063966,0,0,0,0.037416,0.0015813,0.011699,-0.25988,0.016899,0.032063,1.1098e-06,0.86,0.55,0
0.041147,-0.0012796,0.037672,0.0054601,0.01294,-0.00017305,0,0,0.064305,-0.019447,0,-0.00089985,0,0,0,0.037673,0.0054592,0.01294,-0.30778,0.018691,0.029202,1.0015e-06,0.87,0.55,0
0.041796,-0.0012928,0.037915,0.0044568,0.012712,-0.00015032,0,0,0.06553,-0.021463,0,-0.00078167,0,0,0,0.037916,0.0044561,0.012712,-0.25741,0.018361,0.030191,1.0651e-06,0.88,0.55,0
0.042458,-0.0013049,0.038115,0.00353,0.012493,-0.00010779,0,0,0.066615,-0.023305,0,-0.00056053,0,0,0,0.038115,0.0035296,0.012493,-0.17858,0.018046,0.031088,1.1216e-06,0.89,0.55,0
0.043129,-0.0013153,0.038243,0.0027439,0.012296,-6.2745e-05,0,0,0.067462,-0.024836,0,-0.00032627,0,0,0,0.038243,0.0027438,0.012296,-0.10127,0.017761,0.031818,1.1655e-06,0.9,0.55,0
0.043807,-0.0013238,0.038299,0.0021059,0.012122,-2.686e-05,0,0,0.068062,-0.026041,0,-0.00013967,0,0,0,0.038299,0.0021059,0.012122,-0.042521,0.017509,0.032369,1.1962e-06,0.91,0.55,0
0.04449,-0.0013307,0.038298,0.0015968,0.011968,-2.5543e-06,0,0,0.068456,-0.026966,0,-1.3282e-05,0,0,0,0.038298,0.0015968,0.011968,-0.0039876,0.017288,0.03277,1.2159e-06,0.92,0.55,0
0.045176,-0.0013362,0.038259,0.0011941,0.011836,1.1894e-05,0,0,0.068699,-0.027668,0,6.1849e-05,0,0,0,0.038259,0.0011941,0.011836,0.018386,0.017096,0.033054,1.2274e-06,0.93,0.55,0
0.045864,-0.0013405,0.0382,0.00087838,0.011723,1.9108e-05,0,0,0.068838,-0.028197,0,9.9363e-05,0,0,0,0.0382,0.00087837,0.011723,0.029335,0.016934,0.033253,1.2335e-06,0.94,0.55,0
0.046553,-0.0013439,0.038134,0.00063366,0.01163,2.1298e-05,0,0,0.06891,-0.028591,0,0.00011075,0,0,0,0.038134,0.00063365,0.01163,0.032541,0.016799,0.033389,1.2361e-06,0.95,0.55,0
0.047242,-0.0013465,0.038072,0.00044779,0.011556,2.0097e-05,0,0,0.068941,-0.028881,0,0.00010451,0,0,0,0.038072,0.00044778,0.011556,0.030606,0.016692,0.033481,1.2367e-06,0.96,0.55,0
0.047932,-0.0013484,0.038018,0.00031167,0.011499,1.6659e-05,0,0,0.068949,-0.029086,0,8.6626e-05,0,0,0,0.038018,0.00031166,0.011499,0.025314,0.016609,0.033542,1.2363e-06,0.97,0.55,0
0.048621,-0.0013498,0.037976,0.00021877,0.011458,1.1795e-05,0,0,0.068946,-0.029223,0,6.1332e-05,0,0,0,0.037976,0.00021876,0.011458,0.017898,0.016551,0.033579,1.2356e-06,0.98,0.55,0
0.049311,-0.0013506,0.037951,0.0001647,0.011435,6.0913e-06,0,0,0.068942,-0.029302,0,3.1675e-05,0,0,0,0.037951,0.00016469,0.011435,0.0092363,0.016517,0.0336,1.235e-06,0.99,0.55,0
0.05,-0.0013508,0.037942,0.00014695,0.011427,-4.9442e-06,0,0,0.06894,-0.029327,0,-2.571e-05,0,0,0,0.037942,0.00014694,0.011427,-0.0074953,0.016505,0.033606,1.2348e-06,1,0.55,0
0,0,0.028992,0.012425,0.012425,-0.00092734,0,0,0.043074,0,0,-0.0048222,0,0,0,0.029044,0.012374,0.012425,-3.1938,0.017948,0.016645,2.3683e-07,0,0.56,0
0.00043074,-4.8222e-05,0.028946,0.011886,0.012249,-0.00092662,0,0,0.04341,-0.0009459,0,-0.0048184,0,0,0,0.028996,0.011835,0.012249,-3.0999,0.017694,0.016957,2.4993e-07,0.01,0.56,0
0.00086821,-9.6266e-05,0.029127,0.011451,0.012173,-0.00092358,0,0,0.044079,-0.0018777,0,-0.0048026,0,0,0,0.029175,0.011403,0.012173,-2.983,0.017584,0.017399,2.6875e-07,0.02,0.56,0
0.0013123,-0.0001441,0.029306,0.011024,0.012099,-0.00091949,0,0,0.044739,-0.002796,0,-0.0047813,0,0,0,0.029353,0.010977,0.012099,-2.8719,0.017476,0.017841,2.8776e-07,0.03,0.56,0
0.001763,-0.00019167,0.029485,0.010603,0.012026,-0.00091423,0,0,0.045392,-0.0037008,0,-0.004754,0,0,0,0.029529,0.010559,0.012026,-2.7656,0.017371,0.018281,3.0695e-07,0.04,0.56,0
0.0022202,-0.00023894,0.029662,0.010189,0.011955,-0.00090773,0,0,0.046037,-0.0045923,0,-0.0047202,0,0,0,0.029704,0.010147,0.011955,-2.6632,0.017269,0.018719,3.2628e-07,0.05,0.56,0
0.0026837,-0.00028586,0.029837,0.0097817,0.011886,-0.00089992,0,0,0.046674,-0.0054705,0,-0.0046796,0,0,0,0.029878,0.0097414,0.011886,-2.564,0.017168,0.019154,3.4573e-07,0.06,0.56,0
0.0031536,-0.00033237,0.030012,0.0093814,0.011818,-0.00089075,0,0,0.047304,-0.0063352,0,-0.0046319,0,0,0,0.03005,0.009343,0.011818,-2.4677,0.01707,0.019588,3.6528e-07,0.07,0.56,0
0.0036298,-0.00037843,0.030185,0.0089881,0.011752,-0.0008802,0,0,0.047926,-0.0071861,0,-0.0045771,0,0,0,0.030222,0.0089516,0.011752,-2.3737,0.016975,0.020017,3.849e-07,0.08,0.56,0
0.0041122,-0.00042396,0.030357,0.0086021,0.011688,-0.00086827,0,0,0.04854,-0.0080228,0,-0.004515,0,0,0,0.030392,0.0085675,0.011688,-2.2819,0.016882,0.020443,4.0457e-07,0.09,0.56,0
0.0046006,-0.00046892,0.030528,0.0082235,0.011625,-0.00085498,0,0,0.049146,-0.0088448,0,-0.0044459,0,0,0,0.03056,0.0081907,0.011625,-2.192,0.016792,0.020865,4.2426e-07,0.1,0.56,0
0.0050951,-0.00051325,0.030697,0.0078526,0.011565,-0.00084035,0,0,0.049743,-0.0096518,0,-0.0043698,0,0,0,0.030728,0.0078217,0.011565,-2.1039,0.016705,0.021283,4.4393e-07,0.11,0.56,0
0.0055955,-0.00055689,0.030864,0.0074896,0.011506,-0.00082447,0,0,0.050332,-0.010443,0,-0.0042872,0,0,0,0.030894,0.0074606,0.011506,-2.0176,0.01662,0.021695,4.6357e-07,0.12,0.56,0
0.0061017,-0.00059978,0.031031,0.0071349,0.01145,-0.00080739,0,0,0.050911,-0.011218,0,-0.0041984,0,0,0,0.031058,0.0071077,0.01145,-1.9329,0.016539,0.022102,4.8314e-07,0.13,0.56,0
0.0066137,-0.00064188,0.031196,0.0067887,0.011395,-0.00078921,0,0,0.051481,-0.011977,0,-0.0041039,0,0,0,0.031221,0.0067632,0.011395,-1.8501,0.01646,0.022502,5.0263e-07,0.14,0.56,0
0.0071313,-0.00068312,0.031359,0.0064513,0.011343,-0.00077005,0,0,0.052042,-0.012719,0,-0.0040042,0,0,0,0.031383,0.0064275,0.011343,-1.7691,0.016384,0.022897,5.2202e-07,0.15,0.56,0
0.0076545,-0.00072347,0.031521,0.006123,0.011293,-0.00075001,0,0,0.052593,-0.013443,0,-0.0039001,0,0,0,0.031543,0.0061009,0.011293,-1.69,0.016313,0.023285,5.4127e-07,0.16,0.56,0
0.0081832,-0.00076287,0.031682,0.005804,0.011246,-0.00072924,0,0,0.053134,-0.014149,0,-0.0037921,0,0,0,0.031702,0.0057835,0.011246,-1.6129,0.016244,0.023665,5.6038e-07,0.17,0.56,0
0.0087172,-0.00080128,0.031841,0.0054946,0.011201,-0.00070789,0,0,0.053665,-0.014836,0,-0.003681,0,0,0,0.03186,0.0054756,0.011201,-1.5379,0.016179,0.024039,5.7934e-07,0.18,0.56,0
0.0092565,-0.00083867,0.032,0.0051951,0.011159,-0.00068609,0,0,0.054187,-0.015505,0,-0.0035676,0,0,0,0.032017,0.0051776,0.011159,-1.4652,0.016118,0.024405,5.9812e-07,0.19,0.56,0
0.0098009,-0.000875,0.032157,0.0049057,0.011119,-0.000664,0,0,0.0547,-0.016154,0,-0.0034528,0,0,0,0.032173,0.0048896,0.011119,-1.3949,0.016061,0.024764,6.1674e-07,0.2,0.56,0
0.010351,-0.00091024,0.032314,0.0046267,0.011082,-0.0006418,0,0,0.055202,-0.016784,0,-0.0033373,0,0,0,0.032329,0.0046118,0.011082,-1.3272,0.016008,0.025115,6.3518e-07,0.21,0.56,0
0.010905,-0.00094436,0.03247,0.0043583,0.011048,-0.00061963,0,0,0.055696,-0.017395,0,-0.0032221,0,0,0,0.032484,0.0043446,0.011048,-1.2621,0.015959,0.025458,6.5344e-07,0.22,0.56,0
0.011464,-0.00097735,0.032626,0.0041006,0.011018,-0.00059766,0,0,0.056181,-0.017985,0,-0.0031078,0,0,0,0.032638,0.0040881,0.011018,-1.1998,0.015915,0.025793,6.7154e-07,0.23,0.56,0
0.012029,-0.0010092,0.032782,0.0038541,0.010991,-0.00057606,0,0,0.056657,-0.018555,0,-0.0029955,0,0,0,0.032793,0.0038426,0.010991,-1.1404,0.015876,0.026121,6.8948e-07,0.24,0.56,0
0.012597,-0.0010398,0.032938,0.0036188,0.010967,-0.00055498,0,0,0.057125,-0.019106,0,-0.0028859,0,0,0,0.032949,0.0036083,0.010967,-1.084,0.015841,0.02644,7.0727e-07,0.25,0.56,0
0.013171,-0.0010693,0.033095,0.0033951,0.010947,-0.00053458,0,0,0.057585,-0.019635,0,-0.0027798,0,0,0,0.033105,0.0033855,0.010947,-1.0308,0.015813,0.026752,7.2494e-07,0.26,0.56,0
0.013749,-0.0010976,0.033254,0.0031833,0.010931,-0.00051501,0,0,0.058039,-0.020144,0,-0.002678,0,0,0,0.033263,0.0031745,0.010931,-0.9809,0.015789,0.027057,7.425e-07,0.27,0.56,0
0.014332,-0.0011247,0.033414,0.0029836,0.010919,-0.0004964,0,0,0.058486,-0.020633,0,-0.0025813,0,0,0,0.033422,0.0029755,0.010919,-0.93432,0.015772,0.027354,7.5999e-07,0.28,0.56,0
0.014919,-0.0011506,0.033576,0.0027965,0.010912,-0.0004789,0,0,0.058927,-0.0211,0,-0.0024903,0,0,0,0.033584,0.002789,0.010912,-0.89117,0.015761,0.027643,7.7741e-07,0.29,0.56,0
0.01551,-0.0011753,0.033741,0.0026223,0.010909,-0.00046261,0,0,0.059363,-0.021545,0,-0.0024056,0,0,0,0.033748,0.0026155,0.010909,-0.85151,0.015757,0.027925,7.9481e-07,0.3,0.56,0
0.016106,-0.0011988,0.033909,0.0024617,0.010911,-0.00044764,0,0,0.059795,-0.021969,0,-0.0023277,0,0,0,0.033916,0.0024553,0.010911,-0.81537,0.015761,0.0282,8.1221e-07,0.31,0.56,0
0.016706,-0.0012211,0.034081,0.0023153,0.010919,-0.00043407,0,0,0.060221,-0.022369,0,-0.0022572,0,0,0,0.034087,0.0023094,0.010919,-0.78274,0.015772,0.028467,8.2964e-07,0.32,0.56,0
0.017311,-0.0012423,0.034257,0.0021839,0.010932,-0.00042195,0,0,0.060645,-0.022746,0,-0.0021941,0,0,0,0.034263,0.0021784,0.010932,-0.7536,0.015791,0.028726,8.4711e-07,0.33,0.56,0
0.017919,-0.0012622,0.034438,0.0020686,0.010952,-0.00041129,0,0,0.061064,-0.023097,0,-0.0021387,0,0,0,0.034444,0.0020634,0.010952,-0.72784,0.01582,0.028977,8.6465e-07,0.34,0.56,0
0.018532,-0.0012808,0.034625,0.0019706,0.010979,-0.00040204,0,0,0.06148,-0.023421,0,-0.0020906,0,0,0,0.03463,0.0019657,0.010979,-0.7053,0.015858,0.029219,8.8226e-07,0.35,0.56,0
0.019149,-0.0012982,0.034817,0.0018917,0.011012,-0.00039412,0,0,0.061891,-0.023714,0,-0.0020494,0,0,0,0.034821,0.001887,0.011012,-0.68571,0.015907,0.029452,8.9992e-07,0.36,0.56,0
0.01977,-0.0013144,0.035015,0.0018338,0.011055,-0.00038732,0,0,0.062296,-0.023974,0,-0.0020141,0,0,0,0.035019,0.0018292,0.011055,-0.6687,0.015968,0.029673,9.1759e-07,0.37,0.56,0
0.020395,-0.0013292,0.035219,0.0017996,0.011106,-0.00038134,0,0,0.062695,-0.024195,0,-0.001983,0,0,0,0.035223,0.0017952,0.011106,-0.65368,0.016041,0.029881,9.3519e-07,0.38,0.56,0
0.021024,-0.0013426,0.035429,0.0017923,0.011166,-0.0003757,0,0,0.063082,-0.024372,0,-0.0019536,0,0,0,0.035433,0.0017881,0.011166,-0.63986,0.016129,0.030073,9.5259e-07,0.39,0.56,0
0.021656,-0.0013545,0.035644,0.0018164,0.011238,-0.00036974,0,0,0.063455,-0.024496,0,-0.0019226,0,0,0,0.035648,0.0018123,0.011238,-0.62615,0.016233,0.030245,9.6958e-07,0.4,0.56,0
0.022293,-0.0013648,0.035863,0.0018771,0.011322,-0.00036251,0,0,0.063807,-0.024557,0,-0.0018851,0,0,0,0.035867,0.0018732,0.011322,-0.61105,0.016354,0.030392,9.8586e-07,0.41,0.56,0
0.022933,-0.0013732,0.036084,0.0019814,0.01142,-0.00035279,0,0,0.064128,-0.024539,0,-0.0018345,0,0,0,0.036088,0.0019778,0.01142,-0.59264,0.016495,0.030505,1.0009e-06,0.42,0.56,0
0.023575,-0.0013795,0.036304,0.0021384,0.011533,-0.00033908,0,0,0.064406,-0.024425,0,-0.0017632,0,0,0,0.036307,0.002135,0.011533,-0.56857,0.016658,0.030577,1.0142e-06,0.43,0.56,0
0.024221,-0.0013833,0.036518,0.0023596,0.011663,-0.00031986,0,0,0.064621,-0.024189,0,-0.0016633,0,0,0,0.03652,0.0023565,0.011663,-0.53647,0.016847,0.030591,1.0246e-06,0.44,0.56,0
0.024868,-0.0013843,0.036715,0.00266,0.011813,-0.00029439,0,0,0.064746,-0.023797,0,-0.0015309,0,0,0,0.036718,0.0026574,0.011813,-0.49526,0.017063,0.03053,1.0306e-06,0.45,0.56,0
0.025515,-0.0013818,0.036877,0.0030584,0.01198,-0.00026514,0,0,0.06473,-0.023197,0,-0.0013787,0,0,0,0.036879,0.0030563,0.01198,-0.44916,0.017305,0.03036,1.0297e-06,0.46,0.56,0
0.026162,-0.0013753,0.036947,0.003576,0.012157,-0.00024174,0,0,0.064455,-0.022311,0,-0.001257,0,0,0,0.036949,0.0035742,0.012157,-0.41502,0.01756,0.030018,1.0159e-06,0.47,0.56,0
0.026805,-0.0013639,0.036702,0.0041982,0.01227,-0.00023872,0,0,0.063523,-0.020987,0,-0.0012414,0,0,0,0.036704,0.0041965,0.01227,-0.42078,0.017723,0.029316,9.7078e-07,0.48,0.56,0
0.027433,-0.0013451,0.035807,0.0050057,0.012244,-8.5367e-05,0,0,0.061264,-0.018819,0,-0.00044391,0,0,0,0.035807,0.0050054,0.012244,-0.1588,0.017685,0.027896,8.6699e-07,0.49,0.56,0
0.02803,-0.0012923,0.035746,0.0058051,0.012465,-0.00041731,0,0,0.06053,-0.017317,0,-0.00217,0,0,0,0.035752,0.0057993,0.012465,-0.79837,0.018005,0.027238,8.3209e-07,0.5,0.56,0
0.028643,-0.0012749,0.03535,0.0022199,0.011271,0.00073282,0,0,0.046639,-0.015689,0,0.0031398,0,0,0,0.035369,0.0022011,0.011271,1.3204,0.01628,0.029758,9.0836e-07,0.51,0.56,0
0.028963,-0.0012934,0.035232,-0.0010831,0.010245,0.00045683,0,0,0.032483,-0.014726,0,0.0011878,0,0,0,0.035237,-0.0010889,0.010245,0.72061,0.014798,0.032192,1.0251e-06,0.52,0.56,0
0.029293,-0.0012936,0.036229,-0.00077823,0.010635,0.00042071,0,0,0.033272,-0.014838,0,0.0010938,0,0,0,0.036234,-0.00078302,0.010635,0.65124,0.015362,0.032832,1.1044e-06,0.53,0.56,0
0.029628,-0.0012951,0.036609,-0.00066077,0.010785,0.00020561,0,0,0.033572,-0.014879,0,0.00053459,0,0,0,0.03661,-0.0006619,0.010785,0.31608,0.015578,0.03307,1.1351e-06,0.54,0.56,0
0.029965,-0.0012983,0.036706,-0.000656,0.010815,0.00011253,0,0,0.033658,-0.014912,0,0.00029257,0,0,0,0.036707,-0.00065634,0.010815,0.17256,0.015622,0.033151,1.1439e-06,0.55,0.56,0
0.030301,-0.0013021,0.036747,-0.00064936,0.010829,8.1966e-05,0,0,0.033693,-0.014922,0,0.00021311,0,0,0,0.036747,-0.00064954,0.010829,0.12558,0.015642,0.033182,1.1475e-06,0.56,0.56,0
0.030638,-0.0013061,0.036762,-0.0006496,0.010834,7.2435e-05,0,0,0.033707,-0.014928,0,0.00018833,0,0,0,0.036762,-0.00064974,0.010834,0.11093,0.015649,0.033195,1.1489e-06,0.57,0.56,0
0.030975,-0.0013101,0.03677,-0.00065469,0.010835,6.8144e-05,0,0,0.033716,-0.014936,0,0.00017717,0,0,0,0.03677,-0.00065482,0.010835,0.10432,0.01565,0.033206,1.1498e-06,0.58,0.56,0
0.031313,-0.0013141,0.036777,-0.00066162,0.010835,6.515e-05,0,0,0.033725,-0.014945,0,0.00016939,0,0,0,0.036777,-0.00066174,0.010835,0.099706,0.01565,0.033218,1.1506e-06,0.59,0.56,0
0.03165,-0.001318,0.036783,-0.00066908,0.010834,6.1969e-05,0,0,0.033733,-0.014954,0,0.00016112,0,0,0,0.036783,-0.00066918,0.010834,0.094802,0.015649,0.033229,1.1514e-06,0.6,0.56,0
0.031987,-0.0013218,0.036789,-0.00067698,0.010834,5.7975e-05,0,0,0.033742,-0.014964,0,0.00015073,0,0,0,0.036789,-0.00067707,0.010834,0.088658,0.015649,0.033241,1.1522e-06,0.61,0.56,0
0.032325,-0.0013257,0.036796,-0.00068563,0.010833,5.3e-05,0,0,0.033752,-0.014974,0,0.0001378,0,0,0,0.036796,-0.00068571,0.010833,0.081017,0.015648,0.033254,1.1531e-06,0.62,0.56,0
0.032662,-0.0013294,0.036804,-0.0006955,0.010832,4.7126e-05,0,0,0.033762,-0.014986,0,0.00012253,0,0,0,0.036804,-0.00069556,0.010832,0.072005,0.015647,0.033268,1.1542e-06,0.63,0.56,0
0.033,-0.0013332,0.036812,-0.000707,0.010832,4.0516e-05,0,0,0.033775,-0.015,0,0.00010534,0,0,0,0.036812,-0.00070705,0.010832,0.061872,0.015646,0.033286,1.1554e-06,0.64,0.56,0
0.033338,-0.001337,0.036823,-0.00072054,0.010831,3.3325e-05,0,0,0.03379,-0.015017,0,8.6644e-05,0,0,0,0.036823,-0.00072057,0.010831,0.050857,0.015644,0.033306,1.1568e-06,0.65,0.56,0
0.033676,-0.0013408,0.036836,-0.0007365,0.01083,2.5676e-05,0,0,0.033808,-0.015036,0,6.6758e-05,0,0,0,0.036836,-0.00073652,0.01083,0.039155,0.015643,0.03333,1.1585e-06,0.66,0.56,0
0.034014,-0.0013445,0.036851,-0.00075522,0.010829,1.7672e-05,0,0,0.033829,-0.015059,0,4.5948e-05,0,0,0,0.036851,-0.00075523,0.010829,0.026925,0.015641,0.033358,1.1605e-06,0.67,0.56,0
0.034352,-0.0013483,0.036868,-0.00077699,0.010827,9.4041e-06,0,0,0.033853,-0.015086,0,2.4451e-05,0,0,0,0.036868,-0.00077699,0.010827,0.014313,0.01564,0.033391,1.1628e-06,0.68,0.56,0
0.034691,-0.0013522,0.036889,-0.00080196,0.010826,9.6369e-07,0,0,0.033882,-0.015116,0,2.5056e-06,0,0,0,0.036889,-0.00080196,0.010826,0.001465,0.015638,0.03343,1.1655e-06,0.69,0.56,0
0.03503,-0.001356,0.036911,-0.00083021,0.010824,-7.5481e-06,0,0,0.033913,-0.015151,0,-1.9625e-05,0,0,0,0.036911,-0.00083022,0.010824,-0.011459,0.015635,0.033473,1.1686e-06,0.7,0.56,0
0.035369,-0.0013599,0.036937,-0.00086168,0.010823,-1.6014e-05,0,0,0.033949,-0.01519,0,-4.1636e-05,0,0,0,0.036937,-0.00086169,0.010823,-0.024274,0.015633,0.03352,1.172e-06,0.71,0.56,0
0.035709,-0.0013638,0.036965,-0.00089622,0.010821,-2.4288e-05,0,0,0.033988,-0.015232,0,-6.3148e-05,0,0,0,0.036965,-0.00089623,0.010821,-0.036755,0.01563,0.033573,1.1757e-06,0.72,0.56,0
0.036049,-0.0013678,0.036995,-0.00093361,0.010818,-3.2172e-05,0,0,0.03403,-0.015278,0,-8.3648e-05,0,0,0,0.036995,-0.00093363,0.010818,-0.0486,0.015627,0.03363,1.1797e-06,0.73,0.56,0
0.03639,-0.0013717,0.037027,-0.00097361,0.010816,-3.9388e-05,0,0,0.034074,-0.015326,0,-0.00010241,0,0,0,0.037027,-0.00097365,0.010816,-0.059388,0.015623,0.03369,1.184e-06,0.74,0.56,0
0.036731,-0.0013757,0.03706,-0.001016,0.010813,-4.5536e-05,0,0,0.034121,-0.015378,0,-0.00011839,0,0,0,0.03706,-0.001016,0.010813,-0.068522,0.015619,0.033754,1.1885e-06,0.75,0.56,0
0.037072,-0.0013797,0.037094,-0.0010605,0.01081,-5.0062e-05,0,0,0.034169,-0.015432,0,-0.00013016,0,0,0,0.037094,-0.0010606,0.01081,-0.075178,0.015614,0.033819,1.1931e-06,0.76,0.56,0
0.037414,-0.0013837,0.037127,-0.001107,0.010806,-5.225e-05,0,0,0.034217,-0.015487,0,-0.00013585,0,0,0,0.037127,-0.0011071,0.010806,-0.078301,0.015609,0.033886,1.1978e-06,0.77,0.56,0
0.037756,-0.0013877,0.037158,-0.0011557,0.010801,-5.1208e-05,0,0,0.034265,-0.015543,0,-0.00013314,0,0,0,0.037158,-0.0011557,0.010801,-0.076579,0.015601,0.033953,1.2023e-06,0.78,0.56,0
0.038099,-0.0013916,0.037186,-0.0012073,0.010794,-4.5728e-05,0,0,0.03431,-0.015601,0,-0.00011889,0,0,0,0.037186,-0.0012074,0.010794,-0.068241,0.015591,0.03402,1.2066e-06,0.79,0.56,0
0.038443,-0.0013956,0.037209,-0.0012648,0.010783,-3.4023e-05,0,0,0.034353,-0.015662,0,-8.8461e-05,0,0,0,0.037209,-0.0012648,0.010783,-0.050668,0.015576,0.034086,1.2106e-06,0.8,0.56,0
0.038786,-0.0013995,0.03722,-0.0013337,0.010766,-1.4229e-05,0,0,0.034391,-0.01573,0,-3.6997e-05,0,0,0,0.03722,-0.0013337,0.010766,-0.021147,0.015551,0.034152,1.2139e-06,0.81,0.56,0
0.03913,-0.0014035,0.037211,-0.00142,0.010737,8.2172e-06,0,0,0.034416,-0.015805,0,2.1365e-05,0,0,0,0.037211,-0.00142,0.010737,0.012187,0.01551,0.034213,1.2157e-06,0.82,0.56,0
0.039475,-0.0014083,0.037201,-0.0015201,0.010704,6.7968e-06,0,0,0.034446,-0.015892,0,1.7672e-05,0,0,0,0.037201,-0.0015201,0.010704,0.010057,0.015462,0.034284,1.2178e-06,0.83,0.56,0
0.039819,-0.001415,0.037224,-0.0017114,0.010654,-7.4042e-05,0,0,0.034541,-0.016075,0,-0.00019251,0,0,0,0.037224,-0.0017115,0.010654,-0.10896,0.015389,0.034459,1.2259e-06,0.84,0.56,0
0.040165,-0.0014258,0.037331,-0.0021738,0.010547,-0.00024144,0,0,0.034819,-0.016537,0,-0.00062776,0,0,0,0.037332,-0.0021753,0.010547,-0.35016,0.015235,0.03493,1.2504e-06,0.85,0.56,0
0.040516,-0.0014419,0.03748,0.001676,0.011747,-0.00041678,0,0,0.049395,-0.017456,0,-0.0017159,0,0,0,0.037485,0.0016707,0.011747,-0.69223,0.016967,0.032053,1.113e-06,0.86,0.56,0
0.041153,-0.0014743,0.037734,0.0054314,0.01295,-0.00046159,0,0,0.06444,-0.019547,0,-0.0024003,0,0,0,0.037741,0.0054248,0.01295,-0.81851,0.018705,0.029288,1.0088e-06,0.87,0.56,0
0.041805,-0.0015079,0.037974,0.0043616,0.012701,-0.00038696,0,0,0.06571,-0.021681,0,-0.0020122,0,0,0,0.037978,0.0043572,0.012701,-0.6595,0.018345,0.030323,1.0749e-06,0.88,0.56,0
0.042468,-0.0015385,0.038154,0.0034257,0.012474,-0.00025227,0,0,0.066768,-0.023525,0,-0.0013118,0,0,0,0.038156,0.0034239,0.012474,-0.41618,0.018018,0.031207,1.1297e-06,0.89,0.56,0
0.04314,-0.0015641,0.038253,0.0026668,0.012276,-0.00012169,0,0,0.067541,-0.024984,0,-0.0006328,0,0,0,0.038254,0.0026663,0.012276,-0.19592,0.017732,0.031888,1.1696e-06,0.9,0.56,0
0.043818,-0.0015845,0.038277,0.0020558,0.0121,-2.3272e-05,0,0,0.06806,-0.026114,0,-0.00012102,0,0,0,0.038277,0.0020558,0.0121,-0.036813,0.017477,0.032389,1.196e-06,0.91,0.56,0
0.044501,-0.0016004,0.03825,0.0015675,0.011945,4.0199e-05,0,0,0.068393,-0.026982,0,0.00020904,0,0,0,0.03825,0.0015675,0.011945,0.062788,0.017254,0.032751,1.2124e-06,0.92,0.56,0
0.045186,-0.0016128,0.038196,0.0011799,0.011813,7.5587e-05,0,0,0.068596,-0.027645,0,0.00039306,0,0,0,0.038196,0.0011797,0.011813,0.117,0.017063,0.03301,1.2219e-06,0.93,0.56,0
0.045873,-0.0016224,0.038128,0.00087463,0.011701,9.0499e-05,0,0,0.068711,-0.028148,0,0.0004706,0,0,0,0.038129,0.00087441,0.011701,0.13919,0.016901,0.033193,1.2267e-06,0.94,0.56,0
0.04656,-0.0016296,0.038058,0.00063714,0.011609,9.1093e-05,0,0,0.068769,-0.028526,0,0.00047368,0,0,0,0.038059,0.00063692,0.011609,0.13947,0.016768,0.033319,1.2286e-06,0.95,0.56,0
0.047248,-0.0016351,0.037993,0.00045617,0.011535,8.1898e-05,0,0,0.068792,-0.028805,0,0.00042587,0,0,0,0.037994,0.00045599,0.011535,0.12501,0.016661,0.033406,1.2288e-06,0.96,0.56,0
0.047936,-0.0016391,0.037939,0.00032328,0.011479,6.6151e-05,0,0,0.068796,-0.029004,0,0.00034399,0,0,0,0.037939,0.00032316,0.011479,0.10076,0.01658,0.033463,1.2282e-06,0.97,0.56,0
0.048624,-0.0016418,0.037897,0.0002324,0.011439,4.6172e-05,0,0,0.068792,-0.029137,0,0.0002401,0,0,0,0.037897,0.00023234,0.011439,0.070237,0.016523,0.033498,1.2274e-06,0.98,0.56,0
0.049312,-0.0016433,0.037872,0.00017944,0.011415,2.3673e-05,0,0,0.068787,-0.029213,0,0.0001231,0,0,0,0.037872,0.00017942,0.011415,0.035986,0.016489,0.033518,1.2268e-06,0.99,0.56,0
0.05,-0.0016439,0.037863,0.00016204,0.011407,-9.8258e-06,0,0,0.068784,-0.029238,0,-5.1094e-05,0,0,0,0.037863,0.00016204,0.011407,-0.014933,0.016478,0.033524,1.2266e-06,1,0.56,0
0,0,0.028987,0.012423,0.012423,-0.0011094,0,0,0.043066,1.6263e-19,0,-0.005769,0,0,0,0.029061,0.012349,0.012423,-3.8149,0.017944,0.016675,2.3812e-07,0,0.57,0
0.00043066,-5.769e-05,0.02894,0.011882,0.012247,-0.0011085,0,0,0.043403,-0.00094755,0,-0.0057642,0,0,0,0.029012,0.01181,0.012247,-3.7026,0.01769,0.016987,2.5121e-07,0.01,0.57,0
0.00086806,-0.00011506,0.029122,0.011447,0.012171,-0.001104,0,0,0.044073,-0.0018813,0,-0.0057409,0,0,0,0.02919,0.011378,0.012171,-3.5605,0.01758,0.017429,2.7004e-07,0.02,0.57,0
0.0013121,-0.00017209,0.029302,0.011018,0.012096,-0.0010986,0,0,0.044734,-0.0028018,0,-0.0057126,0,0,0,0.029367,0.010953,0.012096,-3.4263,0.017472,0.01787,2.8907e-07,0.03,0.57,0
0.0017627,-0.00022872,0.02948,0.010596,0.012023,-0.001092,0,0,0.045389,-0.0037091,0,-0.0056786,0,0,0,0.029543,0.010533,0.012023,-3.2987,0.017366,0.01831,3.0827e-07,0.04,0.57,0
0.0022199,-0.00028492,0.029657,0.010181,0.011952,-0.0010843,0,0,0.046035,-0.0046032,0,-0.0056382,0,0,0,0.029718,0.010121,0.011952,-3.1766,0.017263,0.018749,3.2762e-07,0.05,0.57,0
0.0026834,-0.00034064,0.029833,0.0097725,0.011882,-0.0010752,0,0,0.046674,-0.0054841,0,-0.005591,0,0,0,0.029891,0.0097151,0.011882,-3.0592,0.017163,0.019185,3.4709e-07,0.06,0.57,0
0.0031534,-0.00039581,0.030008,0.0093708,0.011814,-0.0010647,0,0,0.047306,-0.0063515,0,-0.0055366,0,0,0,0.030063,0.009316,0.011814,-2.9456,0.017064,0.019618,3.6666e-07,0.07,0.57,0
0.0036296,-0.00045039,0.030182,0.0089762,0.011747,-0.0010529,0,0,0.047929,-0.0072051,0,-0.0054749,0,0,0,0.030234,0.008924,0.011747,-2.8355,0.016968,0.020048,3.863e-07,0.08,0.57,0
0.0041119,-0.0005043,0.030354,0.0085887,0.011683,-0.0010396,0,0,0.048544,-0.0080444,0,-0.0054057,0,0,0,0.030403,0.0085392,0.011683,-2.7283,0.016875,0.020474,4.0599e-07,0.09,0.57,0
0.0046005,-0.00055749,0.030524,0.0082087,0.01162,-0.0010248,0,0,0.049151,-0.008869,0,-0.0053292,0,0,0,0.030571,0.0081618,0.01162,-2.6239,0.016784,0.020896,4.2568e-07,0.1,0.57,0
0.005095,-0.0006099,0.030693,0.0078365,0.011559,-0.0010088,0,0,0.04975,-0.0096784,0,-0.0052455,0,0,0,0.030738,0.0077921,0.011559,-2.5221,0.016696,0.021313,4.4535e-07,0.11,0.57,0
0.0055955,-0.00066147,0.030861,0.0074723,0.0115,-0.00099136,0,0,0.050339,-0.010472,0,-0.0051551,0,0,0,0.030903,0.0074304,0.0115,-2.4228,0.016611,0.021725,4.6498e-07,0.12,0.57,0
0.0061018,-0.00071212,0.031027,0.0071164,0.011443,-0.00097276,0,0,0.050918,-0.011249,0,-0.0050583,0,0,0,0.031067,0.0070769,0.011443,-2.3259,0.016529,0.022132,4.8454e-07,0.13,0.57,0
0.0066138,-0.00076181,0.031191,0.0067692,0.011388,-0.00095305,0,0,0.051488,-0.012009,0,-0.0049559,0,0,0,0.031228,0.0067321,0.011388,-2.2314,0.01645,0.022532,5.04e-07,0.14,0.57,0
0.0071315,-0.00081048,0.031354,0.0064309,0.011336,-0.00093238,0,0,0.052048,-0.012752,0,-0.0048484,0,0,0,0.031389,0.006396,0.011336,-2.1395,0.016373,0.022926,5.2333e-07,0.15,0.57,0
0.0076548,-0.00085807,0.031516,0.0061018,0.011285,-0.00091088,0,0,0.052599,-0.013477,0,-0.0047366,0,0,0,0.031548,0.0060691,0.011285,-2.0501,0.016301,0.023313,5.4253e-07,0.16,0.57,0
0.0081835,-0.00090453,0.031675,0.0057821,0.011237,-0.00088872,0,0,0.053139,-0.014183,0,-0.0046214,0,0,0,0.031706,0.0057517,0.011237,-1.9635,0.016231,0.023692,5.6156e-07,0.17,0.57,0
0.0087176,-0.00094982,0.031834,0.0054723,0.011192,-0.00086608,0,0,0.053669,-0.014871,0,-0.0045036,0,0,0,0.031862,0.0054439,0.011192,-1.8797,0.016166,0.024065,5.8043e-07,0.18,0.57,0
0.0092569,-0.0009939,0.031991,0.0051725,0.011149,-0.00084313,0,0,0.054189,-0.015539,0,-0.0043843,0,0,0,0.032017,0.005146,0.011149,-1.7989,0.016104,0.024429,5.991e-07,0.19,0.57,0
0.0098013,-0.0010367,0.032147,0.004883,0.011109,-0.00082007,0,0,0.054698,-0.016187,0,-0.0042644,0,0,0,0.032171,0.0048584,0.011109,-1.7213,0.016046,0.024786,6.1758e-07,0.2,0.57,0
0.010351,-0.0010782,0.032302,0.004604,0.011072,-0.0007971,0,0,0.055198,-0.016816,0,-0.0041449,0,0,0,0.032324,0.0045811,0.011072,-1.6471,0.015992,0.025135,6.3587e-07,0.21,0.57,0
0.010905,-0.0011185,0.032456,0.0043359,0.011038,-0.00077441,0,0,0.055688,-0.017424,0,-0.0040269,0,0,0,0.032477,0.0043146,0.011038,-1.5763,0.015943,0.025475,6.5396e-07,0.22,0.57,0
0.011465,-0.0011573,0.03261,0.0040787,0.011007,-0.00075221,0,0,0.056168,-0.018012,0,-0.0039115,0,0,0,0.032629,0.0040589,0.011007,-1.5092,0.015898,0.025808,6.7187e-07,0.23,0.57,0
0.012029,-0.0011949,0.032763,0.0038327,0.010979,-0.0007307,0,0,0.05664,-0.01858,0,-0.0037996,0,0,0,0.032782,0.0038143,0.010979,-1.4459,0.015858,0.026132,6.8959e-07,0.24,0.57,0
0.012597,-0.001231,0.032917,0.0035983,0.010955,-0.00071007,0,0,0.057103,-0.019127,0,-0.0036924,0,0,0,0.032934,0.0035811,0.010955,-1.3866,0.015823,0.026449,7.0715e-07,0.25,0.57,0
0.013171,-0.0012658,0.033071,0.0033756,0.010934,-0.00069052,0,0,0.057557,-0.019652,0,-0.0035907,0,0,0,0.033087,0.0033595,0.010934,-1.3313,0.015794,0.026757,7.2455e-07,0.26,0.57,0
0.013749,-0.0012992,0.033227,0.0031648,0.010918,-0.00067223,0,0,0.058004,-0.020157,0,-0.0034956,0,0,0,0.033242,0.0031498,0.010918,-1.2804,0.01577,0.027058,7.4183e-07,0.27,0.57,0
0.014331,-0.0013311,0.033384,0.0029664,0.010905,-0.00065538,0,0,0.058444,-0.02064,0,-0.003408,0,0,0,0.033398,0.0029523,0.010905,-1.2338,0.015752,0.02735,7.5899e-07,0.28,0.57,0
0.014917,-0.0013617,0.033542,0.0027807,0.010897,-0.00064012,0,0,0.058878,-0.021102,0,-0.0033286,0,0,0,0.033555,0.0027674,0.010897,-1.1916,0.01574,0.027635,7.7607e-07,0.29,0.57,0
0.015508,-0.0013908,0.033703,0.0026081,0.010893,-0.0006266,0,0,0.059305,-0.021542,0,-0.0032583,0,0,0,0.033716,0.0025955,0.010893,-1.154,0.015735,0.027912,7.9309e-07,0.3,0.57,0
0.016103,-0.0014185,0.033867,0.0024491,0.010895,-0.00061493,0,0,0.059728,-0.021959,0,-0.0031976,0,0,0,0.033879,0.0024371,0.010895,-1.1209,0.015737,0.028182,8.1008e-07,0.31,0.57,0
0.016703,-0.0014448,0.034034,0.0023044,0.010902,-0.0006052,0,0,0.060145,-0.022353,0,-0.0031471,0,0,0,0.034046,0.0022928,0.010902,-1.0923,0.015747,0.028443,8.2707e-07,0.32,0.57,0
0.017306,-0.0014697,0.034205,0.0021747,0.010914,-0.00059745,0,0,0.060558,-0.022722,0,-0.0031068,0,0,0,0.034216,0.0021636,0.010914,-1.0682,0.015765,0.028696,8.4406e-07,0.33,0.57,0
0.017914,-0.001493,0.034381,0.0020611,0.010933,-0.00059167,0,0,0.060966,-0.023066,0,-0.0030767,0,0,0,0.034392,0.0020503,0.010933,-1.0484,0.015792,0.028941,8.6109e-07,0.34,0.57,0
0.018526,-0.0015149,0.034562,0.0019647,0.010958,-0.00058776,0,0,0.061369,-0.023382,0,-0.0030563,0,0,0,0.034572,0.0019541,0.010958,-1.0327,0.015828,0.029177,8.7814e-07,0.35,0.57,0
0.019141,-0.0015352,0.034747,0.0018872,0.01099,-0.00058553,0,0,0.061768,-0.023668,0,-0.0030448,0,0,0,0.034758,0.0018767,0.01099,-1.0205,0.015875,0.029403,8.9521e-07,0.36,0.57,0
0.019761,-0.001554,0.034939,0.0018304,0.011031,-0.00058465,0,0,0.062161,-0.023921,0,-0.0030402,0,0,0,0.034949,0.00182,0.011031,-1.0113,0.015933,0.029618,9.1226e-07,0.37,0.57,0
0.020385,-0.001571,0.035136,0.0017967,0.01108,-0.00058459,0,0,0.062545,-0.024136,0,-0.0030399,0,0,0,0.035146,0.0017865,0.01108,-1.0043,0.016004,0.029819,9.2921e-07,0.38,0.57,0
0.021012,-0.0015861,0.035338,0.0017894,0.011138,-0.00058457,0,0,0.06292,-0.024307,0,-0.0030398,0,0,0,0.035348,0.0017792,0.011138,-0.99795,0.016089,0.030005,9.4594e-07,0.39,0.57,0
0.021643,-0.0015993,0.035545,0.0018123,0.011207,-0.00058348,0,0,0.063279,-0.024427,0,-0.0030341,0,0,0,0.035555,0.0018022,0.011207,-0.99064,0.016188,0.030171,9.6225e-07,0.4,0.57,0
0.022278,-0.0016101,0.035757,0.0018703,0.011288,-0.00057971,0,0,0.063618,-0.024486,0,-0.0030145,0,0,0,0.035766,0.0018604,0.011288,-0.97981,0.016305,0.030312,9.7786e-07,0.41,0.57,0
0.022915,-0.0016183,0.035969,0.00197,0.011382,-0.00057106,0,0,0.063928,-0.024471,0,-0.0029695,0,0,0,0.035979,0.0019604,0.011382,-0.96199,0.01644,0.030422,9.9231e-07,0.42,0.57,0
0.023556,-0.0016235,0.03618,0.0021195,0.01149,-0.00055449,0,0,0.064195,-0.024363,0,-0.0028834,0,0,0,0.036189,0.0021105,0.01149,-0.93242,0.016597,0.030491,1.0049e-06,0.43,0.57,0
0.024199,-0.001625,0.036382,0.0023296,0.011614,-0.00052581,0,0,0.064399,-0.024138,0,-0.0027342,0,0,0,0.03639,0.0023215,0.011614,-0.88442,0.016775,0.030503,1.0147e-06,0.44,0.57,0
0.024844,-0.001622,0.036563,0.0026141,0.011753,-0.00047901,0,0,0.064506,-0.023762,0,-0.0024909,0,0,0,0.03657,0.0026074,0.011753,-0.80822,0.016977,0.030438,1.0197e-06,0.45,0.57,0
0.025489,-0.0016134,0.036696,0.0029914,0.011906,-0.00040399,0,0,0.064454,-0.023179,0,-0.0021008,0,0,0,0.036701,0.0029865,0.011906,-0.68662,0.017198,0.030257,1.017e-06,0.46,0.57,0
0.026133,-0.0015976,0.036726,0.0034845,0.012063,-0.00027957,0,0,0.064123,-0.022305,0,-0.0014538,0,0,0,0.036728,0.0034821,0.012063,-0.48183,0.017424,0.029894,1.0005e-06,0.47,0.57,0
0.026772,-0.0015717,0.036598,0.0041453,0.012223,-3.432e-05,0,0,0.063374,-0.021002,0,-0.00017846,0,0,0,0.036598,0.0041452,0.012223,-0.060593,0.017655,0.029262,9.6392e-07,0.48,0.57,0
0.027401,-0.001529,0.036626,0.0050995,0.012518,0.00032835,0,0,0.062682,-0.019287,0,0.0017074,0,0,0,0.03663,0.0050961,0.012518,0.59664,0.018081,0.028556,9.2909e-07,0.49,0.57,0
0.028025,-0.0014773,0.03628,0.005337,0.012485,0.00063806,0,0,0.061867,-0.018585,0,0.0033179,0,0,0,0.036293,0.0053238,0.012485,1.1808,0.018034,0.028082,8.9292e-07,0.5,0.57,0
0.028638,-0.0014412,0.036074,0.0019267,0.0114,0.00025049,0,0,0.047389,-0.016421,0,0.0013879,0,0,0,0.03608,0.0019213,0.0114,0.49417,0.016467,0.030603,9.8261e-07,0.51,0.57,0
0.028973,-0.0014364,0.036328,-0.00039697,0.010779,0.0001395,0,0,0.033214,-0.014529,0,0.0003627,0,0,0,0.036329,-0.0003975,0.010779,0.21763,0.01557,0.032608,1.1011e-06,0.52,0.57,0
0.029302,-0.0014394,0.036139,-0.00049788,0.010692,3.8151e-05,0,0,0.03308,-0.014547,0,9.9192e-05,0,0,0,0.036139,-0.00049792,0.010692,0.059664,0.015444,0.032519,1.0871e-06,0.53,0.57,0
0.029635,-0.0014429,0.036437,-0.00066388,0.010732,5.3256e-05,0,0,0.033416,-0.014814,0,0.00013847,0,0,0,0.036437,-0.00066396,0.010732,0.082245,0.015501,0.032917,1.1192e-06,0.54,0.57,0
0.029971,-0.0014471,0.036663,-0.00065482,0.010802,6.1169e-05,0,0,0.033619,-0.014894,0,0.00015904,0,0,0,0.036663,-0.00065492,0.010802,0.093916,0.015603,0.033111,1.1398e-06,0.55,0.57,0
0.030307,-0.0014513,0.036732,-0.00064367,0.010827,6.6369e-05,0,0,0.033677,-0.014911,0,0.00017256,0,0,0,0.036732,-0.00064379,0.010827,0.10174,0.015638,0.033164,1.1459e-06,0.56,0.57,0
0.030644,-0.0014554,0.03675,-0.00064596,0.010831,6.4198e-05,0,0,0.033695,-0.01492,0,0.00016691,0,0,0,0.036751,-0.00064607,0.010831,0.098358,0.015645,0.033182,1.1476e-06,0.57,0.57,0
0.030981,-0.0014594,0.036758,-0.00065274,0.010832,6.1815e-05,0,0,0.033705,-0.01493,0,0.00016072,0,0,0,0.036758,-0.00065284,0.010832,0.09467,0.015646,0.033194,1.1486e-06,0.58,0.57,0
0.031318,-0.0014635,0.036764,-0.00065938,0.010832,5.9751e-05,0,0,0.033713,-0.014938,0,0.00015535,0,0,0,0.036764,-0.00065948,0.010832,0.09148,0.015645,0.033205,1.1494e-06,0.59,0.57,0
0.031655,-0.0014675,0.036769,-0.00066558,0.010831,5.6917e-05,0,0,0.03372,-0.014946,0,0.00014799,0,0,0,0.036769,-0.00066566,0.010831,0.087114,0.015645,0.033214,1.15e-06,0.6,0.57,0
0.031993,-0.0014714,0.036774,-0.00067202,0.010831,5.2588e-05,0,0,0.033726,-0.014953,0,0.00013673,0,0,0,0.036774,-0.00067209,0.010831,0.080464,0.015644,0.033223,1.1507e-06,0.61,0.57,0
0.03233,-0.0014753,0.036779,-0.00067944,0.01083,4.6699e-05,0,0,0.033734,-0.014962,0,0.00012142,0,0,0,0.036779,-0.0006795,0.01083,0.07143,0.015643,0.033234,1.1514e-06,0.62,0.57,0
0.032667,-0.0014792,0.036786,-0.00068833,0.010829,3.9473e-05,0,0,0.033744,-0.014973,0,0.00010263,0,0,0,0.036786,-0.00068837,0.010829,0.060351,0.015642,0.033247,1.1523e-06,0.63,0.57,0
0.033005,-0.0014831,0.036795,-0.00069906,0.010829,3.1163e-05,0,0,0.033756,-0.014986,0,8.1025e-05,0,0,0,0.036795,-0.00069909,0.010829,0.047622,0.015641,0.033263,1.1534e-06,0.64,0.57,0
0.033342,-0.0014871,0.036805,-0.00071196,0.010828,2.1971e-05,0,0,0.03377,-0.015002,0,5.7124e-05,0,0,0,0.036805,-0.00071198,0.010828,0.033554,0.01564,0.033283,1.1548e-06,0.65,0.57,0
0.03368,-0.0014911,0.036817,-0.0007274,0.010827,1.2047e-05,0,0,0.033787,-0.015021,0,3.1323e-05,0,0,0,0.036817,-0.0007274,0.010827,0.018385,0.015639,0.033306,1.1564e-06,0.66,0.57,0
0.034018,-0.0014951,0.036832,-0.00074571,0.010826,1.5328e-06,0,0,0.033808,-0.015043,0,3.9854e-06,0,0,0,0.036832,-0.00074571,0.010826,0.0023372,0.015637,0.033334,1.1584e-06,0.67,0.57,0
0.034356,-0.0014991,0.03685,-0.00076718,0.010825,-9.4221e-06,0,0,0.033832,-0.015069,0,-2.4498e-05,0,0,0,0.03685,-0.00076718,0.010825,-0.014351,0.015636,0.033367,1.1607e-06,0.68,0.57,0
0.034695,-0.0015033,0.03687,-0.00079199,0.010823,-2.0646e-05,0,0,0.03386,-0.0151,0,-5.3681e-05,0,0,0,0.03687,-0.000792,0.010823,-0.03141,0.015634,0.033405,1.1634e-06,0.69,0.57,0
0.035034,-0.0015075,0.036893,-0.00082022,0.010822,-3.195e-05,0,0,0.033892,-0.015135,0,-8.307e-05,0,0,0,0.036893,-0.00082025,0.010822,-0.04854,0.015631,0.033448,1.1665e-06,0.7,0.57,0
0.035373,-0.0015117,0.036919,-0.00085183,0.01082,-4.3129e-05,0,0,0.033928,-0.015173,0,-0.00011214,0,0,0,0.036919,-0.00085188,0.01082,-0.065424,0.015629,0.033496,1.1699e-06,0.71,0.57,0
0.035712,-0.0015161,0.036948,-0.00088668,0.010818,-5.3961e-05,0,0,0.033968,-0.015217,0,-0.0001403,0,0,0,0.036948,-0.00088676,0.010818,-0.081718,0.015626,0.03355,1.1738e-06,0.72,0.57,0
0.036052,-0.0015205,0.036979,-0.00092461,0.010816,-6.4185e-05,0,0,0.034012,-0.015263,0,-0.00016688,0,0,0,0.036979,-0.00092472,0.010816,-0.097022,0.015624,0.033608,1.1779e-06,0.73,0.57,0
0.036392,-0.0015249,0.037013,-0.00096547,0.010814,-7.3453e-05,0,0,0.034058,-0.015314,0,-0.00019098,0,0,0,0.037013,-0.00096562,0.010814,-0.11081,0.015621,0.033671,1.1824e-06,0.74,0.57,0
0.036733,-0.0015294,0.037049,-0.0010092,0.010812,-8.127e-05,0,0,0.034108,-0.015367,0,-0.0002113,0,0,0,0.037049,-0.0010094,0.010812,-0.12235,0.015617,0.033739,1.1873e-06,0.75,0.57,0
0.037075,-0.001534,0.037088,-0.0010557,0.010809,-8.6937e-05,0,0,0.034161,-0.015425,0,-0.00022604,0,0,0,0.037088,-0.0010559,0.010809,-0.13059,0.015614,0.03381,1.1924e-06,0.76,0.57,0
0.037416,-0.0015385,0.037128,-0.001105,0.010807,-8.9565e-05,0,0,0.034217,-0.015485,0,-0.00023287,0,0,0,0.037128,-0.0011052,0.010807,-0.13422,0.01561,0.033886,1.1978e-06,0.77,0.57,0
0.037759,-0.0015431,0.03717,-0.0011571,0.010804,-8.8233e-05,0,0,0.034276,-0.015549,0,-0.0002294,0,0,0,0.03717,-0.0011573,0.010804,-0.1319,0.015605,0.033965,1.2035e-06,0.78,0.57,0
0.038102,-0.0015477,0.037215,-0.0012126,0.010801,-8.2211e-05,0,0,0.034338,-0.015617,0,-0.00021375,0,0,0,0.037215,-0.0012128,0.010801,-0.12258,0.015601,0.03405,1.2096e-06,0.79,0.57,0
0.038446,-0.0015523,0.037266,-0.0012738,0.010798,-7.0584e-05,0,0,0.034409,-0.015693,0,-0.00018352,0,0,0,0.037266,-0.0012739,0.010798,-0.10493,0.015596,0.034144,1.2164e-06,0.8,0.57,0
0.03879,-0.0015571,0.037324,-0.0013488,0.010793,-5.0561e-05,0,0,0.034491,-0.015784,0,-0.00013146,0,0,0,0.037324,-0.0013488,0.010793,-0.074908,0.015589,0.034256,1.2244e-06,0.81,0.57,0
0.039135,-0.001562,0.037373,-0.0014517,0.010776,-1.6055e-05,0,0,0.034575,-0.015896,0,-4.1744e-05,0,0,0,0.037373,-0.0014517,0.010776,-0.023694,0.015566,0.034382,1.2323e-06,0.82,0.57,0
0.039482,-0.0015674,0.037358,-0.0015703,0.010736,1.1736e-05,0,0,0.034608,-0.015999,0,3.0513e-05,0,0,0,0.037358,-0.0015703,0.010736,0.017273,0.015508,0.034465,1.2346e-06,0.83,0.57,0
0.039828,-0.0015754,0.037396,-0.0015652,0.010749,-5.8092e-05,0,0,0.034641,-0.016009,0,-0.00015104,0,0,0,0.037396,-0.0015653,0.010749,-0.085429,0.015527,0.034494,1.2382e-06,0.84,0.57,0
0.040175,-0.0015903,0.037514,-0.0018057,0.010712,-0.00037414,0,0,0.034842,-0.016274,0,-0.00097278,0,0,0,0.037518,-0.0018093,0.010712,-0.54513,0.015474,0.034799,1.2577e-06,0.85,0.57,0
0.040524,-0.0016159,0.037633,0.0018691,0.011851,-0.00068816,0,0,0.049532,-0.017301,0,-0.002871,0,0,0,0.037648,0.0018544,0.011851,-1.1485,0.017118,0.032053,1.1208e-06,0.86,0.57,0
0.041165,-0.0016706,0.037889,0.0053367,0.012968,-0.00076684,0,0,0.064796,-0.019841,0,-0.0039876,0,0,0,0.037907,0.0053186,0.012968,-1.3487,0.018731,0.029517,1.0278e-06,0.87,0.57,0
0.04182,-0.0017264,0.038101,0.0041247,0.012668,-0.00057882,0,0,0.066127,-0.022212,0,-0.0030098,0,0,0,0.038111,0.0041148,0.012668,-0.9757,0.018298,0.030629,1.097e-06,0.88,0.57,0
0.042488,-0.0017754,0.038244,0.0032335,0.012443,-0.0003309,0,0,0.067082,-0.023945,0,-0.0017207,0,0,0,0.038247,0.0032304,0.012443,-0.54146,0.017974,0.03144,1.1461e-06,0.89,0.57,0
0.043162,-0.001815,0.038262,0.0025323,0.012238,-0.00012379,0,0,0.067662,-0.025236,0,-0.00064369,0,0,0,0.038263,0.0025319,0.012238,-0.1985,0.017678,0.032002,1.1758e-06,0.9,0.57,0
0.043841,-0.0018461,0.03822,0.0019697,0.012057,1.8503e-05,0,0,0.068023,-0.026226,0,9.6217e-05,0,0,0,0.03822,0.0019697,0.012057,0.029246,0.017415,0.032406,1.1939e-06,0.91,0.57,0
0.044522,-0.0018704,0.038151,0.0015186,0.011901,0.00010598,0,0,0.06825,-0.026994,0,0.00055109,0,0,0,0.038151,0.0015183,0.011901,0.16576,0.01719,0.032702,1.2047e-06,0.92,0.57,0
0.045206,-0.0018891,0.038071,0.0011581,0.011769,0.00015213,0,0,0.068386,-0.027588,0,0.00079108,0,0,0,0.038072,0.0011574,0.011769,0.23613,0.016999,0.032917,1.2107e-06,0.93,0.57,0
0.04589,-0.0019035,0.03799,0.00087203,0.011659,0.00016849,0,0,0.068461,-0.028045,0,0.00087612,0,0,0,0.03799,0.00087126,0.011659,0.26007,0.01684,0.033072,1.2134e-06,0.94,0.57,0
0.046575,-0.0019144,0.037913,0.00064793,0.011568,0.00016386,0,0,0.068496,-0.028393,0,0.00085205,0,0,0,0.037913,0.00064721,0.011568,0.25193,0.01671,0.033182,1.2141e-06,0.95,0.57,0
0.04726,-0.0019226,0.037845,0.00047613,0.011496,0.00014471,0,0,0.068506,-0.028652,0,0.00075249,0,0,0,0.037845,0.00047557,0.011496,0.22187,0.016606,0.033258,1.2137e-06,0.96,0.57,0
0.047945,-0.0019285,0.037789,0.00034937,0.011442,0.00011572,0,0,0.068503,-0.028839,0,0.00060177,0,0,0,0.037789,0.00034901,0.011442,0.1771,0.016527,0.033309,1.2128e-06,0.97,0.57,0
0.04863,-0.0019325,0.037748,0.00026235,0.011403,8.0321e-05,0,0,0.068496,-0.028966,0,0.00041767,0,0,0,0.037748,0.00026218,0.011403,0.12277,0.016471,0.033342,1.2119e-06,0.98,0.57,0
0.049315,-0.0019348,0.037722,0.00021151,0.01138,4.1063e-05,0,0,0.068489,-0.029038,0,0.00021353,0,0,0,0.037722,0.00021147,0.01138,0.062722,0.016438,0.033359,1.2112e-06,0.99,0.57,0
0.05,-0.0019356,0.037713,0.00019479,0.011373,-1.4528e-05,0,0,0.068487,-0.029062,0,-7.5545e-05,0,0,0,0.037713,0.00019479,0.011373,-0.022186,0.016427,0.033365,1.2109e-06,1,0.57,0
0,0,0.028977,0.012419,0.012419,-0.0012918,0,0,0.043052,1.6263e-19,0,-0.0067173,0,0,0,0.029077,0.012319,0.012419,-4.4341,0.017938,0.016709,2.3956e-07,0,0.58,0
0.00043052,-6.7173e-05,0.028931,0.011877,0.012242,-0.0012907,0,0,0.043389,-0.00094884,0,-0.0067115,0,0,0,0.029028,0.01178,0.012242,-4.3038,0.017684,0.017021,2.5264e-07,0.01,0.58,0
0.00086779,-0.00013389,0.029112,0.011441,0.012166,-0.0012848,0,0,0.04406,-0.0018843,0,-0.0066808,0,0,0,0.029205,0.011348,0.012166,-4.1367,0.017573,0.017462,2.7146e-07,0.02,0.58,0
0.0013117,-0.00020013,0.029292,0.011012,0.012091,-0.001278,0,0,0.044723,-0.0028068,0,-0.0066455,0,0,0,0.029381,0.010923,0.012091,-3.9797,0.017465,0.017903,2.9049e-07,0.03,0.58,0
0.0017622,-0.00026585,0.029471,0.010589,0.012018,-0.0012702,0,0,0.045379,-0.0037164,0,-0.0066048,0,0,0,0.029556,0.010504,0.012018,-3.831,0.017359,0.018343,3.0969e-07,0.04,0.58,0
0.0022193,-0.00033101,0.029649,0.010172,0.011946,-0.0012611,0,0,0.046027,-0.0046131,0,-0.0065577,0,0,0,0.02973,0.010091,0.011946,-3.6893,0.017256,0.018781,3.2905e-07,0.05,0.58,0
0.0026828,-0.00039554,0.029825,0.0097621,0.011876,-0.0012507,0,0,0.046668,-0.0054967,0,-0.0065037,0,0,0,0.029903,0.0096844,0.011876,-3.5534,0.017155,0.019217,3.4853e-07,0.06,0.58,0
0.0031526,-0.00045941,0.03,0.009359,0.011808,-0.0012389,0,0,0.0473,-0.0063669,0,-0.0064423,0,0,0,0.030074,0.0092849,0.011808,-3.4226,0.017056,0.01965,3.6811e-07,0.07,0.58,0
0.0036288,-0.00052253,0.030174,0.0089628,0.011741,-0.0012256,0,0,0.047925,-0.0072232,0,-0.0063733,0,0,0,0.030244,0.0088922,0.011741,-3.2961,0.016959,0.02008,3.8775e-07,0.08,0.58,0
0.0041112,-0.00058485,0.030346,0.0085739,0.011676,-0.0012109,0,0,0.048542,-0.0080652,0,-0.0062965,0,0,0,0.030413,0.0085068,0.011676,-3.1735,0.016865,0.020506,4.0743e-07,0.09,0.58,0
0.0045996,-0.0006463,0.030516,0.0081925,0.011613,-0.0011946,0,0,0.049149,-0.0088923,0,-0.006212,0,0,0,0.03058,0.0081287,0.011613,-3.0544,0.016774,0.020928,4.2712e-07,0.1,0.58,0
0.0050941,-0.00070682,0.030685,0.0078189,0.011551,-0.0011769,0,0,0.049748,-0.009704,0,-0.00612,0,0,0,0.030745,0.0077585,0.011551,-2.9387,0.016685,0.021345,4.4677e-07,0.11,0.58,0
0.0055946,-0.00076633,0.030852,0.0074534,0.011492,-0.0011579,0,0,0.050337,-0.0105,0,-0.0060211,0,0,0,0.030909,0.0073962,0.011492,-2.8261,0.016599,0.021757,4.6637e-07,0.12,0.58,0
0.0061009,-0.00082476,0.031018,0.0070963,0.011434,-0.0011376,0,0,0.050917,-0.011278,0,-0.0059156,0,0,0,0.031072,0.0070424,0.011434,-2.7166,0.016516,0.022162,4.8588e-07,0.13,0.58,0
0.0066129,-0.00088206,0.031181,0.0067481,0.011379,-0.0011162,0,0,0.051486,-0.01204,0,-0.0058043,0,0,0,0.031232,0.0066972,0.011379,-2.6103,0.016436,0.022562,5.0528e-07,0.14,0.58,0
0.0071306,-0.00093816,0.031343,0.0064088,0.011326,-0.0010939,0,0,0.052046,-0.012784,0,-0.0056881,0,0,0,0.031391,0.0063609,0.011326,-2.5071,0.016359,0.022954,5.2454e-07,0.15,0.58,0
0.0076539,-0.000993,0.031503,0.006079,0.011275,-0.0010707,0,0,0.052594,-0.013509,0,-0.0055677,0,0,0,0.031548,0.006034,0.011275,-2.4072,0.016286,0.023339,5.4363e-07,0.16,0.58,0
0.0081825,-0.0010465,0.031662,0.0057588,0.011226,-0.001047,0,0,0.053132,-0.014215,0,-0.0054442,0,0,0,0.031704,0.0057166,0.011226,-2.3108,0.016216,0.023717,5.6255e-07,0.17,0.58,0
0.0087165,-0.0010987,0.031818,0.0054486,0.01118,-0.0010228,0,0,0.05366,-0.014902,0,-0.0053186,0,0,0,0.031858,0.005409,0.01118,-2.2179,0.016149,0.024088,5.8127e-07,0.18,0.58,0
0.0092557,-0.0011494,0.031974,0.0051487,0.011137,-0.0009985,0,0,0.054176,-0.015569,0,-0.0051922,0,0,0,0.032011,0.0051116,0.011137,-2.1288,0.016086,0.02445,5.9978e-07,0.19,0.58,0
0.0098,-0.0011987,0.032128,0.0048593,0.011096,-0.00097424,0,0,0.054682,-0.016216,0,-0.005066,0,0,0,0.032162,0.0048245,0.011096,-2.0436,0.016028,0.024804,6.1808e-07,0.2,0.58,0
0.010349,-0.0012466,0.03228,0.0045806,0.011058,-0.00095026,0,0,0.055177,-0.016842,0,-0.0049413,0,0,0,0.032313,0.004548,0.011058,-1.9625,0.015973,0.02515,6.3615e-07,0.21,0.58,0
0.010904,-0.0012928,0.032432,0.0043129,0.011023,-0.0009268,0,0,0.055662,-0.017447,0,-0.0048194,0,0,0,0.032462,0.0042824,0.011023,-1.8858,0.015923,0.025487,6.5401e-07,0.22,0.58,0
0.011463,-0.0013376,0.032583,0.0040565,0.010992,-0.00090411,0,0,0.056136,-0.018032,0,-0.0047014,0,0,0,0.032611,0.0040279,0.010992,-1.8135,0.015877,0.025816,6.7164e-07,0.23,0.58,0
0.012026,-0.0013808,0.032733,0.0038115,0.010963,-0.00088242,0,0,0.056601,-0.018595,0,-0.0045886,0,0,0,0.03276,0.0037846,0.010963,-1.746,0.015836,0.026136,6.8906e-07,0.24,0.58,0
0.012595,-0.0014224,0.032883,0.0035782,0.010938,-0.00086196,0,0,0.057057,-0.019137,0,-0.0044822,0,0,0,0.032909,0.0035529,0.010938,-1.6833,0.0158,0.026448,7.0629e-07,0.25,0.58,0
0.013167,-0.0014624,0.033034,0.0033568,0.010917,-0.00084296,0,0,0.057503,-0.019657,0,-0.0043834,0,0,0,0.033058,0.0033329,0.010917,-1.6257,0.015769,0.026752,7.2333e-07,0.26,0.58,0
0.013745,-0.0015007,0.033185,0.0031477,0.0109,-0.00082564,0,0,0.057941,-0.020155,0,-0.0042933,0,0,0,0.033207,0.003125,0.0109,-1.5733,0.015744,0.027047,7.402e-07,0.27,0.58,0
0.014326,-0.0015375,0.033337,0.002951,0.010886,-0.0008102,0,0,0.058371,-0.020632,0,-0.004213,0,0,0,0.033358,0.0029294,0.010886,-1.5263,0.015725,0.027333,7.5692e-07,0.28,0.58,0
0.014912,-0.0015727,0.03349,0.0027672,0.010877,-0.00079682,0,0,0.058794,-0.021086,0,-0.0041435,0,0,0,0.033511,0.0027465,0.010877,-1.4847,0.015712,0.027612,7.7353e-07,0.29,0.58,0
0.015502,-0.0016061,0.033646,0.0025966,0.010873,-0.00078567,0,0,0.05921,-0.021518,0,-0.0040855,0,0,0,0.033666,0.0025767,0.010873,-1.4486,0.015705,0.027882,7.9003e-07,0.3,0.58,0
0.016096,-0.001638,0.033804,0.0024398,0.010873,-0.00077689,0,0,0.05962,-0.021926,0,-0.0040398,0,0,0,0.033823,0.0024205,0.010873,-1.4181,0.015706,0.028145,8.0646e-07,0.31,0.58,0
0.016695,-0.0016682,0.033964,0.0022973,0.010878,-0.00077055,0,0,0.060023,-0.022311,0,-0.0040069,0,0,0,0.033983,0.0022785,0.010878,-1.3931,0.015713,0.028399,8.2283e-07,0.32,0.58,0
0.017297,-0.0016967,0.034128,0.0021699,0.010889,-0.0007667,0,0,0.060421,-0.022671,0,-0.0039869,0,0,0,0.034147,0.0021515,0.010889,-1.3735,0.015729,0.028644,8.3917e-07,0.33,0.58,0
0.017903,-0.0017235,0.034297,0.0020584,0.010906,-0.0007653,0,0,0.060814,-0.023005,0,-0.0039796,0,0,0,0.034315,0.0020402,0.010906,-1.3591,0.015754,0.028881,8.5548e-07,0.34,0.58,0
0.018513,-0.0017485,0.034469,0.0019641,0.01093,-0.00076621,0,0,0.061201,-0.023311,0,-0.0039843,0,0,0,0.034487,0.001946,0.01093,-1.3496,0.015788,0.029108,8.7177e-07,0.35,0.58,0
0.019127,-0.0017716,0.034646,0.0018882,0.01096,-0.00076915,0,0,0.061582,-0.023587,0,-0.0039996,0,0,0,0.034664,0.0018702,0.01096,-1.3443,0.015831,0.029325,8.8802e-07,0.36,0.58,0
0.019745,-0.0017928,0.034828,0.0018327,0.010998,-0.00077367,0,0,0.061957,-0.02383,0,-0.0040231,0,0,0,0.034846,0.0018145,0.010998,-1.3425,0.015886,0.029531,9.0421e-07,0.37,0.58,0
0.020366,-0.0018119,0.035015,0.0017996,0.011044,-0.00077905,0,0,0.062323,-0.024036,0,-0.0040511,0,0,0,0.035033,0.0017813,0.011044,-1.3429,0.015953,0.029723,9.2026e-07,0.38,0.58,0
0.020991,-0.0018288,0.035207,0.0017917,0.011099,-0.00078425,0,0,0.062678,-0.0242,0,-0.0040781,0,0,0,0.035225,0.0017733,0.011099,-1.3438,0.016033,0.0299,9.3607e-07,0.39,0.58,0
0.02162,-0.0018431,0.035403,0.0018125,0.011165,-0.00078773,0,0,0.06302,-0.024316,0,-0.0040962,0,0,0,0.035422,0.001794,0.011165,-1.3427,0.016127,0.030058,9.5147e-07,0.4,0.58,0
0.022252,-0.0018545,0.035603,0.0018664,0.011241,-0.00078731,0,0,0.063342,-0.024374,0,-0.004094,0,0,0,0.035622,0.001848,0.011241,-1.3361,0.016237,0.030194,9.662e-07,0.41,0.58,0
0.022887,-0.0018626,0.035805,0.0019589,0.011329,-0.00077984,0,0,0.063638,-0.024363,0,-0.0040552,0,0,0,0.035823,0.0019409,0.011329,-1.3192,0.016365,0.0303,9.7988e-07,0.42,0.58,0
0.023524,-0.0018667,0.036007,0.002097,0.011431,-0.00076077,0,0,0.063897,-0.024269,0,-0.003956,0,0,0,0.036024,0.00208,0.011431,-1.2846,0.016512,0.030368,9.9195e-07,0.43,0.58,0
0.024164,-0.0018661,0.036203,0.0022899,0.011548,-0.00072331,0,0,0.064103,-0.024071,0,-0.0037612,0,0,0,0.036218,0.0022744,0.011548,-1.2213,0.01668,0.030387,1.0016e-06,0.44,0.58,0
0.024806,-0.0018595,0.036385,0.0025492,0.01168,-0.00065669,0,0,0.064233,-0.023741,0,-0.0034148,0,0,0,0.036398,0.0025365,0.01168,-1.1114,0.016872,0.030341,1.0075e-06,0.45,0.58,0
0.025449,-0.0018454,0.036546,0.0028905,0.011831,-0.00054269,0,0,0.064259,-0.023245,0,-0.002822,0,0,0,0.036555,0.0028817,0.011831,-0.92355,0.017089,0.03021,1.0083e-06,0.46,0.58,0
0.026092,-0.0018214,0.036685,0.0033345,0.012006,-0.00034692,0,0,0.064166,-0.022545,0,-0.001804,0,0,0,0.036688,0.0033309,0.012006,-0.59591,0.017342,0.029977,1.0029e-06,0.47,0.58,0
0.026732,-0.001784,0.036865,0.0039074,0.012232,-3.2002e-05,0,0,0.064046,-0.021643,0,-0.00016641,0,0,0,0.036865,0.0039074,0.012232,-0.055634,0.017668,0.029684,9.9571e-07,0.48,0.58,0
0.027373,-0.0017308,0.03696,0.0044344,0.012418,0.00040257,0,0,0.063808,-0.020758,0,0.0020934,0,0,0,0.036965,0.0044294,0.012418,0.70901,0.017937,0.029368,9.8357e-07,0.49,0.58,0
0.028009,-0.001664,0.036758,0.0051425,0.01257,0.00070811,0,0,0.062888,-0.019312,0,0.0036822,0,0,0,0.036774,0.0051266,0.01257,1.2824,0.018157,0.02866,9.3966e-07,0.5,0.58,0
0.02863,-0.0016033,0.036755,0.0025912,0.011804,0.00067289,0,0,0.047978,-0.015969,0,0.003023,0,0,0,0.036773,0.0025735,0.011804,1.2066,0.01705,0.030704,1.0197e-06,0.51,0.58,0
0.028968,-0.001584,0.036823,-0.00014222,0.011004,-5.254e-05,0,0,0.033565,-0.01449,0,-0.0001366,0,0,0,0.036823,-0.00014229,0.011004,-0.081436,0.015895,0.032843,1.1382e-06,0.52,0.58,0
0.029302,-0.0015846,0.03654,-0.00070316,0.010751,-0.00017887,0,0,0.033526,-0.01489,0,-0.00046505,0,0,0,0.036541,-0.00070402,0.010751,-0.27516,0.015529,0.033042,1.13e-06,0.53,0.58,0
0.029639,-0.0015914,0.036767,-0.00068699,0.010824,-5.2713e-05,0,0,0.033726,-0.014964,0,-0.00013705,0,0,0,0.036767,-0.00068707,0.010824,-0.080637,0.015635,0.033229,1.1505e-06,0.54,0.58,0
0.029976,-0.0015962,0.036784,-0.00062714,0.010847,4.5023e-05,0,0,0.033718,-0.014916,0,0.00011706,0,0,0,0.036784,-0.00062719,0.010847,0.068954,0.015668,0.033196,1.1501e-06,0.55,0.58,0
0.030313,-0.0016003,0.036754,-0.0006285,0.010838,5.9039e-05,0,0,0.033691,-0.014906,0,0.0001535,0,0,0,0.036754,-0.0006286,0.010838,0.090487,0.015654,0.033171,1.1474e-06,0.56,0.58,0
0.03065,-0.0016045,0.036747,-0.00064282,0.010831,5.7694e-05,0,0,0.033691,-0.014916,0,0.00015,0,0,0,0.036747,-0.00064291,0.010831,0.088409,0.015645,0.033176,1.1472e-06,0.57,0.58,0
0.030987,-0.0016087,0.03675,-0.00065242,0.010829,5.7102e-05,0,0,0.033697,-0.014926,0,0.00014846,0,0,0,0.03675,-0.0006525,0.010829,0.087472,0.015642,0.033187,1.1478e-06,0.58,0.58,0
0.031324,-0.0016128,0.036754,-0.00065783,0.010829,5.665e-05,0,0,0.033702,-0.014932,0,0.00014729,0,0,0,0.036754,-0.00065792,0.010829,0.08676,0.015641,0.033194,1.1483e-06,0.59,0.58,0
0.031661,-0.0016169,0.036756,-0.00066159,0.010828,5.4065e-05,0,0,0.033706,-0.014937,0,0.00014057,0,0,0,0.036756,-0.00066167,0.010828,0.082787,0.015641,0.033199,1.1486e-06,0.6,0.58,0
0.031998,-0.0016209,0.036758,-0.00066593,0.010828,4.89e-05,0,0,0.03371,-0.014942,0,0.00012714,0,0,0,0.036758,-0.00066599,0.010828,0.074865,0.01564,0.033204,1.149e-06,0.61,0.58,0
0.032335,-0.0016249,0.036762,-0.00067178,0.010827,4.1579e-05,0,0,0.033715,-0.014948,0,0.00010811,0,0,0,0.036762,-0.00067182,0.010827,0.063641,0.015639,0.033212,1.1495e-06,0.62,0.58,0
0.032672,-0.0016289,0.036767,-0.00067946,0.010826,3.2625e-05,0,0,0.033723,-0.014958,0,8.4825e-05,0,0,0,0.036767,-0.00067949,0.010826,0.049918,0.015638,0.033223,1.1503e-06,0.63,0.58,0
0.033009,-0.0016329,0.036775,-0.00068918,0.010826,2.2384e-05,0,0,0.033734,-0.014969,0,5.8198e-05,0,0,0,0.036775,-0.00068919,0.010826,0.034233,0.015637,0.033238,1.1513e-06,0.64,0.58,0
0.033347,-0.001637,0.036784,-0.00070119,0.010825,1.1043e-05,0,0,0.033747,-0.014984,0,2.8711e-05,0,0,0,0.036784,-0.00070119,0.010825,0.016878,0.015636,0.033256,1.1526e-06,0.65,0.58,0
0.033684,-0.0016412,0.036796,-0.00071583,0.010824,-1.272e-06,0,0,0.033764,-0.015002,0,-3.3071e-06,0,0,0,0.036796,-0.00071583,0.010824,-0.0019428,0.015635,0.033278,1.1541e-06,0.66,0.58,0
0.034022,-0.0016454,0.036811,-0.00073349,0.010823,-1.4417e-05,0,0,0.033784,-0.015024,0,-3.7485e-05,0,0,0,0.036811,-0.0007335,0.010823,-0.022002,0.015634,0.033306,1.1561e-06,0.67,0.58,0
0.03436,-0.0016497,0.036828,-0.0007545,0.010822,-2.8201e-05,0,0,0.033808,-0.01505,0,-7.3322e-05,0,0,0,0.036828,-0.00075452,0.010822,-0.042993,0.015632,0.033338,1.1584e-06,0.68,0.58,0
0.034698,-0.0016542,0.036849,-0.00077908,0.010821,-4.238e-05,0,0,0.033836,-0.01508,0,-0.00011019,0,0,0,0.036849,-0.00077913,0.010821,-0.064531,0.01563,0.033376,1.161e-06,0.69,0.58,0
0.035037,-0.0016587,0.036872,-0.00080731,0.010819,-5.6683e-05,0,0,0.033868,-0.015115,0,-0.00014738,0,0,0,0.036872,-0.0008074,0.010819,-0.086193,0.015628,0.033419,1.1641e-06,0.7,0.58,0
0.035376,-0.0016634,0.036899,-0.00083915,0.010818,-7.0839e-05,0,0,0.033905,-0.015154,0,-0.00018418,0,0,0,0.036899,-0.00083929,0.010818,-0.10755,0.015626,0.033468,1.1676e-06,0.71,0.58,0
0.035715,-0.0016681,0.036928,-0.00087446,0.010816,-8.4592e-05,0,0,0.033946,-0.015198,0,-0.00021994,0,0,0,0.036928,-0.00087465,0.010816,-0.12821,0.015623,0.033523,1.1715e-06,0.72,0.58,0
0.036055,-0.001673,0.036961,-0.00091306,0.010814,-9.7693e-05,0,0,0.03399,-0.015246,0,-0.000254,0,0,0,0.036961,-0.00091332,0.010814,-0.14779,0.015621,0.033583,1.1759e-06,0.73,0.58,0
0.036395,-0.001678,0.036997,-0.00095489,0.010813,-0.00010985,0,0,0.03404,-0.015298,0,-0.00028562,0,0,0,0.036997,-0.00095521,0.010813,-0.16585,0.015618,0.033649,1.1806e-06,0.74,0.58,0
0.036735,-0.001683,0.037037,-0.001,0.010811,-0.00012066,0,0,0.034093,-0.015354,0,-0.00031372,0,0,0,0.037037,-0.0010004,0.010811,-0.18175,0.015616,0.033721,1.1858e-06,0.75,0.58,0
0.037077,-0.0016882,0.03708,-0.0010487,0.010809,-0.00012946,0,0,0.034152,-0.015416,0,-0.00033659,0,0,0,0.037081,-0.0010491,0.010809,-0.19453,0.015614,0.033799,1.1915e-06,0.76,0.58,0
0.037419,-0.0016934,0.037129,-0.0011012,0.010808,-0.00013535,0,0,0.034216,-0.015482,0,-0.0003519,0,0,0,0.037129,-0.0011017,0.010808,-0.20284,0.015612,0.033884,1.1978e-06,0.77,0.58,0
0.037761,-0.0016986,0.037182,-0.0011575,0.010807,-0.00013753,0,0,0.034287,-0.015554,0,-0.00035759,0,0,0,0.037182,-0.001158,0.010807,-0.20553,0.01561,0.033976,1.2047e-06,0.78,0.58,0
0.038104,-0.001704,0.037242,-0.0012166,0.010808,-0.00013635,0,0,0.034365,-0.015631,0,-0.00035452,0,0,0,0.037243,-0.001217,0.010808,-0.20314,0.015611,0.034077,1.2124e-06,0.79,0.58,0
0.038448,-0.0017094,0.037317,-0.0012779,0.010812,-0.00013478,0,0,0.034457,-0.015716,0,-0.00035043,0,0,0,0.037317,-0.0012784,0.010812,-0.20008,0.015617,0.034193,1.2215e-06,0.8,0.58,0
0.038793,-0.0017152,0.037425,-0.0013441,0.010824,-0.00013653,0,0,0.034581,-0.015819,0,-0.00035497,0,0,0,0.037425,-0.0013446,0.010824,-0.20177,0.015635,0.034342,1.2342e-06,0.81,0.58,0
0.03914,-0.0017215,0.03759,-0.0014371,0.010846,-0.00013412,0,0,0.034768,-0.015968,0,-0.00034871,0,0,0,0.037591,-0.0014375,0.010846,-0.19689,0.015666,0.034564,1.2533e-06,0.82,0.58,0
0.039489,-0.0017282,0.037735,-0.0016093,0.010838,-8.5765e-05,0,0,0.034966,-0.016181,0,-0.00022299,0,0,0,0.037735,-0.0016095,0.010838,-0.1249,0.015654,0.034831,1.2731e-06,0.83,0.58,0
0.039839,-0.0017352,0.037599,-0.001731,0.01076,-7.654e-05,0,0,0.03489,-0.016239,0,-0.000199,0,0,0,0.037599,-0.0017312,0.01076,-0.1115,0.015543,0.034808,1.2633e-06,0.84,0.58,0
0.040186,-0.0017513,0.038007,-0.00097826,0.011109,-0.00036995,0,0,0.034968,-0.015713,0,-0.00096188,0,0,0,0.03801,-0.00098177,0.011109,-0.54365,0.016046,0.034571,1.2803e-06,0.85,0.58,0
0.040539,-0.0017879,0.038053,0.002268,0.012096,-0.0010813,0,0,0.049884,-0.017036,0,-0.0045235,0,0,0,0.038089,0.0022315,0.012096,-1.8018,0.017472,0.032146,1.1487e-06,0.86,0.58,0
0.041184,-0.0018711,0.038109,0.0049091,0.012905,-0.0010056,0,0,0.065529,-0.02079,0,-0.005229,0,0,0,0.038139,0.0048787,0.012905,-1.7333,0.018641,0.030062,1.0672e-06,0.87,0.58,0
0.041849,-0.0019521,0.038373,0.0037933,0.01265,-0.00063823,0,0,0.06688,-0.023027,0,-0.0033188,0,0,0,0.038385,0.0037815,0.01265,-1.057,0.018272,0.031131,1.1361e-06,0.88,0.58,0
0.042522,-0.0020174,0.038333,0.0029994,0.0124,-0.00028572,0,0,0.067427,-0.024441,0,-0.0014857,0,0,0,0.038336,0.0029971,0.0124,-0.46327,0.017911,0.031701,1.164e-06,0.89,0.58,0
0.043198,-0.0020688,0.038211,0.0023688,0.012174,-4.4997e-05,0,0,0.067696,-0.025493,0,-0.00023398,0,0,0,0.038211,0.0023687,0.012174,-0.071931,0.017584,0.032084,1.1774e-06,0.9,0.58,0
0.043876,-0.002109,0.038089,0.0018665,0.011987,0.00010921,0,0,0.067866,-0.026312,0,0.00056788,0,0,0,0.038089,0.0018662,0.011987,0.17274,0.017314,0.032372,1.1855e-06,0.91,0.58,0
0.044555,-0.0021403,0.037976,0.001462,0.011831,0.00019991,0,0,0.067976,-0.02696,0,0.0010395,0,0,0,0.037977,0.0014609,0.011831,0.31367,0.01709,0.032593,1.1902e-06,0.92,0.58,0
0.045235,-0.0021645,0.037872,0.001136,0.011702,0.00024388,0,0,0.068041,-0.027473,0,0.0012682,0,0,0,0.037873,0.0011344,0.011702,0.38036,0.016903,0.032759,1.1925e-06,0.93,0.58,0
0.045916,-0.0021832,0.037778,0.00087488,0.011596,0.0002539,0,0,0.068073,-0.027874,0,0.0013203,0,0,0,0.03778,0.00087314,0.011596,0.39418,0.01675,0.032884,1.1931e-06,0.94,0.58,0
0.046597,-0.0021975,0.037695,0.0006684,0.011509,0.00023958,0,0,0.068084,-0.028186,0,0.0012458,0,0,0,0.037697,0.00066685,0.011509,0.37071,0.016624,0.032974,1.1926e-06,0.95,0.58,0
0.047278,-0.0022082,0.037625,0.00050882,0.01144,0.00020812,0,0,0.068081,-0.028421,0,0.0010822,0,0,0,0.037626,0.00050765,0.01144,0.32126,0.016525,0.033038,1.1915e-06,0.96,0.58,0
0.047958,-0.0022159,0.037569,0.00039028,0.011388,0.00016486,0,0,0.068071,-0.028594,0,0.00085728,0,0,0,0.03757,0.00038955,0.011388,0.25406,0.016449,0.033082,1.1903e-06,0.97,0.58,0
0.048639,-0.0022211,0.037528,0.0003085,0.011351,0.0001138,0,0,0.068061,-0.028711,0,0.00059176,0,0,0,0.037529,0.00030815,0.011351,0.17518,0.016396,0.03311,1.1893e-06,0.98,0.58,0
0.04932,-0.0022241,0.037504,0.00026056,0.011329,5.8013e-05,0,0,0.068054,-0.028779,0,0.00030167,0,0,0,0.037504,0.00026047,0.011329,0.089248,0.016365,0.033126,1.1885e-06,0.99,0.58,0
0.05,-0.0022251,0.037496,0.00024477,0.011322,-1.8964e-05,0,0,0.068051,-0.028801,0,-9.8612e-05,0,0,0,0.037496,0.00024476,0.011322,-0.029169,0.016354,0.033131,1.1883e-06,1,0.58,0
0,0,0.028964,0.012413,0.012413,-0.0014744,0,0,0.043032,3.2526e-19,0,-0.0076667,0,0,0,0.029094,0.012283,0.012413,-5.0509,0.01793,0.016747,2.4117e-07,0,0.59,0
0.00043032,-7.6667e-05,0.028917,0.011871,0.012237,-0.0014731,0,0,0.04337,-0.0009498,0,-0.0076599,0,0,0,0.029044,0.011745,0.012237,-4.9028,0.017675,0.017058,2.5422e-07,0.01,0.59,0
0.0008674,-0.00015275,0.029099,0.011434,0.01216,-0.0014658,0,0,0.044042,-0.0018868,0,-0.0076219,0,0,0,0.02922,0.011314,0.01216,-4.7112,0.017565,0.017499,2.7302e-07,0.02,0.59,0
0.0013112,-0.00022822,0.02928,0.011004,0.012085,-0.0014577,0,0,0.044706,-0.0028112,0,-0.0075798,0,0,0,0.029395,0.010888,0.012085,-4.5316,0.017456,0.017938,2.9203e-07,0.03,0.59,0
0.0017615,-0.00030305,0.029459,0.01058,0.012011,-0.0014485,0,0,0.045363,-0.0037231,0,-0.0075322,0,0,0,0.029569,0.010469,0.012011,-4.362,0.01735,0.018378,3.1122e-07,0.04,0.59,0
0.0022184,-0.00037719,0.029637,0.010162,0.01194,-0.0014381,0,0,0.046012,-0.0046223,0,-0.0074783,0,0,0,0.029742,0.010056,0.01194,-4.2007,0.017246,0.018815,3.3057e-07,0.05,0.59,0
0.0026818,-0.00045057,0.029813,0.0097503,0.011869,-0.0014264,0,0,0.046655,-0.0055086,0,-0.0074173,0,0,0,0.029914,0.0096494,0.011869,-4.0464,0.017144,0.019251,3.5005e-07,0.06,0.59,0
0.0031515,-0.00052315,0.029988,0.0093457,0.0118,-0.0014132,0,0,0.047289,-0.0063815,0,-0.0073485,0,0,0,0.030084,0.0092494,0.0118,-3.8982,0.017045,0.019684,3.6962e-07,0.07,0.59,0
0.0036275,-0.00059485,0.030162,0.008948,0.011733,-0.0013984,0,0,0.047914,-0.0072407,0,-0.0072716,0,0,0,0.030253,0.0088562,0.011733,-3.7553,0.016947,0.020114,3.8926e-07,0.08,0.59,0
0.0041098,-0.0006656,0.030333,0.0085575,0.011667,-0.001382,0,0,0.048532,-0.0080854,0,-0.0071866,0,0,0,0.030421,0.0084701,0.011667,-3.617,0.016853,0.020539,4.0892e-07,0.09,0.59,0
0.0045982,-0.00073534,0.030504,0.0081746,0.011603,-0.0013641,0,0,0.04914,-0.008915,0,-0.0070934,0,0,0,0.030587,0.0080916,0.011603,-3.483,0.016761,0.020961,4.2858e-07,0.1,0.59,0
0.0050926,-0.00080398,0.030672,0.0077995,0.011541,-0.0013447,0,0,0.049739,-0.009729,0,-0.0069924,0,0,0,0.030751,0.0077208,0.011541,-3.3531,0.016671,0.021377,4.482e-07,0.11,0.59,0
0.005593,-0.00087146,0.030839,0.0074327,0.011481,-0.0013238,0,0,0.050329,-0.010526,0,-0.0068839,0,0,0,0.030913,0.0073581,0.011481,-3.2269,0.016584,0.021788,4.6774e-07,0.12,0.59,0
0.0060992,-0.00093769,0.031003,0.0070744,0.011423,-0.0013017,0,0,0.050908,-0.011307,0,-0.0067688,0,0,0,0.031074,0.0070038,0.011423,-3.1046,0.0165,0.022193,4.8718e-07,0.13,0.59,0
0.0066111,-0.0010026,0.031166,0.0067251,0.011367,-0.0012784,0,0,0.051476,-0.01207,0,-0.0066476,0,0,0,0.031232,0.0066584,0.011367,-2.986,0.016419,0.022591,5.0649e-07,0.14,0.59,0
0.0071287,-0.0010662,0.031326,0.006385,0.011313,-0.0012541,0,0,0.052034,-0.012814,0,-0.0065214,0,0,0,0.031389,0.0063221,0.011313,-2.8713,0.016342,0.022982,5.2564e-07,0.15,0.59,0
0.0076518,-0.0011282,0.031485,0.0060544,0.011262,-0.0012291,0,0,0.05258,-0.013539,0,-0.0063912,0,0,0,0.031544,0.0059952,0.011262,-2.7606,0.016267,0.023365,5.446e-07,0.16,0.59,0
0.0081803,-0.0011888,0.031642,0.0057338,0.011213,-0.0012035,0,0,0.053115,-0.014245,0,-0.0062581,0,0,0,0.031697,0.005678,0.011213,-2.6539,0.016196,0.023741,5.6336e-07,0.17,0.59,0
0.0087141,-0.0012479,0.031796,0.0054234,0.011166,-0.0011776,0,0,0.053639,-0.01493,0,-0.0061234,0,0,0,0.031849,0.0053709,0.011166,-2.5516,0.016129,0.024108,5.8189e-07,0.18,0.59,0
0.0092531,-0.0013053,0.031949,0.0051234,0.011122,-0.0011516,0,0,0.054151,-0.015596,0,-0.0059884,0,0,0,0.031998,0.0050741,0.011122,-2.4537,0.016065,0.024468,6.0019e-07,0.19,0.59,0
0.0097971,-0.001361,0.0321,0.0048343,0.01108,-0.0011259,0,0,0.054652,-0.01624,0,-0.0058545,0,0,0,0.032147,0.0047878,0.01108,-2.3605,0.016005,0.024818,6.1824e-07,0.2,0.59,0
0.010346,-0.0014151,0.03225,0.0045561,0.011042,-0.0011006,0,0,0.055141,-0.016863,0,-0.005723,0,0,0,0.032293,0.0045124,0.011042,-2.2722,0.015949,0.02516,6.3604e-07,0.21,0.59,0
0.0109,-0.0014674,0.032398,0.0042892,0.011006,-0.001076,0,0,0.055619,-0.017464,0,-0.0055954,0,0,0,0.032439,0.004248,0.011006,-2.1891,0.015898,0.025493,6.5358e-07,0.22,0.59,0
0.011458,-0.001518,0.032545,0.0040337,0.010974,-0.0010525,0,0,0.056086,-0.018044,0,-0.0054731,0,0,0,0.032584,0.0039949,0.010974,-2.1113,0.015851,0.025817,6.7087e-07,0.23,0.59,0
0.012022,-0.0015668,0.032691,0.00379,0.010944,-0.0010303,0,0,0.056542,-0.018601,0,-0.0053575,0,0,0,0.032728,0.0037533,0.010944,-2.0391,0.015809,0.026132,6.8791e-07,0.24,0.59,0
0.012589,-0.0016138,0.032837,0.0035582,0.010919,-0.0010096,0,0,0.056988,-0.019137,0,-0.0052501,0,0,0,0.032872,0.0035234,0.010919,-1.9726,0.015771,0.026438,7.0472e-07,0.25,0.59,0
0.013161,-0.0016589,0.032983,0.0033386,0.010896,-0.00099079,0,0,0.057424,-0.01965,0,-0.0051521,0,0,0,0.033016,0.0033055,0.010896,-1.9121,0.015739,0.026735,7.2129e-07,0.26,0.59,0
0.013738,-0.0017023,0.033128,0.0031314,0.010878,-0.000974,0,0,0.057851,-0.020141,0,-0.0050648,0,0,0,0.03316,0.0030998,0.010878,-1.8578,0.015713,0.027024,7.3766e-07,0.27,0.59,0
0.014318,-0.0017438,0.033274,0.0029369,0.010863,-0.00095952,0,0,0.058269,-0.020609,0,-0.0049895,0,0,0,0.033305,0.0029066,0.010863,-1.8097,0.015692,0.027304,7.5384e-07,0.28,0.59,0
0.014903,-0.0017834,0.033421,0.0027555,0.010853,-0.00094754,0,0,0.058678,-0.021054,0,-0.0049272,0,0,0,0.033451,0.0027262,0.010853,-1.7681,0.015677,0.027574,7.6984e-07,0.29,0.59,0
0.015492,-0.0018212,0.03357,0.0025874,0.010847,-0.00093825,0,0,0.059079,-0.021475,0,-0.0048789,0,0,0,0.033598,0.002559,0.010847,-1.733,0.015668,0.027837,7.8569e-07,0.3,0.59,0
0.016085,-0.0018571,0.03372,0.0024332,0.010846,-0.00093179,0,0,0.059473,-0.021873,0,-0.0048453,0,0,0,0.033748,0.0024055,0.010846,-1.7044,0.015666,0.02809,8.0141e-07,0.31,0.59,0
0.016681,-0.001891,0.033873,0.0022935,0.01085,-0.00092826,0,0,0.059859,-0.022247,0,-0.0048269,0,0,0,0.0339,0.0022662,0.01085,-1.6823,0.015672,0.028334,8.1701e-07,0.32,0.59,0
0.017282,-0.0019231,0.034028,0.0021688,0.010859,-0.00092768,0,0,0.060239,-0.022595,0,-0.0048239,0,0,0,0.034055,0.0021418,0.010859,-1.6665,0.015685,0.02857,8.3252e-07,0.33,0.59,0
0.017886,-0.0019531,0.034186,0.0020599,0.010874,-0.00092999,0,0,0.060612,-0.022916,0,-0.004836,0,0,0,0.034213,0.002033,0.010874,-1.6567,0.015707,0.028796,8.4794e-07,0.34,0.59,0
0.018494,-0.0019811,0.034348,0.001968,0.010895,-0.00093502,0,0,0.060978,-0.02321,0,-0.0048621,0,0,0,0.034375,0.001941,0.010895,-1.6527,0.015737,0.029013,8.6328e-07,0.35,0.59,0
0.019106,-0.002007,0.034514,0.0018942,0.010922,-0.00094242,0,0,0.061338,-0.023473,0,-0.0049006,0,0,0,0.034541,0.001867,0.010922,-1.6535,0.015777,0.029218,8.7851e-07,0.36,0.59,0
0.019721,-0.0020306,0.034684,0.00184,0.010957,-0.00095164,0,0,0.061689,-0.023704,0,-0.0049485,0,0,0,0.034711,0.0018125,0.010957,-1.6583,0.015827,0.029413,8.9362e-07,0.37,0.59,0
0.02034,-0.0020517,0.034858,0.0018075,0.011,-0.00096183,0,0,0.062032,-0.0239,0,-0.0050015,0,0,0,0.034886,0.0017795,0.011,-1.6655,0.015888,0.029594,9.0855e-07,0.38,0.59,0
0.020962,-0.0020701,0.035037,0.0017988,0.011051,-0.00097171,0,0,0.062364,-0.024055,0,-0.0050529,0,0,0,0.035065,0.0017704,0.011051,-1.6731,0.015962,0.02976,9.232e-07,0.39,0.59,0
0.021587,-0.0020856,0.035219,0.0018169,0.011111,-0.00097947,0,0,0.062682,-0.024164,0,-0.0050933,0,0,0,0.035248,0.0017882,0.011111,-1.6782,0.016049,0.029909,9.3746e-07,0.4,0.59,0
0.022215,-0.0020976,0.035406,0.0018653,0.011181,-0.00098248,0,0,0.062984,-0.024222,0,-0.0051089,0,0,0,0.035435,0.0018366,0.011181,-1.6764,0.016151,0.030037,9.5112e-07,0.41,0.59,0
0.022846,-0.0021056,0.035595,0.0019486,0.011263,-0.00097696,0,0,0.063264,-0.024218,0,-0.0050802,0,0,0,0.035624,0.0019202,0.011263,-1.6618,0.016269,0.030138,9.6391e-07,0.42,0.59,0
0.023481,-0.0021089,0.035786,0.002072,0.011357,-0.00095747,0,0,0.063515,-0.024142,0,-0.0049788,0,0,0,0.035813,0.0020449,0.011357,-1.6254,0.016405,0.030209,9.7546e-07,0.43,0.59,0
0.024117,-0.0021064,0.035977,0.0022424,0.011466,-0.00091606,0,0,0.063729,-0.023981,0,-0.0047635,0,0,0,0.036002,0.0022176,0.011466,-1.5543,0.016562,0.03024,9.8529e-07,0.44,0.59,0
0.024755,-0.0020968,0.036168,0.002468,0.011591,-0.000841,0,0,0.063901,-0.023719,0,-0.0043732,0,0,0,0.036189,0.002447,0.011591,-1.4286,0.016742,0.030226,9.9297e-07,0.45,0.59,0
0.025395,-0.0020784,0.036364,0.0027582,0.011737,-0.00071522,0,0,0.064032,-0.023344,0,-0.0037192,0,0,0,0.03638,0.002743,0.011737,-1.2187,0.016953,0.030163,9.9843e-07,0.46,0.59,0
0.026036,-0.0020485,0.03659,0.0031233,0.011914,-0.00051914,0,0,0.064158,-0.022856,0,-0.0026995,0,0,0,0.036598,0.0031153,0.011914,-0.88849,0.017209,0.030065,1.0033e-06,0.47,0.59,0
0.026678,-0.0020046,0.036876,0.003552,0.012128,-0.00024027,0,0,0.064343,-0.022299,0,-0.0012494,0,0,0,0.036878,0.0035503,0.012128,-0.41308,0.017519,0.029974,1.0107e-06,0.48,0.59,0
0.027323,-0.0019441,0.037297,0.0041004,0.012419,0.00012061,0,0,0.064681,-0.021628,0,0.00062715,0,0,0,0.037297,0.0041,0.012419,0.20816,0.017939,0.029918,1.0253e-06,0.49,0.59,0
0.027972,-0.0018635,0.037692,0.0048803,0.012772,0.00058154,0,0,0.064794,-0.020518,0,0.003024,0,0,0,0.037703,0.00487,0.012772,1.015,0.018448,0.029682,1.029e-06,0.5,0.59,0
0.028619,-0.0017606,0.037094,0.002353,0.011834,0.00015507,0,0,0.049009,-0.016434,0,0.0016788,0,0,0,0.037115,0.0023317,0.011834,0.39782,0.017094,0.031212,1.0475e-06,0.51,0.59,0
0.028952,-0.0017262,0.037463,-1.118e-05,0.011236,0.00055719,0,0,0.034096,-0.014621,0,0.0014487,0,0,0,0.037472,-1.9462e-05,0.011236,0.85165,0.016229,0.033321,1.1951e-06,0.52,0.59,0
0.0293,-0.0017372,0.03767,-0.00081739,0.011056,-6.106e-06,0,0,0.034598,-0.015435,0,-1.5876e-05,0,0,0,0.03767,-0.00081739,0.011056,-0.00909,0.015969,0.034136,1.2411e-06,0.53,0.59,0
0.029644,-0.0017422,0.037208,-0.00055576,0.010996,0.00012663,0,0,0.034076,-0.015017,0,0.00032924,0,0,0,0.037209,-0.00055618,0.010996,0.19212,0.015883,0.033517,1.1879e-06,0.54,0.59,0
0.029982,-0.0017455,0.036841,-0.00056823,0.010882,9.5148e-05,0,0,0.033747,-0.014885,0,0.00024738,0,0,0,0.036842,-0.00056847,0.010882,0.14572,0.015718,0.0332,1.1537e-06,0.55,0.59,0
0.030319,-0.0017494,0.036746,-0.00062123,0.010837,6.0569e-05,0,0,0.033681,-0.014896,0,0.00015748,0,0,0,0.036746,-0.00062133,0.010837,0.092872,0.015654,0.033158,1.1464e-06,0.56,0.59,0
0.030655,-0.0017537,0.036741,-0.00064705,0.010828,5.2911e-05,0,0,0.033687,-0.014918,0,0.00013757,0,0,0,0.036741,-0.00064713,0.010828,0.081083,0.015641,0.033174,1.1468e-06,0.57,0.59,0
0.030992,-0.001758,0.036744,-0.00065591,0.010826,5.6387e-05,0,0,0.033693,-0.014927,0,0.00014661,0,0,0,0.036744,-0.000656,0.010826,0.086383,0.015638,0.033184,1.1473e-06,0.58,0.59,0
0.031329,-0.0017621,0.036744,-0.00065618,0.010826,5.7801e-05,0,0,0.033693,-0.014927,0,0.00015028,0,0,0,0.036744,-0.00065626,0.010826,0.08855,0.015638,0.033184,1.1473e-06,0.59,0.59,0
0.031666,-0.0017662,0.036741,-0.00065599,0.010826,5.443e-05,0,0,0.03369,-0.014926,0,0.00014152,0,0,0,0.036742,-0.00065607,0.010826,0.083391,0.015637,0.033182,1.1471e-06,0.6,0.59,0
0.032003,-0.0017703,0.036741,-0.0006579,0.010825,4.7266e-05,0,0,0.03369,-0.014927,0,0.00012289,0,0,0,0.036741,-0.00065796,0.010825,0.072414,0.015636,0.033182,1.1471e-06,0.61,0.59,0
0.03234,-0.0017743,0.036742,-0.00066219,0.010824,3.7728e-05,0,0,0.033694,-0.014932,0,9.8093e-05,0,0,0,0.036742,-0.00066222,0.010824,0.057791,0.015635,0.033187,1.1474e-06,0.62,0.59,0
0.032677,-0.0017784,0.036747,-0.00066867,0.010823,2.6638e-05,0,0,0.0337,-0.01494,0,6.9258e-05,0,0,0,0.036747,-0.00066869,0.010823,0.040792,0.015634,0.033196,1.148e-06,0.63,0.59,0
0.033014,-0.0017825,0.036753,-0.00067726,0.010823,1.428e-05,0,0,0.03371,-0.01495,0,3.7128e-05,0,0,0,0.036753,-0.00067726,0.010823,0.021859,0.015633,0.033209,1.1489e-06,0.64,0.59,0
0.033351,-0.0017868,0.036762,-0.00068813,0.010822,6.9212e-07,0,0,0.033722,-0.014963,0,1.7995e-06,0,0,0,0.036762,-0.00068813,0.010822,0.0010589,0.015632,0.033226,1.1501e-06,0.65,0.59,0
0.033689,-0.0017911,0.036774,-0.00070169,0.010822,-1.4112e-05,0,0,0.033738,-0.01498,0,-3.6692e-05,0,0,0,0.036774,-0.0007017,0.010822,-0.021576,0.015631,0.033247,1.1516e-06,0.66,0.59,0
0.034026,-0.0017955,0.036788,-0.00071844,0.010821,-3.0025e-05,0,0,0.033757,-0.015001,0,-7.8064e-05,0,0,0,0.036788,-0.00071846,0.010821,-0.045867,0.01563,0.033273,1.1534e-06,0.67,0.59,0
0.034364,-0.0018001,0.036805,-0.00073879,0.01082,-4.6816e-05,0,0,0.03378,-0.015026,0,-0.00012172,0,0,0,0.036805,-0.00073885,0.01082,-0.071446,0.015629,0.033304,1.1556e-06,0.68,0.59,0
0.034702,-0.0018049,0.036825,-0.00076304,0.010819,-6.4166e-05,0,0,0.033808,-0.015056,0,-0.00016683,0,0,0,0.036825,-0.00076315,0.010819,-0.097809,0.015627,0.033342,1.1583e-06,0.69,0.59,0
0.03504,-0.0018098,0.036848,-0.00079126,0.010817,-8.1718e-05,0,0,0.033841,-0.015091,0,-0.00021247,0,0,0,0.036849,-0.00079144,0.010817,-0.12439,0.015625,0.033385,1.1614e-06,0.7,0.59,0
0.035378,-0.0018148,0.036875,-0.00082339,0.010816,-9.9135e-05,0,0,0.033878,-0.015131,0,-0.00025775,0,0,0,0.036875,-0.00082365,0.010816,-0.15067,0.015622,0.033435,1.165e-06,0.71,0.59,0
0.035717,-0.00182,0.036906,-0.00085919,0.010814,-0.00011616,0,0,0.033919,-0.015175,0,-0.00030201,0,0,0,0.036906,-0.00085955,0.010814,-0.17623,0.01562,0.033491,1.169e-06,0.72,0.59,0
0.036057,-0.0018254,0.03694,-0.00089844,0.010812,-0.00013262,0,0,0.033965,-0.015224,0,-0.00034481,0,0,0,0.03694,-0.00089891,0.010812,-0.20081,0.015618,0.033553,1.1734e-06,0.73,0.59,0
0.036397,-0.0018309,0.036977,-0.00094103,0.010811,-0.00014844,0,0,0.034016,-0.015277,0,-0.00038595,0,0,0,0.036978,-0.00094161,0.010811,-0.22429,0.015616,0.033621,1.1783e-06,0.74,0.59,0
0.036737,-0.0018365,0.03702,-0.00098714,0.01081,-0.0001635,0,0,0.034073,-0.015336,0,-0.0004251,0,0,0,0.03702,-0.00098785,0.01081,-0.24647,0.015614,0.033696,1.1839e-06,0.75,0.59,0
0.037078,-0.0018423,0.037068,-0.0010374,0.010809,-0.00017744,0,0,0.034136,-0.0154,0,-0.00046135,0,0,0,0.037069,-0.0010382,0.010809,-0.2668,0.015613,0.033779,1.19e-06,0.76,0.59,0
0.03742,-0.0018482,0.037123,-0.0010925,0.010809,-0.00018949,0,0,0.034208,-0.015472,0,-0.00049266,0,0,0,0.037124,-0.0010934,0.010809,-0.28408,0.015613,0.033873,1.1971e-06,0.77,0.59,0
0.037762,-0.0018542,0.037186,-0.0011528,0.01081,-0.00019856,0,0,0.034288,-0.015551,0,-0.00051625,0,0,0,0.037187,-0.0011539,0.01081,-0.29673,0.015614,0.033977,1.205e-06,0.78,0.59,0
0.038106,-0.0018603,0.037255,-0.0012168,0.010811,-0.00020478,0,0,0.034377,-0.015637,0,-0.00053243,0,0,0,0.037256,-0.0012179,0.010811,-0.30497,0.015617,0.03409,1.2137e-06,0.79,0.59,0
0.03845,-0.0018667,0.037334,-0.001277,0.010817,-0.00021369,0,0,0.034472,-0.015722,0,-0.00055561,0,0,0,0.037335,-0.0012781,0.010817,-0.31709,0.015625,0.034209,1.2233e-06,0.8,0.59,0
0.038795,-0.0018734,0.037438,-0.0013254,0.010834,-0.00024416,0,0,0.034586,-0.015807,0,-0.00063482,0,0,0,0.03744,-0.001327,0.010834,-0.36087,0.015649,0.034341,1.235e-06,0.81,0.59,0
0.039142,-0.0018813,0.037652,-0.001351,0.01089,-0.00032161,0,0,0.03479,-0.015914,0,-0.00083619,0,0,0,0.037655,-0.0013536,0.01089,-0.47241,0.01573,0.034553,1.257e-06,0.82,0.59,0
0.039491,-0.001891,0.038137,-0.0014149,0.011017,-0.0004198,0,0,0.035257,-0.016161,0,-0.0010915,0,0,0,0.038142,-0.0014193,0.011017,-0.60804,0.015913,0.035039,1.308e-06,0.83,0.59,0
0.039847,-0.0019002,0.038673,-0.0016972,0.011093,-0.00037367,0,0,0.035854,-0.016627,0,-0.00097154,0,0,0,0.038676,-0.0017007,0.011093,-0.53027,0.016023,0.035741,1.3725e-06,0.84,0.59,0
0.040208,-0.0019045,0.038563,-0.00067749,0.011366,-0.0010329,0,0,0.035357,-0.015656,0,-0.0026854,0,0,0,0.03859,-0.00070466,0.011366,-1.5067,0.016417,0.034864,1.3297e-06,0.85,0.59,0
0.040554,-0.0019566,0.038218,0.0018276,0.012014,-0.00061083,0,0,0.050838,-0.017656,0,-0.0034135,0,0,0,0.038249,0.001797,0.012014,-1.101,0.017353,0.032646,1.1664e-06,0.86,0.59,0
0.041225,-0.0020864,0.038926,0.0045125,0.013031,-0.00095977,0,0,0.067325,-0.022149,0,-0.0049908,0,0,0,0.038952,0.0044857,0.013031,-1.5963,0.018823,0.031088,1.1589e-06,0.87,0.59,0
0.0419,-0.0021869,0.038586,0.0035061,0.012628,-0.00044847,0,0,0.067492,-0.023716,0,-0.002332,0,0,0,0.038592,0.0035003,0.012628,-0.73231,0.01824,0.031535,1.1673e-06,0.88,0.59,0
0.042575,-0.0022642,0.038231,0.002755,0.012296,-0.00011246,0,0,0.067431,-0.024806,0,-0.0005848,0,0,0,0.038231,0.0027547,0.012296,-0.18163,0.01776,0.031798,1.1639e-06,0.89,0.59,0
0.043249,-0.0023249,0.038009,0.0022011,0.012063,0.00010221,0,0,0.067459,-0.025641,0,0.00053146,0,0,0,0.038009,0.0022008,0.012063,0.16354,0.017424,0.032037,1.1649e-06,0.9,0.59,0
0.043924,-0.0023724,0.037842,0.0017635,0.011881,0.00023856,0,0,0.067496,-0.026307,0,0.0012405,0,0,0,0.037843,0.0017619,0.011881,0.37883,0.017162,0.032236,1.1661e-06,0.91,0.59,0
0.044599,-0.0024095,0.037704,0.0014095,0.011734,0.00031513,0,0,0.067522,-0.026844,0,0.0016387,0,0,0,0.037707,0.0014067,0.011734,0.49742,0.016949,0.032396,1.1666e-06,0.92,0.59,0
0.045274,-0.0024385,0.037588,0.0011212,0.011613,0.00034635,0,0,0.067535,-0.027278,0,0.001801,0,0,0,0.037591,0.0011179,0.011613,0.54412,0.016774,0.032522,1.1663e-06,0.93,0.59,0
0.04595,-0.0024609,0.037488,0.00088762,0.011513,0.00034363,0,0,0.067537,-0.027626,0,0.0017869,0,0,0,0.037492,0.00088439,0.011513,0.53786,0.01663,0.032619,1.1654e-06,0.94,0.59,0
0.046625,-0.0024781,0.037405,0.00070091,0.011432,0.00031599,0,0,0.06753,-0.0279,0,0.0016431,0,0,0,0.037407,0.00069819,0.011432,0.49322,0.016512,0.032692,1.1641e-06,0.95,0.59,0
0.0473,-0.002491,0.037336,0.00055522,0.011367,0.00027042,0,0,0.067518,-0.028111,0,0.0014062,0,0,0,0.037338,0.00055323,0.011367,0.42122,0.016419,0.032745,1.1626e-06,0.96,0.59,0
0.047975,-0.0025004,0.037282,0.00044615,0.011318,0.0002123,0,0,0.067505,-0.028268,0,0.001104,0,0,0,0.037283,0.00044493,0.011318,0.33021,0.016349,0.032783,1.1612e-06,0.97,0.59,0
0.04865,-0.0025067,0.037243,0.00037046,0.011284,0.00014578,0,0,0.067494,-0.028376,0,0.00075805,0,0,0,0.037244,0.00036989,0.011284,0.22652,0.016299,0.032808,1.1602e-06,0.98,0.59,0
0.049325,-0.0025104,0.03722,0.00032592,0.011264,7.4108e-05,0,0,0.067486,-0.028438,0,0.00038536,0,0,0,0.03722,0.00032577,0.011264,0.11509,0.01627,0.032822,1.1594e-06,0.99,0.59,0
0.05,-0.0025116,0.037212,0.00031121,0.011257,-2.3094e-05,0,0,0.067483,-0.028459,0,-0.00012009,0,0,0,0.037212,0.0003112,0.011257,-0.035858,0.01626,0.032827,1.1592e-06,1,0.59,0
0,0,0.028947,0.012406,0.012406,-0.0016571,0,0,0.043007,-2.7105e-19,0,-0.0086169,0,0,0,0.029112,0.012242,0.012406,-5.6648,0.01792,0.016788,2.4295e-07,0,0.6,0
0.00043007,-8.6169e-05,0.028901,0.011864,0.012229,-0.0016556,0,0,0.043345,-0.00095048,0,-0.0086091,0,0,0,0.02906,0.011704,0.012229,-5.4993,0.017664,0.017099,2.5596e-07,0.01,0.6,0
0.00086691,-0.00017163,0.029083,0.011426,0.012153,-0.0016469,0,0,0.044018,-0.0018888,0,-0.0085641,0,0,0,0.029235,0.011274,0.012153,-5.2837,0.017554,0.017538,2.7471e-07,0.02,0.6,0
0.0013104,-0.00025636,0.029263,0.010995,0.012077,-0.0016375,0,0,0.044683,-0.002815,0,-0.0085151,0,0,0,0.029409,0.010849,0.012077,-5.0818,0.017445,0.017977,2.937e-07,0.03,0.6,0
0.0017606,-0.00034031,0.029442,0.010569,0.012004,-0.0016271,0,0,0.045341,-0.0037292,0,-0.0084607,0,0,0,0.029582,0.01043,0.012004,-4.8914,0.017338,0.018415,3.1287e-07,0.04,0.6,0
0.0022173,-0.00042345,0.02962,0.01015,0.011931,-0.0016153,0,0,0.045992,-0.004631,0,-0.0083998,0,0,0,0.029753,0.010017,0.011931,-4.7106,0.017234,0.018853,3.322e-07,0.05,0.6,0
0.0026804,-0.00050572,0.029797,0.0097371,0.01186,-0.0016022,0,0,0.046635,-0.00552,0,-0.0083313,0,0,0,0.029924,0.00961,0.01186,-4.5379,0.017131,0.019288,3.5167e-07,0.06,0.6,0
0.00315,-0.00058704,0.029972,0.0093309,0.011791,-0.0015874,0,0,0.047271,-0.0063959,0,-0.0082546,0,0,0,0.030093,0.0092095,0.011791,-4.3722,0.017031,0.01972,3.7122e-07,0.07,0.6,0
0.0036258,-0.00066734,0.030145,0.0089315,0.011723,-0.001571,0,0,0.047898,-0.0072579,0,-0.0081694,0,0,0,0.030261,0.0088158,0.011723,-4.2126,0.016933,0.02015,3.9083e-07,0.08,0.6,0
0.0041079,-0.00074656,0.030317,0.0085394,0.011657,-0.0015529,0,0,0.048516,-0.0081054,0,-0.0080753,0,0,0,0.030427,0.0084292,0.011657,-4.0584,0.016838,0.020575,4.1047e-07,0.09,0.6,0
0.0045962,-0.0008246,0.030487,0.0081549,0.011593,-0.0015332,0,0,0.049125,-0.0089377,0,-0.0079726,0,0,0,0.030591,0.0080501,0.011593,-3.9092,0.016745,0.020996,4.3008e-07,0.1,0.6,0
0.0050904,-0.0009014,0.030654,0.0077783,0.01153,-0.0015118,0,0,0.049724,-0.009754,0,-0.0078615,0,0,0,0.030754,0.0076788,0.01153,-3.7647,0.016654,0.021411,4.4964e-07,0.11,0.6,0
0.0055906,-0.00097686,0.03082,0.00741,0.011469,-0.001489,0,0,0.050313,-0.010553,0,-0.0077426,0,0,0,0.030915,0.0073157,0.011469,-3.6247,0.016566,0.021821,4.6911e-07,0.12,0.6,0
0.0060967,-0.0010509,0.030984,0.0070505,0.01141,-0.0014647,0,0,0.050891,-0.011335,0,-0.0076165,0,0,0,0.031073,0.0069612,0.01141,-3.4891,0.016481,0.022224,4.8845e-07,0.13,0.6,0
0.0066084,-0.0011235,0.031145,0.0067,0.011354,-0.0014392,0,0,0.051458,-0.012099,0,-0.0074841,0,0,0,0.031229,0.0066156,0.011354,-3.358,0.0164,0.02262,5.0764e-07,0.14,0.6,0
0.0071258,-0.0011944,0.031304,0.006359,0.011299,-0.0014128,0,0,0.052013,-0.012844,0,-0.0073466,0,0,0,0.031384,0.0062793,0.011299,-3.2313,0.016321,0.023009,5.2665e-07,0.15,0.6,0
0.0076487,-0.0012638,0.031461,0.0060278,0.011246,-0.0013856,0,0,0.052557,-0.013569,0,-0.007205,0,0,0,0.031536,0.0059526,0.011246,-3.1092,0.016245,0.02339,5.4544e-07,0.16,0.6,0
0.008177,-0.0013314,0.031615,0.0057068,0.011196,-0.0013578,0,0,0.053088,-0.014273,0,-0.0070608,0,0,0,0.031686,0.0056358,0.011196,-2.9919,0.016173,0.023763,5.64e-07,0.17,0.6,0
0.0087105,-0.0013973,0.031767,0.0053962,0.011149,-0.0013299,0,0,0.053607,-0.014957,0,-0.0069153,0,0,0,0.031834,0.0053293,0.011149,-2.8796,0.016104,0.024127,5.823e-07,0.18,0.6,0
0.0092491,-0.0014614,0.031917,0.0050964,0.011104,-0.0013019,0,0,0.054114,-0.01562,0,-0.00677,0,0,0,0.03198,0.0050333,0.011104,-2.7725,0.016039,0.024483,6.0034e-07,0.19,0.6,0
0.0097927,-0.0015235,0.032065,0.0048076,0.011062,-0.0012743,0,0,0.054608,-0.016261,0,-0.0066265,0,0,0,0.032124,0.0047482,0.011062,-2.6709,0.015978,0.024829,6.1809e-07,0.2,0.6,0
0.010341,-0.0015838,0.032211,0.0045302,0.011022,-0.0012474,0,0,0.05509,-0.01688,0,-0.0064863,0,0,0,0.032267,0.0044741,0.011022,-2.5749,0.015921,0.025166,6.3555e-07,0.21,0.6,0
0.010895,-0.0016421,0.032355,0.0042642,0.010986,-0.0012214,0,0,0.05556,-0.017476,0,-0.0063511,0,0,0,0.032408,0.0042112,0.010986,-2.4849,0.015868,0.025494,6.5272e-07,0.22,0.6,0
0.011452,-0.0016985,0.032498,0.0040101,0.010952,-0.0011966,0,0,0.056018,-0.01805,0,-0.0062224,0,0,0,0.032548,0.0039599,0.010952,-2.4011,0.01582,0.025812,6.6959e-07,0.23,0.6,0
0.012015,-0.0017528,0.032639,0.0037679,0.010922,-0.0011734,0,0,0.056464,-0.018601,0,-0.0061018,0,0,0,0.032687,0.0037203,0.010922,-2.3236,0.015776,0.026121,6.8618e-07,0.24,0.6,0
0.012582,-0.0018051,0.032779,0.0035379,0.010895,-0.0011521,0,0,0.056899,-0.019129,0,-0.005991,0,0,0,0.032824,0.0034926,0.010895,-2.2528,0.015737,0.02642,7.0247e-07,0.25,0.6,0
0.013153,-0.0018554,0.032919,0.0033204,0.010872,-0.0011329,0,0,0.057322,-0.019633,0,-0.0058913,0,0,0,0.032962,0.0032771,0.010872,-2.1888,0.015704,0.02671,7.185e-07,0.26,0.6,0
0.013728,-0.0019036,0.033058,0.0031156,0.010852,-0.0011162,0,0,0.057735,-0.020115,0,-0.0058042,0,0,0,0.033099,0.0030741,0.010852,-2.1319,0.015675,0.026991,7.3427e-07,0.27,0.6,0
0.014308,-0.0019497,0.033197,0.0029237,0.010836,-0.0011021,0,0,0.058138,-0.020573,0,-0.005731,0,0,0,0.033237,0.0028837,0.010836,-2.0822,0.015652,0.027262,7.4979e-07,0.28,0.6,0
0.014891,-0.0019937,0.033336,0.0027451,0.010824,-0.001091,0,0,0.058531,-0.021006,0,-0.0056729,0,0,0,0.033375,0.0027062,0.010824,-2.0398,0.015635,0.027523,7.6508e-07,0.29,0.6,0
0.015478,-0.0020357,0.033476,0.00258,0.010817,-0.0010829,0,0,0.058915,-0.021416,0,-0.005631,0,0,0,0.033514,0.0025421,0.010817,-2.0048,0.015624,0.027775,7.8015e-07,0.3,0.6,0
0.016069,-0.0020755,0.033618,0.0024289,0.010814,-0.0010781,0,0,0.05929,-0.021801,0,-0.005606,0,0,0,0.033655,0.0023917,0.010814,-1.9773,0.01562,0.028018,7.9503e-07,0.31,0.6,0
0.016664,-0.0021131,0.03376,0.0022923,0.010816,-0.0010766,0,0,0.059656,-0.022161,0,-0.0055984,0,0,0,0.033797,0.0022555,0.010816,-1.9572,0.015623,0.028252,8.0973e-07,0.32,0.6,0
0.017262,-0.0021486,0.033905,0.0021707,0.010823,-0.0010785,0,0,0.060014,-0.022495,0,-0.0056083,0,0,0,0.033942,0.0021341,0.010823,-1.9443,0.015633,0.028475,8.2426e-07,0.33,0.6,0
0.017864,-0.0021818,0.034052,0.0020649,0.010835,-0.0010837,0,0,0.060364,-0.022802,0,-0.0056354,0,0,0,0.034089,0.0020282,0.010835,-1.9382,0.015651,0.028689,8.3863e-07,0.34,0.6,0
0.01847,-0.0022127,0.034201,0.0019757,0.010853,-0.001092,0,0,0.060705,-0.023081,0,-0.0056785,0,0,0,0.034238,0.0019388,0.010853,-1.9386,0.015677,0.028893,8.5284e-07,0.35,0.6,0
0.019078,-0.0022411,0.034354,0.0019043,0.010877,-0.001103,0,0,0.061038,-0.02333,0,-0.0057356,0,0,0,0.034391,0.0018668,0.010877,-1.9446,0.015712,0.029085,8.6687e-07,0.36,0.6,0
0.01969,-0.0022669,0.034509,0.0018518,0.010908,-0.0011161,0,0,0.061363,-0.023547,0,-0.0058035,0,0,0,0.034547,0.0018137,0.010908,-1.955,0.015756,0.029266,8.8071e-07,0.37,0.6,0
0.020306,-0.0022899,0.034668,0.0018198,0.010946,-0.0011302,0,0,0.061677,-0.023729,0,-0.0058773,0,0,0,0.034707,0.0017809,0.010946,-1.9683,0.015811,0.029434,8.9432e-07,0.38,0.6,0
0.020924,-0.0023099,0.034831,0.0018101,0.010992,-0.0011442,0,0,0.061981,-0.023874,0,-0.0059496,0,0,0,0.034871,0.0017705,0.010992,-1.9821,0.015878,0.029587,9.0761e-07,0.39,0.6,0
0.021545,-0.0023264,0.034997,0.0018251,0.011047,-0.0011558,0,0,0.062272,-0.023976,0,-0.0060102,0,0,0,0.035038,0.0017849,0.011047,-1.9931,0.015956,0.029724,9.2052e-07,0.4,0.6,0
0.022169,-0.0023389,0.035167,0.0018674,0.01111,-0.0011624,0,0,0.062548,-0.024032,0,-0.0060443,0,0,0,0.035208,0.0018269,0.01111,-1.9967,0.016048,0.029843,9.3291e-07,0.41,0.6,0
0.022796,-0.002347,0.035341,0.0019402,0.011184,-0.0011599,0,0,0.062807,-0.024035,0,-0.0060312,0,0,0,0.035381,0.0019,0.011184,-1.9864,0.016155,0.029939,9.446e-07,0.42,0.6,0
0.023425,-0.0023496,0.035518,0.002047,0.01127,-0.0011427,0,0,0.063047,-0.023979,0,-0.0059418,0,0,0,0.035557,0.0020081,0.01127,-1.953,0.016278,0.03001,9.5543e-07,0.43,0.6,0
0.024057,-0.0023457,0.0357,0.0021922,0.011368,-0.0011031,0,0,0.063265,-0.023856,0,-0.005736,0,0,0,0.035736,0.0021559,0.011368,-1.8835,0.01642,0.030053,9.6522e-07,0.44,0.6,0
0.024691,-0.0023339,0.035889,0.0023798,0.011481,-0.0010308,0,0,0.063463,-0.023662,0,-0.0053602,0,0,0,0.035921,0.0023482,0.011481,-1.7603,0.016583,0.030066,9.7391e-07,0.45,0.6,0
0.025326,-0.0023123,0.036092,0.0026141,0.011612,-0.00091374,0,0,0.063648,-0.023394,0,-0.0047515,0,0,0,0.036117,0.0025891,0.011612,-1.5623,0.016773,0.03005,9.8177e-07,0.46,0.6,0
0.025964,-0.0022785,0.036313,0.0028956,0.011763,-0.00074129,0,0,0.063832,-0.023055,0,-0.0038547,0,0,0,0.03633,0.0028791,0.011763,-1.2701,0.016991,0.030012,9.8923e-07,0.47,0.6,0
0.026603,-0.00223,0.036554,0.0032343,0.011937,-0.00051032,0,0,0.064006,-0.022626,0,-0.0026536,0,0,0,0.036562,0.0032265,0.011937,-0.87724,0.017242,0.029946,9.9605e-07,0.48,0.6,0
0.027244,-0.0021634,0.036812,0.0036824,0.012148,-0.00022534,0,0,0.064126,-0.022012,0,-0.0011718,0,0,0,0.036814,0.0036808,0.012148,-0.38968,0.017548,0.029815,1.0002e-06,0.49,0.6,0
0.027886,-0.0020744,0.037115,0.0043875,0.012451,0.00030636,0,0,0.064128,-0.020965,0,0.0015931,0,0,0,0.037118,0.0043846,0.012451,0.53627,0.017985,0.029538,9.9841e-07,0.5,0.6,0
0.028526,-0.001932,0.041775,0.0031907,0.01349,-0.00079977,0,0,0.05118,-0.018209,0,-0.0023371,0,0,0,0.041796,0.0031694,0.01349,-1.0346,0.019485,0.034643,1.7251e-06,0.51,0.6,0
0.028974,-0.0018764,0.033523,0.0010838,0.010382,0.0015738,0,0,0.041265,-0.016336,0,0.0064455,0,0,0,0.033614,0.00099345,0.010382,3.0981,0.014996,0.029087,9.9377e-07,0.52,0.6,0
0.029317,-0.0018932,0.03705,-0.00069744,0.010906,0.00037972,0,0,0.033988,-0.015084,0,0.00098728,0,0,0,0.037054,-0.00070126,0.010906,0.57628,0.015753,0.033496,1.1779e-06,0.53,0.6,0
0.029653,-0.0018917,0.036685,-0.00042989,0.010877,0.00028371,0,0,0.033551,-0.014698,0,0.00073764,0,0,0,0.036687,-0.00043205,0.010877,0.43794,0.015711,0.032954,1.135e-06,0.54,0.6,0
0.029988,-0.0018939,0.036614,-0.00058135,0.01081,8.7505e-05,0,0,0.033545,-0.014808,0,0.00022751,0,0,0,0.036614,-0.00058155,0.01081,0.13479,0.015614,0.033009,1.133e-06,0.55,0.6,0
0.030324,-0.0018983,0.036703,-0.00064366,0.010818,3.8013e-05,0,0,0.03365,-0.0149,0,9.8835e-05,0,0,0,0.036703,-0.0006437,0.010818,0.058319,0.015626,0.033137,1.1431e-06,0.56,0.6,0
0.030661,-0.0019029,0.036737,-0.00066763,0.010821,5.1289e-05,0,0,0.033691,-0.014935,0,0.00013335,0,0,0,0.036737,-0.0006677,0.010821,0.078563,0.01563,0.033187,1.1471e-06,0.57,0.6,0
0.030998,-0.0019073,0.036742,-0.00066017,0.010825,6.4132e-05,0,0,0.033693,-0.01493,0,0.00016674,0,0,0,0.036742,-0.00066028,0.010825,0.098242,0.015636,0.033186,1.1473e-06,0.58,0.6,0
0.031335,-0.0019114,0.036732,-0.00065112,0.010824,6.5408e-05,0,0,0.03368,-0.014918,0,0.00017006,0,0,0,0.036732,-0.00065123,0.010824,0.10025,0.015635,0.03317,1.1461e-06,0.59,0.6,0
0.031672,-0.0019154,0.036723,-0.00064691,0.010823,5.8297e-05,0,0,0.03367,-0.014911,0,0.00015157,0,0,0,0.036723,-0.000647,0.010823,0.08938,0.015633,0.033158,1.1451e-06,0.6,0.6,0
0.032009,-0.0019195,0.036719,-0.00064699,0.010822,4.7287e-05,0,0,0.033667,-0.014909,0,0.00012295,0,0,0,0.03672,-0.00064705,0.010822,0.072507,0.015631,0.033155,1.1448e-06,0.61,0.6,0
0.032345,-0.0019235,0.03672,-0.00065037,0.010821,3.4737e-05,0,0,0.033669,-0.014913,0,9.0316e-05,0,0,0,0.03672,-0.0006504,0.010821,0.053259,0.01563,0.033158,1.1449e-06,0.62,0.6,0
0.032682,-0.0019277,0.036723,-0.00065594,0.01082,2.1303e-05,0,0,0.033674,-0.014919,0,5.5389e-05,0,0,0,0.036723,-0.00065595,0.01082,0.032654,0.015629,0.033166,1.1454e-06,0.63,0.6,0
0.033019,-0.0019319,0.036729,-0.00066333,0.01082,6.8543e-06,0,0,0.033682,-0.014928,0,1.7821e-05,0,0,0,0.036729,-0.00066333,0.01082,0.010503,0.015629,0.033177,1.1462e-06,0.64,0.6,0
0.033356,-0.0019363,0.036738,-0.00067277,0.010819,-8.9451e-06,0,0,0.033694,-0.01494,0,-2.3257e-05,0,0,0,0.036738,-0.00067277,0.010819,-0.0137,0.015628,0.033192,1.1473e-06,0.65,0.6,0
0.033693,-0.0019408,0.036749,-0.00068488,0.010819,-2.6284e-05,0,0,0.033708,-0.014955,0,-6.8339e-05,0,0,0,0.036749,-0.0006849,0.010819,-0.040231,0.015627,0.033211,1.1487e-06,0.66,0.6,0
0.03403,-0.0019454,0.036762,-0.00070038,0.010818,-4.51e-05,0,0,0.033726,-0.014974,0,-0.00011726,0,0,0,0.036762,-0.00070043,0.010818,-0.068977,0.015627,0.033235,1.1504e-06,0.67,0.6,0
0.034367,-0.0019503,0.036778,-0.00071983,0.010818,-6.5107e-05,0,0,0.033749,-0.014999,0,-0.00016928,0,0,0,0.036779,-0.00071995,0.010818,-0.09948,0.015625,0.033266,1.1526e-06,0.68,0.6,0
0.034705,-0.0019553,0.036798,-0.00074361,0.010816,-8.5878e-05,0,0,0.033777,-0.015028,0,-0.00022328,0,0,0,0.036799,-0.00074381,0.010816,-0.13106,0.015624,0.033303,1.1552e-06,0.69,0.6,0
0.035043,-0.0019605,0.036822,-0.00077182,0.010815,-0.00010694,0,0,0.033809,-0.015063,0,-0.00027805,0,0,0,0.036822,-0.00077212,0.010815,-0.16298,0.015622,0.033346,1.1583e-06,0.7,0.6,0
0.035381,-0.001966,0.036849,-0.00080428,0.010813,-0.00012787,0,0,0.033846,-0.015103,0,-0.00033247,0,0,0,0.036849,-0.00080471,0.010813,-0.19458,0.015619,0.033397,1.1619e-06,0.71,0.6,0
0.03572,-0.0019716,0.03688,-0.00084063,0.010812,-0.0001484,0,0,0.033888,-0.015148,0,-0.00038584,0,0,0,0.03688,-0.00084121,0.010812,-0.22541,0.015617,0.033453,1.166e-06,0.72,0.6,0
0.036059,-0.0019775,0.036914,-0.00088042,0.01081,-0.00016848,0,0,0.033935,-0.015198,0,-0.00043805,0,0,0,0.036915,-0.00088117,0.01081,-0.2554,0.015615,0.033516,1.1705e-06,0.73,0.6,0
0.036398,-0.0019835,0.036953,-0.00092332,0.010809,-0.00018834,0,0,0.033987,-0.015252,0,-0.00048969,0,0,0,0.036954,-0.00092425,0.010809,-0.2849,0.015613,0.033585,1.1755e-06,0.74,0.6,0
0.036738,-0.0019898,0.036996,-0.00096946,0.010808,-0.00020842,0,0,0.034045,-0.015311,0,-0.00054188,0,0,0,0.036997,-0.0009706,0.010808,-0.31452,0.015612,0.033661,1.1811e-06,0.75,0.6,0
0.037079,-0.0019962,0.037047,-0.0010196,0.010808,-0.000229,0,0,0.03411,-0.015376,0,-0.00059541,0,0,0,0.037048,-0.001021,0.010808,-0.34467,0.015612,0.033747,1.1875e-06,0.76,0.6,0
0.037421,-0.0020028,0.037106,-0.0010754,0.010809,-0.00024982,0,0,0.034186,-0.01545,0,-0.00064952,0,0,0,0.037107,-0.001077,0.010809,-0.37486,0.015613,0.033845,1.195e-06,0.77,0.6,0
0.037763,-0.0020097,0.037176,-0.0011382,0.010811,-0.00026925,0,0,0.034274,-0.015534,0,-0.00070006,0,0,0,0.037178,-0.00114,0.010811,-0.40263,0.015616,0.033958,1.2037e-06,0.78,0.6,0
0.038106,-0.0020167,0.037254,-0.0012085,0.010814,-0.00028439,0,0,0.034372,-0.015629,0,-0.00073941,0,0,0,0.037256,-0.0012106,0.010814,-0.42361,0.01562,0.034084,1.2134e-06,0.79,0.6,0
0.03845,-0.0020239,0.037325,-0.0012791,0.010814,-0.00029507,0,0,0.034465,-0.015721,0,-0.00076718,0,0,0,0.037327,-0.0012813,0.010814,-0.4379,0.01562,0.034204,1.2226e-06,0.8,0.6,0
0.038795,-0.0020313,0.037373,-0.0013175,0.010817,-0.000318,0,0,0.034524,-0.015775,0,-0.00082679,0,0,0,0.037376,-0.0013201,0.010817,-0.47087,0.015624,0.034279,1.2286e-06,0.81,0.6,0
0.039141,-0.0020397,0.037372,-0.0013104,0.010818,-0.00042279,0,0,0.03452,-0.015768,0,-0.0010993,0,0,0,0.037377,-0.0013151,0.010818,-0.62613,0.015627,0.034275,1.2285e-06,0.82,0.6,0
0.039486,-0.0020515,0.037544,-0.0011929,0.010905,-0.00069448,0,0,0.03463,-0.015728,0,-0.0018057,0,0,0,0.037556,-0.0012054,0.010905,-1.0268,0.015752,0.034347,1.2426e-06,0.83,0.6,0
0.039833,-0.0020677,0.03802,-0.0014766,0.010963,-0.00084096,0,0,0.035174,-0.016172,0,-0.0021865,0,0,0,0.038038,-0.0014945,0.010963,-1.2192,0.015836,0.035008,1.2999e-06,0.84,0.6,0
0.040189,-0.0020644,0.034503,0.00063155,0.01054,-0.0020677,0,0,0.042725,-0.017413,0,-0.0082922,0,0,0,0.034645,0.00048924,0.01054,-3.8243,0.015225,0.030404,1.1062e-06,0.85,0.6,0
0.040652,-0.002141,0.04288,0.0024942,0.013612,0.00028673,0,0,0.052949,-0.019683,0,0.00041005,0,0,0,0.042888,0.0024862,0.013612,0.23947,0.019662,0.03615,1.9068e-06,0.86,0.6,0
0.041315,-0.0023141,0.03817,0.0039201,0.012627,-0.00076997,0,0,0.066412,-0.022638,0,-0.0040038,0,0,0,0.038188,0.0039028,0.012627,-1.2872,0.018239,0.030862,1.1128e-06,0.87,0.6,0
0.04198,-0.0024265,0.03795,0.0030839,0.01231,-0.00018479,0,0,0.066664,-0.023988,0,-0.00096092,0,0,0,0.037951,0.003083,0.01231,-0.30366,0.017781,0.031292,1.1246e-06,0.88,0.6,0
0.042648,-0.0025135,0.037774,0.0024937,0.01208,8.4428e-05,0,0,0.066804,-0.024925,0,0.00043903,0,0,0,0.037775,0.0024935,0.01208,0.13711,0.017449,0.031598,1.1316e-06,0.89,0.6,0
0.043317,-0.0025816,0.03761,0.0020395,0.011895,0.00026765,0,0,0.06686,-0.025624,0,0.0013918,0,0,0,0.037613,0.0020375,0.011895,0.43108,0.017182,0.031813,1.1342e-06,0.9,0.6,0
0.043985,-0.0026351,0.03746,0.0016719,0.01174,0.00037963,0,0,0.066874,-0.026176,0,0.0019741,0,0,0,0.037464,0.0016679,0.01174,0.60768,0.016957,0.031973,1.1343e-06,0.91,0.6,0
0.044654,-0.0026772,0.037329,0.0013692,0.01161,0.0004363,0,0,0.066871,-0.026625,0,0.0022687,0,0,0,0.037334,0.0013639,0.01161,0.69502,0.016769,0.032098,1.1334e-06,0.92,0.6,0
0.045323,-0.0027101,0.037217,0.001119,0.011501,0.00045017,0,0,0.066862,-0.026992,0,0.0023409,0,0,0,0.037222,0.0011134,0.011501,0.71438,0.016612,0.032197,1.1321e-06,0.93,0.6,0
0.045991,-0.0027357,0.037122,0.00091339,0.011411,0.00043165,0,0,0.066849,-0.027293,0,0.0022446,0,0,0,0.037127,0.00090824,0.011411,0.68291,0.016482,0.032276,1.1305e-06,0.94,0.6,0
0.04666,-0.0027555,0.037043,0.00074697,0.011337,0.00038904,0,0,0.066836,-0.027534,0,0.002023,0,0,0,0.037047,0.0007428,0.011337,0.61403,0.016376,0.032336,1.129e-06,0.95,0.6,0
0.047328,-0.0027704,0.03698,0.00061571,0.011279,0.00032885,0,0,0.066823,-0.027724,0,0.00171,0,0,0,0.036983,0.00061274,0.011279,0.51809,0.016291,0.032382,1.1275e-06,0.96,0.6,0
0.047996,-0.0027812,0.036931,0.00051659,0.011234,0.0002562,0,0,0.066811,-0.027866,0,0.0013323,0,0,0,0.036932,0.00051479,0.011234,0.40309,0.016227,0.032416,1.1263e-06,0.97,0.6,0
0.048664,-0.0027886,0.036896,0.00044735,0.011203,0.0001751,0,0,0.066801,-0.027964,0,0.00091055,0,0,0,0.036897,0.00044651,0.011203,0.27525,0.016182,0.032438,1.1253e-06,0.98,0.6,0
0.049332,-0.0027929,0.036875,0.00040642,0.011184,8.8795e-05,0,0,0.066795,-0.028023,0,0.00046173,0,0,0,0.036875,0.00040621,0.011184,0.1395,0.016155,0.032451,1.1247e-06,0.99,0.6,0
0.05,-0.0027943,0.036868,0.00039288,0.011178,-2.6923e-05,0,0,0.066793,-0.028042,0,-0.00014,0,0,0,0.036868,0.00039286,0.011178,-0.042291,0.016146,0.032455,1.1245e-06,1,0.6,0
0,0,0.028927,0.012397,0.012397,-0.0018399,0,0,0.042977,0,0,-0.0095676,0,0,0,0.029129,0.012195,0.012397,-6.2753,0.017907,0.016834,2.449e-07,0,0.61,0
0.00042977,-9.5676e-05,0.02888,0.011855,0.012221,-0.0018382,0,0,0.043315,-0.00095095,0,-0.0095588,0,0,0,0.029077,0.011659,0.012221,-6.0926,0.017652,0.017144,2.5785e-07,0.01,0.61,0
0.00086631,-0.00019053,0.029062,0.011417,0.012144,-0.0018283,0,0,0.043988,-0.0018904,0,-0.0095071,0,0,0,0.02925,0.011229,0.012144,-5.8536,0.017541,0.017581,2.7656e-07,0.02,0.61,0
0.0013095,-0.00028452,0.029243,0.010984,0.012068,-0.0018176,0,0,0.044655,-0.0028185,0,-0.0094514,0,0,0,0.029422,0.010805,0.012068,-5.6298,0.017432,0.018019,2.955e-07,0.03,0.61,0
0.0017594,-0.00037764,0.029423,0.010557,0.011994,-0.0018058,0,0,0.045314,-0.0037349,0,-0.0093901,0,0,0,0.029594,0.010386,0.011994,-5.4188,0.017325,0.018456,3.1464e-07,0.04,0.61,0
0.0022158,-0.00046981,0.029601,0.010137,0.011921,-0.0017927,0,0,0.045966,-0.0046394,0,-0.0093218,0,0,0,0.029764,0.0099731,0.011921,-5.2186,0.017219,0.018893,3.3395e-07,0.05,0.61,0
0.0026787,-0.00056097,0.029777,0.0097224,0.01185,-0.001778,0,0,0.046611,-0.0055314,0,-0.0092455,0,0,0,0.029933,0.009566,0.01185,-5.0274,0.017116,0.019327,3.5339e-07,0.06,0.61,0
0.003148,-0.00065107,0.029952,0.0093144,0.01178,-0.0017616,0,0,0.047247,-0.0064104,0,-0.0091604,0,0,0,0.030101,0.0091651,0.01178,-4.8441,0.017015,0.019759,3.7292e-07,0.07,0.61,0
0.0036237,-0.00074001,0.030125,0.0089133,0.011712,-0.0017435,0,0,0.047876,-0.0072754,0,-0.0090661,0,0,0,0.030268,0.008771,0.011712,-4.6676,0.016917,0.020188,3.9249e-07,0.08,0.61,0
0.0041056,-0.00082771,0.030297,0.0085194,0.011645,-0.0017235,0,0,0.048495,-0.0081259,0,-0.0089622,0,0,0,0.030432,0.0083839,0.011645,-4.4972,0.01682,0.020612,4.1208e-07,0.09,0.61,0
0.0045936,-0.00091409,0.030466,0.0081332,0.01158,-0.0017017,0,0,0.049104,-0.0089609,0,-0.0088489,0,0,0,0.030595,0.0080042,0.01158,-4.3325,0.016726,0.021032,4.3163e-07,0.1,0.61,0
0.0050876,-0.00099906,0.030633,0.0077549,0.011516,-0.0016782,0,0,0.049703,-0.0097796,0,-0.0087266,0,0,0,0.030755,0.0076325,0.011516,-4.1731,0.016635,0.021446,4.5112e-07,0.11,0.61,0
0.0055876,-0.0010825,0.030797,0.0073852,0.011455,-0.001653,0,0,0.050291,-0.010581,0,-0.0085958,0,0,0,0.030914,0.007269,0.011455,-4.0188,0.016546,0.021854,4.7049e-07,0.12,0.61,0
0.0060935,-0.0011644,0.03096,0.0070243,0.011395,-0.0016264,0,0,0.050868,-0.011364,0,-0.0084574,0,0,0,0.03107,0.0069143,0.011395,-3.8695,0.01646,0.022256,4.8972e-07,0.13,0.61,0
0.006605,-0.0012446,0.031119,0.0066726,0.011338,-0.0015985,0,0,0.051433,-0.012129,0,-0.0083123,0,0,0,0.031224,0.0065686,0.011338,-3.7253,0.016376,0.02265,5.0876e-07,0.14,0.61,0
0.0071221,-0.001323,0.031276,0.0063307,0.011282,-0.0015696,0,0,0.051985,-0.012874,0,-0.0081618,0,0,0,0.031375,0.0062324,0.011282,-3.5862,0.016296,0.023037,5.2759e-07,0.15,0.61,0
0.0076447,-0.0013996,0.031431,0.0059989,0.011229,-0.0015398,0,0,0.052525,-0.013598,0,-0.0080072,0,0,0,0.031524,0.005906,0.011229,-3.4523,0.01622,0.023415,5.4618e-07,0.16,0.61,0
0.0081726,-0.0014743,0.031583,0.0056775,0.011178,-0.0015096,0,0,0.053052,-0.014301,0,-0.00785,0,0,0,0.03167,0.0055898,0.011178,-3.3239,0.016146,0.023784,5.645e-07,0.17,0.61,0
0.0087057,-0.001547,0.031732,0.0053668,0.01113,-0.0014792,0,0,0.053566,-0.014983,0,-0.0076918,0,0,0,0.031815,0.0052841,0.01113,-3.2012,0.016076,0.024144,5.8253e-07,0.18,0.61,0
0.0092439,-0.0016177,0.031878,0.0050672,0.011084,-0.0014489,0,0,0.054066,-0.015643,0,-0.0075342,0,0,0,0.031956,0.0049892,0.011084,-3.0843,0.01601,0.024495,6.0025e-07,0.19,0.61,0
0.009787,-0.0016863,0.032022,0.004779,0.01104,-0.001419,0,0,0.054553,-0.01628,0,-0.007379,0,0,0,0.032096,0.0047053,0.01104,-2.9737,0.015947,0.024837,6.1765e-07,0.2,0.61,0
0.010335,-0.0017527,0.032164,0.0045024,0.011,-0.00139,0,0,0.055026,-0.016893,0,-0.007228,0,0,0,0.032234,0.0044327,0.011,-2.8695,0.015889,0.025168,6.3472e-07,0.21,0.61,0
0.010888,-0.0018169,0.032303,0.0042377,0.010962,-0.0013621,0,0,0.055487,-0.017484,0,-0.0070828,0,0,0,0.032369,0.0041717,0.010962,-2.772,0.015834,0.02549,6.5145e-07,0.22,0.61,0
0.011445,-0.001879,0.032441,0.003985,0.010928,-0.0013356,0,0,0.055934,-0.018051,0,-0.0069453,0,0,0,0.032503,0.0039225,0.010928,-2.6814,0.015784,0.025802,6.6784e-07,0.23,0.61,0
0.012006,-0.0019388,0.032576,0.0037447,0.010896,-0.001311,0,0,0.056368,-0.018594,0,-0.0068172,0,0,0,0.032636,0.0036852,0.010896,-2.5981,0.015739,0.026103,6.8389e-07,0.24,0.61,0
0.012572,-0.0019963,0.03271,0.0035169,0.010868,-0.0012885,0,0,0.05679,-0.019113,0,-0.0067002,0,0,0,0.032767,0.0034601,0.010868,-2.5223,0.015699,0.026395,6.9961e-07,0.25,0.61,0
0.013142,-0.0020516,0.032843,0.0033018,0.010844,-0.0012684,0,0,0.057199,-0.019608,0,-0.0065959,0,0,0,0.032898,0.0032474,0.010844,-2.4541,0.015663,0.026676,7.15e-07,0.26,0.61,0
0.013716,-0.0021046,0.032975,0.0030997,0.010822,-0.0012511,0,0,0.057596,-0.020079,0,-0.0065059,0,0,0,0.033027,0.0030474,0.010822,-2.3939,0.015632,0.026947,7.3008e-07,0.27,0.61,0
0.014294,-0.0021552,0.033106,0.0029108,0.010805,-0.0012368,0,0,0.057982,-0.020525,0,-0.0064316,0,0,0,0.033156,0.0028602,0.010805,-2.3417,0.015607,0.027208,7.4485e-07,0.28,0.61,0
0.014876,-0.0022035,0.033236,0.0027353,0.010792,-0.0012258,0,0,0.058357,-0.020946,0,-0.0063742,0,0,0,0.033286,0.0026861,0.010792,-2.2977,0.015588,0.027459,7.5932e-07,0.29,0.61,0
0.015461,-0.0022495,0.033367,0.0025736,0.010782,-0.0012182,0,0,0.058721,-0.021342,0,-0.0063348,0,0,0,0.033415,0.0025254,0.010782,-2.262,0.015574,0.0277,7.7352e-07,0.3,0.61,0
0.01605,-0.0022931,0.033498,0.002426,0.010777,-0.0012143,0,0,0.059074,-0.021713,0,-0.0063143,0,0,0,0.033545,0.0023786,0.010777,-2.2346,0.015567,0.027931,7.8745e-07,0.31,0.61,0
0.016643,-0.0023343,0.033629,0.0022929,0.010777,-0.0012141,0,0,0.059417,-0.022058,0,-0.0063131,0,0,0,0.033676,0.0022459,0.010777,-2.2154,0.015566,0.028152,8.0112e-07,0.32,0.61,0
0.017238,-0.002373,0.033762,0.0021748,0.010781,-0.0012176,0,0,0.05975,-0.022376,0,-0.0063314,0,0,0,0.033809,0.002128,0.010781,-2.2042,0.015573,0.028362,8.1454e-07,0.33,0.61,0
0.017838,-0.0024092,0.033896,0.0020724,0.01079,-0.0012247,0,0,0.060073,-0.022667,0,-0.0063685,0,0,0,0.033943,0.0020254,0.01079,-2.2007,0.015586,0.028562,8.2773e-07,0.34,0.61,0
0.01844,-0.0024428,0.034031,0.0019864,0.010805,-0.0012353,0,0,0.060387,-0.022929,0,-0.0064234,0,0,0,0.034078,0.0019388,0.010805,-2.2043,0.015607,0.028751,8.4066e-07,0.35,0.61,0
0.019045,-0.0024736,0.034168,0.0019175,0.010826,-0.0012488,0,0,0.06069,-0.023161,0,-0.0064939,0,0,0,0.034216,0.0018692,0.010826,-2.2142,0.015637,0.028928,8.5335e-07,0.36,0.61,0
0.019654,-0.0025015,0.034307,0.0018669,0.010852,-0.0012647,0,0,0.060983,-0.023362,0,-0.0065764,0,0,0,0.034357,0.0018176,0.010852,-2.2292,0.015675,0.029094,8.6576e-07,0.37,0.61,0
0.020265,-0.0025263,0.034449,0.0018356,0.010885,-0.0012819,0,0,0.061266,-0.023529,0,-0.0066659,0,0,0,0.034499,0.0017853,0.010885,-2.2475,0.015723,0.029246,8.7786e-07,0.38,0.61,0
0.020879,-0.0025476,0.034593,0.0018251,0.010925,-0.001299,0,0,0.061537,-0.023661,0,-0.0067549,0,0,0,0.034645,0.0017737,0.010925,-2.2666,0.015781,0.029384,8.8963e-07,0.39,0.61,0
0.021496,-0.0025651,0.034741,0.0018369,0.010973,-0.001314,0,0,0.061795,-0.023755,0,-0.0068327,0,0,0,0.034793,0.0017845,0.010973,-2.2832,0.01585,0.029507,9.0099e-07,0.4,0.61,0
0.022115,-0.0025782,0.034891,0.0018728,0.011029,-0.001324,0,0,0.062041,-0.023807,0,-0.0068848,0,0,0,0.034944,0.0018198,0.011029,-2.2926,0.015931,0.029614,9.1188e-07,0.41,0.61,0
0.022736,-0.0025863,0.035045,0.0019348,0.011094,-0.0013252,0,0,0.062274,-0.023814,0,-0.006891,0,0,0,0.035098,0.0018818,0.011094,-2.2883,0.016025,0.029702,9.2223e-07,0.42,0.61,0
0.02336,-0.0025885,0.035204,0.0020247,0.011169,-0.0013123,0,0,0.062493,-0.023775,0,-0.006824,0,0,0,0.035256,0.0019729,0.011169,-2.2614,0.016133,0.02977,9.3198e-07,0.43,0.61,0
0.023986,-0.0025835,0.03537,0.0021445,0.011254,-0.0012784,0,0,0.062701,-0.023686,0,-0.0066478,0,0,0,0.035419,0.0020954,0.011254,-2.2002,0.016256,0.029819,9.4113e-07,0.44,0.61,0
0.024614,-0.0025701,0.035545,0.0022955,0.011352,-0.0012147,0,0,0.062901,-0.023547,0,-0.0063165,0,0,0,0.035589,0.0022511,0.011352,-2.0895,0.016397,0.029847,9.4973e-07,0.45,0.61,0
0.025244,-0.0025462,0.035729,0.0024779,0.011462,-0.0011106,0,0,0.063095,-0.023359,0,-0.0057751,0,0,0,0.035767,0.0024409,0.011462,-1.9108,0.016556,0.029855,9.578e-07,0.46,0.61,0
0.025876,-0.0025096,0.035918,0.0026921,0.011583,-0.00095319,0,0,0.063271,-0.023117,0,-0.0049566,0,0,0,0.035945,0.0026648,0.011583,-1.6419,0.016731,0.029839,9.6474e-07,0.47,0.61,0
0.02651,-0.0024571,0.036075,0.0029406,0.011705,-0.00072149,0,0,0.063364,-0.022787,0,-0.0037517,0,0,0,0.036091,0.0029249,0.011705,-1.2468,0.016907,0.029764,9.6751e-07,0.48,0.61,0
0.027144,-0.0023843,0.036051,0.0032064,0.011777,-0.00035842,0,0,0.063112,-0.022284,0,-0.0018638,0,0,0,0.036055,0.0032024,0.011777,-0.62514,0.017011,0.029514,9.5438e-07,0.49,0.61,0
0.027772,-0.0022828,0.035656,0.003503,0.011748,0.00029382,0,0,0.062162,-0.021436,0,0.0015279,0,0,0,0.035659,0.0035003,0.011748,0.52352,0.016969,0.02893,9.113e-07,0.5,0.61,0
0.028387,-0.0021355,0.035413,0.0031291,0.011563,0.00030759,0,0,0.062011,-0.021927,0,0.0015995,0,0,0,0.035416,0.0031262,0.011563,0.54582,0.016702,0.029007,9.0525e-07,0.51,0.61,0
0.029012,-0.0020463,0.035175,0.00055268,0.010718,0.0010693,0,0,0.047431,-0.017621,0,0.005069,0,0,0,0.035227,0.00050071,0.010718,1.9106,0.015482,0.03099,9.4159e-07,0.52,0.61,0
0.029335,-0.0020389,0.035371,-0.00039602,0.010493,0.00013631,0,0,0.032342,-0.014155,0,0.00035441,0,0,0,0.035372,-0.00039654,0.010493,0.21836,0.015156,0.031756,1.0166e-06,0.53,0.61,0
0.029659,-0.0020361,0.035873,-0.00059864,0.010582,1.1854e-05,0,0,0.032878,-0.014535,0,3.082e-05,0,0,0,0.035873,-0.00059864,0.010582,0.018622,0.015286,0.032364,1.0664e-06,0.54,0.61,0
0.029993,-0.0020416,0.036575,-0.00062883,0.010784,-6.5846e-05,0,0,0.033529,-0.014837,0,-0.0001712,0,0,0,0.036576,-0.00062895,0.010784,-0.1014,0.015577,0.033013,1.1309e-06,0.55,0.61,0
0.03033,-0.0020474,0.036735,-0.00071886,0.010805,1.6166e-05,0,0,0.033709,-0.014981,0,4.2031e-05,0,0,0,0.036735,-0.00071887,0.010805,0.02473,0.015607,0.033226,1.1485e-06,0.56,0.61,0
0.030667,-0.0020524,0.03677,-0.00068485,0.010826,7.2073e-05,0,0,0.033728,-0.014964,0,0.00018739,0,0,0,0.03677,-0.00068499,0.010826,0.11025,0.015637,0.033231,1.1507e-06,0.57,0.61,0
0.031004,-0.0020566,0.03674,-0.00065306,0.010826,8.7468e-05,0,0,0.033689,-0.014923,0,0.00022742,0,0,0,0.036741,-0.00065326,0.010826,0.13402,0.015638,0.033179,1.147e-06,0.58,0.61,0
0.031341,-0.0020605,0.036711,-0.00063852,0.010822,7.9445e-05,0,0,0.033656,-0.014899,0,0.00020656,0,0,0,0.036712,-0.00063869,0.010822,0.12187,0.015631,0.033141,1.1438e-06,0.59,0.61,0
0.031677,-0.0020644,0.036698,-0.00063234,0.01082,6.3823e-05,0,0,0.033641,-0.014887,0,0.00016594,0,0,0,0.036698,-0.00063245,0.01082,0.097959,0.015628,0.033124,1.1423e-06,0.6,0.61,0
0.032014,-0.0020684,0.036693,-0.0006328,0.010818,4.7365e-05,0,0,0.033638,-0.014886,0,0.00012315,0,0,0,0.036693,-0.00063287,0.010818,0.072706,0.015626,0.03312,1.1419e-06,0.61,0.61,0
0.03235,-0.0020726,0.036694,-0.00063652,0.010817,3.1622e-05,0,0,0.03364,-0.01489,0,8.2218e-05,0,0,0,0.036694,-0.00063655,0.010817,0.048535,0.015625,0.033124,1.1421e-06,0.62,0.61,0
0.032687,-0.0020768,0.036698,-0.00064164,0.010817,1.6239e-05,0,0,0.033646,-0.014896,0,4.2222e-05,0,0,0,0.036698,-0.00064165,0.010817,0.024918,0.015624,0.033131,1.1426e-06,0.63,0.61,0
0.033023,-0.0020811,0.036704,-0.00064764,0.010817,1.1272e-07,0,0,0.033653,-0.014904,0,2.9308e-07,0,0,0,0.036704,-0.00064764,0.010817,0.00017291,0.015624,0.033141,1.1434e-06,0.64,0.61,0
0.03336,-0.0020856,0.036712,-0.00065516,0.010817,-1.768e-05,0,0,0.033663,-0.014914,0,-4.5967e-05,0,0,0,0.036712,-0.00065516,0.010817,-0.027109,0.015624,0.033154,1.1443e-06,0.65,0.61,0
0.033696,-0.0020902,0.036721,-0.00066529,0.010817,-3.7548e-05,0,0,0.033676,-0.014927,0,-9.7626e-05,0,0,0,0.036721,-0.00066533,0.010817,-0.057544,0.015624,0.033171,1.1455e-06,0.66,0.61,0
0.034033,-0.002095,0.036734,-0.00067911,0.010816,-5.9416e-05,0,0,0.033693,-0.014944,0,-0.00015448,0,0,0,0.036734,-0.0006792,0.010816,-0.090992,0.015624,0.033193,1.1471e-06,0.67,0.61,0
0.03437,-0.0021001,0.036749,-0.00069737,0.010816,-8.2871e-05,0,0,0.033714,-0.014967,0,-0.00021546,0,0,0,0.03675,-0.00069756,0.010816,-0.1268,0.015623,0.033222,1.1492e-06,0.68,0.61,0
0.034707,-0.0021054,0.036769,-0.00072054,0.010814,-0.00010733,0,0,0.033741,-0.014996,0,-0.00027906,0,0,0,0.036769,-0.00072085,0.010814,-0.16404,0.015621,0.033258,1.1518e-06,0.69,0.61,0
0.035045,-0.002111,0.036792,-0.0007487,0.010813,-0.00013217,0,0,0.033773,-0.01503,0,-0.00034365,0,0,0,0.036793,-0.00074917,0.010813,-0.20172,0.015619,0.033302,1.1548e-06,0.7,0.61,0
0.035383,-0.0021169,0.036819,-0.0007816,0.010811,-0.00015683,0,0,0.03381,-0.015071,0,-0.00040777,0,0,0,0.03682,-0.00078225,0.010811,-0.23897,0.015616,0.033353,1.1584e-06,0.71,0.61,0
0.035721,-0.002123,0.03685,-0.00081863,0.010809,-0.00018096,0,0,0.033853,-0.015116,0,-0.00047049,0,0,0,0.036851,-0.0008195,0.010809,-0.27524,0.015614,0.03341,1.1625e-06,0.72,0.61,0
0.03606,-0.0021293,0.036884,-0.00085898,0.010808,-0.00020457,0,0,0.0339,-0.015167,0,-0.00053188,0,0,0,0.036885,-0.00086009,0.010808,-0.31053,0.015611,0.033473,1.167e-06,0.73,0.61,0
0.036399,-0.0021359,0.036922,-0.00090181,0.010806,-0.00022823,0,0,0.033951,-0.01522,0,-0.0005934,0,0,0,0.036924,-0.00090319,0.010806,-0.34571,0.015609,0.033542,1.172e-06,0.74,0.61,0
0.036739,-0.0021427,0.036965,-0.00094675,0.010805,-0.0002531,0,0,0.034007,-0.015278,0,-0.00065806,0,0,0,0.036966,-0.00094844,0.010805,-0.38249,0.015608,0.033616,1.1775e-06,0.75,0.61,0
0.037079,-0.0021498,0.037013,-0.00099467,0.010806,-0.00028063,0,0,0.03407,-0.01534,0,-0.00072965,0,0,0,0.037015,-0.00099674,0.010806,-0.42302,0.015608,0.033698,1.1837e-06,0.76,0.61,0
0.03742,-0.0021572,0.037072,-0.0010477,0.010807,-0.00031173,0,0,0.034144,-0.015411,0,-0.00081049,0,0,0,0.037074,-0.0010502,0.010807,-0.4685,0.01561,0.033794,1.1909e-06,0.77,0.61,0
0.037762,-0.0021649,0.037144,-0.0011091,0.010811,-0.00034564,0,0,0.034234,-0.015496,0,-0.00089866,0,0,0,0.037147,-0.0011122,0.010811,-0.51764,0.015615,0.033909,1.1999e-06,0.78,0.61,0
0.038105,-0.0021729,0.037237,-0.0011803,0.010817,-0.00037677,0,0,0.034346,-0.015597,0,-0.0009796,0,0,0,0.037241,-0.001184,0.010817,-0.56184,0.015625,0.03405,1.2112e-06,0.79,0.61,0
0.038449,-0.0021811,0.037334,-0.0012686,0.01082,-0.00039106,0,0,0.034469,-0.015715,0,-0.0010168,0,0,0,0.037338,-0.0012725,0.01082,-0.58034,0.015629,0.034207,1.2234e-06,0.8,0.61,0
0.038794,-0.0021889,0.037365,-0.001353,0.010804,-0.00037381,0,0,0.03453,-0.015804,0,-0.00097191,0,0,0,0.037369,-0.0013566,0.010804,-0.5531,0.015605,0.034302,1.229e-06,0.81,0.61,0
0.03914,-0.0021967,0.037262,-0.0013021,0.010788,-0.00034435,0,0,0.034416,-0.015717,0,-0.00089531,0,0,0,0.037265,-0.0013051,0.010788,-0.51156,0.015583,0.034168,1.2173e-06,0.82,0.61,0
0.039483,-0.0022056,0.036599,-0.0012937,0.010591,-0.00048901,0,0,0.033809,-0.015451,0,-0.0012714,0,0,0,0.036605,-0.0013001,0.010591,-0.73926,0.015299,0.033577,1.1543e-06,0.83,0.61,0
0.039816,-0.0022236,0.036137,-0.0011215,0.010505,-0.0006693,0,0,0.033322,-0.015114,0,-0.0017402,0,0,0,0.036149,-0.0011335,0.010505,-1.0288,0.015173,0.033038,1.1072e-06,0.84,0.61,0
0.040149,-0.0022457,0.036001,-7.1119e-05,0.010779,-0.0016223,0,0,0.048914,-0.018807,0,-0.0072053,0,0,0,0.036094,-0.00016426,0.010779,-2.7164,0.01557,0.032296,1.0302e-06,0.85,0.61,0
0.040794,-0.0023626,0.036274,0.0025316,0.011642,-0.00082719,0,0,0.064044,-0.023686,0,-0.0043014,0,0,0,0.036294,0.0025113,0.011642,-1.4035,0.016816,0.030269,9.9957e-07,0.86,0.61,0
0.04143,-0.0025391,0.036618,0.0029838,0.011881,-0.00081257,0,0,0.064317,-0.023131,0,-0.0042254,0,0,0,0.036638,0.0029642,0.011881,-1.3831,0.017161,0.030218,1.0123e-06,0.87,0.61,0
0.042081,-0.0026667,0.037062,0.0026038,0.0119,-0.0001369,0,0,0.065421,-0.024169,0,-0.00071189,0,0,0,0.037062,0.0026032,0.0119,-0.22763,0.017188,0.030879,1.0629e-06,0.88,0.61,0
0.042738,-0.0027628,0.037164,0.0022389,0.011821,0.00021663,0,0,0.065892,-0.024913,0,0.0011265,0,0,0,0.037165,0.0022376,0.011821,0.35537,0.017075,0.031258,1.0858e-06,0.89,0.61,0
0.043398,-0.0028373,0.037084,0.0018942,0.011694,0.00040753,0,0,0.066016,-0.025478,0,0.0021191,0,0,0,0.037089,0.0018895,0.011694,0.66341,0.016891,0.031465,1.0919e-06,0.9,0.61,0
0.044059,-0.0028959,0.036972,0.0015977,0.011571,0.00050785,0,0,0.066042,-0.02593,0,0.0026409,0,0,0,0.036979,0.0015904,0.011571,0.82235,0.016713,0.031603,1.0928e-06,0.91,0.61,0
0.044719,-0.002942,0.036862,0.0013453,0.011462,0.00054788,0,0,0.06604,-0.026304,0,0.002849,0,0,0,0.036871,0.0013369,0.011462,0.88357,0.016557,0.031708,1.0921e-06,0.92,0.61,0
0.04538,-0.0029784,0.036766,0.0011319,0.011369,0.00054514,0,0,0.066031,-0.026617,0,0.0028347,0,0,0,0.036774,0.0011235,0.011369,0.87626,0.016422,0.031791,1.0909e-06,0.93,0.61,0
0.04604,-0.0030068,0.036684,0.00095336,0.011291,0.00051111,0,0,0.066021,-0.026878,0,0.0026578,0,0,0,0.036691,0.00094605,0.011291,0.81936,0.01631,0.031858,1.0896e-06,0.94,0.61,0
0.0467,-0.0030288,0.036617,0.00080673,0.011227,0.00045406,0,0,0.066013,-0.027093,0,0.0023611,0,0,0,0.036622,0.00080098,0.011227,0.72635,0.016217,0.031912,1.0883e-06,0.95,0.61,0
0.04736,-0.0030455,0.036563,0.00068969,0.011176,0.00038024,0,0,0.066006,-0.027264,0,0.0019772,0,0,0,0.036567,0.00068566,0.011176,0.60722,0.016143,0.031954,1.0872e-06,0.96,0.61,0
0.04802,-0.0030577,0.036521,0.00060045,0.011137,0.00029444,0,0,0.066,-0.027394,0,0.0015311,0,0,0,0.036524,0.00059804,0.011137,0.46961,0.016086,0.031986,1.0863e-06,0.97,0.61,0
0.04868,-0.003066,0.036492,0.00053767,0.011109,0.00020048,0,0,0.065996,-0.027485,0,0.0010425,0,0,0,0.036493,0.00053655,0.011109,0.31947,0.016046,0.032008,1.0856e-06,0.98,0.61,0
0.04934,-0.0030708,0.036475,0.00050038,0.011092,0.00010145,0,0,0.065993,-0.02754,0,0.00052757,0,0,0,0.036475,0.0005001,0.011092,0.16159,0.016022,0.032021,1.0852e-06,0.99,0.61,0
0.05,-0.0030724,0.036469,0.00048802,0.011087,-3.0488e-05,0,0,0.065993,-0.027557,0,-0.00015854,0,0,0,0.036469,0.00048799,0.011087,-0.048549,0.016015,0.032025,1.0851e-06,1,0.61,0
0,0,0.028903,0.012387,0.012387,-0.0020228,0,0,0.042942,0,0,-0.010519,0,0,0,0.029148,0.012143,0.012387,-6.8818,0.017893,0.016884,2.4702e-07,0,0.62,0
0.00042942,-0.00010519,0.028857,0.011845,0.01221,-0.002021,0,0,0.043281,-0.00095126,0,-0.010509,0,0,0,0.029094,0.011608,0.01221,-6.6825,0.017637,0.017192,2.5992e-07,0.01,0.62,0
0.00086561,-0.00020944,0.029039,0.011406,0.012133,-0.0020097,0,0,0.043954,-0.0018919,0,-0.010451,0,0,0,0.029265,0.01118,0.012133,-6.4206,0.017526,0.017628,2.7856e-07,0.02,0.62,0
0.0013085,-0.00031273,0.02922,0.010972,0.012058,-0.0019978,0,0,0.044622,-0.0028218,0,-0.010388,0,0,0,0.029436,0.010756,0.012058,-6.1754,0.017417,0.018064,2.9746e-07,0.03,0.62,0
0.001758,-0.00041501,0.029399,0.010544,0.011983,-0.0019846,0,0,0.045282,-0.0037407,0,-0.01032,0,0,0,0.029606,0.010338,0.011983,-5.944,0.017309,0.0185,3.1656e-07,0.04,0.62,0
0.0022142,-0.00051624,0.029577,0.010122,0.01191,-0.0019701,0,0,0.045936,-0.004648,0,-0.010244,0,0,0,0.029775,0.0099247,0.01191,-5.7244,0.017203,0.018936,3.3583e-07,0.05,0.62,0
0.0026768,-0.00061634,0.029754,0.009706,0.011838,-0.0019538,0,0,0.046582,-0.0055432,0,-0.01016,0,0,0,0.029943,0.0095174,0.011838,-5.5146,0.017099,0.01937,3.5524e-07,0.06,0.62,0
0.0031458,-0.00071524,0.029929,0.0092962,0.011768,-0.0019357,0,0,0.047219,-0.0064254,0,-0.010065,0,0,0,0.030109,0.0091162,0.011768,-5.3135,0.016997,0.019801,3.7472e-07,0.07,0.62,0
0.0036212,-0.00081285,0.030102,0.0088932,0.011699,-0.0019156,0,0,0.047849,-0.0072938,0,-0.0099612,0,0,0,0.030273,0.0087216,0.011699,-5.1199,0.016898,0.020228,3.9425e-07,0.08,0.62,0
0.0041028,-0.00090908,0.030273,0.0084974,0.011631,-0.0018936,0,0,0.048468,-0.0081474,0,-0.0098465,0,0,0,0.030436,0.0083339,0.011631,-4.9331,0.0168,0.020652,4.1378e-07,0.09,0.62,0
0.0045905,-0.0010038,0.030441,0.0081092,0.011565,-0.0018695,0,0,0.049078,-0.0089853,0,-0.0097215,0,0,0,0.030597,0.0079538,0.011565,-4.7524,0.016705,0.021071,4.3326e-07,0.1,0.62,0
0.0050843,-0.001097,0.030607,0.0077292,0.011501,-0.0018436,0,0,0.049676,-0.0098065,0,-0.0095867,0,0,0,0.030755,0.0075816,0.011501,-4.5777,0.016612,0.021483,4.5265e-07,0.11,0.62,0
0.0055841,-0.0011885,0.030771,0.0073578,0.011439,-0.0018159,0,0,0.050264,-0.01061,0,-0.0094426,0,0,0,0.030911,0.0072178,0.011439,-4.4086,0.016522,0.02189,4.7191e-07,0.12,0.62,0
0.0060896,-0.0012782,0.030932,0.0069954,0.011378,-0.0017866,0,0,0.050839,-0.011395,0,-0.0092902,0,0,0,0.031064,0.0068628,0.011378,-4.2452,0.016435,0.022289,4.9099e-07,0.13,0.62,0
0.0066008,-0.001366,0.031089,0.0066426,0.01132,-0.0017559,0,0,0.051401,-0.01216,0,-0.0091307,0,0,0,0.031215,0.0065171,0.01132,-4.0873,0.016351,0.022681,5.0987e-07,0.14,0.62,0
0.0071176,-0.0014519,0.031244,0.0062997,0.011263,-0.0017241,0,0,0.051951,-0.012905,0,-0.0089654,0,0,0,0.031363,0.0061811,0.011263,-3.9352,0.016269,0.023065,5.2849e-07,0.15,0.62,0
0.0076398,-0.0015358,0.031396,0.0059672,0.011209,-0.0016915,0,0,0.052486,-0.013629,0,-0.0087958,0,0,0,0.031508,0.0058552,0.011209,-3.789,0.016191,0.023439,5.4684e-07,0.16,0.62,0
0.0081674,-0.0016175,0.031545,0.0056454,0.011157,-0.0016584,0,0,0.053008,-0.01433,0,-0.0086236,0,0,0,0.031651,0.0055397,0.011157,-3.6489,0.016116,0.023805,5.6488e-07,0.17,0.62,0
0.0087,-0.001697,0.031691,0.0053348,0.011108,-0.0016251,0,0,0.053516,-0.015009,0,-0.0084505,0,0,0,0.03179,0.0052349,0.011108,-3.5151,0.016044,0.02416,5.826e-07,0.18,0.62,0
0.0092377,-0.0017742,0.031833,0.0050355,0.011061,-0.001592,0,0,0.054009,-0.015665,0,-0.0082784,0,0,0,0.031927,0.0049413,0.011061,-3.388,0.015976,0.024506,5.9996e-07,0.19,0.62,0
0.0097802,-0.0018491,0.031973,0.0047479,0.011016,-0.0015595,0,0,0.054487,-0.016297,0,-0.0081092,0,0,0,0.032062,0.0046589,0.011016,-3.2677,0.015912,0.024842,6.1696e-07,0.2,0.62,0
0.010327,-0.0019217,0.03211,0.0044724,0.010975,-0.0015279,0,0,0.054951,-0.016906,0,-0.0079448,0,0,0,0.032194,0.0043882,0.010975,-3.1546,0.015852,0.025167,6.3358e-07,0.21,0.62,0
0.010879,-0.0019918,0.032244,0.004209,0.010936,-0.0014975,0,0,0.055401,-0.01749,0,-0.0077871,0,0,0,0.032323,0.0041293,0.010936,-3.049,0.015796,0.025482,6.4981e-07,0.22,0.62,0
0.011435,-0.0020595,0.032375,0.0039581,0.0109,-0.0014689,0,0,0.055836,-0.018049,0,-0.0076381,0,0,0,0.032451,0.0038824,0.0109,-2.9511,0.015745,0.025786,6.6566e-07,0.23,0.62,0
0.011996,-0.0021247,0.032504,0.0037199,0.010867,-0.0014422,0,0,0.056257,-0.018583,0,-0.0074996,0,0,0,0.032577,0.0036478,0.010867,-2.8612,0.015697,0.026079,6.8111e-07,0.24,0.62,0
0.012561,-0.0021874,0.032631,0.0034945,0.010838,-0.001418,0,0,0.056663,-0.019093,0,-0.0073735,0,0,0,0.0327,0.0034256,0.010838,-2.7796,0.015655,0.026362,6.9618e-07,0.25,0.62,0
0.013129,-0.0022475,0.032757,0.0032821,0.010812,-0.0013964,0,0,0.057057,-0.019577,0,-0.0072615,0,0,0,0.032822,0.0032161,0.010812,-2.7065,0.015617,0.026634,7.1086e-07,0.26,0.62,0
0.013702,-0.0023051,0.03288,0.003083,0.010789,-0.0013779,0,0,0.057437,-0.020035,0,-0.0071652,0,0,0,0.032944,0.0030194,0.010789,-2.642,0.015584,0.026895,7.2517e-07,0.27,0.62,0
0.014278,-0.0023602,0.033002,0.0028974,0.01077,-0.0013627,0,0,0.057804,-0.020468,0,-0.0070861,0,0,0,0.033064,0.0028358,0.01077,-2.5865,0.015556,0.027145,7.391e-07,0.28,0.62,0
0.014858,-0.0024127,0.033123,0.0027254,0.010755,-0.001351,0,0,0.058158,-0.020876,0,-0.0070255,0,0,0,0.033183,0.0026655,0.010755,-2.5399,0.015534,0.027384,7.5268e-07,0.29,0.62,0
0.015441,-0.0024625,0.033243,0.0025674,0.010743,-0.0013432,0,0,0.058499,-0.021257,0,-0.0069845,0,0,0,0.033301,0.0025087,0.010743,-2.5024,0.015518,0.027612,7.659e-07,0.3,0.62,0
0.016028,-0.0025097,0.033362,0.0024236,0.010736,-0.0013392,0,0,0.058829,-0.021612,0,-0.006964,0,0,0,0.03342,0.0023657,0.010736,-2.474,0.015507,0.02783,7.7879e-07,0.31,0.62,0
0.016618,-0.0025543,0.033481,0.0022944,0.010733,-0.0013393,0,0,0.059146,-0.02194,0,-0.0069644,0,0,0,0.033539,0.002237,0.010733,-2.4545,0.015503,0.028036,7.9133e-07,0.32,0.62,0
0.017211,-0.0025961,0.0336,0.0021802,0.010734,-0.0013434,0,0,0.059452,-0.02224,0,-0.0069858,0,0,0,0.033658,0.0021229,0.010734,-2.4438,0.015505,0.028232,8.0355e-07,0.33,0.62,0
0.017807,-0.0026351,0.03372,0.0020815,0.01074,-0.0013514,0,0,0.059746,-0.022513,0,-0.0070275,0,0,0,0.033777,0.0020239,0.01074,-2.4415,0.015514,0.028416,8.1543e-07,0.34,0.62,0
0.018406,-0.0026712,0.033839,0.0019988,0.010752,-0.0013632,0,0,0.060029,-0.022757,0,-0.0070885,0,0,0,0.033898,0.0019406,0.010752,-2.447,0.01553,0.028589,8.2698e-07,0.35,0.62,0
0.019007,-0.0027043,0.03396,0.0019329,0.010768,-0.0013781,0,0,0.060299,-0.022971,0,-0.0071662,0,0,0,0.034019,0.0018737,0.010768,-2.4594,0.015553,0.028749,8.382e-07,0.36,0.62,0
0.019612,-0.0027341,0.034081,0.0018843,0.01079,-0.0013957,0,0,0.060558,-0.023154,0,-0.0072574,0,0,0,0.034142,0.0018239,0.01079,-2.4774,0.015585,0.028897,8.4905e-07,0.37,0.62,0
0.020218,-0.0027605,0.034204,0.0018539,0.010817,-0.0014147,0,0,0.060805,-0.023305,0,-0.0073566,0,0,0,0.034265,0.0017921,0.010817,-2.4993,0.015625,0.029033,8.5953e-07,0.38,0.62,0
0.020828,-0.0027831,0.034328,0.0018427,0.010851,-0.001434,0,0,0.061039,-0.023422,0,-0.0074567,0,0,0,0.034391,0.0017795,0.010851,-2.5227,0.015674,0.029154,8.6961e-07,0.39,0.62,0
0.021439,-0.0028015,0.034453,0.0018515,0.010892,-0.0014514,0,0,0.061261,-0.023504,0,-0.0075474,0,0,0,0.034518,0.001787,0.010892,-2.5441,0.015732,0.029261,8.7926e-07,0.4,0.62,0
0.022053,-0.0028151,0.034582,0.0018813,0.010939,-0.0014644,0,0,0.061471,-0.02355,0,-0.0076148,0,0,0,0.034647,0.0018159,0.010939,-2.559,0.015801,0.029353,8.8846e-07,0.41,0.62,0
0.022669,-0.0028232,0.034713,0.001933,0.010994,-0.0014693,0,0,0.06167,-0.023558,0,-0.0076403,0,0,0,0.034779,0.0018673,0.010994,-2.5613,0.01588,0.02943,8.9719e-07,0.42,0.62,0
0.023286,-0.0028251,0.034849,0.002007,0.011057,-0.0014614,0,0,0.06186,-0.02353,0,-0.0075995,0,0,0,0.034914,0.0019421,0.011057,-2.5429,0.015971,0.029491,9.0549e-07,0.43,0.62,0
0.023906,-0.0028194,0.034992,0.0021034,0.011129,-0.0014347,0,0,0.062045,-0.023466,0,-0.0074603,0,0,0,0.035054,0.0020409,0.011129,-2.4931,0.016075,0.029537,9.1343e-07,0.44,0.62,0
0.024527,-0.0028048,0.035144,0.0022214,0.01121,-0.0013811,0,0,0.062228,-0.023369,0,-0.0071815,0,0,0,0.035201,0.0021636,0.01121,-2.3979,0.016192,0.029571,9.2116e-07,0.45,0.62,0
0.02515,-0.0027794,0.035307,0.0023598,0.0113,-0.0012898,0,0,0.062418,-0.023245,0,-0.0067071,0,0,0,0.035357,0.0023094,0.0113,-2.2385,0.016322,0.029595,9.2883e-07,0.46,0.62,0
0.025775,-0.0027408,0.035484,0.0025176,0.0114,-0.0011439,0,0,0.062617,-0.023096,0,-0.0059483,0,0,0,0.035524,0.0024779,0.0114,-1.9849,0.016467,0.029611,9.3657e-07,0.47,0.62,0
0.026403,-0.0026857,0.035682,0.0026953,0.011513,-0.00091018,0,0,0.06284,-0.022927,0,-0.0047329,0,0,0,0.035707,0.0026702,0.011513,-1.5793,0.01663,0.029623,9.4488e-07,0.48,0.62,0
0.027032,-0.0026091,0.035989,0.0029136,0.011671,-0.00051464,0,0,0.063227,-0.022769,0,-0.0026761,0,0,0,0.035997,0.0029056,0.011671,-0.89121,0.016858,0.029695,9.6038e-07,0.49,0.62,0
0.027667,-0.0025031,0.036794,0.003182,0.011993,6.5509e-05,0,0,0.064483,-0.022908,0,0.00034065,0,0,0,0.036794,0.0031818,0.011993,0.11167,0.017323,0.030187,1.0176e-06,0.5,0.62,0
0.028322,-0.0023705,0.037169,0.0026765,0.011954,0.00070907,0,0,0.06556,-0.02412,0,0.0036872,0,0,0,0.037183,0.002662,0.011954,1.1772,0.017266,0.03094,1.0715e-06,0.51,0.62,0
0.028979,-0.0022288,0.036371,-0.00023891,0.01084,2.4954e-05,0,0,0.049603,-0.019203,0,0.0015732,0,0,0,0.036407,-0.00027468,0.01084,0.23381,0.015657,0.032669,1.0568e-06,0.52,0.62,0
0.029314,-0.0021764,0.03734,0.0001611,0.01125,0.00054901,0,0,0.033916,-0.014416,0,0.0014274,0,0,0,0.037348,0.000153,0.01125,0.84583,0.01625,0.033073,1.1774e-06,0.53,0.62,0
0.029657,-0.0021824,0.037423,-0.00011084,0.011194,-0.00030413,0,0,0.034098,-0.014696,0,-0.00079075,0,0,0,0.037426,-0.00011331,0.011194,-0.46422,0.016169,0.033355,1.1939e-06,0.54,0.62,0
0.029996,-0.0021906,0.036964,-0.00082241,0.010843,-6.3257e-05,0,0,0.033958,-0.015164,0,-0.00016447,0,0,0,0.036965,-0.00082251,0.010843,-0.095915,0.015662,0.033513,1.1733e-06,0.55,0.62,0
0.030336,-0.0021979,0.036941,-0.00074491,0.010859,9.5598e-05,0,0,0.033907,-0.015085,0,0.00024856,0,0,0,0.036941,-0.00074515,0.010859,0.14534,0.015685,0.033431,1.1687e-06,0.56,0.62,0
0.030674,-0.0022022,0.036802,-0.00065222,0.010845,0.00014057,0,0,0.033745,-0.014946,0,0.00036549,0,0,0,0.036803,-0.00065275,0.010845,0.21504,0.015665,0.033234,1.1528e-06,0.57,0.62,0
0.031011,-0.0022057,0.036702,-0.00063129,0.010821,0.00012271,0,0,0.033645,-0.014888,0,0.00031904,0,0,0,0.036702,-0.00063169,0.010821,0.18832,0.015631,0.033127,1.1427e-06,0.58,0.62,0
0.031347,-0.0022094,0.036671,-0.00061521,0.010817,9.2735e-05,0,0,0.03361,-0.014861,0,0.00024111,0,0,0,0.036671,-0.00061544,0.010817,0.1425,0.015624,0.033086,1.1393e-06,0.59,0.62,0
0.031683,-0.0022132,0.036661,-0.00061242,0.010815,6.6416e-05,0,0,0.0336,-0.014855,0,0.00017268,0,0,0,0.036661,-0.00061254,0.010815,0.10209,0.015621,0.033075,1.1383e-06,0.6,0.62,0
0.032019,-0.0022172,0.036662,-0.00061602,0.010814,4.472e-05,0,0,0.033603,-0.014859,0,0.00011627,0,0,0,0.036662,-0.00061608,0.010814,0.068734,0.01562,0.033079,1.1385e-06,0.61,0.62,0
0.032355,-0.0022213,0.036666,-0.00062189,0.010813,2.7181e-05,0,0,0.033608,-0.014866,0,7.067e-05,0,0,0,0.036666,-0.00062191,0.010813,0.041765,0.015619,0.033087,1.139e-06,0.62,0.62,0
0.032691,-0.0022256,0.036671,-0.00062666,0.010813,1.1215e-05,0,0,0.033615,-0.014872,0,2.916e-05,0,0,0,0.036671,-0.00062667,0.010813,0.017229,0.015619,0.033096,1.1397e-06,0.63,0.62,0
0.033027,-0.00223,0.036677,-0.00063056,0.010814,-5.7226e-06,0,0,0.033622,-0.014878,0,-1.4879e-05,0,0,0,0.036677,-0.00063056,0.010814,-0.0087886,0.01562,0.033104,1.1403e-06,0.64,0.62,0
0.033364,-0.0022346,0.036684,-0.00063531,0.010814,-2.5179e-05,0,0,0.03363,-0.014885,0,-6.5465e-05,0,0,0,0.036684,-0.00063532,0.010814,-0.038657,0.015621,0.033113,1.1411e-06,0.65,0.62,0
0.0337,-0.0022393,0.036692,-0.00064276,0.010815,-4.7608e-05,0,0,0.03364,-0.014895,0,-0.00012378,0,0,0,0.036692,-0.00064282,0.010815,-0.073061,0.015621,0.033127,1.1421e-06,0.66,0.62,0
0.034036,-0.0022443,0.036703,-0.00065439,0.010815,-7.2721e-05,0,0,0.033655,-0.01491,0,-0.00018908,0,0,0,0.036703,-0.00065453,0.010815,-0.11153,0.015621,0.033147,1.1435e-06,0.67,0.62,0
0.034373,-0.0022496,0.036718,-0.00067115,0.010814,-9.9882e-05,0,0,0.033675,-0.014931,0,-0.00025969,0,0,0,0.036718,-0.00067142,0.010814,-0.15306,0.01562,0.033173,1.1454e-06,0.68,0.62,0
0.03471,-0.0022552,0.036737,-0.00069355,0.010813,-0.00012831,0,0,0.033701,-0.014958,0,-0.0003336,0,0,0,0.036737,-0.00069399,0.010813,-0.1964,0.015619,0.033208,1.1479e-06,0.69,0.62,0
0.035047,-0.0022611,0.03676,-0.00072167,0.010811,-0.00015719,0,0,0.033733,-0.014993,0,-0.00040868,0,0,0,0.03676,-0.00072233,0.010811,-0.24028,0.015616,0.033251,1.1509e-06,0.7,0.62,0
0.035385,-0.0022674,0.036786,-0.00075515,0.010809,-0.00018577,0,0,0.03377,-0.015034,0,-0.00048301,0,0,0,0.036787,-0.00075607,0.010809,-0.28352,0.015614,0.033302,1.1545e-06,0.71,0.62,0
0.035722,-0.002274,0.036817,-0.00079319,0.010807,-0.00021352,0,0,0.033813,-0.01508,0,-0.00055517,0,0,0,0.036818,-0.0007944,0.010807,-0.32527,0.01561,0.033361,1.1586e-06,0.72,0.62,0
0.036061,-0.0022808,0.03685,-0.00083448,0.010805,-0.00024031,0,0,0.033859,-0.015131,0,-0.00062479,0,0,0,0.036852,-0.00083601,0.010805,-0.36534,0.015607,0.033424,1.1631e-06,0.73,0.62,0
0.0364,-0.0022879,0.036887,-0.00087735,0.010803,-0.00026681,0,0,0.033909,-0.015184,0,-0.00069371,0,0,0,0.036889,-0.00087923,0.010803,-0.40478,0.015604,0.033491,1.1679e-06,0.74,0.62,0
0.036739,-0.0022953,0.036926,-0.00092026,0.010802,-0.00029494,0,0,0.033961,-0.015238,0,-0.00076683,0,0,0,0.036928,-0.00092256,0.010802,-0.44648,0.015602,0.033561,1.173e-06,0.75,0.62,0
0.037079,-0.002303,0.036969,-0.00096322,0.010802,-0.00032768,0,0,0.034017,-0.015294,0,-0.00085198,0,0,0,0.036971,-0.00096605,0.010802,-0.49491,0.015602,0.033635,1.1785e-06,0.76,0.62,0
0.037419,-0.0023111,0.037018,-0.0010097,0.010803,-0.0003682,0,0,0.03408,-0.015356,0,-0.00095732,0,0,0,0.037022,-0.0010132,0.010803,-0.55468,0.015604,0.033717,1.1848e-06,0.77,0.62,0
0.037761,-0.0023196,0.037082,-0.0010635,0.010806,-0.00041764,0,0,0.03416,-0.01543,0,-0.0010859,0,0,0,0.037087,-0.0010681,0.010806,-0.6272,0.015608,0.033819,1.1927e-06,0.78,0.62,0
0.038103,-0.0023286,0.037172,-0.0011306,0.010813,-0.00047572,0,0,0.034268,-0.015526,0,-0.0012369,0,0,0,0.037178,-0.0011365,0.010813,-0.71147,0.015618,0.033956,1.2036e-06,0.79,0.62,0
0.038446,-0.0023382,0.037335,-0.001201,0.01084,-0.00052658,0,0,0.034443,-0.015654,0,-0.0013691,0,0,0,0.037342,-0.0012082,0.01084,-0.78272,0.015658,0.034159,1.2217e-06,0.8,0.62,0
0.038791,-0.0023474,0.037531,-0.0013403,0.010857,-0.00051876,0,0,0.034676,-0.015857,0,-0.0013488,0,0,0,0.037538,-0.0013473,0.010857,-0.76447,0.015682,0.034445,1.2453e-06,0.81,0.62,0
0.039139,-0.0023541,0.037609,-0.0014399,0.010851,-0.00039942,0,0,0.034786,-0.015978,0,-0.0010385,0,0,0,0.037613,-0.001444,0.010851,-0.58598,0.015673,0.034589,1.2558e-06,0.82,0.62,0
0.039487,-0.0023605,0.0381,-0.00074274,0.011207,-0.00021201,0,0,0.03496,-0.015535,0,-0.00055123,0,0,0,0.038101,-0.0007439,0.011207,-0.31272,0.016188,0.03446,1.2814e-06,0.83,0.62,0
0.039839,-0.00237,0.038097,-0.00045192,0.011293,-0.0011398,0,0,0.034844,-0.015269,0,-0.0029635,0,0,0,0.03813,-0.00048559,0.011293,-1.6921,0.016313,0.034279,1.2755e-06,0.84,0.62,0
0.040184,-0.0024405,0.037111,-0.00099592,0.010835,-0.00060526,0,0,0.051047,-0.020506,0,-0.0038266,0,0,0,0.037158,-0.0010434,0.010835,-1.1074,0.01565,0.033959,1.1425e-06,0.85,0.62,0
0.04086,-0.0026148,0.038002,0.0021169,0.012035,-0.0012833,0,0,0.067512,-0.025788,0,-0.0066732,0,0,0,0.038047,0.0020711,0.012035,-2.0455,0.017385,0.032173,1.1736e-06,0.86,0.62,0
0.041534,-0.0027767,0.03767,0.0026278,0.012089,-0.00062785,0,0,0.066509,-0.0246,0,-0.0032648,0,0,0,0.037681,0.0026165,0.012089,-1.0261,0.017462,0.031418,1.1182e-06,0.87,0.62,0
0.04219,-0.0029098,0.036895,0.0023176,0.011764,-4.7174e-05,0,0,0.065342,-0.02456,0,-0.00024531,0,0,0,0.036895,0.0023175,0.011764,-0.078168,0.016992,0.030955,1.0588e-06,0.88,0.62,0
0.042841,-0.0030118,0.036645,0.0020272,0.011602,0.00032983,0,0,0.065113,-0.024894,0,0.0017151,0,0,0,0.036648,0.002024,0.011602,0.54583,0.016758,0.030967,1.0477e-06,0.89,0.62,0
0.043492,-0.0030912,0.036517,0.0017729,0.011487,0.00052397,0,0,0.065078,-0.025257,0,0.0027246,0,0,0,0.036525,0.001765,0.011487,0.8638,0.016592,0.031062,1.0462e-06,0.9,0.62,0
0.044143,-0.0031537,0.036414,0.0015424,0.011387,0.00061432,0,0,0.06507,-0.025595,0,0.0031945,0,0,0,0.036424,0.0015316,0.011387,1.009,0.016448,0.031157,1.0456e-06,0.91,0.62,0
0.044793,-0.0032032,0.036325,0.0013379,0.011299,0.00064048,0,0,0.065067,-0.025898,0,0.0033305,0,0,0,0.036336,0.0013262,0.011299,1.0484,0.01632,0.031241,1.045e-06,0.92,0.62,0
0.045444,-0.0032425,0.036249,0.0011595,0.011222,0.00062353,0,0,0.065069,-0.026164,0,0.0032424,0,0,0,0.03626,0.0011484,0.011222,1.0177,0.01621,0.031314,1.0444e-06,0.93,0.62,0
0.046095,-0.0032733,0.036186,0.0010067,0.011158,0.00057618,0,0,0.065073,-0.026392,0,0.0029961,0,0,0,0.036195,0.0009973,0.011158,0.93809,0.016117,0.031377,1.0438e-06,0.94,0.62,0
0.046746,-0.0032974,0.036134,0.00087894,0.011104,0.00050685,0,0,0.065078,-0.026585,0,0.0026356,0,0,0,0.036141,0.00087166,0.011104,0.82351,0.016039,0.031428,1.0433e-06,0.95,0.62,0
0.047396,-0.0033157,0.036093,0.00077549,0.01106,0.00042162,0,0,0.065084,-0.026741,0,0.0021924,0,0,0,0.036098,0.00077046,0.01106,0.68387,0.015976,0.03147,1.0428e-06,0.96,0.62,0
0.048047,-0.0033291,0.036061,0.00069578,0.011027,0.00032503,0,0,0.065089,-0.026861,0,0.0016902,0,0,0,0.036064,0.00069279,0.011027,0.52653,0.015928,0.031502,1.0425e-06,0.97,0.62,0
0.048698,-0.0033383,0.036039,0.00063925,0.011004,0.00022069,0,0,0.065093,-0.026947,0,0.0011476,0,0,0,0.036041,0.00063788,0.011004,0.35717,0.015894,0.031525,1.0422e-06,0.98,0.62,0
0.049349,-0.0033437,0.036026,0.00060551,0.010989,0.0001115,0,0,0.065095,-0.026998,0,0.00057982,0,0,0,0.036027,0.00060516,0.010989,0.18036,0.015874,0.031539,1.0421e-06,0.99,0.62,0
0.05,-0.0033454,0.036022,0.0005943,0.010985,-3.3842e-05,0,0,0.065096,-0.027015,0,-0.00017598,0,0,0,0.036022,0.00059426,0.010985,-0.054732,0.015867,0.031543,1.042e-06,1,0.62,0
0,0,0.028877,0.012376,0.012376,-0.0022058,0,0,0.042903,-5.421e-20,0,-0.01147,0,0,0,0.029167,0.012086,0.012376,-7.484,0.017876,0.016938,2.4932e-07,0,0.63,0
0.00042903,-0.0001147,0.02883,0.011833,0.012199,-0.0022037,0,0,0.043242,-0.00095149,0,-0.011459,0,0,0,0.029112,0.011552,0.012199,-7.2683,0.017621,0.017245,2.6215e-07,0.01,0.63,0
0.00086483,-0.00022836,0.029013,0.011394,0.012122,-0.0021913,0,0,0.043916,-0.0018933,0,-0.011395,0,0,0,0.029281,0.011125,0.012122,-6.9843,0.017509,0.017679,2.8073e-07,0.02,0.63,0
0.0013074,-0.00034096,0.029194,0.010959,0.012046,-0.0021781,0,0,0.044584,-0.0028252,0,-0.011326,0,0,0,0.02945,0.010703,0.012046,-6.718,0.0174,0.018113,2.9957e-07,0.03,0.63,0
0.0017565,-0.00045245,0.029373,0.01053,0.011971,-0.0021636,0,0,0.045246,-0.0037467,0,-0.011251,0,0,0,0.029618,0.010285,0.011971,-6.4666,0.017291,0.018548,3.1863e-07,0.04,0.63,0
0.0022123,-0.00056277,0.029552,0.010106,0.011897,-0.0021475,0,0,0.045901,-0.0046572,0,-0.011167,0,0,0,0.029786,0.0098717,0.011897,-6.2276,0.017185,0.018983,3.3786e-07,0.05,0.63,0
0.0026745,-0.00067184,0.029728,0.009688,0.011825,-0.0021296,0,0,0.046548,-0.0055558,0,-0.011074,0,0,0,0.029952,0.0094642,0.011825,-5.9993,0.01708,0.019415,3.5722e-07,0.06,0.63,0
0.0031432,-0.00077957,0.029903,0.0092761,0.011754,-0.0021096,0,0,0.047188,-0.0064416,0,-0.01097,0,0,0,0.030116,0.0090626,0.011754,-5.7801,0.016977,0.019845,3.7666e-07,0.07,0.63,0
0.0036183,-0.00088588,0.030075,0.008871,0.011684,-0.0020874,0,0,0.047818,-0.0073136,0,-0.010854,0,0,0,0.030279,0.0086674,0.011684,-5.5691,0.016877,0.020272,3.9614e-07,0.08,0.63,0
0.0040996,-0.00099066,0.030246,0.008473,0.011616,-0.002063,0,0,0.048438,-0.0081707,0,-0.010728,0,0,0,0.030439,0.0082793,0.011616,-5.3654,0.016778,0.020695,4.156e-07,0.09,0.63,0
0.004587,-0.0010938,0.030413,0.0080828,0.011549,-0.0020365,0,0,0.049048,-0.0090118,0,-0.01059,0,0,0,0.030598,0.0078986,0.011549,-5.1685,0.016682,0.021112,4.3499e-07,0.1,0.63,0
0.0050805,-0.0011952,0.030579,0.0077008,0.011484,-0.0020079,0,0,0.049646,-0.0098357,0,-0.010441,0,0,0,0.030753,0.0075259,0.011484,-4.9779,0.016588,0.021523,4.5427e-07,0.11,0.63,0
0.00558,-0.0012947,0.030741,0.0073276,0.011421,-0.0019773,0,0,0.050232,-0.010641,0,-0.010282,0,0,0,0.030906,0.0071618,0.011421,-4.7935,0.016496,0.021928,4.7339e-07,0.12,0.63,0
0.0060852,-0.0013923,0.0309,0.0069637,0.011359,-0.001945,0,0,0.050806,-0.011428,0,-0.010114,0,0,0,0.031057,0.0068067,0.011359,-4.6154,0.016407,0.022325,4.9231e-07,0.13,0.63,0
0.0065961,-0.0014878,0.031055,0.0066095,0.0113,-0.0019111,0,0,0.051365,-0.012194,0,-0.009938,0,0,0,0.031204,0.006461,0.0113,-4.4433,0.016321,0.022714,5.1098e-07,0.14,0.63,0
0.0071125,-0.0015811,0.031208,0.0062656,0.011242,-0.0018761,0,0,0.051911,-0.012939,0,-0.0097558,0,0,0,0.031348,0.0061253,0.011242,-4.2776,0.016238,0.023094,5.2938e-07,0.15,0.63,0
0.0076343,-0.0016722,0.031357,0.0059324,0.011187,-0.0018402,0,0,0.052442,-0.013661,0,-0.0095691,0,0,0,0.031489,0.0057999,0.011187,-4.1185,0.016159,0.023464,5.4745e-07,0.16,0.63,0
0.0081613,-0.0017609,0.031502,0.0056103,0.011134,-0.0018038,0,0,0.052958,-0.014361,0,-0.0093796,0,0,0,0.031627,0.0054852,0.011134,-3.966,0.016082,0.023825,5.6518e-07,0.17,0.63,0
0.0086935,-0.0018472,0.031644,0.0052996,0.011083,-0.0017672,0,0,0.053458,-0.015037,0,-0.0091892,0,0,0,0.031762,0.0051816,0.011083,-3.8206,0.016009,0.024176,5.8253e-07,0.18,0.63,0
0.0092305,-0.001931,0.031782,0.0050008,0.011035,-0.0017308,0,0,0.053943,-0.015689,0,-0.0090001,0,0,0,0.031894,0.0048894,0.011035,-3.6824,0.015939,0.024516,5.995e-07,0.19,0.63,0
0.0097723,-0.0020122,0.031917,0.004714,0.010989,-0.0016951,0,0,0.054412,-0.016316,0,-0.0088143,0,0,0,0.032022,0.0046088,0.010989,-3.5519,0.015873,0.024846,6.1604e-07,0.2,0.63,0
0.010319,-0.0020908,0.032049,0.0044396,0.010946,-0.0016604,0,0,0.054866,-0.016918,0,-0.0086339,0,0,0,0.032148,0.0043401,0.010946,-3.4292,0.015812,0.025164,6.3217e-07,0.21,0.63,0
0.01087,-0.0021667,0.032177,0.0041778,0.010906,-0.0016271,0,0,0.055303,-0.017494,0,-0.0084609,0,0,0,0.032271,0.0040835,0.010906,-3.3148,0.015754,0.025471,6.4785e-07,0.22,0.63,0
0.011425,-0.00224,0.032302,0.0039288,0.010869,-0.0015957,0,0,0.055725,-0.018045,0,-0.0082975,0,0,0,0.032391,0.0038394,0.010869,-3.2088,0.0157,0.025767,6.6309e-07,0.23,0.63,0
0.011984,-0.0023105,0.032424,0.0036929,0.010835,-0.0015665,0,0,0.056131,-0.01857,0,-0.0081456,0,0,0,0.032509,0.0036077,0.010835,-3.1115,0.015651,0.026051,6.7789e-07,0.24,0.63,0
0.012547,-0.0023782,0.032543,0.0034701,0.010804,-0.0015398,0,0,0.056522,-0.019068,0,-0.0080071,0,0,0,0.032625,0.0033888,0.010804,-3.0233,0.015606,0.026324,6.9224e-07,0.25,0.63,0
0.013115,-0.0024431,0.03266,0.0032607,0.010776,-0.0015161,0,0,0.056898,-0.01954,0,-0.0078839,0,0,0,0.032738,0.0031827,0.010776,-2.9444,0.015566,0.026585,7.0615e-07,0.26,0.63,0
0.013685,-0.0025053,0.032774,0.0030649,0.010752,-0.0014957,0,0,0.057259,-0.019986,0,-0.0077776,0,0,0,0.03285,0.0029898,0.010752,-2.8748,0.01553,0.026834,7.1962e-07,0.27,0.63,0
0.01426,-0.0025646,0.032887,0.0028828,0.010731,-0.0014788,0,0,0.057605,-0.020405,0,-0.0076899,0,0,0,0.032959,0.0028101,0.010731,-2.8149,0.0155,0.027072,7.3265e-07,0.28,0.63,0
0.014837,-0.002621,0.032997,0.0027146,0.010714,-0.0014658,0,0,0.057937,-0.020797,0,-0.0076219,0,0,0,0.033068,0.0026439,0.010714,-2.7647,0.015475,0.027299,7.4526e-07,0.29,0.63,0
0.015418,-0.0026746,0.033106,0.0025606,0.0107,-0.0014567,0,0,0.058255,-0.021162,0,-0.0075749,0,0,0,0.033175,0.0024913,0.0107,-2.7243,0.015455,0.027513,7.5743e-07,0.3,0.63,0
0.016003,-0.0027253,0.033213,0.0024209,0.01069,-0.0014518,0,0,0.058558,-0.0215,0,-0.0075496,0,0,0,0.033281,0.0023526,0.01069,-2.6936,0.015441,0.027717,7.6919e-07,0.31,0.63,0
0.01659,-0.002773,0.033318,0.0022959,0.010684,-0.0014513,0,0,0.058849,-0.02181,0,-0.0075465,0,0,0,0.033386,0.0022281,0.010684,-2.6726,0.015433,0.027908,7.8054e-07,0.32,0.63,0
0.01718,-0.0028178,0.033423,0.0021858,0.010683,-0.0014549,0,0,0.059125,-0.022092,0,-0.0075655,0,0,0,0.033491,0.0021182,0.010683,-2.6609,0.01543,0.028087,7.9146e-07,0.33,0.63,0
0.017772,-0.0028594,0.033527,0.002091,0.010685,-0.0014627,0,0,0.059388,-0.022345,0,-0.0076061,0,0,0,0.033595,0.0020231,0.010685,-2.6583,0.015434,0.028254,8.0197e-07,0.34,0.63,0
0.018367,-0.0028979,0.03363,0.002012,0.010693,-0.0014744,0,0,0.059637,-0.022569,0,-0.0076668,0,0,0,0.033698,0.0019434,0.010693,-2.6641,0.015445,0.02841,8.1206e-07,0.35,0.63,0
0.018965,-0.002933,0.033732,0.001949,0.010704,-0.0014895,0,0,0.059873,-0.022764,0,-0.0077454,0,0,0,0.033802,0.0018794,0.010704,-2.6773,0.015462,0.028552,8.2172e-07,0.36,0.63,0
0.019565,-0.0029646,0.033834,0.0019027,0.010721,-0.0015074,0,0,0.060095,-0.022928,0,-0.0078384,0,0,0,0.033905,0.0018317,0.010721,-2.6967,0.015486,0.028681,8.3093e-07,0.37,0.63,0
0.020167,-0.0029924,0.033936,0.0018735,0.010743,-0.0015271,0,0,0.060303,-0.023061,0,-0.0079407,0,0,0,0.034009,0.0018009,0.010743,-2.7206,0.015518,0.028798,8.3969e-07,0.38,0.63,0
0.020771,-0.0030161,0.034038,0.0018618,0.01077,-0.0015472,0,0,0.060498,-0.023161,0,-0.0080454,0,0,0,0.034113,0.0017876,0.01077,-2.7466,0.015557,0.0289,8.4798e-07,0.39,0.63,0
0.021377,-0.0030352,0.034141,0.0018681,0.010803,-0.0015659,0,0,0.060679,-0.02323,0,-0.0081428,0,0,0,0.034217,0.0017923,0.010803,-2.7714,0.015604,0.028989,8.5579e-07,0.4,0.63,0
0.021984,-0.0030492,0.034244,0.0018924,0.010841,-0.0015808,0,0,0.060849,-0.023266,0,-0.0082203,0,0,0,0.034322,0.0018154,0.010841,-2.7908,0.015659,0.029064,8.6313e-07,0.41,0.63,0
0.022594,-0.0030575,0.03435,0.0019347,0.010885,-0.0015887,0,0,0.061008,-0.023272,0,-0.0082612,0,0,0,0.034428,0.0018571,0.010885,-2.7991,0.015724,0.029126,8.7003e-07,0.42,0.63,0
0.023205,-0.003059,0.034459,0.0019944,0.010936,-0.0015854,0,0,0.06116,-0.023248,0,-0.0082439,0,0,0,0.034537,0.0019172,0.010936,-2.7891,0.015797,0.029175,8.7656e-07,0.43,0.63,0
0.023817,-0.0030529,0.034574,0.0020701,0.010993,-0.0015655,0,0,0.06131,-0.0232,0,-0.0081408,0,0,0,0.034649,0.0019949,0.010993,-2.7511,0.015879,0.029214,8.8288e-07,0.44,0.63,0
0.024431,-0.0030375,0.034698,0.0021594,0.011057,-0.0015221,0,0,0.061466,-0.023134,0,-0.0079152,0,0,0,0.034769,0.0020884,0.011057,-2.6725,0.015971,0.029247,8.8923e-07,0.45,0.63,0
0.025046,-0.0030111,0.034836,0.0022588,0.011128,-0.0014456,0,0,0.06164,-0.023061,0,-0.0075172,0,0,0,0.0349,0.0021948,0.011128,-2.5359,0.016074,0.029279,8.9608e-07,0.46,0.63,0
0.025664,-0.0029715,0.035001,0.0023632,0.011209,-0.001322,0,0,0.061859,-0.023,0,-0.0068744,0,0,0,0.035055,0.0023097,0.011209,-2.3157,0.016191,0.029326,9.045e-07,0.47,0.63,0
0.026283,-0.0029157,0.035229,0.0024655,0.011309,-0.0011314,0,0,0.062195,-0.022992,0,-0.0058832,0,0,0,0.035269,0.0024264,0.011309,-1.9753,0.016334,0.029424,9.1768e-07,0.48,0.63,0
0.026908,-0.0028397,0.035621,0.0025461,0.01145,-0.00086847,0,0,0.062844,-0.023151,0,-0.0045161,0,0,0,0.035644,0.0025233,0.01145,-1.5031,0.016539,0.029681,9.4481e-07,0.49,0.63,0
0.02754,-0.002741,0.036193,0.0024767,0.011601,-0.00057939,0,0,0.06394,-0.023723,0,-0.0030128,0,0,0,0.036203,0.0024668,0.011601,-0.98419,0.016757,0.030223,9.9346e-07,0.5,0.63,0
0.028186,-0.0026179,0.037076,0.0025846,0.011898,-7.5394e-05,0,0,0.065463,-0.024216,0,-0.00039205,0,0,0,0.037076,0.0025844,0.011898,-0.12524,0.017186,0.030906,1.0649e-06,0.51,0.63,0
0.02885,-0.0024304,0.042412,0.00061339,0.012908,-0.00084344,0,0,0.05331,-0.021887,0,-0.0031,0,0,0,0.042429,0.00059632,0.012908,-1.1724,0.018644,0.037238,1.9519e-06,0.52,0.63,0
0.029318,-0.0023272,0.034143,0.00060716,0.010425,0.00093234,0,0,0.042533,-0.017403,0,0.0038642,0,0,0,0.034174,0.00057597,0.010425,1.776,0.015058,0.029916,1.0417e-06,0.53,0.63,0
0.029658,-0.0023301,0.037622,-0.00036509,0.011177,0.00042678,0,0,0.034378,-0.015005,0,0.0011096,0,0,0,0.037626,-0.00036988,0.011177,0.64361,0.016144,0.033739,1.2219e-06,0.54,0.63,0
0.030005,-0.0023449,0.037475,-0.0008514,0.010987,0.00027855,0,0,0.034434,-0.01539,0,0.00072424,0,0,0,0.037477,-0.00085343,0.010987,0.4164,0.01587,0.033994,1.2234e-06,0.55,0.63,0
0.030346,-0.0023491,0.036962,-0.00057095,0.010917,0.00029037,0,0,0.033858,-0.014935,0,0.00075497,0,0,0,0.036964,-0.0005732,0.010917,0.44323,0.015769,0.033313,1.1653e-06,0.56,0.63,0
0.030682,-0.0023513,0.036633,-0.00062667,0.010802,0.00021185,0,0,0.03358,-0.014857,0,0.00055081,0,0,0,0.036634,-0.00062788,0.010802,0.32576,0.015603,0.033063,1.1362e-06,0.57,0.63,0
0.031018,-0.0023543,0.036608,-0.00059577,0.010804,0.00013767,0,0,0.033545,-0.014819,0,0.00035795,0,0,0,0.036608,-0.00059628,0.010804,0.21202,0.015605,0.033015,1.1329e-06,0.58,0.63,0
0.031353,-0.0023577,0.036608,-0.00058676,0.010806,9.3822e-05,0,0,0.033542,-0.014811,0,0.00024394,0,0,0,0.036608,-0.000587,0.010806,0.14453,0.015609,0.033007,1.1325e-06,0.59,0.63,0
0.031689,-0.0023615,0.036619,-0.00058768,0.010809,5.9744e-05,0,0,0.033553,-0.014816,0,0.00015533,0,0,0,0.036619,-0.00058777,0.010809,0.092001,0.015614,0.033018,1.1336e-06,0.6,0.63,0
0.032024,-0.0023656,0.036629,-0.00059976,0.010809,3.6748e-05,0,0,0.033566,-0.014831,0,9.5543e-05,0,0,0,0.036629,-0.00059979,0.010809,0.056556,0.015612,0.033036,1.1349e-06,0.61,0.63,0
0.03236,-0.0023699,0.036638,-0.00060896,0.010809,2.0893e-05,0,0,0.033578,-0.014843,0,5.4323e-05,0,0,0,0.036638,-0.00060897,0.010809,0.03214,0.015612,0.033052,1.136e-06,0.62,0.63,0
0.032696,-0.0023742,0.036645,-0.00061225,0.01081,6.7717e-06,0,0,0.033585,-0.014849,0,1.7606e-05,0,0,0,0.036645,-0.00061226,0.01081,0.010414,0.015614,0.03306,1.1367e-06,0.63,0.63,0
0.033032,-0.0023786,0.036649,-0.00061232,0.010811,-9.932e-06,0,0,0.03359,-0.01485,0,-2.5823e-05,0,0,0,0.036649,-0.00061233,0.010811,-0.015272,0.015616,0.033065,1.1372e-06,0.64,0.63,0
0.033368,-0.0023832,0.036654,-0.00061299,0.010812,-3.0975e-05,0,0,0.033594,-0.014853,0,-8.0536e-05,0,0,0,0.036654,-0.00061301,0.010812,-0.047623,0.015618,0.033069,1.1376e-06,0.65,0.63,0
0.033704,-0.0023881,0.036661,-0.00061704,0.010813,-5.6191e-05,0,0,0.033602,-0.014859,0,-0.0001461,0,0,0,0.036661,-0.00061712,0.010813,-0.086365,0.015619,0.033078,1.1384e-06,0.66,0.63,0
0.03404,-0.0023932,0.03667,-0.00062601,0.010813,-8.4822e-05,0,0,0.033614,-0.014871,0,-0.00022054,0,0,0,0.036671,-0.0006262,0.010813,-0.13031,0.015619,0.033095,1.1396e-06,0.67,0.63,0
0.034376,-0.0023987,0.036684,-0.00064096,0.010813,-0.00011592,0,0,0.033632,-0.01489,0,-0.0003014,0,0,0,0.036684,-0.00064132,0.010813,-0.17795,0.015619,0.033119,1.1413e-06,0.68,0.63,0
0.034712,-0.0024046,0.036702,-0.00066243,0.010812,-0.00014853,0,0,0.033657,-0.014916,0,-0.00038618,0,0,0,0.036702,-0.00066302,0.010812,-0.22776,0.015617,0.033152,1.1437e-06,0.69,0.63,0
0.035049,-0.0024109,0.036724,-0.00069049,0.01081,-0.00018167,0,0,0.033688,-0.014951,0,-0.00047233,0,0,0,0.036725,-0.00069137,0.01081,-0.27819,0.015614,0.033195,1.1467e-06,0.7,0.63,0
0.035386,-0.0024176,0.03675,-0.0007247,0.010808,-0.00021441,0,0,0.033725,-0.014992,0,-0.00055746,0,0,0,0.036751,-0.00072592,0.010808,-0.3278,0.015611,0.033246,1.1502e-06,0.71,0.63,0
0.035723,-0.0024246,0.03678,-0.0007641,0.010805,-0.00024591,0,0,0.033768,-0.01504,0,-0.00063938,0,0,0,0.036782,-0.00076572,0.010805,-0.37527,0.015607,0.033305,1.1543e-06,0.72,0.63,0
0.036061,-0.0024319,0.036813,-0.00080725,0.010802,-0.00027561,0,0,0.033815,-0.015092,0,-0.00071659,0,0,0,0.036815,-0.00080927,0.010802,-0.41973,0.015603,0.03337,1.1588e-06,0.73,0.63,0
0.0364,-0.0024396,0.036848,-0.0008514,0.010799,-0.00030363,0,0,0.033863,-0.015145,0,-0.00078942,0,0,0,0.03685,-0.00085384,0.010799,-0.46141,0.015598,0.033437,1.1635e-06,0.74,0.63,0
0.036739,-0.0024475,0.036882,-0.0008928,0.010797,-0.00033214,0,0,0.033911,-0.015196,0,-0.00086356,0,0,0,0.036885,-0.00089572,0.010797,-0.50372,0.015595,0.033501,1.1681e-06,0.75,0.63,0
0.037078,-0.0024557,0.036916,-0.00092891,0.010796,-0.00036597,0,0,0.033956,-0.015243,0,-0.00095152,0,0,0,0.03692,-0.00093244,0.010796,-0.55399,0.015595,0.033562,1.1726e-06,0.76,0.63,0
0.037418,-0.0024643,0.036952,-0.00096289,0.010797,-0.00041106,0,0,0.034002,-0.015288,0,-0.0010688,0,0,0,0.036957,-0.00096734,0.010797,-0.62108,0.015595,0.033623,1.1772e-06,0.77,0.63,0
0.037758,-0.0024735,0.036989,-0.0010083,0.010794,-0.00047178,0,0,0.034054,-0.015343,0,-0.0012266,0,0,0,0.036995,-0.0010142,0.010794,-0.71124,0.015592,0.033695,1.1823e-06,0.78,0.63,0
0.038099,-0.0024834,0.037041,-0.0010631,0.010793,-0.00054738,0,0,0.034122,-0.015413,0,-0.0014232,0,0,0,0.037048,-0.001071,0.010793,-0.82286,0.01559,0.033788,1.1891e-06,0.79,0.63,0
0.038441,-0.0024942,0.037122,-0.0011361,0.010796,-0.00065858,0,0,0.034224,-0.015512,0,-0.0017123,0,0,0,0.037134,-0.0011474,0.010796,-0.9859,0.015594,0.033925,1.1997e-06,0.8,0.63,0
0.038783,-0.0025061,0.037518,-0.0011189,0.01092,-0.00077525,0,0,0.034577,-0.01565,0,-0.0020156,0,0,0,0.037533,-0.0011344,0.01092,-1.149,0.015773,0.034269,1.238e-06,0.81,0.63,0
0.039132,-0.0025162,0.038077,-0.001444,0.01099,-0.00080266,0,0,0.035213,-0.016164,0,-0.0020869,0,0,0,0.038093,-0.0014603,0.01099,-1.163,0.015874,0.035029,1.3044e-06,0.82,0.63,0
0.039488,-0.0025162,0.038343,-0.00087396,0.011241,-0.00099185,0,0,0.035233,-0.015749,0,-0.0025788,0,0,0,0.038368,-0.00089903,0.011241,-1.4479,0.016237,0.034822,1.3137e-06,0.83,0.63,0
0.039837,-0.002529,0.034846,0.00011415,0.010488,-0.0014897,0,0,0.043684,-0.018398,0,-0.0059038,0,0,0,0.034916,4.4374e-05,0.010488,-2.6437,0.01515,0.030999,1.1291e-06,0.84,0.63,0
0.040317,-0.0026558,0.043137,-0.00028646,0.012855,0.00019624,0,0,0.054698,-0.023406,0,0.00069271,0,0,0,0.043138,-0.00028735,0.012855,0.25562,0.018569,0.038573,2.0995e-06,0.85,0.63,0
0.040997,-0.0028784,0.037749,0.0020297,0.011934,-0.00053665,0,0,0.06712,-0.02575,0,-0.0027906,0,0,0,0.037757,0.0020216,0.011934,-0.86055,0.017237,0.031954,1.1482e-06,0.86,0.63,0
0.04166,-0.0030311,0.036913,0.0019117,0.011647,-1.9444e-05,0,0,0.06569,-0.025312,0,-0.00010111,0,0,0,0.036913,0.0019117,0.011647,-0.03183,0.016824,0.03129,1.0752e-06,0.87,0.63,0
0.042311,-0.0031579,0.036396,0.0019591,0.011507,0.0002498,0,0,0.064713,-0.024824,0,0.001299,0,0,0,0.036398,0.0019573,0.011507,0.41559,0.016621,0.030797,1.0283e-06,0.88,0.63,0
0.042954,-0.0032606,0.036063,0.0018311,0.011368,0.00048349,0,0,0.064206,-0.024796,0,0.0025142,0,0,0,0.03607,0.0018243,0.011368,0.80903,0.016421,0.03061,1.0047e-06,0.89,0.63,0
0.043595,-0.0033425,0.035899,0.0016694,0.01127,0.00063114,0,0,0.064034,-0.024963,0,0.0032819,0,0,0,0.035911,0.0016578,0.01127,1.056,0.01628,0.030601,9.9693e-07,0.9,0.63,0
0.044235,-0.0034078,0.035803,0.0015036,0.011192,0.00069901,0,0,0.063988,-0.025189,0,0.0036349,0,0,0,0.035817,0.0014894,0.011192,1.167,0.016166,0.03065,9.9468e-07,0.91,0.63,0
0.044875,-0.00346,0.035734,0.0013449,0.011124,0.00070995,0,0,0.063987,-0.025425,0,0.0036917,0,0,0,0.035749,0.0013303,0.011124,1.1822,0.016068,0.030716,9.9425e-07,0.92,0.63,0
0.045514,-0.0035016,0.035681,0.0011997,0.011064,0.00068076,0,0,0.064004,-0.025648,0,0.00354,0,0,0,0.035695,0.0011863,0.011064,1.1306,0.015982,0.030782,9.9445e-07,0.93,0.63,0
0.046155,-0.0035346,0.035639,0.0010712,0.011013,0.00062292,0,0,0.064028,-0.025849,0,0.0032392,0,0,0,0.035651,0.00106,0.011013,1.032,0.015908,0.030843,9.9485e-07,0.94,0.63,0
0.046795,-0.0035605,0.035606,0.00096118,0.01097,0.00054433,0,0,0.064053,-0.026023,0,0.0028305,0,0,0,0.035614,0.00095263,0.01097,0.89993,0.015846,0.030896,9.9529e-07,0.95,0.63,0
0.047436,-0.0035803,0.03558,0.00087059,0.010935,0.00045074,0,0,0.064076,-0.026168,0,0.0023438,0,0,0,0.035585,0.00086474,0.010935,0.74389,0.015795,0.03094,9.9568e-07,0.96,0.63,0
0.048077,-0.0035949,0.03556,0.00079992,0.010908,0.00034642,0,0,0.064095,-0.026281,0,0.0018014,0,0,0,0.035563,0.00079647,0.010908,0.57094,0.015756,0.030975,9.9601e-07,0.97,0.63,0
0.048718,-0.003605,0.035546,0.00074937,0.010889,0.00023475,0,0,0.064109,-0.026362,0,0.0012207,0,0,0,0.035548,0.00074779,0.010889,0.38651,0.015728,0.030999,9.9624e-07,0.98,0.63,0
0.049359,-0.0036108,0.035538,0.00071903,0.010877,0.00011848,0,0,0.064118,-0.026411,0,0.00061608,0,0,0,0.035538,0.00071863,0.010877,0.19496,0.015711,0.031014,9.9638e-07,0.99,0.63,0
0.05,-0.0036127,0.035535,0.00070892,0.010873,-3.7037e-05,0,0,0.064121,-0.026427,0,-0.00019259,0,0,0,0.035535,0.00070888,0.010873,-0.060934,0.015706,0.031019,9.9644e-07,1,0.63,0
0,0,0.028848,0.012363,0.012363,-0.0023888,0,0,0.04286,1.6263e-19,0,-0.012422,0,0,0,0.029187,0.012024,0.012363,-8.0814,0.017858,0.016996,2.5181e-07,0,0.64,0
0.0004286,-0.00012422,0.028802,0.011821,0.012187,-0.0023865,0,0,0.043199,-0.00095174,0,-0.01241,0,0,0,0.029131,0.011492,0.012187,-7.8499,0.017603,0.017302,2.6457e-07,0.01,0.64,0
0.00086398,-0.0002473,0.028984,0.01138,0.012109,-0.002373,0,0,0.043874,-0.0018949,0,-0.01234,0,0,0,0.029298,0.011066,0.012109,-7.5444,0.017491,0.017733,2.8308e-07,0.02,0.64,0
0.0013061,-0.00036923,0.029165,0.010945,0.012033,-0.0023586,0,0,0.044543,-0.002829,0,-0.012264,0,0,0,0.029465,0.010644,0.012033,-7.2575,0.017381,0.018166,3.0186e-07,0.03,0.64,0
0.0017548,-0.00048995,0.029345,0.010514,0.011958,-0.0023427,0,0,0.045206,-0.0037534,0,-0.012182,0,0,0,0.029632,0.010227,0.011958,-6.9861,0.017272,0.0186,3.2086e-07,0.04,0.64,0
0.0022102,-0.00060939,0.029523,0.010088,0.011883,-0.002325,0,0,0.045863,-0.0046673,0,-0.01209,0,0,0,0.029797,0.009814,0.011883,-6.7279,0.017165,0.019033,3.4005e-07,0.05,0.64,0
0.0026721,-0.00072746,0.0297,0.009668,0.01181,-0.0023053,0,0,0.046512,-0.0055697,0,-0.011987,0,0,0,0.029961,0.0094062,0.01181,-6.4809,0.017059,0.019465,3.5936e-07,0.06,0.64,0
0.0031404,-0.00084407,0.029874,0.0092539,0.011738,-0.0022832,0,0,0.047153,-0.0064596,0,-0.011873,0,0,0,0.030124,0.0090041,0.011738,-6.2435,0.016955,0.019894,3.7875e-07,0.07,0.64,0
0.0036152,-0.00095912,0.030046,0.0088464,0.011668,-0.0022588,0,0,0.047784,-0.0073356,0,-0.011746,0,0,0,0.030284,0.0086084,0.011668,-6.0148,0.016854,0.02032,3.9816e-07,0.08,0.64,0
0.0040961,-0.0010725,0.030216,0.0084461,0.011599,-0.0022319,0,0,0.048405,-0.0081965,0,-0.011606,0,0,0,0.030443,0.0082197,0.011599,-5.7938,0.016754,0.020741,4.1754e-07,0.09,0.64,0
0.0045832,-0.0011841,0.030383,0.0080536,0.011531,-0.0022026,0,0,0.049015,-0.0090411,0,-0.011453,0,0,0,0.030598,0.0078384,0.011531,-5.58,0.016656,0.021157,4.3684e-07,0.1,0.64,0
0.0050764,-0.0012937,0.030547,0.0076695,0.011465,-0.0021709,0,0,0.049613,-0.0098681,0,-0.011289,0,0,0,0.030751,0.0074653,0.011465,-5.3731,0.01656,0.021566,4.5599e-07,0.11,0.64,0
0.0055755,-0.0014013,0.030707,0.0072943,0.0114,-0.0021371,0,0,0.050198,-0.010676,0,-0.011113,0,0,0,0.030901,0.0071008,0.0114,-5.1729,0.016467,0.021968,4.7496e-07,0.12,0.64,0
0.0060804,-0.0015068,0.030865,0.0069286,0.011338,-0.0021014,0,0,0.050769,-0.011464,0,-0.010927,0,0,0,0.031048,0.0067456,0.011338,-4.9793,0.016377,0.022362,4.9369e-07,0.13,0.64,0
0.0065909,-0.0016099,0.031018,0.006573,0.011277,-0.002064,0,0,0.051326,-0.012231,0,-0.010733,0,0,0,0.031191,0.0064,0.011277,-4.7925,0.016289,0.022748,5.1214e-07,0.14,0.64,0
0.0071069,-0.0017107,0.031168,0.006228,0.011219,-0.0020253,0,0,0.051867,-0.012976,0,-0.010531,0,0,0,0.031331,0.0060646,0.011219,-4.6126,0.016205,0.023124,5.3027e-07,0.15,0.64,0
0.0076282,-0.001809,0.031313,0.0058941,0.011162,-0.0019856,0,0,0.052393,-0.013697,0,-0.010325,0,0,0,0.031468,0.0057399,0.011162,-4.4398,0.016123,0.023491,5.4804e-07,0.16,0.64,0
0.0081548,-0.0019047,0.031455,0.0055716,0.011108,-0.0019454,0,0,0.052902,-0.014395,0,-0.010116,0,0,0,0.0316,0.0054262,0.011108,-4.2743,0.016045,0.023846,5.6542e-07,0.17,0.64,0
0.0086863,-0.0019977,0.031593,0.0052609,0.011056,-0.001905,0,0,0.053395,-0.015067,0,-0.0099059,0,0,0,0.03173,0.0051238,0.011056,-4.1165,0.01597,0.024192,5.8238e-07,0.18,0.64,0
0.0092227,-0.002088,0.031726,0.0049625,0.011007,-0.0018648,0,0,0.053871,-0.015715,0,-0.0096971,0,0,0,0.031856,0.0048332,0.011007,-3.9667,0.015898,0.024525,5.9889e-07,0.19,0.64,0
0.0097637,-0.0021755,0.031856,0.0046766,0.01096,-0.0018254,0,0,0.05433,-0.016336,0,-0.0094919,0,0,0,0.031978,0.0045546,0.01096,-3.8251,0.015831,0.024848,6.1495e-07,0.2,0.64,0
0.010309,-0.00226,0.031982,0.0044035,0.010915,-0.001787,0,0,0.054772,-0.016931,0,-0.0092926,0,0,0,0.032097,0.0042882,0.010915,-3.6922,0.015767,0.025159,6.3052e-07,0.21,0.64,0
0.010859,-0.0023417,0.032103,0.0041434,0.010874,-0.0017503,0,0,0.055196,-0.0175,0,-0.0091014,0,0,0,0.032212,0.0040342,0.010874,-3.5681,0.015707,0.025457,6.4561e-07,0.22,0.64,0
0.011413,-0.0024204,0.032222,0.0038965,0.010835,-0.0017155,0,0,0.055604,-0.018041,0,-0.0089205,0,0,0,0.032325,0.003793,0.010835,-3.4532,0.015651,0.025744,6.602e-07,0.23,0.64,0
0.011971,-0.0024961,0.032336,0.003663,0.0108,-0.001683,0,0,0.055994,-0.018555,0,-0.0087519,0,0,0,0.032434,0.0035646,0.0108,-3.3478,0.0156,0.026018,6.7428e-07,0.24,0.64,0
0.012533,-0.0025687,0.032447,0.0034431,0.010767,-0.0016534,0,0,0.056368,-0.019042,0,-0.0085977,0,0,0,0.032541,0.0033492,0.010767,-3.2522,0.015552,0.02628,6.8787e-07,0.25,0.64,0
0.013099,-0.0026383,0.032555,0.0032369,0.010738,-0.0016269,0,0,0.056725,-0.019502,0,-0.0084597,0,0,0,0.032645,0.0031469,0.010738,-3.1664,0.01551,0.02653,7.0095e-07,0.26,0.64,0
0.013668,-0.0027049,0.03266,0.0030446,0.010711,-0.0016038,0,0,0.057065,-0.019933,0,-0.0083397,0,0,0,0.032746,0.002958,0.010711,-3.0908,0.015472,0.026767,7.1352e-07,0.27,0.64,0
0.01424,-0.0027683,0.032761,0.0028663,0.010688,-0.0015845,0,0,0.05739,-0.020337,0,-0.0082393,0,0,0,0.032845,0.0027826,0.010688,-3.0255,0.015439,0.026992,7.2559e-07,0.28,0.64,0
0.014815,-0.0028286,0.03286,0.0027022,0.010669,-0.0015692,0,0,0.057698,-0.020713,0,-0.0081597,0,0,0,0.032942,0.0026207,0.010669,-2.9705,0.01541,0.027205,7.3717e-07,0.29,0.64,0
0.015394,-0.0028857,0.032957,0.0025523,0.010653,-0.0015581,0,0,0.057991,-0.021061,0,-0.008102,0,0,0,0.033036,0.0024727,0.010653,-2.9259,0.015387,0.027405,7.4824e-07,0.3,0.64,0
0.015975,-0.0029397,0.033051,0.002417,0.01064,-0.0015513,0,0,0.058267,-0.021381,0,-0.008067,0,0,0,0.033129,0.0023386,0.01064,-2.8917,0.015369,0.027593,7.5882e-07,0.31,0.64,0
0.016559,-0.0029905,0.033143,0.0022963,0.010632,-0.001549,0,0,0.058528,-0.021672,0,-0.0080551,0,0,0,0.03322,0.0022187,0.010632,-2.8677,0.015357,0.027768,7.6891e-07,0.32,0.64,0
0.017146,-0.0030379,0.033232,0.0021905,0.010627,-0.0015512,0,0,0.058774,-0.021934,0,-0.0080661,0,0,0,0.033309,0.0021132,0.010627,-2.8536,0.01535,0.02793,7.7849e-07,0.33,0.64,0
0.017735,-0.003082,0.03332,0.0020998,0.010626,-0.0015576,0,0,0.059004,-0.022168,0,-0.0080993,0,0,0,0.033397,0.0020223,0.010626,-2.8491,0.015348,0.02808,7.8758e-07,0.34,0.64,0
0.018326,-0.0031226,0.033405,0.0020245,0.010629,-0.001568,0,0,0.059219,-0.022371,0,-0.0081534,0,0,0,0.033483,0.0019464,0.010629,-2.8534,0.015353,0.028216,7.9615e-07,0.35,0.64,0
0.018919,-0.0031596,0.033489,0.0019648,0.010636,-0.0015819,0,0,0.059417,-0.022545,0,-0.0082261,0,0,0,0.033568,0.0018856,0.010636,-2.8656,0.015363,0.028339,8.042e-07,0.36,0.64,0
0.019514,-0.0031927,0.033571,0.001921,0.010648,-0.0015988,0,0,0.059601,-0.022689,0,-0.0083139,0,0,0,0.033652,0.0018404,0.010648,-2.8845,0.01538,0.028449,8.1173e-07,0.37,0.64,0
0.020111,-0.0032217,0.033651,0.0018931,0.010663,-0.0016177,0,0,0.059769,-0.022803,0,-0.0084119,0,0,0,0.033734,0.0018109,0.010663,-2.9085,0.015403,0.028545,8.1871e-07,0.38,0.64,0
0.02071,-0.0032463,0.03373,0.0018812,0.010684,-0.0016373,0,0,0.059922,-0.022886,0,-0.0085137,0,0,0,0.033814,0.0017973,0.010684,-2.935,0.015432,0.028628,8.2516e-07,0.39,0.64,0
0.021309,-0.0032661,0.033808,0.0018853,0.010708,-0.0016558,0,0,0.060061,-0.022939,0,-0.0086104,0,0,0,0.033894,0.0017997,0.010708,-2.9613,0.015467,0.028697,8.3106e-07,0.4,0.64,0
0.021911,-0.0032804,0.033886,0.0019049,0.010737,-0.0016713,0,0,0.060186,-0.022964,0,-0.0086906,0,0,0,0.033973,0.0018178,0.010737,-2.9833,0.015509,0.028753,8.3645e-07,0.41,0.64,0
0.022513,-0.0032887,0.033964,0.0019391,0.010771,-0.0016807,0,0,0.060302,-0.022963,0,-0.0087397,0,0,0,0.034052,0.0018512,0.010771,-2.996,0.015558,0.028796,8.4138e-07,0.42,0.64,0
0.023117,-0.0032901,0.034044,0.0019864,0.010809,-0.0016806,0,0,0.06041,-0.022939,0,-0.0087391,0,0,0,0.034132,0.0018985,0.010809,-2.9928,0.015613,0.02883,8.4595e-07,0.43,0.64,0
0.023721,-0.0032834,0.034127,0.0020441,0.010851,-0.0016664,0,0,0.060517,-0.022899,0,-0.0086652,0,0,0,0.034214,0.0019578,0.010851,-2.9653,0.015674,0.028856,8.5035e-07,0.44,0.64,0
0.024327,-0.0032675,0.034218,0.0021085,0.010898,-0.0016324,0,0,0.060633,-0.022853,0,-0.0084882,0,0,0,0.034301,0.0020257,0.010898,-2.9027,0.015742,0.02888,8.549e-07,0.45,0.64,0
0.024934,-0.0032407,0.034322,0.0021734,0.010949,-0.0015713,0,0,0.060771,-0.022816,0,-0.0081707,0,0,0,0.034399,0.0020968,0.010949,-2.7915,0.015815,0.028911,8.6015e-07,0.46,0.64,0
0.025543,-0.0032008,0.03445,0.0022293,0.011004,-0.001475,0,0,0.06096,-0.022813,0,-0.0076698,0,0,0,0.034517,0.0021619,0.011004,-2.6155,0.015894,0.028965,8.6717e-07,0.47,0.64,0
0.026153,-0.0031455,0.034614,0.0022578,0.011062,-0.0013387,0,0,0.061237,-0.02289,0,-0.0069614,0,0,0,0.03467,0.0022025,0.011062,-2.3652,0.015978,0.029069,8.7772e-07,0.48,0.64,0
0.026767,-0.0030721,0.034793,0.0022138,0.011102,-0.0011696,0,0,0.061597,-0.02311,0,-0.0060818,0,0,0,0.034835,0.0021719,0.011102,-2.0533,0.016036,0.02924,8.9171e-07,0.49,0.64,0
0.027385,-0.0029776,0.034847,0.002063,0.011073,-0.00096661,0,0,0.061813,-0.023426,0,-0.0050264,0,0,0,0.034876,0.0020346,0.011073,-1.6874,0.015994,0.029384,8.9941e-07,0.5,0.64,0
0.028004,-0.0028548,0.034771,0.0019488,0.011016,-0.00059502,0,0,0.061763,-0.023575,0,-0.0030941,0,0,0,0.034782,0.0019381,0.011016,-1.0382,0.015912,0.029376,8.9513e-07,0.51,0.64,0
0.028621,-0.0026839,0.035267,0.00097986,0.010874,-0.0005479,0,0,0.063422,-0.025725,0,-0.0028491,0,0,0,0.035276,0.00097111,0.010874,-0.91525,0.015707,0.030581,9.6631e-07,0.52,0.64,0
0.029272,-0.0025128,0.039206,0.00011939,0.011798,-0.00051535,0,0,0.050029,-0.021083,0,-0.0019165,0,0,0,0.039213,0.00011257,0.011798,-0.76502,0.017041,0.034764,1.513e-06,0.53,0.64,0
0.029697,-0.0024825,0.031586,-0.00011668,0.0094409,0.0011651,0,0,0.039406,-0.01683,0,0.0043816,0,0,0,0.03163,-0.00016067,0.0094409,2.2019,0.013637,0.028243,8.6931e-07,0.54,0.64,0
0.03003,-0.0024984,0.036029,-0.00064746,0.010615,0.00023641,0,0,0.033039,-0.014641,0,0.00061466,0,0,0,0.036031,-0.00064898,0.010615,0.36929,0.015332,0.032544,1.082e-06,0.55,0.64,0
0.030357,-0.0024966,0.035992,-0.00075222,0.010572,0.00031177,0,0,0.033046,-0.014721,0,0.00081059,0,0,0,0.035994,-0.00075486,0.010572,0.4861,0.01527,0.032597,1.0819e-06,0.56,0.64,0
0.03069,-0.0024993,0.036389,-0.00060216,0.010736,0.00014936,0,0,0.033349,-0.01474,0,0.00038833,0,0,0,0.036389,-0.00060276,0.010736,0.23134,0.015508,0.032826,1.113e-06,0.57,0.64,0
0.031024,-0.0025021,0.036492,-0.00058158,0.010773,0.00011776,0,0,0.033435,-0.014761,0,0.00030618,0,0,0,0.036493,-0.00058195,0.010773,0.18199,0.015561,0.032901,1.1218e-06,0.58,0.64,0
0.031359,-0.0025056,0.03656,-0.00054352,0.010805,7.387e-05,0,0,0.033481,-0.014753,0,0.00019206,0,0,0,0.03656,-0.00054367,0.010805,0.11407,0.015607,0.03293,1.1268e-06,0.59,0.64,0
0.031694,-0.0025095,0.036582,-0.00056323,0.010805,4.1165e-05,0,0,0.033509,-0.014779,0,0.00010703,0,0,0,0.036582,-0.00056327,0.010805,0.063497,0.015608,0.032965,1.1294e-06,0.6,0.64,0
0.032029,-0.0025138,0.036601,-0.00058948,0.010803,2.2704e-05,0,0,0.033537,-0.014811,0,5.9032e-05,0,0,0,0.036601,-0.00058949,0.010803,0.034979,0.015605,0.033003,1.132e-06,0.61,0.64,0
0.032365,-0.0025182,0.036614,-0.00060178,0.010804,1.4437e-05,0,0,0.033553,-0.014827,0,3.7537e-05,0,0,0,0.036614,-0.00060178,0.010804,0.022227,0.015605,0.033024,1.1335e-06,0.62,0.64,0
0.0327,-0.0025226,0.036619,-0.00059909,0.010806,5.2041e-06,0,0,0.033557,-0.014827,0,1.3531e-05,0,0,0,0.036619,-0.00059909,0.010806,0.0080115,0.015609,0.033028,1.134e-06,0.63,0.64,0
0.033036,-0.002527,0.036621,-0.00059187,0.010809,-1.1379e-05,0,0,0.033556,-0.014821,0,-2.9585e-05,0,0,0,0.036621,-0.00059187,0.010809,-0.01752,0.015613,0.033023,1.1339e-06,0.64,0.64,0
0.033371,-0.0025316,0.036623,-0.00058769,0.010811,-3.4759e-05,0,0,0.033556,-0.014818,0,-9.0373e-05,0,0,0,0.036623,-0.00058773,0.010811,-0.053521,0.015615,0.033021,1.1339e-06,0.65,0.64,0
0.033707,-0.0025365,0.036627,-0.00058787,0.010812,-6.3324e-05,0,0,0.03356,-0.01482,0,-0.00016464,0,0,0,0.036627,-0.00058798,0.010812,-0.097493,0.015617,0.033025,1.1344e-06,0.66,0.64,0
0.034043,-0.0025417,0.036636,-0.00059382,0.010812,-9.5699e-05,0,0,0.03357,-0.014828,0,-0.00024882,0,0,0,0.036636,-0.00059407,0.010812,-0.14728,0.015618,0.033038,1.1354e-06,0.67,0.64,0
0.034378,-0.0025474,0.036648,-0.00060671,0.010812,-0.00013085,0,0,0.033586,-0.014845,0,-0.00034021,0,0,0,0.036648,-0.00060717,0.010812,-0.20123,0.015618,0.03306,1.1369e-06,0.68,0.64,0
0.034714,-0.0025535,0.036664,-0.0006271,0.010811,-0.00016767,0,0,0.033609,-0.01487,0,-0.00043594,0,0,0,0.036665,-0.00062786,0.010811,-0.2576,0.015616,0.033091,1.1391e-06,0.69,0.64,0
0.035051,-0.0025602,0.036685,-0.00065506,0.010809,-0.00020513,0,0,0.033639,-0.014903,0,-0.00053335,0,0,0,0.036686,-0.00065619,0.010809,-0.31475,0.015613,0.033133,1.142e-06,0.7,0.64,0
0.035387,-0.0025672,0.03671,-0.00069007,0.010806,-0.00024218,0,0,0.033675,-0.014945,0,-0.00062966,0,0,0,0.036712,-0.00069164,0.010806,-0.37099,0.015609,0.033184,1.1455e-06,0.71,0.64,0
0.035724,-0.0025748,0.03674,-0.00073101,0.010803,-0.00027786,0,0,0.033718,-0.014994,0,-0.00072243,0,0,0,0.036742,-0.00073307,0.010803,-0.42484,0.015604,0.033244,1.1496e-06,0.72,0.64,0
0.036062,-0.0025827,0.036773,-0.00077647,0.010799,-0.00031096,0,0,0.033766,-0.015048,0,-0.00080851,0,0,0,0.036776,-0.00077905,0.010799,-0.47444,0.015599,0.033311,1.1542e-06,0.73,0.64,0
0.0364,-0.0025909,0.036807,-0.00082506,0.010795,-0.00034016,0,0,0.033817,-0.015106,0,-0.00088442,0,0,0,0.036811,-0.00082813,0.010795,-0.51784,0.015592,0.033381,1.159e-06,0.74,0.64,0
0.036738,-0.0025992,0.036839,-0.00086903,0.010791,-0.00036537,0,0,0.033862,-0.015158,0,-0.00094997,0,0,0,0.036842,-0.00087257,0.010791,-0.55511,0.015587,0.033445,1.1634e-06,0.75,0.64,0
0.037077,-0.0026079,0.036865,-0.00089799,0.01079,-0.0003936,0,0,0.033897,-0.015194,0,-0.0010234,0,0,0,0.036869,-0.00090209,0.01079,-0.59711,0.015586,0.033492,1.1668e-06,0.76,0.64,0
0.037416,-0.0026168,0.036885,-0.00091326,0.010792,-0.00043642,0,0,0.033922,-0.015216,0,-0.0011347,0,0,0,0.03689,-0.0009183,0.010792,-0.66141,0.015588,0.033524,1.1694e-06,0.77,0.64,0
0.037755,-0.0026265,0.036905,-0.00093591,0.010791,-0.00049803,0,0,0.033948,-0.015244,0,-0.0012949,0,0,0,0.036911,-0.00094246,0.010791,-0.75391,0.015586,0.033562,1.1721e-06,0.78,0.64,0
0.038095,-0.0026369,0.03688,-0.0010147,0.010759,-0.00057508,0,0,0.033956,-0.015307,0,-0.0014952,0,0,0,0.036888,-0.0010235,0.010759,-0.86924,0.015541,0.033607,1.1725e-06,0.79,0.64,0
0.038434,-0.0026484,0.036817,-0.0010746,0.010723,-0.00064583,0,0,0.033922,-0.015336,0,-0.0016792,0,0,0,0.036828,-0.0010856,0.010723,-0.97618,0.015488,0.033603,1.1687e-06,0.8,0.64,0
0.038773,-0.0026604,0.036474,-0.0012514,0.010567,-0.00085459,0,0,0.033679,-0.015364,0,-0.0022219,0,0,0,0.036493,-0.0012707,0.010567,-1.297,0.015263,0.033455,1.143e-06,0.81,0.64,0
0.039108,-0.0026774,0.036586,-0.0011842,0.010621,-0.00081151,0,0,0.033755,-0.015346,0,-0.0021099,0,0,0,0.036604,-0.0012016,0.010621,-1.2303,0.015341,0.033497,1.1512e-06,0.82,0.64,0
0.039448,-0.0026755,0.032123,-0.00050696,0.0094849,-0.0017126,0,0,0.040278,-0.017599,0,-0.0063768,0,0,0,0.032215,-0.00059835,0.0094849,-3.1133,0.0137,0.029113,9.31e-07,0.83,0.64,0
0.039882,-0.0027255,0.039723,-0.00065498,0.01172,-0.00012795,0,0,0.051109,-0.022351,0,-0.00044389,0,0,0,0.039723,-0.00065539,0.01172,-0.17661,0.016929,0.035832,1.605e-06,0.84,0.64,0
0.040548,-0.0029275,0.035743,0.00027229,0.010805,-5.3862e-05,0,0,0.06484,-0.027384,0,-0.00028008,0,0,0,0.035743,0.00027221,0.010805,-0.087002,0.015607,0.031552,1.0281e-06,0.85,0.64,0
0.041179,-0.0031298,0.03533,0.0014023,0.01102,-3.8648e-05,0,0,0.063207,-0.025005,0,-0.00020097,0,0,0,0.03533,0.0014023,0.01102,-0.065267,0.015917,0.030287,9.5689e-07,0.86,0.64,0
0.041812,-0.003283,0.035433,0.001515,0.011084,0.00031525,0,0,0.063306,-0.02488,0,0.0016393,0,0,0,0.035436,0.001512,0.011084,0.53247,0.016011,0.030294,9.6198e-07,0.87,0.64,0
0.042445,-0.0034063,0.035437,0.00165,0.011126,0.00049533,0,0,0.063208,-0.024638,0,0.0025757,0,0,0,0.035444,0.0016427,0.011126,0.83974,0.016071,0.030198,9.5836e-07,0.88,0.64,0
0.043076,-0.0035077,0.035316,0.0016604,0.011093,0.00062892,0,0,0.06298,-0.024525,0,0.0032704,0,0,0,0.035328,0.0016486,0.011093,1.0702,0.016023,0.03009,9.486e-07,0.89,0.64,0
0.043705,-0.0035904,0.035212,0.0015865,0.011039,0.00071906,0,0,0.062848,-0.024578,0,0.0037391,0,0,0,0.035227,0.0015712,0.011039,1.2245,0.015946,0.030062,9.4288e-07,0.9,0.64,0
0.044333,-0.0036575,0.035146,0.0014802,0.010988,0.00075871,0,0,0.062812,-0.02472,0,0.0039453,0,0,0,0.035163,0.0014631,0.010988,1.2904,0.015872,0.030091,9.412e-07,0.91,0.64,0
0.044961,-0.0037118,0.035105,0.0013639,0.010941,0.00075384,0,0,0.062828,-0.0249,0,0.00392,0,0,0,0.035122,0.0013471,0.010941,1.2792,0.015803,0.030146,9.4158e-07,0.92,0.64,0
0.045589,-0.0037554,0.035078,0.0012495,0.010898,0.00071446,0,0,0.062867,-0.025087,0,0.0037152,0,0,0,0.035093,0.0012344,0.010898,1.2094,0.015742,0.030209,9.4281e-07,0.93,0.64,0
0.046218,-0.0037903,0.035058,0.0011437,0.010861,0.00064919,0,0,0.062914,-0.025264,0,0.0033758,0,0,0,0.035071,0.0011312,0.010861,1.0962,0.015688,0.030271,9.4429e-07,0.94,0.64,0
0.046848,-0.0038178,0.035044,0.0010503,0.010828,0.00056476,0,0,0.062961,-0.025423,0,0.0029367,0,0,0,0.035054,0.0010409,0.010828,0.95153,0.015641,0.030328,9.4576e-07,0.95,0.64,0
0.047478,-0.003839,0.035034,0.00097185,0.010802,0.00046626,0,0,0.063004,-0.025558,0,0.0024246,0,0,0,0.03504,0.00096547,0.010802,0.7841,0.015603,0.030376,9.4705e-07,0.96,0.64,0
0.048108,-0.0038547,0.035027,0.00090974,0.010781,0.00035765,0,0,0.063039,-0.025665,0,0.0018598,0,0,0,0.03503,0.00090599,0.010781,0.60054,0.015572,0.030414,9.4809e-07,0.97,0.64,0
0.048738,-0.0038656,0.035022,0.00086488,0.010766,0.00024205,0,0,0.063065,-0.025743,0,0.0012587,0,0,0,0.035023,0.00086317,0.010766,0.406,0.015551,0.030442,9.4886e-07,0.98,0.64,0
0.049369,-0.0038719,0.035019,0.00083779,0.010757,0.00012208,0,0,0.06308,-0.02579,0,0.00063482,0,0,0,0.035019,0.00083735,0.010757,0.20464,0.015538,0.030458,9.4932e-07,0.99,0.64,0
0.05,-0.003874,0.035018,0.00082873,0.010754,-4.0114e-05,0,0,0.063086,-0.025805,0,-0.00020859,0,0,0,0.035018,0.00082868,0.010754,-0.067225,0.015534,0.030464,9.4948e-07,1,0.64,0
0,0,0.028817,0.01235,0.01235,-0.0025719,0,0,0.042814,-5.421e-20,0,-0.013374,0,0,0,0.029209,0.011958,0.01235,-8.6736,0.017839,0.017059,2.545e-07,0,0.65,0
0.00042814,-0.00013374,0.02877,0.011807,0.012173,-0.0025694,0,0,0.043153,-0.00095208,0,-0.013361,0,0,0,0.029151,0.011426,0.012173,-8.4267,0.017584,0.017363,2.6718e-07,0.01,0.65,0
0.00086305,-0.00026626,0.028953,0.011366,0.012096,-0.0025548,0,0,0.043828,-0.0018967,0,-0.013285,0,0,0,0.029316,0.011003,0.012096,-8.1005,0.017472,0.017792,2.8561e-07,0.02,0.65,0
0.0013047,-0.00039754,0.029134,0.010929,0.012019,-0.0025392,0,0,0.044499,-0.0028334,0,-0.013204,0,0,0,0.029482,0.010582,0.012019,-7.7934,0.017361,0.018224,3.0433e-07,0.03,0.65,0
0.001753,-0.00052752,0.029314,0.010497,0.011943,-0.0025219,0,0,0.045164,-0.0037611,0,-0.013114,0,0,0,0.029646,0.010164,0.011943,-7.5024,0.017251,0.018656,3.2328e-07,0.04,0.65,0
0.002208,-0.00065611,0.029492,0.010069,0.011868,-0.0025026,0,0,0.045822,-0.004679,0,-0.013013,0,0,0,0.029809,0.0097514,0.011868,-7.225,0.017143,0.019088,3.4242e-07,0.05,0.65,0
0.0026695,-0.00078323,0.029669,0.0096461,0.011794,-0.0024809,0,0,0.046473,-0.0055857,0,-0.012901,0,0,0,0.029972,0.0093433,0.011794,-6.9591,0.017036,0.019519,3.6169e-07,0.06,0.65,0
0.0031374,-0.00090876,0.029843,0.0092295,0.011722,-0.0024567,0,0,0.047115,-0.00648,0,-0.012775,0,0,0,0.030132,0.0089407,0.011722,-6.7033,0.016931,0.019946,3.8102e-07,0.07,0.65,0
0.0036118,-0.0010326,0.030015,0.0088193,0.01165,-0.0024297,0,0,0.047748,-0.0073605,0,-0.012635,0,0,0,0.03029,0.0085444,0.01165,-6.4564,0.016828,0.020371,4.0036e-07,0.08,0.65,0
0.0040924,-0.0011546,0.030184,0.0084164,0.01158,-0.0024,0,0,0.04837,-0.0082258,0,-0.01248,0,0,0,0.030446,0.0081549,0.01158,-6.2177,0.016727,0.020791,4.1965e-07,0.09,0.65,0
0.0045792,-0.0012746,0.03035,0.0080213,0.011511,-0.0023676,0,0,0.048981,-0.0090743,0,-0.012311,0,0,0,0.030599,0.0077731,0.011511,-5.9866,0.016628,0.021205,4.3883e-07,0.1,0.65,0
0.005072,-0.0013925,0.030513,0.0076348,0.011444,-0.0023326,0,0,0.049578,-0.0099047,0,-0.012129,0,0,0,0.030748,0.0073994,0.011444,-5.7627,0.016531,0.021612,4.5785e-07,0.11,0.65,0
0.0055708,-0.0015083,0.030672,0.0072574,0.011379,-0.0022952,0,0,0.050162,-0.010715,0,-0.011935,0,0,0,0.030895,0.0070346,0.011379,-5.546,0.016436,0.022012,4.7664e-07,0.12,0.65,0
0.0060753,-0.0016216,0.030827,0.0068899,0.011315,-0.0022556,0,0,0.050731,-0.011505,0,-0.011729,0,0,0,0.031037,0.0066792,0.011315,-5.3364,0.016344,0.022403,4.9517e-07,0.13,0.65,0
0.0065854,-0.0017324,0.030978,0.0065327,0.011253,-0.0022142,0,0,0.051284,-0.012273,0,-0.011514,0,0,0,0.031177,0.0063337,0.011253,-5.1341,0.016255,0.022785,5.1337e-07,0.14,0.65,0
0.0071009,-0.0018406,0.031124,0.0061864,0.011193,-0.0021714,0,0,0.051821,-0.013018,0,-0.011291,0,0,0,0.031312,0.0059988,0.011193,-4.9393,0.016168,0.023157,5.312e-07,0.15,0.65,0
0.0076218,-0.0019461,0.031267,0.0058516,0.011135,-0.0021274,0,0,0.052341,-0.013738,0,-0.011063,0,0,0,0.031443,0.0056748,0.011135,-4.7521,0.016085,0.023519,5.4864e-07,0.16,0.65,0
0.0081478,-0.0020488,0.031404,0.0055287,0.01108,-0.0020829,0,0,0.052843,-0.014433,0,-0.010831,0,0,0,0.031571,0.0053622,0.01108,-4.5729,0.016004,0.023869,5.6563e-07,0.17,0.65,0
0.0086787,-0.0021485,0.031537,0.0052181,0.011027,-0.0020381,0,0,0.053328,-0.015102,0,-0.010598,0,0,0,0.031694,0.0050612,0.011027,-4.402,0.015927,0.024208,5.8216e-07,0.18,0.65,0
0.0092143,-0.0022453,0.031666,0.0049202,0.010976,-0.0019937,0,0,0.053794,-0.015745,0,-0.010367,0,0,0,0.031814,0.0047724,0.010976,-4.2397,0.015854,0.024535,5.9819e-07,0.19,0.65,0
0.0097545,-0.0023389,0.03179,0.0046352,0.010927,-0.0019499,0,0,0.054242,-0.01636,0,-0.01014,0,0,0,0.031929,0.0044959,0.010927,-4.0864,0.015784,0.02485,6.1371e-07,0.2,0.65,0
0.010299,-0.0024294,0.031909,0.0043635,0.010882,-0.0019074,0,0,0.054671,-0.016948,0,-0.0099186,0,0,0,0.032041,0.004232,0.010882,-3.9424,0.015718,0.025152,6.2869e-07,0.21,0.65,0
0.010848,-0.0025167,0.032024,0.0041052,0.010839,-0.0018665,0,0,0.055082,-0.017507,0,-0.009706,0,0,0,0.032148,0.003981,0.010839,-3.8079,0.015656,0.025441,6.4314e-07,0.22,0.65,0
0.011401,-0.0026008,0.032135,0.0038606,0.010799,-0.0018278,0,0,0.055474,-0.018039,0,-0.0095043,0,0,0,0.032253,0.0037429,0.010799,-3.6834,0.015598,0.025718,6.5702e-07,0.23,0.65,0
0.011957,-0.0026816,0.032241,0.0036298,0.010761,-0.0017915,0,0,0.055848,-0.018542,0,-0.0093158,0,0,0,0.032353,0.003518,0.010761,-3.569,0.015544,0.025982,6.7035e-07,0.24,0.65,0
0.012518,-0.002759,0.032343,0.0034129,0.010727,-0.0017581,0,0,0.056203,-0.019016,0,-0.0091424,0,0,0,0.03245,0.0033064,0.010727,-3.4649,0.015494,0.026233,6.8312e-07,0.25,0.65,0
0.013081,-0.0028332,0.032442,0.0032101,0.010696,-0.0017281,0,0,0.05654,-0.019462,0,-0.008986,0,0,0,0.032544,0.0031082,0.010696,-3.3715,0.015449,0.02647,6.9532e-07,0.26,0.65,0
0.013649,-0.0029039,0.032536,0.0030214,0.010667,-0.0017016,0,0,0.05686,-0.019879,0,-0.0088485,0,0,0,0.032634,0.0029236,0.010667,-3.2887,0.015408,0.026695,7.0696e-07,0.27,0.65,0
0.014219,-0.0029713,0.032627,0.0028471,0.010642,-0.0016791,0,0,0.057161,-0.020268,0,-0.0087313,0,0,0,0.032722,0.0027527,0.010642,-3.2169,0.015372,0.026906,7.1803e-07,0.28,0.65,0
0.014792,-0.0030353,0.032715,0.0026871,0.01062,-0.0016607,0,0,0.057445,-0.020627,0,-0.0086357,0,0,0,0.032806,0.0025955,0.01062,-3.156,0.015341,0.027104,7.2853e-07,0.29,0.65,0
0.015368,-0.0030958,0.032798,0.0025416,0.010602,-0.0016467,0,0,0.057711,-0.020957,0,-0.0085628,0,0,0,0.032888,0.0024523,0.010602,-3.106,0.015314,0.027289,7.3847e-07,0.3,0.65,0
0.015946,-0.0031529,0.032879,0.0024107,0.010587,-0.0016371,0,0,0.057959,-0.021258,0,-0.0085131,0,0,0,0.032967,0.002323,0.010587,-3.0669,0.015292,0.027461,7.4783e-07,0.31,0.65,0
0.016527,-0.0032065,0.032956,0.0022945,0.010575,-0.0016321,0,0,0.058191,-0.02153,0,-0.0084871,0,0,0,0.033043,0.0022079,0.010575,-3.0384,0.015275,0.027619,7.5663e-07,0.32,0.65,0
0.01711,-0.0032565,0.03303,0.0021931,0.010567,-0.0016316,0,0,0.058404,-0.021772,0,-0.0084844,0,0,0,0.033116,0.002107,0.010567,-3.0203,0.015263,0.027763,7.6485e-07,0.33,0.65,0
0.017695,-0.0033028,0.033101,0.0021066,0.010562,-0.0016354,0,0,0.058601,-0.021985,0,-0.0085043,0,0,0,0.033187,0.0020206,0.010562,-3.0121,0.015257,0.027894,7.7248e-07,0.34,0.65,0
0.018282,-0.0033453,0.033169,0.0020352,0.010561,-0.0016433,0,0,0.05878,-0.022168,0,-0.0085454,0,0,0,0.033255,0.0019487,0.010561,-3.0131,0.015255,0.028012,7.7952e-07,0.35,0.65,0
0.01887,-0.0033839,0.033233,0.0019788,0.010564,-0.0016549,0,0,0.058941,-0.022321,0,-0.0086052,0,0,0,0.033321,0.0018915,0.010564,-3.0224,0.015259,0.028115,7.8596e-07,0.36,0.65,0
0.019461,-0.0034184,0.033295,0.0019375,0.01057,-0.0016693,0,0,0.059085,-0.022444,0,-0.0086806,0,0,0,0.033384,0.0018489,0.01057,-3.0387,0.015267,0.028204,7.9179e-07,0.37,0.65,0
0.020052,-0.0034484,0.033353,0.0019111,0.010579,-0.0016859,0,0,0.059213,-0.022537,0,-0.0087667,0,0,0,0.033444,0.001821,0.010579,-3.0605,0.015281,0.028279,7.97e-07,0.38,0.65,0
0.020645,-0.0034738,0.033409,0.0018994,0.010592,-0.0017034,0,0,0.059323,-0.022602,0,-0.0088576,0,0,0,0.033501,0.0018076,0.010592,-3.0854,0.0153,0.028341,8.016e-07,0.39,0.65,0
0.021239,-0.003494,0.033462,0.0019018,0.010609,-0.0017202,0,0,0.059417,-0.022639,0,-0.0089453,0,0,0,0.033555,0.0018084,0.010609,-3.1107,0.015324,0.028389,8.0559e-07,0.4,0.65,0
0.021833,-0.0035085,0.033513,0.0019174,0.010629,-0.0017345,0,0,0.059497,-0.02265,0,-0.0090195,0,0,0,0.033607,0.0018225,0.010629,-3.1329,0.015353,0.028424,8.0901e-07,0.41,0.65,0
0.022429,-0.0035167,0.033562,0.0019446,0.010652,-0.0017438,0,0,0.059566,-0.022639,0,-0.0090677,0,0,0,0.033658,0.0018487,0.010652,-3.1473,0.015386,0.028448,8.1192e-07,0.42,0.65,0
0.023025,-0.0035178,0.033611,0.0019812,0.010678,-0.001745,0,0,0.059626,-0.022611,0,-0.0090738,0,0,0,0.033707,0.0018852,0.010678,-3.1482,0.015423,0.028463,8.1446e-07,0.43,0.65,0
0.023621,-0.0035108,0.033662,0.0020237,0.010706,-0.0017344,0,0,0.059686,-0.022573,0,-0.0090186,0,0,0,0.033756,0.0019289,0.010706,-3.1284,0.015464,0.028472,8.168e-07,0.44,0.65,0
0.024218,-0.0034945,0.033717,0.0020671,0.010735,-0.0017074,0,0,0.059752,-0.022537,0,-0.0088787,0,0,0,0.033809,0.0019752,0.010735,-3.0791,0.015506,0.028482,8.1927e-07,0.45,0.65,0
0.024816,-0.0034674,0.033781,0.0021036,0.010765,-0.0016591,0,0,0.05984,-0.02252,0,-0.0086271,0,0,0,0.033867,0.002017,0.010765,-2.9899,0.01555,0.028502,8.2236e-07,0.46,0.65,0
0.025415,-0.0034278,0.033858,0.0021217,0.010794,-0.0015839,0,0,0.059966,-0.022548,0,-0.0082365,0,0,0,0.033937,0.0020428,0.010794,-2.8502,0.015591,0.028543,8.2674e-07,0.47,0.65,0
0.026016,-0.0033735,0.033946,0.0021027,0.010815,-0.0014771,0,0,0.060142,-0.022651,0,-0.0076808,0,0,0,0.034015,0.0020343,0.010815,-2.6501,0.015621,0.028619,8.3287e-07,0.48,0.65,0
0.026618,-0.0033019,0.03403,0.002028,0.010817,-0.0013278,0,0,0.060353,-0.022853,0,-0.0069044,0,0,0,0.034085,0.001973,0.010817,-2.3718,0.015625,0.02873,8.401e-07,0.49,0.65,0
0.027223,-0.0032095,0.034136,0.0019079,0.010813,-0.0010869,0,0,0.06064,-0.023154,0,-0.0056516,0,0,0,0.034173,0.0018713,0.010813,-1.9293,0.015619,0.028888,8.4997e-07,0.5,0.65,0
0.027831,-0.0030894,0.034453,0.0016695,0.010837,-0.00075186,0,0,0.061403,-0.023835,0,-0.0039096,0,0,0,0.034471,0.0016523,0.010837,-1.3131,0.015653,0.029325,8.7983e-07,0.51,0.65,0
0.028451,-0.0029449,0.034384,0.00053047,0.010474,-0.00030784,0,0,0.062166,-0.025854,0,-0.0016007,0,0,0,0.034387,0.00052768,0.010474,-0.52094,0.01513,0.030143,9.0765e-07,0.52,0.65,0
0.029074,-0.0027741,0.034831,-0.00013039,0.01041,-0.00071942,0,0,0.063494,-0.027405,0,-0.003741,0,0,0,0.034846,-0.00014519,0.01041,-1.1784,0.015037,0.031088,9.6477e-07,0.53,0.65,0
0.029721,-0.0026587,0.034098,-0.0017512,0.0097041,-0.00034705,0,0,0.047874,-0.019856,0,0.00036909,0,0,0,0.034148,-0.0018015,0.0097041,-0.35806,0.014017,0.031913,8.9591e-07,0.54,0.65,0
0.030031,-0.0026377,0.034907,-0.0009723,0.01018,0.0003216,0,0,0.032144,-0.014498,0,0.00083616,0,0,0,0.03491,-0.00097518,0.01018,0.51351,0.014705,0.03181,9.9389e-07,0.55,0.65,0
0.030363,-0.0026435,0.036251,-0.00055618,0.010708,-0.00011196,0,0,0.033205,-0.014644,0,-0.00029109,0,0,0,0.036251,-0.00055652,0.010708,-0.17428,0.015468,0.032666,1.099e-06,0.56,0.65,0
0.030696,-0.0026461,0.036338,-0.00070925,0.010689,7.999e-05,0,0,0.033344,-0.014817,0,0.00020797,0,0,0,0.036338,-0.00070942,0.010689,0.12371,0.015439,0.032866,1.1116e-06,0.57,0.65,0
0.03103,-0.0026496,0.036534,-0.00050518,0.010809,7.537e-05,0,0,0.033443,-0.014708,0,0.00019596,0,0,0,0.036534,-0.00050533,0.010809,0.11659,0.015612,0.032876,1.1232e-06,0.58,0.65,0
0.031364,-0.0026528,0.036538,-0.00049028,0.010814,4.7996e-05,0,0,0.03344,-0.014696,0,0.00012479,0,0,0,0.036538,-0.00049034,0.010814,0.074267,0.015621,0.032868,1.123e-06,0.59,0.65,0
0.031699,-0.0026571,0.036565,-0.00054007,0.010808,9.422e-06,0,0,0.033485,-0.014752,0,2.4497e-05,0,0,0,0.036565,-0.00054007,0.010808,0.014549,0.015611,0.032932,1.1272e-06,0.6,0.65,0
0.032034,-0.0026618,0.036583,-0.00060032,0.010795,5.4017e-06,0,0,0.033525,-0.014814,0,1.4045e-05,0,0,0,0.036583,-0.00060032,0.010795,0.0083235,0.015592,0.032996,1.1307e-06,0.61,0.65,0
0.03237,-0.0026664,0.036596,-0.00060508,0.010797,1.5638e-05,0,0,0.033538,-0.014823,0,4.0658e-05,0,0,0,0.036596,-0.00060508,0.010797,0.024085,0.015596,0.033011,1.132e-06,0.62,0.65,0
0.032705,-0.0026707,0.036597,-0.00058139,0.010805,1.0325e-05,0,0,0.03353,-0.014802,0,2.6846e-05,0,0,0,0.036597,-0.00058139,0.010805,0.015912,0.015607,0.032994,1.1314e-06,0.63,0.65,0
0.03304,-0.0026751,0.03659,-0.00056698,0.010807,-9.508e-06,0,0,0.033518,-0.014786,0,-2.4721e-05,0,0,0,0.03659,-0.00056698,0.010807,-0.014661,0.01561,0.032976,1.1303e-06,0.64,0.65,0
0.033375,-0.0026796,0.036588,-0.00055907,0.010809,-3.7414e-05,0,0,0.033513,-0.014778,0,-9.7277e-05,0,0,0,0.036588,-0.00055911,0.010809,-0.057708,0.015612,0.032967,1.1298e-06,0.65,0.65,0
0.03371,-0.0026845,0.036592,-0.00055547,0.010811,-6.9581e-05,0,0,0.033515,-0.014776,0,-0.00018091,0,0,0,0.036592,-0.0005556,0.010811,-0.10732,0.015616,0.032968,1.1301e-06,0.66,0.65,0
0.034046,-0.0026898,0.0366,-0.00055786,0.010812,-0.00010568,0,0,0.033523,-0.014781,0,-0.00027478,0,0,0,0.0366,-0.00055816,0.010812,-0.16296,0.015618,0.032977,1.1309e-06,0.67,0.65,0
0.034381,-0.0026956,0.036611,-0.00056868,0.010813,-0.0001446,0,0,0.033538,-0.014796,0,-0.00037595,0,0,0,0.036611,-0.00056924,0.010813,-0.22283,0.015618,0.032996,1.1323e-06,0.68,0.65,0
0.034716,-0.002702,0.036626,-0.00058786,0.010811,-0.00018531,0,0,0.033559,-0.014819,0,-0.00048181,0,0,0,0.036627,-0.00058878,0.010811,-0.2853,0.015617,0.033026,1.1344e-06,0.69,0.65,0
0.035052,-0.0027089,0.036645,-0.00061546,0.010809,-0.00022679,0,0,0.033587,-0.014852,0,-0.00058965,0,0,0,0.036646,-0.00061684,0.010809,-0.34872,0.015613,0.033065,1.137e-06,0.7,0.65,0
0.035388,-0.0027164,0.036667,-0.00065157,0.010805,-0.00026803,0,0,0.033621,-0.014893,0,-0.00069688,0,0,0,0.036669,-0.00065349,0.010805,-0.41148,0.015607,0.033115,1.1403e-06,0.71,0.65,0
0.035724,-0.0027245,0.036695,-0.0006937,0.0108,-0.00030799,0,0,0.033663,-0.014942,0,-0.00080077,0,0,0,0.036697,-0.00069624,0.0108,-0.47193,0.0156,0.033175,1.1443e-06,0.72,0.65,0
0.036061,-0.0027329,0.036728,-0.00074016,0.010797,-0.00034645,0,0,0.033711,-0.014998,0,-0.00090076,0,0,0,0.036732,-0.00074336,0.010797,-0.52971,0.015595,0.033243,1.149e-06,0.73,0.65,0
0.036399,-0.0027417,0.036768,-0.00079309,0.010792,-0.00037975,0,0,0.033768,-0.015061,0,-0.00098734,0,0,0,0.036772,-0.00079693,0.010792,-0.57919,0.015589,0.033321,1.1544e-06,0.74,0.65,0
0.036737,-0.0027506,0.036799,-0.00085462,0.010783,-0.00040183,0,0,0.033821,-0.015129,0,-0.0010448,0,0,0,0.036804,-0.00085891,0.010783,-0.61135,0.015576,0.033399,1.1593e-06,0.75,0.65,0
0.037075,-0.0027596,0.036819,-0.00088636,0.01078,-0.00041257,0,0,0.033851,-0.015166,0,-0.0010727,0,0,0,0.036824,-0.00089088,0.01078,-0.62682,0.015571,0.033443,1.1622e-06,0.76,0.65,0
0.037414,-0.0027686,0.036836,-0.00086269,0.010792,-0.00044258,0,0,0.033857,-0.015151,0,-0.0011507,0,0,0,0.036841,-0.00086788,0.010792,-0.67252,0.015588,0.03344,1.1631e-06,0.77,0.65,0
0.037752,-0.0027784,0.036844,-0.00085077,0.010798,-0.00051113,0,0,0.03386,-0.015143,0,-0.0013289,0,0,0,0.036851,-0.0008577,0.010798,-0.77672,0.015597,0.03344,1.1637e-06,0.78,0.65,0
0.038091,-0.0027896,0.036872,-0.00090652,0.01079,-0.00057176,0,0,0.033907,-0.015205,0,-0.0014866,0,0,0,0.03688,-0.00091517,0.01079,-0.86689,0.015585,0.033513,1.1683e-06,0.79,0.65,0
0.03843,-0.0028009,0.036708,-0.0011414,0.01067,-0.00061029,0,0,0.033849,-0.015355,0,-0.0015868,0,0,0,0.036718,-0.0011512,0.01067,-0.92353,0.015412,0.033558,1.1603e-06,0.8,0.65,0
0.038768,-0.0028133,0.036617,-0.0010354,0.010674,-0.00046192,0,0,0.033725,-0.015223,0,-0.001201,0,0,0,0.036623,-0.0010411,0.010674,-0.70276,0.015419,0.033385,1.1481e-06,0.81,0.65,0
0.039105,-0.0028232,0.035281,-0.0014579,0.010147,-0.00093187,0,0,0.032674,-0.015086,0,-0.0024229,0,0,0,0.035305,-0.0014816,0.010147,-1.4521,0.014657,0.032568,1.042e-06,0.82,0.65,0
0.039421,-0.0028598,0.034464,-0.0023652,0.0096297,-0.00022983,0,0,0.048746,-0.020791,0,-0.0025725,0,0,0,0.034513,-0.0024137,0.0096297,-0.55072,0.013909,0.032737,9.3552e-07,0.83,0.65,0
0.04008,-0.003003,0.035232,-0.00078812,0.010333,0.00016011,0,0,0.064738,-0.028916,0,0.00083257,0,0,0,0.035233,-0.00078884,0.010333,0.25467,0.014926,0.031947,1.0162e-06,0.84,0.65,0
0.040716,-0.0032035,0.034825,-6.0111e-05,0.010429,-0.00031476,0,0,0.063428,-0.027273,0,-0.0016367,0,0,0,0.034827,-6.2951e-05,0.010429,-0.51691,0.015065,0.031006,9.6085e-07,0.85,0.65,0
0.041348,-0.0033785,0.034905,0.0011238,0.010809,8.3298e-05,0,0,0.062651,-0.025181,0,0.00043315,0,0,0,0.034905,0.0011236,0.010809,0.14128,0.015613,0.03013,9.3108e-07,0.86,0.65,0
0.041969,-0.0035287,0.034622,0.0013876,0.010803,0.00039046,0,0,0.061929,-0.02448,0,0.0020304,0,0,0,0.034626,0.001383,0.010803,0.67304,0.015604,0.029677,9.0054e-07,0.87,0.65,0
0.042587,-0.0036507,0.034555,0.0014968,0.010816,0.00060081,0,0,0.061723,-0.024229,0,0.0031242,0,0,0,0.034566,0.0014859,0.010816,1.0409,0.015622,0.029542,8.9255e-07,0.88,0.65,0
0.043204,-0.0037511,0.034521,0.0015469,0.010821,0.00071151,0,0,0.061623,-0.024112,0,0.0036998,0,0,0,0.034537,0.0015316,0.010821,1.2355,0.01563,0.02948,8.8882e-07,0.89,0.65,0
0.043819,-0.003834,0.034486,0.001531,0.010805,0.00077018,0,0,0.06157,-0.024112,0,0.0040049,0,0,0,0.034504,0.001513,0.010805,1.3381,0.015607,0.029465,8.8681e-07,0.9,0.65,0
0.044435,-0.0039022,0.034463,0.0014722,0.010781,0.00078788,0,0,0.061574,-0.024201,0,0.004097,0,0,0,0.034481,0.0014534,0.010781,1.3673,0.015572,0.029492,8.8692e-07,0.91,0.65,0
0.045051,-0.003958,0.034453,0.0013925,0.010754,0.00077031,0,0,0.061618,-0.024339,0,0.0040056,0,0,0,0.034471,0.0013746,0.010754,1.334,0.015533,0.029545,8.8856e-07,0.92,0.65,0
0.045667,-0.0040034,0.034452,0.0013058,0.010727,0.00072373,0,0,0.061685,-0.024496,0,0.0037634,0,0,0,0.034468,0.00129,0.010727,1.2502,0.015495,0.02961,8.9094e-07,0.93,0.65,0
0.046285,-0.0040399,0.034456,0.0012207,0.010703,0.00065438,0,0,0.061757,-0.024654,0,0.0034027,0,0,0,0.034469,0.0012078,0.010703,1.1275,0.01546,0.029675,8.9353e-07,0.94,0.65,0
0.046902,-0.004069,0.034461,0.0011429,0.010681,0.0005676,0,0,0.061828,-0.0248,0,0.0029515,0,0,0,0.034471,0.0011332,0.010681,0.9757,0.015428,0.029736,8.96e-07,0.95,0.65,0
0.047521,-0.0040915,0.034467,0.0010758,0.010663,0.00046777,0,0,0.06189,-0.024926,0,0.0024324,0,0,0,0.034473,0.0010693,0.010663,0.80244,0.015402,0.029789,8.9815e-07,0.96,0.65,0
0.04814,-0.0041082,0.034472,0.0010218,0.010648,0.00035841,0,0,0.061941,-0.025028,0,0.0018637,0,0,0,0.034475,0.001018,0.010648,0.61382,0.015381,0.029832,8.9989e-07,0.97,0.65,0
0.04876,-0.0041198,0.034475,0.00098241,0.010637,0.00024241,0,0,0.061979,-0.025103,0,0.0012605,0,0,0,0.034477,0.00098066,0.010637,0.41466,0.015365,0.029863,9.0117e-07,0.98,0.65,0
0.04938,-0.0041266,0.034478,0.00095843,0.010631,0.00012222,0,0,0.062002,-0.025148,0,0.00063554,0,0,0,0.034478,0.00095798,0.010631,0.20891,0.015356,0.029882,9.0194e-07,0.99,0.65,0
0.05,-0.0041288,0.034478,0.00095038,0.010629,-4.3094e-05,0,0,0.062009,-0.025163,0,-0.00022409,0,0,0,0.034479,0.00095033,0.010629,-0.073643,0.015352,0.029888,9.0221e-07,1,0.65,0
0,0,0.028784,0.012336,0.012336,-0.002755,0,0,0.042764,-5.421e-20,0,-0.014326,0,0,0,0.029233,0.011887,0.012336,-9.2603,0.017819,0.017126,2.5739e-07,0,0.66,0
0.00042764,-0.00014326,0.028737,0.011793,0.012159,-0.0027523,0,0,0.043104,-0.00095263,0,-0.014312,0,0,0,0.029173,0.011357,0.012159,-8.9984,0.017563,0.017429,2.6999e-07,0.01,0.66,0
0.00086208,-0.00028524,0.02892,0.011351,0.012081,-0.0027368,0,0,0.043781,-0.0018992,0,-0.014232,0,0,0,0.029336,0.010934,0.012081,-8.6522,0.017451,0.017856,2.8835e-07,0.02,0.66,0
0.0013033,-0.0004259,0.029101,0.010912,0.012004,-0.00272,0,0,0.044453,-0.0028387,0,-0.014144,0,0,0,0.029499,0.010514,0.012004,-8.3255,0.017339,0.018286,3.0701e-07,0.03,0.66,0
0.0017511,-0.00056517,0.029281,0.010478,0.011928,-0.0027013,0,0,0.04512,-0.0037703,0,-0.014047,0,0,0,0.029662,0.010097,0.011928,-8.0151,0.017229,0.018717,3.2591e-07,0.04,0.66,0
0.0022056,-0.00070296,0.02946,0.010047,0.011852,-0.0026803,0,0,0.04578,-0.0046926,0,-0.013937,0,0,0,0.029823,0.009684,0.011852,-7.7184,0.01712,0.019147,3.45e-07,0.05,0.66,0
0.0026667,-0.00083917,0.029636,0.0096221,0.011778,-0.0026566,0,0,0.046433,-0.0056043,0,-0.013814,0,0,0,0.029983,0.0092755,0.011778,-7.4335,0.017012,0.019577,3.6421e-07,0.06,0.66,0
0.0031343,-0.00097368,0.029811,0.0092025,0.011704,-0.0026299,0,0,0.047077,-0.0065037,0,-0.013676,0,0,0,0.030141,0.0088722,0.011704,-7.1589,0.016906,0.020004,3.8349e-07,0.07,0.66,0
0.0036083,-0.0011063,0.029982,0.0087895,0.011631,-0.0026002,0,0,0.047712,-0.0073893,0,-0.013521,0,0,0,0.030297,0.0084751,0.011631,-6.8936,0.016801,0.020427,4.0275e-07,0.08,0.66,0
0.0040885,-0.001237,0.030151,0.0083836,0.01156,-0.0025674,0,0,0.048335,-0.0082594,0,-0.01335,0,0,0,0.030449,0.0080848,0.01156,-6.6366,0.016698,0.020845,4.2195e-07,0.09,0.66,0
0.004575,-0.0013655,0.030316,0.0079856,0.01149,-0.0025315,0,0,0.048946,-0.0091124,0,-0.013164,0,0,0,0.030599,0.0077022,0.01149,-6.3875,0.016597,0.021257,4.4101e-07,0.1,0.66,0
0.0050675,-0.0014918,0.030477,0.0075964,0.011422,-0.0024927,0,0,0.049543,-0.0099466,0,-0.012962,0,0,0,0.030745,0.007328,0.011422,-6.1461,0.016498,0.021663,4.5987e-07,0.11,0.66,0
0.0055658,-0.0016156,0.030634,0.0072166,0.011355,-0.0024513,0,0,0.050125,-0.01076,0,-0.012747,0,0,0,0.030888,0.0069628,0.011355,-5.9122,0.016402,0.022059,4.7847e-07,0.12,0.66,0
0.00607,-0.0017369,0.030787,0.0068469,0.01129,-0.0024075,0,0,0.050692,-0.011553,0,-0.012519,0,0,0,0.031027,0.0066072,0.01129,-5.6859,0.016308,0.022447,4.9677e-07,0.13,0.66,0
0.0065797,-0.0018554,0.030935,0.006488,0.011227,-0.0023616,0,0,0.051241,-0.012321,0,-0.01228,0,0,0,0.031161,0.0062619,0.011227,-5.4674,0.016217,0.022825,5.147e-07,0.14,0.66,0
0.0070948,-0.001971,0.031078,0.0061404,0.011166,-0.0023141,0,0,0.051774,-0.013066,0,-0.012033,0,0,0,0.031291,0.0059274,0.011166,-5.2568,0.016128,0.023193,5.3221e-07,0.15,0.66,0
0.0076152,-0.0020837,0.031217,0.0058046,0.011107,-0.0022654,0,0,0.052287,-0.013785,0,-0.01178,0,0,0,0.031417,0.0056043,0.011107,-5.0545,0.016043,0.023549,5.4928e-07,0.16,0.66,0
0.0081405,-0.0021933,0.03135,0.0054813,0.01105,-0.002216,0,0,0.052782,-0.014477,0,-0.011523,0,0,0,0.031539,0.0052928,0.01105,-4.8609,0.01596,0.023894,5.6586e-07,0.17,0.66,0
0.0086708,-0.0022998,0.031479,0.0051707,0.010995,-0.0021664,0,0,0.053258,-0.015143,0,-0.011265,0,0,0,0.031656,0.0049935,0.010995,-4.6761,0.015881,0.024226,5.8191e-07,0.18,0.66,0
0.0092057,-0.0024029,0.031602,0.0048733,0.010943,-0.002117,0,0,0.053714,-0.01578,0,-0.011008,0,0,0,0.031768,0.0047067,0.010943,-4.5007,0.015806,0.024545,5.9742e-07,0.19,0.66,0
0.0097451,-0.0025026,0.031719,0.0045893,0.010893,-0.0020684,0,0,0.05415,-0.016389,0,-0.010756,0,0,0,0.031876,0.0044325,0.010893,-4.3348,0.015734,0.024852,6.1236e-07,0.2,0.66,0
0.010289,-0.002599,0.031832,0.004319,0.010845,-0.0020211,0,0,0.054566,-0.016969,0,-0.010509,0,0,0,0.03198,0.0041714,0.010845,-4.1789,0.015666,0.025145,6.2672e-07,0.21,0.66,0
0.010836,-0.0026918,0.03194,0.0040627,0.010801,-0.0019755,0,0,0.054962,-0.017519,0,-0.010273,0,0,0,0.032079,0.0039234,0.010801,-4.0333,0.015601,0.025425,6.4048e-07,0.22,0.66,0
0.011388,-0.0027812,0.032043,0.0038204,0.010759,-0.0019321,0,0,0.055338,-0.01804,0,-0.010047,0,0,0,0.032175,0.0036888,0.010759,-3.8982,0.015541,0.025691,6.5363e-07,0.23,0.66,0
0.011943,-0.0028669,0.032141,0.0035924,0.01072,-0.0018913,0,0,0.055694,-0.018532,0,-0.0098349,0,0,0,0.032266,0.0034676,0.01072,-3.7739,0.015484,0.025944,6.6616e-07,0.24,0.66,0
0.012502,-0.0029491,0.032234,0.0033787,0.010684,-0.0018536,0,0,0.05603,-0.018993,0,-0.0096388,0,0,0,0.032352,0.0032601,0.010684,-3.6606,0.015432,0.026182,6.7807e-07,0.25,0.66,0
0.013064,-0.0030276,0.032322,0.0031794,0.010651,-0.0018193,0,0,0.056347,-0.019425,0,-0.0094605,0,0,0,0.032436,0.0030662,0.010651,-3.5584,0.015384,0.026407,6.8936e-07,0.26,0.66,0
0.013629,-0.0031025,0.032406,0.0029946,0.01062,-0.0017888,0,0,0.056644,-0.019827,0,-0.0093016,0,0,0,0.032515,0.0028862,0.01062,-3.4676,0.01534,0.026618,7.0002e-07,0.27,0.66,0
0.014197,-0.0031736,0.032486,0.0028243,0.010593,-0.0017622,0,0,0.056921,-0.020199,0,-0.0091636,0,0,0,0.03259,0.00272,0.010593,-3.3881,0.015301,0.026815,7.1006e-07,0.28,0.66,0
0.014767,-0.0032411,0.032561,0.0026686,0.010569,-0.00174,0,0,0.05718,-0.020541,0,-0.0090478,0,0,0,0.032662,0.0025677,0.010569,-3.3201,0.015266,0.026998,7.1947e-07,0.29,0.66,0
0.01534,-0.0033049,0.032632,0.0025276,0.010548,-0.0017221,0,0,0.057419,-0.020853,0,-0.0089551,0,0,0,0.03273,0.0024294,0.010548,-3.2634,0.015236,0.027167,7.2824e-07,0.3,0.66,0
0.015916,-0.0033649,0.032699,0.0024013,0.01053,-0.0017089,0,0,0.057639,-0.021135,0,-0.008886,0,0,0,0.032795,0.0023052,0.01053,-3.218,0.01521,0.027322,7.3638e-07,0.31,0.66,0
0.016493,-0.0034211,0.032761,0.0022896,0.010515,-0.0017001,0,0,0.05784,-0.021387,0,-0.0088407,0,0,0,0.032856,0.002195,0.010515,-3.1836,0.015189,0.027463,7.4388e-07,0.32,0.66,0
0.017072,-0.0034734,0.03282,0.0021926,0.010504,-0.0016959,0,0,0.058022,-0.021609,0,-0.0088189,0,0,0,0.032913,0.002099,0.010504,-3.1598,0.015172,0.027589,7.5073e-07,0.33,0.66,0
0.017653,-0.0035217,0.032874,0.0021104,0.010495,-0.0016961,0,0,0.058184,-0.021801,0,-0.0088196,0,0,0,0.032967,0.0020172,0.010495,-3.1462,0.01516,0.027702,7.5692e-07,0.34,0.66,0
0.018236,-0.003566,0.032924,0.0020428,0.01049,-0.0017003,0,0,0.058327,-0.021962,0,-0.0088413,0,0,0,0.033017,0.0019495,0.01049,-3.142,0.015152,0.027799,7.6244e-07,0.35,0.66,0
0.01882,-0.003606,0.032969,0.0019898,0.010488,-0.001708,0,0,0.058452,-0.022094,0,-0.0088818,0,0,0,0.033063,0.0018959,0.010488,-3.1463,0.015149,0.027882,7.6729e-07,0.36,0.66,0
0.019405,-0.0036416,0.03301,0.001951,0.010488,-0.0017188,0,0,0.058556,-0.022197,0,-0.0089376,0,0,0,0.033105,0.0018562,0.010488,-3.1578,0.01515,0.027951,7.7146e-07,0.37,0.66,0
0.019991,-0.0036725,0.033047,0.0019263,0.010492,-0.0017316,0,0,0.058643,-0.022271,0,-0.0090043,0,0,0,0.033143,0.0018302,0.010492,-3.175,0.015155,0.028005,7.7494e-07,0.38,0.66,0
0.020578,-0.0036984,0.033079,0.0019149,0.010498,-0.0017455,0,0,0.05871,-0.022316,0,-0.0090764,0,0,0,0.033176,0.0018174,0.010498,-3.1957,0.015164,0.028045,7.7773e-07,0.39,0.66,0
0.021165,-0.0037188,0.033107,0.001916,0.010507,-0.0017589,0,0,0.05876,-0.022336,0,-0.0091465,0,0,0,0.033206,0.0018171,0.010507,-3.2175,0.015177,0.028071,7.7986e-07,0.4,0.66,0
0.021753,-0.0037334,0.033131,0.0019282,0.010518,-0.0017703,0,0,0.058794,-0.022333,0,-0.0092056,0,0,0,0.033231,0.001828,0.010518,-3.2369,0.015192,0.028085,7.8137e-07,0.41,0.66,0
0.022341,-0.0037415,0.033152,0.0019495,0.01053,-0.0017775,0,0,0.058816,-0.02231,0,-0.0092428,0,0,0,0.033253,0.0018486,0.01053,-3.2499,0.015211,0.028088,7.8232e-07,0.42,0.66,0
0.022929,-0.0037423,0.03317,0.0019771,0.010544,-0.0017778,0,0,0.058828,-0.022274,0,-0.0092447,0,0,0,0.033271,0.0018761,0.010544,-3.2515,0.01523,0.028083,7.8284e-07,0.43,0.66,0
0.023518,-0.0037349,0.033188,0.0020069,0.010558,-0.0017684,0,0,0.058837,-0.022234,0,-0.0091957,0,0,0,0.033288,0.0019069,0.010558,-3.2356,0.015251,0.028074,7.8312e-07,0.44,0.66,0
0.024106,-0.0037183,0.033207,0.002033,0.010572,-0.0017457,0,0,0.058851,-0.022201,0,-0.0090775,0,0,0,0.033305,0.0019356,0.010572,-3.1951,0.015271,0.028066,7.8348e-07,0.45,0.66,0
0.024695,-0.0036911,0.033231,0.0020473,0.010584,-0.0017057,0,0,0.058884,-0.022194,0,-0.0088696,0,0,0,0.033324,0.0019543,0.010584,-3.1216,0.015287,0.028068,7.8434e-07,0.46,0.66,0
0.025284,-0.0036518,0.033264,0.0020382,0.010591,-0.001644,0,0,0.05895,-0.022236,0,-0.0085487,0,0,0,0.03335,0.0019519,0.010591,-3.0055,0.015298,0.028093,7.8627e-07,0.47,0.66,0
0.025874,-0.0035985,0.03331,0.0019911,0.01059,-0.0015541,0,0,0.05907,-0.022358,0,-0.0080813,0,0,0,0.033387,0.0019142,0.01059,-2.8339,0.015297,0.028155,7.9006e-07,0.48,0.66,0
0.026465,-0.0035291,0.03339,0.0018905,0.010584,-0.0014225,0,0,0.059295,-0.022603,0,-0.0073968,0,0,0,0.033454,0.0018264,0.010584,-2.5804,0.015288,0.028284,7.9759e-07,0.49,0.66,0
0.02706,-0.0034407,0.033574,0.001704,0.010583,-0.0012419,0,0,0.059776,-0.023087,0,-0.0064581,0,0,0,0.033623,0.0016557,0.010583,-2.2282,0.015287,0.028569,8.1515e-07,0.5,0.66,0
0.027661,-0.0033315,0.033883,0.0012753,0.010548,-0.001023,0,0,0.060673,-0.024108,0,-0.0053197,0,0,0,0.033916,0.0012433,0.010548,-1.7952,0.015236,0.029156,8.4956e-07,0.51,0.66,0
0.028273,-0.003201,0.03469,0.00079907,0.010647,-0.0009421,0,0,0.062512,-0.025604,0,-0.0048989,0,0,0,0.034716,0.0007729,0.010647,-1.5911,0.015379,0.03024,9.2665e-07,0.52,0.66,0
0.028911,-0.003061,0.0356,8.3051e-05,0.010705,-0.00065537,0,0,0.064728,-0.027617,0,-0.0034079,0,0,0,0.035612,7.0962e-05,0.010705,-1.0568,0.015463,0.031596,1.0231e-06,0.53,0.66,0
0.029568,-0.0028797,0.040959,-0.0017867,0.011752,-0.0019865,0,0,0.052775,-0.024155,0,-0.0072557,0,0,0,0.041052,-0.001879,0.011752,-2.6813,0.016975,0.037997,1.8766e-06,0.54,0.66,0
0.030031,-0.0027884,0.032888,-0.00087966,0.0096025,5.1983e-05,0,0,0.041854,-0.01879,0,0.0002481,0,0,0,0.032888,-0.00087981,0.0096025,0.10833,0.01387,0.029937,9.6684e-07,0.55,0.66,0
0.03036,-0.0027895,0.036456,-0.00079056,0.0107,0.00017262,0,0,0.033483,-0.014937,0,0.0004488,0,0,0,0.036457,-0.00079136,0.0107,0.26553,0.015455,0.033037,1.125e-06,0.56,0.66,0
0.030701,-0.0027956,0.036861,-0.00053102,0.010899,1.3185e-05,0,0,0.033751,-0.014859,0,3.4281e-05,0,0,0,0.036861,-0.00053103,0.010899,0.020203,0.015743,0.033188,1.1543e-06,0.57,0.66,0
0.031035,-0.0027963,0.036519,-0.00049832,0.010806,0.00012025,0,0,0.033426,-0.014696,0,0.00031264,0,0,0,0.036519,-0.00049871,0.010806,0.18612,0.015609,0.032858,1.1216e-06,0.58,0.66,0
0.031369,-0.0027995,0.036592,-0.00033145,0.010878,8.7816e-06,0,0,0.033428,-0.014573,0,2.2832e-05,0,0,0,0.036592,-0.00033145,0.010878,0.013627,0.015713,0.032789,1.123e-06,0.59,0.66,0
0.031704,-0.0028045,0.036552,-0.00057083,0.010794,-4.5775e-05,0,0,0.033485,-0.014775,0,-0.00011901,0,0,0,0.036552,-0.00057089,0.010794,-0.07065,0.015592,0.032945,1.1269e-06,0.6,0.66,0
0.032039,-0.0028101,0.036576,-0.0006719,0.010771,9.0689e-06,0,0,0.033546,-0.014876,0,2.3579e-05,0,0,0,0.036576,-0.00067191,0.010771,0.01395,0.015558,0.033047,1.1323e-06,0.61,0.66,0
0.032375,-0.0028147,0.036597,-0.00059252,0.010802,3.8296e-05,0,0,0.033535,-0.014812,0,9.9569e-05,0,0,0,0.036597,-0.00059256,0.010802,0.058999,0.015602,0.033003,1.1318e-06,0.62,0.66,0
0.03271,-0.0028186,0.036566,-0.00054811,0.010805,2.4945e-05,0,0,0.033489,-0.01476,0,6.4856e-05,0,0,0,0.036566,-0.00054813,0.010805,0.038509,0.015608,0.032939,1.1275e-06,0.63,0.66,0
0.033044,-0.0028227,0.03655,-0.00053553,0.010804,-9.0839e-06,0,0,0.033469,-0.014742,0,-2.3618e-05,0,0,0,0.03655,-0.00053554,0.010804,-0.014035,0.015606,0.032914,1.1256e-06,0.64,0.66,0
0.033379,-0.0028272,0.036548,-0.00053042,0.010805,-4.1452e-05,0,0,0.033466,-0.014736,0,-0.00010778,0,0,0,0.036548,-0.00053046,0.010805,-0.064054,0.015608,0.032909,1.1253e-06,0.65,0.66,0
0.033714,-0.002832,0.036556,-0.00052002,0.010811,-7.6121e-05,0,0,0.033469,-0.01473,0,-0.00019791,0,0,0,0.036556,-0.00052018,0.010811,-0.11763,0.015615,0.032908,1.1257e-06,0.66,0.66,0
0.034048,-0.0028374,0.036565,-0.00051771,0.010814,-0.00011541,0,0,0.033476,-0.014731,0,-0.00030007,0,0,0,0.036565,-0.00051807,0.010814,-0.17832,0.01562,0.032914,1.1264e-06,0.67,0.66,0
0.034383,-0.0028433,0.036575,-0.00052818,0.010814,-0.00015761,0,0,0.033489,-0.014745,0,-0.00040979,0,0,0,0.036576,-0.00052885,0.010814,-0.24338,0.01562,0.032932,1.1277e-06,0.68,0.66,0
0.034718,-0.0028499,0.036588,-0.00054599,0.010813,-0.00020058,0,0,0.033508,-0.014766,0,-0.00052149,0,0,0,0.036589,-0.00054707,0.010813,-0.30946,0.015618,0.032959,1.1296e-06,0.69,0.66,0
0.035053,-0.0028572,0.036605,-0.0005713,0.01081,-0.00024558,0,0,0.033533,-0.014796,0,-0.0006385,0,0,0,0.036607,-0.00057293,0.01081,-0.37846,0.015615,0.032995,1.132e-06,0.7,0.66,0
0.035389,-0.0028651,0.036623,-0.00060955,0.010804,-0.00029039,0,0,0.033565,-0.014838,0,-0.00075501,0,0,0,0.036625,-0.00061182,0.010804,-0.44683,0.015606,0.033043,1.135e-06,0.71,0.66,0
0.035725,-0.0028736,0.036643,-0.00065564,0.010796,-0.00033337,0,0,0.033601,-0.014887,0,-0.00086675,0,0,0,0.036646,-0.00065862,0.010796,-0.51204,0.015595,0.033099,1.1383e-06,0.72,0.66,0
0.036061,-0.0028826,0.036673,-0.00069631,0.010793,-0.00037701,0,0,0.033644,-0.014936,0,-0.00098022,0,0,0,0.036676,-0.00070011,0.010793,-0.57797,0.01559,0.033159,1.1425e-06,0.73,0.66,0
0.036397,-0.0028921,0.036718,-0.00074461,0.010792,-0.00042513,0,0,0.033704,-0.014998,0,-0.0011053,0,0,0,0.036723,-0.00074944,0.010792,-0.65008,0.015588,0.03324,1.1483e-06,0.74,0.66,0
0.036735,-0.0029018,0.036777,-0.00082451,0.010786,-0.00045528,0,0,0.033788,-0.015093,0,-0.0011837,0,0,0,0.036782,-0.00083002,0.010786,-0.69361,0.015579,0.033357,1.1564e-06,0.75,0.66,0
0.037073,-0.0029112,0.036783,-0.00093582,0.010754,-0.00044655,0,0,0.033838,-0.015197,0,-0.001161,0,0,0,0.036788,-0.00094111,0.010754,-0.6782,0.015534,0.033452,1.1605e-06,0.76,0.66,0
0.037412,-0.0029198,0.036788,-0.00086256,0.010778,-0.00041848,0,0,0.033814,-0.015132,0,-0.001088,0,0,0,0.036793,-0.00086721,0.010778,-0.63672,0.015568,0.033397,1.1586e-06,0.77,0.66,0
0.037749,-0.0029293,0.036857,-0.000659,0.010859,-0.00050588,0,0,0.033797,-0.014974,0,-0.0013153,0,0,0,0.036864,-0.00066582,0.010859,-0.7724,0.015686,0.033298,1.1589e-06,0.78,0.66,0
0.038088,-0.002941,0.036816,-0.00086445,0.010785,-0.00064764,0,0,0.03384,-0.015145,0,-0.0016839,0,0,0,0.036827,-0.00087558,0.010785,-0.9844,0.015579,0.033434,1.162e-06,0.79,0.66,0
0.038426,-0.0029555,0.037178,-0.00093784,0.010872,-0.00057544,0,0,0.034197,-0.015353,0,-0.0014961,0,0,0,0.037186,-0.00094653,0.010872,-0.86475,0.015704,0.03381,1.1984e-06,0.8,0.66,0
0.038772,-0.0029649,0.036836,-0.0011792,0.010697,-0.00075723,0,0,0.03398,-0.015439,0,-0.0019688,0,0,0,0.036851,-0.0011943,0.010697,-1.1407,0.015451,0.033711,1.1742e-06,0.81,0.66,0
0.039106,-0.0029791,0.033261,-0.0012783,0.0095948,-0.00057745,0,0,0.042538,-0.019498,0,-0.0021373,0,0,0,0.033271,-0.001288,0.0095948,-0.97769,0.013859,0.030605,1.0125e-06,0.82,0.66,0
0.039577,-0.0030913,0.041268,-0.0025887,0.011604,0.0013717,0,0,0.053584,-0.025328,0,0.0049727,0,0,0,0.041311,-0.0026316,0.011604,1.7986,0.016761,0.038835,1.9448e-06,0.83,0.66,0
0.040243,-0.0033038,0.035879,-0.00048756,0.010617,5.2187e-05,0,0,0.06568,-0.028873,0,0.00027137,0,0,0,0.035879,-0.00048763,0.010617,0.082221,0.015336,0.03228,1.0636e-06,0.84,0.66,0
0.04089,-0.0034729,0.03501,0.00025156,0.010578,0.00029977,0,0,0.063522,-0.02685,0,0.0015588,0,0,0,0.035013,0.00024898,0.010578,0.49408,0.01528,0.030921,9.669e-07,0.85,0.66,0
0.041513,-0.0036334,0.034236,0.00076506,0.0105,0.0003301,0,0,0.061712,-0.025312,0,0.0017165,0,0,0,0.034239,0.00076181,0.0105,0.565,0.015167,0.029825,8.8898e-07,0.86,0.66,0
0.042125,-0.0037725,0.033955,0.001211,0.01055,0.00050896,0,0,0.060853,-0.02428,0,0.0026466,0,0,0,0.033962,0.0012031,0.01055,0.89031,0.015238,0.029229,8.5435e-07,0.87,0.66,0
0.04273,-0.0038909,0.033805,0.0013962,0.01056,0.00065174,0,0,0.060436,-0.023827,0,0.0033891,0,0,0,0.033818,0.0013831,0.01056,1.1516,0.015254,0.028958,8.3796e-07,0.88,0.66,0
0.043333,-0.0039899,0.033765,0.0014799,0.010573,0.0007409,0,0,0.060297,-0.023643,0,0.0038527,0,0,0,0.033781,0.0014629,0.010573,1.314,0.015273,0.028863,8.3282e-07,0.89,0.66,0
0.043936,-0.0040727,0.033762,0.0015008,0.010579,0.00078102,0,0,0.060276,-0.023603,0,0.0040613,0,0,0,0.033781,0.0014819,0.010579,1.386,0.01528,0.028847,8.3219e-07,0.9,0.66,0
0.044539,-0.0041415,0.033774,0.0014778,0.010575,0.00078493,0,0,0.060316,-0.023654,0,0.0040816,0,0,0,0.033793,0.0014587,0.010575,1.3914,0.015276,0.028876,8.338e-07,0.91,0.66,0
0.045142,-0.0041985,0.033794,0.0014281,0.010567,0.00075926,0,0,0.060391,-0.02376,0,0.0039481,0,0,0,0.033812,0.0014103,0.010567,1.3431,0.015263,0.028931,8.367e-07,0.92,0.66,0
0.045747,-0.0042453,0.033819,0.0013654,0.010555,0.00070909,0,0,0.060485,-0.023894,0,0.0036873,0,0,0,0.033834,0.0013499,0.010555,1.2511,0.015246,0.028999,8.4018e-07,0.93,0.66,0
0.046352,-0.0042834,0.033844,0.001299,0.010543,0.00063907,0,0,0.060583,-0.024034,0,0.0033232,0,0,0,0.033856,0.0012865,0.010543,1.1245,0.015229,0.029069,8.4377e-07,0.94,0.66,0
0.046958,-0.0043138,0.033868,0.0012355,0.010531,0.00055338,0,0,0.060675,-0.024168,0,0.0028776,0,0,0,0.033877,0.0012261,0.010531,0.97127,0.015211,0.029135,8.4713e-07,0.95,0.66,0
0.047565,-0.0043375,0.033888,0.0011791,0.01052,0.00045566,0,0,0.060756,-0.024287,0,0.0023694,0,0,0,0.033894,0.0011728,0.01052,0.79797,0.015196,0.029193,8.5006e-07,0.96,0.66,0
0.048174,-0.0043553,0.033904,0.0011328,0.010511,0.00034899,0,0,0.060823,-0.024384,0,0.0018147,0,0,0,0.033908,0.0011291,0.010511,0.61006,0.015183,0.02924,8.5242e-07,0.97,0.66,0
0.048782,-0.0043676,0.033917,0.0010986,0.010504,0.000236,0,0,0.060871,-0.024456,0,0.0012272,0,0,0,0.033918,0.0010969,0.010504,0.41199,0.015173,0.029274,8.5414e-07,0.98,0.66,0
0.049391,-0.0043748,0.033924,0.0010776,0.0105,0.00011898,0,0,0.060901,-0.024499,0,0.00061869,0,0,0,0.033924,0.0010772,0.0105,0.20754,0.015167,0.029295,8.5519e-07,0.99,0.66,0
0.05,-0.0043772,0.033926,0.0010705,0.010499,-4.5984e-05,0,0,0.060911,-0.024514,0,-0.00023912,0,0,0,0.033926,0.0010705,0.010499,-0.080189,0.015165,0.029302,8.5555e-07,1,0.66,0
0,0,0.028749,0.012321,0.012321,-0.0029382,0,0,0.042713,-2.1684e-19,0,-0.015279,0,0,0,0.029259,0.011811,0.012321,-9.8413,0.017797,0.017198,2.6049e-07,0,0.67,0
0.00042713,-0.00015279,0.028703,0.011777,0.012144,-0.0029354,0,0,0.043053,-0.0009535,0,-0.015264,0,0,0,0.029198,0.011283,0.012144,-9.5648,0.017542,0.0175,2.7301e-07,0.01,0.67,0
0.00086106,-0.00030424,0.028886,0.011334,0.012066,-0.0029191,0,0,0.043731,-0.0019023,0,-0.015179,0,0,0,0.029358,0.010862,0.012066,-9.1994,0.017429,0.017925,2.913e-07,0.02,0.67,0
0.0013017,-0.00045432,0.029067,0.010894,0.011988,-0.0029011,0,0,0.044405,-0.0028454,0,-0.015086,0,0,0,0.029519,0.010442,0.011988,-8.8534,0.017317,0.018353,3.0991e-07,0.03,0.67,0
0.0017492,-0.00060292,0.029248,0.010457,0.011911,-0.002881,0,0,0.045074,-0.0037814,0,-0.014981,0,0,0,0.02968,0.010025,0.011911,-8.5237,0.017205,0.018782,3.2876e-07,0.04,0.67,0
0.0022032,-0.00074996,0.029426,0.010024,0.011835,-0.0028581,0,0,0.045737,-0.0047089,0,-0.014862,0,0,0,0.029839,0.0096117,0.011835,-8.2078,0.017095,0.019212,3.4781e-07,0.05,0.67,0
0.0026639,-0.00089532,0.029603,0.0095957,0.01176,-0.0028322,0,0,0.046393,-0.0056262,0,-0.014727,0,0,0,0.029996,0.0092025,0.01176,-7.9038,0.016986,0.01964,3.6697e-07,0.06,0.67,0
0.0031311,-0.0010388,0.029777,0.0091729,0.011685,-0.0028029,0,0,0.04704,-0.0065315,0,-0.014575,0,0,0,0.030152,0.0087984,0.011685,-7.6101,0.016878,0.020066,3.8618e-07,0.07,0.67,0
0.0036047,-0.0011804,0.029948,0.0087565,0.011611,-0.0027702,0,0,0.047676,-0.007423,0,-0.014405,0,0,0,0.030305,0.0084003,0.011611,-7.3257,0.016772,0.020488,4.0537e-07,0.08,0.67,0
0.0040846,-0.0013198,0.030116,0.0083472,0.011539,-0.0027339,0,0,0.048301,-0.0082986,0,-0.014216,0,0,0,0.030454,0.0080091,0.011539,-7.0499,0.016667,0.020905,4.2447e-07,0.09,0.67,0
0.0045707,-0.0014569,0.03028,0.0079461,0.011468,-0.0026943,0,0,0.048912,-0.0091566,0,-0.01401,0,0,0,0.030601,0.0076257,0.011468,-6.7822,0.016565,0.021315,4.4339e-07,0.1,0.67,0
0.0050628,-0.0015915,0.03044,0.0075539,0.011398,-0.0026513,0,0,0.049509,-0.0099951,0,-0.013787,0,0,0,0.030743,0.0072507,0.011398,-6.5225,0.016464,0.021718,4.6209e-07,0.11,0.67,0
0.0055609,-0.0017235,0.030595,0.0071713,0.01133,-0.0026054,0,0,0.05009,-0.010812,0,-0.013548,0,0,0,0.030881,0.0068851,0.01133,-6.2707,0.016366,0.022112,4.8049e-07,0.12,0.67,0
0.0060647,-0.0018526,0.030746,0.0067993,0.011263,-0.0025567,0,0,0.050654,-0.011607,0,-0.013295,0,0,0,0.031016,0.0065293,0.011263,-6.0269,0.016269,0.022496,4.9853e-07,0.13,0.67,0
0.006574,-0.0019788,0.030891,0.0064384,0.011199,-0.0025059,0,0,0.0512,-0.012377,0,-0.013031,0,0,0,0.031145,0.0061842,0.011199,-5.7914,0.016176,0.02287,5.1616e-07,0.14,0.67,0
0.0070886,-0.002102,0.031031,0.0060893,0.011136,-0.0024532,0,0,0.051727,-0.013122,0,-0.012757,0,0,0,0.03127,0.0058503,0.011136,-5.5644,0.016085,0.023232,5.3333e-07,0.15,0.67,0
0.0076085,-0.0022218,0.031165,0.0057525,0.011075,-0.0023992,0,0,0.052234,-0.013839,0,-0.012476,0,0,0,0.03139,0.005528,0.011075,-5.3462,0.015998,0.023583,5.5e-07,0.16,0.67,0
0.0081333,-0.0023383,0.031294,0.0054287,0.011017,-0.0023443,0,0,0.052721,-0.014529,0,-0.01219,0,0,0,0.031505,0.0052179,0.011017,-5.1373,0.015913,0.023921,5.6613e-07,0.17,0.67,0
0.0086629,-0.0024514,0.031417,0.0051181,0.01096,-0.0022892,0,0,0.053187,-0.01519,0,-0.011904,0,0,0,0.031615,0.0049203,0.01096,-4.9379,0.015832,0.024245,5.8168e-07,0.18,0.67,0
0.0091971,-0.0025609,0.031534,0.0048212,0.010907,-0.0022344,0,0,0.053632,-0.015822,0,-0.011619,0,0,0,0.03172,0.0046356,0.010907,-4.7485,0.015754,0.024557,5.9663e-07,0.19,0.67,0
0.0097355,-0.0026667,0.031646,0.0045383,0.010855,-0.0021803,0,0,0.054056,-0.016424,0,-0.011338,0,0,0,0.03182,0.004364,0.010855,-4.5693,0.01568,0.024855,6.1096e-07,0.2,0.67,0
0.010278,-0.0027688,0.031752,0.0042695,0.010806,-0.0021276,0,0,0.054458,-0.016996,0,-0.011064,0,0,0,0.031915,0.0041058,0.010806,-4.4008,0.015609,0.025138,6.2465e-07,0.21,0.67,0
0.010825,-0.0028671,0.031852,0.0040152,0.01076,-0.0020767,0,0,0.054838,-0.017537,0,-0.010799,0,0,0,0.032006,0.0038611,0.01076,-4.2431,0.015542,0.025408,6.3768e-07,0.22,0.67,0
0.011375,-0.0029616,0.031946,0.0037754,0.010717,-0.0020281,0,0,0.055198,-0.018047,0,-0.010546,0,0,0,0.032092,0.0036301,0.010717,-4.0967,0.015479,0.025663,6.5006e-07,0.23,0.67,0
0.011929,-0.0030522,0.032036,0.0035503,0.010676,-0.0019822,0,0,0.055535,-0.018526,0,-0.010308,0,0,0,0.032173,0.003413,0.010676,-3.9616,0.015421,0.025904,6.6176e-07,0.24,0.67,0
0.012486,-0.0031389,0.032119,0.0033398,0.010638,-0.0019395,0,0,0.055852,-0.018974,0,-0.010085,0,0,0,0.032249,0.0032097,0.010638,-3.8381,0.015366,0.02613,6.7279e-07,0.25,0.67,0
0.013046,-0.0032217,0.032197,0.0031442,0.010603,-0.0019003,0,0,0.056147,-0.019392,0,-0.0098814,0,0,0,0.032321,0.0030204,0.010603,-3.7263,0.015315,0.026341,6.8314e-07,0.26,0.67,0
0.013609,-0.0033005,0.032271,0.0029633,0.01057,-0.0018649,0,0,0.056421,-0.019778,0,-0.0096974,0,0,0,0.032389,0.0028451,0.01057,-3.6264,0.015268,0.026538,6.928e-07,0.27,0.67,0
0.014174,-0.0033753,0.032339,0.0027972,0.010541,-0.0018336,0,0,0.056675,-0.020133,0,-0.0095349,0,0,0,0.032452,0.0026839,0.010541,-3.5382,0.015226,0.026721,7.0179e-07,0.28,0.67,0
0.014742,-0.0034461,0.032402,0.002646,0.010514,-0.0018067,0,0,0.056907,-0.020458,0,-0.0093948,0,0,0,0.032511,0.0025367,0.010514,-3.4619,0.015187,0.026888,7.1009e-07,0.29,0.67,0
0.015312,-0.0035129,0.03246,0.0025094,0.010491,-0.0017842,0,0,0.057119,-0.020751,0,-0.009278,0,0,0,0.032566,0.0024035,0.010491,-3.3973,0.015153,0.027041,7.1769e-07,0.3,0.67,0
0.015884,-0.0035756,0.032512,0.0023876,0.01047,-0.0017663,0,0,0.05731,-0.021014,0,-0.009185,0,0,0,0.032616,0.0022844,0.01047,-3.3442,0.015123,0.027179,7.2461e-07,0.31,0.67,0
0.016459,-0.0036342,0.03256,0.0022805,0.010452,-0.001753,0,0,0.057481,-0.021246,0,-0.0091156,0,0,0,0.032661,0.0021794,0.010452,-3.3023,0.015098,0.027302,7.3082e-07,0.32,0.67,0
0.017034,-0.0036886,0.032603,0.002188,0.010437,-0.0017441,0,0,0.057631,-0.021448,0,-0.0090694,0,0,0,0.032703,0.0020883,0.010437,-3.2713,0.015076,0.027411,7.3632e-07,0.33,0.67,0
0.017611,-0.0037388,0.03264,0.0021099,0.010425,-0.0017395,0,0,0.05776,-0.021619,0,-0.0090455,0,0,0,0.032739,0.0020111,0.010425,-3.2505,0.015059,0.027504,7.411e-07,0.34,0.67,0
0.018189,-0.0037846,0.032673,0.0020462,0.010416,-0.0017389,0,0,0.057868,-0.02176,0,-0.0090421,0,0,0,0.032771,0.0019477,0.010416,-3.2392,0.015045,0.027582,7.4516e-07,0.35,0.67,0
0.018768,-0.0038258,0.032699,0.0019964,0.010409,-0.0017417,0,0,0.057955,-0.021872,0,-0.0090568,0,0,0,0.032798,0.0018979,0.010409,-3.2364,0.015035,0.027645,7.4847e-07,0.36,0.67,0
0.019348,-0.0038623,0.03272,0.0019602,0.010404,-0.0017474,0,0,0.058022,-0.021954,0,-0.0090865,0,0,0,0.032819,0.0018612,0.010404,-3.2409,0.015028,0.027693,7.5105e-07,0.37,0.67,0
0.019929,-0.0038938,0.032736,0.001937,0.010402,-0.0017552,0,0,0.058068,-0.022008,0,-0.0091268,0,0,0,0.032835,0.0018373,0.010402,-3.2512,0.015025,0.027726,7.5287e-07,0.38,0.67,0
0.02051,-0.0039201,0.032745,0.0019261,0.010401,-0.0017639,0,0,0.058094,-0.022036,0,-0.0091725,0,0,0,0.032846,0.0018254,0.010401,-3.2651,0.015024,0.027745,7.5396e-07,0.39,0.67,0
0.021091,-0.0039407,0.032749,0.0019261,0.010403,-0.0017725,0,0,0.058101,-0.022039,0,-0.0092169,0,0,0,0.032851,0.0018245,0.010403,-3.2804,0.015026,0.02775,7.5434e-07,0.4,0.67,0
0.021672,-0.0039552,0.032748,0.0019354,0.010405,-0.0017793,0,0,0.058091,-0.022021,0,-0.0092521,0,0,0,0.03285,0.001833,0.010405,-3.294,0.015029,0.027743,7.5404e-07,0.41,0.67,0
0.022253,-0.0039629,0.032741,0.0019517,0.010408,-0.0017824,0,0,0.058066,-0.021986,0,-0.0092686,0,0,0,0.032844,0.0018489,0.010408,-3.3022,0.015033,0.027725,7.5314e-07,0.42,0.67,0
0.022833,-0.0039633,0.03273,0.0019718,0.010411,-0.0017799,0,0,0.058031,-0.021941,0,-0.0092554,0,0,0,0.032833,0.0018691,0.010411,-3.3008,0.015038,0.027699,7.5178e-07,0.43,0.67,0
0.023413,-0.0039555,0.032716,0.0019911,0.010412,-0.0017692,0,0,0.057991,-0.021895,0,-0.0092,0,0,0,0.032818,0.0018895,0.010412,-3.2848,0.01504,0.02767,7.5014e-07,0.44,0.67,0
0.023993,-0.0039386,0.032702,0.0020035,0.010412,-0.0017478,0,0,0.057954,-0.021861,0,-0.0090887,0,0,0,0.032801,0.0019043,0.010412,-3.2482,0.015039,0.027643,7.4852e-07,0.45,0.67,0
0.024572,-0.0039113,0.032689,0.0020007,0.010407,-0.0017128,0,0,0.057934,-0.021856,0,-0.0089066,0,0,0,0.032785,0.0019054,0.010407,-3.1846,0.015032,0.027627,7.4734e-07,0.46,0.67,0
0.025152,-0.0038725,0.032684,0.0019714,0.010397,-0.0016611,0,0,0.057947,-0.021906,0,-0.0086378,0,0,0,0.032774,0.0018818,0.010397,-3.0869,0.015017,0.027636,7.4726e-07,0.47,0.67,0
0.025731,-0.0038206,0.032697,0.0019008,0.010379,-0.0015893,0,0,0.058026,-0.022044,0,-0.0082645,0,0,0,0.032779,0.001819,0.010379,-2.9465,0.014992,0.02769,7.4942e-07,0.48,0.67,0
0.026312,-0.003754,0.03275,0.0017661,0.010355,-0.0014977,0,0,0.058228,-0.022331,0,-0.007788,0,0,0,0.032822,0.0016939,0.010355,-2.761,0.014957,0.027828,7.5609e-07,0.49,0.67,0
0.026896,-0.0036712,0.032863,0.0015177,0.010314,-0.001398,0,0,0.058627,-0.022871,0,-0.0072696,0,0,0,0.032925,0.0014555,0.010314,-2.5486,0.014898,0.028108,7.7024e-07,0.5,0.67,0
0.027485,-0.0035716,0.033075,0.0011331,0.010262,-0.0013456,0,0,0.059312,-0.023736,0,-0.0069969,0,0,0,0.033132,0.0010765,0.010262,-2.4079,0.014823,0.028591,7.9593e-07,0.51,0.67,0
0.028082,-0.003457,0.033182,0.0005046,0.010106,-0.0013793,0,0,0.059997,-0.024963,0,-0.0071725,0,0,0,0.03324,0.00044648,0.010106,-2.4128,0.014597,0.029188,8.2155e-07,0.52,0.67,0
0.028685,-0.0033264,0.033266,7.6123e-05,0.010002,-0.0014446,0,0,0.060484,-0.025809,0,-0.007512,0,0,0,0.033328,1.3364e-05,0.010002,-2.4876,0.014448,0.029612,8.4004e-07,0.53,0.67,0
0.029292,-0.0031625,0.034301,-0.00071216,0.010077,-0.0017186,0,0,0.062984,-0.028051,0,-0.0089366,0,0,0,0.034385,-0.00079631,0.010077,-2.8033,0.014555,0.0312,9.4531e-07,0.54,0.67,0
0.029944,-0.0029949,0.039068,-0.001849,0.011166,-0.001572,0,0,0.050777,-0.023511,0,-0.0064686,0,0,0,0.039137,-0.001918,0.011166,-2.3707,0.016128,0.036326,1.5953e-06,0.55,0.67,0
0.03038,-0.0029422,0.031172,-0.0014265,0.0089237,-0.00036172,0,0,0.039808,-0.018473,0,-0.0018757,0,0,0,0.031183,-0.0014371,0.0089237,-0.84428,0.01289,0.028869,8.519e-07,0.56,0.67,0
0.030703,-0.0029433,0.035674,-0.0014685,0.010262,0.00027563,0,0,0.033036,-0.015249,0,0.00071664,0,0,0,0.035676,-0.0014705,0.010262,0.42515,0.014822,0.032889,1.0744e-06,0.57,0.67,0
0.03104,-0.0029435,0.036835,3.7545e-05,0.011062,0.00012249,0,0,0.033505,-0.014332,0,0.00031848,0,0,0,0.036836,3.7138e-05,0.011062,0.19072,0.015978,0.03271,1.1334e-06,0.58,0.67,0
0.031373,-0.0029442,0.036566,-0.00018167,0.010915,-0.00013827,0,0,0.033346,-0.014426,0,-0.0003595,0,0,0,0.036566,-0.00018219,0.010915,-0.21558,0.015766,0.032647,1.1158e-06,0.59,0.67,0
0.031707,-0.0029526,0.036517,-0.00089253,0.010687,-4.2974e-05,0,0,0.033579,-0.015054,0,-0.00011173,0,0,0,0.036517,-0.00089258,0.010687,-0.065818,0.015437,0.033172,1.1337e-06,0.6,0.67,0
0.032045,-0.0029593,0.036674,-0.00068727,0.010796,7.3687e-05,0,0,0.033642,-0.014929,0,0.00019159,0,0,0,0.036675,-0.00068742,0.010796,0.113,0.015595,0.033147,1.1419e-06,0.61,0.67,0
0.03238,-0.0029626,0.03656,-0.00053244,0.010808,0.00010216,0,0,0.033478,-0.014743,0,0.0002656,0,0,0,0.036561,-0.00053273,0.010808,0.15779,0.015612,0.032922,1.1265e-06,0.62,0.67,0
0.032714,-0.0029659,0.036508,-0.00047447,0.01081,2.9018e-05,0,0,0.033407,-0.01467,0,7.5446e-05,0,0,0,0.036508,-0.00047449,0.01081,0.044957,0.015614,0.032828,1.1198e-06,0.63,0.67,0
0.033048,-0.0029699,0.036488,-0.00051459,0.010792,-2.2302e-05,0,0,0.033405,-0.014699,0,-5.7985e-05,0,0,0,0.036488,-0.0005146,0.010792,-0.034533,0.015589,0.032843,1.1193e-06,0.64,0.67,0
0.033382,-0.0029743,0.036506,-0.0005117,0.010798,-5e-05,0,0,0.03342,-0.014703,0,-0.00013,0,0,0,0.036506,-0.00051177,0.010798,-0.077388,0.015598,0.032857,1.1208e-06,0.65,0.67,0
0.033717,-0.0029791,0.036525,-0.00047756,0.010814,-8.1373e-05,0,0,0.033424,-0.014679,0,-0.00021157,0,0,0,0.036525,-0.00047773,0.010814,-0.126,0.015621,0.032846,1.1215e-06,0.66,0.67,0
0.034051,-0.0029844,0.036535,-0.00046866,0.01082,-0.00012817,0,0,0.03343,-0.014675,0,-0.00033324,0,0,0,0.036536,-0.00046911,0.01082,-0.19845,0.015629,0.032849,1.1222e-06,0.67,0.67,0
0.034385,-0.0029905,0.036542,-0.00049168,0.010815,-0.00017146,0,0,0.033445,-0.014699,0,-0.00044579,0,0,0,0.036543,-0.00049247,0.010815,-0.26526,0.015622,0.032874,1.1236e-06,0.68,0.67,0
0.03472,-0.0029973,0.036554,-0.00050777,0.010814,-0.00021145,0,0,0.033462,-0.014718,0,-0.00054978,0,0,0,0.036555,-0.00050898,0.010814,-0.32688,0.01562,0.032898,1.1252e-06,0.69,0.67,0
0.035055,-0.0030048,0.03657,-0.00051775,0.010816,-0.00025793,0,0,0.033481,-0.014734,0,-0.00067061,0,0,0,0.036572,-0.00051954,0.010816,-0.39844,0.015623,0.032922,1.1271e-06,0.7,0.67,0
0.035389,-0.0030132,0.036583,-0.00056038,0.010807,-0.00031052,0,0,0.033509,-0.014777,0,-0.00080734,0,0,0,0.036585,-0.00056298,0.010807,-0.47895,0.01561,0.032968,1.1297e-06,0.71,0.67,0
0.035725,-0.0030222,0.036588,-0.0006273,0.010788,-0.00035038,0,0,0.033539,-0.01484,0,-0.00091099,0,0,0,0.036591,-0.0006306,0.010788,-0.53938,0.015583,0.033028,1.1324e-06,0.72,0.67,0
0.03606,-0.0030316,0.036594,-0.00066165,0.01078,-0.00039004,0,0,0.033559,-0.014874,0,-0.0010141,0,0,0,0.036598,-0.00066573,0.01078,-0.59975,0.015571,0.033062,1.1341e-06,0.73,0.67,0
0.036396,-0.0030417,0.036639,-0.00065449,0.010795,-0.00045665,0,0,0.033597,-0.014885,0,-0.0011873,0,0,0,0.036644,-0.00066008,0.010795,-0.70144,0.015593,0.033099,1.1382e-06,0.74,0.67,0
0.036732,-0.0030525,0.036717,-0.00074679,0.010791,-0.00054636,0,0,0.033703,-0.014999,0,-0.0014205,0,0,0,0.036725,-0.00075476,0.010791,-0.83536,0.015587,0.033246,1.1487e-06,0.75,0.67,0
0.03707,-0.0030635,0.036852,-0.00093325,0.010776,-0.0005362,0,0,0.033899,-0.015222,0,-0.0013941,0,0,0,0.03686,-0.00094086,0.010776,-0.81285,0.015565,0.033515,1.1671e-06,0.76,0.67,0
0.03741,-0.0030713,0.036715,-0.0011557,0.010668,-0.00044419,0,0,0.033862,-0.015371,0,-0.0011549,0,0,0,0.036721,-0.0011609,0.010668,-0.67189,0.015409,0.033569,1.1609e-06,0.77,0.67,0
0.037747,-0.0030779,0.036798,-0.00045842,0.010902,-0.00038545,0,0,0.033665,-0.014768,0,-0.0010022,0,0,0,0.036802,-0.00046241,0.010902,-0.59269,0.015747,0.03308,1.1466e-06,0.78,0.67,0
0.038083,-0.0030925,0.037072,-0.00031901,0.011026,-0.00068367,0,0,0.03386,-0.014748,0,-0.0017775,0,0,0,0.037084,-0.00033151,0.011026,-1.0472,0.015926,0.033226,1.1688e-06,0.79,0.67,0
0.038424,-0.0031079,0.035965,-0.0018145,0.010245,-0.00085005,0,0,0.033436,-0.015678,0,-0.0022101,0,0,0,0.035985,-0.0018336,0.010245,-1.2883,0.014799,0.033456,1.1125e-06,0.8,0.67,0
0.038752,-0.0031221,0.03142,-0.0017694,0.0088951,-0.00013882,0,0,0.040296,-0.019037,0,9.3706e-05,0,0,0,0.031427,-0.0017766,0.0088951,-0.030976,0.012849,0.02936,8.8151e-07,0.81,0.67,0
0.039193,-0.0031936,0.039244,-0.0025016,0.011023,0.00096745,0,0,0.051348,-0.024438,0,0.0042675,0,0,0,0.039275,-0.0025324,0.011023,1.4975,0.015922,0.036945,1.6362e-06,0.82,0.67,0
0.039852,-0.0033882,0.034434,-0.0013358,0.0099295,0.0011542,0,0,0.063712,-0.02929,0,0.0060019,0,0,0,0.034471,-0.001373,0.0099295,1.8462,0.014343,0.03174,9.6795e-07,0.83,0.67,0
0.040467,-0.0035805,0.033467,-0.00042885,0.0099114,0.00082344,0,0,0.061244,-0.026885,0,0.0042819,0,0,0,0.033487,-0.00044885,0.0099114,1.3908,0.014316,0.030123,8.6455e-07,0.84,0.67,0
0.041077,-0.0037405,0.033396,1.1101e-05,0.010022,0.00070651,0,0,0.060772,-0.026029,0,0.0036739,0,0,0,0.033411,-3.8438e-06,0.010022,1.2118,0.014476,0.029699,8.4678e-07,0.85,0.67,0
0.041682,-0.0038847,0.033324,0.00066294,0.010196,0.0006267,0,0,0.060133,-0.024786,0,0.0032589,0,0,0,0.033336,0.00065091,0.010196,1.0989,0.014728,0.029111,8.2305e-07,0.86,0.67,0
0.04228,-0.0040143,0.033142,0.0010621,0.010261,0.00063504,0,0,0.05949,-0.023918,0,0.0033022,0,0,0,0.033154,0.0010495,0.010261,1.1336,0.014822,0.028633,7.9836e-07,0.87,0.67,0
0.042872,-0.0041272,0.033058,0.0013117,0.010311,0.00069196,0,0,0.059143,-0.023398,0,0.0035982,0,0,0,0.033073,0.0012966,0.010311,1.2481,0.014894,0.028365,7.8542e-07,0.88,0.67,0
0.043462,-0.004224,0.033036,0.0014362,0.010342,0.00073806,0,0,0.059006,-0.023155,0,0.0038379,0,0,0,0.033054,0.0014189,0.010342,1.3372,0.014938,0.028251,7.805e-07,0.89,0.67,0
0.044052,-0.0043061,0.033057,0.0014879,0.010363,0.00075873,0,0,0.059003,-0.023076,0,0.0039454,0,0,0,0.033075,0.0014697,0.010363,1.376,0.014969,0.02823,7.8059e-07,0.9,0.67,0
0.044643,-0.0043753,0.033096,0.0014926,0.010377,0.00075256,0,0,0.05907,-0.023098,0,0.0039133,0,0,0,0.033114,0.0014747,0.010377,1.3633,0.014988,0.02826,7.8324e-07,0.91,0.67,0
0.045234,-0.0044332,0.033142,0.0014674,0.010383,0.00072268,0,0,0.059174,-0.02318,0,0.0037579,0,0,0,0.033159,0.0014509,0.010383,1.3063,0.014997,0.028318,7.8715e-07,0.92,0.67,0
0.045826,-0.0044812,0.033189,0.0014252,0.010384,0.00067235,0,0,0.059293,-0.023294,0,0.0034962,0,0,0,0.033203,0.001411,0.010384,1.2121,0.015,0.02839,7.9157e-07,0.93,0.67,0
0.04642,-0.0045206,0.033234,0.0013754,0.010383,0.00060488,0,0,0.059413,-0.023419,0,0.0031454,0,0,0,0.033245,0.0013639,0.010383,1.0873,0.014997,0.028465,7.9599e-07,0.94,0.67,0
0.047014,-0.0045523,0.033274,0.0013249,0.01038,0.00052344,0,0,0.059525,-0.023542,0,0.0027219,0,0,0,0.033282,0.0013163,0.01038,0.93838,0.014993,0.028535,8.0009e-07,0.95,0.67,0
0.04761,-0.0045772,0.033308,0.0012784,0.010376,0.00043099,0,0,0.059623,-0.023653,0,0.0022411,0,0,0,0.033314,0.0012726,0.010376,0.77078,0.014987,0.028598,8.0364e-07,0.96,0.67,0
0.048207,-0.0045959,0.033335,0.0012394,0.010372,0.00033015,0,0,0.059703,-0.023745,0,0.0017168,0,0,0,0.033338,0.001236,0.010372,0.5893,0.014982,0.028648,8.0651e-07,0.97,0.67,0
0.048804,-0.0046089,0.033354,0.0012102,0.010369,0.00022331,0,0,0.059761,-0.023814,0,0.0011612,0,0,0,0.033356,0.0012086,0.010369,0.39802,0.014978,0.028686,8.0861e-07,0.98,0.67,0
0.049402,-0.0046166,0.033366,0.0011921,0.010367,0.0001126,0,0,0.059797,-0.023856,0,0.00058554,0,0,0,0.033367,0.0011917,0.010367,0.20052,0.014975,0.028709,8.0988e-07,0.99,0.67,0
0.05,-0.0046191,0.03337,0.0011859,0.010367,-4.8776e-05,0,0,0.059808,-0.02387,0,-0.00025363,0,0,0,0.03337,0.0011859,0.010367,-0.086833,0.014974,0.028716,8.1032e-07,1,0.67,0
0,0,0.028714,0.012306,0.012306,-0.0031217,0,0,0.04266,-5.421e-20,0,-0.016233,0,0,0,0.029288,0.011732,0.012306,-10.416,0.017775,0.017276,2.6383e-07,0,0.68,0
0.0004266,-0.00016233,0.028668,0.011761,0.012129,-0.0031187,0,0,0.043001,-0.0009548,0,-0.016217,0,0,0,0.029225,0.011204,0.012129,-10.126,0.017519,0.017576,2.7627e-07,0.01,0.68,0
0.00086002,-0.00032328,0.028851,0.011317,0.01205,-0.0031016,0,0,0.043681,-0.0019065,0,-0.016128,0,0,0,0.029383,0.010785,0.01205,-9.7417,0.017406,0.017999,2.9449e-07,0.02,0.68,0
0.0013002,-0.00048281,0.029032,0.010875,0.011972,-0.0030826,0,0,0.044357,-0.0028537,0,-0.016029,0,0,0,0.029542,0.010365,0.011972,-9.3769,0.017293,0.018425,3.1305e-07,0.03,0.68,0
0.0017472,-0.0006408,0.029213,0.010435,0.011894,-0.0030609,0,0,0.045029,-0.003795,0,-0.015917,0,0,0,0.0297,0.0099484,0.011894,-9.0281,0.017181,0.018854,3.3187e-07,0.04,0.68,0
0.0022008,-0.00079714,0.029392,0.0099986,0.011817,-0.0030362,0,0,0.045695,-0.0047285,0,-0.015788,0,0,0,0.029857,0.0095344,0.011817,-8.6929,0.017069,0.019282,3.5087e-07,0.05,0.68,0
0.0026611,-0.0009517,0.029569,0.0095668,0.011741,-0.0030079,0,0,0.046354,-0.0056524,0,-0.015641,0,0,0,0.030012,0.0091243,0.011741,-8.3694,0.016959,0.01971,3.6999e-07,0.06,0.68,0
0.0031279,-0.0011043,0.029743,0.0091403,0.011665,-0.0029758,0,0,0.047003,-0.0065644,0,-0.015474,0,0,0,0.030164,0.0087191,0.011665,-8.0562,0.016849,0.020135,3.8914e-07,0.07,0.68,0
0.0036011,-0.0012548,0.029914,0.0087201,0.01159,-0.0029397,0,0,0.047642,-0.0074624,0,-0.015286,0,0,0,0.030314,0.0083199,0.01159,-7.7523,0.016741,0.020555,4.0825e-07,0.08,0.68,0
0.0040807,-0.001403,0.030081,0.0083071,0.011517,-0.0028997,0,0,0.048268,-0.0083444,0,-0.015078,0,0,0,0.030461,0.0079276,0.011517,-7.457,0.016635,0.02097,4.2724e-07,0.09,0.68,0
0.0045665,-0.0015487,0.030244,0.0079023,0.011444,-0.0028557,0,0,0.04888,-0.0092081,0,-0.01485,0,0,0,0.030603,0.0075431,0.011444,-7.17,0.01653,0.021378,4.4603e-07,0.1,0.68,0
0.0050583,-0.0016917,0.030402,0.0075067,0.011373,-0.0028082,0,0,0.049477,-0.010052,0,-0.014602,0,0,0,0.030742,0.0071673,0.011373,-6.8913,0.016427,0.021778,4.6454e-07,0.11,0.68,0
0.005556,-0.0018319,0.030556,0.0071212,0.011303,-0.0027572,0,0,0.050057,-0.010873,0,-0.014338,0,0,0,0.030876,0.0068011,0.011303,-6.6208,0.016327,0.022169,4.8272e-07,0.12,0.68,0
0.0060595,-0.001969,0.030704,0.0067465,0.011235,-0.0027033,0,0,0.050618,-0.01167,0,-0.014057,0,0,0,0.031005,0.0064452,0.011235,-6.3587,0.016228,0.022549,5.0049e-07,0.13,0.68,0
0.0065684,-0.0021029,0.030846,0.0063834,0.011169,-0.0026469,0,0,0.05116,-0.012442,0,-0.013764,0,0,0,0.031129,0.0061003,0.011169,-6.1054,0.016133,0.022919,5.178e-07,0.14,0.68,0
0.0070827,-0.0022335,0.030982,0.0060326,0.011104,-0.0025884,0,0,0.051682,-0.013187,0,-0.01346,0,0,0,0.031248,0.0057669,0.011104,-5.8611,0.01604,0.023276,5.346e-07,0.15,0.68,0
0.007602,-0.0023605,0.031112,0.0056947,0.011042,-0.0025285,0,0,0.052182,-0.013903,0,-0.013148,0,0,0,0.031361,0.0054456,0.011042,-5.6262,0.01595,0.02362,5.5084e-07,0.16,0.68,0
0.0081263,-0.0024839,0.031236,0.0053703,0.010982,-0.0024676,0,0,0.05266,-0.01459,0,-0.012832,0,0,0,0.031469,0.005137,0.010982,-5.4012,0.015863,0.023951,5.6648e-07,0.17,0.68,0
0.0086552,-0.0026036,0.031353,0.0050597,0.010924,-0.0024065,0,0,0.053117,-0.015247,0,-0.012514,0,0,0,0.031572,0.0048413,0.010924,-5.1864,0.015779,0.024268,5.8149e-07,0.18,0.68,0
0.0091886,-0.0027193,0.031465,0.0047633,0.010868,-0.0023455,0,0,0.05355,-0.015873,0,-0.012197,0,0,0,0.031669,0.0045589,0.010868,-4.9822,0.015699,0.024571,5.9585e-07,0.19,0.68,0
0.0097262,-0.0028311,0.031569,0.0044815,0.010815,-0.0022854,0,0,0.053961,-0.016468,0,-0.011884,0,0,0,0.031761,0.00429,0.010815,-4.789,0.015622,0.024859,6.0953e-07,0.2,0.68,0
0.010268,-0.0029389,0.031668,0.0042144,0.010765,-0.0022267,0,0,0.054348,-0.017031,0,-0.011579,0,0,0,0.031847,0.0040349,0.010765,-4.607,0.015549,0.025133,6.2252e-07,0.21,0.68,0
0.010813,-0.0030426,0.03176,0.0039621,0.010717,-0.0021699,0,0,0.054713,-0.017562,0,-0.011283,0,0,0,0.031928,0.0037938,0.010717,-4.4366,0.01548,0.025391,6.348e-07,0.22,0.68,0
0.011362,-0.0031421,0.031846,0.0037249,0.010671,-0.0021154,0,0,0.055055,-0.018061,0,-0.011,0,0,0,0.032004,0.0035667,0.010671,-4.278,0.015414,0.025635,6.4636e-07,0.23,0.68,0
0.011914,-0.0032374,0.031926,0.0035028,0.010629,-0.0020638,0,0,0.055374,-0.018527,0,-0.010732,0,0,0,0.032075,0.0033537,0.010629,-4.1313,0.015353,0.025863,6.5721e-07,0.24,0.68,0
0.01247,-0.0033286,0.032,0.0032957,0.010589,-0.0020154,0,0,0.05567,-0.018962,0,-0.01048,0,0,0,0.032141,0.0031549,0.010589,-3.9968,0.015295,0.026076,6.6733e-07,0.25,0.68,0
0.013028,-0.0034154,0.032068,0.0031038,0.010552,-0.0019707,0,0,0.055943,-0.019364,0,-0.010247,0,0,0,0.032202,0.0029703,0.010552,-3.8745,0.015241,0.026274,6.7672e-07,0.26,0.68,0
0.013588,-0.003498,0.03213,0.002927,0.010517,-0.0019298,0,0,0.056194,-0.019735,0,-0.010035,0,0,0,0.032257,0.0028,0.010517,-3.7644,0.015192,0.026457,6.8538e-07,0.27,0.68,0
0.014152,-0.0035763,0.032187,0.0027651,0.010486,-0.0018931,0,0,0.056423,-0.020073,0,-0.0098443,0,0,0,0.032308,0.0026438,0.010486,-3.6665,0.015146,0.026624,6.9331e-07,0.28,0.68,0
0.014717,-0.0036503,0.032238,0.0026183,0.010457,-0.0018608,0,0,0.05663,-0.02038,0,-0.0096762,0,0,0,0.032354,0.0025018,0.010457,-3.5808,0.015104,0.026776,7.005e-07,0.29,0.68,0
0.015284,-0.0037199,0.032282,0.0024863,0.010431,-0.001833,0,0,0.056815,-0.020655,0,-0.0095314,0,0,0,0.032395,0.002374,0.010431,-3.507,0.015067,0.026913,7.0695e-07,0.3,0.68,0
0.015853,-0.0037852,0.032322,0.0023691,0.010407,-0.0018097,0,0,0.056977,-0.020899,0,-0.0094102,0,0,0,0.032431,0.0022601,0.010407,-3.4449,0.015033,0.027034,7.1266e-07,0.31,0.68,0
0.016424,-0.003846,0.032355,0.0022664,0.010386,-0.0017908,0,0,0.057118,-0.021112,0,-0.0093123,0,0,0,0.032461,0.0021602,0.010386,-3.3942,0.015003,0.027139,7.1761e-07,0.32,0.68,0
0.016996,-0.0039023,0.032382,0.0021782,0.010368,-0.0017764,0,0,0.057236,-0.021294,0,-0.0092372,0,0,0,0.032486,0.0020741,0.010368,-3.3544,0.014976,0.02723,7.2181e-07,0.33,0.68,0
0.017569,-0.0039541,0.032403,0.0021042,0.010352,-0.0017661,0,0,0.057333,-0.021445,0,-0.0091837,0,0,0,0.032506,0.0020016,0.010352,-3.3247,0.014953,0.027304,7.2524e-07,0.34,0.68,0
0.018142,-0.0040012,0.032418,0.0020441,0.010339,-0.0017596,0,0,0.057407,-0.021566,0,-0.0091499,0,0,0,0.03252,0.0019425,0.010339,-3.3045,0.014934,0.027363,7.2789e-07,0.35,0.68,0
0.018717,-0.0040434,0.032427,0.0019975,0.010327,-0.0017564,0,0,0.057459,-0.021657,0,-0.0091334,0,0,0,0.032528,0.0018964,0.010327,-3.2926,0.014917,0.027407,7.2976e-07,0.36,0.68,0
0.019291,-0.0040807,0.032429,0.0019637,0.010318,-0.001756,0,0,0.057489,-0.021721,0,-0.009131,0,0,0,0.03253,0.0018629,0.010318,-3.2879,0.014903,0.027435,7.3083e-07,0.37,0.68,0
0.019866,-0.0041126,0.032424,0.0019421,0.01031,-0.0017574,0,0,0.057497,-0.021756,0,-0.0091386,0,0,0,0.032525,0.0018411,0.01031,-3.2889,0.014892,0.027447,7.3113e-07,0.38,0.68,0
0.020441,-0.0041391,0.032412,0.0019316,0.010303,-0.0017598,0,0,0.057483,-0.021766,0,-0.0091512,0,0,0,0.032513,0.0018303,0.010303,-3.2935,0.014882,0.027446,7.3064e-07,0.39,0.68,0
0.021016,-0.0041596,0.032393,0.0019307,0.010297,-0.001762,0,0,0.05745,-0.021753,0,-0.0091626,0,0,0,0.032495,0.0018291,0.010297,-3.2995,0.014874,0.02743,7.294e-07,0.4,0.68,0
0.02159,-0.0041738,0.032368,0.0019376,0.010292,-0.0017627,0,0,0.057398,-0.021721,0,-0.009166,0,0,0,0.03247,0.0018358,0.010292,-3.3041,0.014866,0.027402,7.2747e-07,0.41,0.68,0
0.022164,-0.0041812,0.032336,0.0019496,0.010286,-0.0017602,0,0,0.05733,-0.021674,0,-0.0091531,0,0,0,0.032437,0.001848,0.010286,-3.3043,0.014857,0.027364,7.249e-07,0.42,0.68,0
0.022737,-0.0041811,0.032298,0.0019633,0.010278,-0.0017529,0,0,0.057251,-0.021619,0,-0.0091151,0,0,0,0.032399,0.0018623,0.010278,-3.2963,0.014846,0.027319,7.2184e-07,0.43,0.68,0
0.023309,-0.0041728,0.032255,0.001974,0.010269,-0.0017389,0,0,0.057164,-0.021566,0,-0.0090424,0,0,0,0.032354,0.0018745,0.010269,-3.2759,0.014833,0.02727,7.1848e-07,0.44,0.68,0
0.02388,-0.0041555,0.032209,0.0019756,0.010255,-0.0017164,0,0,0.05708,-0.021528,0,-0.0089253,0,0,0,0.032306,0.0018784,0.010255,-3.2389,0.014813,0.027224,7.1508e-07,0.45,0.68,0
0.024451,-0.0041282,0.032163,0.0019597,0.010237,-0.0016837,0,0,0.057009,-0.021521,0,-0.0087555,0,0,0,0.032257,0.0018661,0.010237,-3.1809,0.014787,0.02719,7.1207e-07,0.46,0.68,0
0.02502,-0.0040899,0.032122,0.0019155,0.010211,-0.0016399,0,0,0.056969,-0.021569,0,-0.0085277,0,0,0,0.032211,0.0018267,0.010211,-3.0985,0.01475,0.02718,7.1008e-07,0.47,0.68,0
0.02559,-0.0040394,0.032095,0.001828,0.010177,-0.0015862,0,0,0.056987,-0.021707,0,-0.0082483,0,0,0,0.032178,0.0017451,0.010177,-2.9918,0.0147,0.027215,7.1008e-07,0.48,0.68,0
0.02616,-0.0039758,0.032089,0.0016747,0.010129,-0.0015291,0,0,0.057095,-0.021981,0,-0.0079513,0,0,0,0.032165,0.001598,0.010129,-2.871,0.014631,0.02732,7.1331e-07,0.49,0.68,0
0.026732,-0.0038981,0.032111,0.0014331,0.010063,-0.0014873,0,0,0.057324,-0.022438,0,-0.0077338,0,0,0,0.032183,0.0013612,0.010063,-2.7691,0.014536,0.027522,7.2097e-07,0.5,0.68,0
0.027307,-0.0038063,0.032127,0.0010745,0.0099605,-0.0014844,0,0,0.057633,-0.023104,0,-0.0077189,0,0,0,0.032198,0.0010037,0.0099605,-2.7306,0.014387,0.027819,7.3167e-07,0.51,0.68,0
0.027885,-0.0037002,0.032146,0.00066729,0.0098439,-0.0015219,0,0,0.057985,-0.023859,0,-0.0079138,0,0,0,0.032219,0.00059388,0.0098439,-2.7615,0.014219,0.028163,7.4397e-07,0.52,0.68,0
0.028466,-0.0035771,0.032324,0.0002374,0.0097684,-0.001591,0,0,0.058644,-0.024781,0,-0.0082731,0,0,0,0.032403,0.00015871,0.0097684,-2.8317,0.01411,0.028673,7.6822e-07,0.53,0.68,0
0.029057,-0.0034407,0.032148,-0.00091915,0.0093686,-0.0016747,0,0,0.059226,-0.026748,0,-0.0087087,0,0,0,0.032232,-0.0010038,0.0093686,-2.892,0.013532,0.029453,7.8478e-07,0.54,0.68,0
0.029651,-0.0032872,0.033186,-0.0015476,0.0094914,-0.0023338,0,0,0.061605,-0.028702,0,-0.012136,0,0,0,0.033342,-0.0017037,0.0094914,-3.8269,0.01371,0.031003,8.8507e-07,0.55,0.68,0
0.03029,-0.0031429,0.03831,-0.0017269,0.010975,-0.0021565,0,0,0.049737,-0.022989,0,-0.0088262,0,0,0,0.03844,-0.0018576,0.010975,-3.3004,0.015853,0.035658,1.5101e-06,0.56,0.68,0
0.030716,-0.0031006,0.030612,-0.002031,0.0085744,-0.00098806,0,0,0.039316,-0.018912,0,-0.0047282,0,0,0,0.03067,-0.0020887,0.0085744,-2.1666,0.012385,0.02894,8.329e-07,0.57,0.68,0
0.031042,-0.0030829,0.035576,-0.00095241,0.010387,-0.0005536,0,0,0.032745,-0.014741,0,-0.0014394,0,0,0,0.035584,-0.0009608,0.010387,-0.86807,0.015003,0.032397,1.0516e-06,0.58,0.68,0
0.031371,-0.003088,0.036822,-0.00050882,0.010894,0.00033574,0,0,0.033706,-0.014823,0,0.00087291,0,0,0,0.036825,-0.00051184,0.010894,0.51524,0.015736,0.03314,1.1503e-06,0.59,0.68,0
0.031717,-0.0031056,0.037128,-0.00075587,0.010911,4.9169e-05,0,0,0.034081,-0.015168,0,0.00012784,0,0,0,0.037128,-0.00075593,0.010911,0.074365,0.015761,0.033605,1.1867e-06,0.6,0.68,0
0.032053,-0.0031086,0.036491,-0.00074451,0.010724,0.000284,0,0,0.033497,-0.014909,0,0.00073839,0,0,0,0.036493,-0.00074667,0.010724,0.43696,0.01549,0.033033,1.127e-06,0.61,0.68,0
0.032386,-0.0031095,0.036446,-0.00029154,0.010846,0.0001342,0,0,0.033279,-0.014479,0,0.00034891,0,0,0,0.036446,-0.00029203,0.010846,0.20929,0.015667,0.032628,1.1084e-06,0.62,0.68,0
0.032718,-0.003112,0.036379,-0.00038699,0.010798,-2.4933e-05,0,0,0.033256,-0.01454,0,-6.4825e-05,0,0,0,0.036379,-0.000387,0.010798,-0.038855,0.015597,0.032644,1.1053e-06,0.63,0.68,0
0.033051,-0.0031167,0.036415,-0.00056819,0.010754,-7.2253e-05,0,0,0.03336,-0.014719,0,-0.00018786,0,0,0,0.036415,-0.00056833,0.010754,-0.11194,0.015534,0.032821,1.1143e-06,0.64,0.68,0
0.033385,-0.0031212,0.036477,-0.00051814,0.010788,-4.3585e-05,0,0,0.033396,-0.014698,0,-0.00011332,0,0,0,0.036477,-0.00051819,0.010788,-0.067502,0.015582,0.032836,1.1184e-06,0.65,0.68,0
0.033719,-0.0031256,0.036511,-0.00039244,0.010836,-8.4389e-05,0,0,0.033378,-0.014597,0,-0.00021941,0,0,0,0.036511,-0.00039263,0.010836,-0.13102,0.015651,0.032766,1.1175e-06,0.66,0.68,0
0.034053,-0.0031309,0.036513,-0.00040078,0.010833,-0.00015371,0,0,0.033383,-0.014605,0,-0.00039965,0,0,0,0.036513,-0.00040142,0.010833,-0.23858,0.015648,0.032775,1.118e-06,0.67,0.68,0
0.034387,-0.0031373,0.036517,-0.00048253,0.01081,-0.00019611,0,0,0.033419,-0.014681,0,-0.00050989,0,0,0,0.036518,-0.00048357,0.01081,-0.30367,0.015615,0.032845,1.121e-06,0.68,0.68,0
0.034722,-0.0031443,0.036527,-0.00049586,0.010809,-0.00020731,0,0,0.033433,-0.014697,0,-0.00053901,0,0,0,0.036528,-0.00049702,0.010809,-0.32082,0.015614,0.032864,1.1224e-06,0.69,0.68,0
0.035056,-0.0031519,0.036541,-0.00044392,0.010829,-0.00025402,0,0,0.033426,-0.014655,0,-0.00066046,0,0,0,0.036543,-0.00044566,0.010829,-0.3935,0.015642,0.032837,1.1221e-06,0.7,0.68,0
0.03539,-0.0031607,0.036559,-0.00046904,0.010827,-0.00032954,0,0,0.033452,-0.014685,0,-0.0008568,0,0,0,0.036562,-0.00047197,0.010827,-0.50986,0.015639,0.032875,1.1247e-06,0.71,0.68,0
0.035725,-0.0031704,0.036544,-0.00062564,0.010776,-0.00037784,0,0,0.033499,-0.014821,0,-0.00098238,0,0,0,0.036548,-0.00062948,0.010776,-0.58235,0.015565,0.032988,1.1283e-06,0.72,0.68,0
0.03606,-0.0031801,0.036502,-0.00070035,0.010741,-0.00036124,0,0,0.03349,-0.014873,0,-0.00093923,0,0,0,0.036506,-0.00070385,0.010741,-0.55628,0.015514,0.03301,1.1268e-06,0.73,0.68,0
0.036395,-0.0031898,0.036489,-0.00054566,0.010783,-0.00042658,0,0,0.033418,-0.014727,0,-0.0011091,0,0,0,0.036494,-0.00055057,0.010783,-0.65984,0.015575,0.032877,1.1209e-06,0.74,0.68,0
0.036728,-0.0032018,0.036576,-0.00049002,0.010826,-0.0006046,0,0,0.033475,-0.01471,0,-0.001572,0,0,0,0.036586,-0.00049988,0.010826,-0.93425,0.015637,0.032918,1.1278e-06,0.75,0.68,0
0.037064,-0.0032156,0.036647,-0.00097138,0.010703,-0.00076834,0,0,0.033728,-0.015176,0,-0.0019977,0,0,0,0.036663,-0.00098706,0.010703,-1.1696,0.015459,0.033377,1.1501e-06,0.76,0.68,0
0.037403,-0.0032273,0.037292,-0.0010033,0.010887,-0.00055479,0,0,0.034327,-0.015457,0,-0.0014425,0,0,0,0.0373,-0.0010114,0.010887,-0.82981,0.015725,0.033963,1.2114e-06,0.77,0.68,0
0.037751,-0.0032247,0.037006,-0.00073114,0.010883,-0.00088036,0,0,0.033961,-0.015098,0,-0.0022889,0,0,0,0.037027,-0.00075167,0.010883,-1.3357,0.015719,0.033512,1.177e-06,0.78,0.68,0
0.038082,-0.003236,0.03577,-0.0012914,0.010344,-4.0282e-06,0,0,0.033054,-0.015126,0,-1.0473e-05,0,0,0,0.03577,-0.0012914,0.010344,-0.0062275,0.014941,0.032828,1.0777e-06,0.79,0.68,0
0.038412,-0.003269,0.030772,-0.0023203,0.0085355,0.00051043,0,0,0.039659,-0.019358,0,0.0030364,0,0,0,0.030808,-0.0023564,0.0085355,1.3222,0.012329,0.02928,8.5235e-07,0.8,0.68,0
0.038842,-0.003329,0.038367,-0.0022776,0.010827,0.001581,0,0,0.050103,-0.023725,0,0.0067372,0,0,0,0.038444,-0.0023538,0.010827,2.4501,0.015639,0.036062,1.5299e-06,0.81,0.68,0
0.039485,-0.0034977,0.033216,-0.0021075,0.0093325,0.0018099,0,0,0.062096,-0.029744,0,0.0094117,0,0,0,0.033308,-0.0022,0.0093325,2.9256,0.01348,0.031374,8.9414e-07,0.82,0.68,0
0.040084,-0.0036771,0.032237,-0.0014254,0.0092435,0.0010874,0,0,0.059783,-0.027739,0,0.0056545,0,0,0,0.032272,-0.0014605,0.0092435,1.8483,0.013352,0.029856,7.983e-07,0.83,0.68,0
0.040681,-0.0038415,0.032435,-0.00023636,0.0096597,0.00093938,0,0,0.059217,-0.02573,0,0.0048848,0,0,0,0.032462,-0.00026335,0.0096597,1.6456,0.013953,0.029064,7.8328e-07,0.84,0.68,0
0.041268,-0.0039935,0.032284,0.00022641,0.0097532,0.00082306,0,0,0.058581,-0.02477,0,0.0042799,0,0,0,0.032305,0.0002053,0.0097532,1.4697,0.014088,0.02855,7.6012e-07,0.85,0.68,0
0.041852,-0.0041291,0.032287,0.00064925,0.0098808,0.00074041,0,0,0.058255,-0.024002,0,0.0038502,0,0,0,0.032304,0.00063193,0.0098808,1.3399,0.014272,0.028209,7.4891e-07,0.86,0.68,0
0.042433,-0.0042509,0.032294,0.0010191,0.0099939,0.00069936,0,0,0.05798,-0.023334,0,0.0036366,0,0,0,0.03231,0.0010035,0.0099939,1.2804,0.014436,0.027918,7.394e-07,0.87,0.68,0
0.043012,-0.0043589,0.032295,0.0012636,0.010068,0.00069655,0,0,0.057791,-0.02289,0,0.0036221,0,0,0,0.03231,0.001248,0.010068,1.2853,0.014542,0.027725,7.3283e-07,0.88,0.68,0
0.043589,-0.004453,0.032324,0.0014112,0.010121,0.00070648,0,0,0.057729,-0.022644,0,0.0036737,0,0,0,0.03234,0.0013951,0.010121,1.3085,0.014619,0.027635,7.3085e-07,0.89,0.68,0
0.044166,-0.0045342,0.032375,0.0014861,0.010158,0.00070847,0,0,0.057764,-0.022548,0,0.003684,0,0,0,0.032391,0.0014699,0.010158,1.3132,0.014673,0.027622,7.3232e-07,0.9,0.68,0
0.044744,-0.0046035,0.032439,0.0015125,0.010186,0.00069478,0,0,0.05786,-0.02255,0,0.0036129,0,0,0,0.032455,0.0014969,0.010186,1.2863,0.014712,0.027657,7.3596e-07,0.91,0.68,0
0.045323,-0.0046621,0.032507,0.001507,0.010204,0.00066371,0,0,0.057988,-0.022613,0,0.0034513,0,0,0,0.032522,0.0014928,0.010204,1.2259,0.01474,0.027719,7.4071e-07,0.92,0.68,0
0.045904,-0.0047112,0.032574,0.001482,0.010217,0.00061619,0,0,0.058128,-0.02271,0,0.0032042,0,0,0,0.032586,0.0014698,0.010217,1.1349,0.014757,0.027795,7.4585e-07,0.93,0.68,0
0.046486,-0.0047518,0.032635,0.0014468,0.010225,0.00055411,0,0,0.058268,-0.022822,0,0.0028814,0,0,0,0.032645,0.0014369,0.010225,1.0175,0.014769,0.027873,7.5091e-07,0.94,0.68,0
0.047069,-0.0047846,0.032689,0.001408,0.010229,0.00047969,0,0,0.058396,-0.022935,0,0.0024944,0,0,0,0.032697,0.0014007,0.010229,0.87835,0.014776,0.027948,7.5557e-07,0.95,0.68,0
0.047654,-0.0048106,0.032735,0.0013708,0.010232,0.00039526,0,0,0.058508,-0.023038,0,0.0020553,0,0,0,0.03274,0.0013659,0.010232,0.7219,0.014779,0.028014,7.5959e-07,0.96,0.68,0
0.048239,-0.0048302,0.032771,0.0013388,0.010233,0.00030302,0,0,0.058598,-0.023125,0,0.0015757,0,0,0,0.032774,0.0013358,0.010233,0.55229,0.014781,0.028067,7.6283e-07,0.97,0.68,0
0.048826,-0.0048439,0.032797,0.0013142,0.010233,0.0002051,0,0,0.058665,-0.023189,0,0.0010665,0,0,0,0.032798,0.0013129,0.010233,0.37324,0.014781,0.028107,7.6521e-07,0.98,0.68,0
0.049413,-0.004852,0.032812,0.0012989,0.010233,0.00010346,0,0,0.058705,-0.02323,0,0.000538,0,0,0,0.032813,0.0012986,0.010233,0.18811,0.014781,0.028132,7.6665e-07,0.99,0.68,0
0.05,-0.0048546,0.032817,0.0012937,0.010233,-5.1451e-05,0,0,0.058719,-0.023243,0,-0.00026754,0,0,0,0.032817,0.0012936,0.010233,-0.093514,0.014781,0.02814,7.6715e-07,1,0.68,0
0,0,0.028678,0.01229,0.01229,-0.0033055,0,0,0.042607,-3.2526e-19,0,-0.017188,0,0,0,0.029319,0.011649,0.01229,-10.985,0.017753,0.017359,2.6741e-07,0,0.69,0
0.00042607,-0.00017189,0.028632,0.011745,0.012113,-0.0033023,0,0,0.042949,-0.00095668,0,-0.017172,0,0,0,0.029254,0.011122,0.012113,-10.681,0.017497,0.017658,2.7977e-07,0.01,0.69,0
0.00085897,-0.00034237,0.028815,0.011299,0.012034,-0.0032846,0,0,0.04363,-0.0019119,0,-0.01708,0,0,0,0.029411,0.010703,0.012034,-10.279,0.017383,0.018079,2.9794e-07,0.02,0.69,0
0.0012987,-0.00051139,0.028997,0.010854,0.011955,-0.0032645,0,0,0.04431,-0.0028642,0,-0.016975,0,0,0,0.029567,0.010284,0.011955,-9.8956,0.017269,0.018504,3.1646e-07,0.03,0.69,0
0.0017452,-0.00067882,0.029179,0.010411,0.011877,-0.0032414,0,0,0.044985,-0.0038117,0,-0.016855,0,0,0,0.029723,0.0098668,0.011877,-9.5278,0.017156,0.018931,3.3525e-07,0.04,0.69,0
0.0021984,-0.00084453,0.029358,0.009971,0.011799,-0.0032146,0,0,0.045655,-0.0047522,0,-0.016716,0,0,0,0.029877,0.0094519,0.011799,-9.1732,0.017043,0.019359,3.5423e-07,0.05,0.69,0
0.0026583,-0.0010084,0.029535,0.0095351,0.011721,-0.0031837,0,0,0.046317,-0.0056835,0,-0.016555,0,0,0,0.03003,0.0090406,0.011721,-8.83,0.016931,0.019786,3.7331e-07,0.06,0.69,0
0.0031247,-0.0011701,0.029709,0.0091044,0.011644,-0.0031485,0,0,0.04697,-0.0066033,0,-0.016372,0,0,0,0.03018,0.008634,0.011644,-8.4967,0.016819,0.020209,3.9241e-07,0.07,0.69,0
0.0035976,-0.0013296,0.02988,0.0086799,0.011568,-0.0031088,0,0,0.047611,-0.007509,0,-0.016166,0,0,0,0.030326,0.0082334,0.011568,-8.1727,0.016709,0.020629,4.1144e-07,0.08,0.69,0
0.0040769,-0.0014867,0.030046,0.0082627,0.011493,-0.0030645,0,0,0.048239,-0.0083981,0,-0.015936,0,0,0,0.030469,0.0078398,0.011493,-7.8573,0.016601,0.021042,4.3031e-07,0.09,0.69,0
0.0045624,-0.001641,0.030208,0.0078539,0.011419,-0.0030159,0,0,0.048853,-0.0092684,0,-0.015683,0,0,0,0.030608,0.0074541,0.011419,-7.5503,0.016494,0.021448,4.4895e-07,0.1,0.69,0
0.005054,-0.0017925,0.030365,0.0074545,0.011346,-0.0029632,0,0,0.04945,-0.010117,0,-0.015409,0,0,0,0.030742,0.0070774,0.011346,-7.2517,0.016388,0.021845,4.6727e-07,0.11,0.69,0
0.0055514,-0.0019409,0.030516,0.0070655,0.011274,-0.0029068,0,0,0.050028,-0.010943,0,-0.015115,0,0,0,0.030871,0.0067106,0.011274,-6.9616,0.016285,0.022233,4.852e-07,0.12,0.69,0
0.0060545,-0.002086,0.030661,0.0066879,0.011205,-0.002847,0,0,0.050587,-0.011744,0,-0.014804,0,0,0,0.030995,0.0063544,0.011205,-6.6804,0.016185,0.022609,5.0268e-07,0.13,0.69,0
0.0065632,-0.0022277,0.0308,0.0063224,0.011137,-0.0027844,0,0,0.051125,-0.012517,0,-0.014479,0,0,0,0.031113,0.0060097,0.011137,-6.4084,0.016086,0.022973,5.1965e-07,0.14,0.69,0
0.007077,-0.0023657,0.030932,0.0059698,0.011071,-0.0027195,0,0,0.05164,-0.013262,0,-0.014142,0,0,0,0.031225,0.0056769,0.011071,-6.146,0.015991,0.023324,5.3604e-07,0.15,0.69,0
0.007596,-0.0024999,0.031058,0.0056306,0.011007,-0.0026531,0,0,0.052133,-0.013977,0,-0.013796,0,0,0,0.031332,0.0053568,0.011007,-5.8937,0.015898,0.023661,5.5182e-07,0.16,0.69,0
0.0081197,-0.0026301,0.031177,0.0053055,0.010945,-0.0025856,0,0,0.052603,-0.014662,0,-0.013445,0,0,0,0.031433,0.0050497,0.010945,-5.6518,0.015809,0.023985,5.6694e-07,0.17,0.69,0
0.008648,-0.0027563,0.031288,0.0049949,0.010885,-0.0025178,0,0,0.053049,-0.015314,0,-0.013092,0,0,0,0.031527,0.004756,0.010885,-5.4208,0.015723,0.024294,5.8139e-07,0.18,0.69,0
0.0091807,-0.0028783,0.031393,0.0046991,0.010828,-0.0024501,0,0,0.05347,-0.015934,0,-0.012741,0,0,0,0.031616,0.0044761,0.010828,-5.2011,0.01564,0.024588,5.9512e-07,0.19,0.69,0
0.0097174,-0.0029961,0.031491,0.0044183,0.010773,-0.0023834,0,0,0.053867,-0.016522,0,-0.012394,0,0,0,0.031699,0.0042101,0.010773,-4.993,0.015561,0.024866,6.0812e-07,0.2,0.69,0
0.010258,-0.0031094,0.031582,0.0041529,0.01072,-0.0023181,0,0,0.05424,-0.017076,0,-0.012054,0,0,0,0.031776,0.0039584,0.01072,-4.7968,0.015485,0.025129,6.2037e-07,0.21,0.69,0
0.010802,-0.0032184,0.031666,0.0039029,0.010671,-0.0022547,0,0,0.054588,-0.017596,0,-0.011725,0,0,0,0.031848,0.003721,0.010671,-4.6129,0.015413,0.025376,6.3187e-07,0.22,0.69,0
0.01135,-0.0033228,0.031743,0.0036683,0.010623,-0.0021938,0,0,0.054911,-0.018083,0,-0.011408,0,0,0,0.031914,0.0034979,0.010623,-4.4413,0.015345,0.025608,6.426e-07,0.23,0.69,0
0.0119,-0.0034227,0.031814,0.0034493,0.010579,-0.0021359,0,0,0.055211,-0.018537,0,-0.011107,0,0,0,0.031974,0.0032894,0.010579,-4.2823,0.015281,0.025823,6.5257e-07,0.24,0.69,0
0.012454,-0.0035181,0.031878,0.0032457,0.010537,-0.0020813,0,0,0.055486,-0.018957,0,-0.010823,0,0,0,0.032029,0.0030952,0.010537,-4.1359,0.01522,0.026023,6.6176e-07,0.25,0.69,0
0.01301,-0.0036089,0.031936,0.0030576,0.010498,-0.0020304,0,0,0.055738,-0.019345,0,-0.010558,0,0,0,0.032078,0.0029156,0.010498,-4.0022,0.015164,0.026207,6.7019e-07,0.26,0.69,0
0.013569,-0.0036952,0.031987,0.0028849,0.010462,-0.0019834,0,0,0.055966,-0.019699,0,-0.010314,0,0,0,0.032121,0.0027503,0.010462,-3.8811,0.015111,0.026375,6.7784e-07,0.27,0.69,0
0.014129,-0.0037768,0.032031,0.0027274,0.010428,-0.0019407,0,0,0.05617,-0.020021,0,-0.010092,0,0,0,0.03216,0.0025994,0.010428,-3.7725,0.015062,0.026527,6.8471e-07,0.28,0.69,0
0.014692,-0.0038537,0.03207,0.0025849,0.010396,-0.0019023,0,0,0.056351,-0.02031,0,-0.0098922,0,0,0,0.032192,0.0024627,0.010396,-3.6764,0.015017,0.026663,6.9081e-07,0.29,0.69,0
0.015256,-0.003926,0.032102,0.0024575,0.010368,-0.0018685,0,0,0.056509,-0.020567,0,-0.0097159,0,0,0,0.032219,0.0023402,0.010368,-3.5923,0.014976,0.026783,6.9613e-07,0.3,0.69,0
0.015822,-0.0039936,0.032128,0.0023447,0.010342,-0.001839,0,0,0.056643,-0.020792,0,-0.0095629,0,0,0,0.032241,0.0022316,0.010342,-3.52,0.014938,0.026888,7.0066e-07,0.31,0.69,0
0.016389,-0.0040565,0.032147,0.0022465,0.010318,-0.001814,0,0,0.056755,-0.020986,0,-0.0094328,0,0,0,0.032256,0.0021369,0.010318,-3.4591,0.014904,0.026976,7.0441e-07,0.32,0.69,0
0.016957,-0.0041145,0.032159,0.0021625,0.010297,-0.0017932,0,0,0.056843,-0.021148,0,-0.0093247,0,0,0,0.032266,0.0020557,0.010297,-3.409,0.014873,0.027048,7.0736e-07,0.33,0.69,0
0.017526,-0.0041677,0.032165,0.0020924,0.010277,-0.0017764,0,0,0.056908,-0.02128,0,-0.0092373,0,0,0,0.032269,0.0019879,0.010277,-3.3689,0.014845,0.027105,7.095e-07,0.34,0.69,0
0.018096,-0.0042159,0.032163,0.0020358,0.01026,-0.0017632,0,0,0.05695,-0.021382,0,-0.0091687,0,0,0,0.032266,0.001933,0.01026,-3.338,0.01482,0.027145,7.1084e-07,0.35,0.69,0
0.018665,-0.004259,0.032155,0.0019921,0.010244,-0.0017531,0,0,0.056968,-0.021455,0,-0.0091163,0,0,0,0.032257,0.0018905,0.010244,-3.3153,0.014797,0.02717,7.1136e-07,0.36,0.69,0
0.019235,-0.0042967,0.032139,0.0019606,0.01023,-0.0017456,0,0,0.056964,-0.0215,0,-0.0090768,0,0,0,0.032239,0.00186,0.01023,-3.2994,0.014776,0.027179,7.1107e-07,0.37,0.69,0
0.019804,-0.004329,0.032115,0.0019404,0.010217,-0.0017397,0,0,0.056936,-0.021518,0,-0.0090464,0,0,0,0.032215,0.0018404,0.010217,-3.2888,0.014757,0.027173,7.0996e-07,0.38,0.69,0
0.020374,-0.0043554,0.032084,0.0019302,0.010204,-0.0017346,0,0,0.056887,-0.021512,0,-0.0090202,0,0,0,0.032183,0.0018307,0.010204,-3.2816,0.014739,0.027152,7.0806e-07,0.39,0.69,0
0.020942,-0.0043758,0.032044,0.0019285,0.010192,-0.0017294,0,0,0.056816,-0.021485,0,-0.0089927,0,0,0,0.032143,0.0018295,0.010192,-3.2758,0.014722,0.027117,7.054e-07,0.4,0.69,0
0.02151,-0.0043896,0.031997,0.0019332,0.010179,-0.0017226,0,0,0.056726,-0.021439,0,-0.0089576,0,0,0,0.032095,0.0018348,0.010179,-3.2688,0.014703,0.027071,7.0202e-07,0.41,0.69,0
0.022077,-0.0043964,0.031941,0.0019415,0.010165,-0.0017131,0,0,0.056619,-0.021381,0,-0.0089082,0,0,0,0.032039,0.001844,0.010165,-3.2577,0.014683,0.027013,6.98e-07,0.42,0.69,0
0.022642,-0.0043957,0.031879,0.0019498,0.010149,-0.0016995,0,0,0.056499,-0.021317,0,-0.0088372,0,0,0,0.031975,0.0018536,0.010149,-3.2395,0.014659,0.026949,6.9347e-07,0.43,0.69,0
0.023207,-0.0043868,0.03181,0.0019535,0.010129,-0.0016803,0,0,0.056371,-0.021257,0,-0.0087377,0,0,0,0.031904,0.0018593,0.010129,-3.2111,0.014631,0.026882,6.8861e-07,0.44,0.69,0
0.02377,-0.0043691,0.031736,0.0019466,0.010105,-0.0016546,0,0,0.056242,-0.021212,0,-0.0086038,0,0,0,0.031828,0.001855,0.010105,-3.1693,0.014596,0.026817,6.8367e-07,0.45,0.69,0
0.024332,-0.0043417,0.03166,0.0019212,0.010074,-0.0016217,0,0,0.056123,-0.021198,0,-0.0084327,0,0,0,0.031748,0.0018331,0.010074,-3.1121,0.014552,0.026764,6.7902e-07,0.46,0.69,0
0.024892,-0.0043039,0.031585,0.0018674,0.010036,-0.0015823,0,0,0.056028,-0.021237,0,-0.008228,0,0,0,0.031669,0.0017834,0.010036,-3.0393,0.014496,0.026732,6.7514e-07,0.47,0.69,0
0.025452,-0.0042547,0.031513,0.001772,0.0099857,-0.0015397,0,0,0.055973,-0.021355,0,-0.0080064,0,0,0,0.031593,0.0016925,0.0099857,-2.9556,0.014424,0.026737,6.7263e-07,0.48,0.69,0
0.026012,-0.0041936,0.031449,0.0016204,0.0099209,-0.0015014,0,0,0.055974,-0.021581,0,-0.007807,0,0,0,0.031525,0.001545,0.0099209,-2.8741,0.01433,0.026792,6.7209e-07,0.49,0.69,0
0.026572,-0.00412,0.031387,0.0013974,0.0098354,-0.0014787,0,0,0.056035,-0.021939,0,-0.007689,0,0,0,0.03146,0.0013247,0.0098354,-2.8159,0.014207,0.026909,6.7363e-07,0.5,0.69,0
0.027132,-0.0040336,0.031324,0.0011037,0.0097284,-0.0014813,0,0,0.05615,-0.022424,0,-0.0077027,0,0,0,0.031397,0.0010313,0.0097284,-2.7995,0.014052,0.027085,6.7706e-07,0.51,0.69,0
0.027695,-0.0039342,0.031283,0.00074091,0.0096072,-0.0015146,0,0,0.056357,-0.023052,0,-0.0078757,0,0,0,0.031358,0.00066599,0.0096072,-2.832,0.013877,0.027341,6.8372e-07,0.52,0.69,0
0.028259,-0.003822,0.03121,0.00019512,0.0094214,-0.0015849,0,0,0.056649,-0.023988,0,-0.0082416,0,0,0,0.03129,0.00011433,0.0094214,-2.9178,0.013609,0.02772,6.9274e-07,0.53,0.69,0
0.028828,-0.0036974,0.031249,-0.00043439,0.0092444,-0.0018143,0,0,0.057212,-0.025165,0,-0.0094345,0,0,0,0.031353,-0.00053795,0.0092444,-3.2668,0.013353,0.028297,7.1228e-07,0.54,0.69,0
0.029404,-0.0035689,0.030905,-0.0015061,0.0088198,-0.0020989,0,0,0.057423,-0.026847,0,-0.010914,0,0,0,0.031041,-0.0016415,0.0088198,-3.6898,0.01274,0.028908,7.1533e-07,0.55,0.69,0
0.029976,-0.0034312,0.03173,-0.0018461,0.0089651,-0.0029593,0,0,0.059188,-0.028109,0,-0.015388,0,0,0,0.031989,-0.0021049,0.0089651,-4.9986,0.012949,0.030125,7.9184e-07,0.56,0.69,0
0.030588,-0.0033056,0.036516,-0.0024609,0.010217,-0.0027168,0,0,0.047809,-0.022711,0,-0.01106,0,0,0,0.036728,-0.0026727,0.010217,-4.2667,0.014757,0.034796,1.3425e-06,0.57,0.69,0
0.030999,-0.0032383,0.033683,-0.00081128,0.0098616,-0.0017273,0,0,0.041291,-0.019979,0,-0.0084342,0,0,0,0.033865,-0.00099279,0.0098616,-3.6507,0.014245,0.030941,1.1949e-06,0.58,0.69,0
0.031413,-0.0032407,0.030207,-0.00089583,0.0087932,-0.00046648,0,0,0.038198,-0.017099,0,-0.00248,0,0,0,0.030227,-0.00091659,0.0087932,-1.1877,0.012701,0.027602,7.7053e-07,0.59,0.69,0
0.03173,-0.003256,0.034991,-0.0016969,0.0099883,0.00033471,0,0,0.032504,-0.015191,0,0.00087024,0,0,0,0.034994,-0.0016999,0.0099883,0.52266,0.014427,0.032468,1.0209e-06,0.6,0.69,0
0.032063,-0.0032575,0.036012,-0.00058835,0.010627,0.00021534,0,0,0.033,-0.01458,0,0.00055987,0,0,0,0.036013,-0.00058962,0.010627,0.33708,0.01535,0.032481,1.0786e-06,0.61,0.69,0
0.032391,-0.0032522,0.036138,0.00012133,0.010878,1.9862e-05,0,0,0.032839,-0.013983,0,5.1641e-05,0,0,0,0.036138,0.00012132,0.010878,0.031596,0.015713,0.032024,1.0675e-06,0.62,0.69,0
0.03272,-0.0032567,0.036249,-0.00045014,0.01074,-0.00024937,0,0,0.033162,-0.014547,0,-0.00064836,0,0,0,0.036251,-0.00045184,0.01074,-0.3893,0.015513,0.032582,1.0957e-06,0.63,0.69,0
0.033054,-0.0032643,0.036382,-0.00085531,0.010658,-6.825e-05,0,0,0.033441,-0.014967,0,-0.00017745,0,0,0,0.036382,-0.00085543,0.010658,-0.10501,0.015395,0.033022,1.1201e-06,0.64,0.69,0
0.033389,-0.0032683,0.036531,-0.00042495,0.010832,4.2597e-06,0,0,0.033409,-0.014634,0,1.1075e-05,0,0,0,0.036531,-0.00042495,0.010832,0.0066042,0.015646,0.032809,1.1204e-06,0.65,0.69,0
0.033722,-0.003271,0.036477,-0.00021526,0.010878,-8.9003e-05,0,0,0.033278,-0.014422,0,-0.00023141,0,0,0,0.036477,-0.00021548,0.010878,-0.13898,0.015713,0.032593,1.1087e-06,0.66,0.69,0
0.034055,-0.0032765,0.036492,-0.0003102,0.010855,-0.00023526,0,0,0.033329,-0.014514,0,-0.00061169,0,0,0,0.036494,-0.0003117,0.010855,-0.36625,0.015679,0.032685,1.1133e-06,0.67,0.69,0
0.034388,-0.0032841,0.036521,-0.00055295,0.01079,-0.00023633,0,0,0.03345,-0.014746,0,-0.00061445,0,0,0,0.036522,-0.00055446,0.01079,-0.36521,0.015586,0.032905,1.1237e-06,0.68,0.69,0
0.034724,-0.0032912,0.036529,-0.00056055,0.01079,-0.00018221,0,0,0.03346,-0.014756,0,-0.00047374,0,0,0,0.036529,-0.00056144,0.01079,-0.28147,0.015586,0.032917,1.1245e-06,0.69,0.69,0
0.035058,-0.003298,0.036515,-0.00034394,0.010851,-0.00019076,0,0,0.033363,-0.014554,0,-0.00049598,0,0,0,0.036516,-0.00034493,0.010851,-0.29652,0.015674,0.032732,1.1164e-06,0.7,0.69,0
0.035391,-0.0033069,0.036515,-0.00028526,0.010869,-0.00034474,0,0,0.03334,-0.0145,0,-0.00089633,0,0,0,0.036519,-0.00028849,0.010869,-0.53667,0.0157,0.032689,1.1149e-06,0.71,0.69,0
0.035724,-0.0033186,0.036583,-0.00053003,0.010816,-0.00044281,0,0,0.033497,-0.01475,0,-0.0011513,0,0,0,0.036588,-0.00053531,0.010816,-0.6835,0.015623,0.032949,1.1291e-06,0.72,0.69,0
0.036061,-0.0033291,0.036446,-0.00097617,0.010641,-0.00037815,0,0,0.033547,-0.015102,0,-0.00098318,0,0,0,0.03645,-0.00097999,0.010641,-0.57889,0.01537,0.033182,1.1302e-06,0.73,0.69,0
0.036395,-0.0033362,0.036333,-0.00057588,0.010727,-0.00021998,0,0,0.033288,-0.014694,0,-0.00057195,0,0,0,0.036335,-0.00057719,0.010727,-0.34147,0.015495,0.032757,1.1072e-06,0.74,0.69,0
0.036727,-0.0033467,0.03624,-5.6017e-05,0.010855,-0.00051418,0,0,0.033,-0.014184,0,-0.0013369,0,0,0,0.036247,-6.3299e-05,0.010855,-0.81147,0.015679,0.032267,1.0831e-06,0.75,0.69,0
0.037055,-0.003367,0.036122,-0.00081969,0.010591,-0.00072456,0,0,0.033191,-0.014834,0,-0.0018839,0,0,0,0.036136,-0.0008339,0.010591,-1.1232,0.015298,0.032787,1.0971e-06,0.76,0.69,0
0.03739,-0.0033804,0.035169,-0.0018751,0.0099882,-0.00085433,0,0,0.032735,-0.015422,0,-0.0022213,0,0,0,0.035189,-0.0018948,0.0099882,-1.3204,0.014427,0.032798,1.043e-06,0.77,0.69,0
0.03771,-0.0033798,0.030372,-0.0010616,0.0087931,4.799e-06,0,0,0.038489,-0.017395,0,0.00081965,0,0,0,0.030385,-0.0010746,0.0087931,0.32864,0.012701,0.027869,7.8754e-07,0.78,0.69,0
0.038128,-0.003395,0.033715,-0.0011436,0.0097714,0.0012329,0,0,0.041502,-0.020429,0,0.0066138,0,0,0,0.033848,-0.0012769,0.0097714,2.797,0.014114,0.031154,1.2092e-06,0.79,0.69,0
0.03854,-0.0034789,0.03641,-0.0029546,0.010037,0.0021675,0,0,0.047943,-0.023287,0,0.0090467,0,0,0,0.036552,-0.0030959,0.010037,3.4354,0.014497,0.034983,1.3374e-06,0.8,0.69,0
0.039153,-0.0036269,0.031656,-0.0023432,0.0087937,0.0024589,0,0,0.059441,-0.028956,0,0.012786,0,0,0,0.031832,-0.0025201,0.0087937,4.1152,0.012702,0.030322,7.8913e-07,0.81,0.69,0
0.039729,-0.0037885,0.030905,-0.0019659,0.0086816,0.0015447,0,0,0.05778,-0.027683,0,0.0080322,0,0,0,0.030977,-0.0020383,0.0086816,2.6846,0.01254,0.029172,7.1907e-07,0.82,0.69,0
0.040309,-0.003943,0.031272,-0.00088486,0.009116,0.0011964,0,0,0.057604,-0.026002,0,0.0062212,0,0,0,0.031316,-0.00092931,0.009116,2.1278,0.013168,0.028579,7.1869e-07,0.83,0.69,0
0.040881,-0.0040951,0.031258,-0.00022561,0.0093098,0.00091425,0,0,0.057066,-0.024792,0,0.0047541,0,0,0,0.031285,-0.00025213,0.0093098,1.6619,0.013447,0.028008,7.0106e-07,0.84,0.69,0
0.04145,-0.0042359,0.031348,0.0003427,0.0095073,0.00079583,0,0,0.056787,-0.023828,0,0.0041383,0,0,0,0.031369,0.00032228,0.0095073,1.4693,0.013733,0.027624,6.9291e-07,0.85,0.69,0
0.042017,-0.0043647,0.031405,0.00072293,0.0096385,0.00071862,0,0,0.056594,-0.02318,0,0.0037368,0,0,0,0.031422,0.00070611,0.0096385,1.341,0.013922,0.027366,6.8695e-07,0.86,0.69,0
0.042582,-0.004481,0.031483,0.0010269,0.0097529,0.00067235,0,0,0.056497,-0.022687,0,0.0034962,0,0,0,0.031497,0.0010121,0.0097529,1.2641,0.014087,0.02719,6.8417e-07,0.87,0.69,0
0.043147,-0.004585,0.03156,0.0012543,0.0098442,0.00065023,0,0,0.05646,-0.022334,0,0.0033812,0,0,0,0.031573,0.0012404,0.0098442,1.2286,0.014219,0.027077,6.8328e-07,0.88,0.69,0
0.043711,-0.0046769,0.031638,0.001404,0.0099126,0.00064105,0,0,0.056486,-0.022122,0,0.0033335,0,0,0,0.031651,0.0013904,0.0099126,1.2141,0.014318,0.027027,6.8449e-07,0.89,0.69,0
0.044276,-0.004757,0.031723,0.0014918,0.0099643,0.00063213,0,0,0.056571,-0.022028,0,0.0032871,0,0,0,0.031736,0.0014786,0.0099643,1.1974,0.014393,0.027032,6.8773e-07,0.9,0.69,0
0.044843,-0.0048263,0.031811,0.0015337,0.010003,0.00061494,0,0,0.056699,-0.022021,0,0.0031977,0,0,0,0.031823,0.0015212,0.010003,1.1631,0.014449,0.027076,6.9239e-07,0.91,0.69,0
0.04541,-0.0048855,0.031898,0.0015438,0.010033,0.00058575,0,0,0.05685,-0.022071,0,0.0030459,0,0,0,0.031909,0.0015325,0.010033,1.1051,0.014491,0.027144,6.9784e-07,0.92,0.69,0
0.04598,-0.0049355,0.031981,0.0015333,0.010054,0.0005437,0,0,0.057009,-0.022154,0,0.0028272,0,0,0,0.03199,0.0015236,0.010054,1.0227,0.014523,0.027223,7.0352e-07,0.93,0.69,0
0.046551,-0.0049771,0.032056,0.0015107,0.01007,0.00048945,0,0,0.057163,-0.022254,0,0.0025451,0,0,0,0.032064,0.0015028,0.01007,0.91778,0.014545,0.027305,7.0902e-07,0.94,0.69,0
0.047123,-0.005011,0.032121,0.0014825,0.010081,0.00042439,0,0,0.057305,-0.022356,0,0.0022068,0,0,0,0.032127,0.0014767,0.010081,0.79343,0.014562,0.027382,7.1404e-07,0.95,0.69,0
0.047697,-0.005038,0.032176,0.0014539,0.010089,0.00035027,0,0,0.057426,-0.022451,0,0.0018214,0,0,0,0.03218,0.0014499,0.010089,0.65313,0.014573,0.02745,7.1837e-07,0.96,0.69,0
0.048272,-0.0050584,0.032219,0.0014283,0.010094,0.00026893,0,0,0.057525,-0.022532,0,0.0013985,0,0,0,0.032222,0.0014259,0.010094,0.50038,0.014581,0.027506,7.2187e-07,0.97,0.69,0
0.048847,-0.0050727,0.03225,0.0014083,0.010098,0.00018223,0,0,0.057597,-0.022592,0,0.0009476,0,0,0,0.032252,0.0014072,0.010098,0.33852,0.014585,0.027547,7.2442e-07,0.98,0.69,0
0.049423,-0.0050812,0.032269,0.0013957,0.0101,9.1994e-05,0,0,0.057641,-0.02263,0,0.00047837,0,0,0,0.032269,0.0013954,0.0101,0.17072,0.014588,0.027572,7.2598e-07,0.99,0.69,0
0.05,-0.005084,0.032275,0.0013913,0.0101,-5.3984e-05,0,0,0.057656,-0.022643,0,-0.00028072,0,0,0,0.032276,0.0013912,0.0101,-0.10015,0.014589,0.027581,7.2651e-07,1,0.69,0
0,0,0.028642,0.012275,0.012275,-0.0034897,0,0,0.042554,2.7105e-19,0,-0.018146,0,0,0,0.029355,0.011562,0.012275,-11.547,0.017731,0.017447,2.7125e-07,0,0.7,0
0.00042554,-0.00018146,0.028596,0.011728,0.012097,-0.0034863,0,0,0.042896,-0.00095925,0,-0.018129,0,0,0,0.029288,0.011036,0.012097,-11.229,0.017474,0.017745,2.8353e-07,0.01,0.7,0
0.00085793,-0.00036152,0.02878,0.01128,0.012018,-0.0034681,0,0,0.043581,-0.001919,0,-0.018034,0,0,0,0.029442,0.010618,0.012018,-10.81,0.017359,0.018165,3.0167e-07,0.02,0.7,0
0.0012972,-0.00054009,0.028963,0.010832,0.011938,-0.003447,0,0,0.044264,-0.0028773,0,-0.017924,0,0,0,0.029596,0.010199,0.011938,-10.409,0.017244,0.018589,3.2017e-07,0.03,0.7,0
0.0017432,-0.00071703,0.029145,0.010385,0.011859,-0.0034223,0,0,0.044943,-0.003832,0,-0.017796,0,0,0,0.02975,0.0097803,0.011859,-10.023,0.01713,0.019015,3.3895e-07,0.04,0.7,0
0.002196,-0.00089219,0.029325,0.009941,0.01178,-0.0033934,0,0,0.045617,-0.0047807,0,-0.017646,0,0,0,0.029902,0.0093641,0.01178,-9.6484,0.017015,0.019443,3.5791e-07,0.05,0.7,0
0.0026556,-0.0010654,0.029502,0.0095005,0.011701,-0.0033598,0,0,0.046284,-0.0057207,0,-0.017471,0,0,0,0.030051,0.0089513,0.011701,-9.285,0.016901,0.019869,3.7696e-07,0.06,0.7,0
0.0031217,-0.0012364,0.029676,0.009065,0.011622,-0.0033212,0,0,0.04694,-0.0066494,0,-0.01727,0,0,0,0.030198,0.008543,0.011622,-8.9312,0.016788,0.020292,3.96e-07,0.07,0.7,0
0.0035944,-0.001405,0.029847,0.0086356,0.011545,-0.0032774,0,0,0.047585,-0.0075637,0,-0.017043,0,0,0,0.030342,0.0081407,0.011545,-8.5863,0.016676,0.02071,4.1496e-07,0.08,0.7,0
0.0040734,-0.0015709,0.030013,0.0082136,0.011468,-0.0032286,0,0,0.048216,-0.0084611,0,-0.016789,0,0,0,0.030481,0.0077454,0.011468,-8.25,0.016565,0.021122,4.3371e-07,0.09,0.7,0
0.0045587,-0.001734,0.030173,0.0078002,0.011392,-0.0031748,0,0,0.048831,-0.0093388,0,-0.016509,0,0,0,0.030615,0.0073584,0.011392,-7.9221,0.016455,0.021525,4.5219e-07,0.1,0.7,0
0.00505,-0.001894,0.030328,0.0073966,0.011317,-0.0031164,0,0,0.049428,-0.010194,0,-0.016205,0,0,0,0.030744,0.0069806,0.011317,-7.6028,0.016347,0.021919,4.7031e-07,0.11,0.7,0
0.0055472,-0.0020507,0.030477,0.0070038,0.011244,-0.0030538,0,0,0.050005,-0.011025,0,-0.01588,0,0,0,0.030868,0.0066131,0.011244,-7.2923,0.016242,0.022303,4.8799e-07,0.12,0.7,0
0.0060501,-0.0022039,0.030619,0.006623,0.011173,-0.0029875,0,0,0.050561,-0.011829,0,-0.015535,0,0,0,0.030986,0.0062566,0.011173,-6.9911,0.016138,0.022674,5.0515e-07,0.13,0.7,0
0.0065585,-0.0023533,0.030755,0.0062548,0.011103,-0.0029181,0,0,0.051095,-0.012605,0,-0.015174,0,0,0,0.031098,0.005912,0.011103,-6.6995,0.016037,0.023033,5.2174e-07,0.14,0.7,0
0.007072,-0.0024987,0.030883,0.0059001,0.011035,-0.0028463,0,0,0.051605,-0.01335,0,-0.014801,0,0,0,0.031203,0.00558,0.011035,-6.4182,0.015939,0.023378,5.377e-07,0.15,0.7,0
0.0075906,-0.0026401,0.031004,0.0055596,0.010969,-0.0027727,0,0,0.05209,-0.014064,0,-0.014418,0,0,0,0.031302,0.005261,0.010969,-6.1475,0.015844,0.023708,5.5298e-07,0.16,0.7,0
0.0081138,-0.0027771,0.031117,0.0052338,0.010905,-0.0026979,0,0,0.05255,-0.014746,0,-0.014029,0,0,0,0.031395,0.0049556,0.010905,-5.8879,0.015752,0.024024,5.6756e-07,0.17,0.7,0
0.0086416,-0.0029098,0.031223,0.0049231,0.010844,-0.0026228,0,0,0.052985,-0.015393,0,-0.013638,0,0,0,0.031482,0.0046641,0.010844,-5.64,0.015663,0.024324,5.8139e-07,0.18,0.7,0
0.0091735,-0.003038,0.031321,0.0046279,0.010785,-0.0025479,0,0,0.053394,-0.016007,0,-0.013249,0,0,0,0.031562,0.0043868,0.010785,-5.404,0.015578,0.024608,5.9446e-07,0.19,0.7,0
0.0097094,-0.0031616,0.031411,0.0043483,0.010728,-0.0024739,0,0,0.053776,-0.016587,0,-0.012864,0,0,0,0.031635,0.004124,0.010728,-5.1804,0.015496,0.024876,6.0675e-07,0.2,0.7,0
0.010249,-0.0032804,0.031494,0.0040846,0.010674,-0.0024014,0,0,0.054133,-0.017131,0,-0.012487,0,0,0,0.031703,0.0038758,0.010674,-4.9694,0.015417,0.025128,6.1824e-07,0.21,0.7,0
0.010792,-0.0033945,0.03157,0.0038369,0.010622,-0.002331,0,0,0.054464,-0.017641,0,-0.012121,0,0,0,0.031764,0.0036423,0.010622,-4.7712,0.015343,0.025363,6.2892e-07,0.22,0.7,0
0.011338,-0.0035038,0.031638,0.0036051,0.010573,-0.0022631,0,0,0.054769,-0.018116,0,-0.011768,0,0,0,0.03182,0.0034236,0.010573,-4.586,0.015272,0.025582,6.388e-07,0.23,0.7,0
0.011888,-0.0036082,0.031699,0.0033893,0.010527,-0.0021983,0,0,0.055049,-0.018557,0,-0.011431,0,0,0,0.031869,0.0032196,0.010527,-4.4139,0.015205,0.025784,6.4788e-07,0.24,0.7,0
0.012439,-0.0037077,0.031753,0.0031894,0.010483,-0.0021369,0,0,0.055303,-0.018963,0,-0.011112,0,0,0,0.031912,0.0030304,0.010483,-4.2549,0.015142,0.02597,6.5614e-07,0.25,0.7,0
0.012994,-0.0038023,0.0318,0.0030051,0.010442,-0.0020793,0,0,0.055533,-0.019335,0,-0.010813,0,0,0,0.03195,0.0028558,0.010442,-4.109,0.015082,0.02614,6.6359e-07,0.26,0.7,0
0.01355,-0.003892,0.031841,0.0028365,0.010403,-0.0020258,0,0,0.055737,-0.019673,0,-0.010534,0,0,0,0.031981,0.0026957,0.010403,-3.9761,0.015027,0.026293,6.7023e-07,0.27,0.7,0
0.014108,-0.0039767,0.031874,0.0026833,0.010367,-0.0019765,0,0,0.055917,-0.019978,0,-0.010278,0,0,0,0.032007,0.0025501,0.010367,-3.856,0.014975,0.02643,6.7607e-07,0.28,0.7,0
0.014668,-0.0040565,0.0319,0.0025453,0.010334,-0.0019315,0,0,0.056073,-0.02025,0,-0.010044,0,0,0,0.032027,0.0024188,0.010334,-3.7484,0.014926,0.026551,6.811e-07,0.29,0.7,0
0.01523,-0.0041313,0.03192,0.0024223,0.010303,-0.001891,0,0,0.056204,-0.020489,0,-0.0098331,0,0,0,0.03204,0.0023016,0.010303,-3.6531,0.014882,0.026655,6.8532e-07,0.3,0.7,0
0.015792,-0.004201,0.031932,0.002314,0.010274,-0.0018548,0,0,0.056312,-0.020696,0,-0.0096452,0,0,0,0.032048,0.0021983,0.010274,-3.5696,0.01484,0.026743,6.8873e-07,0.31,0.7,0
0.016356,-0.0042657,0.031938,0.00222,0.010247,-0.001823,0,0,0.056395,-0.020871,0,-0.0094796,0,0,0,0.032049,0.0021086,0.010247,-3.4973,0.014802,0.026814,6.9132e-07,0.32,0.7,0
0.01692,-0.0043253,0.031936,0.0021401,0.010223,-0.0017952,0,0,0.056454,-0.021015,0,-0.0093352,0,0,0,0.032044,0.0020323,0.010223,-3.4356,0.014766,0.026869,6.931e-07,0.33,0.7,0
0.017485,-0.0043797,0.031927,0.0020737,0.0102,-0.0017713,0,0,0.05649,-0.021129,0,-0.0092106,0,0,0,0.032032,0.001969,0.0102,-3.3837,0.014734,0.026908,6.9405e-07,0.34,0.7,0
0.01805,-0.0044288,0.03191,0.0020204,0.010179,-0.0017507,0,0,0.056501,-0.021213,0,-0.0091035,0,0,0,0.032012,0.0019182,0.010179,-3.3406,0.014703,0.026931,6.9418e-07,0.35,0.7,0
0.018615,-0.0044725,0.031886,0.0019794,0.01016,-0.001733,0,0,0.056488,-0.021268,0,-0.0090114,0,0,0,0.031986,0.0018793,0.01016,-3.3053,0.014675,0.026938,6.9348e-07,0.36,0.7,0
0.01918,-0.0045107,0.031853,0.0019499,0.010141,-0.0017175,0,0,0.056452,-0.021297,0,-0.008931,0,0,0,0.031952,0.0018516,0.010141,-3.2765,0.014648,0.02693,6.9195e-07,0.37,0.7,0
0.019744,-0.004543,0.031812,0.0019309,0.010123,-0.0017036,0,0,0.056392,-0.021299,0,-0.0088585,0,0,0,0.031909,0.0018341,0.010123,-3.2524,0.014622,0.026906,6.8961e-07,0.38,0.7,0
0.020308,-0.0045693,0.031763,0.001921,0.010105,-0.0016902,0,0,0.05631,-0.021279,0,-0.0087891,0,0,0,0.031858,0.0018256,0.010105,-3.2314,0.014596,0.026867,6.8647e-07,0.39,0.7,0
0.02087,-0.0045893,0.031705,0.0019184,0.010087,-0.0016765,0,0,0.056206,-0.021238,0,-0.008718,0,0,0,0.031799,0.0018244,0.010087,-3.2114,0.01457,0.026815,6.8257e-07,0.4,0.7,0
0.021432,-0.0046026,0.031638,0.0019211,0.010068,-0.0016615,0,0,0.056082,-0.021181,0,-0.0086396,0,0,0,0.03173,0.0018285,0.010068,-3.1902,0.014542,0.026751,6.7796e-07,0.41,0.7,0
0.021992,-0.0046088,0.031562,0.001926,0.010046,-0.0016438,0,0,0.055941,-0.021113,0,-0.008548,0,0,0,0.031653,0.0018351,0.010046,-3.1651,0.014512,0.026677,6.7272e-07,0.42,0.7,0
0.022551,-0.0046074,0.031478,0.0019298,0.010022,-0.0016226,0,0,0.055785,-0.021041,0,-0.0084376,0,0,0,0.031567,0.001841,0.010022,-3.1338,0.014477,0.026597,6.6697e-07,0.43,0.7,0
0.023108,-0.0045979,0.031387,0.0019278,0.0099944,-0.0015968,0,0,0.055621,-0.020973,0,-0.0083035,0,0,0,0.031473,0.0018415,0.0099944,-3.0936,0.014436,0.026513,6.6087e-07,0.44,0.7,0
0.023663,-0.0045797,0.031289,0.0019144,0.009961,-0.0015659,0,0,0.055453,-0.020921,0,-0.0081427,0,0,0,0.031372,0.0018312,0.009961,-3.0428,0.014388,0.026431,6.5465e-07,0.45,0.7,0
0.024217,-0.0045522,0.031186,0.0018825,0.0099205,-0.00153,0,0,0.05529,-0.020899,0,-0.007956,0,0,0,0.031266,0.0018029,0.0099205,-2.9808,0.01433,0.026359,6.4857e-07,0.46,0.7,0
0.024769,-0.0045146,0.031079,0.0018234,0.0098708,-0.0014905,0,0,0.055142,-0.020923,0,-0.0077507,0,0,0,0.031155,0.0017477,0.0098708,-2.9091,0.014258,0.026304,6.4299e-07,0.47,0.7,0
0.02532,-0.0044665,0.030971,0.0017271,0.0098093,-0.0014509,0,0,0.055019,-0.021014,0,-0.0075444,0,0,0,0.031042,0.0016554,0.0098093,-2.8333,0.014169,0.026277,6.3826e-07,0.48,0.7,0
0.025869,-0.0044074,0.030859,0.001583,0.0097326,-0.0014166,0,0,0.054929,-0.021189,0,-0.0073663,0,0,0,0.030928,0.0015146,0.0097326,-2.7638,0.014058,0.026286,6.3464e-07,0.49,0.7,0
0.026418,-0.0043368,0.030743,0.0013825,0.0096378,-0.0013948,0,0,0.054875,-0.021464,0,-0.0072531,0,0,0,0.03081,0.0013164,0.0096378,-2.7138,0.013921,0.026338,6.3223e-07,0.5,0.7,0
0.026967,-0.0042547,0.030625,0.0011185,0.0095229,-0.0013929,0,0,0.054864,-0.021852,0,-0.0072433,0,0,0,0.03069,0.0010528,0.0095229,-2.6968,0.013755,0.02644,6.3128e-07,0.51,0.7,0
0.027515,-0.0041613,0.030494,0.0007668,0.0093783,-0.0014198,0,0,0.054901,-0.02239,0,-0.0073827,0,0,0,0.030562,0.00069915,0.0093783,-2.7281,0.013546,0.026607,6.3176e-07,0.52,0.7,0
0.028065,-0.0040569,0.030363,0.00032019,0.0092049,-0.0015058,0,0,0.05501,-0.0231,0,-0.0078301,0,0,0,0.030438,0.00024491,0.0092049,-2.8622,0.013296,0.026858,6.346e-07,0.53,0.7,0
0.028616,-0.003944,0.030136,-0.00029656,0.0089517,-0.0016664,0,0,0.055078,-0.024046,0,-0.0086652,0,0,0,0.030227,-0.00038754,0.0089517,-3.1249,0.01293,0.027176,6.3544e-07,0.54,0.7,0
0.029166,-0.0038241,0.02992,-0.00088167,0.0087116,-0.0020012,0,0,0.055142,-0.024942,0,-0.010406,0,0,0,0.03005,-0.0010111,0.0087116,-3.7017,0.012583,0.027519,6.3744e-07,0.55,0.7,0
0.029718,-0.0037051,0.029035,-0.0019031,0.0081394,-0.002305,0,0,0.054327,-0.02611,0,-0.011986,0,0,0,0.029205,-0.0020738,0.0081394,-4.2377,0.011757,0.027627,6.0531e-07,0.56,0.7,0
0.030253,-0.0035769,0.028924,-0.0023989,0.0079574,-0.0032662,0,0,0.054512,-0.026926,0,-0.016984,0,0,0,0.029261,-0.0027359,0.0079574,-5.8901,0.011494,0.028213,6.1995e-07,0.57,0.7,0
0.030809,-0.0034825,0.029967,-0.0013743,0.0085778,-0.002745,0,0,0.055612,-0.025875,0,-0.014274,0,0,0,0.030205,-0.0016129,0.0085778,-4.9678,0.01239,0.028143,6.5942e-07,0.58,0.7,0
0.031365,-0.0034208,0.034283,-0.0014617,0.0098464,-0.0022734,0,0,0.044254,-0.020394,0,-0.0099791,0,0,0,0.034479,-0.0016577,0.0098464,-4.0851,0.014223,0.031976,1.1003e-06,0.59,0.7,0
0.031751,-0.0034094,0.028091,-0.0021074,0.0077951,-0.0014804,0,0,0.036026,-0.017528,0,-0.0067473,0,0,0,0.02821,-0.0022262,0.0077951,-3.4105,0.01126,0.026866,6.6258e-07,0.6,0.7,0
0.03206,-0.0034002,0.034333,-0.0014215,0.0098735,-0.0010298,0,0,0.031797,-0.014684,0,-0.0026776,0,0,0,0.034363,-0.0014511,0.0098735,-1.6485,0.014262,0.031706,9.6099e-07,0.61,0.7,0
0.032387,-0.0033892,0.035886,-0.00052293,0.010609,-0.00054748,0,0,0.03286,-0.014471,0,-0.0014234,0,0,0,0.035894,-0.00053116,0.010609,-0.86129,0.015324,0.032328,1.0662e-06,0.62,0.7,0
0.032717,-0.003403,0.036617,-0.00082684,0.010737,0.00016347,0,0,0.033644,-0.015033,0,0.00042503,0,0,0,0.036617,-0.00082756,0.010737,0.25014,0.015509,0.033209,1.141e-06,0.63,0.7,0
0.033059,-0.0034161,0.036856,-0.00054783,0.010892,-2.3495e-06,0,0,0.033752,-0.014872,0,-6.1087e-06,0,0,0,0.036856,-0.00054783,0.010892,-0.003599,0.015733,0.033196,1.1543e-06,0.64,0.7,0
0.033392,-0.0034139,0.036331,-0.00029501,0.010811,6.724e-06,0,0,0.033176,-0.014437,0,1.7482e-05,0,0,0,0.036331,-0.00029501,0.010811,0.010519,0.015615,0.032527,1.098e-06,0.65,0.7,0
0.033723,-0.003414,0.036285,-0.00014293,0.010843,-0.00016618,0,0,0.033075,-0.014281,0,-0.00043207,0,0,0,0.036286,-0.00014369,0.010843,-0.26137,0.015661,0.032366,1.0891e-06,0.66,0.7,0
0.034054,-0.0034211,0.036623,2.8392e-06,0.010988,-0.00033606,0,0,0.033326,-0.01428,0,-0.00087375,0,0,0,0.036626,-2.4455e-07,0.010988,-0.52574,0.015871,0.032554,1.1154e-06,0.67,0.7,0
0.03439,-0.0034322,0.036552,-0.00084886,0.010711,-0.00039237,0,0,0.033593,-0.015028,0,-0.0010202,0,0,0,0.036556,-0.00085297,0.010711,-0.601,0.015471,0.033174,1.136e-06,0.68,0.7,0
0.034726,-0.0034394,0.036561,-0.00083695,0.010717,-3.3795e-05,0,0,0.033597,-0.01502,0,-8.7866e-05,0,0,0,0.036561,-0.00083698,0.010717,-0.051775,0.01548,0.033166,1.136e-06,0.69,0.7,0
0.035062,-0.0034429,0.036635,-1.8699e-05,0.010985,-0.00010634,0,0,0.033345,-0.014305,0,-0.00027649,0,0,0,0.036636,-1.9008e-05,0.010985,-0.16623,0.015867,0.032578,1.1169e-06,0.7,0.7,0
0.035393,-0.0034507,0.03631,-0.00020959,0.01083,-0.00028432,0,0,0.033124,-0.014352,0,-0.00073922,0,0,0,0.036312,-0.00021181,0.01083,-0.44603,0.015644,0.032444,1.0937e-06,0.71,0.7,0
0.035724,-0.0034654,0.036378,-0.00039154,0.010796,-0.00046036,0,0,0.033257,-0.014544,0,-0.0011969,0,0,0,0.036384,-0.0003973,0.010796,-0.7172,0.015594,0.032656,1.106e-06,0.72,0.7,0
0.036058,-0.0034821,0.036898,-0.0006763,0.010867,-0.00045473,0,0,0.033841,-0.015006,0,-0.0011823,0,0,0,0.036904,-0.00068181,0.010867,-0.69326,0.015696,0.033347,1.1631e-06,0.73,0.7,0
0.036401,-0.0034837,0.036673,-0.00091099,0.010729,-0.0006384,0,0,0.033728,-0.015131,0,-0.0016598,0,0,0,0.036684,-0.00092183,0.010729,-0.97286,0.015497,0.033343,1.1501e-06,0.74,0.7,0
0.036732,-0.0034855,0.035928,-0.00069707,0.010569,4.9027e-05,0,0,0.032966,-0.014646,0,0.00012747,0,0,0,0.035928,-0.00069714,0.010569,0.076698,0.015267,0.032491,1.0742e-06,0.75,0.7,0
0.03706,-0.0035123,0.034404,-0.0016196,0.0098355,0.0005216,0,0,0.03194,-0.014892,0,0.0013562,0,0,0,0.034412,-0.0016272,0.0098355,0.82937,0.014207,0.031892,9.6968e-07,0.76,0.7,0
0.037371,-0.0035357,0.028118,-0.0022519,0.0077599,0.0010391,0,0,0.036124,-0.017719,0,0.0051735,0,0,0,0.0282,-0.0023335,0.0077599,2.5725,0.011209,0.026944,6.6611e-07,0.77,0.7,0
0.037757,-0.0035632,0.03417,-0.0018066,0.0097091,0.0017446,0,0,0.044283,-0.020772,0,0.0080742,0,0,0,0.034307,-0.0019437,0.0097091,3.2394,0.014024,0.032055,1.0953e-06,0.78,0.7,0
0.038313,-0.0036445,0.029853,-0.0016953,0.0084474,0.0023002,0,0,0.055655,-0.026371,0,0.011961,0,0,0,0.03002,-0.0018621,0.0084474,4.1482,0.012202,0.028179,6.5234e-07,0.79,0.7,0
0.038871,-0.0037578,0.028839,-0.0028208,0.0078054,0.0027911,0,0,0.054687,-0.027628,0,0.014514,0,0,0,0.029083,-0.003065,0.0078054,4.9999,0.011274,0.028323,6.1423e-07,0.8,0.7,0
0.039407,-0.0039082,0.028981,-0.0023054,0.0080027,0.0017736,0,0,0.054544,-0.026801,0,0.0092227,0,0,0,0.029081,-0.0024056,0.0080027,3.2342,0.01156,0.027786,6.0345e-07,0.81,0.7,0
0.039961,-0.0040514,0.029877,-0.0012902,0.008576,0.0014152,0,0,0.055382,-0.025652,0,0.0073592,0,0,0,0.029941,-0.0013543,0.008576,2.5945,0.012387,0.027699,6.3748e-07,0.82,0.7,0
0.040515,-0.0041971,0.030114,-0.00068816,0.0088278,0.0010303,0,0,0.055344,-0.024741,0,0.0053575,0,0,0,0.030148,-0.00072258,0.0088278,1.9136,0.012751,0.027375,6.3767e-07,0.83,0.7,0
0.041068,-0.0043373,0.030353,-5.342e-05,0.00909,0.00082064,0,0,0.055285,-0.023773,0,0.0042673,0,0,0,0.030375,-7.5552e-05,0.00909,1.5448,0.01313,0.027059,6.3793e-07,0.84,0.7,0
0.04162,-0.0044701,0.030495,0.00041291,0.0092724,0.00068945,0,0,0.055179,-0.023035,0,0.0035851,0,0,0,0.030511,0.00039711,0.0092724,1.3122,0.013393,0.026802,6.3567e-07,0.85,0.7,0
0.042172,-0.0045927,0.030633,0.00078022,0.009424,0.0006193,0,0,0.055144,-0.022474,0,0.0032203,0,0,0,0.030646,0.00076738,0.009424,1.1879,0.013612,0.026627,6.3541e-07,0.86,0.7,0
0.042723,-0.0047047,0.030759,0.0010555,0.0095442,0.00057817,0,0,0.055157,-0.022071,0,0.0030065,0,0,0,0.03077,0.0010442,0.0095442,1.1147,0.013786,0.026518,6.3648e-07,0.87,0.7,0
0.043275,-0.0048055,0.03088,0.0012621,0.0096426,0.00055557,0,0,0.055217,-0.021789,0,0.002889,0,0,0,0.03089,0.0012517,0.0096426,1.0742,0.013928,0.026461,6.3893e-07,0.88,0.7,0
0.043828,-0.0048955,0.030996,0.0014077,0.0097212,0.00054285,0,0,0.055315,-0.021615,0,0.0028228,0,0,0,0.031006,0.0013977,0.0097212,1.0507,0.014042,0.026448,6.4258e-07,0.89,0.7,0
0.044381,-0.0049748,0.031109,0.0015009,0.0097829,0.00053191,0,0,0.055447,-0.021533,0,0.0027659,0,0,0,0.031118,0.0014913,0.0097829,1.0289,0.014131,0.026474,6.473e-07,0.9,0.7,0
0.044937,-0.0050439,0.031218,0.0015531,0.0098312,0.00051635,0,0,0.055605,-0.021523,0,0.002685,0,0,0,0.031227,0.0015441,0.0098312,0.9969,0.014201,0.026528,6.5285e-07,0.91,0.7,0
0.045493,-0.0051035,0.031321,0.0015752,0.0098688,0.0004923,0,0,0.055775,-0.021563,0,0.0025599,0,0,0,0.031329,0.0015671,0.0098688,0.94791,0.014255,0.026601,6.5882e-07,0.92,0.7,0
0.046052,-0.0051543,0.031416,0.0015766,0.0098979,0.00045815,0,0,0.055948,-0.021635,0,0.0023824,0,0,0,0.031423,0.0015696,0.0098979,0.87941,0.014297,0.026683,6.6485e-07,0.93,0.7,0
0.046613,-0.0051968,0.031502,0.0015649,0.0099201,0.00041378,0,0,0.056113,-0.021723,0,0.0021516,0,0,0,0.031508,0.0015592,0.0099201,0.79171,0.014329,0.026766,6.706e-07,0.94,0.7,0
0.047174,-0.0052318,0.031576,0.0015463,0.0099368,0.00035997,0,0,0.056263,-0.021815,0,0.0018718,0,0,0,0.031581,0.001542,0.0099368,0.68667,0.014353,0.026844,6.7582e-07,0.95,0.7,0
0.047738,-0.0052596,0.031638,0.0015255,0.0099491,0.00029798,0,0,0.056392,-0.021901,0,0.0015495,0,0,0,0.031641,0.0015225,0.0099491,0.5669,0.014371,0.026914,6.8031e-07,0.96,0.7,0
0.048302,-0.0052808,0.031687,0.0015059,0.0099578,0.00022935,0,0,0.056495,-0.021975,0,0.0011926,0,0,0,0.031689,0.0015042,0.0099578,0.43536,0.014384,0.02697,6.8393e-07,0.97,0.7,0
0.048868,-0.0052957,0.031722,0.0014902,0.0099636,0.00015569,0,0,0.056571,-0.022031,0,0.0008096,0,0,0,0.031723,0.0014894,0.0099636,0.29506,0.014392,0.027012,6.8657e-07,0.98,0.7,0
0.049434,-0.0053046,0.031743,0.0014802,0.009967,7.8683e-05,0,0,0.056618,-0.022066,0,0.00040915,0,0,0,0.031743,0.00148,0.009967,0.14897,0.014397,0.027038,6.8819e-07,0.99,0.7,0
0.05,-0.0053075,0.03175,0.0014767,0.0099681,-5.6351e-05,0,0,0.056633,-0.022077,0,-0.00029303,0,0,0,0.03175,0.0014766,0.0099681,-0.10665,0.014398,0.027047,6.8874e-07,1,0.7,0
0,0,0.028607,0.01226,0.01226,-0.0036744,0,0,0.042502,-3.2526e-19,0,-0.019107,0,0,0,0.029395,0.011472,0.01226,-12.103,0.017709,0.017542,2.7536e-07,0,0.71,0
0.00042502,-0.00019107,0.028561,0.011711,0.012082,-0.0036709,0,0,0.042846,-0.00096268,0,-0.019089,0,0,0,0.029326,0.010946,0.012082,-11.772,0.017451,0.017839,2.8759e-07,0.01,0.71,0
0.00085692,-0.00038075,0.028746,0.01126,0.012002,-0.0036523,0,0,0.043534,-0.0019279,0,-0.018992,0,0,0,0.029478,0.010528,0.012002,-11.337,0.017336,0.018257,3.0571e-07,0.02,0.71,0
0.0012957,-0.00056894,0.028929,0.010809,0.011921,-0.0036303,0,0,0.044221,-0.0028934,0,-0.018878,0,0,0,0.02963,0.010108,0.011921,-10.918,0.01722,0.018681,3.2421e-07,0.03,0.71,0
0.0017413,-0.00075546,0.029112,0.010358,0.011841,-0.0036041,0,0,0.044905,-0.0038567,0,-0.018741,0,0,0,0.029781,0.0096888,0.011841,-10.512,0.017104,0.019107,3.4299e-07,0.04,0.71,0
0.0021938,-0.00094015,0.029293,0.0099085,0.01176,-0.0035729,0,0,0.045584,-0.0048149,0,-0.018579,0,0,0,0.02993,0.0092709,0.01176,-10.118,0.016987,0.019534,3.6195e-07,0.05,0.71,0
0.002653,-0.0011228,0.029471,0.0094627,0.01168,-0.0035363,0,0,0.046256,-0.005765,0,-0.018388,0,0,0,0.030077,0.0088561,0.01168,-9.7339,0.016871,0.01996,3.8098e-07,0.06,0.71,0
0.0031189,-0.0013031,0.029645,0.0090216,0.0116,-0.0034939,0,0,0.046917,-0.0067038,0,-0.018168,0,0,0,0.030221,0.0084458,0.0116,-9.3589,0.016756,0.020382,3.9998e-07,0.07,0.71,0
0.0035914,-0.0014809,0.029815,0.0085867,0.011521,-0.0034457,0,0,0.047566,-0.0076282,0,-0.017918,0,0,0,0.030361,0.0080414,0.011521,-8.9925,0.016641,0.020799,4.1886e-07,0.08,0.71,0
0.0040702,-0.0016559,0.029981,0.0081592,0.011442,-0.0033917,0,0,0.0482,-0.0085349,0,-0.017637,0,0,0,0.030495,0.0076442,0.011442,-8.6344,0.016527,0.021209,4.375e-07,0.09,0.71,0
0.0045554,-0.0018278,0.03014,0.0077407,0.011364,-0.0033322,0,0,0.048817,-0.009421,0,-0.017328,0,0,0,0.030625,0.0072555,0.011364,-8.2847,0.016415,0.02161,4.5581e-07,0.1,0.71,0
0.0050466,-0.0019964,0.030293,0.0073324,0.011288,-0.0032676,0,0,0.049414,-0.010284,0,-0.016991,0,0,0,0.030749,0.0068765,0.011288,-7.9437,0.016304,0.022001,4.7371e-07,0.11,0.71,0
0.0055436,-0.0021614,0.03044,0.0069355,0.011213,-0.0031982,0,0,0.049991,-0.01112,0,-0.016631,0,0,0,0.030867,0.0065081,0.011213,-7.6118,0.016196,0.022381,4.911e-07,0.12,0.71,0
0.0060464,-0.0023226,0.030579,0.006551,0.011139,-0.0031248,0,0,0.050544,-0.011929,0,-0.016249,0,0,0,0.030979,0.0061513,0.011139,-7.2897,0.01609,0.022747,5.0792e-07,0.13,0.71,0
0.0065545,-0.0024798,0.03071,0.0061799,0.011067,-0.0030479,0,0,0.051073,-0.012707,0,-0.015849,0,0,0,0.031083,0.0058069,0.011067,-6.9777,0.015986,0.0231,5.2411e-07,0.14,0.71,0
0.0070678,-0.0026327,0.030834,0.005823,0.010997,-0.0029684,0,0,0.051576,-0.013453,0,-0.015436,0,0,0,0.031182,0.0054756,0.010997,-6.6765,0.015885,0.023438,5.396e-07,0.15,0.71,0
0.0075861,-0.0027812,0.03095,0.005481,0.010929,-0.0028869,0,0,0.052053,-0.014165,0,-0.015012,0,0,0,0.031273,0.0051579,0.010929,-6.3867,0.015787,0.023761,5.5436e-07,0.16,0.71,0
0.0081089,-0.0029251,0.031057,0.0051544,0.010863,-0.0028043,0,0,0.052504,-0.014844,0,-0.014582,0,0,0,0.031357,0.0048543,0.010863,-6.1087,0.015692,0.024068,5.6835e-07,0.17,0.71,0
0.0086361,-0.0030642,0.031156,0.0048437,0.0108,-0.0027212,0,0,0.052927,-0.015487,0,-0.01415,0,0,0,0.031435,0.0045652,0.0108,-5.8431,0.0156,0.024358,5.8154e-07,0.18,0.71,0
0.0091674,-0.0031985,0.031247,0.0045491,0.010739,-0.0026384,0,0,0.053322,-0.016094,0,-0.01372,0,0,0,0.031506,0.0042908,0.010739,-5.5902,0.015512,0.024632,5.9391e-07,0.19,0.71,0
0.0097026,-0.0033278,0.03133,0.0042708,0.01068,-0.0025566,0,0,0.05369,-0.016665,0,-0.013295,0,0,0,0.03157,0.0040314,0.01068,-5.3503,0.015427,0.024889,6.0545e-07,0.2,0.71,0
0.010241,-0.003452,0.031405,0.004009,0.010624,-0.0024764,0,0,0.05403,-0.0172,0,-0.012877,0,0,0,0.031627,0.0037869,0.010624,-5.1238,0.015346,0.025129,6.1615e-07,0.21,0.71,0
0.010783,-0.0035712,0.031472,0.0037637,0.010571,-0.0023984,0,0,0.054344,-0.017698,0,-0.012472,0,0,0,0.031678,0.0035576,0.010571,-4.9107,0.015269,0.025352,6.26e-07,0.22,0.71,0
0.011328,-0.0036851,0.031531,0.0035348,0.01052,-0.0023231,0,0,0.05463,-0.018161,0,-0.01208,0,0,0,0.031723,0.0033434,0.01052,-4.7113,0.015195,0.025558,6.3501e-07,0.23,0.71,0
0.011876,-0.0037939,0.031583,0.0033223,0.010471,-0.0022509,0,0,0.054889,-0.018588,0,-0.011705,0,0,0,0.031761,0.0031441,0.010471,-4.5255,0.015126,0.025747,6.4317e-07,0.24,0.71,0
0.012426,-0.0038974,0.031627,0.003126,0.010426,-0.0021823,0,0,0.055122,-0.018979,0,-0.011348,0,0,0,0.031793,0.0029599,0.010426,-4.3533,0.015059,0.025919,6.505e-07,0.25,0.71,0
0.012978,-0.0039956,0.031663,0.0029458,0.010383,-0.0021176,0,0,0.055329,-0.019336,0,-0.011011,0,0,0,0.031819,0.0027905,0.010383,-4.1946,0.014997,0.026075,6.5698e-07,0.26,0.71,0
0.013532,-0.0040886,0.031692,0.0027814,0.010342,-0.0020569,0,0,0.055511,-0.019658,0,-0.010696,0,0,0,0.031838,0.0026357,0.010342,-4.0492,0.014939,0.026213,6.6263e-07,0.27,0.71,0
0.014088,-0.0041763,0.031714,0.0026325,0.010304,-0.0020006,0,0,0.055667,-0.019946,0,-0.010403,0,0,0,0.031851,0.0024955,0.010304,-3.9168,0.014884,0.026335,6.6745e-07,0.28,0.71,0
0.014646,-0.0042587,0.031729,0.0024989,0.010268,-0.0019486,0,0,0.055798,-0.020201,0,-0.010132,0,0,0,0.031858,0.0023696,0.010268,-3.7971,0.014832,0.02644,6.7144e-07,0.29,0.71,0
0.015204,-0.0043358,0.031737,0.0023803,0.010235,-0.0019009,0,0,0.055904,-0.020422,0,-0.0098849,0,0,0,0.031859,0.0022577,0.010235,-3.6896,0.014784,0.026528,6.7461e-07,0.3,0.71,0
0.015764,-0.0044075,0.031737,0.0022763,0.010204,-0.0018576,0,0,0.055985,-0.020612,0,-0.0096597,0,0,0,0.031853,0.0021596,0.010204,-3.5939,0.014739,0.0266,6.7695e-07,0.31,0.71,0
0.016324,-0.0044739,0.031729,0.0021865,0.010175,-0.0018185,0,0,0.056042,-0.020769,0,-0.0094562,0,0,0,0.031841,0.002075,0.010175,-3.5092,0.014697,0.026655,6.7847e-07,0.32,0.71,0
0.016885,-0.0045348,0.031714,0.0021104,0.010147,-0.0017833,0,0,0.056073,-0.020896,0,-0.009273,0,0,0,0.031821,0.0020034,0.010147,-3.4349,0.014657,0.026694,6.7915e-07,0.33,0.71,0
0.017446,-0.0045903,0.031691,0.0020476,0.010122,-0.0017516,0,0,0.056081,-0.020993,0,-0.0091085,0,0,0,0.031794,0.0019444,0.010122,-3.37,0.01462,0.026717,6.7901e-07,0.34,0.71,0
0.018006,-0.0046402,0.03166,0.0019973,0.010097,-0.0017232,0,0,0.056064,-0.02106,0,-0.0089605,0,0,0,0.03176,0.0018975,0.010097,-3.3135,0.014585,0.026724,6.7804e-07,0.35,0.71,0
0.018567,-0.0046843,0.031621,0.0019588,0.010074,-0.0016973,0,0,0.056023,-0.0211,0,-0.008826,0,0,0,0.031718,0.001862,0.010074,-3.2643,0.014551,0.026714,6.7625e-07,0.36,0.71,0
0.019127,-0.0047227,0.031574,0.0019311,0.010051,-0.0016734,0,0,0.055958,-0.021113,0,-0.0087019,0,0,0,0.031668,0.0018369,0.010051,-3.2209,0.014519,0.026689,6.7364e-07,0.37,0.71,0
0.019686,-0.004755,0.031517,0.0019131,0.010029,-0.0016508,0,0,0.055869,-0.021102,0,-0.0085843,0,0,0,0.031609,0.0018213,0.010029,-3.1819,0.014486,0.026649,6.7023e-07,0.38,0.71,0
0.020244,-0.004781,0.031452,0.0019032,0.010007,-0.0016287,0,0,0.055758,-0.021069,0,-0.008469,0,0,0,0.031542,0.0018137,0.010007,-3.1453,0.014454,0.026595,6.6604e-07,0.39,0.71,0
0.020801,-0.0048005,0.031378,0.0018998,0.0099832,-0.001606,0,0,0.055625,-0.021017,0,-0.0083512,0,0,0,0.031465,0.0018125,0.0099832,-3.1093,0.01442,0.026528,6.611e-07,0.4,0.71,0
0.021357,-0.0048132,0.031294,0.0019004,0.0099583,-0.0015819,0,0,0.055473,-0.020951,0,-0.008226,0,0,0,0.031379,0.0018155,0.0099583,-3.0718,0.014384,0.026449,6.5549e-07,0.41,0.71,0
0.021911,-0.0048187,0.031201,0.0019024,0.0099311,-0.0015555,0,0,0.055302,-0.020875,0,-0.0080884,0,0,0,0.031283,0.0018201,0.0099311,-3.0305,0.014345,0.026361,6.4926e-07,0.42,0.71,0
0.022463,-0.0048165,0.031099,0.0019022,0.0099005,-0.0015258,0,0,0.055117,-0.020796,0,-0.007934,0,0,0,0.031179,0.0018227,0.0099005,-2.9833,0.014301,0.026266,6.4255e-07,0.43,0.71,0
0.023013,-0.0048063,0.030989,0.0018955,0.0098654,-0.0014922,0,0,0.054922,-0.020722,0,-0.0077593,0,0,0,0.031065,0.0018192,0.0098654,-2.9284,0.01425,0.026168,6.3548e-07,0.44,0.71,0
0.023561,-0.0047875,0.030871,0.0018771,0.0098245,-0.0014545,0,0,0.054721,-0.020663,0,-0.0075632,0,0,0,0.030944,0.0018043,0.0098245,-2.8646,0.014191,0.026072,6.2824e-07,0.45,0.71,0
0.024107,-0.0047597,0.030746,0.0018408,0.009776,-0.0014131,0,0,0.054522,-0.020632,0,-0.007348,0,0,0,0.030815,0.0017719,0.009776,-2.7921,0.014121,0.025983,6.2105e-07,0.46,0.71,0
0.024652,-0.0047224,0.030614,0.0017793,0.0097181,-0.0013695,0,0,0.05433,-0.020641,0,-0.0071214,0,0,0,0.030679,0.0017144,0.0097181,-2.7131,0.014037,0.025907,6.1415e-07,0.47,0.71,0
0.025194,-0.004675,0.030477,0.0016845,0.0096483,-0.0013266,0,0,0.054153,-0.020706,0,-0.0068981,0,0,0,0.030537,0.0016235,0.0096483,-2.6324,0.013936,0.025853,6.0775e-07,0.48,0.71,0
0.025735,-0.0046174,0.030332,0.0015486,0.0095642,-0.0012884,0,0,0.053996,-0.020841,0,-0.0066997,0,0,0,0.030389,0.001491,0.0095642,-2.5579,0.013815,0.025826,6.0202e-07,0.49,0.71,0
0.026274,-0.0045493,0.03018,0.0013635,0.0094629,-0.0012604,0,0,0.053864,-0.021059,0,-0.0065541,0,0,0,0.030235,0.0013084,0.0094629,-2.4997,0.013669,0.025833,5.971e-07,0.5,0.71,0
0.026812,-0.0044707,0.030017,0.0011189,0.0093407,-0.0012493,0,0,0.053758,-0.021377,0,-0.0064965,0,0,0,0.030071,0.0010649,0.0093407,-2.4709,0.013492,0.02588,5.9304e-07,0.51,0.71,0
0.027349,-0.004382,0.029842,0.00080514,0.0091941,-0.0012669,0,0,0.053684,-0.021811,0,-0.0065877,0,0,0,0.029897,0.00074998,0.0091941,-2.4935,0.01328,0.025976,5.8993e-07,0.52,0.71,0
0.027886,-0.004284,0.029635,0.00040264,0.0090113,-0.0013265,0,0,0.053622,-0.022382,0,-0.0068978,0,0,0,0.029695,0.00034257,0.0090113,-2.5929,0.013016,0.02612,5.87e-07,0.53,0.71,0
0.028421,-0.0041783,0.0294,-6.417e-05,0.0088009,-0.0014557,0,0,0.053559,-0.023049,0,-0.0075695,0,0,0,0.029472,-0.00013591,0.0088009,-2.8215,0.012712,0.026304,5.8401e-07,0.54,0.71,0
0.028957,-0.0040678,0.029056,-0.00063987,0.0085247,-0.0016367,0,0,0.05338,-0.023828,0,-0.008511,0,0,0,0.029146,-0.00072981,0.0085247,-3.1453,0.012313,0.02649,5.7674e-07,0.55,0.71,0
0.029489,-0.0039534,0.028884,-0.0010909,0.0083378,-0.0019367,0,0,0.053419,-0.024515,0,-0.010071,0,0,0,0.029008,-0.0012155,0.0083378,-3.6816,0.012044,0.026758,5.7795e-07,0.56,0.71,0
0.030025,-0.0038442,0.028476,-0.0020325,0.0079332,-0.0023266,0,0,0.053413,-0.025911,0,-0.012098,0,0,0,0.028653,-0.0022089,0.0079332,-4.336,0.011459,0.027245,5.7452e-07,0.57,0.71,0
0.030557,-0.0037558,0.027911,-0.0023488,0.0076686,-0.0029848,0,0,0.05263,-0.026045,0,-0.015521,0,0,0,0.028202,-0.0026405,0.0076686,-5.58,0.011077,0.027196,5.5515e-07,0.58,0.71,0
0.031078,-0.0036724,0.028647,-0.0014904,0.0081469,-0.003614,0,0,0.053299,-0.025057,0,-0.018793,0,0,0,0.029074,-0.0019177,0.0081469,-6.7434,0.011768,0.027384,5.946e-07,0.59,0.71,0
0.031623,-0.0035956,0.032469,-0.0023415,0.0090382,-0.0034316,0,0,0.042605,-0.020278,0,-0.013697,0,0,0,0.032832,-0.0027048,0.0090382,-5.9232,0.013055,0.031362,9.6097e-07,0.6,0.71,0
0.03199,-0.0035512,0.030017,-0.0012438,0.0086319,-0.0026366,0,0,0.037067,-0.018129,0,-0.011531,0,0,0,0.030333,-0.0015605,0.0086319,-5.6458,0.012468,0.02824,8.7318e-07,0.61,0.71,0
0.032365,-0.0035417,0.031339,-0.00052133,0.0092454,-0.0018046,0,0,0.038296,-0.01777,0,-0.0081303,0,0,0,0.031504,-0.00068575,0.0092454,-3.9729,0.013355,0.028567,9.5906e-07,0.62,0.71,0
0.032756,-0.0035574,0.028852,-0.00084646,0.0084016,-0.00076727,0,0,0.036357,-0.016147,0,-0.0038683,0,0,0,0.0289,-0.00089493,0.0084016,-1.9899,0.012136,0.026406,6.7914e-07,0.63,0.71,0
0.033064,-0.0035617,0.034261,-0.0010537,0.0099623,-0.0007226,0,0,0.031589,-0.014321,0,-0.0018787,0,0,0,0.034276,-0.0010685,0.0099623,-1.1717,0.01439,0.031322,9.4375e-07,0.64,0.71,0
0.033387,-0.003557,0.035781,-0.00060542,0.010553,-0.00055523,0,0,0.032797,-0.014505,0,-0.0014436,0,0,0,0.035789,-0.00061389,0.010553,-0.87403,0.015243,0.032301,1.0595e-06,0.65,0.71,0
0.033721,-0.0035566,0.036536,-0.00038236,0.010846,-0.00041521,0,0,0.033397,-0.014597,0,-0.0010796,0,0,0,0.03654,-0.00038702,0.010846,-0.64429,0.015666,0.032787,1.12e-06,0.66,0.71,0
0.034055,-0.0035621,0.036498,-0.0002016,0.010889,-0.00035871,0,0,0.033292,-0.014418,0,-0.00093264,0,0,0,0.036501,-0.00020511,0.010889,-0.55995,0.015728,0.032607,1.1106e-06,0.67,0.71,0
0.034386,-0.0035847,0.036915,-0.00069018,0.010868,8.9099e-05,0,0,0.033862,-0.015025,0,0.00023166,0,0,0,0.036916,-0.0006904,0.010868,0.13575,0.015698,0.033364,1.1645e-06,0.68,0.71,0
0.034732,-0.0035917,0.036933,-0.00062859,0.010891,-0.0005252,0,0,0.033854,-0.014976,0,-0.0013655,0,0,0,0.03694,-0.00063593,0.010891,-0.80093,0.015732,0.033342,1.165e-06,0.69,0.71,0
0.035063,-0.0035841,0.03649,-0.00023911,0.010875,-8.8973e-05,0,0,0.033299,-0.014449,0,-0.00023133,0,0,0,0.03649,-0.00023933,0.010875,-0.13879,0.015709,0.032625,1.1107e-06,0.7,0.71,0
0.035398,-0.0035939,0.036547,-0.00044124,0.010832,-3.8608e-05,0,0,0.03343,-0.014655,0,-0.00010038,0,0,0,0.036547,-0.00044128,0.010832,-0.059804,0.015646,0.032837,1.1224e-06,0.71,0.71,0
0.035732,-0.0036095,0.035797,-0.00068692,0.010533,9.2085e-05,0,0,0.032843,-0.014586,0,0.00023942,0,0,0,0.035797,-0.00068715,0.010533,0.14461,0.015214,0.032367,1.0623e-06,0.72,0.71,0
0.036055,-0.0036292,0.03432,-0.0011462,0.0099523,0.00025204,0,0,0.031679,-0.014428,0,0.00065529,0,0,0,0.034322,-0.001148,0.0099523,0.40713,0.014375,0.031427,9.4964e-07,0.73,0.71,0
0.036366,-0.0036388,0.028945,-0.00087055,0.0084223,0.00034494,0,0,0.036483,-0.016226,0,0.0023325,0,0,0,0.028975,-0.00090114,0.0084223,1.1581,0.012165,0.026478,6.8579e-07,0.74,0.71,0
0.036758,-0.0036396,0.031325,-0.00067106,0.0091962,0.0013554,0,0,0.038357,-0.017948,0,0.0064349,0,0,0,0.031438,-0.00078346,0.0091962,3.125,0.013283,0.028586,9.5975e-07,0.75,0.71,0
0.037133,-0.0036649,0.029864,-0.0014589,0.0085215,0.0021759,0,0,0.036994,-0.018319,0,0.0097914,0,0,0,0.030102,-0.0016968,0.0085215,4.7884,0.012309,0.028143,8.6177e-07,0.76,0.71,0
0.037498,-0.0037238,0.032211,-0.0026505,0.0088681,0.002923,0,0,0.042447,-0.020541,0,0.01183,0,0,0,0.032482,-0.0029213,0.0088681,5.103,0.012809,0.031227,9.3693e-07,0.77,0.71,0
0.038041,-0.0038196,0.028452,-0.0018084,0.007993,0.003169,0,0,0.053193,-0.025484,0,0.016479,0,0,0,0.02878,-0.0021367,0.007993,5.9148,0.011545,0.0273,5.8082e-07,0.78,0.71,0
0.038561,-0.0039224,0.027789,-0.0026466,0.0075428,0.0025243,0,0,0.052641,-0.026492,0,0.013126,0,0,0,0.027997,-0.0028545,0.0075428,4.7092,0.010895,0.027187,5.4657e-07,0.79,0.71,0
0.039094,-0.0040314,0.028367,-0.002391,0.0077928,0.0018259,0,0,0.053493,-0.026478,0,0.0094946,0,0,0,0.028475,-0.002499,0.0077928,3.3854,0.011256,0.027323,5.6878e-07,0.8,0.71,0
0.039631,-0.004163,0.028802,-0.0014529,0.0082048,0.0013853,0,0,0.053554,-0.02511,0,0.0072037,0,0,0,0.028866,-0.0015163,0.0082048,2.6162,0.011851,0.026874,5.7506e-07,0.81,0.71,0
0.040165,-0.0043015,0.028986,-0.00099396,0.0083977,0.0010367,0,0,0.05353,-0.024418,0,0.005391,0,0,0,0.029022,-0.0010298,0.0083977,1.9782,0.01213,0.026621,5.7527e-07,0.82,0.71,0
0.040702,-0.0044378,0.029337,-0.00040796,0.0086786,0.00080885,0,0,0.053711,-0.023625,0,0.004206,0,0,0,0.029359,-0.00042994,0.0086786,1.5565,0.012536,0.026439,5.8335e-07,0.83,0.71,0
0.041239,-0.0045705,0.029576,7.4961e-05,0.0088953,0.00063508,0,0,0.05377,-0.022933,0,0.0033024,0,0,0,0.02959,6.1295e-05,0.0088953,1.2327,0.012849,0.026251,5.8682e-07,0.84,0.71,0
0.041777,-0.0046966,0.029784,0.00049391,0.0090835,0.00053235,0,0,0.053822,-0.022333,0,0.0027682,0,0,0,0.029794,0.00048424,0.0090835,1.0409,0.013121,0.026096,5.8977e-07,0.85,0.71,0
0.042316,-0.0048142,0.029959,0.00082263,0.0092346,0.00047283,0,0,0.053884,-0.021871,0,0.0024587,0,0,0,0.029967,0.00081496,0.0092346,0.92947,0.013339,0.025986,5.9262e-07,0.86,0.71,0
0.042855,-0.0049224,0.03012,0.0010791,0.0093598,0.00044176,0,0,0.053977,-0.02153,0,0.0022971,0,0,0,0.030127,0.0010723,0.0093598,0.87128,0.01352,0.025924,5.9624e-07,0.87,0.71,0
0.043395,-0.0050208,0.03027,0.0012724,0.0094626,0.00042629,0,0,0.054099,-0.021295,0,0.0022167,0,0,0,0.030276,0.0012661,0.0094626,0.84207,0.013668,0.025903,6.0062e-07,0.88,0.71,0
0.043937,-0.0051092,0.03041,0.0014127,0.0095469,0.0004186,0,0,0.054245,-0.021149,0,0.0021767,0,0,0,0.030416,0.0014067,0.0095469,0.82687,0.01379,0.025917,6.0571e-07,0.89,0.71,0
0.04448,-0.0051877,0.030542,0.0015083,0.0096151,0.00041243,0,0,0.05441,-0.021078,0,0.0021447,0,0,0,0.030548,0.0015024,0.0096151,0.81368,0.013888,0.025958,6.1141e-07,0.9,0.71,0
0.045025,-0.0052568,0.030666,0.0015674,0.00967,0.00040299,0,0,0.054589,-0.021067,0,0.0020955,0,0,0,0.030672,0.0015619,0.00967,0.7933,0.013968,0.026021,6.1752e-07,0.91,0.71,0
0.045572,-0.0053167,0.030781,0.0015988,0.0097139,0.00038703,0,0,0.054774,-0.021099,0,0.0020126,0,0,0,0.030786,0.0015937,0.0097139,0.75972,0.014031,0.026097,6.2379e-07,0.92,0.71,0
0.046121,-0.0053682,0.030885,0.00161,0.0097486,0.00036286,0,0,0.054956,-0.02116,0,0.0018869,0,0,0,0.03089,0.0016055,0.0097486,0.71002,0.014081,0.02618,6.2997e-07,0.93,0.71,0
0.046671,-0.0054115,0.030978,0.0016078,0.0097759,0.00033001,0,0,0.055127,-0.021237,0,0.001716,0,0,0,0.030982,0.0016041,0.0097759,0.64367,0.014121,0.026264,6.3579e-07,0.94,0.71,0
0.047223,-0.0054473,0.031059,0.0015977,0.009797,0.00028887,0,0,0.055281,-0.021318,0,0.0015021,0,0,0,0.031062,0.0015949,0.009797,0.56172,0.014151,0.026342,6.4104e-07,0.95,0.71,0
0.047777,-0.005476,0.031126,0.001584,0.0098129,0.00024037,0,0,0.055413,-0.021395,0,0.0012499,0,0,0,0.031128,0.0015821,0.0098129,0.46615,0.014174,0.02641,6.4555e-07,0.96,0.71,0
0.048331,-0.0054979,0.031178,0.0015701,0.0098245,0.00018576,0,0,0.05552,-0.021461,0,0.00096593,0,0,0,0.031179,0.001569,0.0098245,0.35944,0.014191,0.026467,6.4918e-07,0.97,0.71,0
0.048887,-0.0055133,0.031216,0.0015585,0.0098324,0.00012647,0,0,0.055597,-0.021512,0,0.00065763,0,0,0,0.031217,0.001558,0.0098324,0.24432,0.014202,0.026508,6.5184e-07,0.98,0.71,0
0.049443,-0.0055225,0.031239,0.0015509,0.0098369,6.4026e-05,0,0,0.055645,-0.021544,0,0.00033293,0,0,0,0.031239,0.0015508,0.0098369,0.12356,0.014209,0.026534,6.5346e-07,0.99,0.71,0
0.05,-0.0055255,0.031246,0.0015483,0.0098384,-5.8526e-05,0,0,0.055661,-0.021554,0,-0.00030434,0,0,0,0.031246,0.0015482,0.0098384,-0.11291,0.014211,0.026543,6.5401e-07,1,0.71,0
0,0,0.028574,0.012246,0.012246,-0.0038599,0,0,0.042452,-2.7105e-19,0,-0.020072,0,0,0,0.02944,0.011379,0.012246,-12.652,0.017688,0.017643,2.7979e-07,0,0.72,0
0.00042452,-0.00020072,0.028527,0.011695,0.012067,-0.0038562,0,0,0.042798,-0.00096712,0,-0.020052,0,0,0,0.029369,0.010853,0.012067,-12.308,0.017429,0.01794,2.9195e-07,0.01,0.72,0
0.00085596,-0.00040008,0.028713,0.01124,0.011986,-0.0038375,0,0,0.04349,-0.001939,0,-0.019955,0,0,0,0.029518,0.010434,0.011986,-11.857,0.017313,0.018357,3.1009e-07,0.02,0.72,0
0.0012943,-0.00059796,0.028898,0.010784,0.011905,-0.0038146,0,0,0.044182,-0.0029131,0,-0.019836,0,0,0,0.029668,0.010013,0.011905,-11.42,0.017195,0.018781,3.2862e-07,0.03,0.72,0
0.0017396,-0.00079416,0.029081,0.010328,0.011823,-0.0037867,0,0,0.044872,-0.0038865,0,-0.019691,0,0,0,0.029817,0.0095922,0.011823,-10.995,0.017077,0.019207,3.4742e-07,0.04,0.72,0
0.0021918,-0.00098848,0.029263,0.0098732,0.011741,-0.0037531,0,0,0.045557,-0.0048558,0,-0.019516,0,0,0,0.029964,0.0091721,0.011741,-10.581,0.016959,0.019634,3.6639e-07,0.05,0.72,0
0.0026507,-0.0011807,0.029441,0.0094213,0.011659,-0.0037132,0,0,0.046235,-0.0058175,0,-0.019309,0,0,0,0.030108,0.0087548,0.011659,-10.176,0.016841,0.020059,3.8542e-07,0.06,0.72,0
0.0031165,-0.0013705,0.029616,0.0089739,0.011577,-0.0036668,0,0,0.046902,-0.0067681,0,-0.019067,0,0,0,0.030248,0.008342,0.011577,-9.7792,0.016722,0.020481,4.044e-07,0.07,0.72,0
0.0035888,-0.0015575,0.029786,0.0085327,0.011496,-0.0036137,0,0,0.047556,-0.0077038,0,-0.018791,0,0,0,0.030384,0.0079351,0.011496,-9.3903,0.016605,0.020897,4.2319e-07,0.08,0.72,0
0.0040676,-0.0017416,0.029951,0.0080992,0.011415,-0.003554,0,0,0.048193,-0.0086212,0,-0.018481,0,0,0,0.030514,0.0075357,0.011415,-9.0095,0.016488,0.021306,4.4171e-07,0.09,0.72,0
0.0045526,-0.0019225,0.030109,0.0076749,0.011335,-0.0034882,0,0,0.048812,-0.0095168,0,-0.018138,0,0,0,0.030639,0.0071451,0.011335,-8.6371,0.016373,0.021704,4.5985e-07,0.1,0.72,0
0.0050438,-0.0020997,0.03026,0.0072614,0.011257,-0.0034166,0,0,0.04941,-0.010387,0,-0.017766,0,0,0,0.030757,0.0067646,0.011257,-8.2734,0.016259,0.022092,4.7751e-07,0.11,0.72,0
0.0055408,-0.0022731,0.030404,0.0068598,0.011179,-0.0033397,0,0,0.049985,-0.011231,0,-0.017367,0,0,0,0.030869,0.0063952,0.011179,-7.9192,0.016148,0.022467,4.946e-07,0.12,0.72,0
0.0060435,-0.0024424,0.03054,0.0064714,0.011104,-0.0032585,0,0,0.050536,-0.012044,0,-0.016944,0,0,0,0.030974,0.006038,0.011104,-7.5751,0.016038,0.022828,5.1105e-07,0.13,0.72,0
0.0065516,-0.0026074,0.030668,0.0060971,0.011029,-0.0031734,0,0,0.05106,-0.012824,0,-0.016502,0,0,0,0.031071,0.0056938,0.011029,-7.2418,0.015931,0.023175,5.268e-07,0.14,0.72,0
0.0070647,-0.0027678,0.030787,0.0057378,0.010957,-0.0030855,0,0,0.051556,-0.013571,0,-0.016045,0,0,0,0.031161,0.0053633,0.010957,-6.9199,0.015827,0.023505,5.4179e-07,0.15,0.72,0
0.0075827,-0.0029234,0.030897,0.0053942,0.010887,-0.0029956,0,0,0.052025,-0.014282,0,-0.015577,0,0,0,0.031244,0.0050471,0.010887,-6.6102,0.015726,0.02382,5.5599e-07,0.16,0.72,0
0.0081052,-0.003074,0.030998,0.0050668,0.010819,-0.0029044,0,0,0.052465,-0.014957,0,-0.015103,0,0,0,0.03132,0.0047455,0.010819,-6.313,0.015628,0.024118,5.6935e-07,0.17,0.72,0
0.008632,-0.0032196,0.031091,0.004756,0.010754,-0.0028128,0,0,0.052875,-0.015595,0,-0.014626,0,0,0,0.031388,0.004459,0.010754,-6.029,0.015534,0.024398,5.8186e-07,0.18,0.72,0
0.0091627,-0.0033599,0.031174,0.0044621,0.010691,-0.0027215,0,0,0.053257,-0.016195,0,-0.014152,0,0,0,0.031449,0.0041877,0.010691,-5.7586,0.015442,0.024661,5.935e-07,0.19,0.72,0
0.0096971,-0.0034949,0.031249,0.0041852,0.01063,-0.0026313,0,0,0.053609,-0.016757,0,-0.013683,0,0,0,0.031503,0.0039318,0.01063,-5.5019,0.015355,0.024907,6.0426e-07,0.2,0.72,0
0.010235,-0.0036244,0.031316,0.0039254,0.010572,-0.0025429,0,0,0.053933,-0.017282,0,-0.013223,0,0,0,0.03155,0.0036914,0.010572,-5.2593,0.015271,0.025135,6.1414e-07,0.21,0.72,0
0.010776,-0.0037485,0.031374,0.0036827,0.010517,-0.0024568,0,0,0.054228,-0.017769,0,-0.012775,0,0,0,0.03159,0.0034664,0.010517,-5.0309,0.015191,0.025345,6.2313e-07,0.22,0.72,0
0.011319,-0.003867,0.031424,0.0034569,0.010464,-0.0023735,0,0,0.054494,-0.018219,0,-0.012342,0,0,0,0.031623,0.0032569,0.010464,-4.8168,0.015115,0.025538,6.3125e-07,0.23,0.72,0
0.011866,-0.00398,0.031465,0.0032478,0.010414,-0.0022936,0,0,0.054733,-0.018632,0,-0.011927,0,0,0,0.03165,0.0030626,0.010414,-4.6168,0.015042,0.025713,6.3849e-07,0.24,0.72,0
0.012414,-0.0040873,0.031499,0.0030554,0.010366,-0.0022173,0,0,0.054945,-0.019009,0,-0.01153,0,0,0,0.031671,0.0028835,0.010366,-4.4309,0.014974,0.025871,6.4488e-07,0.25,0.72,0
0.012965,-0.004189,0.031525,0.0028792,0.010321,-0.0021451,0,0,0.05513,-0.019349,0,-0.011154,0,0,0,0.031685,0.0027194,0.010321,-4.2588,0.014908,0.026011,6.504e-07,0.26,0.72,0
0.013517,-0.0042851,0.031544,0.002719,0.010279,-0.002077,0,0,0.055288,-0.019655,0,-0.0108,0,0,0,0.031692,0.0025701,0.010279,-4.1003,0.014847,0.026135,6.5507e-07,0.27,0.72,0
0.01407,-0.0043756,0.031554,0.0025745,0.010239,-0.0020133,0,0,0.055421,-0.019927,0,-0.010469,0,0,0,0.031694,0.0024353,0.010239,-3.9551,0.014789,0.026242,6.5891e-07,0.28,0.72,0
0.014625,-0.0044605,0.031558,0.0024453,0.010201,-0.0019539,0,0,0.055528,-0.020164,0,-0.01016,0,0,0,0.031688,0.0023148,0.010201,-3.8226,0.014735,0.026332,6.619e-07,0.29,0.72,0
0.015181,-0.0045397,0.031553,0.0023311,0.010165,-0.0018989,0,0,0.055609,-0.020369,0,-0.009874,0,0,0,0.031676,0.0022082,0.010165,-3.7023,0.014683,0.026405,6.6407e-07,0.3,0.72,0
0.015737,-0.0046133,0.031542,0.0022313,0.010132,-0.001848,0,0,0.055665,-0.020542,0,-0.0096099,0,0,0,0.031658,0.0021152,0.010132,-3.5936,0.014635,0.026461,6.6541e-07,0.31,0.72,0
0.016294,-0.0046811,0.031522,0.0021455,0.0101,-0.0018013,0,0,0.055696,-0.020682,0,-0.0093667,0,0,0,0.031632,0.0020354,0.0101,-3.4958,0.014589,0.026501,6.6592e-07,0.32,0.72,0
0.016851,-0.0047432,0.031494,0.0020731,0.01007,-0.0017583,0,0,0.055703,-0.020793,0,-0.0091431,0,0,0,0.031599,0.0019684,0.01007,-3.408,0.014546,0.026525,6.6561e-07,0.33,0.72,0
0.017408,-0.0047996,0.031459,0.0020136,0.010042,-0.0017187,0,0,0.055685,-0.020873,0,-0.0089371,0,0,0,0.031559,0.0019136,0.010042,-3.3292,0.014505,0.026532,6.6448e-07,0.34,0.72,0
0.017965,-0.00485,0.031415,0.0019661,0.010014,-0.001682,0,0,0.055642,-0.020926,0,-0.0087463,0,0,0,0.031511,0.0018703,0.010014,-3.2583,0.014465,0.026523,6.6254e-07,0.35,0.72,0
0.018521,-0.0048945,0.031363,0.0019298,0.0099879,-0.0016477,0,0,0.055575,-0.020951,0,-0.0085679,0,0,0,0.031455,0.0018379,0.0099879,-3.1941,0.014427,0.026499,6.5979e-07,0.36,0.72,0
0.019076,-0.0049329,0.031302,0.0019037,0.0099618,-0.0016151,0,0,0.055485,-0.020951,0,-0.0083985,0,0,0,0.031391,0.0018152,0.0099618,-3.1351,0.014389,0.02646,6.5625e-07,0.37,0.72,0
0.019631,-0.0049651,0.031232,0.0018864,0.0099356,-0.0015835,0,0,0.055371,-0.020928,0,-0.0082344,0,0,0,0.031318,0.0018012,0.0099356,-3.0798,0.014351,0.026406,6.5194e-07,0.38,0.72,0
0.020184,-0.0049907,0.031153,0.0018765,0.009909,-0.0015522,0,0,0.055236,-0.020885,0,-0.0080716,0,0,0,0.031235,0.0017944,0.009909,-3.0264,0.014313,0.026339,6.4688e-07,0.39,0.72,0
0.020736,-0.0050097,0.031065,0.001872,0.0098812,-0.0015203,0,0,0.055078,-0.020824,0,-0.0079055,0,0,0,0.031144,0.0017931,0.0098812,-2.9731,0.014273,0.026259,6.4112e-07,0.4,0.72,0
0.021285,-0.0050216,0.030968,0.0018708,0.0098515,-0.0014869,0,0,0.054902,-0.02075,0,-0.0077318,0,0,0,0.031043,0.001795,0.0098515,-2.9177,0.01423,0.026167,6.3472e-07,0.41,0.72,0
0.021833,-0.0050263,0.030861,0.0018699,0.0098192,-0.0014512,0,0,0.054708,-0.020668,0,-0.0075462,0,0,0,0.030933,0.0017975,0.0098192,-2.8585,0.014183,0.026068,6.2775e-07,0.42,0.72,0
0.02238,-0.0050233,0.030744,0.0018662,0.0097832,-0.0014125,0,0,0.054499,-0.020584,0,-0.0073451,0,0,0,0.030813,0.0017973,0.0097832,-2.7936,0.014131,0.025961,6.2031e-07,0.43,0.72,0
0.022923,-0.0050123,0.030619,0.0018555,0.0097424,-0.0013704,0,0,0.05428,-0.020506,0,-0.0071261,0,0,0,0.030684,0.0017904,0.0097424,-2.7216,0.014072,0.025852,6.1254e-07,0.44,0.72,0
0.023465,-0.004993,0.030485,0.0018331,0.0096956,-0.0013248,0,0,0.054054,-0.020442,0,-0.0068889,0,0,0,0.030547,0.001772,0.0096956,-2.6416,0.014005,0.025744,6.0459e-07,0.45,0.72,0
0.024005,-0.0049648,0.030344,0.0017936,0.0096412,-0.0012762,0,0,0.053826,-0.020404,0,-0.0066361,0,0,0,0.030401,0.0017367,0.0096412,-2.5543,0.013926,0.025642,5.9662e-07,0.46,0.72,0
0.024542,-0.0049274,0.030194,0.0017309,0.0095774,-0.0012259,0,0,0.053603,-0.020401,0,-0.0063748,0,0,0,0.030246,0.0016781,0.0095774,-2.4617,0.013834,0.025552,5.8882e-07,0.47,0.72,0
0.025077,-0.0048807,0.030036,0.0016382,0.0095022,-0.0011763,0,0,0.053387,-0.020446,0,-0.0061167,0,0,0,0.030085,0.0015896,0.0095022,-2.3679,0.013725,0.025478,5.8134e-07,0.48,0.72,0
0.02561,-0.0048242,0.02987,0.0015089,0.0094135,-0.0011306,0,0,0.053186,-0.020552,0,-0.0058792,0,0,0,0.029915,0.0014639,0.0094135,-2.2793,0.013597,0.025426,5.7433e-07,0.49,0.72,0
0.02614,-0.004758,0.029694,0.0013355,0.0093087,-0.0010934,0,0,0.053,-0.02073,0,-0.0056858,0,0,0,0.029736,0.0012934,0.0093087,-2.2048,0.013446,0.025401,5.6786e-07,0.5,0.72,0
0.026669,-0.0046823,0.029506,0.0011109,0.0091851,-0.0010711,0,0,0.052834,-0.020993,0,-0.0055696,0,0,0,0.029546,0.0010705,0.0091851,-2.1571,0.013267,0.02541,5.6199e-07,0.51,0.72,0
0.027197,-0.0045975,0.029302,0.00082631,0.0090385,-0.001072,0,0,0.052685,-0.021352,0,-0.0055743,0,0,0,0.029342,0.00078601,0.0090385,-2.1529,0.013056,0.025454,5.5659e-07,0.52,0.72,0
0.027723,-0.0045045,0.029078,0.00048048,0.0088675,-0.0011086,0,0,0.052547,-0.021806,0,-0.0057644,0,0,0,0.029121,0.00043757,0.0088675,-2.2166,0.012809,0.025534,5.5144e-07,0.53,0.72,0
0.028248,-0.004405,0.02882,6.751e-05,0.0086661,-0.0011893,0,0,0.052399,-0.022357,0,-0.0061845,0,0,0,0.028869,1.8397e-05,0.0086661,-2.3647,0.012518,0.025644,5.458e-07,0.54,0.72,0
0.028771,-0.0043007,0.028561,-0.00037699,0.0084551,-0.0013361,0,0,0.052274,-0.022963,0,-0.0069475,0,0,0,0.028622,-0.00043854,0.0084551,-2.6379,0.012213,0.025791,5.4091e-07,0.55,0.72,0
0.029294,-0.0041954,0.028228,-0.00093642,0.0081875,-0.0015697,0,0,0.052105,-0.023722,0,-0.0081627,0,0,0,0.028312,-0.0010207,0.0081875,-3.0721,0.011826,0.025983,5.3437e-07,0.56,0.72,0
0.029813,-0.0040951,0.027742,-0.0014904,0.0078756,-0.001969,0,0,0.051654,-0.024352,0,-0.010238,0,0,0,0.027874,-0.0016225,0.0078756,-3.836,0.011376,0.026079,5.2046e-07,0.57,0.72,0
0.030326,-0.0040034,0.027205,-0.0016346,0.0076712,-0.0024486,0,0,0.050789,-0.024195,0,-0.012733,0,0,0,0.027412,-0.001841,0.0076712,-4.8186,0.011081,0.025845,4.9885e-07,0.58,0.72,0
0.030829,-0.003922,0.025911,-0.0020417,0.0071609,-0.0027593,0,0,0.048751,-0.023927,0,-0.014348,0,0,0,0.026181,-0.0023115,0.0071609,-5.5839,0.010344,0.025133,4.4228e-07,0.59,0.72,0
0.031302,-0.0038316,0.025053,-0.0022247,0.0068484,-0.0034873,0,0,0.047331,-0.02359,0,-0.018134,0,0,0,0.025491,-0.0026635,0.0068484,-7.1714,0.0098921,0.024807,4.1334e-07,0.6,0.72,0
0.031776,-0.0037628,0.024748,-0.0017852,0.0068889,-0.0031612,0,0,0.046434,-0.022553,0,-0.016438,0,0,0,0.02512,-0.0021566,0.0068889,-6.7013,0.0099507,0.024064,3.8988e-07,0.61,0.72,0
0.03223,-0.0037446,0.024912,-0.00089266,0.0072058,-0.0028201,0,0,0.046036,-0.021056,0,-0.014665,0,0,0,0.025217,-0.0011973,0.0072058,-6.1648,0.010408,0.023374,3.8162e-07,0.62,0.72,0
0.032696,-0.0037224,0.028561,-0.0019206,0.0079923,-0.0023014,0,0,0.037219,-0.017524,0,-0.010003,0,0,0,0.028794,-0.0021528,0.0079923,-4.8679,0.011544,0.027327,6.5159e-07,0.63,0.72,0
0.033022,-0.0037025,0.026791,-0.0011525,0.0076916,-0.0020274,0,0,0.033106,-0.015957,0,-0.0088548,0,0,0,0.027005,-0.0013659,0.0076916,-4.9516,0.01111,0.02511,6.1949e-07,0.64,0.72,0
0.033358,-0.003704,0.027876,-0.00081671,0.0081177,-0.0015408,0,0,0.034247,-0.01588,0,-0.0064819,0,0,0,0.027985,-0.00092616,0.0081177,-3.6256,0.011726,0.02562,6.8354e-07,0.65,0.72,0
0.033707,-0.003706,0.028825,-0.00051618,0.0084927,-0.00093139,0,0,0.035243,-0.015956,0,-0.0040103,0,0,0,0.028868,-0.00055853,0.0084927,-2.2099,0.012267,0.026108,7.4286e-07,0.66,0.72,0
0.034063,-0.0037095,0.029475,-0.0001864,0.0087866,-0.000515,0,0,0.03586,-0.01596,0,-0.0024131,0,0,0,0.029492,-0.00020364,0.0087866,-1.3077,0.012692,0.02638,7.8316e-07,0.67,0.72,0
0.034424,-0.0037327,0.026392,-0.00035328,0.0078117,0.00010004,0,0,0.033164,-0.014022,0,-0.00020893,0,0,0,0.0264,-0.00036126,0.0078117,-0.073687,0.011284,0.023762,5.0074e-07,0.68,0.72,0
0.034698,-0.0037389,0.026464,-0.00027917,0.0078553,-0.00052739,0,0,0.033222,-0.013975,0,-0.0013774,0,0,0,0.02648,-0.0002952,0.0078553,-0.88147,0.011347,0.023779,5.0406e-07,0.69,0.72,0
0.035059,-0.0037319,0.029512,-0.0002046,0.0087922,8.3254e-05,0,0,0.035914,-0.015999,0,0.00076492,0,0,0,0.029517,-0.00020979,0.0087922,0.40356,0.0127,0.026407,7.8623e-07,0.7,0.72,0
0.035416,-0.0037438,0.028805,-0.00056623,0.0084717,0.00050007,0,0,0.035245,-0.016007,0,0.0023471,0,0,0,0.028822,-0.00058282,0.0084717,1.2894,0.012237,0.026087,7.4134e-07,0.71,0.72,0
0.035764,-0.0037571,0.027806,-0.00089983,0.0080718,0.0010967,0,0,0.034205,-0.015946,0,0.0047722,0,0,0,0.027867,-0.00096161,0.0080718,2.6722,0.011659,0.025544,6.7793e-07,0.72,0.72,0
0.0361,-0.0037707,0.026639,-0.0012786,0.0076082,0.0015739,0,0,0.032987,-0.016032,0,0.0071257,0,0,0,0.026786,-0.0014249,0.0076082,3.995,0.01099,0.024963,6.0895e-07,0.73,0.72,0
0.036424,-0.0038046,0.028318,-0.0021134,0.0078615,0.0018094,0,0,0.037012,-0.017645,0,0.0081925,0,0,0,0.028483,-0.002278,0.0078615,3.9641,0.011355,0.027153,6.3479e-07,0.74,0.72,0
0.036887,-0.0038445,0.024722,-0.0010562,0.0070996,0.0024005,0,0,0.045817,-0.021205,0,0.012482,0,0,0,0.024943,-0.0012779,0.0070996,5.275,0.010255,0.023196,3.7061e-07,0.75,0.72,0
0.03734,-0.0038787,0.024604,-0.0019691,0.0067904,0.0027411,0,0,0.046315,-0.022775,0,0.014254,0,0,0,0.024883,-0.0022489,0.0067904,5.8286,0.0098083,0.023929,3.8035e-07,0.76,0.72,0
0.037813,-0.0039638,0.024908,-0.002492,0.0067247,0.0030472,0,0,0.047275,-0.023963,0,0.015846,0,0,0,0.025242,-0.0028268,0.0067247,6.2701,0.0097134,0.024719,4.0355e-07,0.77,0.72,0
0.038286,-0.0040729,0.02578,-0.0023009,0.0070436,0.0022971,0,0,0.048713,-0.024296,0,0.011945,0,0,0,0.025966,-0.0024876,0.0070436,4.6459,0.010174,0.025085,4.3401e-07,0.78,0.72,0
0.038788,-0.0041744,0.027074,-0.0019196,0.0075463,0.00196,0,0,0.050772,-0.024611,0,0.010192,0,0,0,0.027206,-0.0020515,0.0075463,3.85,0.0109,0.025832,4.911e-07,0.79,0.72,0
0.039301,-0.0042874,0.027626,-0.0017942,0.0077496,0.0014493,0,0,0.051679,-0.024814,0,0.0075364,0,0,0,0.027697,-0.0018655,0.0077496,2.8134,0.011194,0.026118,5.1469e-07,0.8,0.72,0
0.039821,-0.0044104,0.028121,-0.0012511,0.0080609,0.0010085,0,0,0.052156,-0.024211,0,0.0052443,0,0,0,0.028155,-0.0012856,0.0080609,1.9643,0.011644,0.026057,5.3031e-07,0.81,0.72,0
0.040344,-0.0045398,0.028459,-0.00068697,0.0083317,0.00073081,0,0,0.052332,-0.023449,0,0.0038002,0,0,0,0.028478,-0.00070528,0.0083317,1.4354,0.012035,0.025876,5.3785e-07,0.82,0.72,0
0.040868,-0.0046696,0.028718,-0.00023156,0.008546,0.00054098,0,0,0.052448,-0.022822,0,0.0028131,0,0,0,0.028728,-0.00024166,0.008546,1.0702,0.012344,0.025728,5.4306e-07,0.83,0.72,0
0.041393,-0.004796,0.028973,0.00019526,0.0087504,0.00041828,0,0,0.052578,-0.022243,0,0.002175,0,0,0,0.028979,0.00018918,0.0087504,0.83255,0.012639,0.025606,5.4856e-07,0.84,0.72,0
0.041919,-0.0049167,0.029191,0.00055638,0.0089242,0.00034083,0,0,0.052694,-0.021756,0,0.0017723,0,0,0,0.029195,0.00055233,0.0089242,0.68184,0.01289,0.025509,5.5323e-07,0.85,0.72,0
0.042447,-0.0050301,0.029387,0.00085553,0.0090729,0.00029944,0,0,0.052818,-0.021365,0,0.0015571,0,0,0,0.02939,0.00085239,0.0090729,0.60123,0.013105,0.025444,5.5789e-07,0.86,0.72,0
0.042976,-0.0051353,0.029565,0.0010928,0.0091975,0.00028093,0,0,0.052957,-0.021072,0,0.0014609,0,0,0,0.029568,0.00109,0.0091975,0.56525,0.013285,0.025414,5.6282e-07,0.87,0.72,0
0.043506,-0.0052314,0.02973,0.0012761,0.009302,0.00027599,0,0,0.053114,-0.020867,0,0.0014352,0,0,0,0.029733,0.0012735,0.009302,0.55567,0.013436,0.025415,5.6819e-07,0.88,0.72,0
0.044038,-0.0053184,0.029884,0.0014126,0.009389,0.00027738,0,0,0.053287,-0.020739,0,0.0014424,0,0,0,0.029887,0.0014099,0.009389,0.55813,0.013562,0.025444,5.7398e-07,0.89,0.72,0
0.044572,-0.0053963,0.030027,0.0015095,0.009461,0.00027988,0,0,0.053472,-0.020674,0,0.0014554,0,0,0,0.03003,0.0015068,0.009461,0.56224,0.013666,0.025494,5.8011e-07,0.9,0.72,0
0.045108,-0.0054652,0.03016,0.0015739,0.0095201,0.0002796,0,0,0.053663,-0.02066,0,0.0014539,0,0,0,0.030162,0.0015711,0.0095201,0.56033,0.013751,0.025561,5.8642e-07,0.91,0.72,0
0.045645,-0.0055255,0.030281,0.0016126,0.0095682,0.00027388,0,0,0.053854,-0.020685,0,0.0014242,0,0,0,0.030284,0.00161,0.0095682,0.54729,0.013821,0.025639,5.9275e-07,0.92,0.72,0
0.046185,-0.0055775,0.030391,0.0016321,0.0096071,0.00026121,0,0,0.054039,-0.020735,0,0.0013583,0,0,0,0.030394,0.0016298,0.0096071,0.52034,0.013877,0.025721,5.9887e-07,0.93,0.72,0
0.046726,-0.0056216,0.030489,0.0016382,0.0096381,0.00024102,0,0,0.054212,-0.0208,0,0.0012533,0,0,0,0.030491,0.0016362,0.0096381,0.47861,0.013922,0.025802,6.0459e-07,0.94,0.72,0
0.047269,-0.0056581,0.030573,0.0016357,0.0096625,0.0002135,0,0,0.054367,-0.02087,0,0.0011102,0,0,0,0.030574,0.0016341,0.0096625,0.4227,0.013957,0.025878,6.0973e-07,0.95,0.72,0
0.047813,-0.0056875,0.030642,0.0016285,0.0096813,0.00017934,0,0,0.054499,-0.020937,0,0.00093258,0,0,0,0.030643,0.0016274,0.0096813,0.35414,0.013984,0.025944,6.1414e-07,0.96,0.72,0
0.048359,-0.0057101,0.030697,0.0016198,0.0096951,0.0001396,0,0,0.054605,-0.020996,0,0.0007259,0,0,0,0.030698,0.0016192,0.0096951,0.27506,0.014004,0.025999,6.1769e-07,0.97,0.72,0
0.048905,-0.005726,0.030736,0.001612,0.0097045,9.552e-05,0,0,0.054683,-0.02104,0,0.0004967,0,0,0,0.030737,0.0016117,0.0097045,0.18791,0.014018,0.026039,6.2028e-07,0.98,0.72,0
0.049453,-0.0057354,0.03076,0.0016067,0.00971,4.8503e-05,0,0,0.05473,-0.021069,0,0.00025221,0,0,0,0.03076,0.0016066,0.00971,0.095323,0.014026,0.026064,6.2187e-07,0.99,0.72,0
0.05,-0.0057386,0.030768,0.0016048,0.0097118,-6.0488e-05,0,0,0.054746,-0.021078,0,-0.00031454,0,0,0,0.030768,0.0016047,0.0097118,-0.11884,0.014028,0.026073,6.2241e-07,1,0.72,0
0,0,0.028542,0.012232,0.012232,-0.0040464,0,0,0.042405,0,0,-0.021041,0,0,0,0.029491,0.011284,0.012232,-13.195,0.017669,0.017752,2.8455e-07,0,0.73,0
0.00042405,-0.00021041,0.028496,0.011678,0.012052,-0.0040425,0,0,0.042753,-0.00097276,0,-0.021021,0,0,0,0.029417,0.010757,0.012052,-12.838,0.017409,0.018047,2.9666e-07,0.01,0.73,0
0.00085507,-0.00041953,0.028682,0.011219,0.011971,-0.0040237,0,0,0.043451,-0.0019528,0,-0.020923,0,0,0,0.029565,0.010337,0.011971,-12.371,0.017291,0.018465,3.1485e-07,0.02,0.73,0
0.0012931,-0.0006272,0.028868,0.010758,0.011888,-0.0040001,0,0,0.044149,-0.0029371,0,-0.0208,0,0,0,0.029712,0.0099142,0.011888,-11.917,0.017172,0.018889,3.3342e-07,0.03,0.73,0
0.001738,-0.00083319,0.029053,0.010296,0.011805,-0.0039705,0,0,0.044846,-0.0039222,0,-0.020647,0,0,0,0.029859,0.0094905,0.011805,-11.473,0.017052,0.019316,3.5228e-07,0.04,0.73,0
0.00219,-0.0010373,0.029236,0.009835,0.011721,-0.0039343,0,0,0.045538,-0.0049044,0,-0.020458,0,0,0,0.030003,0.0090675,0.011721,-11.038,0.016931,0.019743,3.7129e-07,0.05,0.73,0
0.0026488,-0.0012391,0.029415,0.0093761,0.011638,-0.0038908,0,0,0.046223,-0.0058796,0,-0.020232,0,0,0,0.030144,0.0086471,0.011638,-10.611,0.01681,0.020169,3.9034e-07,0.06,0.73,0
0.0031144,-0.0014385,0.029591,0.0089215,0.011554,-0.0038398,0,0,0.046896,-0.0068436,0,-0.019967,0,0,0,0.030281,0.0082312,0.011554,-10.191,0.016689,0.020591,4.0929e-07,0.07,0.73,0
0.0035867,-0.001635,0.029761,0.0084731,0.01147,-0.0037813,0,0,0.047556,-0.0077923,0,-0.019663,0,0,0,0.030412,0.0078214,0.01147,-9.779,0.016568,0.021006,4.2802e-07,0.08,0.73,0
0.0040655,-0.0018283,0.029925,0.0080327,0.011387,-0.0037154,0,0,0.048197,-0.0087217,0,-0.01932,0,0,0,0.030538,0.0074193,0.011387,-9.3745,0.016448,0.021412,4.4641e-07,0.09,0.73,0
0.0045507,-0.0020181,0.030082,0.007602,0.011305,-0.0036426,0,0,0.048819,-0.009628,0,-0.018941,0,0,0,0.030657,0.0070266,0.011305,-8.9781,0.01633,0.021808,4.6435e-07,0.1,0.73,0
0.0050419,-0.0022042,0.030231,0.0071827,0.011224,-0.0035633,0,0,0.049418,-0.010508,0,-0.018529,0,0,0,0.030769,0.0066444,0.011224,-8.5908,0.016213,0.022192,4.8175e-07,0.11,0.73,0
0.005539,-0.002386,0.030372,0.006776,0.011144,-0.0034783,0,0,0.049992,-0.011358,0,-0.018087,0,0,0,0.030874,0.0062739,0.011144,-8.2132,0.016098,0.022563,4.9851e-07,0.12,0.73,0
0.0060418,-0.0025635,0.030504,0.0063833,0.011066,-0.0033883,0,0,0.050539,-0.012176,0,-0.017619,0,0,0,0.030971,0.0059163,0.011066,-7.8462,0.015985,0.022918,5.1456e-07,0.13,0.73,0
0.0065498,-0.0027363,0.030627,0.0060056,0.01099,-0.0032944,0,0,0.051058,-0.012959,0,-0.017131,0,0,0,0.031061,0.0055724,0.01099,-7.4906,0.015874,0.023258,5.2984e-07,0.14,0.73,0
0.0070629,-0.0029041,0.030741,0.0056437,0.010915,-0.0031974,0,0,0.051547,-0.013707,0,-0.016626,0,0,0,0.031142,0.0052428,0.010915,-7.1472,0.015767,0.023581,5.4429e-07,0.15,0.73,0
0.0075808,-0.0030668,0.030846,0.0052985,0.010843,-0.0030982,0,0,0.052006,-0.014416,0,-0.01611,0,0,0,0.031216,0.0049281,0.010843,-6.8168,0.015662,0.023886,5.5788e-07,0.16,0.73,0
0.008103,-0.0032242,0.03094,0.0049703,0.010773,-0.0029977,0,0,0.052435,-0.015088,0,-0.015588,0,0,0,0.031282,0.0046288,0.010773,-6.4998,0.015561,0.024174,5.7058e-07,0.17,0.73,0
0.0086295,-0.0033761,0.031026,0.0046596,0.010706,-0.002897,0,0,0.052832,-0.01572,0,-0.015064,0,0,0,0.03134,0.004345,0.010706,-6.1968,0.015464,0.024444,5.8237e-07,0.18,0.73,0
0.0091597,-0.0035224,0.031102,0.0043665,0.01064,-0.0027966,0,0,0.053199,-0.016312,0,-0.014543,0,0,0,0.031391,0.0040771,0.01064,-5.9082,0.015369,0.024695,5.9323e-07,0.19,0.73,0
0.0096934,-0.0036629,0.031168,0.0040911,0.010578,-0.0026976,0,0,0.053535,-0.016865,0,-0.014027,0,0,0,0.031434,0.003825,0.010578,-5.6343,0.015279,0.024929,6.0318e-07,0.2,0.73,0
0.01023,-0.0037977,0.031226,0.0038335,0.010518,-0.0026004,0,0,0.053841,-0.017379,0,-0.013522,0,0,0,0.031471,0.0035889,0.010518,-5.3753,0.015192,0.025144,6.1221e-07,0.21,0.73,0
0.01077,-0.0039266,0.031275,0.0035935,0.01046,-0.0025058,0,0,0.054117,-0.017854,0,-0.01303,0,0,0,0.0315,0.0033685,0.01046,-5.1311,0.01511,0.025341,6.2033e-07,0.22,0.73,0
0.011313,-0.0040495,0.031315,0.0033709,0.010406,-0.0024143,0,0,0.054364,-0.018291,0,-0.012554,0,0,0,0.031522,0.0031639,0.010406,-4.9018,0.015031,0.02552,6.2754e-07,0.23,0.73,0
0.011857,-0.0041665,0.031347,0.0031655,0.010354,-0.0023263,0,0,0.054582,-0.018689,0,-0.012097,0,0,0,0.031538,0.0029748,0.010354,-4.6873,0.014955,0.025681,6.3386e-07,0.24,0.73,0
0.012404,-0.0042776,0.031371,0.002977,0.010304,-0.0022421,0,0,0.054772,-0.019051,0,-0.011659,0,0,0,0.031546,0.002801,0.010304,-4.4873,0.014884,0.025825,6.393e-07,0.25,0.73,0
0.012953,-0.0043826,0.031386,0.002805,0.010257,-0.002162,0,0,0.054935,-0.019376,0,-0.011243,0,0,0,0.031549,0.0026424,0.010257,-4.3015,0.014816,0.025951,6.4388e-07,0.26,0.73,0
0.013503,-0.0044817,0.031394,0.0026492,0.010213,-0.0020863,0,0,0.055071,-0.019666,0,-0.010849,0,0,0,0.031545,0.0024985,0.010213,-4.1296,0.014752,0.02606,6.476e-07,0.27,0.73,0
0.014054,-0.0045749,0.031394,0.0025091,0.010171,-0.0020149,0,0,0.05518,-0.019921,0,-0.010478,0,0,0,0.031534,0.0023692,0.010171,-3.9711,0.014691,0.026152,6.5048e-07,0.28,0.73,0
0.014607,-0.004662,0.031386,0.0023843,0.010131,-0.0019479,0,0,0.055264,-0.020142,0,-0.010129,0,0,0,0.031517,0.0022541,0.010131,-3.8254,0.014634,0.026227,6.5252e-07,0.29,0.73,0
0.01516,-0.0047432,0.031371,0.0022743,0.010094,-0.0018853,0,0,0.055321,-0.02033,0,-0.0098035,0,0,0,0.031493,0.0021527,0.010094,-3.6918,0.01458,0.026285,6.5374e-07,0.3,0.73,0
0.015713,-0.0048183,0.031348,0.0021787,0.010058,-0.0018268,0,0,0.055354,-0.020486,0,-0.0094993,0,0,0,0.031462,0.0020647,0.010058,-3.5697,0.014528,0.026327,6.5415e-07,0.31,0.73,0
0.016267,-0.0048875,0.031317,0.0020968,0.010024,-0.0017722,0,0,0.055361,-0.020611,0,-0.0092157,0,0,0,0.031424,0.0019897,0.010024,-3.4582,0.014479,0.026352,6.5374e-07,0.32,0.73,0
0.01682,-0.0049507,0.031278,0.0020279,0.0099918,-0.0017213,0,0,0.055344,-0.020706,0,-0.0089508,0,0,0,0.031379,0.001927,0.0099918,-3.3563,0.014433,0.026362,6.5253e-07,0.33,0.73,0
0.017374,-0.0050078,0.031231,0.0019715,0.0099608,-0.0016736,0,0,0.055303,-0.020772,0,-0.0087025,0,0,0,0.031327,0.0018761,0.0099608,-3.263,0.014388,0.026355,6.5053e-07,0.34,0.73,0
0.017926,-0.0050587,0.031176,0.0019266,0.0099307,-0.0016285,0,0,0.055237,-0.020811,0,-0.0084684,0,0,0,0.031266,0.0018362,0.0099307,-3.177,0.014344,0.026333,6.4774e-07,0.35,0.73,0
0.018478,-0.0051034,0.031112,0.0018923,0.0099013,-0.0015857,0,0,0.055148,-0.020824,0,-0.0082455,0,0,0,0.031198,0.0018065,0.0099013,-3.0971,0.014302,0.026296,6.4418e-07,0.36,0.73,0
0.019029,-0.0051417,0.03104,0.0018674,0.0098721,-0.0015443,0,0,0.055036,-0.020812,0,-0.0080304,0,0,0,0.031121,0.0017859,0.0098721,-3.0218,0.01426,0.026244,6.3986e-07,0.37,0.73,0
0.019579,-0.0051735,0.030958,0.0018507,0.0098427,-0.0015038,0,0,0.054901,-0.020779,0,-0.0078195,0,0,0,0.031036,0.0017732,0.0098427,-2.9495,0.014217,0.026178,6.3481e-07,0.38,0.73,0
0.020127,-0.0051987,0.030868,0.0018405,0.0098126,-0.0014632,0,0,0.054744,-0.020727,0,-0.0076089,0,0,0,0.030942,0.001767,0.0098126,-2.8785,0.014174,0.026099,6.2907e-07,0.39,0.73,0
0.020674,-0.005217,0.030769,0.001835,0.0097811,-0.001422,0,0,0.054567,-0.02066,0,-0.0073944,0,0,0,0.030838,0.0017653,0.0097811,-2.8069,0.014128,0.026009,6.2268e-07,0.4,0.73,0
0.021219,-0.0052282,0.03066,0.0018319,0.0097475,-0.0013793,0,0,0.054372,-0.020581,0,-0.0071721,0,0,0,0.030726,0.001766,0.0097475,-2.733,0.01408,0.025908,6.1569e-07,0.41,0.73,0
0.021761,-0.005232,0.030542,0.0018284,0.009711,-0.0013343,0,0,0.05416,-0.020495,0,-0.0069382,0,0,0,0.030603,0.0017665,0.009711,-2.6549,0.014027,0.025799,6.082e-07,0.42,0.73,0
0.022302,-0.0052282,0.030415,0.0018214,0.0096708,-0.0012865,0,0,0.053934,-0.020408,0,-0.0066898,0,0,0,0.030472,0.0017636,0.0096708,-2.571,0.013969,0.025685,6.0028e-07,0.43,0.73,0
0.02284,-0.0052164,0.030278,0.0018072,0.0096257,-0.0012356,0,0,0.053697,-0.020328,0,-0.0064251,0,0,0,0.030332,0.0017537,0.0096257,-2.4803,0.013904,0.025568,5.9207e-07,0.44,0.73,0
0.023376,-0.0051964,0.030134,0.0017815,0.0095745,-0.0011815,0,0,0.053453,-0.020262,0,-0.006144,0,0,0,0.030183,0.0017324,0.0095745,-2.3822,0.01383,0.025452,5.8369e-07,0.45,0.73,0
0.023909,-0.0051678,0.02998,0.0017395,0.0095159,-0.0011249,0,0,0.053207,-0.020219,0,-0.0058494,0,0,0,0.030025,0.0016948,0.0095159,-2.2774,0.013745,0.025341,5.7527e-07,0.46,0.73,0
0.02444,-0.0051304,0.029819,0.0016759,0.0094483,-0.0010668,0,0,0.052963,-0.020208,0,-0.0055472,0,0,0,0.029859,0.0016355,0.0094483,-2.1677,0.013648,0.025241,5.6698e-07,0.47,0.73,0
0.024968,-0.005084,0.029648,0.001585,0.00937,-0.0010091,0,0,0.052724,-0.020241,0,-0.0052474,0,0,0,0.029685,0.0015488,0.00937,-2.0567,0.013534,0.025154,5.5893e-07,0.48,0.73,0
0.025494,-0.0050284,0.029469,0.001461,0.0092792,-0.00095475,0,0,0.052495,-0.020327,0,-0.0049647,0,0,0,0.029502,0.0014285,0.0092792,-1.9501,0.013403,0.025087,5.5124e-07,0.49,0.73,0
0.026018,-0.0049639,0.029281,0.001298,0.0091737,-0.00090761,0,0,0.052279,-0.020477,0,-0.0047196,0,0,0,0.02931,0.0012686,0.0091737,-1.8558,0.013251,0.025043,5.4399e-07,0.5,0.73,0
0.02654,-0.0048905,0.029081,0.0010901,0.0090513,-0.00087305,0,0,0.052077,-0.020699,0,-0.0045399,0,0,0,0.029108,0.0010629,0.0090513,-1.7848,0.013074,0.025026,5.3718e-07,0.51,0.73,0
0.02706,-0.004809,0.028867,0.00083306,0.00891,-0.00085834,0,0,0.051888,-0.021,0,-0.0044634,0,0,0,0.028893,0.0008068,0.00891,-1.7521,0.01287,0.025038,5.3073e-07,0.52,0.73,0
0.027578,-0.0047202,0.028635,0.00052363,0.0087474,-0.00087196,0,0,0.051706,-0.021382,0,-0.0045342,0,0,0,0.028661,0.0004966,0.0087474,-1.775,0.012635,0.025079,5.244e-07,0.53,0.73,0
0.028094,-0.0046255,0.028383,0.00016704,0.008565,-0.00092607,0,0,0.051526,-0.021835,0,-0.0048156,0,0,0,0.028413,0.00013667,0.008565,-1.8778,0.012372,0.025145,5.1803e-07,0.54,0.73,0
0.028608,-0.004527,0.028093,-0.00024248,0.0083552,-0.0010351,0,0,0.051319,-0.022354,0,-0.0053824,0,0,0,0.028131,-0.00028024,0.0083552,-2.0893,0.012069,0.025227,5.107e-07,0.55,0.73,0
0.02912,-0.0044279,0.027733,-0.00067766,0.0081166,-0.0012232,0,0,0.051003,-0.022865,0,-0.0063608,0,0,0,0.027786,-0.00073023,0.0081166,-2.4608,0.011724,0.025281,5.0033e-07,0.56,0.73,0
0.029628,-0.0043312,0.027276,-0.0010489,0.0078683,-0.0014833,0,0,0.050461,-0.023185,0,-0.0077132,0,0,0,0.027354,-0.0011263,0.0078683,-2.9895,0.011365,0.025216,4.8427e-07,0.57,0.73,0
0.03013,-0.0042397,0.026645,-0.0013293,0.0075949,-0.00174,0,0,0.049532,-0.023203,0,-0.0090479,0,0,0,0.026753,-0.0014372,0.0075949,-3.5455,0.01097,0.024933,4.5832e-07,0.58,0.73,0
0.030619,-0.0041509,0.026105,-0.0013931,0.0074136,-0.0019559,0,0,0.048598,-0.022897,0,-0.010171,0,0,0,0.026243,-0.0015315,0.0074136,-4.0482,0.010708,0.024556,4.344e-07,0.59,0.73,0
0.031102,-0.0040674,0.025385,-0.0019792,0.0070218,-0.0021035,0,0,0.047745,-0.023403,0,-0.010938,0,0,0,0.025546,-0.00214,0.0070218,-4.3701,0.010143,0.024429,4.0938e-07,0.6,0.73,0
0.031574,-0.0040023,0.024512,-0.0023864,0.0066377,-0.0025473,0,0,0.046473,-0.023463,0,-0.013246,0,0,0,0.024751,-0.0026255,0.0066377,-5.3625,0.0095878,0.024118,3.7881e-07,0.61,0.73,0
0.032031,-0.0039628,0.023351,-0.0018445,0.006452,-0.0027253,0,0,0.043938,-0.021571,0,-0.014172,0,0,0,0.023643,-0.0021359,0.006452,-6.1034,0.0093196,0.022735,3.2623e-07,0.62,0.73,0
0.032453,-0.0039181,0.022367,-0.001534,0.00625,-0.0029566,0,0,0.041905,-0.020238,0,-0.015374,0,0,0,0.022728,-0.0018943,0.00625,-6.948,0.0090278,0.021727,2.882e-07,0.63,0.73,0
0.032869,-0.0038809,0.021625,-0.0013716,0.006076,-0.0023009,0,0,0.040427,-0.019364,0,-0.011964,0,0,0,0.021853,-0.0015995,0.006076,-5.6579,0.0087764,0.02071,2.5404e-07,0.64,0.73,0
0.033261,-0.0038746,0.020864,-0.001103,0.0059283,-0.001846,0,0,0.038833,-0.018281,0,-0.0095993,0,0,0,0.021018,-0.001257,0.0059283,-4.7703,0.0085631,0.019692,2.2344e-07,0.65,0.73,0
0.033646,-0.0038757,0.020843,-0.00088943,0.005986,-0.0013607,0,0,0.038628,-0.017876,0,-0.0070757,0,0,0,0.020928,-0.0009743,0.005986,-3.5688,0.0086465,0.019383,2.1795e-07,0.66,0.73,0
0.034034,-0.0038813,0.021256,-0.00056217,0.006208,-0.00083085,0,0,0.039123,-0.017602,0,-0.0043204,0,0,0,0.021287,-0.00059376,0.006208,-2.1777,0.0089671,0.019396,2.2534e-07,0.67,0.73,0
0.034428,-0.003869,0.023198,-0.0019813,0.006365,-0.00042916,0,0,0.030644,-0.014885,0,-0.0021606,0,0,0,0.023214,-0.0019977,0.006365,-1.218,0.0091938,0.022245,3.4149e-07,0.68,0.73,0
0.034691,-0.0038749,0.023162,-0.0019982,0.0063492,-5.1122e-05,0,0,0.030592,-0.014904,0,0.00039093,0,0,0,0.02317,-0.0020065,0.0063492,0.11441,0.009171,0.022213,3.4077e-07,0.69,0.73,0
0.035083,-0.003904,0.02117,-0.00060421,0.0061699,0.00041553,0,0,0.039001,-0.017613,0,0.0021608,0,0,0,0.021178,-0.00061214,0.0061699,1.0929,0.008912,0.019314,2.2212e-07,0.7,0.73,0
0.035471,-0.0039141,0.020773,-0.00094139,0.0059496,0.00094915,0,0,0.038542,-0.017916,0,0.0049356,0,0,0,0.020815,-0.0009828,0.0059496,2.498,0.0085939,0.019289,2.1458e-07,0.71,0.73,0
0.035854,-0.0039284,0.020781,-0.0011718,0.0058828,0.0014317,0,0,0.038736,-0.018342,0,0.0074446,0,0,0,0.020874,-0.0012648,0.0058828,3.7156,0.0084974,0.01957,2.1904e-07,0.72,0.73,0
0.036245,-0.0039498,0.021528,-0.0014616,0.0060199,0.0018858,0,0,0.040321,-0.019452,0,0.0098064,0,0,0,0.021681,-0.0016153,0.0060199,4.6585,0.0086954,0.020571,2.4839e-07,0.73,0.73,0
0.036661,-0.0040024,0.022243,-0.0016912,0.0061654,0.002535,0,0,0.041801,-0.020427,0,0.013182,0,0,0,0.022508,-0.0019568,0.0061654,5.9801,0.0089056,0.021582,2.8073e-07,0.74,0.73,0
0.037081,-0.0040638,0.023227,-0.001978,0.0063747,0.0023041,0,0,0.043816,-0.021717,0,0.011981,0,0,0,0.023436,-0.0021869,0.0063747,5.1804,0.009208,0.022593,3.1849e-07,0.75,0.73,0
0.037537,-0.0041204,0.024374,-0.0025678,0.006542,0.0021249,0,0,0.046364,-0.023685,0,0.011049,0,0,0,0.024541,-0.0027343,0.006542,4.4819,0.0094495,0.02402,3.7068e-07,0.76,0.73,0
0.038009,-0.0042031,0.02525,-0.0022113,0.0069117,0.0016637,0,0,0.04768,-0.02372,0,0.008651,0,0,0,0.025351,-0.0023117,0.0069117,3.4542,0.0099835,0.024395,4.0243e-07,0.77,0.73,0
0.038491,-0.0043055,0.025977,-0.0016397,0.0073012,0.0014867,0,0,0.048557,-0.023246,0,0.0077306,0,0,0,0.026057,-0.0017195,0.0073012,3.0725,0.010546,0.024542,4.2805e-07,0.78,0.73,0
0.03898,-0.0044146,0.026519,-0.0015842,0.0074805,0.0012433,0,0,0.049501,-0.023568,0,0.0064649,0,0,0,0.026574,-0.0016391,0.0074805,2.5281,0.010805,0.024937,4.5235e-07,0.79,0.73,0
0.039481,-0.0045277,0.027149,-0.0013159,0.0077499,0.00095513,0,0,0.050437,-0.023571,0,0.0049667,0,0,0,0.027181,-0.0013479,0.0077499,1.9197,0.011194,0.025241,4.7885e-07,0.8,0.73,0
0.039989,-0.0046472,0.027605,-0.000949,0.0079969,0.00065911,0,0,0.050982,-0.023259,0,0.0034274,0,0,0,0.02762,-0.0009642,0.0079969,1.3216,0.011551,0.025323,4.9561e-07,0.81,0.73,0
0.0405,-0.0047705,0.027962,-0.00051047,0.0082355,0.00043189,0,0,0.051289,-0.022739,0,0.0022458,0,0,0,0.027969,-0.00051702,0.0082355,0.86884,0.011896,0.025273,5.0633e-07,0.82,0.73,0
0.041014,-0.0048943,0.028245,-9.1215e-05,0.0084462,0.00028325,0,0,0.051478,-0.022197,0,0.0014729,0,0,0,0.028248,-9.4046e-05,0.0084462,0.57264,0.0122,0.025183,5.1352e-07,0.83,0.73,0
0.04153,-0.0050154,0.028487,0.00027853,0.0086297,0.00018992,0,0,0.051629,-0.021713,0,0.00098761,0,0,0,0.028488,0.00027725,0.0086297,0.38575,0.012465,0.0251,5.1933e-07,0.84,0.73,0
0.042047,-0.0051317,0.028707,0.00060254,0.0087928,0.00013753,0,0,0.051777,-0.021295,0,0.00071517,0,0,0,0.028708,0.00060187,0.0087928,0.28038,0.012701,0.025036,5.2475e-07,0.85,0.73,0
0.042565,-0.0052415,0.028906,0.00087421,0.0089341,0.00011355,0,0,0.051927,-0.020956,0,0.00059047,0,0,0,0.028907,0.00087375,0.0089341,0.23209,0.012905,0.024997,5.3003e-07,0.86,0.73,0
0.043085,-0.0053439,0.02909,0.0010956,0.0090556,0.0001089,0,0,0.052089,-0.020696,0,0.00056628,0,0,0,0.02909,0.0010951,0.0090556,0.22288,0.01308,0.024985,5.3545e-07,0.87,0.73,0
0.043607,-0.0054381,0.02926,0.0012702,0.009159,0.00011562,0,0,0.052262,-0.020511,0,0.00060123,0,0,0,0.02926,0.0012697,0.009159,0.23668,0.01323,0.024998,5.4112e-07,0.88,0.73,0
0.044131,-0.0055239,0.029418,0.0014037,0.0092465,0.00012771,0,0,0.052446,-0.020391,0,0.00066409,0,0,0,0.029419,0.0014031,0.0092465,0.26119,0.013356,0.025033,5.4707e-07,0.89,0.73,0
0.044656,-0.0056012,0.029565,0.0015018,0.00932,0.00014062,0,0,0.052637,-0.020327,0,0.0007312,0,0,0,0.029566,0.0015011,0.00932,0.28708,0.013462,0.025086,5.532e-07,0.9,0.73,0
0.045183,-0.00567,0.029701,0.0015704,0.0093813,0.00015106,0,0,0.05283,-0.020308,0,0.00078549,0,0,0,0.029701,0.0015696,0.0093813,0.30766,0.013551,0.025153,5.5941e-07,0.91,0.73,0
0.045713,-0.0057304,0.029825,0.0016153,0.009432,0.00015678,0,0,0.053021,-0.020323,0,0.00081527,0,0,0,0.029826,0.0016144,0.009432,0.31843,0.013624,0.025228,5.6555e-07,0.92,0.73,0
0.046244,-0.0057829,0.029937,0.001642,0.0094736,0.00015647,0,0,0.053204,-0.020362,0,0.00081363,0,0,0,0.029937,0.0016411,0.0094736,0.31683,0.013684,0.025306,5.7143e-07,0.93,0.73,0
0.046777,-0.0058275,0.030035,0.0016553,0.0095072,0.00014955,0,0,0.053373,-0.020415,0,0.00077768,0,0,0,0.030036,0.0016545,0.0095072,0.30192,0.013733,0.025383,5.7691e-07,0.94,0.73,0
0.047311,-0.0058647,0.03012,0.0016595,0.0095339,0.00013612,0,0,0.053524,-0.020473,0,0.00070783,0,0,0,0.030121,0.0016589,0.0095339,0.27402,0.013771,0.025455,5.8181e-07,0.95,0.73,0
0.047847,-0.0058947,0.030191,0.0016583,0.0095547,0.00011671,0,0,0.053653,-0.020531,0,0.00060691,0,0,0,0.030191,0.0016578,0.0095547,0.23437,0.013801,0.025518,5.8601e-07,0.96,0.73,0
0.048384,-0.0059178,0.030246,0.0016544,0.0095701,9.2221e-05,0,0,0.053757,-0.020581,0,0.00047955,0,0,0,0.030246,0.0016541,0.0095701,0.1848,0.013824,0.02557,5.8939e-07,0.97,0.73,0
0.048922,-0.0059341,0.030286,0.0016501,0.0095808,6.3752e-05,0,0,0.053833,-0.02062,0,0.00033151,0,0,0,0.030286,0.00165,0.0095808,0.12756,0.013839,0.025609,5.9187e-07,0.98,0.73,0
0.049461,-0.0059439,0.03031,0.001647,0.009587,3.2565e-05,0,0,0.053879,-0.020644,0,0.00016934,0,0,0,0.03031,0.0016469,0.009587,0.065096,0.013848,0.025632,5.9338e-07,0.99,0.73,0
0.05,-0.0059471,0.030318,0.0016458,0.0095891,-6.2218e-05,0,0,0.053894,-0.020653,0,-0.00032353,0,0,0,0.030318,0.0016457,0.0095891,-0.12433,0.013851,0.025641,5.939e-07,1,0.73,0
0,0,0.028513,0.01222,0.01222,-0.0042341,0,0,0.042363,-1.6263e-19,0,-0.022017,0,0,0,0.029548,0.011185,0.01222,-13.731,0.017651,0.017868,2.8967e-07,0,0.74,0
0.00042363,-0.00022017,0.028467,0.011662,0.012039,-0.0042301,0,0,0.042714,-0.00097979,0,-0.021996,0,0,0,0.029472,0.010657,0.012039,-13.361,0.017389,0.018163,3.0176e-07,0.01,0.74,0
0.00085427,-0.00043914,0.028655,0.011199,0.011956,-0.0042114,0,0,0.043417,-0.0019696,0,-0.021899,0,0,0,0.029618,0.010236,0.011956,-12.879,0.01727,0.018582,3.2002e-07,0.02,0.74,0
0.001292,-0.0006567,0.028843,0.010731,0.011872,-0.004187,0,0,0.044123,-0.002966,0,-0.021772,0,0,0,0.029764,0.0098103,0.011872,-12.407,0.017149,0.019006,3.3869e-07,0.03,0.74,0
0.0017367,-0.00087261,0.029029,0.010263,0.011787,-0.0041557,0,0,0.044828,-0.0039649,0,-0.02161,0,0,0,0.029908,0.0093834,0.011787,-11.944,0.017026,0.019435,3.5763e-07,0.04,0.74,0
0.0021885,-0.0010866,0.029213,0.0097935,0.011702,-0.0041166,0,0,0.045529,-0.0049621,0,-0.021406,0,0,0,0.03005,0.0089569,0.011702,-11.488,0.016903,0.019863,3.7671e-07,0.05,0.74,0
0.0026473,-0.0012983,0.029394,0.0093265,0.011616,-0.0040692,0,0,0.046222,-0.0059527,0,-0.02116,0,0,0,0.030187,0.0085328,0.011616,-11.038,0.016779,0.020289,3.9578e-07,0.06,0.74,0
0.003113,-0.0015073,0.029569,0.0088638,0.01153,-0.0040133,0,0,0.046903,-0.0069321,0,-0.020869,0,0,0,0.03032,0.0081131,0.01153,-10.594,0.016654,0.020711,4.1472e-07,0.07,0.74,0
0.0035854,-0.0017134,0.029739,0.0084073,0.011444,-0.0039487,0,0,0.047568,-0.0078955,0,-0.020533,0,0,0,0.030447,0.0076998,0.011444,-10.158,0.01653,0.021125,4.3339e-07,0.08,0.74,0
0.0040643,-0.0019161,0.029903,0.0079592,0.011359,-0.0038759,0,0,0.048215,-0.0088384,0,-0.020154,0,0,0,0.030567,0.0072947,0.011359,-9.7281,0.016407,0.02153,4.5164e-07,0.09,0.74,0
0.0045497,-0.002115,0.030058,0.0075214,0.011274,-0.0037952,0,0,0.04884,-0.0097567,0,-0.019735,0,0,0,0.03068,0.0068994,0.011274,-9.3067,0.016285,0.021923,4.6938e-07,0.1,0.74,0
0.0050411,-0.0023099,0.030205,0.0070955,0.01119,-0.0037074,0,0,0.049439,-0.010646,0,-0.019279,0,0,0,0.030786,0.0065153,0.01119,-8.8945,0.016164,0.022303,4.865e-07,0.11,0.74,0
0.0055385,-0.0025003,0.030343,0.0066833,0.011108,-0.0036134,0,0,0.050012,-0.011504,0,-0.01879,0,0,0,0.030883,0.0061437,0.011108,-8.4924,0.016045,0.022669,5.029e-07,0.12,0.74,0
0.0060414,-0.002686,0.030472,0.0062859,0.011027,-0.003514,0,0,0.050556,-0.012328,0,-0.018273,0,0,0,0.030972,0.0057857,0.011027,-8.1015,0.015928,0.023018,5.1851e-07,0.13,0.74,0
0.0065496,-0.0028666,0.03059,0.0059045,0.010948,-0.0034104,0,0,0.051069,-0.013114,0,-0.017734,0,0,0,0.031053,0.0054421,0.010948,-7.7228,0.015814,0.02335,5.3327e-07,0.14,0.74,0
0.0070627,-0.0030419,0.030699,0.0055401,0.010872,-0.0033034,0,0,0.05155,-0.013862,0,-0.017178,0,0,0,0.031125,0.0051135,0.010872,-7.3571,0.015703,0.023664,5.4713e-07,0.15,0.74,0
0.0075806,-0.0032117,0.030797,0.0051931,0.010797,-0.0031943,0,0,0.051999,-0.01457,0,-0.01661,0,0,0,0.031189,0.0048006,0.010797,-7.0052,0.015595,0.02396,5.6007e-07,0.16,0.74,0
0.0081027,-0.0033758,0.030884,0.0048642,0.010725,-0.003084,0,0,0.052415,-0.015237,0,-0.016037,0,0,0,0.031245,0.0045037,0.010725,-6.6678,0.015491,0.024237,5.7205e-07,0.17,0.74,0
0.0086289,-0.003534,0.030962,0.0045537,0.010655,-0.0029734,0,0,0.052799,-0.015863,0,-0.015462,0,0,0,0.031293,0.004223,0.010655,-6.3454,0.01539,0.024495,5.8307e-07,0.18,0.74,0
0.0091587,-0.0036861,0.03103,0.0042616,0.010587,-0.0028635,0,0,0.05315,-0.016447,0,-0.01489,0,0,0,0.031332,0.0039587,0.010587,-6.0382,0.015293,0.024735,5.9313e-07,0.19,0.74,0
0.0096919,-0.0038322,0.031088,0.003988,0.010523,-0.0027551,0,0,0.053469,-0.01699,0,-0.014327,0,0,0,0.031365,0.0037108,0.010523,-5.7467,0.015199,0.024955,6.0223e-07,0.2,0.74,0
0.010228,-0.003972,0.031136,0.0037328,0.010461,-0.0026488,0,0,0.053756,-0.017492,0,-0.013774,0,0,0,0.03139,0.0034792,0.010461,-5.4708,0.01511,0.025157,6.1038e-07,0.21,0.74,0
0.010767,-0.0041056,0.031176,0.0034958,0.010401,-0.0025454,0,0,0.054013,-0.017955,0,-0.013236,0,0,0,0.031408,0.0032637,0.010401,-5.2106,0.015024,0.025341,6.1759e-07,0.22,0.74,0
0.011308,-0.0042328,0.031206,0.0032767,0.010345,-0.0024453,0,0,0.054239,-0.018377,0,-0.012715,0,0,0,0.031419,0.0030642,0.010345,-4.966,0.014942,0.025506,6.2389e-07,0.23,0.74,0
0.011852,-0.0043537,0.031228,0.0030751,0.010291,-0.0023489,0,0,0.054436,-0.018761,0,-0.012214,0,0,0,0.031423,0.0028805,0.010291,-4.7367,0.014865,0.025653,6.2928e-07,0.24,0.74,0
0.012397,-0.0044683,0.031241,0.0028907,0.01024,-0.0022566,0,0,0.054605,-0.019107,0,-0.011734,0,0,0,0.03142,0.0027122,0.01024,-4.5225,0.014791,0.025782,6.3379e-07,0.25,0.74,0
0.012944,-0.0045766,0.031247,0.0027231,0.010191,-0.0021685,0,0,0.054745,-0.019417,0,-0.011276,0,0,0,0.031411,0.0025592,0.010191,-4.3228,0.01472,0.025893,6.3744e-07,0.26,0.74,0
0.013492,-0.0046785,0.031244,0.0025717,0.010145,-0.0020849,0,0,0.054859,-0.01969,0,-0.010842,0,0,0,0.031395,0.0024209,0.010145,-4.1373,0.014654,0.025988,6.4023e-07,0.27,0.74,0
0.014041,-0.0047741,0.031234,0.0024361,0.010101,-0.0020058,0,0,0.054945,-0.019929,0,-0.01043,0,0,0,0.031373,0.002297,0.010101,-3.9653,0.01459,0.026065,6.4219e-07,0.28,0.74,0
0.014591,-0.0048633,0.031216,0.0023157,0.010059,-0.0019312,0,0,0.055006,-0.020134,0,-0.010042,0,0,0,0.031344,0.0021872,0.010059,-3.8061,0.01453,0.026126,6.4334e-07,0.29,0.74,0
0.015141,-0.0049463,0.03119,0.00221,0.01002,-0.0018609,0,0,0.055042,-0.020306,0,-0.0096764,0,0,0,0.031309,0.002091,0.01002,-3.6591,0.014473,0.02617,6.4367e-07,0.3,0.74,0
0.015692,-0.005023,0.031156,0.0021184,0.0099823,-0.0017947,0,0,0.055052,-0.020446,0,-0.0093322,0,0,0,0.031267,0.0020079,0.0099823,-3.5232,0.014419,0.026198,6.4322e-07,0.31,0.74,0
0.016242,-0.0050933,0.031115,0.0020402,0.0099465,-0.0017323,0,0,0.055037,-0.020556,0,-0.0090079,0,0,0,0.031217,0.0019374,0.0099465,-3.3977,0.014367,0.02621,6.4198e-07,0.32,0.74,0
0.016792,-0.0051573,0.031065,0.0019748,0.0099121,-0.0016734,0,0,0.054999,-0.020637,0,-0.0087017,0,0,0,0.031161,0.0018788,0.0099121,-3.2814,0.014317,0.026206,6.3997e-07,0.33,0.74,0
0.017342,-0.005215,0.031008,0.0019212,0.0098788,-0.0016176,0,0,0.054936,-0.02069,0,-0.0084114,0,0,0,0.031098,0.0018315,0.0098788,-3.1733,0.014269,0.026187,6.3719e-07,0.34,0.74,0
0.017891,-0.0052663,0.030943,0.0018787,0.0098464,-0.0015643,0,0,0.054851,-0.020716,0,-0.0081343,0,0,0,0.031027,0.0017948,0.0098464,-3.0719,0.014223,0.026153,6.3368e-07,0.35,0.74,0
0.018439,-0.005311,0.030869,0.0018462,0.0098146,-0.001513,0,0,0.054742,-0.020718,0,-0.0078673,0,0,0,0.030948,0.0017675,0.0098146,-2.976,0.014177,0.026104,6.2944e-07,0.36,0.74,0
0.018986,-0.0053492,0.030787,0.0018224,0.0097828,-0.0014629,0,0,0.054611,-0.020697,0,-0.0076072,0,0,0,0.030861,0.0017487,0.0097828,-2.8841,0.014131,0.026042,6.2449e-07,0.37,0.74,0
0.019531,-0.0053806,0.030696,0.0018061,0.0097507,-0.0014135,0,0,0.054458,-0.020656,0,-0.0073504,0,0,0,0.030765,0.0017371,0.0097507,-2.7945,0.014084,0.025966,6.1887e-07,0.38,0.74,0
0.020075,-0.0054052,0.030597,0.0017955,0.0097176,-0.001364,0,0,0.054285,-0.020598,0,-0.0070931,0,0,0,0.030661,0.0017311,0.0097176,-2.7055,0.014037,0.025878,6.1261e-07,0.39,0.74,0
0.020617,-0.0054228,0.030488,0.0017889,0.0096831,-0.0013137,0,0,0.054093,-0.020525,0,-0.0068314,0,0,0,0.030548,0.0017288,0.0096831,-2.6155,0.013987,0.02578,6.0577e-07,0.4,0.74,0
0.021157,-0.0054332,0.030371,0.0017838,0.0096464,-0.0012619,0,0,0.053884,-0.020443,0,-0.0065619,0,0,0,0.030426,0.0017282,0.0096464,-2.5226,0.013934,0.025672,5.984e-07,0.41,0.74,0
0.021695,-0.0054362,0.030245,0.0017778,0.0096068,-0.0012079,0,0,0.053659,-0.020355,0,-0.0062811,0,0,0,0.030296,0.0017267,0.0096068,-2.4253,0.013876,0.025557,5.9059e-07,0.42,0.74,0
0.02223,-0.0054315,0.03011,0.0017679,0.0095633,-0.0011513,0,0,0.053421,-0.020268,0,-0.0059866,0,0,0,0.030157,0.0017212,0.0095633,-2.3223,0.013814,0.025438,5.8241e-07,0.43,0.74,0
0.022763,-0.0054189,0.029966,0.0017506,0.0095151,-0.0010917,0,0,0.053173,-0.020188,0,-0.0056769,0,0,0,0.030009,0.0017084,0.0095151,-2.2125,0.013744,0.025316,5.7399e-07,0.44,0.74,0
0.023294,-0.0053982,0.029815,0.0017219,0.009461,-0.0010293,0,0,0.05292,-0.020122,0,-0.0053525,0,0,0,0.029852,0.0016843,0.009461,-2.0956,0.013666,0.025197,5.6543e-07,0.45,0.74,0
0.023822,-0.0053692,0.029655,0.0016777,0.0093998,-0.00096459,0,0,0.052663,-0.020077,0,-0.0050159,0,0,0,0.029688,0.0016445,0.0093998,-1.9723,0.013577,0.025082,5.5687e-07,0.46,0.74,0
0.024347,-0.0053316,0.029487,0.0016134,0.0093301,-0.00089852,0,0,0.052408,-0.020064,0,-0.0046723,0,0,0,0.029516,0.0015844,0.0093301,-1.8444,0.013477,0.024976,5.4842e-07,0.47,0.74,0
0.02487,-0.0052855,0.029311,0.001524,0.0092505,-0.0008328,0,0,0.052158,-0.020089,0,-0.0043305,0,0,0,0.029336,0.001499,0.0092505,-1.7151,0.013362,0.024884,5.402e-07,0.48,0.74,0
0.02539,-0.0052307,0.029127,0.0014046,0.0091596,-0.00076991,0,0,0.051916,-0.020163,0,-0.0040035,0,0,0,0.029149,0.0013832,0.0091596,-1.5896,0.01323,0.024809,5.323e-07,0.49,0.74,0
0.025908,-0.0051675,0.028934,0.0012505,0.0090555,-0.0007133,0,0,0.051685,-0.020293,0,-0.0037092,0,0,0,0.028953,0.0012321,0.0090555,-1.475,0.01308,0.024754,5.2479e-07,0.5,0.74,0
0.026424,-0.0050963,0.028732,0.0010573,0.0089367,-0.00066761,0,0,0.051467,-0.020486,0,-0.0034716,0,0,0,0.028748,0.0010413,0.0089367,-1.3811,0.012909,0.024723,5.1766e-07,0.51,0.74,0
0.026937,-0.0050175,0.028517,0.00082211,0.0088017,-0.00063876,0,0,0.051259,-0.020747,0,-0.0033215,0,0,0,0.028532,0.00080738,0.0088017,-1.3205,0.012714,0.024716,5.1082e-07,0.52,0.74,0
0.027449,-0.0049322,0.028287,0.00054446,0.0086493,-0.00063434,0,0,0.051057,-0.021073,0,-0.0032986,0,0,0,0.028301,0.00052996,0.0086493,-1.3092,0.012493,0.024732,5.0407e-07,0.53,0.74,0
0.027959,-0.0048417,0.028034,0.00022568,0.0084779,-0.00066333,0,0,0.050846,-0.021456,0,-0.0034493,0,0,0,0.02805,0.00020986,0.0084779,-1.3657,0.012246,0.024764,4.9695e-07,0.54,0.74,0
0.028466,-0.0047478,0.027745,-0.00012381,0.0082865,-0.00073619,0,0,0.050593,-0.021867,0,-0.0038282,0,0,0,0.027765,-0.00014324,0.0082865,-1.5121,0.011969,0.024792,4.8856e-07,0.55,0.74,0
0.02897,-0.0046527,0.027404,-0.00047754,0.0080779,-0.00085624,0,0,0.050247,-0.022244,0,-0.0044525,0,0,0,0.02743,-0.00050381,0.0080779,-1.7574,0.011668,0.024784,4.7758e-07,0.56,0.74,0
0.029471,-0.0045588,0.026989,-0.00080203,0.007856,-0.0010075,0,0,0.049745,-0.022511,0,-0.0052389,0,0,0,0.027025,-0.00083851,0.007856,-2.0735,0.011347,0.024692,4.6251e-07,0.57,0.74,0
0.029965,-0.0044674,0.02654,-0.0010536,0.0076458,-0.0011605,0,0,0.049124,-0.022619,0,-0.0060348,0,0,0,0.026589,-0.0011024,0.0076458,-2.4041,0.011044,0.024517,4.4486e-07,0.58,0.74,0
0.030453,-0.0043799,0.026032,-0.0013622,0.0074009,-0.0012947,0,0,0.048441,-0.022784,0,-0.0067322,0,0,0,0.026093,-0.0014232,0.0074009,-2.6998,0.01069,0.024335,4.2553e-07,0.59,0.74,0
0.030934,-0.0042996,0.025426,-0.0017476,0.0071036,-0.0015024,0,0,0.047639,-0.023013,0,-0.0078123,0,0,0,0.025509,-0.0018304,0.0071036,-3.1549,0.010261,0.024146,4.0359e-07,0.6,0.74,0
0.031406,-0.0042321,0.024685,-0.001926,0.0068278,-0.0017281,0,0,0.046429,-0.02276,0,-0.008986,0,0,0,0.024797,-0.0020377,0.0068278,-3.6999,0.0098624,0.023681,3.7394e-07,0.61,0.74,0
0.031863,-0.004176,0.02406,-0.0016079,0.0067358,-0.0018367,0,0,0.045044,-0.021694,0,-0.0095508,0,0,0,0.024191,-0.0017387,0.0067358,-4.0721,0.0097294,0.022901,3.4425e-07,0.62,0.74,0
0.032307,-0.0041271,0.023324,-0.0017377,0.0064757,-0.001694,0,0,0.043804,-0.021355,0,-0.0088088,0,0,0,0.023438,-0.0018517,0.0064757,-3.8496,0.0093538,0.022322,3.1493e-07,0.63,0.74,0
0.032739,-0.0040897,0.022631,-0.0019618,0.0062009,-0.0016734,0,0,0.04272,-0.021223,0,-0.0087017,0,0,0,0.022745,-0.0020752,0.0062009,-3.8748,0.0089569,0.021889,2.9066e-07,0.64,0.74,0
0.033161,-0.0040697,0.0222,-0.0015917,0.0061826,-0.0015285,0,0,0.041646,-0.020213,0,-0.0079481,0,0,0,0.022298,-0.0016895,0.0061826,-3.6608,0.0089304,0.021179,2.7047e-07,0.65,0.74,0
0.033572,-0.0040635,0.021627,-0.001386,0.0060723,-0.001276,0,0,0.040442,-0.019392,0,-0.006635,0,0,0,0.021698,-0.0014565,0.0060723,-3.1639,0.0087711,0.020456,2.4739e-07,0.66,0.74,0
0.03397,-0.0040615,0.020973,-0.0012046,0.0059306,-0.00085253,0,0,0.039111,-0.018551,0,-0.0044332,0,0,0,0.021006,-0.0012373,0.0059306,-2.1982,0.0085664,0.019665,2.2288e-07,0.67,0.74,0
0.034354,-0.004043,0.021067,-0.0013286,0.0059214,-0.00069528,0,0,0.039377,-0.01885,0,-0.0036155,0,0,0,0.021088,-0.0013501,0.0059214,-1.7765,0.0085531,0.019829,2.2652e-07,0.68,0.74,0
0.034758,-0.00405,0.021044,-0.0013858,0.0058974,0.00029602,0,0,0.03938,-0.018936,0,0.0015393,0,0,0,0.021048,-0.0013897,0.0058974,0.75601,0.0085184,0.019825,2.256e-07,0.69,0.74,0
0.035141,-0.0040841,0.020944,-0.0012277,0.0059148,0.00044979,0,0,0.039075,-0.018571,0,0.0023389,0,0,0,0.020953,-0.0012369,0.0059148,1.1617,0.0085436,0.019617,2.2122e-07,0.7,0.74,0
0.035539,-0.0041021,0.021562,-0.0014315,0.0060391,0.0008762,0,0,0.040359,-0.019424,0,0.0045562,0,0,0,0.021595,-0.0014649,0.0060391,2.1791,0.0087231,0.020372,2.4405e-07,0.71,0.74,0
0.035949,-0.004124,0.022123,-0.0016568,0.0061398,0.0011332,0,0,0.041556,-0.020271,0,0.0058926,0,0,0,0.022177,-0.0017107,0.0061398,2.7222,0.0088685,0.021088,2.6638e-07,0.72,0.74,0
0.03637,-0.0041597,0.022542,-0.002058,0.0061452,0.0012783,0,0,0.042632,-0.021328,0,0.0066473,0,0,0,0.022608,-0.0021243,0.0061452,2.9667,0.0088764,0.021807,2.8606e-07,0.73,0.74,0
0.036801,-0.0042132,0.023218,-0.0018736,0.0064034,0.0012906,0,0,0.043718,-0.02152,0,0.0067113,0,0,0,0.023284,-0.0019398,0.0064034,2.9368,0.0092493,0.022258,3.0988e-07,0.74,0.74,0
0.037245,-0.0042788,0.023949,-0.0017564,0.0066577,0.0014218,0,0,0.044957,-0.021877,0,0.0073935,0,0,0,0.024027,-0.0018348,0.0066577,3.1564,0.0096166,0.022832,3.3856e-07,0.75,0.74,0
0.0377,-0.0043524,0.024566,-0.002096,0.0067408,0.001304,0,0,0.046344,-0.022976,0,0.0067811,0,0,0,0.024629,-0.0021596,0.0067408,2.7935,0.0097368,0.023631,3.6802e-07,0.76,0.74,0
0.038172,-0.0044382,0.025299,-0.0019487,0.0070052,0.001061,0,0,0.047565,-0.02328,0,0.0055171,0,0,0,0.025341,-0.0019899,0.0070052,2.2265,0.010119,0.024125,3.9789e-07,0.77,0.74,0
0.038652,-0.0045378,0.025903,-0.0015817,0.0072964,0.00082817,0,0,0.048377,-0.023083,0,0.0043065,0,0,0,0.025928,-0.0016066,0.0072964,1.7244,0.010539,0.024337,4.2025e-07,0.78,0.74,0
0.039139,-0.0046458,0.026407,-0.0012821,0.0075374,0.00066524,0,0,0.04906,-0.02293,0,0.0034592,0,0,0,0.026423,-0.001298,0.0075374,1.3755,0.010887,0.024527,4.397e-07,0.79,0.74,0
0.039633,-0.0047588,0.026849,-0.0010354,0.0077441,0.00048149,0,0,0.049673,-0.022827,0,0.0025038,0,0,0,0.026857,-0.0010437,0.0077441,0.98895,0.011186,0.024709,4.5738e-07,0.8,0.74,0
0.040133,-0.0048756,0.027256,-0.00071181,0.0079632,0.00029688,0,0,0.050161,-0.022555,0,0.0015438,0,0,0,0.027259,-0.00071497,0.0079632,0.60811,0.011503,0.024801,4.724e-07,0.81,0.74,0
0.040636,-0.0049946,0.027587,-0.00035337,0.0081702,0.00014145,0,0,0.050485,-0.022161,0,0.00073552,0,0,0,0.027588,-0.00035408,0.0081702,0.29004,0.011801,0.024804,4.8314e-07,0.82,0.74,0
0.041142,-0.0051136,0.027863,5.5393e-06,0.0083605,3.2231e-05,0,0,0.050706,-0.021723,0,0.0001676,0,0,0,0.027863,5.502e-06,0.0083605,0.066292,0.012076,0.024761,4.9095e-07,0.83,0.74,0
0.04165,-0.0052302,0.0281,0.000337,0.008531,-3.3288e-05,0,0,0.050879,-0.021304,0,-0.0001731,0,0,0,0.0281,0.00033696,0.008531,-0.068699,0.012323,0.024707,4.9713e-07,0.84,0.74,0
0.04216,-0.0053426,0.028311,0.00062902,0.0086821,-6.5363e-05,0,0,0.051036,-0.020938,0,-0.00033989,0,0,0,0.028311,0.00062886,0.0086821,-0.13528,0.012541,0.024663,5.0261e-07,0.85,0.74,0
0.042671,-0.0054493,0.028505,0.00087905,0.0088154,-7.3158e-05,0,0,0.051194,-0.020634,0,-0.00038042,0,0,0,0.028506,0.00087885,0.0088154,-0.15172,0.012733,0.024637,5.0792e-07,0.86,0.74,0
0.043184,-0.0055492,0.028685,0.0010865,0.0089315,-6.4694e-05,0,0,0.05136,-0.020397,0,-0.00033641,0,0,0,0.028685,0.0010863,0.0089315,-0.13431,0.012901,0.024632,5.1328e-07,0.87,0.74,0
0.043698,-0.0056416,0.028853,0.0012537,0.0090319,-4.6395e-05,0,0,0.051534,-0.020223,0,-0.00024126,0,0,0,0.028853,0.0012536,0.0090319,-0.096317,0.013046,0.024648,5.188e-07,0.88,0.74,0
0.044214,-0.0057263,0.029009,0.0013846,0.009118,-2.3428e-05,0,0,0.051716,-0.020107,0,-0.00012183,0,0,0,0.029009,0.0013846,0.009118,-0.048592,0.01317,0.024684,5.2451e-07,0.89,0.74,0
0.044733,-0.0058029,0.029154,0.0014837,0.0091914,2.896e-07,0,0,0.051903,-0.02004,0,1.5059e-06,0,0,0,0.029154,0.0014837,0.0091914,0.00059965,0.013276,0.024734,5.3034e-07,0.9,0.74,0
0.045253,-0.0058714,0.029288,0.001556,0.0092533,2.1888e-05,0,0,0.052091,-0.020013,0,0.00011382,0,0,0,0.029288,0.001556,0.0092533,0.045221,0.013366,0.024796,5.362e-07,0.91,0.74,0
0.045774,-0.005932,0.029411,0.0016063,0.0093051,3.9405e-05,0,0,0.052275,-0.020017,0,0.0002049,0,0,0,0.029411,0.0016062,0.0093051,0.0812,0.013441,0.024866,5.4195e-07,0.92,0.74,0
0.046298,-0.0059847,0.029521,0.0016391,0.0093481,5.1655e-05,0,0,0.05245,-0.020043,0,0.0002686,0,0,0,0.029521,0.001639,0.0093481,0.10615,0.013503,0.024938,5.4745e-07,0.93,0.74,0
0.046823,-0.0060299,0.029619,0.0016588,0.0093832,5.811e-05,0,0,0.052612,-0.020084,0,0.00030217,0,0,0,0.029619,0.0016586,0.0093832,0.11908,0.013554,0.025009,5.5256e-07,0.94,0.74,0
0.04735,-0.0060676,0.029702,0.0016691,0.0094115,5.8784e-05,0,0,0.052757,-0.02013,0,0.00030568,0,0,0,0.029703,0.0016689,0.0094115,0.12015,0.013594,0.025076,5.5713e-07,0.95,0.74,0
0.047878,-0.0060981,0.029772,0.0016731,0.0094335,5.4113e-05,0,0,0.05288,-0.020177,0,0.00028139,0,0,0,0.029772,0.001673,0.0094335,0.11034,0.013626,0.025134,5.6104e-07,0.96,0.74,0
0.048408,-0.0061217,0.029826,0.0016737,0.00945,4.4852e-05,0,0,0.052979,-0.020219,0,0.00023323,0,0,0,0.029827,0.0016736,0.00945,0.09128,0.01365,0.025182,5.6419e-07,0.97,0.74,0
0.048938,-0.0061384,0.029866,0.0016726,0.0094615,3.1978e-05,0,0,0.053051,-0.020251,0,0.00016628,0,0,0,0.029866,0.0016726,0.0094615,0.064986,0.013667,0.025218,5.665e-07,0.98,0.74,0
0.049469,-0.0061483,0.029889,0.0016714,0.0094683,1.662e-05,0,0,0.053095,-0.020272,0,8.6425e-05,0,0,0,0.029889,0.0016714,0.0094683,0.033747,0.013676,0.02524,5.6791e-07,0.99,0.74,0
0.05,-0.0061516,0.029897,0.0016709,0.0094705,-6.3704e-05,0,0,0.05311,-0.020279,0,-0.00033126,0,0,0,0.029898,0.0016708,0.0094705,-0.12931,0.01368,0.025247,5.6839e-07,1,0.74,0
0,0,0.028489,0.012209,0.012209,-0.0044232,0,0,0.042326,-1.6263e-19,0,-0.023001,0,0,0,0.029613,0.011085,0.012209,-14.26,0.017636,0.017992,2.9519e-07,0,0.75,0
0.00042326,-0.00023001,0.028442,0.011646,0.012027,-0.0044191,0,0,0.04268,-0.00098842,0,-0.022979,0,0,0,0.029534,0.010555,0.012027,-13.877,0.017372,0.018288,3.0727e-07,0.01,0.75,0
0.00085361,-0.00045893,0.028632,0.011177,0.011943,-0.0044008,0,0,0.043391,-0.0019899,0,-0.022884,0,0,0,0.029679,0.010131,0.011943,-13.38,0.017251,0.018708,3.2566e-07,0.02,0.75,0
0.0012911,-0.00068652,0.028821,0.010703,0.011857,-0.0043757,0,0,0.044106,-0.0030006,0,-0.022754,0,0,0,0.029823,0.0097019,0.011857,-12.891,0.017127,0.019134,3.4445e-07,0.03,0.75,0
0.0017357,-0.00091249,0.02901,0.010226,0.011771,-0.0043425,0,0,0.044821,-0.0040156,0,-0.022581,0,0,0,0.029965,0.0092709,0.011771,-12.408,0.017002,0.019564,3.6352e-07,0.04,0.75,0
0.0021875,-0.0011365,0.029195,0.0097484,0.011683,-0.0043004,0,0,0.045531,-0.0050301,0,-0.022362,0,0,0,0.030104,0.0088399,0.011683,-11.929,0.016876,0.019994,3.8269e-07,0.05,0.75,0
0.0026464,-0.0013582,0.029377,0.0092722,0.011595,-0.0042486,0,0,0.046234,-0.0060385,0,-0.022093,0,0,0,0.030238,0.0084113,0.011595,-11.456,0.016748,0.020422,4.0183e-07,0.06,0.75,0
0.0031122,-0.0015771,0.029553,0.0088001,0.011506,-0.0041871,0,0,0.046923,-0.0070354,0,-0.021773,0,0,0,0.030366,0.0079872,0.011506,-10.987,0.01662,0.020844,4.2077e-07,0.07,0.75,0
0.0035848,-0.0017929,0.029724,0.0083346,0.011418,-0.0041159,0,0,0.047596,-0.0080155,0,-0.021403,0,0,0,0.030488,0.0075699,0.011418,-10.525,0.016492,0.021257,4.3936e-07,0.08,0.75,0
0.0040641,-0.0020051,0.029886,0.0078778,0.011329,-0.0040353,0,0,0.048248,-0.0089736,0,-0.020983,0,0,0,0.030603,0.0071613,0.011329,-10.069,0.016364,0.02166,4.5748e-07,0.09,0.75,0
0.0045498,-0.0022133,0.03004,0.007432,0.011242,-0.003946,0,0,0.048876,-0.0099051,0,-0.020519,0,0,0,0.030709,0.0067631,0.011242,-9.6214,0.016238,0.022051,4.7499e-07,0.1,0.75,0
0.0050416,-0.0024171,0.030185,0.0069991,0.011155,-0.0038488,0,0,0.049477,-0.010806,0,-0.020014,0,0,0,0.030807,0.0063769,0.011155,-9.1831,0.016113,0.022426,4.9179e-07,0.11,0.75,0
0.0055393,-0.0026161,0.030319,0.0065808,0.01107,-0.0037448,0,0,0.050048,-0.011672,0,-0.019473,0,0,0,0.030896,0.0060041,0.01107,-8.7554,0.01599,0.022786,5.0779e-07,0.12,0.75,0
0.0060426,-0.0028101,0.030443,0.0061785,0.010987,-0.0036351,0,0,0.050588,-0.012501,0,-0.018903,0,0,0,0.030976,0.0056456,0.010987,-8.3396,0.01587,0.023128,5.2292e-07,0.13,0.75,0
0.0065511,-0.0029986,0.030557,0.0057932,0.010905,-0.0035209,0,0,0.051095,-0.013291,0,-0.018308,0,0,0,0.031048,0.0053024,0.010905,-7.9368,0.015752,0.023451,5.3711e-07,0.14,0.75,0
0.0070645,-0.0031813,0.030659,0.005426,0.010826,-0.0034033,0,0,0.051567,-0.014039,0,-0.017697,0,0,0,0.03111,0.0049751,0.010826,-7.5481,0.015637,0.023756,5.5033e-07,0.15,0.75,0
0.0075824,-0.0033582,0.03075,0.0050775,0.010748,-0.0032834,0,0,0.052005,-0.014744,0,-0.017074,0,0,0,0.031163,0.0046642,0.010748,-7.1742,0.015525,0.024042,5.6256e-07,0.16,0.75,0
0.0081046,-0.0035289,0.03083,0.004748,0.010674,-0.0031626,0,0,0.052408,-0.015406,0,-0.016445,0,0,0,0.031208,0.00437,0.010674,-6.8158,0.015417,0.024307,5.7378e-07,0.17,0.75,0
0.0086306,-0.0036934,0.0309,0.0044379,0.010601,-0.0030417,0,0,0.052776,-0.016025,0,-0.015817,0,0,0,0.031245,0.0040928,0.010601,-6.4734,0.015313,0.024553,5.8398e-07,0.18,0.75,0
0.0091601,-0.0038513,0.030959,0.0041471,0.010532,-0.0029217,0,0,0.05311,-0.0166,0,-0.015193,0,0,0,0.031273,0.0038324,0.010532,-6.1475,0.015213,0.02478,5.9319e-07,0.19,0.75,0
0.0096928,-0.0040027,0.031008,0.0038756,0.010465,-0.0028035,0,0,0.053411,-0.017132,0,-0.014578,0,0,0,0.031294,0.0035889,0.010465,-5.8381,0.015116,0.024987,6.014e-07,0.2,0.75,0
0.010228,-0.0041475,0.031047,0.0036231,0.010401,-0.0026878,0,0,0.053679,-0.017622,0,-0.013976,0,0,0,0.031308,0.0033621,0.010401,-5.5453,0.015024,0.025175,6.0864e-07,0.21,0.75,0
0.010766,-0.0042856,0.031076,0.0033893,0.01034,-0.0025752,0,0,0.053915,-0.018071,0,-0.013391,0,0,0,0.031314,0.0031518,0.01034,-5.269,0.014935,0.025344,6.1493e-07,0.22,0.75,0
0.011307,-0.004417,0.031097,0.003174,0.010281,-0.0024663,0,0,0.054121,-0.018479,0,-0.012825,0,0,0,0.031313,0.0029578,0.010281,-5.0089,0.014851,0.025495,6.2029e-07,0.23,0.75,0
0.011849,-0.0045417,0.031109,0.0029765,0.010226,-0.0023614,0,0,0.054296,-0.018847,0,-0.012279,0,0,0,0.031305,0.0027796,0.010226,-4.7649,0.01477,0.025627,6.2476e-07,0.24,0.75,0
0.012393,-0.0046597,0.031112,0.0027964,0.010172,-0.0022608,0,0,0.054442,-0.019178,0,-0.011756,0,0,0,0.031291,0.0026171,0.010172,-4.5364,0.014694,0.025742,6.2834e-07,0.25,0.75,0
0.012938,-0.004771,0.031107,0.0026333,0.010122,-0.0021647,0,0,0.054561,-0.019471,0,-0.011257,0,0,0,0.031271,0.0024696,0.010122,-4.3228,0.014621,0.025839,6.3107e-07,0.26,0.75,0
0.013484,-0.0048755,0.031094,0.0024865,0.010074,-0.0020733,0,0,0.054652,-0.019728,0,-0.010781,0,0,0,0.031244,0.002337,0.010074,-4.1237,0.014552,0.025919,6.3297e-07,0.27,0.75,0
0.014031,-0.0049734,0.031074,0.0023554,0.010029,-0.0019865,0,0,0.054717,-0.019951,0,-0.01033,0,0,0,0.03121,0.0022186,0.010029,-3.9382,0.014486,0.025983,6.3406e-07,0.28,0.75,0
0.014578,-0.0050647,0.031046,0.0022395,0.0099855,-0.0019042,0,0,0.054756,-0.02014,0,-0.0099018,0,0,0,0.031171,0.0021142,0.0099855,-3.7656,0.014424,0.02603,6.3435e-07,0.29,0.75,0
0.015126,-0.0051493,0.03101,0.0021381,0.0099443,-0.0018262,0,0,0.05477,-0.020296,0,-0.0094965,0,0,0,0.031125,0.002023,0.0099443,-3.605,0.014364,0.02606,6.3387e-07,0.3,0.75,0
0.015673,-0.0052273,0.030966,0.0020505,0.0099051,-0.0017524,0,0,0.054759,-0.020422,0,-0.0091126,0,0,0,0.031072,0.0019447,0.0099051,-3.4555,0.014307,0.026075,6.3263e-07,0.31,0.75,0
0.016221,-0.0052987,0.030915,0.001976,0.0098674,-0.0016824,0,0,0.054725,-0.020518,0,-0.0087484,0,0,0,0.031013,0.0018785,0.0098674,-3.316,0.014253,0.026075,6.3064e-07,0.32,0.75,0
0.016768,-0.0053634,0.030857,0.0019138,0.0098312,-0.0016157,0,0,0.054667,-0.020585,0,-0.0084018,0,0,0,0.030947,0.0018238,0.0098312,-3.1853,0.014201,0.026059,6.2792e-07,0.33,0.75,0
0.017314,-0.0054215,0.03079,0.001863,0.0097961,-0.001552,0,0,0.054586,-0.020626,0,-0.0080705,0,0,0,0.030874,0.0017799,0.0097961,-3.0623,0.01415,0.026028,6.2449e-07,0.34,0.75,0
0.01786,-0.005473,0.030716,0.0018227,0.0097617,-0.0014907,0,0,0.054482,-0.020642,0,-0.0077515,0,0,0,0.030793,0.001746,0.0097617,-2.9456,0.0141,0.025984,6.2037e-07,0.35,0.75,0
0.018404,-0.0055177,0.030634,0.0017917,0.0097278,-0.0014311,0,0,0.054357,-0.020634,0,-0.007442,0,0,0,0.030705,0.0017209,0.0097278,-2.8337,0.014051,0.025925,6.1558e-07,0.36,0.75,0
0.018947,-0.0055556,0.030544,0.0017689,0.0096939,-0.0013728,0,0,0.054211,-0.020605,0,-0.0071385,0,0,0,0.03061,0.0017036,0.0096939,-2.7252,0.014002,0.025854,6.1014e-07,0.37,0.75,0
0.019488,-0.0055866,0.030446,0.0017528,0.0096596,-0.0013149,0,0,0.054044,-0.020558,0,-0.0068377,0,0,0,0.030506,0.0016927,0.0096596,-2.6184,0.013953,0.02577,6.041e-07,0.38,0.75,0
0.020028,-0.0056106,0.030339,0.0017418,0.0096243,-0.0012569,0,0,0.053859,-0.020494,0,-0.0065358,0,0,0,0.030394,0.0016866,0.0096243,-2.5118,0.013902,0.025676,5.9749e-07,0.39,0.75,0
0.020565,-0.0056275,0.030224,0.0017339,0.0095874,-0.001198,0,0,0.053656,-0.020419,0,-0.0062294,0,0,0,0.030274,0.0016836,0.0095874,-2.4035,0.013848,0.025572,5.9036e-07,0.4,0.75,0
0.021101,-0.005637,0.030101,0.001727,0.0095484,-0.0011375,0,0,0.053436,-0.020335,0,-0.0059152,0,0,0,0.030146,0.0016815,0.0095484,-2.2921,0.013792,0.02546,5.8278e-07,0.41,0.75,0
0.021634,-0.0056391,0.029969,0.0017187,0.0095064,-0.0010751,0,0,0.053204,-0.020248,0,-0.0055903,0,0,0,0.03001,0.0016778,0.0095064,-2.1761,0.013732,0.025342,5.7483e-07,0.42,0.75,0
0.022165,-0.0056336,0.02983,0.001706,0.0094608,-0.0010101,0,0,0.05296,-0.020162,0,-0.0052525,0,0,0,0.029866,0.0016698,0.0094608,-2.0543,0.013666,0.02522,5.6658e-07,0.43,0.75,0
0.022693,-0.0056202,0.029683,0.0016858,0.0094105,-0.00094249,0,0,0.052707,-0.020084,0,-0.0049009,0,0,0,0.029714,0.0016541,0.0094105,-1.9259,0.013593,0.025098,5.5815e-07,0.44,0.75,0
0.023219,-0.0055988,0.029528,0.0016546,0.0093547,-0.0008723,0,0,0.05245,-0.02002,0,-0.004536,0,0,0,0.029555,0.0016273,0.0093547,-1.7908,0.013512,0.024977,5.4964e-07,0.45,0.75,0
0.023742,-0.0055693,0.029365,0.0016085,0.0092922,-0.00080003,0,0,0.05219,-0.019978,0,-0.0041601,0,0,0,0.029388,0.0015854,0.0092922,-1.6496,0.013422,0.024862,5.4116e-07,0.46,0.75,0
0.024263,-0.0055316,0.029196,0.0015435,0.0092219,-0.00072661,0,0,0.051933,-0.019964,0,-0.0037784,0,0,0,0.029215,0.0015244,0.0092219,-1.5041,0.013321,0.024756,5.3282e-07,0.47,0.75,0
0.024781,-0.0054857,0.02902,0.0014554,0.0091425,-0.00065357,0,0,0.051681,-0.019987,0,-0.0033986,0,0,0,0.029035,0.0014399,0.0091425,-1.3575,0.013206,0.024663,5.2473e-07,0.48,0.75,0
0.025296,-0.0054317,0.028837,0.0013401,0.009053,-0.00058312,0,0,0.051437,-0.020053,0,-0.0030322,0,0,0,0.028849,0.0013277,0.009053,-1.2144,0.013076,0.024586,5.1696e-07,0.49,0.75,0
0.02581,-0.0053697,0.028646,0.0011938,0.0089519,-0.0005183,0,0,0.051204,-0.020171,0,-0.0026952,0,0,0,0.028656,0.001184,0.0089519,-1.0812,0.01293,0.024528,5.0956e-07,0.5,0.75,0
0.026321,-0.0053003,0.028447,0.0010133,0.0088381,-0.00046307,0,0,0.050983,-0.020344,0,-0.002408,0,0,0,0.028455,0.0010055,0.0088381,-0.96677,0.012766,0.024491,5.0251e-07,0.51,0.75,0
0.026829,-0.0052239,0.028238,0.00079692,0.0087104,-0.0004224,0,0,0.050771,-0.020575,0,-0.0021965,0,0,0,0.028244,0.00079042,0.0087104,-0.88169,0.012582,0.024475,4.9572e-07,0.52,0.75,0
0.027336,-0.0051416,0.028015,0.00054483,0.008568,-0.00040215,0,0,0.050563,-0.02086,0,-0.0020912,0,0,0,0.028021,0.00053894,0.008568,-0.83853,0.012376,0.024476,4.8896e-07,0.53,0.75,0
0.027841,-0.0050546,0.027773,0.00026113,0.0084103,-0.00040858,0,0,0.050343,-0.021188,0,-0.0021246,0,0,0,0.027779,0.00025507,0.0084103,-0.85065,0.012148,0.024487,4.818e-07,0.54,0.75,0
0.028343,-0.0049644,0.027503,-4.4074e-05,0.0082377,-0.00044608,0,0,0.05009,-0.021533,0,-0.0023196,0,0,0,0.02751,-5.1296e-05,0.0082377,-0.92748,0.011899,0.024493,4.7359e-07,0.55,0.75,0
0.028842,-0.0048728,0.027196,-0.00035466,0.0080524,-0.00051326,0,0,0.049773,-0.021858,0,-0.002669,0,0,0,0.027206,-0.00036422,0.0080524,-1.0669,0.011631,0.024472,4.6359e-07,0.56,0.75,0
0.029338,-0.0047814,0.026853,-0.00065075,0.0078606,-0.00060114,0,0,0.04938,-0.022129,0,-0.0031259,0,0,0,0.026866,-0.00066388,0.0078606,-1.2515,0.011354,0.024411,4.5157e-07,0.57,0.75,0
0.02983,-0.0046921,0.026471,-0.00094187,0.0076588,-0.00069787,0,0,0.048912,-0.022362,0,-0.0036289,0,0,0,0.026489,-0.00095963,0.0076588,-1.4574,0.011063,0.024313,4.377e-07,0.58,0.75,0
0.030317,-0.0046066,0.026046,-0.001242,0.0074412,-0.00081271,0,0,0.048372,-0.022576,0,-0.0042261,0,0,0,0.02607,-0.0012662,0.0074412,-1.7044,0.010748,0.024188,4.2212e-07,0.59,0.75,0
0.030797,-0.0045277,0.025557,-0.001523,0.0072102,-0.00094816,0,0,0.047702,-0.022706,0,-0.0049304,0,0,0,0.02559,-0.0015562,0.0072102,-2.0028,0.010415,0.023996,4.0364e-07,0.6,0.75,0
0.031271,-0.0044574,0.025048,-0.0016606,0.0070162,-0.0010776,0,0,0.046882,-0.02256,0,-0.0056036,0,0,0,0.025091,-0.001704,0.0070162,-2.3067,0.010134,0.023672,3.8284e-07,0.61,0.75,0
0.031735,-0.0043967,0.024529,-0.0017179,0.0068433,-0.0011239,0,0,0.045982,-0.022259,0,-0.0058442,0,0,0,0.024577,-0.001766,0.0068433,-2.4474,0.0098847,0.023265,3.6097e-07,0.62,0.75,0
0.03219,-0.0043453,0.024006,-0.0018386,0.0066502,-0.0011302,0,0,0.045125,-0.022071,0,-0.0058772,0,0,0,0.024055,-0.001888,0.0066502,-2.4993,0.0096058,0.022901,3.4035e-07,0.63,0.75,0
0.032637,-0.0043053,0.023508,-0.0019286,0.0064737,-0.001116,0,0,0.044288,-0.021846,0,-0.0058034,0,0,0,0.023556,-0.0019775,0.0064737,-2.5075,0.0093509,0.02253,3.2104e-07,0.64,0.75,0
0.033076,-0.0042789,0.023041,-0.0018396,0.0063604,-0.0010718,0,0,0.043369,-0.02132,0,-0.0055736,0,0,0,0.023087,-0.0018857,0.0063604,-2.4622,0.0091872,0.022039,3.0167e-07,0.65,0.75,0
0.033505,-0.0042636,0.022617,-0.0016208,0.006299,-0.00088358,0,0,0.042428,-0.020591,0,-0.0045946,0,0,0,0.02265,-0.001653,0.006299,-2.085,0.0090985,0.021462,2.8281e-07,0.66,0.75,0
0.033925,-0.0042524,0.022463,-0.0013985,0.0063193,-0.00056441,0,0,0.041973,-0.020066,0,-0.0029349,0,0,0,0.022476,-0.0014118,0.0063193,-1.3543,0.0091278,0.021112,2.7396e-07,0.67,0.75,0
0.034344,-0.004246,0.022202,-0.001918,0.0060852,-0.00021885,0,0,0.041903,-0.020808,0,-0.001138,0,0,0,0.022204,-0.00192,0.0060852,-0.51981,0.0087897,0.021282,2.6939e-07,0.68,0.75,0
0.034763,-0.0042536,0.022188,-0.0019437,0.0060733,-0.00015405,0,0,0.041898,-0.020844,0,-0.00080106,0,0,0,0.022189,-0.0019447,0.0060733,-0.36574,0.0087725,0.021289,2.691e-07,0.69,0.75,0
0.035182,-0.0042755,0.022433,-0.001437,0.0062987,0.00018336,0,0,0.041948,-0.020113,0,0.00095345,0,0,0,0.022434,-0.0014384,0.0062987,0.44008,0.0090981,0.021096,2.7274e-07,0.7,0.75,0
0.035602,-0.0043025,0.022569,-0.0016663,0.0062708,0.00050201,0,0,0.042375,-0.020636,0,0.0026104,0,0,0,0.022579,-0.0016767,0.0062708,1.1862,0.0090577,0.021418,2.8048e-07,0.71,0.75,0
0.03603,-0.0043339,0.022973,-0.0019063,0.0063199,0.00069133,0,0,0.043297,-0.021388,0,0.0035949,0,0,0,0.022992,-0.0019255,0.0063199,1.5905,0.0091288,0.021986,2.9846e-07,0.72,0.75,0
0.036467,-0.0043764,0.023425,-0.0020219,0.006421,0.0007331,0,0,0.044211,-0.021952,0,0.0038121,0,0,0,0.023446,-0.002043,0.006421,1.6488,0.0092748,0.022486,3.1737e-07,0.73,0.75,0
0.036914,-0.0044328,0.023911,-0.0019588,0.0065858,0.00073897,0,0,0.045047,-0.022216,0,0.0038426,0,0,0,0.023932,-0.0019799,0.0065858,1.6348,0.0095128,0.022866,3.3633e-07,0.74,0.75,0
0.037368,-0.0045013,0.024424,-0.0018584,0.0067697,0.00072045,0,0,0.045901,-0.022433,0,0.0037464,0,0,0,0.024444,-0.0018781,0.0067697,1.569,0.0097784,0.023238,3.5662e-07,0.75,0.75,0
0.037832,-0.0045799,0.024933,-0.0018196,0.0069341,0.00065949,0,0,0.046798,-0.02276,0,0.0034293,0,0,0,0.02495,-0.0018359,0.0069341,1.4112,0.010016,0.023653,3.782e-07,0.76,0.75,0
0.038304,-0.0046687,0.025433,-0.0017007,0.0071198,0.0005115,0,0,0.047615,-0.022933,0,0.0026598,0,0,0,0.025443,-0.0017104,0.0071198,1.0796,0.010284,0.02399,3.9893e-07,0.77,0.75,0
0.038784,-0.0047672,0.025913,-0.0014342,0.0073437,0.00035252,0,0,0.048281,-0.022822,0,0.0018331,0,0,0,0.025918,-0.0014387,0.0073437,0.7384,0.010608,0.024192,4.1737e-07,0.78,0.75,0
0.03927,-0.0048732,0.026329,-0.0011417,0.0075561,0.00021061,0,0,0.048809,-0.022614,0,0.0010952,0,0,0,0.02633,-0.0011433,0.0075561,0.43925,0.010914,0.02432,4.3282e-07,0.79,0.75,0
0.039761,-0.0049842,0.026699,-0.00085318,0.0077537,8.4472e-05,0,0,0.049257,-0.022378,0,0.00043925,0,0,0,0.026699,-0.00085344,0.0077537,0.17566,0.0112,0.024415,4.4638e-07,0.8,0.75,0
0.040255,-0.0050983,0.027029,-0.00055531,0.007942,-3.4584e-05,0,0,0.049625,-0.022093,0,-0.00017984,0,0,0,0.027029,-0.00055535,0.007942,-0.071836,0.011472,0.024468,4.5792e-07,0.81,0.75,0
0.040753,-0.0052137,0.02732,-0.00023875,0.0081243,-0.00013437,0,0,0.049908,-0.021744,0,-0.00069875,0,0,0,0.02732,-0.0002394,0.0081243,-0.27936,0.011735,0.024474,4.6723e-07,0.82,0.75,0
0.041253,-0.0053287,0.027571,7.6254e-05,0.0082942,-0.00020533,0,0,0.05012,-0.021367,0,-0.0010677,0,0,0,0.027573,7.4721e-05,0.0082942,-0.42785,0.01198,0.024447,4.7448e-07,0.83,0.75,0
0.041756,-0.0054415,0.027792,0.00037258,0.0084494,-0.00024562,0,0,0.050291,-0.021,0,-0.0012772,0,0,0,0.027794,0.00037038,0.0084494,-0.5132,0.012205,0.024409,4.8037e-07,0.84,0.75,0
0.042259,-0.0055504,0.027991,0.00063905,0.008589,-0.00025943,0,0,0.050445,-0.02067,0,-0.001349,0,0,0,0.027993,0.00063659,0.008589,-0.54338,0.012406,0.024374,4.8557e-07,0.85,0.75,0
0.042764,-0.0056542,0.028174,0.00087056,0.0087133,-0.00025311,0,0,0.050597,-0.020391,0,-0.0013162,0,0,0,0.028176,0.00086821,0.0087133,-0.53109,0.012586,0.024352,4.9052e-07,0.86,0.75,0
0.043271,-0.0057518,0.028344,0.0010661,0.0088231,-0.0002328,0,0,0.050755,-0.020168,0,-0.0012106,0,0,0,0.028346,0.0010641,0.0088231,-0.48894,0.012745,0.024348,4.9548e-07,0.87,0.75,0
0.043779,-0.0058426,0.028504,0.0012267,0.0089191,-0.00020385,0,0,0.05092,-0.02,0,-0.00106,0,0,0,0.028505,0.0012252,0.0089191,-0.42816,0.012883,0.024362,5.0056e-07,0.88,0.75,0
0.04429,-0.0059261,0.028653,0.0013553,0.0090025,-0.00017062,0,0,0.051091,-0.019883,0,-0.00088721,0,0,0,0.028654,0.0013542,0.0090025,-0.35809,0.013003,0.024392,5.0578e-07,0.89,0.75,0
0.044801,-0.006002,0.028792,0.0014552,0.0090742,-0.00013652,0,0,0.051266,-0.019809,0,-0.0007099,0,0,0,0.028793,0.0014546,0.0090742,-0.28612,0.013107,0.024436,5.111e-07,0.9,0.75,0
0.045315,-0.0060702,0.028921,0.0015306,0.0091354,-0.00010409,0,0,0.051442,-0.019773,0,-0.00054126,0,0,0,0.028921,0.0015302,0.0091354,-0.21773,0.013196,0.024491,5.1644e-07,0.91,0.75,0
0.04583,-0.0061308,0.029039,0.0015853,0.0091872,-7.5081e-05,0,0,0.051614,-0.019765,0,-0.00039042,0,0,0,0.029039,0.0015852,0.0091872,-0.15669,0.01327,0.024552,5.2167e-07,0.92,0.75,0
0.046347,-0.0061837,0.029145,0.0016235,0.0092306,-5.0586e-05,0,0,0.051778,-0.019778,0,-0.00026305,0,0,0,0.029145,0.0016234,0.0092306,-0.10531,0.013333,0.024616,5.2667e-07,0.93,0.75,0
0.046866,-0.0062292,0.029239,0.0016488,0.0092663,-3.1117e-05,0,0,0.051929,-0.019806,0,-0.00016181,0,0,0,0.029239,0.0016488,0.0092663,-0.06462,0.013385,0.02468,5.3131e-07,0.94,0.75,0
0.047386,-0.0062673,0.02932,0.0016644,0.0092952,-1.6714e-05,0,0,0.052064,-0.01984,0,-8.6914e-05,0,0,0,0.02932,0.0016644,0.0092952,-0.034628,0.013426,0.024739,5.3547e-07,0.95,0.75,0
0.047907,-0.0062983,0.029387,0.0016733,0.009318,-7.0359e-06,0,0,0.052179,-0.019876,0,-3.6586e-05,0,0,0,0.029387,0.0016733,0.009318,-0.014546,0.013459,0.024792,5.3903e-07,0.96,0.75,0
0.048429,-0.0063222,0.02944,0.0016777,0.0093352,-1.4464e-06,0,0,0.052271,-0.019909,0,-7.5214e-06,0,0,0,0.02944,0.0016777,0.0093352,-0.0029852,0.013484,0.024835,5.4191e-07,0.97,0.75,0
0.048952,-0.0063392,0.029478,0.0016796,0.0093472,9.0593e-07,0,0,0.052339,-0.019936,0,4.7108e-06,0,0,0,0.029478,0.0016796,0.0093472,0.0018673,0.013501,0.024867,5.4402e-07,0.98,0.75,0
0.049476,-0.0063493,0.0295,0.0016802,0.0093542,1.023e-06,0,0,0.05238,-0.019952,0,5.3195e-06,0,0,0,0.0295,0.0016802,0.0093542,0.0021068,0.013512,0.024887,5.453e-07,0.99,0.75,0
0.05,-0.0063527,0.029508,0.0016803,0.0093565,-6.4939e-05,0,0,0.052394,-0.019958,0,-0.00033768,0,0,0,0.029508,0.0016802,0.0093565,-0.1337,0.013515,0.024894,5.4575e-07,1,0.75,0
0,0,0.028469,0.012201,0.012201,-0.0046142,0,0,0.042297,3.7947e-19,0,-0.023994,0,0,0,0.029687,0.010983,0.012201,-14.783,0.017624,0.018125,3.0117e-07,0,0.76,0
0.00042297,-0.00023994,0.028422,0.011632,0.012016,-0.00461,0,0,0.042655,-0.00099891,0,-0.023972,0,0,0,0.029604,0.01045,0.012016,-14.386,0.017357,0.018422,3.1325e-07,0.01,0.76,0
0.0008531,-0.00047894,0.028614,0.011156,0.011931,-0.0045923,0,0,0.043375,-0.0020144,0,-0.02388,0,0,0,0.029748,0.010022,0.011931,-13.875,0.017234,0.018844,3.3182e-07,0.02,0.76,0
0.0012905,-0.00071671,0.028805,0.010674,0.011844,-0.0045665,0,0,0.0441,-0.0030417,0,-0.023746,0,0,0,0.029891,0.0095887,0.011844,-13.367,0.017108,0.019273,3.5079e-07,0.03,0.76,0
0.0017351,-0.00095292,0.028996,0.010187,0.011755,-0.0045313,0,0,0.044826,-0.0040756,0,-0.023563,0,0,0,0.030031,0.0091526,0.011755,-12.863,0.016979,0.019706,3.7002e-07,0.04,0.76,0
0.002187,-0.0011872,0.029183,0.0096994,0.011665,-0.0044858,0,0,0.045548,-0.0051101,0,-0.023326,0,0,0,0.030166,0.0087162,0.011665,-12.362,0.016849,0.020139,3.8933e-07,0.05,0.76,0
0.0026461,-0.001419,0.029367,0.0092126,0.011574,-0.0044292,0,0,0.046261,-0.0061389,0,-0.023032,0,0,0,0.030297,0.0082822,0.011574,-11.864,0.016718,0.020568,4.0855e-07,0.06,0.76,0
0.0031122,-0.001648,0.029544,0.0087299,0.011482,-0.0043615,0,0,0.046961,-0.0071558,0,-0.02268,0,0,0,0.030421,0.007853,0.011482,-11.369,0.016585,0.02099,4.275e-07,0.07,0.76,0
0.0035853,-0.0018737,0.029714,0.0082541,0.01139,-0.0042827,0,0,0.047642,-0.0081547,0,-0.02227,0,0,0,0.030537,0.007431,0.01139,-10.879,0.016453,0.021403,4.4603e-07,0.08,0.76,0
0.004065,-0.0020955,0.029876,0.0077877,0.011299,-0.0041935,0,0,0.0483,-0.0091298,0,-0.021806,0,0,0,0.030645,0.0070183,0.011299,-10.396,0.016321,0.021804,4.6398e-07,0.09,0.76,0
0.0045513,-0.0023131,0.030028,0.0073331,0.011208,-0.0040946,0,0,0.048932,-0.010076,0,-0.021292,0,0,0,0.030744,0.006617,0.011208,-9.9206,0.01619,0.022191,4.8124e-07,0.1,0.76,0
0.0050437,-0.002526,0.03017,0.0068925,0.011119,-0.0039871,0,0,0.049534,-0.010988,0,-0.020733,0,0,0,0.030834,0.0062285,0.011119,-9.4549,0.01606,0.022562,4.9769e-07,0.11,0.76,0
0.005542,-0.0027337,0.030301,0.0064676,0.011031,-0.0038721,0,0,0.050103,-0.011864,0,-0.020135,0,0,0,0.030914,0.0058543,0.011031,-9.0004,0.015933,0.022915,5.1324e-07,0.12,0.76,0
0.0060457,-0.002936,0.03042,0.00606,0.010944,-0.0037511,0,0,0.050638,-0.012698,0,-0.019506,0,0,0,0.030985,0.0054954,0.010944,-8.5587,0.015808,0.023249,5.2783e-07,0.13,0.76,0
0.0065547,-0.0031324,0.030527,0.0056708,0.010859,-0.0036253,0,0,0.051137,-0.013491,0,-0.018852,0,0,0,0.031045,0.0051528,0.010859,-8.131,0.015686,0.023563,5.4139e-07,0.14,0.76,0
0.0070685,-0.0033227,0.030623,0.0053009,0.010777,-0.0034962,0,0,0.051599,-0.014238,0,-0.01818,0,0,0,0.031097,0.004827,0.010777,-7.7185,0.015567,0.023858,5.5391e-07,0.15,0.76,0
0.0075867,-0.0035066,0.030706,0.0049509,0.010697,-0.003365,0,0,0.052024,-0.01494,0,-0.017498,0,0,0,0.031139,0.0045185,0.010697,-7.322,0.015451,0.024132,5.6537e-07,0.16,0.76,0
0.008109,-0.0036839,0.030778,0.0046211,0.01062,-0.0032329,0,0,0.052412,-0.015597,0,-0.016811,0,0,0,0.031172,0.0042274,0.01062,-6.9423,0.01534,0.024385,5.7576e-07,0.17,0.76,0
0.0086349,-0.0038545,0.030839,0.0043116,0.010545,-0.0031011,0,0,0.052764,-0.016207,0,-0.016126,0,0,0,0.031197,0.0039539,0.010545,-6.5798,0.015232,0.024618,5.851e-07,0.18,0.76,0
0.0091642,-0.0040181,0.030889,0.0040224,0.010473,-0.0029706,0,0,0.05308,-0.016772,0,-0.015447,0,0,0,0.031213,0.0036979,0.010473,-6.2348,0.015128,0.024831,5.934e-07,0.19,0.76,0
0.0096965,-0.0041748,0.030928,0.0037533,0.010404,-0.0028423,0,0,0.053361,-0.017293,0,-0.01478,0,0,0,0.031222,0.0034592,0.010404,-5.9075,0.015029,0.025024,6.0068e-07,0.2,0.76,0
0.010231,-0.0043244,0.030957,0.0035039,0.010338,-0.0027168,0,0,0.053609,-0.017769,0,-0.014128,0,0,0,0.031223,0.0032376,0.010338,-5.5978,0.014933,0.025197,6.0698e-07,0.21,0.76,0
0.010769,-0.004467,0.030977,0.0032738,0.010275,-0.002595,0,0,0.053824,-0.018203,0,-0.013494,0,0,0,0.031218,0.0030329,0.010275,-5.3055,0.014842,0.025352,6.1232e-07,0.22,0.76,0
0.011308,-0.0046024,0.030987,0.0030625,0.010215,-0.0024771,0,0,0.054008,-0.018596,0,-0.012881,0,0,0,0.031205,0.0028445,0.010215,-5.0302,0.014755,0.025488,6.1675e-07,0.23,0.76,0
0.011849,-0.0047307,0.030989,0.0028695,0.010157,-0.0023637,0,0,0.054161,-0.018949,0,-0.012291,0,0,0,0.031186,0.0026722,0.010157,-4.7716,0.014672,0.025605,6.2028e-07,0.24,0.76,0
0.012391,-0.0048519,0.030982,0.0026941,0.010103,-0.0022548,0,0,0.054286,-0.019263,0,-0.011725,0,0,0,0.03116,0.0025154,0.010103,-4.529,0.014593,0.025705,6.2294e-07,0.25,0.76,0
0.012935,-0.004966,0.030967,0.0025356,0.010051,-0.0021508,0,0,0.054382,-0.019539,0,-0.011184,0,0,0,0.031129,0.0023739,0.010051,-4.3018,0.014518,0.025788,6.2478e-07,0.26,0.76,0
0.013479,-0.005073,0.030944,0.0023936,0.010001,-0.0020516,0,0,0.054451,-0.01978,0,-0.010668,0,0,0,0.031091,0.0022469,0.010001,-4.0893,0.014446,0.025854,6.2581e-07,0.27,0.76,0
0.014024,-0.0051731,0.030914,0.0022672,0.0099543,-0.0019572,0,0,0.054495,-0.019987,0,-0.010178,0,0,0,0.031047,0.0021341,0.0099543,-3.8906,0.014379,0.025904,6.2607e-07,0.28,0.76,0
0.014569,-0.0052661,0.030876,0.0021558,0.0099096,-0.0018675,0,0,0.054513,-0.02016,0,-0.0097109,0,0,0,0.030997,0.0020349,0.0099096,-3.7048,0.014314,0.025937,6.2556e-07,0.29,0.76,0
0.015114,-0.0053522,0.030831,0.0020587,0.0098669,-0.0017821,0,0,0.054507,-0.020301,0,-0.0092672,0,0,0,0.030941,0.0019487,0.0098669,-3.5309,0.014252,0.025955,6.2433e-07,0.3,0.76,0
0.015659,-0.0054314,0.030779,0.0019751,0.0098261,-0.0017009,0,0,0.054477,-0.020413,0,-0.008845,0,0,0,0.030879,0.001875,0.0098261,-3.3679,0.014193,0.025958,6.2237e-07,0.31,0.76,0
0.016203,-0.0055037,0.030719,0.0019042,0.009787,-0.0016235,0,0,0.054423,-0.020495,0,-0.0084423,0,0,0,0.03081,0.001813,0.009787,-3.2147,0.014137,0.025946,6.1972e-07,0.32,0.76,0
0.016747,-0.0055691,0.030652,0.0018451,0.0097492,-0.0015494,0,0,0.054348,-0.020551,0,-0.008057,0,0,0,0.030735,0.001762,0.0097492,-3.0699,0.014082,0.02592,6.164e-07,0.33,0.76,0
0.01729,-0.0056275,0.030578,0.001797,0.0097125,-0.0014781,0,0,0.054251,-0.02058,0,-0.0076864,0,0,0,0.030654,0.0017213,0.0097125,-2.9323,0.014029,0.025879,6.1242e-07,0.34,0.76,0
0.017832,-0.0056791,0.030497,0.0017588,0.0096766,-0.0014092,0,0,0.054132,-0.020586,0,-0.0073277,0,0,0,0.030565,0.0016898,0.0096766,-2.8006,0.013977,0.025826,6.078e-07,0.35,0.76,0
0.018373,-0.0057237,0.030408,0.0017293,0.009641,-0.0013419,0,0,0.053993,-0.020571,0,-0.0069779,0,0,0,0.03047,0.0016666,0.009641,-2.6732,0.013926,0.025759,6.0258e-07,0.36,0.76,0
0.018912,-0.0057613,0.030311,0.0017073,0.0096055,-0.0012757,0,0,0.053834,-0.020535,0,-0.0066336,0,0,0,0.030368,0.0016505,0.0096055,-2.5486,0.013875,0.025681,5.9678e-07,0.37,0.76,0
0.01945,-0.0057918,0.030207,0.0016913,0.0095695,-0.0012099,0,0,0.053657,-0.020483,0,-0.0062915,0,0,0,0.030258,0.0016401,0.0095695,-2.4252,0.013823,0.025592,5.9045e-07,0.38,0.76,0
0.019985,-0.0058151,0.030095,0.0016798,0.0095325,-0.0011439,0,0,0.053463,-0.020417,0,-0.0059483,0,0,0,0.030141,0.0016338,0.0095325,-2.3016,0.013769,0.025493,5.8363e-07,0.39,0.76,0
0.020519,-0.0058312,0.029976,0.0016707,0.009494,-0.001077,0,0,0.053253,-0.02034,0,-0.0056005,0,0,0,0.030017,0.0016298,0.009494,-2.1759,0.013713,0.025385,5.7636e-07,0.4,0.76,0
0.02105,-0.0058399,0.029849,0.0016621,0.0094533,-0.0010087,0,0,0.053029,-0.020257,0,-0.0052454,0,0,0,0.029885,0.0016261,0.0094533,-2.0469,0.013655,0.025271,5.6873e-07,0.41,0.76,0
0.02158,-0.0058411,0.029715,0.0016515,0.0094099,-0.0009385,0,0,0.052793,-0.020172,0,-0.0048802,0,0,0,0.029746,0.0016202,0.0094099,-1.9133,0.013592,0.025153,5.6079e-07,0.42,0.76,0
0.022106,-0.0058347,0.029573,0.0016363,0.0093629,-0.00086604,0,0,0.052547,-0.020089,0,-0.0045034,0,0,0,0.0296,0.0016095,0.0093629,-1.7739,0.013524,0.025031,5.5264e-07,0.43,0.76,0
0.02263,-0.0058206,0.029425,0.0016136,0.0093116,-0.00079119,0,0,0.052295,-0.020015,0,-0.0041142,0,0,0,0.029448,0.0015911,0.0093116,-1.6282,0.01345,0.02491,5.4437e-07,0.44,0.76,0
0.023152,-0.0057986,0.02927,0.0015801,0.0092551,-0.00071409,0,0,0.052039,-0.019955,0,-0.0037133,0,0,0,0.029288,0.0015617,0.0092551,-1.4763,0.013368,0.024792,5.3608e-07,0.45,0.76,0
0.023671,-0.0057687,0.029109,0.0015324,0.0091924,-0.00063523,0,0,0.051783,-0.019916,0,-0.0033032,0,0,0,0.029124,0.0015178,0.0091924,-1.3189,0.013278,0.02468,5.2787e-07,0.46,0.76,0
0.024188,-0.0057309,0.028942,0.001467,0.0091227,-0.0005555,0,0,0.05153,-0.019905,0,-0.0028886,0,0,0,0.028953,0.0014557,0.0091227,-1.1578,0.013177,0.024578,5.1985e-07,0.47,0.76,0
0.024702,-0.0056852,0.028769,0.0013802,0.0090448,-0.00047631,0,0,0.051283,-0.019928,0,-0.0024768,0,0,0,0.028778,0.0013719,0.0090448,-0.99599,0.013065,0.024488,5.1209e-07,0.48,0.76,0
0.025213,-0.0056318,0.028591,0.0012687,0.0089579,-0.00039965,0,0,0.051046,-0.019992,0,-0.0020782,0,0,0,0.028597,0.0012629,0.0089579,-0.83785,0.012939,0.024414,5.0468e-07,0.49,0.76,0
0.025723,-0.005571,0.028407,0.0011294,0.0088609,-0.0003282,0,0,0.05082,-0.020102,0,-0.0017067,0,0,0,0.028411,0.0011255,0.0088609,-0.68925,0.012799,0.024357,4.9763e-07,0.5,0.76,0
0.02623,-0.0055032,0.028216,0.00096009,0.0087529,-0.00026533,0,0,0.050605,-0.020261,0,-0.0013797,0,0,0,0.028219,0.0009575,0.0087529,-0.55768,0.012643,0.02432,4.9094e-07,0.51,0.76,0
0.026735,-0.005429,0.028018,0.00075975,0.0086333,-0.00021503,0,0,0.0504,-0.020471,0,-0.0011182,0,0,0,0.028019,0.00075806,0.0086333,-0.45195,0.01247,0.024301,4.8451e-07,0.52,0.76,0
0.027238,-0.0053494,0.027809,0.00052948,0.0085015,-0.00018169,0,0,0.050199,-0.020727,0,-0.00094481,0,0,0,0.02781,0.00052827,0.0085015,-0.3816,0.01228,0.024297,4.7812e-07,0.53,0.76,0
0.027739,-0.0052654,0.027585,0.00027328,0.0083575,-0.00016925,0,0,0.049992,-0.021019,0,-0.00088011,0,0,0,0.027586,0.00027223,0.0083575,-0.35504,0.012072,0.024302,4.7147e-07,0.54,0.76,0
0.028238,-0.0051784,0.027342,-1.4284e-06,0.0082021,-0.00017982,0,0,0.049763,-0.021329,0,-0.00093508,0,0,0,0.027343,-2.6109e-06,0.0082021,-0.37678,0.011848,0.024305,4.6412e-07,0.55,0.76,0
0.028734,-0.0050899,0.027076,-0.00028448,0.0080374,-0.00021237,0,0,0.0495,-0.021637,0,-0.0011043,0,0,0,0.027078,-0.00028613,0.0080374,-0.44469,0.01161,0.024296,4.5574e-07,0.56,0.76,0
0.029228,-0.0050014,0.026785,-0.00056934,0.0078647,-0.00026295,0,0,0.049193,-0.021928,0,-0.0013673,0,0,0,0.026787,-0.00057187,0.0078647,-0.5507,0.01136,0.024267,4.4613e-07,0.57,0.76,0
0.029718,-0.0049147,0.026468,-0.00085332,0.0076843,-0.00032947,0,0,0.048837,-0.022198,0,-0.0017133,0,0,0,0.026472,-0.00085729,0.0076843,-0.69081,0.0111,0.024216,4.3525e-07,0.58,0.76,0
0.030204,-0.0048315,0.02612,-0.0011316,0.0074965,-0.00041111,0,0,0.048421,-0.022433,0,-0.0021378,0,0,0,0.026126,-0.0011378,0.0074965,-0.86409,0.010828,0.024134,4.2289e-07,0.59,0.76,0
0.030686,-0.0047537,0.025746,-0.0013761,0.0073109,-0.00050389,0,0,0.047931,-0.022586,0,-0.0026202,0,0,0,0.025755,-0.0013855,0.0073109,-1.064,0.01056,0.024005,4.0894e-07,0.6,0.76,0
0.031163,-0.0046833,0.025353,-0.001565,0.0071365,-0.00058675,0,0,0.047364,-0.022624,0,-0.0030511,0,0,0,0.025366,-0.0015778,0.0071365,-1.2481,0.010308,0.023814,3.9361e-07,0.61,0.76,0
0.031634,-0.0046212,0.024958,-0.0017094,0.0069745,-0.000646,0,0,0.046756,-0.022578,0,-0.0033592,0,0,0,0.024973,-0.001725,0.0069745,-1.3869,0.010074,0.023584,3.7783e-07,0.62,0.76,0
0.032098,-0.0045686,0.024561,-0.0018408,0.0068162,-0.00067975,0,0,0.046137,-0.022508,0,-0.0035347,0,0,0,0.024579,-0.0018582,0.0068162,-1.4738,0.0098456,0.023342,3.622e-07,0.63,0.76,0
0.032556,-0.0045267,0.024177,-0.0019223,0.0066763,-0.00069808,0,0,0.045501,-0.022356,0,-0.00363,0,0,0,0.024195,-0.0019409,0.0066763,-1.5311,0.0096435,0.023068,3.4682e-07,0.64,0.76,0
0.033008,-0.004496,0.023825,-0.0019012,0.0065772,-0.00066713,0,0,0.044845,-0.022044,0,-0.0034691,0,0,0,0.023842,-0.0019185,0.0065772,-1.4844,0.0095004,0.022736,3.3194e-07,0.65,0.76,0
0.033453,-0.0044753,0.023559,-0.0018122,0.006524,-0.00055507,0,0,0.044291,-0.021674,0,-0.0028864,0,0,0,0.023571,-0.0018244,0.006524,-1.2527,0.0094236,0.022419,3.1993e-07,0.66,0.76,0
0.033894,-0.0044629,0.023362,-0.0018461,0.0064547,-0.00037182,0,0,0.043958,-0.021582,0,-0.0019335,0,0,0,0.023367,-0.0018516,0.0064547,-0.84488,0.0093235,0.02226,3.1216e-07,0.67,0.76,0
0.034332,-0.0044591,0.023248,-0.0019862,0.0063785,-0.00023625,0,0,0.04386,-0.021748,0,-0.0012285,0,0,0,0.02325,-0.0019884,0.0063785,-0.53637,0.0092134,0.022267,3.0907e-07,0.68,0.76,0
0.034771,-0.0044669,0.023238,-0.0019997,0.0063716,-0.00011914,0,0,0.043854,-0.021766,0,-0.00061953,0,0,0,0.023239,-0.0020003,0.0063716,-0.27046,0.0092035,0.022267,3.0876e-07,0.69,0.76,0
0.035209,-0.0044864,0.023335,-0.0018798,0.0064365,1.2762e-05,0,0,0.043935,-0.021622,0,6.6362e-05,0,0,0,0.023335,-0.0018798,0.0064365,0.028999,0.0092971,0.022254,3.112e-07,0.7,0.76,0
0.03565,-0.0045148,0.023515,-0.0018607,0.0064962,0.00019244,0,0,0.044248,-0.021728,0,0.0010007,0,0,0,0.023516,-0.0018621,0.0064962,0.43449,0.0093834,0.022401,3.1816e-07,0.71,0.76,0
0.036095,-0.0045517,0.023764,-0.0019669,0.0065392,0.00030178,0,0,0.044785,-0.022116,0,0.0015692,0,0,0,0.023768,-0.0019705,0.0065392,0.67184,0.0094455,0.022712,3.2948e-07,0.72,0.76,0
0.036546,-0.0045988,0.0241,-0.0020094,0.0066273,0.00032774,0,0,0.04543,-0.022455,0,0.0017043,0,0,0,0.024105,-0.0020135,0.0066273,0.71905,0.0095728,0.023046,3.4385e-07,0.73,0.76,0
0.037003,-0.0046575,0.024472,-0.0019493,0.0067568,0.00030052,0,0,0.046059,-0.022636,0,0.0015627,0,0,0,0.024475,-0.0019527,0.0067568,0.65158,0.0097598,0.023327,3.5888e-07,0.74,0.76,0
0.037467,-0.0047275,0.024856,-0.0018365,0.0069058,0.00025409,0,0,0.04667,-0.02273,0,0.0013213,0,0,0,0.024858,-0.001839,0.0069058,0.54535,0.009975,0.023574,3.7419e-07,0.75,0.76,0
0.037936,-0.0048076,0.02524,-0.0017082,0.0070595,0.00017903,0,0,0.047269,-0.022796,0,0.00093094,0,0,0,0.025241,-0.0017094,0.0070595,0.38062,0.010197,0.023809,3.8966e-07,0.76,0.76,0
0.038412,-0.0048969,0.02562,-0.0015329,0.0072261,7.7039e-05,0,0,0.047824,-0.022773,0,0.0004006,0,0,0,0.02562,-0.0015332,0.0072261,0.16256,0.010438,0.024004,4.0471e-07,0.77,0.76,0
0.038893,-0.0049942,0.025981,-0.0012985,0.0074048,-3.8205e-05,0,0,0.048299,-0.022629,0,-0.00019867,0,0,0,0.025981,-0.0012986,0.0074048,-0.080243,0.010696,0.024135,4.1836e-07,0.78,0.76,0
0.039378,-0.005098,0.026315,-0.0010257,0.0075867,-0.00014519,0,0,0.048693,-0.022392,0,-0.00075501,0,0,0,0.026316,-0.0010264,0.0075867,-0.30426,0.010959,0.024213,4.3031e-07,0.79,0.76,0
0.039867,-0.0052064,0.026616,-0.00074248,0.0077621,-0.00023917,0,0,0.04902,-0.022112,0,-0.0012437,0,0,0,0.026618,-0.00074457,0.0077621,-0.50083,0.011212,0.024255,4.4061e-07,0.8,0.76,0
0.040358,-0.0053174,0.026889,-0.00045428,0.0079304,-0.00031873,0,0,0.049292,-0.0218,0,-0.0016574,0,0,0,0.026893,-0.00045799,0.0079304,-0.66776,0.011455,0.024269,4.4945e-07,0.81,0.76,0
0.040853,-0.0054294,0.027134,-0.00016415,0.0080911,-0.00038135,0,0,0.049513,-0.021464,0,-0.001983,0,0,0,0.02714,-0.00016948,0.0080911,-0.80018,0.011687,0.024258,4.5683e-07,0.82,0.76,0
0.041349,-0.0055409,0.027355,0.00012085,0.0082427,-0.0004227,0,0,0.049691,-0.021117,0,-0.0021981,0,0,0,0.027361,0.00011429,0.0082427,-0.88902,0.011906,0.024228,4.6291e-07,0.83,0.76,0
0.041847,-0.0056502,0.027553,0.00038988,0.0083828,-0.00044147,0,0,0.049842,-0.020782,0,-0.0022956,0,0,0,0.02756,0.00038271,0.0083828,-0.93088,0.012108,0.024191,4.6804e-07,0.84,0.76,0
0.042346,-0.005756,0.027734,0.0006347,0.0085106,-0.00043963,0,0,0.04998,-0.020477,0,-0.0022861,0,0,0,0.027741,0.00062757,0.0085106,-0.92919,0.012293,0.024157,4.7261e-07,0.85,0.76,0
0.042846,-0.0058571,0.027901,0.00085051,0.0086256,-0.00042116,0,0,0.050117,-0.020215,0,-0.00219,0,0,0,0.027908,0.00084395,0.0086256,-0.89176,0.012459,0.024133,4.7697e-07,0.86,0.76,0
0.043348,-0.0059525,0.028059,0.0010356,0.0087282,-0.00039063,0,0,0.050259,-0.020001,0,-0.0020313,0,0,0,0.028064,0.0010299,0.0087282,-0.828,0.012607,0.024125,4.8132e-07,0.87,0.76,0
0.043851,-0.0060416,0.028206,0.0011902,0.0088189,-0.00035231,0,0,0.050407,-0.019835,0,-0.001832,0,0,0,0.028211,0.0011856,0.0088189,-0.74701,0.012738,0.024132,4.8578e-07,0.88,0.76,0
0.044356,-0.0061239,0.028345,0.0013164,0.0088985,-0.00030988,0,0,0.050561,-0.019713,0,-0.0016114,0,0,0,0.028349,0.0013128,0.0088985,-0.65678,0.012853,0.024154,4.9036e-07,0.89,0.76,0
0.044862,-0.0061991,0.028475,0.0014168,0.0089676,-0.00026631,0,0,0.05072,-0.019632,0,-0.0013848,0,0,0,0.028478,0.0014141,0.0089676,-0.56384,0.012953,0.024188,4.9504e-07,0.9,0.76,0
0.045371,-0.0062669,0.028596,0.0014945,0.0090271,-0.00022385,0,0,0.050879,-0.019585,0,-0.001164,0,0,0,0.028598,0.0014927,0.0090271,-0.47321,0.013039,0.024233,4.9974e-07,0.91,0.76,0
0.04588,-0.0063273,0.028707,0.0015531,0.0090779,-0.0001841,0,0,0.051035,-0.019564,0,-0.00095732,0,0,0,0.028708,0.0015518,0.0090779,-0.38844,0.013112,0.024284,5.0436e-07,0.92,0.76,0
0.046391,-0.0063803,0.028807,0.0015958,0.0091207,-0.00014808,0,0,0.051183,-0.019565,0,-0.00077,0,0,0,0.028807,0.001595,0.0091207,-0.31178,0.013174,0.024338,5.0879e-07,0.93,0.76,0
0.046904,-0.006426,0.028895,0.0016259,0.0091563,-0.0001163,0,0,0.051321,-0.019579,0,-0.00060478,0,0,0,0.028896,0.0016254,0.0091563,-0.24436,0.013226,0.024393,5.1291e-07,0.94,0.76,0
0.047418,-0.0064644,0.028972,0.0016462,0.0091853,-8.8874e-05,0,0,0.051444,-0.019602,0,-0.00046215,0,0,0,0.028972,0.0016459,0.0091853,-0.18635,0.013268,0.024444,5.1661e-07,0.95,0.76,0
0.047933,-0.0064957,0.029035,0.0016592,0.0092083,-6.554e-05,0,0,0.051549,-0.019627,0,-0.00034081,0,0,0,0.029035,0.0016591,0.0092083,-0.13717,0.013301,0.02449,5.1978e-07,0.96,0.76,0
0.048449,-0.0065199,0.029085,0.0016672,0.0092256,-4.578e-05,0,0,0.051634,-0.019652,0,-0.00023806,0,0,0,0.029085,0.0016671,0.0092256,-0.095668,0.013326,0.024528,5.2235e-07,0.97,0.76,0
0.048965,-0.0065371,0.029121,0.0016717,0.0092378,-2.8867e-05,0,0,0.051696,-0.019672,0,-0.00015011,0,0,0,0.029121,0.0016716,0.0092378,-0.060255,0.013343,0.024557,5.2423e-07,0.98,0.76,0
0.049482,-0.0065474,0.029143,0.0016739,0.009245,-1.3928e-05,0,0,0.051734,-0.019685,0,-7.2428e-05,0,0,0,0.029143,0.0016738,0.009245,-0.029053,0.013354,0.024574,5.2538e-07,0.99,0.76,0
0.05,-0.0065508,0.02915,0.0016745,0.0092473,-6.5923e-05,0,0,0.051747,-0.019689,0,-0.0003428,0,0,0,0.02915,0.0016744,0.0092473,-0.13747,0.013357,0.02458,5.2578e-07,1,0.76,0
0,0,0.028455,0.012195,0.012195,-0.0048074,0,0,0.042276,3.7947e-19,0,-0.024999,0,0,0,0.02977,0.01088,0.012195,-15.298,0.017615,0.018268,3.0764e-07,0,0.77,0
0.00042276,-0.00024999,0.028408,0.011619,0.012008,-0.0048031,0,0,0.042639,-0.0010115,0,-0.024976,0,0,0,0.029685,0.010342,0.012008,-14.889,0.017345,0.018566,3.1976e-07,0.01,0.77,0
0.00085278,-0.00049921,0.028602,0.011135,0.011921,-0.0047862,0,0,0.04337,-0.0020435,0,-0.024888,0,0,0,0.029827,0.0099096,0.011921,-14.362,0.017219,0.018992,3.3856e-07,0.02,0.77,0
0.0012902,-0.00074735,0.028796,0.010643,0.011832,-0.0047598,0,0,0.044107,-0.0030905,0,-0.024751,0,0,0,0.029969,0.0094708,0.011832,-13.836,0.01709,0.019425,3.5778e-07,0.03,0.77,0
0.0017349,-0.000994,0.028989,0.010146,0.01174,-0.0047225,0,0,0.044847,-0.0041463,0,-0.024557,0,0,0,0.030107,0.0090284,0.01174,-13.311,0.016958,0.019861,3.7722e-07,0.04,0.77,0
0.0021871,-0.0012387,0.029179,0.009646,0.011647,-0.0046732,0,0,0.045582,-0.0052039,0,-0.024301,0,0,0,0.030239,0.0085855,0.011647,-12.785,0.016824,0.020297,3.967e-07,0.05,0.77,0
0.0026466,-0.001481,0.029364,0.0091471,0.011553,-0.0046112,0,0,0.046308,-0.0062562,0,-0.023978,0,0,0,0.030366,0.008145,0.011553,-12.261,0.016688,0.020728,4.1602e-07,0.06,0.77,0
0.0031132,-0.0017202,0.029542,0.0086523,0.011458,-0.0045364,0,0,0.047018,-0.0072957,0,-0.023589,0,0,0,0.030485,0.0077097,0.011458,-11.738,0.016551,0.021152,4.35e-07,0.07,0.77,0
0.0035869,-0.001956,0.029713,0.0081649,0.011363,-0.0044492,0,0,0.047708,-0.0083157,0,-0.023136,0,0,0,0.030595,0.0072824,0.011363,-11.22,0.016414,0.021564,4.5346e-07,0.08,0.77,0
0.0040674,-0.0021877,0.029873,0.0076877,0.011268,-0.0043503,0,0,0.048373,-0.0093096,0,-0.022622,0,0,0,0.030696,0.0068652,0.011268,-10.707,0.016276,0.021963,4.7123e-07,0.09,0.77,0
0.0045544,-0.0024148,0.030024,0.0072235,0.011174,-0.0042407,0,0,0.049009,-0.010272,0,-0.022052,0,0,0,0.030787,0.0064603,0.011174,-10.202,0.01614,0.022346,4.882e-07,0.1,0.77,0
0.0050476,-0.0026369,0.030162,0.0067745,0.011081,-0.0041217,0,0,0.049611,-0.011197,0,-0.021433,0,0,0,0.030867,0.0060694,0.011081,-9.7079,0.016006,0.022711,5.0425e-07,0.11,0.77,0
0.0055466,-0.0028534,0.030288,0.0063426,0.010989,-0.0039947,0,0,0.050178,-0.012081,0,-0.020772,0,0,0,0.030937,0.0056938,0.010989,-9.2255,0.015873,0.023056,5.1929e-07,0.12,0.77,0
0.0060511,-0.003064,0.030402,0.0059295,0.010899,-0.0038613,0,0,0.050707,-0.012922,0,-0.020079,0,0,0,0.030997,0.0053347,0.010899,-8.7569,0.015744,0.023382,5.3327e-07,0.13,0.77,0
0.0065607,-0.0032684,0.030503,0.0055363,0.010812,-0.0037231,0,0,0.051197,-0.013716,0,-0.01936,0,0,0,0.031046,0.004993,0.010812,-8.3035,0.015617,0.023686,5.4614e-07,0.14,0.77,0
0.0070751,-0.0034661,0.030591,0.0051638,0.010726,-0.0035815,0,0,0.051647,-0.014462,0,-0.018624,0,0,0,0.031085,0.004669,0.010726,-7.8666,0.015494,0.023969,5.5788e-07,0.15,0.77,0
0.0075937,-0.003657,0.030666,0.0048126,0.010644,-0.0034382,0,0,0.052058,-0.015161,0,-0.017878,0,0,0,0.031115,0.0043632,0.010644,-7.4472,0.015374,0.02423,5.6849e-07,0.16,0.77,0
0.0081162,-0.0038409,0.030729,0.0044828,0.010563,-0.0032943,0,0,0.05243,-0.01581,0,-0.01713,0,0,0,0.031136,0.0040756,0.010563,-7.0459,0.015258,0.02447,5.7799e-07,0.17,0.77,0
0.0086423,-0.0040175,0.03078,0.0041744,0.010486,-0.0031511,0,0,0.052764,-0.016411,0,-0.016386,0,0,0,0.031148,0.0038063,0.010486,-6.6631,0.015147,0.024689,5.864e-07,0.18,0.77,0
0.0091715,-0.0041868,0.03082,0.0038873,0.010412,-0.0030097,0,0,0.05306,-0.016965,0,-0.01565,0,0,0,0.031152,0.0035551,0.010412,-6.2992,0.01504,0.024887,5.9374e-07,0.19,0.77,0
0.0097035,-0.0043486,0.030849,0.0036211,0.010341,-0.002871,0,0,0.05332,-0.017472,0,-0.014929,0,0,0,0.031148,0.0033217,0.010341,-5.9541,0.014937,0.025065,6.0005e-07,0.2,0.77,0
0.010238,-0.0045029,0.030868,0.0033753,0.010273,-0.0027356,0,0,0.053546,-0.017934,0,-0.014225,0,0,0,0.031137,0.0031057,0.010273,-5.6277,0.014839,0.025223,6.0538e-07,0.21,0.77,0
0.010774,-0.0046497,0.030877,0.0031493,0.010208,-0.0026044,0,0,0.053739,-0.018352,0,-0.013543,0,0,0,0.031119,0.0029068,0.010208,-5.3197,0.014745,0.025363,6.0975e-07,0.22,0.77,0
0.011313,-0.004789,0.030877,0.0029425,0.010146,-0.0024776,0,0,0.0539,-0.018728,0,-0.012884,0,0,0,0.031095,0.0027244,0.010146,-5.0295,0.014655,0.025483,6.1322e-07,0.23,0.77,0
0.011852,-0.0049207,0.030868,0.0027542,0.010087,-0.0023557,0,0,0.054031,-0.019064,0,-0.012249,0,0,0,0.031064,0.0025582,0.010087,-4.7567,0.01457,0.025586,6.1581e-07,0.24,0.77,0
0.012393,-0.005045,0.030851,0.0025837,0.01003,-0.0022387,0,0,0.054133,-0.019361,0,-0.011642,0,0,0,0.031027,0.0024075,0.01003,-4.5004,0.014488,0.025671,6.1757e-07,0.25,0.77,0
0.012935,-0.0051617,0.030826,0.0024303,0.0099769,-0.0021269,0,0,0.054207,-0.019621,0,-0.01106,0,0,0,0.030984,0.0022719,0.0099769,-4.26,0.014411,0.02574,6.1854e-07,0.26,0.77,0
0.013477,-0.0052711,0.030794,0.0022933,0.009926,-0.0020202,0,0,0.054255,-0.019845,0,-0.010505,0,0,0,0.030936,0.0021508,0.009926,-4.0346,0.014338,0.025792,6.1874e-07,0.27,0.77,0
0.01402,-0.0053732,0.030754,0.0021717,0.0098776,-0.0019185,0,0,0.054278,-0.020035,0,-0.0099765,0,0,0,0.030882,0.0020435,0.0098776,-3.8231,0.014268,0.025828,6.182e-07,0.28,0.77,0
0.014563,-0.0054679,0.030707,0.002065,0.0098316,-0.0018216,0,0,0.054276,-0.020193,0,-0.0094726,0,0,0,0.030822,0.0019496,0.0098316,-3.6246,0.014201,0.025849,6.1696e-07,0.29,0.77,0
0.015106,-0.0055553,0.030653,0.0019722,0.0097877,-0.0017293,0,0,0.054251,-0.02032,0,-0.0089922,0,0,0,0.030757,0.0018683,0.0097877,-3.4379,0.014138,0.025855,6.1503e-07,0.3,0.77,0
0.015648,-0.0056355,0.030593,0.0018926,0.0097456,-0.0016411,0,0,0.054203,-0.020418,0,-0.0085337,0,0,0,0.030686,0.0017991,0.0097456,-3.262,0.014077,0.025847,6.1244e-07,0.31,0.77,0
0.01619,-0.0057086,0.030526,0.0018253,0.0097052,-0.0015567,0,0,0.054133,-0.020488,0,-0.0080947,0,0,0,0.03061,0.0017411,0.0097052,-3.0956,0.014019,0.025825,6.0921e-07,0.32,0.77,0
0.016731,-0.0057744,0.030451,0.0017693,0.0096662,-0.0014756,0,0,0.054041,-0.020532,0,-0.0076729,0,0,0,0.030527,0.0016936,0.0096662,-2.9373,0.013962,0.025789,6.0537e-07,0.33,0.77,0
0.017271,-0.0058331,0.030371,0.0017237,0.0096283,-0.0013973,0,0,0.05393,-0.020552,0,-0.0072657,0,0,0,0.030439,0.0016558,0.0096283,-2.7858,0.013907,0.02574,6.0093e-07,0.34,0.77,0
0.017809,-0.0058847,0.030283,0.0016875,0.0095911,-0.0013212,0,0,0.053799,-0.020549,0,-0.0068701,0,0,0,0.030344,0.0016266,0.0095911,-2.6397,0.013854,0.025679,5.9593e-07,0.35,0.77,0
0.018347,-0.0059291,0.030189,0.0016594,0.0095544,-0.0012467,0,0,0.053649,-0.020527,0,-0.006483,0,0,0,0.030243,0.001605,0.0095544,-2.4975,0.013801,0.025606,5.9039e-07,0.36,0.77,0
0.018882,-0.0059663,0.030087,0.0016382,0.0095176,-0.0011733,0,0,0.053481,-0.020487,0,-0.0061012,0,0,0,0.030135,0.0015899,0.0095176,-2.3577,0.013748,0.025523,5.8436e-07,0.37,0.77,0
0.019416,-0.0059963,0.029979,0.0016223,0.0094804,-0.0011003,0,0,0.053296,-0.020431,0,-0.0057216,0,0,0,0.030022,0.0015797,0.0094804,-2.2188,0.013694,0.025429,5.7786e-07,0.38,0.77,0
0.019948,-0.006019,0.029864,0.0016102,0.0094423,-0.0010271,0,0,0.053096,-0.020363,0,-0.0053408,0,0,0,0.029901,0.0015729,0.0094423,-2.0791,0.013639,0.025328,5.7095e-07,0.39,0.77,0
0.020478,-0.0060343,0.029742,0.0016001,0.0094027,-0.00095305,0,0,0.052883,-0.020287,0,-0.0049559,0,0,0,0.029774,0.0015678,0.0094027,-1.9374,0.013582,0.025219,5.6368e-07,0.4,0.77,0
0.021006,-0.0060422,0.029614,0.0015899,0.0093611,-0.00087774,0,0,0.052657,-0.020205,0,-0.0045642,0,0,0,0.029641,0.0015624,0.0093611,-1.7922,0.013522,0.025105,5.5611e-07,0.41,0.77,0
0.021531,-0.0060426,0.029479,0.0015773,0.0093169,-0.00080071,0,0,0.052422,-0.020123,0,-0.0041637,0,0,0,0.029502,0.0015543,0.0093169,-1.6424,0.013458,0.024988,5.4833e-07,0.42,0.77,0
0.022054,-0.0060353,0.029338,0.0015599,0.0092694,-0.0007217,0,0,0.052179,-0.020045,0,-0.0037528,0,0,0,0.029357,0.0015411,0.0092694,-1.4872,0.013389,0.024869,5.404e-07,0.43,0.77,0
0.022575,-0.0060205,0.029191,0.0015349,0.0092179,-0.00064065,0,0,0.051931,-0.019976,0,-0.0033314,0,0,0,0.029206,0.0015201,0.0092179,-1.3263,0.013315,0.024752,5.3243e-07,0.44,0.77,0
0.023093,-0.0059979,0.029039,0.0014995,0.0091616,-0.00055773,0,0,0.051682,-0.019922,0,-0.0029002,0,0,0,0.02905,0.0014882,0.0091616,-1.1597,0.013233,0.024639,5.2449e-07,0.45,0.77,0
0.023609,-0.0059677,0.028882,0.0014505,0.0090998,-0.00047345,0,0,0.051434,-0.019888,0,-0.0024619,0,0,0,0.02889,0.0014424,0.0090998,-0.98849,0.013144,0.024532,5.1669e-07,0.46,0.77,0
0.024122,-0.0059297,0.02872,0.001385,0.0090315,-0.00038867,0,0,0.05119,-0.019881,0,-0.0020211,0,0,0,0.028726,0.0013794,0.0090315,-0.81444,0.013046,0.024436,5.0912e-07,0.47,0.77,0
0.024632,-0.0058843,0.028554,0.0012997,0.0089561,-0.0003047,0,0,0.050955,-0.019907,0,-0.0015845,0,0,0,0.028558,0.0012963,0.0089561,-0.64046,0.012937,0.024352,5.0185e-07,0.48,0.77,0
0.025141,-0.0058315,0.028384,0.0011918,0.0088728,-0.00022337,0,0,0.050729,-0.01997,0,-0.0011615,0,0,0,0.028386,0.00119,0.0088728,-0.47062,0.012816,0.024284,4.9494e-07,0.49,0.77,0
0.025647,-0.0057718,0.02821,0.0010591,0.0087807,-0.00014701,0,0,0.050516,-0.020076,0,-0.00076444,0,0,0,0.028211,0.0010583,0.0087807,-0.31022,0.012683,0.024232,4.8842e-07,0.5,0.77,0
0.026151,-0.0057055,0.028031,0.0008997,0.0086792,-7.8459e-05,0,0,0.050315,-0.020227,0,-0.00040799,0,0,0,0.028031,0.00089947,0.0086792,-0.16569,0.012537,0.024199,4.8227e-07,0.51,0.77,0
0.026653,-0.0056333,0.027847,0.00071331,0.008568,-2.0947e-05,0,0,0.050125,-0.020422,0,-0.00010892,0,0,0,0.027847,0.0007133,0.008568,-0.044232,0.012376,0.024182,4.7639e-07,0.52,0.77,0
0.027154,-0.0055562,0.027655,0.00050112,0.0084468,2.2257e-05,0,0,0.049941,-0.020659,0,0.00011574,0,0,0,0.027655,0.0005011,0.0084468,0.046963,0.012201,0.024181,4.7065e-07,0.53,0.77,0
0.027652,-0.005475,0.027453,0.00026636,0.008316,4.8398e-05,0,0,0.049758,-0.020929,0,0.00025167,0,0,0,0.027454,0.00026628,0.008316,0.102,0.012012,0.024189,4.6479e-07,0.54,0.77,0
0.028149,-0.005391,0.02724,1.43e-05,0.0081762,5.5934e-05,0,0,0.049565,-0.021221,0,0.00029086,0,0,0,0.02724,1.4185e-05,0.0081762,0.11771,0.01181,0.0242,4.5859e-07,0.55,0.77,0
0.028643,-0.0053055,0.027012,-0.00024908,0.0080288,4.4926e-05,0,0,0.049355,-0.021522,0,0.00023361,0,0,0,0.027012,-0.00024915,0.0080288,0.094423,0.011597,0.024208,4.5179e-07,0.56,0.77,0
0.029136,-0.00522,0.026768,-0.0005181,0.0078749,1.6378e-05,0,0,0.049121,-0.021822,0,8.5165e-05,0,0,0,0.026768,-0.00051811,0.0078749,0.034391,0.011375,0.024206,4.4426e-07,0.57,0.77,0
0.029626,-0.005136,0.026507,-0.00078742,0.0077158,-2.8387e-05,0,0,0.048857,-0.022108,0,-0.00014761,0,0,0,0.026507,-0.00078745,0.0077158,-0.059589,0.011145,0.024191,4.3585e-07,0.58,0.77,0
0.030113,-0.0050553,0.026229,-0.0010476,0.0075544,-8.7636e-05,0,0,0.048554,-0.022365,0,-0.0004557,0,0,0,0.026229,-0.0010479,0.0075544,-0.18408,0.010912,0.024154,4.2647e-07,0.59,0.77,0
0.030597,-0.0049794,0.025936,-0.001286,0.0073951,-0.00015586,0,0,0.048207,-0.022571,0,-0.00081049,0,0,0,0.025937,-0.0012869,0.0073951,-0.32804,0.010682,0.024087,4.161e-07,0.6,0.77,0
0.031077,-0.0049099,0.025635,-0.0014915,0.007243,-0.00022482,0,0,0.047819,-0.02271,0,-0.001169,0,0,0,0.025637,-0.0014934,0.007243,-0.47481,0.010462,0.023987,4.0493e-07,0.61,0.77,0
0.031553,-0.0048482,0.02533,-0.0016652,0.0070996,-0.00028591,0,0,0.0474,-0.022788,0,-0.0014867,0,0,0,0.025333,-0.0016682,0.0070996,-0.60673,0.010255,0.023858,3.9333e-07,0.62,0.77,0
0.032025,-0.0047954,0.025029,-0.0018066,0.0069668,-0.00033653,0,0,0.046962,-0.022811,0,-0.00175,0,0,0,0.025034,-0.0018109,0.0069668,-0.71836,0.010063,0.023707,3.8163e-07,0.63,0.77,0
0.032492,-0.0047525,0.024742,-0.0019009,0.0068523,-0.00036896,0,0,0.046513,-0.022758,0,-0.0019186,0,0,0,0.024747,-0.001906,0.0068523,-0.79326,0.0098977,0.02353,3.7011e-07,0.64,0.77,0
0.032955,-0.0047198,0.024488,-0.001938,0.006765,-0.00036897,0,0,0.04608,-0.022628,0,-0.0019187,0,0,0,0.024493,-0.0019432,0.006765,-0.79978,0.0097717,0.023335,3.5953e-07,0.65,0.77,0
0.033414,-0.0046971,0.024283,-0.001956,0.006698,-0.00032487,0,0,0.04572,-0.0225,0,-0.0016893,0,0,0,0.024287,-0.00196,0.006698,-0.70925,0.0096749,0.023165,3.5091e-07,0.66,0.77,0
0.03387,-0.004684,0.02414,-0.0019976,0.0066427,-0.00025798,0,0,0.045492,-0.022465,0,-0.0013415,0,0,0,0.024142,-0.0020001,0.0066427,-0.56545,0.0095949,0.023069,3.4528e-07,0.67,0.77,0
0.034324,-0.004681,0.024058,-0.0020603,0.0065993,-0.00019377,0,0,0.045392,-0.022515,0,-0.0010076,0,0,0,0.024059,-0.0020618,0.0065993,-0.42504,0.0095323,0.023045,3.4252e-07,0.68,0.77,0
0.034778,-0.0046889,0.024049,-0.0020707,0.0065936,-0.00014477,0,0,0.045385,-0.022527,0,-0.00075283,0,0,0,0.02405,-0.0020715,0.0065936,-0.31756,0.0095241,0.023045,3.4225e-07,0.69,0.77,0
0.035232,-0.0047079,0.024115,-0.0020267,0.0066264,-8.3081e-05,0,0,0.045469,-0.022498,0,-0.00043202,0,0,0,0.024115,-0.002027,0.0066264,-0.18209,0.0095714,0.023067,3.4444e-07,0.7,0.77,0
0.035687,-0.0047371,0.024241,-0.0020017,0.0066718,-2.0008e-05,0,0,0.04568,-0.022551,0,-0.00010404,0,0,0,0.024241,-0.0020017,0.0066718,-0.043683,0.0096371,0.023158,3.4947e-07,0.71,0.77,0
0.036145,-0.0047762,0.02443,-0.0020004,0.006729,1.926e-05,0,0,0.046024,-0.022696,0,0.00010015,0,0,0,0.02443,-0.0020004,0.006729,0.041751,0.0097197,0.023325,3.5751e-07,0.72,0.77,0
0.036607,-0.0048255,0.024669,-0.0019808,0.0068064,1.2537e-05,0,0,0.046442,-0.022847,0,6.5193e-05,0,0,0,0.024669,-0.0019808,0.0068064,0.026954,0.0098315,0.023521,3.6761e-07,0.73,0.77,0
0.037074,-0.0048855,0.024942,-0.001904,0.0069114,-2.9526e-05,0,0,0.046879,-0.02292,0,-0.00015353,0,0,0,0.024942,-0.001904,0.0069114,-0.063015,0.0099831,0.023701,3.7871e-07,0.74,0.77,0
0.037545,-0.0049559,0.025229,-0.0017782,0.0070352,-9.2942e-05,0,0,0.047304,-0.022915,0,-0.0004833,0,0,0,0.025229,-0.0017785,0.0070352,-0.19717,0.010162,0.023855,3.9004e-07,0.75,0.77,0
0.03802,-0.0050358,0.025519,-0.0016177,0.0071705,-0.00016985,0,0,0.047707,-0.022849,0,-0.0008832,0,0,0,0.02552,-0.0016187,0.0071705,-0.35859,0.010357,0.023984,4.0126e-07,0.76,0.77,0
0.038499,-0.0051242,0.025806,-0.0014226,0.007315,-0.00025745,0,0,0.048076,-0.022718,0,-0.0013387,0,0,0,0.025808,-0.001425,0.007315,-0.54168,0.010566,0.024084,4.12e-07,0.77,0.77,0
0.038982,-0.0052198,0.026082,-0.0011912,0.0074674,-0.00034699,0,0,0.048399,-0.022512,0,-0.0018043,0,0,0,0.026087,-0.0011956,0.0074674,-0.72879,0.010786,0.024146,4.2187e-07,0.78,0.77,0
0.039467,-0.0053211,0.026343,-0.00093412,0.0076226,-0.00042982,0,0,0.048672,-0.022247,0,-0.0022351,0,0,0,0.02635,-0.00094089,0.0076226,-0.90256,0.01101,0.024174,4.3062e-07,0.79,0.77,0
0.039955,-0.0054265,0.026584,-0.000664,0.0077761,-0.00049995,0,0,0.048901,-0.021944,0,-0.0025998,0,0,0,0.026593,-0.00067317,0.0077761,-1.0508,0.011232,0.024176,4.3823e-07,0.8,0.77,0
0.040445,-0.0055343,0.026806,-0.00039044,0.0079248,-0.00055517,0,0,0.049092,-0.02162,0,-0.0028869,0,0,0,0.026818,-0.00040177,0.0079248,-1.1689,0.011447,0.024158,4.4477e-07,0.81,0.77,0
0.040937,-0.005643,0.02701,-0.00011917,0.0080674,-0.00059374,0,0,0.049252,-0.021285,0,-0.0030875,0,0,0,0.027023,-0.00013216,0.0080674,-1.2531,0.011653,0.024125,4.5033e-07,0.82,0.77,0
0.04143,-0.0057511,0.027198,0.00014367,0.0082024,-0.00061437,0,0,0.049388,-0.020953,0,-0.0031947,0,0,0,0.027212,0.00012973,0.0082024,-1.3002,0.011848,0.024083,4.5507e-07,0.83,0.77,0
0.041925,-0.0058572,0.02737,0.00039152,0.0083284,-0.00061677,0,0,0.049508,-0.020636,0,-0.0032072,0,0,0,0.027384,0.00037743,0.0083284,-1.309,0.01203,0.024038,4.5918e-07,0.84,0.77,0
0.04242,-0.00596,0.02753,0.00061849,0.0084445,-0.00060239,0,0,0.049622,-0.020348,0,-0.0031324,0,0,0,0.027543,0.00060501,0.0084445,-1.2817,0.012198,0.023999,4.6293e-07,0.85,0.77,0
0.042917,-0.0060585,0.027679,0.00082069,0.00855,-0.000574,0,0,0.049736,-0.020096,0,-0.0029848,0,0,0,0.027692,0.00080843,0.00855,-1.2237,0.01235,0.023969,4.6653e-07,0.86,0.77,0
0.043415,-0.0061519,0.027821,0.00099633,0.0086451,-0.00053499,0,0,0.049856,-0.019887,0,-0.002782,0,0,0,0.027831,0.00098567,0.0086451,-1.1421,0.012487,0.023953,4.7015e-07,0.87,0.77,0
0.043914,-0.0062393,0.027954,0.0011453,0.0087299,-0.00048879,0,0,0.049983,-0.01972,0,-0.0025417,0,0,0,0.027963,0.0011364,0.0087299,-1.0442,0.01261,0.02395,4.7389e-07,0.88,0.77,0
0.044415,-0.0063203,0.02808,0.001269,0.0088048,-0.00043846,0,0,0.050117,-0.019593,0,-0.00228,0,0,0,0.028088,0.0012618,0.0088048,-0.93665,0.012718,0.023962,4.7775e-07,0.89,0.77,0
0.044917,-0.0063946,0.028199,0.0013692,0.0088705,-0.00038658,0,0,0.050255,-0.019503,0,-0.0020102,0,0,0,0.028205,0.0013637,0.0088705,-0.82532,0.012813,0.023985,4.8172e-07,0.9,0.77,0
0.04542,-0.0064619,0.02831,0.0014487,0.0089276,-0.00033517,0,0,0.050394,-0.019445,0,-0.0017429,0,0,0,0.028314,0.0014445,0.0089276,-0.71477,0.012895,0.024019,4.8573e-07,0.91,0.77,0
0.045924,-0.0065221,0.028412,0.0015103,0.0089766,-0.00028569,0,0,0.050531,-0.019412,0,-0.0014856,0,0,0,0.028415,0.0015072,0.0089766,-0.60838,0.012966,0.024059,4.8969e-07,0.92,0.77,0
0.04643,-0.006575,0.028504,0.0015567,0.0090182,-0.00023913,0,0,0.050663,-0.0194,0,-0.0012434,0,0,0,0.028506,0.0015546,0.0090182,-0.50838,0.013026,0.024103,4.935e-07,0.93,0.77,0
0.046938,-0.0066208,0.028586,0.0015908,0.009053,-0.00019601,0,0,0.050785,-0.019402,0,-0.0010193,0,0,0,0.028587,0.0015894,0.009053,-0.416,0.013076,0.024147,4.9707e-07,0.94,0.77,0
0.047446,-0.0066594,0.028657,0.0016151,0.0090815,-0.0001565,0,0,0.050895,-0.019413,0,-0.00081382,0,0,0,0.028657,0.0016141,0.0090815,-0.33159,0.013118,0.02419,5.0028e-07,0.95,0.77,0
0.047956,-0.0066908,0.028715,0.0016317,0.0091042,-0.00012045,0,0,0.050989,-0.019428,0,-0.00062632,0,0,0,0.028716,0.0016312,0.0091042,-0.2548,0.01315,0.024229,5.0304e-07,0.96,0.77,0
0.048466,-0.0067152,0.028762,0.0016427,0.0091214,-8.7431e-05,0,0,0.051065,-0.019444,0,-0.00045464,0,0,0,0.028762,0.0016424,0.0091214,-0.18472,0.013175,0.024261,5.0528e-07,0.97,0.77,0
0.048977,-0.0067326,0.028795,0.0016495,0.0091334,-5.6861e-05,0,0,0.051121,-0.019458,0,-0.00029568,0,0,0,0.028795,0.0016493,0.0091334,-0.12001,0.013193,0.024285,5.0693e-07,0.98,0.77,0
0.049488,-0.006743,0.028816,0.0016531,0.0091406,-2.7993e-05,0,0,0.051155,-0.019467,0,-0.00014557,0,0,0,0.028816,0.0016531,0.0091406,-0.059048,0.013203,0.0243,5.0793e-07,0.99,0.77,0
0.05,-0.0067465,0.028822,0.0016542,0.009143,-6.6659e-05,0,0,0.051166,-0.019471,0,-0.00034663,0,0,0,0.028823,0.0016541,0.009143,-0.14058,0.013206,0.024305,5.0828e-07,1,0.77,0
0,0,0.028448,0.012192,0.012192,-0.0050033,0,0,0.042266,-1.0842e-19,0,-0.026017,0,0,0,0.029865,0.010776,0.012192,-15.807,0.017611,0.018422,3.1469e-07,0,0.78,0
0.00042266,-0.00026017,0.0284,0.011608,0.012002,-0.0049988,0,0,0.042635,-0.0010266,0,-0.025994,0,0,0,0.029776,0.010232,0.012002,-15.384,0.017337,0.018721,3.2687e-07,0.01,0.78,0
0.0008527,-0.00051981,0.028598,0.011114,0.011914,-0.004983,0,0,0.043379,-0.002078,0,-0.025912,0,0,0,0.029918,0.0097939,0.011914,-14.842,0.017209,0.019153,3.4598e-07,0.02,0.78,0
0.0012902,-0.00077852,0.028795,0.010611,0.011822,-0.0049561,0,0,0.044131,-0.0031481,0,-0.025772,0,0,0,0.030058,0.009348,0.011822,-14.298,0.017076,0.019591,3.655e-07,0.03,0.78,0
0.0017353,-0.0010359,0.028991,0.010101,0.011728,-0.0049165,0,0,0.044885,-0.0042293,0,-0.025566,0,0,0,0.030194,0.0088979,0.011728,-13.749,0.01694,0.020032,3.8521e-07,0.04,0.78,0
0.0021879,-0.0012913,0.029184,0.0095876,0.011631,-0.0048629,0,0,0.045636,-0.0053137,0,-0.025287,0,0,0,0.030324,0.0084472,0.011631,-13.198,0.016801,0.020471,4.0491e-07,0.05,0.78,0
0.002648,-0.0015441,0.02937,0.0090748,0.011534,-0.0047947,0,0,0.046376,-0.0063927,0,-0.024932,0,0,0,0.030446,0.0079991,0.011534,-12.645,0.01666,0.020905,4.2436e-07,0.06,0.78,0
0.0031155,-0.0017939,0.02955,0.0085664,0.011435,-0.004712,0,0,0.047099,-0.007458,0,-0.024502,0,0,0,0.030559,0.0075568,0.011435,-12.093,0.016517,0.02133,4.4337e-07,0.07,0.78,0
0.00359,-0.00204,0.02972,0.0080659,0.011336,-0.0046153,0,0,0.047799,-0.0085016,0,-0.023999,0,0,0,0.030663,0.0071233,0.011336,-11.543,0.016374,0.021741,4.6174e-07,0.08,0.78,0
0.0040714,-0.0022817,0.02988,0.0075768,0.011237,-0.0045054,0,0,0.048471,-0.0095163,0,-0.023428,0,0,0,0.030755,0.0067011,0.011237,-11,0.016231,0.022138,4.7931e-07,0.09,0.78,0
0.0045594,-0.0025186,0.030027,0.007102,0.011139,-0.0043838,0,0,0.04911,-0.010496,0,-0.022796,0,0,0,0.030837,0.0062923,0.011139,-10.464,0.016089,0.022516,4.9594e-07,0.1,0.78,0
0.0050536,-0.0027499,0.030162,0.0066439,0.011042,-0.004252,0,0,0.049712,-0.011434,0,-0.022111,0,0,0,0.030907,0.0058988,0.011042,-9.94,0.015949,0.022874,5.1152e-07,0.11,0.78,0
0.0055537,-0.0029754,0.030283,0.0062048,0.010946,-0.0041118,0,0,0.050275,-0.012328,0,-0.021381,0,0,0,0.030966,0.005522,0.010946,-9.4284,0.015811,0.023212,5.2598e-07,0.12,0.78,0
0.0060591,-0.0031944,0.03039,0.005786,0.010853,-0.0039649,0,0,0.050797,-0.013174,0,-0.020618,0,0,0,0.031013,0.0051629,0.010853,-8.932,0.015676,0.023527,5.3926e-07,0.13,0.78,0
0.0065696,-0.0034067,0.030483,0.0053889,0.010762,-0.0038132,0,0,0.051276,-0.013969,0,-0.019829,0,0,0,0.03105,0.0048222,0.010762,-8.4522,0.015545,0.02382,5.5135e-07,0.14,0.78,0
0.0070846,-0.0036119,0.030563,0.0050141,0.010673,-0.0036584,0,0,0.051713,-0.014713,0,-0.019024,0,0,0,0.031076,0.0045005,0.010673,-7.9905,0.015417,0.02409,5.6223e-07,0.15,0.78,0
0.0076039,-0.0038098,0.030629,0.0046619,0.010587,-0.0035021,0,0,0.052108,-0.015406,0,-0.018211,0,0,0,0.031093,0.0041979,0.010587,-7.5478,0.015293,0.024338,5.7192e-07,0.16,0.78,0
0.0081268,-0.0040001,0.030682,0.0043326,0.010504,-0.0033458,0,0,0.052462,-0.016047,0,-0.017398,0,0,0,0.0311,0.0039144,0.010504,-7.1248,0.015173,0.024563,5.8045e-07,0.17,0.78,0
0.0086531,-0.0041827,0.030723,0.0040259,0.010425,-0.0031908,0,0,0.052775,-0.016636,0,-0.016592,0,0,0,0.031099,0.0036498,0.010425,-6.7219,0.015058,0.024767,5.8786e-07,0.18,0.78,0
0.0091823,-0.0043574,0.030752,0.0037414,0.010348,-0.0030382,0,0,0.05305,-0.017177,0,-0.015799,0,0,0,0.031089,0.0034039,0.010348,-6.3393,0.014947,0.024949,5.9418e-07,0.19,0.78,0
0.0097141,-0.0045242,0.03077,0.0034787,0.010275,-0.0028889,0,0,0.053288,-0.017669,0,-0.015022,0,0,0,0.031072,0.0031762,0.010275,-5.9768,0.014841,0.025111,5.9947e-07,0.2,0.78,0
0.010248,-0.0046831,0.030778,0.003237,0.010204,-0.0027437,0,0,0.05349,-0.018115,0,-0.014267,0,0,0,0.031048,0.0029663,0.010204,-5.6342,0.01474,0.025253,6.0378e-07,0.21,0.78,0
0.010784,-0.004834,0.030776,0.0030156,0.010137,-0.0026031,0,0,0.05366,-0.018517,0,-0.013536,0,0,0,0.031018,0.0027737,0.010137,-5.311,0.014643,0.025377,6.0716e-07,0.22,0.78,0
0.011321,-0.004977,0.030765,0.0028139,0.010074,-0.0024675,0,0,0.053797,-0.018875,0,-0.012831,0,0,0,0.030981,0.0025977,0.010074,-5.0065,0.014551,0.025482,6.0966e-07,0.23,0.78,0
0.01186,-0.005112,0.030746,0.0026308,0.010013,-0.0023373,0,0,0.053905,-0.019193,0,-0.012154,0,0,0,0.030939,0.0024378,0.010013,-4.7201,0.014463,0.025569,6.1132e-07,0.24,0.78,0
0.012399,-0.0052391,0.030718,0.0024657,0.0099552,-0.0022126,0,0,0.053984,-0.019473,0,-0.011505,0,0,0,0.030891,0.0022934,0.0099552,-4.4508,0.01438,0.02564,6.1219e-07,0.25,0.78,0
0.012939,-0.0053584,0.030684,0.0023176,0.0099004,-0.0020933,0,0,0.054036,-0.019715,0,-0.010885,0,0,0,0.030837,0.002164,0.0099004,-4.1979,0.014301,0.025694,6.1231e-07,0.26,0.78,0
0.01348,-0.0054699,0.030642,0.0021858,0.0098482,-0.0019794,0,0,0.054063,-0.019922,0,-0.010293,0,0,0,0.030779,0.0020487,0.0098482,-3.9602,0.014225,0.025733,6.1171e-07,0.27,0.78,0
0.014021,-0.0055738,0.030593,0.0020693,0.0097987,-0.0018709,0,0,0.054065,-0.020096,0,-0.0097285,0,0,0,0.030715,0.0019471,0.0097987,-3.7367,0.014154,0.025756,6.1043e-07,0.28,0.78,0
0.014561,-0.00567,0.030538,0.0019673,0.0097515,-0.0017673,0,0,0.054044,-0.020239,0,-0.0091898,0,0,0,0.030647,0.0018584,0.0097515,-3.5262,0.014086,0.025765,6.085e-07,0.29,0.78,0
0.015102,-0.0057586,0.030476,0.001879,0.0097065,-0.0016683,0,0,0.054001,-0.020352,0,-0.0086753,0,0,0,0.030573,0.001782,0.0097065,-3.3275,0.01402,0.02576,6.0594e-07,0.3,0.78,0
0.015641,-0.0058398,0.030408,0.0018034,0.0096635,-0.0015737,0,0,0.053936,-0.020436,0,-0.008183,0,0,0,0.030494,0.0017171,0.0096635,-3.1394,0.013958,0.025741,6.0279e-07,0.31,0.78,0
0.01618,-0.0059134,0.030334,0.0017397,0.0096221,-0.0014828,0,0,0.053851,-0.020494,0,-0.0077106,0,0,0,0.030411,0.001663,0.0096221,-2.9606,0.013899,0.025709,5.9906e-07,0.32,0.78,0
0.016718,-0.0059797,0.030254,0.0016868,0.0095821,-0.0013953,0,0,0.053746,-0.020528,0,-0.0072555,0,0,0,0.030322,0.0016188,0.0095821,-2.7896,0.013841,0.025665,5.9479e-07,0.33,0.78,0
0.017255,-0.0060386,0.030167,0.0016438,0.0095433,-0.0013105,0,0,0.053622,-0.020539,0,-0.0068148,0,0,0,0.030227,0.0015837,0.0095433,-2.6251,0.013785,0.025609,5.8999e-07,0.34,0.78,0
0.017791,-0.0060901,0.030075,0.0016095,0.0095053,-0.001228,0,0,0.053481,-0.020529,0,-0.0063857,0,0,0,0.030128,0.0015566,0.0095053,-2.4657,0.01373,0.025542,5.847e-07,0.35,0.78,0
0.018325,-0.0061342,0.029976,0.0015827,0.0094677,-0.0011471,0,0,0.053322,-0.020501,0,-0.0059651,0,0,0,0.030023,0.0015365,0.0094677,-2.3098,0.013676,0.025464,5.7896e-07,0.36,0.78,0
0.018857,-0.006171,0.029872,0.0015622,0.0094302,-0.0010673,0,0,0.053148,-0.020457,0,-0.0055497,0,0,0,0.029912,0.001522,0.0094302,-2.1559,0.013621,0.025377,5.7278e-07,0.37,0.78,0
0.019388,-0.0062004,0.029761,0.0015465,0.0093922,-0.00098781,0,0,0.052959,-0.020399,0,-0.0051366,0,0,0,0.029796,0.0015119,0.0093922,-2.0027,0.013567,0.025282,5.6623e-07,0.38,0.78,0
0.019917,-0.0062224,0.029644,0.001534,0.0093535,-0.00090823,0,0,0.052756,-0.020331,0,-0.0047228,0,0,0,0.029674,0.0015046,0.0093535,-1.8486,0.013511,0.02518,5.5934e-07,0.39,0.78,0
0.020443,-0.006237,0.029522,0.0015229,0.0093135,-0.00082798,0,0,0.052542,-0.020256,0,-0.0043055,0,0,0,0.029546,0.0014984,0.0093135,-1.6924,0.013453,0.025071,5.5217e-07,0.4,0.78,0
0.020967,-0.006244,0.029394,0.0015112,0.0092716,-0.00074663,0,0,0.052318,-0.020177,0,-0.0038825,0,0,0,0.029414,0.0014912,0.0092716,-1.5328,0.013392,0.024959,5.4479e-07,0.41,0.78,0
0.021489,-0.0062436,0.029261,0.0014969,0.0092273,-0.00066382,0,0,0.052087,-0.020099,0,-0.0034518,0,0,0,0.029277,0.001481,0.0092273,-1.3689,0.013328,0.024845,5.3726e-07,0.42,0.78,0
0.022009,-0.0062356,0.029122,0.0014776,0.00918,-0.00057936,0,0,0.05185,-0.020026,0,-0.0030126,0,0,0,0.029134,0.0014655,0.00918,-1.2001,0.01326,0.024731,5.2966e-07,0.43,0.78,0
0.022526,-0.0062201,0.028979,0.0014508,0.009129,-0.00049324,0,0,0.051611,-0.019963,0,-0.0025649,0,0,0,0.028988,0.001442,0.009129,-1.0262,0.013186,0.02462,5.2208e-07,0.44,0.78,0
0.023041,-0.006197,0.028832,0.0014139,0.0090738,-0.00040571,0,0,0.051371,-0.019916,0,-0.0021097,0,0,0,0.028838,0.0014079,0.0090738,-0.84756,0.013107,0.024513,5.146e-07,0.45,0.78,0
0.023554,-0.0061665,0.028681,0.0013641,0.0090135,-0.00031727,0,0,0.051135,-0.019888,0,-0.0016498,0,0,0,0.028685,0.0013604,0.0090135,-0.66534,0.013019,0.024414,5.073e-07,0.46,0.78,0
0.024064,-0.0061285,0.028527,0.0012988,0.0089476,-0.00022878,0,0,0.050905,-0.019887,0,-0.0011896,0,0,0,0.028528,0.0012969,0.0089476,-0.48138,0.012924,0.024326,5.0028e-07,0.47,0.78,0
0.024572,-0.0060834,0.028369,0.0012152,0.0088754,-0.00014148,0,0,0.050684,-0.019916,0,-0.00073571,0,0,0,0.02837,0.0012145,0.0088754,-0.29852,0.01282,0.02425,4.9359e-07,0.48,0.78,0
0.025078,-0.0060312,0.02821,0.0011111,0.0087962,-5.7025e-05,0,0,0.050475,-0.019981,0,-0.00029653,0,0,0,0.02821,0.001111,0.0087962,-0.12057,0.012706,0.02419,4.8728e-07,0.49,0.78,0
0.025581,-0.0059725,0.028047,0.00098453,0.0087096,2.2527e-05,0,0,0.050279,-0.020085,0,0.00011714,0,0,0,0.028047,0.00098452,0.0087096,0.047691,0.012581,0.024146,4.8138e-07,0.5,0.78,0
0.026083,-0.0059077,0.027883,0.00083426,0.0086151,9.475e-05,0,0,0.050096,-0.02023,0,0.0004927,0,0,0,0.027883,0.00083393,0.0086151,0.2007,0.012444,0.024119,4.7588e-07,0.51,0.78,0
0.026583,-0.0058375,0.027715,0.00066013,0.0085124,0.000157,0,0,0.049926,-0.020416,0,0.00081641,0,0,0,0.027716,0.00065921,0.0085124,0.33248,0.012296,0.024109,4.7069e-07,0.52,0.78,0
0.027082,-0.0057626,0.027542,0.00046323,0.0084017,0.00020668,0,0,0.049766,-0.02064,0,0.0010747,0,0,0,0.027544,0.00046165,0.0084017,0.43728,0.012136,0.024113,4.6571e-07,0.53,0.78,0
0.027579,-0.005684,0.027364,0.00024609,0.0082831,0.00024157,0,0,0.049611,-0.020896,0,0.0012562,0,0,0,0.027366,0.00024394,0.0082831,0.51035,0.011964,0.024129,4.6078e-07,0.54,0.78,0
0.028074,-0.0056028,0.027179,1.2463e-05,0.0081575,0.0002602,0,0,0.049457,-0.021177,0,0.001353,0,0,0,0.027182,9.9709e-06,0.0081575,0.5487,0.011783,0.024152,4.5573e-07,0.55,0.78,0
0.028568,-0.0055203,0.026986,-0.00023306,0.0080259,0.00026191,0,0,0.049296,-0.021473,0,0.0013619,0,0,0,0.026988,-0.00023558,0.0080259,0.55124,0.011593,0.024176,4.504e-07,0.56,0.78,0
0.02906,-0.0054379,0.026783,-0.00048546,0.0078894,0.00024677,0,0,0.049125,-0.021775,0,0.0012832,0,0,0,0.026786,-0.00048769,0.0078894,0.51844,0.011396,0.024198,4.4464e-07,0.57,0.78,0
0.02955,-0.0053568,0.026572,-0.00073868,0.0077498,0.00021545,0,0,0.048936,-0.02207,0,0.0011204,0,0,0,0.026573,-0.00074038,0.0077498,0.45198,0.011194,0.024212,4.3834e-07,0.58,0.78,0
0.030039,-0.0052788,0.02635,-0.00098522,0.0076095,0.00016973,0,0,0.048726,-0.022346,0,0.00088258,0,0,0,0.026351,-0.00098628,0.0076095,0.35573,0.010991,0.024213,4.3142e-07,0.59,0.78,0
0.030525,-0.0052052,0.026122,-0.0012163,0.0074716,0.00011293,0,0,0.04849,-0.022589,0,0.00058724,0,0,0,0.026122,-0.0012167,0.0074716,0.23668,0.010792,0.024195,4.2388e-07,0.6,0.78,0
0.031009,-0.0051375,0.025889,-0.0014247,0.0073393,5.0102e-05,0,0,0.048229,-0.022787,0,0.00026053,0,0,0,0.025889,-0.0014248,0.0073393,0.1051,0.010601,0.024155,4.1582e-07,0.61,0.78,0
0.031489,-0.005077,0.025656,-0.001606,0.0072151,-1.3793e-05,0,0,0.047947,-0.022935,0,-7.1724e-05,0,0,0,0.025656,-0.001606,0.0072151,-0.028988,0.010422,0.024095,4.0741e-07,0.62,0.78,0
0.031967,-0.0050248,0.025429,-0.0017554,0.0071021,-7.3504e-05,0,0,0.04765,-0.023029,0,-0.00038222,0,0,0,0.025429,-0.0017556,0.0071021,-0.15492,0.010259,0.024014,3.9889e-07,0.63,0.78,0
0.032442,-0.0049818,0.025216,-0.0018671,0.0070046,-0.00012263,0,0,0.047349,-0.023067,0,-0.00063766,0,0,0,0.025216,-0.0018676,0.0070046,-0.25942,0.010118,0.023916,3.9062e-07,0.64,0.78,0
0.032914,-0.0049486,0.025028,-0.0019434,0.0069254,-0.00015333,0,0,0.047067,-0.023059,0,-0.00079731,0,0,0,0.025029,-0.0019443,0.0069254,-0.32571,0.010003,0.023811,3.8311e-07,0.65,0.78,0
0.033384,-0.0049253,0.024877,-0.0019985,0.0068634,-0.00016417,0,0,0.046834,-0.023041,0,-0.00085371,0,0,0,0.024878,-0.0019995,0.0068634,-0.34999,0.0099138,0.023722,3.7704e-07,0.66,0.78,0
0.033851,-0.0049122,0.024768,-0.0020485,0.006816,-0.00016239,0,0,0.046677,-0.023048,0,-0.00084446,0,0,0,0.024769,-0.0020495,0.006816,-0.34695,0.0098453,0.023666,3.7287e-07,0.67,0.78,0
0.034317,-0.0049094,0.024709,-0.0020873,0.0067865,-0.00016085,0,0,0.046598,-0.023072,0,-0.00083641,0,0,0,0.02471,-0.0020883,0.0067865,-0.34391,0.0098027,0.023645,3.7071e-07,0.68,0.78,0
0.034783,-0.0049175,0.024701,-0.0020961,0.0067814,-0.00016138,0,0,0.04659,-0.023082,0,-0.00083917,0,0,0,0.024702,-0.0020971,0.0067814,-0.34504,0.0097953,0.023645,3.7046e-07,0.69,0.78,0
0.035249,-0.0049364,0.024744,-0.0020741,0.006801,-0.00016198,0,0,0.046652,-0.023075,0,-0.00084228,0,0,0,0.024745,-0.0020751,0.006801,-0.34604,0.0098237,0.023665,3.7211e-07,0.7,0.78,0
0.035716,-0.0049658,0.024836,-0.00204,0.0068389,-0.00016413,0,0,0.046793,-0.023085,0,-0.00085348,0,0,0,0.024837,-0.002041,0.0068389,-0.34988,0.0098783,0.02372,3.7576e-07,0.71,0.78,0
0.036185,-0.0050057,0.024972,-0.0020002,0.0068914,-0.00018056,0,0,0.047009,-0.023118,0,-0.0009389,0,0,0,0.024973,-0.0020015,0.0068914,-0.38353,0.0099543,0.023808,3.8132e-07,0.72,0.78,0
0.036656,-0.0050557,0.025144,-0.001939,0.0069615,-0.00021882,0,0,0.047274,-0.023141,0,-0.0011379,0,0,0,0.025146,-0.0019407,0.0069615,-0.4629,0.010056,0.023912,3.8834e-07,0.73,0.78,0
0.03713,-0.0051159,0.025341,-0.0018416,0.0070499,-0.00027793,0,0,0.047558,-0.023118,0,-0.0014452,0,0,0,0.025344,-0.0018444,0.0070499,-0.58574,0.010183,0.024011,3.9616e-07,0.74,0.78,0
0.037607,-0.0051858,0.025553,-0.0017049,0.0071544,-0.00035028,0,0,0.047836,-0.023034,0,-0.0018215,0,0,0,0.025558,-0.0017094,0.0071544,-0.73612,0.010334,0.024091,4.0422e-07,0.75,0.78,0
0.038087,-0.0052645,0.02577,-0.0015341,0.0072706,-0.00042942,0,0,0.048097,-0.022892,0,-0.002233,0,0,0,0.025776,-0.0015409,0.0072706,-0.90082,0.010502,0.024149,4.1214e-07,0.76,0.78,0
0.038569,-0.0053512,0.025985,-0.0013334,0.0073955,-0.00050994,0,0,0.048333,-0.022695,0,-0.0026517,0,0,0,0.025995,-0.001343,0.0073955,-1.069,0.010682,0.024183,4.1965e-07,0.77,0.78,0
0.039054,-0.0054445,0.026195,-0.0011071,0.0075265,-0.00058661,0,0,0.048539,-0.022447,0,-0.0030504,0,0,0,0.026208,-0.0011197,0.0075265,-1.2303,0.010872,0.024192,4.2653e-07,0.78,0.78,0
0.03954,-0.005543,0.026396,-0.00086177,0.0076603,-0.00065408,0,0,0.048713,-0.022158,0,-0.0034012,0,0,0,0.026412,-0.00087746,0.0076603,-1.3738,0.011065,0.024179,4.3265e-07,0.79,0.78,0
0.040028,-0.0056453,0.026586,-0.00060635,0.0077939,-0.00070861,0,0,0.04886,-0.021841,0,-0.0036848,0,0,0,0.026604,-0.0006248,0.0077939,-1.4917,0.011258,0.024147,4.3799e-07,0.8,0.78,0
0.040517,-0.0057498,0.026764,-0.00034843,0.0079247,-0.00074804,0,0,0.048982,-0.02151,0,-0.0038898,0,0,0,0.026785,-0.00036906,0.0079247,-1.5792,0.011447,0.024102,4.4258e-07,0.81,0.78,0
0.041008,-0.0058551,0.02693,-9.4355e-05,0.0080508,-0.00077138,0,0,0.049087,-0.021177,0,-0.0040112,0,0,0,0.026953,-0.00011635,0.0080508,-1.6336,0.011629,0.024049,4.4652e-07,0.82,0.78,0
0.041499,-0.00596,0.027086,0.00015045,0.0081709,-0.00077828,0,0,0.049179,-0.020853,0,-0.0040471,0,0,0,0.027109,0.00012798,0.0081709,-1.6537,0.011803,0.023992,4.4993e-07,0.83,0.78,0
0.041991,-0.0060629,0.027232,0.00038093,0.0082838,-0.00076922,0,0,0.049265,-0.020547,0,-0.004,0,0,0,0.027254,0.00035891,0.0082838,-1.6396,0.011966,0.023937,4.5297e-07,0.84,0.78,0
0.042484,-0.006163,0.027369,0.00059281,0.0083886,-0.00074559,0,0,0.049349,-0.020269,0,-0.0038771,0,0,0,0.02739,0.00057206,0.0083886,-1.5938,0.012117,0.023889,4.5581e-07,0.85,0.78,0
0.042978,-0.006259,0.027499,0.00078303,0.0084847,-0.0007096,0,0,0.049438,-0.020024,0,-0.0036899,0,0,0,0.027518,0.00076419,0.0084847,-1.5204,0.012256,0.02385,4.5858e-07,0.86,0.78,0
0.043473,-0.0063503,0.027623,0.00095,0.008572,-0.00066394,0,0,0.049534,-0.019817,0,-0.0034525,0,0,0,0.02764,0.00093348,0.008572,-1.425,0.012382,0.023824,4.6142e-07,0.87,0.78,0
0.043969,-0.006436,0.027741,0.0010934,0.0086505,-0.00061139,0,0,0.049637,-0.019648,0,-0.0031792,0,0,0,0.027755,0.0010794,0.0086505,-1.3136,0.012495,0.023811,4.6439e-07,0.88,0.78,0
0.044466,-0.0065158,0.027854,0.0012142,0.0087204,-0.00055454,0,0,0.049747,-0.019516,0,-0.0028836,0,0,0,0.027865,0.0012026,0.0087204,-1.192,0.012596,0.023811,4.675e-07,0.89,0.78,0
0.044964,-0.0065891,0.02796,0.0013138,0.0087821,-0.00049563,0,0,0.049862,-0.019418,0,-0.0025773,0,0,0,0.027969,0.0013045,0.0087821,-1.0652,0.012685,0.023823,4.7074e-07,0.9,0.78,0
0.045463,-0.0066558,0.028059,0.0013942,0.008836,-0.00043648,0,0,0.04998,-0.019349,0,-0.0022697,0,0,0,0.028066,0.0013871,0.008836,-0.93754,0.012763,0.023844,4.7404e-07,0.91,0.78,0
0.045963,-0.0067155,0.028151,0.0014579,0.0088827,-0.00037846,0,0,0.050098,-0.019304,0,-0.001968,0,0,0,0.028157,0.0014525,0.0088827,-0.81212,0.012831,0.023872,4.7733e-07,0.92,0.78,0
0.046465,-0.0067683,0.028234,0.0015072,0.0089225,-0.0003225,0,0,0.050211,-0.01928,0,-0.001677,0,0,0,0.028238,0.0015034,0.0089225,-0.69122,0.012888,0.023905,4.8051e-07,0.93,0.78,0
0.046968,-0.006814,0.028309,0.0015446,0.008956,-0.00026918,0,0,0.050317,-0.01927,0,-0.0013997,0,0,0,0.028311,0.0015419,0.008956,-0.57616,0.012937,0.02394,4.8351e-07,0.94,0.78,0
0.047471,-0.0068527,0.028373,0.0015721,0.0089836,-0.00021871,0,0,0.050413,-0.01927,0,-0.0011373,0,0,0,0.028375,0.0015703,0.0089836,-0.46751,0.012976,0.023973,4.8622e-07,0.95,0.78,0
0.047976,-0.0068842,0.028427,0.0015918,0.0090055,-0.00017103,0,0,0.050495,-0.019276,0,-0.00088935,0,0,0,0.028428,0.0015907,0.0090055,-0.36515,0.013008,0.024005,4.8857e-07,0.96,0.78,0
0.048481,-0.0069087,0.028469,0.0016053,0.0090223,-0.00012585,0,0,0.050562,-0.019284,0,-0.00065444,0,0,0,0.02847,0.0016048,0.0090223,-0.26842,0.013032,0.024031,4.9048e-07,0.97,0.78,0
0.048987,-0.0069262,0.0285,0.001614,0.0090341,-8.2708e-05,0,0,0.05061,-0.019292,0,-0.00043008,0,0,0,0.0285,0.0016138,0.0090341,-0.17626,0.013049,0.02405,4.9188e-07,0.98,0.78,0
0.049494,-0.0069367,0.028518,0.0016189,0.0090411,-4.0987e-05,0,0,0.05064,-0.019298,0,-0.00021313,0,0,0,0.028518,0.0016188,0.0090411,-0.087303,0.013059,0.024063,4.9275e-07,0.99,0.78,0
0.05,-0.0069402,0.028524,0.0016204,0.0090434,-6.7159e-05,0,0,0.05065,-0.0193,0,-0.00034923,0,0,0,0.028525,0.0016202,0.0090434,-0.14302,0.013063,0.024067,4.9305e-07,1,0.78,0
0,0,0.02845,0.012193,0.012193,-0.0052023,0,0,0.042269,5.421e-20,0,-0.027052,0,0,0,0.029972,0.010671,0.012193,-16.309,0.017612,0.018587,3.2237e-07,0,0.79,0
0.00042269,-0.00027052,0.028402,0.011598,0.012,-0.0051977,0,0,0.042645,-0.0010445,0,-0.027028,0,0,0,0.02988,0.010121,0.012,-15.871,0.017334,0.01889,3.3465e-07,0.01,0.79,0
0.0008529,-0.00054077,0.028603,0.011094,0.011909,-0.0051833,0,0,0.043404,-0.0021189,0,-0.026953,0,0,0,0.030022,0.0096746,0.011909,-15.315,0.017202,0.019327,3.5415e-07,0.02,0.79,0
0.0012908,-0.00081031,0.028804,0.010578,0.011814,-0.0051559,0,0,0.044172,-0.0032159,0,-0.026811,0,0,0,0.030161,0.00922,0.011814,-14.75,0.017065,0.019772,3.7405e-07,0.03,0.79,0
0.0017364,-0.0010786,0.029003,0.010053,0.011717,-0.0051136,0,0,0.044945,-0.0043269,0,-0.026591,0,0,0,0.030295,0.0087607,0.011717,-14.177,0.016924,0.020219,3.941e-07,0.04,0.79,0
0.0021897,-0.001345,0.029198,0.0095235,0.011617,-0.0050551,0,0,0.045713,-0.0054421,0,-0.026287,0,0,0,0.030421,0.0083007,0.011617,-13.598,0.016779,0.020663,4.1406e-07,0.05,0.79,0
0.0026506,-0.0016088,0.029388,0.0089948,0.011515,-0.0049799,0,0,0.046469,-0.0065517,0,-0.025895,0,0,0,0.030539,0.0078437,0.011515,-13.015,0.016632,0.0211,4.3367e-07,0.06,0.79,0
0.003119,-0.0018694,0.029568,0.0084709,0.011412,-0.0048881,0,0,0.047207,-0.0076461,0,-0.025418,0,0,0,0.030646,0.0073934,0.011412,-12.431,0.016484,0.021526,4.5271e-07,0.07,0.79,0
0.0035947,-0.002126,0.029738,0.0079559,0.011308,-0.0047805,0,0,0.047918,-0.008716,0,-0.024859,0,0,0,0.030741,0.0069529,0.011308,-11.849,0.016334,0.021937,4.7098e-07,0.08,0.79,0
0.0040774,-0.002378,0.029896,0.0074535,0.011205,-0.0046583,0,0,0.048597,-0.0097534,0,-0.024223,0,0,0,0.030824,0.006525,0.011205,-11.273,0.016185,0.02233,4.8829e-07,0.09,0.79,0
0.0045667,-0.0026247,0.03004,0.0069672,0.011102,-0.0045233,0,0,0.049239,-0.010751,0,-0.023521,0,0,0,0.030895,0.0061121,0.011102,-10.705,0.016037,0.022703,5.0452e-07,0.1,0.79,0
0.0050622,-0.0028655,0.03017,0.0064995,0.011001,-0.0043773,0,0,0.04984,-0.011704,0,-0.022762,0,0,0,0.030954,0.005716,0.011001,-10.149,0.01589,0.023054,5.1955e-07,0.11,0.79,0
0.0055635,-0.0031,0.030285,0.0060527,0.010901,-0.0042224,0,0,0.050398,-0.012606,0,-0.021957,0,0,0,0.031,0.0053381,0.010901,-9.6066,0.015746,0.023382,5.3334e-07,0.12,0.79,0
0.0060701,-0.0033275,0.030385,0.0056284,0.010804,-0.0040609,0,0,0.05091,-0.013456,0,-0.021116,0,0,0,0.031034,0.0049793,0.010804,-9.0815,0.015606,0.023686,5.4584e-07,0.13,0.79,0
0.0065817,-0.0035477,0.030469,0.0052275,0.010709,-0.0038946,0,0,0.051377,-0.014252,0,-0.020252,0,0,0,0.031057,0.0046403,0.010709,-8.5747,0.015469,0.023965,5.5704e-07,0.14,0.79,0
0.0070977,-0.0037604,0.030539,0.0048508,0.010617,-0.0037257,0,0,0.051798,-0.014992,0,-0.019374,0,0,0,0.031069,0.0043213,0.010617,-8.0879,0.015336,0.024221,5.6696e-07,0.15,0.79,0
0.0076176,-0.0039651,0.030595,0.0044983,0.010528,-0.0035558,0,0,0.052174,-0.015677,0,-0.01849,0,0,0,0.031071,0.0040225,0.010528,-7.6219,0.015207,0.024453,5.7563e-07,0.16,0.79,0
0.0081411,-0.0041618,0.030637,0.0041702,0.010442,-0.0033866,0,0,0.052507,-0.016307,0,-0.017611,0,0,0,0.031064,0.0037437,0.010442,-7.1774,0.015083,0.024663,5.831e-07,0.17,0.79,0
0.0086678,-0.0043502,0.030666,0.0038658,0.01036,-0.0032195,0,0,0.052797,-0.016884,0,-0.016741,0,0,0,0.031048,0.0034845,0.01036,-6.7547,0.014964,0.02485,5.8943e-07,0.18,0.79,0
0.0091971,-0.0045303,0.030684,0.0035847,0.010281,-0.0030555,0,0,0.053049,-0.017409,0,-0.015888,0,0,0,0.031024,0.0032444,0.010281,-6.3539,0.01485,0.025015,5.9467e-07,0.19,0.79,0
0.0097287,-0.004702,0.03069,0.0033261,0.010205,-0.0028955,0,0,0.053262,-0.017885,0,-0.015057,0,0,0,0.030993,0.0030231,0.010205,-5.9746,0.01474,0.02516,5.9889e-07,0.2,0.79,0
0.010262,-0.0048652,0.030686,0.0030892,0.010133,-0.0027404,0,0,0.05344,-0.018313,0,-0.01425,0,0,0,0.030956,0.0028197,0.010133,-5.6164,0.014636,0.025286,6.0215e-07,0.21,0.79,0
0.010797,-0.00502,0.030673,0.0028731,0.010064,-0.0025907,0,0,0.053584,-0.018696,0,-0.013472,0,0,0,0.030913,0.0026338,0.010064,-5.2788,0.014537,0.025393,6.0451e-07,0.22,0.79,0
0.011334,-0.0051665,0.030651,0.0026769,0.0099985,-0.0024466,0,0,0.053697,-0.019036,0,-0.012722,0,0,0,0.030864,0.0024646,0.0099985,-4.9608,0.014442,0.025482,6.0603e-07,0.23,0.79,0
0.011872,-0.0053046,0.030621,0.0024996,0.0099363,-0.0023085,0,0,0.053781,-0.019335,0,-0.012004,0,0,0,0.03081,0.0023114,0.0099363,-4.6617,0.014352,0.025554,6.0676e-07,0.24,0.79,0
0.01241,-0.0054344,0.030584,0.0023403,0.0098772,-0.0021763,0,0,0.053837,-0.019596,0,-0.011317,0,0,0,0.030751,0.0021736,0.0098772,-4.3804,0.014267,0.025609,6.0675e-07,0.25,0.79,0
0.012948,-0.005556,0.030539,0.0021979,0.0098211,-0.00205,0,0,0.053867,-0.01982,0,-0.01066,0,0,0,0.030687,0.0020504,0.0098211,-4.1159,0.014186,0.02565,6.0605e-07,0.26,0.79,0
0.013487,-0.0056696,0.030488,0.0020716,0.0097679,-0.0019296,0,0,0.053873,-0.02001,0,-0.010034,0,0,0,0.030619,0.0019412,0.0097679,-3.8669,0.014109,0.025675,6.0469e-07,0.27,0.79,0
0.014026,-0.0057751,0.030431,0.0019604,0.0097174,-0.0018146,0,0,0.053855,-0.020168,0,-0.009436,0,0,0,0.030546,0.0018452,0.0097174,-3.6323,0.014036,0.025686,6.0271e-07,0.28,0.79,0
0.014564,-0.0058726,0.030367,0.0018634,0.0096693,-0.0017049,0,0,0.053815,-0.020295,0,-0.0088655,0,0,0,0.030469,0.0017618,0.0096693,-3.4108,0.013967,0.025683,6.0014e-07,0.29,0.79,0
0.015102,-0.0059623,0.030298,0.0017796,0.0096234,-0.0016,0,0,0.053755,-0.020394,0,-0.00832,0,0,0,0.030388,0.0016902,0.0096234,-3.2011,0.0139,0.025668,5.9702e-07,0.3,0.79,0
0.015639,-0.0060443,0.030224,0.0017082,0.0095796,-0.0014995,0,0,0.053675,-0.020466,0,-0.0077973,0,0,0,0.030302,0.0016295,0.0095796,-3.0018,0.013837,0.02564,5.9337e-07,0.31,0.79,0
0.016175,-0.0061185,0.030144,0.0016481,0.0095376,-0.0014029,0,0,0.053576,-0.020513,0,-0.0072949,0,0,0,0.030213,0.0015792,0.0095376,-2.8117,0.013777,0.0256,5.8922e-07,0.32,0.79,0
0.016711,-0.006185,0.030058,0.0015983,0.009497,-0.0013096,0,0,0.05346,-0.020537,0,-0.0068101,0,0,0,0.030118,0.0015381,0.009497,-2.6291,0.013718,0.025548,5.846e-07,0.33,0.79,0
0.017245,-0.0062439,0.029968,0.0015578,0.0094576,-0.0012192,0,0,0.053326,-0.020539,0,-0.0063398,0,0,0,0.03002,0.0015056,0.0094576,-2.4528,0.013661,0.025486,5.7953e-07,0.34,0.79,0
0.017777,-0.0062953,0.029871,0.0015254,0.009419,-0.001131,0,0,0.053176,-0.020523,0,-0.0058812,0,0,0,0.029916,0.0014804,0.009419,-2.2813,0.013605,0.025414,5.7405e-07,0.35,0.79,0
0.018308,-0.0063391,0.02977,0.0015,0.009381,-0.0010444,0,0,0.053011,-0.02049,0,-0.0054312,0,0,0,0.029809,0.0014615,0.009381,-2.113,0.01355,0.025333,5.6818e-07,0.36,0.79,0
0.018838,-0.0063755,0.029663,0.0014803,0.0093431,-0.00095898,0,0,0.052833,-0.020443,0,-0.0049867,0,0,0,0.029696,0.0014477,0.0093431,-1.9466,0.013496,0.025244,5.6196e-07,0.37,0.79,0
0.019365,-0.0064043,0.029552,0.0014648,0.009305,-0.00087401,0,0,0.052642,-0.020385,0,-0.0045448,0,0,0,0.029579,0.0014376,0.009305,-1.7806,0.01344,0.025148,5.5545e-07,0.38,0.79,0
0.01989,-0.0064256,0.029435,0.0014519,0.0092661,-0.00078902,0,0,0.05244,-0.020317,0,-0.0041029,0,0,0,0.029458,0.0014297,0.0092661,-1.6138,0.013384,0.025046,5.4867e-07,0.39,0.79,0
0.020414,-0.0064394,0.029314,0.00144,0.0092261,-0.00070354,0,0,0.052228,-0.020244,0,-0.0036584,0,0,0,0.029332,0.0014222,0.0092261,-1.4449,0.013327,0.024941,5.417e-07,0.4,0.79,0
0.020935,-0.0064457,0.029188,0.0014272,0.0091845,-0.00061719,0,0,0.052009,-0.020169,0,-0.0032094,0,0,0,0.029201,0.0014134,0.0091845,-1.273,0.013267,0.024832,5.3458e-07,0.41,0.79,0
0.021454,-0.0064445,0.029057,0.0014114,0.0091407,-0.00052969,0,0,0.051784,-0.020096,0,-0.0027544,0,0,0,0.029068,0.0014013,0.0091407,-1.0972,0.013203,0.024723,5.2739e-07,0.42,0.79,0
0.021971,-0.0064359,0.028923,0.0013906,0.0090942,-0.00044091,0,0,0.051556,-0.020029,0,-0.0022927,0,0,0,0.02893,0.0013836,0.0090942,-0.91722,0.013136,0.024615,5.202e-07,0.43,0.79,0
0.022485,-0.0064197,0.028786,0.0013624,0.0090444,-0.00035092,0,0,0.051327,-0.019973,0,-0.0018248,0,0,0,0.02879,0.001358,0.0090444,-0.73302,0.013064,0.02451,5.1309e-07,0.44,0.79,0
0.022997,-0.0063962,0.028645,0.0013245,0.0089909,-0.00025999,0,0,0.051101,-0.019932,0,-0.001352,0,0,0,0.028647,0.0013221,0.0089909,-0.54518,0.012987,0.024412,5.0613e-07,0.45,0.79,0
0.023507,-0.0063654,0.028502,0.0012744,0.0089329,-0.00016868,0,0,0.050879,-0.019912,0,-0.00087712,0,0,0,0.028503,0.0012734,0.0089329,-0.35494,0.012903,0.024322,4.9941e-07,0.46,0.79,0
0.024015,-0.0063275,0.028357,0.0012098,0.0088699,-7.7814e-05,0,0,0.050666,-0.019916,0,-0.00040463,0,0,0,0.028357,0.0012096,0.0088699,-0.16423,0.012812,0.024243,4.9299e-07,0.47,0.79,0
0.02452,-0.0062826,0.02821,0.0011283,0.0088015,1.1418e-05,0,0,0.050462,-0.01995,0,5.9373e-05,0,0,0,0.02821,0.0011283,0.0088015,0.024157,0.012713,0.024176,4.8693e-07,0.48,0.79,0
0.025024,-0.0062312,0.028062,0.0010281,0.0087271,9.7503e-05,0,0,0.050271,-0.020017,0,0.00050702,0,0,0,0.028063,0.0010278,0.0087271,0.20664,0.012606,0.024125,4.8128e-07,0.49,0.79,0
0.025526,-0.0061735,0.027914,0.00090757,0.0086463,0.0001786,0,0,0.050095,-0.020121,0,0.00092871,0,0,0,0.027915,0.00090639,0.0086463,0.37889,0.012489,0.02409,4.7606e-07,0.5,0.79,0
0.026026,-0.0061101,0.027764,0.0007658,0.0085589,0.0002526,0,0,0.049933,-0.020262,0,0.0013135,0,0,0,0.027766,0.00076343,0.0085589,0.536,0.012363,0.024071,4.7125e-07,0.51,0.79,0
0.026524,-0.0060417,0.027613,0.00060275,0.0084648,0.00031725,0,0,0.049786,-0.020441,0,0.0016497,0,0,0,0.027617,0.00059902,0.0084648,0.67283,0.012227,0.024069,4.668e-07,0.52,0.79,0
0.027022,-0.005969,0.027461,0.00041936,0.008364,0.00037034,0,0,0.049652,-0.020656,0,0.0019258,0,0,0,0.027466,0.00041429,0.008364,0.78449,0.012081,0.024082,4.6264e-07,0.53,0.79,0
0.027517,-0.0058929,0.027306,0.00021763,0.0082571,0.00040992,0,0,0.049527,-0.020903,0,0.0021316,0,0,0,0.027312,0.00021143,0.0082571,0.86678,0.011927,0.024107,4.5864e-07,0.54,0.79,0
0.028012,-0.0058145,0.027148,5.2021e-07,0.0081445,0.00043448,0,0,0.049409,-0.021174,0,0.0022593,0,0,0,0.027155,-6.4318e-06,0.0081445,0.91668,0.011764,0.024141,4.5468e-07,0.55,0.79,0
0.028506,-0.0057349,0.026986,-0.00022818,0.0080273,0.00044306,0,0,0.049292,-0.021464,0,0.0023039,0,0,0,0.026993,-0.00023539,0.0080273,0.93248,0.011595,0.02418,4.5063e-07,0.56,0.79,0
0.028998,-0.0056555,0.02682,-0.00046391,0.0079067,0.00043525,0,0,0.049174,-0.021764,0,0.0022633,0,0,0,0.026826,-0.00047085,0.0079067,0.91373,0.011421,0.024221,4.4637e-07,0.57,0.79,0
0.029489,-0.0055774,0.026649,-0.00070127,0.0077842,0.00041133,0,0,0.049048,-0.022062,0,0.0021389,0,0,0,0.026655,-0.00070746,0.0077842,0.86145,0.011244,0.024258,4.4181e-07,0.58,0.79,0
0.029979,-0.0055022,0.026474,-0.00093394,0.0076619,0.00037243,0,0,0.048911,-0.022349,0,0.0019366,0,0,0,0.026479,-0.000939,0.0076619,0.77837,0.011067,0.024288,4.3688e-07,0.59,0.79,0
0.030467,-0.0054312,0.026296,-0.0011552,0.0075421,0.00032077,0,0,0.048759,-0.022613,0,0.001668,0,0,0,0.026299,-0.001159,0.0075421,0.66939,0.010894,0.024305,4.3156e-07,0.6,0.79,0
0.030954,-0.0053657,0.026117,-0.0013588,0.0074274,0.00025954,0,0,0.048592,-0.022844,0,0.0013496,0,0,0,0.026119,-0.0013613,0.0074274,0.54116,0.010728,0.024308,4.2588e-07,0.61,0.79,0
0.031439,-0.0053069,0.02594,-0.0015396,0.0073201,0.00019262,0,0,0.048411,-0.023035,0,0.0010016,0,0,0,0.025941,-0.0015409,0.0073201,0.40159,0.010573,0.024295,4.1995e-07,0.62,0.79,0
0.031922,-0.005256,0.025769,-0.0016929,0.0072229,0.00012438,0,0,0.048221,-0.023181,0,0.00064676,0,0,0,0.02577,-0.0016934,0.0072229,0.25949,0.010433,0.024266,4.1397e-07,0.63,0.79,0
0.032404,-0.0052138,0.025611,-0.0018161,0.0071385,5.971e-05,0,0,0.048029,-0.023282,0,0.00031049,0,0,0,0.025611,-0.0018162,0.0071385,0.12473,0.010311,0.024225,4.0818e-07,0.64,0.79,0
0.032883,-0.005181,0.025473,-0.0019106,0.0070686,2.5917e-06,0,0,0.04785,-0.023346,0,1.3477e-05,0,0,0,0.025473,-0.0019106,0.0070686,0.0054229,0.01021,0.024178,4.0296e-07,0.65,0.79,0
0.033361,-0.0051579,0.02536,-0.0019823,0.0070134,-4.5942e-05,0,0,0.047702,-0.023389,0,-0.0002389,0,0,0,0.02536,-0.0019824,0.0070134,-0.09627,0.010131,0.024137,3.9871e-07,0.66,0.79,0
0.033837,-0.0051449,0.02528,-0.0020359,0.0069732,-8.9222e-05,0,0,0.047598,-0.023424,0,-0.00046396,0,0,0,0.02528,-0.0020362,0.0069732,-0.18714,0.010072,0.024109,3.957e-07,0.67,0.79,0
0.034313,-0.0051424,0.025235,-0.0020694,0.0069496,-0.00013141,0,0,0.047541,-0.023449,0,-0.00068333,0,0,0,0.025235,-0.00207,0.0069496,-0.27575,0.010038,0.024097,3.9408e-07,0.68,0.79,0
0.034788,-0.0051506,0.025227,-0.002077,0.0069449,-0.00017474,0,0,0.047533,-0.023457,0,-0.00090866,0,0,0,0.025228,-0.0020781,0.0069449,-0.36667,0.010032,0.024097,3.9383e-07,0.69,0.79,0
0.035263,-0.0051694,0.025256,-0.0020584,0.0069592,-0.00021894,0,0,0.047571,-0.023446,0,-0.0011385,0,0,0,0.025258,-0.0020602,0.0069592,-0.45923,0.010052,0.024109,3.9497e-07,0.7,0.79,0
0.035739,-0.0051988,0.02532,-0.0020191,0.0069903,-0.00026614,0,0,0.047658,-0.023425,0,-0.0013839,0,0,0,0.025323,-0.0020217,0.0069903,-0.55768,0.010097,0.024135,3.9748e-07,0.71,0.79,0
0.036216,-0.0052385,0.025416,-0.001961,0.0070366,-0.00032044,0,0,0.047787,-0.023394,0,-0.0016663,0,0,0,0.02542,-0.0019648,0.0070366,-0.67051,0.010164,0.024175,4.0123e-07,0.72,0.79,0
0.036695,-0.0052883,0.025539,-0.0018794,0.0070978,-0.00038531,0,0,0.047946,-0.023341,0,-0.0020036,0,0,0,0.025544,-0.0018848,0.0070978,-0.80497,0.010252,0.024221,4.0595e-07,0.73,0.79,0
0.037175,-0.0053479,0.02568,-0.001768,0.0071737,-0.00045988,0,0,0.048117,-0.023248,0,-0.0023914,0,0,0,0.025688,-0.0017757,0.0071737,-0.9596,0.010362,0.02426,4.1123e-07,0.74,0.79,0
0.037657,-0.0054166,0.025834,-0.0016249,0.0072626,-0.00054029,0,0,0.048285,-0.023108,0,-0.0028095,0,0,0,0.025844,-0.0016355,0.0072626,-1.1268,0.01049,0.024286,4.1668e-07,0.75,0.79,0
0.038141,-0.0054937,0.025993,-0.0014523,0.0073621,-0.00062158,0,0,0.04844,-0.022918,0,-0.0032322,0,0,0,0.026007,-0.0014664,0.0073621,-1.2968,0.010634,0.024293,4.2202e-07,0.76,0.79,0
0.038626,-0.0055781,0.026153,-0.0012543,0.0074695,-0.00069927,0,0,0.048576,-0.022682,0,-0.0036362,0,0,0,0.02617,-0.0012721,0.0074695,-1.4606,0.010789,0.024282,4.2703e-07,0.77,0.79,0
0.039112,-0.0056687,0.02631,-0.0010357,0.0075823,-0.0007692,0,0,0.048693,-0.022407,0,-0.0039998,0,0,0,0.026332,-0.0010574,0.0075823,-1.6099,0.010952,0.024252,4.3158e-07,0.78,0.79,0
0.0396,-0.0057642,0.026463,-0.0008028,0.0076981,-0.00082791,0,0,0.048789,-0.022102,0,-0.0043051,0,0,0,0.026488,-0.00082792,0.0076981,-1.7376,0.011119,0.024207,4.3558e-07,0.79,0.79,0
0.040088,-0.0058633,0.02661,-0.00056209,0.0078142,-0.00087285,0,0,0.048868,-0.021778,0,-0.0045388,0,0,0,0.026638,-0.0005901,0.0078142,-1.838,0.011287,0.024148,4.3904e-07,0.8,0.79,0
0.040577,-0.0059645,0.026749,-0.00032002,0.0079288,-0.00090255,0,0,0.048933,-0.021447,0,-0.0046933,0,0,0,0.026779,-0.00035008,0.0079288,-1.9075,0.011453,0.024082,4.4199e-07,0.81,0.79,0
0.041067,-0.0060665,0.026882,-8.225e-05,0.00804,-0.00091647,0,0,0.048989,-0.021118,0,-0.0047656,0,0,0,0.026913,-0.00011336,0.00804,-1.9444,0.011613,0.024012,4.4452e-07,0.82,0.79,0
0.041557,-0.0061681,0.027008,0.00014635,0.0081464,-0.00091477,0,0,0.049041,-0.0208,0,-0.0047568,0,0,0,0.02704,0.00011524,0.0081464,-1.9482,0.011767,0.023941,4.4673e-07,0.83,0.79,0
0.042048,-0.0062681,0.027129,0.0003616,0.0082471,-0.00089826,0,0,0.049092,-0.020502,0,-0.004671,0,0,0,0.027159,0.00033149,0.0082471,-1.9199,0.011912,0.023875,4.4874e-07,0.84,0.79,0
0.042539,-0.0063654,0.027244,0.0005601,0.0083412,-0.00086836,0,0,0.049147,-0.020231,0,-0.0045155,0,0,0,0.027272,0.00053187,0.0083412,-1.8619,0.012048,0.023816,4.5066e-07,0.85,0.79,0
0.043031,-0.006459,0.027354,0.0007394,0.0084281,-0.00082702,0,0,0.049208,-0.019991,0,-0.0043005,0,0,0,0.02738,0.00071372,0.0084281,-1.7781,0.012174,0.023767,4.526e-07,0.86,0.79,0
0.043523,-0.0065482,0.02746,0.00089813,0.0085076,-0.00077648,0,0,0.049278,-0.019785,0,-0.0040377,0,0,0,0.027483,0.00087545,0.0085076,-1.673,0.012289,0.023731,4.5465e-07,0.87,0.79,0
0.044016,-0.0066323,0.027563,0.0010359,0.0085796,-0.0007191,0,0,0.049356,-0.019613,0,-0.0037393,0,0,0,0.027582,0.0010165,0.0085796,-1.5517,0.012393,0.023707,4.5686e-07,0.88,0.79,0
0.04451,-0.0067107,0.02766,0.0011534,0.0086441,-0.0006571,0,0,0.049442,-0.019476,0,-0.0034169,0,0,0,0.027677,0.0011371,0.0086441,-1.4192,0.012486,0.023695,4.5922e-07,0.89,0.79,0
0.045005,-0.006783,0.027753,0.0012516,0.0087014,-0.00059246,0,0,0.049535,-0.01937,0,-0.0030808,0,0,0,0.027766,0.0012384,0.0087014,-1.28,0.012569,0.023695,4.6173e-07,0.9,0.79,0
0.045501,-0.0068489,0.027841,0.0013322,0.0087518,-0.00052684,0,0,0.049631,-0.019291,0,-0.0027395,0,0,0,0.027851,0.0013218,0.0087518,-1.1381,0.012641,0.023704,4.6433e-07,0.91,0.79,0
0.045998,-0.0069082,0.027922,0.0013972,0.0087956,-0.0004615,0,0,0.049727,-0.019236,0,-0.0023998,0,0,0,0.02793,0.0013892,0.0087956,-0.9965,0.012705,0.023721,4.6695e-07,0.92,0.79,0
0.046495,-0.0069606,0.027996,0.0014486,0.0088333,-0.00039738,0,0,0.049822,-0.0192,0,-0.0020664,0,0,0,0.028001,0.0014427,0.0088333,-0.85741,0.012759,0.023742,4.6953e-07,0.93,0.79,0
0.046994,-0.0070062,0.028062,0.0014884,0.008865,-0.00033507,0,0,0.049911,-0.019179,0,-0.0017424,0,0,0,0.028066,0.0014842,0.008865,-0.72231,0.012805,0.023767,4.7197e-07,0.94,0.79,0
0.047494,-0.0070448,0.028119,0.0015185,0.0088912,-0.00027486,0,0,0.049992,-0.019169,0,-0.0014293,0,0,0,0.028122,0.0015156,0.0088912,-0.59194,0.012843,0.023792,4.7419e-07,0.95,0.79,0
0.047994,-0.0070763,0.028167,0.0015406,0.0089123,-0.00021678,0,0,0.050062,-0.019166,0,-0.0011273,0,0,0,0.028169,0.0015388,0.0089123,-0.46644,0.012873,0.023815,4.7613e-07,0.96,0.79,0
0.048495,-0.0071009,0.028205,0.0015562,0.0089283,-0.00016066,0,0,0.050119,-0.019168,0,-0.00083542,0,0,0,0.028206,0.0015552,0.0089283,-0.34541,0.012896,0.023835,4.7771e-07,0.97,0.79,0
0.048996,-0.0071184,0.028232,0.0015665,0.0089396,-0.00010615,0,0,0.050161,-0.01917,0,-0.00055196,0,0,0,0.028233,0.0015661,0.0089396,-0.22807,0.012913,0.023851,4.7888e-07,0.98,0.79,0
0.049498,-0.007129,0.028249,0.0015723,0.0089464,-5.2778e-05,0,0,0.050187,-0.019172,0,-0.00027444,0,0,0,0.028249,0.0015722,0.0089464,-0.11335,0.012922,0.02386,4.7959e-07,0.99,0.79,0
0.05,-0.0071325,0.028254,0.0015742,0.0089486,-6.7436e-05,0,0,0.050195,-0.019173,0,-0.00035067,0,0,0,0.028255,0.001574,0.0089486,-0.14482,0.012926,0.023864,4.7985e-07,1,0.79,0
0,0,0.028463,0.012198,0.012198,-0.005405,0,0,0.042288,1.6263e-19,0,-0.028106,0,0,0,0.030095,0.010566,0.012198,-16.805,0.01762,0.018766,3.3079e-07,0,0.8,0
0.00042288,-0.00028106,0.028414,0.011592,0.012002,-0.0054003,0,0,0.042672,-0.0010656,0,-0.028081,0,0,0,0.029998,0.010008,0.012002,-16.351,0.017336,0.019072,3.432e-07,0.01,0.8,0
0.00085343,-0.00056218,0.028619,0.011074,0.011908,-0.0053876,0,0,0.043448,-0.0021672,0,-0.028016,0,0,0,0.030141,0.009552,0.011908,-15.779,0.0172,0.019518,3.6319e-07,0.02,0.8,0
0.0012918,-0.00084284,0.028824,0.010542,0.01181,-0.0053597,0,0,0.044237,-0.0032958,0,-0.027871,0,0,0,0.030279,0.0090868,0.01181,-15.193,0.017059,0.019971,3.8357e-07,0.03,0.8,0
0.0017382,-0.0011224,0.029027,0.01,0.011708,-0.0053144,0,0,0.04503,-0.0044412,0,-0.027635,0,0,0,0.030411,0.0086163,0.011708,-14.594,0.016912,0.020425,4.0403e-07,0.04,0.8,0
0.0021924,-0.0014001,0.029226,0.0094529,0.011604,-0.0052502,0,0,0.045818,-0.005592,0,-0.027301,0,0,0,0.030534,0.0081453,0.011604,-13.985,0.016761,0.020875,4.243e-07,0.05,0.8,0
0.0026545,-0.0016752,0.029417,0.008906,0.011497,-0.0051669,0,0,0.046593,-0.0067367,0,-0.026868,0,0,0,0.030645,0.0076779,0.011497,-13.37,0.016607,0.021316,4.441e-07,0.06,0.8,0
0.0031243,-0.0019469,0.029599,0.0083645,0.011389,-0.0050646,0,0,0.047346,-0.0078638,0,-0.026336,0,0,0,0.030745,0.0072184,0.011389,-12.751,0.016451,0.021743,4.6317e-07,0.07,0.8,0
0.0036014,-0.0022143,0.029768,0.0078332,0.01128,-0.0049446,0,0,0.048068,-0.0089629,0,-0.025712,0,0,0,0.030831,0.0067701,0.01128,-12.134,0.016294,0.022153,4.8128e-07,0.08,0.8,0
0.0040856,-0.0024768,0.029924,0.0073163,0.011172,-0.0048084,0,0,0.048755,-0.010025,0,-0.025004,0,0,0,0.030904,0.0063361,0.011172,-11.522,0.016137,0.022542,4.9828e-07,0.09,0.8,0
0.0045765,-0.0027336,0.030064,0.0068176,0.011064,-0.0046583,0,0,0.049399,-0.011042,0,-0.024223,0,0,0,0.030963,0.0059188,0.011064,-10.92,0.015982,0.022909,5.1402e-07,0.1,0.8,0
0.0050736,-0.002984,0.030188,0.0063398,0.010958,-0.0044964,0,0,0.049998,-0.012008,0,-0.023381,0,0,0,0.031008,0.0055202,0.010958,-10.33,0.015829,0.023251,5.2841e-07,0.11,0.8,0
0.0055765,-0.0032275,0.030296,0.0058852,0.010854,-0.0043255,0,0,0.050548,-0.01292,0,-0.022493,0,0,0,0.03104,0.0051414,0.010854,-9.7571,0.015678,0.023567,5.414e-07,0.12,0.8,0
0.0060846,-0.0034636,0.030387,0.0054554,0.010753,-0.0041479,0,0,0.051048,-0.013773,0,-0.021569,0,0,0,0.031059,0.0047834,0.010753,-9.2025,0.015532,0.023857,5.5299e-07,0.13,0.8,0
0.0065975,-0.0036918,0.030461,0.0050513,0.010654,-0.0039661,0,0,0.051499,-0.014566,0,-0.020624,0,0,0,0.031066,0.0044466,0.010654,-8.6684,0.015389,0.024122,5.6318e-07,0.14,0.8,0
0.0071146,-0.0039118,0.03052,0.0046732,0.010558,-0.0037821,0,0,0.051901,-0.0153,0,-0.019667,0,0,0,0.031062,0.0041311,0.010558,-8.1563,0.01525,0.024362,5.7202e-07,0.15,0.8,0
0.0076355,-0.0041233,0.030564,0.0043212,0.010466,-0.0035981,0,0,0.052256,-0.015975,0,-0.01871,0,0,0,0.031048,0.0038369,0.010466,-7.6672,0.015117,0.024577,5.7957e-07,0.16,0.8,0
0.0081597,-0.0043262,0.030594,0.003995,0.010377,-0.0034155,0,0,0.052565,-0.016592,0,-0.017761,0,0,0,0.031025,0.0035634,0.010377,-7.2016,0.014989,0.024768,5.8589e-07,0.17,0.8,0
0.0086868,-0.0045204,0.030611,0.0036939,0.010291,-0.003236,0,0,0.05283,-0.017153,0,-0.016827,0,0,0,0.030994,0.0033103,0.010291,-6.7598,0.014865,0.024937,5.9105e-07,0.18,0.8,0
0.0092163,-0.0047056,0.030616,0.003417,0.01021,-0.0030605,0,0,0.053055,-0.017661,0,-0.015915,0,0,0,0.030956,0.0030769,0.01021,-6.3415,0.014747,0.025085,5.9514e-07,0.19,0.8,0
0.0097479,-0.004882,0.03061,0.0031634,0.010132,-0.0028901,0,0,0.053242,-0.018118,0,-0.015028,0,0,0,0.030911,0.0028624,0.010132,-5.9463,0.014635,0.025212,5.9824e-07,0.2,0.8,0
0.010281,-0.0050494,0.030593,0.0029322,0.010058,-0.0027253,0,0,0.053393,-0.018526,0,-0.014172,0,0,0,0.030859,0.0026662,0.010058,-5.5737,0.014528,0.02532,6.0041e-07,0.21,0.8,0
0.010816,-0.0052079,0.030568,0.0027221,0.0099871,-0.0025668,0,0,0.053511,-0.018889,0,-0.013347,0,0,0,0.030803,0.0024875,0.0099871,-5.2226,0.014426,0.02541,6.0172e-07,0.22,0.8,0
0.011351,-0.0053577,0.030535,0.0025321,0.0099201,-0.0024146,0,0,0.053598,-0.019209,0,-0.012556,0,0,0,0.030742,0.0023254,0.0099201,-4.8924,0.014329,0.025482,6.0225e-07,0.23,0.8,0
0.011888,-0.0054987,0.030494,0.0023611,0.0098565,-0.002269,0,0,0.053657,-0.019488,0,-0.011799,0,0,0,0.030676,0.0021793,0.0098565,-4.5817,0.014237,0.025538,6.0205e-07,0.24,0.8,0
0.012424,-0.005631,0.030446,0.002208,0.0097962,-0.00213,0,0,0.05369,-0.019729,0,-0.011076,0,0,0,0.030606,0.0020483,0.0097962,-4.2895,0.01415,0.025579,6.0118e-07,0.25,0.8,0
0.012962,-0.0057548,0.030392,0.0020718,0.0097391,-0.0019974,0,0,0.053697,-0.019935,0,-0.010386,0,0,0,0.030532,0.0019316,0.0097391,-4.0145,0.014068,0.025606,5.9968e-07,0.26,0.8,0
0.013498,-0.0058702,0.030332,0.0019513,0.0096849,-0.0018709,0,0,0.053682,-0.020107,0,-0.0097286,0,0,0,0.030455,0.0018285,0.0096849,-3.7554,0.013989,0.025618,5.9759e-07,0.27,0.8,0
0.014035,-0.0059771,0.030266,0.0018457,0.0096336,-0.0017503,0,0,0.053645,-0.020248,0,-0.0091015,0,0,0,0.030374,0.0017383,0.0096336,-3.5109,0.013915,0.025617,5.9496e-07,0.28,0.8,0
0.014571,-0.0060759,0.030196,0.0017538,0.0095848,-0.0016351,0,0,0.053588,-0.020361,0,-0.0085027,0,0,0,0.030289,0.0016601,0.0095848,-3.2796,0.013845,0.025604,5.9182e-07,0.29,0.8,0
0.015107,-0.0061665,0.03012,0.0016748,0.0095384,-0.001525,0,0,0.053512,-0.020445,0,-0.00793,0,0,0,0.030201,0.0015933,0.0095384,-3.0601,0.013778,0.025578,5.882e-07,0.3,0.8,0
0.015642,-0.0062491,0.030039,0.0016075,0.009494,-0.0014194,0,0,0.053417,-0.020505,0,-0.0073809,0,0,0,0.03011,0.0015369,0.009494,-2.8509,0.013714,0.025542,5.8412e-07,0.31,0.8,0
0.016175,-0.0063237,0.029954,0.0015511,0.0094516,-0.0013178,0,0,0.053306,-0.020541,0,-0.0068525,0,0,0,0.030015,0.0014901,0.0094516,-2.6507,0.013652,0.025494,5.7963e-07,0.32,0.8,0
0.016708,-0.0063904,0.029864,0.0015045,0.0094106,-0.0012196,0,0,0.05318,-0.020556,0,-0.0063421,0,0,0,0.029917,0.0014521,0.0094106,-2.458,0.013593,0.025437,5.7473e-07,0.33,0.8,0
0.017239,-0.0064494,0.02977,0.0014665,0.009371,-0.0011243,0,0,0.053038,-0.020552,0,-0.0058465,0,0,0,0.029815,0.0014219,0.009371,-2.2712,0.013536,0.02537,5.6947e-07,0.34,0.8,0
0.017768,-0.0065005,0.029671,0.0014362,0.0093323,-0.0010313,0,0,0.052882,-0.02053,0,-0.0053628,0,0,0,0.029709,0.0013986,0.0093323,-2.089,0.01348,0.025295,5.6387e-07,0.35,0.8,0
0.018297,-0.006544,0.029569,0.0014122,0.0092942,-0.00094001,0,0,0.052713,-0.020493,0,-0.004888,0,0,0,0.0296,0.0013808,0.0092942,-1.91,0.013425,0.025212,5.5797e-07,0.36,0.8,0
0.018823,-0.0065799,0.029461,0.0013933,0.0092564,-0.00084985,0,0,0.052533,-0.020444,0,-0.0044192,0,0,0,0.029487,0.0013676,0.0092564,-1.7327,0.01337,0.025122,5.5179e-07,0.37,0.8,0
0.019347,-0.0066081,0.02935,0.0013781,0.0092184,-0.00076032,0,0,0.052342,-0.020385,0,-0.0039537,0,0,0,0.029371,0.0013574,0.0092184,-1.5558,0.013315,0.025027,5.454e-07,0.38,0.8,0
0.01987,-0.0066287,0.029235,0.001365,0.0091799,-0.00067092,0,0,0.052143,-0.020319,0,-0.0034888,0,0,0,0.029251,0.0013489,0.0091799,-1.3782,0.01326,0.024927,5.3882e-07,0.39,0.8,0
0.02039,-0.0066418,0.029116,0.0013525,0.0091405,-0.00058124,0,0,0.051936,-0.020249,0,-0.0030225,0,0,0,0.029128,0.0013403,0.0091405,-1.1988,0.013203,0.024824,5.3211e-07,0.4,0.8,0
0.020908,-0.0066474,0.028993,0.0013388,0.0090996,-0.00049097,0,0,0.051723,-0.020178,0,-0.002553,0,0,0,0.029002,0.0013301,0.0090996,-1.0168,0.013144,0.02472,5.2533e-07,0.41,0.8,0
0.021424,-0.0066455,0.028867,0.001322,0.0090568,-0.00039989,0,0,0.051507,-0.02011,0,-0.0020794,0,0,0,0.028873,0.0013162,0.0090568,-0.83155,0.013082,0.024617,5.1855e-07,0.42,0.8,0
0.021938,-0.0066362,0.028739,0.0013001,0.0090117,-0.00030794,0,0,0.051291,-0.02005,0,-0.0016013,0,0,0,0.028742,0.0012966,0.0090117,-0.64291,0.013017,0.024516,5.1183e-07,0.43,0.8,0
0.02245,-0.0066196,0.028608,0.001271,0.0089637,-0.00021524,0,0,0.051075,-0.020001,0,-0.0011193,0,0,0,0.02861,0.0012693,0.0089637,-0.45109,0.012948,0.02442,5.0523e-07,0.44,0.8,0
0.02296,-0.0065957,0.028475,0.0012326,0.0089124,-0.00012213,0,0,0.050863,-0.019967,0,-0.00063506,0,0,0,0.028476,0.0012321,0.0089124,-0.25685,0.012873,0.02433,4.9884e-07,0.45,0.8,0
0.023467,-0.0065647,0.028341,0.0011827,0.0088572,-2.9163e-05,0,0,0.050659,-0.019954,0,-0.00015165,0,0,0,0.028341,0.0011827,0.0088572,-0.061525,0.012794,0.02425,4.9273e-07,0.46,0.8,0
0.023973,-0.0065268,0.028206,0.0011193,0.0087977,6.2812e-05,0,0,0.050463,-0.019964,0,0.00032662,0,0,0,0.028207,0.0011191,0.0087977,0.13286,0.012708,0.024181,4.8694e-07,0.47,0.8,0
0.024477,-0.0064823,0.028071,0.0010403,0.0087335,0.00015268,0,0,0.050278,-0.020002,0,0.00079391,0,0,0,0.028072,0.0010395,0.0087335,0.3236,0.012615,0.024124,4.8155e-07,0.48,0.8,0
0.024979,-0.0064316,0.027936,0.00094426,0.0086642,0.00023902,0,0,0.050108,-0.020072,0,0.0012429,0,0,0,0.027939,0.00094214,0.0086642,0.5073,0.012515,0.024082,4.7658e-07,0.49,0.8,0
0.025479,-0.0063749,0.027802,0.00082977,0.0085895,0.00032016,0,0,0.049952,-0.020175,0,0.0016648,0,0,0,0.027806,0.00082597,0.0085895,0.67997,0.012407,0.024057,4.7204e-07,0.5,0.8,0
0.025978,-0.0063129,0.027668,0.0006962,0.0085093,0.00039424,0,0,0.049813,-0.020314,0,0.00205,0,0,0,0.027674,0.00069044,0.0085093,0.83722,0.012291,0.024047,4.6795e-07,0.51,0.8,0
0.026475,-0.0062463,0.027535,0.00054355,0.0084236,0.00045925,0,0,0.04969,-0.020488,0,0.0023881,0,0,0,0.027543,0.00053574,0.0084236,0.9745,0.012167,0.024054,4.6424e-07,0.52,0.8,0
0.026971,-0.0061757,0.027402,0.00037264,0.0083324,0.00051325,0,0,0.049581,-0.020695,0,0.0026689,0,0,0,0.027412,0.0003629,0.0083324,1.0874,0.012036,0.024075,4.6087e-07,0.53,0.8,0
0.027467,-0.006102,0.027269,0.00018512,0.0082363,0.00055442,0,0,0.049486,-0.020933,0,0.002883,0,0,0,0.027281,0.00017378,0.0082363,1.1722,0.011897,0.024109,4.5774e-07,0.54,0.8,0
0.027961,-0.0060263,0.027136,-1.6511e-05,0.0081359,0.00058126,0,0,0.049401,-0.021196,0,0.0030226,0,0,0,0.027148,-2.8948e-05,0.0081359,1.2258,0.011752,0.024153,4.5476e-07,0.55,0.8,0
0.028455,-0.0059496,0.027002,-0.00022899,0.0080319,0.00059267,0,0,0.049322,-0.021478,0,0.0030819,0,0,0,0.027015,-0.00024188,0.0080319,1.2462,0.011602,0.024205,4.5183e-07,0.56,0.8,0
0.028948,-0.0058731,0.026867,-0.0004483,0.0079255,0.00058801,0,0,0.049247,-0.021772,0,0.0030577,0,0,0,0.026879,-0.00046095,0.0079255,1.2327,0.011448,0.02426,4.4883e-07,0.57,0.8,0
0.02944,-0.0057981,0.02673,-0.0006697,0.0078182,0.00056723,0,0,0.049171,-0.022068,0,0.0029496,0,0,0,0.026742,-0.00068143,0.0078182,1.1854,0.011293,0.024315,4.4569e-07,0.58,0.8,0
0.029931,-0.0057257,0.026593,-0.00088784,0.0077115,0.00053099,0,0,0.049091,-0.022358,0,0.0027611,0,0,0,0.026603,-0.00089809,0.0077115,1.1065,0.011139,0.024365,4.4234e-07,0.59,0.8,0
0.030422,-0.0056574,0.026455,-0.0010971,0.0076074,0.00048076,0,0,0.049004,-0.022632,0,0.0024999,0,0,0,0.026464,-0.0011055,0.0076074,0.99935,0.010989,0.024408,4.3875e-07,0.6,0.8,0
0.030911,-0.0055943,0.026319,-0.001292,0.007508,0.0004188,0,0,0.048907,-0.02288,0,0.0021778,0,0,0,0.026325,-0.0012983,0.007508,0.86881,0.010845,0.02444,4.3491e-07,0.61,0.8,0
0.0314,-0.0055377,0.026185,-0.0014676,0.0074153,0.00034804,0,0,0.048802,-0.023096,0,0.0018098,0,0,0,0.02619,-0.001472,0.0074153,0.72098,0.010711,0.02446,4.3091e-07,0.62,0.8,0
0.031887,-0.0054884,0.026058,-0.0016201,0.0073314,0.00027189,0,0,0.048689,-0.023274,0,0.0014138,0,0,0,0.026061,-0.0016228,0.0073314,0.56275,0.01059,0.024468,4.2686e-07,0.63,0.8,0
0.032373,-0.0054475,0.025941,-0.0017472,0.0072582,0.00019379,0,0,0.048576,-0.023414,0,0.0010077,0,0,0,0.025943,-0.0017485,0.0072582,0.40098,0.010484,0.024465,4.2295e-07,0.64,0.8,0
0.032859,-0.0054155,0.025839,-0.0018488,0.0071971,0.00011651,0,0,0.048469,-0.023519,0,0.00060583,0,0,0,0.02584,-0.0018493,0.0071971,0.24108,0.010396,0.024455,4.1942e-07,0.65,0.8,0
0.033343,-0.0053931,0.025756,-0.0019267,0.0071489,4.109e-05,0,0,0.048379,-0.023597,0,0.00021367,0,0,0,0.025756,-0.0019268,0.0071489,0.085044,0.010326,0.024443,4.1651e-07,0.66,0.8,0
0.033826,-0.0053806,0.025696,-0.0019821,0.0071143,-3.3102e-05,0,0,0.048313,-0.023651,0,-0.00017213,0,0,0,0.025696,-0.0019821,0.0071143,-0.068523,0.010276,0.024435,4.1441e-07,0.67,0.8,0
0.034309,-0.0053784,0.025662,-0.002014,0.0070943,-0.00010745,0,0,0.048275,-0.023682,0,-0.00055875,0,0,0,0.025662,-0.0020144,0.0070943,-0.22245,0.010247,0.024431,4.1322e-07,0.68,0.8,0
0.034792,-0.0053866,0.025654,-0.0020206,0.0070899,-0.00018263,0,0,0.048266,-0.023687,0,-0.00094968,0,0,0,0.025655,-0.0020218,0.0070899,-0.37809,0.010241,0.02443,4.1297e-07,0.69,0.8,0
0.035275,-0.0054053,0.025672,-0.0020017,0.0071011,-0.0002589,0,0,0.048285,-0.023667,0,-0.0013463,0,0,0,0.025674,-0.0020041,0.0071011,-0.53595,0.010257,0.024433,4.1367e-07,0.7,0.8,0
0.035757,-0.0054343,0.025716,-0.0019588,0.0071271,-0.00033688,0,0,0.048331,-0.023623,0,-0.0017518,0,0,0,0.02572,-0.001963,0.0071271,-0.69732,0.010295,0.02444,4.1527e-07,0.71,0.8,0
0.036241,-0.0054735,0.025782,-0.0018928,0.0071668,-0.00041794,0,0,0.0484,-0.023555,0,-0.0021733,0,0,0,0.025788,-0.0018991,0.0071668,-0.86501,0.010352,0.024449,4.1766e-07,0.72,0.8,0
0.036726,-0.0055225,0.025867,-0.001802,0.0072196,-0.00050276,0,0,0.048484,-0.023456,0,-0.0026144,0,0,0,0.025876,-0.0018111,0.0072196,-1.0406,0.010428,0.024456,4.2065e-07,0.73,0.8,0
0.037211,-0.0055809,0.025967,-0.0016846,0.0072847,-0.00059034,0,0,0.048573,-0.02332,0,-0.0030698,0,0,0,0.025979,-0.0016972,0.0072847,-1.2225,0.010522,0.024456,4.24e-07,0.74,0.8,0
0.037697,-0.0056479,0.026076,-0.0015402,0.0073607,-0.00067793,0,0,0.048659,-0.023142,0,-0.0035252,0,0,0,0.026092,-0.0015568,0.0073607,-1.4054,0.010632,0.024442,4.2744e-07,0.75,0.8,0
0.038184,-0.0057229,0.02619,-0.0013706,0.0074458,-0.000762,0,0,0.048735,-0.022923,0,-0.0039624,0,0,0,0.026211,-0.0013917,0.0074458,-1.5825,0.010755,0.024415,4.3077e-07,0.76,0.8,0
0.038672,-0.0058048,0.026306,-0.0011795,0.007538,-0.00083901,0,0,0.048797,-0.022666,0,-0.0043628,0,0,0,0.026332,-0.0012051,0.007538,-1.7468,0.010888,0.024371,4.3383e-07,0.77,0.8,0
0.03916,-0.0058926,0.026422,-0.00097145,0.0076351,-0.0009058,0,0,0.048845,-0.022377,0,-0.0047102,0,0,0,0.026452,-0.0010014,0.0076351,-1.8918,0.011029,0.024314,4.3654e-07,0.78,0.8,0
0.039649,-0.005985,0.026535,-0.00075177,0.0077351,-0.00095986,0,0,0.048881,-0.022066,0,-0.0049913,0,0,0,0.026569,-0.0007855,0.0077351,-2.0121,0.011173,0.024244,4.3886e-07,0.79,0.8,0
0.040137,-0.0060808,0.026646,-0.00052608,0.0078359,-0.00099943,0,0,0.048906,-0.021741,0,-0.005197,0,0,0,0.026683,-0.00056279,0.0078359,-2.1037,0.011319,0.024167,4.4079e-07,0.8,0.8,0
0.040627,-0.0061787,0.026753,-0.0002998,0.0079359,-0.0010236,0,0,0.048924,-0.021413,0,-0.0053226,0,0,0,0.026791,-0.00033847,0.0079359,-2.1638,0.011463,0.024084,4.4239e-07,0.81,0.8,0
0.041116,-0.0062775,0.026856,-7.7847e-05,0.0080335,-0.0010321,0,0,0.048939,-0.02109,0,-0.005367,0,0,0,0.026896,-0.00011734,0.0080335,-2.1913,0.011604,0.023999,4.4372e-07,0.82,0.8,0
0.041605,-0.006376,0.026956,0.00013548,0.0081274,-0.0010255,0,0,0.048954,-0.020779,0,-0.0053323,0,0,0,0.026995,9.6335e-05,0.0081274,-2.1864,0.01174,0.023917,4.4487e-07,0.83,0.8,0
0.042095,-0.006473,0.027053,0.0003366,0.0082168,-0.0010046,0,0,0.048973,-0.020488,0,-0.0052237,0,0,0,0.02709,0.00029888,0.0082168,-2.1503,0.011869,0.02384,4.4593e-07,0.84,0.8,0
0.042585,-0.0065676,0.027147,0.00052265,0.0083008,-0.00097086,0,0,0.048999,-0.020223,0,-0.0050485,0,0,0,0.027182,0.0004873,0.0083008,-2.0856,0.01199,0.023771,4.47e-07,0.85,0.8,0
0.043075,-0.0066588,0.027238,0.00069159,0.0083788,-0.00092612,0,0,0.049033,-0.019987,0,-0.0048158,0,0,0,0.02727,0.00065932,0.0083788,-1.9957,0.012103,0.023713,4.4815e-07,0.86,0.8,0
0.043566,-0.006746,0.027326,0.00084223,0.0084506,-0.00087233,0,0,0.049077,-0.019782,0,-0.0045361,0,0,0,0.027355,0.00081353,0.0084506,-1.8845,0.012206,0.023666,4.4944e-07,0.87,0.8,0
0.044057,-0.0068283,0.027412,0.00097419,0.008516,-0.00081153,0,0,0.049131,-0.019609,0,-0.00422,0,0,0,0.027437,0.00094931,0.008516,-1.7565,0.012301,0.023631,4.5091e-07,0.88,0.8,0
0.044548,-0.0069053,0.027495,0.0010878,0.0085749,-0.00074569,0,0,0.049193,-0.019467,0,-0.0038776,0,0,0,0.027516,0.0010668,0.0085749,-1.6162,0.012386,0.023609,4.5256e-07,0.89,0.8,0
0.04504,-0.0069765,0.027575,0.001184,0.0086276,-0.00067659,0,0,0.049263,-0.019353,0,-0.0035183,0,0,0,0.027592,0.0011666,0.0086276,-1.4676,0.012462,0.023597,4.5437e-07,0.9,0.8,0
0.045533,-0.0070416,0.02765,0.001264,0.0086741,-0.00060573,0,0,0.049337,-0.019266,0,-0.0031498,0,0,0,0.027664,0.0012501,0.0086741,-1.3144,0.012529,0.023595,4.563e-07,0.91,0.8,0
0.046027,-0.0071003,0.02772,0.0013294,0.0087148,-0.00053433,0,0,0.049413,-0.019202,0,-0.0027785,0,0,0,0.027731,0.0013186,0.0087148,-1.1594,0.012588,0.0236,4.5829e-07,0.92,0.8,0
0.046522,-0.0071523,0.027784,0.001382,0.0087498,-0.0004633,0,0,0.049489,-0.019156,0,-0.0024092,0,0,0,0.027792,0.0013739,0.0087498,-1.005,0.012639,0.023611,4.6027e-07,0.93,0.8,0
0.047017,-0.0071976,0.027842,0.0014235,0.0087795,-0.00039326,0,0,0.049562,-0.019126,0,-0.002045,0,0,0,0.027848,0.0014176,0.0087795,-0.85266,0.012682,0.023626,4.6218e-07,0.94,0.8,0
0.047513,-0.007236,0.027892,0.0014554,0.0088042,-0.00032458,0,0,0.049628,-0.019107,0,-0.0016878,0,0,0,0.027896,0.0014514,0.0088042,-0.70332,0.012717,0.023642,4.6393e-07,0.95,0.8,0
0.04801,-0.0072676,0.027934,0.0014793,0.0088239,-0.00025738,0,0,0.049686,-0.019096,0,-0.0013384,0,0,0,0.027936,0.0014768,0.0088239,-0.55737,0.012746,0.023658,4.6547e-07,0.96,0.8,0
0.048507,-0.0072921,0.027967,0.0014965,0.0088391,-0.00019159,0,0,0.049733,-0.019091,0,-0.00099629,0,0,0,0.027969,0.0014951,0.0088391,-0.41468,0.012768,0.023672,4.6674e-07,0.97,0.8,0
0.049004,-0.0073096,0.027991,0.0015081,0.0088498,-0.000127,0,0,0.049768,-0.019089,0,-0.00066042,0,0,0,0.027992,0.0015075,0.0088498,-0.27476,0.012783,0.023683,4.6767e-07,0.98,0.8,0
0.049502,-0.0073202,0.028006,0.0015147,0.0088562,-6.3278e-05,0,0,0.049789,-0.019088,0,-0.00032904,0,0,0,0.028006,0.0015145,0.0088562,-0.13686,0.012792,0.02369,4.6825e-07,0.99,0.8,0
0.05,-0.0073237,0.028011,0.0015168,0.0088583,-6.751e-05,0,0,0.049796,-0.019088,0,-0.00035105,0,0,0,0.028011,0.0015166,0.0088583,-0.146,0.012795,0.023692,4.6846e-07,1,0.8,0
0,0,0.028488,0.012209,0.012209,-0.0056121,0,0,0.042325,-5.421e-20,0,-0.029183,0,0,0,0.030235,0.010462,0.012209,-17.293,0.017635,0.01896,3.4005e-07,0,0.81,0
0.00042324,-0.00029183,0.028438,0.011588,0.012008,-0.0056073,0,0,0.042718,-0.0010907,0,-0.029158,0,0,0,0.030133,0.009893,0.012008,-16.823,0.017345,0.01927,3.5264e-07,0.01,0.81,0
0.00085436,-0.00058412,0.028647,0.011055,0.011911,-0.0055968,0,0,0.043515,-0.0022241,0,-0.029103,0,0,0,0.030277,0.0094259,0.011911,-16.234,0.017205,0.019727,3.7324e-07,0.02,0.81,0
0.0012936,-0.00087623,0.028858,0.010505,0.011809,-0.0055683,0,0,0.044327,-0.0033898,0,-0.028955,0,0,0,0.030415,0.0089478,0.011809,-15.625,0.017057,0.020189,3.9419e-07,0.03,0.81,0
0.0017409,-0.0011674,0.029066,0.0099427,0.011702,-0.0055194,0,0,0.045144,-0.0045754,0,-0.028701,0,0,0,0.030544,0.0084641,0.011702,-14.998,0.016904,0.020652,4.1516e-07,0.04,0.81,0
0.0021964,-0.0014568,0.029268,0.0093746,0.011593,-0.0054486,0,0,0.045956,-0.0057674,0,-0.028333,0,0,0,0.030663,0.00798,0.011593,-14.356,0.016745,0.021109,4.358e-07,0.05,0.81,0
0.00266,-0.0017435,0.029462,0.0088068,0.011481,-0.0053557,0,0,0.046751,-0.0069519,0,-0.027849,0,0,0,0.030768,0.0075007,0.011481,-13.705,0.016583,0.021555,4.5579e-07,0.06,0.81,0
0.0031315,-0.0020267,0.029644,0.0082454,0.011367,-0.0052413,0,0,0.047521,-0.0081158,0,-0.027255,0,0,0,0.030859,0.0070307,0.011367,-13.049,0.016419,0.021983,4.7487e-07,0.07,0.81,0
0.0036104,-0.0023053,0.029812,0.007696,0.011253,-0.0051069,0,0,0.048256,-0.009247,0,-0.026556,0,0,0,0.030935,0.0065737,0.011253,-12.394,0.016254,0.022391,4.9279e-07,0.08,0.81,0
0.0040966,-0.0025785,0.029965,0.0071633,0.011138,-0.0049547,0,0,0.048949,-0.010335,0,-0.025765,0,0,0,0.030995,0.0061332,0.011138,-11.745,0.016089,0.022776,5.0938e-07,0.09,0.81,0
0.0045894,-0.0028456,0.0301,0.0066513,0.011025,-0.0047875,0,0,0.049594,-0.011373,0,-0.024895,0,0,0,0.03104,0.0057115,0.011025,-11.106,0.015925,0.023134,5.2451e-07,0.1,0.81,0
0.0050884,-0.0031057,0.030217,0.006163,0.010914,-0.0046081,0,0,0.050188,-0.012352,0,-0.023962,0,0,0,0.031069,0.0053104,0.010914,-10.482,0.015765,0.023464,5.3812e-07,0.11,0.81,0
0.0055932,-0.0033583,0.030315,0.0057008,0.010805,-0.0044195,0,0,0.050728,-0.013271,0,-0.022981,0,0,0,0.031085,0.0049313,0.010805,-9.8765,0.015607,0.023768,5.5018e-07,0.12,0.81,0
0.006103,-0.0036029,0.030396,0.0052659,0.010698,-0.0042246,0,0,0.051213,-0.014125,0,-0.021968,0,0,0,0.031087,0.0045747,0.010698,-9.2918,0.015453,0.024043,5.6071e-07,0.13,0.81,0
0.0066174,-0.0038391,0.030459,0.0048591,0.010595,-0.004026,0,0,0.051645,-0.014914,0,-0.020935,0,0,0,0.031077,0.0042409,0.010595,-8.7301,0.015304,0.02429,5.6975e-07,0.14,0.81,0
0.0071359,-0.0040664,0.030505,0.0044807,0.010496,-0.0038262,0,0,0.052024,-0.015639,0,-0.019896,0,0,0,0.031056,0.0039298,0.010496,-8.193,0.01516,0.024512,5.7738e-07,0.15,0.81,0
0.0076579,-0.0042846,0.030536,0.0041302,0.0104,-0.0036274,0,0,0.052353,-0.016301,0,-0.018862,0,0,0,0.031025,0.0036409,0.0104,-7.6814,0.015022,0.024708,5.8367e-07,0.16,0.81,0
0.008183,-0.0044937,0.030552,0.0038069,0.010308,-0.0034312,0,0,0.052635,-0.016902,0,-0.017842,0,0,0,0.030985,0.0033738,0.010308,-7.1955,0.014889,0.02488,5.8873e-07,0.17,0.81,0
0.0087106,-0.0046933,0.030555,0.0035101,0.010219,-0.0032391,0,0,0.052872,-0.017444,0,-0.016844,0,0,0,0.030937,0.0031276,0.010219,-6.7354,0.014761,0.025029,5.9265e-07,0.18,0.81,0
0.0092404,-0.0048835,0.030546,0.0032385,0.010135,-0.0030524,0,0,0.053067,-0.017932,0,-0.015872,0,0,0,0.030883,0.0029015,0.010135,-6.3008,0.01464,0.025157,5.9551e-07,0.19,0.81,0
0.0097719,-0.0050643,0.030526,0.002991,0.010055,-0.0028717,0,0,0.053225,-0.018367,0,-0.014933,0,0,0,0.030823,0.0026947,0.010055,-5.891,0.014524,0.025265,5.9742e-07,0.2,0.81,0
0.010305,-0.0052357,0.030497,0.0027662,0.009979,-0.0026977,0,0,0.053347,-0.018753,0,-0.014028,0,0,0,0.030757,0.0025062,0.009979,-5.5051,0.014414,0.025354,5.9846e-07,0.21,0.81,0
0.010839,-0.0053978,0.03046,0.002563,0.0099068,-0.0025308,0,0,0.053437,-0.019094,0,-0.01316,0,0,0,0.030687,0.0023352,0.0099068,-5.1421,0.01431,0.025426,5.9871e-07,0.22,0.81,0
0.011374,-0.0055507,0.030414,0.0023799,0.0098383,-0.0023712,0,0,0.053498,-0.019392,0,-0.01233,0,0,0,0.030613,0.0021808,0.0098383,-4.8008,0.014211,0.025482,5.9824e-07,0.23,0.81,0
0.011909,-0.0056943,0.030362,0.0022159,0.0097734,-0.0022189,0,0,0.053531,-0.01965,0,-0.011538,0,0,0,0.030536,0.002042,0.0097734,-4.48,0.014117,0.025522,5.9712e-07,0.24,0.81,0
0.012444,-0.005829,0.030304,0.0020696,0.0097121,-0.0020737,0,0,0.053539,-0.01987,0,-0.010783,0,0,0,0.030456,0.0019181,0.0097121,-4.1783,0.014029,0.025548,5.954e-07,0.25,0.81,0
0.01298,-0.0059547,0.03024,0.0019399,0.0096541,-0.0019355,0,0,0.053524,-0.020057,0,-0.010064,0,0,0,0.030372,0.0018082,0.0096541,-3.8942,0.013945,0.025561,5.9313e-07,0.26,0.81,0
0.013515,-0.0060717,0.030172,0.0018257,0.0095992,-0.0018038,0,0,0.053488,-0.020211,0,-0.0093797,0,0,0,0.030286,0.0017114,0.0095992,-3.6265,0.013865,0.02556,5.9036e-07,0.27,0.81,0
0.014049,-0.0061801,0.030098,0.0017259,0.0095473,-0.0016783,0,0,0.053433,-0.020335,0,-0.0087272,0,0,0,0.030197,0.001627,0.0095473,-3.3735,0.013791,0.025548,5.8713e-07,0.28,0.81,0
0.014583,-0.0062799,0.03002,0.0016394,0.009498,-0.0015586,0,0,0.053359,-0.020432,0,-0.0081046,0,0,0,0.030106,0.0015541,0.009498,-3.1339,0.013719,0.025524,5.8347e-07,0.29,0.81,0
0.015117,-0.0063712,0.029939,0.0015653,0.0094512,-0.0014441,0,0,0.053268,-0.020503,0,-0.0075091,0,0,0,0.030012,0.001492,0.0094512,-2.906,0.013652,0.02549,5.794e-07,0.3,0.81,0
0.015649,-0.0064544,0.029853,0.0015024,0.0094066,-0.0013342,0,0,0.053161,-0.020551,0,-0.0069379,0,0,0,0.029916,0.0014397,0.0094066,-2.6885,0.013587,0.025446,5.7497e-07,0.31,0.81,0
0.01618,-0.0065293,0.029764,0.0014497,0.009364,-0.0012285,0,0,0.053039,-0.020577,0,-0.0063881,0,0,0,0.029817,0.0013965,0.009364,-2.4797,0.013526,0.025392,5.702e-07,0.32,0.81,0
0.016709,-0.0065961,0.029671,0.0014063,0.0093231,-0.0011263,0,0,0.052904,-0.020584,0,-0.0058566,0,0,0,0.029715,0.0013615,0.0093231,-2.2783,0.013467,0.02533,5.651e-07,0.33,0.81,0
0.017238,-0.006655,0.029574,0.0013709,0.0092835,-0.001027,0,0,0.052755,-0.020573,0,-0.0053405,0,0,0,0.029611,0.0013336,0.0092835,-2.0827,0.013409,0.025259,5.5972e-07,0.34,0.81,0
0.017765,-0.0067059,0.029474,0.0013426,0.009245,-0.00093011,0,0,0.052595,-0.020546,0,-0.0048366,0,0,0,0.029505,0.0013119,0.009245,-1.8916,0.013354,0.025182,5.5408e-07,0.35,0.81,0
0.01829,-0.006749,0.029371,0.0013201,0.0092072,-0.000835,0,0,0.052425,-0.020506,0,-0.004342,0,0,0,0.029395,0.0012953,0.0092072,-1.7035,0.013299,0.025098,5.4822e-07,0.36,0.81,0
0.018813,-0.0067843,0.029264,0.0013021,0.0091698,-0.00074113,0,0,0.052245,-0.020456,0,-0.0038539,0,0,0,0.029284,0.0012825,0.0091698,-1.5172,0.013245,0.025008,5.4216e-07,0.37,0.81,0
0.019335,-0.006812,0.029154,0.0012873,0.0091324,-0.00064803,0,0,0.052056,-0.020397,0,-0.0033698,0,0,0,0.029169,0.0012723,0.0091324,-1.3314,0.013191,0.024915,5.3595e-07,0.38,0.81,0
0.019854,-0.006832,0.029041,0.0012743,0.0090947,-0.00055525,0,0,0.051861,-0.020333,0,-0.0028873,0,0,0,0.029052,0.0012632,0.0090947,-1.1451,0.013137,0.024818,5.2963e-07,0.39,0.81,0
0.020372,-0.0068444,0.028926,0.0012615,0.0090562,-0.00046243,0,0,0.051661,-0.020266,0,-0.0024046,0,0,0,0.028934,0.0012538,0.0090562,-0.95739,0.013081,0.02472,5.2325e-07,0.4,0.81,0
0.020887,-0.0068493,0.028808,0.0012472,0.0090165,-0.00036931,0,0,0.051458,-0.0202,0,-0.0019204,0,0,0,0.028813,0.0012422,0.0090165,-0.76757,0.013024,0.024622,5.1687e-07,0.41,0.81,0
0.021401,-0.0068468,0.028688,0.0012297,0.0089753,-0.00027574,0,0,0.051253,-0.020139,0,-0.0014339,0,0,0,0.028691,0.0012269,0.0089753,-0.5753,0.012964,0.024525,5.1054e-07,0.42,0.81,0
0.021913,-0.0068369,0.028566,0.0012072,0.008932,-0.00018174,0,0,0.051049,-0.020085,0,-0.00094502,0,0,0,0.028567,0.0012059,0.008932,-0.38057,0.012902,0.024432,5.0432e-07,0.43,0.81,0
0.022422,-0.0068198,0.028443,0.0011777,0.0088863,-8.746e-05,0,0,0.050848,-0.020042,0,-0.00045479,0,0,0,0.028444,0.0011774,0.0088863,-0.18379,0.012836,0.024345,4.9829e-07,0.44,0.81,0
0.022929,-0.0067956,0.02832,0.0011393,0.0088377,6.7093e-06,0,0,0.050653,-0.020016,0,3.4888e-05,0,0,0,0.02832,0.0011393,0.0088377,0.014143,0.012766,0.024265,4.9249e-07,0.45,0.81,0
0.023435,-0.0067645,0.028196,0.0010902,0.0087858,0.00010018,0,0,0.050466,-0.020008,0,0.00052093,0,0,0,0.028196,0.0010898,0.0087858,0.21175,0.012691,0.024194,4.87e-07,0.46,0.81,0
0.023939,-0.0067268,0.028072,0.0010285,0.0087302,0.00019212,0,0,0.050289,-0.020024,0,0.000999,0,0,0,0.028074,0.0010271,0.0087302,0.407,0.01261,0.024135,4.8187e-07,0.47,0.81,0
0.024441,-0.0066827,0.027949,0.00095249,0.0086705,0.00028144,0,0,0.050125,-0.020067,0,0.0014635,0,0,0,0.027952,0.00094955,0.0086705,0.59722,0.012524,0.024089,4.7713e-07,0.48,0.81,0
0.024941,-0.0066326,0.027828,0.00086086,0.0086066,0.00036682,0,0,0.049975,-0.020139,0,0.0019075,0,0,0,0.027833,0.00085587,0.0086066,0.77919,0.012432,0.024057,4.7284e-07,0.49,0.81,0
0.02544,-0.006577,0.027708,0.00075258,0.0085382,0.00044673,0,0,0.049841,-0.020243,0,0.002323,0,0,0,0.027715,0.00074518,0.0085382,0.94922,0.012333,0.02404,4.6899e-07,0.5,0.81,0
0.025938,-0.0065164,0.02759,0.00062712,0.0084651,0.00051946,0,0,0.049725,-0.020379,0,0.0027012,0,0,0,0.0276,0.00061711,0.0084651,1.1033,0.012227,0.02404,4.6559e-07,0.51,0.81,0
0.026435,-0.0064514,0.027474,0.00048452,0.0083876,0.00058319,0,0,0.049625,-0.020548,0,0.0030326,0,0,0,0.027487,0.00047192,0.0083876,1.2373,0.012115,0.024054,4.626e-07,0.52,0.81,0
0.026931,-0.0063829,0.02736,0.00032552,0.0083056,0.00063616,0,0,0.049541,-0.020748,0,0.003308,0,0,0,0.027375,0.00031056,0.0083056,1.3473,0.011997,0.024084,4.5997e-07,0.53,0.81,0
0.027426,-0.0063116,0.027248,0.00015157,0.0082198,0.00067666,0,0,0.049473,-0.020977,0,0.0035186,0,0,0,0.027265,0.00013468,0.0082198,1.4296,0.011873,0.024126,4.5764e-07,0.54,0.81,0
0.02792,-0.0062384,0.027137,-3.5183e-05,0.0081305,0.00070324,0,0,0.049417,-0.021231,0,0.0036569,0,0,0,0.027155,-5.3372e-05,0.0081305,1.4816,0.011744,0.024179,4.5552e-07,0.55,0.81,0
0.028414,-0.0061645,0.027027,-0.00023187,0.0080386,0.00071475,0,0,0.04937,-0.021503,0,0.0037167,0,0,0,0.027046,-0.00025059,0.0080386,1.501,0.011611,0.024239,4.5353e-07,0.56,0.81,0
0.028907,-0.0060909,0.026919,-0.00043495,0.0079451,0.00071042,0,0,0.049331,-0.021788,0,0.0036942,0,0,0,0.026937,-0.00045339,0.0079451,1.4867,0.011476,0.024305,4.5158e-07,0.57,0.81,0
0.029401,-0.0060188,0.026811,-0.00064029,0.0078512,0.00069001,0,0,0.049295,-0.022078,0,0.003588,0,0,0,0.026828,-0.00065763,0.0078512,1.439,0.011341,0.024372,4.4959e-07,0.58,0.81,0
0.029893,-0.0059494,0.026704,-0.00084328,0.0077583,0.00065384,0,0,0.04926,-0.022364,0,0.0034,0,0,0,0.02672,-0.00085879,0.0077583,1.3589,0.011206,0.024437,4.4749e-07,0.59,0.81,0
0.030386,-0.0058838,0.026599,-0.0010391,0.007668,0.00060293,0,0,0.049221,-0.022638,0,0.0031352,0,0,0,0.026612,-0.0010522,0.007668,1.2491,0.011076,0.024497,4.4524e-07,0.6,0.81,0
0.030878,-0.0058233,0.026496,-0.0012229,0.0075819,0.00053891,0,0,0.049176,-0.022892,0,0.0028023,0,0,0,0.026506,-0.0012334,0.0075819,1.1134,0.010952,0.024549,4.4284e-07,0.61,0.81,0
0.031369,-0.0057688,0.026396,-0.0013904,0.0075018,0.00046402,0,0,0.049126,-0.02312,0,0.0024129,0,0,0,0.026404,-0.0013982,0.0075018,0.95643,0.010836,0.024591,4.4031e-07,0.62,0.81,0
0.03186,-0.0057215,0.026303,-0.0015381,0.0074294,0.00038083,0,0,0.049071,-0.023315,0,0.0019803,0,0,0,0.026308,-0.0015433,0.0074294,0.78355,0.010731,0.024623,4.3773e-07,0.63,0.81,0
0.032351,-0.0056821,0.026217,-0.0016636,0.007366,0.00029199,0,0,0.049012,-0.023477,0,0.0015184,0,0,0,0.02622,-0.0016666,0.007366,0.59997,0.01064,0.024645,4.3522e-07,0.64,0.81,0
0.032841,-0.0056513,0.026142,-0.0017658,0.0073129,0.0001997,0,0,0.048956,-0.023605,0,0.0010384,0,0,0,0.026144,-0.0017672,0.0073129,0.40995,0.010563,0.024658,4.3293e-07,0.65,0.81,0
0.03333,-0.0056298,0.026081,-0.0018445,0.007271,0.00010533,0,0,0.048907,-0.0237,0,0.00054772,0,0,0,0.026082,-0.0018449,0.007271,0.2161,0.010503,0.024666,4.3102e-07,0.66,0.81,0
0.033819,-0.005618,0.026037,-0.0018996,0.0072411,9.4473e-06,0,0,0.048868,-0.023766,0,4.9126e-05,0,0,0,0.026037,-0.0018996,0.0072411,0.019376,0.010459,0.02467,4.2959e-07,0.67,0.81,0
0.034307,-0.0056161,0.02601,-0.0019304,0.0072238,-8.7771e-05,0,0,0.048843,-0.023801,0,-0.00045641,0,0,0,0.02601,-0.0019307,0.0072238,-0.17999,0.010434,0.024672,4.2873e-07,0.68,0.81,0
0.034796,-0.0056243,0.026002,-0.0019361,0.0072196,-0.00018608,0,0,0.048833,-0.023805,0,-0.00096763,0,0,0,0.026003,-0.0019373,0.0072196,-0.3816,0.010428,0.024671,4.2847e-07,0.69,0.81,0
0.035284,-0.0056428,0.026012,-0.0019165,0.0072286,-0.0002851,0,0,0.048837,-0.023777,0,-0.0014825,0,0,0,0.026015,-0.0019194,0.0072286,-0.58481,0.010441,0.024667,4.2881e-07,0.7,0.81,0
0.035772,-0.0056713,0.02604,-0.0018721,0.0072504,-0.00038456,0,0,0.048853,-0.023718,0,-0.0019997,0,0,0,0.026045,-0.0018774,0.0072504,-0.7892,0.010473,0.02466,4.297e-07,0.71,0.81,0
0.036261,-0.0057096,0.026084,-0.0018034,0.0072842,-0.00048427,0,0,0.048879,-0.023628,0,-0.0025182,0,0,0,0.026092,-0.0018118,0.0072842,-0.99455,0.010522,0.024649,4.3107e-07,0.72,0.81,0
0.03675,-0.0057575,0.026141,-0.0017102,0.0073293,-0.00058365,0,0,0.048911,-0.023503,0,-0.003035,0,0,0,0.026153,-0.0017225,0.0073293,-1.2,0.010587,0.024631,4.3278e-07,0.73,0.81,0
0.037239,-0.0058143,0.026209,-0.0015926,0.0073849,-0.00068132,0,0,0.048942,-0.023341,0,-0.0035429,0,0,0,0.026225,-0.0016093,0.0073849,-1.403,0.010667,0.024603,4.3466e-07,0.74,0.81,0
0.037729,-0.0058794,0.026284,-0.0014511,0.0074498,-0.00077502,0,0,0.048968,-0.023142,0,-0.0040301,0,0,0,0.026305,-0.0014728,0.0074498,-1.5994,0.010761,0.024564,4.3657e-07,0.75,0.81,0
0.038219,-0.0059521,0.026363,-0.001288,0.0075225,-0.00086202,0,0,0.048985,-0.022907,0,-0.0044825,0,0,0,0.02639,-0.0013149,0.0075225,-1.7839,0.010866,0.024511,4.3835e-07,0.76,0.81,0
0.038708,-0.0060314,0.026445,-0.0011064,0.0076015,-0.00093959,0,0,0.048992,-0.022641,0,-0.0048859,0,0,0,0.026477,-0.0011384,0.0076015,-1.951,0.01098,0.024446,4.399e-07,0.77,0.81,0
0.039198,-0.0061163,0.026527,-0.00091056,0.0076849,-0.0010053,0,0,0.048989,-0.022348,0,-0.0052276,0,0,0,0.026564,-0.00094735,0.0076849,-2.0956,0.0111,0.02437,4.4118e-07,0.78,0.81,0
0.039688,-0.0062055,0.026608,-0.00070503,0.007771,-0.0010573,0,0,0.048977,-0.022038,0,-0.0054979,0,0,0,0.026649,-0.00074589,0.007771,-2.2135,0.011225,0.024284,4.4216e-07,0.79,0.81,0
0.040178,-0.0062981,0.026689,-0.00049465,0.0078583,-0.0010943,0,0,0.04896,-0.021718,0,-0.0056902,0,0,0,0.026733,-0.00053863,0.0078583,-2.3015,0.011351,0.024192,4.4287e-07,0.8,0.81,0
0.040667,-0.0063927,0.026768,-0.00028411,0.0079452,-0.0011157,0,0,0.048939,-0.021396,0,-0.0058016,0,0,0,0.026814,-0.00033005,0.0079452,-2.3577,0.011476,0.024097,4.4336e-07,0.81,0.81,0
0.041157,-0.0064883,0.026846,-7.7696e-05,0.0080304,-0.0011216,0,0,0.04892,-0.021081,0,-0.0058322,0,0,0,0.026892,-0.00012434,0.0080304,-2.3813,0.0116,0.024002,4.4368e-07,0.82,0.81,0
0.041646,-0.0065837,0.026922,0.00012084,0.0081129,-0.0011125,0,0,0.048904,-0.020779,0,-0.005785,0,0,0,0.026968,7.4742e-05,0.0081129,-2.3729,0.011719,0.02391,4.4392e-07,0.83,0.81,0
0.042135,-0.0066779,0.026997,0.00030837,0.0081917,-0.0010895,0,0,0.048894,-0.020497,0,-0.0056654,0,0,0,0.027042,0.00026397,0.0081917,-2.3338,0.011832,0.023824,4.4415e-07,0.84,0.81,0
0.042624,-0.0067698,0.027071,0.00048242,0.0082661,-0.0010539,0,0,0.048893,-0.020237,0,-0.0054804,0,0,0,0.027113,0.00044071,0.0082661,-2.2663,0.01194,0.023747,4.4444e-07,0.85,0.81,0
0.043113,-0.0068587,0.027144,0.00064121,0.0083356,-0.0010074,0,0,0.048902,-0.020005,0,-0.0052385,0,0,0,0.027182,0.00060298,0.0083356,-2.1737,0.01204,0.02368,4.4486e-07,0.86,0.81,0
0.043602,-0.0069438,0.027216,0.00078369,0.0083999,-0.00095176,0,0,0.048922,-0.019802,0,-0.0049492,0,0,0,0.02725,0.00074947,0.0083999,-2.0595,0.012133,0.023624,4.4545e-07,0.87,0.81,0
0.044091,-0.0070244,0.027286,0.00090945,0.0084587,-0.00088882,0,0,0.048952,-0.019628,0,-0.0046219,0,0,0,0.027316,0.00087953,0.0084587,-1.9278,0.012218,0.023579,4.4623e-07,0.88,0.81,0
0.044581,-0.0071,0.027355,0.0010187,0.008512,-0.00082034,0,0,0.048991,-0.019483,0,-0.0042657,0,0,0,0.02738,0.00099316,0.008512,-1.7824,0.012295,0.023546,4.4721e-07,0.89,0.81,0
0.045071,-0.00717,0.027421,0.0011121,0.0085599,-0.00074794,0,0,0.049038,-0.019364,0,-0.0038893,0,0,0,0.027442,0.0010908,0.0085599,-1.6271,0.012364,0.023523,4.4837e-07,0.9,0.81,0
0.045562,-0.0072342,0.027484,0.0011907,0.0086023,-0.00067303,0,0,0.049092,-0.01927,0,-0.0034997,0,0,0,0.027501,0.0011734,0.0086023,-1.4653,0.012426,0.023511,4.4967e-07,0.91,0.81,0
0.046053,-0.0072922,0.027543,0.0012557,0.0086396,-0.00059676,0,0,0.049148,-0.019198,0,-0.0031032,0,0,0,0.027556,0.0012422,0.0086396,-1.2998,0.012479,0.023505,4.5107e-07,0.92,0.81,0
0.046545,-0.0073437,0.027597,0.0013087,0.0086718,-0.00052005,0,0,0.049206,-0.019144,0,-0.0027043,0,0,0,0.027608,0.0012984,0.0086718,-1.1329,0.012526,0.023506,4.525e-07,0.93,0.81,0
0.047037,-0.0073887,0.027646,0.001351,0.0086992,-0.00044355,0,0,0.049262,-0.019105,0,-0.0023065,0,0,0,0.027654,0.0013435,0.0086992,-0.96611,0.012566,0.023512,4.539e-07,0.94,0.81,0
0.04753,-0.0074269,0.027689,0.0013841,0.0087219,-0.00036768,0,0,0.049314,-0.019078,0,-0.0019119,0,0,0,0.027694,0.001379,0.0087219,-0.80065,0.012598,0.02352,4.5521e-07,0.95,0.81,0
0.048023,-0.0074583,0.027725,0.0014093,0.0087403,-0.00029266,0,0,0.04936,-0.019061,0,-0.0015218,0,0,0,0.027728,0.001406,0.0087403,-0.63709,0.012625,0.023529,4.5638e-07,0.96,0.81,0
0.048517,-0.0074827,0.027754,0.0014276,0.0087544,-0.00021853,0,0,0.049398,-0.01905,0,-0.0011363,0,0,0,0.027755,0.0014258,0.0087544,-0.47556,0.012645,0.023537,4.5734e-07,0.97,0.81,0
0.049011,-0.0075002,0.027774,0.00144,0.0087643,-0.00014519,0,0,0.049426,-0.019043,0,-0.00075499,0,0,0,0.027775,0.0014392,0.0087643,-0.31588,0.01266,0.023544,4.5806e-07,0.98,0.81,0
0.049506,-0.0075107,0.027787,0.0014472,0.0087702,-7.2439e-05,0,0,0.049443,-0.01904,0,-0.00037668,0,0,0,0.027787,0.001447,0.0087702,-0.15757,0.012668,0.023549,4.5851e-07,0.99,0.81,0
0.05,-0.0075142,0.027791,0.0014495,0.0087722,-6.7401e-05,0,0,0.049449,-0.019039,0,-0.00035048,0,0,0,0.027791,0.0014494,0.0087722,-0.1466,0.012671,0.02355,4.5867e-07,1,0.81,0
0,0,0.028527,0.012226,0.012226,-0.0058245,0,0,0.042383,-5.9631e-19,0,-0.030287,0,0,0,0.030395,0.010359,0.012226,-17.775,0.01766,0.01917,3.5029e-07,0,0.82,0
0.00042383,-0.00030287,0.028477,0.011589,0.01202,-0.0058195,0,0,0.042788,-0.0011202,0,-0.030261,0,0,0,0.030288,0.0097777,0.01202,-17.287,0.017362,0.019486,3.6311e-07,0.01,0.82,0
0.00085577,-0.00060667,0.028692,0.011038,0.011919,-0.0058115,0,0,0.04361,-0.0022913,0,-0.03022,0,0,0,0.030433,0.0092963,0.011919,-16.68,0.017216,0.019955,3.8447e-07,0.02,0.82,0
0.001296,-0.00091064,0.028908,0.010466,0.011812,-0.0057823,0,0,0.044449,-0.0035006,0,-0.030068,0,0,0,0.030571,0.0088026,0.011812,-16.045,0.017062,0.02043,4.0613e-07,0.03,0.82,0
0.0017447,-0.0012139,0.029121,0.0098797,0.0117,-0.0057291,0,0,0.045294,-0.0047332,0,-0.029791,0,0,0,0.030697,0.0083031,0.0117,-15.387,0.0169,0.020904,4.2768e-07,0.04,0.82,0
0.0022019,-0.0015154,0.029327,0.0092872,0.011584,-0.0056504,0,0,0.046132,-0.0059727,0,-0.029382,0,0,0,0.030811,0.0078039,0.011584,-14.709,0.016733,0.021369,4.4874e-07,0.05,0.82,0
0.0026674,-0.0018142,0.029524,0.0086955,0.011466,-0.0055462,0,0,0.046951,-0.0072026,0,-0.02884,0,0,0,0.030908,0.0073107,0.011466,-14.019,0.016562,0.021819,4.6894e-07,0.06,0.82,0
0.0031409,-0.0021092,0.029706,0.0081117,0.011345,-0.0054175,0,0,0.047739,-0.0084077,0,-0.028171,0,0,0,0.030989,0.0068288,0.011345,-13.322,0.016388,0.022249,4.8799e-07,0.07,0.82,0
0.0036222,-0.0023993,0.029873,0.0075422,0.011225,-0.0052665,0,0,0.048486,-0.009574,0,-0.027386,0,0,0,0.031053,0.0063624,0.011225,-12.626,0.016213,0.022654,5.0562e-07,0.08,0.82,0
0.0041106,-0.0026835,0.030021,0.0069923,0.011104,-0.0050961,0,0,0.049184,-0.01069,0,-0.0265,0,0,0,0.031098,0.0059149,0.011104,-11.937,0.016039,0.023031,5.2168e-07,0.09,0.82,0
0.0046058,-0.002961,0.030149,0.0064663,0.010985,-0.0049096,0,0,0.049827,-0.011748,0,-0.02553,0,0,0,0.031127,0.0054889,0.010985,-11.26,0.015867,0.023379,5.3606e-07,0.1,0.82,0
0.0051072,-0.0032311,0.030257,0.0059675,0.010867,-0.0047106,0,0,0.050413,-0.01274,0,-0.024495,0,0,0,0.031138,0.0050859,0.010867,-10.6,0.015697,0.023697,5.4872e-07,0.11,0.82,0
0.0056141,-0.0034929,0.030345,0.0054978,0.010753,-0.0045025,0,0,0.050939,-0.013663,0,-0.023413,0,0,0,0.031135,0.0047071,0.010753,-9.9608,0.015532,0.023984,5.5967e-07,0.12,0.82,0
0.006126,-0.003746,0.030412,0.0050586,0.010641,-0.0042888,0,0,0.051405,-0.014515,0,-0.022302,0,0,0,0.031118,0.0043528,0.010641,-9.3458,0.015371,0.024241,5.6897e-07,0.13,0.82,0
0.0066422,-0.00399,0.030462,0.0046503,0.010534,-0.0040725,0,0,0.051813,-0.015296,0,-0.021177,0,0,0,0.031089,0.004023,0.010534,-8.7567,0.015215,0.024469,5.7669e-07,0.14,0.82,0
0.0071622,-0.0042245,0.030493,0.0042726,0.01043,-0.0038562,0,0,0.052165,-0.016009,0,-0.020052,0,0,0,0.031048,0.0037172,0.01043,-8.1952,0.015065,0.02467,5.8295e-07,0.15,0.82,0
0.0076855,-0.0044493,0.030509,0.0039248,0.01033,-0.0036421,0,0,0.052464,-0.016654,0,-0.018939,0,0,0,0.030998,0.0034348,0.01033,-7.6618,0.014921,0.024844,5.8786e-07,0.16,0.82,0
0.0082115,-0.0046643,0.030509,0.0036059,0.010235,-0.0034322,0,0,0.052714,-0.017235,0,-0.017847,0,0,0,0.03094,0.003175,0.010235,-7.1567,0.014783,0.024995,5.9153e-07,0.17,0.82,0
0.0087398,-0.0048692,0.030497,0.0033146,0.010143,-0.0032278,0,0,0.05292,-0.017755,0,-0.016784,0,0,0,0.030875,0.0029366,0.010143,-6.6798,0.014652,0.025123,5.941e-07,0.18,0.82,0
0.0092699,-0.0050642,0.030473,0.0030495,0.010057,-0.00303,0,0,0.053083,-0.018219,0,-0.015756,0,0,0,0.030804,0.0027187,0.010057,-6.2303,0.014527,0.02523,5.9566e-07,0.19,0.82,0
0.0098014,-0.0052493,0.030439,0.0028091,0.0099746,-0.0028395,0,0,0.053208,-0.01863,0,-0.014766,0,0,0,0.030728,0.0025204,0.0099746,-5.8073,0.014408,0.025318,5.9633e-07,0.2,0.82,0
0.010334,-0.0054244,0.030396,0.0025919,0.0098965,-0.002657,0,0,0.0533,-0.018992,0,-0.013816,0,0,0,0.030648,0.0023403,0.0098965,-5.4099,0.014295,0.025388,5.9621e-07,0.21,0.82,0
0.010867,-0.0055898,0.030346,0.0023964,0.0098227,-0.0024825,0,0,0.05336,-0.019308,0,-0.012909,0,0,0,0.030565,0.0021777,0.0098227,-5.0366,0.014188,0.025441,5.9537e-07,0.22,0.82,0
0.011401,-0.0057455,0.030288,0.0022212,0.0097529,-0.0023162,0,0,0.053392,-0.019582,0,-0.012044,0,0,0,0.030478,0.0020313,0.0097529,-4.686,0.014087,0.025479,5.939e-07,0.23,0.82,0
0.011935,-0.0058917,0.030225,0.0020648,0.0096869,-0.002158,0,0,0.053399,-0.019818,0,-0.011221,0,0,0,0.030389,0.0019003,0.0096869,-4.3568,0.013992,0.025503,5.9187e-07,0.24,0.82,0
0.012469,-0.0060284,0.030156,0.0019258,0.0096247,-0.0020075,0,0,0.053382,-0.020017,0,-0.010439,0,0,0,0.030298,0.0017838,0.0096247,-4.0473,0.013902,0.025514,5.8932e-07,0.25,0.82,0
0.013003,-0.006156,0.030083,0.0018032,0.009566,-0.0018645,0,0,0.053345,-0.020183,0,-0.0096957,0,0,0,0.030206,0.0016808,0.009566,-3.7559,0.013817,0.025513,5.8633e-07,0.26,0.82,0
0.013536,-0.0062744,0.030006,0.0016956,0.0095105,-0.0017286,0,0,0.053289,-0.020319,0,-0.0089888,0,0,0,0.030111,0.0015904,0.0095105,-3.4812,0.013737,0.025501,5.8291e-07,0.27,0.82,0
0.014069,-0.0063838,0.029926,0.0016019,0.0094582,-0.0015992,0,0,0.053215,-0.020426,0,-0.0083159,0,0,0,0.030016,0.0015119,0.0094582,-3.2214,0.013662,0.025477,5.7913e-07,0.28,0.82,0
0.0146,-0.0064845,0.029841,0.0015211,0.0094087,-0.0014758,0,0,0.053125,-0.020508,0,-0.0076742,0,0,0,0.029918,0.0014444,0.0094087,-2.975,0.01359,0.025444,5.75e-07,0.29,0.82,0
0.015131,-0.0065766,0.029754,0.0014519,0.0093618,-0.0013579,0,0,0.05302,-0.020566,0,-0.0070608,0,0,0,0.029819,0.0013869,0.0093618,-2.7405,0.013523,0.025402,5.7056e-07,0.3,0.82,0
0.015661,-0.0066601,0.029664,0.0013935,0.0093173,-0.0012447,0,0,0.052902,-0.020602,0,-0.0064725,0,0,0,0.029719,0.0013388,0.0093173,-2.5162,0.013458,0.025351,5.6583e-07,0.31,0.82,0
0.016189,-0.0067352,0.029571,0.0013447,0.0092748,-0.0011358,0,0,0.052771,-0.020618,0,-0.0059063,0,0,0,0.029617,0.0012991,0.0092748,-2.3006,0.013397,0.025291,5.6084e-07,0.32,0.82,0
0.016716,-0.0068021,0.029476,0.0013046,0.0092341,-0.0010305,0,0,0.052628,-0.020617,0,-0.0053588,0,0,0,0.029514,0.0012669,0.0092341,-2.0922,0.013338,0.025225,5.5562e-07,0.33,0.82,0
0.017242,-0.0068608,0.029378,0.0012719,0.0091949,-0.00092828,0,0,0.052476,-0.0206,0,-0.0048271,0,0,0,0.029409,0.0012413,0.0091949,-1.8896,0.013282,0.025152,5.5019e-07,0.34,0.82,0
0.017766,-0.0069115,0.029277,0.0012457,0.0091569,-0.00082847,0,0,0.052313,-0.020569,0,-0.004308,0,0,0,0.029302,0.0012212,0.0091569,-1.6914,0.013227,0.025073,5.4458e-07,0.35,0.82,0
0.018288,-0.0069542,0.029175,0.0012248,0.0091198,-0.00073053,0,0,0.052142,-0.020527,0,-0.0037988,0,0,0,0.029194,0.0012057,0.0091198,-1.4962,0.013173,0.024989,5.3882e-07,0.36,0.82,0
0.018809,-0.006989,0.02907,0.0012078,0.0090832,-0.00063397,0,0,0.051964,-0.020476,0,-0.0032967,0,0,0,0.029084,0.0011934,0.0090832,-1.3028,0.01312,0.024901,5.3293e-07,0.37,0.82,0
0.019327,-0.007016,0.028962,0.0011937,0.0090468,-0.00053833,0,0,0.05178,-0.020418,0,-0.0027993,0,0,0,0.028973,0.0011832,0.0090468,-1.1102,0.013068,0.024811,5.2697e-07,0.38,0.82,0
0.019844,-0.0070354,0.028853,0.0011808,0.0090102,-0.0004432,0,0,0.051592,-0.020356,0,-0.0023046,0,0,0,0.02886,0.0011738,0.0090102,-0.91732,0.013015,0.024718,5.2097e-07,0.39,0.82,0
0.020359,-0.0070472,0.028743,0.001168,0.0089731,-0.00034828,0,0,0.0514,-0.020293,0,-0.001811,0,0,0,0.028747,0.0011635,0.0089731,-0.72351,0.012961,0.024626,5.1497e-07,0.4,0.82,0
0.020872,-0.0070514,0.02863,0.0011534,0.0089351,-0.00025336,0,0,0.051208,-0.020233,0,-0.0013175,0,0,0,0.028633,0.0011511,0.0089351,-0.52826,0.012906,0.024534,5.0902e-07,0.41,0.82,0
0.021383,-0.0070483,0.028517,0.0011356,0.0088958,-0.00015837,0,0,0.051015,-0.020176,0,-0.00082352,0,0,0,0.028518,0.0011347,0.0088958,-0.33137,0.012849,0.024445,5.0318e-07,0.42,0.82,0
0.021892,-0.0070379,0.028403,0.0011129,0.0088548,-6.3359e-05,0,0,0.050826,-0.020129,0,-0.00032947,0,0,0,0.028403,0.0011127,0.0088548,-0.13302,0.01279,0.024361,4.9751e-07,0.43,0.82,0
0.0224,-0.0070204,0.028289,0.0010835,0.0088118,3.1442e-05,0,0,0.050641,-0.020094,0,0.0001635,0,0,0,0.028289,0.0010835,0.0088118,0.066217,0.012728,0.024282,4.9204e-07,0.44,0.82,0
0.022905,-0.006996,0.028175,0.0010457,0.0087663,0.00012562,0,0,0.050463,-0.020073,0,0.00065323,0,0,0,0.028176,0.0010451,0.0087663,0.2653,0.012662,0.024212,4.8686e-07,0.45,0.82,0
0.023409,-0.0069649,0.028062,0.00099789,0.008718,0.00021857,0,0,0.050295,-0.020072,0,0.0011365,0,0,0,0.028064,0.00099613,0.008718,0.46267,0.012593,0.024151,4.82e-07,0.46,0.82,0
0.023911,-0.0069273,0.02795,0.00093841,0.0086666,0.00030945,0,0,0.050138,-0.020093,0,0.0016091,0,0,0,0.027954,0.00093486,0.0086666,0.65626,0.012518,0.024102,4.7751e-07,0.47,0.82,0
0.024412,-0.0068837,0.02784,0.00086585,0.0086118,0.00039722,0,0,0.049994,-0.02014,0,0.0020655,0,0,0,0.027846,0.00086,0.0086118,0.84348,0.012439,0.024065,4.7344e-07,0.48,0.82,0
0.024911,-0.0068343,0.027732,0.00077906,0.0085534,0.00048062,0,0,0.049865,-0.020213,0,0.0024992,0,0,0,0.027741,0.00077049,0.0085534,1.0212,0.012355,0.024043,4.698e-07,0.49,0.82,0
0.025409,-0.0067798,0.027627,0.00067721,0.0084913,0.00055823,0,0,0.049753,-0.020317,0,0.0029028,0,0,0,0.027639,0.00066565,0.0084913,1.1861,0.012265,0.024035,4.6662e-07,0.5,0.82,0
0.025906,-0.0067205,0.027525,0.00055989,0.0084254,0.00062846,0,0,0.049658,-0.02045,0,0.003268,0,0,0,0.027539,0.00054525,0.0084254,1.3344,0.01217,0.024043,4.6388e-07,0.51,0.82,0
0.026402,-0.0066572,0.027425,0.00042721,0.0083558,0.00068967,0,0,0.049581,-0.020614,0,0.0035863,0,0,0,0.027443,0.0004096,0.0083558,1.4624,0.012069,0.024065,4.6156e-07,0.52,0.82,0
0.026898,-0.0065906,0.027329,0.00027984,0.0082826,0.00074019,0,0,0.04952,-0.020807,0,0.003849,0,0,0,0.027349,0.0002596,0.0082826,1.5663,0.011964,0.024101,4.5962e-07,0.53,0.82,0
0.027393,-0.0065216,0.027236,0.00011907,0.0082064,0.00077845,0,0,0.049476,-0.021027,0,0.0040479,0,0,0,0.027258,9.6746e-05,0.0082064,1.643,0.011854,0.02415,4.58e-07,0.54,0.82,0
0.027887,-0.0064509,0.027145,-5.3176e-05,0.0081275,0.00080306,0,0,0.049445,-0.02127,0,0.0041759,0,0,0,0.027169,-7.6867e-05,0.0081275,1.6898,0.01174,0.024209,4.5663e-07,0.55,0.82,0
0.028382,-0.0063797,0.027057,-0.00023438,0.0080468,0.00081287,0,0,0.049426,-0.021531,0,0.0042269,0,0,0,0.027081,-0.00025857,0.0080468,1.7045,0.011623,0.024277,4.5544e-07,0.56,0.82,0
0.028876,-0.0063089,0.026971,-0.00042144,0.007965,0.00080707,0,0,0.049416,-0.021805,0,0.0041968,0,0,0,0.026995,-0.0004452,0.007965,1.6862,0.011505,0.02435,4.5435e-07,0.57,0.82,0
0.02937,-0.0062396,0.026888,-0.00061071,0.0078831,0.00078531,0,0,0.049412,-0.022084,0,0.0040836,0,0,0,0.02691,-0.00063312,0.0078831,1.6345,0.011387,0.024425,4.5328e-07,0.58,0.82,0
0.029864,-0.006173,0.026806,-0.0007982,0.0078024,0.0007477,0,0,0.04941,-0.022362,0,0.0038881,0,0,0,0.026827,-0.00081844,0.0078024,1.5504,0.01127,0.0245,4.5216e-07,0.59,0.82,0
0.030358,-0.0061102,0.026727,-0.00097969,0.0077243,0.00069495,0,0,0.049408,-0.02263,0,0.0036138,0,0,0,0.026745,-0.00099711,0.0077243,1.4359,0.011157,0.024571,4.5096e-07,0.6,0.82,0
0.030852,-0.0060522,0.026651,-0.001151,0.0076499,0.00062828,0,0,0.049402,-0.022882,0,0.0032671,0,0,0,0.026665,-0.0011652,0.0076499,1.2939,0.01105,0.024635,4.4965e-07,0.61,0.82,0
0.031346,-0.006,0.026578,-0.0013083,0.0075808,0.0005494,0,0,0.049392,-0.023112,0,0.0028569,0,0,0,0.026589,-0.0013192,0.0075808,1.1282,0.01095,0.024692,4.4824e-07,0.62,0.82,0
0.03184,-0.0059547,0.026509,-0.0014484,0.0075183,0.00046037,0,0,0.049377,-0.023313,0,0.0023939,0,0,0,0.026517,-0.0014559,0.0075183,0.94312,0.01086,0.024738,4.4676e-07,0.63,0.82,0
0.032334,-0.005917,0.026447,-0.0015686,0.0074636,0.0003633,0,0,0.049358,-0.023484,0,0.0018892,0,0,0,0.026452,-0.0015734,0.0074636,0.74282,0.010781,0.024776,4.4529e-07,0.64,0.82,0
0.032827,-0.0058876,0.026393,-0.0016675,0.0074177,0.00026017,0,0,0.049336,-0.023622,0,0.0013529,0,0,0,0.026396,-0.0016699,0.0074177,0.53116,0.010715,0.024803,4.4392e-07,0.65,0.82,0
0.033321,-0.0058671,0.026349,-0.001744,0.0073815,0.00015256,0,0,0.049315,-0.023726,0,0.00079331,0,0,0,0.02635,-0.0017448,0.0073815,0.31113,0.010662,0.024823,4.4273e-07,0.66,0.82,0
0.033814,-0.005856,0.026316,-0.0017972,0.0073555,4.1689e-05,0,0,0.049296,-0.023797,0,0.00021678,0,0,0,0.026316,-0.0017972,0.0073555,0.084964,0.010625,0.024835,4.4181e-07,0.67,0.82,0
0.034306,-0.0058544,0.026295,-0.0018265,0.0073404,-7.1456e-05,0,0,0.049281,-0.023834,0,-0.00037157,0,0,0,0.026295,-0.0018266,0.0073404,-0.14559,0.010603,0.024841,4.4119e-07,0.68,0.82,0
0.034799,-0.0058627,0.026286,-0.0018313,0.0073365,-0.00018592,0,0,0.049269,-0.023836,0,-0.00096677,0,0,0,0.026287,-0.0018325,0.0073365,-0.37883,0.010597,0.024839,4.4092e-07,0.69,0.82,0
0.035292,-0.0058808,0.026291,-0.0018114,0.0073437,-0.00030072,0,0,0.049262,-0.023803,0,-0.0015638,0,0,0,0.026294,-0.0018147,0.0073437,-0.61303,0.010608,0.02483,4.4097e-07,0.7,0.82,0
0.035784,-0.0059087,0.026307,-0.0017673,0.0073619,-0.00041489,0,0,0.049257,-0.023736,0,-0.0021574,0,0,0,0.026313,-0.0017734,0.0073619,-0.8465,0.010634,0.024814,4.4133e-07,0.71,0.82,0
0.036277,-0.0059461,0.026334,-0.0016992,0.0073904,-0.00052742,0,0,0.049253,-0.023633,0,-0.0027426,0,0,0,0.026344,-0.0017091,0.0073904,-1.0775,0.010675,0.024789,4.4192e-07,0.72,0.82,0
0.036769,-0.0059926,0.02637,-0.0016077,0.0074287,-0.00063705,0,0,0.049247,-0.023495,0,-0.0033127,0,0,0,0.026385,-0.0016222,0.0074287,-1.3037,0.01073,0.024755,4.4267e-07,0.73,0.82,0
0.037262,-0.0060477,0.026413,-0.0014936,0.0074759,-0.00074215,0,0,0.049237,-0.023321,0,-0.0038592,0,0,0,0.026433,-0.0015133,0.0074759,-1.5223,0.010799,0.02471,4.4346e-07,0.74,0.82,0
0.037754,-0.0061108,0.026462,-0.0013583,0.0075311,-0.00084068,0,0,0.04922,-0.023113,0,-0.0043715,0,0,0,0.026488,-0.0013837,0.0075311,-1.7293,0.010878,0.024654,4.442e-07,0.75,0.82,0
0.038246,-0.0061811,0.026514,-0.001204,0.0075931,-0.00093038,0,0,0.049195,-0.022872,0,-0.004838,0,0,0,0.026545,-0.0012351,0.0075931,-1.9203,0.010968,0.024585,4.4479e-07,0.76,0.82,0
0.038738,-0.0062577,0.026568,-0.0010336,0.0076604,-0.0010091,0,0,0.049161,-0.022605,0,-0.0052472,0,0,0,0.026605,-0.0010705,0.0076604,-2.0909,0.011065,0.024506,4.4519e-07,0.77,0.82,0
0.03923,-0.0063396,0.026624,-0.00085103,0.0077318,-0.0010749,0,0,0.049119,-0.022315,0,-0.0055892,0,0,0,0.026666,-0.00089302,0.0077318,-2.2369,0.011168,0.024417,4.4535e-07,0.78,0.82,0
0.03972,-0.0064258,0.026679,-0.00066021,0.0078057,-0.0011263,0,0,0.049071,-0.022011,0,-0.0058566,0,0,0,0.026725,-0.00070653,0.0078057,-2.355,0.011275,0.02432,4.4529e-07,0.79,0.82,0
0.040211,-0.0065152,0.026735,-0.00046535,0.0078808,-0.0011624,0,0,0.04902,-0.0217,0,-0.0060445,0,0,0,0.026784,-0.00051493,0.0078808,-2.4426,0.011383,0.024219,4.4503e-07,0.8,0.82,0
0.040701,-0.0066067,0.02679,-0.00027051,0.007956,-0.0011829,0,0,0.048969,-0.021389,0,-0.0061513,0,0,0,0.026842,-0.00032212,0.007956,-2.4983,0.011492,0.024115,4.4461e-07,0.81,0.82,0
0.04119,-0.0066991,0.026846,-7.9446e-05,0.0080299,-0.001188,0,0,0.048921,-0.021084,0,-0.0061778,0,0,0,0.026898,-0.00013176,0.0080299,-2.5215,0.011599,0.024013,4.441e-07,0.82,0.82,0
0.041679,-0.0067916,0.026901,0.00010456,0.0081018,-0.0011783,0,0,0.048879,-0.020793,0,-0.0061272,0,0,0,0.026953,5.285e-05,0.0081018,-2.5129,0.011703,0.023914,4.4357e-07,0.83,0.82,0
0.042168,-0.0068829,0.026957,0.00027875,0.0081708,-0.0011548,0,0,0.048844,-0.020519,0,-0.0060048,0,0,0,0.027007,0.00022886,0.0081708,-2.4739,0.011802,0.023822,4.4308e-07,0.84,0.82,0
0.042656,-0.0069723,0.027013,0.00044096,0.0082362,-0.0011187,0,0,0.04882,-0.020268,0,-0.0058175,0,0,0,0.02706,0.00039394,0.0082362,-2.4066,0.011897,0.023737,4.4269e-07,0.85,0.82,0
0.043144,-0.0070589,0.027069,0.0005896,0.0082975,-0.0010718,0,0,0.048805,-0.020041,0,-0.0055731,0,0,0,0.027112,0.00054629,0.0082975,-2.314,0.011985,0.023662,4.4245e-07,0.86,0.82,0
0.043632,-0.007142,0.027125,0.0007237,0.0083545,-0.0010154,0,0,0.048802,-0.01984,0,-0.0052801,0,0,0,0.027164,0.00068471,0.0083545,-2.1993,0.012068,0.023598,4.424e-07,0.87,0.82,0
0.04412,-0.0072209,0.02718,0.00084285,0.0084069,-0.00095141,0,0,0.04881,-0.019666,0,-0.0049473,0,0,0,0.027214,0.00080853,0.0084069,-2.0662,0.012143,0.023545,4.4256e-07,0.88,0.82,0
0.044609,-0.007295,0.027235,0.00094713,0.0084545,-0.00088135,0,0,0.048828,-0.019519,0,-0.004583,0,0,0,0.027264,0.00091762,0.0084545,-1.9181,0.012212,0.023503,4.4292e-07,0.89,0.82,0
0.045097,-0.0073638,0.027288,0.0010371,0.0084975,-0.00080673,0,0,0.048855,-0.019397,0,-0.004195,0,0,0,0.027313,0.0010123,0.0084975,-1.7586,0.012274,0.023471,4.4348e-07,0.9,0.82,0
0.045586,-0.007427,0.027339,0.0011134,0.0085357,-0.00072886,0,0,0.048888,-0.019298,0,-0.0037901,0,0,0,0.027359,0.0010932,0.0085357,-1.5907,0.012329,0.023448,4.4421e-07,0.91,0.82,0
0.046075,-0.0074842,0.027387,0.0011773,0.0085693,-0.00064888,0,0,0.048926,-0.019219,0,-0.0033742,0,0,0,0.027403,0.0011612,0.0085693,-1.4173,0.012378,0.023433,4.4505e-07,0.92,0.82,0
0.046564,-0.0075352,0.027432,0.0012299,0.0085985,-0.00056767,0,0,0.048967,-0.019158,0,-0.0029519,0,0,0,0.027444,0.0012176,0.0085985,-1.2406,0.01242,0.023425,4.4597e-07,0.93,0.82,0
0.047054,-0.0075797,0.027472,0.0012724,0.0086234,-0.00048593,0,0,0.049007,-0.019113,0,-0.0025268,0,0,0,0.027481,0.0012633,0.0086234,-1.0622,0.012456,0.023422,4.4691e-07,0.94,0.82,0
0.047544,-0.0076176,0.027508,0.0013059,0.0086442,-0.00040413,0,0,0.049046,-0.019079,0,-0.0021015,0,0,0,0.027514,0.0012997,0.0086442,-0.88343,0.012486,0.023422,4.4781e-07,0.95,0.82,0
0.048035,-0.0076488,0.027538,0.0013318,0.0086609,-0.00032258,0,0,0.04908,-0.019056,0,-0.0016774,0,0,0,0.027542,0.0013278,0.0086609,-0.70513,0.01251,0.023425,4.4863e-07,0.96,0.82,0
0.048526,-0.0076731,0.027562,0.0013508,0.0086738,-0.00024142,0,0,0.049109,-0.01904,0,-0.0012554,0,0,0,0.027564,0.0013485,0.0086738,-0.52767,0.012529,0.023428,4.4932e-07,0.97,0.82,0
0.049017,-0.0076905,0.027579,0.0013637,0.0086829,-0.00016067,0,0,0.049131,-0.01903,0,-0.00083549,0,0,0,0.02758,0.0013628,0.0086829,-0.35114,0.012542,0.023431,4.4983e-07,0.98,0.82,0
0.049508,-0.007701,0.02759,0.0013713,0.0086883,-8.0246e-05,0,0,0.049144,-0.019024,0,-0.00041728,0,0,0,0.02759,0.001371,0.0086883,-0.17536,0.01255,0.023433,4.5016e-07,0.99,0.82,0
0.05,-0.0077044,0.027593,0.0013738,0.0086901,-6.7133e-05,0,0,0.049148,-0.019023,0,-0.00034909,0,0,0,0.027593,0.0013736,0.0086901,-0.1467,0.012552,0.023435,4.5028e-07,1,0.82,0
0,0,0.028584,0.01225,0.01225,-0.006043,0,0,0.042468,-4.8789e-19,0,-0.031423,0,0,0,0.030577,0.010258,0.01225,-18.249,0.017695,0.0194,3.6168e-07,0,0.83,0
0.00042468,-0.00031423,0.028533,0.011594,0.012038,-0.0060378,0,0,0.042887,-0.001155,0,-0.031397,0,0,0,0.030465,0.0096619,0.012038,-17.742,0.017388,0.019722,3.7479e-07,0.01,0.83,0
0.00085773,-0.00062994,0.028754,0.011021,0.011933,-0.0060327,0,0,0.043737,-0.0023707,0,-0.03137,0,0,0,0.030612,0.0091631,0.011933,-17.115,0.017236,0.020207,3.9707e-07,0.02,0.83,0
0.0012994,-0.00094624,0.028977,0.010423,0.01182,-0.0060025,0,0,0.044608,-0.0036316,0,-0.031213,0,0,0,0.03075,0.0086508,0.01182,-16.452,0.017073,0.020697,4.1958e-07,0.03,0.83,0
0.0017499,-0.0012621,0.029196,0.0098098,0.011702,-0.0059441,0,0,0.045485,-0.0049191,0,-0.030909,0,0,0,0.030873,0.0081324,0.011702,-15.759,0.016903,0.021183,4.4183e-07,0.04,0.83,0
0.0022091,-0.0015763,0.029407,0.0091889,0.011579,-0.0058558,0,0,0.046353,-0.0062136,0,-0.03045,0,0,0,0.030981,0.0076154,0.011579,-15.041,0.016725,0.021657,4.6337e-07,0.05,0.83,0
0.002677,-0.0018876,0.029606,0.0085698,0.011453,-0.0057381,0,0,0.047198,-0.0074953,0,-0.029838,0,0,0,0.031069,0.0071064,0.011453,-14.307,0.016543,0.022112,4.8377e-07,0.06,0.83,0
0.0031531,-0.0021948,0.029788,0.0079608,0.011325,-0.0055926,0,0,0.048005,-0.0087461,0,-0.029081,0,0,0,0.031137,0.0066113,0.011325,-13.566,0.016358,0.022542,5.0271e-07,0.07,0.83,0
0.0036371,-0.0024968,0.029951,0.0073691,0.011196,-0.0054222,0,0,0.048763,-0.0099503,0,-0.028196,0,0,0,0.031186,0.0061346,0.011196,-12.826,0.016172,0.022943,5.1994e-07,0.08,0.83,0
0.0041284,-0.0027923,0.030093,0.0068008,0.011068,-0.0052308,0,0,0.049465,-0.011095,0,-0.0272,0,0,0,0.031214,0.00568,0.011068,-12.093,0.015987,0.023312,5.3531e-07,0.09,0.83,0
0.0046264,-0.0030805,0.030213,0.0062604,0.010942,-0.0050225,0,0,0.050104,-0.012172,0,-0.026117,0,0,0,0.031223,0.0052499,0.010942,-11.376,0.015805,0.023647,5.4874e-07,0.1,0.83,0
0.0051304,-0.0033605,0.030309,0.0057511,0.010818,-0.0048016,0,0,0.050677,-0.013174,0,-0.024968,0,0,0,0.031215,0.0048457,0.010818,-10.679,0.015626,0.023948,5.6024e-07,0.11,0.83,0
0.0056399,-0.0036316,0.030384,0.0052749,0.010698,-0.0045722,0,0,0.051184,-0.014099,0,-0.023776,0,0,0,0.03119,0.0044682,0.010698,-10.006,0.015452,0.024216,5.6986e-07,0.12,0.83,0
0.0061541,-0.0038932,0.030436,0.0048325,0.010581,-0.0043384,0,0,0.051625,-0.014945,0,-0.022559,0,0,0,0.031151,0.0041173,0.010581,-9.3603,0.015283,0.024452,5.7771e-07,0.13,0.83,0
0.0066724,-0.004145,0.030469,0.0044239,0.010468,-0.0041033,0,0,0.052003,-0.015714,0,-0.021337,0,0,0,0.0311,0.0037927,0.010468,-8.7445,0.01512,0.024657,5.8392e-07,0.14,0.83,0
0.0071942,-0.0043866,0.030484,0.0040485,0.01036,-0.0038699,0,0,0.052323,-0.016409,0,-0.020123,0,0,0,0.031039,0.0034936,0.01036,-8.1594,0.014964,0.024834,5.8863e-07,0.15,0.83,0
0.0077189,-0.0046177,0.030482,0.003705,0.010256,-0.0036404,0,0,0.052587,-0.017033,0,-0.01893,0,0,0,0.030968,0.0032189,0.010256,-7.6056,0.014814,0.024985,5.92e-07,0.16,0.83,0
0.0082459,-0.0048383,0.030466,0.003392,0.010157,-0.0034168,0,0,0.052802,-0.01759,0,-0.017767,0,0,0,0.03089,0.0029675,0.010157,-7.083,0.014672,0.025112,5.9416e-07,0.17,0.83,0
0.0087749,-0.0050484,0.030436,0.0031078,0.010063,-0.0032004,0,0,0.05297,-0.018084,0,-0.016642,0,0,0,0.030806,0.002738,0.010063,-6.5909,0.014536,0.025217,5.9528e-07,0.18,0.83,0
0.0093053,-0.0052479,0.030396,0.0028507,0.0099741,-0.0029921,0,0,0.053098,-0.018521,0,-0.015559,0,0,0,0.030718,0.0025294,0.0099741,-6.1285,0.014407,0.025301,5.9546e-07,0.19,0.83,0
0.0098368,-0.0054369,0.030347,0.0026187,0.0098897,-0.0027927,0,0,0.053189,-0.018905,0,-0.014522,0,0,0,0.030625,0.0023402,0.0098897,-5.6944,0.014285,0.025368,5.9484e-07,0.2,0.83,0
0.010369,-0.0056156,0.030289,0.0024102,0.0098099,-0.0026024,0,0,0.053247,-0.019239,0,-0.013532,0,0,0,0.03053,0.0021693,0.0098099,-5.2874,0.01417,0.025417,5.9352e-07,0.21,0.83,0
0.010902,-0.005784,0.030225,0.0022234,0.0097345,-0.0024213,0,0,0.053275,-0.019529,0,-0.012591,0,0,0,0.030433,0.0020156,0.0097345,-4.9058,0.014061,0.025451,5.9158e-07,0.22,0.83,0
0.011435,-0.0059423,0.030155,0.0020567,0.0096635,-0.0022493,0,0,0.053278,-0.019778,0,-0.011696,0,0,0,0.030334,0.0018778,0.0096635,-4.548,0.013959,0.025472,5.8911e-07,0.23,0.83,0
0.011967,-0.0060907,0.03008,0.0019087,0.0095967,-0.0020862,0,0,0.053257,-0.019989,0,-0.010848,0,0,0,0.030234,0.001755,0.0095967,-4.2123,0.013862,0.02548,5.8618e-07,0.24,0.83,0
0.0125,-0.0062293,0.030002,0.0017777,0.0095338,-0.0019315,0,0,0.053216,-0.020166,0,-0.010044,0,0,0,0.030133,0.0016461,0.0095338,-3.8969,0.013771,0.025476,5.8285e-07,0.25,0.83,0
0.013032,-0.0063584,0.029919,0.0016626,0.0094745,-0.0017849,0,0,0.053156,-0.020311,0,-0.0092816,0,0,0,0.030031,0.0015503,0.0094745,-3.6002,0.013685,0.025461,5.7916e-07,0.26,0.83,0
0.013563,-0.0064781,0.029834,0.001562,0.0094188,-0.0016458,0,0,0.05308,-0.020428,0,-0.008558,0,0,0,0.02993,0.0014665,0.0094188,-3.3203,0.013605,0.025437,5.7515e-07,0.27,0.83,0
0.014093,-0.0065886,0.029746,0.0014747,0.0093664,-0.0015135,0,0,0.052988,-0.020518,0,-0.0078702,0,0,0,0.029827,0.001394,0.0093664,-3.0556,0.013529,0.025403,5.7086e-07,0.28,0.83,0
0.014623,-0.00669,0.029656,0.0013997,0.0093169,-0.0013875,0,0,0.052883,-0.020585,0,-0.007215,0,0,0,0.029725,0.0013318,0.0093169,-2.8044,0.013458,0.025361,5.6632e-07,0.29,0.83,0
0.015151,-0.0067826,0.029565,0.0013358,0.0092701,-0.0012671,0,0,0.052766,-0.020629,0,-0.006589,0,0,0,0.029621,0.001279,0.0092701,-2.565,0.01339,0.025311,5.6156e-07,0.3,0.83,0
0.015678,-0.0068664,0.029471,0.001282,0.0092259,-0.0011517,0,0,0.052637,-0.020654,0,-0.0059891,0,0,0,0.029518,0.001235,0.0092259,-2.3358,0.013326,0.025254,5.5661e-07,0.31,0.83,0
0.016204,-0.0069416,0.029376,0.0012372,0.0091838,-0.0010407,0,0,0.052499,-0.020661,0,-0.0054116,0,0,0,0.029414,0.0011987,0.0091838,-2.1152,0.013265,0.025191,5.5147e-07,0.32,0.83,0
0.016728,-0.0070085,0.029279,0.0012004,0.0091437,-0.00093336,0,0,0.052351,-0.020653,0,-0.0048535,0,0,0,0.02931,0.0011694,0.0091437,-1.9018,0.013208,0.025121,5.4619e-07,0.33,0.83,0
0.017251,-0.007067,0.02918,0.0011705,0.0091052,-0.00082913,0,0,0.052195,-0.02063,0,-0.0043115,0,0,0,0.029205,0.0011459,0.0091052,-1.6941,0.013152,0.025046,5.4077e-07,0.34,0.83,0
0.017772,-0.0071173,0.02908,0.0011465,0.009068,-0.00072741,0,0,0.052032,-0.020596,0,-0.0037825,0,0,0,0.029099,0.0011275,0.009068,-1.4907,0.013098,0.024967,5.3525e-07,0.35,0.83,0
0.018291,-0.0071595,0.028979,0.0011272,0.0090319,-0.00062768,0,0,0.051863,-0.020552,0,-0.0032639,0,0,0,0.028993,0.001113,0.0090319,-1.2904,0.013046,0.024884,5.2965e-07,0.36,0.83,0
0.018809,-0.0071939,0.028877,0.0011114,0.0089964,-0.00052944,0,0,0.051689,-0.020501,0,-0.0027531,0,0,0,0.028887,0.0011013,0.0089964,-1.092,0.012995,0.024799,5.24e-07,0.37,0.83,0
0.019325,-0.0072203,0.028773,0.001098,0.0089613,-0.00043227,0,0,0.051511,-0.020445,0,-0.0022478,0,0,0,0.02878,0.0010913,0.0089613,-0.89463,0.012944,0.024712,5.1834e-07,0.38,0.83,0
0.019839,-0.0072391,0.028669,0.0010857,0.0089263,-0.00033581,0,0,0.05133,-0.020386,0,-0.0017462,0,0,0,0.028673,0.0010816,0.0089263,-0.69741,0.012894,0.024625,5.127e-07,0.39,0.83,0
0.020352,-0.0072503,0.028564,0.001073,0.008891,-0.00023981,0,0,0.051149,-0.020327,0,-0.001247,0,0,0,0.028566,0.0010709,0.008891,-0.49976,0.012842,0.024538,5.0711e-07,0.4,0.83,0
0.020862,-0.0072539,0.028458,0.0010585,0.008855,-0.00014412,0,0,0.050968,-0.020271,0,-0.00074941,0,0,0,0.028459,0.0010577,0.008855,-0.30135,0.012791,0.024453,5.0164e-07,0.41,0.83,0
0.021371,-0.0072503,0.028353,0.0010408,0.008818,-4.8703e-05,0,0,0.05079,-0.020221,0,-0.00025325,0,0,0,0.028353,0.0010407,0.008818,-0.10217,0.012737,0.024372,4.9632e-07,0.42,0.83,0
0.021878,-0.0072394,0.028247,0.0010183,0.0087797,4.632e-05,0,0,0.050616,-0.02018,0,0.00024087,0,0,0,0.028247,0.0010182,0.0087797,0.097468,0.012682,0.024297,4.9119e-07,0.43,0.83,0
0.022383,-0.0072216,0.028143,0.00098948,0.0087397,0.00014068,0,0,0.050448,-0.02015,0,0.00073153,0,0,0,0.028143,0.00098875,0.0087397,0.29684,0.012624,0.024228,4.8632e-07,0.44,0.83,0
0.022887,-0.007197,0.028039,0.0009528,0.0086976,0.00023393,0,0,0.050288,-0.020137,0,0.0012164,0,0,0,0.028041,0.00095078,0.0086976,0.49478,0.012563,0.024167,4.8175e-07,0.45,0.83,0
0.023389,-0.0071659,0.027938,0.00090679,0.0086533,0.00032544,0,0,0.050139,-0.020141,0,0.0016923,0,0,0,0.027941,0.00090287,0.0086533,0.68969,0.012499,0.024116,4.7752e-07,0.46,0.83,0
0.02389,-0.0071286,0.027838,0.00085004,0.0086064,0.00041439,0,0,0.050002,-0.020166,0,0.0021548,0,0,0,0.027844,0.00084368,0.0086064,0.87948,0.012431,0.024077,4.7367e-07,0.47,0.83,0
0.024389,-0.0070855,0.027741,0.00078137,0.0085566,0.00049975,0,0,0.049879,-0.020216,0,0.0025987,0,0,0,0.02775,0.00077211,0.0085566,1.0616,0.01236,0.02405,4.7024e-07,0.48,0.83,0
0.024887,-0.0070369,0.027647,0.00069978,0.0085039,0.00058035,0,0,0.049771,-0.020291,0,0.0030178,0,0,0,0.027659,0.00068729,0.0085039,1.2332,0.012283,0.024036,4.6724e-07,0.49,0.83,0
0.025385,-0.0069833,0.027556,0.00060461,0.0084481,0.00065482,0,0,0.04968,-0.020393,0,0.0034051,0,0,0,0.027572,0.00058871,0.0084481,1.391,0.012203,0.024037,4.6469e-07,0.5,0.83,0
0.025881,-0.0069254,0.027468,0.00049556,0.0083892,0.00072171,0,0,0.049606,-0.020524,0,0.0037529,0,0,0,0.027488,0.00047626,0.0083892,1.5316,0.012118,0.024052,4.6257e-07,0.51,0.83,0
0.026377,-0.0068637,0.027385,0.00037277,0.0083273,0.00077947,0,0,0.04955,-0.020682,0,0.0040533,0,0,0,0.027407,0.0003503,0.0083273,1.6515,0.012028,0.024081,4.6087e-07,0.52,0.83,0
0.026872,-0.006799,0.027305,0.00023688,0.0082626,0.00082658,0,0,0.049511,-0.020867,0,0.0042982,0,0,0,0.02733,0.00021167,0.0082626,1.7475,0.011935,0.024123,4.5955e-07,0.53,0.83,0
0.027367,-0.0067321,0.027229,8.9064e-05,0.0081955,0.00086157,0,0,0.049488,-0.021077,0,0.0044802,0,0,0,0.027256,6.174e-05,0.0081955,1.8164,0.011838,0.024177,4.5856e-07,0.54,0.83,0
0.027862,-0.0066638,0.027157,-6.8979e-05,0.0081263,0.00088312,0,0,0.049479,-0.021308,0,0.0045922,0,0,0,0.027185,-9.7594e-05,0.0081263,1.8559,0.011738,0.024241,4.5785e-07,0.55,0.83,0
0.028356,-0.0065951,0.027088,-0.000235,0.0080558,0.00089013,0,0,0.049483,-0.021556,0,0.0046287,0,0,0,0.027117,-0.00026397,0.0080558,1.864,0.011636,0.024313,4.5733e-07,0.56,0.83,0
0.028851,-0.006527,0.027022,-0.00040626,0.0079847,0.0008818,0,0,0.049497,-0.021816,0,0.0045854,0,0,0,0.02705,-0.00043458,0.0079847,1.8395,0.011533,0.02439,4.5693e-07,0.57,0.83,0
0.029346,-0.0064605,0.026959,-0.00057958,0.0079137,0.00085771,0,0,0.049517,-0.022083,0,0.0044601,0,0,0,0.026985,-0.00060627,0.0079137,1.7822,0.011431,0.024471,4.566e-07,0.58,0.83,0
0.029842,-0.0063966,0.026898,-0.00075145,0.007844,0.00081788,0,0,0.049541,-0.022348,0,0.004253,0,0,0,0.026922,-0.00077562,0.007844,1.6928,0.01133,0.024551,4.5627e-07,0.59,0.83,0
0.030337,-0.0063364,0.02684,-0.00091821,0.0077766,0.00076277,0,0,0.049566,-0.022607,0,0.0039664,0,0,0,0.026861,-0.00093916,0.0077766,1.5728,0.011233,0.024628,4.5588e-07,0.6,0.83,0
0.030833,-0.0062809,0.026785,-0.0010762,0.0077127,0.00069336,0,0,0.049589,-0.022851,0,0.0036055,0,0,0,0.026802,-0.0010934,0.0077127,1.4247,0.011141,0.0247,4.554e-07,0.61,0.83,0
0.031329,-0.0062311,0.026733,-0.001222,0.0076533,0.00061099,0,0,0.049607,-0.023076,0,0.0031772,0,0,0,0.026746,-0.0012353,0.0076533,1.2515,0.011055,0.024764,4.5483e-07,0.62,0.83,0
0.031825,-0.0061877,0.026685,-0.0013525,0.0075996,0.00051736,0,0,0.049621,-0.023276,0,0.0026903,0,0,0,0.026694,-0.0013621,0.0075996,1.0568,0.010977,0.02482,4.5418e-07,0.63,0.83,0
0.032321,-0.0061518,0.026641,-0.0014654,0.0075526,0.00041429,0,0,0.049629,-0.023447,0,0.0021543,0,0,0,0.026647,-0.0014715,0.0075526,0.84431,0.010909,0.024866,4.5348e-07,0.64,0.83,0
0.032818,-0.0061238,0.026602,-0.0015587,0.0075131,0.00030361,0,0,0.049632,-0.023586,0,0.0015788,0,0,0,0.026606,-0.0015619,0.0075131,0.61763,0.010852,0.024903,4.5278e-07,0.65,0.83,0
0.033314,-0.0061043,0.02657,-0.0016309,0.0074818,0.00018704,0,0,0.04963,-0.023693,0,0.0009726,0,0,0,0.026572,-0.0016321,0.0074818,0.37998,0.010807,0.024929,4.5212e-07,0.66,0.83,0
0.03381,-0.0060939,0.026546,-0.0016811,0.0074594,6.6121e-05,0,0,0.049624,-0.023765,0,0.00034383,0,0,0,0.026546,-0.0016813,0.0074594,0.13421,0.010775,0.024946,4.5156e-07,0.67,0.83,0
0.034307,-0.0060927,0.026529,-0.0017085,0.0074462,-5.7683e-05,0,0,0.049615,-0.023802,0,-0.00029995,0,0,0,0.026529,-0.0017086,0.0074462,-0.11704,0.010756,0.024953,4.5113e-07,0.68,0.83,0
0.034803,-0.006101,0.02652,-0.0017125,0.0074424,-0.00018295,0,0,0.049603,-0.023803,0,-0.00095134,0,0,0,0.026522,-0.0017137,0.0074424,-0.37126,0.01075,0.024951,4.5083e-07,0.69,0.83,0
0.035299,-0.0061188,0.02652,-0.001693,0.0074481,-0.00030825,0,0,0.049587,-0.023767,0,-0.0016029,0,0,0,0.026524,-0.0016964,0.0074481,-0.62591,0.010758,0.024938,4.5067e-07,0.7,0.83,0
0.035794,-0.006146,0.026527,-0.0016503,0.0074632,-0.00043215,0,0,0.049567,-0.023695,0,-0.0022472,0,0,0,0.026534,-0.0016569,0.0074632,-0.87845,0.01078,0.024916,4.5062e-07,0.71,0.83,0
0.03629,-0.0061823,0.026542,-0.0015849,0.0074871,-0.00055316,0,0,0.049542,-0.023587,0,-0.0028764,0,0,0,0.026553,-0.0015958,0.0074871,-1.1262,0.010815,0.024883,4.5064e-07,0.72,0.83,0
0.036785,-0.0062274,0.026562,-0.0014976,0.0075193,-0.00066967,0,0,0.049511,-0.023444,0,-0.0034823,0,0,0,0.026578,-0.0015136,0.0075193,-1.3664,0.010861,0.024839,4.5066e-07,0.73,0.83,0
0.03728,-0.0062807,0.026587,-0.0013895,0.0075592,-0.0007799,0,0,0.049472,-0.023267,0,-0.0040555,0,0,0,0.026609,-0.0014112,0.0075592,-1.5956,0.010919,0.024784,4.5064e-07,0.74,0.83,0
0.037775,-0.0063417,0.026615,-0.0012623,0.0076058,-0.00088194,0,0,0.049424,-0.023057,0,-0.0045861,0,0,0,0.026643,-0.0012902,0.0076058,-1.8102,0.010986,0.024717,4.505e-07,0.75,0.83,0
0.038269,-0.0064095,0.026646,-0.0011184,0.0076583,-0.00097382,0,0,0.049368,-0.022819,0,-0.0050639,0,0,0,0.02668,-0.0011525,0.0076583,-2.0063,0.011062,0.024638,4.502e-07,0.76,0.83,0
0.038762,-0.0064835,0.026678,-0.00096038,0.0077154,-0.0010537,0,0,0.049304,-0.022557,0,-0.0054793,0,0,0,0.026718,-0.0010005,0.0077154,-2.1802,0.011144,0.02455,4.4971e-07,0.77,0.83,0
0.039255,-0.0065626,0.026712,-0.0007917,0.007776,-0.0011201,0,0,0.049233,-0.022276,0,-0.0058245,0,0,0,0.026757,-0.00083724,0.007776,-2.3283,0.011232,0.024453,4.4901e-07,0.78,0.83,0
0.039747,-0.0066458,0.026746,-0.0006159,0.0078391,-0.0011718,0,0,0.049158,-0.021983,0,-0.0060933,0,0,0,0.026796,-0.00066599,0.0078391,-2.4478,0.011323,0.02435,4.4813e-07,0.79,0.83,0
0.040238,-0.0067321,0.026781,-0.00043662,0.0079033,-0.0012081,0,0,0.049082,-0.021684,0,-0.0062823,0,0,0,0.026835,-0.00049014,0.0079033,-2.5366,0.011416,0.024243,4.4709e-07,0.8,0.83,0
0.040728,-0.0068205,0.026817,-0.0002574,0.0079678,-0.0012289,0,0,0.049007,-0.021385,0,-0.0063903,0,0,0,0.026872,-0.00031307,0.0079678,-2.5936,0.011509,0.024135,4.4595e-07,0.81,0.83,0
0.041218,-0.00691,0.026853,-8.1531e-05,0.0080314,-0.0012344,0,0,0.048936,-0.021094,0,-0.0064187,0,0,0,0.026909,-0.00013798,0.0080314,-2.6185,0.011601,0.024028,4.4476e-07,0.82,0.83,0
0.041707,-0.0069996,0.02689,8.8111e-05,0.0080935,-0.0012251,0,0,0.048871,-0.020814,0,-0.0063707,0,0,0,0.026946,3.2227e-05,0.0080935,-2.6117,0.011691,0.023925,4.4359e-07,0.83,0.83,0
0.042195,-0.0070882,0.026929,0.00024909,0.0081533,-0.0012022,0,0,0.048816,-0.020551,0,-0.0062513,0,0,0,0.026983,0.00019503,0.0081533,-2.5748,0.011777,0.023827,4.4248e-07,0.84,0.83,0
0.042683,-0.0071752,0.026968,0.00039947,0.0082102,-0.0011667,0,0,0.04877,-0.020308,0,-0.0060671,0,0,0,0.027019,0.00034833,0.0082102,-2.5097,0.011859,0.023737,4.415e-07,0.85,0.83,0
0.043171,-0.0072596,0.027008,0.00053783,0.0082637,-0.0011202,0,0,0.048735,-0.020087,0,-0.0058251,0,0,0,0.027055,0.00049051,0.0082637,-2.419,0.011936,0.023656,4.4068e-07,0.86,0.83,0
0.043658,-0.0073406,0.027049,0.00066328,0.0083137,-0.0010641,0,0,0.048712,-0.019891,0,-0.0055334,0,0,0,0.027092,0.00062044,0.0083137,-2.3057,0.012009,0.023585,4.4006e-07,0.87,0.83,0
0.044145,-0.0074178,0.02709,0.00077538,0.0083597,-0.00099996,0,0,0.048699,-0.019719,0,-0.0051998,0,0,0,0.027128,0.00073744,0.0083597,-2.173,0.012075,0.023525,4.3966e-07,0.88,0.83,0
0.044632,-0.0074904,0.027132,0.00087414,0.0084017,-0.00092924,0,0,0.048698,-0.019572,0,-0.0048321,0,0,0,0.027165,0.0008413,0.0084017,-2.0243,0.012136,0.023474,4.3947e-07,0.89,0.83,0
0.045119,-0.007558,0.027172,0.00095991,0.0084397,-0.00085336,0,0,0.048705,-0.019447,0,-0.0044375,0,0,0,0.0272,0.00093216,0.0084397,-1.8627,0.012191,0.023434,4.3949e-07,0.9,0.83,0
0.045606,-0.0076202,0.027212,0.0010333,0.0084736,-0.00077355,0,0,0.04872,-0.019345,0,-0.0040225,0,0,0,0.027235,0.0010105,0.0084736,-1.6911,0.01224,0.023403,4.3969e-07,0.91,0.83,0
0.046094,-0.0076766,0.02725,0.0010953,0.0085036,-0.00069091,0,0,0.048741,-0.019262,0,-0.0035927,0,0,0,0.027268,0.001077,0.0085036,-1.5121,0.012283,0.02338,4.4004e-07,0.92,0.83,0
0.046581,-0.0077269,0.027285,0.0011467,0.0085296,-0.00060632,0,0,0.048765,-0.019196,0,-0.0031529,0,0,0,0.027299,0.0011327,0.0085296,-1.3281,0.01232,0.023364,4.4049e-07,0.93,0.83,0
0.047069,-0.007771,0.027318,0.0011887,0.0085518,-0.00052051,0,0,0.048791,-0.019144,0,-0.0027066,0,0,0,0.027328,0.0011783,0.0085518,-1.1408,0.012353,0.023353,4.41e-07,0.94,0.83,0
0.047557,-0.0078085,0.027346,0.0012221,0.0085704,-0.00043401,0,0,0.048816,-0.019106,0,-0.0022568,0,0,0,0.027353,0.0012149,0.0085704,-0.95153,0.012379,0.023346,4.4152e-07,0.95,0.83,0
0.048045,-0.0078394,0.02737,0.001248,0.0085854,-0.0003472,0,0,0.04884,-0.019077,0,-0.0018054,0,0,0,0.027375,0.0012434,0.0085854,-0.76135,0.012401,0.023343,4.4202e-07,0.96,0.83,0
0.048534,-0.0078635,0.027389,0.0012673,0.008597,-0.00026031,0,0,0.04886,-0.019057,0,-0.0013536,0,0,0,0.027392,0.0012647,0.008597,-0.57088,0.012418,0.023342,4.4245e-07,0.97,0.83,0
0.049022,-0.0078808,0.027404,0.0012805,0.0086052,-0.00017347,0,0,0.048876,-0.019044,0,-0.00090202,0,0,0,0.027405,0.0012794,0.0086052,-0.38044,0.01243,0.023341,4.4278e-07,0.98,0.83,0
0.049511,-0.0078912,0.027412,0.0012882,0.0086101,-8.6705e-05,0,0,0.048885,-0.019037,0,-0.00045087,0,0,0,0.027412,0.001288,0.0086101,-0.19016,0.012437,0.023341,4.4299e-07,0.99,0.83,0
0.05,-0.0078947,0.027415,0.0012908,0.0086117,-6.673e-05,0,0,0.048888,-0.019034,0,-0.000347,0,0,0,0.027415,0.0012906,0.0086117,-0.14635,0.012439,0.023342,4.4307e-07,1,0.83,0
0,0,0.028662,0.012284,0.012284,-0.0062687,0,0,0.042584,-7.0473e-19,0,-0.032597,0,0,0,0.030786,0.01016,0.012284,-18.717,0.017743,0.019651,3.7441e-07,0,0.84,0
0.00042584,-0.00032597,0.02861,0.011604,0.012064,-0.0062633,0,0,0.043018,-0.0011964,0,-0.032569,0,0,0,0.030667,0.0095461,0.012064,-18.188,0.017426,0.019982,3.879e-07,0.01,0.84,0
0.00086037,-0.00065408,0.028839,0.011005,0.011953,-0.0062617,0,0,0.043903,-0.0024651,0,-0.032561,0,0,0,0.030818,0.0090262,0.011953,-17.539,0.017266,0.020486,4.1132e-07,0.02,0.84,0
0.0013039,-0.00098327,0.029069,0.010377,0.011834,-0.0062301,0,0,0.044811,-0.0037869,0,-0.032397,0,0,0,0.030955,0.0084913,0.011834,-16.844,0.017094,0.020993,4.3485e-07,0.03,0.84,0
0.0017566,-0.0013123,0.029295,0.0097313,0.011708,-0.006165,0,0,0.045726,-0.0051391,0,-0.032058,0,0,0,0.031075,0.0079506,0.011708,-16.111,0.016911,0.021494,4.5792e-07,0.04,0.84,0
0.0022184,-0.0016397,0.02951,0.0090774,0.011576,-0.006065,0,0,0.046629,-0.0064972,0,-0.031538,0,0,0,0.031175,0.0074128,0.011576,-15.348,0.016721,0.021978,4.7997e-07,0.05,0.84,0
0.0026892,-0.0019641,0.029711,0.0084269,0.011441,-0.0059309,0,0,0.047501,-0.0078376,0,-0.03084,0,0,0,0.031252,0.0068858,0.011441,-14.566,0.016526,0.022438,5.0053e-07,0.06,0.84,0
0.0031685,-0.0022841,0.029892,0.0077895,0.011305,-0.0057653,0,0,0.048328,-0.009139,0,-0.029979,0,0,0,0.031305,0.006376,0.011305,-13.775,0.016329,0.022867,5.1926e-07,0.07,0.84,0
0.0036557,-0.0025983,0.03005,0.0071736,0.011167,-0.0055722,0,0,0.049096,-0.010383,0,-0.028975,0,0,0,0.031336,0.0058885,0.011167,-12.986,0.01613,0.023261,5.3591e-07,0.08,0.84,0
0.0041504,-0.0029054,0.030184,0.0065858,0.011031,-0.0053565,0,0,0.049798,-0.011557,0,-0.027854,0,0,0,0.031343,0.0054269,0.011031,-12.209,0.015934,0.023618,5.5035e-07,0.09,0.84,0
0.0046517,-0.0032045,0.030292,0.0060309,0.010897,-0.0051235,0,0,0.050427,-0.012651,0,-0.026642,0,0,0,0.03133,0.0049933,0.010897,-11.449,0.01574,0.023937,5.6258e-07,0.1,0.84,0
0.0051589,-0.0034945,0.030374,0.0055119,0.010766,-0.0048783,0,0,0.050982,-0.01366,0,-0.025367,0,0,0,0.031297,0.004589,0.010766,-10.713,0.015551,0.024218,5.7265e-07,0.11,0.84,0
0.0056713,-0.0037749,0.030432,0.0050302,0.010639,-0.0046258,0,0,0.051463,-0.014582,0,-0.024054,0,0,0,0.031248,0.0042141,0.010639,-10.006,0.015367,0.024463,5.8068e-07,0.12,0.84,0
0.0061882,-0.004045,0.030467,0.0045863,0.010516,-0.0043704,0,0,0.051872,-0.015417,0,-0.022726,0,0,0,0.031185,0.0038681,0.010516,-9.3309,0.01519,0.024674,5.8683e-07,0.13,0.84,0
0.0067088,-0.0043043,0.030481,0.0041793,0.010398,-0.0041158,0,0,0.052215,-0.016168,0,-0.021402,0,0,0,0.031109,0.0035503,0.010398,-8.6894,0.015019,0.024853,5.913e-07,0.14,0.84,0
0.0072325,-0.0045527,0.030475,0.0038081,0.010285,-0.0038649,0,0,0.052495,-0.01684,0,-0.020098,0,0,0,0.031024,0.0032593,0.010285,-8.0824,0.014856,0.025004,5.9427e-07,0.15,0.84,0
0.0077587,-0.00479,0.030454,0.0034709,0.010178,-0.0036201,0,0,0.052719,-0.017437,0,-0.018825,0,0,0,0.030931,0.0029937,0.010178,-7.5101,0.014701,0.025128,5.9593e-07,0.16,0.84,0
0.0082868,-0.0050161,0.030418,0.0031657,0.010075,-0.0033833,0,0,0.052892,-0.017965,0,-0.017593,0,0,0,0.030832,0.002752,0.010075,-6.972,0.014553,0.025229,5.9646e-07,0.17,0.84,0
0.0088165,-0.0052309,0.030371,0.0028904,0.0099783,-0.0031555,0,0,0.05302,-0.018429,0,-0.016409,0,0,0,0.030728,0.0025327,0.0099783,-6.4671,0.014413,0.025308,5.9602e-07,0.18,0.84,0
0.0093472,-0.0054347,0.030313,0.0026427,0.0098867,-0.0029377,0,0,0.053108,-0.018834,0,-0.015276,0,0,0,0.030621,0.0023342,0.0098867,-5.994,0.014281,0.025369,5.9475e-07,0.19,0.84,0
0.0098787,-0.0056274,0.030247,0.0024205,0.0098002,-0.0027303,0,0,0.053161,-0.019187,0,-0.014198,0,0,0,0.030512,0.0021552,0.0098002,-5.5513,0.014156,0.025412,5.9279e-07,0.2,0.84,0
0.01041,-0.0058092,0.030174,0.0022219,0.0097187,-0.0025333,0,0,0.053183,-0.019492,0,-0.013173,0,0,0,0.030402,0.0019942,0.0097187,-5.1371,0.014038,0.025441,5.9024e-07,0.21,0.84,0
0.010942,-0.0059804,0.030096,0.0020449,0.0096421,-0.0023468,0,0,0.053179,-0.019753,0,-0.012203,0,0,0,0.03029,0.0018499,0.0096421,-4.7495,0.013928,0.025455,5.872e-07,0.22,0.84,0
0.011474,-0.0061411,0.030013,0.0018878,0.0095701,-0.0021704,0,0,0.053151,-0.019974,0,-0.011286,0,0,0,0.030179,0.0017213,0.0095701,-4.3868,0.013824,0.025458,5.8375e-07,0.23,0.84,0
0.012005,-0.0062914,0.029926,0.0017487,0.0095025,-0.0020036,0,0,0.053102,-0.02016,0,-0.010419,0,0,0,0.030068,0.001607,0.0095025,-4.0469,0.013726,0.025449,5.7995e-07,0.24,0.84,0
0.012536,-0.0064317,0.029837,0.0016264,0.0094391,-0.001846,0,0,0.053035,-0.020313,0,-0.009599,0,0,0,0.029958,0.0015061,0.0094391,-3.7279,0.013634,0.025431,5.7586e-07,0.25,0.84,0
0.013066,-0.0065622,0.029746,0.0015192,0.0093796,-0.0016969,0,0,0.052953,-0.020437,0,-0.0088239,0,0,0,0.029848,0.0014176,0.0093796,-3.4279,0.013548,0.025403,5.7152e-07,0.26,0.84,0
0.013595,-0.0066829,0.029653,0.001426,0.0093239,-0.0015557,0,0,0.052857,-0.020534,0,-0.0080898,0,0,0,0.029739,0.0013405,0.0093239,-3.1451,0.013468,0.025367,5.6697e-07,0.27,0.84,0
0.014123,-0.0067942,0.029559,0.0013455,0.0092715,-0.0014218,0,0,0.052749,-0.020608,0,-0.0073931,0,0,0,0.029631,0.001274,0.0092715,-2.8775,0.013392,0.025324,5.6223e-07,0.28,0.84,0
0.01465,-0.0068962,0.029465,0.0012765,0.0092223,-0.0012943,0,0,0.05263,-0.020659,0,-0.0067303,0,0,0,0.029524,0.0012172,0.0092223,-2.6235,0.013321,0.025274,5.5735e-07,0.29,0.84,0
0.015176,-0.0069892,0.029369,0.0012179,0.009176,-0.0011726,0,0,0.052501,-0.020691,0,-0.0060977,0,0,0,0.029417,0.0011692,0.009176,-2.3812,0.013254,0.025217,5.5234e-07,0.3,0.84,0
0.0157,-0.0070732,0.029272,0.0011688,0.0091323,-0.0010561,0,0,0.052364,-0.020705,0,-0.0054917,0,0,0,0.029312,0.0011292,0.0091323,-2.1491,0.013191,0.025155,5.4721e-07,0.31,0.84,0
0.016223,-0.0071485,0.029175,0.0011281,0.0090909,-0.00094399,0,0,0.052219,-0.020703,0,-0.0049088,0,0,0,0.029207,0.0010963,0.0090909,-1.9255,0.013131,0.025087,5.4199e-07,0.32,0.84,0
0.016744,-0.0072152,0.029077,0.0010947,0.0090516,-0.00083567,0,0,0.052067,-0.020688,0,-0.0043455,0,0,0,0.029102,0.0010697,0.0090516,-1.709,0.013075,0.025016,5.3671e-07,0.33,0.84,0
0.017264,-0.0072734,0.028979,0.0010676,0.0090141,-0.00073051,0,0,0.05191,-0.020661,0,-0.0037986,0,0,0,0.028999,0.0010485,0.0090141,-1.4982,0.01302,0.02494,5.3136e-07,0.34,0.84,0
0.017783,-0.0073234,0.028881,0.0010459,0.0089781,-0.00062794,0,0,0.051748,-0.020624,0,-0.0032653,0,0,0,0.028895,0.0010317,0.0089781,-1.2917,0.012968,0.024862,5.2599e-07,0.35,0.84,0
0.018299,-0.0073652,0.028782,0.0010283,0.0089432,-0.00052743,0,0,0.051582,-0.020579,0,-0.0027427,0,0,0,0.028792,0.0010183,0.0089432,-1.0883,0.012918,0.024781,5.2061e-07,0.36,0.84,0
0.018814,-0.007399,0.028684,0.0010139,0.0089093,-0.00042853,0,0,0.051414,-0.020528,0,-0.0022284,0,0,0,0.02869,0.0010073,0.0089093,-0.88708,0.012869,0.024699,5.1524e-07,0.37,0.84,0
0.019328,-0.0074249,0.028585,0.0010014,0.0088759,-0.00033084,0,0,0.051243,-0.020473,0,-0.0017204,0,0,0,0.028589,0.00099747,0.0088759,-0.68709,0.012821,0.024616,5.0992e-07,0.38,0.84,0
0.019839,-0.0074431,0.028486,0.00098972,0.0088427,-0.00023405,0,0,0.051072,-0.020418,0,-0.0012171,0,0,0,0.028488,0.00098773,0.0088427,-0.48767,0.012773,0.024535,5.0468e-07,0.39,0.84,0
0.020349,-0.0074537,0.028387,0.00097748,0.0088095,-0.00013796,0,0,0.050903,-0.020363,0,-0.00071737,0,0,0,0.028388,0.00097679,0.0088095,-0.28836,0.012725,0.024455,4.9955e-07,0.4,0.84,0
0.020857,-0.0074569,0.028289,0.00096341,0.0087759,-4.2449e-05,0,0,0.050735,-0.020312,0,-0.00022073,0,0,0,0.02829,0.00096334,0.0087759,-0.089004,0.012676,0.024378,4.9457e-07,0.41,0.84,0
0.021364,-0.0074527,0.028192,0.00094615,0.0087416,5.2449e-05,0,0,0.050572,-0.020268,0,0.00027273,0,0,0,0.028192,0.00094605,0.0087416,0.11029,0.012627,0.024305,4.8978e-07,0.42,0.84,0
0.021869,-0.0074415,0.028096,0.00092432,0.0087062,0.00014658,0,0,0.050415,-0.020233,0,0.00076219,0,0,0,0.028097,0.00092353,0.0087062,0.30906,0.012576,0.024238,4.8523e-07,0.43,0.84,0
0.022372,-0.0074234,0.028002,0.00089653,0.0086695,0.00023962,0,0,0.050264,-0.02021,0,0.001246,0,0,0,0.028004,0.00089441,0.0086695,0.50646,0.012523,0.024179,4.8095e-07,0.44,0.84,0
0.022874,-0.0073987,0.02791,0.00086142,0.0086313,0.00033111,0,0,0.050123,-0.020202,0,0.0017218,0,0,0,0.027914,0.00085737,0.0086313,0.70125,0.012467,0.024127,4.7699e-07,0.45,0.84,0
0.023375,-0.0073677,0.027819,0.0008177,0.0085911,0.0004204,0,0,0.049994,-0.020211,0,0.0021861,0,0,0,0.027826,0.00081116,0.0085911,0.89178,0.012409,0.024086,4.7338e-07,0.46,0.84,0
0.023874,-0.0073307,0.027732,0.00076417,0.0085489,0.00050668,0,0,0.049876,-0.02024,0,0.0026347,0,0,0,0.027742,0.00075466,0.0085489,1.076,0.012348,0.024056,4.7015e-07,0.47,0.84,0
0.024372,-0.007288,0.027648,0.0006998,0.0085043,0.00058896,0,0,0.049773,-0.020292,0,0.0030626,0,0,0,0.027661,0.00068693,0.0085043,1.2514,0.012284,0.024038,4.6734e-07,0.48,0.84,0
0.024869,-0.0072401,0.027568,0.00062376,0.0084574,0.00066609,0,0,0.049686,-0.020367,0,0.0034637,0,0,0,0.027584,0.00060731,0.0084574,1.4153,0.012216,0.024033,4.6496e-07,0.49,0.84,0
0.025366,-0.0071876,0.027491,0.00053553,0.0084079,0.00073681,0,0,0.049615,-0.020468,0,0.0038314,0,0,0,0.027511,0.0005154,0.0084079,1.5646,0.012145,0.024041,4.63e-07,0.5,0.84,0
0.025862,-0.007131,0.027418,0.00043488,0.0083559,0.00079975,0,0,0.049562,-0.020595,0,0.0041587,0,0,0,0.027442,0.0004112,0.0083559,1.6962,0.01207,0.024063,4.6148e-07,0.51,0.84,0
0.026357,-0.0070709,0.02735,0.000322,0.0083015,0.00085347,0,0,0.049526,-0.020747,0,0.004438,0,0,0,0.027377,0.00029508,0.0083015,1.8069,0.011991,0.024098,4.6035e-07,0.52,0.84,0
0.026852,-0.007008,0.027286,0.00019749,0.008245,0.00089656,0,0,0.049506,-0.020923,0,0.0046621,0,0,0,0.027315,0.00016785,0.008245,1.8936,0.011909,0.024144,4.596e-07,0.53,0.84,0
0.027347,-0.0069431,0.027226,6.2421e-05,0.0081864,0.00092766,0,0,0.049502,-0.021122,0,0.0048238,0,0,0,0.027257,3.0778e-05,0.0081864,1.9537,0.011825,0.024202,4.5917e-07,0.54,0.84,0
0.027842,-0.0068771,0.02717,-8.168e-05,0.0081264,0.00094553,0,0,0.049513,-0.021341,0,0.0049168,0,0,0,0.027203,-0.00011445,0.0081264,1.9848,0.011738,0.02427,4.5901e-07,0.55,0.84,0
0.028337,-0.0068108,0.027117,-0.00023282,0.0080654,0.00094915,0,0,0.049536,-0.021575,0,0.0049356,0,0,0,0.02715,-0.00026572,0.0080654,1.9852,0.01165,0.024344,4.5906e-07,0.56,0.84,0
0.028833,-0.0067452,0.027069,-0.00038858,0.008004,0.00093775,0,0,0.049568,-0.021821,0,0.0048763,0,0,0,0.027101,-0.00042057,0.008004,1.9538,0.011561,0.024424,4.5925e-07,0.57,0.84,0
0.029329,-0.0066813,0.027023,-0.00054616,0.0079431,0.00091089,0,0,0.049608,-0.022072,0,0.0047366,0,0,0,0.027053,-0.00057623,0.0079431,1.8903,0.011473,0.024507,4.5951e-07,0.58,0.84,0
0.029825,-0.00662,0.02698,-0.00070252,0.0078833,0.00086852,0,0,0.049652,-0.022323,0,0.0045163,0,0,0,0.027007,-0.00072974,0.0078833,1.7953,0.011387,0.024589,4.5979e-07,0.59,0.84,0
0.030322,-0.0065623,0.02694,-0.00085443,0.0078256,0.00081099,0,0,0.049697,-0.022568,0,0.0042172,0,0,0,0.026963,-0.00087807,0.0078256,1.6699,0.011304,0.024669,4.6003e-07,0.6,0.84,0
0.030819,-0.0065092,0.026902,-0.00099868,0.0077709,0.00073907,0,0,0.04974,-0.022801,0,0.0038432,0,0,0,0.026921,-0.0010182,0.0077709,1.5163,0.011225,0.024745,4.6019e-07,0.61,0.84,0
0.031317,-0.0064616,0.026866,-0.0011322,0.0077202,0.0006539,0,0,0.04978,-0.023016,0,0.0034003,0,0,0,0.026881,-0.0011475,0.0077202,1.3372,0.011151,0.024813,4.6026e-07,0.62,0.84,0
0.031815,-0.0064202,0.026833,-0.0012522,0.0076743,0.00055692,0,0,0.049813,-0.023209,0,0.002896,0,0,0,0.026844,-0.0012633,0.0076743,1.1355,0.011085,0.024874,4.6022e-07,0.63,0.84,0
0.032313,-0.0063859,0.026804,-0.0013564,0.0076341,0.00044975,0,0,0.04984,-0.023375,0,0.0023387,0,0,0,0.026811,-0.0013636,0.0076341,0.91479,0.011027,0.024925,4.6008e-07,0.64,0.84,0
0.032811,-0.0063593,0.026777,-0.0014427,0.0076003,0.00033415,0,0,0.04986,-0.023512,0,0.0017376,0,0,0,0.026781,-0.0014466,0.0076003,0.67832,0.010978,0.024966,4.5987e-07,0.65,0.84,0
0.03331,-0.006341,0.026755,-0.0015097,0.0075735,0.00021187,0,0,0.049871,-0.023616,0,0.0011017,0,0,0,0.026756,-0.0015113,0.0075735,0.42946,0.010939,0.024996,4.5961e-07,0.66,0.84,0
0.033809,-0.0063313,0.026737,-0.0015561,0.0075541,8.4635e-05,0,0,0.049874,-0.023687,0,0.0004401,0,0,0,0.026737,-0.0015564,0.0075541,0.17139,0.010912,0.025015,4.5931e-07,0.67,0.84,0
0.034308,-0.0063305,0.026723,-0.0015812,0.0075426,-4.5835e-05,0,0,0.04987,-0.023722,0,-0.00023834,0,0,0,0.026723,-0.0015813,0.0075426,-0.092782,0.010895,0.025023,4.5901e-07,0.68,0.84,0
0.034806,-0.0063388,0.026715,-0.0015846,0.007539,-0.00017783,0,0,0.049857,-0.023721,0,-0.00092471,0,0,0,0.026716,-0.0015857,0.007539,-0.36002,0.01089,0.02502,4.5869e-07,0.69,0.84,0
0.035305,-0.0063562,0.026711,-0.0015659,0.0075435,-0.00030963,0,0,0.049835,-0.023684,0,-0.0016101,0,0,0,0.026714,-0.0015693,0.0075435,-0.62729,0.010896,0.025005,4.5836e-07,0.7,0.84,0
0.035803,-0.0063826,0.026711,-0.0015256,0.0075558,-0.00043951,0,0,0.049805,-0.023611,0,-0.0022854,0,0,0,0.026718,-0.0015324,0.0075558,-0.89152,0.010914,0.024979,4.5801e-07,0.71,0.84,0
0.036301,-0.0064178,0.026716,-0.0014641,0.0075756,-0.00056571,0,0,0.049765,-0.023503,0,-0.0029417,0,0,0,0.026727,-0.0014754,0.0075756,-1.1496,0.010943,0.024941,4.5759e-07,0.72,0.84,0
0.036798,-0.0064614,0.026724,-0.0013824,0.0076024,-0.00068644,0,0,0.049716,-0.02336,0,-0.0035695,0,0,0,0.026741,-0.0013992,0.0076024,-1.3982,0.010981,0.024891,4.5709e-07,0.73,0.84,0
0.037295,-0.006513,0.026734,-0.0012819,0.0076357,-0.00079987,0,0,0.049656,-0.023186,0,-0.0041593,0,0,0,0.026757,-0.0013047,0.0076357,-1.6341,0.011029,0.02483,4.5646e-07,0.74,0.84,0
0.037791,-0.0065719,0.026747,-0.0011641,0.0076748,-0.00090417,0,0,0.049587,-0.022981,0,-0.0047017,0,0,0,0.026776,-0.0011934,0.0076748,-1.8535,0.011086,0.024757,4.5566e-07,0.75,0.84,0
0.038287,-0.0066374,0.026761,-0.0010315,0.0077188,-0.00099755,0,0,0.049509,-0.022751,0,-0.0051873,0,0,0,0.026797,-0.0010672,0.0077188,-2.053,0.011149,0.024673,4.5469e-07,0.76,0.84,0
0.038781,-0.0067088,0.026776,-0.00088643,0.0077668,-0.0010784,0,0,0.049423,-0.022499,0,-0.0056079,0,0,0,0.026818,-0.00092842,0.0077668,-2.2292,0.011219,0.024581,4.5352e-07,0.77,0.84,0
0.039275,-0.0067851,0.026792,-0.000732,0.0078179,-0.0011455,0,0,0.049332,-0.02223,0,-0.0059568,0,0,0,0.026839,-0.0007796,0.0078179,-2.3792,0.011293,0.02448,4.5216e-07,0.78,0.84,0
0.039768,-0.0068655,0.026808,-0.00057131,0.0078711,-0.0011979,0,0,0.049237,-0.02195,0,-0.0062291,0,0,0,0.026861,-0.00062362,0.0078711,-2.5004,0.011369,0.024374,4.5064e-07,0.79,0.84,0
0.04026,-0.0069489,0.026826,-0.00040754,0.0079255,-0.001235,0,0,0.049141,-0.021666,0,-0.0064218,0,0,0,0.026882,-0.00046343,0.0079255,-2.5911,0.011448,0.024264,4.49e-07,0.8,0.84,0
0.040751,-0.0070344,0.026845,-0.00024381,0.0079802,-0.0012566,0,0,0.049047,-0.021382,0,-0.0065344,0,0,0,0.026903,-0.00030198,0.0079802,-2.6503,0.011527,0.024153,4.4727e-07,0.81,0.84,0
0.041241,-0.007121,0.026864,-8.2957e-05,0.0080344,-0.0012631,0,0,0.048958,-0.021105,0,-0.0065683,0,0,0,0.026923,-0.00014203,0.0080344,-2.6779,0.011605,0.024044,4.4553e-07,0.82,0.84,0
0.04173,-0.0072078,0.026885,7.2461e-05,0.0080874,-0.0012551,0,0,0.048875,-0.020839,0,-0.0065266,0,0,0,0.026944,1.3838e-05,0.0080874,-2.6742,0.011682,0.023937,4.4382e-07,0.83,0.84,0
0.042218,-0.0072939,0.026908,0.00022029,0.0081386,-0.0012335,0,0,0.048801,-0.020588,0,-0.006414,0,0,0,0.026965,0.00016341,0.0081386,-2.6406,0.011756,0.023837,4.4219e-07,0.84,0.84,0
0.042706,-0.0073785,0.026933,0.00035882,0.0081874,-0.0011993,0,0,0.048737,-0.020354,0,-0.0062365,0,0,0,0.026987,0.0003048,0.0081874,-2.5789,0.011826,0.023743,4.4069e-07,0.85,0.84,0
0.043193,-0.0074607,0.026958,0.00048675,0.0082335,-0.001154,0,0,0.048684,-0.020142,0,-0.0060007,0,0,0,0.027009,0.00043654,0.0082335,-2.4914,0.011893,0.023658,4.3937e-07,0.86,0.84,0
0.04368,-0.0075398,0.026985,0.00060325,0.0082766,-0.0010988,0,0,0.048643,-0.019951,0,-0.0057139,0,0,0,0.027031,0.00055756,0.0082766,-2.3809,0.011955,0.023581,4.3825e-07,0.87,0.84,0
0.044166,-0.0076152,0.027014,0.00070788,0.0083164,-0.0010352,0,0,0.048613,-0.019782,0,-0.0053833,0,0,0,0.027054,0.0006672,0.0083164,-2.2502,0.012013,0.023515,4.3735e-07,0.88,0.84,0
0.044652,-0.0076864,0.027043,0.00080058,0.0083529,-0.00096466,0,0,0.048593,-0.019636,0,-0.0050162,0,0,0,0.027078,0.00076516,0.0083529,-2.1024,0.012065,0.023458,4.3667e-07,0.89,0.84,0
0.045138,-0.0077528,0.027072,0.00088159,0.0083859,-0.00088835,0,0,0.048583,-0.019511,0,-0.0046194,0,0,0,0.027102,0.00085149,0.0083859,-1.9405,0.012113,0.023411,4.362e-07,0.9,0.84,0
0.045624,-0.0078139,0.0271,0.00095141,0.0084155,-0.00080751,0,0,0.04858,-0.019407,0,-0.004199,0,0,0,0.027125,0.0009265,0.0084155,-1.7671,0.012156,0.023372,4.3593e-07,0.91,0.84,0
0.04611,-0.0078695,0.027128,0.0010107,0.0084417,-0.00072318,0,0,0.048585,-0.019321,0,-0.0037605,0,0,0,0.027148,0.00099072,0.0084417,-1.5849,0.012193,0.023342,4.3582e-07,0.92,0.84,0
0.046595,-0.0079191,0.027155,0.0010603,0.0084645,-0.00063627,0,0,0.048594,-0.019251,0,-0.0033086,0,0,0,0.02717,0.0010448,0.0084645,-1.396,0.012226,0.023318,4.3585e-07,0.93,0.84,0
0.047081,-0.0079626,0.027179,0.0011011,0.008484,-0.0005475,0,0,0.048606,-0.019195,0,-0.002847,0,0,0,0.02719,0.0010896,0.008484,-1.2022,0.012255,0.023301,4.3597e-07,0.94,0.84,0
0.047568,-0.0079997,0.0272,0.0011339,0.0085003,-0.00045747,0,0,0.04862,-0.019153,0,-0.0023788,0,0,0,0.027208,0.0011258,0.0085003,-1.0051,0.012278,0.023288,4.3615e-07,0.95,0.84,0
0.048054,-0.0080303,0.027219,0.0011594,0.0085134,-0.00036661,0,0,0.048634,-0.01912,0,-0.0019064,0,0,0,0.027224,0.0011543,0.0085134,-0.80585,0.012297,0.023279,4.3636e-07,0.96,0.84,0
0.04854,-0.0080542,0.027234,0.0011785,0.0085236,-0.00027526,0,0,0.048646,-0.019097,0,-0.0014313,0,0,0,0.027236,0.0011756,0.0085236,-0.60521,0.012312,0.023274,4.3656e-07,0.97,0.84,0
0.049027,-0.0080714,0.027244,0.0011917,0.0085308,-0.00018362,0,0,0.048655,-0.019082,0,-0.00095483,0,0,0,0.027246,0.0011904,0.0085308,-0.4038,0.012322,0.02327,4.3672e-07,0.98,0.84,0
0.049513,-0.0080817,0.027251,0.0011994,0.0085351,-9.184e-05,0,0,0.048661,-0.019073,0,-0.00047757,0,0,0,0.027251,0.0011991,0.0085351,-0.20198,0.012328,0.023268,4.3682e-07,0.99,0.84,0
0.05,-0.0080851,0.027253,0.001202,0.0085365,-6.6215e-05,0,0,0.048663,-0.01907,0,-0.00034432,0,0,0,0.027253,0.0012018,0.0085365,-0.14563,0.012331,0.023268,4.3687e-07,1,0.84,0
0,0,0.028766,0.012328,0.012328,-0.0065031,0,0,0.042737,1.6263e-19,0,-0.033816,0,0,0,0.031027,0.010067,0.012328,-19.177,0.017807,0.019926,3.8877e-07,0,0.85,0
0.00042738,-0.00033816,0.028711,0.01162,0.012099,-0.0064974,0,0,0.04319,-0.0012456,0,-0.033786,0,0,0,0.030901,0.0094308,0.012099,-18.623,0.017477,0.020268,4.0273e-07,0.01,0.85,0
0.00086381,-0.00067924,0.02895,0.010991,0.011982,-0.0064996,0,0,0.044116,-0.0025777,0,-0.033798,0,0,0,0.031055,0.0088852,0.011982,-17.949,0.017307,0.020795,4.2753e-07,0.02,0.85,0
0.0013097,-0.001022,0.029189,0.010327,0.011855,-0.006466,0,0,0.045068,-0.0039723,0,-0.033623,0,0,0,0.031192,0.0083231,0.011855,-17.218,0.017123,0.021324,4.523e-07,0.03,0.85,0
0.0017652,-0.0013649,0.029422,0.0096419,0.011719,-0.0063923,0,0,0.046027,-0.0054006,0,-0.03324,0,0,0,0.031308,0.0077559,0.011719,-16.438,0.016928,0.021842,4.763e-07,0.04,0.85,0
0.0022302,-0.0017062,0.029642,0.0089496,0.011577,-0.0062777,0,0,0.046968,-0.0068326,0,-0.032644,0,0,0,0.031398,0.007194,0.011577,-15.624,0.016723,0.022337,4.9889e-07,0.05,0.85,0
0.0027045,-0.0020443,0.029844,0.008263,0.011432,-0.0061235,0,0,0.04787,-0.0082394,0,-0.031842,0,0,0,0.03146,0.0066466,0.011432,-14.787,0.016513,0.022801,5.1954e-07,0.06,0.85,0
0.0031876,-0.0023776,0.030022,0.007594,0.011285,-0.0059338,0,0,0.048716,-0.0095959,0,-0.030856,0,0,0,0.031495,0.0061208,0.011285,-13.943,0.0163,0.023227,5.3788e-07,0.07,0.85,0
0.0036789,-0.0027044,0.030173,0.006952,0.011137,-0.0057139,0,0,0.049492,-0.010882,0,-0.029712,0,0,0,0.031503,0.0056222,0.011137,-13.102,0.016087,0.023611,5.5369e-07,0.08,0.85,0
0.0041775,-0.0030235,0.030295,0.0063441,0.010992,-0.0054702,0,0,0.050188,-0.012084,0,-0.028445,0,0,0,0.031485,0.0051539,0.010992,-12.275,0.015877,0.023952,5.6691e-07,0.09,0.85,0
0.0046826,-0.0033335,0.030388,0.0057752,0.010849,-0.0052092,0,0,0.050801,-0.013192,0,-0.027088,0,0,0,0.031445,0.004718,0.010849,-11.471,0.015671,0.02425,5.776e-07,0.1,0.85,0
0.0051935,-0.0036337,0.030452,0.0052477,0.01071,-0.0049372,0,0,0.05133,-0.014202,0,-0.025673,0,0,0,0.031385,0.004315,0.01071,-10.697,0.01547,0.024506,5.8591e-07,0.11,0.85,0
0.0057092,-0.0039232,0.030489,0.0047625,0.010576,-0.0046597,0,0,0.051776,-0.015114,0,-0.024231,0,0,0,0.031307,0.0039445,0.010576,-9.9564,0.015276,0.024724,5.9202e-07,0.12,0.85,0
0.006229,-0.0042016,0.030502,0.0043191,0.010446,-0.0043817,0,0,0.052145,-0.015931,0,-0.022785,0,0,0,0.031216,0.0036053,0.010446,-9.2525,0.015089,0.024905,5.962e-07,0.13,0.85,0
0.0067521,-0.0044684,0.030494,0.0039162,0.010323,-0.0041069,0,0,0.052444,-0.016657,0,-0.021356,0,0,0,0.031114,0.0032961,0.010323,-8.5871,0.014911,0.025055,5.9867e-07,0.14,0.85,0
0.0072779,-0.0047234,0.030466,0.0035517,0.010205,-0.0038386,0,0,0.052678,-0.017299,0,-0.019961,0,0,0,0.031003,0.0030149,0.010205,-7.9604,0.014741,0.025175,5.9968e-07,0.15,0.85,0
0.0078057,-0.0049664,0.030422,0.0032231,0.010094,-0.003579,0,0,0.052854,-0.017863,0,-0.018611,0,0,0,0.030885,0.0027601,0.010094,-7.3721,0.01458,0.02527,5.9946e-07,0.16,0.85,0
0.008335,-0.0051976,0.030365,0.0029278,0.0099879,-0.0033297,0,0,0.052981,-0.018356,0,-0.017314,0,0,0,0.030763,0.0025296,0.0099879,-6.8213,0.014427,0.025342,5.9822e-07,0.17,0.85,0
0.0088653,-0.005417,0.030297,0.0026632,0.0098881,-0.0030917,0,0,0.053063,-0.018785,0,-0.016077,0,0,0,0.030639,0.0023216,0.0098881,-6.3063,0.014283,0.025394,5.9613e-07,0.18,0.85,0
0.0093963,-0.0056246,0.03022,0.0024268,0.0097941,-0.0028655,0,0,0.053108,-0.019155,0,-0.014901,0,0,0,0.030513,0.0021344,0.0097941,-5.8256,0.014147,0.025429,5.9335e-07,0.19,0.85,0
0.0099275,-0.0058207,0.030137,0.002216,0.0097057,-0.0026514,0,0,0.05312,-0.019473,0,-0.013787,0,0,0,0.030386,0.0019664,0.0097057,-5.3769,0.014019,0.025448,5.9001e-07,0.2,0.85,0
0.010459,-0.0060054,0.030048,0.0020285,0.0096228,-0.0024493,0,0,0.053104,-0.019745,0,-0.012736,0,0,0,0.03026,0.001816,0.0096228,-4.9584,0.0139,0.025455,5.8623e-07,0.21,0.85,0
0.010989,-0.006179,0.029954,0.0018624,0.0095451,-0.0022587,0,0,0.053065,-0.019975,0,-0.011745,0,0,0,0.030135,0.0016819,0.0095451,-4.5677,0.013787,0.025449,5.8209e-07,0.22,0.85,0
0.01152,-0.0063418,0.029859,0.0017156,0.0094723,-0.0020792,0,0,0.053005,-0.020168,0,-0.010812,0,0,0,0.030012,0.0015628,0.0094723,-4.2026,0.013682,0.025434,5.7768e-07,0.23,0.85,0
0.01205,-0.0064939,0.029761,0.0015864,0.0094042,-0.0019103,0,0,0.052928,-0.020327,0,-0.0099333,0,0,0,0.02989,0.0014574,0.0094042,-3.8611,0.013584,0.025409,5.7304e-07,0.24,0.85,0
0.012578,-0.0066356,0.029662,0.0014731,0.0093406,-0.0017511,0,0,0.052836,-0.020455,0,-0.0091055,0,0,0,0.02977,0.0013648,0.0093406,-3.541,0.013492,0.025376,5.6823e-07,0.25,0.85,0
0.013106,-0.0067672,0.029563,0.0013744,0.0092811,-0.0016009,0,0,0.052732,-0.020557,0,-0.0083247,0,0,0,0.029653,0.0012838,0.0092811,-3.2401,0.013406,0.025336,5.633e-07,0.26,0.85,0
0.013633,-0.0068888,0.029463,0.0012889,0.0092255,-0.001459,0,0,0.052617,-0.020635,0,-0.0075869,0,0,0,0.029538,0.0012135,0.0092255,-2.9566,0.013326,0.025289,5.5826e-07,0.27,0.85,0
0.014159,-0.0070007,0.029363,0.0012153,0.0091735,-0.0013246,0,0,0.052493,-0.020691,0,-0.0068881,0,0,0,0.029425,0.0011531,0.0091735,-2.6884,0.013251,0.025237,5.5315e-07,0.28,0.85,0
0.014683,-0.0071032,0.029264,0.0011525,0.0091248,-0.0011969,0,0,0.052361,-0.020728,0,-0.0062241,0,0,0,0.029314,0.0011017,0.0091248,-2.4337,0.01318,0.025179,5.4798e-07,0.29,0.85,0
0.015206,-0.0071964,0.029164,0.0010995,0.0090792,-0.0010752,0,0,0.052222,-0.020747,0,-0.005591,0,0,0,0.029206,0.0010584,0.0090792,-2.1908,0.013114,0.025116,5.4277e-07,0.3,0.85,0
0.015727,-0.0072805,0.029066,0.0010551,0.0090363,-0.00095865,0,0,0.052077,-0.020751,0,-0.004985,0,0,0,0.029099,0.0010224,0.0090363,-1.9579,0.013052,0.02505,5.3754e-07,0.31,0.85,0
0.016248,-0.0073557,0.028968,0.0010185,0.008996,-0.00084661,0,0,0.051928,-0.020741,0,-0.0044024,0,0,0,0.028994,0.00099287,0.008996,-1.7334,0.012994,0.02498,5.3231e-07,0.32,0.85,0
0.016766,-0.0074222,0.028871,0.00098857,0.0089578,-0.00073839,0,0,0.051774,-0.02072,0,-0.0038396,0,0,0,0.02889,0.00096903,0.0089578,-1.5159,0.012939,0.024907,5.2707e-07,0.33,0.85,0
0.017283,-0.0074802,0.028774,0.00096438,0.0089216,-0.00063337,0,0,0.051617,-0.020689,0,-0.0032935,0,0,0,0.028789,0.00094997,0.0089216,-1.304,0.012887,0.024832,5.2186e-07,0.34,0.85,0
0.017798,-0.0075298,0.028678,0.00094495,0.008887,-0.000531,0,0,0.051458,-0.020649,0,-0.0027612,0,0,0,0.028688,0.00093479,0.008887,-1.0965,0.012837,0.024755,5.1669e-07,0.35,0.85,0
0.018312,-0.0075711,0.028583,0.00092926,0.0088538,-0.00043075,0,0,0.051297,-0.020604,0,-0.0022399,0,0,0,0.02859,0.00092255,0.0088538,-0.89216,0.012789,0.024677,5.1157e-07,0.36,0.85,0
0.018824,-0.0076044,0.028489,0.00091626,0.0088216,-0.00033219,0,0,0.051135,-0.020554,0,-0.0017274,0,0,0,0.028493,0.00091226,0.0088216,-0.69015,0.012742,0.024599,5.0653e-07,0.37,0.85,0
0.019335,-0.0076298,0.028396,0.00090489,0.0087901,-0.00023497,0,0,0.050974,-0.020502,0,-0.0012218,0,0,0,0.028398,0.00090288,0.0087901,-0.48967,0.012697,0.024522,5.0159e-07,0.38,0.85,0
0.019844,-0.0076475,0.028303,0.00089401,0.0087592,-0.00013881,0,0,0.050814,-0.020449,0,-0.00072182,0,0,0,0.028304,0.00089331,0.0087592,-0.29016,0.012652,0.024446,4.9678e-07,0.39,0.85,0
0.020351,-0.0076575,0.028212,0.00088247,0.0087284,-4.3553e-05,0,0,0.050658,-0.020399,0,-0.00022647,0,0,0,0.028212,0.00088241,0.0087284,-0.091306,0.012608,0.024373,4.9213e-07,0.4,0.85,0
0.020857,-0.0076602,0.028122,0.00086908,0.0086974,5.0866e-05,0,0,0.050505,-0.020354,0,0.0002645,0,0,0,0.028123,0.00086899,0.0086974,0.10694,0.012563,0.024304,4.8767e-07,0.41,0.85,0
0.021361,-0.0076556,0.028034,0.00085261,0.0086661,0.00014438,0,0,0.050357,-0.020315,0,0.00075076,0,0,0,0.028035,0.00085184,0.0086661,0.30432,0.012518,0.02424,4.8343e-07,0.42,0.85,0
0.021864,-0.0076441,0.027948,0.00083181,0.0086341,0.00023678,0,0,0.050217,-0.020286,0,0.0012313,0,0,0,0.02795,0.00082974,0.0086341,0.50026,0.012471,0.024182,4.7946e-07,0.43,0.85,0
0.022365,-0.0076258,0.027865,0.00080545,0.008601,0.00032774,0,0,0.050085,-0.020268,0,0.0017042,0,0,0,0.027869,0.00080148,0.008601,0.69382,0.012424,0.024132,4.7577e-07,0.44,0.85,0
0.022866,-0.0076011,0.027783,0.00077234,0.0085668,0.00041675,0,0,0.049964,-0.020265,0,0.0021671,0,0,0,0.02779,0.00076591,0.0085668,0.88372,0.012374,0.02409,4.7242e-07,0.45,0.85,0
0.023365,-0.0075702,0.027706,0.00073134,0.008531,0.00050316,0,0,0.049854,-0.020279,0,0.0026164,0,0,0,0.027715,0.00072196,0.008531,1.0683,0.012323,0.024058,4.6942e-07,0.46,0.85,0
0.023863,-0.0075334,0.027631,0.00068143,0.0084937,0.00058616,0,0,0.049756,-0.020312,0,0.0030481,0,0,0,0.027644,0.00066869,0.0084937,1.2454,0.012269,0.024037,4.6681e-07,0.47,0.85,0
0.02436,-0.0074913,0.02756,0.00062173,0.0084544,0.00066481,0,0,0.049674,-0.020365,0,0.003457,0,0,0,0.027576,0.00060533,0.0084544,1.4129,0.012212,0.024028,4.646e-07,0.48,0.85,0
0.024856,-0.0074442,0.027493,0.00055155,0.0084133,0.000738,0,0,0.049607,-0.020441,0,0.0038376,0,0,0,0.027513,0.00053135,0.0084133,1.5679,0.012153,0.02403,4.628e-07,0.49,0.85,0
0.025352,-0.0073927,0.02743,0.00047047,0.0083701,0.00080454,0,0,0.049556,-0.020539,0,0.0041836,0,0,0,0.027454,0.00044648,0.0083701,1.7078,0.01209,0.024046,4.6142e-07,0.5,0.85,0
0.025847,-0.0073373,0.027372,0.00037834,0.008325,0.00086314,0,0,0.049521,-0.020661,0,0.0044883,0,0,0,0.027399,0.00035077,0.008325,1.8296,0.012025,0.024073,4.6045e-07,0.51,0.85,0
0.026343,-0.0072787,0.027318,0.00027538,0.0082779,0.00091247,0,0,0.049503,-0.020807,0,0.0047448,0,0,0,0.027348,0.00024463,0.0082779,1.9304,0.011957,0.024113,4.5986e-07,0.52,0.85,0
0.026838,-0.0072175,0.027268,0.00016216,0.0082291,0.00095122,0,0,0.049502,-0.020974,0,0.0049463,0,0,0,0.027302,0.00012882,0.0082291,2.0074,0.011886,0.024163,4.5962e-07,0.53,0.85,0
0.027332,-0.0071545,0.027223,3.9632e-05,0.0081788,0.00097813,0,0,0.049515,-0.021162,0,0.0050863,0,0,0,0.027258,4.4817e-06,0.0081788,2.0581,0.011814,0.024224,4.5969e-07,0.54,0.85,0
0.027828,-0.0070907,0.027182,-9.0812e-05,0.0081274,0.00099207,0,0,0.049542,-0.021367,0,0.0051587,0,0,0,0.027218,-0.00012685,0.0081274,2.0805,0.01174,0.024293,4.6002e-07,0.55,0.85,0
0.028323,-0.0070266,0.027145,-0.00022741,0.0080753,0.00099207,0,0,0.049581,-0.021587,0,0.0051588,0,0,0,0.027181,-0.00026332,0.0080753,2.073,0.011664,0.024369,4.6056e-07,0.56,0.85,0
0.028819,-0.0069634,0.027111,-0.00036803,0.008023,0.00097743,0,0,0.04963,-0.021817,0,0.0050826,0,0,0,0.027146,-0.00040275,0.008023,2.0346,0.011589,0.02445,4.6123e-07,0.57,0.85,0
0.029316,-0.0069019,0.027081,-0.00051022,0.0079711,0.00094772,0,0,0.049685,-0.022051,0,0.0049281,0,0,0,0.027113,-0.00054273,0.0079711,1.965,0.011514,0.024533,4.6198e-07,0.58,0.85,0
0.029813,-0.0068431,0.027053,-0.00065131,0.0079204,0.00090286,0,0,0.049744,-0.022286,0,0.0046949,0,0,0,0.027082,-0.0006807,0.0079204,1.8646,0.01144,0.024616,4.6275e-07,0.59,0.85,0
0.030311,-0.0067878,0.027027,-0.00078848,0.0078715,0.00084313,0,0,0.049804,-0.022516,0,0.0043843,0,0,0,0.027052,-0.00081402,0.0078715,1.7346,0.01137,0.024697,4.6348e-07,0.6,0.85,0
0.030809,-0.0067369,0.027003,-0.00091892,0.0078252,0.00076917,0,0,0.049862,-0.022735,0,0.0039997,0,0,0,0.027024,-0.00094009,0.0078252,1.5768,0.011303,0.024773,4.6414e-07,0.61,0.85,0
0.031308,-0.0066914,0.026981,-0.0010399,0.0077823,0.00068197,0,0,0.049916,-0.022938,0,0.0035463,0,0,0,0.026997,-0.0010565,0.0077823,1.3934,0.011241,0.024843,4.6468e-07,0.62,0.85,0
0.031808,-0.0066519,0.02696,-0.0011489,0.0077435,0.00058281,0,0,0.049964,-0.02312,0,0.0030306,0,0,0,0.026972,-0.001161,0.0077435,1.1873,0.011185,0.024905,4.651e-07,0.63,0.85,0
0.032307,-0.0066193,0.026942,-0.0012437,0.0077094,0.00047319,0,0,0.050004,-0.023278,0,0.0024606,0,0,0,0.02695,-0.0012516,0.0077094,0.96155,0.011136,0.024958,4.6539e-07,0.64,0.85,0
0.032808,-0.006594,0.026925,-0.0013223,0.0076807,0.00035477,0,0,0.050034,-0.023408,0,0.0018448,0,0,0,0.026929,-0.0013268,0.0076807,0.71946,0.011094,0.025,4.6553e-07,0.65,0.85,0
0.033308,-0.0065767,0.02691,-0.0013835,0.0076579,0.00022931,0,0,0.050055,-0.023507,0,0.0011924,0,0,0,0.026912,-0.0013853,0.0076579,0.46432,0.011061,0.025032,4.6556e-07,0.66,0.85,0
0.033809,-0.0065676,0.026897,-0.0014258,0.0076413,9.8612e-05,0,0,0.050064,-0.023574,0,0.00051278,0,0,0,0.026897,-0.0014261,0.0076413,0.19949,0.011037,0.025052,4.6545e-07,0.67,0.85,0
0.034309,-0.0065672,0.026886,-0.0014485,0.0076312,-3.5473e-05,0,0,0.050062,-0.023607,0,-0.00018446,0,0,0,0.026886,-0.0014486,0.0076312,-0.07173,0.011023,0.02506,4.6524e-07,0.68,0.85,0
0.03481,-0.0065755,0.026877,-0.0014512,0.0076278,-0.00017108,0,0,0.050049,-0.023605,0,-0.00088961,0,0,0,0.026878,-0.0014522,0.0076278,-0.346,0.011018,0.025056,4.649e-07,0.69,0.85,0
0.03531,-0.0065925,0.026871,-0.0014337,0.0076311,-0.00030632,0,0,0.050023,-0.023568,0,-0.0015929,0,0,0,0.026874,-0.001437,0.0076311,-0.61998,0.011023,0.02504,4.6445e-07,0.7,0.85,0
0.03581,-0.0066182,0.026866,-0.0013963,0.007641,-0.00043932,0,0,0.049986,-0.023497,0,-0.0022844,0,0,0,0.026873,-0.0014031,0.007641,-0.89033,0.011037,0.025012,4.6387e-07,0.71,0.85,0
0.03631,-0.0066523,0.026863,-0.0013395,0.0076571,-0.00056817,0,0,0.049936,-0.023391,0,-0.0029545,0,0,0,0.026875,-0.0013509,0.0076571,-1.1537,0.01106,0.024971,4.6313e-07,0.72,0.85,0
0.036809,-0.0066946,0.026861,-0.0012644,0.0076792,-0.00069102,0,0,0.049874,-0.023253,0,-0.0035933,0,0,0,0.026878,-0.0012813,0.0076792,-1.4066,0.011092,0.024919,4.6224e-07,0.73,0.85,0
0.037308,-0.0067444,0.026861,-0.0011722,0.0077066,-0.00080603,0,0,0.049801,-0.023085,0,-0.0041913,0,0,0,0.026884,-0.0011953,0.0077066,-1.6456,0.011132,0.024854,4.6115e-07,0.74,0.85,0
0.037805,-0.0068013,0.026861,-0.0010646,0.0077389,-0.00091142,0,0,0.049717,-0.022889,0,-0.0047394,0,0,0,0.026891,-0.0010943,0.0077389,-1.8674,0.011178,0.024779,4.5987e-07,0.75,0.85,0
0.038302,-0.0068646,0.026861,-0.00094371,0.0077753,-0.0010056,0,0,0.049624,-0.022669,0,-0.005229,0,0,0,0.026898,-0.00098003,0.0077753,-2.0685,0.011231,0.024693,4.5838e-07,0.76,0.85,0
0.038798,-0.0069334,0.026863,-0.00081189,0.0078152,-0.0010871,0,0,0.049523,-0.02243,0,-0.0056528,0,0,0,0.026905,-0.00085453,0.0078152,-2.246,0.011289,0.024599,4.567e-07,0.77,0.85,0
0.039292,-0.0070072,0.026864,-0.00067177,0.0078577,-0.0011547,0,0,0.049416,-0.022176,0,-0.0060047,0,0,0,0.026912,-0.00072011,0.0078577,-2.3972,0.01135,0.024497,4.5483e-07,0.78,0.85,0
0.039786,-0.0070848,0.026866,-0.00052609,0.007902,-0.0012078,0,0,0.049306,-0.021913,0,-0.0062806,0,0,0,0.026919,-0.00057925,0.007902,-2.5198,0.011414,0.02439,4.5282e-07,0.79,0.85,0
0.040278,-0.0071654,0.026869,-0.00037766,0.0079474,-0.0012458,0,0,0.049196,-0.021645,0,-0.0064781,0,0,0,0.026926,-0.00043451,0.0079474,-2.6125,0.01148,0.02428,4.5069e-07,0.8,0.85,0
0.04077,-0.0072482,0.026873,-0.00022918,0.0079931,-0.0012686,0,0,0.049087,-0.021378,0,-0.0065967,0,0,0,0.026932,-0.00028843,0.0079931,-2.6741,0.011546,0.024168,4.485e-07,0.81,0.85,0
0.04126,-0.0073321,0.026878,-8.3141e-05,0.0080385,-0.0012765,0,0,0.048983,-0.021116,0,-0.0066379,0,0,0,0.026939,-0.00014344,0.0080385,-2.7047,0.011611,0.024058,4.463e-07,0.82,0.85,0
0.04175,-0.0074163,0.026885,5.8212e-05,0.008083,-0.0012701,0,0,0.048886,-0.020865,0,-0.0066045,0,0,0,0.026945,-1.785e-06,0.008083,-2.7045,0.011676,0.023951,4.4414e-07,0.83,0.85,0
0.042238,-0.0075,0.026894,0.00019298,0.0081261,-0.0012502,0,0,0.048796,-0.020626,0,-0.0065009,0,0,0,0.026952,0.00013457,0.0081261,-2.6749,0.011738,0.023848,4.4208e-07,0.84,0.85,0
0.042725,-0.0075823,0.026905,0.00031962,0.0081673,-0.0012178,0,0,0.048717,-0.020404,0,-0.0063325,0,0,0,0.02696,0.00026395,0.0081673,-2.6173,0.011797,0.023752,4.4014e-07,0.85,0.85,0
0.043212,-0.0076624,0.026917,0.00043697,0.0082063,-0.0011741,0,0,0.048648,-0.0202,0,-0.0061055,0,0,0,0.026969,0.00038501,0.0082063,-2.5339,0.011853,0.023664,4.3838e-07,0.86,0.85,0
0.043698,-0.0077396,0.026932,0.00054426,0.0082427,-0.0011205,0,0,0.048591,-0.020016,0,-0.0058264,0,0,0,0.026979,0.00049677,0.0082427,-2.4271,0.011906,0.023583,4.3682e-07,0.87,0.85,0
0.044184,-0.0078134,0.026947,0.00064104,0.0082765,-0.0010581,0,0,0.048544,-0.019852,0,-0.005502,0,0,0,0.02699,0.00059855,0.0082765,-2.2996,0.011955,0.023512,4.3548e-07,0.88,0.85,0
0.044669,-0.0078831,0.026964,0.0007272,0.0083075,-0.00098827,0,0,0.048508,-0.019709,0,-0.005139,0,0,0,0.027002,0.00069003,0.0083075,-2.1541,0.012,0.02345,4.3436e-07,0.89,0.85,0
0.045154,-0.0079482,0.026982,0.0008029,0.0083356,-0.00091227,0,0,0.048482,-0.019585,0,-0.0047438,0,0,0,0.027014,0.00077115,0.0083356,-1.9933,0.01204,0.023397,4.3345e-07,0.9,0.85,0
0.045639,-0.0080083,0.027001,0.00086852,0.0083608,-0.0008312,0,0,0.048464,-0.01948,0,-0.0043222,0,0,0,0.027027,0.00084211,0.0083608,-1.82,0.012077,0.023352,4.3275e-07,0.91,0.85,0
0.046123,-0.008063,0.027019,0.0009246,0.0083831,-0.00074609,0,0,0.048454,-0.019392,0,-0.0038797,0,0,0,0.02704,0.00090328,0.0083831,-1.6364,0.012109,0.023315,4.3224e-07,0.92,0.85,0
0.046608,-0.0081119,0.027037,0.00097178,0.0084026,-0.00065782,0,0,0.048449,-0.01932,0,-0.0034207,0,0,0,0.027053,0.00095519,0.0084026,-1.4448,0.012137,0.023286,4.3188e-07,0.93,0.85,0
0.047092,-0.0081548,0.027053,0.0010108,0.0084192,-0.00056715,0,0,0.048449,-0.019262,0,-0.0029492,0,0,0,0.027066,0.00099845,0.0084192,-1.247,0.012161,0.023262,4.3166e-07,0.94,0.85,0
0.047577,-0.0081915,0.027068,0.0010423,0.0084332,-0.0004747,0,0,0.048451,-0.019216,0,-0.0024685,0,0,0,0.027077,0.0010337,0.0084332,-1.0446,0.012181,0.023244,4.3153e-07,0.95,0.85,0
0.048062,-0.0082218,0.027081,0.0010671,0.0084445,-0.00038098,0,0,0.048455,-0.019181,0,-0.0019811,0,0,0,0.027087,0.0010615,0.0084445,-0.83888,0.012198,0.023231,4.3147e-07,0.96,0.85,0
0.048546,-0.0082454,0.027092,0.0010857,0.0084532,-0.00028638,0,0,0.04846,-0.019156,0,-0.0014892,0,0,0,0.027095,0.0010825,0.0084532,-0.63085,0.01221,0.023221,4.3146e-07,0.97,0.85,0
0.049031,-0.0082624,0.027099,0.0010985,0.0084593,-0.00019121,0,0,0.048464,-0.019138,0,-0.00099427,0,0,0,0.027101,0.0010971,0.0084593,-0.42132,0.012219,0.023215,4.3146e-07,0.98,0.85,0
0.049515,-0.0082727,0.027104,0.0011061,0.008463,-9.5684e-05,0,0,0.048467,-0.019128,0,-0.00049755,0,0,0,0.027104,0.0011058,0.008463,-0.21087,0.012224,0.023212,4.3148e-07,0.99,0.85,0
0.05,-0.0082761,0.027106,0.0011086,0.0084643,-6.5612e-05,0,0,0.048467,-0.019125,0,-0.00034118,0,0,0,0.027106,0.0011084,0.0084643,-0.1446,0.012226,0.023211,4.3149e-07,1,0.85,0
0,0,0.028899,0.012385,0.012385,-0.0067478,0,0,0.042936,4.3368e-19,0,-0.035089,0,0,0,0.031306,0.0099787,0.012385,-19.628,0.01789,0.020231,4.0507e-07,0,0.86,0
0.00042936,-0.00035088,0.028843,0.011645,0.012146,-0.0067416,0,0,0.043411,-0.0013045,0,-0.035056,0,0,0,0.031171,0.0093168,0.012146,-19.048,0.017545,0.020585,4.1962e-07,0.01,0.86,0
0.00086823,-0.00070564,0.029092,0.010977,0.012021,-0.0067482,0,0,0.044385,-0.0027132,0,-0.03509,0,0,0,0.031329,0.0087397,0.012021,-18.344,0.017363,0.021141,4.4614e-07,0.02,0.86,0
0.0013171,-0.0010627,0.029341,0.01027,0.011883,-0.0067114,0,0,0.04539,-0.004195,0,-0.034899,0,0,0,0.031466,0.0081448,0.011883,-17.569,0.017165,0.021695,4.7238e-07,0.03,0.86,0
0.001776,-0.0014203,0.029582,0.0095387,0.011736,-0.0066266,0,0,0.046399,-0.0057136,0,-0.034459,0,0,0,0.031575,0.007546,0.011736,-16.737,0.016952,0.022232,4.9745e-07,0.04,0.86,0
0.002245,-0.0017764,0.029807,0.0088012,0.011583,-0.0064933,0,0,0.047384,-0.0072311,0,-0.033765,0,0,0,0.031652,0.0069561,0.011583,-15.863,0.01673,0.022739,5.2057e-07,0.05,0.86,0
0.0027237,-0.0021289,0.030008,0.0080736,0.011425,-0.0063144,0,0,0.048318,-0.0087126,0,-0.032835,0,0,0,0.031696,0.0063858,0.011425,-14.965,0.016502,0.023205,5.4115e-07,0.06,0.86,0
0.0032114,-0.002476,0.030181,0.0073696,0.011265,-0.0060954,0,0,0.049181,-0.010129,0,-0.031696,0,0,0,0.031708,0.005843,0.011265,-14.06,0.016272,0.023625,5.5883e-07,0.07,0.86,0
0.0037073,-0.0028159,0.030321,0.0066999,0.011106,-0.0058438,0,0,0.049959,-0.011457,0,-0.030388,0,0,0,0.031688,0.0053332,0.011106,-13.163,0.016043,0.023995,5.7345e-07,0.08,0.86,0
0.0042106,-0.0031471,0.030428,0.0060719,0.01095,-0.0055678,0,0,0.050642,-0.012683,0,-0.028953,0,0,0,0.03164,0.0048595,0.01095,-12.285,0.015817,0.024314,5.8504e-07,0.09,0.86,0
0.0047202,-0.0034683,0.030501,0.0054901,0.010797,-0.0052754,0,0,0.051229,-0.013799,0,-0.027432,0,0,0,0.031568,0.004423,0.010797,-11.436,0.015596,0.024586,5.9377e-07,0.1,0.86,0
0.0052352,-0.0037786,0.030542,0.0049563,0.010649,-0.0049739,0,0,0.051721,-0.014802,0,-0.025864,0,0,0,0.031475,0.0040234,0.010649,-10.623,0.015383,0.024811,5.999e-07,0.11,0.86,0
0.0057546,-0.0040772,0.030554,0.0044703,0.010507,-0.0046698,0,0,0.052122,-0.015697,0,-0.024283,0,0,0,0.031365,0.0036594,0.010507,-9.85,0.015177,0.024996,6.0373e-07,0.12,0.86,0
0.0062776,-0.0043636,0.030541,0.0040306,0.010372,-0.0043682,0,0,0.052441,-0.016487,0,-0.022715,0,0,0,0.031242,0.0033294,0.010372,-9.1197,0.014981,0.025143,6.0558e-07,0.13,0.86,0
0.0068034,-0.0046375,0.030506,0.0036347,0.010242,-0.0040733,0,0,0.052686,-0.01718,0,-0.021181,0,0,0,0.03111,0.0030308,0.010242,-8.4329,0.014794,0.025258,6.0578e-07,0.14,0.86,0
0.0073313,-0.0048987,0.030452,0.0032798,0.01012,-0.003788,0,0,0.052865,-0.017784,0,-0.019698,0,0,0,0.030971,0.0027616,0.01012,-7.7896,0.014617,0.025344,6.0461e-07,0.15,0.86,0
0.0078607,-0.0051473,0.030384,0.0029625,0.010004,-0.0035145,0,0,0.052987,-0.018308,0,-0.018275,0,0,0,0.030827,0.0025192,0.010004,-7.1887,0.01445,0.025406,6.0234e-07,0.16,0.86,0
0.0083911,-0.0053832,0.030303,0.0026796,0.0098947,-0.003254,0,0,0.053061,-0.018759,0,-0.016921,0,0,0,0.030681,0.0023014,0.0098947,-6.6285,0.014292,0.025447,5.992e-07,0.17,0.86,0
0.0089219,-0.0056066,0.030212,0.0024279,0.0097921,-0.0030072,0,0,0.053093,-0.019147,0,-0.015637,0,0,0,0.030534,0.0021061,0.0097921,-6.1071,0.014144,0.02547,5.9538e-07,0.18,0.86,0
0.0094529,-0.0058178,0.030115,0.0022045,0.0096959,-0.0027744,0,0,0.05309,-0.019478,0,-0.014427,0,0,0,0.030388,0.0019313,0.0096959,-5.622,0.014005,0.025478,5.9103e-07,0.19,0.86,0
0.0099837,-0.0060168,0.030013,0.0020065,0.0096059,-0.0025553,0,0,0.053059,-0.019758,0,-0.013288,0,0,0,0.030244,0.0017753,0.0096059,-5.1708,0.013875,0.025473,5.863e-07,0.2,0.86,0
0.010514,-0.0062041,0.029907,0.0018316,0.0095217,-0.0023497,0,0,0.053003,-0.019994,0,-0.012218,0,0,0,0.030103,0.0016363,0.0095217,-4.7511,0.013754,0.025457,5.8129e-07,0.21,0.86,0
0.011044,-0.0063799,0.0298,0.0016773,0.0094431,-0.0021568,0,0,0.052927,-0.020191,0,-0.011215,0,0,0,0.029964,0.0015129,0.0094431,-4.3603,0.01364,0.025431,5.7608e-07,0.22,0.86,0
0.011573,-0.0065444,0.029691,0.0015417,0.0093698,-0.001976,0,0,0.052835,-0.020353,0,-0.010275,0,0,0,0.029829,0.0014037,0.0093698,-3.9959,0.013534,0.025397,5.7073e-07,0.23,0.86,0
0.012101,-0.006698,0.029582,0.001423,0.0093015,-0.0018064,0,0,0.052729,-0.020484,0,-0.0093935,0,0,0,0.029697,0.0013075,0.0093015,-3.6556,0.013435,0.025356,5.6531e-07,0.24,0.86,0
0.012627,-0.0068408,0.029473,0.0013194,0.0092379,-0.0016472,0,0,0.052613,-0.020588,0,-0.0085656,0,0,0,0.02957,0.0012233,0.0092379,-3.3371,0.013344,0.025309,5.5985e-07,0.25,0.86,0
0.013153,-0.0069733,0.029366,0.0012295,0.0091786,-0.0014975,0,0,0.052487,-0.020668,0,-0.0077869,0,0,0,0.029445,0.00115,0.0091786,-3.038,0.013258,0.025257,5.5438e-07,0.26,0.86,0
0.013677,-0.0070956,0.02926,0.0011519,0.0091235,-0.0013563,0,0,0.052354,-0.020726,0,-0.0070528,0,0,0,0.029325,0.0010866,0.0091235,-2.7562,0.013178,0.0252,5.4892e-07,0.27,0.86,0
0.0142,-0.007208,0.029155,0.0010855,0.0090721,-0.0012228,0,0,0.052215,-0.020765,0,-0.0063588,0,0,0,0.029208,0.0010323,0.0090721,-2.4898,0.013104,0.025139,5.4349e-07,0.28,0.86,0
0.014721,-0.0073108,0.029052,0.0010291,0.0090243,-0.0010962,0,0,0.052072,-0.020788,0,-0.0057004,0,0,0,0.029095,0.00098626,0.0090243,-2.2368,0.013035,0.025075,5.3811e-07,0.29,0.86,0
0.015241,-0.0074041,0.028951,0.00098161,0.0089796,-0.00097564,0,0,0.051924,-0.020795,0,-0.0050733,0,0,0,0.028984,0.00094761,0.0089796,-1.9954,0.012971,0.025008,5.3277e-07,0.3,0.86,0
0.01576,-0.0074882,0.028851,0.00094209,0.0089379,-0.00086029,0,0,0.051774,-0.020789,0,-0.0044735,0,0,0,0.028877,0.0009156,0.0089379,-1.7639,0.01291,0.024938,5.2751e-07,0.31,0.86,0
0.016277,-0.0075633,0.028753,0.00090958,0.0088988,-0.00074946,0,0,0.051621,-0.020772,0,-0.0038972,0,0,0,0.028773,0.00088943,0.0088988,-1.5407,0.012854,0.024866,5.2231e-07,0.32,0.86,0
0.016792,-0.0076296,0.028657,0.00088314,0.0088621,-0.00064246,0,0,0.051467,-0.020745,0,-0.0033408,0,0,0,0.028672,0.00086829,0.0088621,-1.3244,0.012801,0.024793,5.1719e-07,0.33,0.86,0
0.017306,-0.0076872,0.028563,0.00086185,0.0088274,-0.00053866,0,0,0.051312,-0.02071,0,-0.002801,0,0,0,0.028573,0.00085138,0.0088274,-1.1136,0.012751,0.024719,5.1217e-07,0.34,0.86,0
0.017818,-0.0077364,0.02847,0.00084477,0.0087945,-0.00043752,0,0,0.051157,-0.020669,0,-0.0022751,0,0,0,0.028477,0.00083784,0.0087945,-0.90712,0.012703,0.024644,5.0724e-07,0.35,0.86,0
0.018329,-0.0077773,0.02838,0.00083097,0.0087632,-0.00033854,0,0,0.051003,-0.020624,0,-0.0017604,0,0,0,0.028384,0.00082681,0.0087632,-0.70396,0.012658,0.02457,5.0244e-07,0.36,0.86,0
0.018839,-0.0078101,0.028291,0.00081949,0.0087331,-0.00024131,0,0,0.05085,-0.020575,0,-0.0012548,0,0,0,0.028293,0.00081737,0.0087331,-0.50325,0.012615,0.024497,4.9776e-07,0.37,0.86,0
0.019346,-0.007835,0.028204,0.00080932,0.0087039,-0.00014551,0,0,0.0507,-0.020526,0,-0.00075667,0,0,0,0.028205,0.00080855,0.0087039,-0.30433,0.012572,0.024425,4.9324e-07,0.38,0.86,0
0.019852,-0.0078521,0.028119,0.00079946,0.0086755,-5.0909e-05,0,0,0.050553,-0.020478,0,-0.00026472,0,0,0,0.028119,0.00079936,0.0086755,-0.10677,0.012531,0.024356,4.8889e-07,0.39,0.86,0
0.020357,-0.0078617,0.028036,0.00078883,0.0086474,4.2628e-05,0,0,0.05041,-0.020432,0,0.00022167,0,0,0,0.028036,0.00078876,0.0086474,0.08964,0.012491,0.024291,4.8474e-07,0.4,0.86,0
0.020861,-0.0078639,0.027955,0.00077636,0.0086194,0.00013511,0,0,0.050273,-0.020392,0,0.00070259,0,0,0,0.027956,0.00077569,0.0086194,0.28483,0.01245,0.02423,4.8082e-07,0.41,0.86,0
0.021363,-0.007859,0.027877,0.00076096,0.0085913,0.00022644,0,0,0.050142,-0.020359,0,0.0011775,0,0,0,0.027879,0.00075907,0.0085913,0.47843,0.01241,0.024175,4.7714e-07,0.42,0.86,0
0.021864,-0.0078472,0.027801,0.00074152,0.0085628,0.00031638,0,0,0.05002,-0.020335,0,0.0016452,0,0,0,0.027805,0.00073782,0.0085628,0.66978,0.012369,0.024126,4.7375e-07,0.43,0.86,0
0.022363,-0.0078288,0.027729,0.00071695,0.0085337,0.00040456,0,0,0.049907,-0.020324,0,0.0021037,0,0,0,0.027735,0.00071089,0.0085337,0.85788,0.012327,0.024085,4.7066e-07,0.44,0.86,0
0.022862,-0.007804,0.027659,0.0006862,0.0085037,0.00049047,0,0,0.049805,-0.020325,0,0.0025504,0,0,0,0.027668,0.00067729,0.0085037,1.0414,0.012283,0.024053,4.6791e-07,0.45,0.86,0
0.023359,-0.0077733,0.027594,0.00064829,0.0084726,0.00057345,0,0,0.049715,-0.020343,0,0.0029819,0,0,0,0.027606,0.00063609,0.0084726,1.2186,0.012238,0.02403,4.6552e-07,0.46,0.86,0
0.023856,-0.0077369,0.027532,0.00060234,0.0084402,0.0006527,0,0,0.049638,-0.020379,0,0.003394,0,0,0,0.027547,0.00058653,0.0084402,1.3876,0.012191,0.024017,4.635e-07,0.47,0.86,0
0.024352,-0.0076953,0.027474,0.0005476,0.0084064,0.00072731,0,0,0.049575,-0.020433,0,0.003782,0,0,0,0.027494,0.00052797,0.0084064,1.5461,0.012143,0.024016,4.6188e-07,0.48,0.86,0
0.024848,-0.007649,0.02742,0.00048353,0.0083712,0.00079623,0,0,0.049528,-0.020508,0,0.0041404,0,0,0,0.027444,0.00046001,0.0083712,1.6916,0.012092,0.024026,4.6065e-07,0.49,0.86,0
0.025343,-0.0075984,0.027371,0.00040976,0.0083343,0.00085831,0,0,0.049496,-0.020604,0,0.0044632,0,0,0,0.027398,0.00038247,0.0083343,1.8215,0.012038,0.024047,4.5982e-07,0.5,0.86,0
0.025837,-0.0075442,0.027327,0.00032624,0.0082959,0.00091237,0,0,0.04948,-0.020721,0,0.0047443,0,0,0,0.027357,0.00029544,0.0082959,1.9331,0.011983,0.02408,4.5937e-07,0.51,0.86,0
0.026332,-0.007487,0.027287,0.00023316,0.008256,0.00095716,0,0,0.04948,-0.020859,0,0.0049772,0,0,0,0.027321,0.00019934,0.008256,2.0238,0.011925,0.024124,4.5928e-07,0.52,0.86,0
0.026827,-0.0074275,0.027251,0.00013108,0.0082147,0.00099147,0,0,0.049495,-0.021017,0,0.0051557,0,0,0,0.027287,9.4886e-05,0.0082147,2.0909,0.011866,0.024178,4.5952e-07,0.53,0.86,0
0.027322,-0.0073663,0.02722,2.0877e-05,0.0081723,0.0010141,0,0,0.049524,-0.021194,0,0.0052735,0,0,0,0.027258,-1.6884e-05,0.0081723,2.1324,0.011804,0.024241,4.6005e-07,0.54,0.86,0
0.027817,-0.0073044,0.027193,-9.623e-05,0.008129,0.0010241,0,0,0.049566,-0.021386,0,0.0053255,0,0,0,0.027231,-0.00013461,0.008129,2.1462,0.011742,0.024311,4.6082e-07,0.55,0.86,0
0.028313,-0.0072426,0.027169,-0.00021867,0.0080852,0.0010206,0,0,0.049619,-0.02159,0,0.005307,0,0,0,0.027207,-0.00025665,0.0080852,2.1311,0.011679,0.024388,4.6178e-07,0.56,0.86,0
0.02881,-0.0071816,0.027149,-0.00034457,0.0080414,0.0010028,0,0,0.04968,-0.021803,0,0.0052145,0,0,0,0.027186,-0.0003811,0.0080414,2.0861,0.011615,0.024468,4.6287e-07,0.57,0.86,0
0.029307,-0.0071223,0.027132,-0.0004718,0.007998,0.00097041,0,0,0.049748,-0.022021,0,0.0050462,0,0,0,0.027166,-0.00050587,0.007998,2.0109,0.011553,0.02455,4.6403e-07,0.58,0.86,0
0.029805,-0.0070657,0.027117,-0.00059801,0.0079556,0.00092335,0,0,0.049819,-0.022239,0,0.0048014,0,0,0,0.027147,-0.00062874,0.0079556,1.9061,0.011491,0.024633,4.652e-07,0.59,0.86,0
0.030303,-0.0070126,0.027103,-0.00072076,0.0079148,0.00086183,0,0,0.04989,-0.022452,0,0.0044815,0,0,0,0.02713,-0.00074743,0.0079148,1.7724,0.011432,0.024712,4.6633e-07,0.6,0.86,0
0.030803,-0.0069639,0.027091,-0.00083755,0.0078761,0.00078643,0,0,0.04996,-0.022656,0,0.0040894,0,0,0,0.027113,-0.00085968,0.0078761,1.6116,0.011377,0.024788,4.6737e-07,0.61,0.86,0
0.031302,-0.0069203,0.02708,-0.00094599,0.0078403,0.00069803,0,0,0.050024,-0.022844,0,0.0036297,0,0,0,0.027098,-0.00096337,0.0078403,1.4258,0.011325,0.024857,4.6829e-07,0.62,0.86,0
0.031803,-0.0068826,0.02707,-0.0010438,0.0078079,0.00059779,0,0,0.050082,-0.023014,0,0.0031085,0,0,0,0.027083,-0.0010565,0.0078079,1.2175,0.011278,0.024919,4.6905e-07,0.63,0.86,0
0.032304,-0.0068515,0.02706,-0.001129,0.0077794,0.00048712,0,0,0.05013,-0.023162,0,0.002533,0,0,0,0.027069,-0.0011374,0.0077794,0.98969,0.011237,0.024972,4.6965e-07,0.64,0.86,0
0.032806,-0.0068275,0.027051,-0.0011998,0.0077553,0.0003676,0,0,0.050168,-0.023283,0,0.0019115,0,0,0,0.027056,-0.0012046,0.0077553,0.74538,0.011202,0.025014,4.7007e-07,0.65,0.86,0
0.033307,-0.0068111,0.027042,-0.0012548,0.0077361,0.00024097,0,0,0.050195,-0.023376,0,0.001253,0,0,0,0.027044,-0.0012568,0.0077361,0.48788,0.011174,0.025046,4.703e-07,0.66,0.86,0
0.03381,-0.0068027,0.027033,-0.0012928,0.007722,0.00010904,0,0,0.050208,-0.023439,0,0.00056702,0,0,0,0.027033,-0.0012932,0.007722,0.22056,0.011154,0.025066,4.7033e-07,0.67,0.86,0
0.034312,-0.0068026,0.027024,-0.0013131,0.0077133,-2.6293e-05,0,0,0.050208,-0.023469,0,-0.00013672,0,0,0,0.027024,-0.0013131,0.0077133,-0.053162,0.011141,0.025074,4.7018e-07,0.68,0.86,0
0.034814,-0.0068109,0.027015,-0.0013153,0.0077101,-0.0001631,0,0,0.050194,-0.023466,0,-0.00084812,0,0,0,0.027016,-0.0013162,0.0077101,-0.32984,0.011137,0.025069,4.6984e-07,0.69,0.86,0
0.035316,-0.0068275,0.027007,-0.0012991,0.0077123,-0.00029942,0,0,0.050166,-0.02343,0,-0.001557,0,0,0,0.02701,-0.0013023,0.0077123,-0.60599,0.01114,0.025052,4.6929e-07,0.7,0.86,0
0.035817,-0.0068525,0.026998,-0.0012649,0.00772,-0.00043331,0,0,0.050123,-0.023361,0,-0.0022532,0,0,0,0.027005,-0.0012716,0.00772,-0.87815,0.011151,0.025023,4.6854e-07,0.71,0.86,0
0.036318,-0.0068856,0.026989,-0.0012133,0.0077328,-0.00056284,0,0,0.050067,-0.02326,0,-0.0029268,0,0,0,0.027001,-0.0012245,0.0077328,-1.1428,0.01117,0.024981,4.6757e-07,0.72,0.86,0
0.036818,-0.0069265,0.02698,-0.0011451,0.0077506,-0.0006861,0,0,0.049997,-0.023129,0,-0.0035677,0,0,0,0.026997,-0.0011619,0.0077506,-1.3966,0.011195,0.024928,4.6637e-07,0.73,0.86,0
0.037318,-0.0069747,0.026971,-0.0010617,0.0077727,-0.00080131,0,0,0.049915,-0.02297,0,-0.0041668,0,0,0,0.026994,-0.0010846,0.0077727,-1.636,0.011227,0.024862,4.6495e-07,0.74,0.86,0
0.037817,-0.0070297,0.026961,-0.00096459,0.0077989,-0.00090675,0,0,0.049821,-0.022785,0,-0.0047151,0,0,0,0.02699,-0.000994,0.0077989,-1.8578,0.011265,0.024787,4.633e-07,0.75,0.86,0
0.038314,-0.0070908,0.026951,-0.00085566,0.0078285,-0.0010009,0,0,0.049717,-0.022579,0,-0.0052048,0,0,0,0.026987,-0.00089164,0.0078285,-2.0589,0.011308,0.024701,4.6143e-07,0.76,0.86,0
0.038811,-0.0071574,0.02694,-0.00073706,0.0078609,-0.0010825,0,0,0.049606,-0.022355,0,-0.0056289,0,0,0,0.026982,-0.00077933,0.0078609,-2.2364,0.011355,0.024607,4.5935e-07,0.77,0.86,0
0.039307,-0.0072286,0.026929,-0.0006111,0.0078955,-0.0011504,0,0,0.049488,-0.022117,0,-0.0059823,0,0,0,0.026977,-0.00065907,0.0078955,-2.3878,0.011405,0.024506,4.5709e-07,0.78,0.86,0
0.039801,-0.0073037,0.026919,-0.00048021,0.0079317,-0.001204,0,0,0.049367,-0.021871,0,-0.006261,0,0,0,0.026972,-0.00053301,0.0079317,-2.5114,0.011457,0.0244,4.5469e-07,0.79,0.86,0
0.040294,-0.0073818,0.026909,-0.00034682,0.0079688,-0.0012429,0,0,0.049246,-0.021621,0,-0.006463,0,0,0,0.026966,-0.00040338,0.0079688,-2.6054,0.01151,0.024291,4.5218e-07,0.8,0.86,0
0.040786,-0.0074619,0.026901,-0.00021329,0.0080062,-0.0012669,0,0,0.049126,-0.021371,0,-0.0065878,0,0,0,0.02696,-0.00027236,0.0080062,-2.6694,0.011565,0.02418,4.4961e-07,0.81,0.86,0
0.041276,-0.0075433,0.026893,-8.1799e-05,0.0080435,-0.0012763,0,0,0.04901,-0.021126,0,-0.0066368,0,0,0,0.026954,-0.00014205,0.0080435,-2.7029,0.011618,0.024071,4.4703e-07,0.82,0.86,0
0.041766,-0.0076251,0.026888,4.5691e-05,0.00808,-0.0012717,0,0,0.0489,-0.020889,0,-0.0066126,0,0,0,0.026948,-1.442e-05,0.00808,-2.7063,0.011671,0.023963,4.445e-07,0.83,0.86,0
0.042254,-0.0077065,0.026884,0.0001675,0.0081154,-0.0012537,0,0,0.048798,-0.020665,0,-0.0065191,0,0,0,0.026943,0.0001088,0.0081154,-2.6808,0.011722,0.02386,4.4205e-07,0.84,0.86,0
0.042742,-0.0077866,0.026882,0.00028227,0.0081493,-0.0012233,0,0,0.048705,-0.020454,0,-0.0063613,0,0,0,0.026938,0.00022613,0.0081493,-2.6277,0.011771,0.023763,4.3974e-07,0.85,0.86,0
0.043229,-0.0078647,0.026882,0.00038895,0.0081814,-0.0011817,0,0,0.048623,-0.02026,0,-0.0061447,0,0,0,0.026935,0.00033635,0.0081814,-2.5488,0.011818,0.023672,4.3759e-07,0.86,0.86,0
0.043714,-0.0079401,0.026885,0.00048681,0.0082115,-0.0011299,0,0,0.048551,-0.020084,0,-0.0058754,0,0,0,0.026933,0.00043854,0.0082115,-2.4464,0.011861,0.023589,4.3564e-07,0.87,0.86,0
0.0442,-0.0080123,0.026889,0.00057543,0.0082394,-0.0010692,0,0,0.048489,-0.019926,0,-0.0055596,0,0,0,0.026933,0.00053206,0.0082394,-2.3229,0.011901,0.023514,4.3391e-07,0.88,0.86,0
0.044684,-0.0080806,0.026895,0.00065466,0.0082649,-0.0010007,0,0,0.048439,-0.019787,0,-0.0052036,0,0,0,0.026933,0.00061655,0.0082649,-2.1808,0.011938,0.023447,4.3239e-07,0.89,0.86,0
0.045168,-0.0081444,0.026903,0.00072459,0.0082881,-0.00092564,0,0,0.048398,-0.019665,0,-0.0048133,0,0,0,0.026935,0.0006919,0.0082881,-2.0226,0.011972,0.023389,4.3109e-07,0.9,0.86,0
0.045652,-0.0082035,0.026911,0.0007855,0.008309,-0.00084509,0,0,0.048365,-0.019561,0,-0.0043945,0,0,0,0.026938,0.00075819,0.008309,-1.8508,0.012002,0.02334,4.3001e-07,0.91,0.86,0
0.046136,-0.0082573,0.02692,0.00083781,0.0083274,-0.00076001,0,0,0.048341,-0.019473,0,-0.0039521,0,0,0,0.026942,0.00081568,0.0083274,-1.6677,0.012028,0.023297,4.2913e-07,0.92,0.86,0
0.046619,-0.0083055,0.026929,0.00088205,0.0083435,-0.0006713,0,0,0.048324,-0.0194,0,-0.0034908,0,0,0,0.026947,0.00086476,0.0083435,-1.4753,0.012052,0.023262,4.2843e-07,0.93,0.86,0
0.047102,-0.0083478,0.026939,0.00091882,0.0083573,-0.00057972,0,0,0.048312,-0.01934,0,-0.0030145,0,0,0,0.026952,0.00090591,0.0083573,-1.2757,0.012072,0.023234,4.2789e-07,0.94,0.86,0
0.047585,-0.0083841,0.026947,0.00094869,0.0083688,-0.00048593,0,0,0.048304,-0.019292,0,-0.0025268,0,0,0,0.026956,0.00093961,0.0083688,-1.0704,0.012088,0.023212,4.2748e-07,0.95,0.86,0
0.048068,-0.0084139,0.026955,0.00097223,0.0083781,-0.00039047,0,0,0.048299,-0.019255,0,-0.0020304,0,0,0,0.026961,0.00096637,0.0083781,-0.86079,0.012102,0.023194,4.2718e-07,0.96,0.86,0
0.048551,-0.0084373,0.026961,0.00098997,0.0083853,-0.0002938,0,0,0.048297,-0.019228,0,-0.0015278,0,0,0,0.026964,0.00098664,0.0083853,-0.64805,0.012112,0.023181,4.2698e-07,0.97,0.86,0
0.049034,-0.0084541,0.026966,0.0010023,0.0083904,-0.0001963,0,0,0.048296,-0.019209,0,-0.0010207,0,0,0,0.026967,0.0010008,0.0083904,-0.43315,0.012119,0.023173,4.2684e-07,0.98,0.86,0
0.049517,-0.0084643,0.026968,0.0010096,0.0083934,-9.8273e-05,0,0,0.048295,-0.019198,0,-0.00051102,0,0,0,0.026969,0.0010092,0.0083934,-0.2169,0.012124,0.023168,4.2677e-07,0.99,0.86,0
0.05,-0.0084676,0.02697,0.001012,0.0083944,-6.4941e-05,0,0,0.048295,-0.019194,0,-0.00033769,0,0,0,0.02697,0.0010118,0.0083944,-0.14334,0.012125,0.023166,4.2676e-07,1,0.86,0
0,0,0.029069,0.012458,0.012458,-0.0070049,0,0,0.043188,-3.2526e-19,0,-0.036425,0,0,0,0.031629,0.0098987,0.012458,-20.072,0.017995,0.02057,4.2378e-07,0,0.87,0
0.00043189,-0.00036425,0.029011,0.011677,0.012207,-0.0069979,0,0,0.043692,-0.0013758,0,-0.036389,0,0,0,0.031483,0.0092048,0.012207,-19.459,0.017632,0.02094,4.3907e-07,0.01,0.87,0
0.00087383,-0.00073351,0.029272,0.010964,0.012071,-0.0070092,0,0,0.044724,-0.0028775,0,-0.036448,0,0,0,0.031648,0.008589,0.012071,-18.721,0.017436,0.02153,4.677e-07,0.02,0.87,0
0.0013264,-0.0011059,0.029533,0.010204,0.011921,-0.0069676,0,0,0.045792,-0.004465,0,-0.036231,0,0,0,0.031783,0.0079541,0.011921,-17.895,0.017219,0.022114,4.9571e-07,0.03,0.87,0
0.0017897,-0.0014791,0.029783,0.0094174,0.01176,-0.006868,0,0,0.046859,-0.006091,0,-0.035714,0,0,0,0.031883,0.0073177,0.01176,-16.999,0.016987,0.022673,5.2196e-07,0.04,0.87,0
0.0022636,-0.0018508,0.030011,0.0086271,0.011591,-0.0067108,0,0,0.047892,-0.0077077,0,-0.034896,0,0,0,0.031943,0.0066955,0.011591,-16.057,0.016743,0.02319,5.4553e-07,0.05,0.87,0
0.0027475,-0.0022186,0.03021,0.0078527,0.011419,-0.0065008,0,0,0.048858,-0.0092722,0,-0.033804,0,0,0,0.031963,0.0060999,0.011419,-15.09,0.016494,0.023657,5.6579e-07,0.06,0.87,0
0.0032407,-0.0025802,0.030374,0.0071105,0.011245,-0.0062463,0,0,0.049734,-0.01075,0,-0.032481,0,0,0,0.031945,0.0055394,0.011245,-14.118,0.016243,0.024065,5.8241e-07,0.07,0.87,0
0.0037422,-0.0029336,0.030498,0.0064122,0.011073,-0.0059571,0,0,0.050505,-0.012119,0,-0.030977,0,0,0,0.031891,0.0050194,0.011073,-13.16,0.015994,0.024414,5.9534e-07,0.08,0.87,0
0.0042508,-0.0032771,0.030583,0.0057651,0.010905,-0.0056439,0,0,0.051165,-0.013362,0,-0.029348,0,0,0,0.031807,0.0045419,0.010905,-12.228,0.015751,0.024706,6.0476e-07,0.09,0.87,0
0.0047655,-0.0036095,0.030631,0.0051728,0.010741,-0.0053163,0,0,0.051713,-0.014477,0,-0.027645,0,0,0,0.031696,0.0041072,0.010741,-11.334,0.015515,0.024943,6.1099e-07,0.1,0.87,0
0.0052851,-0.0039298,0.030643,0.0046359,0.010584,-0.0049829,0,0,0.052154,-0.015464,0,-0.025911,0,0,0,0.031565,0.0037139,0.010584,-10.483,0.015288,0.025131,6.1444e-07,0.11,0.87,0
0.0058086,-0.0042372,0.030625,0.0041528,0.010433,-0.0046509,0,0,0.052498,-0.016329,0,-0.024185,0,0,0,0.031418,0.0033594,0.010433,-9.6802,0.01507,0.025275,6.1553e-07,0.12,0.87,0
0.006335,-0.0045313,0.030581,0.0037205,0.01029,-0.0043256,0,0,0.052755,-0.017081,0,-0.022493,0,0,0,0.03126,0.0030411,0.01029,-8.9265,0.014864,0.025383,6.147e-07,0.13,0.87,0
0.0068637,-0.004812,0.030514,0.0033354,0.010155,-0.0040111,0,0,0.052935,-0.017731,0,-0.020858,0,0,0,0.031094,0.0027558,0.010155,-8.2222,0.014668,0.025458,6.1232e-07,0.14,0.87,0
0.0073937,-0.005079,0.030431,0.0029934,0.010027,-0.00371,0,0,0.05305,-0.018288,0,-0.019292,0,0,0,0.030924,0.0025007,0.010027,-7.5663,0.014484,0.025507,6.0875e-07,0.15,0.87,0
0.0079247,-0.0053326,0.030334,0.0026905,0.0099074,-0.0034241,0,0,0.05311,-0.018764,0,-0.017805,0,0,0,0.030752,0.0022727,0.0099074,-6.9569,0.014311,0.025533,6.0427e-07,0.16,0.87,0
0.0084559,-0.0055728,0.030227,0.0024226,0.009795,-0.0031543,0,0,0.053124,-0.019168,0,-0.016402,0,0,0,0.030581,0.0020692,0.009795,-6.3917,0.014148,0.025541,5.9912e-07,0.17,0.87,0
0.0089871,-0.0057999,0.030113,0.0021861,0.0096898,-0.0029008,0,0,0.053101,-0.01951,0,-0.015084,0,0,0,0.030411,0.001888,0.0096898,-5.8678,0.013996,0.025533,5.935e-07,0.18,0.87,0
0.0095179,-0.0060142,0.029995,0.0019776,0.0095916,-0.0026633,0,0,0.053047,-0.019796,0,-0.013849,0,0,0,0.030245,0.0017267,0.0095916,-5.3824,0.013855,0.025512,5.8757e-07,0.19,0.87,0
0.010048,-0.0062158,0.029873,0.0017941,0.0095001,-0.0024414,0,0,0.052969,-0.020036,0,-0.012696,0,0,0,0.030084,0.0015834,0.0095001,-4.9325,0.013722,0.025482,5.8144e-07,0.2,0.87,0
0.010577,-0.0064053,0.02975,0.0016329,0.009415,-0.0022344,0,0,0.052872,-0.020233,0,-0.011619,0,0,0,0.029927,0.0014565,0.009415,-4.5153,0.013599,0.025442,5.7522e-07,0.21,0.87,0
0.011106,-0.0065829,0.029628,0.0014916,0.0093358,-0.0020412,0,0,0.052759,-0.020395,0,-0.010614,0,0,0,0.029775,0.0013442,0.0093358,-4.1278,0.013485,0.025396,5.6898e-07,0.22,0.87,0
0.011633,-0.0067488,0.029506,0.001368,0.0092623,-0.001861,0,0,0.052635,-0.020525,0,-0.009677,0,0,0,0.029629,0.0012454,0.0092623,-3.7674,0.013379,0.025344,5.6277e-07,0.23,0.87,0
0.012158,-0.0069036,0.029387,0.0012602,0.0091941,-0.0016926,0,0,0.052501,-0.020628,0,-0.0088014,0,0,0,0.029488,0.0011588,0.0091941,-3.4314,0.01328,0.025288,5.5663e-07,0.24,0.87,0
0.012682,-0.0070474,0.029269,0.0011667,0.0091308,-0.001535,0,0,0.05236,-0.020706,0,-0.0079822,0,0,0,0.029353,0.0010831,0.0091308,-3.1173,0.013189,0.025228,5.5058e-07,0.25,0.87,0
0.013205,-0.0071805,0.029154,0.0010859,0.0090721,-0.0013873,0,0,0.052214,-0.020764,0,-0.007214,0,0,0,0.029223,0.0010175,0.0090721,-2.8227,0.013104,0.025164,5.4465e-07,0.26,0.87,0
0.013727,-0.0073033,0.029042,0.0010166,0.0090177,-0.0012484,0,0,0.052064,-0.020803,0,-0.0064915,0,0,0,0.029098,0.00096108,0.0090177,-2.5454,0.013026,0.025098,5.3884e-07,0.27,0.87,0
0.014247,-0.007416,0.028934,0.00095743,0.0089673,-0.0011172,0,0,0.051912,-0.020826,0,-0.0058097,0,0,0,0.028978,0.00091288,0.0089673,-2.2833,0.012953,0.02503,5.3317e-07,0.28,0.87,0
0.014765,-0.0075189,0.028828,0.00090742,0.0089205,-0.00099305,0,0,0.051759,-0.020834,0,-0.0051639,0,0,0,0.028863,0.00087215,0.0089205,-2.0344,0.012885,0.02496,5.2764e-07,0.29,0.87,0
0.015282,-0.0076123,0.028725,0.00086555,0.0088772,-0.00087489,0,0,0.051604,-0.02083,0,-0.0045495,0,0,0,0.028752,0.0008381,0.0088772,-1.797,0.012823,0.024888,5.2225e-07,0.3,0.87,0
0.015797,-0.0076963,0.028625,0.00083086,0.0088368,-0.00076196,0,0,0.05145,-0.020816,0,-0.0039622,0,0,0,0.028646,0.00080998,0.0088368,-1.5691,0.012764,0.024816,5.1701e-07,0.31,0.87,0
0.016311,-0.0077711,0.028528,0.00080246,0.0087993,-0.0006535,0,0,0.051296,-0.020792,0,-0.0033982,0,0,0,0.028544,0.00078706,0.0087993,-1.3495,0.01271,0.024744,5.1191e-07,0.32,0.87,0
0.016823,-0.0078371,0.028435,0.00077948,0.0087643,-0.00054883,0,0,0.051143,-0.02076,0,-0.0028539,0,0,0,0.028446,0.00076859,0.0087643,-1.1365,0.01266,0.024671,5.0697e-07,0.33,0.87,0
0.017334,-0.0078944,0.028344,0.00076105,0.0087314,-0.00044733,0,0,0.050992,-0.020723,0,-0.0023261,0,0,0,0.028351,0.0007538,0.0087314,-0.92887,0.012612,0.024598,5.0218e-07,0.34,0.87,0
0.017843,-0.0079431,0.028256,0.00074633,0.0087006,-0.00034845,0,0,0.050843,-0.020681,0,-0.0018119,0,0,0,0.02826,0.00074192,0.0087006,-0.72558,0.012568,0.024527,4.9756e-07,0.35,0.87,0
0.018351,-0.0079836,0.02817,0.00073445,0.0086714,-0.00025173,0,0,0.050697,-0.020636,0,-0.001309,0,0,0,0.028173,0.00073215,0.0086714,-0.52563,0.012525,0.024457,4.931e-07,0.36,0.87,0
0.018857,-0.0080159,0.028088,0.00072453,0.0086437,-0.00015678,0,0,0.050554,-0.02059,0,-0.00081525,0,0,0,0.028089,0.00072363,0.0086437,-0.32827,0.012485,0.024389,4.8883e-07,0.37,0.87,0
0.019362,-0.0080403,0.028008,0.00071567,0.0086171,-6.3313e-05,0,0,0.050416,-0.020544,0,-0.00032923,0,0,0,0.028008,0.00071552,0.0086171,-0.13292,0.012447,0.024324,4.8476e-07,0.38,0.87,0
0.019865,-0.008057,0.027931,0.00070693,0.0085913,2.8867e-05,0,0,0.050283,-0.0205,0,0.00015011,0,0,0,0.027931,0.0007069,0.0085913,0.060754,0.01241,0.024262,4.809e-07,0.39,0.87,0
0.020367,-0.0080662,0.027857,0.00069738,0.0085662,0.00011985,0,0,0.050155,-0.020459,0,0.00062324,0,0,0,0.027857,0.00069685,0.0085662,0.25284,0.012374,0.024205,4.7727e-07,0.4,0.87,0
0.020868,-0.008068,0.027786,0.00068605,0.0085415,0.00020963,0,0,0.050035,-0.020424,0,0.0010901,0,0,0,0.027787,0.00068443,0.0085415,0.44317,0.012338,0.024153,4.7389e-07,0.41,0.87,0
0.021368,-0.0080628,0.027718,0.00067196,0.008517,0.00029805,0,0,0.049923,-0.020397,0,0.0015499,0,0,0,0.027721,0.00066867,0.008517,0.6313,0.012302,0.024106,4.7079e-07,0.42,0.87,0
0.021867,-0.0080508,0.027653,0.00065414,0.0084923,0.00038486,0,0,0.049819,-0.020379,0,0.0020012,0,0,0,0.027659,0.00064866,0.0084923,0.81649,0.012267,0.024067,4.6799e-07,0.43,0.87,0
0.022364,-0.0080323,0.027592,0.00063164,0.0084672,0.00046966,0,0,0.049726,-0.020373,0,0.0024422,0,0,0,0.027601,0.00062346,0.0084672,0.99769,0.012231,0.024035,4.655e-07,0.44,0.87,0
0.022861,-0.0080076,0.027535,0.00060354,0.0084417,0.00055193,0,0,0.049644,-0.020379,0,0.00287,0,0,0,0.027547,0.00059224,0.0084417,1.1735,0.012193,0.024012,4.6335e-07,0.45,0.87,0
0.023357,-0.007977,0.027482,0.00056901,0.0084154,0.00063102,0,0,0.049574,-0.0204,0,0.0032813,0,0,0,0.027497,0.00055422,0.0084154,1.3424,0.012155,0.023998,4.6155e-07,0.46,0.87,0
0.023853,-0.007941,0.027433,0.00052728,0.0083882,0.00070616,0,0,0.049517,-0.020438,0,0.003672,0,0,0,0.027452,0.00050876,0.0083882,1.5024,0.012116,0.023994,4.6013e-07,0.47,0.87,0
0.024348,-0.0078999,0.027389,0.00047775,0.0083599,0.00077643,0,0,0.049475,-0.020494,0,0.0040375,0,0,0,0.027411,0.00045536,0.0083599,1.6513,0.012075,0.024,4.5908e-07,0.48,0.87,0
0.024842,-0.0078544,0.027349,0.00041994,0.0083305,0.00084086,0,0,0.049447,-0.020567,0,0.0043725,0,0,0,0.027375,0.0003937,0.0083305,1.7868,0.012033,0.024017,4.5841e-07,0.49,0.87,0
0.025337,-0.0078048,0.027313,0.00035359,0.0083,0.00089837,0,0,0.049434,-0.020661,0,0.0046715,0,0,0,0.027343,0.00032369,0.0083,1.9064,0.011989,0.024045,4.581e-07,0.5,0.87,0
0.025831,-0.0077517,0.027282,0.00027867,0.0082682,0.00094782,0,0,0.049436,-0.020773,0,0.0049287,0,0,0,0.027315,0.00024544,0.0082682,2.0078,0.011943,0.024082,4.5816e-07,0.51,0.87,0
0.026325,-0.0076958,0.027256,0.0001954,0.0082353,0.00098808,0,0,0.049453,-0.020904,0,0.005138,0,0,0,0.027292,0.00015937,0.0082353,2.0884,0.011895,0.02413,4.5855e-07,0.52,0.87,0
0.02682,-0.0076378,0.027234,0.00010428,0.0082013,0.001018,0,0,0.049484,-0.021052,0,0.0052937,0,0,0,0.027272,6.6137e-05,0.0082013,2.146,0.011846,0.024187,4.5925e-07,0.53,0.87,0
0.027315,-0.0075784,0.027216,6.1119e-06,0.0081665,0.0010366,0,0,0.049528,-0.021217,0,0.0053902,0,0,0,0.027255,-3.3321e-05,0.0081665,2.1786,0.011796,0.024251,4.6021e-07,0.54,0.87,0
0.02781,-0.0075184,0.027201,-9.8026e-05,0.008131,0.0010428,0,0,0.049583,-0.021396,0,0.0054226,0,0,0,0.027241,-0.0001378,0.008131,2.1844,0.011745,0.024323,4.6139e-07,0.55,0.87,0
0.028307,-0.0074585,0.027191,-0.00020675,0.0080952,0.0010359,0,0,0.049648,-0.021585,0,0.0053868,0,0,0,0.02723,-0.00024587,0.0080952,2.1623,0.011693,0.024399,4.6273e-07,0.56,0.87,0
0.028803,-0.0073995,0.027183,-0.00031843,0.0080593,0.0010153,0,0,0.049721,-0.021782,0,0.0052796,0,0,0,0.02722,-0.00035586,0.0080593,2.1114,0.011641,0.024479,4.6419e-07,0.57,0.87,0
0.029301,-0.0073424,0.027177,-0.0004312,0.0080239,0.00098062,0,0,0.049799,-0.021983,0,0.0050992,0,0,0,0.027212,-0.00046599,0.0080239,2.0317,0.01159,0.02456,4.657e-07,0.58,0.87,0
0.029799,-0.0072879,0.027174,-0.00054303,0.0079892,0.00093179,0,0,0.04988,-0.022184,0,0.0048453,0,0,0,0.027205,-0.00057432,0.0079892,1.9233,0.01154,0.02464,4.6721e-07,0.59,0.87,0
0.030299,-0.0072368,0.027171,-0.00065178,0.0079559,0.00086903,0,0,0.04996,-0.02238,0,0.004519,0,0,0,0.027198,-0.00067889,0.0079559,1.7873,0.011492,0.024718,4.6866e-07,0.6,0.87,0
0.030799,-0.00719,0.02717,-0.00075529,0.0079243,0.00079287,0,0,0.050038,-0.022567,0,0.0041229,0,0,0,0.027192,-0.00077779,0.0079243,1.625,0.011446,0.024792,4.7002e-07,0.61,0.87,0
0.031299,-0.0071483,0.027168,-0.00085145,0.007895,0.0007041,0,0,0.05011,-0.022741,0,0.0036613,0,0,0,0.027186,-0.00086913,0.007895,1.4386,0.011404,0.02486,4.7123e-07,0.62,0.87,0
0.031801,-0.0071122,0.027166,-0.00093826,0.0078684,0.00060381,0,0,0.050174,-0.022897,0,0.0031398,0,0,0,0.027179,-0.00095123,0.0078684,1.2302,0.011366,0.02492,4.7228e-07,0.63,0.87,0
0.032303,-0.0070825,0.027164,-0.0010139,0.007845,0.00049333,0,0,0.050229,-0.023033,0,0.0025653,0,0,0,0.027173,-0.0010225,0.007845,1.0027,0.011332,0.024972,4.7312e-07,0.64,0.87,0
0.032805,-0.0070597,0.027161,-0.0010768,0.0078252,0.00037417,0,0,0.050272,-0.023145,0,0.0019457,0,0,0,0.027166,-0.0010818,0.0078252,0.75903,0.011303,0.025013,4.7374e-07,0.65,0.87,0
0.033308,-0.0070442,0.027156,-0.0011256,0.0078092,0.000248,0,0,0.050303,-0.023231,0,0.0012896,0,0,0,0.027159,-0.0011278,0.0078092,0.50236,0.01128,0.025044,4.7412e-07,0.66,0.87,0
0.033812,-0.0070364,0.027151,-0.0011594,0.0077974,0.00011661,0,0,0.050319,-0.023288,0,0.0006064,0,0,0,0.027151,-0.0011599,0.0077974,0.23601,0.011263,0.025063,4.7427e-07,0.67,0.87,0
0.034315,-0.0070365,0.027144,-0.0011773,0.00779,-1.8099e-05,0,0,0.05032,-0.023315,0,-9.4113e-05,0,0,0,0.027144,-0.0011773,0.00779,-0.036615,0.011252,0.025071,4.7417e-07,0.68,0.87,0
0.034818,-0.0070448,0.027135,-0.001179,0.0077869,-0.00015421,0,0,0.050306,-0.023311,0,-0.00080188,0,0,0,0.027136,-0.0011798,0.0077869,-0.31204,0.011248,0.025066,4.7381e-07,0.69,0.87,0
0.035321,-0.0070611,0.027125,-0.0011643,0.0077882,-0.00028975,0,0,0.050276,-0.023277,0,-0.0015067,0,0,0,0.027128,-0.0011673,0.0077882,-0.58677,0.01125,0.025049,4.7319e-07,0.7,0.87,0
0.035823,-0.0070854,0.027113,-0.0011335,0.0077939,-0.00042278,0,0,0.05023,-0.023211,0,-0.0021984,0,0,0,0.02712,-0.0011399,0.0077939,-0.8573,0.011258,0.025019,4.7231e-07,0.71,0.87,0
0.036325,-0.0071176,0.0271,-0.0010872,0.0078038,-0.00055136,0,0,0.05017,-0.023117,0,-0.0028671,0,0,0,0.027111,-0.001098,0.0078038,-1.1202,0.011272,0.024977,4.7116e-07,0.72,0.87,0
0.036827,-0.0071571,0.027085,-0.0010262,0.0078176,-0.00067364,0,0,0.050095,-0.022994,0,-0.0035029,0,0,0,0.027101,-0.0010424,0.0078176,-1.372,0.011292,0.024924,4.6975e-07,0.73,0.87,0
0.037327,-0.0072038,0.027068,-0.00095166,0.0078349,-0.00078785,0,0,0.050006,-0.022845,0,-0.0040968,0,0,0,0.02709,-0.0009738,0.0078349,-1.6093,0.011317,0.024859,4.6807e-07,0.74,0.87,0
0.037827,-0.007257,0.02705,-0.00086501,0.0078555,-0.00089239,0,0,0.049906,-0.022673,0,-0.0046404,0,0,0,0.027078,-0.00089351,0.0078555,-1.8291,0.011347,0.024784,4.6614e-07,0.75,0.87,0
0.038325,-0.0073161,0.027031,-0.00076794,0.0078788,-0.0009858,0,0,0.049795,-0.022482,0,-0.0051262,0,0,0,0.027066,-0.00080285,0.0078788,-2.0284,0.01138,0.0247,4.6397e-07,0.76,0.87,0
0.038823,-0.0073805,0.02701,-0.00066234,0.0079044,-0.0010669,0,0,0.049676,-0.022274,0,-0.0055478,0,0,0,0.027051,-0.00070341,0.0079044,-2.2046,0.011418,0.024607,4.6159e-07,0.77,0.87,0
0.039319,-0.0074495,0.02699,-0.00055026,0.0079318,-0.0011347,0,0,0.04955,-0.022053,0,-0.0059003,0,0,0,0.027036,-0.00059693,0.0079318,-2.3553,0.011457,0.024508,4.5901e-07,0.78,0.87,0
0.039814,-0.0075222,0.026969,-0.0004338,0.0079605,-0.0011885,0,0,0.049421,-0.021825,0,-0.0061802,0,0,0,0.02702,-0.00048525,0.0079605,-2.4788,0.011498,0.024404,4.5629e-07,0.79,0.87,0
0.040307,-0.0075978,0.026948,-0.00031508,0.0079899,-0.001228,0,0,0.049291,-0.021593,0,-0.0063856,0,0,0,0.027003,-0.00037028,0.0079899,-2.5738,0.011541,0.024297,4.5347e-07,0.8,0.87,0
0.0408,-0.0076756,0.026928,-0.00019613,0.0080196,-0.0012531,0,0,0.049162,-0.021361,0,-0.006516,0,0,0,0.026986,-0.0002539,0.0080196,-2.6394,0.011584,0.024189,4.5058e-07,0.81,0.87,0
0.041291,-0.0077546,0.026909,-7.8859e-05,0.0080491,-0.0012639,0,0,0.049036,-0.021133,0,-0.0065724,0,0,0,0.026968,-0.00013792,0.0080491,-2.6755,0.011626,0.02408,4.4768e-07,0.82,0.87,0
0.04178,-0.0078341,0.026892,3.5028e-05,0.0080781,-0.0012611,0,0,0.048916,-0.020912,0,-0.0065575,0,0,0,0.026951,-2.4054e-05,0.0080781,-2.6824,0.011668,0.023974,4.4483e-07,0.83,0.87,0
0.042269,-0.0079133,0.026877,0.00014406,0.0081062,-0.0012451,0,0,0.048803,-0.020702,0,-0.0064744,0,0,0,0.026934,8.6195e-05,0.0081062,-2.6609,0.011709,0.023871,4.4205e-07,0.84,0.87,0
0.042756,-0.0079913,0.026863,0.00024703,0.0081331,-0.0012169,0,0,0.048698,-0.020504,0,-0.0063279,0,0,0,0.026919,0.00019151,0.0081331,-2.6123,0.011748,0.023773,4.394e-07,0.85,0.87,0
0.043243,-0.0080676,0.026852,0.000343,0.0081585,-0.0011775,0,0,0.048603,-0.02032,0,-0.0061228,0,0,0,0.026904,0.0002908,0.0081585,-2.5383,0.011785,0.023681,4.3691e-07,0.86,0.87,0
0.043728,-0.0081413,0.026843,0.0004313,0.0081824,-0.0011278,0,0,0.048518,-0.020153,0,-0.0058648,0,0,0,0.026891,0.00038323,0.0081824,-2.4407,0.011819,0.023596,4.3461e-07,0.87,0.87,0
0.044213,-0.0082119,0.026837,0.00051153,0.0082045,-0.0010691,0,0,0.048444,-0.020002,0,-0.0055595,0,0,0,0.02688,0.00046818,0.0082045,-2.3219,0.011851,0.023518,4.3252e-07,0.88,0.87,0
0.044697,-0.0082788,0.026832,0.00058352,0.0082247,-0.0010025,0,0,0.048379,-0.019867,0,-0.0052129,0,0,0,0.02687,0.00054529,0.0082247,-2.184,0.01188,0.023448,4.3065e-07,0.89,0.87,0
0.045181,-0.0083415,0.026829,0.00064731,0.0082431,-0.00092896,0,0,0.048325,-0.019749,0,-0.0048306,0,0,0,0.026863,0.00061439,0.0082431,-2.0295,0.011907,0.023386,4.29e-07,0.9,0.87,0
0.045664,-0.0083995,0.026829,0.00070309,0.0082595,-0.00084958,0,0,0.04828,-0.019647,0,-0.0044178,0,0,0,0.026856,0.0006755,0.0082595,-1.8606,0.01193,0.023332,4.2757e-07,0.91,0.87,0
0.046146,-0.0084525,0.026829,0.00075121,0.008274,-0.0007653,0,0,0.048243,-0.019559,0,-0.0039796,0,0,0,0.026851,0.00072877,0.008274,-1.6795,0.011951,0.023286,4.2636e-07,0.92,0.87,0
0.046629,-0.0084999,0.02683,0.00079207,0.0082867,-0.00067701,0,0,0.048213,-0.019486,0,-0.0035204,0,0,0,0.026848,0.00077448,0.0082867,-1.4884,0.01197,0.023246,4.2534e-07,0.93,0.87,0
0.047111,-0.0085416,0.026832,0.00082617,0.0082975,-0.00058546,0,0,0.04819,-0.019425,0,-0.0030444,0,0,0,0.026845,0.000813,0.0082975,-1.289,0.011985,0.023213,4.2451e-07,0.94,0.87,0
0.047593,-0.0085774,0.026835,0.00085399,0.0083065,-0.00049133,0,0,0.048173,-0.019377,0,-0.0025549,0,0,0,0.026844,0.0008447,0.0083065,-1.083,0.011998,0.023187,4.2385e-07,0.95,0.87,0
0.048074,-0.0086069,0.026837,0.000876,0.0083139,-0.00039521,0,0,0.04816,-0.019339,0,-0.0020551,0,0,0,0.026843,0.00086998,0.0083139,-0.87196,0.012009,0.023166,4.2333e-07,0.96,0.87,0
0.048556,-0.00863,0.026839,0.00089263,0.0083195,-0.00029761,0,0,0.048151,-0.01931,0,-0.0015476,0,0,0,0.026842,0.00088921,0.0083195,-0.65708,0.012017,0.02315,4.2295e-07,0.97,0.87,0
0.049037,-0.0086466,0.026841,0.00090423,0.0083235,-0.00019896,0,0,0.048145,-0.01929,0,-0.0010346,0,0,0,0.026842,0.00090271,0.0083235,-0.43949,0.012023,0.02314,4.2269e-07,0.98,0.87,0
0.049519,-0.0086566,0.026842,0.00091109,0.0083259,-9.9643e-05,0,0,0.048141,-0.019278,0,-0.00051814,0,0,0,0.026842,0.00091071,0.0083259,-0.22016,0.012026,0.023133,4.2254e-07,0.99,0.87,0
0.05,-0.00866,0.026842,0.00091335,0.0083267,-6.4221e-05,0,0,0.04814,-0.019275,0,-0.00033395,0,0,0,0.026842,0.0009132,0.0083267,-0.14191,0.012027,0.023131,4.225e-07,1,0.87,0
0,0,0.029285,0.01255,0.01255,-0.0072769,0,0,0.043509,3.2526e-19,0,-0.03784,0,0,0,0.032006,0.0098288,0.01255,-20.507,0.018129,0.02095,4.4548e-07,0,0.88,0
0.00043509,-0.0003784,0.029224,0.011721,0.012283,-0.0072688,0,0,0.044045,-0.0014628,0,-0.037797,0,0,0,0.031849,0.0090957,0.012283,-19.856,0.017743,0.021338,4.6169e-07,0.01,0.88,0
0.0008809,-0.00076319,0.0295,0.010951,0.012135,-0.0072851,0,0,0.045148,-0.0030793,0,-0.037883,0,0,0,0.032019,0.0084318,0.012135,-19.075,0.017529,0.021971,4.9295e-07,0.02,0.88,0
0.001338,-0.001152,0.029774,0.010125,0.01197,-0.007236,0,0,0.046291,-0.0047959,0,-0.037628,0,0,0,0.032151,0.007748,0.01197,-18.186,0.01729,0.02259,5.2306e-07,0.03,0.88,0
0.0018067,-0.0015421,0.030033,0.0092721,0.011791,-0.0071163,0,0,0.047427,-0.0065503,0,-0.037005,0,0,0,0.032238,0.0070669,0.011791,-17.216,0.017032,0.023173,5.5059e-07,0.04,0.88,0
0.0022866,-0.0019305,0.030263,0.0084197,0.011605,-0.0069278,0,0,0.048511,-0.0082814,0,-0.036025,0,0,0,0.032275,0.0064078,0.011605,-16.194,0.016763,0.0237,5.7443e-07,0.05,0.88,0
0.0027769,-0.0023144,0.030456,0.0075927,0.011414,-0.0066787,0,0,0.049507,-0.0099369,0,-0.034729,0,0,0,0.032264,0.0057847,0.011414,-15.147,0.016488,0.024161,5.9394e-07,0.06,0.88,0
0.0032767,-0.002691,0.030604,0.0068097,0.011224,-0.0063807,0,0,0.050388,-0.011478,0,-0.033179,0,0,0,0.032207,0.0052067,0.011224,-14.102,0.016213,0.024551,6.0889e-07,0.07,0.88,0
0.0037847,-0.0030583,0.030706,0.006083,0.011037,-0.0060471,0,0,0.051141,-0.01288,0,-0.031445,0,0,0,0.032111,0.0046781,0.011037,-13.079,0.015942,0.024871,6.1944e-07,0.08,0.88,0
0.0042996,-0.0034143,0.030762,0.0054193,0.010854,-0.0056913,0,0,0.051761,-0.014131,0,-0.029595,0,0,0,0.031982,0.0041999,0.010854,-12.093,0.015679,0.025125,6.2597e-07,0.09,0.88,0
0.0048199,-0.0037579,0.030776,0.0048205,0.010679,-0.0053249,0,0,0.052253,-0.015232,0,-0.02769,0,0,0,0.031826,0.0037705,0.010679,-11.154,0.015425,0.025318,6.2903e-07,0.1,0.88,0
0.0053446,-0.0040879,0.030752,0.0042852,0.010511,-0.0049577,0,0,0.052627,-0.016188,0,-0.02578,0,0,0,0.03165,0.003387,0.010511,-10.269,0.015183,0.02546,6.2921e-07,0.11,0.88,0
0.0058725,-0.0044037,0.030697,0.0038098,0.010352,-0.0045972,0,0,0.052896,-0.01701,0,-0.023905,0,0,0,0.031461,0.0030455,0.010352,-9.4395,0.014953,0.025558,6.2707e-07,0.12,0.88,0
0.0064025,-0.0047052,0.030615,0.0033898,0.010202,-0.0042488,0,0,0.053076,-0.017711,0,-0.022094,0,0,0,0.031263,0.0027421,0.010202,-8.667,0.014736,0.025619,6.2315e-07,0.13,0.88,0
0.006934,-0.0049921,0.030514,0.0030198,0.01006,-0.003916,0,0,0.05318,-0.018305,0,-0.020363,0,0,0,0.031061,0.0024729,0.01006,-7.9502,0.014531,0.02565,6.1791e-07,0.14,0.88,0
0.0074661,-0.0052645,0.030397,0.0026947,0.0099275,-0.0036012,0,0,0.053221,-0.018805,0,-0.018726,0,0,0,0.030857,0.0022342,0.0099275,-7.2869,0.01434,0.025657,6.1171e-07,0.15,0.88,0
0.0079984,-0.0055226,0.030269,0.0024094,0.0098035,-0.0033054,0,0,0.053211,-0.019225,0,-0.017188,0,0,0,0.030656,0.0020226,0.0098035,-6.6743,0.014161,0.025644,6.0488e-07,0.16,0.88,0
0.0085303,-0.0057665,0.030134,0.0021593,0.009688,-0.0030288,0,0,0.05316,-0.019575,0,-0.01575,0,0,0,0.030458,0.0018352,0.009688,-6.109,0.013994,0.025616,5.9765e-07,0.17,0.88,0
0.0090616,-0.0059968,0.029995,0.0019403,0.0095805,-0.0027711,0,0,0.053077,-0.019865,0,-0.01441,0,0,0,0.030266,0.0016692,0.0095805,-5.5875,0.013839,0.025576,5.902e-07,0.18,0.88,0
0.0095919,-0.0062137,0.029854,0.0017486,0.0094807,-0.0025317,0,0,0.05297,-0.020103,0,-0.013165,0,0,0,0.03008,0.0015224,0.0094807,-5.1064,0.013694,0.025526,5.8269e-07,0.19,0.88,0
0.010121,-0.0064176,0.029712,0.0015811,0.0093881,-0.0023095,0,0,0.052844,-0.020298,0,-0.012009,0,0,0,0.029901,0.0013927,0.0093881,-4.6621,0.013561,0.02547,5.7521e-07,0.2,0.88,0
0.010649,-0.0066088,0.029573,0.0014347,0.0093023,-0.0021033,0,0,0.052704,-0.020456,0,-0.010937,0,0,0,0.029729,0.0012784,0.0093023,-4.2514,0.013437,0.025408,5.6784e-07,0.21,0.88,0
0.011175,-0.0067878,0.029436,0.0013072,0.0092229,-0.0019121,0,0,0.052554,-0.020581,0,-0.009943,0,0,0,0.029565,0.0011778,0.0092229,-3.8711,0.013322,0.025341,5.6064e-07,0.22,0.88,0
0.0117,-0.0069549,0.029302,0.0011962,0.0091495,-0.0017345,0,0,0.052397,-0.020678,0,-0.0090195,0,0,0,0.029409,0.0010896,0.0091495,-3.5181,0.013216,0.025272,5.5363e-07,0.23,0.88,0
0.012223,-0.0071105,0.029172,0.0011,0.0090817,-0.0015693,0,0,0.052235,-0.020752,0,-0.0081604,0,0,0,0.02926,0.0010125,0.0090817,-3.1897,0.013118,0.025201,5.4685e-07,0.24,0.88,0
0.012745,-0.007255,0.029047,0.0010169,0.009019,-0.0014153,0,0,0.052072,-0.020806,0,-0.0073593,0,0,0,0.029118,0.0009456,0.009019,-2.8832,0.013027,0.025128,5.403e-07,0.25,0.88,0
0.013264,-0.0073886,0.028925,0.00094541,0.0089612,-0.0012712,0,0,0.051907,-0.020841,0,-0.0066103,0,0,0,0.028983,0.00088777,0.0089612,-2.596,0.012944,0.025054,5.3399e-07,0.26,0.88,0
0.013783,-0.0075117,0.028809,0.00088432,0.0089079,-0.0011361,0,0,0.051742,-0.020861,0,-0.0059076,0,0,0,0.028855,0.00083818,0.0089079,-2.3259,0.012867,0.024979,5.2792e-07,0.27,0.88,0
0.014299,-0.0076245,0.028697,0.00083249,0.0088588,-0.0010088,0,0,0.051579,-0.020868,0,-0.0052457,0,0,0,0.028733,0.00079601,0.0088588,-2.0707,0.012796,0.024905,5.2209e-07,0.28,0.88,0
0.014814,-0.0077275,0.028589,0.00078887,0.0088134,-0.00088839,0,0,0.051417,-0.020864,0,-0.0046196,0,0,0,0.028618,0.00076052,0.0088134,-1.8285,0.012731,0.02483,5.1649e-07,0.29,0.88,0
0.015328,-0.0078207,0.028486,0.00075254,0.0087716,-0.00077395,0,0,0.051258,-0.020849,0,-0.0040246,0,0,0,0.028508,0.00073096,0.0087716,-1.5973,0.01267,0.024756,5.1111e-07,0.3,0.88,0
0.015839,-0.0079045,0.028387,0.0007226,0.008733,-0.00066465,0,0,0.051101,-0.020827,0,-0.0034562,0,0,0,0.028403,0.00070665,0.008733,-1.3755,0.012614,0.024682,5.0596e-07,0.31,0.88,0
0.01635,-0.0079791,0.028293,0.00069824,0.0086973,-0.00055972,0,0,0.050948,-0.020798,0,-0.0029105,0,0,0,0.028304,0.00068689,0.0086973,-1.1615,0.012563,0.02461,5.0103e-07,0.32,0.88,0
0.016858,-0.0080448,0.028202,0.00067864,0.0086642,-0.00045848,0,0,0.050798,-0.020762,0,-0.0023841,0,0,0,0.02821,0.00067101,0.0086642,-0.95406,0.012515,0.024539,4.9631e-07,0.33,0.88,0
0.017366,-0.0081017,0.028115,0.00066303,0.0086335,-0.00036031,0,0,0.050653,-0.020723,0,-0.0018736,0,0,0,0.02812,0.0006583,0.0086335,-0.75184,0.012471,0.024469,4.9181e-07,0.34,0.88,0
0.017871,-0.00815,0.028032,0.00065063,0.008605,-0.0002647,0,0,0.050512,-0.020681,0,-0.0013764,0,0,0,0.028035,0.00064807,0.008605,-0.5538,0.012429,0.024402,4.8753e-07,0.35,0.88,0
0.018376,-0.00819,0.027953,0.00064065,0.0085782,-0.00017119,0,0,0.050375,-0.020638,0,-0.00089021,0,0,0,0.027955,0.00063958,0.0085782,-0.3591,0.012391,0.024337,4.8347e-07,0.36,0.88,0
0.018879,-0.0082219,0.027878,0.0006323,0.0085531,-7.944e-05,0,0,0.050245,-0.020594,0,-0.00041309,0,0,0,0.027878,0.00063207,0.0085531,-0.16706,0.012354,0.024275,4.7964e-07,0.37,0.88,0
0.019381,-0.0082458,0.027806,0.00062478,0.0085293,1.0822e-05,0,0,0.05012,-0.020552,0,5.6272e-05,0,0,0,0.027806,0.00062478,0.0085293,0.022811,0.01232,0.024217,4.7604e-07,0.38,0.88,0
0.019881,-0.0082621,0.027738,0.00061726,0.0085066,9.9755e-05,0,0,0.050002,-0.020512,0,0.00051873,0,0,0,0.027738,0.0006169,0.0085066,0.21074,0.012287,0.024163,4.7269e-07,0.39,0.88,0
0.020381,-0.0082709,0.027674,0.0006089,0.0084847,0.00018742,0,0,0.049891,-0.020477,0,0.00097457,0,0,0,0.027675,0.00060761,0.0084847,0.39674,0.012256,0.024114,4.6961e-07,0.4,0.88,0
0.020879,-0.0082724,0.027613,0.00059886,0.0084635,0.00027376,0,0,0.049788,-0.020448,0,0.0014235,0,0,0,0.027616,0.00059608,0.0084635,0.58055,0.012225,0.02407,4.6679e-07,0.41,0.88,0
0.021376,-0.008267,0.027556,0.00058626,0.0084427,0.00035861,0,0,0.049695,-0.020427,0,0.0018648,0,0,0,0.027561,0.00058149,0.0084427,0.76167,0.012195,0.024033,4.6428e-07,0.42,0.88,0
0.021873,-0.0082548,0.027503,0.00057027,0.008422,0.00044169,0,0,0.049611,-0.020415,0,0.0022968,0,0,0,0.02751,0.00056302,0.008422,0.9393,0.012165,0.024003,4.6207e-07,0.43,0.88,0
0.022369,-0.0082363,0.027454,0.00055005,0.0084013,0.00052259,0,0,0.049538,-0.020413,0,0.0027175,0,0,0,0.027464,0.0005399,0.0084013,1.1124,0.012135,0.023981,4.6018e-07,0.44,0.88,0
0.022864,-0.0082116,0.02741,0.00052483,0.0083804,0.00060078,0,0,0.049476,-0.020424,0,0.0031241,0,0,0,0.027423,0.00051141,0.0083804,1.2795,0.012105,0.023967,4.5863e-07,0.45,0.88,0
0.023358,-0.0081813,0.02737,0.00049388,0.008359,0.00067562,0,0,0.049427,-0.020449,0,0.0035132,0,0,0,0.027387,0.0004769,0.008359,1.4391,0.012074,0.023961,4.5743e-07,0.46,0.88,0
0.023852,-0.0081457,0.027334,0.00045656,0.0083371,0.00074635,0,0,0.049391,-0.020489,0,0.003881,0,0,0,0.027354,0.00043585,0.0083371,1.5894,0.012042,0.023966,4.5659e-07,0.47,0.88,0
0.024346,-0.0081052,0.027303,0.00041236,0.0083145,0.0008121,0,0,0.049369,-0.020546,0,0.0042229,0,0,0,0.027327,0.00038786,0.0083145,1.7283,0.01201,0.023979,4.5611e-07,0.48,0.88,0
0.02484,-0.0080603,0.027276,0.00036091,0.008291,0.00087193,0,0,0.049361,-0.020618,0,0.004534,0,0,0,0.027304,0.00033269,0.008291,1.8535,0.011976,0.024003,4.5599e-07,0.49,0.88,0
0.025333,-0.0080116,0.027254,0.000302,0.0082668,0.00092482,0,0,0.049367,-0.020708,0,0.0048091,0,0,0,0.027286,0.0002703,0.0082668,1.963,0.011941,0.024036,4.5621e-07,0.5,0.88,0
0.025827,-0.0079597,0.027237,0.00023562,0.0082416,0.00096973,0,0,0.049387,-0.020816,0,0.0050426,0,0,0,0.027271,0.00020084,0.0082416,2.0542,0.011905,0.024079,4.5677e-07,0.51,0.88,0
0.026321,-0.0079051,0.027223,0.00016201,0.0082156,0.0010056,0,0,0.04942,-0.020939,0,0.005229,0,0,0,0.027261,0.00012469,0.0082156,2.1252,0.011867,0.02413,4.5763e-07,0.52,0.88,0
0.026815,-0.0078485,0.027214,8.1605e-05,0.0081888,0.0010314,0,0,0.049467,-0.021079,0,0.005363,0,0,0,0.027254,4.2458e-05,0.0081888,2.1737,0.011828,0.02419,4.5877e-07,0.53,0.88,0
0.02731,-0.0077907,0.027209,-4.873e-06,0.0081613,0.0010461,0,0,0.049525,-0.021232,0,0.0054395,0,0,0,0.027249,-4.5023e-05,0.0081613,2.198,0.011789,0.024256,4.6014e-07,0.54,0.88,0
0.027806,-0.0077323,0.027208,-9.6467e-05,0.0081334,0.0010489,0,0,0.049593,-0.021398,0,0.0054541,0,0,0,0.027248,-0.0001367,0.0081334,2.1966,0.011748,0.024328,4.6171e-07,0.55,0.88,0
0.028302,-0.0076742,0.027209,-0.00019198,0.0081051,0.001039,0,0,0.04967,-0.021573,0,0.0054028,0,0,0,0.027248,-0.00023132,0.0081051,2.1684,0.011707,0.024404,4.6342e-07,0.56,0.88,0
0.028799,-0.0076172,0.027213,-0.00028998,0.0080769,0.001016,0,0,0.049753,-0.021754,0,0.0052832,0,0,0,0.02725,-0.00032746,0.0080769,2.1127,0.011667,0.024483,4.6522e-07,0.57,0.88,0
0.029297,-0.007562,0.027218,-0.00038886,0.0080489,0.00097949,0,0,0.049841,-0.021938,0,0.0050934,0,0,0,0.027253,-0.00042357,0.0080489,2.0294,0.011626,0.024562,4.6705e-07,0.58,0.88,0
0.029796,-0.0075094,0.027225,-0.00048688,0.0080215,0.00092946,0,0,0.04993,-0.022122,0,0.0048332,0,0,0,0.027256,-0.00051802,0.0080215,1.9188,0.011587,0.024641,4.6887e-07,0.59,0.88,0
0.030296,-0.0074602,0.027233,-0.00058218,0.0079952,0.0008661,0,0,0.050018,-0.022301,0,0.0045037,0,0,0,0.02726,-0.00060912,0.0079952,1.7818,0.011549,0.024717,4.7061e-07,0.6,0.88,0
0.030797,-0.0074152,0.02724,-0.00067289,0.0079702,0.00078989,0,0,0.050102,-0.022472,0,0.0041075,0,0,0,0.027262,-0.00069523,0.0079702,1.6197,0.011513,0.024788,4.7224e-07,0.61,0.88,0
0.031298,-0.0073751,0.027247,-0.00075718,0.0079469,0.00070161,0,0,0.05018,-0.022631,0,0.0036484,0,0,0,0.027265,-0.00077475,0.0079469,1.4343,0.011479,0.024854,4.737e-07,0.62,0.88,0
0.0318,-0.0073406,0.027253,-0.0008333,0.0079258,0.00060225,0,0,0.05025,-0.022774,0,0.0031317,0,0,0,0.027266,-0.00084621,0.0079258,1.2278,0.011448,0.024912,4.7497e-07,0.63,0.88,0
0.032303,-0.0073122,0.027257,-0.00089965,0.0079071,0.00049306,0,0,0.050309,-0.022898,0,0.0025639,0,0,0,0.027265,-0.00090828,0.0079071,1.0029,0.011421,0.024962,4.7601e-07,0.64,0.88,0
0.032806,-0.0072904,0.027259,-0.00095483,0.0078912,0.0003755,0,0,0.050356,-0.023,0,0.0019526,0,0,0,0.027264,-0.00095982,0.0078912,0.76238,0.011398,0.025002,4.7679e-07,0.65,0.88,0
0.03331,-0.0072757,0.027259,-0.00099765,0.0078783,0.00025116,0,0,0.050389,-0.023078,0,0.0013061,0,0,0,0.027261,-0.00099988,0.0078783,0.50923,0.01138,0.025032,4.7731e-07,0.66,0.88,0
0.033814,-0.0072685,0.027256,-0.0010272,0.0078686,0.00012179,0,0,0.050407,-0.023129,0,0.00063333,0,0,0,0.027256,-0.0010277,0.0078686,0.24672,0.011366,0.02505,4.7754e-07,0.67,0.88,0
0.034318,-0.0072689,0.02725,-0.0010428,0.0078623,-1.0773e-05,0,0,0.050409,-0.023153,0,-5.602e-05,0,0,0,0.02725,-0.0010428,0.0078623,-0.021816,0.011357,0.025057,4.7748e-07,0.68,0.88,0
0.034822,-0.0072771,0.027242,-0.0010441,0.0078594,-0.00014464,0,0,0.050395,-0.023149,0,-0.00075214,0,0,0,0.027243,-0.0010448,0.0078594,-0.29298,0.011352,0.025052,4.7711e-07,0.69,0.88,0
0.035326,-0.0072931,0.027231,-0.001031,0.0078599,-0.00027789,0,0,0.050364,-0.023116,0,-0.0014451,0,0,0,0.027233,-0.0010337,0.0078599,-0.56331,0.011353,0.025035,4.7644e-07,0.7,0.88,0
0.03583,-0.0073168,0.027216,-0.0010037,0.0078638,-0.00040861,0,0,0.050317,-0.023055,0,-0.0021248,0,0,0,0.027222,-0.0010096,0.0078638,-0.82938,0.011359,0.025005,4.7546e-07,0.71,0.88,0
0.036332,-0.007348,0.027199,-0.0009627,0.0078709,-0.00053491,0,0,0.050253,-0.022967,0,-0.0027815,0,0,0,0.027209,-0.00097286,0.0078709,-1.0878,0.011369,0.024964,4.7418e-07,0.72,0.88,0
0.036835,-0.0073864,0.027179,-0.00090881,0.007881,-0.000655,0,0,0.050175,-0.022854,0,-0.003406,0,0,0,0.027194,-0.00092408,0.007881,-1.3352,0.011384,0.024911,4.7259e-07,0.73,0.88,0
0.037336,-0.0074316,0.027156,-0.00084304,0.007894,-0.00076719,0,0,0.050082,-0.022716,0,-0.0039894,0,0,0,0.027177,-0.00086405,0.007894,-1.5683,0.011402,0.024848,4.7071e-07,0.74,0.88,0
0.037836,-0.0074832,0.027131,-0.00076668,0.0079094,-0.00086992,0,0,0.049977,-0.022558,0,-0.0045236,0,0,0,0.027158,-0.00079378,0.0079094,-1.7843,0.011425,0.024775,4.6856e-07,0.75,0.88,0
0.038336,-0.0075404,0.027104,-0.00068121,0.0079269,-0.00096185,0,0,0.049861,-0.022381,0,-0.0050016,0,0,0,0.027137,-0.00071446,0.0079269,-1.9803,0.01145,0.024693,4.6615e-07,0.76,0.88,0
0.038833,-0.0076029,0.027075,-0.00058827,0.0079462,-0.0010418,0,0,0.049736,-0.02219,0,-0.0054175,0,0,0,0.027115,-0.00062745,0.0079462,-2.1537,0.011478,0.024602,4.6351e-07,0.77,0.88,0
0.03933,-0.0076697,0.027046,-0.00048965,0.0079668,-0.001109,0,0,0.049605,-0.021987,0,-0.0057666,0,0,0,0.02709,-0.00053424,0.0079668,-2.3026,0.011508,0.024506,4.6068e-07,0.78,0.88,0
0.039826,-0.0077402,0.027015,-0.00038717,0.0079884,-0.0011626,0,0,0.04947,-0.021777,0,-0.0060456,0,0,0,0.027064,-0.00043641,0.0079884,-2.4251,0.011539,0.024405,4.5769e-07,0.79,0.88,0
0.04032,-0.0078136,0.026985,-0.00028265,0.0080106,-0.0012024,0,0,0.049333,-0.021562,0,-0.0062526,0,0,0,0.027038,-0.00033557,0.0080106,-2.5201,0.011571,0.0243,4.5459e-07,0.8,0.88,0
0.040812,-0.0078891,0.026954,-0.00017784,0.008033,-0.0012283,0,0,0.049196,-0.021348,0,-0.0063872,0,0,0,0.02701,-0.00023333,0.008033,-2.5868,0.011603,0.024193,4.5143e-07,0.81,0.88,0
0.041303,-0.007966,0.026925,-7.4395e-05,0.0080552,-0.0012404,0,0,0.049062,-0.021137,0,-0.0064503,0,0,0,0.026982,-0.00013127,0.0080552,-2.625,0.011635,0.024087,4.4825e-07,0.82,0.88,0
0.041793,-0.0080434,0.026897,2.6214e-05,0.008077,-0.0012392,0,0,0.048932,-0.020932,0,-0.0064439,0,0,0,0.026954,-3.0813e-05,0.008077,-2.6349,0.011667,0.023982,4.451e-07,0.83,0.88,0
0.042282,-0.0081205,0.026871,0.00012271,0.0080981,-0.0012252,0,0,0.048809,-0.020736,0,-0.0063711,0,0,0,0.026927,6.6702e-05,0.0080981,-2.6172,0.011697,0.02388,4.4203e-07,0.84,0.88,0
0.04277,-0.0081966,0.026847,0.00021402,0.0081182,-0.0011992,0,0,0.048694,-0.020551,0,-0.0062359,0,0,0,0.026901,0.00016013,0.0081182,-2.573,0.011726,0.023782,4.3908e-07,0.85,0.88,0
0.043256,-0.0082711,0.026825,0.00029933,0.0081372,-0.0011621,0,0,0.048588,-0.020379,0,-0.006043,0,0,0,0.026876,0.00024851,0.0081372,-2.5038,0.011754,0.023689,4.3627e-07,0.86,0.88,0
0.043741,-0.0083432,0.026805,0.00037803,0.008155,-0.0011149,0,0,0.048491,-0.02022,0,-0.0057974,0,0,0,0.026852,0.00033108,0.008155,-2.4114,0.011779,0.023603,4.3365e-07,0.87,0.88,0
0.044226,-0.0084123,0.026788,0.00044974,0.0081714,-0.0010585,0,0,0.048404,-0.020076,0,-0.0055043,0,0,0,0.026831,0.00040727,0.0081714,-2.2977,0.011803,0.023523,4.3123e-07,0.88,0.88,0
0.044709,-0.0084779,0.026773,0.00051428,0.0081863,-0.00099409,0,0,0.048327,-0.019947,0,-0.0051693,0,0,0,0.026811,0.00047671,0.0081863,-2.1649,0.011825,0.02345,4.2903e-07,0.89,0.88,0
0.045192,-0.0085394,0.026761,0.00057166,0.0081998,-0.00092258,0,0,0.048259,-0.019833,0,-0.0047974,0,0,0,0.026794,0.0005392,0.0081998,-2.015,0.011844,0.023385,4.2705e-07,0.9,0.88,0
0.045675,-0.0085964,0.026751,0.00062201,0.0082119,-0.00084499,0,0,0.048202,-0.019734,0,-0.004394,0,0,0,0.026778,0.00059471,0.0082119,-1.8503,0.011862,0.023327,4.253e-07,0.91,0.88,0
0.046156,-0.0086485,0.026743,0.00066558,0.0082225,-0.00076224,0,0,0.048153,-0.019648,0,-0.0039636,0,0,0,0.026765,0.00064332,0.0082225,-1.6729,0.011877,0.023277,4.2378e-07,0.92,0.88,0
0.046638,-0.0086952,0.026736,0.00070273,0.0082317,-0.00067517,0,0,0.048112,-0.019575,0,-0.0035109,0,0,0,0.026754,0.00068523,0.0082317,-1.4846,0.01189,0.023234,4.2248e-07,0.93,0.88,0
0.047119,-0.0087364,0.026731,0.00073382,0.0082395,-0.00058455,0,0,0.048079,-0.019515,0,-0.0030396,0,0,0,0.026745,0.00072069,0.0082395,-1.2874,0.011902,0.023197,4.2138e-07,0.94,0.88,0
0.047599,-0.0087716,0.026728,0.00075928,0.0082461,-0.00049106,0,0,0.048052,-0.019466,0,-0.0025535,0,0,0,0.026737,0.00074999,0.0082461,-1.083,0.011911,0.023167,4.2048e-07,0.95,0.88,0
0.04808,-0.0088007,0.026725,0.00077948,0.0082513,-0.00039534,0,0,0.048031,-0.019427,0,-0.0020558,0,0,0,0.026731,0.00077346,0.0082513,-0.87277,0.011919,0.023143,4.1977e-07,0.96,0.88,0
0.04856,-0.0088235,0.026723,0.00079478,0.0082554,-0.00029791,0,0,0.048016,-0.019398,0,-0.0015491,0,0,0,0.026727,0.00079136,0.0082554,-0.6582,0.011924,0.023125,4.1923e-07,0.97,0.88,0
0.04904,-0.0088399,0.026722,0.00080548,0.0082582,-0.00019926,0,0,0.048005,-0.019377,0,-0.0010362,0,0,0,0.026723,0.00080395,0.0082582,-0.44049,0.011928,0.023112,4.1885e-07,0.98,0.88,0
0.04952,-0.0088498,0.026721,0.00081181,0.0082599,-9.9823e-05,0,0,0.047999,-0.019365,0,-0.00051908,0,0,0,0.026722,0.00081143,0.0082599,-0.22074,0.011931,0.023105,4.1863e-07,0.99,0.88,0
0.05,-0.0088531,0.026721,0.00081391,0.0082605,-6.3467e-05,0,0,0.047997,-0.019361,0,-0.00033003,0,0,0,0.026721,0.00081375,0.0082605,-0.14036,0.011932,0.023102,4.1856e-07,1,0.88,0
0,0,0.029556,0.012667,0.012667,-0.0075675,0,0,0.043912,5.421e-19,0,-0.039351,0,0,0,0.032451,0.0097724,0.012667,-20.932,0.018297,0.021379,4.7097e-07,0,0.89,0
0.00043912,-0.00039351,0.029492,0.011776,0.01238,-0.0075574,0,0,0.04449,-0.0015706,0,-0.039298,0,0,0,0.032278,0.0089905,0.01238,-20.235,0.017883,0.021791,4.8836e-07,0.01,0.89,0
0.00088979,-0.00079509,0.029786,0.010935,0.012216,-0.0075787,0,0,0.045681,-0.0033306,0,-0.039409,0,0,0,0.032455,0.0082664,0.012216,-19.401,0.017646,0.022475,5.2291e-07,0.02,0.89,0
0.0013527,-0.0012018,0.030075,0.010028,0.012031,-0.007518,0,0,0.046914,-0.0052066,0,-0.039094,0,0,0,0.032581,0.0075223,0.012031,-18.436,0.017378,0.023136,5.5552e-07,0.03,0.89,0
0.0018281,-0.0016101,0.030342,0.0090943,0.011831,-0.0073703,0,0,0.048129,-0.0071151,0,-0.038325,0,0,0,0.032648,0.006788,0.011831,-17.375,0.017089,0.023744,5.8432e-07,0.04,0.89,0
0.0023153,-0.0020165,0.030571,0.0081694,0.011622,-0.0071406,0,0,0.049267,-0.0089772,0,-0.037131,0,0,0,0.032654,0.0060869,0.011622,-16.259,0.016788,0.024277,6.0806e-07,0.05,0.89,0
0.0028134,-0.0024173,0.030752,0.0072839,0.011411,-0.0068417,0,0,0.050286,-0.01073,0,-0.035577,0,0,0,0.032601,0.005435,0.011411,-15.123,0.016482,0.024725,6.2612e-07,0.06,0.89,0
0.003321,-0.0028097,0.030877,0.0064588,0.011201,-0.0064904,0,0,0.051159,-0.012329,0,-0.03375,0,0,0,0.032495,0.0048408,0.011201,-13.998,0.016179,0.025086,6.3853e-07,0.07,0.89,0
0.0038366,-0.0031911,0.030947,0.0057061,0.010996,-0.0061047,0,0,0.051873,-0.013753,0,-0.031744,0,0,0,0.032346,0.0043072,0.010996,-12.907,0.015883,0.025365,6.4574e-07,0.08,0.89,0
0.0043585,-0.0035597,0.030964,0.0050304,0.010798,-0.0057008,0,0,0.05243,-0.014996,0,-0.029644,0,0,0,0.032162,0.0038326,0.010798,-11.866,0.015598,0.025568,6.4847e-07,0.09,0.89,0
0.0048852,-0.0039141,0.030934,0.004431,0.01061,-0.0052926,0,0,0.052844,-0.016064,0,-0.027522,0,0,0,0.031952,0.0034132,0.01061,-10.886,0.015325,0.025708,6.4753e-07,0.1,0.89,0
0.0054154,-0.0042535,0.030865,0.0039037,0.010431,-0.0048905,0,0,0.05313,-0.01697,0,-0.025431,0,0,0,0.031725,0.003044,0.010431,-9.9699,0.015067,0.025793,6.4375e-07,0.11,0.89,0
0.0059478,-0.0045774,0.030765,0.0034423,0.010262,-0.0045022,0,0,0.053307,-0.017731,0,-0.023411,0,0,0,0.031488,0.0027196,0.010262,-9.1201,0.014823,0.025836,6.3784e-07,0.12,0.89,0
0.0064815,-0.0048855,0.03064,0.0030401,0.010104,-0.0041324,0,0,0.053394,-0.018366,0,-0.021488,0,0,0,0.031245,0.0024347,0.010104,-8.3351,0.014595,0.025844,6.3044e-07,0.13,0.89,0
0.0070157,-0.0051781,0.030498,0.0026903,0.0099565,-0.0037841,0,0,0.053408,-0.018892,0,-0.019677,0,0,0,0.031004,0.0021845,0.0099565,-7.6124,0.014382,0.025826,6.2205e-07,0.14,0.89,0
0.0075497,-0.0054551,0.030344,0.0023862,0.009819,-0.0034585,0,0,0.053365,-0.019325,0,-0.017984,0,0,0,0.030765,0.0019647,0.009819,-6.9483,0.014183,0.025787,6.1306e-07,0.15,0.89,0
0.008083,-0.0057171,0.030183,0.0021221,0.0096914,-0.003156,0,0,0.053277,-0.01968,0,-0.016411,0,0,0,0.030533,0.0017715,0.0096914,-6.3386,0.013999,0.025732,6.0377e-07,0.16,0.89,0
0.0086152,-0.0059643,0.030018,0.0018927,0.0095731,-0.002876,0,0,0.053156,-0.019969,0,-0.014955,0,0,0,0.030309,0.0016016,0.0095731,-5.7792,0.013828,0.025667,5.9443e-07,0.17,0.89,0
0.0091461,-0.0061972,0.029852,0.0016934,0.0094636,-0.0026174,0,0,0.05301,-0.020203,0,-0.013611,0,0,0,0.030093,0.0014522,0.0094636,-5.2657,0.01367,0.025594,5.8517e-07,0.18,0.89,0
0.0096754,-0.0064162,0.029688,0.0015203,0.0093625,-0.0023791,0,0,0.052846,-0.02039,0,-0.012371,0,0,0,0.029888,0.0013208,0.0093625,-4.794,0.013524,0.025515,5.7613e-07,0.19,0.89,0
0.010203,-0.0066218,0.029527,0.00137,0.0092692,-0.0021594,0,0,0.052671,-0.020538,0,-0.011229,0,0,0,0.029692,0.0012053,0.0092692,-4.3601,0.013389,0.025432,5.6737e-07,0.2,0.89,0
0.010729,-0.0068144,0.029371,0.0012395,0.0091832,-0.001957,0,0,0.052489,-0.020654,0,-0.010176,0,0,0,0.029507,0.001104,0.0091832,-3.9604,0.013265,0.025348,5.5894e-07,0.21,0.89,0
0.011253,-0.0069945,0.02922,0.0011264,0.009104,-0.0017702,0,0,0.052302,-0.020742,0,-0.0092049,0,0,0,0.029331,0.0010153,0.009104,-3.5912,0.01315,0.025262,5.5087e-07,0.22,0.89,0
0.011775,-0.0071624,0.029075,0.0010286,0.0090311,-0.0015975,0,0,0.052114,-0.020806,0,-0.008307,0,0,0,0.029166,0.00093787,0.0090311,-3.2495,0.013045,0.025177,5.4317e-07,0.23,0.89,0
0.012295,-0.0073186,0.028936,0.00094416,0.008964,-0.0014375,0,0,0.051927,-0.020852,0,-0.0074751,0,0,0,0.02901,0.00087053,0.008964,-2.9321,0.012948,0.025091,5.3585e-07,0.24,0.89,0
0.012813,-0.0074635,0.028803,0.00087159,0.0089024,-0.0012889,0,0,0.051742,-0.02088,0,-0.0067021,0,0,0,0.028863,0.00081224,0.0089024,-2.6364,0.012859,0.025007,5.289e-07,0.25,0.89,0
0.01333,-0.0075973,0.028677,0.00080949,0.0088459,-0.0011503,0,0,0.051561,-0.020895,0,-0.0059814,0,0,0,0.028724,0.00076209,0.0088459,-2.3596,0.012777,0.024924,5.2231e-07,0.26,0.89,0
0.013845,-0.0077205,0.028557,0.00075668,0.008794,-0.0010205,0,0,0.051383,-0.020897,0,-0.0053068,0,0,0,0.028594,0.00071926,0.008794,-2.0996,0.012703,0.024842,5.1607e-07,0.27,0.89,0
0.014358,-0.0078334,0.028443,0.00071208,0.0087464,-0.00089856,0,0,0.05121,-0.020889,0,-0.0046725,0,0,0,0.028472,0.00068299,0.0087464,-1.854,0.012634,0.024762,5.1016e-07,0.28,0.89,0
0.014869,-0.0079362,0.028335,0.00067475,0.0087028,-0.00078332,0,0,0.051043,-0.020873,0,-0.0040733,0,0,0,0.028357,0.00065259,0.0087028,-1.6209,0.012571,0.024684,5.0456e-07,0.29,0.89,0
0.015378,-0.0080293,0.028232,0.00064383,0.0086628,-0.00067389,0,0,0.05088,-0.020849,0,-0.0035042,0,0,0,0.028249,0.00062738,0.0086628,-1.3984,0.012513,0.024608,4.9928e-07,0.3,0.89,0
0.015886,-0.0081128,0.028135,0.0006185,0.0086262,-0.00056942,0,0,0.050724,-0.02082,0,-0.002961,0,0,0,0.028147,0.00060673,0.0086262,-1.185,0.01246,0.024534,4.9429e-07,0.31,0.89,0
0.016393,-0.0081871,0.028044,0.00059803,0.0085926,-0.00046915,0,0,0.050574,-0.020786,0,-0.0024396,0,0,0,0.028052,0.00059002,0.0085926,-0.97901,0.012412,0.024463,4.8958e-07,0.32,0.89,0
0.016898,-0.0082524,0.027958,0.0005817,0.0085618,-0.00037241,0,0,0.050429,-0.020748,0,-0.0019365,0,0,0,0.027963,0.00057663,0.0085618,-0.77923,0.012367,0.024394,4.8514e-07,0.33,0.89,0
0.017402,-0.0083088,0.027876,0.00056878,0.0085335,-0.00027859,0,0,0.050291,-0.020708,0,-0.0014487,0,0,0,0.027879,0.00056594,0.0085335,-0.58446,0.012326,0.024328,4.8098e-07,0.34,0.89,0
0.017904,-0.0083568,0.0278,0.00055861,0.0085074,-0.00018721,0,0,0.05016,-0.020667,0,-0.00097349,0,0,0,0.027801,0.00055732,0.0085074,-0.39373,0.012289,0.024266,4.7708e-07,0.35,0.89,0
0.018405,-0.0083964,0.027728,0.00055047,0.0084834,-9.7834e-05,0,0,0.050035,-0.020626,0,-0.00050874,0,0,0,0.027728,0.00055012,0.0084834,-0.20625,0.012254,0.024207,4.7345e-07,0.36,0.89,0
0.018904,-0.0084278,0.02766,0.00054367,0.0084612,-1.0144e-05,0,0,0.049917,-0.020585,0,-5.2748e-05,0,0,0,0.02766,0.00054367,0.0084612,-0.021433,0.012222,0.024152,4.7009e-07,0.37,0.89,0
0.019403,-0.0084514,0.027597,0.0005375,0.0084404,7.6092e-05,0,0,0.049808,-0.020548,0,0.00039568,0,0,0,0.027597,0.00053728,0.0084404,0.16111,0.012192,0.024101,4.67e-07,0.38,0.89,0
0.019901,-0.0084673,0.027539,0.00053123,0.008421,0.00016101,0,0,0.049706,-0.020513,0,0.00083723,0,0,0,0.02754,0.00053027,0.008421,0.34155,0.012164,0.024055,4.6418e-07,0.39,0.89,0
0.020397,-0.0084757,0.027485,0.00052413,0.0084026,0.00024462,0,0,0.049613,-0.020484,0,0.001272,0,0,0,0.027487,0.00052191,0.0084026,0.51981,0.012137,0.024015,4.6166e-07,0.4,0.89,0
0.020893,-0.008477,0.027435,0.00051545,0.0083851,0.00032687,0,0,0.049529,-0.020461,0,0.0016997,0,0,0,0.027439,0.00051148,0.0083851,0.69557,0.012112,0.02398,4.5942e-07,0.41,0.89,0
0.021388,-0.0084714,0.02739,0.00050446,0.0083682,0.00040755,0,0,0.049456,-0.020446,0,0.0021193,0,0,0,0.027396,0.00049829,0.0083682,0.86827,0.012087,0.023953,4.575e-07,0.42,0.89,0
0.021882,-0.0084591,0.027349,0.00049043,0.0083518,0.00048637,0,0,0.049392,-0.02044,0,0.0025291,0,0,0,0.027358,0.00048163,0.0083518,1.0371,0.012064,0.023932,4.559e-07,0.43,0.89,0
0.022376,-0.0084406,0.027313,0.00047264,0.0083356,0.0005629,0,0,0.049341,-0.020444,0,0.0029271,0,0,0,0.027325,0.00046084,0.0083356,1.2009,0.01204,0.023919,4.5462e-07,0.44,0.89,0
0.022869,-0.0084161,0.027281,0.00045043,0.0083195,0.00063663,0,0,0.0493,-0.020459,0,0.0033105,0,0,0,0.027296,0.00043534,0.0083195,1.3585,0.012017,0.023914,4.5367e-07,0.45,0.89,0
0.023362,-0.008386,0.027254,0.00042319,0.0083032,0.00070692,0,0,0.049272,-0.020488,0,0.003676,0,0,0,0.027273,0.00040458,0.0083032,1.5082,0.011994,0.023918,4.5307e-07,0.46,0.89,0
0.023854,-0.0083508,0.027232,0.00039038,0.0082867,0.00077302,0,0,0.049258,-0.02053,0,0.0040197,0,0,0,0.027254,0.00036814,0.0082867,1.6483,0.01197,0.02393,4.5282e-07,0.47,0.89,0
0.024347,-0.0083109,0.027214,0.00035158,0.0082698,0.00083412,0,0,0.049256,-0.020587,0,0.0043374,0,0,0,0.02724,0.00032571,0.0082698,1.7768,0.011945,0.023952,4.5291e-07,0.48,0.89,0
0.024839,-0.0082667,0.027201,0.00030649,0.0082524,0.00088932,0,0,0.049268,-0.020659,0,0.0046244,0,0,0,0.027231,0.00027711,0.0082524,1.8918,0.01192,0.023982,4.5334e-07,0.49,0.89,0
0.025332,-0.0082189,0.027193,0.00025494,0.0082344,0.00093765,0,0,0.049293,-0.020747,0,0.0048758,0,0,0,0.027226,0.00022234,0.0082344,1.9911,0.011894,0.024021,4.5409e-07,0.5,0.89,0
0.025825,-0.008168,0.027189,0.00019697,0.0082159,0.00097814,0,0,0.049331,-0.020849,0,0.0050864,0,0,0,0.027225,0.00016157,0.0082159,2.0727,0.011867,0.024069,4.5514e-07,0.51,0.89,0
0.026319,-0.0081146,0.027189,0.00013278,0.0081967,0.0010098,0,0,0.049381,-0.020966,0,0.005251,0,0,0,0.027227,9.514e-05,0.0081967,2.1344,0.01184,0.024124,4.5648e-07,0.52,0.89,0
0.026813,-0.0080594,0.027194,6.2776e-05,0.0081769,0.0010317,0,0,0.049443,-0.021097,0,0.0053649,0,0,0,0.027233,2.36e-05,0.0081769,2.1746,0.011811,0.024186,4.5806e-07,0.53,0.89,0
0.027308,-0.0080031,0.027201,-1.2408e-05,0.0081566,0.0010429,0,0,0.049516,-0.02124,0,0.0054232,0,0,0,0.027241,-5.2318e-05,0.0081566,2.1915,0.011782,0.024254,4.5985e-07,0.54,0.89,0
0.027803,-0.0079463,0.027212,-9.194e-05,0.008136,0.0010427,0,0,0.049597,-0.021392,0,0.005422,0,0,0,0.027252,-0.0001317,0.008136,2.1838,0.011752,0.024327,4.618e-07,0.55,0.89,0
0.028299,-0.0078899,0.027225,-0.00017478,0.008115,0.0010304,0,0,0.049686,-0.021553,0,0.0053579,0,0,0,0.027264,-0.00021347,0.008115,2.1506,0.011722,0.024403,4.6388e-07,0.56,0.89,0
0.028797,-0.0078346,0.02724,-0.00025971,0.0080941,0.0010055,0,0,0.049779,-0.02172,0,0.0052285,0,0,0,0.027277,-0.00029643,0.0080941,2.0912,0.011691,0.024481,4.6601e-07,0.57,0.89,0
0.029295,-0.0077811,0.027256,-0.00034534,0.0080732,0.00096775,0,0,0.049876,-0.021888,0,0.0050323,0,0,0,0.02729,-0.00037923,0.0080732,2.0056,0.011661,0.024559,4.6816e-07,0.58,0.89,0
0.029794,-0.0077303,0.027273,-0.00043018,0.0080528,0.00091715,0,0,0.049972,-0.022056,0,0.0047692,0,0,0,0.027303,-0.00046051,0.0080528,1.8941,0.011632,0.024636,4.7027e-07,0.59,0.89,0
0.030294,-0.0076828,0.02729,-0.00051265,0.0080331,0.00085388,0,0,0.050067,-0.022219,0,0.0044402,0,0,0,0.027316,-0.00053885,0.0080331,1.7575,0.011603,0.02471,4.7228e-07,0.6,0.89,0
0.030796,-0.0076395,0.027306,-0.00059115,0.0080143,0.00077842,0,0,0.050157,-0.022374,0,0.0040478,0,0,0,0.027327,-0.00061285,0.0080143,1.5971,0.011576,0.02478,4.7416e-07,0.61,0.89,0
0.031298,-0.0076009,0.02732,-0.00066408,0.0079968,0.00069146,0,0,0.050241,-0.022518,0,0.0035956,0,0,0,0.027337,-0.00068116,0.0079968,1.4146,0.011551,0.024843,4.7585e-07,0.62,0.89,0
0.031801,-0.0075677,0.027333,-0.00072996,0.0079808,0.00059396,0,0,0.050315,-0.022648,0,0.0030886,0,0,0,0.027345,-0.00074252,0.0079808,1.212,0.011528,0.0249,4.7732e-07,0.63,0.89,0
0.032304,-0.0075404,0.027342,-0.00078738,0.0079665,0.00048711,0,0,0.050377,-0.02276,0,0.002533,0,0,0,0.027351,-0.00079581,0.0079665,0.99176,0.011507,0.024948,4.7854e-07,0.64,0.89,0
0.032808,-0.0075197,0.027349,-0.00083513,0.0079543,0.00037226,0,0,0.050427,-0.022853,0,0.0019358,0,0,0,0.027354,-0.00084004,0.0079543,0.75659,0.011489,0.024986,4.7947e-07,0.65,0.89,0
0.033313,-0.0075057,0.027353,-0.00087216,0.0079442,0.00025096,0,0,0.050463,-0.022923,0,0.001305,0,0,0,0.027355,-0.0008744,0.0079442,0.50939,0.011475,0.025015,4.801e-07,0.66,0.89,0
0.033817,-0.007499,0.027353,-0.00089768,0.0079365,0.00012487,0,0,0.050482,-0.022969,0,0.0006493,0,0,0,0.027353,-0.00089823,0.0079365,0.25324,0.011464,0.025032,4.804e-07,0.67,0.89,0
0.034322,-0.0074996,0.027349,-0.00091108,0.0079313,-4.2574e-06,0,0,0.050485,-0.02299,0,-2.2139e-05,0,0,0,0.027349,-0.00091108,0.0079313,-0.0086318,0.011456,0.025038,4.8038e-07,0.68,0.89,0
0.034827,-0.0075078,0.02734,-0.00091206,0.0079285,-0.00013458,0,0,0.050471,-0.022985,0,-0.00069983,0,0,0,0.027341,-0.0009127,0.0079285,-0.27292,0.011452,0.025033,4.8001e-07,0.69,0.89,0
0.035332,-0.0075234,0.027328,-0.00090053,0.0079282,-0.00026426,0,0,0.050439,-0.022955,0,-0.0013741,0,0,0,0.027331,-0.000903,0.0079282,-0.5363,0.011452,0.025016,4.793e-07,0.7,0.89,0
0.035836,-0.0075465,0.027311,-0.00087668,0.0079305,-0.00039143,0,0,0.050391,-0.022898,0,-0.0020354,0,0,0,0.027317,-0.00088211,0.0079305,-0.79542,0.011455,0.024987,4.7824e-07,0.71,0.89,0
0.036339,-0.0075769,0.027291,-0.00084094,0.007935,-0.0005143,0,0,0.050326,-0.022818,0,-0.0026744,0,0,0,0.0273,-0.00085034,0.007935,-1.047,0.011462,0.024947,4.7684e-07,0.72,0.89,0
0.036842,-0.0076142,0.027267,-0.00079401,0.0079418,-0.00063114,0,0,0.050245,-0.022713,0,-0.0032819,0,0,0,0.027281,-0.0008082,0.0079418,-1.2878,0.011472,0.024895,4.7511e-07,0.73,0.89,0
0.037344,-0.0076581,0.027239,-0.0007368,0.0079506,-0.00074034,0,0,0.050149,-0.022587,0,-0.0038498,0,0,0,0.027258,-0.00075638,0.0079506,-1.5149,0.011484,0.024834,4.7307e-07,0.74,0.89,0
0.037845,-0.0077082,0.027207,-0.00067041,0.0079611,-0.00084044,0,0,0.050041,-0.022442,0,-0.0043703,0,0,0,0.027233,-0.00069572,0.0079611,-1.7252,0.011499,0.024762,4.7072e-07,0.75,0.89,0
0.038345,-0.0077638,0.027174,-0.00059614,0.0079732,-0.00093014,0,0,0.049921,-0.02228,0,-0.0048367,0,0,0,0.027205,-0.00062726,0.0079732,-1.9162,0.011517,0.024682,4.681e-07,0.76,0.89,0
0.038844,-0.0078243,0.027137,-0.00051541,0.0079866,-0.0010084,0,0,0.049792,-0.022105,0,-0.0052435,0,0,0,0.027174,-0.00055213,0.0079866,-2.0856,0.011536,0.024595,4.6524e-07,0.77,0.89,0
0.039341,-0.0078892,0.027099,-0.00042975,0.0080009,-0.0010743,0,0,0.049656,-0.02192,0,-0.0055863,0,0,0,0.027141,-0.00047161,0.0080009,-2.2314,0.011557,0.024501,4.6218e-07,0.78,0.89,0
0.039837,-0.0079577,0.02706,-0.00034071,0.0080158,-0.0011273,0,0,0.049515,-0.021727,0,-0.0058619,0,0,0,0.027106,-0.000387,0.0080158,-2.3519,0.011578,0.024402,4.5895e-07,0.79,0.89,0
0.040331,-0.0080291,0.02702,-0.00024985,0.0080311,-0.001167,0,0,0.049372,-0.021531,0,-0.0060685,0,0,0,0.02707,-0.0002997,0.0080311,-2.446,0.0116,0.0243,4.556e-07,0.8,0.89,0
0.040824,-0.0081026,0.02698,-0.00015867,0.0080465,-0.0011934,0,0,0.049228,-0.021333,0,-0.0062056,0,0,0,0.027033,-0.00021105,0.0080465,-2.513,0.011623,0.024196,4.5218e-07,0.81,0.89,0
0.041316,-0.0081774,0.026941,-6.8587e-05,0.0080618,-0.0012065,0,0,0.049086,-0.021139,0,-0.0062739,0,0,0,0.026995,-0.00012237,0.0080618,-2.5526,0.011645,0.024091,4.4874e-07,0.82,0.89,0
0.041806,-0.0082528,0.026903,1.9143e-05,0.0080766,-0.0012067,0,0,0.048948,-0.020949,0,-0.0062751,0,0,0,0.026957,-3.4916e-05,0.0080766,-2.565,0.011666,0.023988,4.4531e-07,0.83,0.89,0
0.042295,-0.008328,0.026866,0.00010341,0.0080909,-0.0011946,0,0,0.048816,-0.020768,0,-0.006212,0,0,0,0.026919,5.0196e-05,0.0080909,-2.5507,0.011687,0.023887,4.4196e-07,0.84,0.89,0
0.042782,-0.0084024,0.026832,0.00018331,0.0081045,-0.0011708,0,0,0.048691,-0.020595,0,-0.0060881,0,0,0,0.026883,0.00013197,0.0081045,-2.5108,0.011706,0.023789,4.3871e-07,0.85,0.89,0
0.043269,-0.0084752,0.026799,0.00025809,0.0081172,-0.0011361,0,0,0.048573,-0.020434,0,-0.0059076,0,0,0,0.026848,0.00020955,0.0081172,-2.4466,0.011725,0.023696,4.356e-07,0.86,0.89,0
0.043754,-0.0085457,0.026769,0.00032724,0.0081289,-0.0010914,0,0,0.048465,-0.020284,0,-0.0056752,0,0,0,0.026814,0.00028227,0.0081289,-2.3595,0.011742,0.023608,4.3267e-07,0.87,0.89,0
0.044238,-0.0086134,0.026742,0.0003904,0.0081397,-0.0010376,0,0,0.048366,-0.020148,0,-0.0053957,0,0,0,0.026783,0.0003496,0.0081397,-2.2515,0.011757,0.023526,4.2994e-07,0.88,0.89,0
0.044721,-0.0086778,0.026717,0.00044739,0.0081494,-0.00097577,0,0,0.048276,-0.020025,0,-0.005074,0,0,0,0.026753,0.00041119,0.0081494,-2.1243,0.011771,0.023451,4.2743e-07,0.89,0.89,0
0.045203,-0.0087382,0.026695,0.00049819,0.0081581,-0.00090677,0,0,0.048197,-0.019916,0,-0.0047152,0,0,0,0.026727,0.00046684,0.0081581,-1.98,0.011784,0.023383,4.2514e-07,0.9,0.89,0
0.045685,-0.0087942,0.026676,0.00054289,0.0081657,-0.00083155,0,0,0.048127,-0.019819,0,-0.0043241,0,0,0,0.026703,0.00051646,0.0081657,-1.8207,0.011795,0.023322,4.2309e-07,0.91,0.89,0
0.046166,-0.0088454,0.02666,0.00058169,0.0081724,-0.000751,0,0,0.048067,-0.019736,0,-0.0039052,0,0,0,0.026681,0.00056008,0.0081724,-1.6482,0.011805,0.023268,4.2128e-07,0.92,0.89,0
0.046646,-0.0088914,0.026645,0.00061486,0.0081781,-0.00066594,0,0,0.048015,-0.019664,0,-0.0034629,0,0,0,0.026662,0.00059784,0.0081781,-1.4645,0.011813,0.023222,4.1971e-07,0.93,0.89,0
0.047126,-0.0089319,0.026634,0.00064271,0.0081829,-0.00057712,0,0,0.047972,-0.019605,0,-0.003001,0,0,0,0.026646,0.0006299,0.0081829,-1.2714,0.01182,0.023182,4.1836e-07,0.94,0.89,0
0.047606,-0.0089667,0.026624,0.00066557,0.0081869,-0.00048524,0,0,0.047936,-0.019555,0,-0.0025233,0,0,0,0.026633,0.0006565,0.0081869,-1.0705,0.011825,0.023149,4.1724e-07,0.95,0.89,0
0.048085,-0.0089954,0.026616,0.00068375,0.00819,-0.00039093,0,0,0.047908,-0.019516,0,-0.0020329,0,0,0,0.026622,0.00067786,0.00819,-0.86347,0.01183,0.023122,4.1634e-07,0.96,0.89,0
0.048564,-0.009018,0.02661,0.00069755,0.0081924,-0.00029476,0,0,0.047887,-0.019487,0,-0.0015328,0,0,0,0.026614,0.0006942,0.0081924,-0.65163,0.011834,0.023102,4.1565e-07,0.97,0.89,0
0.049043,-0.0090342,0.026606,0.00070722,0.0081941,-0.00019723,0,0,0.047872,-0.019466,0,-0.0010256,0,0,0,0.026608,0.00070572,0.0081941,-0.4363,0.011836,0.023088,4.1516e-07,0.98,0.89,0
0.049521,-0.0090439,0.026604,0.00071295,0.0081951,-9.8832e-05,0,0,0.047863,-0.019454,0,-0.00051393,0,0,0,0.026604,0.00071257,0.0081951,-0.21871,0.011837,0.023079,4.1487e-07,0.99,0.89,0
0.05,-0.0090472,0.026603,0.00071484,0.0081954,-6.2691e-05,0,0,0.04786,-0.01945,0,-0.00032599,0,0,0,0.026603,0.00071469,0.0081954,-0.13875,0.011838,0.023076,4.1479e-07,1,0.89,0
0,0,0.029899,0.012814,0.012814,-0.007881,0,0,0.044421,-2.1684e-19,0,-0.040981,0,0,0,0.032979,0.0097337,0.012814,-21.347,0.018509,0.021868,5.0139e-07,0,0.9,0
0.00044421,-0.00040981,0.02983,0.011847,0.012503,-0.0078679,0,0,0.04505,-0.0017065,0,-0.040913,0,0,0,0.032786,0.0088903,0.012503,-20.593,0.01806,0.02231,5.2028e-07,0.01,0.9,0
0.000901,-0.0008298,0.030145,0.010914,0.012318,-0.0078933,0,0,0.046351,-0.003649,0,-0.041045,0,0,0,0.03297,0.0080895,0.012318,-19.691,0.017792,0.023059,5.59e-07,0.02,0.9,0
0.0013712,-0.0012561,0.03045,0.0099051,0.012107,-0.0078143,0,0,0.047694,-0.0057241,0,-0.040634,0,0,0,0.033085,0.0072708,0.012107,-18.63,0.017487,0.023768,5.9452e-07,0.03,0.9,0
0.0018549,-0.0016844,0.030724,0.0088719,0.011879,-0.0076272,0,0,0.048998,-0.0078178,0,-0.039662,0,0,0,0.033123,0.0064731,0.011879,-17.459,0.017158,0.0244,6.2444e-07,0.04,0.9,0
0.0023512,-0.0021101,0.030946,0.007863,0.011643,-0.0073424,0,0,0.050189,-0.0098277,0,-0.03818,0,0,0,0.033084,0.0057254,0.011643,-16.231,0.016817,0.024932,6.4735e-07,0.05,0.9,0
0.0028587,-0.0025289,0.031105,0.0069143,0.011406,-0.0069799,0,0,0.051219,-0.011678,0,-0.036296,0,0,0,0.032975,0.0050448,0.011406,-14.994,0.016475,0.025355,6.6289e-07,0.06,0.9,0
0.0033756,-0.0029376,0.031196,0.0060483,0.011173,-0.0065638,0,0,0.052059,-0.013325,0,-0.034132,0,0,0,0.032806,0.0044382,0.011173,-13.783,0.016139,0.025671,6.7147e-07,0.07,0.9,0
0.0038998,-0.0033334,0.03122,0.005275,0.010948,-0.0061174,0,0,0.052706,-0.014751,0,-0.03181,0,0,0,0.03259,0.0039049,0.010948,-12.624,0.015814,0.025892,6.7405e-07,0.08,0.9,0
0.0044297,-0.0037143,0.031184,0.0045951,0.010734,-0.0056606,0,0,0.053171,-0.015961,0,-0.029435,0,0,0,0.032339,0.0034401,0.010734,-11.532,0.015504,0.02603,6.718e-07,0.09,0.9,0
0.0049633,-0.0040791,0.031099,0.0040036,0.010531,-0.0052087,0,0,0.053478,-0.016971,0,-0.027085,0,0,0,0.032066,0.0030368,0.010531,-10.515,0.015211,0.026102,6.659e-07,0.1,0.9,0
0.0054992,-0.0044273,0.030975,0.0034926,0.01034,-0.0047724,0,0,0.05365,-0.017804,0,-0.024817,0,0,0,0.03178,0.0026874,0.01034,-9.5764,0.014936,0.026121,6.574e-07,0.11,0.9,0
0.0060363,-0.0047584,0.030821,0.0030527,0.010162,-0.0043586,0,0,0.053713,-0.018484,0,-0.022665,0,0,0,0.031489,0.0023847,0.010162,-8.7143,0.014679,0.026099,6.4717e-07,0.12,0.9,0
0.0065735,-0.0050725,0.030646,0.0026749,0.0099963,-0.0039709,0,0,0.05369,-0.019036,0,-0.020649,0,0,0,0.031199,0.0021221,0.0099963,-7.9254,0.014439,0.026048,6.3591e-07,0.13,0.9,0
0.0071101,-0.0053699,0.030459,0.0023506,0.0098428,-0.0036111,0,0,0.053601,-0.01948,0,-0.018778,0,0,0,0.030915,0.001894,0.0098428,-7.205,0.014217,0.025975,6.2414e-07,0.14,0.9,0
0.0076455,-0.005651,0.030264,0.002072,0.0097008,-0.0032792,0,0,0.053465,-0.019835,0,-0.017052,0,0,0,0.030641,0.0016956,0.0097008,-6.5479,0.014012,0.025888,6.1225e-07,0.15,0.9,0
0.0081794,-0.0059162,0.030067,0.0018325,0.0095699,-0.0029743,0,0,0.053293,-0.020117,0,-0.015466,0,0,0,0.030377,0.0015226,0.0095699,-5.9486,0.013823,0.02579,6.0049e-07,0.16,0.9,0
0.0087113,-0.0061659,0.029871,0.0016264,0.0094493,-0.002695,0,0,0.053097,-0.02034,0,-0.014014,0,0,0,0.030126,0.0013715,0.0094493,-5.4019,0.013649,0.025687,5.8907e-07,0.17,0.9,0
0.0092413,-0.0064009,0.029679,0.0014488,0.0093384,-0.0024395,0,0,0.052886,-0.020513,0,-0.012685,0,0,0,0.029888,0.0012396,0.0093384,-4.9027,0.013489,0.02558,5.7808e-07,0.18,0.9,0
0.0097691,-0.0066215,0.029493,0.0012958,0.0092365,-0.0022058,0,0,0.052666,-0.020646,0,-0.01147,0,0,0,0.029664,0.0011243,0.0092365,-4.4461,0.013342,0.025472,5.6761e-07,0.19,0.9,0
0.010295,-0.0068283,0.029313,0.0011637,0.009143,-0.001992,0,0,0.052442,-0.020746,0,-0.010358,0,0,0,0.029453,0.0010235,0.009143,-4.0278,0.013207,0.025364,5.5768e-07,0.2,0.9,0
0.010818,-0.0070219,0.029141,0.0010498,0.0090573,-0.0017961,0,0,0.052218,-0.020819,0,-0.0093398,0,0,0,0.029255,0.00093547,0.0090573,-3.6436,0.013083,0.025258,5.4832e-07,0.21,0.9,0
0.011339,-0.0072026,0.028977,0.00095169,0.0089787,-0.0016164,0,0,0.051996,-0.02087,0,-0.0084051,0,0,0,0.02907,0.00085877,0.0089787,-3.29,0.012969,0.025154,5.3951e-07,0.22,0.9,0
0.011858,-0.007371,0.028822,0.00086722,0.0089068,-0.001451,0,0,0.05178,-0.020903,0,-0.0075453,0,0,0,0.028897,0.00079211,0.0089068,-2.9634,0.012865,0.025053,5.3125e-07,0.23,0.9,0
0.012375,-0.0075276,0.028675,0.00079471,0.008841,-0.0012984,0,0,0.051569,-0.02092,0,-0.0067518,0,0,0,0.028736,0.00073437,0.008841,-2.6607,0.01277,0.024956,5.2352e-07,0.24,0.9,0
0.012889,-0.0076726,0.028537,0.00073268,0.0087808,-0.0011571,0,0,0.051365,-0.020925,0,-0.006017,0,0,0,0.028585,0.0006846,0.0087808,-2.379,0.012683,0.024861,5.1628e-07,0.25,0.9,0
0.013402,-0.0078065,0.028406,0.00067986,0.0087259,-0.0010257,0,0,0.051169,-0.02092,0,-0.0053338,0,0,0,0.028444,0.00064196,0.0087259,-2.1158,0.012604,0.02477,5.0951e-07,0.26,0.9,0
0.013913,-0.0079296,0.028284,0.00063515,0.0086758,-0.000903,0,0,0.050982,-0.020906,0,-0.0046956,0,0,0,0.028313,0.00060569,0.0086758,-1.8686,0.012532,0.024683,5.032e-07,0.27,0.9,0
0.014422,-0.0080423,0.028169,0.0005976,0.0086301,-0.00078779,0,0,0.050802,-0.020885,0,-0.0040965,0,0,0,0.028192,0.00057511,0.0086301,-1.6353,0.012466,0.024599,4.973e-07,0.28,0.9,0
0.014929,-0.0081449,0.028062,0.00056634,0.0085885,-0.00067906,0,0,0.050631,-0.020858,0,-0.0035311,0,0,0,0.028079,0.00054959,0.0085885,-1.4139,0.012406,0.024519,4.918e-07,0.29,0.9,0
0.015434,-0.0082377,0.027962,0.00054061,0.0085507,-0.00057588,0,0,0.050468,-0.020826,0,-0.0029946,0,0,0,0.027974,0.00052852,0.0085507,-1.2026,0.012351,0.024442,4.8668e-07,0.3,0.9,0
0.015938,-0.0083209,0.027868,0.00051969,0.0085163,-0.0004774,0,0,0.050314,-0.020791,0,-0.0024825,0,0,0,0.027876,0.00051136,0.0085163,-0.99977,0.012301,0.024369,4.8191e-07,0.31,0.9,0
0.01644,-0.0083948,0.027781,0.00050291,0.0084851,-0.00038288,0,0,0.050169,-0.020754,0,-0.001991,0,0,0,0.027786,0.00049754,0.0084851,-0.804,0.012256,0.0243,4.7749e-07,0.32,0.9,0
0.016941,-0.0084597,0.0277,0.00048964,0.0084568,-0.00029165,0,0,0.050032,-0.020715,0,-0.0015166,0,0,0,0.027703,0.00048652,0.0084568,-0.61403,0.012215,0.024235,4.734e-07,0.33,0.9,0
0.017441,-0.0085158,0.027625,0.00047927,0.0084312,-0.00020316,0,0,0.049903,-0.020675,0,-0.0010564,0,0,0,0.027626,0.00047775,0.0084312,-0.42877,0.012178,0.024174,4.6962e-07,0.34,0.9,0
0.017939,-0.0085633,0.027555,0.00047118,0.0084079,-0.00011692,0,0,0.049783,-0.020636,0,-0.00060796,0,0,0,0.027556,0.00047068,0.0084079,-0.24732,0.012145,0.024117,4.6614e-07,0.35,0.9,0
0.018437,-0.0086025,0.027491,0.00046478,0.0083868,-3.2538e-05,0,0,0.049672,-0.020597,0,-0.0001692,0,0,0,0.027491,0.00046474,0.0083868,-0.068979,0.012114,0.024064,4.6298e-07,0.36,0.9,0
0.018933,-0.0086336,0.027433,0.00045945,0.0083677,5.0269e-05,0,0,0.049569,-0.020561,0,0.0002614,0,0,0,0.027433,0.00045936,0.0083677,0.10678,0.012087,0.024017,4.6011e-07,0.37,0.9,0
0.019428,-0.0086568,0.02738,0.00045458,0.0083503,0.00013171,0,0,0.049476,-0.020529,0,0.00068487,0,0,0,0.02738,0.00045394,0.0083503,0.28026,0.012061,0.023974,4.5755e-07,0.38,0.9,0
0.019922,-0.0086724,0.027331,0.00044955,0.0083343,0.00021187,0,0,0.049393,-0.0205,0,0.0011018,0,0,0,0.027333,0.00044788,0.0083343,0.45155,0.012038,0.023937,4.5529e-07,0.39,0.9,0
0.020416,-0.0086806,0.027288,0.00044372,0.0083196,0.00029078,0,0,0.049319,-0.020477,0,0.001512,0,0,0,0.027291,0.00044057,0.0083196,0.62052,0.012017,0.023906,4.5334e-07,0.4,0.9,0
0.020909,-0.0086816,0.02725,0.00043645,0.008306,0.00036831,0,0,0.049255,-0.020461,0,0.0019152,0,0,0,0.027255,0.0004314,0.008306,0.78681,0.011998,0.023881,4.517e-07,0.41,0.9,0
0.021401,-0.0086759,0.027217,0.00042713,0.0082933,0.00044427,0,0,0.049202,-0.020452,0,0.0023102,0,0,0,0.027225,0.00041976,0.0082933,0.94981,0.011979,0.023863,4.5039e-07,0.42,0.9,0
0.021893,-0.0086636,0.027189,0.00041512,0.0082813,0.00051834,0,0,0.049161,-0.020452,0,0.0026954,0,0,0,0.027199,0.00040509,0.0082813,1.1087,0.011962,0.023852,4.4939e-07,0.43,0.9,0
0.022384,-0.0086451,0.027166,0.00039983,0.0082698,0.0005901,0,0,0.049131,-0.020462,0,0.0030685,0,0,0,0.027179,0.00038682,0.0082698,1.2624,0.011945,0.023849,4.4873e-07,0.44,0.9,0
0.022875,-0.0086208,0.027148,0.00038069,0.0082586,0.00065903,0,0,0.049113,-0.020483,0,0.003427,0,0,0,0.027164,0.00036447,0.0082586,1.4095,0.011929,0.023853,4.484e-07,0.45,0.9,0
0.023366,-0.0085911,0.027135,0.00035719,0.0082477,0.00072452,0,0,0.049107,-0.020515,0,0.0037675,0,0,0,0.027155,0.0003376,0.0082477,1.5487,0.011913,0.023866,4.4841e-07,0.46,0.9,0
0.023858,-0.0085563,0.027127,0.0003289,0.0082367,0.00078584,0,0,0.049114,-0.02056,0,0.0040864,0,0,0,0.02715,0.00030587,0.0082367,1.6783,0.011897,0.023887,4.4875e-07,0.47,0.9,0
0.024349,-0.0085169,0.027123,0.00029546,0.0082256,0.00084222,0,0,0.049134,-0.020618,0,0.0043795,0,0,0,0.02715,0.00026905,0.0082256,1.7964,0.011881,0.023916,4.4942e-07,0.48,0.9,0
0.02484,-0.0084735,0.027124,0.00025663,0.0082143,0.00089279,0,0,0.049166,-0.02069,0,0.0046425,0,0,0,0.027154,0.000227,0.0082143,1.9011,0.011865,0.023954,4.5041e-07,0.49,0.9,0
0.025332,-0.0084265,0.02713,0.00021231,0.0082027,0.00093668,0,0,0.049211,-0.020775,0,0.0048707,0,0,0,0.027162,0.00017975,0.0082027,1.9906,0.011848,0.023999,4.5169e-07,0.5,0.9,0
0.025825,-0.0083766,0.02714,0.00016251,0.0081907,0.00097295,0,0,0.049268,-0.020873,0,0.0050593,0,0,0,0.027175,0.00012746,0.0081907,2.0628,0.011831,0.024052,4.5326e-07,0.51,0.9,0
0.026318,-0.0083244,0.027154,0.00010744,0.0081783,0.0010007,0,0,0.049336,-0.020984,0,0.0052037,0,0,0,0.02719,7.046e-05,0.0081783,2.1161,0.011813,0.024111,4.5508e-07,0.52,0.9,0
0.026811,-0.0082705,0.027171,4.7449e-05,0.0081655,0.0010191,0,0,0.049414,-0.021107,0,0.0052991,0,0,0,0.027209,9.2153e-06,0.0081655,2.1486,0.011795,0.024177,4.5712e-07,0.53,0.9,0
0.027306,-0.0082155,0.027191,-1.6909e-05,0.0081523,0.0010272,0,0,0.049501,-0.02124,0,0.0053415,0,0,0,0.02723,-5.5635e-05,0.0081523,2.1591,0.011775,0.024247,4.5934e-07,0.54,0.9,0
0.027801,-0.0081602,0.027214,-8.4921e-05,0.0081388,0.0010245,0,0,0.049596,-0.021382,0,0.0053272,0,0,0,0.027252,-0.00012331,0.0081388,2.1461,0.011756,0.024321,4.617e-07,0.55,0.9,0
0.028298,-0.0081053,0.027239,-0.0001557,0.008125,0.0010102,0,0,0.049696,-0.02153,0,0.0052531,0,0,0,0.027276,-0.0001929,0.008125,2.109,0.011736,0.024398,4.6415e-07,0.56,0.9,0
0.028795,-0.0080516,0.027265,-0.00022821,0.0081111,0.00098403,0,0,0.0498,-0.021682,0,0.005117,0,0,0,0.0273,-0.00026339,0.0081111,2.0472,0.011716,0.024476,4.6664e-07,0.57,0.9,0
0.029294,-0.0079997,0.027292,-0.00030128,0.0080972,0.00094573,0,0,0.049906,-0.021836,0,0.0049178,0,0,0,0.027324,-0.00033366,0.0080972,1.9607,0.011696,0.024553,4.6911e-07,0.58,0.9,0
0.029793,-0.0079505,0.027318,-0.00037364,0.0080835,0.00089526,0,0,0.050011,-0.021988,0,0.0046553,0,0,0,0.027347,-0.00040256,0.0080835,1.8497,0.011676,0.024629,4.7152e-07,0.59,0.9,0
0.030294,-0.0079046,0.027344,-0.00044396,0.0080701,0.00083284,0,0,0.050113,-0.022136,0,0.0043308,0,0,0,0.027369,-0.0004689,0.0080701,1.7152,0.011657,0.024702,4.7381e-07,0.6,0.9,0
0.030795,-0.0078627,0.027368,-0.00051088,0.0080573,0.00075891,0,0,0.050209,-0.022277,0,0.0039464,0,0,0,0.027389,-0.00053152,0.0080573,1.5581,0.011638,0.024769,4.7593e-07,0.61,0.9,0
0.031298,-0.0078255,0.02739,-0.00057305,0.0080452,0.00067415,0,0,0.050297,-0.022407,0,0.0035056,0,0,0,0.027407,-0.0005893,0.0080452,1.3802,0.011621,0.024831,4.7785e-07,0.62,0.9,0
0.031802,-0.0077935,0.027409,-0.00062921,0.008034,0.00057945,0,0,0.050376,-0.022524,0,0.0030131,0,0,0,0.027421,-0.00064118,0.008034,1.1834,0.011605,0.024886,4.7952e-07,0.63,0.9,0
0.032306,-0.0077674,0.027425,-0.00067816,0.008024,0.00047591,0,0,0.050442,-0.022625,0,0.0024747,0,0,0,0.027433,-0.00068621,0.008024,0.96991,0.01159,0.024932,4.8091e-07,0.64,0.9,0
0.03281,-0.0077475,0.027436,-0.00071885,0.0080152,0.00036483,0,0,0.050495,-0.022708,0,0.0018971,0,0,0,0.027441,-0.00072357,0.0080152,0.74227,0.011577,0.02497,4.8198e-07,0.65,0.9,0
0.033315,-0.0077342,0.027443,-0.0007504,0.0080078,0.00024766,0,0,0.050532,-0.022771,0,0.0012878,0,0,0,0.027445,-0.00075257,0.0080078,0.50325,0.011567,0.024997,4.8272e-07,0.66,0.9,0
0.033821,-0.0077279,0.027445,-0.0007721,0.008002,0.00012598,0,0,0.050553,-0.022813,0,0.0006551,0,0,0,0.027446,-0.00077266,0.008002,0.2558,0.011558,0.025014,4.831e-07,0.67,0.9,0
0.034327,-0.0077287,0.027443,-0.00078345,0.0079978,1.4631e-06,0,0,0.050557,-0.022831,0,7.608e-06,0,0,0,0.027443,-0.00078345,0.0079978,0.0029699,0.011552,0.025019,4.8311e-07,0.68,0.9,0
0.034832,-0.0077368,0.027435,-0.00078417,0.0079951,-0.00012415,0,0,0.050543,-0.022826,0,-0.0006456,0,0,0,0.027435,-0.00078472,0.0079951,-0.25208,0.011548,0.025014,4.8274e-07,0.69,0.9,0
0.035337,-0.0077522,0.027422,-0.0007742,0.0079942,-0.0002491,0,0,0.050511,-0.022798,0,-0.0012953,0,0,0,0.027424,-0.0007764,0.0079942,-0.50614,0.011547,0.024997,4.8199e-07,0.7,0.9,0
0.035842,-0.0077747,0.027403,-0.0007537,0.0079948,-0.00037163,0,0,0.050461,-0.022746,0,-0.0019325,0,0,0,0.027408,-0.0007586,0.0079948,-0.75605,0.011548,0.024968,4.8087e-07,0.71,0.9,0
0.036347,-0.0078043,0.02738,-0.00072304,0.007997,-0.00049002,0,0,0.050395,-0.022672,0,-0.0025481,0,0,0,0.027388,-0.00073158,0.007997,-0.99864,0.011551,0.024929,4.7937e-07,0.72,0.9,0
0.03685,-0.0078406,0.027351,-0.00068282,0.0080005,-0.00060263,0,0,0.050312,-0.022577,0,-0.0031337,0,0,0,0.027364,-0.00069577,0.0080005,-1.2309,0.011556,0.024879,4.7751e-07,0.73,0.9,0
0.037353,-0.0078834,0.027318,-0.00063382,0.0080054,-0.00070794,0,0,0.050214,-0.022462,0,-0.0036813,0,0,0,0.027336,-0.00065174,0.0080054,-1.4499,0.011563,0.024819,4.7531e-07,0.74,0.9,0
0.037854,-0.007932,0.027282,-0.00057699,0.0080114,-0.00080457,0,0,0.050103,-0.02233,0,-0.0041837,0,0,0,0.027305,-0.00060021,0.0080114,-1.6529,0.011572,0.02475,4.7279e-07,0.75,0.9,0
0.038355,-0.0079861,0.027241,-0.00051344,0.0080183,-0.0008913,0,0,0.04998,-0.022183,0,-0.0046347,0,0,0,0.02727,-0.00054203,0.0080183,-1.8374,0.011582,0.024672,4.6997e-07,0.76,0.9,0
0.038854,-0.008045,0.027198,-0.00044437,0.008026,-0.00096712,0,0,0.049847,-0.022023,0,-0.005029,0,0,0,0.027232,-0.00047817,0.008026,-2.0013,0.011593,0.024587,4.669e-07,0.77,0.9,0
0.039352,-0.0081081,0.027152,-0.00037107,0.0080342,-0.0010312,0,0,0.049706,-0.021854,0,-0.0053624,0,0,0,0.02719,-0.00040966,0.0080342,-2.1427,0.011605,0.024495,4.6361e-07,0.78,0.9,0
0.039848,-0.0081747,0.027104,-0.00029487,0.0080428,-0.0010831,0,0,0.04956,-0.021678,0,-0.0056319,0,0,0,0.027147,-0.00033761,0.0080428,-2.2601,0.011617,0.024399,4.6014e-07,0.79,0.9,0
0.040343,-0.0082442,0.027055,-0.00021707,0.0080515,-0.0011222,0,0,0.04941,-0.021498,0,-0.0058357,0,0,0,0.027102,-0.00026317,0.0080515,-2.3524,0.01163,0.024299,4.5655e-07,0.8,0.9,0
0.040836,-0.0083158,0.027006,-0.00013894,0.0080602,-0.0011487,0,0,0.04926,-0.021318,0,-0.0059733,0,0,0,0.027055,-0.00018746,0.0080602,-2.4188,0.011643,0.024197,4.5287e-07,0.81,0.9,0
0.041328,-0.0083888,0.026957,-6.168e-05,0.0080687,-0.0011625,0,0,0.04911,-0.021139,0,-0.0060451,0,0,0,0.027007,-0.00011161,0.0080687,-2.4592,0.011655,0.024094,4.4916e-07,0.82,0.9,0
0.041819,-0.0084624,0.026909,1.3645e-05,0.0080768,-0.001164,0,0,0.048964,-0.020964,0,-0.0060526,0,0,0,0.026959,-3.6635e-05,0.0080768,-2.4735,0.011666,0.023991,4.4545e-07,0.83,0.9,0
0.042307,-0.0085358,0.026862,8.6094e-05,0.0080844,-0.0011535,0,0,0.048822,-0.020796,0,-0.0059984,0,0,0,0.026912,3.6491e-05,0.0080844,-2.4623,0.011678,0.02389,4.4181e-07,0.84,0.9,0
0.042795,-0.0086085,0.026817,0.00015488,0.0080915,-0.0011318,0,0,0.048686,-0.020635,0,-0.0058854,0,0,0,0.026865,0.00010692,0.0080915,-2.4264,0.011688,0.023793,4.3827e-07,0.85,0.9,0
0.043281,-0.0086798,0.026774,0.00021938,0.008098,-0.0010995,0,0,0.048558,-0.020484,0,-0.0057176,0,0,0,0.026819,0.00017393,0.008098,-2.367,0.011697,0.023699,4.3486e-07,0.86,0.9,0
0.043766,-0.0087489,0.026734,0.00027913,0.0081039,-0.0010575,0,0,0.048438,-0.020344,0,-0.005499,0,0,0,0.026776,0.00023692,0.0081039,-2.2855,0.011706,0.02361,4.3162e-07,0.87,0.9,0
0.04425,-0.0088153,0.026696,0.00033381,0.008109,-0.0010066,0,0,0.048327,-0.020216,0,-0.0052342,0,0,0,0.026735,0.00029543,0.008109,-2.1835,0.011713,0.023526,4.2858e-07,0.88,0.9,0
0.044733,-0.0088784,0.026662,0.00038325,0.0081135,-0.00094765,0,0,0.048225,-0.020099,0,-0.0049278,0,0,0,0.026696,0.00034912,0.0081135,-2.0626,0.01172,0.023449,4.2576e-07,0.89,0.9,0
0.045214,-0.0089377,0.02663,0.00042742,0.0081173,-0.00088161,0,0,0.048134,-0.019994,0,-0.0045844,0,0,0,0.02666,0.0003978,0.0081173,-1.9248,0.011725,0.023379,4.2317e-07,0.9,0.9,0
0.045695,-0.0089928,0.026602,0.00046638,0.0081206,-0.00080933,0,0,0.048052,-0.019901,0,-0.0042085,0,0,0,0.026627,0.00044134,0.0081206,-1.772,0.01173,0.023315,4.2083e-07,0.91,0.9,0
0.046176,-0.0090432,0.026577,0.00050028,0.0081232,-0.00073166,0,0,0.04798,-0.01982,0,-0.0038046,0,0,0,0.026598,0.00047976,0.0081232,-1.6059,0.011733,0.023258,4.1874e-07,0.92,0.9,0
0.046655,-0.0090885,0.026555,0.00052932,0.0081254,-0.00064937,0,0,0.047918,-0.01975,0,-0.0033767,0,0,0,0.026572,0.00051313,0.0081254,-1.4284,0.011737,0.023208,4.169e-07,0.93,0.9,0
0.047134,-0.0091284,0.026537,0.00055375,0.0081271,-0.00056322,0,0,0.047865,-0.019691,0,-0.0029287,0,0,0,0.026549,0.00054155,0.0081271,-1.2412,0.011739,0.023165,4.1532e-07,0.94,0.9,0
0.047612,-0.0091627,0.026521,0.00057385,0.0081285,-0.00047389,0,0,0.047821,-0.019642,0,-0.0024642,0,0,0,0.02653,0.0005652,0.0081285,-1.046,0.011741,0.02313,4.1399e-07,0.95,0.9,0
0.04809,-0.009191,0.026508,0.00058987,0.0081295,-0.00038202,0,0,0.047785,-0.019603,0,-0.0019865,0,0,0,0.026514,0.00058424,0.0081295,-0.84425,0.011742,0.0231,4.1291e-07,0.96,0.9,0
0.048568,-0.0092133,0.026499,0.00060205,0.0081302,-0.00028817,0,0,0.047758,-0.019573,0,-0.0014985,0,0,0,0.026502,0.00059884,0.0081302,-0.63748,0.011744,0.023078,4.1208e-07,0.97,0.9,0
0.049045,-0.0092293,0.026492,0.0006106,0.0081307,-0.00019289,0,0,0.047739,-0.019552,0,-0.001003,0,0,0,0.026493,0.00060916,0.0081307,-0.427,0.011744,0.023062,4.1149e-07,0.98,0.9,0
0.049523,-0.0092389,0.026488,0.00061566,0.0081309,-9.6677e-05,0,0,0.047727,-0.01954,0,-0.00050272,0,0,0,0.026488,0.0006153,0.0081309,-0.2141,0.011745,0.023053,4.1113e-07,0.99,0.9,0
0.05,-0.0092421,0.026486,0.00061734,0.008131,-6.1902e-05,0,0,0.047723,-0.019536,0,-0.00032189,0,0,0,0.026486,0.00061719,0.008131,-0.1371,0.011745,0.02305,4.1102e-07,1,0.9,0
0,0,0.030333,0.013,0.013,-0.0082238,0,0,0.045066,4.3368e-19,0,-0.042764,0,0,0,0.033614,0.0097189,0.013,-21.749,0.018777,0.022435,5.3839e-07,0,0.91,0
0.00045066,-0.00042764,0.030258,0.011934,0.012658,-0.0082057,0,0,0.045761,-0.0018818,0,-0.042669,0,0,0,0.033395,0.0087964,0.012658,-20.924,0.018283,0.022914,5.592e-07,0.01,0.91,0
0.00091522,-0.00086807,0.030598,0.010882,0.012444,-0.0082329,0,0,0.0472,-0.0040611,0,-0.042811,0,0,0,0.033584,0.0078963,0.012444,-19.934,0.017975,0.023742,6.0325e-07,0.02,0.91,0
0.0013947,-0.0013163,0.030921,0.0097416,0.012199,-0.0081248,0,0,0.048677,-0.0063882,0,-0.042249,0,0,0,0.033678,0.0069838,0.012199,-18.749,0.01762,0.024507,6.4207e-07,0.03,0.91,0
0.0018888,-0.0017665,0.031196,0.0085876,0.011935,-0.0078812,0,0,0.050079,-0.0087037,0,-0.040982,0,0,0,0.033673,0.0061115,0.011935,-17.442,0.01724,0.02516,6.7258e-07,0.04,0.91,0
0.0023962,-0.002213,0.031402,0.0074828,0.011665,-0.007522,0,0,0.051315,-0.010875,0,-0.039114,0,0,0,0.033571,0.0053139,0.011665,-16.084,0.01685,0.025677,6.9341e-07,0.05,0.91,0
0.0029151,-0.0026509,0.031524,0.0064693,0.011398,-0.0070784,0,0,0.052328,-0.012815,0,-0.036808,0,0,0,0.033386,0.0046078,0.011398,-14.734,0.016464,0.026055,7.0468e-07,0.06,0.91,0
0.0034428,-0.0030762,0.031562,0.0055682,0.011139,-0.0065841,0,0,0.053099,-0.014484,0,-0.034237,0,0,0,0.033134,0.0039956,0.011139,-13.433,0.01609,0.026305,7.076e-07,0.07,0.91,0
0.003977,-0.0034862,0.031522,0.0047842,0.010892,-0.006069,0,0,0.053638,-0.01588,0,-0.031559,0,0,0,0.032835,0.0034711,0.010892,-12.208,0.015733,0.026446,7.0385e-07,0.08,0.91,0
0.0045156,-0.0038789,0.031417,0.0041117,0.010659,-0.005556,0,0,0.053972,-0.017022,0,-0.028891,0,0,0,0.032504,0.0030245,0.010659,-11.072,0.015396,0.026501,6.952e-07,0.09,0.91,0
0.0050565,-0.0042536,0.031262,0.0035396,0.01044,-0.005061,0,0,0.054136,-0.017942,0,-0.026317,0,0,0,0.032157,0.0026446,0.01044,-10.029,0.015081,0.026489,6.8323e-07,0.1,0.91,0
0.0055983,-0.0046096,0.03107,0.0030551,0.010238,-0.0045937,0,0,0.054164,-0.018674,0,-0.023887,0,0,0,0.031804,0.0023211,0.010238,-9.0783,0.014788,0.026429,6.6923e-07,0.11,0.91,0
0.0061398,-0.004947,0.030854,0.0026455,0.01005,-0.0041591,0,0,0.05409,-0.019251,0,-0.021627,0,0,0,0.031454,0.0020451,0.01005,-8.2151,0.014516,0.026335,6.5418e-07,0.12,0.91,0
0.0066801,-0.0052662,0.030623,0.0022992,0.0098767,-0.0037592,0,0,0.053941,-0.019702,0,-0.019548,0,0,0,0.031113,0.0018087,0.0098767,-7.433,0.014266,0.026219,6.3878e-07,0.13,0.91,0
0.0072186,-0.0055677,0.030386,0.0020058,0.0097176,-0.0033937,0,0,0.053738,-0.02005,0,-0.017647,0,0,0,0.030786,0.0016057,0.0097176,-6.7252,0.014037,0.026088,6.2351e-07,0.14,0.91,0
0.0077548,-0.0058518,0.030149,0.0017569,0.0095716,-0.0030612,0,0,0.0535,-0.020318,0,-0.015918,0,0,0,0.030475,0.0014306,0.0095716,-6.0844,0.013826,0.02595,6.087e-07,0.15,0.91,0
0.0082886,-0.0061194,0.029915,0.0015452,0.009438,-0.0027593,0,0,0.05324,-0.020521,0,-0.014349,0,0,0,0.030181,0.0012794,0.009438,-5.5041,0.013633,0.025808,5.9455e-07,0.16,0.91,0
0.0088196,-0.0063711,0.029688,0.0013648,0.0093158,-0.0024857,0,0,0.052967,-0.020673,0,-0.012926,0,0,0,0.029904,0.0011483,0.0093158,-4.9777,0.013456,0.025666,5.8116e-07,0.17,0.91,0
0.0093479,-0.0066075,0.02947,0.0012106,0.0092041,-0.0022377,0,0,0.052691,-0.020783,0,-0.011636,0,0,0,0.029646,0.0010345,0.0092041,-4.4996,0.013295,0.025527,5.686e-07,0.18,0.91,0
0.0098735,-0.0068291,0.029262,0.0010786,0.0091021,-0.0020127,0,0,0.052415,-0.020861,0,-0.010466,0,0,0,0.029405,0.00093562,0.0091021,-4.0642,0.013147,0.025391,5.5686e-07,0.19,0.91,0
0.010396,-0.0070367,0.029065,0.00096555,0.009009,-0.0018082,0,0,0.052144,-0.020913,0,-0.0094028,0,0,0,0.02918,0.00084967,0.009009,-3.667,0.013013,0.02526,5.4594e-07,0.2,0.91,0
0.010916,-0.0072308,0.028879,0.00086862,0.0089241,-0.0016221,0,0,0.051881,-0.020944,0,-0.008435,0,0,0,0.028972,0.00077499,0.0089241,-3.3034,0.01289,0.025134,5.3581e-07,0.21,0.91,0
0.011434,-0.0074119,0.028704,0.00078554,0.0088468,-0.0014522,0,0,0.051628,-0.020959,0,-0.0075516,0,0,0,0.028779,0.0007102,0.0088468,-2.9697,0.012779,0.025014,5.2643e-07,0.22,0.91,0
0.011949,-0.0075805,0.02854,0.00071441,0.0087763,-0.0012966,0,0,0.051385,-0.020961,0,-0.0067424,0,0,0,0.0286,0.00065412,0.0087763,-2.6622,0.012677,0.024899,5.1776e-07,0.23,0.91,0
0.012462,-0.007737,0.028387,0.00065366,0.0087122,-0.0011536,0,0,0.051154,-0.020952,0,-0.0059987,0,0,0,0.028435,0.00060576,0.0087122,-2.3778,0.012584,0.024791,5.0975e-07,0.24,0.91,0
0.012972,-0.007882,0.028244,0.00060194,0.0086539,-0.0010215,0,0,0.050935,-0.020935,0,-0.0053121,0,0,0,0.028282,0.00056424,0.0086539,-2.1136,0.0125,0.024688,5.0235e-07,0.25,0.91,0
0.01348,-0.0080157,0.028112,0.00055813,0.008601,-0.00089908,0,0,0.050728,-0.020911,0,-0.0046752,0,0,0,0.028141,0.00052882,0.008601,-1.8669,0.012424,0.024591,4.9553e-07,0.26,0.91,0
0.013987,-0.0081387,0.027989,0.00052123,0.0085531,-0.0007849,0,0,0.050533,-0.020883,0,-0.0040815,0,0,0,0.028011,0.00049882,0.0085531,-1.6355,0.012354,0.024499,4.8925e-07,0.27,0.91,0
0.014491,-0.0082511,0.027875,0.0004904,0.0085097,-0.00067786,0,0,0.05035,-0.02085,0,-0.0035249,0,0,0,0.027892,0.00047364,0.0085097,-1.4171,0.012292,0.024413,4.8346e-07,0.28,0.91,0
0.014993,-0.0083534,0.02777,0.0004649,0.0084704,-0.00057692,0,0,0.050179,-0.020814,0,-0.003,0,0,0,0.027782,0.00045272,0.0084704,-1.2099,0.012235,0.024332,4.7815e-07,0.29,0.91,0
0.015494,-0.0084458,0.027673,0.00044405,0.0084351,-0.00048116,0,0,0.050018,-0.020777,0,-0.0025021,0,0,0,0.027681,0.00043555,0.0084351,-1.0121,0.012184,0.024256,4.7326e-07,0.3,0.91,0
0.015994,-0.0085286,0.027584,0.00042724,0.0084033,-0.00038977,0,0,0.049869,-0.020738,0,-0.0020268,0,0,0,0.027589,0.00042164,0.0084033,-0.82213,0.012138,0.024186,4.6879e-07,0.31,0.91,0
0.016492,-0.0086022,0.027502,0.00041388,0.0083747,-0.00030201,0,0,0.049731,-0.020698,0,-0.0015705,0,0,0,0.027505,0.00041052,0.0083747,-0.63871,0.012097,0.02412,4.6471e-07,0.32,0.91,0
0.016989,-0.0086667,0.027427,0.00040344,0.0083492,-0.00021727,0,0,0.049603,-0.020659,0,-0.0011298,0,0,0,0.027429,0.00040169,0.0083492,-0.46061,0.01206,0.024059,4.6101e-07,0.33,0.91,0
0.017484,-0.0087224,0.027359,0.00039539,0.0083265,-0.000135,0,0,0.049486,-0.020621,0,-0.000702,0,0,0,0.02736,0.00039472,0.0083265,-0.28685,0.012027,0.024004,4.5766e-07,0.34,0.91,0
0.017978,-0.0087695,0.027298,0.00038921,0.0083063,-5.4759e-05,0,0,0.049379,-0.020584,0,-0.00028475,0,0,0,0.027298,0.0003891,0.0083063,-0.11659,0.011998,0.023953,4.5465e-07,0.35,0.91,0
0.018471,-0.0088083,0.027243,0.00038439,0.0082883,2.3808e-05,0,0,0.049283,-0.02055,0,0.0001238,0,0,0,0.027243,0.00038437,0.0082883,0.050786,0.011972,0.023908,4.5198e-07,0.36,0.91,0
0.018964,-0.008839,0.027195,0.00038042,0.0082725,0.00010096,0,0,0.049197,-0.020519,0,0.00052501,0,0,0,0.027195,0.00038004,0.0082725,0.21573,0.011949,0.023868,4.4964e-07,0.37,0.91,0
0.019456,-0.0088619,0.027152,0.00037676,0.0082586,0.00017688,0,0,0.049122,-0.020493,0,0.00091976,0,0,0,0.027153,0.00037559,0.0082586,0.37848,0.011929,0.023835,4.4763e-07,0.38,0.91,0
0.019946,-0.0088773,0.027115,0.0003729,0.0082463,0.00025163,0,0,0.049058,-0.020471,0,0.0013085,0,0,0,0.027117,0.00037053,0.0082463,0.53905,0.011911,0.023807,4.4595e-07,0.39,0.91,0
0.020437,-0.0088853,0.027084,0.0003683,0.0082355,0.00032519,0,0,0.049005,-0.020455,0,0.001691,0,0,0,0.027088,0.00036434,0.0082355,0.69728,0.011896,0.023785,4.4459e-07,0.4,0.91,0
0.020927,-0.0088862,0.027058,0.00036243,0.0082261,0.00039744,0,0,0.048963,-0.020445,0,0.0020667,0,0,0,0.027064,0.00035651,0.0082261,0.85276,0.011882,0.02377,4.4356e-07,0.41,0.91,0
0.021416,-0.0088804,0.027038,0.00035476,0.0082177,0.00046816,0,0,0.048932,-0.020444,0,0.0024344,0,0,0,0.027046,0.00034654,0.0082177,1.0049,0.01187,0.023762,4.4286e-07,0.42,0.91,0
0.021905,-0.0088681,0.027023,0.00034477,0.0082103,0.00053704,0,0,0.048913,-0.02045,0,0.0027926,0,0,0,0.027034,0.00033396,0.0082103,1.1527,0.011859,0.023762,4.425e-07,0.43,0.91,0
0.022394,-0.0088498,0.027014,0.00033196,0.0082037,0.00060365,0,0,0.048906,-0.020466,0,0.003139,0,0,0,0.027027,0.00031831,0.0082037,1.2954,0.01185,0.023769,4.4246e-07,0.44,0.91,0
0.022883,-0.0088257,0.02701,0.00031587,0.0081977,0.00066749,0,0,0.048911,-0.020493,0,0.0034709,0,0,0,0.027026,0.00029919,0.0081977,1.4315,0.011841,0.023783,4.4276e-07,0.45,0.91,0
0.023372,-0.0087963,0.027011,0.00029607,0.008192,0.00072795,0,0,0.048929,-0.02053,0,0.0037853,0,0,0,0.027031,0.00027625,0.008192,1.5597,0.011833,0.023805,4.4338e-07,0.46,0.91,0
0.023862,-0.008762,0.027017,0.00027222,0.0081867,0.00078436,0,0,0.048959,-0.020578,0,0.0040787,0,0,0,0.02704,0.00024923,0.0081867,1.6784,0.011825,0.023835,4.4433e-07,0.47,0.91,0
0.024352,-0.0087232,0.027028,0.00024402,0.0081816,0.00083597,0,0,0.049001,-0.020638,0,0.004347,0,0,0,0.027054,0.00021795,0.0081816,1.786,0.011818,0.023872,4.456e-07,0.48,0.91,0
0.024842,-0.0086805,0.027044,0.00021128,0.0081765,0.00088198,0,0,0.049055,-0.020709,0,0.0045863,0,0,0,0.027073,0.00018233,0.0081765,1.8806,0.01181,0.023917,4.4716e-07,0.49,0.91,0
0.025333,-0.0086344,0.027064,0.00017393,0.0081713,0.00092155,0,0,0.04912,-0.020793,0,0.004792,0,0,0,0.027095,0.00014239,0.0081713,1.9605,0.011803,0.023969,4.4901e-07,0.5,0.91,0
0.025824,-0.0085855,0.027088,0.000132,0.0081659,0.00095383,0,0,0.049197,-0.020888,0,0.0049599,0,0,0,0.027121,9.8291e-05,0.0081659,2.024,0.011795,0.024028,4.5111e-07,0.51,0.91,0
0.026317,-0.0085343,0.027115,8.5659e-05,0.0081603,0.00097798,0,0,0.049283,-0.020994,0,0.0050855,0,0,0,0.027151,5.032e-05,0.0081603,2.0694,0.011787,0.024092,4.5345e-07,0.52,0.91,0
0.02681,-0.0084815,0.027146,3.5224e-05,0.0081544,0.0009932,0,0,0.049379,-0.02111,0,0.0051646,0,0,0,0.027183,-1.1125e-06,0.0081544,2.0953,0.011779,0.024161,4.5597e-07,0.53,0.91,0
0.027304,-0.0084279,0.02718,-1.8845e-05,0.0081483,0.00099875,0,0,0.049482,-0.021234,0,0.0051935,0,0,0,0.027216,-5.547e-05,0.0081483,2.1002,0.01177,0.024235,4.5865e-07,0.54,0.91,0
0.0278,-0.0083739,0.027215,-7.5943e-05,0.0081418,0.00099398,0,0,0.049591,-0.021366,0,0.0051687,0,0,0,0.027251,-0.0001121,0.0081418,2.0831,0.01176,0.024311,4.6144e-07,0.55,0.91,0
0.028296,-0.0083205,0.027252,-0.00013533,0.008135,0.00097839,0,0,0.049704,-0.021503,0,0.0050876,0,0,0,0.027287,-0.00017023,0.008135,2.0434,0.011751,0.024389,4.643e-07,0.56,0.91,0
0.028794,-0.0082682,0.02729,-0.00019613,0.0081281,0.0009516,0,0,0.04982,-0.021643,0,0.0049483,0,0,0,0.027323,-0.00022903,0.0081281,1.9805,0.01174,0.024468,4.6716e-07,0.57,0.91,0
0.029292,-0.0082178,0.027327,-0.00025737,0.0081209,0.00091341,0,0,0.049936,-0.021784,0,0.0047497,0,0,0,0.027357,-0.00028758,0.0081209,1.8945,0.01173,0.024546,4.6999e-07,0.58,0.91,0
0.029792,-0.0081701,0.027364,-0.000318,0.0081137,0.00086383,0,0,0.05005,-0.021922,0,0.0044919,0,0,0,0.027391,-0.00034493,0.0081137,1.7856,0.01172,0.024621,4.7272e-07,0.59,0.91,0
0.030293,-0.0081256,0.027399,-0.0003769,0.0081065,0.00080306,0,0,0.050159,-0.022057,0,0.0041759,0,0,0,0.027422,-0.0004001,0.0081065,1.6547,0.011709,0.024693,4.7531e-07,0.6,0.91,0
0.030795,-0.008085,0.027431,-0.00043294,0.0080994,0.00073151,0,0,0.050262,-0.022184,0,0.0038039,0,0,0,0.02745,-0.00045213,0.0080994,1.5028,0.011699,0.02476,4.7771e-07,0.61,0.91,0
0.031299,-0.008049,0.02746,-0.00048501,0.0080926,0.00064983,0,0,0.050356,-0.022302,0,0.0033791,0,0,0,0.027475,-0.00050011,0.0080926,1.3314,0.011689,0.024821,4.7987e-07,0.62,0.91,0
0.031803,-0.0080182,0.027486,-0.00053203,0.0080861,0.00055886,0,0,0.050439,-0.022407,0,0.0029061,0,0,0,0.027497,-0.00054317,0.0080861,1.1422,0.01168,0.024875,4.8175e-07,0.63,0.91,0
0.032307,-0.007993,0.027507,-0.00057301,0.0080801,0.00045962,0,0,0.050509,-0.022498,0,0.00239,0,0,0,0.027514,-0.00058053,0.0080801,0.93751,0.011671,0.02492,4.8332e-07,0.64,0.91,0
0.032813,-0.0079738,0.027523,-0.00060707,0.0080747,0.00035334,0,0,0.050565,-0.022573,0,0.0018374,0,0,0,0.027527,-0.00061151,0.0080747,0.71954,0.011664,0.024956,4.8454e-07,0.65,0.91,0
0.033319,-0.0079612,0.027533,-0.00063347,0.00807,0.00024136,0,0,0.050605,-0.022629,0,0.0012551,0,0,0,0.027535,-0.00063553,0.00807,0.49093,0.011657,0.024983,4.8539e-07,0.66,0.91,0
0.033825,-0.0079552,0.027538,-0.0006516,0.0080659,0.00012518,0,0,0.050627,-0.022666,0,0.00065095,0,0,0,0.027539,-0.00065215,0.0080659,0.25443,0.011651,0.024999,4.8585e-07,0.67,0.91,0
0.034331,-0.0079562,0.027537,-0.00066105,0.0080627,6.37e-06,0,0,0.050632,-0.022682,0,3.3124e-05,0,0,0,0.027537,-0.00066105,0.0080627,0.012944,0.011646,0.025004,4.859e-07,0.68,0.91,0
0.034838,-0.0079643,0.027529,-0.00066157,0.0080602,-0.00011344,0,0,0.050619,-0.022677,0,-0.00058988,0,0,0,0.027529,-0.00066203,0.0080602,-0.23056,0.011643,0.024999,4.8554e-07,0.69,0.91,0
0.035344,-0.0079794,0.027515,-0.00065312,0.0080585,-0.00023258,0,0,0.050587,-0.02265,0,-0.0012094,0,0,0,0.027517,-0.00065504,0.0080585,-0.47305,0.01164,0.024982,4.8476e-07,0.7,0.91,0
0.035849,-0.0080015,0.027495,-0.00063583,0.0080577,-0.00034941,0,0,0.050536,-0.022603,0,-0.0018169,0,0,0,0.027499,-0.00064017,0.0080577,-0.71152,0.011639,0.024954,4.8357e-07,0.71,0.91,0
0.036354,-0.0080303,0.027468,-0.00061002,0.0080575,-0.0004623,0,0,0.050468,-0.022536,0,-0.002404,0,0,0,0.027476,-0.00061763,0.0080575,-0.94302,0.011639,0.024916,4.8197e-07,0.72,0.91,0
0.036859,-0.0080658,0.027436,-0.00057619,0.008058,-0.00056973,0,0,0.050383,-0.022449,0,-0.0029626,0,0,0,0.027448,-0.00058777,0.008058,-1.1647,0.011639,0.024867,4.7998e-07,0.73,0.91,0
0.037362,-0.0081074,0.027399,-0.00053499,0.0080591,-0.00067025,0,0,0.050283,-0.022345,0,-0.0034853,0,0,0,0.027415,-0.00055106,0.0080591,-1.3737,0.011641,0.024808,4.7762e-07,0.74,0.91,0
0.037864,-0.0081548,0.027356,-0.00048723,0.0080607,-0.00076258,0,0,0.050169,-0.022225,0,-0.0039654,0,0,0,0.027377,-0.0005081,0.0080607,-1.5676,0.011643,0.02474,4.7491e-07,0.75,0.91,0
0.038365,-0.0082074,0.02731,-0.00043383,0.0080627,-0.00084557,0,0,0.050042,-0.022091,0,-0.004397,0,0,0,0.027335,-0.00045958,0.0080627,-1.7441,0.011646,0.024664,4.719e-07,0.76,0.91,0
0.038865,-0.0082648,0.027259,-0.0003758,0.0080649,-0.00091828,0,0,0.049904,-0.021946,0,-0.004775,0,0,0,0.027289,-0.00040628,0.0080649,-1.9011,0.011649,0.02458,4.686e-07,0.77,0.91,0
0.039364,-0.0083263,0.027205,-0.00031421,0.0080673,-0.00097995,0,0,0.049758,-0.021792,0,-0.0050957,0,0,0,0.02724,-0.00034906,0.0080673,-2.0368,0.011653,0.024491,4.6507e-07,0.78,0.91,0
0.03986,-0.0083913,0.027149,-0.00025016,0.0080697,-0.00103,0,0,0.049606,-0.021632,0,-0.0053562,0,0,0,0.027188,-0.00028883,0.0080697,-2.1499,0.011656,0.024396,4.6135e-07,0.79,0.91,0
0.040356,-0.008459,0.027091,-0.00018474,0.0080719,-0.0010682,0,0,0.04945,-0.021467,0,-0.0055546,0,0,0,0.027133,-0.00022651,0.0080719,-2.2393,0.011659,0.024297,4.5749e-07,0.8,0.91,0
0.040849,-0.0085289,0.027033,-0.00011902,0.008074,-0.0010943,0,0,0.049292,-0.021302,0,-0.0056904,0,0,0,0.027076,-0.00016305,0.008074,-2.3043,0.011662,0.024196,4.5353e-07,0.81,0.91,0
0.041341,-0.0086002,0.026974,-5.3966e-05,0.0080759,-0.0011084,0,0,0.049134,-0.021138,0,-0.0057639,0,0,0,0.027019,-9.9349e-05,0.0080759,-2.3445,0.011665,0.024094,4.4953e-07,0.82,0.91,0
0.041832,-0.0086721,0.026915,9.5107e-06,0.0080774,-0.0011109,0,0,0.048978,-0.020976,0,-0.0057764,0,0,0,0.026961,-3.6275e-05,0.0080774,-2.3602,0.011667,0.023992,4.4553e-07,0.83,0.91,0
0.042321,-0.0087439,0.026858,7.063e-05,0.0080785,-0.0011019,0,0,0.048826,-0.02082,0,-0.00573,0,0,0,0.026903,2.5377e-05,0.0080785,-2.3516,0.011669,0.023892,4.4158e-07,0.84,0.91,0
0.042808,-0.0088151,0.026802,0.00012873,0.0080792,-0.0010822,0,0,0.048679,-0.020671,0,-0.0056276,0,0,0,0.026846,8.4893e-05,0.0080792,-2.3196,0.01167,0.023793,4.3772e-07,0.85,0.91,0
0.043295,-0.0088848,0.026749,0.00018328,0.0080795,-0.0010524,0,0,0.048539,-0.02053,0,-0.0054724,0,0,0,0.02679,0.00014166,0.0080795,-2.2651,0.01167,0.023699,4.34e-07,0.86,0.91,0
0.043779,-0.0089526,0.026698,0.00023389,0.0080795,-0.0010131,0,0,0.048407,-0.020398,0,-0.0052684,0,0,0,0.026736,0.00019516,0.0080795,-2.1893,0.01167,0.023608,4.3044e-07,0.87,0.91,0
0.044263,-0.0090178,0.02665,0.00028028,0.008079,-0.00096529,0,0,0.048284,-0.020277,0,-0.0050195,0,0,0,0.026685,0.00024499,0.008079,-2.0937,0.01167,0.023523,4.2708e-07,0.88,0.91,0
0.044745,-0.0090797,0.026605,0.00032229,0.0080782,-0.00090964,0,0,0.04817,-0.020165,0,-0.0047301,0,0,0,0.026637,0.00029085,0.0080782,-1.9798,0.011669,0.023443,4.2395e-07,0.89,0.91,0
0.045226,-0.0091381,0.026564,0.00035989,0.0080772,-0.00084703,0,0,0.048066,-0.020065,0,-0.0044045,0,0,0,0.026591,0.00033254,0.0080772,-1.8495,0.011667,0.02337,4.2105e-07,0.9,0.91,0
0.045706,-0.0091922,0.026527,0.00039311,0.0080759,-0.00077826,0,0,0.047972,-0.019975,0,-0.0040469,0,0,0,0.02655,0.00036996,0.0080759,-1.7043,0.011665,0.023303,4.1841e-07,0.91,0.91,0
0.046186,-0.0092418,0.026493,0.00042207,0.0080746,-0.00070413,0,0,0.047888,-0.019897,0,-0.0036615,0,0,0,0.026512,0.00040306,0.0080746,-1.5459,0.011663,0.023243,4.1604e-07,0.92,0.91,0
0.046664,-0.0092864,0.026464,0.00044692,0.0080731,-0.00062541,0,0,0.047815,-0.019828,0,-0.0032521,0,0,0,0.026478,0.0004319,0.0080731,-1.3763,0.011661,0.02319,4.1394e-07,0.93,0.91,0
0.047142,-0.0093258,0.026438,0.00046787,0.0080717,-0.0005428,0,0,0.047752,-0.01977,0,-0.0028226,0,0,0,0.026449,0.00045653,0.0080717,-1.1968,0.011659,0.023144,4.1213e-07,0.94,0.91,0
0.047619,-0.0093595,0.026416,0.00048513,0.0080704,-0.00045697,0,0,0.047699,-0.019722,0,-0.0023763,0,0,0,0.026424,0.00047708,0.0080704,-1.0093,0.011657,0.023106,4.1059e-07,0.95,0.91,0
0.048096,-0.0093875,0.026398,0.0004989,0.0080692,-0.00036856,0,0,0.047656,-0.019683,0,-0.0019165,0,0,0,0.026404,0.00049366,0.0080692,-0.81512,0.011655,0.023075,4.0934e-07,0.96,0.91,0
0.048572,-0.0094094,0.026385,0.00050939,0.0080682,-0.00027813,0,0,0.047623,-0.019653,0,-0.0014463,0,0,0,0.026388,0.0005064,0.0080682,-0.61576,0.011654,0.02305,4.0836e-07,0.97,0.91,0
0.049048,-0.0094252,0.026375,0.00051676,0.0080675,-0.00018622,0,0,0.047599,-0.019632,0,-0.00096835,0,0,0,0.026376,0.00051542,0.0080675,-0.41259,0.011653,0.023033,4.0767e-07,0.98,0.91,0
0.049524,-0.0094347,0.026369,0.00052112,0.008067,-9.3349e-05,0,0,0.047585,-0.019619,0,-0.00048541,0,0,0,0.026369,0.00052079,0.008067,-0.20692,0.011652,0.023022,4.0725e-07,0.99,0.91,0
0.05,-0.0094379,0.026367,0.00052257,0.0080669,-6.1105e-05,0,0,0.04758,-0.019615,0,-0.00031775,0,0,0,0.026367,0.00052243,0.0080669,-0.13547,0.011652,0.023019,4.0712e-07,1,0.91,0
0,0,0.030887,0.013237,0.013237,-0.0086048,0,0,0.045889,2.1684e-19,0,-0.044745,0,0,0,0.034388,0.0097366,0.013237,-22.138,0.019121,0.023101,5.8442e-07,0,0.92,0
0.00045889,-0.00044745,0.030804,0.01204,0.012853,-0.0085781,0,0,0.046671,-0.002114,0,-0.044606,0,0,0,0.034134,0.0087095,0.012853,-21.219,0.018565,0.023627,6.0776e-07,0.01,0.92,0
0.00093343,-0.00091102,0.031172,0.010827,0.0126,-0.008602,0,0,0.048288,-0.0046086,0,-0.04473,0,0,0,0.034322,0.007678,0.0126,-20.109,0.0182,0.024556,6.5866e-07,0.02,0.92,0
0.0014247,-0.0013839,0.031511,0.0095168,0.012308,-0.0084469,0,0,0.049928,-0.0072583,0,-0.043924,0,0,0,0.034381,0.0066472,0.012308,-18.764,0.017779,0.025381,7.0097e-07,0.03,0.92,0
0.001932,-0.0018585,0.03178,0.0082159,0.011999,-0.0081209,0,0,0.051432,-0.0098358,0,-0.042229,0,0,0,0.034308,0.0056883,0.011999,-17.288,0.017332,0.026044,7.3086e-07,0.04,0.92,0
0.0024533,-0.0023276,0.031952,0.0070059,0.011687,-0.0076606,0,0,0.052687,-0.012171,0,-0.039835,0,0,0,0.034116,0.0048413,0.011687,-15.779,0.016882,0.026523,7.4735e-07,0.05,0.92,0
0.0029857,-0.0027852,0.032014,0.0059322,0.011384,-0.0071143,0,0,0.053638,-0.014174,0,-0.036994,0,0,0,0.033828,0.0041179,0.011384,-14.307,0.016443,0.026826,7.517e-07,0.06,0.92,0
0.0035261,-0.0032273,0.031973,0.0050091,0.011095,-0.0065281,0,0,0.054284,-0.015822,0,-0.033946,0,0,0,0.03347,0.0035117,0.011095,-12.918,0.016026,0.026979,7.4636e-07,0.07,0.92,0
0.0040714,-0.003651,0.031845,0.0042309,0.010823,-0.0059383,0,0,0.054657,-0.017139,0,-0.030879,0,0,0,0.033068,0.003008,0.010823,-11.636,0.015633,0.027014,7.341e-07,0.08,0.92,0
0.0046192,-0.0040547,0.031649,0.003582,0.01057,-0.0053694,0,0,0.054808,-0.018167,0,-0.027921,0,0,0,0.032642,0.0025899,0.01057,-10.469,0.015267,0.026963,7.174e-07,0.09,0.92,0
0.0051676,-0.004438,0.031407,0.0030438,0.010335,-0.0048358,0,0,0.054787,-0.018958,0,-0.025146,0,0,0,0.032209,0.002242,0.010335,-9.4143,0.014929,0.026851,6.9824e-07,0.1,0.92,0
0.005715,-0.0048007,0.031136,0.0025978,0.01012,-0.0043443,0,0,0.054641,-0.019558,0,-0.022591,0,0,0,0.031782,0.0019511,0.01012,-8.4667,0.014618,0.026701,6.7805e-07,0.11,0.92,0
0.0062604,-0.0051434,0.030849,0.0022278,0.009923,-0.0038971,0,0,0.054407,-0.020008,0,-0.020265,0,0,0,0.03137,0.0017066,0.009923,-7.6168,0.014333,0.026527,6.578e-07,0.12,0.92,0
0.0068031,-0.0054665,0.030557,0.0019199,0.0097431,-0.0034931,0,0,0.054116,-0.02034,0,-0.018164,0,0,0,0.030977,0.0015,0.0097431,-6.855,0.014073,0.026341,6.3813e-07,0.13,0.92,0
0.0073427,-0.0057709,0.030268,0.0016628,0.0095792,-0.0031298,0,0,0.053791,-0.020583,0,-0.016275,0,0,0,0.030606,0.0013244,0.0095792,-6.1718,0.013837,0.026151,6.194e-07,0.14,0.92,0
0.0078789,-0.0060574,0.029987,0.0014474,0.0094302,-0.0028038,0,0,0.053447,-0.020755,0,-0.01458,0,0,0,0.030259,0.0011745,0.0094302,-5.5582,0.013621,0.025961,6.0181e-07,0.15,0.92,0
0.0084116,-0.0063266,0.029716,0.001266,0.0092947,-0.0025115,0,0,0.053096,-0.020875,0,-0.01306,0,0,0,0.029936,0.001046,0.0092947,-5.0062,0.013426,0.025776,5.8545e-07,0.16,0.92,0
0.0089409,-0.0065794,0.029459,0.0011128,0.0091717,-0.0022492,0,0,0.052748,-0.020953,0,-0.011696,0,0,0,0.029637,0.00093546,0.0091717,-4.5086,0.013248,0.025597,5.7033e-07,0.17,0.92,0
0.0094666,-0.0068165,0.029217,0.00098299,0.00906,-0.0020136,0,0,0.052408,-0.021,0,-0.010471,0,0,0,0.02936,0.00084011,0.00906,-4.0588,0.013087,0.025427,5.5641e-07,0.18,0.92,0
0.009989,-0.0070387,0.02899,0.00087268,0.0089587,-0.0018015,0,0,0.05208,-0.021024,0,-0.009368,0,0,0,0.029105,0.00075772,0.0089587,-3.6512,0.01294,0.025265,5.4365e-07,0.19,0.92,0
0.010508,-0.0072466,0.028777,0.00077877,0.0088668,-0.0016102,0,0,0.051767,-0.021029,0,-0.008373,0,0,0,0.028869,0.00068647,0.0088668,-3.2807,0.012807,0.025113,5.3196e-07,0.2,0.92,0
0.011024,-0.0074408,0.028579,0.00069873,0.0087834,-0.001437,0,0,0.051469,-0.02102,0,-0.0074725,0,0,0,0.028653,0.00062486,0.0087834,-2.9427,0.012687,0.024969,5.2127e-07,0.21,0.92,0
0.011538,-0.0076218,0.028396,0.0006305,0.0087079,-0.0012797,0,0,0.051188,-0.021001,0,-0.0066546,0,0,0,0.028455,0.00057164,0.0087079,-2.6334,0.012578,0.024835,5.1151e-07,0.22,0.92,0
0.012048,-0.0077903,0.028226,0.00057238,0.0086394,-0.0011363,0,0,0.050924,-0.020974,0,-0.0059087,0,0,0,0.028272,0.00052577,0.0086394,-2.349,0.012479,0.02471,5.026e-07,0.23,0.92,0
0.012556,-0.0079466,0.028069,0.00052298,0.0085776,-0.0010049,0,0,0.050677,-0.020942,0,-0.0052255,0,0,0,0.028105,0.00048637,0.0085776,-2.0865,0.01239,0.024593,4.9448e-07,0.24,0.92,0
0.013062,-0.0080913,0.027924,0.00048113,0.0085216,-0.00088396,0,0,0.050447,-0.020905,0,-0.0045966,0,0,0,0.027953,0.00045269,0.0085216,-1.843,0.012309,0.024484,4.8707e-07,0.25,0.92,0
0.013565,-0.0082247,0.027792,0.00044585,0.0084712,-0.00077204,0,0,0.050233,-0.020866,0,-0.0040146,0,0,0,0.027813,0.00042407,0.0084712,-1.6159,0.012236,0.024383,4.8032e-07,0.26,0.92,0
0.014066,-0.0083473,0.02767,0.0004163,0.0084258,-0.00066785,0,0,0.050034,-0.020825,0,-0.0034728,0,0,0,0.027686,0.00039995,0.0084258,-1.4029,0.012171,0.024289,4.7419e-07,0.27,0.92,0
0.014566,-0.0084593,0.027558,0.00039176,0.008385,-0.00057028,0,0,0.04985,-0.020782,0,-0.0029655,0,0,0,0.02757,0.00037979,0.008385,-1.2021,0.012112,0.024202,4.6861e-07,0.28,0.92,0
0.015063,-0.0085612,0.027457,0.00037159,0.0083485,-0.00047832,0,0,0.049681,-0.02074,0,-0.0024873,0,0,0,0.027465,0.00036315,0.0083485,-1.0114,0.012059,0.024122,4.6356e-07,0.29,0.92,0
0.015559,-0.0086532,0.027364,0.00035523,0.0083159,-0.00039108,0,0,0.049526,-0.020698,0,-0.0020336,0,0,0,0.02737,0.00034957,0.0083159,-0.82937,0.012012,0.024048,4.59e-07,0.3,0.92,0
0.016054,-0.0087357,0.027281,0.00034215,0.0082869,-0.00030777,0,0,0.049384,-0.020656,0,-0.0016004,0,0,0,0.027284,0.00033864,0.0082869,-0.65448,0.01197,0.023981,4.5489e-07,0.31,0.92,0
0.016547,-0.0088088,0.027206,0.00033189,0.0082613,-0.00022772,0,0,0.049256,-0.020617,0,-0.0011841,0,0,0,0.027208,0.00032996,0.0082613,-0.48546,0.011933,0.02392,4.5121e-07,0.32,0.92,0
0.017039,-0.0088729,0.027139,0.00032398,0.0082389,-0.00015034,0,0,0.04914,-0.020579,0,-0.00078176,0,0,0,0.02714,0.00032314,0.0082389,-0.32122,0.011901,0.023865,4.4794e-07,0.33,0.92,0
0.01753,-0.0089282,0.027079,0.000318,0.0082192,-7.5128e-05,0,0,0.049037,-0.020543,0,-0.00039067,0,0,0,0.02708,0.00031779,0.0082192,-0.16085,0.011872,0.023815,4.4505e-07,0.34,0.92,0
0.01802,-0.008975,0.027027,0.0003135,0.0082023,-1.6803e-06,0,0,0.048945,-0.020511,0,-8.7375e-06,0,0,0,0.027027,0.0003135,0.0082023,-0.0036039,0.011848,0.023772,4.4255e-07,0.35,0.92,0
0.018509,-0.0090135,0.026982,0.00031008,0.0081877,7.0323e-05,0,0,0.048866,-0.020482,0,0.00036568,0,0,0,0.026983,0.00030989,0.0081877,0.15106,0.011827,0.023735,4.4041e-07,0.36,0.92,0
0.018997,-0.009044,0.026944,0.00030729,0.0081755,0.00014111,0,0,0.048799,-0.020457,0,0.00073378,0,0,0,0.026945,0.00030654,0.0081755,0.30352,0.011809,0.023705,4.3862e-07,0.37,0.92,0
0.019485,-0.0090666,0.026913,0.00030472,0.0081652,0.00021083,0,0,0.048743,-0.020437,0,0.0010963,0,0,0,0.026914,0.00030305,0.0081652,0.45394,0.011794,0.02368,4.3718e-07,0.38,0.92,0
0.019972,-0.0090818,0.026888,0.00030192,0.0081569,0.00027952,0,0,0.0487,-0.020423,0,0.0014535,0,0,0,0.026891,0.00029898,0.0081569,0.60231,0.011782,0.023662,4.3609e-07,0.39,0.92,0
0.020459,-0.0090896,0.026869,0.00029846,0.0081502,0.00034715,0,0,0.048668,-0.020414,0,0.0018052,0,0,0,0.026873,0.00029393,0.0081502,0.74841,0.011772,0.023651,4.3534e-07,0.4,0.92,0
0.020945,-0.0090905,0.026856,0.0002939,0.008145,0.00041357,0,0,0.048649,-0.020413,0,0.0021506,0,0,0,0.026863,0.00028747,0.008145,0.89181,0.011765,0.023647,4.3494e-07,0.41,0.92,0
0.021432,-0.0090848,0.026849,0.00028782,0.0081412,0.00047858,0,0,0.048642,-0.020419,0,0.0024886,0,0,0,0.026858,0.0002792,0.0081412,1.0319,0.01176,0.023649,4.3487e-07,0.42,0.92,0
0.021918,-0.0090726,0.026849,0.00027978,0.0081386,0.00054184,0,0,0.048647,-0.020433,0,0.0028175,0,0,0,0.02686,0.00026873,0.0081386,1.1678,0.011756,0.023659,4.3514e-07,0.43,0.92,0
0.022405,-0.0090545,0.026854,0.00026937,0.008137,0.00060294,0,0,0.048664,-0.020456,0,0.0031353,0,0,0,0.026867,0.00025571,0.008137,1.2986,0.011753,0.023676,4.3575e-07,0.44,0.92,0
0.022891,-0.0090307,0.026864,0.00025623,0.0081362,0.00066141,0,0,0.048694,-0.020488,0,0.0034393,0,0,0,0.026881,0.0002398,0.0081362,1.423,0.011752,0.023701,4.3668e-07,0.45,0.92,0
0.023378,-0.0090016,0.026881,0.00024002,0.0081362,0.00071665,0,0,0.048735,-0.02053,0,0.0037266,0,0,0,0.0269,0.00022075,0.0081362,1.5398,0.011752,0.023733,4.3795e-07,0.46,0.92,0
0.023866,-0.0089678,0.026902,0.00022043,0.0081367,0.00076802,0,0,0.048789,-0.020582,0,0.0039937,0,0,0,0.026924,0.00019834,0.0081367,1.6475,0.011753,0.023772,4.3953e-07,0.47,0.92,0
0.024354,-0.0089297,0.026928,0.00019726,0.0081375,0.00081483,0,0,0.048855,-0.020645,0,0.0042371,0,0,0,0.026953,0.00017245,0.0081375,1.7444,0.011754,0.023818,4.4141e-07,0.48,0.92,0
0.024843,-0.0088877,0.026959,0.00017035,0.0081387,0.00085633,0,0,0.048932,-0.020718,0,0.0044529,0,0,0,0.026986,0.00014301,0.0081387,1.8291,0.011756,0.023872,4.4358e-07,0.49,0.92,0
0.025333,-0.0088424,0.026994,0.00013964,0.00814,0.00089173,0,0,0.04902,-0.020801,0,0.004637,0,0,0,0.027023,0.00011006,0.00814,1.8998,0.011758,0.023931,4.4602e-07,0.5,0.92,0
0.025824,-0.0087944,0.027033,0.00010517,0.0081413,0.00092025,0,0,0.049117,-0.020894,0,0.0047853,0,0,0,0.027064,7.3762e-05,0.0081413,1.955,0.01176,0.023996,4.4869e-07,0.51,0.92,0
0.026315,-0.0087443,0.027075,6.7096e-05,0.0081426,0.00094112,0,0,0.049224,-0.020996,0,0.0048938,0,0,0,0.027108,3.4341e-05,0.0081426,1.9933,0.011761,0.024066,4.5157e-07,0.52,0.92,0
0.026808,-0.0086926,0.02712,2.567e-05,0.0081437,0.0009536,0,0,0.049338,-0.021107,0,0.0049587,0,0,0,0.027153,-7.8516e-06,0.0081437,2.0133,0.011763,0.024141,4.5463e-07,0.53,0.92,0
0.027302,-0.0086402,0.027167,-1.8722e-05,0.0081445,0.00095703,0,0,0.049459,-0.021224,0,0.0049766,0,0,0,0.027201,-5.2371e-05,0.0081445,2.0137,0.011764,0.024218,4.5781e-07,0.54,0.92,0
0.027797,-0.0085875,0.027216,-6.558e-05,0.0081451,0.00095082,0,0,0.049584,-0.021348,0,0.0049443,0,0,0,0.027249,-9.8679e-05,0.0081451,1.9937,0.011765,0.024298,4.6108e-07,0.55,0.92,0
0.028294,-0.0085354,0.027265,-0.00011429,0.0081453,0.00093452,0,0,0.049712,-0.021475,0,0.0048595,0,0,0,0.027297,-0.00014615,0.0081453,1.9526,0.011765,0.024379,4.6438e-07,0.56,0.92,0
0.028792,-0.0084844,0.027315,-0.00016415,0.0081452,0.00090779,0,0,0.049841,-0.021604,0,0.0047205,0,0,0,0.027345,-0.00019411,0.0081452,1.8901,0.011765,0.02446,4.6767e-07,0.57,0.92,0
0.029291,-0.0084354,0.027363,-0.00021436,0.0081447,0.00087046,0,0,0.049969,-0.021734,0,0.0045264,0,0,0,0.027391,-0.00024181,0.0081447,1.8061,0.011765,0.024539,4.7089e-07,0.58,0.92,0
0.029791,-0.008389,0.02741,-0.00026405,0.0081439,0.00082256,0,0,0.050093,-0.021861,0,0.0042773,0,0,0,0.027435,-0.00028847,0.0081439,1.701,0.011763,0.024615,4.74e-07,0.59,0.92,0
0.030292,-0.0083458,0.027455,-0.00031231,0.0081428,0.00076428,0,0,0.050212,-0.021983,0,0.0039742,0,0,0,0.027476,-0.00033333,0.0081428,1.5754,0.011762,0.024688,4.7693e-07,0.6,0.92,0
0.030795,-0.0083064,0.027496,-0.00035823,0.0081414,0.00069601,0,0,0.050322,-0.022099,0,0.0036192,0,0,0,0.027513,-0.00037561,0.0081414,1.4305,0.01176,0.024755,4.7963e-07,0.61,0.92,0
0.031299,-0.0082715,0.027533,-0.00040089,0.0081397,0.00061835,0,0,0.050423,-0.022205,0,0.0032154,0,0,0,0.027547,-0.00041457,0.0081397,1.2675,0.011757,0.024816,4.8207e-07,0.62,0.92,0
0.031803,-0.0082417,0.027565,-0.00043941,0.0081378,0.00053208,0,0,0.050512,-0.022301,0,0.0027668,0,0,0,0.027575,-0.00044951,0.0081378,1.0881,0.011755,0.024869,4.842e-07,0.63,0.92,0
0.032309,-0.0082173,0.027592,-0.00047297,0.0081358,0.00043816,0,0,0.050587,-0.022383,0,0.0022784,0,0,0,0.027599,-0.00047981,0.0081358,0.89422,0.011752,0.024915,4.8597e-07,0.64,0.92,0
0.032815,-0.0081989,0.027613,-0.00050087,0.0081336,0.00033772,0,0,0.050646,-0.02245,0,0.0017561,0,0,0,0.027617,-0.00050492,0.0081336,0.68813,0.011749,0.024951,4.8736e-07,0.65,0.92,0
0.033322,-0.0081868,0.027627,-0.00052247,0.0081314,0.00023201,0,0,0.050689,-0.0225,0,0.0012065,0,0,0,0.027629,-0.00052438,0.0081314,0.4722,0.011745,0.024977,4.8835e-07,0.66,0.92,0
0.033829,-0.0081812,0.027634,-0.0005373,0.0081291,0.00012243,0,0,0.050714,-0.022533,0,0.00063661,0,0,0,0.027635,-0.00053783,0.0081291,0.24898,0.011742,0.024993,4.8889e-07,0.67,0.92,0
0.034336,-0.0081823,0.027634,-0.000545,0.0081268,1.0419e-05,0,0,0.05072,-0.022547,0,5.418e-05,0,0,0,0.027634,-0.000545,0.0081268,0.021185,0.011739,0.024998,4.8899e-07,0.68,0.92,0
0.034843,-0.0081903,0.027627,-0.00054537,0.0081245,-0.00010248,0,0,0.050707,-0.022542,0,-0.00053292,0,0,0,0.027627,-0.00054574,0.0081245,-0.20842,0.011735,0.024993,4.8864e-07,0.69,0.92,0
0.03535,-0.0082052,0.027612,-0.00053838,0.0081221,-0.00021474,0,0,0.050674,-0.022517,0,-0.0011166,0,0,0,0.027614,-0.00054002,0.0081221,-0.43703,0.011732,0.024976,4.8782e-07,0.7,0.92,0
0.035857,-0.0082268,0.02759,-0.00052413,0.0081198,-0.0003248,0,0,0.050623,-0.022474,0,-0.001689,0,0,0,0.027594,-0.00052788,0.0081198,-0.66182,0.011729,0.024948,4.8656e-07,0.71,0.92,0
0.036363,-0.008255,0.027561,-0.00050289,0.0081174,-0.00043118,0,0,0.050553,-0.022413,0,-0.0022421,0,0,0,0.027568,-0.00050951,0.0081174,-0.88003,0.011725,0.02491,4.8485e-07,0.72,0.92,0
0.036868,-0.0082896,0.027525,-0.00047506,0.008115,-0.00053244,0,0,0.050466,-0.022334,0,-0.0027687,0,0,0,0.027535,-0.00048519,0.008115,-1.089,0.011722,0.024862,4.8272e-07,0.73,0.92,0
0.037372,-0.0083303,0.027482,-0.0004412,0.0081124,-0.00062725,0,0,0.050362,-0.022239,0,-0.0032617,0,0,0,0.027497,-0.00045528,0.0081124,-1.2862,0.011718,0.024804,4.8018e-07,0.74,0.92,0
0.037875,-0.0083765,0.027434,-0.00040195,0.0081097,-0.0007144,0,0,0.050244,-0.02213,0,-0.0037149,0,0,0,0.027453,-0.00042027,0.0081097,-1.4692,0.011714,0.024737,4.7727e-07,0.75,0.92,0
0.038377,-0.0084279,0.027381,-0.00035807,0.0081068,-0.00079285,0,0,0.050112,-0.022009,0,-0.0041228,0,0,0,0.027403,-0.00038072,0.0081068,-1.6359,0.01171,0.024661,4.7402e-07,0.76,0.92,0
0.038878,-0.0084839,0.027323,-0.00031039,0.0081037,-0.0008617,0,0,0.049969,-0.021877,0,-0.0044808,0,0,0,0.027349,-0.00033724,0.0081037,-1.7844,0.011705,0.024578,4.7047e-07,0.77,0.92,0
0.039376,-0.0085439,0.027261,-0.00025978,0.0081003,-0.00092025,0,0,0.049817,-0.021736,0,-0.0047853,0,0,0,0.027291,-0.00029052,0.0081003,-1.913,0.0117,0.02449,4.6667e-07,0.78,0.92,0
0.039874,-0.0086074,0.027196,-0.00020714,0.0080966,-0.00096798,0,0,0.049658,-0.02159,0,-0.0050335,0,0,0,0.02723,-0.00024129,0.0080966,-2.0206,0.011695,0.024395,4.6266e-07,0.79,0.92,0
0.04037,-0.0086736,0.027128,-0.00015336,0.0080925,-0.0010046,0,0,0.049494,-0.021439,0,-0.0052238,0,0,0,0.027165,-0.0001903,0.0080925,-2.1059,0.011689,0.024297,4.5849e-07,0.8,0.92,0
0.040864,-0.0087419,0.02706,-9.93e-05,0.0080882,-0.0010299,0,0,0.049326,-0.021287,0,-0.0053554,0,0,0,0.027099,-0.0001383,0.0080882,-2.1685,0.011683,0.024196,4.5421e-07,0.81,0.92,0
0.041356,-0.0088115,0.026991,-4.5765e-05,0.0080834,-0.001044,0,0,0.049158,-0.021136,0,-0.0054287,0,0,0,0.027031,-8.6017e-05,0.0080834,-2.208,0.011676,0.024094,4.4988e-07,0.82,0.92,0
0.041847,-0.0088819,0.026921,6.5121e-06,0.0080783,-0.0010471,0,0,0.048992,-0.020987,0,-0.0054447,0,0,0,0.026962,-3.4159e-05,0.0080783,-2.2245,0.011669,0.023992,4.4554e-07,0.83,0.92,0
0.042336,-0.0089523,0.026853,5.6888e-05,0.008073,-0.0010395,0,0,0.048828,-0.020842,0,-0.0054052,0,0,0,0.026893,1.6627e-05,0.008073,-2.2181,0.011661,0.02389,4.4125e-07,0.84,0.92,0
0.042823,-0.009022,0.026786,0.00010482,0.0080673,-0.0010217,0,0,0.048669,-0.020702,0,-0.0053127,0,0,0,0.026825,6.5755e-05,0.0080673,-2.1897,0.011653,0.02379,4.3705e-07,0.85,0.92,0
0.043309,-0.0090904,0.026721,0.00014987,0.0080614,-0.00099431,0,0,0.048516,-0.02057,0,-0.0051704,0,0,0,0.026759,0.00011271,0.0080614,-2.14,0.011644,0.023694,4.3298e-07,0.86,0.92,0
0.043794,-0.0091568,0.02666,0.00019171,0.0080554,-0.000958,0,0,0.048371,-0.020446,0,-0.0049816,0,0,0,0.026694,0.00015708,0.0080554,-2.0702,0.011636,0.023601,4.2908e-07,0.87,0.92,0
0.044277,-0.0092208,0.026601,0.0002301,0.0080493,-0.00091346,0,0,0.048234,-0.02033,0,-0.00475,0,0,0,0.026632,0.0001985,0.0080493,-1.9815,0.011627,0.023513,4.2537e-07,0.88,0.92,0
0.044758,-0.0092817,0.026546,0.00026492,0.0080432,-0.00086146,0,0,0.048107,-0.020223,0,-0.0044796,0,0,0,0.026574,0.00023672,0.0080432,-1.8754,0.011618,0.02343,4.219e-07,0.89,0.92,0
0.045239,-0.009339,0.026495,0.00029612,0.0080372,-0.00080274,0,0,0.047989,-0.020127,0,-0.0041743,0,0,0,0.026519,0.00027155,0.0080372,-1.7534,0.011609,0.023354,4.1868e-07,0.9,0.92,0
0.045718,-0.0093923,0.026448,0.00032373,0.0080314,-0.00073808,0,0,0.047882,-0.02004,0,-0.003838,0,0,0,0.026469,0.00030289,0.0080314,-1.6171,0.011601,0.023284,4.1573e-07,0.91,0.92,0
0.046197,-0.0094411,0.026405,0.00034782,0.008026,-0.00066821,0,0,0.047786,-0.019963,0,-0.0034747,0,0,0,0.026423,0.00033069,0.008026,-1.468,0.011593,0.023221,4.1307e-07,0.92,0.92,0
0.046674,-0.0094851,0.026368,0.00036852,0.0080208,-0.00059386,0,0,0.047702,-0.019896,0,-0.0030881,0,0,0,0.026381,0.00035497,0.0080208,-1.3078,0.011586,0.023165,4.1071e-07,0.93,0.92,0
0.04715,-0.0095238,0.026335,0.000386,0.0080162,-0.00051569,0,0,0.047628,-0.019839,0,-0.0026816,0,0,0,0.026345,0.00037576,0.0080162,-1.1381,0.011579,0.023116,4.0865e-07,0.94,0.92,0
0.047627,-0.0095571,0.026307,0.00040041,0.0080122,-0.00043435,0,0,0.047566,-0.01979,0,-0.0022586,0,0,0,0.026314,0.00039313,0.0080122,-0.96027,0.011573,0.023075,4.0691e-07,0.95,0.92,0
0.048102,-0.0095847,0.026284,0.00041193,0.0080087,-0.00035045,0,0,0.047515,-0.019752,0,-0.0018223,0,0,0,0.026289,0.00040718,0.0080087,-0.77591,0.011568,0.023041,4.0547e-07,0.96,0.92,0
0.048577,-0.0096063,0.026266,0.0004207,0.008006,-0.00026454,0,0,0.047476,-0.019722,0,-0.0013756,0,0,0,0.026269,0.000418,0.008006,-0.58637,0.011564,0.023015,4.0436e-07,0.97,0.92,0
0.049051,-0.0096219,0.026253,0.00042687,0.008004,-0.00017716,0,0,0.047448,-0.0197,0,-0.00092124,0,0,0,0.026254,0.00042566,0.008004,-0.39301,0.011561,0.022996,4.0356e-07,0.98,0.92,0
0.049526,-0.0096313,0.026245,0.00043053,0.0080028,-8.882e-05,0,0,0.047431,-0.019688,0,-0.00046186,0,0,0,0.026246,0.00043023,0.0080028,-0.19713,0.01156,0.022985,4.0308e-07,0.99,0.92,0
0.05,-0.0096344,0.026243,0.00043174,0.0080024,-6.0302e-05,0,0,0.047425,-0.019684,0,-0.00031357,0,0,0,0.026243,0.0004316,0.0080024,-0.13386,0.011559,0.022981,4.0293e-07,1,0.92,0
0,0,0.031605,0.013545,0.013545,-0.0090369,0,0,0.046955,4.3368e-19,0,-0.046992,0,0,0,0.03535,0.0097995,0.013545,-22.511,0.019565,0.023899,6.4339e-07,0,0.93,0
0.00046955,-0.00046992,0.031508,0.012166,0.013102,-0.0089953,0,0,0.047854,-0.002433,0,-0.046776,0,0,0,0.035044,0.0086295,0.013102,-21.464,0.018925,0.024487,6.7007e-07,0.01,0.93,0
0.00095708,-0.00096025,0.031909,0.01073,0.012792,-0.0090047,0,0,0.049705,-0.0053599,0,-0.046824,0,0,0,0.03522,0.0074194,0.012792,-20.188,0.018477,0.025542,7.2981e-07,0.02,0.93,0
0.0014636,-0.0014614,0.032259,0.0091958,0.012436,-0.0087719,0,0,0.051538,-0.0084254,0,-0.045614,0,0,0,0.035216,0.0062386,0.012436,-18.63,0.017964,0.026429,7.7522e-07,0.03,0.93,0
0.0019878,-0.0019632,0.032502,0.0077201,0.012067,-0.0083241,0,0,0.053133,-0.011301,0,-0.043285,0,0,0,0.035039,0.0051838,0.012067,-16.946,0.01743,0.027078,8.0186e-07,0.04,0.93,0
0.0025263,-0.0024565,0.032609,0.0064039,0.011704,-0.0077268,0,0,0.054354,-0.01378,0,-0.040179,0,0,0,0.034718,0.0042953,0.011704,-15.264,0.016906,0.027478,8.1013e-07,0.05,0.93,0
0.0030749,-0.0029344,0.032575,0.0052867,0.011359,-0.0070535,0,0,0.055164,-0.015787,0,-0.036678,0,0,0,0.034291,0.0035714,0.011359,-13.668,0.016407,0.027661,8.0349e-07,0.06,0.93,0
0.0036296,-0.0033927,0.03242,0.0043656,0.011036,-0.0063642,0,0,0.055599,-0.017342,0,-0.033094,0,0,0,0.033796,0.0029894,0.011036,-12.202,0.01594,0.027675,7.864e-07,0.07,0.93,0
0.0041869,-0.0038289,0.032171,0.0036176,0.010737,-0.0056994,0,0,0.05573,-0.01851,0,-0.029637,0,0,0,0.033267,0.002522,0.010737,-10.881,0.015508,0.027571,7.6302e-07,0.08,0.93,0
0.0047442,-0.0042423,0.031861,0.0030135,0.010462,-0.0050813,0,0,0.055636,-0.019367,0,-0.026423,0,0,0,0.03273,0.0021446,0.010462,-9.7035,0.015112,0.02739,7.3654e-07,0.09,0.93,0
0.0052996,-0.0046327,0.031514,0.0025258,0.010212,-0.0045195,0,0,0.055385,-0.019984,0,-0.023502,0,0,0,0.032202,0.0018375,0.010212,-8.6592,0.014751,0.027164,7.0918e-07,0.1,0.93,0
0.0058519,-0.0050007,0.031152,0.0021308,0.0099848,-0.0040158,0,0,0.055034,-0.02042,0,-0.020882,0,0,0,0.031697,0.0015854,0.0099848,-7.7348,0.014422,0.026914,6.8232e-07,0.11,0.93,0
0.0064003,-0.0053472,0.030788,0.0018094,0.0097792,-0.0035677,0,0,0.054622,-0.020721,0,-0.018552,0,0,0,0.031221,0.0013767,0.0097792,-6.9164,0.014125,0.026655,6.5678e-07,0.12,0.93,0
0.0069443,-0.005673,0.030432,0.0015464,0.0095935,-0.0031706,0,0,0.05418,-0.020922,0,-0.016487,0,0,0,0.030776,0.0012025,0.0095935,-6.1908,0.013857,0.026398,6.3295e-07,0.13,0.93,0
0.0074839,-0.0059793,0.03009,0.0013298,0.009426,-0.0028192,0,0,0.053727,-0.02105,0,-0.01466,0,0,0,0.030364,0.0010561,0.009426,-5.5459,0.013615,0.026148,6.1101e-07,0.14,0.93,0
0.0080189,-0.006267,0.029766,0.0011504,0.009275,-0.0025082,0,0,0.053277,-0.021124,0,-0.013042,0,0,0,0.029984,0.00093225,0.009275,-4.9714,0.013397,0.025909,5.9096e-07,0.15,0.93,0
0.0085494,-0.0065369,0.029462,0.001001,0.0091389,-0.0022325,0,0,0.05284,-0.021159,0,-0.011609,0,0,0,0.029636,0.00082692,0.0091389,-4.4581,0.013201,0.025683,5.7273e-07,0.16,0.93,0
0.0090757,-0.0067902,0.029178,0.00087586,0.0090162,-0.0019878,0,0,0.052421,-0.021165,0,-0.010337,0,0,0,0.029317,0.00073693,0.0090162,-3.998,0.013023,0.025471,5.5621e-07,0.17,0.93,0
0.0095978,-0.0070275,0.028914,0.00077065,0.0089055,-0.0017698,0,0,0.052023,-0.021151,0,-0.0092032,0,0,0,0.029025,0.00065979,0.0089055,-3.5842,0.012864,0.025273,5.4128e-07,0.18,0.93,0
0.010116,-0.0072496,0.028671,0.00068185,0.0088058,-0.0015751,0,0,0.051649,-0.021122,0,-0.0081907,0,0,0,0.028759,0.00059349,0.0088058,-3.2109,0.012719,0.025089,5.2779e-07,0.19,0.93,0
0.010631,-0.0074573,0.028446,0.00060672,0.0087159,-0.0014006,0,0,0.051299,-0.021084,0,-0.007283,0,0,0,0.028516,0.00053643,0.0087159,-2.8728,0.01259,0.024918,5.1561e-07,0.2,0.93,0
0.011142,-0.0076512,0.02824,0.00054303,0.0086348,-0.0012435,0,0,0.050972,-0.021039,0,-0.006466,0,0,0,0.028295,0.00048732,0.0086348,-2.5655,0.012472,0.024761,5.0461e-07,0.21,0.93,0
0.01165,-0.0078319,0.02805,0.00048902,0.0085618,-0.0011014,0,0,0.05067,-0.020989,0,-0.0057275,0,0,0,0.028094,0.00044507,0.0085618,-2.2849,0.012367,0.024616,4.9469e-07,0.22,0.93,0
0.012155,-0.008,0.027877,0.00044323,0.008496,-0.00097242,0,0,0.05039,-0.020937,0,-0.0050566,0,0,0,0.027911,0.00040881,0.008496,-2.0275,0.012272,0.024482,4.8575e-07,0.23,0.93,0
0.012658,-0.0081559,0.027719,0.00040451,0.0084369,-0.00085462,0,0,0.050132,-0.020884,0,-0.004444,0,0,0,0.027745,0.00037779,0.0084369,-1.7904,0.012187,0.024359,4.7768e-07,0.24,0.93,0
0.013158,-0.0083001,0.027574,0.00037185,0.0083838,-0.00074646,0,0,0.049895,-0.020831,0,-0.0038816,0,0,0,0.027595,0.00035139,0.0083838,-1.5707,0.01211,0.024246,4.7041e-07,0.25,0.93,0
0.013656,-0.008433,0.027443,0.00034447,0.0083363,-0.00064654,0,0,0.049678,-0.020779,0,-0.003362,0,0,0,0.027459,0.00032905,0.0083363,-1.366,0.012041,0.024143,4.6387e-07,0.26,0.93,0
0.014152,-0.0085551,0.027325,0.00032165,0.0082938,-0.00055365,0,0,0.04948,-0.020728,0,-0.002879,0,0,0,0.027336,0.0003103,0.0082938,-1.1741,0.01198,0.024049,4.58e-07,0.27,0.93,0
0.014646,-0.0086667,0.027217,0.00030282,0.008256,-0.00046671,0,0,0.049299,-0.020678,0,-0.0024269,0,0,0,0.027225,0.00029473,0.008256,-0.99314,0.011925,0.023963,4.5274e-07,0.28,0.93,0
0.015138,-0.0087682,0.027121,0.00028746,0.0082226,-0.00038477,0,0,0.049136,-0.020631,0,-0.0020008,0,0,0,0.027127,0.00028194,0.0082226,-0.82134,0.011877,0.023886,4.4804e-07,0.29,0.93,0
0.015628,-0.0088597,0.027035,0.0002751,0.008193,-0.000307,0,0,0.048989,-0.020587,0,-0.0015964,0,0,0,0.027039,0.00027158,0.008193,-0.6572,0.011834,0.023816,4.4386e-07,0.3,0.93,0
0.016117,-0.0089418,0.026959,0.00026534,0.0081672,-0.00023268,0,0,0.048858,-0.020545,0,-0.0012099,0,0,0,0.026961,0.00026331,0.0081672,-0.49937,0.011797,0.023753,4.4018e-07,0.31,0.93,0
0.016605,-0.0090145,0.026892,0.00025779,0.0081448,-0.00016117,0,0,0.048742,-0.020506,0,-0.00083807,0,0,0,0.026893,0.00025681,0.0081448,-0.34669,0.011765,0.023698,4.3695e-07,0.32,0.93,0
0.017092,-0.0090782,0.026833,0.00025207,0.0081256,-9.1937e-05,0,0,0.04864,-0.020471,0,-0.00047807,0,0,0,0.026834,0.00025175,0.0081256,-0.19817,0.011737,0.023649,4.3416e-07,0.33,0.93,0
0.017578,-0.0091332,0.026783,0.00024786,0.0081093,-2.4538e-05,0,0,0.048552,-0.02044,0,-0.0001276,0,0,0,0.026783,0.00024783,0.0081093,-0.052983,0.011713,0.023608,4.3178e-07,0.34,0.93,0
0.018063,-0.0091797,0.026741,0.00024479,0.0080958,4.1396e-05,0,0,0.048478,-0.020413,0,0.00021526,0,0,0,0.026741,0.00024472,0.0080958,0.089514,0.011694,0.023573,4.2981e-07,0.35,0.93,0
0.018548,-0.0092179,0.026707,0.00024253,0.0080849,0.00010614,0,0,0.048418,-0.02039,0,0.00055196,0,0,0,0.026707,0.00024211,0.0080849,0.2298,0.011678,0.023545,4.2822e-07,0.36,0.93,0
0.019032,-0.0092482,0.02668,0.00024075,0.0080763,0.00016991,0,0,0.04837,-0.020373,0,0.00088351,0,0,0,0.026681,0.00023965,0.0080763,0.36817,0.011666,0.023524,4.27e-07,0.37,0.93,0
0.019515,-0.0092707,0.026661,0.00023909,0.00807,0.00023279,0,0,0.048336,-0.02036,0,0.0012105,0,0,0,0.026663,0.00023704,0.00807,0.50476,0.011657,0.023509,4.2616e-07,0.38,0.93,0
0.019998,-0.0092857,0.026648,0.00023721,0.0080657,0.00029483,0,0,0.048315,-0.020354,0,0.0015331,0,0,0,0.026652,0.00023392,0.0080657,0.63949,0.01165,0.023502,4.2568e-07,0.39,0.93,0
0.020481,-0.0092935,0.026643,0.00023476,0.0080633,0.00035596,0,0,0.048307,-0.020354,0,0.001851,0,0,0,0.026648,0.00022996,0.0080633,0.77212,0.011647,0.023501,4.2555e-07,0.4,0.93,0
0.020965,-0.0092945,0.026644,0.0002314,0.0080626,0.00041605,0,0,0.048311,-0.020361,0,0.0021635,0,0,0,0.026651,0.00022484,0.0080626,0.90223,0.011646,0.023508,4.2578e-07,0.41,0.93,0
0.021448,-0.0092888,0.026652,0.00022677,0.0080635,0.00047486,0,0,0.048329,-0.020376,0,0.0024693,0,0,0,0.02666,0.00021824,0.0080635,1.0292,0.011647,0.023522,4.2635e-07,0.42,0.93,0
0.021931,-0.0092768,0.026666,0.00022055,0.0080658,0.00053209,0,0,0.048359,-0.020398,0,0.0027669,0,0,0,0.026676,0.00020984,0.0080658,1.1522,0.011651,0.023543,4.2728e-07,0.43,0.93,0
0.022415,-0.0092589,0.026686,0.0002124,0.0080694,0.00058734,0,0,0.048402,-0.020428,0,0.0030542,0,0,0,0.026699,0.00019938,0.0080694,1.2703,0.011656,0.023571,4.2854e-07,0.44,0.93,0
0.022899,-0.0092355,0.026711,0.00020204,0.0080741,0.00064014,0,0,0.048457,-0.020467,0,0.0033287,0,0,0,0.026727,0.00018659,0.0080741,1.3825,0.011662,0.023606,4.3014e-07,0.45,0.93,0
0.023384,-0.0092069,0.026743,0.00018919,0.0080797,0.00068994,0,0,0.048525,-0.020515,0,0.0035877,0,0,0,0.026761,0.00017128,0.0080797,1.4874,0.011671,0.023649,4.3206e-07,0.46,0.93,0
0.02387,-0.0091736,0.02678,0.00017363,0.0080861,0.00073616,0,0,0.048605,-0.020573,0,0.003828,0,0,0,0.026801,0.00015328,0.0080861,1.5837,0.01168,0.023698,4.343e-07,0.47,0.93,0
0.024356,-0.0091361,0.026822,0.00015519,0.0080932,0.00077812,0,0,0.048695,-0.020639,0,0.0040462,0,0,0,0.026845,0.0001325,0.0080932,1.67,0.01169,0.023755,4.3683e-07,0.48,0.93,0
0.024844,-0.0090949,0.026869,0.00013375,0.0081008,0.00081514,0,0,0.048797,-0.020714,0,0.0042388,0,0,0,0.026894,0.00010892,0.0081008,1.7448,0.011701,0.023817,4.3965e-07,0.49,0.93,0
0.025332,-0.0090504,0.02692,0.00010926,0.0081087,0.00084651,0,0,0.048909,-0.020799,0,0.0044018,0,0,0,0.026946,8.256e-05,0.0081087,1.8066,0.011713,0.023885,4.4271e-07,0.5,0.93,0
0.025822,-0.0090034,0.026974,8.1769e-05,0.0081168,0.00087149,0,0,0.049029,-0.020891,0,0.0045318,0,0,0,0.027002,5.3556e-05,0.0081168,1.8542,0.011724,0.023958,4.46e-07,0.51,0.93,0
0.026313,-0.0089542,0.027032,5.1393e-05,0.008125,0.00088939,0,0,0.049158,-0.020991,0,0.0046248,0,0,0,0.027061,2.2107e-05,0.008125,1.886,0.011736,0.024035,4.4948e-07,0.52,0.93,0
0.026805,-0.0089037,0.027092,1.8348e-05,0.0081331,0.00089954,0,0,0.049293,-0.021098,0,0.0046776,0,0,0,0.027122,-1.1507e-05,0.0081331,1.9009,0.011748,0.024116,4.5311e-07,0.53,0.93,0
0.027299,-0.0088524,0.027154,-1.7059e-05,0.0081411,0.00090133,0,0,0.049433,-0.021211,0,0.0046869,0,0,0,0.027184,-4.6926e-05,0.0081411,1.8979,0.011759,0.024199,4.5685e-07,0.54,0.93,0
0.027794,-0.0088009,0.027217,-5.4427e-05,0.0081487,0.00089425,0,0,0.049577,-0.021328,0,0.0046501,0,0,0,0.027246,-8.3719e-05,0.0081487,1.8761,0.01177,0.024284,4.6066e-07,0.55,0.93,0
0.02829,-0.00875,0.02728,-9.3268e-05,0.0081559,0.00087787,0,0,0.049722,-0.021448,0,0.0045649,0,0,0,0.027308,-0.00012139,0.0081559,1.835,0.011781,0.024369,4.6448e-07,0.56,0.93,0
0.028788,-0.0087003,0.027342,-0.00013302,0.0081627,0.00085191,0,0,0.049866,-0.021569,0,0.0044299,0,0,0,0.027368,-0.00015941,0.0081627,1.7743,0.011791,0.024453,4.6825e-07,0.57,0.93,0
0.029287,-0.0086525,0.027403,-0.00017303,0.0081689,0.00081623,0,0,0.050008,-0.021689,0,0.0042444,0,0,0,0.027427,-0.00019717,0.0081689,1.694,0.011799,0.024535,4.7193e-07,0.58,0.93,0
0.029788,-0.0086073,0.027461,-0.00021264,0.0081744,0.00077085,0,0,0.050145,-0.021806,0,0.0040084,0,0,0,0.027482,-0.00023409,0.0081744,1.5943,0.011808,0.024614,4.7547e-07,0.59,0.93,0
0.03029,-0.0085652,0.027516,-0.0002511,0.0081794,0.00071594,0,0,0.050274,-0.021919,0,0.0037229,0,0,0,0.027534,-0.00026955,0.0081794,1.476,0.011815,0.024688,4.788e-07,0.6,0.93,0
0.030794,-0.008527,0.027566,-0.00028769,0.0081835,0.0006519,0,0,0.050395,-0.022025,0,0.0033899,0,0,0,0.027581,-0.00030294,0.0081835,1.34,0.011821,0.024757,4.8187e-07,0.61,0.93,0
0.031298,-0.0084931,0.027612,-0.00032168,0.008187,0.00057926,0,0,0.050504,-0.022122,0,0.0030121,0,0,0,0.027624,-0.00033369,0.008187,1.1875,0.011826,0.024819,4.8463e-07,0.62,0.93,0
0.031804,-0.0084642,0.027651,-0.00035238,0.0081896,0.00049873,0,0,0.0506,-0.022209,0,0.0025934,0,0,0,0.02766,-0.00036126,0.0081896,1.02,0.011829,0.024874,4.8704e-07,0.63,0.93,0
0.03231,-0.0084406,0.027684,-0.00037913,0.0081915,0.00041121,0,0,0.050681,-0.022284,0,0.0021383,0,0,0,0.02769,-0.00038515,0.0081915,0.83931,0.011832,0.02492,4.8906e-07,0.64,0.93,0
0.032817,-0.0084228,0.02771,-0.00040135,0.0081926,0.00031772,0,0,0.050745,-0.022344,0,0.0016522,0,0,0,0.027714,-0.00040494,0.0081926,0.64746,0.011834,0.024956,4.9066e-07,0.65,0.93,0
0.033325,-0.0084112,0.027728,-0.00041855,0.0081928,0.00021942,0,0,0.050792,-0.02239,0,0.001141,0,0,0,0.02773,-0.00042026,0.0081928,0.44663,0.011834,0.024983,4.9179e-07,0.66,0.93,0
0.033833,-0.0084059,0.027738,-0.00043035,0.0081923,0.00011758,0,0,0.050819,-0.022419,0,0.00061143,0,0,0,0.027738,-0.00043084,0.0081923,0.23916,0.011833,0.024999,4.9245e-07,0.67,0.93,0
0.034341,-0.0084072,0.02774,-0.00043645,0.0081909,1.3545e-05,0,0,0.050826,-0.022431,0,7.0433e-05,0,0,0,0.02774,-0.00043646,0.0081909,0.027543,0.011831,0.025005,4.9261e-07,0.68,0.93,0
0.03485,-0.0084151,0.027733,-0.00043672,0.0081888,-9.1293e-05,0,0,0.050814,-0.022426,0,-0.00047473,0,0,0,0.027733,-0.00043701,0.0081888,-0.18569,0.011828,0.024999,4.9226e-07,0.69,0.93,0
0.035358,-0.0084297,0.027717,-0.0004311,0.0081858,-0.00019551,0,0,0.050781,-0.022404,0,-0.0010167,0,0,0,0.027718,-0.00043245,0.0081858,-0.39794,0.011824,0.024983,4.9141e-07,0.7,0.93,0
0.035865,-0.0084509,0.027693,-0.00041969,0.008182,-0.0002977,0,0,0.050729,-0.022364,0,-0.001548,0,0,0,0.027696,-0.00042284,0.008182,-0.60664,0.011818,0.024955,4.9006e-07,0.71,0.93,0
0.036372,-0.0084786,0.027661,-0.0004027,0.0081774,-0.00039647,0,0,0.050657,-0.022308,0,-0.0020616,0,0,0,0.027666,-0.0004083,0.0081774,-0.80924,0.011812,0.024917,4.8822e-07,0.72,0.93,0
0.036879,-0.0085124,0.02762,-0.00038045,0.008172,-0.00049052,0,0,0.050566,-0.022236,0,-0.0025507,0,0,0,0.027629,-0.00038904,0.008172,-1.0033,0.011804,0.024868,4.8591e-07,0.73,0.93,0
0.037384,-0.0085521,0.027573,-0.00035339,0.0081658,-0.00057862,0,0,0.050458,-0.02215,0,-0.0030088,0,0,0,0.027585,-0.00036537,0.0081658,-1.1865,0.011795,0.02481,4.8317e-07,0.74,0.93,0
0.037888,-0.0085974,0.027518,-0.00032203,0.0081588,-0.00065967,0,0,0.050334,-0.02205,0,-0.0034303,0,0,0,0.027534,-0.00033766,0.0081588,-1.3566,0.011785,0.024743,4.8001e-07,0.75,0.93,0
0.03839,-0.0086476,0.027457,-0.00028698,0.0081511,-0.00073269,0,0,0.050196,-0.021939,0,-0.00381,0,0,0,0.027477,-0.00030632,0.0081511,-1.5117,0.011774,0.024667,4.7649e-07,0.76,0.93,0
0.038892,-0.0087023,0.027391,-0.00024889,0.0081427,-0.00079688,0,0,0.050046,-0.021818,0,-0.0041438,0,0,0,0.027414,-0.00027185,0.0081427,-1.65,0.011762,0.024584,4.7263e-07,0.77,0.93,0
0.039391,-0.008761,0.02732,-0.00020846,0.0081336,-0.00085158,0,0,0.049886,-0.021689,0,-0.0044282,0,0,0,0.027347,-0.00023478,0.0081336,-1.7701,0.011749,0.024494,4.685e-07,0.78,0.93,0
0.039889,-0.0088231,0.027246,-0.00016641,0.0081238,-0.0008963,0,0,0.049717,-0.021555,0,-0.0046608,0,0,0,0.027275,-0.00019568,0.0081238,-1.8707,0.011734,0.024399,4.6414e-07,0.79,0.93,0
0.040386,-0.0088878,0.027168,-0.00012343,0.0081135,-0.00093075,0,0,0.049543,-0.021416,0,-0.0048399,0,0,0,0.0272,-0.00015514,0.0081135,-1.951,0.01172,0.0243,4.5961e-07,0.8,0.93,0
0.04088,-0.0089547,0.027089,-8.0218e-05,0.0081026,-0.00095479,0,0,0.049364,-0.021275,0,-0.0049649,0,0,0,0.027122,-0.00011373,0.0081026,-2.0102,0.011704,0.024198,4.5496e-07,0.81,0.93,0
0.041373,-0.0090229,0.027008,-3.7408e-05,0.0080913,-0.00096845,0,0,0.049184,-0.021135,0,-0.0050359,0,0,0,0.027043,-7.2042e-05,0.0080913,-2.0481,0.011687,0.024094,4.5024e-07,0.82,0.93,0
0.041864,-0.0090918,0.026928,4.4154e-06,0.0080796,-0.0009719,0,0,0.049005,-0.020996,0,-0.0050539,0,0,0,0.026963,-3.0623e-05,0.0080796,-2.0647,0.011671,0.023989,4.4552e-07,0.83,0.93,0
0.042353,-0.0091608,0.026847,4.4741e-05,0.0080677,-0.00096545,0,0,0.048828,-0.02086,0,-0.0050203,0,0,0,0.026882,1.001e-05,0.0080677,-2.0603,0.011653,0.023885,4.4083e-07,0.84,0.93,0
0.04284,-0.0092291,0.026769,8.3134e-05,0.0080556,-0.00094954,0,0,0.048654,-0.020728,0,-0.0049376,0,0,0,0.026802,4.939e-05,0.0080556,-2.0353,0.011636,0.023783,4.3623e-07,0.85,0.93,0
0.043326,-0.0092963,0.026692,0.00011924,0.0080434,-0.00092467,0,0,0.048487,-0.020603,0,-0.0048083,0,0,0,0.026724,8.7106e-05,0.0080434,-1.9905,0.011618,0.023684,4.3176e-07,0.86,0.93,0
0.04381,-0.0093615,0.026618,0.0001528,0.0080314,-0.00089145,0,0,0.048327,-0.020484,0,-0.0046356,0,0,0,0.026648,0.00012281,0.0080314,-1.927,0.011601,0.023588,4.2747e-07,0.87,0.93,0
0.044293,-0.0094244,0.026548,0.00018363,0.0080196,-0.00085053,0,0,0.048175,-0.020373,0,-0.0044227,0,0,0,0.026576,0.00015622,0.0080196,-1.8458,0.011584,0.023496,4.2339e-07,0.88,0.93,0
0.044774,-0.0094842,0.026482,0.0002116,0.0080081,-0.00080258,0,0,0.048032,-0.020271,0,-0.0041734,0,0,0,0.026506,0.00018711,0.0080081,-1.7483,0.011567,0.02341,4.1955e-07,0.89,0.93,0
0.045253,-0.0095406,0.02642,0.00023669,0.0079971,-0.0007483,0,0,0.0479,-0.020177,0,-0.0038911,0,0,0,0.026442,0.00021533,0.0079971,-1.6357,0.011551,0.02333,4.1598e-07,0.9,0.93,0
0.045732,-0.009593,0.026363,0.00025891,0.0079866,-0.00068839,0,0,0.047779,-0.020092,0,-0.0035796,0,0,0,0.026381,0.00024077,0.0079866,-1.5095,0.011536,0.023256,4.127e-07,0.91,0.93,0
0.046209,-0.0096411,0.026312,0.00027832,0.007977,-0.00062353,0,0,0.04767,-0.020016,0,-0.0032424,0,0,0,0.026326,0.00026339,0.007977,-1.3713,0.011522,0.023189,4.0973e-07,0.92,0.93,0
0.046685,-0.0096843,0.026265,0.00029501,0.0079681,-0.00055439,0,0,0.047573,-0.01995,0,-0.0028828,0,0,0,0.026277,0.00028318,0.0079681,-1.2224,0.01151,0.02313,4.0708e-07,0.93,0.93,0
0.04716,-0.0097225,0.026225,0.00030911,0.0079602,-0.00048161,0,0,0.047488,-0.019893,0,-0.0025044,0,0,0,0.026234,0.00030017,0.0079602,-1.0643,0.011498,0.023078,4.0477e-07,0.94,0.93,0
0.047635,-0.0097553,0.02619,0.00032075,0.0079533,-0.00040579,0,0,0.047416,-0.019845,0,-0.0021101,0,0,0,0.026197,0.00031439,0.0079533,-0.89845,0.011488,0.023033,4.028e-07,0.95,0.93,0
0.048109,-0.0097825,0.026162,0.00033006,0.0079476,-0.0003275,0,0,0.047357,-0.019806,0,-0.001703,0,0,0,0.026166,0.00032591,0.0079476,-0.72625,0.01148,0.022997,4.0119e-07,0.96,0.93,0
0.048582,-0.0098039,0.02614,0.00033716,0.007943,-0.00024727,0,0,0.047311,-0.019775,0,-0.0012858,0,0,0,0.026142,0.00033479,0.007943,-0.54902,0.011473,0.022968,3.9993e-07,0.97,0.93,0
0.049055,-0.0098192,0.026124,0.00034215,0.0079398,-0.00016563,0,0,0.047278,-0.019754,0,-0.00086126,0,0,0,0.026125,0.00034108,0.0079398,-0.36806,0.011468,0.022948,3.9903e-07,0.98,0.93,0
0.049528,-0.0098285,0.026114,0.00034511,0.0079378,-8.3045e-05,0,0,0.047259,-0.019741,0,-0.00043183,0,0,0,0.026114,0.00034484,0.0079378,-0.18464,0.011466,0.022936,3.9848e-07,0.99,0.93,0
0.05,-0.0098316,0.026111,0.00034609,0.0079371,-5.9487e-05,0,0,0.047252,-0.019737,0,-0.00030933,0,0,0,0.026111,0.00034595,0.0079371,-0.13229,0.011465,0.022932,3.9831e-07,1,0.93,0
0,0,0.032552,0.013951,0.013951,-0.0095406,0,0,0.048362,6.5052e-19,0,-0.049611,0,0,0,0.036575,0.0099275,0.013951,-22.865,0.020151,0.024881,7.2185e-07,0,0.94,0
0.00048362,-0.00049611,0.032431,0.01231,0.013422,-0.0094715,0,0,0.049423,-0.0028922,0,-0.049252,0,0,0,0.036188,0.0085531,0.013422,-21.636,0.019388,0.025551,7.5292e-07,0.01,0.94,0
0.00098846,-0.0010182,0.032866,0.010552,0.013025,-0.0094421,0,0,0.051587,-0.0064319,0,-0.049099,0,0,0,0.036325,0.0070925,0.013025,-20.12,0.018814,0.026764,8.2391e-07,0.02,0.94,0
0.0015153,-0.0015524,0.033211,0.0087212,0.01258,-0.0090782,0,0,0.053641,-0.010032,0,-0.047207,0,0,0,0.036209,0.005723,0.01258,-18.277,0.01817,0.027702,8.704e-07,0.03,0.94,0
0.0020613,-0.0020845,0.033393,0.0070493,0.012133,-0.0084485,0,0,0.055277,-0.013217,0,-0.043932,0,0,0,0.03587,0.0045727,0.012133,-16.338,0.017525,0.028285,8.8837e-07,0.04,0.94,0
0.0026209,-0.0026032,0.033384,0.005646,0.011709,-0.0076693,0,0,0.056355,-0.015764,0,-0.03988,0,0,0,0.035363,0.0036667,0.011709,-14.471,0.016913,0.028538,8.8185e-07,0.05,0.94,0
0.0031884,-0.003101,0.033198,0.0045223,0.011316,-0.0068467,0,0,0.056893,-0.017664,0,-0.035603,0,0,0,0.034749,0.0029715,0.011316,-12.763,0.016345,0.028535,8.5827e-07,0.06,0.94,0
0.0037587,-0.0035741,0.032877,0.003642,0.010956,-0.0060523,0,0,0.056995,-0.019016,0,-0.031472,0,0,0,0.03408,0.0024385,0.010956,-11.246,0.015825,0.028359,8.2503e-07,0.07,0.94,0
0.0043283,-0.0040211,0.03247,0.0029561,0.010628,-0.0053231,0,0,0.056789,-0.019946,0,-0.02768,0,0,0,0.0334,0.0020254,0.010628,-9.9177,0.015351,0.02808,7.8772e-07,0.08,0.94,0
0.0048945,-0.0044421,0.032018,0.002421,0.010332,-0.0046725,0,0,0.056384,-0.020568,0,-0.024297,0,0,0,0.032738,0.0017009,0.010332,-8.7615,0.014924,0.027748,7.4997e-07,0.09,0.94,0
0.005456,-0.0048377,0.031552,0.002001,0.010066,-0.0041009,0,0,0.055863,-0.020969,0,-0.021325,0,0,0,0.03211,0.0014425,0.010066,-7.756,0.01454,0.027394,7.1382e-07,0.1,0.94,0
0.0060118,-0.0052092,0.031091,0.0016687,0.0098279,-0.0036025,0,0,0.055284,-0.021214,0,-0.018733,0,0,0,0.031526,0.001234,0.0098279,-6.88,0.014196,0.027039,6.8029e-07,0.11,0.94,0
0.0065616,-0.0055578,0.030648,0.0014035,0.0096153,-0.0031692,0,0,0.054684,-0.021351,0,-0.01648,0,0,0,0.030987,0.001064,0.0096153,-6.1146,0.013889,0.026695,6.4975e-07,0.12,0.94,0
0.0071055,-0.005885,0.030229,0.0011898,0.0094256,-0.0027924,0,0,0.054088,-0.021413,0,-0.01452,0,0,0,0.030495,0.00092375,0.0094256,-5.4431,0.013615,0.026369,6.2223e-07,0.13,0.94,0
0.0076434,-0.0061919,0.029837,0.0010163,0.0092561,-0.0024642,0,0,0.053511,-0.021424,0,-0.012814,0,0,0,0.030047,0.0008071,0.0092561,-4.8519,0.01337,0.026063,5.9759e-07,0.14,0.94,0
0.0081757,-0.0064798,0.029475,0.00087412,0.0091048,-0.0021776,0,0,0.052963,-0.0214,0,-0.011324,0,0,0,0.02964,0.00070927,0.0091048,-4.3291,0.013151,0.02578,5.756e-07,0.15,0.94,0
0.0087027,-0.0067497,0.029141,0.00075684,0.0089695,-0.0019265,0,0,0.052447,-0.021353,0,-0.010018,0,0,0,0.029272,0.00062669,0.0089695,-3.8651,0.012956,0.025518,5.5601e-07,0.16,0.94,0
0.0092246,-0.0070027,0.028835,0.00065946,0.0088484,-0.0017056,0,0,0.051966,-0.021291,0,-0.0088689,0,0,0,0.028938,0.00055659,0.0088484,-3.4515,0.012781,0.025277,5.3856e-07,0.17,0.94,0
0.009742,-0.0072395,0.028555,0.00057815,0.00874,-0.0015104,0,0,0.05152,-0.021221,0,-0.0078542,0,0,0,0.028637,0.00049684,0.00874,-3.0813,0.012625,0.025057,5.2302e-07,0.18,0.94,0
0.010255,-0.0074611,0.0283,0.00050996,0.008643,-0.0013373,0,0,0.051108,-0.021146,0,-0.006954,0,0,0,0.028364,0.00044575,0.008643,-2.7487,0.012484,0.024855,5.0917e-07,0.19,0.94,0
0.010764,-0.0076682,0.028067,0.00045258,0.008556,-0.001183,0,0,0.05073,-0.021069,0,-0.0061517,0,0,0,0.028118,0.00040199,0.008556,-2.4486,0.012359,0.024671,4.9682e-07,0.2,0.94,0
0.01127,-0.0078615,0.027856,0.00040419,0.0084781,-0.0010449,0,0,0.050383,-0.020992,0,-0.0054332,0,0,0,0.027896,0.00036448,0.0084781,-2.1766,0.012246,0.024504,4.858e-07,0.21,0.94,0
0.011772,-0.0080416,0.027664,0.00036335,0.0084083,-0.00092047,0,0,0.050066,-0.020917,0,-0.0047865,0,0,0,0.027695,0.00033235,0.0084083,-1.9288,0.012145,0.024351,4.7596e-07,0.22,0.94,0
0.012271,-0.008209,0.027491,0.00032889,0.0083459,-0.00080788,0,0,0.049777,-0.020844,0,-0.004201,0,0,0,0.027515,0.00030488,0.0083459,-1.7022,0.012055,0.024212,4.6719e-07,0.23,0.94,0
0.012767,-0.0083643,0.027334,0.00029987,0.0082901,-0.00070535,0,0,0.049514,-0.020775,0,-0.0036678,0,0,0,0.027352,0.00028148,0.0082901,-1.4936,0.011975,0.024087,4.5937e-07,0.24,0.94,0
0.013261,-0.0085079,0.027193,0.00027552,0.0082404,-0.0006114,0,0,0.049276,-0.020709,0,-0.0031793,0,0,0,0.027207,0.00026165,0.0082404,-1.3005,0.011903,0.023973,4.524e-07,0.25,0.94,0
0.013753,-0.0086403,0.027066,0.00025521,0.0081963,-0.00052474,0,0,0.04906,-0.020647,0,-0.0027287,0,0,0,0.027076,0.00024494,0.0081963,-1.1208,0.011839,0.02387,4.462e-07,0.26,0.94,0
0.014242,-0.0087618,0.026952,0.00023838,0.0081572,-0.00044423,0,0,0.048867,-0.020589,0,-0.00231,0,0,0,0.02696,0.00023099,0.0081572,-0.95244,0.011783,0.023778,4.407e-07,0.27,0.94,0
0.01473,-0.0088729,0.026851,0.00022458,0.0081227,-0.00036889,0,0,0.048694,-0.020535,0,-0.0019182,0,0,0,0.026856,0.00021947,0.0081227,-0.79358,0.011733,0.023695,4.3585e-07,0.28,0.94,0
0.015216,-0.0089739,0.026762,0.00021341,0.0080926,-0.00029785,0,0,0.04854,-0.020486,0,-0.0015488,0,0,0,0.026765,0.00021007,0.0080926,-0.6427,0.011689,0.023622,4.3159e-07,0.29,0.94,0
0.015701,-0.009065,0.026684,0.00020452,0.0080665,-0.00023036,0,0,0.048405,-0.020441,0,-0.0011979,0,0,0,0.026686,0.00020252,0.0080665,-0.49841,0.011652,0.023557,4.2787e-07,0.3,0.94,0
0.016184,-0.0091466,0.026616,0.00019759,0.0080441,-0.00016577,0,0,0.048287,-0.020401,0,-0.00086202,0,0,0,0.026617,0.00019655,0.0080441,-0.35951,0.011619,0.023501,4.2467e-07,0.31,0.94,0
0.016667,-0.0092189,0.026558,0.00019232,0.0080251,-0.00010352,0,0,0.048185,-0.020365,0,-0.00053831,0,0,0,0.026558,0.00019191,0.0080251,-0.22496,0.011592,0.023452,4.2194e-07,0.32,0.94,0
0.017148,-0.0092823,0.026509,0.00018843,0.0080094,-4.313e-05,0,0,0.0481,-0.020334,0,-0.00022428,0,0,0,0.026509,0.00018836,0.0080094,-0.093886,0.011569,0.023412,4.1967e-07,0.33,0.94,0
0.017629,-0.009337,0.02647,0.00018566,0.0079967,1.5796e-05,0,0,0.04803,-0.020309,0,8.2141e-05,0,0,0,0.02647,0.00018565,0.0079967,0.034434,0.011551,0.023379,4.1783e-07,0.34,0.94,0
0.018109,-0.0093833,0.026439,0.00018374,0.0079868,7.3575e-05,0,0,0.047976,-0.020288,0,0.00038259,0,0,0,0.026439,0.00018353,0.0079868,0.16056,0.011536,0.023353,4.1641e-07,0.35,0.94,0
0.018588,-0.0094213,0.026416,0.00018241,0.0079796,0.00013044,0,0,0.047935,-0.020273,0,0.00067831,0,0,0,0.026417,0.00018176,0.0079796,0.28488,0.011526,0.023335,4.1539e-07,0.36,0.94,0
0.019067,-0.0094514,0.026402,0.00018141,0.007975,0.00018657,0,0,0.04791,-0.020263,0,0.00097015,0,0,0,0.026403,0.00018008,0.007975,0.40765,0.011519,0.023324,4.1477e-07,0.37,0.94,0
0.019546,-0.0094739,0.026395,0.00018047,0.0079727,0.00024203,0,0,0.047898,-0.02026,0,0.0012586,0,0,0,0.026397,0.00017824,0.0079727,0.52894,0.011516,0.02332,4.1453e-07,0.38,0.94,0
0.020025,-0.0094889,0.026396,0.00017934,0.0079726,0.00029685,0,0,0.047901,-0.020262,0,0.0015436,0,0,0,0.026399,0.00017598,0.0079726,0.64864,0.011516,0.023324,4.1466e-07,0.39,0.94,0
0.020504,-0.0094967,0.026404,0.00017774,0.0079746,0.00035095,0,0,0.047917,-0.020272,0,0.0018249,0,0,0,0.026409,0.00017304,0.0079746,0.76651,0.011519,0.023335,4.1517e-07,0.4,0.94,0
0.020984,-0.0094978,0.02642,0.0001754,0.0079786,0.00040418,0,0,0.047947,-0.020288,0,0.0021018,0,0,0,0.026426,0.00016918,0.0079786,0.88212,0.011525,0.023353,4.1604e-07,0.41,0.94,0
0.021463,-0.0094923,0.026442,0.00017207,0.0079843,0.00045633,0,0,0.047991,-0.020312,0,0.0023729,0,0,0,0.02645,0.00016414,0.0079843,0.99487,0.011533,0.023379,4.1728e-07,0.42,0.94,0
0.021944,-0.0094806,0.026472,0.00016748,0.0079918,0.0005071,0,0,0.048048,-0.020343,0,0.0026369,0,0,0,0.026482,0.00015771,0.0079918,1.104,0.011544,0.023411,4.1887e-07,0.43,0.94,0
0.022424,-0.009463,0.026508,0.00016138,0.0080007,0.00055612,0,0,0.048118,-0.020382,0,0.0028918,0,0,0,0.026519,0.00014965,0.0080007,1.2087,0.011557,0.023451,4.2081e-07,0.44,0.94,0
0.022906,-0.00944,0.02655,0.00015356,0.008011,0.00060295,0,0,0.048201,-0.020429,0,0.0031353,0,0,0,0.026563,0.0001398,0.008011,1.3078,0.011571,0.023498,4.2309e-07,0.45,0.94,0
0.023388,-0.009412,0.026598,0.0001438,0.0080225,0.00064708,0,0,0.048296,-0.020484,0,0.0033648,0,0,0,0.026613,0.00012798,0.0080225,1.4004,0.011588,0.023552,4.2569e-07,0.46,0.94,0
0.023872,-0.0093793,0.026651,0.00013194,0.008035,0.00068796,0,0,0.048403,-0.020548,0,0.0035774,0,0,0,0.026669,0.0001141,0.008035,1.485,0.011606,0.023613,4.2862e-07,0.47,0.94,0
0.024356,-0.0093425,0.02671,0.00011784,0.0080484,0.00072499,0,0,0.048521,-0.020619,0,0.00377,0,0,0,0.02673,9.8086e-05,0.0080484,1.5605,0.011626,0.02368,4.3184e-07,0.48,0.94,0
0.024842,-0.009302,0.026774,0.00010141,0.0080625,0.00075755,0,0,0.048649,-0.020699,0,0.0039392,0,0,0,0.026795,7.9915e-05,0.0080625,1.6256,0.011646,0.023752,4.3533e-07,0.49,0.94,0
0.025329,-0.0092584,0.026841,8.2637e-05,0.0080772,0.00078496,0,0,0.048787,-0.020786,0,0.0040818,0,0,0,0.026864,5.963e-05,0.0080772,1.6788,0.011667,0.02383,4.3908e-07,0.5,0.94,0
0.025818,-0.0092122,0.026913,6.1538e-05,0.0080922,0.0008066,0,0,0.048933,-0.02088,0,0.0041943,0,0,0,0.026937,3.733e-05,0.0080922,1.7191,0.011689,0.023912,4.4304e-07,0.51,0.94,0
0.026308,-0.0091641,0.026987,3.8213e-05,0.0081075,0.00082181,0,0,0.049086,-0.02098,0,0.0042734,0,0,0,0.027012,1.3175e-05,0.0081075,1.7451,0.011711,0.023998,4.4718e-07,0.52,0.94,0
0.0268,-0.0091146,0.027063,1.2831e-05,0.0081227,0.00083,0,0,0.049245,-0.021086,0,0.004316,0,0,0,0.027088,-1.2613e-05,0.0081227,1.7558,0.011733,0.024087,4.5146e-07,0.53,0.94,0
0.027293,-0.0090644,0.027141,-1.4371e-05,0.0081379,0.00083063,0,0,0.049407,-0.021196,0,0.0043193,0,0,0,0.027166,-3.9755e-05,0.0081379,1.7504,0.011755,0.024177,4.5583e-07,0.54,0.94,0
0.027788,-0.0090141,0.027219,-4.3084e-05,0.0081527,0.00082323,0,0,0.049571,-0.021309,0,0.0042808,0,0,0,0.027244,-6.792e-05,0.0081527,1.7281,0.011776,0.024269,4.6025e-07,0.55,0.94,0
0.028284,-0.0089643,0.027296,-7.2931e-05,0.008167,0.00080742,0,0,0.049736,-0.021424,0,0.0041986,0,0,0,0.02732,-9.673e-05,0.008167,1.6883,0.011797,0.02436,4.6466e-07,0.56,0.94,0
0.028783,-0.0089158,0.027373,-0.00010348,0.0081807,0.00078297,0,0,0.049899,-0.021539,0,0.0040714,0,0,0,0.027395,-0.00012577,0.0081807,1.631,0.011817,0.024449,4.69e-07,0.57,0.94,0
0.029282,-0.0088692,0.027446,-0.00013423,0.0081936,0.00074974,0,0,0.050057,-0.021652,0,0.0038987,0,0,0,0.027467,-0.0001546,0.0081936,1.556,0.011835,0.024536,4.7322e-07,0.58,0.94,0
0.029784,-0.0088251,0.027517,-0.00016467,0.0082057,0.00070776,0,0,0.050209,-0.021763,0,0.0036804,0,0,0,0.027535,-0.00018275,0.0082057,1.4637,0.011853,0.02462,4.7726e-07,0.59,0.94,0
0.030287,-0.0087841,0.027583,-0.00019423,0.0082166,0.0006572,0,0,0.050353,-0.021868,0,0.0034174,0,0,0,0.027599,-0.00020977,0.0082166,1.3546,0.011869,0.024698,4.8107e-07,0.6,0.94,0
0.030791,-0.0087469,0.027644,-0.00022235,0.0082264,0.0005984,0,0,0.050485,-0.021967,0,0.0031117,0,0,0,0.027657,-0.0002352,0.0082264,1.2296,0.011883,0.02477,4.8457e-07,0.61,0.94,0
0.031296,-0.008714,0.027699,-0.00024848,0.008235,0.00053185,0,0,0.050605,-0.022057,0,0.0027656,0,0,0,0.027709,-0.0002586,0.008235,1.0898,0.011895,0.024835,4.8773e-07,0.62,0.94,0
0.031803,-0.0086859,0.027746,-0.00027207,0.0082422,0.0004582,0,0,0.05071,-0.022137,0,0.0023827,0,0,0,0.027754,-0.00027956,0.0082422,0.93666,0.011905,0.024892,4.9049e-07,0.63,0.94,0
0.03231,-0.008663,0.027786,-0.00029263,0.008248,0.00037825,0,0,0.050799,-0.022206,0,0.0019669,0,0,0,0.027791,-0.00029772,0.008248,0.77165,0.011914,0.024939,4.9281e-07,0.64,0.94,0
0.032819,-0.0086458,0.027818,-0.0003097,0.0082524,0.00029293,0,0,0.05087,-0.022261,0,0.0015233,0,0,0,0.027821,-0.00031276,0.0082524,0.59662,0.01192,0.024978,4.9465e-07,0.65,0.94,0
0.033328,-0.0086346,0.02784,-0.00032292,0.0082551,0.00020329,0,0,0.050921,-0.022303,0,0.0010571,0,0,0,0.027842,-0.00032439,0.0082551,0.41355,0.011924,0.025005,4.9597e-07,0.66,0.94,0
0.033837,-0.0086296,0.027853,-0.00033198,0.0082563,0.00011046,0,0,0.050951,-0.02233,0,0.00057438,0,0,0,0.027853,-0.00033241,0.0082563,0.22454,0.011926,0.025023,4.9676e-07,0.67,0.94,0
0.034347,-0.008631,0.027856,-0.00033666,0.0082559,1.5662e-05,0,0,0.050961,-0.022341,0,8.1442e-05,0,0,0,0.027856,-0.00033667,0.0082559,0.031829,0.011925,0.025028,4.9699e-07,0.68,0.94,0
0.034856,-0.0086389,0.02785,-0.00033684,0.0082539,-7.9841e-05,0,0,0.050949,-0.022336,0,-0.00041517,0,0,0,0.02785,-0.00033706,0.0082539,-0.16229,0.011922,0.025023,4.9665e-07,0.69,0.94,0
0.035366,-0.0086533,0.027833,-0.00033249,0.0082502,-0.00017477,0,0,0.050916,-0.022315,0,-0.00090878,0,0,0,0.027834,-0.00033357,0.0082502,-0.3555,0.011917,0.025007,4.9576e-07,0.7,0.94,0
0.035875,-0.0086741,0.027807,-0.00032368,0.008245,-0.00026784,0,0,0.050861,-0.022278,0,-0.0013928,0,0,0,0.02781,-0.00032624,0.008245,-0.54546,0.011909,0.024979,4.943e-07,0.71,0.94,0
0.036383,-0.0087012,0.027771,-0.00031059,0.0082381,-0.00035781,0,0,0.050786,-0.022227,0,-0.0018606,0,0,0,0.027776,-0.00031514,0.0082381,-0.72989,0.0119,0.02494,4.923e-07,0.72,0.94,0
0.03689,-0.0087344,0.027726,-0.00029344,0.0082298,-0.0004435,0,0,0.05069,-0.02216,0,-0.0023062,0,0,0,0.027733,-0.00030046,0.0082298,-0.90658,0.011888,0.02489,4.8978e-07,0.73,0.94,0
0.037397,-0.0087732,0.027672,-0.0002726,0.00822,-0.00052379,0,0,0.050577,-0.022081,0,-0.0027237,0,0,0,0.027682,-0.00028241,0.00822,-1.0734,0.011873,0.02483,4.8678e-07,0.74,0.94,0
0.037902,-0.0088175,0.027611,-0.00024844,0.0082087,-0.0005977,0,0,0.050446,-0.021989,0,-0.0031081,0,0,0,0.027624,-0.00026126,0.0082087,-1.2285,0.011857,0.024761,4.8332e-07,0.75,0.94,0
0.038406,-0.0088667,0.027542,-0.00022145,0.0081962,-0.00066435,0,0,0.050299,-0.021886,0,-0.0034546,0,0,0,0.027558,-0.00023734,0.0081962,-1.37,0.011839,0.024684,4.7945e-07,0.76,0.94,0
0.038908,-0.0089202,0.027467,-0.00019212,0.0081824,-0.00072299,0,0,0.050139,-0.021774,0,-0.0037595,0,0,0,0.027486,-0.000211,0.0081824,-1.4963,0.011819,0.024598,4.7523e-07,0.77,0.94,0
0.039409,-0.0089777,0.027386,-0.00016098,0.0081675,-0.00077304,0,0,0.049968,-0.021654,0,-0.0040198,0,0,0,0.027408,-0.00018266,0.0081675,-1.6062,0.011798,0.024507,4.707e-07,0.78,0.94,0
0.039907,-0.0090385,0.027301,-0.0001286,0.0081517,-0.00081405,0,0,0.049788,-0.021529,0,-0.0042331,0,0,0,0.027325,-0.00015274,0.0081517,-1.6984,0.011775,0.024409,4.6592e-07,0.79,0.94,0
0.040404,-0.0091019,0.027212,-9.55e-05,0.0081349,-0.00084575,0,0,0.0496,-0.021399,0,-0.0043979,0,0,0,0.027238,-0.00012167,0.0081349,-1.7723,0.011751,0.024307,4.6094e-07,0.8,0.94,0
0.040899,-0.0091674,0.02712,-6.2215e-05,0.0081175,-0.000868,0,0,0.049408,-0.021267,0,-0.0045136,0,0,0,0.027148,-8.9904e-05,0.0081175,-1.8271,0.011725,0.024202,4.5583e-07,0.81,0.94,0
0.041392,-0.0092342,0.027028,-2.9234e-05,0.0080995,-0.00088083,0,0,0.049213,-0.021135,0,-0.0045803,0,0,0,0.027056,-5.7879e-05,0.0080995,-1.8626,0.011699,0.024094,4.5065e-07,0.82,0.94,0
0.041884,-0.0093018,0.026934,2.995e-06,0.0080811,-0.00088438,0,0,0.049018,-0.021003,0,-0.0045988,0,0,0,0.026963,-2.6015e-05,0.0080811,-1.8788,0.011673,0.023986,4.4546e-07,0.83,0.94,0
0.042373,-0.0093694,0.026841,3.4079e-05,0.0080625,-0.00087892,0,0,0.048824,-0.020874,0,-0.0045704,0,0,0,0.02687,5.2928e-06,0.0080625,-1.8759,0.011646,0.023878,4.403e-07,0.84,0.94,0
0.04286,-0.0094365,0.026749,6.3684e-05,0.0080439,-0.00086482,0,0,0.048634,-0.020748,0,-0.0044971,0,0,0,0.026777,3.5686e-05,0.0080439,-1.8542,0.011619,0.023772,4.3523e-07,0.85,0.94,0
0.043346,-0.0095024,0.02666,9.1538e-05,0.0080254,-0.00084256,0,0,0.048449,-0.020628,0,-0.0043813,0,0,0,0.026686,6.4844e-05,0.0080254,-1.8146,0.011592,0.023668,4.3031e-07,0.86,0.94,0
0.043829,-0.0095665,0.026573,0.00011744,0.0080072,-0.00081265,0,0,0.048272,-0.020513,0,-0.0042258,0,0,0,0.026598,9.2497e-05,0.0080072,-1.7578,0.011566,0.023567,4.2557e-07,0.87,0.94,0
0.044311,-0.0096283,0.02649,0.00014123,0.0079895,-0.00077568,0,0,0.048102,-0.020406,0,-0.0040336,0,0,0,0.026513,0.00011842,0.0079895,-1.6848,0.01154,0.023471,4.2106e-07,0.88,0.94,0
0.044791,-0.0096871,0.026412,0.00016284,0.0079725,-0.00073226,0,0,0.047943,-0.020305,0,-0.0038077,0,0,0,0.026433,0.00014243,0.0079725,-1.5967,0.011516,0.02338,4.1681e-07,0.89,0.94,0
0.04527,-0.0097426,0.026339,0.00018223,0.0079563,-0.000683,0,0,0.047794,-0.020213,0,-0.0035516,0,0,0,0.026357,0.00016441,0.0079563,-1.4948,0.011492,0.023295,4.1284e-07,0.9,0.94,0
0.045747,-0.0097942,0.026271,0.00019941,0.0079411,-0.00062855,0,0,0.047658,-0.020129,0,-0.0032685,0,0,0,0.026286,0.00018426,0.0079411,-1.3803,0.01147,0.023217,4.092e-07,0.91,0.94,0
0.046223,-0.0098414,0.026209,0.00021442,0.0079271,-0.00056953,0,0,0.047534,-0.020053,0,-0.0029616,0,0,0,0.026222,0.00020195,0.0079271,-1.2545,0.01145,0.023145,4.0589e-07,0.92,0.94,0
0.046698,-0.0098841,0.026154,0.00022734,0.0079144,-0.00050654,0,0,0.047423,-0.019986,0,-0.002634,0,0,0,0.026164,0.00021744,0.0079144,-1.1188,0.011432,0.023082,4.0294e-07,0.93,0.94,0
0.047171,-0.0099217,0.026106,0.00023825,0.0079031,-0.00044017,0,0,0.047326,-0.019929,0,-0.0022889,0,0,0,0.026113,0.00023076,0.0079031,-0.97459,0.011416,0.023026,4.0035e-07,0.94,0.94,0
0.047644,-0.009954,0.026064,0.00024727,0.0078934,-0.00037096,0,0,0.047244,-0.01988,0,-0.001929,0,0,0,0.026069,0.00024194,0.0078934,-0.82305,0.011402,0.022978,3.9815e-07,0.95,0.94,0
0.048116,-0.0099808,0.02603,0.00025448,0.0078852,-0.00029945,0,0,0.047176,-0.01984,0,-0.0015571,0,0,0,0.026033,0.000251,0.0078852,-0.66552,0.01139,0.022939,3.9634e-07,0.96,0.94,0
0.048588,-0.010002,0.026003,0.00025998,0.0078788,-0.00022613,0,0,0.047122,-0.019809,0,-0.0011759,0,0,0,0.026005,0.00025799,0.0078788,-0.50324,0.011381,0.022908,3.9493e-07,0.97,0.94,0
0.049059,-0.010017,0.025984,0.00026384,0.0078742,-0.00015148,0,0,0.047084,-0.019787,0,-0.0007877,0,0,0,0.025985,0.00026295,0.0078742,-0.33744,0.011374,0.022886,3.9391e-07,0.98,0.94,0
0.049529,-0.010026,0.025972,0.00026614,0.0078714,-7.5958e-05,0,0,0.047061,-0.019774,0,-0.00039498,0,0,0,0.025972,0.00026591,0.0078714,-0.1693,0.01137,0.022872,3.9331e-07,0.99,0.94,0
0.05,-0.010029,0.025968,0.0002669,0.0078705,-5.8655e-05,0,0,0.047054,-0.019769,0,-0.00030501,0,0,0,0.025968,0.00026677,0.0078705,-0.13076,0.011369,0.022868,3.9311e-07,1,0.94,0
0,0,0.033838,0.014502,0.014502,-0.010149,0,0,0.050273,-2.1684e-19,0,-0.052776,0,0,0,0.038187,0.010153,0.014502,-23.196,0.020947,0.026132,8.3164e-07,0,0.95,0
0.00050274,-0.00052776,0.033674,0.012456,0.013839,-0.010025,0,0,0.05157,-0.0035952,0,-0.052131,0,0,0,0.037661,0.0084686,0.013839,-21.69,0.01999,0.026912,8.6825e-07,0.01,0.95,0
0.0010314,-0.0010889,0.034131,0.010211,0.013303,-0.0099052,0,0,0.054154,-0.0080379,0,-0.051507,0,0,0,0.0377,0.0066419,0.013303,-19.816,0.019215,0.028321,9.5274e-07,0.02,0.95,0
0.0015858,-0.0016621,0.034431,0.0079981,0.012729,-0.0093137,0,0,0.056426,-0.0123,0,-0.048431,0,0,0,0.037383,0.0050461,0.012729,-17.586,0.018386,0.029262,9.9405e-07,0.03,0.95,0
0.0021599,-0.0022276,0.034482,0.0061404,0.012187,-0.0084152,0,0,0.057969,-0.015721,0,-0.043759,0,0,0,0.036793,0.0038301,0.012187,-15.352,0.017603,0.02968,9.9259e-07,0.04,0.95,0
0.0027452,-0.0027717,0.034269,0.0047099,0.011694,-0.007406,0,0,0.058695,-0.018158,0,-0.038511,0,0,0,0.03602,0.0029581,0.011694,-13.308,0.016891,0.029675,9.6042e-07,0.05,0.95,0
0.0033338,-0.0032877,0.033846,0.0036469,0.011248,-0.0064275,0,0,0.058756,-0.019763,0,-0.033423,0,0,0,0.035157,0.0023358,0.011248,-11.529,0.016247,0.029397,9.1182e-07,0.06,0.95,0
0.0039203,-0.003773,0.033296,0.002859,0.010846,-0.0055462,0,0,0.058368,-0.020767,0,-0.02884,0,0,0,0.034275,0.0018798,0.010846,-10.012,0.015667,0.028972,8.5751e-07,0.07,0.95,0
0.0045012,-0.0042279,0.03269,0.0022717,0.010488,-0.0047814,0,0,0.057723,-0.021363,0,-0.024863,0,0,0,0.033424,0.0015379,0.010488,-8.726,0.01515,0.028485,8.0396e-07,0.08,0.95,0
0.0050748,-0.0046536,0.032075,0.0018292,0.010171,-0.0041284,0,0,0.05695,-0.02169,0,-0.021468,0,0,0,0.032629,0.0012758,0.010171,-7.6345,0.014692,0.027986,7.5426e-07,0.09,0.95,0
0.0056402,-0.0050521,0.031481,0.0014914,0.0098916,-0.0035744,0,0,0.056132,-0.021841,0,-0.018587,0,0,0,0.031901,0.0010713,0.0098916,-6.7039,0.014288,0.027502,7.0958e-07,0.1,0.95,0
0.0061974,-0.005425,0.030921,0.0012301,0.0096453,-0.0031045,0,0,0.055317,-0.02188,0,-0.016144,0,0,0,0.031242,0.00090894,0.0096453,-5.9059,0.013932,0.027045,6.7005e-07,0.11,0.95,0
0.0067465,-0.0057742,0.030402,0.0010253,0.0094283,-0.002705,0,0,0.054533,-0.021848,0,-0.014066,0,0,0,0.030649,0.00077827,0.0094283,-5.2172,0.013619,0.026622,6.3537e-07,0.12,0.95,0
0.007288,-0.0061013,0.029927,0.00086275,0.0092369,-0.0023638,0,0,0.053794,-0.021773,0,-0.012292,0,0,0,0.030118,0.00067175,0.0092369,-4.6195,0.013342,0.026234,6.0504e-07,0.13,0.95,0
0.0078224,-0.0064078,0.029494,0.00073234,0.0090679,-0.002071,0,0,0.053108,-0.021672,0,-0.010769,0,0,0,0.029642,0.00058398,0.0090679,-4.0975,0.013098,0.025881,5.7853e-07,0.14,0.95,0
0.0083502,-0.0066949,0.029101,0.00062663,0.0089182,-0.0018185,0,0,0.052475,-0.021558,0,-0.0094559,0,0,0,0.029216,0.00051097,0.0089182,-3.6394,0.012882,0.025561,5.5535e-07,0.15,0.95,0
0.0088719,-0.006964,0.028745,0.00054017,0.0087856,-0.0015994,0,0,0.051895,-0.021438,0,-0.0083166,0,0,0,0.028836,0.00044977,0.0087856,-3.2351,0.01269,0.025271,5.3505e-07,0.16,0.95,0
0.0093881,-0.007216,0.028424,0.0004689,0.0086678,-0.0014083,0,0,0.051366,-0.021317,0,-0.007323,0,0,0,0.028494,0.00039814,0.0086678,-2.8767,0.01252,0.025009,5.1723e-07,0.17,0.95,0
0.0098992,-0.0074519,0.028134,0.00040978,0.0085631,-0.0012407,0,0,0.050884,-0.021199,0,-0.0064517,0,0,0,0.028189,0.00035437,0.0085631,-2.5573,0.012369,0.024772,5.0157e-07,0.18,0.95,0
0.010406,-0.0076725,0.027873,0.00036047,0.0084699,-0.001093,0,0,0.050447,-0.021084,0,-0.0056835,0,0,0,0.027916,0.00031712,0.0084699,-2.2715,0.012234,0.024559,4.8777e-07,0.19,0.95,0
0.010908,-0.0078787,0.027637,0.00031919,0.0083869,-0.00096201,0,0,0.050051,-0.020976,0,-0.0050025,0,0,0,0.027671,0.00028535,0.0083869,-2.0143,0.012115,0.024367,4.7561e-07,0.2,0.95,0
0.011407,-0.008071,0.027426,0.00028454,0.0083131,-0.00084522,0,0,0.049693,-0.020874,0,-0.0043951,0,0,0,0.027452,0.00025824,0.0083131,-1.782,0.012008,0.024194,4.6487e-07,0.21,0.95,0
0.011902,-0.0082503,0.027236,0.00025541,0.0082474,-0.00074046,0,0,0.04937,-0.020779,0,-0.0038504,0,0,0,0.027256,0.00023511,0.0082474,-1.5709,0.011913,0.024038,4.5538e-07,0.22,0.95,0
0.012394,-0.0084168,0.027066,0.00023095,0.008189,-0.0006459,0,0,0.049079,-0.020691,0,-0.0033587,0,0,0,0.027081,0.00021541,0.008189,-1.378,0.011829,0.023898,4.47e-07,0.23,0.95,0
0.012884,-0.0085714,0.026914,0.00021043,0.0081372,-0.00055999,0,0,0.048819,-0.02061,0,-0.0029119,0,0,0,0.026925,0.00019869,0.0081372,-1.2008,0.011754,0.023773,4.396e-07,0.24,0.95,0
0.013371,-0.0087143,0.026778,0.0001933,0.0080915,-0.00048138,0,0,0.048586,-0.020535,0,-0.0025032,0,0,0,0.026787,0.00018458,0.0080915,-1.037,0.011688,0.023661,4.3308e-07,0.25,0.95,0
0.013855,-0.008846,0.026658,0.00017907,0.0080511,-0.00040893,0,0,0.048378,-0.020467,0,-0.0021264,0,0,0,0.026664,0.00017276,0.0080511,-0.88457,0.011629,0.023562,4.2736e-07,0.26,0.95,0
0.014338,-0.0089669,0.026552,0.00016736,0.0080158,-0.00034164,0,0,0.048194,-0.020406,0,-0.0017765,0,0,0,0.026557,0.00016294,0.0080158,-0.74172,0.011578,0.023474,4.2235e-07,0.27,0.95,0
0.014819,-0.0090774,0.026459,0.00015783,0.0079851,-0.00027864,0,0,0.048033,-0.020351,0,-0.0014489,0,0,0,0.026462,0.00015488,0.0079851,-0.60691,0.011534,0.023397,4.18e-07,0.28,0.95,0
0.015299,-0.0091779,0.026379,0.00015018,0.0079587,-0.00021918,0,0,0.047892,-0.020302,0,-0.0011397,0,0,0,0.026381,0.00014835,0.0079587,-0.47875,0.011496,0.023329,4.1425e-07,0.29,0.95,0
0.015777,-0.0092686,0.02631,0.00014417,0.0079362,-0.0001626,0,0,0.047772,-0.020259,0,-0.00084554,0,0,0,0.026311,0.00014316,0.0079362,-0.35604,0.011463,0.023271,4.1105e-07,0.3,0.95,0
0.016254,-0.0093498,0.026252,0.00013955,0.0079174,-0.00010835,0,0,0.04767,-0.020223,0,-0.00056341,0,0,0,0.026252,0.0001391,0.0079174,-0.23773,0.011436,0.023223,4.0838e-07,0.31,0.95,0
0.01673,-0.0094218,0.026204,0.00013612,0.0079021,-5.593e-05,0,0,0.047586,-0.020192,0,-0.00029084,0,0,0,0.026204,0.000136,0.0079021,-0.12293,0.011414,0.023182,4.0619e-07,0.32,0.95,0
0.017206,-0.0094849,0.026167,0.00013367,0.0078901,-4.9432e-06,0,0,0.047519,-0.020167,0,-2.5705e-05,0,0,0,0.026167,0.00013367,0.0078901,-0.010879,0.011397,0.023151,4.0448e-07,0.33,0.95,0
0.017681,-0.0095394,0.026138,0.00013201,0.0078811,4.4948e-05,0,0,0.047469,-0.020148,0,0.00023373,0,0,0,0.026138,0.00013193,0.0078811,0.099027,0.011384,0.023127,4.032e-07,0.34,0.95,0
0.018155,-0.0095855,0.026119,0.00013094,0.0078751,9.401e-05,0,0,0.047435,-0.020135,0,0.00048885,0,0,0,0.02612,0.0001306,0.0078751,0.20726,0.011375,0.023112,4.0235e-07,0.35,0.95,0
0.01863,-0.0096234,0.026109,0.00013029,0.0078719,0.00014244,0,0,0.047417,-0.020128,0,0.00074069,0,0,0,0.02611,0.00012951,0.0078719,0.31414,0.011371,0.023104,4.0192e-07,0.36,0.95,0
0.019104,-0.0096534,0.026108,0.00012985,0.0078712,0.00019037,0,0,0.047415,-0.020128,0,0.00098992,0,0,0,0.026109,0.00012846,0.0078712,0.41984,0.01137,0.023104,4.0189e-07,0.37,0.95,0
0.019578,-0.0096759,0.026114,0.00012944,0.0078732,0.00023786,0,0,0.047427,-0.020134,0,0.0012369,0,0,0,0.026117,0.00012726,0.0078732,0.52441,0.011372,0.023111,4.0227e-07,0.38,0.95,0
0.020052,-0.009691,0.026129,0.00012887,0.0078775,0.00028491,0,0,0.047455,-0.020146,0,0.0014815,0,0,0,0.026132,0.00012574,0.0078775,0.62773,0.011379,0.023127,4.0303e-07,0.39,0.95,0
0.020527,-0.009699,0.026152,0.00012793,0.0078841,0.00033143,0,0,0.047497,-0.020166,0,0.0017235,0,0,0,0.026156,0.0001237,0.0078841,0.72953,0.011388,0.02315,4.0417e-07,0.4,0.95,0
0.021002,-0.0097002,0.026183,0.00012643,0.0078928,0.0003773,0,0,0.047554,-0.020193,0,0.001962,0,0,0,0.026188,0.00012097,0.0078928,0.82942,0.011401,0.02318,4.057e-07,0.41,0.95,0
0.021478,-0.009695,0.026221,0.00012418,0.0079036,0.0004223,0,0,0.047625,-0.020226,0,0.002196,0,0,0,0.026228,0.00011735,0.0079036,0.92684,0.011416,0.023218,4.076e-07,0.42,0.95,0
0.021955,-0.0096837,0.026266,0.000121,0.0079162,0.00046616,0,0,0.047711,-0.020268,0,0.002424,0,0,0,0.026275,0.00011269,0.0079162,1.0211,0.011435,0.023263,4.0987e-07,0.43,0.95,0
0.022432,-0.0096666,0.026319,0.0001167,0.0079306,0.00050853,0,0,0.047809,-0.020316,0,0.0026444,0,0,0,0.026329,0.00010683,0.0079306,1.1114,0.011455,0.023316,4.1251e-07,0.44,0.95,0
0.022911,-0.0096441,0.026378,0.00011111,0.0079467,0.00054902,0,0,0.047921,-0.020372,0,0.0028549,0,0,0,0.026389,9.9638e-05,0.0079467,1.1969,0.011479,0.023376,4.1549e-07,0.45,0.95,0
0.023391,-0.0096166,0.026443,0.00010409,0.0079642,0.00058718,0,0,0.048045,-0.020436,0,0.0030533,0,0,0,0.026456,9.1007e-05,0.0079642,1.2765,0.011504,0.023442,4.1881e-07,0.46,0.95,0
0.023872,-0.0095846,0.026514,9.5515e-05,0.007983,0.00062251,0,0,0.048182,-0.020507,0,0.003237,0,0,0,0.026529,8.0855e-05,0.007983,1.3491,0.011531,0.023515,4.2246e-07,0.47,0.95,0
0.024354,-0.0095485,0.026591,8.5288e-05,0.0080029,0.00065446,0,0,0.048329,-0.020586,0,0.0034032,0,0,0,0.026607,6.9138e-05,0.0080029,1.4136,0.01156,0.023594,4.2641e-07,0.48,0.95,0
0.024838,-0.0095089,0.026672,7.3347e-05,0.0080237,0.00068248,0,0,0.048487,-0.020671,0,0.0035489,0,0,0,0.02669,5.5847e-05,0.0080237,1.4688,0.01159,0.023678,4.3064e-07,0.49,0.95,0
0.025324,-0.0094661,0.026758,5.9672e-05,0.0080453,0.00070598,0,0,0.048653,-0.020763,0,0.0036711,0,0,0,0.026777,4.1017e-05,0.0080453,1.5137,0.011621,0.023767,4.3512e-07,0.5,0.95,0
0.025811,-0.009421,0.026847,4.4286e-05,0.0080675,0.00072439,0,0,0.048828,-0.02086,0,0.0037668,0,0,0,0.026867,2.4723e-05,0.0080675,1.547,0.011653,0.02386,4.3981e-07,0.51,0.95,0
0.026301,-0.0093738,0.026939,2.7262e-05,0.0080899,0.00073714,0,0,0.049008,-0.020963,0,0.0038331,0,0,0,0.026959,7.0861e-06,0.0080899,1.5678,0.011685,0.023956,4.4469e-07,0.52,0.95,0
0.026791,-0.0093254,0.027033,8.7228e-06,0.0081125,0.00074371,0,0,0.049193,-0.02107,0,0.0038673,0,0,0,0.027053,-1.1728e-05,0.0081125,1.5752,0.011718,0.024055,4.4969e-07,0.53,0.95,0
0.027284,-0.0092763,0.027128,-1.1156e-05,0.008135,0.0007436,0,0,0.049381,-0.02118,0,0.0038667,0,0,0,0.027148,-3.1515e-05,0.008135,1.5683,0.011751,0.024155,4.5479e-07,0.54,0.95,0
0.027779,-0.0092271,0.027223,-3.2147e-05,0.0081571,0.00073642,0,0,0.04957,-0.021292,0,0.0038294,0,0,0,0.027242,-5.203e-05,0.0081571,1.5466,0.011782,0.024255,4.5991e-07,0.55,0.95,0
0.028276,-0.0091785,0.027316,-5.3973e-05,0.0081787,0.00072184,0,0,0.049758,-0.021405,0,0.0037536,0,0,0,0.027335,-7.2997e-05,0.0081787,1.5097,0.011814,0.024355,4.6501e-07,0.56,0.95,0
0.028774,-0.0091311,0.027408,-7.6316e-05,0.0081995,0.00069964,0,0,0.049942,-0.021517,0,0.0036381,0,0,0,0.027426,-9.4114e-05,0.0081995,1.4573,0.011844,0.024452,4.7002e-07,0.57,0.95,0
0.029275,-0.0090856,0.027497,-9.8816e-05,0.0082193,0.00066971,0,0,0.050121,-0.021627,0,0.0034825,0,0,0,0.027513,-0.00011506,0.0082193,1.3894,0.011872,0.024546,4.7488e-07,0.58,0.95,0
0.029777,-0.0090425,0.027581,-0.00012109,0.0082379,0.00063207,0,0,0.050291,-0.021733,0,0.0032868,0,0,0,0.027595,-0.0001355,0.0082379,1.3064,0.011899,0.024635,4.7953e-07,0.59,0.95,0
0.03028,-0.0090026,0.02766,-0.00014272,0.008255,0.00058688,0,0,0.050452,-0.021834,0,0.0030518,0,0,0,0.027672,-0.00015511,0.008255,1.2087,0.011924,0.024719,4.839e-07,0.6,0.95,0
0.030786,-0.0089663,0.027732,-0.00016331,0.0082706,0.00053443,0,0,0.0506,-0.021928,0,0.002779,0,0,0,0.027742,-0.00017354,0.0082706,1.0972,0.011946,0.024797,4.8793e-07,0.61,0.95,0
0.031293,-0.0089343,0.027797,-0.00018244,0.0082844,0.00047515,0,0,0.050733,-0.022014,0,0.0024708,0,0,0,0.027805,-0.0001905,0.0082844,0.97263,0.011966,0.024866,4.9157e-07,0.62,0.95,0
0.0318,-0.0089069,0.027854,-0.00019971,0.0082963,0.00040963,0,0,0.05085,-0.02209,0,0.0021301,0,0,0,0.02786,-0.00020569,0.0082963,0.83638,0.011983,0.024927,4.9475e-07,0.63,0.95,0
0.032309,-0.0088847,0.027902,-0.00021476,0.0083061,0.00033857,0,0,0.050949,-0.022154,0,0.0017606,0,0,0,0.027906,-0.00021884,0.0083061,0.6898,0.011998,0.024978,4.9744e-07,0.64,0.95,0
0.032819,-0.0088681,0.027939,-0.00022726,0.0083137,0.00026277,0,0,0.051027,-0.022206,0,0.0013664,0,0,0,0.027942,-0.00022971,0.0083137,0.53446,0.012009,0.025019,4.9957e-07,0.65,0.95,0
0.03333,-0.0088572,0.027967,-0.00023694,0.008319,0.00018318,0,0,0.051084,-0.022245,0,0.00095253,0,0,0,0.027968,-0.00023813,0.008319,0.3721,0.012016,0.025049,5.0113e-07,0.66,0.95,0
0.033841,-0.0088525,0.027983,-0.00024357,0.0083219,0.00010079,0,0,0.05112,-0.02227,0,0.00052408,0,0,0,0.027984,-0.00024393,0.0083219,0.20457,0.012021,0.025067,5.0207e-07,0.67,0.95,0
0.034352,-0.008854,0.027988,-0.00024698,0.0083225,1.6666e-05,0,0,0.051132,-0.022281,0,8.6664e-05,0,0,0,0.027989,-0.00024699,0.0083225,0.033819,0.012021,0.025074,5.0239e-07,0.68,0.95,0
0.034864,-0.0088618,0.027982,-0.0002471,0.0083206,-6.8064e-05,0,0,0.051121,-0.022276,0,-0.00035393,0,0,0,0.027983,-0.00024727,0.0083206,-0.13814,0.012019,0.025069,5.0207e-07,0.69,0.95,0
0.035375,-0.008876,0.027965,-0.0002439,0.0083163,-0.00015227,0,0,0.051086,-0.022256,0,-0.00079182,0,0,0,0.027966,-0.00024473,0.0083163,-0.30928,0.012012,0.025052,5.0112e-07,0.7,0.95,0
0.035885,-0.0088965,0.027936,-0.00023744,0.0083095,-0.00023483,0,0,0.051028,-0.022222,0,-0.0012211,0,0,0,0.027938,-0.0002394,0.0083095,-0.47754,0.012003,0.025023,4.9953e-07,0.71,0.95,0
0.036395,-0.0089231,0.027896,-0.00022783,0.0083004,-0.00031465,0,0,0.050948,-0.022173,0,-0.0016362,0,0,0,0.027899,-0.00023135,0.0083004,-0.64092,0.01199,0.024983,4.9733e-07,0.72,0.95,0
0.036904,-0.0089556,0.027845,-0.00021525,0.0082891,-0.00039067,0,0,0.050847,-0.022111,0,-0.0020315,0,0,0,0.027851,-0.00022069,0.0082891,-0.79749,0.011973,0.024931,4.9455e-07,0.73,0.95,0
0.037412,-0.0089938,0.027785,-0.00019996,0.0082755,-0.00046193,0,0,0.050725,-0.022036,0,-0.0024021,0,0,0,0.027793,-0.00020758,0.0082755,-0.94541,0.011954,0.024869,4.9122e-07,0.74,0.95,0
0.037919,-0.0090371,0.027715,-0.00018225,0.0082599,-0.00052754,0,0,0.050584,-0.02195,0,-0.0027432,0,0,0,0.027725,-0.00019222,0.0082599,-1.083,0.011931,0.024796,4.8739e-07,0.75,0.95,0
0.038424,-0.0090853,0.027637,-0.00016246,0.0082425,-0.00058673,0,0,0.050427,-0.021853,0,-0.003051,0,0,0,0.02765,-0.00017484,0.0082425,-1.2086,0.011906,0.024715,4.831e-07,0.76,0.95,0
0.038927,-0.0091378,0.027552,-0.00014096,0.0082232,-0.00063885,0,0,0.050254,-0.021747,0,-0.003322,0,0,0,0.027566,-0.00015569,0.0082232,-1.3208,0.011878,0.024626,4.7841e-07,0.77,0.95,0
0.039429,-0.0091941,0.02746,-0.00011814,0.0082025,-0.00068337,0,0,0.050069,-0.021633,0,-0.0035535,0,0,0,0.027477,-0.00013506,0.0082025,-1.4186,0.011848,0.02453,4.7338e-07,0.78,0.95,0
0.039929,-0.0092537,0.027362,-9.4399e-05,0.0081803,-0.0007199,0,0,0.049873,-0.021514,0,-0.0037435,0,0,0,0.027381,-0.00011326,0.0081803,-1.5009,0.011816,0.024427,4.6807e-07,0.79,0.95,0
0.040426,-0.0093158,0.02726,-7.0142e-05,0.0081571,-0.0007482,0,0,0.049669,-0.021391,0,-0.0038906,0,0,0,0.027281,-9.0609e-05,0.0081571,-1.567,0.011782,0.02432,4.6255e-07,0.8,0.95,0
0.040922,-0.00938,0.027155,-4.5748e-05,0.0081329,-0.00076814,0,0,0.049459,-0.021264,0,-0.0039943,0,0,0,0.027177,-6.7422e-05,0.0081329,-1.6163,0.011748,0.024209,4.5689e-07,0.81,0.95,0
0.041416,-0.0094456,0.027049,-2.1576e-05,0.0081081,-0.00077974,0,0,0.049245,-0.021137,0,-0.0040546,0,0,0,0.027071,-4.4017e-05,0.0081081,-1.6485,0.011712,0.024096,4.5115e-07,0.82,0.95,0
0.041907,-0.0095119,0.026941,2.0453e-06,0.0080829,-0.00078312,0,0,0.049031,-0.02101,0,-0.0040722,0,0,0,0.026964,-2.0701e-05,0.0080829,-1.6638,0.011675,0.023982,4.4539e-07,0.83,0.95,0
0.042396,-0.0095782,0.026833,2.4828e-05,0.0080574,-0.00077852,0,0,0.048817,-0.020885,0,-0.0040483,0,0,0,0.026856,2.2388e-06,0.0080574,-1.662,0.011638,0.023868,4.3967e-07,0.84,0.95,0
0.042883,-0.0096441,0.026727,4.6528e-05,0.0080321,-0.00076627,0,0,0.048607,-0.020762,0,-0.0039846,0,0,0,0.026749,2.4539e-05,0.0080321,-1.6437,0.011602,0.023755,4.3405e-07,0.85,0.95,0
0.043368,-0.0097088,0.026623,6.6947e-05,0.008007,-0.00074675,0,0,0.048402,-0.020644,0,-0.0038831,0,0,0,0.026644,4.5965e-05,0.008007,-1.6095,0.011566,0.023645,4.2859e-07,0.86,0.95,0
0.043852,-0.0097718,0.026522,8.5933e-05,0.0079825,-0.00072044,0,0,0.048204,-0.020531,0,-0.0037463,0,0,0,0.026542,6.6315e-05,0.0079825,-1.5599,0.01153,0.023538,4.2333e-07,0.87,0.95,0
0.044332,-0.0098325,0.026426,0.00010338,0.0079588,-0.00068785,0,0,0.048014,-0.020424,0,-0.0035768,0,0,0,0.026444,8.5419e-05,0.0079588,-1.4959,0.011496,0.023436,4.1832e-07,0.88,0.95,0
0.044812,-0.0098903,0.026334,0.00011923,0.0079361,-0.0006495,0,0,0.047835,-0.020324,0,-0.0033774,0,0,0,0.02635,0.00010314,0.0079361,-1.4184,0.011463,0.023338,4.136e-07,0.89,0.95,0
0.045289,-0.0099448,0.026248,0.00013344,0.0079146,-0.00060596,0,0,0.047668,-0.020231,0,-0.003151,0,0,0,0.026263,0.00011939,0.0079146,-1.3285,0.011432,0.023247,4.0919e-07,0.9,0.95,0
0.045765,-0.0099956,0.026169,0.00014604,0.0078945,-0.00055778,0,0,0.047514,-0.020146,0,-0.0029004,0,0,0,0.026181,0.00013409,0.0078945,-1.2273,0.011403,0.023163,4.0513e-07,0.91,0.95,0
0.04624,-0.010042,0.026096,0.00015705,0.007876,-0.0005055,0,0,0.047373,-0.020069,0,-0.0026286,0,0,0,0.026106,0.0001472,0.007876,-1.116,0.011376,0.023086,4.0145e-07,0.92,0.95,0
0.046713,-0.010084,0.026031,0.00016652,0.0078593,-0.00044968,0,0,0.047247,-0.020001,0,-0.0023383,0,0,0,0.026039,0.00015871,0.0078593,-0.99573,0.011352,0.023017,3.9816e-07,0.93,0.95,0
0.047184,-0.010121,0.025974,0.00017453,0.0078445,-0.00039082,0,0,0.047136,-0.019942,0,-0.0020323,0,0,0,0.02598,0.00016861,0.0078445,-0.86767,0.011331,0.022957,3.9528e-07,0.94,0.95,0
0.047655,-0.010153,0.025925,0.00018114,0.0078318,-0.00032942,0,0,0.047042,-0.019892,0,-0.001713,0,0,0,0.025929,0.00017693,0.0078318,-0.73299,0.011313,0.022905,3.9282e-07,0.95,0.95,0
0.048125,-0.010179,0.025884,0.00018643,0.0078212,-0.00026594,0,0,0.046964,-0.01985,0,-0.0013829,0,0,0,0.025887,0.00018368,0.0078212,-0.59286,0.011297,0.022862,3.908e-07,0.96,0.95,0
0.048595,-0.0102,0.025853,0.00019046,0.0078129,-0.00020085,0,0,0.046903,-0.019818,0,-0.0010444,0,0,0,0.025854,0.00018889,0.0078129,-0.4484,0.011285,0.022829,3.8922e-07,0.97,0.95,0
0.049063,-0.010215,0.02583,0.0001933,0.0078069,-0.00013455,0,0,0.046859,-0.019795,0,-0.00069968,0,0,0,0.02583,0.00019259,0.0078069,-0.30071,0.011277,0.022805,3.8808e-07,0.98,0.95,0
0.049532,-0.010224,0.025816,0.00019498,0.0078033,-6.7473e-05,0,0,0.046833,-0.019782,0,-0.00035086,0,0,0,0.025816,0.0001948,0.0078033,-0.15089,0.011271,0.02279,3.874e-07,0.99,0.95,0
0.05,-0.010227,0.025811,0.00019554,0.0078021,-5.7794e-05,0,0,0.046824,-0.019777,0,-0.00030053,0,0,0,0.025811,0.00019541,0.0078021,-0.12927,0.01127,0.022786,3.8718e-07,1,0.95,0
0,0,0.035665,0.015285,0.015285,-0.010923,0,0,0.052988,2.1684e-19,0,-0.056801,0,0,0,0.040413,0.010537,0.015285,-23.495,0.022078,0.027808,9.9677e-07,0,0.96,0
0.00052988,-0.00056801,0.035395,0.012546,0.014382,-0.010683,0,0,0.054632,-0.0047742,0,-0.055553,0,0,0,0.039611,0.0083291,0.014382,-21.54,0.020774,0.028738,1.039e-06,0.01,0.96,0
0.0010926,-0.001179,0.035833,0.0095392,0.013612,-0.010344,0,0,0.057776,-0.010589,0,-0.053791,0,0,0,0.039415,0.0059575,0.013612,-19.098,0.019661,0.030363,1.1355e-06,0.02,0.96,0
0.0016854,-0.0017984,0.036002,0.0068833,0.012866,-0.0093586,0,0,0.060155,-0.015554,0,-0.048665,0,0,0,0.038751,0.0041349,0.012866,-16.366,0.018584,0.031181,1.1553e-06,0.03,0.96,0
0.0022957,-0.0023989,0.035781,0.0049376,0.012216,-0.0080761,0,0,0.061269,-0.018922,0,-0.041996,0,0,0,0.037767,0.0029509,0.012216,-13.82,0.017645,0.031232,1.113e-06,0.04,0.96,0
0.0029108,-0.0029663,0.035215,0.0036157,0.011649,-0.0068177,0,0,0.061272,-0.020887,0,-0.035452,0,0,0,0.036624,0.0022075,0.011649,-11.67,0.016827,0.030801,1.039e-06,0.05,0.96,0
0.0035212,-0.0034962,0.034437,0.0027017,0.011142,-0.0057185,0,0,0.060568,-0.021944,0,-0.029736,0,0,0,0.035436,0.0017027,0.011142,-9.9093,0.016094,0.030143,9.557e-07,0.06,0.96,0
0.0041221,-0.0039895,0.03359,0.002062,0.010696,-0.0048046,0,0,0.059525,-0.022447,0,-0.024984,0,0,0,0.034306,0.0013461,0.010696,-8.4752,0.015449,0.029421,8.7653e-07,0.07,0.96,0
0.0047117,-0.0044484,0.032755,0.001605,0.010308,-0.0040567,0,0,0.058362,-0.022628,0,-0.021095,0,0,0,0.033274,0.0010853,0.010308,-7.2996,0.014889,0.028711,8.0616e-07,0.08,0.96,0
0.0052894,-0.0048758,0.031971,0.0012718,0.0099729,-0.0034459,0,0,0.057195,-0.022623,0,-0.017919,0,0,0,0.032353,0.00088975,0.0099729,-6.3264,0.014405,0.028047,7.4549e-07,0.09,0.96,0
0.0058556,-0.0052745,0.031254,0.001024,0.0096833,-0.0029447,0,0,0.056083,-0.022514,0,-0.015312,0,0,0,0.031538,0.00073978,0.0096833,-5.5122,0.013987,0.027442,6.9379e-07,0.1,0.96,0
0.006411,-0.0056467,0.030606,0.00083614,0.0094327,-0.0025305,0,0,0.055051,-0.022351,0,-0.013159,0,0,0,0.03082,0.00062257,0.0094327,-4.8241,0.013625,0.026897,6.4988e-07,0.11,0.96,0
0.0069566,-0.0059948,0.030026,0.00069133,0.0092151,-0.0021853,0,0,0.054107,-0.022162,0,-0.011364,0,0,0,0.030187,0.00052942,0.0092151,-4.2373,0.013311,0.026409,6.1255e-07,0.12,0.96,0
0.0074932,-0.0063205,0.029507,0.00057796,0.0090255,-0.0018953,0,0,0.053252,-0.021964,0,-0.0098557,0,0,0,0.029631,0.00045431,0.0090255,-3.7325,0.013037,0.025974,5.8071e-07,0.13,0.96,0
0.0080217,-0.0066254,0.029045,0.00048796,0.0088597,-0.0016496,0,0,0.05248,-0.021767,0,-0.0085782,0,0,0,0.029139,0.00039298,0.0088597,-3.2952,0.012797,0.025586,5.5345e-07,0.14,0.96,0
0.0085428,-0.006911,0.028632,0.00041565,0.0087144,-0.0014399,0,0,0.051786,-0.021577,0,-0.0074877,0,0,0,0.028705,0.00034236,0.0087144,-2.9138,0.012587,0.025241,5.3001e-07,0.15,0.96,0
0.0090574,-0.0071785,0.028265,0.00035695,0.0085865,-0.0012596,0,0,0.051164,-0.021397,0,-0.0065501,0,0,0,0.028322,0.00030022,0.0085865,-2.5791,0.012403,0.024933,5.0978e-07,0.16,0.96,0
0.0095661,-0.007429,0.027937,0.00030888,0.0084739,-0.0011035,0,0,0.050605,-0.021229,0,-0.0057383,0,0,0,0.027981,0.00026487,0.0084739,-2.2836,0.01224,0.024659,4.9224e-07,0.17,0.96,0
0.01007,-0.0076635,0.027645,0.00026921,0.0083744,-0.00096747,0,0,0.050105,-0.021073,0,-0.0050308,0,0,0,0.027679,0.00023506,0.0083744,-2.0215,0.012096,0.024414,4.77e-07,0.18,0.96,0
0.010568,-0.0078828,0.027385,0.00023628,0.0082864,-0.00084813,0,0,0.049657,-0.02093,0,-0.0044103,0,0,0,0.027412,0.00020981,0.0082864,-1.7876,0.011969,0.024196,4.6371e-07,0.19,0.96,0
0.011063,-0.0080878,0.027153,0.00020883,0.0082086,-0.00074279,0,0,0.049256,-0.020799,0,-0.0038625,0,0,0,0.027174,0.00018837,0.0082086,-1.5779,0.011857,0.024002,4.521e-07,0.2,0.96,0
0.011553,-0.008279,0.026947,0.00018588,0.0081399,-0.00064918,0,0,0.048898,-0.02068,0,-0.0033757,0,0,0,0.026963,0.00017014,0.0081399,-1.3888,0.011758,0.023829,4.4195e-07,0.21,0.96,0
0.012041,-0.0084572,0.026764,0.00016667,0.0080791,-0.00056546,0,0,0.04858,-0.020572,0,-0.0029404,0,0,0,0.026776,0.00015465,0.0080791,-1.2174,0.01167,0.023675,4.3306e-07,0.22,0.96,0
0.012525,-0.0086228,0.026601,0.00015059,0.0080254,-0.00049006,0,0,0.048296,-0.020475,0,-0.0025483,0,0,0,0.02661,0.00014151,0.0080254,-1.0611,0.011592,0.023539,4.2529e-07,0.23,0.96,0
0.013007,-0.0087765,0.026457,0.00013716,0.0079783,-0.00042166,0,0,0.048045,-0.020387,0,-0.0021926,0,0,0,0.026464,0.00013041,0.0079783,-0.91759,0.011524,0.023418,4.185e-07,0.24,0.96,0
0.013486,-0.0089186,0.02633,0.000126,0.0079369,-0.00035913,0,0,0.047823,-0.020309,0,-0.0018675,0,0,0,0.026335,0.00012108,0.0079369,-0.78504,0.011465,0.023311,4.1258e-07,0.25,0.96,0
0.013963,-0.0090496,0.02622,0.00011678,0.0079009,-0.00030151,0,0,0.047629,-0.020239,0,-0.0015679,0,0,0,0.026223,0.0001133,0.0079009,-0.66171,0.011413,0.023217,4.0745e-07,0.26,0.96,0
0.014438,-0.00917,0.026124,0.00010923,0.0078698,-0.00024798,0,0,0.04746,-0.020178,0,-0.0012895,0,0,0,0.026126,0.00010687,0.0078698,-0.5461,0.011367,0.023136,4.0304e-07,0.27,0.96,0
0.014912,-0.0092799,0.026041,0.00010314,0.0078432,-0.0001978,0,0,0.047314,-0.020124,0,-0.0010286,0,0,0,0.026042,0.00010163,0.0078432,-0.4369,0.011329,0.023066,3.9926e-07,0.28,0.96,0
0.015385,-0.0093799,0.025971,9.8305e-05,0.0078207,-0.00015036,0,0,0.04719,-0.020078,0,-0.00078188,0,0,0,0.025972,9.7431e-05,0.0078207,-0.33297,0.011297,0.023006,3.9609e-07,0.29,0.96,0
0.015856,-0.0094702,0.025913,9.4551e-05,0.0078022,-0.00010513,0,0,0.047087,-0.02004,0,-0.00054665,0,0,0,0.025913,9.4123e-05,0.0078022,-0.23329,0.01127,0.022957,3.9347e-07,0.3,0.96,0
0.016326,-0.009551,0.025866,9.1725e-05,0.0077873,-6.1628e-05,0,0,0.047004,-0.020008,0,-0.00032046,0,0,0,0.025866,9.1578e-05,0.0077873,-0.137,0.011248,0.022917,3.9137e-07,0.31,0.96,0
0.016796,-0.0096228,0.02583,8.9684e-05,0.0077759,-1.9474e-05,0,0,0.04694,-0.019984,0,-0.00010127,0,0,0,0.02583,8.9669e-05,0.0077759,-0.043348,0.011232,0.022887,3.8975e-07,0.32,0.96,0
0.017265,-0.0096857,0.025804,8.8291e-05,0.0077677,2.1667e-05,0,0,0.046894,-0.019966,0,0.00011267,0,0,0,0.025804,8.8273e-05,0.0077677,0.048274,0.01122,0.022865,3.8861e-07,0.33,0.96,0
0.017734,-0.00974,0.025788,8.7418e-05,0.0077627,6.2065e-05,0,0,0.046866,-0.019956,0,0.00032274,0,0,0,0.025788,8.7268e-05,0.0077627,0.13836,0.011213,0.022851,3.8791e-07,0.34,0.96,0
0.018202,-0.009786,0.025782,8.6934e-05,0.0077606,0.00010194,0,0,0.046855,-0.019952,0,0.00053006,0,0,0,0.025782,8.653e-05,0.0077606,0.22729,0.01121,0.022847,3.8765e-07,0.35,0.96,0
0.018671,-0.0098239,0.025785,8.6713e-05,0.0077614,0.00014143,0,0,0.046861,-0.019954,0,0.00073544,0,0,0,0.025785,8.5935e-05,0.0077614,0.31532,0.011211,0.02285,3.8781e-07,0.36,0.96,0
0.01914,-0.009854,0.025797,8.6626e-05,0.007765,0.00018065,0,0,0.046883,-0.019964,0,0.00093938,0,0,0,0.025798,8.5357e-05,0.007765,0.40256,0.011216,0.022862,3.8838e-07,0.37,0.96,0
0.019609,-0.0098765,0.025818,8.6543e-05,0.0077713,0.00021964,0,0,0.046921,-0.01998,0,0.0011421,0,0,0,0.025819,8.4669e-05,0.0077713,0.48902,0.011225,0.022881,3.8937e-07,0.38,0.96,0
0.020078,-0.0098918,0.025847,8.6334e-05,0.0077801,0.00025837,0,0,0.046975,-0.020004,0,0.0013435,0,0,0,0.02585,8.3743e-05,0.0077801,0.57458,0.011238,0.022909,3.9076e-07,0.39,0.96,0
0.020548,-0.0099001,0.025885,8.5864e-05,0.0077913,0.00029679,0,0,0.047044,-0.020034,0,0.0015433,0,0,0,0.025889,8.245e-05,0.0077913,0.659,0.011254,0.022944,3.9254e-07,0.4,0.96,0
0.021019,-0.0099016,0.025932,8.5002e-05,0.007805,0.00033475,0,0,0.047129,-0.020072,0,0.0017407,0,0,0,0.025936,8.0667e-05,0.007805,0.7419,0.011274,0.022988,3.9473e-07,0.41,0.96,0
0.021491,-0.0098968,0.025986,8.3616e-05,0.0078209,0.00037208,0,0,0.047229,-0.020117,0,0.0019348,0,0,0,0.025991,7.8272e-05,0.0078209,0.8228,0.011297,0.023039,3.9731e-07,0.42,0.96,0
0.021964,-0.0098859,0.026048,8.1578e-05,0.0078389,0.00040851,0,0,0.047344,-0.020169,0,0.0021243,0,0,0,0.026055,7.5152e-05,0.0078389,0.9011,0.011323,0.023098,4.0027e-07,0.43,0.96,0
0.022438,-0.0098694,0.026118,7.8765e-05,0.007859,0.00044377,0,0,0.047473,-0.020228,0,0.0023076,0,0,0,0.026125,7.1204e-05,0.007859,0.97609,0.011352,0.023164,4.0361e-07,0.44,0.96,0
0.022913,-0.0098475,0.026195,7.5064e-05,0.0078809,0.0004775,0,0,0.047616,-0.020295,0,0.002483,0,0,0,0.026203,6.6338e-05,0.0078809,1.047,0.011383,0.023237,4.0732e-07,0.45,0.96,0
0.02339,-0.0098207,0.026278,7.0375e-05,0.0079046,0.00050931,0,0,0.047772,-0.020369,0,0.0026484,0,0,0,0.026288,6.0481e-05,0.0079046,1.1129,0.011418,0.023317,4.1139e-07,0.46,0.96,0
0.023869,-0.0097894,0.026368,6.4611e-05,0.0079298,0.00053876,0,0,0.04794,-0.020449,0,0.0028015,0,0,0,0.026379,5.3581e-05,0.0079298,1.1729,0.011454,0.023404,4.158e-07,0.47,0.96,0
0.024349,-0.0097542,0.026464,5.7709e-05,0.0079564,0.00056539,0,0,0.048119,-0.020537,0,0.00294,0,0,0,0.026476,4.5608e-05,0.0079564,1.226,0.011493,0.023496,4.2052e-07,0.48,0.96,0
0.024831,-0.0097154,0.026564,4.9626e-05,0.0079842,0.00058872,0,0,0.048308,-0.02063,0,0.0030613,0,0,0,0.026577,3.656e-05,0.0079842,1.2713,0.011533,0.023593,4.2554e-07,0.49,0.96,0
0.025315,-0.0096736,0.026669,4.0348e-05,0.0080129,0.00060824,0,0,0.048507,-0.020729,0,0.0031629,0,0,0,0.026683,2.6462e-05,0.0080129,1.3078,0.011574,0.023696,4.3083e-07,0.5,0.96,0
0.025801,-0.0096294,0.026778,2.9892e-05,0.0080424,0.00062346,0,0,0.048713,-0.020832,0,0.003242,0,0,0,0.026793,1.5368e-05,0.0080424,1.3345,0.011617,0.023801,4.3634e-07,0.51,0.96,0
0.026289,-0.0095834,0.026889,1.8308e-05,0.0080723,0.0006339,0,0,0.048924,-0.02094,0,0.0032963,0,0,0,0.026904,3.3624e-06,0.0080723,1.3506,0.01166,0.02391,4.4203e-07,0.52,0.96,0
0.02678,-0.009536,0.027002,5.6803e-06,0.0081024,0.00063909,0,0,0.04914,-0.021052,0,0.0033233,0,0,0,0.027017,-9.4405e-06,0.0081024,1.3554,0.011704,0.024021,4.4786e-07,0.53,0.96,0
0.027272,-0.009488,0.027116,-7.8703e-06,0.0081324,0.00063864,0,0,0.049357,-0.021165,0,0.0033209,0,0,0,0.027131,-2.2899e-05,0.0081324,1.348,0.011747,0.024133,4.5377e-07,0.54,0.96,0
0.027767,-0.0094399,0.027229,-2.2188e-05,0.0081621,0.00063219,0,0,0.049575,-0.021279,0,0.0032874,0,0,0,0.027244,-3.6846e-05,0.0081621,1.3282,0.01179,0.024244,4.5971e-07,0.55,0.96,0
0.028264,-0.0093924,0.027341,-3.7084e-05,0.0081912,0.00061946,0,0,0.04979,-0.021393,0,0.0032212,0,0,0,0.027355,-5.1093e-05,0.0081912,1.2955,0.011832,0.024355,4.6561e-07,0.56,0.96,0
0.028762,-0.0093462,0.02745,-5.2339e-05,0.0082193,0.00060026,0,0,0.05,-0.021506,0,0.0031213,0,0,0,0.027463,-6.5434e-05,0.0082193,1.2497,0.011872,0.024462,4.7141e-07,0.57,0.96,0
0.029264,-0.0093017,0.027555,-6.7707e-05,0.0082462,0.00057449,0,0,0.050203,-0.021616,0,0.0029874,0,0,0,0.027567,-7.9651e-05,0.0082462,1.1909,0.011911,0.024566,4.7703e-07,0.58,0.96,0
0.029767,-0.0092598,0.027655,-8.2924e-05,0.0082715,0.00054219,0,0,0.050396,-0.021722,0,0.0028194,0,0,0,0.027665,-9.3518e-05,0.0082715,1.1194,0.011948,0.024664,4.8241e-07,0.59,0.96,0
0.030271,-0.0092208,0.027748,-9.7711e-05,0.008295,0.00050347,0,0,0.050577,-0.021821,0,0.002618,0,0,0,0.027757,-0.00010681,0.008295,1.0355,0.011982,0.024756,4.8747e-07,0.6,0.96,0
0.030778,-0.0091855,0.027834,-0.00011178,0.0083165,0.00045858,0,0,0.050744,-0.021914,0,0.0023846,0,0,0,0.027841,-0.00011931,0.0083165,0.93988,0.012013,0.024841,4.9214e-07,0.61,0.96,0
0.031286,-0.0091543,0.027911,-0.00012486,0.0083357,0.0004079,0,0,0.050895,-0.021997,0,0.0021211,0,0,0,0.027917,-0.00013079,0.0083357,0.83338,0.012041,0.024917,4.9636e-07,0.62,0.96,0
0.031796,-0.0091277,0.027978,-0.00013667,0.0083524,0.00035191,0,0,0.051026,-0.022072,0,0.0018299,0,0,0,0.027982,-0.00014108,0.0083524,0.71702,0.012065,0.024984,5.0006e-07,0.63,0.96,0
0.032307,-0.0091061,0.028035,-0.00014697,0.0083663,0.00029121,0,0,0.051137,-0.022134,0,0.0015143,0,0,0,0.028037,-0.00014997,0.0083663,0.59197,0.012085,0.02504,5.0319e-07,0.64,0.96,0
0.032819,-0.0090899,0.02808,-0.00015552,0.0083772,0.00022649,0,0,0.051226,-0.022185,0,0.0011777,0,0,0,0.028081,-0.00015734,0.0083772,0.45956,0.012101,0.025085,5.057e-07,0.65,0.96,0
0.033331,-0.0090795,0.028113,-0.00016214,0.0083852,0.00015854,0,0,0.051292,-0.022223,0,0.00082441,0,0,0,0.028114,-0.00016302,0.0083852,0.32125,0.012112,0.025118,5.0754e-07,0.66,0.96,0
0.033844,-0.009075,0.028133,-0.00016667,0.0083899,8.8218e-05,0,0,0.051332,-0.022247,0,0.00045873,0,0,0,0.028133,-0.00016694,0.0083899,0.1786,0.012119,0.025139,5.0869e-07,0.67,0.96,0
0.034358,-0.0090766,0.02814,-0.000169,0.0083914,1.6432e-05,0,0,0.051347,-0.022257,0,8.5447e-05,0,0,0,0.02814,-0.00016901,0.0083914,0.033257,0.012121,0.025147,5.0911e-07,0.68,0.96,0
0.034871,-0.0090844,0.028135,-0.00016908,0.0083897,-5.5868e-05,0,0,0.051337,-0.022253,0,-0.00029051,0,0,0,0.028135,-0.00016919,0.0083897,-0.11309,0.012118,0.025142,5.0881e-07,0.69,0.96,0
0.035385,-0.0090984,0.028116,-0.00016688,0.0083847,-0.00012772,0,0,0.051301,-0.022234,0,-0.00066414,0,0,0,0.028116,-0.00016746,0.0083847,-0.25873,0.012111,0.025124,5.0778e-07,0.7,0.96,0
0.035897,-0.0091185,0.028084,-0.00016245,0.0083764,-0.00019816,0,0,0.051239,-0.022201,0,-0.0010304,0,0,0,0.028085,-0.00016384,0.0083764,-0.40193,0.012099,0.025094,5.0602e-07,0.71,0.96,0
0.036409,-0.0091447,0.028039,-0.00015587,0.008365,-0.00026626,0,0,0.051153,-0.022154,0,-0.0013845,0,0,0,0.028042,-0.00015838,0.008365,-0.541,0.012083,0.02505,5.0357e-07,0.72,0.96,0
0.036921,-0.0091766,0.027982,-0.00014726,0.0083505,-0.00033112,0,0,0.051042,-0.022094,0,-0.0017218,0,0,0,0.027986,-0.00015115,0.0083505,-0.67432,0.012062,0.024995,5.0046e-07,0.73,0.96,0
0.03743,-0.009214,0.027914,-0.00013679,0.0083331,-0.00039192,0,0,0.05091,-0.022022,0,-0.002038,0,0,0,0.027919,-0.00014226,0.0083331,-0.80032,0.012037,0.024929,4.9672e-07,0.74,0.96,0
0.037939,-0.0092565,0.027835,-0.00012466,0.008313,-0.0004479,0,0,0.050757,-0.021938,0,-0.0023291,0,0,0,0.027842,-0.00013184,0.008313,-0.91755,0.012008,0.024852,4.9242e-07,0.75,0.96,0
0.038446,-0.0093037,0.027746,-0.00011112,0.0082904,-0.00049842,0,0,0.050584,-0.021844,0,-0.0025918,0,0,0,0.027755,-0.00012003,0.0082904,-1.0247,0.011975,0.024765,4.876e-07,0.76,0.96,0
0.03895,-0.0093552,0.027648,-9.6403e-05,0.0082656,-0.00054291,0,0,0.050395,-0.021741,0,-0.0028231,0,0,0,0.027659,-0.00010702,0.0082656,-1.1206,0.011939,0.024669,4.8233e-07,0.77,0.96,0
0.039453,-0.0094104,0.027543,-8.079e-05,0.0082387,-0.00058093,0,0,0.050192,-0.021631,0,-0.0030208,0,0,0,0.027555,-9.3002e-05,0.0082387,-1.2042,0.0119,0.024566,4.7668e-07,0.78,0.96,0
0.039954,-0.0094688,0.027432,-6.4553e-05,0.0082101,-0.00061214,0,0,0.049976,-0.021514,0,-0.0031832,0,0,0,0.027445,-7.8174e-05,0.0082101,-1.2747,0.011859,0.024456,4.7073e-07,0.79,0.96,0
0.040453,-0.0095297,0.027315,-4.7962e-05,0.0081801,-0.00063635,0,0,0.049751,-0.021393,0,-0.003309,0,0,0,0.02733,-6.2753e-05,0.0081801,-1.3315,0.011816,0.024341,4.6454e-07,0.8,0.96,0
0.040949,-0.0095926,0.027195,-3.1281e-05,0.008149,-0.00065343,0,0,0.049519,-0.021269,0,-0.0033979,0,0,0,0.02721,-4.6954e-05,0.008149,-1.3741,0.011771,0.024223,4.582e-07,0.81,0.96,0
0.041443,-0.0096569,0.027072,-1.4755e-05,0.0081171,-0.00066341,0,0,0.049282,-0.021143,0,-0.0034498,0,0,0,0.027088,-3.0993e-05,0.0081171,-1.4022,0.011725,0.024101,4.5177e-07,0.82,0.96,0
0.041935,-0.009722,0.026948,1.3924e-06,0.0080848,-0.00066639,0,0,0.049044,-0.021017,0,-0.0034652,0,0,0,0.026964,-1.5078e-05,0.0080848,-1.4158,0.011678,0.023978,4.4532e-07,0.83,0.96,0
0.042424,-0.0097871,0.026824,1.6964e-05,0.0080523,-0.00066257,0,0,0.048806,-0.020892,0,-0.0034454,0,0,0,0.02684,5.9719e-07,0.0080523,-1.415,0.011631,0.023856,4.3893e-07,0.84,0.96,0
0.042911,-0.0098518,0.026701,3.1792e-05,0.0080199,-0.00065222,0,0,0.048571,-0.020769,0,-0.0033915,0,0,0,0.026717,1.5851e-05,0.0080199,-1.4001,0.011584,0.023734,4.3266e-07,0.85,0.96,0
0.043396,-0.0099153,0.026581,4.5741e-05,0.0079881,-0.00063568,0,0,0.048342,-0.02065,0,-0.0033056,0,0,0,0.026596,3.0522e-05,0.0079881,-1.3715,0.011538,0.023615,4.2656e-07,0.86,0.96,0
0.043878,-0.0099772,0.026465,5.871e-05,0.007957,-0.00061335,0,0,0.04812,-0.020536,0,-0.0031894,0,0,0,0.026479,4.447e-05,0.007957,-1.3299,0.011494,0.023499,4.2069e-07,0.87,0.96,0
0.044358,-0.010037,0.026353,7.0624e-05,0.007927,-0.00058566,0,0,0.047907,-0.020427,0,-0.0030454,0,0,0,0.026366,5.758e-05,0.007927,-1.2759,0.01145,0.023388,4.151e-07,0.88,0.96,0
0.044836,-0.010094,0.026247,8.1441e-05,0.0078984,-0.00055306,0,0,0.047705,-0.020324,0,-0.0028759,0,0,0,0.026258,6.9756e-05,0.0078984,-1.2104,0.011409,0.023283,4.0983e-07,0.89,0.96,0
0.045312,-0.010147,0.026147,9.1144e-05,0.0078714,-0.00051603,0,0,0.047516,-0.020229,0,-0.0026834,0,0,0,0.026157,8.0929e-05,0.0078714,-1.1341,0.01137,0.023184,4.0492e-07,0.9,0.96,0
0.045786,-0.010197,0.026054,9.9739e-05,0.0078463,-0.00047503,0,0,0.047341,-0.020141,0,-0.0024702,0,0,0,0.026063,9.1048e-05,0.0078463,-1.0482,0.011333,0.023093,4.004e-07,0.91,0.96,0
0.046259,-0.010243,0.02597,0.00010725,0.0078231,-0.00043054,0,0,0.047182,-0.020061,0,-0.0022388,0,0,0,0.025977,0.00010008,0.0078231,-0.95347,0.0113,0.023009,3.9629e-07,0.92,0.96,0
0.04673,-0.010284,0.025894,0.00011371,0.0078023,-0.00038302,0,0,0.047038,-0.01999,0,-0.0019917,0,0,0,0.0259,0.00010802,0.0078023,-0.85099,0.01127,0.022934,3.9262e-07,0.93,0.96,0
0.0472,-0.01032,0.025827,0.00011917,0.0077839,-0.0003329,0,0,0.046912,-0.019928,0,-0.0017311,0,0,0,0.025832,0.00011486,0.0077839,-0.74177,0.011243,0.022868,3.8941e-07,0.94,0.96,0
0.047668,-0.010352,0.02577,0.00012367,0.0077681,-0.00028061,0,0,0.046805,-0.019875,0,-0.0014592,0,0,0,0.025773,0.0001206,0.0077681,-0.6268,0.01122,0.022811,3.8667e-07,0.95,0.96,0
0.048136,-0.010378,0.025722,0.00012727,0.0077549,-0.00022655,0,0,0.046716,-0.019832,0,-0.001178,0,0,0,0.025725,0.00012527,0.0077549,-0.50708,0.011202,0.022764,3.8442e-07,0.96,0.96,0
0.048602,-0.010398,0.025685,0.00013002,0.0077446,-0.0001711,0,0,0.046646,-0.019798,0,-0.00088972,0,0,0,0.025687,0.00012888,0.0077446,-0.38359,0.011187,0.022728,3.8266e-07,0.97,0.96,0
0.049069,-0.010413,0.025659,0.00013195,0.0077372,-0.00011463,0,0,0.046596,-0.019774,0,-0.00059607,0,0,0,0.025659,0.00013144,0.0077372,-0.25728,0.011176,0.022701,3.8139e-07,0.98,0.96,0
0.049534,-0.010422,0.025643,0.0001331,0.0077327,-5.7481e-05,0,0,0.046566,-0.019759,0,-0.0002989,0,0,0,0.025643,0.00013297,0.0077327,-0.1291,0.01117,0.022686,3.8063e-07,0.99,0.96,0
0.05,-0.010425,0.025637,0.00013348,0.0077312,-5.6887e-05,0,0,0.046556,-0.019754,0,-0.00029581,0,0,0,0.025637,0.00013335,0.0077312,-0.1278,0.011167,0.02268,3.8039e-07,1,0.96,0
0,0,0.03841,0.016461,0.016461,-0.011985,0,0,0.057066,0,0,-0.062325,0,0,0,0.043686,0.011185,0.016461,-23.761,0.023777,0.030211,1.2717e-06,0,0.97,0
0.00057066,-0.00062325,0.037895,0.012396,0.015087,-0.011434,0,0,0.059299,-0.0069974,0,-0.059458,0,0,0,0.042271,0.0080196,0.015087,-20.944,0.021792,0.031321,1.3113e-06,0.01,0.97,0
0.001186,-0.0013006,0.038169,0.0081752,0.013903,-0.010611,0,0,0.06309,-0.014893,0,-0.055177,0,0,0,0.041543,0.0048009,0.013903,-17.64,0.020082,0.033142,1.4051e-06,0.02,0.97,0
0.0018325,-0.0019732,0.037992,0.005193,0.012956,-0.0089128,0,0,0.065096,-0.020183,0,-0.046347,0,0,0,0.040258,0.0029275,0.012956,-14.261,0.018714,0.033463,1.3578e-06,0.03,0.97,0
0.0024879,-0.002606,0.037249,0.0035172,0.01223,-0.0071924,0,0,0.065049,-0.022653,0,-0.037401,0,0,0,0.038718,0.0020477,0.01223,-11.548,0.017665,0.032788,1.2392e-06,0.04,0.97,0
0.0031335,-0.0031895,0.036063,0.0024565,0.011556,-0.0057634,0,0,0.063718,-0.023658,0,-0.02997,0,0,0,0.037024,0.0014955,0.011556,-9.4659,0.016692,0.031718,1.1002e-06,0.05,0.97,0
0.0037623,-0.0037265,0.034808,0.0017752,0.010975,-0.004659,0,0,0.061966,-0.023919,0,-0.024227,0,0,0,0.035452,0.0011307,0.010975,-7.8764,0.015853,0.030611,9.7588e-07,0.06,0.97,0
0.0043728,-0.0042219,0.033626,0.0013211,0.010484,-0.0038112,0,0,0.060169,-0.023824,0,-0.019818,0,0,0,0.03407,0.00087758,0.010484,-6.6381,0.015144,0.029583,8.7233e-07,0.07,0.97,0
0.0049657,-0.0046804,0.032566,0.0010091,0.010073,-0.0031556,0,0,0.058484,-0.023565,0,-0.016409,0,0,0,0.032879,0.00069665,0.010073,-5.6547,0.014549,0.028668,7.8815e-07,0.08,0.97,0
0.0055424,-0.0051061,0.031634,0.00078824,0.0097268,-0.0026411,0,0,0.05696,-0.02324,0,-0.013734,0,0,0,0.031859,0.00056374,0.0097268,-4.8586,0.01405,0.027867,7.1991e-07,0.09,0.97,0
0.0061049,-0.0055024,0.030821,0.0006277,0.0094345,-0.0022312,0,0,0.055604,-0.022898,0,-0.011602,0,0,0,0.030985,0.00046371,0.0094345,-4.2036,0.013628,0.02717,6.6429e-07,0.1,0.97,0
0.0066545,-0.005872,0.030111,0.0005082,0.0091858,-0.0018998,0,0,0.054406,-0.022562,0,-0.0098789,0,0,0,0.030233,0.00038677,0.0091858,-3.657,0.013268,0.026563,6.1859e-07,0.11,0.97,0
0.007193,-0.0062175,0.029492,0.00041735,0.0089729,-0.0016282,0,0,0.053351,-0.022244,0,-0.0084668,0,0,0,0.029583,0.00032645,0.0089729,-3.1953,0.012961,0.026034,5.8071e-07,0.12,0.97,0
0.0077215,-0.0065406,0.028951,0.00034701,0.0087895,-0.001403,0,0,0.052421,-0.02195,0,-0.0072957,0,0,0,0.02902,0.00027836,0.0087895,-2.8013,0.012696,0.025571,5.4904e-07,0.13,0.97,0
0.0082414,-0.0068431,0.028477,0.00029168,0.0086307,-0.0012142,0,0,0.051601,-0.021681,0,-0.0063139,0,0,0,0.028529,0.00023947,0.0086307,-2.4622,0.012467,0.025166,5.2235e-07,0.14,0.97,0
0.0087536,-0.0071265,0.028061,0.00024756,0.0084925,-0.0010544,0,0,0.050878,-0.021437,0,-0.0054829,0,0,0,0.028101,0.00020764,0.0084925,-2.1679,0.012267,0.024811,4.9972e-07,0.15,0.97,0
0.0092589,-0.0073919,0.027695,0.00021195,0.008372,-0.00091794,0,0,0.050239,-0.021216,0,-0.0047733,0,0,0,0.027725,0.00018132,0.008372,-1.9109,0.012093,0.024498,4.8039e-07,0.16,0.97,0
0.0097583,-0.0076406,0.027372,0.00018293,0.0082665,-0.00080047,0,0,0.049674,-0.021017,0,-0.0041624,0,0,0,0.027395,0.00015939,0.0082665,-1.6849,0.01194,0.024222,4.6382e-07,0.17,0.97,0
0.010252,-0.0078733,0.027087,0.0001591,0.0081739,-0.00069858,0,0,0.049175,-0.020838,0,-0.0036326,0,0,0,0.027105,0.00014099,0.0081739,-1.485,0.011807,0.023979,4.4955e-07,0.18,0.97,0
0.010742,-0.0080911,0.026836,0.00013939,0.0080926,-0.00060956,0,0,0.048733,-0.020678,0,-0.0031697,0,0,0,0.02685,0.00012548,0.0080926,-1.3073,0.011689,0.023765,4.3721e-07,0.19,0.97,0
0.011227,-0.0082947,0.026614,0.00012302,0.0080212,-0.00053123,0,0,0.048342,-0.020535,0,-0.0027624,0,0,0,0.026625,0.00011237,0.0080212,-1.1483,0.011586,0.023575,4.2652e-07,0.2,0.97,0
0.011709,-0.0084846,0.026419,0.00010938,0.0079585,-0.00046182,0,0,0.047997,-0.020408,0,-0.0024015,0,0,0,0.026427,0.00010127,0.0079585,-1.0053,0.011496,0.023408,4.1725e-07,0.21,0.97,0
0.012187,-0.0086617,0.026247,9.7992e-05,0.0079035,-0.00039987,0,0,0.047693,-0.020294,0,-0.0020793,0,0,0,0.026253,9.1879e-05,0.0079035,-0.87589,0.011416,0.023261,4.0921e-07,0.22,0.97,0
0.012663,-0.0088263,0.026096,8.8499e-05,0.0078553,-0.00034415,0,0,0.047426,-0.020194,0,-0.0017896,0,0,0,0.0261,8.3946e-05,0.0078553,-0.758,0.011347,0.023132,4.0225e-07,0.23,0.97,0
0.013135,-0.0089791,0.025964,8.0603e-05,0.0078134,-0.00029364,0,0,0.047192,-0.020105,0,-0.0015269,0,0,0,0.025967,7.7272e-05,0.0078134,-0.6499,0.011286,0.023019,3.9622e-07,0.24,0.97,0
0.013606,-0.0091204,0.025849,7.4066e-05,0.007777,-0.00024748,0,0,0.046988,-0.020028,0,-0.0012869,0,0,0,0.025852,7.169e-05,0.007777,-0.55006,0.011234,0.02292,3.9104e-07,0.25,0.97,0
0.014075,-0.0092508,0.025751,6.8695e-05,0.0077458,-0.00020493,0,0,0.046813,-0.01996,0,-0.0010656,0,0,0,0.025752,6.706e-05,0.0077458,-0.45715,0.011188,0.022836,3.8662e-07,0.26,0.97,0
0.014543,-0.0093705,0.025667,6.4329e-05,0.0077193,-0.00016534,0,0,0.046663,-0.019903,0,-0.00085978,0,0,0,0.025668,6.3261e-05,0.0077193,-0.37,0.01115,0.022763,3.8287e-07,0.27,0.97,0
0.015009,-0.0094799,0.025596,6.0831e-05,0.0076971,-0.00012818,0,0,0.046537,-0.019854,0,-0.00066651,0,0,0,0.025597,6.0188e-05,0.0076971,-0.28759,0.011118,0.022703,3.7975e-07,0.28,0.97,0
0.015473,-0.0095794,0.025538,5.8086e-05,0.0076789,-9.2953e-05,0,0,0.046434,-0.019814,0,-0.00048335,0,0,0,0.025538,5.7747e-05,0.0076789,-0.20902,0.011092,0.022653,3.772e-07,0.29,0.97,0
0.015937,-0.0096694,0.025492,5.5989e-05,0.0076645,-5.9265e-05,0,0,0.046352,-0.019782,0,-0.00030818,0,0,0,0.025493,5.5851e-05,0.0076645,-0.1335,0.011071,0.022614,3.752e-07,0.3,0.97,0
0.0164,-0.0097499,0.025458,5.4446e-05,0.0076537,-2.6761e-05,0,0,0.046291,-0.019758,0,-0.00013916,0,0,0,0.025458,5.4418e-05,0.0076537,-0.060358,0.011055,0.022584,3.7369e-07,0.31,0.97,0
0.016863,-0.0098215,0.025434,5.3372e-05,0.0076463,4.859e-06,0,0,0.046249,-0.019742,0,2.5267e-05,0,0,0,0.025434,5.3372e-05,0.0076463,0.010969,0.011045,0.022564,3.7267e-07,0.32,0.97,0
0.017325,-0.0098843,0.025421,5.2686e-05,0.0076422,3.5845e-05,0,0,0.046226,-0.019733,0,0.0001864,0,0,0,0.025421,5.2635e-05,0.0076422,0.080958,0.011039,0.022553,3.7211e-07,0.33,0.97,0
0.017788,-0.0099385,0.025418,5.2306e-05,0.0076412,6.6401e-05,0,0,0.04622,-0.019731,0,0.00034529,0,0,0,0.025419,5.2133e-05,0.0076412,0.14998,0.011037,0.022551,3.72e-07,0.34,0.97,0
0.01825,-0.0099845,0.025425,5.2158e-05,0.0076432,9.6686e-05,0,0,0.046233,-0.019737,0,0.00050277,0,0,0,0.025426,5.1789e-05,0.0076432,0.21832,0.01104,0.022558,3.7232e-07,0.35,0.97,0
0.018712,-0.010023,0.025442,5.2161e-05,0.0076482,0.00012681,0,0,0.046264,-0.01975,0,0.00065943,0,0,0,0.025443,5.1528e-05,0.0076482,0.28616,0.011048,0.022573,3.7307e-07,0.36,0.97,0
0.019175,-0.010053,0.025468,5.2239e-05,0.0076561,0.00015685,0,0,0.046311,-0.01977,0,0.00081562,0,0,0,0.025469,5.1271e-05,0.0076561,0.35357,0.011059,0.022596,3.7424e-07,0.37,0.97,0
0.019638,-0.010075,0.025504,5.2311e-05,0.0076668,0.00018683,0,0,0.046376,-0.019798,0,0.00097149,0,0,0,0.025505,5.094e-05,0.0076668,0.42055,0.011074,0.022629,3.7583e-07,0.38,0.97,0
0.020103,-0.010091,0.025548,5.2298e-05,0.0076802,0.00021672,0,0,0.046457,-0.019832,0,0.0011269,0,0,0,0.02555,5.0456e-05,0.0076802,0.48696,0.011094,0.022669,3.7784e-07,0.39,0.97,0
0.020568,-0.0101,0.025602,5.2118e-05,0.0076963,0.00024646,0,0,0.046555,-0.019875,0,0.0012816,0,0,0,0.025604,4.9741e-05,0.0076963,0.55261,0.011117,0.022718,3.8027e-07,0.4,0.97,0
0.021034,-0.010102,0.025665,5.1689e-05,0.0077149,0.00027593,0,0,0.046669,-0.019924,0,0.0014349,0,0,0,0.025668,4.8716e-05,0.0077149,0.61716,0.011144,0.022775,3.8311e-07,0.41,0.97,0
0.021501,-0.010097,0.025736,5.093e-05,0.0077361,0.00030499,0,0,0.0468,-0.019981,0,0.001586,0,0,0,0.02574,4.7309e-05,0.0077361,0.68022,0.011174,0.02284,3.8636e-07,0.42,0.97,0
0.02197,-0.010087,0.025816,4.9762e-05,0.0077596,0.00033343,0,0,0.046946,-0.020046,0,0.0017339,0,0,0,0.02582,4.5447e-05,0.0077596,0.7413,0.011208,0.022913,3.9002e-07,0.43,0.97,0
0.02244,-0.010071,0.025903,4.8109e-05,0.0077855,0.00036101,0,0,0.047107,-0.020117,0,0.0018773,0,0,0,0.025908,4.3069e-05,0.0077855,0.7998,0.011246,0.022994,3.9409e-07,0.44,0.97,0
0.022912,-0.01005,0.025999,4.5902e-05,0.0078134,0.00038744,0,0,0.047282,-0.020196,0,0.0020147,0,0,0,0.026005,4.012e-05,0.0078134,0.85509,0.011286,0.023081,3.9855e-07,0.45,0.97,0
0.023386,-0.010024,0.026102,4.3078e-05,0.0078435,0.0004124,0,0,0.047472,-0.020281,0,0.0021445,0,0,0,0.026108,3.6553e-05,0.0078435,0.90645,0.011329,0.023176,4.0339e-07,0.46,0.97,0
0.023861,-0.0099936,0.026211,3.9584e-05,0.0078753,0.00043554,0,0,0.047674,-0.020373,0,0.0022648,0,0,0,0.026219,3.2338e-05,0.0078753,0.95314,0.011375,0.023278,4.0861e-07,0.47,0.97,0
0.024339,-0.0099592,0.026327,3.538e-05,0.0079088,0.00045648,0,0,0.047888,-0.020471,0,0.0023737,0,0,0,0.026335,2.7457e-05,0.0079088,0.99438,0.011424,0.023385,4.1416e-07,0.48,0.97,0
0.024819,-0.0099215,0.026449,3.044e-05,0.0079437,0.00047483,0,0,0.048113,-0.020574,0,0.0024691,0,0,0,0.026457,2.1908e-05,0.0079437,1.0294,0.011474,0.023498,4.2004e-07,0.49,0.97,0
0.025301,-0.0098807,0.026575,2.4755e-05,0.0079798,0.00049018,0,0,0.048346,-0.020683,0,0.0025489,0,0,0,0.026584,1.5708e-05,0.0079798,1.0574,0.011526,0.023616,4.262e-07,0.5,0.97,0
0.025786,-0.0098376,0.026704,1.8335e-05,0.0080168,0.00050213,0,0,0.048588,-0.020796,0,0.0026111,0,0,0,0.026714,8.8902e-06,0.0080168,1.0776,0.01158,0.023737,4.3261e-07,0.51,0.97,0
0.026273,-0.0097926,0.026837,1.1212e-05,0.0080544,0.00051029,0,0,0.048834,-0.020912,0,0.0026535,0,0,0,0.026847,1.5082e-06,0.0080544,1.0894,0.011634,0.023861,4.3923e-07,0.52,0.97,0
0.026763,-0.0097464,0.026971,3.4368e-06,0.0080924,0.00051428,0,0,0.049085,-0.021031,0,0.0026743,0,0,0,0.026981,-6.3672e-06,0.0080924,1.0921,0.011689,0.023986,4.4599e-07,0.53,0.97,0
0.027255,-0.0096996,0.027106,-4.9148e-06,0.0081303,0.00051379,0,0,0.049336,-0.021152,0,0.0026717,0,0,0,0.027116,-1.4648e-05,0.0081303,1.0853,0.011744,0.024112,4.5285e-07,0.54,0.97,0
0.027749,-0.0096527,0.02724,-1.3747e-05,0.0081678,0.00050851,0,0,0.049587,-0.021272,0,0.0026442,0,0,0,0.027249,-2.3231e-05,0.0081678,1.0686,0.011798,0.024238,4.5973e-07,0.55,0.97,0
0.028247,-0.0096063,0.027372,-2.2942e-05,0.0082046,0.00049822,0,0,0.049834,-0.021392,0,0.0025908,0,0,0,0.027381,-3.2e-05,0.0082046,1.0416,0.011851,0.024362,4.6658e-07,0.56,0.97,0
0.028746,-0.0095612,0.0275,-3.2363e-05,0.0082403,0.00048278,0,0,0.050075,-0.021509,0,0.0025104,0,0,0,0.027509,-4.0826e-05,0.0082403,1.0043,0.011903,0.024483,4.733e-07,0.57,0.97,0
0.029248,-0.0095179,0.027624,-4.186e-05,0.0082745,0.00046209,0,0,0.050308,-0.021623,0,0.0024029,0,0,0,0.027631,-4.9576e-05,0.0082745,0.95663,0.011952,0.024599,4.7983e-07,0.58,0.97,0
0.029752,-0.009477,0.027741,-5.1267e-05,0.0083069,0.00043617,0,0,0.050529,-0.021731,0,0.0022681,0,0,0,0.027748,-5.811e-05,0.0083069,0.89889,0.011999,0.024709,4.8608e-07,0.59,0.97,0
0.030259,-0.009439,0.027851,-6.0412e-05,0.0083371,0.00040511,0,0,0.050736,-0.021834,0,0.0021066,0,0,0,0.027857,-6.629e-05,0.0083371,0.83138,0.012042,0.024813,4.9197e-07,0.6,0.97,0
0.030767,-0.0094046,0.027952,-6.9118e-05,0.0083648,0.00036913,0,0,0.050926,-0.021928,0,0.0019195,0,0,0,0.027956,-7.398e-05,0.0083648,0.75461,0.012082,0.024907,4.9742e-07,0.61,0.97,0
0.031277,-0.0093742,0.028042,-7.721e-05,0.0083895,0.00032851,0,0,0.051097,-0.022013,0,0.0017083,0,0,0,0.028046,-8.1048e-05,0.0083895,0.66925,0.012118,0.024993,5.0235e-07,0.62,0.97,0
0.031789,-0.0093484,0.028122,-8.4521e-05,0.0084111,0.00028364,0,0,0.051247,-0.022089,0,0.0014749,0,0,0,0.028125,-8.7373e-05,0.0084111,0.57609,0.012149,0.025067,5.0669e-07,0.63,0.97,0
0.032302,-0.0093274,0.028189,-9.0894e-05,0.0084293,0.000235,0,0,0.051374,-0.022153,0,0.001222,0,0,0,0.028191,-9.2847e-05,0.0084293,0.47607,0.012176,0.025131,5.1037e-07,0.64,0.97,0
0.032816,-0.0093118,0.028242,-9.6189e-05,0.0084438,0.00018313,0,0,0.051476,-0.022204,0,0.0009523,0,0,0,0.028244,-9.7373e-05,0.0084438,0.37025,0.012197,0.025181,5.1334e-07,0.65,0.97,0
0.033332,-0.0093017,0.028282,-0.00010029,0.0084545,0.00012868,0,0,0.051551,-0.022242,0,0.00066916,0,0,0,0.028282,-0.00010087,0.0084545,0.25977,0.012212,0.025219,5.1553e-07,0.66,0.97,0
0.033847,-0.0092974,0.028307,-0.00010309,0.0084611,7.2332e-05,0,0,0.051599,-0.022267,0,0.00037613,0,0,0,0.028307,-0.00010328,0.0084611,0.14587,0.012222,0.025242,5.1692e-07,0.67,0.97,0
0.034363,-0.0092991,0.028317,-0.00010454,0.0084637,1.4809e-05,0,0,0.051618,-0.022277,0,7.7009e-05,0,0,0,0.028317,-0.00010455,0.0084637,0.029855,0.012225,0.025252,5.1747e-07,0.68,0.97,0
0.03488,-0.0093069,0.028311,-0.00010458,0.0084621,-4.3123e-05,0,0,0.051608,-0.022273,0,-0.00022424,0,0,0,0.028311,-0.00010465,0.0084621,-0.08695,0.012223,0.025247,5.1719e-07,0.69,0.97,0
0.035396,-0.0093207,0.028291,-0.00010322,0.0084563,-0.00010069,0,0,0.05157,-0.022255,0,-0.0005236,0,0,0,0.028291,-0.00010358,0.0084563,-0.20318,0.012215,0.025229,5.1606e-07,0.7,0.97,0
0.035911,-0.0093405,0.028255,-0.00010048,0.0084464,-0.00015713,0,0,0.051503,-0.022222,0,-0.00081707,0,0,0,0.028256,-0.00010135,0.0084464,-0.31748,0.0122,0.025195,5.1409e-07,0.71,0.97,0
0.036426,-0.0093662,0.028205,-9.6396e-05,0.0084325,-0.00021168,0,0,0.051408,-0.022175,0,-0.0011007,0,0,0,0.028206,-9.7979e-05,0.0084325,-0.42852,0.01218,0.025149,5.1133e-07,0.72,0.97,0
0.036939,-0.0093975,0.02814,-9.1061e-05,0.0084148,-0.00026364,0,0,0.051286,-0.022115,0,-0.0013709,0,0,0,0.028143,-9.3522e-05,0.0084148,-0.53499,0.012155,0.025089,5.078e-07,0.73,0.97,0
0.037451,-0.0094342,0.028063,-8.4575e-05,0.0083934,-0.00031234,0,0,0.05114,-0.022043,0,-0.0016241,0,0,0,0.028066,-8.8041e-05,0.0083934,-0.63568,0.012124,0.025016,5.0355e-07,0.74,0.97,0
0.037962,-0.0094759,0.027972,-7.7067e-05,0.0083686,-0.00035717,0,0,0.05097,-0.021959,0,-0.0018573,0,0,0,0.027977,-8.1614e-05,0.0083686,-0.72942,0.012088,0.024932,4.9865e-07,0.75,0.97,0
0.038471,-0.0095222,0.027871,-6.8679e-05,0.0083406,-0.00039762,0,0,0.050778,-0.021864,0,-0.0020676,0,0,0,0.027876,-7.4336e-05,0.0083406,-0.81518,0.012048,0.024837,4.9317e-07,0.76,0.97,0
0.038978,-0.0095726,0.027759,-5.9571e-05,0.0083099,-0.00043323,0,0,0.050568,-0.021761,0,-0.0022528,0,0,0,0.027766,-6.6316e-05,0.0083099,-0.892,0.012003,0.024732,4.8719e-07,0.77,0.97,0
0.039482,-0.0096267,0.027639,-4.9908e-05,0.0082767,-0.00046366,0,0,0.050342,-0.021649,0,-0.0024111,0,0,0,0.027647,-5.767e-05,0.0082767,-0.95909,0.011955,0.024619,4.8077e-07,0.78,0.97,0
0.039984,-0.0096839,0.027511,-3.9862e-05,0.0082413,-0.00048865,0,0,0.050101,-0.021531,0,-0.002541,0,0,0,0.02752,-4.8526e-05,0.0082413,-1.0158,0.011904,0.024499,4.7402e-07,0.79,0.97,0
0.040484,-0.0097437,0.027377,-2.96e-05,0.0082043,-0.00050801,0,0,0.04985,-0.021408,0,-0.0026417,0,0,0,0.027387,-3.9013e-05,0.0082043,-1.0615,0.011851,0.024373,4.6701e-07,0.8,0.97,0
0.040981,-0.0098054,0.027239,-1.9285e-05,0.0081659,-0.00052168,0,0,0.04959,-0.021281,0,-0.0027127,0,0,0,0.027249,-2.9265e-05,0.0081659,-1.096,0.011795,0.024243,4.5983e-07,0.81,0.97,0
0.041476,-0.0098684,0.027098,-9.0694e-06,0.0081266,-0.00052965,0,0,0.049325,-0.021153,0,-0.0027542,0,0,0,0.027108,-1.9415e-05,0.0081266,-1.119,0.011738,0.02411,4.5256e-07,0.82,0.97,0
0.041968,-0.0099322,0.026955,9.0832e-07,0.0080868,-0.00053203,0,0,0.049058,-0.021023,0,-0.0027666,0,0,0,0.026966,-9.589e-06,0.0080868,-1.1303,0.011681,0.023975,4.4529e-07,0.83,0.97,0
0.042457,-0.0099961,0.026812,1.0526e-05,0.0080469,-0.00052897,0,0,0.048791,-0.020895,0,-0.0027506,0,0,0,0.026823,9.0724e-08,0.0080469,-1.1302,0.011623,0.023841,4.3809e-07,0.84,0.97,0
0.042944,-0.01006,0.026671,1.9682e-05,0.0080073,-0.00052069,0,0,0.048526,-0.020768,0,-0.0027076,0,0,0,0.026682,9.5133e-06,0.0080073,-1.1188,0.011566,0.023707,4.3103e-07,0.85,0.97,0
0.043428,-0.010122,0.026533,2.8291e-05,0.0079684,-0.00050746,0,0,0.048268,-0.020644,0,-0.0026388,0,0,0,0.026543,1.8579e-05,0.0079684,-1.0965,0.01151,0.023577,4.2418e-07,0.86,0.97,0
0.043909,-0.010183,0.026399,3.6291e-05,0.0079305,-0.00048961,0,0,0.048017,-0.020525,0,-0.002546,0,0,0,0.026408,2.7201e-05,0.0079305,-1.0636,0.011455,0.02345,4.176e-07,0.87,0.97,0
0.044388,-0.010241,0.02627,4.3637e-05,0.007894,-0.00046748,0,0,0.047777,-0.020411,0,-0.0024309,0,0,0,0.026278,3.5307e-05,0.007894,-1.0209,0.011402,0.023328,4.1133e-07,0.88,0.97,0
0.044865,-0.010297,0.026147,5.0303e-05,0.0078592,-0.00044143,0,0,0.047548,-0.020303,0,-0.0022954,0,0,0,0.026155,4.2838e-05,0.0078592,-0.96879,0.011352,0.023212,4.0543e-07,0.89,0.97,0
0.045339,-0.010349,0.026032,5.6279e-05,0.0078264,-0.00041184,0,0,0.047334,-0.020202,0,-0.0021416,0,0,0,0.026038,4.9751e-05,0.0078264,-0.90812,0.011305,0.023104,3.9994e-07,0.9,0.97,0
0.045811,-0.010398,0.025925,6.1569e-05,0.007796,-0.00037909,0,0,0.047135,-0.020109,0,-0.0019713,0,0,0,0.02593,5.6013e-05,0.007796,-0.83958,0.011261,0.023003,3.9489e-07,0.91,0.97,0
0.046282,-0.010443,0.025827,6.6188e-05,0.0077681,-0.00034357,0,0,0.046954,-0.020025,0,-0.0017866,0,0,0,0.025832,6.1607e-05,0.0077681,-0.76395,0.01122,0.022911,3.903e-07,0.92,0.97,0
0.04675,-0.010484,0.025739,7.0159e-05,0.0077429,-0.00030562,0,0,0.046791,-0.019949,0,-0.0015892,0,0,0,0.025743,6.6521e-05,0.0077429,-0.68205,0.011184,0.022828,3.8621e-07,0.93,0.97,0
0.047218,-0.01052,0.025662,7.3512e-05,0.0077207,-0.00026562,0,0,0.046648,-0.019883,0,-0.0013812,0,0,0,0.025665,7.0755e-05,0.0077207,-0.59466,0.011152,0.022755,3.8263e-07,0.94,0.97,0
0.047683,-0.01055,0.025596,7.6278e-05,0.0077016,-0.00022388,0,0,0.046525,-0.019826,0,-0.0011642,0,0,0,0.025598,7.4314e-05,0.0077016,-0.5026,0.011125,0.022693,3.7958e-07,0.95,0.97,0
0.048148,-0.010576,0.025541,7.8489e-05,0.0076859,-0.00018074,0,0,0.046423,-0.019779,0,-0.00093987,0,0,0,0.025542,7.7206e-05,0.0076859,-0.40668,0.011102,0.022641,3.7706e-07,0.96,0.97,0
0.048612,-0.010596,0.025498,8.0174e-05,0.0076735,-0.0001365,0,0,0.046344,-0.019743,0,-0.0007098,0,0,0,0.025499,7.9441e-05,0.0076735,-0.30768,0.011084,0.0226,3.751e-07,0.97,0.97,0
0.049075,-0.01061,0.025467,8.1358e-05,0.0076646,-9.1446e-05,0,0,0.046287,-0.019716,0,-0.00047552,0,0,0,0.025468,8.1029e-05,0.0076646,-0.20639,0.011071,0.022571,3.7369e-07,0.98,0.97,0
0.049538,-0.010619,0.025448,8.2061e-05,0.0076592,-4.5856e-05,0,0,0.046252,-0.0197,0,-0.00023845,0,0,0,0.025449,8.1978e-05,0.0076592,-0.10357,0.011063,0.022554,3.7285e-07,0.99,0.97,0
0.05,-0.010622,0.025442,8.2294e-05,0.0076574,-5.5917e-05,0,0,0.046241,-0.019695,0,-0.00029077,0,0,0,0.025442,8.217e-05,0.0076574,-0.12633,0.011061,0.022548,3.7257e-07,1,0.97,0
0,0,0.04317,0.018501,0.018501,-0.013615,0,0,0.064138,-1.7347e-18,0,-0.070796,0,0,0,0.049206,0.012465,0.018501,-23.913,0.026724,0.034126,1.8278e-06,0,0.98,0
0.00064138,-0.00070796,0.041533,0.011075,0.015782,-0.012291,0,0,0.066951,-0.01224,0,-0.063912,0,0,0,0.045874,0.0067335,0.015782,-19.453,0.022797,0.035492,1.8028e-06,0.01,0.98,0
0.001339,-0.0014768,0.041351,0.0053038,0.013996,-0.0099604,0,0,0.071122,-0.022601,0,-0.051794,0,0,0,0.04392,0.0027347,0.013996,-14.463,0.020217,0.036868,1.7873e-06,0.02,0.98,0
0.0020638,-0.0022021,0.040577,0.0033318,0.013173,-0.0074262,0,0,0.071251,-0.025586,0,-0.038616,0,0,0,0.042003,0.0019057,0.013173,-10.87,0.019027,0.035818,1.5968e-06,0.03,0.98,0
0.0027641,-0.002852,0.038492,0.0021137,0.012182,-0.0054782,0,0,0.068406,-0.026176,0,-0.028487,0,0,0,0.039299,0.0013067,0.012182,-8.3807,0.017596,0.03389,1.3271e-06,0.04,0.98,0
0.0034319,-0.0034395,0.03646,0.0014156,0.011363,-0.0041663,0,0,0.065253,-0.025862,0,-0.021665,0,0,0,0.036948,0.00092708,0.011363,-6.6875,0.016413,0.032102,1.1135e-06,0.05,0.98,0
0.0040691,-0.0039746,0.034703,0.0009894,0.010708,-0.0032545,0,0,0.062387,-0.025267,0,-0.016923,0,0,0,0.035014,0.00067811,0.010708,-5.4637,0.015466,0.030581,9.5385e-07,0.06,0.98,0
0.0046797,-0.004466,0.033236,0.00071899,0.010187,-0.0026031,0,0,0.059929,-0.024616,0,-0.013536,0,0,0,0.033443,0.00051192,0.010187,-4.5481,0.014714,0.029317,8.3499e-07,0.07,0.98,0
0.0052677,-0.0049197,0.032017,0.00053976,0.0097669,-0.0021217,0,0,0.057849,-0.023991,0,-0.011033,0,0,0,0.032159,0.00039739,0.0097669,-3.839,0.014108,0.028267,7.4489e-07,0.08,0.98,0
0.0058367,-0.0053406,0.030997,0.00041634,0.009424,-0.0017557,0,0,0.05609,-0.02342,0,-0.0091294,0,0,0,0.031097,0.00031588,0.009424,-3.2751,0.013612,0.027388,6.7517e-07,0.09,0.98,0
0.0063895,-0.0057324,0.030138,0.00032845,0.0091399,-0.0014703,0,0,0.054594,-0.02291,0,-0.0076456,0,0,0,0.03021,0.00025611,0.0091399,-2.8169,0.013202,0.026647,6.2016e-07,0.1,0.98,0
0.0069286,-0.006098,0.029408,0.00026403,0.0089017,-0.0012432,0,0,0.053317,-0.022458,0,-0.0064647,0,0,0,0.029461,0.0002111,0.0089017,-2.4382,0.012858,0.026017,5.76e-07,0.11,0.98,0
0.0074558,-0.0064397,0.028785,0.00021564,0.0087001,-0.0010593,0,0,0.05222,-0.022059,0,-0.0055086,0,0,0,0.028824,0.00017641,0.0087001,-2.1207,0.012567,0.025478,5.4004e-07,0.12,0.98,0
0.0079729,-0.0067595,0.028248,0.00017852,0.008528,-0.00090823,0,0,0.051272,-0.021709,0,-0.0047228,0,0,0,0.028278,0.00014917,0.008528,-1.8513,0.012318,0.025015,5.1039e-07,0.13,0.98,0
0.0084813,-0.007059,0.027785,0.00014953,0.0083803,-0.00078246,0,0,0.050451,-0.0214,0,-0.0040688,0,0,0,0.027807,0.0001274,0.0083803,-1.6205,0.012105,0.024613,4.8568e-07,0.14,0.98,0
0.008982,-0.0073397,0.027382,0.00012655,0.0082527,-0.0006766,0,0,0.049737,-0.021128,0,-0.0035183,0,0,0,0.027399,0.00010976,0.0082527,-1.4212,0.011921,0.024265,4.6492e-07,0.15,0.98,0
0.009476,-0.0076028,0.027032,0.00010809,0.008142,-0.00058663,0,0,0.049114,-0.020888,0,-0.0030505,0,0,0,0.027045,9.5316e-05,0.008142,-1.2476,0.011761,0.023962,4.4735e-07,0.16,0.98,0
0.0099642,-0.0078494,0.026726,9.3111e-05,0.0080458,-0.00050948,0,0,0.048569,-0.020677,0,-0.0026493,0,0,0,0.026736,8.3368e-05,0.0080458,-1.0955,0.011622,0.023697,4.3239e-07,0.17,0.98,0
0.010447,-0.0080803,0.026459,8.0846e-05,0.007962,-0.00044278,0,0,0.048092,-0.020491,0,-0.0023025,0,0,0,0.026466,7.3416e-05,0.007962,-0.9614,0.011501,0.023465,4.196e-07,0.18,0.98,0
0.010926,-0.0082964,0.026225,7.0736e-05,0.0078888,-0.00038466,0,0,0.047675,-0.020327,0,-0.0020002,0,0,0,0.026231,6.508e-05,0.0078888,-0.84241,0.011395,0.023262,4.0863e-07,0.19,0.98,0
0.011401,-0.0084985,0.026021,6.2361e-05,0.007825,-0.00033362,0,0,0.047309,-0.020183,0,-0.0017348,0,0,0,0.026025,5.8074e-05,0.007825,-0.73621,0.011303,0.023085,3.9919e-07,0.2,0.98,0
0.011872,-0.0086872,0.025842,5.5402e-05,0.0077693,-0.00028847,0,0,0.04699,-0.020056,0,-0.0015,0,0,0,0.025846,5.2176e-05,0.0077693,-0.64084,0.011222,0.02293,3.9107e-07,0.21,0.98,0
0.012341,-0.0088631,0.025687,4.9612e-05,0.0077209,-0.00024821,0,0,0.046711,-0.019945,0,-0.0012907,0,0,0,0.025689,4.7209e-05,0.0077209,-0.55465,0.011152,0.022795,3.8409e-07,0.22,0.98,0
0.012807,-0.0090267,0.025552,4.4798e-05,0.007679,-0.00021203,0,0,0.046469,-0.019849,0,-0.0011026,0,0,0,0.025553,4.3035e-05,0.007679,-0.47623,0.011092,0.022678,3.7811e-07,0.23,0.98,0
0.01327,-0.0091786,0.025435,4.0807e-05,0.0076428,-0.00017923,0,0,0.046261,-0.019765,0,-0.00093201,0,0,0,0.025437,3.9542e-05,0.0076428,-0.40436,0.01104,0.022577,3.7299e-07,0.24,0.98,0
0.013732,-0.0093192,0.025336,3.7517e-05,0.007612,-0.00014924,0,0,0.046082,-0.019694,0,-0.00077606,0,0,0,0.025337,3.6637e-05,0.007612,-0.33799,0.010995,0.022491,3.6866e-07,0.25,0.98,0
0.014192,-0.0094488,0.025252,3.4828e-05,0.007586,-0.00012156,0,0,0.045931,-0.019633,0,-0.00063211,0,0,0,0.025252,3.4242e-05,0.007586,-0.27619,0.010958,0.022417,3.6502e-07,0.26,0.98,0
0.01465,-0.009568,0.025182,3.2656e-05,0.0075643,-9.5762e-05,0,0,0.045805,-0.019582,0,-0.00049796,0,0,0,0.025182,3.2291e-05,0.0075643,-0.21816,0.010926,0.022357,3.6202e-07,0.27,0.98,0
0.015108,-0.009677,0.025125,3.0932e-05,0.0075468,-7.1479e-05,0,0,0.045704,-0.019541,0,-0.00037169,0,0,0,0.025125,3.0728e-05,0.0075468,-0.1632,0.010901,0.022307,3.596e-07,0.28,0.98,0
0.015564,-0.0097762,0.025081,2.9594e-05,0.0075332,-4.8394e-05,0,0,0.045624,-0.019509,0,-0.00025165,0,0,0,0.025081,2.9501e-05,0.0075332,-0.11068,0.010881,0.022269,3.5772e-07,0.29,0.98,0
0.01602,-0.0098658,0.025049,2.8591e-05,0.0075232,-2.6233e-05,0,0,0.045566,-0.019486,0,-0.00013641,0,0,0,0.025049,2.8563e-05,0.0075232,-0.060074,0.010867,0.022241,3.5635e-07,0.3,0.98,0
0.016476,-0.0099462,0.025028,2.7873e-05,0.0075166,-4.7619e-06,0,0,0.045528,-0.019471,0,-2.4762e-05,0,0,0,0.025028,2.7872e-05,0.0075166,-0.010914,0.010857,0.022223,3.5546e-07,0.31,0.98,0
0.016931,-0.010018,0.025018,2.7396e-05,0.0075135,1.622e-05,0,0,0.04551,-0.019464,0,8.4346e-05,0,0,0,0.025018,2.7386e-05,0.0075135,0.037189,0.010853,0.022214,3.5503e-07,0.32,0.98,0
0.017386,-0.01008,0.025018,2.7118e-05,0.0075135,3.688e-05,0,0,0.045511,-0.019465,0,0.00019178,0,0,0,0.025018,2.7064e-05,0.0075135,0.084555,0.010853,0.022215,3.5506e-07,0.33,0.98,0
0.017841,-0.010135,0.025028,2.6998e-05,0.0075167,5.7353e-05,0,0,0.045531,-0.019473,0,0.00029823,0,0,0,0.025029,2.6866e-05,0.0075167,0.13143,0.010857,0.022225,3.5552e-07,0.34,0.98,0
0.018297,-0.010181,0.025049,2.6994e-05,0.0075229,7.7743e-05,0,0,0.045569,-0.019489,0,0.00040426,0,0,0,0.02505,2.6753e-05,0.0075229,0.17801,0.010866,0.022243,3.5641e-07,0.35,0.98,0
0.018752,-0.010219,0.02508,2.7068e-05,0.0075322,9.8124e-05,0,0,0.045625,-0.019513,0,0.00051024,0,0,0,0.02508,2.6683e-05,0.0075322,0.2244,0.01088,0.022271,3.5773e-07,0.36,0.98,0
0.019209,-0.010249,0.025121,2.7176e-05,0.0075444,0.00011854,0,0,0.045699,-0.019545,0,0.0006164,0,0,0,0.025121,2.6616e-05,0.0075444,0.27065,0.010897,0.022307,3.5949e-07,0.37,0.98,0
0.019666,-0.010273,0.025171,2.7278e-05,0.0075596,0.000139,0,0,0.045791,-0.019584,0,0.0007228,0,0,0,0.025172,2.651e-05,0.0075596,0.31673,0.010919,0.022352,3.6167e-07,0.38,0.98,0
0.020125,-0.010288,0.025232,2.7331e-05,0.0075777,0.00015949,0,0,0.0459,-0.019631,0,0.00082934,0,0,0,0.025233,2.6322e-05,0.0075777,0.36254,0.010946,0.022406,3.6429e-07,0.39,0.98,0
0.020584,-0.010297,0.025301,2.7292e-05,0.0075986,0.00017995,0,0,0.046027,-0.019685,0,0.00093574,0,0,0,0.025303,2.6011e-05,0.0075986,0.40792,0.010976,0.022469,3.6734e-07,0.4,0.98,0
0.021045,-0.0103,0.025381,2.7118e-05,0.0076224,0.00020031,0,0,0.046172,-0.019748,0,0.0010416,0,0,0,0.025382,2.5535e-05,0.0076224,0.45263,0.01101,0.02254,3.7083e-07,0.41,0.98,0
0.021508,-0.010296,0.025469,2.6765e-05,0.0076489,0.00022044,0,0,0.046333,-0.019817,0,0.0011463,0,0,0,0.025471,2.4855e-05,0.0076489,0.49637,0.011048,0.02262,3.7476e-07,0.42,0.98,0
0.021972,-0.010287,0.025567,2.6192e-05,0.007678,0.0002402,0,0,0.046512,-0.019895,0,0.001249,0,0,0,0.025569,2.3933e-05,0.007678,0.53877,0.01109,0.022708,3.7912e-07,0.43,0.98,0
0.022438,-0.010272,0.025674,2.5358e-05,0.0077098,0.00025941,0,0,0.046707,-0.01998,0,0.0013489,0,0,0,0.025677,2.2734e-05,0.0077098,0.57942,0.011136,0.022804,3.8392e-07,0.44,0.98,0
0.022906,-0.010251,0.025789,2.4226e-05,0.007744,0.00027787,0,0,0.046917,-0.020071,0,0.0014449,0,0,0,0.025792,2.1229e-05,0.007744,0.61783,0.011186,0.022908,3.8915e-07,0.45,0.98,0
0.023377,-0.010226,0.025912,2.2762e-05,0.0077805,0.00029534,0,0,0.047143,-0.02017,0,0.0015358,0,0,0,0.025916,1.9393e-05,0.0077805,0.65351,0.011239,0.023019,3.9481e-07,0.46,0.98,0
0.023849,-0.010197,0.026043,2.0938e-05,0.0078192,0.00031158,0,0,0.047382,-0.020275,0,0.0016202,0,0,0,0.026047,1.7208e-05,0.0078192,0.6859,0.011294,0.023137,4.0087e-07,0.47,0.98,0
0.024324,-0.010164,0.02618,1.8732e-05,0.0078598,0.00032629,0,0,0.047634,-0.020387,0,0.0016967,0,0,0,0.026185,1.4663e-05,0.0078598,0.71445,0.011353,0.023262,4.0731e-07,0.48,0.98,0
0.024802,-0.010127,0.026324,1.6131e-05,0.0079021,0.00033921,0,0,0.047897,-0.020503,0,0.0017639,0,0,0,0.026329,1.1758e-05,0.0079021,0.7386,0.011414,0.023392,4.1411e-07,0.49,0.98,0
0.025282,-0.010087,0.026473,1.313e-05,0.0079458,0.00035003,0,0,0.04817,-0.020625,0,0.0018202,0,0,0,0.026478,8.4998e-06,0.0079458,0.75778,0.011477,0.023527,4.2124e-07,0.5,0.98,0
0.025765,-0.010045,0.026626,9.733e-06,0.0079907,0.00035847,0,0,0.048451,-0.02075,0,0.001864,0,0,0,0.026631,4.9059e-06,0.0079907,0.77149,0.011542,0.023666,4.2865e-07,0.51,0.98,0
0.026251,-0.010002,0.026782,5.9576e-06,0.0080363,0.00036424,0,0,0.048738,-0.020879,0,0.001894,0,0,0,0.026787,1.0036e-06,0.0080363,0.77922,0.011608,0.023808,4.363e-07,0.52,0.98,0
0.02674,-0.0099566,0.026939,1.8314e-06,0.0080824,0.00036707,0,0,0.049028,-0.021009,0,0.0019088,0,0,0,0.026944,-3.1697e-06,0.0080824,0.78057,0.011675,0.023951,4.4413e-07,0.53,0.98,0
0.027232,-0.009911,0.027098,-2.6059e-06,0.0081285,0.00036673,0,0,0.04932,-0.021141,0,0.001907,0,0,0,0.027103,-7.5677e-06,0.0081285,0.77515,0.011741,0.024095,4.5207e-07,0.54,0.98,0
0.027726,-0.0098654,0.027255,-7.3028e-06,0.0081742,0.00036299,0,0,0.049609,-0.021272,0,0.0018876,0,0,0,0.027259,-1.2135e-05,0.0081742,0.76271,0.011807,0.024238,4.6005e-07,0.55,0.98,0
0.028224,-0.0098203,0.027409,-1.2197e-05,0.0082191,0.0003557,0,0,0.049894,-0.021401,0,0.0018496,0,0,0,0.027414,-1.681e-05,0.0082191,0.74306,0.011872,0.024379,4.68e-07,0.56,0.98,0
0.028724,-0.0097763,0.02756,-1.7214e-05,0.0082628,0.00034474,0,0,0.050172,-0.021528,0,0.0017927,0,0,0,0.027564,-2.1524e-05,0.0082628,0.71611,0.011935,0.024517,4.7582e-07,0.57,0.98,0
0.029227,-0.0097342,0.027705,-2.2275e-05,0.0083047,0.00033005,0,0,0.05044,-0.02165,0,0.0017163,0,0,0,0.027709,-2.6204e-05,0.0083047,0.6819,0.011996,0.024649,4.8343e-07,0.58,0.98,0
0.029733,-0.0096944,0.027842,-2.7291e-05,0.0083445,0.00031164,0,0,0.050694,-0.021767,0,0.0016205,0,0,0,0.027846,-3.0775e-05,0.0083445,0.64057,0.012053,0.024775,4.9073e-07,0.59,0.98,0
0.030241,-0.0096575,0.027971,-3.2168e-05,0.0083817,0.00028956,0,0,0.050933,-0.021876,0,0.0015057,0,0,0,0.027974,-3.5162e-05,0.0083817,0.59237,0.012107,0.024892,4.9762e-07,0.6,0.98,0
0.030752,-0.009624,0.028089,-3.6814e-05,0.0084158,0.00026397,0,0,0.051152,-0.021977,0,0.0013726,0,0,0,0.028092,-3.9291e-05,0.0084158,0.53767,0.012156,0.025,5.0402e-07,0.61,0.98,0
0.031264,-0.0095945,0.028196,-4.1133e-05,0.0084465,0.00023507,0,0,0.051349,-0.022068,0,0.0012223,0,0,0,0.028198,-4.309e-05,0.0084465,0.47692,0.0122,0.025097,5.0982e-07,0.62,0.98,0
0.031779,-0.0095694,0.028289,-4.5037e-05,0.0084733,0.00020312,0,0,0.051522,-0.022148,0,0.0010562,0,0,0,0.028291,-4.6493e-05,0.0084733,0.41071,0.012239,0.025183,5.1494e-07,0.63,0.98,0
0.032295,-0.0095491,0.028369,-4.844e-05,0.008496,0.00016849,0,0,0.051668,-0.022216,0,0.00087613,0,0,0,0.028369,-4.9439e-05,0.008496,0.33969,0.012272,0.025255,5.193e-07,0.64,0.98,0
0.032812,-0.009534,0.028432,-5.1268e-05,0.0085142,0.00013155,0,0,0.051786,-0.02227,0,0.00068404,0,0,0,0.028433,-5.1876e-05,0.0085142,0.26461,0.012298,0.025313,5.2282e-07,0.65,0.98,0
0.03333,-0.0095243,0.028479,-5.3457e-05,0.0085278,9.2756e-05,0,0,0.051874,-0.022311,0,0.00048233,0,0,0,0.02848,-5.3759e-05,0.0085278,0.18626,0.012318,0.025356,5.2545e-07,0.66,0.98,0
0.033849,-0.0095203,0.02851,-5.4956e-05,0.0085364,5.2606e-05,0,0,0.05193,-0.022337,0,0.00027355,0,0,0,0.02851,-5.5053e-05,0.0085364,0.10552,0.01233,0.025384,5.2714e-07,0.67,0.98,0
0.034369,-0.0095221,0.028522,-5.5728e-05,0.00854,1.1617e-05,0,0,0.051954,-0.022349,0,6.041e-05,0,0,0,0.028522,-5.5733e-05,0.00854,0.023291,0.012336,0.025396,5.2785e-07,0.68,0.98,0
0.034889,-0.0095298,0.028518,-5.5753e-05,0.0085385,-2.9664e-05,0,0,0.051945,-0.022345,0,-0.00015426,0,0,0,0.028518,-5.5784e-05,0.0085385,-0.059484,0.012333,0.025392,5.2758e-07,0.69,0.98,0
0.035408,-0.0095435,0.028495,-5.5025e-05,0.0085319,-7.0686e-05,0,0,0.051903,-0.022326,0,-0.00036757,0,0,0,0.028495,-5.5201e-05,0.0085319,-0.14186,0.012324,0.025371,5.2632e-07,0.7,0.98,0
0.035927,-0.009563,0.028455,-5.3558e-05,0.0085203,-0.0001109,0,0,0.051829,-0.022292,0,-0.00057666,0,0,0,0.028455,-5.3989e-05,0.0085203,-0.22287,0.012307,0.025335,5.241e-07,0.71,0.98,0
0.036444,-0.0095882,0.028398,-5.1378e-05,0.0085039,-0.00014976,0,0,0.051724,-0.022244,0,-0.00077875,0,0,0,0.028398,-5.2166e-05,0.0085039,-0.3016,0.012283,0.025283,5.2093e-07,0.72,0.98,0
0.036961,-0.0096189,0.028324,-4.8527e-05,0.0084827,-0.00018677,0,0,0.051588,-0.022181,0,-0.00097118,0,0,0,0.028325,-4.9757e-05,0.0084827,-0.37713,0.012253,0.025216,5.1688e-07,0.73,0.98,0
0.037476,-0.0096548,0.028235,-4.5063e-05,0.008457,-0.00022144,0,0,0.051423,-0.022106,0,-0.0011515,0,0,0,0.028237,-4.6797e-05,0.008457,-0.4486,0.012216,0.025135,5.12e-07,0.74,0.98,0
0.03799,-0.0096957,0.028132,-4.1054e-05,0.0084273,-0.00025335,0,0,0.051232,-0.022018,0,-0.0013174,0,0,0,0.028134,-4.3332e-05,0.0084273,-0.51519,0.012173,0.025041,5.0637e-07,0.75,0.98,0
0.038501,-0.009741,0.028015,-3.6576e-05,0.0083937,-0.00028213,0,0,0.051017,-0.021919,0,-0.0014671,0,0,0,0.028018,-3.9413e-05,0.0083937,-0.57616,0.012124,0.024935,5.0007e-07,0.76,0.98,0
0.03901,-0.0097904,0.027887,-3.1714e-05,0.0083567,-0.00030745,0,0,0.05078,-0.02181,0,-0.0015988,0,0,0,0.027891,-3.5099e-05,0.0083567,-0.63086,0.012071,0.024818,4.9319e-07,0.77,0.98,0
0.039517,-0.0098434,0.027749,-2.6558e-05,0.0083167,-0.00032908,0,0,0.050524,-0.021692,0,-0.0017112,0,0,0,0.027753,-3.0456e-05,0.0083167,-0.67869,0.012013,0.024692,4.8583e-07,0.78,0.98,0
0.04002,-0.0098994,0.027602,-2.1199e-05,0.0082743,-0.00034681,0,0,0.050252,-0.021568,0,-0.0018034,0,0,0,0.027606,-2.5553e-05,0.0082743,-0.7192,0.011952,0.024557,4.7809e-07,0.79,0.98,0
0.040522,-0.0099579,0.027448,-1.5727e-05,0.0082297,-0.00036054,0,0,0.049968,-0.021438,0,-0.0018748,0,0,0,0.027453,-2.0459e-05,0.0082297,-0.75198,0.011887,0.024417,4.7007e-07,0.8,0.98,0
0.04102,-0.010018,0.027289,-1.0229e-05,0.0081837,-0.0003702,0,0,0.049674,-0.021304,0,-0.001925,0,0,0,0.027294,-1.5248e-05,0.0081837,-0.77679,0.011821,0.024272,4.6187e-07,0.81,0.98,0
0.041515,-0.01008,0.027127,-4.786e-06,0.0081366,-0.00037582,0,0,0.049375,-0.021168,0,-0.0019542,0,0,0,0.027132,-9.9907e-06,0.0081366,-0.79344,0.011753,0.024123,4.5359e-07,0.82,0.98,0
0.042007,-0.010143,0.026963,5.2768e-07,0.008089,-0.00037745,0,0,0.049072,-0.02103,0,-0.0019627,0,0,0,0.026968,-4.7552e-06,0.008089,-0.80188,0.011684,0.023973,4.4533e-07,0.83,0.98,0
0.042496,-0.010205,0.026799,5.6474e-06,0.0080413,-0.00037521,0,0,0.048769,-0.020893,0,-0.0019511,0,0,0,0.026804,3.939e-07,0.0080413,-0.80216,0.011615,0.023824,4.3715e-07,0.84,0.98,0
0.042983,-0.010267,0.026636,1.0518e-05,0.007994,-0.00036927,0,0,0.04847,-0.020757,0,-0.0019202,0,0,0,0.026641,5.3978e-06,0.007994,-0.79442,0.011547,0.023675,4.2916e-07,0.85,0.98,0
0.043466,-0.010328,0.026477,1.5096e-05,0.0079476,-0.00035982,0,0,0.048176,-0.020625,0,-0.001871,0,0,0,0.026482,1.0204e-05,0.0079476,-0.77889,0.01148,0.023529,4.2142e-07,0.86,0.98,0
0.043946,-0.010388,0.026322,1.9346e-05,0.0079026,-0.00034709,0,0,0.047892,-0.020496,0,-0.0018048,0,0,0,0.026327,1.4767e-05,0.0079026,-0.75588,0.011415,0.023388,4.14e-07,0.87,0.98,0
0.044424,-0.010445,0.026174,2.3247e-05,0.0078592,-0.00033133,0,0,0.047619,-0.020373,0,-0.0017229,0,0,0,0.026178,1.905e-05,0.0078592,-0.72577,0.011352,0.023253,4.0694e-07,0.88,0.98,0
0.044899,-0.0105,0.026033,2.6784e-05,0.007818,-0.0003128,0,0,0.047359,-0.020257,0,-0.0016265,0,0,0,0.026037,2.3022e-05,0.007818,-0.689,0.011293,0.023124,4.0032e-07,0.89,0.98,0
0.045371,-0.010551,0.025901,2.9952e-05,0.0077792,-0.00029177,0,0,0.047116,-0.020148,0,-0.0015172,0,0,0,0.025904,2.6662e-05,0.0077792,-0.64607,0.011237,0.023003,3.9415e-07,0.9,0.98,0
0.045841,-0.010599,0.025778,3.2755e-05,0.0077432,-0.00026852,0,0,0.04689,-0.020047,0,-0.0013963,0,0,0,0.025781,2.9954e-05,0.0077432,-0.5975,0.011185,0.02289,3.8849e-07,0.91,0.98,0
0.046309,-0.010643,0.025666,3.52e-05,0.0077102,-0.00024331,0,0,0.046684,-0.019955,0,-0.0012652,0,0,0,0.025668,3.289e-05,0.0077102,-0.54384,0.011137,0.022788,3.8337e-07,0.92,0.98,0
0.046774,-0.010683,0.025565,3.73e-05,0.0076805,-0.0002164,0,0,0.046498,-0.019872,0,-0.0011253,0,0,0,0.025566,3.5466e-05,0.0076805,-0.48566,0.011094,0.022696,3.788e-07,0.93,0.98,0
0.047239,-0.010718,0.025476,3.9072e-05,0.0076544,-0.00018804,0,0,0.046335,-0.0198,0,-0.00097781,0,0,0,0.025477,3.7682e-05,0.0076544,-0.42353,0.011056,0.022614,3.748e-07,0.94,0.98,0
0.047701,-0.010748,0.025399,4.0533e-05,0.007632,-0.00015847,0,0,0.046195,-0.019738,0,-0.00082406,0,0,0,0.0254,3.9543e-05,0.007632,-0.35803,0.011024,0.022545,3.714e-07,0.95,0.98,0
0.048162,-0.010773,0.025336,4.17e-05,0.0076134,-0.00012792,0,0,0.04608,-0.019686,0,-0.00066519,0,0,0,0.025337,4.1053e-05,0.0076134,-0.28975,0.010997,0.022487,3.686e-07,0.96,0.98,0
0.048623,-0.010793,0.025287,4.2588e-05,0.0075989,-9.66e-05,0,0,0.045989,-0.019646,0,-0.00050232,0,0,0,0.025287,4.2219e-05,0.0075989,-0.21924,0.010976,0.022442,3.6642e-07,0.97,0.98,0
0.049082,-0.010807,0.025251,4.3212e-05,0.0075884,-6.4711e-05,0,0,0.045924,-0.019617,0,-0.0003365,0,0,0,0.025252,4.3046e-05,0.0075884,-0.14708,0.010961,0.02241,3.6486e-07,0.98,0.98,0
0.049541,-0.010816,0.02523,4.3583e-05,0.0075821,-3.2448e-05,0,0,0.045885,-0.0196,0,-0.00016873,0,0,0,0.02523,4.3541e-05,0.0075821,-0.073814,0.010952,0.02239,3.6392e-07,0.99,0.98,0
0.05,-0.010819,0.025223,4.3705e-05,0.00758,-5.4859e-05,0,0,0.045872,-0.019594,0,-0.00028527,0,0,0,0.025223,4.3586e-05,0.00758,-0.12483,0.010949,0.022384,3.6361e-07,1,0.98,0
0,0,0.051776,0.02219,0.02219,-0.016693,0,0,0.076924,5.2042e-18,0,-0.086804,0,0,0,0.059287,0.014678,0.02219,-24.227,0.032052,0.041368,3.2356e-06,0,0.99,0
0.00076924,-0.00086804,0.047101,0.0045034,0.015481,-0.01046,0,0,0.082211,-0.028543,0,-0.05439,0,0,0,0.049531,0.0020736,0.015481,-13.078,0.022362,0.042375,2.6297e-06,0.01,0.99,0
0.0016442,-0.0017527,0.0473,0.0035677,0.01526,-0.006928,0,0,0.083303,-0.030401,0,-0.036026,0,0,0,0.048371,0.0024964,0.01526,-8.7901,0.022043,0.04101,2.4201e-06,0.02,0.99,0
0.0024353,-0.0024849,0.042326,0.0018788,0.013261,-0.0042619,0,0,0.075567,-0.029595,0,-0.022162,0,0,0,0.04277,0.0014345,0.013261,-5.9502,0.019155,0.036873,1.7101e-06,0.03,0.99,0
0.0031556,-0.0031295,0.038588,0.0010955,0.011905,-0.0029381,0,0,0.069376,-0.028105,0,-0.015278,0,0,0,0.038817,0.00086664,0.011905,-4.4537,0.017196,0.033811,1.2953e-06,0.04,0.99,0
0.0038228,-0.0037067,0.035863,0.00068456,0.010964,-0.002141,0,0,0.064736,-0.026727,0,-0.011133,0,0,0,0.035992,0.00055473,0.010964,-3.4701,0.015837,0.031548,1.0407e-06,0.05,0.99,0
0.0044503,-0.0042319,0.033832,0.00045896,0.010287,-0.0016356,0,0,0.061216,-0.025553,0,-0.0085052,0,0,0,0.033912,0.00037899,0.010287,-2.7991,0.014859,0.029839,8.7459e-07,0.06,0.99,0
0.0050471,-0.0047142,0.032265,0.00032467,0.0097769,-0.00129,0,0,0.058469,-0.024576,0,-0.0067079,0,0,0,0.032317,0.00027265,0.0097769,-2.309,0.014122,0.028507,7.5921e-07,0.07,0.99,0
0.0056197,-0.0051602,0.031021,0.0002395,0.0093783,-0.0010418,0,0,0.056272,-0.023761,0,-0.0054173,0,0,0,0.031057,0.00020428,0.0093783,-1.9362,0.013546,0.027441,6.7518e-07,0.08,0.99,0
0.0061726,-0.0055745,0.030012,0.00018255,0.0090584,-0.00085636,0,0,0.05448,-0.023077,0,-0.0044531,0,0,0,0.030037,0.00015798,0.0090584,-1.6431,0.013084,0.026571,6.1171e-07,0.09,0.99,0
0.0067093,-0.0059606,0.02918,0.00014281,0.0087967,-0.00071356,0,0,0.052995,-0.0225,0,-0.0037105,0,0,0,0.029197,0.00012528,0.0087967,-1.4069,0.012706,0.025851,5.6241e-07,0.1,0.99,0
0.0072325,-0.0063212,0.028483,0.0001141,0.0085793,-0.00060087,0,0,0.051751,-0.022009,0,-0.0031245,0,0,0,0.028496,0.00010138,0.0085793,-1.2128,0.012392,0.025247,5.2329e-07,0.11,0.99,0
0.0077443,-0.0066586,0.027895,9.2767e-05,0.0083965,-0.00051017,0,0,0.050697,-0.02159,0,-0.0026529,0,0,0,0.027905,8.3409e-05,0.0083965,-1.0509,0.012128,0.024736,4.9168e-07,0.12,0.99,0
0.0082464,-0.0069748,0.027395,7.6529e-05,0.0082414,-0.00043598,0,0,0.049799,-0.021229,0,-0.0022671,0,0,0,0.027402,6.9573e-05,0.0082414,-0.91409,0.011904,0.0243,4.658e-07,0.13,0.99,0
0.0087403,-0.0072711,0.026966,6.3925e-05,0.008109,-0.00037444,0,0,0.049029,-0.020917,0,-0.0019471,0,0,0,0.026971,5.8714e-05,0.008109,-0.79728,0.011713,0.023926,4.4436e-07,0.14,0.99,0
0.009227,-0.007549,0.026597,5.3978e-05,0.0079953,-0.0003228,0,0,0.048364,-0.020647,0,-0.0016786,0,0,0,0.026601,5.0053e-05,0.0079953,-0.69666,0.011549,0.023603,4.2644e-07,0.15,0.99,0
0.0097076,-0.0078097,0.026278,4.602e-05,0.0078973,-0.00027901,0,0,0.04779,-0.020413,0,-0.0014509,0,0,0,0.026281,4.3053e-05,0.0078973,-0.60931,0.011407,0.023325,4.1136e-07,0.16,0.99,0
0.010183,-0.0080541,0.026002,3.9582e-05,0.0078125,-0.00024153,0,0,0.047293,-0.020209,0,-0.0012559,0,0,0,0.026004,3.7335e-05,0.0078125,-0.53296,0.011285,0.023083,3.9858e-07,0.17,0.99,0
0.010653,-0.0082832,0.025763,3.4325e-05,0.0077391,-0.00020917,0,0,0.046861,-0.020032,0,-0.0010877,0,0,0,0.025764,3.2624e-05,0.0077391,-0.46577,0.011179,0.022874,3.8771e-07,0.18,0.99,0
0.01112,-0.0084977,0.025555,3.0002e-05,0.0076754,-0.00018101,0,0,0.046486,-0.019878,0,-0.00094125,0,0,0,0.025556,2.8719e-05,0.0076754,-0.40629,0.011087,0.022692,3.7845e-07,0.19,0.99,0
0.011583,-0.0086983,0.025375,2.643e-05,0.0076203,-0.00015631,0,0,0.046161,-0.019744,0,-0.0008128,0,0,0,0.025376,2.5467e-05,0.0076203,-0.35329,0.011007,0.022534,3.7054e-07,0.2,0.99,0
0.012043,-0.0088858,0.025219,2.3469e-05,0.0075727,-0.00013447,0,0,0.04588,-0.019628,0,-0.00069922,0,0,0,0.02522,2.2752e-05,0.0075727,-0.30577,0.010938,0.022398,3.6379e-07,0.21,0.99,0
0.012501,-0.0090606,0.025085,2.1012e-05,0.0075318,-0.000115,0,0,0.045638,-0.019528,0,-0.00059799,0,0,0,0.025085,2.0485e-05,0.0075318,-0.26288,0.010879,0.02228,3.5804e-07,0.22,0.99,0
0.012956,-0.0092233,0.02497,1.8976e-05,0.0074967,-9.7498e-05,0,0,0.045431,-0.019442,0,-0.00050699,0,0,0,0.02497,1.8595e-05,0.0074967,-0.22388,0.010829,0.022179,3.5316e-07,0.23,0.99,0
0.013409,-0.0093744,0.024873,1.7294e-05,0.007467,-8.1626e-05,0,0,0.045255,-0.019369,0,-0.00042446,0,0,0,0.024873,1.7026e-05,0.007467,-0.18816,0.010786,0.022094,3.4906e-07,0.24,0.99,0
0.013861,-0.0095143,0.024791,1.5913e-05,0.0074421,-6.7096e-05,0,0,0.045107,-0.019308,0,-0.0003489,0,0,0,0.024791,1.5732e-05,0.0074421,-0.15517,0.01075,0.022022,3.4565e-07,0.25,0.99,0
0.014311,-0.0096434,0.024724,1.4792e-05,0.0074216,-5.366e-05,0,0,0.044986,-0.019258,0,-0.00027904,0,0,0,0.024724,1.4675e-05,0.0074216,-0.12443,0.01072,0.021963,3.4287e-07,0.26,0.99,0
0.014761,-0.0097621,0.02467,1.3893e-05,0.0074052,-4.111e-05,0,0,0.044889,-0.019217,0,-0.00021377,0,0,0,0.02467,1.3825e-05,0.0074052,-0.095531,0.010696,0.021916,3.4065e-07,0.27,0.99,0
0.015209,-0.0098707,0.024629,1.3188e-05,0.0073927,-2.9262e-05,0,0,0.044815,-0.019187,0,-0.00015217,0,0,0,0.024629,1.3153e-05,0.0073927,-0.068111,0.010678,0.02188,3.3896e-07,0.28,0.99,0
0.015657,-0.0099696,0.0246,1.2649e-05,0.0073838,-1.796e-05,0,0,0.044762,-0.019165,0,-9.3392e-05,0,0,0,0.0246,1.2636e-05,0.0073838,-0.041852,0.010665,0.021855,3.3777e-07,0.29,0.99,0
0.016105,-0.010059,0.024582,1.2254e-05,0.0073784,-7.0666e-06,0,0,0.04473,-0.019152,0,-3.6746e-05,0,0,0,0.024582,1.2252e-05,0.0073784,-0.016479,0.010658,0.02184,3.3704e-07,0.3,0.99,0
0.016552,-0.010139,0.024576,1.1983e-05,0.0073762,3.5347e-06,0,0,0.044718,-0.019147,0,1.838e-05,0,0,0,0.024576,1.1983e-05,0.0073762,0.0082448,0.010655,0.021834,3.3677e-07,0.31,0.99,0
0.016999,-0.010211,0.024579,1.1816e-05,0.0073774,1.3943e-05,0,0,0.044725,-0.01915,0,7.2505e-05,0,0,0,0.024579,1.1808e-05,0.0073774,0.032518,0.010656,0.021837,3.3693e-07,0.32,0.99,0
0.017446,-0.010273,0.024594,1.1735e-05,0.0073817,2.4242e-05,0,0,0.044751,-0.019162,0,0.00012606,0,0,0,0.024594,1.1711e-05,0.0073817,0.056504,0.010662,0.02185,3.3752e-07,0.33,0.99,0
0.017894,-0.010328,0.024618,1.1721e-05,0.0073891,3.4499e-05,0,0,0.044796,-0.019181,0,0.00017939,0,0,0,0.024619,1.1673e-05,0.0073891,0.080328,0.010673,0.021872,3.3854e-07,0.34,0.99,0
0.018342,-0.010374,0.024653,1.1758e-05,0.0073995,4.4764e-05,0,0,0.04486,-0.019208,0,0.00023277,0,0,0,0.024653,1.1676e-05,0.0073995,0.10408,0.010688,0.021903,3.3999e-07,0.35,0.99,0
0.018791,-0.010413,0.024699,1.1826e-05,0.0074131,5.5074e-05,0,0,0.044942,-0.019243,0,0.00028638,0,0,0,0.024699,1.1703e-05,0.0074131,0.12782,0.010708,0.021943,3.4186e-07,0.36,0.99,0
0.019241,-0.010444,0.024754,1.1908e-05,0.0074298,6.5449e-05,0,0,0.045043,-0.019286,0,0.00034033,0,0,0,0.024754,1.1735e-05,0.0074298,0.15156,0.010732,0.021993,3.4417e-07,0.37,0.99,0
0.019692,-0.010467,0.02482,1.1986e-05,0.0074495,7.5893e-05,0,0,0.045162,-0.019338,0,0.00039464,0,0,0,0.02482,1.1754e-05,0.0074495,0.17528,0.01076,0.022051,3.4692e-07,0.38,0.99,0
0.020144,-0.010484,0.024896,1.2041e-05,0.0074723,8.6394e-05,0,0,0.045301,-0.019397,0,0.00044925,0,0,0,0.024896,1.1741e-05,0.0074723,0.19892,0.010793,0.022119,3.5011e-07,0.39,0.99,0
0.020598,-0.010493,0.024982,1.2053e-05,0.0074982,9.6922e-05,0,0,0.045457,-0.019464,0,0.000504,0,0,0,0.024982,1.1676e-05,0.0074982,0.22239,0.010831,0.022195,3.5377e-07,0.4,0.99,0
0.021053,-0.010497,0.025078,1.2002e-05,0.0075271,0.00010743,0,0,0.045633,-0.019539,0,0.00055865,0,0,0,0.025079,1.1542e-05,0.0075271,0.24556,0.010872,0.022281,3.5789e-07,0.41,0.99,0
0.021511,-0.010494,0.025185,1.187e-05,0.007559,0.00011786,0,0,0.045827,-0.019623,0,0.00061288,0,0,0,0.025185,1.1318e-05,0.007559,0.26826,0.010919,0.022376,3.6248e-07,0.42,0.99,0
0.02197,-0.010485,0.025301,1.1638e-05,0.0075939,0.00012813,0,0,0.046039,-0.019714,0,0.00066629,0,0,0,0.025302,1.0989e-05,0.0075939,0.29028,0.010969,0.02248,3.6754e-07,0.43,0.99,0
0.022431,-0.010471,0.025428,1.1287e-05,0.0076317,0.00013815,0,0,0.046269,-0.019813,0,0.00071836,0,0,0,0.025428,1.0536e-05,0.0076317,0.31141,0.011024,0.022593,3.7309e-07,0.44,0.99,0
0.022895,-0.010451,0.025563,1.08e-05,0.0076723,0.00014779,0,0,0.046517,-0.01992,0,0.00076852,0,0,0,0.025564,9.9456e-06,0.0076723,0.33138,0.011082,0.022714,3.7911e-07,0.45,0.99,0
0.023362,-0.010427,0.025708,1.0163e-05,0.0077155,0.00015695,0,0,0.046781,-0.020034,0,0.00081613,0,0,0,0.025709,9.2047e-06,0.0077155,0.34991,0.011145,0.022843,3.856e-07,0.46,0.99,0
0.023831,-0.010399,0.025861,9.3624e-06,0.0077611,0.00016547,0,0,0.04706,-0.020155,0,0.00086046,0,0,0,0.025862,8.3033e-06,0.0077611,0.36672,0.01121,0.02298,3.9255e-07,0.47,0.99,0
0.024303,-0.010367,0.026022,8.3882e-06,0.0078091,0.00017322,0,0,0.047353,-0.020282,0,0.00090076,0,0,0,0.026023,7.2347e-06,0.0078091,0.38151,0.01128,0.023124,3.9994e-07,0.48,0.99,0
0.024778,-0.010332,0.02619,7.2341e-06,0.007859,0.00018004,0,0,0.047659,-0.020415,0,0.00093622,0,0,0,0.026191,5.9961e-06,0.007859,0.39397,0.011352,0.023274,4.0774e-07,0.49,0.99,0
0.025256,-0.010293,0.026363,5.8978e-06,0.0079107,0.00018577,0,0,0.047976,-0.020553,0,0.00096601,0,0,0,0.026364,4.5885e-06,0.0079107,0.40381,0.011427,0.023429,4.1593e-07,0.5,0.99,0
0.025737,-0.010253,0.026541,4.3816e-06,0.0079637,0.00019026,0,0,0.048302,-0.020694,0,0.00098933,0,0,0,0.026543,3.0176e-06,0.0079637,0.41075,0.011503,0.023589,4.2446e-07,0.51,0.99,0
0.026222,-0.01021,0.026723,2.6927e-06,0.0080178,0.00019334,0,0,0.048634,-0.020839,0,0.0010054,0,0,0,0.026725,1.2938e-06,0.0080178,0.41454,0.011581,0.023752,4.3327e-07,0.52,0.99,0
0.02671,-0.010167,0.026907,8.437e-07,0.0080724,0.00019488,0,0,0.04897,-0.020986,0,0.0010134,0,0,0,0.026908,-5.677e-07,0.0080724,0.41496,0.01166,0.023917,4.4231e-07,0.53,0.99,0
0.027202,-0.010122,0.027091,-1.1475e-06,0.0081271,0.00019474,0,0,0.049307,-0.021133,0,0.0010126,0,0,0,0.027093,-2.5472e-06,0.0081271,0.41181,0.011739,0.024083,4.515e-07,0.54,0.99,0
0.027696,-0.010078,0.027275,-3.2578e-06,0.0081814,0.00019281,0,0,0.049642,-0.02128,0,0.0010026,0,0,0,0.027276,-4.6206e-06,0.0081814,0.40495,0.011818,0.024247,4.6076e-07,0.55,0.99,0
0.028195,-0.010034,0.027455,-5.4588e-06,0.0082349,0.00018899,0,0,0.049973,-0.021425,0,0.00098277,0,0,0,0.027456,-6.7594e-06,0.0082349,0.39431,0.011895,0.024409,4.7e-07,0.56,0.99,0
0.028696,-0.0099918,0.027631,-7.7175e-06,0.008287,0.00018323,0,0,0.050294,-0.021566,0,0.00095281,0,0,0,0.027632,-8.9322e-06,0.008287,0.37983,0.01197,0.024567,4.7912e-07,0.57,0.99,0
0.0292,-0.0099509,0.0278,-9.9972e-06,0.0083371,0.00017549,0,0,0.050604,-0.021702,0,0.00091255,0,0,0,0.027801,-1.1105e-05,0.0083371,0.36153,0.012042,0.024719,4.8802e-07,0.58,0.99,0
0.029708,-0.0099123,0.027961,-1.2258e-05,0.0083847,0.00016577,0,0,0.050899,-0.021832,0,0.00086199,0,0,0,0.027962,-1.324e-05,0.0083847,0.33951,0.012111,0.024864,4.9658e-07,0.59,0.99,0
0.030218,-0.0098765,0.028112,-1.4458e-05,0.0084293,0.00015409,0,0,0.051175,-0.021954,0,0.00080129,0,0,0,0.028113,-1.5302e-05,0.0084293,0.31389,0.012176,0.025,5.0469e-07,0.6,0.99,0
0.030731,-0.0098441,0.028251,-1.6554e-05,0.0084703,0.00014055,0,0,0.05143,-0.022066,0,0.00073084,0,0,0,0.028252,-1.7253e-05,0.0084703,0.28487,0.012235,0.025124,5.1223e-07,0.61,0.99,0
0.031247,-0.0098156,0.028376,-1.8504e-05,0.0085072,0.00012523,0,0,0.051659,-0.022167,0,0.00065121,0,0,0,0.028377,-1.9056e-05,0.0085072,0.25269,0.012288,0.025237,5.1909e-07,0.62,0.99,0
0.031765,-0.0097913,0.028486,-2.0267e-05,0.0085397,0.0001083,0,0,0.05186,-0.022256,0,0.00056315,0,0,0,0.028486,-2.0678e-05,0.0085397,0.21767,0.012335,0.025336,5.2516e-07,0.63,0.99,0
0.032284,-0.0097717,0.028579,-2.1804e-05,0.0085672,8.9923e-05,0,0,0.052031,-0.022331,0,0.0004676,0,0,0,0.028579,-2.2087e-05,0.0085672,0.18014,0.012375,0.025419,5.3035e-07,0.64,0.99,0
0.032805,-0.0097572,0.028654,-2.3082e-05,0.0085893,7.0319e-05,0,0,0.052169,-0.022392,0,0.00036566,0,0,0,0.028654,-2.3254e-05,0.0085893,0.14049,0.012407,0.025487,5.3456e-07,0.65,0.99,0
0.033328,-0.0097479,0.02871,-2.4071e-05,0.0086059,4.9726e-05,0,0,0.052272,-0.022438,0,0.00025858,0,0,0,0.02871,-2.4157e-05,0.0086059,0.099152,0.012431,0.025538,5.3773e-07,0.66,0.99,0
0.033851,-0.0097442,0.028747,-2.4749e-05,0.0086166,2.8405e-05,0,0,0.052339,-0.022468,0,0.00014771,0,0,0,0.028747,-2.4777e-05,0.0086166,0.056566,0.012446,0.025571,5.3978e-07,0.67,0.99,0
0.034374,-0.0097461,0.028763,-2.5098e-05,0.0086214,6.6364e-06,0,0,0.052368,-0.022481,0,3.4509e-05,0,0,0,0.028763,-2.51e-05,0.0086214,0.013208,0.012453,0.025585,5.407e-07,0.68,0.99,0
0.034898,-0.0097538,0.028758,-2.511e-05,0.00862,-1.529e-05,0,0,0.05236,-0.022477,0,-7.9508e-05,0,0,0,0.028758,-2.5118e-05,0.00862,-0.030436,0.012451,0.025581,5.4045e-07,0.69,0.99,0
0.035422,-0.0097672,0.028733,-2.4781e-05,0.0086126,-3.7078e-05,0,0,0.052314,-0.022457,0,-0.0001928,0,0,0,0.028733,-2.4829e-05,0.0086126,-0.073871,0.01244,0.025559,5.3903e-07,0.7,0.99,0
0.035944,-0.0097864,0.028688,-2.4118e-05,0.0085991,-5.8433e-05,0,0,0.052231,-0.02242,0,-0.00030385,0,0,0,0.028688,-2.4237e-05,0.0085991,-0.1166,0.012421,0.025518,5.3647e-07,0.71,0.99,0
0.036466,-0.0098111,0.028623,-2.3133e-05,0.0085799,-7.9068e-05,0,0,0.052111,-0.022368,0,-0.00041116,0,0,0,0.028623,-2.3351e-05,0.0085799,-0.15815,0.012393,0.025459,5.3281e-07,0.72,0.99,0
0.036986,-0.0098411,0.028539,-2.1846e-05,0.008555,-9.8712e-05,0,0,0.051957,-0.0223,0,-0.0005133,0,0,0,0.028539,-2.2187e-05,0.008555,-0.19803,0.012357,0.025384,5.281e-07,0.73,0.99,0
0.037505,-0.0098763,0.028436,-2.0281e-05,0.0085248,-0.00011711,0,0,0.05177,-0.022217,0,-0.00060897,0,0,0,0.028437,-2.0763e-05,0.0085248,-0.23579,0.012314,0.025292,5.2243e-07,0.74,0.99,0
0.038022,-0.0099162,0.028317,-1.8471e-05,0.0084897,-0.00013404,0,0,0.051552,-0.022121,0,-0.00069699,0,0,0,0.028318,-1.9105e-05,0.0084897,-0.27102,0.012263,0.025185,5.1588e-07,0.75,0.99,0
0.038536,-0.0099606,0.028183,-1.6449e-05,0.0084501,-0.00014929,0,0,0.051306,-0.022013,0,-0.0007763,0,0,0,0.028184,-1.724e-05,0.0084501,-0.30331,0.012206,0.025064,5.0856e-07,0.76,0.99,0
0.039048,-0.010009,0.028036,-1.4256e-05,0.0084064,-0.0001627,0,0,0.051036,-0.021894,0,-0.00084604,0,0,0,0.028037,-1.5199e-05,0.0084064,-0.33232,0.012143,0.024932,5.0058e-07,0.77,0.99,0
0.039557,-0.010061,0.027876,-1.193e-05,0.0083593,-0.00017414,0,0,0.050744,-0.021765,0,-0.00090553,0,0,0,0.027877,-1.3017e-05,0.0083593,-0.35775,0.012075,0.024788,4.9206e-07,0.78,0.99,0
0.040063,-0.010115,0.027707,-9.5137e-06,0.0083092,-0.00018351,0,0,0.050434,-0.021629,0,-0.00095424,0,0,0,0.027708,-1.0729e-05,0.0083092,-0.37933,0.012002,0.024636,4.8311e-07,0.79,0.99,0
0.040566,-0.010172,0.02753,-7.0477e-06,0.0082568,-0.00019075,0,0,0.050109,-0.021486,0,-0.00099187,0,0,0,0.027531,-8.3689e-06,0.0082568,-0.39686,0.011926,0.024477,4.7386e-07,0.8,0.99,0
0.041065,-0.010231,0.027346,-4.5712e-06,0.0082025,-0.00019582,0,0,0.049774,-0.021338,0,-0.0010183,0,0,0,0.027348,-5.9731e-06,0.0082025,-0.41019,0.011848,0.024312,4.6443e-07,0.81,0.99,0
0.041561,-0.010292,0.027159,-2.1211e-06,0.0081472,-0.00019875,0,0,0.049432,-0.021188,0,-0.0010335,0,0,0,0.027161,-3.5753e-06,0.0081472,-0.41923,0.011768,0.024144,4.5492e-07,0.82,0.99,0
0.042054,-0.010353,0.026971,2.693e-07,0.0080912,-0.00019956,0,0,0.049086,-0.021036,0,-0.0010377,0,0,0,0.026972,-1.2073e-06,0.0080912,-0.42392,0.011687,0.023974,4.4546e-07,0.83,0.99,0
0.042543,-0.010414,0.026782,2.5707e-06,0.0080353,-0.00019833,0,0,0.048741,-0.020885,0,-0.0010313,0,0,0,0.026783,1.102e-06,0.0080353,-0.42431,0.011607,0.023804,4.3613e-07,0.84,0.99,0
0.043028,-0.010475,0.026595,4.7586e-06,0.0079799,-0.00019513,0,0,0.048399,-0.020735,0,-0.0010147,0,0,0,0.026596,3.3267e-06,0.0079799,-0.42043,0.011527,0.023637,4.2703e-07,0.85,0.99,0
0.043511,-0.010534,0.026412,6.813e-06,0.0079256,-0.00019008,0,0,0.048064,-0.020589,0,-0.00098842,0,0,0,0.026413,5.4447e-06,0.0079256,-0.41242,0.011448,0.023472,4.1823e-07,0.86,0.99,0
0.04399,-0.010592,0.026235,8.7189e-06,0.007873,-0.0001833,0,0,0.04774,-0.020447,0,-0.00095316,0,0,0,0.026236,7.4379e-06,0.007873,-0.40043,0.011372,0.023313,4.0982e-07,0.87,0.99,0
0.044466,-0.010648,0.026064,1.0466e-05,0.0078224,-0.00017492,0,0,0.047429,-0.020311,0,-0.0009096,0,0,0,0.026065,9.2918e-06,0.0078224,-0.38466,0.011299,0.02316,4.0186e-07,0.88,0.99,0
0.044938,-0.010702,0.025902,1.2049e-05,0.0077743,-0.00016509,0,0,0.047133,-0.020182,0,-0.00085848,0,0,0,0.025903,1.0996e-05,0.0077743,-0.36533,0.01123,0.023015,3.9439e-07,0.89,0.99,0
0.045408,-0.010752,0.02575,1.3465e-05,0.0077292,-0.00015395,0,0,0.046855,-0.020061,0,-0.00080053,0,0,0,0.025751,1.2544e-05,0.0077292,-0.3427,0.011164,0.022878,3.8746e-07,0.9,0.99,0
0.045875,-0.010799,0.02561,1.4717e-05,0.0076873,-0.00014164,0,0,0.046598,-0.019949,0,-0.00073653,0,0,0,0.025611,1.3933e-05,0.0076873,-0.31705,0.011104,0.022752,3.8111e-07,0.91,0.99,0
0.04634,-0.010842,0.025481,1.5807e-05,0.0076491,-0.00012831,0,0,0.046363,-0.019846,0,-0.0006672,0,0,0,0.025482,1.516e-05,0.0076491,-0.28868,0.011049,0.022637,3.7537e-07,0.92,0.99,0
0.046803,-0.010881,0.025366,1.6743e-05,0.0076147,-0.00011409,0,0,0.046152,-0.019755,0,-0.00059326,0,0,0,0.025366,1.6229e-05,0.0076147,-0.25787,0.010999,0.022533,3.7026e-07,0.93,0.99,0
0.047263,-0.010916,0.025264,1.7531e-05,0.0075844,-9.9116e-05,0,0,0.045967,-0.019674,0,-0.00051541,0,0,0,0.025264,1.7142e-05,0.0075844,-0.22494,0.010955,0.022442,3.6581e-07,0.94,0.99,0
0.047722,-0.010945,0.025177,1.818e-05,0.0075585,-8.3515e-05,0,0,0.045808,-0.019605,0,-0.00043428,0,0,0,0.025177,1.7903e-05,0.0075585,-0.19019,0.010918,0.022364,3.6202e-07,0.95,0.99,0
0.04818,-0.01097,0.025105,1.8698e-05,0.007537,-6.7404e-05,0,0,0.045676,-0.019548,0,-0.0003505,0,0,0,0.025105,1.8517e-05,0.007537,-0.15395,0.010887,0.022299,3.5891e-07,0.96,0.99,0
0.048636,-0.010989,0.025048,1.9092e-05,0.0075202,-5.0893e-05,0,0,0.045573,-0.019503,0,-0.00026464,0,0,0,0.025048,1.8989e-05,0.0075202,-0.1165,0.010863,0.022248,3.5648e-07,0.97,0.99,0
0.049091,-0.011003,0.025008,1.9369e-05,0.0075081,-3.4089e-05,0,0,0.045499,-0.019471,0,-0.00017726,0,0,0,0.025008,1.9322e-05,0.0075081,-0.078163,0.010845,0.022212,3.5474e-07,0.98,0.99,0
0.049546,-0.011011,0.024983,1.9533e-05,0.0075008,-1.7092e-05,0,0,0.045454,-0.019451,0,-8.888e-05,0,0,0,0.024983,1.9521e-05,0.0075008,-0.03923,0.010835,0.02219,3.537e-07,0.99,0.99,0
0.05,-0.011014,0.024975,1.9587e-05,0.0074984,-5.3687e-05,0,0,0.045439,-0.019445,0,-0.00027917,0,0,0,0.024975,1.9472e-05,0.0074984,-0.12326,0.010831,0.022183,3.5336e-07,1,0.99,0
0,0,0.08792,0.03768,0.03768,-0.024593,0,0,0.13062,-1.3878e-17,0,-0.12788,0,0,0,0.097954,0.027646,0.03768,-22.196,0.054427,0.065867,1.3535e-05,0,1,0
0.0013062,-0.0012788,0.063379,0.0045928,0.020392,-0.0097196,0,0,0.11177,-0.041077,0,-0.050542,0,0,0,0.064945,0.0030275,0.020392,-9.1488,0.029455,0.055318,5.8937e-06,0.01,1,0
0.0022354,-0.0020848,0.047333,0.0020344,0.01481,-0.0032008,0,0,0.084559,-0.033217,0,-0.016644,0,0,0,0.047558,0.0018093,0.01481,-4.0219,0.021392,0.040831,2.3386e-06,0.02,1,0
0.0029974,-0.002794,0.039713,3.7252e-05,0.011925,-0.0019709,0,0,0.072248,-0.030908,0,-0.010249,0,0,0,0.03981,-6.0414e-05,0.011925,-2.8369,0.017225,0.035433,1.4347e-06,0.03,1,0
0.0036803,-0.0034141,0.03602,-0.00019782,0.010747,-0.0012552,0,0,0.06571,-0.028455,0,-0.0065271,0,0,0,0.036063,-0.00024127,0.010747,-1.9826,0.015523,0.032246,1.0723e-06,0.04,1,0
0.0043116,-0.003974,0.033556,-0.00030499,0.0099753,-0.00090381,0,0,0.06131,-0.026729,0,-0.0046998,0,0,0,0.03358,-0.0003291,0.0099753,-1.5279,0.014409,0.03011,8.6854e-07,0.05,1,0
0.0049065,-0.0044857,0.031792,-0.00032069,0.0094415,-0.00068279,0,0,0.058112,-0.025382,0,-0.0035505,0,0,0,0.031807,-0.0003352,0.0094415,-1.2175,0.013638,0.028539,7.3866e-07,0.06,1,0
0.0054739,-0.0049575,0.030443,-0.00031723,0.0090378,-0.00053603,0,0,0.055654,-0.024323,0,-0.0027874,0,0,0,0.030452,-0.00032657,0.0090378,-0.99803,0.013055,0.027328,6.4837e-07,0.07,1,0
0.0060196,-0.0053949,0.029376,-0.00030522,0.0087212,-0.00043149,0,0,0.053703,-0.023469,0,-0.0022437,0,0,0,0.029382,-0.00031149,0.0087212,-0.8327,0.012597,0.026365,5.8232e-07,0.08,1,0
0.0065479,-0.0058022,0.028512,-0.00029088,0.0084662,-0.0003539,0,0,0.052118,-0.022769,0,-0.0018403,0,0,0,0.028516,-0.00029523,0.0084662,-0.70385,0.012229,0.025582,5.3218e-07,0.09,1,0
0.007062,-0.0061824,0.0278,-0.00027621,0.008257,-0.00029435,0,0,0.050811,-0.022186,0,-0.0015306,0,0,0,0.027803,-0.00027929,0.008257,-0.6006,0.011927,0.024935,4.9307e-07,0.1,1,0
0.0075641,-0.0065382,0.027205,-0.00026208,0.008083,-0.00024746,0,0,0.049718,-0.021697,0,-0.0012868,0,0,0,0.027208,-0.00026431,0.008083,-0.51614,0.011675,0.024394,4.6193e-07,0.11,1,0
0.0080563,-0.0068715,0.026705,-0.00024883,0.0079368,-0.0002098,0,0,0.048797,-0.021283,0,-0.0010909,0,0,0,0.026707,-0.00025047,0.0079368,-0.44593,0.011464,0.023938,4.3672e-07,0.12,1,0
0.0085401,-0.007184,0.02628,-0.00023655,0.0078131,-0.00017901,0,0,0.048014,-0.020929,0,-0.00093087,0,0,0,0.026281,-0.00023776,0.0078131,-0.38678,0.011286,0.02355,4.1605e-07,0.13,1,0
0.0090166,-0.0074774,0.025918,-0.00022523,0.0077078,-0.00015351,0,0,0.047346,-0.020626,0,-0.00079824,0,0,0,0.025919,-0.00022613,0.0077078,-0.33641,0.011133,0.023218,3.9893e-07,0.14,1,0
0.009487,-0.0077527,0.025607,-0.0002148,0.0076178,-0.00013211,0,0,0.046773,-0.020365,0,-0.000687,0,0,0,0.025608,-0.00021548,0.0076178,-0.29313,0.011003,0.022933,3.8464e-07,0.15,1,0
0.0099521,-0.0080111,0.025341,-0.00020521,0.0075407,-0.00011398,0,0,0.046281,-0.02014,0,-0.00059272,0,0,0,0.025341,-0.00020572,0.0075407,-0.25564,0.010892,0.022689,3.7263e-07,0.16,1,0
0.010413,-0.0082536,0.025112,-0.00019638,0.0074746,-9.8474e-05,0,0,0.045857,-0.019945,0,-0.00051206,0,0,0,0.025112,-0.00019677,0.0074746,-0.22293,0.010797,0.022477,3.6249e-07,0.17,1,0
0.010869,-0.0084809,0.024914,-0.00018824,0.0074179,-8.5089e-05,0,0,0.045491,-0.019776,0,-0.00044246,0,0,0,0.024915,-0.00018852,0.0074179,-0.19421,0.010715,0.022295,3.5392e-07,0.18,1,0
0.011322,-0.008694,0.024745,-0.00018071,0.0073693,-7.3444e-05,0,0,0.045177,-0.01963,0,-0.00038191,0,0,0,0.024745,-0.00018093,0.0073693,-0.16882,0.010644,0.022139,3.4664e-07,0.19,1,0
0.011773,-0.0088934,0.0246,-0.00017374,0.0073278,-6.323e-05,0,0,0.044907,-0.019504,0,-0.00032879,0,0,0,0.0246,-0.0001739,0.0073278,-0.14624,0.010585,0.022004,3.4048e-07,0.2,1,0
0.012221,-0.0090797,0.024476,-0.00016727,0.0072925,-5.4199e-05,0,0,0.044676,-0.019395,0,-0.00028184,0,0,0,0.024476,-0.00016739,0.0072925,-0.12601,0.010534,0.021888,3.3528e-07,0.21,1,0
0.012666,-0.0092536,0.024371,-0.00016125,0.0072628,-4.6148e-05,0,0,0.04448,-0.019303,0,-0.00023997,0,0,0,0.024371,-0.00016134,0.0072628,-0.10778,0.010491,0.02179,3.309e-07,0.22,1,0
0.01311,-0.0094155,0.024282,-0.00015563,0.0072381,-3.8908e-05,0,0,0.044316,-0.019224,0,-0.00020232,0,0,0,0.024283,-0.0001557,0.0072381,-0.09122,0.010455,0.021707,3.2726e-07,0.23,1,0
0.013553,-0.009566,0.02421,-0.00015037,0.0072178,-3.2336e-05,0,0,0.044179,-0.019157,0,-0.00016815,0,0,0,0.02421,-0.00015042,0.0072178,-0.076056,0.010426,0.021638,3.2426e-07,0.24,1,0
0.013994,-0.0097053,0.024151,-0.00014543,0.0072017,-2.6313e-05,0,0,0.044069,-0.019103,0,-0.00013683,0,0,0,0.024151,-0.00014546,0.0072017,-0.062052,0.010403,0.021582,3.2184e-07,0.25,1,0
0.014434,-0.009834,0.024105,-0.00014076,0.0071894,-2.0736e-05,0,0,0.043982,-0.019058,0,-0.00010783,0,0,0,0.024105,-0.00014078,0.0071894,-0.049001,0.010385,0.021538,3.1996e-07,0.26,1,0
0.014873,-0.0099524,0.024072,-0.00013633,0.0071807,-1.5517e-05,0,0,0.043917,-0.019024,0,-8.0687e-05,0,0,0,0.024072,-0.00013634,0.0071807,-0.036725,0.010372,0.021505,3.1856e-07,0.27,1,0
0.015312,-0.010061,0.02405,-0.00013211,0.0071753,-1.0578e-05,0,0,0.043874,-0.018999,0,-5.5005e-05,0,0,0,0.02405,-0.00013211,0.0071753,-0.025063,0.010364,0.021482,3.1763e-07,0.28,1,0
0.015751,-0.01016,0.024039,-0.00012805,0.0071732,-5.8539e-06,0,0,0.04385,-0.018983,0,-3.044e-05,0,0,0,0.024039,-0.00012805,0.0071732,-0.013879,0.010361,0.021468,3.1713e-07,0.29,1,0
0.016189,-0.010249,0.024038,-0.00012413,0.0071741,-1.2872e-06,0,0,0.043846,-0.018975,0,-6.6932e-06,0,0,0,0.024038,-0.00012413,0.0071741,-0.0030522,0.010363,0.021465,3.1705e-07,0.3,1,0
0.016628,-0.010329,0.024048,-0.00012031,0.0071782,3.1717e-06,0,0,0.043861,-0.018976,0,1.6493e-05,0,0,0,0.024048,-0.00012031,0.0071782,0.0075192,0.010368,0.02147,3.1738e-07,0.31,1,0
0.017066,-0.010401,0.024068,-0.00011655,0.0071853,7.5647e-06,0,0,0.043894,-0.018985,0,3.9336e-05,0,0,0,0.024068,-0.00011656,0.0071853,0.017922,0.010379,0.021485,3.1812e-07,0.32,1,0
0.017506,-0.010464,0.024098,-0.00011284,0.0071955,1.1927e-05,0,0,0.043946,-0.019002,0,6.202e-05,0,0,0,0.024098,-0.00011284,0.0071955,0.028226,0.010393,0.021509,3.1926e-07,0.33,1,0
0.017945,-0.010518,0.024138,-0.00010912,0.0072087,1.6287e-05,0,0,0.044017,-0.019026,0,8.469e-05,0,0,0,0.024138,-0.00010914,0.0072087,0.038484,0.010413,0.021542,3.2082e-07,0.34,1,0
0.018386,-0.010565,0.024189,-0.00010538,0.0072251,2.0665e-05,0,0,0.044106,-0.019059,0,0.00010746,0,0,0,0.024189,-0.0001054,0.0072251,0.048737,0.010436,0.021584,3.2279e-07,0.35,1,0
0.018828,-0.010604,0.02425,-0.00010158,0.0072445,2.5078e-05,0,0,0.044214,-0.0191,0,0.00013041,0,0,0,0.02425,-0.00010161,0.0072445,0.059005,0.010464,0.021635,3.2518e-07,0.36,1,0
0.01927,-0.010635,0.024322,-9.7688e-05,0.0072672,2.9534e-05,0,0,0.044342,-0.019149,0,0.00015357,0,0,0,0.024322,-9.7724e-05,0.0072672,0.069295,0.010497,0.021696,3.2802e-07,0.37,1,0
0.019714,-0.010659,0.024404,-9.3678e-05,0.0072932,3.4032e-05,0,0,0.044489,-0.019206,0,0.00017697,0,0,0,0.024404,-9.3725e-05,0.0072932,0.079595,0.010535,0.021766,3.313e-07,0.38,1,0
0.02016,-0.010676,0.024498,-8.9521e-05,0.0073224,3.8569e-05,0,0,0.044656,-0.019271,0,0.00020056,0,0,0,0.024498,-8.9582e-05,0.0073224,0.089877,0.010577,0.021846,3.3506e-07,0.39,1,0
0.020608,-0.010687,0.024602,-8.5193e-05,0.0073551,4.313e-05,0,0,0.044842,-0.019345,0,0.00022427,0,0,0,0.024602,-8.5268e-05,0.0073551,0.1001,0.010624,0.021935,3.3929e-07,0.4,1,0
0.021057,-0.010691,0.024718,-8.0669e-05,0.0073911,4.7694e-05,0,0,0.045049,-0.019427,0,0.00024801,0,0,0,0.024718,-8.0761e-05,0.0073911,0.1102,0.010676,0.022034,3.4403e-07,0.41,1,0
0.021508,-0.010689,0.024845,-7.593e-05,0.0074306,5.2234e-05,0,0,0.045276,-0.019517,0,0.00027162,0,0,0,0.024845,-7.604e-05,0.0074306,0.12009,0.010733,0.022143,3.4927e-07,0.42,1,0
0.021962,-0.010681,0.024983,-7.096e-05,0.0074735,5.6715e-05,0,0,0.045524,-0.019616,0,0.00029492,0,0,0,0.024983,-7.1088e-05,0.0074735,0.1297,0.010795,0.022262,3.5505e-07,0.43,1,0
0.022419,-0.010668,0.025131,-6.5745e-05,0.0075197,6.1093e-05,0,0,0.04579,-0.019722,0,0.00031768,0,0,0,0.025132,-6.5893e-05,0.0075197,0.13892,0.010862,0.02239,3.6135e-07,0.44,1,0
0.022878,-0.01065,0.025291,-6.0278e-05,0.0075692,6.5319e-05,0,0,0.046077,-0.019837,0,0.00033966,0,0,0,0.025291,-6.0446e-05,0.0075692,0.14762,0.010933,0.022528,3.6818e-07,0.45,1,0
0.023341,-0.010627,0.025461,-5.4556e-05,0.0076219,6.9337e-05,0,0,0.046381,-0.019959,0,0.00036055,0,0,0,0.025461,-5.4744e-05,0.0076219,0.1557,0.011009,0.022674,3.7556e-07,0.46,1,0
0.023806,-0.0106,0.025641,-4.8583e-05,0.0076776,7.3087e-05,0,0,0.046704,-0.020088,0,0.00038005,0,0,0,0.025641,-4.8791e-05,0.0076776,0.16301,0.01109,0.022829,3.8346e-07,0.47,1,0
0.024275,-0.010569,0.025829,-4.2367e-05,0.007736,7.6501e-05,0,0,0.047042,-0.020224,0,0.00039781,0,0,0,0.025829,-4.2594e-05,0.007736,0.16942,0.011174,0.022992,3.9188e-07,0.48,1,0
0.024747,-0.010535,0.026026,-3.5927e-05,0.007797,7.9512e-05,0,0,0.047395,-0.020366,0,0.00041346,0,0,0,0.026026,-3.6169e-05,0.007797,0.1748,0.011262,0.023161,4.008e-07,0.49,1,0
0.025222,-0.010498,0.02623,-2.9283e-05,0.0078601,8.2049e-05,0,0,0.047761,-0.020512,0,0.00042665,0,0,0,0.02623,-2.954e-05,0.0078601,0.17902,0.011354,0.023337,4.1017e-07,0.5,1,0
0.025702,-0.010459,0.026439,-2.2468e-05,0.007925,8.404e-05,0,0,0.048137,-0.020664,0,0.00043701,0,0,0,0.02644,-2.2735e-05,0.007925,0.18196,0.011447,0.023518,4.1996e-07,0.51,1,0
0.026185,-0.010418,0.026653,-1.5519e-05,0.0079913,8.5418e-05,0,0,0.048521,-0.020818,0,0.00044417,0,0,0,0.026653,-1.5793e-05,0.0079913,0.18351,0.011543,0.023703,4.3011e-07,0.52,1,0
0.026672,-0.010376,0.02687,-8.4802e-06,0.0080584,8.6116e-05,0,0,0.048909,-0.020974,0,0.0004478,0,0,0,0.02687,-8.7561e-06,0.0080584,0.18357,0.01164,0.02389,4.4055e-07,0.53,1,0
0.027163,-0.010334,0.027087,-1.4029e-06,0.0081257,8.6075e-05,0,0,0.0493,-0.02113,0,0.00044759,0,0,0,0.027087,-1.6764e-06,0.0081257,0.18206,0.011737,0.024077,4.5121e-07,0.54,1,0
0.027658,-0.010291,0.027304,5.6557e-06,0.0081928,8.5244e-05,0,0,0.049688,-0.021287,0,0.00044327,0,0,0,0.027304,5.3895e-06,0.0081928,0.17892,0.011834,0.024264,4.6199e-07,0.55,1,0
0.028157,-0.010249,0.027517,1.2633e-05,0.0082589,8.3581e-05,0,0,0.050071,-0.02144,0,0.00043462,0,0,0,0.027517,1.2379e-05,0.0082589,0.17411,0.01193,0.024448,4.7278e-07,0.56,1,0
0.02866,-0.010208,0.027726,1.9462e-05,0.0083235,8.1057e-05,0,0,0.050445,-0.02159,0,0.0004215,0,0,0,0.027726,1.9225e-05,0.0083235,0.16762,0.012023,0.024628,4.8348e-07,0.57,1,0
0.029166,-0.010168,0.027926,2.6073e-05,0.0083858,7.7656e-05,0,0,0.050806,-0.021735,0,0.00040381,0,0,0,0.027927,2.5856e-05,0.0083858,0.15947,0.012113,0.024801,4.9394e-07,0.58,1,0
0.029676,-0.010131,0.028118,3.2393e-05,0.0084451,7.3376e-05,0,0,0.051149,-0.021873,0,0.00038155,0,0,0,0.028118,3.2202e-05,0.0084451,0.14969,0.012198,0.024966,5.0404e-07,0.59,1,0
0.030189,-0.010097,0.028297,3.8352e-05,0.0085007,6.8232e-05,0,0,0.051471,-0.022002,0,0.00035481,0,0,0,0.028297,3.8187e-05,0.0085007,0.13834,0.012279,0.025121,5.1364e-07,0.6,1,0
0.030705,-0.010065,0.028463,4.3876e-05,0.008552,6.2257e-05,0,0,0.051768,-0.022121,0,0.00032373,0,0,0,0.028463,4.374e-05,0.008552,0.12552,0.012353,0.025264,5.226e-07,0.61,1,0
0.031224,-0.010038,0.028612,4.8899e-05,0.0085984,5.5497e-05,0,0,0.052036,-0.022229,0,0.00028858,0,0,0,0.028612,4.8791e-05,0.0085984,0.11132,0.01242,0.025392,5.3078e-07,0.62,1,0
0.031746,-0.010015,0.028744,5.3354e-05,0.0086391,4.8017e-05,0,0,0.052272,-0.022323,0,0.00024969,0,0,0,0.028744,5.3274e-05,0.0086391,0.095891,0.012479,0.025506,5.3805e-07,0.63,1,0
0.03227,-0.0099958,0.028856,5.7185e-05,0.0086738,3.9897e-05,0,0,0.052473,-0.022403,0,0.00020746,0,0,0,0.028856,5.713e-05,0.0086738,0.079376,0.012529,0.025602,5.4427e-07,0.64,1,0
0.032795,-0.0099819,0.028946,6.0338e-05,0.008702,3.123e-05,0,0,0.052635,-0.022468,0,0.0001624,0,0,0,0.028946,6.0305e-05,0.008702,0.061946,0.01257,0.02568,5.4935e-07,0.65,1,0
0.033322,-0.0099731,0.029014,6.2772e-05,0.0087231,2.2123e-05,0,0,0.052757,-0.022517,0,0.00011504,0,0,0,0.029014,6.2755e-05,0.0087231,0.043783,0.0126,0.025738,5.5319e-07,0.66,1,0
0.033851,-0.0099697,0.029059,6.4452e-05,0.008737,1.2693e-05,0,0,0.052837,-0.022549,0,6.6004e-05,0,0,0,0.029059,6.4447e-05,0.008737,0.025083,0.01262,0.025777,5.5571e-07,0.67,1,0
0.034379,-0.0099717,0.029079,6.5356e-05,0.0087434,3.0632e-06,0,0,0.052874,-0.022563,0,1.5928e-05,0,0,0,0.029079,6.5355e-05,0.0087434,0.006049,0.012629,0.025794,5.5687e-07,0.68,1,0
0.034908,-0.0099794,0.029076,6.5471e-05,0.0087423,-6.637e-06,0,0,0.052866,-0.02256,0,-3.4512e-05,0,0,0,0.029076,6.5469e-05,0.0087423,-0.013108,0.012628,0.025791,5.5664e-07,0.69,1,0
0.035437,-0.0099926,0.029047,6.4797e-05,0.0087335,-1.6276e-05,0,0,0.052815,-0.022539,0,-8.4634e-05,0,0,0,0.029047,6.4788e-05,0.0087335,-0.032176,0.012615,0.025766,5.5502e-07,0.7,1,0
0.035964,-0.010011,0.028994,6.3345e-05,0.0087173,-2.5722e-05,0,0,0.05272,-0.0225,0,-0.00013376,0,0,0,0.028994,6.3322e-05,0.0087173,-0.050941,0.012592,0.02572,5.5204e-07,0.71,1,0
0.036491,-0.010035,0.028918,6.1136e-05,0.0086938,-3.4849e-05,0,0,0.052583,-0.022445,0,-0.00018122,0,0,0,0.028918,6.1094e-05,0.0086938,-0.069194,0.012558,0.025654,5.4774e-07,0.72,1,0
0.037016,-0.010065,0.02882,5.8205e-05,0.0086633,-4.3536e-05,0,0,0.052406,-0.022373,0,-0.00022639,0,0,0,0.02882,5.8139e-05,0.0086633,-0.086728,0.012514,0.025569,5.4221e-07,0.73,1,0
0.037539,-0.010099,0.028699,5.4594e-05,0.0086262,-5.1669e-05,0,0,0.052191,-0.022286,0,-0.00026868,0,0,0,0.0287,5.4501e-05,0.0086262,-0.10335,0.01246,0.025465,5.3554e-07,0.74,1,0
0.03806,-0.010138,0.02856,5.0355e-05,0.0085831,-5.9148e-05,0,0,0.05194,-0.022185,0,-0.00030757,0,0,0,0.02856,5.0232e-05,0.0085831,-0.11887,0.012398,0.025344,5.2784e-07,0.75,1,0
0.038578,-0.010181,0.028402,4.5548e-05,0.0085343,-6.5885e-05,0,0,0.051656,-0.022071,0,-0.0003426,0,0,0,0.028402,4.5395e-05,0.0085343,-0.13312,0.012327,0.025208,5.1923e-07,0.76,1,0
0.039093,-0.010228,0.028229,4.024e-05,0.0084806,-7.1804e-05,0,0,0.051345,-0.021945,0,-0.00037338,0,0,0,0.028229,4.0057e-05,0.0084806,-0.14595,0.01225,0.025058,5.0987e-07,0.77,1,0
0.039605,-0.010279,0.028041,3.4503e-05,0.0084227,-7.6849e-05,0,0,0.051008,-0.021809,0,-0.00039961,0,0,0,0.028041,3.4292e-05,0.0084227,-0.15721,0.012166,0.024896,4.9989e-07,0.78,1,0
0.040113,-0.010332,0.027842,2.8413e-05,0.0083612,-8.0975e-05,0,0,0.050651,-0.021665,0,-0.00042107,0,0,0,0.027842,2.8177e-05,0.0083612,-0.16681,0.012077,0.024724,4.8943e-07,0.79,1,0
0.040618,-0.010388,0.027634,2.2047e-05,0.0082968,-8.4157e-05,0,0,0.050277,-0.021514,0,-0.00043762,0,0,0,0.027634,2.179e-05,0.0082968,-0.17463,0.011984,0.024545,4.7866e-07,0.8,1,0
0.041119,-0.010445,0.027419,1.5483e-05,0.0082304,-8.6384e-05,0,0,0.049891,-0.021359,0,-0.00044919,0,0,0,0.027419,1.5211e-05,0.0082304,-0.18061,0.011888,0.024359,4.677e-07,0.81,1,0
0.041616,-0.010504,0.0272,8.8006e-06,0.0081626,-8.7658e-05,0,0,0.049497,-0.0212,0,-0.00045582,0,0,0,0.0272,8.5181e-06,0.0081626,-0.18471,0.01179,0.024169,4.5669e-07,0.82,1,0
0.042109,-0.010563,0.026979,2.075e-06,0.0080942,-8.7998e-05,0,0,0.0491,-0.02104,0,-0.00045759,0,0,0,0.026979,1.788e-06,0.0080942,-0.1869,0.011692,0.023978,4.4576e-07,0.83,1,0
0.042598,-0.010623,0.026758,-4.6204e-06,0.008026,-8.7434e-05,0,0,0.048703,-0.02088,0,-0.00045465,0,0,0,0.026758,-4.906e-06,0.008026,-0.18718,0.011593,0.023787,4.3502e-07,0.84,1,0
0.043083,-0.010682,0.02654,-1.1216e-05,0.0079586,-8.6004e-05,0,0,0.048311,-0.020721,0,-0.00044722,0,0,0,0.02654,-1.1495e-05,0.0079586,-0.18559,0.011496,0.023599,4.2458e-07,0.85,1,0
0.043564,-0.01074,0.026326,-1.7648e-05,0.0078926,-8.3757e-05,0,0,0.047928,-0.020567,0,-0.00043554,0,0,0,0.026327,-1.7914e-05,0.0078926,-0.18216,0.0114,0.023414,4.1452e-07,0.86,1,0
0.044041,-0.010797,0.02612,-2.3856e-05,0.0078287,-8.0749e-05,0,0,0.047556,-0.020417,0,-0.0004199,0,0,0,0.02612,-2.4106e-05,0.0078287,-0.17697,0.011308,0.023235,4.0494e-07,0.87,1,0
0.044515,-0.010851,0.025921,-2.9787e-05,0.0077675,-7.704e-05,0,0,0.0472,-0.020273,0,-0.00040061,0,0,0,0.025922,-3.0015e-05,0.0077675,-0.17009,0.01122,0.023064,3.9589e-07,0.88,1,0
0.044985,-0.010903,0.025733,-3.5391e-05,0.0077094,-7.2692e-05,0,0,0.046862,-0.020137,0,-0.000378,0,0,0,0.025734,-3.5596e-05,0.0077094,-0.16162,0.011136,0.022901,3.8743e-07,0.89,1,0
0.045452,-0.010953,0.025557,-4.0627e-05,0.007655,-6.7769e-05,0,0,0.046546,-0.020008,0,-0.0003524,0,0,0,0.025557,-4.0806e-05,0.007655,-0.15169,0.011057,0.022749,3.7961e-07,0.9,1,0
0.045916,-0.010998,0.025394,-4.5458e-05,0.0076046,-6.2336e-05,0,0,0.046253,-0.01989,0,-0.00032415,0,0,0,0.025394,-4.561e-05,0.0076046,-0.14039,0.010984,0.022607,3.7246e-07,0.91,1,0
0.046377,-0.01104,0.025245,-4.9852e-05,0.0075586,-5.6456e-05,0,0,0.045985,-0.019782,0,-0.00029357,0,0,0,0.025245,-4.9978e-05,0.0075586,-0.12788,0.010918,0.022478,3.6602e-07,0.92,1,0
0.046836,-0.011078,0.025111,-5.3782e-05,0.0075173,-5.019e-05,0,0,0.045745,-0.019685,0,-0.00026099,0,0,0,0.025111,-5.3882e-05,0.0075173,-0.11427,0.010858,0.022363,3.603e-07,0.93,1,0
0.047292,-0.011112,0.024994,-5.7227e-05,0.007481,-4.3596e-05,0,0,0.045533,-0.019599,0,-0.0002267,0,0,0,0.024994,-5.7303e-05,0.007481,-0.09971,0.010806,0.022261,3.5532e-07,0.94,1,0
0.047746,-0.01114,0.024893,-6.0169e-05,0.0074499,-3.6728e-05,0,0,0.045353,-0.019526,0,-0.00019098,0,0,0,0.024893,-6.0223e-05,0.0074499,-0.084331,0.010761,0.022174,3.5109e-07,0.95,1,0
0.048199,-0.011164,0.02481,-6.2593e-05,0.0074243,-2.9639e-05,0,0,0.045203,-0.019466,0,-0.00015412,0,0,0,0.02481,-6.2629e-05,0.0074243,-0.068274,0.010724,0.022102,3.4763e-07,0.96,1,0
0.048651,-0.011183,0.024745,-6.4489e-05,0.0074042,-2.2376e-05,0,0,0.045086,-0.019419,0,-0.00011636,0,0,0,0.024745,-6.4509e-05,0.0074042,-0.051676,0.010695,0.022045,3.4493e-07,0.97,1,0
0.049101,-0.011197,0.024698,-6.5849e-05,0.0073897,-1.4987e-05,0,0,0.045002,-0.019385,0,-7.7932e-05,0,0,0,0.024698,-6.5858e-05,0.0073897,-0.034674,0.010674,0.022005,3.43e-07,0.98,1,0
0.049551,-0.011205,0.02467,-6.6667e-05,0.0073811,-7.5141e-06,0,0,0.044952,-0.019364,0,-3.9073e-05,0,0,0,0.02467,-6.6669e-05,0.0073811,-0.017404,0.010662,0.021981,3.4184e-07,0.99,1,0
0.05,-0.011208,0.024661,-6.694e-05,0.0073782,-5.2372e-05,0,0,0.044935,-0.019357,0,-0.00027234,0,0,0,0.024661,-6.7051e-05,0.0073782,-0.12135,0.010657,0.021973,3.4146e-07,1,1,0
