"Displacements:0","Displacements:1","Stress/Strain:0","Stress/Strain:1","Stress/Strain:2","Stress/Strain:3","Stress/Strain:4","Stress/Strain:5","Stress/Strain:6","Stress/Strain:7","Stress/Strain:8","Stress/Strain:9","Stress/Strain:10","Stress/Strain:11","Stress/Strain:12","Principal Stress:0","Principal Stress:1","Principal Stress:2","Principal Stress:3","Principal Stress:4","Principal Stress:5","Principal Stress:6","nodes:0","nodes:1","nodes:2"
0,0,0.086823,0.03721,0.03721,0.024233,0,0,0.12899,1.0408e-17,0,0.12601,0,0,0,0.096695,0.027338,0.03721,22.165,0.053747,0.064986,1.3006e-05,0,0,0
0.0012899,0.0012601,0.062633,0.0045212,0.020146,0.009568,0,0,0.11047,-0.040625,0,0.049754,0,0,0,0.064168,0.0029864,0.020146,9.1133,0.0291,0.054661,5.6853e-06,0.01,0,0
0.0022093,0.0020534,0.046879,0.0020105,0.014667,0.0031374,0,0,0.083752,-0.032907,0,0.016314,0,0,0,0.047098,0.0017922,0.014667,3.9805,0.021186,0.040436,2.2713e-06,0.02,0,0
0.002965,0.002752,0.039417,4.811e-05,0.011839,0.0019291,0,0,0.071701,-0.030658,0,0.010031,0,0,0,0.039511,-4.6191e-05,0.011839,2.7986,0.017101,0.035155,1.402e-06,0.03,0,0
0.0036433,0.0033642,0.035811,-0.0001793,0.010689,0.001227,0,0,0.065316,-0.028259,0,0.0063806,0,0,0,0.035853,-0.00022109,0.010689,1.9504,0.01544,0.032043,1.0531e-06,0.04,0,0
0.0042713,0.0039185,0.033407,-0.00028264,0.0099372,0.00088338,0,0,0.06102,-0.026572,0,0.0045936,0,0,0,0.03343,-0.00030579,0.0099372,1.501,0.014354,0.029958,8.5634e-07,0.05,0,0
0.0048638,0.0044268,0.031685,-0.00029687,0.0094164,0.00066749,0,0,0.057898,-0.025254,0,0.0034709,0,0,0,0.031699,-0.00031079,0.0094164,1.1951,0.013602,0.028423,7.3059e-07,0.06,0,0
0.0054293,0.0048972,0.030367,-0.00029284,0.0090221,0.0005242,0,0,0.055496,-0.024219,0,0.0027258,0,0,0,0.030375,-0.0003018,0.0090221,0.97923,0.013032,0.02724,6.4295e-07,0.07,0,0
0.0059737,0.0053354,0.029323,-0.00028076,0.0087128,0.00042203,0,0,0.053588,-0.023383,0,0.0021946,0,0,0,0.029329,-0.00028678,0.0087128,0.81658,0.012585,0.026298,5.7868e-07,0.08,0,0
0.006501,0.0057452,0.028478,-0.00026661,0.0084634,0.00034602,0,0,0.052038,-0.022698,0,0.0017993,0,0,0,0.028482,-0.00027077,0.0084634,0.68958,0.012225,0.025532,5.2982e-07,0.09,0,0
0.0070144,0.0061298,0.027782,-0.00025224,0.0082588,0.00028746,0,0,0.050759,-0.022129,0,0.0014948,0,0,0,0.027785,-0.00025519,0.0082588,0.58743,0.011929,0.0249,4.9168e-07,0.1,0,0
0.0075162,0.0064916,0.027202,-0.00023847,0.008089,0.00024112,0,0,0.049693,-0.021651,0,0.0012538,0,0,0,0.027204,-0.00024059,0.008089,0.50341,0.011684,0.024372,4.6132e-07,0.11,0,0
0.0080083,0.0068327,0.026715,-0.00022558,0.0079468,0.00020363,0,0,0.048797,-0.021248,0,0.0010589,0,0,0,0.026716,-0.00022712,0.0079468,0.43305,0.011479,0.023928,4.3681e-07,0.12,0,0
0.0084922,0.0071547,0.026304,-0.00021362,0.0078271,0.00017276,0,0,0.048039,-0.020906,0,0.00089838,0,0,0,0.026305,-0.00021475,0.0078271,0.37327,0.011306,0.023552,4.1679e-07,0.13,0,0
0.0089691,0.0074589,0.025956,-0.00020256,0.0077259,0.00014696,0,0,0.047397,-0.020614,0,0.00076418,0,0,0,0.025957,-0.00020339,0.0077259,0.32188,0.01116,0.023233,4.0031e-07,0.14,0,0
0.0094401,0.0077467,0.025661,-0.00019234,0.0076405,0.00012511,0,0,0.046853,-0.020366,0,0.00065056,0,0,0,0.025661,-0.00019294,0.0076405,0.27726,0.011036,0.022963,3.8668e-07,0.15,0,0
0.0099061,0.0080191,0.025411,-0.00018287,0.0075684,0.00010641,0,0,0.046391,-0.020153,0,0.00055333,0,0,0,0.025411,-0.00018331,0.0075684,0.23821,0.010932,0.022733,3.7537e-07,0.16,0,0
0.010368,0.008277,0.0252,-0.00017407,0.0075078,9.026e-05,0,0,0.046,-0.019973,0,0.00046935,0,0,0,0.025201,-0.00017439,0.0075078,0.20381,0.010845,0.022538,3.6598e-07,0.17,0,0
0.010826,0.0085213,0.025023,-0.00016587,0.0074572,7.6203e-05,0,0,0.045671,-0.01982,0,0.00039625,0,0,0,0.025023,-0.0001661,0.0074572,0.17333,0.010771,0.022374,3.5822e-07,0.18,0,0
0.011281,0.0087528,0.024876,-0.0001582,0.0074152,6.3886e-05,0,0,0.045397,-0.019691,0,0.00033221,0,0,0,0.024876,-0.00015837,0.0074152,0.14622,0.010711,0.022237,3.5181e-07,0.19,0,0
0.011734,0.0089721,0.024754,-0.00015102,0.0073809,5.3032e-05,0,0,0.04517,-0.019583,0,0.00027577,0,0,0,0.024754,-0.00015113,0.0073809,0.122,0.010661,0.022123,3.4658e-07,0.2,0,0
0.012185,0.0091798,0.024655,-0.00014426,0.0073533,4.3422e-05,0,0,0.044985,-0.019494,0,0.00022579,0,0,0,0.024656,-0.00014433,0.0073533,0.10032,0.010622,0.02203,3.4236e-07,0.21,0,0
0.012634,0.0093767,0.024577,-0.00013787,0.0073318,3.4879e-05,0,0,0.044838,-0.019421,0,0.00018137,0,0,0,0.024577,-0.00013792,0.0073318,0.080859,0.01059,0.021955,3.3903e-07,0.22,0,0
0.013081,0.0095631,0.024517,-0.00013184,0.0073156,2.7261e-05,0,0,0.044724,-0.019363,0,0.00014176,0,0,0,0.024517,-0.00013187,0.0073156,0.063367,0.010567,0.021897,3.3646e-07,0.23,0,0
0.013528,0.0097397,0.024473,-0.00012611,0.0073041,2.0449e-05,0,0,0.04464,-0.019319,0,0.00010634,0,0,0,0.024473,-0.00012612,0.0073041,0.04763,0.01055,0.021853,3.3458e-07,0.24,0,0
0.013974,0.0099068,0.024444,-0.00012066,0.0072969,1.4347e-05,0,0,0.044582,-0.019286,0,7.4605e-05,0,0,0,0.024444,-0.00012067,0.0072969,0.033464,0.01054,0.021823,3.333e-07,0.25,0,0
0.01442,0.010065,0.024428,-0.00011547,0.0072936,8.8727e-06,0,0,0.044548,-0.019264,0,4.6138e-05,0,0,0,0.024428,-0.00011548,0.0072936,0.020713,0.010535,0.021804,3.3256e-07,0.26,0,0
0.014865,0.010215,0.024423,-0.00011052,0.0072937,3.9571e-06,0,0,0.044536,-0.019251,0,2.0577e-05,0,0,0,0.024423,-0.00011052,0.0072937,0.0092415,0.010535,0.021796,3.323e-07,0.27,0,0
0.015311,0.010356,0.024429,-0.00010578,0.0072968,-4.5817e-07,0,0,0.044543,-0.019247,0,-2.3825e-06,0,0,0,0.024429,-0.00010578,0.0072968,-0.00107,0.01054,0.021797,3.3247e-07,0.28,0,0
0.015756,0.01049,0.024444,-0.00010124,0.0073028,-4.4233e-06,0,0,0.044567,-0.01925,0,-2.3001e-05,0,0,0,0.024444,-0.00010124,0.0073028,-0.010325,0.010548,0.021807,3.3302e-07,0.29,0,0
0.016202,0.010616,0.024467,-9.6892e-05,0.0073112,-7.9818e-06,0,0,0.044606,-0.019261,0,-4.1505e-05,0,0,0,0.024467,-9.6895e-05,0.0073112,-0.018617,0.010561,0.021825,3.3392e-07,0.3,0,0
0.016648,0.010735,0.024499,-9.2716e-05,0.0073218,-1.1171e-05,0,0,0.04466,-0.019278,0,-5.8092e-05,0,0,0,0.024499,-9.2721e-05,0.0073218,-0.026029,0.010576,0.021849,3.3514e-07,0.31,0,0
0.017095,0.010848,0.024536,-8.8703e-05,0.0073343,-1.4025e-05,0,0,0.044726,-0.0193,0,-7.2932e-05,0,0,0,0.024536,-8.8711e-05,0.0073343,-0.032633,0.010594,0.021879,3.3664e-07,0.32,0,0
0.017543,0.010954,0.024581,-8.4844e-05,0.0073487,-1.6573e-05,0,0,0.044803,-0.019327,0,-8.618e-05,0,0,0,0.024581,-8.4855e-05,0.0073487,-0.038498,0.010615,0.021915,3.3839e-07,0.33,0,0
0.017991,0.011054,0.02463,-8.1131e-05,0.0073646,-1.8841e-05,0,0,0.044889,-0.019359,0,-9.797e-05,0,0,0,0.02463,-8.1145e-05,0.0073646,-0.043684,0.010638,0.021956,3.4037e-07,0.34,0,0
0.01844,0.011148,0.024684,-7.7556e-05,0.0073819,-2.0851e-05,0,0,0.044985,-0.019394,0,-0.00010842,0,0,0,0.024684,-7.7574e-05,0.0073819,-0.048247,0.010663,0.022001,3.4256e-07,0.35,0,0
0.018891,0.011237,0.024742,-7.4112e-05,0.0074003,-2.2625e-05,0,0,0.045088,-0.019434,0,-0.00011765,0,0,0,0.024742,-7.4133e-05,0.0074003,-0.052237,0.010689,0.02205,3.4494e-07,0.36,0,0
0.019342,0.01132,0.024804,-7.0794e-05,0.0074199,-2.4182e-05,0,0,0.045198,-0.019476,0,-0.00012575,0,0,0,0.024804,-7.0818e-05,0.0074199,-0.0557,0.010718,0.022103,3.4748e-07,0.37,0,0
0.019795,0.011398,0.024869,-6.7597e-05,0.0074404,-2.5539e-05,0,0,0.045314,-0.019521,0,-0.0001328,0,0,0,0.024869,-6.7623e-05,0.0074404,-0.05868,0.010747,0.022158,3.5017e-07,0.38,0,0
0.020249,0.011471,0.024937,-6.4515e-05,0.0074616,-2.6711e-05,0,0,0.045435,-0.019568,0,-0.0001389,0,0,0,0.024937,-6.4543e-05,0.0074616,-0.061215,0.010778,0.022216,3.5299e-07,0.39,0,0
0.020703,0.01154,0.025007,-6.1544e-05,0.0074835,-2.7714e-05,0,0,0.04556,-0.019617,0,-0.00014411,0,0,0,0.025007,-6.1574e-05,0.0074835,-0.063343,0.010809,0.022276,3.5592e-07,0.4,0,0
0.02116,0.011605,0.025079,-5.868e-05,0.007506,-2.8559e-05,0,0,0.045689,-0.019668,0,-0.00014851,0,0,0,0.025079,-5.8712e-05,0.007506,-0.065096,0.010842,0.022337,3.5896e-07,0.41,0,0
0.021617,0.011665,0.025152,-5.5919e-05,0.0075289,-2.926e-05,0,0,0.045821,-0.01972,0,-0.00015215,0,0,0,0.025152,-5.5953e-05,0.0075289,-0.066506,0.010875,0.0224,3.6208e-07,0.42,0,0
0.022076,0.011721,0.025227,-5.3259e-05,0.0075521,-2.9827e-05,0,0,0.045955,-0.019774,0,-0.0001551,0,0,0,0.025227,-5.3294e-05,0.0075521,-0.067601,0.010909,0.022465,3.6528e-07,0.43,0,0
0.022536,0.011774,0.025303,-5.0695e-05,0.0075756,-3.0271e-05,0,0,0.046091,-0.019828,0,-0.00015741,0,0,0,0.025303,-5.0731e-05,0.0075756,-0.068409,0.010943,0.02253,3.6854e-07,0.44,0,0
0.022998,0.011823,0.025379,-4.8225e-05,0.0075994,-3.0602e-05,0,0,0.046228,-0.019884,0,-0.00015913,0,0,0,0.025379,-4.8262e-05,0.0075994,-0.068954,0.010977,0.022596,3.7186e-07,0.45,0,0
0.023461,0.011869,0.025456,-4.5846e-05,0.0076232,-3.0827e-05,0,0,0.046367,-0.019939,0,-0.0001603,0,0,0,0.025456,-4.5883e-05,0.0076232,-0.069259,0.011011,0.022663,3.7522e-07,0.46,0,0
0.023925,0.011911,0.025534,-4.3555e-05,0.0076471,-3.0957e-05,0,0,0.046505,-0.019996,0,-0.00016098,0,0,0,0.025534,-4.3592e-05,0.0076471,-0.069347,0.011046,0.02273,3.7861e-07,0.47,0,0
0.024391,0.01195,0.025611,-4.1349e-05,0.0076709,-3.0998e-05,0,0,0.046644,-0.020052,0,-0.00016119,0,0,0,0.025611,-4.1387e-05,0.0076709,-0.069235,0.01108,0.022797,3.8202e-07,0.48,0,0
0.024858,0.011987,0.025688,-3.9227e-05,0.0076947,-3.0958e-05,0,0,0.046783,-0.020108,0,-0.00016098,0,0,0,0.025688,-3.9264e-05,0.0076947,-0.068944,0.011114,0.022864,3.8544e-07,0.49,0,0
0.025327,0.012021,0.025765,-3.7185e-05,0.0077183,-3.0843e-05,0,0,0.046921,-0.020164,0,-0.00016039,0,0,0,0.025765,-3.7222e-05,0.0077183,-0.06849,0.011149,0.02293,3.8887e-07,0.5,0,0
0.025797,0.012052,0.025841,-3.5222e-05,0.0077418,-3.0661e-05,0,0,0.047059,-0.02022,0,-0.00015944,0,0,0,0.025841,-3.5259e-05,0.0077418,-0.067889,0.011183,0.022996,3.9231e-07,0.51,0,0
0.026268,0.012081,0.025917,-3.3335e-05,0.007765,-3.0416e-05,0,0,0.047195,-0.020276,0,-0.00015816,0,0,0,0.025917,-3.3371e-05,0.007765,-0.067155,0.011216,0.023062,3.9573e-07,0.52,0,0
0.026741,0.012108,0.025992,-3.1523e-05,0.007788,-3.0114e-05,0,0,0.047329,-0.020331,0,-0.00015659,0,0,0,0.025992,-3.1557e-05,0.007788,-0.066303,0.011249,0.023127,3.9913e-07,0.53,0,0
0.027214,0.012132,0.026065,-2.9781e-05,0.0078107,-2.9761e-05,0,0,0.047462,-0.020385,0,-0.00015476,0,0,0,0.026066,-2.9815e-05,0.0078107,-0.065344,0.011282,0.023191,4.0252e-07,0.54,0,0
0.02769,0.012155,0.026138,-2.811e-05,0.0078331,-2.9361e-05,0,0,0.047594,-0.020439,0,-0.00015268,0,0,0,0.026138,-2.8143e-05,0.0078331,-0.064291,0.011314,0.023255,4.0587e-07,0.55,0,0
0.028166,0.012175,0.02621,-2.6507e-05,0.0078551,-2.8919e-05,0,0,0.047723,-0.020492,0,-0.00015038,0,0,0,0.02621,-2.6539e-05,0.0078551,-0.063155,0.011346,0.023317,4.0919e-07,0.56,0,0
0.028644,0.012194,0.026281,-2.4969e-05,0.0078767,-2.844e-05,0,0,0.04785,-0.020544,0,-0.00014789,0,0,0,0.026281,-2.5e-05,0.0078767,-0.061944,0.011378,0.023379,4.1248e-07,0.57,0,0
0.029123,0.012211,0.02635,-2.3495e-05,0.0078979,-2.7926e-05,0,0,0.047975,-0.020596,0,-0.00014521,0,0,0,0.02635,-2.3525e-05,0.0078979,-0.060668,0.011408,0.023439,4.1572e-07,0.58,0,0
0.029604,0.012226,0.026418,-2.2083e-05,0.0079187,-2.7381e-05,0,0,0.048098,-0.020646,0,-0.00014238,0,0,0,0.026418,-2.2112e-05,0.0079187,-0.059336,0.011438,0.023498,4.1892e-07,0.59,0,0
0.030085,0.01224,0.026484,-2.0732e-05,0.007939,-2.681e-05,0,0,0.048217,-0.020695,0,-0.00013941,0,0,0,0.026484,-2.0759e-05,0.007939,-0.057955,0.011468,0.023556,4.2206e-07,0.6,0,0
0.030568,0.012253,0.026549,-1.9438e-05,0.0079589,-2.6214e-05,0,0,0.048335,-0.020744,0,-0.00013631,0,0,0,0.026549,-1.9464e-05,0.0079589,-0.056532,0.011496,0.023613,4.2515e-07,0.61,0,0
0.031052,0.012264,0.026613,-1.8201e-05,0.0079783,-2.5598e-05,0,0,0.048449,-0.020791,0,-0.00013311,0,0,0,0.026613,-1.8226e-05,0.0079783,-0.055074,0.011524,0.023668,4.2818e-07,0.62,0,0
0.031537,0.012275,0.026674,-1.7019e-05,0.0079972,-2.4963e-05,0,0,0.04856,-0.020837,0,-0.00012981,0,0,0,0.026674,-1.7042e-05,0.0079972,-0.053587,0.011551,0.023722,4.3115e-07,0.63,0,0
0.032023,0.012284,0.026735,-1.589e-05,0.0080156,-2.4313e-05,0,0,0.048669,-0.020882,0,-0.00012643,0,0,0,0.026735,-1.5912e-05,0.0080156,-0.052075,0.011578,0.023775,4.3405e-07,0.64,0,0
0.03251,0.012292,0.026793,-1.4812e-05,0.0080335,-2.3649e-05,0,0,0.048775,-0.020925,0,-0.00012297,0,0,0,0.026793,-1.4833e-05,0.0080335,-0.050545,0.011604,0.023826,4.3689e-07,0.65,0,0
0.032999,0.012299,0.02685,-1.3783e-05,0.0080508,-2.2974e-05,0,0,0.048877,-0.020968,0,-0.00011946,0,0,0,0.02685,-1.3803e-05,0.0080508,-0.048999,0.011629,0.023876,4.3966e-07,0.66,0,0
0.033488,0.012305,0.026905,-1.2803e-05,0.0080677,-2.2289e-05,0,0,0.048977,-0.021009,0,-0.0001159,0,0,0,0.026905,-1.2822e-05,0.0080677,-0.047443,0.011653,0.023924,4.4236e-07,0.67,0,0
0.033978,0.01231,0.026958,-1.1869e-05,0.008084,-2.1596e-05,0,0,0.049074,-0.021049,0,-0.0001123,0,0,0,0.026958,-1.1887e-05,0.008084,-0.045879,0.011677,0.023971,4.4498e-07,0.68,0,0
0.03447,0.012315,0.02701,-1.0981e-05,0.0080998,-2.0898e-05,0,0,0.049167,-0.021088,0,-0.00010867,0,0,0,0.02701,-1.0997e-05,0.0080998,-0.044312,0.0117,0.024016,4.4753e-07,0.69,0,0
0.034962,0.012319,0.02706,-1.0135e-05,0.008115,-2.0195e-05,0,0,0.049258,-0.021125,0,-0.00010501,0,0,0,0.02706,-1.015e-05,0.008115,-0.042743,0.011722,0.02406,4.5e-07,0.7,0,0
0.035455,0.012322,0.027108,-9.332e-06,0.0081297,-1.9488e-05,0,0,0.049345,-0.021162,0,-0.00010134,0,0,0,0.027109,-9.346e-06,0.0081297,-0.041176,0.011743,0.024102,4.524e-07,0.71,0,0
0.035949,0.012325,0.027155,-8.5693e-06,0.0081439,-1.878e-05,0,0,0.049429,-0.021197,0,-9.7656e-05,0,0,0,0.027155,-8.5823e-06,0.0081439,-0.039612,0.011763,0.024143,4.5472e-07,0.72,0,0
0.036443,0.012327,0.0272,-7.8459e-06,0.0081576,-1.807e-05,0,0,0.04951,-0.02123,0,-9.3966e-05,0,0,0,0.0272,-7.8579e-06,0.0081576,-0.038054,0.011783,0.024182,4.5696e-07,0.73,0,0
0.036939,0.012329,0.027243,-7.1605e-06,0.0081707,-1.7361e-05,0,0,0.049587,-0.021262,0,-9.0277e-05,0,0,0,0.027243,-7.1715e-06,0.0081707,-0.036503,0.011802,0.02422,4.5912e-07,0.74,0,0
0.037435,0.01233,0.027284,-6.5117e-06,0.0081832,-1.6652e-05,0,0,0.049662,-0.021293,0,-8.6591e-05,0,0,0,0.027284,-6.5219e-06,0.0081832,-0.034961,0.01182,0.024256,4.6119e-07,0.75,0,0
0.037932,0.012331,0.027324,-5.8984e-06,0.0081953,-1.5945e-05,0,0,0.049733,-0.021323,0,-8.2914e-05,0,0,0,0.027324,-5.9077e-06,0.0081953,-0.033428,0.011838,0.02429,4.6319e-07,0.76,0,0
0.03843,0.012332,0.027361,-5.3193e-06,0.0082068,-1.524e-05,0,0,0.049802,-0.021351,0,-7.9247e-05,0,0,0,0.027361,-5.3277e-06,0.0082068,-0.031907,0.011854,0.024324,4.651e-07,0.77,0,0
0.038928,0.012332,0.027397,-4.7733e-06,0.0082178,-1.4537e-05,0,0,0.049867,-0.021379,0,-7.5594e-05,0,0,0,0.027397,-4.781e-06,0.0082178,-0.030396,0.01187,0.024355,4.6694e-07,0.78,0,0
0.039427,0.012332,0.027432,-4.2593e-06,0.0082283,-1.3838e-05,0,0,0.049929,-0.021405,0,-7.1958e-05,0,0,0,0.027432,-4.2663e-06,0.0082283,-0.028899,0.011885,0.024385,4.6869e-07,0.79,0,0
0.039927,0.012332,0.027464,-3.7763e-06,0.0082382,-1.3142e-05,0,0,0.049988,-0.021429,0,-6.834e-05,0,0,0,0.027464,-3.7826e-06,0.0082382,-0.027413,0.0119,0.024414,4.7036e-07,0.8,0,0
0.040427,0.012332,0.027495,-3.3232e-06,0.0082476,-1.245e-05,0,0,0.050044,-0.021452,0,-6.4742e-05,0,0,0,0.027495,-3.3289e-06,0.0082476,-0.025941,0.011913,0.024441,4.7194e-07,0.81,0,0
0.040927,0.012332,0.027525,-2.8992e-06,0.0082566,-1.1762e-05,0,0,0.050097,-0.021475,0,-6.1164e-05,0,0,0,0.027525,-2.9042e-06,0.0082566,-0.024482,0.011926,0.024467,4.7344e-07,0.82,0,0
0.041429,0.012331,0.027552,-2.5032e-06,0.008265,-1.1079e-05,0,0,0.050147,-0.021495,0,-5.7608e-05,0,0,0,0.027552,-2.5077e-06,0.008265,-0.023036,0.011938,0.024491,4.7486e-07,0.83,0,0
0.04193,0.01233,0.027578,-2.1345e-06,0.0082729,-1.0399e-05,0,0,0.050194,-0.021515,0,-5.4075e-05,0,0,0,0.027578,-2.1384e-06,0.0082729,-0.021603,0.01195,0.024514,4.762e-07,0.84,0,0
0.042433,0.012329,0.027603,-1.7922e-06,0.0082803,-9.7237e-06,0,0,0.050238,-0.021533,0,-5.0563e-05,0,0,0,0.027603,-1.7956e-06,0.0082803,-0.020183,0.01196,0.024535,4.7746e-07,0.85,0,0
0.042935,0.012328,0.027625,-1.4756e-06,0.0082872,-9.0528e-06,0,0,0.050279,-0.021551,0,-4.7074e-05,0,0,0,0.027625,-1.4786e-06,0.0082872,-0.018775,0.01197,0.024555,4.7863e-07,0.86,0,0
0.043438,0.012328,0.027647,-1.1839e-06,0.0082936,-8.386e-06,0,0,0.050318,-0.021566,0,-4.3607e-05,0,0,0,0.027647,-1.1865e-06,0.0082936,-0.017379,0.01198,0.024574,4.7972e-07,0.87,0,0
0.043942,0.012327,0.027666,-9.165e-07,0.0082995,-7.7233e-06,0,0,0.050353,-0.021581,0,-4.0161e-05,0,0,0,0.027666,-9.1866e-07,0.0082995,-0.015994,0.011988,0.024591,4.8073e-07,0.88,0,0
0.044445,0.012326,0.027684,-6.7277e-07,0.0083049,-7.0645e-06,0,0,0.050385,-0.021595,0,-3.6735e-05,0,0,0,0.027684,-6.7458e-07,0.0083049,-0.014621,0.011996,0.024606,4.8166e-07,0.89,0,0
0.044949,0.012325,0.0277,-4.5214e-07,0.0083099,-6.4094e-06,0,0,0.050415,-0.021607,0,-3.3329e-05,0,0,0,0.0277,-4.5362e-07,0.0083099,-0.013257,0.012003,0.024621,4.825e-07,0.9,0,0
0.045454,0.012324,0.027715,-2.5408e-07,0.0083144,-5.7579e-06,0,0,0.050441,-0.021618,0,-2.9941e-05,0,0,0,0.027715,-2.5528e-07,0.0083144,-0.011903,0.01201,0.024634,4.8327e-07,0.91,0,0
0.045958,0.012323,0.027728,-7.8132e-08,0.0083183,-5.1095e-06,0,0,0.050465,-0.021628,0,-2.657e-05,0,0,0,0.027728,-7.9074e-08,0.0083183,-0.010558,0.012015,0.024645,4.8395e-07,0.92,0,0
0.046463,0.012323,0.02774,7.6126e-08,0.0083219,-4.4642e-06,0,0,0.050486,-0.021637,0,-2.3214e-05,0,0,0,0.02774,7.5408e-08,0.0083219,-0.0092207,0.01202,0.024655,4.8455e-07,0.93,0,0
0.046968,0.012322,0.027749,2.0907e-07,0.0083249,-3.8214e-06,0,0,0.050504,-0.021644,0,-1.9871e-05,0,0,0,0.027749,2.0854e-07,0.0083249,-0.0078903,0.012025,0.024664,4.8507e-07,0.94,0,0
0.047473,0.012322,0.027758,3.2101e-07,0.0083275,-3.1809e-06,0,0,0.050519,-0.021651,0,-1.6541e-05,0,0,0,0.027758,3.2065e-07,0.0083275,-0.0065659,0.012029,0.024671,4.8552e-07,0.95,0,0
0.047978,0.012321,0.027765,4.1223e-07,0.0083296,-2.5424e-06,0,0,0.050532,-0.021656,0,-1.322e-05,0,0,0,0.027765,4.12e-07,0.0083296,-0.0052465,0.012032,0.024678,4.8588e-07,0.96,0,0
0.048483,0.012321,0.02777,4.8295e-07,0.0083312,-1.9054e-06,0,0,0.050541,-0.02166,0,-9.908e-06,0,0,0,0.02777,4.8282e-07,0.0083312,-0.0039313,0.012034,0.024682,4.8616e-07,0.97,0,0
0.048989,0.01232,0.027774,5.3333e-07,0.0083324,-1.2696e-06,0,0,0.050548,-0.021663,0,-6.6019e-06,0,0,0,0.027774,5.3328e-07,0.0083324,-0.0026191,0.012036,0.024686,4.8636e-07,0.98,0,0
0.049494,0.01232,0.027776,5.6352e-07,0.0083331,-6.346e-07,0,0,0.050552,-0.021664,0,-3.2999e-06,0,0,0,0.027776,5.6351e-07,0.0083331,-0.001309,0.012037,0.024688,4.8648e-07,0.99,0,0
0.05,0.01232,0.027777,5.7357e-07,0.0083333,-1.028e-06,0,0,0.050554,-0.021665,0,-5.3455e-06,0,0,0,0.027777,5.7353e-07,0.0083333,-0.0021204,0.012037,0.024688,4.8652e-07,1,0,0
0,0,0.051207,0.021946,0.021946,0.01642,0,0,0.076078,8.6736e-19,0,0.085386,0,0,0,0.058569,0.014583,0.021946,24.15,0.031699,0.040806,3.1102e-06,0,0.01,0
0.00076078,0.00085386,0.046586,0.004439,0.015308,0.010275,0,0,0.081325,-0.028258,0,0.05343,0,0,0,0.048958,0.0020676,0.015308,12.996,0.022111,0.041871,2.5383e-06,0.01,0.01,0
0.0016265,0.0017243,0.04681,0.0035108,0.015096,0.0067954,0,0,0.082455,-0.030122,0,0.035336,0,0,0,0.047851,0.0024694,0.015096,8.7131,0.021806,0.04057,2.3429e-06,0.02,0.01,0
0.0024099,0.0024455,0.041928,0.0018443,0.013132,0.004173,0,0,0.07487,-0.029347,0,0.0217,0,0,0,0.042358,0.0014145,0.013132,5.8809,0.018968,0.036523,1.6614e-06,0.03,0.01,0
0.0031239,0.0030816,0.038264,0.0010732,0.011801,0.0028743,0,0,0.068803,-0.027893,0,0.014946,0,0,0,0.038485,0.00085234,0.011801,4.3934,0.017046,0.033527,1.2626e-06,0.04,0.01,0
0.003786,0.0036528,0.035595,0.00066954,0.010879,0.0020938,0,0,0.06426,-0.026545,0,0.010888,0,0,0,0.03572,0.00054446,0.010879,3.4187,0.015714,0.031314,1.0174e-06,0.05,0.01,0
0.0044091,0.0041743,0.033607,0.00044855,0.010217,0.0015996,0,0,0.060815,-0.025397,0,0.0083182,0,0,0,0.033684,0.00037156,0.010217,2.7556,0.014757,0.029643,8.5723e-07,0.06,0.01,0
0.0050022,0.0046551,0.032074,0.0003174,0.0097174,0.0012618,0,0,0.058127,-0.02444,0,0.0065614,0,0,0,0.032124,0.00026734,0.0097174,2.2718,0.014036,0.028339,7.4578e-07,0.07,0.01,0
0.0055716,0.0051015,0.030857,0.0002345,0.0093276,0.001019,0,0,0.055977,-0.023642,0,0.0052989,0,0,0,0.030891,0.00020063,0.0093276,1.9038,0.013473,0.027297,6.6451e-07,0.08,0.01,0
0.0061218,0.0055182,0.029871,0.00017925,0.009015,0.00083724,0,0,0.054225,-0.022973,0,0.0043536,0,0,0,0.029894,0.00015566,0.009015,1.6139,0.013022,0.026446,6.0307e-07,0.09,0.01,0
0.0066561,0.0059085,0.029057,0.00014082,0.0087594,0.00069675,0,0,0.052774,-0.022408,0,0.0036231,0,0,0,0.029074,0.00012404,0.0087594,1.3795,0.012653,0.025743,5.5535e-07,0.1,0.01,0
0.0071773,0.0062751,0.028379,0.00011314,0.0085475,0.00058537,0,0,0.051561,-0.021929,0,0.0030439,0,0,0,0.028391,0.00010102,0.0085475,1.1859,0.012346,0.025153,5.1749e-07,0.11,0.01,0
0.0076873,0.0066202,0.027807,9.2608e-05,0.0083698,0.00049517,0,0,0.050536,-0.021521,0,0.0025749,0,0,0,0.027816,8.3764e-05,0.0083698,1.0233,0.01209,0.024656,4.8698e-07,0.12,0.01,0
0.008188,0.0069456,0.027322,7.6995e-05,0.0082198,0.00042085,0,0,0.049666,-0.021171,0,0.0021884,0,0,0,0.027329,7.0496e-05,0.0082198,0.88475,0.011873,0.024234,4.6206e-07,0.13,0.01,0
0.0086807,0.0072528,0.02691,6.4868e-05,0.0080923,0.00035871,0,0,0.048925,-0.020871,0,0.0018653,0,0,0,0.026914,6.0076e-05,0.0080923,0.76542,0.011689,0.023874,4.4153e-07,0.14,0.01,0
0.0091665,0.0075431,0.026557,5.5271e-05,0.0079837,0.00030609,0,0,0.048291,-0.020614,0,0.0015917,0,0,0,0.026561,5.1737e-05,0.0079837,0.66164,0.011532,0.023566,4.2448e-07,0.15,0.01,0
0.0096465,0.0078176,0.026256,4.7552e-05,0.0078911,0.00026107,0,0,0.047749,-0.020393,0,0.0013576,0,0,0,0.026259,4.4951e-05,0.0078911,0.57066,0.011398,0.023303,4.1027e-07,0.16,0.01,0
0.010122,0.0080773,0.025999,4.125e-05,0.007812,0.00022219,0,0,0.047285,-0.020204,0,0.0011554,0,0,0,0.026,3.9348e-05,0.007812,0.4904,0.011284,0.023078,3.9837e-07,0.17,0.01,0
0.010592,0.0083231,0.025779,3.6039e-05,0.0077446,0.00018836,0,0,0.04689,-0.020042,0,0.00097949,0,0,0,0.025781,3.466e-05,0.0077446,0.4192,0.011187,0.022887,3.8842e-07,0.18,0.01,0
0.011059,0.0085559,0.025593,3.1677e-05,0.0076873,0.00015873,0,0,0.046554,-0.019905,0,0.00082537,0,0,0,0.025594,3.0691e-05,0.0076873,0.35577,0.011104,0.022724,3.8009e-07,0.19,0.01,0
0.011523,0.0087762,0.025435,2.7987e-05,0.007639,0.00013261,0,0,0.04627,-0.019789,0,0.0006896,0,0,0,0.025436,2.7295e-05,0.007639,0.29905,0.011034,0.022586,3.7316e-07,0.2,0.01,0
0.011985,0.0089849,0.025303,2.4835e-05,0.0075985,0.0001095,0,0,0.046033,-0.019692,0,0.0005694,0,0,0,0.025304,2.436e-05,0.0075985,0.24818,0.010976,0.022471,3.6742e-07,0.21,0.01,0
0.012444,0.0091825,0.025194,2.2117e-05,0.0075649,8.8956e-05,0,0,0.045836,-0.019611,0,0.00046257,0,0,0,0.025194,2.1803e-05,0.0075649,0.20248,0.010927,0.022376,3.6271e-07,0.22,0.01,0
0.012901,0.0093695,0.025105,1.9754e-05,0.0075374,7.0636e-05,0,0,0.045676,-0.019546,0,0.00036731,0,0,0,0.025105,1.9556e-05,0.0075374,0.16133,0.010887,0.022298,3.589e-07,0.23,0.01,0
0.013357,0.0095465,0.025034,1.7686e-05,0.0075154,5.4256e-05,0,0,0.045548,-0.019494,0,0.00028213,0,0,0,0.025034,1.7568e-05,0.0075154,0.12426,0.010856,0.022237,3.5588e-07,0.24,0.01,0
0.013812,0.009714,0.024979,1.5861e-05,0.0074983,3.9579e-05,0,0,0.045449,-0.019454,0,0.00020581,0,0,0,0.024979,1.5798e-05,0.0074983,0.090843,0.010831,0.022189,3.5356e-07,0.25,0.01,0
0.014266,0.0098724,0.024938,1.4242e-05,0.0074856,2.6409e-05,0,0,0.045376,-0.019426,0,0.00013733,0,0,0,0.024938,1.4214e-05,0.0074856,0.060711,0.010813,0.022154,3.5185e-07,0.26,0.01,0
0.01472,0.010022,0.02491,1.2797e-05,0.0074769,1.4581e-05,0,0,0.045326,-0.019407,0,7.5819e-05,0,0,0,0.02491,1.2789e-05,0.0074769,0.033554,0.0108,0.02213,3.507e-07,0.27,0.01,0
0.015173,0.010164,0.024894,1.1501e-05,0.0074716,3.9511e-06,0,0,0.045298,-0.019396,0,2.0546e-05,0,0,0,0.024894,1.1501e-05,0.0074716,0.009098,0.010792,0.022117,3.5003e-07,0.28,0.01,0
0.015626,0.010297,0.024888,1.0333e-05,0.0074695,-5.6005e-06,0,0,0.045288,-0.019394,0,-2.9123e-05,0,0,0,0.024888,1.0332e-05,0.0074695,-0.012899,0.010789,0.022113,3.4981e-07,0.29,0.01,0
0.016079,0.010424,0.024892,9.2767e-06,0.0074703,-1.4179e-05,0,0,0.045296,-0.019399,0,-7.373e-05,0,0,0,0.024892,9.2686e-06,0.0074703,-0.032649,0.01079,0.022117,3.4998e-07,0.3,0.01,0
0.016532,0.010543,0.024904,8.3171e-06,0.0074736,-2.1875e-05,0,0,0.045318,-0.01941,0,-0.00011375,0,0,0,0.024904,8.2979e-06,0.0074736,-0.050345,0.010795,0.022128,3.505e-07,0.31,0.01,0
0.016985,0.010655,0.024923,7.443e-06,0.0074793,-2.8769e-05,0,0,0.045355,-0.019427,0,-0.0001496,0,0,0,0.024923,7.4098e-06,0.0074793,-0.066157,0.010803,0.022146,3.5135e-07,0.32,0.01,0
0.017439,0.010761,0.02495,6.6445e-06,0.0074869,-3.4932e-05,0,0,0.045403,-0.019449,0,-0.00018165,0,0,0,0.02495,6.5956e-06,0.0074869,-0.080241,0.010814,0.022171,3.5248e-07,0.33,0.01,0
0.017893,0.01086,0.024982,5.9133e-06,0.0074964,-4.0426e-05,0,0,0.045463,-0.019475,0,-0.00021021,0,0,0,0.024982,5.8479e-06,0.0074964,-0.092736,0.010828,0.0222,3.5386e-07,0.34,0.01,0
0.018348,0.010954,0.02502,5.2425e-06,0.0075076,-4.5306e-05,0,0,0.045532,-0.019506,0,-0.00023559,0,0,0,0.02502,5.1605e-06,0.0075076,-0.10377,0.010844,0.022234,3.5549e-07,0.35,0.01,0
0.018804,0.011042,0.025063,4.626e-06,0.0075202,-4.9623e-05,0,0,0.045611,-0.019541,0,-0.00025804,0,0,0,0.025063,4.5277e-06,0.0075202,-0.11346,0.010863,0.022273,3.5732e-07,0.36,0.01,0
0.01926,0.011125,0.02511,4.0587e-06,0.0075341,-5.3423e-05,0,0,0.045697,-0.019578,0,-0.0002778,0,0,0,0.02511,3.945e-06,0.0075341,-0.12192,0.010883,0.022315,3.5934e-07,0.37,0.01,0
0.019718,0.011203,0.02516,3.5361e-06,0.0075492,-5.6746e-05,0,0,0.045789,-0.019619,0,-0.00029508,0,0,0,0.02516,3.4081e-06,0.0075492,-0.12924,0.010904,0.02236,3.6153e-07,0.38,0.01,0
0.020176,0.011276,0.025214,3.0542e-06,0.0075652,-5.9629e-05,0,0,0.045888,-0.019662,0,-0.00031007,0,0,0,0.025215,2.9132e-06,0.0075652,-0.13551,0.010927,0.022409,3.6387e-07,0.39,0.01,0
0.020636,0.011344,0.025271,2.6098e-06,0.0075821,-6.2108e-05,0,0,0.045991,-0.019707,0,-0.00032296,0,0,0,0.025271,2.4571e-06,0.0075821,-0.14083,0.010952,0.02246,3.6634e-07,0.4,0.01,0
0.021096,0.011408,0.02533,2.1997e-06,0.0075998,-6.4212e-05,0,0,0.0461,-0.019754,0,-0.0003339,0,0,0,0.02533,2.0369e-06,0.0075998,-0.14526,0.010977,0.022513,3.6893e-07,0.41,0.01,0
0.021558,0.011468,0.025392,1.8213e-06,0.0076181,-6.5972e-05,0,0,0.046211,-0.019802,0,-0.00034305,0,0,0,0.025392,1.6498e-06,0.0076181,-0.14887,0.011004,0.022568,3.7162e-07,0.42,0.01,0
0.02202,0.011524,0.025455,1.4721e-06,0.0076369,-6.7414e-05,0,0,0.046326,-0.019852,0,-0.00035055,0,0,0,0.025455,1.2936e-06,0.0076369,-0.15175,0.011031,0.022624,3.744e-07,0.43,0.01,0
0.022484,0.011576,0.025519,1.1502e-06,0.0076561,-6.8562e-05,0,0,0.046444,-0.019903,0,-0.00035652,0,0,0,0.02552,9.6598e-07,0.0076561,-0.15394,0.011059,0.022681,3.7726e-07,0.44,0.01,0
0.022949,0.011624,0.025585,8.5344e-07,0.0076757,-6.944e-05,0,0,0.046564,-0.019955,0,-0.00036109,0,0,0,0.025585,6.6497e-07,0.0076757,-0.15551,0.011087,0.02274,3.8019e-07,0.45,0.01,0
0.023415,0.011669,0.025652,5.8013e-07,0.0076956,-7.0068e-05,0,0,0.046685,-0.020007,0,-0.00036436,0,0,0,0.025652,3.8873e-07,0.0076956,-0.15651,0.011116,0.022799,3.8317e-07,0.46,0.01,0
0.023883,0.011711,0.025719,3.2864e-07,0.0077157,-7.0467e-05,0,0,0.046808,-0.02006,0,-0.00036643,0,0,0,0.025719,1.3556e-07,0.0077157,-0.15699,0.011145,0.022859,3.8619e-07,0.47,0.01,0
0.024352,0.01175,0.025786,9.7499e-08,0.0077359,-7.0655e-05,0,0,0.046931,-0.020113,0,-0.00036741,0,0,0,0.025787,-9.6096e-08,0.0077359,-0.15699,0.011174,0.02292,3.8925e-07,0.48,0.01,0
0.024821,0.011786,0.025854,-1.1466e-07,0.0077562,-7.0649e-05,0,0,0.047055,-0.020166,0,-0.00036737,0,0,0,0.025854,-3.0771e-07,0.0077562,-0.15656,0.011203,0.02298,3.9233e-07,0.49,0.01,0
0.025292,0.011819,0.025922,-3.0908e-07,0.0077765,-7.0465e-05,0,0,0.047178,-0.02022,0,-0.00036642,0,0,0,0.025922,-5.0063e-07,0.0077765,-0.15575,0.011233,0.02304,3.9543e-07,0.5,0.01,0
0.025765,0.01185,0.02599,-4.8696e-07,0.0077967,-7.0118e-05,0,0,0.047302,-0.020273,0,-0.00036461,0,0,0,0.02599,-6.7613e-07,0.0077967,-0.15458,0.011262,0.023101,3.9854e-07,0.51,0.01,0
0.026239,0.011878,0.026057,-6.4938e-07,0.0078169,-6.9623e-05,0,0,0.047424,-0.020326,0,-0.00036204,0,0,0,0.026057,-8.354e-07,0.0078169,-0.15309,0.011291,0.023161,4.0165e-07,0.52,0.01,0
0.026713,0.011904,0.026124,-7.9735e-07,0.0078369,-6.8991e-05,0,0,0.047546,-0.020378,0,-0.00035876,0,0,0,0.026124,-9.7954e-07,0.0078369,-0.15131,0.01132,0.02322,4.0475e-07,0.53,0.01,0
0.027189,0.011928,0.02619,-9.3183e-07,0.0078568,-6.8237e-05,0,0,0.047667,-0.02043,0,-0.00035483,0,0,0,0.02619,-1.1096e-06,0.0078568,-0.14927,0.011349,0.023279,4.0784e-07,0.54,0.01,0
0.027667,0.01195,0.026256,-1.0537e-06,0.0078764,-6.737e-05,0,0,0.047786,-0.020481,0,-0.00035032,0,0,0,0.026256,-1.2266e-06,0.0078764,-0.14701,0.011377,0.023338,4.1092e-07,0.55,0.01,0
0.028145,0.01197,0.026321,-1.1639e-06,0.0078958,-6.6401e-05,0,0,0.047904,-0.020532,0,-0.00034529,0,0,0,0.026321,-1.3314e-06,0.0078958,-0.14454,0.011405,0.023395,4.1397e-07,0.56,0.01,0
0.028625,0.011988,0.026385,-1.2631e-06,0.007915,-6.5341e-05,0,0,0.048021,-0.020582,0,-0.00033978,0,0,0,0.026385,-1.4249e-06,0.007915,-0.14189,0.011433,0.023452,4.1699e-07,0.57,0.01,0
0.029106,0.012005,0.026447,-1.3521e-06,0.0079338,-6.4199e-05,0,0,0.048135,-0.020631,0,-0.00033383,0,0,0,0.026447,-1.5079e-06,0.0079338,-0.13907,0.01146,0.023508,4.1998e-07,0.58,0.01,0
0.029588,0.01202,0.026509,-1.4316e-06,0.0079523,-6.2983e-05,0,0,0.048248,-0.02068,0,-0.00032751,0,0,0,0.026509,-1.5812e-06,0.0079523,-0.13612,0.011487,0.023563,4.2293e-07,0.59,0.01,0
0.030071,0.012034,0.02657,-1.5022e-06,0.0079704,-6.1701e-05,0,0,0.048358,-0.020727,0,-0.00032085,0,0,0,0.02657,-1.6455e-06,0.0079704,-0.13305,0.011513,0.023617,4.2583e-07,0.6,0.01,0
0.030555,0.012046,0.026629,-1.5647e-06,0.0079882,-6.0361e-05,0,0,0.048466,-0.020774,0,-0.00031388,0,0,0,0.026629,-1.7015e-06,0.0079882,-0.12987,0.011539,0.02367,4.287e-07,0.61,0.01,0
0.03104,0.012057,0.026687,-1.6196e-06,0.0080056,-5.897e-05,0,0,0.048572,-0.020819,0,-0.00030664,0,0,0,0.026687,-1.7499e-06,0.0080056,-0.1266,0.011564,0.023721,4.3151e-07,0.62,0.01,0
0.031526,0.012066,0.026744,-1.6674e-06,0.0080226,-5.7534e-05,0,0,0.048675,-0.020863,0,-0.00029918,0,0,0,0.026744,-1.7912e-06,0.0080226,-0.12325,0.011588,0.023772,4.3426e-07,0.63,0.01,0
0.032013,0.012075,0.026799,-1.7088e-06,0.0080392,-5.6059e-05,0,0,0.048776,-0.020906,0,-0.00029151,0,0,0,0.026799,-1.8261e-06,0.0080392,-0.11984,0.011612,0.023821,4.3697e-07,0.64,0.01,0
0.032502,0.012082,0.026853,-1.7442e-06,0.0080554,-5.455e-05,0,0,0.048874,-0.020949,0,-0.00028366,0,0,0,0.026853,-1.855e-06,0.0080554,-0.11638,0.011636,0.023869,4.3961e-07,0.65,0.01,0
0.032991,0.012089,0.026905,-1.7741e-06,0.0080711,-5.3012e-05,0,0,0.048969,-0.02099,0,-0.00027566,0,0,0,0.026906,-1.8785e-06,0.0080711,-0.11288,0.011658,0.023916,4.4219e-07,0.66,0.01,0
0.033481,0.012095,0.026957,-1.7989e-06,0.0080864,-5.1451e-05,0,0,0.049062,-0.021029,0,-0.00026755,0,0,0,0.026957,-1.8971e-06,0.0080864,-0.10935,0.01168,0.023961,4.4471e-07,0.67,0.01,0
0.033972,0.0121,0.027006,-1.8192e-06,0.0081012,-4.987e-05,0,0,0.049152,-0.021068,0,-0.00025932,0,0,0,0.027006,-1.9113e-06,0.0081012,-0.1058,0.011702,0.024005,4.4716e-07,0.68,0.01,0
0.034464,0.012104,0.027054,-1.8353e-06,0.0081156,-4.8273e-05,0,0,0.049239,-0.021105,0,-0.00025102,0,0,0,0.027054,-1.9214e-06,0.0081156,-0.10223,0.011723,0.024048,4.4955e-07,0.69,0.01,0
0.034957,0.012108,0.0271,-1.8475e-06,0.0081295,-4.6663e-05,0,0,0.049324,-0.021142,0,-0.00024265,0,0,0,0.0271,-1.9279e-06,0.0081295,-0.098649,0.011743,0.024089,4.5186e-07,0.7,0.01,0
0.035451,0.012111,0.027145,-1.8564e-06,0.008143,-4.5045e-05,0,0,0.049406,-0.021177,0,-0.00023423,0,0,0,0.027145,-1.9311e-06,0.008143,-0.09507,0.011762,0.024129,4.5411e-07,0.71,0.01,0
0.035945,0.012113,0.027188,-1.8621e-06,0.008156,-4.3419e-05,0,0,0.049484,-0.02121,0,-0.00022578,0,0,0,0.027189,-1.9314e-06,0.008156,-0.091494,0.011781,0.024167,4.5628e-07,0.72,0.01,0
0.03644,0.012115,0.02723,-1.865e-06,0.0081685,-4.1791e-05,0,0,0.04956,-0.021243,0,-0.00021731,0,0,0,0.02723,-1.9292e-06,0.0081685,-0.087927,0.011799,0.024204,4.5838e-07,0.73,0.01,0
0.036936,0.012117,0.02727,-1.8656e-06,0.0081805,-4.016e-05,0,0,0.049633,-0.021274,0,-0.00020883,0,0,0,0.02727,-1.9247e-06,0.0081805,-0.084372,0.011816,0.02424,4.6041e-07,0.74,0.01,0
0.037433,0.012117,0.027309,-1.8639e-06,0.0081921,-3.853e-05,0,0,0.049703,-0.021304,0,-0.00020036,0,0,0,0.027309,-1.9183e-06,0.0081921,-0.080833,0.011833,0.024274,4.6237e-07,0.75,0.01,0
0.03793,0.012118,0.027346,-1.8604e-06,0.0082031,-3.6902e-05,0,0,0.049771,-0.021333,0,-0.00019189,0,0,0,0.027346,-1.9102e-06,0.0082031,-0.077314,0.011849,0.024307,4.6425e-07,0.76,0.01,0
0.038428,0.012119,0.027381,-1.8552e-06,0.0082138,-3.5278e-05,0,0,0.049835,-0.021361,0,-0.00018345,0,0,0,0.027381,-1.9006e-06,0.0082138,-0.073816,0.011864,0.024338,4.6605e-07,0.77,0.01,0
0.038927,0.012119,0.027415,-1.8486e-06,0.0082239,-3.3659e-05,0,0,0.049896,-0.021387,0,-0.00017503,0,0,0,0.027415,-1.89e-06,0.0082239,-0.070342,0.011879,0.024368,4.6778e-07,0.78,0.01,0
0.039426,0.012118,0.027447,-1.8409e-06,0.0082335,-3.2047e-05,0,0,0.049955,-0.021412,0,-0.00016664,0,0,0,0.027447,-1.8783e-06,0.0082335,-0.066893,0.011893,0.024397,4.6943e-07,0.79,0.01,0
0.039926,0.012118,0.027478,-1.8323e-06,0.0082428,-3.0441e-05,0,0,0.050011,-0.021436,0,-0.0001583,0,0,0,0.027478,-1.866e-06,0.0082428,-0.063471,0.011906,0.024424,4.71e-07,0.8,0.01,0
0.040426,0.012117,0.027507,-1.8229e-06,0.0082515,-2.8844e-05,0,0,0.050064,-0.021459,0,-0.00014999,0,0,0,0.027507,-1.8531e-06,0.0082515,-0.060077,0.011919,0.02445,4.725e-07,0.81,0.01,0
0.040927,0.012117,0.027534,-1.8129e-06,0.0082597,-2.7255e-05,0,0,0.050114,-0.02148,0,-0.00014172,0,0,0,0.027534,-1.8399e-06,0.0082597,-0.05671,0.011931,0.024474,4.7392e-07,0.82,0.01,0
0.041429,0.012116,0.02756,-1.8026e-06,0.0082675,-2.5674e-05,0,0,0.050161,-0.0215,0,-0.00013351,0,0,0,0.02756,-1.8265e-06,0.0082675,-0.053372,0.011942,0.024497,4.7526e-07,0.83,0.01,0
0.041931,0.012115,0.027585,-1.792e-06,0.0082749,-2.4103e-05,0,0,0.050206,-0.021519,0,-0.00012534,0,0,0,0.027585,-1.8131e-06,0.0082749,-0.050061,0.011953,0.024519,4.7652e-07,0.84,0.01,0
0.042433,0.012114,0.027608,-1.7814e-06,0.0082817,-2.2541e-05,0,0,0.050247,-0.021537,0,-0.00011721,0,0,0,0.027608,-1.7998e-06,0.0082817,-0.046778,0.011962,0.02454,4.7771e-07,0.85,0.01,0
0.042936,0.012113,0.027629,-1.7708e-06,0.0082881,-2.0989e-05,0,0,0.050286,-0.021554,0,-0.00010914,0,0,0,0.027629,-1.7867e-06,0.0082881,-0.043522,0.011972,0.024559,4.7882e-07,0.86,0.01,0
0.043439,0.012112,0.027649,-1.7604e-06,0.0082941,-1.9445e-05,0,0,0.050322,-0.021569,0,-0.00010111,0,0,0,0.027649,-1.7741e-06,0.0082941,-0.040293,0.01198,0.024576,4.7985e-07,0.87,0.01,0
0.043942,0.012111,0.027667,-1.7504e-06,0.0082996,-1.791e-05,0,0,0.050356,-0.021584,0,-9.3134e-05,0,0,0,0.027667,-1.762e-06,0.0082996,-0.037088,0.011988,0.024592,4.8081e-07,0.88,0.01,0
0.044446,0.01211,0.027684,-1.7408e-06,0.0083047,-1.6384e-05,0,0,0.050386,-0.021597,0,-8.5199e-05,0,0,0,0.027684,-1.7504e-06,0.0083047,-0.033908,0.011996,0.024608,4.8169e-07,0.89,0.01,0
0.04495,0.012109,0.027699,-1.7316e-06,0.0083093,-1.4867e-05,0,0,0.050414,-0.021609,0,-7.7306e-05,0,0,0,0.027699,-1.7396e-06,0.0083093,-0.030749,0.012002,0.024621,4.8249e-07,0.9,0.01,0
0.045454,0.012108,0.027713,-1.7231e-06,0.0083135,-1.3356e-05,0,0,0.050439,-0.021619,0,-6.9454e-05,0,0,0,0.027713,-1.7296e-06,0.0083135,-0.027612,0.012008,0.024633,4.8321e-07,0.91,0.01,0
0.045958,0.012107,0.027726,-1.7153e-06,0.0083172,-1.1853e-05,0,0,0.050462,-0.021629,0,-6.1638e-05,0,0,0,0.027726,-1.7204e-06,0.0083172,-0.024494,0.012014,0.024644,4.8386e-07,0.92,0.01,0
0.046463,0.012106,0.027737,-1.7083e-06,0.0083204,-1.0357e-05,0,0,0.050482,-0.021638,0,-5.3856e-05,0,0,0,0.027737,-1.7121e-06,0.0083204,-0.021393,0.012018,0.024654,4.8443e-07,0.93,0.01,0
0.046968,0.012106,0.027746,-1.702e-06,0.0083233,-8.8662e-06,0,0,0.050499,-0.021645,0,-4.6104e-05,0,0,0,0.027746,-1.7049e-06,0.0083233,-0.018308,0.012023,0.024663,4.8493e-07,0.94,0.01,0
0.047473,0.012105,0.027754,-1.6967e-06,0.0083257,-7.3806e-06,0,0,0.050514,-0.021651,0,-3.8379e-05,0,0,0,0.027754,-1.6986e-06,0.0083257,-0.015236,0.012026,0.02467,4.8535e-07,0.95,0.01,0
0.047978,0.012105,0.027761,-1.6922e-06,0.0083276,-5.8992e-06,0,0,0.050525,-0.021656,0,-3.0676e-05,0,0,0,0.027761,-1.6935e-06,0.0083276,-0.012175,0.012029,0.024675,4.8569e-07,0.96,0.01,0
0.048484,0.012104,0.027765,-1.6887e-06,0.0083292,-4.4213e-06,0,0,0.050535,-0.02166,0,-2.2991e-05,0,0,0,0.027765,-1.6894e-06,0.0083292,-0.0091231,0.012031,0.02468,4.8595e-07,0.97,0.01,0
0.048989,0.012104,0.027769,-1.6862e-06,0.0083303,-2.9461e-06,0,0,0.050541,-0.021663,0,-1.532e-05,0,0,0,0.027769,-1.6865e-06,0.0083303,-0.0060783,0.012033,0.024683,4.8614e-07,0.98,0.01,0
0.049494,0.012104,0.027771,-1.6847e-06,0.0083309,-1.4726e-06,0,0,0.050545,-0.021665,0,-7.6575e-06,0,0,0,0.027771,-1.6848e-06,0.0083309,-0.003038,0.012034,0.024685,4.8626e-07,0.99,0.01,0
0.05,0.012104,0.027772,-1.6842e-06,0.0083311,-1.1393e-06,0,0,0.050547,-0.021665,0,-5.9245e-06,0,0,0,0.027772,-1.6842e-06,0.0083311,-0.0023504,0.012034,0.024686,4.863e-07,1,0.01,0
0,0,0.042687,0.018295,0.018295,0.013364,0,0,0.063421,1.7347e-18,0,0.069495,0,0,0,0.048584,0.012398,0.018295,23.808,0.026426,0.033628,1.7524e-06,0,0.02,0
0.00063421,0.00069494,0.041064,0.010916,0.015594,0.012057,0,0,0.066222,-0.012162,0,0.062696,0,0,0,0.045293,0.0066874,0.015594,19.327,0.022525,0.035012,1.7328e-06,0.01,0.02,0
0.0013244,0.0014509,0.040901,0.0052151,0.013835,0.0097654,0,0,0.070373,-0.022412,0,0.05078,0,0,0,0.043399,0.0027176,0.013835,14.346,0.019984,0.036418,1.7236e-06,0.02,0.02,0
0.0020417,0.0021651,0.040151,0.00327,0.013026,0.0072747,0,0,0.070524,-0.025366,0,0.037829,0,0,0,0.041534,0.001887,0.013026,10.765,0.018816,0.035416,1.5438e-06,0.03,0.02,0
0.0027349,0.0028064,0.038107,0.0020709,0.012053,0.0053628,0,0,0.067738,-0.025954,0,0.027887,0,0,0,0.038888,0.0012898,0.012053,8.2875,0.01741,0.033538,1.286e-06,0.04,0.02,0
0.0033964,0.0033876,0.036115,0.0013852,0.01125,0.0040773,0,0,0.064648,-0.025648,0,0.021202,0,0,0,0.036587,0.00091292,0.01125,6.6069,0.01625,0.031792,1.0813e-06,0.05,0.02,0
0.0040279,0.0039189,0.034392,0.00096763,0.010608,0.0031846,0,0,0.061839,-0.025065,0,0.01656,0,0,0,0.034693,0.00066692,0.010608,5.3943,0.015323,0.030304,9.2803e-07,0.06,0.02,0
0.0046332,0.0044085,0.032956,0.00070346,0.010098,0.0025471,0,0,0.059431,-0.024425,0,0.013245,0,0,0,0.033156,0.00050354,0.010098,4.4878,0.014586,0.029068,8.1377e-07,0.07,0.02,0
0.0052165,0.0048625,0.031762,0.0005289,0.0096874,0.0020756,0,0,0.057395,-0.023812,0,0.010793,0,0,0,0.0319,0.00039157,0.0096874,3.7854,0.013993,0.028041,7.2708e-07,0.08,0.02,0
0.0057811,0.0052857,0.030765,0.00040907,0.0093522,0.0017164,0,0,0.055673,-0.023252,0,0.0089251,0,0,0,0.030862,0.00031234,0.0093522,3.2259,0.013509,0.027181,6.5996e-07,0.09,0.02,0
0.00633,0.0056816,0.029926,0.000324,0.0090749,0.0014355,0,0,0.054212,-0.022752,0,0.0074644,0,0,0,0.029995,0.00025455,0.0090749,2.7698,0.013108,0.026457,6.0701e-07,0.1,0.02,0
0.0068654,0.006053,0.029214,0.00026181,0.0088429,0.001211,0,0,0.052966,-0.022311,0,0.006297,0,0,0,0.029265,0.00021125,0.0088429,2.3909,0.012773,0.025843,5.6454e-07,0.11,0.02,0
0.0073893,0.0064023,0.028608,0.00021519,0.008647,0.0010282,0,0,0.051899,-0.021923,0,0.0053465,0,0,0,0.028645,0.000178,0.008647,2.0712,0.01249,0.025318,5.3001e-07,0.12,0.02,0
0.0079033,0.0067312,0.028088,0.00017945,0.0084804,0.00087698,0,0,0.050981,-0.021583,0,0.0045603,0,0,0,0.028116,0.00015192,0.0084804,1.798,0.012249,0.024869,5.0162e-07,0.13,0.02,0
0.0084089,0.0070415,0.027642,0.00015152,0.008338,0.00075021,0,0,0.05019,-0.021285,0,0.0039011,0,0,0,0.027662,0.00013106,0.008338,1.562,0.012044,0.024482,4.7807e-07,0.14,0.02,0
0.0089071,0.0073344,0.027257,0.00012932,0.0082158,0.00064266,0,0,0.049507,-0.021025,0,0.0033419,0,0,0,0.027272,0.0001141,0.0082158,1.3563,0.011867,0.024149,4.5839e-07,0.15,0.02,0
0.009399,0.0076112,0.026925,0.0001114,0.0081107,0.00055051,0,0,0.048916,-0.020798,0,0.0028627,0,0,0,0.026936,0.0001001,0.0081107,1.1757,0.011716,0.023861,4.4187e-07,0.16,0.02,0
0.0098855,0.007873,0.026638,9.6727e-05,0.0080203,0.00047086,0,0,0.048405,-0.020601,0,0.0024485,0,0,0,0.026646,8.8376e-05,0.0080203,1.016,0.011585,0.023613,4.2794e-07,0.17,0.02,0
0.010367,0.0081205,0.02639,8.457e-05,0.0079424,0.00040149,0,0,0.047964,-0.02043,0,0.0020877,0,0,0,0.026396,7.8444e-05,0.0079424,0.8742,0.011472,0.023399,4.1618e-07,0.18,0.02,0
0.010845,0.0083547,0.026177,7.4379e-05,0.0078755,0.00034068,0,0,0.047584,-0.020283,0,0.0017715,0,0,0,0.026182,6.9934e-05,0.0078755,0.74763,0.011376,0.023215,4.0624e-07,0.19,0.02,0
0.011319,0.0085763,0.025995,6.5748e-05,0.0078181,0.00028709,0,0,0.047259,-0.020156,0,0.0014929,0,0,0,0.025998,6.257e-05,0.0078181,0.63428,0.011293,0.023057,3.9786e-07,0.2,0.02,0
0.01179,0.008786,0.025839,5.8368e-05,0.0077691,0.00023963,0,0,0.046981,-0.020048,0,0.0012461,0,0,0,0.025841,5.6141e-05,0.0077691,0.53249,0.011222,0.022923,3.9081e-07,0.21,0.02,0
0.012258,0.0089845,0.025707,5.2002e-05,0.0077276,0.00019742,0,0,0.046746,-0.019957,0,0.0010266,0,0,0,0.025708,5.0483e-05,0.0077276,0.44088,0.011162,0.02281,3.849e-07,0.22,0.02,0
0.012725,0.0091722,0.025596,4.6466e-05,0.0076927,0.00015978,0,0,0.046548,-0.01988,0,0.00083084,0,0,0,0.025597,4.5467e-05,0.0076927,0.35829,0.011112,0.022715,3.8e-07,0.23,0.02,0
0.013189,0.0093498,0.025504,4.1617e-05,0.0076637,0.0001261,0,0,0.046385,-0.019817,0,0.00065573,0,0,0,0.025505,4.0993e-05,0.0076637,0.28375,0.01107,0.022636,3.7598e-07,0.24,0.02,0
0.013652,0.0095177,0.025429,3.7342e-05,0.00764,9.5915e-05,0,0,0.046252,-0.019767,0,0.00049876,0,0,0,0.02543,3.6979e-05,0.00764,0.21642,0.011036,0.022573,3.7273e-07,0.25,0.02,0
0.014115,0.0096765,0.02537,3.3548e-05,0.007621,6.8812e-05,0,0,0.046147,-0.019727,0,0.00035782,0,0,0,0.02537,3.3361e-05,0.007621,0.15561,0.011008,0.022523,3.7016e-07,0.26,0.02,0
0.014575,0.0098265,0.025324,3.0163e-05,0.0076062,4.4451e-05,0,0,0.046066,-0.019698,0,0.00023114,0,0,0,0.025324,3.0085e-05,0.0076062,0.10069,0.010987,0.022484,3.682e-07,0.27,0.02,0
0.015036,0.0099682,0.02529,2.7127e-05,0.0075952,2.2541e-05,0,0,0.046007,-0.019677,0,0.00011721,0,0,0,0.02529,2.7107e-05,0.0075952,0.051121,0.010971,0.022457,3.6679e-07,0.28,0.02,0
0.015496,0.010102,0.025268,2.4393e-05,0.0075877,2.8329e-06,0,0,0.045969,-0.019665,0,1.4731e-05,0,0,0,0.025268,2.4392e-05,0.0075877,0.0064299,0.01096,0.022439,3.6585e-07,0.29,0.02,0
0.015955,0.010228,0.025256,2.1919e-05,0.0075832,-1.4888e-05,0,0,0.045948,-0.019659,0,-7.7419e-05,0,0,0,0.025256,2.191e-05,0.0075832,-0.033806,0.010954,0.02243,3.6536e-07,0.3,0.02,0
0.016415,0.010347,0.025252,1.9674e-05,0.0075816,-3.081e-05,0,0,0.045944,-0.019661,0,-0.00016021,0,0,0,0.025252,1.9636e-05,0.0075816,-0.069961,0.010951,0.022429,3.6525e-07,0.31,0.02,0
0.016874,0.010459,0.025257,1.7629e-05,0.0075824,-4.5097e-05,0,0,0.045954,-0.019668,0,-0.0002345,0,0,0,0.025257,1.7548e-05,0.0075824,-0.10237,0.010952,0.022435,3.6549e-07,0.32,0.02,0
0.017334,0.010565,0.025269,1.5762e-05,0.0075855,-5.7892e-05,0,0,0.045978,-0.019681,0,-0.00030104,0,0,0,0.025269,1.5629e-05,0.0075855,-0.13135,0.010957,0.022447,3.6605e-07,0.33,0.02,0
0.017794,0.010665,0.025288,1.4052e-05,0.0075906,-6.9326e-05,0,0,0.046013,-0.019699,0,-0.00036049,0,0,0,0.025288,1.3862e-05,0.0075906,-0.15716,0.010964,0.022465,3.6689e-07,0.34,0.02,0
0.018254,0.010758,0.025313,1.2485e-05,0.0075975,-7.9511e-05,0,0,0.046059,-0.019721,0,-0.00041346,0,0,0,0.025313,1.2235e-05,0.0075975,-0.18006,0.010974,0.022489,3.6799e-07,0.35,0.02,0
0.018715,0.010846,0.025342,1.1044e-05,0.007606,-8.8551e-05,0,0,0.046115,-0.019747,0,-0.00046047,0,0,0,0.025343,1.0735e-05,0.007606,-0.20029,0.010986,0.022516,3.6932e-07,0.36,0.02,0
0.019176,0.010928,0.025377,9.7189e-06,0.007616,-9.6538e-05,0,0,0.046178,-0.019776,0,-0.000502,0,0,0,0.025377,9.3515e-06,0.007616,-0.21804,0.011001,0.022548,3.7086e-07,0.37,0.02,0
0.019638,0.011006,0.025416,8.4981e-06,0.0076273,-0.00010356,0,0,0.04625,-0.019809,0,-0.00053849,0,0,0,0.025416,8.076e-06,0.0076273,-0.23352,0.011017,0.022584,3.7259e-07,0.38,0.02,0
0.020101,0.011078,0.025458,7.3727e-06,0.0076397,-0.00010968,0,0,0.046328,-0.019844,0,-0.00057034,0,0,0,0.025459,6.9e-06,0.0076397,-0.24691,0.011035,0.022623,3.7448e-07,0.39,0.02,0
0.020565,0.011146,0.025504,6.3346e-06,0.0076531,-0.00011498,0,0,0.046412,-0.019881,0,-0.00059791,0,0,0,0.025504,5.8161e-06,0.0076531,-0.25837,0.011054,0.022664,3.7652e-07,0.4,0.02,0
0.021029,0.01121,0.025552,5.3767e-06,0.0076673,-0.00011953,0,0,0.046501,-0.019921,0,-0.00062153,0,0,0,0.025553,4.8175e-06,0.0076673,-0.26806,0.011075,0.022708,3.7869e-07,0.41,0.02,0
0.021495,0.011269,0.025603,4.4928e-06,0.0076824,-0.00012337,0,0,0.046595,-0.019963,0,-0.0006415,0,0,0,0.025604,3.8983e-06,0.0076824,-0.27611,0.011097,0.022754,3.8098e-07,0.42,0.02,0
0.021961,0.011324,0.025656,3.6772e-06,0.0076981,-0.00012656,0,0,0.046692,-0.020005,0,-0.00065812,0,0,0,0.025657,3.0528e-06,0.0076981,-0.28266,0.011119,0.022802,3.8337e-07,0.43,0.02,0
0.022429,0.011376,0.025712,2.9248e-06,0.0077143,-0.00012916,0,0,0.046793,-0.02005,0,-0.00067163,0,0,0,0.025712,2.2759e-06,0.0077143,-0.28784,0.011143,0.022852,3.8585e-07,0.44,0.02,0
0.022897,0.011424,0.025768,2.2311e-06,0.007731,-0.00013121,0,0,0.046896,-0.020095,0,-0.00068227,0,0,0,0.025768,1.5629e-06,0.007731,-0.29176,0.011167,0.022902,3.8841e-07,0.45,0.02,0
0.023367,0.011468,0.025826,1.5919e-06,0.0077481,-0.00013275,0,0,0.047001,-0.020141,0,-0.00069028,0,0,0,0.025826,9.0953e-07,0.0077481,-0.29452,0.011192,0.022954,3.9103e-07,0.46,0.02,0
0.023837,0.01151,0.025884,1.0035e-06,0.0077655,-0.00013382,0,0,0.047108,-0.020188,0,-0.00069586,0,0,0,0.025885,3.1163e-07,0.0077655,-0.29622,0.011217,0.023007,3.9371e-07,0.47,0.02,0
0.024309,0.011548,0.025943,4.6236e-07,0.0077832,-0.00013446,0,0,0.047217,-0.020235,0,-0.00069921,0,0,0,0.025944,-2.3454e-07,0.0077832,-0.29695,0.011242,0.02306,3.9643e-07,0.48,0.02,0
0.024782,0.011584,0.026003,-3.4633e-08,0.007801,-0.00013471,0,0,0.047326,-0.020283,0,-0.00070049,0,0,0,0.026004,-7.3248e-07,0.007801,-0.29681,0.011268,0.023113,3.9919e-07,0.49,0.02,0
0.025255,0.011617,0.026063,-4.9046e-07,0.0078189,-0.00013459,0,0,0.047436,-0.02033,0,-0.00069989,0,0,0,0.026064,-1.1855e-06,0.0078189,-0.29586,0.011294,0.023167,4.0198e-07,0.5,0.02,0
0.02573,0.011647,0.026124,-9.0785e-07,0.0078368,-0.00013415,0,0,0.047546,-0.020378,0,-0.00069756,0,0,0,0.026124,-1.5966e-06,0.0078368,-0.29419,0.01132,0.023221,4.0478e-07,0.51,0.02,0
0.026206,0.011675,0.026184,-1.2893e-06,0.0078548,-0.00013339,0,0,0.047656,-0.020426,0,-0.00069364,0,0,0,0.026185,-1.9689e-06,0.0078548,-0.29186,0.011346,0.023275,4.0759e-07,0.52,0.02,0
0.026683,0.0117,0.026244,-1.6373e-06,0.0078727,-0.00013236,0,0,0.047766,-0.020473,0,-0.00068828,0,0,0,0.026245,-2.3048e-06,0.0078727,-0.28894,0.011372,0.023329,4.1041e-07,0.53,0.02,0
0.027162,0.011723,0.026304,-1.954e-06,0.0078906,-0.00013108,0,0,0.047875,-0.020521,0,-0.0006816,0,0,0,0.026305,-2.6071e-06,0.0078906,-0.28548,0.011397,0.023382,4.1322e-07,0.54,0.02,0
0.027641,0.011745,0.026363,-2.2414e-06,0.0079083,-0.00012956,0,0,0.047983,-0.020567,0,-0.00067371,0,0,0,0.026364,-2.8781e-06,0.0079083,-0.28154,0.011423,0.023435,4.1603e-07,0.55,0.02,0
0.028121,0.011765,0.026422,-2.5016e-06,0.0079258,-0.00012783,0,0,0.04809,-0.020614,0,-0.00066474,0,0,0,0.026423,-3.12e-06,0.0079258,-0.27718,0.011448,0.023487,4.1882e-07,0.56,0.02,0
0.028603,0.011782,0.02648,-2.7364e-06,0.0079432,-0.00012592,0,0,0.048196,-0.020659,0,-0.00065479,0,0,0,0.026481,-3.3351e-06,0.0079432,-0.27242,0.011473,0.023539,4.2159e-07,0.57,0.02,0
0.029085,0.011798,0.026537,-2.9474e-06,0.0079603,-0.00012384,0,0,0.0483,-0.020704,0,-0.00064394,0,0,0,0.026538,-3.5252e-06,0.0079603,-0.26733,0.011498,0.02359,4.2433e-07,0.58,0.02,0
0.029569,0.011813,0.026594,-3.1365e-06,0.0079772,-0.0001216,0,0,0.048403,-0.020749,0,-0.0006323,0,0,0,0.026594,-3.6924e-06,0.0079772,-0.26194,0.011523,0.02364,4.2705e-07,0.59,0.02,0
0.030053,0.011826,0.026649,-3.305e-06,0.0079937,-0.00011922,0,0,0.048504,-0.020792,0,-0.00061995,0,0,0,0.02665,-3.8383e-06,0.0079937,-0.25629,0.011546,0.02369,4.2972e-07,0.6,0.02,0
0.030539,0.011838,0.026704,-3.4545e-06,0.00801,-0.00011672,0,0,0.048603,-0.020835,0,-0.00060696,0,0,0,0.026704,-3.9646e-06,0.00801,-0.2504,0.01157,0.023738,4.3237e-07,0.61,0.02,0
0.031025,0.011848,0.026757,-3.5863e-06,0.008026,-0.00011412,0,0,0.048701,-0.020877,0,-0.0005934,0,0,0,0.026758,-4.0729e-06,0.008026,-0.24432,0.011593,0.023786,4.3496e-07,0.62,0.02,0
0.031513,0.011857,0.026809,-3.7018e-06,0.0080417,-0.00011141,0,0,0.048796,-0.020918,0,-0.00057936,0,0,0,0.02681,-4.1648e-06,0.0080417,-0.23807,0.011616,0.023832,4.3752e-07,0.63,0.02,0
0.032001,0.011866,0.02686,-3.8022e-06,0.008057,-0.00010863,0,0,0.048889,-0.020958,0,-0.00056487,0,0,0,0.026861,-4.2415e-06,0.008057,-0.23168,0.011638,0.023878,4.4002e-07,0.64,0.02,0
0.03249,0.011873,0.02691,-3.8887e-06,0.0080719,-0.00010577,0,0,0.04898,-0.020997,0,-0.00055001,0,0,0,0.026911,-4.3044e-06,0.0080719,-0.22517,0.011659,0.023922,4.4248e-07,0.65,0.02,0
0.032981,0.011879,0.026959,-3.9624e-06,0.0080864,-0.00010285,0,0,0.049068,-0.021035,0,-0.00053483,0,0,0,0.026959,-4.3547e-06,0.0080864,-0.21855,0.01168,0.023965,4.4488e-07,0.66,0.02,0
0.033472,0.011884,0.027006,-4.0243e-06,0.0081006,-9.9878e-05,0,0,0.049154,-0.021072,0,-0.00051937,0,0,0,0.027006,-4.3936e-06,0.0081006,-0.21187,0.011701,0.024007,4.4722e-07,0.67,0.02,0
0.033964,0.011889,0.027052,-4.0755e-06,0.0081143,-9.686e-05,0,0,0.049238,-0.021108,0,-0.00050367,0,0,0,0.027052,-4.4223e-06,0.0081143,-0.20512,0.011721,0.024048,4.495e-07,0.68,0.02,0
0.034457,0.011893,0.027096,-4.1169e-06,0.0081277,-9.3806e-05,0,0,0.049319,-0.021143,0,-0.00048779,0,0,0,0.027097,-4.4416e-06,0.0081277,-0.19832,0.01174,0.024088,4.5173e-07,0.69,0.02,0
0.03495,0.011896,0.02714,-4.1493e-06,0.0081406,-9.0723e-05,0,0,0.049397,-0.021177,0,-0.00047176,0,0,0,0.02714,-4.4526e-06,0.0081406,-0.1915,0.011759,0.024126,4.5389e-07,0.7,0.02,0
0.035445,0.011899,0.027181,-4.1737e-06,0.0081532,-8.7616e-05,0,0,0.049473,-0.021209,0,-0.0004556,0,0,0,0.027182,-4.4561e-06,0.0081532,-0.18466,0.011777,0.024163,4.5599e-07,0.71,0.02,0
0.03594,0.011901,0.027222,-4.1909e-06,0.0081653,-8.4492e-05,0,0,0.049547,-0.021241,0,-0.00043936,0,0,0,0.027222,-4.4531e-06,0.0081653,-0.17781,0.011794,0.024199,4.5802e-07,0.72,0.02,0
0.036436,0.011902,0.027261,-4.2015e-06,0.008177,-8.1356e-05,0,0,0.049618,-0.021271,0,-0.00042305,0,0,0,0.027261,-4.4443e-06,0.008177,-0.17096,0.011811,0.024234,4.5999e-07,0.73,0.02,0
0.036932,0.011904,0.027298,-4.2063e-06,0.0081882,-7.8213e-05,0,0,0.049686,-0.0213,0,-0.00040671,0,0,0,0.027298,-4.4304e-06,0.0081882,-0.16413,0.011827,0.024267,4.6189e-07,0.74,0.02,0
0.037429,0.011904,0.027334,-4.2061e-06,0.008199,-7.5067e-05,0,0,0.049752,-0.021328,0,-0.00039035,0,0,0,0.027335,-4.4122e-06,0.008199,-0.15732,0.011843,0.024299,4.6372e-07,0.75,0.02,0
0.037927,0.011905,0.027369,-4.2013e-06,0.0082094,-7.1922e-05,0,0,0.049815,-0.021355,0,-0.000374,0,0,0,0.027369,-4.3902e-06,0.0082094,-0.15054,0.011858,0.02433,4.6548e-07,0.76,0.02,0
0.038426,0.011905,0.027402,-4.1926e-06,0.0082194,-6.8781e-05,0,0,0.049875,-0.021381,0,-0.00035766,0,0,0,0.027402,-4.3652e-06,0.0082194,-0.14379,0.011872,0.024359,4.6717e-07,0.77,0.02,0
0.038925,0.011905,0.027434,-4.1806e-06,0.0082289,-6.5646e-05,0,0,0.049933,-0.021406,0,-0.00034136,0,0,0,0.027434,-4.3376e-06,0.0082289,-0.13708,0.011886,0.024387,4.688e-07,0.78,0.02,0
0.039424,0.011904,0.027464,-4.1657e-06,0.008238,-6.252e-05,0,0,0.049988,-0.02143,0,-0.00032511,0,0,0,0.027464,-4.308e-06,0.008238,-0.13041,0.011899,0.024414,4.7035e-07,0.79,0.02,0
0.039924,0.011904,0.027493,-4.1486e-06,0.0082466,-5.9405e-05,0,0,0.05004,-0.021452,0,-0.00030891,0,0,0,0.027493,-4.2769e-06,0.0082466,-0.12378,0.011912,0.02444,4.7183e-07,0.8,0.02,0
0.040425,0.011903,0.02752,-4.1296e-06,0.0082548,-5.6304e-05,0,0,0.05009,-0.021473,0,-0.00029278,0,0,0,0.02752,-4.2448e-06,0.0082548,-0.1172,0.011924,0.024464,4.7324e-07,0.81,0.02,0
0.040926,0.011902,0.027546,-4.1092e-06,0.0082626,-5.3215e-05,0,0,0.050137,-0.021493,0,-0.00027672,0,0,0,0.027546,-4.212e-06,0.0082626,-0.11067,0.011935,0.024487,4.7457e-07,0.82,0.02,0
0.041428,0.011901,0.027571,-4.0877e-06,0.0082699,-5.0142e-05,0,0,0.050182,-0.021513,0,-0.00026074,0,0,0,0.027571,-4.1789e-06,0.0082699,-0.10419,0.011945,0.024509,4.7584e-07,0.83,0.02,0
0.04193,0.0119,0.027594,-4.0656e-06,0.0082769,-4.7084e-05,0,0,0.050223,-0.02153,0,-0.00024484,0,0,0,0.027594,-4.146e-06,0.0082769,-0.097752,0.011955,0.024529,4.7703e-07,0.84,0.02,0
0.042432,0.011899,0.027615,-4.0433e-06,0.0082833,-4.4043e-05,0,0,0.050263,-0.021547,0,-0.00022902,0,0,0,0.027615,-4.1135e-06,0.0082833,-0.091366,0.011965,0.024548,4.7815e-07,0.85,0.02,0
0.042935,0.011897,0.027635,-4.0209e-06,0.0082894,-4.1017e-05,0,0,0.050299,-0.021563,0,-0.00021329,0,0,0,0.027635,-4.0818e-06,0.0082894,-0.085028,0.011974,0.024566,4.792e-07,0.86,0.02,0
0.043438,0.011896,0.027654,-3.9988e-06,0.008295,-3.8008e-05,0,0,0.050334,-0.021577,0,-0.00019764,0,0,0,0.027654,-4.0511e-06,0.008295,-0.078737,0.011982,0.024583,4.8017e-07,0.87,0.02,0
0.043942,0.011895,0.027671,-3.9774e-06,0.0083002,-3.5015e-05,0,0,0.050365,-0.021591,0,-0.00018208,0,0,0,0.027671,-4.0217e-06,0.0083002,-0.07249,0.011989,0.024598,4.8107e-07,0.88,0.02,0
0.044445,0.011894,0.027687,-3.9567e-06,0.008305,-3.2036e-05,0,0,0.050394,-0.021603,0,-0.00016659,0,0,0,0.027687,-3.9938e-06,0.008305,-0.066286,0.011996,0.024612,4.819e-07,0.89,0.02,0
0.04495,0.011893,0.027702,-3.9372e-06,0.0083094,-2.9073e-05,0,0,0.05042,-0.021615,0,-0.00015118,0,0,0,0.027702,-3.9677e-06,0.0083094,-0.060123,0.012002,0.024625,4.8266e-07,0.9,0.02,0
0.045454,0.011892,0.027715,-3.9189e-06,0.0083133,-2.6123e-05,0,0,0.050444,-0.021625,0,-0.00013584,0,0,0,0.027715,-3.9435e-06,0.0083133,-0.053997,0.012008,0.024637,4.8334e-07,0.91,0.02,0
0.045958,0.011891,0.027727,-3.902e-06,0.0083168,-2.3186e-05,0,0,0.050466,-0.021634,0,-0.00012057,0,0,0,0.027727,-3.9214e-06,0.0083168,-0.047906,0.012013,0.024647,4.8396e-07,0.92,0.02,0
0.046463,0.01189,0.027737,-3.8867e-06,0.0083199,-2.0261e-05,0,0,0.050484,-0.021642,0,-0.00010536,0,0,0,0.027737,-3.9015e-06,0.0083199,-0.041847,0.012018,0.024656,4.845e-07,0.93,0.02,0
0.046968,0.011889,0.027746,-3.8733e-06,0.0083226,-1.7346e-05,0,0,0.050501,-0.021649,0,-9.0201e-05,0,0,0,0.027746,-3.8841e-06,0.0083226,-0.035815,0.012021,0.024664,4.8497e-07,0.94,0.02,0
0.047473,0.011888,0.027754,-3.8616e-06,0.0083249,-1.4441e-05,0,0,0.050514,-0.021655,0,-7.5092e-05,0,0,0,0.027754,-3.8691e-06,0.0083249,-0.029808,0.012025,0.024671,4.8536e-07,0.95,0.02,0
0.047978,0.011888,0.02776,-3.852e-06,0.0083267,-1.1543e-05,0,0,0.050526,-0.02166,0,-6.0024e-05,0,0,0,0.02776,-3.8568e-06,0.0083267,-0.023822,0.012027,0.024676,4.8568e-07,0.96,0.02,0
0.048484,0.011888,0.027764,-3.8444e-06,0.0083282,-8.6517e-06,0,0,0.050534,-0.021663,0,-4.4989e-05,0,0,0,0.027764,-3.8471e-06,0.0083282,-0.017851,0.01203,0.024681,4.8594e-07,0.97,0.02,0
0.048989,0.011887,0.027768,-3.8389e-06,0.0083292,-5.7651e-06,0,0,0.050541,-0.021666,0,-2.9979e-05,0,0,0,0.027768,-3.8401e-06,0.0083292,-0.011894,0.012031,0.024684,4.8612e-07,0.98,0.02,0
0.049494,0.011887,0.02777,-3.8356e-06,0.0083298,-2.8818e-06,0,0,0.050544,-0.021667,0,-1.4985e-05,0,0,0,0.02777,-3.8359e-06,0.0083298,-0.0059449,0.012032,0.024685,4.8622e-07,0.99,0.02,0
0.05,0.011887,0.027771,-3.8345e-06,0.00833,-1.2448e-06,0,0,0.050546,-0.021668,0,-6.473e-06,0,0,0,0.027771,-3.8346e-06,0.00833,-0.0025679,0.012032,0.024686,4.8626e-07,1,0.02,0
0,0,0.037944,0.016262,0.016262,0.011742,0,0,0.056375,-1.7347e-18,0,0.061061,0,0,0,0.043085,0.011121,0.016262,23.643,0.023489,0.029729,1.2145e-06,0,0.03,0
0.00056375,0.00061061,0.03743,0.012212,0.014893,0.011198,0,0,0.058597,-0.0069688,0,0.058228,0,0,0,0.041684,0.0079578,0.014893,20.804,0.021512,0.030849,1.2548e-06,0.01,0.03,0
0.0011719,0.0012761,0.037711,0.0080378,0.013725,0.010396,0,0,0.062365,-0.014786,0,0.054059,0,0,0,0.040991,0.0047581,0.013725,17.509,0.019824,0.032685,1.3488e-06,0.02,0.03,0
0.001811,0.0019381,0.037546,0.0050957,0.012792,0.0087307,0,0,0.064358,-0.020011,0,0.0454,0,0,0,0.039745,0.0028959,0.012792,14.143,0.018478,0.033032,1.3064e-06,0.03,0.03,0
0.0024591,0.0025625,0.036819,0.0034462,0.01208,0.0070435,0,0,0.064323,-0.022447,0,0.036626,0,0,0,0.038245,0.0020205,0.01208,11.443,0.017448,0.032388,1.1943e-06,0.04,0.03,0
0.0030975,0.0031399,0.035656,0.0024043,0.011418,0.005643,0,0,0.063019,-0.023436,0,0.029344,0,0,0,0.036588,0.0014728,0.011418,9.3738,0.016493,0.031349,1.062e-06,0.05,0.03,0
0.0037195,0.003673,0.034426,0.001737,0.010849,0.004561,0,0,0.0613,-0.023691,0,0.023717,0,0,0,0.03505,0.0011125,0.010849,7.7961,0.015671,0.030268,9.4321e-07,0.06,0.03,0
0.0043235,0.0041665,0.033267,0.0012933,0.010368,0.0037305,0,0,0.059538,-0.023595,0,0.019398,0,0,0,0.033697,0.00086385,0.010368,6.5673,0.014976,0.029262,8.4412e-07,0.07,0.03,0
0.0049102,0.0046253,0.03223,0.00098939,0.0099656,0.0030875,0,0,0.057886,-0.023338,0,0.016055,0,0,0,0.032532,0.00068717,0.0099656,5.5906,0.014395,0.028367,7.635e-07,0.08,0.03,0
0.0054812,0.0050532,0.031317,0.00077491,0.0096277,0.0025821,0,0,0.056393,-0.023017,0,0.013427,0,0,0,0.031534,0.00055816,0.0096277,4.7984,0.013907,0.027583,6.9812e-07,0.09,0.03,0
0.0060381,0.0054534,0.030522,0.00061945,0.0093426,0.0021782,0,0,0.055068,-0.02268,0,0.011327,0,0,0,0.03068,0.00046162,0.0093426,4.1444,0.013495,0.026901,6.4484e-07,0.1,0.03,0
0.0065826,0.0058289,0.029831,0.00050402,0.0091004,0.0018504,0,0,0.053899,-0.022351,0,0.0096219,0,0,0,0.029947,0.00038773,0.0091004,3.5961,0.013145,0.026308,6.0111e-07,0.11,0.03,0
0.0071161,0.0061818,0.029229,0.00041642,0.0088936,0.0015804,0,0,0.052872,-0.022041,0,0.0082179,0,0,0,0.029315,0.00032999,0.0088936,3.1302,0.012846,0.025793,5.6493e-07,0.12,0.03,0
0.00764,0.006514,0.028705,0.00034864,0.008716,0.0013551,0,0,0.051971,-0.021755,0,0.0070467,0,0,0,0.028769,0.00028403,0.008716,2.7299,0.01259,0.025344,5.3477e-07,0.13,0.03,0
0.0081555,0.0068271,0.028247,0.00029529,0.0085628,0.001165,0,0,0.05118,-0.021496,0,0.0060583,0,0,0,0.028296,0.00024682,0.0085628,2.3826,0.012368,0.024953,5.0945e-07,0.14,0.03,0
0.0086636,0.0071226,0.027849,0.00025263,0.0084304,0.001003,0,0,0.050487,-0.021262,0,0.0052156,0,0,0,0.027885,0.00021622,0.0084304,2.0788,0.012177,0.024612,4.881e-07,0.15,0.03,0
0.0091652,0.0074016,0.0275,0.00021803,0.0083155,0.0008636,0,0,0.04988,-0.021053,0,0.0044907,0,0,0,0.027527,0.00019072,0.0083155,1.8112,0.012011,0.024315,4.6999e-07,0.16,0.03,0
0.0096612,0.0076653,0.027196,0.00018961,0.0082157,0.00074273,0,0,0.049349,-0.020868,0,0.0038622,0,0,0,0.027217,0.00016919,0.0082157,1.5742,0.011867,0.024056,4.5459e-07,0.17,0.03,0
0.010152,0.0079145,0.026931,0.00016598,0.0081291,0.00063721,0,0,0.048885,-0.020704,0,0.0033135,0,0,0,0.026946,0.00015082,0.0081291,1.3631,0.011742,0.02383,4.4148e-07,0.18,0.03,0
0.010639,0.0081502,0.0267,0.00014613,0.0080538,0.00054454,0,0,0.04848,-0.02056,0,0.0028316,0,0,0,0.026711,0.00013496,0.0080538,1.1743,0.011633,0.023634,4.3028e-07,0.19,0.03,0
0.011122,0.0083731,0.026499,0.00012928,0.0079886,0.00046272,0,0,0.048128,-0.020434,0,0.0024061,0,0,0,0.026508,0.00012116,0.0079886,1.005,0.011539,0.023464,4.2074e-07,0.2,0.03,0
0.011602,0.0085839,0.026326,0.00011485,0.0079323,0.00039015,0,0,0.047824,-0.020325,0,0.0020288,0,0,0,0.026332,0.00010905,0.0079323,0.8526,0.011458,0.023317,4.1262e-07,0.21,0.03,0
0.012078,0.0087833,0.026177,0.0001024,0.0078837,0.00032556,0,0,0.047561,-0.020231,0,0.0016929,0,0,0,0.026181,9.8333e-05,0.0078837,0.71523,0.011388,0.023191,4.0572e-07,0.22,0.03,0
0.012553,0.0089719,0.026049,9.1554e-05,0.0078421,0.00026786,0,0,0.047337,-0.020151,0,0.0013929,0,0,0,0.026051,8.8791e-05,0.0078421,0.59118,0.011328,0.023084,3.999e-07,0.23,0.03,0
0.013025,0.0091501,0.02594,8.2051e-05,0.0078067,0.0002162,0,0,0.047147,-0.020084,0,0.0011243,0,0,0,0.025942,8.0243e-05,0.0078067,0.47901,0.011276,0.022994,3.9502e-07,0.24,0.03,0
0.013496,0.0093186,0.025849,7.3666e-05,0.0077769,0.00016984,0,0,0.046988,-0.020028,0,0.00088319,0,0,0,0.02585,7.2547e-05,0.0077769,0.37752,0.011233,0.022918,3.9097e-07,0.25,0.03,0
0.013965,0.0094778,0.025774,6.6224e-05,0.0077521,0.00012818,0,0,0.046857,-0.019983,0,0.00066651,0,0,0,0.025775,6.5584e-05,0.0077521,0.28566,0.011197,0.022857,3.8765e-07,0.26,0.03,0
0.014433,0.0096282,0.025713,5.9582e-05,0.0077317,9.068e-05,0,0,0.046751,-0.019948,0,0.00047154,0,0,0,0.025713,5.9261e-05,0.0077317,0.20253,0.011168,0.022807,3.8498e-07,0.27,0.03,0
0.0149,0.0097701,0.025664,5.3625e-05,0.0077154,5.6917e-05,0,0,0.046667,-0.019921,0,0.00029597,0,0,0,0.025665,5.3499e-05,0.0077154,0.12733,0.011144,0.022768,3.8289e-07,0.28,0.03,0
0.015366,0.0099041,0.025628,4.8259e-05,0.0077028,2.6506e-05,0,0,0.046605,-0.019902,0,0.00013783,0,0,0,0.025628,4.8232e-05,0.0077028,0.059371,0.011126,0.02274,3.8132e-07,0.29,0.03,0
0.015832,0.01003,0.025601,4.3406e-05,0.0076934,-8.8003e-07,0,0,0.04656,-0.01989,0,-4.5762e-06,0,0,0,0.025601,4.3406e-05,0.0076934,-0.0019729,0.011113,0.02272,3.8022e-07,0.3,0.03,0
0.016297,0.01015,0.025584,3.9e-05,0.007687,-2.5526e-05,0,0,0.046533,-0.019885,0,-0.00013274,0,0,0,0.025584,3.8974e-05,0.007687,-0.057253,0.011103,0.022709,3.7954e-07,0.31,0.03,0
0.016763,0.010262,0.025576,3.4988e-05,0.0076833,-4.7683e-05,0,0,0.046521,-0.019886,0,-0.00024795,0,0,0,0.025576,3.4899e-05,0.0076833,-0.10697,0.011098,0.022705,3.7924e-07,0.32,0.03,0
0.017228,0.010367,0.025575,3.1325e-05,0.007682,-6.7572e-05,0,0,0.046523,-0.019892,0,-0.00035137,0,0,0,0.025576,3.1146e-05,0.007682,-0.15156,0.011096,0.022707,3.7927e-07,0.33,0.03,0
0.017693,0.010466,0.025582,2.7972e-05,0.0076829,-8.5386e-05,0,0,0.046537,-0.019903,0,-0.00044401,0,0,0,0.025582,2.7687e-05,0.0076829,-0.19145,0.011097,0.022716,3.7961e-07,0.34,0.03,0
0.018159,0.01056,0.025594,2.4897e-05,0.0076857,-0.0001013,0,0,0.046562,-0.019918,0,-0.00052677,0,0,0,0.025595,2.4496e-05,0.0076857,-0.22699,0.011102,0.022729,3.8023e-07,0.35,0.03,0
0.018624,0.010647,0.025612,2.2072e-05,0.0076904,-0.00011548,0,0,0.046597,-0.019938,0,-0.00060047,0,0,0,0.025613,2.1551e-05,0.0076904,-0.25854,0.011108,0.022748,3.811e-07,0.36,0.03,0
0.01909,0.01073,0.025636,1.9473e-05,0.0076966,-0.00012805,0,0,0.046642,-0.01996,0,-0.00066585,0,0,0,0.025636,1.8833e-05,0.0076966,-0.28639,0.011117,0.022771,3.8219e-07,0.37,0.03,0
0.019557,0.010807,0.025664,1.7079e-05,0.0077042,-0.00013914,0,0,0.046694,-0.019987,0,-0.00072355,0,0,0,0.025664,1.6324e-05,0.0077042,-0.31085,0.011128,0.022798,3.8348e-07,0.38,0.03,0
0.020024,0.010879,0.025695,1.4872e-05,0.0077131,-0.00014888,0,0,0.046754,-0.020015,0,-0.0007742,0,0,0,0.025696,1.4009e-05,0.0077131,-0.33216,0.011141,0.022828,3.8495e-07,0.39,0.03,0
0.020492,0.010946,0.025731,1.2836e-05,0.0077231,-0.00015737,0,0,0.04682,-0.020047,0,-0.00081834,0,0,0,0.025732,1.1873e-05,0.0077231,-0.35058,0.011156,0.022861,3.8658e-07,0.4,0.03,0
0.020961,0.01101,0.02577,1.0957e-05,0.0077341,-0.0001647,0,0,0.046892,-0.02008,0,-0.00085646,0,0,0,0.02577,9.904e-06,0.0077341,-0.36634,0.011171,0.022897,3.8836e-07,0.41,0.03,0
0.02143,0.011068,0.025811,9.2231e-06,0.007746,-0.00017097,0,0,0.046969,-0.020116,0,-0.00088904,0,0,0,0.025812,8.0902e-06,0.007746,-0.37964,0.011189,0.022936,3.9027e-07,0.42,0.03,0
0.0219,0.011123,0.025855,7.6227e-06,0.0077587,-0.00017625,0,0,0.04705,-0.020153,0,-0.0009165,0,0,0,0.025856,6.4209e-06,0.0077587,-0.39067,0.011207,0.022976,3.9229e-07,0.43,0.03,0
0.022371,0.011175,0.025901,6.146e-06,0.007772,-0.00018062,0,0,0.047134,-0.020191,0,-0.00093924,0,0,0,0.025902,4.8862e-06,0.007772,-0.39963,0.011226,0.023018,3.9442e-07,0.44,0.03,0
0.022843,0.011222,0.025948,4.7841e-06,0.0077859,-0.00018416,0,0,0.047222,-0.020231,0,-0.00095762,0,0,0,0.02595,3.4769e-06,0.0077859,-0.40668,0.011246,0.023062,3.9662e-07,0.45,0.03,0
0.023315,0.011266,0.025997,3.5287e-06,0.0078003,-0.00018692,0,0,0.047313,-0.020272,0,-0.00097198,0,0,0,0.025999,2.1847e-06,0.0078003,-0.41198,0.011267,0.023107,3.9891e-07,0.46,0.03,0
0.023789,0.011307,0.026048,2.3726e-06,0.0078151,-0.00018897,0,0,0.047406,-0.020313,0,-0.00098263,0,0,0,0.026049,1.0016e-06,0.0078151,-0.41566,0.011288,0.023152,4.0126e-07,0.47,0.03,0
0.024264,0.011345,0.0261,1.3088e-06,0.0078302,-0.00019036,0,0,0.0475,-0.020355,0,-0.00098986,0,0,0,0.026101,-7.9594e-08,0.0078302,-0.41788,0.01131,0.023199,4.0366e-07,0.48,0.03,0
0.024739,0.01138,0.026152,3.3114e-07,0.0078456,-0.00019114,0,0,0.047596,-0.020398,0,-0.00099395,0,0,0,0.026153,-1.0659e-06,0.0078456,-0.41875,0.011333,0.023246,4.0611e-07,0.49,0.03,0
0.025215,0.011413,0.026205,-5.6615e-07,0.0078612,-0.00019138,0,0,0.047693,-0.020441,0,-0.00099516,0,0,0,0.026206,-1.9637e-06,0.0078612,-0.4184,0.011355,0.023294,4.0859e-07,0.5,0.03,0
0.025693,0.011442,0.026258,-1.3884e-06,0.007877,-0.0001911,0,0,0.04779,-0.020484,0,-0.00099371,0,0,0,0.026259,-2.779e-06,0.007877,-0.41693,0.011378,0.023342,4.111e-07,0.51,0.03,0
0.026171,0.01147,0.026311,-2.1406e-06,0.0078928,-0.00019035,0,0,0.047888,-0.020527,0,-0.00098983,0,0,0,0.026313,-3.5176e-06,0.0078928,-0.41445,0.011401,0.02339,4.1363e-07,0.52,0.03,0
0.026651,0.011495,0.026365,-2.8275e-06,0.0079086,-0.00018918,0,0,0.047986,-0.02057,0,-0.00098373,0,0,0,0.026366,-4.1847e-06,0.0079086,-0.41105,0.011424,0.023438,4.1617e-07,0.53,0.03,0
0.027131,0.011518,0.026418,-3.4532e-06,0.0079245,-0.00018762,0,0,0.048084,-0.020613,0,-0.0009756,0,0,0,0.02642,-4.7854e-06,0.0079245,-0.40682,0.011447,0.023486,4.1871e-07,0.54,0.03,0
0.027612,0.011539,0.026472,-4.0219e-06,0.0079403,-0.0001857,0,0,0.048182,-0.020655,0,-0.00096562,0,0,0,0.026473,-5.3243e-06,0.0079403,-0.40184,0.011469,0.023534,4.2126e-07,0.55,0.03,0
0.028095,0.011558,0.026524,-4.5375e-06,0.007956,-0.00018345,0,0,0.048278,-0.020697,0,-0.00095395,0,0,0,0.026526,-5.806e-06,0.007956,-0.39618,0.011492,0.023581,4.2379e-07,0.56,0.03,0
0.028578,0.011575,0.026577,-5.0034e-06,0.0079716,-0.00018091,0,0,0.048374,-0.020739,0,-0.00094076,0,0,0,0.026578,-6.2346e-06,0.0079716,-0.38993,0.011515,0.023628,4.2632e-07,0.57,0.03,0
0.029062,0.011591,0.026629,-5.4231e-06,0.007987,-0.00017811,0,0,0.048469,-0.02078,0,-0.00092619,0,0,0,0.02663,-6.6141e-06,0.007987,-0.38314,0.011537,0.023675,4.2882e-07,0.58,0.03,0
0.029547,0.011605,0.02668,-5.7997e-06,0.0080023,-0.00017507,0,0,0.048562,-0.020821,0,-0.00091037,0,0,0,0.026681,-6.9482e-06,0.0080023,-0.37586,0.011559,0.02372,4.3131e-07,0.59,0.03,0
0.030033,0.011618,0.026731,-6.1364e-06,0.0080173,-0.00017181,0,0,0.048655,-0.020861,0,-0.00089344,0,0,0,0.026732,-7.2404e-06,0.0080173,-0.36817,0.011581,0.023765,4.3377e-07,0.6,0.03,0
0.03052,0.011629,0.02678,-6.4358e-06,0.0080322,-0.00016837,0,0,0.048745,-0.0209,0,-0.0008755,0,0,0,0.026781,-7.494e-06,0.0080322,-0.36011,0.011602,0.02381,4.3619e-07,0.61,0.03,0
0.031008,0.011639,0.026829,-6.7008e-06,0.0080467,-0.00016474,0,0,0.048834,-0.020939,0,-0.00085668,0,0,0,0.02683,-7.7121e-06,0.0080467,-0.35172,0.011623,0.023853,4.3858e-07,0.62,0.03,0
0.031497,0.011648,0.026877,-6.9338e-06,0.008061,-0.00016097,0,0,0.048922,-0.020977,0,-0.00083706,0,0,0,0.026878,-7.8976e-06,0.008061,-0.34305,0.011644,0.023896,4.4093e-07,0.63,0.03,0
0.031987,0.011656,0.026924,-7.1373e-06,0.008075,-0.00015707,0,0,0.049007,-0.021014,0,-0.00081675,0,0,0,0.026925,-8.0533e-06,0.008075,-0.33415,0.011664,0.023938,4.4325e-07,0.64,0.03,0
0.032477,0.011663,0.02697,-7.3136e-06,0.0080887,-0.00015305,0,0,0.049091,-0.02105,0,-0.00079583,0,0,0,0.026971,-8.1818e-06,0.0080887,-0.32503,0.011684,0.023978,4.4551e-07,0.65,0.03,0
0.032968,0.011669,0.027015,-7.4647e-06,0.0081021,-0.00014892,0,0,0.049172,-0.021085,0,-0.00077439,0,0,0,0.027015,-8.2854e-06,0.0081021,-0.31575,0.011703,0.024018,4.4773e-07,0.66,0.03,0
0.033461,0.011673,0.027058,-7.5929e-06,0.0081151,-0.00014471,0,0,0.049252,-0.021119,0,-0.00075249,0,0,0,0.027059,-8.3666e-06,0.0081151,-0.30633,0.011722,0.024057,4.499e-07,0.67,0.03,0
0.033954,0.011678,0.0271,-7.7e-06,0.0081278,-0.00014042,0,0,0.049329,-0.021152,0,-0.0007302,0,0,0,0.027101,-8.4273e-06,0.0081278,-0.29679,0.01174,0.024095,4.5202e-07,0.68,0.03,0
0.034447,0.011681,0.027142,-7.7878e-06,0.0081402,-0.00013607,0,0,0.049404,-0.021185,0,-0.00070758,0,0,0,0.027142,-8.4697e-06,0.0081402,-0.28716,0.011758,0.024132,4.5409e-07,0.69,0.03,0
0.034942,0.011684,0.027182,-7.858e-06,0.0081522,-0.00013167,0,0,0.049477,-0.021216,0,-0.0006847,0,0,0,0.027182,-8.4957e-06,0.0081522,-0.27746,0.011775,0.024167,4.561e-07,0.7,0.03,0
0.035437,0.011687,0.027221,-7.9124e-06,0.0081638,-0.00012723,0,0,0.049548,-0.021246,0,-0.0006616,0,0,0,0.027221,-8.5069e-06,0.0081638,-0.26772,0.011792,0.024202,4.5805e-07,0.71,0.03,0
0.035933,0.011688,0.027258,-7.9525e-06,0.008175,-0.00012276,0,0,0.049616,-0.021276,0,-0.00063833,0,0,0,0.027259,-8.5052e-06,0.008175,-0.25795,0.011808,0.024235,4.5994e-07,0.72,0.03,0
0.036429,0.01169,0.027294,-7.9797e-06,0.0081859,-0.00011826,0,0,0.049682,-0.021304,0,-0.00061494,0,0,0,0.027295,-8.4919e-06,0.0081859,-0.24816,0.011824,0.024267,4.6177e-07,0.73,0.03,0
0.036926,0.01169,0.027329,-7.9954e-06,0.0081963,-0.00011374,0,0,0.049745,-0.021331,0,-0.00059145,0,0,0,0.02733,-8.4686e-06,0.0081963,-0.23838,0.011839,0.024298,4.6355e-07,0.74,0.03,0
0.037424,0.011691,0.027363,-8.001e-06,0.0082064,-0.00010921,0,0,0.049806,-0.021358,0,-0.0005679,0,0,0,0.027363,-8.4367e-06,0.0082064,-0.22861,0.011854,0.024328,4.6525e-07,0.75,0.03,0
0.037922,0.011691,0.027395,-7.9975e-06,0.0082161,-0.00010468,0,0,0.049865,-0.021383,0,-0.00054433,0,0,0,0.027395,-8.3974e-06,0.0082161,-0.21887,0.011868,0.024356,4.669e-07,0.76,0.03,0
0.038421,0.011691,0.027426,-7.9863e-06,0.0082254,-0.00010015,0,0,0.049922,-0.021407,0,-0.00052076,0,0,0,0.027426,-8.3519e-06,0.0082254,-0.20915,0.011881,0.024384,4.6848e-07,0.77,0.03,0
0.038921,0.01169,0.027456,-7.9684e-06,0.0082343,-9.5617e-05,0,0,0.049975,-0.02143,0,-0.00049721,0,0,0,0.027456,-8.3013e-06,0.0082343,-0.19948,0.011894,0.02441,4.7e-07,0.78,0.03,0
0.039421,0.01169,0.027484,-7.9448e-06,0.0082428,-9.1096e-05,0,0,0.050027,-0.021452,0,-0.0004737,0,0,0,0.027484,-8.2466e-06,0.0082428,-0.18985,0.011906,0.024435,4.7145e-07,0.79,0.03,0
0.039921,0.011689,0.027511,-7.9164e-06,0.0082509,-8.6586e-05,0,0,0.050076,-0.021473,0,-0.00045025,0,0,0,0.027511,-8.1888e-06,0.0082509,-0.18028,0.011918,0.024459,4.7284e-07,0.8,0.03,0
0.040422,0.011688,0.027536,-7.8842e-06,0.0082586,-8.2091e-05,0,0,0.050123,-0.021493,0,-0.00042687,0,0,0,0.027537,-8.1289e-06,0.0082586,-0.17076,0.011929,0.024482,4.7416e-07,0.81,0.03,0
0.040924,0.011687,0.027561,-7.849e-06,0.0082659,-7.7611e-05,0,0,0.050167,-0.021512,0,-0.00040358,0,0,0,0.027561,-8.0675e-06,0.0082659,-0.1613,0.01194,0.024503,4.7541e-07,0.82,0.03,0
0.041426,0.011686,0.027584,-7.8116e-06,0.0082728,-7.3149e-05,0,0,0.050208,-0.02153,0,-0.00038038,0,0,0,0.027584,-8.0055e-06,0.0082728,-0.1519,0.01195,0.024524,4.766e-07,0.83,0.03,0
0.041928,0.011684,0.027605,-7.7727e-06,0.0082793,-6.8707e-05,0,0,0.050248,-0.021546,0,-0.00035727,0,0,0,0.027606,-7.9436e-06,0.0082793,-0.14256,0.011959,0.024543,4.7771e-07,0.84,0.03,0
0.042431,0.011683,0.027626,-7.7329e-06,0.0082854,-6.4284e-05,0,0,0.050285,-0.021562,0,-0.00033428,0,0,0,0.027626,-7.8825e-06,0.0082854,-0.13329,0.011968,0.024561,4.7876e-07,0.85,0.03,0
0.042934,0.011682,0.027644,-7.693e-06,0.008291,-5.9882e-05,0,0,0.050319,-0.021577,0,-0.00031139,0,0,0,0.027645,-7.8226e-06,0.008291,-0.12408,0.011976,0.024577,4.7975e-07,0.86,0.03,0
0.043437,0.01168,0.027662,-7.6534e-06,0.0082963,-5.55e-05,0,0,0.050351,-0.02159,0,-0.0002886,0,0,0,0.027662,-7.7647e-06,0.0082963,-0.11492,0.011984,0.024593,4.8066e-07,0.87,0.03,0
0.043941,0.011679,0.027679,-7.6147e-06,0.0083012,-5.1139e-05,0,0,0.050381,-0.021603,0,-0.00026592,0,0,0,0.027679,-7.7092e-06,0.0083012,-0.10583,0.011991,0.024607,4.8151e-07,0.88,0.03,0
0.044445,0.011678,0.027693,-7.5774e-06,0.0083058,-4.6798e-05,0,0,0.050408,-0.021615,0,-0.00024335,0,0,0,0.027693,-7.6565e-06,0.0083058,-0.096794,0.011997,0.024621,4.8229e-07,0.89,0.03,0
0.044949,0.011677,0.027707,-7.5419e-06,0.0083099,-4.2476e-05,0,0,0.050433,-0.021625,0,-0.00022087,0,0,0,0.027707,-7.607e-06,0.0083099,-0.087812,0.012003,0.024633,4.8301e-07,0.9,0.03,0
0.045453,0.011676,0.027719,-7.5087e-06,0.0083136,-3.8172e-05,0,0,0.050455,-0.021635,0,-0.00019849,0,0,0,0.02772,-7.5612e-06,0.0083136,-0.078879,0.012009,0.024644,4.8365e-07,0.91,0.03,0
0.045958,0.011675,0.027731,-7.478e-06,0.0083169,-3.3884e-05,0,0,0.050475,-0.021643,0,-0.0001762,0,0,0,0.027731,-7.5194e-06,0.0083169,-0.069992,0.012013,0.024653,4.8423e-07,0.92,0.03,0
0.046463,0.011673,0.02774,-7.4502e-06,0.0083198,-2.9613e-05,0,0,0.050493,-0.021651,0,-0.00015399,0,0,0,0.02774,-7.4818e-06,0.0083198,-0.061148,0.012018,0.024662,4.8473e-07,0.93,0.03,0
0.046968,0.011673,0.027749,-7.4256e-06,0.0083224,-2.5356e-05,0,0,0.050508,-0.021657,0,-0.00013185,0,0,0,0.027749,-7.4487e-06,0.0083224,-0.05234,0.012021,0.02467,4.8517e-07,0.94,0.03,0
0.047473,0.011672,0.027756,-7.4043e-06,0.0083245,-2.111e-05,0,0,0.050521,-0.021663,0,-0.00010977,0,0,0,0.027756,-7.4204e-06,0.0083245,-0.043566,0.012024,0.024676,4.8555e-07,0.95,0.03,0
0.047978,0.011671,0.027762,-7.3866e-06,0.0083263,-1.6876e-05,0,0,0.050532,-0.021667,0,-8.7753e-05,0,0,0,0.027762,-7.3969e-06,0.0083263,-0.034819,0.012027,0.024681,4.8585e-07,0.96,0.03,0
0.048484,0.011671,0.027766,-7.3728e-06,0.0083276,-1.2649e-05,0,0,0.05054,-0.021671,0,-6.5775e-05,0,0,0,0.027766,-7.3785e-06,0.0083276,-0.026095,0.012029,0.024685,4.8609e-07,0.97,0.03,0
0.048989,0.011671,0.027769,-7.3627e-06,0.0083286,-8.4292e-06,0,0,0.050546,-0.021673,0,-4.3832e-05,0,0,0,0.027769,-7.3653e-06,0.0083286,-0.017387,0.01203,0.024688,4.8626e-07,0.98,0.03,0
0.049494,0.01167,0.027771,-7.3567e-06,0.0083292,-4.2135e-06,0,0,0.050549,-0.021675,0,-2.191e-05,0,0,0,0.027771,-7.3573e-06,0.0083292,-0.0086907,0.012031,0.024689,4.8636e-07,0.99,0.03,0
0.05,0.01167,0.027772,-7.3547e-06,0.0083294,-1.3442e-06,0,0,0.050551,-0.021676,0,-6.9899e-06,0,0,0,0.027772,-7.3547e-06,0.0083294,-0.0027725,0.012031,0.02469,4.8639e-07,1,0.03,0
0,0,0.035181,0.015078,0.015078,0.010684,0,0,0.052269,2.1684e-19,0,0.055557,0,0,0,0.039799,0.01046,0.015078,23.373,0.021779,0.027324,9.4767e-07,0,0.04,0
0.00052269,0.00055557,0.03491,0.012348,0.014177,0.010447,0,0,0.053904,-0.0047558,0,0.054325,0,0,0,0.039004,0.0082538,0.014177,21.401,0.020479,0.028258,9.8944e-07,0.01,0.04,0
0.0010781,0.0011552,0.03535,0.009373,0.013417,0.010126,0,0,0.057025,-0.010514,0,0.052657,0,0,0,0.038831,0.005892,0.013417,18.971,0.01938,0.029895,1.0847e-06,0.02,0.04,0
0.0016632,0.0017649,0.035521,0.0067527,0.012682,0.0091649,0,0,0.059382,-0.015417,0,0.047657,0,0,0,0.038193,0.0040811,0.012682,16.252,0.018319,0.030728,1.1059e-06,0.03,0.04,0
0.0022657,0.0023574,0.035307,0.0048376,0.012043,0.0079097,0,0,0.060485,-0.018735,0,0.04113,0,0,0,0.037238,0.0029066,0.012043,13.719,0.017396,0.030797,1.067e-06,0.04,0.04,0
0.0028729,0.0029189,0.034753,0.0035396,0.011488,0.0066772,0,0,0.06049,-0.020665,0,0.034721,0,0,0,0.036122,0.0021713,0.011488,11.582,0.016594,0.030383,9.9704e-07,0.05,0.04,0
0.0034755,0.003445,0.03399,0.0026445,0.01099,0.0056002,0,0,0.059798,-0.021699,0,0.029121,0,0,0,0.03496,0.0016741,0.01099,9.8315,0.015875,0.029743,9.179e-07,0.06,0.04,0
0.0040689,0.0039365,0.033159,0.0020197,0.010554,0.0047042,0,0,0.058774,-0.022188,0,0.024462,0,0,0,0.033854,0.0013246,0.010554,8.4058,0.015244,0.029037,8.4246e-07,0.07,0.04,0
0.004651,0.0043958,0.032341,0.0015746,0.010175,0.00397,0,0,0.057632,-0.02236,0,0.020644,0,0,0,0.032845,0.0010706,0.010175,7.2355,0.014697,0.028341,7.7534e-07,0.08,0.04,0
0.0052215,0.0048254,0.031573,0.0012511,0.0098473,0.0033692,0,0,0.056488,-0.02235,0,0.01752,0,0,0,0.031943,0.00088121,0.0098473,6.2645,0.014224,0.02769,7.1744e-07,0.09,0.04,0
0.0057808,0.005228,0.030872,0.001011,0.009565,0.0028748,0,0,0.055399,-0.02224,0,0.014949,0,0,0,0.031147,0.00073679,0.009565,5.4492,0.013816,0.027097,6.6813e-07,0.1,0.04,0
0.0063295,0.005606,0.030241,0.00082954,0.0093211,0.0024646,0,0,0.054391,-0.022078,0,0.012816,0,0,0,0.030446,0.00062444,0.0093211,4.7571,0.013464,0.026563,6.263e-07,0.11,0.04,0
0.0068686,0.0059615,0.029676,0.00068984,0.0091098,0.0021212,0,0,0.053473,-0.021892,0,0.01103,0,0,0,0.029831,0.00053543,0.0091098,4.1633,0.013159,0.026087,5.9081e-07,0.12,0.04,0
0.0073989,0.0062961,0.029174,0.00058053,0.0089263,0.0018311,0,0,0.052644,-0.021699,0,0.0095215,0,0,0,0.029291,0.00046374,0.0089263,3.6492,0.012894,0.025664,5.6063e-07,0.13,0.04,0
0.0079215,0.0066116,0.028728,0.00049368,0.0087664,0.0015838,0,0,0.051899,-0.021509,0,0.0082355,0,0,0,0.028816,0.00040512,0.0087664,3.2006,0.012663,0.025289,5.349e-07,0.14,0.04,0
0.0084369,0.0069092,0.028332,0.00042373,0.0086268,0.0013713,0,0,0.051234,-0.021328,0,0.0071306,0,0,0,0.0284,0.00035652,0.0086268,2.8062,0.012461,0.024958,5.1289e-07,0.15,0.04,0
0.0089461,0.0071902,0.027982,0.00036665,0.0085047,0.0011873,0,0,0.050642,-0.021159,0,0.006174,0,0,0,0.028033,0.0003157,0.0085047,2.4573,0.012285,0.024665,4.9401e-07,0.16,0.04,0
0.0094498,0.0074556,0.027673,0.00031954,0.0083978,0.001027,0,0,0.050116,-0.021004,0,0.0053405,0,0,0,0.027712,0.00028103,0.0083978,2.1472,0.01213,0.024406,4.7779e-07,0.17,0.04,0
0.0099485,0.0077064,0.0274,0.00028021,0.0083041,0.00088648,0,0,0.04965,-0.020862,0,0.0046097,0,0,0,0.027429,0.00025126,0.0083041,1.8702,0.011995,0.024179,4.6383e-07,0.18,0.04,0
0.010443,0.0079435,0.02716,0.00024706,0.008222,0.00076263,0,0,0.049238,-0.020735,0,0.0039657,0,0,0,0.027181,0.00022547,0.008222,1.6219,0.011876,0.023979,4.518e-07,0.19,0.04,0
0.010933,0.0081676,0.026949,0.00021885,0.0081502,0.00065297,0,0,0.048876,-0.020622,0,0.0033954,0,0,0,0.026964,0.00020291,0.0081502,1.3985,0.011772,0.023805,4.4144e-07,0.2,0.04,0
0.01142,0.0083795,0.026763,0.00019464,0.0080874,0.00055547,0,0,0.048558,-0.020521,0,0.0028884,0,0,0,0.026775,0.00018304,0.0080874,1.1972,0.011682,0.023652,4.3254e-07,0.21,0.04,0
0.011904,0.0085798,0.026602,0.0001737,0.0080327,0.00046848,0,0,0.04828,-0.020433,0,0.0024361,0,0,0,0.02661,0.0001654,0.0080327,1.0152,0.011603,0.02352,4.2489e-07,0.22,0.04,0
0.012386,0.0087692,0.026462,0.00015545,0.0079852,0.00039065,0,0,0.048039,-0.020357,0,0.0020314,0,0,0,0.026468,0.00014965,0.0079852,0.85059,0.011534,0.023405,4.1835e-07,0.23,0.04,0
0.012865,0.0089481,0.026341,0.00013943,0.0079441,0.00032082,0,0,0.047831,-0.020292,0,0.0016683,0,0,0,0.026345,0.0001355,0.0079441,0.70142,0.011475,0.023307,4.1278e-07,0.24,0.04,0
0.013343,0.0091172,0.026237,0.00012528,0.0079087,0.00025807,0,0,0.047654,-0.020237,0,0.0013419,0,0,0,0.02624,0.00012273,0.0079087,0.56619,0.011424,0.023224,4.0807e-07,0.25,0.04,0
0.013818,0.0092768,0.026149,0.00011271,0.0078786,0.00020157,0,0,0.047504,-0.020191,0,0.0010482,0,0,0,0.026151,0.00011116,0.0078786,0.44354,0.01138,0.023155,4.0412e-07,0.26,0.04,0
0.014293,0.0094276,0.026076,0.0001015,0.0078531,0.00015065,0,0,0.047378,-0.020154,0,0.00078339,0,0,0,0.026076,0.00010062,0.0078531,0.33231,0.011343,0.023097,4.0086e-07,0.27,0.04,0
0.014766,0.0095698,0.026015,9.1429e-05,0.0078319,0.00010473,0,0,0.047276,-0.020125,0,0.00054461,0,0,0,0.026015,9.1006e-05,0.0078319,0.23147,0.011313,0.02305,3.982e-07,0.28,0.04,0
0.015238,0.009704,0.025966,8.2357e-05,0.0078145,6.3305e-05,0,0,0.047194,-0.020104,0,0.00032919,0,0,0,0.025966,8.2202e-05,0.0078145,0.14013,0.011288,0.023013,3.9608e-07,0.29,0.04,0
0.01571,0.0098304,0.025928,7.415e-05,0.0078005,2.5935e-05,0,0,0.04713,-0.020089,0,0.00013486,0,0,0,0.025928,7.4124e-05,0.0078005,0.057476,0.011267,0.022986,3.9446e-07,0.3,0.04,0
0.016181,0.0099496,0.025899,6.67e-05,0.0077897,-7.758e-06,0,0,0.047084,-0.02008,0,-4.0341e-05,0,0,0,0.025899,6.6697e-05,0.0077897,-0.017207,0.011252,0.022966,3.9327e-07,0.31,0.04,0
0.016651,0.010062,0.025879,5.9914e-05,0.0077817,-3.8108e-05,0,0,0.047053,-0.020077,0,-0.00019816,0,0,0,0.025879,5.9858e-05,0.0077817,-0.084565,0.01124,0.022954,3.9248e-07,0.32,0.04,0
0.017122,0.010167,0.025867,5.3719e-05,0.0077763,-6.5409e-05,0,0,0.047037,-0.020079,0,-0.00034013,0,0,0,0.025867,5.3553e-05,0.0077763,-0.14518,0.011232,0.022949,3.9205e-07,0.33,0.04,0
0.017592,0.010266,0.025863,4.8047e-05,0.0077732,-8.9924e-05,0,0,0.047032,-0.020085,0,-0.00046761,0,0,0,0.025863,4.7734e-05,0.0077732,-0.19959,0.011228,0.022949,3.9194e-07,0.34,0.04,0
0.018062,0.01036,0.025864,4.2846e-05,0.0077722,-0.00011189,0,0,0.04704,-0.020096,0,-0.00058181,0,0,0,0.025865,4.2361e-05,0.0077722,-0.24826,0.011227,0.022955,3.9212e-07,0.35,0.04,0
0.018533,0.010447,0.025872,3.8066e-05,0.0077731,-0.00013151,0,0,0.047058,-0.020111,0,-0.00068383,0,0,0,0.025873,3.7397e-05,0.0077731,-0.29165,0.011228,0.022967,3.9256e-07,0.36,0.04,0
0.019004,0.010529,0.025885,3.3669e-05,0.0077757,-0.00014897,0,0,0.047085,-0.020129,0,-0.00077465,0,0,0,0.025886,3.2811e-05,0.0077757,-0.33015,0.011232,0.022982,3.9324e-07,0.37,0.04,0
0.019475,0.010606,0.025903,2.9618e-05,0.0077798,-0.00016445,0,0,0.047121,-0.020151,0,-0.00085516,0,0,0,0.025904,2.8573e-05,0.0077798,-0.36415,0.011238,0.023001,3.9414e-07,0.38,0.04,0
0.019946,0.010678,0.025925,2.5884e-05,0.0077854,-0.00017811,0,0,0.047164,-0.020175,0,-0.00092616,0,0,0,0.025927,2.4659e-05,0.0077854,-0.39399,0.011246,0.023024,3.9522e-07,0.39,0.04,0
0.020418,0.010745,0.025951,2.2438e-05,0.0077922,-0.00019008,0,0,0.047214,-0.020201,0,-0.00098839,0,0,0,0.025953,2.1045e-05,0.0077922,-0.41998,0.011255,0.023051,3.9648e-07,0.4,0.04,0
0.02089,0.010808,0.025981,1.9258e-05,0.0078001,-0.00020049,0,0,0.04727,-0.02023,0,-0.0010425,0,0,0,0.025982,1.771e-05,0.0078001,-0.44243,0.011267,0.02308,3.979e-07,0.41,0.04,0
0.021363,0.010866,0.026013,1.6323e-05,0.0078089,-0.00020946,0,0,0.047332,-0.020261,0,-0.0010892,0,0,0,0.026015,1.4635e-05,0.0078089,-0.4616,0.011279,0.023111,3.9945e-07,0.42,0.04,0
0.021837,0.010921,0.026049,1.3613e-05,0.0078187,-0.00021711,0,0,0.047398,-0.020293,0,-0.001129,0,0,0,0.02605,1.1802e-05,0.0078187,-0.47776,0.011294,0.023145,4.0113e-07,0.43,0.04,0
0.022311,0.010972,0.026086,1.1111e-05,0.0078292,-0.00022354,0,0,0.047468,-0.020327,0,-0.0011624,0,0,0,0.026088,9.1951e-06,0.0078292,-0.49114,0.011309,0.02318,4.0291e-07,0.44,0.04,0
0.022786,0.011019,0.026126,8.8034e-06,0.0078403,-0.00022883,0,0,0.047542,-0.020362,0,-0.0011899,0,0,0,0.026128,6.7986e-06,0.0078403,-0.50196,0.011325,0.023217,4.0479e-07,0.45,0.04,0
0.023262,0.011063,0.026167,6.6754e-06,0.0078521,-0.00023308,0,0,0.047619,-0.020398,0,-0.001212,0,0,0,0.026169,4.5989e-06,0.0078521,-0.51043,0.011342,0.023256,4.0675e-07,0.46,0.04,0
0.023739,0.011104,0.02621,4.7144e-06,0.0078644,-0.00023636,0,0,0.047698,-0.020435,0,-0.0012291,0,0,0,0.026212,2.5826e-06,0.0078644,-0.51674,0.01136,0.023296,4.0879e-07,0.47,0.04,0
0.024216,0.011141,0.026254,2.9091e-06,0.0078771,-0.00023876,0,0,0.04778,-0.020473,0,-0.0012416,0,0,0,0.026256,7.3769e-07,0.0078771,-0.52107,0.011378,0.023336,4.1089e-07,0.48,0.04,0
0.024694,0.011176,0.026299,1.249e-06,0.0078901,-0.00024034,0,0,0.047863,-0.020511,0,-0.0012498,0,0,0,0.026301,-9.4737e-07,0.0078901,-0.52358,0.011397,0.023378,4.1304e-07,0.49,0.04,0
0.025173,0.011208,0.026345,-2.758e-07,0.0079034,-0.00024117,0,0,0.047948,-0.02055,0,-0.0012541,0,0,0,0.026347,-2.4833e-06,0.0079034,-0.52444,0.011416,0.02342,4.1524e-07,0.5,0.04,0
0.025653,0.011237,0.026391,-1.6742e-06,0.007917,-0.0002413,0,0,0.048034,-0.020588,0,-0.0012548,0,0,0,0.026394,-3.8802e-06,0.007917,-0.52378,0.011436,0.023462,4.1746e-07,0.51,0.04,0
0.026134,0.011264,0.026439,-2.9547e-06,0.0079307,-0.0002408,0,0,0.04812,-0.020627,0,-0.0012522,0,0,0,0.026441,-5.1476e-06,0.0079307,-0.52174,0.011455,0.023505,4.1972e-07,0.52,0.04,0
0.026616,0.011289,0.026486,-4.1251e-06,0.0079445,-0.00023972,0,0,0.048207,-0.020667,0,-0.0012465,0,0,0,0.026488,-6.2943e-06,0.0079445,-0.51844,0.011475,0.023548,4.2199e-07,0.53,0.04,0
0.027098,0.011311,0.026533,-5.1926e-06,0.0079584,-0.00023811,0,0,0.048295,-0.020705,0,-0.0012382,0,0,0,0.026535,-7.3288e-06,0.0079584,-0.51401,0.011496,0.023591,4.2428e-07,0.54,0.04,0
0.027581,0.011332,0.026581,-6.1641e-06,0.0079724,-0.00023601,0,0,0.048382,-0.020744,0,-0.0012272,0,0,0,0.026583,-8.2589e-06,0.0079724,-0.50855,0.011516,0.023634,4.2657e-07,0.55,0.04,0
0.028066,0.01135,0.026628,-7.046e-06,0.0079863,-0.00023346,0,0,0.048468,-0.020783,0,-0.001214,0,0,0,0.02663,-9.0922e-06,0.0079863,-0.50216,0.011536,0.023677,4.2887e-07,0.56,0.04,0
0.028551,0.011367,0.026675,-7.8444e-06,0.0080002,-0.00023052,0,0,0.048555,-0.020821,0,-0.0011987,0,0,0,0.026677,-9.8357e-06,0.0080002,-0.49494,0.011556,0.023719,4.3115e-07,0.57,0.04,0
0.029037,0.011383,0.026722,-8.5649e-06,0.008014,-0.0002272,0,0,0.04864,-0.020858,0,-0.0011815,0,0,0,0.026724,-1.0496e-05,0.008014,-0.48696,0.011576,0.023761,4.3343e-07,0.58,0.04,0
0.029524,0.011396,0.026768,-9.2129e-06,0.0080276,-0.00022356,0,0,0.048725,-0.020896,0,-0.0011625,0,0,0,0.02677,-1.1079e-05,0.0080276,-0.47832,0.011595,0.023802,4.3569e-07,0.59,0.04,0
0.030011,0.011409,0.026814,-9.7934e-06,0.0080412,-0.00021962,0,0,0.048809,-0.020932,0,-0.001142,0,0,0,0.026815,-1.1592e-05,0.0080412,-0.46908,0.011615,0.023843,4.3793e-07,0.6,0.04,0
0.0305,0.01142,0.026859,-1.0311e-05,0.0080545,-0.00021542,0,0,0.048891,-0.020969,0,-0.0011202,0,0,0,0.02686,-1.2038e-05,0.0080545,-0.45932,0.011634,0.023884,4.4015e-07,0.61,0.04,0
0.030989,0.011429,0.026903,-1.0771e-05,0.0080677,-0.00021097,0,0,0.048972,-0.021004,0,-0.0010971,0,0,0,0.026905,-1.2425e-05,0.0080677,-0.44909,0.011653,0.023923,4.4234e-07,0.62,0.04,0
0.031479,0.011438,0.026947,-1.1177e-05,0.0080807,-0.00020631,0,0,0.049052,-0.021039,0,-0.0010728,0,0,0,0.026948,-1.2756e-05,0.0080807,-0.43846,0.011672,0.023962,4.4449e-07,0.63,0.04,0
0.03197,0.011445,0.02699,-1.1533e-05,0.0080934,-0.00020147,0,0,0.04913,-0.021073,0,-0.0010476,0,0,0,0.026991,-1.3036e-05,0.0080934,-0.42747,0.01169,0.024001,4.4661e-07,0.64,0.04,0
0.032462,0.011452,0.027031,-1.1843e-05,0.0081059,-0.00019645,0,0,0.049207,-0.021106,0,-0.0010215,0,0,0,0.027033,-1.327e-05,0.0081059,-0.41618,0.011709,0.024038,4.487e-07,0.65,0.04,0
0.032954,0.011457,0.027072,-1.211e-05,0.0081181,-0.00019129,0,0,0.049281,-0.021139,0,-0.00099471,0,0,0,0.027074,-1.3461e-05,0.0081181,-0.40464,0.011726,0.024074,4.5074e-07,0.66,0.04,0
0.033447,0.011462,0.027113,-1.2339e-05,0.00813,-0.000186,0,0,0.049354,-0.02117,0,-0.00096722,0,0,0,0.027114,-1.3614e-05,0.00813,-0.39287,0.011743,0.02411,4.5274e-07,0.67,0.04,0
0.033941,0.011466,0.027151,-1.2532e-05,0.0081417,-0.00018061,0,0,0.049425,-0.021201,0,-0.00093917,0,0,0,0.027153,-1.3732e-05,0.0081417,-0.38093,0.01176,0.024145,4.547e-07,0.68,0.04,0
0.034436,0.011469,0.027189,-1.2692e-05,0.008153,-0.00017512,0,0,0.049495,-0.021231,0,-0.00091063,0,0,0,0.027191,-1.3819e-05,0.008153,-0.36884,0.011777,0.024179,4.5661e-07,0.69,0.04,0
0.034931,0.011472,0.027226,-1.2822e-05,0.0081641,-0.00016955,0,0,0.049562,-0.02126,0,-0.00088168,0,0,0,0.027227,-1.3878e-05,0.0081641,-0.35663,0.011792,0.024211,4.5846e-07,0.7,0.04,0
0.035427,0.011474,0.027262,-1.2926e-05,0.0081748,-0.00016392,0,0,0.049627,-0.021288,0,-0.0008524,0,0,0,0.027263,-1.3911e-05,0.0081748,-0.34433,0.011808,0.024243,4.6027e-07,0.71,0.04,0
0.035924,0.011475,0.027297,-1.3005e-05,0.0081851,-0.00015824,0,0,0.04969,-0.021315,0,-0.00082284,0,0,0,0.027298,-1.3921e-05,0.0081851,-0.33197,0.011823,0.024274,4.6202e-07,0.72,0.04,0
0.036421,0.011476,0.02733,-1.3062e-05,0.0081952,-0.00015251,0,0,0.049751,-0.021341,0,-0.00079307,0,0,0,0.027331,-1.3912e-05,0.0081952,-0.31957,0.011838,0.024304,4.6373e-07,0.73,0.04,0
0.036919,0.011477,0.027363,-1.3099e-05,0.0082049,-0.00014676,0,0,0.04981,-0.021367,0,-0.00076313,0,0,0,0.027363,-1.3886e-05,0.0082049,-0.30714,0.011851,0.024332,4.6537e-07,0.74,0.04,0
0.037417,0.011477,0.027394,-1.3119e-05,0.0082142,-0.00014098,0,0,0.049867,-0.021391,0,-0.00073308,0,0,0,0.027395,-1.3844e-05,0.0082142,-0.29471,0.011865,0.02436,4.6696e-07,0.75,0.04,0
0.037916,0.011477,0.027424,-1.3123e-05,0.0082232,-0.00013518,0,0,0.049922,-0.021414,0,-0.00070294,0,0,0,0.027425,-1.3789e-05,0.0082232,-0.28229,0.011878,0.024386,4.6849e-07,0.76,0.04,0
0.038416,0.011477,0.027453,-1.3114e-05,0.0082318,-0.00012938,0,0,0.049974,-0.021437,0,-0.00067277,0,0,0,0.027453,-1.3724e-05,0.0082318,-0.26989,0.01189,0.024412,4.6996e-07,0.77,0.04,0
0.038916,0.011476,0.02748,-1.3094e-05,0.0082401,-0.00012358,0,0,0.050024,-0.021458,0,-0.00064259,0,0,0,0.027481,-1.3649e-05,0.0082401,-0.25752,0.011902,0.024436,4.7137e-07,0.78,0.04,0
0.039416,0.011475,0.027506,-1.3063e-05,0.008248,-0.00011777,0,0,0.050072,-0.021479,0,-0.00061242,0,0,0,0.027507,-1.3567e-05,0.008248,-0.2452,0.011914,0.02446,4.7272e-07,0.79,0.04,0
0.039917,0.011474,0.027532,-1.3024e-05,0.0082556,-0.00011198,0,0,0.050118,-0.021498,0,-0.0005823,0,0,0,0.027532,-1.348e-05,0.0082556,-0.23293,0.011925,0.024482,4.7401e-07,0.8,0.04,0
0.040419,0.011473,0.027556,-1.2978e-05,0.0082627,-0.0001062,0,0,0.050161,-0.021517,0,-0.00055225,0,0,0,0.027556,-1.3388e-05,0.0082627,-0.22071,0.011935,0.024503,4.7524e-07,0.81,0.04,0
0.04092,0.011472,0.027578,-1.2927e-05,0.0082696,-0.00010044,0,0,0.050202,-0.021535,0,-0.00052227,0,0,0,0.027578,-1.3293e-05,0.0082696,-0.20856,0.011945,0.024523,4.7641e-07,0.82,0.04,0
0.041423,0.01147,0.0276,-1.2872e-05,0.008276,-9.4689e-05,0,0,0.050241,-0.021551,0,-0.00049239,0,0,0,0.0276,-1.3197e-05,0.008276,-0.19648,0.011954,0.024542,4.7752e-07,0.83,0.04,0
0.041925,0.011469,0.02762,-1.2814e-05,0.0082821,-8.8962e-05,0,0,0.050278,-0.021567,0,-0.0004626,0,0,0,0.02762,-1.31e-05,0.0082821,-0.18446,0.011963,0.02456,4.7857e-07,0.84,0.04,0
0.042428,0.011467,0.027639,-1.2754e-05,0.0082878,-8.3257e-05,0,0,0.050312,-0.021581,0,-0.00043293,0,0,0,0.027639,-1.3004e-05,0.0082878,-0.17251,0.011971,0.024576,4.7955e-07,0.85,0.04,0
0.042931,0.011466,0.027656,-1.2693e-05,0.0082931,-7.7573e-05,0,0,0.050345,-0.021595,0,-0.00040338,0,0,0,0.027657,-1.291e-05,0.0082931,-0.16063,0.011979,0.024592,4.8047e-07,0.86,0.04,0
0.043435,0.011464,0.027673,-1.2632e-05,0.0082981,-7.1913e-05,0,0,0.050375,-0.021608,0,-0.00037394,0,0,0,0.027673,-1.2819e-05,0.0082981,-0.14882,0.011986,0.024607,4.8132e-07,0.87,0.04,0
0.043939,0.011463,0.027688,-1.2572e-05,0.0083027,-6.6275e-05,0,0,0.050402,-0.02162,0,-0.00034463,0,0,0,0.027688,-1.2731e-05,0.0083027,-0.13708,0.011993,0.02462,4.8212e-07,0.88,0.04,0
0.044443,0.011462,0.027702,-1.2515e-05,0.0083069,-6.066e-05,0,0,0.050428,-0.021631,0,-0.00031543,0,0,0,0.027702,-1.2648e-05,0.0083069,-0.1254,0.011999,0.024633,4.8285e-07,0.89,0.04,0
0.044948,0.01146,0.027715,-1.246e-05,0.0083108,-5.5066e-05,0,0,0.050451,-0.02164,0,-0.00028635,0,0,0,0.027715,-1.2569e-05,0.0083108,-0.11379,0.012004,0.024644,4.8351e-07,0.9,0.04,0
0.045452,0.011459,0.027727,-1.2408e-05,0.0083142,-4.9494e-05,0,0,0.050472,-0.021649,0,-0.00025737,0,0,0,0.027727,-1.2496e-05,0.0083142,-0.10223,0.012009,0.024654,4.8412e-07,0.91,0.04,0
0.045957,0.011458,0.027737,-1.236e-05,0.0083174,-4.3941e-05,0,0,0.050491,-0.021657,0,-0.00022849,0,0,0,0.027737,-1.243e-05,0.0083174,-0.090728,0.012014,0.024663,4.8466e-07,0.92,0.04,0
0.046462,0.011457,0.027746,-1.2317e-05,0.0083201,-3.8406e-05,0,0,0.050507,-0.021664,0,-0.00019971,0,0,0,0.027746,-1.237e-05,0.0083201,-0.079274,0.012018,0.024671,4.8513e-07,0.93,0.04,0
0.046967,0.011456,0.027754,-1.2278e-05,0.0083225,-3.2888e-05,0,0,0.050522,-0.02167,0,-0.00017102,0,0,0,0.027754,-1.2317e-05,0.0083225,-0.067865,0.012021,0.024678,4.8555e-07,0.94,0.04,0
0.047472,0.011455,0.027761,-1.2245e-05,0.0083245,-2.7384e-05,0,0,0.050534,-0.021676,0,-0.0001424,0,0,0,0.027761,-1.2272e-05,0.0083245,-0.056494,0.012024,0.024684,4.859e-07,0.95,0.04,0
0.047978,0.011455,0.027766,-1.2217e-05,0.0083262,-2.1892e-05,0,0,0.050544,-0.02168,0,-0.00011384,0,0,0,0.027766,-1.2234e-05,0.0083262,-0.045155,0.012027,0.024689,4.8618e-07,0.96,0.04,0
0.048483,0.011454,0.02777,-1.2195e-05,0.0083274,-1.641e-05,0,0,0.050551,-0.021683,0,-8.5334e-05,0,0,0,0.02777,-1.2205e-05,0.0083274,-0.033843,0.012028,0.024693,4.864e-07,0.97,0.04,0
0.048989,0.011454,0.027773,-1.2179e-05,0.0083284,-1.0936e-05,0,0,0.050557,-0.021685,0,-5.6867e-05,0,0,0,0.027773,-1.2184e-05,0.0083284,-0.022551,0.01203,0.024695,4.8656e-07,0.98,0.04,0
0.049494,0.011454,0.027775,-1.217e-05,0.0083289,-5.4667e-06,0,0,0.05056,-0.021687,0,-2.8427e-05,0,0,0,0.027775,-1.2171e-05,0.0083289,-0.011272,0.012031,0.024697,4.8666e-07,0.99,0.04,0
0.05,0.011453,0.027776,-1.2167e-05,0.0083291,-1.4374e-06,0,0,0.050561,-0.021687,0,-7.4742e-06,0,0,0,0.027776,-1.2167e-05,0.0083291,-0.0029636,0.012031,0.024697,4.8669e-07,1,0.04,0
0,0,0.033318,0.014279,0.014279,0.0099133,0,0,0.049501,-2.1684e-19,0,0.051549,0,0,0,0.037543,0.010055,0.014279,23.081,0.020626,0.025638,7.8689e-07,0,0.05,0
0.00049501,0.00051549,0.033153,0.012244,0.013619,0.0097917,0,0,0.050789,-0.0035757,0,0.050917,0,0,0,0.037023,0.0083745,0.013619,21.562,0.019672,0.026419,8.2266e-07,0.01,0.05,0
0.0010158,0.0010658,0.033608,0.010024,0.01309,0.009689,0,0,0.053349,-0.0079717,0,0.050383,0,0,0,0.037078,0.0065537,0.01309,19.704,0.018907,0.027838,9.0548e-07,0.02,0.05,0
0.001562,0.0016298,0.033907,0.0078417,0.012525,0.0091178,0,0,0.055595,-0.012176,0,0.047412,0,0,0,0.03678,0.004969,0.012525,17.488,0.018091,0.028787,9.4654e-07,0.03,0.05,0
0.0021277,0.0021878,0.03396,0.0060146,0.011992,0.0082416,0,0,0.057115,-0.015542,0,0.042856,0,0,0,0.036209,0.0037651,0.011992,15.267,0.017322,0.029213,9.4627e-07,0.04,0.05,0
0.0027043,0.0027265,0.03375,0.0046111,0.011508,0.0072545,0,0,0.057829,-0.017933,0,0.037723,0,0,0,0.035457,0.0029049,0.011508,13.235,0.016623,0.029216,9.1627e-07,0.05,0.05,0
0.0032842,0.003239,0.033336,0.0035708,0.011072,0.006296,0,0,0.057886,-0.019503,0,0.032739,0,0,0,0.034613,0.0022938,0.011072,11.465,0.015993,0.028946,8.703e-07,0.06,0.05,0
0.003862,0.0037228,0.032796,0.0028017,0.010679,0.0054316,0,0,0.057503,-0.020481,0,0.028244,0,0,0,0.033749,0.0018484,0.010679,9.9547,0.015425,0.028529,8.1871e-07,0.07,0.05,0
0.0044343,0.0041781,0.032201,0.0022302,0.010329,0.00468,0,0,0.056867,-0.021058,0,0.024336,0,0,0,0.032915,0.0015164,0.010329,8.6719,0.01492,0.02805,7.6776e-07,0.08,0.05,0
0.0049993,0.0046061,0.031599,0.0018006,0.01002,0.004037,0,0,0.056106,-0.021371,0,0.020992,0,0,0,0.032137,0.0012634,0.01002,7.5801,0.014473,0.027559,7.2047e-07,0.09,0.05,0
0.0055564,0.0050086,0.031018,0.0014735,0.0097475,0.0034897,0,0,0.055304,-0.021513,0,0.018146,0,0,0,0.031425,0.0010669,0.0097475,6.6456,0.01408,0.027082,6.7799e-07,0.1,0.05,0
0.0061054,0.0053873,0.030472,0.001221,0.009508,0.0030237,0,0,0.054507,-0.021546,0,0.015723,0,0,0,0.030782,0.00091171,0.009508,5.8404,0.013734,0.026633,6.4047e-07,0.11,0.05,0
0.0066466,0.0057439,0.029968,0.0010234,0.0092975,0.0026257,0,0,0.053744,-0.021513,0,0.013654,0,0,0,0.030204,0.00078712,0.0092975,5.1416,0.01343,0.026219,6.0762e-07,0.12,0.05,0
0.0071803,0.00608,0.029508,0.00086664,0.0091123,0.002284,0,0,0.053028,-0.021439,0,0.011877,0,0,0,0.029689,0.00068564,0.0091123,4.5309,0.013162,0.025841,5.7899e-07,0.13,0.05,0
0.0077071,0.0063969,0.02909,0.00074074,0.0089492,0.0019891,0,0,0.052366,-0.021342,0,0.010343,0,0,0,0.029229,0.00060187,0.0089492,3.994,0.012927,0.025499,5.5409e-07,0.14,0.05,0
0.0082276,0.006696,0.028713,0.00063841,0.0088054,0.001733,0,0,0.051759,-0.021234,0,0.0090118,0,0,0,0.028819,0.00053184,0.0088054,3.5191,0.012719,0.025191,5.3243e-07,0.15,0.05,0
0.0087423,0.0069784,0.028374,0.0005543,0.0086785,0.0015096,0,0,0.051208,-0.021123,0,0.0078498,0,0,0,0.028456,0.00047262,0.0086785,3.0969,0.012535,0.024915,5.1359e-07,0.16,0.05,0
0.0092518,0.0072452,0.02807,0.00048442,0.0085664,0.0013135,0,0,0.05071,-0.021013,0,0.0068302,0,0,0,0.028133,0.00042202,0.0085664,2.7199,0.012374,0.024668,4.9719e-07,0.17,0.05,0
0.0097565,0.0074973,0.027799,0.0004258,0.0084673,0.0011406,0,0,0.050261,-0.020908,0,0.0059312,0,0,0,0.027846,0.00037836,0.0084673,2.382,0.012231,0.024448,4.8292e-07,0.18,0.05,0
0.010257,0.0077355,0.027557,0.00037617,0.0083798,0.00098753,0,0,0.04986,-0.02081,0,0.0051352,0,0,0,0.027592,0.00034034,0.0083798,2.078,0.012104,0.024253,4.7051e-07,0.19,0.05,0
0.010754,0.0079607,0.027342,0.00033379,0.0083026,0.00085143,0,0,0.049501,-0.020719,0,0.0044274,0,0,0,0.027368,0.00030698,0.0083026,1.8039,0.011993,0.024081,4.597e-07,0.2,0.05,0
0.011247,0.0081735,0.027151,0.00029731,0.0082344,0.00073001,0,0,0.049182,-0.020636,0,0.0037961,0,0,0,0.027171,0.00027748,0.0082344,1.5561,0.011894,0.023928,4.5031e-07,0.21,0.05,0
0.011737,0.0083747,0.026982,0.00026567,0.0081744,0.00062136,0,0,0.048901,-0.020563,0,0.0032311,0,0,0,0.026997,0.00025122,0.0081744,1.3316,0.011808,0.023795,4.4217e-07,0.22,0.05,0
0.012225,0.0085647,0.026834,0.00023803,0.0081217,0.00052388,0,0,0.048653,-0.020498,0,0.0027242,0,0,0,0.026845,0.00022771,0.0081217,1.128,0.011731,0.023678,4.3513e-07,0.23,0.05,0
0.01271,0.0087443,0.026705,0.00021373,0.0080756,0.00043622,0,0,0.048436,-0.020441,0,0.0022684,0,0,0,0.026712,0.00020655,0.0080756,0.94313,0.011665,0.023577,4.2907e-07,0.24,0.05,0
0.013194,0.0089139,0.026592,0.00019225,0.0080353,0.00035726,0,0,0.048248,-0.020392,0,0.0018578,0,0,0,0.026597,0.00018741,0.0080353,0.77518,0.011607,0.02349,4.2387e-07,0.25,0.05,0
0.013675,0.009074,0.026495,0.00017314,0.0080004,0.00028604,0,0,0.048086,-0.020351,0,0.0014874,0,0,0,0.026498,0.00017003,0.0080004,0.62253,0.011556,0.023416,4.1944e-07,0.26,0.05,0
0.014155,0.0092251,0.026412,0.00015606,0.0079703,0.00022172,0,0,0.047947,-0.020317,0,0.001153,0,0,0,0.026413,0.00015419,0.0079703,0.48381,0.011513,0.023354,4.157e-07,0.27,0.05,0
0.014634,0.0093676,0.026341,0.00014073,0.0079445,0.00016361,0,0,0.047831,-0.02029,0,0.00085077,0,0,0,0.026342,0.0001397,0.0079445,0.35777,0.011475,0.023302,4.1258e-07,0.28,0.05,0
0.015112,0.009502,0.026282,0.0001269,0.0079227,0.00011109,0,0,0.047735,-0.020269,0,0.00057765,0,0,0,0.026283,0.00012643,0.0079227,0.24334,0.011444,0.02326,4.1002e-07,0.29,0.05,0
0.015589,0.0096286,0.026234,0.00011438,0.0079045,6.3616e-05,0,0,0.047657,-0.020254,0,0.0003308,0,0,0,0.026234,0.00011423,0.0079045,0.13955,0.011418,0.023226,4.0795e-07,0.3,0.05,0
0.016065,0.0097479,0.026196,0.00010301,0.0078896,2.0733e-05,0,0,0.047596,-0.020245,0,0.00010781,0,0,0,0.026196,0.000103,0.0078896,0.045526,0.011396,0.023201,4.0634e-07,0.31,0.05,0
0.016541,0.0098601,0.026166,9.2656e-05,0.0078776,-1.7975e-05,0,0,0.04755,-0.020241,0,-9.347e-05,0,0,0,0.026166,9.2644e-05,0.0078776,-0.0395,0.011379,0.023183,4.0514e-07,0.32,0.05,0
0.017016,0.0099656,0.026144,8.3197e-05,0.0078683,-5.2872e-05,0,0,0.047518,-0.020241,0,-0.00027493,0,0,0,0.026145,8.309e-05,0.0078683,-0.11624,0.011365,0.023171,4.043e-07,0.33,0.05,0
0.017491,0.010065,0.02613,7.4536e-05,0.0078614,-8.4282e-05,0,0,0.047499,-0.020246,0,-0.00043827,0,0,0,0.02613,7.4263e-05,0.0078614,-0.18533,0.011355,0.023166,4.0379e-07,0.34,0.05,0
0.017966,0.010158,0.026123,6.6591e-05,0.0078567,-0.00011249,0,0,0.047491,-0.020254,0,-0.00058497,0,0,0,0.026123,6.6105e-05,0.0078567,-0.24737,0.011349,0.023166,4.0359e-07,0.35,0.05,0
0.018441,0.010245,0.026121,5.9289e-05,0.0078541,-0.00013777,0,0,0.047494,-0.020266,0,-0.00071642,0,0,0,0.026122,5.8561e-05,0.0078541,-0.30288,0.011345,0.023171,4.0365e-07,0.36,0.05,0
0.018916,0.010327,0.026125,5.257e-05,0.0078533,-0.00016035,0,0,0.047507,-0.020282,0,-0.00083381,0,0,0,0.026126,5.1584e-05,0.0078533,-0.35236,0.011344,0.02318,4.0397e-07,0.37,0.05,0
0.019391,0.010404,0.026134,4.6379e-05,0.0078541,-0.00018044,0,0,0.047528,-0.0203,0,-0.00093827,0,0,0,0.026135,4.5131e-05,0.0078541,-0.39626,0.011345,0.023193,4.045e-07,0.38,0.05,0
0.019867,0.010475,0.026147,4.0671e-05,0.0078564,-0.00019823,0,0,0.047557,-0.020321,0,-0.0010308,0,0,0,0.026149,3.9165e-05,0.0078564,-0.43502,0.011348,0.02321,4.0524e-07,0.39,0.05,0
0.020342,0.010542,0.026165,3.5402e-05,0.0078601,-0.00021391,0,0,0.047593,-0.020344,0,-0.0011123,0,0,0,0.026167,3.3652e-05,0.0078601,-0.46901,0.011354,0.023231,4.0616e-07,0.4,0.05,0
0.020819,0.010605,0.026186,3.0539e-05,0.007865,-0.00022763,0,0,0.047635,-0.020369,0,-0.0011837,0,0,0,0.026188,2.8558e-05,0.007865,-0.49859,0.011361,0.023254,4.0724e-07,0.41,0.05,0
0.021295,0.010663,0.02621,2.6048e-05,0.0078709,-0.00023954,0,0,0.047683,-0.020397,0,-0.0012456,0,0,0,0.026212,2.3857e-05,0.0078709,-0.52411,0.011369,0.023279,4.0846e-07,0.42,0.05,0
0.021772,0.010717,0.026238,2.1901e-05,0.0078778,-0.00024979,0,0,0.047735,-0.020425,0,-0.0012989,0,0,0,0.02624,1.9521e-05,0.0078778,-0.54587,0.011379,0.023307,4.0982e-07,0.43,0.05,0
0.02225,0.010768,0.026267,1.8072e-05,0.0078856,-0.0002585,0,0,0.047793,-0.020456,0,-0.0013442,0,0,0,0.02627,1.5526e-05,0.0078856,-0.56416,0.01139,0.023337,4.1129e-07,0.44,0.05,0
0.022728,0.010815,0.026299,1.4537e-05,0.0078942,-0.00026577,0,0,0.047854,-0.020487,0,-0.001382,0,0,0,0.026302,1.185e-05,0.0078942,-0.57926,0.011403,0.023368,4.1286e-07,0.45,0.05,0
0.023207,0.010858,0.026333,1.1277e-05,0.0079034,-0.00027174,0,0,0.047918,-0.020519,0,-0.001413,0,0,0,0.026336,8.4717e-06,0.0079034,-0.59141,0.011416,0.023401,4.1453e-07,0.46,0.05,0
0.023686,0.010899,0.026369,8.2705e-06,0.0079132,-0.00027648,0,0,0.047985,-0.020553,0,-0.0014377,0,0,0,0.026372,5.371e-06,0.0079132,-0.60086,0.01143,0.023436,4.1627e-07,0.47,0.05,0
0.024167,0.010936,0.026406,5.5015e-06,0.0079235,-0.00028011,0,0,0.048055,-0.020587,0,-0.0014566,0,0,0,0.026409,2.5298e-06,0.0079235,-0.60781,0.011445,0.023471,4.1809e-07,0.48,0.05,0
0.024647,0.01097,0.026445,2.9533e-06,0.0079343,-0.0002827,0,0,0.048127,-0.020621,0,-0.0014701,0,0,0,0.026448,-6.89e-08,0.0079343,-0.61249,0.011461,0.023507,4.1996e-07,0.49,0.05,0
0.025129,0.011002,0.026484,6.1113e-07,0.0079454,-0.00028434,0,0,0.0482,-0.020656,0,-0.0014786,0,0,0,0.026487,-2.4414e-06,0.0079454,-0.61507,0.011477,0.023544,4.2188e-07,0.5,0.05,0
0.025611,0.011031,0.026524,-1.5387e-06,0.0079568,-0.0002851,0,0,0.048275,-0.020692,0,-0.0014825,0,0,0,0.026527,-4.6027e-06,0.0079568,-0.61573,0.011493,0.023582,4.2384e-07,0.51,0.05,0
0.026095,0.011057,0.026565,-3.509e-06,0.0079685,-0.00028506,0,0,0.048351,-0.020727,0,-0.0014823,0,0,0,0.026568,-6.5672e-06,0.0079685,-0.61464,0.01151,0.02362,4.2584e-07,0.52,0.05,0
0.026579,0.011082,0.026606,-5.3117e-06,0.0079803,-0.00028428,0,0,0.048428,-0.020763,0,-0.0014782,0,0,0,0.026609,-8.3482e-06,0.0079803,-0.61196,0.011527,0.023658,4.2786e-07,0.53,0.05,0
0.027063,0.011104,0.026648,-6.9579e-06,0.0079923,-0.00028282,0,0,0.048505,-0.020798,0,-0.0014706,0,0,0,0.026651,-9.9583e-06,0.0079923,-0.60783,0.011544,0.023696,4.299e-07,0.54,0.05,0
0.027549,0.011124,0.02669,-8.458e-06,0.0080044,-0.00028074,0,0,0.048582,-0.020834,0,-0.0014598,0,0,0,0.026693,-1.141e-05,0.0080044,-0.60238,0.011562,0.023734,4.3195e-07,0.55,0.05,0
0.028035,0.011142,0.026732,-9.8217e-06,0.0080166,-0.00027809,0,0,0.04866,-0.020869,0,-0.0014461,0,0,0,0.026735,-1.2713e-05,0.0080166,-0.59574,0.01158,0.023773,4.3401e-07,0.56,0.05,0
0.028522,0.011159,0.026774,-1.1058e-05,0.0080288,-0.00027493,0,0,0.048737,-0.020904,0,-0.0014296,0,0,0,0.026777,-1.388e-05,0.0080288,-0.58802,0.011597,0.023811,4.3607e-07,0.57,0.05,0
0.02901,0.011174,0.026815,-1.2176e-05,0.008041,-0.0002713,0,0,0.048814,-0.020938,0,-0.0014107,0,0,0,0.026818,-1.4919e-05,0.008041,-0.57933,0.011615,0.023849,4.3812e-07,0.58,0.05,0
0.029498,0.011187,0.026857,-1.3184e-05,0.0080531,-0.00026724,0,0,0.04889,-0.020972,0,-0.0013897,0,0,0,0.02686,-1.5841e-05,0.0080531,-0.56977,0.011632,0.023886,4.4017e-07,0.59,0.05,0
0.029987,0.011199,0.026898,-1.4088e-05,0.0080652,-0.0002628,0,0,0.048965,-0.021006,0,-0.0013666,0,0,0,0.026901,-1.6654e-05,0.0080652,-0.55944,0.01165,0.023923,4.422e-07,0.6,0.05,0
0.030477,0.01121,0.026939,-1.4897e-05,0.0080771,-0.00025802,0,0,0.04904,-0.021039,0,-0.0013417,0,0,0,0.026941,-1.7367e-05,0.0080771,-0.54841,0.011667,0.02396,4.4421e-07,0.61,0.05,0
0.030968,0.011219,0.026979,-1.5618e-05,0.0080889,-0.00025292,0,0,0.049113,-0.021072,0,-0.0013152,0,0,0,0.026981,-1.7987e-05,0.0080889,-0.53676,0.011684,0.023996,4.462e-07,0.62,0.05,0
0.03146,0.011227,0.027018,-1.6256e-05,0.0081006,-0.00024754,0,0,0.049186,-0.021104,0,-0.0012872,0,0,0,0.02702,-1.8523e-05,0.0081006,-0.52458,0.011701,0.024031,4.4817e-07,0.63,0.05,0
0.031952,0.011234,0.027057,-1.6818e-05,0.0081121,-0.00024192,0,0,0.049257,-0.021135,0,-0.001258,0,0,0,0.027059,-1.898e-05,0.0081121,-0.51192,0.011717,0.024066,4.5011e-07,0.64,0.05,0
0.032445,0.011241,0.027095,-1.731e-05,0.0081233,-0.00023608,0,0,0.049327,-0.021166,0,-0.0012276,0,0,0,0.027097,-1.9365e-05,0.0081233,-0.49885,0.011734,0.0241,4.5201e-07,0.65,0.05,0
0.032938,0.011246,0.027132,-1.7737e-05,0.0081344,-0.00023004,0,0,0.049395,-0.021196,0,-0.0011962,0,0,0,0.027134,-1.9686e-05,0.0081344,-0.48542,0.01175,0.024133,4.5388e-07,0.66,0.05,0
0.033433,0.01125,0.027169,-1.8104e-05,0.0081452,-0.00022384,0,0,0.049462,-0.021225,0,-0.0011639,0,0,0,0.027171,-1.9947e-05,0.0081452,-0.47169,0.011765,0.024166,4.5572e-07,0.67,0.05,0
0.033928,0.011254,0.027205,-1.8417e-05,0.0081559,-0.00021748,0,0,0.049527,-0.021253,0,-0.0011309,0,0,0,0.027206,-2.0154e-05,0.0081559,-0.45769,0.011781,0.024198,4.5751e-07,0.68,0.05,0
0.034423,0.011257,0.027239,-1.868e-05,0.0081662,-0.000211,0,0,0.04959,-0.021281,0,-0.0010972,0,0,0,0.027241,-2.0313e-05,0.0081662,-0.44349,0.011796,0.024229,4.5926e-07,0.69,0.05,0
0.034919,0.011259,0.027273,-1.8897e-05,0.0081763,-0.00020441,0,0,0.049652,-0.021308,0,-0.001063,0,0,0,0.027275,-2.0428e-05,0.0081763,-0.4291,0.01181,0.024259,4.6097e-07,0.7,0.05,0
0.035416,0.011261,0.027306,-1.9072e-05,0.0081861,-0.00019773,0,0,0.049712,-0.021333,0,-0.0010282,0,0,0,0.027307,-2.0503e-05,0.0081861,-0.41458,0.011824,0.024288,4.6264e-07,0.71,0.05,0
0.035914,0.011262,0.027338,-1.921e-05,0.0081956,-0.00019097,0,0,0.04977,-0.021358,0,-0.00099307,0,0,0,0.027339,-2.0543e-05,0.0081956,-0.39994,0.011838,0.024316,4.6426e-07,0.72,0.05,0
0.036412,0.011263,0.027369,-1.9314e-05,0.0082048,-0.00018416,0,0,0.049826,-0.021383,0,-0.00095761,0,0,0,0.02737,-2.0552e-05,0.0082048,-0.38523,0.011851,0.024343,4.6582e-07,0.73,0.05,0
0.03691,0.011263,0.027399,-1.9387e-05,0.0082138,-0.00017729,0,0,0.049881,-0.021406,0,-0.00092189,0,0,0,0.0274,-2.0534e-05,0.0082138,-0.37046,0.011864,0.02437,4.6734e-07,0.74,0.05,0
0.037409,0.011263,0.027427,-1.9434e-05,0.0082224,-0.00017038,0,0,0.049933,-0.021429,0,-0.00088598,0,0,0,0.027428,-2.0491e-05,0.0082224,-0.35566,0.011877,0.024395,4.6881e-07,0.75,0.05,0
0.037909,0.011263,0.027455,-1.9456e-05,0.0082307,-0.00016345,0,0,0.049983,-0.02145,0,-0.00084992,0,0,0,0.027456,-2.0429e-05,0.0082307,-0.34084,0.011889,0.02442,4.7022e-07,0.76,0.05,0
0.038409,0.011262,0.027482,-1.9458e-05,0.0082386,-0.00015649,0,0,0.050032,-0.021471,0,-0.00081376,0,0,0,0.027482,-2.0348e-05,0.0082386,-0.32602,0.0119,0.024443,4.7159e-07,0.77,0.05,0
0.038909,0.011261,0.027507,-1.9441e-05,0.0082463,-0.00014953,0,0,0.050078,-0.021491,0,-0.00077755,0,0,0,0.027508,-2.0253e-05,0.0082463,-0.31123,0.011911,0.024466,4.7289e-07,0.78,0.05,0
0.039411,0.01126,0.027532,-1.9409e-05,0.0082536,-0.00014256,0,0,0.050122,-0.02151,0,-0.00074132,0,0,0,0.027532,-2.0146e-05,0.0082536,-0.29646,0.011922,0.024487,4.7415e-07,0.79,0.05,0
0.039912,0.011259,0.027555,-1.9363e-05,0.0082606,-0.0001356,0,0,0.050165,-0.021528,0,-0.0007051,0,0,0,0.027555,-2.003e-05,0.0082606,-0.28174,0.011932,0.024508,4.7534e-07,0.8,0.05,0
0.040414,0.011258,0.027577,-1.9306e-05,0.0082673,-0.00012864,0,0,0.050205,-0.021545,0,-0.00066892,0,0,0,0.027578,-1.9906e-05,0.0082673,-0.26707,0.011942,0.024527,4.7649e-07,0.81,0.05,0
0.040916,0.011256,0.027598,-1.924e-05,0.0082736,-0.00012169,0,0,0.050243,-0.021561,0,-0.0006328,0,0,0,0.027599,-1.9776e-05,0.0082736,-0.25246,0.011951,0.024546,4.7757e-07,0.82,0.05,0
0.041419,0.011255,0.027618,-1.9168e-05,0.0082796,-0.00011476,0,0,0.050279,-0.021577,0,-0.00059676,0,0,0,0.027618,-1.9644e-05,0.0082796,-0.23791,0.011959,0.024563,4.786e-07,0.83,0.05,0
0.041922,0.011253,0.027637,-1.909e-05,0.0082853,-0.00010785,0,0,0.050314,-0.021591,0,-0.00056082,0,0,0,0.027637,-1.951e-05,0.0082853,-0.22343,0.011968,0.02458,4.7957e-07,0.84,0.05,0
0.042425,0.011251,0.027654,-1.9009e-05,0.0082906,-0.00010096,0,0,0.050346,-0.021605,0,-0.00052498,0,0,0,0.027655,-1.9377e-05,0.0082906,-0.20902,0.011975,0.024595,4.8048e-07,0.85,0.05,0
0.042929,0.01125,0.027671,-1.8926e-05,0.0082956,-9.4087e-05,0,0,0.050376,-0.021618,0,-0.00048925,0,0,0,0.027671,-1.9246e-05,0.0082956,-0.19468,0.011983,0.02461,4.8134e-07,0.86,0.05,0
0.043432,0.011248,0.027686,-1.8843e-05,0.0083002,-8.7241e-05,0,0,0.050403,-0.021629,0,-0.00045365,0,0,0,0.027686,-1.9117e-05,0.0083002,-0.18042,0.011989,0.024623,4.8214e-07,0.87,0.05,0
0.043937,0.011247,0.0277,-1.8761e-05,0.0083045,-8.0417e-05,0,0,0.050429,-0.02164,0,-0.00041817,0,0,0,0.027701,-1.8994e-05,0.0083045,-0.16622,0.011995,0.024636,4.8287e-07,0.88,0.05,0
0.044441,0.011245,0.027713,-1.868e-05,0.0083084,-7.3617e-05,0,0,0.050453,-0.02165,0,-0.00038281,0,0,0,0.027714,-1.8876e-05,0.0083084,-0.1521,0.012001,0.024647,4.8355e-07,0.89,0.05,0
0.044946,0.011244,0.027725,-1.8604e-05,0.008312,-6.684e-05,0,0,0.050475,-0.02166,0,-0.00034757,0,0,0,0.027726,-1.8765e-05,0.008312,-0.13803,0.012006,0.024658,4.8417e-07,0.9,0.05,0
0.04545,0.011243,0.027736,-1.8532e-05,0.0083153,-6.0085e-05,0,0,0.050494,-0.021668,0,-0.00031244,0,0,0,0.027736,-1.8662e-05,0.0083153,-0.12404,0.012011,0.024667,4.8474e-07,0.91,0.05,0
0.045956,0.011241,0.027746,-1.8465e-05,0.0083182,-5.3351e-05,0,0,0.050512,-0.021675,0,-0.00027743,0,0,0,0.027746,-1.8567e-05,0.0083182,-0.1101,0.012015,0.024676,4.8524e-07,0.92,0.05,0
0.046461,0.01124,0.027754,-1.8404e-05,0.0083208,-4.6637e-05,0,0,0.050527,-0.021682,0,-0.00024251,0,0,0,0.027754,-1.8482e-05,0.0083208,-0.096213,0.012019,0.024683,4.8568e-07,0.93,0.05,0
0.046966,0.011239,0.027762,-1.8349e-05,0.008323,-3.994e-05,0,0,0.050541,-0.021687,0,-0.00020769,0,0,0,0.027762,-1.8407e-05,0.008323,-0.082375,0.012022,0.02469,4.8607e-07,0.94,0.05,0
0.047471,0.011238,0.027768,-1.8302e-05,0.0083249,-3.3259e-05,0,0,0.050552,-0.021692,0,-0.00017295,0,0,0,0.027768,-1.8342e-05,0.0083249,-0.06858,0.012025,0.024695,4.8639e-07,0.95,0.05,0
0.047977,0.011238,0.027773,-1.8263e-05,0.0083264,-2.6591e-05,0,0,0.050561,-0.021696,0,-0.00013827,0,0,0,0.027773,-1.8289e-05,0.0083264,-0.05482,0.012027,0.0247,4.8666e-07,0.96,0.05,0
0.048483,0.011237,0.027777,-1.8232e-05,0.0083276,-1.9933e-05,0,0,0.050568,-0.021699,0,-0.00010365,0,0,0,0.027777,-1.8247e-05,0.0083276,-0.04109,0.012029,0.024703,4.8687e-07,0.97,0.05,0
0.048988,0.011237,0.02778,-1.821e-05,0.0083285,-1.3284e-05,0,0,0.050574,-0.021701,0,-6.9078e-05,0,0,0,0.02778,-1.8217e-05,0.0083285,-0.027381,0.01203,0.024706,4.8702e-07,0.98,0.05,0
0.049494,0.011236,0.027782,-1.8197e-05,0.008329,-6.6407e-06,0,0,0.050577,-0.021703,0,-3.4532e-05,0,0,0,0.027782,-1.8198e-05,0.008329,-0.013687,0.012031,0.024707,4.871e-07,0.99,0.05,0
0.05,0.011236,0.027782,-1.8192e-05,0.0083292,-1.5241e-06,0,0,0.050578,-0.021703,0,-7.9252e-06,0,0,0,0.027782,-1.8192e-05,0.0083292,-0.0031411,0.012031,0.024708,4.8713e-07,1,0.05,0
0,0,0.031986,0.013708,0.013708,0.0093087,0,0,0.047522,-6.5052e-19,0,0.048405,0,0,0,0.035892,0.009802,0.013708,22.764,0.019801,0.024373,6.7965e-07,0,0.06,0
0.00047522,0.00048405,0.031865,0.012081,0.013184,0.0092418,0,0,0.048571,-0.0028672,0,0.048057,0,0,0,0.035511,0.0084358,0.013184,21.527,0.019044,0.025041,7.0969e-07,0.01,0.06,0
0.00097143,0.0009958,0.032296,0.010346,0.012793,0.0092303,0,0,0.050709,-0.0063622,0,0.047998,0,0,0,0.035661,0.0069801,0.012793,20.032,0.018478,0.026262,7.7886e-07,0.02,0.06,0
0.0014894,0.0015214,0.032636,0.0085438,0.012354,0.0088847,0,0,0.052734,-0.0099066,0,0.0462,0,0,0,0.035558,0.0056217,0.012354,18.205,0.017845,0.027203,8.2427e-07,0.03,0.06,0
0.0020261,0.0020466,0.032816,0.006902,0.011916,0.008274,0,0,0.054342,-0.013035,0,0.043025,0,0,0,0.035233,0.0044855,0.011916,16.28,0.017211,0.027787,8.4209e-07,0.04,0.06,0
0.0025762,0.0025603,0.032807,0.0055271,0.0115,0.0075135,0,0,0.055398,-0.01553,0,0.03907,0,0,0,0.03474,0.0035946,0.0115,14.424,0.016612,0.028041,8.3627e-07,0.05,0.06,0
0.0031341,0.003055,0.032623,0.0044289,0.011116,0.0067081,0,0,0.05592,-0.017386,0,0.034882,0,0,0,0.034138,0.0029143,0.011116,12.724,0.016056,0.028038,8.1399e-07,0.06,0.06,0
0.0036946,0.0035269,0.032308,0.0035707,0.010764,0.0059286,0,0,0.056015,-0.018701,0,0.030829,0,0,0,0.033483,0.0023956,0.010764,11.211,0.015547,0.027862,7.824e-07,0.07,0.06,0
0.0042544,0.0039746,0.031908,0.0029039,0.010444,0.0052113,0,0,0.055808,-0.019603,0,0.027099,0,0,0,0.032816,0.0019959,0.010444,9.8829,0.015085,0.027584,7.4691e-07,0.08,0.06,0
0.0048108,0.004398,0.031465,0.0023849,0.010155,0.0045696,0,0,0.055406,-0.020202,0,0.023762,0,0,0,0.032166,0.0016837,0.010155,8.7233,0.014668,0.027253,7.1101e-07,0.09,0.06,0
0.0053625,0.0047978,0.031009,0.0019785,0.0098963,0.0040039,0,0,0.054894,-0.020586,0,0.02082,0,0,0,0.031551,0.0014364,0.0098963,7.7105,0.014295,0.026902,6.7669e-07,0.1,0.06,0
0.0059087,0.0051751,0.03056,0.0016576,0.0096652,0.0035088,0,0,0.054326,-0.02082,0,0.018246,0,0,0,0.03098,0.0012377,0.0096652,6.8238,0.013961,0.026551,6.4493e-07,0.11,0.06,0
0.006449,0.0055312,0.030129,0.0014017,0.0094591,0.0030762,0,0,0.053741,-0.020949,0,0.015997,0,0,0,0.030454,0.001076,0.0094591,6.0442,0.013663,0.026212,6.1609e-07,0.12,0.06,0
0.0069835,0.0058674,0.029723,0.0011956,0.0092756,0.0026982,0,0,0.053163,-0.021008,0,0.014031,0,0,0,0.029976,0.00094268,0.0092756,5.356,0.013398,0.025893,5.9021e-07,0.13,0.06,0
0.0075123,0.0061848,0.029346,0.0010281,0.0091122,0.0023672,0,0,0.052608,-0.021019,0,0.012309,0,0,0,0.029542,0.00083154,0.0091122,4.7456,0.013162,0.025596,5.6716e-07,0.14,0.06,0
0.0080357,0.0064845,0.028998,0.0008904,0.0089667,0.0020763,0,0,0.052083,-0.020998,0,0.010797,0,0,0,0.029151,0.00073785,0.0089667,4.202,0.012952,0.025322,5.4671e-07,0.15,0.06,0
0.0085539,0.0067677,0.028681,0.00077625,0.0088371,0.0018199,0,0,0.051593,-0.020958,0,0.0094637,0,0,0,0.028799,0.00065805,0.0088371,3.7159,0.012765,0.025073,5.2864e-07,0.16,0.06,0
0.0090675,0.0070353,0.028391,0.00068072,0.0087216,0.0015931,0,0,0.051141,-0.020906,0,0.0082842,0,0,0,0.028483,0.00058944,0.0087216,3.2796,0.012598,0.024846,5.1268e-07,0.17,0.06,0
0.0095768,0.0072882,0.028129,0.00060009,0.0086188,0.0013917,0,0,0.050727,-0.020849,0,0.0072371,0,0,0,0.028199,0.00052991,0.0086188,2.8868,0.012449,0.024642,4.9861e-07,0.18,0.06,0
0.010082,0.0075273,0.027893,0.00053146,0.0085272,0.0012124,0,0,0.05035,-0.020789,0,0.0063044,0,0,0,0.027946,0.00047784,0.0085272,2.5322,0.012317,0.024458,4.8623e-07,0.19,0.06,0
0.010584,0.0077532,0.02768,0.00047259,0.0084457,0.0010521,0,0,0.050008,-0.02073,0,0.0054711,0,0,0,0.02772,0.00043196,0.0084457,2.2113,0.012199,0.024294,4.7535e-07,0.2,0.06,0
0.011082,0.0079668,0.027489,0.00042172,0.0083732,0.00090854,0,0,0.049701,-0.020674,0,0.0047244,0,0,0,0.027519,0.00039126,0.0083732,1.9203,0.012095,0.024148,4.658e-07,0.21,0.06,0
0.011578,0.0081686,0.027318,0.00037745,0.0083088,0.00077956,0,0,0.049425,-0.020621,0,0.0040537,0,0,0,0.027341,0.00035491,0.0083088,1.6561,0.012002,0.024018,4.5743e-07,0.22,0.06,0
0.012071,0.0083592,0.027167,0.00033868,0.0082517,0.00066346,0,0,0.04918,-0.020574,0,0.00345,0,0,0,0.027183,0.00032229,0.0082517,1.4158,0.011919,0.023904,4.5012e-07,0.23,0.06,0
0.012561,0.0085393,0.027033,0.00030452,0.0082011,0.00055876,0,0,0.048962,-0.020531,0,0.0029055,0,0,0,0.027044,0.00029285,0.0082011,1.1971,0.011846,0.023804,4.4376e-07,0.24,0.06,0
0.01305,0.0087093,0.026914,0.00027425,0.0081565,0.00046419,0,0,0.04877,-0.020494,0,0.0024138,0,0,0,0.026922,0.00026617,0.0081565,0.99795,0.011782,0.023717,4.3824e-07,0.25,0.06,0
0.013537,0.0088698,0.026811,0.00024729,0.0081174,0.00037868,0,0,0.048602,-0.020462,0,0.0019691,0,0,0,0.026816,0.0002419,0.0081174,0.81657,0.011725,0.023641,4.3348e-07,0.26,0.06,0
0.014022,0.0090212,0.02672,0.00022316,0.008083,0.00030128,0,0,0.048457,-0.020436,0,0.0015667,0,0,0,0.026724,0.00021973,0.008083,0.65136,0.011676,0.023577,4.294e-07,0.27,0.06,0
0.014506,0.009164,0.026642,0.00020146,0.0080532,0.0002312,0,0,0.048332,-0.020414,0,0.0012022,0,0,0,0.026645,0.00019944,0.0080532,0.50094,0.011632,0.023523,4.2594e-07,0.28,0.06,0
0.014989,0.0092986,0.026576,0.00018188,0.0080274,0.00016772,0,0,0.048226,-0.020398,0,0.00087214,0,0,0,0.026577,0.00018081,0.0080274,0.36406,0.011595,0.023478,4.2303e-07,0.29,0.06,0
0.01547,0.0094253,0.02652,0.00016414,0.0080052,0.00011023,0,0,0.048138,-0.020387,0,0.00057319,0,0,0,0.02652,0.00016368,0.0080052,0.23963,0.011563,0.023441,4.2062e-07,0.3,0.06,0
0.015951,0.0095447,0.026474,0.00014802,0.0079865,5.8187e-05,0,0,0.048066,-0.02038,0,0.00030257,0,0,0,0.026474,0.00014789,0.0079865,0.12664,0.011536,0.023412,4.1866e-07,0.31,0.06,0
0.016432,0.0096569,0.026436,0.00013332,0.0079707,1.111e-05,0,0,0.048009,-0.020377,0,5.7774e-05,0,0,0,0.026436,0.00013331,0.0079707,0.024202,0.011513,0.02339,4.1712e-07,0.32,0.06,0
0.016912,0.0097624,0.026406,0.00011989,0.0079578,-3.1426e-05,0,0,0.047966,-0.020379,0,-0.00016342,0,0,0,0.026406,0.00011985,0.0079578,-0.068499,0.011495,0.023374,4.1594e-07,0.33,0.06,0
0.017391,0.0098615,0.026384,0.00010758,0.0079474,-6.9803e-05,0,0,0.047934,-0.020383,0,-0.00036298,0,0,0,0.026384,0.0001074,0.0079474,-0.15221,0.01148,0.023365,4.151e-07,0.34,0.06,0
0.01787,0.0099545,0.026368,9.6291e-05,0.0079393,-0.00010436,0,0,0.047915,-0.020392,0,-0.00054268,0,0,0,0.026368,9.5877e-05,0.0079393,-0.2276,0.011468,0.02336,4.1457e-07,0.35,0.06,0
0.018349,0.010042,0.026358,8.5911e-05,0.0079333,-0.00013541,0,0,0.047905,-0.020403,0,-0.00070414,0,0,0,0.026359,8.5213e-05,0.0079333,-0.2953,0.011459,0.02336,4.1431e-07,0.36,0.06,0
0.018828,0.010124,0.026354,7.6355e-05,0.0079292,-0.00016323,0,0,0.047905,-0.020417,0,-0.00084878,0,0,0,0.026355,7.5341e-05,0.0079292,-0.35588,0.011453,0.023365,4.143e-07,0.37,0.06,0
0.019307,0.0102,0.026355,6.7548e-05,0.0079269,-0.00018806,0,0,0.047914,-0.020434,0,-0.00097793,0,0,0,0.026357,6.6203e-05,0.0079269,-0.40987,0.01145,0.023373,4.1452e-07,0.38,0.06,0
0.019787,0.010271,0.026361,5.9424e-05,0.0079261,-0.00021015,0,0,0.047931,-0.020453,0,-0.0010928,0,0,0,0.026363,5.7745e-05,0.0079261,-0.45775,0.011449,0.023386,4.1495e-07,0.39,0.06,0
0.020266,0.010338,0.026371,5.1925e-05,0.0079268,-0.00022969,0,0,0.047954,-0.020475,0,-0.0011944,0,0,0,0.026373,4.992e-05,0.0079268,-0.49999,0.01145,0.023401,4.1556e-07,0.4,0.06,0
0.020746,0.010401,0.026384,4.4999e-05,0.0079288,-0.00024689,0,0,0.047984,-0.020498,0,-0.0012838,0,0,0,0.026387,4.2685e-05,0.0079288,-0.537,0.011453,0.023419,4.1634e-07,0.41,0.06,0
0.021226,0.010459,0.026401,3.8602e-05,0.007932,-0.00026192,0,0,0.04802,-0.020523,0,-0.001362,0,0,0,0.026404,3.6e-05,0.007932,-0.56917,0.011457,0.023439,4.1727e-07,0.42,0.06,0
0.021706,0.010513,0.026421,3.2691e-05,0.0079362,-0.00027494,0,0,0.048061,-0.020549,0,-0.0014297,0,0,0,0.026424,2.9827e-05,0.0079362,-0.59687,0.011463,0.023462,4.1833e-07,0.43,0.06,0
0.022187,0.010563,0.026444,2.7232e-05,0.0079413,-0.0002861,0,0,0.048107,-0.020577,0,-0.0014877,0,0,0,0.026447,2.4134e-05,0.0079413,-0.62044,0.011471,0.023487,4.1952e-07,0.44,0.06,0
0.022668,0.010609,0.026469,2.2191e-05,0.0079473,-0.00029555,0,0,0.048156,-0.020605,0,-0.0015369,0,0,0,0.026472,1.8889e-05,0.0079473,-0.64019,0.01148,0.023514,4.2081e-07,0.45,0.06,0
0.02315,0.010653,0.026496,1.7538e-05,0.0079541,-0.00030341,0,0,0.048209,-0.020635,0,-0.0015777,0,0,0,0.026499,1.4062e-05,0.0079541,-0.65642,0.011489,0.023542,4.222e-07,0.46,0.06,0
0.023633,0.010693,0.026525,1.3246e-05,0.0079615,-0.00030981,0,0,0.048265,-0.020665,0,-0.001611,0,0,0,0.026529,9.6259e-06,0.0079615,-0.66941,0.0115,0.023572,4.2367e-07,0.47,0.06,0
0.024115,0.010729,0.026556,9.2894e-06,0.0079695,-0.00031484,0,0,0.048324,-0.020697,0,-0.0016372,0,0,0,0.026559,5.5558e-06,0.0079695,-0.67941,0.011511,0.023602,4.2522e-07,0.48,0.06,0
0.024599,0.010763,0.026588,5.6463e-06,0.0079781,-0.00031863,0,0,0.048385,-0.020728,0,-0.0016569,0,0,0,0.026592,1.8275e-06,0.0079781,-0.68666,0.011524,0.023634,4.2683e-07,0.49,0.06,0
0.025083,0.010795,0.026621,2.2953e-06,0.007987,-0.00032127,0,0,0.048449,-0.02076,0,-0.0016706,0,0,0,0.026625,-1.5816e-06,0.007987,-0.69139,0.011537,0.023666,4.2849e-07,0.5,0.06,0
0.025568,0.010823,0.026655,-7.8307e-07,0.0079964,-0.00032285,0,0,0.048513,-0.020793,0,-0.0016788,0,0,0,0.026659,-4.6926e-06,0.0079964,-0.6938,0.01155,0.023699,4.3021e-07,0.51,0.06,0
0.026053,0.010849,0.02669,-3.607e-06,0.0080061,-0.00032344,0,0,0.048579,-0.020825,0,-0.0016819,0,0,0,0.026694,-7.5254e-06,0.0080061,-0.6941,0.011564,0.023733,4.3195e-07,0.52,0.06,0
0.02654,0.010873,0.026726,-6.1932e-06,0.008016,-0.00032314,0,0,0.048647,-0.020858,0,-0.0016803,0,0,0,0.02673,-1.0099e-05,0.008016,-0.69246,0.011579,0.023766,4.3373e-07,0.53,0.06,0
0.027026,0.010895,0.026762,-8.5576e-06,0.0080262,-0.00032202,0,0,0.048714,-0.02089,0,-0.0016745,0,0,0,0.026766,-1.243e-05,0.0080262,-0.68905,0.011593,0.0238,4.3554e-07,0.54,0.06,0
0.027514,0.010915,0.026799,-1.0715e-05,0.0080365,-0.00032014,0,0,0.048782,-0.020923,0,-0.0016647,0,0,0,0.026803,-1.4537e-05,0.0080365,-0.68404,0.011608,0.023835,4.3736e-07,0.55,0.06,0
0.028002,0.010933,0.026836,-1.2679e-05,0.0080469,-0.00031757,0,0,0.048851,-0.020955,0,-0.0016513,0,0,0,0.02684,-1.6434e-05,0.0080469,-0.67757,0.011623,0.023869,4.392e-07,0.56,0.06,0
0.028491,0.010949,0.026873,-1.4462e-05,0.0080575,-0.00031436,0,0,0.04892,-0.020987,0,-0.0016347,0,0,0,0.026876,-1.8137e-05,0.0080575,-0.66977,0.011639,0.023903,4.4104e-07,0.57,0.06,0
0.02898,0.010964,0.02691,-1.6077e-05,0.0080681,-0.00031058,0,0,0.048988,-0.021019,0,-0.001615,0,0,0,0.026913,-1.9659e-05,0.0080681,-0.66078,0.011654,0.023937,4.4288e-07,0.58,0.06,0
0.029471,0.010977,0.026946,-1.7535e-05,0.0080787,-0.00030628,0,0,0.049056,-0.02105,0,-0.0015927,0,0,0,0.02695,-2.1014e-05,0.0080787,-0.65071,0.011669,0.02397,4.4472e-07,0.59,0.06,0
0.029961,0.010989,0.026983,-1.8848e-05,0.0080893,-0.00030151,0,0,0.049124,-0.021081,0,-0.0015679,0,0,0,0.026986,-2.2214e-05,0.0080893,-0.63968,0.011685,0.024004,4.4655e-07,0.6,0.06,0
0.030453,0.010999,0.027019,-2.0024e-05,0.0080998,-0.00029631,0,0,0.049191,-0.021111,0,-0.0015408,0,0,0,0.027023,-2.3271e-05,0.0080998,-0.62778,0.0117,0.024037,4.4836e-07,0.61,0.06,0
0.030945,0.011008,0.027055,-2.1075e-05,0.0081103,-0.00029072,0,0,0.049257,-0.021142,0,-0.0015118,0,0,0,0.027058,-2.4196e-05,0.0081103,-0.6151,0.011715,0.024069,4.5016e-07,0.62,0.06,0
0.031438,0.011016,0.027091,-2.2009e-05,0.0081206,-0.00028479,0,0,0.049322,-0.021171,0,-0.0014809,0,0,0,0.027094,-2.5e-05,0.0081206,-0.60174,0.01173,0.024101,4.5194e-07,0.63,0.06,0
0.031932,0.011023,0.027126,-2.2835e-05,0.0081309,-0.00027855,0,0,0.049387,-0.0212,0,-0.0014484,0,0,0,0.027129,-2.5692e-05,0.0081309,-0.58778,0.011745,0.024133,4.537e-07,0.64,0.06,0
0.032426,0.011029,0.02716,-2.356e-05,0.008141,-0.00027203,0,0,0.04945,-0.021228,0,-0.0014146,0,0,0,0.027163,-2.6282e-05,0.008141,-0.57329,0.011759,0.024164,4.5543e-07,0.65,0.06,0
0.032921,0.011033,0.027194,-2.4193e-05,0.0081509,-0.00026526,0,0,0.049512,-0.021255,0,-0.0013794,0,0,0,0.027196,-2.6778e-05,0.0081509,-0.55833,0.011774,0.024194,4.5714e-07,0.66,0.06,0
0.033416,0.011038,0.027227,-2.4742e-05,0.0081607,-0.00025829,0,0,0.049572,-0.021282,0,-0.0013431,0,0,0,0.02723,-2.7189e-05,0.0081607,-0.54297,0.011788,0.024224,4.5881e-07,0.67,0.06,0
0.033912,0.011041,0.027259,-2.5212e-05,0.0081703,-0.00025112,0,0,0.049632,-0.021308,0,-0.0013058,0,0,0,0.027262,-2.7523e-05,0.0081703,-0.52727,0.011801,0.024253,4.6045e-07,0.68,0.06,0
0.034409,0.011044,0.027291,-2.561e-05,0.0081796,-0.00024378,0,0,0.04969,-0.021334,0,-0.0012677,0,0,0,0.027293,-2.7786e-05,0.0081796,-0.51127,0.011815,0.024281,4.6205e-07,0.69,0.06,0
0.034906,0.011046,0.027322,-2.5944e-05,0.0081888,-0.00023631,0,0,0.049746,-0.021358,0,-0.0012288,0,0,0,0.027324,-2.7986e-05,0.0081888,-0.49503,0.011828,0.024308,4.6361e-07,0.7,0.06,0
0.035404,0.011047,0.027352,-2.6218e-05,0.0081977,-0.00022871,0,0,0.049801,-0.021382,0,-0.0011893,0,0,0,0.027354,-2.8128e-05,0.0081977,-0.47859,0.011841,0.024335,4.6513e-07,0.71,0.06,0
0.035902,0.011048,0.027381,-2.6438e-05,0.0082064,-0.00022101,0,0,0.049854,-0.021405,0,-0.0011492,0,0,0,0.027383,-2.822e-05,0.0082064,-0.46198,0.011854,0.024361,4.6661e-07,0.72,0.06,0
0.036401,0.011049,0.027409,-2.6609e-05,0.0082148,-0.00021322,0,0,0.049905,-0.021428,0,-0.0011087,0,0,0,0.027411,-2.8266e-05,0.0082148,-0.44525,0.011866,0.024386,4.6805e-07,0.73,0.06,0
0.0369,0.011049,0.027436,-2.6736e-05,0.0082229,-0.00020537,0,0,0.049955,-0.021449,0,-0.0010679,0,0,0,0.027438,-2.8272e-05,0.0082229,-0.42842,0.011878,0.02441,4.6945e-07,0.74,0.06,0
0.0374,0.011049,0.027463,-2.6825e-05,0.0082308,-0.00019745,0,0,0.050003,-0.02147,0,-0.0010268,0,0,0,0.027464,-2.8243e-05,0.0082308,-0.41152,0.011889,0.024433,4.708e-07,0.75,0.06,0
0.0379,0.011048,0.027488,-2.6879e-05,0.0082384,-0.0001895,0,0,0.05005,-0.02149,0,-0.00098539,0,0,0,0.02749,-2.8183e-05,0.0082384,-0.39457,0.0119,0.024456,4.721e-07,0.76,0.06,0
0.038401,0.011047,0.027513,-2.6902e-05,0.0082458,-0.00018151,0,0,0.050094,-0.021509,0,-0.00094384,0,0,0,0.027514,-2.8098e-05,0.0082458,-0.3776,0.01191,0.024477,4.7335e-07,0.77,0.06,0
0.038902,0.011046,0.027536,-2.6898e-05,0.0082528,-0.0001735,0,0,0.050137,-0.021527,0,-0.00090219,0,0,0,0.027537,-2.799e-05,0.0082528,-0.36063,0.011921,0.024498,4.7456e-07,0.78,0.06,0
0.039404,0.011045,0.027559,-2.6871e-05,0.0082595,-0.00016547,0,0,0.050178,-0.021545,0,-0.00086045,0,0,0,0.02756,-2.7864e-05,0.0082595,-0.34367,0.011931,0.024518,4.7571e-07,0.79,0.06,0
0.039906,0.011044,0.02758,-2.6825e-05,0.008266,-0.00015744,0,0,0.050217,-0.021561,0,-0.00081869,0,0,0,0.027581,-2.7723e-05,0.008266,-0.32674,0.01194,0.024537,4.7681e-07,0.8,0.06,0
0.040408,0.011042,0.027601,-2.6762e-05,0.0082722,-0.00014941,0,0,0.050254,-0.021577,0,-0.00077693,0,0,0,0.027601,-2.757e-05,0.0082722,-0.30984,0.011949,0.024555,4.7787e-07,0.81,0.06,0
0.040911,0.01104,0.02762,-2.6686e-05,0.008278,-0.00014139,0,0,0.050289,-0.021592,0,-0.0007352,0,0,0,0.027621,-2.7409e-05,0.008278,-0.293,0.011957,0.024572,4.7887e-07,0.82,0.06,0
0.041414,0.011039,0.027638,-2.6599e-05,0.0082836,-0.00013337,0,0,0.050323,-0.021606,0,-0.00069353,0,0,0,0.027639,-2.7242e-05,0.0082836,-0.27621,0.011965,0.024588,4.7982e-07,0.83,0.06,0
0.041917,0.011037,0.027656,-2.6504e-05,0.0082888,-0.00012537,0,0,0.050354,-0.02162,0,-0.00065193,0,0,0,0.027656,-2.7072e-05,0.0082888,-0.25948,0.011973,0.024603,4.8072e-07,0.84,0.06,0
0.042421,0.011035,0.027672,-2.6404e-05,0.0082937,-0.00011739,0,0,0.050384,-0.021632,0,-0.00061042,0,0,0,0.027673,-2.6901e-05,0.0082937,-0.24282,0.01198,0.024617,4.8156e-07,0.85,0.06,0
0.042925,0.011033,0.027687,-2.63e-05,0.0082983,-0.00010943,0,0,0.050412,-0.021644,0,-0.00056901,0,0,0,0.027688,-2.6732e-05,0.0082983,-0.22622,0.011987,0.024631,4.8235e-07,0.86,0.06,0
0.043429,0.011032,0.027702,-2.6194e-05,0.0083026,-0.00010148,0,0,0.050437,-0.021655,0,-0.00052772,0,0,0,0.027702,-2.6566e-05,0.0083026,-0.2097,0.011993,0.024643,4.8309e-07,0.87,0.06,0
0.043934,0.01103,0.027715,-2.609e-05,0.0083066,-9.3565e-05,0,0,0.050461,-0.021665,0,-0.00048654,0,0,0,0.027715,-2.6405e-05,0.0083066,-0.19325,0.011998,0.024655,4.8377e-07,0.88,0.06,0
0.044438,0.011029,0.027727,-2.5987e-05,0.0083103,-8.5669e-05,0,0,0.050483,-0.021674,0,-0.00044548,0,0,0,0.027727,-2.6251e-05,0.0083103,-0.17686,0.012004,0.024665,4.844e-07,0.89,0.06,0
0.044943,0.011027,0.027738,-2.5888e-05,0.0083136,-7.7795e-05,0,0,0.050503,-0.021683,0,-0.00040453,0,0,0,0.027738,-2.6106e-05,0.0083136,-0.16054,0.012009,0.024675,4.8498e-07,0.9,0.06,0
0.045448,0.011026,0.027748,-2.5795e-05,0.0083167,-6.9943e-05,0,0,0.050521,-0.02169,0,-0.00036371,0,0,0,0.027748,-2.5971e-05,0.0083167,-0.14429,0.012013,0.024684,4.855e-07,0.91,0.06,0
0.045954,0.011024,0.027757,-2.5708e-05,0.0083194,-6.2113e-05,0,0,0.050538,-0.021697,0,-0.00032299,0,0,0,0.027757,-2.5846e-05,0.0083194,-0.12809,0.012017,0.024692,4.8596e-07,0.92,0.06,0
0.046459,0.011023,0.027765,-2.5628e-05,0.0083218,-5.4302e-05,0,0,0.050552,-0.021703,0,-0.00028237,0,0,0,0.027765,-2.5734e-05,0.0083218,-0.11195,0.01202,0.024699,4.8637e-07,0.93,0.06,0
0.046965,0.011022,0.027772,-2.5557e-05,0.0083239,-4.6509e-05,0,0,0.050564,-0.021708,0,-0.00024185,0,0,0,0.027772,-2.5635e-05,0.0083239,-0.095865,0.012023,0.024705,4.8673e-07,0.94,0.06,0
0.04747,0.011021,0.027778,-2.5496e-05,0.0083256,-3.8732e-05,0,0,0.050575,-0.021713,0,-0.00020141,0,0,0,0.027778,-2.555e-05,0.0083256,-0.079819,0.012026,0.02471,4.8703e-07,0.95,0.06,0
0.047976,0.011021,0.027782,-2.5445e-05,0.0083271,-3.0969e-05,0,0,0.050584,-0.021716,0,-0.00016104,0,0,0,0.027782,-2.5479e-05,0.0083271,-0.063809,0.012028,0.024714,4.8728e-07,0.96,0.06,0
0.048482,0.01102,0.027786,-2.5405e-05,0.0083282,-2.3217e-05,0,0,0.05059,-0.021719,0,-0.00012073,0,0,0,0.027786,-2.5424e-05,0.0083282,-0.04783,0.01203,0.024717,4.8747e-07,0.97,0.06,0
0.048988,0.01102,0.027789,-2.5375e-05,0.008329,-1.5473e-05,0,0,0.050595,-0.021721,0,-8.046e-05,0,0,0,0.027789,-2.5384e-05,0.008329,-0.031874,0.012031,0.024719,4.8761e-07,0.98,0.06,0
0.049494,0.011019,0.02779,-2.5358e-05,0.0083295,-7.7351e-06,0,0,0.050598,-0.021722,0,-4.0223e-05,0,0,0,0.02779,-2.536e-05,0.0083295,-0.015933,0.012031,0.024721,4.8769e-07,0.99,0.06,0
0.05,0.011019,0.027791,-2.5352e-05,0.0083296,-1.6043e-06,0,0,0.050599,-0.021723,0,-8.3426e-06,0,0,0,0.027791,-2.5352e-05,0.0083296,-0.0033047,0.012032,0.024721,4.8772e-07,1,0.06,0
0,0,0.030985,0.013279,0.013279,0.0088106,0,0,0.046036,0,0,0.045815,0,0,0,0.034623,0.0096424,0.013279,22.431,0.019182,0.023375,6.0276e-07,0,0.07,0
0.00046036,0.00045815,0.030889,0.011919,0.012842,0.0087711,0,0,0.046921,-0.0024004,0,0.04561,0,0,0,0.034323,0.0084854,0.012842,21.38,0.01855,0.023958,6.2827e-07,0.01,0.07,0
0.00093842,0.00093857,0.031285,0.010507,0.012537,0.008799,0,0,0.048743,-0.0052802,0,0.045755,0,0,0,0.03451,0.0072811,0.012537,20.131,0.01811,0.025018,6.8613e-07,0.02,0.07,0
0.0014352,0.0014317,0.031628,0.0090001,0.012188,0.0085835,0,0,0.050543,-0.0082897,0,0.044634,0,0,0,0.034515,0.0061126,0.012188,18.593,0.017605,0.025905,7.2996e-07,0.03,0.07,0
0.0019493,0.0019272,0.031867,0.0075545,0.011826,0.0081525,0,0,0.052105,-0.011107,0,0.042393,0,0,0,0.034347,0.0050739,0.011826,16.924,0.017083,0.026549,7.5559e-07,0.04,0.07,0
0.0024773,0.0024159,0.03197,0.0062679,0.011471,0.0075713,0,0,0.053297,-0.013529,0,0.039371,0,0,0,0.034035,0.0042034,0.011471,15.252,0.01657,0.026943,7.6349e-07,0.05,0.07,0
0.0030152,0.0028913,0.031935,0.0051782,0.011134,0.0069125,0,0,0.054083,-0.015485,0,0.035945,0,0,0,0.033616,0.0034979,0.011134,13.662,0.016083,0.027118,7.5706e-07,0.06,0.07,0
0.003559,0.0033488,0.031781,0.004282,0.010819,0.0062358,0,0,0.054501,-0.016996,0,0.032426,0,0,0,0.033129,0.002934,0.010819,12.198,0.015627,0.027126,7.4065e-07,0.07,0.07,0
0.0041052,0.003786,0.031536,0.0035559,0.010528,0.005581,0,0,0.054622,-0.018126,0,0.029021,0,0,0,0.032608,0.0024838,0.010528,10.874,0.015206,0.027016,7.1825e-07,0.08,0.07,0
0.0046514,0.0042021,0.031231,0.0029709,0.010261,0.0049702,0,0,0.054523,-0.018953,0,0.025845,0,0,0,0.03208,0.0021222,0.010261,9.6896,0.014821,0.026831,6.9297e-07,0.09,0.07,0
0.0051957,0.0045969,0.030892,0.0024995,0.010017,0.004413,0,0,0.054273,-0.019546,0,0.022948,0,0,0,0.031562,0.0018294,0.010017,8.6343,0.01447,0.026601,6.6694e-07,0.1,0.07,0
0.0057369,0.0049709,0.030538,0.0021184,0.009797,0.0039114,0,0,0.053927,-0.019964,0,0.020339,0,0,0,0.031067,0.0015899,0.009797,7.695,0.014151,0.02635,6.4149e-07,0.11,0.07,0
0.0062743,0.0053249,0.030184,0.0018086,0.0095979,0.003463,0,0,0.053525,-0.020252,0,0.018008,0,0,0,0.030601,0.0013921,0.0095979,6.8583,0.013864,0.026092,6.1739e-07,0.12,0.07,0
0.0068074,0.0056598,0.02984,0.001555,0.0094185,0.0030636,0,0,0.053096,-0.020445,0,0.015931,0,0,0,0.030168,0.001227,0.0094185,6.1114,0.013605,0.025838,5.9503e-07,0.13,0.07,0
0.0073362,0.0059765,0.029511,0.0013459,0.009257,0.0027083,0,0,0.05266,-0.020569,0,0.014083,0,0,0,0.029769,0.0010879,0.009257,5.443,0.013371,0.025594,5.7457e-07,0.14,0.07,0
0.0078606,0.006276,0.029201,0.0011722,0.0091118,0.002392,0,0,0.052231,-0.020643,0,0.012438,0,0,0,0.029403,0.00096949,0.0091118,4.843,0.013161,0.025362,5.5602e-07,0.15,0.07,0
0.0083808,0.0065593,0.028911,0.0010267,0.0089813,0.0021101,0,0,0.051818,-0.020682,0,0.010972,0,0,0,0.02907,0.00086788,0.0089813,4.3031,0.012973,0.025147,5.393e-07,0.16,0.07,0
0.0088969,0.0068271,0.028643,0.00090388,0.0088641,0.0018584,0,0,0.051426,-0.020697,0,0.0096637,0,0,0,0.028767,0.00077993,0.0088641,3.8158,0.012804,0.024948,5.243e-07,0.17,0.07,0
0.0094093,0.0070803,0.028397,0.0007995,0.0087589,0.0016332,0,0,0.051059,-0.020694,0,0.0084925,0,0,0,0.028493,0.00070318,0.0087589,3.375,0.012652,0.024765,5.109e-07,0.18,0.07,0
0.0099181,0.0073197,0.028171,0.00071011,0.0086644,0.0014312,0,0,0.050718,-0.020681,0,0.0074423,0,0,0,0.028246,0.00063572,0.0086644,2.9754,0.012515,0.024599,4.9895e-07,0.19,0.07,0
0.010424,0.0075461,0.027966,0.00063304,0.0085797,0.0012497,0,0,0.050404,-0.020661,0,0.0064985,0,0,0,0.028023,0.00057602,0.0085797,2.6124,0.012393,0.024448,4.8833e-07,0.2,0.07,0
0.010926,0.0077601,0.02778,0.00056614,0.0085037,0.0010863,0,0,0.050118,-0.020638,0,0.0056487,0,0,0,0.027823,0.00052284,0.0085037,2.2822,0.012283,0.024313,4.7891e-07,0.21,0.07,0
0.011426,0.0079622,0.027611,0.0005077,0.0084357,0.00093883,0,0,0.049857,-0.020613,0,0.0048819,0,0,0,0.027644,0.00047522,0.0084357,1.9815,0.012185,0.024192,4.7057e-07,0.22,0.07,0
0.011923,0.0081533,0.02746,0.00045634,0.0083749,0.00080559,0,0,0.049621,-0.020588,0,0.0041891,0,0,0,0.027484,0.00043233,0.0083749,1.7073,0.012097,0.024084,4.6322e-07,0.23,0.07,0
0.012418,0.0083337,0.027325,0.00041097,0.0083207,0.00068501,0,0,0.04941,-0.020565,0,0.0035621,0,0,0,0.027342,0.00039354,0.0083207,1.4571,0.012019,0.023988,4.5676e-07,0.24,0.07,0
0.012911,0.008504,0.027204,0.00037066,0.0082723,0.00057577,0,0,0.049222,-0.020544,0,0.002994,0,0,0,0.027216,0.00035831,0.0082723,1.2287,0.011949,0.023904,4.5109e-07,0.25,0.07,0
0.013403,0.0086648,0.027096,0.00033468,0.0082293,0.00047671,0,0,0.049055,-0.020526,0,0.0024789,0,0,0,0.027105,0.00032619,0.0082293,1.0202,0.011887,0.023831,4.4616e-07,0.26,0.07,0
0.013893,0.0088164,0.027002,0.00030241,0.0081913,0.00038682,0,0,0.048908,-0.020511,0,0.0020114,0,0,0,0.027008,0.00029681,0.0081913,0.82985,0.011832,0.023768,4.4188e-07,0.27,0.07,0
0.014381,0.0089593,0.026919,0.00027337,0.0081578,0.00030522,0,0,0.04878,-0.020499,0,0.0015871,0,0,0,0.026923,0.00026987,0.0081578,0.65618,0.011783,0.023714,4.3819e-07,0.28,0.07,0
0.014868,0.009094,0.026847,0.00024711,0.0081283,0.00023113,0,0,0.048669,-0.020491,0,0.0012019,0,0,0,0.026849,0.0002451,0.0081283,0.4978,0.011741,0.023668,4.3504e-07,0.29,0.07,0
0.015354,0.0092209,0.026785,0.0002233,0.0081026,0.00016389,0,0,0.048575,-0.020486,0,0.00085223,0,0,0,0.026786,0.00022228,0.0081026,0.3535,0.011704,0.023631,4.3238e-07,0.3,0.07,0
0.01584,0.0093403,0.026733,0.00020163,0.0080803,0.00010288,0,0,0.048496,-0.020484,0,0.00053498,0,0,0,0.026733,0.00020123,0.0080803,0.22218,0.011671,0.0236,4.3017e-07,0.31,0.07,0
0.016324,0.0094525,0.026688,0.00018186,0.0080611,4.7571e-05,0,0,0.048431,-0.020486,0,0.00024737,0,0,0,0.026688,0.00018178,0.0080611,0.10283,0.011644,0.023576,4.2836e-07,0.32,0.07,0
0.016808,0.009558,0.026652,0.00016379,0.0080447,-2.5194e-06,0,0,0.048379,-0.02049,0,-1.3101e-05,0,0,0,0.026652,0.00016379,0.0080447,-0.0054497,0.01162,0.023558,4.2692e-07,0.33,0.07,0
0.017292,0.0096571,0.026623,0.00014722,0.008031,-4.7818e-05,0,0,0.048339,-0.020498,0,-0.00024866,0,0,0,0.026623,0.00014713,0.008031,-0.10348,0.0116,0.023546,4.2581e-07,0.34,0.07,0
0.017775,0.00975,0.0266,0.000132,0.0080197,-8.8712e-05,0,0,0.048309,-0.020508,0,-0.0004613,0,0,0,0.0266,0.00013171,0.0080197,-0.19203,0.011584,0.023538,4.2501e-07,0.35,0.07,0
0.018258,0.0098371,0.026584,0.00011801,0.0080105,-0.00012555,0,0,0.04829,-0.020521,0,-0.00065286,0,0,0,0.026584,0.00011741,0.0080105,-0.27179,0.011571,0.023535,4.2448e-07,0.36,0.07,0
0.018741,0.0099187,0.026573,0.00010512,0.0080034,-0.00015865,0,0,0.04828,-0.020536,0,-0.00082496,0,0,0,0.026574,0.00010417,0.0080034,-0.34341,0.01156,0.023536,4.242e-07,0.37,0.07,0
0.019224,0.009995,0.026567,9.3235e-05,0.007998,-0.00018829,0,0,0.048279,-0.020553,0,-0.00097912,0,0,0,0.026568,9.1895e-05,0.007998,-0.40748,0.011553,0.023541,4.2415e-07,0.38,0.07,0
0.019706,0.010066,0.026566,8.2267e-05,0.0079944,-0.00021475,0,0,0.048285,-0.020571,0,-0.0011167,0,0,0,0.026567,8.0525e-05,0.0079944,-0.46456,0.011547,0.023549,4.243e-07,0.39,0.07,0
0.020189,0.010133,0.026569,7.2138e-05,0.0079922,-0.00023825,0,0,0.048299,-0.020592,0,-0.0012389,0,0,0,0.026571,6.9996e-05,0.0079922,-0.51515,0.011544,0.023561,4.2465e-07,0.4,0.07,0
0.020672,0.010195,0.026575,6.278e-05,0.0079914,-0.00025904,0,0,0.048318,-0.020615,0,-0.001347,0,0,0,0.026578,6.0249e-05,0.0079914,-0.55972,0.011543,0.023575,4.2516e-07,0.41,0.07,0
0.021156,0.010253,0.026586,5.4132e-05,0.0079919,-0.00027729,0,0,0.048344,-0.020638,0,-0.0014419,0,0,0,0.026589,5.1234e-05,0.0079919,-0.59873,0.011544,0.023592,4.2582e-07,0.42,0.07,0
0.021639,0.010306,0.026599,4.6139e-05,0.0079935,-0.00029321,0,0,0.048374,-0.020663,0,-0.0015247,0,0,0,0.026602,4.2901e-05,0.0079935,-0.63258,0.011546,0.02361,4.2663e-07,0.43,0.07,0
0.022123,0.010356,0.026615,3.8752e-05,0.0079962,-0.00030697,0,0,0.048409,-0.020689,0,-0.0015962,0,0,0,0.026619,3.5207e-05,0.0079962,-0.66167,0.01155,0.023631,4.2755e-07,0.44,0.07,0
0.022607,0.010403,0.026634,3.1927e-05,0.0079997,-0.00031872,0,0,0.048449,-0.020716,0,-0.0016573,0,0,0,0.026638,2.8109e-05,0.0079997,-0.68634,0.011555,0.023654,4.2859e-07,0.45,0.07,0
0.023092,0.010446,0.026655,2.5625e-05,0.0080041,-0.00032862,0,0,0.048492,-0.020744,0,-0.0017088,0,0,0,0.026659,2.157e-05,0.0080041,-0.70693,0.011562,0.023678,4.2972e-07,0.46,0.07,0
0.023577,0.010485,0.026678,1.9808e-05,0.0080092,-0.00033681,0,0,0.048538,-0.020772,0,-0.0017514,0,0,0,0.026682,1.5553e-05,0.0080092,-0.72375,0.011569,0.023703,4.3095e-07,0.47,0.07,0
0.024063,0.010522,0.026702,1.4442e-05,0.008015,-0.00034342,0,0,0.048587,-0.020802,0,-0.0017858,0,0,0,0.026707,1.0024e-05,0.008015,-0.73711,0.011577,0.023729,4.3225e-07,0.48,0.07,0
0.024549,0.010556,0.026728,9.4986e-06,0.0080214,-0.00034856,0,0,0.048638,-0.020831,0,-0.0018125,0,0,0,0.026733,4.9524e-06,0.0080214,-0.74727,0.011586,0.023757,4.3362e-07,0.49,0.07,0
0.025036,0.010586,0.026756,4.9478e-06,0.0080283,-0.00035235,0,0,0.048692,-0.020861,0,-0.0018322,0,0,0,0.026761,3.0779e-07,0.0080283,-0.75448,0.011596,0.023785,4.3504e-07,0.5,0.07,0
0.025523,0.010615,0.026785,7.6383e-07,0.0080356,-0.00035489,0,0,0.048747,-0.020891,0,-0.0018454,0,0,0,0.026789,-3.9377e-06,0.0080356,-0.759,0.011607,0.023814,4.3652e-07,0.51,0.07,0
0.026011,0.010641,0.026814,-3.0777e-06,0.0080434,-0.00035629,0,0,0.048804,-0.020921,0,-0.0018527,0,0,0,0.026819,-7.8104e-06,0.0080434,-0.76103,0.011618,0.023844,4.3804e-07,0.52,0.07,0
0.026499,0.010664,0.026845,-6.5994e-06,0.0080514,-0.00035663,0,0,0.048863,-0.020951,0,-0.0018544,0,0,0,0.026849,-1.1335e-05,0.0080514,-0.76079,0.01163,0.023873,4.3959e-07,0.53,0.07,0
0.026988,0.010686,0.026876,-9.8224e-06,0.0080598,-0.00035599,0,0,0.048922,-0.020981,0,-0.0018512,0,0,0,0.026881,-1.4535e-05,0.0080598,-0.75848,0.011642,0.023904,4.4118e-07,0.54,0.07,0
0.027477,0.010705,0.026907,-1.2767e-05,0.0080684,-0.00035447,0,0,0.048981,-0.021011,0,-0.0018432,0,0,0,0.026912,-1.7433e-05,0.0080684,-0.75426,0.011654,0.023934,4.4278e-07,0.55,0.07,0
0.027968,0.010723,0.026939,-1.545e-05,0.0080772,-0.00035213,0,0,0.049042,-0.021041,0,-0.0018311,0,0,0,0.026944,-2.0049e-05,0.0080772,-0.74832,0.011667,0.023964,4.444e-07,0.56,0.07,0
0.028458,0.010739,0.026971,-1.7891e-05,0.0080861,-0.00034904,0,0,0.049102,-0.02107,0,-0.001815,0,0,0,0.026976,-2.2404e-05,0.0080861,-0.74081,0.01168,0.023995,4.4604e-07,0.57,0.07,0
0.02895,0.010753,0.027004,-2.0105e-05,0.0080951,-0.00034527,0,0,0.049163,-0.0211,0,-0.0017954,0,0,0,0.027008,-2.4515e-05,0.0080951,-0.73188,0.011693,0.024025,4.4767e-07,0.58,0.07,0
0.029441,0.010766,0.027036,-2.2108e-05,0.0081043,-0.00034088,0,0,0.049223,-0.021129,0,-0.0017726,0,0,0,0.027041,-2.6401e-05,0.0081043,-0.72166,0.011706,0.024055,4.4931e-07,0.59,0.07,0
0.029934,0.010777,0.027069,-2.3914e-05,0.0081134,-0.00033593,0,0,0.049284,-0.021157,0,-0.0017468,0,0,0,0.027073,-2.8078e-05,0.0081134,-0.71028,0.011719,0.024085,4.5095e-07,0.6,0.07,0
0.030427,0.010787,0.027101,-2.5537e-05,0.0081226,-0.00033046,0,0,0.049343,-0.021185,0,-0.0017184,0,0,0,0.027105,-2.9562e-05,0.0081226,-0.69786,0.011733,0.024115,4.5258e-07,0.61,0.07,0
0.030921,0.010796,0.027133,-2.699e-05,0.0081317,-0.00032453,0,0,0.049403,-0.021213,0,-0.0016876,0,0,0,0.027137,-3.0867e-05,0.0081317,-0.6845,0.011746,0.024144,4.5419e-07,0.62,0.07,0
0.031415,0.010804,0.027164,-2.8285e-05,0.0081408,-0.00031819,0,0,0.049461,-0.02124,0,-0.0016546,0,0,0,0.027168,-3.2008e-05,0.0081408,-0.67031,0.011759,0.024173,4.558e-07,0.63,0.07,0
0.03191,0.01081,0.027196,-2.9434e-05,0.0081498,-0.00031146,0,0,0.049519,-0.021266,0,-0.0016196,0,0,0,0.027199,-3.2997e-05,0.0081498,-0.65537,0.011772,0.024202,4.5738e-07,0.64,0.07,0
0.032406,0.010816,0.027226,-3.0448e-05,0.0081588,-0.00030441,0,0,0.049576,-0.021292,0,-0.0015829,0,0,0,0.02723,-3.3847e-05,0.0081588,-0.63979,0.011785,0.024229,4.5894e-07,0.65,0.07,0
0.032902,0.010821,0.027257,-3.1337e-05,0.0081676,-0.00029706,0,0,0.049632,-0.021317,0,-0.0015447,0,0,0,0.02726,-3.457e-05,0.0081676,-0.62362,0.011798,0.024257,4.6048e-07,0.66,0.07,0
0.033398,0.010825,0.027287,-3.2111e-05,0.0081763,-0.00028944,0,0,0.049687,-0.021342,0,-0.0015051,0,0,0,0.02729,-3.5177e-05,0.0081763,-0.60695,0.01181,0.024284,4.62e-07,0.67,0.07,0
0.033895,0.010828,0.027316,-3.2779e-05,0.0081849,-0.00028159,0,0,0.04974,-0.021366,0,-0.0014643,0,0,0,0.027319,-3.5678e-05,0.0081849,-0.58985,0.011823,0.02431,4.6348e-07,0.68,0.07,0
0.034393,0.01083,0.027344,-3.335e-05,0.0081933,-0.00027353,0,0,0.049793,-0.021389,0,-0.0014224,0,0,0,0.027347,-3.6083e-05,0.0081933,-0.57237,0.011835,0.024335,4.6494e-07,0.69,0.07,0
0.034891,0.010832,0.027372,-3.3833e-05,0.0082015,-0.0002653,0,0,0.049844,-0.021412,0,-0.0013796,0,0,0,0.027375,-3.64e-05,0.0082015,-0.55457,0.011847,0.02436,4.6636e-07,0.7,0.07,0
0.03539,0.010833,0.027399,-3.4234e-05,0.0082095,-0.00025691,0,0,0.049894,-0.021434,0,-0.0013359,0,0,0,0.027402,-3.664e-05,0.0082095,-0.5365,0.011858,0.024384,4.6774e-07,0.71,0.07,0
0.035889,0.010834,0.027426,-3.4562e-05,0.0082174,-0.00024839,0,0,0.049942,-0.021455,0,-0.0012916,0,0,0,0.027428,-3.6809e-05,0.0082174,-0.51821,0.011869,0.024408,4.6909e-07,0.72,0.07,0
0.036389,0.010834,0.027452,-3.4824e-05,0.008225,-0.00023976,0,0,0.049989,-0.021476,0,-0.0012467,0,0,0,0.027453,-3.6916e-05,0.008225,-0.49973,0.011881,0.024431,4.704e-07,0.73,0.07,0
0.036889,0.010834,0.027476,-3.5026e-05,0.0082324,-0.00023103,0,0,0.050034,-0.021495,0,-0.0012014,0,0,0,0.027478,-3.6966e-05,0.0082324,-0.48111,0.011891,0.024453,4.7167e-07,0.74,0.07,0
0.037389,0.010834,0.0275,-3.5175e-05,0.0082396,-0.00022223,0,0,0.050078,-0.021514,0,-0.0011556,0,0,0,0.027502,-3.6968e-05,0.0082396,-0.46237,0.011902,0.024474,4.729e-07,0.75,0.07,0
0.037891,0.010833,0.027524,-3.5275e-05,0.0082465,-0.00021337,0,0,0.05012,-0.021533,0,-0.0011095,0,0,0,0.027525,-3.6927e-05,0.0082465,-0.44356,0.011912,0.024494,4.7409e-07,0.76,0.07,0
0.038392,0.010832,0.027546,-3.5334e-05,0.0082532,-0.00020445,0,0,0.050161,-0.02155,0,-0.0010631,0,0,0,0.027547,-3.6849e-05,0.0082532,-0.42469,0.011921,0.024514,4.7524e-07,0.77,0.07,0
0.038894,0.010831,0.027567,-3.5355e-05,0.0082596,-0.0001955,0,0,0.0502,-0.021567,0,-0.0010166,0,0,0,0.027569,-3.674e-05,0.0082596,-0.40578,0.011931,0.024533,4.7634e-07,0.78,0.07,0
0.039396,0.010829,0.027588,-3.5345e-05,0.0082658,-0.00018652,0,0,0.050238,-0.021583,0,-0.00096993,0,0,0,0.027589,-3.6604e-05,0.0082658,-0.38686,0.01194,0.024551,4.774e-07,0.79,0.07,0
0.039899,0.010828,0.027608,-3.5307e-05,0.0082717,-0.00017753,0,0,0.050273,-0.021598,0,-0.00092317,0,0,0,0.027609,-3.6447e-05,0.0082717,-0.36795,0.011948,0.024568,4.7841e-07,0.8,0.07,0
0.040401,0.010826,0.027626,-3.5246e-05,0.0082773,-0.00016853,0,0,0.050307,-0.021613,0,-0.00087635,0,0,0,0.027627,-3.6273e-05,0.0082773,-0.34906,0.011956,0.024585,4.7938e-07,0.81,0.07,0
0.040905,0.010824,0.027644,-3.5165e-05,0.0082827,-0.00015953,0,0,0.05034,-0.021626,0,-0.00082953,0,0,0,0.027645,-3.6085e-05,0.0082827,-0.3302,0.011964,0.0246,4.803e-07,0.82,0.07,0
0.041408,0.010823,0.027661,-3.5069e-05,0.0082878,-0.00015053,0,0,0.05037,-0.021639,0,-0.00078273,0,0,0,0.027662,-3.5887e-05,0.0082878,-0.31138,0.011971,0.024615,4.8117e-07,0.83,0.07,0
0.041912,0.010821,0.027677,-3.4961e-05,0.0082926,-0.00014153,0,0,0.050399,-0.021652,0,-0.00073598,0,0,0,0.027678,-3.5684e-05,0.0082926,-0.29262,0.011978,0.024629,4.8199e-07,0.84,0.07,0
0.042416,0.010819,0.027692,-3.4845e-05,0.0082972,-0.00013255,0,0,0.050427,-0.021663,0,-0.00068928,0,0,0,0.027693,-3.5478e-05,0.0082972,-0.27391,0.011985,0.024642,4.8277e-07,0.85,0.07,0
0.042921,0.010817,0.027706,-3.4722e-05,0.0083014,-0.00012359,0,0,0.050452,-0.021674,0,-0.00064268,0,0,0,0.027707,-3.5273e-05,0.0083014,-0.25526,0.011991,0.024654,4.8349e-07,0.86,0.07,0
0.043425,0.010815,0.027719,-3.4597e-05,0.0083054,-0.00011465,0,0,0.050476,-0.021684,0,-0.00059616,0,0,0,0.02772,-3.507e-05,0.0083054,-0.23667,0.011997,0.024666,4.8417e-07,0.87,0.07,0
0.04393,0.010813,0.027731,-3.4471e-05,0.0083091,-0.00010572,0,0,0.050498,-0.021693,0,-0.00054975,0,0,0,0.027732,-3.4873e-05,0.0083091,-0.21815,0.012002,0.024676,4.848e-07,0.88,0.07,0
0.044435,0.010812,0.027742,-3.4347e-05,0.0083125,-9.6816e-05,0,0,0.050518,-0.021702,0,-0.00050344,0,0,0,0.027743,-3.4684e-05,0.0083125,-0.1997,0.012007,0.024686,4.8538e-07,0.89,0.07,0
0.04494,0.01081,0.027753,-3.4227e-05,0.0083155,-8.7932e-05,0,0,0.050537,-0.021709,0,-0.00045725,0,0,0,0.027753,-3.4505e-05,0.0083155,-0.18131,0.012011,0.024695,4.8591e-07,0.9,0.07,0
0.045446,0.010809,0.027762,-3.4112e-05,0.0083184,-7.9069e-05,0,0,0.050553,-0.021716,0,-0.00041116,0,0,0,0.027762,-3.4337e-05,0.0083184,-0.16298,0.012015,0.024703,4.8639e-07,0.91,0.07,0
0.045951,0.010807,0.02777,-3.4005e-05,0.0083209,-7.0226e-05,0,0,0.050568,-0.021723,0,-0.00036518,0,0,0,0.02777,-3.4183e-05,0.0083209,-0.14471,0.012019,0.02471,4.8682e-07,0.92,0.07,0
0.046457,0.010806,0.027778,-3.3908e-05,0.0083231,-6.1403e-05,0,0,0.050582,-0.021728,0,-0.00031929,0,0,0,0.027778,-3.4043e-05,0.0083231,-0.1265,0.012022,0.024717,4.872e-07,0.93,0.07,0
0.046963,0.010805,0.027784,-3.382e-05,0.008325,-5.2596e-05,0,0,0.050593,-0.021733,0,-0.0002735,0,0,0,0.027784,-3.392e-05,0.008325,-0.10833,0.012025,0.024722,4.8753e-07,0.94,0.07,0
0.047469,0.010804,0.027789,-3.3745e-05,0.0083266,-4.3805e-05,0,0,0.050603,-0.021737,0,-0.00022779,0,0,0,0.027789,-3.3814e-05,0.0083266,-0.090207,0.012027,0.024727,4.8781e-07,0.95,0.07,0
0.047975,0.010803,0.027794,-3.3681e-05,0.008328,-3.5027e-05,0,0,0.050611,-0.02174,0,-0.00018214,0,0,0,0.027794,-3.3725e-05,0.008328,-0.07212,0.012029,0.02473,4.8803e-07,0.96,0.07,0
0.048481,0.010803,0.027797,-3.3631e-05,0.008329,-2.6261e-05,0,0,0.050617,-0.021743,0,-0.00013656,0,0,0,0.027797,-3.3656e-05,0.008329,-0.054063,0.012031,0.024733,4.8821e-07,0.97,0.07,0
0.048988,0.010802,0.0278,-3.3595e-05,0.0083298,-1.7502e-05,0,0,0.050621,-0.021745,0,-9.1012e-05,0,0,0,0.0278,-3.3606e-05,0.0083298,-0.036029,0.012032,0.024736,4.8834e-07,0.98,0.07,0
0.049494,0.010802,0.027801,-3.3573e-05,0.0083302,-8.7497e-06,0,0,0.050624,-0.021746,0,-4.5499e-05,0,0,0,0.027801,-3.3576e-05,0.0083302,-0.018011,0.012032,0.024737,4.8841e-07,0.99,0.07,0
0.05,0.010802,0.027801,-3.3566e-05,0.0083304,-1.6781e-06,0,0,0.050625,-0.021746,0,-8.7263e-06,0,0,0,0.027801,-3.3566e-05,0.0083304,-0.0034543,0.012033,0.024737,4.8844e-07,1,0.07,0
0,0,0.03021,0.012947,0.012947,0.0083855,0,0,0.044884,6.5052e-19,0,0.043605,0,0,0,0.033613,0.0095447,0.012947,22.086,0.018702,0.02256,5.4478e-07,0,0.08,0
0.00044884,0.00043605,0.030128,0.011773,0.01257,0.008361,0,0,0.04565,-0.0020726,0,0.043477,0,0,0,0.033366,0.0085358,0.01257,21.167,0.018157,0.023079,5.6683e-07,0.01,0.08,0
0.000913,0.0008902,0.030489,0.010586,0.012323,0.008404,0,0,0.047233,-0.0045151,0,0.043701,0,0,0,0.033563,0.0075121,0.012323,20.09,0.017799,0.02401,6.1578e-07,0.02,0.08,0
0.0013935,0.0013556,0.03082,0.0093044,0.012037,0.0082657,0,0,0.048835,-0.0071056,0,0.042982,0,0,0,0.033629,0.0064956,0.012037,18.768,0.017387,0.024831,6.5619e-07,0.03,0.08,0
0.0018897,0.0018245,0.031082,0.0080344,0.011735,0.0079551,0,0,0.050302,-0.0096212,0,0.041367,0,0,0,0.033561,0.0055553,0.011735,17.309,0.01695,0.025484,6.8447e-07,0.04,0.08,0
0.0023995,0.0022897,0.031247,0.0068554,0.011431,0.0075087,0,0,0.051522,-0.011896,0,0.039045,0,0,0,0.033373,0.0047292,0.011431,15.81,0.016511,0.025951,6.998e-07,0.05,0.08,0
0.0029201,0.0027453,0.031306,0.0058111,0.011135,0.0069746,0,0,0.052444,-0.013842,0,0.036268,0,0,0,0.033089,0.0040278,0.011135,14.342,0.016084,0.02624,7.0348e-07,0.06,0.08,0
0.0034484,0.003187,0.031263,0.0049152,0.010854,0.0063986,0,0,0.053065,-0.01544,0,0.033273,0,0,0,0.032735,0.0034435,0.010854,12.953,0.015677,0.026379,6.9795e-07,0.07,0.08,0
0.0039815,0.0036121,0.031135,0.0041616,0.010589,0.0058167,0,0,0.05342,-0.016711,0,0.030247,0,0,0,0.032336,0.0029607,0.010589,11.665,0.015295,0.026401,6.8588e-07,0.08,0.08,0
0.0045168,0.0040189,0.030943,0.0035345,0.010343,0.0052532,0,0,0.053558,-0.017702,0,0.027317,0,0,0,0.031915,0.0025621,0.010343,10.487,0.01494,0.026339,6.697e-07,0.09,0.08,0
0.0050526,0.0044068,0.030705,0.0030152,0.010116,0.0047225,0,0,0.053531,-0.018462,0,0.024557,0,0,0,0.031488,0.0022319,0.010116,9.4173,0.014612,0.026219,6.513e-07,0.1,0.08,0
0.0055874,0.0047758,0.03044,0.0025855,0.0099075,0.0042315,0,0,0.053383,-0.019037,0,0.022004,0,0,0,0.031068,0.0019568,0.0099075,8.4504,0.014311,0.026062,6.3206e-07,0.11,0.08,0
0.0061203,0.0051262,0.030161,0.0022291,0.0097169,0.0037826,0,0,0.053154,-0.019468,0,0.01967,0,0,0,0.030664,0.0017259,0.0097169,7.5775,0.014036,0.025885,6.1291e-07,0.12,0.08,0
0.0066505,0.0054585,0.029878,0.0019325,0.0095432,0.0033751,0,0,0.052871,-0.019788,0,0.01755,0,0,0,0.03028,0.0015307,0.0095432,6.7897,0.013785,0.025698,5.9445e-07,0.13,0.08,0
0.0071777,0.0057734,0.0296,0.0016844,0.0093854,0.0030065,0,0,0.052559,-0.020022,0,0.015634,0,0,0,0.02992,0.0013643,0.0093854,6.0779,0.013557,0.02551,5.7703e-07,0.14,0.08,0
0.0077017,0.0060716,0.029331,0.0014757,0.0092421,0.0026739,0,0,0.052232,-0.020193,0,0.013905,0,0,0,0.029586,0.0012213,0.0092421,5.4339,0.01335,0.025325,5.6082e-07,0.15,0.08,0
0.0082223,0.0063541,0.029075,0.0012991,0.0091122,0.002374,0,0,0.051903,-0.020314,0,0.012345,0,0,0,0.029276,0.0010976,0.0091122,4.8503,0.013162,0.025148,5.459e-07,0.16,0.08,0
0.0087397,0.0066214,0.028833,0.0011487,0.0089945,0.0021036,0,0,0.05158,-0.020399,0,0.010939,0,0,0,0.028992,0.00098978,0.0089945,4.3206,0.012992,0.024981,5.3228e-07,0.17,0.08,0
0.009254,0.0068744,0.028607,0.0010199,0.0088881,0.0018595,0,0,0.051269,-0.020457,0,0.0096696,0,0,0,0.028732,0.00089508,0.0088881,3.8389,0.012838,0.024825,5.1991e-07,0.18,0.08,0
0.0097651,0.0071137,0.028397,0.00090878,0.0087918,0.0016391,0,0,0.050974,-0.020496,0,0.0085232,0,0,0,0.028495,0.0008114,0.0087918,3.4003,0.012699,0.024681,5.0873e-07,0.19,0.08,0
0.010273,0.00734,0.028204,0.00081244,0.0087048,0.0014397,0,0,0.050697,-0.02052,0,0.0074862,0,0,0,0.028279,0.00073698,0.0087048,3.0004,0.012574,0.024548,4.9867e-07,0.2,0.08,0
0.010779,0.007554,0.028026,0.00072838,0.0086263,0.0012591,0,0,0.050439,-0.020535,0,0.0065473,0,0,0,0.028084,0.00067043,0.0086263,2.6353,0.01246,0.024427,4.8965e-07,0.21,0.08,0
0.011282,0.0077563,0.027863,0.00065463,0.0085554,0.0010954,0,0,0.050201,-0.020542,0,0.0056961,0,0,0,0.027907,0.00061061,0.0085554,2.3017,0.012358,0.024318,4.8159e-07,0.22,0.08,0
0.011783,0.0079475,0.027716,0.00058958,0.0084916,0.00094683,0,0,0.049983,-0.020545,0,0.0049235,0,0,0,0.027749,0.00055657,0.0084916,1.9966,0.012266,0.02422,4.7441e-07,0.23,0.08,0
0.012282,0.008128,0.027582,0.00053191,0.0084342,0.00081187,0,0,0.049785,-0.020546,0,0.0042217,0,0,0,0.027606,0.00050756,0.0084342,1.7176,0.012183,0.024133,4.6803e-07,0.24,0.08,0
0.012779,0.0082984,0.027462,0.00048052,0.0083826,0.00068916,0,0,0.049605,-0.020546,0,0.0035836,0,0,0,0.027479,0.00046293,0.0083826,1.4622,0.012108,0.024055,4.6239e-07,0.25,0.08,0
0.013274,0.0084593,0.027353,0.00043454,0.0083364,0.00057754,0,0,0.049444,-0.020545,0,0.0030032,0,0,0,0.027366,0.00042216,0.0083364,1.2285,0.012042,0.023987,4.5743e-07,0.26,0.08,0
0.013768,0.008611,0.027257,0.00039322,0.0082951,0.00047596,0,0,0.049301,-0.020545,0,0.002475,0,0,0,0.027265,0.00038479,0.0082951,1.0147,0.011982,0.023927,4.5307e-07,0.27,0.08,0
0.01426,0.008754,0.027171,0.00035595,0.0082582,0.00038351,0,0,0.049174,-0.020546,0,0.0019942,0,0,0,0.027177,0.00035046,0.0082582,0.8192,0.011928,0.023876,4.4929e-07,0.28,0.08,0
0.014751,0.0088888,0.027096,0.0003222,0.0082255,0.00029936,0,0,0.049063,-0.020549,0,0.0015566,0,0,0,0.027099,0.00031885,0.0082255,0.64051,0.011881,0.023832,4.4601e-07,0.29,0.08,0
0.015241,0.0090156,0.02703,0.00029155,0.0081965,0.00022279,0,0,0.048967,-0.020553,0,0.0011585,0,0,0,0.027032,0.00028969,0.0081965,0.47735,0.011839,0.023795,4.432e-07,0.3,0.08,0
0.015731,0.009135,0.026973,0.00026363,0.0081709,0.00015315,0,0,0.048885,-0.020559,0,0.0007964,0,0,0,0.026974,0.00026275,0.0081709,0.32853,0.011802,0.023765,4.4082e-07,0.31,0.08,0
0.016219,0.0092472,0.026924,0.00023813,0.0081485,8.9879e-05,0,0,0.048815,-0.020567,0,0.00046737,0,0,0,0.026924,0.00023783,0.0081485,0.19297,0.01177,0.023741,4.3883e-07,0.32,0.08,0
0.016707,0.0093526,0.026882,0.00021478,0.0081291,3.2443e-05,0,0,0.048758,-0.020577,0,0.0001687,0,0,0,0.026882,0.00021474,0.0081291,0.069705,0.011742,0.023722,4.3719e-07,0.33,0.08,0
0.017194,0.0094516,0.026847,0.00019337,0.0081122,-1.9623e-05,0,0,0.048711,-0.020589,0,-0.00010204,0,0,0,0.026847,0.00019335,0.0081122,-0.042181,0.011718,0.023708,4.3588e-07,0.34,0.08,0
0.017681,0.0095444,0.026819,0.00017369,0.0080979,-6.674e-05,0,0,0.048676,-0.020603,0,-0.00034705,0,0,0,0.026819,0.00017352,0.0080979,-0.14351,0.011697,0.023699,4.3486e-07,0.35,0.08,0
0.018168,0.0096314,0.026797,0.00015557,0.0080858,-0.00010929,0,0,0.048649,-0.020619,0,-0.00056832,0,0,0,0.026797,0.00015512,0.0080858,-0.23504,0.011679,0.023694,4.3412e-07,0.36,0.08,0
0.018654,0.0097128,0.02678,0.00013888,0.0080757,-0.00014763,0,0,0.048632,-0.020636,0,-0.00076768,0,0,0,0.026781,0.00013806,0.0080757,-0.31749,0.011665,0.023693,4.3362e-07,0.37,0.08,0
0.01914,0.0097889,0.026768,0.00012348,0.0080675,-0.00018207,0,0,0.048622,-0.020655,0,-0.00094677,0,0,0,0.02677,0.00012223,0.0080675,-0.39149,0.011653,0.023696,4.3334e-07,0.38,0.08,0
0.019627,0.0098601,0.026761,0.00010925,0.0080611,-0.00021291,0,0,0.04862,-0.020675,0,-0.0011071,0,0,0,0.026763,0.00010755,0.0080611,-0.45767,0.011644,0.023701,4.3327e-07,0.39,0.08,0
0.020113,0.0099264,0.026758,9.6113e-05,0.0080562,-0.00024041,0,0,0.048625,-0.020696,0,-0.0012501,0,0,0,0.02676,9.3945e-05,0.0080562,-0.51657,0.011637,0.02371,4.3338e-07,0.4,0.08,0
0.020599,0.0099883,0.026759,8.3966e-05,0.0080528,-0.00026482,0,0,0.048636,-0.020719,0,-0.001377,0,0,0,0.026761,8.1337e-05,0.0080528,-0.56873,0.011632,0.023721,4.3367e-07,0.41,0.08,0
0.021085,0.010046,0.026763,7.2734e-05,0.0080507,-0.00028636,0,0,0.048652,-0.020743,0,-0.0014891,0,0,0,0.026766,6.9662e-05,0.0080507,-0.61463,0.011629,0.023735,4.341e-07,0.42,0.08,0
0.021572,0.010099,0.02677,6.2348e-05,0.0080499,-0.00030525,0,0,0.048674,-0.020768,0,-0.0015873,0,0,0,0.026774,5.886e-05,0.0080499,-0.65473,0.011628,0.02375,4.3467e-07,0.43,0.08,0
0.022059,0.010149,0.026781,5.2745e-05,0.0080501,-0.00032169,0,0,0.0487,-0.020793,0,-0.0016728,0,0,0,0.026785,4.8873e-05,0.0080501,-0.68946,0.011628,0.023768,4.3537e-07,0.44,0.08,0
0.022546,0.010195,0.026794,4.3867e-05,0.0080513,-0.00033585,0,0,0.04873,-0.020819,0,-0.0017464,0,0,0,0.026798,3.9651e-05,0.0080513,-0.7192,0.01163,0.023787,4.3617e-07,0.45,0.08,0
0.023033,0.010238,0.026809,3.5664e-05,0.0080534,-0.00034789,0,0,0.048764,-0.020846,0,-0.001809,0,0,0,0.026813,3.1144e-05,0.0080534,-0.74434,0.011633,0.023807,4.3708e-07,0.46,0.08,0
0.023521,0.010277,0.026826,2.8088e-05,0.0080563,-0.00035799,0,0,0.048802,-0.020873,0,-0.0018615,0,0,0,0.026831,2.3307e-05,0.0080563,-0.76521,0.011637,0.023829,4.3808e-07,0.47,0.08,0
0.024009,0.010313,0.026845,2.1097e-05,0.0080599,-0.00036627,0,0,0.048842,-0.020901,0,-0.0019046,0,0,0,0.02685,1.6096e-05,0.0080599,-0.78215,0.011642,0.023852,4.3915e-07,0.48,0.08,0
0.024498,0.010347,0.026866,1.465e-05,0.0080642,-0.00037289,0,0,0.048885,-0.020929,0,-0.001939,0,0,0,0.026871,9.4723e-06,0.0080642,-0.79546,0.011648,0.023876,4.403e-07,0.49,0.08,0
0.024987,0.010377,0.026888,8.7106e-06,0.0080691,-0.00037796,0,0,0.04893,-0.020957,0,-0.0019654,0,0,0,0.026894,3.3972e-06,0.0080691,-0.80543,0.011655,0.023901,4.4151e-07,0.5,0.08,0
0.025477,0.010405,0.026912,3.2459e-06,0.0080745,-0.0003816,0,0,0.048977,-0.020985,0,-0.0019843,0,0,0,0.026917,-2.1646e-06,0.0080745,-0.81231,0.011663,0.023926,4.4276e-07,0.51,0.08,0
0.025967,0.010431,0.026936,-1.7759e-06,0.0080804,-0.00038392,0,0,0.049025,-0.021014,0,-0.0019964,0,0,0,0.026942,-7.2465e-06,0.0080804,-0.81636,0.011672,0.023952,4.4407e-07,0.52,0.08,0
0.026457,0.010455,0.026962,-6.384e-06,0.0080866,-0.00038503,0,0,0.049075,-0.021042,0,-0.0020022,0,0,0,0.026967,-1.188e-05,0.0080866,-0.81781,0.011681,0.023978,4.4541e-07,0.53,0.08,0
0.026948,0.010476,0.026988,-1.0606e-05,0.0080932,-0.00038503,0,0,0.049126,-0.02107,0,-0.0020021,0,0,0,0.026993,-1.6095e-05,0.0080932,-0.81688,0.01169,0.024005,4.4679e-07,0.54,0.08,0
0.02744,0.010495,0.027015,-1.4466e-05,0.0081001,-0.000384,0,0,0.049178,-0.021098,0,-0.0019968,0,0,0,0.02702,-1.9921e-05,0.0081001,-0.81377,0.0117,0.024032,4.4819e-07,0.55,0.08,0
0.027932,0.010512,0.027042,-1.799e-05,0.0081072,-0.00038203,0,0,0.049231,-0.021126,0,-0.0019865,0,0,0,0.027047,-2.3382e-05,0.0081072,-0.80867,0.011711,0.024059,4.4961e-07,0.56,0.08,0
0.028424,0.010528,0.02707,-2.1199e-05,0.0081146,-0.00037919,0,0,0.049284,-0.021153,0,-0.0019718,0,0,0,0.027075,-2.6505e-05,0.0081146,-0.80175,0.011721,0.024086,4.5104e-07,0.57,0.08,0
0.028917,0.010542,0.027098,-2.4114e-05,0.0081221,-0.00037557,0,0,0.049337,-0.02118,0,-0.0019529,0,0,0,0.027103,-2.9314e-05,0.0081221,-0.79319,0.011732,0.024113,4.5249e-07,0.58,0.08,0
0.029411,0.010554,0.027126,-2.6756e-05,0.0081298,-0.00037122,0,0,0.04939,-0.021207,0,-0.0019304,0,0,0,0.027131,-3.183e-05,0.0081298,-0.78313,0.011743,0.02414,4.5394e-07,0.59,0.08,0
0.029905,0.010565,0.027154,-2.9143e-05,0.0081375,-0.00036622,0,0,0.049443,-0.021233,0,-0.0019043,0,0,0,0.027159,-3.4076e-05,0.0081375,-0.77172,0.011754,0.024167,4.5539e-07,0.6,0.08,0
0.0304,0.010575,0.027182,-3.1292e-05,0.0081454,-0.00036062,0,0,0.049496,-0.021259,0,-0.0018752,0,0,0,0.027187,-3.607e-05,0.0081454,-0.75908,0.011765,0.024193,4.5683e-07,0.61,0.08,0
0.030895,0.010584,0.02721,-3.3221e-05,0.0081532,-0.00035449,0,0,0.049549,-0.021285,0,-0.0018433,0,0,0,0.027215,-3.7833e-05,0.0081532,-0.74535,0.011777,0.02422,4.5828e-07,0.62,0.08,0
0.031391,0.010591,0.027238,-3.4945e-05,0.0081611,-0.00034786,0,0,0.049601,-0.02131,0,-0.0018089,0,0,0,0.027243,-3.9382e-05,0.0081611,-0.73063,0.011788,0.024245,4.5971e-07,0.63,0.08,0
0.031887,0.010597,0.027266,-3.648e-05,0.0081689,-0.0003408,0,0,0.049653,-0.021334,0,-0.0017721,0,0,0,0.02727,-4.0733e-05,0.0081689,-0.71503,0.011799,0.024271,4.6112e-07,0.64,0.08,0
0.032384,0.010603,0.027293,-3.7839e-05,0.0081767,-0.00033334,0,0,0.049704,-0.021358,0,-0.0017334,0,0,0,0.027298,-4.1904e-05,0.0081767,-0.69865,0.011811,0.024296,4.6252e-07,0.65,0.08,0
0.032881,0.010607,0.027321,-3.9035e-05,0.0081844,-0.00032552,0,0,0.049754,-0.021381,0,-0.0016927,0,0,0,0.027324,-4.2908e-05,0.0081844,-0.68158,0.011822,0.024321,4.639e-07,0.66,0.08,0
0.033379,0.010611,0.027347,-4.0082e-05,0.0081921,-0.00031739,0,0,0.049803,-0.021404,0,-0.0016504,0,0,0,0.027351,-4.376e-05,0.0081921,-0.66389,0.011833,0.024345,4.6527e-07,0.67,0.08,0
0.033877,0.010614,0.027373,-4.099e-05,0.0081997,-0.00030899,0,0,0.049851,-0.021426,0,-0.0016067,0,0,0,0.027377,-4.4473e-05,0.0081997,-0.64567,0.011844,0.024369,4.666e-07,0.68,0.08,0
0.034376,0.010616,0.027399,-4.1773e-05,0.0082071,-0.00030033,0,0,0.049898,-0.021447,0,-0.0015617,0,0,0,0.027402,-4.506e-05,0.0082071,-0.62699,0.011855,0.024391,4.6791e-07,0.69,0.08,0
0.034875,0.010618,0.027424,-4.2439e-05,0.0082144,-0.00029146,0,0,0.049945,-0.021468,0,-0.0015156,0,0,0,0.027427,-4.5532e-05,0.0082144,-0.60791,0.011865,0.024414,4.6919e-07,0.7,0.08,0
0.035375,0.010618,0.027448,-4.3001e-05,0.0082216,-0.0002824,0,0,0.049989,-0.021488,0,-0.0014685,0,0,0,0.027451,-4.5901e-05,0.0082216,-0.58848,0.011876,0.024436,4.7044e-07,0.71,0.08,0
0.035875,0.010619,0.027472,-4.3465e-05,0.0082286,-0.00027318,0,0,0.050033,-0.021507,0,-0.0014205,0,0,0,0.027475,-4.6177e-05,0.0082286,-0.56876,0.011886,0.024457,4.7166e-07,0.72,0.08,0
0.036376,0.010619,0.027495,-4.3843e-05,0.0082354,-0.00026381,0,0,0.050076,-0.021526,0,-0.0013718,0,0,0,0.027498,-4.637e-05,0.0082354,-0.54881,0.011896,0.024478,4.7285e-07,0.73,0.08,0
0.036877,0.010619,0.027518,-4.4143e-05,0.0082421,-0.00025433,0,0,0.050117,-0.021544,0,-0.0013225,0,0,0,0.02752,-4.6489e-05,0.0082421,-0.52865,0.011905,0.024497,4.74e-07,0.74,0.08,0
0.037378,0.010618,0.02754,-4.4371e-05,0.0082485,-0.00024475,0,0,0.050156,-0.021562,0,-0.0012727,0,0,0,0.027542,-4.6543e-05,0.0082485,-0.50833,0.011914,0.024517,4.7512e-07,0.75,0.08,0
0.03788,0.010617,0.027561,-4.4537e-05,0.0082548,-0.00023509,0,0,0.050195,-0.021578,0,-0.0012224,0,0,0,0.027563,-4.6539e-05,0.0082548,-0.48789,0.011924,0.024535,4.762e-07,0.76,0.08,0
0.038382,0.010616,0.027581,-4.4647e-05,0.0082608,-0.00022535,0,0,0.050232,-0.021594,0,-0.0011719,0,0,0,0.027583,-4.6485e-05,0.0082608,-0.46735,0.011932,0.024553,4.7724e-07,0.77,0.08,0
0.038884,0.010615,0.0276,-4.4708e-05,0.0082667,-0.00021557,0,0,0.050267,-0.02161,0,-0.001121,0,0,0,0.027602,-4.6389e-05,0.0082667,-0.44675,0.011941,0.02457,4.7824e-07,0.78,0.08,0
0.039387,0.010613,0.027619,-4.4726e-05,0.0082723,-0.00020575,0,0,0.050301,-0.021624,0,-0.0010699,0,0,0,0.02762,-4.6256e-05,0.0082723,-0.4261,0.011949,0.024587,4.792e-07,0.79,0.08,0
0.03989,0.010612,0.027637,-4.4707e-05,0.0082776,-0.00019589,0,0,0.050334,-0.021638,0,-0.0010186,0,0,0,0.027638,-4.6093e-05,0.0082776,-0.40543,0.011957,0.024602,4.8012e-07,0.8,0.08,0
0.040394,0.01061,0.027654,-4.4657e-05,0.0082828,-0.00018602,0,0,0.050365,-0.021651,0,-0.00096729,0,0,0,0.027655,-4.5906e-05,0.0082828,-0.38476,0.011964,0.024617,4.81e-07,0.81,0.08,0
0.040898,0.010608,0.02767,-4.458e-05,0.0082877,-0.00017613,0,0,0.050395,-0.021664,0,-0.00091588,0,0,0,0.027671,-4.5699e-05,0.0082877,-0.3641,0.011971,0.024631,4.8184e-07,0.82,0.08,0
0.041402,0.010606,0.027686,-4.4482e-05,0.0082923,-0.00016624,0,0,0.050423,-0.021676,0,-0.00086445,0,0,0,0.027687,-4.5479e-05,0.0082923,-0.34347,0.011978,0.024645,4.8264e-07,0.83,0.08,0
0.041906,0.010604,0.0277,-4.4367e-05,0.0082967,-0.00015635,0,0,0.050449,-0.021687,0,-0.00081303,0,0,0,0.027701,-4.5248e-05,0.0082967,-0.32287,0.011984,0.024657,4.8339e-07,0.84,0.08,0
0.042411,0.010602,0.027714,-4.4239e-05,0.0083009,-0.00014647,0,0,0.050474,-0.021697,0,-0.00076163,0,0,0,0.027715,-4.5012e-05,0.0083009,-0.30232,0.01199,0.024669,4.841e-07,0.85,0.08,0
0.042916,0.0106,0.027727,-4.4103e-05,0.0083048,-0.00013659,0,0,0.050497,-0.021707,0,-0.00071029,0,0,0,0.027727,-4.4775e-05,0.0083048,-0.28181,0.011996,0.02468,4.8476e-07,0.86,0.08,0
0.043421,0.010598,0.027739,-4.3961e-05,0.0083084,-0.00012673,0,0,0.050519,-0.021716,0,-0.00065902,0,0,0,0.027739,-4.4539e-05,0.0083084,-0.26136,0.012001,0.024691,4.8538e-07,0.87,0.08,0
0.043926,0.010596,0.02775,-4.3817e-05,0.0083118,-0.00011689,0,0,0.050539,-0.021725,0,-0.00060784,0,0,0,0.02775,-4.4308e-05,0.0083118,-0.24096,0.012006,0.0247,4.8595e-07,0.88,0.08,0
0.044431,0.010595,0.02776,-4.3673e-05,0.0083149,-0.00010707,0,0,0.050557,-0.021732,0,-0.00055674,0,0,0,0.027761,-4.4086e-05,0.0083149,-0.22063,0.01201,0.024709,4.8648e-07,0.89,0.08,0
0.044937,0.010593,0.027769,-4.3534e-05,0.0083178,-9.7256e-05,0,0,0.050574,-0.021739,0,-0.00050573,0,0,0,0.02777,-4.3874e-05,0.0083178,-0.20035,0.012015,0.024717,4.8697e-07,0.9,0.08,0
0.045443,0.010591,0.027778,-4.34e-05,0.0083204,-8.7466e-05,0,0,0.05059,-0.021746,0,-0.00045483,0,0,0,0.027778,-4.3675e-05,0.0083204,-0.18013,0.012018,0.024725,4.8741e-07,0.91,0.08,0
0.045949,0.01059,0.027786,-4.3275e-05,0.0083227,-7.7694e-05,0,0,0.050603,-0.021751,0,-0.00040401,0,0,0,0.027786,-4.3492e-05,0.0083227,-0.15996,0.012022,0.024731,4.878e-07,0.92,0.08,0
0.046455,0.010589,0.027792,-4.316e-05,0.0083247,-6.794e-05,0,0,0.050616,-0.021757,0,-0.00035329,0,0,0,0.027792,-4.3326e-05,0.0083247,-0.13984,0.012025,0.024737,4.8815e-07,0.93,0.08,0
0.046961,0.010588,0.027798,-4.3057e-05,0.0083265,-5.8201e-05,0,0,0.050626,-0.021761,0,-0.00030265,0,0,0,0.027798,-4.3179e-05,0.0083265,-0.11978,0.012027,0.024742,4.8845e-07,0.94,0.08,0
0.047468,0.010587,0.027803,-4.2967e-05,0.008328,-4.8477e-05,0,0,0.050635,-0.021764,0,-0.00025208,0,0,0,0.027803,-4.3051e-05,0.008328,-0.099747,0.012029,0.024746,4.887e-07,0.95,0.08,0
0.047974,0.010586,0.027807,-4.2892e-05,0.0083292,-3.8766e-05,0,0,0.050642,-0.021767,0,-0.00020158,0,0,0,0.027807,-4.2946e-05,0.0083292,-0.079754,0.012031,0.02475,4.8891e-07,0.96,0.08,0
0.04848,0.010585,0.02781,-4.2833e-05,0.0083302,-2.9065e-05,0,0,0.050648,-0.02177,0,-0.00015114,0,0,0,0.02781,-4.2863e-05,0.0083302,-0.05979,0.012032,0.024752,4.8907e-07,0.97,0.08,0
0.048987,0.010585,0.027812,-4.279e-05,0.0083309,-1.9372e-05,0,0,0.050652,-0.021771,0,-0.00010074,0,0,0,0.027812,-4.2803e-05,0.0083309,-0.039847,0.012034,0.024754,4.8919e-07,0.98,0.08,0
0.049493,0.010585,0.027814,-4.2764e-05,0.0083313,-9.6848e-06,0,0,0.050654,-0.021773,0,-5.0361e-05,0,0,0,0.027814,-4.2767e-05,0.0083313,-0.01992,0.012034,0.024755,4.8926e-07,0.99,0.08,0
0.05,0.010584,0.027814,-4.2755e-05,0.0083314,-1.7454e-06,0,0,0.050655,-0.021773,0,-9.0762e-06,0,0,0,0.027814,-4.2755e-05,0.0083314,-0.00359,0.012034,0.024756,4.8928e-07,1,0.08,0
0,0,0.029595,0.012684,0.012684,0.0080135,0,0,0.04397,2.1684e-19,0,0.04167,0,0,0,0.032789,0.0094896,0.012684,21.731,0.018321,0.021878,4.994e-07,0,0.09,0
0.0004397,0.0004167,0.029522,0.011646,0.012351,0.0079974,0,0,0.044646,-0.0018307,0,0.041586,0,0,0,0.032578,0.0085908,0.012351,20.911,0.01784,0.022346,5.1879e-07,0.01,0.09,0
0.00089292,0.00084827,0.029852,0.010623,0.012143,0.0080442,0,0,0.046045,-0.0039511,0,0.04183,0,0,0,0.032773,0.0077015,0.012143,19.959,0.017539,0.023173,5.6079e-07,0.02,0.09,0
0.0013606,0.0012896,0.030165,0.0095136,0.011904,0.0079527,0,0,0.04748,-0.006214,0,0.041354,0,0,0,0.032873,0.006806,0.011904,18.801,0.017194,0.023929,5.9744e-07,0.03,0.09,0
0.0018425,0.0017347,0.030432,0.0083921,0.011647,0.0077234,0,0,0.04884,-0.0084631,0,0.040161,0,0,0,0.032869,0.0059551,0.011647,17.513,0.016824,0.024567,6.2591e-07,0.04,0.09,0
0.0023374,0.002178,0.030629,0.0073199,0.011385,0.0073763,0,0,0.050036,-0.010568,0,0.038357,0,0,0,0.032767,0.0051818,0.011385,16.165,0.016445,0.025066,6.4497e-07,0.05,0.09,0
0.0028432,0.0026144,0.030745,0.0063379,0.011125,0.0069428,0,0,0.051013,-0.012446,0,0.036103,0,0,0,0.032582,0.0045012,0.011125,14.818,0.016069,0.025424,6.5487e-07,0.06,0.09,0
0.0033576,0.00304,0.030779,0.0054663,0.010873,0.0064565,0,0,0.051753,-0.014059,0,0.033574,0,0,0,0.03233,0.0039145,0.010873,13.514,0.015706,0.025654,6.5683e-07,0.07,0.09,0
0.0038783,0.0034518,0.030736,0.0047093,0.010634,0.0059471,0,0,0.052267,-0.015403,0,0.030925,0,0,0,0.032031,0.0034148,0.010634,12.28,0.01536,0.025776,6.5255e-07,0.08,0.09,0
0.004403,0.003848,0.030631,0.004061,0.010408,0.0054374,0,0,0.052582,-0.016501,0,0.028275,0,0,0,0.031701,0.0029914,0.010408,11.129,0.015033,0.025813,6.4374e-07,0.09,0.09,0
0.0049299,0.0042277,0.030478,0.0035104,0.010197,0.0049434,0,0,0.052732,-0.017384,0,0.025706,0,0,0,0.031356,0.0026328,0.010197,10.067,0.014728,0.025787,6.3195e-07,0.1,0.09,0
0.0054576,0.0045902,0.03029,0.0030444,0.01,0.0044748,0,0,0.052754,-0.018086,0,0.023269,0,0,0,0.031006,0.0023283,0.01,9.092,0.014445,0.025715,6.1841e-07,0.11,0.09,0
0.005985,0.0049356,0.03008,0.0026505,0.0098191,0.0040368,0,0,0.052678,-0.018638,0,0.020992,0,0,0,0.030662,0.0020688,0.0098191,8.2008,0.014183,0.025613,6.0404e-07,0.12,0.09,0
0.0065112,0.0052641,0.029857,0.0023172,0.0096522,0.0036317,0,0,0.052532,-0.019071,0,0.018885,0,0,0,0.030328,0.0018463,0.0096522,7.3875,0.013942,0.025491,5.8953e-07,0.13,0.09,0
0.0070356,0.0055761,0.029629,0.0020343,0.0094991,0.0032594,0,0,0.052339,-0.019409,0,0.016949,0,0,0,0.030009,0.0016545,0.0094991,6.6457,0.013721,0.025359,5.7532e-07,0.14,0.09,0
0.007558,0.0058722,0.029403,0.0017933,0.0093588,0.0029188,0,0,0.052114,-0.019671,0,0.015178,0,0,0,0.029708,0.0014881,0.0093588,5.9693,0.013518,0.025223,5.6171e-07,0.15,0.09,0
0.0080779,0.006153,0.029182,0.0015871,0.0092306,0.002608,0,0,0.051873,-0.019873,0,0.013562,0,0,0,0.029426,0.0013428,0.0092306,5.3519,0.013333,0.025087,5.4888e-07,0.16,0.09,0
0.0085954,0.0064191,0.028969,0.0014099,0.0091136,0.0023248,0,0,0.051624,-0.02003,0,0.012089,0,0,0,0.029164,0.0012151,0.0091136,4.7882,0.013164,0.024955,5.3692e-07,0.17,0.09,0
0.0091104,0.0066712,0.028767,0.0012568,0.009007,0.0020669,0,0,0.051375,-0.02015,0,0.010748,0,0,0,0.028921,0.0011023,0.009007,4.2728,0.01301,0.024829,5.2587e-07,0.18,0.09,0
0.0096229,0.0069098,0.028576,0.0011238,0.0089098,0.0018321,0,0,0.051131,-0.020244,0,0.0095269,0,0,0,0.028697,0.0010021,0.0089098,3.8014,0.01287,0.024709,5.1573e-07,0.19,0.09,0
0.010133,0.0071357,0.028397,0.0010078,0.0088214,0.0016183,0,0,0.050896,-0.020316,0,0.0084151,0,0,0,0.028492,0.00091248,0.0088214,3.3697,0.012742,0.024598,5.0649e-07,0.2,0.09,0
0.010641,0.0073494,0.028231,0.00090596,0.0087411,0.0014235,0,0,0.050674,-0.020371,0,0.0074024,0,0,0,0.028305,0.000832,0.0087411,2.9742,0.012626,0.024495,4.981e-07,0.21,0.09,0
0.011147,0.0075514,0.028077,0.0008162,0.0086681,0.001246,0,0,0.050464,-0.020415,0,0.0064794,0,0,0,0.028134,0.00075936,0.0086681,2.6116,0.012521,0.024401,4.9052e-07,0.22,0.09,0
0.01165,0.0077424,0.027936,0.00073669,0.0086018,0.0010842,0,0,0.050269,-0.020449,0,0.0056378,0,0,0,0.027979,0.00069354,0.0086018,2.279,0.012425,0.024316,4.8369e-07,0.23,0.09,0
0.012152,0.0079227,0.027807,0.00066592,0.0085419,0.00093655,0,0,0.050089,-0.020477,0,0.0048701,0,0,0,0.027839,0.00063364,0.0085419,1.974,0.012338,0.024239,4.7758e-07,0.24,0.09,0
0.012652,0.0080931,0.027689,0.00060268,0.0084876,0.00080181,0,0,0.049924,-0.020501,0,0.0041694,0,0,0,0.027713,0.00057896,0.0084876,1.6941,0.01226,0.02417,4.7212e-07,0.25,0.09,0
0.01315,0.0082539,0.027582,0.00054592,0.0084385,0.00067883,0,0,0.049774,-0.020521,0,0.0035299,0,0,0,0.0276,0.00052889,0.0084385,1.4374,0.012189,0.024109,4.6727e-07,0.26,0.09,0
0.013647,0.0084055,0.027486,0.00049478,0.0083943,0.00056656,0,0,0.049639,-0.020539,0,0.0029461,0,0,0,0.027498,0.0004829,0.0083943,1.202,0.012125,0.024056,4.6298e-07,0.27,0.09,0
0.014143,0.0085484,0.0274,0.00044855,0.0083545,0.00046407,0,0,0.049518,-0.020556,0,0.0024132,0,0,0,0.027408,0.00044056,0.0083545,0.98618,0.012068,0.024009,4.592e-07,0.28,0.09,0
0.014638,0.0086831,0.027323,0.00040662,0.0083188,0.00037054,0,0,0.04941,-0.020572,0,0.0019268,0,0,0,0.027328,0.00040152,0.0083188,0.78856,0.012016,0.023969,4.559e-07,0.29,0.09,0
0.015131,0.0088098,0.027255,0.00036846,0.0082869,0.00028522,0,0,0.049316,-0.020588,0,0.0014831,0,0,0,0.027258,0.00036544,0.0082869,0.60773,0.01197,0.023935,4.5304e-07,0.3,0.09,0
0.015624,0.0089291,0.027194,0.00033366,0.0082584,0.00020744,0,0,0.049233,-0.020604,0,0.0010787,0,0,0,0.027196,0.00033205,0.0082584,0.44244,0.011929,0.023907,4.5057e-07,0.31,0.09,0
0.016116,0.0090412,0.027142,0.00030182,0.0082331,0.00013658,0,0,0.049163,-0.020621,0,0.00071023,0,0,0,0.027142,0.00030113,0.0082331,0.29156,0.011892,0.023884,4.4848e-07,0.32,0.09,0
0.016607,0.0091465,0.027096,0.00027265,0.0082107,7.2117e-05,0,0,0.049103,-0.020639,0,0.00037501,0,0,0,0.027096,0.00027246,0.0082107,0.15404,0.01186,0.023866,4.4672e-07,0.33,0.09,0
0.017098,0.0092453,0.027058,0.00024586,0.008191,1.3539e-05,0,0,0.049053,-0.020657,0,7.0404e-05,0,0,0,0.027058,0.00024585,0.008191,0.028933,0.011832,0.023853,4.4527e-07,0.34,0.09,0
0.017588,0.0093379,0.027025,0.00022121,0.0081738,-3.96e-05,0,0,0.049013,-0.020677,0,-0.00020592,0,0,0,0.027025,0.00022115,0.0081738,-0.084649,0.011807,0.023844,4.441e-07,0.35,0.09,0
0.018078,0.0094247,0.026998,0.00019851,0.0081589,-8.7711e-05,0,0,0.048981,-0.020697,0,-0.0004561,0,0,0,0.026998,0.00019822,0.0081589,-0.18752,0.011785,0.023838,4.432e-07,0.36,0.09,0
0.018568,0.009506,0.026976,0.00017757,0.0081461,-0.00013117,0,0,0.048958,-0.020718,0,-0.00068209,0,0,0,0.026977,0.00017693,0.0081461,-0.28044,0.011767,0.023836,4.4253e-07,0.37,0.09,0
0.019058,0.0095819,0.026959,0.00015824,0.0081353,-0.00017032,0,0,0.048943,-0.02074,0,-0.00088568,0,0,0,0.02696,0.00015716,0.0081353,-0.3641,0.011751,0.023838,4.4207e-07,0.38,0.09,0
0.019547,0.0096528,0.026947,0.00014038,0.0081262,-0.00020548,0,0,0.048934,-0.020763,0,-0.0010685,0,0,0,0.026949,0.0001388,0.0081262,-0.43916,0.011738,0.023842,4.4182e-07,0.39,0.09,0
0.020036,0.009719,0.026939,0.00012386,0.0081188,-0.00023695,0,0,0.048932,-0.020787,0,-0.0012321,0,0,0,0.026941,0.00012177,0.0081188,-0.50623,0.011727,0.023848,4.4174e-07,0.4,0.09,0
0.020525,0.0097806,0.026934,0.00010859,0.0081129,-0.00026498,0,0,0.048936,-0.020811,0,-0.0013779,0,0,0,0.026937,0.00010597,0.0081129,-0.56588,0.011719,0.023858,4.4183e-07,0.41,0.09,0
0.021015,0.0098379,0.026933,9.4454e-05,0.0081084,-0.00028982,0,0,0.048945,-0.020836,0,-0.0015071,0,0,0,0.026936,9.1325e-05,0.0081084,-0.61862,0.011712,0.023869,4.4207e-07,0.42,0.09,0
0.021504,0.0098912,0.026936,8.1379e-05,0.0081051,-0.00031172,0,0,0.048959,-0.020862,0,-0.0016209,0,0,0,0.026939,7.7761e-05,0.0081051,-0.66496,0.011707,0.023882,4.4244e-07,0.43,0.09,0
0.021994,0.0099406,0.026941,6.9281e-05,0.008103,-0.00033087,0,0,0.048978,-0.020888,0,-0.0017205,0,0,0,0.026945,6.5208e-05,0.008103,-0.70535,0.011704,0.023897,4.4293e-07,0.44,0.09,0
0.022484,0.0099864,0.026948,5.8092e-05,0.0081019,-0.00034749,0,0,0.049001,-0.020914,0,-0.0018069,0,0,0,0.026953,5.3602e-05,0.0081019,-0.74023,0.011703,0.023913,4.4354e-07,0.45,0.09,0
0.022974,0.010029,0.026958,4.7746e-05,0.0081018,-0.00036174,0,0,0.049027,-0.020941,0,-0.0018811,0,0,0,0.026963,4.2884e-05,0.0081018,-0.77001,0.011703,0.023931,4.4424e-07,0.46,0.09,0
0.023464,0.010068,0.026971,3.8185e-05,0.0081026,-0.00037382,0,0,0.049057,-0.020968,0,-0.0019439,0,0,0,0.026976,3.2997e-05,0.0081026,-0.79506,0.011704,0.02395,4.4503e-07,0.47,0.09,0
0.023955,0.010104,0.026985,2.9356e-05,0.0081042,-0.00038387,0,0,0.049089,-0.020994,0,-0.0019961,0,0,0,0.02699,2.389e-05,0.0081042,-0.81573,0.011706,0.02397,4.4591e-07,0.48,0.09,0
0.024446,0.010137,0.027,2.1208e-05,0.0081064,-0.00039204,0,0,0.049124,-0.021022,0,-0.0020386,0,0,0,0.027006,1.5512e-05,0.0081064,-0.83235,0.011709,0.023991,4.4685e-07,0.49,0.09,0
0.024938,0.010167,0.027018,1.3697e-05,0.0081094,-0.00039849,0,0,0.049161,-0.021049,0,-0.0020721,0,0,0,0.027023,7.818e-06,0.0081094,-0.84525,0.011714,0.024013,4.4785e-07,0.5,0.09,0
0.02543,0.010195,0.027036,6.7804e-06,0.0081129,-0.00040333,0,0,0.049201,-0.021076,0,-0.0020973,0,0,0,0.027042,7.6328e-07,0.0081129,-0.85471,0.011719,0.024035,4.4891e-07,0.51,0.09,0
0.025922,0.010221,0.027056,4.1882e-07,0.0081169,-0.00040669,0,0,0.049242,-0.021103,0,-0.0021148,0,0,0,0.027062,-5.693e-06,0.0081169,-0.86099,0.011724,0.024058,4.5002e-07,0.52,0.09,0
0.026414,0.010244,0.027077,-5.424e-06,0.0081214,-0.00040868,0,0,0.049284,-0.02113,0,-0.0021252,0,0,0,0.027083,-1.159e-05,0.0081214,-0.86436,0.011731,0.024081,4.5117e-07,0.53,0.09,0
0.026907,0.010265,0.027099,-1.0782e-05,0.0081263,-0.00040942,0,0,0.049328,-0.021156,0,-0.002129,0,0,0,0.027105,-1.6964e-05,0.0081263,-0.86505,0.011738,0.024105,4.5235e-07,0.54,0.09,0
0.027401,0.010283,0.027121,-1.5688e-05,0.0081316,-0.000409,0,0,0.049372,-0.021183,0,-0.0021268,0,0,0,0.027127,-2.1851e-05,0.0081316,-0.86329,0.011746,0.024129,4.5356e-07,0.55,0.09,0
0.027895,0.010301,0.027144,-2.017e-05,0.0081371,-0.00040751,0,0,0.049418,-0.021209,0,-0.002119,0,0,0,0.02715,-2.6282e-05,0.0081371,-0.85928,0.011754,0.024152,4.5479e-07,0.56,0.09,0
0.028389,0.010316,0.027167,-2.4257e-05,0.0081429,-0.00040505,0,0,0.049464,-0.021235,0,-0.0021062,0,0,0,0.027173,-3.029e-05,0.0081429,-0.85322,0.011762,0.024176,4.5604e-07,0.57,0.09,0
0.028884,0.01033,0.027191,-2.7976e-05,0.008149,-0.00040169,0,0,0.04951,-0.02126,0,-0.0020888,0,0,0,0.027197,-3.3903e-05,0.008149,-0.84529,0.011771,0.0242,4.573e-07,0.58,0.09,0
0.029379,0.010342,0.027215,-3.1352e-05,0.0081552,-0.00039751,0,0,0.049557,-0.021285,0,-0.002067,0,0,0,0.027221,-3.715e-05,0.0081552,-0.83566,0.01178,0.024224,4.5857e-07,0.59,0.09,0
0.029875,0.010353,0.02724,-3.4407e-05,0.0081616,-0.00039258,0,0,0.049603,-0.02131,0,-0.0020414,0,0,0,0.027245,-4.0056e-05,0.0081616,-0.82449,0.011789,0.024248,4.5984e-07,0.6,0.09,0
0.030371,0.010362,0.027264,-3.7163e-05,0.0081681,-0.00038698,0,0,0.04965,-0.021334,0,-0.0020123,0,0,0,0.02727,-4.2647e-05,0.0081681,-0.81191,0.011798,0.024272,4.6112e-07,0.61,0.09,0
0.030868,0.01037,0.027289,-3.9642e-05,0.0081747,-0.00038075,0,0,0.049696,-0.021357,0,-0.0019799,0,0,0,0.027294,-4.4946e-05,0.0081747,-0.79807,0.011808,0.024295,4.6239e-07,0.62,0.09,0
0.031365,0.010378,0.027313,-4.1864e-05,0.0081813,-0.00037397,0,0,0.049742,-0.02138,0,-0.0019446,0,0,0,0.027318,-4.6976e-05,0.0081813,-0.7831,0.011817,0.024318,4.6366e-07,0.63,0.09,0
0.031863,0.010384,0.027337,-4.3847e-05,0.008188,-0.00036668,0,0,0.049788,-0.021403,0,-0.0019067,0,0,0,0.027342,-4.8756e-05,0.008188,-0.76711,0.011827,0.024341,4.6491e-07,0.64,0.09,0
0.032361,0.010389,0.027361,-4.5608e-05,0.0081947,-0.00035893,0,0,0.049833,-0.021425,0,-0.0018664,0,0,0,0.027366,-5.0308e-05,0.0081947,-0.7502,0.011837,0.024363,4.6616e-07,0.65,0.09,0
0.03286,0.010393,0.027385,-4.7165e-05,0.0082013,-0.00035078,0,0,0.049877,-0.021446,0,-0.001824,0,0,0,0.02739,-5.165e-05,0.0082013,-0.73249,0.011846,0.024386,4.6739e-07,0.66,0.09,0
0.033359,0.010396,0.027408,-4.8533e-05,0.008208,-0.00034225,0,0,0.049921,-0.021467,0,-0.0017797,0,0,0,0.027413,-5.2798e-05,0.008208,-0.71405,0.011856,0.024407,4.686e-07,0.67,0.09,0
0.033858,0.010399,0.027432,-4.9727e-05,0.0082146,-0.0003334,0,0,0.049964,-0.021487,0,-0.0017337,0,0,0,0.027436,-5.3771e-05,0.0082146,-0.69498,0.011865,0.024428,4.6979e-07,0.68,0.09,0
0.034358,0.010401,0.027454,-5.0761e-05,0.0082211,-0.00032427,0,0,0.050006,-0.021507,0,-0.0016862,0,0,0,0.027458,-5.4583e-05,0.0082211,-0.67535,0.011875,0.024449,4.7096e-07,0.69,0.09,0
0.034858,0.010403,0.027477,-5.1648e-05,0.0082275,-0.00031487,0,0,0.050048,-0.021526,0,-0.0016373,0,0,0,0.02748,-5.5249e-05,0.0082275,-0.65524,0.011884,0.024469,4.7211e-07,0.7,0.09,0
0.035359,0.010403,0.027498,-5.2402e-05,0.0082338,-0.00030525,0,0,0.050088,-0.021544,0,-0.0015873,0,0,0,0.027502,-5.5784e-05,0.0082338,-0.63471,0.011893,0.024489,4.7323e-07,0.71,0.09,0
0.03586,0.010404,0.02752,-5.3034e-05,0.00824,-0.00029544,0,0,0.050127,-0.021562,0,-0.0015363,0,0,0,0.027523,-5.6199e-05,0.00824,-0.61382,0.011902,0.024508,4.7432e-07,0.72,0.09,0
0.036361,0.010404,0.02754,-5.3555e-05,0.008246,-0.00028545,0,0,0.050165,-0.021579,0,-0.0014843,0,0,0,0.027543,-5.6508e-05,0.008246,-0.59262,0.011911,0.024526,4.7539e-07,0.73,0.09,0
0.036863,0.010403,0.027561,-5.3976e-05,0.0082519,-0.00027532,0,0,0.050202,-0.021595,0,-0.0014317,0,0,0,0.027563,-5.6721e-05,0.0082519,-0.57117,0.011919,0.024544,4.7642e-07,0.74,0.09,0
0.037366,0.010403,0.02758,-5.4308e-05,0.0082577,-0.00026506,0,0,0.050238,-0.021611,0,-0.0013783,0,0,0,0.027582,-5.685e-05,0.0082577,-0.54951,0.011928,0.024561,4.7743e-07,0.75,0.09,0
0.037868,0.010401,0.027599,-5.4558e-05,0.0082633,-0.0002547,0,0,0.050272,-0.021626,0,-0.0013245,0,0,0,0.027601,-5.6904e-05,0.0082633,-0.52767,0.011936,0.024578,4.784e-07,0.76,0.09,0
0.038371,0.0104,0.027617,-5.4738e-05,0.0082687,-0.00024426,0,0,0.050306,-0.021641,0,-0.0012701,0,0,0,0.027619,-5.6893e-05,0.0082687,-0.50569,0.011944,0.024594,4.7934e-07,0.77,0.09,0
0.038874,0.010398,0.027635,-5.4854e-05,0.0082739,-0.00023374,0,0,0.050338,-0.021655,0,-0.0012155,0,0,0,0.027637,-5.6827e-05,0.0082739,-0.48361,0.011951,0.024609,4.8024e-07,0.78,0.09,0
0.039378,0.010397,0.027651,-5.4914e-05,0.008279,-0.00022317,0,0,0.050369,-0.021668,0,-0.0011605,0,0,0,0.027653,-5.6712e-05,0.008279,-0.46146,0.011959,0.024624,4.8111e-07,0.79,0.09,0
0.039882,0.010395,0.027668,-5.4927e-05,0.0082838,-0.00021255,0,0,0.050398,-0.021681,0,-0.0011052,0,0,0,0.027669,-5.6556e-05,0.0082838,-0.43925,0.011966,0.024638,4.8194e-07,0.8,0.09,0
0.040386,0.010393,0.027683,-5.4899e-05,0.0082885,-0.0002019,0,0,0.050426,-0.021693,0,-0.0010499,0,0,0,0.027685,-5.6368e-05,0.0082885,-0.41701,0.011972,0.024652,4.8273e-07,0.81,0.09,0
0.04089,0.010391,0.027698,-5.4836e-05,0.0082929,-0.00019122,0,0,0.050453,-0.021704,0,-0.00099436,0,0,0,0.027699,-5.6153e-05,0.0082929,-0.39476,0.011979,0.024664,4.8349e-07,0.82,0.09,0
0.041395,0.010389,0.027712,-5.4744e-05,0.0082971,-0.00018054,0,0,0.050478,-0.021715,0,-0.00093878,0,0,0,0.027713,-5.5918e-05,0.0082971,-0.37251,0.011985,0.024677,4.8421e-07,0.83,0.09,0
0.0419,0.010387,0.027725,-5.463e-05,0.0083011,-0.00016984,0,0,0.050502,-0.021725,0,-0.00088316,0,0,0,0.027726,-5.5668e-05,0.0083011,-0.35028,0.01199,0.024688,4.8489e-07,0.84,0.09,0
0.042405,0.010385,0.027737,-5.4497e-05,0.0083049,-0.00015914,0,0,0.050525,-0.021734,0,-0.00082754,0,0,0,0.027738,-5.5409e-05,0.0083049,-0.32807,0.011996,0.024699,4.8553e-07,0.85,0.09,0
0.04291,0.010383,0.027749,-5.4352e-05,0.0083084,-0.00014845,0,0,0.050546,-0.021743,0,-0.00077193,0,0,0,0.02775,-5.5145e-05,0.0083084,-0.3059,0.012001,0.024709,4.8613e-07,0.86,0.09,0
0.043416,0.010381,0.02776,-5.4198e-05,0.0083117,-0.00013776,0,0,0.050565,-0.021751,0,-0.00071636,0,0,0,0.027761,-5.4881e-05,0.0083117,-0.28377,0.012006,0.024718,4.8669e-07,0.87,0.09,0
0.043922,0.010379,0.02777,-5.404e-05,0.0083148,-0.00012709,0,0,0.050584,-0.021759,0,-0.00066084,0,0,0,0.027771,-5.4621e-05,0.0083148,-0.26169,0.01201,0.024727,4.8721e-07,0.88,0.09,0
0.044427,0.010377,0.027779,-5.3882e-05,0.0083176,-0.00011642,0,0,0.0506,-0.021766,0,-0.0006054,0,0,0,0.02778,-5.4368e-05,0.0083176,-0.23965,0.012014,0.024735,4.8769e-07,0.89,0.09,0
0.044934,0.010375,0.027788,-5.3725e-05,0.0083202,-0.00010577,0,0,0.050616,-0.021772,0,-0.00055002,0,0,0,0.027788,-5.4127e-05,0.0083202,-0.21767,0.012018,0.024742,4.8813e-07,0.9,0.09,0
0.04544,0.010374,0.027796,-5.3575e-05,0.0083226,-9.514e-05,0,0,0.05063,-0.021778,0,-0.00049473,0,0,0,0.027796,-5.39e-05,0.0083226,-0.19573,0.012022,0.024749,4.8853e-07,0.91,0.09,0
0.045946,0.010372,0.027803,-5.3434e-05,0.0083247,-8.4521e-05,0,0,0.050642,-0.021783,0,-0.00043951,0,0,0,0.027803,-5.369e-05,0.0083247,-0.17385,0.012025,0.024754,4.8889e-07,0.92,0.09,0
0.046453,0.010371,0.027809,-5.3303e-05,0.0083266,-7.3918e-05,0,0,0.050653,-0.021788,0,-0.00038437,0,0,0,0.027809,-5.3499e-05,0.0083266,-0.15201,0.012027,0.02476,4.892e-07,0.93,0.09,0
0.046959,0.01037,0.027814,-5.3186e-05,0.0083282,-6.3329e-05,0,0,0.050663,-0.021792,0,-0.00032931,0,0,0,0.027814,-5.3329e-05,0.0083282,-0.13021,0.01203,0.024764,4.8948e-07,0.94,0.09,0
0.047466,0.010369,0.027818,-5.3083e-05,0.0083296,-5.2753e-05,0,0,0.050671,-0.021795,0,-0.00027431,0,0,0,0.027818,-5.3183e-05,0.0083296,-0.10844,0.012032,0.024768,4.8971e-07,0.95,0.09,0
0.047973,0.010368,0.027822,-5.2997e-05,0.0083307,-4.2188e-05,0,0,0.050678,-0.021798,0,-0.00021938,0,0,0,0.027822,-5.3061e-05,0.0083307,-0.086715,0.012033,0.024771,4.899e-07,0.96,0.09,0
0.048479,0.010367,0.027825,-5.2929e-05,0.0083316,-3.1632e-05,0,0,0.050683,-0.0218,0,-0.00016449,0,0,0,0.027825,-5.2965e-05,0.0083316,-0.065012,0.012035,0.024774,4.9005e-07,0.97,0.09,0
0.048986,0.010367,0.027827,-5.288e-05,0.0083322,-2.1084e-05,0,0,0.050686,-0.021801,0,-0.00010964,0,0,0,0.027827,-5.2896e-05,0.0083322,-0.04333,0.012035,0.024775,4.9015e-07,0.98,0.09,0
0.049493,0.010367,0.027828,-5.285e-05,0.0083326,-1.0541e-05,0,0,0.050688,-0.021802,0,-5.4812e-05,0,0,0,0.027828,-5.2854e-05,0.0083326,-0.021661,0.012036,0.024776,4.9021e-07,0.99,0.09,0
0.05,0.010367,0.027829,-5.284e-05,0.0083327,-1.8063e-06,0,0,0.050689,-0.021802,0,-9.3929e-06,0,0,0,0.027829,-5.284e-05,0.0083327,-0.0037119,0.012036,0.024777,4.9023e-07,1,0.09,0
0,0,0.029097,0.01247,0.01247,0.0076814,0,0,0.04323,-9.7578e-19,0,0.039943,0,0,0,0.032103,0.0094648,0.01247,21.369,0.018013,0.021295,4.6282e-07,0,0.1,0
0.0004323,0.00039943,0.029031,0.011538,0.012171,0.0076703,0,0,0.043837,-0.0016452,0,0.039886,0,0,0,0.031918,0.008651,0.012171,20.625,0.01758,0.021722,4.8014e-07,0.01,0.1,0
0.00087674,0.00081118,0.029334,0.010637,0.011992,0.0077156,0,0,0.045091,-0.0035206,0,0.040121,0,0,0,0.032107,0.0078646,0.011992,19.767,0.017321,0.022465,5.1669e-07,0.02,0.1,0
0.0013341,0.0012313,0.029628,0.0096621,0.011787,0.007653,0,0,0.046387,-0.005525,0,0.039795,0,0,0,0.032224,0.0070662,0.011787,18.737,0.017026,0.023161,5.4981e-07,0.03,0.1,0
0.0018045,0.0016552,0.029891,0.0086639,0.011566,0.0074792,0,0,0.047643,-0.0075465,0,0.038892,0,0,0,0.032261,0.0062933,0.011566,17.586,0.016707,0.023774,5.7733e-07,0.04,0.1,0
0.002287,0.0020783,0.030103,0.0076897,0.011338,0.0072051,0,0,0.04879,-0.0094852,0,0.037466,0,0,0,0.032219,0.0055733,0.011338,16.369,0.016377,0.024282,5.98e-07,0.05,0.1,0
0.0027803,0.0024964,0.030253,0.0067747,0.011109,0.0068509,0,0,0.049777,-0.011268,0,0.035625,0,0,0,0.032106,0.0049219,0.011109,15.134,0.016046,0.02468,6.1156e-07,0.06,0.1,0
0.0032825,0.0029058,0.030337,0.0059406,0.010883,0.0064407,0,0,0.05058,-0.012851,0,0.033492,0,0,0,0.031933,0.0043447,0.010883,13.917,0.01572,0.02497,6.1855e-07,0.07,0.1,0
0.0037919,0.003304,0.030357,0.0051967,0.010666,0.0059978,0,0,0.051196,-0.01422,0,0.031189,0,0,0,0.031713,0.00384,0.010666,12.745,0.015407,0.025164,6.1994e-07,0.08,0.1,0
0.0043064,0.0036889,0.030319,0.0045434,0.010459,0.0055422,0,0,0.051637,-0.01538,0,0.02882,0,0,0,0.03146,0.0034022,0.010459,11.635,0.015107,0.025279,6.169e-07,0.09,0.1,0
0.0048246,0.0040592,0.030233,0.0039757,0.010263,0.0050892,0,0,0.051924,-0.016346,0,0.026464,0,0,0,0.031185,0.0030238,0.010263,10.594,0.014824,0.02533,6.1058e-07,0.1,0.1,0
0.0053449,0.0044141,0.030111,0.0034853,0.010079,0.0046496,0,0,0.052083,-0.017143,0,0.024178,0,0,0,0.030899,0.0026967,0.010079,9.6262,0.014558,0.025331,6.0201e-07,0.11,0.1,0
0.0058662,0.0047534,0.029961,0.0030632,0.0099071,0.0042304,0,0,0.052139,-0.017794,0,0.021998,0,0,0,0.03061,0.0024135,0.0099071,8.7308,0.01431,0.025296,5.9202e-07,0.12,0.1,0
0.0063877,0.005077,0.029792,0.0027,0.0097476,0.0038357,0,0,0.052115,-0.018324,0,0.019946,0,0,0,0.030325,0.0021674,0.0097476,7.9051,0.01408,0.025236,5.8128e-07,0.13,0.1,0
0.0069086,0.0053852,0.029612,0.0023875,0.0095999,0.0034673,0,0,0.052032,-0.018752,0,0.01803,0,0,0,0.030047,0.0019528,0.0095999,7.1452,0.013867,0.025158,5.7027e-07,0.14,0.1,0
0.0074283,0.0056782,0.029427,0.0021178,0.0094635,0.0031256,0,0,0.051906,-0.019099,0,0.016253,0,0,0,0.02978,0.0017647,0.0094635,6.4465,0.013669,0.025069,5.5933e-07,0.15,0.1,0
0.0079467,0.0059566,0.029242,0.0018846,0.0093379,0.0028101,0,0,0.05175,-0.019378,0,0.014612,0,0,0,0.029527,0.001599,0.0093379,5.8045,0.013488,0.024975,5.4873e-07,0.16,0.1,0
0.0084633,0.0062208,0.029059,0.0016822,0.0092224,0.0025195,0,0,0.051575,-0.019604,0,0.013102,0,0,0,0.029289,0.0014523,0.0092224,5.2146,0.013321,0.024879,5.3861e-07,0.17,0.1,0
0.0089782,0.0064713,0.028882,0.0015058,0.0091163,0.0022525,0,0,0.05139,-0.019787,0,0.011713,0,0,0,0.029066,0.0013217,0.0091163,4.6725,0.013168,0.024784,5.2907e-07,0.18,0.1,0
0.0094911,0.0067088,0.028712,0.0013515,0.009019,0.0020075,0,0,0.051201,-0.019936,0,0.010439,0,0,0,0.028858,0.001205,0.009019,4.1742,0.013027,0.024692,5.2018e-07,0.19,0.1,0
0.010002,0.0069337,0.02855,0.0012159,0.0089299,0.0017829,0,0,0.051014,-0.020057,0,0.0092708,0,0,0,0.028666,0.0011001,0.0089299,3.716,0.012899,0.024604,5.1194e-07,0.2,0.1,0
0.010511,0.0071466,0.028398,0.0010962,0.0088484,0.0015769,0,0,0.05083,-0.020156,0,0.0081998,0,0,0,0.028489,0.0010054,0.0088484,3.2946,0.012781,0.024522,5.0437e-07,0.21,0.1,0
0.011019,0.007348,0.028256,0.00099015,0.0087739,0.0013881,0,0,0.050654,-0.020238,0,0.0072183,0,0,0,0.028327,0.00091966,0.0087739,2.907,0.012673,0.024445,4.9744e-07,0.22,0.1,0
0.011525,0.0075385,0.028124,0.00089576,0.0087058,0.0012152,0,0,0.050486,-0.020306,0,0.006319,0,0,0,0.028178,0.00084164,0.0087058,2.5504,0.012575,0.024375,4.9115e-07,0.23,0.1,0
0.012028,0.0077184,0.028001,0.00081143,0.0086438,0.0010567,0,0,0.050329,-0.020364,0,0.0054949,0,0,0,0.028042,0.00077042,0.0086438,2.2223,0.012485,0.024311,4.8544e-07,0.24,0.1,0
0.012531,0.0078884,0.027888,0.00073578,0.0085872,0.00091151,0,0,0.050183,-0.020414,0,0.0047398,0,0,0,0.027919,0.00070522,0.0085872,1.9205,0.012404,0.024253,4.8031e-07,0.25,0.1,0
0.013032,0.0080489,0.027785,0.00066767,0.0085358,0.00077849,0,0,0.050048,-0.020457,0,0.0040482,0,0,0,0.027807,0.00064534,0.0085358,1.6431,0.01233,0.024202,4.757e-07,0.26,0.1,0
0.013532,0.0082002,0.027691,0.00060614,0.0084891,0.00065666,0,0,0.049924,-0.020496,0,0.0034146,0,0,0,0.027707,0.00059023,0.0084891,1.388,0.012262,0.024156,4.7158e-07,0.27,0.1,0
0.014031,0.0083429,0.027605,0.00055038,0.0084467,0.0005451,0,0,0.049813,-0.020531,0,0.0028345,0,0,0,0.027616,0.0005394,0.0084467,1.1538,0.012201,0.024116,4.6793e-07,0.28,0.1,0
0.014528,0.0084773,0.027528,0.00049968,0.0084084,0.00044301,0,0,0.049712,-0.020563,0,0.0023036,0,0,0,0.027536,0.00049242,0.0084084,0.93875,0.012146,0.024082,4.647e-07,0.29,0.1,0
0.015025,0.0086038,0.027459,0.00045347,0.0083738,0.00034962,0,0,0.049622,-0.020593,0,0.001818,0,0,0,0.027464,0.00044895,0.0083738,0.74159,0.012096,0.024052,4.6187e-07,0.3,0.1,0
0.015521,0.0087229,0.027398,0.00041124,0.0083427,0.00026426,0,0,0.049543,-0.020622,0,0.0013742,0,0,0,0.0274,0.00040865,0.0083427,0.56099,0.012051,0.024028,4.5941e-07,0.31,0.1,0
0.016016,0.0088348,0.027343,0.00037256,0.0083147,0.00018632,0,0,0.049474,-0.02065,0,0.00096888,0,0,0,0.027344,0.00037127,0.0083147,0.3958,0.01201,0.024008,4.5729e-07,0.32,0.1,0
0.01651,0.0089398,0.027295,0.00033706,0.0082896,0.00011524,0,0,0.049414,-0.020677,0,0.00059923,0,0,0,0.027296,0.00033657,0.0082896,0.24491,0.011974,0.023992,4.5548e-07,0.33,0.1,0
0.017004,0.0090384,0.027253,0.00030442,0.0082673,5.0489e-05,0,0,0.049363,-0.020703,0,0.00026254,0,0,0,0.027253,0.00030433,0.0082673,0.10734,0.011942,0.02398,4.5396e-07,0.34,0.1,0
0.017497,0.0091309,0.027217,0.00027436,0.0082475,-8.3891e-06,0,0,0.049321,-0.02073,0,-4.3623e-05,0,0,0,0.027217,0.00027436,0.0082475,-0.01784,0.011913,0.023972,4.527e-07,0.35,0.1,0
0.01799,0.0092174,0.027187,0.00024665,0.00823,-6.1827e-05,0,0,0.049287,-0.020757,0,-0.0003215,0,0,0,0.027187,0.00024651,0.00823,-0.13149,0.011888,0.023967,4.5169e-07,0.36,0.1,0
0.018483,0.0092984,0.027161,0.00022107,0.0082146,-0.00011022,0,0,0.049261,-0.020783,0,-0.00057315,0,0,0,0.027162,0.00022061,0.0082146,-0.23442,0.011866,0.023966,4.509e-07,0.37,0.1,0
0.018976,0.0093741,0.02714,0.00019743,0.0082013,-0.00015394,0,0,0.049241,-0.02081,0,-0.00080047,0,0,0,0.027141,0.00019655,0.0082013,-0.32735,0.011846,0.023967,4.5031e-07,0.38,0.1,0
0.019468,0.0094448,0.027123,0.00017557,0.0081897,-0.00019331,0,0,0.049228,-0.020837,0,-0.0010052,0,0,0,0.027125,0.00017418,0.0081897,-0.41098,0.01183,0.02397,4.4992e-07,0.39,0.1,0
0.01996,0.0095107,0.027111,0.00015534,0.0081799,-0.00022865,0,0,0.049221,-0.020864,0,-0.001189,0,0,0,0.027113,0.0001534,0.0081799,-0.48596,0.011815,0.023976,4.4969e-07,0.4,0.1,0
0.020452,0.009572,0.027102,0.00013662,0.0081716,-0.00026024,0,0,0.049219,-0.020891,0,-0.0013532,0,0,0,0.027105,0.00013411,0.0081716,-0.55288,0.011803,0.023984,4.4962e-07,0.41,0.1,0
0.020945,0.0096291,0.027096,0.00011929,0.0081647,-0.00028835,0,0,0.049222,-0.020918,0,-0.0014994,0,0,0,0.027099,0.00011621,0.0081647,-0.61232,0.011794,0.023994,4.497e-07,0.42,0.1,0
0.021437,0.0096821,0.027094,0.00010325,0.0081592,-0.00031323,0,0,0.049231,-0.020945,0,-0.0016288,0,0,0,0.027098,9.9611e-05,0.0081592,-0.6648,0.011786,0.024005,4.499e-07,0.43,0.1,0
0.021929,0.0097313,0.027094,8.8392e-05,0.0081548,-0.0003351,0,0,0.049243,-0.020973,0,-0.0017425,0,0,0,0.027099,8.4234e-05,0.0081548,-0.7108,0.011779,0.024018,4.5022e-07,0.44,0.1,0
0.022422,0.0097768,0.027097,7.4643e-05,0.0081516,-0.00035419,0,0,0.049259,-0.021,0,-0.0018418,0,0,0,0.027102,7.0002e-05,0.0081516,-0.7508,0.011775,0.024033,4.5066e-07,0.45,0.1,0
0.022914,0.0098189,0.027103,6.1924e-05,0.0081494,-0.00037068,0,0,0.049279,-0.021027,0,-0.0019276,0,0,0,0.027108,5.6843e-05,0.0081494,-0.78523,0.011771,0.024049,4.5118e-07,0.46,0.1,0
0.023407,0.0098577,0.02711,5.0161e-05,0.0081481,-0.00038478,0,0,0.049301,-0.021055,0,-0.0020009,0,0,0,0.027116,4.4691e-05,0.0081481,-0.81449,0.01177,0.024065,4.5179e-07,0.47,0.1,0
0.0239,0.0098934,0.02712,3.9291e-05,0.0081477,-0.00039664,0,0,0.049327,-0.021082,0,-0.0020625,0,0,0,0.027126,3.3483e-05,0.0081477,-0.83897,0.011769,0.024083,4.5249e-07,0.48,0.1,0
0.024394,0.0099262,0.027131,2.9254e-05,0.008148,-0.00040645,0,0,0.049355,-0.021109,0,-0.0021135,0,0,0,0.027137,2.3159e-05,0.008148,-0.85901,0.011769,0.024101,4.5325e-07,0.49,0.1,0
0.024888,0.0099563,0.027144,1.9993e-05,0.0081491,-0.00041433,0,0,0.049386,-0.021136,0,-0.0021545,0,0,0,0.02715,1.3665e-05,0.0081491,-0.87496,0.011771,0.02412,4.5407e-07,0.5,0.1,0
0.025382,0.0099839,0.027158,1.1459e-05,0.0081508,-0.00042045,0,0,0.049418,-0.021162,0,-0.0021863,0,0,0,0.027164,4.9486e-06,0.0081508,-0.88712,0.011773,0.02414,4.5495e-07,0.51,0.1,0
0.025876,0.010009,0.027173,3.603e-06,0.008153,-0.00042492,0,0,0.049452,-0.021188,0,-0.0022096,0,0,0,0.02718,-3.041e-06,0.008153,-0.8958,0.011777,0.02416,4.5587e-07,0.52,0.1,0
0.026371,0.010032,0.02719,-3.6189e-06,0.0081558,-0.00042789,0,0,0.049488,-0.021215,0,-0.002225,0,0,0,0.027196,-1.035e-05,0.0081558,-0.90125,0.011781,0.024181,4.5683e-07,0.53,0.1,0
0.026866,0.010053,0.027207,-1.0248e-05,0.008159,-0.00042945,0,0,0.049525,-0.02124,0,-0.0022332,0,0,0,0.027214,-1.7023e-05,0.008159,-0.90375,0.011785,0.024202,4.5784e-07,0.54,0.1,0
0.027361,0.010071,0.027225,-1.6324e-05,0.0081627,-0.00042974,0,0,0.049563,-0.021265,0,-0.0022346,0,0,0,0.027232,-2.3101e-05,0.0081627,-0.90354,0.011791,0.024223,4.5887e-07,0.55,0.1,0
0.027857,0.010088,0.027244,-2.1881e-05,0.0081667,-0.00042883,0,0,0.049602,-0.02129,0,-0.0022299,0,0,0,0.027251,-2.8624e-05,0.0081667,-0.90083,0.011796,0.024244,4.5992e-07,0.56,0.1,0
0.028353,0.010103,0.027264,-2.6956e-05,0.008171,-0.00042684,0,0,0.049641,-0.021315,0,-0.0022196,0,0,0,0.02727,-3.363e-05,0.008171,-0.89584,0.011803,0.024265,4.61e-07,0.57,0.1,0
0.02885,0.010117,0.027284,-3.1579e-05,0.0081756,-0.00042385,0,0,0.049681,-0.021339,0,-0.002204,0,0,0,0.02729,-3.8154e-05,0.0081756,-0.88876,0.011809,0.024287,4.6209e-07,0.58,0.1,0
0.029347,0.010129,0.027304,-3.5781e-05,0.0081805,-0.00041994,0,0,0.049721,-0.021362,0,-0.0021837,0,0,0,0.027311,-4.223e-05,0.0081805,-0.87979,0.011816,0.024308,4.6319e-07,0.59,0.1,0
0.029844,0.010139,0.027325,-3.9591e-05,0.0081855,-0.0004152,0,0,0.049762,-0.021385,0,-0.002159,0,0,0,0.027331,-4.5889e-05,0.0081855,-0.86908,0.011824,0.024329,4.643e-07,0.6,0.1,0
0.030342,0.010148,0.027345,-4.3035e-05,0.0081908,-0.00040969,0,0,0.049802,-0.021408,0,-0.0021304,0,0,0,0.027352,-4.9162e-05,0.0081908,-0.8568,0.011831,0.02435,4.6541e-07,0.61,0.1,0
0.03084,0.010157,0.027366,-4.6139e-05,0.0081961,-0.00040349,0,0,0.049843,-0.02143,0,-0.0020981,0,0,0,0.027372,-5.2076e-05,0.0081961,-0.8431,0.011839,0.024371,4.6652e-07,0.62,0.1,0
0.031339,0.010163,0.027387,-4.8926e-05,0.0082016,-0.00039665,0,0,0.049883,-0.021451,0,-0.0020626,0,0,0,0.027393,-5.466e-05,0.0082016,-0.82811,0.011847,0.024391,4.6763e-07,0.63,0.1,0
0.031838,0.010169,0.027408,-5.1421e-05,0.0082071,-0.00038925,0,0,0.049923,-0.021472,0,-0.0020241,0,0,0,0.027414,-5.6937e-05,0.0082071,-0.81196,0.011855,0.024411,4.6873e-07,0.64,0.1,0
0.032337,0.010174,0.027429,-5.3643e-05,0.0082127,-0.00038132,0,0,0.049963,-0.021492,0,-0.0019829,0,0,0,0.027435,-5.8933e-05,0.0082127,-0.79477,0.011863,0.024431,4.6982e-07,0.65,0.1,0
0.032837,0.010178,0.02745,-5.5614e-05,0.0082183,-0.00037293,0,0,0.050002,-0.021512,0,-0.0019393,0,0,0,0.027455,-6.0669e-05,0.0082183,-0.77665,0.011871,0.024451,4.7091e-07,0.66,0.1,0
0.033337,0.010181,0.02747,-5.7352e-05,0.0082239,-0.00036412,0,0,0.050041,-0.021531,0,-0.0018934,0,0,0,0.027475,-6.2167e-05,0.0082239,-0.7577,0.011879,0.02447,4.7198e-07,0.67,0.1,0
0.033838,0.010184,0.027491,-5.8876e-05,0.0082295,-0.00035494,0,0,0.050079,-0.02155,0,-0.0018457,0,0,0,0.027495,-6.3448e-05,0.0082295,-0.73802,0.011887,0.024489,4.7303e-07,0.68,0.1,0
0.034339,0.010186,0.027511,-6.0203e-05,0.0082351,-0.00034543,0,0,0.050116,-0.021568,0,-0.0017962,0,0,0,0.027515,-6.453e-05,0.0082351,-0.71769,0.011895,0.024507,4.7407e-07,0.69,0.1,0
0.03484,0.010187,0.02753,-6.1349e-05,0.0082406,-0.00033561,0,0,0.050153,-0.021585,0,-0.0017452,0,0,0,0.027534,-6.5431e-05,0.0082406,-0.69678,0.011903,0.024525,4.7508e-07,0.7,0.1,0
0.035342,0.010188,0.027549,-6.2331e-05,0.0082461,-0.00032554,0,0,0.050188,-0.021602,0,-0.0016928,0,0,0,0.027553,-6.6168e-05,0.0082461,-0.67538,0.011911,0.024543,4.7608e-07,0.71,0.1,0
0.035844,0.010188,0.027568,-6.3161e-05,0.0082515,-0.00031523,0,0,0.050223,-0.021618,0,-0.0016392,0,0,0,0.027572,-6.6757e-05,0.0082515,-0.65355,0.011919,0.02456,4.7705e-07,0.72,0.1,0
0.036346,0.010188,0.027586,-6.3854e-05,0.0082568,-0.00030473,0,0,0.050257,-0.021634,0,-0.0015846,0,0,0,0.02759,-6.7212e-05,0.0082568,-0.63134,0.011926,0.024576,4.78e-07,0.73,0.1,0
0.036849,0.010187,0.027604,-6.4423e-05,0.008262,-0.00029405,0,0,0.05029,-0.021649,0,-0.0015291,0,0,0,0.027608,-6.7548e-05,0.008262,-0.60882,0.011934,0.024592,4.7892e-07,0.74,0.1,0
0.037352,0.010186,0.027622,-6.4881e-05,0.008267,-0.00028322,0,0,0.050322,-0.021663,0,-0.0014728,0,0,0,0.027625,-6.7778e-05,0.008267,-0.58603,0.011941,0.024607,4.7981e-07,0.75,0.1,0
0.037856,0.010185,0.027638,-6.5238e-05,0.008272,-0.00027226,0,0,0.050353,-0.021677,0,-0.0014158,0,0,0,0.027641,-6.7914e-05,0.008272,-0.56302,0.011948,0.024622,4.8068e-07,0.76,0.1,0
0.038359,0.010183,0.027655,-6.5506e-05,0.0082768,-0.0002612,0,0,0.050383,-0.02169,0,-0.0013582,0,0,0,0.027657,-6.7967e-05,0.0082768,-0.53982,0.011955,0.024637,4.8152e-07,0.77,0.1,0
0.038863,0.010182,0.02767,-6.5695e-05,0.0082814,-0.00025005,0,0,0.050411,-0.021702,0,-0.0013002,0,0,0,0.027673,-6.7949e-05,0.0082814,-0.51648,0.011962,0.02465,4.8232e-07,0.78,0.1,0
0.039368,0.01018,0.027685,-6.5813e-05,0.0082859,-0.00023882,0,0,0.050439,-0.021714,0,-0.0012419,0,0,0,0.027688,-6.7869e-05,0.0082859,-0.49302,0.011968,0.024663,4.831e-07,0.79,0.1,0
0.039872,0.010178,0.0277,-6.5872e-05,0.0082902,-0.00022753,0,0,0.050465,-0.021726,0,-0.0011832,0,0,0,0.027702,-6.7736e-05,0.0082902,-0.46948,0.011975,0.024676,4.8385e-07,0.8,0.1,0
0.040377,0.010176,0.027714,-6.5878e-05,0.0082944,-0.0002162,0,0,0.05049,-0.021737,0,-0.0011242,0,0,0,0.027715,-6.756e-05,0.0082944,-0.44587,0.011981,0.024688,4.8456e-07,0.81,0.1,0
0.040882,0.010174,0.027727,-6.584e-05,0.0082983,-0.00020483,0,0,0.050514,-0.021747,0,-0.0010651,0,0,0,0.027728,-6.7349e-05,0.0082983,-0.42223,0.011987,0.024699,4.8524e-07,0.82,0.1,0
0.041387,0.010172,0.02774,-6.5764e-05,0.0083021,-0.00019343,0,0,0.050537,-0.021757,0,-0.0010058,0,0,0,0.027741,-6.711e-05,0.0083021,-0.39856,0.011992,0.02471,4.8588e-07,0.83,0.1,0
0.041893,0.010169,0.027751,-6.5659e-05,0.0083057,-0.00018202,0,0,0.050559,-0.021766,0,-0.00094649,0,0,0,0.027752,-6.685e-05,0.0083057,-0.37489,0.011997,0.02472,4.8649e-07,0.84,0.1,0
0.042398,0.010167,0.027762,-6.553e-05,0.0083091,-0.00017059,0,0,0.050579,-0.021774,0,-0.00088709,0,0,0,0.027764,-6.6576e-05,0.0083091,-0.35122,0.012002,0.02473,4.8706e-07,0.85,0.1,0
0.042904,0.010165,0.027773,-6.5383e-05,0.0083123,-0.00015917,0,0,0.050598,-0.021782,0,-0.00082766,0,0,0,0.027774,-6.6293e-05,0.0083123,-0.32757,0.012007,0.024739,4.876e-07,0.86,0.1,0
0.04341,0.010163,0.027783,-6.5224e-05,0.0083153,-0.00014774,0,0,0.050616,-0.021789,0,-0.00076824,0,0,0,0.027784,-6.6008e-05,0.0083153,-0.30395,0.012011,0.024747,4.8811e-07,0.87,0.1,0
0.043916,0.010161,0.027792,-6.5057e-05,0.0083181,-0.00013631,0,0,0.050632,-0.021796,0,-0.00070884,0,0,0,0.027793,-6.5724e-05,0.0083181,-0.28036,0.012015,0.024755,4.8858e-07,0.88,0.1,0
0.044423,0.010159,0.0278,-6.4887e-05,0.0083206,-0.0001249,0,0,0.050647,-0.021802,0,-0.00064948,0,0,0,0.027801,-6.5447e-05,0.0083206,-0.25681,0.012019,0.024762,4.8901e-07,0.89,0.1,0
0.044929,0.010157,0.027808,-6.4719e-05,0.008323,-0.00011349,0,0,0.050661,-0.021808,0,-0.00059016,0,0,0,0.027808,-6.5181e-05,0.008323,-0.23329,0.012022,0.024769,4.894e-07,0.9,0.1,0
0.045436,0.010156,0.027815,-6.4555e-05,0.0083251,-0.0001021,0,0,0.050674,-0.021813,0,-0.00053091,0,0,0,0.027815,-6.4929e-05,0.0083251,-0.20982,0.012025,0.024775,4.8976e-07,0.91,0.1,0
0.045943,0.010154,0.027821,-6.44e-05,0.008327,-9.0714e-05,0,0,0.050685,-0.021818,0,-0.00047171,0,0,0,0.027821,-6.4695e-05,0.008327,-0.18639,0.012028,0.02478,4.9008e-07,0.92,0.1,0
0.04645,0.010153,0.027827,-6.4256e-05,0.0083287,-7.9343e-05,0,0,0.050695,-0.021822,0,-0.00041258,0,0,0,0.027827,-6.4482e-05,0.0083287,-0.16299,0.01203,0.024785,4.9036e-07,0.93,0.1,0
0.046957,0.010152,0.027831,-6.4126e-05,0.0083302,-6.7983e-05,0,0,0.050703,-0.021825,0,-0.00035351,0,0,0,0.027832,-6.4292e-05,0.0083302,-0.13963,0.012032,0.024789,4.9061e-07,0.94,0.1,0
0.047464,0.010151,0.027835,-6.4013e-05,0.0083315,-5.6634e-05,0,0,0.050711,-0.021828,0,-0.0002945,0,0,0,0.027836,-6.4128e-05,0.0083315,-0.11631,0.012034,0.024792,4.9082e-07,0.95,0.1,0
0.047971,0.01015,0.027839,-6.3917e-05,0.0083325,-4.5295e-05,0,0,0.050716,-0.021831,0,-0.00023553,0,0,0,0.027839,-6.3991e-05,0.0083325,-0.093009,0.012036,0.024795,4.9099e-07,0.96,0.1,0
0.048478,0.010149,0.027841,-6.3841e-05,0.0083333,-3.3964e-05,0,0,0.050721,-0.021833,0,-0.00017661,0,0,0,0.027842,-6.3883e-05,0.0083333,-0.069735,0.012037,0.024797,4.9112e-07,0.97,0.1,0
0.048986,0.010149,0.027843,-6.3786e-05,0.0083338,-2.2639e-05,0,0,0.050724,-0.021834,0,-0.00011772,0,0,0,0.027843,-6.3805e-05,0.0083338,-0.04648,0.012038,0.024799,4.9122e-07,0.98,0.1,0
0.049493,0.010148,0.027844,-6.3753e-05,0.0083342,-1.1318e-05,0,0,0.050727,-0.021835,0,-5.8856e-05,0,0,0,0.027844,-6.3758e-05,0.0083342,-0.023237,0.012038,0.0248,4.9127e-07,0.99,0.1,0
0.05,0.010148,0.027845,-6.3742e-05,0.0083343,-1.8609e-06,0,0,0.050727,-0.021835,0,-9.6766e-06,0,0,0,0.027845,-6.3742e-05,0.0083343,-0.0038204,0.012038,0.0248,4.9129e-07,1,0.1,0
0,0,0.028689,0.012295,0.012295,0.0073807,0,0,0.042623,-2.1684e-19,0,0.038379,0,0,0,0.031522,0.0094619,0.012295,21,0.01776,0.020789,4.3268e-07,0,0.11,0
0.00042623,0.00038379,0.028628,0.011446,0.012022,0.0073726,0,0,0.043175,-0.0014984,0,0.038338,0,0,0,0.031357,0.0087159,0.012022,20.318,0.017365,0.021183,4.4835e-07,0.01,0.11,0
0.00086349,0.00077786,0.028908,0.010641,0.011865,0.007414,0,0,0.044313,-0.0031822,0,0.038553,0,0,0,0.031538,0.0080104,0.011865,19.534,0.017138,0.021857,4.8057e-07,0.02,0.11,0
0.0013125,0.0011791,0.029184,0.0097712,0.011686,0.0073692,0,0,0.045492,-0.0049796,0,0.03832,0,0,0,0.031664,0.0072906,0.011686,18.604,0.01688,0.0225,5.1056e-07,0.03,0.11,0
0.0017733,0.0015838,0.029437,0.0088748,0.011494,0.007234,0,0,0.046654,-0.0068091,0,0.037617,0,0,0,0.031727,0.0065849,0.011494,17.565,0.016602,0.023083,5.3664e-07,0.04,0.11,0
0.0022456,0.0019883,0.029655,0.0079874,0.011293,0.0070137,0,0,0.047742,-0.0085938,0,0.036471,0,0,0,0.031727,0.0059153,0.011293,16.459,0.016312,0.023587,5.5771e-07,0.05,0.11,0
0.0027282,0.0023891,0.029825,0.0071381,0.011089,0.0067214,0,0,0.048714,-0.010272,0,0.034951,0,0,0,0.031667,0.0052963,0.011089,15.324,0.016017,0.024004,5.7332e-07,0.06,0.11,0
0.0032198,0.0027829,0.029942,0.0063473,0.010887,0.006374,0,0,0.049543,-0.011802,0,0.033145,0,0,0,0.031553,0.0047355,0.010887,14.191,0.015725,0.024333,5.8357e-07,0.07,0.11,0
0.003719,0.0031674,0.030005,0.0056265,0.010689,0.0059897,0,0,0.05022,-0.013163,0,0.031146,0,0,0,0.031397,0.0042343,0.010689,13.085,0.01544,0.024579,5.89e-07,0.08,0.11,0
0.0042242,0.0035405,0.030017,0.0049799,0.010499,0.0055848,0,0,0.050747,-0.01435,0,0.029041,0,0,0,0.031206,0.0037906,0.010499,12.021,0.015165,0.024753,5.9034e-07,0.09,0.11,0
0.004734,0.0039007,0.029985,0.0044065,0.010317,0.0051733,0,0,0.051136,-0.015369,0,0.026901,0,0,0,0.030992,0.0033998,0.010317,11.012,0.014903,0.024865,5.8842e-07,0.1,0.11,0
0.0052469,0.0042473,0.029916,0.0039019,0.010145,0.0047659,0,0,0.051403,-0.016233,0,0.024782,0,0,0,0.030761,0.0030563,0.010145,10.062,0.014654,0.024928,5.8404e-07,0.11,0.11,0
0.005762,0.0045797,0.029817,0.0034601,0.0099832,0.0043701,0,0,0.051568,-0.01696,0,0.022724,0,0,0,0.030523,0.0027544,0.0099832,9.1729,0.01442,0.024952,5.7791e-07,0.12,0.11,0
0.0062783,0.0048976,0.029697,0.0030742,0.0098313,0.0039912,0,0,0.05165,-0.017568,0,0.020754,0,0,0,0.030282,0.0024888,0.0098313,8.3453,0.014201,0.024946,5.7061e-07,0.13,0.11,0
0.006795,0.005201,0.029561,0.0027375,0.0096895,0.0036323,0,0,0.051665,-0.018075,0,0.018888,0,0,0,0.030044,0.0022543,0.0096895,7.577,0.013996,0.024918,5.6263e-07,0.14,0.11,0
0.0073116,0.0054902,0.029415,0.0024434,0.0095575,0.003295,0,0,0.051629,-0.018496,0,0.017134,0,0,0,0.029812,0.0020467,0.0095575,6.8652,0.013805,0.024875,5.5433e-07,0.15,0.11,0
0.0078276,0.0057654,0.029264,0.0021863,0.009435,0.0029799,0,0,0.051555,-0.018847,0,0.015496,0,0,0,0.029588,0.0018622,0.009435,6.2066,0.013628,0.024821,5.4597e-07,0.16,0.11,0
0.0083427,0.006027,0.029111,0.0019609,0.0093216,0.0026869,0,0,0.051453,-0.019138,0,0.013972,0,0,0,0.029374,0.0016976,0.0093216,5.5978,0.013465,0.024761,5.3777e-07,0.17,0.11,0
0.0088567,0.0062754,0.02896,0.0017628,0.0092168,0.0024151,0,0,0.051332,-0.01938,0,0.012558,0,0,0,0.029173,0.0015501,0.0092168,5.0354,0.013313,0.024698,5.2986e-07,0.18,0.11,0
0.0093693,0.0065111,0.028812,0.0015882,0.00912,0.0021636,0,0,0.051199,-0.019583,0,0.011251,0,0,0,0.028983,0.0014173,0.00912,4.5159,0.013173,0.024634,5.2233e-07,0.19,0.11,0
0.0098806,0.0067346,0.028669,0.0014336,0.0090308,0.0019314,0,0,0.051059,-0.019753,0,0.010043,0,0,0,0.028805,0.0012974,0.0090308,4.0362,0.013045,0.024571,5.1524e-07,0.2,0.11,0
0.010391,0.0069463,0.028532,0.0012964,0.0089487,0.0017171,0,0,0.050918,-0.019896,0,0.0089291,0,0,0,0.02864,0.0011886,0.0089487,3.5933,0.012926,0.024511,5.0863e-07,0.21,0.11,0
0.010899,0.0071466,0.028403,0.0011742,0.0088731,0.0015197,0,0,0.050778,-0.020017,0,0.0079023,0,0,0,0.028487,0.0010896,0.0088731,3.1846,0.012817,0.024453,5.025e-07,0.22,0.11,0
0.011406,0.0073362,0.028281,0.0010648,0.0088038,0.0013378,0,0,0.050641,-0.020121,0,0.0069565,0,0,0,0.028347,0.00099923,0.0088038,2.8073,0.012717,0.0244,4.9686e-07,0.23,0.11,0
0.011912,0.0075155,0.028167,0.00096672,0.0087401,0.0011704,0,0,0.05051,-0.020211,0,0.006086,0,0,0,0.028217,0.00091645,0.0087401,2.4593,0.012625,0.024351,4.917e-07,0.24,0.11,0
0.012416,0.0076848,0.028061,0.00087837,0.0086818,0.0010164,0,0,0.050385,-0.020289,0,0.0052851,0,0,0,0.028099,0.00084042,0.0086818,2.1383,0.01254,0.024306,4.87e-07,0.25,0.11,0
0.01292,0.0078447,0.027963,0.00079856,0.0086283,0.00087473,0,0,0.050269,-0.020357,0,0.0045486,0,0,0,0.027991,0.00077042,0.0086283,1.8425,0.012463,0.024265,4.8275e-07,0.26,0.11,0
0.013422,0.0079956,0.027872,0.00072624,0.0085795,0.00074456,0,0,0.050161,-0.020418,0,0.0038717,0,0,0,0.027893,0.00070583,0.0085795,1.5699,0.012393,0.024229,4.7892e-07,0.27,0.11,0
0.013923,0.0081378,0.027789,0.00066051,0.0085349,0.00062499,0,0,0.050061,-0.020473,0,0.0032499,0,0,0,0.027804,0.00064612,0.0085349,1.319,0.012328,0.024198,4.7548e-07,0.28,0.11,0
0.014423,0.0082718,0.027714,0.00060062,0.0084943,0.00051523,0,0,0.04997,-0.020524,0,0.0026792,0,0,0,0.027723,0.00059083,0.0084943,1.0883,0.012269,0.02417,4.7243e-07,0.29,0.11,0
0.014922,0.008398,0.027645,0.00054591,0.0084573,0.00041455,0,0,0.049888,-0.02057,0,0.0021557,0,0,0,0.027651,0.00053957,0.0084573,0.87622,0.012216,0.024147,4.6972e-07,0.3,0.11,0
0.015421,0.0085166,0.027583,0.00049581,0.0084237,0.0003223,0,0,0.049815,-0.020613,0,0.001676,0,0,0,0.027587,0.00049198,0.0084237,0.6816,0.012168,0.024128,4.6734e-07,0.31,0.11,0
0.015918,0.0086282,0.027528,0.00044985,0.0083933,0.00023784,0,0,0.04975,-0.020653,0,0.0012368,0,0,0,0.02753,0.00044777,0.0083933,0.50321,0.012124,0.024112,4.6526e-07,0.32,0.11,0
0.016416,0.0087329,0.027478,0.00040761,0.0083658,0.00016062,0,0,0.049693,-0.020691,0,0.00083525,0,0,0,0.027479,0.00040666,0.0083658,0.33995,0.012084,0.0241,4.6347e-07,0.33,0.11,0
0.016912,0.0088312,0.027435,0.00036872,0.008341,9.0124e-05,0,0,0.049644,-0.020728,0,0.00046865,0,0,0,0.027435,0.00036842,0.008341,0.19078,0.012048,0.024091,4.6193e-07,0.34,0.11,0
0.017409,0.0089233,0.027396,0.00033286,0.0083188,2.5861e-05,0,0,0.049602,-0.020763,0,0.00013448,0,0,0,0.027397,0.00033284,0.0083188,0.05475,0.012016,0.024085,4.6065e-07,0.35,0.11,0
0.017904,0.0090096,0.027363,0.00029976,0.0082989,-3.2606e-05,0,0,0.049567,-0.020798,0,-0.00016955,0,0,0,0.027363,0.00029972,0.0082989,-0.06903,0.011987,0.024082,4.5958e-07,0.36,0.11,0
0.0184,0.0090903,0.027335,0.00026917,0.0082811,-8.5686e-05,0,0,0.049539,-0.020831,0,-0.00044557,0,0,0,0.027335,0.0002689,0.0082811,-0.18139,0.011962,0.024081,4.5872e-07,0.37,0.11,0
0.018895,0.0091657,0.02731,0.00024088,0.0082654,-0.00013376,0,0,0.049517,-0.020864,0,-0.00069554,0,0,0,0.027311,0.00024022,0.0082654,-0.2831,0.011939,0.024083,4.5805e-07,0.38,0.11,0
0.01939,0.0092361,0.02729,0.0002147,0.0082515,-0.00017717,0,0,0.049501,-0.020896,0,-0.00092128,0,0,0,0.027291,0.00021354,0.0082515,-0.37489,0.011919,0.024087,4.5755e-07,0.39,0.11,0
0.019885,0.0093017,0.027274,0.00019046,0.0082394,-0.00021625,0,0,0.04949,-0.020927,0,-0.0011245,0,0,0,0.027276,0.00018873,0.0082394,-0.45743,0.011901,0.024093,4.5722e-07,0.4,0.11,0
0.02038,0.0093628,0.027261,0.000168,0.0082288,-0.00025129,0,0,0.049485,-0.020958,0,-0.0013067,0,0,0,0.027264,0.00016567,0.0082288,-0.53136,0.011886,0.0241,4.5703e-07,0.41,0.11,0
0.020875,0.0094196,0.027252,0.0001472,0.0082197,-0.00028258,0,0,0.049484,-0.020989,0,-0.0014694,0,0,0,0.027255,0.00014425,0.0082197,-0.59726,0.011873,0.024109,4.5698e-07,0.42,0.11,0
0.02137,0.0094723,0.027245,0.00012792,0.008212,-0.00031039,0,0,0.049487,-0.021019,0,-0.001614,0,0,0,0.027249,0.00012437,0.008212,-0.65569,0.011862,0.02412,4.5705e-07,0.43,0.11,0
0.021865,0.0095212,0.027242,0.00011007,0.0082056,-0.00033494,0,0,0.049494,-0.021048,0,-0.0017417,0,0,0,0.027246,0.00010593,0.0082056,-0.70718,0.011853,0.024132,4.5723e-07,0.44,0.11,0
0.02236,0.0095664,0.027241,9.3528e-05,0.0082003,-0.00035648,0,0,0.049505,-0.021077,0,-0.0018537,0,0,0,0.027245,8.8848e-05,0.0082003,-0.7522,0.011845,0.024145,4.5751e-07,0.45,0.11,0
0.022855,0.0096082,0.027242,7.8217e-05,0.008196,-0.00037521,0,0,0.049519,-0.021106,0,-0.0019511,0,0,0,0.027247,7.3035e-05,0.008196,-0.79123,0.011839,0.024159,4.5788e-07,0.46,0.11,0
0.02335,0.0096467,0.027245,6.4048e-05,0.0081928,-0.00039134,0,0,0.049536,-0.021135,0,-0.002035,0,0,0,0.027251,5.8415e-05,0.0081928,-0.82468,0.011834,0.024174,4.5834e-07,0.47,0.11,0
0.023845,0.0096822,0.027251,5.0946e-05,0.0081904,-0.00040504,0,0,0.049556,-0.021163,0,-0.0021062,0,0,0,0.027257,4.4915e-05,0.0081904,-0.85296,0.011831,0.02419,4.5887e-07,0.48,0.11,0
0.024341,0.0097147,0.027258,3.8838e-05,0.0081889,-0.0004165,0,0,0.049578,-0.02119,0,-0.0021658,0,0,0,0.027264,3.2466e-05,0.0081889,-0.87645,0.011828,0.024207,4.5947e-07,0.49,0.11,0
0.024837,0.0097446,0.027266,2.7659e-05,0.0081882,-0.00042587,0,0,0.049603,-0.021217,0,-0.0022145,0,0,0,0.027273,2.1002e-05,0.0081882,-0.89551,0.011827,0.024224,4.6013e-07,0.5,0.11,0
0.025333,0.0097718,0.027276,1.7348e-05,0.0081881,-0.00043331,0,0,0.049629,-0.021244,0,-0.0022532,0,0,0,0.027283,1.0463e-05,0.0081881,-0.91046,0.011827,0.024241,4.6084e-07,0.51,0.11,0
0.02583,0.0097967,0.027288,7.8498e-06,0.0081886,-0.00043896,0,0,0.049657,-0.02127,0,-0.0022826,0,0,0,0.027295,7.884e-07,0.0081886,-0.92163,0.011828,0.024259,4.616e-07,0.52,0.11,0
0.026326,0.0098193,0.0273,-8.8992e-07,0.0081898,-0.00044296,0,0,0.049687,-0.021296,0,-0.0023034,0,0,0,0.027307,-8.0749e-06,0.0081898,-0.92929,0.01183,0.024278,4.624e-07,0.53,0.11,0
0.026823,0.0098398,0.027314,-8.92e-06,0.0081914,-0.00044542,0,0,0.049718,-0.021321,0,-0.0023162,0,0,0,0.027321,-1.618e-05,0.0081914,-0.93373,0.011832,0.024296,4.6324e-07,0.54,0.11,0
0.027321,0.0098582,0.027328,-1.6287e-05,0.0081935,-0.00044648,0,0,0.04975,-0.021345,0,-0.0023217,0,0,0,0.027335,-2.3575e-05,0.0081935,-0.93521,0.011835,0.024315,4.641e-07,0.55,0.11,0
0.027818,0.0098748,0.027343,-2.3033e-05,0.008196,-0.00044624,0,0,0.049782,-0.021369,0,-0.0023205,0,0,0,0.02735,-3.0308e-05,0.008196,-0.93396,0.011839,0.024334,4.65e-07,0.56,0.11,0
0.028316,0.0098897,0.027359,-2.92e-05,0.0081989,-0.00044481,0,0,0.049816,-0.021393,0,-0.002313,0,0,0,0.027366,-3.6422e-05,0.0081989,-0.93021,0.011843,0.024352,4.6591e-07,0.57,0.11,0
0.028815,0.009903,0.027375,-3.4826e-05,0.0082021,-0.00044227,0,0,0.04985,-0.021416,0,-0.0022998,0,0,0,0.027382,-4.196e-05,0.0082021,-0.92417,0.011847,0.024371,4.6684e-07,0.58,0.11,0
0.029313,0.0099147,0.027392,-3.9946e-05,0.0082056,-0.00043872,0,0,0.049884,-0.021438,0,-0.0022814,0,0,0,0.027399,-4.6961e-05,0.0082056,-0.91603,0.011853,0.02439,4.6778e-07,0.59,0.11,0
0.029812,0.009925,0.027409,-4.4595e-05,0.0082093,-0.00043425,0,0,0.049919,-0.02146,0,-0.0022581,0,0,0,0.027416,-5.1463e-05,0.0082093,-0.90599,0.011858,0.024409,4.6873e-07,0.6,0.11,0
0.030312,0.009934,0.027426,-4.8806e-05,0.0082133,-0.00042894,0,0,0.049954,-0.021481,0,-0.0022305,0,0,0,0.027433,-5.5501e-05,0.0082133,-0.8942,0.011864,0.024427,4.6969e-07,0.61,0.11,0
0.030811,0.0099418,0.027444,-5.2607e-05,0.0082174,-0.00042285,0,0,0.049989,-0.021502,0,-0.0021988,0,0,0,0.02745,-5.9109e-05,0.0082174,-0.88084,0.01187,0.024446,4.7065e-07,0.62,0.11,0
0.031311,0.0099485,0.027462,-5.6029e-05,0.0082217,-0.00041607,0,0,0.050024,-0.021522,0,-0.0021635,0,0,0,0.027468,-6.2318e-05,0.0082217,-0.86604,0.011876,0.024464,4.7161e-07,0.63,0.11,0
0.031812,0.0099542,0.02748,-5.9098e-05,0.0082261,-0.00040864,0,0,0.050059,-0.021542,0,-0.0021249,0,0,0,0.027485,-6.516e-05,0.0082261,-0.84995,0.011882,0.024482,4.7256e-07,0.64,0.11,0
0.032313,0.0099589,0.027497,-6.1839e-05,0.0082306,-0.00040064,0,0,0.050093,-0.02156,0,-0.0020833,0,0,0,0.027503,-6.7662e-05,0.0082306,-0.83269,0.011889,0.024499,4.7351e-07,0.65,0.11,0
0.032814,0.0099627,0.027515,-6.4277e-05,0.0082352,-0.00039211,0,0,0.050127,-0.021579,0,-0.002039,0,0,0,0.027521,-6.9851e-05,0.0082352,-0.81439,0.011895,0.024517,4.7446e-07,0.66,0.11,0
0.033315,0.0099658,0.027533,-6.6436e-05,0.0082399,-0.00038312,0,0,0.050161,-0.021596,0,-0.0019922,0,0,0,0.027538,-7.1753e-05,0.0082399,-0.79515,0.011902,0.024534,4.7539e-07,0.67,0.11,0
0.033817,0.0099681,0.02755,-6.8335e-05,0.0082445,-0.0003737,0,0,0.050195,-0.021613,0,-0.0019432,0,0,0,0.027555,-7.3391e-05,0.0082445,-0.77507,0.011909,0.02455,4.7631e-07,0.68,0.11,0
0.034319,0.0099697,0.027567,-6.9998e-05,0.0082492,-0.0003639,0,0,0.050227,-0.02163,0,-0.0018923,0,0,0,0.027572,-7.4788e-05,0.0082492,-0.75424,0.011916,0.024566,4.7722e-07,0.69,0.11,0
0.034821,0.0099708,0.027584,-7.1441e-05,0.0082539,-0.00035377,0,0,0.050259,-0.021646,0,-0.0018396,0,0,0,0.027589,-7.5966e-05,0.0082539,-0.73276,0.011922,0.024582,4.7811e-07,0.7,0.11,0
0.035324,0.0099713,0.027601,-7.2685e-05,0.0082585,-0.00034334,0,0,0.050291,-0.021661,0,-0.0017854,0,0,0,0.027605,-7.6944e-05,0.0082585,-0.71071,0.011929,0.024598,4.7898e-07,0.71,0.11,0
0.035827,0.0099714,0.027617,-7.3747e-05,0.0082631,-0.00033264,0,0,0.050321,-0.021676,0,-0.0017297,0,0,0,0.027621,-7.7742e-05,0.0082631,-0.68814,0.011936,0.024613,4.7984e-07,0.72,0.11,0
0.036331,0.009971,0.027633,-7.4642e-05,0.0082676,-0.00032172,0,0,0.050351,-0.02169,0,-0.0016729,0,0,0,0.027637,-7.8377e-05,0.0082676,-0.66514,0.011942,0.024627,4.8067e-07,0.73,0.11,0
0.036834,0.0099703,0.027649,-7.5386e-05,0.0082721,-0.00031059,0,0,0.05038,-0.021704,0,-0.0016151,0,0,0,0.027653,-7.8865e-05,0.0082721,-0.64175,0.011949,0.024641,4.8148e-07,0.74,0.11,0
0.037338,0.0099692,0.027664,-7.5994e-05,0.0082765,-0.00029928,0,0,0.050408,-0.021716,0,-0.0015562,0,0,0,0.027668,-7.9223e-05,0.0082765,-0.61804,0.011955,0.024655,4.8227e-07,0.75,0.11,0
0.037843,0.0099679,0.027679,-7.6481e-05,0.0082808,-0.00028782,0,0,0.050436,-0.021729,0,-0.0014967,0,0,0,0.027682,-7.9465e-05,0.0082808,-0.59406,0.011961,0.024668,4.8303e-07,0.76,0.11,0
0.038347,0.0099663,0.027693,-7.6857e-05,0.008285,-0.00027623,0,0,0.050462,-0.021741,0,-0.0014364,0,0,0,0.027696,-7.9605e-05,0.008285,-0.56985,0.011967,0.024681,4.8377e-07,0.77,0.11,0
0.038852,0.0099645,0.027707,-7.7137e-05,0.008289,-0.00026453,0,0,0.050487,-0.021752,0,-0.0013756,0,0,0,0.02771,-7.9655e-05,0.008289,-0.54544,0.011973,0.024693,4.8448e-07,0.78,0.11,0
0.039357,0.0099626,0.027721,-7.7331e-05,0.008293,-0.00025274,0,0,0.050512,-0.021763,0,-0.0013143,0,0,0,0.027723,-7.9629e-05,0.008293,-0.52089,0.011979,0.024704,4.8517e-07,0.79,0.11,0
0.039862,0.0099605,0.027733,-7.745e-05,0.0082968,-0.00024088,0,0,0.050535,-0.021773,0,-0.0012526,0,0,0,0.027735,-7.9536e-05,0.0082968,-0.4962,0.011984,0.024715,4.8583e-07,0.8,0.11,0
0.040367,0.0099583,0.027746,-7.7504e-05,0.0083004,-0.00022895,0,0,0.050557,-0.021783,0,-0.0011905,0,0,0,0.027748,-7.9388e-05,0.0083004,-0.47143,0.01199,0.024726,4.8646e-07,0.81,0.11,0
0.040873,0.0099561,0.027757,-7.7503e-05,0.0083039,-0.00021697,0,0,0.050579,-0.021792,0,-0.0011282,0,0,0,0.027759,-7.9194e-05,0.0083039,-0.44658,0.011995,0.024736,4.8706e-07,0.82,0.11,0
0.041379,0.0099539,0.027769,-7.7455e-05,0.0083073,-0.00020495,0,0,0.050599,-0.0218,0,-0.0010658,0,0,0,0.02777,-7.8964e-05,0.0083073,-0.42168,0.011999,0.024746,4.8763e-07,0.83,0.11,0
0.041885,0.0099516,0.027779,-7.7369e-05,0.0083105,-0.00019291,0,0,0.050618,-0.021808,0,-0.0010031,0,0,0,0.02778,-7.8705e-05,0.0083105,-0.39676,0.012004,0.024755,4.8817e-07,0.84,0.11,0
0.042391,0.0099494,0.027789,-7.7252e-05,0.0083135,-0.00018085,0,0,0.050636,-0.021816,0,-0.0009404,0,0,0,0.02779,-7.8426e-05,0.0083135,-0.37182,0.012008,0.024763,4.8868e-07,0.85,0.11,0
0.042898,0.0099472,0.027798,-7.7111e-05,0.0083164,-0.00016877,0,0,0.050653,-0.021823,0,-0.00087759,0,0,0,0.027799,-7.8133e-05,0.0083164,-0.34687,0.012013,0.024771,4.8916e-07,0.86,0.11,0
0.043404,0.0099451,0.027807,-7.6953e-05,0.008319,-0.00015668,0,0,0.050669,-0.02183,0,-0.00081475,0,0,0,0.027808,-7.7833e-05,0.008319,-0.32194,0.012016,0.024778,4.8961e-07,0.87,0.11,0
0.043911,0.009943,0.027815,-7.6783e-05,0.0083215,-0.00014459,0,0,0.050683,-0.021836,0,-0.00075189,0,0,0,0.027816,-7.7533e-05,0.0083215,-0.29702,0.01202,0.024785,4.9003e-07,0.88,0.11,0
0.044418,0.0099411,0.027823,-7.6608e-05,0.0083238,-0.00013251,0,0,0.050697,-0.021841,0,-0.00068904,0,0,0,0.027823,-7.7237e-05,0.0083238,-0.27212,0.012023,0.024792,4.9041e-07,0.89,0.11,0
0.044925,0.0099392,0.02783,-7.6431e-05,0.0083259,-0.00012043,0,0,0.050709,-0.021846,0,-0.00062621,0,0,0,0.02783,-7.6951e-05,0.0083259,-0.24725,0.012026,0.024797,4.9076e-07,0.9,0.11,0
0.045432,0.0099375,0.027836,-7.6259e-05,0.0083278,-0.00010835,0,0,0.050721,-0.021851,0,-0.00056342,0,0,0,0.027836,-7.6679e-05,0.0083278,-0.22241,0.012029,0.024803,4.9108e-07,0.91,0.11,0
0.04594,0.009936,0.027841,-7.6094e-05,0.0083296,-9.6282e-05,0,0,0.05073,-0.021855,0,-0.00050066,0,0,0,0.027842,-7.6426e-05,0.0083296,-0.1976,0.012032,0.024807,4.9137e-07,0.92,0.11,0
0.046447,0.0099346,0.027846,-7.594e-05,0.0083311,-8.4222e-05,0,0,0.050739,-0.021858,0,-0.00043795,0,0,0,0.027846,-7.6194e-05,0.0083311,-0.17282,0.012034,0.024811,4.9162e-07,0.93,0.11,0
0.046954,0.0099334,0.027851,-7.58e-05,0.0083324,-7.217e-05,0,0,0.050747,-0.021861,0,-0.00037528,0,0,0,0.027851,-7.5986e-05,0.0083324,-0.14807,0.012036,0.024815,4.9184e-07,0.94,0.11,0
0.047462,0.0099323,0.027854,-7.5677e-05,0.0083335,-6.0127e-05,0,0,0.050754,-0.021864,0,-0.00031266,0,0,0,0.027854,-7.5807e-05,0.0083335,-0.12334,0.012037,0.024818,4.9202e-07,0.95,0.11,0
0.047969,0.0099314,0.027857,-7.5574e-05,0.0083345,-4.8092e-05,0,0,0.050759,-0.021866,0,-0.00025008,0,0,0,0.027857,-7.5657e-05,0.0083345,-0.098646,0.012039,0.02482,4.9217e-07,0.96,0.11,0
0.048477,0.0099307,0.027859,-7.5491e-05,0.0083352,-3.6063e-05,0,0,0.050763,-0.021868,0,-0.00018753,0,0,0,0.027859,-7.5538e-05,0.0083352,-0.073966,0.01204,0.024822,4.9229e-07,0.97,0.11,0
0.048985,0.0099302,0.027861,-7.5432e-05,0.0083357,-2.4039e-05,0,0,0.050766,-0.021869,0,-0.000125,0,0,0,0.027861,-7.5452e-05,0.0083357,-0.049302,0.01204,0.024824,4.9238e-07,0.98,0.11,0
0.049492,0.0099299,0.027862,-7.5395e-05,0.008336,-1.2019e-05,0,0,0.050768,-0.02187,0,-6.2497e-05,0,0,0,0.027862,-7.54e-05,0.008336,-0.024648,0.012041,0.024825,4.9243e-07,0.99,0.11,0
0.05,0.0099299,0.027862,-7.5383e-05,0.0083361,-1.9093e-06,0,0,0.050768,-0.02187,0,-9.9281e-06,0,0,0,0.027862,-7.5383e-05,0.0083361,-0.0039156,0.012041,0.024825,4.9245e-07,1,0.11,0
0,0,0.02835,0.01215,0.01215,0.0071051,0,0,0.04212,-3.2526e-19,0,0.036947,0,0,0,0.031024,0.0094753,0.01215,20.628,0.01755,0.020344,4.0737e-07,0,0.12,0
0.0004212,0.00036947,0.028293,0.011368,0.011898,0.0070989,0,0,0.042626,-0.0013791,0,0.036914,0,0,0,0.030876,0.0087845,0.011898,19.996,0.017186,0.020711,4.2172e-07,0.01,0.12,0
0.00085252,0.00074754,0.028553,0.010639,0.011758,0.0071353,0,0,0.043669,-0.0029094,0,0.037104,0,0,0,0.031048,0.008144,0.011758,19.27,0.016983,0.021328,4.5044e-07,0.02,0.12,0
0.0012946,0.0011317,0.028812,0.0098542,0.0116,0.0071018,0,0,0.044751,-0.0045387,0,0.036929,0,0,0,0.031177,0.0074889,0.0116,18.421,0.016755,0.021924,4.7771e-07,0.03,0.12,0
0.0017476,0.001519,0.029056,0.0090423,0.011429,0.0069936,0,0,0.045828,-0.0062063,0,0.036367,0,0,0,0.031257,0.0068406,0.011429,17.475,0.016509,0.022476,5.0222e-07,0.04,0.12,0
0.0022111,0.0019064,0.029272,0.0082305,0.011251,0.0068133,0,0,0.046856,-0.0078528,0,0.035429,0,0,0,0.031286,0.006217,0.011251,16.464,0.016251,0.022969,5.2304e-07,0.05,0.12,0
0.0026847,0.0022909,0.029452,0.0074426,0.011069,0.0065691,0,0,0.047798,-0.0094274,0,0.034159,0,0,0,0.031264,0.005631,0.011069,15.417,0.015988,0.023393,5.3964e-07,0.06,0.12,0
0.0031671,0.0026698,0.02959,0.0066966,0.010886,0.0062731,0,0,0.048631,-0.010893,0,0.03262,0,0,0,0.031196,0.0050904,0.010886,14.362,0.015724,0.023745,5.5194e-07,0.07,0.12,0
0.0036573,0.0030407,0.029683,0.0060044,0.010706,0.0059389,0,0,0.049341,-0.012225,0,0.030882,0,0,0,0.031089,0.0045983,0.010706,13.319,0.015465,0.024027,5.6017e-07,0.08,0.12,0
0.0041539,0.0034019,0.029733,0.0053721,0.010531,0.0055799,0,0,0.049924,-0.013414,0,0.029015,0,0,0,0.03095,0.0041548,0.010531,12.306,0.015212,0.024244,5.6476e-07,0.09,0.12,0
0.0046558,0.0037518,0.029742,0.0048015,0.010363,0.005208,0,0,0.050386,-0.01446,0,0.027082,0,0,0,0.030786,0.0037577,0.010363,11.333,0.014969,0.024406,5.663e-07,0.1,0.12,0
0.0051616,0.0040894,0.029716,0.0042911,0.010202,0.0048331,0,0,0.050736,-0.015369,0,0.025132,0,0,0,0.030604,0.0034033,0.010202,10.408,0.014736,0.024519,5.6537e-07,0.11,0.12,0
0.0056705,0.0044142,0.029661,0.0038371,0.010049,0.0044629,0,0,0.05099,-0.016152,0,0.023207,0,0,0,0.03041,0.0030876,0.010049,9.5338,0.014516,0.024592,5.6253e-07,0.12,0.12,0
0.0061814,0.0047257,0.029582,0.0034349,0.0099051,0.0041032,0,0,0.05116,-0.016822,0,0.021337,0,0,0,0.030211,0.0028061,0.0099051,8.7124,0.014307,0.024635,5.583e-07,0.13,0.12,0
0.0066937,0.0050237,0.029485,0.0030794,0.0097693,0.0037577,0,0,0.051261,-0.017394,0,0.01954,0,0,0,0.030009,0.002555,0.0097693,7.9436,0.014111,0.024652,5.5309e-07,0.14,0.12,0
0.0072066,0.0053083,0.029375,0.0027652,0.009642,0.0034291,0,0,0.051305,-0.01788,0,0.017831,0,0,0,0.02981,0.0023305,0.009642,7.2262,0.013927,0.024651,5.4727e-07,0.15,0.12,0
0.0077198,0.0055797,0.029256,0.0024876,0.0095231,0.0031186,0,0,0.051306,-0.018292,0,0.016217,0,0,0,0.029615,0.0021291,0.0095231,6.5581,0.013756,0.024635,5.4111e-07,0.16,0.12,0
0.0082328,0.0058381,0.029132,0.0022419,0.0094123,0.0028269,0,0,0.051272,-0.018643,0,0.0147,0,0,0,0.029426,0.0019479,0.0094123,5.9368,0.013595,0.02461,5.3483e-07,0.17,0.12,0
0.0087452,0.0060837,0.029007,0.0020241,0.0093092,0.002554,0,0,0.051213,-0.018941,0,0.013281,0,0,0,0.029246,0.0017845,0.0093092,5.3599,0.013447,0.024579,5.2858e-07,0.18,0.12,0
0.009257,0.0063171,0.028881,0.0018305,0.0092134,0.0022995,0,0,0.051135,-0.019195,0,0.011957,0,0,0,0.029075,0.0016365,0.0092134,4.8245,0.013308,0.024543,5.2248e-07,0.19,0.12,0
0.0097679,0.0065387,0.028757,0.0016581,0.0091246,0.0020627,0,0,0.051045,-0.019413,0,0.010726,0,0,0,0.028913,0.001502,0.0091246,4.328,0.01318,0.024506,5.1663e-07,0.2,0.12,0
0.010278,0.0067487,0.028637,0.001504,0.0090423,0.0018429,0,0,0.050946,-0.0196,0,0.0095832,0,0,0,0.028762,0.0013794,0.0090423,3.8679,0.013061,0.024468,5.1107e-07,0.21,0.12,0
0.010787,0.0069477,0.028522,0.001366,0.0089663,0.0016392,0,0,0.050844,-0.019761,0,0.0085236,0,0,0,0.02862,0.0012674,0.0089663,3.4418,0.012951,0.024431,5.0584e-07,0.22,0.12,0
0.011295,0.007136,0.028411,0.0012419,0.008896,0.0014505,0,0,0.05074,-0.019901,0,0.0075426,0,0,0,0.028488,0.0011647,0.008896,3.0473,0.01285,0.024395,5.0096e-07,0.23,0.12,0
0.011802,0.0073142,0.028307,0.0011301,0.0088311,0.001276,0,0,0.050637,-0.020023,0,0.0066355,0,0,0,0.028367,0.0010703,0.0088311,2.6824,0.012756,0.024362,4.9644e-07,0.24,0.12,0
0.012308,0.0074827,0.028209,0.0010289,0.0087713,0.0011149,0,0,0.050537,-0.02013,0,0.0057973,0,0,0,0.028254,0.00098328,0.0087713,2.3449,0.01267,0.024331,4.9229e-07,0.25,0.12,0
0.012812,0.0076417,0.028117,0.00093726,0.0087163,0.00096606,0,0,0.050442,-0.020225,0,0.0050235,0,0,0,0.028151,0.00090297,0.0087163,2.0331,0.01259,0.024303,4.8849e-07,0.26,0.12,0
0.013316,0.0077919,0.028032,0.00085392,0.0086656,0.00082882,0,0,0.050351,-0.02031,0,0.0043098,0,0,0,0.028057,0.00082867,0.0086656,1.7451,0.012517,0.024278,4.8503e-07,0.27,0.12,0
0.013819,0.0079334,0.027952,0.00077796,0.0086191,0.00070234,0,0,0.050266,-0.020387,0,0.0036522,0,0,0,0.02797,0.00075982,0.0086191,1.4795,0.01245,0.024256,4.8191e-07,0.28,0.12,0
0.014322,0.0080669,0.02788,0.00070857,0.0085764,0.00058588,0,0,0.050188,-0.020456,0,0.0030466,0,0,0,0.027892,0.00069594,0.0085764,1.2347,0.012388,0.024237,4.791e-07,0.29,0.12,0
0.014823,0.0081925,0.027813,0.00064503,0.0085374,0.00047877,0,0,0.050116,-0.02052,0,0.0024896,0,0,0,0.027821,0.0006366,0.0085374,1.0093,0.012332,0.024221,4.7659e-07,0.3,0.12,0
0.015324,0.0083106,0.027752,0.00058674,0.0085016,0.00038034,0,0,0.050051,-0.020579,0,0.0019778,0,0,0,0.027757,0.00058141,0.0085016,0.80199,0.01228,0.024208,4.7436e-07,0.31,0.12,0
0.015824,0.0084217,0.027697,0.00053316,0.008469,0.00029001,0,0,0.049992,-0.020633,0,0.001508,0,0,0,0.0277,0.00053006,0.008469,0.61161,0.012233,0.024198,4.724e-07,0.32,0.12,0
0.016324,0.008526,0.027647,0.00048383,0.0084393,0.00020721,0,0,0.04994,-0.020684,0,0.0010775,0,0,0,0.027649,0.00048225,0.0084393,0.43703,0.01219,0.02419,4.7068e-07,0.33,0.12,0
0.016823,0.0086239,0.027602,0.00043834,0.0084122,0.00013143,0,0,0.049895,-0.020732,0,0.00068344,0,0,0,0.027603,0.00043771,0.0084122,0.27721,0.012151,0.024185,4.692e-07,0.34,0.12,0
0.017322,0.0087156,0.027563,0.00039635,0.0083877,6.2195e-05,0,0,0.049855,-0.020778,0,0.00032341,0,0,0,0.027563,0.00039621,0.0083877,0.13117,0.012116,0.024182,4.6793e-07,0.35,0.12,0
0.01782,0.0088015,0.027528,0.00035754,0.0083656,-9.4775e-07,0,0,0.049822,-0.020821,0,-4.9283e-06,0,0,0,0.027528,0.00035754,0.0083656,-0.0019986,0.012084,0.024182,4.6686e-07,0.36,0.12,0
0.018318,0.0088818,0.027497,0.00032164,0.0083456,-5.8411e-05,0,0,0.049794,-0.020862,0,-0.00030374,0,0,0,0.027497,0.00032151,0.0083456,-0.12315,0.012055,0.024184,4.6598e-07,0.37,0.12,0
0.018816,0.0089568,0.02747,0.0002884,0.0083276,-0.00011058,0,0,0.049771,-0.020902,0,-0.00057502,0,0,0,0.027471,0.00028795,0.0083276,-0.23308,0.012029,0.024187,4.6527e-07,0.38,0.12,0
0.019314,0.0090269,0.027448,0.0002576,0.0083116,-0.00015782,0,0,0.049754,-0.02094,0,-0.00082064,0,0,0,0.027449,0.00025669,0.0083116,-0.33254,0.012006,0.024192,4.6472e-07,0.39,0.12,0
0.019811,0.0090921,0.027428,0.00022907,0.0082973,-0.00020045,0,0,0.049741,-0.020977,0,-0.0010424,0,0,0,0.02743,0.00022759,0.0082973,-0.42222,0.011985,0.024199,4.6431e-07,0.4,0.12,0
0.020308,0.0091529,0.027413,0.00020261,0.0082846,-0.0002388,0,0,0.049733,-0.021013,0,-0.0012418,0,0,0,0.027415,0.00020052,0.0082846,-0.50279,0.011967,0.024207,4.6404e-07,0.41,0.12,0
0.020806,0.0092093,0.0274,0.00017809,0.0082734,-0.00027315,0,0,0.049729,-0.021048,0,-0.0014204,0,0,0,0.027403,0.00017534,0.0082734,-0.57485,0.01195,0.024216,4.6389e-07,0.42,0.12,0
0.021303,0.0092617,0.02739,0.00015534,0.0082636,-0.00030379,0,0,0.049729,-0.021081,0,-0.0015797,0,0,0,0.027393,0.00015195,0.0082636,-0.63899,0.011936,0.024226,4.6385e-07,0.43,0.12,0
0.0218,0.0093103,0.027383,0.00013426,0.0082551,-0.00033095,0,0,0.049732,-0.021114,0,-0.0017209,0,0,0,0.027387,0.00013024,0.0082551,-0.69575,0.011924,0.024238,4.6392e-07,0.44,0.12,0
0.022298,0.0093552,0.027378,0.00011472,0.0082478,-0.00035488,0,0,0.049739,-0.021146,0,-0.0018454,0,0,0,0.027383,0.0001101,0.0082478,-0.74564,0.011914,0.02425,4.6408e-07,0.45,0.12,0
0.022795,0.0093967,0.027376,9.6613e-05,0.0082417,-0.00037581,0,0,0.049748,-0.021177,0,-0.0019542,0,0,0,0.027381,9.1437e-05,0.0082417,-0.78914,0.011905,0.024264,4.6433e-07,0.46,0.12,0
0.023293,0.009435,0.027375,7.9848e-05,0.0082365,-0.00039394,0,0,0.049761,-0.021207,0,-0.0020485,0,0,0,0.027381,7.4164e-05,0.0082365,-0.8267,0.011897,0.024278,4.6465e-07,0.47,0.12,0
0.02379,0.0094701,0.027377,6.4333e-05,0.0082324,-0.00040948,0,0,0.049776,-0.021237,0,-0.0021293,0,0,0,0.027383,5.8196e-05,0.0082324,-0.85874,0.011891,0.024292,4.6505e-07,0.48,0.12,0
0.024288,0.0095024,0.02738,4.9986e-05,0.008229,-0.00042259,0,0,0.049793,-0.021265,0,-0.0021975,0,0,0,0.027387,4.3453e-05,0.008229,-0.88566,0.011886,0.024307,4.6551e-07,0.49,0.12,0
0.024786,0.009532,0.027385,3.6729e-05,0.0082265,-0.00043347,0,0,0.049812,-0.021293,0,-0.002254,0,0,0,0.027392,2.986e-05,0.0082265,-0.90783,0.011883,0.024323,4.6602e-07,0.5,0.12,0
0.025284,0.009559,0.027391,2.4493e-05,0.0082248,-0.00044226,0,0,0.049833,-0.021321,0,-0.0022997,0,0,0,0.027398,1.7348e-05,0.0082248,-0.9256,0.01188,0.024338,4.6659e-07,0.51,0.12,0
0.025783,0.0095836,0.027399,1.3211e-05,0.0082237,-0.00044912,0,0,0.049856,-0.021347,0,-0.0023354,0,0,0,0.027406,5.8471e-06,0.0082237,-0.9393,0.011879,0.024355,4.672e-07,0.52,0.12,0
0.026281,0.0096059,0.027408,2.8209e-06,0.0082232,-0.0004542,0,0,0.04988,-0.021373,0,-0.0023618,0,0,0,0.027415,-4.7046e-06,0.0082232,-0.94924,0.011878,0.024371,4.6785e-07,0.53,0.12,0
0.02678,0.0096262,0.027418,-6.7338e-06,0.0082233,-0.00045762,0,0,0.049905,-0.021398,0,-0.0023796,0,0,0,0.027425,-1.4368e-05,0.0082233,-0.95571,0.011878,0.024388,4.6854e-07,0.54,0.12,0
0.02728,0.0096444,0.027428,-1.5508e-05,0.0082238,-0.00045951,0,0,0.049932,-0.021422,0,-0.0023895,0,0,0,0.027436,-2.3199e-05,0.0082238,-0.95899,0.011879,0.024404,4.6925e-07,0.55,0.12,0
0.027779,0.0096608,0.02744,-2.3551e-05,0.0082249,-0.00046,0,0,0.049959,-0.021446,0,-0.002392,0,0,0,0.027448,-3.1254e-05,0.0082249,-0.95931,0.01188,0.024421,4.6999e-07,0.56,0.12,0
0.028279,0.0096754,0.027452,-3.0912e-05,0.0082264,-0.00045918,0,0,0.049987,-0.021469,0,-0.0023878,0,0,0,0.02746,-3.8582e-05,0.0082264,-0.95693,0.011883,0.024438,4.7075e-07,0.57,0.12,0
0.028779,0.0096884,0.027465,-3.7635e-05,0.0082282,-0.00045717,0,0,0.050016,-0.021491,0,-0.0023773,0,0,0,0.027473,-4.5232e-05,0.0082282,-0.95207,0.011885,0.024454,4.7153e-07,0.58,0.12,0
0.029279,0.0096999,0.027478,-4.3762e-05,0.0082304,-0.00045406,0,0,0.050045,-0.021513,0,-0.0023611,0,0,0,0.027486,-5.1251e-05,0.0082304,-0.94493,0.011888,0.024471,4.7233e-07,0.59,0.12,0
0.02978,0.00971,0.027492,-4.9334e-05,0.0082329,-0.00044994,0,0,0.050074,-0.021534,0,-0.0023397,0,0,0,0.0275,-5.6683e-05,0.0082329,-0.9357,0.011892,0.024487,4.7313e-07,0.6,0.12,0
0.030281,0.0097189,0.027506,-5.4387e-05,0.0082356,-0.0004449,0,0,0.050104,-0.021554,0,-0.0023135,0,0,0,0.027514,-6.1567e-05,0.0082356,-0.92458,0.011896,0.024504,4.7394e-07,0.61,0.12,0
0.030782,0.0097265,0.027521,-5.8958e-05,0.0082386,-0.00043902,0,0,0.050134,-0.021573,0,-0.0022829,0,0,0,0.027528,-6.5945e-05,0.0082386,-0.91173,0.0119,0.02452,4.7476e-07,0.62,0.12,0
0.031283,0.009733,0.027536,-6.308e-05,0.0082417,-0.00043236,0,0,0.050164,-0.021593,0,-0.0022483,0,0,0,0.027542,-6.9852e-05,0.0082417,-0.8973,0.011905,0.024536,4.7558e-07,0.63,0.12,0
0.031785,0.0097384,0.02755,-6.6785e-05,0.008245,-0.000425,0,0,0.050194,-0.021611,0,-0.00221,0,0,0,0.027557,-7.3324e-05,0.008245,-0.88145,0.011909,0.024552,4.764e-07,0.64,0.12,0
0.032287,0.009743,0.027565,-7.0103e-05,0.0082485,-0.00041701,0,0,0.050223,-0.021628,0,-0.0021684,0,0,0,0.027571,-7.6394e-05,0.0082485,-0.86431,0.011914,0.024567,4.7721e-07,0.65,0.12,0
0.032789,0.0097466,0.02758,-7.3062e-05,0.0082521,-0.00040844,0,0,0.050253,-0.021645,0,-0.0021239,0,0,0,0.027586,-7.9093e-05,0.0082521,-0.84601,0.01192,0.024582,4.7802e-07,0.66,0.12,0
0.033292,0.0097495,0.027595,-7.5689e-05,0.0082558,-0.00039934,0,0,0.050282,-0.021662,0,-0.0020766,0,0,0,0.027601,-8.1451e-05,0.0082558,-0.82667,0.011925,0.024597,4.7882e-07,0.67,0.12,0
0.033795,0.0097516,0.02761,-7.8011e-05,0.0082595,-0.00038978,0,0,0.050311,-0.021678,0,-0.0020269,0,0,0,0.027615,-8.3497e-05,0.0082595,-0.80639,0.01193,0.024612,4.7962e-07,0.68,0.12,0
0.034298,0.0097531,0.027624,-8.005e-05,0.0082633,-0.0003798,0,0,0.050339,-0.021693,0,-0.001975,0,0,0,0.02763,-8.5255e-05,0.0082633,-0.78527,0.011936,0.024626,4.804e-07,0.69,0.12,0
0.034802,0.009754,0.027639,-8.183e-05,0.0082671,-0.00036944,0,0,0.050367,-0.021707,0,-0.0019211,0,0,0,0.027644,-8.6752e-05,0.0082671,-0.76341,0.011941,0.02464,4.8117e-07,0.7,0.12,0
0.035306,0.0097544,0.027653,-8.3372e-05,0.008271,-0.00035874,0,0,0.050394,-0.021721,0,-0.0018655,0,0,0,0.027658,-8.8011e-05,0.008271,-0.74089,0.011947,0.024653,4.8192e-07,0.71,0.12,0
0.03581,0.0097543,0.027667,-8.4697e-05,0.0082748,-0.00034775,0,0,0.050421,-0.021735,0,-0.0018083,0,0,0,0.027672,-8.9054e-05,0.0082748,-0.71779,0.011952,0.024666,4.8266e-07,0.72,0.12,0
0.036314,0.0097538,0.027681,-8.5824e-05,0.0082786,-0.00033649,0,0,0.050447,-0.021747,0,-0.0017497,0,0,0,0.027685,-8.9901e-05,0.0082786,-0.69419,0.011958,0.024679,4.8339e-07,0.73,0.12,0
0.036819,0.009753,0.027695,-8.6771e-05,0.0082824,-0.00032499,0,0,0.050472,-0.02176,0,-0.00169,0,0,0,0.027698,-9.0573e-05,0.0082824,-0.67014,0.011963,0.024691,4.8409e-07,0.74,0.12,0
0.037324,0.0097518,0.027708,-8.7556e-05,0.0082861,-0.0003133,0,0,0.050496,-0.021771,0,-0.0016291,0,0,0,0.027711,-9.1087e-05,0.0082861,-0.64571,0.011969,0.024703,4.8478e-07,0.75,0.12,0
0.037829,0.0097503,0.027721,-8.8194e-05,0.0082897,-0.00030143,0,0,0.05052,-0.021783,0,-0.0015674,0,0,0,0.027724,-9.1461e-05,0.0082897,-0.62095,0.011974,0.024715,4.8544e-07,0.76,0.12,0
0.038334,0.0097486,0.027733,-8.8701e-05,0.0082933,-0.0002894,0,0,0.050543,-0.021793,0,-0.0015049,0,0,0,0.027736,-9.1711e-05,0.0082933,-0.59591,0.011979,0.024726,4.8609e-07,0.77,0.12,0
0.038839,0.0097467,0.027745,-8.9091e-05,0.0082968,-0.00027725,0,0,0.050565,-0.021803,0,-0.0014417,0,0,0,0.027748,-9.1852e-05,0.0082968,-0.57063,0.011984,0.024736,4.8671e-07,0.78,0.12,0
0.039345,0.0097447,0.027757,-8.9378e-05,0.0083002,-0.00026498,0,0,0.050587,-0.021813,0,-0.0013779,0,0,0,0.027759,-9.1899e-05,0.0083002,-0.54516,0.011989,0.024746,4.8731e-07,0.79,0.12,0
0.039851,0.0097425,0.027768,-8.9574e-05,0.0083035,-0.00025262,0,0,0.050607,-0.021822,0,-0.0013136,0,0,0,0.02777,-9.1864e-05,0.0083035,-0.51953,0.011994,0.024756,4.8788e-07,0.8,0.12,0
0.040357,0.0097403,0.027779,-8.969e-05,0.0083067,-0.00024019,0,0,0.050627,-0.02183,0,-0.001249,0,0,0,0.027781,-9.176e-05,0.0083067,-0.49376,0.011999,0.024765,4.8843e-07,0.81,0.12,0
0.040864,0.009738,0.027789,-8.9739e-05,0.0083097,-0.00022769,0,0,0.050646,-0.021839,0,-0.001184,0,0,0,0.027791,-9.1599e-05,0.0083097,-0.4679,0.012003,0.024774,4.8896e-07,0.82,0.12,0
0.04137,0.0097356,0.027799,-8.9731e-05,0.0083126,-0.00021513,0,0,0.050663,-0.021846,0,-0.0011187,0,0,0,0.0278,-9.139e-05,0.0083126,-0.44195,0.012007,0.024782,4.8946e-07,0.83,0.12,0
0.041877,0.0097333,0.027808,-8.9674e-05,0.0083154,-0.00020254,0,0,0.05068,-0.021853,0,-0.0010532,0,0,0,0.027809,-9.1145e-05,0.0083154,-0.41595,0.012011,0.02479,4.8993e-07,0.84,0.12,0
0.042384,0.009731,0.027817,-8.9579e-05,0.0083181,-0.00018992,0,0,0.050696,-0.02186,0,-0.00098759,0,0,0,0.027818,-9.0871e-05,0.0083181,-0.38991,0.012015,0.024798,4.9038e-07,0.85,0.12,0
0.042891,0.0097287,0.027825,-8.9453e-05,0.0083206,-0.00017728,0,0,0.050711,-0.021866,0,-0.00092183,0,0,0,0.027826,-9.0578e-05,0.0083206,-0.36385,0.012019,0.024805,4.908e-07,0.86,0.12,0
0.043398,0.0097266,0.027832,-8.9303e-05,0.008323,-0.00016461,0,0,0.050725,-0.021872,0,-0.00085599,0,0,0,0.027834,-9.0274e-05,0.008323,-0.33777,0.012022,0.024811,4.9119e-07,0.87,0.12,0
0.043906,0.0097245,0.02784,-8.9138e-05,0.0083251,-0.00015194,0,0,0.050738,-0.021877,0,-0.0007901,0,0,0,0.027841,-8.9965e-05,0.0083251,-0.3117,0.012025,0.024817,4.9156e-07,0.88,0.12,0
0.044413,0.0097225,0.027846,-8.8963e-05,0.0083272,-0.00013926,0,0,0.05075,-0.021882,0,-0.00072418,0,0,0,0.027847,-8.9657e-05,0.0083272,-0.28563,0.012028,0.024823,4.9189e-07,0.89,0.12,0
0.044921,0.0097206,0.027852,-8.8784e-05,0.008329,-0.00012659,0,0,0.05076,-0.021886,0,-0.00065825,0,0,0,0.027853,-8.9358e-05,0.008329,-0.25957,0.012031,0.024828,4.922e-07,0.9,0.12,0
0.045428,0.0097188,0.027858,-8.8607e-05,0.0083307,-0.00011391,0,0,0.05077,-0.02189,0,-0.00059232,0,0,0,0.027858,-8.9071e-05,0.0083307,-0.23353,0.012033,0.024832,4.9248e-07,0.91,0.12,0
0.045936,0.0097172,0.027863,-8.8436e-05,0.0083323,-0.00010123,0,0,0.050779,-0.021894,0,-0.00052641,0,0,0,0.027863,-8.8802e-05,0.0083323,-0.20751,0.012035,0.024836,4.9273e-07,0.92,0.12,0
0.046444,0.0097158,0.027867,-8.8275e-05,0.0083336,-8.8563e-05,0,0,0.050787,-0.021897,0,-0.00046053,0,0,0,0.027867,-8.8556e-05,0.0083336,-0.18151,0.012037,0.02484,4.9296e-07,0.93,0.12,0
0.046952,0.0097146,0.027871,-8.8128e-05,0.0083348,-7.5897e-05,0,0,0.050794,-0.0219,0,-0.00039467,0,0,0,0.027871,-8.8334e-05,0.0083348,-0.15553,0.012039,0.024843,4.9315e-07,0.94,0.12,0
0.04746,0.0097135,0.027874,-8.7999e-05,0.0083358,-6.3237e-05,0,0,0.050799,-0.021902,0,-0.00032883,0,0,0,0.027874,-8.8142e-05,0.0083358,-0.12958,0.012041,0.024846,4.9331e-07,0.95,0.12,0
0.047968,0.0097126,0.027877,-8.789e-05,0.0083366,-5.0583e-05,0,0,0.050804,-0.021904,0,-0.00026303,0,0,0,0.027877,-8.7981e-05,0.0083366,-0.10364,0.012042,0.024848,4.9344e-07,0.96,0.12,0
0.048476,0.0097119,0.027879,-8.7802e-05,0.0083373,-3.7933e-05,0,0,0.050808,-0.021905,0,-0.00019725,0,0,0,0.027879,-8.7854e-05,0.0083373,-0.077713,0.012043,0.024849,4.9355e-07,0.97,0.12,0
0.048984,0.0097114,0.02788,-8.7739e-05,0.0083377,-2.5286e-05,0,0,0.05081,-0.021906,0,-0.00013149,0,0,0,0.02788,-8.7761e-05,0.0083377,-0.051802,0.012043,0.024851,4.9362e-07,0.98,0.12,0
0.049492,0.0097111,0.027881,-8.77e-05,0.008338,-1.2642e-05,0,0,0.050812,-0.021907,0,-6.5741e-05,0,0,0,0.027881,-8.7706e-05,0.008338,-0.025899,0.012044,0.024851,4.9367e-07,0.99,0.12,0
0.05,0.009711,0.027881,-8.7687e-05,0.0083381,-1.9516e-06,0,0,0.050812,-0.021907,0,-1.0148e-05,0,0,0,0.027881,-8.7687e-05,0.0083381,-0.0039979,0.012044,0.024852,4.9368e-07,1,0.12,0
0,0,0.028066,0.012028,0.012028,0.0068503,0,0,0.041698,-7.0473e-19,0,0.035621,0,0,0,0.030594,0.0095007,0.012028,20.253,0.017374,0.01995,3.858e-07,0,0.13,0
0.00041698,0.00035621,0.028012,0.011302,0.011794,0.0068451,0,0,0.042167,-0.00128,0,0.035595,0,0,0,0.030458,0.008856,0.011794,19.663,0.017036,0.020293,3.9906e-07,0.01,0.13,0
0.00084334,0.00071967,0.028256,0.010634,0.011667,0.0068764,0,0,0.043131,-0.0026848,0,0.035757,0,0,0,0.030622,0.0082688,0.011667,18.985,0.016852,0.020862,4.2494e-07,0.02,0.13,0
0.0012796,0.0010883,0.028499,0.0099197,0.011526,0.0068499,0,0,0.044131,-0.0041753,0,0.035619,0,0,0,0.030751,0.0076673,0.011526,18.202,0.016648,0.021417,4.4986e-07,0.03,0.13,0
0.0017259,0.0014597,0.028732,0.0091785,0.011373,0.006761,0,0,0.045132,-0.0057059,0,0.035157,0,0,0,0.030842,0.0070684,0.011373,17.333,0.016428,0.02194,4.7281e-07,0.04,0.13,0
0.0021823,0.0018313,0.028944,0.0084322,0.011213,0.0066106,0,0,0.046102,-0.0072301,0,0.034375,0,0,0,0.03089,0.0064863,0.011213,16.402,0.016196,0.022417,4.9301e-07,0.05,0.13,0
0.002648,0.0022005,0.029129,0.0077001,0.011049,0.0064039,0,0,0.047009,-0.0087065,0,0.0333,0,0,0,0.030897,0.0059321,0.011049,15.433,0.015959,0.02284,5.0997e-07,0.06,0.13,0
0.0031224,0.0025651,0.02928,0.0069978,0.010883,0.0061496,0,0,0.047831,-0.010102,0,0.031978,0,0,0,0.030864,0.0054132,0.010883,14.449,0.01572,0.023205,5.2348e-07,0.07,0.13,0
0.0036046,0.0029229,0.029393,0.0063366,0.010719,0.0058577,0,0,0.048553,-0.011394,0,0.03046,0,0,0,0.030796,0.0049338,0.010719,13.468,0.015483,0.02351,5.336e-07,0.08,0.13,0
0.0040935,0.0032722,0.02947,0.0057235,0.010558,0.005539,0,0,0.049171,-0.01257,0,0.028803,0,0,0,0.030698,0.004495,0.010558,12.505,0.015251,0.023759,5.4058e-07,0.09,0.13,0
0.004588,0.0036115,0.029511,0.0051617,0.010402,0.0052036,0,0,0.049683,-0.013624,0,0.027059,0,0,0,0.030576,0.0040963,0.010402,11.571,0.015025,0.023958,5.4477e-07,0.1,0.13,0
0.0050872,0.00394,0.029519,0.0046517,0.010251,0.0048602,0,0,0.050097,-0.014559,0,0.025273,0,0,0,0.030435,0.0037356,0.010251,10.675,0.014807,0.024112,5.4661e-07,0.11,0.13,0
0.0055899,0.0042566,0.029499,0.0041918,0.010107,0.0045162,0,0,0.050419,-0.01538,0,0.023484,0,0,0,0.030281,0.00341,0.010107,9.8208,0.014599,0.024227,5.4653e-07,0.12,0.13,0
0.0060955,0.0045611,0.029456,0.003779,0.0099704,0.0041773,0,0,0.050662,-0.016098,0,0.021722,0,0,0,0.030118,0.0031165,0.0099704,9.0117,0.014402,0.02431,5.4495e-07,0.13,0.13,0
0.0066032,0.0048532,0.029393,0.0034096,0.0098407,0.0038477,0,0,0.050835,-0.016721,0,0.020008,0,0,0,0.029951,0.0028518,0.0098407,8.2488,0.014214,0.024368,5.4223e-07,0.14,0.13,0
0.0071123,0.0051326,0.029315,0.0030796,0.0097184,0.0035305,0,0,0.050951,-0.017261,0,0.018359,0,0,0,0.029782,0.0026128,0.0097184,7.5319,0.014038,0.024405,5.3869e-07,0.15,0.13,0
0.0076222,0.0053996,0.029226,0.0027849,0.0096033,0.0032278,0,0,0.051019,-0.017728,0,0.016784,0,0,0,0.029614,0.0023966,0.0096033,6.8601,0.013871,0.024425,5.346e-07,0.16,0.13,0
0.0081326,0.0056542,0.029129,0.0025217,0.0094953,0.0029406,0,0,0.051048,-0.018131,0,0.015291,0,0,0,0.02945,0.0022006,0.0094953,6.232,0.013715,0.024433,5.3017e-07,0.17,0.13,0
0.0086432,0.0058966,0.029028,0.0022863,0.0093942,0.0026696,0,0,0.051047,-0.018481,0,0.013882,0,0,0,0.029292,0.0020224,0.0093942,5.6456,0.013569,0.024432,5.2556e-07,0.18,0.13,0
0.0091536,0.0061272,0.028924,0.0020756,0.0092998,0.0024149,0,0,0.051022,-0.018783,0,0.012558,0,0,0,0.029139,0.0018601,0.0092998,5.0991,0.013433,0.024424,5.2092e-07,0.19,0.13,0
0.0096636,0.0063463,0.028819,0.0018865,0.0092118,0.0021764,0,0,0.05098,-0.019046,0,0.011317,0,0,0,0.028994,0.0017118,0.0092118,4.5902,0.013306,0.024412,5.1634e-07,0.2,0.13,0
0.010173,0.0065543,0.028716,0.0017166,0.0091298,0.0019534,0,0,0.050924,-0.019274,0,0.010158,0,0,0,0.028857,0.001576,0.0091298,4.1168,0.013187,0.024397,5.1189e-07,0.21,0.13,0
0.010682,0.0067514,0.028615,0.0015634,0.0090536,0.0017456,0,0,0.05086,-0.019474,0,0.0090773,0,0,0,0.028727,0.0014512,0.0090536,3.6769,0.013077,0.024381,5.0763e-07,0.22,0.13,0
0.01119,0.0069382,0.028517,0.001425,0.0089827,0.0015522,0,0,0.05079,-0.01965,0,0.0080716,0,0,0,0.028606,0.0013364,0.0089827,3.2685,0.012975,0.024364,5.0359e-07,0.23,0.13,0
0.011698,0.007115,0.028424,0.0012997,0.008917,0.0013725,0,0,0.050717,-0.019805,0,0.0071372,0,0,0,0.028493,0.0012304,0.008917,2.8895,0.01288,0.024347,4.998e-07,0.24,0.13,0
0.012205,0.0072822,0.028334,0.001186,0.0088561,0.0012058,0,0,0.050644,-0.019942,0,0.0062702,0,0,0,0.028388,0.0011325,0.0088561,2.5381,0.012792,0.024331,4.9626e-07,0.25,0.13,0
0.012711,0.0074402,0.02825,0.0010824,0.0087997,0.0010513,0,0,0.050571,-0.020065,0,0.0054667,0,0,0,0.028291,0.0010418,0.0087997,2.2127,0.012711,0.024316,4.9299e-07,0.26,0.13,0
0.013216,0.0075894,0.028171,0.00098801,0.0087476,0.00090824,0,0,0.0505,-0.020175,0,0.0047229,0,0,0,0.028201,0.0009577,0.0087476,1.9116,0.012635,0.024303,4.8999e-07,0.27,0.13,0
0.013721,0.0077301,0.028096,0.00090169,0.0086994,0.00077598,0,0,0.050432,-0.020274,0,0.0040351,0,0,0,0.028119,0.00087957,0.0086994,1.6331,0.012566,0.024292,4.8725e-07,0.28,0.13,0
0.014225,0.0078627,0.028027,0.00082262,0.008655,0.00065383,0,0,0.050368,-0.020364,0,0.0033999,0,0,0,0.028043,0.00080692,0.008655,1.376,0.012502,0.024283,4.8476e-07,0.29,0.13,0
0.014728,0.0079876,0.027963,0.00075005,0.0086141,0.00054115,0,0,0.050309,-0.020446,0,0.002814,0,0,0,0.027974,0.00073929,0.0086141,1.1387,0.012443,0.024275,4.8252e-07,0.3,0.13,0
0.015231,0.0081051,0.027905,0.00068332,0.0085764,0.00043733,0,0,0.050253,-0.020522,0,0.0022741,0,0,0,0.027912,0.00067629,0.0085764,0.92018,0.012388,0.02427,4.8051e-07,0.31,0.13,0
0.015733,0.0082155,0.027851,0.00062186,0.0085418,0.0003418,0,0,0.050203,-0.020592,0,0.0017774,0,0,0,0.027855,0.00061757,0.0085418,0.71907,0.012338,0.024266,4.7872e-07,0.32,0.13,0
0.016235,0.0083193,0.027802,0.00056518,0.00851,0.00025402,0,0,0.050158,-0.020657,0,0.0013209,0,0,0,0.027804,0.00056281,0.00851,0.53431,0.012292,0.024264,4.7714e-07,0.33,0.13,0
0.016736,0.0084166,0.027757,0.00051283,0.0084809,0.00017349,0,0,0.050118,-0.020717,0,0.00090215,0,0,0,0.027758,0.00051173,0.0084809,0.36484,0.01225,0.024264,4.7576e-07,0.34,0.13,0
0.017237,0.0085078,0.027717,0.00046444,0.0084544,9.9738e-05,0,0,0.050082,-0.020774,0,0.00051864,0,0,0,0.027717,0.00046407,0.0084544,0.20969,0.012212,0.024265,4.7456e-07,0.35,0.13,0
0.017738,0.0085932,0.027681,0.00041965,0.0084301,3.2319e-05,0,0,0.050052,-0.020827,0,0.00016806,0,0,0,0.027681,0.00041961,0.0084301,0.067927,0.012177,0.024268,4.7354e-07,0.36,0.13,0
0.018238,0.0086731,0.027649,0.00037817,0.008408,-2.918e-05,0,0,0.050026,-0.020878,0,-0.00015174,0,0,0,0.027649,0.00037813,0.008408,-0.061309,0.012145,0.024273,4.7268e-07,0.37,0.13,0
0.018739,0.0087477,0.02762,0.00033972,0.008388,-8.5149e-05,0,0,0.050004,-0.020925,0,-0.00044278,0,0,0,0.02762,0.00033945,0.008388,-0.17883,0.012116,0.024279,4.7197e-07,0.38,0.13,0
0.019238,0.0088173,0.027595,0.00030407,0.0083699,-0.00013595,0,0,0.049987,-0.020971,0,-0.00070694,0,0,0,0.027596,0.00030339,0.0083699,-0.28541,0.01209,0.024286,4.714e-07,0.39,0.13,0
0.019738,0.0088821,0.027574,0.00027099,0.0083535,-0.00018192,0,0,0.049973,-0.021014,0,-0.000946,0,0,0,0.027575,0.00026978,0.0083535,-0.38175,0.012066,0.024294,4.7096e-07,0.4,0.13,0
0.020238,0.0089425,0.027556,0.00024031,0.0083388,-0.00022339,0,0,0.049964,-0.021056,0,-0.0011616,0,0,0,0.027557,0.00023848,0.0083388,-0.46853,0.012045,0.024303,4.7063e-07,0.41,0.13,0
0.020738,0.0089986,0.02754,0.00021183,0.0083256,-0.00026065,0,0,0.049958,-0.021096,0,-0.0013554,0,0,0,0.027543,0.00020934,0.0083256,-0.5464,0.012026,0.024313,4.7042e-07,0.42,0.13,0
0.021237,0.0090507,0.027527,0.00018541,0.0083139,-0.00029398,0,0,0.049955,-0.021134,0,-0.0015287,0,0,0,0.027531,0.00018225,0.0083139,-0.61594,0.012009,0.024324,4.7031e-07,0.43,0.13,0
0.021737,0.0090989,0.027517,0.00016089,0.0083035,-0.00032364,0,0,0.049956,-0.021171,0,-0.0016829,0,0,0,0.027521,0.00015706,0.0083035,-0.67771,0.011994,0.024336,4.7029e-07,0.44,0.13,0
0.022236,0.0091434,0.027509,0.00013815,0.0082943,-0.00034989,0,0,0.04996,-0.021206,0,-0.0018194,0,0,0,0.027514,0.00013368,0.0082943,-0.73225,0.011981,0.024348,4.7036e-07,0.45,0.13,0
0.022736,0.0091846,0.027504,0.00011707,0.0082863,-0.00037295,0,0,0.049966,-0.02124,0,-0.0019393,0,0,0,0.027509,0.00011199,0.0082863,-0.78005,0.011969,0.024361,4.7051e-07,0.46,0.13,0
0.023236,0.0092225,0.0275,9.7535e-05,0.0082793,-0.00039304,0,0,0.049974,-0.021273,0,-0.0020438,0,0,0,0.027506,9.1899e-05,0.0082793,-0.82157,0.011959,0.024374,4.7072e-07,0.47,0.13,0
0.023735,0.0092574,0.027498,7.9442e-05,0.0082734,-0.00041037,0,0,0.049985,-0.021304,0,-0.0021339,0,0,0,0.027505,7.3301e-05,0.0082734,-0.85726,0.01195,0.024388,4.71e-07,0.48,0.13,0
0.024235,0.0092894,0.027498,6.2698e-05,0.0082684,-0.00042513,0,0,0.049998,-0.021335,0,-0.0022107,0,0,0,0.027505,5.6112e-05,0.0082684,-0.88753,0.011943,0.024402,4.7134e-07,0.49,0.13,0
0.024735,0.0093187,0.0275,4.7215e-05,0.0082642,-0.0004375,0,0,0.050013,-0.021364,0,-0.002275,0,0,0,0.027507,4.0245e-05,0.0082642,-0.91277,0.011937,0.024417,4.7173e-07,0.5,0.13,0
0.025236,0.0093454,0.027503,3.2913e-05,0.0082608,-0.00044764,0,0,0.05003,-0.021392,0,-0.0023277,0,0,0,0.02751,2.562e-05,0.0082608,-0.93335,0.011932,0.024431,4.7217e-07,0.51,0.13,0
0.025736,0.0093698,0.027507,1.9716e-05,0.0082581,-0.00045573,0,0,0.050048,-0.02142,0,-0.0023698,0,0,0,0.027515,1.2162e-05,0.0082581,-0.94959,0.011928,0.024446,4.7265e-07,0.52,0.13,0
0.026236,0.0093918,0.027513,7.552e-06,0.008256,-0.00046191,0,0,0.050067,-0.021446,0,-0.0024019,0,0,0,0.02752,-2.0291e-07,0.008256,-0.96184,0.011925,0.024461,4.7316e-07,0.53,0.13,0
0.026737,0.0094118,0.027519,-3.6441e-06,0.0082546,-0.00046632,0,0,0.050088,-0.021472,0,-0.0024248,0,0,0,0.027527,-1.1543e-05,0.0082546,-0.97039,0.011923,0.024476,4.7371e-07,0.54,0.13,0
0.027238,0.0094298,0.027526,-1.3935e-05,0.0082538,-0.00046908,0,0,0.050109,-0.021496,0,-0.0024392,0,0,0,0.027534,-2.1922e-05,0.0082538,-0.97552,0.011922,0.024491,4.7429e-07,0.55,0.13,0
0.027739,0.0094459,0.027535,-2.3378e-05,0.0082534,-0.00047034,0,0,0.050131,-0.02152,0,-0.0024458,0,0,0,0.027543,-3.1403e-05,0.0082534,-0.9775,0.011922,0.024506,4.749e-07,0.56,0.13,0
0.028241,0.0094603,0.027544,-3.203e-05,0.0082535,-0.0004702,0,0,0.050154,-0.021542,0,-0.002445,0,0,0,0.027552,-4.0045e-05,0.0082535,-0.97659,0.011922,0.024521,4.7552e-07,0.57,0.13,0
0.028743,0.0094731,0.027553,-3.9941e-05,0.008254,-0.00046877,0,0,0.050178,-0.021564,0,-0.0024376,0,0,0,0.027561,-4.7902e-05,0.008254,-0.973,0.011923,0.024535,4.7616e-07,0.58,0.13,0
0.029244,0.0094844,0.027564,-4.7159e-05,0.0082549,-0.00046616,0,0,0.050202,-0.021585,0,-0.002424,0,0,0,0.027571,-5.5028e-05,0.0082549,-0.96698,0.011924,0.02455,4.7682e-07,0.59,0.13,0
0.029747,0.0094944,0.027574,-5.3733e-05,0.0082562,-0.00046246,0,0,0.050227,-0.021606,0,-0.0024048,0,0,0,0.027582,-6.1471e-05,0.0082562,-0.9587,0.011926,0.024564,4.7748e-07,0.6,0.13,0
0.030249,0.009503,0.027585,-5.9703e-05,0.0082577,-0.00045776,0,0,0.050252,-0.021625,0,-0.0023803,0,0,0,0.027593,-6.7281e-05,0.0082577,-0.94838,0.011928,0.024579,4.7816e-07,0.61,0.13,0
0.030752,0.0095104,0.027597,-6.5112e-05,0.0082595,-0.00045214,0,0,0.050277,-0.021644,0,-0.0023512,0,0,0,0.027604,-7.2501e-05,0.0082595,-0.93619,0.01193,0.024593,4.7884e-07,0.62,0.13,0
0.031254,0.0095167,0.027609,-6.9999e-05,0.0082616,-0.00044569,0,0,0.050302,-0.021662,0,-0.0023176,0,0,0,0.027616,-7.7174e-05,0.0082616,-0.92228,0.011933,0.024607,4.7953e-07,0.63,0.13,0
0.031758,0.009522,0.02762,-7.44e-05,0.0082638,-0.00043848,0,0,0.050327,-0.021679,0,-0.0022801,0,0,0,0.027627,-8.1341e-05,0.0082638,-0.90683,0.011937,0.024621,4.8021e-07,0.64,0.13,0
0.032261,0.0095263,0.027633,-7.835e-05,0.0082663,-0.00043057,0,0,0.050353,-0.021696,0,-0.002239,0,0,0,0.027639,-8.5039e-05,0.0082663,-0.88997,0.01194,0.024634,4.809e-07,0.65,0.13,0
0.032765,0.0095298,0.027645,-8.1882e-05,0.0082689,-0.00042204,0,0,0.050377,-0.021712,0,-0.0021946,0,0,0,0.027651,-8.8304e-05,0.0082689,-0.87184,0.011944,0.024647,4.8158e-07,0.66,0.13,0
0.033269,0.0095325,0.027657,-8.5027e-05,0.0082716,-0.00041293,0,0,0.050402,-0.021727,0,-0.0021472,0,0,0,0.027663,-9.1172e-05,0.0082716,-0.85257,0.011948,0.02466,4.8226e-07,0.67,0.13,0
0.033773,0.0095345,0.027669,-8.7814e-05,0.0082744,-0.0004033,0,0,0.050427,-0.021742,0,-0.0020972,0,0,0,0.027675,-9.3673e-05,0.0082744,-0.83226,0.011952,0.024673,4.8293e-07,0.68,0.13,0
0.034277,0.0095359,0.027682,-9.0272e-05,0.0082774,-0.00039321,0,0,0.050451,-0.021756,0,-0.0020447,0,0,0,0.027687,-9.5838e-05,0.0082774,-0.81102,0.011956,0.024685,4.836e-07,0.69,0.13,0
0.034782,0.0095367,0.027694,-9.2426e-05,0.0082804,-0.00038271,0,0,0.050474,-0.021769,0,-0.0019901,0,0,0,0.027699,-9.7697e-05,0.0082804,-0.78896,0.011961,0.024697,4.8425e-07,0.7,0.13,0
0.035287,0.0095369,0.027706,-9.4303e-05,0.0082834,-0.00037183,0,0,0.050498,-0.021782,0,-0.0019335,0,0,0,0.027711,-9.9275e-05,0.0082834,-0.76616,0.011965,0.024709,4.8489e-07,0.71,0.13,0
0.035792,0.0095367,0.027717,-9.5925e-05,0.0082865,-0.00036062,0,0,0.050521,-0.021794,0,-0.0018752,0,0,0,0.027722,-0.0001006,0.0082865,-0.74271,0.011969,0.02472,4.8552e-07,0.72,0.13,0
0.036297,0.0095361,0.027729,-9.7314e-05,0.0082895,-0.00034911,0,0,0.050543,-0.021806,0,-0.0018154,0,0,0,0.027734,-0.00010169,0.0082895,-0.71868,0.011974,0.024731,4.8614e-07,0.73,0.13,0
0.036803,0.0095351,0.027741,-9.8492e-05,0.0082926,-0.00033734,0,0,0.050565,-0.021817,0,-0.0017542,0,0,0,0.027745,-0.00010258,0.0082926,-0.69415,0.011978,0.024742,4.8674e-07,0.74,0.13,0
0.037308,0.0095338,0.027752,-9.9479e-05,0.0082957,-0.00032534,0,0,0.050586,-0.021827,0,-0.0016918,0,0,0,0.027756,-0.00010328,0.0082957,-0.66918,0.011983,0.024752,4.8733e-07,0.75,0.13,0
0.037814,0.0095322,0.027763,-0.00010029,0.0082987,-0.00031314,0,0,0.050606,-0.021837,0,-0.0016283,0,0,0,0.027766,-0.00010381,0.0082987,-0.64382,0.011987,0.024762,4.879e-07,0.76,0.13,0
0.038321,0.0095304,0.027773,-0.00010095,0.0083017,-0.00030077,0,0,0.050626,-0.021847,0,-0.001564,0,0,0,0.027777,-0.0001042,0.0083017,-0.61813,0.011991,0.024772,4.8845e-07,0.77,0.13,0
0.038827,0.0095284,0.027784,-0.00010147,0.0083046,-0.00028824,0,0,0.050645,-0.021856,0,-0.0014988,0,0,0,0.027787,-0.00010445,0.0083046,-0.59216,0.011996,0.024781,4.8898e-07,0.78,0.13,0
0.039333,0.0095263,0.027794,-0.00010187,0.0083075,-0.00027558,0,0,0.050664,-0.021864,0,-0.001433,0,0,0,0.027796,-0.00010459,0.0083075,-0.56595,0.012,0.024789,4.895e-07,0.79,0.13,0
0.03984,0.009524,0.027803,-0.00010216,0.0083103,-0.00026281,0,0,0.050681,-0.021872,0,-0.0013666,0,0,0,0.027806,-0.00010463,0.0083103,-0.53955,0.012004,0.024798,4.8999e-07,0.8,0.13,0
0.040347,0.0095217,0.027812,-0.00010235,0.008313,-0.00024995,0,0,0.050698,-0.02188,0,-0.0012997,0,0,0,0.027815,-0.00010459,0.008313,-0.51297,0.012008,0.024806,4.9047e-07,0.81,0.13,0
0.040854,0.0095193,0.027821,-0.00010247,0.0083156,-0.00023701,0,0,0.050715,-0.021887,0,-0.0012324,0,0,0,0.027823,-0.00010448,0.0083156,-0.48626,0.012011,0.024813,4.9092e-07,0.82,0.13,0
0.041361,0.0095169,0.02783,-0.00010251,0.0083181,-0.000224,0,0,0.05073,-0.021894,0,-0.0011648,0,0,0,0.027831,-0.0001043,0.0083181,-0.45945,0.012015,0.02482,4.9135e-07,0.83,0.13,0
0.041869,0.0095145,0.027838,-0.00010249,0.0083205,-0.00021094,0,0,0.050744,-0.0219,0,-0.0010969,0,0,0,0.027839,-0.00010409,0.0083205,-0.43254,0.012019,0.024827,4.9176e-07,0.84,0.13,0
0.042376,0.0095122,0.027845,-0.00010243,0.0083228,-0.00019784,0,0,0.050758,-0.021906,0,-0.0010288,0,0,0,0.027847,-0.00010383,0.0083228,-0.40558,0.012022,0.024834,4.9214e-07,0.85,0.13,0
0.042884,0.0095099,0.027852,-0.00010233,0.008325,-0.00018471,0,0,0.050771,-0.021911,0,-0.0009605,0,0,0,0.027853,-0.00010355,0.008325,-0.37856,0.012025,0.02484,4.925e-07,0.86,0.13,0
0.043392,0.0095076,0.027859,-0.0001022,0.008327,-0.00017155,0,0,0.050783,-0.021916,0,-0.00089207,0,0,0,0.02786,-0.00010325,0.008327,-0.35151,0.012028,0.024845,4.9284e-07,0.87,0.13,0
0.0439,0.0095055,0.027865,-0.00010204,0.0083289,-0.00015838,0,0,0.050794,-0.021921,0,-0.00082356,0,0,0,0.027866,-0.00010294,0.0083289,-0.32445,0.012031,0.02485,4.9316e-07,0.88,0.13,0
0.044408,0.0095034,0.027871,-0.00010187,0.0083307,-0.00014519,0,0,0.050805,-0.021925,0,-0.00075497,0,0,0,0.027872,-0.00010263,0.0083307,-0.29737,0.012033,0.024855,4.9345e-07,0.89,0.13,0
0.044916,0.0095015,0.027876,-0.0001017,0.0083324,-0.00013199,0,0,0.050814,-0.021929,0,-0.00068634,0,0,0,0.027877,-0.00010232,0.0083324,-0.27029,0.012036,0.024859,4.9372e-07,0.9,0.13,0
0.045424,0.0094997,0.027881,-0.00010152,0.0083338,-0.00011879,0,0,0.050823,-0.021932,0,-0.00061769,0,0,0,0.027882,-0.00010203,0.0083338,-0.24321,0.012038,0.024863,4.9396e-07,0.91,0.13,0
0.045932,0.0094981,0.027885,-0.00010135,0.0083352,-0.00010558,0,0,0.05083,-0.021935,0,-0.00054902,0,0,0,0.027886,-0.00010175,0.0083352,-0.21615,0.01204,0.024867,4.9418e-07,0.92,0.13,0
0.04644,0.0094966,0.027889,-0.00010119,0.0083364,-9.2376e-05,0,0,0.050837,-0.021938,0,-0.00048036,0,0,0,0.027889,-0.00010149,0.0083364,-0.18909,0.012041,0.02487,4.9437e-07,0.93,0.13,0
0.046949,0.0094954,0.027892,-0.00010103,0.0083374,-7.9173e-05,0,0,0.050843,-0.02194,0,-0.0004117,0,0,0,0.027893,-0.00010126,0.0083374,-0.16205,0.012043,0.024872,4.9454e-07,0.94,0.13,0
0.047457,0.0094943,0.027895,-0.0001009,0.0083383,-6.5972e-05,0,0,0.050848,-0.021942,0,-0.00034305,0,0,0,0.027895,-0.00010106,0.0083383,-0.13501,0.012044,0.024875,4.9468e-07,0.95,0.13,0
0.047966,0.0094933,0.027897,-0.00010079,0.008339,-5.2773e-05,0,0,0.050852,-0.021944,0,-0.00027442,0,0,0,0.027898,-0.00010089,0.008339,-0.10799,0.012045,0.024876,4.9479e-07,0.96,0.13,0
0.048474,0.0094926,0.027899,-0.0001007,0.0083396,-3.9577e-05,0,0,0.050855,-0.021945,0,-0.0002058,0,0,0,0.027899,-0.00010075,0.0083396,-0.080986,0.012046,0.024878,4.9488e-07,0.97,0.13,0
0.048983,0.0094921,0.027901,-0.00010063,0.00834,-2.6383e-05,0,0,0.050857,-0.021946,0,-0.00013719,0,0,0,0.027901,-0.00010066,0.00834,-0.053986,0.012047,0.024879,4.9495e-07,0.98,0.13,0
0.049491,0.0094918,0.027901,-0.00010059,0.0083402,-1.3191e-05,0,0,0.050859,-0.021946,0,-6.8595e-05,0,0,0,0.027901,-0.0001006,0.0083402,-0.026991,0.012047,0.02488,4.9499e-07,0.99,0.13,0
0.05,0.0094917,0.027902,-0.00010058,0.0083403,-1.988e-06,0,0,0.050859,-0.021946,0,-1.0338e-05,0,0,0,0.027902,-0.00010058,0.0083403,-0.0040678,0.012047,0.02488,4.95e-07,1,0.13,0
0,0,0.027827,0.011926,0.011926,0.0066128,0,0,0.041343,1.0842e-19,0,0.034387,0,0,0,0.030217,0.0095351,0.011926,19.876,0.017226,0.019597,3.672e-07,0,0.14,0
0.00041343,0.00034387,0.027776,0.011247,0.011707,0.0066083,0,0,0.04178,-0.001196,0,0.034363,0,0,0,0.030093,0.0089296,0.011707,19.323,0.01691,0.019921,3.7954e-07,0.01,0.14,0
0.00083559,0.00069384,0.028005,0.01063,0.011591,0.0066346,0,0,0.042677,-0.0024962,0,0.0345,0,0,0,0.030248,0.0083867,0.011591,18.685,0.016742,0.020449,4.0307e-07,0.02,0.14,0
0.001267,0.0010482,0.028234,0.0099734,0.011462,0.0066122,0,0,0.043606,-0.0038707,0,0.034384,0,0,0,0.030377,0.0078305,0.011462,17.956,0.016556,0.020968,4.2596e-07,0.03,0.14,0
0.0017077,0.0014049,0.028456,0.0092918,0.011324,0.0065372,0,0,0.044542,-0.0052845,0,0.033994,0,0,0,0.030473,0.0072742,0.011324,17.152,0.016357,0.021463,4.4744e-07,0.04,0.14,0
0.0021578,0.0017618,0.028663,0.0086021,0.011179,0.0064095,0,0,0.045456,-0.0067009,0,0.033329,0,0,0,0.030536,0.0067292,0.011179,16.29,0.016148,0.021923,4.6686e-07,0.05,0.14,0
0.0026168,0.0021168,0.028848,0.0079202,0.01103,0.0062322,0,0,0.046325,-0.0080864,0,0.032407,0,0,0,0.030563,0.0062049,0.01103,15.389,0.015933,0.02234,4.8377e-07,0.06,0.14,0
0.0030843,0.0024677,0.029006,0.0072593,0.01088,0.0060115,0,0,0.047128,-0.0094125,0,0.03126,0,0,0,0.030557,0.0057081,0.01088,14.469,0.015715,0.022709,4.9793e-07,0.07,0.14,0
0.0035594,0.0028128,0.029133,0.0066296,0.010729,0.0057551,0,0,0.047851,-0.010658,0,0.029927,0,0,0,0.03052,0.0052432,0.010729,13.544,0.015497,0.023029,5.0929e-07,0.08,0.14,0
0.0040413,0.0031505,0.029229,0.0060382,0.01058,0.0054714,0,0,0.048487,-0.011809,0,0.028452,0,0,0,0.030455,0.0048121,0.01058,12.63,0.015282,0.023301,5.1796e-07,0.09,0.14,0
0.0045292,0.0034793,0.029294,0.0054893,0.010435,0.0051688,0,0,0.049033,-0.012859,0,0.026878,0,0,0,0.030368,0.0044154,0.010435,11.737,0.015073,0.023527,5.2416e-07,0.1,0.14,0
0.005022,0.0037983,0.029329,0.0049844,0.010294,0.0048549,0,0,0.049492,-0.013805,0,0.025245,0,0,0,0.030262,0.004052,0.010294,10.872,0.014869,0.023713,5.282e-07,0.11,0.14,0
0.005519,0.0041066,0.029338,0.0045235,0.010159,0.0045363,0,0,0.049868,-0.014651,0,0.023589,0,0,0,0.030142,0.0037202,0.010159,10.042,0.014674,0.023863,5.3039e-07,0.12,0.14,0
0.0060193,0.0044037,0.029324,0.0041048,0.010029,0.0042187,0,0,0.050169,-0.015402,0,0.021937,0,0,0,0.030011,0.0034178,0.010029,9.249,0.014486,0.023982,5.3106e-07,0.13,0.14,0
0.0065223,0.0046893,0.029291,0.0037259,0.009905,0.0039063,0,0,0.050403,-0.016066,0,0.020313,0,0,0,0.029874,0.0031423,0.009905,8.4966,0.014307,0.024074,5.3051e-07,0.14,0.14,0
0.0070274,0.0049631,0.029241,0.0033838,0.0097875,0.0036025,0,0,0.05058,-0.01665,0,0.018733,0,0,0,0.029734,0.0028912,0.0097875,7.7851,0.014138,0.024145,5.2903e-07,0.15,0.14,0
0.007534,0.0052251,0.029179,0.0030753,0.0096763,0.0033097,0,0,0.050707,-0.017163,0,0.01721,0,0,0,0.029592,0.0026623,0.0096763,7.1145,0.013977,0.024198,5.2684e-07,0.16,0.14,0
0.0080415,0.0054754,0.029107,0.0027974,0.0095714,0.0030294,0,0,0.050793,-0.017612,0,0.015753,0,0,0,0.029452,0.0024531,0.0095714,6.4842,0.013825,0.024237,5.2415e-07,0.17,0.14,0
0.0085498,0.0057141,0.029029,0.0025468,0.0094727,0.0027628,0,0,0.050846,-0.018007,0,0.014367,0,0,0,0.029314,0.0022617,0.0094727,5.893,0.013683,0.024264,5.2113e-07,0.18,0.14,0
0.0090585,0.0059415,0.028946,0.0023208,0.0093799,0.0025104,0,0,0.050871,-0.018354,0,0.013054,0,0,0,0.02918,0.0020861,0.0093799,5.3395,0.013549,0.024283,5.1792e-07,0.19,0.14,0
0.0095672,0.0061578,0.02886,0.0021166,0.0092929,0.0022723,0,0,0.050874,-0.018659,0,0.011816,0,0,0,0.029052,0.0019249,0.0092929,4.8221,0.013423,0.024296,5.1461e-07,0.2,0.14,0
0.010076,0.0063632,0.028773,0.0019318,0.0092115,0.0020484,0,0,0.050861,-0.018927,0,0.010652,0,0,0,0.028929,0.0017764,0.0092115,4.3391,0.013305,0.024303,5.113e-07,0.21,0.14,0
0.010584,0.0065582,0.028687,0.0017644,0.0091354,0.0018386,0,0,0.050834,-0.019165,0,0.0095606,0,0,0,0.028812,0.0016394,0.0091354,3.8887,0.013196,0.024307,5.0804e-07,0.22,0.14,0
0.011093,0.006743,0.028602,0.0016124,0.0090644,0.0016423,0,0,0.050798,-0.019375,0,0.00854,0,0,0,0.028702,0.0015128,0.0090644,3.4693,0.013093,0.024309,5.0489e-07,0.23,0.14,0
0.0116,0.0069181,0.02852,0.001474,0.0089981,0.0014591,0,0,0.050756,-0.019563,0,0.0075871,0,0,0,0.028598,0.0013956,0.0089981,3.0791,0.012997,0.02431,5.0188e-07,0.24,0.14,0
0.012108,0.0070838,0.02844,0.001348,0.0089364,0.0012883,0,0,0.050709,-0.01973,0,0.0066993,0,0,0,0.028501,0.0012868,0.0089364,2.7164,0.012908,0.02431,4.9903e-07,0.25,0.14,0
0.012615,0.0072404,0.028364,0.0012328,0.008879,0.0011295,0,0,0.05066,-0.01988,0,0.0058732,0,0,0,0.028411,0.0011858,0.008879,2.3797,0.012825,0.024309,4.9635e-07,0.26,0.14,0
0.013121,0.0073884,0.028291,0.0011273,0.0088256,0.00098188,0,0,0.050611,-0.020015,0,0.0051058,0,0,0,0.028327,0.0010919,0.0088256,2.0674,0.012748,0.024309,4.9386e-07,0.27,0.14,0
0.013627,0.007528,0.028223,0.0010307,0.008776,0.00084497,0,0,0.050562,-0.020138,0,0.0043938,0,0,0,0.028249,0.0010044,0.008776,1.7781,0.012677,0.024309,4.9157e-07,0.28,0.14,0
0.014132,0.0076596,0.028158,0.00094185,0.0087301,0.00071812,0,0,0.050514,-0.020249,0,0.0037342,0,0,0,0.028177,0.00092291,0.0087301,1.5104,0.01261,0.02431,4.8946e-07,0.29,0.14,0
0.014637,0.0077835,0.028098,0.00086013,0.0086875,0.00060077,0,0,0.050468,-0.020351,0,0.003124,0,0,0,0.028112,0.00084688,0.0086875,1.2629,0.012549,0.024312,4.8754e-07,0.3,0.14,0
0.015142,0.0079002,0.028042,0.00078482,0.0086481,0.00049235,0,0,0.050425,-0.020445,0,0.0025603,0,0,0,0.028051,0.00077593,0.0086481,1.0345,0.012492,0.024314,4.858e-07,0.31,0.14,0
0.015646,0.0080099,0.02799,0.00071532,0.0086117,0.00039234,0,0,0.050384,-0.020531,0,0.0020401,0,0,0,0.027996,0.00070967,0.0086117,0.82394,0.012439,0.024318,4.8425e-07,0.32,0.14,0
0.016149,0.0081129,0.027942,0.0006511,0.0085781,0.00030021,0,0,0.050348,-0.02061,0,0.0015611,0,0,0,0.027946,0.00064779,0.0085781,0.63015,0.012391,0.024323,4.8285e-07,0.33,0.14,0
0.016653,0.0082095,0.027899,0.00059169,0.0085471,0.00021548,0,0,0.050314,-0.020684,0,0.0011205,0,0,0,0.0279,0.00058999,0.0085471,0.45209,0.012346,0.024328,4.8163e-07,0.34,0.14,0
0.017156,0.0083001,0.027859,0.00053668,0.0085186,0.0001377,0,0,0.050284,-0.020753,0,0.00071606,0,0,0,0.027859,0.00053599,0.0085186,0.28876,0.012305,0.024335,4.8055e-07,0.35,0.14,0
0.017658,0.0083849,0.027822,0.0004857,0.0084924,6.6442e-05,0,0,0.050258,-0.020817,0,0.0003455,0,0,0,0.027823,0.00048554,0.0084924,0.13926,0.012267,0.024342,4.7962e-07,0.36,0.14,0
0.018161,0.0084642,0.02779,0.00043842,0.0084684,1.2874e-06,0,0,0.050235,-0.020878,0,6.6945e-06,0,0,0,0.02779,0.00043842,0.0084684,0.0026969,0.012232,0.02435,4.7882e-07,0.37,0.14,0
0.018663,0.0085383,0.02776,0.00039455,0.0084464,-5.8146e-05,0,0,0.050216,-0.020935,0,-0.00030236,0,0,0,0.02776,0.00039443,0.0084464,-0.12174,0.0122,0.024359,4.7815e-07,0.38,0.14,0
0.019165,0.0086075,0.027734,0.00035383,0.0084264,-0.00011222,0,0,0.0502,-0.020989,0,-0.00058355,0,0,0,0.027735,0.00035337,0.0084264,-0.23483,0.012171,0.024369,4.776e-07,0.39,0.14,0
0.019667,0.0086718,0.027711,0.00031602,0.0084081,-0.00016128,0,0,0.050188,-0.021039,0,-0.00083865,0,0,0,0.027712,0.00031507,0.0084081,-0.3373,0.012145,0.024379,4.7716e-07,0.4,0.14,0
0.020169,0.0087318,0.027691,0.0002809,0.0083915,-0.00020564,0,0,0.050178,-0.021087,0,-0.0010693,0,0,0,0.027692,0.00027935,0.0083915,-0.42983,0.012121,0.02439,4.7682e-07,0.41,0.14,0
0.020671,0.0087874,0.027673,0.00024828,0.0083764,-0.00024562,0,0,0.050171,-0.021133,0,-0.0012772,0,0,0,0.027675,0.00024608,0.0083764,-0.51308,0.012099,0.024402,4.7657e-07,0.42,0.14,0
0.021172,0.0088391,0.027658,0.00021799,0.0083628,-0.00028148,0,0,0.050168,-0.021177,0,-0.0014637,0,0,0,0.027661,0.0002151,0.0083628,-0.58766,0.01208,0.024414,4.7641e-07,0.43,0.14,0
0.021674,0.0088869,0.027645,0.00018986,0.0083506,-0.00031351,0,0,0.050167,-0.021218,0,-0.0016303,0,0,0,0.027649,0.00018628,0.0083506,-0.65414,0.012062,0.024426,4.7634e-07,0.44,0.14,0
0.022176,0.0089311,0.027635,0.00016375,0.0083396,-0.00034196,0,0,0.050168,-0.021257,0,-0.0017782,0,0,0,0.027639,0.00015949,0.0083396,-0.71306,0.012046,0.024439,4.7634e-07,0.45,0.14,0
0.022677,0.0089719,0.027627,0.00013952,0.0083298,-0.00036706,0,0,0.050172,-0.021295,0,-0.0019087,0,0,0,0.027631,0.00013462,0.0083298,-0.76494,0.012032,0.024452,4.764e-07,0.46,0.14,0
0.023179,0.0090095,0.02762,0.00011706,0.0083212,-0.00038904,0,0,0.050177,-0.021331,0,-0.002023,0,0,0,0.027626,0.00011156,0.0083212,-0.81025,0.01202,0.024465,4.7653e-07,0.47,0.14,0
0.023681,0.0090441,0.027616,9.6236e-05,0.0083135,-0.00040811,0,0,0.050185,-0.021365,0,-0.0021222,0,0,0,0.027622,9.0185e-05,0.0083135,-0.84944,0.012008,0.024479,4.7672e-07,0.48,0.14,0
0.024183,0.0090757,0.027613,7.6952e-05,0.0083068,-0.00042447,0,0,0.050195,-0.021398,0,-0.0022072,0,0,0,0.027619,7.041e-05,0.0083068,-0.88295,0.011999,0.024492,4.7696e-07,0.49,0.14,0
0.024685,0.0091047,0.027611,5.9108e-05,0.008301,-0.0004383,0,0,0.050206,-0.021429,0,-0.0022792,0,0,0,0.027618,5.2137e-05,0.008301,-0.91117,0.01199,0.024506,4.7724e-07,0.5,0.14,0
0.025187,0.0091312,0.027611,4.2611e-05,0.008296,-0.00044979,0,0,0.050218,-0.021459,0,-0.0023389,0,0,0,0.027618,3.5274e-05,0.008296,-0.93449,0.011983,0.024519,4.7757e-07,0.51,0.14,0
0.025689,0.0091552,0.027612,2.7376e-05,0.0082918,-0.0004591,0,0,0.050232,-0.021487,0,-0.0023873,0,0,0,0.02762,1.9737e-05,0.0082918,-0.95325,0.011977,0.024533,4.7793e-07,0.52,0.14,0
0.026191,0.009177,0.027614,1.3323e-05,0.0082883,-0.00046639,0,0,0.050248,-0.021515,0,-0.0024252,0,0,0,0.027622,5.4449e-06,0.0082883,-0.96779,0.011972,0.024547,4.7833e-07,0.53,0.14,0
0.026694,0.0091967,0.027618,3.7717e-07,0.0082854,-0.00047179,0,0,0.050264,-0.021541,0,-0.0024533,0,0,0,0.027626,-7.6803e-06,0.0082854,-0.97842,0.011968,0.02456,4.7876e-07,0.54,0.14,0
0.027197,0.0092145,0.027622,-1.1533e-05,0.0082831,-0.00047546,0,0,0.050281,-0.021566,0,-0.0024724,0,0,0,0.02763,-1.9711e-05,0.0082831,-0.98544,0.011964,0.024574,4.7922e-07,0.55,0.14,0
0.0277,0.0092304,0.027627,-2.2473e-05,0.0082814,-0.00047752,0,0,0.050299,-0.02159,0,-0.0024831,0,0,0,0.027635,-3.0718e-05,0.0082814,-0.98912,0.011962,0.024588,4.7969e-07,0.56,0.14,0
0.028203,0.0092446,0.027633,-3.2506e-05,0.0082802,-0.00047809,0,0,0.050318,-0.021613,0,-0.0024861,0,0,0,0.027641,-4.0765e-05,0.0082802,-0.98973,0.01196,0.024601,4.8019e-07,0.57,0.14,0
0.028706,0.0092571,0.02764,-4.169e-05,0.0082794,-0.00047729,0,0,0.050337,-0.021635,0,-0.0024819,0,0,0,0.027648,-4.9917e-05,0.0082794,-0.98751,0.011959,0.024614,4.8071e-07,0.58,0.14,0
0.029209,0.0092682,0.027647,-5.0081e-05,0.0082791,-0.00047522,0,0,0.050357,-0.021656,0,-0.0024711,0,0,0,0.027655,-5.8232e-05,0.0082791,-0.98268,0.011959,0.024627,4.8123e-07,0.59,0.14,0
0.029713,0.0092779,0.027655,-5.773e-05,0.0082791,-0.00047199,0,0,0.050377,-0.021676,0,-0.0024543,0,0,0,0.027663,-6.5767e-05,0.0082791,-0.97546,0.011959,0.02464,4.8178e-07,0.6,0.14,0
0.030217,0.0092864,0.027663,-6.4688e-05,0.0082795,-0.00046769,0,0,0.050397,-0.021695,0,-0.002432,0,0,0,0.027671,-7.2575e-05,0.0082795,-0.96604,0.011959,0.024653,4.8232e-07,0.61,0.14,0
0.030721,0.0092936,0.027672,-7.1002e-05,0.0082802,-0.0004624,0,0,0.050418,-0.021713,0,-0.0024045,0,0,0,0.027679,-7.8707e-05,0.0082802,-0.95462,0.01196,0.024665,4.8288e-07,0.62,0.14,0
0.031225,0.0092997,0.027681,-7.6716e-05,0.0082812,-0.00045622,0,0,0.050439,-0.021731,0,-0.0023724,0,0,0,0.027688,-8.4212e-05,0.0082812,-0.94137,0.011962,0.024677,4.8344e-07,0.63,0.14,0
0.03173,0.0093048,0.02769,-8.187e-05,0.0082824,-0.00044922,0,0,0.05046,-0.021747,0,-0.0023359,0,0,0,0.027697,-8.9135e-05,0.0082824,-0.92645,0.011964,0.024689,4.8401e-07,0.64,0.14,0
0.032234,0.009309,0.027699,-8.6507e-05,0.0082839,-0.00044147,0,0,0.05048,-0.021763,0,-0.0022956,0,0,0,0.027706,-9.3519e-05,0.0082839,-0.91002,0.011966,0.024701,4.8457e-07,0.65,0.14,0
0.032739,0.0093124,0.027709,-9.0661e-05,0.0082855,-0.00043303,0,0,0.050501,-0.021778,0,-0.0022518,0,0,0,0.027716,-9.7405e-05,0.0082855,-0.8922,0.011968,0.024712,4.8513e-07,0.66,0.14,0
0.033245,0.0093149,0.027719,-9.4371e-05,0.0082873,-0.00042398,0,0,0.050522,-0.021792,0,-0.0022047,0,0,0,0.027725,-0.00010083,0.0082873,-0.87314,0.011971,0.024723,4.8569e-07,0.67,0.14,0
0.03375,0.0093168,0.027729,-9.7668e-05,0.0082893,-0.00041437,0,0,0.050542,-0.021806,0,-0.0021547,0,0,0,0.027735,-0.00010384,0.0082893,-0.85296,0.011973,0.024734,4.8625e-07,0.68,0.14,0
0.034255,0.009318,0.027738,-0.00010059,0.0082914,-0.00040425,0,0,0.050563,-0.021819,0,-0.0021021,0,0,0,0.027744,-0.00010645,0.0082914,-0.83176,0.011976,0.024745,4.868e-07,0.69,0.14,0
0.034761,0.0093187,0.027748,-0.00010315,0.0082936,-0.00039368,0,0,0.050583,-0.021832,0,-0.0020471,0,0,0,0.027754,-0.00010872,0.0082936,-0.80966,0.01198,0.024755,4.8734e-07,0.7,0.14,0
0.035267,0.0093188,0.027758,-0.0001054,0.0082958,-0.0003827,0,0,0.050602,-0.021843,0,-0.00199,0,0,0,0.027763,-0.00011065,0.0082958,-0.78674,0.011983,0.024765,4.8788e-07,0.71,0.14,0
0.035773,0.0093185,0.027768,-0.00010735,0.0082982,-0.00037135,0,0,0.050621,-0.021854,0,-0.001931,0,0,0,0.027773,-0.00011229,0.0082982,-0.7631,0.011986,0.024775,4.884e-07,0.72,0.14,0
0.036279,0.0093177,0.027777,-0.00010903,0.0083005,-0.00035967,0,0,0.05064,-0.021865,0,-0.0018703,0,0,0,0.027782,-0.00011367,0.0083005,-0.73881,0.01199,0.024784,4.8892e-07,0.73,0.14,0
0.036786,0.0093166,0.027787,-0.00011047,0.0083029,-0.0003477,0,0,0.050658,-0.021875,0,-0.0018081,0,0,0,0.027791,-0.0001148,0.0083029,-0.71397,0.011993,0.024793,4.8942e-07,0.74,0.14,0
0.037293,0.0093152,0.027796,-0.00011168,0.0083053,-0.00033548,0,0,0.050676,-0.021884,0,-0.0017445,0,0,0,0.0278,-0.00011571,0.0083053,-0.68862,0.011997,0.024802,4.8991e-07,0.75,0.14,0
0.037799,0.0093136,0.027805,-0.00011269,0.0083078,-0.00032303,0,0,0.050694,-0.021893,0,-0.0016798,0,0,0,0.027809,-0.00011643,0.0083078,-0.66283,0.012,0.02481,4.9039e-07,0.76,0.14,0
0.038307,0.0093117,0.027814,-0.00011353,0.0083102,-0.00031038,0,0,0.05071,-0.021902,0,-0.001614,0,0,0,0.027818,-0.00011697,0.0083102,-0.63667,0.012004,0.024818,4.9085e-07,0.77,0.14,0
0.038814,0.0093096,0.027823,-0.0001142,0.0083126,-0.00029756,0,0,0.050726,-0.02191,0,-0.0015473,0,0,0,0.027826,-0.00011737,0.0083126,-0.61017,0.012007,0.024826,4.913e-07,0.78,0.14,0
0.039321,0.0093074,0.027831,-0.00011472,0.0083149,-0.00028459,0,0,0.050742,-0.021917,0,-0.0014799,0,0,0,0.027834,-0.00011762,0.0083149,-0.5834,0.01201,0.024833,4.9173e-07,0.79,0.14,0
0.039829,0.0093051,0.027839,-0.00011512,0.0083172,-0.00027149,0,0,0.050757,-0.021924,0,-0.0014117,0,0,0,0.027842,-0.00011776,0.0083172,-0.55638,0.012014,0.02484,4.9215e-07,0.8,0.14,0
0.040336,0.0093027,0.027847,-0.00011541,0.0083195,-0.00025828,0,0,0.050771,-0.021931,0,-0.001343,0,0,0,0.027849,-0.0001178,0.0083195,-0.52916,0.012017,0.024847,4.9255e-07,0.81,0.14,0
0.040844,0.0093002,0.027854,-0.0001156,0.0083216,-0.00024497,0,0,0.050785,-0.021937,0,-0.0012739,0,0,0,0.027856,-0.00011775,0.0083216,-0.50177,0.01202,0.024854,4.9293e-07,0.82,0.14,0
0.041352,0.0092978,0.027862,-0.00011571,0.0083237,-0.00023159,0,0,0.050798,-0.021943,0,-0.0012043,0,0,0,0.027863,-0.00011763,0.0083237,-0.47425,0.012023,0.024859,4.9329e-07,0.83,0.14,0
0.04186,0.0092953,0.027868,-0.00011575,0.0083257,-0.00021815,0,0,0.050811,-0.021948,0,-0.0011344,0,0,0,0.02787,-0.00011745,0.0083257,-0.44661,0.012026,0.024865,4.9364e-07,0.84,0.14,0
0.042368,0.0092929,0.027875,-0.00011573,0.0083277,-0.00020465,0,0,0.050822,-0.021953,0,-0.0010642,0,0,0,0.027876,-0.00011722,0.0083277,-0.41888,0.012029,0.024871,4.9396e-07,0.85,0.14,0
0.042876,0.0092905,0.027881,-0.00011566,0.0083295,-0.0001911,0,0,0.050833,-0.021958,0,-0.00099373,0,0,0,0.027882,-0.00011696,0.0083295,-0.39107,0.012032,0.024876,4.9427e-07,0.86,0.14,0
0.043385,0.0092882,0.027886,-0.00011555,0.0083313,-0.00017752,0,0,0.050843,-0.021962,0,-0.00092312,0,0,0,0.027887,-0.00011668,0.0083313,-0.36322,0.012034,0.02488,4.9456e-07,0.87,0.14,0
0.043893,0.009286,0.027892,-0.00011542,0.0083329,-0.00016392,0,0,0.050853,-0.021966,0,-0.00085237,0,0,0,0.027893,-0.00011638,0.0083329,-0.33532,0.012036,0.024885,4.9482e-07,0.88,0.14,0
0.044402,0.0092839,0.027897,-0.00011526,0.0083344,-0.00015029,0,0,0.050862,-0.021969,0,-0.00078152,0,0,0,0.027897,-0.00011607,0.0083344,-0.3074,0.012039,0.024889,4.9507e-07,0.89,0.14,0
0.04491,0.009282,0.027901,-0.0001151,0.0083358,-0.00013665,0,0,0.05087,-0.021972,0,-0.00071058,0,0,0,0.027902,-0.00011576,0.0083358,-0.27945,0.012041,0.024892,4.9529e-07,0.9,0.14,0
0.045419,0.0092802,0.027905,-0.00011493,0.0083371,-0.000123,0,0,0.050877,-0.021975,0,-0.00063959,0,0,0,0.027906,-0.00011547,0.0083371,-0.2515,0.012042,0.024895,4.955e-07,0.91,0.14,0
0.045928,0.0092785,0.027909,-0.00011476,0.0083382,-0.00010934,0,0,0.050884,-0.021978,0,-0.00056856,0,0,0,0.027909,-0.00011518,0.0083382,-0.22354,0.012044,0.024898,4.9568e-07,0.92,0.14,0
0.046437,0.0092771,0.027912,-0.0001146,0.0083392,-9.5673e-05,0,0,0.050889,-0.02198,0,-0.0004975,0,0,0,0.027912,-0.00011492,0.0083392,-0.19559,0.012046,0.024901,4.9585e-07,0.93,0.14,0
0.046946,0.0092757,0.027915,-0.00011445,0.0083401,-8.2006e-05,0,0,0.050894,-0.021982,0,-0.00042643,0,0,0,0.027915,-0.00011469,0.0083401,-0.16763,0.012047,0.024903,4.9599e-07,0.94,0.14,0
0.047455,0.0092746,0.027917,-0.00011431,0.0083409,-6.8338e-05,0,0,0.050899,-0.021984,0,-0.00035536,0,0,0,0.027918,-0.00011448,0.0083409,-0.13968,0.012048,0.024905,4.9611e-07,0.95,0.14,0
0.047964,0.0092737,0.027919,-0.0001142,0.0083415,-5.467e-05,0,0,0.050902,-0.021985,0,-0.00028428,0,0,0,0.027919,-0.0001143,0.0083415,-0.11174,0.012049,0.024907,4.9621e-07,0.96,0.14,0
0.048473,0.009273,0.027921,-0.0001141,0.008342,-4.1001e-05,0,0,0.050905,-0.021986,0,-0.00021321,0,0,0,0.027921,-0.00011416,0.008342,-0.083795,0.01205,0.024908,4.9628e-07,0.97,0.14,0
0.048982,0.0092725,0.027922,-0.00011404,0.0083424,-2.7334e-05,0,0,0.050907,-0.021987,0,-0.00014214,0,0,0,0.027922,-0.00011406,0.0083424,-0.055861,0.01205,0.024909,4.9634e-07,0.98,0.14,0
0.049491,0.0092721,0.027923,-0.000114,0.0083426,-1.3667e-05,0,0,0.050908,-0.021987,0,-7.1067e-05,0,0,0,0.027923,-0.000114,0.0083426,-0.027929,0.01205,0.024909,4.9637e-07,0.99,0.14,0
0.05,0.009272,0.027923,-0.00011398,0.0083426,-2.0188e-06,0,0,0.050908,-0.021987,0,-1.0498e-05,0,0,0,0.027923,-0.00011398,0.0083426,-0.0041257,0.012051,0.024909,4.9638e-07,1,0.14,0
0,0,0.027624,0.011839,0.011839,0.0063903,0,0,0.041041,5.421e-20,0,0.033229,0,0,0,0.029886,0.0095761,0.011839,19.498,0.0171,0.019279,3.5098e-07,0,0.15,0
0.00041041,0.00033229,0.027575,0.011201,0.011633,0.0063861,0,0,0.041451,-0.0011238,0,0.033208,0,0,0,0.029771,0.0090045,0.011633,18.977,0.016803,0.019585,3.6254e-07,0.01,0.15,0
0.00082902,0.00066974,0.027791,0.010627,0.011525,0.0064076,0,0,0.04229,-0.0023352,0,0.03332,0,0,0,0.029919,0.0084991,0.011525,18.373,0.016648,0.020079,3.841e-07,0.02,0.15,0
0.0012562,0.0010109,0.028008,0.010019,0.011408,0.0063877,0,0,0.043159,-0.0036113,0,0.033216,0,0,0,0.030045,0.0079816,0.011408,17.691,0.016478,0.020566,4.0524e-07,0.03,0.15,0
0.0016922,0.001354,0.028219,0.0093881,0.011282,0.0063228,0,0,0.044036,-0.0049247,0,0.032878,0,0,0,0.030145,0.0074622,0.011282,16.941,0.016297,0.021035,4.2536e-07,0.04,0.15,0
0.0021369,0.0016972,0.02842,0.0087478,0.01115,0.0062122,0,0,0.044901,-0.0062464,0,0.032303,0,0,0,0.030217,0.0069502,0.01115,16.138,0.016106,0.021477,4.4393e-07,0.05,0.15,0
0.0025902,0.0020388,0.028603,0.0081107,0.011014,0.0060581,0,0,0.045731,-0.0075487,0,0.031502,0,0,0,0.03026,0.0064537,0.011014,15.297,0.015909,0.021885,4.6055e-07,0.06,0.15,0
0.0030516,0.0023768,0.028764,0.0074881,0.010876,0.0058647,0,0,0.04651,-0.0088077,0,0.030497,0,0,0,0.030274,0.0059786,0.010876,14.434,0.015709,0.022254,4.7497e-07,0.07,0.15,0
0.0035204,0.0027097,0.0289,0.0068891,0.010737,0.0056379,0,0,0.047225,-0.010004,0,0.029317,0,0,0,0.030261,0.0055291,0.010737,13.562,0.015509,0.022582,4.871e-07,0.08,0.15,0
0.0039961,0.003036,0.02901,0.0063206,0.010599,0.0053843,0,0,0.047869,-0.011125,0,0.027998,0,0,0,0.030223,0.0051078,0.010599,12.694,0.01531,0.02287,4.9695e-07,0.09,0.15,0
0.0044778,0.0033544,0.029093,0.005787,0.010464,0.0051107,0,0,0.048435,-0.01216,0,0.026575,0,0,0,0.030164,0.0047155,0.010464,11.84,0.015115,0.023117,5.0466e-07,0.1,0.15,0
0.0049648,0.0036638,0.029149,0.0052906,0.010332,0.0048237,0,0,0.048925,-0.013108,0,0.025083,0,0,0,0.030088,0.0043523,0.010332,11.008,0.014924,0.023328,5.1041e-07,0.11,0.15,0
0.0054563,0.0039636,0.029182,0.0048323,0.010204,0.0045293,0,0,0.049342,-0.013967,0,0.023552,0,0,0,0.029997,0.0040171,0.010204,10.203,0.01474,0.023505,5.1444e-07,0.12,0.15,0
0.0059516,0.0042531,0.029192,0.0044116,0.010081,0.0042326,0,0,0.049689,-0.014741,0,0.022009,0,0,0,0.029895,0.0037086,0.010081,9.4302,0.014562,0.023653,5.1699e-07,0.13,0.15,0
0.0064501,0.0045318,0.029184,0.0040268,0.0099631,0.0039378,0,0,0.049973,-0.015434,0,0.020477,0,0,0,0.029786,0.0034248,0.0099631,8.6916,0.014391,0.023776,5.1832e-07,0.14,0.15,0
0.0069511,0.0047996,0.029159,0.0036761,0.0098504,0.0036484,0,0,0.050201,-0.016053,0,0.018971,0,0,0,0.029671,0.003164,0.0098504,7.9893,0.014228,0.023876,5.1864e-07,0.15,0.15,0
0.0074541,0.0050563,0.02912,0.003357,0.0097432,0.0033669,0,0,0.050381,-0.016604,0,0.017508,0,0,0,0.029553,0.0029242,0.0097432,7.3238,0.014073,0.023959,5.1818e-07,0.16,0.15,0
0.0079587,0.0053019,0.029071,0.0030669,0.0096414,0.0030952,0,0,0.050517,-0.017094,0,0.016095,0,0,0,0.029435,0.0027036,0.0096414,6.6952,0.013926,0.024026,5.1711e-07,0.17,0.15,0
0.0084644,0.0055365,0.029014,0.0028034,0.0095452,0.0028348,0,0,0.050619,-0.017529,0,0.014741,0,0,0,0.029317,0.0025003,0.0095452,6.1029,0.013787,0.02408,5.1559e-07,0.18,0.15,0
0.008971,0.0057601,0.02895,0.0025639,0.0094543,0.0025865,0,0,0.05069,-0.017915,0,0.01345,0,0,0,0.029201,0.0023127,0.0094543,5.5461,0.013656,0.024124,5.1375e-07,0.19,0.15,0
0.0094782,0.0059731,0.028882,0.0023461,0.0093686,0.0023508,0,0,0.050736,-0.018259,0,0.012224,0,0,0,0.029089,0.0021394,0.0093686,5.0237,0.013532,0.02416,5.1169e-07,0.2,0.15,0
0.0099858,0.0061757,0.028812,0.0021478,0.009288,0.002128,0,0,0.050763,-0.018564,0,0.011065,0,0,0,0.028981,0.0019791,0.009288,4.5343,0.013416,0.02419,5.0951e-07,0.21,0.15,0
0.010493,0.0063681,0.02874,0.0019671,0.0092122,0.0019179,0,0,0.050773,-0.018837,0,0.0099728,0,0,0,0.028877,0.0018305,0.0092122,4.0766,0.013307,0.024215,5.0727e-07,0.22,0.15,0
0.011001,0.0065507,0.028668,0.0018023,0.0091412,0.0017204,0,0,0.050771,-0.019081,0,0.0089458,0,0,0,0.028778,0.0016925,0.0091412,3.649,0.013204,0.024236,5.0503e-07,0.23,0.15,0
0.011509,0.0067238,0.028597,0.0016515,0.0090746,0.0015351,0,0,0.050759,-0.0193,0,0.0079827,0,0,0,0.028685,0.0015643,0.0090746,3.2502,0.013108,0.024253,5.0283e-07,0.24,0.15,0
0.012016,0.0068876,0.028528,0.0015135,0.0090124,0.0013618,0,0,0.05074,-0.019497,0,0.0070814,0,0,0,0.028596,0.001445,0.0090124,2.8786,0.013018,0.024269,5.007e-07,0.25,0.15,0
0.012524,0.0070426,0.02846,0.001387,0.0089541,0.0011999,0,0,0.050716,-0.019675,0,0.0062396,0,0,0,0.028513,0.0013339,0.0089541,2.5328,0.012934,0.024283,4.9866e-07,0.26,0.15,0
0.013031,0.007189,0.028395,0.0012707,0.0088997,0.001049,0,0,0.050688,-0.019835,0,0.0054548,0,0,0,0.028436,0.0012302,0.0088997,2.2115,0.012855,0.024296,4.9674e-07,0.27,0.15,0
0.013537,0.0073273,0.028333,0.0011638,0.008849,0.00090853,0,0,0.050658,-0.019982,0,0.0047243,0,0,0,0.028363,0.0011335,0.008849,1.9131,0.012782,0.024308,4.9493e-07,0.28,0.15,0
0.014044,0.0074577,0.028274,0.0010653,0.0088018,0.00077798,0,0,0.050627,-0.020115,0,0.0040455,0,0,0,0.028296,0.0010431,0.0088018,1.6365,0.012714,0.02432,4.9326e-07,0.29,0.15,0
0.01455,0.0075806,0.028218,0.00097443,0.0087577,0.00065685,0,0,0.050597,-0.020237,0,0.0034156,0,0,0,0.028234,0.00095861,0.0087577,1.3803,0.01265,0.024332,4.9171e-07,0.3,0.15,0
0.015056,0.0076962,0.028166,0.00089049,0.0087168,0.00054464,0,0,0.050567,-0.020348,0,0.0028321,0,0,0,0.028176,0.00087962,0.0087168,1.1435,0.012591,0.024344,4.903e-07,0.31,0.15,0
0.015561,0.0078049,0.028116,0.00081286,0.0086788,0.00044085,0,0,0.050538,-0.020451,0,0.0022925,0,0,0,0.028124,0.00080574,0.0086788,0.9248,0.012536,0.024355,4.8902e-07,0.32,0.15,0
0.016067,0.0079071,0.028071,0.00074099,0.0086435,0.00034502,0,0,0.050511,-0.020547,0,0.0017941,0,0,0,0.028075,0.00073663,0.0086435,0.72316,0.012485,0.024367,4.8786e-07,0.33,0.15,0
0.016572,0.0080029,0.028028,0.00067438,0.0086108,0.00025668,0,0,0.050486,-0.020635,0,0.0013347,0,0,0,0.028031,0.00067197,0.0086108,0.53757,0.012438,0.024379,4.8683e-07,0.34,0.15,0
0.017076,0.0080927,0.027989,0.00061261,0.0085806,0.00017539,0,0,0.050463,-0.020717,0,0.00091204,0,0,0,0.02799,0.00061149,0.0085806,0.36705,0.012394,0.024391,4.8591e-07,0.35,0.15,0
0.017581,0.0081768,0.027953,0.00055528,0.0085526,0.00010075,0,0,0.050442,-0.020793,0,0.00052388,0,0,0,0.027954,0.00055491,0.0085526,0.21068,0.012354,0.024404,4.8511e-07,0.36,0.15,0
0.018085,0.0082555,0.027921,0.00050204,0.0085268,3.2345e-05,0,0,0.050424,-0.020864,0,0.00016819,0,0,0,0.027921,0.000502,0.0085268,0.067589,0.012316,0.024416,4.8441e-07,0.37,0.15,0
0.018589,0.008329,0.027891,0.00045258,0.008503,-3.0193e-05,0,0,0.050408,-0.020931,0,-0.000157,0,0,0,0.027891,0.00045255,0.008503,-0.063048,0.012282,0.024429,4.8382e-07,0.38,0.15,0
0.019093,0.0083975,0.027864,0.00040662,0.0084811,-8.7223e-05,0,0,0.050395,-0.020994,0,-0.00045356,0,0,0,0.027864,0.00040634,0.0084811,-0.18201,0.01225,0.024442,4.8332e-07,0.39,0.15,0
0.019597,0.0084614,0.027839,0.00036389,0.008461,-0.00013909,0,0,0.050384,-0.021052,0,-0.00072324,0,0,0,0.02784,0.00036319,0.008461,-0.29003,0.012221,0.024455,4.8291e-07,0.4,0.15,0
0.020101,0.0085208,0.027818,0.00032417,0.0084426,-0.0001861,0,0,0.050376,-0.021108,0,-0.00096773,0,0,0,0.027819,0.00032291,0.0084426,-0.3878,0.012195,0.024469,4.8259e-07,0.41,0.15,0
0.020605,0.0085759,0.027799,0.00028724,0.0084258,-0.00022858,0,0,0.050369,-0.02116,0,-0.0011886,0,0,0,0.0278,0.00028534,0.0084258,-0.47599,0.012171,0.024482,4.8234e-07,0.42,0.15,0
0.021108,0.0086271,0.027782,0.00025292,0.0084104,-0.00026679,0,0,0.050366,-0.021209,0,-0.0013873,0,0,0,0.027784,0.00025034,0.0084104,-0.55521,0.012148,0.024495,4.8216e-07,0.43,0.15,0
0.021612,0.0086745,0.027767,0.00022102,0.0083964,-0.00030103,0,0,0.050364,-0.021256,0,-0.0015654,0,0,0,0.02777,0.00021773,0.0083964,-0.62604,0.012128,0.024509,4.8206e-07,0.44,0.15,0
0.022116,0.0087183,0.027754,0.00019139,0.0083837,-0.00033154,0,0,0.050364,-0.0213,0,-0.001724,0,0,0,0.027758,0.00018741,0.0083837,-0.68905,0.01211,0.024523,4.8201e-07,0.45,0.15,0
0.022619,0.0087587,0.027744,0.00016388,0.0083723,-0.00035857,0,0,0.050366,-0.021342,0,-0.0018645,0,0,0,0.027748,0.00015922,0.0083723,-0.74474,0.012093,0.024536,4.8202e-07,0.46,0.15,0
0.023123,0.0087959,0.027735,0.00013834,0.0083619,-0.00038234,0,0,0.050369,-0.021381,0,-0.0019882,0,0,0,0.02774,0.00013305,0.0083619,-0.79361,0.012078,0.02455,4.8208e-07,0.47,0.15,0
0.023627,0.0088301,0.027728,0.00011466,0.0083527,-0.00040307,0,0,0.050375,-0.021419,0,-0.002096,0,0,0,0.027734,0.00010878,0.0083527,-0.83612,0.012065,0.024563,4.822e-07,0.48,0.15,0
0.02413,0.0088615,0.027722,9.2705e-05,0.0083444,-0.00042097,0,0,0.050382,-0.021454,0,-0.0021891,0,0,0,0.027728,8.6292e-05,0.0083444,-0.87271,0.012053,0.024577,4.8235e-07,0.49,0.15,0
0.024634,0.0088901,0.027718,7.2376e-05,0.008337,-0.00043623,0,0,0.05039,-0.021488,0,-0.0022684,0,0,0,0.027725,6.5495e-05,0.008337,-0.9038,0.012042,0.02459,4.8255e-07,0.5,0.15,0
0.025138,0.0089163,0.027715,5.3569e-05,0.0083305,-0.00044903,0,0,0.050399,-0.02152,0,-0.0023349,0,0,0,0.027722,4.6281e-05,0.0083305,-0.92975,0.012033,0.024603,4.8278e-07,0.51,0.15,0
0.025642,0.00894,0.027713,3.6186e-05,0.0083248,-0.00045953,0,0,0.05041,-0.021551,0,-0.0023896,0,0,0,0.027721,2.8558e-05,0.0083248,-0.95096,0.012025,0.024616,4.8305e-07,0.52,0.15,0
0.026146,0.0089615,0.027713,2.0138e-05,0.0083199,-0.00046792,0,0,0.050422,-0.021579,0,-0.0024332,0,0,0,0.027721,1.2234e-05,0.0083199,-0.96774,0.012018,0.024629,4.8334e-07,0.53,0.15,0
0.026651,0.008981,0.027713,5.342e-06,0.0083156,-0.00047432,0,0,0.050434,-0.021607,0,-0.0024665,0,0,0,0.027721,-2.7753e-06,0.0083156,-0.98044,0.012011,0.024642,4.8366e-07,0.54,0.15,0
0.027155,0.0089985,0.027715,-8.282e-06,0.008312,-0.00047889,0,0,0.050447,-0.021633,0,-0.0024902,0,0,0,0.027723,-1.6552e-05,0.008312,-0.98934,0.012006,0.024654,4.8401e-07,0.55,0.15,0
0.02766,0.0090141,0.027717,-2.0808e-05,0.0083089,-0.00048177,0,0,0.050462,-0.021657,0,-0.0025052,0,0,0,0.027726,-2.9173e-05,0.0083089,-0.99474,0.012002,0.024666,4.8437e-07,0.56,0.15,0
0.028164,0.0090281,0.02772,-3.2307e-05,0.0083064,-0.00048307,0,0,0.050476,-0.021681,0,-0.002512,0,0,0,0.027729,-4.0713e-05,0.0083064,-0.99691,0.011998,0.024678,4.8476e-07,0.57,0.15,0
0.028669,0.0090404,0.027724,-4.2843e-05,0.0083044,-0.00048293,0,0,0.050492,-0.021703,0,-0.0025112,0,0,0,0.027733,-5.124e-05,0.0083044,-0.99608,0.011995,0.02469,4.8516e-07,0.58,0.15,0
0.029174,0.0090513,0.027729,-5.2481e-05,0.0083029,-0.00048144,0,0,0.050507,-0.021724,0,-0.0025035,0,0,0,0.027737,-6.0821e-05,0.0083029,-0.99252,0.011993,0.024702,4.8557e-07,0.59,0.15,0
0.029679,0.0090608,0.027734,-6.1278e-05,0.0083018,-0.00047872,0,0,0.050523,-0.021744,0,-0.0024893,0,0,0,0.027742,-6.952e-05,0.0083018,-0.98642,0.011992,0.024713,4.8599e-07,0.6,0.15,0
0.030185,0.0090691,0.02774,-6.929e-05,0.0083011,-0.00047486,0,0,0.05054,-0.021763,0,-0.0024693,0,0,0,0.027748,-7.7396e-05,0.0083011,-0.97799,0.01199,0.024724,4.8642e-07,0.61,0.15,0
0.03069,0.0090761,0.027745,-7.6571e-05,0.0083007,-0.00046996,0,0,0.050556,-0.021781,0,-0.0024438,0,0,0,0.027753,-8.4507e-05,0.0083007,-0.96745,0.01199,0.024735,4.8686e-07,0.62,0.15,0
0.031196,0.0090821,0.027752,-8.3169e-05,0.0083006,-0.0004641,0,0,0.050573,-0.021798,0,-0.0024133,0,0,0,0.02776,-9.0905e-05,0.0083006,-0.95495,0.01199,0.024746,4.8731e-07,0.63,0.15,0
0.031702,0.009087,0.027758,-8.9133e-05,0.0083008,-0.00045736,0,0,0.05059,-0.021814,0,-0.0023783,0,0,0,0.027766,-9.6642e-05,0.0083008,-0.94067,0.01199,0.024756,4.8776e-07,0.64,0.15,0
0.032208,0.0090911,0.027765,-9.4507e-05,0.0083013,-0.00044983,0,0,0.050607,-0.021829,0,-0.0023391,0,0,0,0.027773,-0.00010177,0.0083013,-0.92477,0.011991,0.024766,4.8821e-07,0.65,0.15,0
0.032714,0.0090943,0.027773,-9.9332e-05,0.008302,-0.00044156,0,0,0.050624,-0.021843,0,-0.0022961,0,0,0,0.02778,-0.00010633,0.008302,-0.9074,0.011992,0.024776,4.8866e-07,0.66,0.15,0
0.03322,0.0090967,0.02778,-0.00010365,0.0083029,-0.00043263,0,0,0.050641,-0.021857,0,-0.0022497,0,0,0,0.027787,-0.00011036,0.0083029,-0.88869,0.011993,0.024786,4.8911e-07,0.67,0.15,0
0.033727,0.0090984,0.027788,-0.0001075,0.008304,-0.0004231,0,0,0.050657,-0.02187,0,-0.0022001,0,0,0,0.027794,-0.00011392,0.008304,-0.86876,0.011995,0.024795,4.8955e-07,0.68,0.15,0
0.034233,0.0090995,0.027795,-0.00011092,0.0083053,-0.00041302,0,0,0.050674,-0.021882,0,-0.0021477,0,0,0,0.027801,-0.00011703,0.0083053,-0.84774,0.011997,0.024804,4.9e-07,0.69,0.15,0
0.03474,0.0091,0.027803,-0.00011393,0.0083067,-0.00040245,0,0,0.05069,-0.021894,0,-0.0020927,0,0,0,0.027809,-0.00011973,0.0083067,-0.82574,0.011999,0.024813,4.9043e-07,0.7,0.15,0
0.035247,0.0091001,0.02781,-0.00011658,0.0083082,-0.00039143,0,0,0.050706,-0.021904,0,-0.0020354,0,0,0,0.027816,-0.00012206,0.0083082,-0.80285,0.012001,0.024821,4.9087e-07,0.71,0.15,0
0.035754,0.0090996,0.027818,-0.00011889,0.0083098,-0.00038001,0,0,0.050722,-0.021915,0,-0.0019761,0,0,0,0.027823,-0.00012406,0.0083098,-0.77917,0.012003,0.024829,4.9129e-07,0.72,0.15,0
0.036262,0.0090988,0.027826,-0.00012089,0.0083115,-0.00036824,0,0,0.050737,-0.021924,0,-0.0019149,0,0,0,0.027831,-0.00012574,0.0083115,-0.75479,0.012005,0.024837,4.9171e-07,0.73,0.15,0
0.036769,0.0090976,0.027833,-0.00012262,0.0083132,-0.00035615,0,0,0.050752,-0.021933,0,-0.001852,0,0,0,0.027838,-0.00012715,0.0083132,-0.72977,0.012008,0.024844,4.9212e-07,0.74,0.15,0
0.037276,0.0090961,0.027841,-0.00012408,0.008315,-0.00034377,0,0,0.050767,-0.021942,0,-0.0017876,0,0,0,0.027845,-0.00012831,0.008315,-0.7042,0.012011,0.024852,4.9252e-07,0.75,0.15,0
0.037784,0.0090943,0.027848,-0.00012532,0.0083168,-0.00033115,0,0,0.050781,-0.02195,0,-0.001722,0,0,0,0.027852,-0.00012924,0.0083168,-0.67814,0.012013,0.024859,4.929e-07,0.76,0.15,0
0.038292,0.0090924,0.027855,-0.00012635,0.0083187,-0.0003183,0,0,0.050795,-0.021957,0,-0.0016552,0,0,0,0.027859,-0.00012997,0.0083187,-0.65166,0.012016,0.024865,4.9328e-07,0.77,0.15,0
0.0388,0.0090902,0.027862,-0.00012719,0.0083205,-0.00030526,0,0,0.050808,-0.021964,0,-0.0015874,0,0,0,0.027866,-0.00013052,0.0083205,-0.62479,0.012018,0.024872,4.9365e-07,0.78,0.15,0
0.039308,0.0090879,0.027869,-0.00012786,0.0083223,-0.00029206,0,0,0.050821,-0.021971,0,-0.0015187,0,0,0,0.027872,-0.00013091,0.0083223,-0.59761,0.012021,0.024878,4.94e-07,0.79,0.15,0
0.039817,0.0090856,0.027876,-0.00012839,0.0083242,-0.0002787,0,0,0.050834,-0.021977,0,-0.0014492,0,0,0,0.027878,-0.00013116,0.0083242,-0.57014,0.012024,0.024884,4.9434e-07,0.8,0.15,0
0.040325,0.0090831,0.027882,-0.00012879,0.008326,-0.00026522,0,0,0.050846,-0.021982,0,-0.0013791,0,0,0,0.027884,-0.0001313,0.008326,-0.54244,0.012026,0.024889,4.9467e-07,0.81,0.15,0
0.040834,0.0090806,0.027888,-0.00012907,0.0083277,-0.00025163,0,0,0.050857,-0.021988,0,-0.0013085,0,0,0,0.02789,-0.00013133,0.0083277,-0.51453,0.012029,0.024894,4.9498e-07,0.82,0.15,0
0.041342,0.0090781,0.027894,-0.00012926,0.0083294,-0.00023794,0,0,0.050868,-0.021993,0,-0.0012373,0,0,0,0.027896,-0.00013128,0.0083294,-0.48645,0.012031,0.024899,4.9528e-07,0.83,0.15,0
0.041851,0.0090756,0.0279,-0.00012936,0.008331,-0.00022418,0,0,0.050878,-0.021997,0,-0.0011657,0,0,0,0.027901,-0.00013115,0.008331,-0.45823,0.012034,0.024904,4.9556e-07,0.84,0.15,0
0.04236,0.0090731,0.027905,-0.00012939,0.0083326,-0.00021036,0,0,0.050888,-0.022001,0,-0.0010938,0,0,0,0.027906,-0.00013097,0.0083326,-0.42989,0.012036,0.024908,4.9583e-07,0.85,0.15,0
0.042869,0.0090707,0.02791,-0.00012937,0.0083342,-0.00019648,0,0,0.050897,-0.022005,0,-0.0010217,0,0,0,0.027911,-0.00013074,0.0083342,-0.40146,0.012038,0.024913,4.9608e-07,0.86,0.15,0
0.043378,0.0090684,0.027915,-0.0001293,0.0083356,-0.00018255,0,0,0.050905,-0.022009,0,-0.00094927,0,0,0,0.027916,-0.00013049,0.0083356,-0.37294,0.01204,0.024916,4.9632e-07,0.87,0.15,0
0.043887,0.0090662,0.027919,-0.00012919,0.0083369,-0.00016859,0,0,0.050913,-0.022012,0,-0.00087667,0,0,0,0.02792,-0.0001302,0.0083369,-0.34437,0.012042,0.02492,4.9654e-07,0.88,0.15,0
0.044396,0.009064,0.027923,-0.00012906,0.0083382,-0.0001546,0,0,0.050921,-0.022015,0,-0.00080392,0,0,0,0.027924,-0.00012991,0.0083382,-0.31576,0.012044,0.024923,4.9674e-07,0.89,0.15,0
0.044905,0.0090621,0.027927,-0.00012891,0.0083394,-0.00014059,0,0,0.050927,-0.022017,0,-0.00073106,0,0,0,0.027928,-0.00012961,0.0083394,-0.2871,0.012046,0.024926,4.9693e-07,0.9,0.15,0
0.045414,0.0090602,0.02793,-0.00012875,0.0083404,-0.00012656,0,0,0.050933,-0.02202,0,-0.00065811,0,0,0,0.027931,-0.00012932,0.0083404,-0.25843,0.012047,0.024929,4.9709e-07,0.91,0.15,0
0.045924,0.0090586,0.027933,-0.00012859,0.0083414,-0.00011252,0,0,0.050939,-0.022022,0,-0.00058509,0,0,0,0.027934,-0.00012904,0.0083414,-0.22973,0.012049,0.024931,4.9724e-07,0.92,0.15,0
0.046433,0.009057,0.027936,-0.00012843,0.0083423,-9.8466e-05,0,0,0.050944,-0.022024,0,-0.00051203,0,0,0,0.027936,-0.00012878,0.0083423,-0.20102,0.01205,0.024933,4.9738e-07,0.93,0.15,0
0.046943,0.0090557,0.027938,-0.00012829,0.008343,-8.4408e-05,0,0,0.050948,-0.022025,0,-0.00043892,0,0,0,0.027939,-0.00012854,0.008343,-0.17231,0.012051,0.024935,4.975e-07,0.94,0.15,0
0.047452,0.0090546,0.02794,-0.00012815,0.0083437,-7.0345e-05,0,0,0.050951,-0.022027,0,-0.00036579,0,0,0,0.027941,-0.00012833,0.0083437,-0.14359,0.012052,0.024937,4.9759e-07,0.95,0.15,0
0.047962,0.0090536,0.027942,-0.00012804,0.0083442,-5.6278e-05,0,0,0.050954,-0.022028,0,-0.00029265,0,0,0,0.027942,-0.00012815,0.0083442,-0.11487,0.012053,0.024938,4.9768e-07,0.96,0.15,0
0.048471,0.0090529,0.027943,-0.00012795,0.0083446,-4.221e-05,0,0,0.050957,-0.022029,0,-0.00021949,0,0,0,0.027943,-0.00012801,0.0083446,-0.086154,0.012053,0.024939,4.9774e-07,0.97,0.15,0
0.048981,0.0090524,0.027944,-0.00012788,0.0083449,-2.8141e-05,0,0,0.050958,-0.022029,0,-0.00014633,0,0,0,0.027944,-0.00012791,0.0083449,-0.057436,0.012054,0.02494,4.9779e-07,0.98,0.15,0
0.04949,0.0090521,0.027945,-0.00012784,0.0083451,-1.4071e-05,0,0,0.050959,-0.02203,0,-7.3166e-05,0,0,0,0.027945,-0.00012785,0.0083451,-0.028718,0.012054,0.02494,4.9781e-07,0.99,0.15,0
0.05,0.009052,0.027945,-0.00012783,0.0083451,-2.0442e-06,0,0,0.050959,-0.02203,0,-1.063e-05,0,0,0,0.027945,-0.00012783,0.0083451,-0.0041722,0.012054,0.02494,4.9782e-07,1,0.15,0
0,0,0.027451,0.011765,0.011765,0.0061806,0,0,0.040784,5.421e-20,0,0.032139,0,0,0,0.029593,0.009622,0.011765,19.12,0.016993,0.018991,3.3672e-07,0,0.16,0
0.00040784,0.00032139,0.027405,0.011162,0.01157,0.0061767,0,0,0.04117,-0.0010606,0,0.032119,0,0,0,0.029487,0.0090802,0.01157,18.627,0.016712,0.019283,3.4762e-07,0.01,0.16,0
0.0008234,0.00064714,0.027609,0.010626,0.01147,0.0061937,0,0,0.04196,-0.0021957,0,0.032207,0,0,0,0.029628,0.008607,0.01147,18.054,0.016568,0.019745,3.675e-07,0.02,0.16,0
0.001247,0.00097596,0.027814,0.010059,0.011362,0.006175,0,0,0.042776,-0.0033872,0,0.03211,0,0,0,0.02975,0.0081228,0.011362,17.411,0.016412,0.020204,3.8712e-07,0.03,0.16,0
0.0016789,0.0013064,0.028016,0.0094719,0.011246,0.0061174,0,0,0.043601,-0.0046136,0,0.031811,0,0,0,0.029852,0.0076357,0.011246,16.708,0.016245,0.020649,4.06e-07,0.04,0.16,0
0.0021191,0.0016369,0.028209,0.0088745,0.011125,0.0060201,0,0,0.044419,-0.0058516,0,0.031305,0,0,0,0.02993,0.0071533,0.011125,15.956,0.01607,0.021074,4.237e-07,0.05,0.16,0
0.0025673,0.0019658,0.028389,0.0082774,0.011,0.0058843,0,0,0.045212,-0.0070786,0,0.030598,0,0,0,0.029984,0.0066823,0.011,15.167,0.015889,0.021471,4.3989e-07,0.06,0.16,0
0.0030233,0.0022916,0.028551,0.0076901,0.010873,0.0057131,0,0,0.045965,-0.0082742,0,0.029708,0,0,0,0.030014,0.006228,0.010873,14.355,0.015705,0.021837,4.5433e-07,0.07,0.16,0
0.0034866,0.0026128,0.028693,0.0071205,0.010744,0.0055109,0,0,0.046668,-0.0094214,0,0.028657,0,0,0,0.030019,0.0057942,0.010744,13.531,0.015519,0.022169,4.6688e-07,0.08,0.16,0
0.0039566,0.002928,0.028812,0.0065749,0.010616,0.0052829,0,0,0.04731,-0.010507,0,0.027471,0,0,0,0.030003,0.0053837,0.010616,12.707,0.015334,0.022465,4.7753e-07,0.09,0.16,0
0.0044328,0.0032361,0.028908,0.0060579,0.01049,0.0050348,0,0,0.047888,-0.011523,0,0.026181,0,0,0,0.029968,0.0049977,0.01049,11.891,0.015152,0.022728,4.8633e-07,0.1,0.16,0
0.0049144,0.0035361,0.028981,0.0055722,0.010366,0.0047721,0,0,0.048399,-0.012464,0,0.024815,0,0,0,0.029916,0.0046368,0.010366,11.091,0.014973,0.022958,4.9341e-07,0.11,0.16,0
0.0054008,0.0038272,0.029032,0.0051194,0.010245,0.0045001,0,0,0.048845,-0.013328,0,0.0234,0,0,0,0.029851,0.0043006,0.010245,10.313,0.014799,0.023157,4.989e-07,0.12,0.16,0
0.0058913,0.0041089,0.029063,0.0046995,0.010129,0.0042233,0,0,0.049228,-0.014116,0,0.021961,0,0,0,0.029774,0.0039882,0.010129,9.5607,0.01463,0.02333,5.0302e-07,0.13,0.16,0
0.0063853,0.0043806,0.029075,0.004312,0.010016,0.003946,0,0,0.049553,-0.014831,0,0.020519,0,0,0,0.029688,0.0036984,0.010016,8.8385,0.014468,0.023478,5.0594e-07,0.14,0.16,0
0.0068824,0.004642,0.029071,0.0039555,0.009908,0.0036713,0,0,0.049824,-0.015477,0,0.019091,0,0,0,0.029597,0.0034298,0.009908,8.1481,0.014311,0.023604,5.0784e-07,0.15,0.16,0
0.0073818,0.004893,0.029054,0.0036284,0.0098046,0.0034019,0,0,0.050048,-0.016058,0,0.01769,0,0,0,0.029501,0.003181,0.0098046,7.4907,0.014162,0.023712,5.0892e-07,0.16,0.16,0
0.0078833,0.0051335,0.029025,0.0033286,0.0097061,0.0031401,0,0,0.050229,-0.016581,0,0.016328,0,0,0,0.029403,0.0029505,0.0097061,6.8669,0.01402,0.023805,5.0932e-07,0.17,0.16,0
0.0083864,0.0053636,0.028987,0.0030543,0.0096123,0.0028873,0,0,0.050374,-0.017051,0,0.015014,0,0,0,0.029304,0.0027367,0.0096123,6.2767,0.013884,0.023884,5.0918e-07,0.18,0.16,0
0.0088908,0.0055832,0.028941,0.0028032,0.0095234,0.0026446,0,0,0.050487,-0.017472,0,0.013752,0,0,0,0.029206,0.0025383,0.0095234,5.7198,0.013756,0.023952,5.0864e-07,0.19,0.16,0
0.0093961,0.0057926,0.02889,0.0025733,0.0094391,0.0024128,0,0,0.050573,-0.017851,0,0.012547,0,0,0,0.02911,0.002354,0.0094391,5.1953,0.013634,0.024011,5.0778e-07,0.2,0.16,0
0.0099022,0.0059919,0.028836,0.0023629,0.0093595,0.0021924,0,0,0.050638,-0.018191,0,0.011401,0,0,0,0.029016,0.0021826,0.0093595,4.7025,0.013519,0.024061,5.067e-07,0.21,0.16,0
0.010409,0.0061814,0.028778,0.00217,0.0092844,0.0019836,0,0,0.050683,-0.018497,0,0.010315,0,0,0,0.028925,0.002023,0.0092844,4.2401,0.013411,0.024106,5.0547e-07,0.22,0.16,0
0.010916,0.0063614,0.028719,0.0019931,0.0092136,0.0017863,0,0,0.050713,-0.018773,0,0.0092889,0,0,0,0.028838,0.0018743,0.0092136,3.807,0.013308,0.024145,5.0415e-07,0.23,0.16,0
0.011423,0.0065321,0.028659,0.0018307,0.0091469,0.0016005,0,0,0.050731,-0.019022,0,0.0083227,0,0,0,0.028754,0.0017355,0.0091469,3.4021,0.013212,0.02418,5.0278e-07,0.24,0.16,0
0.011931,0.0066939,0.0286,0.0016813,0.0090843,0.0014259,0,0,0.05074,-0.019248,0,0.0074148,0,0,0,0.028675,0.001606,0.0090843,3.0238,0.013122,0.024212,5.0139e-07,0.25,0.16,0
0.012438,0.0068469,0.028541,0.0015438,0.0090254,0.0012622,0,0,0.05074,-0.019452,0,0.0065637,0,0,0,0.0286,0.0014849,0.0090254,2.6711,0.013037,0.024241,5.0002e-07,0.26,0.16,0
0.012945,0.0069916,0.028484,0.0014171,0.0089703,0.0011091,0,0,0.050735,-0.019638,0,0.0057674,0,0,0,0.028529,0.0013717,0.0089703,2.3426,0.012957,0.024267,4.987e-07,0.27,0.16,0
0.013453,0.0071283,0.028428,0.0013001,0.0089186,0.0009661,0,0,0.050725,-0.019808,0,0.0050237,0,0,0,0.028463,0.0012658,0.0089186,2.037,0.012882,0.024292,4.9742e-07,0.28,0.16,0
0.01396,0.0072573,0.028375,0.0011921,0.0088702,0.0008328,0,0,0.050713,-0.019963,0,0.0043306,0,0,0,0.028401,0.0011666,0.0088702,1.7532,0.012812,0.024315,4.9622e-07,0.29,0.16,0
0.014467,0.0073788,0.028324,0.0010921,0.0088249,0.00070877,0,0,0.050698,-0.020105,0,0.0036856,0,0,0,0.028343,0.0010737,0.0088249,1.4899,0.012747,0.024337,4.9509e-07,0.3,0.16,0
0.014974,0.0074932,0.028276,0.00099959,0.0087826,0.00059356,0,0,0.050682,-0.020236,0,0.0030865,0,0,0,0.028289,0.00098668,0.0087826,1.246,0.012686,0.024358,4.9404e-07,0.31,0.16,0
0.015481,0.0076008,0.02823,0.00091381,0.0087431,0.00048672,0,0,0.050666,-0.020356,0,0.002531,0,0,0,0.028239,0.00090514,0.0087431,1.0205,0.012629,0.024379,4.9307e-07,0.32,0.16,0
0.015987,0.0077019,0.028187,0.00083424,0.0087063,0.00038783,0,0,0.05065,-0.020467,0,0.0020167,0,0,0,0.028192,0.00082874,0.0087063,0.81217,0.012576,0.024398,4.9219e-07,0.33,0.16,0
0.016494,0.0077968,0.028147,0.00076036,0.0086721,0.00029646,0,0,0.050634,-0.02057,0,0.0015416,0,0,0,0.02815,0.00075715,0.0086721,0.62013,0.012526,0.024417,4.9139e-07,0.34,0.16,0
0.017,0.0078858,0.028109,0.00069174,0.0086402,0.00021219,0,0,0.050619,-0.020666,0,0.0011034,0,0,0,0.028111,0.00069009,0.0086402,0.4434,0.01248,0.024435,4.9067e-07,0.35,0.16,0
0.017506,0.0079691,0.028074,0.00062795,0.0086106,0.00013464,0,0,0.050605,-0.020755,0,0.00070012,0,0,0,0.028075,0.00062729,0.0086106,0.28106,0.012438,0.024453,4.9003e-07,0.36,0.16,0
0.018012,0.008047,0.028042,0.00056863,0.0085831,6.3414e-05,0,0,0.050592,-0.020838,0,0.00032975,0,0,0,0.028042,0.00056849,0.0085831,0.13225,0.012398,0.024471,4.8947e-07,0.37,0.16,0
0.018518,0.0081197,0.028012,0.00051346,0.0085576,-1.8469e-06,0,0,0.050581,-0.020915,0,-9.6041e-06,0,0,0,0.028012,0.00051346,0.0085576,-0.0038483,0.012361,0.024488,4.8899e-07,0.38,0.16,0
0.019023,0.0081876,0.027985,0.00046212,0.008534,-6.1493e-05,0,0,0.050572,-0.020987,0,-0.00031976,0,0,0,0.027985,0.00046198,0.008534,-0.12801,0.012327,0.024505,4.8858e-07,0.39,0.16,0
0.019529,0.0082508,0.02796,0.00041434,0.0085123,-0.00011586,0,0,0.050564,-0.021055,0,-0.00060246,0,0,0,0.02796,0.00041386,0.0085123,-0.24098,0.012295,0.024522,4.8823e-07,0.4,0.16,0
0.020035,0.0083096,0.027937,0.00036989,0.0084921,-0.00016526,0,0,0.050557,-0.021118,0,-0.00085935,0,0,0,0.027938,0.00036889,0.0084921,-0.34346,0.012266,0.024538,4.8794e-07,0.41,0.16,0
0.02054,0.0083642,0.027917,0.00032852,0.0084736,-0.00021,0,0,0.050553,-0.021177,0,-0.001092,0,0,0,0.027918,0.00032692,0.0084736,-0.4361,0.01224,0.024554,4.8772e-07,0.42,0.16,0
0.021046,0.0084149,0.027899,0.00029003,0.0084566,-0.00025037,0,0,0.050549,-0.021233,0,-0.0013019,0,0,0,0.027901,0.00028776,0.0084566,-0.51952,0.012215,0.024569,4.8755e-07,0.43,0.16,0
0.021551,0.0084618,0.027882,0.00025423,0.008441,-0.00028663,0,0,0.050548,-0.021285,0,-0.0014905,0,0,0,0.027885,0.00025126,0.008441,-0.59433,0.012193,0.024584,4.8744e-07,0.44,0.16,0
0.022057,0.0085051,0.027868,0.00022095,0.0084267,-0.00031905,0,0,0.050547,-0.021335,0,-0.001659,0,0,0,0.027872,0.00021727,0.0084267,-0.66107,0.012172,0.024599,4.8737e-07,0.45,0.16,0
0.022562,0.0085451,0.027855,0.00019002,0.0084136,-0.00034786,0,0,0.050548,-0.021381,0,-0.0018089,0,0,0,0.02786,0.00018565,0.0084136,-0.72029,0.012153,0.024614,4.8735e-07,0.46,0.16,0
0.023068,0.0085819,0.027844,0.00016129,0.0084017,-0.00037331,0,0,0.050551,-0.021425,0,-0.0019412,0,0,0,0.027849,0.00015626,0.0084017,-0.77246,0.012136,0.024628,4.8737e-07,0.47,0.16,0
0.023573,0.0086157,0.027835,0.00013463,0.0083909,-0.00039561,0,0,0.050554,-0.021466,0,-0.0020572,0,0,0,0.027841,0.00012898,0.0083909,-0.81807,0.01212,0.024642,4.8742e-07,0.48,0.16,0
0.024079,0.0086467,0.027827,0.0001099,0.008381,-0.00041497,0,0,0.050559,-0.021505,0,-0.0021579,0,0,0,0.027833,0.00010368,0.008381,-0.85756,0.012106,0.024656,4.8752e-07,0.49,0.16,0
0.024584,0.008675,0.02782,8.6974e-05,0.0083722,-0.00043159,0,0,0.050565,-0.021542,0,-0.0022443,0,0,0,0.027827,8.0259e-05,0.0083722,-0.89135,0.012093,0.024669,4.8764e-07,0.5,0.16,0
0.02509,0.0087008,0.027815,6.5751e-05,0.0083643,-0.00044564,0,0,0.050572,-0.021576,0,-0.0023173,0,0,0,0.027822,5.8596e-05,0.0083643,-0.91983,0.012082,0.024682,4.878e-07,0.51,0.16,0
0.025596,0.0087242,0.027811,4.6121e-05,0.0083571,-0.00045731,0,0,0.05058,-0.021609,0,-0.002378,0,0,0,0.027818,3.859e-05,0.0083571,-0.94337,0.012071,0.024695,4.8798e-07,0.52,0.16,0
0.026102,0.0087454,0.027808,2.7984e-05,0.0083508,-0.00046677,0,0,0.050589,-0.021639,0,-0.0024272,0,0,0,0.027816,2.0143e-05,0.0083508,-0.96233,0.012062,0.024707,4.8819e-07,0.53,0.16,0
0.026608,0.0087646,0.027806,1.1247e-05,0.0083452,-0.00047415,0,0,0.050598,-0.021668,0,-0.0024656,0,0,0,0.027814,3.1611e-06,0.0083452,-0.97704,0.012054,0.024719,4.8841e-07,0.54,0.16,0
0.027114,0.0087818,0.027805,-4.1764e-06,0.0083402,-0.00047963,0,0,0.050608,-0.021695,0,-0.002494,0,0,0,0.027813,-1.2446e-05,0.0083402,-0.98779,0.012047,0.024731,4.8866e-07,0.55,0.16,0
0.02762,0.0087972,0.027805,-1.837e-05,0.0083359,-0.00048332,0,0,0.050619,-0.021721,0,-0.0025133,0,0,0,0.027813,-2.6763e-05,0.0083359,-0.9949,0.012041,0.024742,4.8893e-07,0.56,0.16,0
0.028126,0.0088109,0.027805,-3.1412e-05,0.0083322,-0.00048537,0,0,0.05063,-0.021745,0,-0.0025239,0,0,0,0.027814,-3.9872e-05,0.0083322,-0.99862,0.012035,0.024753,4.8921e-07,0.57,0.16,0
0.028633,0.0088231,0.027807,-4.3374e-05,0.008329,-0.0004859,0,0,0.050642,-0.021768,0,-0.0025267,0,0,0,0.027815,-5.1849e-05,0.008329,-0.99923,0.012031,0.024764,4.895e-07,0.58,0.16,0
0.029139,0.0088337,0.027809,-5.4327e-05,0.0083263,-0.00048501,0,0,0.050654,-0.02179,0,-0.0025221,0,0,0,0.027817,-6.2768e-05,0.0083263,-0.99695,0.012027,0.024775,4.8981e-07,0.59,0.16,0
0.029646,0.0088431,0.027811,-6.4337e-05,0.008324,-0.00048283,0,0,0.050666,-0.02181,0,-0.0025107,0,0,0,0.02782,-7.2698e-05,0.008324,-0.99202,0.012024,0.024785,4.9013e-07,0.6,0.16,0
0.030152,0.0088511,0.027814,-7.3465e-05,0.0083222,-0.00047945,0,0,0.050679,-0.021829,0,-0.0024931,0,0,0,0.027822,-8.1706e-05,0.0083222,-0.98465,0.012021,0.024794,4.9045e-07,0.61,0.16,0
0.030659,0.008858,0.027818,-8.1771e-05,0.0083208,-0.00047497,0,0,0.050692,-0.021847,0,-0.0024698,0,0,0,0.027826,-8.9855e-05,0.0083208,-0.97505,0.012019,0.024804,4.9078e-07,0.62,0.16,0
0.031166,0.0088638,0.027822,-8.9309e-05,0.0083197,-0.00046948,0,0,0.050705,-0.021863,0,-0.0024413,0,0,0,0.02783,-9.7204e-05,0.0083197,-0.96338,0.012017,0.024813,4.9112e-07,0.63,0.16,0
0.031673,0.0088686,0.027826,-9.6133e-05,0.008319,-0.00046306,0,0,0.050718,-0.021879,0,-0.0024079,0,0,0,0.027834,-0.00010381,0.008319,-0.94984,0.012016,0.024822,4.9146e-07,0.64,0.16,0
0.032181,0.0088725,0.027831,-0.00010229,0.0083185,-0.00045579,0,0,0.050731,-0.021894,0,-0.0023701,0,0,0,0.027838,-0.00010973,0.0083185,-0.93458,0.012016,0.024831,4.918e-07,0.65,0.16,0
0.032688,0.0088755,0.027835,-0.00010784,0.0083183,-0.00044774,0,0,0.050745,-0.021908,0,-0.0023283,0,0,0,0.027843,-0.00011501,0.0083183,-0.91775,0.012015,0.024839,4.9214e-07,0.66,0.16,0
0.033195,0.0088778,0.027841,-0.00011281,0.0083183,-0.00043899,0,0,0.050758,-0.021921,0,-0.0022828,0,0,0,0.027848,-0.0001197,0.0083183,-0.8995,0.012015,0.024847,4.9249e-07,0.67,0.16,0
0.033703,0.0088794,0.027846,-0.00011725,0.0083186,-0.0004296,0,0,0.050771,-0.021933,0,-0.0022339,0,0,0,0.027852,-0.00012385,0.0083186,-0.87995,0.012016,0.024855,4.9283e-07,0.68,0.16,0
0.034211,0.0088804,0.027851,-0.0001212,0.008319,-0.00041962,0,0,0.050784,-0.021945,0,-0.002182,0,0,0,0.027858,-0.00012749,0.008319,-0.85923,0.012016,0.024862,4.9317e-07,0.69,0.16,0
0.034719,0.0088808,0.027857,-0.0001247,0.0083197,-0.00040911,0,0,0.050797,-0.021955,0,-0.0021274,0,0,0,0.027863,-0.00013068,0.0083197,-0.83746,0.012017,0.024869,4.9351e-07,0.7,0.16,0
0.035227,0.0088807,0.027863,-0.00012778,0.0083204,-0.00039812,0,0,0.05081,-0.021965,0,-0.0020702,0,0,0,0.027868,-0.00013344,0.0083204,-0.81473,0.012018,0.024876,4.9384e-07,0.71,0.16,0
0.035735,0.0088802,0.027868,-0.00013048,0.0083213,-0.00038671,0,0,0.050822,-0.021975,0,-0.0020109,0,0,0,0.027874,-0.00013582,0.0083213,-0.79114,0.01202,0.024883,4.9417e-07,0.72,0.16,0
0.036243,0.0088792,0.027874,-0.00013284,0.0083223,-0.0003749,0,0,0.050834,-0.021983,0,-0.0019495,0,0,0,0.027879,-0.00013786,0.0083223,-0.76679,0.012021,0.02489,4.945e-07,0.73,0.16,0
0.036752,0.008878,0.02788,-0.00013487,0.0083234,-0.00036276,0,0,0.050846,-0.021992,0,-0.0018863,0,0,0,0.027884,-0.00013957,0.0083234,-0.74175,0.012023,0.024896,4.9482e-07,0.74,0.16,0
0.03726,0.0088764,0.027885,-0.00013662,0.0083246,-0.0003503,0,0,0.050858,-0.021999,0,-0.0018216,0,0,0,0.02789,-0.000141,0.0083246,-0.7161,0.012025,0.024902,4.9513e-07,0.75,0.16,0
0.037769,0.0088746,0.027891,-0.0001381,0.0083259,-0.00033757,0,0,0.050869,-0.022006,0,-0.0017554,0,0,0,0.027895,-0.00014217,0.0083259,-0.68992,0.012026,0.024907,4.9543e-07,0.76,0.16,0
0.038277,0.0088725,0.027897,-0.00013935,0.0083271,-0.0003246,0,0,0.05088,-0.022013,0,-0.0016879,0,0,0,0.0279,-0.0001431,0.0083271,-0.66325,0.012028,0.024913,4.9573e-07,0.77,0.16,0
0.038786,0.0088703,0.027902,-0.00014038,0.0083285,-0.00031141,0,0,0.050891,-0.022019,0,-0.0016193,0,0,0,0.027905,-0.00014384,0.0083285,-0.63617,0.01203,0.024918,4.9601e-07,0.78,0.16,0
0.039295,0.008868,0.027907,-0.00014122,0.0083298,-0.00029804,0,0,0.050901,-0.022025,0,-0.0015498,0,0,0,0.02791,-0.00014438,0.0083298,-0.60872,0.012032,0.024923,4.9629e-07,0.79,0.16,0
0.039804,0.0088655,0.027912,-0.00014189,0.0083312,-0.0002845,0,0,0.050911,-0.02203,0,-0.0014794,0,0,0,0.027915,-0.00014477,0.0083312,-0.58095,0.012034,0.024927,4.9656e-07,0.8,0.16,0
0.040314,0.008863,0.027917,-0.00014241,0.0083325,-0.00027081,0,0,0.050921,-0.022035,0,-0.0014082,0,0,0,0.02792,-0.00014502,0.0083325,-0.55291,0.012036,0.024932,4.9682e-07,0.81,0.16,0
0.040823,0.0088605,0.027922,-0.0001428,0.0083338,-0.00025701,0,0,0.05093,-0.022039,0,-0.0013364,0,0,0,0.027925,-0.00014516,0.0083338,-0.52463,0.012038,0.024936,4.9706e-07,0.82,0.16,0
0.041332,0.0088579,0.027927,-0.00014308,0.0083351,-0.00024309,0,0,0.050938,-0.022043,0,-0.0012641,0,0,0,0.027929,-0.00014518,0.0083351,-0.49615,0.01204,0.02494,4.973e-07,0.83,0.16,0
0.041841,0.0088554,0.027931,-0.00014326,0.0083364,-0.00022909,0,0,0.050947,-0.022047,0,-0.0011913,0,0,0,0.027933,-0.00014513,0.0083364,-0.46749,0.012042,0.024944,4.9752e-07,0.84,0.16,0
0.042351,0.0088529,0.027936,-0.00014336,0.0083377,-0.00021501,0,0,0.050954,-0.022051,0,-0.001118,0,0,0,0.027937,-0.000145,0.0083377,-0.4387,0.012043,0.024947,4.9773e-07,0.85,0.16,0
0.042861,0.0088504,0.02794,-0.00014338,0.0083389,-0.00020086,0,0,0.050962,-0.022054,0,-0.0010445,0,0,0,0.027941,-0.00014482,0.0083389,-0.40978,0.012045,0.02495,4.9793e-07,0.86,0.16,0
0.04337,0.008848,0.027943,-0.00014336,0.00834,-0.00018666,0,0,0.050969,-0.022057,0,-0.00097065,0,0,0,0.027945,-0.0001446,0.00834,-0.38076,0.012047,0.024953,4.9812e-07,0.87,0.16,0
0.04388,0.0088458,0.027947,-0.00014329,0.0083411,-0.00017242,0,0,0.050975,-0.022059,0,-0.00089657,0,0,0,0.027948,-0.00014435,0.0083411,-0.35167,0.012048,0.024956,4.9829e-07,0.88,0.16,0
0.04439,0.0088437,0.02795,-0.00014318,0.0083421,-0.00015814,0,0,0.050981,-0.022062,0,-0.00082231,0,0,0,0.027951,-0.00014407,0.0083421,-0.3225,0.01205,0.024959,4.9845e-07,0.89,0.16,0
0.0449,0.0088416,0.027953,-0.00014306,0.008343,-0.00014383,0,0,0.050986,-0.022064,0,-0.00074789,0,0,0,0.027954,-0.00014379,0.008343,-0.29329,0.012051,0.024961,4.986e-07,0.9,0.16,0
0.045409,0.0088398,0.027956,-0.00014292,0.0083439,-0.00012949,0,0,0.050991,-0.022066,0,-0.00067335,0,0,0,0.027956,-0.00014351,0.0083439,-0.26403,0.012052,0.024963,4.9873e-07,0.91,0.16,0
0.04592,0.0088381,0.027958,-0.00014277,0.0083447,-0.00011514,0,0,0.050996,-0.022067,0,-0.00059871,0,0,0,0.027959,-0.00014324,0.0083447,-0.23475,0.012053,0.024965,4.9885e-07,0.92,0.16,0
0.046429,0.0088366,0.027961,-0.00014262,0.0083454,-0.00010077,0,0,0.051,-0.022069,0,-0.000524,0,0,0,0.027961,-0.00014298,0.0083454,-0.20544,0.012054,0.024966,4.9896e-07,0.93,0.16,0
0.046939,0.0088352,0.027963,-0.00014249,0.008346,-8.6389e-05,0,0,0.051003,-0.02207,0,-0.00044922,0,0,0,0.027963,-0.00014275,0.008346,-0.17611,0.012055,0.024968,4.9905e-07,0.94,0.16,0
0.047449,0.0088341,0.027964,-0.00014236,0.0083465,-7.2001e-05,0,0,0.051006,-0.022071,0,-0.00037441,0,0,0,0.027964,-0.00014254,0.0083465,-0.14678,0.012056,0.024969,4.9913e-07,0.95,0.16,0
0.04796,0.0088331,0.027966,-0.00014225,0.008347,-5.7608e-05,0,0,0.051008,-0.022072,0,-0.00029956,0,0,0,0.027966,-0.00014237,0.008347,-0.11743,0.012057,0.02497,4.992e-07,0.96,0.16,0
0.04847,0.0088324,0.027966,-0.00014216,0.0083473,-4.3209e-05,0,0,0.05101,-0.022073,0,-0.00022469,0,0,0,0.027967,-0.00014223,0.0083473,-0.088076,0.012057,0.024971,4.9925e-07,0.97,0.16,0
0.04898,0.0088319,0.027967,-0.00014209,0.0083476,-2.8808e-05,0,0,0.051011,-0.022073,0,-0.0001498,0,0,0,0.027967,-0.00014212,0.0083476,-0.058719,0.012058,0.024972,4.9928e-07,0.98,0.16,0
0.04949,0.0088316,0.027968,-0.00014205,0.0083477,-1.4404e-05,0,0,0.051012,-0.022073,0,-7.4902e-05,0,0,0,0.027968,-0.00014206,0.0083477,-0.02936,0.012058,0.024972,4.993e-07,0.99,0.16,0
0.05,0.0088314,0.027968,-0.00014204,0.0083477,-2.0644e-06,0,0,0.051012,-0.022073,0,-1.0735e-05,0,0,0,0.027968,-0.00014204,0.0083477,-0.0042077,0.012058,0.024972,4.9931e-07,1,0.16,0
0,0,0.027303,0.011701,0.011701,0.0059823,0,0,0.040565,5.9631e-19,0,0.031108,0,0,0,0.029333,0.0096715,0.011701,18.742,0.016902,0.018729,3.241e-07,0,0.17,0
0.00040565,0.00031108,0.027259,0.01113,0.011517,0.0059784,0,0,0.04093,-0.0010046,0,0.031088,0,0,0,0.029233,0.0091561,0.011517,18.276,0.016636,0.019007,3.3441e-07,0.01,0.17,0
0.0008186,0.00062583,0.027453,0.010626,0.011424,0.0059914,0,0,0.041675,-0.0020731,0,0.031155,0,0,0,0.029368,0.008711,0.011424,17.728,0.016501,0.019443,3.5286e-07,0.02,0.17,0
0.0012392,0.00094313,0.027648,0.010096,0.011323,0.0059731,0,0,0.042444,-0.0031911,0,0.03106,0,0,0,0.029488,0.0082558,0.011323,17.12,0.016355,0.019876,3.7115e-07,0.03,0.17,0
0.0016675,0.0012617,0.027841,0.0095463,0.011216,0.0059209,0,0,0.043224,-0.0043415,0,0.030789,0,0,0,0.02959,0.0077972,0.011216,16.457,0.016201,0.0203,3.8889e-07,0.04,0.17,0
0.0021036,0.0015802,0.028027,0.0089866,0.011104,0.0058338,0,0,0.043999,-0.0055054,0,0.030336,0,0,0,0.029672,0.0073413,0.011104,15.75,0.016039,0.020708,4.0575e-07,0.05,0.17,0
0.0025475,0.0018972,0.028202,0.0084252,0.010988,0.0057125,0,0,0.044757,-0.0066641,0,0.029705,0,0,0,0.029734,0.0068937,0.010988,15.007,0.015872,0.021093,4.2143e-07,0.06,0.17,0
0.0029988,0.0022113,0.028364,0.00787,0.01087,0.0055594,0,0,0.045484,-0.0078005,0,0.028909,0,0,0,0.029775,0.0064591,0.01087,14.241,0.015701,0.021453,4.3571e-07,0.07,0.17,0
0.0034571,0.0025213,0.028508,0.007328,0.010751,0.0053776,0,0,0.046169,-0.0088996,0,0.027963,0,0,0,0.029795,0.0060409,0.010751,13.46,0.015529,0.021785,4.4846e-07,0.08,0.17,0
0.0039222,0.0028258,0.028634,0.0068049,0.010632,0.0051714,0,0,0.046806,-0.0099495,0,0.026891,0,0,0,0.029797,0.0056417,0.010632,12.676,0.015357,0.022087,4.5962e-07,0.09,0.17,0
0.0043933,0.0031239,0.028739,0.0063051,0.010513,0.0049455,0,0,0.047388,-0.010941,0,0.025717,0,0,0,0.029781,0.0052632,0.010513,11.896,0.015186,0.02236,4.692e-07,0.1,0.17,0
0.0048699,0.0034146,0.028825,0.0058315,0.010397,0.0047045,0,0,0.047912,-0.01187,0,0.024463,0,0,0,0.02975,0.0049062,0.010397,11.127,0.015018,0.022604,4.7727e-07,0.11,0.17,0
0.0053515,0.0036971,0.02889,0.0053859,0.010283,0.0044529,0,0,0.048379,-0.012732,0,0.023155,0,0,0,0.029706,0.0045706,0.010283,10.376,0.014853,0.022822,4.8394e-07,0.12,0.17,0
0.0058375,0.0039708,0.028937,0.0049693,0.010172,0.0041949,0,0,0.04879,-0.013527,0,0.021814,0,0,0,0.02965,0.0042563,0.010172,9.6461,0.014693,0.023014,4.8933e-07,0.13,0.17,0
0.0063273,0.0042352,0.028967,0.0045813,0.010065,0.0039343,0,0,0.049147,-0.014256,0,0.020458,0,0,0,0.029586,0.0039623,0.010065,8.9417,0.014538,0.023183,4.9358e-07,0.14,0.17,0
0.0068204,0.0044901,0.028982,0.0042216,0.0099609,0.0036743,0,0,0.049454,-0.014922,0,0.019106,0,0,0,0.029515,0.0036878,0.0099609,8.2652,0.014388,0.023332,4.9685e-07,0.15,0.17,0
0.0073164,0.0047351,0.028982,0.0038887,0.0098613,0.0034175,0,0,0.049715,-0.015529,0,0.017771,0,0,0,0.029439,0.0034317,0.0098613,7.6182,0.014244,0.023463,4.9928e-07,0.16,0.17,0
0.0078147,0.0049703,0.028972,0.0035815,0.0097659,0.003166,0,0,0.049935,-0.016079,0,0.016463,0,0,0,0.02936,0.0031927,0.0097659,7.0018,0.014106,0.023578,5.0101e-07,0.17,0.17,0
0.0083151,0.0051954,0.028951,0.0032983,0.0096747,0.0029217,0,0,0.050118,-0.016579,0,0.015193,0,0,0,0.029279,0.0029697,0.0096747,6.4163,0.013975,0.02368,5.0215e-07,0.18,0.17,0
0.0088171,0.0054107,0.028922,0.0030373,0.0095878,0.0026858,0,0,0.050269,-0.017031,0,0.013966,0,0,0,0.029198,0.0027616,0.0095878,5.8617,0.013849,0.02377,5.0281e-07,0.19,0.17,0
0.0093204,0.0056161,0.028887,0.002797,0.0095051,0.0024591,0,0,0.050392,-0.017441,0,0.012788,0,0,0,0.029117,0.0025672,0.0095051,5.3379,0.01373,0.02385,5.0309e-07,0.2,0.17,0
0.0098249,0.0058119,0.028846,0.0025756,0.0094266,0.0022425,0,0,0.050492,-0.017812,0,0.011661,0,0,0,0.029036,0.0023856,0.0094266,4.8441,0.013616,0.023921,5.0307e-07,0.21,0.17,0
0.01033,0.0059982,0.028802,0.0023717,0.0093522,0.0020362,0,0,0.05057,-0.018149,0,0.010588,0,0,0,0.028958,0.0022158,0.0093522,4.3795,0.013509,0.023984,5.0282e-07,0.22,0.17,0
0.010836,0.0061753,0.028755,0.0021837,0.0092818,0.0018404,0,0,0.050632,-0.018455,0,0.0095701,0,0,0,0.028882,0.0020568,0.0092818,3.9433,0.013407,0.024042,5.024e-07,0.23,0.17,0
0.011343,0.0063433,0.028707,0.0020103,0.0092152,0.0016552,0,0,0.050679,-0.018733,0,0.0086071,0,0,0,0.028809,0.0019081,0.0092152,3.5343,0.013311,0.024094,5.0186e-07,0.24,0.17,0
0.01185,0.0065027,0.028658,0.0018502,0.0091524,0.0014805,0,0,0.050714,-0.018986,0,0.0076988,0,0,0,0.028739,0.0017687,0.0091524,3.1516,0.01322,0.024141,5.0123e-07,0.25,0.17,0
0.012357,0.0066536,0.028608,0.0017022,0.0090931,0.0013162,0,0,0.050739,-0.019216,0,0.0068441,0,0,0,0.028672,0.001638,0.0090931,2.7939,0.013135,0.024185,5.0054e-07,0.26,0.17,0
0.012865,0.0067963,0.028559,0.0015654,0.0090373,0.0011619,0,0,0.050756,-0.019427,0,0.0060416,0,0,0,0.028609,0.0015155,0.0090373,2.4601,0.013054,0.024225,4.9984e-07,0.27,0.17,0
0.013372,0.0069311,0.028511,0.0014387,0.0089848,0.0010173,0,0,0.050767,-0.01962,0,0.0052899,0,0,0,0.028549,0.0014005,0.0089848,2.149,0.012978,0.024262,4.9912e-07,0.28,0.17,0
0.01388,0.0070584,0.028463,0.0013213,0.0089354,0.00088215,0,0,0.050773,-0.019797,0,0.0045872,0,0,0,0.028492,0.0012927,0.0089354,1.8596,0.012907,0.024297,4.9841e-07,0.29,0.17,0
0.014388,0.0071784,0.028418,0.0012124,0.0088891,0.00075604,0,0,0.050775,-0.019959,0,0.0039314,0,0,0,0.028439,0.0011914,0.0088891,1.5906,0.01284,0.02433,4.9773e-07,0.3,0.17,0
0.014896,0.0072915,0.028374,0.0011114,0.0088456,0.00063859,0,0,0.050774,-0.020109,0,0.0033207,0,0,0,0.028389,0.0010964,0.0088456,1.3411,0.012777,0.024361,4.9707e-07,0.31,0.17,0
0.015403,0.0073978,0.028332,0.0010175,0.0088048,0.00052941,0,0,0.05077,-0.020247,0,0.002753,0,0,0,0.028342,0.0010072,0.0088048,1.11,0.012718,0.02439,4.9645e-07,0.32,0.17,0
0.015911,0.0074977,0.028292,0.00093023,0.0087667,0.00042811,0,0,0.050766,-0.020375,0,0.0022262,0,0,0,0.028299,0.00092354,0.0087667,0.89617,0.012663,0.024417,4.9588e-07,0.33,0.17,0
0.016419,0.0075915,0.028254,0.00084908,0.0087309,0.00033429,0,0,0.05076,-0.020493,0,0.0017383,0,0,0,0.028258,0.000845,0.0087309,0.69876,0.012611,0.024444,4.9534e-07,0.34,0.17,0
0.016926,0.0076794,0.028218,0.00077356,0.0086976,0.00024758,0,0,0.050754,-0.020602,0,0.0012874,0,0,0,0.028221,0.00077133,0.0086976,0.51681,0.012563,0.024469,4.9486e-07,0.35,0.17,0
0.017434,0.0077617,0.028185,0.00070326,0.0086664,0.0001676,0,0,0.050748,-0.020704,0,0.00087151,0,0,0,0.028186,0.00070223,0.0086664,0.3494,0.012518,0.024493,4.9442e-07,0.36,0.17,0
0.017941,0.0078387,0.028154,0.00063779,0.0086374,9.3988e-05,0,0,0.050742,-0.020799,0,0.00048874,0,0,0,0.028154,0.00063747,0.0086374,0.19571,0.012476,0.024516,4.9402e-07,0.37,0.17,0
0.018448,0.0079107,0.028124,0.00057681,0.0086104,2.6397e-05,0,0,0.050736,-0.020887,0,0.00013726,0,0,0,0.028124,0.00057679,0.0086104,0.054903,0.012437,0.024538,4.9368e-07,0.38,0.17,0
0.018956,0.0079778,0.028097,0.00052001,0.0085852,-3.5512e-05,0,0,0.050731,-0.020969,0,-0.00018466,0,0,0,0.028097,0.00051996,0.0085852,-0.073781,0.012401,0.024559,4.9338e-07,0.39,0.17,0
0.019463,0.0080403,0.028072,0.00046709,0.0085618,-9.2063e-05,0,0,0.050727,-0.021046,0,-0.00047873,0,0,0,0.028073,0.00046678,0.0085618,-0.19108,0.012367,0.024579,4.9312e-07,0.4,0.17,0
0.01997,0.0080984,0.028049,0.00041779,0.0085401,-0.00014357,0,0,0.050724,-0.021118,0,-0.00074655,0,0,0,0.02805,0.00041705,0.0085401,-0.29769,0.012336,0.024599,4.929e-07,0.41,0.17,0
0.020478,0.0081524,0.028028,0.00037188,0.00852,-0.00019032,0,0,0.050721,-0.021185,0,-0.00098968,0,0,0,0.028029,0.00037057,0.00852,-0.39427,0.012307,0.024618,4.9273e-07,0.42,0.17,0
0.020985,0.0082025,0.028009,0.00032912,0.0085014,-0.00023261,0,0,0.050719,-0.021248,0,-0.0012096,0,0,0,0.028011,0.00032716,0.0085014,-0.48145,0.01228,0.024636,4.9259e-07,0.43,0.17,0
0.021492,0.0082488,0.027991,0.00028931,0.0084842,-0.0002707,0,0,0.050718,-0.021307,0,-0.0014077,0,0,0,0.027994,0.00028667,0.0084842,-0.55982,0.012255,0.024653,4.9249e-07,0.44,0.17,0
0.021999,0.0082916,0.027975,0.00025227,0.0084683,-0.00030485,0,0,0.050718,-0.021362,0,-0.0015853,0,0,0,0.027979,0.00024892,0.0084683,-0.62995,0.012232,0.024669,4.9242e-07,0.45,0.17,0
0.022506,0.0083311,0.027961,0.00021782,0.0084537,-0.00033531,0,0,0.05072,-0.021413,0,-0.0017436,0,0,0,0.027965,0.00021377,0.0084537,-0.69236,0.012211,0.024685,4.9238e-07,0.46,0.17,0
0.023013,0.0083674,0.027949,0.0001858,0.0084403,-0.00036231,0,0,0.050721,-0.021462,0,-0.001884,0,0,0,0.027953,0.00018108,0.0084403,-0.74756,0.012191,0.024701,4.9238e-07,0.47,0.17,0
0.023521,0.0084008,0.027937,0.00015606,0.008428,-0.00038607,0,0,0.050724,-0.021507,0,-0.0020076,0,0,0,0.027943,0.00015069,0.008428,-0.79602,0.012174,0.024716,4.924e-07,0.48,0.17,0
0.024028,0.0084314,0.027927,0.00012845,0.0084167,-0.00040679,0,0,0.050728,-0.02155,0,-0.0021153,0,0,0,0.027933,0.00012249,0.0084167,-0.8382,0.012157,0.02473,4.9245e-07,0.49,0.17,0
0.024535,0.0084593,0.027919,0.00010284,0.0084065,-0.00042469,0,0,0.050732,-0.021589,0,-0.0022084,0,0,0,0.027925,9.6355e-05,0.0084065,-0.87451,0.012143,0.024744,4.9252e-07,0.5,0.17,0
0.025043,0.0084847,0.027911,7.9108e-05,0.0083971,-0.00043994,0,0,0.050737,-0.021627,0,-0.0022877,0,0,0,0.027918,7.2156e-05,0.0083971,-0.90536,0.012129,0.024757,4.9261e-07,0.51,0.17,0
0.02555,0.0085078,0.027905,5.7143e-05,0.0083886,-0.00045272,0,0,0.050743,-0.021662,0,-0.0023541,0,0,0,0.027912,4.9786e-05,0.0083886,-0.93112,0.012117,0.024769,4.9272e-07,0.52,0.17,0
0.026058,0.0085287,0.0279,3.6834e-05,0.008381,-0.0004632,0,0,0.050749,-0.021695,0,-0.0024086,0,0,0,0.027907,2.9135e-05,0.008381,-0.95215,0.012106,0.024781,4.9286e-07,0.53,0.17,0
0.026565,0.0085476,0.027895,1.8077e-05,0.008374,-0.00047154,0,0,0.050756,-0.021725,0,-0.002452,0,0,0,0.027903,1.0103e-05,0.008374,-0.96878,0.012096,0.024793,4.93e-07,0.54,0.17,0
0.027073,0.0085646,0.027892,7.7673e-07,0.0083678,-0.00047789,0,0,0.050763,-0.021754,0,-0.002485,0,0,0,0.0279,-7.4092e-06,0.0083678,-0.98133,0.012087,0.024804,4.9317e-07,0.55,0.17,0
0.02758,0.0085797,0.02789,-1.5157e-05,0.0083623,-0.0004824,0,0,0.050771,-0.021781,0,-0.0025085,0,0,0,0.027898,-2.3494e-05,0.0083623,-0.9901,0.012079,0.024815,4.9334e-07,0.56,0.17,0
0.028088,0.0085932,0.027888,-2.9811e-05,0.0083574,-0.00048519,0,0,0.050779,-0.021807,0,-0.002523,0,0,0,0.027896,-3.8241e-05,0.0083574,-0.99537,0.012072,0.024825,4.9354e-07,0.57,0.17,0
0.028596,0.0086051,0.027887,-4.3266e-05,0.008353,-0.0004864,0,0,0.050787,-0.02183,0,-0.0025293,0,0,0,0.027895,-5.1734e-05,0.008353,-0.9974,0.012065,0.024835,4.9374e-07,0.58,0.17,0
0.029104,0.0086155,0.027886,-5.5598e-05,0.0083492,-0.00048613,0,0,0.050796,-0.021853,0,-0.0025279,0,0,0,0.027895,-6.4053e-05,0.0083492,-0.99643,0.01206,0.024844,4.9395e-07,0.59,0.17,0
0.029612,0.0086246,0.027886,-6.688e-05,0.0083459,-0.00048451,0,0,0.050806,-0.021873,0,-0.0025194,0,0,0,0.027895,-7.5276e-05,0.0083459,-0.9927,0.012055,0.024854,4.9416e-07,0.6,0.17,0
0.03012,0.0086325,0.027887,-7.7181e-05,0.008343,-0.00048163,0,0,0.050815,-0.021892,0,-0.0025045,0,0,0,0.027895,-8.5474e-05,0.008343,-0.98642,0.012051,0.024862,4.9439e-07,0.61,0.17,0
0.030628,0.0086392,0.027888,-8.6565e-05,0.0083405,-0.0004776,0,0,0.050824,-0.02191,0,-0.0024835,0,0,0,0.027897,-9.4716e-05,0.0083405,-0.9778,0.012047,0.024871,4.9462e-07,0.62,0.17,0
0.031136,0.0086448,0.02789,-9.5094e-05,0.0083385,-0.00047251,0,0,0.050834,-0.021927,0,-0.0024571,0,0,0,0.027898,-0.00010307,0.0083385,-0.96704,0.012044,0.024879,4.9486e-07,0.63,0.17,0
0.031645,0.0086494,0.027892,-0.00010283,0.0083368,-0.00046645,0,0,0.050844,-0.021943,0,-0.0024255,0,0,0,0.0279,-0.00011059,0.0083368,-0.9543,0.012042,0.024886,4.951e-07,0.64,0.17,0
0.032153,0.0086532,0.027894,-0.00010982,0.0083354,-0.00045949,0,0,0.050854,-0.021958,0,-0.0023893,0,0,0,0.027902,-0.00011735,0.0083354,-0.93975,0.01204,0.024894,4.9534e-07,0.65,0.17,0
0.032662,0.0086561,0.027897,-0.00011612,0.0083343,-0.00045171,0,0,0.050863,-0.021971,0,-0.0023489,0,0,0,0.027904,-0.0001234,0.0083343,-0.92356,0.012039,0.024901,4.9558e-07,0.66,0.17,0
0.03317,0.0086583,0.0279,-0.00012178,0.0083335,-0.00044318,0,0,0.050873,-0.021984,0,-0.0023045,0,0,0,0.027907,-0.00012879,0.0083335,-0.90586,0.012037,0.024907,4.9583e-07,0.67,0.17,0
0.033679,0.0086598,0.027903,-0.00012685,0.008333,-0.00043398,0,0,0.050883,-0.021996,0,-0.0022567,0,0,0,0.02791,-0.00013357,0.008333,-0.8868,0.012037,0.024914,4.9607e-07,0.68,0.17,0
0.034188,0.0086606,0.027907,-0.00013137,0.0083326,-0.00042415,0,0,0.050893,-0.022006,0,-0.0022056,0,0,0,0.027913,-0.00013779,0.0083326,-0.86649,0.012036,0.02492,4.9632e-07,0.69,0.17,0
0.034697,0.0086609,0.02791,-0.00013539,0.0083325,-0.00041377,0,0,0.050903,-0.022017,0,-0.0021516,0,0,0,0.027917,-0.00014149,0.0083325,-0.84505,0.012036,0.024926,4.9656e-07,0.7,0.17,0
0.035206,0.0086607,0.027914,-0.00013894,0.0083326,-0.00040287,0,0,0.050912,-0.022026,0,-0.0020949,0,0,0,0.02792,-0.00014473,0.0083326,-0.8226,0.012036,0.024931,4.968e-07,0.71,0.17,0
0.035715,0.0086601,0.027918,-0.00014206,0.0083328,-0.00039151,0,0,0.050922,-0.022035,0,-0.0020359,0,0,0,0.027923,-0.00014753,0.0083328,-0.79923,0.012036,0.024937,4.9705e-07,0.72,0.17,0
0.036225,0.0086591,0.027922,-0.0001448,0.0083331,-0.00037975,0,0,0.050931,-0.022043,0,-0.0019747,0,0,0,0.027927,-0.00014993,0.0083331,-0.77503,0.012037,0.024942,4.9728e-07,0.73,0.17,0
0.036734,0.0086578,0.027926,-0.00014717,0.0083336,-0.00036761,0,0,0.05094,-0.02205,0,-0.0019115,0,0,0,0.027931,-0.00015198,0.0083336,-0.75009,0.012037,0.024947,4.9751e-07,0.74,0.17,0
0.037243,0.0086561,0.02793,-0.00014922,0.0083342,-0.00035513,0,0,0.050949,-0.022057,0,-0.0018467,0,0,0,0.027934,-0.00015371,0.0083342,-0.7245,0.012038,0.024951,4.9774e-07,0.75,0.17,0
0.037753,0.0086542,0.027934,-0.00015097,0.0083348,-0.00034236,0,0,0.050957,-0.022063,0,-0.0017803,0,0,0,0.027938,-0.00015514,0.0083348,-0.69831,0.012039,0.024956,4.9796e-07,0.76,0.17,0
0.038263,0.0086521,0.027938,-0.00015245,0.0083356,-0.00032933,0,0,0.050966,-0.022069,0,-0.0017125,0,0,0,0.027942,-0.00015631,0.0083356,-0.67161,0.01204,0.02496,4.9818e-07,0.77,0.17,0
0.038772,0.0086499,0.027942,-0.00015369,0.0083364,-0.00031606,0,0,0.050974,-0.022074,0,-0.0016435,0,0,0,0.027945,-0.00015725,0.0083364,-0.64444,0.012042,0.024964,4.9839e-07,0.78,0.17,0
0.039282,0.0086475,0.027946,-0.00015472,0.0083372,-0.00030258,0,0,0.050982,-0.022079,0,-0.0015734,0,0,0,0.027949,-0.00015797,0.0083372,-0.61686,0.012043,0.024968,4.9859e-07,0.79,0.17,0
0.039792,0.008645,0.027949,-0.00015555,0.0083381,-0.00028893,0,0,0.050989,-0.022084,0,-0.0015024,0,0,0,0.027952,-0.00015852,0.0083381,-0.58893,0.012044,0.024971,4.9879e-07,0.8,0.17,0
0.040302,0.0086424,0.027953,-0.00015621,0.0083391,-0.00027511,0,0,0.050996,-0.022088,0,-0.0014306,0,0,0,0.027956,-0.0001589,0.0083391,-0.56069,0.012045,0.024975,4.9898e-07,0.81,0.17,0
0.040812,0.0086398,0.027957,-0.00015672,0.00834,-0.00026116,0,0,0.051003,-0.022091,0,-0.001358,0,0,0,0.027959,-0.00015915,0.00834,-0.53218,0.012047,0.024978,4.9916e-07,0.82,0.17,0
0.041322,0.0086372,0.02796,-0.0001571,0.0083409,-0.00024708,0,0,0.05101,-0.022095,0,-0.0012848,0,0,0,0.027962,-0.00015928,0.0083409,-0.50344,0.012048,0.024981,4.9934e-07,0.83,0.17,0
0.041832,0.0086346,0.027963,-0.00015737,0.0083418,-0.0002329,0,0,0.051016,-0.022098,0,-0.0012111,0,0,0,0.027965,-0.0001593,0.0083418,-0.47449,0.012049,0.024983,4.995e-07,0.84,0.17,0
0.042342,0.0086321,0.027967,-0.00015755,0.0083427,-0.00021864,0,0,0.051022,-0.022101,0,-0.0011369,0,0,0,0.027968,-0.00015925,0.0083427,-0.44538,0.012051,0.024986,4.9966e-07,0.85,0.17,0
0.042853,0.0086296,0.02797,-0.00015764,0.0083436,-0.00020429,0,0,0.051028,-0.022103,0,-0.0010623,0,0,0,0.027971,-0.00015912,0.0083436,-0.41612,0.012052,0.024989,4.9981e-07,0.86,0.17,0
0.043363,0.0086272,0.027973,-0.00015767,0.0083445,-0.00018989,0,0,0.051033,-0.022106,0,-0.00098741,0,0,0,0.027974,-0.00015895,0.0083445,-0.38674,0.012053,0.024991,4.9995e-07,0.87,0.17,0
0.043873,0.008625,0.027975,-0.00015764,0.0083453,-0.00017543,0,0,0.051038,-0.022108,0,-0.00091222,0,0,0,0.027976,-0.00015873,0.0083453,-0.35726,0.012054,0.024993,5.0008e-07,0.88,0.17,0
0.044384,0.0086228,0.027978,-0.00015757,0.0083461,-0.00016092,0,0,0.051042,-0.022109,0,-0.00083679,0,0,0,0.027979,-0.00015849,0.0083461,-0.32769,0.012055,0.024995,5.002e-07,0.89,0.17,0
0.044894,0.0086208,0.02798,-0.00015748,0.0083468,-0.00014638,0,0,0.051047,-0.022111,0,-0.00076118,0,0,0,0.027981,-0.00015824,0.0083468,-0.29806,0.012056,0.024996,5.0031e-07,0.9,0.17,0
0.045405,0.0086189,0.027982,-0.00015736,0.0083474,-0.00013181,0,0,0.05105,-0.022113,0,-0.0006854,0,0,0,0.027983,-0.00015798,0.0083474,-0.26837,0.012057,0.024998,5.0041e-07,0.91,0.17,0
0.045915,0.0086172,0.027984,-0.00015723,0.008348,-0.00011721,0,0,0.051054,-0.022114,0,-0.0006095,0,0,0,0.027985,-0.00015772,0.008348,-0.23864,0.012058,0.024999,5.005e-07,0.92,0.17,0
0.046426,0.0086157,0.027986,-0.0001571,0.0083486,-0.0001026,0,0,0.051057,-0.022115,0,-0.00053349,0,0,0,0.027986,-0.00015747,0.0083486,-0.20887,0.012059,0.025,5.0058e-07,0.93,0.17,0
0.046936,0.0086143,0.027987,-0.00015697,0.0083491,-8.7962e-05,0,0,0.051059,-0.022116,0,-0.0004574,0,0,0,0.027987,-0.00015725,0.0083491,-0.17907,0.01206,0.025001,5.0065e-07,0.94,0.17,0
0.047447,0.0086132,0.027988,-0.00015686,0.0083495,-7.3318e-05,0,0,0.051061,-0.022117,0,-0.00038125,0,0,0,0.027989,-0.00015705,0.0083495,-0.14925,0.01206,0.025002,5.0071e-07,0.95,0.17,0
0.047957,0.0086122,0.02799,-0.00015675,0.0083498,-5.8664e-05,0,0,0.051063,-0.022117,0,-0.00030505,0,0,0,0.02799,-0.00015688,0.0083498,-0.11942,0.012061,0.025003,5.0076e-07,0.96,0.17,0
0.048468,0.0086115,0.02799,-0.00015667,0.0083501,-4.4004e-05,0,0,0.051065,-0.022118,0,-0.00022882,0,0,0,0.02799,-0.00015674,0.0083501,-0.089573,0.012061,0.025004,5.008e-07,0.97,0.17,0
0.048979,0.0086109,0.027991,-0.00015661,0.0083503,-2.9338e-05,0,0,0.051066,-0.022118,0,-0.00015256,0,0,0,0.027991,-0.00015664,0.0083503,-0.05972,0.012061,0.025004,5.0082e-07,0.98,0.17,0
0.049489,0.0086106,0.027991,-0.00015657,0.0083504,-1.467e-05,0,0,0.051066,-0.022118,0,-7.6284e-05,0,0,0,0.027991,-0.00015657,0.0083504,-0.029861,0.012062,0.025004,5.0084e-07,0.99,0.17,0
0.05,0.0086105,0.027991,-0.00015655,0.0083505,-2.0796e-06,0,0,0.051066,-0.022118,0,-1.0814e-05,0,0,0,0.027991,-0.00015655,0.0083505,-0.004233,0.012062,0.025004,5.0085e-07,1,0.17,0
0,0,0.027177,0.011647,0.011647,0.0057942,0,0,0.040377,8.1315e-19,0,0.03013,0,0,0,0.0291,0.0097236,0.011647,18.366,0.016824,0.01849,3.1285e-07,0,0.18,0
0.00040377,0.0003013,0.027135,0.011105,0.011472,0.0057903,0,0,0.040723,-0.00095438,0,0.03011,0,0,0,0.029007,0.009232,0.011472,17.923,0.01657,0.018756,3.2265e-07,0.01,0.18,0
0.00081447,0.00060567,0.027319,0.010629,0.011384,0.0057996,0,0,0.04143,-0.001964,0,0.030158,0,0,0,0.029136,0.0088115,0.011384,17.399,0.016444,0.019168,3.3985e-07,0.02,0.18,0
0.0012324,0.00091214,0.027505,0.01013,0.01129,0.0057811,0,0,0.042157,-0.0030175,0,0.030062,0,0,0,0.029252,0.008382,0.01129,16.821,0.016308,0.019579,3.5696e-07,0.03,0.18,0
0.0016576,0.0012196,0.027689,0.0096135,0.011191,0.0057328,0,0,0.042895,-0.0041007,0,0.02981,0,0,0,0.029354,0.0079486,0.011191,16.194,0.016164,0.019982,3.7368e-07,0.04,0.18,0
0.0020903,0.0015268,0.027868,0.0090872,0.011087,0.0056536,0,0,0.043632,-0.0051986,0,0.029399,0,0,0,0.029439,0.0075166,0.011087,15.525,0.016014,0.020373,3.8973e-07,0.05,0.18,0
0.0025302,0.0018325,0.028039,0.0085577,0.010979,0.0055439,0,0,0.044356,-0.0062956,0,0.028828,0,0,0,0.029506,0.0070905,0.010979,14.823,0.015859,0.020747,4.0486e-07,0.06,0.18,0
0.0029774,0.0021356,0.028199,0.0080318,0.010869,0.0054054,0,0,0.045057,-0.007377,0,0.028108,0,0,0,0.029556,0.0066743,0.010869,14.097,0.0157,0.021099,4.1888e-07,0.07,0.18,0
0.0034314,0.0024348,0.028344,0.0075155,0.010758,0.0052407,0,0,0.045724,-0.0084301,0,0.027252,0,0,0,0.029588,0.0062713,0.010758,13.356,0.015539,0.021429,4.3165e-07,0.08,0.18,0
0.0038919,0.002729,0.028473,0.007014,0.010646,0.005053,0,0,0.046351,-0.0094438,0,0.026276,0,0,0,0.029604,0.0058837,0.010646,12.609,0.015378,0.021734,4.4311e-07,0.09,0.18,0
0.0043584,0.0030173,0.028586,0.0065314,0.010535,0.0048463,0,0,0.046932,-0.01041,0,0.025201,0,0,0,0.029604,0.0055134,0.010535,11.862,0.015218,0.022013,4.5323e-07,0.1,0.18,0
0.0048305,0.0032987,0.028681,0.0060706,0.010425,0.0046244,0,0,0.047464,-0.011322,0,0.024047,0,0,0,0.02959,0.0051613,0.010425,11.124,0.015059,0.022268,4.6205e-07,0.11,0.18,0
0.0053077,0.0035726,0.028758,0.0056337,0.010317,0.0043913,0,0,0.047945,-0.012178,0,0.022835,0,0,0,0.029564,0.0048278,0.010317,10.399,0.014903,0.022499,4.6963e-07,0.12,0.18,0
0.0057894,0.0038383,0.028818,0.0052218,0.010212,0.0041507,0,0,0.048376,-0.012974,0,0.021584,0,0,0,0.029527,0.004513,0.010212,9.6912,0.014751,0.022707,4.7605e-07,0.13,0.18,0
0.0062752,0.0040955,0.028862,0.0048354,0.010109,0.003906,0,0,0.048758,-0.013712,0,0.020311,0,0,0,0.029481,0.0042164,0.010109,9.0055,0.014602,0.022895,4.8142e-07,0.14,0.18,0
0.0067646,0.0043436,0.028892,0.0044742,0.01001,0.0036602,0,0,0.049094,-0.014393,0,0.019033,0,0,0,0.029429,0.0039374,0.01001,8.3442,0.014459,0.023063,4.8586e-07,0.15,0.18,0
0.0072571,0.0045825,0.028909,0.0041377,0.0099139,0.0034158,0,0,0.049386,-0.015018,0,0.017762,0,0,0,0.029371,0.0036753,0.0099139,7.7092,0.01432,0.023214,4.8947e-07,0.16,0.18,0
0.0077523,0.004812,0.028914,0.0038249,0.0098216,0.0031752,0,0,0.04964,-0.015591,0,0.016511,0,0,0,0.029309,0.0034293,0.0098216,7.102,0.014187,0.02335,4.9237e-07,0.17,0.18,0
0.0082499,0.005032,0.028909,0.0035345,0.0097329,0.0029399,0,0,0.049857,-0.016116,0,0.015287,0,0,0,0.029245,0.0031983,0.0097329,6.5233,0.014059,0.023472,4.9466e-07,0.18,0.18,0
0.0087494,0.0052426,0.028895,0.0032653,0.009648,0.0027114,0,0,0.050042,-0.016595,0,0.014099,0,0,0,0.029178,0.0029815,0.009648,5.9734,0.013936,0.023581,4.9644e-07,0.19,0.18,0
0.0092507,0.0054437,0.028874,0.0030159,0.0095669,0.0024908,0,0,0.050198,-0.017033,0,0.012952,0,0,0,0.029112,0.0027781,0.0095669,5.4523,0.013819,0.023681,4.9778e-07,0.2,0.18,0
0.0097534,0.0056357,0.028847,0.0027849,0.0094896,0.0022789,0,0,0.05033,-0.017432,0,0.01185,0,0,0,0.029045,0.0025871,0.0094896,4.9598,0.013707,0.023771,4.9877e-07,0.21,0.18,0
0.010257,0.0058185,0.028816,0.0025709,0.009416,0.0020762,0,0,0.050439,-0.017797,0,0.010796,0,0,0,0.028979,0.0024077,0.009416,4.4952,0.013601,0.023852,4.9946e-07,0.22,0.18,0
0.010762,0.0059923,0.028781,0.0023728,0.0093461,0.0018829,0,0,0.05053,-0.018131,0,0.0097913,0,0,0,0.028914,0.0022392,0.0093461,4.0579,0.0135,0.023927,4.9992e-07,0.23,0.18,0
0.011268,0.0061575,0.028743,0.0021892,0.0092797,0.0016994,0,0,0.050605,-0.018435,0,0.0088371,0,0,0,0.028852,0.0020809,0.0092797,3.647,0.013404,0.023995,5.002e-07,0.24,0.18,0
0.011774,0.0063142,0.028704,0.002019,0.0092169,0.0015257,0,0,0.050666,-0.018714,0,0.0079335,0,0,0,0.028791,0.0019321,0.0092169,3.2617,0.013313,0.024058,5.0032e-07,0.25,0.18,0
0.012281,0.0064626,0.028663,0.0018612,0.0091573,0.0013616,0,0,0.050715,-0.01897,0,0.0070804,0,0,0,0.028732,0.0017922,0.0091573,2.9008,0.013227,0.024116,5.0033e-07,0.26,0.18,0
0.012789,0.0066031,0.028622,0.0017146,0.009101,0.0012071,0,0,0.050755,-0.019205,0,0.0062768,0,0,0,0.028676,0.0016606,0.009101,2.5634,0.013146,0.02417,5.0025e-07,0.27,0.18,0
0.013296,0.0067359,0.028581,0.0015786,0.0090478,0.0010619,0,0,0.050786,-0.01942,0,0.0055217,0,0,0,0.028623,0.0015369,0.0090478,2.2485,0.013069,0.02422,5.0011e-07,0.28,0.18,0
0.013804,0.0068613,0.02854,0.0014521,0.0089977,0.00092571,0,0,0.05081,-0.019618,0,0.0048137,0,0,0,0.028572,0.0014205,0.0089977,1.955,0.012997,0.024267,4.9992e-07,0.29,0.18,0
0.014313,0.0069796,0.0285,0.0013345,0.0089504,0.00079832,0,0,0.050829,-0.019801,0,0.0041513,0,0,0,0.028523,0.0013111,0.0089504,1.6818,0.012928,0.02431,4.997e-07,0.3,0.18,0
0.014821,0.007091,0.028461,0.0012251,0.0089058,0.00067937,0,0,0.050843,-0.01997,0,0.0035327,0,0,0,0.028478,0.0012082,0.0089058,1.428,0.012864,0.024351,4.9946e-07,0.31,0.18,0
0.015329,0.0071959,0.028423,0.0011232,0.0088639,0.00056852,0,0,0.050854,-0.020126,0,0.0029563,0,0,0,0.028435,0.0011114,0.0088639,1.1925,0.012803,0.02439,4.9922e-07,0.32,0.18,0
0.015838,0.0072945,0.028387,0.0010284,0.0088245,0.00046543,0,0,0.050861,-0.02027,0,0.0024203,0,0,0,0.028394,0.0010205,0.0088245,0.97437,0.012746,0.024426,4.9897e-07,0.33,0.18,0
0.016347,0.007387,0.028352,0.00093998,0.0087875,0.00036975,0,0,0.050867,-0.020404,0,0.0019227,0,0,0,0.028357,0.00093499,0.0087875,0.77265,0.012693,0.02446,4.9873e-07,0.34,0.18,0
0.016855,0.0074737,0.028318,0.00085758,0.0087528,0.00028111,0,0,0.05087,-0.020528,0,0.0014618,0,0,0,0.028321,0.0008547,0.0087528,0.58645,0.012643,0.024492,4.985e-07,0.35,0.18,0
0.017364,0.007555,0.028287,0.00078075,0.0087202,0.00019919,0,0,0.050873,-0.020643,0,0.0010358,0,0,0,0.028288,0.00077931,0.0087202,0.41489,0.012596,0.024522,4.9828e-07,0.36,0.18,0
0.017873,0.007631,0.028257,0.0007091,0.0086897,0.00012363,0,0,0.050874,-0.02075,0,0.00064288,0,0,0,0.028257,0.00070855,0.0086897,0.25713,0.012552,0.024551,4.9808e-07,0.37,0.18,0
0.018381,0.007702,0.028228,0.00064228,0.0086612,5.4108e-05,0,0,0.050875,-0.020849,0,0.00028136,0,0,0,0.028229,0.00064217,0.0086612,0.11238,0.012511,0.024578,4.979e-07,0.38,0.18,0
0.01889,0.0077682,0.028202,0.00057995,0.0086345,-9.7026e-06,0,0,0.050875,-0.020942,0,-5.0454e-05,0,0,0,0.028202,0.00057995,0.0086345,-0.020126,0.012472,0.024604,4.9774e-07,0.39,0.18,0
0.019399,0.0078299,0.028177,0.00052182,0.0086097,-6.8114e-05,0,0,0.050875,-0.021028,0,-0.00035419,0,0,0,0.028177,0.00052165,0.0086097,-0.14112,0.012436,0.024629,4.9759e-07,0.4,0.18,0
0.019908,0.0078872,0.028154,0.00046762,0.0085865,-0.00012143,0,0,0.050875,-0.021109,0,-0.00063142,0,0,0,0.028154,0.00046708,0.0085865,-0.25128,0.012403,0.024652,4.9747e-07,0.41,0.18,0
0.020417,0.0079405,0.028132,0.00041707,0.0085648,-0.00016993,0,0,0.050876,-0.021184,0,-0.00088365,0,0,0,0.028133,0.00041603,0.0085648,-0.35128,0.012371,0.024674,4.9736e-07,0.42,0.18,0
0.020925,0.0079899,0.028112,0.00036996,0.0085447,-0.00021391,0,0,0.050876,-0.021254,0,-0.0011123,0,0,0,0.028114,0.00036832,0.0085447,-0.44174,0.012342,0.024695,4.9728e-07,0.43,0.18,0
0.021434,0.0080356,0.028094,0.00032607,0.0085261,-0.00025362,0,0,0.050877,-0.02132,0,-0.0013188,0,0,0,0.028096,0.00032376,0.0085261,-0.52325,0.012315,0.024714,4.9721e-07,0.44,0.18,0
0.021943,0.0080779,0.028077,0.00028519,0.0085087,-0.00028932,0,0,0.050878,-0.021381,0,-0.0015045,0,0,0,0.02808,0.00028218,0.0085087,-0.59638,0.01229,0.024733,4.9716e-07,0.45,0.18,0
0.022452,0.0081168,0.028062,0.00024714,0.0084927,-0.00032126,0,0,0.05088,-0.021438,0,-0.0016705,0,0,0,0.028065,0.00024343,0.0084927,-0.66165,0.012267,0.024751,4.9713e-07,0.46,0.18,0
0.02296,0.0081526,0.028048,0.00021174,0.0084778,-0.00034966,0,0,0.050882,-0.021492,0,-0.0018182,0,0,0,0.028052,0.00020735,0.0084778,-0.71957,0.012246,0.024768,4.9712e-07,0.47,0.18,0
0.023469,0.0081855,0.028035,0.00017883,0.0084641,-0.00037475,0,0,0.050884,-0.021542,0,-0.0019487,0,0,0,0.02804,0.00017379,0.0084641,-0.77062,0.012226,0.024784,4.9712e-07,0.48,0.18,0
0.023978,0.0082157,0.028023,0.00014826,0.0084514,-0.00039673,0,0,0.050887,-0.021588,0,-0.002063,0,0,0,0.028029,0.00014262,0.0084514,-0.81524,0.012208,0.024799,4.9714e-07,0.49,0.18,0
0.024487,0.0082432,0.028013,0.00011989,0.0084398,-0.00041581,0,0,0.05089,-0.021632,0,-0.0021622,0,0,0,0.028019,0.00011369,0.0084398,-0.85388,0.012191,0.024813,4.9717e-07,0.5,0.18,0
0.024996,0.0082682,0.028004,9.3577e-05,0.0084291,-0.00043217,0,0,0.050893,-0.021672,0,-0.0022473,0,0,0,0.02801,8.6887e-05,0.0084291,-0.88692,0.012175,0.024827,4.9721e-07,0.51,0.18,0
0.025505,0.008291,0.027995,6.9203e-05,0.0084193,-0.000446,0,0,0.050897,-0.02171,0,-0.0023192,0,0,0,0.028002,6.2082e-05,0.0084193,-0.91475,0.012161,0.02484,4.9727e-07,0.52,0.18,0
0.026014,0.0083115,0.027988,4.6648e-05,0.0084104,-0.00045746,0,0,0.050902,-0.021746,0,-0.0023788,0,0,0,0.027995,3.9161e-05,0.0084104,-0.93773,0.012148,0.024852,4.9734e-07,0.53,0.18,0
0.026523,0.0083301,0.027982,2.5802e-05,0.0084022,-0.00046672,0,0,0.050906,-0.021779,0,-0.0024269,0,0,0,0.027989,1.8012e-05,0.0084022,-0.95619,0.012136,0.024863,4.9743e-07,0.54,0.18,0
0.027032,0.0083467,0.027976,6.5584e-06,0.0083948,-0.00047392,0,0,0.050911,-0.021809,0,-0.0024644,0,0,0,0.027984,-1.4695e-06,0.0083948,-0.97046,0.012126,0.024874,4.9752e-07,0.55,0.18,0
0.027541,0.0083616,0.027971,-1.1181e-05,0.0083881,-0.00047922,0,0,0.050917,-0.021838,0,-0.0024919,0,0,0,0.02798,-1.9385e-05,0.0083881,-0.98084,0.012116,0.024884,4.9762e-07,0.56,0.18,0
0.02805,0.0083748,0.027967,-2.7509e-05,0.008382,-0.00048274,0,0,0.050922,-0.021865,0,-0.0025103,0,0,0,0.027976,-3.5831e-05,0.008382,-0.98761,0.012107,0.024894,4.9773e-07,0.57,0.18,0
0.02856,0.0083865,0.027964,-4.2514e-05,0.0083765,-0.00048462,0,0,0.050928,-0.021889,0,-0.00252,0,0,0,0.027973,-5.0898e-05,0.0083765,-0.99103,0.012099,0.024903,4.9784e-07,0.58,0.18,0
0.029069,0.0083967,0.027962,-5.6281e-05,0.0083716,-0.00048498,0,0,0.050934,-0.021913,0,-0.0025219,0,0,0,0.02797,-6.4674e-05,0.0083716,-0.99137,0.012092,0.024912,4.9797e-07,0.59,0.18,0
0.029578,0.0084056,0.02796,-6.8889e-05,0.0083672,-0.00048392,0,0,0.05094,-0.021934,0,-0.0025164,0,0,0,0.027968,-7.7242e-05,0.0083672,-0.98884,0.012086,0.02492,4.981e-07,0.6,0.18,0
0.030088,0.0084133,0.027958,-8.0413e-05,0.0083633,-0.00048157,0,0,0.050947,-0.021954,0,-0.0025042,0,0,0,0.027966,-8.8682e-05,0.0083633,-0.98368,0.01208,0.024928,4.9823e-07,0.61,0.18,0
0.030597,0.0084198,0.027957,-9.0924e-05,0.0083599,-0.00047801,0,0,0.050953,-0.021972,0,-0.0024857,0,0,0,0.027965,-9.9068e-05,0.0083599,-0.97608,0.012075,0.024935,4.9837e-07,0.62,0.18,0
0.031107,0.0084252,0.027957,-0.00010049,0.0083569,-0.00047335,0,0,0.05096,-0.021989,0,-0.0024614,0,0,0,0.027965,-0.00010847,0.0083569,-0.96626,0.012071,0.024942,4.9852e-07,0.63,0.18,0
0.031616,0.0084297,0.027957,-0.00010917,0.0083543,-0.00046767,0,0,0.050966,-0.022005,0,-0.0024319,0,0,0,0.027965,-0.00011696,0.0083543,-0.95438,0.012067,0.024949,4.9866e-07,0.64,0.18,0
0.032126,0.0084333,0.027957,-0.00011704,0.008352,-0.00046105,0,0,0.050973,-0.02202,0,-0.0023975,0,0,0,0.027965,-0.00012461,0.008352,-0.94061,0.012064,0.024955,4.9881e-07,0.65,0.18,0
0.032636,0.0084361,0.027958,-0.00012414,0.0083501,-0.00045358,0,0,0.05098,-0.022033,0,-0.0023586,0,0,0,0.027965,-0.00013146,0.0083501,-0.92513,0.012061,0.024961,4.9896e-07,0.66,0.18,0
0.033146,0.0084381,0.027959,-0.00013053,0.0083485,-0.00044533,0,0,0.050987,-0.022045,0,-0.0023157,0,0,0,0.027966,-0.00013759,0.0083485,-0.90806,0.012059,0.024966,4.9912e-07,0.67,0.18,0
0.033655,0.0084395,0.02796,-0.00013626,0.0083471,-0.00043636,0,0,0.050993,-0.022057,0,-0.0022691,0,0,0,0.027967,-0.00014304,0.0083471,-0.88956,0.012057,0.024972,4.9927e-07,0.68,0.18,0
0.034166,0.0084402,0.027962,-0.00014139,0.008346,-0.00042674,0,0,0.051,-0.022067,0,-0.002219,0,0,0,0.027968,-0.00014787,0.008346,-0.86975,0.012055,0.024977,4.9943e-07,0.69,0.18,0
0.034675,0.0084405,0.027963,-0.00014595,0.0083452,-0.00041652,0,0,0.051007,-0.022077,0,-0.0021659,0,0,0,0.027969,-0.00015212,0.0083452,-0.84876,0.012054,0.024981,4.9958e-07,0.7,0.18,0
0.035186,0.0084402,0.027965,-0.00015,0.0083445,-0.00040577,0,0,0.051014,-0.022086,0,-0.00211,0,0,0,0.027971,-0.00015586,0.0083445,-0.82668,0.012053,0.024986,4.9974e-07,0.71,0.18,0
0.035696,0.0084395,0.027967,-0.00015357,0.0083441,-0.00039453,0,0,0.05102,-0.022094,0,-0.0020515,0,0,0,0.027973,-0.00015911,0.0083441,-0.80363,0.012053,0.02499,4.9989e-07,0.72,0.18,0
0.036206,0.0084384,0.027969,-0.00015671,0.0083438,-0.00038285,0,0,0.051026,-0.022101,0,-0.0019908,0,0,0,0.027974,-0.00016192,0.0083438,-0.77971,0.012052,0.024994,5.0004e-07,0.73,0.18,0
0.036716,0.008437,0.027972,-0.00015944,0.0083436,-0.00037077,0,0,0.051033,-0.022108,0,-0.001928,0,0,0,0.027977,-0.00016433,0.0083436,-0.75499,0.012052,0.024997,5.0019e-07,0.74,0.18,0
0.037227,0.0084353,0.027974,-0.00016181,0.0083436,-0.00035834,0,0,0.051039,-0.022114,0,-0.0018634,0,0,0,0.027978,-0.00016638,0.0083436,-0.72956,0.012052,0.025001,5.0034e-07,0.75,0.18,0
0.037737,0.0084333,0.027976,-0.00016385,0.0083438,-0.00034559,0,0,0.051045,-0.02212,0,-0.0017971,0,0,0,0.027981,-0.0001681,0.0083438,-0.7035,0.012052,0.025004,5.0049e-07,0.76,0.18,0
0.038248,0.0084312,0.027979,-0.00016559,0.008344,-0.00033255,0,0,0.051051,-0.022125,0,-0.0017293,0,0,0,0.027983,-0.00016952,0.008344,-0.67688,0.012052,0.025007,5.0063e-07,0.77,0.18,0
0.038758,0.0084288,0.027981,-0.00016706,0.0083443,-0.00031927,0,0,0.051056,-0.022129,0,-0.0016602,0,0,0,0.027985,-0.00017069,0.0083443,-0.64975,0.012053,0.02501,5.0077e-07,0.78,0.18,0
0.039269,0.0084264,0.027984,-0.00016829,0.0083447,-0.00030575,0,0,0.051062,-0.022134,0,-0.0015899,0,0,0,0.027987,-0.00017161,0.0083447,-0.62218,0.012053,0.025013,5.009e-07,0.79,0.18,0
0.039779,0.0084239,0.027986,-0.0001693,0.0083451,-0.00029204,0,0,0.051067,-0.022137,0,-0.0015186,0,0,0,0.027989,-0.00017233,0.0083451,-0.59421,0.012054,0.025015,5.0103e-07,0.8,0.18,0
0.04029,0.0084213,0.027989,-0.00017012,0.0083456,-0.00027816,0,0,0.051072,-0.022141,0,-0.0014464,0,0,0,0.027991,-0.00017287,0.0083456,-0.5659,0.012055,0.025018,5.0116e-07,0.81,0.18,0
0.040801,0.0084186,0.027991,-0.00017077,0.0083461,-0.00026412,0,0,0.051077,-0.022144,0,-0.0013734,0,0,0,0.027994,-0.00017324,0.0083461,-0.53729,0.012056,0.02502,5.0128e-07,0.82,0.18,0
0.041312,0.008416,0.027994,-0.00017127,0.0083467,-0.00024995,0,0,0.051082,-0.022147,0,-0.0012997,0,0,0,0.027996,-0.00017348,0.0083467,-0.50842,0.012056,0.025022,5.014e-07,0.83,0.18,0
0.041822,0.0084134,0.027996,-0.00017164,0.0083472,-0.00023566,0,0,0.051086,-0.022149,0,-0.0012254,0,0,0,0.027998,-0.00017361,0.0083472,-0.47932,0.012057,0.025024,5.0151e-07,0.84,0.18,0
0.042333,0.0084108,0.027998,-0.0001719,0.0083478,-0.00022127,0,0,0.05109,-0.022151,0,-0.0011506,0,0,0,0.028,-0.00017363,0.0083478,-0.45002,0.012058,0.025025,5.0161e-07,0.85,0.18,0
0.042844,0.0084084,0.028,-0.00017206,0.0083484,-0.0002068,0,0,0.051094,-0.022153,0,-0.0010754,0,0,0,0.028002,-0.00017358,0.0083484,-0.42056,0.012059,0.025027,5.0171e-07,0.86,0.18,0
0.043355,0.0084059,0.028002,-0.00017215,0.008349,-0.00019225,0,0,0.051098,-0.022155,0,-0.00099972,0,0,0,0.028003,-0.00017347,0.008349,-0.39095,0.01206,0.025029,5.0181e-07,0.87,0.18,0
0.043866,0.0084036,0.028004,-0.00017218,0.0083495,-0.00017764,0,0,0.051101,-0.022156,0,-0.00092375,0,0,0,0.028005,-0.0001733,0.0083495,-0.36122,0.01206,0.02503,5.0189e-07,0.88,0.18,0
0.044377,0.0084015,0.028006,-0.00017216,0.0083501,-0.00016298,0,0,0.051105,-0.022158,0,-0.00084751,0,0,0,0.028007,-0.0001731,0.0083501,-0.33139,0.012061,0.025031,5.0197e-07,0.89,0.18,0
0.044888,0.0083994,0.028007,-0.0001721,0.0083506,-0.00014828,0,0,0.051108,-0.022159,0,-0.00077103,0,0,0,0.028008,-0.00017288,0.0083506,-0.30147,0.012062,0.025032,5.0205e-07,0.9,0.18,0
0.045399,0.0083976,0.028009,-0.00017201,0.008351,-0.00013353,0,0,0.05111,-0.02216,0,-0.00069436,0,0,0,0.028009,-0.00017264,0.008351,-0.27148,0.012063,0.025033,5.0212e-07,0.91,0.18,0
0.04591,0.0083958,0.02801,-0.00017191,0.0083515,-0.00011876,0,0,0.051113,-0.022161,0,-0.00061754,0,0,0,0.028011,-0.00017241,0.0083515,-0.24144,0.012063,0.025034,5.0218e-07,0.92,0.18,0
0.046422,0.0083943,0.028011,-0.0001718,0.0083519,-0.00010396,0,0,0.051115,-0.022162,0,-0.00054058,0,0,0,0.028012,-0.00017218,0.0083519,-0.21134,0.012064,0.025035,5.0223e-07,0.93,0.18,0
0.046933,0.0083929,0.028012,-0.00017169,0.0083522,-8.914e-05,0,0,0.051117,-0.022162,0,-0.00046353,0,0,0,0.028013,-0.00017197,0.0083522,-0.18121,0.012064,0.025036,5.0228e-07,0.94,0.18,0
0.047444,0.0083918,0.028013,-0.00017158,0.0083525,-7.4305e-05,0,0,0.051118,-0.022163,0,-0.00038638,0,0,0,0.028014,-0.00017177,0.0083525,-0.15105,0.012065,0.025036,5.0232e-07,0.95,0.18,0
0.047955,0.0083908,0.028014,-0.00017149,0.0083528,-5.9457e-05,0,0,0.051119,-0.022163,0,-0.00030918,0,0,0,0.028014,-0.00017161,0.0083528,-0.12087,0.012065,0.025037,5.0235e-07,0.96,0.18,0
0.048466,0.0083901,0.028015,-0.00017141,0.008353,-4.4601e-05,0,0,0.05112,-0.022163,0,-0.00023192,0,0,0,0.028015,-0.00017148,0.008353,-0.090663,0.012065,0.025037,5.0238e-07,0.97,0.18,0
0.048978,0.0083895,0.028015,-0.00017135,0.0083531,-2.9737e-05,0,0,0.051121,-0.022164,0,-0.00015463,0,0,0,0.028015,-0.00017138,0.0083531,-0.060448,0.012066,0.025037,5.024e-07,0.98,0.18,0
0.049489,0.0083892,0.028015,-0.00017132,0.0083532,-1.487e-05,0,0,0.051122,-0.022164,0,-7.7323e-05,0,0,0,0.028015,-0.00017132,0.0083532,-0.030226,0.012066,0.025038,5.0241e-07,0.99,0.18,0
0.05,0.0083891,0.028015,-0.0001713,0.0083532,-2.0901e-06,0,0,0.051122,-0.022164,0,-1.0868e-05,0,0,0,0.028015,-0.0001713,0.0083532,-0.0042485,0.012066,0.025038,5.0241e-07,1,0.18,0
0,0,0.027068,0.011601,0.011601,0.0056153,0,0,0.040216,2.7105e-19,0,0.029199,0,0,0,0.028892,0.0097773,0.011601,17.991,0.016757,0.018271,3.0279e-07,0,0.19,0
0.00040216,0.00029199,0.027028,0.011084,0.011434,0.0056112,0,0,0.040546,-0.00090881,0,0.029178,0,0,0,0.028805,0.0093074,0.011434,17.57,0.016515,0.018526,3.1211e-07,0.01,0.19,0
0.00081091,0.00058655,0.027204,0.010634,0.011351,0.0056171,0,0,0.041217,-0.0018659,0,0.029209,0,0,0,0.028928,0.0089089,0.011351,17.068,0.016396,0.018917,3.2822e-07,0.02,0.19,0
0.0012265,0.00088278,0.027381,0.010162,0.011263,0.0055981,0,0,0.041907,-0.0028618,0,0.02911,0,0,0,0.029041,0.0085022,0.011263,16.517,0.016269,0.019307,3.4429e-07,0.03,0.19,0
0.001649,0.0011797,0.027557,0.0096754,0.01117,0.0055525,0,0,0.042608,-0.0038854,0,0.028873,0,0,0,0.029141,0.0080916,0.01117,15.921,0.016134,0.019692,3.6008e-07,0.04,0.19,0
0.0020786,0.0014762,0.02773,0.0091787,0.011073,0.0054794,0,0,0.043309,-0.0049242,0,0.028493,0,0,0,0.029228,0.0076812,0.011073,15.286,0.015994,0.020067,3.7536e-07,0.05,0.19,0
0.0025152,0.0017713,0.027896,0.0086779,0.010972,0.005379,0,0,0.044002,-0.0059651,0,0.027971,0,0,0,0.029299,0.0072748,0.010972,14.62,0.015849,0.020428,3.8993e-07,0.06,0.19,0
0.0029587,0.0020638,0.028053,0.0081787,0.010869,0.0052525,0,0,0.044677,-0.0069959,0,0.027313,0,0,0,0.029355,0.0068759,0.010869,13.93,0.0157,0.020773,4.0361e-07,0.07,0.19,0
0.0034088,0.0023527,0.028198,0.0076863,0.010765,0.005102,0,0,0.045325,-0.0080053,0,0.02653,0,0,0,0.029397,0.0064873,0.010765,13.225,0.01555,0.021098,4.163e-07,0.08,0.19,0
0.0038652,0.002637,0.02833,0.0072053,0.01066,0.00493,0,0,0.04594,-0.0089835,0,0.025636,0,0,0,0.029423,0.0061113,0.01066,12.511,0.015398,0.021403,4.2789e-07,0.09,0.19,0
0.0043276,0.0029157,0.028447,0.0067394,0.010556,0.0047399,0,0,0.046516,-0.0099226,0,0.024647,0,0,0,0.029436,0.0057496,0.010556,11.796,0.015247,0.021687,4.3837e-07,0.1,0.19,0
0.0047955,0.0031881,0.028548,0.0062917,0.010452,0.0045348,0,0,0.047051,-0.010817,0,0.023581,0,0,0,0.029437,0.0054032,0.010452,11.085,0.015097,0.021949,4.4774e-07,0.11,0.19,0
0.0052686,0.0034535,0.028635,0.0058642,0.01035,0.0043183,0,0,0.047541,-0.011662,0,0.022455,0,0,0,0.029426,0.0050728,0.01035,10.386,0.014949,0.02219,4.5601e-07,0.12,0.19,0
0.0057463,0.0037113,0.028706,0.0054583,0.010249,0.0040935,0,0,0.047987,-0.012456,0,0.021286,0,0,0,0.029405,0.0047586,0.010249,9.7004,0.014804,0.022412,4.6327e-07,0.13,0.19,0
0.0062283,0.003961,0.028762,0.0050748,0.010151,0.0038636,0,0,0.048388,-0.013198,0,0.020091,0,0,0,0.029376,0.0044605,0.010151,9.0337,0.014663,0.022614,4.6956e-07,0.14,0.19,0
0.0067141,0.0042022,0.028805,0.0047139,0.010056,0.0036314,0,0,0.048748,-0.013888,0,0.018883,0,0,0,0.02934,0.0041784,0.010056,8.3884,0.014525,0.022799,4.7499e-07,0.15,0.19,0
0.0072033,0.0044348,0.028835,0.0043752,0.009963,0.0033993,0,0,0.049067,-0.014528,0,0.017676,0,0,0,0.029298,0.0039116,0.009963,7.7667,0.014391,0.022967,4.7963e-07,0.16,0.19,0
0.0076954,0.0046584,0.028854,0.0040583,0.0098736,0.0031694,0,0,0.049348,-0.01512,0,0.016481,0,0,0,0.029252,0.0036596,0.0098736,7.1701,0.014262,0.023121,4.8357e-07,0.17,0.19,0
0.0081902,0.0048731,0.028862,0.0037623,0.0097874,0.0029434,0,0,0.049594,-0.015665,0,0.015306,0,0,0,0.029203,0.0034218,0.0097874,6.5998,0.014137,0.023261,4.869e-07,0.18,0.19,0
0.0086873,0.0050788,0.028862,0.0034863,0.0097045,0.002723,0,0,0.04981,-0.016167,0,0.014159,0,0,0,0.029151,0.0031974,0.0097045,6.0563,0.014018,0.023389,4.8969e-07,0.19,0.19,0
0.0091864,0.0052755,0.028854,0.0032291,0.009625,0.002509,0,0,0.049996,-0.016629,0,0.013047,0,0,0,0.029098,0.0029858,0.009625,5.5399,0.013903,0.023506,4.9202e-07,0.2,0.19,0
0.0096872,0.0054632,0.02884,0.0029897,0.009549,0.0023026,0,0,0.050157,-0.017054,0,0.011973,0,0,0,0.029044,0.0027862,0.009549,5.0505,0.013793,0.023614,4.9395e-07,0.21,0.19,0
0.01019,0.0056422,0.028821,0.0027668,0.0094763,0.0021042,0,0,0.050295,-0.017445,0,0.010942,0,0,0,0.02899,0.002598,0.0094763,4.5878,0.013688,0.023713,4.9554e-07,0.22,0.19,0
0.010693,0.0058126,0.028797,0.0025595,0.0094069,0.0019144,0,0,0.050414,-0.017803,0,0.0099549,0,0,0,0.028936,0.0024205,0.0094069,4.1513,0.013588,0.023804,4.9685e-07,0.23,0.19,0
0.011198,0.0059746,0.02877,0.0023665,0.0093408,0.0017335,0,0,0.050515,-0.018133,0,0.009014,0,0,0,0.028883,0.0022532,0.0093408,3.7403,0.013492,0.023888,4.9791e-07,0.24,0.19,0
0.011703,0.0061284,0.02874,0.0021869,0.009278,0.0015615,0,0,0.050601,-0.018437,0,0.00812,0,0,0,0.028831,0.0020954,0.009278,3.3541,0.013402,0.023966,4.9878e-07,0.25,0.19,0
0.01221,0.0062742,0.028708,0.0020197,0.0092183,0.0013986,0,0,0.050673,-0.018716,0,0.0072729,0,0,0,0.028781,0.0019466,0.0092183,2.9918,0.013315,0.024038,4.9947e-07,0.26,0.19,0
0.012717,0.0064122,0.028675,0.001864,0.0091616,0.0012447,0,0,0.050734,-0.018974,0,0.0064726,0,0,0,0.028732,0.0018063,0.0091616,2.6524,0.013233,0.024105,5.0002e-07,0.27,0.19,0
0.013225,0.0065427,0.028641,0.0017189,0.0091079,0.0010997,0,0,0.050785,-0.019211,0,0.0057184,0,0,0,0.028686,0.0016741,0.0091079,2.3352,0.013156,0.024168,5.0046e-07,0.28,0.19,0
0.013733,0.0066661,0.028606,0.0015837,0.009057,0.00096331,0,0,0.050828,-0.019431,0,0.0050092,0,0,0,0.028641,0.0015494,0.009057,2.039,0.013082,0.024226,5.008e-07,0.29,0.19,0
0.014241,0.0067824,0.028572,0.0014577,0.0090089,0.00083537,0,0,0.050864,-0.019633,0,0.0043439,0,0,0,0.028598,0.001432,0.0090089,1.763,0.013013,0.024281,5.0106e-07,0.3,0.19,0
0.01475,0.0068921,0.028538,0.0013401,0.0089634,0.00071561,0,0,0.050894,-0.019821,0,0.0037212,0,0,0,0.028557,0.0013213,0.0089634,1.5061,0.012947,0.024332,5.0126e-07,0.31,0.19,0
0.015259,0.0069953,0.028504,0.0012304,0.0089204,0.00060375,0,0,0.050918,-0.019994,0,0.0031395,0,0,0,0.028518,0.0012171,0.0089204,1.2675,0.012885,0.024379,5.0141e-07,0.32,0.19,0
0.015768,0.0070923,0.028472,0.0011281,0.0088799,0.00049947,0,0,0.050938,-0.020155,0,0.0025973,0,0,0,0.028481,0.001119,0.0088799,1.0461,0.012827,0.024424,5.0152e-07,0.33,0.19,0
0.016278,0.0071834,0.02844,0.0010325,0.0088417,0.00040247,0,0,0.050955,-0.020304,0,0.0020929,0,0,0,0.028446,0.0010266,0.0088417,0.84114,0.012771,0.024466,5.0159e-07,0.34,0.19,0
0.016787,0.0072689,0.028409,0.00094329,0.0088057,0.00031244,0,0,0.050969,-0.020442,0,0.0016247,0,0,0,0.028413,0.00093974,0.0088057,0.65165,0.012719,0.024506,5.0164e-07,0.35,0.19,0
0.017297,0.0073489,0.02838,0.00085997,0.0087719,0.00022904,0,0,0.05098,-0.020571,0,0.001191,0,0,0,0.028382,0.00085806,0.0087719,0.47682,0.01267,0.024543,5.0167e-07,0.36,0.19,0
0.017807,0.0074237,0.028351,0.00078215,0.0087401,0.00015197,0,0,0.05099,-0.020691,0,0.00079026,0,0,0,0.028352,0.00078131,0.0087401,0.31583,0.012625,0.024578,5.0168e-07,0.37,0.19,0
0.018317,0.0074937,0.028324,0.00070947,0.0087102,8.0918e-05,0,0,0.050997,-0.020802,0,0.00042077,0,0,0,0.028325,0.00070924,0.0087102,0.16789,0.012581,0.024611,5.0168e-07,0.38,0.19,0
0.018827,0.0075589,0.028299,0.00064161,0.0086821,1.5568e-05,0,0,0.051003,-0.020905,0,8.0956e-05,0,0,0,0.028299,0.0006416,0.0086821,0.032252,0.012541,0.024641,5.0168e-07,0.39,0.19,0
0.019337,0.0076197,0.028275,0.00057824,0.0086558,-4.4372e-05,0,0,0.051009,-0.021002,0,-0.00023074,0,0,0,0.028275,0.00057816,0.0086558,-0.091793,0.012503,0.02467,5.0166e-07,0.4,0.19,0
0.019847,0.0076762,0.028252,0.00051908,0.0086312,-9.9195e-05,0,0,0.051013,-0.021092,0,-0.00051581,0,0,0,0.028252,0.00051872,0.0086312,-0.20493,0.012467,0.024697,5.0165e-07,0.41,0.19,0
0.020357,0.0077287,0.02823,0.00046386,0.0086082,-0.00014918,0,0,0.051017,-0.021175,0,-0.00077574,0,0,0,0.028231,0.00046306,0.0086082,-0.30782,0.012434,0.024723,5.0164e-07,0.42,0.19,0
0.020867,0.0077774,0.02821,0.00041235,0.0085867,-0.0001946,0,0,0.05102,-0.021253,0,-0.0010119,0,0,0,0.028211,0.00041099,0.0085867,-0.40108,0.012403,0.024747,5.0162e-07,0.43,0.19,0
0.021378,0.0078224,0.028191,0.00036431,0.0085666,-0.00023571,0,0,0.051023,-0.021326,0,-0.0012257,0,0,0,0.028193,0.00036231,0.0085666,-0.48529,0.012374,0.024769,5.0161e-07,0.44,0.19,0
0.021888,0.007864,0.028173,0.00031953,0.0085478,-0.00027276,0,0,0.051026,-0.021394,0,-0.0014184,0,0,0,0.028176,0.00031686,0.0085478,-0.56101,0.012347,0.024791,5.016e-07,0.45,0.19,0
0.022398,0.0079023,0.028157,0.00027781,0.0085304,-0.000306,0,0,0.051029,-0.021457,0,-0.0015912,0,0,0,0.02816,0.00027445,0.0085304,-0.62878,0.012322,0.02481,5.0159e-07,0.46,0.19,0
0.022908,0.0079376,0.028142,0.00023897,0.0085142,-0.00033565,0,0,0.051031,-0.021515,0,-0.0017454,0,0,0,0.028146,0.00023493,0.0085142,-0.6891,0.012298,0.024829,5.0159e-07,0.47,0.19,0
0.023419,0.00797,0.028127,0.00020284,0.0084991,-0.00036194,0,0,0.051034,-0.02157,0,-0.0018821,0,0,0,0.028132,0.00019815,0.0084991,-0.74245,0.012276,0.024846,5.0158e-07,0.48,0.19,0
0.023929,0.0079996,0.028115,0.00016924,0.0084851,-0.00038506,0,0,0.051036,-0.021621,0,-0.0020023,0,0,0,0.02812,0.00016394,0.0084851,-0.78928,0.012256,0.024863,5.0159e-07,0.49,0.19,0
0.024439,0.0080266,0.028103,0.00013804,0.0084722,-0.00040522,0,0,0.051039,-0.021669,0,-0.0021071,0,0,0,0.028109,0.00013217,0.0084722,-0.83001,0.012238,0.024878,5.016e-07,0.5,0.19,0
0.02495,0.0080513,0.028092,0.00010908,0.0084602,-0.00042261,0,0,0.051042,-0.021713,0,-0.0021976,0,0,0,0.028098,0.0001027,0.0084602,-0.86506,0.01222,0.024892,5.0161e-07,0.51,0.19,0
0.02546,0.0080736,0.028082,8.2238e-05,0.0084492,-0.00043741,0,0,0.051045,-0.021754,0,-0.0022745,0,0,0,0.028088,7.5406e-05,0.0084492,-0.89479,0.012204,0.024905,5.0163e-07,0.52,0.19,0
0.025971,0.0080938,0.028073,5.7378e-05,0.008439,-0.00044979,0,0,0.051048,-0.021792,0,-0.0023389,0,0,0,0.02808,5.0158e-05,0.008439,-0.91958,0.01219,0.024918,5.0165e-07,0.53,0.19,0
0.026481,0.008112,0.028064,3.4383e-05,0.0084297,-0.00045991,0,0,0.05105,-0.021828,0,-0.0023915,0,0,0,0.028072,2.6839e-05,0.0084297,-0.93976,0.012176,0.02493,5.0167e-07,0.54,0.19,0
0.026992,0.0081284,0.028057,1.3139e-05,0.0084211,-0.00046793,0,0,0.051054,-0.021861,0,-0.0024332,0,0,0,0.028065,5.3338e-06,0.0084211,-0.95565,0.012164,0.02494,5.0171e-07,0.55,0.19,0
0.027502,0.0081429,0.02805,-6.4594e-06,0.0084132,-0.00047398,0,0,0.051057,-0.021891,0,-0.0024647,0,0,0,0.028058,-1.4464e-05,0.0084132,-0.96756,0.012152,0.02495,5.0174e-07,0.56,0.19,0
0.028013,0.0081559,0.028044,-2.4515e-05,0.008406,-0.00047821,0,0,0.05106,-0.021919,0,-0.0024867,0,0,0,0.028053,-3.266e-05,0.008406,-0.97577,0.012142,0.02496,5.0178e-07,0.57,0.19,0
0.028524,0.0081673,0.028039,-4.1123e-05,0.0083995,-0.00048076,0,0,0.051064,-0.021945,0,-0.0024999,0,0,0,0.028047,-4.9351e-05,0.0083995,-0.98056,0.012132,0.024969,5.0182e-07,0.58,0.19,0
0.029034,0.0081773,0.028035,-5.6374e-05,0.0083935,-0.00048173,0,0,0.051067,-0.02197,0,-0.002505,0,0,0,0.028043,-6.4632e-05,0.0083935,-0.98217,0.012124,0.024977,5.0187e-07,0.59,0.19,0
0.029545,0.008186,0.028031,-7.0355e-05,0.0083881,-0.00048124,0,0,0.051071,-0.021992,0,-0.0025025,0,0,0,0.028039,-7.8594e-05,0.0083881,-0.98084,0.012116,0.024984,5.0192e-07,0.6,0.19,0
0.030056,0.0081934,0.028027,-8.3147e-05,0.0083832,-0.00047942,0,0,0.051075,-0.022013,0,-0.002493,0,0,0,0.028036,-9.1321e-05,0.0083832,-0.97679,0.012109,0.024991,5.0197e-07,0.61,0.19,0
0.030566,0.0081997,0.028024,-9.4827e-05,0.0083789,-0.00047635,0,0,0.051078,-0.022032,0,-0.002477,0,0,0,0.028032,-0.00010289,0.0083789,-0.97024,0.012103,0.024998,5.0203e-07,0.62,0.19,0
0.031077,0.008205,0.028022,-0.00010547,0.0083749,-0.00047213,0,0,0.051082,-0.022049,0,-0.0024551,0,0,0,0.02803,-0.00011339,0.0083749,-0.96138,0.012097,0.025004,5.0209e-07,0.63,0.19,0
0.031588,0.0082094,0.02802,-0.00011514,0.0083714,-0.00046686,0,0,0.051086,-0.022065,0,-0.0024277,0,0,0,0.028028,-0.00012289,0.0083714,-0.95039,0.012092,0.02501,5.0215e-07,0.64,0.19,0
0.032099,0.0082128,0.028018,-0.00012392,0.0083683,-0.00046062,0,0,0.05109,-0.02208,0,-0.0023952,0,0,0,0.028026,-0.00013146,0.0083683,-0.93746,0.012087,0.025015,5.0222e-07,0.65,0.19,0
0.03261,0.0082154,0.028017,-0.00013185,0.0083655,-0.00045349,0,0,0.051094,-0.022093,0,-0.0023581,0,0,0,0.028024,-0.00013916,0.0083655,-0.92273,0.012084,0.02502,5.0228e-07,0.66,0.19,0
0.033121,0.0082174,0.028016,-0.00013901,0.0083631,-0.00044554,0,0,0.051098,-0.022106,0,-0.0023168,0,0,0,0.028023,-0.00014605,0.0083631,-0.90637,0.01208,0.025024,5.0235e-07,0.67,0.19,0
0.033632,0.0082186,0.028015,-0.00014544,0.008361,-0.00043684,0,0,0.051102,-0.022117,0,-0.0022716,0,0,0,0.028022,-0.00015221,0.008361,-0.88851,0.012077,0.025028,5.0242e-07,0.68,0.19,0
0.034143,0.0082193,0.028015,-0.0001512,0.0083592,-0.00042747,0,0,0.051105,-0.022127,0,-0.0022228,0,0,0,0.028022,-0.00015768,0.0083592,-0.86928,0.012074,0.025032,5.0249e-07,0.69,0.19,0
0.034654,0.0082194,0.028015,-0.00015634,0.0083576,-0.00041747,0,0,0.051109,-0.022136,0,-0.0021708,0,0,0,0.028021,-0.00016253,0.0083576,-0.84881,0.012072,0.025036,5.0256e-07,0.7,0.19,0
0.035165,0.008219,0.028015,-0.00016091,0.0083563,-0.0004069,0,0,0.051113,-0.022145,0,-0.0021159,0,0,0,0.028021,-0.00016679,0.0083563,-0.8272,0.01207,0.025039,5.0263e-07,0.71,0.19,0
0.035676,0.0082182,0.028016,-0.00016496,0.0083552,-0.00039583,0,0,0.051117,-0.022152,0,-0.0020583,0,0,0,0.028021,-0.00017051,0.0083552,-0.80457,0.012069,0.025042,5.0271e-07,0.72,0.19,0
0.036187,0.0082171,0.028016,-0.00016852,0.0083543,-0.00038429,0,0,0.051121,-0.022159,0,-0.0019983,0,0,0,0.028021,-0.00017376,0.0083543,-0.78101,0.012067,0.025045,5.0278e-07,0.73,0.19,0
0.036699,0.0082156,0.028017,-0.00017164,0.0083536,-0.00037233,0,0,0.051125,-0.022166,0,-0.0019361,0,0,0,0.028022,-0.00017656,0.0083536,-0.75662,0.012066,0.025047,5.0285e-07,0.74,0.19,0
0.03721,0.0082138,0.028018,-0.00017436,0.008353,-0.00035999,0,0,0.051128,-0.022171,0,-0.001872,0,0,0,0.028022,-0.00017895,0.008353,-0.73147,0.012065,0.02505,5.0293e-07,0.75,0.19,0
0.037721,0.0082118,0.028019,-0.00017671,0.0083526,-0.00034732,0,0,0.051132,-0.022176,0,-0.0018061,0,0,0,0.028023,-0.00018098,0.0083526,-0.70565,0.012065,0.025052,5.03e-07,0.76,0.19,0
0.038233,0.0082096,0.02802,-0.00017872,0.0083523,-0.00033434,0,0,0.051135,-0.022181,0,-0.0017386,0,0,0,0.028024,-0.00018269,0.0083523,-0.67922,0.012064,0.025054,5.0307e-07,0.77,0.19,0
0.038744,0.0082073,0.028021,-0.00018044,0.0083521,-0.00032109,0,0,0.051139,-0.022185,0,-0.0016697,0,0,0,0.028024,-0.0001841,0.0083521,-0.65225,0.012064,0.025056,5.0314e-07,0.78,0.19,0
0.039255,0.0082048,0.028022,-0.00018188,0.008352,-0.0003076,0,0,0.051142,-0.022188,0,-0.0015995,0,0,0,0.028025,-0.00018524,0.008352,-0.62479,0.012064,0.025057,5.0321e-07,0.79,0.19,0
0.039767,0.0082022,0.028023,-0.00018309,0.008352,-0.0002939,0,0,0.051145,-0.022191,0,-0.0015283,0,0,0,0.028026,-0.00018615,0.008352,-0.59692,0.012064,0.025059,5.0327e-07,0.8,0.19,0
0.040278,0.0081996,0.028024,-0.00018407,0.0083521,-0.00028001,0,0,0.051148,-0.022194,0,-0.001456,0,0,0,0.028027,-0.00018685,0.0083521,-0.56866,0.012064,0.02506,5.0334e-07,0.81,0.19,0
0.04079,0.0081969,0.028026,-0.00018487,0.0083522,-0.00026595,0,0,0.051151,-0.022197,0,-0.0013829,0,0,0,0.028028,-0.00018738,0.0083522,-0.54007,0.012064,0.025062,5.034e-07,0.82,0.19,0
0.041301,0.0081943,0.028027,-0.0001855,0.0083524,-0.00025174,0,0,0.051154,-0.022199,0,-0.001309,0,0,0,0.028029,-0.00018775,0.0083524,-0.5112,0.012065,0.025063,5.0346e-07,0.83,0.19,0
0.041813,0.0081917,0.028028,-0.00018598,0.0083526,-0.00023741,0,0,0.051156,-0.0222,0,-0.0012345,0,0,0,0.02803,-0.00018798,0.0083526,-0.48207,0.012065,0.025064,5.0352e-07,0.84,0.19,0
0.042324,0.0081891,0.028029,-0.00018634,0.0083529,-0.00022296,0,0,0.051159,-0.022202,0,-0.0011594,0,0,0,0.028031,-0.0001881,0.0083529,-0.45271,0.012065,0.025065,5.0357e-07,0.85,0.19,0
0.042836,0.0081866,0.028031,-0.00018659,0.0083532,-0.00020842,0,0,0.051161,-0.022203,0,-0.0010838,0,0,0,0.028032,-0.00018813,0.0083532,-0.42317,0.012066,0.025066,5.0363e-07,0.86,0.19,0
0.043347,0.0081841,0.028032,-0.00018676,0.0083535,-0.00019379,0,0,0.051163,-0.022205,0,-0.0010077,0,0,0,0.028033,-0.00018809,0.0083535,-0.39346,0.012066,0.025067,5.0368e-07,0.87,0.19,0
0.043859,0.0081818,0.028033,-0.00018684,0.0083538,-0.0001791,0,0,0.051165,-0.022206,0,-0.00093131,0,0,0,0.028034,-0.00018798,0.0083538,-0.36361,0.012067,0.025067,5.0372e-07,0.88,0.19,0
0.044371,0.0081797,0.028034,-0.00018687,0.0083541,-0.00016434,0,0,0.051167,-0.022207,0,-0.00085457,0,0,0,0.028035,-0.00018783,0.0083541,-0.33364,0.012067,0.025068,5.0377e-07,0.89,0.19,0
0.044882,0.0081776,0.028035,-0.00018686,0.0083544,-0.00014953,0,0,0.051169,-0.022207,0,-0.00077757,0,0,0,0.028036,-0.00018765,0.0083544,-0.30357,0.012068,0.025069,5.0381e-07,0.9,0.19,0
0.045394,0.0081757,0.028036,-0.00018681,0.0083547,-0.00013468,0,0,0.051171,-0.022208,0,-0.00070034,0,0,0,0.028036,-0.00018745,0.0083547,-0.27341,0.012068,0.025069,5.0384e-07,0.91,0.19,0
0.045906,0.008174,0.028037,-0.00018673,0.0083549,-0.00011979,0,0,0.051172,-0.022208,0,-0.00062293,0,0,0,0.028037,-0.00018724,0.0083549,-0.24319,0.012068,0.02507,5.0388e-07,0.92,0.19,0
0.046418,0.0081724,0.028037,-0.00018665,0.0083552,-0.00010488,0,0,0.051173,-0.022209,0,-0.00054536,0,0,0,0.028038,-0.00018704,0.0083552,-0.2129,0.012069,0.02507,5.0391e-07,0.93,0.19,0
0.046929,0.0081711,0.028038,-0.00018655,0.0083554,-8.9934e-05,0,0,0.051175,-0.022209,0,-0.00046766,0,0,0,0.028038,-0.00018684,0.0083554,-0.18256,0.012069,0.02507,5.0393e-07,0.94,0.19,0
0.047441,0.0081699,0.028039,-0.00018646,0.0083556,-7.4973e-05,0,0,0.051175,-0.022209,0,-0.00038986,0,0,0,0.028039,-0.00018666,0.0083556,-0.15219,0.012069,0.025071,5.0395e-07,0.95,0.19,0
0.047953,0.0081689,0.028039,-0.00018638,0.0083558,-5.9995e-05,0,0,0.051176,-0.02221,0,-0.00031198,0,0,0,0.028039,-0.00018651,0.0083558,-0.12179,0.012069,0.025071,5.0397e-07,0.96,0.19,0
0.048465,0.0081682,0.028039,-0.00018631,0.0083559,-4.5006e-05,0,0,0.051177,-0.02221,0,-0.00023403,0,0,0,0.028039,-0.00018639,0.0083559,-0.091359,0.01207,0.025071,5.0399e-07,0.97,0.19,0
0.048976,0.0081677,0.02804,-0.00018626,0.008356,-3.0009e-05,0,0,0.051177,-0.02221,0,-0.00015605,0,0,0,0.02804,-0.00018629,0.008356,-0.060915,0.01207,0.025071,5.04e-07,0.98,0.19,0
0.049488,0.0081673,0.02804,-0.00018623,0.0083561,-1.5006e-05,0,0,0.051178,-0.02221,0,-7.803e-05,0,0,0,0.02804,-0.00018624,0.0083561,-0.03046,0.01207,0.025071,5.04e-07,0.99,0.19,0
0.05,0.0081672,0.02804,-0.00018622,0.0083561,-2.0961e-06,0,0,0.051178,-0.02221,0,-1.09e-05,0,0,0,0.02804,-0.00018622,0.0083561,-0.004255,0.01207,0.025071,5.04e-07,1,0.19,0
0,0,0.026976,0.011561,0.011561,0.0054447,0,0,0.040079,-4.3368e-19,0,0.028312,0,0,0,0.028705,0.009832,0.011561,17.619,0.016699,0.018071,2.9374e-07,0,0.2,0
0.00040079,0.00028312,0.026937,0.011068,0.011402,0.0054405,0,0,0.040393,-0.00086702,0,0.028291,0,0,0,0.028623,0.0093822,0.011402,17.219,0.016469,0.018315,3.0265e-07,0.01,0.2,0
0.00080786,0.00056836,0.027105,0.01064,0.011324,0.0054432,0,0,0.041031,-0.0017765,0,0.028305,0,0,0,0.028742,0.0090035,0.011324,16.736,0.016356,0.018687,3.1778e-07,0.02,0.2,0
0.0012214,0.0008549,0.027274,0.010194,0.011241,0.0054235,0,0,0.041688,-0.0027209,0,0.028202,0,0,0,0.028851,0.0086174,0.011241,16.209,0.016236,0.019058,3.3291e-07,0.03,0.2,0
0.0016416,0.0011419,0.027443,0.0097334,0.011153,0.0053798,0,0,0.042355,-0.003691,0,0.027975,0,0,0,0.028949,0.0082273,0.011153,15.64,0.01611,0.019425,3.4785e-07,0.04,0.2,0
0.0020685,0.0014283,0.027609,0.0092632,0.011062,0.0053114,0,0,0.043024,-0.0046764,0,0.027619,0,0,0,0.029036,0.0078365,0.011062,15.036,0.015978,0.019785,3.6241e-07,0.05,0.2,0
0.0025021,0.0017132,0.027771,0.0087882,0.010968,0.0052183,0,0,0.043687,-0.0056664,0,0.027135,0,0,0,0.029111,0.0074483,0.010968,14.401,0.015842,0.020134,3.7642e-07,0.06,0.2,0
0.0029423,0.0019957,0.027924,0.0083133,0.010871,0.0051016,0,0,0.044337,-0.0066505,0,0.026528,0,0,0,0.029172,0.0070656,0.010871,13.744,0.015703,0.02047,3.8973e-07,0.07,0.2,0
0.0033888,0.0022747,0.028068,0.007843,0.010773,0.0049628,0,0,0.044966,-0.0076187,0,0.025807,0,0,0,0.02922,0.0066908,0.010773,13.07,0.015561,0.020791,4.0224e-07,0.08,0.2,0
0.0038416,0.0025493,0.0282,0.0073812,0.010674,0.0048042,0,0,0.045568,-0.0085626,0,0.024982,0,0,0,0.029256,0.0063261,0.010674,12.387,0.015419,0.021094,4.1386e-07,0.09,0.2,0
0.0043002,0.0028188,0.028321,0.0069316,0.010576,0.0046283,0,0,0.046137,-0.0094746,0,0.024067,0,0,0,0.029279,0.0059731,0.010576,11.701,0.015276,0.02138,4.2456e-07,0.1,0.2,0
0.0047643,0.0030824,0.028428,0.0064968,0.010477,0.004438,0,0,0.046671,-0.010349,0,0.023077,0,0,0,0.029292,0.0056328,0.010477,11.017,0.015134,0.021647,4.343e-07,0.11,0.2,0
0.0052336,0.0033394,0.028521,0.0060791,0.01038,0.0042362,0,0,0.047166,-0.011182,0,0.022028,0,0,0,0.029294,0.0053061,0.01038,10.341,0.014993,0.021896,4.4312e-07,0.12,0.2,0
0.0057076,0.0035892,0.0286,0.00568,0.010284,0.0040258,0,0,0.047622,-0.011971,0,0.020934,0,0,0,0.029287,0.0049935,0.010284,9.6778,0.014855,0.022128,4.5103e-07,0.13,0.2,0
0.0061861,0.0038315,0.028667,0.0053004,0.01019,0.0038096,0,0,0.048039,-0.012713,0,0.01981,0,0,0,0.029272,0.004695,0.01019,9.03,0.014719,0.022342,4.5809e-07,0.14,0.2,0
0.0066684,0.0040658,0.02872,0.0049409,0.010098,0.0035902,0,0,0.048417,-0.013409,0,0.018669,0,0,0,0.02925,0.0044107,0.010098,8.4011,0.014587,0.022541,4.6435e-07,0.15,0.2,0
0.0071544,0.0042919,0.028762,0.0046015,0.010009,0.0033698,0,0,0.048758,-0.01406,0,0.017523,0,0,0,0.029223,0.0041403,0.010009,7.7933,0.014457,0.022724,4.6987e-07,0.16,0.2,0
0.0076436,0.0045096,0.028793,0.0042819,0.0099223,0.0031505,0,0,0.049063,-0.014665,0,0.016383,0,0,0,0.029191,0.0038834,0.0099223,7.2084,0.014332,0.022894,4.7473e-07,0.17,0.2,0
0.0081356,0.0047187,0.028813,0.0039816,0.0098385,0.002934,0,0,0.049335,-0.015228,0,0.015257,0,0,0,0.029155,0.0036396,0.0098385,6.6477,0.014211,0.02305,4.7898e-07,0.18,0.2,0
0.0086303,0.0049192,0.028825,0.0037,0.0097576,0.0027217,0,0,0.049576,-0.01575,0,0.014153,0,0,0,0.029117,0.0034085,0.0097576,6.112,0.014094,0.023195,4.8269e-07,0.19,0.2,0
0.0091272,0.0051112,0.02883,0.0034362,0.0096797,0.0025148,0,0,0.04979,-0.016233,0,0.013077,0,0,0,0.029076,0.0031895,0.0096797,5.6018,0.013982,0.023329,4.8593e-07,0.2,0.2,0
0.0096261,0.0052946,0.028827,0.0031894,0.0096049,0.0023144,0,0,0.049977,-0.01668,0,0.012035,0,0,0,0.029034,0.0029821,0.0096049,5.1172,0.013874,0.023453,4.8874e-07,0.21,0.2,0
0.010127,0.0054696,0.028819,0.0029585,0.0095331,0.0021211,0,0,0.050142,-0.017094,0,0.011029,0,0,0,0.028991,0.0027857,0.0095331,4.658,0.01377,0.023568,4.9118e-07,0.22,0.2,0
0.010629,0.0056362,0.028805,0.0027428,0.0094644,0.0019354,0,0,0.050286,-0.017476,0,0.010064,0,0,0,0.028948,0.0025999,0.0094644,4.2239,0.013671,0.023675,4.9329e-07,0.23,0.2,0
0.011132,0.0057948,0.028788,0.0025413,0.0093987,0.0017578,0,0,0.050412,-0.017829,0,0.0091404,0,0,0,0.028905,0.0024241,0.0093987,3.8144,0.013576,0.023774,4.9512e-07,0.24,0.2,0
0.011637,0.0059454,0.028767,0.0023529,0.009336,0.0015884,0,0,0.050521,-0.018156,0,0.0082597,0,0,0,0.028862,0.0022578,0.009336,3.429,0.013485,0.023866,4.967e-07,0.25,0.2,0
0.012143,0.0060883,0.028744,0.002177,0.0092762,0.0014275,0,0,0.050616,-0.018458,0,0.0074227,0,0,0,0.02882,0.0021005,0.0092762,3.0668,0.013399,0.023952,4.9807e-07,0.26,0.2,0
0.012649,0.0062236,0.028718,0.0020126,0.0092193,0.0012749,0,0,0.050697,-0.018737,0,0.0066296,0,0,0,0.028779,0.0019519,0.0092193,2.727,0.013317,0.024032,4.9924e-07,0.27,0.2,0
0.013157,0.0063517,0.028691,0.001859,0.0091651,0.0011308,0,0,0.050768,-0.018996,0,0.00588,0,0,0,0.028739,0.0018114,0.0091651,2.4089,0.013239,0.024107,5.0026e-07,0.28,0.2,0
0.013665,0.0064727,0.028663,0.0017154,0.0091137,0.00099487,0,0,0.050829,-0.019235,0,0.0051733,0,0,0,0.0287,0.0016787,0.0091137,2.1114,0.013164,0.024177,5.0113e-07,0.29,0.2,0
0.014173,0.006587,0.028635,0.0015812,0.0090648,0.00086707,0,0,0.050882,-0.019457,0,0.0045087,0,0,0,0.028663,0.0015535,0.0090648,1.8338,0.013094,0.024242,5.0189e-07,0.3,0.2,0
0.014682,0.0066946,0.028606,0.0014558,0.0090185,0.00074714,0,0,0.050927,-0.019663,0,0.0038851,0,0,0,0.028626,0.0014352,0.0090185,1.5751,0.013027,0.024304,5.0253e-07,0.31,0.2,0
0.015192,0.006796,0.028577,0.0013385,0.0089746,0.00063487,0,0,0.050966,-0.019854,0,0.0033013,0,0,0,0.028592,0.0013237,0.0089746,1.3345,0.012963,0.024361,5.0308e-07,0.32,0.2,0
0.015702,0.0068914,0.028548,0.0012288,0.008933,0.00052998,0,0,0.050999,-0.020031,0,0.0027559,0,0,0,0.028558,0.0012185,0.008933,1.111,0.012903,0.024414,5.0356e-07,0.33,0.2,0
0.016212,0.0069809,0.02852,0.0011262,0.0088937,0.00043221,0,0,0.051027,-0.020196,0,0.0022475,0,0,0,0.028526,0.0011194,0.0088937,0.9037,0.012847,0.024465,5.0396e-07,0.34,0.2,0
0.016722,0.0070649,0.028492,0.0010302,0.0088566,0.00034126,0,0,0.051051,-0.020349,0,0.0017746,0,0,0,0.028496,0.001026,0.0088566,0.71187,0.012793,0.024511,5.043e-07,0.35,0.2,0
0.017233,0.0071436,0.028465,0.00094047,0.0088215,0.00025686,0,0,0.051072,-0.020491,0,0.0013357,0,0,0,0.028467,0.00093807,0.0088215,0.53464,0.012742,0.024556,5.0459e-07,0.36,0.2,0
0.017744,0.0072172,0.028438,0.00085653,0.0087885,0.00017871,0,0,0.05109,-0.020623,0,0.00092929,0,0,0,0.028439,0.00085537,0.0087885,0.37121,0.012694,0.024597,5.0484e-07,0.37,0.2,0
0.018255,0.0072859,0.028413,0.00077803,0.0087573,0.00010651,0,0,0.051105,-0.020746,0,0.00055388,0,0,0,0.028413,0.00077762,0.0087573,0.22083,0.012649,0.024635,5.0504e-07,0.38,0.2,0
0.018766,0.0073501,0.028389,0.00070463,0.0087279,3.9989e-05,0,0,0.051118,-0.020861,0,0.00020794,0,0,0,0.028389,0.00070457,0.0087279,0.082763,0.012607,0.024671,5.0522e-07,0.39,0.2,0
0.019277,0.0074098,0.028365,0.00063601,0.0087003,-2.115e-05,0,0,0.051128,-0.020967,0,-0.00010998,0,0,0,0.028365,0.000636,0.0087003,-0.043701,0.012567,0.024705,5.0536e-07,0.4,0.2,0
0.019788,0.0074654,0.028343,0.00057189,0.0086744,-7.7179e-05,0,0,0.051138,-0.021066,0,-0.00040133,0,0,0,0.028343,0.00057168,0.0086744,-0.15923,0.01253,0.024736,5.0547e-07,0.41,0.2,0
0.0203,0.007517,0.028321,0.00051198,0.00865,-0.00012837,0,0,0.051146,-0.021159,0,-0.00066752,0,0,0,0.028322,0.00051139,0.00865,-0.26447,0.012495,0.024765,5.0556e-07,0.42,0.2,0
0.020811,0.0075649,0.028301,0.00045604,0.0086272,-0.00017498,0,0,0.051152,-0.021245,0,-0.00090989,0,0,0,0.028302,0.00045494,0.0086272,-0.36003,0.012462,0.024793,5.0564e-07,0.43,0.2,0
0.021323,0.0076091,0.028282,0.00040382,0.0086057,-0.00021727,0,0,0.051158,-0.021325,0,-0.0011298,0,0,0,0.028284,0.00040212,0.0086057,-0.44649,0.012431,0.024818,5.0569e-07,0.44,0.2,0
0.021834,0.00765,0.028264,0.0003551,0.0085857,-0.00025547,0,0,0.051163,-0.021399,0,-0.0013284,0,0,0,0.028266,0.00035276,0.0085857,-0.52441,0.012401,0.024842,5.0574e-07,0.45,0.2,0
0.022346,0.0076877,0.028247,0.00030967,0.0085669,-0.00028983,0,0,0.051167,-0.021469,0,-0.0015071,0,0,0,0.02825,0.00030667,0.0085669,-0.59432,0.012374,0.024864,5.0577e-07,0.46,0.2,0
0.022858,0.0077223,0.028231,0.00026735,0.0085494,-0.00032057,0,0,0.051171,-0.021533,0,-0.0016669,0,0,0,0.028234,0.00026367,0.0085494,-0.65672,0.012349,0.024885,5.0579e-07,0.47,0.2,0
0.02337,0.0077541,0.028216,0.00022794,0.008533,-0.0003479,0,0,0.051174,-0.021593,0,-0.0018091,0,0,0,0.02822,0.00022361,0.008533,-0.71207,0.012325,0.024904,5.058e-07,0.48,0.2,0
0.023881,0.0077832,0.028201,0.00019127,0.0085178,-0.00037203,0,0,0.051177,-0.021649,0,-0.0019346,0,0,0,0.028206,0.00018633,0.0085178,-0.76083,0.012304,0.024922,5.058e-07,0.49,0.2,0
0.024393,0.0078098,0.028188,0.00015719,0.0085036,-0.00039317,0,0,0.05118,-0.021701,0,-0.0020445,0,0,0,0.028194,0.00015168,0.0085036,-0.80343,0.012283,0.024938,5.058e-07,0.5,0.2,0
0.024905,0.007834,0.028176,0.00012554,0.0084904,-0.00041149,0,0,0.051182,-0.021749,0,-0.0021398,0,0,0,0.028182,0.00011951,0.0084904,-0.84027,0.012264,0.024953,5.0579e-07,0.51,0.2,0
0.025417,0.0078559,0.028164,9.6176e-05,0.0084782,-0.00042718,0,0,0.051184,-0.021793,0,-0.0022213,0,0,0,0.028171,8.9676e-05,0.0084782,-0.87173,0.012246,0.024967,5.0578e-07,0.52,0.2,0
0.025929,0.0078757,0.028154,6.8962e-05,0.0084668,-0.0004404,0,0,0.051186,-0.021834,0,-0.0022901,0,0,0,0.028161,6.2058e-05,0.0084668,-0.89817,0.01223,0.02498,5.0576e-07,0.53,0.2,0
0.02644,0.0078935,0.028144,4.3771e-05,0.0084563,-0.00045133,0,0,0.051188,-0.021873,0,-0.0023469,0,0,0,0.028151,3.6524e-05,0.0084563,-0.91993,0.012215,0.024992,5.0574e-07,0.54,0.2,0
0.026952,0.0079095,0.028135,2.0481e-05,0.0084466,-0.0004601,0,0,0.051189,-0.021908,0,-0.0023925,0,0,0,0.028142,1.2953e-05,0.0084466,-0.93734,0.012201,0.025003,5.0573e-07,0.55,0.2,0
0.027464,0.0079238,0.028126,-1.0234e-06,0.0084376,-0.00046688,0,0,0.051191,-0.021941,0,-0.0024278,0,0,0,0.028134,-8.7709e-06,0.0084376,-0.95069,0.012188,0.025013,5.0571e-07,0.56,0.2,0
0.027976,0.0079364,0.028119,-2.085e-05,0.0084294,-0.0004718,0,0,0.051193,-0.021971,0,-0.0024533,0,0,0,0.028127,-2.8758e-05,0.0084294,-0.96027,0.012176,0.025022,5.0568e-07,0.57,0.2,0
0.028488,0.0079476,0.028112,-3.9103e-05,0.0084218,-0.00047498,0,0,0.051194,-0.021998,0,-0.0024699,0,0,0,0.02812,-4.7115e-05,0.0084218,-0.96636,0.012165,0.025031,5.0566e-07,0.58,0.2,0
0.029,0.0079573,0.028105,-5.588e-05,0.0084148,-0.00047655,0,0,0.051195,-0.022024,0,-0.0024781,0,0,0,0.028113,-6.3942e-05,0.0084148,-0.96921,0.012155,0.025039,5.0564e-07,0.59,0.2,0
0.029512,0.0079658,0.028099,-7.1275e-05,0.0084085,-0.00047664,0,0,0.051197,-0.022047,0,-0.0024785,0,0,0,0.028108,-7.9337e-05,0.0084085,-0.96905,0.012146,0.025046,5.0562e-07,0.6,0.2,0
0.030024,0.007973,0.028094,-8.5374e-05,0.0084026,-0.00047534,0,0,0.051198,-0.022069,0,-0.0024717,0,0,0,0.028102,-9.339e-05,0.0084026,-0.96611,0.012137,0.025052,5.056e-07,0.61,0.2,0
0.030536,0.0079791,0.028089,-9.8262e-05,0.0083973,-0.00047276,0,0,0.051199,-0.022089,0,-0.0024584,0,0,0,0.028097,-0.00010619,0.0083973,-0.9606,0.012129,0.025058,5.0558e-07,0.62,0.2,0
0.031048,0.0079842,0.028085,-0.00011002,0.0083925,-0.000469,0,0,0.051201,-0.022107,0,-0.0024388,0,0,0,0.028093,-0.00011782,0.0083925,-0.95272,0.012122,0.025064,5.0557e-07,0.63,0.2,0
0.03156,0.0079884,0.028081,-0.00012072,0.0083882,-0.00046416,0,0,0.051202,-0.022123,0,-0.0024136,0,0,0,0.028089,-0.00012836,0.0083882,-0.94266,0.012116,0.025069,5.0555e-07,0.64,0.2,0
0.032072,0.0079917,0.028078,-0.00013044,0.0083842,-0.00045831,0,0,0.051203,-0.022138,0,-0.0023832,0,0,0,0.028085,-0.00013788,0.0083842,-0.93059,0.01211,0.025073,5.0554e-07,0.65,0.2,0
0.032584,0.0079942,0.028075,-0.00013923,0.0083807,-0.00045155,0,0,0.051205,-0.022152,0,-0.002348,0,0,0,0.028082,-0.00014646,0.0083807,-0.91667,0.012105,0.025077,5.0552e-07,0.66,0.2,0
0.033096,0.007996,0.028072,-0.00014718,0.0083775,-0.00044393,0,0,0.051206,-0.022164,0,-0.0023085,0,0,0,0.028079,-0.00015416,0.0083775,-0.90105,0.012101,0.02508,5.0551e-07,0.67,0.2,0
0.033608,0.0079971,0.02807,-0.00015434,0.0083746,-0.00043555,0,0,0.051207,-0.022175,0,-0.0022648,0,0,0,0.028077,-0.00016106,0.0083746,-0.88389,0.012097,0.025084,5.055e-07,0.68,0.2,0
0.03412,0.0079977,0.028068,-0.00016076,0.0083721,-0.00042645,0,0,0.051209,-0.022185,0,-0.0022175,0,0,0,0.028074,-0.0001672,0.0083721,-0.86531,0.012093,0.025087,5.055e-07,0.69,0.2,0
0.034632,0.0079977,0.028066,-0.00016651,0.0083698,-0.00041671,0,0,0.05121,-0.022194,0,-0.0021669,0,0,0,0.028072,-0.00017265,0.0083698,-0.84543,0.01209,0.025089,5.0549e-07,0.7,0.2,0
0.035145,0.0079973,0.028064,-0.00017162,0.0083679,-0.00040637,0,0,0.051211,-0.022203,0,-0.0021131,0,0,0,0.02807,-0.00017747,0.0083679,-0.82438,0.012087,0.025091,5.0548e-07,0.71,0.2,0
0.035657,0.0079964,0.028063,-0.00017617,0.0083661,-0.00039551,0,0,0.051213,-0.02221,0,-0.0020566,0,0,0,0.028069,-0.0001817,0.0083661,-0.80225,0.012084,0.025093,5.0548e-07,0.72,0.2,0
0.036169,0.0079952,0.028062,-0.00018018,0.0083646,-0.00038416,0,0,0.051214,-0.022217,0,-0.0019976,0,0,0,0.028067,-0.0001854,0.0083646,-0.77915,0.012082,0.025095,5.0548e-07,0.73,0.2,0
0.036681,0.0079936,0.028061,-0.00018371,0.0083633,-0.00037236,0,0,0.051215,-0.022222,0,-0.0019363,0,0,0,0.028066,-0.00018861,0.0083633,-0.75517,0.01208,0.025097,5.0548e-07,0.74,0.2,0
0.037193,0.0079918,0.028061,-0.00018679,0.0083622,-0.00036017,0,0,0.051216,-0.022227,0,-0.0018729,0,0,0,0.028065,-0.00019138,0.0083622,-0.7304,0.012079,0.025098,5.0548e-07,0.75,0.2,0
0.037705,0.0079898,0.02806,-0.00018947,0.0083613,-0.00034763,0,0,0.051218,-0.022232,0,-0.0018077,0,0,0,0.028065,-0.00019374,0.0083613,-0.70491,0.012077,0.025099,5.0548e-07,0.76,0.2,0
0.038217,0.0079875,0.02806,-0.00019178,0.0083605,-0.00033476,0,0,0.051219,-0.022236,0,-0.0017407,0,0,0,0.028064,-0.00019574,0.0083605,-0.67878,0.012076,0.0251,5.0548e-07,0.77,0.2,0
0.03873,0.0079851,0.02806,-0.00019376,0.0083598,-0.0003216,0,0,0.05122,-0.022239,0,-0.0016723,0,0,0,0.028063,-0.00019742,0.0083598,-0.65207,0.012075,0.025101,5.0549e-07,0.78,0.2,0
0.039242,0.0079826,0.02806,-0.00019544,0.0083593,-0.00030819,0,0,0.051221,-0.022242,0,-0.0016026,0,0,0,0.028063,-0.0001988,0.0083593,-0.62485,0.012075,0.025102,5.0549e-07,0.79,0.2,0
0.039754,0.00798,0.02806,-0.00019685,0.0083588,-0.00029455,0,0,0.051222,-0.022245,0,-0.0015317,0,0,0,0.028063,-0.00019992,0.0083588,-0.59717,0.012074,0.025102,5.055e-07,0.8,0.2,0
0.040266,0.0079774,0.02806,-0.00019802,0.0083585,-0.00028071,0,0,0.051223,-0.022247,0,-0.0014597,0,0,0,0.028063,-0.00020081,0.0083585,-0.56909,0.012073,0.025103,5.0551e-07,0.81,0.2,0
0.040779,0.0079747,0.02806,-0.00019898,0.0083583,-0.00026668,0,0,0.051224,-0.022249,0,-0.0013867,0,0,0,0.028063,-0.00020149,0.0083583,-0.54064,0.012073,0.025104,5.0551e-07,0.82,0.2,0
0.041291,0.007972,0.02806,-0.00019975,0.0083581,-0.0002525,0,0,0.051225,-0.02225,0,-0.001313,0,0,0,0.028062,-0.000202,0.0083581,-0.51187,0.012073,0.025104,5.0552e-07,0.83,0.2,0
0.041803,0.0079694,0.02806,-0.00020036,0.008358,-0.00023818,0,0,0.051226,-0.022252,0,-0.0012385,0,0,0,0.028062,-0.00020236,0.008358,-0.48283,0.012073,0.025104,5.0553e-07,0.84,0.2,0
0.042315,0.0079668,0.028061,-0.00020082,0.008358,-0.00022373,0,0,0.051227,-0.022253,0,-0.0011634,0,0,0,0.028063,-0.00020259,0.008358,-0.45354,0.012073,0.025104,5.0554e-07,0.85,0.2,0
0.042827,0.0079643,0.028061,-0.00020117,0.008358,-0.00020918,0,0,0.051228,-0.022254,0,-0.0010877,0,0,0,0.028063,-0.00020272,0.008358,-0.42404,0.012073,0.025105,5.0554e-07,0.86,0.2,0
0.04334,0.0079618,0.028061,-0.00020141,0.008358,-0.00019454,0,0,0.051229,-0.022254,0,-0.0010116,0,0,0,0.028063,-0.00020275,0.008358,-0.39435,0.012073,0.025105,5.0555e-07,0.87,0.2,0
0.043852,0.0079595,0.028062,-0.00020157,0.0083581,-0.00017982,0,0,0.05123,-0.022255,0,-0.00093505,0,0,0,0.028063,-0.00020271,0.0083581,-0.36451,0.012073,0.025105,5.0556e-07,0.88,0.2,0
0.044364,0.0079573,0.028062,-0.00020166,0.0083581,-0.00016503,0,0,0.05123,-0.022256,0,-0.00085814,0,0,0,0.028063,-0.00020262,0.0083581,-0.33452,0.012073,0.025105,5.0557e-07,0.89,0.2,0
0.044877,0.0079553,0.028062,-0.00020169,0.0083582,-0.00015018,0,0,0.051231,-0.022256,0,-0.00078092,0,0,0,0.028063,-0.00020249,0.0083582,-0.30442,0.012073,0.025105,5.0557e-07,0.9,0.2,0
0.045389,0.0079534,0.028063,-0.00020168,0.0083583,-0.00013528,0,0,0.051232,-0.022256,0,-0.00070345,0,0,0,0.028063,-0.00020233,0.0083583,-0.27422,0.012073,0.025105,5.0558e-07,0.91,0.2,0
0.045901,0.0079517,0.028063,-0.00020164,0.0083584,-0.00012034,0,0,0.051232,-0.022256,0,-0.00062576,0,0,0,0.028064,-0.00020216,0.0083584,-0.24394,0.012073,0.025105,5.0559e-07,0.92,0.2,0
0.046414,0.0079501,0.028063,-0.00020159,0.0083585,-0.00010536,0,0,0.051233,-0.022256,0,-0.00054789,0,0,0,0.028064,-0.00020198,0.0083585,-0.21358,0.012073,0.025105,5.0559e-07,0.93,0.2,0
0.046926,0.0079487,0.028064,-0.00020152,0.0083586,-9.0361e-05,0,0,0.051233,-0.022256,0,-0.00046988,0,0,0,0.028064,-0.00020181,0.0083586,-0.18317,0.012074,0.025105,5.056e-07,0.94,0.2,0
0.047438,0.0079476,0.028064,-0.00020145,0.0083587,-7.5333e-05,0,0,0.051233,-0.022256,0,-0.00039173,0,0,0,0.028064,-0.00020165,0.0083587,-0.15271,0.012074,0.025105,5.056e-07,0.95,0.2,0
0.047951,0.0079466,0.028064,-0.00020138,0.0083588,-6.0288e-05,0,0,0.051234,-0.022256,0,-0.0003135,0,0,0,0.028064,-0.00020151,0.0083588,-0.12221,0.012074,0.025105,5.0561e-07,0.96,0.2,0
0.048463,0.0079459,0.028064,-0.00020132,0.0083589,-4.5228e-05,0,0,0.051234,-0.022256,0,-0.00023518,0,0,0,0.028064,-0.0002014,0.0083589,-0.091679,0.012074,0.025105,5.0561e-07,0.97,0.2,0
0.048975,0.0079453,0.028064,-0.00020128,0.0083589,-3.0157e-05,0,0,0.051234,-0.022256,0,-0.00015682,0,0,0,0.028064,-0.00020131,0.0083589,-0.06113,0.012074,0.025105,5.0561e-07,0.98,0.2,0
0.049488,0.007945,0.028064,-0.00020125,0.0083589,-1.508e-05,0,0,0.051234,-0.022256,0,-7.8418e-05,0,0,0,0.028064,-0.00020126,0.0083589,-0.030569,0.012074,0.025105,5.0561e-07,0.99,0.2,0
0.05,0.0079449,0.028064,-0.00020124,0.008359,-2.0981e-06,0,0,0.051234,-0.022256,0,-1.091e-05,0,0,0,0.028064,-0.00020124,0.008359,-0.0042529,0.012074,0.025105,5.0561e-07,1,0.2,0
0,0,0.026897,0.011527,0.011527,0.0052818,0,0,0.039962,-6.5052e-19,0,0.027465,0,0,0,0.028537,0.0098873,0.011527,17.25,0.016651,0.017886,2.8558e-07,0,0.21,0
0.00039962,0.00027465,0.02686,0.011056,0.011375,0.0052774,0,0,0.040261,-0.0008283,0,0.027443,0,0,0,0.02846,0.0094561,0.011375,16.869,0.01643,0.018121,2.941e-07,0.01,0.21,0
0.00080523,0.00055102,0.02702,0.010649,0.011301,0.0052772,0,0,0.04087,-0.0016944,0,0.027441,0,0,0,0.028574,0.0090955,0.011301,16.405,0.016323,0.018475,3.0836e-07,0.02,0.21,0
0.001217,0.00082836,0.027182,0.010225,0.011222,0.0052565,0,0,0.041496,-0.002592,0,0.027334,0,0,0,0.02868,0.0087281,0.011222,15.899,0.01621,0.018829,3.2264e-07,0.03,0.21,0
0.0016351,0.0011059,0.027344,0.0097884,0.01114,0.005214,0,0,0.042132,-0.0035137,0,0.027113,0,0,0,0.028776,0.0083567,0.01114,15.355,0.016091,0.01918,3.368e-07,0.04,0.21,0
0.0020597,0.0013827,0.027504,0.0093421,0.011054,0.0051491,0,0,0.042771,-0.0044508,0,0.026776,0,0,0,0.028863,0.0079839,0.011054,14.777,0.015967,0.019526,3.5068e-07,0.05,0.21,0
0.0024906,0.001658,0.02766,0.0088906,0.010965,0.005062,0,0,0.043407,-0.0053943,0,0.026322,0,0,0,0.028938,0.0076125,0.010965,14.171,0.015839,0.019863,3.6414e-07,0.06,0.21,0
0.0029278,0.0019308,0.02781,0.0084379,0.010875,0.0049532,0,0,0.044033,-0.0063352,0,0.025757,0,0,0,0.029003,0.0072449,0.010875,13.542,0.015708,0.02019,3.7706e-07,0.07,0.21,0
0.0033712,0.0022003,0.027952,0.0079878,0.010782,0.0048242,0,0,0.044643,-0.007265,0,0.025086,0,0,0,0.029057,0.0068832,0.010782,12.897,0.015574,0.020504,3.8934e-07,0.08,0.21,0
0.0038207,0.0024657,0.028085,0.0075442,0.010689,0.0046768,0,0,0.04523,-0.0081759,0,0.024319,0,0,0,0.0291,0.0065295,0.010689,12.241,0.015439,0.020805,4.009e-07,0.09,0.21,0
0.0042759,0.0027262,0.028207,0.00711,0.010595,0.0045131,0,0,0.045791,-0.0090613,0,0.023468,0,0,0,0.029132,0.0061851,0.010595,11.582,0.015304,0.021091,4.1171e-07,0.1,0.21,0
0.0047365,0.0029811,0.028318,0.0066879,0.010502,0.0043356,0,0,0.046322,-0.0099157,0,0.022545,0,0,0,0.029154,0.0058512,0.010502,10.923,0.015169,0.021361,4.2172e-07,0.11,0.21,0
0.0052023,0.0032299,0.028416,0.0062801,0.010409,0.0041469,0,0,0.046819,-0.010735,0,0.021564,0,0,0,0.029168,0.0055288,0.010409,10.27,0.015035,0.021616,4.3094e-07,0.12,0.21,0
0.0056729,0.0034719,0.028503,0.0058882,0.010317,0.0039495,0,0,0.047282,-0.011515,0,0.020538,0,0,0,0.029173,0.0052183,0.010317,9.627,0.014903,0.021855,4.3937e-07,0.13,0.21,0
0.0061479,0.0037067,0.028577,0.0055133,0.010227,0.0037459,0,0,0.04771,-0.012256,0,0.019479,0,0,0,0.02917,0.0049201,0.010227,8.9978,0.014772,0.02208,4.4705e-07,0.14,0.21,0
0.0066271,0.0039341,0.02864,0.005156,0.010139,0.0035384,0,0,0.048102,-0.012955,0,0.0184,0,0,0,0.029161,0.0046345,0.010139,8.3852,0.014645,0.02229,4.5401e-07,0.15,0.21,0
0.00711,0.0041536,0.028691,0.0048168,0.010052,0.0033292,0,0,0.048461,-0.013613,0,0.017312,0,0,0,0.029147,0.0043612,0.010052,7.7917,0.01452,0.022487,4.603e-07,0.16,0.21,0
0.0075963,0.0043651,0.028732,0.0044955,0.0099684,0.0031201,0,0,0.048786,-0.014229,0,0.016225,0,0,0,0.029128,0.0041003,0.0099684,7.2192,0.014399,0.02267,4.6595e-07,0.17,0.21,0
0.0080857,0.0045686,0.028764,0.0041921,0.0098868,0.0029129,0,0,0.04908,-0.014806,0,0.015147,0,0,0,0.029104,0.0038515,0.0098868,6.6691,0.014281,0.022841,4.7103e-07,0.18,0.21,0
0.0085779,0.0047638,0.028787,0.0039059,0.0098078,0.0027089,0,0,0.049345,-0.015345,0,0.014087,0,0,0,0.029078,0.0036144,0.0098078,6.1423,0.014167,0.023001,4.7557e-07,0.19,0.21,0
0.0090726,0.0049508,0.028802,0.0036366,0.0097314,0.0025094,0,0,0.049582,-0.015846,0,0.013049,0,0,0,0.029049,0.0033888,0.0097314,5.6395,0.014056,0.02315,4.7963e-07,0.2,0.21,0
0.0095695,0.0051296,0.028809,0.0033834,0.0096578,0.0023154,0,0,0.049794,-0.016314,0,0.01204,0,0,0,0.029018,0.0031742,0.0096578,5.161,0.01395,0.023289,4.8325e-07,0.21,0.21,0
0.010068,0.0053004,0.028811,0.0031455,0.009587,0.0021275,0,0,0.049983,-0.016748,0,0.011063,0,0,0,0.028986,0.0029704,0.009587,4.7067,0.013848,0.023419,4.8648e-07,0.22,0.21,0
0.010569,0.0054631,0.028807,0.0029223,0.0095189,0.0019465,0,0,0.05015,-0.017151,0,0.010122,0,0,0,0.028953,0.0027767,0.0095189,4.2765,0.01375,0.023541,4.8936e-07,0.23,0.21,0
0.011071,0.005618,0.028799,0.0027129,0.0094536,0.0017728,0,0,0.050299,-0.017526,0,0.0092186,0,0,0,0.028919,0.0025929,0.0094536,3.87,0.013655,0.023654,4.9192e-07,0.24,0.21,0
0.011575,0.0057653,0.028787,0.0025165,0.0093911,0.0016067,0,0,0.05043,-0.017874,0,0.0083546,0,0,0,0.028885,0.0024186,0.0093911,3.4868,0.013565,0.02376,4.9419e-07,0.25,0.21,0
0.01208,0.005905,0.028772,0.0023324,0.0093313,0.0014483,0,0,0.050546,-0.018197,0,0.0075311,0,0,0,0.028851,0.0022533,0.0093313,3.1261,0.013479,0.02386,4.9621e-07,0.26,0.21,0
0.012586,0.0060374,0.028754,0.0021598,0.0092742,0.0012978,0,0,0.050648,-0.018497,0,0.0067486,0,0,0,0.028817,0.0020966,0.0092742,2.7872,0.013396,0.023953,4.98e-07,0.27,0.21,0
0.013093,0.0061628,0.028734,0.0019981,0.0092196,0.0011552,0,0,0.050737,-0.018776,0,0.006007,0,0,0,0.028784,0.0019483,0.0092196,2.4695,0.013317,0.024039,4.9958e-07,0.28,0.21,0
0.013601,0.0062814,0.028712,0.0018465,0.0091677,0.0010204,0,0,0.050816,-0.019035,0,0.0053062,0,0,0,0.028751,0.0018078,0.0091677,2.1721,0.013242,0.024121,5.0099e-07,0.29,0.21,0
0.014109,0.0063933,0.028689,0.0017045,0.0091182,0.00089337,0,0,0.050885,-0.019276,0,0.0046455,0,0,0,0.028719,0.001675,0.0091182,1.8941,0.013171,0.024197,5.0223e-07,0.3,0.21,0
0.014618,0.0064988,0.028666,0.0015715,0.0090711,0.00077388,0,0,0.050946,-0.019499,0,0.0040242,0,0,0,0.028688,0.0015494,0.0090711,1.6347,0.013103,0.024268,5.0333e-07,0.31,0.21,0
0.015128,0.0065982,0.028641,0.0014468,0.0090264,0.00066176,0,0,0.050998,-0.019707,0,0.0034411,0,0,0,0.028657,0.0014307,0.0090264,1.3932,0.013038,0.024335,5.0429e-07,0.32,0.21,0
0.015638,0.0066917,0.028616,0.0013299,0.0089839,0.0005568,0,0,0.051044,-0.0199,0,0.0028953,0,0,0,0.028628,0.0013186,0.0089839,1.1685,0.012977,0.024397,5.0514e-07,0.33,0.21,0
0.016149,0.0067795,0.028591,0.0012205,0.0089436,0.00045875,0,0,0.051084,-0.02008,0,0.0023855,0,0,0,0.028599,0.0012128,0.0089436,0.95995,0.012918,0.024455,5.0588e-07,0.34,0.21,0
0.01666,0.0068619,0.028567,0.0011179,0.0089054,0.00036738,0,0,0.051119,-0.020248,0,0.0019104,0,0,0,0.028572,0.001113,0.0089054,0.76668,0.012863,0.02451,5.0653e-07,0.35,0.21,0
0.017171,0.0069391,0.028542,0.0010218,0.0088692,0.00028242,0,0,0.05115,-0.020403,0,0.0014686,0,0,0,0.028545,0.0010189,0.0088692,0.58789,0.012811,0.024561,5.071e-07,0.36,0.21,0
0.017683,0.0070113,0.028518,0.00093182,0.008835,0.00020359,0,0,0.051176,-0.020548,0,0.0010587,0,0,0,0.02852,0.00093032,0.008835,0.42283,0.012762,0.024608,5.0759e-07,0.37,0.21,0
0.018195,0.0070788,0.028494,0.00084756,0.0088026,0.00013065,0,0,0.051199,-0.020683,0,0.00067935,0,0,0,0.028495,0.00084694,0.0088026,0.27074,0.012715,0.024653,5.0801e-07,0.38,0.21,0
0.018707,0.0071417,0.028471,0.00076867,0.008772,6.3299e-05,0,0,0.051219,-0.020809,0,0.00032915,0,0,0,0.028472,0.00076853,0.008772,0.13092,0.012671,0.024694,5.0838e-07,0.39,0.21,0
0.019219,0.0072004,0.028449,0.00069484,0.0087432,1.2896e-06,0,0,0.051235,-0.020926,0,6.706e-06,0,0,0,0.028449,0.00069484,0.0087432,0.0026623,0.012629,0.024733,5.0868e-07,0.4,0.21,0
0.019732,0.0072549,0.028428,0.00062577,0.008716,-5.5645e-05,0,0,0.05125,-0.021035,0,-0.00028936,0,0,0,0.028428,0.00062566,0.008716,-0.11468,0.01259,0.024768,5.0894e-07,0.41,0.21,0
0.020244,0.0073055,0.028407,0.00056117,0.0086903,-0.00010776,0,0,0.051262,-0.021136,0,-0.00056037,0,0,0,0.028407,0.00056076,0.0086903,-0.22173,0.012553,0.024802,5.0916e-07,0.42,0.21,0
0.020757,0.0073525,0.028387,0.00050079,0.0086662,-0.00015532,0,0,0.051273,-0.02123,0,-0.00080765,0,0,0,0.028387,0.00049993,0.0086662,-0.31911,0.012518,0.024833,5.0933e-07,0.43,0.21,0
0.02127,0.0073959,0.028367,0.00044438,0.0086435,-0.00019855,0,0,0.051282,-0.021318,0,-0.0010325,0,0,0,0.028369,0.00044297,0.0086435,-0.40738,0.012485,0.024862,5.0948e-07,0.44,0.21,0
0.021783,0.007436,0.028349,0.0003917,0.0086222,-0.0002377,0,0,0.05129,-0.021399,0,-0.001236,0,0,0,0.028351,0.00038968,0.0086222,-0.48709,0.012454,0.024888,5.0958e-07,0.45,0.21,0
0.022296,0.0074729,0.028331,0.00034255,0.0086022,-0.00027299,0,0,0.051296,-0.021475,0,-0.0014195,0,0,0,0.028334,0.00033988,0.0086022,-0.55876,0.012425,0.024913,5.0967e-07,0.46,0.21,0
0.022809,0.0075069,0.028315,0.00029671,0.0085834,-0.00030464,0,0,0.051301,-0.021545,0,-0.0015842,0,0,0,0.028318,0.0002934,0.0085834,-0.62289,0.012398,0.024935,5.0972e-07,0.47,0.21,0
0.023322,0.0075381,0.028299,0.000254,0.0085658,-0.00033288,0,0,0.051306,-0.021611,0,-0.001731,0,0,0,0.028303,0.00025005,0.0085658,-0.67995,0.012373,0.024956,5.0976e-07,0.48,0.21,0
0.023835,0.0075666,0.028284,0.00021423,0.0085494,-0.00035789,0,0,0.051309,-0.021671,0,-0.001861,0,0,0,0.028288,0.00020967,0.0085494,-0.73037,0.012349,0.024976,5.0977e-07,0.49,0.21,0
0.024348,0.0075926,0.028269,0.00017724,0.008534,-0.00037988,0,0,0.051312,-0.021728,0,-0.0019754,0,0,0,0.028275,0.0001721,0.008534,-0.7746,0.012327,0.024994,5.0977e-07,0.5,0.21,0
0.024861,0.0076163,0.028256,0.00014286,0.0085197,-0.00039903,0,0,0.051314,-0.02178,0,-0.0020749,0,0,0,0.028262,0.00013719,0.0085197,-0.81301,0.012306,0.02501,5.0976e-07,0.51,0.21,0
0.025374,0.0076378,0.028243,0.00011094,0.0085062,-0.00041551,0,0,0.051316,-0.021828,0,-0.0021607,0,0,0,0.028249,0.0001048,0.0085062,-0.84601,0.012287,0.025025,5.0973e-07,0.52,0.21,0
0.025887,0.0076571,0.028231,8.1333e-05,0.0084938,-0.00042951,0,0,0.051317,-0.021872,0,-0.0022334,0,0,0,0.028238,7.4781e-05,0.0084938,-0.87394,0.012269,0.025039,5.0968e-07,0.53,0.21,0
0.026401,0.0076746,0.02822,5.3909e-05,0.0084822,-0.00044117,0,0,0.051318,-0.021913,0,-0.0022941,0,0,0,0.028227,4.7001e-05,0.0084822,-0.89714,0.012252,0.025051,5.0963e-07,0.54,0.21,0
0.026914,0.0076902,0.028209,2.8536e-05,0.0084714,-0.00045065,0,0,0.051319,-0.021951,0,-0.0023434,0,0,0,0.028217,2.1332e-05,0.0084714,-0.91593,0.012236,0.025062,5.0958e-07,0.55,0.21,0
0.027427,0.0077041,0.028199,5.0908e-06,0.0084614,-0.0004581,0,0,0.051319,-0.021986,0,-0.0023821,0,0,0,0.028207,-2.3506e-06,0.0084614,-0.93062,0.012222,0.025073,5.0951e-07,0.56,0.21,0
0.02794,0.0077165,0.02819,-1.6543e-05,0.0084521,-0.00046366,0,0,0.051319,-0.022018,0,-0.0024111,0,0,0,0.028198,-2.4163e-05,0.0084521,-0.94149,0.012209,0.025082,5.0944e-07,0.57,0.21,0
0.028453,0.0077273,0.028182,-3.6477e-05,0.0084435,-0.00046746,0,0,0.051319,-0.022048,0,-0.0024308,0,0,0,0.028189,-4.4218e-05,0.0084435,-0.94881,0.012196,0.025091,5.0936e-07,0.58,0.21,0
0.028966,0.0077368,0.028173,-5.4814e-05,0.0084356,-0.00046962,0,0,0.051318,-0.022075,0,-0.002442,0,0,0,0.028181,-6.2624e-05,0.0084356,-0.95284,0.012185,0.025098,5.0928e-07,0.59,0.21,0
0.02948,0.007745,0.028166,-7.1655e-05,0.0084283,-0.00047025,0,0,0.051318,-0.0221,0,-0.0024453,0,0,0,0.028174,-7.9484e-05,0.0084283,-0.95382,0.012174,0.025105,5.092e-07,0.6,0.21,0
0.029993,0.007752,0.028159,-8.7094e-05,0.0084215,-0.00046948,0,0,0.051317,-0.022122,0,-0.0024413,0,0,0,0.028167,-9.4895e-05,0.0084215,-0.95196,0.012164,0.025111,5.0912e-07,0.61,0.21,0
0.030506,0.007758,0.028152,-0.00010122,0.0084154,-0.00046739,0,0,0.051316,-0.022143,0,-0.0024304,0,0,0,0.02816,-0.00010895,0.0084154,-0.94748,0.012155,0.025116,5.0903e-07,0.62,0.21,0
0.031019,0.0077629,0.028146,-0.00011412,0.0084097,-0.0004641,0,0,0.051315,-0.022162,0,-0.0024133,0,0,0,0.028154,-0.00012174,0.0084097,-0.94059,0.012147,0.025121,5.0894e-07,0.63,0.21,0
0.031532,0.0077669,0.028141,-0.00012588,0.0084045,-0.00045969,0,0,0.051314,-0.022179,0,-0.0023904,0,0,0,0.028148,-0.00013335,0.0084045,-0.93146,0.01214,0.025125,5.0886e-07,0.64,0.21,0
0.032045,0.00777,0.028136,-0.00013657,0.0083997,-0.00045426,0,0,0.051313,-0.022194,0,-0.0023621,0,0,0,0.028143,-0.00014386,0.0083997,-0.92027,0.012133,0.025129,5.0877e-07,0.65,0.21,0
0.032559,0.0077724,0.028131,-0.00014626,0.0083954,-0.00044788,0,0,0.051312,-0.022208,0,-0.002329,0,0,0,0.028138,-0.00015335,0.0083954,-0.90719,0.012127,0.025132,5.0868e-07,0.66,0.21,0
0.033072,0.0077741,0.028127,-0.00015502,0.0083915,-0.00044062,0,0,0.051311,-0.022221,0,-0.0022912,0,0,0,0.028133,-0.00016189,0.0083915,-0.89237,0.012121,0.025135,5.086e-07,0.67,0.21,0
0.033585,0.0077751,0.028123,-0.00016293,0.0083879,-0.00043257,0,0,0.05131,-0.022232,0,-0.0022494,0,0,0,0.028129,-0.00016954,0.0083879,-0.87595,0.012116,0.025137,5.0852e-07,0.68,0.21,0
0.034098,0.0077756,0.028119,-0.00017004,0.0083847,-0.00042379,0,0,0.051309,-0.022242,0,-0.0022037,0,0,0,0.028125,-0.00017639,0.0083847,-0.85807,0.012111,0.025139,5.0843e-07,0.69,0.21,0
0.034611,0.0077755,0.028116,-0.00017641,0.0083818,-0.00041434,0,0,0.051308,-0.022251,0,-0.0021545,0,0,0,0.028122,-0.00018248,0.0083818,-0.83885,0.012107,0.025141,5.0836e-07,0.7,0.21,0
0.035124,0.007775,0.028113,-0.0001821,0.0083792,-0.00040427,0,0,0.051307,-0.022259,0,-0.0021022,0,0,0,0.028119,-0.00018787,0.0083792,-0.81842,0.012103,0.025142,5.0828e-07,0.71,0.21,0
0.035637,0.007774,0.02811,-0.00018716,0.0083768,-0.00039366,0,0,0.051306,-0.022266,0,-0.002047,0,0,0,0.028115,-0.00019264,0.0083768,-0.79687,0.0121,0.025143,5.082e-07,0.72,0.21,0
0.03615,0.0077728,0.028107,-0.00019164,0.0083747,-0.00038253,0,0,0.051305,-0.022273,0,-0.0019892,0,0,0,0.028113,-0.00019681,0.0083747,-0.77431,0.012097,0.025144,5.0813e-07,0.73,0.21,0
0.036663,0.0077712,0.028105,-0.0001956,0.0083729,-0.00037095,0,0,0.051304,-0.022278,0,-0.0019289,0,0,0,0.02811,-0.00020046,0.0083729,-0.75083,0.012094,0.025145,5.0806e-07,0.74,0.21,0
0.037176,0.0077693,0.028103,-0.00019906,0.0083712,-0.00035895,0,0,0.051303,-0.022283,0,-0.0018666,0,0,0,0.028108,-0.00020362,0.0083712,-0.72652,0.012092,0.025146,5.08e-07,0.75,0.21,0
0.037689,0.0077672,0.028101,-0.00020209,0.0083698,-0.00034658,0,0,0.051302,-0.022287,0,-0.0018022,0,0,0,0.028106,-0.00020633,0.0083698,-0.70146,0.01209,0.025146,5.0793e-07,0.76,0.21,0
0.038202,0.0077649,0.0281,-0.00020471,0.0083685,-0.00033387,0,0,0.051301,-0.02229,0,-0.0017361,0,0,0,0.028104,-0.00020865,0.0083685,-0.67572,0.012088,0.025146,5.0787e-07,0.77,0.21,0
0.038715,0.0077625,0.028098,-0.00020697,0.0083674,-0.00032086,0,0,0.0513,-0.022293,0,-0.0016685,0,0,0,0.028102,-0.0002106,0.0083674,-0.64938,0.012086,0.025146,5.0782e-07,0.78,0.21,0
0.039228,0.0077599,0.028097,-0.0002089,0.0083664,-0.00030758,0,0,0.051299,-0.022296,0,-0.0015994,0,0,0,0.0281,-0.00021224,0.0083664,-0.62249,0.012085,0.025146,5.0776e-07,0.79,0.21,0
0.039741,0.0077573,0.028096,-0.00021053,0.0083656,-0.00029405,0,0,0.051299,-0.022298,0,-0.0015291,0,0,0,0.028099,-0.00021358,0.0083656,-0.59511,0.012084,0.025146,5.0771e-07,0.8,0.21,0
0.040254,0.0077547,0.028095,-0.0002119,0.0083649,-0.00028031,0,0,0.051298,-0.0223,0,-0.0014576,0,0,0,0.028098,-0.00021467,0.0083649,-0.5673,0.012083,0.025145,5.0766e-07,0.81,0.21,0
0.040767,0.007752,0.028094,-0.00021303,0.0083643,-0.00026637,0,0,0.051297,-0.022301,0,-0.0013851,0,0,0,0.028096,-0.00021553,0.0083643,-0.5391,0.012082,0.025145,5.0761e-07,0.82,0.21,0
0.04128,0.0077493,0.028093,-0.00021395,0.0083638,-0.00025227,0,0,0.051297,-0.022302,0,-0.0013118,0,0,0,0.028095,-0.0002162,0.0083638,-0.51056,0.012081,0.025145,5.0757e-07,0.83,0.21,0
0.041793,0.0077466,0.028092,-0.00021469,0.0083633,-0.00023801,0,0,0.051296,-0.022303,0,-0.0012377,0,0,0,0.028095,-0.0002167,0.0083633,-0.48171,0.01208,0.025144,5.0753e-07,0.84,0.21,0
0.042306,0.007744,0.028092,-0.00021528,0.008363,-0.00022363,0,0,0.051295,-0.022304,0,-0.0011629,0,0,0,0.028094,-0.00021705,0.008363,-0.4526,0.01208,0.025144,5.0749e-07,0.85,0.21,0
0.042819,0.0077415,0.028091,-0.00021573,0.0083627,-0.00020913,0,0,0.051295,-0.022304,0,-0.0010875,0,0,0,0.028093,-0.00021727,0.0083627,-0.42325,0.012079,0.025143,5.0746e-07,0.86,0.21,0
0.043332,0.0077391,0.028091,-0.00021606,0.0083625,-0.00019452,0,0,0.051294,-0.022304,0,-0.0010115,0,0,0,0.028092,-0.0002174,0.0083625,-0.3937,0.012079,0.025143,5.0743e-07,0.87,0.21,0
0.043845,0.0077367,0.028091,-0.00021629,0.0083623,-0.00017983,0,0,0.051294,-0.022304,0,-0.00093512,0,0,0,0.028092,-0.00021744,0.0083623,-0.36398,0.012079,0.025142,5.074e-07,0.88,0.21,0
0.044358,0.0077345,0.02809,-0.00021645,0.0083622,-0.00016506,0,0,0.051293,-0.022304,0,-0.00085834,0,0,0,0.028091,-0.00021741,0.0083622,-0.33409,0.012079,0.025142,5.0737e-07,0.89,0.21,0
0.044871,0.0077325,0.02809,-0.00021654,0.0083621,-0.00015023,0,0,0.051293,-0.022304,0,-0.00078122,0,0,0,0.028091,-0.00021734,0.0083621,-0.30408,0.012079,0.025142,5.0734e-07,0.9,0.21,0
0.045384,0.0077306,0.02809,-0.00021658,0.008362,-0.00013535,0,0,0.051292,-0.022304,0,-0.0007038,0,0,0,0.028091,-0.00021723,0.008362,-0.27395,0.012078,0.025141,5.0732e-07,0.91,0.21,0
0.045897,0.0077289,0.02809,-0.00021658,0.0083619,-0.00012041,0,0,0.051292,-0.022304,0,-0.00062615,0,0,0,0.02809,-0.00021709,0.0083619,-0.24373,0.012078,0.025141,5.073e-07,0.92,0.21,0
0.04641,0.0077273,0.028089,-0.00021656,0.0083619,-0.00010544,0,0,0.051292,-0.022304,0,-0.00054828,0,0,0,0.02809,-0.00021695,0.0083619,-0.21342,0.012078,0.02514,5.0729e-07,0.93,0.21,0
0.046922,0.0077259,0.028089,-0.00021652,0.0083619,-9.0432e-05,0,0,0.051292,-0.022304,0,-0.00047025,0,0,0,0.02809,-0.00021681,0.0083619,-0.18305,0.012078,0.02514,5.0727e-07,0.94,0.21,0
0.047435,0.0077248,0.028089,-0.00021647,0.0083619,-7.5399e-05,0,0,0.051291,-0.022304,0,-0.00039207,0,0,0,0.028089,-0.00021667,0.0083619,-0.15262,0.012078,0.02514,5.0726e-07,0.95,0.21,0
0.047948,0.0077238,0.028089,-0.00021642,0.0083618,-6.0343e-05,0,0,0.051291,-0.022304,0,-0.00031379,0,0,0,0.028089,-0.00021655,0.0083618,-0.12215,0.012078,0.025139,5.0725e-07,0.96,0.21,0
0.048461,0.0077231,0.028089,-0.00021638,0.0083618,-4.5272e-05,0,0,0.051291,-0.022303,0,-0.00023541,0,0,0,0.028089,-0.00021645,0.0083618,-0.091638,0.012078,0.025139,5.0724e-07,0.97,0.21,0
0.048974,0.0077225,0.028089,-0.00021634,0.0083618,-3.0188e-05,0,0,0.051291,-0.022303,0,-0.00015698,0,0,0,0.028089,-0.00021637,0.0083618,-0.061106,0.012078,0.025139,5.0724e-07,0.98,0.21,0
0.049487,0.0077222,0.028089,-0.00021632,0.0083618,-1.5096e-05,0,0,0.051291,-0.022303,0,-7.8498e-05,0,0,0,0.028089,-0.00021633,0.0083618,-0.030557,0.012078,0.025139,5.0723e-07,0.99,0.21,0
0.05,0.0077221,0.028089,-0.00021631,0.0083618,-2.0962e-06,0,0,0.051291,-0.022303,0,-1.09e-05,0,0,0,0.028089,-0.00021631,0.0083618,-0.0042431,0.012078,0.025139,5.0723e-07,1,0.21,0
0,0,0.02683,0.011499,0.011499,0.0051261,0,0,0.039862,0,0,0.026656,0,0,0,0.028386,0.0099427,0.011499,16.885,0.016609,0.017717,2.782e-07,0,0.22,0
0.00039862,0.00026656,0.026795,0.011048,0.011353,0.0051215,0,0,0.040149,-0.00079207,0,0.026632,0,0,0,0.028314,0.009529,0.011353,16.522,0.016399,0.017943,2.8636e-07,0.01,0.22,0
0.00080297,0.00053447,0.026948,0.01066,0.011282,0.0051185,0,0,0.040731,-0.0016181,0,0.026616,0,0,0,0.028423,0.0091851,0.011282,16.075,0.016297,0.01828,2.9983e-07,0.02,0.22,0
0.0012132,0.00080306,0.027103,0.010257,0.011208,0.0050966,0,0,0.041327,-0.0024729,0,0.026502,0,0,0,0.028525,0.008835,0.011208,15.589,0.016189,0.018617,3.1334e-07,0.03,0.22,0
0.0016295,0.0010716,0.027259,0.0098414,0.01113,0.0050548,0,0,0.041934,-0.0033504,0,0.026285,0,0,0,0.028619,0.0084807,0.01113,15.066,0.016077,0.018953,3.2677e-07,0.04,0.22,0
0.0020519,0.0013393,0.027413,0.0094168,0.011049,0.0049926,0,0,0.042546,-0.0042434,0,0.025962,0,0,0,0.028705,0.0081245,0.011049,14.512,0.01596,0.019286,3.4001e-07,0.05,0.22,0
0.0024804,0.0016053,0.027564,0.0089866,0.010965,0.0049101,0,0,0.043157,-0.0051443,0,0.025532,0,0,0,0.028782,0.0077687,0.010965,13.931,0.015838,0.019611,3.5294e-07,0.06,0.22,0
0.0029151,0.001869,0.02771,0.0085541,0.010879,0.0048078,0,0,0.04376,-0.0060454,0,0.025,0,0,0,0.028849,0.0074152,0.010879,13.327,0.015714,0.019929,3.6546e-07,0.07,0.22,0
0.0033556,0.0021294,0.02785,0.0081229,0.010792,0.0046868,0,0,0.044351,-0.0069393,0,0.024372,0,0,0,0.028907,0.007066,0.010792,12.708,0.015588,0.020237,3.7747e-07,0.08,0.22,0
0.0038021,0.0023858,0.027982,0.0076961,0.010703,0.0045488,0,0,0.044924,-0.007819,0,0.023654,0,0,0,0.028955,0.0067228,0.010703,12.078,0.015461,0.020534,3.8892e-07,0.09,0.22,0
0.0042541,0.0026376,0.028105,0.0072765,0.010614,0.0043956,0,0,0.045475,-0.0086785,0,0.022857,0,0,0,0.028994,0.0063869,0.010614,11.442,0.015332,0.020818,3.9975e-07,0.1,0.22,0
0.0047116,0.0028841,0.028218,0.0068667,0.010525,0.0042293,0,0,0.046001,-0.0095126,0,0.021993,0,0,0,0.029025,0.0060595,0.010525,10.806,0.015203,0.02109,4.0993e-07,0.11,0.22,0
0.0051741,0.0031247,0.02832,0.0064687,0.010437,0.0040522,0,0,0.046498,-0.010317,0,0.021071,0,0,0,0.029048,0.0057415,0.010437,10.174,0.015075,0.021349,4.1945e-07,0.12,0.22,0
0.0056415,0.0033589,0.028412,0.0060842,0.010349,0.0038664,0,0,0.046965,-0.011088,0,0.020105,0,0,0,0.029063,0.0054336,0.010349,9.5511,0.014948,0.021595,4.2829e-07,0.13,0.22,0
0.0061134,0.0035864,0.028493,0.0057143,0.010262,0.0036742,0,0,0.047401,-0.011825,0,0.019106,0,0,0,0.029071,0.0051363,0.010262,8.9398,0.014823,0.021828,4.3648e-07,0.14,0.22,0
0.0065895,0.0038067,0.028563,0.0053599,0.010177,0.0034778,0,0,0.047805,-0.012524,0,0.018084,0,0,0,0.029074,0.0048499,0.010177,8.3434,0.0147,0.022048,4.4403e-07,0.15,0.22,0
0.0070695,0.0040196,0.028623,0.0050216,0.010094,0.0032791,0,0,0.048178,-0.013187,0,0.017051,0,0,0,0.029071,0.0045745,0.010094,7.7644,0.01458,0.022256,4.5096e-07,0.16,0.22,0
0.0075531,0.004225,0.028674,0.0046996,0.010012,0.0030798,0,0,0.04852,-0.013812,0,0.016015,0,0,0,0.029063,0.0043103,0.010012,7.2047,0.014462,0.022451,4.5731e-07,0.17,0.22,0
0.0080399,0.0044226,0.028714,0.0043938,0.0099325,0.0028816,0,0,0.048833,-0.014401,0,0.014984,0,0,0,0.029051,0.0040571,0.0099325,6.6658,0.014347,0.022636,4.6311e-07,0.18,0.22,0
0.0085298,0.0046123,0.028747,0.0041041,0.0098553,0.0026859,0,0,0.049118,-0.014953,0,0.013967,0,0,0,0.029036,0.0038148,0.0098553,6.1488,0.014235,0.022809,4.684e-07,0.19,0.22,0
0.0090223,0.0047942,0.028771,0.0038301,0.0097804,0.0024939,0,0,0.049376,-0.015471,0,0.012968,0,0,0,0.029018,0.0035832,0.0097804,5.6544,0.014127,0.022972,4.7322e-07,0.2,0.22,0
0.0095173,0.0049683,0.028789,0.0035714,0.009708,0.0023064,0,0,0.04961,-0.015955,0,0.011993,0,0,0,0.028998,0.0033622,0.009708,5.1831,0.014023,0.023125,4.7759e-07,0.21,0.22,0
0.010015,0.0051346,0.0288,0.0033273,0.0096381,0.0021244,0,0,0.04982,-0.016408,0,0.011047,0,0,0,0.028976,0.0031513,0.0096381,4.735,0.013922,0.023269,4.8155e-07,0.22,0.22,0
0.010514,0.0052932,0.028805,0.0030973,0.0095707,0.0019485,0,0,0.050009,-0.016831,0,0.010132,0,0,0,0.028952,0.0029504,0.0095707,4.3099,0.013824,0.023404,4.8514e-07,0.23,0.22,0
0.011015,0.0054443,0.028805,0.0028807,0.0095058,0.0017792,0,0,0.050179,-0.017225,0,0.0092516,0,0,0,0.028927,0.0027592,0.0095058,3.9077,0.013731,0.023531,4.8839e-07,0.24,0.22,0
0.011517,0.0055879,0.028802,0.0026769,0.0094435,0.0016167,0,0,0.050331,-0.017593,0,0.0084071,0,0,0,0.028901,0.0025772,0.0094435,3.5279,0.013641,0.023651,4.9133e-07,0.25,0.22,0
0.012021,0.0057243,0.028794,0.0024852,0.0093837,0.0014615,0,0,0.050466,-0.017936,0,0.0075999,0,0,0,0.028875,0.0024043,0.0093837,3.17,0.013554,0.023762,4.9397e-07,0.26,0.22,0
0.012527,0.0058537,0.028783,0.002305,0.0093265,0.0013136,0,0,0.050588,-0.018256,0,0.0068309,0,0,0,0.028848,0.00224,0.0093265,2.8333,0.013472,0.023867,4.9636e-07,0.27,0.22,0
0.013033,0.0059762,0.02877,0.0021356,0.0092716,0.0011731,0,0,0.050695,-0.018554,0,0.0061004,0,0,0,0.028821,0.0020841,0.0092716,2.5172,0.013392,0.023966,4.985e-07,0.28,0.22,0
0.013541,0.006092,0.028754,0.0019765,0.0092192,0.0010401,0,0,0.050791,-0.018831,0,0.0054084,0,0,0,0.028795,0.0019362,0.0092192,2.221,0.013317,0.024058,5.0043e-07,0.29,0.22,0
0.014049,0.0062014,0.028737,0.001827,0.0091692,0.00091432,0,0,0.050876,-0.01909,0,0.0047545,0,0,0,0.028768,0.001796,0.0091692,1.9438,0.013244,0.024145,5.0216e-07,0.3,0.22,0
0.014558,0.0063047,0.028718,0.0016866,0.0091214,0.0007958,0,0,0.050951,-0.01933,0,0.0041382,0,0,0,0.028741,0.0016632,0.0091214,1.6848,0.013175,0.024226,5.037e-07,0.31,0.22,0
0.015068,0.0064019,0.028698,0.0015548,0.0090759,0.00068436,0,0,0.051018,-0.019555,0,0.0035587,0,0,0,0.028715,0.0015375,0.0090759,1.4434,0.01311,0.024302,5.0508e-07,0.32,0.22,0
0.015578,0.0064934,0.028678,0.001431,0.0090326,0.00057983,0,0,0.051077,-0.019764,0,0.0030151,0,0,0,0.02869,0.0014187,0.0090326,1.2186,0.013047,0.024373,5.0631e-07,0.33,0.22,0
0.016089,0.0065793,0.028656,0.0013149,0.0089913,0.00048199,0,0,0.051129,-0.019959,0,0.0025064,0,0,0,0.028665,0.0013064,0.0089913,1.0096,0.012988,0.024439,5.074e-07,0.34,0.22,0
0.016601,0.0066599,0.028635,0.0012059,0.0089521,0.00039064,0,0,0.051174,-0.02014,0,0.0020313,0,0,0,0.02864,0.0012003,0.0089521,0.81579,0.012931,0.024502,5.0837e-07,0.35,0.22,0
0.017113,0.0067355,0.028613,0.0011036,0.0089149,0.00030554,0,0,0.051215,-0.02031,0,0.0015888,0,0,0,0.028616,0.0011002,0.0089149,0.63626,0.012877,0.02456,5.0922e-07,0.36,0.22,0
0.017625,0.0068062,0.028591,0.0010077,0.0088796,0.00022644,0,0,0.05125,-0.020467,0,0.0011775,0,0,0,0.028593,0.0010058,0.0088796,0.47032,0.012826,0.024614,5.0997e-07,0.37,0.22,0
0.018138,0.0068723,0.028569,0.00091771,0.0088461,0.00015311,0,0,0.05128,-0.020614,0,0.00079617,0,0,0,0.02857,0.00091686,0.0088461,0.31724,0.012778,0.024664,5.1062e-07,0.38,0.22,0
0.018651,0.0069339,0.028548,0.00083341,0.0088144,8.5288e-05,0,0,0.051307,-0.020751,0,0.0004435,0,0,0,0.028548,0.00083314,0.0088144,0.17632,0.012732,0.024711,5.1118e-07,0.39,0.22,0
0.019164,0.0069913,0.028527,0.00075441,0.0087844,2.2728e-05,0,0,0.05133,-0.020878,0,0.00011819,0,0,0,0.028527,0.0007544,0.0087844,0.046889,0.012689,0.024754,5.1167e-07,0.4,0.22,0
0.019678,0.0070447,0.028506,0.00068043,0.008756,-3.4817e-05,0,0,0.051351,-0.020997,0,-0.00018105,0,0,0,0.028506,0.00068039,0.008756,-0.071691,0.012648,0.024795,5.1208e-07,0.41,0.22,0
0.020191,0.0070943,0.028486,0.00061117,0.0087292,-8.7592e-05,0,0,0.051368,-0.021107,0,-0.00045548,0,0,0,0.028486,0.0006109,0.0087292,-0.18004,0.012609,0.024832,5.1243e-07,0.42,0.22,0
0.020705,0.0071403,0.028466,0.00054637,0.0087038,-0.00013584,0,0,0.051383,-0.021209,0,-0.00070635,0,0,0,0.028467,0.00054571,0.0087038,-0.27875,0.012572,0.024867,5.1273e-07,0.43,0.22,0
0.021219,0.0071828,0.028447,0.00048578,0.00868,-0.00017979,0,0,0.051395,-0.021305,0,-0.00093488,0,0,0,0.028449,0.00048462,0.00868,-0.36838,0.012538,0.024899,5.1296e-07,0.44,0.22,0
0.021733,0.007222,0.028429,0.00042915,0.0086574,-0.00021967,0,0,0.051406,-0.021393,0,-0.0011423,0,0,0,0.028431,0.00042742,0.0086574,-0.44947,0.012505,0.024929,5.1315e-07,0.45,0.22,0
0.022247,0.0072582,0.028411,0.00037626,0.0086362,-0.0002557,0,0,0.051415,-0.021476,0,-0.0013297,0,0,0,0.028414,0.00037393,0.0086362,-0.52253,0.012474,0.024956,5.133e-07,0.46,0.22,0
0.022761,0.0072914,0.028394,0.0003269,0.0086163,-0.00028811,0,0,0.051422,-0.021552,0,-0.0014982,0,0,0,0.028397,0.00032394,0.0086163,-0.58806,0.012446,0.024981,5.134e-07,0.47,0.22,0
0.023275,0.0073219,0.028378,0.00028087,0.0085975,-0.00031709,0,0,0.051428,-0.021623,0,-0.0016489,0,0,0,0.028381,0.00027729,0.0085975,-0.6465,0.012419,0.025004,5.1347e-07,0.48,0.22,0
0.02379,0.0073498,0.028362,0.00023799,0.0085799,-0.00034284,0,0,0.051433,-0.021689,0,-0.0017828,0,0,0,0.028366,0.00023381,0.0085799,-0.69832,0.012393,0.025026,5.1351e-07,0.49,0.22,0
0.024304,0.0073752,0.028347,0.00019806,0.0085634,-0.00036556,0,0,0.051436,-0.02175,0,-0.0019009,0,0,0,0.028351,0.00019332,0.0085634,-0.74391,0.012369,0.025045,5.1352e-07,0.5,0.22,0
0.024818,0.0073984,0.028332,0.00016093,0.0085479,-0.00038542,0,0,0.051439,-0.021806,0,-0.0020042,0,0,0,0.028337,0.00015566,0.0085479,-0.78369,0.012347,0.025063,5.1351e-07,0.51,0.22,0
0.025333,0.0074193,0.028318,0.00012643,0.0085334,-0.00040261,0,0,0.051441,-0.021858,0,-0.0020936,0,0,0,0.028324,0.00012069,0.0085334,-0.81802,0.012326,0.025079,5.1347e-07,0.52,0.22,0
0.025847,0.0074383,0.028305,9.4417e-05,0.0085199,-0.00041729,0,0,0.051442,-0.021906,0,-0.0021699,0,0,0,0.028311,8.8246e-05,0.0085199,-0.84726,0.012306,0.025093,5.1342e-07,0.53,0.22,0
0.026361,0.0074553,0.028293,6.4735e-05,0.0085072,-0.00042961,0,0,0.051442,-0.02195,0,-0.002234,0,0,0,0.028299,5.8198e-05,0.0085072,-0.87174,0.012288,0.025106,5.1334e-07,0.54,0.22,0
0.026876,0.0074705,0.028281,3.7253e-05,0.0084954,-0.00043974,0,0,0.051442,-0.021991,0,-0.0022867,0,0,0,0.028288,3.0408e-05,0.0084954,-0.8918,0.012271,0.025118,5.1325e-07,0.55,0.22,0
0.02739,0.007484,0.028269,1.184e-05,0.0084844,-0.00044782,0,0,0.051441,-0.022029,0,-0.0023287,0,0,0,0.028276,4.7444e-06,0.0084844,-0.90771,0.012255,0.025129,5.1315e-07,0.56,0.22,0
0.027905,0.007496,0.028259,-1.1629e-05,0.0084741,-0.00045398,0,0,0.05144,-0.022063,0,-0.0023607,0,0,0,0.028266,-1.8917e-05,0.0084741,-0.91977,0.01224,0.025138,5.1304e-07,0.57,0.22,0
0.028419,0.0075066,0.028248,-3.3269e-05,0.0084646,-0.00045836,0,0,0.051438,-0.022094,0,-0.0023835,0,0,0,0.028256,-4.0695e-05,0.0084646,-0.92826,0.012227,0.025147,5.1291e-07,0.58,0.22,0
0.028934,0.0075158,0.028239,-5.3193e-05,0.0084557,-0.00046107,0,0,0.051436,-0.022123,0,-0.0023976,0,0,0,0.028246,-6.0705e-05,0.0084557,-0.93341,0.012214,0.025154,5.1278e-07,0.59,0.22,0
0.029448,0.0075238,0.02823,-7.1507e-05,0.0084475,-0.00046224,0,0,0.051434,-0.022149,0,-0.0024036,0,0,0,0.028237,-7.9055e-05,0.0084475,-0.93547,0.012202,0.025161,5.1265e-07,0.6,0.22,0
0.029962,0.0075305,0.028221,-8.8312e-05,0.0084399,-0.00046197,0,0,0.051432,-0.022173,0,-0.0024023,0,0,0,0.028229,-9.5849e-05,0.0084399,-0.93466,0.012191,0.025167,5.125e-07,0.61,0.22,0
0.030477,0.0075363,0.028213,-0.0001037,0.0084328,-0.00046038,0,0,0.051429,-0.022195,0,-0.002394,0,0,0,0.028221,-0.00011119,0.0084328,-0.93119,0.012181,0.025172,5.1236e-07,0.62,0.22,0
0.030991,0.007541,0.028206,-0.00011778,0.0084264,-0.00045755,0,0,0.051426,-0.022215,0,-0.0023793,0,0,0,0.028213,-0.00012516,0.0084264,-0.92527,0.012171,0.025176,5.1221e-07,0.63,0.22,0
0.031505,0.0075448,0.028199,-0.00013061,0.0084204,-0.00045359,0,0,0.051423,-0.022232,0,-0.0023587,0,0,0,0.028206,-0.00013787,0.0084204,-0.91708,0.012163,0.02518,5.1206e-07,0.64,0.22,0
0.032019,0.0075478,0.028192,-0.00014229,0.0084148,-0.00044858,0,0,0.05142,-0.022249,0,-0.0023326,0,0,0,0.028199,-0.00014939,0.0084148,-0.90679,0.012155,0.025183,5.1191e-07,0.65,0.22,0
0.032533,0.00755,0.028185,-0.0001529,0.0084098,-0.00044259,0,0,0.051417,-0.022263,0,-0.0023015,0,0,0,0.028192,-0.00015981,0.0084098,-0.89456,0.012148,0.025186,5.1175e-07,0.66,0.22,0
0.033048,0.0075516,0.02818,-0.00016251,0.0084051,-0.00043572,0,0,0.051414,-0.022276,0,-0.0022657,0,0,0,0.028186,-0.0001692,0.0084051,-0.88056,0.012141,0.025188,5.116e-07,0.67,0.22,0
0.033562,0.0075525,0.028174,-0.00017119,0.0084009,-0.00042803,0,0,0.05141,-0.022287,0,-0.0022257,0,0,0,0.028181,-0.00017765,0.0084009,-0.86493,0.012135,0.025189,5.1145e-07,0.68,0.22,0
0.034076,0.0075529,0.028169,-0.000179,0.008397,-0.00041958,0,0,0.051407,-0.022298,0,-0.0021818,0,0,0,0.028175,-0.00018521,0.008397,-0.8478,0.012129,0.025191,5.113e-07,0.69,0.22,0
0.03459,0.0075527,0.028164,-0.00018602,0.0083934,-0.00041045,0,0,0.051404,-0.022307,0,-0.0021344,0,0,0,0.02817,-0.00019196,0.0083934,-0.82929,0.012124,0.025192,5.1116e-07,0.7,0.22,0
0.035104,0.0075521,0.02816,-0.0001923,0.0083902,-0.00040069,0,0,0.051401,-0.022315,0,-0.0020836,0,0,0,0.028165,-0.00019796,0.0083902,-0.80953,0.012119,0.025192,5.1101e-07,0.71,0.22,0
0.035618,0.0075511,0.028155,-0.0001979,0.0083873,-0.00039035,0,0,0.051397,-0.022322,0,-0.0020299,0,0,0,0.028161,-0.00020327,0.0083873,-0.78862,0.012115,0.025192,5.1087e-07,0.72,0.22,0
0.036132,0.0075497,0.028152,-0.00020287,0.0083846,-0.0003795,0,0,0.051394,-0.022328,0,-0.0019734,0,0,0,0.028157,-0.00020795,0.0083846,-0.76667,0.012111,0.025192,5.1073e-07,0.73,0.22,0
0.036646,0.0075481,0.028148,-0.00020727,0.0083822,-0.00036817,0,0,0.051391,-0.022333,0,-0.0019145,0,0,0,0.028153,-0.00021205,0.0083822,-0.74376,0.012108,0.025192,5.106e-07,0.74,0.22,0
0.03716,0.0075462,0.028145,-0.00021113,0.0083801,-0.0003564,0,0,0.051388,-0.022337,0,-0.0018533,0,0,0,0.028149,-0.00021561,0.0083801,-0.72,0.012105,0.025192,5.1047e-07,0.75,0.22,0
0.037673,0.007544,0.028142,-0.00021452,0.0083781,-0.00034425,0,0,0.051385,-0.022341,0,-0.0017901,0,0,0,0.028146,-0.0002187,0.0083781,-0.69545,0.012102,0.025191,5.1035e-07,0.76,0.22,0
0.038187,0.0075417,0.028139,-0.00021747,0.0083764,-0.00033174,0,0,0.051382,-0.022344,0,-0.0017251,0,0,0,0.028143,-0.00022135,0.0083764,-0.67019,0.012099,0.025191,5.1022e-07,0.77,0.22,0
0.038701,0.0075393,0.028136,-0.00022002,0.0083748,-0.00031892,0,0,0.051379,-0.022347,0,-0.0016584,0,0,0,0.02814,-0.0002236,0.0083748,-0.6443,0.012097,0.02519,5.1011e-07,0.78,0.22,0
0.039215,0.0075367,0.028134,-0.00022221,0.0083734,-0.00030582,0,0,0.051377,-0.022349,0,-0.0015902,0,0,0,0.028137,-0.00022551,0.0083734,-0.61783,0.012095,0.025189,5.1e-07,0.79,0.22,0
0.039729,0.0075341,0.028132,-0.00022408,0.0083722,-0.00029245,0,0,0.051374,-0.02235,0,-0.0015208,0,0,0,0.028134,-0.00022709,0.0083722,-0.59086,0.012093,0.025188,5.0989e-07,0.8,0.22,0
0.040242,0.0075314,0.028129,-0.00022565,0.0083711,-0.00027886,0,0,0.051372,-0.022352,0,-0.0014501,0,0,0,0.028132,-0.00022839,0.0083711,-0.56341,0.012092,0.025187,5.0979e-07,0.81,0.22,0
0.040756,0.0075287,0.028127,-0.00022697,0.0083702,-0.00026507,0,0,0.051369,-0.022353,0,-0.0013784,0,0,0,0.02813,-0.00022945,0.0083702,-0.53556,0.01209,0.025186,5.0969e-07,0.82,0.22,0
0.04127,0.007526,0.028126,-0.00022806,0.0083693,-0.0002511,0,0,0.051367,-0.022353,0,-0.0013057,0,0,0,0.028128,-0.00023028,0.0083693,-0.50735,0.012089,0.025185,5.096e-07,0.83,0.22,0
0.041784,0.0075233,0.028124,-0.00022895,0.0083686,-0.00023696,0,0,0.051365,-0.022354,0,-0.0012322,0,0,0,0.028126,-0.00023093,0.0083686,-0.4788,0.012088,0.025184,5.0952e-07,0.84,0.22,0
0.042297,0.0075207,0.028123,-0.00022966,0.008368,-0.00022268,0,0,0.051363,-0.022354,0,-0.001158,0,0,0,0.028125,-0.00023141,0.008368,-0.44997,0.012087,0.025183,5.0944e-07,0.85,0.22,0
0.042811,0.0075182,0.028122,-0.00023022,0.0083674,-0.00020829,0,0,0.051361,-0.022354,0,-0.0010831,0,0,0,0.028123,-0.00023175,0.0083674,-0.42089,0.012086,0.025182,5.0936e-07,0.86,0.22,0
0.043324,0.0075158,0.02812,-0.00023065,0.0083669,-0.00019378,0,0,0.051359,-0.022354,0,-0.0010076,0,0,0,0.028122,-0.00023197,0.0083669,-0.39159,0.012086,0.025181,5.0929e-07,0.87,0.22,0
0.043838,0.0075134,0.028119,-0.00023097,0.0083665,-0.00017917,0,0,0.051357,-0.022353,0,-0.00093169,0,0,0,0.02812,-0.0002321,0.0083665,-0.36209,0.012085,0.02518,5.0922e-07,0.88,0.22,0
0.044352,0.0075112,0.028118,-0.0002312,0.0083661,-0.00016448,0,0,0.051356,-0.022353,0,-0.00085532,0,0,0,0.028119,-0.00023215,0.0083661,-0.33242,0.012084,0.025179,5.0917e-07,0.89,0.22,0
0.044865,0.0075092,0.028118,-0.00023135,0.0083659,-0.00014973,0,0,0.051354,-0.022353,0,-0.00077858,0,0,0,0.028118,-0.00023214,0.0083659,-0.3026,0.012084,0.025178,5.0911e-07,0.9,0.22,0
0.045379,0.0075073,0.028117,-0.00023144,0.0083656,-0.00013491,0,0,0.051353,-0.022352,0,-0.00070151,0,0,0,0.028117,-0.00023208,0.0083656,-0.27266,0.012084,0.025177,5.0906e-07,0.91,0.22,0
0.045892,0.0075056,0.028116,-0.00023149,0.0083654,-0.00012003,0,0,0.051352,-0.022352,0,-0.00062418,0,0,0,0.028117,-0.000232,0.0083654,-0.2426,0.012083,0.025176,5.0902e-07,0.92,0.22,0
0.046406,0.007504,0.028116,-0.0002315,0.0083652,-0.00010512,0,0,0.051351,-0.022351,0,-0.00054661,0,0,0,0.028116,-0.0002319,0.0083652,-0.21246,0.012083,0.025175,5.0898e-07,0.93,0.22,0
0.046919,0.0075027,0.028115,-0.0002315,0.0083651,-9.0164e-05,0,0,0.05135,-0.022351,0,-0.00046885,0,0,0,0.028115,-0.00023178,0.0083651,-0.18224,0.012083,0.025175,5.0895e-07,0.94,0.22,0
0.047433,0.0075015,0.028115,-0.00023147,0.008365,-7.518e-05,0,0,0.051349,-0.022351,0,-0.00039094,0,0,0,0.028115,-0.00023167,0.008365,-0.15196,0.012083,0.025174,5.0892e-07,0.95,0.22,0
0.047946,0.0075005,0.028114,-0.00023144,0.0083649,-6.0172e-05,0,0,0.051349,-0.02235,0,-0.0003129,0,0,0,0.028115,-0.00023157,0.0083649,-0.12163,0.012083,0.025174,5.0889e-07,0.96,0.22,0
0.04846,0.0074998,0.028114,-0.00023142,0.0083648,-4.5145e-05,0,0,0.051348,-0.02235,0,-0.00023476,0,0,0,0.028114,-0.00023149,0.0083648,-0.091253,0.012082,0.025174,5.0888e-07,0.97,0.22,0
0.048973,0.0074993,0.028114,-0.00023139,0.0083648,-3.0104e-05,0,0,0.051348,-0.02235,0,-0.00015654,0,0,0,0.028114,-0.00023142,0.0083648,-0.060851,0.012082,0.025173,5.0886e-07,0.98,0.22,0
0.049487,0.0074989,0.028114,-0.00023137,0.0083648,-1.5054e-05,0,0,0.051348,-0.02235,0,-7.8283e-05,0,0,0,0.028114,-0.00023138,0.0083648,-0.03043,0.012082,0.025173,5.0886e-07,0.99,0.22,0
0.05,0.0074988,0.028114,-0.00023137,0.0083647,-2.0907e-06,0,0,0.051348,-0.02235,0,-1.0871e-05,0,0,0,0.028114,-0.00023137,0.0083647,-0.004226,0.012082,0.025173,5.0885e-07,1,0.22,0
0,0,0.026774,0.011475,0.011475,0.0049771,0,0,0.039779,4.8789e-19,0,0.025881,0,0,0,0.028251,0.0099979,0.011475,16.525,0.016574,0.017561,2.7152e-07,0,0.23,0
0.00039779,0.00025881,0.02674,0.011043,0.011335,0.0049724,0,0,0.040052,-0.00075786,0,0.025856,0,0,0,0.028182,0.0096009,0.011335,16.178,0.016373,0.017778,2.7934e-07,0.01,0.23,0
0.00080105,0.00051866,0.026887,0.010673,0.011268,0.0049667,0,0,0.040609,-0.0015465,0,0.025827,0,0,0,0.028287,0.0092726,0.011268,15.747,0.016276,0.0181,2.9208e-07,0.02,0.23,0
0.00121,0.0007789,0.027035,0.010289,0.011197,0.0049435,0,0,0.041179,-0.0023618,0,0.025706,0,0,0,0.028386,0.0089384,0.011197,15.279,0.016174,0.018422,3.0488e-07,0.03,0.23,0
0.0016246,0.0010389,0.027185,0.009893,0.011123,0.004902,0,0,0.041759,-0.0031987,0,0.02549,0,0,0,0.028478,0.0086,0.011123,14.776,0.016067,0.018744,3.1765e-07,0.04,0.23,0
0.0020451,0.0012978,0.027333,0.0094883,0.011046,0.0048416,0,0,0.042346,-0.0040512,0,0.025176,0,0,0,0.028562,0.0082593,0.011046,14.243,0.015956,0.019063,3.3028e-07,0.05,0.23,0
0.0024715,0.0015551,0.027479,0.0090775,0.010967,0.0047626,0,0,0.042932,-0.0049129,0,0.024765,0,0,0,0.028639,0.0079179,0.010967,13.684,0.015841,0.019377,3.4269e-07,0.06,0.23,0
0.0029038,0.0018099,0.027622,0.0086637,0.010886,0.0046654,0,0,0.043514,-0.0057772,0,0.02426,0,0,0,0.028708,0.0075777,0.010886,13.103,0.015724,0.019686,3.548e-07,0.07,0.23,0
0.0033418,0.0020615,0.027759,0.0082498,0.010803,0.0045512,0,0,0.044087,-0.0066376,0,0.023666,0,0,0,0.028769,0.0072403,0.010803,12.506,0.015604,0.019987,3.6653e-07,0.08,0.23,0
0.0037855,0.0023093,0.02789,0.0078386,0.010719,0.0044211,0,0,0.044645,-0.0074878,0,0.022989,0,0,0,0.028821,0.0069071,0.010719,11.898,0.015482,0.020279,3.7782e-07,0.09,0.23,0
0.0042347,0.0025526,0.028013,0.0074328,0.010634,0.0042768,0,0,0.045186,-0.0083225,0,0.022239,0,0,0,0.028866,0.0065795,0.010634,11.284,0.01536,0.020562,3.8862e-07,0.1,0.23,0
0.0046892,0.0027909,0.028128,0.0070347,0.010549,0.0041202,0,0,0.045706,-0.0091365,0,0.021425,0,0,0,0.028904,0.0062585,0.010549,10.669,0.015237,0.020834,3.989e-07,0.11,0.23,0
0.0051488,0.0030235,0.028233,0.0066462,0.010464,0.0039531,0,0,0.046201,-0.0099259,0,0.020556,0,0,0,0.028934,0.0059451,0.010464,10.058,0.015114,0.021096,4.0862e-07,0.12,0.23,0
0.0056133,0.0032501,0.028329,0.006269,0.010379,0.0037777,0,0,0.04667,-0.010687,0,0.019644,0,0,0,0.028958,0.0056401,0.010379,9.4529,0.014993,0.021347,4.1778e-07,0.13,0.23,0
0.0060822,0.0034702,0.028416,0.0059045,0.010296,0.0035959,0,0,0.047111,-0.011418,0,0.018699,0,0,0,0.028976,0.005344,0.010296,8.8588,0.014872,0.021587,4.2638e-07,0.14,0.23,0
0.0065555,0.0036836,0.028492,0.0055534,0.010214,0.0034097,0,0,0.047524,-0.012117,0,0.01773,0,0,0,0.028988,0.0050573,0.010214,8.2782,0.014753,0.021815,4.3442e-07,0.15,0.23,0
0.0070327,0.0038899,0.028559,0.0052166,0.010133,0.0032208,0,0,0.047909,-0.012782,0,0.016748,0,0,0,0.028996,0.0047804,0.010133,7.7135,0.014636,0.022032,4.4191e-07,0.16,0.23,0
0.0075137,0.0040889,0.028617,0.0048944,0.010053,0.0030308,0,0,0.048266,-0.013414,0,0.01576,0,0,0,0.028998,0.0045133,0.010053,7.1668,0.014522,0.022239,4.4887e-07,0.17,0.23,0
0.007998,0.0042806,0.028666,0.0045871,0.009976,0.0028414,0,0,0.048594,-0.014011,0,0.014775,0,0,0,0.028997,0.0042563,0.009976,6.6396,0.01441,0.022434,4.5532e-07,0.18,0.23,0
0.0084856,0.0044647,0.028707,0.0042946,0.0099004,0.0026538,0,0,0.048897,-0.014575,0,0.0138,0,0,0,0.028992,0.0040094,0.0099004,6.133,0.014301,0.02262,4.6127e-07,0.19,0.23,0
0.008976,0.0046414,0.02874,0.0040167,0.0098269,0.0024692,0,0,0.049174,-0.015107,0,0.01284,0,0,0,0.028984,0.0037725,0.0098269,5.6479,0.014195,0.022796,4.6677e-07,0.2,0.23,0
0.009469,0.0048105,0.028766,0.0037531,0.0097557,0.0022885,0,0,0.049426,-0.015607,0,0.0119,0,0,0,0.028973,0.0035454,0.0097557,5.1848,0.014091,0.022962,4.7183e-07,0.21,0.23,0
0.0099645,0.0049722,0.028785,0.0035035,0.0096866,0.0021125,0,0,0.049656,-0.016076,0,0.010985,0,0,0,0.028961,0.0033282,0.0096866,4.7438,0.013992,0.023119,4.7647e-07,0.22,0.23,0
0.010462,0.0051265,0.028799,0.0032674,0.0096199,0.001942,0,0,0.049865,-0.016516,0,0.010098,0,0,0,0.028946,0.0031206,0.0096199,4.3249,0.013895,0.023267,4.8073e-07,0.23,0.23,0
0.010962,0.0052735,0.028807,0.0030443,0.0095555,0.0017774,0,0,0.050055,-0.016929,0,0.0092425,0,0,0,0.028929,0.0029223,0.0095555,3.9281,0.013802,0.023406,4.8463e-07,0.24,0.23,0
0.011463,0.0054134,0.028811,0.0028337,0.0094934,0.0016191,0,0,0.050226,-0.017315,0,0.0084196,0,0,0,0.028911,0.0027332,0.0094934,3.5529,0.013713,0.023538,4.8819e-07,0.25,0.23,0
0.011966,0.0055463,0.028811,0.002635,0.0094337,0.0014675,0,0,0.05038,-0.017677,0,0.0076312,0,0,0,0.028893,0.002553,0.0094337,3.1989,0.013626,0.023662,4.9144e-07,0.26,0.23,0
0.012471,0.0056723,0.028807,0.0024476,0.0093763,0.0013227,0,0,0.050519,-0.018014,0,0.0068782,0,0,0,0.028873,0.0023814,0.0093763,2.8656,0.013543,0.023779,4.944e-07,0.27,0.23,0
0.012977,0.0057918,0.0288,0.0022711,0.0093212,0.0011849,0,0,0.050644,-0.01833,0,0.0061613,0,0,0,0.028852,0.0022182,0.0093212,2.5523,0.013464,0.023888,4.9709e-07,0.28,0.23,0
0.013484,0.0059047,0.02879,0.0021047,0.0092684,0.001054,0,0,0.050756,-0.018625,0,0.0054806,0,0,0,0.028831,0.0020632,0.0092684,2.2583,0.013388,0.023991,4.9952e-07,0.29,0.23,0
0.013992,0.0060115,0.028778,0.0019481,0.0092178,0.00093003,0,0,0.050856,-0.018901,0,0.0048361,0,0,0,0.02881,0.0019159,0.0092178,1.9829,0.013315,0.024088,5.0173e-07,0.3,0.23,0
0.014501,0.0061122,0.028764,0.0018007,0.0091695,0.00081297,0,0,0.050946,-0.019159,0,0.0042274,0,0,0,0.028789,0.0017763,0.0091695,1.7254,0.013245,0.024179,5.0372e-07,0.31,0.23,0
0.015011,0.0062071,0.028749,0.001662,0.0091232,0.00070269,0,0,0.051026,-0.019399,0,0.003654,0,0,0,0.028767,0.0016438,0.0091232,1.485,0.013178,0.024264,5.0551e-07,0.32,0.23,0
0.015521,0.0062964,0.028732,0.0015316,0.0090791,0.00059904,0,0,0.051098,-0.019623,0,0.003115,0,0,0,0.028745,0.0015184,0.0090791,1.261,0.013114,0.024344,5.0712e-07,0.33,0.23,0
0.016033,0.0063803,0.028714,0.001409,0.009037,0.00050186,0,0,0.051161,-0.019833,0,0.0026097,0,0,0,0.028724,0.0013997,0.009037,1.0526,0.013054,0.024418,5.0856e-07,0.34,0.23,0
0.016545,0.0064591,0.028696,0.0012937,0.0089969,0.00041095,0,0,0.051218,-0.020028,0,0.0021369,0,0,0,0.028702,0.0012875,0.0089969,0.859,0.012996,0.024488,5.0984e-07,0.35,0.23,0
0.017057,0.0065329,0.028677,0.0011854,0.0089587,0.00032611,0,0,0.051268,-0.020211,0,0.0016958,0,0,0,0.028681,0.0011815,0.0089587,0.67952,0.01294,0.024553,5.1098e-07,0.36,0.23,0
0.01757,0.0066019,0.028658,0.0010837,0.0089224,0.00024712,0,0,0.051312,-0.020381,0,0.001285,0,0,0,0.02866,0.0010814,0.0089224,0.51343,0.012888,0.024613,5.1199e-07,0.37,0.23,0
0.018083,0.0066665,0.028638,0.00098814,0.0088879,0.00017376,0,0,0.051351,-0.020539,0,0.00090353,0,0,0,0.028639,0.00098704,0.0088879,0.36003,0.012838,0.02467,5.1288e-07,0.38,0.23,0
0.018597,0.0067267,0.028618,0.0008985,0.0088551,0.00010579,0,0,0.051385,-0.020687,0,0.00055011,0,0,0,0.028619,0.0008981,0.0088551,0.21866,0.012791,0.024722,5.1366e-07,0.39,0.23,0
0.019111,0.0067828,0.028599,0.00081442,0.008824,4.2991e-05,0,0,0.051415,-0.020825,0,0.00022356,0,0,0,0.028599,0.00081436,0.008824,0.088655,0.012746,0.024771,5.1433e-07,0.4,0.23,0
0.019625,0.006835,0.028579,0.00073559,0.0087944,-1.4875e-05,0,0,0.05144,-0.020953,0,-7.7352e-05,0,0,0,0.028579,0.00073559,0.0087944,-0.03061,0.012703,0.024816,5.1491e-07,0.41,0.23,0
0.02014,0.0068834,0.02856,0.00066173,0.0087665,-6.804e-05,0,0,0.051463,-0.021072,0,-0.00035381,0,0,0,0.02856,0.00066156,0.0087665,-0.13974,0.012663,0.024858,5.1541e-07,0.42,0.23,0
0.020654,0.0069283,0.028541,0.00059255,0.00874,-0.00011673,0,0,0.051482,-0.021183,0,-0.000607,0,0,0,0.028541,0.00059206,0.00874,-0.2393,0.012625,0.024896,5.1582e-07,0.43,0.23,0
0.021169,0.0069698,0.028522,0.0005278,0.008715,-0.00016117,0,0,0.051499,-0.021287,0,-0.00083809,0,0,0,0.028523,0.00052687,0.008715,-0.32985,0.012588,0.024932,5.1617e-07,0.44,0.23,0
0.021684,0.0070081,0.028504,0.00046723,0.0086913,-0.00020158,0,0,0.051513,-0.021383,0,-0.0010482,0,0,0,0.028505,0.00046578,0.0086913,-0.41192,0.012554,0.024965,5.1645e-07,0.45,0.23,0
0.0222,0.0070434,0.028486,0.00041063,0.008669,-0.00023817,0,0,0.051524,-0.021472,0,-0.0012385,0,0,0,0.028488,0.00040861,0.008669,-0.48601,0.012522,0.024995,5.1666e-07,0.46,0.23,0
0.022715,0.0070759,0.028469,0.00035776,0.0086479,-0.00027115,0,0,0.051534,-0.021554,0,-0.00141,0,0,0,0.028471,0.00035514,0.0086479,-0.55259,0.012492,0.025022,5.1683e-07,0.47,0.23,0
0.02323,0.0071056,0.028452,0.00030842,0.0086281,-0.00030072,0,0,0.051542,-0.021631,0,-0.0015637,0,0,0,0.028455,0.00030521,0.0086281,-0.61212,0.012463,0.025048,5.1695e-07,0.48,0.23,0
0.023746,0.0071328,0.028435,0.00026241,0.0086094,-0.00032707,0,0,0.051548,-0.021702,0,-0.0017008,0,0,0,0.028439,0.00025862,0.0086094,-0.66504,0.012436,0.025071,5.1702e-07,0.49,0.23,0
0.024261,0.0071576,0.02842,0.00021955,0.0085918,-0.00035039,0,0,0.051552,-0.021768,0,-0.001822,0,0,0,0.028424,0.0002152,0.0085918,-0.71176,0.01241,0.025092,5.1705e-07,0.5,0.23,0
0.024777,0.0071802,0.028404,0.00017966,0.0085752,-0.00037086,0,0,0.051556,-0.021828,0,-0.0019285,0,0,0,0.028409,0.00017479,0.0085752,-0.75267,0.012386,0.025111,5.1705e-07,0.51,0.23,0
0.025292,0.0072006,0.02839,0.00014258,0.0085597,-0.00038865,0,0,0.051558,-0.021884,0,-0.002021,0,0,0,0.028395,0.00013723,0.0085597,-0.78813,0.012364,0.025128,5.1701e-07,0.52,0.23,0
0.025808,0.007219,0.028375,0.00010813,0.0085451,-0.00040392,0,0,0.051559,-0.021936,0,-0.0021004,0,0,0,0.028381,0.00010236,0.0085451,-0.8185,0.012343,0.025144,5.1695e-07,0.53,0.23,0
0.026324,0.0072356,0.028362,7.618e-05,0.0085314,-0.00041684,0,0,0.051559,-0.021983,0,-0.0021676,0,0,0,0.028368,7.0039e-05,0.0085314,-0.84411,0.012323,0.025158,5.1686e-07,0.54,0.23,0
0.026839,0.0072504,0.028349,4.6573e-05,0.0085186,-0.00042755,0,0,0.051558,-0.022027,0,-0.0022232,0,0,0,0.028355,4.0115e-05,0.0085186,-0.86528,0.012305,0.025171,5.1675e-07,0.55,0.23,0
0.027355,0.0072636,0.028336,1.9174e-05,0.0085066,-0.00043619,0,0,0.051557,-0.022067,0,-0.0022682,0,0,0,0.028343,1.2457e-05,0.0085066,-0.8823,0.012287,0.025182,5.1662e-07,0.56,0.23,0
0.02787,0.0072752,0.028324,-6.146e-06,0.0084954,-0.00044291,0,0,0.051555,-0.022104,0,-0.0023031,0,0,0,0.028331,-1.3069e-05,0.0084954,-0.89545,0.012271,0.025192,5.1648e-07,0.57,0.23,0
0.028386,0.0072854,0.028313,-2.9512e-05,0.0084849,-0.00044782,0,0,0.051552,-0.022138,0,-0.0023287,0,0,0,0.02832,-3.6586e-05,0.0084849,-0.905,0.012256,0.0252,5.1632e-07,0.58,0.23,0
0.028901,0.0072943,0.028302,-5.1042e-05,0.0084752,-0.00045106,0,0,0.051549,-0.022168,0,-0.0023455,0,0,0,0.028309,-5.8216e-05,0.0084752,-0.91121,0.012242,0.025208,5.1614e-07,0.59,0.23,0
0.029417,0.007302,0.028291,-7.0849e-05,0.0084661,-0.00045274,0,0,0.051545,-0.022196,0,-0.0023543,0,0,0,0.028298,-7.8074e-05,0.0084661,-0.9143,0.012229,0.025215,5.1596e-07,0.6,0.23,0
0.029932,0.0073086,0.028281,-8.904e-05,0.0084577,-0.00045297,0,0,0.051541,-0.022221,0,-0.0023554,0,0,0,0.028288,-9.627e-05,0.0084577,-0.91449,0.012217,0.02522,5.1576e-07,0.61,0.23,0
0.030448,0.0073141,0.028272,-0.00010572,0.0084498,-0.00045185,0,0,0.051537,-0.022244,0,-0.0023496,0,0,0,0.028279,-0.00011291,0.0084498,-0.91201,0.012205,0.025225,5.1556e-07,0.62,0.23,0
0.030963,0.0073186,0.028263,-0.00012097,0.0084425,-0.00044949,0,0,0.051532,-0.022265,0,-0.0023373,0,0,0,0.02827,-0.00012809,0.0084425,-0.90704,0.012195,0.025229,5.1536e-07,0.63,0.23,0
0.031478,0.0073222,0.028254,-0.00013491,0.0084358,-0.00044597,0,0,0.051528,-0.022284,0,-0.002319,0,0,0,0.028261,-0.00014191,0.0084358,-0.89977,0.012185,0.025232,5.1515e-07,0.64,0.23,0
0.031994,0.0073251,0.028246,-0.00014761,0.0084295,-0.00044138,0,0,0.051523,-0.022301,0,-0.0022952,0,0,0,0.028253,-0.00015447,0.0084295,-0.89038,0.012176,0.025235,5.1494e-07,0.65,0.23,0
0.032509,0.0073272,0.028238,-0.00015915,0.0084237,-0.00043581,0,0,0.051518,-0.022315,0,-0.0022662,0,0,0,0.028245,-0.00016584,0.0084237,-0.87903,0.012168,0.025237,5.1473e-07,0.66,0.23,0
0.033024,0.0073286,0.028231,-0.00016962,0.0084184,-0.00042933,0,0,0.051513,-0.022329,0,-0.0022325,0,0,0,0.028237,-0.00017611,0.0084184,-0.86587,0.01216,0.025239,5.1451e-07,0.67,0.23,0
0.033539,0.0073294,0.028224,-0.00017909,0.0084135,-0.00042201,0,0,0.051507,-0.022341,0,-0.0021945,0,0,0,0.02823,-0.00018536,0.0084135,-0.85105,0.012153,0.02524,5.143e-07,0.68,0.23,0
0.034054,0.0073296,0.028217,-0.00018763,0.0084089,-0.00041393,0,0,0.051502,-0.022351,0,-0.0021524,0,0,0,0.028223,-0.00019366,0.0084089,-0.83471,0.012146,0.02524,5.1409e-07,0.69,0.23,0
0.034569,0.0073294,0.028211,-0.00019531,0.0084048,-0.00040514,0,0,0.051497,-0.02236,0,-0.0021068,0,0,0,0.028217,-0.00020109,0.0084048,-0.81695,0.01214,0.025241,5.1388e-07,0.7,0.23,0
0.035084,0.0073287,0.028205,-0.0002022,0.008401,-0.00039571,0,0,0.051492,-0.022368,0,-0.0020577,0,0,0,0.028211,-0.00020771,0.008401,-0.79792,0.012135,0.02524,5.1367e-07,0.71,0.23,0
0.035599,0.0073276,0.0282,-0.00020835,0.0083975,-0.00038569,0,0,0.051486,-0.022375,0,-0.0020056,0,0,0,0.028205,-0.00021358,0.0083975,-0.7777,0.01213,0.02524,5.1347e-07,0.72,0.23,0
0.036114,0.0073262,0.028195,-0.00021382,0.0083943,-0.00037514,0,0,0.051481,-0.022381,0,-0.0019507,0,0,0,0.0282,-0.00021878,0.0083943,-0.75642,0.012125,0.025239,5.1327e-07,0.73,0.23,0
0.036629,0.0073245,0.02819,-0.00021868,0.0083913,-0.00036409,0,0,0.051476,-0.022386,0,-0.0018933,0,0,0,0.028195,-0.00022334,0.0083913,-0.73415,0.012121,0.025238,5.1308e-07,0.74,0.23,0
0.037143,0.0073225,0.028185,-0.00022296,0.0083887,-0.0003526,0,0,0.051471,-0.02239,0,-0.0018335,0,0,0,0.02819,-0.00022734,0.0083887,-0.711,0.012117,0.025237,5.1289e-07,0.75,0.23,0
0.037658,0.0073204,0.028181,-0.00022672,0.0083863,-0.0003407,0,0,0.051466,-0.022394,0,-0.0017717,0,0,0,0.028185,-0.00023081,0.0083863,-0.68704,0.012113,0.025236,5.1271e-07,0.76,0.23,0
0.038173,0.007318,0.028177,-0.00023001,0.0083841,-0.00032844,0,0,0.051462,-0.022397,0,-0.0017079,0,0,0,0.028181,-0.00023381,0.0083841,-0.66234,0.01211,0.025234,5.1253e-07,0.77,0.23,0
0.038687,0.0073155,0.028173,-0.00023286,0.0083821,-0.00031585,0,0,0.051457,-0.022399,0,-0.0016424,0,0,0,0.028177,-0.00023638,0.0083821,-0.63698,0.012108,0.025233,5.1236e-07,0.78,0.23,0
0.039202,0.007313,0.02817,-0.00023533,0.0083803,-0.00030297,0,0,0.051452,-0.022401,0,-0.0015754,0,0,0,0.028173,-0.00023856,0.0083803,-0.61103,0.012105,0.025231,5.122e-07,0.79,0.23,0
0.039716,0.0073103,0.028166,-0.00023744,0.0083787,-0.00028982,0,0,0.051448,-0.022402,0,-0.0015071,0,0,0,0.028169,-0.0002404,0.0083787,-0.58453,0.012103,0.02523,5.1204e-07,0.8,0.23,0
0.040231,0.0073076,0.028163,-0.00023924,0.0083772,-0.00027643,0,0,0.051444,-0.022403,0,-0.0014374,0,0,0,0.028166,-0.00024193,0.0083772,-0.55756,0.012101,0.025228,5.1189e-07,0.81,0.23,0
0.040745,0.0073049,0.028161,-0.00024075,0.0083759,-0.00026282,0,0,0.05144,-0.022403,0,-0.0013667,0,0,0,0.028163,-0.00024319,0.0083759,-0.53015,0.012099,0.025226,5.1174e-07,0.82,0.23,0
0.041259,0.0073022,0.028158,-0.00024202,0.0083748,-0.00024903,0,0,0.051436,-0.022404,0,-0.0012949,0,0,0,0.02816,-0.0002442,0.0083748,-0.50235,0.012097,0.025225,5.1161e-07,0.83,0.23,0
0.041774,0.0072996,0.028155,-0.00024306,0.0083737,-0.00023506,0,0,0.051433,-0.022404,0,-0.0012223,0,0,0,0.028157,-0.000245,0.0083737,-0.47421,0.012095,0.025223,5.1148e-07,0.84,0.23,0
0.042288,0.0072969,0.028153,-0.00024391,0.0083728,-0.00022095,0,0,0.051429,-0.022403,0,-0.0011489,0,0,0,0.028155,-0.00024563,0.0083728,-0.44576,0.012094,0.025221,5.1136e-07,0.85,0.23,0
0.042802,0.0072944,0.028151,-0.00024459,0.008372,-0.0002067,0,0,0.051426,-0.022403,0,-0.0010748,0,0,0,0.028153,-0.00024609,0.008372,-0.41704,0.012093,0.025219,5.1124e-07,0.86,0.23,0
0.043317,0.007292,0.028149,-0.00024512,0.0083713,-0.00019233,0,0,0.051423,-0.022403,0,-0.0010001,0,0,0,0.028151,-0.00024642,0.0083713,-0.38808,0.012092,0.025218,5.1114e-07,0.87,0.23,0
0.043831,0.0072897,0.028148,-0.00024553,0.0083707,-0.00017787,0,0,0.05142,-0.022402,0,-0.00092492,0,0,0,0.028149,-0.00024665,0.0083707,-0.35891,0.012091,0.025216,5.1104e-07,0.88,0.23,0
0.044345,0.0072875,0.028146,-0.00024584,0.0083701,-0.00016331,0,0,0.051418,-0.022401,0,-0.00084923,0,0,0,0.028147,-0.00024678,0.0083701,-0.32955,0.01209,0.025215,5.1095e-07,0.89,0.23,0
0.044859,0.0072854,0.028145,-0.00024606,0.0083696,-0.00014868,0,0,0.051415,-0.022401,0,-0.00077314,0,0,0,0.028146,-0.00024684,0.0083696,-0.30004,0.012089,0.025214,5.1087e-07,0.9,0.23,0
0.045373,0.0072835,0.028143,-0.00024621,0.0083692,-0.00013398,0,0,0.051413,-0.0224,0,-0.0006967,0,0,0,0.028144,-0.00024685,0.0083692,-0.27039,0.012089,0.025212,5.1079e-07,0.91,0.23,0
0.045887,0.0072818,0.028142,-0.00024631,0.0083688,-0.00011922,0,0,0.051411,-0.022399,0,-0.00061996,0,0,0,0.028143,-0.00024681,0.0083688,-0.24062,0.012088,0.025211,5.1072e-07,0.92,0.23,0
0.046402,0.0072803,0.028141,-0.00024637,0.0083685,-0.00010442,0,0,0.05141,-0.022399,0,-0.00054297,0,0,0,0.028142,-0.00024675,0.0083685,-0.21074,0.012088,0.02521,5.1066e-07,0.93,0.23,0
0.046916,0.0072789,0.028141,-0.0002464,0.0083683,-8.9571e-05,0,0,0.051408,-0.022398,0,-0.00046577,0,0,0,0.028141,-0.00024668,0.0083683,-0.18079,0.012087,0.025209,5.1061e-07,0.94,0.23,0
0.04743,0.0072778,0.02814,-0.0002464,0.0083681,-7.4691e-05,0,0,0.051407,-0.022398,0,-0.00038839,0,0,0,0.02814,-0.0002466,0.0083681,-0.15076,0.012087,0.025209,5.1057e-07,0.95,0.23,0
0.047944,0.0072768,0.028139,-0.0002464,0.0083679,-5.9784e-05,0,0,0.051406,-0.022397,0,-0.00031088,0,0,0,0.02814,-0.00024652,0.0083679,-0.12067,0.012087,0.025208,5.1053e-07,0.96,0.23,0
0.048458,0.0072761,0.028139,-0.00024638,0.0083678,-4.4856e-05,0,0,0.051405,-0.022397,0,-0.00023325,0,0,0,0.028139,-0.00024646,0.0083678,-0.090542,0.012087,0.025208,5.105e-07,0.97,0.23,0
0.048972,0.0072755,0.028139,-0.00024637,0.0083677,-2.9912e-05,0,0,0.051404,-0.022396,0,-0.00015554,0,0,0,0.028139,-0.0002464,0.0083677,-0.060379,0.012087,0.025207,5.1049e-07,0.98,0.23,0
0.049486,0.0072752,0.028139,-0.00024636,0.0083676,-1.4959e-05,0,0,0.051404,-0.022396,0,-7.7785e-05,0,0,0,0.028139,-0.00024637,0.0083676,-0.030195,0.012087,0.025207,5.1047e-07,0.99,0.23,0
0.05,0.0072751,0.028138,-0.00024636,0.0083676,-2.0819e-06,0,0,0.051404,-0.022396,0,-1.0826e-05,0,0,0,0.028138,-0.00024636,0.0083676,-0.0042023,0.012087,0.025207,5.1047e-07,1,0.23,0
0,0,0.026727,0.011454,0.011454,0.0048346,0,0,0.039709,7.0473e-19,0,0.02514,0,0,0,0.028129,0.010053,0.011454,16.169,0.016545,0.017418,2.6547e-07,0,0.24,0
0.00039709,0.0002514,0.026694,0.011042,0.011321,0.0048296,0,0,0.039971,-0.00072525,0,0.025114,0,0,0,0.028065,0.0096717,0.011321,15.839,0.016352,0.017626,2.7297e-07,0.01,0.24,0
0.00079942,0.00050354,0.026835,0.010688,0.011257,0.0048214,0,0,0.040503,-0.0014788,0,0.025071,0,0,0,0.028165,0.0093581,0.011257,15.423,0.01626,0.017933,2.8503e-07,0.02,0.24,0
0.0012071,0.00075582,0.026978,0.010322,0.01119,0.0047967,0,0,0.041048,-0.0022573,0,0.024943,0,0,0,0.02826,0.0090389,0.01119,14.97,0.016163,0.018241,2.9717e-07,0.03,0.24,0
0.0016204,0.0010076,0.027121,0.0099439,0.011119,0.004755,0,0,0.041604,-0.0030565,0,0.024726,0,0,0,0.028349,0.0087154,0.011119,14.485,0.016061,0.018549,3.0931e-07,0.04,0.24,0
0.0020392,0.0012583,0.027264,0.0095573,0.011046,0.0046959,0,0,0.042166,-0.0038716,0,0.024418,0,0,0,0.028432,0.0083891,0.011046,13.971,0.015956,0.018856,3.2137e-07,0.05,0.24,0
0.0024637,0.0015071,0.027406,0.0091645,0.010971,0.0046195,0,0,0.04273,-0.0046971,0,0.024021,0,0,0,0.028509,0.0080613,0.010971,13.431,0.015847,0.019159,3.3329e-07,0.06,0.24,0
0.0028938,0.0017534,0.027544,0.0087678,0.010894,0.0045264,0,0,0.043292,-0.0055272,0,0.023537,0,0,0,0.028578,0.0077336,0.010894,12.87,0.015735,0.019458,3.4499e-07,0.07,0.24,0
0.0033295,0.0019966,0.027679,0.0083699,0.010815,0.0044175,0,0,0.043847,-0.0063563,0,0.022971,0,0,0,0.028642,0.0074072,0.010815,12.293,0.015621,0.019752,3.5642e-07,0.08,0.24,0
0.0037708,0.002236,0.027808,0.0079733,0.010734,0.004294,0,0,0.044392,-0.0071789,0,0.022329,0,0,0,0.028698,0.0070836,0.010734,11.706,0.015505,0.02004,3.6752e-07,0.09,0.24,0
0.0042174,0.0024711,0.027931,0.0075804,0.010653,0.0041573,0,0,0.044922,-0.0079898,0,0.021618,0,0,0,0.028747,0.0067639,0.010653,11.112,0.015388,0.02032,3.7825e-07,0.1,0.24,0
0.0046692,0.0027013,0.028047,0.0071933,0.010572,0.004009,0,0,0.045434,-0.0087845,0,0.020847,0,0,0,0.028791,0.0064492,0.010572,10.516,0.015271,0.020592,3.8856e-07,0.11,0.24,0
0.0051261,0.0029262,0.028154,0.006814,0.01049,0.0038508,0,0,0.045926,-0.009559,0,0.020024,0,0,0,0.028828,0.0061404,0.01049,9.9222,0.015153,0.020856,3.9843e-07,0.12,0.24,0
0.0055877,0.0031452,0.028254,0.006444,0.010409,0.0036846,0,0,0.046395,-0.01031,0,0.01916,0,0,0,0.028859,0.0058383,0.010409,9.3348,0.015036,0.02111,4.0784e-07,0.13,0.24,0
0.006054,0.003358,0.028344,0.0060847,0.010329,0.0035122,0,0,0.046841,-0.011034,0,0.018263,0,0,0,0.028885,0.0055437,0.010329,8.757,0.014919,0.021355,4.1677e-07,0.14,0.24,0
0.0065245,0.0035644,0.028426,0.0057372,0.010249,0.0033353,0,0,0.04726,-0.011731,0,0.017343,0,0,0,0.028906,0.0052571,0.010249,8.1917,0.014804,0.02159,4.2522e-07,0.15,0.24,0
0.0069992,0.003764,0.028499,0.0054023,0.01017,0.0031555,0,0,0.047655,-0.012397,0,0.016408,0,0,0,0.028923,0.0049789,0.01017,7.6412,0.014691,0.021816,4.3318e-07,0.16,0.24,0
0.0074776,0.0039567,0.028564,0.0050805,0.010093,0.0029744,0,0,0.048023,-0.013033,0,0.015467,0,0,0,0.028934,0.0047096,0.010093,7.1075,0.014579,0.022032,4.4067e-07,0.17,0.24,0
0.0079596,0.0041423,0.02862,0.0047721,0.010018,0.0027933,0,0,0.048366,-0.013638,0,0.014525,0,0,0,0.028942,0.0044493,0.010018,6.5923,0.01447,0.022238,4.4769e-07,0.18,0.24,0
0.0084449,0.0043208,0.028668,0.0044773,0.0099435,0.0026136,0,0,0.048683,-0.014212,0,0.013591,0,0,0,0.028947,0.0041981,0.0099435,6.0966,0.014363,0.022435,4.5425e-07,0.19,0.24,0
0.0089333,0.0044921,0.028708,0.0041961,0.0098714,0.0024363,0,0,0.048976,-0.014756,0,0.012669,0,0,0,0.028948,0.0039563,0.0098714,5.6214,0.014259,0.022622,4.6036e-07,0.2,0.24,0
0.0094245,0.0046562,0.028742,0.0039284,0.0098011,0.0022624,0,0,0.049246,-0.015269,0,0.011764,0,0,0,0.028947,0.0037238,0.0098011,5.1671,0.014157,0.0228,4.6604e-07,0.21,0.24,0
0.0099182,0.0048131,0.028769,0.003674,0.0097329,0.0020926,0,0,0.049494,-0.015753,0,0.010882,0,0,0,0.028942,0.0035007,0.0097329,4.7341,0.014059,0.022969,4.7132e-07,0.22,0.24,0
0.010414,0.0049629,0.02879,0.0034324,0.0096668,0.0019277,0,0,0.049721,-0.016209,0,0.010024,0,0,0,0.028936,0.0032867,0.0096668,4.3225,0.013963,0.023129,4.762e-07,0.23,0.24,0
0.010913,0.0051057,0.028806,0.0032034,0.0096028,0.0017681,0,0,0.049928,-0.016638,0,0.0091943,0,0,0,0.028927,0.0030819,0.0096028,3.932,0.013871,0.02328,4.8071e-07,0.24,0.24,0
0.011413,0.0052416,0.028817,0.0029865,0.009541,0.0016144,0,0,0.050117,-0.017042,0,0.0083948,0,0,0,0.028917,0.002886,0.009541,3.5625,0.013781,0.023424,4.8486e-07,0.25,0.24,0
0.011915,0.0053708,0.028823,0.0027813,0.0094813,0.0014667,0,0,0.050289,-0.01742,0,0.007627,0,0,0,0.028905,0.0026989,0.0094813,3.2135,0.013695,0.023559,4.8868e-07,0.26,0.24,0
0.012419,0.0054934,0.028826,0.0025872,0.0094238,0.0013254,0,0,0.050444,-0.017775,0,0.0068922,0,0,0,0.028892,0.0025204,0.0094238,2.8845,0.013612,0.023687,4.9219e-07,0.27,0.24,0
0.012924,0.0056096,0.028824,0.0024039,0.0093685,0.0011906,0,0,0.050585,-0.018108,0,0.0061912,0,0,0,0.028878,0.0023503,0.0093685,2.575,0.013532,0.023807,4.954e-07,0.28,0.24,0
0.01343,0.0057195,0.02882,0.0022308,0.0093154,0.0010623,0,0,0.050713,-0.01842,0,0.0055242,0,0,0,0.028863,0.0021884,0.0093154,2.2843,0.013456,0.023921,4.9833e-07,0.29,0.24,0
0.013938,0.0058234,0.028814,0.0020674,0.0092643,0.00094065,0,0,0.050828,-0.018712,0,0.0048914,0,0,0,0.028847,0.0020344,0.0092643,2.0117,0.013382,0.024028,5.01e-07,0.3,0.24,0
0.014447,0.0059215,0.028805,0.0019134,0.0092154,0.00082549,0,0,0.050932,-0.018985,0,0.0042926,0,0,0,0.02883,0.001888,0.0092154,1.7566,0.013311,0.024128,5.0342e-07,0.31,0.24,0
0.014957,0.0060139,0.028794,0.0017681,0.0091685,0.0007168,0,0,0.051025,-0.019241,0,0.0037274,0,0,0,0.028813,0.0017491,0.0091685,1.5182,0.013243,0.024222,5.0562e-07,0.32,0.24,0
0.015468,0.0061009,0.028781,0.0016312,0.0091236,0.00061446,0,0,0.051109,-0.01948,0,0.0031952,0,0,0,0.028795,0.0016173,0.0091236,1.2959,0.013179,0.02431,5.0761e-07,0.33,0.24,0
0.015979,0.0061826,0.028767,0.0015023,0.0090808,0.00051834,0,0,0.051184,-0.019704,0,0.0026954,0,0,0,0.028777,0.0014925,0.0090808,1.0888,0.013117,0.024392,5.0939e-07,0.34,0.24,0
0.016491,0.0062594,0.028752,0.001381,0.0090398,0.00042826,0,0,0.051251,-0.019913,0,0.002227,0,0,0,0.028758,0.0013743,0.0090398,0.89621,0.013057,0.024469,5.11e-07,0.35,0.24,0
0.017004,0.0063313,0.028735,0.0012668,0.0090007,0.00034406,0,0,0.05131,-0.020108,0,0.0017891,0,0,0,0.02874,0.0012625,0.0090007,0.71751,0.013001,0.024541,5.1243e-07,0.36,0.24,0
0.017517,0.0063986,0.028719,0.0011594,0.0089634,0.00026553,0,0,0.051363,-0.02029,0,0.0013808,0,0,0,0.028721,0.0011569,0.0089634,0.55198,0.012947,0.024608,5.137e-07,0.37,0.24,0
0.018031,0.0064615,0.028701,0.0010585,0.0089279,0.00019248,0,0,0.05141,-0.02046,0,0.0010009,0,0,0,0.028702,0.0010571,0.0089279,0.39893,0.012896,0.02467,5.1483e-07,0.38,0.24,0
0.018545,0.0065202,0.028683,0.00096365,0.0088941,0.00012469,0,0,0.051452,-0.020619,0,0.00064838,0,0,0,0.028684,0.00096309,0.0088941,0.25772,0.012847,0.024728,5.1583e-07,0.39,0.24,0
0.01906,0.0065748,0.028665,0.00087458,0.0088619,6.1945e-05,0,0,0.051488,-0.020767,0,0.00032212,0,0,0,0.028665,0.00087444,0.0088619,0.12771,0.0128,0.024782,5.1669e-07,0.4,0.24,0
0.019575,0.0066257,0.028647,0.00079099,0.0088313,4.0347e-06,0,0,0.05152,-0.020905,0,2.098e-05,0,0,0,0.028647,0.00079099,0.0088313,0.0082988,0.012756,0.024832,5.1745e-07,0.41,0.24,0
0.020091,0.0066729,0.028629,0.00071258,0.0088023,-4.9261e-05,0,0,0.051548,-0.021033,0,-0.00025616,0,0,0,0.028629,0.00071249,0.0088023,-0.10111,0.012715,0.024878,5.1809e-07,0.42,0.24,0
0.020606,0.0067166,0.02861,0.00063908,0.0087748,-9.8157e-05,0,0,0.051572,-0.021153,0,-0.00051042,0,0,0,0.028611,0.00063873,0.0087748,-0.20106,0.012675,0.024921,5.1864e-07,0.43,0.24,0
0.021122,0.006757,0.028592,0.00057022,0.0087487,-0.00014287,0,0,0.051593,-0.021264,0,-0.0007429,0,0,0,0.028593,0.0005695,0.0087487,-0.29211,0.012637,0.02496,5.191e-07,0.44,0.24,0
0.021638,0.0067944,0.028574,0.00050577,0.0087239,-0.0001836,0,0,0.05161,-0.021367,0,-0.00095471,0,0,0,0.028575,0.00050457,0.0087239,-0.37476,0.012601,0.024996,5.1948e-07,0.45,0.24,0
0.022154,0.0068287,0.028556,0.00044548,0.0087005,-0.00022055,0,0,0.051625,-0.021463,0,-0.0011469,0,0,0,0.028558,0.00044375,0.0087005,-0.4495,0.012567,0.025029,5.1978e-07,0.46,0.24,0
0.022671,0.0068603,0.028539,0.00038912,0.0086784,-0.00025394,0,0,0.051637,-0.021552,0,-0.0013205,0,0,0,0.028541,0.00038683,0.0086784,-0.51681,0.012535,0.025059,5.2001e-07,0.47,0.24,0
0.023187,0.0068893,0.028522,0.00033649,0.0086575,-0.00028394,0,0,0.051647,-0.021635,0,-0.0014765,0,0,0,0.028525,0.00033363,0.0086575,-0.57712,0.012505,0.025087,5.2019e-07,0.48,0.24,0
0.023704,0.0069158,0.028505,0.00028737,0.0086377,-0.00031075,0,0,0.051655,-0.021711,0,-0.0016159,0,0,0,0.028508,0.00028395,0.0086377,-0.63087,0.012477,0.025112,5.203e-07,0.49,0.24,0
0.02422,0.0069399,0.028489,0.00024159,0.008619,-0.00033455,0,0,0.051661,-0.021781,0,-0.0017396,0,0,0,0.028493,0.00023763,0.008619,-0.67846,0.01245,0.025135,5.2036e-07,0.5,0.24,0
0.024737,0.0069618,0.028473,0.00019895,0.0086015,-0.0003555,0,0,0.051665,-0.021847,0,-0.0018486,0,0,0,0.028477,0.00019448,0.0086015,-0.72027,0.012424,0.025156,5.2038e-07,0.51,0.24,0
0.025253,0.0069816,0.028457,0.00015927,0.0085849,-0.00037379,0,0,0.051668,-0.021907,0,-0.0019437,0,0,0,0.028462,0.00015434,0.0085849,-0.75666,0.0124,0.025174,5.2036e-07,0.52,0.24,0
0.02577,0.0069995,0.028442,0.0001224,0.0085693,-0.00038957,0,0,0.051669,-0.021962,0,-0.0020258,0,0,0,0.028447,0.00011704,0.0085693,-0.78798,0.012378,0.025191,5.2029e-07,0.53,0.24,0
0.026287,0.0070156,0.028428,8.8171e-05,0.0085547,-0.000403,0,0,0.051669,-0.022013,0,-0.0020956,0,0,0,0.028433,8.2441e-05,0.0085547,-0.81455,0.012357,0.025206,5.202e-07,0.54,0.24,0
0.026804,0.00703,0.028413,5.6432e-05,0.008541,-0.00041422,0,0,0.051668,-0.02206,0,-0.0021539,0,0,0,0.02842,5.0383e-05,0.008541,-0.83669,0.012337,0.025219,5.2008e-07,0.55,0.24,0
0.02732,0.0070427,0.0284,2.7041e-05,0.008528,-0.00042337,0,0,0.051666,-0.022103,0,-0.0022015,0,0,0,0.028406,2.0725e-05,0.008528,-0.85469,0.012318,0.025231,5.1993e-07,0.56,0.24,0
0.027837,0.007054,0.028387,-1.4028e-07,0.0085159,-0.00043059,0,0,0.051664,-0.022142,0,-0.002239,0,0,0,0.028393,-6.6701e-06,0.0085159,-0.86883,0.012301,0.025242,5.1975e-07,0.57,0.24,0
0.028354,0.0070638,0.028374,-2.5243e-05,0.0085046,-0.000436,0,0,0.05166,-0.022178,0,-0.0022672,0,0,0,0.028381,-3.1935e-05,0.0085046,-0.87936,0.012284,0.025251,5.1956e-07,0.58,0.24,0
0.02887,0.0070724,0.028362,-4.839e-05,0.008494,-0.00043973,0,0,0.051656,-0.02221,0,-0.0022866,0,0,0,0.028369,-5.5195e-05,0.008494,-0.88653,0.012269,0.025259,5.1935e-07,0.59,0.24,0
0.029387,0.0070798,0.02835,-6.9702e-05,0.0084841,-0.00044189,0,0,0.051651,-0.02224,0,-0.0022978,0,0,0,0.028357,-7.6571e-05,0.0084841,-0.89059,0.012255,0.025265,5.1913e-07,0.6,0.24,0
0.029903,0.0070861,0.028339,-8.9291e-05,0.0084748,-0.00044259,0,0,0.051646,-0.022267,0,-0.0023015,0,0,0,0.028346,-9.618e-05,0.0084748,-0.89174,0.012241,0.025271,5.1889e-07,0.61,0.24,0
0.030419,0.0070914,0.028328,-0.00010727,0.0084662,-0.00044194,0,0,0.05164,-0.022291,0,-0.0022981,0,0,0,0.028335,-0.00011413,0.0084662,-0.8902,0.012229,0.025276,5.1864e-07,0.62,0.24,0
0.030936,0.0070957,0.028317,-0.00012373,0.0084581,-0.00044002,0,0,0.051634,-0.022313,0,-0.0022881,0,0,0,0.028324,-0.00013053,0.0084581,-0.88616,0.012217,0.025279,5.1839e-07,0.63,0.24,0
0.031452,0.0070992,0.028308,-0.00013877,0.0084506,-0.00043694,0,0,0.051628,-0.022333,0,-0.0022721,0,0,0,0.028314,-0.00014548,0.0084506,-0.8798,0.012207,0.025283,5.1813e-07,0.64,0.24,0
0.031968,0.0071018,0.028298,-0.0001525,0.0084437,-0.00043279,0,0,0.051622,-0.02235,0,-0.0022505,0,0,0,0.028305,-0.00015908,0.0084437,-0.87131,0.012196,0.025285,5.1787e-07,0.65,0.24,0
0.032485,0.0071037,0.028289,-0.00016499,0.0084372,-0.00042763,0,0,0.051615,-0.022366,0,-0.0022237,0,0,0,0.028295,-0.00017142,0.0084372,-0.86083,0.012187,0.025287,5.176e-07,0.66,0.24,0
0.033001,0.007105,0.02828,-0.00017634,0.0084312,-0.00042156,0,0,0.051608,-0.02238,0,-0.0021921,0,0,0,0.028287,-0.00018258,0.0084312,-0.84853,0.012178,0.025288,5.1733e-07,0.67,0.24,0
0.033517,0.0071057,0.028272,-0.00018661,0.0084256,-0.00041463,0,0,0.051601,-0.022392,0,-0.0021561,0,0,0,0.028278,-0.00019265,0.0084256,-0.83454,0.01217,0.025288,5.1706e-07,0.68,0.24,0
0.034033,0.0071058,0.028264,-0.00019589,0.0084205,-0.00040693,0,0,0.051594,-0.022403,0,-0.002116,0,0,0,0.02827,-0.00020171,0.0084205,-0.819,0.012163,0.025288,5.1679e-07,0.69,0.24,0
0.034549,0.0071055,0.028257,-0.00020425,0.0084157,-0.00039851,0,0,0.051587,-0.022412,0,-0.0020722,0,0,0,0.028262,-0.00020983,0.0084157,-0.80204,0.012156,0.025288,5.1653e-07,0.7,0.24,0
0.035064,0.0071047,0.02825,-0.00021176,0.0084114,-0.00038943,0,0,0.05158,-0.02242,0,-0.002025,0,0,0,0.028255,-0.00021708,0.0084114,-0.78377,0.01215,0.025287,5.1626e-07,0.71,0.24,0
0.03558,0.0071036,0.028243,-0.00021848,0.0084073,-0.00037975,0,0,0.051573,-0.022427,0,-0.0019747,0,0,0,0.028248,-0.00022354,0.0084073,-0.7643,0.012144,0.025286,5.16e-07,0.72,0.24,0
0.036096,0.0071021,0.028237,-0.00022447,0.0084036,-0.00036953,0,0,0.051566,-0.022433,0,-0.0019215,0,0,0,0.028241,-0.00022927,0.0084036,-0.74374,0.012139,0.025285,5.1575e-07,0.73,0.24,0
0.036612,0.0071004,0.02823,-0.00022979,0.0084002,-0.0003588,0,0,0.051559,-0.022438,0,-0.0018657,0,0,0,0.028235,-0.00023432,0.0084002,-0.72217,0.012134,0.025283,5.155e-07,0.74,0.24,0
0.037127,0.0070984,0.028225,-0.00023451,0.0083971,-0.00034761,0,0,0.051552,-0.022442,0,-0.0018076,0,0,0,0.028229,-0.00023875,0.0083971,-0.69969,0.012129,0.025281,5.1525e-07,0.75,0.24,0
0.037643,0.0070962,0.028219,-0.00023865,0.0083942,-0.00033601,0,0,0.051545,-0.022445,0,-0.0017473,0,0,0,0.028223,-0.00024262,0.0083942,-0.67638,0.012125,0.025279,5.1502e-07,0.76,0.24,0
0.038158,0.0070938,0.028214,-0.00024229,0.0083916,-0.00032404,0,0,0.051539,-0.022448,0,-0.001685,0,0,0,0.028218,-0.00024598,0.0083916,-0.65232,0.012121,0.025277,5.1479e-07,0.77,0.24,0
0.038673,0.0070913,0.028209,-0.00024547,0.0083892,-0.00031172,0,0,0.051533,-0.02245,0,-0.0016209,0,0,0,0.028213,-0.00024888,0.0083892,-0.62757,0.012118,0.025275,5.1457e-07,0.78,0.24,0
0.039189,0.0070887,0.028205,-0.00024822,0.008387,-0.0002991,0,0,0.051527,-0.022452,0,-0.0015553,0,0,0,0.028208,-0.00025136,0.008387,-0.6022,0.012115,0.025273,5.1435e-07,0.79,0.24,0
0.039704,0.007086,0.028201,-0.00025059,0.008385,-0.0002862,0,0,0.051521,-0.022453,0,-0.0014882,0,0,0,0.028203,-0.00025346,0.008385,-0.57627,0.012112,0.025271,5.1414e-07,0.8,0.24,0
0.040219,0.0070833,0.028197,-0.00025261,0.0083832,-0.00027305,0,0,0.051515,-0.022453,0,-0.0014199,0,0,0,0.028199,-0.00025523,0.0083832,-0.54984,0.012109,0.025268,5.1395e-07,0.81,0.24,0
0.040734,0.0070806,0.028193,-0.00025433,0.0083816,-0.00025968,0,0,0.051509,-0.022453,0,-0.0013503,0,0,0,0.028195,-0.0002567,0.0083816,-0.52296,0.012107,0.025266,5.1376e-07,0.82,0.24,0
0.041249,0.0070779,0.028189,-0.00025578,0.0083801,-0.0002461,0,0,0.051504,-0.022453,0,-0.0012798,0,0,0,0.028192,-0.00025791,0.0083801,-0.49567,0.012105,0.025264,5.1358e-07,0.83,0.24,0
0.041764,0.0070753,0.028186,-0.00025698,0.0083788,-0.00023236,0,0,0.051499,-0.022453,0,-0.0012082,0,0,0,0.028188,-0.00025888,0.0083788,-0.46802,0.012103,0.025261,5.1341e-07,0.84,0.24,0
0.042279,0.0070727,0.028183,-0.00025798,0.0083776,-0.00021845,0,0,0.051495,-0.022453,0,-0.0011359,0,0,0,0.028185,-0.00025965,0.0083776,-0.44004,0.012101,0.025259,5.1325e-07,0.85,0.24,0
0.042794,0.0070701,0.028181,-0.00025878,0.0083765,-0.0002044,0,0,0.05149,-0.022452,0,-0.0010629,0,0,0,0.028182,-0.00026025,0.0083765,-0.41178,0.012099,0.025257,5.131e-07,0.86,0.24,0
0.043309,0.0070677,0.028178,-0.00025943,0.0083756,-0.00019023,0,0,0.051486,-0.022451,0,-0.00098921,0,0,0,0.028179,-0.0002607,0.0083756,-0.38326,0.012098,0.025255,5.1296e-07,0.87,0.24,0
0.043824,0.0070654,0.028176,-0.00025994,0.0083747,-0.00017595,0,0,0.051482,-0.02245,0,-0.00091496,0,0,0,0.028177,-0.00026103,0.0083747,-0.35452,0.012097,0.025253,5.1283e-07,0.88,0.24,0
0.044339,0.0070632,0.028174,-0.00026033,0.008374,-0.00016158,0,0,0.051479,-0.022449,0,-0.00084021,0,0,0,0.028174,-0.00026125,0.008374,-0.32558,0.012096,0.025251,5.1271e-07,0.89,0.24,0
0.044853,0.0070612,0.028172,-0.00026063,0.0083733,-0.00014712,0,0,0.051476,-0.022448,0,-0.00076503,0,0,0,0.028172,-0.00026139,0.0083733,-0.29646,0.012095,0.025249,5.126e-07,0.9,0.24,0
0.045368,0.0070593,0.02817,-0.00026085,0.0083727,-0.00013259,0,0,0.051473,-0.022447,0,-0.00068948,0,0,0,0.028171,-0.00026146,0.0083727,-0.2672,0.012094,0.025248,5.125e-07,0.91,0.24,0
0.045883,0.0070576,0.028168,-0.000261,0.0083722,-0.000118,0,0,0.05147,-0.022446,0,-0.0006136,0,0,0,0.028169,-0.00026149,0.0083722,-0.23781,0.012093,0.025246,5.1241e-07,0.92,0.24,0
0.046398,0.0070561,0.028167,-0.0002611,0.0083718,-0.00010336,0,0,0.051468,-0.022446,0,-0.00053746,0,0,0,0.028167,-0.00026148,0.0083718,-0.20831,0.012093,0.025245,5.1233e-07,0.93,0.24,0
0.046912,0.0070547,0.028166,-0.00026117,0.0083714,-8.8669e-05,0,0,0.051466,-0.022445,0,-0.00046108,0,0,0,0.028166,-0.00026144,0.0083714,-0.17871,0.012092,0.025244,5.1226e-07,0.94,0.24,0
0.047427,0.0070536,0.028165,-0.0002612,0.0083711,-7.3944e-05,0,0,0.051464,-0.022444,0,-0.00038451,0,0,0,0.028165,-0.0002614,0.0083711,-0.14904,0.012092,0.025243,5.122e-07,0.95,0.24,0
0.047942,0.0070526,0.028164,-0.00026122,0.0083709,-5.9189e-05,0,0,0.051463,-0.022444,0,-0.00030778,0,0,0,0.028164,-0.00026135,0.0083709,-0.1193,0.012091,0.025242,5.1216e-07,0.96,0.24,0
0.048456,0.0070519,0.028164,-0.00026123,0.0083707,-4.4412e-05,0,0,0.051461,-0.022443,0,-0.00023094,0,0,0,0.028164,-0.0002613,0.0083707,-0.089521,0.012091,0.025241,5.1212e-07,0.97,0.24,0
0.048971,0.0070513,0.028163,-0.00026123,0.0083706,-2.9617e-05,0,0,0.051461,-0.022443,0,-0.00015401,0,0,0,0.028163,-0.00026126,0.0083706,-0.0597,0.012091,0.025241,5.1209e-07,0.98,0.24,0
0.049485,0.007051,0.028163,-0.00026123,0.0083705,-1.4811e-05,0,0,0.05146,-0.022442,0,-7.7019e-05,0,0,0,0.028163,-0.00026124,0.0083705,-0.029856,0.012091,0.025241,5.1208e-07,0.99,0.24,0
0.05,0.0070509,0.028163,-0.00026123,0.0083705,-2.0701e-06,0,0,0.05146,-0.022442,0,-1.0764e-05,0,0,0,0.028163,-0.00026123,0.0083705,-0.0041727,0.012091,0.02524,5.1207e-07,1,0.24,0
0,0,0.026689,0.011438,0.011438,0.0046982,0,0,0.039652,2.7105e-20,0,0.024431,0,0,0,0.02802,0.010107,0.011438,15.819,0.016522,0.017286,2.5998e-07,0,0.25,0
0.00039652,0.00024431,0.026657,0.011043,0.01131,0.0046929,0,0,0.039903,-0.00069387,0,0.024403,0,0,0,0.027959,0.0097415,0.01131,15.505,0.016337,0.017486,2.6717e-07,0.01,0.25,0
0.00079805,0.00048908,0.026792,0.010705,0.011249,0.0046822,0,0,0.040411,-0.001414,0,0.024348,0,0,0,0.028056,0.0094418,0.011249,15.102,0.016249,0.017779,2.7861e-07,0.02,0.25,0
0.0012048,0.00073376,0.026929,0.010355,0.011185,0.004656,0,0,0.040933,-0.0021579,0,0.024211,0,0,0,0.028147,0.0091368,0.011185,14.665,0.016156,0.018073,2.9012e-07,0.03,0.25,0
0.0016167,0.00097774,0.027067,0.0099944,0.011118,0.0046137,0,0,0.041465,-0.002922,0,0.023991,0,0,0,0.028234,0.0088274,0.011118,14.196,0.01606,0.018368,3.0166e-07,0.04,0.25,0
0.002034,0.0012204,0.027204,0.0096248,0.011049,0.0045552,0,0,0.042005,-0.0037023,0,0.023687,0,0,0,0.028315,0.0085146,0.011049,13.697,0.015959,0.018662,3.1318e-07,0.05,0.25,0
0.0024568,0.0014612,0.027341,0.0092485,0.010977,0.0044807,0,0,0.042548,-0.0044941,0,0.0233,0,0,0,0.02839,0.0081996,0.010977,13.175,0.015856,0.018955,3.2462e-07,0.06,0.25,0
0.002885,0.0016994,0.027476,0.0088676,0.010903,0.0043907,0,0,0.04309,-0.0052926,0,0.022832,0,0,0,0.02846,0.0078836,0.010903,12.631,0.015749,0.019245,3.3592e-07,0.07,0.25,0
0.0033186,0.0019344,0.027608,0.0084845,0.010828,0.0042861,0,0,0.043629,-0.0060926,0,0.022288,0,0,0,0.028525,0.0075678,0.010828,12.072,0.01564,0.019532,3.4705e-07,0.08,0.25,0
0.0037576,0.0021658,0.027735,0.0081014,0.010751,0.004168,0,0,0.04416,-0.0068892,0,0.021674,0,0,0,0.028584,0.0072532,0.010751,11.502,0.015529,0.019814,3.5794e-07,0.09,0.25,0
0.0042018,0.0023928,0.027858,0.0077205,0.010674,0.0040376,0,0,0.044679,-0.0076777,0,0.020996,0,0,0,0.028637,0.0069411,0.010674,10.926,0.015417,0.020092,3.6856e-07,0.1,0.25,0
0.0046512,0.0026152,0.027974,0.0073438,0.010595,0.0038965,0,0,0.045184,-0.0084539,0,0.020262,0,0,0,0.028685,0.0066324,0.010595,10.347,0.015304,0.020363,3.7887e-07,0.11,0.25,0
0.0051055,0.0028323,0.028083,0.0069731,0.010517,0.0037461,0,0,0.045672,-0.0092137,0,0.01948,0,0,0,0.028728,0.0063281,0.010517,9.7702,0.015191,0.020627,3.8884e-07,0.12,0.25,0
0.0055646,0.0030439,0.028185,0.0066101,0.010438,0.0035881,0,0,0.046141,-0.0099539,0,0.018658,0,0,0,0.028766,0.006029,0.010438,9.199,0.015078,0.020884,3.9843e-07,0.13,0.25,0
0.0060283,0.0032495,0.028279,0.006256,0.01036,0.0034241,0,0,0.046588,-0.010672,0,0.017805,0,0,0,0.028799,0.005736,0.01036,8.6366,0.014965,0.021134,4.0763e-07,0.14,0.25,0
0.0064964,0.003449,0.028365,0.0059121,0.010283,0.0032556,0,0,0.047013,-0.011365,0,0.016929,0,0,0,0.028828,0.0054496,0.010283,8.0859,0.014854,0.021375,4.1643e-07,0.15,0.25,0
0.0069686,0.0036419,0.028443,0.0055793,0.010207,0.0030843,0,0,0.047415,-0.012032,0,0.016038,0,0,0,0.028852,0.0051705,0.010207,7.5492,0.014743,0.021608,4.2481e-07,0.16,0.25,0
0.0074447,0.0038282,0.028513,0.0052581,0.010131,0.0029114,0,0,0.047793,-0.012671,0,0.015139,0,0,0,0.028872,0.0048991,0.010131,7.0286,0.014634,0.021833,4.3275e-07,0.17,0.25,0
0.0079244,0.0040078,0.028576,0.0049491,0.010057,0.0027384,0,0,0.048147,-0.013282,0,0.014239,0,0,0,0.028889,0.0046358,0.010057,6.5254,0.014527,0.022048,4.4028e-07,0.18,0.25,0
0.0084076,0.0041805,0.02863,0.0046525,0.0099848,0.0025662,0,0,0.048478,-0.013864,0,0.013345,0,0,0,0.028902,0.0043809,0.0099848,6.041,0.014422,0.022254,4.4737e-07,0.19,0.25,0
0.008894,0.0043463,0.028678,0.0043686,0.0099139,0.0023961,0,0,0.048786,-0.014418,0,0.01246,0,0,0,0.028911,0.0041347,0.0099139,5.5762,0.01432,0.022452,4.5404e-07,0.2,0.25,0
0.0093833,0.0045051,0.028718,0.0040973,0.0098446,0.0022289,0,0,0.049071,-0.014943,0,0.011591,0,0,0,0.028918,0.0038971,0.0098446,5.1315,0.01422,0.022641,4.603e-07,0.21,0.25,0
0.0098754,0.0046571,0.028752,0.0038385,0.0097771,0.0020654,0,0,0.049335,-0.01544,0,0.01074,0,0,0,0.028922,0.0036684,0.0097771,4.7072,0.014122,0.022821,4.6615e-07,0.22,0.25,0
0.01037,0.0048023,0.02878,0.003592,0.0097116,0.0019063,0,0,0.049578,-0.015911,0,0.0099125,0,0,0,0.028923,0.0034486,0.0097116,4.3036,0.014028,0.022992,4.7161e-07,0.23,0.25,0
0.010867,0.0049407,0.028802,0.0033576,0.009648,0.001752,0,0,0.049801,-0.016355,0,0.0091102,0,0,0,0.028922,0.0032375,0.009648,3.9204,0.013936,0.023155,4.7668e-07,0.24,0.25,0
0.011366,0.0050726,0.02882,0.003135,0.0095864,0.001603,0,0,0.050006,-0.016774,0,0.0083354,0,0,0,0.028919,0.0030353,0.0095864,3.5574,0.013847,0.023309,4.814e-07,0.25,0.25,0
0.011867,0.0051979,0.028832,0.0029237,0.0095268,0.0014596,0,0,0.050194,-0.017168,0,0.0075899,0,0,0,0.028914,0.0028417,0.0095268,3.2143,0.013761,0.023456,4.8575e-07,0.26,0.25,0
0.01237,0.0053168,0.028841,0.0027234,0.0094692,0.0013221,0,0,0.050366,-0.017539,0,0.0068751,0,0,0,0.028907,0.0026566,0.0094692,2.8906,0.013678,0.023594,4.8978e-07,0.27,0.25,0
0.012874,0.0054296,0.028845,0.0025337,0.0094137,0.0011907,0,0,0.050522,-0.017888,0,0.0061917,0,0,0,0.028899,0.00248,0.0094137,2.5858,0.013598,0.023725,4.9349e-07,0.28,0.25,0
0.01338,0.0055363,0.028846,0.0023542,0.0093602,0.0010654,0,0,0.050664,-0.018215,0,0.0055403,0,0,0,0.028889,0.0023115,0.0093602,2.2993,0.01352,0.023848,4.9689e-07,0.29,0.25,0
0.013888,0.0056372,0.028845,0.0021845,0.0093087,0.00094639,0,0,0.050793,-0.018523,0,0.0049212,0,0,0,0.028878,0.0021509,0.0093087,2.0305,0.013446,0.023964,5.0001e-07,0.3,0.25,0
0.014396,0.0057325,0.02884,0.002024,0.0092593,0.00083353,0,0,0.05091,-0.018811,0,0.0043343,0,0,0,0.028866,0.0019982,0.0092593,1.7786,0.013374,0.024073,5.0286e-07,0.31,0.25,0
0.014906,0.0058223,0.028833,0.0018725,0.0092117,0.00072681,0,0,0.051016,-0.019082,0,0.0037794,0,0,0,0.028853,0.001853,0.0092117,1.5431,0.013306,0.024176,5.0545e-07,0.32,0.25,0
0.015416,0.0059068,0.028824,0.0017295,0.0091662,0.00062617,0,0,0.051111,-0.019335,0,0.0032561,0,0,0,0.028839,0.0017151,0.0091662,1.3232,0.01324,0.024272,5.0781e-07,0.33,0.25,0
0.015928,0.0059862,0.028814,0.0015946,0.0091226,0.00053147,0,0,0.051197,-0.019573,0,0.0027637,0,0,0,0.028824,0.0015842,0.0091226,1.1182,0.013177,0.024362,5.0994e-07,0.34,0.25,0
0.016441,0.0060608,0.028802,0.0014674,0.0090808,0.0004426,0,0,0.051275,-0.019795,0,0.0023015,0,0,0,0.028809,0.0014602,0.0090808,0.9274,0.013117,0.024446,5.1186e-07,0.35,0.25,0
0.016954,0.0061307,0.028789,0.0013476,0.0090408,0.00035938,0,0,0.051344,-0.020002,0,0.0018687,0,0,0,0.028793,0.0013429,0.0090408,0.75019,0.013059,0.024525,5.1359e-07,0.36,0.25,0
0.017467,0.0061961,0.028774,0.0012347,0.0090026,0.00028164,0,0,0.051406,-0.020197,0,0.0014645,0,0,0,0.028777,0.0012318,0.0090026,0.58588,0.013004,0.024598,5.1513e-07,0.37,0.25,0
0.017982,0.0062573,0.028759,0.0011285,0.0089662,0.00020921,0,0,0.051461,-0.020378,0,0.0010879,0,0,0,0.02876,0.0011269,0.0089662,0.4338,0.012951,0.024667,5.165e-07,0.38,0.25,0
0.018497,0.0063143,0.028743,0.0010285,0.0089314,0.0001419,0,0,0.05151,-0.020547,0,0.00073786,0,0,0,0.028744,0.0010278,0.0089314,0.29334,0.012901,0.02473,5.1771e-07,0.39,0.25,0
0.019012,0.0063675,0.028726,0.0009346,0.0088983,7.9494e-05,0,0,0.051553,-0.020706,0,0.00041337,0,0,0,0.028726,0.00093437,0.0088983,0.16388,0.012853,0.024789,5.1878e-07,0.4,0.25,0
0.019528,0.0064169,0.028709,0.00084635,0.0088667,2.1805e-05,0,0,0.051591,-0.020853,0,0.00011338,0,0,0,0.028709,0.00084633,0.0088667,0.044838,0.012807,0.024844,5.1971e-07,0.41,0.25,0
0.020044,0.0064627,0.028692,0.00076349,0.0088366,-3.1374e-05,0,0,0.051624,-0.02099,0,-0.00016314,0,0,0,0.028692,0.00076345,0.0088366,-0.064364,0.012764,0.024894,5.2051e-07,0.42,0.25,0
0.02056,0.0065052,0.028675,0.00068574,0.0088081,-8.0244e-05,0,0,0.051653,-0.021118,0,-0.00041727,0,0,0,0.028675,0.00068551,0.0088081,-0.16426,0.012723,0.024941,5.212e-07,0.43,0.25,0
0.021077,0.0065445,0.028657,0.00061285,0.008781,-0.00012501,0,0,0.051678,-0.021237,0,-0.00065004,0,0,0,0.028658,0.00061229,0.008781,-0.25539,0.012684,0.024983,5.2178e-07,0.44,0.25,0
0.021594,0.0065808,0.028639,0.00054456,0.0087552,-0.00016586,0,0,0.051699,-0.021348,0,-0.00086248,0,0,0,0.02864,0.00054358,0.0087552,-0.33824,0.012646,0.025023,5.2226e-07,0.45,0.25,0
0.022111,0.0066142,0.028622,0.00048062,0.0087308,-0.000203,0,0,0.051717,-0.02145,0,-0.0010556,0,0,0,0.028623,0.00047916,0.0087308,-0.41329,0.012611,0.025059,5.2265e-07,0.46,0.25,0
0.022628,0.0066448,0.028605,0.00042082,0.0087076,-0.00023662,0,0,0.051732,-0.021546,0,-0.0012304,0,0,0,0.028606,0.00041883,0.0087076,-0.48099,0.012578,0.025092,5.2296e-07,0.47,0.25,0
0.023145,0.0066729,0.028587,0.00036493,0.0086857,-0.0002669,0,0,0.051744,-0.021634,0,-0.0013879,0,0,0,0.02859,0.0003624,0.0086857,-0.54179,0.012546,0.025122,5.2319e-07,0.48,0.25,0
0.023663,0.0066986,0.02857,0.00031274,0.0086649,-0.00029403,0,0,0.051754,-0.021716,0,-0.001529,0,0,0,0.028573,0.00030968,0.0086649,-0.5961,0.012516,0.025149,5.2336e-07,0.49,0.25,0
0.024181,0.006722,0.028553,0.00026405,0.0086453,-0.00031817,0,0,0.051761,-0.021791,0,-0.0016545,0,0,0,0.028557,0.00026047,0.0086453,-0.6443,0.012488,0.025174,5.2346e-07,0.5,0.25,0
0.024698,0.0067433,0.028537,0.00021867,0.0086267,-0.00033951,0,0,0.051767,-0.021861,0,-0.0017654,0,0,0,0.028541,0.0002146,0.0086267,-0.68678,0.012461,0.025197,5.235e-07,0.51,0.25,0
0.025216,0.0067625,0.028521,0.00017642,0.0086092,-0.00035819,0,0,0.05177,-0.021925,0,-0.0018626,0,0,0,0.028525,0.0001719,0.0086092,-0.7239,0.012436,0.025217,5.235e-07,0.52,0.25,0
0.025733,0.0067798,0.028505,0.00013713,0.0085927,-0.00037439,0,0,0.051772,-0.021985,0,-0.0019468,0,0,0,0.02851,0.00013219,0.0085927,-0.75598,0.012412,0.025235,5.2345e-07,0.53,0.25,0
0.026251,0.0067953,0.02849,0.00010063,0.0085771,-0.00038824,0,0,0.051773,-0.022039,0,-0.0020188,0,0,0,0.028495,9.5324e-05,0.0085771,-0.78336,0.012389,0.025251,5.2335e-07,0.54,0.25,0
0.026769,0.0068092,0.028475,6.6767e-05,0.0085625,-0.00039989,0,0,0.051772,-0.022089,0,-0.0020794,0,0,0,0.02848,6.1139e-05,0.0085625,-0.80632,0.012368,0.025265,5.2322e-07,0.55,0.25,0
0.027287,0.0068215,0.02846,3.5384e-05,0.0085487,-0.00040949,0,0,0.05177,-0.022135,0,-0.0021293,0,0,0,0.028466,2.9486e-05,0.0085487,-0.82517,0.012348,0.025278,5.2306e-07,0.56,0.25,0
0.027804,0.0068324,0.028446,6.3405e-06,0.0085357,-0.00041715,0,0,0.051767,-0.022176,0,-0.0021692,0,0,0,0.028452,2.23e-07,0.0085357,-0.84018,0.012329,0.025289,5.2287e-07,0.57,0.25,0
0.028322,0.0068419,0.028432,-2.0501e-05,0.0085235,-0.00042302,0,0,0.051763,-0.022215,0,-0.0021997,0,0,0,0.028439,-2.6788e-05,0.0085235,-0.85159,0.012312,0.025298,5.2265e-07,0.58,0.25,0
0.02884,0.0068501,0.028419,-4.527e-05,0.0085121,-0.0004272,0,0,0.051758,-0.022249,0,-0.0022214,0,0,0,0.028425,-5.168e-05,0.0085121,-0.85966,0.012295,0.025306,5.2241e-07,0.59,0.25,0
0.029357,0.0068572,0.028406,-6.8092e-05,0.0085014,-0.00042981,0,0,0.051752,-0.022281,0,-0.002235,0,0,0,0.028413,-7.4579e-05,0.0085014,-0.86461,0.01228,0.025313,5.2215e-07,0.6,0.25,0
0.029875,0.0068632,0.028394,-8.9087e-05,0.0084914,-0.00043096,0,0,0.051746,-0.022309,0,-0.002241,0,0,0,0.0284,-9.5606e-05,0.0084914,-0.86666,0.012265,0.025319,5.2188e-07,0.61,0.25,0
0.030392,0.0068682,0.028382,-0.00010837,0.008482,-0.00043075,0,0,0.051739,-0.022335,0,-0.0022399,0,0,0,0.028388,-0.00011488,0.008482,-0.86602,0.012252,0.025324,5.2159e-07,0.62,0.25,0
0.030909,0.0068723,0.02837,-0.00012604,0.0084732,-0.00042928,0,0,0.051732,-0.022358,0,-0.0022322,0,0,0,0.028376,-0.00013251,0.0084732,-0.86287,0.012239,0.025327,5.213e-07,0.63,0.25,0
0.031427,0.0068756,0.028359,-0.00014221,0.008465,-0.00042663,0,0,0.051724,-0.022379,0,-0.0022185,0,0,0,0.028365,-0.0001486,0.008465,-0.8574,0.012227,0.02533,5.2099e-07,0.64,0.25,0
0.031944,0.0068781,0.028348,-0.00015697,0.0084574,-0.0004229,0,0,0.051716,-0.022397,0,-0.0021991,0,0,0,0.028354,-0.00016325,0.0084574,-0.84979,0.012216,0.025333,5.2068e-07,0.65,0.25,0
0.032461,0.0068798,0.028338,-0.00017043,0.0084502,-0.00041817,0,0,0.051708,-0.022414,0,-0.0021745,0,0,0,0.028344,-0.00017656,0.0084502,-0.84018,0.012206,0.025334,5.2036e-07,0.66,0.25,0
0.032978,0.006881,0.028328,-0.00018265,0.0084436,-0.0004125,0,0,0.051699,-0.022428,0,-0.002145,0,0,0,0.028334,-0.00018862,0.0084436,-0.82874,0.012196,0.025334,5.2004e-07,0.67,0.25,0
0.033495,0.0068815,0.028318,-0.00019374,0.0084374,-0.00040598,0,0,0.051691,-0.022441,0,-0.0021111,0,0,0,0.028324,-0.00019952,0.0084374,-0.8156,0.012187,0.025335,5.1972e-07,0.68,0.25,0
0.034012,0.0068816,0.028309,-0.00020378,0.0084317,-0.00039867,0,0,0.051682,-0.022452,0,-0.0020731,0,0,0,0.028315,-0.00020935,0.0084317,-0.8009,0.012179,0.025334,5.194e-07,0.69,0.25,0
0.034529,0.0068811,0.028301,-0.00021282,0.0084264,-0.00039063,0,0,0.051673,-0.022462,0,-0.0020313,0,0,0,0.028306,-0.00021817,0.0084264,-0.78475,0.012171,0.025333,5.1908e-07,0.7,0.25,0
0.035045,0.0068803,0.028292,-0.00022096,0.0084214,-0.00038193,0,0,0.051665,-0.02247,0,-0.001986,0,0,0,0.028298,-0.00022608,0.0084214,-0.76728,0.012164,0.025332,5.1876e-07,0.71,0.25,0
0.035562,0.0068791,0.028285,-0.00022826,0.0084169,-0.00037262,0,0,0.051656,-0.022477,0,-0.0019376,0,0,0,0.028289,-0.00023313,0.0084169,-0.7486,0.012158,0.025331,5.1845e-07,0.72,0.25,0
0.036078,0.0068775,0.028277,-0.00023478,0.0084127,-0.00036275,0,0,0.051647,-0.022483,0,-0.0018863,0,0,0,0.028282,-0.00023939,0.0084127,-0.7288,0.012152,0.025329,5.1815e-07,0.73,0.25,0
0.036595,0.0068757,0.02827,-0.00024059,0.0084088,-0.00035236,0,0,0.051639,-0.022488,0,-0.0018323,0,0,0,0.028274,-0.00024494,0.0084088,-0.70798,0.012146,0.025326,5.1784e-07,0.74,0.25,0
0.037111,0.0068737,0.028263,-0.00024574,0.0084052,-0.00034152,0,0,0.05163,-0.022492,0,-0.0017759,0,0,0,0.028267,-0.00024983,0.0084052,-0.68623,0.012141,0.025324,5.1755e-07,0.75,0.25,0
0.037628,0.0068715,0.028257,-0.00025028,0.0084019,-0.00033024,0,0,0.051622,-0.022496,0,-0.0017173,0,0,0,0.02826,-0.00025411,0.0084019,-0.66363,0.012136,0.025322,5.1726e-07,0.76,0.25,0
0.038144,0.0068691,0.02825,-0.00025428,0.0083988,-0.00031858,0,0,0.051614,-0.022498,0,-0.0016566,0,0,0,0.028254,-0.00025784,0.0083988,-0.64026,0.012132,0.025319,5.1698e-07,0.77,0.25,0
0.03866,0.0068665,0.028245,-0.00025778,0.008396,-0.00030658,0,0,0.051606,-0.0225,0,-0.0015942,0,0,0,0.028248,-0.00026108,0.008396,-0.61619,0.012128,0.025316,5.1671e-07,0.78,0.25,0
0.039176,0.0068639,0.028239,-0.00026083,0.0083935,-0.00029425,0,0,0.051599,-0.022501,0,-0.0015301,0,0,0,0.028242,-0.00026387,0.0083935,-0.59148,0.012124,0.025313,5.1645e-07,0.79,0.25,0
0.039692,0.0068613,0.028234,-0.00026346,0.0083911,-0.00028165,0,0,0.051591,-0.022502,0,-0.0014646,0,0,0,0.028237,-0.00026625,0.0083911,-0.56619,0.01212,0.02531,5.162e-07,0.8,0.25,0
0.040208,0.0068586,0.028229,-0.00026573,0.008389,-0.00026878,0,0,0.051584,-0.022502,0,-0.0013977,0,0,0,0.028232,-0.00026826,0.008389,-0.54038,0.012117,0.025307,5.1596e-07,0.81,0.25,0
0.040724,0.0068558,0.028224,-0.00026766,0.0083871,-0.00025568,0,0,0.051577,-0.022502,0,-0.0013296,0,0,0,0.028227,-0.00026995,0.0083871,-0.51411,0.012115,0.025304,5.1573e-07,0.82,0.25,0
0.041239,0.0068531,0.02822,-0.0002693,0.0083853,-0.00024238,0,0,0.051571,-0.022502,0,-0.0012604,0,0,0,0.028222,-0.00027136,0.0083853,-0.4874,0.012112,0.025302,5.1551e-07,0.83,0.25,0
0.041755,0.0068505,0.028216,-0.00027067,0.0083837,-0.00022889,0,0,0.051565,-0.022501,0,-0.0011902,0,0,0,0.028218,-0.00027251,0.0083837,-0.46033,0.01211,0.025299,5.153e-07,0.84,0.25,0
0.042271,0.0068479,0.028213,-0.00027182,0.0083822,-0.00021524,0,0,0.051559,-0.0225,0,-0.0011192,0,0,0,0.028214,-0.00027344,0.0083822,-0.43291,0.012108,0.025296,5.1511e-07,0.85,0.25,0
0.042786,0.0068454,0.028209,-0.00027276,0.0083809,-0.00020143,0,0,0.051553,-0.022499,0,-0.0010475,0,0,0,0.028211,-0.00027418,0.0083809,-0.40519,0.012106,0.025293,5.1492e-07,0.86,0.25,0
0.043302,0.006843,0.028206,-0.00027352,0.0083797,-0.0001875,0,0,0.051548,-0.022499,0,-0.00097502,0,0,0,0.028207,-0.00027476,0.0083797,-0.3772,0.012104,0.025291,5.1475e-07,0.87,0.25,0
0.043817,0.0068407,0.028203,-0.00027414,0.0083787,-0.00017346,0,0,0.051543,-0.022497,0,-0.00090198,0,0,0,0.028204,-0.0002752,0.0083787,-0.34898,0.012103,0.025288,5.1459e-07,0.88,0.25,0
0.044332,0.0068385,0.0282,-0.00027462,0.0083777,-0.00015931,0,0,0.051539,-0.022496,0,-0.00082842,0,0,0,0.028201,-0.00027551,0.0083777,-0.32054,0.012101,0.025286,5.1444e-07,0.89,0.25,0
0.044848,0.0068365,0.028198,-0.000275,0.0083769,-0.00014508,0,0,0.051535,-0.022495,0,-0.0007544,0,0,0,0.028199,-0.00027574,0.0083769,-0.29192,0.0121,0.025284,5.1431e-07,0.9,0.25,0
0.045363,0.0068346,0.028196,-0.00027529,0.0083762,-0.00013076,0,0,0.051531,-0.022494,0,-0.00067998,0,0,0,0.028196,-0.00027589,0.0083762,-0.26315,0.012099,0.025282,5.1418e-07,0.91,0.25,0
0.045879,0.0068329,0.028194,-0.0002755,0.0083755,-0.00011639,0,0,0.051528,-0.022493,0,-0.00060521,0,0,0,0.028194,-0.00027597,0.0083755,-0.23423,0.012098,0.02528,5.1407e-07,0.92,0.25,0
0.046394,0.0068314,0.028192,-0.00027565,0.008375,-0.00010195,0,0,0.051525,-0.022492,0,-0.00053016,0,0,0,0.028193,-0.00027602,0.008375,-0.20519,0.012097,0.025279,5.1398e-07,0.93,0.25,0
0.046909,0.00683,0.028191,-0.00027576,0.0083745,-8.7472e-05,0,0,0.051522,-0.022491,0,-0.00045485,0,0,0,0.028191,-0.00027603,0.0083745,-0.17606,0.012096,0.025277,5.1389e-07,0.94,0.25,0
0.047424,0.0068289,0.028189,-0.00027583,0.0083741,-7.2951e-05,0,0,0.05152,-0.02249,0,-0.00037935,0,0,0,0.02819,-0.00027602,0.0083741,-0.14684,0.012096,0.025276,5.1382e-07,0.95,0.25,0
0.047939,0.0068279,0.028188,-0.00027587,0.0083738,-5.8398e-05,0,0,0.051518,-0.022489,0,-0.00030367,0,0,0,0.028189,-0.00027599,0.0083738,-0.11755,0.012096,0.025275,5.1376e-07,0.96,0.25,0
0.048454,0.0068272,0.028188,-0.0002759,0.0083736,-4.382e-05,0,0,0.051517,-0.022489,0,-0.00022786,0,0,0,0.028188,-0.00027597,0.0083736,-0.088207,0.012095,0.025274,5.1372e-07,0.97,0.25,0
0.04897,0.0068267,0.028187,-0.00027592,0.0083734,-2.9223e-05,0,0,0.051516,-0.022488,0,-0.00015196,0,0,0,0.028187,-0.00027595,0.0083734,-0.058826,0.012095,0.025274,5.1368e-07,0.98,0.25,0
0.049485,0.0068264,0.028187,-0.00027592,0.0083733,-1.4615e-05,0,0,0.051515,-0.022488,0,-7.5997e-05,0,0,0,0.028187,-0.00027593,0.0083733,-0.02942,0.012095,0.025274,5.1366e-07,0.99,0.25,0
0.05,0.0068262,0.028187,-0.00027593,0.0083732,-2.0555e-06,0,0,0.051515,-0.022488,0,-1.0689e-05,0,0,0,0.028187,-0.00027593,0.0083732,-0.0041378,0.012095,0.025274,5.1366e-07,1,0.25,0
0,0,0.026658,0.011425,0.011425,0.0045677,0,0,0.039606,-2.1684e-19,0,0.023752,0,0,0,0.027923,0.01016,0.011425,15.476,0.016503,0.017165,2.5501e-07,0,0.26,0
0.00039606,0.00023752,0.026628,0.011048,0.011303,0.0045621,0,0,0.039846,-0.00066339,0,0.023723,0,0,0,0.027866,0.0098101,0.011303,15.177,0.016326,0.017358,2.619e-07,0.01,0.26,0
0.00079692,0.00047526,0.026757,0.010725,0.011244,0.004549,0,0,0.040333,-0.0013516,0,0.023655,0,0,0,0.027958,0.0095239,0.011244,14.787,0.016242,0.017637,2.7274e-07,0.02,0.26,0
0.0012027,0.00071267,0.026888,0.01039,0.011184,0.0045211,0,0,0.040832,-0.0020625,0,0.023509,0,0,0,0.028046,0.0092325,0.011184,14.363,0.016154,0.017918,2.8366e-07,0.03,0.26,0
0.0016136,0.00094917,0.02702,0.010045,0.01112,0.0044779,0,0,0.041342,-0.0027936,0,0.023285,0,0,0,0.028129,0.0089364,0.01112,13.908,0.016062,0.0182,2.9464e-07,0.04,0.26,0
0.0020296,0.0011842,0.027153,0.0096913,0.011053,0.0044194,0,0,0.04186,-0.0035413,0,0.022981,0,0,0,0.028208,0.0086365,0.011053,13.424,0.015966,0.018482,3.0563e-07,0.05,0.26,0
0.0024507,0.0014172,0.027286,0.0093303,0.010985,0.0043461,0,0,0.042383,-0.0043018,0,0.0226,0,0,0,0.028282,0.0083337,0.010985,12.916,0.015867,0.018764,3.1661e-07,0.06,0.26,0
0.0028772,0.0016476,0.027417,0.0089641,0.010914,0.0042584,0,0,0.042907,-0.0050707,0,0.022144,0,0,0,0.028352,0.0080288,0.010914,12.388,0.015765,0.019045,3.2753e-07,0.07,0.26,0
0.0033089,0.0018748,0.027546,0.0085946,0.010842,0.0041572,0,0,0.04343,-0.0058436,0,0.021617,0,0,0,0.028418,0.0077228,0.010842,11.844,0.015661,0.019325,3.3834e-07,0.08,0.26,0
0.0037458,0.0020983,0.027672,0.008224,0.010769,0.0040434,0,0,0.043947,-0.006616,0,0.021026,0,0,0,0.028479,0.0074169,0.010769,11.29,0.015555,0.019602,3.4902e-07,0.09,0.26,0
0.0041878,0.0023176,0.027793,0.0078543,0.010694,0.0039183,0,0,0.044456,-0.0073836,0,0.020375,0,0,0,0.028535,0.0071119,0.010694,10.728,0.015447,0.019876,3.5951e-07,0.1,0.26,0
0.0046349,0.0025323,0.027909,0.0074872,0.010619,0.0037832,0,0,0.044954,-0.0081421,0,0.019673,0,0,0,0.028587,0.0068089,0.010619,10.165,0.015338,0.020145,3.6978e-07,0.11,0.26,0
0.0050869,0.0027419,0.028019,0.0071247,0.010543,0.0036395,0,0,0.045437,-0.0088879,0,0.018926,0,0,0,0.028635,0.0065089,0.010543,9.6035,0.015229,0.02041,3.7981e-07,0.12,0.26,0
0.0055437,0.0029461,0.028123,0.0067682,0.010467,0.0034887,0,0,0.045904,-0.0096177,0,0.018141,0,0,0,0.028678,0.0062127,0.010467,9.0472,0.015119,0.020669,3.8955e-07,0.13,0.26,0
0.006005,0.0031446,0.02822,0.0064192,0.010392,0.0033323,0,0,0.046353,-0.010328,0,0.017328,0,0,0,0.028718,0.0059213,0.010392,8.4993,0.01501,0.020923,3.9897e-07,0.14,0.26,0
0.0064707,0.0033371,0.02831,0.0060789,0.010316,0.0031716,0,0,0.046782,-0.011018,0,0.016492,0,0,0,0.028753,0.0056352,0.010316,7.9626,0.014902,0.021169,4.0806e-07,0.15,0.26,0
0.0069406,0.0035234,0.028392,0.0057481,0.010242,0.003008,0,0,0.04719,-0.011684,0,0.015642,0,0,0,0.028785,0.0053554,0.010242,7.4393,0.014794,0.021409,4.1679e-07,0.16,0.26,0
0.0074145,0.0037033,0.028467,0.0054278,0.010168,0.0028429,0,0,0.047576,-0.012326,0,0.014783,0,0,0,0.028813,0.0050822,0.010168,6.9315,0.014688,0.02164,4.2514e-07,0.17,0.26,0
0.0078922,0.0038767,0.028534,0.0051184,0.010096,0.0026774,0,0,0.04794,-0.012941,0,0.013923,0,0,0,0.028837,0.0048162,0.010096,6.4405,0.014583,0.021864,4.3311e-07,0.18,0.26,0
0.0083733,0.0040435,0.028595,0.0048204,0.010025,0.0025126,0,0,0.048282,-0.013531,0,0.013066,0,0,0,0.028857,0.0045578,0.010025,5.9676,0.01448,0.02208,4.4068e-07,0.19,0.26,0
0.0088578,0.0042038,0.028648,0.0045341,0.0099546,0.0023495,0,0,0.048603,-0.014093,0,0.012218,0,0,0,0.028875,0.0043074,0.0099546,5.5135,0.014379,0.022287,4.4786e-07,0.2,0.26,0
0.0093454,0.0043573,0.028695,0.0042597,0.0098862,0.002189,0,0,0.048901,-0.014629,0,0.011383,0,0,0,0.028889,0.0040651,0.0098862,5.0789,0.01428,0.022486,4.5464e-07,0.21,0.26,0
0.0098359,0.0045043,0.028735,0.003997,0.0098195,0.0020317,0,0,0.049179,-0.015138,0,0.010565,0,0,0,0.0289,0.0038312,0.0098195,4.6641,0.014184,0.022676,4.6102e-07,0.22,0.26,0
0.010329,0.0046447,0.028769,0.0037461,0.0097544,0.0018784,0,0,0.049437,-0.015622,0,0.0097675,0,0,0,0.028909,0.0036059,0.0097544,4.2691,0.01409,0.022858,4.6701e-07,0.23,0.26,0
0.010825,0.0047786,0.028797,0.0035067,0.0096912,0.0017295,0,0,0.049675,-0.01608,0,0.0089932,0,0,0,0.028915,0.003389,0.0096912,3.8939,0.013998,0.023031,4.7262e-07,0.24,0.26,0
0.011322,0.0049061,0.02882,0.0032788,0.0096297,0.0015854,0,0,0.049896,-0.016512,0,0.0082442,0,0,0,0.028918,0.0031808,0.0096297,3.5384,0.01391,0.023196,4.7785e-07,0.25,0.26,0
0.011822,0.0050274,0.028839,0.0030619,0.0095702,0.0014466,0,0,0.050098,-0.016921,0,0.0075222,0,0,0,0.02892,0.002981,0.0095702,3.202,0.013824,0.023352,4.8272e-07,0.26,0.26,0
0.012325,0.0051426,0.028853,0.0028559,0.0095125,0.0013132,0,0,0.050284,-0.017307,0,0.0068287,0,0,0,0.028919,0.0027897,0.0095125,2.8845,0.01374,0.0235,4.8723e-07,0.27,0.26,0
0.012828,0.0052518,0.028862,0.0026602,0.0094568,0.0011855,0,0,0.050455,-0.017671,0,0.0061647,0,0,0,0.028916,0.0026067,0.0094568,2.5853,0.01366,0.023641,4.9142e-07,0.28,0.26,0
0.013333,0.0053552,0.028869,0.0024747,0.009403,0.0010636,0,0,0.050611,-0.018014,0,0.0055306,0,0,0,0.028911,0.0024319,0.009403,2.3038,0.013582,0.023773,4.9527e-07,0.29,0.26,0
0.01384,0.0054529,0.028871,0.0022989,0.0093511,0.0009475,0,0,0.050753,-0.018336,0,0.004927,0,0,0,0.028905,0.0022652,0.0093511,2.0395,0.013507,0.023898,4.9883e-07,0.3,0.26,0
0.014349,0.0055452,0.028871,0.0021325,0.0093011,0.00083727,0,0,0.050882,-0.018639,0,0.0043538,0,0,0,0.028897,0.0021063,0.0093011,1.7917,0.013435,0.024016,5.0208e-07,0.31,0.26,0
0.014858,0.0056323,0.028869,0.001975,0.0092531,0.00073288,0,0,0.051,-0.018923,0,0.003811,0,0,0,0.028889,0.001955,0.0092531,1.5598,0.013366,0.024127,5.0506e-07,0.32,0.26,0
0.015369,0.0057142,0.028863,0.0018261,0.0092069,0.00063427,0,0,0.051107,-0.01919,0,0.0032982,0,0,0,0.028878,0.0018112,0.0092069,1.3431,0.013299,0.024231,5.0777e-07,0.33,0.26,0
0.01588,0.0057912,0.028856,0.0016854,0.0091625,0.00054134,0,0,0.051204,-0.01944,0,0.002815,0,0,0,0.028867,0.0016746,0.0091625,1.1409,0.013235,0.024329,5.1024e-07,0.34,0.26,0
0.016393,0.0058635,0.028847,0.0015526,0.0091199,0.00045399,0,0,0.051291,-0.019675,0,0.0023608,0,0,0,0.028855,0.0015451,0.0091199,0.95265,0.013173,0.02442,5.1247e-07,0.35,0.26,0
0.016906,0.0059312,0.028837,0.0014273,0.0090792,0.00037207,0,0,0.051369,-0.019895,0,0.0019348,0,0,0,0.028842,0.0014222,0.0090792,0.77758,0.013114,0.024505,5.1449e-07,0.36,0.26,0
0.01742,0.0059946,0.028825,0.0013091,0.0090401,0.00029544,0,0,0.05144,-0.020101,0,0.0015363,0,0,0,0.028828,0.0013059,0.0090401,0.61511,0.013058,0.024585,5.1629e-07,0.37,0.26,0
0.017935,0.0060539,0.028812,0.0011978,0.0090028,0.00022394,0,0,0.051503,-0.020293,0,0.0011645,0,0,0,0.028813,0.001196,0.0090028,0.4646,0.013004,0.024659,5.179e-07,0.38,0.26,0
0.01845,0.0061092,0.028798,0.0010929,0.0089671,0.00015737,0,0,0.051559,-0.020473,0,0.00081833,0,0,0,0.028798,0.001092,0.0089671,0.32545,0.012953,0.024728,5.1934e-07,0.39,0.26,0
0.018966,0.0061607,0.028783,0.00099422,0.008933,9.5575e-05,0,0,0.051609,-0.020641,0,0.00049699,0,0,0,0.028783,0.0009939,0.008933,0.19706,0.012903,0.024792,5.206e-07,0.4,0.26,0
0.019482,0.0062086,0.028767,0.00090142,0.0089005,3.8359e-05,0,0,0.051653,-0.020798,0,0.00019946,0,0,0,0.028767,0.00090137,0.0089005,0.078871,0.012856,0.024851,5.2171e-07,0.41,0.26,0
0.019999,0.006253,0.028751,0.00081421,0.0088695,-1.4466e-05,0,0,0.051691,-0.020944,0,-7.5226e-05,0,0,0,0.028751,0.00081421,0.0088695,-0.02967,0.012811,0.024906,5.2267e-07,0.42,0.26,0
0.020516,0.0062942,0.028734,0.00073232,0.00884,-6.3089e-05,0,0,0.051725,-0.02108,0,-0.00032807,0,0,0,0.028734,0.00073218,0.00884,-0.12909,0.012769,0.024956,5.235e-07,0.43,0.26,0
0.021034,0.0063323,0.028717,0.00065547,0.0088119,-0.0001077,0,0,0.051755,-0.021207,0,-0.00056004,0,0,0,0.028718,0.00065506,0.0088119,-0.21989,0.012728,0.025003,5.2421e-07,0.44,0.26,0
0.021551,0.0063674,0.0287,0.00058341,0.0087851,-0.00014849,0,0,0.05178,-0.021324,0,-0.00077213,0,0,0,0.028701,0.00058263,0.0087851,-0.30257,0.01269,0.025046,5.248e-07,0.45,0.26,0
0.022069,0.0063997,0.028683,0.0005159,0.0087597,-0.00018563,0,0,0.051801,-0.021434,0,-0.00096529,0,0,0,0.028684,0.00051468,0.0087597,-0.37758,0.012653,0.025085,5.2529e-07,0.46,0.26,0
0.022587,0.0064294,0.028666,0.00045271,0.0087356,-0.00021932,0,0,0.051819,-0.021535,0,-0.0011405,0,0,0,0.028668,0.000451,0.0087356,-0.44537,0.012618,0.025121,5.2568e-07,0.47,0.26,0
0.023106,0.0064566,0.028649,0.0003936,0.0087127,-0.00024973,0,0,0.051834,-0.02163,0,-0.0012986,0,0,0,0.028651,0.00039139,0.0087127,-0.50635,0.012585,0.025153,5.2598e-07,0.48,0.26,0
0.023624,0.0064814,0.028632,0.00033837,0.008691,-0.00027704,0,0,0.051846,-0.021717,0,-0.0014406,0,0,0,0.028634,0.00033566,0.008691,-0.56095,0.012554,0.025183,5.262e-07,0.49,0.26,0
0.024142,0.0065041,0.028615,0.00028681,0.0086704,-0.0003014,0,0,0.051855,-0.021797,0,-0.0015673,0,0,0,0.028618,0.0002836,0.0086704,-0.60953,0.012524,0.02521,5.2634e-07,0.5,0.26,0
0.024661,0.0065246,0.028598,0.00023873,0.0086509,-0.000323,0,0,0.051862,-0.021872,0,-0.0016796,0,0,0,0.028601,0.00023505,0.0086509,-0.65246,0.012496,0.025234,5.2642e-07,0.51,0.26,0
0.02518,0.0065431,0.028581,0.00019393,0.0086325,-0.00034198,0,0,0.051866,-0.02194,0,-0.0017783,0,0,0,0.028585,0.00018981,0.0086325,-0.6901,0.012469,0.025256,5.2644e-07,0.52,0.26,0
0.025698,0.0065598,0.028565,0.00015224,0.0086151,-0.00035849,0,0,0.051869,-0.022003,0,-0.0018641,0,0,0,0.028569,0.00014772,0.0086151,-0.72277,0.012444,0.025275,5.264e-07,0.53,0.26,0
0.026217,0.0065748,0.028549,0.00011349,0.0085986,-0.00037269,0,0,0.05187,-0.022061,0,-0.001938,0,0,0,0.028554,0.0001086,0.0085986,-0.75077,0.01242,0.025292,5.2632e-07,0.54,0.26,0
0.026736,0.0065882,0.028533,7.7508e-05,0.0085831,-0.0003847,0,0,0.051869,-0.022115,0,-0.0020005,0,0,0,0.028538,7.2308e-05,0.0085831,-0.77442,0.012398,0.025308,5.2619e-07,0.55,0.26,0
0.027254,0.0066,0.028518,4.4144e-05,0.0085685,-0.00039468,0,0,0.051867,-0.022163,0,-0.0020523,0,0,0,0.028523,3.8674e-05,0.0085685,-0.79399,0.012377,0.025321,5.2602e-07,0.56,0.26,0
0.027773,0.0066105,0.028503,1.3246e-05,0.0085547,-0.00040274,0,0,0.051864,-0.022208,0,-0.0020942,0,0,0,0.028508,7.5536e-06,0.0085547,-0.80975,0.012357,0.025333,5.2581e-07,0.57,0.26,0
0.028292,0.0066196,0.028488,-1.5329e-05,0.0085417,-0.00040901,0,0,0.05186,-0.022248,0,-0.0021268,0,0,0,0.028494,-2.1197e-05,0.0085417,-0.82194,0.012338,0.025343,5.2558e-07,0.58,0.26,0
0.02881,0.0066275,0.028473,-4.1717e-05,0.0085295,-0.0004136,0,0,0.051854,-0.022285,0,-0.0021507,0,0,0,0.028479,-4.7715e-05,0.0085295,-0.83082,0.01232,0.025351,5.2532e-07,0.59,0.26,0
0.029329,0.0066342,0.028459,-6.6049e-05,0.008518,-0.00041663,0,0,0.051848,-0.022319,0,-0.0021665,0,0,0,0.028466,-7.2132e-05,0.008518,-0.83659,0.012304,0.025358,5.2503e-07,0.6,0.26,0
0.029847,0.0066399,0.028446,-8.8449e-05,0.0085073,-0.0004182,0,0,0.051841,-0.022349,0,-0.0021746,0,0,0,0.028452,-9.4576e-05,0.0085073,-0.83948,0.012288,0.025364,5.2473e-07,0.61,0.26,0
0.030366,0.0066447,0.028433,-0.00010904,0.0084972,-0.00041841,0,0,0.051833,-0.022376,0,-0.0021757,0,0,0,0.028439,-0.00011517,0.0084972,-0.83969,0.012274,0.025369,5.2441e-07,0.62,0.26,0
0.030884,0.0066485,0.02842,-0.00012792,0.0084877,-0.00041736,0,0,0.051825,-0.022401,0,-0.0021703,0,0,0,0.028426,-0.00013402,0.0084877,-0.8374,0.01226,0.025373,5.2407e-07,0.63,0.26,0
0.031402,0.0066516,0.028408,-0.00014522,0.0084788,-0.00041514,0,0,0.051816,-0.022423,0,-0.0021587,0,0,0,0.028414,-0.00015125,0.0084788,-0.8328,0.012247,0.025376,5.2373e-07,0.64,0.26,0
0.03192,0.0066539,0.028396,-0.00016103,0.0084705,-0.00041183,0,0,0.051806,-0.022442,0,-0.0021415,0,0,0,0.028402,-0.00016697,0.0084705,-0.82605,0.012235,0.025378,5.2337e-07,0.65,0.26,0
0.032438,0.0066555,0.028385,-0.00017544,0.0084628,-0.00040751,0,0,0.051797,-0.022459,0,-0.002119,0,0,0,0.02839,-0.00018126,0.0084628,-0.8173,0.012224,0.025379,5.2301e-07,0.66,0.26,0
0.032956,0.0066565,0.028374,-0.00018856,0.0084555,-0.00040226,0,0,0.051787,-0.022475,0,-0.0020917,0,0,0,0.028379,-0.00019423,0.0084555,-0.80672,0.012214,0.025379,5.2264e-07,0.67,0.26,0
0.033474,0.0066569,0.028363,-0.00020048,0.0084488,-0.00039615,0,0,0.051777,-0.022488,0,-0.00206,0,0,0,0.028369,-0.00020597,0.0084488,-0.79443,0.012204,0.025379,5.2228e-07,0.68,0.26,0
0.033992,0.0066568,0.028353,-0.00021126,0.0084425,-0.00038924,0,0,0.051767,-0.0225,0,-0.0020241,0,0,0,0.028358,-0.00021657,0.0084425,-0.78057,0.012195,0.025378,5.2191e-07,0.69,0.26,0
0.034509,0.0066563,0.028343,-0.00022101,0.0084366,-0.0003816,0,0,0.051757,-0.02251,0,-0.0019843,0,0,0,0.028348,-0.00022611,0.0084366,-0.76527,0.012186,0.025377,5.2154e-07,0.7,0.26,0
0.035027,0.0066553,0.028334,-0.00022979,0.0084312,-0.00037329,0,0,0.051746,-0.022518,0,-0.0019411,0,0,0,0.028338,-0.00023467,0.0084312,-0.74863,0.012178,0.025375,5.2118e-07,0.71,0.26,0
0.035544,0.006654,0.028325,-0.00023767,0.0084261,-0.00036437,0,0,0.051736,-0.022526,0,-0.0018947,0,0,0,0.028329,-0.00024232,0.0084261,-0.73076,0.012171,0.025373,5.2082e-07,0.72,0.26,0
0.036062,0.0066525,0.028316,-0.00024473,0.0084214,-0.00035487,0,0,0.051726,-0.022532,0,-0.0018453,0,0,0,0.02832,-0.00024914,0.0084214,-0.71177,0.012164,0.025371,5.2046e-07,0.73,0.26,0
0.036579,0.0066506,0.028308,-0.00025102,0.008417,-0.00034486,0,0,0.051716,-0.022537,0,-0.0017933,0,0,0,0.028312,-0.00025519,0.008417,-0.69174,0.012158,0.025368,5.2011e-07,0.74,0.26,0
0.037096,0.0066485,0.0283,-0.00025662,0.008413,-0.00033438,0,0,0.051706,-0.022541,0,-0.0017388,0,0,0,0.028304,-0.00026053,0.008413,-0.67077,0.012152,0.025365,5.1977e-07,0.75,0.26,0
0.037613,0.0066463,0.028293,-0.00026158,0.0084093,-0.00032346,0,0,0.051696,-0.022544,0,-0.001682,0,0,0,0.028296,-0.00026524,0.0084093,-0.64894,0.012147,0.025362,5.1944e-07,0.76,0.26,0
0.03813,0.0066438,0.028285,-0.00026594,0.0084058,-0.00031215,0,0,0.051687,-0.022547,0,-0.0016232,0,0,0,0.028289,-0.00026936,0.0084058,-0.62632,0.012142,0.025359,5.1911e-07,0.77,0.26,0
0.038647,0.0066413,0.028279,-0.00026978,0.0084027,-0.00030049,0,0,0.051678,-0.022548,0,-0.0015626,0,0,0,0.028282,-0.00027294,0.0084027,-0.60298,0.012137,0.025356,5.188e-07,0.78,0.26,0
0.039163,0.0066387,0.028272,-0.00027313,0.0083997,-0.0002885,0,0,0.051669,-0.02255,0,-0.0015002,0,0,0,0.028275,-0.00027604,0.0083997,-0.579,0.012133,0.025352,5.1849e-07,0.79,0.26,0
0.03968,0.006636,0.028266,-0.00027603,0.0083971,-0.00027622,0,0,0.05166,-0.02255,0,-0.0014363,0,0,0,0.028269,-0.00027871,0.0083971,-0.55441,0.012129,0.025349,5.182e-07,0.8,0.26,0
0.040197,0.0066333,0.028261,-0.00027855,0.0083946,-0.00026367,0,0,0.051652,-0.02255,0,-0.0013711,0,0,0,0.028263,-0.00028098,0.0083946,-0.5293,0.012126,0.025345,5.1792e-07,0.81,0.26,0
0.040713,0.0066306,0.028255,-0.0002807,0.0083924,-0.00025089,0,0,0.051644,-0.02255,0,-0.0013046,0,0,0,0.028257,-0.00028291,0.0083924,-0.5037,0.012122,0.025342,5.1765e-07,0.82,0.26,0
0.041229,0.0066279,0.02825,-0.00028254,0.0083903,-0.00023789,0,0,0.051636,-0.022549,0,-0.001237,0,0,0,0.028252,-0.00028452,0.0083903,-0.47766,0.012119,0.025339,5.1739e-07,0.83,0.26,0
0.041746,0.0066252,0.028245,-0.00028409,0.0083884,-0.00022471,0,0,0.051628,-0.022548,0,-0.0011685,0,0,0,0.028247,-0.00028586,0.0083884,-0.45123,0.012117,0.025335,5.1715e-07,0.84,0.26,0
0.042262,0.0066226,0.028241,-0.00028539,0.0083867,-0.00021134,0,0,0.051622,-0.022548,0,-0.001099,0,0,0,0.028243,-0.00028696,0.0083867,-0.42446,0.012114,0.025332,5.1692e-07,0.85,0.26,0
0.042778,0.0066201,0.028237,-0.00028648,0.0083852,-0.00019783,0,0,0.051615,-0.022546,0,-0.0010287,0,0,0,0.028238,-0.00028785,0.0083852,-0.39736,0.012112,0.025329,5.1671e-07,0.86,0.26,0
0.043294,0.0066178,0.028233,-0.00028736,0.0083838,-0.00018418,0,0,0.051609,-0.022545,0,-0.00095775,0,0,0,0.028234,-0.00028855,0.0083838,-0.36999,0.01211,0.025326,5.165e-07,0.87,0.26,0
0.04381,0.0066155,0.02823,-0.00028809,0.0083825,-0.00017041,0,0,0.051603,-0.022544,0,-0.00088615,0,0,0,0.028231,-0.00028911,0.0083825,-0.34236,0.012108,0.025323,5.1632e-07,0.88,0.26,0
0.044326,0.0066133,0.028227,-0.00028867,0.0083814,-0.00015654,0,0,0.051598,-0.022542,0,-0.000814,0,0,0,0.028227,-0.00028953,0.0083814,-0.31452,0.012106,0.025321,5.1614e-07,0.89,0.26,0
0.044842,0.0066113,0.028224,-0.00028913,0.0083804,-0.00014257,0,0,0.051593,-0.022541,0,-0.00074137,0,0,0,0.028224,-0.00028984,0.0083804,-0.28648,0.012105,0.025318,5.1598e-07,0.9,0.26,0
0.045358,0.0066094,0.028221,-0.00028949,0.0083795,-0.00012852,0,0,0.051588,-0.022539,0,-0.00066832,0,0,0,0.028222,-0.00029007,0.0083795,-0.25827,0.012104,0.025316,5.1584e-07,0.91,0.26,0
0.045874,0.0066077,0.028219,-0.00028976,0.0083787,-0.0001144,0,0,0.051584,-0.022538,0,-0.0005949,0,0,0,0.028219,-0.00029022,0.0083787,-0.22992,0.012103,0.025314,5.1571e-07,0.92,0.26,0
0.04639,0.0066062,0.028217,-0.00028997,0.0083781,-0.00010023,0,0,0.051581,-0.022537,0,-0.00052118,0,0,0,0.028217,-0.00029032,0.0083781,-0.20144,0.012102,0.025312,5.1559e-07,0.93,0.26,0
0.046906,0.0066049,0.028215,-0.00029012,0.0083775,-8.5997e-05,0,0,0.051578,-0.022536,0,-0.00044719,0,0,0,0.028215,-0.00029038,0.0083775,-0.17285,0.012101,0.025311,5.1549e-07,0.94,0.26,0
0.047421,0.0066038,0.028214,-0.00029023,0.008377,-7.1726e-05,0,0,0.051575,-0.022535,0,-0.00037297,0,0,0,0.028214,-0.00029041,0.008377,-0.14418,0.0121,0.025309,5.1541e-07,0.95,0.26,0
0.047937,0.0066028,0.028212,-0.0002903,0.0083766,-5.7421e-05,0,0,0.051573,-0.022534,0,-0.00029859,0,0,0,0.028213,-0.00029042,0.0083766,-0.11542,0.0121,0.025308,5.1534e-07,0.96,0.26,0
0.048453,0.0066021,0.028212,-0.00029035,0.0083763,-4.3088e-05,0,0,0.051571,-0.022533,0,-0.00022406,0,0,0,0.028212,-0.00029042,0.0083763,-0.086618,0.012099,0.025307,5.1529e-07,0.97,0.26,0
0.048969,0.0066016,0.028211,-0.00029038,0.0083761,-2.8736e-05,0,0,0.05157,-0.022533,0,-0.00014943,0,0,0,0.028211,-0.00029041,0.0083761,-0.057769,0.012099,0.025307,5.1525e-07,0.98,0.26,0
0.049484,0.0066013,0.02821,-0.0002904,0.008376,-1.4371e-05,0,0,0.051569,-0.022533,0,-7.4732e-05,0,0,0,0.02821,-0.00029041,0.008376,-0.028891,0.012099,0.025306,5.1522e-07,0.99,0.26,0
0.05,0.0066011,0.02821,-0.00029041,0.008376,-2.0385e-06,0,0,0.051569,-0.022533,0,-1.06e-05,0,0,0,0.02821,-0.00029041,0.008376,-0.0040981,0.012099,0.025306,5.1522e-07,1,0.26,0
0,0,0.026635,0.011415,0.011415,0.004443,0,0,0.039571,5.9631e-19,0,0.023104,0,0,0,0.027837,0.010213,0.011415,15.139,0.016488,0.017055,2.5051e-07,0,0.27,0
0.00039571,0.00023104,0.026606,0.011055,0.011298,0.004437,0,0,0.0398,-0.00063352,0,0.023072,0,0,0,0.027783,0.0098776,0.011298,14.855,0.01632,0.017239,2.5711e-07,0.01,0.27,0
0.00079601,0.00046205,0.026729,0.010746,0.011243,0.0044215,0,0,0.040265,-0.0012907,0,0.022992,0,0,0,0.027871,0.0096046,0.011243,14.477,0.016239,0.017505,2.6737e-07,0.02,0.27,0
0.001201,0.00069251,0.026855,0.010427,0.011184,0.0043917,0,0,0.040743,-0.0019703,0,0.022837,0,0,0,0.027955,0.0093263,0.011184,14.066,0.016155,0.017773,2.7773e-07,0.03,0.27,0
0.0016109,0.00092187,0.026982,0.010097,0.011123,0.0043472,0,0,0.041232,-0.00267,0,0.022606,0,0,0,0.028035,0.0090431,0.011123,13.622,0.016067,0.018042,2.8816e-07,0.04,0.27,0
0.0020256,0.0011496,0.02711,0.0097575,0.01106,0.0042884,0,0,0.041729,-0.003387,0,0.0223,0,0,0,0.028112,0.0087556,0.01106,13.151,0.015976,0.018313,2.9866e-07,0.05,0.27,0
0.0024455,0.0013751,0.027238,0.0094108,0.010995,0.0042156,0,0,0.042233,-0.0041182,0,0.021921,0,0,0,0.028185,0.0084642,0.010995,12.655,0.015881,0.018585,3.0919e-07,0.06,0.27,0
0.0028703,0.0015979,0.027366,0.0090581,0.010927,0.0041294,0,0,0.042741,-0.0048595,0,0.021473,0,0,0,0.028254,0.0081698,0.010927,12.14,0.015784,0.018857,3.1972e-07,0.07,0.27,0
0.0033003,0.0018175,0.027492,0.0087013,0.010858,0.0040306,0,0,0.043248,-0.0056072,0,0.020959,0,0,0,0.02832,0.0078732,0.010858,11.61,0.015684,0.01913,3.3023e-07,0.08,0.27,0
0.0037353,0.0020334,0.027615,0.0083423,0.010787,0.0039203,0,0,0.043753,-0.006357,0,0.020386,0,0,0,0.028382,0.0075753,0.010787,11.069,0.015582,0.019401,3.4068e-07,0.09,0.27,0
0.0041753,0.0022452,0.027735,0.0079828,0.010715,0.0037995,0,0,0.044252,-0.007105,0,0.019758,0,0,0,0.028441,0.0072771,0.010715,10.521,0.015478,0.019671,3.5104e-07,0.1,0.27,0
0.0046203,0.0024523,0.027851,0.0076247,0.010643,0.0036696,0,0,0.044742,-0.007847,0,0.019082,0,0,0,0.028496,0.0069795,0.010643,9.9716,0.015373,0.019939,3.6126e-07,0.11,0.27,0
0.0050702,0.0026546,0.027962,0.0072697,0.01057,0.0035317,0,0,0.045221,-0.0085796,0,0.018365,0,0,0,0.028548,0.0066835,0.01057,9.4237,0.015267,0.020204,3.7131e-07,0.12,0.27,0
0.0055247,0.0028516,0.028067,0.0069193,0.010496,0.0033872,0,0,0.045685,-0.0092993,0,0.017614,0,0,0,0.028597,0.0063901,0.010496,8.881,0.015161,0.020465,3.8116e-07,0.13,0.27,0
0.0059839,0.003043,0.028167,0.0065751,0.010422,0.0032375,0,0,0.046135,-0.010003,0,0.016835,0,0,0,0.028642,0.0061001,0.010422,8.3466,0.015055,0.020721,3.9076e-07,0.14,0.27,0
0.0064474,0.0032286,0.028259,0.0062381,0.010349,0.0030838,0,0,0.046566,-0.010689,0,0.016036,0,0,0,0.028683,0.0058144,0.010349,7.8232,0.014949,0.020972,4.001e-07,0.15,0.27,0
0.0069152,0.0034082,0.028345,0.0059095,0.010276,0.0029275,0,0,0.046979,-0.011354,0,0.015223,0,0,0,0.028721,0.0055338,0.010276,7.313,0.014844,0.021217,4.0914e-07,0.16,0.27,0
0.007387,0.0035817,0.028424,0.00559,0.010204,0.0027696,0,0,0.047372,-0.011997,0,0.014402,0,0,0,0.028755,0.0052589,0.010204,6.8177,0.01474,0.021456,4.1785e-07,0.17,0.27,0
0.0078626,0.003749,0.028496,0.0052805,0.010133,0.0026113,0,0,0.047745,-0.012617,0,0.013579,0,0,0,0.028786,0.0049904,0.010133,6.3389,0.014637,0.021687,4.2621e-07,0.18,0.27,0
0.0083419,0.0039099,0.028562,0.0049813,0.010063,0.0024535,0,0,0.048097,-0.013212,0,0.012758,0,0,0,0.028814,0.0047287,0.010063,5.8777,0.014535,0.021911,4.3422e-07,0.19,0.27,0
0.0088246,0.0040644,0.02862,0.004693,0.0099939,0.0022972,0,0,0.048428,-0.013782,0,0.011945,0,0,0,0.028839,0.0044744,0.0099939,5.4347,0.014436,0.022127,4.4186e-07,0.2,0.27,0
0.0093104,0.0042126,0.028672,0.0044157,0.0099263,0.0021432,0,0,0.048739,-0.014328,0,0.011145,0,0,0,0.02886,0.0042277,0.0099263,5.0107,0.014338,0.022335,4.4911e-07,0.21,0.27,0
0.0097993,0.0043544,0.028718,0.0041495,0.0098601,0.0019921,0,0,0.049029,-0.014848,0,0.010359,0,0,0,0.028878,0.003989,0.0098601,4.6058,0.014242,0.022535,4.5598e-07,0.22,0.27,0
0.010291,0.0044899,0.028757,0.0038945,0.0097955,0.0018446,0,0,0.0493,-0.015343,0,0.0095921,0,0,0,0.028893,0.0037584,0.0097955,4.2202,0.014149,0.022726,4.6246e-07,0.23,0.27,0
0.010785,0.0046192,0.028791,0.0036507,0.0097325,0.0017012,0,0,0.049552,-0.015813,0,0.0088463,0,0,0,0.028906,0.0035361,0.0097325,3.8537,0.014058,0.022909,4.6855e-07,0.24,0.27,0
0.011282,0.0047423,0.02882,0.0034178,0.0096712,0.0015623,0,0,0.049786,-0.016259,0,0.0081238,0,0,0,0.028915,0.0033221,0.0096712,3.5062,0.01397,0.023083,4.7427e-07,0.25,0.27,0
0.011781,0.0048594,0.028843,0.0031958,0.0096117,0.0014282,0,0,0.050002,-0.016681,0,0.0074264,0,0,0,0.028923,0.0031165,0.0096117,3.1774,0.013884,0.023249,4.7962e-07,0.26,0.27,0
0.012282,0.0049707,0.028862,0.0029843,0.009554,0.0012991,0,0,0.050202,-0.017081,0,0.0067555,0,0,0,0.028927,0.0029192,0.009554,2.8668,0.0138,0.023407,4.846e-07,0.27,0.27,0
0.012785,0.0050762,0.028877,0.0027831,0.009498,0.0011754,0,0,0.050385,-0.017459,0,0.006112,0,0,0,0.02893,0.0027303,0.009498,2.5739,0.013719,0.023556,4.8923e-07,0.28,0.27,0
0.01329,0.0051761,0.028888,0.0025919,0.0094439,0.0010571,0,0,0.050554,-0.017815,0,0.0054967,0,0,0,0.02893,0.0025495,0.0094439,2.2983,0.013641,0.023698,4.9352e-07,0.29,0.27,0
0.013796,0.0052705,0.028895,0.0024104,0.0093916,0.00094424,0,0,0.050709,-0.018151,0,0.00491,0,0,0,0.028928,0.0023768,0.0093916,2.0393,0.013566,0.023832,4.9748e-07,0.3,0.27,0
0.014304,0.0053597,0.028899,0.0022383,0.0093411,0.00083695,0,0,0.05085,-0.018468,0,0.0043521,0,0,0,0.028925,0.002212,0.0093411,1.7963,0.013493,0.023958,5.0113e-07,0.31,0.27,0
0.014813,0.0054438,0.0289,0.0020751,0.0092925,0.00073519,0,0,0.050979,-0.018765,0,0.003823,0,0,0,0.02892,0.002055,0.0092925,1.5687,0.013423,0.024077,5.0447e-07,0.32,0.27,0
0.015324,0.005523,0.028898,0.0019206,0.0092457,0.00063892,0,0,0.051097,-0.019045,0,0.0033224,0,0,0,0.028913,0.0019055,0.0092457,1.3559,0.013355,0.024188,5.0754e-07,0.33,0.27,0
0.015835,0.0055974,0.028894,0.0017744,0.0092006,0.00054806,0,0,0.051204,-0.019308,0,0.0028499,0,0,0,0.028905,0.0017634,0.0092006,1.1573,0.01329,0.024293,5.1033e-07,0.34,0.27,0
0.016348,0.0056673,0.028888,0.0016362,0.0091573,0.00046253,0,0,0.0513,-0.019555,0,0.0024052,0,0,0,0.028896,0.0016284,0.0091573,0.97208,0.013227,0.024391,5.1286e-07,0.35,0.27,0
0.016861,0.0057328,0.02888,0.0015057,0.0091158,0.00038221,0,0,0.051388,-0.019786,0,0.0019875,0,0,0,0.028886,0.0015003,0.0091158,0.79977,0.013167,0.024483,5.1515e-07,0.36,0.27,0
0.017375,0.0057941,0.028871,0.0013824,0.009076,0.00030697,0,0,0.051467,-0.020003,0,0.0015962,0,0,0,0.028874,0.001379,0.009076,0.63972,0.01311,0.024568,5.1722e-07,0.37,0.27,0
0.017891,0.0058514,0.02886,0.0012661,0.0090378,0.00023665,0,0,0.051537,-0.020206,0,0.0012306,0,0,0,0.028862,0.0012641,0.0090378,0.49133,0.013055,0.024648,5.1907e-07,0.38,0.27,0
0.018406,0.0059049,0.028848,0.0011565,0.0090012,0.0001711,0,0,0.051601,-0.020396,0,0.00088972,0,0,0,0.028849,0.0011554,0.0090012,0.35401,0.013002,0.024722,5.2072e-07,0.39,0.27,0
0.018922,0.0059546,0.028834,0.0010532,0.0089663,0.00011016,0,0,0.051657,-0.020574,0,0.00057282,0,0,0,0.028835,0.0010528,0.0089663,0.22719,0.012951,0.024791,5.2219e-07,0.4,0.27,0
0.019439,0.0060009,0.02882,0.00095599,0.0089328,5.365e-05,0,0,0.051707,-0.02074,0,0.00027898,0,0,0,0.02882,0.00095588,0.0089328,0.11032,0.012903,0.024855,5.2347e-07,0.41,0.27,0
0.019957,0.0060438,0.028805,0.00086454,0.0089009,1.4016e-06,0,0,0.051751,-0.020895,0,7.2885e-06,0,0,0,0.028805,0.00086454,0.0089009,0.0028742,0.012857,0.024914,5.246e-07,0.42,0.27,0
0.020474,0.0060836,0.02879,0.0007786,0.0088705,-4.6765e-05,0,0,0.05179,-0.021039,0,-0.00024318,0,0,0,0.02879,0.00077852,0.0088705,-0.095655,0.012813,0.024969,5.2558e-07,0.43,0.27,0
0.020992,0.0061204,0.028774,0.00069789,0.0088414,-9.1026e-05,0,0,0.051823,-0.021173,0,-0.00047334,0,0,0,0.028774,0.0006976,0.0088414,-0.18576,0.012771,0.025019,5.2641e-07,0.44,0.27,0
0.021511,0.0061543,0.028757,0.00062215,0.0088138,-0.00013156,0,0,0.051853,-0.021298,0,-0.00068411,0,0,0,0.028758,0.00062154,0.0088138,-0.26791,0.012731,0.025065,5.2711e-07,0.45,0.27,0
0.02203,0.0061855,0.02874,0.00055114,0.0087874,-0.00016854,0,0,0.051877,-0.021414,0,-0.00087641,0,0,0,0.028741,0.00055013,0.0087874,-0.34255,0.012693,0.025107,5.277e-07,0.46,0.27,0
0.022548,0.0062141,0.028723,0.00048462,0.0087624,-0.00020214,0,0,0.051898,-0.021522,0,-0.0010512,0,0,0,0.028725,0.00048317,0.0087624,-0.41012,0.012657,0.025146,5.2817e-07,0.47,0.27,0
0.023067,0.0062404,0.028706,0.00042236,0.0087385,-0.00023254,0,0,0.051916,-0.021622,0,-0.0012092,0,0,0,0.028708,0.00042045,0.0087385,-0.47102,0.012622,0.025181,5.2855e-07,0.48,0.27,0
0.023587,0.0062643,0.028689,0.00036414,0.0087159,-0.00025989,0,0,0.05193,-0.021715,0,-0.0013514,0,0,0,0.028691,0.00036176,0.0087159,-0.52564,0.01259,0.025213,5.2883e-07,0.49,0.27,0
0.024106,0.0062861,0.028672,0.00030976,0.0086945,-0.00028435,0,0,0.051941,-0.0218,0,-0.0014786,0,0,0,0.028675,0.00030691,0.0086945,-0.57436,0.012559,0.025242,5.2902e-07,0.5,0.27,0
0.024626,0.0063058,0.028655,0.00025901,0.0086741,-0.00030609,0,0,0.051949,-0.021879,0,-0.0015917,0,0,0,0.028658,0.00025571,0.0086741,-0.61753,0.012529,0.025268,5.2914e-07,0.51,0.27,0
0.025145,0.0063237,0.028638,0.0002117,0.0086548,-0.00032526,0,0,0.051955,-0.021952,0,-0.0016914,0,0,0,0.028641,0.00020798,0.0086548,-0.65549,0.012501,0.025291,5.2919e-07,0.52,0.27,0
0.025665,0.0063397,0.028621,0.00016764,0.0086365,-0.000342,0,0,0.051959,-0.022019,0,-0.0017784,0,0,0,0.028625,0.00016353,0.0086365,-0.68856,0.012475,0.025312,5.2917e-07,0.53,0.27,0
0.026184,0.0063541,0.028604,0.00012666,0.0086193,-0.00035646,0,0,0.051961,-0.022081,0,-0.0018536,0,0,0,0.028609,0.0001222,0.0086193,-0.71704,0.01245,0.02533,5.291e-07,0.54,0.27,0
0.026704,0.0063669,0.028588,8.8587e-05,0.0086029,-0.00036877,0,0,0.051961,-0.022137,0,-0.0019176,0,0,0,0.028592,8.3816e-05,0.0086029,-0.74122,0.012426,0.025347,5.2897e-07,0.55,0.27,0
0.027223,0.0063783,0.028572,5.326e-05,0.0085875,-0.00037906,0,0,0.051959,-0.022189,0,-0.0019711,0,0,0,0.028577,4.8223e-05,0.0085875,-0.76138,0.012404,0.025361,5.288e-07,0.56,0.27,0
0.027743,0.0063882,0.028556,2.0523e-05,0.0085729,-0.00038745,0,0,0.051956,-0.022236,0,-0.0020148,0,0,0,0.028561,1.5263e-05,0.0085729,-0.77778,0.012383,0.025373,5.2859e-07,0.57,0.27,0
0.028262,0.0063969,0.02854,-9.7724e-06,0.0085591,-0.00039408,0,0,0.051951,-0.022279,0,-0.0020492,0,0,0,0.028546,-1.5211e-05,0.0085591,-0.79065,0.012363,0.025384,5.2834e-07,0.58,0.27,0
0.028782,0.0064044,0.028525,-3.7769e-05,0.0085462,-0.00039904,0,0,0.051945,-0.022318,0,-0.002075,0,0,0,0.028531,-4.3343e-05,0.0085462,-0.80024,0.012344,0.025393,5.2807e-07,0.59,0.27,0
0.029301,0.0064109,0.02851,-6.3602e-05,0.008534,-0.00040245,0,0,0.051938,-0.022354,0,-0.0020927,0,0,0,0.028516,-6.9269e-05,0.008534,-0.80677,0.012327,0.025401,5.2776e-07,0.6,0.27,0
0.029821,0.0064163,0.028496,-8.7402e-05,0.0085225,-0.00040441,0,0,0.05193,-0.022386,0,-0.0021029,0,0,0,0.028501,-9.3122e-05,0.0085225,-0.81044,0.01231,0.025407,5.2743e-07,0.61,0.27,0
0.03034,0.0064207,0.028482,-0.00010929,0.0085117,-0.00040502,0,0,0.051922,-0.022415,0,-0.0021061,0,0,0,0.028487,-0.00011503,0.0085117,-0.81144,0.012295,0.025412,5.2708e-07,0.62,0.27,0
0.030859,0.0064243,0.028468,-0.00012939,0.0085016,-0.00040438,0,0,0.051913,-0.02244,0,-0.0021028,0,0,0,0.028474,-0.00013511,0.0085016,-0.80997,0.01228,0.025416,5.2671e-07,0.63,0.27,0
0.031378,0.0064271,0.028455,-0.00014781,0.0084921,-0.00040257,0,0,0.051903,-0.022464,0,-0.0020933,0,0,0,0.02846,-0.00015348,0.0084921,-0.8062,0.012266,0.025419,5.2633e-07,0.64,0.27,0
0.031897,0.0064292,0.028442,-0.00016466,0.0084831,-0.00039967,0,0,0.051893,-0.022484,0,-0.0020783,0,0,0,0.028447,-0.00017025,0.0084831,-0.80029,0.012253,0.025421,5.2594e-07,0.65,0.27,0
0.032416,0.0064307,0.028429,-0.00018005,0.0084748,-0.00039576,0,0,0.051882,-0.022503,0,-0.002058,0,0,0,0.028435,-0.00018552,0.0084748,-0.79239,0.012241,0.025422,5.2554e-07,0.66,0.27,0
0.032935,0.0064315,0.028417,-0.00019406,0.008467,-0.00039093,0,0,0.051871,-0.022519,0,-0.0020328,0,0,0,0.028423,-0.0001994,0.008467,-0.78266,0.01223,0.025422,5.2513e-07,0.67,0.27,0
0.033453,0.0064318,0.028406,-0.0002068,0.0084596,-0.00038523,0,0,0.051859,-0.022533,0,-0.0020032,0,0,0,0.028411,-0.00021199,0.0084596,-0.77123,0.012219,0.025421,5.2472e-07,0.68,0.27,0
0.033972,0.0064316,0.028394,-0.00021835,0.0084528,-0.00037874,0,0,0.051848,-0.022545,0,-0.0019694,0,0,0,0.028399,-0.00022336,0.0084528,-0.75823,0.01221,0.02542,5.2431e-07,0.69,0.27,0
0.034491,0.0064309,0.028383,-0.00022879,0.0084464,-0.00037151,0,0,0.051836,-0.022555,0,-0.0019318,0,0,0,0.028388,-0.00023362,0.0084464,-0.74377,0.0122,0.025419,5.239e-07,0.7,0.27,0
0.035009,0.0064299,0.028373,-0.00023822,0.0084405,-0.00036361,0,0,0.051825,-0.022565,0,-0.0018908,0,0,0,0.028378,-0.00024284,0.0084405,-0.72798,0.012192,0.025417,5.235e-07,0.71,0.27,0
0.035527,0.0064285,0.028363,-0.00024669,0.0084349,-0.00035508,0,0,0.051813,-0.022572,0,-0.0018464,0,0,0,0.028368,-0.0002511,0.0084349,-0.71096,0.012184,0.025414,5.2309e-07,0.72,0.27,0
0.036045,0.0064269,0.028354,-0.00025429,0.0084298,-0.00034599,0,0,0.051802,-0.022579,0,-0.0017991,0,0,0,0.028358,-0.00025847,0.0084298,-0.69281,0.012176,0.025412,5.2269e-07,0.73,0.27,0
0.036563,0.006425,0.028344,-0.00026108,0.008425,-0.00033637,0,0,0.05179,-0.022584,0,-0.0017491,0,0,0,0.028348,-0.00026504,0.008425,-0.67361,0.012169,0.025408,5.223e-07,0.74,0.27,0
0.037081,0.0064229,0.028335,-0.00026713,0.0084205,-0.00032627,0,0,0.051779,-0.022588,0,-0.0016966,0,0,0,0.028339,-0.00027085,0.0084205,-0.65346,0.012163,0.025405,5.2192e-07,0.75,0.27,0
0.037599,0.0064206,0.028327,-0.0002725,0.0084164,-0.00031574,0,0,0.051768,-0.022591,0,-0.0016419,0,0,0,0.028331,-0.00027599,0.0084164,-0.63245,0.012157,0.025402,5.2154e-07,0.76,0.27,0
0.038116,0.0064181,0.028319,-0.00027725,0.0084126,-0.00030481,0,0,0.051757,-0.022593,0,-0.001585,0,0,0,0.028322,-0.00028049,0.0084126,-0.61063,0.012152,0.025398,5.2117e-07,0.77,0.27,0
0.038634,0.0064156,0.028312,-0.00028142,0.008409,-0.00029352,0,0,0.051747,-0.022595,0,-0.0015263,0,0,0,0.028315,-0.00028443,0.008409,-0.58808,0.012146,0.025394,5.2082e-07,0.78,0.27,0
0.039151,0.0064129,0.028304,-0.00028508,0.0084058,-0.0002819,0,0,0.051736,-0.022596,0,-0.0014659,0,0,0,0.028307,-0.00028786,0.0084058,-0.56487,0.012142,0.02539,5.2047e-07,0.79,0.27,0
0.039669,0.0064103,0.028297,-0.00028827,0.0084028,-0.00026997,0,0,0.051726,-0.022597,0,-0.0014039,0,0,0,0.0283,-0.00029082,0.0084028,-0.54106,0.012137,0.025386,5.2014e-07,0.8,0.27,0
0.040186,0.0064075,0.028291,-0.00029103,0.0084,-0.00025779,0,0,0.051717,-0.022597,0,-0.0013405,0,0,0,0.028293,-0.00029336,0.0084,-0.5167,0.012133,0.025382,5.1982e-07,0.81,0.27,0
0.040703,0.0064049,0.028285,-0.00029341,0.0083975,-0.00024535,0,0,0.051708,-0.022596,0,-0.0012758,0,0,0,0.028287,-0.00029552,0.0083975,-0.49184,0.01213,0.025378,5.1952e-07,0.82,0.27,0
0.04122,0.0064022,0.028279,-0.00029546,0.0083951,-0.0002327,0,0,0.051699,-0.022596,0,-0.00121,0,0,0,0.028281,-0.00029735,0.0083951,-0.46654,0.012126,0.025375,5.1923e-07,0.83,0.27,0
0.041737,0.0063995,0.028274,-0.00029719,0.008393,-0.00021985,0,0,0.05169,-0.022595,0,-0.0011432,0,0,0,0.028276,-0.00029888,0.008393,-0.44084,0.012123,0.025371,5.1895e-07,0.84,0.27,0
0.042254,0.006397,0.028269,-0.00029866,0.0083911,-0.00020682,0,0,0.051682,-0.022593,0,-0.0010754,0,0,0,0.02827,-0.00030015,0.0083911,-0.41477,0.01212,0.025367,5.1869e-07,0.85,0.27,0
0.04277,0.0063945,0.028264,-0.00029989,0.0083893,-0.00019363,0,0,0.051675,-0.022592,0,-0.0010069,0,0,0,0.028265,-0.0003012,0.0083893,-0.38837,0.012118,0.025364,5.1844e-07,0.86,0.27,0
0.043287,0.0063921,0.02826,-0.00030091,0.0083877,-0.0001803,0,0,0.051668,-0.02259,0,-0.00093758,0,0,0,0.028261,-0.00030204,0.0083877,-0.36169,0.012115,0.025361,5.1821e-07,0.87,0.27,0
0.043804,0.0063898,0.028256,-0.00030174,0.0083862,-0.00016685,0,0,0.051661,-0.022589,0,-0.00086763,0,0,0,0.028257,-0.00030272,0.0083862,-0.33474,0.012113,0.025357,5.18e-07,0.88,0.27,0
0.04432,0.0063876,0.028252,-0.00030242,0.0083849,-0.00015329,0,0,0.051655,-0.022587,0,-0.00079711,0,0,0,0.028253,-0.00030325,0.0083849,-0.30757,0.012112,0.025354,5.178e-07,0.89,0.27,0
0.044837,0.0063856,0.028249,-0.00030297,0.0083838,-0.00013963,0,0,0.051649,-0.022586,0,-0.00072609,0,0,0,0.02825,-0.00030366,0.0083838,-0.28019,0.01211,0.025352,5.1762e-07,0.9,0.27,0
0.045353,0.0063838,0.028246,-0.00030341,0.0083827,-0.00012589,0,0,0.051644,-0.022584,0,-0.00065462,0,0,0,0.028247,-0.00030396,0.0083827,-0.25264,0.012108,0.025349,5.1745e-07,0.91,0.27,0
0.04587,0.0063821,0.028243,-0.00030375,0.0083818,-0.00011207,0,0,0.05164,-0.022583,0,-0.00058278,0,0,0,0.028244,-0.00030419,0.0083818,-0.22493,0.012107,0.025347,5.173e-07,0.92,0.27,0
0.046386,0.0063806,0.028241,-0.00030401,0.0083811,-9.8193e-05,0,0,0.051636,-0.022581,0,-0.0005106,0,0,0,0.028241,-0.00030435,0.0083811,-0.19709,0.012106,0.025345,5.1717e-07,0.93,0.27,0
0.046902,0.0063793,0.028239,-0.00030421,0.0083804,-8.4259e-05,0,0,0.051632,-0.02258,0,-0.00043815,0,0,0,0.028239,-0.00030446,0.0083804,-0.16914,0.012105,0.025343,5.1706e-07,0.94,0.27,0
0.047419,0.0063782,0.028237,-0.00030436,0.0083798,-7.0281e-05,0,0,0.051629,-0.022579,0,-0.00036546,0,0,0,0.028237,-0.00030453,0.0083798,-0.14109,0.012104,0.025341,5.1696e-07,0.95,0.27,0
0.047935,0.0063773,0.028236,-0.00030447,0.0083794,-5.6268e-05,0,0,0.051627,-0.022578,0,-0.00029259,0,0,0,0.028236,-0.00030458,0.0083794,-0.11296,0.012104,0.02534,5.1688e-07,0.96,0.27,0
0.048451,0.0063765,0.028235,-0.00030454,0.0083791,-4.2225e-05,0,0,0.051625,-0.022577,0,-0.00021957,0,0,0,0.028235,-0.0003046,0.0083791,-0.084771,0.012103,0.025339,5.1682e-07,0.97,0.27,0
0.048968,0.006376,0.028234,-0.00030459,0.0083788,-2.8162e-05,0,0,0.051623,-0.022577,0,-0.00014644,0,0,0,0.028234,-0.00030461,0.0083788,-0.056539,0.012103,0.025338,5.1678e-07,0.98,0.27,0
0.049484,0.0063757,0.028234,-0.00030461,0.0083786,-1.4084e-05,0,0,0.051623,-0.022576,0,-7.3238e-05,0,0,0,0.028234,-0.00030462,0.0083786,-0.028277,0.012103,0.025338,5.1675e-07,0.99,0.27,0
0.05,0.0063756,0.028233,-0.00030462,0.0083786,-2.0193e-06,0,0,0.051622,-0.022576,0,-1.0501e-05,0,0,0,0.028233,-0.00030462,0.0083786,-0.0040543,0.012102,0.025338,5.1674e-07,1,0.27,0
0,0,0.026618,0.011408,0.011408,0.0043241,0,0,0.039546,7.3184e-19,0,0.022485,0,0,0,0.027761,0.010264,0.011408,14.811,0.016478,0.016954,2.4646e-07,0,0.28,0
0.00039546,0.00022485,0.02659,0.011064,0.011296,0.0043176,0,0,0.039765,-0.00060396,0,0.022452,0,0,0,0.02771,0.0099442,0.011296,14.541,0.016317,0.01713,2.5276e-07,0.01,0.28,0
0.00079529,0.00044944,0.026708,0.01077,0.011244,0.0042997,0,0,0.040208,-0.0012309,0,0.022358,0,0,0,0.027794,0.0096841,0.011244,14.174,0.016241,0.017383,2.6246e-07,0.02,0.28,0
0.0011996,0.00067326,0.026828,0.010465,0.011188,0.0042677,0,0,0.040665,-0.0018801,0,0.022192,0,0,0,0.027874,0.0094187,0.011188,13.773,0.01616,0.017638,2.7227e-07,0.03,0.28,0
0.0016086,0.00089578,0.02695,0.010149,0.01113,0.0042217,0,0,0.041133,-0.0025498,0,0.021953,0,0,0,0.027951,0.009148,0.01113,13.341,0.016076,0.017895,2.8218e-07,0.04,0.28,0
0.0020223,0.0011165,0.027074,0.009824,0.011069,0.004162,0,0,0.041611,-0.0032379,0,0.021642,0,0,0,0.028025,0.0088723,0.011069,12.88,0.015989,0.018155,2.922e-07,0.05,0.28,0
0.0024408,0.0013348,0.027198,0.0094906,0.011007,0.0040891,0,0,0.042097,-0.0039414,0,0.021263,0,0,0,0.028096,0.0085919,0.011007,12.395,0.015898,0.018416,3.0229e-07,0.06,0.28,0
0.0028642,0.0015504,0.027322,0.0091506,0.010942,0.0040037,0,0,0.042588,-0.0046571,0,0.020819,0,0,0,0.028165,0.0083076,0.010942,11.89,0.015805,0.01868,3.1245e-07,0.07,0.28,0
0.0032926,0.0017626,0.027445,0.0088054,0.010875,0.0039066,0,0,0.043082,-0.0053812,0,0.020314,0,0,0,0.028231,0.0080198,0.010875,11.371,0.015709,0.018945,3.2266e-07,0.08,0.28,0
0.0037259,0.0019711,0.027566,0.008457,0.010807,0.0037989,0,0,0.043575,-0.0061102,0,0.019754,0,0,0,0.028294,0.0077295,0.010807,10.841,0.01561,0.019211,3.3289e-07,0.09,0.28,0
0.0041641,0.0021755,0.027685,0.0081069,0.010738,0.0036816,0,0,0.044064,-0.0068399,0,0.019144,0,0,0,0.028355,0.0074375,0.010738,10.305,0.01551,0.019478,3.431e-07,0.1,0.28,0
0.0046071,0.0023753,0.027801,0.007757,0.010667,0.0035558,0,0,0.044547,-0.0075667,0,0.01849,0,0,0,0.028413,0.0071449,0.010667,9.7676,0.015408,0.019744,3.5325e-07,0.11,0.28,0
0.005055,0.0025703,0.027912,0.0074089,0.010596,0.0034229,0,0,0.04502,-0.008287,0,0.017799,0,0,0,0.028468,0.0068526,0.010596,9.232,0.015306,0.020008,3.6331e-07,0.12,0.28,0
0.0055076,0.0027601,0.028018,0.0070642,0.010525,0.003284,0,0,0.045483,-0.0089973,0,0.017077,0,0,0,0.028521,0.0065616,0.010525,8.7018,0.015202,0.02027,3.7325e-07,0.13,0.28,0
0.0059647,0.0029445,0.028119,0.0067243,0.010453,0.0031403,0,0,0.045932,-0.0096947,0,0.01633,0,0,0,0.028571,0.0062729,0.010453,8.18,0.015099,0.020529,3.8301e-07,0.14,0.28,0
0.0064262,0.0031233,0.028214,0.0063905,0.010381,0.0029931,0,0,0.046365,-0.010377,0,0.015564,0,0,0,0.028617,0.0059874,0.010381,7.6692,0.014995,0.020784,3.9255e-07,0.15,0.28,0
0.006892,0.0032963,0.028303,0.0060638,0.01031,0.0028433,0,0,0.046782,-0.01104,0,0.014785,0,0,0,0.028661,0.005706,0.01031,7.1716,0.014892,0.021034,4.0186e-07,0.16,0.28,0
0.0073618,0.0034634,0.028386,0.0057452,0.010239,0.0026922,0,0,0.047181,-0.011685,0,0.013999,0,0,0,0.028702,0.0054295,0.010239,6.6887,0.01479,0.021279,4.1089e-07,0.17,0.28,0
0.0078356,0.0036244,0.028462,0.0054355,0.010169,0.0025406,0,0,0.047561,-0.012308,0,0.013211,0,0,0,0.028739,0.0051586,0.010169,6.222,0.014689,0.021517,4.1961e-07,0.18,0.28,0
0.0083131,0.0037793,0.028531,0.0051354,0.0101,0.0023896,0,0,0.047922,-0.012908,0,0.012426,0,0,0,0.028773,0.0048938,0.0101,5.7726,0.014589,0.021749,4.2801e-07,0.19,0.28,0
0.008794,0.0039281,0.028594,0.0048452,0.010032,0.0022399,0,0,0.048263,-0.013485,0,0.011647,0,0,0,0.028804,0.0046358,0.010032,5.341,0.01449,0.021973,4.3606e-07,0.2,0.28,0
0.0092783,0.0040708,0.028651,0.0045653,0.0099649,0.0020922,0,0,0.048584,-0.014039,0,0.01088,0,0,0,0.028831,0.0043849,0.0099649,4.9279,0.014394,0.022189,4.4374e-07,0.21,0.28,0
0.0097657,0.0042073,0.028702,0.004296,0.0098993,0.0019473,0,0,0.048886,-0.014568,0,0.010126,0,0,0,0.028856,0.0041416,0.0098993,4.5334,0.014299,0.022398,4.5106e-07,0.22,0.28,0
0.010256,0.0043378,0.028746,0.0040373,0.009835,0.0018057,0,0,0.049169,-0.015074,0,0.0093895,0,0,0,0.028877,0.003906,0.009835,4.1577,0.014206,0.022598,4.5799e-07,0.23,0.28,0
0.010749,0.0044623,0.028785,0.0037893,0.0097722,0.0016678,0,0,0.049433,-0.015556,0,0.0086725,0,0,0,0.028896,0.0036785,0.0097722,3.8005,0.014115,0.02279,4.6454e-07,0.24,0.28,0
0.011245,0.004581,0.028818,0.0035519,0.009711,0.0015341,0,0,0.049679,-0.016014,0,0.0079771,0,0,0,0.028911,0.0034591,0.009711,3.4618,0.014027,0.022973,4.7071e-07,0.25,0.28,0
0.011743,0.0046938,0.028847,0.003325,0.0096515,0.0014048,0,0,0.049907,-0.016449,0,0.007305,0,0,0,0.028924,0.0032479,0.0096515,3.1411,0.013941,0.023148,4.765e-07,0.26,0.28,0
0.012243,0.004801,0.02887,0.0031085,0.0095936,0.0012803,0,0,0.050119,-0.016861,0,0.0066575,0,0,0,0.028934,0.003045,0.0095936,2.8382,0.013857,0.023314,4.8191e-07,0.27,0.28,0
0.012745,0.0049026,0.028889,0.0029021,0.0095374,0.0011607,0,0,0.050315,-0.017252,0,0.0060358,0,0,0,0.028941,0.0028504,0.0095374,2.5524,0.013776,0.023473,4.8697e-07,0.28,0.28,0
0.013249,0.0049989,0.028904,0.0027056,0.009483,0.0010462,0,0,0.050495,-0.017621,0,0.0054404,0,0,0,0.028946,0.0026639,0.009483,2.2832,0.013698,0.023623,4.9166e-07,0.29,0.28,0
0.013755,0.0050899,0.028916,0.0025187,0.0094303,0.00093691,0,0,0.050662,-0.01797,0,0.0048719,0,0,0,0.028949,0.0024855,0.0094303,2.0302,0.013621,0.023764,4.9601e-07,0.3,0.28,0
0.014262,0.0051759,0.028923,0.0023412,0.0093793,0.00083282,0,0,0.050814,-0.018299,0,0.0043306,0,0,0,0.028949,0.0023151,0.0093793,1.7927,0.013548,0.023898,5.0003e-07,0.31,0.28,0
0.014771,0.0052569,0.028928,0.0021727,0.0093302,0.00073395,0,0,0.050954,-0.01861,0,0.0038165,0,0,0,0.028948,0.0021525,0.0093302,1.5702,0.013477,0.024025,5.0373e-07,0.32,0.28,0
0.015281,0.0053333,0.02893,0.0020128,0.0092827,0.00064029,0,0,0.051082,-0.018902,0,0.0033295,0,0,0,0.028945,0.0019976,0.0092827,1.3619,0.013408,0.024143,5.0713e-07,0.33,0.28,0
0.015793,0.005405,0.028929,0.0018614,0.009237,0.00055178,0,0,0.051198,-0.019177,0,0.0028692,0,0,0,0.02894,0.0018502,0.009237,1.1674,0.013342,0.024255,5.1023e-07,0.34,0.28,0
0.016305,0.0054724,0.028925,0.0017181,0.009193,0.00046834,0,0,0.051304,-0.019435,0,0.0024354,0,0,0,0.028933,0.00171,0.009193,0.98588,0.013279,0.02436,5.1306e-07,0.35,0.28,0
0.016819,0.0055355,0.02892,0.0015824,0.0091507,0.00038987,0,0,0.0514,-0.019678,0,0.0020273,0,0,0,0.028926,0.0015769,0.0091507,0.8169,0.013218,0.024458,5.1563e-07,0.36,0.28,0
0.017333,0.0055946,0.028913,0.0014543,0.0091101,0.00031627,0,0,0.051487,-0.019905,0,0.0016446,0,0,0,0.028916,0.0014506,0.0091101,0.65982,0.013159,0.024549,5.1794e-07,0.37,0.28,0
0.017849,0.0056498,0.028904,0.0013332,0.0090711,0.00024739,0,0,0.051565,-0.020119,0,0.0012864,0,0,0,0.028906,0.001331,0.0090711,0.51406,0.013103,0.024635,5.2003e-07,0.38,0.28,0
0.018365,0.0057013,0.028893,0.001219,0.0090337,0.0001831,0,0,0.051635,-0.020318,0,0.00095211,0,0,0,0.028895,0.0012178,0.0090337,0.37906,0.013049,0.024714,5.2189e-07,0.39,0.28,0
0.018881,0.0057492,0.028882,0.0011113,0.0089979,0.00012324,0,0,0.051698,-0.020505,0,0.00064085,0,0,0,0.028882,0.0011107,0.0089979,0.25426,0.012997,0.024788,5.2355e-07,0.4,0.28,0
0.019399,0.0057938,0.028869,0.0010098,0.0089636,6.7661e-05,0,0,0.051754,-0.02068,0,0.00035184,0,0,0,0.028869,0.0010096,0.0089636,0.13915,0.012948,0.024856,5.2502e-07,0.41,0.28,0
0.019917,0.0058352,0.028855,0.00091427,0.0089309,1.6197e-05,0,0,0.051803,-0.020843,0,8.4223e-05,0,0,0,0.028855,0.00091426,0.0089309,0.033213,0.0129,0.024919,5.2631e-07,0.42,0.28,0
0.020435,0.0058734,0.028841,0.0008244,0.0088995,-3.1316e-05,0,0,0.051847,-0.020995,0,-0.00016284,0,0,0,0.028841,0.00082436,0.0088995,-0.064043,0.012855,0.024978,5.2743e-07,0.43,0.28,0
0.020953,0.0059088,0.028825,0.00073993,0.0088696,-7.5042e-05,0,0,0.051885,-0.021137,0,-0.00039022,0,0,0,0.028826,0.00073973,0.0088696,-0.15309,0.012812,0.025032,5.2839e-07,0.44,0.28,0
0.021472,0.0059415,0.028809,0.00066061,0.008841,-0.00011515,0,0,0.051918,-0.021269,0,-0.00059878,0,0,0,0.02881,0.00066014,0.008841,-0.23438,0.01277,0.025081,5.2921e-07,0.45,0.28,0
0.021992,0.0059715,0.028793,0.00058618,0.0088138,-0.0001518,0,0,0.051946,-0.021392,0,-0.00078938,0,0,0,0.028794,0.00058536,0.0088138,-0.30834,0.012731,0.025126,5.2989e-07,0.46,0.28,0
0.022511,0.005999,0.028776,0.00051641,0.0087879,-0.00018517,0,0,0.051971,-0.021506,0,-0.00096287,0,0,0,0.028778,0.0005152,0.0087879,-0.37539,0.012694,0.025167,5.3046e-07,0.47,0.28,0
0.023031,0.0060242,0.02876,0.00045107,0.0087632,-0.0002154,0,0,0.051991,-0.021611,0,-0.0011201,0,0,0,0.028761,0.00044943,0.0087632,-0.43594,0.012658,0.025205,5.3091e-07,0.48,0.28,0
0.023551,0.0060472,0.028742,0.00038993,0.0087397,-0.00024267,0,0,0.052007,-0.021709,0,-0.0012619,0,0,0,0.028744,0.00038785,0.0087397,-0.49034,0.012624,0.025239,5.3125e-07,0.49,0.28,0
0.024071,0.0060681,0.028725,0.00033278,0.0087174,-0.00026711,0,0,0.05202,-0.0218,0,-0.001389,0,0,0,0.028728,0.00033026,0.0087174,-0.53897,0.012592,0.02527,5.315e-07,0.5,0.28,0
0.024592,0.006087,0.028708,0.00027941,0.0086962,-0.00028889,0,0,0.05203,-0.021884,0,-0.0015022,0,0,0,0.028711,0.00027647,0.0086962,-0.58217,0.012561,0.025298,5.3166e-07,0.51,0.28,0
0.025112,0.0061041,0.028691,0.00022963,0.0086761,-0.00030815,0,0,0.052038,-0.021961,0,-0.0016024,0,0,0,0.028694,0.00022629,0.0086761,-0.62026,0.012532,0.025323,5.3174e-07,0.52,0.28,0
0.025632,0.0061195,0.028673,0.00018324,0.008657,-0.00032503,0,0,0.052043,-0.022032,0,-0.0016902,0,0,0,0.028677,0.00017954,0.008657,-0.65355,0.012504,0.025345,5.3175e-07,0.53,0.28,0
0.026153,0.0061332,0.028656,0.00014007,0.0086389,-0.00033967,0,0,0.052045,-0.022097,0,-0.0017663,0,0,0,0.02866,0.00013602,0.0086389,-0.68235,0.012478,0.025365,5.317e-07,0.54,0.28,0
0.026673,0.0061454,0.028639,9.9936e-05,0.0086218,-0.0003522,0,0,0.052046,-0.022157,0,-0.0018314,0,0,0,0.028644,9.559e-05,0.0086218,-0.70693,0.012454,0.025383,5.3158e-07,0.55,0.28,0
0.027194,0.0061562,0.028622,6.2673e-05,0.0086056,-0.00036273,0,0,0.052044,-0.022211,0,-0.0018862,0,0,0,0.028627,5.8066e-05,0.0086056,-0.72755,0.01243,0.025398,5.3142e-07,0.56,0.28,0
0.027714,0.0061657,0.028606,2.812e-05,0.0085902,-0.00037141,0,0,0.052041,-0.022262,0,-0.0019313,0,0,0,0.028611,2.3294e-05,0.0085902,-0.74447,0.012408,0.025411,5.312e-07,0.57,0.28,0
0.028234,0.006174,0.02859,-3.8771e-06,0.0085758,-0.00037833,0,0,0.052036,-0.022307,0,-0.0019673,0,0,0,0.028595,-8.8821e-06,0.0085758,-0.75793,0.012387,0.025423,5.3095e-07,0.58,0.28,0
0.028755,0.0061811,0.028574,-3.3465e-05,0.0085621,-0.00038362,0,0,0.05203,-0.022349,0,-0.0019948,0,0,0,0.028579,-3.8609e-05,0.0085621,-0.76815,0.012368,0.025432,5.3066e-07,0.59,0.28,0
0.029275,0.0061871,0.028558,-6.0786e-05,0.0085492,-0.00038738,0,0,0.052023,-0.022386,0,-0.0020144,0,0,0,0.028563,-6.6028e-05,0.0085492,-0.77535,0.012349,0.02544,5.3033e-07,0.6,0.28,0
0.029795,0.0061922,0.028543,-8.5973e-05,0.008537,-0.0003897,0,0,0.052015,-0.02242,0,-0.0020264,0,0,0,0.028548,-9.1277e-05,0.008537,-0.77973,0.012331,0.025447,5.2998e-07,0.61,0.28,0
0.030315,0.0061964,0.028528,-0.00010916,0.0085256,-0.00039069,0,0,0.052006,-0.02245,0,-0.0020316,0,0,0,0.028533,-0.00011449,0.0085256,-0.78148,0.012315,0.025452,5.2961e-07,0.62,0.28,0
0.030835,0.0061997,0.028513,-0.00013046,0.0085148,-0.00039043,0,0,0.051996,-0.022478,0,-0.0020302,0,0,0,0.028519,-0.00013578,0.0085148,-0.78077,0.012299,0.025456,5.2922e-07,0.63,0.28,0
0.031355,0.0062023,0.028499,-0.00015,0.0085047,-0.00038901,0,0,0.051985,-0.022502,0,-0.0020229,0,0,0,0.028504,-0.00015528,0.0085047,-0.7778,0.012285,0.025459,5.288e-07,0.64,0.28,0
0.031875,0.0062042,0.028485,-0.00016789,0.0084952,-0.00038651,0,0,0.051974,-0.022524,0,-0.0020099,0,0,0,0.02849,-0.00017311,0.0084952,-0.7727,0.012271,0.025461,5.2838e-07,0.65,0.28,0
0.032395,0.0062054,0.028472,-0.00018424,0.0084863,-0.00038302,0,0,0.051962,-0.022543,0,-0.0019917,0,0,0,0.028477,-0.00018936,0.0084863,-0.76564,0.012258,0.025462,5.2795e-07,0.66,0.28,0
0.032914,0.0062061,0.028459,-0.00019914,0.0084779,-0.00037859,0,0,0.05195,-0.02256,0,-0.0019687,0,0,0,0.028464,-0.00020415,0.0084779,-0.75675,0.012246,0.025462,5.2751e-07,0.67,0.28,0
0.033434,0.0062062,0.028446,-0.00021271,0.00847,-0.00037331,0,0,0.051938,-0.022575,0,-0.0019412,0,0,0,0.028451,-0.00021757,0.00847,-0.74617,0.012235,0.025462,5.2706e-07,0.68,0.28,0
0.033953,0.0062059,0.028434,-0.00022502,0.0084627,-0.00036724,0,0,0.051925,-0.022588,0,-0.0019096,0,0,0,0.028439,-0.00022972,0.0084627,-0.73403,0.012224,0.025461,5.2661e-07,0.69,0.28,0
0.034472,0.0062052,0.028422,-0.00023617,0.0084558,-0.00036043,0,0,0.051913,-0.022599,0,-0.0018742,0,0,0,0.028427,-0.0002407,0.0084558,-0.72044,0.012214,0.025459,5.2616e-07,0.7,0.28,0
0.034991,0.006204,0.028411,-0.00024623,0.0084494,-0.00035294,0,0,0.0519,-0.022609,0,-0.0018353,0,0,0,0.028415,-0.00025058,0.0084494,-0.70552,0.012205,0.025456,5.2571e-07,0.71,0.28,0
0.03551,0.0062026,0.0284,-0.0002553,0.0084434,-0.00034483,0,0,0.051887,-0.022617,0,-0.0017931,0,0,0,0.028404,-0.00025945,0.0084434,-0.68936,0.012196,0.025454,5.2527e-07,0.72,0.28,0
0.036029,0.0062009,0.028389,-0.00026345,0.0084378,-0.00033616,0,0,0.051874,-0.022623,0,-0.001748,0,0,0,0.028393,-0.00026739,0.0084378,-0.67207,0.012188,0.02545,5.2483e-07,0.73,0.28,0
0.036548,0.0061989,0.028379,-0.00027074,0.0084326,-0.00032695,0,0,0.051861,-0.022629,0,-0.0017002,0,0,0,0.028383,-0.00027447,0.0084326,-0.65374,0.01218,0.025447,5.244e-07,0.74,0.28,0
0.037066,0.0061968,0.02837,-0.00027725,0.0084277,-0.00031727,0,0,0.051849,-0.022633,0,-0.0016498,0,0,0,0.028373,-0.00028076,0.0084277,-0.63445,0.012173,0.025443,5.2397e-07,0.75,0.28,0
0.037585,0.0061944,0.02836,-0.00028303,0.0084232,-0.00030714,0,0,0.051837,-0.022636,0,-0.0015971,0,0,0,0.028364,-0.00028633,0.0084232,-0.61429,0.012167,0.025439,5.2356e-07,0.76,0.28,0
0.038103,0.006192,0.028352,-0.00028816,0.008419,-0.00029662,0,0,0.051825,-0.022639,0,-0.0015424,0,0,0,0.028355,-0.00029123,0.008419,-0.59332,0.012161,0.025435,5.2315e-07,0.77,0.28,0
0.038621,0.0061894,0.028343,-0.00029268,0.0084151,-0.00028572,0,0,0.051813,-0.02264,0,-0.0014858,0,0,0,0.028346,-0.00029553,0.0084151,-0.57161,0.012155,0.025431,5.2276e-07,0.78,0.28,0
0.039139,0.0061868,0.028335,-0.00029665,0.0084116,-0.00027449,0,0,0.051801,-0.022641,0,-0.0014274,0,0,0,0.028338,-0.00029928,0.0084116,-0.54923,0.01215,0.025427,5.2238e-07,0.79,0.28,0
0.039657,0.0061841,0.028328,-0.00030013,0.0084082,-0.00026296,0,0,0.05179,-0.022642,0,-0.0013674,0,0,0,0.02833,-0.00030254,0.0084082,-0.52624,0.012145,0.025422,5.2201e-07,0.8,0.28,0
0.040175,0.0061814,0.02832,-0.00030315,0.0084052,-0.00025116,0,0,0.05178,-0.022642,0,-0.001306,0,0,0,0.028323,-0.00030535,0.0084052,-0.5027,0.012141,0.025418,5.2166e-07,0.81,0.28,0
0.040693,0.0061786,0.028314,-0.00030577,0.0084024,-0.00023911,0,0,0.051769,-0.022641,0,-0.0012434,0,0,0,0.028316,-0.00030776,0.0084024,-0.47865,0.012137,0.025414,5.2132e-07,0.82,0.28,0
0.04121,0.006176,0.028307,-0.00030802,0.0083998,-0.00022683,0,0,0.051759,-0.02264,0,-0.0011795,0,0,0,0.028309,-0.00030982,0.0083998,-0.45414,0.012133,0.025409,5.21e-07,0.83,0.28,0
0.041728,0.0061734,0.028301,-0.00030994,0.0083974,-0.00021435,0,0,0.05175,-0.022639,0,-0.0011146,0,0,0,0.028303,-0.00031155,0.0083974,-0.42922,0.01213,0.025405,5.2069e-07,0.84,0.28,0
0.042245,0.0061708,0.028296,-0.00031158,0.0083952,-0.00020169,0,0,0.051741,-0.022638,0,-0.0010488,0,0,0,0.028297,-0.000313,0.0083952,-0.40393,0.012126,0.025401,5.204e-07,0.85,0.28,0
0.042763,0.0061683,0.02829,-0.00031296,0.0083932,-0.00018887,0,0,0.051733,-0.022636,0,-0.00098213,0,0,0,0.028292,-0.0003142,0.0083932,-0.37831,0.012124,0.025397,5.2012e-07,0.86,0.28,0
0.04328,0.0061659,0.028286,-0.00031411,0.0083914,-0.0001759,0,0,0.051725,-0.022634,0,-0.0009147,0,0,0,0.028287,-0.00031519,0.0083914,-0.35238,0.012121,0.025394,5.1987e-07,0.87,0.28,0
0.043797,0.0061637,0.028281,-0.00031507,0.0083898,-0.00016281,0,0,0.051717,-0.022633,0,-0.0008466,0,0,0,0.028282,-0.00031599,0.0083898,-0.32619,0.012119,0.02539,5.1963e-07,0.88,0.28,0
0.044314,0.0061616,0.028277,-0.00031585,0.0083883,-0.0001496,0,0,0.05171,-0.022631,0,-0.0007779,0,0,0,0.028278,-0.00031664,0.0083883,-0.29976,0.012117,0.025387,5.1941e-07,0.89,0.28,0
0.044832,0.0061596,0.028273,-0.00031649,0.008387,-0.00013629,0,0,0.051704,-0.022629,0,-0.00070869,0,0,0,0.028274,-0.00031714,0.008387,-0.27312,0.012115,0.025384,5.1921e-07,0.9,0.28,0
0.045349,0.0061578,0.02827,-0.00031701,0.0083859,-0.00012289,0,0,0.051699,-0.022627,0,-0.00063902,0,0,0,0.02827,-0.00031754,0.0083859,-0.24629,0.012113,0.025381,5.1902e-07,0.91,0.28,0
0.045866,0.0061561,0.028267,-0.00031742,0.0083848,-0.00010941,0,0,0.051693,-0.022626,0,-0.00056895,0,0,0,0.028267,-0.00031784,0.0083848,-0.21931,0.012111,0.025379,5.1886e-07,0.92,0.28,0
0.046383,0.0061546,0.028264,-0.00031774,0.008384,-9.5872e-05,0,0,0.051689,-0.022624,0,-0.00049853,0,0,0,0.028265,-0.00031806,0.008384,-0.19218,0.01211,0.025376,5.1871e-07,0.93,0.28,0
0.046899,0.0061533,0.028262,-0.00031799,0.0083832,-8.2275e-05,0,0,0.051685,-0.022623,0,-0.00042783,0,0,0,0.028262,-0.00031822,0.0083832,-0.16494,0.012109,0.025375,5.1859e-07,0.94,0.28,0
0.047416,0.0061522,0.02826,-0.00031818,0.0083826,-6.8631e-05,0,0,0.051681,-0.022622,0,-0.00035688,0,0,0,0.02826,-0.00031834,0.0083826,-0.1376,0.012108,0.025373,5.1848e-07,0.95,0.28,0
0.047933,0.0061513,0.028258,-0.00031832,0.0083821,-5.4949e-05,0,0,0.051679,-0.022621,0,-0.00028574,0,0,0,0.028259,-0.00031842,0.0083821,-0.11017,0.012107,0.025371,5.1839e-07,0.96,0.28,0
0.04845,0.0061505,0.028257,-0.00031842,0.0083816,-4.1238e-05,0,0,0.051677,-0.02262,0,-0.00021444,0,0,0,0.028257,-0.00031847,0.0083816,-0.082683,0.012107,0.02537,5.1832e-07,0.97,0.28,0
0.048967,0.00615,0.028256,-0.00031848,0.0083814,-2.7504e-05,0,0,0.051675,-0.02262,0,-0.00014302,0,0,0,0.028256,-0.00031851,0.0083814,-0.055148,0.012106,0.02537,5.1827e-07,0.98,0.28,0
0.049483,0.0061497,0.028256,-0.00031852,0.0083812,-1.3756e-05,0,0,0.051674,-0.022619,0,-7.1529e-05,0,0,0,0.028256,-0.00031853,0.0083812,-0.027582,0.012106,0.025369,5.1824e-07,0.99,0.28,0
0.05,0.0061496,0.028256,-0.00031853,0.0083811,-1.9983e-06,0,0,0.051674,-0.022619,0,-1.0391e-05,0,0,0,0.028256,-0.00031853,0.0083811,-0.0040068,0.012106,0.025369,5.1823e-07,1,0.28,0
0,0,0.026607,0.011403,0.011403,0.0042108,0,0,0.03953,2.7105e-20,0,0.021896,0,0,0,0.027695,0.010315,0.011403,14.491,0.016471,0.016863,2.4281e-07,0,0.29,0
0.0003953,0.00021896,0.026581,0.011076,0.011297,0.0042039,0,0,0.039738,-0.00057442,0,0.02186,0,0,0,0.027648,0.01001,0.011297,14.235,0.016318,0.017031,2.4882e-07,0.01,0.29,0
0.00079477,0.00043743,0.026693,0.010796,0.011247,0.0041833,0,0,0.040161,-0.0011716,0,0.021753,0,0,0,0.027727,0.0097627,0.011247,13.879,0.016246,0.01727,2.5798e-07,0.02,0.29,0
0.0011985,0.00065491,0.026808,0.010505,0.011194,0.004149,0,0,0.040597,-0.0017911,0,0.021575,0,0,0,0.027803,0.00951,0.011194,13.488,0.016169,0.017512,2.6725e-07,0.03,0.29,0
0.0016067,0.00087087,0.026925,0.010203,0.011139,0.004101,0,0,0.041045,-0.002432,0,0.021325,0,0,0,0.027877,0.0092515,0.011139,13.064,0.016089,0.017757,2.7665e-07,0.04,0.29,0
0.0020194,0.0010848,0.027044,0.0098912,0.011081,0.0040399,0,0,0.041505,-0.0030924,0,0.021008,0,0,0,0.027948,0.0089873,0.011081,12.611,0.016005,0.018006,2.8619e-07,0.05,0.29,0
0.0024368,0.0012963,0.027164,0.0095704,0.01102,0.0039664,0,0,0.041974,-0.0037699,0,0.020625,0,0,0,0.028017,0.0087175,0.01102,12.135,0.015918,0.018257,2.9586e-07,0.06,0.29,0
0.0028589,0.0015048,0.027285,0.0092421,0.010958,0.0038811,0,0,0.042449,-0.0044615,0,0.020182,0,0,0,0.028084,0.0084426,0.010958,11.639,0.015828,0.018512,3.0566e-07,0.07,0.29,0
0.0032858,0.0017099,0.027405,0.0089077,0.010894,0.003785,0,0,0.042929,-0.0051639,0,0.019682,0,0,0,0.02815,0.0081632,0.010894,11.128,0.015736,0.018771,3.1558e-07,0.08,0.29,0
0.0037175,0.0019112,0.027524,0.008569,0.010828,0.0036791,0,0,0.043411,-0.0058735,0,0.019131,0,0,0,0.028213,0.0078799,0.010828,10.608,0.015641,0.019031,3.2558e-07,0.09,0.29,0
0.004154,0.0021084,0.027642,0.0082275,0.010761,0.0035645,0,0,0.043891,-0.0065866,0,0.018535,0,0,0,0.028276,0.0075938,0.010761,10.082,0.015543,0.019294,3.3564e-07,0.1,0.29,0
0.0045953,0.002301,0.027757,0.007885,0.010693,0.0034423,0,0,0.044367,-0.0072994,0,0.0179,0,0,0,0.028336,0.0073057,0.010693,9.5543,0.015445,0.019558,3.4572e-07,0.11,0.29,0
0.0050413,0.0024888,0.027868,0.0075432,0.010623,0.0033136,0,0,0.044836,-0.0080084,0,0.01723,0,0,0,0.028394,0.0070166,0.010623,9.0296,0.015345,0.019822,3.5579e-07,0.12,0.29,0
0.005492,0.0026716,0.027975,0.0072036,0.010554,0.0031795,0,0,0.045296,-0.0087101,0,0.016533,0,0,0,0.028451,0.0067278,0.010554,8.5107,0.015244,0.020085,3.6579e-07,0.13,0.29,0
0.0059473,0.0028491,0.028077,0.0068676,0.010483,0.0030412,0,0,0.045744,-0.0094015,0,0.015814,0,0,0,0.028505,0.0064401,0.010483,8.0007,0.015143,0.020347,3.7568e-07,0.14,0.29,0
0.0064069,0.0030211,0.028175,0.0065365,0.010413,0.0028997,0,0,0.046179,-0.01008,0,0.015078,0,0,0,0.028556,0.0061547,0.010413,7.5019,0.015041,0.020605,3.8542e-07,0.15,0.29,0
0.0068709,0.0031874,0.028266,0.0062116,0.010343,0.0027561,0,0,0.046599,-0.010743,0,0.014332,0,0,0,0.028605,0.0058724,0.010343,7.0163,0.01494,0.02086,3.9496e-07,0.16,0.29,0
0.0073389,0.003348,0.028352,0.0058938,0.010274,0.0026112,0,0,0.047003,-0.011388,0,0.013579,0,0,0,0.028651,0.0055942,0.010274,6.5456,0.01484,0.02111,4.0427e-07,0.17,0.29,0
0.0078109,0.0035028,0.028431,0.005584,0.010205,0.0024661,0,0,0.047389,-0.012013,0,0.012824,0,0,0,0.028694,0.0053209,0.010205,6.091,0.01474,0.021355,4.1332e-07,0.18,0.29,0
0.0082867,0.0036517,0.028504,0.0052829,0.010136,0.0023215,0,0,0.047757,-0.012618,0,0.012072,0,0,0,0.028734,0.0050531,0.010136,5.6535,0.014641,0.021593,4.2207e-07,0.19,0.29,0
0.008766,0.0037947,0.028571,0.004991,0.010069,0.0021782,0,0,0.048107,-0.013202,0,0.011326,0,0,0,0.028771,0.0047915,0.010069,5.2336,0.014544,0.021825,4.305e-07,0.2,0.29,0
0.0092488,0.0039318,0.028632,0.0047088,0.010002,0.0020368,0,0,0.048438,-0.013763,0,0.010591,0,0,0,0.028804,0.0045366,0.010002,4.8317,0.014448,0.022049,4.3858e-07,0.21,0.29,0
0.0097348,0.004063,0.028687,0.0044365,0.009937,0.0018979,0,0,0.048749,-0.014301,0,0.0098691,0,0,0,0.028834,0.0042889,0.009937,4.448,0.014353,0.022265,4.463e-07,0.22,0.29,0
0.010224,0.0041884,0.028736,0.0041744,0.009873,0.0017621,0,0,0.049043,-0.014816,0,0.0091628,0,0,0,0.028861,0.0040486,0.009873,4.0827,0.014261,0.022474,4.5365e-07,0.23,0.29,0
0.010716,0.004308,0.028779,0.0039225,0.0098104,0.0016297,0,0,0.049318,-0.015308,0,0.0084747,0,0,0,0.028885,0.0038161,0.0098104,3.7354,0.014171,0.022674,4.6061e-07,0.24,0.29,0
0.01121,0.004422,0.028816,0.0036809,0.0097492,0.0015013,0,0,0.049575,-0.015778,0,0.0078066,0,0,0,0.028906,0.0035916,0.0097492,3.406,0.014082,0.022866,4.672e-07,0.25,0.29,0
0.011707,0.0045305,0.028849,0.0034496,0.0096896,0.001377,0,0,0.049815,-0.016224,0,0.0071604,0,0,0,0.028923,0.0033751,0.0096896,3.0941,0.013996,0.023049,4.734e-07,0.26,0.29,0
0.012207,0.0046335,0.028877,0.0032283,0.0096315,0.0012571,0,0,0.050038,-0.016648,0,0.0065371,0,0,0,0.028938,0.0031668,0.0096315,2.7994,0.013912,0.023224,4.7922e-07,0.27,0.29,0
0.012708,0.0047311,0.0289,0.003017,0.0095751,0.0011419,0,0,0.050244,-0.017051,0,0.0059379,0,0,0,0.02895,0.0029668,0.0095751,2.5213,0.013831,0.02339,4.8466e-07,0.28,0.29,0
0.013211,0.0048236,0.028919,0.0028156,0.0095203,0.0010314,0,0,0.050436,-0.017432,0,0.0053635,0,0,0,0.028959,0.0027749,0.0095203,2.2593,0.013751,0.023548,4.8974e-07,0.29,0.29,0
0.013717,0.0049111,0.028934,0.0026236,0.0094672,0.00092583,0,0,0.050613,-0.017793,0,0.0048143,0,0,0,0.028966,0.0025911,0.0094672,2.0129,0.013675,0.023697,4.9446e-07,0.3,0.29,0
0.014224,0.0049937,0.028945,0.002441,0.0094158,0.00082515,0,0,0.050776,-0.018135,0,0.0042908,0,0,0,0.028971,0.0024153,0.0094158,1.7815,0.013601,0.023839,4.9883e-07,0.31,0.29,0
0.014732,0.0050716,0.028953,0.0022673,0.0093661,0.0007294,0,0,0.050926,-0.018457,0,0.0037929,0,0,0,0.028973,0.0022474,0.0093661,1.5645,0.013529,0.023972,5.0287e-07,0.32,0.29,0
0.015242,0.005145,0.028958,0.0021025,0.009318,0.00063858,0,0,0.051063,-0.01876,0,0.0033206,0,0,0,0.028973,0.0020873,0.009318,1.3614,0.013459,0.024098,5.0658e-07,0.33,0.29,0
0.015753,0.0052139,0.028959,0.001946,0.0092717,0.00055265,0,0,0.051188,-0.019047,0,0.0028738,0,0,0,0.028971,0.0019348,0.0092717,1.1715,0.013392,0.024216,5.0998e-07,0.34,0.29,0
0.016266,0.0052786,0.028959,0.0017978,0.009227,0.00047154,0,0,0.051303,-0.019316,0,0.002452,0,0,0,0.028967,0.0017896,0.009227,0.99431,0.013328,0.024327,5.1309e-07,0.35,0.29,0
0.016779,0.0053393,0.028956,0.0016574,0.009184,0.00039517,0,0,0.051407,-0.019569,0,0.0020549,0,0,0,0.028962,0.0016516,0.009184,0.82918,0.013266,0.024431,5.1592e-07,0.36,0.29,0
0.017294,0.005396,0.028951,0.0015245,0.0091426,0.00032344,0,0,0.051501,-0.019807,0,0.0016819,0,0,0,0.028955,0.0015207,0.0091426,0.67556,0.013206,0.024528,5.1848e-07,0.37,0.29,0
0.017809,0.0054491,0.028944,0.0013989,0.0091029,0.00025623,0,0,0.051587,-0.02003,0,0.0013324,0,0,0,0.028946,0.0013965,0.0091029,0.53291,0.013149,0.024619,5.2079e-07,0.38,0.29,0
0.018326,0.0054985,0.028935,0.0012803,0.0090647,0.00019341,0,0,0.051664,-0.02024,0,0.0010057,0,0,0,0.028937,0.0012789,0.0090647,0.40068,0.013093,0.024703,5.2287e-07,0.39,0.29,0
0.018843,0.0055445,0.028925,0.0011683,0.0090281,0.00013485,0,0,0.051733,-0.020435,0,0.0007012,0,0,0,0.028926,0.0011676,0.0090281,0.27834,0.013041,0.024781,5.2472e-07,0.4,0.29,0
0.01936,0.0055873,0.028914,0.0010627,0.0089929,8.0395e-05,0,0,0.051794,-0.020619,0,0.00041805,0,0,0,0.028914,0.0010624,0.0089929,0.16539,0.01299,0.024854,5.2636e-07,0.41,0.29,0
0.019879,0.005627,0.028901,0.00096318,0.0089593,2.9909e-05,0,0,0.051849,-0.02079,0,0.00015552,0,0,0,0.028901,0.00096315,0.0089593,0.061337,0.012941,0.024921,5.2781e-07,0.42,0.29,0
0.020397,0.0056637,0.028888,0.00086952,0.0089272,-1.6767e-05,0,0,0.051897,-0.02095,0,-8.7188e-05,0,0,0,0.028888,0.00086951,0.0089272,-0.034287,0.012895,0.024984,5.2907e-07,0.43,0.29,0
0.020917,0.0056977,0.028873,0.00078141,0.0088964,-5.9786e-05,0,0,0.05194,-0.021099,0,-0.00031089,0,0,0,0.028873,0.00078128,0.0088964,-0.12194,0.01285,0.025041,5.3016e-07,0.44,0.29,0
0.021436,0.0057289,0.028858,0.00069861,0.008867,-9.9304e-05,0,0,0.051977,-0.021238,0,-0.00051638,0,0,0,0.028858,0.00069826,0.008867,-0.20205,0.012808,0.025094,5.3109e-07,0.45,0.29,0
0.021956,0.0057577,0.028842,0.00062087,0.0088389,-0.00013548,0,0,0.052009,-0.021367,0,-0.00070448,0,0,0,0.028843,0.00062022,0.0088389,-0.27504,0.012767,0.025142,5.3188e-07,0.46,0.29,0
0.022476,0.005784,0.028826,0.00054794,0.0088122,-0.00016846,0,0,0.052036,-0.021487,0,-0.00087599,0,0,0,0.028827,0.00054694,0.0088122,-0.34131,0.012729,0.025186,5.3253e-07,0.47,0.29,0
0.022997,0.0058081,0.028809,0.0004796,0.0087866,-0.0001984,0,0,0.052059,-0.021598,0,-0.0010317,0,0,0,0.028811,0.00047821,0.0087866,-0.40124,0.012692,0.025226,5.3306e-07,0.48,0.29,0
0.023518,0.0058301,0.028792,0.00041561,0.0087623,-0.00022546,0,0,0.052078,-0.021701,0,-0.0011724,0,0,0,0.028794,0.00041382,0.0087623,-0.45519,0.012657,0.025263,5.3347e-07,0.49,0.29,0
0.024038,0.0058501,0.028775,0.00035576,0.0087392,-0.00024977,0,0,0.052093,-0.021797,0,-0.0012988,0,0,0,0.028777,0.00035356,0.0087392,-0.50351,0.012623,0.025296,5.3378e-07,0.5,0.29,0
0.024559,0.0058681,0.028757,0.00029983,0.0087172,-0.00027148,0,0,0.052105,-0.021885,0,-0.0014117,0,0,0,0.02876,0.00029724,0.0087172,-0.54653,0.012592,0.025325,5.3399e-07,0.51,0.29,0
0.02508,0.0058845,0.02874,0.00024763,0.0086963,-0.00029074,0,0,0.052114,-0.021966,0,-0.0015118,0,0,0,0.028743,0.00024467,0.0086963,-0.58457,0.012561,0.025352,5.3411e-07,0.52,0.29,0
0.025602,0.0058991,0.028723,0.00019897,0.0086764,-0.00030767,0,0,0.05212,-0.022041,0,-0.0015999,0,0,0,0.028726,0.00019565,0.0086764,-0.61793,0.012533,0.025376,5.3414e-07,0.53,0.29,0
0.026123,0.0059122,0.028705,0.00015364,0.0086576,-0.00032241,0,0,0.052123,-0.02211,0,-0.0016765,0,0,0,0.028709,0.00015,0.0086576,-0.64689,0.012505,0.025397,5.3411e-07,0.54,0.29,0
0.026644,0.0059238,0.028688,0.00011149,0.0086397,-0.00033508,0,0,0.052124,-0.022173,0,-0.0017424,0,0,0,0.028692,0.00010756,0.0086397,-0.67172,0.01248,0.025416,5.3401e-07,0.55,0.29,0
0.027165,0.005934,0.02867,7.2321e-05,0.0086228,-0.0003458,0,0,0.052124,-0.022231,0,-0.0017982,0,0,0,0.028674,6.814e-05,0.0086228,-0.69268,0.012455,0.025432,5.3386e-07,0.56,0.29,0
0.027687,0.005943,0.028653,3.5982e-05,0.0086067,-0.0003547,0,0,0.052121,-0.022284,0,-0.0018444,0,0,0,0.028658,3.1586e-05,0.0086067,-0.71002,0.012432,0.025446,5.3365e-07,0.57,0.29,0
0.028208,0.0059508,0.028636,2.3106e-06,0.0085916,-0.00036188,0,0,0.052116,-0.022332,0,-0.0018818,0,0,0,0.028641,-2.2621e-06,0.0085916,-0.72396,0.01241,0.025458,5.3339e-07,0.58,0.29,0
0.028729,0.0059575,0.02862,-2.8846e-05,0.0085772,-0.00036745,0,0,0.05211,-0.022376,0,-0.0019107,0,0,0,0.028624,-3.3558e-05,0.0085772,-0.73472,0.012389,0.025469,5.3309e-07,0.59,0.29,0
0.02925,0.0059631,0.028603,-5.7633e-05,0.0085637,-0.00037151,0,0,0.052103,-0.022415,0,-0.0019318,0,0,0,0.028608,-6.2448e-05,0.0085637,-0.74252,0.01237,0.025477,5.3275e-07,0.6,0.29,0
0.029771,0.0059679,0.028587,-8.4191e-05,0.0085509,-0.00037416,0,0,0.052094,-0.022451,0,-0.0019456,0,0,0,0.028592,-8.9073e-05,0.0085509,-0.74754,0.012351,0.025484,5.3239e-07,0.61,0.29,0
0.030292,0.0059717,0.028571,-0.00010865,0.0085388,-0.0003755,0,0,0.052085,-0.022483,0,-0.0019526,0,0,0,0.028576,-0.00011357,0.0085388,-0.74998,0.012334,0.02549,5.3199e-07,0.62,0.29,0
0.030813,0.0059748,0.028556,-0.00013115,0.0085275,-0.0003756,0,0,0.052074,-0.022512,0,-0.0019531,0,0,0,0.028561,-0.00013606,0.0085275,-0.75,0.012317,0.025494,5.3158e-07,0.63,0.29,0
0.031333,0.0059771,0.028541,-0.0001518,0.0085167,-0.00037456,0,0,0.052063,-0.022538,0,-0.0019477,0,0,0,0.028546,-0.00015669,0.0085167,-0.74778,0.012302,0.025497,5.3114e-07,0.64,0.29,0
0.031854,0.0059787,0.028526,-0.00017072,0.0085067,-0.00037246,0,0,0.052051,-0.022561,0,-0.0019368,0,0,0,0.028531,-0.00017555,0.0085067,-0.74347,0.012287,0.025499,5.3069e-07,0.65,0.29,0
0.032374,0.0059798,0.028512,-0.00018802,0.0084972,-0.00036936,0,0,0.052038,-0.022582,0,-0.0019207,0,0,0,0.028517,-0.00019278,0.0084972,-0.73722,0.012274,0.0255,5.3023e-07,0.66,0.29,0
0.032895,0.0059803,0.028498,-0.00020382,0.0084883,-0.00036535,0,0,0.052025,-0.022599,0,-0.0018998,0,0,0,0.028503,-0.00020846,0.0084883,-0.72916,0.012261,0.0255,5.2976e-07,0.67,0.29,0
0.033415,0.0059803,0.028485,-0.0002182,0.0084799,-0.00036048,0,0,0.052012,-0.022615,0,-0.0018745,0,0,0,0.028489,-0.00022273,0.0084799,-0.71943,0.012249,0.0255,5.2928e-07,0.68,0.29,0
0.033935,0.0059798,0.028472,-0.00023127,0.0084721,-0.00035483,0,0,0.051999,-0.022629,0,-0.0018451,0,0,0,0.028476,-0.00023565,0.0084721,-0.70815,0.012237,0.025498,5.2879e-07,0.69,0.29,0
0.034455,0.005979,0.028459,-0.00024312,0.0084647,-0.00034844,0,0,0.051985,-0.02264,0,-0.0018119,0,0,0,0.028463,-0.00024735,0.0084647,-0.69543,0.012227,0.025496,5.2831e-07,0.7,0.29,0
0.034975,0.0059777,0.028447,-0.00025383,0.0084578,-0.00034138,0,0,0.051971,-0.02265,0,-0.0017752,0,0,0,0.028451,-0.00025789,0.0084578,-0.68139,0.012217,0.025494,5.2783e-07,0.71,0.29,0
0.035494,0.0059762,0.028435,-0.00026349,0.0084514,-0.00033371,0,0,0.051957,-0.022659,0,-0.0017353,0,0,0,0.028439,-0.00026737,0.0084514,-0.66612,0.012208,0.025491,5.2735e-07,0.72,0.29,0
0.036014,0.0059744,0.028424,-0.00027219,0.0084454,-0.00032546,0,0,0.051943,-0.022666,0,-0.0016924,0,0,0,0.028427,-0.00027588,0.0084454,-0.64972,0.012199,0.025487,5.2687e-07,0.73,0.29,0
0.036533,0.0059724,0.028413,-0.00027998,0.0084398,-0.00031668,0,0,0.051929,-0.022671,0,-0.0016468,0,0,0,0.028416,-0.00028347,0.0084398,-0.63228,0.012191,0.025483,5.264e-07,0.74,0.29,0
0.037052,0.0059702,0.028402,-0.00028694,0.0084346,-0.00030743,0,0,0.051916,-0.022676,0,-0.0015986,0,0,0,0.028406,-0.00029024,0.0084346,-0.61388,0.012183,0.025479,5.2594e-07,0.75,0.29,0
0.037572,0.0059679,0.028392,-0.00029315,0.0084297,-0.00029773,0,0,0.051902,-0.022679,0,-0.0015482,0,0,0,0.028395,-0.00029624,0.0084297,-0.5946,0.012176,0.025475,5.2549e-07,0.76,0.29,0
0.03809,0.0059654,0.028383,-0.00029866,0.0084252,-0.00028763,0,0,0.051889,-0.022682,0,-0.0014957,0,0,0,0.028386,-0.00030155,0.0084252,-0.57452,0.01217,0.025471,5.2505e-07,0.77,0.29,0
0.038609,0.0059628,0.028373,-0.00030353,0.008421,-0.00027716,0,0,0.051876,-0.022684,0,-0.0014412,0,0,0,0.028376,-0.00030621,0.008421,-0.55369,0.012164,0.025466,5.2462e-07,0.78,0.29,0
0.039128,0.0059601,0.028365,-0.00030782,0.0084171,-0.00026636,0,0,0.051864,-0.022685,0,-0.0013851,0,0,0,0.028367,-0.0003103,0.0084171,-0.53219,0.012158,0.025462,5.2421e-07,0.79,0.29,0
0.039647,0.0059574,0.028356,-0.00031159,0.0084134,-0.00025525,0,0,0.051852,-0.022685,0,-0.0013273,0,0,0,0.028359,-0.00031386,0.0084134,-0.51008,0.012153,0.025457,5.2381e-07,0.8,0.29,0
0.040165,0.0059547,0.028349,-0.00031487,0.0084101,-0.00024385,0,0,0.05184,-0.022685,0,-0.001268,0,0,0,0.028351,-0.00031695,0.0084101,-0.4874,0.012148,0.025452,5.2342e-07,0.81,0.29,0
0.040683,0.005952,0.028341,-0.00031772,0.008407,-0.00023221,0,0,0.051829,-0.022684,0,-0.0012075,0,0,0,0.028343,-0.0003196,0.008407,-0.46421,0.012143,0.025447,5.2306e-07,0.82,0.29,0
0.041202,0.0059494,0.028334,-0.00032019,0.0084042,-0.00022035,0,0,0.051818,-0.022683,0,-0.0011458,0,0,0,0.028336,-0.00032188,0.0084042,-0.44056,0.012139,0.025443,5.227e-07,0.83,0.29,0
0.04172,0.0059467,0.028328,-0.00032231,0.0084016,-0.00020827,0,0,0.051808,-0.022682,0,-0.001083,0,0,0,0.028329,-0.00032382,0.0084016,-0.41649,0.012136,0.025438,5.2237e-07,0.84,0.29,0
0.042238,0.0059442,0.028321,-0.00032411,0.0083992,-0.00019601,0,0,0.051798,-0.022681,0,-0.0010193,0,0,0,0.028323,-0.00032545,0.0083992,-0.39203,0.012132,0.025434,5.2205e-07,0.85,0.29,0
0.042756,0.0059417,0.028316,-0.00032565,0.008397,-0.00018359,0,0,0.051789,-0.022679,0,-0.00095466,0,0,0,0.028317,-0.00032682,0.008397,-0.36724,0.012129,0.02543,5.2175e-07,0.86,0.29,0
0.043273,0.0059394,0.02831,-0.00032694,0.008395,-0.00017102,0,0,0.05178,-0.022677,0,-0.00088928,0,0,0,0.028311,-0.00032796,0.008395,-0.34214,0.012126,0.025426,5.2147e-07,0.87,0.29,0
0.043791,0.0059371,0.028305,-0.00032802,0.0083932,-0.00015831,0,0,0.051772,-0.022675,0,-0.00082321,0,0,0,0.028306,-0.00032889,0.0083932,-0.31677,0.012124,0.025422,5.2121e-07,0.88,0.29,0
0.044309,0.005935,0.028301,-0.00032891,0.0083916,-0.00014549,0,0,0.051764,-0.022673,0,-0.00075653,0,0,0,0.028302,-0.00032965,0.0083916,-0.29115,0.012121,0.025419,5.2097e-07,0.89,0.29,0
0.044826,0.0059331,0.028297,-0.00032965,0.0083901,-0.00013256,0,0,0.051757,-0.022671,0,-0.00068932,0,0,0,0.028297,-0.00033026,0.0083901,-0.26531,0.012119,0.025415,5.2075e-07,0.9,0.29,0
0.045344,0.0059313,0.028293,-0.00033025,0.0083888,-0.00011954,0,0,0.051751,-0.02267,0,-0.00062163,0,0,0,0.028293,-0.00033075,0.0083888,-0.23929,0.012117,0.025412,5.2054e-07,0.91,0.29,0
0.045861,0.0059296,0.02829,-0.00033073,0.0083877,-0.00010645,0,0,0.051745,-0.022668,0,-0.00055352,0,0,0,0.02829,-0.00033112,0.0083877,-0.21309,0.012116,0.02541,5.2036e-07,0.92,0.29,0
0.046379,0.0059282,0.028287,-0.00033111,0.0083867,-9.3282e-05,0,0,0.05174,-0.022666,0,-0.00048507,0,0,0,0.028287,-0.00033142,0.0083867,-0.18676,0.012114,0.025407,5.202e-07,0.93,0.29,0
0.046896,0.0059269,0.028284,-0.00033141,0.0083859,-8.0059e-05,0,0,0.051736,-0.022665,0,-0.00041631,0,0,0,0.028285,-0.00033164,0.0083859,-0.1603,0.012113,0.025405,5.2006e-07,0.94,0.29,0
0.047414,0.0059257,0.028282,-0.00033164,0.0083851,-6.6788e-05,0,0,0.051732,-0.022664,0,-0.0003473,0,0,0,0.028282,-0.0003318,0.0083851,-0.13373,0.012112,0.025403,5.1995e-07,0.95,0.29,0
0.047931,0.0059248,0.02828,-0.00033182,0.0083846,-5.3477e-05,0,0,0.051729,-0.022663,0,-0.00027808,0,0,0,0.028281,-0.00033192,0.0083846,-0.10709,0.012111,0.025402,5.1985e-07,0.96,0.29,0
0.048448,0.0059241,0.028279,-0.00033194,0.0083841,-4.0134e-05,0,0,0.051727,-0.022662,0,-0.0002087,0,0,0,0.028279,-0.000332,0.0083841,-0.080372,0.01211,0.025401,5.1978e-07,0.97,0.29,0
0.048966,0.0059236,0.028278,-0.00033203,0.0083838,-2.6769e-05,0,0,0.051725,-0.022661,0,-0.0001392,0,0,0,0.028278,-0.00033205,0.0083838,-0.053608,0.01211,0.0254,5.1972e-07,0.98,0.29,0
0.049483,0.0059233,0.028278,-0.00033208,0.0083836,-1.3388e-05,0,0,0.051724,-0.022661,0,-6.9619e-05,0,0,0,0.028278,-0.00033208,0.0083836,-0.026812,0.01211,0.025399,5.1969e-07,0.99,0.29,0
0.05,0.0059232,0.028277,-0.00033209,0.0083836,-1.9756e-06,0,0,0.051724,-0.022661,0,-1.0273e-05,0,0,0,0.028277,-0.00033209,0.0083836,-0.0039564,0.01211,0.025399,5.1968e-07,1,0.29,0
0,0,0.026602,0.011401,0.011401,0.0041031,0,0,0.039523,-5.6921e-19,0,0.021336,0,0,0,0.027639,0.010364,0.011401,14.181,0.016468,0.016781,2.3956e-07,0,0.3,0
0.00039523,0.00021336,0.026578,0.011091,0.011301,0.0040958,0,0,0.039721,-0.0005446,0,0.021298,0,0,0,0.027595,0.010075,0.011301,13.938,0.016323,0.01694,2.4526e-07,0.01,0.3,0
0.00079442,0.00042601,0.026685,0.010825,0.011253,0.0040725,0,0,0.040122,-0.001112,0,0.021177,0,0,0,0.027669,0.0098407,0.011253,13.592,0.016254,0.017166,2.5388e-07,0.02,0.3,0
0.0011977,0.00063744,0.026794,0.010548,0.011203,0.0040355,0,0,0.040538,-0.0017025,0,0.020984,0,0,0,0.027741,0.0096006,0.011203,13.209,0.016182,0.017395,2.6262e-07,0.03,0.3,0
0.0016052,0.00084714,0.026906,0.010259,0.01115,0.0039852,0,0,0.040967,-0.0023154,0,0.020723,0,0,0,0.027811,0.0093542,0.01115,12.792,0.016105,0.017628,2.7152e-07,0.04,0.3,0
0.002017,0.0010546,0.027021,0.0099597,0.011094,0.0039222,0,0,0.041409,-0.0029493,0,0.020396,0,0,0,0.027879,0.0091012,0.011094,12.346,0.016025,0.017865,2.8059e-07,0.05,0.3,0
0.0024333,0.0012594,0.027137,0.0096508,0.011036,0.0038474,0,0,0.041861,-0.0036022,0,0.020006,0,0,0,0.027946,0.0088417,0.011036,11.876,0.015941,0.018107,2.8985e-07,0.06,0.3,0
0.0028543,0.0014611,0.027254,0.0093334,0.010976,0.0037616,0,0,0.042322,-0.0042713,0,0.01956,0,0,0,0.028012,0.0085758,0.010976,11.386,0.015855,0.018354,2.993e-07,0.07,0.3,0
0.0032798,0.0016593,0.027372,0.009009,0.010914,0.0036658,0,0,0.042789,-0.0049536,0,0.019062,0,0,0,0.028076,0.0083042,0.010914,10.883,0.015765,0.018605,3.0893e-07,0.08,0.3,0
0.00371,0.0018537,0.027489,0.0086791,0.01085,0.003561,0,0,0.04326,-0.0056455,0,0.018517,0,0,0,0.02814,0.0080275,0.01085,10.369,0.015673,0.018861,3.1872e-07,0.09,0.3,0
0.004145,0.0020437,0.027605,0.0083454,0.010785,0.0034484,0,0,0.043732,-0.0063434,0,0.017932,0,0,0,0.028204,0.0077465,0.010785,9.8511,0.015579,0.01912,3.2864e-07,0.1,0.3,0
0.0045847,0.0022293,0.027719,0.0080095,0.010719,0.003329,0,0,0.044201,-0.0070436,0,0.017311,0,0,0,0.028266,0.0074624,0.010719,9.3326,0.015482,0.019382,3.3865e-07,0.11,0.3,0
0.005029,0.0024101,0.02783,0.0076732,0.010651,0.0032038,0,0,0.044666,-0.0077424,0,0.01666,0,0,0,0.028327,0.0071763,0.010651,8.8173,0.015385,0.019645,3.4871e-07,0.12,0.3,0
0.005478,0.0025859,0.027938,0.007338,0.010583,0.003074,0,0,0.045124,-0.0084364,0,0.015985,0,0,0,0.028387,0.0068891,0.010583,8.3088,0.015286,0.01991,3.5876e-07,0.13,0.3,0
0.0059315,0.0027565,0.028042,0.0070055,0.010514,0.0029405,0,0,0.045571,-0.0091225,0,0.015291,0,0,0,0.028445,0.0066022,0.010514,7.8096,0.015187,0.020173,3.6877e-07,0.14,0.3,0
0.0063894,0.0029217,0.02814,0.0066768,0.010445,0.0028043,0,0,0.046007,-0.0097976,0,0.014582,0,0,0,0.028501,0.0063165,0.010445,7.3222,0.015087,0.020435,3.7868e-07,0.15,0.3,0
0.0068516,0.0030814,0.028234,0.0063534,0.010376,0.0026663,0,0,0.04643,-0.010459,0,0.013865,0,0,0,0.028554,0.0060332,0.010376,6.8484,0.014988,0.020694,3.8844e-07,0.16,0.3,0
0.007318,0.0032356,0.028322,0.0060362,0.010308,0.0025274,0,0,0.046838,-0.011105,0,0.013142,0,0,0,0.028605,0.0057532,0.010308,6.3897,0.014889,0.020949,3.9801e-07,0.17,0.3,0
0.0077884,0.0033841,0.028404,0.0057262,0.010239,0.0023883,0,0,0.047229,-0.011734,0,0.012419,0,0,0,0.028653,0.0054774,0.010239,5.9471,0.01479,0.0212,4.0735e-07,0.18,0.3,0
0.0082626,0.0035269,0.028481,0.0054241,0.010171,0.0022499,0,0,0.047604,-0.012343,0,0.011699,0,0,0,0.028698,0.0052066,0.010171,5.5215,0.014692,0.021444,4.1642e-07,0.19,0.3,0
0.0087405,0.0036641,0.028551,0.0051306,0.010104,0.0021127,0,0,0.047961,-0.012932,0,0.010986,0,0,0,0.02874,0.0049415,0.010104,5.1135,0.014595,0.021683,4.2519e-07,0.2,0.3,0
0.0092218,0.0037955,0.028615,0.0048461,0.010038,0.0019774,0,0,0.0483,-0.0135,0,0.010282,0,0,0,0.028779,0.0046828,0.010038,4.7232,0.0145,0.021914,4.3363e-07,0.21,0.3,0
0.0097065,0.0039213,0.028674,0.0045711,0.0099734,0.0018444,0,0,0.048621,-0.014046,0,0.009591,0,0,0,0.028814,0.0044308,0.0099734,4.3507,0.014406,0.022138,4.4172e-07,0.22,0.3,0
0.010194,0.0040415,0.028726,0.0043057,0.0099096,0.0017144,0,0,0.048923,-0.01457,0,0.0089147,0,0,0,0.028846,0.004186,0.0099096,3.9962,0.014314,0.022355,4.4945e-07,0.23,0.3,0
0.010685,0.0041562,0.028773,0.0040503,0.009847,0.0015876,0,0,0.049208,-0.015072,0,0.0082555,0,0,0,0.028875,0.0039488,0.009847,3.6592,0.014224,0.022563,4.568e-07,0.24,0.3,0
0.011178,0.0042654,0.028815,0.0038048,0.0097859,0.0014644,0,0,0.049475,-0.015551,0,0.007615,0,0,0,0.0289,0.0037193,0.0097859,3.3397,0.014135,0.022762,4.6377e-07,0.25,0.3,0
0.011674,0.0043693,0.028851,0.0035692,0.0097261,0.0013452,0,0,0.049725,-0.016008,0,0.006995,0,0,0,0.028923,0.0034978,0.0097261,3.0371,0.014049,0.022953,4.7036e-07,0.26,0.3,0
0.012173,0.004468,0.028882,0.0033436,0.0096678,0.0012301,0,0,0.049958,-0.016443,0,0.0063965,0,0,0,0.028942,0.0032845,0.0096678,2.7512,0.013965,0.023136,4.7655e-07,0.27,0.3,0
0.012674,0.0045616,0.028909,0.0031277,0.0096111,0.0011193,0,0,0.050175,-0.016857,0,0.0058205,0,0,0,0.028958,0.0030792,0.0096111,2.4813,0.013883,0.023309,4.8236e-07,0.28,0.3,0
0.013176,0.0046502,0.028932,0.0029216,0.009556,0.001013,0,0,0.050377,-0.017249,0,0.0052678,0,0,0,0.028971,0.0028822,0.009556,2.2271,0.013803,0.023475,4.8779e-07,0.29,0.3,0
0.013681,0.0047341,0.02895,0.0027248,0.0095024,0.00091131,0,0,0.050563,-0.017622,0,0.0047388,0,0,0,0.028982,0.0026932,0.0095024,1.9878,0.013726,0.023631,4.9286e-07,0.3,0.3,0
0.014188,0.0048132,0.028964,0.0025374,0.0094505,0.00081423,0,0,0.050736,-0.017974,0,0.004234,0,0,0,0.028989,0.0025123,0.0094505,1.7631,0.013651,0.02378,4.9756e-07,0.31,0.3,0
0.014696,0.0048878,0.028975,0.002359,0.0094003,0.0007218,0,0,0.050895,-0.018307,0,0.0037534,0,0,0,0.028995,0.0023394,0.0094003,1.5523,0.013578,0.02392,5.0191e-07,0.32,0.3,0
0.015206,0.0049581,0.028983,0.0021893,0.0093516,0.00063403,0,0,0.051041,-0.018622,0,0.0032969,0,0,0,0.028998,0.0021743,0.0093516,1.3548,0.013508,0.024052,5.0592e-07,0.33,0.3,0
0.015717,0.0050241,0.028987,0.0020281,0.0093047,0.00055088,0,0,0.051175,-0.018919,0,0.0028646,0,0,0,0.028999,0.0020169,0.0093047,1.1701,0.01344,0.024176,5.0961e-07,0.34,0.3,0
0.016229,0.005086,0.028989,0.0018752,0.0092593,0.00047231,0,0,0.051298,-0.019199,0,0.002456,0,0,0,0.028997,0.001867,0.0092593,0.99765,0.013375,0.024293,5.1298e-07,0.35,0.3,0
0.016743,0.0051441,0.028989,0.0017302,0.0092156,0.00039824,0,0,0.05141,-0.019462,0,0.0020708,0,0,0,0.028994,0.0017244,0.0092156,0.83685,0.013312,0.024403,5.1606e-07,0.36,0.3,0
0.017257,0.0051984,0.028986,0.0015929,0.0091735,0.00032859,0,0,0.051511,-0.01971,0,0.0017086,0,0,0,0.02899,0.0015889,0.0091735,0.68715,0.013251,0.024505,5.1886e-07,0.37,0.3,0
0.017773,0.0052492,0.02898,0.0014629,0.009133,0.00026324,0,0,0.051603,-0.019942,0,0.0013689,0,0,0,0.028983,0.0014604,0.009133,0.54804,0.013192,0.024601,5.2139e-07,0.38,0.3,0
0.018289,0.0052965,0.028974,0.00134,0.0090941,0.00020209,0,0,0.051687,-0.020161,0,0.0010509,0,0,0,0.028975,0.0013386,0.0090941,0.41899,0.013136,0.02469,5.2366e-07,0.39,0.3,0
0.018807,0.0053405,0.028965,0.001224,0.0090567,0.00014501,0,0,0.051762,-0.020365,0,0.00075408,0,0,0,0.028966,0.0012232,0.0090567,0.2995,0.013082,0.024773,5.257e-07,0.4,0.3,0
0.019325,0.0053814,0.028955,0.0011144,0.0090208,9.188e-05,0,0,0.051829,-0.020556,0,0.00047777,0,0,0,0.028955,0.0011141,0.0090208,0.18909,0.01303,0.02485,5.2751e-07,0.41,0.3,0
0.019843,0.0054194,0.028943,0.0010111,0.0089864,4.2547e-05,0,0,0.051888,-0.020736,0,0.00022125,0,0,0,0.028944,0.0010111,0.0089864,0.087274,0.01298,0.024921,5.2911e-07,0.42,0.3,0
0.020362,0.0054544,0.028931,0.00091379,0.0089534,-3.1223e-06,0,0,0.051941,-0.020903,0,-1.6236e-05,0,0,0,0.028931,0.00091379,0.0089534,-0.0063853,0.012933,0.024987,5.3052e-07,0.43,0.3,0
0.020882,0.0054868,0.028917,0.00082217,0.0089218,-4.5273e-05,0,0,0.051988,-0.021059,0,-0.00023542,0,0,0,0.028917,0.0008221,0.0089218,-0.092328,0.012887,0.025048,5.3174e-07,0.44,0.3,0
0.021402,0.0055167,0.028903,0.00073602,0.0088916,-8.405e-05,0,0,0.052029,-0.021205,0,-0.00043706,0,0,0,0.028903,0.00073577,0.0088916,-0.17097,0.012843,0.025103,5.3278e-07,0.45,0.3,0
0.021923,0.0055441,0.028887,0.00065507,0.0088628,-0.0001196,0,0,0.052064,-0.02134,0,-0.00062192,0,0,0,0.028888,0.00065456,0.0088628,-0.24271,0.012802,0.025155,5.3367e-07,0.46,0.3,0
0.022443,0.0055693,0.028872,0.00057908,0.0088352,-0.00015207,0,0,0.052095,-0.021466,0,-0.00079074,0,0,0,0.028872,0.00057826,0.0088352,-0.30794,0.012762,0.025201,5.3442e-07,0.47,0.3,0
0.022964,0.0055922,0.028855,0.00050782,0.0088089,-0.00018159,0,0,0.05212,-0.021583,0,-0.00094428,0,0,0,0.028856,0.00050666,0.0088089,-0.36701,0.012724,0.025244,5.3502e-07,0.48,0.3,0
0.023486,0.0056131,0.028838,0.00044106,0.0087838,-0.00020832,0,0,0.052142,-0.021691,0,-0.0010833,0,0,0,0.02884,0.00043954,0.0087838,-0.42029,0.012688,0.025283,5.355e-07,0.49,0.3,0
0.024007,0.0056321,0.028821,0.00037858,0.0087599,-0.00023239,0,0,0.052159,-0.021791,0,-0.0012084,0,0,0,0.028823,0.00037669,0.0087599,-0.4681,0.012653,0.025318,5.3586e-07,0.5,0.3,0
0.024529,0.0056493,0.028804,0.00032017,0.0087371,-0.00025394,0,0,0.052173,-0.021884,0,-0.0013205,0,0,0,0.028806,0.00031791,0.0087371,-0.51076,0.01262,0.02535,5.3612e-07,0.51,0.3,0
0.025051,0.0056648,0.028786,0.00026562,0.0087155,-0.0002731,0,0,0.052183,-0.02197,0,-0.0014201,0,0,0,0.028789,0.000263,0.0087155,-0.54857,0.012589,0.025378,5.3628e-07,0.52,0.3,0
0.025573,0.0056786,0.028768,0.00021473,0.0086949,-0.00029,0,0,0.052191,-0.022048,0,-0.001508,0,0,0,0.028771,0.00021178,0.0086949,-0.58183,0.012559,0.025403,5.3635e-07,0.53,0.3,0
0.026095,0.005691,0.02875,0.00016731,0.0086753,-0.00030476,0,0,0.052195,-0.022121,0,-0.0015848,0,0,0,0.028754,0.00016406,0.0086753,-0.61081,0.012531,0.025426,5.3635e-07,0.54,0.3,0
0.026617,0.005702,0.028733,0.00012317,0.0086567,-0.00031751,0,0,0.052197,-0.022187,0,-0.001651,0,0,0,0.028736,0.00011965,0.0086567,-0.63576,0.012504,0.025446,5.3627e-07,0.55,0.3,0
0.027138,0.0057116,0.028715,8.2146e-05,0.0086391,-0.00032836,0,0,0.052197,-0.022248,0,-0.0017074,0,0,0,0.028719,7.8381e-05,0.0086391,-0.65694,0.012479,0.025463,5.3612e-07,0.56,0.3,0
0.027661,0.00572,0.028697,4.4058e-05,0.0086224,-0.00033742,0,0,0.052195,-0.022304,0,-0.0017546,0,0,0,0.028701,4.0085e-05,0.0086224,-0.67458,0.012455,0.025478,5.3592e-07,0.57,0.3,0
0.028182,0.0057273,0.02868,8.7446e-06,0.0086066,-0.0003448,0,0,0.05219,-0.022354,0,-0.001793,0,0,0,0.028684,4.5986e-06,0.0086066,-0.68891,0.012432,0.025491,5.3566e-07,0.58,0.3,0
0.028704,0.0057336,0.028663,-2.3951e-05,0.0085916,-0.00035061,0,0,0.052185,-0.0224,0,-0.0018232,0,0,0,0.028667,-2.8235e-05,0.0085916,-0.70013,0.01241,0.025502,5.3536e-07,0.59,0.3,0
0.029226,0.0057388,0.028646,-5.4179e-05,0.0085774,-0.00035494,0,0,0.052177,-0.022442,0,-0.0018457,0,0,0,0.02865,-5.8568e-05,0.0085774,-0.70845,0.01239,0.025511,5.3502e-07,0.6,0.3,0
0.029748,0.0057432,0.028629,-8.2085e-05,0.008564,-0.00035789,0,0,0.052168,-0.02248,0,-0.001861,0,0,0,0.028633,-8.6545e-05,0.008564,-0.71406,0.01237,0.025519,5.3464e-07,0.61,0.3,0
0.03027,0.0057467,0.028612,-0.00010781,0.0085513,-0.00035954,0,0,0.052158,-0.022514,0,-0.0018696,0,0,0,0.028617,-0.00011231,0.0085513,-0.71713,0.012352,0.025525,5.3423e-07,0.62,0.3,0
0.030791,0.0057495,0.028596,-0.00013147,0.0085394,-0.00035999,0,0,0.052147,-0.022544,0,-0.001872,0,0,0,0.028601,-0.00013599,0.0085394,-0.71783,0.012335,0.02553,5.338e-07,0.63,0.3,0
0.031312,0.0057515,0.02858,-0.00015322,0.0085281,-0.00035931,0,0,0.052136,-0.022572,0,-0.0018684,0,0,0,0.028585,-0.00015771,0.0085281,-0.71633,0.012318,0.025533,5.3334e-07,0.64,0.3,0
0.031834,0.0057529,0.028565,-0.00017316,0.0085175,-0.00035758,0,0,0.052123,-0.022596,0,-0.0018594,0,0,0,0.028569,-0.0001776,0.0085175,-0.71278,0.012303,0.025535,5.3287e-07,0.65,0.3,0
0.032355,0.0057538,0.02855,-0.0001914,0.0085075,-0.00035488,0,0,0.05211,-0.022617,0,-0.0018454,0,0,0,0.028554,-0.00019579,0.0085075,-0.70731,0.012289,0.025536,5.3238e-07,0.66,0.3,0
0.032876,0.0057541,0.028535,-0.00020808,0.0084981,-0.00035127,0,0,0.052096,-0.022636,0,-0.0018266,0,0,0,0.028539,-0.00021237,0.0084981,-0.70007,0.012275,0.025536,5.3188e-07,0.67,0.3,0
0.033397,0.0057539,0.028521,-0.00022327,0.0084893,-0.00034682,0,0,0.052082,-0.022653,0,-0.0018035,0,0,0,0.028525,-0.00022745,0.0084893,-0.69118,0.012262,0.025535,5.3137e-07,0.68,0.3,0
0.033918,0.0057533,0.028507,-0.00023709,0.008481,-0.00034158,0,0,0.052068,-0.022667,0,-0.0017762,0,0,0,0.028511,-0.00024115,0.008481,-0.68075,0.01225,0.025534,5.3086e-07,0.69,0.3,0
0.034438,0.0057523,0.028494,-0.00024964,0.0084732,-0.00033563,0,0,0.052053,-0.022679,0,-0.0017453,0,0,0,0.028497,-0.00025356,0.0084732,-0.66891,0.012239,0.025532,5.3034e-07,0.7,0.3,0
0.034959,0.005751,0.028481,-0.00026099,0.0084659,-0.00032901,0,0,0.052038,-0.02269,0,-0.0017108,0,0,0,0.028484,-0.00026476,0.0084659,-0.65575,0.012228,0.025529,5.2983e-07,0.71,0.3,0
0.035479,0.0057494,0.028468,-0.00027125,0.008459,-0.00032177,0,0,0.052023,-0.022699,0,-0.0016732,0,0,0,0.028472,-0.00027485,0.008459,-0.64138,0.012219,0.025526,5.2932e-07,0.72,0.3,0
0.035999,0.0057476,0.028456,-0.00028049,0.0084526,-0.00031396,0,0,0.052009,-0.022706,0,-0.0016326,0,0,0,0.028459,-0.00028392,0.0084526,-0.62589,0.012209,0.025522,5.2881e-07,0.73,0.3,0
0.036519,0.0057455,0.028444,-0.00028878,0.0084466,-0.00030563,0,0,0.051994,-0.022712,0,-0.0015893,0,0,0,0.028448,-0.00029203,0.0084466,-0.60936,0.012201,0.025518,5.2831e-07,0.74,0.3,0
0.037039,0.0057432,0.028433,-0.00029621,0.0084411,-0.00029682,0,0,0.051979,-0.022717,0,-0.0015435,0,0,0,0.028436,-0.00029927,0.0084411,-0.59188,0.012193,0.025514,5.2782e-07,0.75,0.3,0
0.037559,0.0057408,0.028422,-0.00030283,0.0084358,-0.00028757,0,0,0.051965,-0.022721,0,-0.0014954,0,0,0,0.028425,-0.00030571,0.0084358,-0.57352,0.012185,0.025509,5.2733e-07,0.76,0.3,0
0.038078,0.0057383,0.028412,-0.00030873,0.008431,-0.00027792,0,0,0.051951,-0.022723,0,-0.0014452,0,0,0,0.028415,-0.00031142,0.008431,-0.55436,0.012178,0.025505,5.2686e-07,0.77,0.3,0
0.038598,0.0057357,0.028402,-0.00031395,0.0084265,-0.00026789,0,0,0.051937,-0.022725,0,-0.0013931,0,0,0,0.028405,-0.00031645,0.0084265,-0.53445,0.012172,0.0255,5.264e-07,0.78,0.3,0
0.039117,0.0057331,0.028393,-0.00031856,0.0084223,-0.00025753,0,0,0.051923,-0.022726,0,-0.0013392,0,0,0,0.028395,-0.00032087,0.0084223,-0.51387,0.012165,0.025495,5.2596e-07,0.79,0.3,0
0.039636,0.0057304,0.028384,-0.00032262,0.0084184,-0.00024687,0,0,0.05191,-0.022727,0,-0.0012837,0,0,0,0.028386,-0.00032474,0.0084184,-0.49268,0.01216,0.02549,5.2553e-07,0.8,0.3,0
0.040155,0.0057277,0.028375,-0.00032617,0.0084148,-0.00023592,0,0,0.051898,-0.022727,0,-0.0012268,0,0,0,0.028377,-0.0003281,0.0084148,-0.47091,0.012155,0.025485,5.2511e-07,0.81,0.3,0
0.040674,0.005725,0.028367,-0.00032926,0.0084114,-0.00022472,0,0,0.051886,-0.022726,0,-0.0011685,0,0,0,0.028369,-0.00033102,0.0084114,-0.44863,0.01215,0.02548,5.2472e-07,0.82,0.3,0
0.041193,0.0057223,0.02836,-0.00033194,0.0084084,-0.00021328,0,0,0.051874,-0.022725,0,-0.0011091,0,0,0,0.028361,-0.00033352,0.0084084,-0.42589,0.012145,0.025475,5.2434e-07,0.83,0.3,0
0.041712,0.0057197,0.028353,-0.00033425,0.0084055,-0.00020164,0,0,0.051863,-0.022724,0,-0.0010486,0,0,0,0.028354,-0.00033567,0.0084055,-0.40271,0.012141,0.02547,5.2398e-07,0.84,0.3,0
0.04223,0.0057172,0.028346,-0.00033624,0.0084029,-0.00018982,0,0,0.051852,-0.022722,0,-0.00098705,0,0,0,0.028347,-0.00033749,0.0084029,-0.37916,0.012138,0.025466,5.2363e-07,0.85,0.3,0
0.042749,0.0057147,0.02834,-0.00033793,0.0084006,-0.00017782,0,0,0.051842,-0.02272,0,-0.00092467,0,0,0,0.028341,-0.00033903,0.0084006,-0.35525,0.012134,0.025461,5.2331e-07,0.86,0.3,0
0.043267,0.0057124,0.028334,-0.00033936,0.0083984,-0.00016567,0,0,0.051833,-0.022718,0,-0.00086151,0,0,0,0.028335,-0.00034032,0.0083984,-0.33104,0.012131,0.025457,5.2301e-07,0.87,0.3,0
0.043785,0.0057102,0.028329,-0.00034056,0.0083964,-0.00015339,0,0,0.051824,-0.022716,0,-0.00079764,0,0,0,0.02833,-0.00034138,0.0083964,-0.30654,0.012128,0.025453,5.2273e-07,0.88,0.3,0
0.044304,0.0057081,0.028324,-0.00034157,0.0083947,-0.00014099,0,0,0.051816,-0.022714,0,-0.00073315,0,0,0,0.028324,-0.00034226,0.0083947,-0.2818,0.012126,0.025449,5.2247e-07,0.89,0.3,0
0.044822,0.0057062,0.028319,-0.0003424,0.0083931,-0.00012848,0,0,0.051808,-0.022712,0,-0.0006681,0,0,0,0.02832,-0.00034298,0.0083931,-0.25683,0.012123,0.025446,5.2223e-07,0.9,0.3,0
0.04534,0.0057044,0.028315,-0.00034309,0.0083917,-0.00011588,0,0,0.051801,-0.02271,0,-0.00060257,0,0,0,0.028316,-0.00034356,0.0083917,-0.23167,0.012121,0.025442,5.2201e-07,0.91,0.3,0
0.045858,0.0057027,0.028312,-0.00034365,0.0083904,-0.0001032,0,0,0.051795,-0.022708,0,-0.00053662,0,0,0,0.028312,-0.00034402,0.0083904,-0.20634,0.01212,0.02544,5.2182e-07,0.92,0.3,0
0.046376,0.0057013,0.028309,-0.00034409,0.0083893,-9.0443e-05,0,0,0.05179,-0.022707,0,-0.0004703,0,0,0,0.028309,-0.00034438,0.0083893,-0.18085,0.012118,0.025437,5.2164e-07,0.93,0.3,0
0.046893,0.0057,0.028306,-0.00034445,0.0083884,-7.7629e-05,0,0,0.051785,-0.022705,0,-0.00040367,0,0,0,0.028306,-0.00034466,0.0083884,-0.15524,0.012117,0.025435,5.2149e-07,0.94,0.3,0
0.047411,0.0056989,0.028303,-0.00034472,0.0083876,-6.4765e-05,0,0,0.051781,-0.022704,0,-0.00033678,0,0,0,0.028304,-0.00034487,0.0083876,-0.12953,0.012115,0.025433,5.2136e-07,0.95,0.3,0
0.047929,0.005698,0.028302,-0.00034493,0.008387,-5.186e-05,0,0,0.051778,-0.022703,0,-0.00026967,0,0,0,0.028302,-0.00034503,0.008387,-0.10372,0.012115,0.025431,5.2126e-07,0.96,0.3,0
0.048447,0.0056973,0.0283,-0.00034509,0.0083865,-3.8923e-05,0,0,0.051775,-0.022702,0,-0.0002024,0,0,0,0.0283,-0.00034514,0.0083865,-0.077854,0.012114,0.02543,5.2118e-07,0.97,0.3,0
0.048965,0.0056968,0.028299,-0.00034519,0.0083862,-2.5962e-05,0,0,0.051773,-0.022701,0,-0.000135,0,0,0,0.028299,-0.00034521,0.0083862,-0.05193,0.012113,0.025429,5.2112e-07,0.98,0.3,0
0.049482,0.0056965,0.028298,-0.00034525,0.0083859,-1.2985e-05,0,0,0.051772,-0.022701,0,-6.7521e-05,0,0,0,0.028298,-0.00034526,0.0083859,-0.025974,0.012113,0.025428,5.2109e-07,0.99,0.3,0
0.05,0.0056964,0.028298,-0.00034527,0.0083859,-1.9514e-06,0,0,0.051772,-0.022701,0,-1.0148e-05,0,0,0,0.028298,-0.00034527,0.0083859,-0.0039035,0.012113,0.025428,5.2107e-07,1,0.3,0
0,0,0.026603,0.011401,0.011401,0.0040013,0,0,0.039525,-1.8973e-19,0,0.020807,0,0,0,0.027592,0.010412,0.011401,13.882,0.016469,0.016707,2.3669e-07,0,0.31,0
0.00039525,0.00020807,0.026581,0.011109,0.011307,0.0039933,0,0,0.039711,-0.00051417,0,0.020765,0,0,0,0.02755,0.010139,0.011307,13.652,0.016332,0.016858,2.4207e-07,0.01,0.31,0
0.00079423,0.00041519,0.026682,0.010857,0.011262,0.0039671,0,0,0.040092,-0.0010517,0,0.020629,0,0,0,0.027621,0.0099183,0.011262,13.314,0.016267,0.01707,2.5015e-07,0.02,0.31,0
0.0011971,0.00062086,0.026786,0.010593,0.011214,0.0039272,0,0,0.040488,-0.0016133,0,0.020421,0,0,0,0.027688,0.0096911,0.011214,12.938,0.016198,0.017286,2.5836e-07,0.03,0.31,0
0.001604,0.00082456,0.026893,0.010317,0.011163,0.0038741,0,0,0.040898,-0.0021988,0,0.020145,0,0,0,0.027754,0.0094567,0.011163,12.527,0.016124,0.017506,2.6675e-07,0.04,0.31,0
0.0020151,0.0010258,0.027003,0.01003,0.01111,0.0038088,0,0,0.041322,-0.0028073,0,0.019806,0,0,0,0.027818,0.0092147,0.01111,12.085,0.016048,0.017732,2.7536e-07,0.05,0.31,0
0.0024304,0.0012243,0.027115,0.0097324,0.011054,0.0037321,0,0,0.041758,-0.0034368,0,0.019407,0,0,0,0.027883,0.008965,0.011054,11.619,0.015967,0.017964,2.8422e-07,0.06,0.31,0
0.0028502,0.0014194,0.027229,0.0094252,0.010996,0.0036451,0,0,0.042206,-0.004085,0,0.018954,0,0,0,0.027947,0.0087078,0.010996,11.134,0.015884,0.018203,2.9333e-07,0.07,0.31,0
0.0032745,0.0016108,0.027344,0.0091098,0.010936,0.0035489,0,0,0.042661,-0.0047487,0,0.018454,0,0,0,0.028011,0.0084434,0.010936,10.634,0.015797,0.018448,3.0268e-07,0.08,0.31,0
0.0037034,0.0017983,0.02746,0.0087879,0.010874,0.0034446,0,0,0.043122,-0.0054246,0,0.017912,0,0,0,0.028075,0.0081727,0.010874,10.126,0.015707,0.018698,3.1226e-07,0.09,0.31,0
0.004137,0.0019815,0.027574,0.0084611,0.010811,0.0033334,0,0,0.043586,-0.0061089,0,0.017333,0,0,0,0.028139,0.0078964,0.010811,9.6143,0.015615,0.018954,3.2205e-07,0.1,0.31,0
0.0045752,0.0021601,0.027688,0.0081311,0.010746,0.0032161,0,0,0.044049,-0.0067979,0,0.016724,0,0,0,0.028203,0.0076158,0.010746,9.103,0.015522,0.019214,3.3199e-07,0.11,0.31,0
0.005018,0.002334,0.027799,0.0077996,0.010679,0.0030939,0,0,0.04451,-0.0074878,0,0.016088,0,0,0,0.028267,0.0073319,0.010679,8.5961,0.015426,0.019478,3.4204e-07,0.12,0.31,0
0.0054654,0.0025029,0.027907,0.0074682,0.010613,0.0029677,0,0,0.044965,-0.0081752,0,0.015432,0,0,0,0.028329,0.007046,0.010613,8.0968,0.015329,0.019743,3.5216e-07,0.13,0.31,0
0.0059173,0.0026666,0.028011,0.0071385,0.010545,0.0028385,0,0,0.045413,-0.0088567,0,0.01476,0,0,0,0.02839,0.0067594,0.010545,7.6077,0.015232,0.020009,3.6227e-07,0.14,0.31,0
0.0063736,0.0028251,0.028111,0.0068119,0.010477,0.0027071,0,0,0.045849,-0.0095293,0,0.014077,0,0,0,0.02845,0.0064732,0.010477,7.1312,0.015133,0.020274,3.7234e-07,0.15,0.31,0
0.0068343,0.0029782,0.028207,0.0064896,0.010409,0.0025744,0,0,0.046274,-0.01019,0,0.013387,0,0,0,0.028508,0.0061886,0.010409,6.6688,0.015035,0.020537,3.823e-07,0.16,0.31,0
0.0072991,0.0031259,0.028297,0.0061727,0.010341,0.002441,0,0,0.046685,-0.010837,0,0.012693,0,0,0,0.028563,0.0059066,0.010341,6.2219,0.014937,0.020797,3.921e-07,0.17,0.31,0
0.007768,0.0032681,0.028381,0.0058623,0.010273,0.0023077,0,0,0.047082,-0.011468,0,0.012,0,0,0,0.028615,0.0056283,0.010273,5.7914,0.014839,0.021053,4.0171e-07,0.18,0.31,0
0.0082407,0.0034048,0.02846,0.0055592,0.010206,0.0021752,0,0,0.047462,-0.012081,0,0.011311,0,0,0,0.028665,0.0053545,0.010206,5.3779,0.014742,0.021303,4.1107e-07,0.19,0.31,0
0.0087172,0.003536,0.028534,0.0052641,0.010139,0.0020439,0,0,0.047825,-0.012675,0,0.010628,0,0,0,0.028712,0.0050859,0.010139,4.9819,0.014646,0.021548,4.2015e-07,0.2,0.31,0
0.0091972,0.0036618,0.028601,0.0049775,0.010074,0.0019145,0,0,0.048171,-0.01325,0,0.0099555,0,0,0,0.028755,0.0048233,0.010074,4.6034,0.014551,0.021786,4.2892e-07,0.21,0.31,0
0.0096806,0.0037821,0.028663,0.0046999,0.010009,0.0017874,0,0,0.0485,-0.013803,0,0.0092947,0,0,0,0.028795,0.0045673,0.010009,4.2426,0.014457,0.022017,4.3735e-07,0.22,0.31,0
0.010167,0.003897,0.028718,0.0044315,0.009945,0.0016631,0,0,0.048811,-0.014335,0,0.0086481,0,0,0,0.028832,0.0043181,0.009945,3.8992,0.014365,0.022241,4.4543e-07,0.23,0.31,0
0.010657,0.0040066,0.028769,0.0041726,0.0098824,0.0015418,0,0,0.049104,-0.014845,0,0.0080176,0,0,0,0.028865,0.0040764,0.0098824,3.573,0.014275,0.022456,4.5314e-07,0.24,0.31,0
0.011149,0.004111,0.028813,0.0039235,0.0098211,0.001424,0,0,0.04938,-0.015334,0,0.0074049,0,0,0,0.028895,0.0038422,0.0098211,3.2638,0.014186,0.022662,4.6046e-07,0.25,0.31,0
0.011644,0.0042103,0.028853,0.003684,0.0097611,0.0013098,0,0,0.049639,-0.015801,0,0.0068112,0,0,0,0.028921,0.003616,0.0097611,2.9711,0.014099,0.022861,4.6739e-07,0.26,0.31,0
0.012142,0.0043046,0.028888,0.0034542,0.0097026,0.0011996,0,0,0.049882,-0.016246,0,0.0062379,0,0,0,0.028944,0.0033977,0.0097026,2.6944,0.014015,0.02305,4.7393e-07,0.27,0.31,0
0.012642,0.004394,0.028918,0.0032341,0.0096455,0.0010934,0,0,0.050108,-0.01667,0,0.0056856,0,0,0,0.028964,0.0031876,0.0096455,2.4333,0.013933,0.023231,4.8008e-07,0.28,0.31,0
0.013144,0.0044787,0.028943,0.0030235,0.00959,0.0009914,0,0,0.050318,-0.017073,0,0.0051553,0,0,0,0.028981,0.0029856,0.00959,2.1872,0.013852,0.023403,4.8585e-07,0.29,0.31,0
0.013648,0.0045587,0.028965,0.0028223,0.009536,0.0008937,0,0,0.050514,-0.017456,0,0.0046472,0,0,0,0.028995,0.0027918,0.009536,1.9557,0.013774,0.023566,4.9123e-07,0.3,0.31,0
0.014155,0.0046343,0.028982,0.0026303,0.0094836,0.00080036,0,0,0.050695,-0.017819,0,0.0041619,0,0,0,0.029006,0.002606,0.0094836,1.7381,0.013699,0.023721,4.9624e-07,0.31,0.31,0
0.014662,0.0047055,0.028995,0.0024473,0.0094328,0.00071141,0,0,0.050863,-0.018162,0,0.0036993,0,0,0,0.029014,0.0024283,0.0094328,1.5339,0.013625,0.023868,5.0088e-07,0.32,0.31,0
0.015172,0.0047725,0.029006,0.0022731,0.0093836,0.00062686,0,0,0.051017,-0.018487,0,0.0032596,0,0,0,0.02902,0.0022585,0.0093836,1.3426,0.013554,0.024006,5.0517e-07,0.33,0.31,0
0.015683,0.0048355,0.029013,0.0021075,0.009336,0.00054667,0,0,0.051159,-0.018794,0,0.0028427,0,0,0,0.029024,0.0020964,0.009336,1.1635,0.013485,0.024136,5.0913e-07,0.34,0.31,0
0.016195,0.0048947,0.029017,0.0019502,0.00929,0.00047082,0,0,0.051289,-0.019084,0,0.0024482,0,0,0,0.029025,0.001942,0.00929,0.99625,0.013419,0.024258,5.1276e-07,0.35,0.31,0
0.016709,0.00495,0.029018,0.0018008,0.0092457,0.00039923,0,0,0.051408,-0.019357,0,0.002076,0,0,0,0.029024,0.001795,0.0092457,0.84019,0.013355,0.024373,5.1607e-07,0.36,0.31,0
0.017223,0.0050018,0.029017,0.0016592,0.0092029,0.00033183,0,0,0.051517,-0.019613,0,0.0017255,0,0,0,0.029021,0.0016552,0.0092029,0.69483,0.013293,0.024481,5.1909e-07,0.37,0.31,0
0.017739,0.0050502,0.029014,0.0015251,0.0091616,0.00026854,0,0,0.051615,-0.019855,0,0.0013964,0,0,0,0.029016,0.0015225,0.0091616,0.55965,0.013234,0.024581,5.2183e-07,0.38,0.31,0
0.018255,0.0050953,0.029008,0.0013982,0.009122,0.00020923,0,0,0.051705,-0.020082,0,0.001088,0,0,0,0.02901,0.0013966,0.009122,0.43416,0.013176,0.024675,5.243e-07,0.39,0.31,0
0.018773,0.0051372,0.029001,0.0012782,0.0090838,0.00015381,0,0,0.051785,-0.020295,0,0.00079984,0,0,0,0.029002,0.0012774,0.0090838,0.31788,0.013121,0.024762,5.2651e-07,0.4,0.31,0
0.019291,0.0051762,0.028992,0.0011649,0.0090471,0.00010216,0,0,0.051857,-0.020494,0,0.00053123,0,0,0,0.028993,0.0011645,0.0090471,0.21034,0.013068,0.024843,5.2849e-07,0.41,0.31,0
0.01981,0.0052123,0.028982,0.0010579,0.009012,5.4142e-05,0,0,0.051922,-0.020681,0,0.00028154,0,0,0,0.028982,0.0010578,0.009012,0.11109,0.013017,0.024918,5.3024e-07,0.42,0.31,0
0.02033,0.0052457,0.02897,0.00095706,0.0089782,9.6315e-06,0,0,0.051979,-0.020855,0,5.0084e-05,0,0,0,0.02897,0.00095705,0.0089782,0.019699,0.012969,0.024988,5.3178e-07,0.43,0.31,0
0.02085,0.0052765,0.028958,0.00086207,0.0089459,-3.1504e-05,0,0,0.05203,-0.021018,0,-0.00016382,0,0,0,0.028958,0.00086203,0.0089459,-0.064248,0.012922,0.025052,5.3312e-07,0.44,0.31,0
0.02137,0.0053048,0.028944,0.00077268,0.0089149,-6.9401e-05,0,0,0.052075,-0.02117,0,-0.00036089,0,0,0,0.028944,0.00077251,0.0089149,-0.14115,0.012877,0.025111,5.3428e-07,0.45,0.31,0
0.021891,0.0053309,0.028929,0.00068863,0.0088853,-0.00010419,0,0,0.052114,-0.021311,0,-0.00054181,0,0,0,0.028929,0.00068825,0.0088853,-0.21139,0.012834,0.025165,5.3527e-07,0.46,0.31,0
0.022412,0.0053547,0.028914,0.0006097,0.008857,-0.00013602,0,0,0.052147,-0.021443,0,-0.0007073,0,0,0,0.028914,0.00060904,0.008857,-0.27534,0.012793,0.025214,5.361e-07,0.47,0.31,0
0.022934,0.0053765,0.028897,0.00053562,0.0088299,-0.00016501,0,0,0.052175,-0.021565,0,-0.00085807,0,0,0,0.028898,0.00053466,0.0088299,-0.33334,0.012754,0.025259,5.3679e-07,0.48,0.31,0
0.023456,0.0053963,0.028881,0.00046619,0.0088041,-0.00019131,0,0,0.052199,-0.021678,0,-0.0009948,0,0,0,0.028882,0.0004649,0.0088041,-0.38573,0.012717,0.0253,5.3734e-07,0.49,0.31,0
0.023978,0.0054142,0.028864,0.00040116,0.0087794,-0.00021504,0,0,0.052219,-0.021784,0,-0.0011182,0,0,0,0.028865,0.00039954,0.0087794,-0.43284,0.012681,0.025337,5.3776e-07,0.5,0.31,0
0.0245,0.0054305,0.028846,0.00034034,0.0087559,-0.00023632,0,0,0.052235,-0.021881,0,-0.0012289,0,0,0,0.028848,0.00033838,0.0087559,-0.47496,0.012648,0.025371,5.3807e-07,0.51,0.31,0
0.025023,0.005445,0.028828,0.0002835,0.0087336,-0.0002553,0,0,0.052247,-0.02197,0,-0.0013276,0,0,0,0.028831,0.00028122,0.0087336,-0.51238,0.012615,0.025401,5.3827e-07,0.52,0.31,0
0.025545,0.0054581,0.02881,0.00023045,0.0087123,-0.00027208,0,0,0.052255,-0.022053,0,-0.0014148,0,0,0,0.028813,0.00022786,0.0087123,-0.54539,0.012584,0.025428,5.3838e-07,0.53,0.31,0
0.026068,0.0054697,0.028792,0.00018099,0.008692,-0.0002868,0,0,0.052261,-0.022129,0,-0.0014914,0,0,0,0.028795,0.00017812,0.008692,-0.57425,0.012555,0.025452,5.384e-07,0.54,0.31,0
0.02659,0.00548,0.028774,0.00013493,0.0086728,-0.00029956,0,0,0.052264,-0.022198,0,-0.0015577,0,0,0,0.028778,0.0001318,0.0086728,-0.5992,0.012527,0.025473,5.3834e-07,0.55,0.31,0
0.027113,0.005489,0.028756,9.2089e-05,0.0086545,-0.00031047,0,0,0.052264,-0.022262,0,-0.0016144,0,0,0,0.02876,8.8727e-05,0.0086545,-0.62049,0.012501,0.025491,5.3821e-07,0.56,0.31,0
0.027636,0.0054969,0.028738,5.2296e-05,0.0086371,-0.00031964,0,0,0.052263,-0.022321,0,-0.0016621,0,0,0,0.028742,4.8734e-05,0.0086371,-0.63833,0.012476,0.025507,5.3802e-07,0.57,0.31,0
0.028158,0.0055037,0.02872,1.538e-05,0.0086207,-0.00032718,0,0,0.052259,-0.022374,0,-0.0017013,0,0,0,0.028724,1.1651e-05,0.0086207,-0.65295,0.012452,0.025521,5.3777e-07,0.58,0.31,0
0.028681,0.0055095,0.028702,-1.882e-05,0.0086051,-0.00033319,0,0,0.052253,-0.022422,0,-0.0017326,0,0,0,0.028706,-2.2685e-05,0.0086051,-0.66455,0.01243,0.025533,5.3747e-07,0.59,0.31,0
0.029204,0.0055143,0.028685,-5.0458e-05,0.0085903,-0.00033775,0,0,0.052246,-0.022466,0,-0.0017563,0,0,0,0.028689,-5.4427e-05,0.0085903,-0.67332,0.012408,0.025543,5.3712e-07,0.6,0.31,0
0.029726,0.0055183,0.028668,-7.9683e-05,0.0085764,-0.00034096,0,0,0.052237,-0.022506,0,-0.001773,0,0,0,0.028672,-8.3726e-05,0.0085764,-0.67944,0.012388,0.025551,5.3673e-07,0.61,0.31,0
0.030248,0.0055214,0.02865,-0.00010664,0.0085632,-0.00034291,0,0,0.052227,-0.022541,0,-0.0017832,0,0,0,0.028655,-0.00011073,0.0085632,-0.68309,0.012369,0.025557,5.3632e-07,0.62,0.31,0
0.03077,0.0055239,0.028634,-0.00013146,0.0085507,-0.00034368,0,0,0.052216,-0.022573,0,-0.0017871,0,0,0,0.028638,-0.00013556,0.0085507,-0.68443,0.012351,0.025562,5.3587e-07,0.63,0.31,0
0.031293,0.0055257,0.028617,-0.00015427,0.0085389,-0.00034335,0,0,0.052204,-0.022602,0,-0.0017854,0,0,0,0.028621,-0.00015837,0.0085389,-0.68361,0.012334,0.025566,5.3539e-07,0.64,0.31,0
0.031815,0.0055268,0.028601,-0.00017521,0.0085278,-0.00034198,0,0,0.052191,-0.022628,0,-0.0017783,0,0,0,0.028605,-0.00017928,0.0085278,-0.68078,0.012318,0.025568,5.349e-07,0.65,0.31,0
0.032336,0.0055274,0.028585,-0.00019439,0.0085173,-0.00033966,0,0,0.052177,-0.02265,0,-0.0017662,0,0,0,0.028589,-0.0001984,0.0085173,-0.67608,0.012303,0.025569,5.3439e-07,0.66,0.31,0
0.032858,0.0055275,0.02857,-0.00021193,0.0085074,-0.00033644,0,0,0.052163,-0.02267,0,-0.0017495,0,0,0,0.028574,-0.00021586,0.0085074,-0.66963,0.012289,0.02557,5.3387e-07,0.67,0.31,0
0.03338,0.0055272,0.028555,-0.00022793,0.0084981,-0.0003324,0,0,0.052148,-0.022688,0,-0.0017285,0,0,0,0.028559,-0.00023177,0.0084981,-0.66156,0.012275,0.025569,5.3334e-07,0.68,0.31,0
0.033901,0.0055265,0.02854,-0.00024249,0.0084894,-0.00032759,0,0,0.052133,-0.022703,0,-0.0017035,0,0,0,0.028544,-0.00024622,0.0084894,-0.65199,0.012262,0.025567,5.328e-07,0.69,0.31,0
0.034422,0.0055254,0.028526,-0.00025573,0.0084812,-0.00032206,0,0,0.052117,-0.022716,0,-0.0016747,0,0,0,0.02853,-0.00025933,0.0084812,-0.64102,0.012251,0.025565,5.3226e-07,0.7,0.31,0
0.034943,0.0055239,0.028513,-0.00026772,0.0084735,-0.00031588,0,0,0.052102,-0.022727,0,-0.0016426,0,0,0,0.028516,-0.00027119,0.0084735,-0.62876,0.012239,0.025562,5.3172e-07,0.71,0.31,0
0.035464,0.0055223,0.028499,-0.00027856,0.0084662,-0.00030909,0,0,0.052086,-0.022736,0,-0.0016073,0,0,0,0.028503,-0.00028188,0.0084662,-0.61529,0.012229,0.025559,5.3118e-07,0.72,0.31,0
0.035985,0.0055203,0.028487,-0.00028834,0.0084595,-0.00030174,0,0,0.05207,-0.022744,0,-0.001569,0,0,0,0.02849,-0.0002915,0.0084595,-0.60072,0.012219,0.025555,5.3064e-07,0.73,0.31,0
0.036506,0.0055182,0.028474,-0.00029713,0.0084531,-0.00029386,0,0,0.052055,-0.022751,0,-0.0015281,0,0,0,0.028477,-0.00030013,0.0084531,-0.58513,0.01221,0.025551,5.3011e-07,0.74,0.31,0
0.037026,0.0055159,0.028462,-0.00030501,0.0084472,-0.00028552,0,0,0.052039,-0.022756,0,-0.0014847,0,0,0,0.028465,-0.00030785,0.0084472,-0.56859,0.012202,0.025546,5.2959e-07,0.75,0.31,0
0.037546,0.0055134,0.028451,-0.00031206,0.0084416,-0.00027673,0,0,0.052024,-0.02276,0,-0.001439,0,0,0,0.028453,-0.00031472,0.0084416,-0.55117,0.012193,0.025542,5.2908e-07,0.76,0.31,0
0.038067,0.0055109,0.02844,-0.00031834,0.0084365,-0.00026754,0,0,0.052009,-0.022763,0,-0.0013912,0,0,0,0.028442,-0.00032083,0.0084365,-0.53296,0.012186,0.025537,5.2858e-07,0.77,0.31,0
0.038587,0.0055083,0.028429,-0.00032391,0.0084317,-0.00025798,0,0,0.051994,-0.022765,0,-0.0013415,0,0,0,0.028432,-0.00032623,0.0084317,-0.51401,0.012179,0.025532,5.2809e-07,0.78,0.31,0
0.039107,0.0055056,0.02842,-0.00032885,0.0084272,-0.00024809,0,0,0.05198,-0.022766,0,-0.0012901,0,0,0,0.028422,-0.00033099,0.0084272,-0.49439,0.012173,0.025526,5.2762e-07,0.79,0.31,0
0.039626,0.0055029,0.02841,-0.00033319,0.008423,-0.00023788,0,0,0.051966,-0.022766,0,-0.001237,0,0,0,0.028412,-0.00033516,0.008423,-0.47415,0.012167,0.025521,5.2716e-07,0.8,0.31,0
0.040146,0.0055002,0.028401,-0.00033701,0.0084192,-0.0002274,0,0,0.051952,-0.022766,0,-0.0011825,0,0,0,0.028403,-0.00033881,0.0084192,-0.45334,0.012161,0.025516,5.2672e-07,0.81,0.31,0
0.040665,0.0054975,0.028392,-0.00034034,0.0084156,-0.00021666,0,0,0.05194,-0.022766,0,-0.0011267,0,0,0,0.028394,-0.00034198,0.0084156,-0.43201,0.012156,0.025511,5.263e-07,0.82,0.31,0
0.041185,0.0054949,0.028384,-0.00034324,0.0084123,-0.00020569,0,0,0.051927,-0.022764,0,-0.0010696,0,0,0,0.028386,-0.00034472,0.0084123,-0.41022,0.012151,0.025506,5.259e-07,0.83,0.31,0
0.041704,0.0054923,0.028377,-0.00034575,0.0084093,-0.00019452,0,0,0.051915,-0.022763,0,-0.0010115,0,0,0,0.028378,-0.00034707,0.0084093,-0.388,0.012147,0.0255,5.2551e-07,0.84,0.31,0
0.042223,0.0054898,0.028369,-0.00034792,0.0084065,-0.00018315,0,0,0.051904,-0.022761,0,-0.00095236,0,0,0,0.028371,-0.00034908,0.0084065,-0.36539,0.012143,0.025496,5.2515e-07,0.85,0.31,0
0.042742,0.0054873,0.028363,-0.00034977,0.0084039,-0.00017161,0,0,0.051893,-0.02276,0,-0.00089236,0,0,0,0.028364,-0.00035079,0.0084039,-0.34243,0.012139,0.025491,5.248e-07,0.86,0.31,0
0.043261,0.005485,0.028357,-0.00035134,0.0084016,-0.00015992,0,0,0.051883,-0.022758,0,-0.00083156,0,0,0,0.028358,-0.00035223,0.0084016,-0.31915,0.012136,0.025486,5.2448e-07,0.87,0.31,0
0.04378,0.0054828,0.028351,-0.00035268,0.0083995,-0.00014809,0,0,0.051874,-0.022756,0,-0.00077005,0,0,0,0.028352,-0.00035344,0.0083995,-0.29559,0.012133,0.025482,5.2418e-07,0.88,0.31,0
0.044298,0.0054808,0.028346,-0.0003538,0.0083976,-0.00013614,0,0,0.051865,-0.022753,0,-0.0007079,0,0,0,0.028346,-0.00035444,0.0083976,-0.27177,0.01213,0.025478,5.239e-07,0.89,0.31,0
0.044817,0.0054788,0.028341,-0.00035473,0.0083958,-0.00012408,0,0,0.051857,-0.022752,0,-0.00064519,0,0,0,0.028341,-0.00035527,0.0083958,-0.24773,0.012127,0.025475,5.2365e-07,0.9,0.31,0
0.045335,0.005477,0.028337,-0.0003555,0.0083943,-0.00011192,0,0,0.05185,-0.022749,0,-0.00058199,0,0,0,0.028337,-0.00035594,0.0083943,-0.22349,0.012125,0.025471,5.2342e-07,0.91,0.31,0
0.045854,0.0054754,0.028333,-0.00035613,0.008393,-9.9683e-05,0,0,0.051843,-0.022748,0,-0.00051835,0,0,0,0.028333,-0.00035648,0.008393,-0.19908,0.012123,0.025468,5.2321e-07,0.92,0.31,0
0.046372,0.005474,0.028329,-0.00035665,0.0083918,-8.7372e-05,0,0,0.051837,-0.022746,0,-0.00045434,0,0,0,0.02833,-0.00035691,0.0083918,-0.17451,0.012122,0.025465,5.2302e-07,0.93,0.31,0
0.046891,0.0054728,0.028326,-0.00035706,0.0083908,-7.5e-05,0,0,0.051832,-0.022744,0,-0.00039,0,0,0,0.028327,-0.00035725,0.0083908,-0.14981,0.01212,0.025463,5.2286e-07,0.94,0.31,0
0.047409,0.0054717,0.028324,-0.00035738,0.0083899,-6.2577e-05,0,0,0.051828,-0.022743,0,-0.0003254,0,0,0,0.028324,-0.00035752,0.0083899,-0.12501,0.012119,0.025461,5.2273e-07,0.95,0.31,0
0.047927,0.0054708,0.028322,-0.00035763,0.0083892,-5.0111e-05,0,0,0.051825,-0.022742,0,-0.00026058,0,0,0,0.028322,-0.00035771,0.0083892,-0.10011,0.012118,0.025459,5.2261e-07,0.96,0.31,0
0.048445,0.0054701,0.02832,-0.00035781,0.0083887,-3.7612e-05,0,0,0.051822,-0.022741,0,-0.00019558,0,0,0,0.02832,-0.00035786,0.0083887,-0.075145,0.012117,0.025458,5.2253e-07,0.97,0.31,0
0.048964,0.0054696,0.028319,-0.00035793,0.0083883,-2.5088e-05,0,0,0.05182,-0.02274,0,-0.00013046,0,0,0,0.028319,-0.00035795,0.0083883,-0.050126,0.012117,0.025457,5.2246e-07,0.98,0.31,0
0.049482,0.0054693,0.028318,-0.000358,0.0083881,-1.2548e-05,0,0,0.051819,-0.02274,0,-6.525e-05,0,0,0,0.028318,-0.00035801,0.0083881,-0.025071,0.012116,0.025456,5.2243e-07,0.99,0.31,0
0.05,0.0054692,0.028318,-0.00035803,0.008388,-1.9262e-06,0,0,0.051818,-0.02274,0,-1.0016e-05,0,0,0,0.028318,-0.00035803,0.008388,-0.0038486,0.012116,0.025456,5.2242e-07,1,0.31,0
0,0,0.02661,0.011404,0.011404,0.0039054,0,0,0.039535,2.7105e-19,0,0.020308,0,0,0,0.027554,0.01046,0.011404,13.594,0.016473,0.016642,2.3417e-07,0,0.32,0
0.00039535,0.00020308,0.026589,0.01113,0.011316,0.0038967,0,0,0.03971,-0.0004828,0,0.020263,0,0,0,0.027516,0.010203,0.011316,13.377,0.016345,0.016784,2.3923e-07,0.01,0.32,0
0.00079421,0.00040498,0.026684,0.010892,0.011273,0.0038674,0,0,0.04007,-0.0009899,0,0.02011,0,0,0,0.027581,0.009996,0.011273,13.047,0.016283,0.016982,2.4674e-07,0.02,0.32,0
0.0011967,0.00060517,0.026783,0.010642,0.011227,0.0038241,0,0,0.040445,-0.0015226,0,0.019885,0,0,0,0.027643,0.0097818,0.011227,12.676,0.016217,0.017184,2.5442e-07,0.03,0.32,0
0.0016031,0.00080316,0.026885,0.010379,0.011179,0.0037677,0,0,0.040836,-0.0020812,0,0.019592,0,0,0,0.027705,0.0095594,0.011179,12.269,0.016148,0.017392,2.6231e-07,0.04,0.32,0
0.0020135,0.00099848,0.026991,0.010103,0.011128,0.0036994,0,0,0.041243,-0.0026651,0,0.019237,0,0,0,0.027766,0.0093284,0.011128,11.829,0.016074,0.017607,2.7046e-07,0.05,0.32,0
0.002428,0.0011907,0.027099,0.0098159,0.011075,0.0036202,0,0,0.041665,-0.0032726,0,0.018825,0,0,0,0.027827,0.0090883,0.011075,11.365,0.015997,0.017829,2.7892e-07,0.06,0.32,0
0.0028467,0.0013794,0.02721,0.0095181,0.011019,0.0035314,0,0,0.042099,-0.0039012,0,0.018364,0,0,0,0.027889,0.0088392,0.011019,10.881,0.015916,0.018059,2.877e-07,0.07,0.32,0
0.0032699,0.0015644,0.027323,0.0092109,0.01096,0.0034343,0,0,0.042543,-0.0045481,0,0.017858,0,0,0,0.027952,0.0085816,0.01096,10.384,0.015831,0.018298,2.9679e-07,0.08,0.32,0
0.0036976,0.0017452,0.027436,0.0088961,0.0109,0.0033298,0,0,0.042995,-0.0052096,0,0.017315,0,0,0,0.028016,0.0083162,0.0109,9.8791,0.015744,0.018544,3.0619e-07,0.09,0.32,0
0.0041299,0.0019216,0.02755,0.0085753,0.010838,0.0032193,0,0,0.043452,-0.0058819,0,0.01674,0,0,0,0.028081,0.008044,0.010838,9.3717,0.015654,0.018797,3.1585e-07,0.1,0.32,0
0.0045667,0.0020934,0.027662,0.0082503,0.010774,0.0031036,0,0,0.043911,-0.0065612,0,0.016139,0,0,0,0.028147,0.0077662,0.010774,8.8661,0.015562,0.019055,3.2573e-07,0.11,0.32,0
0.0050081,0.0022604,0.027773,0.0079228,0.010709,0.0029839,0,0,0.044368,-0.0072437,0,0.015516,0,0,0,0.028212,0.007484,0.010709,8.3663,0.015468,0.019319,3.3578e-07,0.12,0.32,0
0.005454,0.0024224,0.027882,0.0075946,0.010643,0.0028609,0,0,0.044821,-0.0079256,0,0.014877,0,0,0,0.028277,0.0071988,0.010643,7.8754,0.015373,0.019585,3.4595e-07,0.13,0.32,0
0.0059045,0.0025794,0.027987,0.0072671,0.010576,0.0027356,0,0,0.045267,-0.0086034,0,0.014225,0,0,0,0.028342,0.006912,0.010576,7.3959,0.015277,0.019853,3.5617e-07,0.14,0.32,0
0.0063594,0.0027311,0.028088,0.006942,0.010509,0.0026086,0,0,0.045705,-0.0092741,0,0.013565,0,0,0,0.028405,0.0066249,0.010509,6.9298,0.01518,0.020121,3.6639e-07,0.15,0.32,0
0.0068186,0.0028776,0.028184,0.0066204,0.010441,0.0024807,0,0,0.046132,-0.0099347,0,0.0129,0,0,0,0.028466,0.0063387,0.010441,6.4786,0.015082,0.020388,3.7653e-07,0.16,0.32,0
0.007282,0.0030189,0.028276,0.0063037,0.010374,0.0023526,0,0,0.046546,-0.010583,0,0.012234,0,0,0,0.028525,0.0060546,0.010374,6.0434,0.014985,0.020653,3.8656e-07,0.17,0.32,0
0.0077495,0.0031548,0.028363,0.0059927,0.010307,0.0022248,0,0,0.046946,-0.011216,0,0.011569,0,0,0,0.028582,0.0057736,0.010307,5.625,0.014887,0.020914,3.9641e-07,0.18,0.32,0
0.0082209,0.0032853,0.028444,0.0056885,0.01024,0.0020979,0,0,0.047331,-0.011833,0,0.010909,0,0,0,0.028636,0.0054967,0.01024,5.2237,0.014791,0.02117,4.0603e-07,0.19,0.32,0
0.0086961,0.0034106,0.028519,0.0053918,0.010173,0.0019725,0,0,0.0477,-0.012432,0,0.010257,0,0,0,0.028687,0.0052248,0.010173,4.8399,0.014695,0.02142,4.154e-07,0.2,0.32,0
0.0091749,0.0035305,0.028589,0.0051031,0.010108,0.0018488,0,0,0.048052,-0.013012,0,0.009614,0,0,0,0.028734,0.0049584,0.010108,4.4736,0.0146,0.021665,4.2447e-07,0.21,0.32,0
0.0096571,0.0036452,0.028654,0.0048229,0.010043,0.0017275,0,0,0.048388,-0.013572,0,0.0089829,0,0,0,0.028778,0.0046983,0.010043,4.1246,0.014507,0.021902,4.3321e-07,0.22,0.32,0
0.010143,0.0037548,0.028712,0.0045516,0.0099792,0.0016088,0,0,0.048706,-0.014112,0,0.0083656,0,0,0,0.028819,0.004445,0.0099792,3.7928,0.014414,0.022132,4.4161e-07,0.23,0.32,0
0.010631,0.0038593,0.028765,0.0042896,0.0099165,0.001493,0,0,0.049007,-0.01463,0,0.0077637,0,0,0,0.028856,0.0041989,0.0099165,3.4779,0.014324,0.022354,4.4963e-07,0.24,0.32,0
0.011123,0.0039587,0.028813,0.0040369,0.009855,0.0013805,0,0,0.049291,-0.015127,0,0.0071786,0,0,0,0.02889,0.0039602,0.009855,3.1793,0.014235,0.022567,4.5728e-07,0.25,0.32,0
0.011617,0.0040533,0.028855,0.0037937,0.0097948,0.0012714,0,0,0.049558,-0.015603,0,0.0066115,0,0,0,0.02892,0.0037294,0.0097948,2.8968,0.014148,0.022772,4.6453e-07,0.26,0.32,0
0.012114,0.0041431,0.028893,0.0035601,0.0097359,0.0011661,0,0,0.049808,-0.016057,0,0.0060635,0,0,0,0.028947,0.0035065,0.0097359,2.6299,0.014063,0.022968,4.7139e-07,0.27,0.32,0
0.012613,0.0042282,0.028926,0.0033359,0.0096785,0.0010645,0,0,0.050043,-0.016491,0,0.0055354,0,0,0,0.02897,0.0032917,0.0096785,2.3779,0.01398,0.023155,4.7785e-07,0.28,0.32,0
0.013115,0.0043088,0.028954,0.0031212,0.0096225,0.00096689,0,0,0.050262,-0.016903,0,0.0050278,0,0,0,0.02899,0.003085,0.0096225,2.1405,0.013899,0.023334,4.8392e-07,0.29,0.32,0
0.013619,0.004385,0.028978,0.0029158,0.0095681,0.00087332,0,0,0.050465,-0.017296,0,0.0045413,0,0,0,0.029007,0.0028865,0.0095681,1.9171,0.013821,0.023503,4.896e-07,0.3,0.32,0
0.014124,0.0044568,0.028998,0.0027195,0.0095151,0.00078385,0,0,0.050654,-0.017669,0,0.004076,0,0,0,0.029021,0.0026962,0.0095151,1.7071,0.013744,0.023664,4.9489e-07,0.31,0.32,0
0.014632,0.0045246,0.029014,0.0025323,0.0094638,0.00069852,0,0,0.05083,-0.018022,0,0.0036323,0,0,0,0.029032,0.0025139,0.0094638,1.5099,0.01367,0.023816,4.9981e-07,0.32,0.32,0
0.015141,0.0045883,0.029026,0.0023539,0.009414,0.00061732,0,0,0.050992,-0.018356,0,0.0032101,0,0,0,0.02904,0.0023396,0.009414,1.3251,0.013598,0.02396,5.0436e-07,0.33,0.32,0
0.015651,0.0046482,0.029035,0.002184,0.0093658,0.00054024,0,0,0.051141,-0.018673,0,0.0028093,0,0,0,0.029046,0.0021731,0.0093658,1.1522,0.013528,0.024096,5.0857e-07,0.34,0.32,0
0.016164,0.0047044,0.029041,0.0020224,0.0093192,0.00046726,0,0,0.051278,-0.018971,0,0.0024298,0,0,0,0.029049,0.0020143,0.0093192,0.99046,0.013461,0.024223,5.1243e-07,0.35,0.32,0
0.016677,0.004757,0.029045,0.001869,0.0092741,0.00039831,0,0,0.051404,-0.019253,0,0.0020712,0,0,0,0.029051,0.0018631,0.0092741,0.83954,0.013396,0.024343,5.1597e-07,0.36,0.32,0
0.017192,0.0048062,0.029045,0.0017233,0.0092306,0.00033333,0,0,0.051518,-0.019519,0,0.0017333,0,0,0,0.029049,0.0017193,0.0092306,0.69887,0.013333,0.024456,5.192e-07,0.37,0.32,0
0.017707,0.0048521,0.029044,0.0015853,0.0091887,0.00027223,0,0,0.051623,-0.019769,0,0.0014156,0,0,0,0.029046,0.0015826,0.0091887,0.56798,0.013272,0.024561,5.2213e-07,0.38,0.32,0
0.018224,0.0048949,0.02904,0.0014545,0.0091483,0.00021493,0,0,0.051718,-0.020004,0,0.0011176,0,0,0,0.029042,0.0014528,0.0091483,0.44639,0.013214,0.024659,5.2478e-07,0.39,0.32,0
0.018742,0.0049346,0.029034,0.0013308,0.0091094,0.00016132,0,0,0.051804,-0.020224,0,0.00083888,0,0,0,0.029035,0.0013299,0.0091094,0.33363,0.013158,0.02475,5.2717e-07,0.4,0.32,0
0.01926,0.0049715,0.029026,0.0012138,0.009072,0.0001113,0,0,0.051881,-0.020431,0,0.00057874,0,0,0,0.029027,0.0012134,0.009072,0.22927,0.013104,0.024835,5.293e-07,0.41,0.32,0
0.019779,0.0050057,0.029017,0.0011034,0.0090361,6.4736e-05,0,0,0.05195,-0.020625,0,0.00033663,0,0,0,0.029017,0.0011032,0.0090361,0.13288,0.013052,0.024913,5.312e-07,0.42,0.32,0
0.020299,0.0050374,0.029006,0.00099918,0.0090016,2.1524e-05,0,0,0.052012,-0.020806,0,0.00011192,0,0,0,0.029006,0.00099916,0.0090016,0.044032,0.013002,0.024986,5.3287e-07,0.43,0.32,0
0.02082,0.0050665,0.028994,0.00090096,0.0089686,-1.8465e-05,0,0,0.052067,-0.020976,0,-9.6017e-05,0,0,0,0.028994,0.00090095,0.0089686,-0.037658,0.012955,0.025053,5.3433e-07,0.44,0.32,0
0.02134,0.0050933,0.028981,0.00080847,0.0089369,-5.5354e-05,0,0,0.052115,-0.021134,0,-0.00028784,0,0,0,0.028981,0.00080836,0.0089369,-0.11257,0.012909,0.025115,5.356e-07,0.45,0.32,0
0.021862,0.0051179,0.028967,0.00072145,0.0089065,-8.9271e-05,0,0,0.052157,-0.021281,0,-0.00046421,0,0,0,0.028967,0.00072117,0.0089065,-0.18108,0.012865,0.025172,5.3669e-07,0.46,0.32,0
0.022384,0.0051404,0.028952,0.00063967,0.0088775,-0.00012034,0,0,0.052193,-0.021418,0,-0.00062578,0,0,0,0.028952,0.00063916,0.0088775,-0.24353,0.012823,0.025224,5.3761e-07,0.47,0.32,0
0.022906,0.0051609,0.028936,0.00056289,0.0088497,-0.0001487,0,0,0.052225,-0.021546,0,-0.00077322,0,0,0,0.028937,0.00056211,0.0088497,-0.30026,0.012783,0.025272,5.3837e-07,0.48,0.32,0
0.023428,0.0051796,0.02892,0.00049088,0.0088232,-0.00017445,0,0,0.052251,-0.021664,0,-0.00090716,0,0,0,0.028921,0.00048981,0.0088232,-0.35158,0.012745,0.025315,5.3899e-07,0.49,0.32,0
0.023951,0.0051965,0.028903,0.0004234,0.0087978,-0.00019774,0,0,0.052273,-0.021774,0,-0.0010283,0,0,0,0.028904,0.00042203,0.0087978,-0.3978,0.012708,0.025354,5.3947e-07,0.5,0.32,0
0.024474,0.0052117,0.028885,0.00036025,0.0087736,-0.00021868,0,0,0.05229,-0.021875,0,-0.0011372,0,0,0,0.028887,0.00035857,0.0087736,-0.43922,0.012673,0.025389,5.3983e-07,0.51,0.32,0
0.024997,0.0052254,0.028868,0.0003012,0.0087506,-0.00023739,0,0,0.052304,-0.021968,0,-0.0012345,0,0,0,0.028869,0.00029923,0.0087506,-0.4761,0.01264,0.025421,5.4008e-07,0.52,0.32,0
0.02552,0.0052376,0.028849,0.00024606,0.0087286,-0.00025399,0,0,0.052314,-0.022055,0,-0.0013208,0,0,0,0.028852,0.00024381,0.0087286,-0.50872,0.012608,0.025449,5.4022e-07,0.53,0.32,0
0.026043,0.0052484,0.028831,0.00019462,0.0087078,-0.00026859,0,0,0.052321,-0.022134,0,-0.0013967,0,0,0,0.028834,0.0001921,0.0087078,-0.53733,0.012578,0.025475,5.4028e-07,0.54,0.32,0
0.026566,0.005258,0.028813,0.0001467,0.0086879,-0.00028129,0,0,0.052325,-0.022207,0,-0.0014627,0,0,0,0.028816,0.00014394,0.0086879,-0.56216,0.012549,0.025497,5.4024e-07,0.55,0.32,0
0.027089,0.0052664,0.028795,0.0001021,0.008669,-0.00029221,0,0,0.052326,-0.022274,0,-0.0015195,0,0,0,0.028798,9.9121e-05,0.008669,-0.58344,0.012522,0.025517,5.4013e-07,0.56,0.32,0
0.027613,0.0052736,0.028776,6.0646e-05,0.008651,-0.00030145,0,0,0.052325,-0.022335,0,-0.0015675,0,0,0,0.028779,5.7482e-05,0.008651,-0.6014,0.012496,0.025534,5.3995e-07,0.57,0.32,0
0.028136,0.0052799,0.028758,2.2172e-05,0.008634,-0.0003091,0,0,0.052322,-0.022391,0,-0.0016073,0,0,0,0.028761,1.8847e-05,0.008634,-0.61622,0.012471,0.025548,5.3971e-07,0.58,0.32,0
0.028659,0.0052851,0.02874,-1.3492e-05,0.0086178,-0.00031526,0,0,0.052317,-0.022441,0,-0.0016394,0,0,0,0.028743,-1.6948e-05,0.0086178,-0.62812,0.012448,0.025561,5.3941e-07,0.59,0.32,0
0.029182,0.0052895,0.028722,-4.6503e-05,0.0086025,-0.00032002,0,0,0.052309,-0.022487,0,-0.0016641,0,0,0,0.028725,-5.0062e-05,0.0086025,-0.63727,0.012426,0.025571,5.3906e-07,0.6,0.32,0
0.029705,0.0052931,0.028704,-7.7015e-05,0.008588,-0.00032347,0,0,0.052301,-0.022529,0,-0.001682,0,0,0,0.028707,-8.065e-05,0.008588,-0.64385,0.012405,0.02558,5.3867e-07,0.61,0.32,0
0.030228,0.0052959,0.028686,-0.00010517,0.0085742,-0.00032569,0,0,0.05229,-0.022566,0,-0.0016936,0,0,0,0.02869,-0.00010886,0.0085742,-0.64802,0.012385,0.025587,5.3825e-07,0.62,0.32,0
0.030751,0.005298,0.028669,-0.00013112,0.0085612,-0.00032675,0,0,0.052279,-0.0226,0,-0.0016991,0,0,0,0.028672,-0.00013483,0.0085612,-0.64994,0.012366,0.025592,5.3779e-07,0.63,0.32,0
0.031274,0.0052995,0.028652,-0.00015499,0.008549,-0.00032674,0,0,0.052267,-0.02263,0,-0.001699,0,0,0,0.028655,-0.00015869,0.008549,-0.64977,0.012349,0.025596,5.373e-07,0.64,0.32,0
0.031796,0.0053004,0.028635,-0.00017691,0.0085374,-0.00032572,0,0,0.052253,-0.022657,0,-0.0016937,0,0,0,0.028639,-0.00018059,0.0085374,-0.64763,0.012332,0.025599,5.3679e-07,0.65,0.32,0
0.032319,0.0053008,0.028618,-0.000197,0.0085264,-0.00032377,0,0,0.052239,-0.022681,0,-0.0016836,0,0,0,0.028622,-0.00020064,0.0085264,-0.64366,0.012316,0.0256,5.3627e-07,0.66,0.32,0
0.032841,0.0053007,0.028602,-0.00021538,0.0085161,-0.00032094,0,0,0.052224,-0.022702,0,-0.0016689,0,0,0,0.028606,-0.00021896,0.0085161,-0.63799,0.012301,0.025601,5.3573e-07,0.67,0.32,0
0.033363,0.0053002,0.028587,-0.00023217,0.0085064,-0.0003173,0,0,0.052209,-0.02272,0,-0.00165,0,0,0,0.02859,-0.00023566,0.0085064,-0.63074,0.012287,0.0256,5.3517e-07,0.68,0.32,0
0.033885,0.0052993,0.028572,-0.00024747,0.0084972,-0.00031291,0,0,0.052193,-0.022736,0,-0.0016271,0,0,0,0.028575,-0.00025086,0.0084972,-0.62201,0.012274,0.025599,5.3462e-07,0.69,0.32,0
0.034407,0.005298,0.028557,-0.00026138,0.0084886,-0.00030782,0,0,0.052177,-0.02275,0,-0.0016007,0,0,0,0.02856,-0.00026466,0.0084886,-0.61191,0.012261,0.025596,5.3405e-07,0.7,0.32,0
0.034929,0.0052965,0.028542,-0.000274,0.0084805,-0.00030208,0,0,0.052161,-0.022762,0,-0.0015708,0,0,0,0.028546,-0.00027716,0.0084805,-0.60054,0.01225,0.025594,5.3349e-07,0.71,0.32,0
0.03545,0.0052947,0.028529,-0.00028542,0.0084729,-0.00029574,0,0,0.052145,-0.022772,0,-0.0015379,0,0,0,0.028532,-0.00028845,0.0084729,-0.588,0.012239,0.02559,5.3292e-07,0.72,0.32,0
0.035972,0.0052927,0.028515,-0.00029573,0.0084658,-0.00028885,0,0,0.052128,-0.02278,0,-0.001502,0,0,0,0.028518,-0.00029863,0.0084658,-0.57436,0.012228,0.025586,5.3236e-07,0.73,0.32,0
0.036493,0.0052905,0.028502,-0.00030502,0.0084592,-0.00028145,0,0,0.052112,-0.022787,0,-0.0014635,0,0,0,0.028505,-0.00030776,0.0084592,-0.55971,0.012219,0.025582,5.3181e-07,0.74,0.32,0
0.037014,0.0052881,0.02849,-0.00031335,0.0084529,-0.00027357,0,0,0.052096,-0.022792,0,-0.0014226,0,0,0,0.028492,-0.00031595,0.0084529,-0.54413,0.01221,0.025577,5.3126e-07,0.75,0.32,0
0.037535,0.0052857,0.028478,-0.00032082,0.0084471,-0.00026526,0,0,0.05208,-0.022797,0,-0.0013794,0,0,0,0.02848,-0.00032326,0.0084471,-0.52768,0.012201,0.025572,5.3072e-07,0.76,0.32,0
0.038056,0.0052831,0.028466,-0.00032748,0.0084416,-0.00025655,0,0,0.052064,-0.0228,0,-0.0013341,0,0,0,0.028469,-0.00032976,0.0084416,-0.51045,0.012193,0.025567,5.302e-07,0.77,0.32,0
0.038576,0.0052804,0.028455,-0.0003334,0.0084365,-0.00024748,0,0,0.052048,-0.022802,0,-0.0012869,0,0,0,0.028457,-0.00033553,0.0084365,-0.49249,0.012186,0.025562,5.2969e-07,0.78,0.32,0
0.039097,0.0052778,0.028445,-0.00033866,0.0084318,-0.00023807,0,0,0.052033,-0.022803,0,-0.0012379,0,0,0,0.028447,-0.00034062,0.0084318,-0.47385,0.012179,0.025556,5.2919e-07,0.79,0.32,0
0.039617,0.005275,0.028435,-0.0003433,0.0084274,-0.00022835,0,0,0.052019,-0.022804,0,-0.0011874,0,0,0,0.028436,-0.00034511,0.0084274,-0.4546,0.012173,0.025551,5.2871e-07,0.8,0.32,0
0.040137,0.0052723,0.028425,-0.00034738,0.0084233,-0.00021835,0,0,0.052004,-0.022804,0,-0.0011354,0,0,0,0.028427,-0.00034903,0.0084233,-0.43478,0.012167,0.025545,5.2825e-07,0.81,0.32,0
0.040657,0.0052697,0.028416,-0.00035095,0.0084195,-0.0002081,0,0,0.051991,-0.022803,0,-0.0010821,0,0,0,0.028417,-0.00035246,0.0084195,-0.41445,0.012162,0.02554,5.278e-07,0.82,0.32,0
0.041177,0.005267,0.028407,-0.00035407,0.008416,-0.00019762,0,0,0.051978,-0.022802,0,-0.0010276,0,0,0,0.028409,-0.00035543,0.008416,-0.39365,0.012156,0.025535,5.2737e-07,0.83,0.32,0
0.041696,0.0052645,0.028399,-0.00035678,0.0084128,-0.00018693,0,0,0.051965,-0.022801,0,-0.00097201,0,0,0,0.0284,-0.000358,0.0084128,-0.37242,0.012152,0.025529,5.2697e-07,0.84,0.32,0
0.042216,0.0052619,0.028392,-0.00035913,0.0084098,-0.00017604,0,0,0.051953,-0.022799,0,-0.00091541,0,0,0,0.028393,-0.0003602,0.0084098,-0.3508,0.012148,0.025524,5.2658e-07,0.85,0.32,0
0.042736,0.0052595,0.028385,-0.00036114,0.0084071,-0.00016499,0,0,0.051942,-0.022797,0,-0.00085792,0,0,0,0.028386,-0.00036209,0.0084071,-0.32883,0.012143,0.025519,5.2622e-07,0.86,0.32,0
0.043255,0.0052572,0.028378,-0.00036286,0.0084046,-0.00015377,0,0,0.051931,-0.022795,0,-0.00079963,0,0,0,0.028379,-0.00036368,0.0084046,-0.30654,0.01214,0.025515,5.2588e-07,0.87,0.32,0
0.043774,0.0052551,0.028372,-0.00036432,0.0084023,-0.00014243,0,0,0.051921,-0.022793,0,-0.00074061,0,0,0,0.028373,-0.00036503,0.0084023,-0.28397,0.012137,0.02551,5.2556e-07,0.88,0.32,0
0.044293,0.005253,0.028366,-0.00036556,0.0084003,-0.00013095,0,0,0.051912,-0.022791,0,-0.00068095,0,0,0,0.028367,-0.00036615,0.0084003,-0.26113,0.012134,0.025506,5.2527e-07,0.89,0.32,0
0.044812,0.0052511,0.028361,-0.00036659,0.0083984,-0.00011937,0,0,0.051904,-0.022789,0,-0.00062073,0,0,0,0.028362,-0.00036709,0.0083984,-0.23807,0.012131,0.025502,5.25e-07,0.9,0.32,0
0.045331,0.0052494,0.028357,-0.00036745,0.0083968,-0.00010769,0,0,0.051896,-0.022787,0,-0.00055999,0,0,0,0.028357,-0.00036786,0.0083968,-0.21481,0.012129,0.025499,5.2475e-07,0.91,0.32,0
0.04585,0.0052478,0.028353,-0.00036817,0.0083953,-9.5927e-05,0,0,0.051889,-0.022785,0,-0.00049882,0,0,0,0.028353,-0.00036849,0.0083953,-0.19136,0.012127,0.025495,5.2454e-07,0.92,0.32,0
0.046369,0.0052464,0.028349,-0.00036875,0.0083941,-8.4089e-05,0,0,0.051883,-0.022783,0,-0.00043726,0,0,0,0.028349,-0.00036899,0.0083941,-0.16777,0.012125,0.025493,5.2434e-07,0.93,0.32,0
0.046888,0.0052451,0.028346,-0.00036921,0.008393,-7.2189e-05,0,0,0.051877,-0.022782,0,-0.00037538,0,0,0,0.028346,-0.0003694,0.008393,-0.14404,0.012123,0.02549,5.2417e-07,0.94,0.32,0
0.047407,0.0052441,0.028343,-0.00036958,0.0083921,-6.0236e-05,0,0,0.051873,-0.02278,0,-0.00031323,0,0,0,0.028343,-0.00036971,0.0083921,-0.1202,0.012122,0.025488,5.2403e-07,0.95,0.32,0
0.047925,0.0052432,0.028341,-0.00036987,0.0083913,-4.8239e-05,0,0,0.051869,-0.022779,0,-0.00025084,0,0,0,0.028341,-0.00036995,0.0083913,-0.096267,0.012121,0.025486,5.2391e-07,0.96,0.32,0
0.048444,0.0052425,0.028339,-0.00037008,0.0083908,-3.6209e-05,0,0,0.051866,-0.022778,0,-0.00018829,0,0,0,0.028339,-0.00037012,0.0083908,-0.072263,0.01212,0.025485,5.2382e-07,0.97,0.32,0
0.048963,0.005242,0.028338,-0.00037022,0.0083904,-2.4153e-05,0,0,0.051864,-0.022777,0,-0.0001256,0,0,0,0.028338,-0.00037024,0.0083904,-0.048205,0.012119,0.025484,5.2375e-07,0.98,0.32,0
0.049481,0.0052417,0.028337,-0.00037031,0.0083901,-1.2081e-05,0,0,0.051863,-0.022777,0,-6.282e-05,0,0,0,0.028337,-0.00037031,0.0083901,-0.024111,0.012119,0.025483,5.2371e-07,0.99,0.32,0
0.05,0.0052416,0.028337,-0.00037034,0.00839,-1.9001e-06,0,0,0.051862,-0.022777,0,-9.8804e-06,0,0,0,0.028337,-0.00037034,0.00839,-0.0037923,0.012119,0.025483,5.237e-07,1,0.32,0
0,0,0.026622,0.011409,0.011409,0.0038156,0,0,0.039553,4.0658e-19,0,0.019841,0,0,0,0.027526,0.010506,0.011409,13.32,0.01648,0.016586,2.3201e-07,0,0.33,0
0.00039553,0.00019841,0.026603,0.011154,0.011327,0.0038062,0,0,0.039717,-0.00045008,0,0.019792,0,0,0,0.02749,0.010267,0.011327,13.116,0.016361,0.016718,2.3673e-07,0.01,0.33,0
0.00079435,0.00039539,0.026693,0.010931,0.011287,0.0037733,0,0,0.040054,-0.00092592,0,0.019621,0,0,0,0.027549,0.010074,0.011287,12.793,0.016303,0.016901,2.4366e-07,0.02,0.33,0
0.0011966,0.0005904,0.026786,0.010694,0.011244,0.0037262,0,0,0.040409,-0.0014294,0,0.019376,0,0,0,0.027607,0.0098733,0.011244,12.425,0.016241,0.017089,2.5078e-07,0.03,0.33,0
0.0016025,0.00078294,0.026883,0.010444,0.011198,0.003666,0,0,0.040781,-0.0019614,0,0.019063,0,0,0,0.027664,0.0096632,0.011198,12.018,0.016175,0.017284,2.5816e-07,0.04,0.33,0
0.0020122,0.00097254,0.026984,0.010179,0.011149,0.003594,0,0,0.041172,-0.0025215,0,0.018689,0,0,0,0.027721,0.009443,0.011149,11.579,0.016104,0.017487,2.6586e-07,0.05,0.33,0
0.002426,0.0011588,0.027089,0.009902,0.011097,0.0035117,0,0,0.041579,-0.003108,0,0.018261,0,0,0,0.027779,0.0092122,0.011097,11.114,0.01603,0.0177,2.7393e-07,0.06,0.33,0
0.0028438,0.0013413,0.027197,0.0096127,0.011043,0.0034205,0,0,0.042001,-0.0037187,0,0.017787,0,0,0,0.027839,0.0089708,0.011043,10.629,0.015951,0.017922,2.8239e-07,0.07,0.33,0
0.003266,0.0015199,0.027307,0.0093129,0.010986,0.0033217,0,0,0.042436,-0.0043504,0,0.017273,0,0,0,0.027901,0.0087193,0.010986,10.132,0.015869,0.018155,2.9124e-07,0.08,0.33,0
0.0036925,0.0016941,0.027419,0.0090043,0.010927,0.0032165,0,0,0.04288,-0.0049992,0,0.016726,0,0,0,0.027965,0.0084586,0.010927,9.6281,0.015783,0.018397,3.0045e-07,0.09,0.33,0
0.0041236,0.0018639,0.027532,0.0086886,0.010866,0.0031062,0,0,0.04333,-0.0056614,0,0.016152,0,0,0,0.02803,0.0081897,0.010866,9.1235,0.015695,0.018647,3.1001e-07,0.1,0.33,0
0.0045591,0.0020289,0.027643,0.0083677,0.010803,0.0029917,0,0,0.043784,-0.0063327,0,0.015557,0,0,0,0.028097,0.007914,0.010803,8.6224,0.015605,0.018905,3.1985e-07,0.11,0.33,0
0.0049993,0.0021891,0.027754,0.0080434,0.010739,0.0028739,0,0,0.044238,-0.0070091,0,0.014944,0,0,0,0.028164,0.0076329,0.010739,8.1287,0.015512,0.019168,3.2991e-07,0.12,0.33,0
0.0054439,0.0023444,0.027862,0.0077175,0.010674,0.0027538,0,0,0.04469,-0.0076867,0,0.01432,0,0,0,0.028232,0.0073479,0.010674,7.6454,0.015418,0.019436,3.4014e-07,0.13,0.33,0
0.005893,0.0024946,0.027968,0.0073917,0.010608,0.0026319,0,0,0.045136,-0.0083619,0,0.013686,0,0,0,0.028299,0.0070604,0.010608,7.1749,0.015322,0.019706,3.5047e-07,0.14,0.33,0
0.0063466,0.0026396,0.02807,0.0070675,0.010541,0.002509,0,0,0.045574,-0.0090313,0,0.013047,0,0,0,0.028365,0.0067719,0.010541,6.7189,0.015226,0.019977,3.6083e-07,0.15,0.33,0
0.0068045,0.0027795,0.028167,0.0067463,0.010474,0.0023857,0,0,0.046002,-0.0096922,0,0.012406,0,0,0,0.02843,0.0064838,0.010474,6.2788,0.015129,0.020248,3.7115e-07,0.16,0.33,0
0.0072667,0.0029143,0.02826,0.0064293,0.010407,0.0022626,0,0,0.046419,-0.010342,0,0.011765,0,0,0,0.028492,0.0061973,0.010407,5.8553,0.015032,0.020517,3.8137e-07,0.17,0.33,0
0.0077329,0.0030438,0.028348,0.0061176,0.01034,0.0021401,0,0,0.046822,-0.010978,0,0.011128,0,0,0,0.028553,0.0059135,0.01034,5.4489,0.014935,0.020782,3.9145e-07,0.18,0.33,0
0.0082031,0.0031682,0.028431,0.0058122,0.010273,0.0020186,0,0,0.047212,-0.011598,0,0.010497,0,0,0,0.02861,0.0056334,0.010273,5.0601,0.014839,0.021044,4.0132e-07,0.19,0.33,0
0.0086771,0.0032874,0.028509,0.0055137,0.010207,0.0018988,0,0,0.047585,-0.012202,0,0.0098736,0,0,0,0.028664,0.005358,0.010207,4.6887,0.014743,0.0213,4.1095e-07,0.2,0.33,0
0.0091548,0.0034015,0.028581,0.0052229,0.010141,0.0017808,0,0,0.047943,-0.012787,0,0.0092601,0,0,0,0.028716,0.0050879,0.010141,4.3348,0.014648,0.02155,4.2029e-07,0.21,0.33,0
0.009636,0.0035106,0.028647,0.0049403,0.010076,0.001665,0,0,0.048284,-0.013354,0,0.0086583,0,0,0,0.028764,0.0048239,0.010076,3.998,0.014554,0.021793,4.2932e-07,0.22,0.33,0
0.01012,0.0036148,0.028708,0.0046663,0.010012,0.0015519,0,0,0.048609,-0.0139,0,0.0080699,0,0,0,0.028808,0.0045665,0.010012,3.6781,0.014462,0.022029,4.38e-07,0.23,0.33,0
0.010608,0.003714,0.028763,0.0044012,0.0099494,0.0014416,0,0,0.048917,-0.014425,0,0.0074962,0,0,0,0.028848,0.0043161,0.0099494,3.3746,0.014371,0.022257,4.4632e-07,0.24,0.33,0
0.011099,0.0038085,0.028813,0.0041452,0.0098876,0.0013343,0,0,0.049207,-0.01493,0,0.0069386,0,0,0,0.028885,0.0040732,0.0098876,3.0872,0.014282,0.022476,4.5425e-07,0.25,0.33,0
0.011592,0.0038983,0.028858,0.0038985,0.0098271,0.0012304,0,0,0.049481,-0.015414,0,0.0063981,0,0,0,0.028919,0.003838,0.0098271,2.8153,0.014195,0.022687,4.618e-07,0.26,0.33,0
0.012089,0.0039835,0.028898,0.0036612,0.0097678,0.0011299,0,0,0.049739,-0.015877,0,0.0058756,0,0,0,0.028949,0.0036107,0.0097678,2.5584,0.014109,0.022889,4.6895e-07,0.27,0.33,0
0.012587,0.0040642,0.028933,0.0034332,0.00971,0.001033,0,0,0.049981,-0.01632,0,0.0053718,0,0,0,0.028975,0.0033914,0.00971,2.3161,0.014025,0.023082,4.7569e-07,0.28,0.33,0
0.013088,0.0041406,0.028964,0.0032146,0.0096536,0.00093989,0,0,0.050207,-0.016741,0,0.0048874,0,0,0,0.028998,0.0031804,0.0096536,2.0877,0.013944,0.023267,4.8204e-07,0.29,0.33,0
0.013591,0.0042128,0.02899,0.0030052,0.0095986,0.00085052,0,0,0.050418,-0.017143,0,0.0044227,0,0,0,0.029018,0.0029774,0.0095986,1.8727,0.013865,0.023442,4.8798e-07,0.3,0.33,0
0.014096,0.0042809,0.029012,0.002805,0.0095451,0.00076502,0,0,0.050614,-0.017524,0,0.0039781,0,0,0,0.029034,0.0027827,0.0095451,1.6706,0.013787,0.023608,4.9354e-07,0.31,0.33,0
0.014604,0.004345,0.02903,0.0026137,0.0094932,0.0006834,0,0,0.050796,-0.017887,0,0.0035537,0,0,0,0.029048,0.0025961,0.0094932,1.4809,0.013712,0.023766,4.9871e-07,0.32,0.33,0
0.015112,0.0044054,0.029045,0.0024313,0.0094428,0.00060567,0,0,0.050965,-0.01823,0,0.0031495,0,0,0,0.029059,0.0024175,0.0094428,1.303,0.01364,0.023915,5.0351e-07,0.33,0.33,0
0.015623,0.0044621,0.029056,0.0022574,0.009394,0.00053183,0,0,0.051121,-0.018555,0,0.0027655,0,0,0,0.029066,0.0022468,0.009394,1.1365,0.013569,0.024056,5.0794e-07,0.34,0.33,0
0.016135,0.0045152,0.029064,0.0020919,0.0093467,0.00046184,0,0,0.051264,-0.018863,0,0.0024016,0,0,0,0.029072,0.002084,0.0093467,0.98069,0.013501,0.024188,5.1203e-07,0.35,0.33,0
0.016648,0.004565,0.029069,0.0019345,0.009301,0.00039566,0,0,0.051396,-0.019153,0,0.0020574,0,0,0,0.029074,0.0019288,0.009301,0.83523,0.013435,0.024313,5.1578e-07,0.36,0.33,0
0.017163,0.0046114,0.029071,0.0017851,0.0092568,0.00033323,0,0,0.051517,-0.019426,0,0.0017328,0,0,0,0.029075,0.001781,0.0092568,0.69958,0.013371,0.02443,5.192e-07,0.37,0.33,0
0.017678,0.0046548,0.029071,0.0016433,0.0092142,0.00027447,0,0,0.051627,-0.019684,0,0.0014272,0,0,0,0.029073,0.0016405,0.0092142,0.57329,0.013309,0.024539,5.2232e-07,0.38,0.33,0
0.018195,0.0046952,0.029068,0.0015089,0.0091731,0.0002193,0,0,0.051727,-0.019927,0,0.0011404,0,0,0,0.02907,0.0015071,0.0091731,0.45589,0.01325,0.024641,5.2514e-07,0.39,0.33,0
0.018713,0.0047327,0.029063,0.0013816,0.0091335,0.00016763,0,0,0.051818,-0.020155,0,0.00087169,0,0,0,0.029065,0.0013806,0.0091335,0.34695,0.013193,0.024736,5.2768e-07,0.4,0.33,0
0.019232,0.0047675,0.029057,0.0012612,0.0090955,0.00011936,0,0,0.0519,-0.020369,0,0.00062069,0,0,0,0.029057,0.0012607,0.0090955,0.24604,0.013138,0.024825,5.2996e-07,0.41,0.33,0
0.019751,0.0047998,0.029049,0.0011474,0.0090588,7.4387e-05,0,0,0.051974,-0.02057,0,0.00038681,0,0,0,0.029049,0.0011472,0.0090588,0.15276,0.013085,0.024907,5.32e-07,0.42,0.33,0
0.020271,0.0048295,0.029039,0.00104,0.0090236,3.2596e-05,0,0,0.052039,-0.020757,0,0.0001695,0,0,0,0.029039,0.00104,0.0090236,0.066702,0.013034,0.024983,5.338e-07,0.43,0.33,0
0.020792,0.0048569,0.029028,0.00093872,0.0089899,-6.1265e-06,0,0,0.052098,-0.020933,0,-3.1858e-05,0,0,0,0.029028,0.00093872,0.0089899,-0.012497,0.012985,0.025053,5.3538e-07,0.44,0.33,0
0.021313,0.0048821,0.029015,0.00084326,0.0089575,-4.1895e-05,0,0,0.05215,-0.021097,0,-0.00021785,0,0,0,0.029015,0.0008432,0.0089575,-0.085206,0.012939,0.025118,5.3675e-07,0.45,0.33,0
0.021835,0.0049052,0.029001,0.00075341,0.0089264,-7.4827e-05,0,0,0.052195,-0.02125,0,-0.0003891,0,0,0,0.029001,0.00075321,0.0089264,-0.15177,0.012894,0.025177,5.3793e-07,0.46,0.33,0
0.022357,0.0049263,0.028987,0.00066891,0.0088967,-0.00010504,0,0,0.052234,-0.021392,0,-0.00054621,0,0,0,0.028987,0.00066852,0.0088967,-0.21253,0.012851,0.025232,5.3894e-07,0.47,0.33,0
0.022879,0.0049455,0.028971,0.00058954,0.0088682,-0.00013265,0,0,0.052268,-0.021525,0,-0.00068981,0,0,0,0.028972,0.00058892,0.0088682,-0.26779,0.01281,0.025281,5.3978e-07,0.48,0.33,0
0.023402,0.004963,0.028955,0.00051504,0.008841,-0.00015779,0,0,0.052297,-0.021648,0,-0.00082049,0,0,0,0.028956,0.00051417,0.008841,-0.31787,0.01277,0.025327,5.4046e-07,0.49,0.33,0
0.023925,0.0049788,0.028938,0.00044521,0.008815,-0.00018055,0,0,0.05232,-0.021761,0,-0.00093887,0,0,0,0.028939,0.00044407,0.008815,-0.36305,0.012733,0.025368,5.41e-07,0.5,0.33,0
0.024449,0.004993,0.028921,0.00037982,0.0087902,-0.00020106,0,0,0.05234,-0.021867,0,-0.0010455,0,0,0,0.028922,0.0003784,0.0087902,-0.40361,0.012697,0.025405,5.4142e-07,0.51,0.33,0
0.024972,0.0050057,0.028903,0.00031865,0.0087665,-0.00021944,0,0,0.052355,-0.021965,0,-0.0011411,0,0,0,0.028905,0.00031696,0.0087665,-0.43981,0.012663,0.025438,5.4171e-07,0.52,0.33,0
0.025496,0.005017,0.028885,0.00026149,0.008744,-0.00023578,0,0,0.052367,-0.022054,0,-0.001226,0,0,0,0.028887,0.00025955,0.008744,-0.47191,0.01263,0.025468,5.4189e-07,0.53,0.33,0
0.02602,0.0050271,0.028867,0.00020814,0.0087224,-0.00025019,0,0,0.052375,-0.022137,0,-0.001301,0,0,0,0.028869,0.00020596,0.0087224,-0.50015,0.012599,0.025495,5.4197e-07,0.54,0.33,0
0.026543,0.0050359,0.028848,0.00015842,0.008702,-0.00026279,0,0,0.05238,-0.022213,0,-0.0013665,0,0,0,0.028851,0.00015601,0.008702,-0.52475,0.01257,0.025518,5.4197e-07,0.55,0.33,0
0.027067,0.0050436,0.02883,0.00011212,0.0086825,-0.00027366,0,0,0.052382,-0.022283,0,-0.001423,0,0,0,0.028832,0.00010951,0.0086825,-0.54593,0.012541,0.025539,5.4187e-07,0.56,0.33,0
0.027591,0.0050502,0.028811,6.9062e-05,0.008664,-0.00028291,0,0,0.052382,-0.022347,0,-0.0014711,0,0,0,0.028814,6.6278e-05,0.008664,-0.5639,0.012515,0.025557,5.4171e-07,0.57,0.33,0
0.028115,0.0050559,0.028792,2.9079e-05,0.0086464,-0.00029063,0,0,0.052379,-0.022405,0,-0.0015113,0,0,0,0.028795,2.6142e-05,0.0086464,-0.57885,0.012489,0.025573,5.4148e-07,0.58,0.33,0
0.028639,0.0050606,0.028774,-8.0035e-06,0.0086297,-0.0002969,0,0,0.052374,-0.022458,0,-0.0015439,0,0,0,0.028777,-1.1066e-05,0.0086297,-0.59097,0.012465,0.025586,5.4119e-07,0.59,0.33,0
0.029162,0.0050645,0.028755,-4.2347e-05,0.0086138,-0.00030183,0,0,0.052367,-0.022506,0,-0.0015695,0,0,0,0.028758,-4.551e-05,0.0086138,-0.60043,0.012442,0.025597,5.4084e-07,0.6,0.33,0
0.029686,0.0050677,0.028737,-7.4109e-05,0.0085988,-0.00030548,0,0,0.052359,-0.02255,0,-0.0015885,0,0,0,0.02874,-7.7347e-05,0.0085988,-0.60741,0.01242,0.025607,5.4045e-07,0.61,0.33,0
0.030209,0.0050701,0.028719,-0.00010344,0.0085846,-0.00030794,0,0,0.052349,-0.022589,0,-0.0016013,0,0,0,0.028722,-0.00010673,0.0085846,-0.61206,0.0124,0.025614,5.4002e-07,0.62,0.33,0
0.030733,0.0050719,0.028701,-0.00013048,0.0085711,-0.00030928,0,0,0.052337,-0.022624,0,-0.0016082,0,0,0,0.028704,-0.0001338,0.0085711,-0.61452,0.01238,0.02562,5.3956e-07,0.63,0.33,0
0.031256,0.005073,0.028683,-0.00015537,0.0085584,-0.00030957,0,0,0.052325,-0.022656,0,-0.0016098,0,0,0,0.028687,-0.00015869,0.0085584,-0.61495,0.012362,0.025624,5.3906e-07,0.64,0.33,0
0.031779,0.0050737,0.028666,-0.00017824,0.0085463,-0.00030889,0,0,0.052311,-0.022684,0,-0.0016062,0,0,0,0.028669,-0.00018155,0.0085463,-0.61347,0.012345,0.025627,5.3854e-07,0.65,0.33,0
0.032302,0.0050738,0.028649,-0.00019923,0.008535,-0.00030729,0,0,0.052297,-0.022709,0,-0.0015979,0,0,0,0.028652,-0.0002025,0.008535,-0.61022,0.012328,0.025629,5.38e-07,0.66,0.33,0
0.032825,0.0050735,0.028633,-0.00021844,0.0085242,-0.00030484,0,0,0.052282,-0.022731,0,-0.0015852,0,0,0,0.028636,-0.00022166,0.0085242,-0.60531,0.012313,0.025629,5.3745e-07,0.67,0.33,0
0.033348,0.0050728,0.028616,-0.000236,0.0085141,-0.00030161,0,0,0.052266,-0.02275,0,-0.0015684,0,0,0,0.028619,-0.00023915,0.0085141,-0.59885,0.012298,0.025629,5.3688e-07,0.68,0.33,0
0.033871,0.0050717,0.028601,-0.00025201,0.0085046,-0.00029763,0,0,0.05225,-0.022767,0,-0.0015477,0,0,0,0.028604,-0.00025508,0.0085046,-0.59096,0.012284,0.025627,5.363e-07,0.69,0.33,0
0.034393,0.0050704,0.028585,-0.00026659,0.0084956,-0.00029297,0,0,0.052233,-0.022782,0,-0.0015235,0,0,0,0.028588,-0.00026956,0.0084956,-0.58173,0.012271,0.025625,5.3572e-07,0.7,0.33,0
0.034915,0.0050687,0.02857,-0.00027982,0.0084871,-0.00028768,0,0,0.052216,-0.022794,0,-0.0014959,0,0,0,0.028573,-0.00028269,0.0084871,-0.57125,0.012259,0.025622,5.3513e-07,0.71,0.33,0
0.035437,0.0050668,0.028556,-0.00029182,0.0084792,-0.0002818,0,0,0.052199,-0.022805,0,-0.0014654,0,0,0,0.028559,-0.00029457,0.0084792,-0.55962,0.012248,0.025619,5.3455e-07,0.72,0.33,0
0.035959,0.0050647,0.028542,-0.00030265,0.0084718,-0.00027537,0,0,0.052182,-0.022814,0,-0.0014319,0,0,0,0.028545,-0.00030528,0.0084718,-0.54692,0.012237,0.025615,5.3397e-07,0.73,0.33,0
0.036481,0.0050624,0.028528,-0.00031243,0.0084648,-0.00026844,0,0,0.052165,-0.022821,0,-0.0013959,0,0,0,0.028531,-0.00031493,0.0084648,-0.53324,0.012227,0.025611,5.3339e-07,0.74,0.33,0
0.037003,0.00506,0.028515,-0.00032121,0.0084582,-0.00026105,0,0,0.052148,-0.022826,0,-0.0013575,0,0,0,0.028518,-0.00032357,0.0084582,-0.51863,0.012217,0.025606,5.3282e-07,0.75,0.33,0
0.037524,0.0050575,0.028503,-0.00032909,0.0084521,-0.00025323,0,0,0.052132,-0.022831,0,-0.0013168,0,0,0,0.028505,-0.00033131,0.0084521,-0.50318,0.012209,0.025601,5.3226e-07,0.76,0.33,0
0.038045,0.0050549,0.028491,-0.00033613,0.0084464,-0.00024501,0,0,0.052115,-0.022835,0,-0.0012741,0,0,0,0.028493,-0.00033821,0.0084464,-0.48694,0.0122,0.025595,5.3172e-07,0.77,0.33,0
0.038566,0.0050522,0.028479,-0.0003424,0.008441,-0.00023644,0,0,0.052099,-0.022837,0,-0.0012295,0,0,0,0.028481,-0.00034434,0.008441,-0.46998,0.012193,0.02559,5.3118e-07,0.78,0.33,0
0.039087,0.0050495,0.028468,-0.00034797,0.008436,-0.00022753,0,0,0.052083,-0.022838,0,-0.0011832,0,0,0,0.02847,-0.00034977,0.008436,-0.45236,0.012185,0.025584,5.3066e-07,0.79,0.33,0
0.039608,0.0050468,0.028458,-0.0003529,0.0084314,-0.00021832,0,0,0.052068,-0.022839,0,-0.0011352,0,0,0,0.028459,-0.00035456,0.0084314,-0.43413,0.012179,0.025579,5.3016e-07,0.8,0.33,0
0.040128,0.0050441,0.028448,-0.00035725,0.0084271,-0.00020882,0,0,0.052053,-0.022839,0,-0.0010859,0,0,0,0.028449,-0.00035876,0.0084271,-0.41534,0.012172,0.025573,5.2968e-07,0.81,0.33,0
0.040649,0.0050414,0.028438,-0.00036107,0.0084231,-0.00019908,0,0,0.052039,-0.022839,0,-0.0010352,0,0,0,0.028439,-0.00036244,0.0084231,-0.39604,0.012167,0.025567,5.2921e-07,0.82,0.33,0
0.041169,0.0050388,0.028429,-0.00036441,0.0084194,-0.0001891,0,0,0.052025,-0.022838,0,-0.00098333,0,0,0,0.02843,-0.00036565,0.0084194,-0.37627,0.012161,0.025562,5.2877e-07,0.83,0.33,0
0.041689,0.0050362,0.028421,-0.00036732,0.008416,-0.00017892,0,0,0.052012,-0.022837,0,-0.00093036,0,0,0,0.028422,-0.00036843,0.008416,-0.35607,0.012156,0.025556,5.2834e-07,0.84,0.33,0
0.042209,0.0050338,0.028413,-0.00036984,0.0084128,-0.00016854,0,0,0.051999,-0.022835,0,-0.0008764,0,0,0,0.028414,-0.00037083,0.0084128,-0.33548,0.012152,0.025551,5.2794e-07,0.85,0.33,0
0.042729,0.0050314,0.028405,-0.00037202,0.00841,-0.00015799,0,0,0.051988,-0.022833,0,-0.00082154,0,0,0,0.028406,-0.00037288,0.00841,-0.31455,0.012148,0.025546,5.2756e-07,0.86,0.33,0
0.043249,0.0050291,0.028398,-0.00037388,0.0084073,-0.00014728,0,0,0.051977,-0.022831,0,-0.00076588,0,0,0,0.028399,-0.00037464,0.0084073,-0.29329,0.012144,0.025541,5.272e-07,0.87,0.33,0
0.043769,0.0050269,0.028392,-0.00037548,0.0084049,-0.00013644,0,0,0.051966,-0.022829,0,-0.00070949,0,0,0,0.028393,-0.00037612,0.0084049,-0.27174,0.01214,0.025537,5.2687e-07,0.88,0.33,0
0.044289,0.0050249,0.028386,-0.00037683,0.0084028,-0.00012547,0,0,0.051956,-0.022827,0,-0.00065245,0,0,0,0.028386,-0.00037738,0.0084028,-0.24993,0.012137,0.025532,5.2656e-07,0.89,0.33,0
0.044808,0.005023,0.028381,-0.00037797,0.0084008,-0.00011439,0,0,0.051948,-0.022825,0,-0.00059484,0,0,0,0.028381,-0.00037842,0.0084008,-0.2279,0.012134,0.025528,5.2628e-07,0.9,0.33,0
0.045328,0.0050213,0.028376,-0.00037892,0.0083991,-0.00010321,0,0,0.051939,-0.022823,0,-0.00053672,0,0,0,0.028376,-0.00037929,0.0083991,-0.20566,0.012132,0.025525,5.2602e-07,0.91,0.33,0
0.045847,0.0050197,0.028371,-0.00037971,0.0083975,-9.1951e-05,0,0,0.051932,-0.022821,0,-0.00047815,0,0,0,0.028372,-0.00038001,0.0083975,-0.18324,0.01213,0.025521,5.2579e-07,0.92,0.33,0
0.046366,0.0050183,0.028368,-0.00038036,0.0083962,-8.0613e-05,0,0,0.051926,-0.022819,0,-0.00041919,0,0,0,0.028368,-0.00038059,0.0083962,-0.16066,0.012128,0.025518,5.2559e-07,0.93,0.33,0
0.046885,0.0050171,0.028364,-0.00038089,0.008395,-6.9211e-05,0,0,0.05192,-0.022817,0,-0.0003599,0,0,0,0.028365,-0.00038105,0.008395,-0.13795,0.012126,0.025516,5.2541e-07,0.94,0.33,0
0.047405,0.0050161,0.028362,-0.0003813,0.0083941,-5.7756e-05,0,0,0.051915,-0.022816,0,-0.00030033,0,0,0,0.028362,-0.00038142,0.0083941,-0.11513,0.012125,0.025514,5.2526e-07,0.95,0.33,0
0.047924,0.0050152,0.028359,-0.00038163,0.0083933,-4.6257e-05,0,0,0.051911,-0.022815,0,-0.00024053,0,0,0,0.028359,-0.0003817,0.0083933,-0.092214,0.012124,0.025512,5.2514e-07,0.96,0.33,0
0.048443,0.0050145,0.028357,-0.00038187,0.0083927,-3.4722e-05,0,0,0.051908,-0.022814,0,-0.00018056,0,0,0,0.028358,-0.00038191,0.0083927,-0.069224,0.012123,0.02551,5.2504e-07,0.97,0.33,0
0.048962,0.005014,0.028356,-0.00038203,0.0083922,-2.3162e-05,0,0,0.051906,-0.022813,0,-0.00012045,0,0,0,0.028356,-0.00038205,0.0083922,-0.046179,0.012122,0.025509,5.2497e-07,0.98,0.33,0
0.049481,0.0050137,0.028355,-0.00038213,0.008392,-1.1585e-05,0,0,0.051905,-0.022813,0,-6.0244e-05,0,0,0,0.028355,-0.00038214,0.008392,-0.023099,0.012122,0.025508,5.2493e-07,0.99,0.33,0
0.05,0.0050136,0.028355,-0.00038216,0.0083919,-1.8733e-06,0,0,0.051904,-0.022812,0,-9.7411e-06,0,0,0,0.028355,-0.00038216,0.0083919,-0.0037349,0.012122,0.025508,5.2492e-07,1,0.33,0
0,0,0.02664,0.011417,0.011417,0.0037323,0,0,0.03958,2.7105e-20,0,0.019408,0,0,0,0.027506,0.010551,0.011417,13.06,0.016492,0.016539,2.302e-07,0,0.34,0
0.0003958,0.00019408,0.026623,0.011182,0.011341,0.0037219,0,0,0.039732,-0.00041556,0,0.019354,0,0,0,0.027473,0.010331,0.011341,12.869,0.016382,0.01666,2.3455e-07,0.01,0.34,0
0.00079464,0.00038646,0.026706,0.010974,0.011304,0.0036851,0,0,0.040046,-0.0008589,0,0.019163,0,0,0,0.027527,0.010153,0.011304,12.551,0.016328,0.016828,2.4088e-07,0.02,0.34,0
0.0011967,0.00057658,0.026794,0.010751,0.011263,0.0036336,0,0,0.040379,-0.0013327,0,0.018895,0,0,0,0.027578,0.0099663,0.011263,12.185,0.016269,0.017001,2.4742e-07,0.03,0.34,0
0.0016022,0.00076393,0.026886,0.010513,0.01122,0.0035689,0,0,0.040733,-0.0018381,0,0.018558,0,0,0,0.02763,0.0097687,0.01122,11.777,0.016206,0.017182,2.5427e-07,0.04,0.34,0
0.0020114,0.00094805,0.026983,0.010259,0.011173,0.0034926,0,0,0.041107,-0.0023751,0,0.018161,0,0,0,0.027683,0.0095592,0.011173,11.335,0.016138,0.017374,2.6152e-07,0.05,0.34,0
0.0024244,0.0011285,0.027085,0.0099912,0.011123,0.0034064,0,0,0.041501,-0.002942,0,0.017714,0,0,0,0.027738,0.0093374,0.011123,10.865,0.016066,0.017576,2.6921e-07,0.06,0.34,0
0.0028414,0.0013051,0.02719,0.0097098,0.01107,0.0033121,0,0,0.041912,-0.0035363,0,0.017223,0,0,0,0.027796,0.0091032,0.01107,10.377,0.01599,0.017791,2.7736e-07,0.07,0.34,0
0.0032626,0.0014774,0.027298,0.0094164,0.011014,0.003211,0,0,0.042337,-0.0041545,0,0.016697,0,0,0,0.027857,0.0088573,0.011014,9.8778,0.01591,0.018018,2.8598e-07,0.08,0.34,0
0.0036881,0.0016452,0.027408,0.0091129,0.010956,0.0031046,0,0,0.042775,-0.0047927,0,0.016144,0,0,0,0.027921,0.0086005,0.010956,9.3734,0.015826,0.018256,2.9505e-07,0.09,0.34,0
0.0041181,0.0018083,0.027519,0.0088014,0.010896,0.002994,0,0,0.04322,-0.0054465,0,0.015569,0,0,0,0.027986,0.0083341,0.010896,8.87,0.015739,0.018505,3.0451e-07,0.1,0.34,0
0.0045525,0.0019667,0.02763,0.0084836,0.010834,0.0028802,0,0,0.04367,-0.0061114,0,0.014977,0,0,0,0.028054,0.0080597,0.010834,8.3721,0.015649,0.018762,3.1433e-07,0.11,0.34,0
0.0049915,0.0021202,0.027741,0.0081617,0.010771,0.0027641,0,0,0.044122,-0.0067833,0,0.014373,0,0,0,0.028123,0.0077789,0.010771,7.8837,0.015558,0.019026,3.2442e-07,0.12,0.34,0
0.005435,0.0022687,0.027849,0.0078374,0.010706,0.0026464,0,0,0.044572,-0.0074579,0,0.013761,0,0,0,0.028193,0.0074934,0.010706,7.4074,0.015464,0.019295,3.3472e-07,0.13,0.34,0
0.0058829,0.0024121,0.027955,0.0075126,0.01064,0.0025277,0,0,0.045017,-0.0081315,0,0.013144,0,0,0,0.028262,0.0072047,0.01064,6.9455,0.015369,0.019568,3.4515e-07,0.14,0.34,0
0.0063353,0.0025505,0.028057,0.0071888,0.010574,0.0024087,0,0,0.045456,-0.0088007,0,0.012525,0,0,0,0.028331,0.0069144,0.010574,6.4995,0.015273,0.019842,3.5565e-07,0.15,0.34,0
0.006792,0.0026838,0.028155,0.0068675,0.010507,0.0022897,0,0,0.045886,-0.0094623,0,0.011907,0,0,0,0.028399,0.006624,0.010507,6.0703,0.015177,0.020116,3.6614e-07,0.16,0.34,0
0.007253,0.002812,0.028249,0.0065499,0.01044,0.0021713,0,0,0.046305,-0.010114,0,0.011291,0,0,0,0.028464,0.0063348,0.01044,5.6585,0.01508,0.020389,3.7656e-07,0.17,0.34,0
0.0077182,0.0029352,0.028338,0.0062372,0.010373,0.0020539,0,0,0.046711,-0.010752,0,0.01068,0,0,0,0.028528,0.006048,0.010373,5.2645,0.014983,0.02066,3.8684e-07,0.18,0.34,0
0.0081873,0.0030533,0.028423,0.0059303,0.010306,0.0019378,0,0,0.047104,-0.011376,0,0.010076,0,0,0,0.028588,0.0057646,0.010306,4.8882,0.014886,0.020926,3.9694e-07,0.19,0.34,0
0.0086602,0.0031665,0.028501,0.0056301,0.01024,0.0018233,0,0,0.047481,-0.011985,0,0.0094812,0,0,0,0.028646,0.0054856,0.01024,4.5295,0.01479,0.021187,4.068e-07,0.2,0.34,0
0.0091369,0.0032748,0.028575,0.0053371,0.010174,0.0017108,0,0,0.047844,-0.012575,0,0.0088964,0,0,0,0.0287,0.0052118,0.010174,4.1882,0.014695,0.021443,4.1639e-07,0.21,0.34,0
0.0096171,0.0033782,0.028643,0.0050521,0.010109,0.0016006,0,0,0.04819,-0.013147,0,0.0083233,0,0,0,0.028751,0.004944,0.010109,3.8639,0.014601,0.021691,4.2567e-07,0.22,0.34,0
0.010101,0.0034768,0.028706,0.0047754,0.010044,0.0014929,0,0,0.04852,-0.013699,0,0.0077633,0,0,0,0.028799,0.0046826,0.010044,3.5561,0.014509,0.021932,4.3461e-07,0.23,0.34,0
0.010587,0.0035708,0.028763,0.0045074,0.0099811,0.001388,0,0,0.048833,-0.014232,0,0.0072176,0,0,0,0.028842,0.0044282,0.0099811,3.2645,0.014417,0.022166,4.432e-07,0.24,0.34,0
0.011077,0.0036601,0.028815,0.0042483,0.009919,0.001286,0,0,0.04913,-0.014744,0,0.0066873,0,0,0,0.028882,0.0041811,0.009919,2.9884,0.014327,0.022391,4.514e-07,0.25,0.34,0
0.01157,0.003745,0.028862,0.0039983,0.0098581,0.0011872,0,0,0.04941,-0.015235,0,0.0061733,0,0,0,0.028918,0.0039417,0.0098581,2.7274,0.014239,0.022607,4.5921e-07,0.26,0.34,0
0.012065,0.0038256,0.028904,0.0037575,0.0097984,0.0010916,0,0,0.049674,-0.015706,0,0.0056763,0,0,0,0.028951,0.0037102,0.0097984,2.481,0.014153,0.022814,4.6661e-07,0.27,0.34,0
0.012564,0.0039018,0.028941,0.003526,0.0097401,0.00099942,0,0,0.049922,-0.016157,0,0.005197,0,0,0,0.02898,0.0034867,0.0097401,2.2485,0.014069,0.023013,4.7362e-07,0.28,0.34,0
0.013064,0.003974,0.028973,0.0033037,0.0096831,0.00091075,0,0,0.050155,-0.016587,0,0.0047359,0,0,0,0.029006,0.0032714,0.0096831,2.0294,0.013987,0.023203,4.8021e-07,0.29,0.34,0
0.013567,0.0040421,0.029001,0.0030906,0.0096276,0.00082565,0,0,0.050372,-0.016996,0,0.0042934,0,0,0,0.029028,0.0030643,0.0096276,1.8233,0.013907,0.023383,4.8641e-07,0.3,0.34,0
0.014071,0.0041063,0.029025,0.0028866,0.0095736,0.00074417,0,0,0.050575,-0.017386,0,0.0038697,0,0,0,0.029046,0.0028654,0.0095736,1.6295,0.013829,0.023555,4.922e-07,0.31,0.34,0
0.014578,0.0041668,0.029045,0.0026916,0.009521,0.00066634,0,0,0.050763,-0.017757,0,0.003465,0,0,0,0.029062,0.0026747,0.009521,1.4475,0.013753,0.023717,4.976e-07,0.32,0.34,0
0.015087,0.0042237,0.029062,0.0025053,0.0094701,0.00059218,0,0,0.050938,-0.018108,0,0.0030793,0,0,0,0.029075,0.0024921,0.0094701,1.2768,0.013679,0.023871,5.0262e-07,0.33,0.34,0
0.015597,0.0042771,0.029074,0.0023277,0.0094206,0.00052166,0,0,0.0511,-0.018442,0,0.0027126,0,0,0,0.029084,0.0023175,0.0094206,1.1169,0.013607,0.024017,5.0727e-07,0.34,0.34,0
0.016109,0.0043271,0.029084,0.0021584,0.0093727,0.00045477,0,0,0.051249,-0.018757,0,0.0023648,0,0,0,0.029091,0.0021507,0.0093727,0.96736,0.013538,0.024154,5.1155e-07,0.35,0.34,0
0.016622,0.0043739,0.02909,0.0019974,0.0093263,0.00039147,0,0,0.051386,-0.019055,0,0.0020356,0,0,0,0.029096,0.0019918,0.0093263,0.82764,0.013471,0.024282,5.1549e-07,0.36,0.34,0
0.017136,0.0044176,0.029094,0.0018443,0.0092815,0.00033169,0,0,0.051512,-0.019337,0,0.0017248,0,0,0,0.029098,0.0018403,0.0092815,0.69728,0.013407,0.024403,5.191e-07,0.37,0.34,0
0.017652,0.0044584,0.029095,0.001699,0.0092382,0.00027538,0,0,0.051628,-0.019602,0,0.001432,0,0,0,0.029098,0.0016962,0.0092382,0.57585,0.013344,0.024517,5.2239e-07,0.38,0.34,0
0.018169,0.0044963,0.029094,0.0015612,0.0091964,0.00022246,0,0,0.051733,-0.019852,0,0.0011568,0,0,0,0.029095,0.0015593,0.0091964,0.4629,0.013284,0.024622,5.2537e-07,0.39,0.34,0
0.018687,0.0045315,0.02909,0.0014305,0.0091562,0.00017285,0,0,0.051828,-0.020087,0,0.00089879,0,0,0,0.029091,0.0014294,0.0091562,0.35802,0.013226,0.024721,5.2807e-07,0.4,0.34,0
0.019206,0.0045642,0.029084,0.0013069,0.0091174,0.00012645,0,0,0.051915,-0.020307,0,0.00065752,0,0,0,0.029085,0.0013063,0.0091174,0.26081,0.01317,0.024813,5.3049e-07,0.41,0.34,0
0.019725,0.0045944,0.029077,0.0011899,0.0090801,8.3165e-05,0,0,0.051992,-0.020514,0,0.00043246,0,0,0,0.029077,0.0011897,0.0090801,0.17086,0.013116,0.024899,5.3265e-07,0.42,0.34,0
0.020245,0.0046222,0.029068,0.0010795,0.0090443,4.2901e-05,0,0,0.052062,-0.020708,0,0.00022308,0,0,0,0.029068,0.0010794,0.0090443,0.087822,0.013064,0.024978,5.3457e-07,0.43,0.34,0
0.020766,0.0046478,0.029057,0.00097525,0.0090098,5.5488e-06,0,0,0.052124,-0.02089,0,2.8854e-05,0,0,0,0.029057,0.00097525,0.0090098,0.011321,0.013014,0.025051,5.3626e-07,0.44,0.34,0
0.021288,0.0046714,0.029045,0.00087697,0.0089767,-2.8998e-05,0,0,0.052179,-0.021059,0,-0.00015079,0,0,0,0.029045,0.00087694,0.0089767,-0.058983,0.012966,0.025118,5.3773e-07,0.45,0.34,0
0.02181,0.0046929,0.029032,0.0007844,0.008945,-6.0849e-05,0,0,0.052227,-0.021218,0,-0.00031641,0,0,0,0.029032,0.00078427,0.008945,-0.12342,0.012921,0.02518,5.39e-07,0.46,0.34,0
0.022332,0.0047125,0.029018,0.00069732,0.0089146,-9.0113e-05,0,0,0.052269,-0.021365,0,-0.00046859,0,0,0,0.029018,0.00069703,0.0089146,-0.1823,0.012877,0.025237,5.4009e-07,0.47,0.34,0
0.022855,0.0047304,0.029003,0.00061546,0.0088855,-0.0001169,0,0,0.052305,-0.021502,0,-0.00060789,0,0,0,0.029004,0.00061498,0.0088855,-0.23594,0.012835,0.025289,5.41e-07,0.48,0.34,0
0.023378,0.0047466,0.028987,0.0005386,0.0088577,-0.00014132,0,0,0.052336,-0.02163,0,-0.00073488,0,0,0,0.028988,0.0005379,0.0088577,-0.28462,0.012795,0.025336,5.4175e-07,0.49,0.34,0
0.023902,0.0047612,0.02897,0.00046651,0.0088311,-0.00016348,0,0,0.052362,-0.021748,0,-0.00085012,0,0,0,0.028971,0.00046558,0.0088311,-0.32861,0.012756,0.025379,5.4236e-07,0.5,0.34,0
0.024426,0.0047743,0.028953,0.00039897,0.0088056,-0.0001835,0,0,0.052384,-0.021857,0,-0.00095418,0,0,0,0.028954,0.00039779,0.0088056,-0.36817,0.012719,0.025418,5.4282e-07,0.51,0.34,0
0.02495,0.0047861,0.028935,0.00033576,0.0087814,-0.00020146,0,0,0.052401,-0.021959,0,-0.0010476,0,0,0,0.028937,0.00033434,0.0087814,-0.40357,0.012684,0.025453,5.4316e-07,0.52,0.34,0
0.025474,0.0047965,0.028917,0.00027667,0.0087582,-0.00021748,0,0,0.052414,-0.022052,0,-0.0011309,0,0,0,0.028919,0.00027502,0.0087582,-0.43504,0.012651,0.025484,5.4338e-07,0.53,0.34,0
0.025998,0.0048057,0.028899,0.0002215,0.0087361,-0.00023165,0,0,0.052423,-0.022138,0,-0.0012046,0,0,0,0.028901,0.00021963,0.0087361,-0.46279,0.012619,0.025512,5.435e-07,0.54,0.34,0
0.026522,0.0048137,0.02888,0.00017003,0.0087151,-0.00024409,0,0,0.052429,-0.022217,0,-0.0012692,0,0,0,0.028882,0.00016796,0.0087151,-0.48706,0.012589,0.025537,5.4351e-07,0.55,0.34,0
0.027047,0.0048207,0.028861,0.0001221,0.0086951,-0.00025486,0,0,0.052432,-0.02229,0,-0.0013253,0,0,0,0.028864,0.00011984,0.0086951,-0.50805,0.012559,0.025559,5.4345e-07,0.56,0.34,0
0.027571,0.0048267,0.028843,7.75e-05,0.008676,-0.00026408,0,0,0.052433,-0.022356,0,-0.0013732,0,0,0,0.028845,7.5076e-05,0.008676,-0.52595,0.012532,0.025578,5.433e-07,0.57,0.34,0
0.028095,0.0048318,0.028824,3.6061e-05,0.0086579,-0.00027183,0,0,0.052431,-0.022417,0,-0.0014135,0,0,0,0.028826,3.3495e-05,0.0086579,-0.54095,0.012506,0.025594,5.4308e-07,0.58,0.34,0
0.028619,0.004836,0.028805,-2.3904e-06,0.0086407,-0.00027818,0,0,0.052426,-0.022472,0,-0.0014466,0,0,0,0.028807,-5.0765e-06,0.0086407,-0.55322,0.012481,0.025609,5.428e-07,0.59,0.34,0
0.029144,0.0048394,0.028786,-3.8022e-05,0.0086243,-0.00028324,0,0,0.05242,-0.022522,0,-0.0014728,0,0,0,0.028789,-4.0804e-05,0.0086243,-0.56294,0.012457,0.025621,5.4246e-07,0.6,0.34,0
0.029668,0.0048421,0.028767,-7.0992e-05,0.0086088,-0.00028706,0,0,0.052412,-0.022568,0,-0.0014927,0,0,0,0.02877,-7.3849e-05,0.0086088,-0.57026,0.012435,0.02563,5.4208e-07,0.61,0.34,0
0.030192,0.0048441,0.028749,-0.00010145,0.0085942,-0.00028974,0,0,0.052402,-0.022609,0,-0.0015066,0,0,0,0.028752,-0.00010436,0.0085942,-0.57533,0.012414,0.025638,5.4164e-07,0.62,0.34,0
0.030716,0.0048455,0.02873,-0.00012956,0.0085802,-0.00029133,0,0,0.05239,-0.022645,0,-0.0015149,0,0,0,0.028733,-0.0001325,0.0085802,-0.5783,0.012394,0.025645,5.4117e-07,0.63,0.34,0
0.03124,0.0048464,0.028712,-0.00015544,0.0085671,-0.00029191,0,0,0.052378,-0.022679,0,-0.0015179,0,0,0,0.028715,-0.00015839,0.0085671,-0.57929,0.012375,0.025649,5.4067e-07,0.64,0.34,0
0.031764,0.0048467,0.028695,-0.00017924,0.0085546,-0.00029155,0,0,0.052364,-0.022708,0,-0.001516,0,0,0,0.028698,-0.00018219,0.0085546,-0.57845,0.012357,0.025653,5.4015e-07,0.65,0.34,0
0.032287,0.0048466,0.028677,-0.00020109,0.0085428,-0.0002903,0,0,0.052349,-0.022734,0,-0.0015095,0,0,0,0.02868,-0.00020401,0.0085428,-0.57588,0.01234,0.025655,5.396e-07,0.66,0.34,0
0.03281,0.0048461,0.02866,-0.00022111,0.0085317,-0.00028822,0,0,0.052334,-0.022757,0,-0.0014988,0,0,0,0.028663,-0.00022399,0.0085317,-0.57171,0.012324,0.025655,5.3903e-07,0.67,0.34,0
0.033334,0.0048452,0.028643,-0.00023943,0.0085212,-0.00028538,0,0,0.052318,-0.022778,0,-0.001484,0,0,0,0.028646,-0.00024224,0.0085212,-0.56603,0.012308,0.025655,5.3845e-07,0.68,0.34,0
0.033857,0.0048439,0.028627,-0.00025614,0.0085113,-0.00028182,0,0,0.052301,-0.022795,0,-0.0014654,0,0,0,0.02863,-0.00025889,0.0085113,-0.55897,0.012294,0.025654,5.3785e-07,0.69,0.34,0
0.03438,0.0048424,0.028611,-0.00027136,0.008502,-0.00027759,0,0,0.052284,-0.022811,0,-0.0014435,0,0,0,0.028614,-0.00027403,0.008502,-0.55059,0.012281,0.025652,5.3725e-07,0.7,0.34,0
0.034903,0.0048406,0.028596,-0.0002852,0.0084932,-0.00027274,0,0,0.052267,-0.022824,0,-0.0014183,0,0,0,0.028598,-0.00028778,0.0084932,-0.54101,0.012268,0.025649,5.3665e-07,0.71,0.34,0
0.035425,0.0048386,0.028581,-0.00029775,0.008485,-0.00026732,0,0,0.05225,-0.022835,0,-0.0013901,0,0,0,0.028584,-0.00030022,0.008485,-0.53031,0.012256,0.025646,5.3605e-07,0.72,0.34,0
0.035948,0.0048364,0.028567,-0.00030911,0.0084772,-0.00026137,0,0,0.052232,-0.022845,0,-0.0013591,0,0,0,0.028569,-0.00031147,0.0084772,-0.51855,0.012245,0.025642,5.3545e-07,0.73,0.34,0
0.03647,0.0048341,0.028553,-0.00031935,0.0084699,-0.00025492,0,0,0.052215,-0.022852,0,-0.0013256,0,0,0,0.028555,-0.0003216,0.0084699,-0.50583,0.012234,0.025637,5.3486e-07,0.74,0.34,0
0.036992,0.0048316,0.028539,-0.00032858,0.0084631,-0.00024802,0,0,0.052197,-0.022858,0,-0.0012897,0,0,0,0.028541,-0.00033071,0.0084631,-0.49221,0.012224,0.025632,5.3427e-07,0.75,0.34,0
0.037514,0.004829,0.028526,-0.00033686,0.0084567,-0.0002407,0,0,0.05218,-0.022863,0,-0.0012516,0,0,0,0.028528,-0.00033887,0.0084567,-0.47776,0.012215,0.025627,5.3369e-07,0.76,0.34,0
0.038035,0.0048264,0.028513,-0.00034428,0.0084507,-0.00023299,0,0,0.052163,-0.022867,0,-0.0012115,0,0,0,0.028515,-0.00034616,0.0084507,-0.46254,0.012207,0.025622,5.3313e-07,0.77,0.34,0
0.038557,0.0048237,0.028501,-0.00035089,0.0084452,-0.00022492,0,0,0.052146,-0.02287,0,-0.0011696,0,0,0,0.028503,-0.00035265,0.0084452,-0.44662,0.012199,0.025616,5.3258e-07,0.78,0.34,0
0.039078,0.004821,0.02849,-0.00035678,0.0084399,-0.00021653,0,0,0.05213,-0.022871,0,-0.0011259,0,0,0,0.028492,-0.0003584,0.0084399,-0.43004,0.012191,0.025611,5.3204e-07,0.79,0.34,0
0.0396,0.0048183,0.028479,-0.000362,0.0084351,-0.00020783,0,0,0.052114,-0.022872,0,-0.0010807,0,0,0,0.02848,-0.00036349,0.0084351,-0.41285,0.012184,0.025605,5.3152e-07,0.8,0.34,0
0.040121,0.0048156,0.028469,-0.00036661,0.0084306,-0.00019886,0,0,0.052099,-0.022873,0,-0.0010341,0,0,0,0.02847,-0.00036798,0.0084306,-0.39512,0.012178,0.025599,5.3102e-07,0.81,0.34,0
0.040641,0.0048129,0.028459,-0.00037067,0.0084264,-0.00018964,0,0,0.052084,-0.022872,0,-0.00098614,0,0,0,0.02846,-0.00037192,0.0084264,-0.37688,0.012172,0.025593,5.3053e-07,0.82,0.34,0
0.041162,0.0048103,0.028449,-0.00037423,0.0084225,-0.00018019,0,0,0.05207,-0.022871,0,-0.00093699,0,0,0,0.02845,-0.00037536,0.0084225,-0.35817,0.012166,0.025587,5.3007e-07,0.83,0.34,0
0.041683,0.0048077,0.02844,-0.00037734,0.0084189,-0.00017053,0,0,0.052056,-0.02287,0,-0.00088676,0,0,0,0.028442,-0.00037835,0.0084189,-0.33903,0.012161,0.025582,5.2963e-07,0.84,0.34,0
0.042203,0.0048052,0.028432,-0.00038004,0.0084156,-0.00016068,0,0,0.052043,-0.022869,0,-0.00083554,0,0,0,0.028433,-0.00038094,0.0084156,-0.31951,0.012156,0.025577,5.2921e-07,0.85,0.34,0
0.042724,0.0048029,0.028424,-0.00038238,0.0084126,-0.00015066,0,0,0.052031,-0.022867,0,-0.00078342,0,0,0,0.028425,-0.00038317,0.0084126,-0.29964,0.012152,0.025571,5.2882e-07,0.86,0.34,0
0.043244,0.0048006,0.028417,-0.00038439,0.0084098,-0.00014048,0,0,0.052019,-0.022865,0,-0.0007305,0,0,0,0.028418,-0.00038508,0.0084098,-0.27945,0.012148,0.025566,5.2845e-07,0.87,0.34,0
0.043764,0.0047985,0.028411,-0.00038612,0.0084073,-0.00013016,0,0,0.052008,-0.022863,0,-0.00067685,0,0,0,0.028411,-0.00038671,0.0084073,-0.25898,0.012144,0.025562,5.281e-07,0.88,0.34,0
0.044284,0.0047965,0.028404,-0.00038759,0.008405,-0.00011972,0,0,0.051998,-0.022861,0,-0.00062255,0,0,0,0.028405,-0.00038808,0.008405,-0.23824,0.012141,0.025557,5.2778e-07,0.89,0.34,0
0.044804,0.0047946,0.028399,-0.00038883,0.008403,-0.00010917,0,0,0.051989,-0.022859,0,-0.00056767,0,0,0,0.028399,-0.00038924,0.008403,-0.21727,0.012138,0.025553,5.2749e-07,0.9,0.34,0
0.045324,0.0047929,0.028394,-0.00038988,0.0084011,-9.8515e-05,0,0,0.05198,-0.022857,0,-0.00051228,0,0,0,0.028394,-0.00039021,0.0084011,-0.1961,0.012135,0.025549,5.2722e-07,0.91,0.34,0
0.045844,0.0047914,0.028389,-0.00039075,0.0083995,-8.7776e-05,0,0,0.051973,-0.022855,0,-0.00045644,0,0,0,0.028389,-0.00039101,0.0083995,-0.17475,0.012133,0.025546,5.2698e-07,0.92,0.34,0
0.046363,0.00479,0.028385,-0.00039146,0.0083981,-7.6962e-05,0,0,0.051966,-0.022853,0,-0.0004002,0,0,0,0.028385,-0.00039167,0.0083981,-0.15323,0.012131,0.025543,5.2677e-07,0.93,0.34,0
0.046883,0.0047888,0.028382,-0.00039205,0.0083969,-6.6083e-05,0,0,0.05196,-0.022851,0,-0.00034363,0,0,0,0.028382,-0.0003922,0.0083969,-0.13159,0.012129,0.02554,5.2658e-07,0.94,0.34,0
0.047403,0.0047877,0.028379,-0.00039252,0.0083959,-5.515e-05,0,0,0.051955,-0.02285,0,-0.00028678,0,0,0,0.028379,-0.00039262,0.0083959,-0.10983,0.012127,0.025538,5.2643e-07,0.95,0.34,0
0.047922,0.0047869,0.028376,-0.00039288,0.008395,-4.4173e-05,0,0,0.051951,-0.022849,0,-0.0002297,0,0,0,0.028376,-0.00039295,0.008395,-0.087973,0.012126,0.025536,5.263e-07,0.96,0.34,0
0.048442,0.0047862,0.028374,-0.00039315,0.0083944,-3.316e-05,0,0,0.051948,-0.022848,0,-0.00017243,0,0,0,0.028375,-0.00039319,0.0083944,-0.066044,0.012125,0.025534,5.262e-07,0.97,0.34,0
0.048961,0.0047857,0.028373,-0.00039334,0.0083939,-2.2121e-05,0,0,0.051946,-0.022847,0,-0.00011503,0,0,0,0.028373,-0.00039335,0.0083939,-0.04406,0.012125,0.025533,5.2612e-07,0.98,0.34,0
0.049481,0.0047855,0.028372,-0.00039345,0.0083937,-1.1065e-05,0,0,0.051944,-0.022846,0,-5.7537e-05,0,0,0,0.028372,-0.00039345,0.0083937,-0.022039,0.012124,0.025533,5.2608e-07,0.99,0.34,0
0.05,0.0047853,0.028372,-0.00039348,0.0083936,-1.8461e-06,0,0,0.051944,-0.022846,0,-9.5997e-06,0,0,0,0.028372,-0.00039348,0.0083936,-0.0036771,0.012124,0.025532,5.2607e-07,1,0.34,0
0,0,0.026664,0.011428,0.011428,0.0036558,0,0,0.039615,-5.0144e-19,0,0.01901,0,0,0,0.027496,0.010596,0.011428,12.817,0.016506,0.0165,2.2874e-07,0,0.35,0
0.00039615,0.0001901,0.026649,0.011213,0.011359,0.0036444,0,0,0.039755,-0.00037867,0,0.018951,0,0,0,0.027466,0.010396,0.011359,12.638,0.016407,0.01661,2.3269e-07,0.01,0.35,0
0.0007951,0.00037822,0.026726,0.011021,0.011324,0.0036031,0,0,0.040044,-0.00078786,0,0.018736,0,0,0,0.027513,0.010234,0.011324,12.324,0.016357,0.016761,2.3837e-07,0.02,0.35,0
0.001197,0.00056375,0.026808,0.010813,0.011286,0.0035465,0,0,0.040356,-0.001231,0,0.018442,0,0,0,0.027559,0.010061,0.011286,11.957,0.016302,0.016918,2.4431e-07,0.03,0.35,0
0.0016022,0.00074618,0.026895,0.010587,0.011244,0.0034764,0,0,0.040691,-0.00171,0,0.018077,0,0,0,0.027605,0.0098767,0.011244,11.545,0.016242,0.017085,2.5063e-07,0.04,0.35,0
0.0020109,0.00092504,0.026988,0.010344,0.011199,0.0033949,0,0,0.041049,-0.0022245,0,0.017654,0,0,0,0.027654,0.009678,0.011199,11.097,0.016177,0.017265,2.5741e-07,0.05,0.35,0
0.0024232,0.0010999,0.027086,0.010084,0.011151,0.0033042,0,0,0.04143,-0.0027731,0,0.017182,0,0,0,0.027705,0.0094648,0.011151,10.621,0.016107,0.017458,2.6472e-07,0.06,0.35,0
0.0028395,0.0012706,0.027188,0.0098099,0.011099,0.003206,0,0,0.041831,-0.0033528,0,0.016671,0,0,0,0.027761,0.0092373,0.011099,10.126,0.016033,0.017666,2.7259e-07,0.07,0.35,0
0.0032598,0.0014368,0.027294,0.0095219,0.011045,0.0031021,0,0,0.042248,-0.0039596,0,0.016131,0,0,0,0.02782,0.008996,0.011045,9.622,0.015954,0.017888,2.8101e-07,0.08,0.35,0
0.0036844,0.0015983,0.027403,0.0092226,0.010988,0.002994,0,0,0.04268,-0.0045891,0,0.015569,0,0,0,0.027883,0.0087422,0.010988,9.115,0.015871,0.018123,2.8995e-07,0.09,0.35,0
0.0041134,0.0017549,0.027513,0.0089141,0.010928,0.0028827,0,0,0.043121,-0.0052365,0,0.01499,0,0,0,0.027949,0.0084775,0.010928,8.6113,0.015785,0.01837,2.9935e-07,0.1,0.35,0
0.0045468,0.0019067,0.027623,0.0085985,0.010867,0.0027692,0,0,0.043568,-0.005897,0,0.0144,0,0,0,0.028018,0.0082036,0.010867,8.1156,0.015696,0.018627,3.0916e-07,0.11,0.35,0
0.0049848,0.0020535,0.027733,0.008278,0.010803,0.0026545,0,0,0.044018,-0.0065659,0,0.013803,0,0,0,0.028089,0.0079223,0.010803,7.6316,0.015605,0.018891,3.193e-07,0.12,0.35,0
0.0054272,0.0021952,0.027841,0.0079546,0.010739,0.002539,0,0,0.044467,-0.0072389,0,0.013203,0,0,0,0.02816,0.0076355,0.010739,7.1619,0.015512,0.019163,3.2968e-07,0.13,0.35,0
0.0058741,0.0023319,0.027947,0.0076301,0.010673,0.0024233,0,0,0.044912,-0.0079121,0,0.012601,0,0,0,0.028232,0.007345,0.010673,6.7085,0.015417,0.019438,3.4023e-07,0.14,0.35,0
0.0063254,0.0024636,0.02805,0.0073061,0.010607,0.0023079,0,0,0.045352,-0.0085817,0,0.012001,0,0,0,0.028303,0.0070524,0.010607,6.2723,0.015321,0.019716,3.5086e-07,0.15,0.35,0
0.0067811,0.0025903,0.028148,0.0069842,0.01054,0.0021931,0,0,0.045783,-0.0092446,0,0.011404,0,0,0,0.028373,0.0067593,0.01054,5.8541,0.015224,0.019994,3.6152e-07,0.16,0.35,0
0.0072411,0.002712,0.028243,0.0066656,0.010473,0.0020792,0,0,0.046203,-0.0098981,0,0.010812,0,0,0,0.028442,0.0064671,0.010473,5.4543,0.015127,0.020271,3.7211e-07,0.17,0.35,0
0.0077052,0.0028288,0.028333,0.0063516,0.010405,0.0019667,0,0,0.046612,-0.01054,0,0.010227,0,0,0,0.028508,0.006177,0.010405,5.0727,0.01503,0.020545,3.8259e-07,0.18,0.35,0
0.0081733,0.0029406,0.028418,0.0060431,0.010338,0.0018557,0,0,0.047007,-0.011168,0,0.0096498,0,0,0,0.028571,0.0058903,0.010338,4.7092,0.014933,0.020816,3.9289e-07,0.19,0.35,0
0.0086453,0.0030477,0.028498,0.005741,0.010272,0.0017466,0,0,0.047388,-0.01178,0,0.0090822,0,0,0,0.028631,0.0056077,0.010272,4.3634,0.014837,0.021082,4.0297e-07,0.2,0.35,0
0.0091211,0.00315,0.028573,0.0054459,0.010205,0.0016395,0,0,0.047754,-0.012375,0,0.0085254,0,0,0,0.028688,0.0053302,0.010205,4.0349,0.014741,0.021342,4.1279e-07,0.21,0.35,0
0.0096004,0.0032477,0.028642,0.0051585,0.01014,0.0015347,0,0,0.048104,-0.012952,0,0.0079804,0,0,0,0.028742,0.0050586,0.01014,3.7233,0.014647,0.021595,4.2229e-07,0.22,0.35,0
0.010083,0.0033408,0.028706,0.0048791,0.010075,0.0014324,0,0,0.048439,-0.01351,0,0.0074484,0,0,0,0.028792,0.0047933,0.010075,3.428,0.014553,0.021841,4.3147e-07,0.23,0.35,0
0.010569,0.0034294,0.028764,0.0046083,0.010012,0.0013328,0,0,0.048757,-0.014049,0,0.0069303,0,0,0,0.028838,0.004535,0.010012,3.1484,0.014462,0.02208,4.4028e-07,0.24,0.35,0
0.011058,0.0035136,0.028818,0.0043462,0.0099492,0.001236,0,0,0.049058,-0.014568,0,0.0064271,0,0,0,0.02888,0.0042839,0.0099492,2.884,0.014371,0.02231,4.4872e-07,0.25,0.35,0
0.01155,0.0035936,0.028866,0.0040931,0.0098878,0.0011422,0,0,0.049344,-0.015066,0,0.0059393,0,0,0,0.028919,0.0040405,0.0098878,2.6342,0.014282,0.022531,4.5676e-07,0.26,0.35,0
0.012045,0.0036693,0.02891,0.003849,0.0098276,0.0010515,0,0,0.049613,-0.015544,0,0.0054677,0,0,0,0.028954,0.003805,0.0098276,2.3984,0.014195,0.022744,4.644e-07,0.27,0.35,0
0.012543,0.0037411,0.028948,0.0036141,0.0097687,0.00096401,0,0,0.049867,-0.016002,0,0.0050129,0,0,0,0.028985,0.0035775,0.0097687,2.176,0.01411,0.022947,4.7164e-07,0.28,0.35,0
0.013043,0.0038089,0.028982,0.0033884,0.0097112,0.00087984,0,0,0.050105,-0.016439,0,0.0045752,0,0,0,0.029013,0.0033582,0.0097112,1.9666,0.014027,0.023141,4.7846e-07,0.29,0.35,0
0.013545,0.0038729,0.029012,0.0031718,0.0096551,0.00079903,0,0,0.050328,-0.016857,0,0.0041549,0,0,0,0.029037,0.0031471,0.0096551,1.7694,0.013946,0.023327,4.8487e-07,0.3,0.35,0
0.014049,0.0039332,0.029038,0.0029643,0.0096005,0.00072162,0,0,0.050536,-0.017254,0,0.0037524,0,0,0,0.029057,0.0029443,0.0096005,1.5841,0.013867,0.023503,4.9088e-07,0.31,0.35,0
0.014555,0.0039899,0.029059,0.0027657,0.0095474,0.00064764,0,0,0.05073,-0.017632,0,0.0033677,0,0,0,0.029075,0.0027497,0.0095474,1.4101,0.013791,0.02367,4.9649e-07,0.32,0.35,0
0.015064,0.0040432,0.029077,0.0025759,0.0094958,0.0005771,0,0,0.05091,-0.017992,0,0.0030009,0,0,0,0.029089,0.0025633,0.0094958,1.2469,0.013716,0.023828,5.0171e-07,0.33,0.35,0
0.015574,0.0040932,0.029091,0.0023947,0.0094457,0.00050998,0,0,0.051078,-0.018333,0,0.0026519,0,0,0,0.029101,0.0023849,0.0094457,1.094,0.013644,0.023978,5.0655e-07,0.34,0.35,0
0.016085,0.0041401,0.029102,0.002222,0.0093971,0.00044627,0,0,0.051232,-0.018655,0,0.0023206,0,0,0,0.029109,0.0022146,0.0093971,0.95089,0.013574,0.024119,5.1103e-07,0.35,0.35,0
0.016598,0.0041839,0.029109,0.0020575,0.0093501,0.00038592,0,0,0.051374,-0.018961,0,0.0020068,0,0,0,0.029115,0.002052,0.0093501,0.81715,0.013506,0.024252,5.1514e-07,0.36,0.35,0
0.017113,0.0042247,0.029114,0.001901,0.0093046,0.00032889,0,0,0.051505,-0.019249,0,0.0017102,0,0,0,0.029118,0.001897,0.0093046,0.69232,0.01344,0.024377,5.1891e-07,0.37,0.35,0
0.017628,0.0042628,0.029117,0.0017523,0.0092607,0.00027512,0,0,0.051625,-0.019522,0,0.0014306,0,0,0,0.029119,0.0017496,0.0092607,0.57597,0.013376,0.024494,5.2236e-07,0.38,0.35,0
0.018145,0.0042982,0.029116,0.0016112,0.0092183,0.00022454,0,0,0.051735,-0.019778,0,0.0011676,0,0,0,0.029118,0.0016094,0.0092183,0.4677,0.013315,0.024603,5.2549e-07,0.39,0.35,0
0.018663,0.004331,0.029114,0.0014774,0.0091773,0.00017707,0,0,0.051834,-0.02002,0,0.00092078,0,0,0,0.029115,0.0014763,0.0091773,0.36709,0.013256,0.024705,5.2833e-07,0.4,0.35,0
0.019182,0.0043614,0.029109,0.0013507,0.0091379,0.00013264,0,0,0.051925,-0.020247,0,0.00068972,0,0,0,0.02911,0.0013501,0.0091379,0.27377,0.013199,0.0248,5.3088e-07,0.41,0.35,0
0.019702,0.0043895,0.029102,0.0012308,0.0091,9.1145e-05,0,0,0.052006,-0.02046,0,0.00047395,0,0,0,0.029103,0.0012305,0.0091,0.18736,0.013144,0.024889,5.3316e-07,0.42,0.35,0
0.020222,0.0044154,0.029094,0.0011175,0.0090634,5.25e-05,0,0,0.05208,-0.02066,0,0.000273,0,0,0,0.029094,0.0011174,0.0090634,0.10752,0.013092,0.024971,5.3519e-07,0.43,0.35,0
0.020743,0.0044392,0.029084,0.0010104,0.0090283,1.6608e-05,0,0,0.052145,-0.020847,0,8.6363e-05,0,0,0,0.029084,0.0010104,0.0090283,0.033896,0.013041,0.025046,5.3698e-07,0.44,0.35,0
0.021265,0.004461,0.029073,0.00090949,0.0089946,-1.663e-05,0,0,0.052203,-0.021021,0,-8.6476e-05,0,0,0,0.029073,0.00090947,0.0089946,-0.033832,0.012992,0.025116,5.3855e-07,0.45,0.35,0
0.021787,0.0044809,0.02906,0.00081435,0.0089623,-4.7315e-05,0,0,0.052254,-0.021185,0,-0.00024604,0,0,0,0.02906,0.00081427,0.0089623,-0.095978,0.012946,0.025181,5.3991e-07,0.46,0.35,0
0.02231,0.004499,0.029046,0.0007248,0.0089313,-7.5549e-05,0,0,0.052299,-0.021337,0,-0.00039286,0,0,0,0.029046,0.00072459,0.0089313,-0.15284,0.012901,0.02524,5.4108e-07,0.47,0.35,0
0.022833,0.0045155,0.029031,0.00064058,0.0089016,-0.00010143,0,0,0.052338,-0.021479,0,-0.00052746,0,0,0,0.029032,0.00064022,0.0089016,-0.2047,0.012858,0.025294,5.4206e-07,0.48,0.35,0
0.023357,0.0045304,0.029016,0.00056147,0.0088731,-0.00012507,0,0,0.052371,-0.02161,0,-0.00065037,0,0,0,0.029016,0.00056092,0.0088731,-0.25184,0.012817,0.025343,5.4287e-07,0.49,0.35,0
0.023881,0.0045438,0.028999,0.00048723,0.0088459,-0.00014656,0,0,0.052399,-0.021733,0,-0.00076212,0,0,0,0.029,0.00048648,0.0088459,-0.29451,0.012778,0.025388,5.4353e-07,0.5,0.35,0
0.024405,0.0045558,0.028982,0.00041765,0.0088199,-0.000166,0,0,0.052422,-0.021846,0,-0.00086323,0,0,0,0.028983,0.00041668,0.0088199,-0.33297,0.01274,0.025428,5.4405e-07,0.51,0.35,0
0.024929,0.0045665,0.028965,0.00035249,0.0087951,-0.0001835,0,0,0.05244,-0.021951,0,-0.0009542,0,0,0,0.028966,0.00035131,0.0087951,-0.36744,0.012704,0.025465,5.4443e-07,0.52,0.35,0
0.025454,0.004576,0.028946,0.00029155,0.0087714,-0.00019914,0,0,0.052455,-0.022048,0,-0.0010355,0,0,0,0.028948,0.00029017,0.0087714,-0.39816,0.01267,0.025498,5.4469e-07,0.53,0.35,0
0.025978,0.0045843,0.028928,0.00023462,0.0087487,-0.00021302,0,0,0.052466,-0.022137,0,-0.0011077,0,0,0,0.02893,0.00023304,0.0087487,-0.42534,0.012637,0.025527,5.4484e-07,0.54,0.35,0
0.026503,0.0045915,0.028909,0.0001815,0.0087272,-0.00022524,0,0,0.052473,-0.022219,0,-0.0011712,0,0,0,0.028911,0.00017974,0.0087272,-0.44919,0.012606,0.025553,5.4489e-07,0.55,0.35,0
0.027028,0.0045978,0.02889,0.000132,0.0087066,-0.00023588,0,0,0.052477,-0.022294,0,-0.0012266,0,0,0,0.028892,0.00013006,0.0087066,-0.4699,0.012576,0.025576,5.4485e-07,0.56,0.35,0
0.027552,0.0046031,0.028871,8.5918e-05,0.0086871,-0.00024502,0,0,0.052478,-0.022363,0,-0.0012741,0,0,0,0.028873,8.3833e-05,0.0086871,-0.48766,0.012548,0.025596,5.4472e-07,0.57,0.35,0
0.028077,0.0046075,0.028852,4.3082e-05,0.0086685,-0.00025276,0,0,0.052477,-0.022426,0,-0.0013143,0,0,0,0.028854,4.0865e-05,0.0086685,-0.50263,0.012521,0.025614,5.4452e-07,0.58,0.35,0
0.028602,0.0046112,0.028833,3.3142e-06,0.0086508,-0.00025916,0,0,0.052473,-0.022484,0,-0.0013476,0,0,0,0.028835,9.8471e-07,0.0086508,-0.515,0.012496,0.025628,5.4424e-07,0.59,0.35,0
0.029127,0.0046141,0.028814,-3.3555e-05,0.008634,-0.00026431,0,0,0.052467,-0.022536,0,-0.0013744,0,0,0,0.028816,-3.5977e-05,0.008634,-0.52491,0.012471,0.025641,5.4392e-07,0.6,0.35,0
0.029651,0.0046163,0.028795,-6.769e-05,0.0086181,-0.00026829,0,0,0.052459,-0.022583,0,-0.0013951,0,0,0,0.028797,-7.0183e-05,0.0086181,-0.53252,0.012448,0.025652,5.4353e-07,0.61,0.35,0
0.030176,0.0046179,0.028776,-9.9245e-05,0.008603,-0.00027115,0,0,0.052449,-0.022626,0,-0.00141,0,0,0,0.028778,-0.00010179,0.008603,-0.53797,0.012427,0.02566,5.431e-07,0.62,0.35,0
0.0307,0.004619,0.028757,-0.00012837,0.0085886,-0.00027298,0,0,0.052438,-0.022664,0,-0.0014195,0,0,0,0.02876,-0.00013095,0.0085886,-0.5414,0.012406,0.025667,5.4264e-07,0.63,0.35,0
0.031225,0.0046195,0.028739,-0.00015522,0.0085751,-0.00027383,0,0,0.052426,-0.022699,0,-0.0014239,0,0,0,0.028741,-0.00015781,0.0085751,-0.54293,0.012386,0.025672,5.4213e-07,0.64,0.35,0
0.031749,0.0046195,0.028721,-0.00017992,0.0085622,-0.00027377,0,0,0.052412,-0.022729,0,-0.0014236,0,0,0,0.028723,-0.00018251,0.0085622,-0.54269,0.012368,0.025676,5.416e-07,0.65,0.35,0
0.032273,0.0046191,0.028703,-0.0002026,0.0085501,-0.00027286,0,0,0.052397,-0.022757,0,-0.0014188,0,0,0,0.028705,-0.00020518,0.0085501,-0.54078,0.01235,0.025678,5.4104e-07,0.66,0.35,0
0.032797,0.0046184,0.028685,-0.00022341,0.0085386,-0.00027114,0,0,0.052382,-0.022781,0,-0.0014099,0,0,0,0.028688,-0.00022595,0.0085386,-0.53733,0.012334,0.025679,5.4047e-07,0.67,0.35,0
0.033321,0.0046172,0.028668,-0.00024245,0.0085278,-0.00026869,0,0,0.052365,-0.022802,0,-0.0013972,0,0,0,0.028671,-0.00024494,0.0085278,-0.53242,0.012318,0.025679,5.3987e-07,0.68,0.35,0
0.033844,0.0046158,0.028652,-0.00025984,0.0085175,-0.00026553,0,0,0.052348,-0.022821,0,-0.0013808,0,0,0,0.028654,-0.00026228,0.0085175,-0.52616,0.012303,0.025678,5.3927e-07,0.69,0.35,0
0.034367,0.0046142,0.028635,-0.0002757,0.0085079,-0.00026173,0,0,0.052331,-0.022837,0,-0.001361,0,0,0,0.028638,-0.00027807,0.0085079,-0.51865,0.012289,0.025676,5.3866e-07,0.7,0.35,0
0.034891,0.0046122,0.028619,-0.00029012,0.0084988,-0.00025733,0,0,0.052314,-0.022851,0,-0.0013381,0,0,0,0.028622,-0.00029241,0.0084988,-0.50995,0.012276,0.025673,5.3805e-07,0.71,0.35,0
0.035414,0.0046101,0.028604,-0.00030322,0.0084902,-0.00025237,0,0,0.052296,-0.022863,0,-0.0013123,0,0,0,0.028606,-0.00030542,0.0084902,-0.50017,0.012264,0.02567,5.3743e-07,0.72,0.35,0
0.035937,0.0046078,0.028589,-0.00031508,0.0084822,-0.0002469,0,0,0.052278,-0.022873,0,-0.0012839,0,0,0,0.028591,-0.00031718,0.0084822,-0.48937,0.012252,0.025666,5.3682e-07,0.73,0.35,0
0.036459,0.0046054,0.028575,-0.00032579,0.0084747,-0.00024094,0,0,0.05226,-0.022881,0,-0.0012529,0,0,0,0.028577,-0.0003278,0.0084747,-0.47762,0.012241,0.025662,5.3621e-07,0.74,0.35,0
0.036982,0.0046029,0.028561,-0.00033545,0.0084676,-0.00023453,0,0,0.052242,-0.022888,0,-0.0012196,0,0,0,0.028563,-0.00033735,0.0084676,-0.465,0.012231,0.025657,5.356e-07,0.75,0.35,0
0.037504,0.0046002,0.028547,-0.00034413,0.0084609,-0.00022772,0,0,0.052225,-0.022893,0,-0.0011841,0,0,0,0.028549,-0.00034592,0.0084609,-0.45156,0.012221,0.025652,5.3501e-07,0.76,0.35,0
0.038026,0.0045976,0.028534,-0.00035191,0.0084547,-0.00022053,0,0,0.052207,-0.022897,0,-0.0011467,0,0,0,0.028536,-0.00035359,0.0084547,-0.43738,0.012212,0.025646,5.3443e-07,0.77,0.35,0
0.038548,0.0045948,0.028522,-0.00035886,0.0084489,-0.00021298,0,0,0.05219,-0.0229,0,-0.0011075,0,0,0,0.028524,-0.00036044,0.0084489,-0.4225,0.012204,0.025641,5.3386e-07,0.78,0.35,0
0.03907,0.0045921,0.02851,-0.00036506,0.0084435,-0.00020512,0,0,0.052173,-0.022902,0,-0.0010666,0,0,0,0.028511,-0.00036652,0.0084435,-0.40697,0.012196,0.025635,5.3331e-07,0.79,0.35,0
0.039592,0.0045894,0.028499,-0.00037057,0.0084385,-0.00019695,0,0,0.052157,-0.022903,0,-0.0010242,0,0,0,0.0285,-0.00037191,0.0084385,-0.39086,0.012189,0.025629,5.3277e-07,0.8,0.35,0
0.040113,0.0045867,0.028488,-0.00037544,0.0084338,-0.00018852,0,0,0.052141,-0.022904,0,-0.0009803,0,0,0,0.028489,-0.00037667,0.0084338,-0.3742,0.012182,0.025623,5.3226e-07,0.81,0.35,0
0.040634,0.004584,0.028478,-0.00037974,0.0084294,-0.00017984,0,0,0.052126,-0.022904,0,-0.00093516,0,0,0,0.028479,-0.00038086,0.0084294,-0.35705,0.012176,0.025617,5.3176e-07,0.82,0.35,0
0.041156,0.0045814,0.028468,-0.00038352,0.0084253,-0.00017093,0,0,0.052111,-0.022903,0,-0.00088882,0,0,0,0.028469,-0.00038453,0.0084253,-0.33943,0.01217,0.025611,5.3128e-07,0.83,0.35,0
0.041677,0.0045788,0.028459,-0.00038682,0.0084216,-0.00016181,0,0,0.052097,-0.022902,0,-0.00084142,0,0,0,0.02846,-0.00038773,0.0084216,-0.32139,0.012164,0.025606,5.3083e-07,0.84,0.35,0
0.042198,0.0045764,0.02845,-0.0003897,0.0084182,-0.0001525,0,0,0.052083,-0.0229,0,-0.00079303,0,0,0,0.028451,-0.00039051,0.0084182,-0.30297,0.01216,0.0256,5.304e-07,0.85,0.35,0
0.042718,0.004574,0.028442,-0.00039221,0.008415,-0.00014303,0,0,0.052071,-0.022899,0,-0.00074375,0,0,0,0.028443,-0.00039291,0.008415,-0.2842,0.012155,0.025595,5.2999e-07,0.86,0.35,0
0.043239,0.0045718,0.028435,-0.00039437,0.0084121,-0.0001334,0,0,0.052059,-0.022897,0,-0.00069367,0,0,0,0.028435,-0.00039498,0.0084121,-0.26511,0.012151,0.02559,5.2961e-07,0.87,0.35,0
0.04376,0.0045697,0.028428,-0.00039622,0.0084095,-0.00012363,0,0,0.052047,-0.022895,0,-0.00064286,0,0,0,0.028428,-0.00039675,0.0084095,-0.24574,0.012147,0.025585,5.2925e-07,0.88,0.35,0
0.04428,0.0045677,0.028421,-0.00039781,0.0084071,-0.00011373,0,0,0.052037,-0.022893,0,-0.0005914,0,0,0,0.028422,-0.00039826,0.0084071,-0.22611,0.012143,0.02558,5.2892e-07,0.89,0.35,0
0.0448,0.0045659,0.028415,-0.00039916,0.0084049,-0.00010372,0,0,0.052028,-0.022891,0,-0.00053936,0,0,0,0.028416,-0.00039953,0.0084049,-0.20624,0.01214,0.025576,5.2862e-07,0.9,0.35,0
0.045321,0.0045642,0.02841,-0.0004003,0.008403,-9.3617e-05,0,0,0.052019,-0.022888,0,-0.00048681,0,0,0,0.028411,-0.0004006,0.008403,-0.18618,0.012138,0.025572,5.2834e-07,0.91,0.35,0
0.045841,0.0045626,0.028406,-0.00040125,0.0084013,-8.3424e-05,0,0,0.052011,-0.022887,0,-0.0004338,0,0,0,0.028406,-0.00040149,0.0084013,-0.16593,0.012135,0.025569,5.2809e-07,0.92,0.35,0
0.046361,0.0045613,0.028401,-0.00040204,0.0083998,-7.3155e-05,0,0,0.052004,-0.022885,0,-0.00038041,0,0,0,0.028402,-0.00040222,0.0083998,-0.14552,0.012133,0.025566,5.2787e-07,0.93,0.35,0
0.046881,0.0045601,0.028398,-0.00040268,0.0083985,-6.2821e-05,0,0,0.051998,-0.022883,0,-0.00032667,0,0,0,0.028398,-0.00040281,0.0083985,-0.12498,0.012131,0.025563,5.2768e-07,0.94,0.35,0
0.047401,0.0045591,0.028395,-0.00040319,0.0083975,-5.2433e-05,0,0,0.051993,-0.022882,0,-0.00027265,0,0,0,0.028395,-0.00040329,0.0083975,-0.10432,0.01213,0.02556,5.2752e-07,0.95,0.35,0
0.047921,0.0045582,0.028392,-0.0004036,0.0083966,-4.1999e-05,0,0,0.051989,-0.022881,0,-0.0002184,0,0,0,0.028392,-0.00040366,0.0083966,-0.083567,0.012128,0.025559,5.2738e-07,0.96,0.35,0
0.04844,0.0045576,0.02839,-0.0004039,0.0083959,-3.153e-05,0,0,0.051985,-0.02288,0,-0.00016396,0,0,0,0.02839,-0.00040393,0.0083959,-0.06274,0.012127,0.025557,5.2728e-07,0.97,0.35,0
0.04896,0.0045571,0.028389,-0.00040411,0.0083954,-2.1035e-05,0,0,0.051983,-0.022879,0,-0.00010938,0,0,0,0.028389,-0.00040412,0.0083954,-0.041857,0.012127,0.025556,5.2721e-07,0.98,0.35,0
0.04948,0.0045568,0.028388,-0.00040423,0.0083952,-1.0522e-05,0,0,0.051982,-0.022878,0,-5.4713e-05,0,0,0,0.028388,-0.00040424,0.0083952,-0.020938,0.012126,0.025555,5.2716e-07,0.99,0.35,0
0.05,0.0045567,0.028388,-0.00040427,0.0083951,-1.8187e-06,0,0,0.051981,-0.022878,0,-9.4574e-06,0,0,0,0.028388,-0.00040427,0.0083951,-0.0036192,0.012126,0.025555,5.2715e-07,1,0.35,0
0,0,0.026694,0.01144,0.01144,0.0035866,0,0,0.03966,-3.7947e-19,0,0.018651,0,0,0,0.027495,0.010639,0.01144,12.593,0.016525,0.01647,2.2764e-07,0,0.36,0
0.0003966,0.00018651,0.026681,0.011249,0.011379,0.003574,0,0,0.039786,-0.00033874,0,0.018585,0,0,0,0.027469,0.010461,0.011379,12.426,0.016436,0.016568,2.3115e-07,0.01,0.36,0
0.00079572,0.0003707,0.026751,0.011074,0.011347,0.0035275,0,0,0.04005,-0.00071161,0,0.018343,0,0,0,0.027508,0.010317,0.011347,12.114,0.016391,0.0167,2.3614e-07,0.02,0.36,0
0.0011976,0.00055196,0.026827,0.01088,0.011312,0.0034649,0,0,0.040338,-0.0011231,0,0.018017,0,0,0,0.027547,0.01016,0.011312,11.744,0.01634,0.016841,2.4144e-07,0.03,0.36,0
0.0016025,0.00072973,0.026909,0.010667,0.011273,0.0033885,0,0,0.040654,-0.0015754,0,0.01762,0,0,0,0.027588,0.0099883,0.011273,11.324,0.016283,0.016994,2.4719e-07,0.04,0.36,0
0.0020107,0.00090356,0.026998,0.010434,0.011229,0.003301,0,0,0.040997,-0.0020684,0,0.017165,0,0,0,0.027631,0.0098003,0.011229,10.866,0.01622,0.017161,2.5351e-07,0.05,0.36,0
0.0024224,0.0010731,0.027092,0.010182,0.011182,0.0032048,0,0,0.041366,-0.0026002,0,0.016665,0,0,0,0.027679,0.0095953,0.011182,10.379,0.016152,0.017345,2.6046e-07,0.06,0.36,0
0.002838,0.001238,0.027192,0.0099136,0.011132,0.0031021,0,0,0.041758,-0.0031672,0,0.016131,0,0,0,0.027733,0.0093736,0.011132,9.8758,0.016079,0.017546,2.6806e-07,0.07,0.36,0
0.0032576,0.0013982,0.027297,0.00963,0.011078,0.0029948,0,0,0.042169,-0.0037649,0,0.015573,0,0,0,0.02779,0.0091361,0.011078,9.3643,0.016001,0.017763,2.763e-07,0.08,0.36,0
0.0036814,0.0015534,0.027404,0.0093336,0.011021,0.0028844,0,0,0.042595,-0.0043879,0,0.014999,0,0,0,0.027853,0.0088844,0.011021,8.8527,0.01592,0.017996,2.8514e-07,0.09,0.36,0
0.0041095,0.0017036,0.027513,0.009027,0.010962,0.0027721,0,0,0.043033,-0.0050311,0,0.014415,0,0,0,0.02792,0.0086203,0.010962,8.3473,0.015834,0.018242,2.9452e-07,0.1,0.36,0
0.004542,0.0018488,0.027623,0.0087126,0.010901,0.0026588,0,0,0.043478,-0.005689,0,0.013826,0,0,0,0.02799,0.0083459,0.010901,7.8529,0.015745,0.018499,3.0435e-07,0.11,0.36,0
0.004979,0.0019889,0.027732,0.0083926,0.010837,0.0025451,0,0,0.043927,-0.0063567,0,0.013235,0,0,0,0.028062,0.0080632,0.010837,7.373,0.015654,0.018766,3.1454e-07,0.12,0.36,0
0.0054205,0.0021239,0.02784,0.0080691,0.010773,0.0024317,0,0,0.044375,-0.0070295,0,0.012645,0,0,0,0.028135,0.0077744,0.010773,6.9098,0.015561,0.019039,3.2502e-07,0.13,0.36,0
0.0058665,0.0022539,0.027946,0.0077442,0.010707,0.0023188,0,0,0.044821,-0.0077032,0,0.012058,0,0,0,0.028208,0.0074814,0.010707,6.4647,0.015466,0.019317,3.3569e-07,0.14,0.36,0
0.006317,0.0023789,0.028048,0.0074195,0.01064,0.0022069,0,0,0.045261,-0.0083742,0,0.011476,0,0,0,0.028282,0.007186,0.01064,6.0385,0.015369,0.019598,3.4647e-07,0.15,0.36,0
0.0067717,0.0024989,0.028147,0.0070965,0.010573,0.0020961,0,0,0.045692,-0.009039,0,0.0109,0,0,0,0.028354,0.0068898,0.010573,5.6316,0.015272,0.01988,3.5728e-07,0.16,0.36,0
0.0072308,0.0026141,0.028242,0.0067766,0.010505,0.0019867,0,0,0.046114,-0.0096951,0,0.010331,0,0,0,0.028424,0.0065943,0.010505,5.2438,0.015175,0.020161,3.6804e-07,0.17,0.36,0
0.007694,0.0027244,0.028332,0.0064611,0.010438,0.001879,0,0,0.046525,-0.01034,0,0.0097707,0,0,0,0.028492,0.0063008,0.010438,4.8748,0.015077,0.020439,3.787e-07,0.18,0.36,0
0.0081613,0.00283,0.028417,0.0061508,0.01037,0.001773,0,0,0.046922,-0.010971,0,0.0092197,0,0,0,0.028558,0.0060105,0.01037,4.5243,0.014979,0.020714,3.8919e-07,0.19,0.36,0
0.0086325,0.0029309,0.028498,0.0058466,0.010303,0.001669,0,0,0.047306,-0.011587,0,0.008679,0,0,0,0.02862,0.0057243,0.010303,4.1917,0.014882,0.020984,3.9946e-07,0.2,0.36,0
0.0091074,0.0030273,0.028573,0.0055493,0.010237,0.0015672,0,0,0.047674,-0.012187,0,0.0081495,0,0,0,0.028679,0.0054431,0.010237,3.8763,0.014786,0.021249,4.0947e-07,0.21,0.36,0
0.009586,0.0031191,0.028643,0.0052595,0.010171,0.0014677,0,0,0.048028,-0.012769,0,0.0076321,0,0,0,0.028735,0.0051677,0.010171,3.5776,0.014691,0.021507,4.1918e-07,0.22,0.36,0
0.010068,0.0032066,0.028708,0.0049775,0.010106,0.0013707,0,0,0.048366,-0.013333,0,0.0071276,0,0,0,0.028787,0.0048986,0.010106,3.2949,0.014597,0.021757,4.2856e-07,0.23,0.36,0
0.010553,0.0032898,0.028767,0.004704,0.010041,0.0012763,0,0,0.048688,-0.013877,0,0.0066367,0,0,0,0.028835,0.0046365,0.010041,3.0276,0.014504,0.022,4.3758e-07,0.24,0.36,0
0.011042,0.0033688,0.028822,0.004439,0.0099783,0.0011846,0,0,0.048994,-0.014402,0,0.0061601,0,0,0,0.028879,0.0043816,0.0099783,2.775,0.014413,0.022234,4.4623e-07,0.25,0.36,0
0.011533,0.0034437,0.028871,0.0041829,0.0099163,0.0010958,0,0,0.049283,-0.014907,0,0.0056983,0,0,0,0.02892,0.0041344,0.0099163,2.5365,0.014323,0.02246,4.5448e-07,0.26,0.36,0
0.012027,0.0035147,0.028916,0.0039358,0.0098555,0.00101,0,0,0.049557,-0.015391,0,0.005252,0,0,0,0.028957,0.003895,0.0098555,2.3115,0.014236,0.022677,4.6233e-07,0.27,0.36,0
0.012524,0.0035818,0.028956,0.0036977,0.0097961,0.0009272,0,0,0.049815,-0.015856,0,0.0048214,0,0,0,0.02899,0.0036637,0.0097961,2.0995,0.01415,0.022885,4.6976e-07,0.28,0.36,0
0.013024,0.0036452,0.028991,0.0034687,0.009738,0.00084752,0,0,0.050058,-0.0163,0,0.0044071,0,0,0,0.029019,0.0034406,0.009738,1.8998,0.014066,0.023083,4.7679e-07,0.29,0.36,0
0.013525,0.003705,0.029022,0.0032488,0.0096813,0.000771,0,0,0.050286,-0.016724,0,0.0040092,0,0,0,0.029045,0.0032258,0.0096813,1.712,0.013984,0.023273,4.834e-07,0.3,0.36,0
0.014029,0.0037613,0.029049,0.003038,0.009626,0.00069768,0,0,0.050499,-0.017129,0,0.003628,0,0,0,0.029067,0.0030193,0.009626,1.5354,0.013904,0.023453,4.896e-07,0.31,0.36,0
0.014535,0.0038142,0.029071,0.002836,0.0095722,0.00062758,0,0,0.050698,-0.017514,0,0.0032634,0,0,0,0.029086,0.002821,0.0095722,1.3695,0.013827,0.023625,4.954e-07,0.32,0.36,0
0.015043,0.0038639,0.02909,0.0026429,0.00952,0.0005607,0,0,0.050883,-0.01788,0,0.0029156,0,0,0,0.029102,0.002631,0.00952,1.214,0.013751,0.023787,5.008e-07,0.33,0.36,0
0.015553,0.0039105,0.029106,0.0024584,0.0094692,0.00049703,0,0,0.051055,-0.018228,0,0.0025845,0,0,0,0.029115,0.0024491,0.0094692,1.0682,0.013678,0.023941,5.0581e-07,0.34,0.36,0
0.016064,0.003954,0.029118,0.0022824,0.00942,0.00043654,0,0,0.051214,-0.018558,0,0.00227,0,0,0,0.029125,0.0022753,0.00942,0.93173,0.013607,0.024085,5.1045e-07,0.35,0.36,0
0.016577,0.0039947,0.029126,0.0021147,0.0093724,0.00037922,0,0,0.051361,-0.01887,0,0.0019719,0,0,0,0.029132,0.0021093,0.0093724,0.80416,0.013538,0.024222,5.1472e-07,0.36,0.36,0
0.017092,0.0040327,0.029132,0.001955,0.0093262,0.000325,0,0,0.051496,-0.019165,0,0.00169,0,0,0,0.029136,0.0019511,0.0093262,0.68505,0.013471,0.02435,5.1865e-07,0.37,0.36,0
0.017607,0.004068,0.029136,0.0018032,0.0092816,0.00027384,0,0,0.05162,-0.019444,0,0.001424,0,0,0,0.029138,0.0018005,0.0092816,0.57397,0.013407,0.02447,5.2224e-07,0.38,0.36,0
0.018124,0.0041008,0.029136,0.0016591,0.0092386,0.00022568,0,0,0.051734,-0.019707,0,0.0011735,0,0,0,0.029138,0.0016572,0.0092386,0.47054,0.013345,0.024583,5.2551e-07,0.39,0.36,0
0.018642,0.0041311,0.029134,0.0015223,0.009197,0.00018044,0,0,0.051837,-0.019954,0,0.00093826,0,0,0,0.029136,0.0015211,0.009197,0.37439,0.013285,0.024688,5.2847e-07,0.4,0.36,0
0.019161,0.0041592,0.029131,0.0013927,0.009157,0.00013804,0,0,0.051931,-0.020187,0,0.00071781,0,0,0,0.029131,0.001392,0.009157,0.28513,0.013227,0.024786,5.3114e-07,0.41,0.36,0
0.019681,0.0041852,0.029125,0.0012699,0.0091184,9.841e-05,0,0,0.052016,-0.020406,0,0.00051173,0,0,0,0.029125,0.0012696,0.0091184,0.20242,0.013171,0.024878,5.3353e-07,0.42,0.36,0
0.020201,0.004209,0.029117,0.0011539,0.0090812,6.1462e-05,0,0,0.052093,-0.020611,0,0.0003196,0,0,0,0.029117,0.0011537,0.0090812,0.12593,0.013117,0.024962,5.3567e-07,0.43,0.36,0
0.020722,0.0042309,0.029108,0.0010442,0.0090455,2.7105e-05,0,0,0.052161,-0.020803,0,0.00014095,0,0,0,0.029108,0.0010442,0.0090455,0.05534,0.013066,0.025041,5.3755e-07,0.44,0.36,0
0.021244,0.0042509,0.029097,0.00094074,0.0090112,-4.7502e-06,0,0,0.052222,-0.020983,0,-2.4701e-05,0,0,0,0.029097,0.00094073,0.0090112,-0.0096664,0.013016,0.025113,5.3921e-07,0.45,0.36,0
0.021767,0.0042692,0.029084,0.00084317,0.0089783,-3.4198e-05,0,0,0.052276,-0.021151,0,-0.00017783,0,0,0,0.029084,0.00084313,0.0089783,-0.069381,0.012969,0.025179,5.4065e-07,0.46,0.36,0
0.02229,0.0042858,0.029071,0.00075128,0.0089467,-6.1332e-05,0,0,0.052323,-0.021308,0,-0.00031893,0,0,0,0.029071,0.00075115,0.0089467,-0.12409,0.012923,0.025241,5.419e-07,0.47,0.36,0
0.022813,0.0043008,0.029056,0.00066483,0.0089164,-8.6246e-05,0,0,0.052364,-0.021454,0,-0.00044848,0,0,0,0.029057,0.00066457,0.0089164,-0.17405,0.012879,0.025297,5.4295e-07,0.48,0.36,0
0.023337,0.0043144,0.029041,0.00058358,0.0088874,-0.00010904,0,0,0.052399,-0.02159,0,-0.00056698,0,0,0,0.029041,0.00058317,0.0088874,-0.21953,0.012837,0.025348,5.4382e-07,0.49,0.36,0
0.023861,0.0043266,0.029025,0.00050731,0.0088596,-0.00012979,0,0,0.052429,-0.021716,0,-0.00067492,0,0,0,0.029025,0.00050672,0.0088596,-0.26077,0.012797,0.025394,5.4454e-07,0.5,0.36,0
0.024386,0.0043374,0.029008,0.00043578,0.0088331,-0.00014861,0,0,0.052454,-0.021833,0,-0.00077278,0,0,0,0.029008,0.00043501,0.0088331,-0.298,0.012759,0.025436,5.451e-07,0.51,0.36,0
0.02491,0.004347,0.02899,0.00036877,0.0088077,-0.00016558,0,0,0.052474,-0.021941,0,-0.00086103,0,0,0,0.028991,0.00036781,0.0088077,-0.33146,0.012722,0.025475,5.4553e-07,0.52,0.36,0
0.025435,0.0043555,0.028972,0.00030607,0.0087834,-0.0001808,0,0,0.05249,-0.022041,0,-0.00094014,0,0,0,0.028973,0.00030493,0.0087834,-0.36134,0.012687,0.025509,5.4583e-07,0.53,0.36,0
0.02596,0.0043629,0.028954,0.00024748,0.0087603,-0.00019434,0,0,0.052503,-0.022133,0,-0.0010106,0,0,0,0.028955,0.00024616,0.0087603,-0.38786,0.012654,0.025539,5.4601e-07,0.54,0.36,0
0.026485,0.0043694,0.028935,0.00019278,0.0087383,-0.0002063,0,0,0.052511,-0.022218,0,-0.0010727,0,0,0,0.028936,0.0001913,0.0087383,-0.41121,0.012622,0.025566,5.4609e-07,0.55,0.36,0
0.02701,0.0043748,0.028916,0.00014177,0.0087172,-0.00021675,0,0,0.052516,-0.022296,0,-0.0011271,0,0,0,0.028917,0.00014014,0.0087172,-0.43157,0.012592,0.02559,5.4607e-07,0.56,0.36,0
0.027536,0.0043794,0.028896,9.428e-05,0.0086972,-0.00022578,0,0,0.052518,-0.022368,0,-0.0011741,0,0,0,0.028898,9.251e-05,0.0086972,-0.44911,0.012563,0.025611,5.4596e-07,0.57,0.36,0
0.028061,0.0043832,0.028877,5.0108e-05,0.0086782,-0.00023347,0,0,0.052517,-0.022433,0,-0.0012141,0,0,0,0.028879,4.8217e-05,0.0086782,-0.464,0.012535,0.02563,5.4578e-07,0.58,0.36,0
0.028586,0.0043863,0.028858,9.0799e-06,0.0086601,-0.00023989,0,0,0.052514,-0.022492,0,-0.0012474,0,0,0,0.02886,7.0852e-06,0.0086601,-0.4764,0.012509,0.025646,5.4552e-07,0.59,0.36,0
0.029111,0.0043887,0.028838,-2.8976e-05,0.0086428,-0.00024512,0,0,0.052509,-0.022547,0,-0.0012746,0,0,0,0.028841,-3.1057e-05,0.0086428,-0.48646,0.012484,0.025659,5.452e-07,0.6,0.36,0
0.029636,0.0043904,0.028819,-6.4227e-05,0.0086265,-0.00024922,0,0,0.052501,-0.022596,0,-0.0012959,0,0,0,0.028821,-6.6377e-05,0.0086265,-0.49432,0.01246,0.02567,5.4483e-07,0.61,0.36,0
0.030161,0.0043916,0.0288,-9.6831e-05,0.008611,-0.00025225,0,0,0.052492,-0.02264,0,-0.0013117,0,0,0,0.028802,-9.9033e-05,0.008611,-0.50011,0.012438,0.025679,5.444e-07,0.62,0.36,0
0.030686,0.0043922,0.028781,-0.00012694,0.0085963,-0.00025429,0,0,0.052481,-0.02268,0,-0.0013223,0,0,0,0.028783,-0.00012918,0.0085963,-0.50396,0.012417,0.025687,5.4394e-07,0.63,0.36,0
0.031211,0.0043924,0.028762,-0.00015471,0.0085823,-0.0002554,0,0,0.052468,-0.022716,0,-0.0013281,0,0,0,0.028765,-0.00015697,0.0085823,-0.50599,0.012397,0.025692,5.4343e-07,0.64,0.36,0
0.031735,0.0043921,0.028744,-0.00018028,0.0085691,-0.00025563,0,0,0.052455,-0.022748,0,-0.0013293,0,0,0,0.028746,-0.00018253,0.0085691,-0.50632,0.012378,0.025696,5.429e-07,0.65,0.36,0
0.03226,0.0043915,0.028726,-0.00020377,0.0085566,-0.00025504,0,0,0.05244,-0.022777,0,-0.0013262,0,0,0,0.028728,-0.00020602,0.0085566,-0.50505,0.01236,0.025699,5.4234e-07,0.66,0.36,0
0.032784,0.0043904,0.028708,-0.00022533,0.0085448,-0.00025368,0,0,0.052424,-0.022802,0,-0.0013191,0,0,0,0.02871,-0.00022755,0.0085448,-0.5023,0.012342,0.0257,5.4176e-07,0.67,0.36,0
0.033308,0.0043891,0.028691,-0.00024507,0.0085337,-0.0002516,0,0,0.052408,-0.022825,0,-0.0013083,0,0,0,0.028693,-0.00024726,0.0085337,-0.49814,0.012326,0.0257,5.4116e-07,0.68,0.36,0
0.033832,0.0043875,0.028674,-0.00026313,0.0085231,-0.00024885,0,0,0.052391,-0.022844,0,-0.001294,0,0,0,0.028676,-0.00026527,0.0085231,-0.49268,0.012311,0.0257,5.4055e-07,0.69,0.36,0
0.034356,0.0043856,0.028657,-0.00027959,0.0085132,-0.00024548,0,0,0.052374,-0.022861,0,-0.0012765,0,0,0,0.028659,-0.00028168,0.0085132,-0.48601,0.012297,0.025698,5.3993e-07,0.7,0.36,0
0.03488,0.0043836,0.028641,-0.00029459,0.0085038,-0.00024152,0,0,0.052356,-0.022876,0,-0.0012559,0,0,0,0.028643,-0.00029661,0.0085038,-0.4782,0.012283,0.025695,5.3931e-07,0.71,0.36,0
0.035403,0.0043814,0.028625,-0.00030821,0.008495,-0.00023703,0,0,0.052338,-0.022888,0,-0.0012325,0,0,0,0.028627,-0.00031016,0.008495,-0.46934,0.012271,0.025692,5.3868e-07,0.72,0.36,0
0.035927,0.004379,0.02861,-0.00032056,0.0084867,-0.00023202,0,0,0.052319,-0.022899,0,-0.0012065,0,0,0,0.028612,-0.00032242,0.0084867,-0.45948,0.012259,0.025688,5.3805e-07,0.73,0.36,0
0.03645,0.0043764,0.028595,-0.00033173,0.0084789,-0.00022656,0,0,0.052301,-0.022908,0,-0.0011781,0,0,0,0.028597,-0.00033351,0.0084789,-0.44872,0.012247,0.025684,5.3743e-07,0.74,0.36,0
0.036973,0.0043738,0.02858,-0.00034181,0.0084716,-0.00022066,0,0,0.052283,-0.022915,0,-0.0011474,0,0,0,0.028582,-0.0003435,0.0084716,-0.4371,0.012237,0.025679,5.3682e-07,0.75,0.36,0
0.037495,0.0043712,0.028567,-0.00035088,0.0084647,-0.00021436,0,0,0.052265,-0.022921,0,-0.0011147,0,0,0,0.028568,-0.00035247,0.0084647,-0.42469,0.012227,0.025674,5.3621e-07,0.76,0.36,0
0.038018,0.0043684,0.028553,-0.00035902,0.0084583,-0.00020769,0,0,0.052247,-0.022925,0,-0.00108,0,0,0,0.028555,-0.00036051,0.0084583,-0.41155,0.012218,0.025669,5.3562e-07,0.77,0.36,0
0.03854,0.0043657,0.028541,-0.00036631,0.0084523,-0.00020068,0,0,0.05223,-0.022928,0,-0.0010435,0,0,0,0.028542,-0.0003677,0.0084523,-0.39773,0.012209,0.025663,5.3504e-07,0.78,0.36,0
0.039062,0.0043629,0.028528,-0.00037281,0.0084467,-0.00019335,0,0,0.052213,-0.022931,0,-0.0010054,0,0,0,0.02853,-0.00037411,0.0084467,-0.38328,0.012201,0.025657,5.3447e-07,0.79,0.36,0
0.039585,0.0043602,0.028517,-0.0003786,0.0084414,-0.00018573,0,0,0.052196,-0.022932,0,-0.00096579,0,0,0,0.028518,-0.00037979,0.0084414,-0.36825,0.012193,0.025651,5.3393e-07,0.8,0.36,0
0.040106,0.0043575,0.028506,-0.00038373,0.0084366,-0.00017784,0,0,0.05218,-0.022933,0,-0.00092478,0,0,0,0.028507,-0.00038482,0.0084366,-0.35269,0.012186,0.025645,5.334e-07,0.81,0.36,0
0.040628,0.0043548,0.028495,-0.00038826,0.0084321,-0.00016971,0,0,0.052164,-0.022933,0,-0.0008825,0,0,0,0.028496,-0.00038926,0.0084321,-0.33664,0.01218,0.025639,5.3289e-07,0.82,0.36,0
0.04115,0.0043522,0.028485,-0.00039225,0.0084279,-0.00016136,0,0,0.052149,-0.022932,0,-0.00083906,0,0,0,0.028486,-0.00039315,0.0084279,-0.32014,0.012174,0.025633,5.324e-07,0.83,0.36,0
0.041671,0.0043497,0.028476,-0.00039575,0.008424,-0.0001528,0,0,0.052134,-0.022931,0,-0.00079455,0,0,0,0.028476,-0.00039656,0.008424,-0.30322,0.012168,0.025628,5.3193e-07,0.84,0.36,0
0.042192,0.0043472,0.028467,-0.00039882,0.0084204,-0.00014405,0,0,0.052121,-0.02293,0,-0.00074908,0,0,0,0.028467,-0.00039953,0.0084204,-0.28592,0.012163,0.025622,5.3149e-07,0.85,0.36,0
0.042714,0.0043449,0.028459,-0.00040148,0.0084171,-0.00013514,0,0,0.052108,-0.022928,0,-0.00070272,0,0,0,0.028459,-0.00040211,0.0084171,-0.26828,0.012158,0.025617,5.3107e-07,0.86,0.36,0
0.043235,0.0043427,0.028451,-0.00040378,0.0084141,-0.00012607,0,0,0.052095,-0.022926,0,-0.00065556,0,0,0,0.028451,-0.00040434,0.0084141,-0.25033,0.012154,0.025612,5.3068e-07,0.87,0.36,0
0.043755,0.0043406,0.028444,-0.00040577,0.0084113,-0.00011686,0,0,0.052084,-0.022925,0,-0.00060768,0,0,0,0.028444,-0.00040625,0.0084113,-0.23209,0.01215,0.025607,5.3031e-07,0.88,0.36,0
0.044276,0.0043386,0.028437,-0.00040748,0.0084089,-0.00010753,0,0,0.052073,-0.022922,0,-0.00055916,0,0,0,0.028437,-0.00040788,0.0084089,-0.21359,0.012146,0.025602,5.2997e-07,0.89,0.36,0
0.044797,0.0043368,0.028431,-0.00040893,0.0084066,-9.8087e-05,0,0,0.052063,-0.02292,0,-0.00051005,0,0,0,0.028431,-0.00040927,0.0084066,-0.19486,0.012143,0.025598,5.2966e-07,0.9,0.36,0
0.045317,0.0043351,0.028426,-0.00041016,0.0084046,-8.8545e-05,0,0,0.052054,-0.022918,0,-0.00046043,0,0,0,0.028426,-0.00041043,0.0084046,-0.17593,0.01214,0.025594,5.2938e-07,0.91,0.36,0
0.045838,0.0043336,0.028421,-0.00041119,0.0084028,-7.8916e-05,0,0,0.052046,-0.022916,0,-0.00041036,0,0,0,0.028421,-0.00041141,0.0084028,-0.15682,0.012138,0.02559,5.2912e-07,0.92,0.36,0
0.046358,0.0043323,0.028416,-0.00041205,0.0084013,-6.9211e-05,0,0,0.052039,-0.022915,0,-0.0003599,0,0,0,0.028417,-0.00041222,0.0084013,-0.13755,0.012135,0.025587,5.2889e-07,0.93,0.36,0
0.046879,0.0043311,0.028413,-0.00041276,0.0084,-5.9441e-05,0,0,0.052033,-0.022913,0,-0.0003091,0,0,0,0.028413,-0.00041288,0.0084,-0.11815,0.012133,0.025584,5.287e-07,0.94,0.36,0
0.047399,0.0043301,0.02841,-0.00041332,0.0083989,-4.9617e-05,0,0,0.052028,-0.022912,0,-0.00025801,0,0,0,0.02841,-0.00041341,0.0083989,-0.09863,0.012132,0.025582,5.2853e-07,0.95,0.36,0
0.047919,0.0043293,0.028407,-0.00041376,0.008398,-3.9747e-05,0,0,0.052023,-0.022911,0,-0.00020668,0,0,0,0.028407,-0.00041382,0.008398,-0.079016,0.01213,0.02558,5.2839e-07,0.96,0.36,0
0.04844,0.0043286,0.028405,-0.0004141,0.0083973,-2.9841e-05,0,0,0.05202,-0.022909,0,-0.00015517,0,0,0,0.028405,-0.00041413,0.0083973,-0.059327,0.012129,0.025578,5.2829e-07,0.97,0.36,0
0.04896,0.0043282,0.028404,-0.00041433,0.0083968,-1.9909e-05,0,0,0.052018,-0.022909,0,-0.00010352,0,0,0,0.028404,-0.00041434,0.0083968,-0.039582,0.012129,0.025577,5.2821e-07,0.98,0.36,0
0.04948,0.0043279,0.028403,-0.00041446,0.0083965,-9.9587e-06,0,0,0.052016,-0.022908,0,-5.1785e-05,0,0,0,0.028403,-0.00041447,0.0083965,-0.0198,0.012128,0.025576,5.2817e-07,0.99,0.36,0
0.05,0.0043278,0.028402,-0.00041451,0.0083964,-1.7914e-06,0,0,0.052016,-0.022908,0,-9.3151e-06,0,0,0,0.028402,-0.00041451,0.0083964,-0.0035617,0.012128,0.025576,5.2815e-07,1,0.36,0
0,0,0.026731,0.011456,0.011456,0.0035255,0,0,0.039714,3.5237e-19,0,0.018333,0,0,0,0.027505,0.010682,0.011456,12.389,0.016547,0.01645,2.2691e-07,0,0.37,0
0.00039714,0.00018333,0.02672,0.011289,0.011403,0.0035113,0,0,0.039825,-0.00029491,0,0.018259,0,0,0,0.027482,0.010528,0.011403,12.235,0.016471,0.016534,2.2994e-07,0.01,0.37,0
0.0007965,0.00036398,0.026783,0.011133,0.011375,0.0034588,0,0,0.040061,-0.00062871,0,0.017986,0,0,0,0.027513,0.010403,0.011375,11.923,0.01643,0.016646,2.3417e-07,0.02,0.37,0
0.0011984,0.00054129,0.026852,0.010955,0.011342,0.0033891,0,0,0.040326,-0.0010071,0,0.017623,0,0,0,0.027544,0.010262,0.011342,11.546,0.016383,0.016768,2.3877e-07,0.03,0.37,0
0.001603,0.00071467,0.026929,0.010754,0.011305,0.0033053,0,0,0.040623,-0.0014327,0,0.017188,0,0,0,0.027578,0.010105,0.011305,11.115,0.016329,0.016906,2.4394e-07,0.04,0.37,0
0.0020108,0.00088367,0.027013,0.01053,0.011263,0.0032106,0,0,0.040951,-0.0019052,0,0.016695,0,0,0,0.027617,0.0099271,0.011263,10.642,0.016269,0.017061,2.4979e-07,0.05,0.37,0
0.002422,0.0010479,0.027105,0.010286,0.011217,0.0031081,0,0,0.041309,-0.0024221,0,0.016162,0,0,0,0.027661,0.0097298,0.011217,10.142,0.016203,0.017236,2.5639e-07,0.06,0.37,0
0.002837,0.0012073,0.027203,0.010022,0.011167,0.0030001,0,0,0.041693,-0.0029787,0,0.015601,0,0,0,0.027712,0.0095129,0.011167,9.6255,0.016131,0.017431,2.6375e-07,0.07,0.37,0
0.0032559,0.0013615,0.027306,0.0097411,0.011114,0.0028889,0,0,0.042098,-0.0035697,0,0.015022,0,0,0,0.027769,0.0092781,0.011114,9.1042,0.016054,0.017644,2.7185e-07,0.08,0.37,0
0.003679,0.0015105,0.027412,0.0094464,0.011057,0.0027759,0,0,0.042521,-0.0041888,0,0.014435,0,0,0,0.027831,0.0090272,0.011057,8.5863,0.015972,0.017875,2.8063e-07,0.09,0.37,0
0.0041063,0.0016543,0.02752,0.0091405,0.010998,0.0026623,0,0,0.042957,-0.00483,0,0.013844,0,0,0,0.027898,0.0087626,0.010998,8.0782,0.015886,0.018121,2.9001e-07,0.1,0.37,0
0.0045381,0.0017929,0.027629,0.008826,0.010937,0.0025489,0,0,0.043401,-0.0054874,0,0.013254,0,0,0,0.027969,0.0084866,0.010937,7.5846,0.015797,0.01838,2.9988e-07,0.11,0.37,0
0.0049743,0.0019263,0.027738,0.0085055,0.010873,0.0024363,0,0,0.043849,-0.0061555,0,0.012669,0,0,0,0.028042,0.0082017,0.010873,7.1085,0.015706,0.018648,3.1016e-07,0.12,0.37,0
0.0054151,0.0020546,0.027845,0.0081812,0.010808,0.0023248,0,0,0.044297,-0.0068294,0,0.012089,0,0,0,0.028116,0.0079101,0.010808,6.6517,0.015612,0.018925,3.2075e-07,0.13,0.37,0
0.0058603,0.0021779,0.02795,0.0078551,0.010742,0.0022147,0,0,0.044742,-0.0075049,0,0.011516,0,0,0,0.028192,0.007614,0.010742,6.2152,0.015516,0.019206,3.3155e-07,0.14,0.37,0
0.0063099,0.0022961,0.028052,0.0075291,0.010674,0.0021061,0,0,0.045183,-0.0081779,0,0.010952,0,0,0,0.028266,0.0073152,0.010674,5.7993,0.015419,0.01949,3.4246e-07,0.15,0.37,0
0.0067639,0.0024095,0.028151,0.0072046,0.010607,0.0019993,0,0,0.045615,-0.0088453,0,0.010396,0,0,0,0.02834,0.0070155,0.010607,5.4038,0.015321,0.019775,3.5342e-07,0.16,0.37,0
0.0072222,0.0025181,0.028245,0.006883,0.010538,0.0018943,0,0,0.046038,-0.0095042,0,0.0098501,0,0,0,0.028412,0.0067164,0.010538,5.0283,0.015222,0.02006,3.6434e-07,0.17,0.37,0
0.0076847,0.002622,0.028335,0.0065656,0.01047,0.0017912,0,0,0.046449,-0.010152,0,0.009314,0,0,0,0.028482,0.0064192,0.01047,4.6723,0.015124,0.020342,3.7516e-07,0.18,0.37,0
0.0081512,0.0027212,0.028421,0.0062533,0.010402,0.0016901,0,0,0.046848,-0.010787,0,0.0087884,0,0,0,0.028549,0.0061252,0.010402,4.335,0.015025,0.02062,3.8582e-07,0.19,0.37,0
0.0086216,0.002816,0.028501,0.005947,0.010334,0.0015911,0,0,0.047233,-0.011407,0,0.008274,0,0,0,0.028613,0.0058353,0.010334,4.0156,0.014927,0.020894,3.9626e-07,0.2,0.37,0
0.0090959,0.0029063,0.028577,0.0056475,0.010267,0.0014945,0,0,0.047604,-0.012011,0,0.0077713,0,0,0,0.028674,0.0055505,0.010267,3.7135,0.01483,0.021163,4.0645e-07,0.21,0.37,0
0.0095737,0.0029923,0.028647,0.0053552,0.010201,0.0014002,0,0,0.04796,-0.012598,0,0.0072809,0,0,0,0.028731,0.0052713,0.010201,3.4279,0.014734,0.021424,4.1634e-07,0.22,0.37,0
0.010055,0.0030741,0.028712,0.0050708,0.010135,0.0013083,0,0,0.048301,-0.013167,0,0.0068033,0,0,0,0.028784,0.0049986,0.010135,3.1579,0.014639,0.021679,4.2589e-07,0.23,0.37,0
0.01054,0.0031518,0.028772,0.0047945,0.01007,0.001219,0,0,0.048626,-0.013716,0,0.006339,0,0,0,0.028834,0.0047327,0.01007,2.903,0.014546,0.021925,4.351e-07,0.24,0.37,0
0.011028,0.0032256,0.028827,0.0045268,0.010006,0.0011324,0,0,0.048935,-0.014247,0,0.0058886,0,0,0,0.02888,0.0044741,0.010006,2.6623,0.014453,0.022164,4.4392e-07,0.25,0.37,0
0.011518,0.0032954,0.028877,0.0042678,0.0099436,0.0010486,0,0,0.049228,-0.014757,0,0.0054525,0,0,0,0.028922,0.0042232,0.0099436,2.4354,0.014363,0.022394,4.5235e-07,0.26,0.37,0
0.012012,0.0033615,0.028923,0.0040178,0.0098822,0.00096751,0,0,0.049506,-0.015247,0,0.0050311,0,0,0,0.02896,0.0039802,0.0098822,2.2214,0.014274,0.022614,4.6038e-07,0.27,0.37,0
0.012509,0.0034239,0.028963,0.0037767,0.009822,0.00088936,0,0,0.049768,-0.015718,0,0.0046247,0,0,0,0.028995,0.0037453,0.009822,2.0198,0.014187,0.022826,4.68e-07,0.28,0.37,0
0.013007,0.0034829,0.029,0.0035447,0.0097633,0.00081414,0,0,0.050014,-0.016168,0,0.0042335,0,0,0,0.029026,0.0035186,0.0097633,1.83,0.014103,0.023029,4.752e-07,0.29,0.37,0
0.013509,0.0035384,0.029031,0.0033217,0.0097059,0.0007419,0,0,0.050246,-0.016599,0,0.0038579,0,0,0,0.029053,0.0033003,0.0097059,1.6516,0.01402,0.023222,4.8198e-07,0.3,0.37,0
0.014012,0.0035906,0.029059,0.0031077,0.00965,0.00067267,0,0,0.050463,-0.01701,0,0.0034979,0,0,0,0.029076,0.0030903,0.00965,1.4838,0.013939,0.023406,4.8835e-07,0.31,0.37,0
0.014518,0.0036396,0.029083,0.0029026,0.0095956,0.00060644,0,0,0.050666,-0.017402,0,0.0031535,0,0,0,0.029097,0.0028886,0.0095956,1.3263,0.01386,0.023581,4.9431e-07,0.32,0.37,0
0.015026,0.0036856,0.029102,0.0027064,0.0095426,0.00054324,0,0,0.050855,-0.017774,0,0.0028248,0,0,0,0.029114,0.0026952,0.0095426,1.1785,0.013784,0.023747,4.9988e-07,0.33,0.37,0
0.015535,0.0037287,0.029119,0.0025188,0.0094913,0.00048304,0,0,0.051032,-0.018128,0,0.0025118,0,0,0,0.029128,0.00251,0.0094913,1.04,0.01371,0.023904,5.0504e-07,0.34,0.37,0
0.016046,0.0037689,0.029132,0.0023397,0.0094414,0.00042583,0,0,0.051195,-0.018464,0,0.0022143,0,0,0,0.029138,0.0023329,0.0094414,0.91034,0.013638,0.024052,5.0983e-07,0.35,0.37,0
0.016559,0.0038065,0.029141,0.0021689,0.0093931,0.00037156,0,0,0.051346,-0.018783,0,0.0019321,0,0,0,0.029146,0.0021638,0.0093931,0.78909,0.013568,0.024192,5.1425e-07,0.36,0.37,0
0.017073,0.0038414,0.029148,0.0020063,0.0093463,0.00032021,0,0,0.051485,-0.019084,0,0.0016651,0,0,0,0.029152,0.0020025,0.0093463,0.67582,0.0135,0.024324,5.1831e-07,0.37,0.37,0
0.017589,0.0038739,0.029152,0.0018516,0.0093011,0.00027171,0,0,0.051612,-0.019369,0,0.0014129,0,0,0,0.029155,0.0018489,0.0093011,0.57016,0.013435,0.024447,5.2203e-07,0.38,0.37,0
0.018106,0.003904,0.029153,0.0017045,0.0092574,0.00022601,0,0,0.05173,-0.019637,0,0.0011753,0,0,0,0.029155,0.0017027,0.0092574,0.47172,0.013372,0.024563,5.2542e-07,0.39,0.37,0
0.018623,0.0039319,0.029152,0.001565,0.0092152,0.00018305,0,0,0.051837,-0.019891,0,0.00095186,0,0,0,0.029154,0.0015637,0.0092152,0.38015,0.013311,0.024671,5.285e-07,0.4,0.37,0
0.019142,0.0039577,0.029149,0.0014326,0.0091745,0.00014275,0,0,0.051934,-0.020129,0,0.00074232,0,0,0,0.02915,0.0014319,0.0091745,0.29509,0.013252,0.024771,5.3128e-07,0.41,0.37,0
0.019662,0.0039814,0.029144,0.0013073,0.0091353,0.00010505,0,0,0.052022,-0.020353,0,0.00054626,0,0,0,0.029144,0.0013069,0.0091353,0.21622,0.013195,0.024865,5.3377e-07,0.42,0.37,0
0.020183,0.0040031,0.029137,0.0011886,0.0090976,6.9859e-05,0,0,0.052102,-0.020563,0,0.00036327,0,0,0,0.029137,0.0011885,0.0090976,0.14322,0.013141,0.024952,5.36e-07,0.43,0.37,0
0.020704,0.0040231,0.029128,0.0010765,0.0090613,3.7099e-05,0,0,0.052173,-0.02076,0,0.00019292,0,0,0,0.029128,0.0010765,0.0090613,0.075777,0.013088,0.025033,5.3798e-07,0.44,0.37,0
0.021226,0.0040413,0.029117,0.00097065,0.0090264,6.6868e-06,0,0,0.052236,-0.020945,0,3.4772e-05,0,0,0,0.029117,0.00097065,0.0090264,0.013612,0.013038,0.025108,5.3972e-07,0.45,0.37,0
0.021749,0.0040579,0.029105,0.0008708,0.0089929,-2.1464e-05,0,0,0.052293,-0.021117,0,-0.00011161,0,0,0,0.029105,0.00087078,0.0089929,-0.043556,0.01299,0.025176,5.4124e-07,0.46,0.37,0
0.022272,0.0040729,0.029092,0.00077671,0.0089607,-4.7439e-05,0,0,0.052342,-0.021278,0,-0.00024669,0,0,0,0.029092,0.00077663,0.0089607,-0.095992,0.012943,0.025239,5.4255e-07,0.47,0.37,0
0.022796,0.0040864,0.029078,0.00068815,0.0089299,-7.1327e-05,0,0,0.052385,-0.021428,0,-0.0003709,0,0,0,0.029078,0.00068797,0.0089299,-0.14395,0.012899,0.025297,5.4367e-07,0.48,0.37,0
0.02332,0.0040986,0.029063,0.00060489,0.0089003,-9.3214e-05,0,0,0.052423,-0.021568,0,-0.00048471,0,0,0,0.029063,0.00060458,0.0089003,-0.18767,0.012856,0.02535,5.446e-07,0.49,0.37,0
0.023844,0.0041095,0.029047,0.00052669,0.0088721,-0.00011319,0,0,0.052454,-0.021698,0,-0.00058857,0,0,0,0.029047,0.00052624,0.0088721,-0.22738,0.012815,0.025398,5.4537e-07,0.5,0.37,0
0.024369,0.0041192,0.02903,0.00045332,0.008845,-0.00013133,0,0,0.052481,-0.021818,0,-0.00068292,0,0,0,0.029031,0.00045271,0.008845,-0.26331,0.012776,0.025442,5.4598e-07,0.51,0.37,0
0.024894,0.0041277,0.029013,0.00038456,0.0088191,-0.00014773,0,0,0.052503,-0.02193,0,-0.0007682,0,0,0,0.029013,0.0003838,0.0088191,-0.29566,0.012739,0.025481,5.4645e-07,0.52,0.37,0
0.025419,0.0041352,0.028994,0.0003202,0.0087944,-0.00016247,0,0,0.05252,-0.022033,0,-0.00084485,0,0,0,0.028995,0.00031928,0.0087944,-0.32463,0.012703,0.025517,5.4679e-07,0.53,0.37,0
0.025944,0.0041416,0.028976,0.00026002,0.0087708,-0.00017563,0,0,0.052533,-0.022128,0,-0.00091328,0,0,0,0.028977,0.00025894,0.0087708,-0.35041,0.012669,0.025549,5.4701e-07,0.54,0.37,0
0.026469,0.0041472,0.028957,0.00020382,0.0087483,-0.00018729,0,0,0.052543,-0.022216,0,-0.00097391,0,0,0,0.028958,0.00020259,0.0087483,-0.37319,0.012636,0.025577,5.4711e-07,0.55,0.37,0
0.026995,0.0041519,0.028938,0.00015139,0.0087268,-0.00019753,0,0,0.052549,-0.022296,0,-0.0010271,0,0,0,0.028939,0.00015003,0.0087268,-0.39313,0.012605,0.025602,5.4712e-07,0.56,0.37,0
0.02752,0.0041557,0.028919,0.00010255,0.0087064,-0.00020642,0,0,0.052552,-0.02237,0,-0.0010734,0,0,0,0.02892,0.00010107,0.0087064,-0.4104,0.012576,0.025624,5.4704e-07,0.57,0.37,0
0.028046,0.0041589,0.028899,5.7107e-05,0.0086869,-0.00021403,0,0,0.052552,-0.022437,0,-0.001113,0,0,0,0.028901,5.5519e-05,0.0086869,-0.42515,0.012548,0.025643,5.4687e-07,0.58,0.37,0
0.028572,0.0041613,0.02888,1.4879e-05,0.0086684,-0.00022044,0,0,0.05255,-0.022499,0,-0.0011463,0,0,0,0.028882,1.3195e-05,0.0086684,-0.43753,0.012521,0.02566,5.4663e-07,0.59,0.37,0
0.029097,0.0041632,0.02886,-2.4309e-05,0.0086508,-0.00022571,0,0,0.052545,-0.022555,0,-0.0011737,0,0,0,0.028862,-2.6073e-05,0.0086508,-0.44768,0.012496,0.025674,5.4632e-07,0.6,0.37,0
0.029622,0.0041644,0.028841,-6.0625e-05,0.0086341,-0.00022991,0,0,0.052538,-0.022606,0,-0.0011955,0,0,0,0.028843,-6.2454e-05,0.0086341,-0.45575,0.012471,0.025686,5.4596e-07,0.61,0.37,0
0.030148,0.0041651,0.028821,-9.4232e-05,0.0086182,-0.0002331,0,0,0.052529,-0.022652,0,-0.0012121,0,0,0,0.028823,-9.6111e-05,0.0086182,-0.46183,0.012448,0.025696,5.4554e-07,0.62,0.37,0
0.030673,0.0041654,0.028802,-0.00012529,0.0086031,-0.00023533,0,0,0.052518,-0.022694,0,-0.0012237,0,0,0,0.028804,-0.0001272,0.0086031,-0.46608,0.012427,0.025704,5.4508e-07,0.63,0.37,0
0.031198,0.0041652,0.028783,-0.00015394,0.0085888,-0.00023668,0,0,0.052506,-0.022731,0,-0.0012307,0,0,0,0.028785,-0.00015587,0.0085888,-0.46858,0.012406,0.02571,5.4458e-07,0.64,0.37,0
0.031723,0.0041646,0.028765,-0.00018033,0.0085753,-0.00023718,0,0,0.052492,-0.022765,0,-0.0012334,0,0,0,0.028767,-0.00018227,0.0085753,-0.46946,0.012387,0.025714,5.4405e-07,0.65,0.37,0
0.032248,0.0041636,0.028746,-0.0002046,0.0085625,-0.00023691,0,0,0.052478,-0.022794,0,-0.0012319,0,0,0,0.028748,-0.00020654,0.0085625,-0.46881,0.012368,0.025717,5.4349e-07,0.66,0.37,0
0.032773,0.0041623,0.028728,-0.00022689,0.0085504,-0.00023589,0,0,0.052462,-0.022821,0,-0.0012266,0,0,0,0.02873,-0.00022881,0.0085504,-0.46673,0.012351,0.025719,5.429e-07,0.67,0.37,0
0.033297,0.0041608,0.02871,-0.00024731,0.0085389,-0.00023418,0,0,0.052446,-0.022844,0,-0.0012178,0,0,0,0.028712,-0.00024921,0.0085389,-0.46331,0.012334,0.025719,5.423e-07,0.68,0.37,0
0.033822,0.0041589,0.028693,-0.000266,0.0085281,-0.00023183,0,0,0.052429,-0.022865,0,-0.0012055,0,0,0,0.028695,-0.00026785,0.0085281,-0.45865,0.012318,0.025719,5.4169e-07,0.69,0.37,0
0.034346,0.0041569,0.028676,-0.00028306,0.0085179,-0.00022888,0,0,0.052411,-0.022883,0,-0.0011902,0,0,0,0.028678,-0.00028487,0.0085179,-0.45281,0.012304,0.025717,5.4106e-07,0.7,0.37,0
0.03487,0.0041547,0.02866,-0.0002986,0.0085083,-0.00022537,0,0,0.052393,-0.022898,0,-0.0011719,0,0,0,0.028661,-0.00030036,0.0085083,-0.44588,0.01229,0.025715,5.4043e-07,0.71,0.37,0
0.035394,0.0041523,0.028643,-0.00031274,0.0084992,-0.00022134,0,0,0.052375,-0.022911,0,-0.0011509,0,0,0,0.028645,-0.00031443,0.0084992,-0.43793,0.012277,0.025712,5.398e-07,0.72,0.37,0
0.035917,0.0041499,0.028628,-0.00032556,0.0084907,-0.00021682,0,0,0.052357,-0.022922,0,-0.0011274,0,0,0,0.028629,-0.00032719,0.0084907,-0.42902,0.012264,0.025708,5.3916e-07,0.73,0.37,0
0.036441,0.0041472,0.028613,-0.00033718,0.0084827,-0.00021184,0,0,0.052338,-0.022932,0,-0.0011016,0,0,0,0.028614,-0.00033873,0.0084827,-0.41924,0.012253,0.025704,5.3853e-07,0.74,0.37,0
0.036964,0.0041446,0.028598,-0.00034766,0.0084752,-0.00020645,0,0,0.05232,-0.022939,0,-0.0010735,0,0,0,0.0286,-0.00034914,0.0084752,-0.40863,0.012242,0.025699,5.3791e-07,0.75,0.37,0
0.037487,0.0041418,0.028584,-0.00035711,0.0084681,-0.00020067,0,0,0.052302,-0.022946,0,-0.0010435,0,0,0,0.028585,-0.00035851,0.0084681,-0.39725,0.012232,0.025694,5.373e-07,0.76,0.37,0
0.03801,0.0041391,0.02857,-0.00036561,0.0084615,-0.00019453,0,0,0.052283,-0.02295,0,-0.0010115,0,0,0,0.028572,-0.00036691,0.0084615,-0.38516,0.012222,0.025689,5.3669e-07,0.77,0.37,0
0.038533,0.0041363,0.028557,-0.00037321,0.0084553,-0.00018805,0,0,0.052266,-0.022954,0,-0.00097789,0,0,0,0.028559,-0.00037444,0.0084553,-0.37241,0.012213,0.025683,5.361e-07,0.78,0.37,0
0.039055,0.0041335,0.028545,-0.00038002,0.0084495,-0.00018127,0,0,0.052248,-0.022957,0,-0.00094262,0,0,0,0.028546,-0.00038115,0.0084495,-0.35905,0.012205,0.025677,5.3553e-07,0.79,0.37,0
0.039578,0.0041307,0.028533,-0.00038607,0.0084441,-0.00017421,0,0,0.052231,-0.022958,0,-0.00090587,0,0,0,0.028534,-0.00038712,0.0084441,-0.34513,0.012197,0.025671,5.3497e-07,0.8,0.37,0
0.0401,0.004128,0.028522,-0.00039146,0.0084391,-0.00016688,0,0,0.052215,-0.022959,0,-0.00086777,0,0,0,0.028523,-0.00039242,0.0084391,-0.33068,0.01219,0.025665,5.3443e-07,0.81,0.37,0
0.040622,0.0041253,0.028511,-0.00039622,0.0084344,-0.00015931,0,0,0.052199,-0.02296,0,-0.00082842,0,0,0,0.028512,-0.0003971,0.0084344,-0.31576,0.012183,0.025659,5.3391e-07,0.82,0.37,0
0.041144,0.0041227,0.028501,-0.00040043,0.0084301,-0.00015153,0,0,0.052184,-0.022959,0,-0.00078793,0,0,0,0.028501,-0.00040122,0.0084301,-0.30038,0.012177,0.025654,5.3341e-07,0.83,0.37,0
0.041666,0.0041202,0.028491,-0.00040412,0.008426,-0.00014354,0,0,0.052169,-0.022958,0,-0.00074639,0,0,0,0.028492,-0.00040484,0.008426,-0.28461,0.012171,0.025648,5.3294e-07,0.84,0.37,0
0.042187,0.0041178,0.028482,-0.00040736,0.0084224,-0.00013536,0,0,0.052155,-0.022957,0,-0.00070389,0,0,0,0.028483,-0.00040799,0.0084224,-0.26846,0.012166,0.025642,5.3248e-07,0.85,0.37,0
0.042709,0.0041155,0.028473,-0.00041018,0.0084189,-0.00012702,0,0,0.052141,-0.022956,0,-0.00066052,0,0,0,0.028474,-0.00041074,0.0084189,-0.25197,0.012161,0.025637,5.3206e-07,0.86,0.37,0
0.04323,0.0041133,0.028465,-0.00041264,0.0084158,-0.00011853,0,0,0.052129,-0.022954,0,-0.00061636,0,0,0,0.028466,-0.00041312,0.0084158,-0.23517,0.012156,0.025632,5.3166e-07,0.87,0.37,0
0.043751,0.0041112,0.028458,-0.00041475,0.008413,-0.0001099,0,0,0.052117,-0.022952,0,-0.00057149,0,0,0,0.028459,-0.00041517,0.008413,-0.21809,0.012152,0.025627,5.3128e-07,0.88,0.37,0
0.044273,0.0041093,0.028451,-0.00041658,0.0084104,-0.00010115,0,0,0.052106,-0.02295,0,-0.00052597,0,0,0,0.028452,-0.00041693,0.0084104,-0.20075,0.012148,0.025622,5.3094e-07,0.89,0.37,0
0.044794,0.0041075,0.028445,-0.00041813,0.0084081,-9.2284e-05,0,0,0.052096,-0.022948,0,-0.00047988,0,0,0,0.028445,-0.00041843,0.0084081,-0.18319,0.012145,0.025618,5.3062e-07,0.9,0.37,0
0.045315,0.0041058,0.02844,-0.00041946,0.008406,-8.3322e-05,0,0,0.052087,-0.022946,0,-0.00043328,0,0,0,0.02844,-0.0004197,0.008406,-0.16542,0.012142,0.025614,5.3033e-07,0.91,0.37,0
0.045835,0.0041043,0.028435,-0.00042057,0.0084042,-7.4274e-05,0,0,0.052079,-0.022944,0,-0.00038622,0,0,0,0.028435,-0.00042076,0.0084042,-0.14748,0.012139,0.02561,5.3007e-07,0.92,0.37,0
0.046356,0.004103,0.02843,-0.0004215,0.0084026,-6.5149e-05,0,0,0.052072,-0.022943,0,-0.00033878,0,0,0,0.02843,-0.00042164,0.0084026,-0.12938,0.012137,0.025607,5.2984e-07,0.93,0.37,0
0.046877,0.0041018,0.028426,-0.00042226,0.0084012,-5.596e-05,0,0,0.052065,-0.022941,0,-0.00029099,0,0,0,0.028426,-0.00042237,0.0084012,-0.11114,0.012135,0.025604,5.2964e-07,0.94,0.37,0
0.047397,0.0041008,0.028423,-0.00042288,0.0084001,-4.6715e-05,0,0,0.05206,-0.02294,0,-0.00024292,0,0,0,0.028423,-0.00042295,0.0084001,-0.092789,0.012133,0.025601,5.2947e-07,0.95,0.37,0
0.047918,0.0041,0.02842,-0.00042336,0.0083991,-3.7426e-05,0,0,0.052055,-0.022939,0,-0.00019461,0,0,0,0.028421,-0.00042341,0.0083991,-0.074343,0.012132,0.025599,5.2933e-07,0.96,0.37,0
0.048439,0.0040994,0.028418,-0.00042372,0.0083984,-2.81e-05,0,0,0.052052,-0.022937,0,-0.00014612,0,0,0,0.028418,-0.00042375,0.0083984,-0.055822,0.012131,0.025598,5.2922e-07,0.97,0.37,0
0.048959,0.0040989,0.028417,-0.00042398,0.0083979,-1.8748e-05,0,0,0.052049,-0.022937,0,-9.7491e-05,0,0,0,0.028417,-0.00042399,0.0083979,-0.037246,0.01213,0.025597,5.2914e-07,0.98,0.37,0
0.04948,0.0040986,0.028416,-0.00042413,0.0083976,-9.3785e-06,0,0,0.052048,-0.022936,0,-4.8768e-05,0,0,0,0.028416,-0.00042413,0.0083976,-0.018632,0.01213,0.025596,5.2909e-07,0.99,0.37,0
0.05,0.0040986,0.028416,-0.00042417,0.0083975,-1.7643e-06,0,0,0.052047,-0.022936,0,-9.1741e-06,0,0,0,0.028416,-0.00042417,0.0083975,-0.003505,0.01213,0.025596,5.2908e-07,1,0.37,0
0,0,0.026774,0.011475,0.011475,0.0034732,0,0,0.039779,-1.7618e-19,0,0.018061,0,0,0,0.027526,0.010723,0.011475,12.21,0.016574,0.01644,2.2659e-07,0,0.38,0
0.00039779,0.00018061,0.026767,0.011336,0.011431,0.0034571,0,0,0.039874,-0.00024605,0,0.017977,0,0,0,0.027506,0.010597,0.011431,12.068,0.016511,0.016508,2.2906e-07,0.01,0.38,0
0.00079747,0.00035813,0.026821,0.0112,0.011406,0.0033975,0,0,0.040079,-0.00053732,0,0.017667,0,0,0,0.027528,0.010493,0.011406,11.754,0.016476,0.016598,2.3244e-07,0.02,0.38,0
0.0011994,0.00053182,0.026884,0.011038,0.011376,0.0033193,0,0,0.040319,-0.0008809,0,0.017261,0,0,0,0.027551,0.01037,0.011376,11.366,0.016433,0.0167,2.363e-07,0.03,0.38,0
0.0016039,0.00070108,0.026955,0.010849,0.011341,0.0032267,0,0,0.040596,-0.0012798,0,0.016779,0,0,0,0.027578,0.010227,0.011341,10.918,0.016382,0.016821,2.4085e-07,0.04,0.38,0
0.0020113,0.00086545,0.027036,0.010634,0.011301,0.0031236,0,0,0.04091,-0.0017333,0,0.016243,0,0,0,0.027611,0.01006,0.011301,10.426,0.016324,0.016964,2.4622e-07,0.05,0.38,0
0.0024221,0.0010246,0.027125,0.010395,0.011256,0.0030137,0,0,0.041258,-0.0022375,0,0.015671,0,0,0,0.027651,0.0098691,0.011256,9.9069,0.016259,0.017131,2.5249e-07,0.06,0.38,0
0.0028365,0.0011784,0.02722,0.010135,0.011206,0.0028998,0,0,0.041636,-0.0027866,0,0.015079,0,0,0,0.027699,0.009656,0.011206,9.3747,0.016187,0.01732,2.5965e-07,0.07,0.38,0
0.0032548,0.0013268,0.027322,0.0098555,0.011153,0.0027841,0,0,0.042038,-0.0033738,0,0.014478,0,0,0,0.027755,0.0094225,0.011153,8.8413,0.01611,0.017531,2.6765e-07,0.08,0.38,0
0.0036772,0.0014696,0.027427,0.0095611,0.011096,0.0026683,0,0,0.042459,-0.0039917,0,0.013875,0,0,0,0.027817,0.0091711,0.011096,8.3156,0.016028,0.017761,2.7641e-07,0.09,0.38,0
0.004104,0.001607,0.027534,0.0092545,0.011037,0.0025533,0,0,0.042894,-0.0046334,0,0.013277,0,0,0,0.027884,0.0089046,0.011037,7.8041,0.015942,0.018008,2.8583e-07,0.1,0.38,0
0.0045351,0.001739,0.027643,0.0089389,0.010974,0.0024398,0,0,0.043337,-0.0052923,0,0.012687,0,0,0,0.027956,0.0086259,0.010974,7.311,0.015852,0.018269,2.9578e-07,0.11,0.38,0
0.0049707,0.0018658,0.02775,0.0086169,0.01091,0.0023282,0,0,0.043784,-0.0059625,0,0.012106,0,0,0,0.02803,0.0083377,0.01091,6.8389,0.015759,0.01854,3.0617e-07,0.12,0.38,0
0.0054108,0.0019873,0.027857,0.0082909,0.010844,0.0022186,0,0,0.044233,-0.0066389,0,0.011537,0,0,0,0.028105,0.0080425,0.010844,6.3888,0.015664,0.018819,3.1687e-07,0.13,0.38,0
0.0058553,0.0021038,0.027961,0.007963,0.010777,0.0021112,0,0,0.044678,-0.007317,0,0.010978,0,0,0,0.028182,0.0077425,0.010777,5.9612,0.015567,0.019103,3.278e-07,0.14,0.38,0
0.0063044,0.0022153,0.028062,0.007635,0.010709,0.002006,0,0,0.045118,-0.0079928,0,0.010431,0,0,0,0.028257,0.0074399,0.010709,5.5559,0.015469,0.019391,3.3886e-07,0.15,0.38,0
0.0067577,0.002322,0.02816,0.0073085,0.010641,0.001903,0,0,0.045551,-0.0086632,0,0.0098957,0,0,0,0.028332,0.0071363,0.010641,5.1722,0.01537,0.019679,3.4995e-07,0.16,0.38,0
0.0072154,0.002424,0.028254,0.006985,0.010572,0.0018022,0,0,0.045973,-0.0093252,0,0.0093716,0,0,0,0.028405,0.0068333,0.010572,4.8093,0.01527,0.019967,3.6102e-07,0.17,0.38,0
0.0076772,0.0025214,0.028343,0.0066654,0.010502,0.0017037,0,0,0.046385,-0.0099765,0,0.0088591,0,0,0,0.028476,0.0065324,0.010502,4.4664,0.01517,0.020253,3.7198e-07,0.18,0.38,0
0.0081431,0.0026142,0.028428,0.006351,0.010434,0.0016074,0,0,0.046785,-0.010615,0,0.0083584,0,0,0,0.028544,0.0062346,0.010434,4.1425,0.015071,0.020535,3.8279e-07,0.19,0.38,0
0.0086129,0.0027028,0.028508,0.0060424,0.010365,0.0015134,0,0,0.047171,-0.011239,0,0.0078696,0,0,0,0.028609,0.0059409,0.010365,3.8367,0.014972,0.020812,3.9338e-07,0.2,0.38,0
0.0090865,0.002787,0.028583,0.0057405,0.010297,0.0014217,0,0,0.047543,-0.011847,0,0.007393,0,0,0,0.028671,0.0056524,0.010297,3.5479,0.014873,0.021084,4.0372e-07,0.21,0.38,0
0.0095637,0.0028672,0.028653,0.0054458,0.01023,0.0013325,0,0,0.047901,-0.012438,0,0.006929,0,0,0,0.028729,0.0053696,0.01023,3.2754,0.014776,0.021349,4.1376e-07,0.22,0.38,0
0.010044,0.0029433,0.028718,0.0051589,0.010163,0.0012457,0,0,0.048243,-0.013011,0,0.0064777,0,0,0,0.028784,0.0050932,0.010163,3.0183,0.01468,0.021607,4.2347e-07,0.23,0.38,0
0.010529,0.0030154,0.028778,0.0048801,0.010098,0.0011615,0,0,0.04857,-0.013565,0,0.0060395,0,0,0,0.028835,0.0048237,0.010098,2.7758,0.014585,0.021857,4.3283e-07,0.24,0.38,0
0.011016,0.0030838,0.028834,0.0046097,0.010033,0.0010798,0,0,0.048882,-0.014101,0,0.0056148,0,0,0,0.028882,0.0045616,0.010033,2.5472,0.014492,0.022099,4.4181e-07,0.25,0.38,0
0.011506,0.0031486,0.028884,0.0043479,0.0099697,0.0010007,0,0,0.049178,-0.014616,0,0.0052039,0,0,0,0.028925,0.0043072,0.0099697,2.3317,0.014401,0.022332,4.5039e-07,0.26,0.38,0
0.011999,0.0032097,0.02893,0.0040951,0.0099075,0.00092443,0,0,0.049458,-0.015112,0,0.004807,0,0,0,0.028964,0.0040607,0.0099075,2.1288,0.014311,0.022556,4.5857e-07,0.27,0.38,0
0.012495,0.0032674,0.028971,0.0038512,0.0098467,0.00085085,0,0,0.049723,-0.015588,0,0.0044244,0,0,0,0.029,0.0038224,0.0098467,1.9377,0.014223,0.022771,4.6634e-07,0.28,0.38,0
0.012994,0.0033218,0.029008,0.0036163,0.0097872,0.00078004,0,0,0.049973,-0.016044,0,0.0040562,0,0,0,0.029032,0.0035923,0.0097872,1.7579,0.014137,0.022977,4.7369e-07,0.29,0.38,0
0.013495,0.003373,0.02904,0.0033904,0.0097291,0.00071204,0,0,0.050208,-0.016481,0,0.0037026,0,0,0,0.02906,0.0033706,0.0097291,1.5889,0.014053,0.023174,4.8063e-07,0.3,0.38,0
0.013998,0.0034211,0.029068,0.0031734,0.0096725,0.00064686,0,0,0.050429,-0.016898,0,0.0033637,0,0,0,0.029084,0.0031573,0.0096725,1.4301,0.013971,0.023361,4.8715e-07,0.31,0.38,0
0.014504,0.0034662,0.029093,0.0029655,0.0096174,0.00058451,0,0,0.050635,-0.017295,0,0.0030394,0,0,0,0.029106,0.0029524,0.0096174,1.281,0.013892,0.023539,4.9325e-07,0.32,0.38,0
0.015011,0.0035084,0.029113,0.0027663,0.0095638,0.00052498,0,0,0.050828,-0.017674,0,0.0027299,0,0,0,0.029124,0.0027558,0.0095638,1.1411,0.013814,0.023709,4.9895e-07,0.33,0.38,0
0.01552,0.0035479,0.02913,0.0025758,0.0095117,0.00046826,0,0,0.051008,-0.018034,0,0.0024349,0,0,0,0.029138,0.0025675,0.0095117,1.0099,0.013739,0.023869,5.0426e-07,0.34,0.38,0
0.016031,0.0035847,0.029144,0.0023938,0.0094612,0.00041432,0,0,0.051174,-0.018375,0,0.0021545,0,0,0,0.02915,0.0023874,0.0094612,0.88716,0.013666,0.02402,5.0917e-07,0.35,0.38,0
0.016543,0.0036191,0.029154,0.0022202,0.0094123,0.00036314,0,0,0.051328,-0.018699,0,0.0018883,0,0,0,0.029159,0.0022153,0.0094123,0.77232,0.013595,0.024163,5.1372e-07,0.36,0.38,0
0.017057,0.003651,0.029161,0.0020548,0.0093648,0.00031467,0,0,0.051471,-0.019006,0,0.0016363,0,0,0,0.029165,0.0020511,0.0093648,0.66501,0.013527,0.024297,5.179e-07,0.37,0.38,0
0.017573,0.0036806,0.029166,0.0018973,0.009319,0.00026887,0,0,0.051602,-0.019296,0,0.0013981,0,0,0,0.029169,0.0018947,0.009319,0.56486,0.013461,0.024423,5.2173e-07,0.38,0.38,0
0.01809,0.003708,0.029168,0.0017476,0.0092747,0.00022568,0,0,0.051722,-0.01957,0,0.0011735,0,0,0,0.02917,0.0017458,0.0092747,0.47152,0.013397,0.024542,5.2523e-07,0.39,0.38,0
0.018607,0.0037333,0.029167,0.0016054,0.0092319,0.00018504,0,0,0.051832,-0.019829,0,0.0009622,0,0,0,0.029169,0.0016042,0.0092319,0.38463,0.013335,0.024652,5.2842e-07,0.4,0.38,0
0.019126,0.0037567,0.029165,0.0014705,0.0091906,0.00014689,0,0,0.051933,-0.020072,0,0.00076381,0,0,0,0.029166,0.0014698,0.0091906,0.30388,0.013275,0.024755,5.3129e-07,0.41,0.38,0
0.019646,0.0037781,0.02916,0.0013427,0.0091508,0.00011115,0,0,0.052024,-0.020301,0,0.000578,0,0,0,0.02916,0.0013423,0.0091508,0.22894,0.013218,0.024852,5.3389e-07,0.42,0.38,0
0.020167,0.0037977,0.029153,0.0012217,0.0091125,7.7766e-05,0,0,0.052106,-0.020516,0,0.00040438,0,0,0,0.029153,0.0012215,0.0091125,0.15952,0.013163,0.024941,5.362e-07,0.43,0.38,0
0.020688,0.0038157,0.029145,0.0011073,0.0090756,4.6651e-05,0,0,0.05218,-0.020718,0,0.00024258,0,0,0,0.029145,0.0011072,0.0090756,0.095333,0.013109,0.025024,5.3826e-07,0.44,0.38,0
0.02121,0.003832,0.029135,0.00099918,0.0090402,1.773e-05,0,0,0.052246,-0.020907,0,9.2195e-05,0,0,0,0.029135,0.00099917,0.0090402,0.036105,0.013058,0.0251,5.4008e-07,0.45,0.38,0
0.021733,0.0038469,0.029123,0.00089718,0.0090061,-9.0762e-06,0,0,0.052304,-0.021083,0,-4.7196e-05,0,0,0,0.029123,0.00089718,0.0090061,-0.018424,0.013009,0.025171,5.4167e-07,0.46,0.38,0
0.022256,0.0038602,0.029111,0.00080103,0.0089734,-3.3847e-05,0,0,0.052356,-0.021248,0,-0.000176,0,0,0,0.029111,0.00080099,0.0089734,-0.068502,0.012962,0.025236,5.4305e-07,0.47,0.38,0
0.02278,0.0038723,0.029097,0.00071049,0.0089421,-5.6661e-05,0,0,0.052401,-0.021402,0,-0.00029464,0,0,0,0.029097,0.00071038,0.0089421,-0.11437,0.012916,0.025296,5.4422e-07,0.48,0.38,0
0.023304,0.003883,0.029081,0.00062533,0.0089121,-7.7601e-05,0,0,0.052441,-0.021545,0,-0.00040353,0,0,0,0.029082,0.00062512,0.0089121,-0.15625,0.012873,0.02535,5.4521e-07,0.49,0.38,0
0.023829,0.0038926,0.029066,0.00054532,0.0088833,-9.6746e-05,0,0,0.052474,-0.021679,0,-0.00050308,0,0,0,0.029066,0.00054499,0.0088833,-0.19435,0.012831,0.0254,5.4603e-07,0.5,0.38,0
0.024354,0.0039011,0.029049,0.00047022,0.0088558,-0.00011417,0,0,0.052502,-0.021802,0,-0.00059371,0,0,0,0.029049,0.00046976,0.0088558,-0.2289,0.012792,0.025445,5.4669e-07,0.51,0.38,0
0.024879,0.0039084,0.029032,0.00039981,0.0088294,-0.00012996,0,0,0.052526,-0.021917,0,-0.00067581,0,0,0,0.029032,0.00039922,0.0088294,-0.26007,0.012754,0.025486,5.472e-07,0.52,0.38,0
0.025404,0.0039149,0.029014,0.00033388,0.0088042,-0.00014419,0,0,0.052544,-0.022023,0,-0.0007498,0,0,0,0.029014,0.00033315,0.0088042,-0.28806,0.012717,0.025523,5.4758e-07,0.53,0.38,0
0.02593,0.0039204,0.028995,0.0002722,0.0087802,-0.00015694,0,0,0.052559,-0.022121,0,-0.00081606,0,0,0,0.028996,0.00027135,0.0087802,-0.31304,0.012682,0.025556,5.4783e-07,0.54,0.38,0
0.026456,0.003925,0.028976,0.00021458,0.0087573,-0.00016826,0,0,0.05257,-0.022211,0,-0.00087498,0,0,0,0.028977,0.0002136,0.0087573,-0.33518,0.012649,0.025585,5.4796e-07,0.55,0.38,0
0.026981,0.0039289,0.028957,0.00016081,0.0087354,-0.00017825,0,0,0.052577,-0.022294,0,-0.00092692,0,0,0,0.028958,0.00015971,0.0087354,-0.35465,0.012618,0.025611,5.48e-07,0.56,0.38,0
0.027507,0.003932,0.028938,0.0001107,0.0087146,-0.00018697,0,0,0.052581,-0.02237,0,-0.00097224,0,0,0,0.028939,0.00010949,0.0087146,-0.37159,0.012588,0.025634,5.4794e-07,0.57,0.38,0
0.028033,0.0039345,0.028918,6.4052e-05,0.0086947,-0.00019448,0,0,0.052581,-0.02244,0,-0.0010113,0,0,0,0.02892,6.2742e-05,0.0086947,-0.38616,0.012559,0.025654,5.4779e-07,0.58,0.38,0
0.028559,0.0039363,0.028899,2.0686e-05,0.0086758,-0.00020085,0,0,0.05258,-0.022503,0,-0.0010444,0,0,0,0.0289,1.9289e-05,0.0086758,-0.39848,0.012532,0.025672,5.4757e-07,0.59,0.38,0
0.029084,0.0039376,0.028879,-1.9576e-05,0.0086579,-0.00020615,0,0,0.052575,-0.022561,0,-0.001072,0,0,0,0.028881,-2.1047e-05,0.0086579,-0.40869,0.012506,0.025687,5.4727e-07,0.6,0.38,0
0.02961,0.0039383,0.02886,-5.6905e-05,0.0086408,-0.00021043,0,0,0.052569,-0.022614,0,-0.0010942,0,0,0,0.028861,-5.8436e-05,0.0086408,-0.41691,0.012481,0.025699,5.4692e-07,0.61,0.38,0
0.030136,0.0039385,0.02884,-9.1466e-05,0.0086246,-0.00021375,0,0,0.05256,-0.022662,0,-0.0011115,0,0,0,0.028842,-9.3045e-05,0.0086246,-0.42327,0.012458,0.025709,5.4652e-07,0.62,0.38,0
0.030662,0.0039384,0.028821,-0.00012342,0.0086092,-0.00021616,0,0,0.05255,-0.022705,0,-0.0011241,0,0,0,0.028822,-0.00012503,0.0086092,-0.42787,0.012436,0.025718,5.4606e-07,0.63,0.38,0
0.031187,0.0039378,0.028802,-0.00015291,0.0085946,-0.00021773,0,0,0.052538,-0.022743,0,-0.0011322,0,0,0,0.028803,-0.00015455,0.0085946,-0.43082,0.012414,0.025724,5.4557e-07,0.64,0.38,0
0.031712,0.0039368,0.028783,-0.0001801,0.0085808,-0.0002185,0,0,0.052525,-0.022778,0,-0.0011362,0,0,0,0.028784,-0.00018175,0.0085808,-0.43223,0.012394,0.025729,5.4504e-07,0.65,0.38,0
0.032237,0.0039356,0.028764,-0.00020511,0.0085677,-0.00021853,0,0,0.052511,-0.022809,0,-0.0011363,0,0,0,0.028766,-0.00020676,0.0085677,-0.43217,0.012375,0.025733,5.4448e-07,0.66,0.38,0
0.032762,0.003934,0.028746,-0.00022809,0.0085553,-0.00021785,0,0,0.052495,-0.022837,0,-0.0011328,0,0,0,0.028747,-0.00022973,0.0085553,-0.43075,0.012358,0.025735,5.439e-07,0.67,0.38,0
0.033287,0.0039322,0.028728,-0.00024917,0.0085436,-0.00021651,0,0,0.052479,-0.022861,0,-0.0011258,0,0,0,0.028729,-0.00025079,0.0085436,-0.42806,0.012341,0.025736,5.433e-07,0.68,0.38,0
0.033812,0.0039302,0.02871,-0.00026846,0.0085325,-0.00021455,0,0,0.052462,-0.022883,0,-0.0011156,0,0,0,0.028712,-0.00027005,0.0085325,-0.42417,0.012325,0.025736,5.4268e-07,0.69,0.38,0
0.034337,0.003928,0.028693,-0.00028609,0.0085221,-0.00021202,0,0,0.052444,-0.022901,0,-0.0011025,0,0,0,0.028695,-0.00028764,0.0085221,-0.41916,0.01231,0.025734,5.4205e-07,0.7,0.38,0
0.034861,0.0039256,0.028676,-0.00030216,0.0085122,-0.00020895,0,0,0.052426,-0.022917,0,-0.0010865,0,0,0,0.028678,-0.00030367,0.0085122,-0.4131,0.012295,0.025732,5.4142e-07,0.71,0.38,0
0.035385,0.0039231,0.02866,-0.00031679,0.0085029,-0.00020537,0,0,0.052408,-0.022931,0,-0.0010679,0,0,0,0.028661,-0.00031825,0.0085029,-0.40606,0.012282,0.025729,5.4078e-07,0.72,0.38,0
0.035909,0.0039205,0.028644,-0.00033008,0.0084942,-0.00020133,0,0,0.05239,-0.022943,0,-0.0010469,0,0,0,0.028646,-0.00033148,0.0084942,-0.3981,0.012269,0.025726,5.4014e-07,0.73,0.38,0
0.036433,0.0039178,0.028629,-0.00034212,0.008486,-0.00019686,0,0,0.052371,-0.022953,0,-0.0010236,0,0,0,0.02863,-0.00034345,0.008486,-0.3893,0.012257,0.025722,5.3951e-07,0.74,0.38,0
0.036957,0.0039151,0.028614,-0.000353,0.0084782,-0.00019197,0,0,0.052353,-0.022961,0,-0.00099826,0,0,0,0.028615,-0.00035427,0.0084782,-0.3797,0.012246,0.025717,5.3888e-07,0.75,0.38,0
0.03748,0.0039122,0.028599,-0.00036282,0.008471,-0.00018671,0,0,0.052334,-0.022968,0,-0.00097091,0,0,0,0.028601,-0.00036402,0.008471,-0.36935,0.012236,0.025712,5.3826e-07,0.76,0.38,0
0.038003,0.0039094,0.028586,-0.00037165,0.0084642,-0.00018111,0,0,0.052316,-0.022973,0,-0.00094176,0,0,0,0.028587,-0.00037278,0.0084642,-0.35832,0.012226,0.025707,5.3765e-07,0.77,0.38,0
0.038526,0.0039066,0.028572,-0.00037958,0.0084578,-0.00017518,0,0,0.052298,-0.022977,0,-0.00091092,0,0,0,0.028574,-0.00038064,0.0084578,-0.34665,0.012217,0.025701,5.3705e-07,0.78,0.38,0
0.039049,0.0039038,0.02856,-0.00038667,0.0084519,-0.00016895,0,0,0.05228,-0.02298,0,-0.00087852,0,0,0,0.028561,-0.00038765,0.0084519,-0.33439,0.012208,0.025695,5.3647e-07,0.79,0.38,0
0.039572,0.003901,0.028547,-0.00039299,0.0084464,-0.00016244,0,0,0.052263,-0.022982,0,-0.00084469,0,0,0,0.028549,-0.00039391,0.0084464,-0.32158,0.0122,0.02569,5.359e-07,0.8,0.38,0
0.040094,0.0038983,0.028536,-0.00039862,0.0084412,-0.00015568,0,0,0.052246,-0.022984,0,-0.00080953,0,0,0,0.028537,-0.00039946,0.0084412,-0.30826,0.012193,0.025684,5.3536e-07,0.81,0.38,0
0.040617,0.0038956,0.028525,-0.00040362,0.0084364,-0.00014868,0,0,0.05223,-0.022984,0,-0.00077315,0,0,0,0.028526,-0.00040438,0.0084364,-0.29447,0.012186,0.025678,5.3483e-07,0.82,0.38,0
0.041139,0.003893,0.028515,-0.00040803,0.0084319,-0.00014147,0,0,0.052215,-0.022984,0,-0.00073565,0,0,0,0.028515,-0.00040872,0.0084319,-0.28025,0.012179,0.025672,5.3432e-07,0.83,0.38,0
0.041661,0.0038905,0.028505,-0.00041192,0.0084278,-0.00013406,0,0,0.0522,-0.022983,0,-0.00069713,0,0,0,0.028505,-0.00041254,0.0084278,-0.26563,0.012174,0.025666,5.3384e-07,0.84,0.38,0
0.042183,0.0038881,0.028495,-0.00041533,0.008424,-0.00012647,0,0,0.052186,-0.022982,0,-0.00065766,0,0,0,0.028496,-0.00041588,0.008424,-0.25064,0.012168,0.02566,5.3338e-07,0.85,0.38,0
0.042705,0.0038858,0.028487,-0.00041831,0.0084205,-0.00011872,0,0,0.052172,-0.022981,0,-0.00061734,0,0,0,0.028487,-0.0004188,0.0084205,-0.23532,0.012163,0.025655,5.3295e-07,0.86,0.38,0
0.043226,0.0038836,0.028479,-0.0004209,0.0084173,-0.00011082,0,0,0.052159,-0.022979,0,-0.00057624,0,0,0,0.028479,-0.00042133,0.0084173,-0.2197,0.012158,0.02565,5.3254e-07,0.87,0.38,0
0.043748,0.0038816,0.028471,-0.00042315,0.0084144,-0.00010278,0,0,0.052147,-0.022978,0,-0.00053443,0,0,0,0.028471,-0.00042352,0.0084144,-0.2038,0.012154,0.025645,5.3216e-07,0.88,0.38,0
0.044269,0.0038796,0.028464,-0.00042509,0.0084117,-9.4614e-05,0,0,0.052136,-0.022976,0,-0.00049199,0,0,0,0.028465,-0.0004254,0.0084117,-0.18764,0.01215,0.02564,5.3181e-07,0.89,0.38,0
0.044791,0.0038778,0.028458,-0.00042675,0.0084093,-8.6342e-05,0,0,0.052126,-0.022974,0,-0.00044898,0,0,0,0.028458,-0.00042701,0.0084093,-0.17127,0.012147,0.025636,5.3149e-07,0.9,0.38,0
0.045312,0.0038762,0.028452,-0.00042816,0.0084072,-7.7973e-05,0,0,0.052117,-0.022972,0,-0.00040546,0,0,0,0.028452,-0.00042837,0.0084072,-0.15469,0.012144,0.025632,5.3119e-07,0.91,0.38,0
0.045833,0.0038747,0.028447,-0.00042936,0.0084053,-6.9518e-05,0,0,0.052109,-0.02297,0,-0.00036149,0,0,0,0.028447,-0.00042953,0.0084053,-0.13794,0.012141,0.025628,5.3093e-07,0.92,0.38,0
0.046354,0.0038734,0.028442,-0.00043036,0.0084037,-6.0988e-05,0,0,0.052101,-0.022968,0,-0.00031714,0,0,0,0.028443,-0.00043048,0.0084037,-0.12102,0.012139,0.025625,5.3069e-07,0.93,0.38,0
0.046875,0.0038723,0.028439,-0.00043118,0.0084022,-5.2392e-05,0,0,0.052095,-0.022967,0,-0.00027244,0,0,0,0.028439,-0.00043127,0.0084022,-0.10398,0.012137,0.025622,5.3049e-07,0.94,0.38,0
0.047396,0.0038713,0.028435,-0.00043184,0.008401,-4.3742e-05,0,0,0.052089,-0.022965,0,-0.00022746,0,0,0,0.028435,-0.00043191,0.008401,-0.08682,0.012135,0.025619,5.3032e-07,0.95,0.38,0
0.047917,0.0038705,0.028433,-0.00043237,0.0084001,-3.5047e-05,0,0,0.052085,-0.022964,0,-0.00018225,0,0,0,0.028433,-0.00043241,0.0084001,-0.069568,0.012133,0.025618,5.3017e-07,0.96,0.38,0
0.048438,0.0038699,0.028431,-0.00043276,0.0083993,-2.6317e-05,0,0,0.052081,-0.022963,0,-0.00013685,0,0,0,0.028431,-0.00043279,0.0083993,-0.05224,0.012132,0.025616,5.3006e-07,0.97,0.38,0
0.048959,0.0038694,0.028429,-0.00043304,0.0083988,-1.7559e-05,0,0,0.052078,-0.022963,0,-9.1307e-05,0,0,0,0.028429,-0.00043305,0.0083988,-0.034857,0.012132,0.025615,5.2998e-07,0.98,0.38,0
0.049479,0.0038692,0.028428,-0.0004332,0.0083985,-8.7839e-06,0,0,0.052077,-0.022962,0,-4.5676e-05,0,0,0,0.028428,-0.0004332,0.0083985,-0.017438,0.012131,0.025614,5.2994e-07,0.99,0.38,0
0.05,0.0038691,0.028428,-0.00043325,0.0083984,-1.7376e-06,0,0,0.052076,-0.022962,0,-9.0355e-06,0,0,0,0.028428,-0.00043325,0.0083984,-0.0034495,0.012131,0.025614,5.2992e-07,1,0.38,0
0,0,0.026826,0.011497,0.011497,0.0034309,0,0,0.039855,0,0,0.01784,0,0,0,0.027558,0.010764,0.011497,12.057,0.016606,0.01644,2.267e-07,0,0.39,0
0.00039855,0.0001784,0.026822,0.01139,0.011464,0.0034124,0,0,0.039932,-0.0001907,0,0.017745,0,0,0,0.027543,0.010669,0.011464,11.929,0.016559,0.016491,2.2852e-07,0.01,0.39,0
0.00079863,0.00035324,0.026867,0.011276,0.011443,0.0033442,0,0,0.040104,-0.00043508,0,0.01739,0,0,0,0.027554,0.010589,0.011443,11.609,0.016529,0.016555,2.3095e-07,0.02,0.39,0
0.0012006,0.00052367,0.026922,0.01113,0.011416,0.0032558,0,0,0.040317,-0.00074197,0,0.01693,0,0,0,0.027567,0.010486,0.011416,11.204,0.01649,0.016636,2.3398e-07,0.03,0.39,0
0.001605,0.00068907,0.026988,0.010954,0.011383,0.0031526,0,0,0.040575,-0.0011145,0,0.016394,0,0,0,0.027586,0.010356,0.011383,10.733,0.016442,0.01674,2.3788e-07,0.04,0.39,0
0.0020121,0.000849,0.027065,0.010747,0.011344,0.0030398,0,0,0.040876,-0.0015509,0,0.015807,0,0,0,0.027613,0.010199,0.011344,10.217,0.016385,0.016871,2.4279e-07,0.05,0.39,0
0.0024225,0.0010032,0.027151,0.010512,0.011299,0.0029214,0,0,0.041216,-0.0020456,0,0.015191,0,0,0,0.027649,0.010014,0.011299,9.6744,0.016321,0.017029,2.4876e-07,0.06,0.39,0
0.0028364,0.0011515,0.027245,0.010253,0.01125,0.0028009,0,0,0.041589,-0.0025906,0,0.014564,0,0,0,0.027695,0.0098034,0.01125,9.1228,0.016249,0.017214,2.5577e-07,0.07,0.39,0
0.0032543,0.001294,0.027345,0.0099737,0.011196,0.0026804,0,0,0.041989,-0.0031773,0,0.013938,0,0,0,0.02775,0.0095695,0.011196,8.5751,0.016172,0.017424,2.6372e-07,0.08,0.39,0
0.0036762,0.0014307,0.02745,0.0096778,0.011138,0.0025616,0,0,0.042409,-0.003797,0,0.01332,0,0,0,0.027811,0.009316,0.011138,8.0406,0.016088,0.017655,2.7251e-07,0.09,0.39,0
0.0041025,0.0015616,0.027556,0.0093693,0.011078,0.0024452,0,0,0.042844,-0.0044416,0,0.012715,0,0,0,0.027879,0.0090462,0.011078,7.5254,0.016001,0.017904,2.82e-07,0.1,0.39,0
0.0045331,0.0016871,0.027663,0.0090512,0.011014,0.0023316,0,0,0.043287,-0.005104,0,0.012124,0,0,0,0.027951,0.0087636,0.011014,7.033,0.01591,0.018167,2.9206e-07,0.11,0.39,0
0.0049682,0.0018071,0.02777,0.0087267,0.010949,0.0022211,0,0,0.043734,-0.0057779,0,0.01155,0,0,0,0.028025,0.0084711,0.010949,6.5652,0.015815,0.018441,3.0256e-07,0.12,0.39,0
0.0054078,0.0019218,0.027875,0.0083982,0.010882,0.0021135,0,0,0.044182,-0.0064579,0,0.01099,0,0,0,0.028102,0.0081715,0.010882,6.1224,0.015718,0.018723,3.134e-07,0.13,0.39,0
0.0058518,0.0020315,0.027978,0.0080678,0.010814,0.0020088,0,0,0.044627,-0.0071396,0,0.010446,0,0,0,0.028179,0.0078671,0.010814,5.7043,0.01562,0.01901,3.2446e-07,0.14,0.39,0
0.0063003,0.0021363,0.028078,0.0077373,0.010745,0.001907,0,0,0.045067,-0.0078189,0,0.0099163,0,0,0,0.028255,0.0075601,0.010745,5.31,0.01552,0.019301,3.3564e-07,0.15,0.39,0
0.0067532,0.0022362,0.028174,0.0074084,0.010675,0.0018078,0,0,0.045499,-0.0084926,0,0.0094005,0,0,0,0.028331,0.0072523,0.010675,4.9384,0.015419,0.019592,3.4687e-07,0.16,0.39,0
0.0072103,0.0023316,0.028267,0.0070825,0.010605,0.0017112,0,0,0.045921,-0.0091579,0,0.0088981,0,0,0,0.028404,0.0069452,0.010605,4.5885,0.015318,0.019883,3.5807e-07,0.17,0.39,0
0.0076716,0.0024224,0.028355,0.0067606,0.010535,0.0016171,0,0,0.046333,-0.0098126,0,0.0084088,0,0,0,0.028475,0.0066402,0.010535,4.2589,0.015217,0.020172,3.6916e-07,0.18,0.39,0
0.008137,0.0025089,0.028439,0.0064438,0.010465,0.0015254,0,0,0.046732,-0.010455,0,0.0079323,0,0,0,0.028544,0.0063385,0.010465,3.9485,0.015116,0.020457,3.8009e-07,0.19,0.39,0
0.0086062,0.0025912,0.028518,0.0061329,0.010395,0.0014362,0,0,0.047119,-0.011082,0,0.0074684,0,0,0,0.02861,0.0060411,0.010395,3.6562,0.015015,0.020737,3.9081e-07,0.2,0.39,0
0.0090793,0.0026694,0.028592,0.0058286,0.010326,0.0013495,0,0,0.047491,-0.011694,0,0.0070173,0,0,0,0.028672,0.0057488,0.010326,3.3808,0.014916,0.021012,4.0127e-07,0.21,0.39,0
0.0095561,0.0027435,0.028662,0.0055315,0.010258,0.0012652,0,0,0.04785,-0.012289,0,0.0065788,0,0,0,0.028731,0.0054625,0.010258,3.1215,0.014817,0.02128,4.1144e-07,0.22,0.39,0
0.010036,0.0028139,0.028726,0.005242,0.01019,0.0011833,0,0,0.048193,-0.012866,0,0.0061531,0,0,0,0.028786,0.0051825,0.01019,2.8772,0.01472,0.021541,4.2128e-07,0.23,0.39,0
0.01052,0.0028805,0.028786,0.0049606,0.010124,0.0011039,0,0,0.048522,-0.013425,0,0.0057404,0,0,0,0.028837,0.0049096,0.010124,2.6472,0.014624,0.021794,4.3076e-07,0.24,0.39,0
0.011007,0.0029436,0.028841,0.0046877,0.010059,0.0010271,0,0,0.048835,-0.013965,0,0.0053409,0,0,0,0.028885,0.0046441,0.010059,2.4306,0.014529,0.022038,4.3987e-07,0.25,0.39,0
0.011497,0.0030031,0.028892,0.0044233,0.0099945,0.0009528,0,0,0.049133,-0.014485,0,0.0049546,0,0,0,0.028929,0.0043863,0.0099945,2.2266,0.014436,0.022274,4.4859e-07,0.26,0.39,0
0.011989,0.0030592,0.028937,0.0041678,0.0099316,0.0008811,0,0,0.049415,-0.014986,0,0.0045817,0,0,0,0.028969,0.0041365,0.0099316,2.0347,0.014346,0.022502,4.569e-07,0.27,0.39,0
0.012485,0.0031122,0.028979,0.0039212,0.0098699,0.00081201,0,0,0.049682,-0.015467,0,0.0042224,0,0,0,0.029005,0.0038949,0.0098699,1.8541,0.014257,0.02272,4.648e-07,0.28,0.39,0
0.012983,0.003162,0.029015,0.0036835,0.0098097,0.00074555,0,0,0.049935,-0.015928,0,0.0038768,0,0,0,0.029037,0.0036616,0.0098097,1.6843,0.01417,0.022929,4.7228e-07,0.29,0.39,0
0.013484,0.0032087,0.029048,0.0034549,0.0097509,0.00068173,0,0,0.050173,-0.016369,0,0.003545,0,0,0,0.029066,0.0034368,0.0097509,1.5248,0.014085,0.023128,4.7934e-07,0.3,0.39,0
0.013987,0.0032526,0.029077,0.0032353,0.0096936,0.00062057,0,0,0.050396,-0.016792,0,0.0032269,0,0,0,0.029091,0.0032204,0.0096936,1.3749,0.014002,0.023318,4.8598e-07,0.31,0.39,0
0.014492,0.0032937,0.029101,0.0030245,0.0096377,0.00056205,0,0,0.050605,-0.017194,0,0.0029226,0,0,0,0.029113,0.0030124,0.0096377,1.2342,0.013921,0.023499,4.9221e-07,0.32,0.39,0
0.014999,0.0033321,0.029122,0.0028226,0.0095834,0.00050617,0,0,0.050801,-0.017578,0,0.0026321,0,0,0,0.029132,0.0028129,0.0095834,1.1022,0.013843,0.023671,4.9803e-07,0.33,0.39,0
0.015508,0.003368,0.02914,0.0026294,0.0095307,0.00045291,0,0,0.050983,-0.017943,0,0.0023551,0,0,0,0.029147,0.0026217,0.0095307,0.97848,0.013767,0.023834,5.0345e-07,0.34,0.39,0
0.016018,0.0034014,0.029154,0.0024448,0.0094795,0.00040225,0,0,0.051153,-0.01829,0,0.0020917,0,0,0,0.02916,0.0024387,0.0094795,0.86264,0.013693,0.023988,5.0848e-07,0.35,0.39,0
0.016531,0.0034325,0.029164,0.0022685,0.0094299,0.00035415,0,0,0.05131,-0.01862,0,0.0018416,0,0,0,0.029169,0.0022639,0.0094299,0.75426,0.013621,0.024134,5.1313e-07,0.36,0.39,0
0.017045,0.0034613,0.029172,0.0021005,0.0093819,0.00030858,0,0,0.051455,-0.018932,0,0.0016046,0,0,0,0.029176,0.002097,0.0093819,0.65297,0.013552,0.024271,5.1742e-07,0.37,0.39,0
0.01756,0.003488,0.029177,0.0019405,0.0093354,0.00026548,0,0,0.051589,-0.019227,0,0.0013805,0,0,0,0.02918,0.0019379,0.0093354,0.5584,0.013484,0.024399,5.2136e-07,0.38,0.39,0
0.018076,0.0035126,0.02918,0.0017883,0.0092904,0.00022482,0,0,0.051712,-0.019506,0,0.001169,0,0,0,0.029182,0.0017864,0.0092904,0.47021,0.013419,0.02452,5.2495e-07,0.39,0.39,0
0.018594,0.0035353,0.02918,0.0016437,0.009247,0.00018652,0,0,0.051825,-0.019769,0,0.00096992,0,0,0,0.029181,0.0016424,0.009247,0.38808,0.013357,0.024633,5.2823e-07,0.4,0.39,0
0.019113,0.0035562,0.029177,0.0015064,0.0092052,0.00015054,0,0,0.051928,-0.020017,0,0.00078282,0,0,0,0.029178,0.0015056,0.0092052,0.3117,0.013296,0.024739,5.312e-07,0.41,0.39,0
0.019633,0.0035754,0.029173,0.0013763,0.0091648,0.00011681,0,0,0.052022,-0.02025,0,0.00060741,0,0,0,0.029174,0.0013758,0.0091648,0.24077,0.013238,0.024837,5.3387e-07,0.42,0.39,0
0.020153,0.0035928,0.029167,0.001253,0.009126,8.526e-05,0,0,0.052106,-0.02047,0,0.00044335,0,0,0,0.029167,0.0012528,0.009126,0.175,0.013182,0.024928,5.3627e-07,0.43,0.39,0
0.020675,0.0036087,0.029159,0.0011365,0.0090886,5.5824e-05,0,0,0.052182,-0.020675,0,0.00029028,0,0,0,0.029159,0.0011363,0.0090886,0.11414,0.013128,0.025013,5.384e-07,0.44,0.39,0
0.021197,0.0036232,0.029149,0.0010263,0.0090526,2.8429e-05,0,0,0.052251,-0.020868,0,0.00014783,0,0,0,0.029149,0.0010263,0.0090526,0.057919,0.013076,0.025092,5.4029e-07,0.45,0.39,0
0.02172,0.0036362,0.029138,0.00092228,0.009018,3.0033e-06,0,0,0.052311,-0.021049,0,1.5617e-05,0,0,0,0.029138,0.00092228,0.009018,0.0060986,0.013026,0.025164,5.4194e-07,0.46,0.39,0
0.022243,0.0036479,0.029125,0.0008242,0.0089849,-2.0526e-05,0,0,0.052365,-0.021218,0,-0.00010673,0,0,0,0.029125,0.00082418,0.0089849,-0.041555,0.012978,0.025231,5.4338e-07,0.47,0.39,0
0.022767,0.0036584,0.029112,0.00073181,0.008953,-4.2232e-05,0,0,0.052412,-0.021375,0,-0.00021961,0,0,0,0.029112,0.00073175,0.008953,-0.085262,0.012932,0.025292,5.4461e-07,0.48,0.39,0
0.023291,0.0036677,0.029097,0.00064488,0.0089225,-6.219e-05,0,0,0.052453,-0.021522,0,-0.00032339,0,0,0,0.029097,0.00064474,0.0089225,-0.12524,0.012888,0.025348,5.4565e-07,0.49,0.39,0
0.023816,0.0036759,0.029081,0.00056316,0.0088933,-8.0472e-05,0,0,0.052488,-0.021658,0,-0.00041845,0,0,0,0.029081,0.00056294,0.0088933,-0.16168,0.012846,0.025399,5.4652e-07,0.5,0.39,0
0.024341,0.0036831,0.029065,0.00048644,0.0088653,-9.715e-05,0,0,0.052518,-0.021785,0,-0.00050518,0,0,0,0.029065,0.00048611,0.0088653,-0.19477,0.012805,0.025446,5.4722e-07,0.51,0.39,0
0.024866,0.0036894,0.029047,0.00041449,0.0088385,-0.0001123,0,0,0.052543,-0.021902,0,-0.00058395,0,0,0,0.029048,0.00041405,0.0088385,-0.22471,0.012767,0.025488,5.4777e-07,0.52,0.39,0
0.025392,0.0036947,0.029029,0.00034708,0.008813,-0.00012599,0,0,0.052563,-0.022011,0,-0.00065512,0,0,0,0.02903,0.00034653,0.008813,-0.25166,0.01273,0.025526,5.4819e-07,0.53,0.39,0
0.025918,0.0036992,0.029011,0.000284,0.0087885,-0.00013828,0,0,0.052579,-0.022112,0,-0.00071906,0,0,0,0.029012,0.00028334,0.0087885,-0.27579,0.012694,0.02556,5.4847e-07,0.54,0.39,0
0.026444,0.0037029,0.028992,0.00022505,0.0087652,-0.00014925,0,0,0.05259,-0.022204,0,-0.00077611,0,0,0,0.028993,0.00022428,0.0087652,-0.29725,0.012661,0.025591,5.4864e-07,0.55,0.39,0
0.02697,0.003706,0.028973,0.00017002,0.008743,-0.00015896,0,0,0.052599,-0.02229,0,-0.00082661,0,0,0,0.028974,0.00016914,0.008743,-0.3162,0.012629,0.025618,5.487e-07,0.56,0.39,0
0.027495,0.0037083,0.028954,0.0001187,0.0087218,-0.00016748,0,0,0.052603,-0.022368,0,-0.00087091,0,0,0,0.028955,0.00011773,0.0087218,-0.33278,0.012598,0.025642,5.4866e-07,0.57,0.39,0
0.028022,0.0037101,0.028934,7.092e-05,0.0087016,-0.00017487,0,0,0.052605,-0.02244,0,-0.00090932,0,0,0,0.028935,6.9861e-05,0.0087016,-0.34711,0.012569,0.025663,5.4854e-07,0.58,0.39,0
0.028548,0.0037113,0.028915,2.6479e-05,0.0086823,-0.00018118,0,0,0.052604,-0.022505,0,-0.00094215,0,0,0,0.028916,2.5343e-05,0.0086823,-0.35934,0.012541,0.025681,5.4833e-07,0.59,0.39,0
0.029074,0.0037119,0.028895,-1.4798e-05,0.008664,-0.00018648,0,0,0.0526,-0.022565,0,-0.00096972,0,0,0,0.028896,-1.6001e-05,0.008664,-0.36957,0.012515,0.025696,5.4806e-07,0.6,0.39,0
0.0296,0.0037121,0.028875,-5.3085e-05,0.0086467,-0.00019082,0,0,0.052594,-0.022619,0,-0.00099229,0,0,0,0.028877,-5.4344e-05,0.0086467,-0.37793,0.01249,0.025709,5.4772e-07,0.61,0.39,0
0.030125,0.0037119,0.028856,-8.8549e-05,0.0086301,-0.00019426,0,0,0.052587,-0.022669,0,-0.0010102,0,0,0,0.028857,-8.9853e-05,0.0086301,-0.38452,0.012466,0.025721,5.4733e-07,0.62,0.39,0
0.030651,0.0037113,0.028836,-0.00012135,0.0086145,-0.00019685,0,0,0.052577,-0.022713,0,-0.0010236,0,0,0,0.028838,-0.00012269,0.0086145,-0.38946,0.012443,0.025729,5.4688e-07,0.63,0.39,0
0.031177,0.0037103,0.028817,-0.00015165,0.0085996,-0.00019863,0,0,0.052565,-0.022753,0,-0.0010329,0,0,0,0.028818,-0.00015301,0.0085996,-0.39283,0.012422,0.025737,5.464e-07,0.64,0.39,0
0.031703,0.003709,0.028798,-0.00017958,0.0085855,-0.00019965,0,0,0.052552,-0.022789,0,-0.0010382,0,0,0,0.028799,-0.00018096,0.0085855,-0.39473,0.012401,0.025742,5.4588e-07,0.65,0.39,0
0.032228,0.0037074,0.028779,-0.00020531,0.0085722,-0.00019996,0,0,0.052538,-0.022821,0,-0.0010398,0,0,0,0.028781,-0.00020669,0.0085722,-0.39526,0.012382,0.025746,5.4532e-07,0.66,0.39,0
0.032753,0.0037056,0.028761,-0.00022895,0.0085595,-0.00019961,0,0,0.052523,-0.02285,0,-0.001038,0,0,0,0.028762,-0.00023032,0.0085595,-0.39449,0.012364,0.025748,5.4475e-07,0.67,0.39,0
0.033279,0.0037035,0.028743,-0.00025065,0.0085476,-0.00019863,0,0,0.052507,-0.022875,0,-0.0010329,0,0,0,0.028744,-0.00025201,0.0085476,-0.3925,0.012346,0.02575,5.4415e-07,0.68,0.39,0
0.033804,0.0037013,0.028725,-0.00027052,0.0085363,-0.00019706,0,0,0.05249,-0.022898,0,-0.0010247,0,0,0,0.028726,-0.00027186,0.0085363,-0.38937,0.01233,0.02575,5.4353e-07,0.69,0.39,0
0.034328,0.0036989,0.028707,-0.00028869,0.0085256,-0.00019494,0,0,0.052473,-0.022917,0,-0.0010137,0,0,0,0.028709,-0.00029,0.0085256,-0.38517,0.012315,0.025749,5.429e-07,0.7,0.39,0
0.034853,0.0036964,0.028691,-0.00030527,0.0085156,-0.00019231,0,0,0.052455,-0.022934,0,-0.001,0,0,0,0.028692,-0.00030655,0.0085156,-0.37998,0.0123,0.025747,5.4227e-07,0.71,0.39,0
0.035377,0.0036937,0.028674,-0.00032038,0.0085061,-0.00018919,0,0,0.052437,-0.022949,0,-0.0009838,0,0,0,0.028675,-0.00032161,0.0085061,-0.37384,0.012287,0.025744,5.4163e-07,0.72,0.39,0
0.035902,0.003691,0.028658,-0.00033411,0.0084972,-0.00018563,0,0,0.052418,-0.022961,0,-0.00096528,0,0,0,0.028659,-0.00033529,0.0084972,-0.36683,0.012274,0.025741,5.4099e-07,0.73,0.39,0
0.036426,0.0036882,0.028642,-0.00034656,0.0084888,-0.00018165,0,0,0.0524,-0.022972,0,-0.00094458,0,0,0,0.028644,-0.00034769,0.0084888,-0.35901,0.012261,0.025737,5.4035e-07,0.74,0.39,0
0.03695,0.0036853,0.028627,-0.00035782,0.0084809,-0.00017728,0,0,0.052381,-0.022981,0,-0.00092185,0,0,0,0.028629,-0.00035891,0.0084809,-0.35041,0.01225,0.025733,5.3972e-07,0.75,0.39,0
0.037473,0.0036825,0.028613,-0.00036799,0.0084735,-0.00017254,0,0,0.052362,-0.022988,0,-0.00089724,0,0,0,0.028614,-0.00036902,0.0084735,-0.34111,0.012239,0.025728,5.391e-07,0.76,0.39,0
0.037997,0.0036796,0.028599,-0.00037716,0.0084665,-0.00016747,0,0,0.052344,-0.022994,0,-0.00087087,0,0,0,0.0286,-0.00037812,0.0084665,-0.33114,0.012229,0.025723,5.3848e-07,0.77,0.39,0
0.03852,0.0036767,0.028585,-0.00038539,0.00846,-0.00016209,0,0,0.052326,-0.022998,0,-0.00084288,0,0,0,0.028586,-0.00038629,0.00846,-0.32056,0.01222,0.025717,5.3788e-07,0.78,0.39,0
0.039044,0.0036739,0.028573,-0.00039276,0.0084539,-0.00015642,0,0,0.052308,-0.023001,0,-0.00081338,0,0,0,0.028573,-0.00039361,0.0084539,-0.3094,0.012211,0.025711,5.3729e-07,0.79,0.39,0
0.039566,0.0036711,0.02856,-0.00039935,0.0084482,-0.00015048,0,0,0.052291,-0.023004,0,-0.00078248,0,0,0,0.028561,-0.00040013,0.0084482,-0.2977,0.012203,0.025706,5.3673e-07,0.8,0.39,0
0.040089,0.0036683,0.028548,-0.00040522,0.008443,-0.00014429,0,0,0.052274,-0.023005,0,-0.0007503,0,0,0,0.028549,-0.00040594,0.008443,-0.28552,0.012195,0.0257,5.3617e-07,0.81,0.39,0
0.040612,0.0036657,0.028537,-0.00041043,0.008438,-0.00013787,0,0,0.052258,-0.023006,0,-0.00071693,0,0,0,0.028538,-0.00041109,0.008438,-0.27288,0.012188,0.025694,5.3564e-07,0.82,0.39,0
0.041134,0.0036631,0.028527,-0.00041505,0.0084335,-0.00013124,0,0,0.052242,-0.023006,0,-0.00068246,0,0,0,0.028527,-0.00041565,0.0084335,-0.25981,0.012182,0.025688,5.3513e-07,0.83,0.39,0
0.041657,0.0036606,0.028517,-0.00041912,0.0084292,-0.00012442,0,0,0.052227,-0.023006,0,-0.00064699,0,0,0,0.028517,-0.00041966,0.0084292,-0.24636,0.012176,0.025682,5.3465e-07,0.84,0.39,0
0.042179,0.0036582,0.028507,-0.0004227,0.0084253,-0.00011742,0,0,0.052213,-0.023005,0,-0.0006106,0,0,0,0.028508,-0.00042318,0.0084253,-0.23255,0.01217,0.025677,5.3418e-07,0.85,0.39,0
0.042701,0.0036559,0.028498,-0.00042584,0.0084218,-0.00011026,0,0,0.052199,-0.023004,0,-0.00057337,0,0,0,0.028499,-0.00042626,0.0084218,-0.21842,0.012165,0.025671,5.3375e-07,0.86,0.39,0
0.043223,0.0036537,0.02849,-0.00042858,0.0084185,-0.00010296,0,0,0.052186,-0.023002,0,-0.00053538,0,0,0,0.02849,-0.00042894,0.0084185,-0.20398,0.01216,0.025666,5.3333e-07,0.87,0.39,0
0.043745,0.0036517,0.028483,-0.00043095,0.0084155,-9.5517e-05,0,0,0.052174,-0.023001,0,-0.00049669,0,0,0,0.028483,-0.00043127,0.0084155,-0.18928,0.012156,0.025661,5.3295e-07,0.88,0.39,0
0.044267,0.0036498,0.028476,-0.00043301,0.0084128,-8.7956e-05,0,0,0.052163,-0.022999,0,-0.00045737,0,0,0,0.028476,-0.00043327,0.0084128,-0.17432,0.012152,0.025656,5.3259e-07,0.89,0.39,0
0.044788,0.003648,0.028469,-0.00043477,0.0084103,-8.0287e-05,0,0,0.052153,-0.022997,0,-0.00041749,0,0,0,0.028469,-0.00043499,0.0084103,-0.15915,0.012148,0.025652,5.3227e-07,0.9,0.39,0
0.04531,0.0036464,0.028463,-0.00043628,0.0084081,-7.2522e-05,0,0,0.052144,-0.022995,0,-0.00037711,0,0,0,0.028463,-0.00043646,0.0084081,-0.14378,0.012145,0.025648,5.3197e-07,0.91,0.39,0
0.045831,0.0036449,0.028458,-0.00043755,0.0084062,-6.4671e-05,0,0,0.052135,-0.022994,0,-0.00033629,0,0,0,0.028458,-0.00043769,0.0084062,-0.12823,0.012142,0.025645,5.317e-07,0.92,0.39,0
0.046352,0.0036436,0.028453,-0.00043862,0.0084045,-5.6746e-05,0,0,0.052128,-0.022992,0,-0.00029508,0,0,0,0.028454,-0.00043873,0.0084045,-0.11253,0.01214,0.025641,5.3146e-07,0.93,0.39,0
0.046873,0.0036425,0.02845,-0.0004395,0.008403,-4.8756e-05,0,0,0.052121,-0.022991,0,-0.00025353,0,0,0,0.02845,-0.00043958,0.008403,-0.096697,0.012138,0.025638,5.3126e-07,0.94,0.39,0
0.047395,0.0036415,0.028446,-0.00044021,0.0084018,-4.0711e-05,0,0,0.052115,-0.022989,0,-0.0002117,0,0,0,0.028446,-0.00044027,0.0084018,-0.080751,0.012136,0.025636,5.3108e-07,0.95,0.39,0
0.047916,0.0036407,0.028443,-0.00044078,0.0084008,-3.2622e-05,0,0,0.052111,-0.022988,0,-0.00016964,0,0,0,0.028444,-0.00044082,0.0084008,-0.064711,0.012134,0.025634,5.3094e-07,0.96,0.39,0
0.048437,0.0036401,0.028441,-0.0004412,0.0084,-2.4498e-05,0,0,0.052107,-0.022987,0,-0.00012739,0,0,0,0.028441,-0.00044122,0.0084,-0.048597,0.012133,0.025632,5.3083e-07,0.97,0.39,0
0.048958,0.0036397,0.02844,-0.0004415,0.0083995,-1.6346e-05,0,0,0.052105,-0.022987,0,-8.5001e-05,0,0,0,0.02844,-0.00044151,0.0083995,-0.032429,0.012133,0.025631,5.3075e-07,0.98,0.39,0
0.049479,0.0036394,0.028439,-0.00044168,0.0083991,-8.1776e-06,0,0,0.052103,-0.022986,0,-4.2524e-05,0,0,0,0.028439,-0.00044168,0.0083991,-0.016223,0.012132,0.02563,5.307e-07,0.99,0.39,0
0.05,0.0036393,0.028439,-0.00044173,0.008399,-1.7116e-06,0,0,0.052103,-0.022986,0,-8.9003e-06,0,0,0,0.028439,-0.00044173,0.008399,-0.0033957,0.012132,0.02563,5.3068e-07,1,0.39,0
0,0,0.026886,0.011522,0.011522,0.0033999,0,0,0.039944,4.2013e-19,0,0.017679,0,0,0,0.027604,0.010804,0.011522,11.937,0.016643,0.016453,2.2728e-07,0,0.4,0
0.00039944,0.00017679,0.026886,0.011453,0.011502,0.0033785,0,0,0.04,-0.00012685,0,0.017568,0,0,0,0.027594,0.010746,0.011502,11.822,0.016614,0.016483,2.2836e-07,0.01,0.4,0
0.0008,0.00034943,0.026922,0.011363,0.011485,0.0032996,0,0,0.040135,-0.00031891,0,0.017158,0,0,0,0.027593,0.010692,0.011485,11.492,0.01659,0.016518,2.2968e-07,0.02,0.4,0
0.0012021,0.00051698,0.026969,0.011236,0.011461,0.0031987,0,0,0.04032,-0.00058711,0,0.016633,0,0,0,0.027595,0.01061,0.011461,11.064,0.016555,0.016575,2.318e-07,0.03,0.4,0
0.0016064,0.00067879,0.027029,0.011071,0.01143,0.003083,0,0,0.040558,-0.00093434,0,0.016031,0,0,0,0.027604,0.010496,0.01143,10.562,0.01651,0.016661,2.3502e-07,0.04,0.4,0
0.0020133,0.00083443,0.027102,0.01087,0.011392,0.0029586,0,0,0.040848,-0.0013567,0,0.015385,0,0,0,0.027625,0.010347,0.011392,10.014,0.016455,0.01678,2.3948e-07,0.05,0.4,0
0.0024233,0.00098372,0.027186,0.010637,0.011347,0.0028308,0,0,0.041182,-0.0018456,0,0.01472,0,0,0,0.027657,0.010166,0.011347,9.4433,0.01639,0.016931,2.452e-07,0.06,0.4,0
0.0028369,0.0011266,0.027279,0.010377,0.011297,0.0027031,0,0,0.041553,-0.0023906,0,0.014056,0,0,0,0.027701,0.0099556,0.011297,8.8689,0.016318,0.017114,2.5211e-07,0.07,0.4,0
0.0032544,0.0012632,0.027378,0.010096,0.011242,0.0025777,0,0,0.041953,-0.0029806,0,0.013404,0,0,0,0.027754,0.0097193,0.011242,8.3053,0.016238,0.017324,2.6007e-07,0.08,0.4,0
0.003676,0.0013937,0.027481,0.0097966,0.011183,0.0024559,0,0,0.042374,-0.0036052,0,0.012771,0,0,0,0.027815,0.0094619,0.011183,7.7615,0.016154,0.017556,2.6893e-07,0.09,0.4,0
0.0041019,0.0015182,0.027586,0.0094845,0.011121,0.0023383,0,0,0.042808,-0.0042553,0,0.012159,0,0,0,0.027883,0.0091873,0.011121,7.2428,0.016064,0.017808,2.7854e-07,0.1,0.4,0
0.0045322,0.001637,0.027692,0.0091629,0.011056,0.0022248,0,0,0.043252,-0.0049231,0,0.011569,0,0,0,0.027955,0.0088995,0.011056,6.7519,0.01597,0.018074,2.8873e-07,0.11,0.4,0
0.0049669,0.0017502,0.027797,0.0088348,0.010989,0.0021155,0,0,0.043699,-0.0056021,0,0.011,0,0,0,0.02803,0.0086017,0.010989,6.2892,0.015874,0.018351,2.9937e-07,0.12,0.4,0
0.0054062,0.0018581,0.0279,0.008503,0.010921,0.00201,0,0,0.044146,-0.0062868,0,0.010452,0,0,0,0.028106,0.0082969,0.010921,5.8543,0.015775,0.018637,3.1034e-07,0.13,0.4,0
0.0058498,0.001961,0.028001,0.0081694,0.010851,0.0019081,0,0,0.04459,-0.0069726,0,0.0099223,0,0,0,0.028183,0.0079875,0.010851,5.4462,0.015674,0.018927,3.2152e-07,0.14,0.4,0
0.006298,0.0020589,0.028099,0.007836,0.010781,0.0018096,0,0,0.045029,-0.0076558,0,0.0094098,0,0,0,0.02826,0.0076757,0.010781,5.0633,0.015572,0.019221,3.3283e-07,0.15,0.4,0
0.0067504,0.0021521,0.028194,0.0075044,0.01071,0.0017141,0,0,0.045459,-0.0083332,0,0.0089135,0,0,0,0.028335,0.0073633,0.01071,4.7043,0.015469,0.019515,3.4417e-07,0.16,0.4,0
0.0072071,0.0022408,0.028285,0.0071758,0.010638,0.0016216,0,0,0.045881,-0.009002,0,0.0084324,0,0,0,0.028408,0.0070519,0.010638,4.3674,0.015366,0.019808,3.5548e-07,0.17,0.4,0
0.007668,0.0023251,0.028371,0.0068513,0.010567,0.0015318,0,0,0.046291,-0.00966,0,0.0079656,0,0,0,0.02848,0.0067428,0.010567,4.0513,0.015263,0.020099,3.6668e-07,0.18,0.4,0
0.008133,0.0024052,0.028453,0.006532,0.010495,0.0014447,0,0,0.04669,-0.010305,0,0.0075125,0,0,0,0.028548,0.0064372,0.010495,3.7544,0.01516,0.020387,3.7771e-07,0.19,0.4,0
0.0086018,0.0024811,0.028531,0.0062186,0.010425,0.0013602,0,0,0.047076,-0.010936,0,0.0070729,0,0,0,0.028614,0.006136,0.010425,3.4756,0.015058,0.02067,3.8853e-07,0.2,0.4,0
0.0090745,0.0025532,0.028604,0.0059118,0.010355,0.0012781,0,0,0.047448,-0.011552,0,0.0066463,0,0,0,0.028676,0.00584,0.010355,3.2136,0.014957,0.020946,3.991e-07,0.21,0.4,0
0.0095508,0.0026214,0.028672,0.0056122,0.010285,0.0011986,0,0,0.047806,-0.01215,0,0.0062327,0,0,0,0.028735,0.0055501,0.010285,2.9674,0.014857,0.021217,4.0937e-07,0.22,0.4,0
0.010031,0.0026859,0.028736,0.0053203,0.010217,0.0011215,0,0,0.04815,-0.012731,0,0.0058319,0,0,0,0.02879,0.0052667,0.010217,2.7359,0.014758,0.02148,4.1931e-07,0.23,0.4,0
0.010514,0.002747,0.028795,0.0050364,0.01015,0.0010469,0,0,0.048479,-0.013294,0,0.0054439,0,0,0,0.028841,0.0049904,0.01015,2.5181,0.01466,0.021736,4.289e-07,0.24,0.4,0
0.011,0.0028046,0.02885,0.004761,0.010083,0.00097475,0,0,0.048793,-0.013838,0,0.0050687,0,0,0,0.028889,0.0047216,0.010083,2.3134,0.014565,0.021983,4.3811e-07,0.25,0.4,0
0.01149,0.0028589,0.0289,0.0044941,0.010018,0.00090507,0,0,0.049092,-0.014362,0,0.0047064,0,0,0,0.028933,0.0044606,0.010018,2.1209,0.014471,0.022221,4.4693e-07,0.26,0.4,0
0.011982,0.00291,0.028945,0.004236,0.0099543,0.00083788,0,0,0.049376,-0.014868,0,0.004357,0,0,0,0.028973,0.0042076,0.0099543,1.9399,0.014378,0.022451,4.5535e-07,0.27,0.4,0
0.012477,0.0029581,0.028986,0.0039868,0.0098918,0.00077318,0,0,0.049645,-0.015353,0,0.0040205,0,0,0,0.02901,0.0039629,0.0098918,1.7698,0.014288,0.022672,4.6335e-07,0.28,0.4,0
0.012975,0.0030032,0.029023,0.0037466,0.0098308,0.00071098,0,0,0.049899,-0.015819,0,0.0036971,0,0,0,0.029043,0.0037267,0.0098308,1.6099,0.0142,0.022883,4.7093e-07,0.29,0.4,0
0.013475,0.0030456,0.029055,0.0035154,0.0097712,0.00065127,0,0,0.050138,-0.016265,0,0.0033866,0,0,0,0.029072,0.0034988,0.0097712,1.4598,0.014114,0.023085,4.781e-07,0.3,0.4,0
0.013978,0.0030852,0.029084,0.0032932,0.0097131,0.00059405,0,0,0.050364,-0.016692,0,0.003089,0,0,0,0.029097,0.0032795,0.0097131,1.3188,0.01403,0.023278,4.8484e-07,0.31,0.4,0
0.014482,0.0031223,0.029109,0.0030799,0.0096565,0.00053931,0,0,0.050575,-0.017099,0,0.0028044,0,0,0,0.02912,0.0030687,0.0096565,1.1865,0.013948,0.023461,4.9118e-07,0.32,0.4,0
0.014989,0.0031568,0.02913,0.0028754,0.0096015,0.00048704,0,0,0.050773,-0.017488,0,0.0025326,0,0,0,0.029139,0.0028664,0.0096015,1.0624,0.013869,0.023636,4.971e-07,0.33,0.4,0
0.015498,0.003189,0.029147,0.0026797,0.0095481,0.00043721,0,0,0.050958,-0.017858,0,0.0022735,0,0,0,0.029154,0.0026725,0.0095481,0.94611,0.013792,0.023801,5.0262e-07,0.34,0.4,0
0.016008,0.0032189,0.029161,0.0024926,0.0094962,0.0003898,0,0,0.05113,-0.018209,0,0.002027,0,0,0,0.029167,0.0024869,0.0094962,0.83721,0.013717,0.023957,5.0774e-07,0.35,0.4,0
0.016521,0.0032467,0.029173,0.0023139,0.009446,0.00034477,0,0,0.051289,-0.018543,0,0.0017928,0,0,0,0.029177,0.0023095,0.009446,0.73531,0.013644,0.024105,5.1249e-07,0.36,0.4,0
0.017034,0.0032723,0.029181,0.0021434,0.0093973,0.00030208,0,0,0.051437,-0.01886,0,0.0015708,0,0,0,0.029184,0.0021401,0.0093973,0.64005,0.013574,0.024244,5.1687e-07,0.37,0.4,0
0.017549,0.0032961,0.029186,0.001981,0.0093502,0.0002617,0,0,0.051574,-0.01916,0,0.0013608,0,0,0,0.029189,0.0019785,0.0093502,0.55108,0.013506,0.024375,5.209e-07,0.38,0.4,0
0.018066,0.0033179,0.029189,0.0018265,0.0093046,0.00022356,0,0,0.051699,-0.019443,0,0.0011625,0,0,0,0.029191,0.0018247,0.0093046,0.46808,0.01344,0.024498,5.2458e-07,0.39,0.4,0
0.018583,0.003338,0.029189,0.0016796,0.0092607,0.00018762,0,0,0.051814,-0.019711,0,0.00097563,0,0,0,0.029191,0.0016784,0.0092607,0.39074,0.013376,0.024613,5.2793e-07,0.4,0.4,0
0.019102,0.0033563,0.029187,0.0015402,0.0092183,0.00015382,0,0,0.05192,-0.019963,0,0.00079989,0,0,0,0.029188,0.0015393,0.0092183,0.31877,0.013315,0.024721,5.3098e-07,0.41,0.4,0
0.019622,0.0033731,0.029183,0.0014079,0.0091774,0.00012211,0,0,0.052015,-0.0202,0,0.00063497,0,0,0,0.029184,0.0014074,0.0091774,0.25189,0.013256,0.024821,5.3373e-07,0.42,0.4,0
0.020142,0.0033884,0.029177,0.0012826,0.009138,9.2416e-05,0,0,0.052102,-0.020424,0,0.00048056,0,0,0,0.029178,0.0012823,0.009138,0.18982,0.013199,0.024914,5.3619e-07,0.43,0.4,0
0.020664,0.0034022,0.029169,0.001164,0.0091,6.4679e-05,0,0,0.05218,-0.020634,0,0.00033633,0,0,0,0.02917,0.0011639,0.0091,0.13232,0.013144,0.025001,5.3839e-07,0.44,0.4,0
0.021186,0.0034147,0.02916,0.0010519,0.0090636,3.8834e-05,0,0,0.052251,-0.02083,0,0.00020193,0,0,0,0.02916,0.0010519,0.0090636,0.079158,0.013092,0.025081,5.4034e-07,0.45,0.4,0
0.021709,0.0034259,0.029149,0.00094606,0.0090285,1.4813e-05,0,0,0.052313,-0.021014,0,7.7028e-05,0,0,0,0.029149,0.00094605,0.0090285,0.030093,0.013041,0.025155,5.4206e-07,0.46,0.4,0
0.022232,0.0034359,0.029137,0.00084618,0.0089949,-7.4496e-06,0,0,0.052369,-0.021187,0,-3.8738e-05,0,0,0,0.029137,0.00084618,0.0089949,-0.015087,0.012993,0.025224,5.4355e-07,0.47,0.4,0
0.022756,0.0034448,0.029123,0.00075208,0.0089626,-2.8022e-05,0,0,0.052418,-0.021347,0,-0.00014571,0,0,0,0.029123,0.00075205,0.0089626,-0.05659,0.012946,0.025286,5.4483e-07,0.48,0.4,0
0.02328,0.0034526,0.029109,0.00066349,0.0089317,-4.6971e-05,0,0,0.05246,-0.021497,0,-0.00024425,0,0,0,0.029109,0.00066341,0.0089317,-0.094611,0.012901,0.025344,5.4592e-07,0.49,0.4,0
0.023805,0.0034594,0.029093,0.0005802,0.008902,-6.4365e-05,0,0,0.052497,-0.021637,0,-0.0003347,0,0,0,0.029093,0.00058005,0.008902,-0.12934,0.012859,0.025396,5.4684e-07,0.5,0.4,0
0.02433,0.0034653,0.029077,0.00050196,0.0088736,-8.0269e-05,0,0,0.052528,-0.021766,0,-0.0004174,0,0,0,0.029077,0.00050174,0.0088736,-0.16095,0.012818,0.025444,5.4758e-07,0.51,0.4,0
0.024856,0.0034704,0.02906,0.00042857,0.0088465,-9.4749e-05,0,0,0.052554,-0.021887,0,-0.00049269,0,0,0,0.02906,0.00042825,0.0088465,-0.1896,0.012778,0.025488,5.4817e-07,0.52,0.4,0
0.025382,0.0034747,0.029042,0.00035978,0.0088205,-0.00010787,0,0,0.052576,-0.021998,0,-0.00056092,0,0,0,0.029042,0.00035938,0.0088205,-0.21548,0.012741,0.025527,5.4862e-07,0.53,0.4,0
0.025907,0.0034781,0.029024,0.0002954,0.0087957,-0.00011969,0,0,0.052593,-0.022101,0,-0.00062241,0,0,0,0.029024,0.0002949,0.0087957,-0.23871,0.012705,0.025562,5.4894e-07,0.54,0.4,0
0.026433,0.003481,0.029005,0.0002352,0.0087721,-0.00013029,0,0,0.052606,-0.022196,0,-0.00067748,0,0,0,0.029006,0.00023461,0.0087721,-0.25946,0.012671,0.025594,5.4913e-07,0.55,0.4,0
0.026959,0.0034831,0.028986,0.00017898,0.0087495,-0.0001397,0,0,0.052615,-0.022283,0,-0.00072645,0,0,0,0.028987,0.0001783,0.0087495,-0.27785,0.012638,0.025621,5.4922e-07,0.56,0.4,0
0.027486,0.0034847,0.028967,0.00012654,0.0087279,-0.000148,0,0,0.052621,-0.022364,0,-0.00076961,0,0,0,0.028967,0.00012578,0.0087279,-0.29402,0.012607,0.025646,5.4921e-07,0.57,0.4,0
0.028012,0.0034857,0.028947,7.7691e-05,0.0087074,-0.00015525,0,0,0.052623,-0.022437,0,-0.00080727,0,0,0,0.028948,7.6856e-05,0.0087074,-0.3081,0.012577,0.025668,5.4911e-07,0.58,0.4,0
0.028538,0.0034862,0.028927,3.2241e-05,0.0086879,-0.00016148,0,0,0.052623,-0.022505,0,-0.00083971,0,0,0,0.028928,3.1338e-05,0.0086879,-0.32019,0.012549,0.025687,5.4893e-07,0.59,0.4,0
0.029064,0.0034863,0.028908,-9.9911e-06,0.0086693,-0.00016677,0,0,0.05262,-0.022566,0,-0.00086721,0,0,0,0.028909,-1.0953e-05,0.0086693,-0.33042,0.012522,0.025703,5.4867e-07,0.6,0.4,0
0.02959,0.0034859,0.028888,-4.918e-05,0.0086517,-0.00017116,0,0,0.052615,-0.022622,0,-0.00089004,0,0,0,0.028889,-5.0193e-05,0.0086517,-0.33888,0.012497,0.025717,5.4835e-07,0.61,0.4,0
0.030117,0.0034852,0.028868,-8.5496e-05,0.0086349,-0.0001747,0,0,0.052607,-0.022673,0,-0.00090844,0,0,0,0.028869,-8.655e-05,0.0086349,-0.34569,0.012473,0.025729,5.4797e-07,0.62,0.4,0
0.030643,0.0034841,0.028849,-0.0001191,0.008619,-0.00017744,0,0,0.052598,-0.022719,0,-0.00092267,0,0,0,0.02885,-0.00012019,0.008619,-0.35093,0.01245,0.025739,5.4754e-07,0.63,0.4,0
0.031168,0.0034827,0.02883,-0.00015015,0.0086038,-0.00017942,0,0,0.052587,-0.02276,0,-0.00093297,0,0,0,0.028831,-0.00015126,0.0086038,-0.35471,0.012428,0.025746,5.4706e-07,0.64,0.4,0
0.031694,0.003481,0.02881,-0.0001788,0.0085895,-0.00018068,0,0,0.052575,-0.022798,0,-0.00093956,0,0,0,0.028812,-0.00017993,0.0085895,-0.35709,0.012407,0.025752,5.4655e-07,0.65,0.4,0
0.03222,0.0034791,0.028792,-0.00020519,0.0085759,-0.00018128,0,0,0.052561,-0.022831,0,-0.00094266,0,0,0,0.028793,-0.00020633,0.0085759,-0.35818,0.012387,0.025757,5.4601e-07,0.66,0.4,0
0.032746,0.003477,0.028773,-0.00022947,0.0085631,-0.00018124,0,0,0.052546,-0.022861,0,-0.00094247,0,0,0,0.028774,-0.0002306,0.0085631,-0.35804,0.012369,0.025759,5.4544e-07,0.67,0.4,0
0.033271,0.0034747,0.028755,-0.00025175,0.0085509,-0.00018061,0,0,0.05253,-0.022887,0,-0.00093919,0,0,0,0.028756,-0.00025288,0.0085509,-0.35674,0.012351,0.025761,5.4484e-07,0.68,0.4,0
0.033796,0.0034723,0.028737,-0.00027218,0.0085394,-0.00017943,0,0,0.052513,-0.02291,0,-0.00093302,0,0,0,0.028738,-0.00027329,0.0085394,-0.35437,0.012335,0.025761,5.4423e-07,0.69,0.4,0
0.034321,0.0034696,0.028719,-0.00029087,0.0085286,-0.00017772,0,0,0.052496,-0.022931,0,-0.00092413,0,0,0,0.028721,-0.00029196,0.0085286,-0.35098,0.012319,0.025761,5.4361e-07,0.7,0.4,0
0.034846,0.0034669,0.028702,-0.00030794,0.0085183,-0.00017552,0,0,0.052479,-0.022948,0,-0.0009127,0,0,0,0.028703,-0.000309,0.0085183,-0.34664,0.012304,0.025759,5.4298e-07,0.71,0.4,0
0.035371,0.0034642,0.028686,-0.00032349,0.0085087,-0.00017286,0,0,0.052461,-0.022964,0,-0.00089888,0,0,0,0.028687,-0.00032452,0.0085087,-0.3414,0.01229,0.025757,5.4234e-07,0.72,0.4,0
0.035895,0.0034613,0.02867,-0.00033764,0.0084996,-0.00016978,0,0,0.052442,-0.022977,0,-0.00088283,0,0,0,0.028671,-0.00033864,0.0084996,-0.33533,0.012277,0.025754,5.417e-07,0.73,0.4,0
0.03642,0.0034584,0.028654,-0.00035049,0.008491,-0.00016629,0,0,0.052424,-0.022988,0,-0.00086471,0,0,0,0.028655,-0.00035144,0.008491,-0.32848,0.012265,0.02575,5.4107e-07,0.74,0.4,0
0.036944,0.0034554,0.028639,-0.00036212,0.008483,-0.00016243,0,0,0.052405,-0.022997,0,-0.00084463,0,0,0,0.02864,-0.00036303,0.008483,-0.32089,0.012253,0.025746,5.4043e-07,0.75,0.4,0
0.037468,0.0034525,0.028624,-0.00037264,0.0084755,-0.00015822,0,0,0.052387,-0.023005,0,-0.00082275,0,0,0,0.028625,-0.0003735,0.0084755,-0.31262,0.012242,0.025741,5.3981e-07,0.76,0.4,0
0.037991,0.0034496,0.02861,-0.00038212,0.0084684,-0.00015369,0,0,0.052368,-0.023011,0,-0.00079918,0,0,0,0.028611,-0.00038293,0.0084684,-0.30372,0.012232,0.025736,5.392e-07,0.77,0.4,0
0.038515,0.0034466,0.028597,-0.00039065,0.0084617,-0.00014886,0,0,0.05235,-0.023016,0,-0.00077405,0,0,0,0.028597,-0.00039141,0.0084617,-0.29422,0.012223,0.025731,5.3859e-07,0.78,0.4,0
0.039038,0.0034438,0.028583,-0.00039829,0.0084555,-0.00014374,0,0,0.052332,-0.02302,0,-0.00074746,0,0,0,0.028584,-0.00039901,0.0084555,-0.28416,0.012214,0.025725,5.3801e-07,0.79,0.4,0
0.039562,0.0034409,0.028571,-0.00040513,0.0084498,-0.00013837,0,0,0.052315,-0.023023,0,-0.00071952,0,0,0,0.028572,-0.0004058,0.0084498,-0.2736,0.012205,0.02572,5.3743e-07,0.8,0.4,0
0.040085,0.0034382,0.028559,-0.00041124,0.0084444,-0.00013276,0,0,0.052298,-0.023025,0,-0.00069033,0,0,0,0.02856,-0.00041185,0.0084444,-0.26255,0.012197,0.025714,5.3688e-07,0.81,0.4,0
0.040608,0.0034355,0.028548,-0.00041667,0.0084393,-0.00012692,0,0,0.052282,-0.023026,0,-0.00065999,0,0,0,0.028548,-0.00041723,0.0084393,-0.25106,0.01219,0.025708,5.3635e-07,0.82,0.4,0
0.041131,0.0034329,0.028537,-0.00042148,0.0084347,-0.00012088,0,0,0.052266,-0.023026,0,-0.00062859,0,0,0,0.028538,-0.00042199,0.0084347,-0.23916,0.012183,0.025702,5.3584e-07,0.83,0.4,0
0.041653,0.0034304,0.028527,-0.00042574,0.0084304,-0.00011465,0,0,0.052251,-0.023026,0,-0.0005962,0,0,0,0.028527,-0.00042619,0.0084304,-0.22689,0.012177,0.025697,5.3535e-07,0.84,0.4,0
0.042175,0.003428,0.028517,-0.00042949,0.0084264,-0.00010825,0,0,0.052237,-0.023025,0,-0.00056292,0,0,0,0.028518,-0.00042989,0.0084264,-0.21427,0.012171,0.025691,5.3488e-07,0.85,0.4,0
0.042698,0.0034257,0.028508,-0.00043278,0.0084227,-0.00010169,0,0,0.052223,-0.023024,0,-0.00052881,0,0,0,0.028509,-0.00043313,0.0084227,-0.20133,0.012166,0.025686,5.3444e-07,0.86,0.4,0
0.04322,0.0034236,0.0285,-0.00043565,0.0084194,-9.4992e-05,0,0,0.05221,-0.023023,0,-0.00049396,0,0,0,0.028501,-0.00043596,0.0084194,-0.18809,0.012161,0.025681,5.3403e-07,0.87,0.4,0
0.043742,0.0034215,0.028493,-0.00043815,0.0084163,-8.8158e-05,0,0,0.052198,-0.023022,0,-0.00045842,0,0,0,0.028493,-0.00043842,0.0084163,-0.17459,0.012157,0.025676,5.3364e-07,0.88,0.4,0
0.044264,0.0034197,0.028485,-0.00044032,0.0084135,-8.1206e-05,0,0,0.052187,-0.02302,0,-0.00042227,0,0,0,0.028486,-0.00044055,0.0084135,-0.16085,0.012153,0.025671,5.3328e-07,0.89,0.4,0
0.044786,0.0034179,0.028479,-0.00044218,0.008411,-7.4146e-05,0,0,0.052177,-0.023018,0,-0.00038556,0,0,0,0.028479,-0.00044237,0.008411,-0.14689,0.012149,0.025667,5.3295e-07,0.9,0.4,0
0.045307,0.0034163,0.028473,-0.00044378,0.0084088,-6.6992e-05,0,0,0.052167,-0.023017,0,-0.00034836,0,0,0,0.028473,-0.00044393,0.0084088,-0.13274,0.012146,0.025663,5.3265e-07,0.91,0.4,0
0.045829,0.0034149,0.028468,-0.00044513,0.0084068,-5.9754e-05,0,0,0.052159,-0.023015,0,-0.00031072,0,0,0,0.028468,-0.00044525,0.0084068,-0.11841,0.012143,0.025659,5.3238e-07,0.92,0.4,0
0.046351,0.0034136,0.028463,-0.00044627,0.0084051,-5.2442e-05,0,0,0.052151,-0.023013,0,-0.0002727,0,0,0,0.028463,-0.00044636,0.0084051,-0.10393,0.012141,0.025656,5.3214e-07,0.93,0.4,0
0.046872,0.0034125,0.028459,-0.00044721,0.0084036,-4.5066e-05,0,0,0.052144,-0.023012,0,-0.00023434,0,0,0,0.028459,-0.00044728,0.0084036,-0.089326,0.012138,0.025653,5.3194e-07,0.94,0.4,0
0.047393,0.0034115,0.028456,-0.00044797,0.0084023,-3.7636e-05,0,0,0.052139,-0.023011,0,-0.00019571,0,0,0,0.028456,-0.00044802,0.0084023,-0.074606,0.012137,0.02565,5.3176e-07,0.95,0.4,0
0.047915,0.0034107,0.028453,-0.00044858,0.0084013,-3.0162e-05,0,0,0.052134,-0.02301,0,-0.00015684,0,0,0,0.028453,-0.00044861,0.0084013,-0.059794,0.012135,0.025649,5.3161e-07,0.96,0.4,0
0.048436,0.0034101,0.028451,-0.00044904,0.0084005,-2.2652e-05,0,0,0.052131,-0.023009,0,-0.00011779,0,0,0,0.028451,-0.00044905,0.0084005,-0.044909,0.012134,0.025647,5.315e-07,0.97,0.4,0
0.048958,0.0034097,0.028449,-0.00044935,0.0084,-1.5116e-05,0,0,0.052128,-0.023008,0,-7.8602e-05,0,0,0,0.028449,-0.00044936,0.0084,-0.029969,0.012133,0.025646,5.3142e-07,0.98,0.4,0
0.049479,0.0034094,0.028448,-0.00044954,0.0083996,-7.5623e-06,0,0,0.052126,-0.023008,0,-3.9324e-05,0,0,0,0.028448,-0.00044954,0.0083996,-0.014994,0.012133,0.025645,5.3137e-07,0.99,0.4,0
0.05,0.0034093,0.028448,-0.00044961,0.0083995,-1.6864e-06,0,0,0.052126,-0.023008,0,-8.7695e-06,0,0,0,0.028448,-0.00044961,0.0083995,-0.0033438,0.012133,0.025645,5.3136e-07,1,0.4,0
0,0,0.026956,0.011552,0.011552,0.0033821,0,0,0.040048,1.7661e-19,0,0.017587,0,0,0,0.027665,0.010842,0.011552,11.854,0.016687,0.01648,2.2842e-07,0,0.41,0
0.00040048,0.00017587,0.026962,0.011527,0.011547,0.0033568,0,0,0.04008,-5.1681e-05,0,0.017456,0,0,0,0.02766,0.010828,0.011547,11.754,0.016678,0.016485,2.286e-07,0.01,0.41,0
0.0008016,0.00034686,0.026986,0.011464,0.011535,0.0032646,0,0,0.040172,-0.00018466,0,0.016976,0,0,0,0.027644,0.010805,0.011535,11.407,0.016662,0.016487,2.2863e-07,0.02,0.41,0
0.0012039,0.00051193,0.027025,0.011355,0.011514,0.0031483,0,0,0.040328,-0.00041239,0,0.016371,0,0,0,0.027633,0.010747,0.011514,10.946,0.016631,0.016517,2.2973e-07,0.03,0.41,0
0.0016082,0.00067039,0.027079,0.011201,0.011484,0.0030174,0,0,0.040548,-0.00073641,0,0.01569,0,0,0,0.027633,0.010647,0.011484,10.405,0.016588,0.016584,2.3224e-07,0.04,0.41,0
0.0020149,0.00082187,0.027149,0.011004,0.011446,0.0028799,0,0,0.040828,-0.0011491,0,0.014975,0,0,0,0.027647,0.010505,0.011446,9.8171,0.016533,0.016691,2.3628e-07,0.05,0.41,0
0.0024247,0.00096629,0.027231,0.010771,0.0114,0.0027417,0,0,0.041159,-0.0016376,0,0.014257,0,0,0,0.027675,0.010326,0.0114,9.2122,0.016467,0.016838,2.4182e-07,0.06,0.41,0
0.0028381,0.0011037,0.027322,0.010507,0.011349,0.0026064,0,0,0.04153,-0.0021874,0,0.013553,0,0,0,0.027717,0.010113,0.011349,8.6124,0.016393,0.01702,2.487e-07,0.07,0.41,0
0.0032553,0.0012344,0.02742,0.010221,0.011292,0.0024762,0,0,0.041931,-0.0027847,0,0.012876,0,0,0,0.027769,0.0098718,0.011292,8.032,0.016311,0.017231,2.5674e-07,0.08,0.41,0
0.0036767,0.0013586,0.027521,0.0099171,0.011232,0.0023516,0,0,0.042353,-0.0034174,0,0.012229,0,0,0,0.02783,0.0096084,0.011232,7.4792,0.016223,0.017467,2.6573e-07,0.09,0.41,0
0.0041024,0.0014765,0.027625,0.0096,0.011167,0.002233,0,0,0.042789,-0.0040753,0,0.011612,0,0,0,0.027897,0.0093275,0.011167,6.958,0.016131,0.017722,2.7548e-07,0.1,0.41,0
0.0045325,0.0015886,0.027728,0.0092736,0.011101,0.0021199,0,0,0.043232,-0.0047502,0,0.011024,0,0,0,0.027969,0.0090332,0.011101,6.4694,0.016034,0.017991,2.8582e-07,0.11,0.41,0
0.004967,0.001695,0.027831,0.0089412,0.011032,0.002012,0,0,0.043679,-0.0054354,0,0.010462,0,0,0,0.028043,0.0087292,0.011032,6.0128,0.015935,0.018272,2.966e-07,0.12,0.41,0
0.005406,0.0017961,0.027932,0.0086053,0.010961,0.0019087,0,0,0.044124,-0.0061255,0,0.0099254,0,0,0,0.028119,0.0084185,0.010961,5.5867,0.015833,0.01856,3.0769e-07,0.13,0.41,0
0.0058495,0.0018921,0.028031,0.008268,0.01089,0.0018097,0,0,0.044567,-0.0068161,0,0.0094103,0,0,0,0.028195,0.0081037,0.01089,5.1891,0.015729,0.018853,3.1899e-07,0.14,0.41,0
0.0062974,0.0019832,0.028126,0.0079312,0.010817,0.0017144,0,0,0.045003,-0.0075035,0,0.008915,0,0,0,0.028271,0.0077867,0.010817,4.8182,0.015625,0.019149,3.304e-07,0.15,0.41,0
0.0067496,0.0020696,0.028218,0.0075964,0.010744,0.0016227,0,0,0.045432,-0.0081846,0,0.0084378,0,0,0,0.028345,0.0074695,0.010744,4.4718,0.01552,0.019446,3.4184e-07,0.16,0.41,0
0.007206,0.0021515,0.028306,0.0072649,0.010671,0.0015341,0,0,0.045851,-0.0088569,0,0.0079772,0,0,0,0.028418,0.0071536,0.010671,4.1481,0.015414,0.019742,3.5324e-07,0.17,0.41,0
0.0076666,0.0022292,0.028391,0.0069376,0.010599,0.0014485,0,0,0.04626,-0.0095182,0,0.0075322,0,0,0,0.028488,0.0068403,0.010599,3.8453,0.015309,0.020035,3.6452e-07,0.18,0.41,0
0.0081312,0.0023028,0.028471,0.0066156,0.010526,0.0013657,0,0,0.046656,-0.010167,0,0.0071019,0,0,0,0.028556,0.0065306,0.010526,3.562,0.015204,0.020324,3.7563e-07,0.19,0.41,0
0.0085997,0.0023725,0.028546,0.0062997,0.010454,0.0012857,0,0,0.047041,-0.010801,0,0.0066855,0,0,0,0.028621,0.0062256,0.010454,3.2965,0.0151,0.020609,3.8653e-07,0.2,0.41,0
0.009072,0.0024383,0.028618,0.0059904,0.010382,0.0012082,0,0,0.047412,-0.01142,0,0.0062826,0,0,0,0.028682,0.005926,0.010382,3.0477,0.014997,0.020888,3.9718e-07,0.21,0.41,0
0.0095479,0.0025005,0.028685,0.0056883,0.010312,0.0011332,0,0,0.04777,-0.012021,0,0.0058928,0,0,0,0.028741,0.0056326,0.010312,2.8144,0.014895,0.02116,4.0752e-07,0.22,0.41,0
0.010027,0.0025593,0.028747,0.0053939,0.010242,0.0010608,0,0,0.048113,-0.012606,0,0.005516,0,0,0,0.028795,0.0053458,0.010242,2.5954,0.014795,0.021425,4.1754e-07,0.23,0.41,0
0.01051,0.0026147,0.028805,0.0051076,0.010174,0.00099073,0,0,0.048441,-0.013172,0,0.0051518,0,0,0,0.028847,0.0050663,0.010174,2.3898,0.014696,0.021683,4.2721e-07,0.24,0.41,0
0.010996,0.0026668,0.028859,0.0048297,0.010106,0.00092313,0,0,0.048756,-0.01372,0,0.0048002,0,0,0,0.028894,0.0047943,0.010106,2.1968,0.014598,0.021932,4.3651e-07,0.25,0.41,0
0.011485,0.0027158,0.028908,0.0045604,0.01004,0.00085792,0,0,0.049055,-0.014248,0,0.0044612,0,0,0,0.028938,0.0045302,0.01004,2.0156,0.014503,0.022172,4.4541e-07,0.26,0.41,0
0.011977,0.0027619,0.028952,0.0042998,0.0099757,0.00079511,0,0,0.04934,-0.014757,0,0.0041346,0,0,0,0.028978,0.0042742,0.0099757,1.8454,0.014409,0.022404,4.5391e-07,0.27,0.41,0
0.012472,0.0028051,0.028993,0.0040482,0.0099123,0.00073468,0,0,0.049609,-0.015247,0,0.0038203,0,0,0,0.029014,0.0040266,0.0099123,1.6856,0.014318,0.022627,4.6199e-07,0.28,0.41,0
0.01297,0.0028456,0.029029,0.0038056,0.0098504,0.00067662,0,0,0.049865,-0.015717,0,0.0035184,0,0,0,0.029047,0.0037874,0.0098504,1.5355,0.014228,0.02284,4.6966e-07,0.29,0.41,0
0.013469,0.0028835,0.029061,0.0035719,0.00979,0.00062093,0,0,0.050106,-0.016167,0,0.0032288,0,0,0,0.029077,0.0035568,0.00979,1.3946,0.014141,0.023044,4.7691e-07,0.3,0.41,0
0.013972,0.0029188,0.02909,0.0033473,0.0097311,0.00056757,0,0,0.050332,-0.016598,0,0.0029514,0,0,0,0.029102,0.0033348,0.0097311,1.2625,0.014056,0.023239,4.8374e-07,0.31,0.41,0
0.014476,0.0029517,0.029114,0.0031316,0.0096738,0.00051654,0,0,0.050546,-0.01701,0,0.002686,0,0,0,0.029125,0.0031214,0.0096738,1.1385,0.013973,0.023425,4.9015e-07,0.32,0.41,0
0.014982,0.0029824,0.029135,0.0029248,0.009618,0.00046782,0,0,0.050745,-0.017403,0,0.0024327,0,0,0,0.029144,0.0029164,0.009618,1.0222,0.013893,0.023601,4.9616e-07,0.33,0.41,0
0.015491,0.0030108,0.029153,0.0027267,0.0095639,0.00042137,0,0,0.050932,-0.017777,0,0.0021911,0,0,0,0.02916,0.00272,0.0095639,0.91328,0.013815,0.023769,5.0176e-07,0.34,0.41,0
0.016001,0.0030372,0.029167,0.0025373,0.0095114,0.00037717,0,0,0.051105,-0.018133,0,0.0019613,0,0,0,0.029173,0.0025319,0.0095114,0.81128,0.013739,0.023927,5.0697e-07,0.35,0.41,0
0.016513,0.0030616,0.029179,0.0023563,0.0094605,0.00033518,0,0,0.051267,-0.018471,0,0.0017429,0,0,0,0.029183,0.0023521,0.0094605,0.71583,0.013665,0.024077,5.1179e-07,0.36,0.41,0
0.017026,0.0030841,0.029187,0.0021836,0.0094111,0.00029535,0,0,0.051417,-0.018792,0,0.0015358,0,0,0,0.02919,0.0021804,0.0094111,0.62658,0.013594,0.024218,5.1625e-07,0.37,0.41,0
0.017541,0.0031048,0.029192,0.002019,0.0093634,0.00025766,0,0,0.051555,-0.019096,0,0.0013398,0,0,0,0.029195,0.0020166,0.0093634,0.54321,0.013525,0.024351,5.2035e-07,0.38,0.41,0
0.018058,0.0031238,0.029195,0.0018623,0.0093173,0.00022204,0,0,0.051683,-0.019383,0,0.0011546,0,0,0,0.029197,0.0018605,0.0093173,0.46539,0.013458,0.024476,5.241e-07,0.39,0.41,0
0.018575,0.0031411,0.029196,0.0017134,0.0092728,0.00018845,0,0,0.0518,-0.019654,0,0.00097992,0,0,0,0.029197,0.0017121,0.0092728,0.39285,0.013394,0.024592,5.2753e-07,0.4,0.41,0
0.019094,0.003157,0.029194,0.0015719,0.0092298,0.00015683,0,0,0.051907,-0.019911,0,0.00081553,0,0,0,0.029195,0.001571,0.0092298,0.3253,0.013332,0.024702,5.3064e-07,0.41,0.41,0
0.019613,0.0031713,0.02919,0.0014376,0.0091884,0.00012714,0,0,0.052005,-0.020152,0,0.00066111,0,0,0,0.029191,0.0014371,0.0091884,0.26247,0.013272,0.024804,5.3345e-07,0.42,0.41,0
0.020134,0.0031843,0.029184,0.0013104,0.0091485,9.9306e-05,0,0,0.052094,-0.020379,0,0.00051639,0,0,0,0.029185,0.0013101,0.0091485,0.20412,0.013215,0.024899,5.3598e-07,0.43,0.41,0
0.020655,0.0031961,0.029177,0.00119,0.0091101,7.3277e-05,0,0,0.052174,-0.020592,0,0.00038104,0,0,0,0.029177,0.0011898,0.0091101,0.15001,0.013159,0.024987,5.3824e-07,0.44,0.41,0
0.021177,0.0032065,0.029168,0.0010761,0.0090732,4.8993e-05,0,0,0.052246,-0.020792,0,0.00025476,0,0,0,0.029168,0.001076,0.0090732,0.099925,0.013106,0.025069,5.4025e-07,0.45,0.41,0
0.0217,0.0032159,0.029157,0.0009685,0.0090377,2.639e-05,0,0,0.05231,-0.02098,0,0.00013723,0,0,0,0.029157,0.00096847,0.0090377,0.053641,0.013054,0.025145,5.4202e-07,0.46,0.41,0
0.022223,0.0032242,0.029145,0.00086697,0.0090036,5.4088e-06,0,0,0.052368,-0.021155,0,2.8126e-05,0,0,0,0.029145,0.00086697,0.0090036,0.010959,0.013005,0.025214,5.4356e-07,0.47,0.41,0
0.022747,0.0032314,0.029132,0.00077127,0.0089709,-1.4013e-05,0,0,0.052418,-0.021319,0,-7.2869e-05,0,0,0,0.029132,0.00077126,0.0089709,-0.028311,0.012958,0.025278,5.4489e-07,0.48,0.41,0
0.023272,0.0032378,0.029117,0.00068115,0.0089395,-3.1937e-05,0,0,0.052462,-0.021472,0,-0.00016608,0,0,0,0.029117,0.00068112,0.0089395,-0.064351,0.012913,0.025337,5.4603e-07,0.49,0.41,0
0.023797,0.0032432,0.029102,0.00059639,0.0089095,-4.8425e-05,0,0,0.0525,-0.021614,0,-0.00025181,0,0,0,0.029102,0.00059631,0.0089095,-0.097334,0.012869,0.025391,5.4698e-07,0.5,0.41,0
0.024322,0.0032478,0.029086,0.00051676,0.0088807,-6.3537e-05,0,0,0.052533,-0.021746,0,-0.00033039,0,0,0,0.029086,0.00051662,0.0088807,-0.12742,0.012828,0.02544,5.4777e-07,0.51,0.41,0
0.024847,0.0032516,0.029069,0.00044202,0.0088532,-7.7332e-05,0,0,0.05256,-0.021869,0,-0.00040212,0,0,0,0.029069,0.00044182,0.0088532,-0.15478,0.012788,0.025485,5.4839e-07,0.52,0.41,0
0.025373,0.0032547,0.029051,0.00037196,0.0088269,-8.9869e-05,0,0,0.052583,-0.021983,0,-0.00046732,0,0,0,0.029051,0.00037168,0.0088269,-0.17954,0.01275,0.025525,5.4888e-07,0.53,0.41,0
0.025899,0.0032572,0.029033,0.00030636,0.0088018,-0.00010121,0,0,0.052601,-0.022088,0,-0.00052627,0,0,0,0.029033,0.000306,0.0088018,-0.20185,0.012714,0.025561,5.4923e-07,0.54,0.41,0
0.026425,0.003259,0.029014,0.000245,0.0087778,-0.0001114,0,0,0.052615,-0.022185,0,-0.00057927,0,0,0,0.029015,0.00024457,0.0087778,-0.22185,0.012679,0.025594,5.4945e-07,0.55,0.41,0
0.026951,0.0032603,0.028995,0.00018768,0.0087549,-0.0001205,0,0,0.052625,-0.022275,0,-0.00062661,0,0,0,0.028996,0.00018717,0.0087549,-0.23966,0.012646,0.025623,5.4957e-07,0.56,0.41,0
0.027477,0.0032611,0.028976,0.00013419,0.0087331,-0.00012857,0,0,0.052632,-0.022357,0,-0.00066856,0,0,0,0.028977,0.00013362,0.0087331,-0.2554,0.012615,0.025648,5.4958e-07,0.57,0.41,0
0.028004,0.0032613,0.028957,8.4347e-05,0.0087123,-0.00013565,0,0,0.052635,-0.022433,0,-0.00070539,0,0,0,0.028957,8.371e-05,0.0087123,-0.26919,0.012585,0.025671,5.4951e-07,0.58,0.41,0
0.02853,0.0032612,0.028937,3.7954e-05,0.0086925,-0.0001418,0,0,0.052636,-0.022502,0,-0.00073737,0,0,0,0.028938,3.7258e-05,0.0086925,-0.28113,0.012556,0.025691,5.4934e-07,0.59,0.41,0
0.029057,0.0032606,0.028917,-5.1705e-06,0.0086737,-0.00014706,0,0,0.052634,-0.022565,0,-0.00076474,0,0,0,0.028918,-5.9182e-06,0.0086737,-0.29133,0.012529,0.025708,5.4911e-07,0.6,0.41,0
0.029583,0.0032597,0.028898,-4.5204e-05,0.0086558,-0.00015149,0,0,0.052629,-0.022623,0,-0.00078774,0,0,0,0.028899,-4.5997e-05,0.0086558,-0.29988,0.012503,0.025722,5.488e-07,0.61,0.41,0
0.030109,0.0032584,0.028878,-8.2318e-05,0.0086388,-0.00015512,0,0,0.052623,-0.022675,0,-0.00080662,0,0,0,0.028879,-8.3149e-05,0.0086388,-0.30688,0.012478,0.025735,5.4844e-07,0.62,0.41,0
0.030635,0.0032569,0.028859,-0.00011668,0.0086226,-0.000158,0,0,0.052614,-0.022722,0,-0.00082159,0,0,0,0.028859,-0.00011754,0.0086226,-0.31241,0.012455,0.025745,5.4803e-07,0.63,0.41,0
0.031161,0.0032551,0.028839,-0.00014844,0.0086073,-0.00016017,0,0,0.052603,-0.022765,0,-0.00083287,0,0,0,0.02884,-0.00014933,0.0086073,-0.31657,0.012433,0.025753,5.4757e-07,0.64,0.41,0
0.031687,0.003253,0.02882,-0.00017776,0.0085927,-0.00016167,0,0,0.052591,-0.022803,0,-0.00084068,0,0,0,0.028821,-0.00017866,0.0085927,-0.31942,0.012412,0.02576,5.4707e-07,0.65,0.41,0
0.032213,0.0032508,0.028801,-0.00020478,0.008579,-0.00016254,0,0,0.052578,-0.022838,0,-0.0008452,0,0,0,0.028802,-0.00020569,0.008579,-0.32105,0.012392,0.025764,5.4653e-07,0.66,0.41,0
0.032739,0.0032484,0.028783,-0.00022965,0.0085659,-0.00016281,0,0,0.052564,-0.022868,0,-0.00084663,0,0,0,0.028784,-0.00023056,0.0085659,-0.32152,0.012373,0.025768,5.4597e-07,0.67,0.41,0
0.033265,0.0032458,0.028764,-0.00025249,0.0085536,-0.00016253,0,0,0.052548,-0.022896,0,-0.00084515,0,0,0,0.028765,-0.0002534,0.0085536,-0.32091,0.012355,0.02577,5.4539e-07,0.68,0.41,0
0.03379,0.0032431,0.028747,-0.00027344,0.0085419,-0.00016172,0,0,0.052532,-0.02292,0,-0.00084093,0,0,0,0.028747,-0.00027435,0.0085419,-0.31927,0.012338,0.025771,5.4479e-07,0.69,0.41,0
0.034315,0.0032403,0.028729,-0.00029263,0.0085309,-0.00016041,0,0,0.052515,-0.022941,0,-0.00083415,0,0,0,0.02873,-0.00029351,0.0085309,-0.31668,0.012322,0.02577,5.4417e-07,0.7,0.41,0
0.03484,0.0032374,0.028712,-0.00031016,0.0085205,-0.00015864,0,0,0.052498,-0.02296,0,-0.00082495,0,0,0,0.028713,-0.00031102,0.0085205,-0.31318,0.012307,0.025769,5.4355e-07,0.71,0.41,0
0.035365,0.0032344,0.028695,-0.00032614,0.0085107,-0.00015644,0,0,0.05248,-0.022976,0,-0.00081348,0,0,0,0.028696,-0.00032699,0.0085107,-0.30884,0.012293,0.025767,5.4291e-07,0.72,0.41,0
0.03589,0.0032314,0.028679,-0.0003407,0.0085015,-0.00015383,0,0,0.052462,-0.02299,0,-0.0007999,0,0,0,0.02868,-0.00034151,0.0085015,-0.3037,0.01228,0.025764,5.4228e-07,0.73,0.41,0
0.036414,0.0032284,0.028663,-0.00035392,0.0084928,-0.00015083,0,0,0.052443,-0.023002,0,-0.00078433,0,0,0,0.028664,-0.00035471,0.0084928,-0.29782,0.012267,0.025761,5.4165e-07,0.74,0.41,0
0.036939,0.0032254,0.028648,-0.00036591,0.0084846,-0.00014748,0,0,0.052425,-0.023011,0,-0.00076691,0,0,0,0.028649,-0.00036666,0.0084846,-0.29123,0.012256,0.025757,5.4102e-07,0.75,0.41,0
0.037463,0.0032224,0.028633,-0.00037675,0.008477,-0.0001438,0,0,0.052407,-0.02302,0,-0.00074776,0,0,0,0.028634,-0.00037747,0.008477,-0.284,0.012245,0.025752,5.404e-07,0.76,0.41,0
0.037987,0.0032194,0.028619,-0.00038654,0.0084698,-0.00013981,0,0,0.052388,-0.023026,0,-0.00072699,0,0,0,0.02862,-0.00038721,0.0084698,-0.27615,0.012234,0.025748,5.3978e-07,0.77,0.41,0
0.038511,0.0032164,0.028605,-0.00039535,0.008463,-0.00013552,0,0,0.05237,-0.023032,0,-0.00070471,0,0,0,0.028606,-0.00039598,0.008463,-0.26774,0.012224,0.025743,5.3918e-07,0.78,0.41,0
0.039034,0.0032135,0.028592,-0.00040326,0.0084567,-0.00013097,0,0,0.052353,-0.023036,0,-0.00068104,0,0,0,0.028593,-0.00040385,0.0084567,-0.25879,0.012215,0.025737,5.386e-07,0.79,0.41,0
0.039558,0.0032106,0.02858,-0.00041035,0.0084509,-0.00012616,0,0,0.052336,-0.023039,0,-0.00065606,0,0,0,0.02858,-0.0004109,0.0084509,-0.24935,0.012207,0.025732,5.3803e-07,0.8,0.41,0
0.040081,0.0032078,0.028568,-0.00041668,0.0084454,-0.00012113,0,0,0.052319,-0.023041,0,-0.00062988,0,0,0,0.028568,-0.00041718,0.0084454,-0.23944,0.012199,0.025726,5.3747e-07,0.81,0.41,0
0.040604,0.0032051,0.028557,-0.00042232,0.0084403,-0.00011588,0,0,0.052302,-0.023043,0,-0.00060258,0,0,0,0.028557,-0.00042278,0.0084403,-0.22911,0.012191,0.02572,5.3694e-07,0.82,0.41,0
0.041127,0.0032025,0.028546,-0.00042732,0.0084355,-0.00011043,0,0,0.052287,-0.023043,0,-0.00057425,0,0,0,0.028546,-0.00042775,0.0084355,-0.21838,0.012185,0.025715,5.3643e-07,0.83,0.41,0
0.04165,0.0032,0.028536,-0.00043176,0.0084312,-0.0001048,0,0,0.052271,-0.023044,0,-0.00054496,0,0,0,0.028536,-0.00043214,0.0084312,-0.20729,0.012178,0.025709,5.3594e-07,0.84,0.41,0
0.042172,0.0031976,0.028526,-0.00043567,0.0084271,-9.9001e-05,0,0,0.052257,-0.023043,0,-0.00051481,0,0,0,0.028526,-0.00043601,0.0084271,-0.19585,0.012172,0.025704,5.3547e-07,0.85,0.41,0
0.042695,0.0031954,0.028517,-0.00043911,0.0084234,-9.3047e-05,0,0,0.052243,-0.023043,0,-0.00048385,0,0,0,0.028517,-0.00043941,0.0084234,-0.18411,0.012167,0.025698,5.3503e-07,0.86,0.41,0
0.043217,0.0031932,0.028509,-0.00044212,0.00842,-8.6953e-05,0,0,0.052231,-0.023041,0,-0.00045215,0,0,0,0.028509,-0.00044238,0.00842,-0.17208,0.012162,0.025693,5.3462e-07,0.87,0.41,0
0.04374,0.0031912,0.028501,-0.00044474,0.0084168,-8.073e-05,0,0,0.052219,-0.02304,0,-0.00041979,0,0,0,0.028501,-0.00044497,0.0084168,-0.1598,0.012158,0.025688,5.3423e-07,0.88,0.41,0
0.044262,0.0031894,0.028494,-0.00044702,0.008414,-7.439e-05,0,0,0.052207,-0.023039,0,-0.00038683,0,0,0,0.028494,-0.00044721,0.008414,-0.14727,0.012154,0.025684,5.3388e-07,0.89,0.41,0
0.044784,0.0031876,0.028487,-0.00044898,0.0084115,-6.7946e-05,0,0,0.052197,-0.023037,0,-0.00035332,0,0,0,0.028487,-0.00044914,0.0084115,-0.13454,0.01215,0.02568,5.3355e-07,0.9,0.41,0
0.045306,0.003186,0.028481,-0.00045067,0.0084092,-6.1409e-05,0,0,0.052187,-0.023036,0,-0.00031933,0,0,0,0.028481,-0.0004508,0.0084092,-0.12161,0.012147,0.025676,5.3324e-07,0.91,0.41,0
0.045827,0.0031846,0.028476,-0.0004521,0.0084072,-5.4788e-05,0,0,0.052179,-0.023034,0,-0.0002849,0,0,0,0.028476,-0.0004522,0.0084072,-0.10852,0.012144,0.025672,5.3297e-07,0.92,0.41,0
0.046349,0.0031834,0.028471,-0.0004533,0.0084054,-4.8095e-05,0,0,0.052171,-0.023033,0,-0.00025009,0,0,0,0.028471,-0.00045338,0.0084054,-0.095269,0.012141,0.025669,5.3273e-07,0.93,0.41,0
0.046871,0.0031823,0.028467,-0.0004543,0.0084039,-4.1339e-05,0,0,0.052165,-0.023031,0,-0.00021496,0,0,0,0.028467,-0.00045436,0.0084039,-0.081895,0.012139,0.025666,5.3253e-07,0.94,0.41,0
0.047392,0.0031813,0.028464,-0.00045512,0.0084026,-3.4529e-05,0,0,0.052159,-0.02303,0,-0.00017955,0,0,0,0.028464,-0.00045516,0.0084026,-0.068411,0.012137,0.025663,5.3235e-07,0.95,0.41,0
0.047914,0.0031805,0.028461,-0.00045576,0.0084016,-2.7676e-05,0,0,0.052154,-0.023029,0,-0.00014391,0,0,0,0.028461,-0.00045579,0.0084016,-0.054837,0.012136,0.025661,5.322e-07,0.96,0.41,0
0.048436,0.0031799,0.028459,-0.00045625,0.0084008,-2.0787e-05,0,0,0.052151,-0.023028,0,-0.00010809,0,0,0,0.028459,-0.00045626,0.0084008,-0.04119,0.012134,0.02566,5.3209e-07,0.97,0.41,0
0.048957,0.0031795,0.028457,-0.00045659,0.0084002,-1.3873e-05,0,0,0.052148,-0.023028,0,-7.2137e-05,0,0,0,0.028457,-0.0004566,0.0084002,-0.02749,0.012134,0.025659,5.3201e-07,0.98,0.41,0
0.049479,0.0031792,0.028456,-0.00045679,0.0083999,-6.9406e-06,0,0,0.052147,-0.023027,0,-3.6091e-05,0,0,0,0.028456,-0.00045679,0.0083999,-0.013754,0.012133,0.025658,5.3196e-07,0.99,0.41,0
0.05,0.0031792,0.028456,-0.00045686,0.0083997,-1.6624e-06,0,0,0.052146,-0.023027,0,-8.6442e-06,0,0,0,0.028456,-0.00045686,0.0083997,-0.0032942,0.012133,0.025658,5.3194e-07,1,0.41,0
0,0,0.027037,0.011587,0.011587,0.00338,0,0,0.04017,1.6602e-19,0,0.017576,0,0,0,0.027744,0.01088,0.011587,11.816,0.016737,0.016522,2.302e-07,0,0.42,0
0.0004017,0.00017576,0.027051,0.011614,0.0116,0.0033497,0,0,0.040173,3.8918e-05,0,0.017418,0,0,0,0.027746,0.010919,0.0116,11.73,0.016755,0.016497,2.2928e-07,0.01,0.42,0
0.00080345,0.00034573,0.027061,0.011583,0.011593,0.0032402,0,0,0.040217,-2.6703e-05,0,0.016849,0,0,0,0.027712,0.010932,0.011593,11.359,0.016746,0.016459,2.2778e-07,0.02,0.42,0
0.001206,0.00050873,0.027091,0.011493,0.011575,0.0031046,0,0,0.040341,-0.00021298,0,0.016144,0,0,0,0.027686,0.010898,0.011575,10.854,0.01672,0.01646,2.2773e-07,0.03,0.42,0
0.0016103,0.00066406,0.02714,0.011347,0.011546,0.0029556,0,0,0.040544,-0.00051797,0,0.015369,0,0,0,0.027675,0.010812,0.011546,10.26,0.016678,0.016508,2.2952e-07,0.04,0.42,0
0.0020169,0.00081145,0.027206,0.01115,0.011507,0.0028031,0,0,0.040818,-0.00092752,0,0.014576,0,0,0,0.027682,0.010675,0.011507,9.6237,0.016621,0.016606,2.3321e-07,0.05,0.42,0
0.0024266,0.00095097,0.027286,0.010913,0.01146,0.0026537,0,0,0.041149,-0.0014222,0,0.013799,0,0,0,0.027706,0.010493,0.01146,8.98,0.016553,0.01675,2.3866e-07,0.06,0.42,0
0.0028399,0.0010829,0.027376,0.010643,0.011406,0.002511,0,0,0.041523,-0.0019824,0,0.013057,0,0,0,0.027745,0.010275,0.011406,8.3529,0.016475,0.016933,2.4561e-07,0.07,0.42,0
0.0032571,0.0012075,0.027472,0.01035,0.011347,0.0023762,0,0,0.041927,-0.0025913,0,0.012356,0,0,0,0.027796,0.010026,0.011347,7.7561,0.01639,0.017147,2.5379e-07,0.08,0.42,0
0.0036784,0.0013253,0.027572,0.010039,0.011283,0.0022494,0,0,0.04235,-0.0032349,0,0.011697,0,0,0,0.027856,0.0097551,0.011283,7.1956,0.016298,0.017387,2.6294e-07,0.09,0.42,0
0.0041041,0.0014367,0.027673,0.0097155,0.011216,0.0021302,0,0,0.042786,-0.0039025,0,0.011077,0,0,0,0.027922,0.0094662,0.011216,6.6734,0.016202,0.017646,2.7285e-07,0.1,0.42,0
0.0045341,0.0015419,0.027773,0.0093832,0.011147,0.0020178,0,0,0.043229,-0.0045857,0,0.010493,0,0,0,0.027992,0.0091644,0.011147,6.1885,0.016101,0.017919,2.8334e-07,0.11,0.42,0
0.0049687,0.0016415,0.027873,0.0090456,0.011076,0.0019115,0,0,0.043673,-0.005278,0,0.0099396,0,0,0,0.028065,0.0088535,0.011076,5.739,0.015998,0.018202,2.9425e-07,0.12,0.42,0
0.0054076,0.0017356,0.02797,0.008705,0.011003,0.0018105,0,0,0.044117,-0.005974,0,0.0094145,0,0,0,0.028139,0.0085363,0.011003,5.3223,0.015893,0.018493,3.0546e-07,0.13,0.42,0
0.005851,0.0018247,0.028066,0.0083635,0.010929,0.0017142,0,0,0.044556,-0.0066695,0,0.0089139,0,0,0,0.028214,0.0082155,0.010929,4.9357,0.015786,0.018789,3.1686e-07,0.14,0.42,0
0.0062987,0.0019089,0.028158,0.008023,0.010854,0.0016222,0,0,0.044989,-0.0073612,0,0.0084354,0,0,0,0.028288,0.0078931,0.010854,4.5768,0.015678,0.019087,3.2835e-07,0.15,0.42,0
0.0067508,0.0019885,0.028247,0.0076847,0.010779,0.001534,0,0,0.045415,-0.0080462,0,0.0079766,0,0,0,0.02836,0.0075709,0.010779,4.2431,0.01557,0.019385,3.3986e-07,0.16,0.42,0
0.007207,0.0020637,0.028332,0.00735,0.010705,0.0014492,0,0,0.045831,-0.0087219,0,0.0075357,0,0,0,0.028431,0.0072504,0.010705,3.9324,0.015462,0.019683,3.5132e-07,0.17,0.42,0
0.0076674,0.0021347,0.028413,0.0070198,0.01063,0.0013676,0,0,0.046237,-0.0093865,0,0.0071115,0,0,0,0.028501,0.0069327,0.01063,3.6429,0.015354,0.019977,3.6266e-07,0.18,0.42,0
0.0081318,0.0022018,0.028491,0.006695,0.010556,0.001289,0,0,0.046631,-0.010038,0,0.0067027,0,0,0,0.028567,0.006619,0.010556,3.3727,0.015247,0.020268,3.7384e-07,0.19,0.42,0
0.0086,0.0022651,0.028564,0.0063763,0.010482,0.0012132,0,0,0.047014,-0.010675,0,0.0063086,0,0,0,0.02863,0.0063102,0.010482,3.1204,0.015141,0.020554,3.8479e-07,0.2,0.42,0
0.009072,0.0023248,0.028634,0.0060644,0.010409,0.0011401,0,0,0.047383,-0.011297,0,0.0059283,0,0,0,0.028691,0.006007,0.010409,2.8844,0.015036,0.020835,3.9549e-07,0.21,0.42,0
0.0095477,0.002381,0.028699,0.0057599,0.010337,0.0010695,0,0,0.047739,-0.011902,0,0.0055614,0,0,0,0.028748,0.0057101,0.010337,2.6637,0.014932,0.021108,4.0589e-07,0.22,0.42,0
0.010027,0.0024338,0.028759,0.005463,0.010267,0.0010014,0,0,0.048081,-0.01249,0,0.0052075,0,0,0,0.028802,0.00542,0.010267,2.4569,0.01483,0.021375,4.1597e-07,0.23,0.42,0
0.010509,0.0024835,0.028816,0.0051743,0.010197,0.00093581,0,0,0.048409,-0.013059,0,0.0048662,0,0,0,0.028853,0.0051373,0.010197,2.2632,0.014729,0.021634,4.2569e-07,0.24,0.42,0
0.010995,0.0025302,0.028868,0.004894,0.010129,0.00087257,0,0,0.048722,-0.01361,0,0.0045373,0,0,0,0.0289,0.0048623,0.010129,2.0817,0.01463,0.021885,4.3504e-07,0.25,0.42,0
0.011484,0.0025739,0.028916,0.0046223,0.010061,0.00081167,0,0,0.049021,-0.014142,0,0.0042207,0,0,0,0.028943,0.0045952,0.010061,1.9115,0.014533,0.022127,4.44e-07,0.26,0.42,0
0.011975,0.0026149,0.028959,0.0043594,0.0099957,0.00075309,0,0,0.049306,-0.014654,0,0.0039161,0,0,0,0.028983,0.0043364,0.0099957,1.7518,0.014438,0.02236,4.5257e-07,0.27,0.42,0
0.01247,0.0026532,0.028999,0.0041055,0.0099314,0.0006968,0,0,0.049576,-0.015147,0,0.0036233,0,0,0,0.029018,0.004086,0.0099314,1.6021,0.014345,0.022585,4.6071e-07,0.28,0.42,0
0.012967,0.0026889,0.029035,0.0038605,0.0098686,0.00064277,0,0,0.049832,-0.015621,0,0.0033424,0,0,0,0.029051,0.0038441,0.0098686,1.4616,0.014255,0.0228,4.6845e-07,0.29,0.42,0
0.013466,0.0027223,0.029066,0.0036246,0.0098073,0.00059097,0,0,0.050073,-0.016075,0,0.003073,0,0,0,0.02908,0.0036109,0.0098073,1.3299,0.014166,0.023006,4.7576e-07,0.3,0.42,0
0.013968,0.0027533,0.029094,0.0033977,0.0097476,0.00054138,0,0,0.050301,-0.01651,0,0.0028152,0,0,0,0.029106,0.0033863,0.0097476,1.2064,0.01408,0.023202,4.8265e-07,0.31,0.42,0
0.014472,0.0027821,0.029118,0.0031797,0.0096895,0.00049398,0,0,0.050515,-0.016925,0,0.0025687,0,0,0,0.029128,0.0031703,0.0096895,1.0906,0.013996,0.02339,4.8913e-07,0.32,0.42,0
0.014979,0.0028088,0.029139,0.0029707,0.009633,0.00044873,0,0,0.050716,-0.017322,0,0.0023334,0,0,0,0.029147,0.002963,0.009633,0.9821,0.013914,0.023568,4.952e-07,0.33,0.42,0
0.015487,0.0028335,0.029157,0.0027704,0.0095781,0.00040559,0,0,0.050904,-0.0177,0,0.0021091,0,0,0,0.029163,0.0027642,0.0095781,0.88044,0.013835,0.023737,5.0087e-07,0.34,0.42,0
0.015997,0.0028563,0.029171,0.0025788,0.0095249,0.00036454,0,0,0.05108,-0.01806,0,0.0018956,0,0,0,0.029176,0.0025738,0.0095249,0.78525,0.013758,0.023897,5.0614e-07,0.35,0.42,0
0.016508,0.0028773,0.029182,0.0023957,0.0094733,0.00032554,0,0,0.051243,-0.018402,0,0.0016928,0,0,0,0.029186,0.0023918,0.0094733,0.69619,0.013684,0.024049,5.1103e-07,0.36,0.42,0
0.017022,0.0028965,0.02919,0.002221,0.0094234,0.00028854,0,0,0.051394,-0.018726,0,0.0015004,0,0,0,0.029193,0.0022179,0.0094234,0.61289,0.013612,0.024192,5.1555e-07,0.37,0.42,0
0.017536,0.0029141,0.029196,0.0020544,0.0093751,0.0002535,0,0,0.051534,-0.019034,0,0.0013182,0,0,0,0.029198,0.002052,0.0093751,0.53507,0.013542,0.024326,5.1971e-07,0.38,0.42,0
0.018052,0.0029302,0.029199,0.0018957,0.0093284,0.00022037,0,0,0.051663,-0.019325,0,0.0011459,0,0,0,0.029201,0.0018939,0.0093284,0.4624,0.013474,0.024452,5.2352e-07,0.39,0.42,0
0.01857,0.0029449,0.0292,0.0017448,0.0092833,0.00018911,0,0,0.051782,-0.0196,0,0.00098335,0,0,0,0.029201,0.0017435,0.0092833,0.39463,0.013409,0.024571,5.2701e-07,0.4,0.42,0
0.019088,0.0029581,0.029198,0.0016015,0.0092398,0.00015966,0,0,0.051891,-0.01986,0,0.00083023,0,0,0,0.029199,0.0016006,0.0092398,0.33147,0.013346,0.024682,5.3018e-07,0.41,0.42,0
0.019607,0.0029701,0.029194,0.0014654,0.0091979,0.00013197,0,0,0.051991,-0.020104,0,0.00068626,0,0,0,0.029195,0.0014648,0.0091979,0.27269,0.013286,0.024785,5.3305e-07,0.42,0.42,0
0.020128,0.0029808,0.029189,0.0013364,0.0091575,0.000106,0,0,0.052081,-0.020335,0,0.00055119,0,0,0,0.029189,0.001336,0.0091575,0.21805,0.013227,0.024882,5.3563e-07,0.43,0.42,0
0.020649,0.0029903,0.029181,0.0012143,0.0091187,8.1675e-05,0,0,0.052163,-0.020551,0,0.00042471,0,0,0,0.029181,0.0012141,0.0091187,0.16733,0.013171,0.024972,5.3794e-07,0.44,0.42,0
0.021171,0.0029988,0.029172,0.0010988,0.0090813,5.8951e-05,0,0,0.052236,-0.020754,0,0.00030655,0,0,0,0.029172,0.0010986,0.0090813,0.12031,0.013117,0.025055,5.4e-07,0.45,0.42,0
0.021694,0.0030063,0.029162,0.00098959,0.0090454,3.7769e-05,0,0,0.052302,-0.020945,0,0.0001964,0,0,0,0.029162,0.00098954,0.0090454,0.076814,0.013066,0.025132,5.4181e-07,0.46,0.42,0
0.022217,0.0030128,0.02915,0.00088654,0.0090109,1.8074e-05,0,0,0.052361,-0.021123,0,9.3984e-05,0,0,0,0.02915,0.00088653,0.0090109,0.03664,0.013016,0.025203,5.434e-07,0.47,0.42,0
0.022741,0.0030184,0.029137,0.00078937,0.0089778,-1.9145e-07,0,0,0.052413,-0.02129,0,-9.9554e-07,0,0,0,0.029137,0.00078937,0.0089778,-0.00038696,0.012968,0.025268,5.4478e-07,0.48,0.42,0
0.023265,0.0030232,0.029122,0.00069785,0.0089461,-1.7083e-05,0,0,0.052458,-0.021445,0,-8.883e-05,0,0,0,0.029122,0.00069784,0.0089461,-0.034434,0.012922,0.025329,5.4596e-07,0.49,0.42,0
0.02379,0.0030272,0.029107,0.00061174,0.0089157,-3.2655e-05,0,0,0.052498,-0.02159,0,-0.00016981,0,0,0,0.029107,0.00061171,0.0089157,-0.06566,0.012878,0.025384,5.4695e-07,0.5,0.42,0
0.024315,0.0030304,0.029091,0.00053082,0.0088866,-4.6964e-05,0,0,0.052532,-0.021725,0,-0.00024421,0,0,0,0.029091,0.00053074,0.0088866,-0.094216,0.012836,0.025434,5.4777e-07,0.51,0.42,0
0.024841,0.003033,0.029074,0.00045485,0.0088588,-6.0063e-05,0,0,0.052561,-0.02185,0,-0.00031233,0,0,0,0.029074,0.00045472,0.0088588,-0.12025,0.012796,0.025479,5.4844e-07,0.52,0.42,0
0.025367,0.003035,0.029057,0.0003836,0.0088322,-7.2006e-05,0,0,0.052584,-0.021966,0,-0.00037443,0,0,0,0.029057,0.00038342,0.0088322,-0.14388,0.012758,0.025521,5.4895e-07,0.53,0.42,0
0.025892,0.0030364,0.029039,0.00031687,0.0088068,-8.2843e-05,0,0,0.052604,-0.022074,0,-0.00043079,0,0,0,0.029039,0.00031664,0.0088068,-0.16526,0.012721,0.025558,5.4933e-07,0.54,0.42,0
0.026419,0.0030372,0.029021,0.00025444,0.0087825,-9.2627e-05,0,0,0.052619,-0.022173,0,-0.00048166,0,0,0,0.029021,0.00025414,0.0087825,-0.18449,0.012686,0.025591,5.4959e-07,0.55,0.42,0
0.026945,0.0030376,0.029002,0.0001961,0.0087593,-0.00010141,0,0,0.05263,-0.022264,0,-0.00052731,0,0,0,0.029002,0.00019574,0.0087593,-0.2017,0.012652,0.025621,5.4974e-07,0.56,0.42,0
0.027471,0.0030375,0.028983,0.00014164,0.0087372,-0.00010923,0,0,0.052638,-0.022349,0,-0.00056799,0,0,0,0.028983,0.00014123,0.0087372,-0.21699,0.01262,0.025648,5.4978e-07,0.57,0.42,0
0.027998,0.003037,0.028963,9.0876e-05,0.0087162,-0.00011614,0,0,0.052642,-0.022426,0,-0.00060393,0,0,0,0.028964,9.0409e-05,0.0087162,-0.23047,0.01259,0.025671,5.4972e-07,0.58,0.42,0
0.028524,0.0030362,0.028944,4.3607e-05,0.0086962,-0.00012219,0,0,0.052643,-0.022497,0,-0.00063538,0,0,0,0.028944,4.3091e-05,0.0086962,-0.24224,0.012561,0.025692,5.4959e-07,0.59,0.42,0
0.02905,0.003035,0.028924,-3.4779e-07,0.0086771,-0.00012742,0,0,0.052642,-0.022561,0,-0.00066257,0,0,0,0.028925,-9.0907e-07,0.0086771,-0.25239,0.012534,0.025709,5.4937e-07,0.6,0.42,0
0.029577,0.0030335,0.028904,-4.1168e-05,0.008659,-0.00013186,0,0,0.052638,-0.02262,0,-0.0006857,0,0,0,0.028905,-4.1769e-05,0.008659,-0.26101,0.012507,0.025725,5.4909e-07,0.61,0.42,0
0.030103,0.0030317,0.028885,-7.9027e-05,0.0086418,-0.00013558,0,0,0.052632,-0.022674,0,-0.000705,0,0,0,0.028886,-7.9662e-05,0.0086418,-0.26819,0.012483,0.025738,5.4875e-07,0.62,0.42,0
0.03063,0.0030297,0.028865,-0.00011409,0.0086254,-0.00013859,0,0,0.052624,-0.022723,0,-0.00072066,0,0,0,0.028866,-0.00011475,0.0086254,-0.27399,0.012459,0.025749,5.4835e-07,0.63,0.42,0
0.031156,0.0030274,0.028846,-0.00014652,0.0086099,-0.00014094,0,0,0.052615,-0.022767,0,-0.00073288,0,0,0,0.028847,-0.0001472,0.0086099,-0.27852,0.012436,0.025757,5.4791e-07,0.64,0.42,0
0.031682,0.003025,0.028827,-0.00017647,0.0085952,-0.00014266,0,0,0.052603,-0.022806,0,-0.00074186,0,0,0,0.028828,-0.00017717,0.0085952,-0.28182,0.012415,0.025764,5.4742e-07,0.65,0.42,0
0.032208,0.0030224,0.028808,-0.00020408,0.0085813,-0.0001438,0,0,0.05259,-0.022842,0,-0.00074777,0,0,0,0.028809,-0.00020479,0.0085813,-0.28398,0.012395,0.02577,5.469e-07,0.66,0.42,0
0.032734,0.0030197,0.02879,-0.00022951,0.0085681,-0.00014438,0,0,0.052576,-0.022874,0,-0.00075078,0,0,0,0.028791,-0.00023022,0.0085681,-0.28506,0.012376,0.025774,5.4635e-07,0.67,0.42,0
0.033259,0.0030168,0.028771,-0.00025288,0.0085556,-0.00014443,0,0,0.052561,-0.022902,0,-0.00075106,0,0,0,0.028772,-0.0002536,0.0085556,-0.28511,0.012358,0.025776,5.4578e-07,0.68,0.42,0
0.033785,0.0030139,0.028754,-0.00027432,0.0085438,-0.00014399,0,0,0.052546,-0.022927,0,-0.00074877,0,0,0,0.028754,-0.00027504,0.0085438,-0.28421,0.012341,0.025777,5.4519e-07,0.69,0.42,0
0.03431,0.0030108,0.028736,-0.00029397,0.0085326,-0.00014309,0,0,0.052529,-0.022949,0,-0.00074405,0,0,0,0.028737,-0.00029467,0.0085326,-0.2824,0.012325,0.025777,5.4458e-07,0.7,0.42,0
0.034835,0.0030078,0.028719,-0.00031194,0.0085221,-0.00014174,0,0,0.052512,-0.022968,0,-0.00073706,0,0,0,0.02872,-0.00031263,0.0085221,-0.27974,0.01231,0.025777,5.4397e-07,0.71,0.42,0
0.035361,0.0030046,0.028702,-0.00032833,0.0085122,-0.00013999,0,0,0.052494,-0.022985,0,-0.00072793,0,0,0,0.028703,-0.00032901,0.0085122,-0.27627,0.012295,0.025775,5.4334e-07,0.72,0.42,0
0.035885,0.0030015,0.028686,-0.00034327,0.0085028,-0.00013784,0,0,0.052477,-0.023,0,-0.00071679,0,0,0,0.028687,-0.00034393,0.0085028,-0.27206,0.012282,0.025772,5.4272e-07,0.73,0.42,0
0.03641,0.0029983,0.02867,-0.00035685,0.008494,-0.00013534,0,0,0.052458,-0.023012,0,-0.00070377,0,0,0,0.028671,-0.00035748,0.008494,-0.26714,0.012269,0.025769,5.4209e-07,0.74,0.42,0
0.036935,0.0029952,0.028655,-0.00036918,0.0084858,-0.0001325,0,0,0.05244,-0.023023,0,-0.00068898,0,0,0,0.028656,-0.00036978,0.0084858,-0.26155,0.012257,0.025766,5.4147e-07,0.75,0.42,0
0.037459,0.0029921,0.02864,-0.00038033,0.008478,-0.00012934,0,0,0.052422,-0.023032,0,-0.00067255,0,0,0,0.028641,-0.00038091,0.008478,-0.25534,0.012246,0.025761,5.4085e-07,0.76,0.42,0
0.037983,0.002989,0.028626,-0.00039041,0.0084707,-0.00012588,0,0,0.052404,-0.023039,0,-0.00065456,0,0,0,0.028627,-0.00039096,0.0084707,-0.24855,0.012235,0.025757,5.4025e-07,0.77,0.42,0
0.038507,0.002986,0.028612,-0.0003995,0.0084639,-0.00012214,0,0,0.052386,-0.023045,0,-0.00063514,0,0,0,0.028613,-0.00040001,0.0084639,-0.24121,0.012226,0.025752,5.3965e-07,0.78,0.42,0
0.039031,0.0029831,0.028599,-0.00040766,0.0084575,-0.00011815,0,0,0.052369,-0.02305,0,-0.00061438,0,0,0,0.0286,-0.00040814,0.0084575,-0.23337,0.012216,0.025747,5.3907e-07,0.79,0.42,0
0.039554,0.0029802,0.028587,-0.00041498,0.0084516,-0.00011392,0,0,0.052352,-0.023053,0,-0.00059236,0,0,0,0.028587,-0.00041543,0.0084516,-0.22505,0.012208,0.025741,5.385e-07,0.8,0.42,0
0.040078,0.0029774,0.028575,-0.00042154,0.008446,-0.00010946,0,0,0.052335,-0.023056,0,-0.00056918,0,0,0,0.028575,-0.00042195,0.008446,-0.21628,0.0122,0.025736,5.3795e-07,0.81,0.42,0
0.040601,0.0029746,0.028563,-0.00042738,0.0084408,-0.00010479,0,0,0.052319,-0.023057,0,-0.00054493,0,0,0,0.028564,-0.00042776,0.0084408,-0.2071,0.012192,0.02573,5.3742e-07,0.82,0.42,0
0.041124,0.002972,0.028553,-0.00043257,0.008436,-9.9937e-05,0,0,0.052303,-0.023058,0,-0.00051967,0,0,0,0.028553,-0.00043292,0.008436,-0.19754,0.012185,0.025725,5.3691e-07,0.83,0.42,0
0.041647,0.0029695,0.028542,-0.00043718,0.0084316,-9.4903e-05,0,0,0.052288,-0.023059,0,-0.0004935,0,0,0,0.028543,-0.00043749,0.0084316,-0.18763,0.012179,0.025719,5.3643e-07,0.84,0.42,0
0.04217,0.0029671,0.028533,-0.00044125,0.0084275,-8.9706e-05,0,0,0.052274,-0.023059,0,-0.00046647,0,0,0,0.028533,-0.00044153,0.0084275,-0.17739,0.012173,0.025714,5.3596e-07,0.85,0.42,0
0.042693,0.0029649,0.028524,-0.00044483,0.0084237,-8.4359e-05,0,0,0.05226,-0.023058,0,-0.00043866,0,0,0,0.028524,-0.00044508,0.0084237,-0.16685,0.012168,0.025709,5.3552e-07,0.86,0.42,0
0.043215,0.0029627,0.028515,-0.00044797,0.0084203,-7.8874e-05,0,0,0.052248,-0.023057,0,-0.00041014,0,0,0,0.028516,-0.00044819,0.0084203,-0.15603,0.012163,0.025704,5.3511e-07,0.87,0.42,0
0.043737,0.0029607,0.028508,-0.00045072,0.0084171,-7.3264e-05,0,0,0.052236,-0.023056,0,-0.00038097,0,0,0,0.028508,-0.00045091,0.0084171,-0.14496,0.012158,0.025699,5.3473e-07,0.88,0.42,0
0.04426,0.0029589,0.028501,-0.00045311,0.0084142,-6.754e-05,0,0,0.052224,-0.023055,0,-0.00035121,0,0,0,0.028501,-0.00045326,0.0084142,-0.13365,0.012154,0.025695,5.3437e-07,0.89,0.42,0
0.044782,0.0029572,0.028494,-0.00045517,0.0084116,-6.1714e-05,0,0,0.052214,-0.023054,0,-0.00032091,0,0,0,0.028494,-0.0004553,0.0084116,-0.12214,0.01215,0.02569,5.3404e-07,0.9,0.42,0
0.045304,0.0029556,0.028488,-0.00045694,0.0084093,-5.5795e-05,0,0,0.052205,-0.023052,0,-0.00029014,0,0,0,0.028488,-0.00045705,0.0084093,-0.11045,0.012147,0.025687,5.3374e-07,0.91,0.42,0
0.045826,0.0029542,0.028483,-0.00045845,0.0084073,-4.9796e-05,0,0,0.052196,-0.023051,0,-0.00025894,0,0,0,0.028483,-0.00045853,0.0084073,-0.098582,0.012144,0.025683,5.3347e-07,0.92,0.42,0
0.046348,0.0029529,0.028478,-0.00045972,0.0084055,-4.3724e-05,0,0,0.052189,-0.02305,0,-0.00022737,0,0,0,0.028478,-0.00045979,0.0084055,-0.086573,0.012141,0.02568,5.3323e-07,0.93,0.42,0
0.04687,0.0029518,0.028474,-0.00046078,0.008404,-3.7591e-05,0,0,0.052182,-0.023048,0,-0.00019547,0,0,0,0.028474,-0.00046083,0.008404,-0.074437,0.012139,0.025677,5.3302e-07,0.94,0.42,0
0.047392,0.0029509,0.02847,-0.00046164,0.0084027,-3.1405e-05,0,0,0.052176,-0.023047,0,-0.00016331,0,0,0,0.028471,-0.00046167,0.0084027,-0.062193,0.012137,0.025675,5.3284e-07,0.95,0.42,0
0.047913,0.0029502,0.028468,-0.00046232,0.0084016,-2.5176e-05,0,0,0.052172,-0.023046,0,-0.00013092,0,0,0,0.028468,-0.00046234,0.0084016,-0.049861,0.012136,0.025673,5.327e-07,0.96,0.42,0
0.048435,0.0029496,0.028466,-0.00046284,0.0084008,-1.8912e-05,0,0,0.052168,-0.023046,0,-9.8342e-05,0,0,0,0.028466,-0.00046285,0.0084008,-0.037457,0.012134,0.025671,5.3259e-07,0.97,0.42,0
0.048957,0.0029491,0.028464,-0.0004632,0.0084002,-1.2622e-05,0,0,0.052166,-0.023045,0,-6.5636e-05,0,0,0,0.028464,-0.00046321,0.0084002,-0.025001,0.012134,0.02567,5.3251e-07,0.98,0.42,0
0.049478,0.0029489,0.028463,-0.00046342,0.0083999,-6.3154e-06,0,0,0.052164,-0.023045,0,-3.284e-05,0,0,0,0.028463,-0.00046342,0.0083999,-0.012509,0.012133,0.025669,5.3246e-07,0.99,0.42,0
0.05,0.0029488,0.028463,-0.00046349,0.0083998,-1.6395e-06,0,0,0.052164,-0.023044,0,-8.5254e-06,0,0,0,0.028463,-0.00046349,0.0083998,-0.0032474,0.012133,0.025669,5.3244e-07,1,0.42,0
0,0,0.027133,0.011628,0.011628,0.003397,0,0,0.040311,-2.9138e-19,0,0.017665,0,0,0,0.027844,0.010917,0.011628,11.832,0.016796,0.016583,2.3277e-07,0,0.43,0
0.00040311,0.00017665,0.027155,0.011721,0.011663,0.0033597,0,0,0.04028,0.00015113,0,0.017471,0,0,0,0.027855,0.011021,0.011663,11.763,0.016847,0.016522,2.3047e-07,0.01,0.43,0
0.00080561,0.00034632,0.027151,0.011725,0.011663,0.0032277,0,0,0.040269,0.00016278,0,0.016784,0,0,0,0.027799,0.011077,0.011663,11.355,0.016846,0.016437,2.271e-07,0.02,0.43,0
0.0012085,0.00050767,0.02717,0.011654,0.011647,0.0030676,0,0,0.04036,1.6826e-05,0,0.015951,0,0,0,0.027755,0.011069,0.011647,10.787,0.016824,0.016404,2.2577e-07,0.03,0.43,0
0.0016128,0.00066003,0.027214,0.011511,0.011617,0.0028969,0,0,0.04055,-0.00027677,0,0.015064,0,0,0,0.027731,0.010993,0.011617,10.126,0.016781,0.016434,2.2687e-07,0.04,0.43,0
0.0020195,0.00080332,0.027277,0.01131,0.011576,0.0027278,0,0,0.040823,-0.00069252,0,0.014185,0,0,0,0.02773,0.010857,0.011576,9.432,0.016721,0.016526,2.3032e-07,0.05,0.43,0
0.0024293,0.00093784,0.027356,0.011064,0.011526,0.0025671,0,0,0.041157,-0.0012015,0,0.013349,0,0,0,0.027751,0.010669,0.011526,8.7459,0.016648,0.01667,2.3579e-07,0.06,0.43,0
0.0028426,0.0010641,0.027443,0.010785,0.011468,0.0024174,0,0,0.041535,-0.001778,0,0.01257,0,0,0,0.027787,0.010441,0.011468,8.0918,0.016566,0.016856,2.429e-07,0.07,0.43,0
0.00326,0.0011826,0.027537,0.010482,0.011406,0.0022787,0,0,0.041942,-0.0024022,0,0.011849,0,0,0,0.027836,0.010183,0.011406,7.4803,0.016475,0.017075,2.5127e-07,0.08,0.43,0
0.0036815,0.0012939,0.027633,0.010162,0.011339,0.0021503,0,0,0.042366,-0.0030591,0,0.011182,0,0,0,0.027894,0.0099012,0.011339,6.9143,0.016378,0.017319,2.6061e-07,0.09,0.43,0
0.0041073,0.0013985,0.02773,0.0098306,0.011268,0.002031,0,0,0.042801,-0.0037378,0,0.010561,0,0,0,0.027958,0.0096031,0.011268,6.3928,0.016276,0.017581,2.7069e-07,0.1,0.43,0
0.0045375,0.0014969,0.027827,0.0094916,0.011196,0.0019195,0,0,0.043241,-0.00443,0,0.0099814,0,0,0,0.028025,0.0092928,0.011196,5.9129,0.016171,0.017857,2.8131e-07,0.11,0.43,0
0.0049721,0.0015895,0.027922,0.009148,0.011121,0.0018149,0,0,0.043682,-0.0051297,0,0.0094372,0,0,0,0.028096,0.0089742,0.011121,5.4712,0.016064,0.018144,2.9233e-07,0.12,0.43,0
0.0054111,0.0016766,0.028015,0.0088022,0.011045,0.0017161,0,0,0.044122,-0.0058317,0,0.0089238,0,0,0,0.028167,0.0086501,0.011045,5.0643,0.015954,0.018437,3.0362e-07,0.13,0.43,0
0.0058546,0.0017587,0.028106,0.0084562,0.010969,0.0016225,0,0,0.044557,-0.0065324,0,0.0084373,0,0,0,0.028239,0.0083231,0.010969,4.6888,0.015843,0.018734,3.1509e-07,0.14,0.43,0
0.0063023,0.0018359,0.028194,0.0081115,0.010892,0.0015336,0,0,0.044986,-0.0072284,0,0.0079745,0,0,0,0.02831,0.007995,0.010892,4.3417,0.015732,0.019033,3.2664e-07,0.15,0.43,0
0.0067543,0.0019087,0.028279,0.0077695,0.010814,0.0014487,0,0,0.045408,-0.0079171,0,0.0075331,0,0,0,0.028381,0.0076677,0.010814,4.0204,0.015621,0.019333,3.382e-07,0.16,0.43,0
0.0072104,0.0019771,0.028361,0.0074313,0.010738,0.0013675,0,0,0.04582,-0.0085963,0,0.0071108,0,0,0,0.02845,0.0073424,0.010738,3.7224,0.01551,0.019631,3.497e-07,0.17,0.43,0
0.0076707,0.0020415,0.028439,0.007098,0.010661,0.0012896,0,0,0.046222,-0.0092639,0,0.0067061,0,0,0,0.028517,0.0070203,0.010661,3.4457,0.015399,0.019927,3.6108e-07,0.18,0.43,0
0.0081349,0.0021021,0.028513,0.0067702,0.010585,0.0012149,0,0,0.046613,-0.0099185,0,0.0063177,0,0,0,0.028581,0.0067026,0.010585,3.1883,0.015289,0.020219,3.7229e-07,0.19,0.43,0
0.0086029,0.002159,0.028584,0.0064488,0.01051,0.0011432,0,0,0.046993,-0.010559,0,0.0059444,0,0,0,0.028643,0.0063899,0.01051,2.9486,0.015181,0.020506,3.8328e-07,0.2,0.43,0
0.0090747,0.0022124,0.028651,0.0061342,0.010436,0.0010741,0,0,0.047359,-0.011183,0,0.0055855,0,0,0,0.028702,0.0060831,0.010436,2.725,0.015073,0.020787,3.9401e-07,0.21,0.43,0
0.0095501,0.0022625,0.028713,0.0058271,0.010362,0.0010078,0,0,0.047713,-0.011791,0,0.0052403,0,0,0,0.028758,0.0057828,0.010362,2.5164,0.014967,0.021062,4.0444e-07,0.22,0.43,0
0.010029,0.0023095,0.028772,0.0055278,0.01029,0.00094389,0,0,0.048053,-0.012382,0,0.0049082,0,0,0,0.02881,0.0054896,0.01029,2.3215,0.014863,0.02133,4.1455e-07,0.23,0.43,0
0.010511,0.0023535,0.028827,0.0052367,0.010219,0.00088246,0,0,0.04838,-0.012954,0,0.0045888,0,0,0,0.028859,0.0052037,0.010219,2.1394,0.014761,0.02159,4.2431e-07,0.24,0.43,0
0.010997,0.0023946,0.028877,0.004954,0.010149,0.00082339,0,0,0.048692,-0.013508,0,0.0042816,0,0,0,0.028905,0.0049257,0.010149,1.9689,0.01466,0.021841,4.337e-07,0.25,0.43,0
0.011485,0.002433,0.028923,0.00468,0.010081,0.00076663,0,0,0.04899,-0.014043,0,0.0039865,0,0,0,0.028948,0.0046558,0.010081,1.8094,0.014561,0.022085,4.427e-07,0.26,0.43,0
0.011976,0.0024688,0.028966,0.0044149,0.010014,0.00071211,0,0,0.049274,-0.014558,0,0.003703,0,0,0,0.028986,0.0043942,0.010014,1.66,0.014465,0.022319,4.513e-07,0.27,0.43,0
0.012471,0.0025022,0.029004,0.0041587,0.0099489,0.0006598,0,0,0.049544,-0.015055,0,0.003431,0,0,0,0.029022,0.0041412,0.0099489,1.5201,0.014371,0.022545,4.5949e-07,0.28,0.43,0
0.012967,0.0025332,0.029039,0.0039115,0.0098852,0.00060966,0,0,0.0498,-0.015531,0,0.0031702,0,0,0,0.029054,0.0038968,0.0098852,1.3891,0.014279,0.022762,4.6727e-07,0.29,0.43,0
0.013466,0.0025619,0.02907,0.0036735,0.009823,0.00056164,0,0,0.050042,-0.015989,0,0.0029205,0,0,0,0.029082,0.003661,0.009823,1.2663,0.014189,0.022969,4.7463e-07,0.3,0.43,0
0.013968,0.0025886,0.029097,0.0034444,0.0097624,0.00051571,0,0,0.05027,-0.016427,0,0.0026817,0,0,0,0.029107,0.003434,0.0097624,1.1512,0.014101,0.023167,4.8157e-07,0.31,0.43,0
0.014472,0.0026132,0.029121,0.0032244,0.0097035,0.00047182,0,0,0.050485,-0.016846,0,0.0024535,0,0,0,0.029129,0.0032158,0.0097035,1.0434,0.014016,0.023356,4.881e-07,0.32,0.43,0
0.014978,0.002636,0.029141,0.0030132,0.0096463,0.00042995,0,0,0.050686,-0.017246,0,0.0022357,0,0,0,0.029148,0.0030062,0.0096463,0.9425,0.013933,0.023535,4.9421e-07,0.33,0.43,0
0.015486,0.0026569,0.029158,0.0028109,0.0095907,0.00039005,0,0,0.050875,-0.017627,0,0.0020283,0,0,0,0.029164,0.0028052,0.0095907,0.84798,0.013853,0.023706,4.9993e-07,0.34,0.43,0
0.015995,0.002676,0.029172,0.0026174,0.0095368,0.00035208,0,0,0.051051,-0.017991,0,0.0018308,0,0,0,0.029177,0.0026127,0.0095368,0.7595,0.013775,0.023867,5.0525e-07,0.35,0.43,0
0.016507,0.0026936,0.029183,0.0024323,0.0094846,0.00031601,0,0,0.051216,-0.018336,0,0.0016432,0,0,0,0.029187,0.0024286,0.0094846,0.67671,0.0137,0.02402,5.1019e-07,0.36,0.43,0
0.01702,0.0027096,0.029191,0.0022557,0.009434,0.00028177,0,0,0.051368,-0.018664,0,0.0014652,0,0,0,0.029194,0.0022527,0.009434,0.59928,0.013627,0.024165,5.1476e-07,0.37,0.43,0
0.017534,0.0027241,0.029197,0.0020872,0.0093851,0.00024934,0,0,0.05151,-0.018975,0,0.0012966,0,0,0,0.029199,0.0020849,0.0093851,0.52692,0.013556,0.024301,5.1897e-07,0.38,0.43,0
0.01805,0.0027373,0.0292,0.0019267,0.0093379,0.00021867,0,0,0.05164,-0.019269,0,0.0011371,0,0,0,0.029201,0.001925,0.0093379,0.45934,0.013488,0.024428,5.2284e-07,0.39,0.43,0
0.018567,0.0027491,0.0292,0.0017741,0.0092923,0.0001897,0,0,0.051761,-0.019547,0,0.00098644,0,0,0,0.029201,0.0017728,0.0092923,0.39627,0.013422,0.024549,5.2637e-07,0.4,0.43,0
0.019085,0.0027598,0.029199,0.001629,0.0092483,0.00016239,0,0,0.051871,-0.01981,0,0.00084444,0,0,0,0.029199,0.0016281,0.0092483,0.33747,0.013359,0.024661,5.2959e-07,0.41,0.43,0
0.019604,0.0027693,0.029195,0.0014913,0.0092059,0.00013669,0,0,0.051972,-0.020058,0,0.0007108,0,0,0,0.029196,0.0014906,0.0092059,0.28269,0.013297,0.024766,5.325e-07,0.42,0.43,0
0.020125,0.0027776,0.029189,0.0013607,0.009165,0.00011255,0,0,0.052063,-0.020291,0,0.00058528,0,0,0,0.02919,0.0013602,0.009165,0.23173,0.013238,0.024864,5.3513e-07,0.43,0.43,0
0.020646,0.002785,0.029182,0.001237,0.0091257,8.9923e-05,0,0,0.052147,-0.020511,0,0.0004676,0,0,0,0.029182,0.0012367,0.0091257,0.18437,0.013182,0.024955,5.3749e-07,0.44,0.43,0
0.021167,0.0027915,0.029173,0.00112,0.009088,6.8749e-05,0,0,0.052222,-0.020717,0,0.00035749,0,0,0,0.029173,0.0011198,0.009088,0.14041,0.013127,0.025039,5.3959e-07,0.45,0.43,0
0.02169,0.002797,0.029163,0.0010093,0.0090516,4.8981e-05,0,0,0.052289,-0.02091,0,0.0002547,0,0,0,0.029163,0.0010093,0.0090516,0.099681,0.013075,0.025117,5.4145e-07,0.46,0.43,0
0.022213,0.0028017,0.029151,0.00090489,0.0090168,3.0566e-05,0,0,0.052349,-0.021091,0,0.00015894,0,0,0,0.029151,0.00090486,0.0090168,0.062002,0.013024,0.02519,5.4308e-07,0.47,0.43,0
0.022737,0.0028056,0.029138,0.00080639,0.0089834,1.3455e-05,0,0,0.052402,-0.02126,0,6.9967e-05,0,0,0,0.029138,0.00080638,0.0089834,0.02721,0.012976,0.025256,5.4449e-07,0.48,0.43,0
0.023261,0.0028088,0.029124,0.00071358,0.0089513,-2.4036e-06,0,0,0.052449,-0.021418,0,-1.2499e-05,0,0,0,0.029124,0.00071358,0.0089513,-0.0048473,0.01293,0.025318,5.4571e-07,0.49,0.43,0
0.023786,0.0028114,0.029109,0.00062624,0.0089206,-1.706e-05,0,0,0.05249,-0.021565,0,-8.8712e-05,0,0,0,0.029109,0.00062623,0.0089206,-0.034318,0.012885,0.025374,5.4674e-07,0.5,0.43,0
0.024311,0.0028133,0.029093,0.00054413,0.0088912,-3.0564e-05,0,0,0.052525,-0.021702,0,-0.00015893,0,0,0,0.029093,0.00054409,0.0088912,-0.061338,0.012843,0.025425,5.476e-07,0.51,0.43,0
0.024836,0.0028146,0.029077,0.00046702,0.0088631,-4.2963e-05,0,0,0.052555,-0.02183,0,-0.00022341,0,0,0,0.029077,0.00046696,0.0088631,-0.08604,0.012802,0.025472,5.483e-07,0.52,0.43,0
0.025362,0.0028154,0.029059,0.0003947,0.0088362,-5.4305e-05,0,0,0.05258,-0.021948,0,-0.00028239,0,0,0,0.029059,0.0003946,0.0088362,-0.10855,0.012763,0.025514,5.4885e-07,0.53,0.43,0
0.025888,0.0028157,0.029042,0.00032694,0.0088105,-6.4638e-05,0,0,0.052601,-0.022057,0,-0.00033612,0,0,0,0.029042,0.00032679,0.0088105,-0.12897,0.012726,0.025552,5.4926e-07,0.54,0.43,0
0.026414,0.0028156,0.029023,0.00026352,0.008786,-7.4006e-05,0,0,0.052617,-0.022159,0,-0.00038483,0,0,0,0.029023,0.00026333,0.008786,-0.14743,0.012691,0.025586,5.4955e-07,0.55,0.43,0
0.02694,0.002815,0.029004,0.00020424,0.0087626,-8.2453e-05,0,0,0.052629,-0.022252,0,-0.00042876,0,0,0,0.029005,0.000204,0.0087626,-0.16403,0.012657,0.025617,5.4972e-07,0.56,0.43,0
0.027467,0.0028141,0.028986,0.00014889,0.0087403,-9.0023e-05,0,0,0.052638,-0.022338,0,-0.00046812,0,0,0,0.028986,0.00014861,0.0087403,-0.17886,0.012625,0.025645,5.4979e-07,0.57,0.43,0
0.027993,0.0028128,0.028966,9.7268e-05,0.0087191,-9.6758e-05,0,0,0.052643,-0.022417,0,-0.00050314,0,0,0,0.028967,9.6944e-05,0.0087191,-0.19203,0.012594,0.025669,5.4976e-07,0.58,0.43,0
0.02852,0.0028112,0.028947,4.9191e-05,0.0086989,-0.0001027,0,0,0.052645,-0.022489,0,-0.00053403,0,0,0,0.028947,4.8826e-05,0.0086989,-0.20361,0.012565,0.02569,5.4965e-07,0.59,0.43,0
0.029046,0.0028094,0.028928,4.4678e-06,0.0086796,-0.00010788,0,0,0.052645,-0.022555,0,-0.00056098,0,0,0,0.028928,4.0654e-06,0.0086796,-0.21371,0.012537,0.025708,5.4946e-07,0.6,0.43,0
0.029573,0.0028073,0.028908,-3.7081e-05,0.0086613,-0.00011235,0,0,0.052642,-0.022616,0,-0.0005842,0,0,0,0.028909,-3.7518e-05,0.0086613,-0.22238,0.012511,0.025725,5.492e-07,0.61,0.43,0
0.030099,0.002805,0.028889,-7.5631e-05,0.0086439,-0.00011613,0,0,0.052637,-0.022671,0,-0.00060388,0,0,0,0.028889,-7.6097e-05,0.0086439,-0.22972,0.012486,0.025738,5.4888e-07,0.62,0.43,0
0.030625,0.0028024,0.028869,-0.00011135,0.0086274,-0.00011927,0,0,0.052629,-0.022721,0,-0.00062019,0,0,0,0.02887,-0.00011184,0.0086274,-0.23579,0.012462,0.02575,5.485e-07,0.63,0.43,0
0.031151,0.0027997,0.02885,-0.0001444,0.0086118,-0.00012179,0,0,0.05262,-0.022766,0,-0.00063332,0,0,0,0.028851,-0.00014491,0.0086118,-0.24067,0.012439,0.025759,5.4808e-07,0.64,0.43,0
0.031678,0.0027969,0.028831,-0.00017493,0.0085969,-0.00012374,0,0,0.052609,-0.022807,0,-0.00064343,0,0,0,0.028832,-0.00017546,0.0085969,-0.24441,0.012418,0.025767,5.4761e-07,0.65,0.43,0
0.032204,0.0027939,0.028813,-0.0002031,0.0085828,-0.00012513,0,0,0.052597,-0.022843,0,-0.00065069,0,0,0,0.028813,-0.00020364,0.0085828,-0.24709,0.012397,0.025772,5.4711e-07,0.66,0.43,0
0.03273,0.0027909,0.028794,-0.00022904,0.0085695,-0.00012601,0,0,0.052584,-0.022876,0,-0.00065525,0,0,0,0.028795,-0.00022959,0.0085695,-0.24875,0.012378,0.025777,5.4658e-07,0.67,0.43,0
0.033255,0.0027877,0.028776,-0.00025291,0.0085569,-0.0001264,0,0,0.052569,-0.022905,0,-0.00065726,0,0,0,0.028776,-0.00025346,0.0085569,-0.24947,0.01236,0.02578,5.4602e-07,0.68,0.43,0
0.033781,0.0027845,0.028758,-0.00027482,0.008545,-0.00012632,0,0,0.052554,-0.022932,0,-0.00065686,0,0,0,0.028759,-0.00027537,0.008545,-0.24928,0.012343,0.025781,5.4544e-07,0.69,0.43,0
0.034306,0.0027813,0.028741,-0.0002949,0.0085337,-0.0001258,0,0,0.052538,-0.022954,0,-0.00065419,0,0,0,0.028741,-0.00029545,0.0085337,-0.24824,0.012327,0.025782,5.4485e-07,0.7,0.43,0
0.034832,0.002778,0.028724,-0.00031328,0.0085231,-0.00012488,0,0,0.052521,-0.022975,0,-0.00064938,0,0,0,0.028724,-0.00031382,0.0085231,-0.24641,0.012311,0.025782,5.4424e-07,0.71,0.43,0
0.035357,0.0027747,0.028707,-0.00033006,0.0085131,-0.00012357,0,0,0.052504,-0.022992,0,-0.00064255,0,0,0,0.028708,-0.00033059,0.0085131,-0.24382,0.012297,0.02578,5.4363e-07,0.72,0.43,0
0.035882,0.0027714,0.028691,-0.00034537,0.0085036,-0.00012189,0,0,0.052487,-0.023008,0,-0.00063383,0,0,0,0.028691,-0.00034588,0.0085036,-0.24052,0.012283,0.025778,5.4302e-07,0.73,0.43,0
0.036407,0.0027682,0.028675,-0.00035929,0.0084948,-0.00011987,0,0,0.052469,-0.023021,0,-0.00062333,0,0,0,0.028676,-0.00035978,0.0084948,-0.23655,0.01227,0.025775,5.424e-07,0.74,0.43,0
0.036931,0.0027649,0.02866,-0.00037193,0.0084864,-0.00011753,0,0,0.052451,-0.023032,0,-0.00061116,0,0,0,0.02866,-0.00037241,0.0084864,-0.23195,0.012258,0.025772,5.4179e-07,0.75,0.43,0
0.037456,0.0027617,0.028645,-0.00038339,0.0084786,-0.00011489,0,0,0.052434,-0.023041,0,-0.00059742,0,0,0,0.028646,-0.00038384,0.0084786,-0.22676,0.012247,0.025768,5.4118e-07,0.76,0.43,0
0.03798,0.0027586,0.028631,-0.00039375,0.0084712,-0.00011196,0,0,0.052416,-0.023049,0,-0.00058221,0,0,0,0.028632,-0.00039418,0.0084712,-0.22101,0.012236,0.025764,5.4058e-07,0.77,0.43,0
0.038504,0.0027555,0.028618,-0.00040309,0.0084643,-0.00010877,0,0,0.052398,-0.023055,0,-0.00056562,0,0,0,0.028618,-0.0004035,0.0084643,-0.21475,0.012226,0.025759,5.3999e-07,0.78,0.43,0
0.039028,0.0027525,0.028605,-0.0004115,0.0084579,-0.00010534,0,0,0.052381,-0.02306,0,-0.00054775,0,0,0,0.028605,-0.00041188,0.0084579,-0.208,0.012217,0.025754,5.3942e-07,0.79,0.43,0
0.039552,0.0027496,0.028592,-0.00041905,0.0084519,-0.00010167,0,0,0.052364,-0.023064,0,-0.00052868,0,0,0,0.028592,-0.00041941,0.0084519,-0.20079,0.012208,0.025749,5.3886e-07,0.8,0.43,0
0.040075,0.0027467,0.02858,-0.00042581,0.0084463,-9.7789e-05,0,0,0.052348,-0.023067,0,-0.0005085,0,0,0,0.02858,-0.00042614,0.0084463,-0.19316,0.0122,0.025744,5.3831e-07,0.81,0.43,0
0.040599,0.002744,0.028569,-0.00043185,0.008441,-9.3707e-05,0,0,0.052332,-0.023069,0,-0.00048728,0,0,0,0.028569,-0.00043215,0.008441,-0.18513,0.012193,0.025738,5.3779e-07,0.82,0.43,0
0.041122,0.0027414,0.028558,-0.00043723,0.0084362,-8.9441e-05,0,0,0.052316,-0.023071,0,-0.00046509,0,0,0,0.028558,-0.0004375,0.0084362,-0.17674,0.012186,0.025733,5.3729e-07,0.83,0.43,0
0.041645,0.0027389,0.028548,-0.000442,0.0084317,-8.5003e-05,0,0,0.052302,-0.023072,0,-0.00044202,0,0,0,0.028548,-0.00044225,0.0084317,-0.168,0.012179,0.025728,5.368e-07,0.84,0.43,0
0.042168,0.0027365,0.028538,-0.00044622,0.0084276,-8.0407e-05,0,0,0.052287,-0.023072,0,-0.00041812,0,0,0,0.028538,-0.00044645,0.0084276,-0.15895,0.012173,0.025723,5.3634e-07,0.85,0.43,0
0.042691,0.0027342,0.028529,-0.00044995,0.0084237,-7.5665e-05,0,0,0.052274,-0.023072,0,-0.00039346,0,0,0,0.028529,-0.00045015,0.0084237,-0.1496,0.012168,0.025718,5.3591e-07,0.86,0.43,0
0.043213,0.0027321,0.028521,-0.00045322,0.0084202,-7.079e-05,0,0,0.052261,-0.023071,0,-0.00036811,0,0,0,0.028521,-0.00045339,0.0084202,-0.13999,0.012163,0.025713,5.355e-07,0.87,0.43,0
0.043736,0.0027301,0.028513,-0.00045609,0.0084171,-6.5793e-05,0,0,0.052249,-0.02307,0,-0.00034212,0,0,0,0.028513,-0.00045623,0.0084171,-0.13012,0.012158,0.025708,5.3512e-07,0.88,0.43,0
0.044258,0.0027282,0.028506,-0.00045858,0.0084142,-6.0684e-05,0,0,0.052238,-0.023069,0,-0.00031556,0,0,0,0.028506,-0.00045871,0.0084142,-0.12004,0.012154,0.025704,5.3476e-07,0.89,0.43,0
0.044781,0.0027265,0.028499,-0.00046074,0.0084115,-5.5475e-05,0,0,0.052228,-0.023068,0,-0.00028847,0,0,0,0.028499,-0.00046084,0.0084115,-0.10975,0.01215,0.0257,5.3444e-07,0.9,0.43,0
0.045303,0.002725,0.028493,-0.00046259,0.0084092,-5.0177e-05,0,0,0.052219,-0.023067,0,-0.00026092,0,0,0,0.028493,-0.00046268,0.0084092,-0.099285,0.012147,0.025696,5.3414e-07,0.91,0.43,0
0.045825,0.0027236,0.028488,-0.00046418,0.0084071,-4.4798e-05,0,0,0.05221,-0.023065,0,-0.00023295,0,0,0,0.028488,-0.00046425,0.0084071,-0.088654,0.012144,0.025692,5.3387e-07,0.92,0.43,0
0.046347,0.0027224,0.028483,-0.00046552,0.0084053,-3.9349e-05,0,0,0.052203,-0.023064,0,-0.00020461,0,0,0,0.028483,-0.00046557,0.0084053,-0.07788,0.012141,0.025689,5.3363e-07,0.93,0.43,0
0.046869,0.0027213,0.028479,-0.00046663,0.0084038,-3.3839e-05,0,0,0.052196,-0.023063,0,-0.00017596,0,0,0,0.028479,-0.00046667,0.0084038,-0.066981,0.012139,0.025686,5.3343e-07,0.94,0.43,0
0.047391,0.0027204,0.028476,-0.00046754,0.0084025,-2.8277e-05,0,0,0.052191,-0.023062,0,-0.00014704,0,0,0,0.028476,-0.00046757,0.0084025,-0.055977,0.012137,0.025684,5.3325e-07,0.95,0.43,0
0.047913,0.0027196,0.028473,-0.00046826,0.0084014,-2.2673e-05,0,0,0.052186,-0.023061,0,-0.0001179,0,0,0,0.028473,-0.00046828,0.0084014,-0.044886,0.012135,0.025682,5.3311e-07,0.96,0.43,0
0.048435,0.002719,0.028471,-0.00046881,0.0084006,-1.7034e-05,0,0,0.052182,-0.02306,0,-8.8578e-05,0,0,0,0.028471,-0.00046882,0.0084006,-0.033725,0.012134,0.02568,5.3299e-07,0.97,0.43,0
0.048956,0.0027186,0.028469,-0.00046919,0.0084,-1.137e-05,0,0,0.05218,-0.02306,0,-5.9125e-05,0,0,0,0.028469,-0.00046919,0.0084,-0.022512,0.012133,0.02568,5.3292e-07,0.98,0.43,0
0.049478,0.0027184,0.028468,-0.00046942,0.0083997,-5.6893e-06,0,0,0.052178,-0.02306,0,-2.9585e-05,0,0,0,0.028468,-0.00046942,0.0083997,-0.011265,0.012133,0.025679,5.3287e-07,0.99,0.43,0
0.05,0.0027183,0.028468,-0.00046949,0.0083995,-1.6181e-06,0,0,0.052178,-0.02306,0,-8.4139e-06,0,0,0,0.028468,-0.00046949,0.0083995,-0.0032037,0.012133,0.025679,5.3285e-07,1,0.43,0
0,0,0.027245,0.011676,0.011676,0.0034381,0,0,0.040479,-2.4394e-19,0,0.017878,0,0,0,0.027971,0.010951,0.011676,11.915,0.016866,0.016669,2.3634e-07,0,0.44,0
0.00040479,0.00017878,0.027281,0.011854,0.01174,0.0033909,0,0,0.040406,0.00029475,0,0.017633,0,0,0,0.027994,0.011142,0.01174,11.865,0.016959,0.016561,2.3224e-07,0.01,0.44,0
0.00080811,0.00034899,0.027258,0.011899,0.011747,0.0032282,0,0,0.040329,0.00039469,0,0.016787,0,0,0,0.027909,0.011248,0.011747,11.4,0.016968,0.016417,2.2655e-07,0.02,0.44,0
0.0012114,0.00050907,0.027266,0.011841,0.011732,0.0030367,0,0,0.040389,0.00028318,0,0.015791,0,0,0,0.027843,0.011265,0.011732,10.746,0.016947,0.016349,2.2383e-07,0.03,0.44,0
0.0016159,0.00065852,0.027304,0.011695,0.0117,0.0028407,0,0,0.040571,-1.2177e-05,0,0.014772,0,0,0,0.027805,0.011194,0.0117,10,0.0169,0.016364,2.2433e-07,0.04,0.44,0
0.0020228,0.0007976,0.027365,0.011482,0.011654,0.0026542,0,0,0.040848,-0.00044677,0,0.013802,0,0,0,0.027797,0.011051,0.011654,9.2405,0.016834,0.016453,2.277e-07,0.05,0.44,0
0.0024328,0.00092694,0.027441,0.011223,0.011599,0.0024828,0,0,0.041189,-0.00097891,0,0.012911,0,0,0,0.027813,0.010851,0.011599,8.5114,0.016754,0.0166,2.3333e-07,0.06,0.44,0
0.0028466,0.0010473,0.027526,0.01093,0.011537,0.002327,0,0,0.041571,-0.0015771,0,0.0121,0,0,0,0.027846,0.01061,0.011537,7.8328,0.016664,0.016792,2.4067e-07,0.07,0.44,0
0.0032643,0.0011595,0.027615,0.010615,0.011469,0.0021854,0,0,0.041979,-0.0022194,0,0.011364,0,0,0,0.027891,0.010339,0.011469,7.2097,0.016566,0.017015,2.4925e-07,0.08,0.44,0
0.0036861,0.0012641,0.027706,0.010285,0.011397,0.0020559,0,0,0.042402,-0.0028909,0,0.010691,0,0,0,0.027945,0.010046,0.011397,6.6406,0.016463,0.017263,2.5877e-07,0.09,0.44,0
0.0041123,0.0013619,0.027797,0.0099453,0.011323,0.0019368,0,0,0.042833,-0.0035811,0,0.010071,0,0,0,0.028005,0.0097376,0.011323,6.1214,0.016355,0.017528,2.6898e-07,0.1,0.44,0
0.0045428,0.0014533,0.027887,0.0095987,0.011246,0.0018263,0,0,0.043268,-0.0042826,0,0.0094969,0,0,0,0.028068,0.0094181,0.011246,5.6473,0.016244,0.017807,2.797e-07,0.11,0.44,0
0.0049777,0.0015389,0.027977,0.0092486,0.011168,0.0017233,0,0,0.043704,-0.0049896,0,0.008961,0,0,0,0.028134,0.0090913,0.011168,5.2137,0.016131,0.018094,2.908e-07,0.12,0.44,0
0.0054169,0.001619,0.028065,0.0088971,0.011088,0.0016266,0,0,0.044138,-0.0056978,0,0.0084583,0,0,0,0.028202,0.00876,0.011088,4.8163,0.016017,0.018388,3.0215e-07,0.13,0.44,0
0.0058604,0.001694,0.02815,0.008546,0.011009,0.0015355,0,0,0.044568,-0.0064035,0,0.0079845,0,0,0,0.02827,0.0084265,0.011009,4.4514,0.015902,0.018687,3.1366e-07,0.14,0.44,0
0.0063082,0.0017643,0.028234,0.0081969,0.010929,0.0014493,0,0,0.044992,-0.0071038,0,0.0075362,0,0,0,0.028338,0.0080926,0.010929,4.1157,0.015787,0.018987,3.2524e-07,0.15,0.44,0
0.0067603,0.0018301,0.028314,0.007851,0.010849,0.0013674,0,0,0.045408,-0.0077963,0,0.0071104,0,0,0,0.028405,0.00776,0.010849,3.8061,0.015672,0.019287,3.3682e-07,0.16,0.44,0
0.0072164,0.0018918,0.028392,0.0075092,0.01077,0.0012894,0,0,0.045816,-0.0084788,0,0.0067051,0,0,0,0.028471,0.0074299,0.01077,3.5201,0.015557,0.019586,3.4834e-07,0.17,0.44,0
0.0076766,0.0019495,0.028466,0.0071725,0.010692,0.0012151,0,0,0.046214,-0.0091495,0,0.0063184,0,0,0,0.028535,0.0071034,0.010692,3.2554,0.015443,0.019882,3.5973e-07,0.18,0.44,0
0.0081407,0.0020034,0.028537,0.0068417,0.010614,0.001144,0,0,0.046601,-0.009807,0,0.0059488,0,0,0,0.028597,0.0067815,0.010614,3.0101,0.015331,0.020174,3.7096e-07,0.19,0.44,0
0.0086086,0.0020539,0.028605,0.0065173,0.010537,0.001076,0,0,0.046977,-0.01045,0,0.0055951,0,0,0,0.028657,0.006465,0.010537,2.7824,0.015219,0.020462,3.8196e-07,0.2,0.44,0
0.0090802,0.0021011,0.028668,0.0062001,0.01046,0.0010108,0,0,0.04734,-0.011077,0,0.0052562,0,0,0,0.028714,0.0061547,0.01046,2.5707,0.01511,0.020744,3.927e-07,0.21,0.44,0
0.0095554,0.0021451,0.028728,0.0058903,0.010386,0.00094834,0,0,0.047691,-0.011688,0,0.0049314,0,0,0,0.028768,0.005851,0.010386,2.3737,0.015001,0.021019,4.0315e-07,0.22,0.44,0
0.010034,0.0021862,0.028785,0.0055885,0.010312,0.00088844,0,0,0.048029,-0.012281,0,0.0046199,0,0,0,0.028819,0.0055546,0.010312,2.1902,0.014895,0.021288,4.1327e-07,0.23,0.44,0
0.010516,0.0022244,0.028837,0.005295,0.01024,0.00083098,0,0,0.048353,-0.012856,0,0.0043211,0,0,0,0.028866,0.0052657,0.01024,2.0191,0.01479,0.021549,4.2305e-07,0.24,0.44,0
0.011001,0.00226,0.028886,0.00501,0.010169,0.00077588,0,0,0.048664,-0.013413,0,0.0040346,0,0,0,0.028911,0.0049848,0.010169,1.8593,0.014688,0.021801,4.3246e-07,0.25,0.44,0
0.011489,0.0022931,0.02893,0.0047338,0.010099,0.00072306,0,0,0.048961,-0.01395,0,0.0037599,0,0,0,0.028952,0.0047122,0.010099,1.7101,0.014588,0.022045,4.4148e-07,0.26,0.44,0
0.01198,0.0023237,0.028971,0.0044664,0.010031,0.00067243,0,0,0.049244,-0.014469,0,0.0034967,0,0,0,0.02899,0.004448,0.010031,1.5707,0.01449,0.022281,4.501e-07,0.27,0.44,0
0.012474,0.0023521,0.029008,0.0042081,0.0099649,0.00062394,0,0,0.049513,-0.014968,0,0.0032445,0,0,0,0.029024,0.0041924,0.0099649,1.4403,0.014394,0.022508,4.5831e-07,0.28,0.44,0
0.012971,0.0023783,0.029042,0.0039588,0.0099002,0.00057754,0,0,0.049768,-0.015447,0,0.0030032,0,0,0,0.029055,0.0039455,0.0099002,1.3183,0.0143,0.022725,4.6612e-07,0.29,0.44,0
0.01347,0.0024025,0.029072,0.0037187,0.0098371,0.00053316,0,0,0.05001,-0.015908,0,0.0027724,0,0,0,0.029083,0.0037075,0.0098371,1.2042,0.014209,0.022933,4.735e-07,0.3,0.44,0
0.013971,0.0024247,0.029098,0.0034876,0.0097757,0.00049075,0,0,0.050238,-0.016349,0,0.0025519,0,0,0,0.029107,0.0034782,0.0097757,1.0974,0.01412,0.023133,4.8047e-07,0.31,0.44,0
0.014474,0.0024452,0.029121,0.0032656,0.0097159,0.00045027,0,0,0.050453,-0.016771,0,0.0023414,0,0,0,0.029129,0.0032577,0.0097159,0.99741,0.014034,0.023322,4.8703e-07,0.32,0.44,0
0.01498,0.0024639,0.029141,0.0030525,0.0096579,0.00041168,0,0,0.050655,-0.017174,0,0.0021407,0,0,0,0.029147,0.003046,0.0096579,0.90385,0.01395,0.023503,4.9318e-07,0.33,0.44,0
0.015487,0.0024809,0.029157,0.0028484,0.0096016,0.00037492,0,0,0.050844,-0.017559,0,0.0019496,0,0,0,0.029162,0.002843,0.0096016,0.81629,0.013869,0.023675,4.9893e-07,0.34,0.44,0
0.015997,0.0024965,0.02917,0.0026529,0.009547,0.00033995,0,0,0.051021,-0.017925,0,0.0017677,0,0,0,0.029175,0.0026486,0.009547,0.73435,0.01379,0.023838,5.0429e-07,0.35,0.44,0
0.016508,0.0025105,0.029181,0.0024661,0.0094942,0.00030672,0,0,0.051186,-0.018273,0,0.0015949,0,0,0,0.029185,0.0024626,0.0094942,0.6577,0.013714,0.023992,5.0927e-07,0.36,0.44,0
0.01702,0.0025232,0.029189,0.0022877,0.009443,0.00027519,0,0,0.05134,-0.018604,0,0.001431,0,0,0,0.029192,0.0022849,0.009443,0.58603,0.01364,0.024137,5.1388e-07,0.37,0.44,0
0.017535,0.0025346,0.029194,0.0021175,0.0093935,0.00024531,0,0,0.051482,-0.018918,0,0.0012756,0,0,0,0.029197,0.0021153,0.0093935,0.51903,0.013568,0.024275,5.1813e-07,0.38,0.44,0
0.01805,0.0025448,0.029197,0.0019554,0.0093457,0.00021703,0,0,0.051613,-0.019215,0,0.0011286,0,0,0,0.029199,0.0019537,0.0093457,0.45643,0.013499,0.024404,5.2203e-07,0.39,0.44,0
0.018567,0.0025539,0.029198,0.0018011,0.0092996,0.00019032,0,0,0.051735,-0.019496,0,0.00098964,0,0,0,0.029199,0.0017998,0.0092996,0.39799,0.013433,0.024525,5.256e-07,0.4,0.44,0
0.019085,0.0025619,0.029196,0.0016545,0.0092551,0.00016511,0,0,0.051846,-0.019762,0,0.00085856,0,0,0,0.029197,0.0016535,0.0092551,0.34346,0.013369,0.024638,5.2886e-07,0.41,0.44,0
0.019604,0.0025689,0.029192,0.0015153,0.0092123,0.00014136,0,0,0.051948,-0.020012,0,0.00073508,0,0,0,0.029193,0.0015145,0.0092123,0.29263,0.013307,0.024745,5.3182e-07,0.42,0.44,0
0.020124,0.0025749,0.029187,0.0013832,0.009171,0.00011903,0,0,0.052041,-0.020248,0,0.00061896,0,0,0,0.029187,0.0013827,0.009171,0.24528,0.013247,0.024844,5.3448e-07,0.43,0.44,0
0.020645,0.0025801,0.02918,0.0012581,0.0091313,9.8066e-05,0,0,0.052126,-0.02047,0,0.00050994,0,0,0,0.02918,0.0012578,0.0091313,0.20123,0.01319,0.024936,5.3688e-07,0.44,0.44,0
0.021166,0.0025845,0.029171,0.0011397,0.0090931,7.8421e-05,0,0,0.052202,-0.020679,0,0.00040779,0,0,0,0.029171,0.0011395,0.0090931,0.16029,0.013135,0.025021,5.3902e-07,0.45,0.44,0
0.021689,0.0025881,0.02916,0.0010278,0.0090565,6.0049e-05,0,0,0.05227,-0.020875,0,0.00031225,0,0,0,0.029161,0.0010276,0.0090565,0.1223,0.013082,0.025101,5.4091e-07,0.46,0.44,0
0.022212,0.002591,0.029149,0.00092204,0.0090213,4.2902e-05,0,0,0.052332,-0.021058,0,0.00022309,0,0,0,0.029149,0.00092198,0.0090213,0.087083,0.013031,0.025174,5.4258e-07,0.47,0.44,0
0.022735,0.0025932,0.029136,0.00082232,0.0089875,2.6934e-05,0,0,0.052386,-0.02123,0,0.00014006,0,0,0,0.029136,0.00082229,0.0089875,0.054503,0.012982,0.025242,5.4403e-07,0.48,0.44,0
0.023259,0.0025948,0.029122,0.00072834,0.0089552,1.2099e-05,0,0,0.052435,-0.02139,0,6.2915e-05,0,0,0,0.029122,0.00072833,0.0089552,0.024414,0.012935,0.025304,5.4529e-07,0.49,0.44,0
0.023784,0.0025958,0.029108,0.00063988,0.0089242,-1.6474e-06,0,0,0.052477,-0.021539,0,-8.5663e-06,0,0,0,0.029108,0.00063988,0.0089242,-0.0033156,0.01289,0.025361,5.4635e-07,0.5,0.44,0
0.024309,0.0025964,0.029092,0.00055669,0.0088945,-1.435e-05,0,0,0.052513,-0.021678,0,-7.4619e-05,0,0,0,0.029092,0.00055668,0.0088945,-0.028813,0.012848,0.025414,5.4725e-07,0.51,0.44,0
0.024834,0.0025964,0.029075,0.00047856,0.0088662,-2.6052e-05,0,0,0.052544,-0.021808,0,-0.00013547,0,0,0,0.029075,0.00047853,0.0088662,-0.052196,0.012807,0.025461,5.4798e-07,0.52,0.44,0
0.02536,0.002596,0.029058,0.00040525,0.0088391,-3.6795e-05,0,0,0.05257,-0.021928,0,-0.00019133,0,0,0,0.029058,0.0004052,0.0088391,-0.073577,0.012767,0.025504,5.4856e-07,0.53,0.44,0
0.025886,0.0025952,0.029041,0.00033654,0.0088132,-4.6622e-05,0,0,0.052591,-0.022039,0,-0.00024243,0,0,0,0.029041,0.00033647,0.0088132,-0.093061,0.01273,0.025544,5.4901e-07,0.54,0.44,0
0.026412,0.0025941,0.029022,0.00027223,0.0087884,-5.5572e-05,0,0,0.052609,-0.022142,0,-0.00028898,0,0,0,0.029023,0.00027212,0.0087884,-0.11075,0.012694,0.025579,5.4933e-07,0.55,0.44,0
0.026938,0.0025926,0.029004,0.00021208,0.0087648,-6.3686e-05,0,0,0.052622,-0.022237,0,-0.00033117,0,0,0,0.029004,0.00021194,0.0087648,-0.12673,0.01266,0.02561,5.4953e-07,0.56,0.44,0
0.027464,0.0025908,0.028985,0.00015591,0.0087424,-7.1e-05,0,0,0.052632,-0.022325,0,-0.0003692,0,0,0,0.028986,0.00015574,0.0087424,-0.14111,0.012628,0.025639,5.4963e-07,0.57,0.44,0
0.02799,0.0025887,0.028966,0.00010352,0.0087209,-7.7553e-05,0,0,0.052638,-0.022405,0,-0.00040327,0,0,0,0.028966,0.00010331,0.0087209,-0.15395,0.012597,0.025663,5.4963e-07,0.58,0.44,0
0.028517,0.0025864,0.028947,5.4698e-05,0.0087006,-8.3379e-05,0,0,0.052641,-0.022479,0,-0.00043357,0,0,0,0.028947,5.4458e-05,0.0087006,-0.16534,0.012568,0.025685,5.4954e-07,0.59,0.44,0
0.029043,0.0025839,0.028928,9.2695e-06,0.0086812,-8.8514e-05,0,0,0.052642,-0.022547,0,-0.00046027,0,0,0,0.028928,8.9986e-06,0.0086812,-0.17537,0.01254,0.025705,5.4937e-07,0.6,0.44,0
0.02957,0.0025811,0.028909,-3.295e-05,0.0086627,-9.2991e-05,0,0,0.052639,-0.022609,0,-0.00048355,0,0,0,0.028909,-3.3249e-05,0.0086627,-0.18409,0.012513,0.025721,5.4914e-07,0.61,0.44,0
0.030096,0.0025783,0.028889,-7.2136e-05,0.0086452,-9.6842e-05,0,0,0.052635,-0.022665,0,-0.00050358,0,0,0,0.02889,-7.246e-05,0.0086452,-0.19158,0.012488,0.025736,5.4884e-07,0.62,0.44,0
0.030622,0.0025752,0.02887,-0.00010846,0.0086286,-0.0001001,0,0,0.052629,-0.022716,0,-0.00052051,0,0,0,0.028871,-0.0001088,0.0086286,-0.19791,0.012464,0.025748,5.4849e-07,0.63,0.44,0
0.031149,0.0025721,0.028851,-0.00014208,0.0086128,-0.00010279,0,0,0.05262,-0.022763,0,-0.00053451,0,0,0,0.028852,-0.00014244,0.0086128,-0.20313,0.012441,0.025758,5.4808e-07,0.64,0.44,0
0.031675,0.0025689,0.028833,-0.00017316,0.0085978,-0.00010495,0,0,0.05261,-0.022804,0,-0.00054573,0,0,0,0.028833,-0.00017353,0.0085978,-0.2073,0.012419,0.025766,5.4764e-07,0.65,0.44,0
0.032201,0.0025655,0.028814,-0.00020184,0.0085836,-0.0001066,0,0,0.052599,-0.022842,0,-0.0005543,0,0,0,0.028814,-0.00020223,0.0085836,-0.21049,0.012399,0.025772,5.4715e-07,0.66,0.44,0
0.032727,0.0025621,0.028796,-0.00022827,0.0085702,-0.00010776,0,0,0.052586,-0.022876,0,-0.00056037,0,0,0,0.028796,-0.00022867,0.0085702,-0.21273,0.012379,0.025777,5.4664e-07,0.67,0.44,0
0.033252,0.0025587,0.028778,-0.00025259,0.0085575,-0.00010848,0,0,0.052572,-0.022906,0,-0.00056407,0,0,0,0.028778,-0.000253,0.0085575,-0.21409,0.012361,0.025781,5.461e-07,0.68,0.44,0
0.033778,0.0025552,0.02876,-0.00027494,0.0085455,-0.00010876,0,0,0.052558,-0.022933,0,-0.00056553,0,0,0,0.02876,-0.00027535,0.0085455,-0.21461,0.012344,0.025783,5.4554e-07,0.69,0.44,0
0.034304,0.0025517,0.028743,-0.00029543,0.0085342,-0.00010863,0,0,0.052542,-0.022957,0,-0.00056488,0,0,0,0.028743,-0.00029584,0.0085342,-0.21434,0.012327,0.025784,5.4496e-07,0.7,0.44,0
0.034829,0.0025483,0.028726,-0.0003142,0.0085235,-0.00010812,0,0,0.052526,-0.022978,0,-0.00056222,0,0,0,0.028726,-0.0003146,0.0085235,-0.21331,0.012312,0.025784,5.4438e-07,0.71,0.44,0
0.035354,0.0025448,0.028709,-0.00033134,0.0085134,-0.00010724,0,0,0.05251,-0.022996,0,-0.00055767,0,0,0,0.02871,-0.00033174,0.0085134,-0.21158,0.012297,0.025783,5.4378e-07,0.72,0.44,0
0.035879,0.0025413,0.028693,-0.00034699,0.0085039,-0.00010603,0,0,0.052492,-0.023012,0,-0.00055134,0,0,0,0.028694,-0.00034738,0.0085039,-0.20918,0.012283,0.025781,5.4318e-07,0.73,0.44,0
0.036404,0.0025379,0.028678,-0.00036124,0.008495,-0.00010449,0,0,0.052475,-0.023026,0,-0.00054333,0,0,0,0.028678,-0.00036161,0.008495,-0.20616,0.012271,0.025779,5.4258e-07,0.74,0.44,0
0.036929,0.0025346,0.028663,-0.00037418,0.0084866,-0.00010264,0,0,0.052458,-0.023038,0,-0.00053374,0,0,0,0.028663,-0.00037454,0.0084866,-0.20253,0.012258,0.025776,5.4198e-07,0.75,0.44,0
0.037453,0.0025313,0.028648,-0.00038592,0.0084787,-0.00010051,0,0,0.052441,-0.023048,0,-0.00052267,0,0,0,0.028649,-0.00038627,0.0084787,-0.19835,0.012247,0.025772,5.4138e-07,0.76,0.44,0
0.037977,0.0025281,0.028634,-0.00039654,0.0084712,-9.8117e-05,0,0,0.052423,-0.023056,0,-0.00051021,0,0,0,0.028634,-0.00039688,0.0084712,-0.19364,0.012236,0.025768,5.4079e-07,0.77,0.44,0
0.038502,0.0025249,0.028621,-0.00040614,0.0084643,-9.5468e-05,0,0,0.052406,-0.023063,0,-0.00049643,0,0,0,0.028621,-0.00040645,0.0084643,-0.18844,0.012226,0.025764,5.4021e-07,0.78,0.44,0
0.039026,0.0025218,0.028608,-0.00041478,0.0084578,-9.2584e-05,0,0,0.052389,-0.023069,0,-0.00048144,0,0,0,0.028608,-0.00041508,0.0084578,-0.18278,0.012217,0.025759,5.3965e-07,0.79,0.44,0
0.03955,0.0025189,0.028595,-0.00042255,0.0084518,-8.9479e-05,0,0,0.052373,-0.023073,0,-0.00046529,0,0,0,0.028595,-0.00042283,0.0084518,-0.17668,0.012208,0.025754,5.391e-07,0.8,0.44,0
0.040073,0.002516,0.028583,-0.00042951,0.0084461,-8.6169e-05,0,0,0.052357,-0.023077,0,-0.00044808,0,0,0,0.028584,-0.00042977,0.0084461,-0.17017,0.0122,0.025749,5.3856e-07,0.81,0.44,0
0.040597,0.0025132,0.028572,-0.00043574,0.0084409,-8.2668e-05,0,0,0.052341,-0.023079,0,-0.00042987,0,0,0,0.028572,-0.00043597,0.0084409,-0.16328,0.012192,0.025744,5.3805e-07,0.82,0.44,0
0.04112,0.0025106,0.028561,-0.00044129,0.008436,-7.8988e-05,0,0,0.052326,-0.023081,0,-0.00041074,0,0,0,0.028561,-0.00044151,0.008436,-0.15604,0.012185,0.025739,5.3755e-07,0.83,0.44,0
0.041643,0.0025081,0.028551,-0.00044623,0.0084315,-7.5142e-05,0,0,0.052311,-0.023082,0,-0.00039074,0,0,0,0.028551,-0.00044642,0.0084315,-0.14847,0.012179,0.025734,5.3707e-07,0.84,0.44,0
0.042166,0.0025057,0.028542,-0.0004506,0.0084273,-7.1144e-05,0,0,0.052297,-0.023082,0,-0.00036995,0,0,0,0.028542,-0.00045077,0.0084273,-0.1406,0.012173,0.025729,5.3662e-07,0.85,0.44,0
0.042689,0.0025034,0.028533,-0.00045446,0.0084235,-6.7005e-05,0,0,0.052284,-0.023083,0,-0.00034842,0,0,0,0.028533,-0.00045462,0.0084235,-0.13244,0.012167,0.025724,5.3619e-07,0.86,0.44,0
0.043212,0.0025013,0.028524,-0.00045786,0.0084199,-6.2735e-05,0,0,0.052271,-0.023082,0,-0.00032622,0,0,0,0.028524,-0.00045799,0.0084199,-0.12402,0.012162,0.025719,5.3579e-07,0.87,0.44,0
0.043735,0.0024993,0.028517,-0.00046084,0.0084167,-5.8348e-05,0,0,0.05226,-0.023082,0,-0.00030341,0,0,0,0.028517,-0.00046095,0.0084167,-0.11537,0.012157,0.025715,5.3541e-07,0.88,0.44,0
0.044257,0.0024975,0.028509,-0.00046343,0.0084138,-5.3852e-05,0,0,0.052249,-0.023081,0,-0.00028003,0,0,0,0.02851,-0.00046353,0.0084138,-0.1065,0.012153,0.025711,5.3506e-07,0.89,0.44,0
0.044779,0.0024958,0.028503,-0.00046569,0.0084112,-4.9258e-05,0,0,0.052239,-0.02308,0,-0.00025614,0,0,0,0.028503,-0.00046577,0.0084112,-0.097425,0.01215,0.025707,5.3474e-07,0.9,0.44,0
0.045302,0.0024943,0.028497,-0.00046763,0.0084088,-4.4576e-05,0,0,0.052229,-0.023079,0,-0.0002318,0,0,0,0.028497,-0.0004677,0.0084088,-0.088177,0.012146,0.025703,5.3444e-07,0.91,0.44,0
0.045824,0.0024929,0.028492,-0.00046929,0.0084067,-3.9816e-05,0,0,0.052221,-0.023078,0,-0.00020704,0,0,0,0.028492,-0.00046934,0.0084067,-0.078771,0.012143,0.0257,5.3418e-07,0.92,0.44,0
0.046346,0.0024917,0.028487,-0.00047069,0.0084049,-3.4987e-05,0,0,0.052214,-0.023077,0,-0.00018193,0,0,0,0.028487,-0.00047073,0.0084049,-0.069226,0.01214,0.025697,5.3394e-07,0.93,0.44,0
0.046868,0.0024906,0.028483,-0.00047186,0.0084034,-3.0099e-05,0,0,0.052207,-0.023076,0,-0.00015651,0,0,0,0.028483,-0.00047189,0.0084034,-0.059559,0.012138,0.025694,5.3374e-07,0.94,0.44,0
0.04739,0.0024897,0.02848,-0.00047281,0.008402,-2.5159e-05,0,0,0.052202,-0.023075,0,-0.00013083,0,0,0,0.02848,-0.00047284,0.008402,-0.049789,0.012136,0.025692,5.3357e-07,0.95,0.44,0
0.047912,0.0024889,0.028477,-0.00047357,0.008401,-2.0178e-05,0,0,0.052197,-0.023074,0,-0.00010492,0,0,0,0.028477,-0.00047359,0.008401,-0.039933,0.012135,0.02569,5.3342e-07,0.96,0.44,0
0.048434,0.0024883,0.028475,-0.00047415,0.0084002,-1.5162e-05,0,0,0.052194,-0.023073,0,-7.8844e-05,0,0,0,0.028475,-0.00047416,0.0084002,-0.030009,0.012134,0.025688,5.3331e-07,0.97,0.44,0
0.048956,0.0024879,0.028473,-0.00047455,0.0083996,-1.0122e-05,0,0,0.052191,-0.023073,0,-5.2635e-05,0,0,0,0.028473,-0.00047456,0.0083996,-0.020035,0.012133,0.025687,5.3323e-07,0.98,0.44,0
0.049478,0.0024877,0.028472,-0.0004748,0.0083992,-5.0652e-06,0,0,0.05219,-0.023072,0,-2.6339e-05,0,0,0,0.028472,-0.0004748,0.0083992,-0.010026,0.012132,0.025687,5.3319e-07,0.99,0.44,0
0.05,0.0024876,0.028472,-0.00047487,0.0083991,-1.5982e-06,0,0,0.052189,-0.023072,0,-8.3109e-06,0,0,0,0.028472,-0.00047487,0.0083991,-0.0031635,0.012132,0.025686,5.3317e-07,1,0.44,0
0,0,0.027379,0.011734,0.011734,0.0035104,0,0,0.040678,2.7105e-19,0,0.018254,0,0,0,0.028131,0.010982,0.011734,12.084,0.016949,0.016785,2.4125e-07,0,0.45,0
0.00040678,0.00018254,0.027435,0.012025,0.011838,0.0034485,0,0,0.040553,0.00048608,0,0.017932,0,0,0,0.028172,0.011289,0.011838,12.056,0.0171,0.016615,2.3472e-07,0.01,0.45,0
0.00081105,0.00035422,0.02739,0.012114,0.011851,0.0032428,0,0,0.0404,0.00068401,0,0.016863,0,0,0,0.028049,0.011454,0.011851,11.503,0.017118,0.0164,2.2611e-07,0.02,0.45,0
0.0012148,0.00051333,0.027385,0.012061,0.011834,0.0030114,0,0,0.040433,0.00059093,0,0.015659,0,0,0,0.027955,0.011491,0.011834,10.728,0.017093,0.016296,2.2193e-07,0.03,0.45,0
0.0016197,0.00065978,0.027417,0.0119,0.011795,0.002787,0,0,0.040617,0.00027272,0,0.014492,0,0,0,0.027902,0.011414,0.011795,9.8796,0.017037,0.016301,2.2205e-07,0.04,0.45,0
0.0020271,0.00079438,0.027474,0.011667,0.011742,0.0025835,0,0,0.040903,-0.0001958,0,0.013434,0,0,0,0.027886,0.011255,0.011742,9.0509,0.016961,0.016392,2.2555e-07,0.05,0.45,0
0.0024378,0.00091827,0.027545,0.011388,0.01168,0.002403,0,0,0.04125,-0.00075906,0,0.012496,0,0,0,0.027895,0.011038,0.01168,8.2826,0.016871,0.016545,2.3144e-07,0.06,0.45,0
0.0028521,0.0010325,0.027624,0.011079,0.011611,0.0022426,0,0,0.041633,-0.0013821,0,0.011661,0,0,0,0.027922,0.010781,0.011611,7.5842,0.016771,0.016742,2.3901e-07,0.07,0.45,0
0.0032704,0.0011382,0.027705,0.010751,0.011537,0.0020988,0,0,0.042038,-0.0020436,0,0.010914,0,0,0,0.027961,0.010495,0.011537,6.9528,0.016664,0.016969,2.4778e-07,0.08,0.45,0
0.0036929,0.0012361,0.027788,0.010409,0.011459,0.0019685,0,0,0.042455,-0.0027298,0,0.010236,0,0,0,0.028008,0.010189,0.011459,6.3823,0.016552,0.017219,2.5742e-07,0.09,0.45,0
0.0041195,0.0013269,0.027872,0.01006,0.011379,0.0018495,0,0,0.04288,-0.0034315,0,0.0096173,0,0,0,0.028061,0.0098695,0.011379,5.8658,0.016437,0.017486,2.6771e-07,0.1,0.45,0
0.0045505,0.0014112,0.027955,0.0097047,0.011298,0.0017397,0,0,0.043308,-0.004142,0,0.0090466,0,0,0,0.028119,0.0095404,0.011298,5.3972,0.016319,0.017765,2.7848e-07,0.11,0.45,0
0.0049857,0.0014897,0.028037,0.0093476,0.011215,0.0016379,0,0,0.043736,-0.0048563,0,0.0085171,0,0,0,0.028179,0.0092051,0.011215,4.9708,0.0162,0.018053,2.8961e-07,0.12,0.45,0
0.0054252,0.0015627,0.028118,0.00899,0.011133,0.0015429,0,0,0.044163,-0.0055705,0,0.008023,0,0,0,0.028242,0.0088663,0.011133,4.582,0.01608,0.018348,3.0098e-07,0.13,0.45,0
0.0058689,0.0016306,0.028198,0.0086336,0.01105,0.0014538,0,0,0.044586,-0.0062813,0,0.0075597,0,0,0,0.028305,0.0085262,0.01105,4.2266,0.01596,0.018646,3.125e-07,0.14,0.45,0
0.0063169,0.0016939,0.028276,0.0082797,0.010967,0.0013699,0,0,0.045004,-0.0069859,0,0.0071235,0,0,0,0.028369,0.0081863,0.010967,3.901,0.015841,0.018946,3.2408e-07,0.15,0.45,0
0.006769,0.0017527,0.028351,0.0079295,0.010884,0.0012907,0,0,0.045414,-0.0076822,0,0.0067115,0,0,0,0.028432,0.0078482,0.010884,3.602,0.015722,0.019247,3.3567e-07,0.16,0.45,0
0.0072252,0.0018075,0.028424,0.0075839,0.010802,0.0012156,0,0,0.045816,-0.0083681,0,0.0063212,0,0,0,0.028495,0.0075132,0.010802,3.327,0.015603,0.019546,3.4718e-07,0.17,0.45,0
0.0076853,0.0018585,0.028494,0.0072437,0.010721,0.0011443,0,0,0.046209,-0.009042,0,0.0059506,0,0,0,0.028556,0.0071822,0.010721,3.0736,0.015486,0.019842,3.5857e-07,0.18,0.45,0
0.0081494,0.0019059,0.028561,0.0069096,0.010641,0.0010766,0,0,0.046592,-0.0097024,0,0.0055981,0,0,0,0.028615,0.0068562,0.010641,2.8395,0.015371,0.020135,3.6979e-07,0.19,0.45,0
0.0086172,0.00195,0.028625,0.0065822,0.010562,0.001012,0,0,0.046964,-0.010348,0,0.0052623,0,0,0,0.028672,0.0065359,0.010562,2.6231,0.015257,0.020422,3.8078e-07,0.2,0.45,0
0.0090887,0.0019908,0.028686,0.0062621,0.010484,0.00095038,0,0,0.047324,-0.010978,0,0.0049419,0,0,0,0.028726,0.0062219,0.010484,2.4225,0.015144,0.020705,3.9152e-07,0.21,0.45,0
0.0095637,0.0020288,0.028743,0.0059497,0.010408,0.00089155,0,0,0.047672,-0.011591,0,0.0046361,0,0,0,0.028778,0.0059149,0.010408,2.2365,0.015033,0.02098,4.0197e-07,0.22,0.45,0
0.010042,0.0020639,0.028797,0.0056454,0.010333,0.00083536,0,0,0.048007,-0.012187,0,0.0043438,0,0,0,0.028827,0.0056153,0.010333,2.0638,0.014925,0.021249,4.1209e-07,0.23,0.45,0
0.010524,0.0020963,0.028847,0.0053495,0.010259,0.00078164,0,0,0.048329,-0.012764,0,0.0040646,0,0,0,0.028873,0.0053235,0.010259,1.9032,0.014818,0.02151,4.2187e-07,0.24,0.45,0
0.011009,0.0021263,0.028893,0.0050621,0.010187,0.00073029,0,0,0.048637,-0.013324,0,0.0037975,0,0,0,0.028916,0.0050398,0.010187,1.7536,0.014714,0.021764,4.3128e-07,0.25,0.45,0
0.011496,0.002154,0.028936,0.0047837,0.010116,0.0006812,0,0,0.048932,-0.013864,0,0.0035422,0,0,0,0.028955,0.0047645,0.010116,1.6143,0.014612,0.022008,4.403e-07,0.26,0.45,0
0.011987,0.0021794,0.028975,0.0045142,0.010047,0.00063428,0,0,0.049214,-0.014385,0,0.0032982,0,0,0,0.028991,0.0044977,0.010047,1.4844,0.014512,0.022245,4.4893e-07,0.27,0.45,0
0.012481,0.0022028,0.029011,0.0042538,0.0099793,0.00058944,0,0,0.049481,-0.014887,0,0.0030651,0,0,0,0.029025,0.0042397,0.0099793,1.3631,0.014415,0.022472,4.5715e-07,0.28,0.45,0
0.012977,0.0022242,0.029043,0.0040025,0.0099136,0.0005466,0,0,0.049736,-0.015369,0,0.0028423,0,0,0,0.029055,0.0039906,0.0099136,1.2499,0.01432,0.02269,4.6496e-07,0.29,0.45,0
0.013475,0.0022438,0.029071,0.0037604,0.0098495,0.00050571,0,0,0.049977,-0.015832,0,0.0026297,0,0,0,0.029081,0.0037503,0.0098495,1.1442,0.014227,0.022899,4.7236e-07,0.3,0.45,0
0.013976,0.0022616,0.029097,0.0035274,0.0097872,0.00046669,0,0,0.050204,-0.016275,0,0.0024268,0,0,0,0.029105,0.0035189,0.0097872,1.0453,0.014137,0.023099,4.7935e-07,0.31,0.45,0
0.01448,0.0022778,0.029119,0.0033036,0.0097267,0.0004295,0,0,0.050419,-0.0167,0,0.0022334,0,0,0,0.029126,0.0032964,0.0097267,0.95291,0.01405,0.02329,4.8593e-07,0.32,0.45,0
0.014985,0.0022925,0.029138,0.0030887,0.0096679,0.00039406,0,0,0.050621,-0.017106,0,0.0020491,0,0,0,0.029143,0.0030827,0.0096679,0.8665,0.013965,0.023471,4.921e-07,0.33,0.45,0
0.015492,0.0023057,0.029153,0.0028828,0.0096108,0.00036034,0,0,0.050811,-0.017493,0,0.0018737,0,0,0,0.029158,0.0028778,0.0096108,0.7857,0.013882,0.023644,4.9787e-07,0.34,0.45,0
0.016001,0.0023175,0.029166,0.0026856,0.0095556,0.00032827,0,0,0.050988,-0.017862,0,0.001707,0,0,0,0.02917,0.0026816,0.0095556,0.71012,0.013803,0.023808,5.0325e-07,0.35,0.45,0
0.016512,0.0023281,0.029176,0.0024971,0.009502,0.0002978,0,0,0.051153,-0.018213,0,0.0015486,0,0,0,0.02918,0.0024938,0.009502,0.63945,0.013725,0.023963,5.0825e-07,0.36,0.45,0
0.017024,0.0023375,0.029184,0.0023171,0.0094503,0.0002689,0,0,0.051307,-0.018546,0,0.0013983,0,0,0,0.029187,0.0023144,0.0094503,0.57337,0.01365,0.02411,5.1289e-07,0.37,0.45,0
0.017538,0.0023458,0.029189,0.0021454,0.0094003,0.0002415,0,0,0.05145,-0.018863,0,0.0012558,0,0,0,0.029191,0.0021432,0.0094003,0.5116,0.013578,0.024248,5.1716e-07,0.38,0.45,0
0.018053,0.002353,0.029191,0.0019818,0.0093519,0.00021556,0,0,0.051583,-0.019162,0,0.0011209,0,0,0,0.029193,0.0019801,0.0093519,0.45387,0.013508,0.024378,5.211e-07,0.39,0.45,0
0.01857,0.0023592,0.029192,0.001826,0.0093053,0.00019103,0,0,0.051705,-0.019446,0,0.00099337,0,0,0,0.029193,0.0018247,0.0093053,0.39994,0.013441,0.0245,5.247e-07,0.4,0.45,0
0.019087,0.0023645,0.02919,0.001678,0.0092604,0.00016787,0,0,0.051817,-0.019714,0,0.00087294,0,0,0,0.029191,0.001677,0.0092604,0.34959,0.013376,0.024615,5.2799e-07,0.41,0.45,0
0.019606,0.002369,0.029186,0.0015374,0.0092171,0.00014604,0,0,0.05192,-0.019967,0,0.00075938,0,0,0,0.029187,0.0015366,0.0092171,0.30261,0.013314,0.024722,5.3098e-07,0.42,0.45,0
0.020126,0.0023727,0.029181,0.001404,0.0091754,0.00012547,0,0,0.052014,-0.020206,0,0.00065246,0,0,0,0.029181,0.0014034,0.0091754,0.25881,0.013253,0.024822,5.3368e-07,0.43,0.45,0
0.020646,0.0023756,0.029174,0.0012776,0.0091354,0.00010614,0,0,0.052099,-0.02043,0,0.00055193,0,0,0,0.029174,0.0012772,0.0091354,0.218,0.013196,0.024915,5.3611e-07,0.44,0.45,0
0.021168,0.0023779,0.029165,0.001158,0.0090968,8.7994e-05,0,0,0.052177,-0.020641,0,0.00045757,0,0,0,0.029165,0.0011577,0.0090968,0.18002,0.01314,0.025002,5.3828e-07,0.45,0.45,0
0.02169,0.0023795,0.029155,0.0010449,0.0090598,7.0992e-05,0,0,0.052247,-0.020839,0,0.00036916,0,0,0,0.029155,0.0010447,0.0090598,0.1447,0.013086,0.025082,5.4021e-07,0.46,0.45,0
0.022212,0.0023805,0.029143,0.000938,0.0090244,5.509e-05,0,0,0.052309,-0.021025,0,0.00028647,0,0,0,0.029143,0.0009379,0.0090244,0.11191,0.013035,0.025157,5.4191e-07,0.47,0.45,0
0.022736,0.002381,0.029131,0.00083718,0.0089903,4.0246e-05,0,0,0.052365,-0.021198,0,0.00020928,0,0,0,0.029131,0.00083712,0.0089903,0.0815,0.012986,0.025225,5.434e-07,0.48,0.45,0
0.02326,0.002381,0.029117,0.00074215,0.0089577,2.6419e-05,0,0,0.052414,-0.02136,0,0.00013738,0,0,0,0.029117,0.00074212,0.0089577,0.053346,0.012939,0.025288,5.4468e-07,0.49,0.45,0
0.023784,0.0023806,0.029102,0.00065267,0.0089265,1.3569e-05,0,0,0.052457,-0.021512,0,7.056e-05,0,0,0,0.029102,0.00065266,0.0089265,0.027328,0.012894,0.025347,5.4578e-07,0.5,0.45,0
0.024309,0.0023797,0.029087,0.00056851,0.0088966,1.6572e-06,0,0,0.052494,-0.021653,0,8.6174e-06,0,0,0,0.029087,0.00056851,0.0088966,0.0033295,0.012851,0.0254,5.4671e-07,0.51,0.45,0
0.024834,0.0023785,0.02907,0.00048945,0.008868,-9.3557e-06,0,0,0.052527,-0.021784,0,-4.865e-05,0,0,0,0.02907,0.00048945,0.008868,-0.018755,0.012809,0.025448,5.4747e-07,0.52,0.45,0
0.02536,0.0023769,0.029054,0.00041525,0.0088407,-1.9507e-05,0,0,0.052554,-0.021906,0,-0.00010144,0,0,0,0.029054,0.00041524,0.0088407,-0.039027,0.01277,0.025492,5.4809e-07,0.53,0.45,0
0.025885,0.0023749,0.029036,0.00034569,0.0088146,-2.8833e-05,0,0,0.052576,-0.022019,0,-0.00014993,0,0,0,0.029036,0.00034566,0.0088146,-0.05758,0.012732,0.025532,5.4856e-07,0.54,0.45,0
0.026411,0.0023727,0.029018,0.00028056,0.0087897,-3.7369e-05,0,0,0.052595,-0.022124,0,-0.00019432,0,0,0,0.029018,0.00028051,0.0087897,-0.074504,0.012696,0.025568,5.4891e-07,0.55,0.45,0
0.026937,0.0023703,0.029,0.00021964,0.008766,-4.515e-05,0,0,0.052609,-0.02222,0,-0.00023478,0,0,0,0.029,0.00021957,0.008766,-0.089883,0.012662,0.025601,5.4915e-07,0.56,0.45,0
0.027463,0.0023676,0.028982,0.00016273,0.0087433,-5.2209e-05,0,0,0.05262,-0.02231,0,-0.00027149,0,0,0,0.028982,0.00016263,0.0087433,-0.1038,0.012629,0.02563,5.4927e-07,0.57,0.45,0
0.027989,0.0023647,0.028963,0.00010962,0.0087218,-5.8579e-05,0,0,0.052627,-0.022392,0,-0.00030461,0,0,0,0.028963,0.0001095,0.0087218,-0.11632,0.012598,0.025656,5.493e-07,0.58,0.45,0
0.028516,0.0023617,0.028944,6.0126e-05,0.0087013,-6.429e-05,0,0,0.052631,-0.022467,0,-0.00033431,0,0,0,0.028944,5.9983e-05,0.0087013,-0.12753,0.012568,0.025678,5.4925e-07,0.59,0.45,0
0.029042,0.0023585,0.028925,1.4053e-05,0.0086818,-6.9373e-05,0,0,0.052633,-0.022536,0,-0.00036074,0,0,0,0.028925,1.3887e-05,0.0086818,-0.13748,0.01254,0.025698,5.4911e-07,0.6,0.45,0
0.029568,0.0023551,0.028906,-2.878e-05,0.0086632,-7.3858e-05,0,0,0.052632,-0.022599,0,-0.00038406,0,0,0,0.028906,-2.8968e-05,0.0086632,-0.14625,0.012514,0.025716,5.489e-07,0.61,0.45,0
0.030095,0.0023516,0.028887,-6.8549e-05,0.0086456,-7.7772e-05,0,0,0.052628,-0.022657,0,-0.00040442,0,0,0,0.028887,-6.8758e-05,0.0086456,-0.15389,0.012488,0.025731,5.4863e-07,0.62,0.45,0
0.030621,0.0023481,0.028868,-0.00010543,0.0086289,-8.1144e-05,0,0,0.052623,-0.022709,0,-0.00042195,0,0,0,0.028868,-0.00010565,0.0086289,-0.16046,0.012464,0.025743,5.483e-07,0.63,0.45,0
0.031147,0.0023445,0.02885,-0.00013957,0.008613,-8.3998e-05,0,0,0.052615,-0.022757,0,-0.00043679,0,0,0,0.02885,-0.00013982,0.008613,-0.16602,0.012441,0.025754,5.4792e-07,0.64,0.45,0
0.031673,0.0023408,0.028831,-0.00017115,0.008598,-8.6361e-05,0,0,0.052606,-0.0228,0,-0.00044908,0,0,0,0.028831,-0.00017141,0.008598,-0.17061,0.012419,0.025763,5.475e-07,0.65,0.45,0
0.032199,0.0023371,0.028813,-0.00020031,0.0085837,-8.8257e-05,0,0,0.052595,-0.022838,0,-0.00045894,0,0,0,0.028813,-0.00020058,0.0085837,-0.17429,0.012399,0.02577,5.4704e-07,0.66,0.45,0
0.032725,0.0023334,0.028795,-0.00022719,0.0085702,-8.971e-05,0,0,0.052583,-0.022873,0,-0.00046649,0,0,0,0.028795,-0.00022747,0.0085702,-0.17711,0.012379,0.025775,5.4655e-07,0.67,0.45,0
0.033251,0.0023296,0.028777,-0.00025194,0.0085575,-9.0741e-05,0,0,0.05257,-0.022904,0,-0.00047185,0,0,0,0.028777,-0.00025222,0.0085575,-0.1791,0.012361,0.025779,5.4603e-07,0.68,0.45,0
0.033777,0.0023259,0.028759,-0.00027469,0.0085454,-9.1373e-05,0,0,0.052556,-0.022932,0,-0.00047514,0,0,0,0.02876,-0.00027498,0.0085454,-0.18031,0.012343,0.025782,5.4549e-07,0.69,0.45,0
0.034302,0.0023222,0.028742,-0.00029556,0.008534,-9.1627e-05,0,0,0.052541,-0.022957,0,-0.00047646,0,0,0,0.028743,-0.00029585,0.008534,-0.18079,0.012327,0.025784,5.4493e-07,0.7,0.45,0
0.034827,0.0023185,0.028726,-0.00031469,0.0085233,-9.1522e-05,0,0,0.052526,-0.022979,0,-0.00047591,0,0,0,0.028726,-0.00031498,0.0085233,-0.18057,0.012311,0.025784,5.4436e-07,0.71,0.45,0
0.035353,0.0023148,0.028709,-0.00033218,0.0085131,-9.1078e-05,0,0,0.05251,-0.022998,0,-0.00047361,0,0,0,0.02871,-0.00033246,0.0085131,-0.17969,0.012297,0.025784,5.4378e-07,0.72,0.45,0
0.035878,0.0023112,0.028693,-0.00034815,0.0085036,-9.0314e-05,0,0,0.052494,-0.023015,0,-0.00046963,0,0,0,0.028694,-0.00034843,0.0085036,-0.17818,0.012283,0.025782,5.432e-07,0.73,0.45,0
0.036402,0.0023077,0.028678,-0.00036269,0.0084946,-8.9246e-05,0,0,0.052477,-0.023029,0,-0.00046408,0,0,0,0.028678,-0.00036297,0.0084946,-0.17608,0.01227,0.02578,5.4261e-07,0.74,0.45,0
0.036927,0.0023042,0.028663,-0.00037593,0.0084862,-8.7893e-05,0,0,0.05246,-0.023041,0,-0.00045705,0,0,0,0.028663,-0.00037619,0.0084862,-0.17342,0.012258,0.025777,5.4203e-07,0.75,0.45,0
0.037452,0.0023008,0.028649,-0.00038794,0.0084782,-8.6271e-05,0,0,0.052443,-0.023052,0,-0.00044861,0,0,0,0.028649,-0.00038819,0.0084782,-0.17023,0.012246,0.025774,5.4145e-07,0.76,0.45,0
0.037976,0.0022975,0.028635,-0.00039881,0.0084708,-8.4395e-05,0,0,0.052427,-0.023061,0,-0.00043885,0,0,0,0.028635,-0.00039906,0.0084708,-0.16655,0.012236,0.025771,5.4087e-07,0.77,0.45,0
0.0385,0.0022942,0.028621,-0.00040864,0.0084638,-8.2281e-05,0,0,0.05241,-0.023068,0,-0.00042786,0,0,0,0.028622,-0.00040888,0.0084638,-0.16239,0.012226,0.025767,5.4031e-07,0.78,0.45,0
0.039024,0.0022911,0.028609,-0.00041751,0.0084573,-7.9942e-05,0,0,0.052393,-0.023075,0,-0.0004157,0,0,0,0.028609,-0.00041773,0.0084573,-0.1578,0.012216,0.025762,5.3976e-07,0.79,0.45,0
0.039548,0.0022881,0.028596,-0.00042548,0.0084513,-7.7394e-05,0,0,0.052377,-0.023079,0,-0.00040245,0,0,0,0.028597,-0.00042569,0.0084513,-0.15279,0.012207,0.025758,5.3921e-07,0.8,0.45,0
0.040072,0.0022852,0.028585,-0.00043264,0.0084456,-7.4649e-05,0,0,0.052361,-0.023083,0,-0.00038817,0,0,0,0.028585,-0.00043283,0.0084456,-0.1474,0.012199,0.025753,5.3869e-07,0.81,0.45,0
0.040595,0.0022824,0.028573,-0.00043905,0.0084403,-7.1721e-05,0,0,0.052346,-0.023086,0,-0.00037295,0,0,0,0.028574,-0.00043923,0.0084403,-0.14164,0.012191,0.025748,5.3819e-07,0.82,0.45,0
0.041119,0.0022798,0.028563,-0.00044477,0.0084354,-6.8621e-05,0,0,0.052331,-0.023088,0,-0.00035683,0,0,0,0.028563,-0.00044493,0.0084354,-0.13554,0.012184,0.025743,5.377e-07,0.83,0.45,0
0.041642,0.0022772,0.028553,-0.00044986,0.0084309,-6.5362e-05,0,0,0.052317,-0.02309,0,-0.00033989,0,0,0,0.028553,-0.00045001,0.0084309,-0.12912,0.012178,0.025738,5.3723e-07,0.84,0.45,0
0.042165,0.0022748,0.028543,-0.00045438,0.0084267,-6.1956e-05,0,0,0.052303,-0.023091,0,-0.00032217,0,0,0,0.028543,-0.00045451,0.0084267,-0.12242,0.012172,0.025734,5.3679e-07,0.85,0.45,0
0.042688,0.0022726,0.028535,-0.00045837,0.0084228,-5.8413e-05,0,0,0.05229,-0.023091,0,-0.00030375,0,0,0,0.028535,-0.00045849,0.0084228,-0.11544,0.012166,0.025729,5.3637e-07,0.86,0.45,0
0.043211,0.0022704,0.028526,-0.00046189,0.0084193,-5.4745e-05,0,0,0.052278,-0.023091,0,-0.00028467,0,0,0,0.028526,-0.000462,0.0084193,-0.1082,0.012161,0.025724,5.3597e-07,0.87,0.45,0
0.043734,0.0022685,0.028519,-0.00046498,0.0084161,-5.0961e-05,0,0,0.052267,-0.023091,0,-0.000265,0,0,0,0.028519,-0.00046507,0.0084161,-0.10074,0.012157,0.02572,5.356e-07,0.88,0.45,0
0.044256,0.0022666,0.028511,-0.00046768,0.0084131,-4.7073e-05,0,0,0.052256,-0.02309,0,-0.00024478,0,0,0,0.028512,-0.00046776,0.0084131,-0.093069,0.012152,0.025716,5.3526e-07,0.89,0.45,0
0.044779,0.0022649,0.028505,-0.00047003,0.0084105,-4.3089e-05,0,0,0.052246,-0.023089,0,-0.00022406,0,0,0,0.028505,-0.00047009,0.0084105,-0.085204,0.012148,0.025712,5.3494e-07,0.9,0.45,0
0.045301,0.0022634,0.028499,-0.00047205,0.0084082,-3.9019e-05,0,0,0.052237,-0.023089,0,-0.0002029,0,0,0,0.028499,-0.0004721,0.0084082,-0.077166,0.012145,0.025708,5.3465e-07,0.91,0.45,0
0.045823,0.002262,0.028494,-0.00047378,0.0084061,-3.4873e-05,0,0,0.052229,-0.023088,0,-0.00018134,0,0,0,0.028494,-0.00047382,0.0084061,-0.068975,0.012142,0.025705,5.3439e-07,0.92,0.45,0
0.046346,0.0022608,0.028489,-0.00047524,0.0084043,-3.0659e-05,0,0,0.052221,-0.023087,0,-0.00015943,0,0,0,0.028489,-0.00047528,0.0084043,-0.060647,0.012139,0.025702,5.3416e-07,0.93,0.45,0
0.046868,0.0022598,0.028485,-0.00047647,0.0084027,-2.6386e-05,0,0,0.052215,-0.023086,0,-0.00013721,0,0,0,0.028485,-0.00047649,0.0084027,-0.052201,0.012137,0.0257,5.3396e-07,0.94,0.45,0
0.04739,0.0022589,0.028482,-0.00047747,0.0084014,-2.2064e-05,0,0,0.05221,-0.023085,0,-0.00011473,0,0,0,0.028482,-0.00047749,0.0084014,-0.043654,0.012135,0.025698,5.3379e-07,0.95,0.45,0
0.047912,0.0022581,0.028479,-0.00047827,0.0084003,-1.7701e-05,0,0,0.052205,-0.023084,0,-9.2044e-05,0,0,0,0.028479,-0.00047828,0.0084003,-0.035023,0.012134,0.025696,5.3365e-07,0.96,0.45,0
0.048434,0.0022576,0.028477,-0.00047887,0.0083995,-1.3304e-05,0,0,0.052202,-0.023084,0,-6.9182e-05,0,0,0,0.028477,-0.00047888,0.0083995,-0.026325,0.012133,0.025694,5.3354e-07,0.97,0.45,0
0.048956,0.0022571,0.028476,-0.0004793,0.0083989,-8.8831e-06,0,0,0.052199,-0.023083,0,-4.6192e-05,0,0,0,0.028476,-0.0004793,0.0083989,-0.017578,0.012132,0.025693,5.3346e-07,0.98,0.45,0
0.049478,0.0022569,0.028475,-0.00047955,0.0083985,-4.4456e-06,0,0,0.052198,-0.023083,0,-2.3117e-05,0,0,0,0.028475,-0.00047955,0.0083985,-0.0087972,0.012131,0.025693,5.3341e-07,0.99,0.45,0
0.05,0.0022568,0.028474,-0.00047963,0.0083984,-1.5802e-06,0,0,0.052197,-0.023083,0,-8.2172e-06,0,0,0,0.028474,-0.00047963,0.0083984,-0.0031271,0.012131,0.025692,5.334e-07,1,0.45,0
0,0,0.027543,0.011804,0.011804,0.0036251,0,0,0.040921,2.7105e-19,0,0.01885,0,0,0,0.028338,0.011009,0.011804,12.367,0.01705,0.016945,2.4804e-07,0,0.46,0
0.00040921,0.0001885,0.027631,0.012256,0.011966,0.0035402,0,0,0.040729,0.00075412,0,0.018409,0,0,0,0.028407,0.01148,0.011966,12.363,0.017285,0.016689,2.3806e-07,0.01,0.46,0
0.00081458,0.00036267,0.027554,0.012386,0.011982,0.0032723,0,0,0.040488,0.0010494,0,0.017016,0,0,0,0.02823,0.01171,0.011982,11.669,0.017307,0.016386,2.2576e-07,0.02,0.46,0
0.001219,0.00052089,0.027534,0.012316,0.011955,0.0029911,0,0,0.040505,0.00093896,0,0.015554,0,0,0,0.028101,0.011749,0.011955,10.73,0.017268,0.01625,2.2025e-07,0.03,0.46,0
0.0016247,0.00066398,0.027559,0.012123,0.011905,0.0027377,0,0,0.040701,0.0005685,0,0.014236,0,0,0,0.02803,0.011652,0.011905,9.7656,0.017195,0.016253,2.2033e-07,0.04,0.46,0
0.002033,0.00079369,0.027609,0.011861,0.011841,0.00252,0,0,0.040996,5.2842e-05,0,0.013104,0,0,0,0.028002,0.011468,0.011841,8.8736,0.017104,0.016351,2.2413e-07,0.05,0.46,0
0.0024446,0.00091176,0.02767,0.011559,0.011769,0.0023324,0,0,0.041344,-0.00054506,0,0.012128,0,0,0,0.028001,0.011228,0.011769,8.0738,0.017,0.016509,2.3027e-07,0.06,0.46,0
0.0028599,0.0010197,0.027737,0.011232,0.011691,0.0021681,0,0,0.041721,-0.0011932,0,0.011274,0,0,0,0.028017,0.010952,0.011691,7.36,0.016886,0.016708,2.3798e-07,0.07,0.46,0
0.003279,0.0011186,0.027807,0.010888,0.011609,0.0020221,0,0,0.042116,-0.0018731,0,0.010515,0,0,0,0.028045,0.01065,0.011609,6.7216,0.016768,0.016936,2.4682e-07,0.08,0.46,0
0.0037022,0.0012095,0.027879,0.010534,0.011524,0.0018905,0,0,0.042522,-0.0025733,0,0.0098307,0,0,0,0.028082,0.01033,0.011524,6.1489,0.016646,0.017186,2.5648e-07,0.09,0.46,0
0.0041295,0.0012933,0.027952,0.010174,0.011438,0.0017708,0,0,0.042937,-0.003286,0,0.0092084,0,0,0,0.028126,0.0099992,0.011438,5.6334,0.016521,0.017453,2.6678e-07,0.1,0.46,0
0.0045609,0.0013705,0.028026,0.0098103,0.011351,0.0016611,0,0,0.043355,-0.0040054,0,0.0086377,0,0,0,0.028176,0.0096601,0.011351,5.1681,0.016396,0.017731,2.7755e-07,0.11,0.46,0
0.0049966,0.0014418,0.0281,0.0094456,0.011264,0.0015598,0,0,0.043775,-0.0047271,0,0.0081108,0,0,0,0.02823,0.009316,0.011264,4.7468,0.01627,0.018019,2.8867e-07,0.12,0.46,0
0.0054364,0.0015076,0.028174,0.0090814,0.011177,0.0014657,0,0,0.044193,-0.0054475,0,0.0076218,0,0,0,0.028286,0.0089696,0.011177,4.3645,0.016144,0.018313,3.0002e-07,0.13,0.46,0
0.0058804,0.0015684,0.028247,0.0087193,0.01109,0.0013781,0,0,0.044608,-0.0061635,0,0.0071659,0,0,0,0.028344,0.0086225,0.01109,4.0168,0.016019,0.018611,3.1153e-07,0.14,0.46,0
0.0063286,0.0016246,0.028319,0.0083603,0.011004,0.001296,0,0,0.045019,-0.0068728,0,0.0067391,0,0,0,0.028403,0.0082765,0.011004,3.6998,0.015894,0.01891,3.231e-07,0.15,0.46,0
0.0067808,0.0016765,0.028389,0.0080055,0.010918,0.0012189,0,0,0.045423,-0.0075732,0,0.0063383,0,0,0,0.028461,0.0079329,0.010918,3.4101,0.015771,0.01921,3.3467e-07,0.16,0.46,0
0.007237,0.0017244,0.028457,0.0076558,0.010834,0.0011463,0,0,0.04582,-0.0082628,0,0.0059608,0,0,0,0.02852,0.0075928,0.010834,3.1448,0.015649,0.019509,3.4617e-07,0.17,0.46,0
0.0076972,0.0017686,0.028522,0.0073118,0.01075,0.0010778,0,0,0.046207,-0.00894,0,0.0056043,0,0,0,0.028577,0.0072572,0.01075,2.9014,0.015528,0.019806,3.5754e-07,0.18,0.46,0
0.0081612,0.0018094,0.028585,0.0069743,0.010668,0.0010129,0,0,0.046586,-0.0096034,0,0.0052671,0,0,0,0.028633,0.0069269,0.010668,2.6776,0.015409,0.020098,3.6874e-07,0.19,0.46,0
0.0086289,0.001847,0.028646,0.0066438,0.010587,0.00095142,0,0,0.046953,-0.010252,0,0.0049474,0,0,0,0.028687,0.0066027,0.010587,2.4715,0.015292,0.020386,3.7972e-07,0.2,0.46,0
0.0091003,0.0018815,0.028703,0.0063207,0.010507,0.00089307,0,0,0.047309,-0.010885,0,0.004644,0,0,0,0.028738,0.0062851,0.010507,2.2813,0.015177,0.020668,3.9044e-07,0.21,0.46,0
0.0095751,0.0019133,0.028757,0.0060056,0.010429,0.00083762,0,0,0.047653,-0.0115,0,0.0043556,0,0,0,0.028788,0.0059748,0.010429,2.1056,0.015064,0.020944,4.0087e-07,0.22,0.46,0
0.010053,0.0019425,0.028808,0.0056987,0.010352,0.00078487,0,0,0.047985,-0.012098,0,0.0040813,0,0,0,0.028834,0.005672,0.010352,1.943,0.014953,0.021213,4.1097e-07,0.23,0.46,0
0.010535,0.0019691,0.028855,0.0054003,0.010277,0.00073465,0,0,0.048304,-0.012679,0,0.0038202,0,0,0,0.028878,0.0053773,0.010277,1.7923,0.014844,0.021475,4.2074e-07,0.24,0.46,0
0.011019,0.0019935,0.028899,0.0051106,0.010203,0.00068683,0,0,0.04861,-0.01324,0,0.0035715,0,0,0,0.028919,0.0050908,0.010203,1.6524,0.014738,0.021728,4.3013e-07,0.25,0.46,0
0.011507,0.0020158,0.02894,0.00483,0.010131,0.00064126,0,0,0.048903,-0.013782,0,0.0033346,0,0,0,0.028957,0.0048129,0.010131,1.5225,0.014634,0.021973,4.3915e-07,0.26,0.46,0
0.011997,0.002036,0.028977,0.0045584,0.010061,0.00059784,0,0,0.049183,-0.014306,0,0.0031088,0,0,0,0.028992,0.0045437,0.010061,1.4016,0.014532,0.02221,4.4777e-07,0.27,0.46,0
0.012491,0.0020543,0.029011,0.0042959,0.0099921,0.00055646,0,0,0.049449,-0.01481,0,0.0028936,0,0,0,0.029024,0.0042834,0.0099921,1.2892,0.014433,0.022437,4.5598e-07,0.28,0.46,0
0.012986,0.0020709,0.029042,0.0040427,0.0099253,0.00051703,0,0,0.049702,-0.015295,0,0.0026886,0,0,0,0.029052,0.004032,0.0099253,1.1843,0.014337,0.022656,4.6379e-07,0.29,0.46,0
0.013485,0.0020858,0.029069,0.0037987,0.0098602,0.00047947,0,0,0.049942,-0.01576,0,0.0024932,0,0,0,0.029078,0.0037896,0.0098602,1.0866,0.014243,0.022866,4.7119e-07,0.3,0.46,0
0.013985,0.0020992,0.029093,0.003564,0.009797,0.0004437,0,0,0.050169,-0.016206,0,0.0023072,0,0,0,0.029101,0.0035562,0.009797,0.99542,0.014151,0.023066,4.7818e-07,0.31,0.46,0
0.014488,0.0021112,0.029114,0.0033383,0.0097356,0.00040965,0,0,0.050383,-0.016633,0,0.0021302,0,0,0,0.02912,0.0033318,0.0097356,0.91029,0.014063,0.023257,4.8476e-07,0.32,0.46,0
0.014993,0.0021217,0.029132,0.0031218,0.009676,0.00037725,0,0,0.050585,-0.017041,0,0.0019617,0,0,0,0.029137,0.0031163,0.009676,0.83079,0.013976,0.02344,4.9094e-07,0.33,0.46,0
0.0155,0.0021311,0.029147,0.0029143,0.0096183,0.00034644,0,0,0.050774,-0.01743,0,0.0018015,0,0,0,0.029151,0.0029097,0.0096183,0.75651,0.013893,0.023613,4.9672e-07,0.34,0.46,0
0.016008,0.0021392,0.029159,0.0027156,0.0095623,0.00031717,0,0,0.050951,-0.017802,0,0.0016493,0,0,0,0.029163,0.0027118,0.0095623,0.68708,0.013812,0.023778,5.0212e-07,0.35,0.46,0
0.016519,0.0021463,0.029168,0.0025255,0.0095082,0.00028937,0,0,0.051117,-0.018155,0,0.0015047,0,0,0,0.029171,0.0025224,0.0095082,0.62219,0.013734,0.023933,5.0713e-07,0.36,0.46,0
0.017031,0.0021523,0.029175,0.002344,0.0094558,0.000263,0,0,0.051271,-0.018491,0,0.0013676,0,0,0,0.029178,0.0023415,0.0094558,0.56153,0.013658,0.024081,5.1178e-07,0.37,0.46,0
0.017544,0.0021574,0.02918,0.0021709,0.0094053,0.00023799,0,0,0.051414,-0.018809,0,0.0012376,0,0,0,0.029182,0.0021688,0.0094053,0.50482,0.013585,0.02422,5.1608e-07,0.38,0.46,0
0.018059,0.0021616,0.029182,0.0020059,0.0093564,0.00021432,0,0,0.051547,-0.019111,0,0.0011144,0,0,0,0.029184,0.0020042,0.0093564,0.45181,0.013515,0.024351,5.2003e-07,0.39,0.46,0
0.018575,0.002165,0.029182,0.0018489,0.0093093,0.00019192,0,0,0.05167,-0.019397,0,0.00099797,0,0,0,0.029184,0.0018475,0.0093093,0.40227,0.013447,0.024474,5.2366e-07,0.4,0.46,0
0.019092,0.0021676,0.02918,0.0016995,0.009264,0.00017075,0,0,0.051783,-0.019668,0,0.00088788,0,0,0,0.029181,0.0016985,0.009264,0.35598,0.013381,0.024589,5.2697e-07,0.41,0.46,0
0.019611,0.0021696,0.029177,0.0015577,0.0092203,0.00015076,0,0,0.051886,-0.019923,0,0.00078396,0,0,0,0.029177,0.0015569,0.0092203,0.31274,0.013318,0.024697,5.2998e-07,0.42,0.46,0
0.02013,0.0021708,0.029171,0.0014231,0.0091783,0.00013192,0,0,0.051981,-0.020163,0,0.00068597,0,0,0,0.029172,0.0014225,0.0091783,0.27238,0.013258,0.024798,5.3271e-07,0.43,0.46,0
0.02065,0.0021715,0.029164,0.0012956,0.0091378,0.00011417,0,0,0.052068,-0.02039,0,0.0005937,0,0,0,0.029164,0.0012951,0.0091378,0.23473,0.013199,0.024892,5.3516e-07,0.44,0.46,0
0.021171,0.0021717,0.029155,0.0011749,0.009099,9.7488e-05,0,0,0.052146,-0.020603,0,0.00050694,0,0,0,0.029156,0.0011745,0.009099,0.19962,0.013143,0.02498,5.3736e-07,0.45,0.46,0
0.021693,0.0021713,0.029145,0.0010607,0.0090617,8.182e-05,0,0,0.052217,-0.020803,0,0.00042546,0,0,0,0.029145,0.0010604,0.0090617,0.16692,0.013089,0.025061,5.3932e-07,0.46,0.46,0
0.022216,0.0021705,0.029134,0.0009528,0.009026,6.7132e-05,0,0,0.05228,-0.02099,0,0.00034909,0,0,0,0.029134,0.00095264,0.009026,0.13649,0.013038,0.025136,5.4105e-07,0.47,0.46,0
0.022739,0.0021692,0.029121,0.00085099,0.0089917,5.3385e-05,0,0,0.052337,-0.021166,0,0.0002776,0,0,0,0.029121,0.00085089,0.0089917,0.1082,0.012988,0.025206,5.4257e-07,0.48,0.46,0
0.023263,0.0021676,0.029108,0.00075502,0.0089588,4.0544e-05,0,0,0.052387,-0.02133,0,0.00021083,0,0,0,0.029108,0.00075496,0.0089588,0.081931,0.012941,0.02527,5.4389e-07,0.49,0.46,0
0.023787,0.0021656,0.029093,0.00066463,0.0089274,2.8571e-05,0,0,0.052431,-0.021483,0,0.00014857,0,0,0,0.029093,0.0006646,0.0089274,0.057582,0.012895,0.025329,5.4502e-07,0.5,0.46,0
0.024311,0.0021633,0.029078,0.00057961,0.0088973,1.7432e-05,0,0,0.05247,-0.021626,0,9.0647e-05,0,0,0,0.029078,0.0005796,0.0088973,0.035047,0.012852,0.025383,5.4598e-07,0.51,0.46,0
0.024836,0.0021607,0.029062,0.00049971,0.0088686,7.0939e-06,0,0,0.052503,-0.021759,0,3.6888e-05,0,0,0,0.029062,0.00049971,0.0088686,0.01423,0.01281,0.025433,5.4678e-07,0.52,0.46,0
0.025361,0.0021579,0.029046,0.00042471,0.0088411,-2.4767e-06,0,0,0.052532,-0.021883,0,-1.2879e-05,0,0,0,0.029046,0.00042471,0.0088411,-0.004958,0.012771,0.025478,5.4742e-07,0.53,0.46,0
0.025887,0.0021548,0.029028,0.00035439,0.0088149,-1.1311e-05,0,0,0.052555,-0.021997,0,-5.8818e-05,0,0,0,0.029028,0.00035439,0.0088149,-0.022602,0.012733,0.025518,5.4793e-07,0.54,0.46,0
0.026412,0.0021516,0.029011,0.00028853,0.0087898,-1.9441e-05,0,0,0.052575,-0.022103,0,-0.00010109,0,0,0,0.029011,0.00028851,0.0087898,-0.03878,0.012696,0.025555,5.4831e-07,0.55,0.46,0
0.026938,0.0021482,0.028993,0.00022691,0.008766,-2.6895e-05,0,0,0.05259,-0.022202,0,-0.00013985,0,0,0,0.028993,0.00022688,0.008766,-0.053568,0.012662,0.025589,5.4858e-07,0.56,0.46,0
0.027464,0.0021446,0.028975,0.00016933,0.0087432,-3.3702e-05,0,0,0.052602,-0.022292,0,-0.00017525,0,0,0,0.028975,0.00016929,0.0087432,-0.067035,0.012629,0.025618,5.4874e-07,0.57,0.46,0
0.02799,0.0021409,0.028956,0.00011558,0.0087216,-3.9891e-05,0,0,0.05261,-0.022376,0,-0.00020743,0,0,0,0.028956,0.00011552,0.0087216,-0.079248,0.012598,0.025645,5.488e-07,0.58,0.46,0
0.028516,0.0021371,0.028938,6.5473e-05,0.008701,-4.5488e-05,0,0,0.052616,-0.022452,0,-0.00023654,0,0,0,0.028938,6.5401e-05,0.008701,-0.090268,0.012568,0.025668,5.4877e-07,0.59,0.46,0
0.029043,0.0021331,0.028919,1.8817e-05,0.0086814,-5.0519e-05,0,0,0.052618,-0.022523,0,-0.0002627,0,0,0,0.028919,1.8728e-05,0.0086814,-0.10016,0.01254,0.025689,5.4866e-07,0.6,0.46,0
0.029569,0.0021292,0.0289,-2.4573e-05,0.0086628,-5.501e-05,0,0,0.052618,-0.022587,0,-0.00028606,0,0,0,0.028901,-2.4677e-05,0.0086628,-0.10897,0.012513,0.025707,5.4848e-07,0.61,0.46,0
0.030095,0.0021251,0.028882,-6.4873e-05,0.0086451,-5.8986e-05,0,0,0.052616,-0.022646,0,-0.00030672,0,0,0,0.028882,-6.4993e-05,0.0086451,-0.11675,0.012487,0.025723,5.4824e-07,0.62,0.46,0
0.030621,0.0021211,0.028863,-0.00010226,0.0086283,-6.2468e-05,0,0,0.052611,-0.022699,0,-0.00032483,0,0,0,0.028863,-0.00010239,0.0086283,-0.12357,0.012463,0.025736,5.4794e-07,0.63,0.46,0
0.031147,0.002117,0.028845,-0.00013688,0.0086124,-6.5481e-05,0,0,0.052604,-0.022748,0,-0.0003405,0,0,0,0.028845,-0.00013703,0.0086124,-0.12945,0.01244,0.025747,5.4759e-07,0.64,0.46,0
0.031673,0.0021128,0.028827,-0.00016892,0.0085973,-6.8045e-05,0,0,0.052596,-0.022792,0,-0.00035384,0,0,0,0.028827,-0.00016908,0.0085973,-0.13446,0.012418,0.025757,5.4719e-07,0.65,0.46,0
0.032199,0.0021087,0.028809,-0.00019851,0.008583,-7.0183e-05,0,0,0.052586,-0.022832,0,-0.00036495,0,0,0,0.028809,-0.00019868,0.008583,-0.13863,0.012398,0.025764,5.4676e-07,0.66,0.46,0
0.032725,0.0021047,0.028791,-0.00022581,0.0085695,-7.1914e-05,0,0,0.052575,-0.022868,0,-0.00037395,0,0,0,0.028791,-0.00022599,0.0085695,-0.142,0.012378,0.025771,5.4629e-07,0.67,0.46,0
0.033251,0.0021006,0.028773,-0.00025095,0.0085567,-7.3259e-05,0,0,0.052563,-0.0229,0,-0.00038094,0,0,0,0.028773,-0.00025114,0.0085567,-0.14462,0.01236,0.025775,5.458e-07,0.68,0.46,0
0.033776,0.0020966,0.028756,-0.00027407,0.0085446,-7.4235e-05,0,0,0.05255,-0.022929,0,-0.00038602,0,0,0,0.028756,-0.00027426,0.0085446,-0.14651,0.012342,0.025778,5.4528e-07,0.69,0.46,0
0.034302,0.0020926,0.028739,-0.0002953,0.0085332,-7.4862e-05,0,0,0.052536,-0.022954,0,-0.00038928,0,0,0,0.02874,-0.0002955,0.0085332,-0.14773,0.012326,0.025781,5.4475e-07,0.7,0.46,0
0.034827,0.0020887,0.028723,-0.00031477,0.0085224,-7.5156e-05,0,0,0.052521,-0.022977,0,-0.00039081,0,0,0,0.028723,-0.00031496,0.0085224,-0.14829,0.01231,0.025781,5.442e-07,0.71,0.46,0
0.035352,0.0020848,0.028707,-0.00033257,0.0085123,-7.5135e-05,0,0,0.052506,-0.022997,0,-0.0003907,0,0,0,0.028707,-0.00033277,0.0085123,-0.14824,0.012295,0.025781,5.4364e-07,0.72,0.46,0
0.035877,0.0020811,0.028691,-0.00034884,0.0085027,-7.4816e-05,0,0,0.05249,-0.023014,0,-0.00038904,0,0,0,0.028691,-0.00034903,0.0085027,-0.14761,0.012282,0.025781,5.4308e-07,0.73,0.46,0
0.036402,0.0020774,0.028676,-0.00036368,0.0084937,-7.4213e-05,0,0,0.052474,-0.023029,0,-0.00038591,0,0,0,0.028676,-0.00036387,0.0084937,-0.14642,0.012269,0.025779,5.4251e-07,0.74,0.46,0
0.036927,0.0020738,0.028661,-0.00037718,0.0084853,-7.3342e-05,0,0,0.052458,-0.023042,0,-0.00038138,0,0,0,0.028662,-0.00037736,0.0084853,-0.14471,0.012257,0.025777,5.4195e-07,0.75,0.46,0
0.037451,0.0020702,0.028647,-0.00038944,0.0084773,-7.2218e-05,0,0,0.052442,-0.023054,0,-0.00037553,0,0,0,0.028647,-0.00038962,0.0084773,-0.1425,0.012245,0.025774,5.4138e-07,0.76,0.46,0
0.037975,0.0020668,0.028633,-0.00040056,0.0084699,-7.0855e-05,0,0,0.052425,-0.023063,0,-0.00036845,0,0,0,0.028634,-0.00040073,0.0084699,-0.13982,0.012234,0.025771,5.4083e-07,0.77,0.46,0
0.038499,0.0020635,0.02862,-0.00041061,0.0084629,-6.9266e-05,0,0,0.052409,-0.023071,0,-0.00036019,0,0,0,0.028621,-0.00041078,0.0084629,-0.1367,0.012224,0.025767,5.4028e-07,0.78,0.46,0
0.039024,0.0020603,0.028608,-0.00041969,0.0084564,-6.7465e-05,0,0,0.052393,-0.023078,0,-0.00035082,0,0,0,0.028608,-0.00041985,0.0084564,-0.13317,0.012215,0.025763,5.3974e-07,0.79,0.46,0
0.039547,0.0020573,0.028596,-0.00042786,0.0084503,-6.5465e-05,0,0,0.052378,-0.023083,0,-0.00034042,0,0,0,0.028596,-0.00042801,0.0084503,-0.12923,0.012206,0.025759,5.3922e-07,0.8,0.46,0
0.040071,0.0020543,0.028584,-0.0004352,0.0084446,-6.3277e-05,0,0,0.052362,-0.023088,0,-0.00032904,0,0,0,0.028584,-0.00043534,0.0084446,-0.12493,0.012198,0.025754,5.3871e-07,0.81,0.46,0
0.040595,0.0020515,0.028573,-0.00044178,0.0084394,-6.0913e-05,0,0,0.052347,-0.023091,0,-0.00031675,0,0,0,0.028573,-0.00044191,0.0084394,-0.12029,0.01219,0.02575,5.3821e-07,0.82,0.46,0
0.041118,0.0020488,0.028563,-0.00044767,0.0084345,-5.8386e-05,0,0,0.052333,-0.023094,0,-0.00030361,0,0,0,0.028563,-0.00044778,0.0084345,-0.11531,0.012183,0.025745,5.3774e-07,0.83,0.46,0
0.041641,0.0020463,0.028553,-0.00045291,0.0084299,-5.5705e-05,0,0,0.052319,-0.023095,0,-0.00028967,0,0,0,0.028553,-0.00045302,0.0084299,-0.11004,0.012177,0.025741,5.3728e-07,0.84,0.46,0
0.042164,0.0020439,0.028543,-0.00045757,0.0084257,-5.2883e-05,0,0,0.052306,-0.023097,0,-0.00027499,0,0,0,0.028543,-0.00045766,0.0084257,-0.10448,0.012171,0.025736,5.3685e-07,0.85,0.46,0
0.042687,0.0020416,0.028535,-0.00046169,0.0084219,-4.9929e-05,0,0,0.052293,-0.023097,0,-0.00025963,0,0,0,0.028535,-0.00046177,0.0084219,-0.098657,0.012165,0.025732,5.3644e-07,0.86,0.46,0
0.04321,0.0020395,0.028526,-0.00046533,0.0084184,-4.6853e-05,0,0,0.052281,-0.023098,0,-0.00024364,0,0,0,0.028527,-0.0004654,0.0084184,-0.092595,0.01216,0.025727,5.3605e-07,0.87,0.46,0
0.043733,0.0020375,0.028519,-0.00046853,0.0084151,-4.3666e-05,0,0,0.05227,-0.023097,0,-0.00022706,0,0,0,0.028519,-0.00046859,0.0084151,-0.086309,0.012155,0.025723,5.3569e-07,0.88,0.46,0
0.044256,0.0020357,0.028512,-0.00047132,0.0084122,-4.0377e-05,0,0,0.05226,-0.023097,0,-0.00020996,0,0,0,0.028512,-0.00047138,0.0084122,-0.079819,0.012151,0.025719,5.3536e-07,0.89,0.46,0
0.044778,0.002034,0.028506,-0.00047376,0.0084096,-3.6995e-05,0,0,0.05225,-0.023097,0,-0.00019237,0,0,0,0.028506,-0.0004738,0.0084096,-0.073142,0.012147,0.025716,5.3505e-07,0.9,0.46,0
0.045301,0.0020325,0.0285,-0.00047586,0.0084072,-3.3529e-05,0,0,0.052241,-0.023096,0,-0.00017435,0,0,0,0.0285,-0.0004759,0.0084072,-0.066299,0.012144,0.025712,5.3476e-07,0.91,0.46,0
0.045823,0.0020311,0.028495,-0.00047766,0.0084051,-2.9989e-05,0,0,0.052233,-0.023095,0,-0.00015594,0,0,0,0.028495,-0.00047769,0.0084051,-0.059305,0.012141,0.025709,5.3451e-07,0.92,0.46,0
0.046345,0.0020299,0.02849,-0.00047919,0.0084033,-2.6382e-05,0,0,0.052226,-0.023095,0,-0.00013719,0,0,0,0.02849,-0.00047921,0.0084033,-0.052179,0.012138,0.025706,5.3428e-07,0.93,0.46,0
0.046867,0.0020289,0.028486,-0.00048047,0.0084017,-2.2719e-05,0,0,0.05222,-0.023094,0,-0.00011814,0,0,0,0.028486,-0.00048049,0.0084017,-0.044938,0.012136,0.025704,5.3409e-07,0.94,0.46,0
0.04739,0.002028,0.028483,-0.00048151,0.0084004,-1.9006e-05,0,0,0.052215,-0.023093,0,-9.8834e-05,0,0,0,0.028483,-0.00048153,0.0084004,-0.037597,0.012134,0.025702,5.3392e-07,0.95,0.46,0
0.047912,0.0020272,0.02848,-0.00048235,0.0083994,-1.5254e-05,0,0,0.05221,-0.023092,0,-7.9319e-05,0,0,0,0.02848,-0.00048236,0.0083994,-0.030176,0.012132,0.0257,5.3378e-07,0.96,0.46,0
0.048434,0.0020267,0.028478,-0.00048298,0.0083985,-1.1468e-05,0,0,0.052207,-0.023092,0,-5.9636e-05,0,0,0,0.028478,-0.00048299,0.0083985,-0.022689,0.012131,0.025698,5.3367e-07,0.97,0.46,0
0.048956,0.0020263,0.028477,-0.00048343,0.0083979,-7.659e-06,0,0,0.052205,-0.023092,0,-3.9827e-05,0,0,0,0.028477,-0.00048343,0.0083979,-0.015153,0.01213,0.025697,5.336e-07,0.98,0.46,0
0.049478,0.002026,0.028476,-0.00048369,0.0083976,-3.8335e-06,0,0,0.052203,-0.023091,0,-1.9934e-05,0,0,0,0.028476,-0.00048369,0.0083976,-0.0075845,0.01213,0.025697,5.3355e-07,0.99,0.46,0
0.05,0.0020259,0.028475,-0.00048378,0.0083975,-1.5642e-06,0,0,0.052202,-0.023091,0,-8.1338e-06,0,0,0,0.028475,-0.00048378,0.0083975,-0.0030948,0.01213,0.025697,5.3354e-07,1,0.46,0
0,0,0.02775,0.011893,0.011893,0.0038004,0,0,0.041229,-1.0842e-19,0,0.019762,0,0,0,0.028614,0.011029,0.011893,12.805,0.017179,0.017169,2.5772e-07,0,0.47,0
0.00041229,0.00019762,0.027895,0.012589,0.012145,0.0036777,0,0,0.040949,0.0011535,0,0.019124,0,0,0,0.028733,0.011751,0.012145,12.833,0.017543,0.016788,2.4256e-07,0.01,0.47,0
0.00081899,0.00037521,0.02777,0.012729,0.01215,0.0033176,0,0,0.040613,0.0015063,0,0.017251,0,0,0,0.028469,0.01203,0.01215,11.902,0.017549,0.01638,2.2567e-07,0.02,0.47,0
0.0012245,0.00053211,0.027727,0.012603,0.012099,0.0029792,0,0,0.040632,0.00131,0,0.015492,0,0,0,0.028292,0.012037,0.012099,10.752,0.017476,0.016224,2.1934e-07,0.03,0.47,0
0.0016316,0.00067115,0.027739,0.012361,0.01203,0.0027013,0,0,0.040843,0.0008609,0,0.014047,0,0,0,0.0282,0.0119,0.01203,9.6788,0.017377,0.016235,2.1972e-07,0.04,0.47,0
0.0020414,0.00079544,0.027773,0.012065,0.011951,0.0024723,0,0,0.041135,0.00029658,0,0.012856,0,0,0,0.028153,0.011686,0.011951,8.7369,0.017263,0.016336,2.2369e-07,0.05,0.47,0
0.0024543,0.00090737,0.027814,0.011737,0.011865,0.0022779,0,0,0.041467,-0.00033389,0,0.011845,0,0,0,0.02813,0.01142,0.011865,7.9105,0.017139,0.016492,2.2982e-07,0.06,0.47,0
0.0028707,0.0010087,0.027862,0.011389,0.011775,0.0021085,0,0,0.041825,-0.0010049,0,0.010964,0,0,0,0.028127,0.011123,0.011775,7.1796,0.017008,0.016688,2.3746e-07,0.07,0.47,0
0.0032908,0.0011007,0.027915,0.011028,0.011683,0.0019586,0,0,0.042203,-0.0017021,0,0.010185,0,0,0,0.028139,0.010804,0.011683,6.5299,0.016876,0.016913,2.462e-07,0.08,0.47,0
0.0037148,0.0011846,0.027973,0.010661,0.01159,0.0018241,0,0,0.042595,-0.002416,0,0.0094853,0,0,0,0.028163,0.010471,0.01159,5.95,0.016741,0.01716,2.558e-07,0.09,0.47,0
0.0041427,0.0012611,0.028034,0.010289,0.011497,0.0017024,0,0,0.042996,-0.0031399,0,0.0088523,0,0,0,0.028196,0.010127,0.011497,5.4307,0.016607,0.017424,2.6604e-07,0.1,0.47,0
0.0045747,0.0013311,0.028098,0.0099163,0.011404,0.0015914,0,0,0.043403,-0.0038688,0,0.0082751,0,0,0,0.028236,0.009778,0.011404,4.9646,0.016473,0.017701,2.7676e-07,0.11,0.47,0
0.0050108,0.0013951,0.028163,0.0095433,0.011312,0.0014895,0,0,0.043813,-0.0045984,0,0.0077456,0,0,0,0.028282,0.0094249,0.011312,4.545,0.016339,0.017988,2.8785e-07,0.12,0.47,0
0.005451,0.0014537,0.028229,0.0091721,0.01122,0.0013956,0,0,0.044223,-0.0053257,0,0.0072573,0,0,0,0.028331,0.0090704,0.01122,4.1664,0.016207,0.018281,2.9918e-07,0.13,0.47,0
0.0058953,0.0015073,0.028295,0.0088037,0.01113,0.0013087,0,0,0.044631,-0.0060477,0,0.0068051,0,0,0,0.028383,0.0087162,0.01113,3.8239,0.016076,0.018578,3.1066e-07,0.14,0.47,0
0.0063436,0.0015564,0.028361,0.0084392,0.01104,0.0012278,0,0,0.045034,-0.0067623,0,0.0063845,0,0,0,0.028436,0.0083638,0.01104,3.5135,0.015947,0.018877,3.2221e-07,0.15,0.47,0
0.006796,0.0016013,0.028425,0.0080794,0.010951,0.0011523,0,0,0.045432,-0.0074672,0,0.0059921,0,0,0,0.02849,0.0080144,0.010951,3.2313,0.015819,0.019177,3.3375e-07,0.16,0.47,0
0.0072523,0.0016423,0.028488,0.0077253,0.010864,0.0010817,0,0,0.045823,-0.0081609,0,0.005625,0,0,0,0.028545,0.0076691,0.010864,2.9743,0.015693,0.019475,3.4522e-07,0.17,0.47,0
0.0077124,0.0016797,0.028549,0.0073773,0.010778,0.0010155,0,0,0.046205,-0.0088418,0,0.0052805,0,0,0,0.028598,0.0073287,0.010778,2.7397,0.015568,0.019772,3.5658e-07,0.18,0.47,0
0.0081764,0.0017139,0.028608,0.0070361,0.010693,0.00095318,0,0,0.046579,-0.0095086,0,0.0049565,0,0,0,0.02865,0.0069941,0.010693,2.5251,0.015446,0.020064,3.6775e-07,0.19,0.47,0
0.008644,0.0017449,0.028664,0.0067023,0.01061,0.00089448,0,0,0.046942,-0.01016,0,0.0046513,0,0,0,0.028701,0.0066659,0.01061,2.3284,0.015326,0.020352,3.787e-07,0.2,0.47,0
0.0091152,0.0017732,0.028718,0.0063761,0.010528,0.00083908,0,0,0.047294,-0.010796,0,0.0043632,0,0,0,0.02875,0.0063447,0.010528,2.1478,0.015208,0.020634,3.894e-07,0.21,0.47,0
0.0095899,0.0017988,0.028769,0.0060581,0.010448,0.00078671,0,0,0.047634,-0.011414,0,0.0040909,0,0,0,0.028796,0.0060309,0.010448,1.9816,0.015092,0.02091,3.998e-07,0.22,0.47,0
0.010068,0.0018219,0.028817,0.0057485,0.01037,0.00073714,0,0,0.047963,-0.012015,0,0.0038331,0,0,0,0.02884,0.005725,0.01037,1.8284,0.014978,0.021178,4.0988e-07,0.23,0.47,0
0.010549,0.0018428,0.028861,0.0054477,0.010293,0.00069018,0,0,0.048279,-0.012597,0,0.003589,0,0,0,0.028882,0.0054274,0.010293,1.687,0.014867,0.02144,4.1962e-07,0.24,0.47,0
0.011033,0.0018615,0.028903,0.0051557,0.010218,0.00064565,0,0,0.048582,-0.013161,0,0.0033574,0,0,0,0.028921,0.0051382,0.010218,1.5562,0.014759,0.021693,4.2899e-07,0.25,0.47,0
0.011521,0.0018783,0.028941,0.0048728,0.010144,0.00060339,0,0,0.048873,-0.013706,0,0.0031377,0,0,0,0.028957,0.0048577,0.010144,1.4352,0.014653,0.021939,4.3798e-07,0.26,0.47,0
0.012011,0.0018933,0.028977,0.0045991,0.010073,0.00056328,0,0,0.04915,-0.014231,0,0.002929,0,0,0,0.02899,0.0045861,0.010073,1.323,0.014549,0.022175,4.4658e-07,0.27,0.47,0
0.012504,0.0019066,0.029009,0.0043347,0.010003,0.00052517,0,0,0.049415,-0.014738,0,0.0027309,0,0,0,0.02902,0.0043235,0.010003,1.2188,0.014449,0.022403,4.5478e-07,0.28,0.47,0
0.012999,0.0019183,0.029038,0.0040796,0.0099352,0.00048897,0,0,0.049666,-0.015224,0,0.0025427,0,0,0,0.029047,0.0040701,0.0099352,1.122,0.014351,0.022622,4.6258e-07,0.29,0.47,0
0.013497,0.0019286,0.029063,0.0038339,0.0098691,0.00045458,0,0,0.049905,-0.015692,0,0.0023638,0,0,0,0.029072,0.0038257,0.0098691,1.0319,0.014255,0.022832,4.6996e-07,0.3,0.47,0
0.013997,0.0019375,0.029086,0.0035974,0.009805,0.0004219,0,0,0.050131,-0.01614,0,0.0021939,0,0,0,0.029093,0.0035904,0.009805,0.94803,0.014163,0.023033,4.7694e-07,0.31,0.47,0
0.0145,0.0019452,0.029106,0.0033701,0.0097428,0.00039085,0,0,0.050344,-0.016569,0,0.0020324,0,0,0,0.029112,0.0033642,0.0097428,0.86988,0.014073,0.023225,4.8351e-07,0.32,0.47,0
0.015004,0.0019517,0.029123,0.003152,0.0096824,0.00036135,0,0,0.050545,-0.016979,0,0.001879,0,0,0,0.029128,0.003147,0.0096824,0.79699,0.013986,0.023408,4.8969e-07,0.33,0.47,0
0.015511,0.0019571,0.029137,0.002943,0.0096239,0.00033334,0,0,0.050733,-0.017371,0,0.0017334,0,0,0,0.029141,0.0029387,0.0096239,0.72898,0.013901,0.023581,4.9547e-07,0.34,0.47,0
0.016019,0.0019615,0.029148,0.0027428,0.0095673,0.00030674,0,0,0.05091,-0.017744,0,0.0015951,0,0,0,0.029152,0.0027392,0.0095673,0.66546,0.013819,0.023747,5.0086e-07,0.35,0.47,0
0.016529,0.001965,0.029157,0.0025514,0.0095125,0.0002815,0,0,0.051076,-0.018099,0,0.0014638,0,0,0,0.02916,0.0025484,0.0095125,0.60613,0.01374,0.023903,5.0589e-07,0.36,0.47,0
0.01704,0.0019677,0.029163,0.0023686,0.0094596,0.00025757,0,0,0.05123,-0.018437,0,0.0013393,0,0,0,0.029166,0.0023661,0.0094596,0.55069,0.013664,0.024051,5.1054e-07,0.37,0.47,0
0.017553,0.0019696,0.029167,0.0021941,0.0094085,0.00023487,0,0,0.051373,-0.018757,0,0.0012213,0,0,0,0.02917,0.0021921,0.0094085,0.49886,0.01359,0.024191,5.1485e-07,0.38,0.47,0
0.018068,0.0019707,0.029169,0.0020279,0.0093592,0.00021337,0,0,0.051507,-0.019061,0,0.0011095,0,0,0,0.029171,0.0020262,0.0093592,0.4504,0.013519,0.024322,5.1881e-07,0.39,0.47,0
0.018583,0.0019713,0.029169,0.0018697,0.0093117,0.00019302,0,0,0.05163,-0.019349,0,0.0010037,0,0,0,0.029171,0.0018683,0.0093117,0.40509,0.01345,0.024446,5.2245e-07,0.4,0.47,0
0.0191,0.0019712,0.029167,0.0017192,0.0092659,0.00017377,0,0,0.051743,-0.019621,0,0.00090361,0,0,0,0.029168,0.0017181,0.0092659,0.36272,0.013384,0.024562,5.2578e-07,0.41,0.47,0
0.019618,0.0019706,0.029163,0.0015763,0.0092218,0.00015557,0,0,0.051847,-0.019879,0,0.00080899,0,0,0,0.029164,0.0015754,0.0092218,0.3231,0.01332,0.024671,5.2881e-07,0.42,0.47,0
0.020137,0.0019694,0.029157,0.0014406,0.0091795,0.00013839,0,0,0.051943,-0.020121,0,0.00071964,0,0,0,0.029158,0.0014399,0.0091795,0.28607,0.013259,0.024772,5.3156e-07,0.43,0.47,0
0.020657,0.0019678,0.02915,0.0013121,0.0091387,0.00012218,0,0,0.05203,-0.020349,0,0.00063535,0,0,0,0.029151,0.0013116,0.0091387,0.25147,0.0132,0.024867,5.3404e-07,0.44,0.47,0
0.021178,0.0019658,0.029142,0.0011904,0.0090996,0.00010691,0,0,0.052109,-0.020564,0,0.00055593,0,0,0,0.029142,0.0011899,0.0090996,0.21914,0.013144,0.024956,5.3627e-07,0.45,0.47,0
0.021699,0.0019634,0.029132,0.0010752,0.0090621,9.2535e-05,0,0,0.052181,-0.020766,0,0.00048118,0,0,0,0.029132,0.0010749,0.0090621,0.18897,0.01309,0.025038,5.3825e-07,0.46,0.47,0
0.022222,0.0019607,0.029121,0.00096645,0.0090261,7.9023e-05,0,0,0.052246,-0.020955,0,0.00041092,0,0,0,0.029121,0.00096623,0.0090261,0.16082,0.013038,0.025114,5.4001e-07,0.47,0.47,0
0.022744,0.0019577,0.029108,0.00086378,0.0089916,6.634e-05,0,0,0.052303,-0.021132,0,0.00034497,0,0,0,0.029108,0.00086362,0.0089916,0.13457,0.012988,0.025184,5.4156e-07,0.48,0.47,0
0.023268,0.0019544,0.029095,0.00076697,0.0089586,5.4453e-05,0,0,0.052354,-0.021298,0,0.00028316,0,0,0,0.029095,0.00076687,0.0089586,0.11014,0.01294,0.025249,5.4291e-07,0.49,0.47,0
0.023791,0.0019509,0.029081,0.00067579,0.0089269,4.3331e-05,0,0,0.0524,-0.021453,0,0.00022532,0,0,0,0.029081,0.00067572,0.0089269,0.087403,0.012894,0.025309,5.4407e-07,0.5,0.47,0
0.024316,0.0019472,0.029066,0.00058999,0.0088967,3.2943e-05,0,0,0.05244,-0.021597,0,0.0001713,0,0,0,0.029066,0.00058995,0.0088967,0.066284,0.012851,0.025364,5.4506e-07,0.51,0.47,0
0.02484,0.0019433,0.02905,0.00050936,0.0088678,2.326e-05,0,0,0.052474,-0.021732,0,0.00012095,0,0,0,0.02905,0.00050934,0.0088678,0.046695,0.012809,0.025414,5.4589e-07,0.52,0.47,0
0.025365,0.0019392,0.029034,0.00043365,0.0088402,1.4254e-05,0,0,0.052503,-0.021857,0,7.412e-05,0,0,0,0.029034,0.00043364,0.0088402,0.028555,0.012769,0.02546,5.4657e-07,0.53,0.47,0
0.02589,0.001935,0.029017,0.00036265,0.0088139,5.8968e-06,0,0,0.052528,-0.021973,0,3.0664e-05,0,0,0,0.029017,0.00036265,0.0088139,0.011791,0.012731,0.025502,5.4711e-07,0.54,0.47,0
0.026416,0.0019307,0.029,0.00029613,0.0087888,-1.837e-06,0,0,0.052549,-0.022081,0,-9.5525e-06,0,0,0,0.029,0.00029613,0.0087888,-0.0036669,0.012695,0.025539,5.4752e-07,0.55,0.47,0
0.026941,0.0019263,0.028982,0.00023389,0.0087648,-8.9731e-06,0,0,0.052565,-0.02218,0,-4.666e-05,0,0,0,0.028982,0.00023389,0.0087648,-0.017883,0.01266,0.025573,5.4782e-07,0.56,0.47,0
0.027467,0.0019218,0.028964,0.00017571,0.008742,-1.5536e-05,0,0,0.052578,-0.022272,0,-8.0786e-05,0,0,0,0.028964,0.0001757,0.008742,-0.03092,0.012627,0.025604,5.4801e-07,0.57,0.47,0
0.027993,0.0019172,0.028946,0.00012139,0.0087203,-2.1549e-05,0,0,0.052588,-0.022357,0,-0.00011205,0,0,0,0.028946,0.00012138,0.0087203,-0.042833,0.012596,0.025631,5.4811e-07,0.58,0.47,0
0.028519,0.0019126,0.028928,7.074e-05,0.0086997,-2.7035e-05,0,0,0.052594,-0.022435,0,-0.00014058,0,0,0,0.028928,7.0714e-05,0.0086997,-0.053677,0.012566,0.025656,5.4811e-07,0.59,0.47,0
0.029045,0.001908,0.02891,2.356e-05,0.00868,-3.2016e-05,0,0,0.052598,-0.022507,0,-0.00016648,0,0,0,0.02891,2.3524e-05,0.00868,-0.063504,0.012538,0.025677,5.4804e-07,0.6,0.47,0
0.029571,0.0019034,0.028892,-2.0331e-05,0.0086614,-3.6514e-05,0,0,0.052599,-0.022572,0,-0.00018987,0,0,0,0.028892,-2.0377e-05,0.0086614,-0.07236,0.012511,0.025696,5.4789e-07,0.61,0.47,0
0.030097,0.0018987,0.028873,-6.111e-05,0.0086437,-4.0548e-05,0,0,0.052597,-0.022632,0,-0.00021085,0,0,0,0.028873,-6.1166e-05,0.0086437,-0.080293,0.012485,0.025712,5.4768e-07,0.62,0.47,0
0.030623,0.0018941,0.028855,-9.8949e-05,0.0086269,-4.414e-05,0,0,0.052594,-0.022687,0,-0.00022953,0,0,0,0.028855,-9.9017e-05,0.0086269,-0.087345,0.012461,0.025726,5.4741e-07,0.63,0.47,0
0.031149,0.0018895,0.028837,-0.00013402,0.0086109,-4.7307e-05,0,0,0.052588,-0.022737,0,-0.000246,0,0,0,0.028837,-0.00013409,0.0086109,-0.093558,0.012438,0.025738,5.4709e-07,0.64,0.47,0
0.031674,0.001885,0.028819,-0.00016647,0.0085958,-5.0069e-05,0,0,0.052581,-0.022782,0,-0.00026036,0,0,0,0.028819,-0.00016655,0.0085958,-0.09897,0.012416,0.025748,5.4672e-07,0.65,0.47,0
0.0322,0.0018805,0.028802,-0.00019646,0.0085815,-5.2443e-05,0,0,0.052572,-0.022823,0,-0.0002727,0,0,0,0.028802,-0.00019655,0.0085815,-0.10362,0.012396,0.025757,5.4632e-07,0.66,0.47,0
0.032726,0.001876,0.028784,-0.00022414,0.008568,-5.4447e-05,0,0,0.052562,-0.02286,0,-0.00028312,0,0,0,0.028784,-0.00022424,0.008568,-0.10754,0.012376,0.025763,5.4588e-07,0.67,0.47,0
0.033251,0.0018716,0.028767,-0.00024964,0.0085552,-5.6097e-05,0,0,0.052551,-0.022893,0,-0.0002917,0,0,0,0.028767,-0.00024975,0.0085552,-0.11077,0.012358,0.025768,5.4541e-07,0.68,0.47,0
0.033777,0.0018673,0.02875,-0.00027311,0.0085431,-5.741e-05,0,0,0.052538,-0.022922,0,-0.00029853,0,0,0,0.02875,-0.00027322,0.0085431,-0.11333,0.01234,0.025772,5.4493e-07,0.69,0.47,0
0.034302,0.0018631,0.028734,-0.00029466,0.0085317,-5.8402e-05,0,0,0.052525,-0.022949,0,-0.00030369,0,0,0,0.028734,-0.00029478,0.0085317,-0.11527,0.012324,0.025775,5.4442e-07,0.7,0.47,0
0.034827,0.0018589,0.028718,-0.00031444,0.008521,-5.9087e-05,0,0,0.052511,-0.022972,0,-0.00030725,0,0,0,0.028718,-0.00031456,0.008521,-0.11661,0.012308,0.025777,5.4389e-07,0.71,0.47,0
0.035352,0.0018549,0.028702,-0.00033254,0.0085108,-5.948e-05,0,0,0.052497,-0.022993,0,-0.0003093,0,0,0,0.028702,-0.00033266,0.0085108,-0.11737,0.012293,0.025777,5.4336e-07,0.72,0.47,0
0.035877,0.0018509,0.028687,-0.00034909,0.0085013,-5.9596e-05,0,0,0.052482,-0.023011,0,-0.0003099,0,0,0,0.028687,-0.00034921,0.0085013,-0.1176,0.01228,0.025777,5.4282e-07,0.73,0.47,0
0.036402,0.0018471,0.028672,-0.00036419,0.0084923,-5.9448e-05,0,0,0.052467,-0.023027,0,-0.00030913,0,0,0,0.028672,-0.00036431,0.0084923,-0.11731,0.012267,0.025776,5.4228e-07,0.74,0.47,0
0.036927,0.0018433,0.028657,-0.00037794,0.0084838,-5.905e-05,0,0,0.052451,-0.023041,0,-0.00030706,0,0,0,0.028658,-0.00037806,0.0084838,-0.11652,0.012254,0.025774,5.4173e-07,0.75,0.47,0
0.037451,0.0018397,0.028643,-0.00039044,0.0084759,-5.8414e-05,0,0,0.052436,-0.023053,0,-0.00030375,0,0,0,0.028644,-0.00039056,0.0084759,-0.11527,0.012243,0.025771,5.4119e-07,0.76,0.47,0
0.037975,0.0018362,0.02863,-0.00040179,0.0084685,-5.7554e-05,0,0,0.05242,-0.023063,0,-0.00029928,0,0,0,0.02863,-0.0004019,0.0084685,-0.11358,0.012232,0.025769,5.4065e-07,0.77,0.47,0
0.038499,0.0018328,0.028617,-0.00041205,0.0084615,-5.6481e-05,0,0,0.052405,-0.023071,0,-0.0002937,0,0,0,0.028617,-0.00041216,0.0084615,-0.11148,0.012222,0.025765,5.4012e-07,0.78,0.47,0
0.039023,0.0018296,0.028605,-0.00042133,0.008455,-5.5207e-05,0,0,0.052389,-0.023079,0,-0.00028708,0,0,0,0.028605,-0.00042144,0.008455,-0.10897,0.012213,0.025762,5.3961e-07,0.79,0.47,0
0.039547,0.0018264,0.028593,-0.00042969,0.008449,-5.3743e-05,0,0,0.052374,-0.023085,0,-0.00027947,0,0,0,0.028593,-0.00042979,0.008449,-0.1061,0.012204,0.025758,5.391e-07,0.8,0.47,0
0.040071,0.0018234,0.028582,-0.00043721,0.0084433,-5.2102e-05,0,0,0.05236,-0.023089,0,-0.00027093,0,0,0,0.028582,-0.00043731,0.0084433,-0.10287,0.012196,0.025754,5.3861e-07,0.81,0.47,0
0.040594,0.0018206,0.028571,-0.00044396,0.0084381,-5.0293e-05,0,0,0.052345,-0.023093,0,-0.00026152,0,0,0,0.028571,-0.00044405,0.0084381,-0.099313,0.012188,0.02575,5.3813e-07,0.82,0.47,0
0.041118,0.0018179,0.028561,-0.00045,0.0084332,-4.8327e-05,0,0,0.052331,-0.023096,0,-0.0002513,0,0,0,0.028561,-0.00045008,0.0084332,-0.095445,0.012181,0.025745,5.3767e-07,0.83,0.47,0
0.041641,0.0018153,0.028551,-0.00045538,0.0084286,-4.6214e-05,0,0,0.052318,-0.023099,0,-0.00024031,0,0,0,0.028551,-0.00045546,0.0084286,-0.091286,0.012175,0.025741,5.3723e-07,0.84,0.47,0
0.042164,0.0018129,0.028542,-0.00046017,0.0084245,-4.3965e-05,0,0,0.052305,-0.0231,0,-0.00022862,0,0,0,0.028542,-0.00046024,0.0084245,-0.086856,0.012169,0.025737,5.3681e-07,0.85,0.47,0
0.042687,0.0018106,0.028533,-0.00046442,0.0084206,-4.1589e-05,0,0,0.052293,-0.023101,0,-0.00021626,0,0,0,0.028533,-0.00046448,0.0084206,-0.082174,0.012163,0.025733,5.3641e-07,0.86,0.47,0
0.04321,0.0018085,0.028525,-0.00046817,0.0084171,-3.9095e-05,0,0,0.052281,-0.023102,0,-0.0002033,0,0,0,0.028525,-0.00046823,0.0084171,-0.077259,0.012158,0.025729,5.3603e-07,0.87,0.47,0
0.043733,0.0018065,0.028518,-0.00047148,0.0084139,-3.6494e-05,0,0,0.05227,-0.023102,0,-0.00018977,0,0,0,0.028518,-0.00047152,0.0084139,-0.072128,0.012153,0.025725,5.3568e-07,0.88,0.47,0
0.044255,0.0018047,0.028511,-0.00047437,0.008411,-3.3794e-05,0,0,0.05226,-0.023102,0,-0.00017573,0,0,0,0.028511,-0.00047441,0.008411,-0.0668,0.012149,0.025721,5.3535e-07,0.89,0.47,0
0.044778,0.001803,0.028505,-0.00047689,0.0084084,-3.1003e-05,0,0,0.052251,-0.023102,0,-0.00016122,0,0,0,0.028505,-0.00047692,0.0084084,-0.061291,0.012145,0.025717,5.3505e-07,0.9,0.47,0
0.045301,0.0018015,0.028499,-0.00047907,0.008406,-2.8131e-05,0,0,0.052242,-0.023101,0,-0.00014628,0,0,0,0.028499,-0.0004791,0.008406,-0.055621,0.012142,0.025714,5.3478e-07,0.91,0.47,0
0.045823,0.0018001,0.028494,-0.00048094,0.008404,-2.5186e-05,0,0,0.052234,-0.023101,0,-0.00013097,0,0,0,0.028494,-0.00048096,0.008404,-0.049804,0.012139,0.025711,5.3453e-07,0.92,0.47,0
0.046345,0.0017989,0.02849,-0.00048253,0.0084021,-2.2177e-05,0,0,0.052228,-0.0231,0,-0.00011532,0,0,0,0.02849,-0.00048255,0.0084021,-0.043858,0.012136,0.025708,5.3431e-07,0.93,0.47,0
0.046867,0.0017979,0.028486,-0.00048386,0.0084006,-1.9112e-05,0,0,0.052221,-0.023099,0,-9.9384e-05,0,0,0,0.028486,-0.00048387,0.0084006,-0.0378,0.012134,0.025706,5.3412e-07,0.94,0.47,0
0.04739,0.001797,0.028483,-0.00048495,0.0083993,-1.6e-05,0,0,0.052216,-0.023099,0,-8.3198e-05,0,0,0,0.028483,-0.00048496,0.0083993,-0.031646,0.012132,0.025704,5.3396e-07,0.95,0.47,0
0.047912,0.0017963,0.02848,-0.00048582,0.0083982,-1.2847e-05,0,0,0.052212,-0.023099,0,-6.6805e-05,0,0,0,0.02848,-0.00048583,0.0083982,-0.025412,0.012131,0.025702,5.3382e-07,0.96,0.47,0
0.048434,0.0017957,0.028478,-0.00048649,0.0083974,-9.6629e-06,0,0,0.052209,-0.023098,0,-5.0247e-05,0,0,0,0.028478,-0.00048649,0.0083974,-0.019115,0.012129,0.025701,5.3372e-07,0.97,0.47,0
0.048956,0.0017953,0.028476,-0.00048695,0.0083968,-6.4551e-06,0,0,0.052207,-0.023098,0,-3.3566e-05,0,0,0,0.028476,-0.00048695,0.0083968,-0.01277,0.012129,0.0257,5.3365e-07,0.98,0.47,0
0.049478,0.0017951,0.028475,-0.00048723,0.0083964,-3.2315e-06,0,0,0.052205,-0.023097,0,-1.6804e-05,0,0,0,0.028475,-0.00048723,0.0083964,-0.0063927,0.012128,0.025699,5.336e-07,0.99,0.47,0
0.05,0.001795,0.028475,-0.00048732,0.0083963,-1.5503e-06,0,0,0.052205,-0.023097,0,-8.0617e-06,0,0,0,0.028475,-0.00048732,0.0083963,-0.003067,0.012128,0.025699,5.3358e-07,1,0.47,0
0,0,0.028032,0.012014,0.012014,0.0040687,0,0,0.041648,0,0,0.021157,0,0,0,0.029007,0.01104,0.012014,13.465,0.017353,0.0175,2.7239e-07,0,0.48,0
0.00041648,0.00021157,0.028285,0.013106,0.012417,0.0038824,0,0,0.041256,0.0017907,0,0.020188,0,0,0,0.02922,0.012171,0.012417,13.546,0.017936,0.016928,2.4895e-07,0.01,0.48,0
0.00082512,0.0003928,0.028059,0.013139,0.01236,0.0033877,0,0,0.040819,0.0020273,0,0.017616,0,0,0,0.028793,0.012406,0.01236,12.212,0.017853,0.01641,2.2694e-07,0.02,0.48,0
0.0012329,0.00054709,0.027983,0.012911,0.012268,0.0029963,0,0,0.040858,0.0016715,0,0.015581,0,0,0,0.028557,0.012337,0.012268,10.841,0.017721,0.016254,2.2054e-07,0.03,0.48,0
0.0016423,0.0006812,0.027964,0.01262,0.012175,0.0026964,0,0,0.041051,0.0011565,0,0.014021,0,0,0,0.028424,0.01216,0.012175,9.682,0.017587,0.016257,2.2066e-07,0.04,0.48,0
0.0020539,0.00079962,0.027956,0.012283,0.012072,0.0024532,0,0,0.041299,0.00054945,0,0.012757,0,0,0,0.028331,0.011908,0.012072,8.6913,0.017437,0.016342,2.2407e-07,0.05,0.48,0
0.0024683,0.00090508,0.027965,0.011924,0.011967,0.0022468,0,0,0.041595,-0.00011042,0,0.011683,0,0,0,0.028274,0.011616,0.011967,7.8248,0.017285,0.016485,2.2975e-07,0.06,0.48,0
0.0028858,0.00099958,0.027987,0.011553,0.011862,0.0020679,0,0,0.041926,-0.00080433,0,0.010753,0,0,0,0.028244,0.011296,0.011862,7.0627,0.017134,0.016672,2.3707e-07,0.07,0.48,0
0.0033068,0.0010846,0.028022,0.011174,0.011759,0.0019105,0,0,0.042284,-0.0015202,0,0.0099347,0,0,0,0.028236,0.01096,0.011759,6.3892,0.016985,0.01689,2.4561e-07,0.08,0.48,0
0.0037315,0.0011612,0.028064,0.010792,0.011657,0.0017704,0,0,0.04266,-0.0022497,0,0.0092062,0,0,0,0.028244,0.010612,0.011657,5.7924,0.016837,0.017133,2.5509e-07,0.09,0.48,0
0.00416,0.0012305,0.028113,0.010408,0.011556,0.0016446,0,0,0.043048,-0.0029868,0,0.0085521,0,0,0,0.028265,0.010256,0.011556,5.262,0.016692,0.017395,2.6525e-07,0.1,0.48,0
0.0045924,0.0012931,0.028167,0.010024,0.011457,0.0015309,0,0,0.043445,-0.0037269,0,0.0079605,0,0,0,0.028295,0.0098955,0.011457,4.7894,0.016549,0.017671,2.7593e-07,0.11,0.48,0
0.0050289,0.0013498,0.028223,0.0096418,0.01136,0.0014273,0,0,0.043846,-0.0044662,0,0.0074222,0,0,0,0.028332,0.0095328,0.01136,4.367,0.016408,0.017956,2.8699e-07,0.12,0.48,0
0.0054694,0.0014011,0.028282,0.0092627,0.011263,0.0013327,0,0,0.044248,-0.0052018,0,0.0069298,0,0,0,0.028375,0.0091697,0.011263,3.9887,0.016269,0.018249,2.983e-07,0.13,0.48,0
0.0059139,0.0014474,0.028341,0.0088874,0.011169,0.0012456,0,0,0.044649,-0.0059311,0,0.0064773,0,0,0,0.028421,0.008808,0.011169,3.6488,0.016132,0.018545,3.0977e-07,0.14,0.48,0
0.0063623,0.0014893,0.028401,0.0085169,0.011075,0.0011653,0,0,0.045046,-0.0066518,0,0.0060598,0,0,0,0.028469,0.0084488,0.011075,3.3427,0.015998,0.018845,3.213e-07,0.15,0.48,0
0.0068148,0.0015271,0.02846,0.0081518,0.010983,0.001091,0,0,0.045438,-0.0073623,0,0.0056732,0,0,0,0.028518,0.0080933,0.010983,3.0663,0.015865,0.019144,3.3283e-07,0.16,0.48,0
0.0072711,0.0015612,0.028518,0.0077928,0.010893,0.0010219,0,0,0.045824,-0.0080608,0,0.005314,0,0,0,0.028568,0.0077425,0.010893,2.8161,0.015734,0.019442,3.4429e-07,0.17,0.48,0
0.0077313,0.0015918,0.028574,0.0074405,0.010804,0.00095758,0,0,0.046201,-0.008746,0,0.0049794,0,0,0,0.028617,0.0073972,0.010804,2.5891,0.015606,0.019738,3.5562e-07,0.18,0.48,0
0.0081951,0.0016192,0.028629,0.0070954,0.010717,0.00089749,0,0,0.04657,-0.0094166,0,0.0046669,0,0,0,0.028666,0.0070581,0.010717,2.3825,0.01548,0.02003,3.6677e-07,0.19,0.48,0
0.0086626,0.0016438,0.028681,0.006758,0.010632,0.00084124,0,0,0.046928,-0.010072,0,0.0043745,0,0,0,0.028713,0.0067258,0.010632,2.1943,0.015357,0.020318,3.7769e-07,0.2,0.48,0
0.0091337,0.0016656,0.028731,0.0064287,0.010548,0.00078849,0,0,0.047276,-0.01071,0,0.0041002,0,0,0,0.028759,0.0064008,0.010548,2.0223,0.015236,0.0206,3.8836e-07,0.21,0.48,0
0.0096082,0.001685,0.028779,0.0061077,0.010466,0.00073893,0,0,0.047613,-0.011331,0,0.0038424,0,0,0,0.028803,0.0060836,0.010466,1.8648,0.015117,0.020876,3.9873e-07,0.22,0.48,0
0.010086,0.0017022,0.028823,0.0057953,0.010386,0.00069229,0,0,0.047938,-0.011935,0,0.0035999,0,0,0,0.028844,0.0057745,0.010386,1.7204,0.015001,0.021145,4.0878e-07,0.23,0.48,0
0.010567,0.0017172,0.028865,0.0054919,0.010307,0.00064835,0,0,0.048251,-0.01252,0,0.0033714,0,0,0,0.028883,0.0054739,0.010307,1.5877,0.014888,0.021406,4.1848e-07,0.24,0.48,0
0.011051,0.0017303,0.028904,0.0051976,0.010231,0.00060688,0,0,0.048552,-0.013086,0,0.0031558,0,0,0,0.02892,0.0051821,0.010231,1.4655,0.014778,0.021659,4.2782e-07,0.25,0.48,0
0.011538,0.0017417,0.02894,0.0049125,0.010156,0.00056773,0,0,0.04884,-0.013633,0,0.0029522,0,0,0,0.028954,0.0048991,0.010156,1.3528,0.01467,0.021905,4.3678e-07,0.26,0.48,0
0.012028,0.0017514,0.028973,0.0046367,0.010083,0.00053071,0,0,0.049115,-0.01416,0,0.0027597,0,0,0,0.028985,0.0046252,0.010083,1.2487,0.014564,0.022141,4.4535e-07,0.27,0.48,0
0.01252,0.0017596,0.029003,0.0043704,0.010012,0.00049569,0,0,0.049377,-0.014669,0,0.0025776,0,0,0,0.029013,0.0043604,0.010012,1.1523,0.014462,0.022369,4.5352e-07,0.28,0.48,0
0.013015,0.0017664,0.029031,0.0041134,0.0099432,0.00046254,0,0,0.049627,-0.015157,0,0.0024052,0,0,0,0.029039,0.0041049,0.0099432,1.0631,0.014362,0.022588,4.6129e-07,0.29,0.48,0
0.013513,0.001772,0.029055,0.0038659,0.0098762,0.00043115,0,0,0.049864,-0.015627,0,0.002242,0,0,0,0.029062,0.0038586,0.0098762,0.98033,0.014266,0.022798,4.6865e-07,0.3,0.48,0
0.014013,0.0017764,0.029076,0.0036278,0.0098111,0.0004014,0,0,0.050089,-0.016077,0,0.0020873,0,0,0,0.029082,0.0036215,0.0098111,0.90343,0.014172,0.022999,4.7561e-07,0.31,0.48,0
0.014515,0.0017798,0.029094,0.003399,0.009748,0.0003732,0,0,0.050301,-0.016507,0,0.0019406,0,0,0,0.0291,0.0033936,0.009748,0.83193,0.01408,0.023191,4.8217e-07,0.32,0.48,0
0.015019,0.0017822,0.02911,0.0031794,0.0096869,0.00034646,0,0,0.0505,-0.016919,0,0.0018016,0,0,0,0.029115,0.0031748,0.0096869,0.76535,0.013992,0.023374,4.8833e-07,0.33,0.48,0
0.015525,0.0017837,0.029123,0.002969,0.0096277,0.00032111,0,0,0.050688,-0.017313,0,0.0016698,0,0,0,0.029127,0.002965,0.0096277,0.70332,0.013907,0.023549,4.941e-07,0.34,0.48,0
0.016032,0.0017844,0.029134,0.0027675,0.0095704,0.00029708,0,0,0.050865,-0.017688,0,0.0015448,0,0,0,0.029137,0.0027641,0.0095704,0.64546,0.013824,0.023714,4.9948e-07,0.35,0.48,0
0.016542,0.0017843,0.029142,0.0025748,0.009515,0.00027428,0,0,0.05103,-0.018045,0,0.0014263,0,0,0,0.029145,0.002572,0.009515,0.59145,0.013744,0.023871,5.045e-07,0.36,0.48,0
0.017053,0.0017836,0.029148,0.0023908,0.0094616,0.00025267,0,0,0.051184,-0.018384,0,0.0013139,0,0,0,0.02915,0.0023884,0.0094616,0.541,0.013667,0.024019,5.0915e-07,0.37,0.48,0
0.017566,0.0017822,0.029151,0.0022152,0.0094099,0.00023219,0,0,0.051327,-0.018706,0,0.0012074,0,0,0,0.029153,0.0022132,0.0094099,0.49384,0.013592,0.02416,5.1346e-07,0.38,0.48,0
0.018079,0.0017804,0.029153,0.0020478,0.0093602,0.00021278,0,0,0.051461,-0.019012,0,0.0011064,0,0,0,0.029154,0.0020462,0.0093602,0.44974,0.01352,0.024292,5.1744e-07,0.39,0.48,0
0.018595,0.001778,0.029152,0.0018885,0.0093122,0.00019439,0,0,0.051584,-0.019302,0,0.0010108,0,0,0,0.029154,0.0018871,0.0093122,0.40849,0.013451,0.024416,5.2108e-07,0.4,0.48,0
0.019111,0.0017752,0.02915,0.001737,0.0092661,0.00017698,0,0,0.051698,-0.019575,0,0.00092027,0,0,0,0.029151,0.0017359,0.0092661,0.36988,0.013384,0.024533,5.2442e-07,0.41,0.48,0
0.019629,0.001772,0.029146,0.0015931,0.0092217,0.0001605,0,0,0.051803,-0.019834,0,0.00083458,0,0,0,0.029147,0.0015922,0.0092217,0.33373,0.01332,0.024642,5.2747e-07,0.42,0.48,0
0.020147,0.0017684,0.02914,0.0014566,0.009179,0.00014491,0,0,0.051899,-0.020078,0,0.00075352,0,0,0,0.029141,0.0014558,0.009179,0.2999,0.013259,0.024745,5.3024e-07,0.43,0.48,0
0.020667,0.0017645,0.029133,0.0013271,0.009138,0.00013017,0,0,0.051987,-0.020308,0,0.0006769,0,0,0,0.029133,0.0013265,0.009138,0.26822,0.013199,0.02484,5.3274e-07,0.44,0.48,0
0.021187,0.0017604,0.029124,0.0012045,0.0090986,0.00011626,0,0,0.052067,-0.020525,0,0.00060454,0,0,0,0.029125,0.0012041,0.0090986,0.23858,0.013142,0.024929,5.3498e-07,0.45,0.48,0
0.021708,0.001756,0.029114,0.0010886,0.0090609,0.00010313,0,0,0.052139,-0.020728,0,0.00053626,0,0,0,0.029115,0.0010882,0.0090609,0.21083,0.013088,0.025012,5.3699e-07,0.46,0.48,0
0.02223,0.0017514,0.029103,0.00097902,0.0090247,9.0746e-05,0,0,0.052205,-0.020919,0,0.00047188,0,0,0,0.029104,0.00097872,0.0090247,0.18487,0.013036,0.025089,5.3878e-07,0.47,0.48,0
0.022752,0.0017466,0.029091,0.00087558,0.00899,7.9087e-05,0,0,0.052263,-0.021098,0,0.00041125,0,0,0,0.029091,0.00087536,0.00899,0.16059,0.012986,0.02516,5.4035e-07,0.48,0.48,0
0.023275,0.0017416,0.029078,0.00077804,0.0089569,6.8119e-05,0,0,0.052315,-0.021265,0,0.00035422,0,0,0,0.029078,0.00077788,0.0089569,0.13791,0.012938,0.025226,5.4173e-07,0.49,0.48,0
0.023798,0.0017365,0.029064,0.00068616,0.0089251,5.7816e-05,0,0,0.052362,-0.021421,0,0.00030064,0,0,0,0.029064,0.00068604,0.0089251,0.11673,0.012892,0.025286,5.4292e-07,0.5,0.48,0
0.024322,0.0017314,0.02905,0.00059969,0.0088948,4.8151e-05,0,0,0.052402,-0.021567,0,0.00025039,0,0,0,0.02905,0.00059961,0.0088948,0.096973,0.012848,0.025342,5.4394e-07,0.51,0.48,0
0.024847,0.0017261,0.029034,0.00051841,0.0088658,3.9099e-05,0,0,0.052438,-0.021703,0,0.00020332,0,0,0,0.029034,0.00051835,0.0088658,0.078561,0.012806,0.025393,5.448e-07,0.52,0.48,0
0.025371,0.0017208,0.029018,0.00044208,0.0088381,3.0636e-05,0,0,0.052469,-0.02183,0,0.00015931,0,0,0,0.029018,0.00044205,0.0088381,0.061426,0.012766,0.02544,5.4552e-07,0.53,0.48,0
0.025896,0.0017154,0.029002,0.00037048,0.0088117,2.2739e-05,0,0,0.052495,-0.021947,0,0.00011824,0,0,0,0.029002,0.00037046,0.0088117,0.045504,0.012728,0.025482,5.4609e-07,0.54,0.48,0
0.026421,0.00171,0.028985,0.00030339,0.0087866,1.5386e-05,0,0,0.052516,-0.022056,0,8.0007e-05,0,0,0,0.028985,0.00030339,0.0087866,0.030736,0.012692,0.025521,5.4654e-07,0.55,0.48,0
0.026946,0.0017046,0.028968,0.0002406,0.0087626,8.5557e-06,0,0,0.052534,-0.022157,0,4.449e-05,0,0,0,0.028968,0.0002406,0.0087626,0.017064,0.012657,0.025555,5.4687e-07,0.56,0.48,0
0.027472,0.0016991,0.028951,0.0001819,0.0087397,2.228e-06,0,0,0.052548,-0.02225,0,1.1586e-05,0,0,0,0.028951,0.00018189,0.0087397,0.0044373,0.012624,0.025587,5.471e-07,0.57,0.48,0
0.027997,0.0016937,0.028933,0.00012707,0.008718,-3.6166e-06,0,0,0.052559,-0.022336,0,-1.8806e-05,0,0,0,0.028933,0.00012707,0.008718,-0.0071935,0.012593,0.025615,5.4723e-07,0.58,0.48,0
0.028523,0.0016883,0.028915,7.593e-05,0.0086973,-8.997e-06,0,0,0.052567,-0.022416,0,-4.6784e-05,0,0,0,0.028915,7.5927e-05,0.0086973,-0.017875,0.012563,0.02564,5.4727e-07,0.59,0.48,0
0.029049,0.001683,0.028897,2.8284e-05,0.0086777,-1.3931e-05,0,0,0.052571,-0.022489,0,-7.2442e-05,0,0,0,0.028897,2.8277e-05,0.0086777,-0.027649,0.012535,0.025662,5.4723e-07,0.6,0.48,0
0.029574,0.0016777,0.02888,-1.6054e-05,0.0086591,-1.8437e-05,0,0,0.052573,-0.022555,0,-9.5871e-05,0,0,0,0.02888,-1.6065e-05,0.0086591,-0.036557,0.012507,0.025682,5.4712e-07,0.61,0.48,0
0.0301,0.0016725,0.028862,-5.7262e-05,0.0086414,-2.2531e-05,0,0,0.052573,-0.022616,0,-0.00011716,0,0,0,0.028862,-5.7279e-05,0.0086414,-0.044638,0.012482,0.025699,5.4694e-07,0.62,0.48,0
0.030626,0.0016673,0.028844,-9.5512e-05,0.0086246,-2.6229e-05,0,0,0.052571,-0.022672,0,-0.00013639,0,0,0,0.028844,-9.5536e-05,0.0086246,-0.051929,0.012458,0.025714,5.467e-07,0.63,0.48,0
0.031151,0.0016622,0.028826,-0.00013097,0.0086086,-2.9548e-05,0,0,0.052566,-0.022723,0,-0.00015365,0,0,0,0.028827,-0.000131,0.0086086,-0.058464,0.012435,0.025726,5.4642e-07,0.64,0.48,0
0.031677,0.0016572,0.028809,-0.0001638,0.0085936,-3.2502e-05,0,0,0.05256,-0.022769,0,-0.00016901,0,0,0,0.028809,-0.00016384,0.0085936,-0.064275,0.012413,0.025737,5.4608e-07,0.65,0.48,0
0.032203,0.0016523,0.028792,-0.00019415,0.0085793,-3.5107e-05,0,0,0.052553,-0.022811,0,-0.00018256,0,0,0,0.028792,-0.0001942,0.0085793,-0.069395,0.012392,0.025746,5.4571e-07,0.66,0.48,0
0.032728,0.0016475,0.028775,-0.00022217,0.0085658,-3.7377e-05,0,0,0.052543,-0.022849,0,-0.00019436,0,0,0,0.028775,-0.00022222,0.0085658,-0.073855,0.012373,0.025753,5.4531e-07,0.67,0.48,0
0.033253,0.0016427,0.028758,-0.00024801,0.008553,-3.9326e-05,0,0,0.052533,-0.022883,0,-0.0002045,0,0,0,0.028758,-0.00024806,0.008553,-0.077681,0.012354,0.025759,5.4487e-07,0.68,0.48,0
0.033779,0.0016381,0.028742,-0.00027179,0.008541,-4.0968e-05,0,0,0.052522,-0.022913,0,-0.00021303,0,0,0,0.028742,-0.00027185,0.008541,-0.080904,0.012337,0.025764,5.4441e-07,0.69,0.48,0
0.034304,0.0016336,0.028726,-0.00029365,0.0085296,-4.2316e-05,0,0,0.05251,-0.02294,0,-0.00022004,0,0,0,0.028726,-0.00029371,0.0085296,-0.083548,0.01232,0.025767,5.4394e-07,0.7,0.48,0
0.034829,0.0016292,0.02871,-0.00031371,0.0085189,-4.3382e-05,0,0,0.052497,-0.022965,0,-0.00022558,0,0,0,0.02871,-0.00031377,0.0085189,-0.08564,0.012305,0.025769,5.4344e-07,0.71,0.48,0
0.035354,0.001625,0.028695,-0.00033209,0.0085088,-4.4179e-05,0,0,0.052483,-0.022986,0,-0.00022973,0,0,0,0.028695,-0.00033215,0.0085088,-0.087205,0.01229,0.02577,5.4294e-07,0.72,0.48,0
0.035879,0.0016208,0.02868,-0.0003489,0.0084993,-4.472e-05,0,0,0.052469,-0.023005,0,-0.00023254,0,0,0,0.02868,-0.00034897,0.0084993,-0.088266,0.012277,0.02577,5.4242e-07,0.73,0.48,0
0.036403,0.0016168,0.028665,-0.00036425,0.0084903,-4.5016e-05,0,0,0.052455,-0.023022,0,-0.00023408,0,0,0,0.028665,-0.00036431,0.0084903,-0.088848,0.012264,0.02577,5.4191e-07,0.74,0.48,0
0.036928,0.0016129,0.028651,-0.00037823,0.0084819,-4.5079e-05,0,0,0.05244,-0.023036,0,-0.00023441,0,0,0,0.028651,-0.0003783,0.0084819,-0.088972,0.012252,0.025768,5.4139e-07,0.75,0.48,0
0.037452,0.0016092,0.028638,-0.00039096,0.008474,-4.492e-05,0,0,0.052426,-0.023049,0,-0.00023358,0,0,0,0.028638,-0.00039103,0.008474,-0.088661,0.01224,0.025767,5.4087e-07,0.76,0.48,0
0.037976,0.0016056,0.028625,-0.00040251,0.0084666,-4.455e-05,0,0,0.052411,-0.02306,0,-0.00023166,0,0,0,0.028625,-0.00040258,0.0084666,-0.087936,0.01223,0.025764,5.4036e-07,0.77,0.48,0
0.0385,0.0016021,0.028612,-0.00041298,0.0084597,-4.398e-05,0,0,0.052396,-0.023069,0,-0.0002287,0,0,0,0.028612,-0.00041305,0.0084597,-0.086817,0.01222,0.025761,5.3985e-07,0.78,0.48,0
0.039024,0.0015988,0.0286,-0.00042245,0.0084533,-4.322e-05,0,0,0.052381,-0.023077,0,-0.00022475,0,0,0,0.0286,-0.00042251,0.0084533,-0.085325,0.01221,0.025758,5.3935e-07,0.79,0.48,0
0.039548,0.0015956,0.028588,-0.00043099,0.0084472,-4.2282e-05,0,0,0.052367,-0.023083,0,-0.00021986,0,0,0,0.028588,-0.00043105,0.0084472,-0.083481,0.012202,0.025755,5.3886e-07,0.8,0.48,0
0.040071,0.0015926,0.028577,-0.00043868,0.0084416,-4.1174e-05,0,0,0.052353,-0.023089,0,-0.0002141,0,0,0,0.028577,-0.00043874,0.0084416,-0.081302,0.012193,0.025751,5.3839e-07,0.81,0.48,0
0.040595,0.0015897,0.028567,-0.00044558,0.0084364,-3.9906e-05,0,0,0.052339,-0.023093,0,-0.00020751,0,0,0,0.028567,-0.00044564,0.0084364,-0.078809,0.012186,0.025747,5.3793e-07,0.82,0.48,0
0.041118,0.0015869,0.028557,-0.00045177,0.0084315,-3.8489e-05,0,0,0.052326,-0.023096,0,-0.00020014,0,0,0,0.028557,-0.00045182,0.0084315,-0.07602,0.012179,0.025743,5.3749e-07,0.83,0.48,0
0.041641,0.0015843,0.028547,-0.00045729,0.008427,-3.6931e-05,0,0,0.052313,-0.023099,0,-0.00019204,0,0,0,0.028547,-0.00045734,0.008427,-0.072953,0.012172,0.025739,5.3706e-07,0.84,0.48,0
0.042165,0.0015819,0.028538,-0.00046221,0.0084229,-3.5242e-05,0,0,0.0523,-0.023101,0,-0.00018326,0,0,0,0.028539,-0.00046226,0.0084229,-0.069626,0.012166,0.025735,5.3666e-07,0.85,0.48,0
0.042687,0.0015796,0.02853,-0.00046658,0.0084191,-3.3431e-05,0,0,0.052289,-0.023103,0,-0.00017384,0,0,0,0.02853,-0.00046662,0.0084191,-0.066057,0.012161,0.025732,5.3627e-07,0.86,0.48,0
0.04321,0.0015774,0.028522,-0.00047044,0.0084156,-3.1506e-05,0,0,0.052278,-0.023104,0,-0.00016383,0,0,0,0.028522,-0.00047048,0.0084156,-0.062263,0.012156,0.025728,5.3591e-07,0.87,0.48,0
0.043733,0.0015755,0.028515,-0.00047385,0.0084124,-2.9478e-05,0,0,0.052267,-0.023104,0,-0.00015328,0,0,0,0.028515,-0.00047388,0.0084124,-0.058262,0.012151,0.025724,5.3557e-07,0.88,0.48,0
0.044256,0.0015737,0.028508,-0.00047684,0.0084095,-2.7353e-05,0,0,0.052257,-0.023104,0,-0.00014223,0,0,0,0.028508,-0.00047686,0.0084095,-0.054069,0.012147,0.025721,5.3526e-07,0.89,0.48,0
0.044778,0.001572,0.028502,-0.00047944,0.0084069,-2.5141e-05,0,0,0.052248,-0.023104,0,-0.00013073,0,0,0,0.028502,-0.00047946,0.0084069,-0.049702,0.012143,0.025717,5.3497e-07,0.9,0.48,0
0.045301,0.0015705,0.028497,-0.0004817,0.0084046,-2.285e-05,0,0,0.05224,-0.023104,0,-0.00011882,0,0,0,0.028497,-0.00048172,0.0084046,-0.045178,0.01214,0.025714,5.347e-07,0.91,0.48,0
0.045823,0.0015691,0.028492,-0.00048364,0.0084025,-2.0488e-05,0,0,0.052233,-0.023104,0,-0.00010653,0,0,0,0.028492,-0.00048365,0.0084025,-0.040512,0.012137,0.025711,5.3446e-07,0.92,0.48,0
0.046345,0.0015679,0.028488,-0.00048529,0.0084007,-1.8063e-05,0,0,0.052226,-0.023103,0,-9.3927e-05,0,0,0,0.028488,-0.0004853,0.0084007,-0.03572,0.012134,0.025709,5.3425e-07,0.93,0.48,0
0.046867,0.0015669,0.028484,-0.00048667,0.0083991,-1.5583e-05,0,0,0.05222,-0.023103,0,-8.1034e-05,0,0,0,0.028484,-0.00048667,0.0083991,-0.03082,0.012132,0.025706,5.3406e-07,0.94,0.48,0
0.04739,0.001566,0.028481,-0.0004878,0.0083979,-1.3057e-05,0,0,0.052215,-0.023103,0,-6.7897e-05,0,0,0,0.028481,-0.00048781,0.0083979,-0.025826,0.01213,0.025705,5.3391e-07,0.95,0.48,0
0.047912,0.0015653,0.028478,-0.00048871,0.0083968,-1.0492e-05,0,0,0.052211,-0.023102,0,-5.4559e-05,0,0,0,0.028478,-0.00048871,0.0083968,-0.020754,0.012129,0.025703,5.3378e-07,0.96,0.48,0
0.048434,0.0015647,0.028476,-0.00048939,0.008396,-7.8962e-06,0,0,0.052208,-0.023102,0,-4.106e-05,0,0,0,0.028476,-0.0004894,0.008396,-0.015619,0.012127,0.025702,5.3368e-07,0.97,0.48,0
0.048956,0.0015643,0.028474,-0.00048988,0.0083954,-5.277e-06,0,0,0.052206,-0.023102,0,-2.744e-05,0,0,0,0.028474,-0.00048988,0.0083954,-0.010439,0.012127,0.025701,5.336e-07,0.98,0.48,0
0.049478,0.0015641,0.028474,-0.00049017,0.008395,-2.6424e-06,0,0,0.052204,-0.023102,0,-1.374e-05,0,0,0,0.028474,-0.00049017,0.008395,-0.0052271,0.012126,0.0257,5.3356e-07,0.99,0.48,0
0.05,0.001564,0.028473,-0.00049026,0.0083949,-1.5388e-06,0,0,0.052204,-0.023102,0,-8.0017e-06,0,0,0,0.028473,-0.00049026,0.0083949,-0.003044,0.012126,0.0257,5.3355e-07,1,0.48,0
0,0,0.028489,0.012209,0.012209,0.0044892,0,0,0.042326,2.1684e-19,0,0.023344,0,0,0,0.029645,0.011054,0.012209,14.439,0.017636,0.018041,2.974e-07,0,0.49,0
0.00042326,0.00023344,0.028932,0.013933,0.01286,0.004247,0,0,0.04179,0.0027903,0,0.022084,0,0,0,0.030051,0.012814,0.01286,14.761,0.018575,0.017215,2.6202e-07,0.01,0.49,0
0.00083579,0.00041575,0.028478,0.013596,0.012622,0.0035536,0,0,0.041225,0.0025318,0,0.018478,0,0,0,0.029283,0.012791,0.012622,12.764,0.018232,0.016577,2.3388e-07,0.02,0.49,0
0.0012478,0.00056554,0.028326,0.01329,0.012485,0.0030858,0,0,0.041187,0.0020941,0,0.016046,0,0,0,0.028934,0.012682,0.012485,11.158,0.018034,0.016352,2.2446e-07,0.03,0.49,0
0.0016595,0.00069428,0.028196,0.012913,0.012332,0.0027466,0,0,0.041245,0.001508,0,0.014283,0,0,0,0.028674,0.012434,0.012332,9.8849,0.017814,0.016292,2.2205e-07,0.04,0.49,0
0.0020727,0.00080643,0.028129,0.012523,0.012195,0.002471,0,0,0.041426,0.00085224,0,0.012849,0,0,0,0.02851,0.012141,0.012195,8.7862,0.017616,0.016342,2.2414e-07,0.05,0.49,0
0.002488,0.00090516,0.0281,0.012127,0.012068,0.0022419,0,0,0.041683,0.00015334,0,0.011658,0,0,0,0.028409,0.011818,0.012068,7.8402,0.017432,0.016467,2.2915e-07,0.06,0.49,0
0.0029063,0.00099259,0.028099,0.011728,0.011948,0.0020466,0,0,0.041992,-0.00057206,0,0.010642,0,0,0,0.028351,0.011476,0.011948,7.0191,0.017258,0.016644,2.3616e-07,0.07,0.49,0
0.0033279,0.0010703,0.028116,0.011328,0.011833,0.0018774,0,0,0.042335,-0.0013137,0,0.0097622,0,0,0,0.028323,0.01112,0.011833,6.3035,0.017092,0.016858,2.4456e-07,0.08,0.49,0
0.003753,0.0011396,0.028145,0.010928,0.011722,0.0017287,0,0,0.0427,-0.0020646,0,0.0089893,0,0,0,0.028317,0.010756,0.011722,5.6773,0.016932,0.017098,2.5398e-07,0.09,0.49,0
0.0041819,0.0012014,0.028184,0.01053,0.011614,0.0015968,0,0,0.043081,-0.0028194,0,0.0083036,0,0,0,0.028327,0.010386,0.011614,5.1271,0.016776,0.017359,2.6415e-07,0.1,0.49,0
0.0046146,0.0012566,0.028228,0.010134,0.011509,0.0014789,0,0,0.043471,-0.0035744,0,0.0076902,0,0,0,0.028348,0.010014,0.011509,4.6418,0.016624,0.017635,2.7485e-07,0.11,0.49,0
0.0050513,0.0013058,0.028277,0.0097418,0.011406,0.0013726,0,0,0.043866,-0.0043263,0,0.0071377,0,0,0,0.028378,0.0096407,0.011406,4.2123,0.016475,0.01792,2.8593e-07,0.12,0.49,0
0.0054919,0.0013497,0.028329,0.0093539,0.011305,0.0012763,0,0,0.044263,-0.0050725,0,0.0066369,0,0,0,0.028414,0.0092685,0.011305,3.8309,0.016329,0.018213,2.9727e-07,0.13,0.49,0
0.0059366,0.0013887,0.028382,0.0089711,0.011206,0.0011886,0,0,0.044658,-0.0058108,0,0.0061808,0,0,0,0.028455,0.0088986,0.011206,3.491,0.016186,0.018511,3.0876e-07,0.14,0.49,0
0.0063851,0.0014234,0.028436,0.0085939,0.011109,0.0011084,0,0,0.045051,-0.0065394,0,0.0057636,0,0,0,0.028498,0.0085322,0.011109,3.1873,0.016046,0.01881,3.203e-07,0.15,0.49,0
0.0068376,0.001454,0.02849,0.0082229,0.011014,0.0010347,0,0,0.045438,-0.0072565,0,0.0053803,0,0,0,0.028543,0.0081703,0.011014,2.915,0.015909,0.01911,3.3183e-07,0.16,0.49,0
0.0072939,0.0014811,0.028543,0.0078588,0.010921,0.00096676,0,0,0.045819,-0.0079608,0,0.0050271,0,0,0,0.028588,0.0078137,0.010921,2.6702,0.015774,0.019409,3.4329e-07,0.17,0.49,0
0.0077539,0.0015048,0.028595,0.0075018,0.010829,0.00090397,0,0,0.046192,-0.008651,0,0.0047006,0,0,0,0.028634,0.0074631,0.010829,2.4495,0.015642,0.019705,3.546e-07,0.18,0.49,0
0.0082177,0.0015255,0.028646,0.0071526,0.01074,0.00084577,0,0,0.046556,-0.0093261,0,0.004398,0,0,0,0.028679,0.0071193,0.01074,2.25,0.015513,0.019997,3.6573e-07,0.19,0.49,0
0.0086851,0.0015435,0.028694,0.0068114,0.010652,0.00079169,0,0,0.046911,-0.009985,0,0.0041168,0,0,0,0.028723,0.0067828,0.010652,2.0693,0.015386,0.020284,3.7663e-07,0.2,0.49,0
0.0091559,0.0015589,0.028741,0.0064786,0.010566,0.00074132,0,0,0.047255,-0.010627,0,0.0038549,0,0,0,0.028766,0.0064539,0.010566,1.9051,0.015262,0.020566,3.8727e-07,0.21,0.49,0
0.0096302,0.0015721,0.028785,0.0061544,0.010482,0.00069432,0,0,0.047588,-0.011251,0,0.0036105,0,0,0,0.028806,0.0061332,0.010482,1.7557,0.01514,0.020842,3.976e-07,0.22,0.49,0
0.010108,0.0015832,0.028827,0.0058393,0.0104,0.00065037,0,0,0.04791,-0.011857,0,0.0033819,0,0,0,0.028845,0.0058209,0.0104,1.6193,0.015022,0.021111,4.0762e-07,0.23,0.49,0
0.010588,0.0015924,0.028866,0.0055332,0.01032,0.00060921,0,0,0.04822,-0.012445,0,0.0031679,0,0,0,0.028882,0.0055173,0.01032,1.4946,0.014906,0.021372,4.1728e-07,0.24,0.49,0
0.011072,0.0015998,0.028902,0.0052365,0.010242,0.00057061,0,0,0.048518,-0.013013,0,0.0029671,0,0,0,0.028916,0.0052227,0.010242,1.3804,0.014793,0.021625,4.2658e-07,0.25,0.49,0
0.011559,0.0016057,0.028936,0.0049491,0.010165,0.00053434,0,0,0.048803,-0.013563,0,0.0027786,0,0,0,0.028948,0.0049372,0.010165,1.2755,0.014684,0.02187,4.355e-07,0.26,0.49,0
0.012048,0.0016101,0.028967,0.0046713,0.010091,0.00050023,0,0,0.049076,-0.014092,0,0.0026012,0,0,0,0.028977,0.004661,0.010091,1.179,0.014576,0.022107,4.4404e-07,0.27,0.49,0
0.01254,0.0016132,0.028995,0.004403,0.010019,0.00046811,0,0,0.049336,-0.014602,0,0.0024342,0,0,0,0.029004,0.0043941,0.010019,1.0901,0.014472,0.022335,4.5217e-07,0.28,0.49,0
0.013035,0.0016152,0.02902,0.0041443,0.0099493,0.00043784,0,0,0.049584,-0.015093,0,0.0022767,0,0,0,0.029028,0.0041366,0.0099493,1.008,0.014371,0.022554,4.5991e-07,0.29,0.49,0
0.013532,0.0016161,0.029042,0.0038951,0.0098813,0.00040927,0,0,0.049819,-0.015564,0,0.0021282,0,0,0,0.029049,0.0038885,0.0098813,0.93214,0.014273,0.022764,4.6724e-07,0.3,0.49,0
0.014031,0.001616,0.029062,0.0036554,0.0098153,0.00038228,0,0,0.050042,-0.016016,0,0.0019879,0,0,0,0.029068,0.0036497,0.0098153,0.86184,0.014178,0.022965,4.7416e-07,0.31,0.49,0
0.014533,0.001615,0.029079,0.0034252,0.0097514,0.00035678,0,0,0.050253,-0.016448,0,0.0018553,0,0,0,0.029084,0.0034202,0.0097514,0.79663,0.014085,0.023157,4.8069e-07,0.32,0.49,0
0.015036,0.0016133,0.029094,0.0032042,0.0096894,0.00033267,0,0,0.050452,-0.016862,0,0.0017299,0,0,0,0.029098,0.0031999,0.0096894,0.73605,0.013996,0.02334,4.8683e-07,0.33,0.49,0
0.015542,0.0016108,0.029106,0.0029924,0.0096295,0.00030984,0,0,0.050639,-0.017256,0,0.0016112,0,0,0,0.02911,0.0029888,0.0096295,0.6797,0.013909,0.023515,4.9258e-07,0.34,0.49,0
0.016049,0.0016078,0.029116,0.0027897,0.0095716,0.00028823,0,0,0.050814,-0.017633,0,0.0014988,0,0,0,0.029119,0.0027866,0.0095716,0.62721,0.013826,0.02368,4.9795e-07,0.35,0.49,0
0.016558,0.0016041,0.029123,0.0025959,0.0095156,0.00026776,0,0,0.050979,-0.017991,0,0.0013924,0,0,0,0.029126,0.0025932,0.0095156,0.57826,0.013745,0.023837,5.0296e-07,0.36,0.49,0
0.017069,0.0016,0.029128,0.0024108,0.0094616,0.00024836,0,0,0.051133,-0.018332,0,0.0012915,0,0,0,0.02913,0.0024084,0.0094616,0.53256,0.013667,0.023986,5.0761e-07,0.37,0.49,0
0.017581,0.0015954,0.029131,0.0022341,0.0094095,0.00022998,0,0,0.051276,-0.018656,0,0.0011959,0,0,0,0.029133,0.0022322,0.0094095,0.48985,0.013592,0.024127,5.1191e-07,0.38,0.49,0
0.018094,0.0015905,0.029132,0.0020658,0.0093594,0.00021255,0,0,0.051409,-0.018963,0,0.0011053,0,0,0,0.029134,0.0020641,0.0093594,0.44991,0.013519,0.024259,5.1588e-07,0.39,0.49,0
0.018609,0.0015852,0.029131,0.0019055,0.009311,0.00019604,0,0,0.051533,-0.019254,0,0.0010194,0,0,0,0.029133,0.0019041,0.009311,0.41252,0.013449,0.024384,5.1953e-07,0.4,0.49,0
0.019125,0.0015797,0.029129,0.0017531,0.0092645,0.00018038,0,0,0.051647,-0.01953,0,0.00093795,0,0,0,0.02913,0.001752,0.0092645,0.3775,0.013382,0.024501,5.2288e-07,0.41,0.49,0
0.019642,0.0015739,0.029124,0.0016084,0.0092198,0.00016553,0,0,0.051752,-0.01979,0,0.00086077,0,0,0,0.029125,0.0016074,0.0092198,0.34467,0.013317,0.024611,5.2594e-07,0.42,0.49,0
0.02016,0.0015678,0.029119,0.001471,0.0091769,0.00015147,0,0,0.051848,-0.020035,0,0.00078762,0,0,0,0.029119,0.0014702,0.0091769,0.31388,0.013255,0.024714,5.2872e-07,0.43,0.49,0
0.020679,0.0015617,0.029111,0.0013408,0.0091356,0.00013814,0,0,0.051937,-0.020267,0,0.00071833,0,0,0,0.029112,0.0013401,0.0091356,0.285,0.013196,0.02481,5.3123e-07,0.44,0.49,0
0.021199,0.0015553,0.029103,0.0012175,0.0090961,0.00012552,0,0,0.052018,-0.020484,0,0.00065271,0,0,0,0.029103,0.0012169,0.0090961,0.2579,0.013139,0.0249,5.335e-07,0.45,0.49,0
0.021719,0.0015489,0.029093,0.0011008,0.0090581,0.00011357,0,0,0.052091,-0.020689,0,0.00059059,0,0,0,0.029094,0.0011003,0.0090581,0.23247,0.013084,0.024984,5.3553e-07,0.46,0.49,0
0.02224,0.0015424,0.029082,0.00099053,0.0090218,0.00010228,0,0,0.052157,-0.020881,0,0.00053183,0,0,0,0.029083,0.00099016,0.0090218,0.2086,0.013031,0.025061,5.3734e-07,0.47,0.49,0
0.022762,0.0015358,0.02907,0.00088644,0.008987,9.1594e-05,0,0,0.052216,-0.021062,0,0.00047629,0,0,0,0.029071,0.00088614,0.008987,0.1862,0.012981,0.025133,5.3894e-07,0.48,0.49,0
0.023285,0.0015291,0.029057,0.00078827,0.0089537,8.1505e-05,0,0,0.05227,-0.02123,0,0.00042382,0,0,0,0.029058,0.00078803,0.0089537,0.16519,0.012933,0.025199,5.4035e-07,0.49,0.49,0
0.023808,0.0015225,0.029044,0.00069578,0.0089219,7.1984e-05,0,0,0.052317,-0.021388,0,0.00037432,0,0,0,0.029044,0.0006956,0.0089219,0.14549,0.012887,0.025261,5.4157e-07,0.5,0.49,0
0.024331,0.0015159,0.02903,0.00060873,0.0088915,6.301e-05,0,0,0.052359,-0.021535,0,0.00032765,0,0,0,0.02903,0.00060859,0.0088915,0.12702,0.012843,0.025317,5.4262e-07,0.51,0.49,0
0.024855,0.0015092,0.029015,0.00052689,0.0088625,5.456e-05,0,0,0.052396,-0.021673,0,0.00028371,0,0,0,0.029015,0.00052678,0.0088625,0.10973,0.012801,0.025369,5.4352e-07,0.52,0.49,0
0.025379,0.0015026,0.028999,0.00045002,0.0088348,4.6615e-05,0,0,0.052428,-0.0218,0,0.0002424,0,0,0,0.028999,0.00044995,0.0088348,0.093553,0.012761,0.025416,5.4426e-07,0.53,0.49,0
0.025903,0.0014961,0.028983,0.00037791,0.0088083,3.9157e-05,0,0,0.052455,-0.021919,0,0.00020362,0,0,0,0.028983,0.00037785,0.0088083,0.07843,0.012723,0.025459,5.4488e-07,0.54,0.49,0
0.026428,0.0014895,0.028967,0.00031032,0.0087832,3.2166e-05,0,0,0.052478,-0.022029,0,0.00016727,0,0,0,0.028967,0.00031029,0.0087832,0.064313,0.012687,0.025499,5.4536e-07,0.55,0.49,0
0.026953,0.0014831,0.02895,0.00024705,0.0087592,2.5627e-05,0,0,0.052497,-0.022131,0,0.00013326,0,0,0,0.02895,0.00024703,0.0087592,0.051156,0.012652,0.025534,5.4573e-07,0.56,0.49,0
0.027478,0.0014767,0.028933,0.00018788,0.0087364,1.9523e-05,0,0,0.052512,-0.022226,0,0.00010152,0,0,0,0.028933,0.00018787,0.0087364,0.038913,0.012619,0.025566,5.46e-07,0.57,0.49,0
0.028003,0.0014705,0.028916,0.00013261,0.0087146,1.3837e-05,0,0,0.052524,-0.022313,0,7.1952e-05,0,0,0,0.028916,0.00013261,0.0087146,0.027543,0.012588,0.025595,5.4616e-07,0.58,0.49,0
0.028528,0.0014643,0.028899,8.1049e-05,0.008694,8.5555e-06,0,0,0.052533,-0.022394,0,4.4489e-05,0,0,0,0.028899,8.1046e-05,0.008694,0.01701,0.012558,0.025621,5.4624e-07,0.59,0.49,0
0.029054,0.0014582,0.028882,3.2992e-05,0.0086744,3.6637e-06,0,0,0.052539,-0.022468,0,1.9051e-05,0,0,0,0.028882,3.2991e-05,0.0086744,0.0072765,0.01253,0.025644,5.4624e-07,0.6,0.49,0
0.029579,0.0014523,0.028864,-1.1741e-05,0.0086558,-8.522e-07,0,0,0.052542,-0.022536,0,-4.4315e-06,0,0,0,0.028864,-1.1741e-05,0.0086558,-0.0016909,0.012503,0.025665,5.4616e-07,0.61,0.49,0
0.030105,0.0014464,0.028847,-5.3329e-05,0.0086381,-5.0058e-06,0,0,0.052543,-0.022598,0,-2.603e-05,0,0,0,0.028847,-5.333e-05,0.0086381,-0.0099241,0.012477,0.025682,5.4602e-07,0.62,0.49,0
0.03063,0.0014407,0.02883,-9.1946e-05,0.0086214,-8.81e-06,0,0,0.052542,-0.022655,0,-4.5812e-05,0,0,0,0.02883,-9.1948e-05,0.0086214,-0.017453,0.012453,0.025698,5.4583e-07,0.63,0.49,0
0.031156,0.0014351,0.028813,-0.00012776,0.0086055,-1.2277e-05,0,0,0.052539,-0.022707,0,-6.3842e-05,0,0,0,0.028813,-0.00012776,0.0086055,-0.024307,0.01243,0.025712,5.4558e-07,0.64,0.49,0
0.031681,0.0014296,0.028796,-0.00016092,0.0085905,-1.542e-05,0,0,0.052534,-0.022754,0,-8.0186e-05,0,0,0,0.028796,-0.00016093,0.0085905,-0.030512,0.012408,0.025723,5.4528e-07,0.65,0.49,0
0.032206,0.0014242,0.028779,-0.0001916,0.0085763,-1.8251e-05,0,0,0.052528,-0.022797,0,-9.4903e-05,0,0,0,0.028779,-0.00019161,0.0085763,-0.036094,0.012388,0.025733,5.4495e-07,0.66,0.49,0
0.032731,0.001419,0.028763,-0.00021993,0.0085628,-2.078e-05,0,0,0.05252,-0.022835,0,-0.00010806,0,0,0,0.028763,-0.00021995,0.0085628,-0.04108,0.012368,0.025741,5.4458e-07,0.67,0.49,0
0.033257,0.001414,0.028747,-0.00024607,0.0085501,-2.302e-05,0,0,0.052511,-0.02287,0,-0.0001197,0,0,0,0.028747,-0.00024609,0.0085501,-0.045492,0.01235,0.025747,5.4418e-07,0.68,0.49,0
0.033782,0.0014091,0.028731,-0.00027014,0.0085381,-2.4981e-05,0,0,0.0525,-0.022902,0,-0.0001299,0,0,0,0.028731,-0.00027016,0.0085381,-0.049354,0.012333,0.025752,5.4375e-07,0.69,0.49,0
0.034307,0.0014043,0.028715,-0.00029227,0.0085268,-2.6674e-05,0,0,0.052489,-0.02293,0,-0.00013871,0,0,0,0.028715,-0.0002923,0.0085268,-0.052688,0.012316,0.025756,5.4331e-07,0.7,0.49,0
0.034832,0.0013996,0.0287,-0.00031259,0.0085162,-2.8111e-05,0,0,0.052478,-0.022955,0,-0.00014618,0,0,0,0.0287,-0.00031262,0.0085162,-0.055515,0.012301,0.025759,5.4284e-07,0.71,0.49,0
0.035356,0.0013951,0.028685,-0.00033122,0.0085061,-2.9301e-05,0,0,0.052465,-0.022977,0,-0.00015236,0,0,0,0.028685,-0.00033126,0.0085061,-0.057857,0.012287,0.025761,5.4237e-07,0.72,0.49,0
0.035881,0.0013908,0.028671,-0.00034828,0.0084967,-3.0254e-05,0,0,0.052452,-0.022997,0,-0.00015732,0,0,0,0.028671,-0.00034831,0.0084967,-0.059735,0.012273,0.025762,5.4189e-07,0.73,0.49,0
0.036405,0.0013866,0.028657,-0.00036385,0.0084878,-3.0981e-05,0,0,0.052439,-0.023014,0,-0.0001611,0,0,0,0.028657,-0.00036389,0.0084878,-0.061167,0.01226,0.025762,5.414e-07,0.74,0.49,0
0.03693,0.0013826,0.028643,-0.00037806,0.0084794,-3.1492e-05,0,0,0.052425,-0.02303,0,-0.00016376,0,0,0,0.028643,-0.0003781,0.0084794,-0.062174,0.012248,0.025761,5.4091e-07,0.75,0.49,0
0.037454,0.0013787,0.02863,-0.000391,0.0084716,-3.1796e-05,0,0,0.052411,-0.023043,0,-0.00016534,0,0,0,0.02863,-0.00039103,0.0084716,-0.062775,0.012237,0.02576,5.4042e-07,0.76,0.49,0
0.037978,0.001375,0.028617,-0.00040275,0.0084643,-3.1903e-05,0,0,0.052397,-0.023054,0,-0.00016589,0,0,0,0.028617,-0.00040279,0.0084643,-0.062987,0.012226,0.025758,5.3993e-07,0.77,0.49,0
0.038502,0.0013714,0.028605,-0.00041341,0.0084574,-3.1822e-05,0,0,0.052383,-0.023064,0,-0.00016547,0,0,0,0.028605,-0.00041344,0.0084574,-0.06283,0.012216,0.025755,5.3945e-07,0.78,0.49,0
0.039025,0.001368,0.028593,-0.00042305,0.008451,-3.1562e-05,0,0,0.052369,-0.023073,0,-0.00016412,0,0,0,0.028593,-0.00042309,0.008451,-0.062322,0.012207,0.025753,5.3898e-07,0.79,0.49,0
0.039549,0.0013648,0.028582,-0.00043177,0.008445,-3.1133e-05,0,0,0.052356,-0.02308,0,-0.00016189,0,0,0,0.028582,-0.0004318,0.008445,-0.06148,0.012198,0.02575,5.3851e-07,0.8,0.49,0
0.040073,0.0013617,0.028571,-0.00043961,0.0084395,-3.0543e-05,0,0,0.052342,-0.023086,0,-0.00015882,0,0,0,0.028571,-0.00043965,0.0084395,-0.060322,0.01219,0.025746,5.3806e-07,0.81,0.49,0
0.040596,0.0013587,0.028561,-0.00044667,0.0084343,-2.9801e-05,0,0,0.052329,-0.02309,0,-0.00015497,0,0,0,0.028561,-0.0004467,0.0084343,-0.058864,0.012183,0.025743,5.3762e-07,0.82,0.49,0
0.041119,0.001356,0.028551,-0.00045299,0.0084295,-2.8917e-05,0,0,0.052317,-0.023094,0,-0.00015037,0,0,0,0.028551,-0.00045302,0.0084295,-0.057124,0.012176,0.025739,5.372e-07,0.83,0.49,0
0.041642,0.0013533,0.028542,-0.00045865,0.008425,-2.7899e-05,0,0,0.052304,-0.023098,0,-0.00014507,0,0,0,0.028542,-0.00045868,0.008425,-0.055118,0.012169,0.025736,5.3679e-07,0.84,0.49,0
0.042165,0.0013509,0.028533,-0.0004637,0.0084209,-2.6754e-05,0,0,0.052293,-0.0231,0,-0.00013912,0,0,0,0.028533,-0.00046372,0.0084209,-0.052864,0.012164,0.025732,5.3641e-07,0.85,0.49,0
0.042688,0.0013486,0.028525,-0.00046818,0.0084172,-2.5493e-05,0,0,0.052281,-0.023102,0,-0.00013256,0,0,0,0.028525,-0.0004682,0.0084172,-0.050377,0.012158,0.025729,5.3604e-07,0.86,0.49,0
0.043211,0.0013464,0.028518,-0.00047215,0.0084137,-2.4122e-05,0,0,0.052271,-0.023103,0,-0.00012543,0,0,0,0.028518,-0.00047217,0.0084137,-0.047674,0.012153,0.025725,5.3569e-07,0.87,0.49,0
0.043734,0.0013444,0.028511,-0.00047566,0.0084105,-2.265e-05,0,0,0.052261,-0.023104,0,-0.00011778,0,0,0,0.028511,-0.00047567,0.0084105,-0.04477,0.012149,0.025722,5.3537e-07,0.88,0.49,0
0.044256,0.0013426,0.028504,-0.00047873,0.0084077,-2.1085e-05,0,0,0.052251,-0.023105,0,-0.00010964,0,0,0,0.028504,-0.00047875,0.0084077,-0.041682,0.012144,0.025718,5.3506e-07,0.89,0.49,0
0.044779,0.0013409,0.028498,-0.00048142,0.0084051,-1.9436e-05,0,0,0.052243,-0.023105,0,-0.00010107,0,0,0,0.028498,-0.00048143,0.0084051,-0.038426,0.012141,0.025715,5.3478e-07,0.9,0.49,0
0.045301,0.0013394,0.028493,-0.00048375,0.0084028,-1.771e-05,0,0,0.052235,-0.023105,0,-9.2089e-05,0,0,0,0.028493,-0.00048376,0.0084028,-0.035017,0.012137,0.025712,5.3453e-07,0.91,0.49,0
0.045823,0.0013381,0.028488,-0.00048575,0.0084008,-1.5914e-05,0,0,0.052228,-0.023105,0,-8.2755e-05,0,0,0,0.028488,-0.00048576,0.0084008,-0.03147,0.012134,0.02571,5.343e-07,0.92,0.49,0
0.046345,0.0013369,0.028484,-0.00048746,0.008399,-1.4058e-05,0,0,0.052221,-0.023105,0,-7.3102e-05,0,0,0,0.028484,-0.00048747,0.008399,-0.027802,0.012132,0.025707,5.3409e-07,0.93,0.49,0
0.046868,0.0013358,0.02848,-0.00048889,0.0083975,-1.2149e-05,0,0,0.052216,-0.023105,0,-6.3172e-05,0,0,0,0.02848,-0.0004889,0.0083975,-0.024027,0.01213,0.025705,5.3392e-07,0.94,0.49,0
0.04739,0.001335,0.028477,-0.00049007,0.0083962,-1.0193e-05,0,0,0.052211,-0.023104,0,-5.3005e-05,0,0,0,0.028477,-0.00049007,0.0083962,-0.020162,0.012128,0.025703,5.3377e-07,0.95,0.49,0
0.047912,0.0013342,0.028475,-0.00049101,0.0083951,-8.2e-06,0,0,0.052207,-0.023104,0,-4.264e-05,0,0,0,0.028475,-0.00049101,0.0083951,-0.01622,0.012126,0.025702,5.3364e-07,0.96,0.49,0
0.048434,0.0013337,0.028473,-0.00049173,0.0083943,-6.1765e-06,0,0,0.052204,-0.023104,0,-3.2118e-05,0,0,0,0.028473,-0.00049173,0.0083943,-0.012218,0.012125,0.025701,5.3355e-07,0.97,0.49,0
0.048956,0.0013333,0.028471,-0.00049223,0.0083938,-4.1303e-06,0,0,0.052202,-0.023104,0,-2.1478e-05,0,0,0,0.028471,-0.00049223,0.0083938,-0.0081705,0.012124,0.0257,5.3348e-07,0.98,0.49,0
0.049478,0.001333,0.028471,-0.00049253,0.0083934,-2.0689e-06,0,0,0.052201,-0.023103,0,-1.0758e-05,0,0,0,0.028471,-0.00049253,0.0083934,-0.0040928,0.012124,0.025699,5.3343e-07,0.99,0.49,0
0.05,0.001333,0.02847,-0.00049263,0.0083933,-1.5298e-06,0,0,0.0522,-0.023103,0,-7.9549e-06,0,0,0,0.02847,-0.00049263,0.0083933,-0.0030263,0.012124,0.025699,5.3342e-07,1,0.49,0
0,0,0.044667,0.019143,0.019143,0.0077129,0,0,0.044242,0,0,0.026738,0,0,0,0.046817,0.016993,0.019143,15.574,0.027651,0.028809,1.6066e-06,0,0.5,0
0.00044242,0.00026738,0.042057,0.015192,0.017175,0.0056767,0,0,0.043129,-0.0017288,0,0.020781,0,0,0,0.043275,0.013974,0.017175,12.624,0.024808,0.027904,1.4143e-06,0.01,0.5,0
0.00086258,0.00044343,0.040443,0.014286,0.016419,0.0039724,0,0,0.041642,-0.0020806,0,0.015018,0,0,0,0.041104,0.013625,0.016419,9.7076,0.023716,0.026262,1.1939e-06,0.02,0.5,0
0.0012753,0.00058897,0.039818,0.013634,0.016036,0.0033101,0,0,0.041223,-0.0025364,0,0.012643,0,0,0,0.040291,0.013161,0.016036,8.2987,0.023162,0.025888,1.1442e-06,0.03,0.5,0
0.001687,0.00071136,0.039625,0.013157,0.015835,0.0028429,0,0,0.041237,-0.0030541,0,0.010926,0,0,0,0.039977,0.012805,0.015835,7.154,0.022872,0.025864,1.139e-06,0.04,0.5,0
0.0021,0.00081666,0.039577,0.012709,0.015686,0.0025008,0,0,0.041412,-0.0036138,0,0.009646,0,0,0,0.039848,0.012439,0.015686,6.2492,0.022658,0.02601,1.1527e-06,0.05,0.5,0
0.0025153,0.00090815,0.039608,0.012278,0.015566,0.0022292,0,0,0.041674,-0.0041997,0,0.0086202,0,0,0,0.039821,0.012065,0.015566,5.5003,0.022484,0.02625,1.1766e-06,0.06,0.5,0
0.0029335,0.00098814,0.039685,0.011853,0.015462,0.002006,0,0,0.041987,-0.0048019,0,0.0077718,0,0,0,0.039855,0.011684,0.015462,4.8712,0.022333,0.026549,1.2068e-06,0.07,0.5,0
0.003355,0.0010583,0.039792,0.011435,0.015368,0.0018177,0,0,0.042334,-0.0054138,0,0.0070524,0,0,0,0.039928,0.011298,0.015368,4.3355,0.022198,0.026887,1.2413e-06,0.08,0.5,0
0.0037802,0.0011199,0.039917,0.011021,0.015281,0.0016559,0,0,0.042702,-0.0060306,0,0.0064319,0,0,0,0.040029,0.010909,0.015281,3.875,0.022073,0.027253,1.2788e-06,0.09,0.5,0
0.0042091,0.0011741,0.040056,0.010611,0.0152,0.0015149,0,0,0.043084,-0.0066489,0,0.0058897,0,0,0,0.040148,0.010519,0.0152,3.4761,0.021956,0.027637,1.3186e-06,0.1,0.5,0
0.0046418,0.0012216,0.040204,0.010206,0.015123,0.0013908,0,0,0.043474,-0.0072658,0,0.0054111,0,0,0,0.04028,0.01013,0.015123,3.1285,0.021844,0.028034,1.3599e-06,0.11,0.5,0
0.0050785,0.0012633,0.040357,0.0098063,0.015049,0.0012805,0,0,0.043867,-0.0078791,0,0.004985,0,0,0,0.04042,0.0097432,0.015049,2.8239,0.021737,0.028439,1.4023e-06,0.12,0.5,0
0.0055192,0.0012996,0.040514,0.009412,0.014978,0.0011818,0,0,0.044262,-0.0084868,0,0.0046032,0,0,0,0.040566,0.0093594,0.014978,2.5557,0.021634,0.028848,1.4455e-06,0.13,0.5,0
0.0059638,0.0013312,0.040671,0.0090238,0.014908,0.0010931,0,0,0.044655,-0.0090874,0,0.0042591,0,0,0,0.040715,0.0089796,0.014908,2.3187,0.021534,0.029259,1.4892e-06,0.14,0.5,0
0.0064123,0.0013585,0.040828,0.008642,0.014841,0.0010129,0,0,0.045045,-0.0096794,0,0.0039476,0,0,0,0.040866,0.0086047,0.014841,2.1083,0.021437,0.029669,1.533e-06,0.15,0.5,0
0.0068647,0.001382,0.040984,0.008267,0.014775,0.00094005,0,0,0.045429,-0.010262,0,0.0036645,0,0,0,0.041016,0.0082355,0.014775,1.9211,0.021342,0.030075,1.5768e-06,0.16,0.5,0
0.0073209,0.001402,0.041138,0.0078994,0.014711,0.0008737,0,0,0.045806,-0.010833,0,0.0034061,0,0,0,0.041165,0.0078726,0.014711,1.7539,0.02125,0.030478,1.6203e-06,0.17,0.5,0
0.0077808,0.0014188,0.041288,0.0075394,0.014648,0.00081306,0,0,0.046176,-0.011392,0,0.0031696,0,0,0,0.041311,0.0075166,0.014648,1.6041,0.021159,0.030874,1.6635e-06,0.18,0.5,0
0.0082444,0.0014327,0.041435,0.0071875,0.014587,0.00075747,0,0,0.046537,-0.011939,0,0.0029526,0,0,0,0.041454,0.007168,0.014587,1.4696,0.02107,0.031263,1.706e-06,0.19,0.5,0
0.0087115,0.0014441,0.041577,0.0068439,0.014526,0.00070639,0,0,0.046888,-0.012473,0,0.002753,0,0,0,0.041594,0.0068273,0.014526,1.3484,0.020982,0.031644,1.7478e-06,0.2,0.5,0
0.0091822,0.0014531,0.041714,0.006509,0.014467,0.00065934,0,0,0.047229,-0.012992,0,0.0025689,0,0,0,0.041729,0.0064947,0.014467,1.2391,0.020897,0.032016,1.7888e-06,0.21,0.5,0
0.0096561,0.00146,0.041847,0.006183,0.014409,0.00061589,0,0,0.047559,-0.013497,0,0.0023987,0,0,0,0.041859,0.0061708,0.014409,1.1401,0.020813,0.032378,1.8289e-06,0.22,0.5,0
0.010133,0.001465,0.041973,0.0058661,0.014352,0.0005757,0,0,0.047877,-0.013986,0,0.0022411,0,0,0,0.041984,0.0058556,0.014352,1.0504,0.02073,0.03273,1.8678e-06,0.23,0.5,0
0.010614,0.0014683,0.042094,0.0055586,0.014296,0.00053844,0,0,0.048184,-0.01446,0,0.0020948,0,0,0,0.042103,0.0055495,0.014296,0.96876,0.02065,0.03307,1.9056e-06,0.24,0.5,0
0.011097,0.0014701,0.042209,0.0052605,0.014241,0.00050384,0,0,0.048479,-0.014919,0,0.0019589,0,0,0,0.042217,0.0052526,0.014241,0.89441,0.02057,0.033399,1.9422e-06,0.25,0.5,0
0.011583,0.0014704,0.042319,0.0049719,0.014187,0.00047164,0,0,0.048761,-0.015362,0,0.0018323,0,0,0,0.042326,0.0049651,0.014187,0.82652,0.020493,0.033717,1.9775e-06,0.26,0.5,0
0.012072,0.0014695,0.042422,0.0046929,0.014134,0.00044164,0,0,0.049032,-0.015789,0,0.0017142,0,0,0,0.042428,0.0046871,0.014134,0.76439,0.020417,0.034022,2.0115e-06,0.27,0.5,0
0.012564,0.0014675,0.042519,0.0044236,0.014083,0.00041363,0,0,0.04929,-0.016199,0,0.0016039,0,0,0,0.042524,0.0044186,0.014083,0.70742,0.020342,0.034316,2.044e-06,0.28,0.5,0
0.013058,0.0014646,0.04261,0.004164,0.014032,0.00038744,0,0,0.049535,-0.016594,0,0.0015007,0,0,0,0.042615,0.0041596,0.014032,0.65508,0.020269,0.034597,2.0752e-06,0.29,0.5,0
0.013555,0.0014607,0.042696,0.0039139,0.013983,0.00036291,0,0,0.049769,-0.016973,0,0.001404,0,0,0,0.042699,0.0039101,0.013983,0.60688,0.020198,0.034867,2.105e-06,0.3,0.5,0
0.014053,0.0014561,0.042775,0.0036734,0.013935,0.00033991,0,0,0.04999,-0.017336,0,0.0013133,0,0,0,0.042778,0.0036701,0.013935,0.56242,0.020128,0.035123,2.1333e-06,0.31,0.5,0
0.014554,0.0014508,0.042848,0.0034424,0.013887,0.0003183,0,0,0.050199,-0.017683,0,0.0012281,0,0,0,0.042851,0.0034396,0.013887,0.52132,0.020059,0.035368,2.1601e-06,0.32,0.5,0
0.015057,0.0014449,0.042916,0.0032208,0.013841,0.00029797,0,0,0.050397,-0.018015,0,0.0011479,0,0,0,0.042919,0.0032183,0.013841,0.48327,0.019993,0.035601,2.1855e-06,0.33,0.5,0
0.015562,0.0014385,0.042979,0.0030084,0.013796,0.00027883,0,0,0.050583,-0.018331,0,0.0010724,0,0,0,0.042981,0.0030062,0.013796,0.44796,0.019928,0.035822,2.2095e-06,0.34,0.5,0
0.016069,0.0014317,0.043035,0.002805,0.013752,0.00026078,0,0,0.050758,-0.018633,0,0.0010011,0,0,0,0.043037,0.0028032,0.013752,0.41515,0.019864,0.036032,2.2321e-06,0.35,0.5,0
0.016577,0.0014245,0.043087,0.0026106,0.013709,0.00024373,0,0,0.050922,-0.01892,0,0.00093391,0,0,0,0.043089,0.002609,0.013709,0.38461,0.019802,0.03623,2.2533e-06,0.36,0.5,0
0.017087,0.0014169,0.043134,0.0024249,0.013668,0.00022763,0,0,0.051075,-0.019192,0,0.00087039,0,0,0,0.043135,0.0024236,0.013668,0.35614,0.019742,0.036417,2.2732e-06,0.37,0.5,0
0.017599,0.0014091,0.043176,0.0022478,0.013627,0.00021239,0,0,0.051218,-0.019451,0,0.00081031,0,0,0,0.043177,0.0022466,0.013627,0.32956,0.019684,0.036594,2.2917e-06,0.38,0.5,0
0.018112,0.0014011,0.043213,0.002079,0.013588,0.00019796,0,0,0.051351,-0.019696,0,0.00075346,0,0,0,0.043214,0.0020779,0.013588,0.3047,0.019627,0.03676,2.3089e-06,0.39,0.5,0
0.018626,0.0013929,0.043246,0.0019182,0.013549,0.00018429,0,0,0.051474,-0.019928,0,0.00069961,0,0,0,0.043247,0.0019173,0.013549,0.28143,0.019571,0.036916,2.3249e-06,0.4,0.5,0
0.019141,0.0013846,0.043275,0.0017654,0.013512,0.00017133,0,0,0.051589,-0.020147,0,0.00064859,0,0,0,0.043276,0.0017646,0.013512,0.25961,0.019517,0.037062,2.3396e-06,0.41,0.5,0
0.019658,0.0013762,0.043299,0.0016202,0.013476,0.00015903,0,0,0.051694,-0.020354,0,0.00060021,0,0,0,0.0433,0.0016195,0.013476,0.23914,0.019465,0.037198,2.3532e-06,0.42,0.5,0
0.020175,0.0013677,0.04332,0.0014824,0.013441,0.00014735,0,0,0.051791,-0.020549,0,0.00055433,0,0,0,0.043321,0.0014818,0.013441,0.21991,0.019415,0.037326,2.3657e-06,0.43,0.5,0
0.020694,0.0013592,0.043338,0.0013517,0.013407,0.00013626,0,0,0.05188,-0.020733,0,0.0005108,0,0,0,0.043338,0.0013513,0.013407,0.20183,0.019365,0.037445,2.3771e-06,0.44,0.5,0
0.021213,0.0013507,0.043352,0.001228,0.013374,0.00012573,0,0,0.051962,-0.020906,0,0.0004695,0,0,0,0.043352,0.0012276,0.013374,0.18483,0.019318,0.037555,2.3875e-06,0.45,0.5,0
0.021733,0.0013422,0.043363,0.001111,0.013342,0.00011573,0,0,0.052035,-0.021068,0,0.00043032,0,0,0,0.043363,0.0011106,0.013342,0.16883,0.019272,0.037657,2.3969e-06,0.46,0.5,0
0.022253,0.0013337,0.04337,0.0010003,0.013311,0.00010623,0,0,0.052103,-0.02122,0,0.00039315,0,0,0,0.043371,0.001,0.013311,0.15375,0.019227,0.037752,2.4054e-06,0.47,0.5,0
0.022775,0.0013254,0.043375,0.00089585,0.013281,9.721e-05,0,0,0.052163,-0.021362,0,0.0003579,0,0,0,0.043376,0.00089562,0.013281,0.13956,0.019184,0.03784,2.413e-06,0.48,0.5,0
0.023297,0.001317,0.043378,0.00079731,0.013253,8.8646e-05,0,0,0.052218,-0.021495,0,0.00032448,0,0,0,0.043378,0.00079712,0.013253,0.12618,0.019143,0.03792,2.4198e-06,0.49,0.5,0
0.023819,0.0013088,0.043378,0.00070446,0.013225,8.0521e-05,0,0,0.052266,-0.021619,0,0.00029281,0,0,0,0.043378,0.00070431,0.013225,0.11359,0.019103,0.037994,2.4258e-06,0.5,0.5,0
0.024342,0.0013007,0.043376,0.00061706,0.013198,7.2815e-05,0,0,0.052309,-0.021735,0,0.00026283,0,0,0,0.043376,0.00061694,0.013198,0.10172,0.019064,0.038062,2.4311e-06,0.51,0.5,0
0.024865,0.0012927,0.043372,0.00053488,0.013172,6.5512e-05,0,0,0.052347,-0.021843,0,0.00023445,0,0,0,0.043372,0.00053478,0.013172,0.090554,0.019026,0.038124,2.4357e-06,0.52,0.5,0
0.025389,0.0012848,0.043366,0.00045768,0.013147,5.8598e-05,0,0,0.05238,-0.021943,0,0.00020763,0,0,0,0.043366,0.00045759,0.013147,0.080044,0.01899,0.03818,2.4396e-06,0.53,0.5,0
0.025913,0.001277,0.043359,0.00038523,0.013123,5.2058e-05,0,0,0.052408,-0.022035,0,0.00018231,0,0,0,0.043359,0.00038517,0.013123,0.070161,0.018956,0.038231,2.4429e-06,0.54,0.5,0
0.026437,0.0012694,0.04335,0.00031732,0.0131,4.5879e-05,0,0,0.052433,-0.022121,0,0.00015843,0,0,0,0.04335,0.00031727,0.0131,0.060877,0.018922,0.038277,2.4457e-06,0.55,0.5,0
0.026962,0.0012619,0.043339,0.00025373,0.013078,4.005e-05,0,0,0.052453,-0.022201,0,0.00013594,0,0,0,0.043339,0.00025369,0.013078,0.052164,0.01889,0.038318,2.448e-06,0.56,0.5,0
0.027486,0.0012546,0.043327,0.00019425,0.013057,3.4559e-05,0,0,0.05247,-0.022274,0,0.00011481,0,0,0,0.043327,0.00019422,0.013057,0.043998,0.018859,0.038355,2.4497e-06,0.57,0.5,0
0.028011,0.0012475,0.043315,0.00013867,0.013036,2.9396e-05,0,0,0.052483,-0.022342,0,9.4972e-05,0,0,0,0.043315,0.00013865,0.013036,0.036357,0.01883,0.038388,2.4511e-06,0.58,0.5,0
0.028536,0.0012405,0.043301,8.6803e-05,0.013016,2.455e-05,0,0,0.052493,-0.022404,0,7.64e-05,0,0,0,0.043301,8.6788e-05,0.013016,0.02922,0.018801,0.038417,2.452e-06,0.59,0.5,0
0.029061,0.0012337,0.043286,3.8451e-05,0.012997,2.0011e-05,0,0,0.052501,-0.022461,0,5.9051e-05,0,0,0,0.043286,3.844e-05,0.012997,0.022567,0.018774,0.038443,2.4525e-06,0.6,0.5,0
0.029586,0.001227,0.043271,-6.5706e-06,0.012979,1.5772e-05,0,0,0.052505,-0.022513,0,4.2887e-05,0,0,0,0.043271,-6.5785e-06,0.012979,0.01638,0.018748,0.038465,2.4527e-06,0.61,0.5,0
0.030111,0.0012205,0.043255,-4.8441e-05,0.012962,1.1822e-05,0,0,0.052508,-0.02256,0,2.787e-05,0,0,0,0.043255,-4.8447e-05,0.012962,0.010641,0.018723,0.038484,2.4527e-06,0.62,0.5,0
0.030636,0.0012142,0.043238,-8.7334e-05,0.012945,8.1525e-06,0,0,0.052508,-0.022604,0,1.3966e-05,0,0,0,0.043238,-8.7339e-05,0.012945,0.0053359,0.018699,0.038501,2.4523e-06,0.63,0.5,0
0.031161,0.0012081,0.043221,-0.00012342,0.012929,4.756e-06,0,0,0.052506,-0.022643,0,1.1409e-06,0,0,0,0.043221,-0.00012342,0.012929,0.00044768,0.018676,0.038515,2.4517e-06,0.64,0.5,0
0.031686,0.0012021,0.043204,-0.00015684,0.012914,1.624e-06,0,0,0.052503,-0.022679,0,-1.064e-05,0,0,0,0.043204,-0.00015685,0.012914,-0.0040379,0.018654,0.038526,2.4508e-06,0.65,0.5,0
0.032211,0.0011964,0.043187,-0.00018778,0.0129,-1.2516e-06,0,0,0.052497,-0.022711,0,-2.1409e-05,0,0,0,0.043187,-0.00018778,0.0129,-0.0081348,0.018633,0.038535,2.4498e-06,0.66,0.5,0
0.032736,0.0011908,0.043169,-0.00021636,0.012886,-3.8786e-06,0,0,0.052491,-0.02274,0,-3.1198e-05,0,0,0,0.043169,-0.00021637,0.012886,-0.011857,0.018613,0.038542,2.4485e-06,0.67,0.5,0
0.033261,0.0011853,0.043151,-0.00024274,0.012873,-6.2648e-06,0,0,0.052483,-0.022766,0,-4.004e-05,0,0,0,0.043151,-0.00024274,0.012873,-0.015216,0.018594,0.038548,2.4471e-06,0.68,0.5,0
0.033786,0.0011801,0.043133,-0.00026704,0.01286,-8.4179e-06,0,0,0.052474,-0.022789,0,-4.7964e-05,0,0,0,0.043133,-0.00026705,0.01286,-0.018227,0.018575,0.038551,2.4456e-06,0.69,0.5,0
0.034311,0.001175,0.043116,-0.00028941,0.012848,-1.0345e-05,0,0,0.052464,-0.022809,0,-5.5002e-05,0,0,0,0.043116,-0.00028941,0.012848,-0.0209,0.018558,0.038553,2.444e-06,0.7,0.5,0
0.034835,0.0011702,0.043098,-0.00030995,0.012836,-1.2055e-05,0,0,0.052454,-0.022828,0,-6.1185e-05,0,0,0,0.043098,-0.00030996,0.012836,-0.023248,0.018541,0.038554,2.4423e-06,0.71,0.5,0
0.03536,0.0011654,0.043081,-0.00032879,0.012826,-1.3555e-05,0,0,0.052442,-0.022844,0,-6.6543e-05,0,0,0,0.043081,-0.0003288,0.012826,-0.025283,0.018526,0.038554,2.4405e-06,0.72,0.5,0
0.035884,0.0011609,0.043063,-0.00034605,0.012815,-1.4851e-05,0,0,0.05243,-0.022858,0,-7.1106e-05,0,0,0,0.043063,-0.00034606,0.012815,-0.027017,0.018511,0.038552,2.4386e-06,0.73,0.5,0
0.036408,0.0011565,0.043047,-0.00036183,0.012805,-1.5952e-05,0,0,0.052418,-0.02287,0,-7.4904e-05,0,0,0,0.043047,-0.00036184,0.012805,-0.02846,0.018497,0.03855,2.4368e-06,0.74,0.5,0
0.036932,0.0011523,0.04303,-0.00037623,0.012796,-1.6865e-05,0,0,0.052405,-0.02288,0,-7.7966e-05,0,0,0,0.04303,-0.00037624,0.012796,-0.029625,0.018483,0.038547,2.4348e-06,0.75,0.5,0
0.037456,0.0011483,0.043014,-0.00038935,0.012787,-1.7597e-05,0,0,0.052393,-0.02289,0,-8.0322e-05,0,0,0,0.043014,-0.00038936,0.012787,-0.030522,0.018471,0.038543,2.4329e-06,0.76,0.5,0
0.03798,0.0011445,0.042998,-0.00040128,0.012779,-1.8156e-05,0,0,0.05238,-0.022897,0,-8.2002e-05,0,0,0,0.042998,-0.00040129,0.012779,-0.031163,0.018459,0.038538,2.431e-06,0.77,0.5,0
0.038504,0.0011408,0.042983,-0.00041211,0.012771,-1.8549e-05,0,0,0.052367,-0.022904,0,-8.3035e-05,0,0,0,0.042983,-0.00041212,0.012771,-0.031559,0.018447,0.038533,2.429e-06,0.78,0.5,0
0.039027,0.0011373,0.042968,-0.00042191,0.012764,-1.8784e-05,0,0,0.052354,-0.022909,0,-8.345e-05,0,0,0,0.042968,-0.00042193,0.012764,-0.03172,0.018437,0.038528,2.4271e-06,0.79,0.5,0
0.039551,0.001134,0.042953,-0.00043078,0.012757,-1.8867e-05,0,0,0.052341,-0.022913,0,-8.3276e-05,0,0,0,0.042953,-0.00043079,0.012757,-0.031657,0.018426,0.038522,2.4252e-06,0.8,0.5,0
0.040074,0.0011308,0.04294,-0.00043877,0.01275,-1.8807e-05,0,0,0.052328,-0.022917,0,-8.2542e-05,0,0,0,0.04294,-0.00043879,0.01275,-0.031382,0.018417,0.038517,2.4234e-06,0.81,0.5,0
0.040598,0.0011278,0.042926,-0.00044597,0.012744,-1.861e-05,0,0,0.052316,-0.022919,0,-8.1277e-05,0,0,0,0.042926,-0.00044598,0.012744,-0.030906,0.018408,0.038511,2.4216e-06,0.82,0.5,0
0.041121,0.001125,0.042914,-0.00045243,0.012738,-1.8284e-05,0,0,0.052304,-0.022921,0,-7.951e-05,0,0,0,0.042914,-0.00045244,0.012738,-0.030238,0.0184,0.038504,2.4199e-06,0.83,0.5,0
0.041644,0.0011224,0.042902,-0.00045821,0.012733,-1.7837e-05,0,0,0.052292,-0.022923,0,-7.7269e-05,0,0,0,0.042902,-0.00045822,0.012733,-0.02939,0.018392,0.038498,2.4182e-06,0.84,0.5,0
0.042167,0.0011199,0.04289,-0.00046337,0.012728,-1.7274e-05,0,0,0.052281,-0.022924,0,-7.4583e-05,0,0,0,0.04289,-0.00046338,0.012728,-0.028372,0.018385,0.038492,2.4166e-06,0.85,0.5,0
0.042689,0.0011175,0.04288,-0.00046796,0.012724,-1.6605e-05,0,0,0.052271,-0.022924,0,-7.1481e-05,0,0,0,0.04288,-0.00046797,0.012724,-0.027196,0.018378,0.038487,2.4151e-06,0.86,0.5,0
0.043212,0.0011154,0.04287,-0.00047203,0.012719,-1.5835e-05,0,0,0.052261,-0.022924,0,-6.799e-05,0,0,0,0.04287,-0.00047204,0.012719,-0.025871,0.018372,0.038481,2.4136e-06,0.87,0.5,0
0.043734,0.0011134,0.04286,-0.00047563,0.012715,-1.4973e-05,0,0,0.052251,-0.022924,0,-6.4139e-05,0,0,0,0.04286,-0.00047564,0.012715,-0.024409,0.018367,0.038476,2.4123e-06,0.88,0.5,0
0.044257,0.0011115,0.042852,-0.00047879,0.012712,-1.4025e-05,0,0,0.052242,-0.022924,0,-5.9957e-05,0,0,0,0.042852,-0.0004788,0.012712,-0.02282,0.018362,0.03847,2.411e-06,0.89,0.5,0
0.044779,0.0011099,0.042844,-0.00048156,0.012709,-1.2999e-05,0,0,0.052234,-0.022923,0,-5.547e-05,0,0,0,0.042844,-0.00048156,0.012709,-0.021115,0.018357,0.038465,2.4098e-06,0.9,0.5,0
0.045302,0.0011084,0.042836,-0.00048396,0.012706,-1.1902e-05,0,0,0.052227,-0.022923,0,-5.0707e-05,0,0,0,0.042836,-0.00048396,0.012706,-0.019304,0.018353,0.038461,2.4088e-06,0.91,0.5,0
0.045824,0.001107,0.04283,-0.00048603,0.012703,-1.074e-05,0,0,0.05222,-0.022922,0,-4.5696e-05,0,0,0,0.04283,-0.00048603,0.012703,-0.017398,0.018349,0.038457,2.4078e-06,0.92,0.5,0
0.046346,0.0011058,0.042824,-0.00048779,0.012701,-9.5218e-06,0,0,0.052214,-0.022922,0,-4.0465e-05,0,0,0,0.042824,-0.00048779,0.012701,-0.015408,0.018346,0.038453,2.4069e-06,0.93,0.5,0
0.046868,0.0011048,0.042819,-0.00048927,0.012699,-8.2538e-06,0,0,0.052208,-0.022921,0,-3.5042e-05,0,0,0,0.042819,-0.00048927,0.012699,-0.013344,0.018343,0.03845,2.4062e-06,0.94,0.5,0
0.04739,0.0011039,0.042815,-0.00049049,0.012697,-6.9432e-06,0,0,0.052204,-0.02292,0,-2.9453e-05,0,0,0,0.042815,-0.00049049,0.012697,-0.011217,0.018341,0.038447,2.4056e-06,0.95,0.5,0
0.047912,0.0011032,0.042812,-0.00049146,0.012696,-5.5971e-06,0,0,0.0522,-0.02292,0,-2.3727e-05,0,0,0,0.042812,-0.00049146,0.012696,-0.0090366,0.018339,0.038445,2.405e-06,0.96,0.5,0
0.048434,0.0011026,0.042809,-0.0004922,0.012695,-4.2226e-06,0,0,0.052197,-0.022919,0,-1.7891e-05,0,0,0,0.042809,-0.0004922,0.012695,-0.0068143,0.018337,0.038443,2.4046e-06,0.97,0.5,0
0.048956,0.0011022,0.042807,-0.00049272,0.012694,-2.8269e-06,0,0,0.052195,-0.022919,0,-1.1973e-05,0,0,0,0.042807,-0.00049273,0.012694,-0.0045604,0.018336,0.038442,2.4043e-06,0.98,0.5,0
0.049478,0.001102,0.042806,-0.00049304,0.012694,-1.417e-06,0,0,0.052194,-0.022919,0,-6.0004e-06,0,0,0,0.042806,-0.00049304,0.012694,-0.0022855,0.018336,0.038441,2.4042e-06,0.99,0.5,0
0.05,0.0011019,0.042805,-0.00049314,0.012694,-2.2852e-06,0,0,0.052194,-0.022919,0,-7.9222e-06,0,0,0,0.042805,-0.00049314,0.012694,-0.0030215,0.018335,0.038441,2.4041e-06,1,0.5,0
0,0,0.053234,0.022815,0.022815,0.0076485,0,0,0.039545,8.6736e-19,0,0.019886,0,0,0,0.055049,0.021,0.022815,13.348,0.032955,0.033179,1.857e-06,0,0.51,0
0.00039546,0.00019886,0.051777,0.016383,0.020448,0.0061163,0,0,0.040728,-0.0052846,0,0.015902,0,0,0,0.052804,0.015356,0.020448,9.5328,0.029536,0.03518,2.0791e-06,0.01,0.51,0
0.00081456,0.00037414,0.052602,0.015399,0.0204,0.0046753,0,0,0.041862,-0.0065014,0,0.012156,0,0,0,0.05318,0.014821,0.0204,7.0543,0.029467,0.035896,2.1834e-06,0.02,0.51,0
0.0012327,0.00051481,0.052112,0.014442,0.019966,0.0036098,0,0,0.041789,-0.007181,0,0.0093854,0,0,0,0.052455,0.0141,0.019966,5.4248,0.02884,0.035784,2.1417e-06,0.03,0.51,0
0.0016504,0.0006332,0.051829,0.013744,0.019672,0.0029662,0,0,0.041804,-0.0077061,0,0.0077122,0,0,0,0.052059,0.013515,0.019672,4.4269,0.028415,0.035864,2.1357e-06,0.04,0.51,0
0.0020688,0.00073415,0.051719,0.013161,0.019464,0.0025094,0,0,0.041931,-0.0081936,0,0.0065244,0,0,0,0.051881,0.012999,0.019464,3.708,0.028115,0.036087,2.1548e-06,0.05,0.51,0
0.002489,0.00082116,0.051726,0.012639,0.01931,0.0021666,0,0,0.042141,-0.0086712,0,0.0056332,0,0,0,0.051846,0.01252,0.01931,3.1631,0.027892,0.036409,2.1911e-06,0.06,0.51,0
0.0029116,0.00089655,0.05181,0.012152,0.019189,0.0018959,0,0,0.042408,-0.0091473,0,0.0049294,0,0,0,0.0519,0.012062,0.019189,2.7309,0.027717,0.036796,2.2387e-06,0.07,0.51,0
0.0033371,0.00096205,0.051945,0.011687,0.019089,0.0016752,0,0,0.042712,-0.0096236,0,0.0043555,0,0,0,0.052015,0.011617,0.019089,2.3787,0.027574,0.037228,2.2942e-06,0.08,0.51,0
0.0037658,0.001019,0.052116,0.011237,0.019006,0.0014909,0,0,0.043043,-0.0101,0,0.0038763,0,0,0,0.05217,0.011182,0.019006,2.0859,0.027453,0.03769,2.3554e-06,0.09,0.51,0
0.004198,0.0010684,0.052311,0.010799,0.018933,0.0013343,0,0,0.043392,-0.010575,0,0.0034692,0,0,0,0.052354,0.010756,0.018933,1.8391,0.027348,0.038172,2.4207e-06,0.1,0.51,0
0.0046337,0.0011113,0.052524,0.010371,0.018868,0.0011996,0,0,0.043752,-0.011047,0,0.0031188,0,0,0,0.052558,0.010337,0.018868,1.6287,0.027254,0.038668,2.4891e-06,0.11,0.51,0
0.005073,0.0011482,0.052748,0.0099519,0.01881,0.0010824,0,0,0.044119,-0.011515,0,0.0028143,0,0,0,0.052775,0.0099246,0.01881,1.4479,0.02717,0.039171,2.5596e-06,0.12,0.51,0
0.0055161,0.0011799,0.052979,0.0095415,0.018756,0.00097983,0,0,0.04449,-0.011979,0,0.0025476,0,0,0,0.053002,0.0095194,0.018756,1.2915,0.027092,0.039678,2.6316e-06,0.13,0.51,0
0.0059628,0.001207,0.053215,0.0091394,0.018706,0.00088942,0,0,0.044861,-0.012437,0,0.0023125,0,0,0,0.053233,0.0091214,0.018706,1.1556,0.02702,0.040186,2.7046e-06,0.14,0.51,0
0.0064133,0.0012298,0.053453,0.0087456,0.018659,0.00080936,0,0,0.045231,-0.012888,0,0.0021043,0,0,0,0.053467,0.0087309,0.018659,1.0368,0.026953,0.040691,2.7781e-06,0.15,0.51,0
0.0068674,0.0012488,0.053689,0.0083602,0.018615,0.00073818,0,0,0.045597,-0.013331,0,0.0019193,0,0,0,0.053701,0.0083481,0.018615,0.93273,0.026888,0.041191,2.8517e-06,0.16,0.51,0
0.0073252,0.0012644,0.053924,0.0079833,0.018572,0.00067471,0,0,0.045957,-0.013766,0,0.0017542,0,0,0,0.053934,0.0079734,0.018572,0.84123,0.026827,0.041684,2.9249e-06,0.17,0.51,0
0.0077866,0.001277,0.054156,0.0076152,0.018531,0.00061795,0,0,0.046312,-0.014191,0,0.0016067,0,0,0,0.054164,0.007607,0.018531,0.76058,0.026767,0.042169,2.9976e-06,0.18,0.51,0
0.0082515,0.0012867,0.054382,0.007256,0.018492,0.00056709,0,0,0.046658,-0.014606,0,0.0014744,0,0,0,0.054389,0.0072492,0.018492,0.68933,0.02671,0.042645,3.0694e-06,0.19,0.51,0
0.0087198,0.001294,0.054603,0.006906,0.018453,0.00052142,0,0,0.046996,-0.015011,0,0.0013557,0,0,0,0.054609,0.0069003,0.018453,0.62625,0.026654,0.04311,3.1401e-06,0.2,0.51,0
0.0091914,0.0012991,0.054818,0.0065653,0.018415,0.00048034,0,0,0.047324,-0.015405,0,0.0012489,0,0,0,0.054823,0.0065605,0.018415,0.57029,0.0266,0.043562,3.2095e-06,0.21,0.51,0
0.0096662,0.0013022,0.055026,0.0062341,0.018378,0.00044334,0,0,0.047642,-0.015787,0,0.0011527,0,0,0,0.05503,0.0062301,0.018378,0.52055,0.026546,0.044002,3.2773e-06,0.22,0.51,0
0.010144,0.0013035,0.055227,0.0059126,0.018342,0.00040995,0,0,0.04795,-0.016158,0,0.0010659,0,0,0,0.05523,0.0059092,0.018342,0.47626,0.026494,0.044429,3.3434e-06,0.23,0.51,0
0.010625,0.0013032,0.055419,0.0056008,0.018306,0.00037978,0,0,0.048247,-0.016517,0,0.00098743,0,0,0,0.055422,0.0055979,0.018306,0.43675,0.026442,0.044842,3.4076e-06,0.24,0.51,0
0.011109,0.0013014,0.055604,0.0052989,0.018271,0.00035247,0,0,0.048533,-0.016864,0,0.00091643,0,0,0,0.055606,0.0052964,0.018271,0.40143,0.026391,0.04524,3.4699e-06,0.25,0.51,0
0.011596,0.0012985,0.05578,0.0050069,0.018236,0.00032772,0,0,0.048807,-0.017198,0,0.00085208,0,0,0,0.055782,0.0050048,0.018236,0.3698,0.026341,0.045624,3.53e-06,0.26,0.51,0
0.012085,0.0012943,0.055947,0.0047249,0.018202,0.00030524,0,0,0.049069,-0.01752,0,0.00079364,0,0,0,0.055949,0.004723,0.018202,0.34142,0.026291,0.045993,3.5879e-06,0.27,0.51,0
0.012577,0.0012893,0.056106,0.0044528,0.018168,0.0002848,0,0,0.04932,-0.017829,0,0.00074047,0,0,0,0.056108,0.0044512,0.018168,0.31589,0.026242,0.046346,3.6436e-06,0.28,0.51,0
0.013072,0.0012833,0.056257,0.0041906,0.018134,0.00026615,0,0,0.049559,-0.018127,0,0.000692,0,0,0,0.056258,0.0041892,0.018134,0.29288,0.026194,0.046685,3.6969e-06,0.29,0.51,0
0.013569,0.0012766,0.056398,0.0039382,0.018101,0.00024912,0,0,0.049786,-0.018412,0,0.00064771,0,0,0,0.056399,0.0039371,0.018101,0.27208,0.026146,0.047009,3.7478e-06,0.3,0.51,0
0.014067,0.0012692,0.056531,0.0036957,0.018068,0.00023352,0,0,0.050002,-0.018684,0,0.00060714,0,0,0,0.056532,0.0036946,0.018068,0.25322,0.026098,0.047317,3.7963e-06,0.31,0.51,0
0.014568,0.0012614,0.056656,0.0034628,0.018035,0.00021919,0,0,0.050206,-0.018944,0,0.00056989,0,0,0,0.056656,0.0034619,0.018035,0.23609,0.026051,0.047611,3.8424e-06,0.32,0.51,0
0.015072,0.001253,0.056772,0.0032395,0.018003,0.000206,0,0,0.050399,-0.019193,0,0.0005356,0,0,0,0.056773,0.0032387,0.018003,0.22048,0.026005,0.04789,3.8861e-06,0.33,0.51,0
0.015577,0.0012442,0.05688,0.0030255,0.017972,0.00019381,0,0,0.050581,-0.01943,0,0.00050392,0,0,0,0.056881,0.0030248,0.017972,0.2062,0.025959,0.048155,3.9274e-06,0.34,0.51,0
0.016083,0.0012351,0.05698,0.0028208,0.01794,0.00018253,0,0,0.050752,-0.019655,0,0.00047458,0,0,0,0.056981,0.0028202,0.01794,0.1931,0.025914,0.048405,3.9664e-06,0.35,0.51,0
0.016591,0.0012257,0.057072,0.0026251,0.017909,0.00017204,0,0,0.050912,-0.019869,0,0.00044731,0,0,0,0.057073,0.0026246,0.017909,0.18104,0.025869,0.048642,4.003e-06,0.36,0.51,0
0.017101,0.0012162,0.057157,0.0024383,0.017879,0.00016227,0,0,0.051062,-0.020073,0,0.00042189,0,0,0,0.057158,0.0024378,0.017879,0.16991,0.025825,0.048865,4.0373e-06,0.37,0.51,0
0.017613,0.0012064,0.057235,0.0022601,0.017848,0.00015312,0,0,0.051202,-0.020265,0,0.00039812,0,0,0,0.057235,0.0022597,0.017848,0.15959,0.025781,0.049075,4.0693e-06,0.38,0.51,0
0.018125,0.0011966,0.057306,0.0020903,0.017819,0.00014454,0,0,0.051333,-0.020447,0,0.00037581,0,0,0,0.057306,0.00209,0.017819,0.14999,0.025738,0.049272,4.0992e-06,0.39,0.51,0
0.018639,0.0011867,0.057369,0.0019288,0.017789,0.00013647,0,0,0.051454,-0.020619,0,0.00035482,0,0,0,0.05737,0.0019284,0.017789,0.14103,0.025696,0.049457,4.1269e-06,0.4,0.51,0
0.019155,0.0011767,0.057427,0.0017751,0.017761,0.00012884,0,0,0.051566,-0.020781,0,0.00033499,0,0,0,0.057427,0.0017748,0.017761,0.13265,0.025654,0.04963,4.1526e-06,0.41,0.51,0
0.019671,0.0011668,0.057479,0.0016292,0.017732,0.00012163,0,0,0.05167,-0.020934,0,0.00031623,0,0,0,0.057479,0.001629,0.017732,0.12477,0.025613,0.049791,4.1763e-06,0.42,0.51,0
0.020188,0.0011569,0.057524,0.0014908,0.017705,0.00011477,0,0,0.051766,-0.021078,0,0.00029841,0,0,0,0.057524,0.0014905,0.017705,0.11736,0.025573,0.049941,4.1981e-06,0.43,0.51,0
0.020706,0.001147,0.057564,0.0013595,0.017677,0.00010825,0,0,0.051853,-0.021213,0,0.00028145,0,0,0,0.057564,0.0013593,0.017677,0.11035,0.025534,0.050081,4.2181e-06,0.44,0.51,0
0.021225,0.0011372,0.057599,0.0012353,0.01765,0.00010203,0,0,0.051934,-0.02134,0,0.00026527,0,0,0,0.057599,0.0012351,0.01765,0.10371,0.025495,0.050211,4.2363e-06,0.45,0.51,0
0.021745,0.0011275,0.057629,0.0011177,0.017624,9.6081e-05,0,0,0.052007,-0.021458,0,0.00024981,0,0,0,0.057629,0.0011175,0.017624,0.097414,0.025457,0.050331,4.2528e-06,0.46,0.51,0
0.022265,0.001118,0.057654,0.0010066,0.017598,9.0387e-05,0,0,0.052073,-0.021569,0,0.00023501,0,0,0,0.057655,0.0010064,0.017598,0.091421,0.02542,0.050442,4.2678e-06,0.47,0.51,0
0.022786,0.0011085,0.057675,0.00090169,0.017573,8.4928e-05,0,0,0.052133,-0.021673,0,0.00022081,0,0,0,0.057675,0.00090156,0.017573,0.085709,0.025383,0.050544,4.2812e-06,0.48,0.51,0
0.023308,0.0010992,0.057692,0.00080276,0.017549,7.9688e-05,0,0,0.052187,-0.021769,0,0.00020719,0,0,0,0.057692,0.00080264,0.017549,0.080257,0.025348,0.050638,4.2932e-06,0.49,0.51,0
0.02383,0.0010901,0.057705,0.00070953,0.017524,7.4654e-05,0,0,0.052235,-0.021859,0,0.0001941,0,0,0,0.057705,0.00070944,0.017524,0.075047,0.025313,0.050724,4.3039e-06,0.5,0.51,0
0.024352,0.0010811,0.057715,0.00062179,0.017501,6.9814e-05,0,0,0.052278,-0.021943,0,0.00018152,0,0,0,0.057715,0.0006217,0.017501,0.070062,0.025279,0.050802,4.3133e-06,0.51,0.51,0
0.024875,0.0010724,0.057721,0.00053927,0.017478,6.5161e-05,0,0,0.052316,-0.02202,0,0.00016942,0,0,0,0.057721,0.0005392,0.017478,0.065291,0.025246,0.050873,4.3215e-06,0.52,0.51,0
0.025399,0.0010638,0.057724,0.00046176,0.017456,6.0685e-05,0,0,0.052349,-0.022092,0,0.00015778,0,0,0,0.057724,0.0004617,0.017456,0.060721,0.025214,0.050938,4.3286e-06,0.53,0.51,0
0.025923,0.0010553,0.057724,0.00038902,0.017434,5.6382e-05,0,0,0.052377,-0.022158,0,0.00014659,0,0,0,0.057724,0.00038897,0.017434,0.056343,0.025182,0.050996,4.3346e-06,0.54,0.51,0
0.026446,0.0010471,0.057722,0.00032083,0.017413,5.2246e-05,0,0,0.052402,-0.022219,0,0.00013584,0,0,0,0.057722,0.00032079,0.017413,0.052151,0.025152,0.051048,4.3397e-06,0.55,0.51,0
0.026971,0.0010391,0.057717,0.00025698,0.017392,4.8274e-05,0,0,0.052422,-0.022276,0,0.00012551,0,0,0,0.057717,0.00025694,0.017392,0.048136,0.025122,0.051095,4.3438e-06,0.56,0.51,0
0.027495,0.0010313,0.05771,0.00019725,0.017372,4.4462e-05,0,0,0.052439,-0.022327,0,0.0001156,0,0,0,0.05771,0.00019721,0.017372,0.044294,0.025093,0.051136,4.3472e-06,0.57,0.51,0
0.028019,0.0010236,0.057701,0.00014143,0.017353,4.0807e-05,0,0,0.052453,-0.022375,0,0.0001061,0,0,0,0.057701,0.0001414,0.017353,0.04062,0.025065,0.051173,4.3497e-06,0.58,0.51,0
0.028544,0.0010162,0.057691,8.9331e-05,0.017334,3.7308e-05,0,0,0.052464,-0.022418,0,9.7001e-05,0,0,0,0.057691,8.9307e-05,0.017334,0.03711,0.025038,0.051205,4.3515e-06,0.59,0.51,0
0.029069,0.001009,0.057678,4.0757e-05,0.017316,3.3963e-05,0,0,0.052471,-0.022457,0,8.8303e-05,0,0,0,0.057678,4.0737e-05,0.017316,0.033761,0.025012,0.051233,4.3527e-06,0.6,0.51,0
0.029593,0.001002,0.057665,-4.4791e-06,0.017298,3.077e-05,0,0,0.052477,-0.022493,0,8.0001e-05,0,0,0,0.057665,-4.4955e-06,0.017298,0.03057,0.024986,0.051257,4.3533e-06,0.61,0.51,0
0.030118,0.0009952,0.05765,-4.6557e-05,0.017281,2.7728e-05,0,0,0.05248,-0.022526,0,7.2092e-05,0,0,0,0.05765,-4.657e-05,0.017281,0.027535,0.024962,0.051278,4.3533e-06,0.62,0.51,0
0.030643,0.0009886,0.057634,-8.565e-05,0.017264,2.4835e-05,0,0,0.05248,-0.022555,0,6.4572e-05,0,0,0,0.057634,-8.5661e-05,0.017264,0.024653,0.024938,0.051295,4.3529e-06,0.63,0.51,0
0.031168,0.00098221,0.057617,-0.00012193,0.017248,2.2092e-05,0,0,0.052479,-0.022582,0,5.7439e-05,0,0,0,0.057617,-0.00012193,0.017248,0.021922,0.024915,0.051309,4.3519e-06,0.64,0.51,0
0.031692,0.00097602,0.057599,-0.00015554,0.017233,1.9496e-05,0,0,0.052476,-0.022605,0,5.0689e-05,0,0,0,0.057599,-0.00015555,0.017233,0.019341,0.024892,0.05132,4.3506e-06,0.65,0.51,0
0.032217,0.00097003,0.057581,-0.00018666,0.017218,1.7046e-05,0,0,0.052471,-0.022627,0,4.4319e-05,0,0,0,0.057581,-0.00018667,0.017218,0.016906,0.024871,0.051328,4.349e-06,0.66,0.51,0
0.032742,0.00096425,0.057562,-0.00021542,0.017204,1.474e-05,0,0,0.052465,-0.022645,0,3.8325e-05,0,0,0,0.057562,-0.00021542,0.017204,0.014618,0.02485,0.051334,4.347e-06,0.67,0.51,0
0.033266,0.00095866,0.057543,-0.00024197,0.01719,1.2578e-05,0,0,0.052458,-0.022662,0,3.2704e-05,0,0,0,0.057543,-0.00024197,0.01719,0.012472,0.02483,0.051339,4.3448e-06,0.68,0.51,0
0.033791,0.00095327,0.057523,-0.00026644,0.017177,1.0558e-05,0,0,0.05245,-0.022676,0,2.7451e-05,0,0,0,0.057523,-0.00026644,0.017177,0.010468,0.024811,0.051341,4.3423e-06,0.69,0.51,0
0.034315,0.00094808,0.057503,-0.00028896,0.017164,8.6773e-06,0,0,0.052441,-0.022689,0,2.2561e-05,0,0,0,0.057503,-0.00028897,0.017164,0.0086027,0.024793,0.051341,4.3396e-06,0.7,0.51,0
0.03484,0.00094308,0.057483,-0.00030966,0.017152,6.9342e-06,0,0,0.052431,-0.0227,0,1.8029e-05,0,0,0,0.057483,-0.00030967,0.017152,0.0068745,0.024775,0.05134,4.3367e-06,0.71,0.51,0
0.035364,0.00093828,0.057464,-0.00032866,0.01714,5.3265e-06,0,0,0.05242,-0.02271,0,1.3849e-05,0,0,0,0.057464,-0.00032866,0.01714,0.0052807,0.024758,0.051337,4.3337e-06,0.72,0.51,0
0.035888,0.00093366,0.057444,-0.00034607,0.017129,3.8516e-06,0,0,0.052409,-0.022718,0,1.0014e-05,0,0,0,0.057444,-0.00034607,0.017129,0.0038186,0.024742,0.051334,4.3306e-06,0.73,0.51,0
0.036412,0.00092924,0.057424,-0.00036199,0.017119,2.5068e-06,0,0,0.052397,-0.022725,0,6.5176e-06,0,0,0,0.057424,-0.00036199,0.017119,0.0024855,0.024727,0.051329,4.3275e-06,0.74,0.51,0
0.036936,0.00092499,0.057404,-0.00037652,0.017108,1.2892e-06,0,0,0.052385,-0.02273,0,3.3519e-06,0,0,0,0.057404,-0.00037652,0.017108,0.0012784,0.024712,0.051323,4.3242e-06,0.75,0.51,0
0.03746,0.00092094,0.057385,-0.00038977,0.017099,1.9569e-07,0,0,0.052373,-0.022735,0,5.0879e-07,0,0,0,0.057385,-0.00038977,0.017099,0.00019406,0.024698,0.051317,4.3209e-06,0.76,0.51,0
0.037984,0.00091706,0.057366,-0.00040183,0.017089,-7.7711e-07,0,0,0.05236,-0.022739,0,-2.0205e-06,0,0,0,0.057366,-0.00040183,0.017089,-0.00077076,0.024685,0.05131,4.3177e-06,0.77,0.51,0
0.038507,0.00091337,0.057348,-0.00041278,0.017081,-1.6328e-06,0,0,0.052348,-0.022741,0,-4.2452e-06,0,0,0,0.057348,-0.00041278,0.017081,-0.0016196,0.024672,0.051302,4.3144e-06,0.78,0.51,0
0.039031,0.00090985,0.05733,-0.00042271,0.017072,-2.375e-06,0,0,0.052335,-0.022743,0,-6.175e-06,0,0,0,0.05733,-0.00042271,0.017072,-0.0023562,0.02466,0.051294,4.3111e-06,0.79,0.51,0
0.039554,0.00090651,0.057313,-0.00043169,0.017064,-3.0078e-06,0,0,0.052323,-0.022745,0,-7.8202e-06,0,0,0,0.057313,-0.00043169,0.017064,-0.0029844,0.024648,0.051286,4.3079e-06,0.8,0.51,0
0.040077,0.00090334,0.057296,-0.00043979,0.017057,-3.5352e-06,0,0,0.052311,-0.022746,0,-9.1915e-06,0,0,0,0.057296,-0.00043979,0.017057,-0.0035083,0.024638,0.051277,4.3048e-06,0.81,0.51,0
0.0406,0.00090035,0.05728,-0.00044709,0.01705,-3.9615e-06,0,0,0.052299,-0.022746,0,-1.03e-05,0,0,0,0.05728,-0.00044709,0.01705,-0.003932,0.024628,0.051269,4.3017e-06,0.82,0.51,0
0.041123,0.00089753,0.057264,-0.00045364,0.017043,-4.2913e-06,0,0,0.052287,-0.022746,0,-1.1157e-05,0,0,0,0.057264,-0.00045364,0.017043,-0.0042599,0.024618,0.05126,4.2988e-06,0.83,0.51,0
0.041646,0.00089488,0.057249,-0.00045951,0.017037,-4.529e-06,0,0,0.052276,-0.022745,0,-1.1775e-05,0,0,0,0.057249,-0.00045951,0.017037,-0.0044966,0.024609,0.051252,4.2959e-06,0.84,0.51,0
0.042169,0.00089239,0.057235,-0.00046476,0.017031,-4.6794e-06,0,0,0.052265,-0.022745,0,-1.2166e-05,0,0,0,0.057235,-0.00046476,0.017031,-0.0046466,0.024601,0.051243,4.2931e-06,0.85,0.51,0
0.042691,0.00089008,0.057222,-0.00046943,0.017026,-4.7474e-06,0,0,0.052255,-0.022744,0,-1.2343e-05,0,0,0,0.057222,-0.00046943,0.017026,-0.0047149,0.024593,0.051235,4.2905e-06,0.86,0.51,0
0.043214,0.00088793,0.05721,-0.00047358,0.017021,-4.7381e-06,0,0,0.052245,-0.022743,0,-1.2319e-05,0,0,0,0.05721,-0.00047358,0.017021,-0.0047062,0.024586,0.051228,4.2881e-06,0.87,0.51,0
0.043736,0.00088594,0.057198,-0.00047725,0.017016,-4.6563e-06,0,0,0.052236,-0.022742,0,-1.2106e-05,0,0,0,0.057198,-0.00047725,0.017016,-0.0046257,0.024579,0.05122,4.2857e-06,0.88,0.51,0
0.044258,0.00088412,0.057187,-0.00048048,0.017012,-4.5074e-06,0,0,0.052228,-0.02274,0,-1.1719e-05,0,0,0,0.057187,-0.00048048,0.017012,-0.0044784,0.024573,0.051213,4.2836e-06,0.89,0.51,0
0.044781,0.00088246,0.057177,-0.0004833,0.017008,-4.2967e-06,0,0,0.05222,-0.022739,0,-1.1171e-05,0,0,0,0.057177,-0.0004833,0.017008,-0.0042695,0.024567,0.051207,4.2816e-06,0.9,0.51,0
0.045303,0.00088096,0.057168,-0.00048575,0.017005,-4.0295e-06,0,0,0.052212,-0.022738,0,-1.0477e-05,0,0,0,0.057168,-0.00048575,0.017005,-0.0040045,0.024562,0.051201,4.2797e-06,0.91,0.51,0
0.045825,0.00087962,0.05716,-0.00048787,0.017002,-3.7113e-06,0,0,0.052206,-0.022736,0,-9.6494e-06,0,0,0,0.05716,-0.00048787,0.017002,-0.0036886,0.024558,0.051195,4.2781e-06,0.92,0.51,0
0.046347,0.00087844,0.057153,-0.00048968,0.016999,-3.3476e-06,0,0,0.0522,-0.022735,0,-8.7037e-06,0,0,0,0.057153,-0.00048968,0.016999,-0.0033275,0.024554,0.05119,4.2766e-06,0.93,0.51,0
0.046869,0.00087741,0.057147,-0.00049119,0.016997,-2.9439e-06,0,0,0.052195,-0.022734,0,-7.6541e-06,0,0,0,0.057147,-0.00049119,0.016997,-0.0029264,0.024551,0.051186,4.2753e-06,0.94,0.51,0
0.047391,0.00087655,0.057141,-0.00049244,0.016995,-2.5059e-06,0,0,0.052191,-0.022733,0,-6.5153e-06,0,0,0,0.057141,-0.00049244,0.016995,-0.0024912,0.024548,0.051182,4.2742e-06,0.95,0.51,0
0.047913,0.00087585,0.057137,-0.00049344,0.016993,-2.0392e-06,0,0,0.052187,-0.022732,0,-5.3019e-06,0,0,0,0.057137,-0.00049344,0.016993,-0.0020274,0.024546,0.051179,4.2733e-06,0.96,0.51,0
0.048435,0.0008753,0.057133,-0.0004942,0.016992,-1.5496e-06,0,0,0.052184,-0.022732,0,-4.0288e-06,0,0,0,0.057133,-0.0004942,0.016992,-0.0015406,0.024544,0.051176,4.2726e-06,0.97,0.51,0
0.048956,0.00087491,0.057131,-0.00049474,0.016991,-1.0426e-06,0,0,0.052182,-0.022731,0,-2.7108e-06,0,0,0,0.057131,-0.00049474,0.016991,-0.0010367,0.024542,0.051175,4.2721e-06,0.98,0.51,0
0.049478,0.00087467,0.057129,-0.00049506,0.01699,-5.2419e-07,0,0,0.052181,-0.022731,0,-1.3629e-06,0,0,0,0.057129,-0.00049506,0.01699,-0.0005212,0.024542,0.051174,4.2718e-06,0.99,0.51,0
0.05,0.00087459,0.057129,-0.00049516,0.01699,-3.0093e-06,0,0,0.05218,-0.022731,0,-7.8242e-06,0,0,0,0.057129,-0.00049516,0.01699,-0.0029921,0.024541,0.051173,4.2717e-06,1,0.51,0
0,0,0.052005,0.022288,0.022288,0.0062188,0,0,0.038633,-2.1684e-19,0,0.016169,0,0,0,0.053254,0.021039,0.022288,11.355,0.032194,0.031609,1.6135e-06,0,0.52,0
0.00038633,0.00016169,0.051338,0.018539,0.020963,0.0057663,0,0,0.039487,-0.0031517,0,0.014992,0,0,0,0.052322,0.017554,0.020963,9.6861,0.03028,0.033195,1.812e-06,0.01,0.52,0
0.00078975,0.0003134,0.051903,0.016289,0.020458,0.0047637,0,0,0.04088,-0.0054195,0,0.012386,0,0,0,0.05253,0.015663,0.020458,7.4883,0.02955,0.034719,2.0119e-06,0.02,0.52,0
0.0012039,0.00044535,0.052216,0.015147,0.020209,0.0038018,0,0,0.04161,-0.006581,0,0.0098848,0,0,0,0.052602,0.014761,0.020209,5.7958,0.029191,0.035433,2.1039e-06,0.03,0.52,0
0.0016219,0.00055723,0.052193,0.01427,0.019939,0.0030591,0,0,0.041931,-0.0073698,0,0.0079537,0,0,0,0.052438,0.014025,0.019939,4.5823,0.028801,0.035825,2.1461e-06,0.04,0.52,0
0.0020425,0.00065279,0.052166,0.013567,0.01972,0.0025173,0,0,0.04218,-0.0079989,0,0.006545,0,0,0,0.052329,0.013403,0.01972,3.7157,0.028484,0.036184,2.1853e-06,0.05,0.52,0
0.0024655,0.00073473,0.052183,0.01296,0.019543,0.0021063,0,0,0.042433,-0.0085581,0,0.0054764,0,0,0,0.052296,0.012847,0.019543,3.065,0.028229,0.036564,2.2295e-06,0.06,0.52,0
0.0028912,0.00080519,0.052251,0.012411,0.019399,0.0017853,0,0,0.042708,-0.0090834,0,0.0046417,0,0,0,0.052331,0.012332,0.019399,2.5607,0.02802,0.036976,2.28e-06,0.07,0.52,0
0.0033197,0.00086583,0.05236,0.011901,0.019278,0.0015275,0,0,0.043006,-0.0095906,0,0.0039716,0,0,0,0.052417,0.011843,0.019278,2.1591,0.027846,0.037415,2.336e-06,0.08,0.52,0
0.0037513,0.00091795,0.052501,0.011416,0.019175,0.0013162,0,0,0.043324,-0.010086,0,0.0034222,0,0,0,0.052543,0.011374,0.019175,1.8331,0.027698,0.037876,2.3965e-06,0.09,0.52,0
0.0041862,0.00096261,0.052667,0.010951,0.019086,0.0011401,0,0,0.043656,-0.010574,0,0.0029642,0,0,0,0.052698,0.01092,0.019086,1.5643,0.027568,0.038353,2.4606e-06,0.1,0.52,0
0.0046244,0.0010007,0.052852,0.010502,0.019006,0.00099143,0,0,0.043999,-0.011055,0,0.0025777,0,0,0,0.052875,0.010479,0.019006,1.3404,0.027453,0.038841,2.5274e-06,0.11,0.52,0
0.0050662,0.001033,0.053049,0.010065,0.018934,0.0008648,0,0,0.044349,-0.01153,0,0.0022485,0,0,0,0.053066,0.010048,0.018934,1.1521,0.027349,0.039335,2.5961e-06,0.12,0.52,0
0.0055114,0.00106,0.053255,0.0096401,0.018869,0.00075616,0,0,0.044703,-0.011997,0,0.001966,0,0,0,0.053268,0.009627,0.018869,0.99294,0.027255,0.039833,2.6663e-06,0.13,0.52,0
0.0059602,0.0010825,0.053468,0.0092256,0.018808,0.00066246,0,0,0.045058,-0.012457,0,0.0017224,0,0,0,0.053477,0.0092157,0.018808,0.85766,0.027167,0.04033,2.7374e-06,0.14,0.52,0
0.0064126,0.0011008,0.053683,0.0088212,0.018751,0.00058135,0,0,0.045411,-0.012909,0,0.0015115,0,0,0,0.053691,0.0088137,0.018751,0.74231,0.027085,0.040826,2.809e-06,0.15,0.52,0
0.0068684,0.0011154,0.0539,0.0084268,0.018698,0.00051098,0,0,0.045762,-0.013353,0,0.0013285,0,0,0,0.053906,0.008421,0.018698,0.64372,0.027008,0.041316,2.8807e-06,0.16,0.52,0
0.0073278,0.0011267,0.054116,0.008042,0.018647,0.00044982,0,0,0.046109,-0.013787,0,0.0011695,0,0,0,0.05412,0.0080376,0.018647,0.55931,0.026935,0.0418,2.952e-06,0.17,0.52,0
0.0077906,0.001135,0.054329,0.007667,0.018599,0.00039665,0,0,0.046449,-0.014211,0,0.0010313,0,0,0,0.054333,0.0076637,0.018599,0.48699,0.026865,0.042276,3.0229e-06,0.18,0.52,0
0.0082568,0.0011406,0.05454,0.0073018,0.018552,0.00035042,0,0,0.046783,-0.014626,0,0.00091109,0,0,0,0.054542,0.0072992,0.018552,0.425,0.026798,0.042742,3.0928e-06,0.19,0.52,0
0.0087263,0.0011439,0.054745,0.0069465,0.018508,0.00031026,0,0,0.047109,-0.015029,0,0.00080667,0,0,0,0.054747,0.0069445,0.018508,0.37188,0.026733,0.043198,3.1617e-06,0.2,0.52,0
0.009199,0.001145,0.054946,0.0066012,0.018464,0.00027541,0,0,0.047426,-0.015422,0,0.00071606,0,0,0,0.054948,0.0065996,0.018464,0.32638,0.02667,0.043642,3.2293e-06,0.21,0.52,0
0.0096748,0.0011443,0.055141,0.0062659,0.018422,0.00024522,0,0,0.047734,-0.015803,0,0.00063757,0,0,0,0.055142,0.0062647,0.018422,0.28746,0.02661,0.044075,3.2954e-06,0.22,0.52,0
0.010154,0.0011419,0.055329,0.0059407,0.018381,0.00021912,0,0,0.048032,-0.016172,0,0.00056972,0,0,0,0.05533,0.0059398,0.018381,0.2542,0.02655,0.044493,3.3598e-06,0.23,0.52,0
0.010635,0.001138,0.05551,0.0056258,0.018341,0.00019662,0,0,0.04832,-0.016529,0,0.00051121,0,0,0,0.05551,0.005625,0.018341,0.22583,0.026492,0.044899,3.4223e-06,0.24,0.52,0
0.01112,0.0011328,0.055683,0.005321,0.018301,0.00017727,0,0,0.048597,-0.016874,0,0.0004609,0,0,0,0.055684,0.0053204,0.018301,0.20167,0.026435,0.04529,3.483e-06,0.25,0.52,0
0.011607,0.0011264,0.055849,0.0050266,0.018263,0.00016067,0,0,0.048863,-0.017207,0,0.00041776,0,0,0,0.05585,0.005026,0.018263,0.18114,0.02638,0.045667,3.5416e-06,0.26,0.52,0
0.012097,0.0011191,0.056007,0.0047423,0.018225,0.00014649,0,0,0.049117,-0.017527,0,0.00038089,0,0,0,0.056008,0.0047419,0.018225,0.16373,0.026325,0.04603,3.598e-06,0.27,0.52,0
0.01259,0.001111,0.056158,0.0044682,0.018188,0.00013441,0,0,0.049361,-0.017835,0,0.00034948,0,0,0,0.056158,0.0044679,0.018188,0.14899,0.026271,0.046378,3.6522e-06,0.28,0.52,0
0.013085,0.001102,0.0563,0.0042043,0.018151,0.00012416,0,0,0.049593,-0.018131,0,0.00032281,0,0,0,0.0563,0.0042041,0.018151,0.13655,0.026218,0.046711,3.7042e-06,0.29,0.52,0
0.013582,0.0010925,0.056434,0.0039505,0.018115,0.00011548,0,0,0.049814,-0.018414,0,0.00030024,0,0,0,0.056434,0.0039503,0.018115,0.12607,0.026166,0.047029,3.7538e-06,0.3,0.52,0
0.014081,0.0010824,0.05656,0.0037067,0.01808,0.00010816,0,0,0.050024,-0.018685,0,0.00028121,0,0,0,0.05656,0.0037064,0.01808,0.11725,0.026115,0.047333,3.8011e-06,0.31,0.52,0
0.014582,0.0010719,0.056678,0.0034726,0.018045,0.000102,0,0,0.050223,-0.018944,0,0.00026519,0,0,0,0.056678,0.0034724,0.018045,0.10984,0.026065,0.047622,3.8461e-06,0.32,0.52,0
0.015085,0.0010611,0.056788,0.0032483,0.018011,9.6823e-05,0,0,0.05041,-0.019192,0,0.00025174,0,0,0,0.056788,0.0032481,0.018011,0.10361,0.026016,0.047897,3.8886e-06,0.33,0.52,0
0.01559,0.0010499,0.056891,0.0030335,0.017977,9.2482e-05,0,0,0.050588,-0.019427,0,0.00024045,0,0,0,0.056891,0.0030333,0.017977,0.098386,0.025967,0.048157,3.9289e-06,0.34,0.52,0
0.016097,0.0010386,0.056986,0.002828,0.017944,8.8837e-05,0,0,0.050754,-0.019651,0,0.00023098,0,0,0,0.056986,0.0028279,0.017944,0.093984,0.025919,0.048404,3.9669e-06,0.35,0.52,0
0.016605,0.0010271,0.057074,0.0026317,0.017912,8.5769e-05,0,0,0.050911,-0.019864,0,0.000223,0,0,0,0.057074,0.0026316,0.017912,0.090264,0.025872,0.048637,4.0026e-06,0.36,0.52,0
0.017115,0.0010155,0.057155,0.0024443,0.01788,8.3172e-05,0,0,0.051057,-0.020066,0,0.00021625,0,0,0,0.057155,0.0024442,0.01788,0.087102,0.025826,0.048857,4.0361e-06,0.37,0.52,0
0.017626,0.0010038,0.057229,0.0022657,0.017848,8.0954e-05,0,0,0.051194,-0.020257,0,0.00021048,0,0,0,0.057229,0.0022655,0.017848,0.08439,0.025781,0.049064,4.0674e-06,0.38,0.52,0
0.018139,0.00099217,0.057296,0.0020955,0.017817,7.9035e-05,0,0,0.051322,-0.020438,0,0.00020549,0,0,0,0.057296,0.0020954,0.017817,0.082035,0.025736,0.049259,4.0965e-06,0.39,0.52,0
0.018653,0.00098054,0.057357,0.0019336,0.017787,7.7347e-05,0,0,0.05144,-0.020609,0,0.0002011,0,0,0,0.057357,0.0019335,0.017787,0.07996,0.025692,0.049441,4.1236e-06,0.4,0.52,0
0.019168,0.00096898,0.057411,0.0017797,0.017757,7.5831e-05,0,0,0.05155,-0.020771,0,0.00019716,0,0,0,0.057412,0.0017795,0.017757,0.078098,0.025649,0.049612,4.1487e-06,0.41,0.52,0
0.019684,0.00095751,0.05746,0.0016335,0.017728,7.4436e-05,0,0,0.051652,-0.020923,0,0.00019353,0,0,0,0.05746,0.0016334,0.017728,0.076394,0.025607,0.049771,4.1719e-06,0.42,0.52,0
0.020201,0.00094616,0.057504,0.0014948,0.0177,7.3122e-05,0,0,0.051746,-0.021066,0,0.00019012,0,0,0,0.057504,0.0014947,0.0177,0.074801,0.025566,0.04992,4.1932e-06,0.43,0.52,0
0.020719,0.00093495,0.057542,0.0013634,0.017672,7.1852e-05,0,0,0.051832,-0.021201,0,0.00018682,0,0,0,0.057542,0.0013633,0.017672,0.073281,0.025526,0.050058,4.2128e-06,0.44,0.52,0
0.021238,0.0009239,0.057575,0.001239,0.017644,7.06e-05,0,0,0.05191,-0.021327,0,0.00018356,0,0,0,0.057575,0.0012389,0.017644,0.071802,0.025486,0.050187,4.2306e-06,0.45,0.52,0
0.021757,0.00091303,0.057604,0.0011213,0.017618,6.9341e-05,0,0,0.051982,-0.021445,0,0.00018029,0,0,0,0.057604,0.0011212,0.017618,0.070339,0.025448,0.050306,4.2468e-06,0.46,0.52,0
0.022277,0.00090236,0.057628,0.0010101,0.017591,6.8058e-05,0,0,0.052047,-0.021556,0,0.00017695,0,0,0,0.057628,0.00101,0.017591,0.068873,0.02541,0.050416,4.2615e-06,0.47,0.52,0
0.022798,0.00089189,0.057648,0.00090509,0.017566,6.6737e-05,0,0,0.052106,-0.021659,0,0.00017352,0,0,0,0.057648,0.00090502,0.017566,0.067388,0.025373,0.050517,4.2747e-06,0.48,0.52,0
0.023319,0.00088163,0.057663,0.00080607,0.017541,6.5369e-05,0,0,0.052159,-0.021755,0,0.00016996,0,0,0,0.057664,0.000806,0.017541,0.065873,0.025337,0.05061,4.2865e-06,0.49,0.52,0
0.023841,0.0008716,0.057676,0.00071278,0.017517,6.3948e-05,0,0,0.052207,-0.021845,0,0.00016626,0,0,0,0.057676,0.0007127,0.017517,0.064321,0.025302,0.050695,4.297e-06,0.5,0.52,0
0.024363,0.0008618,0.057685,0.00062496,0.017493,6.2468e-05,0,0,0.052249,-0.021928,0,0.00016242,0,0,0,0.057685,0.00062489,0.017493,0.062727,0.025267,0.050773,4.3062e-06,0.51,0.52,0
0.024886,0.00085224,0.05769,0.00054238,0.01747,6.093e-05,0,0,0.052287,-0.022006,0,0.00015842,0,0,0,0.05769,0.00054231,0.01747,0.061088,0.025234,0.050843,4.3143e-06,0.52,0.52,0
0.025409,0.00084292,0.057693,0.0004648,0.017447,5.9334e-05,0,0,0.052319,-0.022077,0,0.00015427,0,0,0,0.057693,0.00046474,0.017447,0.059404,0.025202,0.050908,4.3213e-06,0.53,0.52,0
0.025933,0.00083384,0.057693,0.00039201,0.017426,5.7681e-05,0,0,0.052348,-0.022143,0,0.00014997,0,0,0,0.057693,0.00039195,0.017426,0.057676,0.02517,0.050966,4.3273e-06,0.54,0.52,0
0.026456,0.000825,0.05769,0.00032376,0.017404,5.5977e-05,0,0,0.052372,-0.022205,0,0.00014554,0,0,0,0.05769,0.0003237,0.017404,0.055908,0.025139,0.051018,4.3324e-06,0.55,0.52,0
0.02698,0.00081641,0.057686,0.00025984,0.017384,5.4225e-05,0,0,0.052393,-0.022261,0,0.00014099,0,0,0,0.057686,0.00025979,0.017384,0.054102,0.02511,0.051065,4.3365e-06,0.56,0.52,0
0.027504,0.00080807,0.057679,0.00020005,0.017364,5.2432e-05,0,0,0.05241,-0.022313,0,0.00013632,0,0,0,0.057679,0.0002,0.017364,0.052265,0.025081,0.051106,4.3398e-06,0.57,0.52,0
0.028028,0.00079997,0.05767,0.00014416,0.017344,5.0603e-05,0,0,0.052423,-0.02236,0,0.00013157,0,0,0,0.05767,0.00014412,0.017344,0.0504,0.025053,0.051143,4.3424e-06,0.58,0.52,0
0.028553,0.00079212,0.05766,9.1998e-05,0.017326,4.8745e-05,0,0,0.052434,-0.022403,0,0.00012674,0,0,0,0.05766,9.1957e-05,0.017326,0.048515,0.025026,0.051176,4.3443e-06,0.59,0.52,0
0.029077,0.00078451,0.057648,4.3354e-05,0.017307,4.6865e-05,0,0,0.052442,-0.022443,0,0.00012185,0,0,0,0.057648,4.3316e-05,0.017307,0.046614,0.024999,0.051204,4.3455e-06,0.6,0.52,0
0.029601,0.00077714,0.057634,-1.9548e-06,0.01729,4.497e-05,0,0,0.052448,-0.022479,0,0.00011692,0,0,0,0.057634,-1.9899e-06,0.01729,0.044705,0.024974,0.051228,4.3462e-06,0.61,0.52,0
0.030126,0.00077001,0.05762,-4.4108e-05,0.017273,4.3068e-05,0,0,0.052451,-0.022512,0,0.00011198,0,0,0,0.05762,-4.414e-05,0.017273,0.042793,0.024949,0.051249,4.3463e-06,0.62,0.52,0
0.03065,0.00076312,0.057604,-8.3279e-05,0.017256,4.1166e-05,0,0,0.052452,-0.022541,0,0.00010703,0,0,0,0.057604,-8.3309e-05,0.017256,0.040886,0.024926,0.051266,4.3459e-06,0.63,0.52,0
0.031175,0.00075646,0.057588,-0.00011964,0.01724,3.9269e-05,0,0,0.052451,-0.022568,0,0.0001021,0,0,0,0.057588,-0.00011966,0.01724,0.038989,0.024903,0.051281,4.3451e-06,0.64,0.52,0
0.031699,0.00075003,0.05757,-0.00015334,0.017225,3.7385e-05,0,0,0.052449,-0.022592,0,9.7202e-05,0,0,0,0.05757,-0.00015336,0.017225,0.037108,0.024881,0.051292,4.3439e-06,0.65,0.52,0
0.032224,0.00074383,0.057552,-0.00018454,0.01721,3.5521e-05,0,0,0.052445,-0.022613,0,9.2353e-05,0,0,0,0.057552,-0.00018456,0.01721,0.035249,0.024859,0.051301,4.3424e-06,0.66,0.52,0
0.032748,0.00073786,0.057534,-0.00021339,0.017196,3.3681e-05,0,0,0.052439,-0.022632,0,8.757e-05,0,0,0,0.057534,-0.00021341,0.017196,0.033417,0.024839,0.051308,4.3405e-06,0.67,0.52,0
0.033273,0.00073211,0.057515,-0.00024002,0.017183,3.1871e-05,0,0,0.052432,-0.022649,0,8.2865e-05,0,0,0,0.057515,-0.00024004,0.017183,0.031618,0.024819,0.051312,4.3384e-06,0.68,0.52,0
0.033797,0.00072657,0.057496,-0.00026459,0.01717,3.0097e-05,0,0,0.052425,-0.022664,0,7.8253e-05,0,0,0,0.057496,-0.0002646,0.01717,0.029855,0.0248,0.051315,4.336e-06,0.69,0.52,0
0.034321,0.00072125,0.057477,-0.0002872,0.017157,2.8363e-05,0,0,0.052416,-0.022677,0,7.3744e-05,0,0,0,0.057477,-0.00028721,0.017157,0.028133,0.024782,0.051316,4.3335e-06,0.7,0.52,0
0.034845,0.00071614,0.057457,-0.00030799,0.017145,2.6673e-05,0,0,0.052406,-0.022689,0,6.9351e-05,0,0,0,0.057457,-0.00030801,0.017145,0.026457,0.024765,0.051315,4.3307e-06,0.71,0.52,0
0.035369,0.00071124,0.057438,-0.00032708,0.017133,2.5031e-05,0,0,0.052396,-0.022698,0,6.5081e-05,0,0,0,0.057438,-0.00032709,0.017133,0.024828,0.024748,0.051313,4.3279e-06,0.72,0.52,0
0.035893,0.00070654,0.057419,-0.00034458,0.017122,2.344e-05,0,0,0.052385,-0.022707,0,6.0944e-05,0,0,0,0.057419,-0.00034459,0.017122,0.023251,0.024732,0.05131,4.3249e-06,0.73,0.52,0
0.036417,0.00070204,0.057399,-0.00036059,0.017112,2.1903e-05,0,0,0.052374,-0.022714,0,5.6947e-05,0,0,0,0.057399,-0.0003606,0.017112,0.021727,0.024717,0.051306,4.3218e-06,0.74,0.52,0
0.036941,0.00069774,0.05738,-0.00037522,0.017102,2.0421e-05,0,0,0.052362,-0.02272,0,5.3094e-05,0,0,0,0.05738,-0.00037523,0.017102,0.020258,0.024702,0.051301,4.3187e-06,0.75,0.52,0
0.037464,0.00069364,0.057362,-0.00038857,0.017092,1.8997e-05,0,0,0.052351,-0.022725,0,4.9392e-05,0,0,0,0.057362,-0.00038857,0.017092,0.018847,0.024688,0.051295,4.3156e-06,0.76,0.52,0
0.037988,0.00068972,0.057343,-0.00040071,0.017083,1.7631e-05,0,0,0.052339,-0.022729,0,4.5842e-05,0,0,0,0.057343,-0.00040072,0.017083,0.017494,0.024675,0.051288,4.3124e-06,0.77,0.52,0
0.038511,0.000686,0.057326,-0.00041175,0.017074,1.6326e-05,0,0,0.052327,-0.022732,0,4.2447e-05,0,0,0,0.057326,-0.00041175,0.017074,0.016201,0.024663,0.051281,4.3092e-06,0.78,0.52,0
0.039034,0.00068246,0.057308,-0.00042176,0.017066,1.508e-05,0,0,0.052315,-0.022734,0,3.9208e-05,0,0,0,0.057308,-0.00042177,0.017066,0.014967,0.024651,0.051274,4.3061e-06,0.79,0.52,0
0.039557,0.0006791,0.057291,-0.00043082,0.017058,1.3895e-05,0,0,0.052303,-0.022736,0,3.6126e-05,0,0,0,0.057291,-0.00043083,0.017058,0.013792,0.024639,0.051266,4.303e-06,0.8,0.52,0
0.04008,0.00067593,0.057275,-0.00043901,0.017051,1.2769e-05,0,0,0.052291,-0.022737,0,3.3198e-05,0,0,0,0.057275,-0.00043901,0.017051,0.012676,0.024629,0.051258,4.3e-06,0.81,0.52,0
0.040603,0.00067293,0.057259,-0.00044638,0.017044,1.1701e-05,0,0,0.05228,-0.022737,0,3.0424e-05,0,0,0,0.057259,-0.00044639,0.017044,0.011619,0.024619,0.05125,4.297e-06,0.82,0.52,0
0.041126,0.00067011,0.057244,-0.00045302,0.017037,1.0692e-05,0,0,0.052269,-0.022737,0,2.78e-05,0,0,0,0.057244,-0.00045302,0.017037,0.010618,0.024609,0.051242,4.2941e-06,0.83,0.52,0
0.041648,0.00066746,0.057229,-0.00045896,0.017031,9.7395e-06,0,0,0.052258,-0.022737,0,2.5323e-05,0,0,0,0.057229,-0.00045896,0.017031,0.0096732,0.024601,0.051234,4.2914e-06,0.84,0.52,0
0.042171,0.00066498,0.057216,-0.00046428,0.017025,8.8412e-06,0,0,0.052247,-0.022737,0,2.2987e-05,0,0,0,0.057216,-0.00046428,0.017025,0.0087823,0.024592,0.051226,4.2887e-06,0.85,0.52,0
0.042694,0.00066268,0.057203,-0.00046902,0.01702,7.9954e-06,0,0,0.052237,-0.022736,0,2.0788e-05,0,0,0,0.057203,-0.00046902,0.01702,0.0079433,0.024585,0.051218,4.2862e-06,0.86,0.52,0
0.043216,0.00066053,0.057191,-0.00047323,0.017015,7.1999e-06,0,0,0.052228,-0.022735,0,1.872e-05,0,0,0,0.057191,-0.00047323,0.017015,0.007154,0.024577,0.05121,4.2838e-06,0.87,0.52,0
0.043738,0.00065856,0.057179,-0.00047695,0.017011,6.452e-06,0,0,0.052219,-0.022734,0,1.6775e-05,0,0,0,0.057179,-0.00047695,0.017011,0.0064117,0.024571,0.051203,4.2815e-06,0.88,0.52,0
0.04426,0.00065675,0.057169,-0.00048023,0.017007,5.749e-06,0,0,0.052211,-0.022733,0,1.4947e-05,0,0,0,0.057169,-0.00048023,0.017007,0.0057138,0.024565,0.051197,4.2794e-06,0.89,0.52,0
0.044782,0.0006551,0.057159,-0.00048311,0.017003,5.0878e-06,0,0,0.052203,-0.022732,0,1.3228e-05,0,0,0,0.057159,-0.00048311,0.017003,0.0050573,0.02456,0.05119,4.2775e-06,0.9,0.52,0
0.045304,0.00065361,0.05715,-0.00048561,0.016999,4.4652e-06,0,0,0.052196,-0.022731,0,1.161e-05,0,0,0,0.05715,-0.00048561,0.016999,0.0044389,0.024555,0.051184,4.2757e-06,0.91,0.52,0
0.045826,0.00065228,0.057142,-0.00048776,0.016996,3.8779e-06,0,0,0.05219,-0.022729,0,1.0083e-05,0,0,0,0.057142,-0.00048776,0.016996,0.0038554,0.02455,0.051179,4.2741e-06,0.92,0.52,0
0.046348,0.00065111,0.057135,-0.00048961,0.016994,3.3223e-06,0,0,0.052184,-0.022728,0,8.638e-06,0,0,0,0.057135,-0.00048961,0.016994,0.0033033,0.024546,0.051174,4.2726e-06,0.93,0.52,0
0.04687,0.0006501,0.057129,-0.00049115,0.016991,2.7947e-06,0,0,0.052179,-0.022727,0,7.2663e-06,0,0,0,0.057129,-0.00049115,0.016991,0.002779,0.024543,0.05117,4.2714e-06,0.94,0.52,0
0.047392,0.00064925,0.057124,-0.00049243,0.016989,2.2914e-06,0,0,0.052175,-0.022726,0,5.9577e-06,0,0,0,0.057124,-0.00049243,0.016989,0.0022787,0.02454,0.051166,4.2703e-06,0.95,0.52,0
0.047913,0.00064855,0.05712,-0.00049345,0.016988,1.8085e-06,0,0,0.052171,-0.022726,0,4.7021e-06,0,0,0,0.05712,-0.00049345,0.016988,0.0017985,0.024538,0.051164,4.2695e-06,0.96,0.52,0
0.048435,0.00064801,0.057116,-0.00049423,0.016987,1.3419e-06,0,0,0.052168,-0.022725,0,3.489e-06,0,0,0,0.057116,-0.00049423,0.016987,0.0013346,0.024536,0.051161,4.2688e-06,0.97,0.52,0
0.048957,0.00064762,0.057114,-0.00049478,0.016986,8.8774e-07,0,0,0.052167,-0.022725,0,2.3081e-06,0,0,0,0.057114,-0.00049478,0.016986,0.00088291,0.024535,0.051159,4.2683e-06,0.98,0.52,0
0.049478,0.00064739,0.057112,-0.00049511,0.016985,4.418e-07,0,0,0.052165,-0.022724,0,1.1487e-06,0,0,0,0.057112,-0.00049511,0.016985,0.00043941,0.024534,0.051159,4.268e-06,0.99,0.52,0
0.05,0.00064731,0.057112,-0.00049522,0.016985,-2.9744e-06,0,0,0.052165,-0.022724,0,-7.7335e-06,0,0,0,0.057112,-0.00049522,0.016985,-0.0029583,0.024534,0.051158,4.2679e-06,1,0.52,0
0,0,0.051409,0.022033,0.022033,0.0052242,0,0,0.03819,2.1684e-19,0,0.013583,0,0,0,0.052311,0.021131,0.022033,9.7894,0.031825,0.030739,1.4874e-06,0,0.53,0
0.0003819,0.00013583,0.051066,0.019332,0.02112,0.0049882,0,0,0.03893,-0.0023232,0,0.012969,0,0,0,0.051832,0.018567,0.02112,8.7261,0.030506,0.032065,1.6571e-06,0.01,0.53,0
0.00077861,0.00026575,0.051644,0.01734,0.020695,0.0044289,0,0,0.040233,-0.0043614,0,0.011515,0,0,0,0.052206,0.016778,0.020695,7.2394,0.029893,0.033641,1.8663e-06,0.02,0.53,0
0.0011866,0.00038319,0.052048,0.015886,0.02038,0.0037028,0,0,0.041168,-0.0058429,0,0.0096273,0,0,0,0.052423,0.01551,0.02038,5.7867,0.029438,0.034735,2.0106e-06,0.03,0.53,0
0.001602,0.0004858,0.052277,0.014849,0.020138,0.0030322,0,0,0.041781,-0.0068756,0,0.0078837,0,0,0,0.052521,0.014605,0.020138,4.6017,0.029088,0.035475,2.1061e-06,0.04,0.53,0
0.0020222,0.00057418,0.052389,0.01402,0.019922,0.0024788,0,0,0.042206,-0.0076736,0,0.0064449,0,0,0,0.052548,0.01386,0.019922,3.6812,0.028777,0.036041,2.1769e-06,0.05,0.53,0
0.0024461,0.00065,0.052475,0.013321,0.019739,0.0020373,0,0,0.042557,-0.0083436,0,0.005297,0,0,0,0.052581,0.013215,0.019739,2.9705,0.028512,0.036544,2.2396e-06,0.06,0.53,0
0.0028733,0.00071488,0.05257,0.012703,0.019582,0.0016836,0,0,0.042885,-0.0089424,0,0.0043774,0,0,0,0.052641,0.012632,0.019582,2.4139,0.028285,0.037027,2.3006e-06,0.07,0.53,0
0.0033038,0.00077024,0.052685,0.012141,0.019448,0.0013973,0,0,0.043208,-0.0094992,0,0.003633,0,0,0,0.052733,0.012092,0.019448,1.9715,0.028091,0.037508,2.3626e-06,0.08,0.53,0
0.0037375,0.00081726,0.05282,0.011616,0.019331,0.0011627,0,0,0.043536,-0.010029,0,0.003023,0,0,0,0.052852,0.011583,0.019331,1.615,0.027922,0.037993,2.4265e-06,0.09,0.53,0
0.0041745,0.00085695,0.052973,0.011119,0.019228,0.00096829,0,0,0.043869,-0.010541,0,0.0025176,0,0,0,0.052995,0.011096,0.019228,1.3246,0.027773,0.038483,2.4923e-06,0.1,0.53,0
0.0046149,0.00089017,0.053141,0.010643,0.019135,0.00080583,0,0,0.044207,-0.01104,0,0.0020952,0,0,0,0.053156,0.010628,0.019135,1.0859,0.02764,0.038977,2.5597e-06,0.11,0.53,0
0.0050587,0.00091764,0.053321,0.010186,0.019052,0.00066912,0,0,0.04455,-0.011526,0,0.0017397,0,0,0,0.053331,0.010175,0.019052,0.8885,0.02752,0.039473,2.6284e-06,0.12,0.53,0
0.0055059,0.00094001,0.05351,0.0097432,0.018976,0.00055355,0,0,0.044894,-0.012002,0,0.0014392,0,0,0,0.053517,0.0097362,0.018976,0.72451,0.027409,0.03997,2.6981e-06,0.13,0.53,0
0.0059565,0.00095783,0.053704,0.009314,0.018905,0.00045555,0,0,0.045238,-0.012469,0,0.0011844,0,0,0,0.053709,0.0093093,0.018905,0.58791,0.027308,0.040464,2.7683e-06,0.14,0.53,0
0.0064106,0.0009716,0.053902,0.0088972,0.01884,0.00037234,0,0,0.045581,-0.012925,0,0.00096807,0,0,0,0.053905,0.0088941,0.01884,0.47398,0.027213,0.040954,2.8388e-06,0.15,0.53,0
0.0068681,0.00098175,0.054102,0.008492,0.018778,0.0003017,0,0,0.045921,-0.013372,0,0.00078441,0,0,0,0.054104,0.00849,0.018778,0.37897,0.027124,0.041439,2.9093e-06,0.16,0.53,0
0.0073291,0.00098867,0.054302,0.008098,0.01872,0.00024183,0,0,0.046256,-0.013808,0,0.00062875,0,0,0,0.054303,0.0080968,0.01872,0.29987,0.02704,0.041917,2.9793e-06,0.17,0.53,0
0.0077933,0.00099272,0.0545,0.0077151,0.018665,0.00019124,0,0,0.046587,-0.014234,0,0.00049724,0,0,0,0.054501,0.0077143,0.018665,0.2342,0.02696,0.042386,3.0487e-06,0.18,0.53,0
0.0082608,0.00099422,0.054696,0.0073429,0.018612,0.0001487,0,0,0.04691,-0.014649,0,0.00038663,0,0,0,0.054697,0.0073425,0.018612,0.17992,0.026884,0.042846,3.1172e-06,0.19,0.53,0
0.0087315,0.00099345,0.054888,0.0069815,0.018561,0.00011315,0,0,0.047225,-0.015053,0,0.00029419,0,0,0,0.054888,0.0069813,0.018561,0.13532,0.02681,0.043295,3.1845e-06,0.2,0.53,0
0.0092053,0.00099068,0.055076,0.0066309,0.018512,8.3673e-05,0,0,0.047533,-0.015445,0,0.00021755,0,0,0,0.055076,0.0066307,0.018512,0.098959,0.02674,0.043732,3.2506e-06,0.21,0.53,0
0.0096821,0.00098613,0.055258,0.006291,0.018465,5.9492e-05,0,0,0.047831,-0.015826,0,0.00015468,0,0,0,0.055258,0.0062909,0.018465,0.06961,0.026671,0.044157,3.3151e-06,0.22,0.53,0
0.010162,0.00098004,0.055434,0.0059617,0.018419,3.9919e-05,0,0,0.04812,-0.016194,0,0.00010379,0,0,0,0.055434,0.0059617,0.018419,0.046232,0.026605,0.04457,3.378e-06,0.23,0.53,0
0.010644,0.00097259,0.055605,0.0056432,0.018374,2.4353e-05,0,0,0.048399,-0.01655,0,6.3317e-05,0,0,0,0.055605,0.0056432,0.018374,0.027928,0.026541,0.044968,3.439e-06,0.24,0.53,0
0.01113,0.00096396,0.055768,0.0053354,0.018331,1.2259e-05,0,0,0.048668,-0.016894,0,3.1873e-05,0,0,0,0.055768,0.0053354,0.018331,0.013927,0.026478,0.045353,3.4982e-06,0.25,0.53,0
0.011618,0.00095431,0.055924,0.0050382,0.018289,3.1646e-06,0,0,0.048926,-0.017226,0,8.2279e-06,0,0,0,0.055924,0.0050382,0.018289,0.0035632,0.026417,0.045724,3.5553e-06,0.26,0.53,0
0.012108,0.0009438,0.056073,0.0047516,0.018247,-3.3504e-06,0,0,0.049174,-0.017545,0,-8.7112e-06,0,0,0,0.056073,0.0047516,0.018247,-0.0037405,0.026357,0.046081,3.6102e-06,0.27,0.53,0
0.012601,0.00093255,0.056215,0.0044756,0.018207,-7.6611e-06,0,0,0.04941,-0.017851,0,-1.9919e-05,0,0,0,0.056215,0.0044756,0.018207,-0.0084839,0.026299,0.046422,3.6631e-06,0.28,0.53,0
0.013097,0.00092068,0.056349,0.00421,0.018168,-1.0101e-05,0,0,0.049636,-0.018145,0,-2.6264e-05,0,0,0,0.056349,0.00421,0.018168,-0.0111,0.026242,0.04675,3.7137e-06,0.29,0.53,0
0.013594,0.00090832,0.056476,0.0039547,0.018129,-1.0969e-05,0,0,0.04985,-0.018427,0,-2.852e-05,0,0,0,0.056476,0.0039547,0.018129,-0.011966,0.026187,0.047063,3.762e-06,0.3,0.53,0
0.014094,0.00089555,0.056595,0.0037096,0.018091,-1.0529e-05,0,0,0.050055,-0.018696,0,-2.7375e-05,0,0,0,0.056595,0.0037096,0.018091,-0.011407,0.026132,0.047361,3.808e-06,0.31,0.53,0
0.014595,0.00088246,0.056706,0.0034746,0.018054,-9.0163e-06,0,0,0.050248,-0.018954,0,-2.3442e-05,0,0,0,0.056706,0.0034746,0.018054,-0.0097046,0.026078,0.047646,3.8518e-06,0.32,0.53,0
0.015099,0.00086914,0.056811,0.0032494,0.018018,-6.6397e-06,0,0,0.050431,-0.019199,0,-1.7263e-05,0,0,0,0.056811,0.0032494,0.018018,-0.0071027,0.026026,0.047915,3.8932e-06,0.33,0.53,0
0.015604,0.00085565,0.056908,0.0030339,0.017982,-3.5833e-06,0,0,0.050603,-0.019433,0,-9.3165e-06,0,0,0,0.056908,0.0030339,0.017982,-0.0038109,0.025975,0.048172,3.9324e-06,0.34,0.53,0
0.016111,0.00084207,0.056998,0.0028279,0.017948,-8.9202e-09,0,0,0.050765,-0.019656,0,-2.3193e-08,0,0,0,0.056998,0.0028279,0.017948,-9.435e-06,0.025924,0.048414,3.9693e-06,0.35,0.53,0
0.016619,0.00082845,0.057081,0.0026312,0.017914,3.9416e-06,0,0,0.050917,-0.019867,0,1.0248e-05,0,0,0,0.057081,0.0026312,0.017914,0.0041476,0.025875,0.048643,4.0041e-06,0.36,0.53,0
0.017129,0.00081483,0.057157,0.0024435,0.01788,8.1449e-06,0,0,0.05106,-0.020068,0,2.1177e-05,0,0,0,0.057157,0.0024435,0.01788,0.0085293,0.025827,0.04886,4.0366e-06,0.37,0.53,0
0.01764,0.00080128,0.057227,0.0022646,0.017847,1.2494e-05,0,0,0.051193,-0.020258,0,3.2485e-05,0,0,0,0.057227,0.0022646,0.017847,0.013025,0.02578,0.049063,4.0671e-06,0.38,0.53,0
0.018153,0.00078781,0.057291,0.0020943,0.017815,1.6898e-05,0,0,0.051318,-0.020438,0,4.3935e-05,0,0,0,0.057291,0.0020943,0.017815,0.017541,0.025733,0.049255,4.0954e-06,0.39,0.53,0
0.018667,0.00077448,0.057348,0.0019323,0.017784,2.1278e-05,0,0,0.051433,-0.020607,0,5.5324e-05,0,0,0,0.057348,0.0019323,0.017784,0.022,0.025688,0.049434,4.1218e-06,0.4,0.53,0
0.019182,0.0007613,0.0574,0.0017784,0.017753,2.557e-05,0,0,0.05154,-0.020768,0,6.6482e-05,0,0,0,0.0574,0.0017783,0.017753,0.02634,0.025644,0.049602,4.1462e-06,0.41,0.53,0
0.019697,0.00074832,0.057446,0.0016322,0.017723,2.9718e-05,0,0,0.051639,-0.020919,0,7.7267e-05,0,0,0,0.057446,0.0016322,0.017723,0.030507,0.025601,0.049759,4.1688e-06,0.42,0.53,0
0.020214,0.00073554,0.057487,0.0014936,0.017694,3.3679e-05,0,0,0.051731,-0.021061,0,8.7565e-05,0,0,0,0.057487,0.0014936,0.017694,0.034462,0.025558,0.049906,4.1896e-06,0.43,0.53,0
0.020732,0.00072299,0.057523,0.0013623,0.017666,3.7416e-05,0,0,0.051814,-0.021194,0,9.7281e-05,0,0,0,0.057523,0.0013623,0.017666,0.038172,0.025517,0.050042,4.2086e-06,0.44,0.53,0
0.021251,0.00071068,0.057554,0.001238,0.017638,4.0902e-05,0,0,0.051891,-0.02132,0,0.00010634,0,0,0,0.057554,0.001238,0.017638,0.041613,0.025477,0.050169,4.2259e-06,0.45,0.53,0
0.02177,0.00069864,0.057581,0.0011205,0.01761,4.4116e-05,0,0,0.051962,-0.021437,0,0.0001147,0,0,0,0.057581,0.0011204,0.01761,0.044769,0.025437,0.050286,4.2417e-06,0.46,0.53,0
0.02229,0.00068686,0.057603,0.0010094,0.017584,4.7044e-05,0,0,0.052025,-0.021547,0,0.00012232,0,0,0,0.057603,0.0010094,0.017584,0.047628,0.025399,0.050394,4.256e-06,0.47,0.53,0
0.02281,0.00067536,0.057622,0.00090459,0.017558,4.9677e-05,0,0,0.052083,-0.021649,0,0.00012916,0,0,0,0.057622,0.00090454,0.017558,0.050184,0.025361,0.050494,4.2689e-06,0.48,0.53,0
0.023332,0.00066414,0.057636,0.00080574,0.017533,5.201e-05,0,0,0.052135,-0.021745,0,0.00013523,0,0,0,0.057636,0.00080569,0.017533,0.052436,0.025325,0.050586,4.2804e-06,0.49,0.53,0
0.023853,0.00065322,0.057648,0.00071261,0.017508,5.4042e-05,0,0,0.052181,-0.021834,0,0.00014051,0,0,0,0.057648,0.00071256,0.017508,0.054385,0.025289,0.05067,4.2907e-06,0.5,0.53,0
0.024375,0.00064258,0.057656,0.00062497,0.017484,5.5777e-05,0,0,0.052223,-0.021917,0,0.00014502,0,0,0,0.057656,0.00062491,0.017484,0.056037,0.025255,0.050747,4.2997e-06,0.51,0.53,0
0.024897,0.00063225,0.057661,0.00054256,0.017461,5.7221e-05,0,0,0.05226,-0.021994,0,0.00014877,0,0,0,0.057661,0.0005425,0.017461,0.057399,0.025221,0.050817,4.3076e-06,0.52,0.53,0
0.02542,0.00062221,0.057663,0.00046515,0.017438,5.838e-05,0,0,0.052292,-0.022065,0,0.00015179,0,0,0,0.057663,0.00046509,0.017438,0.058481,0.025189,0.050881,4.3145e-06,0.53,0.53,0
0.025943,0.00061247,0.057662,0.00039251,0.017416,5.9267e-05,0,0,0.052319,-0.022131,0,0.00015409,0,0,0,0.057662,0.00039245,0.017416,0.059294,0.025157,0.050938,4.3204e-06,0.54,0.53,0
0.026467,0.00060302,0.057659,0.00032441,0.017395,5.9892e-05,0,0,0.052344,-0.022192,0,0.00015572,0,0,0,0.057659,0.00032435,0.017395,0.059851,0.025126,0.05099,4.3253e-06,0.55,0.53,0
0.02699,0.00059387,0.057654,0.00026063,0.017375,6.0268e-05,0,0,0.052364,-0.022248,0,0.0001567,0,0,0,0.057654,0.00026057,0.017375,0.060165,0.025097,0.051036,4.3294e-06,0.56,0.53,0
0.027514,0.00058501,0.057647,0.00020097,0.017354,6.0409e-05,0,0,0.052381,-0.0223,0,0.00015706,0,0,0,0.057647,0.00020091,0.017354,0.060251,0.025068,0.051078,4.3327e-06,0.57,0.53,0
0.028038,0.00057644,0.057639,0.00014521,0.017335,6.0331e-05,0,0,0.052394,-0.022347,0,0.00015686,0,0,0,0.057639,0.00014514,0.017335,0.060123,0.02504,0.051114,4.3352e-06,0.58,0.53,0
0.028562,0.00056815,0.057628,9.3149e-05,0.017316,6.0047e-05,0,0,0.052405,-0.02239,0,0.00015612,0,0,0,0.057628,9.3087e-05,0.017316,0.059797,0.025013,0.051147,4.3371e-06,0.59,0.53,0
0.029086,0.00056015,0.057616,4.4603e-05,0.017298,5.9573e-05,0,0,0.052413,-0.02243,0,0.00015489,0,0,0,0.057616,4.4541e-05,0.017298,0.059287,0.024986,0.051175,4.3383e-06,0.6,0.53,0
0.02961,0.00055242,0.057603,-6.1882e-07,0.017281,5.8924e-05,0,0,0.052419,-0.022466,0,0.0001532,0,0,0,0.057603,-6.7909e-07,0.017281,0.058609,0.024961,0.051199,4.339e-06,0.61,0.53,0
0.030134,0.00054496,0.057589,-4.2696e-05,0.017264,5.8116e-05,0,0,0.052422,-0.022498,0,0.0001511,0,0,0,0.057589,-4.2755e-05,0.017264,0.057777,0.024937,0.05122,4.3392e-06,0.62,0.53,0
0.030659,0.00053777,0.057573,-8.1802e-05,0.017247,5.7162e-05,0,0,0.052424,-0.022528,0,0.00014862,0,0,0,0.057573,-8.1858e-05,0.017247,0.056806,0.024913,0.051238,4.3388e-06,0.63,0.53,0
0.031183,0.00053085,0.057557,-0.0001181,0.017232,5.6078e-05,0,0,0.052423,-0.022555,0,0.0001458,0,0,0,0.057557,-0.00011816,0.017232,0.055709,0.02489,0.051252,4.3381e-06,0.64,0.53,0
0.031707,0.00052418,0.05754,-0.00015176,0.017216,5.4877e-05,0,0,0.052421,-0.022579,0,0.00014268,0,0,0,0.05754,-0.00015181,0.017216,0.0545,0.024868,0.051264,4.337e-06,0.65,0.53,0
0.032231,0.00051777,0.057523,-0.00018292,0.017202,5.3573e-05,0,0,0.052417,-0.0226,0,0.00013929,0,0,0,0.057523,-0.00018297,0.017202,0.053192,0.024847,0.051273,4.3355e-06,0.66,0.53,0
0.032755,0.0005116,0.057505,-0.00021175,0.017188,5.2178e-05,0,0,0.052412,-0.02262,0,0.00013566,0,0,0,0.057505,-0.00021179,0.017188,0.051798,0.024827,0.05128,4.3337e-06,0.67,0.53,0
0.033279,0.00050568,0.057486,-0.00023837,0.017174,5.0705e-05,0,0,0.052405,-0.022637,0,0.00013183,0,0,0,0.057486,-0.00023841,0.017174,0.050328,0.024807,0.051285,4.3317e-06,0.68,0.53,0
0.033804,0.00049999,0.057467,-0.00026292,0.017161,4.9165e-05,0,0,0.052398,-0.022652,0,0.00012783,0,0,0,0.057468,-0.00026296,0.017161,0.048795,0.024789,0.051289,4.3294e-06,0.69,0.53,0
0.034327,0.00049454,0.057449,-0.00028553,0.017149,4.7569e-05,0,0,0.05239,-0.022665,0,0.00012368,0,0,0,0.057449,-0.00028557,0.017149,0.047208,0.024771,0.05129,4.327e-06,0.7,0.53,0
0.034851,0.00048931,0.05743,-0.00030633,0.017137,4.5927e-05,0,0,0.052381,-0.022676,0,0.00011941,0,0,0,0.05743,-0.00030636,0.017137,0.045577,0.024754,0.05129,4.3244e-06,0.71,0.53,0
0.035375,0.00048431,0.057411,-0.00032543,0.017126,4.4248e-05,0,0,0.052371,-0.022686,0,0.00011504,0,0,0,0.057411,-0.00032546,0.017126,0.04391,0.024737,0.051288,4.3216e-06,0.72,0.53,0
0.035899,0.00047953,0.057392,-0.00034294,0.017115,4.2541e-05,0,0,0.05236,-0.022695,0,0.00011061,0,0,0,0.057392,-0.00034297,0.017115,0.042217,0.024721,0.051285,4.3187e-06,0.73,0.53,0
0.036422,0.00047496,0.057373,-0.00035897,0.017104,4.0813e-05,0,0,0.05235,-0.022702,0,0.00010611,0,0,0,0.057373,-0.000359,0.017104,0.040505,0.024706,0.051281,4.3158e-06,0.74,0.53,0
0.036946,0.0004706,0.057355,-0.00037362,0.017094,3.9073e-05,0,0,0.052338,-0.022708,0,0.00010159,0,0,0,0.057355,-0.00037365,0.017094,0.03878,0.024692,0.051277,4.3128e-06,0.75,0.53,0
0.037469,0.00046644,0.057336,-0.00038699,0.017085,3.7325e-05,0,0,0.052327,-0.022713,0,9.7045e-05,0,0,0,0.057336,-0.00038702,0.017085,0.037048,0.024678,0.051271,4.3097e-06,0.76,0.53,0
0.037992,0.00046249,0.057318,-0.00039917,0.017076,3.5576e-05,0,0,0.052315,-0.022717,0,9.2498e-05,0,0,0,0.057318,-0.00039919,0.017076,0.035316,0.024665,0.051265,4.3067e-06,0.77,0.53,0
0.038515,0.00045873,0.057301,-0.00041024,0.017067,3.3831e-05,0,0,0.052304,-0.022721,0,8.7961e-05,0,0,0,0.057301,-0.00041026,0.017067,0.033587,0.024653,0.051258,4.3036e-06,0.78,0.53,0
0.039038,0.00045517,0.057284,-0.00042029,0.017059,3.2094e-05,0,0,0.052292,-0.022723,0,8.3445e-05,0,0,0,0.057284,-0.00042031,0.017059,0.031867,0.024641,0.051251,4.3006e-06,0.79,0.53,0
0.039561,0.0004518,0.057267,-0.00042939,0.017051,3.037e-05,0,0,0.052281,-0.022725,0,7.8961e-05,0,0,0,0.057267,-0.00042941,0.017051,0.030159,0.02463,0.051244,4.2976e-06,0.8,0.53,0
0.040084,0.00044861,0.057251,-0.00043761,0.017044,2.8661e-05,0,0,0.05227,-0.022726,0,7.4517e-05,0,0,0,0.057251,-0.00043763,0.017044,0.028465,0.024619,0.051236,4.2946e-06,0.81,0.53,0
0.040607,0.00044561,0.057236,-0.00044503,0.017037,2.6969e-05,0,0,0.052258,-0.022727,0,7.012e-05,0,0,0,0.057236,-0.00044504,0.017037,0.026789,0.024609,0.051228,4.2918e-06,0.82,0.53,0
0.041129,0.00044278,0.057221,-0.0004517,0.017031,2.5298e-05,0,0,0.052248,-0.022727,0,6.5774e-05,0,0,0,0.057221,-0.00045171,0.017031,0.025132,0.0246,0.051221,4.289e-06,0.83,0.53,0
0.041652,0.00044014,0.057207,-0.00045768,0.017025,2.3648e-05,0,0,0.052237,-0.022727,0,6.1485e-05,0,0,0,0.057207,-0.00045769,0.017025,0.023497,0.024591,0.051213,4.2863e-06,0.84,0.53,0
0.042174,0.00043766,0.057194,-0.00046304,0.017019,2.2021e-05,0,0,0.052227,-0.022727,0,5.7254e-05,0,0,0,0.057194,-0.00046305,0.017019,0.021883,0.024583,0.051205,4.2837e-06,0.85,0.53,0
0.042696,0.00043536,0.057181,-0.00046782,0.017014,2.0417e-05,0,0,0.052217,-0.022726,0,5.3085e-05,0,0,0,0.057181,-0.00046783,0.017014,0.020292,0.024576,0.051198,4.2813e-06,0.86,0.53,0
0.043218,0.00043323,0.057169,-0.00047206,0.017009,1.8837e-05,0,0,0.052208,-0.022726,0,4.8977e-05,0,0,0,0.057169,-0.00047207,0.017009,0.018724,0.024569,0.051191,4.2789e-06,0.87,0.53,0
0.04374,0.00043126,0.057158,-0.00047582,0.017005,1.7281e-05,0,0,0.0522,-0.022725,0,4.493e-05,0,0,0,0.057158,-0.00047583,0.017005,0.01718,0.024562,0.051184,4.2768e-06,0.88,0.53,0
0.044262,0.00042946,0.057148,-0.00047914,0.017001,1.5748e-05,0,0,0.052192,-0.022724,0,4.0944e-05,0,0,0,0.057148,-0.00047914,0.017001,0.015657,0.024556,0.051177,4.2747e-06,0.89,0.53,0
0.044784,0.00042782,0.057139,-0.00048204,0.016997,1.4237e-05,0,0,0.052184,-0.022723,0,3.7015e-05,0,0,0,0.057139,-0.00048205,0.016997,0.014156,0.024551,0.051171,4.2728e-06,0.9,0.53,0
0.045306,0.00042635,0.05713,-0.00048457,0.016994,1.2747e-05,0,0,0.052177,-0.022722,0,3.3142e-05,0,0,0,0.05713,-0.00048458,0.016994,0.012676,0.024546,0.051166,4.2711e-06,0.91,0.53,0
0.045828,0.00042503,0.057122,-0.00048676,0.016991,1.1277e-05,0,0,0.052171,-0.022721,0,2.932e-05,0,0,0,0.057122,-0.00048676,0.016991,0.011215,0.024542,0.051161,4.2695e-06,0.92,0.53,0
0.046349,0.00042387,0.057115,-0.00048862,0.016988,9.8251e-06,0,0,0.052166,-0.02272,0,2.5545e-05,0,0,0,0.057115,-0.00048862,0.016988,0.0097725,0.024538,0.051156,4.2682e-06,0.93,0.53,0
0.046871,0.00042287,0.05711,-0.00049019,0.016986,8.3897e-06,0,0,0.052161,-0.022719,0,2.1813e-05,0,0,0,0.05711,-0.00049019,0.016986,0.0083454,0.024535,0.051152,4.2669e-06,0.94,0.53,0
0.047392,0.00042202,0.057104,-0.00049149,0.016984,6.9687e-06,0,0,0.052157,-0.022718,0,1.8119e-05,0,0,0,0.057104,-0.00049149,0.016984,0.0069324,0.024532,0.051148,4.2659e-06,0.95,0.53,0
0.047914,0.00042133,0.0571,-0.00049252,0.016982,5.5599e-06,0,0,0.052153,-0.022717,0,1.4456e-05,0,0,0,0.0571,-0.00049252,0.016982,0.0055313,0.02453,0.051146,4.2651e-06,0.96,0.53,0
0.048436,0.0004208,0.057097,-0.00049331,0.016981,4.1611e-06,0,0,0.052151,-0.022717,0,1.0819e-05,0,0,0,0.057097,-0.00049331,0.016981,0.0041398,0.024528,0.051143,4.2644e-06,0.97,0.53,0
0.048957,0.00042041,0.057095,-0.00049387,0.01698,2.7698e-06,0,0,0.052149,-0.022716,0,7.2016e-06,0,0,0,0.057095,-0.00049387,0.01698,0.0027558,0.024527,0.051142,4.2639e-06,0.98,0.53,0
0.049479,0.00042018,0.057093,-0.0004942,0.01698,1.3837e-06,0,0,0.052148,-0.022716,0,3.5975e-06,0,0,0,0.057093,-0.0004942,0.01698,0.0013766,0.024526,0.051141,4.2637e-06,0.99,0.53,0
0.05,0.00042011,0.057093,-0.00049431,0.01698,-2.9421e-06,0,0,0.052147,-0.022716,0,-7.6494e-06,0,0,0,0.057093,-0.00049431,0.01698,-0.0029272,0.024526,0.05114,4.2636e-06,1,0.53,0
0,0,0.051149,0.021921,0.021921,0.0044317,0,0,0.037996,-2.1684e-19,0,0.011522,0,0,0,0.051806,0.021264,0.021921,8.435,0.031664,0.030219,1.4151e-06,0,0.54,0
0.00037996,0.00011522,0.050906,0.019719,0.021188,0.0042948,0,0,0.038634,-0.0019092,0,0.011167,0,0,0,0.051487,0.019138,0.021188,7.6993,0.030604,0.031374,1.5634e-06,0.01,0.54,0
0.00077269,0.00022618,0.051474,0.017999,0.020842,0.0039262,0,0,0.039822,-0.0036963,0,0.010208,0,0,0,0.051929,0.017544,0.020842,6.6005,0.030105,0.03286,1.7606e-06,0.02,0.54,0
0.0011764,0.00032849,0.051929,0.01656,0.020547,0.0034095,0,0,0.040797,-0.0051828,0,0.0088646,0,0,0,0.052255,0.016234,0.020547,5.4562,0.029679,0.03407,1.9218e-06,0.03,0.54,0
0.0015886,0.00041972,0.052255,0.015412,0.0203,0.00286,0,0,0.041541,-0.0063541,0,0.007436,0,0,0,0.052476,0.015192,0.0203,4.4125,0.029323,0.03501,2.0467e-06,0.04,0.54,0
0.0020072,0.00049932,0.05248,0.014485,0.020089,0.0023564,0,0,0.042107,-0.0072855,0,0.0061267,0,0,0,0.052625,0.01434,0.020089,3.5354,0.029018,0.035759,2.1452e-06,0.05,0.54,0
0.0024308,0.00056786,0.052645,0.013702,0.019904,0.0019242,0,0,0.042563,-0.0080628,0,0.0050029,0,0,0,0.05274,0.013607,0.019904,2.8219,0.02875,0.036395,2.2282e-06,0.06,0.54,0
0.0028585,0.00062634,0.052788,0.013017,0.019741,0.0015629,0,0,0.04296,-0.008742,0,0.0040635,0,0,0,0.052849,0.012955,0.019741,2.247,0.028515,0.036971,2.3034e-06,0.07,0.54,0
0.00329,0.00067584,0.052927,0.0124,0.019598,0.0012629,0,0,0.043328,-0.009358,0,0.0032836,0,0,0,0.052966,0.01236,0.019598,1.7832,0.028308,0.037515,2.375e-06,0.08,0.54,0
0.0037251,0.00071736,0.053072,0.011831,0.019471,0.0010138,0,0,0.043682,-0.0099319,0,0.0026359,0,0,0,0.053097,0.011806,0.019471,1.4073,0.028125,0.038042,2.4452e-06,0.09,0.54,0
0.0041636,0.00075179,0.053227,0.011299,0.019358,0.00080631,0,0,0.044029,-0.010476,0,0.0020964,0,0,0,0.053242,0.011284,0.019358,1.1013,0.027961,0.038561,2.5151e-06,0.1,0.54,0
0.0046056,0.00077991,0.05339,0.010795,0.019255,0.00063294,0,0,0.044374,-0.010998,0,0.0016457,0,0,0,0.053399,0.010786,0.019255,0.85114,0.027813,0.039073,2.5851e-06,0.11,0.54,0
0.0050511,0.00080244,0.053561,0.010314,0.019162,0.00048772,0,0,0.044718,-0.011503,0,0.0012681,0,0,0,0.053566,0.010308,0.019162,0.64604,0.027679,0.039581,2.6554e-06,0.12,0.54,0
0.0055,0.00081999,0.053739,0.0098511,0.019077,0.00036592,0,0,0.04506,-0.011994,0,0.0009514,0,0,0,0.053742,0.0098481,0.019077,0.47767,0.027556,0.040084,2.7259e-06,0.13,0.54,0
0.0059523,0.00083311,0.053921,0.0094052,0.018998,0.00026381,0,0,0.0454,-0.012471,0,0.0006859,0,0,0,0.053923,0.0094036,0.018998,0.33953,0.027441,0.040582,2.7964e-06,0.14,0.54,0
0.006408,0.00084227,0.054107,0.0089741,0.018924,0.00017836,0,0,0.045737,-0.012935,0,0.00046373,0,0,0,0.054107,0.0089733,0.018924,0.22642,0.027335,0.041073,2.8668e-06,0.15,0.54,0
0.0068671,0.00084793,0.054294,0.0085566,0.018855,0.00010712,0,0,0.04607,-0.013388,0,0.00027852,0,0,0,0.054294,0.0085564,0.018855,0.13419,0.027235,0.041556,2.9367e-06,0.16,0.54,0
0.0073294,0.00085048,0.05448,0.0081521,0.01879,4.8087e-05,0,0,0.046398,-0.013829,0,0.00012503,0,0,0,0.054481,0.0081521,0.01879,0.059471,0.027141,0.042032,3.006e-06,0.17,0.54,0
0.007795,0.00085026,0.054666,0.00776,0.018728,-4.2789e-07,0,0,0.04672,-0.014258,0,-1.1125e-06,0,0,0,0.054666,0.00776,0.018728,-0.00052267,0.027051,0.042497,3.0745e-06,0.18,0.54,0
0.0082638,0.0008476,0.05485,0.00738,0.018669,-3.9845e-05,0,0,0.047035,-0.014676,0,-0.0001036,0,0,0,0.05485,0.0073799,0.018669,-0.048092,0.026966,0.042953,3.1419e-06,0.19,0.54,0
0.0087357,0.00084279,0.05503,0.0070117,0.018612,-7.1375e-05,0,0,0.047342,-0.015081,0,-0.00018558,0,0,0,0.05503,0.0070116,0.018612,-0.085166,0.026885,0.043397,3.2081e-06,0.2,0.54,0
0.0092107,0.00083609,0.055206,0.0066551,0.018558,-9.6066e-05,0,0,0.047642,-0.015474,0,-0.00024977,0,0,0,0.055206,0.0066549,0.018558,-0.11337,0.026806,0.043829,3.2729e-06,0.21,0.54,0
0.0096885,0.00082774,0.055377,0.0063099,0.018506,-0.00011483,0,0,0.047932,-0.015855,0,-0.00029855,0,0,0,0.055377,0.0063096,0.018506,-0.13408,0.026731,0.044248,3.3361e-06,0.22,0.54,0
0.010169,0.00081797,0.055543,0.0059762,0.018456,-0.00012845,0,0,0.048213,-0.016223,0,-0.00033398,0,0,0,0.055543,0.0059758,0.018456,-0.14848,0.026658,0.044655,3.3976e-06,0.23,0.54,0
0.010653,0.00080696,0.055702,0.0056538,0.018407,-0.00013765,0,0,0.048484,-0.016579,0,-0.0003579,0,0,0,0.055703,0.0056534,0.018407,-0.15758,0.026588,0.045048,3.4573e-06,0.24,0.54,0
0.011139,0.00079489,0.055856,0.0053426,0.01836,-0.00014304,0,0,0.048745,-0.016922,0,-0.00037191,0,0,0,0.055856,0.0053422,0.01836,-0.16225,0.026519,0.045427,3.515e-06,0.25,0.54,0
0.011628,0.00078194,0.056003,0.0050425,0.018314,-0.00014518,0,0,0.048996,-0.017253,0,-0.00037746,0,0,0,0.056003,0.0050421,0.018314,-0.16322,0.026453,0.045791,3.5707e-06,0.26,0.54,0
0.012119,0.00076824,0.056143,0.0047535,0.018269,-0.00014455,0,0,0.049237,-0.01757,0,-0.00037583,0,0,0,0.056144,0.0047531,0.018269,-0.16116,0.026389,0.046142,3.6243e-06,0.27,0.54,0
0.012612,0.00075394,0.056277,0.0044754,0.018226,-0.0001416,0,0,0.049466,-0.017875,0,-0.00036816,0,0,0,0.056277,0.004475,0.018226,-0.15662,0.026326,0.046478,3.6757e-06,0.28,0.54,0
0.013108,0.00073914,0.056403,0.004208,0.018183,-0.00013672,0,0,0.049686,-0.018168,0,-0.00035547,0,0,0,0.056404,0.0042077,0.018183,-0.15008,0.026265,0.0468,3.725e-06,0.29,0.54,0
0.013606,0.00072397,0.056522,0.0039513,0.018142,-0.00013025,0,0,0.049894,-0.018448,0,-0.00033865,0,0,0,0.056523,0.003951,0.018142,-0.14195,0.026205,0.047108,3.772e-06,0.3,0.54,0
0.014106,0.00070851,0.056635,0.0037051,0.018102,-0.00012251,0,0,0.050092,-0.018716,0,-0.00031852,0,0,0,0.056635,0.0037048,0.018102,-0.13261,0.026147,0.047401,3.8168e-06,0.31,0.54,0
0.014608,0.00069286,0.05674,0.0034691,0.018063,-0.00011376,0,0,0.05028,-0.018972,0,-0.00029578,0,0,0,0.05674,0.0034689,0.018063,-0.12236,0.02609,0.04768,3.8593e-06,0.32,0.54,0
0.015112,0.00067709,0.056838,0.0032432,0.018024,-0.00010426,0,0,0.050458,-0.019215,0,-0.00027108,0,0,0,0.056838,0.003243,0.018024,-0.11146,0.026035,0.047945,3.8995e-06,0.33,0.54,0
0.015617,0.00066127,0.056929,0.0030272,0.017987,-9.4217e-05,0,0,0.050625,-0.019448,0,-0.00024496,0,0,0,0.056929,0.0030271,0.017987,-0.10015,0.025981,0.048196,3.9376e-06,0.34,0.54,0
0.016124,0.00064547,0.057014,0.0028209,0.01795,-8.3817e-05,0,0,0.050783,-0.019668,0,-0.00021792,0,0,0,0.057014,0.0028207,0.01795,-0.088615,0.025928,0.048434,3.9735e-06,0.35,0.54,0
0.016633,0.00062974,0.057092,0.0026239,0.017915,-7.3223e-05,0,0,0.05093,-0.019878,0,-0.00019038,0,0,0,0.057092,0.0026238,0.017915,-0.077024,0.025877,0.048659,4.0071e-06,0.36,0.54,0
0.017143,0.00061413,0.057164,0.0024361,0.01788,-6.2579e-05,0,0,0.051069,-0.020077,0,-0.0001627,0,0,0,0.057164,0.002436,0.01788,-0.065515,0.025827,0.048872,4.0387e-06,0.37,0.54,0
0.017654,0.00059868,0.057229,0.0022573,0.017846,-5.2004e-05,0,0,0.051198,-0.020265,0,-0.00013521,0,0,0,0.057229,0.0022572,0.017846,-0.054203,0.025777,0.049071,4.0682e-06,0.38,0.54,0
0.018167,0.00058342,0.057289,0.002087,0.017813,-4.1605e-05,0,0,0.051319,-0.020443,0,-0.00010817,0,0,0,0.057289,0.002087,0.017813,-0.043183,0.02573,0.049259,4.0957e-06,0.39,0.54,0
0.018681,0.0005684,0.057343,0.0019252,0.01778,-3.1466e-05,0,0,0.051431,-0.020612,0,-8.1812e-05,0,0,0,0.057343,0.0019252,0.01778,-0.032532,0.025683,0.049435,4.1213e-06,0.4,0.54,0
0.019195,0.00055363,0.057391,0.0017715,0.017749,-2.1661e-05,0,0,0.051535,-0.020771,0,-5.6319e-05,0,0,0,0.057391,0.0017715,0.017749,-0.022314,0.025637,0.0496,4.145e-06,0.41,0.54,0
0.019711,0.00053914,0.057434,0.0016257,0.017718,-1.2249e-05,0,0,0.051631,-0.02092,0,-3.1848e-05,0,0,0,0.057434,0.0016257,0.017718,-0.012576,0.025593,0.049754,4.1668e-06,0.42,0.54,0
0.020228,0.00052494,0.057473,0.0014874,0.017688,-3.2777e-06,0,0,0.05172,-0.021061,0,-8.5221e-06,0,0,0,0.057473,0.0014874,0.017688,-0.0033545,0.025549,0.049898,4.1869e-06,0.43,0.54,0
0.020746,0.00051107,0.057506,0.0013565,0.017659,5.217e-06,0,0,0.051802,-0.021193,0,1.3564e-05,0,0,0,0.057506,0.0013565,0.017659,0.0053235,0.025507,0.050032,4.2054e-06,0.44,0.54,0
0.021264,0.00049751,0.057535,0.0012326,0.01763,1.3208e-05,0,0,0.051876,-0.021317,0,3.434e-05,0,0,0,0.057535,0.0012326,0.01763,0.013441,0.025466,0.050156,4.2222e-06,0.45,0.54,0
0.021783,0.0004843,0.05756,0.0011154,0.017603,2.0675e-05,0,0,0.051944,-0.021433,0,5.3756e-05,0,0,0,0.05756,0.0011154,0.017603,0.020987,0.025426,0.050271,4.2375e-06,0.46,0.54,0
0.022303,0.00047142,0.05758,0.0010048,0.017576,2.7608e-05,0,0,0.052006,-0.021542,0,7.1782e-05,0,0,0,0.05758,0.0010047,0.017576,0.02796,0.025387,0.050377,4.2513e-06,0.47,0.54,0
0.022823,0.0004589,0.057597,0.00090035,0.017549,3.4002e-05,0,0,0.052062,-0.021644,0,8.8404e-05,0,0,0,0.057597,0.00090033,0.017549,0.034361,0.025349,0.050476,4.2638e-06,0.48,0.54,0
0.023344,0.00044674,0.057611,0.00080192,0.017524,3.9855e-05,0,0,0.052113,-0.021738,0,0.00010362,0,0,0,0.057611,0.00080189,0.017524,0.040197,0.025312,0.050566,4.275e-06,0.49,0.54,0
0.023866,0.00043492,0.05762,0.0007092,0.017499,4.5175e-05,0,0,0.052158,-0.021827,0,0.00011745,0,0,0,0.05762,0.00070917,0.017499,0.04548,0.025276,0.050648,4.2849e-06,0.5,0.54,0
0.024387,0.00042346,0.057627,0.00062196,0.017475,4.9969e-05,0,0,0.052198,-0.021909,0,0.00012992,0,0,0,0.057627,0.00062192,0.017475,0.050223,0.025241,0.050724,4.2936e-06,0.51,0.54,0
0.02491,0.00041236,0.057631,0.00053995,0.017451,5.4249e-05,0,0,0.052234,-0.021985,0,0.00014105,0,0,0,0.057632,0.00053989,0.017451,0.054443,0.025208,0.050793,4.3013e-06,0.52,0.54,0
0.025432,0.00040161,0.057633,0.00046292,0.017429,5.8032e-05,0,0,0.052265,-0.022055,0,0.00015088,0,0,0,0.057633,0.00046286,0.017429,0.05816,0.025175,0.050856,4.308e-06,0.53,0.54,0
0.025955,0.00039121,0.057632,0.00039064,0.017407,6.1335e-05,0,0,0.052292,-0.022121,0,0.00015947,0,0,0,0.057632,0.00039058,0.017407,0.061394,0.025143,0.050912,4.3136e-06,0.54,0.54,0
0.026478,0.00038116,0.057628,0.00032289,0.017385,6.4177e-05,0,0,0.052316,-0.022181,0,0.00016686,0,0,0,0.057628,0.00032282,0.017385,0.064166,0.025112,0.050964,4.3184e-06,0.55,0.54,0
0.027001,0.00037145,0.057623,0.00025945,0.017365,6.6579e-05,0,0,0.052336,-0.022237,0,0.0001731,0,0,0,0.057623,0.00025937,0.017365,0.0665,0.025082,0.051009,4.3224e-06,0.56,0.54,0
0.027525,0.00036208,0.057616,0.0002001,0.017345,6.8562e-05,0,0,0.052352,-0.022288,0,0.00017826,0,0,0,0.057616,0.00020002,0.017345,0.068418,0.025053,0.05105,4.3256e-06,0.57,0.54,0
0.028048,0.00035303,0.057607,0.00014463,0.017325,7.0148e-05,0,0,0.052366,-0.022335,0,0.00018238,0,0,0,0.057607,0.00014455,0.017325,0.069945,0.025025,0.051086,4.3281e-06,0.58,0.54,0
0.028572,0.00034431,0.057596,9.2853e-05,0.017307,7.1361e-05,0,0,0.052376,-0.022378,0,0.00018554,0,0,0,0.057596,9.2765e-05,0.017307,0.071104,0.024998,0.051118,4.3299e-06,0.59,0.54,0
0.029096,0.00033591,0.057584,4.4565e-05,0.017289,7.2224e-05,0,0,0.052384,-0.022417,0,0.00018778,0,0,0,0.057584,4.4474e-05,0.017289,0.071918,0.024972,0.051146,4.3311e-06,0.6,0.54,0
0.02962,0.00032783,0.057571,-4.1741e-07,0.017271,7.2758e-05,0,0,0.05239,-0.022453,0,0.00018917,0,0,0,0.057571,-5.0936e-07,0.017271,0.07241,0.024947,0.051171,4.3317e-06,0.61,0.54,0
0.030144,0.00032004,0.057557,-4.2274e-05,0.017254,7.2988e-05,0,0,0.052393,-0.022486,0,0.00018977,0,0,0,0.057557,-4.2366e-05,0.017254,0.072604,0.024923,0.051191,4.3319e-06,0.62,0.54,0
0.030668,0.00031256,0.057542,-8.1177e-05,0.017238,7.2934e-05,0,0,0.052394,-0.022515,0,0.00018963,0,0,0,0.057542,-8.1269e-05,0.017238,0.07252,0.0249,0.051209,4.3316e-06,0.63,0.54,0
0.031191,0.00030537,0.057526,-0.00011729,0.017222,7.2619e-05,0,0,0.052394,-0.022542,0,0.00018881,0,0,0,0.057526,-0.00011738,0.017222,0.072182,0.024877,0.051224,4.3309e-06,0.64,0.54,0
0.031715,0.00029846,0.057509,-0.00015078,0.017207,7.2064e-05,0,0,0.052392,-0.022566,0,0.00018736,0,0,0,0.057509,-0.00015087,0.017207,0.071609,0.024855,0.051236,4.3298e-06,0.65,0.54,0
0.032239,0.00029183,0.057492,-0.0001818,0.017193,7.1288e-05,0,0,0.052388,-0.022587,0,0.00018535,0,0,0,0.057492,-0.00018188,0.017193,0.070821,0.024834,0.051245,4.3284e-06,0.66,0.54,0
0.032763,0.00028547,0.057474,-0.00021048,0.017179,7.0311e-05,0,0,0.052383,-0.022606,0,0.00018281,0,0,0,0.057474,-0.00021057,0.017179,0.069837,0.024814,0.051252,4.3267e-06,0.67,0.54,0
0.033287,0.00027938,0.057456,-0.00023698,0.017166,6.9151e-05,0,0,0.052377,-0.022623,0,0.00017979,0,0,0,0.057456,-0.00023706,0.017166,0.068675,0.024795,0.051257,4.3247e-06,0.68,0.54,0
0.033811,0.00027354,0.057437,-0.00026142,0.017153,6.7827e-05,0,0,0.05237,-0.022638,0,0.00017635,0,0,0,0.057437,-0.0002615,0.017153,0.067353,0.024776,0.051261,4.3225e-06,0.69,0.54,0
0.034334,0.00026795,0.057419,-0.00028394,0.01714,6.6354e-05,0,0,0.052362,-0.022652,0,0.00017252,0,0,0,0.057419,-0.00028402,0.01714,0.065886,0.024758,0.051262,4.3202e-06,0.7,0.54,0
0.034858,0.00026261,0.0574,-0.00030465,0.017129,6.4749e-05,0,0,0.052353,-0.022663,0,0.00016835,0,0,0,0.0574,-0.00030473,0.017129,0.064289,0.024741,0.051262,4.3176e-06,0.71,0.54,0
0.035381,0.00025751,0.057382,-0.00032368,0.017117,6.3025e-05,0,0,0.052344,-0.022673,0,0.00016386,0,0,0,0.057382,-0.00032375,0.017117,0.062578,0.024725,0.051261,4.315e-06,0.72,0.54,0
0.035905,0.00025264,0.057363,-0.00034114,0.017107,6.1197e-05,0,0,0.052334,-0.022682,0,0.00015911,0,0,0,0.057363,-0.0003412,0.017107,0.060764,0.02471,0.051258,4.3122e-06,0.73,0.54,0
0.036428,0.000248,0.057345,-0.00035712,0.017096,5.9278e-05,0,0,0.052323,-0.02269,0,0.00015412,0,0,0,0.057345,-0.00035718,0.017096,0.058861,0.024695,0.051255,4.3093e-06,0.74,0.54,0
0.036951,0.00024357,0.057327,-0.00037173,0.017087,5.7279e-05,0,0,0.052312,-0.022696,0,0.00014893,0,0,0,0.057327,-0.00037179,0.017087,0.056879,0.024681,0.05125,4.3064e-06,0.75,0.54,0
0.037474,0.00023937,0.057309,-0.00038507,0.017077,5.5211e-05,0,0,0.052301,-0.022701,0,0.00014355,0,0,0,0.057309,-0.00038512,0.017077,0.05483,0.024667,0.051245,4.3034e-06,0.76,0.54,0
0.037997,0.00023537,0.057292,-0.00039722,0.017068,5.3084e-05,0,0,0.05229,-0.022705,0,0.00013802,0,0,0,0.057292,-0.00039727,0.017068,0.052722,0.024654,0.05124,4.3005e-06,0.77,0.54,0
0.03852,0.00023158,0.057274,-0.00040828,0.01706,5.0908e-05,0,0,0.052279,-0.022709,0,0.00013236,0,0,0,0.057274,-0.00040832,0.01706,0.050566,0.024642,0.051233,4.2975e-06,0.78,0.54,0
0.039043,0.00022799,0.057258,-0.00041831,0.017052,4.8689e-05,0,0,0.052268,-0.022711,0,0.00012659,0,0,0,0.057258,-0.00041835,0.017052,0.048368,0.02463,0.051226,4.2946e-06,0.79,0.54,0
0.039566,0.0002246,0.057242,-0.0004274,0.017044,4.6437e-05,0,0,0.052257,-0.022713,0,0.00012074,0,0,0,0.057242,-0.00042744,0.017044,0.046136,0.02462,0.051219,4.2917e-06,0.8,0.54,0
0.040088,0.0002214,0.057226,-0.00043562,0.017037,4.4157e-05,0,0,0.052246,-0.022715,0,0.00011481,0,0,0,0.057226,-0.00043566,0.017037,0.043876,0.024609,0.051212,4.2888e-06,0.81,0.54,0
0.04061,0.00021839,0.057211,-0.00044304,0.017031,4.1855e-05,0,0,0.052235,-0.022715,0,0.00010882,0,0,0,0.057211,-0.00044307,0.017031,0.041594,0.024599,0.051205,4.286e-06,0.82,0.54,0
0.041133,0.00021556,0.057197,-0.00044971,0.017024,3.9536e-05,0,0,0.052225,-0.022716,0,0.00010279,0,0,0,0.057197,-0.00044974,0.017024,0.039296,0.02459,0.051197,4.2833e-06,0.83,0.54,0
0.041655,0.00021291,0.057183,-0.0004557,0.017018,3.7206e-05,0,0,0.052214,-0.022716,0,9.6736e-05,0,0,0,0.057183,-0.00045573,0.017018,0.036985,0.024582,0.05119,4.2807e-06,0.84,0.54,0
0.042177,0.00021044,0.05717,-0.00046107,0.017013,3.4868e-05,0,0,0.052205,-0.022716,0,9.0657e-05,0,0,0,0.05717,-0.00046109,0.017013,0.034665,0.024574,0.051183,4.2782e-06,0.85,0.54,0
0.042699,0.00020815,0.057158,-0.00046586,0.017008,3.2525e-05,0,0,0.052195,-0.022715,0,8.4565e-05,0,0,0,0.057158,-0.00046587,0.017008,0.03234,0.024567,0.051175,4.2759e-06,0.86,0.54,0
0.043221,0.00020602,0.057146,-0.00047011,0.017003,3.018e-05,0,0,0.052186,-0.022715,0,7.8468e-05,0,0,0,0.057146,-0.00047013,0.017003,0.030012,0.02456,0.051169,4.2736e-06,0.87,0.54,0
0.043743,0.00020406,0.057135,-0.00047389,0.016998,2.7835e-05,0,0,0.052178,-0.022714,0,7.2371e-05,0,0,0,0.057135,-0.0004739,0.016998,0.027684,0.024553,0.051162,4.2715e-06,0.88,0.54,0
0.044264,0.00020227,0.057125,-0.00047722,0.016994,2.5492e-05,0,0,0.05217,-0.022713,0,6.628e-05,0,0,0,0.057125,-0.00047723,0.016994,0.025357,0.024548,0.051156,4.2695e-06,0.89,0.54,0
0.044786,0.00020065,0.057116,-0.00048013,0.016991,2.3153e-05,0,0,0.052163,-0.022712,0,6.0197e-05,0,0,0,0.057116,-0.00048014,0.016991,0.023032,0.024542,0.05115,4.2677e-06,0.9,0.54,0
0.045308,0.00019918,0.057108,-0.00048268,0.016988,2.0818e-05,0,0,0.052156,-0.022711,0,5.4126e-05,0,0,0,0.057108,-0.00048268,0.016988,0.020711,0.024538,0.051145,4.266e-06,0.91,0.54,0
0.045829,0.00019787,0.0571,-0.00048487,0.016985,1.8487e-05,0,0,0.05215,-0.02271,0,4.8067e-05,0,0,0,0.0571,-0.00048488,0.016985,0.018394,0.024533,0.051139,4.2645e-06,0.92,0.54,0
0.046351,0.00019672,0.057094,-0.00048675,0.016982,1.6162e-05,0,0,0.052145,-0.02271,0,4.2021e-05,0,0,0,0.057094,-0.00048675,0.016982,0.016082,0.02453,0.051135,4.2631e-06,0.93,0.54,0
0.046872,0.00019573,0.057088,-0.00048833,0.01698,1.3842e-05,0,0,0.05214,-0.022709,0,3.5989e-05,0,0,0,0.057088,-0.00048833,0.01698,0.013775,0.024526,0.051131,4.262e-06,0.94,0.54,0
0.047393,0.00019489,0.057083,-0.00048963,0.016978,1.1527e-05,0,0,0.052136,-0.022708,0,2.9969e-05,0,0,0,0.057083,-0.00048963,0.016978,0.011471,0.024524,0.051128,4.261e-06,0.95,0.54,0
0.047915,0.00019421,0.057079,-0.00049067,0.016976,9.2156e-06,0,0,0.052133,-0.022707,0,2.3961e-05,0,0,0,0.057079,-0.00049067,0.016976,0.0091718,0.024522,0.051125,4.2601e-06,0.96,0.54,0
0.048436,0.00019368,0.057076,-0.00049147,0.016975,6.9083e-06,0,0,0.052131,-0.022707,0,1.7962e-05,0,0,0,0.057076,-0.00049147,0.016975,0.0068758,0.02452,0.051123,4.2595e-06,0.97,0.54,0
0.048957,0.0001933,0.057073,-0.00049203,0.016974,4.6039e-06,0,0,0.052129,-0.022706,0,1.197e-05,0,0,0,0.057073,-0.00049203,0.016974,0.0045823,0.024519,0.051121,4.259e-06,0.98,0.54,0
0.049479,0.00019307,0.057072,-0.00049237,0.016974,2.3014e-06,0,0,0.052128,-0.022706,0,5.9838e-06,0,0,0,0.057072,-0.00049237,0.016974,0.0022907,0.024518,0.05112,4.2588e-06,0.99,0.54,0
0.05,0.00019299,0.057072,-0.00049248,0.016974,-2.912e-06,0,0,0.052127,-0.022706,0,-7.5712e-06,0,0,0,0.057072,-0.00049248,0.016974,-0.0028984,0.024518,0.05112,4.2587e-06,1,0.54,0
0,0,0.051026,0.021868,0.021868,0.0037555,0,0,0.037905,3.2526e-19,0,0.0097644,0,0,0,0.051502,0.021392,0.021868,7.2227,0.031588,0.029875,1.3682e-06,0,0.55,0
0.00037905,9.7644e-05,0.050835,0.019961,0.021239,0.0036644,0,0,0.038475,-0.0016613,0,0.0095275,0,0,0,0.051264,0.019532,0.021239,6.6768,0.030678,0.030914,1.5018e-06,0.01,0.55,0
0.0007695,0.00019182,0.051378,0.018439,0.020945,0.0034037,0,0,0.039563,-0.0032581,0,0.0088496,0,0,0,0.051726,0.018091,0.020945,5.8384,0.030254,0.032303,1.6857e-06,0.02,0.55,0
0.0011703,0.00027954,0.051844,0.017077,0.020676,0.0030216,0,0,0.040518,-0.0046796,0,0.0078561,0,0,0,0.052105,0.016816,0.020676,4.9302,0.029866,0.033526,1.8491e-06,0.03,0.55,0
0.0015799,0.00035872,0.052219,0.015912,0.020439,0.0025855,0,0,0.041314,-0.0058858,0,0.0067224,0,0,0,0.052402,0.015729,0.020439,4.0529,0.029524,0.03456,1.9879e-06,0.04,0.55,0
0.0019966,0.00042847,0.05251,0.014925,0.020231,0.0021525,0,0,0.041963,-0.0068967,0,0.0055965,0,0,0,0.052633,0.014803,0.020231,3.2671,0.029222,0.035429,2.1045e-06,0.05,0.55,0
0.0024191,0.00048874,0.052739,0.014079,0.020045,0.001756,0,0,0.042502,-0.0077563,0,0.0045655,0,0,0,0.052818,0.013999,0.020045,2.5953,0.028954,0.036177,2.2046e-06,0.06,0.55,0
0.0028466,0.00054004,0.05293,0.013335,0.01988,0.0014083,0,0,0.042966,-0.0085076,0,0.0036615,0,0,0,0.05298,0.013285,0.01988,2.0344,0.028715,0.036843,2.2937e-06,0.07,0.55,0
0.0032785,0.00058308,0.053103,0.012667,0.019731,0.0011101,0,0,0.043383,-0.0091825,0,0.0028862,0,0,0,0.053133,0.012637,0.019731,1.5714,0.0285,0.037456,2.3759e-06,0.08,0.55,0
0.0037143,0.00061862,0.053268,0.012056,0.019597,0.00085712,0,0,0.043772,-0.0098032,0,0.0022285,0,0,0,0.053286,0.012039,0.019597,1.1909,0.028307,0.038035,2.4541e-06,0.09,0.55,0
0.0041539,0.00064742,0.053432,0.011488,0.019476,0.00064367,0,0,0.044143,-0.010384,0,0.0016735,0,0,0,0.053442,0.011478,0.019476,0.87899,0.028132,0.038592,2.5298e-06,0.1,0.55,0
0.0045971,0.00067019,0.053599,0.010954,0.019366,0.00046413,0,0,0.044503,-0.010935,0,0.0012067,0,0,0,0.053604,0.010949,0.019366,0.62349,0.027973,0.039131,2.604e-06,0.11,0.55,0
0.0050439,0.00068757,0.053769,0.010447,0.019265,0.00031348,0,0,0.044855,-0.011463,0,0.00081505,0,0,0,0.053771,0.010445,0.019265,0.41457,0.027827,0.039659,2.6772e-06,0.12,0.55,0
0.0054942,0.00070014,0.053942,0.009963,0.019171,0.00018744,0,0,0.045201,-0.011971,0,0.00048735,0,0,0,0.053942,0.0099622,0.019171,0.2442,0.027692,0.040175,2.7496e-06,0.13,0.55,0
0.005948,0.00070842,0.054117,0.0094987,0.019085,8.2432e-05,0,0,0.045542,-0.012462,0,0.00021432,0,0,0,0.054117,0.0094985,0.019085,0.10585,0.027567,0.040682,2.8214e-06,0.14,0.55,0
0.0064051,0.00071289,0.054294,0.0090518,0.019004,-4.5574e-06,0,0,0.045878,-0.012938,0,-1.1849e-05,0,0,0,0.054294,0.0090518,0.019004,-0.0057716,0.02745,0.041179,2.8923e-06,0.15,0.55,0
0.0068655,0.00071399,0.054472,0.0086208,0.018928,-7.604e-05,0,0,0.046207,-0.013399,0,-0.0001977,0,0,0,0.054472,0.0086207,0.018928,-0.095019,0.02734,0.041665,2.9625e-06,0.16,0.55,0
0.0073292,0.00071209,0.054649,0.0082045,0.018856,-0.00013414,0,0,0.046531,-0.013847,0,-0.00034876,0,0,0,0.054649,0.0082042,0.018856,-0.16547,0.027237,0.042141,3.0317e-06,0.17,0.55,0
0.0077961,0.00070756,0.054825,0.0078023,0.018788,-0.00018065,0,0,0.046848,-0.014282,0,-0.00046969,0,0,0,0.054825,0.0078016,0.018788,-0.22012,0.027138,0.042606,3.0997e-06,0.18,0.55,0
0.0082662,0.00070071,0.054998,0.0074134,0.018723,-0.00021713,0,0,0.047157,-0.014703,0,-0.00056453,0,0,0,0.054999,0.0074124,0.018723,-0.26143,0.027045,0.04306,3.1665e-06,0.19,0.55,0
0.0087393,0.00069183,0.055168,0.0070374,0.018662,-0.0002449,0,0,0.047458,-0.015111,0,-0.00063673,0,0,0,0.055169,0.0070362,0.018662,-0.29152,0.026956,0.043501,3.2319e-06,0.2,0.55,0
0.0092153,0.00068119,0.055334,0.0066742,0.018602,-0.00026512,0,0,0.047751,-0.015507,0,-0.00068931,0,0,0,0.055335,0.0066727,0.018602,-0.31216,0.02687,0.04393,3.2957e-06,0.21,0.55,0
0.0096943,0.00066904,0.055495,0.0063233,0.018545,-0.00027882,0,0,0.048034,-0.015889,0,-0.00072492,0,0,0,0.055496,0.0063217,0.018545,-0.32487,0.026788,0.044345,3.3579e-06,0.22,0.55,0
0.010176,0.00065557,0.055651,0.0059846,0.018491,-0.00028688,0,0,0.048308,-0.016258,0,-0.00074589,0,0,0,0.055653,0.0059829,0.018491,-0.33094,0.026709,0.044747,3.4182e-06,0.23,0.55,0
0.01066,0.00064101,0.055802,0.0056579,0.018438,-0.00029011,0,0,0.048573,-0.016614,0,-0.00075429,0,0,0,0.055803,0.0056562,0.018438,-0.33148,0.026632,0.045135,3.4767e-06,0.24,0.55,0
0.011147,0.00062551,0.055946,0.0053431,0.018387,-0.00028921,0,0,0.048827,-0.016957,0,-0.00075194,0,0,0,0.055948,0.0053414,0.018387,-0.32744,0.026559,0.045508,3.5331e-06,0.25,0.55,0
0.011637,0.00060926,0.056085,0.0050399,0.018337,-0.0002848,0,0,0.049071,-0.017287,0,-0.00074047,0,0,0,0.056086,0.0050383,0.018337,-0.31966,0.026487,0.045868,3.5876e-06,0.26,0.55,0
0.012129,0.00059239,0.056217,0.0047483,0.01829,-0.00027744,0,0,0.049305,-0.017604,0,-0.00072135,0,0,0,0.056218,0.0047468,0.01829,-0.30884,0.026418,0.046213,3.6398e-06,0.27,0.55,0
0.012623,0.00057504,0.056342,0.004468,0.018243,-0.00026765,0,0,0.049529,-0.017907,0,-0.00069588,0,0,0,0.056343,0.0044666,0.018243,-0.29561,0.026351,0.046544,3.69e-06,0.28,0.55,0
0.013119,0.00055733,0.056461,0.0041989,0.018198,-0.00025585,0,0,0.049742,-0.018199,0,-0.00066521,0,0,0,0.056462,0.0041977,0.018198,-0.28048,0.026286,0.04686,3.7379e-06,0.29,0.55,0
0.013618,0.00053936,0.056573,0.0039408,0.018154,-0.00024245,0,0,0.049945,-0.018477,0,-0.00063037,0,0,0,0.056574,0.0039397,0.018154,-0.26393,0.026223,0.047162,3.7836e-06,0.3,0.55,0
0.014118,0.00052123,0.056678,0.0036934,0.018111,-0.0002278,0,0,0.050137,-0.018743,0,-0.00059229,0,0,0,0.056679,0.0036925,0.018111,-0.24633,0.026161,0.04745,3.8271e-06,0.31,0.55,0
0.014621,0.00050303,0.056777,0.0034566,0.01807,-0.00021222,0,0,0.050319,-0.018997,0,-0.00055177,0,0,0,0.056778,0.0034558,0.01807,-0.22804,0.026101,0.047724,3.8683e-06,0.32,0.55,0
0.015125,0.00048483,0.056869,0.0032302,0.01803,-0.00019597,0,0,0.050491,-0.019239,0,-0.00050953,0,0,0,0.05687,0.0032295,0.01803,-0.20933,0.026043,0.047984,3.9074e-06,0.33,0.55,0
0.01563,0.0004667,0.056955,0.0030138,0.01799,-0.00017931,0,0,0.050653,-0.01947,0,-0.00046621,0,0,0,0.056955,0.0030132,0.01799,-0.19046,0.025986,0.04823,3.9443e-06,0.34,0.55,0
0.016138,0.0004487,0.057034,0.0028072,0.017952,-0.00016244,0,0,0.050806,-0.019689,0,-0.00042236,0,0,0,0.057034,0.0028067,0.017952,-0.17164,0.025931,0.048463,3.979e-06,0.35,0.55,0
0.016647,0.00043089,0.057107,0.0026103,0.017915,-0.00014556,0,0,0.050949,-0.019896,0,-0.00037845,0,0,0,0.057107,0.0026099,0.017915,-0.15303,0.025877,0.048684,4.0116e-06,0.36,0.55,0
0.017157,0.00041329,0.057174,0.0024226,0.017879,-0.00012881,0,0,0.051083,-0.020093,0,-0.00033491,0,0,0,0.057174,0.0024223,0.017879,-0.1348,0.025825,0.048892,4.0421e-06,0.37,0.55,0
0.017668,0.00039597,0.057235,0.002244,0.017844,-0.00011234,0,0,0.051209,-0.02028,0,-0.00029208,0,0,0,0.057235,0.0022437,0.017844,-0.11704,0.025774,0.049087,4.0706e-06,0.38,0.55,0
0.018181,0.00037894,0.057291,0.0020741,0.017809,-9.6254e-05,0,0,0.051325,-0.020456,0,-0.00025026,0,0,0,0.057291,0.0020739,0.017809,-0.099879,0.025725,0.049271,4.0972e-06,0.39,0.55,0
0.018695,0.00036224,0.057341,0.0019127,0.017776,-8.0658e-05,0,0,0.051434,-0.020622,0,-0.00020971,0,0,0,0.057341,0.0019125,0.017776,-0.083376,0.025676,0.049443,4.1219e-06,0.4,0.55,0
0.01921,0.00034589,0.057385,0.0017594,0.017743,-6.5628e-05,0,0,0.051535,-0.020779,0,-0.00017063,0,0,0,0.057386,0.0017594,0.017743,-0.067598,0.025629,0.049605,4.1447e-06,0.41,0.55,0
0.019725,0.00032992,0.057425,0.0016141,0.017712,-5.1228e-05,0,0,0.051628,-0.020927,0,-0.00013319,0,0,0,0.057425,0.0016141,0.017712,-0.05259,0.025584,0.049756,4.1658e-06,0.42,0.55,0
0.020242,0.00031432,0.057461,0.0014765,0.017681,-3.7507e-05,0,0,0.051713,-0.021066,0,-9.7518e-05,0,0,0,0.057461,0.0014764,0.017681,-0.038386,0.025539,0.049896,4.1852e-06,0.43,0.55,0
0.02076,0.00029913,0.057491,0.0013461,0.017651,-2.4504e-05,0,0,0.051792,-0.021197,0,-6.3709e-05,0,0,0,0.057491,0.0013461,0.017651,-0.025006,0.025496,0.050027,4.203e-06,0.44,0.55,0
0.021278,0.00028434,0.057518,0.0012228,0.017622,-1.2244e-05,0,0,0.051864,-0.021319,0,-3.1836e-05,0,0,0,0.057518,0.0012228,0.017622,-0.012462,0.025454,0.050148,4.2192e-06,0.45,0.55,0
0.021797,0.00026997,0.05754,0.0011063,0.017594,-7.4702e-07,0,0,0.05193,-0.021434,0,-1.9422e-06,0,0,0,0.05754,0.0011063,0.017594,-0.00075843,0.025413,0.050261,4.2339e-06,0.46,0.55,0
0.022317,0.00025602,0.057559,0.00099633,0.017567,9.9801e-06,0,0,0.05199,-0.021541,0,2.5948e-05,0,0,0,0.057559,0.00099632,0.017567,0.010109,0.025374,0.050365,4.2472e-06,0.47,0.55,0
0.022837,0.00024249,0.057574,0.00089257,0.01754,1.9935e-05,0,0,0.052044,-0.021642,0,5.1832e-05,0,0,0,0.057574,0.00089256,0.01754,0.020151,0.025336,0.050461,4.2592e-06,0.48,0.55,0
0.023357,0.00022938,0.057586,0.00079478,0.017514,2.9123e-05,0,0,0.052093,-0.021735,0,7.5721e-05,0,0,0,0.057586,0.00079477,0.017514,0.029382,0.025298,0.050549,4.27e-06,0.49,0.55,0
0.023879,0.00021668,0.057594,0.00070271,0.017489,3.7555e-05,0,0,0.052137,-0.021822,0,9.7642e-05,0,0,0,0.057594,0.00070268,0.017489,0.037822,0.025262,0.05063,4.2795e-06,0.5,0.55,0
0.0244,0.00020441,0.0576,0.00061609,0.017465,4.5244e-05,0,0,0.052175,-0.021903,0,0.00011763,0,0,0,0.0576,0.00061606,0.017465,0.045492,0.025227,0.050704,4.2879e-06,0.51,0.55,0
0.024922,0.00019255,0.057603,0.00053468,0.017441,5.221e-05,0,0,0.05221,-0.021979,0,0.00013575,0,0,0,0.057603,0.00053463,0.017441,0.052418,0.025193,0.050772,4.2953e-06,0.52,0.55,0
0.025444,0.0001811,0.057603,0.00045824,0.017418,5.8475e-05,0,0,0.05224,-0.022048,0,0.00015203,0,0,0,0.057603,0.00045818,0.017418,0.058629,0.02516,0.050833,4.3017e-06,0.53,0.55,0
0.025967,0.00017005,0.057601,0.00038653,0.017396,6.4063e-05,0,0,0.052266,-0.022113,0,0.00016656,0,0,0,0.057601,0.00038646,0.017396,0.064154,0.025128,0.050889,4.3071e-06,0.54,0.55,0
0.02649,0.0001594,0.057597,0.00031932,0.017375,6.9e-05,0,0,0.052289,-0.022172,0,0.0001794,0,0,0,0.057597,0.00031924,0.017375,0.069022,0.025097,0.050939,4.3117e-06,0.55,0.55,0
0.027013,0.00014913,0.057591,0.00025639,0.017354,7.3315e-05,0,0,0.052308,-0.022227,0,0.00019062,0,0,0,0.057591,0.0002563,0.017354,0.073265,0.025067,0.050984,4.3155e-06,0.56,0.55,0
0.027536,0.00013925,0.057583,0.00019753,0.017334,7.7037e-05,0,0,0.052324,-0.022278,0,0.00020029,0,0,0,0.057584,0.00019743,0.017334,0.076916,0.025038,0.051024,4.3185e-06,0.57,0.55,0
0.028059,0.00012974,0.057574,0.00014253,0.017315,8.0195e-05,0,0,0.052337,-0.022324,0,0.00020851,0,0,0,0.057574,0.00014242,0.017315,0.080005,0.025011,0.051059,4.3209e-06,0.58,0.55,0
0.028583,0.00012059,0.057563,9.1187e-05,0.017296,8.2819e-05,0,0,0.052347,-0.022367,0,0.00021533,0,0,0,0.057563,9.1067e-05,0.017296,0.082564,0.024984,0.051091,4.3226e-06,0.59,0.55,0
0.029106,0.0001118,0.057551,4.331e-05,0.017278,8.494e-05,0,0,0.052355,-0.022405,0,0.00022084,0,0,0,0.057551,4.3184e-05,0.017278,0.084626,0.024958,0.051118,4.3238e-06,0.6,0.55,0
0.02963,0.00010336,0.057538,-1.2881e-06,0.017261,8.6587e-05,0,0,0.05236,-0.022441,0,0.00022513,0,0,0,0.057538,-1.4184e-06,0.017261,0.086221,0.024932,0.051142,4.3244e-06,0.61,0.55,0
0.030153,9.525e-05,0.057523,-4.2785e-05,0.017244,8.7791e-05,0,0,0.052363,-0.022473,0,0.00022826,0,0,0,0.057524,-4.2919e-05,0.017244,0.087378,0.024908,0.051162,4.3245e-06,0.62,0.55,0
0.030677,8.7472e-05,0.057508,-8.1355e-05,0.017228,8.8581e-05,0,0,0.052364,-0.022502,0,0.00023031,0,0,0,0.057508,-8.1491e-05,0.017228,0.088129,0.024885,0.05118,4.3242e-06,0.63,0.55,0
0.031201,8.0014e-05,0.057493,-0.00011716,0.017213,8.8985e-05,0,0,0.052364,-0.022529,0,0.00023136,0,0,0,0.057493,-0.0001173,0.017213,0.0885,0.024863,0.051194,4.3235e-06,0.64,0.55,0
0.031724,7.2868e-05,0.057476,-0.00015036,0.017198,8.903e-05,0,0,0.052362,-0.022552,0,0.00023148,0,0,0,0.057476,-0.0001505,0.017198,0.088519,0.024841,0.051206,4.3224e-06,0.65,0.55,0
0.032248,6.6024e-05,0.057459,-0.00018112,0.017183,8.8743e-05,0,0,0.052358,-0.022574,0,0.00023073,0,0,0,0.057459,-0.00018125,0.017183,0.088213,0.02482,0.051215,4.321e-06,0.66,0.55,0
0.032772,5.9473e-05,0.057441,-0.00020956,0.01717,8.815e-05,0,0,0.052353,-0.022593,0,0.00022919,0,0,0,0.057441,-0.0002097,0.01717,0.087607,0.0248,0.051223,4.3193e-06,0.67,0.55,0
0.033295,5.3209e-05,0.057424,-0.00023584,0.017156,8.7275e-05,0,0,0.052347,-0.02261,0,0.00022692,0,0,0,0.057424,-0.00023597,0.017156,0.086724,0.024781,0.051228,4.3174e-06,0.68,0.55,0
0.033818,4.7221e-05,0.057406,-0.00026008,0.017144,8.6141e-05,0,0,0.05234,-0.022625,0,0.00022397,0,0,0,0.057406,-0.00026021,0.017144,0.085589,0.024763,0.051231,4.3153e-06,0.69,0.55,0
0.034342,4.1502e-05,0.057387,-0.00028242,0.017132,8.4772e-05,0,0,0.052333,-0.022638,0,0.00022041,0,0,0,0.057388,-0.00028254,0.017132,0.084222,0.024746,0.051233,4.313e-06,0.7,0.55,0
0.034865,3.6045e-05,0.057369,-0.00030297,0.01712,8.3187e-05,0,0,0.052324,-0.02265,0,0.00021629,0,0,0,0.057369,-0.00030309,0.01712,0.082644,0.024729,0.051233,4.3105e-06,0.71,0.55,0
0.035388,3.0842e-05,0.057351,-0.00032185,0.017109,8.1406e-05,0,0,0.052315,-0.02266,0,0.00021166,0,0,0,0.057351,-0.00032197,0.017109,0.080874,0.024713,0.051232,4.3079e-06,0.72,0.55,0
0.035911,2.5885e-05,0.057333,-0.00033917,0.017098,7.9449e-05,0,0,0.052305,-0.022669,0,0.00020657,0,0,0,0.057333,-0.00033928,0.017098,0.07893,0.024697,0.05123,4.3052e-06,0.73,0.55,0
0.036434,2.1168e-05,0.057315,-0.00035504,0.017088,7.7332e-05,0,0,0.052295,-0.022676,0,0.00020106,0,0,0,0.057315,-0.00035514,0.017088,0.07683,0.024683,0.051227,4.3024e-06,0.74,0.55,0
0.036957,1.6683e-05,0.057297,-0.00036955,0.017078,7.5071e-05,0,0,0.052285,-0.022682,0,0.00019519,0,0,0,0.057297,-0.00036964,0.017078,0.074588,0.024669,0.051222,4.2996e-06,0.75,0.55,0
0.03748,1.2425e-05,0.05728,-0.00038279,0.017069,7.2683e-05,0,0,0.052274,-0.022687,0,0.00018897,0,0,0,0.05728,-0.00038289,0.017069,0.07222,0.024655,0.051218,4.2967e-06,0.76,0.55,0
0.038003,8.3862e-06,0.057263,-0.00039487,0.01706,7.018e-05,0,0,0.052263,-0.022692,0,0.00018247,0,0,0,0.057263,-0.00039495,0.01706,0.069739,0.024643,0.051212,4.2938e-06,0.77,0.55,0
0.038525,4.5618e-06,0.057246,-0.00040585,0.017052,6.7576e-05,0,0,0.052252,-0.022695,0,0.0001757,0,0,0,0.057246,-0.00040593,0.017052,0.067158,0.024631,0.051206,4.291e-06,0.78,0.55,0
0.039048,9.4579e-07,0.05723,-0.00041583,0.017044,6.4883e-05,0,0,0.052241,-0.022698,0,0.0001687,0,0,0,0.05723,-0.0004159,0.017044,0.064489,0.024619,0.0512,4.2881e-06,0.79,0.55,0
0.03957,-2.4672e-06,0.057214,-0.00042487,0.017037,6.2111e-05,0,0,0.052231,-0.0227,0,0.00016149,0,0,0,0.057214,-0.00042493,0.017037,0.061741,0.024609,0.051193,4.2853e-06,0.8,0.55,0
0.040092,-5.6823e-06,0.057199,-0.00043304,0.01703,5.927e-05,0,0,0.05222,-0.022702,0,0.0001541,0,0,0,0.057199,-0.0004331,0.01703,0.058924,0.024599,0.051186,4.2825e-06,0.81,0.55,0
0.040615,-8.7044e-06,0.057184,-0.00044042,0.017023,5.637e-05,0,0,0.052209,-0.022703,0,0.00014656,0,0,0,0.057184,-0.00044048,0.017023,0.056048,0.024589,0.051179,4.2798e-06,0.82,0.55,0
0.041137,-1.1538e-05,0.05717,-0.00044707,0.017017,5.3418e-05,0,0,0.052199,-0.022703,0,0.00013889,0,0,0,0.05717,-0.00044711,0.017017,0.05312,0.02458,0.051172,4.2772e-06,0.83,0.55,0
0.041659,-1.4187e-05,0.057157,-0.00045303,0.017011,5.0423e-05,0,0,0.052189,-0.022704,0,0.0001311,0,0,0,0.057157,-0.00045308,0.017011,0.050148,0.024572,0.051165,4.2747e-06,0.84,0.55,0
0.04218,-1.6656e-05,0.057144,-0.00045838,0.017006,4.7389e-05,0,0,0.05218,-0.022703,0,0.00012321,0,0,0,0.057144,-0.00045842,0.017006,0.047137,0.024564,0.051158,4.2723e-06,0.85,0.55,0
0.042702,-1.8949e-05,0.057132,-0.00046315,0.017001,4.4324e-05,0,0,0.052171,-0.022703,0,0.00011524,0,0,0,0.057132,-0.00046318,0.017001,0.044094,0.024557,0.051151,4.2699e-06,0.86,0.55,0
0.043224,-2.1069e-05,0.057121,-0.0004674,0.016996,4.1232e-05,0,0,0.052162,-0.022703,0,0.0001072,0,0,0,0.057121,-0.00046742,0.016996,0.041023,0.02455,0.051144,4.2678e-06,0.87,0.55,0
0.043745,-2.3019e-05,0.057111,-0.00047116,0.016992,3.8118e-05,0,0,0.052154,-0.022702,0,9.9107e-05,0,0,0,0.057111,-0.00047118,0.016992,0.037929,0.024544,0.051138,4.2657e-06,0.88,0.55,0
0.044267,-2.4802e-05,0.057101,-0.00047448,0.016988,3.4986e-05,0,0,0.052147,-0.022701,0,9.0963e-05,0,0,0,0.057101,-0.0004745,0.016988,0.034816,0.024538,0.051132,4.2638e-06,0.89,0.55,0
0.044788,-2.6421e-05,0.057092,-0.00047739,0.016984,3.1839e-05,0,0,0.05214,-0.0227,0,8.278e-05,0,0,0,0.057092,-0.00047741,0.016984,0.031687,0.024533,0.051126,4.262e-06,0.9,0.55,0
0.04531,-2.7879e-05,0.057084,-0.00047993,0.016981,2.8679e-05,0,0,0.052133,-0.022699,0,7.4566e-05,0,0,0,0.057084,-0.00047995,0.016981,0.028546,0.024528,0.051121,4.2604e-06,0.91,0.55,0
0.045831,-2.9177e-05,0.057076,-0.00048213,0.016978,2.551e-05,0,0,0.052128,-0.022698,0,6.6327e-05,0,0,0,0.057076,-0.00048214,0.016978,0.025394,0.024524,0.051116,4.2589e-06,0.92,0.55,0
0.046352,-3.0317e-05,0.05707,-0.000484,0.016976,2.2334e-05,0,0,0.052122,-0.022698,0,5.8069e-05,0,0,0,0.05707,-0.00048401,0.016976,0.022234,0.024521,0.051112,4.2576e-06,0.93,0.55,0
0.046873,-3.1303e-05,0.057064,-0.00048558,0.016974,1.9152e-05,0,0,0.052118,-0.022697,0,4.9796e-05,0,0,0,0.057064,-0.00048559,0.016974,0.019068,0.024517,0.051108,4.2565e-06,0.94,0.55,0
0.047395,-3.2134e-05,0.057059,-0.00048689,0.016972,1.5966e-05,0,0,0.052114,-0.022696,0,4.1511e-05,0,0,0,0.057059,-0.00048689,0.016972,0.015896,0.024515,0.051105,4.2555e-06,0.95,0.55,0
0.047916,-3.2812e-05,0.057055,-0.00048793,0.01697,1.2776e-05,0,0,0.052111,-0.022696,0,3.3217e-05,0,0,0,0.057055,-0.00048793,0.01697,0.012721,0.024513,0.051102,4.2547e-06,0.96,0.55,0
0.048437,-3.3339e-05,0.057052,-0.00048873,0.016969,9.5837e-06,0,0,0.052108,-0.022695,0,2.4918e-05,0,0,0,0.057052,-0.00048873,0.016969,0.0095429,0.024511,0.0511,4.2541e-06,0.97,0.55,0
0.048958,-3.3714e-05,0.05705,-0.00048929,0.016968,6.39e-06,0,0,0.052106,-0.022695,0,1.6614e-05,0,0,0,0.05705,-0.00048929,0.016968,0.0063629,0.02451,0.051098,4.2536e-06,0.98,0.55,0
0.049479,-3.3939e-05,0.057049,-0.00048963,0.016968,3.1952e-06,0,0,0.052105,-0.022695,0,8.3076e-06,0,0,0,0.057049,-0.00048963,0.016968,0.0031818,0.024509,0.051097,4.2534e-06,0.99,0.55,0
0.05,-3.4014e-05,0.057048,-0.00048974,0.016968,-2.8839e-06,0,0,0.052105,-0.022694,0,-7.4981e-06,0,0,0,0.057048,-0.00048974,0.016968,-0.0028718,0.024509,0.051097,4.2533e-06,1,0.55,0
0,0,0.050978,0.021847,0.021847,0.0031538,0,0,0.037869,5.421e-20,0,0.0081998,0,0,0,0.051315,0.02151,0.021847,6.1088,0.031558,0.029638,1.3365e-06,0,0.56,0
0.00037869,8.1998e-05,0.050814,0.020132,0.021284,0.0030884,0,0,0.03839,-0.0014976,0,0.0080299,0,0,0,0.051122,0.019824,0.021284,5.6912,0.030743,0.030594,1.4595e-06,0.01,0.56,0
0.00076779,0.00016102,0.05133,0.018752,0.021025,0.0028913,0,0,0.039397,-0.0029543,0,0.0075173,0,0,0,0.051585,0.018498,0.021025,5.0325,0.030369,0.031899,1.6318e-06,0.02,0.56,0
0.0011666,0.0002349,0.051793,0.017472,0.02078,0.0025992,0,0,0.040318,-0.0043,0,0.006758,0,0,0,0.051989,0.017276,0.02078,4.3064,0.030015,0.0331,1.7925e-06,0.03,0.56,0
0.0015742,0.00030201,0.05219,0.016327,0.020555,0.0022515,0,0,0.041125,-0.0054968,0,0.005854,0,0,0,0.052331,0.016186,0.020555,3.5783,0.02969,0.03417,1.9367e-06,0.04,0.56,0
0.0019891,0.00036139,0.052519,0.015319,0.020352,0.0018878,0,0,0.041818,-0.0065422,0,0.0049083,0,0,0,0.052615,0.015224,0.020352,2.8977,0.029397,0.035109,2.0638e-06,0.05,0.56,0
0.0024105,0.00041273,0.052792,0.014433,0.020168,0.0015373,0,0,0.042412,-0.0074554,0,0.0039969,0,0,0,0.052854,0.014371,0.020168,2.2912,0.029131,0.035937,2.1761e-06,0.06,0.56,0
0.0028374,0.00045619,0.053024,0.013645,0.020001,0.0012165,0,0,0.042931,-0.0082629,0,0.0031629,0,0,0,0.053062,0.013607,0.020001,1.7677,0.02889,0.036678,2.2769e-06,0.07,0.56,0
0.0032691,0.00049219,0.053229,0.012934,0.019849,0.00093215,0,0,0.043394,-0.0089896,0,0.0024236,0,0,0,0.05325,0.012912,0.019849,1.3245,0.02867,0.037356,2.3692e-06,0.08,0.56,0
0.0037053,0.00052129,0.053417,0.012283,0.01971,0.00068503,0,0,0.043819,-0.0096549,0,0.0017811,0,0,0,0.053429,0.012272,0.01971,0.95384,0.02847,0.037988,2.4556e-06,0.09,0.56,0
0.0041455,0.0005441,0.053597,0.011681,0.019583,0.00047299,0,0,0.044218,-0.010273,0,0.0012298,0,0,0,0.053602,0.011676,0.019583,0.64643,0.028287,0.038586,2.5378e-06,0.1,0.56,0
0.0045896,0.00056121,0.053773,0.011117,0.019467,0.00029269,0,0,0.044598,-0.010855,0,0.00076099,0,0,0,0.053775,0.011115,0.019467,0.39312,0.028119,0.039158,2.6171e-06,0.11,0.56,0
0.0050375,0.00057319,0.053946,0.010584,0.019359,0.00014052,0,0,0.044964,-0.011408,0,0.00036534,0,0,0,0.053947,0.010583,0.019359,0.18566,0.027963,0.03971,2.6941e-06,0.12,0.56,0
0.0054889,0.00058057,0.05412,0.010077,0.019259,1.3021e-05,0,0,0.045319,-0.011936,0,3.3855e-05,0,0,0,0.05412,0.010077,0.019259,0.016939,0.027819,0.040245,2.7693e-06,0.13,0.56,0
0.0059438,0.00058387,0.054293,0.0095934,0.019166,-9.2931e-05,0,0,0.045665,-0.012444,0,-0.00024162,0,0,0,0.054293,0.0095932,0.019166,-0.11912,0.027684,0.040765,2.8431e-06,0.14,0.56,0
0.0064022,0.00058352,0.054465,0.0091296,0.019079,-0.00018011,0,0,0.046003,-0.012934,0,-0.00046828,0,0,0,0.054466,0.0091289,0.019079,-0.22762,0.027558,0.041272,2.9155e-06,0.15,0.56,0
0.0068639,0.00057995,0.054637,0.008684,0.018996,-0.00025093,0,0,0.046333,-0.013406,0,-0.00065243,0,0,0,0.054638,0.0086827,0.018996,-0.31286,0.027439,0.041765,2.9864e-06,0.16,0.56,0
0.0073289,0.00057354,0.054807,0.0082551,0.018919,-0.00030751,0,0,0.046655,-0.013863,0,-0.00079953,0,0,0,0.054809,0.008253,0.018919,-0.37846,0.027327,0.042245,3.056e-06,0.17,0.56,0
0.007797,0.00056463,0.054975,0.0078417,0.018845,-0.00035168,0,0,0.046969,-0.014304,0,-0.00091436,0,0,0,0.054977,0.0078391,0.018845,-0.42747,0.027221,0.042713,3.1241e-06,0.18,0.56,0
0.0082682,0.00055354,0.05514,0.0074432,0.018775,-0.00038504,0,0,0.047274,-0.014731,0,-0.0010011,0,0,0,0.055143,0.0074401,0.018775,-0.4625,0.027119,0.043166,3.1907e-06,0.19,0.56,0
0.0087425,0.00054056,0.055301,0.007059,0.018708,-0.00040901,0,0,0.047571,-0.015144,0,-0.0010634,0,0,0,0.055305,0.0070555,0.018708,-0.48573,0.027023,0.043607,3.2556e-06,0.2,0.56,0
0.0092197,0.00052596,0.055459,0.0066884,0.018644,-0.00042483,0,0,0.047859,-0.015542,0,-0.0011046,0,0,0,0.055462,0.0066847,0.018644,-0.49905,0.02693,0.044033,3.3188e-06,0.21,0.56,0
0.0096997,0.00050997,0.055611,0.0063313,0.018583,-0.0004336,0,0,0.048137,-0.015927,0,-0.0011274,0,0,0,0.055615,0.0063275,0.018583,-0.50408,0.026842,0.044446,3.3801e-06,0.22,0.56,0
0.010182,0.00049281,0.055759,0.0059872,0.018524,-0.0004363,0,0,0.048405,-0.016298,0,-0.0011344,0,0,0,0.055763,0.0059834,0.018524,-0.5022,0.026757,0.044844,3.4395e-06,0.23,0.56,0
0.010668,0.00047468,0.055901,0.0056559,0.018467,-0.00043379,0,0,0.048664,-0.016654,0,-0.0011278,0,0,0,0.055905,0.0056522,0.018467,-0.49461,0.026675,0.045228,3.4969e-06,0.24,0.56,0
0.011156,0.00045576,0.056037,0.0053372,0.018412,-0.00042685,0,0,0.048912,-0.016998,0,-0.0011098,0,0,0,0.056041,0.0053336,0.018412,-0.48234,0.026596,0.045597,3.5523e-06,0.25,0.56,0
0.011646,0.00043621,0.056168,0.0050307,0.01836,-0.00041619,0,0,0.04915,-0.017327,0,-0.0010821,0,0,0,0.056171,0.0050274,0.01836,-0.46627,0.026519,0.045952,3.6055e-06,0.26,0.56,0
0.012139,0.00041617,0.056292,0.0047364,0.018308,-0.00040241,0,0,0.049378,-0.017644,0,-0.0010463,0,0,0,0.056295,0.0047332,0.018308,-0.44718,0.026446,0.046292,3.6565e-06,0.27,0.56,0
0.012634,0.00039579,0.05641,0.0044539,0.018259,-0.00038609,0,0,0.049596,-0.017947,0,-0.0010038,0,0,0,0.056412,0.004451,0.018259,-0.42574,0.026374,0.046617,3.7054e-06,0.28,0.56,0
0.013131,0.00037517,0.056521,0.004183,0.018211,-0.0003677,0,0,0.049803,-0.018237,0,-0.00095603,0,0,0,0.056524,0.0041804,0.018211,-0.40251,0.026305,0.046928,3.752e-06,0.29,0.56,0
0.01363,0.00035442,0.056626,0.0039235,0.018165,-0.00034771,0,0,0.05,-0.018514,0,-0.00090404,0,0,0,0.056628,0.0039212,0.018165,-0.37799,0.026238,0.047225,3.7965e-06,0.3,0.56,0
0.014131,0.00033364,0.056725,0.0036751,0.01812,-0.00032649,0,0,0.050186,-0.018778,0,-0.00084887,0,0,0,0.056727,0.0036731,0.01812,-0.3526,0.026173,0.047507,3.8387e-06,0.31,0.56,0
0.014633,0.00031291,0.056817,0.0034375,0.018076,-0.0003044,0,0,0.050363,-0.01903,0,-0.00079144,0,0,0,0.056819,0.0034358,0.018076,-0.32672,0.02611,0.047776,3.8787e-06,0.32,0.56,0
0.015138,0.0002923,0.056903,0.0032106,0.018034,-0.00028175,0,0,0.05053,-0.01927,0,-0.00073255,0,0,0,0.056904,0.0032091,0.018034,-0.30065,0.026049,0.048031,3.9165e-06,0.33,0.56,0
0.015644,0.00027188,0.056983,0.002994,0.017993,-0.0002588,0,0,0.050687,-0.019499,0,-0.00067289,0,0,0,0.056984,0.0029927,0.017993,-0.27465,0.02599,0.048272,3.9522e-06,0.34,0.56,0
0.016152,0.0002517,0.057057,0.0027874,0.017953,-0.0002358,0,0,0.050834,-0.019716,0,-0.00061307,0,0,0,0.057057,0.0027864,0.017953,-0.24894,0.025932,0.0485,3.9857e-06,0.35,0.56,0
0.016661,0.00023181,0.057124,0.0025906,0.017914,-0.00021294,0,0,0.050973,-0.019921,0,-0.00055364,0,0,0,0.057125,0.0025897,0.017914,-0.22372,0.025877,0.048716,4.0172e-06,0.36,0.56,0
0.017171,0.00021227,0.057187,0.0024032,0.017877,-0.0001904,0,0,0.051103,-0.020116,0,-0.00049505,0,0,0,0.057187,0.0024025,0.017877,-0.19913,0.025822,0.048919,4.0466e-06,0.37,0.56,0
0.017683,0.00019309,0.057243,0.002225,0.01784,-0.00016834,0,0,0.051223,-0.0203,0,-0.00043768,0,0,0,0.057244,0.0022245,0.01784,-0.17531,0.02577,0.04911,4.0741e-06,0.38,0.56,0
0.018195,0.00017431,0.057294,0.0020557,0.017805,-0.00014687,0,0,0.051336,-0.020474,0,-0.00038187,0,0,0,0.057295,0.0020553,0.017805,-0.15234,0.025718,0.049289,4.0997e-06,0.39,0.56,0
0.018709,0.00015595,0.057341,0.0018949,0.017771,-0.00012611,0,0,0.051441,-0.020638,0,-0.00032788,0,0,0,0.057341,0.0018946,0.017771,-0.13032,0.025669,0.049458,4.1234e-06,0.4,0.56,0
0.019224,0.00013804,0.057382,0.0017424,0.017737,-0.00010613,0,0,0.051538,-0.020793,0,-0.00027595,0,0,0,0.057382,0.0017422,0.017737,-0.10929,0.02562,0.049615,4.1454e-06,0.41,0.56,0
0.01974,0.0001206,0.057418,0.0015978,0.017705,-8.7015e-05,0,0,0.051627,-0.020939,0,-0.00022624,0,0,0,0.057418,0.0015977,0.017705,-0.089314,0.025574,0.049762,4.1656e-06,0.42,0.56,0
0.020257,0.00010362,0.05745,0.001461,0.017673,-6.8804e-05,0,0,0.05171,-0.021076,0,-0.00017889,0,0,0,0.05745,0.0014609,0.017673,-0.070409,0.025528,0.049899,4.1842e-06,0.43,0.56,0
0.020774,8.7131e-05,0.057478,0.0013315,0.017643,-5.154e-05,0,0,0.051786,-0.021205,0,-0.000134,0,0,0,0.057478,0.0013314,0.017643,-0.052595,0.025484,0.050027,4.2013e-06,0.44,0.56,0
0.021293,7.1129e-05,0.057502,0.0012091,0.017613,-3.5249e-05,0,0,0.051855,-0.021326,0,-9.1648e-05,0,0,0,0.057502,0.001209,0.017613,-0.035877,0.025441,0.050145,4.2168e-06,0.45,0.56,0
0.021812,5.5617e-05,0.057522,0.0010934,0.017585,-1.9947e-05,0,0,0.051918,-0.021438,0,-5.1864e-05,0,0,0,0.057522,0.0010934,0.017585,-0.020254,0.0254,0.050255,4.2309e-06,0.46,0.56,0
0.022331,4.0599e-05,0.057538,0.00098433,0.017557,-5.6408e-06,0,0,0.051976,-0.021544,0,-1.4666e-05,0,0,0,0.057538,0.00098432,0.017557,-0.0057148,0.02536,0.050356,4.2436e-06,0.47,0.56,0
0.022851,2.6071e-05,0.057551,0.00088145,0.01753,7.6731e-06,0,0,0.052028,-0.021643,0,1.995e-05,0,0,0,0.057551,0.00088144,0.01753,0.0077579,0.025321,0.05045,4.2551e-06,0.48,0.56,0
0.023371,1.2032e-05,0.057561,0.00078453,0.017504,2.0004e-05,0,0,0.052075,-0.021735,0,5.2009e-05,0,0,0,0.057561,0.00078452,0.017504,0.020186,0.025283,0.050536,4.2654e-06,0.49,0.56,0
0.023893,-1.5232e-06,0.057568,0.0006933,0.017478,3.1366e-05,0,0,0.052117,-0.021821,0,8.1552e-05,0,0,0,0.057568,0.00069328,0.017478,0.031598,0.025247,0.050615,4.2745e-06,0.5,0.56,0
0.024414,-1.4601e-05,0.057572,0.00060752,0.017454,4.1781e-05,0,0,0.052154,-0.0219,0,0.00010863,0,0,0,0.057572,0.00060749,0.017454,0.042024,0.025211,0.050687,4.2825e-06,0.51,0.56,0
0.024936,-2.7207e-05,0.057574,0.00052691,0.01743,5.1273e-05,0,0,0.052187,-0.021974,0,0.00013331,0,0,0,0.057574,0.00052687,0.01743,0.051496,0.025177,0.050752,4.2895e-06,0.52,0.56,0
0.025458,-3.9351e-05,0.057573,0.00045125,0.017407,5.987e-05,0,0,0.052216,-0.022043,0,0.00015566,0,0,0,0.057573,0.00045119,0.017407,0.060052,0.025144,0.050812,4.2955e-06,0.53,0.56,0
0.02598,-5.104e-05,0.05757,0.0003803,0.017385,6.7604e-05,0,0,0.052241,-0.022106,0,0.00017577,0,0,0,0.05757,0.00038021,0.017385,0.067729,0.025112,0.050866,4.3007e-06,0.54,0.56,0
0.026502,-6.2284e-05,0.057565,0.00031381,0.017364,7.4508e-05,0,0,0.052262,-0.022165,0,0.00019372,0,0,0,0.057566,0.00031371,0.017364,0.074565,0.025081,0.050915,4.305e-06,0.55,0.56,0
0.027025,-7.3094e-05,0.057559,0.00025157,0.017343,8.0617e-05,0,0,0.05228,-0.022219,0,0.0002096,0,0,0,0.057559,0.00025146,0.017343,0.0806,0.025051,0.050959,4.3086e-06,0.56,0.56,0
0.027548,-8.348e-05,0.05755,0.00019337,0.017323,8.5966e-05,0,0,0.052296,-0.022269,0,0.00022351,0,0,0,0.057551,0.00019324,0.017323,0.085874,0.025022,0.050998,4.3115e-06,0.57,0.56,0
0.028071,-9.3452e-05,0.057541,0.00013899,0.017304,9.0593e-05,0,0,0.052308,-0.022314,0,0.00023554,0,0,0,0.057541,0.00013884,0.017304,0.090426,0.024994,0.051033,4.3137e-06,0.58,0.56,0
0.028594,-0.00010302,0.057529,8.8235e-05,0.017285,9.4535e-05,0,0,0.052317,-0.022356,0,0.00024579,0,0,0,0.05753,8.8079e-05,0.017285,0.094295,0.024968,0.051063,4.3153e-06,0.59,0.56,0
0.029117,-0.0001122,0.057517,4.0914e-05,0.017267,9.7829e-05,0,0,0.052325,-0.022394,0,0.00025435,0,0,0,0.057517,4.0747e-05,0.017267,0.097521,0.024942,0.05109,4.3163e-06,0.6,0.56,0
0.029641,-0.00012099,0.057504,-3.1609e-06,0.01725,0.00010051,0,0,0.05233,-0.022429,0,0.00026133,0,0,0,0.057504,-3.3365e-06,0.01725,0.10014,0.024917,0.051113,4.3168e-06,0.61,0.56,0
0.030164,-0.00012942,0.057489,-4.4168e-05,0.017233,0.00010262,0,0,0.052332,-0.022461,0,0.00026681,0,0,0,0.057489,-4.4351e-05,0.017233,0.10219,0.024893,0.051133,4.3169e-06,0.62,0.56,0
0.030687,-0.00013749,0.057474,-8.2279e-05,0.017218,0.00010419,0,0,0.052333,-0.02249,0,0.00027089,0,0,0,0.057474,-8.2468e-05,0.017218,0.10372,0.02487,0.05115,4.3165e-06,0.63,0.56,0
0.031211,-0.00014521,0.057458,-0.00011766,0.017202,0.00010525,0,0,0.052333,-0.022516,0,0.00027366,0,0,0,0.057458,-0.00011785,0.017202,0.10474,0.024848,0.051164,4.3158e-06,0.64,0.56,0
0.031734,-0.00015259,0.057442,-0.00015046,0.017187,0.00010585,0,0,0.052331,-0.022539,0,0.00027521,0,0,0,0.057442,-0.00015066,0.017187,0.1053,0.024826,0.051176,4.3147e-06,0.65,0.56,0
0.032257,-0.00015965,0.057425,-0.00018085,0.017173,0.00010601,0,0,0.052327,-0.02256,0,0.00027561,0,0,0,0.057425,-0.00018104,0.017173,0.10544,0.024806,0.051185,4.3133e-06,0.66,0.56,0
0.03278,-0.00016639,0.057408,-0.00020895,0.01716,0.00010576,0,0,0.052322,-0.022579,0,0.00027497,0,0,0,0.057408,-0.00020915,0.01716,0.10517,0.024786,0.051192,4.3117e-06,0.67,0.56,0
0.033304,-0.00017282,0.05739,-0.00023492,0.017146,0.00010513,0,0,0.052316,-0.022596,0,0.00027334,0,0,0,0.05739,-0.00023511,0.017146,0.10453,0.024767,0.051197,4.3098e-06,0.68,0.56,0
0.033827,-0.00017896,0.057372,-0.00025887,0.017134,0.00010416,0,0,0.05231,-0.022611,0,0.00027082,0,0,0,0.057372,-0.00025906,0.017134,0.10355,0.024749,0.051201,4.3077e-06,0.69,0.56,0
0.03435,-0.00018481,0.057354,-0.00028094,0.017122,0.00010287,0,0,0.052302,-0.022624,0,0.00026746,0,0,0,0.057354,-0.00028113,0.017122,0.10226,0.024732,0.051202,4.3054e-06,0.7,0.56,0
0.034873,-0.00019038,0.057336,-0.00030125,0.017111,0.00010128,0,0,0.052293,-0.022635,0,0.00026334,0,0,0,0.057336,-0.00030143,0.017111,0.10068,0.024715,0.051203,4.303e-06,0.71,0.56,0
0.035396,-0.00019569,0.057319,-0.00031992,0.0171,9.9428e-05,0,0,0.052285,-0.022645,0,0.00025851,0,0,0,0.057319,-0.00032009,0.0171,0.098837,0.024699,0.051202,4.3004e-06,0.72,0.56,0
0.035919,-0.00020073,0.057301,-0.00033704,0.017089,9.7328e-05,0,0,0.052275,-0.022654,0,0.00025305,0,0,0,0.057301,-0.0003372,0.017089,0.09675,0.024684,0.0512,4.2978e-06,0.73,0.56,0
0.036441,-0.00020552,0.057283,-0.00035272,0.017079,9.5003e-05,0,0,0.052265,-0.022661,0,0.00024701,0,0,0,0.057283,-0.00035288,0.017079,0.094442,0.02467,0.051197,4.2951e-06,0.74,0.56,0
0.036964,-0.00021007,0.057266,-0.00036707,0.01707,9.2475e-05,0,0,0.052255,-0.022668,0,0.00024044,0,0,0,0.057266,-0.00036722,0.01707,0.091934,0.024656,0.051193,4.2923e-06,0.75,0.56,0
0.037486,-0.00021438,0.057249,-0.00038017,0.017061,8.9763e-05,0,0,0.052245,-0.022673,0,0.00023338,0,0,0,0.057249,-0.00038031,0.017061,0.089244,0.024643,0.051188,4.2896e-06,0.76,0.56,0
0.038009,-0.00021846,0.057232,-0.00039211,0.017052,8.6884e-05,0,0,0.052234,-0.022677,0,0.0002259,0,0,0,0.057232,-0.00039224,0.017052,0.086388,0.024631,0.051183,4.2868e-06,0.77,0.56,0
0.038531,-0.00022232,0.057216,-0.00040298,0.017044,8.3854e-05,0,0,0.052223,-0.022681,0,0.00021802,0,0,0,0.057216,-0.0004031,0.017044,0.083384,0.024619,0.051177,4.2839e-06,0.78,0.56,0
0.039053,-0.00022597,0.0572,-0.00041285,0.017036,8.069e-05,0,0,0.052213,-0.022684,0,0.00020979,0,0,0,0.0572,-0.00041296,0.017036,0.080246,0.024608,0.051171,4.2812e-06,0.79,0.56,0
0.039575,-0.0002294,0.057185,-0.00042179,0.017029,7.7405e-05,0,0,0.052202,-0.022686,0,0.00020125,0,0,0,0.057185,-0.0004219,0.017029,0.076988,0.024597,0.051164,4.2784e-06,0.8,0.56,0
0.040097,-0.00023263,0.05717,-0.00042989,0.017022,7.4013e-05,0,0,0.052192,-0.022687,0,0.00019243,0,0,0,0.05717,-0.00042998,0.017022,0.073622,0.024587,0.051158,4.2758e-06,0.81,0.56,0
0.040619,-0.00023566,0.057155,-0.00043719,0.017015,7.0525e-05,0,0,0.052182,-0.022689,0,0.00018336,0,0,0,0.057156,-0.00043728,0.017015,0.070161,0.024578,0.051151,4.2731e-06,0.82,0.56,0
0.041141,-0.0002385,0.057142,-0.00044377,0.017009,6.6952e-05,0,0,0.052172,-0.022689,0,0.00017407,0,0,0,0.057142,-0.00044385,0.017009,0.066614,0.024569,0.051144,4.2706e-06,0.83,0.56,0
0.041663,-0.00024116,0.057129,-0.00044969,0.017004,6.3304e-05,0,0,0.052163,-0.02269,0,0.00016459,0,0,0,0.057129,-0.00044976,0.017004,0.062993,0.024561,0.051137,4.2681e-06,0.84,0.56,0
0.042184,-0.00024362,0.057117,-0.00045498,0.016998,5.959e-05,0,0,0.052153,-0.02269,0,0.00015493,0,0,0,0.057117,-0.00045505,0.016998,0.059305,0.024553,0.05113,4.2658e-06,0.85,0.56,0
0.042706,-0.00024591,0.057105,-0.00045972,0.016994,5.5819e-05,0,0,0.052145,-0.022689,0,0.00014513,0,0,0,0.057105,-0.00045977,0.016994,0.055558,0.024546,0.051124,4.2636e-06,0.86,0.56,0
0.043227,-0.00024803,0.057094,-0.00046393,0.016989,5.1997e-05,0,0,0.052136,-0.022689,0,0.00013519,0,0,0,0.057094,-0.00046397,0.016989,0.051761,0.02454,0.051117,4.2614e-06,0.87,0.56,0
0.043748,-0.00024997,0.057084,-0.00046766,0.016985,4.8133e-05,0,0,0.052129,-0.022688,0,0.00012514,0,0,0,0.057084,-0.0004677,0.016985,0.047919,0.024534,0.051111,4.2594e-06,0.88,0.56,0
0.04427,-0.00025175,0.057074,-0.00047096,0.016981,4.423e-05,0,0,0.052121,-0.022687,0,0.000115,0,0,0,0.057074,-0.00047099,0.016981,0.044038,0.024528,0.051105,4.2576e-06,0.89,0.56,0
0.044791,-0.00025336,0.057065,-0.00047385,0.016977,4.0295e-05,0,0,0.052114,-0.022687,0,0.00010477,0,0,0,0.057065,-0.00047388,0.016977,0.040125,0.024523,0.0511,4.2558e-06,0.9,0.56,0
0.045312,-0.00025481,0.057057,-0.00047637,0.016974,3.6333e-05,0,0,0.052108,-0.022686,0,9.4465e-05,0,0,0,0.057057,-0.00047639,0.016974,0.036182,0.024518,0.051095,4.2543e-06,0.91,0.56,0
0.045833,-0.0002561,0.05705,-0.00047855,0.016972,3.2347e-05,0,0,0.052102,-0.022685,0,8.4102e-05,0,0,0,0.05705,-0.00047857,0.016972,0.032216,0.024514,0.05109,4.2528e-06,0.92,0.56,0
0.046354,-0.00025723,0.057044,-0.00048041,0.016969,2.8342e-05,0,0,0.052097,-0.022684,0,7.3688e-05,0,0,0,0.057044,-0.00048043,0.016969,0.028229,0.024511,0.051086,4.2516e-06,0.93,0.56,0
0.046875,-0.00025821,0.057038,-0.00048198,0.016967,2.432e-05,0,0,0.052093,-0.022684,0,6.3233e-05,0,0,0,0.057038,-0.00048199,0.016967,0.024225,0.024508,0.051082,4.2505e-06,0.94,0.56,0
0.047396,-0.00025903,0.057034,-0.00048328,0.016965,2.0286e-05,0,0,0.052089,-0.022683,0,5.2743e-05,0,0,0,0.057034,-0.00048329,0.016965,0.020208,0.024505,0.051079,4.2495e-06,0.95,0.56,0
0.047917,-0.00025971,0.05703,-0.00048432,0.016964,1.6241e-05,0,0,0.052086,-0.022682,0,4.2225e-05,0,0,0,0.05703,-0.00048432,0.016964,0.016179,0.024503,0.051077,4.2487e-06,0.96,0.56,0
0.048438,-0.00026023,0.057027,-0.00048511,0.016963,1.2187e-05,0,0,0.052084,-0.022682,0,3.1687e-05,0,0,0,0.057027,-0.00048512,0.016963,0.012141,0.024501,0.051075,4.2481e-06,0.97,0.56,0
0.048958,-0.0002606,0.057025,-0.00048567,0.016962,8.128e-06,0,0,0.052082,-0.022682,0,2.1133e-05,0,0,0,0.057025,-0.00048567,0.016962,0.0080977,0.0245,0.051073,4.2477e-06,0.98,0.56,0
0.049479,-0.00026082,0.057023,-0.00048601,0.016961,4.065e-06,0,0,0.052081,-0.022681,0,1.0569e-05,0,0,0,0.057023,-0.00048601,0.016961,0.0040499,0.0245,0.051072,4.2475e-06,0.99,0.56,0
0.05,-0.0002609,0.057023,-0.00048612,0.016961,-2.8575e-06,0,0,0.052081,-0.022681,0,-7.4295e-06,0,0,0,0.057023,-0.00048612,0.016961,-0.0028469,0.024499,0.051072,4.2474e-06,1,0.56,0
0,0,0.05097,0.021844,0.021844,0.0026035,0,0,0.037864,-1.0842e-19,0,0.0067692,0,0,0,0.051201,0.021613,0.021844,5.0681,0.031553,0.029473,1.3146e-06,0,0.57,0
0.00037863,6.7692e-05,0.050824,0.020264,0.021326,0.002554,0,0,0.038347,-0.0013816,0,0.0066404,0,0,0,0.051036,0.020052,0.021326,4.7444,0.030805,0.030367,1.4297e-06,0.01,0.57,0
0.00076695,0.00013274,0.051316,0.018988,0.021091,0.0023979,0,0,0.039292,-0.002734,0,0.0062346,0,0,0,0.051492,0.018811,0.021091,4.2192,0.030465,0.031603,1.5927e-06,0.02,0.57,0
0.0011645,0.00019353,0.051769,0.01778,0.020865,0.0021675,0,0,0.040176,-0.0040106,0,0.0056355,0,0,0,0.051907,0.017642,0.020865,3.6341,0.030138,0.032773,1.749e-06,0.03,0.57,0
0.0015705,0.00024879,0.052173,0.016667,0.020652,0.0018869,0,0,0.040978,-0.0051809,0,0.004906,0,0,0,0.052273,0.016567,0.020652,3.0335,0.029831,0.033849,1.8945e-06,0.04,0.57,0
0.001984,0.00029762,0.052524,0.015659,0.020455,0.0015831,0,0,0.04169,-0.0062348,0,0.004116,0,0,0,0.052592,0.015591,0.020455,2.4544,0.029546,0.034825,2.0272e-06,0.05,0.57,0
0.0024043,0.00033964,0.052827,0.014752,0.020274,0.0012791,0,0,0.042319,-0.0071781,0,0.0033258,0,0,0,0.05287,0.014709,0.020274,1.922,0.029284,0.035705,2.1477e-06,0.06,0.57,0
0.0028304,0.00037478,0.053089,0.013933,0.020107,0.00099116,0,0,0.042877,-0.0080254,0,0.002577,0,0,0,0.053114,0.013908,0.020107,1.4491,0.029043,0.036504,2.2573e-06,0.07,0.57,0
0.0032618,0.00040329,0.053322,0.013189,0.019953,0.00072823,0,0,0.043379,-0.0087936,0,0.0018934,0,0,0,0.053335,0.013176,0.019953,1.0392,0.028821,0.037236,2.3582e-06,0.08,0.57,0
0.003698,0.00042552,0.053533,0.012505,0.019811,0.00049431,0,0,0.043838,-0.0094981,0,0.0012852,0,0,0,0.053539,0.012499,0.019811,0.69017,0.028616,0.037916,2.4523e-06,0.09,0.57,0
0.0041386,0.00044196,0.053729,0.011871,0.01968,0.00029,0,0,0.044264,-0.010152,0,0.000754,0,0,0,0.053731,0.011869,0.01968,0.39693,0.028427,0.038555,2.541e-06,0.1,0.57,0
0.0045833,0.00045309,0.053917,0.011279,0.019558,0.00011409,0,0,0.044665,-0.010764,0,0.00029663,0,0,0,0.053917,0.011278,0.019558,0.1533,0.028251,0.039161,2.6256e-06,0.11,0.57,0
0.0050319,0.00045941,0.054098,0.01072,0.019445,-3.556e-05,0,0,0.045048,-0.011343,0,-9.2457e-05,0,0,0,0.054098,0.01072,0.019445,-0.04697,0.028088,0.03974,2.7069e-06,0.12,0.57,0
0.0054842,0.00046141,0.054275,0.010191,0.01934,-0.0001614,0,0,0.045415,-0.011893,0,-0.00041964,0,0,0,0.054275,0.010191,0.01934,-0.20977,0.027935,0.040297,2.7856e-06,0.13,0.57,0
0.0059402,0.00045954,0.054449,0.0096876,0.019241,-0.00026593,0,0,0.04577,-0.012419,0,-0.00069142,0,0,0,0.05445,0.009686,0.019241,-0.34038,0.027792,0.040834,2.8619e-06,0.14,0.57,0
0.0063996,0.00045422,0.05462,0.0092064,0.019148,-0.00035153,0,0,0.046114,-0.012924,0,-0.00091397,0,0,0,0.054622,0.0092037,0.019148,-0.44347,0.027658,0.041353,2.9362e-06,0.15,0.57,0
0.0068625,0.00044587,0.054788,0.0087455,0.01906,-0.00042038,0,0,0.046447,-0.013409,0,-0.001093,0,0,0,0.054792,0.0087417,0.01906,-0.52307,0.027531,0.041856,3.0086e-06,0.16,0.57,0
0.0073286,0.00043484,0.054954,0.0083032,0.018977,-0.00047449,0,0,0.04677,-0.013876,0,-0.0012337,0,0,0,0.054959,0.0082983,0.018977,-0.58268,0.027411,0.042343,3.079e-06,0.17,0.57,0
0.0077979,0.00042147,0.055116,0.0078781,0.018898,-0.00051563,0,0,0.047083,-0.014326,0,-0.0013406,0,0,0,0.055122,0.0078725,0.018898,-0.62531,0.027297,0.042815,3.1476e-06,0.18,0.57,0
0.0082702,0.00040608,0.055275,0.0074694,0.018823,-0.00054542,0,0,0.047387,-0.01476,0,-0.0014181,0,0,0,0.055281,0.0074631,0.018823,-0.65358,0.027189,0.043271,3.2143e-06,0.19,0.57,0
0.0087456,0.00038896,0.055429,0.0070762,0.018752,-0.00056529,0,0,0.047681,-0.015178,0,-0.0014697,0,0,0,0.055436,0.0070695,0.018752,-0.66971,0.027086,0.043712,3.2791e-06,0.2,0.57,0
0.0092238,0.00037035,0.055579,0.0066979,0.018683,-0.00057653,0,0,0.047965,-0.015581,0,-0.001499,0,0,0,0.055586,0.0066911,0.018683,-0.67565,0.026987,0.044138,3.3419e-06,0.21,0.57,0
0.0097049,0.0003505,0.055725,0.0063341,0.018618,-0.0005803,0,0,0.048239,-0.015969,0,-0.0015088,0,0,0,0.055732,0.0063273,0.018618,-0.67306,0.026892,0.044549,3.4026e-06,0.22,0.57,0
0.010189,0.00032962,0.055865,0.0059842,0.018555,-0.00057763,0,0,0.048503,-0.016342,0,-0.0015019,0,0,0,0.055871,0.0059776,0.018555,-0.66339,0.026801,0.044945,3.4613e-06,0.23,0.57,0
0.010675,0.00030792,0.055999,0.0056481,0.018494,-0.00056946,0,0,0.048757,-0.0167,0,-0.0014806,0,0,0,0.056006,0.0056416,0.018494,-0.64789,0.026714,0.045326,3.5178e-06,0.24,0.57,0
0.011164,0.00028556,0.056128,0.0053252,0.018436,-0.00055662,0,0,0.049,-0.017044,0,-0.0014472,0,0,0,0.056134,0.0053191,0.018436,-0.62766,0.02663,0.045691,3.5721e-06,0.25,0.57,0
0.011655,0.00026271,0.056251,0.0050153,0.01838,-0.00053987,0,0,0.049232,-0.017374,0,-0.0014037,0,0,0,0.056257,0.0050096,0.01838,-0.60363,0.026549,0.046042,3.6243e-06,0.26,0.57,0
0.012148,0.00023952,0.056368,0.0047181,0.018326,-0.00051987,0,0,0.049455,-0.01769,0,-0.0013517,0,0,0,0.056373,0.0047128,0.018326,-0.57663,0.026471,0.046377,3.6742e-06,0.27,0.57,0
0.012644,0.00021611,0.056478,0.0044333,0.018274,-0.00049724,0,0,0.049666,-0.017992,0,-0.0012928,0,0,0,0.056483,0.0044285,0.018274,-0.54734,0.026395,0.046698,3.7218e-06,0.28,0.57,0
0.013142,0.00019259,0.056583,0.0041605,0.018223,-0.00047252,0,0,0.049868,-0.018281,0,-0.0012285,0,0,0,0.056587,0.0041563,0.018223,-0.51639,0.026322,0.047004,3.7672e-06,0.29,0.57,0
0.013641,0.00016908,0.056681,0.0038996,0.018174,-0.00044619,0,0,0.050059,-0.018557,0,-0.0011601,0,0,0,0.056685,0.0038959,0.018174,-0.4843,0.026252,0.047295,3.8104e-06,0.3,0.57,0
0.014143,0.00014566,0.056773,0.0036502,0.018127,-0.00041868,0,0,0.05024,-0.01882,0,-0.0010886,0,0,0,0.056777,0.0036469,0.018127,-0.45153,0.026183,0.047572,3.8513e-06,0.31,0.57,0
0.014646,0.00012242,0.056859,0.003412,0.018081,-0.00039037,0,0,0.050411,-0.01907,0,-0.001015,0,0,0,0.056862,0.0034092,0.018081,-0.41845,0.026117,0.047835,3.8901e-06,0.32,0.57,0
0.015151,9.942e-05,0.056939,0.0031848,0.018037,-0.0003616,0,0,0.050572,-0.019308,0,-0.00094016,0,0,0,0.056941,0.0031823,0.018037,-0.3854,0.026054,0.048085,3.9267e-06,0.33,0.57,0
0.015658,7.6727e-05,0.057013,0.002968,0.017994,-0.00033266,0,0,0.050724,-0.019534,0,-0.00086492,0,0,0,0.057015,0.002966,0.017994,-0.35265,0.025992,0.048321,3.9611e-06,0.34,0.57,0
0.016166,5.4394e-05,0.057081,0.0027616,0.017953,-0.00030381,0,0,0.050867,-0.019749,0,-0.00078992,0,0,0,0.057083,0.0027599,0.017953,-0.32045,0.025932,0.048544,3.9934e-06,0.35,0.57,0
0.016675,3.2464e-05,0.057144,0.0025651,0.017913,-0.00027528,0,0,0.051001,-0.019952,0,-0.00071573,0,0,0,0.057145,0.0025637,0.017913,-0.28897,0.025874,0.048754,4.0238e-06,0.36,0.57,0
0.017186,1.0979e-05,0.057201,0.0023782,0.017874,-0.00024725,0,0,0.051125,-0.020144,0,-0.00064285,0,0,0,0.057202,0.0023771,0.017874,-0.25839,0.025818,0.048952,4.0521e-06,0.37,0.57,0
0.017698,-1.0032e-05,0.057253,0.0022007,0.017836,-0.00021988,0,0,0.051242,-0.020326,0,-0.00057169,0,0,0,0.057254,0.0021998,0.017836,-0.22884,0.025763,0.049139,4.0785e-06,0.38,0.57,0
0.018211,-3.0541e-05,0.0573,0.0020321,0.0178,-0.00019332,0,0,0.05135,-0.020498,0,-0.00050263,0,0,0,0.057301,0.0020314,0.0178,-0.20041,0.025711,0.049314,4.103e-06,0.39,0.57,0
0.018725,-5.0526e-05,0.057342,0.0018722,0.017764,-0.00016767,0,0,0.051451,-0.02066,0,-0.00043593,0,0,0,0.057342,0.0018717,0.017764,-0.17318,0.025659,0.049477,4.1258e-06,0.4,0.57,0
0.019239,-6.9972e-05,0.057379,0.0017206,0.01773,-0.00014302,0,0,0.051544,-0.020812,0,-0.00037184,0,0,0,0.05738,0.0017202,0.01773,-0.14722,0.02561,0.049631,4.1468e-06,0.41,0.57,0
0.019755,-8.8866e-05,0.057412,0.0015771,0.017697,-0.00011944,0,0,0.05163,-0.020956,0,-0.00031055,0,0,0,0.057413,0.0015768,0.017697,-0.12256,0.025562,0.049774,4.1661e-06,0.42,0.57,0
0.020272,-0.0001072,0.057441,0.0014413,0.017665,-9.6995e-05,0,0,0.051709,-0.021091,0,-0.00025219,0,0,0,0.057441,0.0014411,0.017665,-0.099239,0.025516,0.049907,4.1839e-06,0.43,0.57,0
0.02079,-0.00012497,0.057466,0.0013128,0.017634,-7.5717e-05,0,0,0.051782,-0.021217,0,-0.00019686,0,0,0,0.057466,0.0013127,0.017634,-0.077258,0.025471,0.050031,4.2001e-06,0.44,0.57,0
0.021308,-0.00014217,0.057487,0.0011915,0.017604,-5.5631e-05,0,0,0.051848,-0.021336,0,-0.00014464,0,0,0,0.057487,0.0011914,0.017604,-0.05662,0.025427,0.050146,4.2149e-06,0.45,0.57,0
0.021826,-0.0001588,0.057504,0.001077,0.017574,-3.6753e-05,0,0,0.051909,-0.021447,0,-9.5557e-05,0,0,0,0.057504,0.0010769,0.017574,-0.037318,0.025385,0.050252,4.2283e-06,0.46,0.57,0
0.022346,-0.00017487,0.057518,0.00096896,0.017546,-1.9083e-05,0,0,0.051964,-0.02155,0,-4.9616e-05,0,0,0,0.057518,0.00096895,0.017546,-0.019335,0.025344,0.050351,4.2405e-06,0.47,0.57,0
0.022866,-0.00019037,0.057529,0.00086717,0.017519,-2.617e-06,0,0,0.052013,-0.021647,0,-6.8042e-06,0,0,0,0.057529,0.00086717,0.017519,-0.0026463,0.025305,0.050441,4.2513e-06,0.48,0.57,0
0.023386,-0.00020532,0.057537,0.00077133,0.017493,1.266e-05,0,0,0.052058,-0.021737,0,3.2915e-05,0,0,0,0.057537,0.00077133,0.017493,0.012778,0.025267,0.050525,4.261e-06,0.49,0.57,0
0.023907,-0.00021973,0.057542,0.00068116,0.017467,2.6767e-05,0,0,0.052098,-0.021822,0,6.9595e-05,0,0,0,0.057542,0.00068115,0.017467,0.026972,0.02523,0.050601,4.2696e-06,0.5,0.57,0
0.024428,-0.0002336,0.057545,0.00059641,0.017442,3.9732e-05,0,0,0.052133,-0.0219,0,0.0001033,0,0,0,0.057545,0.00059638,0.017442,0.039974,0.025195,0.050671,4.2772e-06,0.51,0.57,0
0.02495,-0.00024693,0.057545,0.0005168,0.017418,5.1584e-05,0,0,0.052164,-0.021972,0,0.00013412,0,0,0,0.057545,0.00051676,0.017418,0.051826,0.02516,0.050735,4.2838e-06,0.52,0.57,0
0.025471,-0.00025976,0.057543,0.00044211,0.017396,6.2359e-05,0,0,0.052192,-0.02204,0,0.00016213,0,0,0,0.057543,0.00044204,0.017396,0.062572,0.025127,0.050793,4.2895e-06,0.53,0.57,0
0.025993,-0.00027208,0.057539,0.00037208,0.017373,7.2093e-05,0,0,0.052215,-0.022102,0,0.00018744,0,0,0,0.057539,0.00037199,0.017373,0.072256,0.025095,0.050845,4.2943e-06,0.54,0.57,0
0.026516,-0.0002839,0.057533,0.00030649,0.017352,8.0828e-05,0,0,0.052236,-0.022159,0,0.00021015,0,0,0,0.057533,0.00030637,0.017352,0.080925,0.025064,0.050892,4.2984e-06,0.55,0.57,0
0.027038,-0.00029525,0.057526,0.0002451,0.017331,8.8603e-05,0,0,0.052253,-0.022212,0,0.00023037,0,0,0,0.057526,0.00024497,0.017331,0.088626,0.025034,0.050935,4.3017e-06,0.56,0.57,0
0.027561,-0.00030612,0.057517,0.00018771,0.017311,9.5463e-05,0,0,0.052267,-0.022261,0,0.0002482,0,0,0,0.057517,0.00018756,0.017311,0.095407,0.025005,0.050972,4.3044e-06,0.57,0.57,0
0.028084,-0.00031655,0.057506,0.00013411,0.017292,0.00010145,0,0,0.052278,-0.022305,0,0.00026377,0,0,0,0.057507,0.00013393,0.017292,0.10132,0.024977,0.051006,4.3064e-06,0.58,0.57,0
0.028606,-0.00032653,0.057495,8.4091e-05,0.017274,0.00010661,0,0,0.052287,-0.022346,0,0.00027718,0,0,0,0.057495,8.3893e-05,0.017274,0.1064,0.024951,0.051036,4.3078e-06,0.59,0.57,0
0.029129,-0.00033609,0.057482,3.7463e-05,0.017256,0.00011098,0,0,0.052294,-0.022384,0,0.00028856,0,0,0,0.057482,3.7249e-05,0.017256,0.1107,0.024925,0.051062,4.3087e-06,0.6,0.57,0
0.029652,-0.00034523,0.057468,-5.9585e-06,0.017239,0.00011462,0,0,0.052298,-0.022418,0,0.00029801,0,0,0,0.057468,-6.1871e-06,0.017239,0.11426,0.0249,0.051084,4.3091e-06,0.61,0.57,0
0.030175,-0.00035397,0.057454,-4.6351e-05,0.017222,0.00011755,0,0,0.052301,-0.022449,0,0.00030564,0,0,0,0.057454,-4.6592e-05,0.017222,0.11714,0.024876,0.051103,4.3091e-06,0.62,0.57,0
0.030698,-0.00036232,0.057438,-8.3887e-05,0.017206,0.00011983,0,0,0.052302,-0.022477,0,0.00031156,0,0,0,0.057439,-8.4136e-05,0.017206,0.11936,0.024854,0.05112,4.3086e-06,0.63,0.57,0
0.031221,-0.0003703,0.057423,-0.00011873,0.017191,0.0001215,0,0,0.052301,-0.022503,0,0.00031589,0,0,0,0.057423,-0.00011898,0.017191,0.12098,0.024832,0.051133,4.3079e-06,0.64,0.57,0
0.031744,-0.00037792,0.057406,-0.00015103,0.017177,0.00012258,0,0,0.052298,-0.022526,0,0.00031872,0,0,0,0.057406,-0.00015129,0.017177,0.12203,0.02481,0.051145,4.3067e-06,0.65,0.57,0
0.032267,-0.00038518,0.057389,-0.00018095,0.017163,0.00012313,0,0,0.052295,-0.022546,0,0.00032015,0,0,0,0.057389,-0.00018121,0.017163,0.12255,0.02479,0.051154,4.3053e-06,0.66,0.57,0
0.03279,-0.00039211,0.057372,-0.00020862,0.017149,0.00012318,0,0,0.05229,-0.022565,0,0.00032028,0,0,0,0.057372,-0.00020888,0.017149,0.12258,0.024771,0.05116,4.3037e-06,0.67,0.57,0
0.033313,-0.00039871,0.057355,-0.00023418,0.017136,0.00012277,0,0,0.052284,-0.022581,0,0.0003192,0,0,0,0.057355,-0.00023444,0.017136,0.12215,0.024752,0.051166,4.3018e-06,0.68,0.57,0
0.033836,-0.00040499,0.057337,-0.00025776,0.017124,0.00012193,0,0,0.052277,-0.022596,0,0.00031701,0,0,0,0.057337,-0.00025802,0.017124,0.12129,0.024734,0.051169,4.2997e-06,0.69,0.57,0
0.034359,-0.00041097,0.057319,-0.00027949,0.017112,0.00012068,0,0,0.05227,-0.022609,0,0.00031378,0,0,0,0.05732,-0.00027975,0.017112,0.12005,0.024717,0.05117,4.2975e-06,0.7,0.57,0
0.034881,-0.00041666,0.057302,-0.00029949,0.017101,0.00011907,0,0,0.052261,-0.02262,0,0.00030959,0,0,0,0.057302,-0.00029973,0.017101,0.11844,0.024701,0.051171,4.2951e-06,0.71,0.57,0
0.035404,-0.00042207,0.057284,-0.00031786,0.01709,0.00011712,0,0,0.052253,-0.02263,0,0.00030452,0,0,0,0.057284,-0.0003181,0.01709,0.1165,0.024685,0.05117,4.2926e-06,0.72,0.57,0
0.035926,-0.0004272,0.057267,-0.00033472,0.01708,0.00011486,0,0,0.052243,-0.022639,0,0.00029864,0,0,0,0.057267,-0.00033495,0.01708,0.11425,0.024671,0.051168,4.29e-06,0.73,0.57,0
0.036449,-0.00043206,0.05725,-0.00035016,0.01707,0.00011232,0,0,0.052234,-0.022646,0,0.00029203,0,0,0,0.05725,-0.00035038,0.01707,0.11173,0.024656,0.051165,4.2874e-06,0.74,0.57,0
0.036971,-0.00043667,0.057232,-0.00036428,0.01706,0.00010951,0,0,0.052224,-0.022652,0,0.00028473,0,0,0,0.057233,-0.00036449,0.01706,0.10894,0.024643,0.051161,4.2847e-06,0.75,0.57,0
0.037493,-0.00044103,0.057216,-0.00037718,0.017052,0.00010647,0,0,0.052214,-0.022657,0,0.00027682,0,0,0,0.057216,-0.00037738,0.017052,0.10592,0.02463,0.051156,4.282e-06,0.76,0.57,0
0.038015,-0.00044516,0.0572,-0.00038895,0.017043,0.00010321,0,0,0.052203,-0.022662,0,0.00026835,0,0,0,0.0572,-0.00038913,0.017043,0.10269,0.024618,0.051151,4.2792e-06,0.77,0.57,0
0.038537,-0.00044906,0.057184,-0.00039965,0.017035,9.9756e-05,0,0,0.052193,-0.022665,0,0.00025937,0,0,0,0.057184,-0.00039982,0.017035,0.099258,0.024606,0.051146,4.2765e-06,0.78,0.57,0
0.039059,-0.00045273,0.057168,-0.00040937,0.017028,9.6123e-05,0,0,0.052183,-0.022668,0,0.00024992,0,0,0,0.057168,-0.00040953,0.017028,0.095653,0.024595,0.05114,4.2738e-06,0.79,0.57,0
0.039581,-0.00045618,0.057153,-0.00041819,0.017021,9.233e-05,0,0,0.052172,-0.02267,0,0.00024006,0,0,0,0.057153,-0.00041833,0.017021,0.091888,0.024585,0.051133,4.2711e-06,0.8,0.57,0
0.040102,-0.00045943,0.057139,-0.00042616,0.017014,8.8392e-05,0,0,0.052162,-0.022672,0,0.00022982,0,0,0,0.057139,-0.0004263,0.017014,0.087979,0.024575,0.051127,4.2685e-06,0.81,0.57,0
0.040624,-0.00046248,0.057125,-0.00043337,0.017007,8.4325e-05,0,0,0.052153,-0.022673,0,0.00021924,0,0,0,0.057125,-0.00043349,0.017007,0.08394,0.024566,0.05112,4.266e-06,0.82,0.57,0
0.041146,-0.00046532,0.057112,-0.00043985,0.017001,8.0141e-05,0,0,0.052143,-0.022674,0,0.00020837,0,0,0,0.057112,-0.00043996,0.017001,0.079785,0.024558,0.051114,4.2635e-06,0.83,0.57,0
0.041667,-0.00046798,0.057099,-0.00044568,0.016996,7.5854e-05,0,0,0.052134,-0.022674,0,0.00019722,0,0,0,0.057099,-0.00044578,0.016996,0.075525,0.02455,0.051107,4.2611e-06,0.84,0.57,0
0.042188,-0.00047045,0.057087,-0.0004509,0.016991,7.1474e-05,0,0,0.052125,-0.022674,0,0.00018583,0,0,0,0.057087,-0.00045099,0.016991,0.071173,0.024542,0.051101,4.2588e-06,0.85,0.57,0
0.042709,-0.00047273,0.057075,-0.00045557,0.016986,6.7012e-05,0,0,0.052116,-0.022674,0,0.00017423,0,0,0,0.057076,-0.00045565,0.016986,0.066738,0.024535,0.051094,4.2567e-06,0.86,0.57,0
0.043231,-0.00047484,0.057065,-0.00045973,0.016982,6.2477e-05,0,0,0.052108,-0.022674,0,0.00016244,0,0,0,0.057065,-0.00045979,0.016982,0.062229,0.024529,0.051088,4.2546e-06,0.87,0.57,0
0.043752,-0.00047678,0.057055,-0.00046341,0.016977,5.7879e-05,0,0,0.052101,-0.022673,0,0.00015049,0,0,0,0.057055,-0.00046347,0.016977,0.057655,0.024523,0.051082,4.2527e-06,0.88,0.57,0
0.044273,-0.00047855,0.057045,-0.00046666,0.016974,5.3225e-05,0,0,0.052093,-0.022672,0,0.00013839,0,0,0,0.057045,-0.00046671,0.016974,0.053025,0.024518,0.051076,4.2509e-06,0.89,0.57,0
0.044793,-0.00048016,0.057037,-0.00046952,0.01697,4.8523e-05,0,0,0.052087,-0.022672,0,0.00012616,0,0,0,0.057037,-0.00046956,0.01697,0.048345,0.024513,0.051071,4.2492e-06,0.9,0.57,0
0.045314,-0.0004816,0.057029,-0.00047201,0.016967,4.3778e-05,0,0,0.052081,-0.022671,0,0.00011382,0,0,0,0.057029,-0.00047204,0.016967,0.043621,0.024508,0.051066,4.2476e-06,0.91,0.57,0
0.045835,-0.00048288,0.057022,-0.00047416,0.016965,3.8996e-05,0,0,0.052075,-0.02267,0,0.00010139,0,0,0,0.057022,-0.00047419,0.016965,0.03886,0.024504,0.051062,4.2463e-06,0.92,0.57,0
0.046356,-0.000484,0.057016,-0.000476,0.016962,3.4184e-05,0,0,0.05207,-0.022669,0,8.8879e-05,0,0,0,0.057016,-0.00047602,0.016962,0.034067,0.024501,0.051058,4.245e-06,0.93,0.57,0
0.046877,-0.00048498,0.057011,-0.00047755,0.01696,2.9346e-05,0,0,0.052066,-0.022669,0,7.63e-05,0,0,0,0.057011,-0.00047757,0.01696,0.029248,0.024498,0.051054,4.244e-06,0.94,0.57,0
0.047397,-0.00048579,0.057006,-0.00047883,0.016958,2.4486e-05,0,0,0.052062,-0.022668,0,6.3664e-05,0,0,0,0.057006,-0.00047884,0.016958,0.024406,0.024495,0.051051,4.243e-06,0.95,0.57,0
0.047918,-0.00048646,0.057003,-0.00047986,0.016957,1.9609e-05,0,0,0.05206,-0.022668,0,5.0984e-05,0,0,0,0.057003,-0.00047987,0.016957,0.019546,0.024493,0.051049,4.2423e-06,0.96,0.57,0
0.048438,-0.00048698,0.057,-0.00048064,0.016956,1.4718e-05,0,0,0.052057,-0.022667,0,3.8268e-05,0,0,0,0.057,-0.00048065,0.016956,0.014671,0.024492,0.051047,4.2417e-06,0.97,0.57,0
0.048959,-0.00048735,0.056998,-0.0004812,0.016955,9.8178e-06,0,0,0.052055,-0.022667,0,2.5526e-05,0,0,0,0.056998,-0.0004812,0.016955,0.0097865,0.02449,0.051045,4.2413e-06,0.98,0.57,0
0.04948,-0.00048757,0.056996,-0.00048153,0.016954,4.9105e-06,0,0,0.052054,-0.022667,0,1.2767e-05,0,0,0,0.056996,-0.00048153,0.016954,0.004895,0.02449,0.051044,4.241e-06,0.99,0.57,0
0.05,-0.00048764,0.056996,-0.00048164,0.016954,-2.8326e-06,0,0,0.052054,-0.022667,0,-7.3648e-06,0,0,0,0.056996,-0.00048164,0.016954,-0.0028237,0.02449,0.051044,4.241e-06,1,0.57,0
0,0,0.050987,0.021852,0.021852,0.002091,0,0,0.037876,-1.0842e-19,0,0.0054366,0,0,0,0.051137,0.021702,0.021852,4.0841,0.031564,0.02936,1.2997e-06,0,0.58,0
0.00037876,5.4366e-05,0.050853,0.020371,0.021367,0.0020519,0,0,0.038332,-0.0012955,0,0.0053351,0,0,0,0.050991,0.020233,0.021367,3.8338,0.030864,0.030207,1.4088e-06,0.01,0.58,0
0.00076664,0.00010634,0.051323,0.019173,0.021149,0.0019241,0,0,0.039227,-0.0025683,0,0.0050027,0,0,0,0.051438,0.019059,0.021149,3.4128,0.030549,0.031386,1.5643e-06,0.02,0.58,0
0.0011633,0.00015469,0.051765,0.018024,0.020937,0.0017376,0,0,0.040077,-0.0037863,0,0.0045178,0,0,0,0.051855,0.017935,0.020937,2.9403,0.030242,0.032523,1.7161e-06,0.03,0.58,0
0.0015682,0.00019839,0.05217,0.016946,0.020735,0.0015079,0,0,0.040866,-0.0049256,0,0.0039206,0,0,0,0.052234,0.016881,0.020735,2.4469,0.02995,0.033592,1.8608e-06,0.04,0.58,0
0.0019806,0.00023669,0.052532,0.015949,0.020544,0.0012538,0,0,0.041584,-0.0059744,0,0.0032598,0,0,0,0.052575,0.015906,0.020544,1.9605,0.029675,0.034584,1.9963e-06,0.05,0.58,0
0.0023999,0.00026917,0.052853,0.015034,0.020366,0.00099265,0,0,0.042234,-0.0069321,0,0.0025809,0,0,0,0.05288,0.015008,0.020366,1.5025,0.029418,0.035497,2.1218e-06,0.06,0.58,0
0.0028253,0.00029568,0.053138,0.014196,0.0202,0.0007385,0,0,0.042819,-0.0078055,0,0.0019201,0,0,0,0.053152,0.014182,0.0202,1.086,0.029178,0.036337,2.238e-06,0.07,0.58,0
0.0032563,0.00031632,0.053393,0.013426,0.020046,0.00050073,0,0,0.043351,-0.0086052,0,0.0013019,0,0,0,0.053399,0.01342,0.020046,0.71769,0.028955,0.037112,2.3457e-06,0.08,0.58,0
0.0036923,0.00033133,0.053624,0.012715,0.019902,0.00028474,0,0,0.043839,-0.0093423,0,0.00074033,0,0,0,0.053625,0.012713,0.019902,0.39878,0.028747,0.037834,2.4464e-06,0.09,0.58,0
0.004133,0.00034107,0.053837,0.012054,0.019767,9.2952e-05,0,0,0.04429,-0.010027,0,0.00024168,0,0,0,0.053837,0.012054,0.019767,0.12746,0.028553,0.03851,2.5411e-06,0.1,0.58,0
0.0045781,0.00034593,0.054037,0.011436,0.019642,-7.4241e-05,0,0,0.044714,-0.010668,0,-0.00019303,0,0,0,0.054037,0.011435,0.019642,-0.099849,0.028371,0.039149,2.631e-06,0.11,0.58,0
0.0050273,0.00034633,0.054227,0.010853,0.019524,-0.00021766,0,0,0.045114,-0.011272,0,-0.0005659,0,0,0,0.054228,0.010852,0.019524,-0.28751,0.028202,0.039756,2.7167e-06,0.12,0.58,0
0.0054804,0.00034271,0.05441,0.010303,0.019414,-0.00033878,0,0,0.045495,-0.011845,0,-0.00088082,0,0,0,0.054413,0.0103,0.019414,-0.44004,0.028042,0.040336,2.799e-06,0.13,0.58,0
0.0059372,0.00033548,0.054587,0.0097793,0.01931,-0.00043941,0,0,0.04586,-0.01239,0,-0.0011424,0,0,0,0.054591,0.009775,0.01931,-0.5618,0.027892,0.040891,2.8784e-06,0.14,0.58,0
0.0063976,0.00032504,0.054759,0.0092806,0.019212,-0.00052145,0,0,0.046211,-0.012911,0,-0.0013558,0,0,0,0.054765,0.0092746,0.019212,-0.65682,0.027751,0.041425,2.9549e-06,0.15,0.58,0
0.0068614,0.00031177,0.054927,0.0088041,0.019119,-0.00058678,0,0,0.04655,-0.01341,0,-0.0015256,0,0,0,0.054934,0.0087966,0.019119,-0.72877,0.027617,0.04194,3.029e-06,0.16,0.58,0
0.0073286,0.00029602,0.055089,0.0083479,0.019031,-0.0006372,0,0,0.046876,-0.013888,0,-0.0016567,0,0,0,0.055098,0.0083392,0.019031,-0.78088,0.02749,0.042436,3.1007e-06,0.17,0.58,0
0.0077989,0.0002781,0.055248,0.0079107,0.018948,-0.00067439,0,0,0.047191,-0.014348,0,-0.0017534,0,0,0,0.055258,0.0079011,0.018948,-0.81604,0.027369,0.042913,3.1702e-06,0.18,0.58,0
0.0082724,0.00025834,0.055402,0.0074912,0.018868,-0.0006999,0,0,0.047494,-0.01479,0,-0.0018197,0,0,0,0.055412,0.007481,0.018868,-0.83676,0.027254,0.043374,3.2373e-06,0.19,0.58,0
0.0087488,0.000237,0.055551,0.0070887,0.018792,-0.00071515,0,0,0.047787,-0.015214,0,-0.0018594,0,0,0,0.055562,0.0070782,0.018792,-0.84526,0.027144,0.043817,3.3022e-06,0.2,0.58,0
0.0092281,0.00021434,0.055696,0.0067023,0.018719,-0.00072145,0,0,0.048069,-0.015622,0,-0.0018758,0,0,0,0.055706,0.0066917,0.018719,-0.84347,0.027039,0.044244,3.3648e-06,0.21,0.58,0
0.0097102,0.00019059,0.055835,0.0063315,0.01865,-0.00071997,0,0,0.04834,-0.016014,0,-0.0018719,0,0,0,0.055845,0.006321,0.01865,-0.83308,0.026939,0.044655,3.4252e-06,0.22,0.58,0
0.010195,0.00016598,0.055968,0.0059756,0.018583,-0.0007118,0,0,0.0486,-0.01639,0,-0.0018507,0,0,0,0.055978,0.0059655,0.018583,-0.81556,0.026842,0.045049,3.4833e-06,0.23,0.58,0
0.010682,0.00014068,0.056096,0.0056343,0.018519,-0.0006979,0,0,0.04885,-0.01675,0,-0.0018145,0,0,0,0.056106,0.0056247,0.018519,-0.79221,0.02675,0.045428,3.5391e-06,0.24,0.58,0
0.011172,0.00011488,0.056218,0.0053071,0.018458,-0.00067915,0,0,0.049088,-0.017095,0,-0.0017658,0,0,0,0.056227,0.0052981,0.018458,-0.76415,0.026661,0.04579,3.5925e-06,0.25,0.58,0
0.011664,8.8726e-05,0.056334,0.0049936,0.018398,-0.00065636,0,0,0.049316,-0.017426,0,-0.0017065,0,0,0,0.056342,0.0049853,0.018398,-0.73234,0.026575,0.046137,3.6437e-06,0.26,0.58,0
0.012158,6.2372e-05,0.056444,0.0046935,0.018341,-0.00063024,0,0,0.049533,-0.017742,0,-0.0016386,0,0,0,0.056451,0.0046858,0.018341,-0.69764,0.026493,0.046468,3.6925e-06,0.27,0.58,0
0.012655,3.594e-05,0.056548,0.0044064,0.018286,-0.00060145,0,0,0.04974,-0.018044,0,-0.0015638,0,0,0,0.056555,0.0043994,0.018286,-0.66079,0.026413,0.046784,3.739e-06,0.28,0.58,0
0.013153,9.5426e-06,0.056645,0.0041318,0.018233,-0.00057056,0,0,0.049936,-0.018332,0,-0.0014835,0,0,0,0.056652,0.0041256,0.018233,-0.62242,0.026337,0.047085,3.7832e-06,0.29,0.58,0
0.013653,-1.6719e-05,0.056737,0.0038696,0.018182,-0.00053809,0,0,0.050121,-0.018606,0,-0.001399,0,0,0,0.056742,0.0038641,0.018182,-0.58308,0.026263,0.047371,3.8252e-06,0.3,0.58,0
0.014155,-4.2757e-05,0.056823,0.0036193,0.018133,-0.0005045,0,0,0.050297,-0.018867,0,-0.0013117,0,0,0,0.056827,0.0036145,0.018133,-0.54324,0.026191,0.047643,3.8649e-06,0.31,0.58,0
0.014659,-6.8495e-05,0.056902,0.0033805,0.018085,-0.0004702,0,0,0.050463,-0.019116,0,-0.0012225,0,0,0,0.056906,0.0033764,0.018085,-0.50331,0.026123,0.047901,3.9023e-06,0.32,0.58,0
0.015165,-9.3864e-05,0.056976,0.003153,0.018039,-0.00043556,0,0,0.050619,-0.019352,0,-0.0011325,0,0,0,0.05698,0.0031495,0.018039,-0.46362,0.026056,0.048145,3.9377e-06,0.33,0.58,0
0.015672,-0.00011881,0.057045,0.0029363,0.017994,-0.00040089,0,0,0.050765,-0.019575,0,-0.0010423,0,0,0,0.057048,0.0029333,0.017994,-0.42448,0.025992,0.048375,3.9709e-06,0.34,0.58,0
0.01618,-0.00014327,0.057107,0.0027302,0.017951,-0.00036647,0,0,0.050903,-0.019787,0,-0.00095281,0,0,0,0.05711,0.0027277,0.017951,-0.38611,0.02593,0.048593,4.002e-06,0.35,0.58,0
0.01669,-0.00016722,0.057165,0.0025342,0.01791,-0.00033252,0,0,0.051032,-0.019988,0,-0.00086456,0,0,0,0.057167,0.0025322,0.01791,-0.34873,0.02587,0.048798,4.0311e-06,0.36,0.58,0
0.017201,-0.00019062,0.057217,0.002348,0.017869,-0.00029927,0,0,0.051152,-0.020178,0,-0.0007781,0,0,0,0.057219,0.0023464,0.017869,-0.31249,0.025812,0.048991,4.0583e-06,0.37,0.58,0
0.017713,-0.00021344,0.057264,0.0021713,0.017831,-0.00026687,0,0,0.051264,-0.020357,0,-0.00069386,0,0,0,0.057265,0.00217,0.017831,-0.27753,0.025755,0.049173,4.0835e-06,0.38,0.58,0
0.018226,-0.00023565,0.057307,0.0020037,0.017793,-0.00023548,0,0,0.051368,-0.020526,0,-0.00061224,0,0,0,0.057308,0.0020027,0.017793,-0.24396,0.025701,0.049342,4.107e-06,0.39,0.58,0
0.01874,-0.00025724,0.057344,0.0018448,0.017757,-0.0002052,0,0,0.051464,-0.020685,0,-0.00053352,0,0,0,0.057345,0.0018441,0.017757,-0.21184,0.025649,0.049502,4.1287e-06,0.4,0.58,0
0.019255,-0.0002782,0.057378,0.0016944,0.017722,-0.00017614,0,0,0.051553,-0.020835,0,-0.00045797,0,0,0,0.057378,0.0016939,0.017722,-0.18124,0.025598,0.04965,4.1487e-06,0.41,0.58,0
0.019771,-0.00029852,0.057407,0.0015521,0.017688,-0.00014837,0,0,0.051635,-0.020976,0,-0.00038576,0,0,0,0.057408,0.0015517,0.017688,-0.15219,0.025549,0.049789,4.1671e-06,0.42,0.58,0
0.020288,-0.00031819,0.057432,0.0014175,0.017655,-0.00012194,0,0,0.051711,-0.021109,0,-0.00031704,0,0,0,0.057433,0.0014173,0.017655,-0.12473,0.025502,0.049918,4.184e-06,0.43,0.58,0
0.020805,-0.00033721,0.057454,0.0012904,0.017623,-9.689e-05,0,0,0.05178,-0.021233,0,-0.00025191,0,0,0,0.057454,0.0012902,0.017623,-0.098843,0.025456,0.050038,4.1994e-06,0.44,0.58,0
0.021323,-0.00035558,0.057472,0.0011704,0.017593,-7.3246e-05,0,0,0.051843,-0.021349,0,-0.00019044,0,0,0,0.057472,0.0011703,0.017593,-0.074539,0.025412,0.050149,4.2134e-06,0.45,0.58,0
0.021842,-0.00037331,0.057487,0.0010572,0.017563,-5.1017e-05,0,0,0.051901,-0.021458,0,-0.00013264,0,0,0,0.057487,0.0010571,0.017563,-0.0518,0.025369,0.050252,4.2261e-06,0.46,0.58,0
0.022361,-0.00039041,0.057498,0.00095045,0.017535,-3.0203e-05,0,0,0.051953,-0.021559,0,-7.8529e-05,0,0,0,0.057498,0.00095043,0.017535,-0.030603,0.025328,0.050348,4.2375e-06,0.47,0.58,0
0.022881,-0.00040687,0.057507,0.00084996,0.017507,-1.0794e-05,0,0,0.052,-0.021654,0,-2.8065e-05,0,0,0,0.057507,0.00084996,0.017507,-0.010916,0.025288,0.050435,4.2478e-06,0.48,0.58,0
0.023401,-0.00042272,0.057513,0.00075539,0.01748,7.2287e-06,0,0,0.052042,-0.021743,0,1.8795e-05,0,0,0,0.057513,0.00075539,0.01748,0.0072973,0.025249,0.050516,4.2569e-06,0.49,0.58,0
0.023922,-0.00043796,0.057516,0.00066647,0.017455,2.3891e-05,0,0,0.05208,-0.021825,0,6.2118e-05,0,0,0,0.057516,0.00066646,0.017455,0.024079,0.025212,0.05059,4.265e-06,0.5,0.58,0
0.024443,-0.0004526,0.057517,0.00058293,0.01743,3.9226e-05,0,0,0.052113,-0.021901,0,0.00010199,0,0,0,0.057517,0.0005829,0.01743,0.039475,0.025177,0.050657,4.2721e-06,0.51,0.58,0
0.024964,-0.00046665,0.057515,0.00050451,0.017406,5.3268e-05,0,0,0.052142,-0.021972,0,0.0001385,0,0,0,0.057515,0.00050446,0.017406,0.053534,0.025142,0.050718,4.2782e-06,0.52,0.58,0
0.025486,-0.00048014,0.057512,0.00043096,0.017383,6.6059e-05,0,0,0.052168,-0.022038,0,0.00017175,0,0,0,0.057512,0.00043088,0.017383,0.066307,0.025109,0.050774,4.2835e-06,0.53,0.58,0
0.026008,-0.00049307,0.057507,0.00036203,0.017361,7.7643e-05,0,0,0.05219,-0.022098,0,0.00020187,0,0,0,0.057507,0.00036192,0.017361,0.077848,0.025077,0.050825,4.288e-06,0.54,0.58,0
0.02653,-0.00050547,0.0575,0.00029749,0.017339,8.8066e-05,0,0,0.052209,-0.022154,0,0.00022897,0,0,0,0.0575,0.00029736,0.017339,0.088209,0.025046,0.05087,4.2917e-06,0.55,0.58,0
0.027052,-0.00051733,0.057492,0.00023712,0.017319,9.7376e-05,0,0,0.052225,-0.022206,0,0.00025318,0,0,0,0.057492,0.00023695,0.017319,0.097446,0.025016,0.050911,4.2947e-06,0.56,0.58,0
0.027574,-0.00052869,0.057482,0.00018069,0.017299,0.00010562,0,0,0.052238,-0.022253,0,0.00027462,0,0,0,0.057482,0.0001805,0.017299,0.10561,0.024987,0.050947,4.2971e-06,0.57,0.58,0
0.028097,-0.00053956,0.057471,0.000128,0.01728,0.00011286,0,0,0.052249,-0.022297,0,0.00029343,0,0,0,0.057471,0.00012778,0.01728,0.11276,0.024959,0.050979,4.2989e-06,0.58,0.58,0
0.028619,-0.00054995,0.057459,7.8852e-05,0.017261,0.00011913,0,0,0.052257,-0.022337,0,0.00030973,0,0,0,0.057459,7.8605e-05,0.017261,0.11895,0.024933,0.051008,4.3001e-06,0.59,0.58,0
0.029142,-0.00055988,0.057446,3.3047e-05,0.017244,0.00012448,0,0,0.052263,-0.022374,0,0.00032366,0,0,0,0.057446,3.2777e-05,0.017244,0.12423,0.024907,0.051033,4.3009e-06,0.6,0.58,0
0.029664,-0.00056935,0.057432,-9.5982e-06,0.017227,0.00012898,0,0,0.052266,-0.022407,0,0.00033534,0,0,0,0.057432,-9.8878e-06,0.017227,0.12865,0.024883,0.051054,4.3012e-06,0.61,0.58,0
0.030187,-0.0005784,0.057417,-4.926e-05,0.01721,0.00013266,0,0,0.052268,-0.022437,0,0.00034491,0,0,0,0.057417,-4.9567e-05,0.01721,0.13226,0.024859,0.051073,4.301e-06,0.62,0.58,0
0.03071,-0.00058703,0.057401,-8.6109e-05,0.017195,0.00013557,0,0,0.052269,-0.022465,0,0.00035249,0,0,0,0.057402,-8.6429e-05,0.017195,0.13512,0.024837,0.051089,4.3005e-06,0.63,0.58,0
0.031233,-0.00059526,0.057385,-0.00012031,0.01718,0.00013777,0,0,0.052268,-0.02249,0,0.00035819,0,0,0,0.057386,-0.00012064,0.01718,0.13726,0.024815,0.051102,4.2996e-06,0.64,0.58,0
0.031755,-0.00060311,0.057369,-0.00015201,0.017165,0.00013929,0,0,0.052265,-0.022512,0,0.00036214,0,0,0,0.057369,-0.00015234,0.017165,0.13874,0.024794,0.051112,4.2985e-06,0.65,0.58,0
0.032278,-0.00061058,0.057352,-0.00018136,0.017151,0.00014018,0,0,0.052261,-0.022532,0,0.00036446,0,0,0,0.057352,-0.0001817,0.017151,0.13959,0.024774,0.051121,4.297e-06,0.66,0.58,0
0.0328,-0.00061768,0.057335,-0.00020851,0.017138,0.00014048,0,0,0.052256,-0.02255,0,0.00036524,0,0,0,0.057335,-0.00020885,0.017138,0.13987,0.024755,0.051127,4.2954e-06,0.67,0.58,0
0.033323,-0.00062445,0.057318,-0.00023359,0.017125,0.00014023,0,0,0.05225,-0.022566,0,0.0003646,0,0,0,0.057318,-0.00023393,0.017125,0.13961,0.024736,0.051132,4.2935e-06,0.68,0.58,0
0.033845,-0.00063088,0.0573,-0.00025672,0.017113,0.00013947,0,0,0.052243,-0.022581,0,0.00036263,0,0,0,0.0573,-0.00025706,0.017113,0.13884,0.024719,0.051135,4.2914e-06,0.69,0.58,0
0.034368,-0.00063699,0.057283,-0.00027803,0.017101,0.00013825,0,0,0.052236,-0.022593,0,0.00035944,0,0,0,0.057283,-0.00027837,0.017101,0.13761,0.024702,0.051137,4.2892e-06,0.7,0.58,0
0.03489,-0.00064279,0.057265,-0.00029764,0.01709,0.00013658,0,0,0.052228,-0.022604,0,0.00035511,0,0,0,0.057266,-0.00029797,0.01709,0.13595,0.024686,0.051137,4.2868e-06,0.71,0.58,0
0.035412,-0.00064829,0.057248,-0.00031566,0.01708,0.00013451,0,0,0.052219,-0.022614,0,0.00034974,0,0,0,0.057248,-0.00031598,0.01708,0.13389,0.024671,0.051136,4.2844e-06,0.72,0.58,0
0.035935,-0.0006535,0.057231,-0.00033219,0.01707,0.00013207,0,0,0.05221,-0.022622,0,0.0003434,0,0,0,0.057231,-0.0003325,0.01707,0.13146,0.024656,0.051134,4.2818e-06,0.73,0.58,0
0.036457,-0.00065844,0.057214,-0.00034734,0.01706,0.0001293,0,0,0.0522,-0.02263,0,0.00033617,0,0,0,0.057214,-0.00034763,0.01706,0.1287,0.024642,0.051131,4.2792e-06,0.74,0.58,0
0.036978,-0.00066311,0.057197,-0.00036119,0.017051,0.0001262,0,0,0.052191,-0.022636,0,0.00032812,0,0,0,0.057198,-0.00036147,0.017051,0.12562,0.024629,0.051127,4.2766e-06,0.75,0.58,0
0.0375,-0.00066753,0.057181,-0.00037384,0.017042,0.00012282,0,0,0.052181,-0.022641,0,0.00031933,0,0,0,0.057181,-0.00037411,0.017042,0.12226,0.024616,0.051123,4.2739e-06,0.76,0.58,0
0.038022,-0.0006717,0.057165,-0.00038538,0.017034,0.00011917,0,0,0.052171,-0.022645,0,0.00030985,0,0,0,0.057165,-0.00038562,0.017034,0.11865,0.024605,0.051118,4.2713e-06,0.77,0.58,0
0.038544,-0.00067563,0.05715,-0.00039587,0.017026,0.00011529,0,0,0.05216,-0.022649,0,0.00029976,0,0,0,0.05715,-0.0003961,0.017026,0.11479,0.024593,0.051112,4.2686e-06,0.78,0.58,0
0.039065,-0.00067933,0.057134,-0.00040541,0.017019,0.00011119,0,0,0.052151,-0.022651,0,0.0002891,0,0,0,0.057135,-0.00040562,0.017019,0.11072,0.024583,0.051107,4.266e-06,0.79,0.58,0
0.039587,-0.00068281,0.05712,-0.00041406,0.017012,0.00010689,0,0,0.05214,-0.022654,0,0.00027792,0,0,0,0.05712,-0.00041425,0.017012,0.10645,0.024573,0.051101,4.2634e-06,0.8,0.58,0
0.040108,-0.00068607,0.057106,-0.00042188,0.017005,0.00010241,0,0,0.052131,-0.022655,0,0.00026628,0,0,0,0.057106,-0.00042206,0.017005,0.102,0.024563,0.051094,4.2608e-06,0.81,0.58,0
0.040629,-0.00068912,0.057092,-0.00042894,0.016999,9.7775e-05,0,0,0.052121,-0.022656,0,0.00025422,0,0,0,0.057092,-0.00042911,0.016999,0.097392,0.024554,0.051088,4.2584e-06,0.82,0.58,0
0.041151,-0.00069198,0.057079,-0.00043531,0.016993,9.299e-05,0,0,0.052112,-0.022657,0,0.00024177,0,0,0,0.057079,-0.00043546,0.016993,0.092636,0.024546,0.051081,4.256e-06,0.83,0.58,0
0.041672,-0.00069464,0.057067,-0.00044103,0.016988,8.8074e-05,0,0,0.052103,-0.022657,0,0.00022899,0,0,0,0.057067,-0.00044116,0.016988,0.087749,0.024538,0.051075,4.2536e-06,0.84,0.58,0
0.042193,-0.00069711,0.057055,-0.00044615,0.016983,8.3041e-05,0,0,0.052094,-0.022658,0,0.00021591,0,0,0,0.057055,-0.00044627,0.016983,0.082744,0.024531,0.051069,4.2514e-06,0.85,0.58,0
0.042714,-0.00069939,0.057044,-0.00045073,0.016978,7.7903e-05,0,0,0.052086,-0.022657,0,0.00020255,0,0,0,0.057044,-0.00045084,0.016978,0.077633,0.024524,0.051062,4.2493e-06,0.86,0.58,0
0.043234,-0.0007015,0.057034,-0.00045481,0.016974,7.2672e-05,0,0,0.052078,-0.022657,0,0.00018895,0,0,0,0.057034,-0.0004549,0.016974,0.072428,0.024518,0.051056,4.2473e-06,0.87,0.58,0
0.043755,-0.00070343,0.057024,-0.00045842,0.01697,6.7358e-05,0,0,0.052071,-0.022656,0,0.00017513,0,0,0,0.057024,-0.0004585,0.01697,0.067139,0.024512,0.051051,4.2454e-06,0.88,0.58,0
0.044276,-0.0007052,0.057015,-0.00046162,0.016966,6.1971e-05,0,0,0.052064,-0.022656,0,0.00016112,0,0,0,0.057015,-0.00046168,0.016966,0.061776,0.024507,0.051045,4.2437e-06,0.89,0.58,0
0.044796,-0.00070679,0.057007,-0.00046442,0.016963,5.652e-05,0,0,0.052057,-0.022655,0,0.00014695,0,0,0,0.057007,-0.00046448,0.016963,0.056347,0.024502,0.05104,4.2421e-06,0.9,0.58,0
0.045317,-0.00070823,0.056999,-0.00046687,0.01696,5.1013e-05,0,0,0.052051,-0.022655,0,0.00013263,0,0,0,0.056999,-0.00046691,0.01696,0.050862,0.024497,0.051035,4.2406e-06,0.91,0.58,0
0.045837,-0.0007095,0.056993,-0.00046898,0.016957,4.5458e-05,0,0,0.052046,-0.022654,0,0.00011819,0,0,0,0.056993,-0.00046902,0.016957,0.045326,0.024494,0.051031,4.2392e-06,0.92,0.58,0
0.046358,-0.00071062,0.056987,-0.00047079,0.016955,3.9861e-05,0,0,0.052041,-0.022653,0,0.00010364,0,0,0,0.056987,-0.00047082,0.016955,0.039748,0.02449,0.051027,4.238e-06,0.93,0.58,0
0.046878,-0.00071159,0.056981,-0.00047231,0.016953,3.4228e-05,0,0,0.052037,-0.022652,0,8.8993e-05,0,0,0,0.056981,-0.00047233,0.016953,0.034134,0.024487,0.051024,4.237e-06,0.94,0.58,0
0.047399,-0.0007124,0.056977,-0.00047357,0.016951,2.8567e-05,0,0,0.052034,-0.022652,0,7.4273e-05,0,0,0,0.056977,-0.00047358,0.016951,0.02849,0.024485,0.051021,4.2361e-06,0.95,0.58,0
0.047919,-0.00071306,0.056973,-0.00047458,0.01695,2.2881e-05,0,0,0.052031,-0.022652,0,5.9491e-05,0,0,0,0.056973,-0.00047459,0.01695,0.02282,0.024483,0.051018,4.2354e-06,0.96,0.58,0
0.048439,-0.00071357,0.056971,-0.00047535,0.016948,1.7177e-05,0,0,0.052028,-0.022651,0,4.466e-05,0,0,0,0.056971,-0.00047535,0.016948,0.017132,0.024481,0.051016,4.2348e-06,0.97,0.58,0
0.04896,-0.00071394,0.056968,-0.00047589,0.016948,1.1459e-05,0,0,0.052027,-0.022651,0,2.9793e-05,0,0,0,0.056968,-0.00047589,0.016948,0.011429,0.02448,0.051015,4.2344e-06,0.98,0.58,0
0.04948,-0.00071416,0.056967,-0.00047621,0.016947,5.7316e-06,0,0,0.052026,-0.022651,0,1.4902e-05,0,0,0,0.056967,-0.00047621,0.016947,0.0057169,0.024479,0.051014,4.2342e-06,0.99,0.58,0
0.05,-0.00071423,0.056967,-0.00047632,0.016947,-2.809e-06,0,0,0.052026,-0.022651,0,-7.3034e-06,0,0,0,0.056967,-0.00047632,0.016947,-0.0028018,0.024479,0.051014,4.2341e-06,1,0.58,0
0,0,0.051019,0.021865,0.021865,0.001607,0,0,0.0379,5.421e-20,0,0.0041783,0,0,0,0.051108,0.021777,0.021865,3.1456,0.031583,0.029287,1.2901e-06,0,0.59,0
0.000379,4.1783e-05,0.050894,0.020461,0.021406,0.0015754,0,0,0.038334,-0.0012294,0,0.004096,0,0,0,0.050975,0.020379,0.021406,2.9554,0.030921,0.030096,1.3945e-06,0.01,0.59,0
0.00076668,8.137e-05,0.051346,0.019324,0.021201,0.0014681,0,0,0.039189,-0.0024404,0,0.003817,0,0,0,0.051413,0.019257,0.021201,2.6194,0.030624,0.03123,1.5439e-06,0.02,0.59,0
0.0011628,0.00011781,0.051777,0.018223,0.021,0.001314,0,0,0.04001,-0.0036097,0,0.0034163,0,0,0,0.051828,0.018172,0.021,2.2392,0.030333,0.032335,1.6917e-06,0.03,0.59,0
0.0015669,0.00015027,0.052178,0.017177,0.020806,0.0011236,0,0,0.040783,-0.0047187,0,0.0029213,0,0,0,0.052214,0.017141,0.020806,1.8367,0.030054,0.033392,1.8348e-06,0.04,0.59,0
0.0019784,0.00017814,0.052546,0.016194,0.020622,0.00091006,0,0,0.041501,-0.0057563,0,0.0023662,0,0,0,0.052569,0.016171,0.020622,1.4332,0.029787,0.034389,1.9712e-06,0.05,0.59,0
0.0023969,0.00020099,0.052879,0.015279,0.020447,0.00068669,0,0,0.042161,-0.0067188,0,0.0017854,0,0,0,0.052891,0.015267,0.020447,1.0459,0.029535,0.03532,2.0999e-06,0.06,0.59,0
0.0028217,0.00021867,0.053179,0.01443,0.020283,0.0004649,0,0,0.042765,-0.0076084,0,0.0012087,0,0,0,0.053185,0.014424,0.020283,0.68729,0.029297,0.036188,2.2206e-06,0.07,0.59,0
0.0032522,0.00023118,0.053451,0.013643,0.020128,0.00025337,0,0,0.043319,-0.0084311,0,0.00065876,0,0,0,0.053452,0.013641,0.020128,0.36466,0.029074,0.036997,2.3336e-06,0.08,0.59,0
0.0036881,0.00023868,0.053698,0.01291,0.019982,5.7901e-05,0,0,0.043831,-0.0091942,0,0.00015054,0,0,0,0.053698,0.01291,0.019982,0.081335,0.028864,0.037752,2.4397e-06,0.09,0.59,0
0.0041288,0.00024142,0.053926,0.012226,0.019846,-0.00011816,0,0,0.044305,-0.0099057,0,-0.00030721,0,0,0,0.053927,0.012226,0.019846,-0.16234,0.028666,0.038461,2.5398e-06,0.1,0.59,0
0.0045741,0.00023973,0.054139,0.011584,0.019717,-0.00027332,0,0,0.044748,-0.010572,0,-0.00071062,0,0,0,0.05414,0.011583,0.019717,-0.36798,0.02848,0.03913,2.6345e-06,0.11,0.59,0
0.0050238,0.00023397,0.054339,0.01098,0.019596,-0.00040739,0,0,0.045166,-0.0112,0,-0.0010592,0,0,0,0.054342,0.010976,0.019596,-0.53828,0.028305,0.039763,2.7246e-06,0.12,0.59,0
0.0054775,0.00022452,0.054529,0.010409,0.019481,-0.00052103,0,0,0.045562,-0.011794,0,-0.0013547,0,0,0,0.054535,0.010403,0.019481,-0.67651,0.028139,0.040366,2.8106e-06,0.13,0.59,0
0.005935,0.00021174,0.05471,0.0098664,0.019373,-0.00061539,0,0,0.045938,-0.012359,0,-0.0016,0,0,0,0.054719,0.0098579,0.019373,-0.78607,0.027983,0.040941,2.893e-06,0.14,0.59,0
0.0063962,0.00019601,0.054885,0.0093504,0.01927,-0.00069187,0,0,0.046298,-0.012896,0,-0.0017989,0,0,0,0.054895,0.0093399,0.01927,-0.87032,0.027835,0.041491,2.9721e-06,0.15,0.59,0
0.006861,0.00017768,0.055053,0.0088583,0.019173,-0.00075203,0,0,0.046643,-0.01341,0,-0.0019553,0,0,0,0.055065,0.0088461,0.019173,-0.93243,0.027695,0.042018,3.0482e-06,0.16,0.59,0
0.0073291,0.00015707,0.055215,0.0083882,0.019081,-0.00079742,0,0,0.046974,-0.013901,0,-0.0020733,0,0,0,0.055229,0.0083746,0.019081,-0.97533,0.027561,0.042524,3.1214e-06,0.17,0.59,0
0.0078005,0.00013451,0.055371,0.0079386,0.018993,-0.00082957,0,0,0.047292,-0.014371,0,-0.0021569,0,0,0,0.055386,0.0079241,0.018993,-1.0017,0.027434,0.043009,3.1918e-06,0.18,0.59,0
0.0082749,0.00011029,0.055522,0.0075083,0.018909,-0.00084994,0,0,0.047597,-0.014821,0,-0.0022098,0,0,0,0.055537,0.0074932,0.018909,-1.0138,0.027313,0.043475,3.2597e-06,0.19,0.59,0
0.0087524,8.4669e-05,0.055668,0.0070961,0.018829,-0.00085989,0,0,0.04789,-0.015253,0,-0.0022357,0,0,0,0.055683,0.0070809,0.018829,-1.0139,0.027198,0.043922,3.3249e-06,0.2,0.59,0
0.0092327,5.7904e-05,0.055807,0.0067014,0.018752,-0.00086071,0,0,0.048171,-0.015666,0,-0.0022379,0,0,0,0.055822,0.0066863,0.018752,-1.0039,0.027087,0.044351,3.3876e-06,0.21,0.59,0
0.0097158,3.0221e-05,0.055941,0.0063233,0.018679,-0.00085359,0,0,0.04844,-0.016063,0,-0.0022193,0,0,0,0.055955,0.0063086,0.018679,-0.9853,0.026981,0.044762,3.4478e-06,0.22,0.59,0
0.010202,1.828e-06,0.056068,0.0059613,0.018609,-0.00083962,0,0,0.048697,-0.016442,0,-0.002183,0,0,0,0.056082,0.0059472,0.018609,-0.95972,0.02688,0.045156,3.5054e-06,0.23,0.59,0
0.01069,-2.7086e-05,0.05619,0.0056147,0.018541,-0.0008198,0,0,0.048943,-0.016805,0,-0.0021315,0,0,0,0.056203,0.0056014,0.018541,-0.9284,0.026782,0.045533,3.5606e-06,0.24,0.59,0
0.01118,-5.6348e-05,0.056306,0.005283,0.018477,-0.00079503,0,0,0.049178,-0.017152,0,-0.0020671,0,0,0,0.056318,0.0052706,0.018477,-0.89249,0.026689,0.045892,3.6133e-06,0.25,0.59,0
0.011673,-8.5806e-05,0.056415,0.0049659,0.018414,-0.00076616,0,0,0.049401,-0.017483,0,-0.001992,0,0,0,0.056427,0.0049545,0.018414,-0.85297,0.026599,0.046236,3.6635e-06,0.26,0.59,0
0.012168,-0.00011532,0.056519,0.0046628,0.018354,-0.00073393,0,0,0.049614,-0.017799,0,-0.0019082,0,0,0,0.056529,0.0046524,0.018354,-0.81071,0.026512,0.046563,3.7114e-06,0.27,0.59,0
0.012666,-0.00014477,0.056616,0.0043733,0.018297,-0.00069903,0,0,0.049815,-0.018101,0,-0.0018175,0,0,0,0.056626,0.0043639,0.018297,-0.76646,0.026429,0.046875,3.7568e-06,0.28,0.59,0
0.013165,-0.00017404,0.056708,0.004097,0.018241,-0.00066207,0,0,0.050006,-0.018388,0,-0.0017214,0,0,0,0.056716,0.0040887,0.018241,-0.72088,0.026349,0.047171,3.7998e-06,0.29,0.59,0
0.013666,-0.00020304,0.056793,0.0038335,0.018188,-0.0006236,0,0,0.050187,-0.018661,0,-0.0016213,0,0,0,0.0568,0.0038261,0.018188,-0.67453,0.026271,0.047452,3.8406e-06,0.3,0.59,0
0.014169,-0.00023168,0.056872,0.0035823,0.018136,-0.00058409,0,0,0.050357,-0.01892,0,-0.0015187,0,0,0,0.056879,0.0035759,0.018136,-0.6279,0.026197,0.047719,3.879e-06,0.31,0.59,0
0.014673,-0.00025989,0.056946,0.0033431,0.018087,-0.000544,0,0,0.050517,-0.019167,0,-0.0014144,0,0,0,0.056952,0.0033376,0.018087,-0.5814,0.026125,0.047971,3.9153e-06,0.32,0.59,0
0.015179,-0.00028761,0.057014,0.0031155,0.018039,-0.00050369,0,0,0.050668,-0.0194,0,-0.0013096,0,0,0,0.057019,0.0031108,0.018039,-0.53538,0.026056,0.04821,3.9493e-06,0.33,0.59,0
0.015686,-0.00031478,0.057077,0.002899,0.017993,-0.00046351,0,0,0.050809,-0.019622,0,-0.0012051,0,0,0,0.057081,0.0028951,0.017993,-0.49014,0.025989,0.048435,3.9813e-06,0.34,0.59,0
0.016195,-0.00034136,0.057134,0.0026934,0.017948,-0.00042374,0,0,0.050942,-0.019831,0,-0.0011017,0,0,0,0.057137,0.0026901,0.017948,-0.44593,0.025925,0.048647,4.0111e-06,0.35,0.59,0
0.016705,-0.0003673,0.057186,0.0024981,0.017905,-0.00038464,0,0,0.051065,-0.020029,0,-0.001,0,0,0,0.057189,0.0024954,0.017905,-0.40295,0.025863,0.048847,4.039e-06,0.36,0.59,0
0.017216,-0.00039258,0.057233,0.0023128,0.017864,-0.00034641,0,0,0.05118,-0.020216,0,-0.00090065,0,0,0,0.057236,0.0023106,0.017864,-0.36137,0.025803,0.049035,4.065e-06,0.37,0.59,0
0.017729,-0.00041717,0.057276,0.0021371,0.017824,-0.00030923,0,0,0.051287,-0.020393,0,-0.000804,0,0,0,0.057278,0.0021354,0.017824,-0.32132,0.025746,0.049211,4.0891e-06,0.38,0.59,0
0.018242,-0.00044106,0.057314,0.0019707,0.017785,-0.00027327,0,0,0.051387,-0.020559,0,-0.00071049,0,0,0,0.057315,0.0019693,0.017785,-0.2829,0.02569,0.049376,4.1115e-06,0.39,0.59,0
0.018756,-0.00046424,0.057347,0.0018131,0.017748,-0.00023862,0,0,0.051479,-0.020716,0,-0.00062042,0,0,0,0.057348,0.0018121,0.017748,-0.24619,0.025636,0.04953,4.1321e-06,0.4,0.59,0
0.019272,-0.00048668,0.057377,0.0016641,0.017712,-0.00020541,0,0,0.051564,-0.020863,0,-0.00053406,0,0,0,0.057377,0.0016633,0.017712,-0.21124,0.025584,0.049674,4.1511e-06,0.41,0.59,0
0.019788,-0.00050839,0.057402,0.0015231,0.017678,-0.00017369,0,0,0.051642,-0.021001,0,-0.00045159,0,0,0,0.057403,0.0015226,0.017678,-0.17809,0.025534,0.049808,4.1685e-06,0.42,0.59,0
0.020304,-0.00052937,0.057424,0.00139,0.017644,-0.00014352,0,0,0.051714,-0.02113,0,-0.00037315,0,0,0,0.057424,0.0013897,0.017644,-0.14675,0.025486,0.049933,4.1845e-06,0.43,0.59,0
0.020822,-0.00054962,0.057442,0.0012644,0.017612,-0.00011494,0,0,0.051779,-0.021252,0,-0.00029885,0,0,0,0.057442,0.0012642,0.017612,-0.11723,0.02544,0.050048,4.199e-06,0.44,0.59,0
0.02134,-0.00056915,0.057457,0.0011459,0.017581,-8.7974e-05,0,0,0.051839,-0.021365,0,-0.00022873,0,0,0,0.057457,0.0011458,0.017581,-0.089512,0.025395,0.050156,4.2122e-06,0.45,0.59,0
0.021859,-0.00058796,0.057469,0.0010342,0.017551,-6.2623e-05,0,0,0.051893,-0.021472,0,-0.00016282,0,0,0,0.057469,0.0010341,0.017551,-0.063578,0.025351,0.050255,4.2241e-06,0.46,0.59,0
0.022378,-0.00060605,0.057478,0.00092901,0.017522,-3.8884e-05,0,0,0.051943,-0.021571,0,-0.0001011,0,0,0,0.057478,0.00092898,0.017522,-0.039398,0.02531,0.050347,4.2348e-06,0.47,0.59,0
0.022898,-0.00062345,0.057484,0.00083,0.017494,-1.6743e-05,0,0,0.051987,-0.021663,0,-4.3533e-05,0,0,0,0.057484,0.00083,0.017494,-0.016933,0.025269,0.050431,4.2444e-06,0.48,0.59,0
0.023418,-0.00064017,0.057488,0.0007369,0.017467,3.8236e-06,0,0,0.052026,-0.02175,0,9.9412e-06,0,0,0,0.057488,0.0007369,0.017467,0.0038603,0.025231,0.050508,4.2529e-06,0.49,0.59,0
0.023938,-0.00065622,0.057489,0.00064941,0.017441,2.2848e-05,0,0,0.052062,-0.02183,0,5.9405e-05,0,0,0,0.057489,0.0006494,0.017441,0.023031,0.025193,0.050579,4.2604e-06,0.5,0.59,0
0.024459,-0.00067162,0.057488,0.00056727,0.017417,4.0368e-05,0,0,0.052093,-0.021904,0,0.00010496,0,0,0,0.057488,0.00056724,0.017417,0.040634,0.025157,0.050644,4.2669e-06,0.51,0.59,0
0.02498,-0.00068637,0.057485,0.0004902,0.017393,5.6425e-05,0,0,0.05212,-0.021973,0,0.00014671,0,0,0,0.057485,0.00049014,0.017393,0.056723,0.025123,0.050703,4.2726e-06,0.52,0.59,0
0.025501,-0.00070051,0.05748,0.00041796,0.017369,7.1068e-05,0,0,0.052144,-0.022037,0,0.00018478,0,0,0,0.05748,0.00041787,0.017369,0.071358,0.025089,0.050756,4.2775e-06,0.53,0.59,0
0.026023,-0.00071404,0.057474,0.00035029,0.017347,8.4345e-05,0,0,0.052165,-0.022096,0,0.0002193,0,0,0,0.057474,0.00035016,0.017347,0.084599,0.025057,0.050805,4.2815e-06,0.54,0.59,0
0.026545,-0.00072699,0.057466,0.00028696,0.017326,9.631e-05,0,0,0.052182,-0.022151,0,0.00025041,0,0,0,0.057466,0.00028679,0.017326,0.096506,0.025026,0.050848,4.2849e-06,0.55,0.59,0
0.027067,-0.00073937,0.057457,0.00022774,0.017305,0.00010702,0,0,0.052197,-0.022201,0,0.00027825,0,0,0,0.057457,0.00022754,0.017305,0.10714,0.024997,0.050887,4.2876e-06,0.56,0.59,0
0.027588,-0.00075119,0.057446,0.00017242,0.017285,0.00011652,0,0,0.052209,-0.022247,0,0.00030296,0,0,0,0.057446,0.00017218,0.017285,0.11657,0.024968,0.050922,4.2897e-06,0.57,0.59,0
0.028111,-0.00076249,0.057434,0.00012078,0.017267,0.00012488,0,0,0.052218,-0.022289,0,0.0003247,0,0,0,0.057434,0.00012051,0.017267,0.12484,0.024941,0.050953,4.2913e-06,0.58,0.59,0
0.028633,-0.00077328,0.057421,7.2624e-05,0.017248,0.00013215,0,0,0.052225,-0.022328,0,0.0003436,0,0,0,0.057422,7.2319e-05,0.017248,0.13203,0.024914,0.05098,4.2923e-06,0.59,0.59,0
0.029155,-0.00078356,0.057408,2.7762e-05,0.017231,0.00013839,0,0,0.05223,-0.022364,0,0.00035982,0,0,0,0.057408,2.7428e-05,0.017231,0.13819,0.024889,0.051004,4.2928e-06,0.6,0.59,0
0.029677,-0.00079337,0.057393,-1.3992e-05,0.017214,0.00014365,0,0,0.052233,-0.022396,0,0.0003735,0,0,0,0.057394,-1.4351e-05,0.017214,0.14337,0.024864,0.051024,4.293e-06,0.61,0.59,0
0.0302,-0.00080272,0.057378,-5.2814e-05,0.017198,0.00014799,0,0,0.052235,-0.022426,0,0.00038477,0,0,0,0.057379,-5.3195e-05,0.017198,0.14764,0.024841,0.051042,4.2927e-06,0.62,0.59,0
0.030722,-0.00081162,0.057362,-8.8873e-05,0.017182,0.00015146,0,0,0.052235,-0.022452,0,0.00039379,0,0,0,0.057363,-8.9272e-05,0.017182,0.15105,0.024819,0.051057,4.292e-06,0.63,0.59,0
0.031245,-0.00082009,0.057346,-0.00012233,0.017167,0.00015411,0,0,0.052233,-0.022476,0,0.00040069,0,0,0,0.057347,-0.00012274,0.017167,0.15365,0.024797,0.051069,4.2911e-06,0.64,0.59,0
0.031767,-0.00082816,0.05733,-0.00015334,0.017153,0.000156,0,0,0.05223,-0.022498,0,0.00040559,0,0,0,0.05733,-0.00015376,0.017153,0.15549,0.024776,0.051079,4.2899e-06,0.65,0.59,0
0.032289,-0.00083583,0.057313,-0.00018204,0.017139,0.00015716,0,0,0.052226,-0.022518,0,0.00040863,0,0,0,0.057314,-0.00018247,0.017139,0.15662,0.024757,0.051087,4.2884e-06,0.66,0.59,0
0.032811,-0.00084311,0.057296,-0.00020858,0.017126,0.00015766,0,0,0.052221,-0.022535,0,0.00040993,0,0,0,0.057296,-0.00020902,0.017126,0.15709,0.024738,0.051093,4.2867e-06,0.67,0.59,0
0.033334,-0.00085004,0.057279,-0.0002331,0.017114,0.00015754,0,0,0.052215,-0.022551,0,0.0004096,0,0,0,0.057279,-0.00023353,0.017114,0.15694,0.02472,0.051098,4.2848e-06,0.68,0.59,0
0.033856,-0.00085661,0.057262,-0.00025571,0.017102,0.00015683,0,0,0.052208,-0.022565,0,0.00040776,0,0,0,0.057262,-0.00025613,0.017102,0.15622,0.024703,0.0511,4.2827e-06,0.69,0.59,0
0.034378,-0.00086284,0.057244,-0.00027654,0.01709,0.00015558,0,0,0.0522,-0.022577,0,0.00040451,0,0,0,0.057245,-0.00027696,0.01709,0.15497,0.024686,0.051102,4.2805e-06,0.7,0.59,0
0.0349,-0.00086875,0.057227,-0.0002957,0.01708,0.00015383,0,0,0.052192,-0.022588,0,0.00039997,0,0,0,0.057228,-0.00029611,0.01708,0.15322,0.02467,0.051102,4.2781e-06,0.71,0.59,0
0.035422,-0.00087435,0.05721,-0.0003133,0.017069,0.00015162,0,0,0.052184,-0.022597,0,0.00039421,0,0,0,0.057211,-0.0003137,0.017069,0.15102,0.024655,0.051101,4.2757e-06,0.72,0.59,0
0.035943,-0.00087964,0.057193,-0.00032945,0.017059,0.00014898,0,0,0.052174,-0.022605,0,0.00038735,0,0,0,0.057194,-0.00032984,0.017059,0.14839,0.024641,0.051099,4.2732e-06,0.73,0.59,0
0.036465,-0.00088465,0.057177,-0.00034425,0.01705,0.00014595,0,0,0.052165,-0.022612,0,0.00037946,0,0,0,0.057177,-0.00034462,0.01705,0.14537,0.024627,0.051096,4.2707e-06,0.74,0.59,0
0.036987,-0.00088938,0.05716,-0.00035778,0.017041,0.00014255,0,0,0.052156,-0.022618,0,0.00037063,0,0,0,0.057161,-0.00035813,0.017041,0.142,0.024615,0.051092,4.2681e-06,0.75,0.59,0
0.037508,-0.00089385,0.057145,-0.00037013,0.017032,0.00013882,0,0,0.052146,-0.022623,0,0.00036093,0,0,0,0.057145,-0.00037047,0.017032,0.13829,0.024602,0.051088,4.2655e-06,0.76,0.59,0
0.03803,-0.00089806,0.057129,-0.0003814,0.017024,0.00013478,0,0,0.052136,-0.022627,0,0.00035043,0,0,0,0.057129,-0.00038171,0.017024,0.13428,0.024591,0.051083,4.2629e-06,0.77,0.59,0
0.038551,-0.00090203,0.057114,-0.00039165,0.017017,0.00013047,0,0,0.052126,-0.022631,0,0.00033921,0,0,0,0.057114,-0.00039194,0.017017,0.12999,0.02458,0.051077,4.2603e-06,0.78,0.59,0
0.039072,-0.00090575,0.057099,-0.00040096,0.017009,0.0001259,0,0,0.052116,-0.022633,0,0.00032733,0,0,0,0.057099,-0.00040124,0.017009,0.12545,0.024569,0.051072,4.2577e-06,0.79,0.59,0
0.039593,-0.00090925,0.057085,-0.0004094,0.017003,0.00012109,0,0,0.052107,-0.022636,0,0.00031484,0,0,0,0.057085,-0.00040966,0.017003,0.12068,0.024559,0.051066,4.2552e-06,0.8,0.59,0
0.040114,-0.00091253,0.057071,-0.00041704,0.016996,0.00011608,0,0,0.052097,-0.022637,0,0.00030181,0,0,0,0.057071,-0.00041728,0.016996,0.11569,0.02455,0.05106,4.2527e-06,0.81,0.59,0
0.040635,-0.0009156,0.057058,-0.00042394,0.01699,0.00011088,0,0,0.052088,-0.022638,0,0.00028828,0,0,0,0.057058,-0.00042415,0.01699,0.11052,0.024541,0.051053,4.2503e-06,0.82,0.59,0
0.041156,-0.00091846,0.057045,-0.00043015,0.016984,0.0001055,0,0,0.052079,-0.022639,0,0.0002743,0,0,0,0.057045,-0.00043035,0.016984,0.10517,0.024533,0.051047,4.2479e-06,0.83,0.59,0
0.041677,-0.00092112,0.057033,-0.00043574,0.016979,9.9965e-05,0,0,0.05207,-0.022639,0,0.00025991,0,0,0,0.057033,-0.00043591,0.016979,0.099664,0.024525,0.051041,4.2457e-06,0.84,0.59,0
0.042197,-0.0009236,0.057022,-0.00044074,0.016974,9.4291e-05,0,0,0.052062,-0.022639,0,0.00024516,0,0,0,0.057022,-0.0004409,0.016974,0.094018,0.024518,0.051035,4.2436e-06,0.85,0.59,0
0.042718,-0.00092588,0.057011,-0.00044521,0.01697,8.8491e-05,0,0,0.052054,-0.022639,0,0.00023008,0,0,0,0.057011,-0.00044535,0.01697,0.088244,0.024512,0.051028,4.2415e-06,0.86,0.59,0
0.043238,-0.00092798,0.057001,-0.00044919,0.016966,8.2579e-05,0,0,0.052046,-0.022639,0,0.00021471,0,0,0,0.057001,-0.00044931,0.016966,0.082357,0.024506,0.051023,4.2395e-06,0.87,0.59,0
0.043759,-0.00092991,0.056991,-0.00045272,0.016962,7.6567e-05,0,0,0.052039,-0.022639,0,0.00019907,0,0,0,0.056992,-0.00045283,0.016962,0.076369,0.0245,0.051017,4.2377e-06,0.88,0.59,0
0.044279,-0.00093167,0.056983,-0.00045584,0.016958,7.0465e-05,0,0,0.052032,-0.022638,0,0.00018321,0,0,0,0.056983,-0.00045593,0.016958,0.07029,0.024495,0.051012,4.236e-06,0.89,0.59,0
0.044799,-0.00093326,0.056975,-0.00045858,0.016955,6.4285e-05,0,0,0.052026,-0.022637,0,0.00016714,0,0,0,0.056975,-0.00045865,0.016955,0.064131,0.02449,0.051007,4.2345e-06,0.9,0.59,0
0.04532,-0.00093469,0.056967,-0.00046096,0.016952,5.8037e-05,0,0,0.05202,-0.022637,0,0.0001509,0,0,0,0.056967,-0.00046102,0.016952,0.057903,0.024486,0.051002,4.233e-06,0.91,0.59,0
0.04584,-0.00093596,0.056961,-0.00046303,0.016949,5.1728e-05,0,0,0.052015,-0.022636,0,0.00013449,0,0,0,0.056961,-0.00046308,0.016949,0.051613,0.024482,0.050998,4.2317e-06,0.92,0.59,0
0.04636,-0.00093707,0.056955,-0.00046479,0.016947,4.5369e-05,0,0,0.05201,-0.022635,0,0.00011796,0,0,0,0.056955,-0.00046483,0.016947,0.045271,0.024479,0.050994,4.2306e-06,0.93,0.59,0
0.04688,-0.00093802,0.05695,-0.00046628,0.016945,3.8965e-05,0,0,0.052006,-0.022635,0,0.00010131,0,0,0,0.05695,-0.00046631,0.016945,0.038883,0.024476,0.050991,4.2296e-06,0.94,0.59,0
0.0474,-0.00093883,0.056946,-0.00046751,0.016944,3.2525e-05,0,0,0.052003,-0.022634,0,8.4565e-05,0,0,0,0.056946,-0.00046753,0.016944,0.032458,0.024474,0.050988,4.2287e-06,0.95,0.59,0
0.04792,-0.00093949,0.056942,-0.00046849,0.016942,2.6055e-05,0,0,0.052,-0.022634,0,6.7742e-05,0,0,0,0.056942,-0.00046851,0.016942,0.026003,0.024472,0.050986,4.228e-06,0.96,0.59,0
0.04844,-0.00094,0.056939,-0.00046925,0.016941,1.9561e-05,0,0,0.051998,-0.022633,0,5.0859e-05,0,0,0,0.056939,-0.00046925,0.016941,0.019523,0.02447,0.050984,4.2274e-06,0.97,0.59,0
0.04896,-0.00094036,0.056938,-0.00046978,0.01694,1.305e-05,0,0,0.051996,-0.022633,0,3.3931e-05,0,0,0,0.056938,-0.00046978,0.01694,0.013025,0.024469,0.050983,4.227e-06,0.98,0.59,0
0.04948,-0.00094058,0.056936,-0.00047009,0.01694,6.528e-06,0,0,0.051995,-0.022633,0,1.6973e-05,0,0,0,0.056936,-0.0004701,0.01694,0.0065154,0.024469,0.050982,4.2268e-06,0.99,0.59,0
0.05,-0.00094065,0.056936,-0.0004702,0.01694,-2.7864e-06,0,0,0.051995,-0.022633,0,-7.2447e-06,0,0,0,0.056936,-0.0004702,0.01694,-0.0027811,0.024469,0.050982,4.2267e-06,1,0.59,0
0,0,0.051061,0.021883,0.021883,0.0011453,0,0,0.037931,-2.1684e-19,0,0.0029779,0,0,0,0.051106,0.021839,0.021883,2.2445,0.031609,0.029245,1.2847e-06,0,0.6,0
0.00037931,2.9779e-05,0.050942,0.020539,0.021444,0.0011191,0,0,0.038348,-0.0011775,0,0.0029098,0,0,0,0.050984,0.020497,0.021444,2.1052,0.030975,0.030024,1.3854e-06,0.01,0.6,0
0.00076695,5.7528e-05,0.051379,0.019449,0.021248,0.0010274,0,0,0.03917,-0.0023396,0,0.0026712,0,0,0,0.051412,0.019416,0.021248,1.841,0.030692,0.031121,1.5299e-06,0.02,0.6,0
0.0011627,8.2494e-05,0.0518,0.018388,0.021056,0.00089803,0,0,0.039966,-0.0034689,0,0.0023349,0,0,0,0.051824,0.018364,0.021056,1.5385,0.030415,0.032198,1.6741e-06,0.03,0.6,0
0.0015663,0.00010401,0.052196,0.017369,0.02087,0.00073854,0,0,0.040725,-0.0045507,0,0.0019202,0,0,0,0.052212,0.017354,0.02087,1.2143,0.030145,0.03324,1.8153e-06,0.04,0.6,0
0.0019772,0.00012156,0.052566,0.016402,0.02069,0.00055843,0,0,0.041438,-0.005575,0,0.0014519,0,0,0,0.052574,0.016393,0.02069,0.88446,0.029886,0.034235,1.9518e-06,0.05,0.6,0
0.002395,0.00013479,0.052906,0.015491,0.020519,0.00036776,0,0,0.042103,-0.0065368,0,0.00095619,0,0,0,0.052909,0.015487,0.020519,0.5631,0.029638,0.035177,2.0823e-06,0.06,0.6,0
0.0028193,0.00014351,0.053217,0.014636,0.020356,0.00017578,0,0,0.042719,-0.0074359,0,0.00045702,0,0,0,0.053218,0.014635,0.020356,0.26104,0.029403,0.036064,2.2061e-06,0.07,0.6,0
0.0032494,0.0001477,0.053501,0.013836,0.020201,-9.9711e-06,0,0,0.04329,-0.0082749,0,-2.5925e-05,0,0,0,0.053501,0.013836,0.020201,-0.014403,0.029179,0.036897,2.3231e-06,0.08,0.6,0
0.0036851,0.00014745,0.053762,0.013086,0.020055,-0.0001839,0,0,0.04382,-0.0090587,0,-0.00047813,0,0,0,0.053763,0.013086,0.020055,-0.25903,0.028968,0.037679,2.4337e-06,0.09,0.6,0
0.0041258,0.00014295,0.054003,0.012383,0.019916,-0.00034231,0,0,0.044313,-0.0097924,0,-0.00089,0,0,0,0.054006,0.01238,0.019916,-0.47119,0.028767,0.038416,2.5383e-06,0.1,0.6,0
0.0045713,0.00013448,0.054227,0.011722,0.019785,-0.00048311,0,0,0.044775,-0.010482,0,-0.0012561,0,0,0,0.054232,0.011716,0.019785,-0.6511,0.028578,0.039111,2.6373e-06,0.11,0.6,0
0.0050213,0.00012233,0.054436,0.011098,0.01966,-0.00060542,0,0,0.045209,-0.011131,0,-0.0015741,0,0,0,0.054445,0.011089,0.01966,-0.80018,0.028398,0.039769,2.7314e-06,0.12,0.6,0
0.0054755,0.00010682,0.054634,0.010507,0.019542,-0.00070924,0,0,0.045619,-0.011746,0,-0.001844,0,0,0,0.054645,0.010496,0.019542,-0.92059,0.028228,0.040393,2.821e-06,0.13,0.6,0
0.0059337,8.8311e-05,0.054821,0.0099467,0.01943,-0.00079519,0,0,0.046008,-0.012329,0,-0.0020675,0,0,0,0.054835,0.0099326,0.01943,-1.0149,0.028066,0.040987,2.9065e-06,0.14,0.6,0
0.0063957,6.7121e-05,0.054999,0.0094141,0.019324,-0.00086424,0,0,0.046378,-0.012883,0,-0.002247,0,0,0,0.055015,0.0093977,0.019324,-1.0857,0.027912,0.041553,2.9881e-06,0.15,0.6,0
0.0068613,4.358e-05,0.055169,0.0089067,0.019223,-0.00091758,0,0,0.04673,-0.013411,0,-0.0023857,0,0,0,0.055187,0.0088886,0.019223,-1.1358,0.027766,0.042094,3.0663e-06,0.16,0.6,0
0.0073303,1.8004e-05,0.055331,0.0084229,0.019126,-0.00095655,0,0,0.047066,-0.013914,0,-0.002487,0,0,0,0.055351,0.0084034,0.019126,-1.1677,0.027627,0.04261,3.1412e-06,0.17,0.6,0
0.0078026,-9.3111e-06,0.055487,0.0079609,0.019034,-0.00098248,0,0,0.047388,-0.014395,0,-0.0025545,0,0,0,0.055507,0.0079406,0.019034,-1.1838,0.027494,0.043104,3.2129e-06,0.18,0.6,0
0.008278,-3.8085e-05,0.055635,0.0075196,0.018947,-0.00099672,0,0,0.047696,-0.014855,0,-0.0025915,0,0,0,0.055656,0.007499,0.018947,-1.1862,0.027367,0.043576,3.2816e-06,0.19,0.6,0
0.0087565,-6.8058e-05,0.055778,0.0070978,0.018863,-0.0010006,0,0,0.047989,-0.015294,0,-0.0026015,0,0,0,0.055798,0.0070772,0.018863,-1.177,0.027246,0.044028,3.3473e-06,0.2,0.6,0
0.0092378,-9.8989e-05,0.055913,0.0066946,0.018782,-0.00099529,0,0,0.04827,-0.015714,0,-0.0025877,0,0,0,0.055933,0.0066745,0.018782,-1.158,0.02713,0.044459,3.4102e-06,0.21,0.6,0
0.0097219,-0.00013066,0.056042,0.0063092,0.018705,-0.00098201,0,0,0.048538,-0.016115,0,-0.0025532,0,0,0,0.056062,0.0062898,0.018705,-1.1307,0.027019,0.044871,3.4703e-06,0.22,0.6,0
0.010209,-0.00016286,0.056165,0.0059408,0.018632,-0.00096185,0,0,0.048793,-0.016498,0,-0.0025008,0,0,0,0.056183,0.0059224,0.018632,-1.0967,0.026913,0.045265,3.5276e-06,0.23,0.6,0
0.010698,-0.00019542,0.056281,0.0055889,0.018561,-0.0009358,0,0,0.049036,-0.016864,0,-0.0024331,0,0,0,0.056299,0.0055716,0.018561,-1.0572,0.026811,0.045641,3.5823e-06,0.24,0.6,0
0.011189,-0.00022816,0.056391,0.0052527,0.018493,-0.00090481,0,0,0.049268,-0.017213,0,-0.0023525,0,0,0,0.056407,0.0052368,0.018493,-1.0133,0.026713,0.045998,3.6343e-06,0.25,0.6,0
0.011683,-0.00026093,0.056495,0.0049319,0.018428,-0.00086973,0,0,0.049487,-0.017545,0,-0.0022613,0,0,0,0.05651,0.0049173,0.018428,-0.96605,0.026618,0.046339,3.6837e-06,0.26,0.6,0
0.012179,-0.00029361,0.056593,0.0046259,0.018366,-0.00083132,0,0,0.049695,-0.017862,0,-0.0021614,0,0,0,0.056606,0.0046126,0.018366,-0.91626,0.026528,0.046663,3.7306e-06,0.27,0.6,0
0.012677,-0.00032607,0.056684,0.0043341,0.018305,-0.00079031,0,0,0.049892,-0.018163,0,-0.0020548,0,0,0,0.056696,0.0043222,0.018305,-0.86471,0.026441,0.04697,3.775e-06,0.28,0.6,0
0.013177,-0.00035821,0.056769,0.0040561,0.018248,-0.00074731,0,0,0.050078,-0.018449,0,-0.001943,0,0,0,0.05678,0.0040455,0.018248,-0.81207,0.026358,0.047262,3.8169e-06,0.29,0.6,0
0.013679,-0.00038993,0.056848,0.0037914,0.018192,-0.00070291,0,0,0.050253,-0.018721,0,-0.0018276,0,0,0,0.056858,0.0037821,0.018192,-0.75889,0.026277,0.047538,3.8565e-06,0.3,0.6,0
0.014182,-0.00042116,0.056922,0.0035395,0.018138,-0.00065761,0,0,0.050418,-0.018978,0,-0.0017098,0,0,0,0.05693,0.0035314,0.018138,-0.70568,0.0262,0.047799,3.8937e-06,0.31,0.6,0
0.014687,-0.00045183,0.056989,0.0033001,0.018087,-0.00061186,0,0,0.050573,-0.019223,0,-0.0015908,0,0,0,0.056996,0.0032931,0.018087,-0.65285,0.026125,0.048046,3.9287e-06,0.32,0.6,0
0.015193,-0.00048187,0.057052,0.0030725,0.018037,-0.00056606,0,0,0.050719,-0.019454,0,-0.0014718,0,0,0,0.057058,0.0030666,0.018037,-0.60075,0.026054,0.048279,3.9614e-06,0.33,0.6,0
0.015701,-0.00051124,0.057109,0.0028564,0.017989,-0.00052056,0,0,0.050855,-0.019673,0,-0.0013534,0,0,0,0.057114,0.0028514,0.017989,-0.54969,0.025985,0.048499,3.9921e-06,0.34,0.6,0
0.01621,-0.0005399,0.057161,0.0026514,0.017944,-0.00047565,0,0,0.050982,-0.01988,0,-0.0012367,0,0,0,0.057165,0.0026472,0.017944,-0.49992,0.025919,0.048705,4.0207e-06,0.35,0.6,0
0.016721,-0.00056781,0.057207,0.002457,0.017899,-0.0004316,0,0,0.051101,-0.020075,0,-0.0011222,0,0,0,0.057211,0.0024536,0.017899,-0.45163,0.025855,0.048899,4.0474e-06,0.36,0.6,0
0.017233,-0.00059495,0.05725,0.0022728,0.017857,-0.00038863,0,0,0.051211,-0.020259,0,-0.0010104,0,0,0,0.057252,0.00227,0.017857,-0.405,0.025793,0.049082,4.0721e-06,0.37,0.6,0
0.017745,-0.00062129,0.057287,0.0020984,0.017816,-0.00034692,0,0,0.051313,-0.020432,0,-0.00090199,0,0,0,0.057289,0.0020962,0.017816,-0.36014,0.025734,0.049252,4.095e-06,0.38,0.6,0
0.018259,-0.00064683,0.057321,0.0019333,0.017776,-0.00030662,0,0,0.051408,-0.020596,0,-0.00079722,0,0,0,0.057322,0.0019316,0.017776,-0.31717,0.025677,0.049412,4.1162e-06,0.39,0.6,0
0.018773,-0.00067155,0.05735,0.0017772,0.017738,-0.00026786,0,0,0.051495,-0.020749,0,-0.00069644,0,0,0,0.057351,0.0017759,0.017738,-0.27616,0.025622,0.049561,4.1358e-06,0.4,0.6,0
0.019289,-0.00069545,0.057375,0.0016297,0.017701,-0.00023073,0,0,0.051576,-0.020893,0,-0.00059991,0,0,0,0.057376,0.0016288,0.017701,-0.23715,0.025569,0.0497,4.1537e-06,0.41,0.6,0
0.019805,-0.00071853,0.057397,0.0014905,0.017666,-0.00019531,0,0,0.05165,-0.021028,0,-0.00050781,0,0,0,0.057397,0.0014898,0.017666,-0.20016,0.025518,0.049829,4.1701e-06,0.42,0.6,0
0.020322,-0.00074079,0.057415,0.001359,0.017632,-0.00016165,0,0,0.051717,-0.021155,0,-0.00042029,0,0,0,0.057415,0.0013586,0.017632,-0.16523,0.025469,0.049949,4.1851e-06,0.43,0.6,0
0.020839,-0.00076224,0.05743,0.0012351,0.017599,-0.00012978,0,0,0.051779,-0.021274,0,-0.00033743,0,0,0,0.05743,0.0012348,0.017599,-0.13232,0.025421,0.050061,4.1987e-06,0.44,0.6,0
0.021357,-0.00078289,0.057441,0.0011183,0.017568,-9.9723e-05,0,0,0.051836,-0.021385,0,-0.00025928,0,0,0,0.057442,0.0011181,0.017568,-0.10144,0.025376,0.050164,4.2111e-06,0.45,0.6,0
0.021876,-0.00080275,0.05745,0.0010083,0.017538,-7.1477e-05,0,0,0.051887,-0.021488,0,-0.00018584,0,0,0,0.057451,0.0010083,0.017538,-0.072558,0.025332,0.050259,4.2222e-06,0.46,0.6,0
0.022395,-0.00082183,0.057457,0.00090484,0.017508,-4.5034e-05,0,0,0.051933,-0.021585,0,-0.00011709,0,0,0,0.057457,0.00090481,0.017508,-0.045626,0.02529,0.050347,4.2321e-06,0.47,0.6,0
0.022915,-0.00084014,0.05746,0.00080752,0.01748,-2.0374e-05,0,0,0.051974,-0.021675,0,-5.2972e-05,0,0,0,0.05746,0.00080751,0.01748,-0.020605,0.025249,0.050428,4.241e-06,0.48,0.6,0
0.023435,-0.00085771,0.057462,0.00071606,0.017453,2.5326e-06,0,0,0.052011,-0.021759,0,6.5847e-06,0,0,0,0.057462,0.00071606,0.017453,0.0025571,0.02521,0.050502,4.2488e-06,0.49,0.6,0
0.023955,-0.00087455,0.057461,0.00063018,0.017427,2.3723e-05,0,0,0.052044,-0.021836,0,6.168e-05,0,0,0,0.057461,0.00063017,0.017427,0.023917,0.025173,0.05057,4.2557e-06,0.5,0.6,0
0.024475,-0.00089068,0.057458,0.0005496,0.017402,4.3241e-05,0,0,0.052073,-0.021909,0,0.00011243,0,0,0,0.057458,0.00054957,0.017402,0.043535,0.025137,0.050632,4.2617e-06,0.51,0.6,0
0.024996,-0.00090611,0.057454,0.00047405,0.017378,6.1136e-05,0,0,0.052098,-0.021976,0,0.00015895,0,0,0,0.057454,0.00047398,0.017378,0.061475,0.025102,0.050688,4.2669e-06,0.52,0.6,0
0.025517,-0.00092088,0.057447,0.00040327,0.017355,7.746e-05,0,0,0.05212,-0.022038,0,0.0002014,0,0,0,0.057447,0.00040316,0.017355,0.077802,0.025069,0.050739,4.2713e-06,0.53,0.6,0
0.026039,-0.00093499,0.05744,0.00033701,0.017333,9.2271e-05,0,0,0.052139,-0.022095,0,0.00023991,0,0,0,0.05744,0.00033686,0.017333,0.092583,0.025037,0.050785,4.2749e-06,0.54,0.6,0
0.02656,-0.00094848,0.057431,0.00027503,0.017312,0.00010563,0,0,0.052154,-0.022148,0,0.00027463,0,0,0,0.057431,0.00027483,0.017312,0.10589,0.025006,0.050826,4.2779e-06,0.55,0.6,0
0.027082,-0.00096135,0.05742,0.0002171,0.017291,0.00011759,0,0,0.052168,-0.022196,0,0.00030574,0,0,0,0.05742,0.00021686,0.017291,0.11778,0.024976,0.050863,4.2803e-06,0.56,0.6,0
0.027603,-0.00097364,0.057409,0.00016302,0.017271,0.00012822,0,0,0.052178,-0.022241,0,0.00033338,0,0,0,0.057409,0.00016273,0.017271,0.12834,0.024948,0.050896,4.2821e-06,0.57,0.6,0
0.028125,-0.00098535,0.057396,0.00011255,0.017253,0.00013759,0,0,0.052186,-0.022282,0,0.00035772,0,0,0,0.057396,0.00011222,0.017253,0.13761,0.02492,0.050925,4.2834e-06,0.58,0.6,0
0.028647,-0.00099651,0.057383,6.5514e-05,0.017234,0.00014574,0,0,0.052193,-0.02232,0,0.00037893,0,0,0,0.057383,6.5143e-05,0.017234,0.14569,0.024894,0.050951,4.2842e-06,0.59,0.6,0
0.029169,-0.0010072,0.057368,2.1708e-05,0.017217,0.00015275,0,0,0.052197,-0.022354,0,0.00039716,0,0,0,0.057369,2.1301e-05,0.017217,0.15262,0.024869,0.050973,4.2845e-06,0.6,0.6,0
0.029691,-0.0010173,0.057354,-1.9047e-05,0.0172,0.00015868,0,0,0.052199,-0.022385,0,0.00041257,0,0,0,0.057354,-1.9486e-05,0.0172,0.15847,0.024845,0.050993,4.2845e-06,0.61,0.6,0
0.030213,-0.0010269,0.057338,-5.6928e-05,0.017184,0.00016359,0,0,0.0522,-0.022414,0,0.00042533,0,0,0,0.057339,-5.7394e-05,0.017184,0.1633,0.024822,0.051009,4.284e-06,0.62,0.6,0
0.030735,-0.0010361,0.057322,-9.21e-05,0.017169,0.00016753,0,0,0.052199,-0.022439,0,0.00043557,0,0,0,0.057323,-9.2589e-05,0.017169,0.16718,0.0248,0.051023,4.2833e-06,0.63,0.6,0
0.031257,-0.0010448,0.057306,-0.00012472,0.017154,0.00017056,0,0,0.052197,-0.022463,0,0.00044346,0,0,0,0.057306,-0.00012523,0.017154,0.17016,0.024778,0.051035,4.2822e-06,0.64,0.6,0
0.031779,-0.0010531,0.057289,-0.00015495,0.01714,0.00017275,0,0,0.052194,-0.022484,0,0.00044914,0,0,0,0.05729,-0.00015547,0.01714,0.1723,0.024758,0.051044,4.2809e-06,0.65,0.6,0
0.032301,-0.0010609,0.057272,-0.00018293,0.017127,0.00017413,0,0,0.052189,-0.022503,0,0.00045274,0,0,0,0.057273,-0.00018346,0.017127,0.17365,0.024739,0.051052,4.2794e-06,0.66,0.6,0
0.032823,-0.0010684,0.057255,-0.00020879,0.017114,0.00017477,0,0,0.052184,-0.02252,0,0.00045441,0,0,0,0.057256,-0.00020932,0.017114,0.17426,0.02472,0.051057,4.2776e-06,0.67,0.6,0
0.033345,-0.0010755,0.057238,-0.00023267,0.017102,0.00017472,0,0,0.052178,-0.022535,0,0.00045426,0,0,0,0.057239,-0.0002332,0.017102,0.17418,0.024702,0.051061,4.2757e-06,0.68,0.6,0
0.033866,-0.0010822,0.057221,-0.00025469,0.01709,0.00017401,0,0,0.052171,-0.022548,0,0.00045243,0,0,0,0.057222,-0.00025521,0.01709,0.17346,0.024685,0.051064,4.2736e-06,0.69,0.6,0
0.034388,-0.0010885,0.057204,-0.00027497,0.017079,0.0001727,0,0,0.052163,-0.02256,0,0.00044903,0,0,0,0.057205,-0.00027549,0.017079,0.17215,0.024669,0.051065,4.2714e-06,0.7,0.6,0
0.03491,-0.0010945,0.057187,-0.00029362,0.017068,0.00017084,0,0,0.052155,-0.02257,0,0.00044418,0,0,0,0.057188,-0.00029413,0.017068,0.17029,0.024654,0.051065,4.2691e-06,0.71,0.6,0
0.035431,-0.0011002,0.05717,-0.00031076,0.017058,0.00016845,0,0,0.052146,-0.022579,0,0.00043798,0,0,0,0.057171,-0.00031125,0.017058,0.16791,0.024639,0.051063,4.2667e-06,0.72,0.6,0
0.035953,-0.0011056,0.057154,-0.00032647,0.017048,0.00016559,0,0,0.052137,-0.022587,0,0.00043053,0,0,0,0.057154,-0.00032695,0.017048,0.16505,0.024625,0.051061,4.2642e-06,0.73,0.6,0
0.036474,-0.0011107,0.057138,-0.00034086,0.017039,0.00016228,0,0,0.052128,-0.022594,0,0.00042193,0,0,0,0.057138,-0.00034132,0.017039,0.16176,0.024612,0.051058,4.2617e-06,0.74,0.6,0
0.036995,-0.0011155,0.057122,-0.00035403,0.01703,0.00015856,0,0,0.052119,-0.0226,0,0.00041226,0,0,0,0.057122,-0.00035446,0.01703,0.15807,0.024599,0.051055,4.2591e-06,0.75,0.6,0
0.037516,-0.00112,0.057106,-0.00036605,0.017022,0.00015447,0,0,0.052109,-0.022604,0,0.00040162,0,0,0,0.057106,-0.00036646,0.017022,0.154,0.024587,0.05105,4.2566e-06,0.76,0.6,0
0.038037,-0.0011242,0.057091,-0.000377,0.017014,0.00015003,0,0,0.0521,-0.022608,0,0.00039009,0,0,0,0.057091,-0.00037739,0.017014,0.14958,0.024576,0.051045,4.254e-06,0.77,0.6,0
0.038558,-0.0011282,0.057076,-0.00038697,0.017007,0.00014528,0,0,0.05209,-0.022612,0,0.00037773,0,0,0,0.057076,-0.00038733,0.017007,0.14486,0.024565,0.05104,4.2515e-06,0.78,0.6,0
0.039079,-0.001132,0.057062,-0.00039602,0.017,0.00014024,0,0,0.05208,-0.022614,0,0.00036462,0,0,0,0.057062,-0.00039636,0.017,0.13984,0.024555,0.051034,4.249e-06,0.79,0.6,0
0.0396,-0.0011355,0.057048,-0.00040423,0.016993,0.00013494,0,0,0.052071,-0.022616,0,0.00035083,0,0,0,0.057048,-0.00040455,0.016993,0.13457,0.024546,0.051029,4.2465e-06,0.8,0.6,0
0.040121,-0.0011388,0.057034,-0.00041165,0.016987,0.00012939,0,0,0.052062,-0.022618,0,0.00033641,0,0,0,0.057035,-0.00041195,0.016987,0.12905,0.024536,0.051023,4.2441e-06,0.81,0.6,0
0.040641,-0.0011419,0.057021,-0.00041836,0.016981,0.00012363,0,0,0.052053,-0.022619,0,0.00032143,0,0,0,0.057022,-0.00041862,0.016981,0.12331,0.024528,0.051017,4.2418e-06,0.82,0.6,0
0.041162,-0.0011448,0.057009,-0.0004244,0.016975,0.00011766,0,0,0.052044,-0.02262,0,0.00030593,0,0,0,0.057009,-0.00042464,0.016975,0.11738,0.02452,0.051011,4.2395e-06,0.83,0.6,0
0.041682,-0.0011474,0.056997,-0.00042982,0.01697,0.00011152,0,0,0.052035,-0.02262,0,0.00028996,0,0,0,0.056998,-0.00043004,0.01697,0.11127,0.024513,0.051004,4.2373e-06,0.84,0.6,0
0.042202,-0.0011499,0.056986,-0.00043468,0.016966,0.00010522,0,0,0.052027,-0.02262,0,0.00027358,0,0,0,0.056987,-0.00043488,0.016966,0.10499,0.024506,0.050998,4.2352e-06,0.85,0.6,0
0.042722,-0.0011522,0.056976,-0.00043903,0.016961,9.8774e-05,0,0,0.052019,-0.02262,0,0.00025681,0,0,0,0.056976,-0.0004392,0.016961,0.098568,0.024499,0.050993,4.2332e-06,0.86,0.6,0
0.043243,-0.0011543,0.056966,-0.0004429,0.016957,9.2196e-05,0,0,0.052012,-0.02262,0,0.00023971,0,0,0,0.056966,-0.00044304,0.016957,0.092014,0.024493,0.050987,4.2313e-06,0.87,0.6,0
0.043763,-0.0011562,0.056957,-0.00044632,0.016953,8.5502e-05,0,0,0.052005,-0.022619,0,0.0002223,0,0,0,0.056957,-0.00044645,0.016953,0.085341,0.024488,0.050981,4.2296e-06,0.88,0.6,0
0.044283,-0.001158,0.056948,-0.00044935,0.01695,7.8704e-05,0,0,0.051998,-0.022619,0,0.00020463,0,0,0,0.056949,-0.00044946,0.01695,0.078564,0.024483,0.050976,4.2279e-06,0.89,0.6,0
0.044803,-0.0011595,0.056941,-0.00045201,0.016947,7.1815e-05,0,0,0.051992,-0.022618,0,0.00018672,0,0,0,0.056941,-0.0004521,0.016947,0.071694,0.024478,0.050972,4.2264e-06,0.9,0.6,0
0.045323,-0.001161,0.056934,-0.00045433,0.016944,6.4846e-05,0,0,0.051987,-0.022618,0,0.0001686,0,0,0,0.056934,-0.0004544,0.016944,0.064741,0.024474,0.050967,4.225e-06,0.91,0.6,0
0.045843,-0.0011622,0.056927,-0.00045633,0.016941,5.7806e-05,0,0,0.051982,-0.022617,0,0.0001503,0,0,0,0.056927,-0.00045639,0.016941,0.057717,0.024471,0.050963,4.2238e-06,0.92,0.6,0
0.046362,-0.0011633,0.056922,-0.00045805,0.016939,5.0706e-05,0,0,0.051977,-0.022616,0,0.00013183,0,0,0,0.056922,-0.00045809,0.016939,0.050632,0.024468,0.050959,4.2227e-06,0.93,0.6,0
0.046882,-0.0011643,0.056917,-0.00045949,0.016937,4.3554e-05,0,0,0.051973,-0.022616,0,0.00011324,0,0,0,0.056917,-0.00045952,0.016937,0.043493,0.024465,0.050956,4.2217e-06,0.94,0.6,0
0.047402,-0.0011651,0.056913,-0.00046068,0.016936,3.6359e-05,0,0,0.05197,-0.022615,0,9.4533e-05,0,0,0,0.056913,-0.00046071,0.016936,0.03631,0.024463,0.050953,4.2209e-06,0.95,0.6,0
0.047921,-0.0011657,0.056909,-0.00046164,0.016934,2.9129e-05,0,0,0.051967,-0.022615,0,7.5734e-05,0,0,0,0.056909,-0.00046165,0.016934,0.02909,0.024461,0.050951,4.2202e-06,0.96,0.6,0
0.048441,-0.0011662,0.056907,-0.00046237,0.016933,2.187e-05,0,0,0.051965,-0.022614,0,5.6863e-05,0,0,0,0.056907,-0.00046238,0.016933,0.021842,0.024459,0.050949,4.2196e-06,0.97,0.6,0
0.048961,-0.0011666,0.056905,-0.00046288,0.016933,1.4592e-05,0,0,0.051964,-0.022614,0,3.7938e-05,0,0,0,0.056905,-0.00046289,0.016933,0.014573,0.024458,0.050948,4.2193e-06,0.98,0.6,0
0.04948,-0.0011668,0.056904,-0.00046319,0.016932,7.2991e-06,0,0,0.051963,-0.022614,0,1.8978e-05,0,0,0,0.056904,-0.00046319,0.016932,0.0072901,0.024458,0.050947,4.219e-06,0.99,0.6,0
0.05,-0.0011669,0.056903,-0.00046329,0.016932,-2.7648e-06,0,0,0.051963,-0.022614,0,-7.1884e-06,0,0,0,0.056903,-0.00046329,0.016932,-0.0027614,0.024457,0.050947,4.2189e-06,1,0.6,0
0,0,0.051109,0.021904,0.021904,0.00070128,0,0,0.037967,2.1684e-19,0,0.0018233,0,0,0,0.051126,0.021887,0.021904,1.3747,0.031639,0.029231,1.2827e-06,0,0.61,0
0.00037967,1.8233e-05,0.050996,0.020607,0.021481,0.0006793,0,0,0.038369,-0.0011361,0,0.0017662,0,0,0,0.051011,0.020592,0.021481,1.2799,0.031028,0.029985,1.3805e-06,0.01,0.61,0
0.00076739,3.4577e-05,0.05142,0.019554,0.021292,0.0005997,0,0,0.039166,-0.0022593,0,0.0015592,0,0,0,0.051431,0.019543,0.021292,1.0778,0.030756,0.031051,1.5211e-06,0.02,0.61,0
0.001163,4.8431e-05,0.051831,0.018526,0.021107,0.00048985,0,0,0.039941,-0.0033558,0,0.0012736,0,0,0,0.051838,0.018518,0.021107,0.84245,0.030488,0.032104,1.6622e-06,0.03,0.61,0
0.0015662,5.926e-05,0.052223,0.017531,0.020926,0.00035518,0,0,0.040686,-0.0044139,0,0.00092346,0,0,0,0.052226,0.017527,0.020926,0.58651,0.030226,0.033131,1.8016e-06,0.04,0.61,0
0.0019767,6.6637e-05,0.052592,0.016578,0.020751,0.00020278,0,0,0.041393,-0.0054249,0,0.00052723,0,0,0,0.052593,0.016577,0.020751,0.3226,0.029974,0.034121,1.9377e-06,0.05,0.61,0
0.0023941,7.0258e-05,0.052936,0.015672,0.020582,4.0375e-05,0,0,0.042059,-0.0063835,0,0.00010498,0,0,0,0.052936,0.015672,0.020582,0.062079,0.02973,0.035068,2.0692e-06,0.06,0.61,0
0.0028179,6.9955e-05,0.053254,0.014815,0.020421,-0.00012464,0,0,0.042684,-0.0072878,0,-0.00032407,0,0,0,0.053255,0.014814,0.020421,-0.18578,0.029497,0.035966,2.1951e-06,0.07,0.61,0
0.0032478,6.5682e-05,0.053549,0.014006,0.020266,-0.00028585,0,0,0.043267,-0.0081386,0,-0.00074322,0,0,0,0.053551,0.014004,0.020266,-0.41416,0.029274,0.036817,2.3152e-06,0.08,0.61,0
0.0036832,5.7504e-05,0.05382,0.013244,0.020119,-0.0004382,0,0,0.043812,-0.0089384,0,-0.0011393,0,0,0,0.053825,0.013239,0.020119,-0.61865,0.029061,0.037621,2.4293e-06,0.09,0.61,0
0.004124,4.557e-05,0.054072,0.012524,0.019979,-0.00057801,0,0,0.044321,-0.0096908,0,-0.0015028,0,0,0,0.05408,0.012516,0.019979,-0.7969,0.028858,0.03838,2.5376e-06,0.1,0.61,0
0.0045696,3.0097e-05,0.054306,0.011846,0.019845,-0.00070294,0,0,0.044798,-0.0104,0,-0.0018276,0,0,0,0.054317,0.011834,0.019845,-0.9482,0.028666,0.039098,2.6404e-06,0.11,0.61,0
0.0050199,1.1345e-05,0.054524,0.011204,0.019718,-0.00081169,0,0,0.045247,-0.011069,0,-0.0021104,0,0,0,0.054539,0.011189,0.019718,-1.0731,0.028482,0.039778,2.7381e-06,0.12,0.61,0
0.0054746,-1.0399e-05,0.054729,0.010596,0.019597,-0.00090383,0,0,0.045671,-0.011702,0,-0.0023499,0,0,0,0.054747,0.010577,0.019597,-1.1727,0.028307,0.040422,2.831e-06,0.13,0.61,0
0.0059334,-3.4831e-05,0.054921,0.010018,0.019482,-0.00097954,0,0,0.046071,-0.012302,0,-0.0025468,0,0,0,0.054943,0.0099971,0.019482,-1.2491,0.028141,0.041034,2.9194e-06,0.14,0.61,0
0.006396,-6.1645e-05,0.055103,0.0094699,0.019372,-0.0010394,0,0,0.046451,-0.012873,0,-0.0027025,0,0,0,0.055127,0.0094463,0.019372,-1.3042,0.027982,0.041615,3.0037e-06,0.15,0.61,0
0.0068624,-9.0538e-05,0.055276,0.0089479,0.019267,-0.0010844,0,0,0.046811,-0.013415,0,-0.0028195,0,0,0,0.055301,0.0089226,0.019267,-1.3402,0.02783,0.042169,3.0839e-06,0.16,0.61,0
0.0073323,-0.00012121,0.055439,0.0084507,0.019167,-0.0011156,0,0,0.047154,-0.013931,0,-0.0029005,0,0,0,0.055466,0.0084242,0.019167,-1.3593,0.027686,0.042696,3.1605e-06,0.17,0.61,0
0.0078055,-0.00015339,0.055595,0.0079766,0.019071,-0.0011341,0,0,0.04748,-0.014423,0,-0.0029487,0,0,0,0.055622,0.0079496,0.019071,-1.3636,0.027548,0.043199,3.2335e-06,0.18,0.61,0
0.0082819,-0.00018681,0.055742,0.0075244,0.01898,-0.0011412,0,0,0.047791,-0.014892,0,-0.0029671,0,0,0,0.055769,0.0074974,0.01898,-1.3551,0.027415,0.043678,3.3031e-06,0.19,0.61,0
0.0087613,-0.00022122,0.055882,0.0070929,0.018892,-0.0011381,0,0,0.048086,-0.015339,0,-0.002959,0,0,0,0.055908,0.0070664,0.018892,-1.3356,0.027289,0.044134,3.3695e-06,0.2,0.61,0
0.0092436,-0.00025638,0.056015,0.0066813,0.018809,-0.001126,0,0,0.048368,-0.015766,0,-0.0029275,0,0,0,0.05604,0.0066556,0.018809,-1.3068,0.027168,0.044569,3.4327e-06,0.21,0.61,0
0.0097286,-0.00029208,0.05614,0.0062885,0.018728,-0.0011059,0,0,0.048635,-0.016172,0,-0.0028754,0,0,0,0.056164,0.006264,0.018728,-1.2703,0.027052,0.044983,3.4928e-06,0.22,0.61,0
0.010216,-0.00032814,0.056258,0.0059139,0.018652,-0.0010791,0,0,0.048889,-0.016559,0,-0.0028057,0,0,0,0.056281,0.0058908,0.018652,-1.2273,0.026941,0.045377,3.5499e-06,0.23,0.61,0
0.010706,-0.00036436,0.05637,0.0055566,0.018578,-0.0010465,0,0,0.049129,-0.016928,0,-0.0027208,0,0,0,0.056391,0.0055351,0.018578,-1.1793,0.026835,0.045751,3.6041e-06,0.24,0.61,0
0.011199,-0.0004006,0.056475,0.0052161,0.018507,-0.001009,0,0,0.049358,-0.017278,0,-0.0026233,0,0,0,0.056494,0.0051963,0.018507,-1.1272,0.026733,0.046107,3.6555e-06,0.25,0.61,0
0.011694,-0.00043671,0.056573,0.0048917,0.018439,-0.00096746,0,0,0.049573,-0.017612,0,-0.0025154,0,0,0,0.056591,0.0048736,0.018439,-1.0721,0.026635,0.046445,3.7041e-06,0.26,0.61,0
0.01219,-0.00047255,0.056664,0.0045828,0.018374,-0.00092275,0,0,0.049777,-0.017929,0,-0.0023992,0,0,0,0.056681,0.0045664,0.018374,-1.0147,0.026541,0.046765,3.7501e-06,0.27,0.61,0
0.012689,-0.00050802,0.05675,0.0042888,0.018312,-0.00087555,0,0,0.04997,-0.01823,0,-0.0022764,0,0,0,0.056765,0.0042742,0.018312,-0.95588,0.02645,0.047069,3.7935e-06,0.28,0.61,0
0.01319,-0.00054302,0.056829,0.0040092,0.018252,-0.00082651,0,0,0.050151,-0.018515,0,-0.0021489,0,0,0,0.056842,0.0039963,0.018252,-0.89625,0.026363,0.047356,3.8343e-06,0.29,0.61,0
0.013692,-0.00057745,0.056903,0.0037435,0.018194,-0.00077621,0,0,0.050321,-0.018785,0,-0.0020181,0,0,0,0.056914,0.0037322,0.018194,-0.83638,0.02628,0.047627,3.8726e-06,0.3,0.61,0
0.014196,-0.00061125,0.05697,0.0034911,0.018138,-0.00072519,0,0,0.050481,-0.019041,0,-0.0018855,0,0,0,0.05698,0.0034812,0.018138,-0.77675,0.0262,0.047883,3.9086e-06,0.31,0.61,0
0.014702,-0.00064435,0.057032,0.0032515,0.018085,-0.00067389,0,0,0.050631,-0.019284,0,-0.0017521,0,0,0,0.057041,0.003243,0.018085,-0.71779,0.026123,0.048125,3.9424e-06,0.32,0.61,0
0.015209,-0.0006767,0.057089,0.0030242,0.018034,-0.00062273,0,0,0.050771,-0.019513,0,-0.0016191,0,0,0,0.057096,0.003017,0.018034,-0.65984,0.026049,0.048352,3.9739e-06,0.33,0.61,0
0.015717,-0.00070824,0.05714,0.0028087,0.017985,-0.00057207,0,0,0.050902,-0.019729,0,-0.0014874,0,0,0,0.057146,0.0028026,0.017985,-0.6032,0.025978,0.048566,4.0032e-06,0.34,0.61,0
0.016227,-0.00073895,0.057186,0.0026045,0.017937,-0.00052222,0,0,0.051024,-0.019933,0,-0.0013578,0,0,0,0.057191,0.0025995,0.017937,-0.54812,0.025909,0.048767,4.0306e-06,0.35,0.61,0
0.016738,-0.0007688,0.057228,0.0024112,0.017892,-0.00047343,0,0,0.051137,-0.020125,0,-0.0012309,0,0,0,0.057232,0.0024071,0.017892,-0.49479,0.025844,0.048955,4.056e-06,0.36,0.61,0
0.01725,-0.00079776,0.057265,0.0022282,0.017848,-0.00042593,0,0,0.051242,-0.020306,0,-0.0011074,0,0,0,0.057268,0.0022249,0.017848,-0.44337,0.025781,0.049132,4.0795e-06,0.37,0.61,0
0.017763,-0.00082582,0.057298,0.0020553,0.017806,-0.0003799,0,0,0.05134,-0.020476,0,-0.00098775,0,0,0,0.0573,0.0020527,0.017806,-0.394,0.02572,0.049297,4.1012e-06,0.38,0.61,0
0.018276,-0.00085298,0.057327,0.0018918,0.017766,-0.00033551,0,0,0.051429,-0.020636,0,-0.00087232,0,0,0,0.057329,0.0018898,0.017766,-0.34675,0.025661,0.049451,4.1212e-06,0.39,0.61,0
0.018791,-0.00087922,0.057351,0.0017374,0.017727,-0.00029286,0,0,0.051512,-0.020786,0,-0.00076145,0,0,0,0.057353,0.0017359,0.017727,-0.30171,0.025605,0.049594,4.1396e-06,0.4,0.61,0
0.019307,-0.00090454,0.057373,0.0015917,0.017689,-0.00025207,0,0,0.051588,-0.020927,0,-0.00065537,0,0,0,0.057374,0.0015906,0.017689,-0.2589,0.025551,0.049728,4.1564e-06,0.41,0.61,0
0.019823,-0.00092896,0.05739,0.0014543,0.017653,-0.00021318,0,0,0.051658,-0.021059,0,-0.00055428,0,0,0,0.057391,0.0014535,0.017653,-0.21836,0.025499,0.049853,4.1718e-06,0.42,0.61,0
0.02034,-0.00095248,0.057405,0.0013248,0.017619,-0.00017627,0,0,0.051722,-0.021182,0,-0.00045829,0,0,0,0.057405,0.0013242,0.017619,-0.18008,0.025449,0.049968,4.1858e-06,0.43,0.61,0
0.020857,-0.0009751,0.057416,0.0012028,0.017586,-0.00014134,0,0,0.05178,-0.021298,0,-0.00036749,0,0,0,0.057417,0.0012024,0.017586,-0.14406,0.025402,0.050075,4.1985e-06,0.44,0.61,0
0.021375,-0.00099684,0.057425,0.0010879,0.017554,-0.00010843,0,0,0.051832,-0.021406,0,-0.00028191,0,0,0,0.057425,0.0010877,0.017554,-0.11027,0.025355,0.050174,4.2099e-06,0.45,0.61,0
0.021894,-0.0010177,0.057431,0.00097979,0.017523,-7.7511e-05,0,0,0.05188,-0.021506,0,-0.00020153,0,0,0,0.057431,0.00097968,0.017523,-0.078671,0.025311,0.050265,4.2202e-06,0.46,0.61,0
0.022413,-0.0010378,0.057434,0.00087818,0.017494,-4.8584e-05,0,0,0.051923,-0.0216,0,-0.00012632,0,0,0,0.057434,0.00087814,0.017494,-0.04922,0.025269,0.050348,4.2294e-06,0.47,0.61,0
0.022932,-0.001057,0.057436,0.00078271,0.017465,-2.1619e-05,0,0,0.051961,-0.021688,0,-5.6209e-05,0,0,0,0.057436,0.0007827,0.017465,-0.021864,0.025228,0.050425,4.2375e-06,0.48,0.61,0
0.023452,-0.0010753,0.057435,0.00069307,0.017438,3.4209e-06,0,0,0.051995,-0.021769,0,8.8943e-06,0,0,0,0.057435,0.00069307,0.017438,0.0034543,0.025189,0.050496,4.2447e-06,0.49,0.61,0
0.023972,-0.001093,0.057432,0.00060897,0.017412,2.6579e-05,0,0,0.052025,-0.021844,0,6.9106e-05,0,0,0,0.057432,0.00060895,0.017412,0.0268,0.025151,0.050561,4.251e-06,0.5,0.61,0
0.024493,-0.0011098,0.057427,0.00053011,0.017387,4.7906e-05,0,0,0.052052,-0.021914,0,0.00012455,0,0,0,0.057427,0.00053007,0.017387,0.048241,0.025115,0.050619,4.2564e-06,0.51,0.61,0
0.025013,-0.0011259,0.057421,0.00045623,0.017363,6.7457e-05,0,0,0.052075,-0.021979,0,0.00017539,0,0,0,0.057421,0.00045615,0.017363,0.067849,0.02508,0.050673,4.261e-06,0.52,0.61,0
0.025534,-0.0011413,0.057413,0.00038706,0.01734,8.5292e-05,0,0,0.052095,-0.022039,0,0.00022176,0,0,0,0.057413,0.00038693,0.01734,0.085695,0.025047,0.050721,4.2649e-06,0.53,0.61,0
0.026055,-0.0011559,0.057404,0.00032235,0.017318,0.00010147,0,0,0.052112,-0.022094,0,0.00026383,0,0,0,0.057404,0.00032217,0.017318,0.10185,0.025015,0.050765,4.2681e-06,0.54,0.61,0
0.026576,-0.0011699,0.057393,0.00026186,0.017297,0.00011607,0,0,0.052126,-0.022145,0,0.00030178,0,0,0,0.057394,0.00026162,0.017297,0.1164,0.024984,0.050804,4.2707e-06,0.55,0.61,0
0.027098,-0.0011833,0.057382,0.00020535,0.017276,0.00012914,0,0,0.052138,-0.022192,0,0.00033577,0,0,0,0.057382,0.00020506,0.017276,0.12941,0.024955,0.050839,4.2727e-06,0.56,0.61,0
0.027619,-0.001196,0.057369,0.00015262,0.017257,0.00014076,0,0,0.052147,-0.022235,0,0.00036599,0,0,0,0.05737,0.00015227,0.017257,0.14096,0.024926,0.05087,4.2742e-06,0.57,0.61,0
0.028141,-0.0012081,0.057356,0.00010345,0.017238,0.000151,0,0,0.052154,-0.022275,0,0.00039261,0,0,0,0.057357,0.00010305,0.017238,0.15112,0.024899,0.050897,4.2752e-06,0.58,0.61,0
0.028662,-0.0012197,0.057342,5.7634e-05,0.01722,0.00015993,0,0,0.052159,-0.022311,0,0.00041581,0,0,0,0.057342,5.7188e-05,0.01722,0.15996,0.024873,0.050922,4.2757e-06,0.59,0.61,0
0.029184,-0.0012306,0.057327,1.499e-05,0.017203,0.0001676,0,0,0.052162,-0.022344,0,0.00043577,0,0,0,0.057328,1.45e-05,0.017203,0.16755,0.024848,0.050943,4.2759e-06,0.6,0.61,0
0.029705,-0.0012411,0.057312,-2.4668e-05,0.017186,0.0001741,0,0,0.052164,-0.022374,0,0.00045265,0,0,0,0.057313,-2.5197e-05,0.017186,0.17397,0.024824,0.050961,4.2756e-06,0.61,0.61,0
0.030227,-0.001251,0.057296,-6.1514e-05,0.01717,0.00017948,0,0,0.052164,-0.022402,0,0.00046664,0,0,0,0.057297,-6.2075e-05,0.01717,0.17928,0.024802,0.050976,4.275e-06,0.62,0.61,0
0.030749,-0.0012604,0.05728,-9.5712e-05,0.017155,0.0001838,0,0,0.052162,-0.022426,0,0.00047789,0,0,0,0.057281,-9.6301e-05,0.017155,0.18354,0.02478,0.050989,4.2742e-06,0.63,0.61,0
0.03127,-0.0012694,0.057264,-0.00012742,0.017141,0.00018714,0,0,0.052159,-0.022449,0,0.00048657,0,0,0,0.057264,-0.00012803,0.017141,0.18683,0.024759,0.051,4.273e-06,0.64,0.61,0
0.031792,-0.0012778,0.057247,-0.00015679,0.017127,0.00018955,0,0,0.052156,-0.022469,0,0.00049283,0,0,0,0.057247,-0.00015741,0.017127,0.18919,0.024739,0.051008,4.2716e-06,0.65,0.61,0
0.032314,-0.0012859,0.05723,-0.00018396,0.017114,0.00019109,0,0,0.052151,-0.022487,0,0.00049683,0,0,0,0.057231,-0.0001846,0.017114,0.19069,0.02472,0.051015,4.27e-06,0.66,0.61,0
0.032835,-0.0012935,0.057213,-0.00020907,0.017101,0.00019181,0,0,0.052145,-0.022503,0,0.00049871,0,0,0,0.057214,-0.00020971,0.017101,0.19139,0.024702,0.05102,4.2682e-06,0.67,0.61,0
0.033356,-0.0013007,0.057196,-0.00023225,0.017089,0.00019178,0,0,0.052139,-0.022518,0,0.00049862,0,0,0,0.057197,-0.00023289,0.017089,0.19133,0.024684,0.051024,4.2662e-06,0.68,0.61,0
0.033878,-0.0013076,0.057179,-0.00025362,0.017078,0.00019103,0,0,0.052132,-0.022531,0,0.00049668,0,0,0,0.05718,-0.00025425,0.017078,0.19057,0.024668,0.051026,4.2641e-06,0.69,0.61,0
0.034399,-0.001314,0.057162,-0.00027329,0.017067,0.00018962,0,0,0.052124,-0.022542,0,0.00049302,0,0,0,0.057163,-0.00027392,0.017067,0.18916,0.024652,0.051026,4.2619e-06,0.7,0.61,0
0.03492,-0.0013201,0.057145,-0.00029138,0.017056,0.0001876,0,0,0.052116,-0.022552,0,0.00048777,0,0,0,0.057146,-0.00029199,0.017056,0.18714,0.024637,0.051026,4.2596e-06,0.71,0.61,0
0.035441,-0.0013259,0.057129,-0.00030799,0.017046,0.00018501,0,0,0.052107,-0.022561,0,0.00048103,0,0,0,0.057129,-0.00030859,0.017046,0.18456,0.024622,0.051025,4.2572e-06,0.72,0.61,0
0.035962,-0.0013314,0.057113,-0.00032323,0.017037,0.0001819,0,0,0.052099,-0.022568,0,0.00047293,0,0,0,0.057113,-0.0003238,0.017037,0.18145,0.024609,0.051022,4.2548e-06,0.73,0.61,0
0.036483,-0.0013365,0.057097,-0.00033718,0.017028,0.00017829,0,0,0.052089,-0.022575,0,0.00046357,0,0,0,0.057097,-0.00033773,0.017028,0.17786,0.024596,0.051019,4.2523e-06,0.74,0.61,0
0.037004,-0.0013414,0.057081,-0.00034993,0.017019,0.00017424,0,0,0.05208,-0.02258,0,0.00045303,0,0,0,0.057082,-0.00035046,0.017019,0.17383,0.024584,0.051015,4.2498e-06,0.75,0.61,0
0.037525,-0.0013459,0.057066,-0.00036157,0.017011,0.00016978,0,0,0.052071,-0.022585,0,0.00044142,0,0,0,0.057066,-0.00036207,0.017011,0.16939,0.024572,0.051011,4.2473e-06,0.76,0.61,0
0.038046,-0.0013502,0.057051,-0.00037218,0.017004,0.00016493,0,0,0.052061,-0.022589,0,0.00042882,0,0,0,0.057051,-0.00037265,0.017004,0.16456,0.024561,0.051006,4.2448e-06,0.77,0.61,0
0.038566,-0.0013543,0.057036,-0.00038183,0.016996,0.00015973,0,0,0.052052,-0.022592,0,0.00041531,0,0,0,0.057037,-0.00038228,0.016996,0.15939,0.02455,0.051001,4.2423e-06,0.78,0.61,0
0.039087,-0.001358,0.057022,-0.00039059,0.01699,0.00015422,0,0,0.052043,-0.022594,0,0.00040097,0,0,0,0.057023,-0.00039101,0.01699,0.1539,0.02454,0.050995,4.2398e-06,0.79,0.61,0
0.039607,-0.0013616,0.057009,-0.00039854,0.016983,0.00014841,0,0,0.052033,-0.022596,0,0.00038587,0,0,0,0.057009,-0.00039892,0.016983,0.14812,0.024531,0.05099,4.2375e-06,0.8,0.61,0
0.040127,-0.0013649,0.056996,-0.00040572,0.016977,0.00014234,0,0,0.052024,-0.022597,0,0.00037008,0,0,0,0.056996,-0.00040608,0.016977,0.14207,0.024522,0.050984,4.2351e-06,0.81,0.61,0
0.040648,-0.001368,0.056983,-0.00041221,0.016971,0.00013602,0,0,0.052015,-0.022599,0,0.00035365,0,0,0,0.056983,-0.00041253,0.016971,0.13578,0.024514,0.050978,4.2328e-06,0.82,0.61,0
0.041168,-0.0013709,0.056971,-0.00041805,0.016966,0.00012948,0,0,0.052007,-0.022599,0,0.00033665,0,0,0,0.056972,-0.00041834,0.016966,0.12927,0.024506,0.050972,4.2306e-06,0.83,0.61,0
0.041688,-0.0013735,0.05696,-0.0004233,0.016961,0.00012274,0,0,0.051999,-0.0226,0,0.00031913,0,0,0,0.05696,-0.00042356,0.016961,0.12256,0.024499,0.050966,4.2285e-06,0.84,0.61,0
0.042208,-0.001376,0.056949,-0.000428,0.016956,0.00011582,0,0,0.051991,-0.0226,0,0.00030115,0,0,0,0.056949,-0.00042823,0.016956,0.11566,0.024493,0.05096,4.2265e-06,0.85,0.61,0
0.042727,-0.0013783,0.056939,-0.00043219,0.016952,0.00010874,0,0,0.051983,-0.0226,0,0.00028273,0,0,0,0.056939,-0.0004324,0.016952,0.1086,0.024486,0.050954,4.2245e-06,0.86,0.61,0
0.043247,-0.0013804,0.05693,-0.00043593,0.016948,0.00010152,0,0,0.051976,-0.022599,0,0.00026394,0,0,0,0.05693,-0.00043611,0.016948,0.10139,0.024481,0.050949,4.2227e-06,0.87,0.61,0
0.043767,-0.0013823,0.056921,-0.00043925,0.016945,9.4158e-05,0,0,0.051969,-0.022599,0,0.00024481,0,0,0,0.056921,-0.0004394,0.016945,0.094052,0.024475,0.050944,4.221e-06,0.88,0.61,0
0.044287,-0.001384,0.056913,-0.00044217,0.016941,8.6683e-05,0,0,0.051963,-0.022598,0,0.00022537,0,0,0,0.056913,-0.0004423,0.016941,0.086593,0.02447,0.050939,4.2194e-06,0.89,0.61,0
0.044806,-0.0013856,0.056905,-0.00044474,0.016938,7.9104e-05,0,0,0.051957,-0.022598,0,0.00020567,0,0,0,0.056905,-0.00044485,0.016938,0.07903,0.024466,0.050934,4.2179e-06,0.9,0.61,0
0.045326,-0.001387,0.056898,-0.00044698,0.016935,7.1435e-05,0,0,0.051952,-0.022597,0,0.00018573,0,0,0,0.056898,-0.00044706,0.016935,0.071373,0.024462,0.05093,4.2166e-06,0.91,0.61,0
0.045845,-0.0013883,0.056892,-0.00044891,0.016933,6.3686e-05,0,0,0.051947,-0.022596,0,0.00016558,0,0,0,0.056892,-0.00044898,0.016933,0.063636,0.024459,0.050926,4.2154e-06,0.92,0.61,0
0.046365,-0.0013894,0.056887,-0.00045056,0.016931,5.5868e-05,0,0,0.051943,-0.022596,0,0.00014526,0,0,0,0.056887,-0.00045062,0.016931,0.055828,0.024456,0.050922,4.2143e-06,0.93,0.61,0
0.046884,-0.0013903,0.056882,-0.00045196,0.016929,4.7992e-05,0,0,0.051939,-0.022595,0,0.00012478,0,0,0,0.056882,-0.000452,0.016929,0.04796,0.024453,0.050919,4.2134e-06,0.94,0.61,0
0.047404,-0.0013911,0.056878,-0.00045311,0.016928,4.0066e-05,0,0,0.051936,-0.022595,0,0.00010417,0,0,0,0.056878,-0.00045314,0.016928,0.040042,0.024451,0.050917,4.2126e-06,0.95,0.61,0
0.047923,-0.0013918,0.056875,-0.00045403,0.016926,3.21e-05,0,0,0.051933,-0.022594,0,8.346e-05,0,0,0,0.056875,-0.00045405,0.016926,0.032082,0.024449,0.050914,4.2119e-06,0.96,0.61,0
0.048442,-0.0013923,0.056872,-0.00045474,0.016925,2.4102e-05,0,0,0.051931,-0.022594,0,6.2666e-05,0,0,0,0.056872,-0.00045475,0.016925,0.024089,0.024448,0.050913,4.2114e-06,0.97,0.61,0
0.048961,-0.0013926,0.05687,-0.00045523,0.016924,1.6081e-05,0,0,0.05193,-0.022594,0,4.1811e-05,0,0,0,0.05687,-0.00045524,0.016924,0.016073,0.024446,0.050911,4.211e-06,0.98,0.61,0
0.049481,-0.0013929,0.056869,-0.00045553,0.016924,8.0445e-06,0,0,0.051929,-0.022593,0,2.0916e-05,0,0,0,0.056869,-0.00045553,0.016924,0.0080404,0.024446,0.050911,4.2108e-06,0.99,0.61,0
0.05,-0.0013929,0.056869,-0.00045563,0.016924,-2.7439e-06,0,0,0.051928,-0.022593,0,-7.1341e-06,0,0,0,0.056869,-0.00045563,0.016924,-0.0027425,0.024446,0.05091,4.2107e-06,1,0.61,0
0,0,0.051162,0.021926,0.021926,0.00027139,0,0,0.038006,2.7105e-19,0,0.00070561,0,0,0,0.051164,0.021924,0.021926,0.53181,0.031671,0.029239,1.2838e-06,0,0.62,0
0.00038006,7.0561e-06,0.051052,0.020667,0.021516,0.00025274,0,0,0.038397,-0.0011029,0,0.00065713,0,0,0,0.051054,0.020665,0.021516,0.47655,0.031078,0.029972,1.3791e-06,0.01,0.62,0
0.00076794,1.2342e-05,0.051466,0.019645,0.021333,0.00018297,0,0,0.039172,-0.0021947,0,0.00047571,0,0,0,0.051467,0.019644,0.021333,0.32943,0.030815,0.031013,1.5166e-06,0.02,0.62,0
0.0011635,1.5378e-05,0.051869,0.018642,0.021153,8.8841e-05,0,0,0.03993,-0.0032646,0,0.00023099,0,0,0,0.051869,0.018642,0.021153,0.15319,0.030555,0.032045,1.6552e-06,0.03,0.62,0
0.0015665,1.5735e-05,0.052256,0.017667,0.020977,-2.5476e-05,0,0,0.040663,-0.0043028,0,-6.6238e-05,0,0,0,0.052256,0.017667,0.020977,-0.0422,0.0303,0.033058,1.793e-06,0.04,0.62,0
0.0019768,1.3066e-05,0.052624,0.016727,0.020805,-0.00015458,0,0,0.041364,-0.0053016,0,-0.00040191,0,0,0,0.052624,0.016726,0.020805,-0.24672,0.030052,0.034042,1.9285e-06,0.05,0.62,0
0.0023938,7.1219e-06,0.05297,0.015827,0.020639,-0.00029247,0,0,0.04203,-0.006256,0,-0.00076043,0,0,0,0.052972,0.015824,0.020639,-0.45112,0.029812,0.03499,2.0604e-06,0.06,0.62,0
0.0028174,-2.2429e-06,0.053294,0.014969,0.020479,-0.00043322,0,0,0.04266,-0.0071631,0,-0.0011264,0,0,0,0.053299,0.014964,0.020479,-0.64755,0.02958,0.035896,2.1878e-06,0.07,0.62,0
0.003247,-1.5072e-05,0.053595,0.014153,0.020325,-0.00057146,0,0,0.043252,-0.0080224,0,-0.0014858,0,0,0,0.053603,0.014145,0.020325,-0.8299,0.029358,0.03676,2.3101e-06,0.08,0.62,0
0.0036824,-3.132e-05,0.053875,0.013381,0.020177,-0.00070274,0,0,0.043808,-0.008835,0,-0.0018271,0,0,0,0.053888,0.013369,0.020177,-0.9939,0.029144,0.03758,2.4271e-06,0.09,0.62,0
0.0041232,-5.0861e-05,0.054136,0.012648,0.020035,-0.00082365,0,0,0.044331,-0.0096029,0,-0.0021415,0,0,0,0.054152,0.012632,0.020035,-1.1369,0.02894,0.038358,2.5385e-06,0.1,0.62,0
0.004569,-7.3514e-05,0.054378,0.011955,0.0199,-0.00093181,0,0,0.044822,-0.010329,0,-0.0024227,0,0,0,0.054399,0.011934,0.0199,-1.2577,0.028744,0.039095,2.6446e-06,0.11,0.62,0
0.0050196,-9.9052e-05,0.054604,0.011297,0.01977,-0.0010257,0,0,0.045284,-0.011016,0,-0.0026669,0,0,0,0.054629,0.011273,0.01977,-1.356,0.028557,0.039794,2.7455e-06,0.12,0.62,0
0.0054747,-0.00012722,0.054816,0.010673,0.019647,-0.0011047,0,0,0.04572,-0.011666,0,-0.0028723,0,0,0,0.054844,0.010645,0.019647,-1.4327,0.028378,0.040456,2.8414e-06,0.13,0.62,0
0.005934,-0.00015774,0.055014,0.01008,0.019528,-0.0011687,0,0,0.046132,-0.012283,0,-0.0030386,0,0,0,0.055045,0.01005,0.019528,-1.4889,0.028207,0.041084,2.9325e-06,0.14,0.62,0
0.0063973,-0.00019033,0.0552,0.0095165,0.019415,-0.0012179,0,0,0.046521,-0.012868,0,-0.0031666,0,0,0,0.055233,0.0094841,0.019415,-1.5261,0.028044,0.04168,3.0191e-06,0.15,0.62,0
0.0068644,-0.00022472,0.055376,0.0089805,0.019307,-0.0012531,0,0,0.046889,-0.013424,0,-0.0032582,0,0,0,0.05541,0.0089467,0.019307,-1.5461,0.027888,0.042246,3.1015e-06,0.16,0.62,0
0.0073351,-0.00026062,0.055541,0.0084703,0.019203,-0.0012752,0,0,0.047239,-0.013953,0,-0.0033156,0,0,0,0.055575,0.0084358,0.019203,-1.5507,0.027738,0.042784,3.1797e-06,0.17,0.62,0
0.0078092,-0.00029778,0.055696,0.0079844,0.019104,-0.0012852,0,0,0.04757,-0.014456,0,-0.0033414,0,0,0,0.055731,0.0079498,0.019104,-1.5418,0.027595,0.043295,3.2541e-06,0.18,0.62,0
0.0082865,-0.00033593,0.055843,0.0075216,0.019009,-0.0012841,0,0,0.047884,-0.014934,0,-0.0033386,0,0,0,0.055877,0.0074875,0.019009,-1.5211,0.027458,0.043781,3.3247e-06,0.19,0.62,0
0.0087669,-0.00037485,0.055981,0.0070808,0.018919,-0.0012731,0,0,0.048181,-0.015389,0,-0.0033101,0,0,0,0.056014,0.0070476,0.018919,-1.4903,0.027327,0.044242,3.3916e-06,0.2,0.62,0
0.0092501,-0.0004143,0.056111,0.0066608,0.018832,-0.0012534,0,0,0.048463,-0.015822,0,-0.0032587,0,0,0,0.056143,0.0066291,0.018832,-1.451,0.027201,0.04468,3.4551e-06,0.21,0.62,0
0.0097362,-0.0004541,0.056233,0.0062609,0.018748,-0.0012259,0,0,0.048731,-0.016234,0,-0.0031874,0,0,0,0.056263,0.0062308,0.018748,-1.4045,0.027081,0.045096,3.5153e-06,0.22,0.62,0
0.010225,-0.00049404,0.056348,0.0058801,0.018668,-0.0011919,0,0,0.048983,-0.016625,0,-0.0030989,0,0,0,0.056376,0.0058519,0.018668,-1.3521,0.026965,0.045491,3.5723e-06,0.23,0.62,0
0.010716,-0.00053397,0.056455,0.0055176,0.018592,-0.0011522,0,0,0.049222,-0.016996,0,-0.0029958,0,0,0,0.056481,0.0054916,0.018592,-1.2952,0.026855,0.045865,3.6261e-06,0.24,0.62,0
0.011209,-0.00057373,0.056555,0.0051728,0.018518,-0.0011079,0,0,0.049447,-0.017349,0,-0.0028805,0,0,0,0.056579,0.005149,0.018518,-1.2346,0.026749,0.046219,3.6769e-06,0.25,0.62,0
0.011705,-0.00061317,0.056648,0.0048449,0.018448,-0.0010597,0,0,0.04966,-0.017684,0,-0.0027552,0,0,0,0.056669,0.0048233,0.018448,-1.1714,0.026647,0.046554,3.7247e-06,0.26,0.62,0
0.012202,-0.00065219,0.056734,0.0045333,0.01838,-0.0010085,0,0,0.04986,-0.018001,0,-0.0026221,0,0,0,0.056753,0.0045139,0.01838,-1.1064,0.026549,0.046871,3.7698e-06,0.27,0.62,0
0.012702,-0.00069067,0.056814,0.0042373,0.018315,-0.00095499,0,0,0.050048,-0.018301,0,-0.002483,0,0,0,0.056831,0.00422,0.018315,-1.0402,0.026455,0.04717,3.8121e-06,0.28,0.62,0
0.013203,-0.00072851,0.056888,0.0039564,0.018253,-0.00089984,0,0,0.050225,-0.018586,0,-0.0023396,0,0,0,0.056903,0.0039411,0.018253,-0.97366,0.026366,0.047453,3.8518e-06,0.29,0.62,0
0.013706,-0.00076564,0.056955,0.0036898,0.018193,-0.00084365,0,0,0.05039,-0.018855,0,-0.0021935,0,0,0,0.056968,0.0036764,0.018193,-0.90718,0.026279,0.047719,3.889e-06,0.3,0.62,0
0.014211,-0.00080199,0.057017,0.003437,0.018136,-0.00078693,0,0,0.050545,-0.019109,0,-0.002046,0,0,0,0.057028,0.0034254,0.018136,-0.84127,0.026197,0.04797,3.9238e-06,0.31,0.62,0
0.014717,-0.0008375,0.057073,0.0031975,0.018081,-0.00073017,0,0,0.050689,-0.019349,0,-0.0018985,0,0,0,0.057083,0.0031876,0.018081,-0.77634,0.026117,0.048206,3.9562e-06,0.32,0.62,0
0.015225,-0.00087212,0.057124,0.0029706,0.018028,-0.00067377,0,0,0.050824,-0.019575,0,-0.0017518,0,0,0,0.057132,0.0029622,0.018028,-0.71273,0.026041,0.048428,3.9864e-06,0.33,0.62,0
0.015734,-0.00090582,0.05717,0.0027559,0.017978,-0.0006181,0,0,0.05095,-0.019788,0,-0.0016071,0,0,0,0.057177,0.0027489,0.017978,-0.65072,0.025968,0.048636,4.0145e-06,0.34,0.62,0
0.016244,-0.00093855,0.057211,0.0025528,0.017929,-0.00056346,0,0,0.051066,-0.019989,0,-0.001465,0,0,0,0.057217,0.002547,0.017929,-0.59057,0.025898,0.048831,4.0406e-06,0.35,0.62,0
0.016755,-0.0009703,0.057247,0.0023608,0.017882,-0.00051011,0,0,0.051174,-0.020178,0,-0.0013263,0,0,0,0.057252,0.0023561,0.017882,-0.53244,0.02583,0.049013,4.0647e-06,0.36,0.62,0
0.017267,-0.0010011,0.057279,0.0021794,0.017838,-0.00045829,0,0,0.051274,-0.020356,0,-0.0011915,0,0,0,0.057283,0.0021756,0.017838,-0.47651,0.025765,0.049184,4.0869e-06,0.37,0.62,0
0.017781,-0.0010308,0.057307,0.0020081,0.017795,-0.00040816,0,0,0.051367,-0.020522,0,-0.0010612,0,0,0,0.05731,0.0020051,0.017795,-0.42287,0.025703,0.049343,4.1074e-06,0.38,0.62,0
0.018295,-0.0010596,0.057331,0.0018464,0.017753,-0.0003599,0,0,0.051451,-0.020679,0,-0.00093573,0,0,0,0.057334,0.0018441,0.017753,-0.37162,0.025644,0.049492,4.1262e-06,0.39,0.62,0
0.01881,-0.0010873,0.057352,0.001694,0.017714,-0.0003136,0,0,0.051529,-0.020826,0,-0.00081536,0,0,0,0.057354,0.0016922,0.017714,-0.32282,0.025587,0.04963,4.1434e-06,0.4,0.62,0
0.019325,-0.001114,0.057369,0.0015503,0.017676,-0.00026937,0,0,0.051601,-0.020963,0,-0.00070035,0,0,0,0.05737,0.001549,0.017676,-0.27649,0.025532,0.049758,4.1591e-06,0.41,0.62,0
0.019842,-0.0011397,0.057383,0.0014149,0.017639,-0.00022726,0,0,0.051666,-0.021092,0,-0.00059088,0,0,0,0.057384,0.001414,0.017639,-0.23265,0.025479,0.049877,4.1735e-06,0.42,0.62,0
0.020359,-0.0011644,0.057393,0.0012875,0.017604,-0.00018732,0,0,0.051726,-0.021212,0,-0.00048704,0,0,0,0.057394,0.0012868,0.017604,-0.19129,0.025428,0.049987,4.1864e-06,0.43,0.62,0
0.020876,-0.0011882,0.057401,0.0011675,0.017571,-0.00014958,0,0,0.05178,-0.021324,0,-0.00038891,0,0,0,0.057402,0.0011672,0.017571,-0.1524,0.02538,0.05009,4.1981e-06,0.44,0.62,0
0.021394,-0.001211,0.057407,0.0010548,0.017538,-0.00011404,0,0,0.051829,-0.021429,0,-0.00029649,0,0,0,0.057407,0.0010545,0.017538,-0.11594,0.025333,0.050184,4.2087e-06,0.45,0.62,0
0.021913,-0.0012329,0.05741,0.00094878,0.017508,-8.0679e-05,0,0,0.051873,-0.021526,0,-0.00020977,0,0,0,0.05741,0.00094866,0.017508,-0.081872,0.025289,0.050271,4.2181e-06,0.46,0.62,0
0.022432,-0.0012538,0.057411,0.00084923,0.017478,-4.949e-05,0,0,0.051912,-0.021617,0,-0.00012867,0,0,0,0.057411,0.00084919,0.017478,-0.050133,0.025246,0.05035,4.2264e-06,0.47,0.62,0
0.022951,-0.0012739,0.057409,0.00075579,0.017449,-2.0435e-05,0,0,0.051948,-0.021702,0,-5.313e-05,0,0,0,0.057409,0.00075578,0.017449,-0.020666,0.025205,0.050424,4.2338e-06,0.48,0.62,0
0.023471,-0.0012931,0.057406,0.00066814,0.017422,6.5309e-06,0,0,0.051979,-0.02178,0,1.698e-05,0,0,0,0.057406,0.00066814,0.017422,0.0065951,0.025165,0.05049,4.2403e-06,0.49,0.62,0
0.023991,-0.0013114,0.057401,0.00058597,0.017396,3.1457e-05,0,0,0.052006,-0.021853,0,8.1788e-05,0,0,0,0.057401,0.00058595,0.017396,0.031723,0.025128,0.050551,4.2459e-06,0.5,0.62,0
0.024511,-0.001329,0.057394,0.00050899,0.017371,5.4401e-05,0,0,0.05203,-0.021921,0,0.00014144,0,0,0,0.057394,0.00050893,0.017371,0.054793,0.025091,0.050607,4.2508e-06,0.51,0.62,0
0.025031,-0.0013457,0.057386,0.00043692,0.017347,7.5425e-05,0,0,0.052051,-0.021983,0,0.0001961,0,0,0,0.057386,0.00043682,0.017347,0.075884,0.025057,0.050657,4.2549e-06,0.52,0.62,0
0.025552,-0.0013617,0.057377,0.0003695,0.017324,9.4596e-05,0,0,0.052069,-0.022041,0,0.00024595,0,0,0,0.057377,0.00036934,0.017324,0.095074,0.025023,0.050703,4.2583e-06,0.53,0.62,0
0.026073,-0.0013769,0.057366,0.00030647,0.017302,0.00011198,0,0,0.052084,-0.022094,0,0.00029116,0,0,0,0.057367,0.00030625,0.017302,0.11245,0.024991,0.050744,4.261e-06,0.54,0.62,0
0.026593,-0.0013914,0.057355,0.00024759,0.017281,0.00012766,0,0,0.052096,-0.022143,0,0.00033192,0,0,0,0.057355,0.0002473,0.017281,0.12808,0.024961,0.050781,4.2632e-06,0.55,0.62,0
0.027114,-0.0014052,0.057342,0.00019263,0.01726,0.0001417,0,0,0.052106,-0.022188,0,0.00036842,0,0,0,0.057342,0.00019227,0.01726,0.14206,0.024932,0.050813,4.2649e-06,0.56,0.62,0
0.027636,-0.0014183,0.057329,0.00014136,0.017241,0.00015417,0,0,0.052114,-0.022229,0,0.00040085,0,0,0,0.057329,0.00014095,0.017241,0.15446,0.024904,0.050843,4.266e-06,0.57,0.62,0
0.028157,-0.0014308,0.057314,9.3586e-05,0.017222,0.00016516,0,0,0.05212,-0.022267,0,0.00042941,0,0,0,0.057315,9.3109e-05,0.017222,0.16537,0.024877,0.050868,4.2667e-06,0.58,0.62,0
0.028678,-0.0014427,0.0573,4.91e-05,0.017205,0.00017473,0,0,0.052124,-0.022302,0,0.00045429,0,0,0,0.0573,4.8567e-05,0.017205,0.17486,0.024851,0.050891,4.267e-06,0.59,0.62,0
0.029199,-0.001454,0.057284,7.7124e-06,0.017188,0.00018295,0,0,0.052126,-0.022334,0,0.00047568,0,0,0,0.057285,7.128e-06,0.017188,0.18301,0.024827,0.05091,4.2669e-06,0.6,0.62,0
0.029721,-0.0014648,0.057269,-3.0757e-05,0.017171,0.00018991,0,0,0.052126,-0.022363,0,0.00049377,0,0,0,0.057269,-3.1387e-05,0.017171,0.1899,0.024803,0.050927,4.2664e-06,0.61,0.62,0
0.030242,-0.0014749,0.057252,-6.6482e-05,0.017156,0.00019567,0,0,0.052126,-0.022389,0,0.00050874,0,0,0,0.057253,-6.7149e-05,0.017156,0.19559,0.024781,0.050941,4.2657e-06,0.62,0.62,0
0.030763,-0.0014846,0.057236,-9.9624e-05,0.017141,0.00020029,0,0,0.052124,-0.022413,0,0.00052076,0,0,0,0.057237,-0.00010032,0.017141,0.20015,0.024759,0.050953,4.2647e-06,0.63,0.62,0
0.031284,-0.0014938,0.057219,-0.00013034,0.017127,0.00020386,0,0,0.05212,-0.022434,0,0.00053002,0,0,0,0.05722,-0.00013106,0.017127,0.20366,0.024739,0.050963,4.2634e-06,0.64,0.62,0
0.031805,-0.0015025,0.057203,-0.00015878,0.017113,0.00020642,0,0,0.052116,-0.022453,0,0.00053668,0,0,0,0.057203,-0.00015952,0.017113,0.20618,0.024719,0.050971,4.2619e-06,0.65,0.62,0
0.032327,-0.0015107,0.057186,-0.00018508,0.0171,0.00020804,0,0,0.052111,-0.022471,0,0.00054091,0,0,0,0.057186,-0.00018583,0.0171,0.20777,0.0247,0.050977,4.2602e-06,0.66,0.62,0
0.032848,-0.0015185,0.057169,-0.00020937,0.017088,0.00020879,0,0,0.052105,-0.022486,0,0.00054285,0,0,0,0.057169,-0.00021013,0.017088,0.20849,0.024682,0.050981,4.2583e-06,0.67,0.62,0
0.033369,-0.0015258,0.057152,-0.00023179,0.017076,0.00020872,0,0,0.052098,-0.0225,0,0.00054267,0,0,0,0.057153,-0.00023255,0.017076,0.20839,0.024665,0.050984,4.2563e-06,0.68,0.62,0
0.03389,-0.0015328,0.057135,-0.00025245,0.017065,0.00020788,0,0,0.052091,-0.022512,0,0.00054049,0,0,0,0.057136,-0.0002532,0.017065,0.20755,0.024649,0.050986,4.2542e-06,0.69,0.62,0
0.03441,-0.0015394,0.057118,-0.00027146,0.017054,0.00020633,0,0,0.052083,-0.022523,0,0.00053647,0,0,0,0.057119,-0.0002722,0.017054,0.20599,0.024634,0.050986,4.252e-06,0.7,0.62,0
0.034931,-0.0015456,0.057102,-0.00028894,0.017044,0.00020412,0,0,0.052075,-0.022533,0,0.00053072,0,0,0,0.057103,-0.00028967,0.017044,0.20378,0.024619,0.050985,4.2497e-06,0.71,0.62,0
0.035452,-0.0015514,0.057085,-0.00030499,0.017034,0.0002013,0,0,0.052067,-0.022541,0,0.00052338,0,0,0,0.057086,-0.00030569,0.017034,0.20096,0.024605,0.050984,4.2473e-06,0.72,0.62,0
0.035973,-0.001557,0.05707,-0.0003197,0.017025,0.00019791,0,0,0.052058,-0.022548,0,0.00051456,0,0,0,0.05707,-0.00032038,0.017025,0.19758,0.024592,0.050981,4.2449e-06,0.73,0.62,0
0.036493,-0.0015622,0.057054,-0.00033316,0.017016,0.00019399,0,0,0.052049,-0.022554,0,0.00050437,0,0,0,0.057055,-0.00033382,0.017016,0.19368,0.024579,0.050978,4.2425e-06,0.74,0.62,0
0.037014,-0.0015671,0.057038,-0.00034547,0.017008,0.00018958,0,0,0.05204,-0.022559,0,0.00049291,0,0,0,0.057039,-0.00034609,0.017008,0.18929,0.024567,0.050974,4.24e-06,0.75,0.62,0
0.037534,-0.0015717,0.057023,-0.0003567,0.017,0.00018473,0,0,0.052031,-0.022564,0,0.00048029,0,0,0,0.057024,-0.00035729,0.017,0.18445,0.024556,0.05097,4.2375e-06,0.76,0.62,0
0.038054,-0.001576,0.057009,-0.00036693,0.016993,0.00017946,0,0,0.052021,-0.022567,0,0.0004666,0,0,0,0.057009,-0.00036749,0.016993,0.17921,0.024545,0.050965,4.2351e-06,0.77,0.62,0
0.038574,-0.0015801,0.056995,-0.00037623,0.016986,0.00017382,0,0,0.052012,-0.02257,0,0.00045193,0,0,0,0.056995,-0.00037676,0.016986,0.17359,0.024535,0.05096,4.2327e-06,0.78,0.62,0
0.039094,-0.0015839,0.056981,-0.00038468,0.016979,0.00016783,0,0,0.052003,-0.022573,0,0.00043635,0,0,0,0.056982,-0.00038517,0.016979,0.16762,0.024525,0.050954,4.2303e-06,0.79,0.62,0
0.039614,-0.0015874,0.056968,-0.00039233,0.016973,0.00016151,0,0,0.051994,-0.022575,0,0.00041994,0,0,0,0.056968,-0.00039279,0.016973,0.16133,0.024516,0.050949,4.2279e-06,0.8,0.62,0
0.040134,-0.0015908,0.056955,-0.00039925,0.016967,0.00015491,0,0,0.051985,-0.022576,0,0.00040278,0,0,0,0.056956,-0.00039967,0.016967,0.15475,0.024508,0.050943,4.2257e-06,0.81,0.62,0
0.040654,-0.0015939,0.056943,-0.0004055,0.016961,0.00014805,0,0,0.051977,-0.022577,0,0.00038493,0,0,0,0.056944,-0.00040588,0.016961,0.14791,0.0245,0.050937,4.2235e-06,0.82,0.62,0
0.041174,-0.0015967,0.056932,-0.00041112,0.016956,0.00014094,0,0,0.051968,-0.022578,0,0.00036645,0,0,0,0.056932,-0.00041147,0.016956,0.14083,0.024492,0.050931,4.2213e-06,0.83,0.62,0
0.041694,-0.0015994,0.056921,-0.00041617,0.016951,0.00013362,0,0,0.05196,-0.022578,0,0.00034741,0,0,0,0.056921,-0.00041648,0.016951,0.13352,0.024485,0.050925,4.2193e-06,0.84,0.62,0
0.042213,-0.0016019,0.05691,-0.00042069,0.016947,0.0001261,0,0,0.051952,-0.022578,0,0.00032785,0,0,0,0.056911,-0.00042097,0.016947,0.12602,0.024479,0.05092,4.2173e-06,0.85,0.62,0
0.042733,-0.0016042,0.056901,-0.00042473,0.016943,0.00011839,0,0,0.051945,-0.022578,0,0.00030783,0,0,0,0.056901,-0.00042497,0.016943,0.11833,0.024473,0.050914,4.2154e-06,0.86,0.62,0
0.043252,-0.0016063,0.056891,-0.00042832,0.016939,0.00011053,0,0,0.051938,-0.022577,0,0.00028738,0,0,0,0.056892,-0.00042853,0.016939,0.11049,0.024467,0.050909,4.2137e-06,0.87,0.62,0
0.043771,-0.0016082,0.056883,-0.0004315,0.016935,0.00010253,0,0,0.051932,-0.022577,0,0.00026657,0,0,0,0.056883,-0.00043169,0.016935,0.10249,0.024462,0.050904,4.212e-06,0.88,0.62,0
0.044291,-0.0016099,0.056875,-0.00043431,0.016932,9.4394e-05,0,0,0.051926,-0.022576,0,0.00024542,0,0,0,0.056875,-0.00043447,0.016932,0.094371,0.024458,0.050899,4.2105e-06,0.89,0.62,0
0.04481,-0.0016115,0.056868,-0.00043678,0.016929,8.6147e-05,0,0,0.05192,-0.022576,0,0.00022398,0,0,0,0.056868,-0.00043691,0.016929,0.086133,0.024453,0.050895,4.209e-06,0.9,0.62,0
0.045329,-0.0016129,0.056861,-0.00043893,0.016927,7.7799e-05,0,0,0.051915,-0.022575,0,0.00020228,0,0,0,0.056861,-0.00043903,0.016927,0.077793,0.02445,0.05089,4.2078e-06,0.91,0.62,0
0.045848,-0.0016141,0.056855,-0.00044079,0.016924,6.9363e-05,0,0,0.05191,-0.022575,0,0.00018034,0,0,0,0.056855,-0.00044087,0.016924,0.069363,0.024446,0.050887,4.2066e-06,0.92,0.62,0
0.046367,-0.0016152,0.05685,-0.00044237,0.016922,6.0851e-05,0,0,0.051906,-0.022574,0,0.00015821,0,0,0,0.05685,-0.00044244,0.016922,0.060855,0.024443,0.050883,4.2055e-06,0.93,0.62,0
0.046886,-0.0016162,0.056845,-0.00044371,0.016921,5.2274e-05,0,0,0.051902,-0.022573,0,0.00013591,0,0,0,0.056846,-0.00044376,0.016921,0.05228,0.024441,0.05088,4.2046e-06,0.94,0.62,0
0.047405,-0.001617,0.056842,-0.00044481,0.016919,4.3643e-05,0,0,0.051899,-0.022573,0,0.00011347,0,0,0,0.056842,-0.00044485,0.016919,0.04365,0.024439,0.050878,4.2039e-06,0.95,0.62,0
0.047924,-0.0016176,0.056838,-0.0004457,0.016918,3.4967e-05,0,0,0.051897,-0.022573,0,9.0914e-05,0,0,0,0.056839,-0.00044572,0.016918,0.034974,0.024437,0.050875,4.2032e-06,0.96,0.62,0
0.048443,-0.0016181,0.056836,-0.00044637,0.016917,2.6256e-05,0,0,0.051895,-0.022572,0,6.8264e-05,0,0,0,0.056836,-0.00044639,0.016917,0.026262,0.024435,0.050874,4.2027e-06,0.97,0.62,0
0.048962,-0.0016185,0.056834,-0.00044685,0.016916,1.7518e-05,0,0,0.051893,-0.022572,0,4.5547e-05,0,0,0,0.056834,-0.00044686,0.016916,0.017523,0.024435,0.050873,4.2024e-06,0.98,0.62,0
0.049481,-0.0016187,0.056833,-0.00044713,0.016916,8.7633e-06,0,0,0.051893,-0.022572,0,2.2785e-05,0,0,0,0.056833,-0.00044714,0.016916,0.0087657,0.024434,0.050872,4.2022e-06,0.99,0.62,0
0.05,-0.0016188,0.056833,-0.00044723,0.016916,-2.7236e-06,0,0,0.051892,-0.022572,0,-7.0814e-06,0,0,0,0.056833,-0.00044723,0.016916,-0.0027244,0.024434,0.050872,4.2021e-06,1,0.62,0
0,0,0.051217,0.02195,0.02195,-0.0001471,0,0,0.038047,-5.421e-20,0,-0.00038246,0,0,0,0.051218,0.021949,0.02195,-0.28797,0.031706,0.029268,1.2877e-06,0,0.63,0
0.00038047,-3.8246e-06,0.05111,0.020722,0.02155,-0.00016303,0,0,0.038429,-0.0010761,0,-0.00042387,0,0,0,0.051111,0.020721,0.02155,-0.30737,0.031127,0.029985,1.381e-06,0.01,0.63,0
0.00076858,-9.3171e-06,0.051516,0.019723,0.021372,-0.00022471,0,0,0.039187,-0.0021429,0,-0.00058425,0,0,0,0.051518,0.019722,0.021372,-0.40494,0.03087,0.031004,1.516e-06,0.02,0.63,0
0.0011642,-1.6861e-05,0.051912,0.018741,0.021196,-0.00030584,0,0,0.039931,-0.0031912,0,-0.00079519,0,0,0,0.051915,0.018738,0.021196,-0.52822,0.030616,0.032018,1.6524e-06,0.03,0.63,0
0.0015672,-2.6795e-05,0.052295,0.017782,0.021023,-0.00040314,0,0,0.040653,-0.004213,0,-0.0010482,0,0,0,0.052299,0.017778,0.021023,-0.66915,0.030367,0.033019,1.7888e-06,0.04,0.63,0
0.0019773,-3.9396e-05,0.052661,0.016853,0.020854,-0.00051238,0,0,0.041349,-0.0052014,0,-0.0013322,0,0,0,0.052668,0.016846,0.020854,-0.81963,0.030123,0.033996,1.9237e-06,0.05,0.63,0
0.0023942,-5.4861e-05,0.053008,0.015958,0.02069,-0.00062883,0,0,0.042014,-0.0061516,0,-0.001635,0,0,0,0.053019,0.015947,0.02069,-0.97206,0.029885,0.034943,2.0558e-06,0.06,0.63,0
0.0028176,-7.3307e-05,0.053336,0.0151,0.020531,-0.00074771,0,0,0.042647,-0.0070604,0,-0.001944,0,0,0,0.05335,0.015085,0.020531,-1.1198,0.029655,0.035854,2.1843e-06,0.07,0.63,0
0.0032471,-9.4767e-05,0.053643,0.01428,0.020377,-0.00086456,0,0,0.043246,-0.0079263,0,-0.0022479,0,0,0,0.053662,0.014261,0.020377,-1.2576,0.029433,0.036727,2.3083e-06,0.08,0.63,0
0.0036825,-0.0001192,0.05393,0.013498,0.020228,-0.00097558,0,0,0.043812,-0.0087493,0,-0.0025365,0,0,0,0.053953,0.013475,0.020228,-1.3814,0.029219,0.03756,2.4275e-06,0.09,0.63,0
0.0041233,-0.00014649,0.054198,0.012755,0.020086,-0.0010777,0,0,0.044345,-0.0095303,0,-0.002802,0,0,0,0.054226,0.012727,0.020086,-1.4886,0.029013,0.038353,2.5416e-06,0.1,0.63,0
0.0045694,-0.00017648,0.054447,0.012048,0.019949,-0.0011686,0,0,0.044848,-0.010271,0,-0.0030384,0,0,0,0.054479,0.012016,0.019949,-1.5776,0.028814,0.039106,2.6504e-06,0.11,0.63,0
0.0050203,-0.00020897,0.05468,0.011376,0.019817,-0.0012469,0,0,0.045323,-0.010973,0,-0.0032419,0,0,0,0.054716,0.01134,0.019817,-1.6479,0.028624,0.03982,2.754e-06,0.12,0.63,0
0.0054758,-0.00024372,0.054898,0.010737,0.01969,-0.0013116,0,0,0.04577,-0.01164,0,-0.0034102,0,0,0,0.054937,0.010698,0.01969,-1.6997,0.028442,0.040498,2.8526e-06,0.13,0.63,0
0.0059357,-0.00028049,0.055101,0.01013,0.019569,-0.0013626,0,0,0.046192,-0.012271,0,-0.0035427,0,0,0,0.055142,0.010089,0.019569,-1.7338,0.028267,0.041141,2.9462e-06,0.14,0.63,0
0.0063997,-0.00031901,0.055292,0.0095523,0.019453,-0.0013999,0,0,0.04659,-0.012871,0,-0.0036397,0,0,0,0.055334,0.0095095,0.019453,-1.7514,0.028099,0.041751,3.0351e-06,0.15,0.63,0
0.0068675,-0.00035902,0.05547,0.0090031,0.019342,-0.0014241,0,0,0.046966,-0.01344,0,-0.0037026,0,0,0,0.055513,0.0089595,0.019342,-1.7537,0.027938,0.042329,3.1193e-06,0.16,0.63,0
0.007339,-0.00040027,0.055636,0.0084805,0.019235,-0.0014358,0,0,0.047322,-0.013981,0,-0.0037332,0,0,0,0.05568,0.0084369,0.019235,-1.7424,0.027784,0.042876,3.1992e-06,0.17,0.63,0
0.0078139,-0.00044251,0.055793,0.0079834,0.019133,-0.0014361,0,0,0.047658,-0.014494,0,-0.0037338,0,0,0,0.055836,0.0079403,0.019133,-1.719,0.027636,0.043396,3.2747e-06,0.18,0.63,0
0.0082921,-0.00048549,0.055939,0.0075104,0.019035,-0.0014258,0,0,0.047975,-0.014982,0,-0.0037071,0,0,0,0.055981,0.0074685,0.019035,-1.6849,0.027495,0.043888,3.3463e-06,0.19,0.63,0
0.0087735,-0.000529,0.056076,0.0070604,0.018941,-0.0014061,0,0,0.048275,-0.015445,0,-0.0036558,0,0,0,0.056116,0.0070201,0.018941,-1.6418,0.027359,0.044354,3.4139e-06,0.2,0.63,0
0.0092577,-0.00057282,0.056204,0.0066325,0.018851,-0.0013779,0,0,0.048558,-0.015884,0,-0.0035826,0,0,0,0.056242,0.0065942,0.018851,-1.591,0.027229,0.044795,3.4777e-06,0.21,0.63,0
0.0097446,-0.00061675,0.056323,0.0062256,0.018764,-0.0013424,0,0,0.048826,-0.0163,0,-0.0034903,0,0,0,0.056359,0.0061897,0.018764,-1.5338,0.027104,0.045213,3.538e-06,0.22,0.63,0
0.010234,-0.00066063,0.056433,0.0058389,0.018682,-0.0013006,0,0,0.049077,-0.016696,0,-0.0033815,0,0,0,0.056467,0.0058055,0.018682,-1.4716,0.026985,0.045608,3.5947e-06,0.23,0.63,0
0.010726,-0.00070429,0.056536,0.0054715,0.018602,-0.0012534,0,0,0.049314,-0.01707,0,-0.0032589,0,0,0,0.056567,0.0054407,0.018602,-1.4052,0.02687,0.045981,3.6481e-06,0.24,0.63,0
0.01122,-0.00074758,0.056632,0.0051226,0.018526,-0.0012018,0,0,0.049537,-0.017425,0,-0.0031248,0,0,0,0.05666,0.0050946,0.018526,-1.3359,0.02676,0.046333,3.6983e-06,0.25,0.63,0
0.011717,-0.00079038,0.05672,0.0047915,0.018453,-0.0011467,0,0,0.049746,-0.01776,0,-0.0029814,0,0,0,0.056745,0.0047662,0.018453,-1.2644,0.026655,0.046666,3.7454e-06,0.26,0.63,0
0.012215,-0.00083257,0.056801,0.0044774,0.018384,-0.0010888,0,0,0.049943,-0.018078,0,-0.0028308,0,0,0,0.056824,0.0044547,0.018384,-1.1915,0.026554,0.04698,3.7896e-06,0.27,0.63,0
0.012716,-0.00087405,0.056875,0.0041796,0.018316,-0.0010288,0,0,0.050126,-0.018378,0,-0.0026749,0,0,0,0.056895,0.0041595,0.018316,-1.118,0.026457,0.047275,3.8309e-06,0.28,0.63,0
0.013218,-0.00091473,0.056943,0.0038974,0.018252,-0.00096746,0,0,0.050299,-0.018661,0,-0.0025154,0,0,0,0.056961,0.0038798,0.018252,-1.0445,0.026364,0.047553,3.8695e-06,0.29,0.63,0
0.013722,-0.00095455,0.057005,0.0036302,0.018191,-0.00090534,0,0,0.050459,-0.018929,0,-0.0023539,0,0,0,0.057021,0.0036149,0.018191,-0.97147,0.026275,0.047814,3.9055e-06,0.3,0.63,0
0.014227,-0.00099343,0.057061,0.0033773,0.018132,-0.00084295,0,0,0.050609,-0.019181,0,-0.0021917,0,0,0,0.057075,0.0033641,0.018132,-0.89937,0.02619,0.04806,3.939e-06,0.31,0.63,0
0.014734,-0.0010313,0.057112,0.0031381,0.018075,-0.00078078,0,0,0.050748,-0.019418,0,-0.00203,0,0,0,0.057123,0.0031268,0.018075,-0.82861,0.026108,0.04829,3.9701e-06,0.32,0.63,0
0.015242,-0.0010682,0.057157,0.002912,0.018021,-0.00071924,0,0,0.050877,-0.019641,0,-0.00187,0,0,0,0.057167,0.0029024,0.018021,-0.7595,0.02603,0.048506,3.999e-06,0.33,0.63,0
0.015752,-0.001104,0.057198,0.0026983,0.017969,-0.00065867,0,0,0.050998,-0.019852,0,-0.0017125,0,0,0,0.057206,0.0026903,0.017969,-0.69234,0.025955,0.048708,4.0258e-06,0.34,0.63,0
0.016262,-0.0011387,0.057233,0.0024965,0.017919,-0.0005994,0,0,0.051109,-0.020049,0,-0.0015584,0,0,0,0.05724,0.0024899,0.017919,-0.62732,0.025883,0.048897,4.0505e-06,0.35,0.63,0
0.016774,-0.0011724,0.057265,0.0023061,0.017871,-0.00054167,0,0,0.051211,-0.020235,0,-0.0014084,0,0,0,0.05727,0.0023007,0.017871,-0.56464,0.025814,0.049073,4.0733e-06,0.36,0.63,0
0.017286,-0.0012049,0.057292,0.0021264,0.017825,-0.00048571,0,0,0.051306,-0.020409,0,-0.0012629,0,0,0,0.057296,0.0021221,0.017825,-0.50442,0.025748,0.049237,4.0942e-06,0.37,0.63,0
0.0178,-0.0012363,0.057315,0.001957,0.017781,-0.0004317,0,0,0.051393,-0.020572,0,-0.0011224,0,0,0,0.057318,0.0019537,0.017781,-0.44678,0.025684,0.049391,4.1135e-06,0.38,0.63,0
0.018314,-0.0012666,0.057334,0.0017974,0.017739,-0.00037978,0,0,0.051473,-0.020725,0,-0.00098742,0,0,0,0.057337,0.0017948,0.017739,-0.39178,0.025624,0.049533,4.1311e-06,0.39,0.63,0
0.018829,-0.0012957,0.05735,0.0016471,0.017699,-0.00033006,0,0,0.051546,-0.020868,0,-0.00085815,0,0,0,0.057352,0.0016452,0.017699,-0.33948,0.025566,0.049666,4.1471e-06,0.4,0.63,0
0.019345,-0.0013238,0.057363,0.0015056,0.017661,-0.00028262,0,0,0.051613,-0.021001,0,-0.00073481,0,0,0,0.057365,0.0015042,0.017661,-0.28989,0.02551,0.049789,4.1617e-06,0.41,0.63,0
0.019862,-0.0013508,0.057373,0.0013725,0.017624,-0.00023752,0,0,0.051674,-0.021126,0,-0.00061755,0,0,0,0.057374,0.0013715,0.017624,-0.24301,0.025456,0.049902,4.1749e-06,0.42,0.63,0
0.020379,-0.0013767,0.05738,0.0012474,0.017588,-0.0001948,0,0,0.051729,-0.021243,0,-0.00050648,0,0,0,0.057381,0.0012467,0.017588,-0.19883,0.025405,0.050008,4.1869e-06,0.43,0.63,0
0.020896,-0.0014016,0.057385,0.0011297,0.017554,-0.00015447,0,0,0.051779,-0.021352,0,-0.00040162,0,0,0,0.057385,0.0011293,0.017554,-0.15733,0.025356,0.050105,4.1976e-06,0.44,0.63,0
0.021414,-0.0014254,0.057387,0.0010192,0.017522,-0.00011653,0,0,0.051824,-0.021453,0,-0.00030298,0,0,0,0.057387,0.001019,0.017522,-0.11845,0.025309,0.050194,4.2072e-06,0.45,0.63,0
0.021933,-0.0014482,0.057387,0.00091553,0.017491,-8.0959e-05,0,0,0.051865,-0.021548,0,-0.00021049,0,0,0,0.057387,0.00091542,0.017491,-0.082141,0.025264,0.050277,4.2157e-06,0.46,0.63,0
0.022451,-0.0014701,0.057385,0.00081822,0.017461,-4.773e-05,0,0,0.051901,-0.021635,0,-0.0001241,0,0,0,0.057385,0.00081818,0.017461,-0.048345,0.025221,0.050352,4.2233e-06,0.47,0.63,0
0.022971,-0.001491,0.057381,0.00072697,0.017432,-1.6799e-05,0,0,0.051933,-0.021717,0,-4.3678e-05,0,0,0,0.057381,0.00072697,0.017432,-0.01699,0.02518,0.050421,4.2299e-06,0.48,0.63,0
0.02349,-0.001511,0.057375,0.00064146,0.017405,1.1883e-05,0,0,0.051961,-0.021793,0,3.0896e-05,0,0,0,0.057375,0.00064146,0.017405,0.012001,0.02514,0.050484,4.2357e-06,0.49,0.63,0
0.02401,-0.00153,0.057368,0.00056137,0.017379,3.8376e-05,0,0,0.051986,-0.021863,0,9.9777e-05,0,0,0,0.057368,0.00056135,0.017379,0.038706,0.025103,0.050542,4.2406e-06,0.5,0.63,0
0.02453,-0.0015482,0.057359,0.00048641,0.017354,6.2743e-05,0,0,0.052007,-0.021927,0,0.00016313,0,0,0,0.057359,0.00048634,0.017354,0.06321,0.025066,0.050594,4.2448e-06,0.51,0.63,0
0.02505,-0.0015655,0.057349,0.0004163,0.01733,8.5056e-05,0,0,0.052026,-0.021988,0,0.00022115,0,0,0,0.05735,0.00041617,0.01733,0.085597,0.025032,0.050641,4.2484e-06,0.52,0.63,0
0.02557,-0.0015821,0.057339,0.00035075,0.017307,0.00010539,0,0,0.052041,-0.022043,0,0.00027401,0,0,0,0.057339,0.00035056,0.017307,0.10596,0.024999,0.050684,4.2513e-06,0.53,0.63,0
0.026091,-0.0015978,0.057327,0.00028953,0.017285,0.00012381,0,0,0.052054,-0.022094,0,0.00032192,0,0,0,0.057327,0.00028926,0.017285,0.12437,0.024967,0.050722,4.2536e-06,0.54,0.63,0
0.026611,-0.0016128,0.057314,0.00023237,0.017264,0.00014041,0,0,0.052065,-0.022141,0,0.00036508,0,0,0,0.057314,0.00023203,0.017264,0.14094,0.024937,0.050757,4.2553e-06,0.55,0.63,0
0.027132,-0.001627,0.0573,0.00017906,0.017244,0.00015527,0,0,0.052073,-0.022184,0,0.00040369,0,0,0,0.0573,0.00017864,0.017244,0.15574,0.024908,0.050787,4.2566e-06,0.56,0.63,0
0.027653,-0.0016406,0.057286,0.00012937,0.017225,0.00016845,0,0,0.05208,-0.022224,0,0.00043798,0,0,0,0.057286,0.00012888,0.017225,0.16886,0.02488,0.050814,4.2574e-06,0.57,0.63,0
0.028174,-0.0016535,0.057271,8.3094e-05,0.017206,0.00018005,0,0,0.052084,-0.02226,0,0.00046814,0,0,0,0.057271,8.2527e-05,0.017206,0.18039,0.024853,0.050838,4.2578e-06,0.58,0.63,0
0.028695,-0.0016657,0.057255,4.0028e-05,0.017189,0.00019015,0,0,0.052087,-0.022293,0,0.00049438,0,0,0,0.057256,3.9396e-05,0.017189,0.19041,0.024828,0.050859,4.2578e-06,0.59,0.63,0
0.029215,-0.0016773,0.057239,-1.4898e-08,0.017172,0.00019881,0,0,0.052088,-0.022323,0,0.00051691,0,0,0,0.05724,-7.0544e-07,0.017172,0.199,0.024804,0.050877,4.2575e-06,0.6,0.63,0
0.029736,-0.0016883,0.057223,-3.7214e-05,0.017156,0.00020613,0,0,0.052088,-0.022351,0,0.00053593,0,0,0,0.057224,-3.7956e-05,0.017156,0.20625,0.024781,0.050892,4.2568e-06,0.61,0.63,0
0.030257,-0.0016988,0.057207,-7.1739e-05,0.01714,0.00021216,0,0,0.052086,-0.022376,0,0.00055163,0,0,0,0.057207,-7.2525e-05,0.01714,0.21222,0.024758,0.050905,4.2559e-06,0.62,0.63,0
0.030778,-0.0017087,0.05719,-0.00010375,0.017126,0.000217,0,0,0.052083,-0.022398,0,0.0005642,0,0,0,0.057191,-0.00010457,0.017126,0.217,0.024737,0.050916,4.2548e-06,0.63,0.63,0
0.031299,-0.001718,0.057173,-0.00013341,0.017112,0.0002207,0,0,0.05208,-0.022419,0,0.00057382,0,0,0,0.057174,-0.00013426,0.017112,0.22066,0.024717,0.050925,4.2534e-06,0.64,0.63,0
0.03182,-0.0017269,0.057156,-0.00016085,0.017099,0.00022334,0,0,0.052075,-0.022437,0,0.00058069,0,0,0,0.057157,-0.00016172,0.017099,0.22325,0.024698,0.050931,4.2518e-06,0.65,0.63,0
0.03234,-0.0017353,0.057139,-0.00018621,0.017086,0.00022499,0,0,0.052069,-0.022454,0,0.00058496,0,0,0,0.05714,-0.0001871,0.017086,0.22486,0.02468,0.050937,4.25e-06,0.66,0.63,0
0.032861,-0.0017432,0.057122,-0.00020964,0.017074,0.0002257,0,0,0.052063,-0.022468,0,0.00058681,0,0,0,0.057123,-0.00021053,0.017074,0.22555,0.024662,0.05094,4.2481e-06,0.67,0.63,0
0.033382,-0.0017507,0.057106,-0.00023124,0.017062,0.00022553,0,0,0.052056,-0.022482,0,0.00058639,0,0,0,0.057106,-0.00023213,0.017062,0.22537,0.024646,0.050943,4.246e-06,0.68,0.63,0
0.033902,-0.0017578,0.057089,-0.00025114,0.017051,0.00022456,0,0,0.052049,-0.022493,0,0.00058386,0,0,0,0.05709,-0.00025202,0.017051,0.22438,0.02463,0.050944,4.2439e-06,0.69,0.63,0
0.034423,-0.0017645,0.057072,-0.00026945,0.017041,0.00022283,0,0,0.052041,-0.022503,0,0.00057935,0,0,0,0.057073,-0.00027032,0.017041,0.22265,0.024615,0.050944,4.2417e-06,0.7,0.63,0
0.034943,-0.0017708,0.057056,-0.00028627,0.017031,0.00022039,0,0,0.052033,-0.022512,0,0.00057302,0,0,0,0.057057,-0.00028712,0.017031,0.22021,0.0246,0.050943,4.2394e-06,0.71,0.63,0
0.035463,-0.0017767,0.05704,-0.00030171,0.017021,0.0002173,0,0,0.052024,-0.02252,0,0.00056498,0,0,0,0.057041,-0.00030253,0.017021,0.21712,0.024587,0.050941,4.237e-06,0.72,0.63,0
0.035983,-0.0017824,0.057024,-0.00031586,0.017013,0.0002136,0,0,0.052015,-0.022527,0,0.00055537,0,0,0,0.057025,-0.00031665,0.017013,0.21343,0.024574,0.050938,4.2346e-06,0.73,0.63,0
0.036504,-0.0017876,0.057009,-0.0003288,0.017004,0.00020935,0,0,0.052007,-0.022533,0,0.0005443,0,0,0,0.05701,-0.00032956,0.017004,0.20919,0.024561,0.050935,4.2322e-06,0.74,0.63,0
0.037024,-0.0017926,0.056994,-0.00034063,0.016996,0.00020457,0,0,0.051998,-0.022538,0,0.00053188,0,0,0,0.056995,-0.00034136,0.016996,0.20443,0.02455,0.050931,4.2298e-06,0.75,0.63,0
0.037544,-0.0017972,0.05698,-0.00035141,0.016988,0.00019931,0,0,0.051988,-0.022542,0,0.00051822,0,0,0,0.05698,-0.00035211,0.016988,0.19919,0.024539,0.050927,4.2274e-06,0.76,0.63,0
0.038063,-0.0018016,0.056965,-0.00036124,0.016981,0.00019362,0,0,0.051979,-0.022545,0,0.00050341,0,0,0,0.056966,-0.00036189,0.016981,0.19351,0.024529,0.050922,4.225e-06,0.77,0.63,0
0.038583,-0.0018057,0.056952,-0.00037017,0.016974,0.00018752,0,0,0.05197,-0.022548,0,0.00048755,0,0,0,0.056952,-0.00037078,0.016974,0.18743,0.024519,0.050917,4.2226e-06,0.78,0.63,0
0.039103,-0.0018095,0.056938,-0.00037827,0.016968,0.00018105,0,0,0.051962,-0.02255,0,0.00047072,0,0,0,0.056939,-0.00037884,0.016968,0.18098,0.024509,0.050911,4.2203e-06,0.79,0.63,0
0.039622,-0.0018131,0.056926,-0.00038561,0.016962,0.00017423,0,0,0.051953,-0.022552,0,0.000453,0,0,0,0.056926,-0.00038614,0.016962,0.17418,0.024501,0.050906,4.218e-06,0.8,0.63,0
0.040142,-0.0018164,0.056913,-0.00039224,0.016956,0.00016711,0,0,0.051944,-0.022553,0,0.00043448,0,0,0,0.056914,-0.00039273,0.016956,0.16708,0.024493,0.0509,4.2158e-06,0.81,0.63,0
0.040661,-0.0018195,0.056902,-0.00039823,0.016951,0.0001597,0,0,0.051936,-0.022554,0,0.00041522,0,0,0,0.056902,-0.00039867,0.016951,0.15969,0.024485,0.050894,4.2137e-06,0.82,0.63,0
0.041181,-0.0018224,0.05689,-0.00040361,0.016946,0.00015203,0,0,0.051928,-0.022555,0,0.00039529,0,0,0,0.056891,-0.00040402,0.016946,0.15204,0.024478,0.050889,4.2116e-06,0.83,0.63,0
0.0417,-0.0018251,0.05688,-0.00040845,0.016941,0.00014413,0,0,0.05192,-0.022555,0,0.00037475,0,0,0,0.05688,-0.00040881,0.016941,0.14415,0.024471,0.050883,4.2096e-06,0.84,0.63,0
0.042219,-0.0018276,0.05687,-0.00041278,0.016937,0.00013602,0,0,0.051913,-0.022555,0,0.00035365,0,0,0,0.05687,-0.0004131,0.016937,0.13605,0.024465,0.050877,4.2077e-06,0.85,0.63,0
0.042738,-0.0018298,0.05686,-0.00041664,0.016933,0.00012771,0,0,0.051905,-0.022555,0,0.00033206,0,0,0,0.056861,-0.00041692,0.016933,0.12776,0.024459,0.050872,4.2059e-06,0.86,0.63,0
0.043257,-0.0018319,0.056851,-0.00042007,0.016929,0.00011924,0,0,0.051899,-0.022554,0,0.00031001,0,0,0,0.056852,-0.00042032,0.016929,0.11929,0.024454,0.050867,4.2042e-06,0.87,0.63,0
0.043776,-0.0018338,0.056843,-0.00042312,0.016926,0.0001106,0,0,0.051892,-0.022554,0,0.00028756,0,0,0,0.056843,-0.00042333,0.016926,0.11066,0.024449,0.050862,4.2026e-06,0.88,0.63,0
0.044295,-0.0018356,0.056836,-0.0004258,0.016923,0.00010183,0,0,0.051887,-0.022553,0,0.00026476,0,0,0,0.056836,-0.00042598,0.016923,0.10189,0.024444,0.050857,4.2011e-06,0.89,0.63,0
0.044814,-0.0018371,0.056829,-0.00042816,0.01692,9.2934e-05,0,0,0.051881,-0.022553,0,0.00024163,0,0,0,0.056829,-0.00042831,0.01692,0.092997,0.02444,0.050853,4.1998e-06,0.9,0.63,0
0.045332,-0.0018385,0.056822,-0.00043021,0.016918,8.393e-05,0,0,0.051876,-0.022552,0,0.00021822,0,0,0,0.056822,-0.00043033,0.016918,0.083993,0.024437,0.050849,4.1985e-06,0.91,0.63,0
0.045851,-0.0018398,0.056817,-0.00043198,0.016915,7.4831e-05,0,0,0.051872,-0.022552,0,0.00019456,0,0,0,0.056817,-0.00043208,0.016915,0.074892,0.024433,0.050845,4.1974e-06,0.92,0.63,0
0.04637,-0.0018409,0.056812,-0.0004335,0.016913,6.5649e-05,0,0,0.051868,-0.022551,0,0.00017069,0,0,0,0.056812,-0.00043357,0.016913,0.065707,0.024431,0.050842,4.1964e-06,0.93,0.63,0
0.046888,-0.0018418,0.056807,-0.00043477,0.016912,5.6397e-05,0,0,0.051864,-0.022551,0,0.00014663,0,0,0,0.056807,-0.00043483,0.016912,0.05645,0.024428,0.050839,4.1955e-06,0.94,0.63,0
0.047407,-0.0018426,0.056804,-0.00043583,0.01691,4.7085e-05,0,0,0.051861,-0.02255,0,0.00012242,0,0,0,0.056804,-0.00043587,0.01691,0.047132,0.024426,0.050837,4.1948e-06,0.95,0.63,0
0.047926,-0.0018432,0.0568,-0.00043667,0.016909,3.7725e-05,0,0,0.051859,-0.02255,0,9.8086e-05,0,0,0,0.056801,-0.00043669,0.016909,0.037764,0.024424,0.050835,4.1942e-06,0.96,0.63,0
0.048444,-0.0018437,0.056798,-0.00043731,0.016908,2.8327e-05,0,0,0.051857,-0.022549,0,7.365e-05,0,0,0,0.056798,-0.00043733,0.016908,0.028357,0.024423,0.050833,4.1937e-06,0.97,0.63,0
0.048963,-0.0018441,0.056796,-0.00043777,0.016908,1.89e-05,0,0,0.051855,-0.022549,0,4.9141e-05,0,0,0,0.056796,-0.00043777,0.016908,0.018921,0.024422,0.050832,4.1933e-06,0.98,0.63,0
0.049481,-0.0018443,0.056795,-0.00043804,0.016907,9.4548e-06,0,0,0.051855,-0.022549,0,2.4583e-05,0,0,0,0.056795,-0.00043804,0.016907,0.0094651,0.024422,0.050831,4.1931e-06,0.99,0.63,0
0.05,-0.0018444,0.056795,-0.00043813,0.016907,-2.7039e-06,0,0,0.051854,-0.022549,0,-7.0302e-06,0,0,0,0.056795,-0.00043813,0.016907,-0.0027069,0.024421,0.050831,4.1931e-06,1,0.63,0
0,0,0.051275,0.021975,0.021975,-0.00055642,0,0,0.03809,5.421e-20,0,-0.0014467,0,0,0,0.051285,0.021964,0.021975,-1.0876,0.031741,0.029316,1.294e-06,0,0.64,0
0.0003809,-1.4467e-05,0.051171,0.020771,0.021583,-0.00057007,0,0,0.038464,-0.0010547,0,-0.0014822,0,0,0,0.051181,0.020761,0.021583,-1.0739,0.031175,0.030018,1.3857e-06,0.01,0.64,0
0.00076929,-3.0515e-05,0.051569,0.019792,0.021408,-0.00062497,0,0,0.039209,-0.0021015,0,-0.0016249,0,0,0,0.051581,0.019779,0.021408,-1.1263,0.030923,0.03102,1.5187e-06,0.02,0.64,0
0.0011651,-4.8446e-05,0.05196,0.018826,0.021236,-0.00069515,0,0,0.039941,-0.0031327,0,-0.0018074,0,0,0,0.051974,0.018811,0.021236,-1.2014,0.030674,0.03202,1.6535e-06,0.03,0.64,0
0.0015681,-6.8525e-05,0.052339,0.01788,0.021066,-0.00077795,0,0,0.040655,-0.0041414,0,-0.0020227,0,0,0,0.052356,0.017862,0.021066,-1.2927,0.030428,0.033009,1.7887e-06,0.04,0.64,0
0.0019782,-9.0963e-05,0.052703,0.016959,0.020899,-0.00087,0,0,0.041346,-0.0051214,0,-0.002262,0,0,0,0.052725,0.016938,0.020899,-1.3935,0.030187,0.03398,1.923e-06,0.05,0.64,0
0.002395,-0.00011591,0.053051,0.016068,0.020736,-0.00096749,0,0,0.04201,-0.0060682,0,-0.0025155,0,0,0,0.053077,0.016043,0.020736,-1.4975,0.029952,0.034925,2.0553e-06,0.06,0.64,0
0.0028184,-0.00014345,0.053381,0.015209,0.020577,-0.0010666,0,0,0.042646,-0.0069782,0,-0.002773,0,0,0,0.053411,0.01518,0.020577,-1.5992,0.029723,0.035839,2.1845e-06,0.07,0.64,0
0.0032479,-0.0001736,0.053693,0.014385,0.020423,-0.0011635,0,0,0.04325,-0.0078496,0,-0.0030251,0,0,0,0.053727,0.014351,0.020423,-1.694,0.0295,0.036719,2.3099e-06,0.08,0.64,0
0.0036834,-0.0002063,0.053985,0.013596,0.020274,-0.0012551,0,0,0.043824,-0.0086815,0,-0.0032633,0,0,0,0.054024,0.013557,0.020274,-1.7783,0.029285,0.037561,2.4309e-06,0.09,0.64,0
0.0041244,-0.00024147,0.054259,0.012843,0.02013,-0.0013387,0,0,0.044367,-0.009474,0,-0.0034807,0,0,0,0.054302,0.0128,0.02013,-1.8494,0.029077,0.038366,2.5471e-06,0.1,0.64,0
0.0045707,-0.00027894,0.054515,0.012124,0.019992,-0.0014122,0,0,0.04488,-0.010228,0,-0.0036718,0,0,0,0.054562,0.012077,0.019992,-1.906,0.028877,0.039132,2.6583e-06,0.11,0.64,0
0.005022,-0.00031852,0.054754,0.011439,0.019858,-0.0014743,0,0,0.045365,-0.010944,0,-0.0038331,0,0,0,0.054804,0.011389,0.019858,-1.9471,0.028684,0.039861,2.7643e-06,0.12,0.64,0
0.005478,-0.00036001,0.054977,0.010787,0.019729,-0.0015239,0,0,0.045822,-0.011624,0,-0.0039622,0,0,0,0.055029,0.010735,0.019729,-1.9728,0.028498,0.040552,2.8652e-06,0.13,0.64,0
0.0059384,-0.00040317,0.055185,0.010167,0.019605,-0.0015609,0,0,0.046253,-0.01227,0,-0.0040582,0,0,0,0.055239,0.010113,0.019605,-1.9834,0.028319,0.041208,2.961e-06,0.14,0.64,0
0.0064031,-0.00044775,0.055379,0.0095762,0.019487,-0.0015852,0,0,0.04666,-0.012883,0,-0.0041214,0,0,0,0.055433,0.0095214,0.019487,-1.9798,0.028147,0.041829,3.0519e-06,0.15,0.64,0
0.0068716,-0.00049353,0.055559,0.0090145,0.019372,-0.0015972,0,0,0.047044,-0.013465,0,-0.0041527,0,0,0,0.055614,0.0089598,0.019372,-1.963,0.027982,0.042418,3.1379e-06,0.16,0.64,0
0.0073439,-0.00054024,0.055728,0.0084803,0.019262,-0.0015975,0,0,0.047405,-0.014017,0,-0.0041536,0,0,0,0.055782,0.0084264,0.019262,-1.9344,0.027824,0.042975,3.2191e-06,0.17,0.64,0
0.0078198,-0.00058766,0.055885,0.0079725,0.019157,-0.0015871,0,0,0.047746,-0.01454,0,-0.0041263,0,0,0,0.055937,0.00792,0.019157,-1.8951,0.027672,0.043501,3.2959e-06,0.18,0.64,0
0.0082989,-0.00063557,0.056031,0.0074898,0.019056,-0.0015666,0,0,0.048067,-0.015036,0,-0.0040732,0,0,0,0.056081,0.0074393,0.019056,-1.8466,0.027526,0.043999,3.3683e-06,0.19,0.64,0
0.0087811,-0.00068374,0.056166,0.0070311,0.018959,-0.0015372,0,0,0.048369,-0.015506,0,-0.0039968,0,0,0,0.056214,0.0069831,0.018959,-1.7902,0.027386,0.04447,3.4364e-06,0.2,0.64,0
0.0092663,-0.00073198,0.056292,0.0065956,0.018866,-0.0014999,0,0,0.048653,-0.015952,0,-0.0038997,0,0,0,0.056337,0.0065503,0.018866,-1.7271,0.027251,0.044914,3.5005e-06,0.21,0.64,0
0.0097542,-0.00078011,0.056408,0.0061821,0.018777,-0.0014556,0,0,0.048921,-0.016373,0,-0.0037846,0,0,0,0.056451,0.0061399,0.018777,-1.6586,0.027123,0.045333,3.5608e-06,0.22,0.64,0
0.010245,-0.00082796,0.056516,0.0057898,0.018692,-0.0014054,0,0,0.049171,-0.016772,0,-0.0036541,0,0,0,0.056555,0.0057509,0.018692,-1.5858,0.026999,0.045728,3.6173e-06,0.23,0.64,0
0.010738,-0.00087537,0.056615,0.0054177,0.01861,-0.0013503,0,0,0.049406,-0.01715,0,-0.0035107,0,0,0,0.05665,0.0053821,0.01861,-1.5097,0.026881,0.0461,3.6703e-06,0.24,0.64,0
0.011233,-0.00092222,0.056706,0.0050651,0.018531,-0.001291,0,0,0.049627,-0.017506,0,-0.0033567,0,0,0,0.056738,0.0050328,0.018531,-1.4312,0.026767,0.046451,3.7199e-06,0.25,0.64,0
0.01173,-0.00096838,0.056789,0.004731,0.018456,-0.0012286,0,0,0.049833,-0.017842,0,-0.0031943,0,0,0,0.056818,0.004702,0.018456,-1.3512,0.026659,0.046781,3.7662e-06,0.26,0.64,0
0.012229,-0.0010137,0.056865,0.0044147,0.018384,-0.0011637,0,0,0.050025,-0.01816,0,-0.0030256,0,0,0,0.056891,0.0043889,0.018384,-1.2704,0.026555,0.047091,3.8094e-06,0.27,0.64,0
0.012731,-0.0010582,0.056934,0.0041154,0.018315,-0.0010971,0,0,0.050205,-0.018459,0,-0.0028525,0,0,0,0.056957,0.0040927,0.018315,-1.1894,0.026455,0.047382,3.8496e-06,0.28,0.64,0
0.013234,-0.0011017,0.056996,0.0038324,0.018249,-0.0010295,0,0,0.050372,-0.018741,0,-0.0026767,0,0,0,0.057016,0.0038125,0.018249,-1.1089,0.026359,0.047655,3.8871e-06,0.29,0.64,0
0.013738,-0.0011442,0.057053,0.0035649,0.018185,-0.00096137,0,0,0.050528,-0.019007,0,-0.0024996,0,0,0,0.05707,0.0035476,0.018185,-1.0294,0.026268,0.047911,3.9219e-06,0.3,0.64,0
0.014244,-0.0011856,0.057103,0.0033122,0.018125,-0.00089331,0,0,0.050672,-0.019256,0,-0.0023226,0,0,0,0.057118,0.0032973,0.018125,-0.95116,0.02618,0.048151,3.9541e-06,0.31,0.64,0
0.014752,-0.0012259,0.057148,0.0030735,0.018067,-0.00082578,0,0,0.050806,-0.019491,0,-0.002147,0,0,0,0.057161,0.003061,0.018067,-0.87469,0.026096,0.048375,3.9839e-06,0.32,0.64,0
0.01526,-0.0012649,0.057188,0.0028484,0.018011,-0.00075916,0,0,0.05093,-0.019711,0,-0.0019738,0,0,0,0.057199,0.0028378,0.018011,-0.80025,0.026016,0.048585,4.0115e-06,0.33,0.64,0
0.01577,-0.0013028,0.057223,0.002636,0.017958,-0.00069383,0,0,0.051045,-0.019918,0,-0.0018039,0,0,0,0.057232,0.0026272,0.017958,-0.7281,0.025939,0.048781,4.0369e-06,0.34,0.64,0
0.016281,-0.0013395,0.057253,0.0024358,0.017907,-0.00063006,0,0,0.051151,-0.020112,0,-0.0016382,0,0,0,0.057261,0.0024286,0.017907,-0.65843,0.025865,0.048964,4.0603e-06,0.35,0.64,0
0.016793,-0.001375,0.057279,0.0022472,0.017858,-0.00056813,0,0,0.051248,-0.020294,0,-0.0014771,0,0,0,0.057285,0.0022413,0.017858,-0.59141,0.025795,0.049134,4.0817e-06,0.36,0.64,0
0.017306,-0.0014092,0.057301,0.0020695,0.017811,-0.00050822,0,0,0.051337,-0.020464,0,-0.0013214,0,0,0,0.057306,0.0020649,0.017811,-0.52715,0.025727,0.049292,4.1014e-06,0.37,0.64,0
0.01782,-0.0014422,0.05732,0.0019023,0.017767,-0.00045052,0,0,0.051419,-0.020624,0,-0.0011714,0,0,0,0.057323,0.0018987,0.017767,-0.46575,0.025663,0.049439,4.1193e-06,0.38,0.64,0
0.018335,-0.001474,0.057335,0.001745,0.017724,-0.00039516,0,0,0.051494,-0.020773,0,-0.0010274,0,0,0,0.057337,0.0017422,0.017724,-0.40726,0.025601,0.049576,4.1357e-06,0.39,0.64,0
0.01885,-0.0015046,0.057346,0.0015971,0.017683,-0.00034223,0,0,0.051562,-0.020912,0,-0.0008898,0,0,0,0.057348,0.001595,0.017683,-0.35171,0.025542,0.049702,4.1505e-06,0.4,0.64,0
0.019366,-0.001534,0.057355,0.001458,0.017644,-0.00029182,0,0,0.051624,-0.021042,0,-0.00075873,0,0,0,0.057357,0.0014565,0.017644,-0.29911,0.025486,0.049819,4.164e-06,0.41,0.64,0
0.019882,-0.0015622,0.057361,0.0013274,0.017607,-0.00024396,0,0,0.051681,-0.021163,0,-0.00063431,0,0,0,0.057362,0.0013263,0.017607,-0.24945,0.025432,0.049928,4.1761e-06,0.42,0.64,0
0.020399,-0.0015893,0.057364,0.0012047,0.017571,-0.00019869,0,0,0.051732,-0.021276,0,-0.0005166,0,0,0,0.057365,0.001204,0.017571,-0.20271,0.02538,0.050028,4.1869e-06,0.43,0.64,0
0.020917,-0.0016152,0.057365,0.0010896,0.017537,-0.00015601,0,0,0.051778,-0.021381,0,-0.00040563,0,0,0,0.057366,0.0010891,0.017537,-0.15884,0.02533,0.05012,4.1967e-06,0.44,0.64,0
0.021435,-0.0016401,0.057364,0.00098155,0.017504,-0.0001159,0,0,0.051819,-0.021479,0,-0.00030135,0,0,0,0.057365,0.00098131,0.017504,-0.11778,0.025283,0.050204,4.2053e-06,0.45,0.64,0
0.021953,-0.0016638,0.057361,0.00088027,0.017472,-7.8349e-05,0,0,0.051855,-0.02157,0,-0.00020371,0,0,0,0.057361,0.00088016,0.017472,-0.079479,0.025238,0.050282,4.213e-06,0.46,0.64,0
0.022472,-0.0016865,0.057356,0.00078536,0.017442,-4.3302e-05,0,0,0.051888,-0.021654,0,-0.00011258,0,0,0,0.057356,0.00078533,0.017442,-0.043856,0.025195,0.050353,4.2197e-06,0.47,0.64,0
0.022991,-0.0017082,0.05735,0.00069647,0.017414,-1.0713e-05,0,0,0.051917,-0.021733,0,-2.7854e-05,0,0,0,0.05735,0.00069647,0.017414,-0.010835,0.025153,0.050418,4.2256e-06,0.48,0.64,0
0.02351,-0.0017289,0.057342,0.00061325,0.017387,1.9476e-05,0,0,0.051942,-0.021805,0,5.0637e-05,0,0,0,0.057342,0.00061324,0.017387,0.019671,0.025114,0.050477,4.2306e-06,0.49,0.64,0
0.02403,-0.0017487,0.057333,0.00053539,0.01736,4.7333e-05,0,0,0.051964,-0.021872,0,0.00012307,0,0,0,0.057333,0.00053535,0.01736,0.047748,0.025076,0.050531,4.2349e-06,0.5,0.64,0
0.02455,-0.0017675,0.057322,0.00046258,0.017335,7.293e-05,0,0,0.051983,-0.021935,0,0.00018962,0,0,0,0.057322,0.00046249,0.017335,0.073489,0.02504,0.05058,4.2385e-06,0.51,0.64,0
0.02507,-0.0017854,0.057311,0.00039454,0.017312,9.6345e-05,0,0,0.051999,-0.021992,0,0.0002505,0,0,0,0.057311,0.00039438,0.017312,0.096987,0.025006,0.050624,4.2415e-06,0.52,0.64,0
0.02559,-0.0018025,0.057298,0.000331,0.017289,0.00011766,0,0,0.052012,-0.022045,0,0.00030591,0,0,0,0.057298,0.00033076,0.017289,0.11834,0.024973,0.050664,4.2439e-06,0.53,0.64,0
0.02611,-0.0018188,0.057285,0.00027169,0.017267,0.00013696,0,0,0.052023,-0.022094,0,0.00035609,0,0,0,0.057285,0.00027136,0.017267,0.13763,0.024941,0.050699,4.2457e-06,0.54,0.64,0
0.02663,-0.0018342,0.057271,0.00021637,0.017246,0.00015432,0,0,0.052032,-0.022139,0,0.00040123,0,0,0,0.057271,0.00021595,0.017246,0.15497,0.024911,0.050731,4.247e-06,0.55,0.64,0
0.02715,-0.0018489,0.057256,0.00016481,0.017226,0.00016984,0,0,0.052039,-0.02218,0,0.00044158,0,0,0,0.057256,0.00016431,0.017226,0.17045,0.024882,0.050759,4.2479e-06,0.56,0.64,0
0.027671,-0.0018628,0.05724,0.00011679,0.017207,0.0001836,0,0,0.052043,-0.022218,0,0.00047735,0,0,0,0.057241,0.0001162,0.017207,0.18415,0.024855,0.050784,4.2484e-06,0.57,0.64,0
0.028191,-0.001876,0.057225,7.2098e-05,0.017189,0.00019568,0,0,0.052046,-0.022252,0,0.00050877,0,0,0,0.057225,7.1428e-05,0.017189,0.19617,0.024829,0.050806,4.2485e-06,0.58,0.64,0
0.028712,-0.0018886,0.057209,3.0536e-05,0.017172,0.00020617,0,0,0.052048,-0.022284,0,0.00053605,0,0,0,0.057209,2.9793e-05,0.017172,0.2066,0.024804,0.050825,4.2482e-06,0.59,0.64,0
0.029232,-0.0019005,0.057192,-8.0826e-06,0.017155,0.00021516,0,0,0.052048,-0.022312,0,0.00055942,0,0,0,0.057193,-8.8919e-06,0.017155,0.21552,0.02478,0.050841,4.2477e-06,0.6,0.64,0
0.029753,-0.0019118,0.057176,-4.3936e-05,0.017139,0.00022273,0,0,0.052047,-0.022338,0,0.00057909,0,0,0,0.057176,-4.4803e-05,0.017139,0.22302,0.024757,0.050855,4.2468e-06,0.61,0.64,0
0.030273,-0.0019225,0.057159,-7.7192e-05,0.017125,0.00022895,0,0,0.052045,-0.022362,0,0.00059526,0,0,0,0.05716,-7.8108e-05,0.017125,0.22918,0.024735,0.050867,4.2457e-06,0.62,0.64,0
0.030794,-0.0019326,0.057142,-0.00010801,0.01711,0.0002339,0,0,0.052041,-0.022384,0,0.00060814,0,0,0,0.057143,-0.00010897,0.01711,0.23408,0.024715,0.050877,4.2444e-06,0.63,0.64,0
0.031314,-0.0019421,0.057125,-0.00013654,0.017097,0.00023766,0,0,0.052037,-0.022403,0,0.00061792,0,0,0,0.057126,-0.00013753,0.017097,0.2378,0.024695,0.050884,4.2429e-06,0.64,0.64,0
0.031834,-0.0019512,0.057108,-0.00016293,0.017084,0.00024031,0,0,0.052032,-0.02242,0,0.00062479,0,0,0,0.057109,-0.00016394,0.017084,0.24041,0.024676,0.05089,4.2412e-06,0.65,0.64,0
0.032355,-0.0019598,0.057091,-0.00018731,0.017071,0.0002419,0,0,0.052026,-0.022436,0,0.00062894,0,0,0,0.057092,-0.00018833,0.017071,0.24197,0.024658,0.050895,4.2394e-06,0.66,0.64,0
0.032875,-0.0019678,0.057074,-0.00020981,0.017059,0.00024251,0,0,0.052019,-0.02245,0,0.00063053,0,0,0,0.057075,-0.00021084,0.017059,0.24256,0.024641,0.050898,4.2374e-06,0.67,0.64,0
0.033395,-0.0019755,0.057057,-0.00023055,0.017048,0.00024221,0,0,0.052012,-0.022462,0,0.00062974,0,0,0,0.057058,-0.00023158,0.017048,0.24223,0.024625,0.0509,4.2353e-06,0.68,0.64,0
0.033915,-0.0019826,0.057041,-0.00024965,0.017037,0.00024105,0,0,0.052005,-0.022473,0,0.00062672,0,0,0,0.057042,-0.00025066,0.017037,0.24106,0.024609,0.0509,4.2332e-06,0.69,0.64,0
0.034435,-0.0019894,0.057025,-0.00026721,0.017027,0.00023909,0,0,0.051997,-0.022483,0,0.00062163,0,0,0,0.057026,-0.00026821,0.017027,0.2391,0.024595,0.0509,4.2309e-06,0.7,0.64,0
0.034955,-0.0019958,0.057009,-0.00028334,0.017018,0.00023639,0,0,0.051988,-0.022491,0,0.00061461,0,0,0,0.05701,-0.00028432,0.017018,0.2364,0.024581,0.050898,4.2286e-06,0.71,0.64,0
0.035475,-0.0020018,0.056993,-0.00029813,0.017008,0.000233,0,0,0.05198,-0.022499,0,0.0006058,0,0,0,0.056994,-0.00029908,0.017008,0.23301,0.024568,0.050896,4.2263e-06,0.72,0.64,0
0.035995,-0.0020075,0.056978,-0.00031168,0.017,0.00022897,0,0,0.051971,-0.022505,0,0.00059532,0,0,0,0.056979,-0.0003126,0.017,0.22899,0.024555,0.050894,4.2239e-06,0.73,0.64,0
0.036514,-0.0020128,0.056963,-0.00032408,0.016992,0.00022435,0,0,0.051962,-0.02251,0,0.00058331,0,0,0,0.056964,-0.00032495,0.016992,0.22438,0.024543,0.05089,4.2216e-06,0.74,0.64,0
0.037034,-0.0020178,0.056948,-0.00033539,0.016984,0.00021919,0,0,0.051953,-0.022515,0,0.00056988,0,0,0,0.056949,-0.00033623,0.016984,0.21923,0.024532,0.050886,4.2192e-06,0.75,0.64,0
0.037553,-0.0020225,0.056934,-0.00034571,0.016976,0.00021352,0,0,0.051945,-0.022519,0,0.00055514,0,0,0,0.056935,-0.0003465,0.016976,0.21357,0.024522,0.050882,4.2168e-06,0.76,0.64,0
0.038073,-0.0020269,0.05692,-0.0003551,0.016969,0.00020738,0,0,0.051936,-0.022522,0,0.00053919,0,0,0,0.056921,-0.00035585,0.016969,0.20745,0.024511,0.050877,4.2145e-06,0.77,0.64,0
0.038592,-0.002031,0.056907,-0.00036363,0.016963,0.00020082,0,0,0.051927,-0.022524,0,0.00052213,0,0,0,0.056907,-0.00036434,0.016963,0.2009,0.024502,0.050872,4.2122e-06,0.78,0.64,0
0.039111,-0.0020349,0.056894,-0.00037137,0.016957,0.00019386,0,0,0.051918,-0.022527,0,0.00050404,0,0,0,0.056895,-0.00037203,0.016957,0.19396,0.024493,0.050866,4.2099e-06,0.79,0.64,0
0.03963,-0.0020385,0.056882,-0.00037838,0.016951,0.00018655,0,0,0.05191,-0.022528,0,0.00048503,0,0,0,0.056882,-0.00037899,0.016951,0.18666,0.024485,0.050861,4.2077e-06,0.8,0.64,0
0.040149,-0.0020418,0.05687,-0.00038471,0.016945,0.00017891,0,0,0.051901,-0.022529,0,0.00046515,0,0,0,0.05687,-0.00038527,0.016945,0.17903,0.024477,0.050855,4.2056e-06,0.81,0.64,0
0.040669,-0.0020449,0.056858,-0.00039041,0.01694,0.00017096,0,0,0.051893,-0.02253,0,0.0004445,0,0,0,0.056859,-0.00039092,0.01694,0.1711,0.024469,0.05085,4.2035e-06,0.82,0.64,0
0.041187,-0.0020478,0.056848,-0.00039555,0.016936,0.00016275,0,0,0.051886,-0.02253,0,0.00042314,0,0,0,0.056848,-0.00039601,0.016936,0.16289,0.024463,0.050844,4.2015e-06,0.83,0.64,0
0.041706,-0.0020505,0.056837,-0.00040015,0.016931,0.00015428,0,0,0.051878,-0.022531,0,0.00040112,0,0,0,0.056838,-0.00040057,0.016931,0.15443,0.024456,0.050839,4.1996e-06,0.84,0.64,0
0.042225,-0.002053,0.056828,-0.00040427,0.016927,0.00014559,0,0,0.051871,-0.022531,0,0.00037853,0,0,0,0.056828,-0.00040464,0.016927,0.14575,0.02445,0.050833,4.1977e-06,0.85,0.64,0
0.042744,-0.0020553,0.056819,-0.00040795,0.016923,0.00013669,0,0,0.051864,-0.02253,0,0.0003554,0,0,0,0.056819,-0.00040827,0.016923,0.13686,0.024445,0.050828,4.196e-06,0.86,0.64,0
0.043262,-0.0020573,0.05681,-0.00041122,0.01692,0.00012761,0,0,0.051858,-0.02253,0,0.00033179,0,0,0,0.05681,-0.0004115,0.01692,0.12778,0.024439,0.050823,4.1944e-06,0.87,0.64,0
0.043781,-0.0020593,0.056802,-0.00041411,0.016916,0.00011837,0,0,0.051851,-0.02253,0,0.00030776,0,0,0,0.056802,-0.00041435,0.016916,0.11853,0.024435,0.050818,4.1928e-06,0.88,0.64,0
0.044299,-0.002061,0.056795,-0.00041666,0.016913,0.00010898,0,0,0.051846,-0.022529,0,0.00028335,0,0,0,0.056795,-0.00041687,0.016913,0.10914,0.024431,0.050814,4.1914e-06,0.89,0.64,0
0.044818,-0.0020625,0.056788,-0.0004189,0.016911,9.9457e-05,0,0,0.051841,-0.022529,0,0.00025859,0,0,0,0.056788,-0.00041907,0.016911,0.099611,0.024427,0.05081,4.1901e-06,0.9,0.64,0
0.045336,-0.002064,0.056782,-0.00042084,0.016908,8.982e-05,0,0,0.051836,-0.022528,0,0.00023353,0,0,0,0.056782,-0.00042099,0.016908,0.089966,0.024423,0.050806,4.1889e-06,0.91,0.64,0
0.045854,-0.0020652,0.056777,-0.00042253,0.016906,8.0082e-05,0,0,0.051832,-0.022527,0,0.00020821,0,0,0,0.056777,-0.00042264,0.016906,0.080217,0.02442,0.050802,4.1878e-06,0.92,0.64,0
0.046373,-0.0020663,0.056772,-0.00042396,0.016904,7.0255e-05,0,0,0.051828,-0.022527,0,0.00018266,0,0,0,0.056772,-0.00042405,0.016904,0.070378,0.024417,0.050799,4.1868e-06,0.93,0.64,0
0.046891,-0.0020672,0.056768,-0.00042517,0.016903,6.0353e-05,0,0,0.051824,-0.022526,0,0.00015692,0,0,0,0.056768,-0.00042523,0.016903,0.060462,0.024415,0.050796,4.186e-06,0.94,0.64,0
0.047409,-0.002068,0.056764,-0.00042617,0.016901,5.0388e-05,0,0,0.051821,-0.022526,0,0.00013101,0,0,0,0.056764,-0.00042621,0.016901,0.050481,0.024413,0.050794,4.1853e-06,0.95,0.64,0
0.047927,-0.0020686,0.056761,-0.00042697,0.0169,4.0372e-05,0,0,0.051819,-0.022525,0,0.00010497,0,0,0,0.056761,-0.000427,0.0169,0.040448,0.024411,0.050792,4.1847e-06,0.96,0.64,0
0.048446,-0.0020691,0.056759,-0.00042758,0.016899,3.0314e-05,0,0,0.051817,-0.022525,0,7.8816e-05,0,0,0,0.056759,-0.00042759,0.016899,0.030372,0.02441,0.05079,4.1842e-06,0.97,0.64,0
0.048964,-0.0020695,0.056757,-0.00042801,0.016899,2.0226e-05,0,0,0.051816,-0.022525,0,5.2588e-05,0,0,0,0.056757,-0.00042801,0.016899,0.020265,0.024409,0.050789,4.1839e-06,0.98,0.64,0
0.049482,-0.0020697,0.056756,-0.00042826,0.016898,1.0118e-05,0,0,0.051815,-0.022525,0,2.6307e-05,0,0,0,0.056756,-0.00042826,0.016898,0.010138,0.024409,0.050788,4.1837e-06,0.99,0.64,0
0.05,-0.0020697,0.056756,-0.00042835,0.016898,-2.6847e-06,0,0,0.051815,-0.022525,0,-6.9802e-06,0,0,0,0.056756,-0.00042835,0.016898,-0.0026899,0.024409,0.050788,4.1837e-06,1,0.64,0
0,0,0.051334,0.022,0.022,-0.00095841,0,0,0.038134,0,0,-0.0024919,0,0,0,0.051366,0.021969,0.022,-1.8693,0.031778,0.029381,1.3026e-06,0,0.65,0
0.00038134,-2.4919e-05,0.051232,0.020816,0.021615,-0.00097014,0,0,0.038503,-0.0010377,0,-0.0025224,0,0,0,0.051263,0.020785,0.021615,-1.825,0.031221,0.030072,1.3931e-06,0.01,0.65,0
0.00077006,-5.1346e-05,0.051625,0.019852,0.021443,-0.0010193,0,0,0.039237,-0.0020689,0,-0.0026501,0,0,0,0.051658,0.019819,0.021443,-1.8355,0.030973,0.031059,1.5246e-06,0.02,0.65,0
0.0011661,-7.9515e-05,0.052011,0.018898,0.021273,-0.00108,0,0,0.03996,-0.0030868,0,-0.0028081,0,0,0,0.052047,0.018863,0.021273,-1.8662,0.030728,0.032046,1.6581e-06,0.03,0.65,0
0.0015693,-0.00010962,0.052387,0.017962,0.021105,-0.0011503,0,0,0.040667,-0.0040855,0,-0.0029908,0,0,0,0.052426,0.017924,0.021105,-1.9117,0.030485,0.033027,1.7924e-06,0.04,0.65,0
0.0019794,-0.00014182,0.052751,0.017048,0.02094,-0.0012272,0,0,0.041355,-0.0050593,0,-0.0031908,0,0,0,0.052793,0.017006,0.02094,-1.9664,0.030246,0.033991,1.9263e-06,0.05,0.65,0
0.0023964,-0.00017622,0.053099,0.016159,0.020778,-0.0013078,0,0,0.042018,-0.0060037,0,-0.0034002,0,0,0,0.053145,0.016113,0.020778,-2.025,0.030012,0.034934,2.0587e-06,0.06,0.65,0
0.0028198,-0.00021287,0.053431,0.0153,0.020619,-0.0013887,0,0,0.042655,-0.0069153,0,-0.0036107,0,0,0,0.053482,0.015249,0.020619,-2.083,0.029783,0.03585,2.1885e-06,0.07,0.65,0
0.0032495,-0.00025176,0.053746,0.014471,0.020465,-0.0014671,0,0,0.043265,-0.0077918,0,-0.0038144,0,0,0,0.0538,0.014417,0.020465,-2.1363,0.029561,0.036735,2.315e-06,0.08,0.65,0
0.0036851,-0.00029283,0.054042,0.013676,0.020315,-0.0015401,0,0,0.043845,-0.0086316,0,-0.0040044,0,0,0,0.054101,0.013617,0.020315,-2.1818,0.029344,0.037585,2.4375e-06,0.09,0.65,0
0.0041264,-0.00033597,0.054321,0.012913,0.02017,-0.0016056,0,0,0.044396,-0.0094343,0,-0.0041746,0,0,0,0.054383,0.012851,0.02017,-2.2172,0.029135,0.0384,2.5555e-06,0.1,0.65,0
0.004573,-0.00038103,0.054582,0.012184,0.02003,-0.0016617,0,0,0.044918,-0.0102,0,-0.0043203,0,0,0,0.054647,0.012119,0.02003,-2.2409,0.028932,0.039177,2.6687e-06,0.11,0.65,0
0.0050247,-0.00042785,0.054826,0.011487,0.019894,-0.0017071,0,0,0.045412,-0.010929,0,-0.0044383,0,0,0,0.054893,0.01142,0.019894,-2.2521,0.028736,0.039917,2.7768e-06,0.12,0.65,0
0.0054812,-0.00047621,0.055054,0.010823,0.019763,-0.001741,0,0,0.045878,-0.011622,0,-0.0045266,0,0,0,0.055122,0.010754,0.019763,-2.2506,0.028547,0.04062,2.8797e-06,0.13,0.65,0
0.0059423,-0.00052589,0.055266,0.01019,0.019637,-0.0017631,0,0,0.046318,-0.012281,0,-0.0045841,0,0,0,0.055335,0.010121,0.019637,-2.2365,0.028364,0.041287,2.9774e-06,0.14,0.65,0
0.0064076,-0.00057667,0.055463,0.0095871,0.019515,-0.0017735,0,0,0.046733,-0.012906,0,-0.004611,0,0,0,0.055532,0.0095187,0.019515,-2.2105,0.028188,0.041918,3.07e-06,0.15,0.65,0
0.0068769,-0.00062832,0.055646,0.0090138,0.019398,-0.0017723,0,0,0.047123,-0.0135,0,-0.004608,0,0,0,0.055714,0.0089465,0.019398,-2.1734,0.028019,0.042516,3.1575e-06,0.16,0.65,0
0.0073501,-0.00068061,0.055816,0.0084686,0.019286,-0.0017603,0,0,0.04749,-0.014062,0,-0.0045767,0,0,0,0.055882,0.0084033,0.019286,-2.1262,0.027857,0.043081,3.24e-06,0.17,0.65,0
0.0078267,-0.00073331,0.055974,0.0079507,0.019177,-0.0017381,0,0,0.047835,-0.014595,0,-0.004519,0,0,0,0.056037,0.0078879,0.019177,-2.0701,0.0277,0.043614,3.3178e-06,0.18,0.65,0
0.0083068,-0.00078622,0.056119,0.0074588,0.019073,-0.0017066,0,0,0.04816,-0.015099,0,-0.0044371,0,0,0,0.056179,0.007399,0.019073,-2.0061,0.02755,0.044117,3.3909e-06,0.19,0.65,0
0.0087899,-0.00083913,0.056253,0.006992,0.018974,-0.0016667,0,0,0.048464,-0.015576,0,-0.0043333,0,0,0,0.05631,0.0069357,0.018974,-1.9356,0.027406,0.044591,3.4595e-06,0.2,0.65,0
0.009276,-0.00089186,0.056377,0.0065493,0.018878,-0.0016194,0,0,0.048749,-0.016027,0,-0.0042104,0,0,0,0.05643,0.0064968,0.018878,-1.8595,0.027268,0.045037,3.5238e-06,0.21,0.65,0
0.0097649,-0.00094423,0.056491,0.0061297,0.018786,-0.0015657,0,0,0.049016,-0.016453,0,-0.0040708,0,0,0,0.056539,0.0060811,0.018786,-1.779,0.027135,0.045457,3.5839e-06,0.22,0.65,0
0.010256,-0.00099608,0.056595,0.0057322,0.018698,-0.0015065,0,0,0.049266,-0.016856,0,-0.003917,0,0,0,0.056639,0.0056876,0.018698,-1.6951,0.027008,0.045852,3.6402e-06,0.23,0.65,0
0.01075,-0.0010473,0.05669,0.0053559,0.018614,-0.0014429,0,0,0.049499,-0.017235,0,-0.0037514,0,0,0,0.05673,0.0053154,0.018614,-1.6087,0.026886,0.046223,3.6926e-06,0.24,0.65,0
0.011246,-0.0010977,0.056776,0.0049999,0.018533,-0.0013756,0,0,0.049716,-0.017593,0,-0.0035765,0,0,0,0.056813,0.0049634,0.018533,-1.5208,0.02677,0.046572,3.7415e-06,0.25,0.65,0
0.011744,-0.0011472,0.056855,0.0046633,0.018455,-0.0013055,0,0,0.049919,-0.01793,0,-0.0033943,0,0,0,0.056887,0.0046307,0.018455,-1.432,0.026658,0.046898,3.787e-06,0.26,0.65,0
0.012245,-0.0011958,0.056926,0.0043452,0.018381,-0.0012334,0,0,0.050108,-0.018247,0,-0.0032069,0,0,0,0.056954,0.0043163,0.018381,-1.343,0.026551,0.047204,3.8292e-06,0.27,0.65,0
0.012747,-0.0012432,0.056989,0.0040448,0.01831,-0.00116,0,0,0.050283,-0.018545,0,-0.003016,0,0,0,0.057015,0.0040194,0.01831,-1.2545,0.026448,0.047491,3.8683e-06,0.28,0.65,0
0.01325,-0.0012896,0.057046,0.0037612,0.018242,-0.0010859,0,0,0.050445,-0.018825,0,-0.0028234,0,0,0,0.057069,0.0037391,0.018242,-1.167,0.02635,0.047759,3.9046e-06,0.29,0.65,0
0.013756,-0.0013347,0.057097,0.0034937,0.018177,-0.0010118,0,0,0.050596,-0.019089,0,-0.0026306,0,0,0,0.057116,0.0034746,0.018177,-1.081,0.026256,0.04801,3.9381e-06,0.3,0.65,0
0.014262,-0.0013786,0.057142,0.0032415,0.018115,-0.00093805,0,0,0.050735,-0.019336,0,-0.0024389,0,0,0,0.057159,0.0032252,0.018115,-0.99673,0.026166,0.048244,3.969e-06,0.31,0.65,0
0.01477,-0.0014211,0.057182,0.0030038,0.018056,-0.00086518,0,0,0.050864,-0.019567,0,-0.0022495,0,0,0,0.057195,0.00299,0.018056,-0.91466,0.02608,0.048462,3.9975e-06,0.32,0.65,0
0.01528,-0.0014624,0.057216,0.0027799,0.017999,-0.00079358,0,0,0.050982,-0.019785,0,-0.0020633,0,0,0,0.057227,0.0027684,0.017999,-0.83503,0.025998,0.048665,4.0237e-06,0.33,0.65,0
0.01579,-0.0015024,0.057245,0.0025692,0.017944,-0.00072358,0,0,0.051091,-0.019988,0,-0.0018813,0,0,0,0.057255,0.0025596,0.017944,-0.75807,0.02592,0.048855,4.0477e-06,0.34,0.65,0
0.016301,-0.001541,0.05727,0.0023708,0.017892,-0.00065547,0,0,0.051191,-0.020178,0,-0.0017042,0,0,0,0.057278,0.002363,0.017892,-0.68395,0.025844,0.049031,4.0697e-06,0.35,0.65,0
0.016814,-0.0015782,0.057291,0.0021843,0.017843,-0.00058948,0,0,0.051283,-0.020356,0,-0.0015327,0,0,0,0.057298,0.002178,0.017843,-0.6128,0.025773,0.049195,4.0898e-06,0.36,0.65,0
0.017327,-0.0016142,0.057308,0.0020089,0.017795,-0.00052582,0,0,0.051367,-0.020522,0,-0.0013671,0,0,0,0.057313,0.0020039,0.017795,-0.54474,0.025704,0.049347,4.1081e-06,0.37,0.65,0
0.017841,-0.0016488,0.057322,0.0018441,0.01775,-0.00046463,0,0,0.051444,-0.020677,0,-0.001208,0,0,0,0.057326,0.0018403,0.01775,-0.47981,0.025639,0.049487,4.1248e-06,0.38,0.65,0
0.018356,-0.001682,0.057332,0.0016894,0.017707,-0.00040604,0,0,0.051513,-0.020822,0,-0.0010557,0,0,0,0.057335,0.0016864,0.017707,-0.41807,0.025576,0.049618,4.1399e-06,0.39,0.65,0
0.018871,-0.001714,0.05734,0.001544,0.017665,-0.00035014,0,0,0.051577,-0.020957,0,-0.00091036,0,0,0,0.057342,0.0015418,0.017665,-0.35953,0.025516,0.049738,4.1535e-06,0.4,0.65,0
0.019387,-0.0017446,0.057344,0.0014076,0.017625,-0.00029698,0,0,0.051634,-0.021083,0,-0.00077215,0,0,0,0.057346,0.0014061,0.017625,-0.30419,0.025459,0.04985,4.1658e-06,0.41,0.65,0
0.019904,-0.0017741,0.057346,0.0012797,0.017588,-0.0002466,0,0,0.051686,-0.0212,0,-0.00064117,0,0,0,0.057347,0.0012786,0.017588,-0.252,0.025404,0.049952,4.1768e-06,0.42,0.65,0
0.020421,-0.0018022,0.057346,0.0011597,0.017552,-0.00019902,0,0,0.051732,-0.021309,0,-0.00051745,0,0,0,0.057346,0.001159,0.017552,-0.20295,0.025352,0.050047,4.1866e-06,0.43,0.65,0
0.020939,-0.0018292,0.057343,0.0010472,0.017517,-0.00015422,0,0,0.051774,-0.021411,0,-0.00040097,0,0,0,0.057344,0.0010468,0.017517,-0.15696,0.025303,0.050134,4.1953e-06,0.44,0.65,0
0.021457,-0.001855,0.057339,0.00094189,0.017484,-0.00011218,0,0,0.051811,-0.021505,0,-0.00029167,0,0,0,0.057339,0.00094166,0.017484,-0.11397,0.025255,0.050213,4.203e-06,0.45,0.65,0
0.021975,-0.0018796,0.057333,0.00084323,0.017453,-7.2867e-05,0,0,0.051844,-0.021593,0,-0.00018945,0,0,0,0.057333,0.00084313,0.017453,-0.073906,0.02521,0.050286,4.2098e-06,0.46,0.65,0
0.022493,-0.0019032,0.057325,0.00075088,0.017423,-3.6226e-05,0,0,0.051873,-0.021674,0,-9.4188e-05,0,0,0,0.057325,0.00075086,0.017423,-0.036688,0.025166,0.050353,4.2157e-06,0.47,0.65,0
0.023012,-0.0019256,0.057316,0.00066449,0.017394,-2.1978e-06,0,0,0.051899,-0.021749,0,-5.7143e-06,0,0,0,0.057316,0.00066449,0.017394,-0.0022228,0.025125,0.050414,4.2207e-06,0.48,0.65,0
0.023532,-0.0019471,0.057306,0.00058371,0.017367,2.9287e-05,0,0,0.051921,-0.021818,0,7.6146e-05,0,0,0,0.057306,0.00058369,0.017367,0.029583,0.025086,0.050469,4.2251e-06,0.49,0.65,0
0.024051,-0.0019675,0.057295,0.00050821,0.017341,5.8304e-05,0,0,0.05194,-0.021882,0,0.00015159,0,0,0,0.057295,0.00050815,0.017341,0.058827,0.025048,0.050519,4.2287e-06,0.5,0.65,0
0.02457,-0.0019869,0.057282,0.00043768,0.017316,8.4936e-05,0,0,0.051956,-0.021942,0,0.00022083,0,0,0,0.057282,0.00043756,0.017316,0.085609,0.025012,0.050564,4.2317e-06,0.51,0.65,0
0.02509,-0.0020054,0.057269,0.00037184,0.017292,0.00010927,0,0,0.05197,-0.021996,0,0.00028409,0,0,0,0.057269,0.00037163,0.017292,0.11003,0.024978,0.050605,4.2341e-06,0.52,0.65,0
0.02561,-0.002023,0.057255,0.00031041,0.01727,0.00013139,0,0,0.051981,-0.022047,0,0.0003416,0,0,0,0.057255,0.0003101,0.01727,0.1322,0.024945,0.050642,4.2359e-06,0.53,0.65,0
0.02613,-0.0020397,0.05724,0.00025312,0.017248,0.00015138,0,0,0.05199,-0.022093,0,0.0003936,0,0,0,0.057241,0.00025272,0.017248,0.1522,0.024914,0.050675,4.2373e-06,0.54,0.65,0
0.026649,-0.0020556,0.057225,0.00019974,0.017227,0.00016935,0,0,0.051997,-0.022136,0,0.00044032,0,0,0,0.057225,0.00019923,0.017227,0.17015,0.024884,0.050704,4.2382e-06,0.55,0.65,0
0.027169,-0.0020706,0.057209,0.00015002,0.017208,0.00018538,0,0,0.052002,-0.022175,0,0.000482,0,0,0,0.05721,0.00014942,0.017208,0.18615,0.024856,0.05073,4.2387e-06,0.56,0.65,0
0.027689,-0.002085,0.057193,0.00010375,0.017189,0.00019957,0,0,0.052005,-0.022211,0,0.00051889,0,0,0,0.057194,0.00010305,0.017189,0.20029,0.024829,0.050753,4.2389e-06,0.57,0.65,0
0.02821,-0.0020985,0.057176,6.0726e-05,0.017171,0.00021201,0,0,0.052007,-0.022244,0,0.00055122,0,0,0,0.057177,5.9939e-05,0.017171,0.21267,0.024803,0.050772,4.2387e-06,0.58,0.65,0
0.02873,-0.0021114,0.05716,2.0744e-05,0.017154,0.00022278,0,0,0.052007,-0.022273,0,0.00057922,0,0,0,0.057161,1.9875e-05,0.017154,0.22339,0.024778,0.05079,4.2382e-06,0.59,0.65,0
0.02925,-0.0021236,0.057143,-1.6381e-05,0.017138,0.00023197,0,0,0.052006,-0.022301,0,0.00060313,0,0,0,0.057144,-1.7322e-05,0.017138,0.23252,0.024755,0.050804,4.2374e-06,0.6,0.65,0
0.02977,-0.0021351,0.057126,-5.0822e-05,0.017122,0.00023968,0,0,0.052004,-0.022325,0,0.00062318,0,0,0,0.057127,-5.1827e-05,0.017122,0.24018,0.024733,0.050817,4.2363e-06,0.61,0.65,0
0.03029,-0.002146,0.057109,-8.2748e-05,0.017108,0.00024599,0,0,0.052001,-0.022348,0,0.00063957,0,0,0,0.05711,-8.3806e-05,0.017108,0.24643,0.024711,0.050827,4.2351e-06,0.62,0.65,0
0.03081,-0.0021563,0.057091,-0.00011231,0.017094,0.00025097,0,0,0.051997,-0.022368,0,0.00065252,0,0,0,0.057092,-0.00011341,0.017094,0.25137,0.024691,0.050836,4.2336e-06,0.63,0.65,0
0.03133,-0.0021661,0.057074,-0.00013967,0.01708,0.00025471,0,0,0.051992,-0.022386,0,0.00066224,0,0,0,0.057076,-0.0001408,0.01708,0.25507,0.024672,0.050842,4.232e-06,0.64,0.65,0
0.03185,-0.0021753,0.057057,-0.00016495,0.017068,0.00025728,0,0,0.051986,-0.022402,0,0.00066893,0,0,0,0.057058,-0.00016611,0.017068,0.2576,0.024653,0.050847,4.2302e-06,0.65,0.65,0
0.03237,-0.002184,0.05704,-0.0001883,0.017056,0.00025876,0,0,0.05198,-0.022417,0,0.00067277,0,0,0,0.057042,-0.00018947,0.017056,0.25905,0.024636,0.050851,4.2283e-06,0.66,0.65,0
0.032889,-0.0021922,0.057024,-0.00020983,0.017044,0.00025921,0,0,0.051973,-0.02243,0,0.00067395,0,0,0,0.057025,-0.00021101,0.017044,0.25949,0.024619,0.050854,4.2263e-06,0.67,0.65,0
0.033409,-0.0022,0.057007,-0.00022967,0.017033,0.00025871,0,0,0.051966,-0.022442,0,0.00067264,0,0,0,0.057008,-0.00023084,0.017033,0.25897,0.024604,0.050855,4.2241e-06,0.68,0.65,0
0.033929,-0.0022073,0.056991,-0.00024793,0.017023,0.00025731,0,0,0.051958,-0.022452,0,0.00066901,0,0,0,0.056992,-0.00024909,0.017023,0.25756,0.024589,0.050855,4.222e-06,0.69,0.65,0
0.034448,-0.0022142,0.056975,-0.00026471,0.017013,0.00025509,0,0,0.05195,-0.022461,0,0.00066322,0,0,0,0.056976,-0.00026584,0.017013,0.25533,0.024574,0.050854,4.2197e-06,0.7,0.65,0
0.034968,-0.0022206,0.056959,-0.00028011,0.017004,0.00025208,0,0,0.051942,-0.022469,0,0.00065542,0,0,0,0.05696,-0.00028122,0.017004,0.25233,0.024561,0.050852,4.2174e-06,0.71,0.65,0
0.035487,-0.0022267,0.056944,-0.00029423,0.016995,0.00024837,0,0,0.051934,-0.022476,0,0.00064575,0,0,0,0.056945,-0.0002953,0.016995,0.24861,0.024548,0.05085,4.2151e-06,0.72,0.65,0
0.036006,-0.0022324,0.056929,-0.00030715,0.016987,0.00024398,0,0,0.051925,-0.022482,0,0.00063435,0,0,0,0.05693,-0.00030819,0.016987,0.24423,0.024536,0.050847,4.2128e-06,0.73,0.65,0
0.036526,-0.0022378,0.056914,-0.00031896,0.016979,0.00023898,0,0,0.051916,-0.022487,0,0.00062135,0,0,0,0.056915,-0.00031996,0.016979,0.23924,0.024525,0.050843,4.2105e-06,0.74,0.65,0
0.037045,-0.0022429,0.0569,-0.00032974,0.016971,0.00023341,0,0,0.051908,-0.022491,0,0.00060686,0,0,0,0.056901,-0.0003307,0.016971,0.23367,0.024514,0.050839,4.2081e-06,0.75,0.65,0
0.037564,-0.0022476,0.056886,-0.00033957,0.016964,0.00022731,0,0,0.051899,-0.022495,0,0.00059101,0,0,0,0.056887,-0.00034047,0.016964,0.22758,0.024504,0.050834,4.2058e-06,0.76,0.65,0
0.038083,-0.002252,0.056873,-0.00034851,0.016957,0.00022073,0,0,0.05189,-0.022498,0,0.00057389,0,0,0,0.056874,-0.00034936,0.016957,0.22101,0.024494,0.05083,4.2036e-06,0.77,0.65,0
0.038601,-0.0022562,0.05686,-0.00035662,0.016951,0.0002137,0,0,0.051882,-0.0225,0,0.00055561,0,0,0,0.056861,-0.00035742,0.016951,0.21399,0.024485,0.050825,4.2013e-06,0.78,0.65,0
0.03912,-0.00226,0.056848,-0.00036398,0.016945,0.00020626,0,0,0.051873,-0.022502,0,0.00053627,0,0,0,0.056848,-0.00036472,0.016945,0.20656,0.024476,0.050819,4.1991e-06,0.79,0.65,0
0.039639,-0.0022636,0.056836,-0.00037064,0.016939,0.00019844,0,0,0.051865,-0.022503,0,0.00051595,0,0,0,0.056836,-0.00037132,0.016939,0.19875,0.024468,0.050814,4.197e-06,0.8,0.65,0
0.040157,-0.002267,0.056824,-0.00037665,0.016934,0.00019028,0,0,0.051857,-0.022504,0,0.00049474,0,0,0,0.056825,-0.00037728,0.016934,0.1906,0.024461,0.050809,4.1949e-06,0.81,0.65,0
0.040676,-0.0022701,0.056813,-0.00038206,0.016929,0.00018181,0,0,0.051849,-0.022505,0,0.00047271,0,0,0,0.056814,-0.00038264,0.016929,0.18213,0.024453,0.050803,4.1929e-06,0.82,0.65,0
0.041195,-0.002273,0.056803,-0.00038693,0.016925,0.00017305,0,0,0.051842,-0.022505,0,0.00044994,0,0,0,0.056803,-0.00038745,0.016925,0.17337,0.024447,0.050798,4.191e-06,0.83,0.65,0
0.041713,-0.0022757,0.056793,-0.00039129,0.016921,0.00016404,0,0,0.051834,-0.022505,0,0.00042649,0,0,0,0.056794,-0.00039176,0.016921,0.16435,0.024441,0.050792,4.1891e-06,0.84,0.65,0
0.042231,-0.0022782,0.056784,-0.00039519,0.016917,0.00015478,0,0,0.051827,-0.022505,0,0.00040243,0,0,0,0.056784,-0.00039561,0.016917,0.1551,0.024435,0.050787,4.1874e-06,0.85,0.65,0
0.042749,-0.0022804,0.056775,-0.00039867,0.016913,0.00014531,0,0,0.051821,-0.022505,0,0.00037781,0,0,0,0.056775,-0.00039904,0.016913,0.14562,0.02443,0.050782,4.1857e-06,0.86,0.65,0
0.043268,-0.0022825,0.056767,-0.00040176,0.01691,0.00013565,0,0,0.051815,-0.022505,0,0.00035269,0,0,0,0.056767,-0.00040208,0.01691,0.13595,0.024425,0.050777,4.1841e-06,0.87,0.65,0
0.043786,-0.0022844,0.056759,-0.0004045,0.016907,0.00012582,0,0,0.051809,-0.022504,0,0.00032713,0,0,0,0.05676,-0.00040477,0.016907,0.12611,0.024421,0.050773,4.1827e-06,0.88,0.65,0
0.044304,-0.0022862,0.056752,-0.00040691,0.016904,0.00011583,0,0,0.051803,-0.022504,0,0.00030116,0,0,0,0.056753,-0.00040714,0.016904,0.11611,0.024416,0.050768,4.1813e-06,0.89,0.65,0
0.044822,-0.0022877,0.056746,-0.00040902,0.016901,0.00010571,0,0,0.051798,-0.022503,0,0.00027484,0,0,0,0.056746,-0.00040921,0.016901,0.10597,0.024413,0.050764,4.18e-06,0.9,0.65,0
0.04534,-0.0022891,0.05674,-0.00041085,0.016899,9.5459e-05,0,0,0.051794,-0.022503,0,0.00024819,0,0,0,0.05674,-0.00041101,0.016899,0.095701,0.024409,0.050761,4.1789e-06,0.91,0.65,0
0.045858,-0.0022903,0.056735,-0.00041244,0.016897,8.5107e-05,0,0,0.05179,-0.022502,0,0.00022128,0,0,0,0.056735,-0.00041257,0.016897,0.085327,0.024406,0.050757,4.1779e-06,0.92,0.65,0
0.046376,-0.0022914,0.05673,-0.00041379,0.016895,7.4661e-05,0,0,0.051786,-0.022501,0,0.00019412,0,0,0,0.056731,-0.00041389,0.016895,0.074859,0.024404,0.050754,4.1769e-06,0.93,0.65,0
0.046893,-0.0022923,0.056726,-0.00041493,0.016893,6.4137e-05,0,0,0.051783,-0.022501,0,0.00016676,0,0,0,0.056726,-0.000415,0.016893,0.064311,0.024402,0.050751,4.1761e-06,0.94,0.65,0
0.047411,-0.0022931,0.056723,-0.00041587,0.016892,5.3546e-05,0,0,0.05178,-0.0225,0,0.00013922,0,0,0,0.056723,-0.00041592,0.016892,0.053693,0.0244,0.050749,4.1754e-06,0.95,0.65,0
0.047929,-0.0022937,0.05672,-0.00041662,0.016891,4.2901e-05,0,0,0.051778,-0.0225,0,0.00011154,0,0,0,0.05672,-0.00041665,0.016891,0.043021,0.024398,0.050747,4.1749e-06,0.96,0.65,0
0.048447,-0.0022942,0.056718,-0.00041719,0.01689,3.2213e-05,0,0,0.051776,-0.0225,0,8.3754e-05,0,0,0,0.056718,-0.00041721,0.01689,0.032304,0.024397,0.050746,4.1745e-06,0.97,0.65,0
0.048965,-0.0022946,0.056717,-0.0004176,0.01689,2.1493e-05,0,0,0.051775,-0.022499,0,5.5882e-05,0,0,0,0.056717,-0.00041761,0.01689,0.021554,0.024396,0.050745,4.1741e-06,0.98,0.65,0
0.049482,-0.0022948,0.056716,-0.00041784,0.016889,1.0752e-05,0,0,0.051774,-0.022499,0,2.7955e-05,0,0,0,0.056716,-0.00041784,0.016889,0.010782,0.024396,0.050744,4.174e-06,0.99,0.65,0
0.05,-0.0022949,0.056715,-0.00041792,0.016889,-2.666e-06,0,0,0.051774,-0.022499,0,-6.9315e-06,0,0,0,0.056715,-0.00041792,0.016889,-0.0026735,0.024396,0.050744,4.1739e-06,1,0.65,0
0,0,0.051396,0.022027,0.022027,-0.0013547,0,0,0.03818,5.421e-20,0,-0.0035221,0,0,0,0.051458,0.021964,0.022027,-2.6354,0.031816,0.029463,1.3135e-06,0,0.66,0
0.0003818,-3.5222e-05,0.051295,0.020858,0.021646,-0.0013647,0,0,0.038544,-0.0010246,0,-0.0035483,0,0,0,0.051356,0.020797,0.021646,-2.5621,0.031266,0.030144,1.403e-06,0.01,0.66,0
0.00077089,-7.1893e-05,0.051684,0.019904,0.021476,-0.0014089,0,0,0.03927,-0.0020439,0,-0.0036631,0,0,0,0.051746,0.019842,0.021476,-2.5334,0.031022,0.031119,1.5334e-06,0.02,0.66,0
0.0011672,-0.00011018,0.052067,0.01896,0.021308,-0.0014615,0,0,0.039986,-0.0030521,0,-0.0037999,0,0,0,0.052131,0.018896,0.021308,-2.5228,0.030778,0.032097,1.666e-06,0.03,0.66,0
0.0015706,-0.00015023,0.052441,0.018031,0.021142,-0.0015207,0,0,0.040689,-0.0040435,0,-0.0039538,0,0,0,0.052508,0.017964,0.021142,-2.5256,0.030538,0.03307,1.7997e-06,0.04,0.66,0
0.001981,-0.00019215,0.052803,0.017121,0.020977,-0.0015841,0,0,0.041374,-0.0050132,0,-0.0041187,0,0,0,0.052873,0.017051,0.020977,-2.537,0.0303,0.034029,1.9334e-06,0.05,0.66,0
0.0023981,-0.00023598,0.053152,0.016234,0.020816,-0.0016493,0,0,0.042037,-0.0059567,0,-0.0042881,0,0,0,0.053225,0.01616,0.020816,-2.5528,0.030067,0.034971,2.0659e-06,0.06,0.66,0
0.0028217,-0.00028176,0.053485,0.015372,0.020657,-0.0017135,0,0,0.042676,-0.0068706,0,-0.0044552,0,0,0,0.053562,0.015295,0.020657,-2.569,0.029838,0.035888,2.1963e-06,0.07,0.66,0
0.0032516,-0.00032943,0.053803,0.014539,0.020503,-0.0017744,0,0,0.04329,-0.0077522,0,-0.0046135,0,0,0,0.053883,0.014459,0.020503,-2.5823,0.029615,0.036776,2.3237e-06,0.08,0.66,0
0.0036875,-0.00037894,0.054103,0.013737,0.020352,-0.0018296,0,0,0.043876,-0.0085996,0,-0.0047571,0,0,0,0.054186,0.013654,0.020352,-2.5899,0.029397,0.037632,2.4475e-06,0.09,0.66,0
0.0041291,-0.00043015,0.054386,0.012966,0.020205,-0.0018773,0,0,0.044435,-0.0094118,0,-0.0048811,0,0,0,0.054471,0.012881,0.020205,-2.5898,0.029186,0.038455,2.567e-06,0.1,0.66,0
0.0045762,-0.00048293,0.054651,0.012226,0.020063,-0.001916,0,0,0.044964,-0.010188,0,-0.0049815,0,0,0,0.054738,0.01214,0.020063,-2.5806,0.02898,0.039241,2.6818e-06,0.11,0.66,0
0.0050284,-0.0005371,0.054899,0.011519,0.019925,-0.0019445,0,0,0.045466,-0.010929,0,-0.0050557,0,0,0,0.054986,0.011432,0.019925,-2.5614,0.028781,0.03999,2.7917e-06,0.12,0.66,0
0.0054855,-0.00059245,0.055131,0.010843,0.019792,-0.0019622,0,0,0.045941,-0.011634,0,-0.0051017,0,0,0,0.055218,0.010756,0.019792,-2.5319,0.028589,0.040703,2.8963e-06,0.13,0.66,0
0.0059472,-0.00064879,0.055346,0.010198,0.019663,-0.0019688,0,0,0.046388,-0.012305,0,-0.0051188,0,0,0,0.055432,0.010112,0.019663,-2.4922,0.028403,0.041379,2.9956e-06,0.14,0.66,0
0.0064133,-0.00070588,0.055546,0.0095841,0.019539,-0.0019643,0,0,0.046809,-0.012942,0,-0.0051073,0,0,0,0.05563,0.0095003,0.019539,-2.4428,0.028223,0.04202,3.0897e-06,0.15,0.66,0
0.0068834,-0.00076352,0.055732,0.0089998,0.019419,-0.0019492,0,0,0.047206,-0.013545,0,-0.0050678,0,0,0,0.055813,0.0089187,0.019419,-2.3843,0.02805,0.042625,3.1785e-06,0.16,0.66,0
0.0073574,-0.00082148,0.055903,0.0084444,0.019304,-0.0019238,0,0,0.047578,-0.014117,0,-0.0050019,0,0,0,0.05598,0.0083666,0.019304,-2.3175,0.027884,0.043196,3.2621e-06,0.17,0.66,0
0.007835,-0.00087955,0.05606,0.0079171,0.019193,-0.001889,0,0,0.047927,-0.014659,0,-0.0049114,0,0,0,0.056134,0.0078431,0.019193,-2.2435,0.027723,0.043735,3.3406e-06,0.18,0.66,0
0.0083159,-0.00093754,0.056205,0.0074167,0.019086,-0.0018455,0,0,0.048254,-0.015171,0,-0.0047983,0,0,0,0.056275,0.007347,0.019086,-2.1632,0.027569,0.044242,3.4143e-06,0.19,0.66,0
0.0088001,-0.00099526,0.056338,0.0069424,0.018984,-0.0017943,0,0,0.04856,-0.015654,0,-0.0046652,0,0,0,0.056403,0.0068773,0.018984,-2.0777,0.027421,0.044719,3.4831e-06,0.2,0.66,0
0.0092871,-0.0010525,0.056459,0.0064931,0.018886,-0.0017363,0,0,0.048846,-0.01611,0,-0.0045145,0,0,0,0.056519,0.0064328,0.018886,-1.9879,0.027279,0.045167,3.5475e-06,0.21,0.66,0
0.009777,-0.0011092,0.05657,0.0060678,0.018791,-0.0016725,0,0,0.049112,-0.01654,0,-0.0043486,0,0,0,0.056625,0.0060125,0.018791,-1.8948,0.027143,0.045587,3.6075e-06,0.22,0.66,0
0.010269,-0.0011651,0.05667,0.0056657,0.018701,-0.0016038,0,0,0.04936,-0.016946,0,-0.00417,0,0,0,0.056721,0.0056153,0.018701,-1.7993,0.027012,0.045981,3.6633e-06,0.23,0.66,0
0.010764,-0.0012201,0.056761,0.0052857,0.018614,-0.0015312,0,0,0.049591,-0.017327,0,-0.0039811,0,0,0,0.056807,0.0052401,0.018614,-1.7023,0.026887,0.04635,3.7151e-06,0.24,0.66,0
0.011261,-0.0012741,0.056843,0.0049267,0.018531,-0.0014555,0,0,0.049806,-0.017686,0,-0.0037842,0,0,0,0.056884,0.004886,0.018531,-1.6046,0.026767,0.046696,3.7632e-06,0.25,0.66,0
0.01176,-0.001327,0.056917,0.004588,0.018451,-0.0013774,0,0,0.050005,-0.018023,0,-0.0035813,0,0,0,0.056953,0.0045518,0.018451,-1.5068,0.026652,0.047019,3.8078e-06,0.26,0.66,0
0.012261,-0.0013787,0.056983,0.0042685,0.018375,-0.0012979,0,0,0.05019,-0.018339,0,-0.0033744,0,0,0,0.057015,0.0042366,0.018375,-1.4095,0.026542,0.047321,3.8489e-06,0.27,0.66,0
0.012764,-0.0014291,0.057041,0.0039674,0.018303,-0.0012175,0,0,0.05036,-0.018636,0,-0.0031654,0,0,0,0.057069,0.0039395,0.018303,-1.3134,0.026437,0.047602,3.8869e-06,0.28,0.66,0
0.013269,-0.0014782,0.057093,0.0036837,0.018233,-0.0011369,0,0,0.050518,-0.018914,0,-0.0029558,0,0,0,0.057117,0.0036595,0.018233,-1.2188,0.026337,0.047865,3.9219e-06,0.29,0.66,0
0.013775,-0.001526,0.057138,0.0034166,0.018166,-0.0010566,0,0,0.050663,-0.019175,0,-0.0027471,0,0,0,0.057159,0.0033959,0.018166,-1.1263,0.02624,0.04811,3.9541e-06,0.3,0.66,0
0.014282,-0.0015723,0.057177,0.0031653,0.018103,-0.00097716,0,0,0.050797,-0.019419,0,-0.0025406,0,0,0,0.057195,0.0031476,0.018103,-1.0361,0.026149,0.048337,3.9837e-06,0.31,0.66,0
0.01479,-0.0016172,0.057211,0.0029289,0.018042,-0.000899,0,0,0.05092,-0.019647,0,-0.0023374,0,0,0,0.057226,0.002914,0.018042,-0.94856,0.026061,0.048549,4.0107e-06,0.32,0.66,0
0.0153,-0.0016606,0.05724,0.0027067,0.017984,-0.00082249,0,0,0.051033,-0.01986,0,-0.0021385,0,0,0,0.057252,0.0026943,0.017984,-0.86389,0.025977,0.048746,4.0355e-06,0.33,0.66,0
0.015811,-0.0017026,0.057264,0.0024979,0.017929,-0.00074794,0,0,0.051136,-0.02006,0,-0.0019447,0,0,0,0.057274,0.0024877,0.017929,-0.7823,0.025897,0.048929,4.0581e-06,0.34,0.66,0
0.016323,-0.0017431,0.057284,0.0023017,0.017876,-0.00067563,0,0,0.051231,-0.020246,0,-0.0017566,0,0,0,0.057292,0.0022934,0.017876,-0.70392,0.02582,0.049098,4.0787e-06,0.35,0.66,0
0.016836,-0.0017821,0.0573,0.0021176,0.017825,-0.00060576,0,0,0.051317,-0.02042,0,-0.001575,0,0,0,0.057306,0.002111,0.017825,-0.62887,0.025747,0.049256,4.0974e-06,0.36,0.66,0
0.017349,-0.0018197,0.057312,0.0019448,0.017777,-0.00053853,0,0,0.051395,-0.020582,0,-0.0014002,0,0,0,0.057317,0.0019396,0.017777,-0.55722,0.025678,0.049401,4.1144e-06,0.37,0.66,0
0.017864,-0.0018558,0.05732,0.0017827,0.017731,-0.00047406,0,0,0.051466,-0.020733,0,-0.0012326,0,0,0,0.057325,0.0017787,0.017731,-0.48902,0.025611,0.049535,4.1297e-06,0.38,0.66,0
0.018379,-0.0018905,0.057326,0.0016307,0.017687,-0.00041246,0,0,0.051531,-0.020873,0,-0.0010724,0,0,0,0.057329,0.0016277,0.017687,-0.42428,0.025548,0.049659,4.1435e-06,0.39,0.66,0
0.018894,-0.0019238,0.057329,0.0014882,0.017645,-0.00035381,0,0,0.051589,-0.021004,0,-0.0009199,0,0,0,0.057331,0.001486,0.017645,-0.36301,0.025487,0.049774,4.1559e-06,0.4,0.66,0
0.01941,-0.0019557,0.05733,0.0013547,0.017605,-0.00029814,0,0,0.051641,-0.021126,0,-0.00077516,0,0,0,0.057331,0.0013532,0.017605,-0.30516,0.02543,0.049879,4.167e-06,0.41,0.66,0
0.019927,-0.0019863,0.057328,0.0012297,0.017567,-0.00024547,0,0,0.051689,-0.021239,0,-0.00063823,0,0,0,0.057329,0.0012286,0.017567,-0.25071,0.025375,0.049976,4.1769e-06,0.42,0.66,0
0.020444,-0.0020155,0.057324,0.0011126,0.017531,-0.00019581,0,0,0.051731,-0.021344,0,-0.00050911,0,0,0,0.057325,0.0011119,0.017531,-0.19959,0.025322,0.050065,4.1857e-06,0.43,0.66,0
0.020962,-0.0020435,0.057318,0.001003,0.017496,-0.00014913,0,0,0.051768,-0.021441,0,-0.00038774,0,0,0,0.057318,0.0010026,0.017496,-0.15173,0.025272,0.050146,4.1934e-06,0.44,0.66,0
0.021479,-0.0020702,0.057311,0.0009005,0.017463,-0.0001054,0,0,0.051801,-0.021532,0,-0.00027403,0,0,0,0.057311,0.00090031,0.017463,-0.10705,0.025225,0.050221,4.2001e-06,0.45,0.66,0
0.021998,-0.0020957,0.057302,0.00080463,0.017432,-6.4554e-05,0,0,0.051831,-0.021615,0,-0.00016784,0,0,0,0.057302,0.00080455,0.017432,-0.065467,0.025179,0.050289,4.206e-06,0.46,0.66,0
0.022516,-0.00212,0.057291,0.000715,0.017402,-2.6545e-05,0,0,0.051856,-0.021693,0,-6.9016e-05,0,0,0,0.057291,0.00071499,0.017402,-0.026882,0.025136,0.050351,4.211e-06,0.47,0.66,0
0.023035,-0.0021432,0.05728,0.00063126,0.017373,8.7043e-06,0,0,0.051878,-0.021765,0,2.2631e-05,0,0,0,0.05728,0.00063126,0.017373,0.0088037,0.025095,0.050408,4.2153e-06,0.48,0.66,0
0.023554,-0.0021653,0.057267,0.00055305,0.017346,4.1273e-05,0,0,0.051897,-0.021831,0,0.00010731,0,0,0,0.057267,0.00055302,0.017346,0.041696,0.025056,0.050459,4.2189e-06,0.49,0.66,0
0.024073,-0.0021863,0.057254,0.00048004,0.01732,7.1246e-05,0,0,0.051914,-0.021892,0,0.00018524,0,0,0,0.057254,0.00047995,0.01732,0.071901,0.025018,0.050505,4.2219e-06,0.5,0.66,0
0.024592,-0.0022064,0.057239,0.00041191,0.017295,9.8716e-05,0,0,0.051927,-0.021949,0,0.00025666,0,0,0,0.05724,0.00041173,0.017295,0.099529,0.024982,0.050547,4.2243e-06,0.51,0.66,0
0.025111,-0.0022254,0.057225,0.00034837,0.017272,0.00012378,0,0,0.051938,-0.022001,0,0.00032181,0,0,0,0.057225,0.0003481,0.017272,0.12469,0.024948,0.050585,4.2261e-06,0.52,0.66,0
0.025631,-0.0022435,0.057209,0.00028915,0.01725,0.00014652,0,0,0.051948,-0.022048,0,0.00038095,0,0,0,0.057209,0.00028877,0.01725,0.14749,0.024916,0.050618,4.2275e-06,0.53,0.66,0
0.02615,-0.0022606,0.057193,0.00023398,0.017228,0.00016705,0,0,0.051954,-0.022092,0,0.00043433,0,0,0,0.057194,0.00023349,0.017228,0.16804,0.024885,0.050648,4.2284e-06,0.54,0.66,0
0.02667,-0.0022769,0.057177,0.00018262,0.017208,0.00018547,0,0,0.051959,-0.022133,0,0.00048221,0,0,0,0.057177,0.00018201,0.017208,0.18644,0.024856,0.050675,4.2289e-06,0.55,0.66,0
0.027189,-0.0022924,0.05716,0.00013483,0.017188,0.00020186,0,0,0.051963,-0.02217,0,0.00052484,0,0,0,0.057161,0.00013411,0.017188,0.20282,0.024828,0.050698,4.229e-06,0.56,0.66,0
0.027709,-0.002307,0.057143,9.0394e-05,0.01717,0.00021634,0,0,0.051965,-0.022203,0,0.00056247,0,0,0,0.057144,8.9573e-05,0.01717,0.21726,0.024801,0.050719,4.2288e-06,0.57,0.66,0
0.028229,-0.0023209,0.057126,4.9105e-05,0.017152,0.00022899,0,0,0.051965,-0.022234,0,0.00059537,0,0,0,0.057126,4.8187e-05,0.017152,0.22987,0.024776,0.050737,4.2283e-06,0.58,0.66,0
0.028748,-0.0023341,0.057108,1.0769e-05,0.017136,0.00023991,0,0,0.051964,-0.022262,0,0.00062378,0,0,0,0.057109,9.7611e-06,0.017136,0.24074,0.024752,0.050752,4.2275e-06,0.59,0.66,0
0.029268,-0.0023465,0.057091,-2.4799e-05,0.01712,0.00024921,0,0,0.051962,-0.022288,0,0.00064794,0,0,0,0.057092,-2.5886e-05,0.01712,0.24999,0.024729,0.050765,4.2265e-06,0.6,0.66,0
0.029788,-0.0023583,0.057073,-5.7772e-05,0.017105,0.00025695,0,0,0.051959,-0.022311,0,0.00066808,0,0,0,0.057075,-5.8927e-05,0.017105,0.25769,0.024707,0.050776,4.2253e-06,0.61,0.66,0
0.030307,-0.0023694,0.057056,-8.8313e-05,0.01709,0.00026325,0,0,0.051956,-0.022332,0,0.00068444,0,0,0,0.057057,-8.9526e-05,0.01709,0.26393,0.024686,0.050785,4.2239e-06,0.62,0.66,0
0.030827,-0.0023799,0.057039,-0.00011658,0.017077,0.00026817,0,0,0.051951,-0.022351,0,0.00069723,0,0,0,0.05704,-0.00011783,0.017077,0.26882,0.024666,0.050792,4.2223e-06,0.63,0.66,0
0.031346,-0.0023899,0.057022,-0.00014271,0.017064,0.0002718,0,0,0.051945,-0.022368,0,0.00070668,0,0,0,0.057023,-0.000144,0.017064,0.27242,0.024647,0.050798,4.2205e-06,0.64,0.66,0
0.031866,-0.0023992,0.057005,-0.00016685,0.017051,0.00027423,0,0,0.051939,-0.022384,0,0.00071299,0,0,0,0.057006,-0.00016816,0.017051,0.27481,0.02463,0.050802,4.2187e-06,0.65,0.66,0
0.032385,-0.0024081,0.056988,-0.00018912,0.01704,0.00027552,0,0,0.051933,-0.022397,0,0.00071635,0,0,0,0.056989,-0.00019045,0.01704,0.27609,0.024613,0.050805,4.2167e-06,0.66,0.66,0
0.032904,-0.0024164,0.056971,-0.00020965,0.017028,0.00027575,0,0,0.051926,-0.02241,0,0.00071696,0,0,0,0.056973,-0.00021098,0.017028,0.2763,0.024597,0.050807,4.2146e-06,0.67,0.66,0
0.033424,-0.0024243,0.056955,-0.00022855,0.017018,0.000275,0,0,0.051918,-0.02242,0,0.000715,0,0,0,0.056956,-0.00022987,0.017018,0.27553,0.024581,0.050807,4.2125e-06,0.68,0.66,0
0.033943,-0.0024317,0.056939,-0.00024593,0.017008,0.00027332,0,0,0.05191,-0.02243,0,0.00071064,0,0,0,0.05694,-0.00024724,0.017008,0.27384,0.024567,0.050807,4.2103e-06,0.69,0.66,0
0.034462,-0.0024387,0.056923,-0.0002619,0.016998,0.00027079,0,0,0.051902,-0.022438,0,0.00070404,0,0,0,0.056925,-0.00026318,0.016998,0.2713,0.024553,0.050806,4.2081e-06,0.7,0.66,0
0.034981,-0.0024452,0.056908,-0.00027655,0.016989,0.00026745,0,0,0.051894,-0.022446,0,0.00069537,0,0,0,0.056909,-0.0002778,0.016989,0.26796,0.02454,0.050804,4.2058e-06,0.71,0.66,0
0.0355,-0.0024514,0.056893,-0.00028996,0.016981,0.00026337,0,0,0.051886,-0.022452,0,0.00068476,0,0,0,0.056894,-0.00029118,0.016981,0.26388,0.024528,0.050801,4.2035e-06,0.72,0.66,0
0.036018,-0.0024571,0.056878,-0.00030224,0.016973,0.0002586,0,0,0.051877,-0.022458,0,0.00067237,0,0,0,0.056879,-0.00030341,0.016973,0.25912,0.024516,0.050798,4.2012e-06,0.73,0.66,0
0.036537,-0.0024626,0.056864,-0.00031345,0.016965,0.0002532,0,0,0.051868,-0.022462,0,0.00065832,0,0,0,0.056865,-0.00031457,0.016965,0.25372,0.024505,0.050794,4.199e-06,0.74,0.66,0
0.037056,-0.0024677,0.05685,-0.00032367,0.016958,0.00024721,0,0,0.05186,-0.022466,0,0.00064273,0,0,0,0.056851,-0.00032474,0.016958,0.24773,0.024495,0.05079,4.1967e-06,0.75,0.66,0
0.037574,-0.0024724,0.056837,-0.00033299,0.016951,0.00024067,0,0,0.051851,-0.022469,0,0.00062573,0,0,0,0.056838,-0.000334,0.016951,0.24119,0.024485,0.050786,4.1945e-06,0.76,0.66,0
0.038093,-0.0024769,0.056824,-0.00034145,0.016945,0.00023363,0,0,0.051843,-0.022472,0,0.00060743,0,0,0,0.056825,-0.00034241,0.016945,0.23416,0.024476,0.050781,4.1922e-06,0.77,0.66,0
0.038611,-0.002481,0.056812,-0.00034914,0.016939,0.00022613,0,0,0.051835,-0.022474,0,0.00058793,0,0,0,0.056813,-0.00035003,0.016939,0.22666,0.024467,0.050776,4.1901e-06,0.78,0.66,0
0.039129,-0.0024849,0.0568,-0.0003561,0.016933,0.0002182,0,0,0.051826,-0.022476,0,0.00056733,0,0,0,0.0568,-0.00035693,0.016933,0.21874,0.024459,0.050771,4.188e-06,0.79,0.66,0
0.039648,-0.0024885,0.056788,-0.00036239,0.016928,0.00020989,0,0,0.051819,-0.022477,0,0.00054572,0,0,0,0.056789,-0.00036316,0.016928,0.21042,0.024451,0.050765,4.1859e-06,0.8,0.66,0
0.040166,-0.0024919,0.056777,-0.00036806,0.016923,0.00020122,0,0,0.051811,-0.022478,0,0.00052318,0,0,0,0.056778,-0.00036877,0.016923,0.20175,0.024444,0.05076,4.1839e-06,0.81,0.66,0
0.040684,-0.002495,0.056767,-0.00037318,0.016918,0.00019223,0,0,0.051803,-0.022479,0,0.0004998,0,0,0,0.056767,-0.00037382,0.016918,0.19275,0.024437,0.050755,4.182e-06,0.82,0.66,0
0.041202,-0.0024979,0.056757,-0.00037777,0.016914,0.00018294,0,0,0.051796,-0.022479,0,0.00047565,0,0,0,0.056757,-0.00037835,0.016914,0.18346,0.024431,0.05075,4.1801e-06,0.83,0.66,0
0.04172,-0.0025006,0.056747,-0.00038188,0.01691,0.00017338,0,0,0.051789,-0.022479,0,0.0004508,0,0,0,0.056748,-0.00038241,0.01691,0.17389,0.024425,0.050744,4.1783e-06,0.84,0.66,0
0.042238,-0.0025031,0.056738,-0.00038555,0.016906,0.00016358,0,0,0.051782,-0.022479,0,0.00042531,0,0,0,0.056739,-0.00038602,0.016906,0.16407,0.02442,0.050739,4.1767e-06,0.85,0.66,0
0.042756,-0.0025054,0.05673,-0.00038883,0.016902,0.00015356,0,0,0.051776,-0.022479,0,0.00039925,0,0,0,0.056731,-0.00038924,0.016902,0.15403,0.024415,0.050734,4.175e-06,0.86,0.66,0
0.043273,-0.0025075,0.056722,-0.00039173,0.016899,0.00014333,0,0,0.05177,-0.022478,0,0.00037267,0,0,0,0.056723,-0.00039209,0.016899,0.14379,0.02441,0.05073,4.1736e-06,0.87,0.66,0
0.043791,-0.0025094,0.056715,-0.0003943,0.016896,0.00013293,0,0,0.051765,-0.022478,0,0.00034563,0,0,0,0.056716,-0.00039461,0.016896,0.13337,0.024406,0.050725,4.1721e-06,0.88,0.66,0
0.044309,-0.0025111,0.056709,-0.00039656,0.016894,0.00012237,0,0,0.051759,-0.022477,0,0.00031816,0,0,0,0.056709,-0.00039683,0.016894,0.12278,0.024402,0.050721,4.1708e-06,0.89,0.66,0
0.044826,-0.0025126,0.056702,-0.00039854,0.016891,0.00011167,0,0,0.051755,-0.022477,0,0.00029033,0,0,0,0.056703,-0.00039876,0.016891,0.11205,0.024398,0.050717,4.1696e-06,0.9,0.66,0
0.045344,-0.002514,0.056697,-0.00040027,0.016889,0.00010084,0,0,0.05175,-0.022476,0,0.00026218,0,0,0,0.056697,-0.00040044,0.016889,0.10119,0.024395,0.050714,4.1685e-06,0.91,0.66,0
0.045861,-0.0025152,0.056692,-0.00040175,0.016887,8.9896e-05,0,0,0.051746,-0.022475,0,0.00023373,0,0,0,0.056692,-0.00040189,0.016887,0.090214,0.024392,0.05071,4.1675e-06,0.92,0.66,0
0.046379,-0.0025163,0.056688,-0.00040302,0.016885,7.886e-05,0,0,0.051743,-0.022475,0,0.00020504,0,0,0,0.056688,-0.00040313,0.016885,0.079143,0.02439,0.050707,4.1667e-06,0.93,0.66,0
0.046896,-0.0025172,0.056684,-0.00040408,0.016884,6.7741e-05,0,0,0.05174,-0.022474,0,0.00017613,0,0,0,0.056684,-0.00040416,0.016884,0.067988,0.024388,0.050705,4.1659e-06,0.94,0.66,0
0.047413,-0.002518,0.056681,-0.00040496,0.016883,5.6554e-05,0,0,0.051737,-0.022474,0,0.00014704,0,0,0,0.056681,-0.00040501,0.016883,0.056762,0.024386,0.050703,4.1653e-06,0.95,0.66,0
0.047931,-0.0025186,0.056678,-0.00040566,0.016882,4.5309e-05,0,0,0.051735,-0.022474,0,0.00011781,0,0,0,0.056678,-0.0004057,0.016882,0.045478,0.024385,0.050701,4.1647e-06,0.96,0.66,0
0.048448,-0.0025191,0.056676,-0.0004062,0.016881,3.4021e-05,0,0,0.051733,-0.022473,0,8.8454e-05,0,0,0,0.056676,-0.00040622,0.016881,0.034148,0.024383,0.050699,4.1643e-06,0.97,0.66,0
0.048965,-0.0025194,0.056674,-0.00040657,0.01688,2.2699e-05,0,0,0.051732,-0.022473,0,5.9017e-05,0,0,0,0.056674,-0.00040658,0.01688,0.022784,0.024383,0.050698,4.164e-06,0.98,0.66,0
0.049483,-0.0025197,0.056674,-0.0004068,0.01688,1.1355e-05,0,0,0.051731,-0.022473,0,2.9523e-05,0,0,0,0.056674,-0.0004068,0.01688,0.011398,0.024382,0.050698,4.1638e-06,0.99,0.66,0
0.05,-0.0025197,0.056673,-0.00040687,0.01688,-2.6477e-06,0,0,0.051731,-0.022473,0,-6.884e-06,0,0,0,0.056673,-0.00040687,0.01688,-0.0026577,0.024382,0.050697,4.1638e-06,1,0.66,0
0,0,0.051459,0.022054,0.022054,-0.0017466,0,0,0.038227,-2.7105e-19,0,-0.0045411,0,0,0,0.051562,0.021951,0.022054,-3.3873,0.031856,0.02956,1.3266e-06,0,0.67,0
0.00038227,-4.5411e-05,0.05136,0.020896,0.021677,-0.0017552,0,0,0.038588,-0.0010149,0,-0.0045634,0,0,0,0.051461,0.020795,0.021677,-3.2866,0.031311,0.030234,1.4154e-06,0.01,0.67,0
0.00077176,-9.2225e-05,0.051745,0.019951,0.021509,-0.001795,0,0,0.039308,-0.0020257,0,-0.004667,0,0,0,0.051846,0.01985,0.021509,-3.221,0.031068,0.0312,1.5451e-06,0.02,0.67,0
0.0011684,-0.00014056,0.052126,0.019013,0.021342,-0.0018404,0,0,0.040019,-0.0030272,0,-0.0047851,0,0,0,0.052228,0.018911,0.021342,-3.1715,0.030827,0.03217,1.6771e-06,0.03,0.67,0
0.0015722,-0.00019049,0.052498,0.018088,0.021176,-0.0018897,0,0,0.040719,-0.0040141,0,-0.0049133,0,0,0,0.052602,0.017985,0.021176,-3.134,0.030587,0.033137,1.8104e-06,0.04,0.67,0
0.0019828,-0.00024209,0.05286,0.01718,0.021012,-0.0019409,0,0,0.041402,-0.0049818,0,-0.0050464,0,0,0,0.052965,0.017074,0.021012,-3.1046,0.03035,0.034093,1.944e-06,0.05,0.67,0
0.0024002,-0.00029536,0.053209,0.016292,0.02085,-0.0019919,0,0,0.042067,-0.005926,0,-0.005179,0,0,0,0.053317,0.016185,0.02085,-3.0796,0.030117,0.035033,2.0768e-06,0.06,0.67,0
0.0028241,-0.00035028,0.053545,0.015428,0.020692,-0.0020406,0,0,0.042709,-0.0068431,0,-0.0053055,0,0,0,0.053653,0.015319,0.020692,-3.0557,0.029888,0.035951,2.2078e-06,0.07,0.67,0
0.0032544,-0.0004068,0.053864,0.01459,0.020536,-0.0020849,0,0,0.043326,-0.0077302,0,-0.0054206,0,0,0,0.053975,0.01448,0.020536,-3.0302,0.029663,0.036842,2.3361e-06,0.08,0.67,0
0.0036907,-0.00046482,0.054168,0.01378,0.020384,-0.0021229,0,0,0.043918,-0.0085852,0,-0.0055195,0,0,0,0.054279,0.013669,0.020384,-3.0006,0.029444,0.037703,2.461e-06,0.09,0.67,0
0.0041327,-0.0005242,0.054454,0.013,0.020236,-0.0021531,0,0,0.044483,-0.0094065,0,-0.0055981,0,0,0,0.054565,0.012889,0.020236,-2.9654,0.02923,0.038532,2.5818e-06,0.1,0.67,0
0.0045803,-0.0005848,0.054723,0.012251,0.020092,-0.0021744,0,0,0.04502,-0.010193,0,-0.0056534,0,0,0,0.054834,0.01214,0.020092,-2.9231,0.029022,0.039325,2.698e-06,0.11,0.67,0
0.0050331,-0.00064643,0.054975,0.011533,0.019952,-0.0021857,0,0,0.045529,-0.010945,0,-0.0056829,0,0,0,0.055084,0.011423,0.019952,-2.8731,0.02882,0.040083,2.8093e-06,0.12,0.67,0
0.0054909,-0.00070889,0.055209,0.010847,0.019817,-0.0021867,0,0,0.04601,-0.011661,0,-0.0056856,0,0,0,0.055317,0.010739,0.019817,-2.8152,0.028624,0.040803,2.9154e-06,0.13,0.67,0
0.0059533,-0.00077199,0.055427,0.010191,0.019686,-0.0021772,0,0,0.046464,-0.012343,0,-0.0056607,0,0,0,0.055532,0.010086,0.019686,-2.7492,0.028435,0.041487,3.0161e-06,0.14,0.67,0
0.0064202,-0.0008355,0.055629,0.0095663,0.019559,-0.0021572,0,0,0.046892,-0.01299,0,-0.0056088,0,0,0,0.05573,0.0094655,0.019559,-2.6755,0.028251,0.042135,3.1114e-06,0.15,0.67,0
0.0068912,-0.00089923,0.055816,0.0089718,0.019436,-0.0021272,0,0,0.047294,-0.013604,0,-0.0055308,0,0,0,0.055912,0.0088754,0.019436,-2.5947,0.028075,0.042746,3.2012e-06,0.16,0.67,0
0.007366,-0.00096296,0.055988,0.0084069,0.019318,-0.0020877,0,0,0.04767,-0.014185,0,-0.0054281,0,0,0,0.056079,0.0083155,0.019318,-2.5076,0.027904,0.043323,3.2856e-06,0.17,0.67,0
0.0078446,-0.0010265,0.056145,0.0078708,0.019205,-0.0020394,0,0,0.048022,-0.014734,0,-0.0053025,0,0,0,0.056231,0.0077848,0.019205,-2.4148,0.02774,0.043866,3.3647e-06,0.18,0.67,0
0.0083265,-0.0010896,0.056289,0.0073626,0.019095,-0.0019832,0,0,0.048351,-0.015253,0,-0.0051563,0,0,0,0.056369,0.0072823,0.019095,-2.3174,0.027582,0.044375,3.4387e-06,0.19,0.67,0
0.0088116,-0.0011522,0.05642,0.0068813,0.01899,-0.0019199,0,0,0.048658,-0.015742,0,-0.0049918,0,0,0,0.056494,0.006807,0.01899,-2.2162,0.027431,0.044854,3.5077e-06,0.2,0.67,0
0.0092997,-0.0012141,0.056539,0.0064261,0.018889,-0.0018506,0,0,0.048944,-0.016202,0,-0.0048115,0,0,0,0.056607,0.0063579,0.018889,-2.112,0.027285,0.045302,3.5719e-06,0.21,0.67,0
0.0097905,-0.001275,0.056646,0.0059959,0.018793,-0.001776,0,0,0.04921,-0.016636,0,-0.0046177,0,0,0,0.056708,0.0059337,0.018793,-2.0058,0.027145,0.045722,3.6315e-06,0.22,0.67,0
0.010284,-0.001335,0.056743,0.0055897,0.0187,-0.0016973,0,0,0.049456,-0.017043,0,-0.0044129,0,0,0,0.056799,0.0055334,0.0187,-1.8983,0.027011,0.046115,3.6868e-06,0.23,0.67,0
0.01078,-0.0013938,0.05683,0.0052064,0.018611,-0.0016152,0,0,0.049685,-0.017426,0,-0.0041994,0,0,0,0.05688,0.005156,0.018611,-1.7903,0.026882,0.046481,3.7379e-06,0.24,0.67,0
0.011277,-0.0014514,0.056907,0.0048452,0.018526,-0.0015305,0,0,0.049896,-0.017785,0,-0.0039794,0,0,0,0.056952,0.0048002,0.018526,-1.6825,0.026759,0.046823,3.7851e-06,0.25,0.67,0
0.011777,-0.0015077,0.056976,0.0045049,0.018444,-0.0014442,0,0,0.050091,-0.018121,0,-0.003755,0,0,0,0.057016,0.0044652,0.018444,-1.5755,0.026642,0.047142,3.8285e-06,0.26,0.67,0
0.012279,-0.0015626,0.057036,0.0041845,0.018366,-0.001357,0,0,0.050271,-0.018436,0,-0.0035281,0,0,0,0.057071,0.0041497,0.018366,-1.4698,0.026529,0.047439,3.8686e-06,0.27,0.67,0
0.012783,-0.0016159,0.05709,0.0038832,0.018292,-0.0012694,0,0,0.050437,-0.018731,0,-0.0033005,0,0,0,0.05712,0.0038529,0.018292,-1.3659,0.026422,0.047715,3.9053e-06,0.28,0.67,0
0.013288,-0.0016678,0.057136,0.0035999,0.018221,-0.0011822,0,0,0.050589,-0.019007,0,-0.0030736,0,0,0,0.057162,0.0035738,0.018221,-1.2644,0.026319,0.047972,3.939e-06,0.29,0.67,0
0.013795,-0.0017182,0.057175,0.0033337,0.018153,-0.0010957,0,0,0.050729,-0.019265,0,-0.0028489,0,0,0,0.057197,0.0033114,0.018153,-1.1654,0.026221,0.04821,3.9698e-06,0.3,0.67,0
0.014303,-0.0017669,0.057209,0.0030836,0.018088,-0.0010106,0,0,0.050857,-0.019505,0,-0.0026276,0,0,0,0.057228,0.0030648,0.018088,-1.0693,0.026127,0.048432,3.9979e-06,0.31,0.67,0
0.014812,-0.0018141,0.057237,0.002849,0.018026,-0.00092722,0,0,0.050974,-0.01973,0,-0.0024108,0,0,0,0.057253,0.0028332,0.018026,-0.97641,0.026037,0.048637,4.0235e-06,0.32,0.67,0
0.015322,-0.0018596,0.05726,0.0026288,0.017967,-0.00084589,0,0,0.051082,-0.019939,0,-0.0021993,0,0,0,0.057273,0.0026157,0.017967,-0.88686,0.025952,0.048827,4.0468e-06,0.33,0.67,0
0.015834,-0.0019036,0.057279,0.0024223,0.01791,-0.00076691,0,0,0.051179,-0.020134,0,-0.001994,0,0,0,0.05729,0.0024116,0.01791,-0.80081,0.02587,0.049003,4.068e-06,0.34,0.67,0
0.016346,-0.0019459,0.057293,0.0022287,0.017857,-0.00069054,0,0,0.051268,-0.020316,0,-0.0017954,0,0,0,0.057302,0.0022201,0.017857,-0.71838,0.025793,0.049165,4.0871e-06,0.35,0.67,0
0.016859,-0.0019866,0.057304,0.0020473,0.017805,-0.00061698,0,0,0.051348,-0.020485,0,-0.0016041,0,0,0,0.057311,0.0020404,0.017805,-0.63964,0.025719,0.049315,4.1044e-06,0.36,0.67,0
0.017373,-0.0020258,0.057311,0.0018774,0.017757,-0.00054637,0,0,0.051421,-0.020643,0,-0.0014206,0,0,0,0.057316,0.001872,0.017757,-0.56465,0.025648,0.049454,4.12e-06,0.37,0.67,0
0.017887,-0.0020634,0.057315,0.0017183,0.01771,-0.00047883,0,0,0.051486,-0.020789,0,-0.001245,0,0,0,0.057319,0.0017142,0.01771,-0.49341,0.025581,0.049582,4.134e-06,0.38,0.67,0
0.018402,-0.0020995,0.057316,0.0015693,0.017666,-0.00041445,0,0,0.051546,-0.020925,0,-0.0010776,0,0,0,0.057319,0.0015662,0.017666,-0.42593,0.025517,0.049699,4.1465e-06,0.39,0.67,0
0.018918,-0.0021341,0.057315,0.00143,0.017623,-0.00035327,0,0,0.051599,-0.021052,0,-0.00091851,0,0,0,0.057317,0.0014277,0.017623,-0.36217,0.025456,0.049807,4.1577e-06,0.4,0.67,0
0.019434,-0.0021672,0.057311,0.0012996,0.017583,-0.00029533,0,0,0.051646,-0.021169,0,-0.00076785,0,0,0,0.057313,0.001298,0.017583,-0.30209,0.025398,0.049906,4.1676e-06,0.41,0.67,0
0.019951,-0.0021988,0.057306,0.0011776,0.017545,-0.00024062,0,0,0.051689,-0.021278,0,-0.0006256,0,0,0,0.057307,0.0011766,0.017545,-0.24562,0.025343,0.049997,4.1763e-06,0.42,0.67,0
0.020468,-0.0022291,0.057298,0.0010637,0.017508,-0.00018912,0,0,0.051726,-0.021378,0,-0.00049171,0,0,0,0.057299,0.001063,0.017508,-0.19269,0.02529,0.050081,4.184e-06,0.43,0.67,0
0.020986,-0.002258,0.057289,0.00095714,0.017474,-0.0001408,0,0,0.05176,-0.021472,0,-0.00036608,0,0,0,0.057289,0.00095679,0.017474,-0.14321,0.02524,0.050157,4.1907e-06,0.44,0.67,0
0.021503,-0.0022856,0.057278,0.00085763,0.017441,-9.5605e-05,0,0,0.051789,-0.021558,0,-0.00024857,0,0,0,0.057279,0.00085747,0.017441,-0.097088,0.025192,0.050226,4.1965e-06,0.45,0.67,0
0.022021,-0.002312,0.057266,0.0007647,0.017409,-5.347e-05,0,0,0.051814,-0.021638,0,-0.00013902,0,0,0,0.057267,0.00076465,0.017409,-0.054221,0.025147,0.05029,4.2015e-06,0.46,0.67,0
0.02254,-0.002337,0.057254,0.00067795,0.017379,-1.432e-05,0,0,0.051836,-0.021712,0,-3.7232e-05,0,0,0,0.057254,0.00067794,0.017379,-0.014502,0.025104,0.050347,4.2057e-06,0.47,0.67,0
0.023058,-0.0023609,0.05724,0.00059699,0.017351,2.1929e-05,0,0,0.051855,-0.02178,0,5.7016e-05,0,0,0,0.05724,0.00059698,0.017351,0.022182,0.025063,0.050399,4.2093e-06,0.48,0.67,0
0.023577,-0.0023837,0.057225,0.00052148,0.017324,5.5368e-05,0,0,0.051871,-0.021843,0,0.00014396,0,0,0,0.057225,0.00052142,0.017324,0.055947,0.025024,0.050447,4.2121e-06,0.49,0.67,0
0.024096,-0.0024053,0.05721,0.00045107,0.017298,8.6093e-05,0,0,0.051885,-0.021901,0,0.00022384,0,0,0,0.05721,0.00045094,0.017298,0.086908,0.024986,0.050489,4.2145e-06,0.5,0.67,0
0.024615,-0.0024259,0.057194,0.00038545,0.017274,0.0001142,0,0,0.051896,-0.021955,0,0.00029693,0,0,0,0.057194,0.00038522,0.017274,0.11518,0.024951,0.050528,4.2162e-06,0.51,0.67,0
0.025133,-0.0024454,0.057177,0.00032432,0.01725,0.00013981,0,0,0.051905,-0.022004,0,0.00036349,0,0,0,0.057177,0.00032398,0.01725,0.14089,0.024917,0.050562,4.2175e-06,0.52,0.67,0
0.025653,-0.0024639,0.05716,0.0002674,0.017228,0.000163,0,0,0.051911,-0.022049,0,0.0004238,0,0,0,0.057161,0.00026694,0.017228,0.16415,0.024885,0.050592,4.2184e-06,0.53,0.67,0
0.026172,-0.0024815,0.057143,0.00021444,0.017207,0.00018389,0,0,0.051916,-0.022091,0,0.00047812,0,0,0,0.057143,0.00021384,0.017207,0.18508,0.024855,0.050619,4.2189e-06,0.54,0.67,0
0.026691,-0.0024982,0.057125,0.00016518,0.017187,0.00020259,0,0,0.05192,-0.022129,0,0.00052674,0,0,0,0.057126,0.00016446,0.017187,0.20378,0.024826,0.050643,4.2189e-06,0.55,0.67,0
0.02721,-0.002514,0.057108,0.00011939,0.017168,0.0002192,0,0,0.051921,-0.022163,0,0.00056993,0,0,0,0.057108,0.00011854,0.017168,0.22038,0.024798,0.050665,4.2187e-06,0.56,0.67,0
0.027729,-0.002529,0.05709,7.685e-05,0.01715,0.00023383,0,0,0.051922,-0.022195,0,0.00060795,0,0,0,0.057091,7.5891e-05,0.01715,0.23498,0.024772,0.050683,4.2182e-06,0.57,0.67,0
0.028249,-0.0025432,0.057072,3.7362e-05,0.017133,0.00024657,0,0,0.051921,-0.022224,0,0.00064108,0,0,0,0.057073,3.6296e-05,0.017133,0.24769,0.024747,0.050699,4.2174e-06,0.58,0.67,0
0.028768,-0.0025566,0.057054,7.2996e-07,0.017116,0.00025753,0,0,0.051919,-0.02225,0,0.00066957,0,0,0,0.057055,-4.3242e-07,0.017116,0.25861,0.024724,0.050712,4.2164e-06,0.59,0.67,0
0.029287,-0.0025693,0.057036,-3.3228e-05,0.017101,0.0002668,0,0,0.051916,-0.022274,0,0.00069368,0,0,0,0.057038,-3.4475e-05,0.017101,0.26785,0.024701,0.050724,4.2152e-06,0.6,0.67,0
0.029806,-0.0025813,0.057019,-6.4683e-05,0.017086,0.00027448,0,0,0.051912,-0.022296,0,0.00071365,0,0,0,0.05702,-6.6003e-05,0.017086,0.27549,0.02468,0.050733,4.2138e-06,0.61,0.67,0
0.030325,-0.0025927,0.057001,-9.3795e-05,0.017072,0.00028066,0,0,0.051908,-0.022316,0,0.00072972,0,0,0,0.057003,-9.5175e-05,0.017072,0.28164,0.02466,0.050741,4.2122e-06,0.62,0.67,0
0.030844,-0.0026034,0.056984,-0.00012071,0.017059,0.00028544,0,0,0.051902,-0.022333,0,0.00074213,0,0,0,0.056985,-0.00012214,0.017059,0.28638,0.024641,0.050747,4.2105e-06,0.63,0.67,0
0.031363,-0.0026135,0.056967,-0.00014559,0.017046,0.00028889,0,0,0.051896,-0.02235,0,0.0007511,0,0,0,0.056968,-0.00014705,0.017046,0.2898,0.024622,0.050752,4.2086e-06,0.64,0.67,0
0.031882,-0.002623,0.05695,-0.00016854,0.017034,0.00029109,0,0,0.05189,-0.022364,0,0.00075684,0,0,0,0.056951,-0.00017002,0.017034,0.29199,0.024605,0.050755,4.2067e-06,0.65,0.67,0
0.032401,-0.002632,0.056933,-0.00018971,0.017023,0.00029214,0,0,0.051883,-0.022377,0,0.00075956,0,0,0,0.056934,-0.0001912,0.017023,0.29301,0.024589,0.050757,4.2047e-06,0.66,0.67,0
0.03292,-0.0026404,0.056917,-0.0002092,0.017012,0.00029209,0,0,0.051876,-0.022388,0,0.00075945,0,0,0,0.056918,-0.0002107,0.017012,0.29295,0.024573,0.050758,4.2026e-06,0.67,0.67,0
0.033439,-0.0026484,0.056901,-0.00022714,0.017002,0.00029104,0,0,0.051868,-0.022398,0,0.0007567,0,0,0,0.056902,-0.00022862,0.017002,0.29188,0.024559,0.050758,4.2004e-06,0.68,0.67,0
0.033957,-0.0026559,0.056885,-0.00024362,0.016992,0.00028903,0,0,0.05186,-0.022407,0,0.00075148,0,0,0,0.056886,-0.00024508,0.016992,0.28987,0.024545,0.050757,4.1982e-06,0.69,0.67,0
0.034476,-0.0026629,0.05687,-0.00025875,0.016983,0.00028615,0,0,0.051852,-0.022415,0,0.00074398,0,0,0,0.056871,-0.00026018,0.016983,0.28697,0.024531,0.050756,4.196e-06,0.7,0.67,0
0.034994,-0.0026695,0.056855,-0.00027262,0.016975,0.00028244,0,0,0.051844,-0.022421,0,0.00073434,0,0,0,0.056856,-0.00027402,0.016975,0.28326,0.024519,0.050754,4.1938e-06,0.71,0.67,0
0.035513,-0.0026758,0.05684,-0.00028531,0.016966,0.00027797,0,0,0.051836,-0.022427,0,0.00072273,0,0,0,0.056841,-0.00028667,0.016966,0.27879,0.024507,0.050751,4.1915e-06,0.72,0.67,0
0.036031,-0.0026816,0.056826,-0.00029692,0.016959,0.0002728,0,0,0.051827,-0.022432,0,0.00070928,0,0,0,0.056827,-0.00029822,0.016959,0.27362,0.024496,0.050747,4.1893e-06,0.73,0.67,0
0.036549,-0.0026871,0.056812,-0.00030751,0.016951,0.00026697,0,0,0.051819,-0.022437,0,0.00069413,0,0,0,0.056813,-0.00030876,0.016951,0.26779,0.024485,0.050743,4.187e-06,0.74,0.67,0
0.037067,-0.0026922,0.056799,-0.00031717,0.016945,0.00026054,0,0,0.051811,-0.02244,0,0.00067741,0,0,0,0.0568,-0.00031836,0.016945,0.26136,0.024475,0.050739,4.1848e-06,0.75,0.67,0
0.037585,-0.002697,0.056786,-0.00032595,0.016938,0.00025355,0,0,0.051802,-0.022443,0,0.00065924,0,0,0,0.056787,-0.00032708,0.016938,0.25437,0.024466,0.050735,4.1827e-06,0.76,0.67,0
0.038103,-0.0027015,0.056773,-0.00033393,0.016932,0.00024605,0,0,0.051794,-0.022446,0,0.00063974,0,0,0,0.056774,-0.00033499,0.016932,0.24686,0.024457,0.05073,4.1805e-06,0.77,0.67,0
0.038621,-0.0027056,0.056761,-0.00034117,0.016926,0.00023808,0,0,0.051786,-0.022447,0,0.00061901,0,0,0,0.056762,-0.00034217,0.016926,0.23888,0.024449,0.050725,4.1784e-06,0.78,0.67,0
0.039139,-0.0027095,0.05675,-0.00034772,0.016921,0.00022967,0,0,0.051778,-0.022449,0,0.00059715,0,0,0,0.056751,-0.00034865,0.016921,0.23046,0.024441,0.05072,4.1764e-06,0.79,0.67,0
0.039657,-0.0027132,0.056739,-0.00035364,0.016916,0.00022087,0,0,0.05177,-0.02245,0,0.00057425,0,0,0,0.05674,-0.0003545,0.016916,0.22165,0.024434,0.050715,4.1744e-06,0.8,0.67,0
0.040175,-0.0027166,0.056729,-0.00035897,0.016911,0.00021169,0,0,0.051763,-0.022451,0,0.00055041,0,0,0,0.056729,-0.00035976,0.016911,0.21246,0.024427,0.05071,4.1725e-06,0.81,0.67,0
0.040692,-0.0027197,0.056719,-0.00036377,0.016906,0.00020219,0,0,0.051756,-0.022451,0,0.0005257,0,0,0,0.056719,-0.00036449,0.016906,0.20294,0.02442,0.050704,4.1706e-06,0.82,0.67,0
0.04121,-0.0027226,0.056709,-0.00036808,0.016902,0.00019238,0,0,0.051749,-0.022451,0,0.0005002,0,0,0,0.05671,-0.00036873,0.016902,0.19312,0.024414,0.0507,4.1689e-06,0.83,0.67,0
0.041727,-0.0027253,0.0567,-0.00037193,0.016899,0.0001823,0,0,0.051742,-0.022451,0,0.00047399,0,0,0,0.056701,-0.00037252,0.016899,0.18301,0.024409,0.050695,4.1672e-06,0.84,0.67,0
0.042244,-0.0027278,0.056692,-0.00037537,0.016895,0.00017197,0,0,0.051736,-0.022451,0,0.00044712,0,0,0,0.056692,-0.00037589,0.016895,0.17266,0.024404,0.05069,4.1656e-06,0.85,0.67,0
0.042762,-0.00273,0.056684,-0.00037843,0.016892,0.00016141,0,0,0.05173,-0.022451,0,0.00041966,0,0,0,0.056684,-0.00037889,0.016892,0.16207,0.024399,0.050685,4.1641e-06,0.86,0.67,0
0.043279,-0.0027321,0.056676,-0.00038115,0.016889,0.00015065,0,0,0.051724,-0.022451,0,0.00039168,0,0,0,0.056677,-0.00038155,0.016889,0.15127,0.024395,0.05068,4.1626e-06,0.87,0.67,0
0.043796,-0.002734,0.056669,-0.00038355,0.016886,0.0001397,0,0,0.051719,-0.02245,0,0.00036321,0,0,0,0.05667,-0.00038389,0.016886,0.14029,0.024391,0.050676,4.1613e-06,0.88,0.67,0
0.044313,-0.0027357,0.056663,-0.00038566,0.016883,0.00012858,0,0,0.051714,-0.02245,0,0.00033432,0,0,0,0.056663,-0.00038595,0.016883,0.12914,0.024387,0.050672,4.16e-06,0.89,0.67,0
0.044831,-0.0027373,0.056657,-0.0003875,0.016881,0.00011733,0,0,0.051709,-0.022449,0,0.00030505,0,0,0,0.056658,-0.00038774,0.016881,0.11784,0.024384,0.050668,4.1589e-06,0.9,0.67,0
0.045348,-0.0027386,0.056652,-0.00038911,0.016879,0.00010594,0,0,0.051705,-0.022448,0,0.00027544,0,0,0,0.056652,-0.0003893,0.016879,0.10641,0.024381,0.050665,4.1579e-06,0.91,0.67,0
0.045865,-0.0027398,0.056648,-0.00039049,0.016877,9.4439e-05,0,0,0.051701,-0.022448,0,0.00024554,0,0,0,0.056648,-0.00039064,0.016877,0.094865,0.024378,0.050662,4.1569e-06,0.92,0.67,0
0.046382,-0.0027409,0.056643,-0.00039166,0.016876,8.284e-05,0,0,0.051698,-0.022447,0,0.00021538,0,0,0,0.056643,-0.00039178,0.016876,0.083219,0.024376,0.050659,4.1561e-06,0.93,0.67,0
0.046899,-0.0027418,0.05664,-0.00039265,0.016874,7.1157e-05,0,0,0.051695,-0.022447,0,0.00018501,0,0,0,0.05664,-0.00039274,0.016874,0.071485,0.024374,0.050657,4.1554e-06,0.94,0.67,0
0.047415,-0.0027426,0.056637,-0.00039347,0.016873,5.9403e-05,0,0,0.051693,-0.022446,0,0.00015445,0,0,0,0.056637,-0.00039353,0.016873,0.059679,0.024372,0.050654,4.1548e-06,0.95,0.67,0
0.047933,-0.0027432,0.056634,-0.00039412,0.016872,4.7591e-05,0,0,0.051691,-0.022446,0,0.00012374,0,0,0,0.056634,-0.00039416,0.016872,0.047814,0.024371,0.050653,4.1543e-06,0.96,0.67,0
0.048449,-0.0027437,0.056632,-0.00039461,0.016871,3.5733e-05,0,0,0.051689,-0.022446,0,9.2905e-05,0,0,0,0.056632,-0.00039464,0.016871,0.035901,0.02437,0.050651,4.1539e-06,0.97,0.67,0
0.048966,-0.002744,0.056631,-0.00039496,0.016871,2.384e-05,0,0,0.051688,-0.022446,0,6.1985e-05,0,0,0,0.056631,-0.00039497,0.016871,0.023953,0.024369,0.05065,4.1536e-06,0.98,0.67,0
0.049483,-0.0027442,0.05663,-0.00039517,0.016871,1.1926e-05,0,0,0.051687,-0.022445,0,3.1007e-05,0,0,0,0.05663,-0.00039517,0.016871,0.011982,0.024369,0.05065,4.1534e-06,0.99,0.67,0
0.05,-0.0027443,0.05663,-0.00039524,0.01687,-2.6299e-06,0,0,0.051687,-0.022445,0,-6.8377e-06,0,0,0,0.05663,-0.00039524,0.01687,-0.0026424,0.024368,0.05065,4.1534e-06,1,0.67,0
0,0,0.051525,0.022082,0.022082,-0.0021354,0,0,0.038275,2.1684e-19,0,-0.0055519,0,0,0,0.051679,0.021928,0.022082,-4.1267,0.031896,0.029674,1.3419e-06,0,0.68,0
0.00038275,-5.552e-05,0.051426,0.020932,0.021707,-0.0021426,0,0,0.038635,-0.0010083,0,-0.0055708,0,0,0,0.051576,0.020782,0.021707,-3.9996,0.031355,0.030342,1.4302e-06,0.01,0.68,0
0.00077269,-0.00011241,0.05181,0.019991,0.02154,-0.0021787,0,0,0.03935,-0.0020137,0,-0.0056647,0,0,0,0.051958,0.019843,0.02154,-3.899,0.031114,0.031301,1.5595e-06,0.02,0.68,0
0.0011698,-0.00017073,0.052189,0.019057,0.021374,-0.0022177,0,0,0.040059,-0.0030113,0,-0.005766,0,0,0,0.052336,0.01891,0.021374,-3.8125,0.030873,0.032265,1.6913e-06,0.03,0.68,0
0.0015739,-0.00023052,0.05256,0.018134,0.021208,-0.002258,0,0,0.040757,-0.0039963,0,-0.0058709,0,0,0,0.052707,0.017987,0.021208,-3.7367,0.030634,0.033227,1.8245e-06,0.04,0.68,0
0.0019849,-0.00029178,0.052922,0.017226,0.021044,-0.002298,0,0,0.041441,-0.0049642,0,-0.0059748,0,0,0,0.053069,0.017078,0.021044,-3.6683,0.030397,0.034181,1.9583e-06,0.05,0.68,0
0.0024027,-0.0003545,0.053272,0.016336,0.020882,-0.0023358,0,0,0.042107,-0.0059107,0,-0.0060731,0,0,0,0.053419,0.016189,0.020882,-3.6042,0.030163,0.03512,2.0914e-06,0.06,0.68,0
0.002827,-0.00041862,0.053609,0.015467,0.020723,-0.0023697,0,0,0.042752,-0.0068322,0,-0.0061612,0,0,0,0.053756,0.015321,0.020723,-3.5416,0.029933,0.036039,2.223e-06,0.07,0.68,0
0.0032577,-0.00048404,0.053931,0.014624,0.020566,-0.002398,0,0,0.043374,-0.0077256,0,-0.0062349,0,0,0,0.054077,0.014478,0.020566,-3.4783,0.029707,0.036933,2.3521e-06,0.08,0.68,0
0.0036945,-0.00055064,0.054237,0.013806,0.020413,-0.0024193,0,0,0.043971,-0.0085885,0,-0.0062902,0,0,0,0.054381,0.013662,0.020413,-3.4123,0.029486,0.037798,2.478e-06,0.09,0.68,0
0.0041372,-0.00061829,0.054526,0.013018,0.020263,-0.0024323,0,0,0.044542,-0.0094189,0,-0.006324,0,0,0,0.054668,0.012876,0.020263,-3.3422,0.029269,0.038632,2.6e-06,0.1,0.68,0
0.0045854,-0.0006868,0.054798,0.012259,0.020117,-0.0024361,0,0,0.045085,-0.010216,0,-0.0063339,0,0,0,0.054937,0.01212,0.020117,-3.267,0.029058,0.039432,2.7174e-06,0.11,0.68,0
0.0050389,-0.000756,0.055053,0.011531,0.019975,-0.0024301,0,0,0.045601,-0.010978,0,-0.0063183,0,0,0,0.055188,0.011395,0.019975,-3.186,0.028853,0.040195,2.8299e-06,0.12,0.68,0
0.0054974,-0.00082568,0.05529,0.010834,0.019837,-0.002414,0,0,0.046089,-0.011704,0,-0.0062764,0,0,0,0.055421,0.010703,0.019837,-3.0991,0.028653,0.040923,2.9372e-06,0.13,0.68,0
0.0059606,-0.00089565,0.05551,0.010168,0.019703,-0.0023878,0,0,0.046549,-0.012396,0,-0.0062081,0,0,0,0.055635,0.010042,0.019703,-3.0061,0.02846,0.041612,3.039e-06,0.14,0.68,0
0.0064284,-0.00096568,0.055713,0.0095329,0.019574,-0.0023516,0,0,0.046981,-0.013053,0,-0.0061141,0,0,0,0.055833,0.0094135,0.019574,-2.9076,0.028273,0.042265,3.1352e-06,0.15,0.68,0
0.0069003,-0.0010356,0.055901,0.0089289,0.019449,-0.002306,0,0,0.047387,-0.013676,0,-0.0059955,0,0,0,0.056014,0.008816,0.019449,-2.8038,0.028093,0.042882,3.2258e-06,0.16,0.68,0
0.0073761,-0.0011052,0.056072,0.0083552,0.019328,-0.0022515,0,0,0.047767,-0.014265,0,-0.0058539,0,0,0,0.056178,0.0082492,0.019328,-2.6955,0.027918,0.043462,3.3107e-06,0.17,0.68,0
0.0078556,-0.0011742,0.056229,0.007811,0.019212,-0.002189,0,0,0.048122,-0.014821,0,-0.0056913,0,0,0,0.056328,0.0077123,0.019212,-2.5833,0.027751,0.044007,3.3902e-06,0.18,0.68,0
0.0083385,-0.0012426,0.056371,0.0072957,0.0191,-0.0021192,0,0,0.048452,-0.015346,0,-0.00551,0,0,0,0.056462,0.0072043,0.0191,-2.4681,0.027589,0.044519,3.4643e-06,0.19,0.68,0
0.0088246,-0.0013101,0.0565,0.0068083,0.018992,-0.0020432,0,0,0.04876,-0.015839,0,-0.0053122,0,0,0,0.056584,0.0067244,0.018992,-2.3505,0.027433,0.044998,3.5331e-06,0.2,0.68,0
0.0093137,-0.0013766,0.056616,0.0063478,0.018889,-0.0019617,0,0,0.049045,-0.016304,0,-0.0051005,0,0,0,0.056692,0.0062713,0.018889,-2.2315,0.027284,0.045445,3.597e-06,0.21,0.68,0
0.0098055,-0.0014419,0.05672,0.0059133,0.01879,-0.0018759,0,0,0.049309,-0.01674,0,-0.0048773,0,0,0,0.056789,0.0058441,0.01879,-2.1116,0.027141,0.045864,3.6561e-06,0.22,0.68,0
0.0103,-0.0015059,0.056813,0.0055036,0.018695,-0.0017865,0,0,0.049553,-0.017149,0,-0.0046449,0,0,0,0.056875,0.0054415,0.018695,-1.9917,0.027004,0.046253,3.7106e-06,0.23,0.68,0
0.010797,-0.0015686,0.056895,0.0051179,0.018604,-0.0016945,0,0,0.049779,-0.017532,0,-0.0044057,0,0,0,0.056951,0.0050625,0.018604,-1.8724,0.026872,0.046616,3.7608e-06,0.24,0.68,0
0.011295,-0.0016298,0.056968,0.0047549,0.018517,-0.0016007,0,0,0.049986,-0.01789,0,-0.0041617,0,0,0,0.057017,0.0047059,0.018517,-1.7543,0.026746,0.046954,3.807e-06,0.25,0.68,0
0.011796,-0.0016894,0.057031,0.0044136,0.018433,-0.0015058,0,0,0.050177,-0.018226,0,-0.0039151,0,0,0,0.057074,0.0043706,0.018433,-1.6379,0.026626,0.047268,3.8493e-06,0.26,0.68,0
0.012299,-0.0017474,0.057086,0.004093,0.018354,-0.0014106,0,0,0.050352,-0.018539,0,-0.0036676,0,0,0,0.057124,0.0040555,0.018354,-1.5237,0.026511,0.047559,3.888e-06,0.27,0.68,0
0.012803,-0.0018038,0.057134,0.003792,0.018278,-0.0013157,0,0,0.050513,-0.018831,0,-0.0034209,0,0,0,0.057166,0.0037596,0.018278,-1.4121,0.026401,0.047829,3.9234e-06,0.28,0.68,0
0.013309,-0.0018584,0.057174,0.0035096,0.018205,-0.0012217,0,0,0.05066,-0.019104,0,-0.0031765,0,0,0,0.057202,0.0034818,0.018205,-1.3035,0.026296,0.04808,3.9556e-06,0.29,0.68,0
0.013817,-0.0019113,0.057208,0.0032448,0.018136,-0.0011291,0,0,0.050794,-0.019358,0,-0.0029358,0,0,0,0.057231,0.0032212,0.018136,-1.1982,0.026196,0.048312,3.9849e-06,0.3,0.68,0
0.014325,-0.0019624,0.057236,0.0029966,0.01807,-0.0010384,0,0,0.050916,-0.019595,0,-0.0026997,0,0,0,0.057256,0.0029767,0.01807,-1.0963,0.026101,0.048526,4.0116e-06,0.31,0.68,0
0.014835,-0.0020118,0.057258,0.0027641,0.018007,-0.00094979,0,0,0.051027,-0.019815,0,-0.0024694,0,0,0,0.057275,0.0027475,0.018007,-0.99821,0.02601,0.048724,4.0357e-06,0.32,0.68,0
0.015346,-0.0020594,0.057276,0.0025464,0.017947,-0.00086374,0,0,0.051128,-0.02002,0,-0.0022457,0,0,0,0.057289,0.0025327,0.017947,-0.90394,0.025923,0.048907,4.0575e-06,0.33,0.68,0
0.015857,-0.0021053,0.057289,0.0023426,0.017889,-0.00078048,0,0,0.051219,-0.020211,0,-0.0020292,0,0,0,0.0573,0.0023315,0.017889,-0.81363,0.02584,0.049075,4.0771e-06,0.34,0.68,0
0.01637,-0.0021494,0.057298,0.0021519,0.017835,-0.00070022,0,0,0.051302,-0.020388,0,-0.0018206,0,0,0,0.057307,0.002143,0.017835,-0.72736,0.025762,0.049231,4.0948e-06,0.35,0.68,0
0.016883,-0.0021918,0.057303,0.0019736,0.017783,-0.00062314,0,0,0.051376,-0.020552,0,-0.0016202,0,0,0,0.05731,0.0019666,0.017783,-0.64517,0.025687,0.049374,4.1107e-06,0.36,0.68,0
0.017398,-0.0022325,0.057306,0.0018069,0.017734,-0.00054936,0,0,0.051443,-0.020705,0,-0.0014283,0,0,0,0.057311,0.0018014,0.017734,-0.56708,0.025615,0.049505,4.1248e-06,0.37,0.68,0
0.017912,-0.0022716,0.057305,0.001651,0.017687,-0.00047898,0,0,0.051504,-0.020847,0,-0.0012453,0,0,0,0.057309,0.0016469,0.017687,-0.49306,0.025548,0.049626,4.1375e-06,0.38,0.68,0
0.018428,-0.002309,0.057302,0.0015054,0.017642,-0.00041204,0,0,0.051557,-0.020978,0,-0.0010713,0,0,0,0.057305,0.0015024,0.017642,-0.42309,0.025483,0.049737,4.1487e-06,0.39,0.68,0
0.018943,-0.0023448,0.057296,0.0013694,0.0176,-0.00034859,0,0,0.051605,-0.021099,0,-0.00090633,0,0,0,0.057298,0.0013672,0.0176,-0.3571,0.025422,0.049839,4.1586e-06,0.4,0.68,0
0.01946,-0.0023791,0.057288,0.0012424,0.017559,-0.00028862,0,0,0.051648,-0.021212,0,-0.0007504,0,0,0,0.05729,0.0012409,0.017559,-0.29504,0.025363,0.049931,4.1673e-06,0.41,0.68,0
0.019977,-0.0024118,0.057279,0.0011238,0.017521,-0.00023211,0,0,0.051686,-0.021316,0,-0.00060348,0,0,0,0.05728,0.0011228,0.017521,-0.23681,0.025308,0.050016,4.1749e-06,0.42,0.68,0
0.020494,-0.0024431,0.057268,0.0010131,0.017484,-0.00017902,0,0,0.051719,-0.021413,0,-0.00046545,0,0,0,0.057269,0.0010125,0.017484,-0.18233,0.025255,0.050094,4.1816e-06,0.43,0.68,0
0.021011,-0.0024729,0.057256,0.00090984,0.01745,-0.0001293,0,0,0.051748,-0.021502,0,-0.00033619,0,0,0,0.057256,0.00090954,0.01745,-0.13148,0.025205,0.050165,4.1873e-06,0.44,0.68,0
0.021528,-0.0025013,0.057242,0.0008135,0.017417,-8.2891e-05,0,0,0.051773,-0.021584,0,-0.00021552,0,0,0,0.057242,0.00081338,0.017417,-0.084164,0.025157,0.050229,4.1921e-06,0.45,0.68,0
0.022046,-0.0025284,0.057228,0.00072367,0.017385,-3.9697e-05,0,0,0.051795,-0.02166,0,-0.00010321,0,0,0,0.057228,0.00072365,0.017385,-0.040253,0.025112,0.050288,4.1962e-06,0.46,0.68,0
0.022564,-0.0025543,0.057212,0.00063993,0.017356,3.6497e-07,0,0,0.051813,-0.02173,0,9.4892e-07,0,0,0,0.057212,0.00063993,0.017356,0.00036964,0.025069,0.050341,4.1996e-06,0.47,0.68,0
0.023083,-0.0025788,0.057196,0.0005619,0.017327,3.7392e-05,0,0,0.051829,-0.021795,0,9.722e-05,0,0,0,0.057196,0.00056187,0.017327,0.037829,0.025028,0.050389,4.2024e-06,0.48,0.68,0
0.023601,-0.0026022,0.057179,0.0004892,0.0173,7.1488e-05,0,0,0.051842,-0.021855,0,0.00018587,0,0,0,0.057179,0.00048911,0.0173,0.072252,0.02499,0.050432,4.2046e-06,0.49,0.68,0
0.024119,-0.0026244,0.057162,0.00042151,0.017275,0.00010276,0,0,0.051853,-0.021909,0,0.00026717,0,0,0,0.057162,0.00042132,0.017275,0.10376,0.024953,0.05047,4.2063e-06,0.5,0.68,0
0.024638,-0.0026454,0.057144,0.00035849,0.017251,0.00013132,0,0,0.051861,-0.02196,0,0.00034142,0,0,0,0.057144,0.00035819,0.017251,0.1325,0.024918,0.050505,4.2075e-06,0.51,0.68,0
0.025157,-0.0026655,0.057126,0.00029987,0.017228,0.00015727,0,0,0.051868,-0.022006,0,0.0004089,0,0,0,0.057126,0.00029943,0.017228,0.15857,0.024885,0.050536,4.2082e-06,0.52,0.68,0
0.025675,-0.0026844,0.057108,0.00024534,0.017206,0.00018074,0,0,0.051872,-0.022049,0,0.00046992,0,0,0,0.057108,0.00024476,0.017206,0.18211,0.024853,0.050564,4.2086e-06,0.53,0.68,0
0.026194,-0.0027024,0.057089,0.00019465,0.017185,0.00020183,0,0,0.051875,-0.022088,0,0.00052475,0,0,0,0.05709,0.00019394,0.017185,0.20325,0.024823,0.050588,4.2086e-06,0.54,0.68,0
0.026713,-0.0027195,0.057071,0.00014756,0.017166,0.00022065,0,0,0.051877,-0.022123,0,0.0005737,0,0,0,0.057072,0.00014671,0.017166,0.22209,0.024795,0.050609,4.2083e-06,0.55,0.68,0
0.027232,-0.0027356,0.057052,0.00010384,0.017147,0.00023733,0,0,0.051877,-0.022156,0,0.00061706,0,0,0,0.057053,0.00010285,0.017147,0.23877,0.024768,0.050628,4.2078e-06,0.56,0.68,0
0.02775,-0.0027509,0.057034,6.3257e-05,0.017129,0.00025196,0,0,0.051876,-0.022186,0,0.00065511,0,0,0,0.057035,6.2142e-05,0.017129,0.25339,0.024742,0.050644,4.2069e-06,0.57,0.68,0
0.028269,-0.0027654,0.057016,2.5622e-05,0.017112,0.00026466,0,0,0.051874,-0.022213,0,0.00068813,0,0,0,0.057017,2.4393e-05,0.017112,0.26608,0.024718,0.050658,4.2059e-06,0.58,0.68,0
0.028788,-0.0027791,0.056997,-9.2577e-06,0.017096,0.00027553,0,0,0.051871,-0.022237,0,0.00071639,0,0,0,0.056999,-1.0589e-05,0.017096,0.27692,0.024695,0.05067,4.2046e-06,0.59,0.68,0
0.029307,-0.002792,0.056979,-4.1562e-05,0.017081,0.00028468,0,0,0.051867,-0.02226,0,0.00074016,0,0,0,0.056981,-4.2983e-05,0.017081,0.28604,0.024673,0.05068,4.2032e-06,0.6,0.68,0
0.029825,-0.0028042,0.056961,-7.1458e-05,0.017067,0.00029219,0,0,0.051863,-0.02228,0,0.0007597,0,0,0,0.056963,-7.2955e-05,0.017067,0.29353,0.024652,0.050688,4.2016e-06,0.61,0.68,0
0.030344,-0.0028157,0.056944,-9.9103e-05,0.017053,0.00029817,0,0,0.051857,-0.022298,0,0.00077525,0,0,0,0.056945,-0.00010066,0.017053,0.29948,0.024633,0.050695,4.1999e-06,0.62,0.68,0
0.030862,-0.0028266,0.056926,-0.00012464,0.017041,0.00030271,0,0,0.051852,-0.022315,0,0.00078705,0,0,0,0.056928,-0.00012625,0.017041,0.304,0.024614,0.0507,4.1981e-06,0.63,0.68,0
0.031381,-0.0028369,0.056909,-0.00014822,0.017028,0.0003059,0,0,0.051845,-0.022329,0,0.00079533,0,0,0,0.056911,-0.00014986,0.017028,0.30716,0.024596,0.050703,4.1962e-06,0.64,0.68,0
0.031899,-0.0028465,0.056892,-0.00016997,0.017017,0.00030782,0,0,0.051838,-0.022343,0,0.00080032,0,0,0,0.056894,-0.00017163,0.017017,0.30906,0.02458,0.050706,4.1942e-06,0.65,0.68,0
0.032418,-0.0028556,0.056876,-0.00019,0.017006,0.00030855,0,0,0.051831,-0.022354,0,0.00080223,0,0,0,0.056878,-0.00019167,0.017006,0.30978,0.024564,0.050707,4.1921e-06,0.66,0.68,0
0.032936,-0.0028642,0.05686,-0.00020844,0.016995,0.00030817,0,0,0.051824,-0.022365,0,0.00080125,0,0,0,0.056862,-0.0002101,0.016995,0.30939,0.024549,0.050708,4.19e-06,0.67,0.68,0
0.033454,-0.0028722,0.056844,-0.00022539,0.016986,0.00030676,0,0,0.051816,-0.022374,0,0.00079758,0,0,0,0.056846,-0.00022704,0.016986,0.30797,0.024535,0.050707,4.1878e-06,0.68,0.68,0
0.033972,-0.0028798,0.056829,-0.00024095,0.016976,0.00030439,0,0,0.051808,-0.022382,0,0.00079141,0,0,0,0.05683,-0.00024257,0.016976,0.30558,0.024521,0.050706,4.1857e-06,0.69,0.68,0
0.03449,-0.002887,0.056814,-0.00025522,0.016968,0.00030111,0,0,0.0518,-0.02239,0,0.00078289,0,0,0,0.056815,-0.00025681,0.016968,0.3023,0.024509,0.050704,4.1835e-06,0.7,0.68,0
0.035008,-0.0028936,0.056799,-0.0002683,0.016959,0.000297,0,0,0.051792,-0.022396,0,0.00077221,0,0,0,0.056801,-0.00026984,0.016959,0.29818,0.024497,0.050701,4.1813e-06,0.71,0.68,0
0.035526,-0.0028999,0.056785,-0.00028026,0.016951,0.00029212,0,0,0.051784,-0.022401,0,0.00075952,0,0,0,0.056787,-0.00028175,0.016951,0.29329,0.024485,0.050698,4.1791e-06,0.72,0.68,0
0.036044,-0.0029058,0.056771,-0.00029118,0.016944,0.00028652,0,0,0.051776,-0.022406,0,0.00074496,0,0,0,0.056773,-0.00029262,0.016944,0.28768,0.024475,0.050695,4.1769e-06,0.73,0.68,0
0.036562,-0.0029113,0.056758,-0.00030114,0.016937,0.00028026,0,0,0.051767,-0.02241,0,0.00072867,0,0,0,0.056759,-0.00030252,0.016937,0.28141,0.024465,0.050691,4.1747e-06,0.74,0.68,0
0.037079,-0.0029165,0.056745,-0.00031021,0.016931,0.00027338,0,0,0.051759,-0.022413,0,0.00071078,0,0,0,0.056747,-0.00031152,0.016931,0.27452,0.024455,0.050687,4.1726e-06,0.75,0.68,0
0.037597,-0.0029213,0.056733,-0.00031846,0.016924,0.00026593,0,0,0.051751,-0.022416,0,0.00069142,0,0,0,0.056734,-0.0003197,0.016924,0.26706,0.024446,0.050682,4.1705e-06,0.76,0.68,0
0.038114,-0.0029258,0.056721,-0.00032595,0.016918,0.00025796,0,0,0.051743,-0.022418,0,0.00067071,0,0,0,0.056722,-0.00032712,0.016918,0.25908,0.024438,0.050677,4.1684e-06,0.77,0.68,0
0.038632,-0.00293,0.05671,-0.00033273,0.016913,0.00024952,0,0,0.051736,-0.02242,0,0.00064874,0,0,0,0.056711,-0.00033382,0.016913,0.25062,0.02443,0.050673,4.1664e-06,0.78,0.68,0
0.039149,-0.0029339,0.056699,-0.00033886,0.016908,0.00024063,0,0,0.051728,-0.022421,0,0.00062563,0,0,0,0.0567,-0.00033988,0.016908,0.24171,0.024423,0.050667,4.1645e-06,0.79,0.68,0
0.039666,-0.0029375,0.056688,-0.0003444,0.016903,0.00023133,0,0,0.051721,-0.022422,0,0.00060147,0,0,0,0.056689,-0.00034534,0.016903,0.2324,0.024416,0.050663,4.1626e-06,0.8,0.68,0
0.040183,-0.0029409,0.056678,-0.00034938,0.016899,0.00022167,0,0,0.051714,-0.022423,0,0.00057634,0,0,0,0.056679,-0.00035024,0.016899,0.22271,0.024409,0.050658,4.1607e-06,0.81,0.68,0
0.040701,-0.0029441,0.056669,-0.00035386,0.016894,0.00021167,0,0,0.051707,-0.022423,0,0.00055033,0,0,0,0.05667,-0.00035465,0.016894,0.21268,0.024403,0.050653,4.159e-06,0.82,0.68,0
0.041217,-0.002947,0.05666,-0.00035788,0.016891,0.00020136,0,0,0.0517,-0.022423,0,0.00052353,0,0,0,0.056661,-0.00035859,0.016891,0.20233,0.024397,0.050648,4.1573e-06,0.83,0.68,0
0.041735,-0.0029496,0.056651,-0.00036147,0.016887,0.00019077,0,0,0.051694,-0.022423,0,0.00049599,0,0,0,0.056652,-0.00036211,0.016887,0.19171,0.024392,0.050643,4.1557e-06,0.84,0.68,0
0.042251,-0.0029521,0.056643,-0.00036467,0.016884,0.00017992,0,0,0.051688,-0.022423,0,0.00046779,0,0,0,0.056644,-0.00036524,0.016884,0.18083,0.024387,0.050638,4.1542e-06,0.85,0.68,0
0.042768,-0.0029544,0.056636,-0.00036751,0.01688,0.00016884,0,0,0.051682,-0.022423,0,0.000439,0,0,0,0.056636,-0.00036801,0.01688,0.16971,0.024383,0.050634,4.1527e-06,0.86,0.68,0
0.043285,-0.0029565,0.056629,-0.00037004,0.016878,0.00015756,0,0,0.051677,-0.022422,0,0.00040966,0,0,0,0.056629,-0.00037047,0.016878,0.15838,0.024379,0.05063,4.1514e-06,0.87,0.68,0
0.043802,-0.0029584,0.056622,-0.00037226,0.016875,0.00014609,0,0,0.051672,-0.022422,0,0.00037984,0,0,0,0.056623,-0.00037263,0.016875,0.14686,0.024375,0.050625,4.1501e-06,0.88,0.68,0
0.044318,-0.0029601,0.056617,-0.00037421,0.016873,0.00013446,0,0,0.051667,-0.022421,0,0.00034958,0,0,0,0.056617,-0.00037453,0.016873,0.13517,0.024372,0.050622,4.1489e-06,0.89,0.68,0
0.044835,-0.0029616,0.056611,-0.00037592,0.016871,0.00012267,0,0,0.051663,-0.02242,0,0.00031894,0,0,0,0.056611,-0.00037618,0.016871,0.12333,0.024369,0.050618,4.1478e-06,0.9,0.68,0
0.045352,-0.002963,0.056606,-0.0003774,0.016869,0.00011075,0,0,0.051659,-0.02242,0,0.00028796,0,0,0,0.056606,-0.00037762,0.016869,0.11136,0.024366,0.050615,4.1469e-06,0.91,0.68,0
0.045868,-0.0029642,0.056602,-0.00037868,0.016867,9.8723e-05,0,0,0.051655,-0.022419,0,0.00025668,0,0,0,0.056602,-0.00037885,0.016867,0.099269,0.024363,0.050612,4.146e-06,0.92,0.68,0
0.046385,-0.0029652,0.056598,-0.00037976,0.016865,8.6592e-05,0,0,0.051652,-0.022419,0,0.00022514,0,0,0,0.056598,-0.00037989,0.016865,0.087075,0.024361,0.050609,4.1452e-06,0.93,0.68,0
0.046901,-0.0029661,0.056594,-0.00038067,0.016864,7.4375e-05,0,0,0.05165,-0.022418,0,0.00019338,0,0,0,0.056595,-0.00038077,0.016864,0.074793,0.024359,0.050607,4.1445e-06,0.94,0.68,0
0.047418,-0.0029669,0.056592,-0.00038142,0.016863,6.2086e-05,0,0,0.051647,-0.022418,0,0.00016143,0,0,0,0.056592,-0.00038149,0.016863,0.062438,0.024358,0.050605,4.144e-06,0.95,0.68,0
0.047934,-0.0029675,0.056589,-0.00038202,0.016862,4.9739e-05,0,0,0.051645,-0.022417,0,0.00012932,0,0,0,0.056589,-0.00038207,0.016862,0.050022,0.024356,0.050603,4.1435e-06,0.96,0.68,0
0.048451,-0.002968,0.056587,-0.00038248,0.016862,3.7344e-05,0,0,0.051644,-0.022417,0,9.7095e-05,0,0,0,0.056587,-0.0003825,0.016862,0.037558,0.024355,0.050602,4.1431e-06,0.97,0.68,0
0.048967,-0.0029683,0.056586,-0.0003828,0.016861,2.4915e-05,0,0,0.051643,-0.022417,0,6.478e-05,0,0,0,0.056586,-0.00038281,0.016861,0.025058,0.024355,0.050601,4.1428e-06,0.98,0.68,0
0.049484,-0.0029686,0.056585,-0.00038299,0.016861,1.2463e-05,0,0,0.051642,-0.022417,0,3.2405e-05,0,0,0,0.056585,-0.00038299,0.016861,0.012535,0.024354,0.0506,4.1427e-06,0.99,0.68,0
0.05,-0.0029686,0.056585,-0.00038305,0.016861,-2.6127e-06,0,0,0.051642,-0.022417,0,-6.793e-06,0,0,0,0.056585,-0.00038305,0.016861,-0.0026277,0.024354,0.0506,4.1426e-06,1,0.68,0
0,0,0.051592,0.022111,0.022111,-0.0025222,0,0,0.038326,3.2526e-19,0,-0.0065576,0,0,0,0.051807,0.021897,0.022111,-4.8547,0.031938,0.029803,1.3594e-06,0,0.69,0
0.00038326,-6.5576e-05,0.051495,0.020965,0.021738,-0.0025282,0,0,0.038684,-0.0010045,0,-0.0065734,0,0,0,0.051703,0.020757,0.021738,-4.7022,0.031399,0.030467,1.4474e-06,0.01,0.69,0
0.00077368,-0.0001325,0.051877,0.020027,0.021571,-0.0025611,0,0,0.039398,-0.0020073,0,-0.0066587,0,0,0,0.052082,0.019823,0.021571,-4.5681,0.031159,0.031421,1.5767e-06,0.02,0.69,0
0.0011712,-0.00020078,0.052255,0.019094,0.021405,-0.0025942,0,0,0.040106,-0.0030038,0,-0.006745,0,0,0,0.052457,0.018893,0.021405,-4.4462,0.030918,0.032382,1.7085e-06,0.03,0.69,0
0.0015758,-0.00027042,0.052627,0.01817,0.021239,-0.0026263,0,0,0.040804,-0.0039894,0,-0.0068283,0,0,0,0.052826,0.017971,0.021239,-4.3337,0.030679,0.033341,1.842e-06,0.04,0.69,0
0.0019873,-0.00034137,0.052989,0.01726,0.021075,-0.0026557,0,0,0.041489,-0.0049596,0,-0.0069049,0,0,0,0.053186,0.017063,0.021075,-4.2277,0.030441,0.034293,1.9761e-06,0.05,0.69,0
0.0024056,-0.00041357,0.053341,0.016366,0.020912,-0.0026811,0,0,0.042158,-0.0059102,0,-0.0069708,0,0,0,0.053534,0.016172,0.020912,-4.1258,0.030206,0.035232,2.1097e-06,0.06,0.69,0
0.0028304,-0.00048693,0.053679,0.015492,0.020751,-0.0027008,0,0,0.042806,-0.0068374,0,-0.0070222,0,0,0,0.053869,0.015302,0.020751,-4.0256,0.029974,0.036152,2.242e-06,0.07,0.69,0
0.0032617,-0.00056131,0.054003,0.014641,0.020593,-0.0027137,0,0,0.043433,-0.0077381,0,-0.0070556,0,0,0,0.05419,0.014455,0.020593,-3.9253,0.029746,0.037049,2.372e-06,0.08,0.69,0
0.0036991,-0.00063659,0.054312,0.013816,0.020438,-0.0027185,0,0,0.044036,-0.0086094,0,-0.007068,0,0,0,0.054493,0.013634,0.020438,-3.8234,0.029522,0.037918,2.4988e-06,0.09,0.69,0
0.0041424,-0.00071258,0.054603,0.013018,0.020286,-0.0027143,0,0,0.044612,-0.0094491,0,-0.0070573,0,0,0,0.05478,0.012841,0.020286,-3.7187,0.029302,0.038756,2.6218e-06,0.1,0.69,0
0.0045914,-0.00078911,0.054878,0.012249,0.020138,-0.0027006,0,0,0.045162,-0.010256,0,-0.0070216,0,0,0,0.055048,0.012079,0.020138,-3.6105,0.029088,0.03956,2.7403e-06,0.11,0.69,0
0.0050456,-0.00086598,0.055135,0.011511,0.019994,-0.0026769,0,0,0.045683,-0.011028,0,-0.00696,0,0,0,0.055298,0.011347,0.019994,-3.4984,0.02888,0.040329,2.8538e-06,0.12,0.69,0
0.005505,-0.00094298,0.055374,0.010803,0.019853,-0.0026432,0,0,0.046177,-0.011765,0,-0.0068724,0,0,0,0.05553,0.010647,0.019853,-3.3821,0.028677,0.041061,2.962e-06,0.13,0.69,0
0.0059692,-0.0010199,0.055595,0.010128,0.019717,-0.0025997,0,0,0.046642,-0.012466,0,-0.0067592,0,0,0,0.055743,0.0099794,0.019717,-3.2618,0.02848,0.041756,3.0646e-06,0.14,0.69,0
0.0064379,-0.0010966,0.055799,0.0094833,0.019585,-0.0025466,0,0,0.047079,-0.013132,0,-0.0066213,0,0,0,0.055939,0.0093437,0.019585,-3.1378,0.028289,0.042412,3.1615e-06,0.15,0.69,0
0.0069108,-0.0011727,0.055986,0.0088704,0.019457,-0.0024847,0,0,0.047488,-0.013763,0,-0.0064602,0,0,0,0.056117,0.0087397,0.019457,-3.0104,0.028105,0.043032,3.2525e-06,0.16,0.69,0
0.0073876,-0.0012483,0.056157,0.0082885,0.019334,-0.0024145,0,0,0.047871,-0.014359,0,-0.0062778,0,0,0,0.056279,0.008167,0.019334,-2.8803,0.027926,0.043614,3.3378e-06,0.17,0.69,0
0.0078682,-0.0013229,0.056312,0.007737,0.019215,-0.002337,0,0,0.048227,-0.014921,0,-0.0060763,0,0,0,0.056425,0.0076248,0.019215,-2.7481,0.027755,0.044161,3.4173e-06,0.18,0.69,0
0.0083521,-0.0013966,0.056453,0.0072153,0.0191,-0.002253,0,0,0.048558,-0.015451,0,-0.0058579,0,0,0,0.056556,0.0071124,0.0191,-2.6145,0.027589,0.044672,3.4912e-06,0.19,0.69,0
0.0088393,-0.001469,0.056579,0.0067224,0.01899,-0.0021635,0,0,0.048865,-0.015948,0,-0.0056251,0,0,0,0.056672,0.0066287,0.01899,-2.4801,0.02743,0.04515,3.5597e-06,0.2,0.69,0
0.0093294,-0.0015401,0.056691,0.0062575,0.018885,-0.0020694,0,0,0.049149,-0.016415,0,-0.0053805,0,0,0,0.056776,0.0061727,0.018885,-2.3457,0.027278,0.045596,3.623e-06,0.21,0.69,0
0.0098223,-0.0016098,0.056791,0.0058194,0.018783,-0.0019717,0,0,0.049411,-0.016853,0,-0.0051263,0,0,0,0.056867,0.0057433,0.018783,-2.2119,0.027131,0.046012,3.6813e-06,0.22,0.69,0
0.010318,-0.001678,0.05688,0.0054072,0.018686,-0.0018712,0,0,0.049652,-0.017263,0,-0.0048651,0,0,0,0.056947,0.0053392,0.018686,-2.0793,0.026991,0.046398,3.7349e-06,0.23,0.69,0
0.010815,-0.0017445,0.056957,0.0050196,0.018593,-0.0017689,0,0,0.049873,-0.017645,0,-0.0045991,0,0,0,0.057017,0.0049594,0.018593,-1.9484,0.026856,0.046756,3.784e-06,0.24,0.69,0
0.011315,-0.0018092,0.057024,0.0046556,0.018504,-0.0016655,0,0,0.050076,-0.018003,0,-0.0043304,0,0,0,0.057077,0.0046027,0.018504,-1.8198,0.026728,0.047089,3.8289e-06,0.25,0.69,0
0.011817,-0.0018722,0.057082,0.0043141,0.018419,-0.0015619,0,0,0.050262,-0.018336,0,-0.0040608,0,0,0,0.057128,0.0042679,0.018419,-1.6939,0.026605,0.047397,3.8699e-06,0.26,0.69,0
0.01232,-0.0019333,0.057132,0.0039939,0.018338,-0.0014586,0,0,0.050432,-0.018647,0,-0.0037923,0,0,0,0.057172,0.0039539,0.018338,-1.5711,0.026488,0.047682,3.9072e-06,0.27,0.69,0
0.012826,-0.0019926,0.057173,0.0036938,0.01826,-0.0013563,0,0,0.050587,-0.018936,0,-0.0035263,0,0,0,0.057208,0.0036595,0.01826,-1.4518,0.026376,0.047945,3.9411e-06,0.28,0.69,0
0.013332,-0.0020499,0.057208,0.0034129,0.018186,-0.0012555,0,0,0.050728,-0.019205,0,-0.0032642,0,0,0,0.057237,0.0033836,0.018186,-1.3362,0.026269,0.048189,3.9718e-06,0.29,0.69,0
0.01384,-0.0021053,0.057236,0.00315,0.018116,-0.0011567,0,0,0.050856,-0.019455,0,-0.0030074,0,0,0,0.05726,0.0031253,0.018116,-1.2246,0.026167,0.048413,3.9996e-06,0.3,0.69,0
0.014349,-0.0021588,0.057258,0.0029041,0.018048,-0.0010603,0,0,0.050972,-0.019688,0,-0.0027568,0,0,0,0.057278,0.0028835,0.018048,-1.1171,0.02607,0.04862,4.0246e-06,0.31,0.69,0
0.014859,-0.0022104,0.057274,0.0026743,0.017985,-0.00096663,0,0,0.051077,-0.019903,0,-0.0025132,0,0,0,0.057291,0.0026572,0.017985,-1.0139,0.025978,0.04881,4.0471e-06,0.32,0.69,0
0.015371,-0.00226,0.057286,0.0024595,0.017924,-0.000876,0,0,0.051171,-0.020103,0,-0.0022776,0,0,0,0.0573,0.0024455,0.017924,-0.91514,0.02589,0.048985,4.0674e-06,0.33,0.69,0
0.015883,-0.0023078,0.057294,0.0022589,0.017866,-0.00078861,0,0,0.051256,-0.020289,0,-0.0020504,0,0,0,0.057305,0.0022476,0.017866,-0.82078,0.025806,0.049146,4.0855e-06,0.34,0.69,0
0.016396,-0.0023537,0.057298,0.0020715,0.017811,-0.00070465,0,0,0.051333,-0.020461,0,-0.0018321,0,0,0,0.057307,0.0020625,0.017811,-0.73091,0.025727,0.049294,4.1016e-06,0.35,0.69,0
0.01691,-0.0023977,0.057298,0.0018966,0.017758,-0.00062427,0,0,0.051401,-0.02062,0,-0.0016231,0,0,0,0.057305,0.0018896,0.017758,-0.64551,0.025651,0.04943,4.116e-06,0.36,0.69,0
0.017424,-0.0024399,0.057295,0.0017335,0.017709,-0.00054754,0,0,0.051463,-0.020768,0,-0.0014236,0,0,0,0.057301,0.0017281,0.017709,-0.56456,0.025579,0.049554,4.1288e-06,0.37,0.69,0
0.017939,-0.0024803,0.05729,0.0015812,0.017661,-0.00047455,0,0,0.051517,-0.020904,0,-0.0012338,0,0,0,0.057294,0.0015772,0.017661,-0.48802,0.025511,0.049668,4.14e-06,0.38,0.69,0
0.018454,-0.002519,0.057282,0.0014392,0.017616,-0.00040531,0,0,0.051565,-0.02103,0,-0.0010538,0,0,0,0.057285,0.0014363,0.017616,-0.41582,0.025446,0.049772,4.1499e-06,0.39,0.69,0
0.01897,-0.002556,0.057272,0.0013068,0.017574,-0.00033982,0,0,0.051608,-0.021147,0,-0.00088354,0,0,0,0.057274,0.0013048,0.017574,-0.34788,0.025384,0.049867,4.1586e-06,0.4,0.69,0
0.019486,-0.0025914,0.057261,0.0011834,0.017533,-0.00027808,0,0,0.051646,-0.021255,0,-0.000723,0,0,0,0.057262,0.001182,0.017533,-0.28411,0.025326,0.049954,4.1661e-06,0.41,0.69,0
0.020003,-0.0026252,0.057248,0.0010684,0.017495,-0.00022002,0,0,0.051679,-0.021354,0,-0.00057206,0,0,0,0.057249,0.0010675,0.017495,-0.22439,0.02527,0.050033,4.1726e-06,0.42,0.69,0
0.02052,-0.0026574,0.057233,0.0009612,0.017458,-0.0001656,0,0,0.051708,-0.021446,0,-0.00043056,0,0,0,0.057234,0.00096071,0.017458,-0.16861,0.025218,0.050105,4.1782e-06,0.43,0.69,0
0.021037,-0.0026881,0.057218,0.00086135,0.017424,-0.00011474,0,0,0.051732,-0.021531,0,-0.00029832,0,0,0,0.057218,0.00086112,0.017424,-0.11665,0.025168,0.05017,4.1829e-06,0.44,0.69,0
0.021555,-0.0027173,0.057201,0.00076837,0.017391,-6.7351e-05,0,0,0.051754,-0.021609,0,-0.00017511,0,0,0,0.057202,0.00076829,0.017391,-0.06838,0.02512,0.050229,4.1868e-06,0.45,0.69,0
0.022072,-0.0027452,0.057184,0.00068179,0.01736,-2.3338e-05,0,0,0.051772,-0.021681,0,-6.0678e-05,0,0,0,0.057184,0.00068178,0.01736,-0.023665,0.025075,0.050283,4.1901e-06,0.46,0.69,0
0.02259,-0.0027717,0.057166,0.0006012,0.01733,1.7405e-05,0,0,0.051787,-0.021748,0,4.5253e-05,0,0,0,0.057166,0.00060119,0.01733,0.01763,0.025033,0.050331,4.1927e-06,0.47,0.69,0
0.023108,-0.0027968,0.057148,0.0005262,0.017302,5.4987e-05,0,0,0.051799,-0.021809,0,0.00014297,0,0,0,0.057148,0.00052615,0.017302,0.055642,0.024992,0.050374,4.1947e-06,0.48,0.69,0
0.023626,-0.0028208,0.057129,0.00045643,0.017276,8.9525e-05,0,0,0.05181,-0.021865,0,0.00023277,0,0,0,0.057129,0.00045629,0.017276,0.090509,0.024954,0.050413,4.1962e-06,0.49,0.69,0
0.024144,-0.0028435,0.05711,0.00039155,0.01725,0.00012114,0,0,0.051817,-0.021917,0,0.00031496,0,0,0,0.05711,0.0003913,0.01725,0.12237,0.024917,0.050448,4.1973e-06,0.5,0.69,0
0.024662,-0.0028651,0.057091,0.00033124,0.017227,0.00014994,0,0,0.051823,-0.021964,0,0.00038985,0,0,0,0.057091,0.00033084,0.017227,0.15136,0.024883,0.05048,4.1979e-06,0.51,0.69,0
0.025181,-0.0028855,0.057071,0.00027519,0.017204,0.00017607,0,0,0.051828,-0.022007,0,0.00045777,0,0,0,0.057072,0.00027465,0.017204,0.17761,0.02485,0.050507,4.1981e-06,0.52,0.69,0
0.025699,-0.0029049,0.057052,0.00022313,0.017182,0.00019963,0,0,0.05183,-0.022047,0,0.00051903,0,0,0,0.057053,0.00022243,0.017182,0.20126,0.024819,0.050532,4.1981e-06,0.53,0.69,0
0.026217,-0.0029233,0.057032,0.00017479,0.017162,0.00022075,0,0,0.051832,-0.022084,0,0.00057395,0,0,0,0.057033,0.00017393,0.017162,0.22245,0.02479,0.050554,4.1977e-06,0.54,0.69,0
0.026736,-0.0029407,0.057013,0.00012993,0.017143,0.00023955,0,0,0.051831,-0.022117,0,0.00062283,0,0,0,0.057014,0.00012892,0.017143,0.24128,0.024762,0.050572,4.197e-06,0.55,0.69,0
0.027254,-0.0029572,0.056994,8.8319e-05,0.017125,0.00025614,0,0,0.05183,-0.022147,0,0.00066597,0,0,0,0.056995,8.7166e-05,0.017125,0.25789,0.024736,0.050589,4.1961e-06,0.56,0.69,0
0.027772,-0.0029727,0.056975,4.9746e-05,0.017107,0.00027065,0,0,0.051828,-0.022175,0,0.00070369,0,0,0,0.056976,4.8459e-05,0.017107,0.27241,0.024711,0.050603,4.195e-06,0.57,0.69,0
0.02829,-0.0029875,0.056956,1.4008e-05,0.017091,0.00028318,0,0,0.051825,-0.0222,0,0.00073628,0,0,0,0.056958,1.26e-05,0.017091,0.28493,0.024687,0.050615,4.1937e-06,0.58,0.69,0
0.028809,-0.0030014,0.056938,-1.908e-05,0.017076,0.00029385,0,0,0.051821,-0.022223,0,0.00076401,0,0,0,0.056939,-2.0596e-05,0.017076,0.29559,0.024665,0.050625,4.1923e-06,0.59,0.69,0
0.029327,-0.0030145,0.056919,-4.9695e-05,0.017061,0.00030275,0,0,0.051816,-0.022244,0,0.00078716,0,0,0,0.056921,-5.1304e-05,0.017061,0.30448,0.024643,0.050633,4.1907e-06,0.6,0.69,0
0.029845,-0.0030269,0.056901,-7.8001e-05,0.017047,0.00031,0,0,0.051811,-0.022263,0,0.000806,0,0,0,0.056903,-7.9687e-05,0.017047,0.31171,0.024623,0.05064,4.1889e-06,0.61,0.69,0
0.030363,-0.0030386,0.056884,-0.00010415,0.017034,0.00031569,0,0,0.051805,-0.022279,0,0.00082079,0,0,0,0.056885,-0.0001059,0.017034,0.31738,0.024604,0.050645,4.1871e-06,0.62,0.69,0
0.030881,-0.0030497,0.056866,-0.00012829,0.017021,0.00031991,0,0,0.051798,-0.022295,0,0.00083177,0,0,0,0.056868,-0.00013008,0.017021,0.32159,0.024587,0.050649,4.1852e-06,0.63,0.69,0
0.031399,-0.00306,0.056849,-0.00015055,0.01701,0.00032276,0,0,0.051792,-0.022308,0,0.00083918,0,0,0,0.056851,-0.00015238,0.01701,0.32442,0.02457,0.050652,4.1832e-06,0.64,0.69,0
0.031917,-0.0030698,0.056833,-0.00017106,0.016998,0.00032432,0,0,0.051784,-0.02232,0,0.00084324,0,0,0,0.056835,-0.00017291,0.016998,0.32597,0.024553,0.050654,4.1812e-06,0.65,0.69,0
0.032435,-0.003079,0.056817,-0.00018994,0.016988,0.00032469,0,0,0.051777,-0.022331,0,0.00084418,0,0,0,0.056818,-0.00019179,0.016988,0.32632,0.024538,0.050655,4.1791e-06,0.66,0.69,0
0.032953,-0.0030877,0.056801,-0.00020731,0.016978,0.00032392,0,0,0.05177,-0.022341,0,0.0008422,0,0,0,0.056803,-0.00020915,0.016978,0.32554,0.024524,0.050654,4.1769e-06,0.67,0.69,0
0.03347,-0.0030959,0.056785,-0.00022325,0.016969,0.00032211,0,0,0.051762,-0.02235,0,0.00083749,0,0,0,0.056787,-0.00022507,0.016969,0.32372,0.02451,0.050653,4.1748e-06,0.68,0.69,0
0.033988,-0.0031035,0.056771,-0.00023788,0.01696,0.00031933,0,0,0.051754,-0.022357,0,0.00083024,0,0,0,0.056772,-0.00023967,0.01696,0.32092,0.024497,0.050652,4.1726e-06,0.69,0.69,0
0.034505,-0.0031107,0.056756,-0.00025129,0.016951,0.00031563,0,0,0.051746,-0.022364,0,0.00082064,0,0,0,0.056758,-0.00025304,0.016951,0.31721,0.024485,0.05065,4.1705e-06,0.7,0.69,0
0.035023,-0.0031175,0.056742,-0.00026356,0.016944,0.00031109,0,0,0.051738,-0.022369,0,0.00080884,0,0,0,0.056744,-0.00026525,0.016944,0.31266,0.024474,0.050647,4.1683e-06,0.71,0.69,0
0.03554,-0.0031238,0.056728,-0.00027477,0.016936,0.00030577,0,0,0.05173,-0.022374,0,0.000795,0,0,0,0.05673,-0.00027641,0.016936,0.30733,0.024463,0.050644,4.1662e-06,0.72,0.69,0
0.036057,-0.0031297,0.056715,-0.000285,0.016929,0.00029972,0,0,0.051722,-0.022378,0,0.00077928,0,0,0,0.056717,-0.00028658,0.016929,0.30127,0.024453,0.05064,4.1641e-06,0.73,0.69,0
0.036574,-0.0031353,0.056703,-0.00029432,0.016922,0.000293,0,0,0.051714,-0.022382,0,0.00076181,0,0,0,0.056704,-0.00029583,0.016922,0.29453,0.024443,0.050636,4.162e-06,0.74,0.69,0
0.037091,-0.0031404,0.05669,-0.0003028,0.016916,0.00028567,0,0,0.051706,-0.022385,0,0.00074273,0,0,0,0.056692,-0.00030423,0.016916,0.28717,0.024435,0.050632,4.1599e-06,0.75,0.69,0
0.037609,-0.0031453,0.056678,-0.00031051,0.01691,0.00027776,0,0,0.051699,-0.022387,0,0.00072217,0,0,0,0.05668,-0.00031186,0.01691,0.27924,0.024426,0.050627,4.1579e-06,0.76,0.69,0
0.038125,-0.0031498,0.056667,-0.00031749,0.016905,0.00026932,0,0,0.051691,-0.022389,0,0.00070023,0,0,0,0.056668,-0.00031876,0.016905,0.27078,0.024418,0.050623,4.1559e-06,0.77,0.69,0
0.038642,-0.003154,0.056656,-0.00032381,0.0169,0.0002604,0,0,0.051684,-0.022391,0,0.00067704,0,0,0,0.056657,-0.000325,0.0169,0.26183,0.024411,0.050618,4.154e-06,0.78,0.69,0
0.039159,-0.003158,0.056646,-0.00032952,0.016895,0.00025103,0,0,0.051676,-0.022392,0,0.00065269,0,0,0,0.056647,-0.00033063,0.016895,0.25244,0.024404,0.050613,4.1522e-06,0.79,0.69,0
0.039676,-0.0031616,0.056636,-0.00033467,0.01689,0.00024126,0,0,0.051669,-0.022393,0,0.00062727,0,0,0,0.056637,-0.00033569,0.01689,0.24263,0.024397,0.050609,4.1504e-06,0.8,0.69,0
0.040192,-0.003165,0.056627,-0.0003393,0.016886,0.00023111,0,0,0.051663,-0.022393,0,0.00060089,0,0,0,0.056628,-0.00034024,0.016886,0.23245,0.024391,0.050604,4.1486e-06,0.81,0.69,0
0.040709,-0.0031681,0.056618,-0.00034346,0.016882,0.00022063,0,0,0.051656,-0.022394,0,0.00057363,0,0,0,0.056619,-0.00034431,0.016882,0.22192,0.024386,0.050599,4.147e-06,0.82,0.69,0
0.041226,-0.0031711,0.056609,-0.00034718,0.016879,0.00020983,0,0,0.05165,-0.022394,0,0.00054555,0,0,0,0.05661,-0.00034795,0.016879,0.21107,0.02438,0.050594,4.1454e-06,0.83,0.69,0
0.041742,-0.0031737,0.056601,-0.0003505,0.016875,0.00019875,0,0,0.051644,-0.022394,0,0.00051674,0,0,0,0.056602,-0.0003512,0.016875,0.19994,0.024375,0.05059,4.1439e-06,0.84,0.69,0
0.042258,-0.0031762,0.056594,-0.00035346,0.016872,0.00018741,0,0,0.051638,-0.022393,0,0.00048726,0,0,0,0.056594,-0.00035408,0.016872,0.18855,0.024371,0.050585,4.1424e-06,0.85,0.69,0
0.042775,-0.0031785,0.056587,-0.00035609,0.016869,0.00017584,0,0,0.051633,-0.022393,0,0.00045718,0,0,0,0.056587,-0.00035663,0.016869,0.17693,0.024367,0.050581,4.1411e-06,0.86,0.69,0
0.043291,-0.0031805,0.05658,-0.00035841,0.016867,0.00016406,0,0,0.051628,-0.022392,0,0.00042656,0,0,0,0.056581,-0.00035889,0.016867,0.16509,0.024363,0.050577,4.1398e-06,0.87,0.69,0
0.043807,-0.0031824,0.056574,-0.00036046,0.016864,0.0001521,0,0,0.051623,-0.022392,0,0.00039545,0,0,0,0.056575,-0.00036087,0.016864,0.15306,0.024359,0.050573,4.1386e-06,0.88,0.69,0
0.044324,-0.0031841,0.056569,-0.00036226,0.016862,0.00013996,0,0,0.051619,-0.022391,0,0.00036391,0,0,0,0.056569,-0.0003626,0.016862,0.14086,0.024356,0.05057,4.1375e-06,0.89,0.69,0
0.04484,-0.0031856,0.056564,-0.00036383,0.01686,0.00012768,0,0,0.051615,-0.022391,0,0.00033197,0,0,0,0.056564,-0.00036411,0.01686,0.12851,0.024353,0.050566,4.1365e-06,0.9,0.69,0
0.045356,-0.003187,0.056559,-0.00036518,0.016858,0.00011527,0,0,0.051611,-0.02239,0,0.00029969,0,0,0,0.056559,-0.00036542,0.016858,0.11602,0.024351,0.050563,4.1356e-06,0.91,0.69,0
0.045872,-0.0031882,0.056555,-0.00036635,0.016857,0.00010273,0,0,0.051608,-0.02239,0,0.00026711,0,0,0,0.056555,-0.00036654,0.016857,0.10341,0.024348,0.05056,4.1348e-06,0.92,0.69,0
0.046388,-0.0031893,0.056551,-0.00036734,0.016855,9.0104e-05,0,0,0.051605,-0.022389,0,0.00023427,0,0,0,0.056551,-0.00036749,0.016855,0.090701,0.024346,0.050558,4.134e-06,0.93,0.69,0
0.046904,-0.0031902,0.056548,-0.00036818,0.016854,7.7387e-05,0,0,0.051602,-0.022389,0,0.00020121,0,0,0,0.056548,-0.00036828,0.016854,0.077902,0.024345,0.050556,4.1334e-06,0.94,0.69,0
0.04742,-0.003191,0.056545,-0.00036886,0.016853,6.4596e-05,0,0,0.0516,-0.022388,0,0.00016795,0,0,0,0.056545,-0.00036893,0.016853,0.065029,0.024343,0.050554,4.1329e-06,0.95,0.69,0
0.047936,-0.0031916,0.056543,-0.00036941,0.016852,5.1747e-05,0,0,0.051598,-0.022388,0,0.00013454,0,0,0,0.056543,-0.00036945,0.016852,0.052095,0.024342,0.050552,4.1324e-06,0.96,0.69,0
0.048452,-0.003192,0.056542,-0.00036982,0.016851,3.8851e-05,0,0,0.051597,-0.022388,0,0.00010101,0,0,0,0.056542,-0.00036985,0.016851,0.039113,0.024341,0.050551,4.1321e-06,0.97,0.69,0
0.048968,-0.0031924,0.05654,-0.00037012,0.016851,2.592e-05,0,0,0.051596,-0.022388,0,6.7391e-05,0,0,0,0.05654,-0.00037013,0.016851,0.026095,0.02434,0.05055,4.1318e-06,0.98,0.69,0
0.049484,-0.0031926,0.05654,-0.00037029,0.016851,1.2966e-05,0,0,0.051596,-0.022387,0,3.3711e-05,0,0,0,0.05654,-0.00037029,0.016851,0.013054,0.02434,0.050549,4.1317e-06,0.99,0.69,0
0.05,-0.0031927,0.056539,-0.00037035,0.016851,-2.5961e-06,0,0,0.051595,-0.022387,0,-6.7499e-06,0,0,0,0.056539,-0.00037035,0.016851,-0.0026137,0.02434,0.050549,4.1316e-06,1,0.69,0
0,0,0.051663,0.022141,0.022141,-0.002908,0,0,0.038378,-5.421e-20,0,-0.0075609,0,0,0,0.051947,0.021858,0.022141,-5.5725,0.031982,0.029948,1.3792e-06,0,0.7,0
0.00038378,-7.5609e-05,0.051566,0.020997,0.021769,-0.002913,0,0,0.038736,-0.0010033,0,-0.0075738,0,0,0,0.051841,0.020722,0.021769,-5.3952,0.031444,0.030609,1.4671e-06,0.01,0.7,0
0.00077472,-0.00015255,0.051948,0.020059,0.021602,-0.002943,0,0,0.03945,-0.0020062,0,-0.0076517,0,0,0,0.052218,0.01979,0.021602,-5.2288,0.031203,0.031561,1.5966e-06,0.02,0.7,0
0.0011728,-0.0002308,0.052327,0.019124,0.021435,-0.0029708,0,0,0.040159,-0.0030043,0,-0.0077241,0,0,0,0.05259,0.018861,0.021435,-5.0729,0.030962,0.032519,1.7289e-06,0.03,0.7,0
0.0015779,-0.0003103,0.052699,0.018197,0.021269,-0.0029951,0,0,0.040859,-0.0039929,0,-0.0077874,0,0,0,0.052957,0.017939,0.021269,-4.9249,0.030722,0.033477,1.8628e-06,0.04,0.7,0
0.00199,-0.00039098,0.053062,0.017282,0.021103,-0.0030146,0,0,0.041547,-0.0049676,0,-0.0078381,0,0,0,0.053315,0.01703,0.021103,-4.7825,0.030483,0.034429,1.9975e-06,0.05,0.7,0
0.0024088,-0.00047271,0.053415,0.016382,0.020939,-0.003028,0,0,0.042219,-0.0059241,0,-0.0078728,0,0,0,0.053662,0.016136,0.020939,-4.6437,0.030246,0.035369,2.1319e-06,0.06,0.7,0
0.0028343,-0.00055537,0.053756,0.015501,0.020777,-0.003034,0,0,0.042872,-0.0068587,0,-0.0078884,0,0,0,0.053995,0.015262,0.020777,-4.5066,0.030011,0.036291,2.2649e-06,0.07,0.7,0
0.0032663,-0.0006388,0.054082,0.014642,0.020617,-0.0030316,0,0,0.043504,-0.0077677,0,-0.0078823,0,0,0,0.054314,0.01441,0.020617,-4.37,0.029781,0.03719,2.3957e-06,0.08,0.7,0
0.0037044,-0.00072283,0.054393,0.013808,0.02046,-0.0030201,0,0,0.044112,-0.0086482,0,-0.0078522,0,0,0,0.054616,0.013584,0.02046,-4.2325,0.029553,0.038063,2.5235e-06,0.09,0.7,0
0.0041485,-0.00080727,0.054687,0.013,0.020306,-0.0029987,0,0,0.044695,-0.0094976,0,-0.0077967,0,0,0,0.054901,0.012786,0.020306,-4.0935,0.029331,0.038905,2.6474e-06,0.1,0.7,0
0.0045983,-0.00089191,0.054963,0.012221,0.020155,-0.0029672,0,0,0.04525,-0.010314,0,-0.0077148,0,0,0,0.055168,0.012016,0.020155,-3.9523,0.029113,0.039713,2.7667e-06,0.11,0.7,0
0.0050535,-0.00097655,0.055221,0.011473,0.020008,-0.0029255,0,0,0.045777,-0.011096,0,-0.0076063,0,0,0,0.055416,0.011278,0.020008,-3.8088,0.028901,0.040485,2.8811e-06,0.12,0.7,0
0.0055139,-0.001061,0.055462,0.010755,0.019865,-0.0028737,0,0,0.046275,-0.011843,0,-0.0074717,0,0,0,0.055646,0.010571,0.019865,-3.6629,0.028694,0.041221,2.99e-06,0.13,0.7,0
0.005979,-0.001145,0.055684,0.01007,0.019726,-0.0028123,0,0,0.046745,-0.012553,0,-0.0073119,0,0,0,0.055856,0.0098972,0.019726,-3.5148,0.028493,0.041918,3.0932e-06,0.14,0.7,0
0.0064488,-0.0012283,0.055888,0.0094166,0.019591,-0.0027417,0,0,0.047185,-0.013227,0,-0.0071284,0,0,0,0.056049,0.0092554,0.019591,-3.3648,0.028299,0.042577,3.1904e-06,0.15,0.7,0
0.0069227,-0.0013108,0.056074,0.0087954,0.019461,-0.0026627,0,0,0.047597,-0.013865,0,-0.006923,0,0,0,0.056224,0.0086459,0.019461,-3.2133,0.02811,0.043198,3.2816e-06,0.16,0.7,0
0.0074007,-0.0013924,0.056243,0.008206,0.019335,-0.0025761,0,0,0.047981,-0.014467,0,-0.0066979,0,0,0,0.056381,0.0080683,0.019335,-3.0609,0.027928,0.043781,3.3668e-06,0.17,0.7,0
0.0078824,-0.0014727,0.056396,0.007648,0.019213,-0.0024829,0,0,0.048338,-0.015035,0,-0.0064555,0,0,0,0.056523,0.0075219,0.019213,-2.9082,0.027753,0.044327,3.4461e-06,0.18,0.7,0
0.0083675,-0.0015516,0.056534,0.0071207,0.019096,-0.002384,0,0,0.048669,-0.015568,0,-0.0061983,0,0,0,0.056648,0.007006,0.019096,-2.7557,0.027584,0.044837,3.5196e-06,0.19,0.7,0
0.0088557,-0.0016291,0.056656,0.0066232,0.018984,-0.0022803,0,0,0.048974,-0.016069,0,-0.0059289,0,0,0,0.05676,0.0065195,0.018984,-2.6042,0.027421,0.045313,3.5874e-06,0.2,0.7,0
0.0093469,-0.0017049,0.056765,0.0061547,0.018876,-0.002173,0,0,0.049256,-0.016538,0,-0.0056498,0,0,0,0.056858,0.0060615,0.018876,-2.454,0.027265,0.045755,3.6499e-06,0.21,0.7,0
0.0098408,-0.001779,0.05686,0.0057139,0.018772,-0.0020629,0,0,0.049514,-0.016976,0,-0.0053635,0,0,0,0.056943,0.0056308,0.018772,-2.3059,0.027115,0.046166,3.7072e-06,0.22,0.7,0
0.010337,-0.0018512,0.056944,0.0052998,0.018673,-0.0019509,0,0,0.049752,-0.017385,0,-0.0050724,0,0,0,0.057017,0.0052262,0.018673,-2.1603,0.026972,0.046548,3.7596e-06,0.23,0.7,0
0.010836,-0.0019215,0.057015,0.0049113,0.018578,-0.0018379,0,0,0.049969,-0.017767,0,-0.0047786,0,0,0,0.05708,0.0048465,0.018578,-2.0177,0.026835,0.046901,3.8074e-06,0.24,0.7,0
0.011337,-0.0019898,0.057077,0.0045471,0.018487,-0.0017248,0,0,0.050167,-0.018122,0,-0.0044844,0,0,0,0.057134,0.0044905,0.018487,-1.8785,0.026704,0.047227,3.8509e-06,0.25,0.7,0
0.011839,-0.0020561,0.057129,0.0042061,0.018401,-0.0016121,0,0,0.050347,-0.018453,0,-0.0041914,0,0,0,0.057178,0.004157,0.018401,-1.7431,0.026579,0.047528,3.8904e-06,0.26,0.7,0
0.012344,-0.0021204,0.057173,0.0038869,0.018318,-0.0015006,0,0,0.050511,-0.01876,0,-0.0039014,0,0,0,0.057215,0.0038447,0.018318,-1.6118,0.026459,0.047806,3.9261e-06,0.27,0.7,0
0.012849,-0.0021825,0.057208,0.0035885,0.018239,-0.0013908,0,0,0.05066,-0.019046,0,-0.0036159,0,0,0,0.057244,0.0035525,0.018239,-1.4848,0.026345,0.048062,3.9584e-06,0.28,0.7,0
0.013357,-0.0022425,0.057236,0.0033098,0.018164,-0.0012832,0,0,0.050794,-0.01931,0,-0.0033362,0,0,0,0.057267,0.0032792,0.018164,-1.3623,0.026237,0.048297,3.9874e-06,0.29,0.7,0
0.013865,-0.0023004,0.057258,0.0030494,0.018092,-0.0011782,0,0,0.050916,-0.019556,0,-0.0030634,0,0,0,0.057284,0.0030238,0.018092,-1.2445,0.026133,0.048514,4.0135e-06,0.3,0.7,0
0.014375,-0.0023562,0.057274,0.0028064,0.018024,-0.0010763,0,0,0.051025,-0.019783,0,-0.0027984,0,0,0,0.057295,0.0027852,0.018024,-1.1316,0.026035,0.048712,4.0369e-06,0.31,0.7,0
0.014886,-0.0024099,0.057285,0.0025798,0.017959,-0.00097768,0,0,0.051123,-0.019994,0,-0.002542,0,0,0,0.057302,0.0025623,0.017959,-1.0235,0.025941,0.048895,4.0578e-06,0.32,0.7,0
0.015397,-0.0024615,0.057291,0.0023684,0.017898,-0.00088261,0,0,0.051211,-0.020188,0,-0.0022948,0,0,0,0.057305,0.0023542,0.017898,-0.92043,0.025852,0.049062,4.0763e-06,0.33,0.7,0
0.01591,-0.0025111,0.057293,0.0021714,0.017839,-0.00079128,0,0,0.05129,-0.020368,0,-0.0020573,0,0,0,0.057304,0.00216,0.017839,-0.82227,0.025768,0.049215,4.0929e-06,0.34,0.7,0
0.016423,-0.0025586,0.057291,0.0019877,0.017784,-0.00070384,0,0,0.05136,-0.020535,0,-0.00183,0,0,0,0.0573,0.0019788,0.017784,-0.72903,0.025688,0.049355,4.1075e-06,0.35,0.7,0
0.016937,-0.0026042,0.057287,0.0018167,0.017731,-0.00062037,0,0,0.051422,-0.020689,0,-0.001613,0,0,0,0.057294,0.0018098,0.017731,-0.64069,0.025611,0.049483,4.1203e-06,0.36,0.7,0
0.017452,-0.0026479,0.057279,0.0016574,0.017681,-0.00054095,0,0,0.051478,-0.020831,0,-0.0014065,0,0,0,0.057284,0.0016522,0.017681,-0.55716,0.025539,0.0496,4.1316e-06,0.37,0.7,0
0.017967,-0.0026897,0.057269,0.0015091,0.017633,-0.0004656,0,0,0.051526,-0.020962,0,-0.0012105,0,0,0,0.057273,0.0015052,0.017633,-0.47837,0.025471,0.049706,4.1415e-06,0.38,0.7,0
0.018482,-0.0027296,0.057257,0.001371,0.017588,-0.00039431,0,0,0.051569,-0.021083,0,-0.0010252,0,0,0,0.05726,0.0013682,0.017588,-0.40423,0.025406,0.049804,4.1501e-06,0.39,0.7,0
0.018998,-0.0027677,0.057243,0.0012425,0.017546,-0.00032706,0,0,0.051607,-0.021194,0,-0.00085036,0,0,0,0.057245,0.0012406,0.017546,-0.33461,0.025344,0.049892,4.1575e-06,0.4,0.7,0
0.019514,-0.0028042,0.057228,0.0011229,0.017505,-0.0002638,0,0,0.051639,-0.021297,0,-0.00068589,0,0,0,0.057229,0.0011217,0.017505,-0.26939,0.025285,0.049972,4.1638e-06,0.41,0.7,0
0.020031,-0.0028389,0.057211,0.0010117,0.017467,-0.00020447,0,0,0.051668,-0.021392,0,-0.00053162,0,0,0,0.057212,0.0010109,0.017467,-0.20845,0.02523,0.050045,4.1692e-06,0.42,0.7,0
0.020548,-0.002872,0.057194,0.00090819,0.017431,-0.00014897,0,0,0.051692,-0.021479,0,-0.00038733,0,0,0,0.057194,0.0009078,0.017431,-0.15165,0.025177,0.050111,4.1737e-06,0.43,0.7,0
0.021065,-0.0029035,0.057175,0.00081195,0.017396,-9.7222e-05,0,0,0.051713,-0.021559,0,-0.00025278,0,0,0,0.057175,0.00081178,0.017396,-0.09883,0.025128,0.050171,4.1775e-06,0.44,0.7,0
0.021582,-0.0029335,0.057156,0.00072246,0.017364,-4.9107e-05,0,0,0.05173,-0.021633,0,-0.00012768,0,0,0,0.057156,0.00072242,0.017364,-0.049858,0.025081,0.050225,4.1805e-06,0.45,0.7,0
0.022099,-0.0029621,0.057136,0.00063928,0.017333,-4.5162e-06,0,0,0.051744,-0.021701,0,-1.1742e-05,0,0,0,0.057136,0.00063927,0.017333,-0.00458,0.025036,0.050274,4.1829e-06,0.46,0.7,0
0.022617,-0.0029892,0.057116,0.00056196,0.017303,3.6673e-05,0,0,0.051756,-0.021764,0,9.535e-05,0,0,0,0.057116,0.00056193,0.017303,0.037154,0.024994,0.050317,4.1847e-06,0.47,0.7,0
0.023134,-0.003015,0.057095,0.00049012,0.017276,7.4586e-05,0,0,0.051766,-0.021821,0,0.00019392,0,0,0,0.057096,0.00049002,0.017276,0.075495,0.024954,0.050356,4.1861e-06,0.48,0.7,0
0.023652,-0.0030395,0.057075,0.00042338,0.01725,0.00010935,0,0,0.051773,-0.021874,0,0.00028431,0,0,0,0.057075,0.00042317,0.01725,0.11059,0.024916,0.050392,4.1869e-06,0.49,0.7,0
0.02417,-0.0030627,0.057054,0.00036141,0.017225,0.0001411,0,0,0.051778,-0.021922,0,0.00036686,0,0,0,0.057055,0.00036106,0.017225,0.1426,0.02488,0.050423,4.1874e-06,0.5,0.7,0
0.024688,-0.0030847,0.057033,0.00030387,0.017201,0.00016996,0,0,0.051782,-0.021966,0,0.0004419,0,0,0,0.057034,0.00030336,0.017201,0.17165,0.024846,0.050451,4.1875e-06,0.51,0.7,0
0.025206,-0.0031056,0.057013,0.00025048,0.017179,0.00019607,0,0,0.051784,-0.022007,0,0.00050977,0,0,0,0.057014,0.0002498,0.017179,0.19791,0.024814,0.050475,4.1872e-06,0.52,0.7,0
0.025723,-0.0031254,0.056992,0.00020094,0.017158,0.00021955,0,0,0.051785,-0.022044,0,0.00057083,0,0,0,0.056993,0.00020009,0.017158,0.2215,0.024784,0.050497,4.1867e-06,0.53,0.7,0
0.026241,-0.0031441,0.056972,0.000155,0.017138,0.00024054,0,0,0.051784,-0.022078,0,0.0006254,0,0,0,0.056973,0.00015399,0.017138,0.24256,0.024755,0.050516,4.1859e-06,0.54,0.7,0
0.026759,-0.0031618,0.056952,0.00011242,0.017119,0.00025916,0,0,0.051783,-0.022109,0,0.00067381,0,0,0,0.056953,0.00011124,0.017119,0.26123,0.024728,0.050532,4.1849e-06,0.55,0.7,0
0.027277,-0.0031786,0.056932,7.2975e-05,0.017101,0.00027553,0,0,0.05178,-0.022137,0,0.00071637,0,0,0,0.056933,7.1639e-05,0.017101,0.27764,0.024702,0.050546,4.1837e-06,0.56,0.7,0
0.027795,-0.0031944,0.056913,3.6446e-05,0.017085,0.00028978,0,0,0.051776,-0.022163,0,0.00075342,0,0,0,0.056914,3.4969e-05,0.017085,0.29191,0.024678,0.050558,4.1824e-06,0.57,0.7,0
0.028313,-0.0032094,0.056894,2.6397e-06,0.017069,0.00030202,0,0,0.051772,-0.022186,0,0.00078525,0,0,0,0.056895,1.0364e-06,0.017069,0.30416,0.024655,0.050569,4.1809e-06,0.58,0.7,0
0.02883,-0.0032235,0.056875,-2.8627e-05,0.017054,0.00031236,0,0,0.051767,-0.022207,0,0.00081215,0,0,0,0.056877,-3.0342e-05,0.017054,0.31451,0.024633,0.050577,4.1792e-06,0.59,0.7,0
0.029348,-0.0032369,0.056856,-5.7526e-05,0.01704,0.00032093,0,0,0.051762,-0.022226,0,0.00083441,0,0,0,0.056858,-5.9336e-05,0.01704,0.32307,0.024613,0.050584,4.1775e-06,0.6,0.7,0
0.029865,-0.0032495,0.056838,-8.4217e-05,0.017026,0.00032781,0,0,0.051756,-0.022244,0,0.00085231,0,0,0,0.05684,-8.6105e-05,0.017026,0.32995,0.024594,0.05059,4.1756e-06,0.61,0.7,0
0.030383,-0.0032613,0.056821,-0.00010885,0.017014,0.00033312,0,0,0.051749,-0.022259,0,0.00086611,0,0,0,0.056823,-0.0001108,0.017014,0.33525,0.024575,0.050594,4.1737e-06,0.62,0.7,0
0.0309,-0.0032725,0.056804,-0.00013157,0.017002,0.00033695,0,0,0.051743,-0.022273,0,0.00087606,0,0,0,0.056806,-0.00013356,0.017002,0.33907,0.024558,0.050597,4.1717e-06,0.63,0.7,0
0.031418,-0.003283,0.056787,-0.0001525,0.01699,0.00033939,0,0,0.051736,-0.022286,0,0.00088241,0,0,0,0.056789,-0.00015452,0.01699,0.3415,0.024542,0.050599,4.1697e-06,0.64,0.7,0
0.031935,-0.0032929,0.056771,-0.00017176,0.01698,0.00034053,0,0,0.051728,-0.022297,0,0.00088539,0,0,0,0.056773,-0.0001738,0.01698,0.34263,0.024526,0.0506,4.1676e-06,0.65,0.7,0
0.032452,-0.0033023,0.056755,-0.00018948,0.01697,0.00034046,0,0,0.051721,-0.022307,0,0.00088521,0,0,0,0.056757,-0.00019152,0.01697,0.34255,0.024512,0.0506,4.1655e-06,0.66,0.7,0
0.03297,-0.003311,0.056739,-0.00020576,0.01696,0.00033926,0,0,0.051713,-0.022316,0,0.00088209,0,0,0,0.056742,-0.00020778,0.01696,0.34134,0.024498,0.050599,4.1634e-06,0.67,0.7,0
0.033487,-0.0033192,0.056725,-0.00022069,0.016951,0.00033701,0,0,0.051706,-0.022323,0,0.00087623,0,0,0,0.056727,-0.00022269,0.016951,0.33907,0.024485,0.050598,4.1613e-06,0.68,0.7,0
0.034004,-0.003327,0.05671,-0.00023438,0.016943,0.00033378,0,0,0.051698,-0.02233,0,0.00086781,0,0,0,0.056712,-0.00023634,0.016943,0.33582,0.024473,0.050596,4.1591e-06,0.69,0.7,0
0.034521,-0.0033342,0.056696,-0.00024691,0.016935,0.00032963,0,0,0.05169,-0.022336,0,0.00085703,0,0,0,0.056698,-0.00024882,0.016935,0.33165,0.024461,0.050593,4.157e-06,0.7,0.7,0
0.035037,-0.003341,0.056683,-0.00025837,0.016927,0.00032463,0,0,0.051682,-0.022341,0,0.00084404,0,0,0,0.056685,-0.00026022,0.016927,0.32664,0.024451,0.05059,4.1549e-06,0.71,0.7,0
0.035554,-0.0033474,0.05667,-0.00026883,0.01692,0.00031885,0,0,0.051674,-0.022346,0,0.00082901,0,0,0,0.056671,-0.00027061,0.01692,0.32084,0.02444,0.050587,4.1529e-06,0.72,0.7,0
0.036071,-0.0033534,0.056657,-0.00027836,0.016914,0.00031234,0,0,0.051667,-0.02235,0,0.00081208,0,0,0,0.056659,-0.00028008,0.016914,0.3143,0.024431,0.050583,4.1509e-06,0.73,0.7,0
0.036588,-0.0033589,0.056645,-0.00028704,0.016907,0.00030516,0,0,0.051659,-0.022353,0,0.00079341,0,0,0,0.056647,-0.00028868,0.016907,0.30709,0.024422,0.050579,4.1488e-06,0.74,0.7,0
0.037104,-0.0033642,0.056634,-0.00029493,0.016902,0.00029735,0,0,0.051652,-0.022355,0,0.00077312,0,0,0,0.056635,-0.00029648,0.016902,0.29926,0.024413,0.050575,4.1469e-06,0.75,0.7,0
0.037621,-0.003369,0.056622,-0.00030209,0.016896,0.00028898,0,0,0.051644,-0.022358,0,0.00075134,0,0,0,0.056624,-0.00030355,0.016896,0.29085,0.024405,0.050571,4.145e-06,0.76,0.7,0
0.038137,-0.0033736,0.056612,-0.00030857,0.016891,0.00028007,0,0,0.051637,-0.022359,0,0.00072819,0,0,0,0.056613,-0.00030994,0.016891,0.28191,0.024398,0.050567,4.1431e-06,0.77,0.7,0
0.038653,-0.0033778,0.056601,-0.00031442,0.016886,0.00027068,0,0,0.05163,-0.022361,0,0.00070377,0,0,0,0.056603,-0.00031571,0.016886,0.27248,0.024391,0.050562,4.1413e-06,0.78,0.7,0
0.03917,-0.0033817,0.056592,-0.00031971,0.016882,0.00026085,0,0,0.051623,-0.022362,0,0.0006782,0,0,0,0.056593,-0.00032091,0.016882,0.2626,0.024384,0.050557,4.1395e-06,0.79,0.7,0
0.039686,-0.0033854,0.056582,-0.00032447,0.016877,0.0002506,0,0,0.051617,-0.022362,0,0.00065157,0,0,0,0.056584,-0.00032557,0.016877,0.25231,0.024378,0.050553,4.1378e-06,0.8,0.7,0
0.040202,-0.0033888,0.056574,-0.00032874,0.016873,0.00023999,0,0,0.05161,-0.022363,0,0.00062397,0,0,0,0.056575,-0.00032976,0.016873,0.24164,0.024373,0.050548,4.1362e-06,0.81,0.7,0
0.040718,-0.0033919,0.056565,-0.00033258,0.01687,0.00022903,0,0,0.051604,-0.022363,0,0.00059548,0,0,0,0.056566,-0.0003335,0.01687,0.23063,0.024368,0.050544,4.1347e-06,0.82,0.7,0
0.041234,-0.0033948,0.056557,-0.000336,0.016866,0.00021776,0,0,0.051598,-0.022363,0,0.00056618,0,0,0,0.056558,-0.00033684,0.016866,0.2193,0.024363,0.050539,4.1332e-06,0.83,0.7,0
0.04175,-0.0033975,0.05655,-0.00033906,0.016863,0.00020621,0,0,0.051593,-0.022363,0,0.00053616,0,0,0,0.056551,-0.00033981,0.016863,0.20769,0.024358,0.050535,4.1317e-06,0.84,0.7,0
0.042266,-0.0034,0.056543,-0.00034177,0.01686,0.00019441,0,0,0.051587,-0.022363,0,0.00050546,0,0,0,0.056544,-0.00034244,0.01686,0.19581,0.024354,0.050531,4.1304e-06,0.85,0.7,0
0.042782,-0.0034022,0.056536,-0.00034418,0.016858,0.00018237,0,0,0.051582,-0.022362,0,0.00047416,0,0,0,0.056537,-0.00034477,0.016858,0.1837,0.02435,0.050527,4.1291e-06,0.86,0.7,0
0.043298,-0.0034043,0.05653,-0.00034631,0.016855,0.00017013,0,0,0.051578,-0.022362,0,0.00044232,0,0,0,0.056531,-0.00034682,0.016855,0.17138,0.024346,0.050523,4.128e-06,0.87,0.7,0
0.043813,-0.0034062,0.056525,-0.00034818,0.016853,0.00015769,0,0,0.051573,-0.022361,0,0.00041,0,0,0,0.056525,-0.00034862,0.016853,0.15886,0.024343,0.050519,4.1269e-06,0.88,0.7,0
0.044329,-0.0034079,0.05652,-0.00034982,0.016851,0.00014509,0,0,0.051569,-0.022361,0,0.00037724,0,0,0,0.05652,-0.00035019,0.016851,0.14618,0.02434,0.050516,4.1258e-06,0.89,0.7,0
0.044845,-0.0034094,0.056515,-0.00035125,0.016849,0.00013234,0,0,0.051566,-0.02236,0,0.00034408,0,0,0,0.056515,-0.00035156,0.016849,0.13334,0.024338,0.050513,4.1249e-06,0.9,0.7,0
0.04536,-0.0034108,0.056511,-0.00035248,0.016847,0.00011946,0,0,0.051562,-0.02236,0,0.00031059,0,0,0,0.056511,-0.00035274,0.016847,0.12037,0.024335,0.05051,4.124e-06,0.91,0.7,0
0.045876,-0.003412,0.056507,-0.00035354,0.016846,0.00010646,0,0,0.051559,-0.022359,0,0.0002768,0,0,0,0.056507,-0.00035374,0.016846,0.10728,0.024333,0.050507,4.1233e-06,0.92,0.7,0
0.046392,-0.003413,0.056503,-0.00035444,0.016845,9.3364e-05,0,0,0.051556,-0.022359,0,0.00024274,0,0,0,0.056504,-0.0003546,0.016845,0.094082,0.024331,0.050505,4.1226e-06,0.93,0.7,0
0.046907,-0.0034139,0.056501,-0.0003552,0.016844,8.018e-05,0,0,0.051554,-0.022358,0,0.00020847,0,0,0,0.056501,-0.00035531,0.016844,0.0808,0.02433,0.050503,4.122e-06,0.94,0.7,0
0.047423,-0.0034147,0.056498,-0.00035582,0.016843,6.6924e-05,0,0,0.051552,-0.022358,0,0.000174,0,0,0,0.056498,-0.0003559,0.016843,0.067444,0.024328,0.050501,4.1215e-06,0.95,0.7,0
0.047938,-0.0034153,0.056496,-0.00035631,0.016842,5.3609e-05,0,0,0.05155,-0.022358,0,0.00013938,0,0,0,0.056496,-0.00035636,0.016842,0.054027,0.024327,0.0505,4.1211e-06,0.96,0.7,0
0.048454,-0.0034158,0.056495,-0.00035668,0.016841,4.0247e-05,0,0,0.051549,-0.022357,0,0.00010464,0,0,0,0.056495,-0.00035671,0.016841,0.040562,0.024326,0.050499,4.1208e-06,0.97,0.7,0
0.048969,-0.0034161,0.056493,-0.00035695,0.016841,2.685e-05,0,0,0.051548,-0.022357,0,6.9811e-05,0,0,0,0.056493,-0.00035696,0.016841,0.027061,0.024326,0.050498,4.1205e-06,0.98,0.7,0
0.049485,-0.0034163,0.056493,-0.00035711,0.016841,1.3431e-05,0,0,0.051548,-0.022357,0,3.492e-05,0,0,0,0.056493,-0.00035711,0.016841,0.013536,0.024325,0.050497,4.1204e-06,0.99,0.7,0
0.05,-0.0034164,0.056493,-0.00035716,0.016841,-2.5803e-06,0,0,0.051548,-0.022357,0,-6.7089e-06,0,0,0,0.056493,-0.00035716,0.016841,-0.0026006,0.024325,0.050497,4.1204e-06,1,0.7,0
0,0,0.051737,0.022173,0.022173,-0.0032939,0,0,0.038433,-1.0842e-19,0,-0.0085642,0,0,0,0.0521,0.021811,0.022173,-6.2811,0.032028,0.03011,1.4013e-06,0,0.71,0
0.00038433,-8.5642e-05,0.05164,0.021027,0.0218,-0.0032979,0,0,0.038792,-0.0010047,0,-0.0085746,0,0,0,0.051991,0.020676,0.0218,-6.0796,0.031489,0.030769,1.4893e-06,0.01,0.71,0
0.00077584,-0.00017262,0.052023,0.020087,0.021633,-0.0033254,0,0,0.039507,-0.0020104,0,-0.008646,0,0,0,0.052366,0.019744,0.021633,-5.8818,0.031248,0.03172,1.6195e-06,0.02,0.71,0
0.0011745,-0.00026087,0.052403,0.019148,0.021465,-0.0033483,0,0,0.040219,-0.0030125,0,-0.0087055,0,0,0,0.052737,0.018814,0.021465,-5.6927,0.031005,0.032678,1.7524e-06,0.03,0.71,0
0.0015802,-0.00035028,0.052776,0.018216,0.021298,-0.0033653,0,0,0.040923,-0.0040066,0,-0.0087498,0,0,0,0.053101,0.017891,0.021298,-5.5101,0.030763,0.033636,1.8871e-06,0.04,0.71,0
0.0019929,-0.00044072,0.053142,0.017294,0.021131,-0.0033752,0,0,0.041615,-0.004988,0,-0.0087756,0,0,0,0.053457,0.016979,0.021131,-5.3322,0.030522,0.03459,2.0226e-06,0.05,0.71,0
0.0024125,-0.00053205,0.053497,0.016386,0.020965,-0.0033769,0,0,0.042292,-0.0059525,0,-0.00878,0,0,0,0.053802,0.016081,0.020965,-5.1572,0.030283,0.035531,2.1579e-06,0.06,0.71,0
0.0028388,-0.0006241,0.05384,0.015496,0.020801,-0.0033694,0,0,0.042951,-0.0068959,0,-0.0087604,0,0,0,0.054133,0.015202,0.020801,-4.9839,0.030045,0.036456,2.2918e-06,0.07,0.71,0
0.0032715,-0.00071667,0.054168,0.014627,0.020639,-0.0033519,0,0,0.043588,-0.0078145,0,-0.0087149,0,0,0,0.05445,0.014345,0.020639,-4.8113,0.029811,0.037358,2.4236e-06,0.08,0.71,0
0.0037105,-0.00080955,0.054481,0.013783,0.020479,-0.0033239,0,0,0.044202,-0.0087051,0,-0.0086421,0,0,0,0.05475,0.013513,0.020479,-4.6385,0.029581,0.038233,2.5522e-06,0.09,0.71,0
0.0041556,-0.00090253,0.054776,0.012965,0.020322,-0.0032851,0,0,0.04479,-0.0095649,0,-0.0085412,0,0,0,0.055033,0.012708,0.020322,-4.4651,0.029354,0.039078,2.6769e-06,0.1,0.71,0
0.0046063,-0.00099539,0.055054,0.012175,0.020169,-0.0032354,0,0,0.045351,-0.010392,0,-0.0084122,0,0,0,0.055297,0.011933,0.020169,-4.2909,0.029133,0.039889,2.7971e-06,0.11,0.71,0
0.0050626,-0.0010879,0.055314,0.011416,0.020019,-0.0031752,0,0,0.045883,-0.011183,0,-0.0082556,0,0,0,0.055542,0.011188,0.020019,-4.1158,0.028916,0.040664,2.912e-06,0.12,0.71,0
0.005524,-0.0011798,0.055554,0.010689,0.019873,-0.0031048,0,0,0.046386,-0.011939,0,-0.0080724,0,0,0,0.055768,0.010475,0.019873,-3.94,0.028705,0.041402,3.0214e-06,0.13,0.71,0
0.0059903,-0.001271,0.055776,0.0099942,0.019731,-0.0030248,0,0,0.046859,-0.012658,0,-0.0078644,0,0,0,0.055975,0.0097953,0.019731,-3.7637,0.028501,0.042101,3.1248e-06,0.14,0.71,0
0.0064612,-0.0013611,0.055979,0.0093323,0.019593,-0.0029359,0,0,0.047302,-0.01334,0,-0.0076333,0,0,0,0.056163,0.0091482,0.019593,-3.5873,0.028302,0.04276,3.2221e-06,0.15,0.71,0
0.0069363,-0.0014501,0.056164,0.0087033,0.01946,-0.0028391,0,0,0.047715,-0.013984,0,-0.0073818,0,0,0,0.056333,0.0085341,0.01946,-3.4112,0.028109,0.043381,3.3132e-06,0.16,0.71,0
0.0074155,-0.0015376,0.056331,0.0081072,0.019332,-0.0027354,0,0,0.0481,-0.014592,0,-0.0071121,0,0,0,0.056486,0.0079525,0.019332,-3.2362,0.027923,0.043963,3.3981e-06,0.17,0.71,0
0.0078983,-0.0016236,0.056481,0.0075434,0.019207,-0.0026258,0,0,0.048456,-0.015163,0,-0.006827,0,0,0,0.056622,0.0074029,0.019207,-3.0625,0.027744,0.044506,3.4768e-06,0.18,0.71,0
0.0083846,-0.0017079,0.056615,0.0070113,0.019088,-0.0025113,0,0,0.048785,-0.015699,0,-0.0065293,0,0,0,0.056742,0.0068845,0.019088,-2.8909,0.027571,0.045014,3.5495e-06,0.19,0.71,0
0.008874,-0.0017904,0.056733,0.0065101,0.018973,-0.002393,0,0,0.049088,-0.016202,0,-0.0062217,0,0,0,0.056847,0.0063964,0.018973,-2.7217,0.027405,0.045485,3.6164e-06,0.2,0.71,0
0.0093663,-0.0018709,0.056837,0.0060388,0.018863,-0.0022718,0,0,0.049366,-0.016671,0,-0.0059068,0,0,0,0.056938,0.0059374,0.018863,-2.5556,0.027246,0.045923,3.6777e-06,0.21,0.71,0
0.0098613,-0.0019494,0.056927,0.0055962,0.018757,-0.0021489,0,0,0.049621,-0.017109,0,-0.0055871,0,0,0,0.057017,0.0055064,0.018757,-2.393,0.027093,0.046329,3.7337e-06,0.22,0.71,0
0.010359,-0.0020257,0.057004,0.0051813,0.018656,-0.0020251,0,0,0.049853,-0.017517,0,-0.0052651,0,0,0,0.057084,0.0051023,0.018656,-2.2344,0.026947,0.046704,3.7847e-06,0.23,0.71,0
0.010858,-0.0020998,0.057071,0.0047926,0.018559,-0.0019011,0,0,0.050065,-0.017896,0,-0.0049429,0,0,0,0.05714,0.0047236,0.018559,-2.0799,0.026807,0.04705,3.831e-06,0.24,0.71,0
0.01136,-0.0021717,0.057126,0.0044291,0.018467,-0.0017779,0,0,0.050257,-0.018249,0,-0.0046225,0,0,0,0.057186,0.0043692,0.018467,-1.9301,0.026674,0.047368,3.8728e-06,0.25,0.71,0
0.011864,-0.0022413,0.057172,0.0040894,0.018378,-0.0016561,0,0,0.050431,-0.018576,0,-0.0043058,0,0,0,0.057223,0.0040377,0.018378,-1.7852,0.026546,0.047662,3.9106e-06,0.26,0.71,0
0.012369,-0.0023085,0.057209,0.0037721,0.018294,-0.0015362,0,0,0.050589,-0.018879,0,-0.0039942,0,0,0,0.057253,0.003728,0.018294,-1.6454,0.026425,0.047931,3.9446e-06,0.27,0.71,0
0.012875,-0.0023735,0.057238,0.0034761,0.018214,-0.0014189,0,0,0.05073,-0.019159,0,-0.0036891,0,0,0,0.057275,0.0034387,0.018214,-1.5108,0.026309,0.048179,3.9751e-06,0.28,0.71,0
0.013383,-0.0024361,0.057259,0.0032002,0.018138,-0.0013046,0,0,0.050858,-0.019419,0,-0.0033918,0,0,0,0.057291,0.0031687,0.018138,-1.3816,0.026199,0.048406,4.0023e-06,0.29,0.71,0
0.013893,-0.0024965,0.057275,0.0029431,0.018065,-0.0011936,0,0,0.050972,-0.019659,0,-0.0031032,0,0,0,0.057301,0.0029168,0.018065,-1.2579,0.026094,0.048614,4.0266e-06,0.3,0.71,0
0.014403,-0.0025545,0.057285,0.0027036,0.017996,-0.0010862,0,0,0.051075,-0.019881,0,-0.0028242,0,0,0,0.057306,0.002682,0.017996,-1.1397,0.025995,0.048804,4.0482e-06,0.31,0.71,0
0.014914,-0.0026103,0.057289,0.0024807,0.017931,-0.00098281,0,0,0.051166,-0.020085,0,-0.0025553,0,0,0,0.057307,0.0024631,0.017931,-1.027,0.0259,0.048978,4.0673e-06,0.32,0.71,0
0.015426,-0.0026638,0.05729,0.0022732,0.017869,-0.00088351,0,0,0.051247,-0.020274,0,-0.0022971,0,0,0,0.057304,0.002259,0.017869,-0.9198,0.025811,0.049136,4.0842e-06,0.33,0.71,0
0.015939,-0.0027152,0.057286,0.0020803,0.01781,-0.00078847,0,0,0.051319,-0.020449,0,-0.00205,0,0,0,0.057297,0.002069,0.01781,-0.81809,0.025725,0.049281,4.0991e-06,0.34,0.71,0
0.016452,-0.0027644,0.057279,0.0019008,0.017754,-0.00069777,0,0,0.051383,-0.020609,0,-0.0018142,0,0,0,0.057288,0.0018921,0.017754,-0.72178,0.025645,0.049413,4.1121e-06,0.35,0.71,0
0.016967,-0.0028115,0.057269,0.001734,0.017701,-0.00061149,0,0,0.051439,-0.020757,0,-0.0015899,0,0,0,0.057276,0.0017273,0.017701,-0.63077,0.025568,0.049533,4.1235e-06,0.36,0.71,0
0.017481,-0.0028565,0.057257,0.001579,0.017651,-0.00052963,0,0,0.051488,-0.020893,0,-0.001377,0,0,0,0.057262,0.001574,0.017651,-0.54495,0.025496,0.049642,4.1333e-06,0.37,0.71,0
0.017996,-0.0028996,0.057242,0.0014349,0.017603,-0.00045219,0,0,0.051531,-0.021019,0,-0.0011757,0,0,0,0.057246,0.0014313,0.017603,-0.46421,0.025427,0.049741,4.1418e-06,0.38,0.71,0
0.018512,-0.0029407,0.057226,0.001301,0.017558,-0.00037913,0,0,0.051568,-0.021134,0,-0.00098575,0,0,0,0.057229,0.0012985,0.017558,-0.3884,0.025362,0.049831,4.149e-06,0.39,0.71,0
0.019028,-0.0029799,0.057208,0.0011767,0.017515,-0.0003104,0,0,0.051601,-0.02124,0,-0.00080704,0,0,0,0.05721,0.001175,0.017515,-0.31739,0.0253,0.049913,4.1552e-06,0.4,0.71,0
0.019544,-0.0030173,0.057189,0.0010612,0.017475,-0.00024591,0,0,0.051628,-0.021338,0,-0.00063937,0,0,0,0.05719,0.0010601,0.017475,-0.25102,0.025242,0.049987,4.1603e-06,0.41,0.71,0
0.02006,-0.003053,0.057169,0.00095394,0.017437,-0.00018557,0,0,0.051652,-0.021428,0,-0.00048248,0,0,0,0.05717,0.00095332,0.017437,-0.18913,0.025187,0.050053,4.1646e-06,0.42,0.71,0
0.020577,-0.0030869,0.057148,0.00085434,0.017401,-0.00012927,0,0,0.051672,-0.02151,0,-0.0003361,0,0,0,0.057148,0.00085404,0.017401,-0.13157,0.025134,0.050114,4.1681e-06,0.43,0.71,0
0.021094,-0.0031193,0.057127,0.00076187,0.017367,-7.6889e-05,0,0,0.051688,-0.021586,0,-0.00019991,0,0,0,0.057127,0.00076177,0.017367,-0.078159,0.025085,0.050168,4.1709e-06,0.44,0.71,0
0.021611,-0.00315,0.057105,0.00067604,0.017334,-2.8304e-05,0,0,0.051702,-0.021656,0,-7.3591e-05,0,0,0,0.057105,0.00067603,0.017334,-0.028739,0.025038,0.050217,4.1731e-06,0.45,0.71,0
0.022128,-0.0031792,0.057083,0.00059638,0.017304,1.6619e-05,0,0,0.051713,-0.02172,0,4.321e-05,0,0,0,0.057083,0.00059637,0.017304,0.016858,0.024994,0.05026,4.1746e-06,0.46,0.71,0
0.022645,-0.0032069,0.057061,0.00052246,0.017275,5.802e-05,0,0,0.051721,-0.021778,0,0.00015085,0,0,0,0.057061,0.0005224,0.017275,0.058797,0.024953,0.0503,4.1757e-06,0.47,0.71,0
0.023162,-0.0032333,0.057038,0.00045387,0.017248,9.6037e-05,0,0,0.051728,-0.021832,0,0.0002497,0,0,0,0.057038,0.00045371,0.017248,0.097244,0.024913,0.050335,4.1764e-06,0.48,0.71,0
0.023679,-0.0032582,0.057016,0.00039026,0.017222,0.00013081,0,0,0.051732,-0.021881,0,0.00034012,0,0,0,0.057016,0.00038996,0.017222,0.13236,0.024876,0.050366,4.1766e-06,0.49,0.71,0
0.024197,-0.0032819,0.056994,0.00033127,0.017198,0.00016249,0,0,0.051735,-0.021926,0,0.00042248,0,0,0,0.056994,0.0003308,0.017198,0.16431,0.024841,0.050394,4.1765e-06,0.5,0.71,0
0.024714,-0.0033044,0.056972,0.00027658,0.017174,0.00019122,0,0,0.051736,-0.021967,0,0.00049716,0,0,0,0.056973,0.00027594,0.017174,0.19324,0.024808,0.050418,4.1761e-06,0.51,0.71,0
0.025232,-0.0033257,0.05695,0.0002259,0.017153,0.00021713,0,0,0.051736,-0.022005,0,0.00056453,0,0,0,0.056951,0.00022507,0.017153,0.21931,0.024776,0.050439,4.1754e-06,0.52,0.71,0
0.025749,-0.0033458,0.056929,0.00017894,0.017132,0.00024036,0,0,0.051735,-0.022039,0,0.00062493,0,0,0,0.05693,0.00017792,0.017132,0.24267,0.024747,0.050458,4.1745e-06,0.53,0.71,0
0.026266,-0.0033649,0.056908,0.00013545,0.017113,0.00026105,0,0,0.051733,-0.022071,0,0.00067874,0,0,0,0.056909,0.00013425,0.017113,0.26345,0.024719,0.050474,4.1734e-06,0.54,0.71,0
0.026783,-0.0033829,0.056887,9.5193e-05,0.017095,0.00027934,0,0,0.05173,-0.022099,0,0.00072629,0,0,0,0.056888,9.3819e-05,0.017095,0.28181,0.024692,0.050489,4.1721e-06,0.55,0.71,0
0.027301,-0.0033999,0.056867,5.7938e-05,0.017077,0.00029535,0,0,0.051726,-0.022125,0,0.00076792,0,0,0,0.056868,5.6403e-05,0.017077,0.29787,0.024667,0.050501,4.1706e-06,0.56,0.71,0
0.027818,-0.003416,0.056847,2.3483e-05,0.017061,0.00030921,0,0,0.051722,-0.022149,0,0.00080395,0,0,0,0.056849,2.18e-05,0.017061,0.31177,0.024644,0.050511,4.169e-06,0.57,0.71,0
0.028335,-0.0034312,0.056828,-8.3672e-06,0.017046,0.00032104,0,0,0.051716,-0.02217,0,0.00083471,0,0,0,0.056829,-1.0181e-05,0.017046,0.32363,0.024622,0.050519,4.1673e-06,0.58,0.71,0
0.028852,-0.0034455,0.056809,-3.7791e-05,0.017031,0.00033096,0,0,0.051711,-0.02219,0,0.0008605,0,0,0,0.056811,-3.9718e-05,0.017031,0.33356,0.024601,0.050526,4.1655e-06,0.59,0.71,0
0.029369,-0.003459,0.056791,-6.4957e-05,0.017018,0.00033908,0,0,0.051705,-0.022207,0,0.00088161,0,0,0,0.056793,-6.6979e-05,0.017018,0.34169,0.024581,0.050532,4.1636e-06,0.6,0.71,0
0.029886,-0.0034718,0.056773,-9.002e-05,0.017005,0.00034551,0,0,0.051698,-0.022223,0,0.00089833,0,0,0,0.056775,-9.2119e-05,0.017005,0.34813,0.024563,0.050536,4.1617e-06,0.61,0.71,0
0.030403,-0.0034838,0.056755,-0.00011313,0.016993,0.00035036,0,0,0.051691,-0.022238,0,0.00091093,0,0,0,0.056757,-0.00011529,0.016993,0.35297,0.024545,0.050539,4.1597e-06,0.62,0.71,0
0.03092,-0.0034951,0.056738,-0.00013441,0.016981,0.00035371,0,0,0.051684,-0.02225,0,0.00091966,0,0,0,0.056741,-0.00013661,0.016981,0.35633,0.024528,0.050541,4.1576e-06,0.63,0.71,0
0.031437,-0.0035058,0.056722,-0.000154,0.01697,0.00035568,0,0,0.051677,-0.022262,0,0.00092477,0,0,0,0.056724,-0.00015623,0.01697,0.35829,0.024513,0.050542,4.1556e-06,0.64,0.71,0
0.031954,-0.0035158,0.056706,-0.00017201,0.01696,0.00035634,0,0,0.05167,-0.022272,0,0.0009265,0,0,0,0.056708,-0.00017425,0.01696,0.35894,0.024498,0.050543,4.1535e-06,0.65,0.71,0
0.03247,-0.0035252,0.056691,-0.00018856,0.016951,0.0003558,0,0,0.051662,-0.022281,0,0.00092507,0,0,0,0.056693,-0.00019079,0.016951,0.35838,0.024484,0.050542,4.1514e-06,0.66,0.71,0
0.032987,-0.003534,0.056676,-0.00020375,0.016942,0.00035411,0,0,0.051655,-0.022289,0,0.0009207,0,0,0,0.056678,-0.00020595,0.016942,0.35669,0.024471,0.050541,4.1493e-06,0.67,0.71,0
0.033504,-0.0035423,0.056662,-0.00021767,0.016933,0.00035138,0,0,0.051647,-0.022296,0,0.00091358,0,0,0,0.056664,-0.00021984,0.016933,0.35393,0.024459,0.05054,4.1473e-06,0.68,0.71,0
0.03402,-0.0035501,0.056648,-0.00023042,0.016925,0.00034766,0,0,0.051639,-0.022302,0,0.00090391,0,0,0,0.05665,-0.00023254,0.016925,0.35019,0.024448,0.050537,4.1452e-06,0.69,0.71,0
0.034536,-0.0035574,0.056634,-0.00024207,0.016918,0.00034303,0,0,0.051632,-0.022308,0,0.00089188,0,0,0,0.056636,-0.00024414,0.016918,0.34554,0.024437,0.050535,4.1432e-06,0.7,0.71,0
0.035053,-0.0035643,0.056622,-0.00025271,0.016911,0.00033755,0,0,0.051624,-0.022312,0,0.00087764,0,0,0,0.056624,-0.00025472,0.016911,0.34004,0.024427,0.050532,4.1412e-06,0.71,0.71,0
0.035569,-0.0035707,0.056609,-0.00026242,0.016904,0.0003313,0,0,0.051617,-0.022316,0,0.00086137,0,0,0,0.056611,-0.00026435,0.016904,0.33375,0.024417,0.050528,4.1392e-06,0.72,0.71,0
0.036085,-0.0035767,0.056597,-0.00027126,0.016898,0.00032431,0,0,0.051609,-0.02232,0,0.00084321,0,0,0,0.056599,-0.00027311,0.016898,0.32673,0.024408,0.050525,4.1372e-06,0.73,0.71,0
0.036601,-0.0035823,0.056586,-0.00027929,0.016892,0.00031665,0,0,0.051602,-0.022323,0,0.0008233,0,0,0,0.056588,-0.00028106,0.016892,0.31904,0.0244,0.050521,4.1353e-06,0.74,0.71,0
0.037117,-0.0035876,0.056575,-0.00028659,0.016886,0.00030838,0,0,0.051595,-0.022325,0,0.00080179,0,0,0,0.056577,-0.00028826,0.016886,0.31072,0.024392,0.050517,4.1335e-06,0.75,0.71,0
0.037633,-0.0035924,0.056564,-0.0002932,0.016881,0.00029954,0,0,0.051588,-0.022327,0,0.0007788,0,0,0,0.056566,-0.00029477,0.016881,0.30183,0.024384,0.050513,4.1317e-06,0.76,0.71,0
0.038149,-0.003597,0.056555,-0.00029917,0.016877,0.00029017,0,0,0.051581,-0.022329,0,0.00075444,0,0,0,0.056556,-0.00030066,0.016877,0.29241,0.024377,0.050508,4.1299e-06,0.77,0.71,0
0.038665,-0.0036012,0.056545,-0.00030457,0.016872,0.00028032,0,0,0.051575,-0.02233,0,0.00072883,0,0,0,0.056546,-0.00030596,0.016872,0.28251,0.024371,0.050504,4.1282e-06,0.78,0.71,0
0.03918,-0.0036052,0.056536,-0.00030943,0.016868,0.00027002,0,0,0.051568,-0.022331,0,0.00070206,0,0,0,0.056537,-0.00031072,0.016868,0.27215,0.024365,0.0505,4.1266e-06,0.79,0.71,0
0.039696,-0.0036089,0.056527,-0.00031381,0.016864,0.00025932,0,0,0.051562,-0.022331,0,0.00067424,0,0,0,0.056529,-0.00031499,0.016864,0.26139,0.024359,0.050495,4.125e-06,0.8,0.71,0
0.040212,-0.0036123,0.056519,-0.00031773,0.01686,0.00024826,0,0,0.051556,-0.022332,0,0.00064546,0,0,0,0.05652,-0.00031881,0.01686,0.25025,0.024354,0.050491,4.1235e-06,0.81,0.71,0
0.040727,-0.0036154,0.056511,-0.00032124,0.016857,0.00023685,0,0,0.051551,-0.022332,0,0.0006158,0,0,0,0.056512,-0.00032222,0.016857,0.23877,0.024349,0.050487,4.122e-06,0.82,0.71,0
0.041243,-0.0036183,0.056504,-0.00032437,0.016854,0.00022513,0,0,0.051545,-0.022332,0,0.00058534,0,0,0,0.056505,-0.00032526,0.016854,0.22698,0.024345,0.050483,4.1207e-06,0.83,0.71,0
0.041758,-0.003621,0.056497,-0.00032716,0.016851,0.00021314,0,0,0.05154,-0.022332,0,0.00055415,0,0,0,0.056498,-0.00032796,0.016851,0.2149,0.02434,0.050479,4.1193e-06,0.84,0.71,0
0.042273,-0.0036235,0.056491,-0.00032963,0.016848,0.00020089,0,0,0.051535,-0.022331,0,0.00052231,0,0,0,0.056492,-0.00033034,0.016848,0.20256,0.024337,0.050475,4.1181e-06,0.85,0.71,0
0.042789,-0.0036257,0.056485,-0.00033182,0.016846,0.00018841,0,0,0.051531,-0.022331,0,0.00048986,0,0,0,0.056485,-0.00033245,0.016846,0.18999,0.024333,0.050471,4.1169e-06,0.86,0.71,0
0.043304,-0.0036278,0.056479,-0.00033375,0.016844,0.00017572,0,0,0.051526,-0.022331,0,0.00045688,0,0,0,0.05648,-0.0003343,0.016844,0.17721,0.02433,0.050467,4.1158e-06,0.87,0.71,0
0.043819,-0.0036296,0.056474,-0.00033545,0.016842,0.00016285,0,0,0.051522,-0.02233,0,0.00042341,0,0,0,0.056474,-0.00033592,0.016842,0.16424,0.024327,0.050464,4.1148e-06,0.88,0.71,0
0.044334,-0.0036313,0.056469,-0.00033693,0.01684,0.00014981,0,0,0.051519,-0.02233,0,0.00038952,0,0,0,0.05647,-0.00033733,0.01684,0.1511,0.024324,0.050461,4.1139e-06,0.89,0.71,0
0.04485,-0.0036329,0.056465,-0.00033822,0.016838,0.00013663,0,0,0.051515,-0.022329,0,0.00035524,0,0,0,0.056465,-0.00033855,0.016838,0.13781,0.024322,0.050458,4.113e-06,0.9,0.71,0
0.045365,-0.0036342,0.056461,-0.00033934,0.016837,0.00012332,0,0,0.051512,-0.022329,0,0.00032062,0,0,0,0.056461,-0.0003396,0.016837,0.12439,0.024319,0.050455,4.1122e-06,0.91,0.71,0
0.04588,-0.0036354,0.056458,-0.00034029,0.016835,0.00010989,0,0,0.051509,-0.022328,0,0.0002857,0,0,0,0.056458,-0.0003405,0.016835,0.11085,0.024317,0.050453,4.1115e-06,0.92,0.71,0
0.046395,-0.0036365,0.056455,-0.0003411,0.016834,9.6357e-05,0,0,0.051507,-0.022328,0,0.00025053,0,0,0,0.056455,-0.00034126,0.016834,0.097206,0.024316,0.050451,4.1109e-06,0.93,0.71,0
0.04691,-0.0036374,0.056452,-0.00034177,0.016833,8.2744e-05,0,0,0.051505,-0.022327,0,0.00021514,0,0,0,0.056452,-0.00034189,0.016833,0.083476,0.024314,0.050449,4.1104e-06,0.94,0.71,0
0.047425,-0.0036381,0.05645,-0.00034233,0.016832,6.906e-05,0,0,0.051503,-0.022327,0,0.00017955,0,0,0,0.05645,-0.00034241,0.016832,0.069672,0.024313,0.050447,4.1099e-06,0.95,0.71,0
0.04794,-0.0036387,0.056448,-0.00034277,0.016831,5.5317e-05,0,0,0.051501,-0.022327,0,0.00014382,0,0,0,0.056448,-0.00034282,0.016831,0.055809,0.024312,0.050446,4.1096e-06,0.96,0.71,0
0.048455,-0.0036392,0.056446,-0.0003431,0.016831,4.1527e-05,0,0,0.0515,-0.022326,0,0.00010797,0,0,0,0.056446,-0.00034313,0.016831,0.041897,0.024311,0.050445,4.1092e-06,0.97,0.71,0
0.04897,-0.0036395,0.056445,-0.00034334,0.016831,2.7704e-05,0,0,0.051499,-0.022326,0,7.203e-05,0,0,0,0.056445,-0.00034335,0.016831,0.027951,0.024311,0.050444,4.1091e-06,0.98,0.71,0
0.049485,-0.0036397,0.056445,-0.00034348,0.01683,1.3858e-05,0,0,0.051499,-0.022326,0,3.603e-05,0,0,0,0.056445,-0.00034348,0.01683,0.013981,0.024311,0.050444,4.1089e-06,0.99,0.71,0
0.05,-0.0036398,0.056445,-0.00034352,0.01683,-2.5655e-06,0,0,0.051499,-0.022326,0,-6.6702e-06,0,0,0,0.056445,-0.00034352,0.01683,-0.0025884,0.02431,0.050444,4.1089e-06,1,0.71,0
0,0,0.051815,0.022207,0.022207,-0.0036809,0,0,0.038491,2.7105e-19,0,-0.0095703,0,0,0,0.052266,0.021756,0.022207,-6.9813,0.032076,0.030287,1.4259e-06,0,0.72,0
0.00038491,-9.5703e-05,0.051718,0.021056,0.021832,-0.0036839,0,0,0.038851,-0.0010086,0,-0.0095782,0,0,0,0.052154,0.02062,0.021832,-6.7559,0.031536,0.030946,1.5142e-06,0.01,0.72,0
0.00077703,-0.00019276,0.052103,0.02011,0.021664,-0.0037092,0,0,0.039571,-0.0020196,0,-0.0096439,0,0,0,0.052527,0.019686,0.021664,-6.5275,0.031293,0.031898,1.6454e-06,0.02,0.72,0
0.0011763,-0.00029105,0.052485,0.019165,0.021495,-0.0037275,0,0,0.040286,-0.0030283,0,-0.0096915,0,0,0,0.052896,0.018754,0.021495,-6.306,0.031048,0.032858,1.7793e-06,0.03,0.72,0
0.0015827,-0.00039044,0.05286,0.018225,0.021326,-0.0037375,0,0,0.040995,-0.0040303,0,-0.0097176,0,0,0,0.053259,0.017827,0.021326,-6.0895,0.030804,0.033819,1.915e-06,0.04,0.72,0
0.0019962,-0.00049074,0.053228,0.017295,0.021157,-0.0037381,0,0,0.041693,-0.0050208,0,-0.009719,0,0,0,0.053613,0.01691,0.021157,-5.8765,0.03056,0.034775,2.0516e-06,0.05,0.72,0
0.0024166,-0.00059176,0.053586,0.016377,0.020989,-0.0037282,0,0,0.042376,-0.0059953,0,-0.0096933,0,0,0,0.053956,0.016007,0.020989,-5.6658,0.030317,0.035719,2.1879e-06,0.06,0.72,0
0.0028437,-0.00069328,0.053931,0.015477,0.020822,-0.0037071,0,0,0.043041,-0.0069493,0,-0.0096385,0,0,0,0.054285,0.015123,0.020822,-5.4565,0.030077,0.036647,2.3229e-06,0.07,0.72,0
0.0032774,-0.00079509,0.054262,0.014597,0.020657,-0.0036743,0,0,0.043685,-0.007879,0,-0.0095533,0,0,0,0.054599,0.014259,0.020657,-5.2481,0.029839,0.037552,2.4556e-06,0.08,0.72,0
0.0037175,-0.00089693,0.054576,0.013741,0.020495,-0.0036296,0,0,0.044306,-0.0087808,0,-0.009437,0,0,0,0.054896,0.013421,0.020495,-5.04,0.029604,0.03843,2.5852e-06,0.09,0.72,0
0.0041636,-0.00099857,0.054874,0.012911,0.020335,-0.003573,0,0,0.0449,-0.0096516,0,-0.0092898,0,0,0,0.055176,0.012609,0.020335,-4.8322,0.029373,0.039277,2.7107e-06,0.1,0.72,0
0.0046155,-0.0010997,0.055153,0.012111,0.020179,-0.0035047,0,0,0.045466,-0.010489,0,-0.0091123,0,0,0,0.055436,0.011827,0.020179,-4.6248,0.029147,0.040091,2.8314e-06,0.11,0.72,0
0.0050729,-0.0012002,0.055412,0.011341,0.020026,-0.0034254,0,0,0.046002,-0.011291,0,-0.0089059,0,0,0,0.055677,0.011076,0.020026,-4.4178,0.028927,0.040868,2.9468e-06,0.12,0.72,0
0.0055355,-0.0012997,0.055653,0.010604,0.019877,-0.0033356,0,0,0.046509,-0.012055,0,-0.0086725,0,0,0,0.055898,0.010358,0.019877,-4.2117,0.028711,0.041606,3.0563e-06,0.13,0.72,0
0.006003,-0.0013981,0.055873,0.0098996,0.019732,-0.0032362,0,0,0.046984,-0.012782,0,-0.0084142,0,0,0,0.0561,0.0096729,0.019732,-4.0069,0.028502,0.042304,3.1598e-06,0.14,0.72,0
0.0064752,-0.0014951,0.056075,0.0092295,0.019591,-0.0031284,0,0,0.047429,-0.01347,0,-0.0081338,0,0,0,0.056283,0.0090215,0.019591,-3.8038,0.028299,0.042963,3.2568e-06,0.15,0.72,0
0.0069516,-0.0015905,0.056257,0.0085933,0.019455,-0.0030131,0,0,0.047843,-0.01412,0,-0.0078341,0,0,0,0.056447,0.0084036,0.019455,-3.6029,0.028102,0.043581,3.3475e-06,0.16,0.72,0
0.007432,-0.0016842,0.056421,0.0079911,0.019324,-0.0028915,0,0,0.048226,-0.014732,0,-0.0075179,0,0,0,0.056593,0.0078191,0.019324,-3.4047,0.027912,0.04416,3.4316e-06,0.17,0.72,0
0.0079161,-0.0017759,0.056567,0.0074224,0.019197,-0.0027648,0,0,0.048581,-0.015307,0,-0.0071884,0,0,0,0.056722,0.0072673,0.019197,-3.2099,0.027729,0.0447,3.5094e-06,0.18,0.72,0
0.0084036,-0.0018656,0.056696,0.0068865,0.019075,-0.0026341,0,0,0.048907,-0.015845,0,-0.0068486,0,0,0,0.056835,0.0067476,0.019075,-3.0188,0.027552,0.045202,3.581e-06,0.19,0.72,0
0.0088943,-0.0019531,0.056809,0.0063825,0.018957,-0.0025005,0,0,0.049207,-0.016347,0,-0.0065014,0,0,0,0.056932,0.0062588,0.018957,-2.8319,0.027383,0.045668,3.6466e-06,0.2,0.72,0
0.0093878,-0.0020383,0.056907,0.0059094,0.018845,-0.0023652,0,0,0.04948,-0.016816,0,-0.0061494,0,0,0,0.057016,0.0058,0.018845,-2.6497,0.02722,0.0461,3.7064e-06,0.21,0.72,0
0.0098839,-0.0021211,0.056991,0.0054661,0.018737,-0.002229,0,0,0.04973,-0.017252,0,-0.0057954,0,0,0,0.057087,0.0053698,0.018737,-2.4725,0.027065,0.046498,3.7608e-06,0.22,0.72,0
0.010382,-0.0022015,0.057062,0.0050512,0.018634,-0.002093,0,0,0.049957,-0.017658,0,-0.0054417,0,0,0,0.057146,0.0049671,0.018634,-2.3007,0.026916,0.046865,3.8101e-06,0.23,0.72,0
0.010883,-0.0022794,0.057122,0.0046634,0.018535,-0.0019579,0,0,0.050162,-0.018034,0,-0.0050904,0,0,0,0.057195,0.0045905,0.018535,-2.1345,0.026773,0.047203,3.8546e-06,0.24,0.72,0
0.011386,-0.0023548,0.05717,0.0043015,0.018441,-0.0018245,0,0,0.050347,-0.018382,0,-0.0047436,0,0,0,0.057233,0.0042386,0.018441,-1.9741,0.026638,0.047513,3.8946e-06,0.25,0.72,0
0.01189,-0.0024276,0.057209,0.0039639,0.018352,-0.0016934,0,0,0.050514,-0.018704,0,-0.0044028,0,0,0,0.057263,0.0039101,0.018352,-1.8197,0.026508,0.047797,3.9304e-06,0.26,0.72,0
0.012396,-0.0024979,0.057239,0.0036494,0.018267,-0.0015652,0,0,0.050664,-0.019002,0,-0.0040695,0,0,0,0.057285,0.0036038,0.018267,-1.6716,0.026385,0.048058,3.9625e-06,0.27,0.72,0
0.012903,-0.0025657,0.057261,0.0033567,0.018185,-0.0014404,0,0,0.050799,-0.019277,0,-0.0037451,0,0,0,0.0573,0.0033182,0.018185,-1.5296,0.026268,0.048296,3.991e-06,0.28,0.72,0
0.013412,-0.0026309,0.057276,0.0030843,0.018108,-0.0013194,0,0,0.050919,-0.019531,0,-0.0034304,0,0,0,0.057308,0.0030522,0.018108,-1.3939,0.026156,0.048513,4.0163e-06,0.29,0.72,0
0.013922,-0.0026936,0.057285,0.0028311,0.018035,-0.0012025,0,0,0.051026,-0.019765,0,-0.0031264,0,0,0,0.057312,0.0028045,0.018035,-1.2644,0.02605,0.048712,4.0387e-06,0.3,0.72,0
0.014432,-0.0027538,0.057289,0.0025958,0.017965,-0.0010899,0,0,0.05112,-0.01998,0,-0.0028338,0,0,0,0.05731,0.0025741,0.017965,-1.1412,0.02595,0.048893,4.0585e-06,0.31,0.72,0
0.014944,-0.0028116,0.057287,0.0023772,0.017899,-0.00098193,0,0,0.051204,-0.020179,0,-0.002553,0,0,0,0.057305,0.0023597,0.017899,-1.0242,0.025855,0.049057,4.0758e-06,0.32,0.72,0
0.015456,-0.002867,0.057281,0.0021743,0.017837,-0.00087864,0,0,0.051278,-0.020361,0,-0.0022845,0,0,0,0.057295,0.0021602,0.017837,-0.91322,0.025764,0.049207,4.0909e-06,0.33,0.72,0
0.01597,-0.00292,0.057272,0.0019859,0.017777,-0.00078013,0,0,0.051343,-0.020529,0,-0.0020283,0,0,0,0.057283,0.0019749,0.017777,-0.80827,0.025678,0.049343,4.1041e-06,0.34,0.72,0
0.016483,-0.0029708,0.05726,0.0018111,0.017721,-0.00068646,0,0,0.0514,-0.020683,0,-0.0017848,0,0,0,0.057268,0.0018026,0.017721,-0.70918,0.025597,0.049466,4.1154e-06,0.35,0.72,0
0.016998,-0.0030194,0.057245,0.0016489,0.017668,-0.00059764,0,0,0.05145,-0.020825,0,-0.0015539,0,0,0,0.057251,0.0016425,0.017668,-0.61582,0.025521,0.049578,4.1252e-06,0.36,0.72,0
0.017512,-0.0030657,0.057228,0.0014985,0.017618,-0.00051364,0,0,0.051493,-0.020955,0,-0.0013355,0,0,0,0.057232,0.0014938,0.017618,-0.52802,0.025448,0.04968,4.1336e-06,0.37,0.72,0
0.018027,-0.00311,0.057209,0.001359,0.01757,-0.00043442,0,0,0.05153,-0.021075,0,-0.0011295,0,0,0,0.057212,0.0013556,0.01757,-0.44563,0.025379,0.049771,4.1407e-06,0.38,0.72,0
0.018543,-0.0031523,0.057188,0.0012296,0.017525,-0.00035989,0,0,0.051562,-0.021184,0,-0.00093572,0,0,0,0.057191,0.0012273,0.017525,-0.36847,0.025314,0.049854,4.1466e-06,0.39,0.72,0
0.019059,-0.0031926,0.057167,0.0011097,0.017483,-0.00028997,0,0,0.051589,-0.021285,0,-0.00075392,0,0,0,0.057168,0.0011082,0.017483,-0.29637,0.025253,0.049929,4.1515e-06,0.4,0.72,0
0.019575,-0.0032309,0.057144,0.00099851,0.017443,-0.00022454,0,0,0.051612,-0.021378,0,-0.0005838,0,0,0,0.057145,0.00099761,0.017443,-0.22913,0.025195,0.049996,4.1556e-06,0.41,0.72,0
0.020091,-0.0032674,0.057121,0.00089545,0.017405,-0.00016348,0,0,0.051631,-0.021462,0,-0.00042503,0,0,0,0.057121,0.00089497,0.017405,-0.16659,0.02514,0.050057,4.1588e-06,0.42,0.72,0
0.020607,-0.0033022,0.057097,0.00079992,0.017369,-0.00010665,0,0,0.051646,-0.02154,0,-0.00027728,0,0,0,0.057097,0.00079972,0.017369,-0.10854,0.025089,0.050111,4.1613e-06,0.43,0.72,0
0.021124,-0.0033352,0.057073,0.00071139,0.017335,-5.3907e-05,0,0,0.051659,-0.021611,0,-0.00014016,0,0,0,0.057073,0.00071134,0.017335,-0.054801,0.02504,0.05016,4.1631e-06,0.44,0.72,0
0.021641,-0.0033666,0.057048,0.00062935,0.017303,-5.1101e-06,0,0,0.051669,-0.021676,0,-1.3286e-05,0,0,0,0.057048,0.00062935,0.017303,-0.0051895,0.024994,0.050204,4.1644e-06,0.45,0.72,0
0.022157,-0.0033965,0.057024,0.00055334,0.017273,3.9898e-05,0,0,0.051676,-0.021736,0,0.00010373,0,0,0,0.057024,0.00055331,0.017273,0.040481,0.02495,0.050243,4.1652e-06,0.46,0.72,0
0.022674,-0.0034248,0.057,0.00048291,0.017245,8.1271e-05,0,0,0.051682,-0.021791,0,0.00021131,0,0,0,0.057,0.0004828,0.017245,0.082391,0.024909,0.050277,4.1656e-06,0.47,0.72,0
0.023191,-0.0034516,0.056976,0.00041768,0.017218,0.00011917,0,0,0.051685,-0.02184,0,0.00030984,0,0,0,0.056976,0.00041743,0.017218,0.12072,0.024871,0.050308,4.1656e-06,0.48,0.72,0
0.023708,-0.0034771,0.056952,0.00035727,0.017193,0.00015374,0,0,0.051687,-0.021886,0,0.00039973,0,0,0,0.056953,0.00035686,0.017193,0.15565,0.024834,0.050336,4.1652e-06,0.49,0.72,0
0.024225,-0.0035012,0.056929,0.00030134,0.017169,0.00018515,0,0,0.051688,-0.021928,0,0.00048139,0,0,0,0.056929,0.00030073,0.017169,0.18733,0.0248,0.05036,4.1646e-06,0.5,0.72,0
0.024741,-0.0035241,0.056906,0.00024956,0.017147,0.00021354,0,0,0.051687,-0.021966,0,0.00055522,0,0,0,0.056906,0.00024875,0.017147,0.21595,0.024767,0.050381,4.1637e-06,0.51,0.72,0
0.025258,-0.0035457,0.056883,0.00020164,0.017125,0.00023908,0,0,0.051685,-0.022001,0,0.0006216,0,0,0,0.056884,0.00020063,0.017125,0.24166,0.024737,0.050399,4.1626e-06,0.52,0.72,0
0.025775,-0.0035662,0.056861,0.0001573,0.017105,0.00026189,0,0,0.051682,-0.022033,0,0.00068092,0,0,0,0.056862,0.00015609,0.017105,0.26462,0.024708,0.050416,4.1614e-06,0.53,0.72,0
0.026292,-0.0035855,0.056839,0.00011629,0.017087,0.00028214,0,0,0.051678,-0.022062,0,0.00073356,0,0,0,0.056841,0.00011489,0.017087,0.28498,0.024681,0.050429,4.1599e-06,0.54,0.72,0
0.026809,-0.0036038,0.056818,7.8378e-05,0.017069,0.00029995,0,0,0.051674,-0.022088,0,0.00077987,0,0,0,0.05682,7.6793e-05,0.017069,0.30288,0.024655,0.050441,4.1583e-06,0.55,0.72,0
0.027325,-0.0036211,0.056798,4.3342e-05,0.017052,0.00031547,0,0,0.051669,-0.022112,0,0.00082021,0,0,0,0.0568,4.1588e-05,0.017052,0.31846,0.024631,0.050451,4.1566e-06,0.56,0.72,0
0.027842,-0.0036374,0.056778,1.0978e-05,0.017037,0.00032881,0,0,0.051664,-0.022133,0,0.00085491,0,0,0,0.05678,9.0737e-06,0.017037,0.33186,0.024608,0.05046,4.1548e-06,0.57,0.72,0
0.028359,-0.0036528,0.056759,-1.8901e-05,0.017022,0.00034012,0,0,0.051658,-0.022153,0,0.00088431,0,0,0,0.05676,-2.0938e-05,0.017022,0.34321,0.024587,0.050467,4.153e-06,0.58,0.72,0
0.028875,-0.0036673,0.05674,-4.6471e-05,0.017008,0.00034951,0,0,0.051651,-0.022171,0,0.00090872,0,0,0,0.056742,-4.8622e-05,0.017008,0.35263,0.024567,0.050472,4.151e-06,0.59,0.72,0
0.029392,-0.003681,0.056722,-7.1895e-05,0.016995,0.00035709,0,0,0.051645,-0.022187,0,0.00092843,0,0,0,0.056724,-7.414e-05,0.016995,0.36023,0.024548,0.050476,4.1491e-06,0.6,0.72,0
0.029908,-0.0036939,0.056704,-9.5324e-05,0.016983,0.00036298,0,0,0.051638,-0.022201,0,0.00094374,0,0,0,0.056706,-9.7644e-05,0.016983,0.36613,0.02453,0.05048,4.147e-06,0.61,0.72,0
0.030425,-0.0037061,0.056687,-0.0001169,0.016971,0.00036728,0,0,0.051631,-0.022214,0,0.00095493,0,0,0,0.056689,-0.00011927,0.016971,0.37044,0.024514,0.050482,4.145e-06,0.62,0.72,0
0.030941,-0.0037175,0.05667,-0.00013675,0.01696,0.0003701,0,0,0.051623,-0.022226,0,0.00096225,0,0,0,0.056673,-0.00013916,0.01696,0.37326,0.024498,0.050483,4.143e-06,0.63,0.72,0
0.031457,-0.0037282,0.056654,-0.000155,0.01695,0.00037153,0,0,0.051616,-0.022236,0,0.00096597,0,0,0,0.056657,-0.00015743,0.01695,0.37469,0.024483,0.050484,4.1409e-06,0.64,0.72,0
0.031973,-0.0037384,0.056639,-0.00017176,0.01694,0.00037166,0,0,0.051609,-0.022246,0,0.00096631,0,0,0,0.056641,-0.00017419,0.01694,0.37481,0.024469,0.050483,4.1388e-06,0.65,0.72,0
0.032489,-0.0037479,0.056624,-0.00018714,0.016931,0.00037058,0,0,0.051601,-0.022254,0,0.00096351,0,0,0,0.056627,-0.00018956,0.016931,0.37372,0.024456,0.050482,4.1368e-06,0.66,0.72,0
0.033005,-0.0037568,0.05661,-0.00020124,0.016923,0.00036837,0,0,0.051594,-0.022261,0,0.00095778,0,0,0,0.056613,-0.00020363,0.016923,0.3715,0.024444,0.050481,4.1348e-06,0.67,0.72,0
0.033521,-0.0037652,0.056596,-0.00021415,0.016915,0.00036512,0,0,0.051586,-0.022267,0,0.00094931,0,0,0,0.056599,-0.0002165,0.016915,0.36822,0.024432,0.050479,4.1328e-06,0.68,0.72,0
0.034037,-0.003773,0.056583,-0.00022596,0.016907,0.00036089,0,0,0.051579,-0.022273,0,0.00093832,0,0,0,0.056586,-0.00022825,0.016907,0.36396,0.024421,0.050477,4.1308e-06,0.69,0.72,0
0.034553,-0.0037804,0.056571,-0.00023674,0.0169,0.00035576,0,0,0.051572,-0.022278,0,0.00092497,0,0,0,0.056573,-0.00023897,0.0169,0.3588,0.024411,0.050474,4.1288e-06,0.7,0.72,0
0.035068,-0.0037873,0.056558,-0.00024657,0.016894,0.00034979,0,0,0.051564,-0.022282,0,0.00090944,0,0,0,0.056561,-0.00024873,0.016894,0.35279,0.024402,0.050471,4.1269e-06,0.71,0.72,0
0.035584,-0.0037937,0.056547,-0.00025553,0.016887,0.00034303,0,0,0.051557,-0.022286,0,0.00089189,0,0,0,0.056549,-0.0002576,0.016887,0.346,0.024393,0.050468,4.125e-06,0.72,0.72,0
0.036099,-0.0037998,0.056536,-0.00026368,0.016882,0.00033557,0,0,0.05155,-0.022289,0,0.00087247,0,0,0,0.056538,-0.00026566,0.016882,0.33848,0.024385,0.050464,4.1232e-06,0.73,0.72,0
0.036615,-0.0038054,0.056525,-0.00027108,0.016876,0.00032743,0,0,0.051543,-0.022291,0,0.00085133,0,0,0,0.056527,-0.00027296,0.016876,0.3303,0.024377,0.05046,4.1214e-06,0.74,0.72,0
0.03713,-0.0038107,0.056515,-0.00027778,0.016871,0.00031869,0,0,0.051537,-0.022294,0,0.0008286,0,0,0,0.056517,-0.00027957,0.016871,0.3215,0.024369,0.050457,4.1197e-06,0.75,0.72,0
0.037646,-0.0038156,0.056505,-0.00028385,0.016866,0.00030938,0,0,0.05153,-0.022295,0,0.00080439,0,0,0,0.056507,-0.00028553,0.016866,0.31213,0.024363,0.050453,4.118e-06,0.76,0.72,0
0.038161,-0.0038201,0.056496,-0.00028933,0.016862,0.00029956,0,0,0.051524,-0.022297,0,0.00077885,0,0,0,0.056497,-0.00029091,0.016862,0.30224,0.024356,0.050449,4.1164e-06,0.77,0.72,0
0.038676,-0.0038244,0.056487,-0.00029427,0.016858,0.00028925,0,0,0.051518,-0.022298,0,0.00075206,0,0,0,0.056489,-0.00029574,0.016858,0.29186,0.02435,0.050445,4.1148e-06,0.78,0.72,0
0.039191,-0.0038283,0.056479,-0.00029871,0.016854,0.00027851,0,0,0.051512,-0.022299,0,0.00072414,0,0,0,0.05648,-0.00030008,0.016854,0.28105,0.024345,0.05044,4.1133e-06,0.79,0.72,0
0.039706,-0.003832,0.056471,-0.0003027,0.01685,0.00026738,0,0,0.051506,-0.022299,0,0.00069518,0,0,0,0.056472,-0.00030396,0.01685,0.26983,0.02434,0.050437,4.1118e-06,0.8,0.72,0
0.040221,-0.0038354,0.056463,-0.00030627,0.016847,0.00025587,0,0,0.051501,-0.022299,0,0.00066527,0,0,0,0.056465,-0.00030742,0.016847,0.25824,0.024335,0.050432,4.1104e-06,0.81,0.72,0
0.040736,-0.0038386,0.056456,-0.00030946,0.016844,0.00024403,0,0,0.051496,-0.0223,0,0.00063449,0,0,0,0.056457,-0.00031051,0.016844,0.24631,0.02433,0.050429,4.1091e-06,0.82,0.72,0
0.041251,-0.0038415,0.05645,-0.0003123,0.016841,0.00023189,0,0,0.051491,-0.022299,0,0.00060292,0,0,0,0.056451,-0.00031325,0.016841,0.23407,0.024326,0.050425,4.1079e-06,0.83,0.72,0
0.041766,-0.0038442,0.056443,-0.00031483,0.016839,0.00021948,0,0,0.051486,-0.022299,0,0.00057064,0,0,0,0.056444,-0.00031568,0.016839,0.22155,0.024322,0.050421,4.1067e-06,0.84,0.72,0
0.042281,-0.0038466,0.056438,-0.00031706,0.016836,0.00020681,0,0,0.051482,-0.022299,0,0.00053771,0,0,0,0.056438,-0.00031782,0.016836,0.20878,0.024319,0.050417,4.1055e-06,0.85,0.72,0
0.042796,-0.0038489,0.056432,-0.00031904,0.016834,0.00019392,0,0,0.051478,-0.022299,0,0.0005042,0,0,0,0.056433,-0.0003197,0.016834,0.19578,0.024316,0.050414,4.1045e-06,0.86,0.72,0
0.043311,-0.0038509,0.056427,-0.00032078,0.016832,0.00018083,0,0,0.051474,-0.022298,0,0.00047015,0,0,0,0.056428,-0.00032135,0.016832,0.18257,0.024313,0.050411,4.1035e-06,0.87,0.72,0
0.043825,-0.0038528,0.056422,-0.0003223,0.01683,0.00016755,0,0,0.05147,-0.022298,0,0.00043563,0,0,0,0.056423,-0.0003228,0.01683,0.16918,0.02431,0.050408,4.1026e-06,0.88,0.72,0
0.04434,-0.0038545,0.056418,-0.00032363,0.016828,0.00015411,0,0,0.051467,-0.022298,0,0.00040069,0,0,0,0.056419,-0.00032405,0.016828,0.15562,0.024308,0.050405,4.1017e-06,0.89,0.72,0
0.044855,-0.003856,0.056414,-0.00032478,0.016827,0.00014053,0,0,0.051464,-0.022297,0,0.00036537,0,0,0,0.056414,-0.00032513,0.016827,0.14191,0.024305,0.050402,4.1009e-06,0.9,0.72,0
0.045369,-0.0038573,0.056411,-0.00032577,0.016826,0.00012682,0,0,0.051461,-0.022297,0,0.00032972,0,0,0,0.056411,-0.00032606,0.016826,0.12807,0.024303,0.0504,4.1002e-06,0.91,0.72,0
0.045884,-0.0038585,0.056407,-0.00032662,0.016824,0.00011299,0,0,0.051458,-0.022296,0,0.00029378,0,0,0,0.056408,-0.00032685,0.016824,0.11411,0.024302,0.050398,4.0996e-06,0.92,0.72,0
0.046398,-0.0038596,0.056405,-0.00032734,0.016823,9.9072e-05,0,0,0.051456,-0.022296,0,0.00025759,0,0,0,0.056405,-0.00032751,0.016823,0.10006,0.0243,0.050396,4.099e-06,0.93,0.72,0
0.046913,-0.0038605,0.056402,-0.00032794,0.016822,8.5068e-05,0,0,0.051454,-0.022295,0,0.00022118,0,0,0,0.056403,-0.00032806,0.016822,0.085916,0.024299,0.050394,4.0985e-06,0.94,0.72,0
0.047427,-0.0038612,0.0564,-0.00032843,0.016822,7.0994e-05,0,0,0.051452,-0.022295,0,0.00018458,0,0,0,0.0564,-0.00032852,0.016822,0.071703,0.024298,0.050392,4.0981e-06,0.95,0.72,0
0.047942,-0.0038618,0.056399,-0.00032882,0.016821,5.6862e-05,0,0,0.051451,-0.022295,0,0.00014784,0,0,0,0.056399,-0.00032887,0.016821,0.057432,0.024297,0.050391,4.0978e-06,0.96,0.72,0
0.048456,-0.0038623,0.056397,-0.00032911,0.01682,4.2686e-05,0,0,0.05145,-0.022294,0,0.00011098,0,0,0,0.056398,-0.00032914,0.01682,0.043114,0.024296,0.05039,4.0975e-06,0.97,0.72,0
0.048971,-0.0038626,0.056397,-0.00032932,0.01682,2.8476e-05,0,0,0.051449,-0.022294,0,7.4037e-05,0,0,0,0.056397,-0.00032933,0.01682,0.028762,0.024296,0.05039,4.0973e-06,0.98,0.72,0
0.049486,-0.0038628,0.056396,-0.00032944,0.01682,1.4243e-05,0,0,0.051449,-0.022294,0,3.7033e-05,0,0,0,0.056396,-0.00032945,0.01682,0.014387,0.024296,0.050389,4.0972e-06,0.99,0.72,0
0.05,-0.0038629,0.056396,-0.00032948,0.01682,-2.5517e-06,0,0,0.051449,-0.022294,0,-6.6343e-06,0,0,0,0.056396,-0.00032948,0.01682,-0.0025773,0.024295,0.050389,4.0972e-06,1,0.72,0
0,0,0.051898,0.022242,0.022242,-0.0040698,0,0,0.038553,1.0842e-19,0,-0.010581,0,0,0,0.052447,0.021694,0.022242,-7.6738,0.032128,0.030482,1.4531e-06,0,0.73,0
0.00038553,-0.00010581,0.0518,0.021085,0.021866,-0.0040719,0,0,0.038915,-0.0010149,0,-0.010587,0,0,0,0.052331,0.020554,0.021866,-7.4248,0.031584,0.031142,1.5419e-06,0.01,0.73,0
0.00077831,-0.00021301,0.052188,0.020131,0.021696,-0.0040954,0,0,0.03964,-0.0020338,0,-0.010648,0,0,0,0.052703,0.019616,0.021696,-7.1664,0.031338,0.032097,1.6743e-06,0.02,0.73,0
0.0011783,-0.00032144,0.052573,0.019177,0.021525,-0.0041093,0,0,0.040362,-0.0030519,0,-0.010684,0,0,0,0.053071,0.018679,0.021525,-6.913,0.031092,0.033061,1.8096e-06,0.03,0.73,0
0.0015855,-0.00043088,0.052951,0.018227,0.021354,-0.0041125,0,0,0.041077,-0.0040644,0,-0.010693,0,0,0,0.053432,0.017747,0.021354,-6.6629,0.030844,0.034025,1.9467e-06,0.04,0.73,0
0.0019999,-0.00054114,0.053322,0.017285,0.021182,-0.0041037,0,0,0.041782,-0.0050663,0,-0.01067,0,0,0,0.053784,0.016824,0.021182,-6.4151,0.030597,0.034985,2.0846e-06,0.05,0.73,0
0.0024212,-0.00065196,0.053683,0.016355,0.021011,-0.0040822,0,0,0.042473,-0.0060529,0,-0.010614,0,0,0,0.054124,0.015914,0.021011,-6.1689,0.03035,0.035934,2.2222e-06,0.06,0.73,0
0.0028493,-0.00076309,0.054031,0.015442,0.020842,-0.0040474,0,0,0.043146,-0.0070195,0,-0.010523,0,0,0,0.054451,0.015022,0.020842,-5.9237,0.030105,0.036865,2.3584e-06,0.07,0.73,0
0.0032841,-0.00087425,0.054364,0.01455,0.020674,-0.003999,0,0,0.043797,-0.0079618,0,-0.010397,0,0,0,0.054762,0.014152,0.020674,-5.6793,0.029863,0.037773,2.4922e-06,0.08,0.73,0
0.0037253,-0.00098517,0.05468,0.013681,0.020508,-0.0039371,0,0,0.044424,-0.0088759,0,-0.010237,0,0,0,0.055055,0.013306,0.020508,-5.4358,0.029623,0.038654,2.6226e-06,0.09,0.73,0
0.0041726,-0.0010956,0.054979,0.012839,0.020345,-0.0038621,0,0,0.045024,-0.0097585,0,-0.010041,0,0,0,0.05533,0.012488,0.020345,-5.1934,0.029388,0.039504,2.7488e-06,0.1,0.73,0
0.0046257,-0.0012052,0.055259,0.012027,0.020185,-0.0037745,0,0,0.045595,-0.010607,0,-0.0098137,0,0,0,0.055586,0.011699,0.020185,-4.9524,0.029157,0.040319,2.8699e-06,0.11,0.73,0
0.0050845,-0.0013137,0.055518,0.011246,0.020029,-0.0036752,0,0,0.046136,-0.011418,0,-0.0095556,0,0,0,0.055821,0.010943,0.020029,-4.7134,0.028931,0.041096,2.9855e-06,0.12,0.73,0
0.0055484,-0.0014209,0.055757,0.010498,0.019877,-0.0035653,0,0,0.046645,-0.012192,0,-0.0092697,0,0,0,0.056037,0.010219,0.019877,-4.4767,0.028711,0.041833,3.0951e-06,0.13,0.73,0
0.0060174,-0.0015266,0.055976,0.0097854,0.019728,-0.0034458,0,0,0.047122,-0.012926,0,-0.0089592,0,0,0,0.056232,0.0095297,0.019728,-4.243,0.028497,0.04253,3.1982e-06,0.14,0.73,0
0.0064909,-0.0016305,0.056175,0.0091074,0.019585,-0.0033182,0,0,0.047567,-0.013621,0,-0.0086272,0,0,0,0.056408,0.0088746,0.019585,-4.0128,0.028289,0.043186,3.2946e-06,0.15,0.73,0
0.0069687,-0.0017325,0.056353,0.0084647,0.019445,-0.0031836,0,0,0.04798,-0.014275,0,-0.0082773,0,0,0,0.056564,0.008254,0.019445,-3.7867,0.028088,0.0438,3.3844e-06,0.16,0.73,0
0.0074505,-0.0018322,0.056513,0.0078572,0.019311,-0.0030434,0,0,0.048362,-0.01489,0,-0.0079127,0,0,0,0.056702,0.0076676,0.019311,-3.5653,0.027894,0.044374,3.4675e-06,0.17,0.73,0
0.007936,-0.0019298,0.056654,0.0072844,0.019181,-0.0028989,0,0,0.048714,-0.015466,0,-0.0075371,0,0,0,0.056823,0.0071148,0.019181,-3.349,0.027706,0.044908,3.544e-06,0.18,0.73,0
0.0084248,-0.0020248,0.056777,0.0067456,0.019057,-0.0027514,0,0,0.049036,-0.016005,0,-0.0071536,0,0,0,0.056928,0.0065948,0.019057,-3.1383,0.027526,0.045403,3.6141e-06,0.19,0.73,0
0.0089167,-0.0021173,0.056884,0.00624,0.018937,-0.0026021,0,0,0.049331,-0.016506,0,-0.0067654,0,0,0,0.057017,0.0061066,0.018937,-2.9336,0.027354,0.045862,3.678e-06,0.2,0.73,0
0.0094114,-0.0022072,0.056975,0.0057662,0.018822,-0.0024521,0,0,0.049599,-0.016973,0,-0.0063754,0,0,0,0.057092,0.005649,0.018822,-2.7352,0.027188,0.046285,3.736e-06,0.21,0.73,0
0.0099087,-0.0022944,0.057052,0.0053231,0.018713,-0.0023024,0,0,0.049842,-0.017406,0,-0.0059862,0,0,0,0.057155,0.0052208,0.018713,-2.5434,0.027029,0.046674,3.7885e-06,0.22,0.73,0
0.010408,-0.0023788,0.057116,0.0049094,0.018608,-0.0021539,0,0,0.050061,-0.017808,0,-0.0056002,0,0,0,0.057205,0.0048207,0.018608,-2.3585,0.026878,0.047032,3.8358e-06,0.23,0.73,0
0.01091,-0.0024605,0.057168,0.0045235,0.018508,-0.0020075,0,0,0.050259,-0.018179,0,-0.0052195,0,0,0,0.057245,0.0044471,0.018508,-2.1806,0.026733,0.04736,3.8782e-06,0.24,0.73,0
0.011413,-0.0025393,0.05721,0.0041642,0.018412,-0.0018638,0,0,0.050437,-0.018522,0,-0.0048459,0,0,0,0.057275,0.0040987,0.018412,-2.0099,0.026595,0.04766,3.9161e-06,0.25,0.73,0
0.011919,-0.0026153,0.057241,0.0038298,0.018321,-0.0017235,0,0,0.050596,-0.018839,0,-0.0044811,0,0,0,0.057297,0.0037742,0.018321,-1.8463,0.026464,0.047934,3.9498e-06,0.26,0.73,0
0.012425,-0.0026886,0.057264,0.003519,0.018235,-0.0015871,0,0,0.050738,-0.019131,0,-0.0041264,0,0,0,0.057311,0.0034721,0.018235,-1.69,0.026339,0.048184,3.9797e-06,0.27,0.73,0
0.012933,-0.002759,0.057279,0.0032303,0.018153,-0.0014549,0,0,0.050864,-0.019399,0,-0.0037828,0,0,0,0.057318,0.0031911,0.018153,-1.5408,0.026221,0.048412,4.0061e-06,0.28,0.73,0
0.013443,-0.0028267,0.057287,0.0029623,0.018075,-0.0013274,0,0,0.050976,-0.019646,0,-0.0034512,0,0,0,0.057319,0.0029299,0.018075,-1.3989,0.026108,0.048619,4.0293e-06,0.29,0.73,0
0.013953,-0.0028917,0.057289,0.0027137,0.018001,-0.0012048,0,0,0.051074,-0.019873,0,-0.0031324,0,0,0,0.057315,0.0026871,0.018001,-1.264,0.026001,0.048808,4.0497e-06,0.3,0.73,0
0.014464,-0.0029541,0.057285,0.0024832,0.017931,-0.0010872,0,0,0.051161,-0.020082,0,-0.0028268,0,0,0,0.057307,0.0024617,0.017931,-1.1361,0.0259,0.048979,4.0675e-06,0.31,0.73,0
0.014976,-0.0030138,0.057278,0.0022696,0.017864,-0.00097493,0,0,0.051237,-0.020273,0,-0.0025348,0,0,0,0.057295,0.0022524,0.017864,-1.0151,0.025804,0.049133,4.0829e-06,0.32,0.73,0
0.015489,-0.003071,0.057266,0.0020717,0.017801,-0.00086793,0,0,0.051304,-0.020449,0,-0.0022566,0,0,0,0.05728,0.0020581,0.017801,-0.90068,0.025713,0.049274,4.0962e-06,0.33,0.73,0
0.016002,-0.0031257,0.057251,0.0018885,0.017742,-0.00076626,0,0,0.051362,-0.020609,0,-0.0019923,0,0,0,0.057262,0.0018778,0.017742,-0.79282,0.025627,0.049401,4.1076e-06,0.34,0.73,0
0.016516,-0.003178,0.057233,0.0017187,0.017686,-0.00066993,0,0,0.051412,-0.020757,0,-0.0017418,0,0,0,0.057241,0.0017107,0.017686,-0.69129,0.025546,0.049515,4.1173e-06,0.35,0.73,0
0.01703,-0.003228,0.057213,0.0015616,0.017632,-0.0005789,0,0,0.051455,-0.020892,0,-0.0015051,0,0,0,0.057219,0.0015556,0.017632,-0.59591,0.025469,0.049619,4.1255e-06,0.36,0.73,0
0.017545,-0.0032756,0.057191,0.0014162,0.017582,-0.00049308,0,0,0.051492,-0.021016,0,-0.001282,0,0,0,0.057196,0.0014118,0.017582,-0.50647,0.025397,0.049712,4.1324e-06,0.37,0.73,0
0.01806,-0.0033211,0.057168,0.0012816,0.017535,-0.00041239,0,0,0.051523,-0.021129,0,-0.0010722,0,0,0,0.057171,0.0012786,0.017535,-0.42276,0.025328,0.049796,4.1381e-06,0.38,0.73,0
0.018576,-0.0033644,0.057143,0.001157,0.01749,-0.00033671,0,0,0.051549,-0.021233,0,-0.00087545,0,0,0,0.057146,0.001155,0.01749,-0.34457,0.025264,0.049871,4.1427e-06,0.39,0.73,0
0.019091,-0.0034056,0.057118,0.0010418,0.017448,-0.00026591,0,0,0.051571,-0.021328,0,-0.00069137,0,0,0,0.057119,0.0010405,0.017448,-0.27169,0.025203,0.049939,4.1464e-06,0.4,0.73,0
0.019607,-0.0034449,0.057092,0.00093516,0.017408,-0.00019985,0,0,0.051589,-0.021415,0,-0.0005196,0,0,0,0.057093,0.00093444,0.017408,-0.20389,0.025145,0.05,4.1493e-06,0.41,0.73,0
0.020123,-0.0034822,0.057066,0.00083649,0.017371,-0.00013836,0,0,0.051603,-0.021494,0,-0.00035973,0,0,0,0.057066,0.00083615,0.017371,-0.14098,0.025091,0.050055,4.1515e-06,0.42,0.73,0
0.020639,-0.0035177,0.057039,0.00074521,0.017335,-8.1286e-05,0,0,0.051615,-0.021567,0,-0.00021134,0,0,0,0.057039,0.00074509,0.017335,-0.082733,0.02504,0.050103,4.153e-06,0.43,0.73,0
0.021155,-0.0035515,0.057012,0.00066076,0.017302,-2.8463e-05,0,0,0.051624,-0.021634,0,-7.4005e-05,0,0,0,0.057013,0.00066075,0.017302,-0.02894,0.024992,0.050147,4.154e-06,0.44,0.73,0
0.021672,-0.0035835,0.056986,0.00058265,0.017271,2.0282e-05,0,0,0.05163,-0.021694,0,5.2732e-05,0,0,0,0.056986,0.00058264,0.017271,0.020603,0.024946,0.050185,4.1545e-06,0.45,0.73,0
0.022188,-0.0036139,0.05696,0.00051039,0.017241,6.5122e-05,0,0,0.051634,-0.02175,0,0.00016932,0,0,0,0.05696,0.00051032,0.017241,0.066099,0.024904,0.05022,4.1545e-06,0.46,0.73,0
0.022704,-0.0036427,0.056934,0.00044357,0.017213,0.00010623,0,0,0.051637,-0.021801,0,0.0002762,0,0,0,0.056934,0.00044337,0.017213,0.10774,0.024864,0.05025,4.1542e-06,0.47,0.73,0
0.023221,-0.0036701,0.056908,0.00038177,0.017187,0.00014378,0,0,0.051638,-0.021847,0,0.00037383,0,0,0,0.056909,0.00038141,0.017187,0.14574,0.024826,0.050277,4.1536e-06,0.48,0.73,0
0.023737,-0.003696,0.056883,0.00032463,0.017162,0.00017794,0,0,0.051637,-0.021889,0,0.00046264,0,0,0,0.056884,0.00032407,0.017162,0.18026,0.02479,0.050301,4.1527e-06,0.49,0.73,0
0.024253,-0.0037205,0.056859,0.0002718,0.017139,0.00020888,0,0,0.051635,-0.021927,0,0.00054308,0,0,0,0.056859,0.00027103,0.017139,0.21149,0.024757,0.050321,4.1516e-06,0.5,0.73,0
0.02477,-0.0037437,0.056835,0.00022298,0.017117,0.00023675,0,0,0.051633,-0.021963,0,0.00061556,0,0,0,0.056836,0.00022199,0.017117,0.23961,0.024725,0.050339,4.1503e-06,0.51,0.73,0
0.025286,-0.0037657,0.056811,0.00017785,0.017097,0.00026173,0,0,0.051629,-0.021995,0,0.00068051,0,0,0,0.056813,0.00017664,0.017097,0.26479,0.024695,0.050355,4.1489e-06,0.52,0.73,0
0.025802,-0.0037864,0.056789,0.00013616,0.017077,0.00028397,0,0,0.051625,-0.022024,0,0.00073832,0,0,0,0.05679,0.00013474,0.017077,0.28719,0.024667,0.050369,4.1472e-06,0.53,0.73,0
0.026319,-0.0038061,0.056767,9.7664e-05,0.017059,0.00030361,0,0,0.05162,-0.02205,0,0.0007894,0,0,0,0.056768,9.6037e-05,0.017059,0.30696,0.024641,0.05038,4.1455e-06,0.54,0.73,0
0.026835,-0.0038246,0.056745,6.2117e-05,0.017042,0.00032081,0,0,0.051614,-0.022074,0,0.00083411,0,0,0,0.056747,6.0302e-05,0.017042,0.32426,0.024617,0.05039,4.1437e-06,0.55,0.73,0
0.027351,-0.0038421,0.056725,2.9311e-05,0.017026,0.0003357,0,0,0.051608,-0.022096,0,0.00087282,0,0,0,0.056727,2.7324e-05,0.017026,0.33924,0.024594,0.050398,4.1418e-06,0.56,0.73,0
0.027867,-0.0038587,0.056705,-9.5223e-07,0.017011,0.00034842,0,0,0.051602,-0.022116,0,0.00090588,0,0,0,0.056707,-3.0929e-06,0.017011,0.35202,0.024572,0.050405,4.1399e-06,0.57,0.73,0
0.028383,-0.0038743,0.056686,-2.8856e-05,0.016997,0.00035909,0,0,0.051595,-0.022134,0,0.00093363,0,0,0,0.056688,-3.113e-05,0.016997,0.36275,0.024551,0.05041,4.1379e-06,0.58,0.73,0
0.028899,-0.0038889,0.056667,-5.4571e-05,0.016984,0.00036785,0,0,0.051588,-0.02215,0,0.0009564,0,0,0,0.05667,-5.6956e-05,0.016984,0.37155,0.024532,0.050415,4.1359e-06,0.59,0.73,0
0.029415,-0.0039028,0.056649,-7.8254e-05,0.016971,0.0003748,0,0,0.051581,-0.022164,0,0.00097448,0,0,0,0.056652,-8.073e-05,0.016971,0.37853,0.024514,0.050418,4.1338e-06,0.6,0.73,0
0.02993,-0.0039158,0.056632,-0.00010005,0.01696,0.00038007,0,0,0.051574,-0.022178,0,0.00098818,0,0,0,0.056635,-0.0001026,0.01696,0.38382,0.024497,0.05042,4.1318e-06,0.61,0.73,0
0.030446,-0.0039281,0.056615,-0.0001201,0.016949,0.00038376,0,0,0.051567,-0.022189,0,0.00099778,0,0,0,0.056618,-0.00012269,0.016949,0.38753,0.024481,0.050421,4.1297e-06,0.62,0.73,0
0.030962,-0.0039396,0.0566,-0.00013852,0.016938,0.00038597,0,0,0.05156,-0.0222,0,0.0010035,0,0,0,0.056602,-0.00014115,0.016938,0.38974,0.024466,0.050422,4.1277e-06,0.63,0.73,0
0.031477,-0.0039505,0.056584,-0.00015544,0.016929,0.00038681,0,0,0.051552,-0.022209,0,0.0010057,0,0,0,0.056587,-0.00015808,0.016929,0.39058,0.024452,0.050422,4.1256e-06,0.64,0.73,0
0.031993,-0.0039607,0.05657,-0.00017096,0.01692,0.00038636,0,0,0.051545,-0.022218,0,0.0010045,0,0,0,0.056572,-0.00017359,0.01692,0.39011,0.024439,0.050421,4.1236e-06,0.65,0.73,0
0.032508,-0.0039703,0.056556,-0.00018518,0.016911,0.00038471,0,0,0.051538,-0.022225,0,0.0010002,0,0,0,0.056558,-0.00018779,0.016911,0.38845,0.024427,0.05042,4.1216e-06,0.66,0.73,0
0.033024,-0.0039793,0.056542,-0.0001982,0.016903,0.00038195,0,0,0.05153,-0.022232,0,0.00099306,0,0,0,0.056545,-0.00020077,0.016903,0.38566,0.024416,0.050418,4.1197e-06,0.67,0.73,0
0.033539,-0.0039877,0.056529,-0.00021011,0.016896,0.00037814,0,0,0.051523,-0.022238,0,0.00098317,0,0,0,0.056532,-0.00021263,0.016896,0.38183,0.024405,0.050416,4.1178e-06,0.68,0.73,0
0.034054,-0.0039956,0.056517,-0.00022098,0.016889,0.00037338,0,0,0.051516,-0.022243,0,0.00097079,0,0,0,0.056519,-0.00022344,0.016889,0.37703,0.024395,0.050414,4.1159e-06,0.69,0.73,0
0.034569,-0.004003,0.056505,-0.0002309,0.016882,0.00036772,0,0,0.051509,-0.022247,0,0.00095608,0,0,0,0.056507,-0.00023328,0.016882,0.37133,0.024385,0.050411,4.1141e-06,0.7,0.73,0
0.035084,-0.0040099,0.056494,-0.00023994,0.016876,0.00036124,0,0,0.051503,-0.022251,0,0.00093922,0,0,0,0.056496,-0.00024224,0.016876,0.3648,0.024377,0.050408,4.1123e-06,0.71,0.73,0
0.035599,-0.0040164,0.056483,-0.00024816,0.01687,0.00035399,0,0,0.051496,-0.022254,0,0.00092037,0,0,0,0.056485,-0.00025036,0.01687,0.3575,0.024368,0.050405,4.1105e-06,0.72,0.73,0
0.036114,-0.0040225,0.056472,-0.00025562,0.016865,0.00034603,0,0,0.05149,-0.022257,0,0.00089968,0,0,0,0.056474,-0.00025773,0.016865,0.34948,0.024361,0.050402,4.1088e-06,0.73,0.73,0
0.036629,-0.0040281,0.056463,-0.00026239,0.01686,0.00033742,0,0,0.051483,-0.022259,0,0.0008773,0,0,0,0.056465,-0.00026439,0.01686,0.3408,0.024353,0.050398,4.1072e-06,0.74,0.73,0
0.037144,-0.0040334,0.056453,-0.00026851,0.016855,0.00032821,0,0,0.051477,-0.022261,0,0.00085335,0,0,0,0.056455,-0.00027041,0.016855,0.33152,0.024347,0.050395,4.1056e-06,0.75,0.73,0
0.037658,-0.0040383,0.056444,-0.00027404,0.016851,0.00031845,0,0,0.051471,-0.022263,0,0.00082796,0,0,0,0.056446,-0.00027583,0.016851,0.32168,0.024341,0.050391,4.104e-06,0.76,0.73,0
0.038173,-0.0040429,0.056436,-0.00027903,0.016847,0.00030817,0,0,0.051465,-0.022264,0,0.00080125,0,0,0,0.056438,-0.00028071,0.016847,0.31132,0.024335,0.050387,4.1025e-06,0.77,0.73,0
0.038688,-0.0040472,0.056428,-0.00028352,0.016843,0.00029743,0,0,0.05146,-0.022265,0,0.00077333,0,0,0,0.05643,-0.00028508,0.016843,0.30049,0.024329,0.050383,4.1011e-06,0.78,0.73,0
0.039202,-0.0040512,0.05642,-0.00028755,0.01684,0.00028627,0,0,0.051455,-0.022266,0,0.00074429,0,0,0,0.056422,-0.000289,0.01684,0.28923,0.024324,0.05038,4.0997e-06,0.79,0.73,0
0.039717,-0.0040548,0.056413,-0.00029117,0.016837,0.00027471,0,0,0.05145,-0.022266,0,0.00071424,0,0,0,0.056414,-0.0002925,0.016837,0.27757,0.02432,0.050376,4.0984e-06,0.8,0.73,0
0.040231,-0.0040583,0.056406,-0.00029439,0.016834,0.00026279,0,0,0.051445,-0.022266,0,0.00068326,0,0,0,0.056408,-0.00029561,0.016834,0.26554,0.024315,0.050372,4.0972e-06,0.81,0.73,0
0.040746,-0.0040614,0.0564,-0.00029727,0.016831,0.00025055,0,0,0.05144,-0.022267,0,0.00065143,0,0,0,0.056401,-0.00029838,0.016831,0.25319,0.024311,0.050369,4.096e-06,0.82,0.73,0
0.04126,-0.0040643,0.056394,-0.00029983,0.016828,0.00023801,0,0,0.051436,-0.022267,0,0.00061883,0,0,0,0.056395,-0.00030083,0.016828,0.24053,0.024307,0.050365,4.0948e-06,0.83,0.73,0
0.041774,-0.004067,0.056388,-0.0003021,0.016826,0.0002252,0,0,0.051431,-0.022266,0,0.00058553,0,0,0,0.056389,-0.00030299,0.016826,0.2276,0.024304,0.050362,4.0937e-06,0.84,0.73,0
0.042289,-0.0040694,0.056383,-0.0003041,0.016824,0.00021215,0,0,0.051427,-0.022266,0,0.00055159,0,0,0,0.056384,-0.00030489,0.016824,0.21443,0.024301,0.050359,4.0927e-06,0.85,0.73,0
0.042803,-0.0040717,0.056378,-0.00030586,0.016822,0.00019888,0,0,0.051424,-0.022266,0,0.00051709,0,0,0,0.056379,-0.00030656,0.016822,0.20102,0.024298,0.050356,4.0918e-06,0.86,0.73,0
0.043317,-0.0040737,0.056374,-0.00030741,0.01682,0.00018541,0,0,0.05142,-0.022266,0,0.00048207,0,0,0,0.056374,-0.00030802,0.01682,0.18742,0.024295,0.050353,4.0909e-06,0.87,0.73,0
0.043832,-0.0040756,0.05637,-0.00030877,0.016818,0.00017177,0,0,0.051417,-0.022265,0,0.00044659,0,0,0,0.05637,-0.00030929,0.016818,0.17363,0.024293,0.05035,4.0901e-06,0.88,0.73,0
0.044346,-0.0040773,0.056366,-0.00030994,0.016817,0.00015796,0,0,0.051414,-0.022265,0,0.0004107,0,0,0,0.056366,-0.00031038,0.016817,0.15969,0.024291,0.050348,4.0893e-06,0.89,0.73,0
0.04486,-0.0040788,0.056362,-0.00031096,0.016815,0.00014401,0,0,0.051411,-0.022264,0,0.00037444,0,0,0,0.056363,-0.00031133,0.016815,0.1456,0.024289,0.050345,4.0886e-06,0.9,0.73,0
0.045374,-0.0040802,0.056359,-0.00031183,0.016814,0.00012994,0,0,0.051409,-0.022264,0,0.00033786,0,0,0,0.05636,-0.00031213,0.016814,0.13138,0.024287,0.050343,4.088e-06,0.91,0.73,0
0.045888,-0.0040813,0.056357,-0.00031258,0.016813,0.00011577,0,0,0.051406,-0.022263,0,0.00030099,0,0,0,0.056357,-0.00031282,0.016813,0.11704,0.024286,0.050341,4.0874e-06,0.92,0.73,0
0.046402,-0.0040824,0.056354,-0.00031321,0.016812,0.00010149,0,0,0.051404,-0.022263,0,0.00026388,0,0,0,0.056354,-0.00031339,0.016812,0.10262,0.024284,0.050339,4.0869e-06,0.93,0.73,0
0.046916,-0.0040833,0.056352,-0.00031373,0.016812,8.7138e-05,0,0,0.051403,-0.022263,0,0.00022656,0,0,0,0.056352,-0.00031387,0.016812,0.088106,0.024283,0.050338,4.0865e-06,0.94,0.73,0
0.04743,-0.004084,0.05635,-0.00031416,0.016811,7.2716e-05,0,0,0.051401,-0.022263,0,0.00018906,0,0,0,0.05635,-0.00031425,0.016811,0.073526,0.024282,0.050336,4.0861e-06,0.95,0.73,0
0.047944,-0.0040846,0.056349,-0.0003145,0.01681,5.8238e-05,0,0,0.0514,-0.022262,0,0.00015142,0,0,0,0.056349,-0.00031456,0.01681,0.058888,0.024282,0.050335,4.0858e-06,0.96,0.73,0
0.048458,-0.0040851,0.056348,-0.00031476,0.01681,4.3716e-05,0,0,0.051399,-0.022262,0,0.00011366,0,0,0,0.056348,-0.00031479,0.01681,0.044205,0.024281,0.050334,4.0856e-06,0.97,0.73,0
0.048972,-0.0040854,0.056347,-0.00031494,0.01681,2.9162e-05,0,0,0.051398,-0.022262,0,7.5821e-05,0,0,0,0.056347,-0.00031495,0.01681,0.029488,0.02428,0.050334,4.0854e-06,0.98,0.73,0
0.049486,-0.0040856,0.056346,-0.00031504,0.016809,1.4586e-05,0,0,0.051398,-0.022262,0,3.7925e-05,0,0,0,0.056346,-0.00031505,0.016809,0.01475,0.02428,0.050334,4.0853e-06,0.99,0.73,0
0.05,-0.0040857,0.056346,-0.00031508,0.016809,-2.5392e-06,0,0,0.051398,-0.022262,0,-6.6018e-06,0,0,0,0.056346,-0.00031508,0.016809,-0.0025676,0.02428,0.050333,4.0853e-06,1,0.73,0
0,0,0.051987,0.02228,0.02228,-0.0044616,0,0,0.038619,0,0,-0.0116,0,0,0,0.052642,0.021624,0.02228,-8.3595,0.032182,0.030695,1.4831e-06,0,0.74,0
0.00038619,-0.000116,0.051888,0.021113,0.0219,-0.0044629,0,0,0.038984,-0.0010238,0,-0.011604,0,0,0,0.052522,0.020479,0.0219,-8.0869,0.031634,0.031357,1.5726e-06,0.01,0.74,0
0.00077969,-0.00023344,0.052279,0.020149,0.021729,-0.0044848,0,0,0.039716,-0.0020532,0,-0.01166,0,0,0,0.052894,0.019535,0.021729,-7.7989,0.031386,0.032318,1.7067e-06,0.02,0.74,0
0.0011805,-0.00035209,0.052668,0.019184,0.021555,-0.0044946,0,0,0.040446,-0.0030833,0,-0.011686,0,0,0,0.053261,0.018591,0.021555,-7.5137,0.031136,0.033286,1.8436e-06,0.03,0.74,0
0.0015886,-0.00047172,0.053051,0.018221,0.021381,-0.004491,0,0,0.04117,-0.0041089,0,-0.011677,0,0,0,0.05362,0.017651,0.021381,-7.2302,0.030884,0.034257,1.9824e-06,0.04,0.74,0
0.0020039,-0.00059206,0.053425,0.017265,0.021207,-0.0044728,0,0,0.041884,-0.0051249,0,-0.011629,0,0,0,0.05397,0.01672,0.021207,-6.9477,0.030632,0.035222,2.1219e-06,0.05,0.74,0
0.0024263,-0.00071281,0.053789,0.016321,0.021033,-0.0044395,0,0,0.042583,-0.006126,0,-0.011543,0,0,0,0.054308,0.015802,0.021033,-6.6658,0.030381,0.036175,2.261e-06,0.06,0.74,0
0.0028556,-0.00083367,0.05414,0.015393,0.02086,-0.0043905,0,0,0.043264,-0.0071071,0,-0.011415,0,0,0,0.054631,0.014902,0.02086,-6.3844,0.030131,0.037111,2.3985e-06,0.07,0.74,0
0.0032916,-0.00095433,0.054476,0.014486,0.020688,-0.0043259,0,0,0.043923,-0.0080637,0,-0.011247,0,0,0,0.054938,0.014023,0.020688,-6.1039,0.029883,0.038023,2.5334e-06,0.08,0.74,0
0.003734,-0.0010745,0.054794,0.013602,0.020519,-0.0042462,0,0,0.044558,-0.0089915,0,-0.01104,0,0,0,0.055227,0.013169,0.020519,-5.8246,0.029639,0.038907,2.6647e-06,0.09,0.74,0
0.0041827,-0.0011937,0.055094,0.012747,0.020352,-0.0041519,0,0,0.045164,-0.0098867,0,-0.010795,0,0,0,0.055497,0.012344,0.020352,-5.5472,0.029398,0.039758,2.7915e-06,0.1,0.74,0
0.0046373,-0.0013119,0.055373,0.011922,0.020189,-0.0040441,0,0,0.04574,-0.010746,0,-0.010515,0,0,0,0.055746,0.011549,0.020189,-5.2723,0.029161,0.040573,2.913e-06,0.11,0.74,0
0.0050975,-0.0014286,0.055632,0.01113,0.020029,-0.003924,0,0,0.046284,-0.011568,0,-0.010202,0,0,0,0.055975,0.010787,0.020029,-5.0007,0.02893,0.04135,3.0285e-06,0.12,0.74,0
0.005563,-0.0015436,0.055869,0.010372,0.019872,-0.003793,0,0,0.046796,-0.01235,0,-0.0098618,0,0,0,0.056183,0.010058,0.019872,-4.7331,0.028705,0.042085,3.1377e-06,0.13,0.74,0
0.0060334,-0.0016566,0.056085,0.0096505,0.019721,-0.0036525,0,0,0.047274,-0.013091,0,-0.0094965,0,0,0,0.05637,0.009365,0.019721,-4.4702,0.028485,0.042778,3.2402e-06,0.14,0.74,0
0.0065085,-0.0017675,0.05628,0.0089652,0.019573,-0.0035041,0,0,0.047718,-0.013791,0,-0.0091107,0,0,0,0.056538,0.0087071,0.019573,-4.2127,0.028273,0.043429,3.3357e-06,0.15,0.74,0
0.0069878,-0.001876,0.056453,0.0083167,0.019431,-0.0033494,0,0,0.048129,-0.014449,0,-0.0087084,0,0,0,0.056685,0.0080847,0.019431,-3.9612,0.028067,0.044038,3.4242e-06,0.16,0.74,0
0.007471,-0.001982,0.056607,0.0077047,0.019294,-0.0031898,0,0,0.048508,-0.015066,0,-0.0082936,0,0,0,0.056814,0.0074975,0.019294,-3.7163,0.027869,0.044604,3.5058e-06,0.17,0.74,0
0.0079579,-0.0020852,0.056742,0.0071289,0.019161,-0.003027,0,0,0.048855,-0.015642,0,-0.0078701,0,0,0,0.056926,0.0069449,0.019161,-3.4785,0.027677,0.04513,3.5806e-06,0.18,0.74,0
0.0084481,-0.0021857,0.056858,0.0065883,0.019034,-0.0028621,0,0,0.049172,-0.016179,0,-0.0074415,0,0,0,0.057021,0.0064259,0.019034,-3.2482,0.027494,0.045617,3.6488e-06,0.19,0.74,0
0.0089414,-0.0022832,0.056958,0.006082,0.018912,-0.0026966,0,0,0.04946,-0.016679,0,-0.0070113,0,0,0,0.0571,0.0059395,0.018912,-3.0256,0.027317,0.046066,3.7106e-06,0.2,0.74,0
0.0094373,-0.0023778,0.057042,0.0056087,0.018795,-0.0025316,0,0,0.04972,-0.017142,0,-0.0065822,0,0,0,0.057166,0.0054844,0.018795,-2.8112,0.027148,0.046478,3.7665e-06,0.21,0.74,0
0.0099358,-0.0024693,0.057111,0.0051671,0.018683,-0.0023681,0,0,0.049955,-0.017571,0,-0.0061572,0,0,0,0.057218,0.0050593,0.018683,-2.605,0.026987,0.046857,3.8166e-06,0.22,0.74,0
0.010436,-0.0025577,0.057167,0.0047557,0.018577,-0.0022071,0,0,0.050167,-0.017967,0,-0.0057385,0,0,0,0.057259,0.0046629,0.018577,-2.4071,0.026833,0.047204,3.8616e-06,0.23,0.74,0
0.010939,-0.002643,0.05721,0.0043729,0.018475,-0.0020493,0,0,0.050356,-0.018333,0,-0.0053282,0,0,0,0.05729,0.0042935,0.018475,-2.2178,0.026686,0.04752,3.9016e-06,0.24,0.74,0
0.011444,-0.0027252,0.057244,0.0040172,0.018378,-0.0018954,0,0,0.050525,-0.018669,0,-0.004928,0,0,0,0.057311,0.0039498,0.018378,-2.0368,0.026546,0.047809,3.9371e-06,0.25,0.74,0
0.01195,-0.0028044,0.057267,0.003687,0.018286,-0.0017459,0,0,0.050675,-0.018979,0,-0.0045394,0,0,0,0.057324,0.0036302,0.018286,-1.8643,0.026413,0.048071,3.9684e-06,0.26,0.74,0
0.012457,-0.0028805,0.057282,0.0033808,0.018199,-0.0016013,0,0,0.050808,-0.019263,0,-0.0041635,0,0,0,0.057329,0.0033333,0.018199,-1.7002,0.026287,0.04831,3.996e-06,0.27,0.74,0
0.012966,-0.0029536,0.057289,0.0030971,0.018116,-0.001462,0,0,0.050925,-0.019524,0,-0.0038013,0,0,0,0.057328,0.0030577,0.018116,-1.5443,0.026167,0.048527,4.0201e-06,0.28,0.74,0
0.013476,-0.0030238,0.05729,0.0028343,0.018037,-0.0013283,0,0,0.051028,-0.019764,0,-0.0034535,0,0,0,0.057322,0.002802,0.018037,-1.3964,0.026054,0.048723,4.0411e-06,0.29,0.74,0
0.013986,-0.003091,0.057284,0.0025912,0.017963,-0.0012002,0,0,0.051118,-0.019983,0,-0.0031205,0,0,0,0.057311,0.0025649,0.017963,-1.2565,0.025946,0.0489,4.0593e-06,0.3,0.74,0
0.014498,-0.0031554,0.057274,0.0023662,0.017892,-0.001078,0,0,0.051197,-0.020184,0,-0.0028028,0,0,0,0.057295,0.0023451,0.017892,-1.1243,0.025844,0.049061,4.075e-06,0.31,0.74,0
0.01501,-0.003217,0.05726,0.0021583,0.017826,-0.00096169,0,0,0.051265,-0.020367,0,-0.0025004,0,0,0,0.057277,0.0021415,0.017826,-0.99958,0.025748,0.049205,4.0885e-06,0.32,0.74,0
0.015523,-0.003276,0.057242,0.001966,0.017763,-0.00085133,0,0,0.051324,-0.020536,0,-0.0022135,0,0,0,0.057256,0.0019529,0.017763,-0.88215,0.025657,0.049336,4.0999e-06,0.33,0.74,0
0.016037,-0.0033322,0.057222,0.0017883,0.017703,-0.00074686,0,0,0.051374,-0.020689,0,-0.0019418,0,0,0,0.057232,0.0017783,0.017703,-0.77176,0.025571,0.049453,4.1095e-06,0.34,0.74,0
0.016551,-0.003386,0.057199,0.0016242,0.017647,-0.00064822,0,0,0.051417,-0.02083,0,-0.0016854,0,0,0,0.057206,0.0016166,0.017647,-0.66818,0.02549,0.049559,4.1175e-06,0.35,0.74,0
0.017065,-0.0034372,0.057174,0.0014725,0.017594,-0.00055533,0,0,0.051454,-0.020958,0,-0.0014438,0,0,0,0.057179,0.001467,0.017594,-0.57115,0.025413,0.049653,4.1242e-06,0.36,0.74,0
0.01758,-0.0034861,0.057147,0.0013325,0.017544,-0.00046805,0,0,0.051484,-0.021075,0,-0.0012169,0,0,0,0.057151,0.0013285,0.017544,-0.48042,0.025341,0.049738,4.1296e-06,0.37,0.74,0
0.018095,-0.0035326,0.057119,0.0012031,0.017497,-0.00038624,0,0,0.051509,-0.021182,0,-0.0010042,0,0,0,0.057122,0.0012005,0.017497,-0.39574,0.025273,0.049815,4.1339e-06,0.38,0.74,0
0.01861,-0.0035769,0.057091,0.0010837,0.017452,-0.00030975,0,0,0.05153,-0.021279,0,-0.00080535,0,0,0,0.057093,0.0010819,0.017452,-0.31686,0.025209,0.049883,4.1372e-06,0.39,0.74,0
0.019125,-0.0036191,0.057062,0.00097332,0.017411,-0.0002384,0,0,0.051547,-0.021368,0,-0.00061985,0,0,0,0.057063,0.00097231,0.017411,-0.24353,0.025149,0.049944,4.1397e-06,0.4,0.74,0
0.019641,-0.0036592,0.057033,0.00087144,0.017371,-0.00017202,0,0,0.05156,-0.02145,0,-0.00044726,0,0,0,0.057034,0.00087091,0.017371,-0.17549,0.025092,0.049998,4.1415e-06,0.41,0.74,0
0.020157,-0.0036973,0.057004,0.00077736,0.017334,-0.00011042,0,0,0.05157,-0.021524,0,-0.00028709,0,0,0,0.057004,0.00077714,0.017334,-0.11252,0.025038,0.050046,4.1427e-06,0.42,0.74,0
0.020672,-0.0037335,0.056974,0.00069049,0.017299,-5.3401e-05,0,0,0.051577,-0.021592,0,-0.00013884,0,0,0,0.056975,0.00069043,0.017299,-0.05436,0.024988,0.050089,4.1432e-06,0.43,0.74,0
0.021188,-0.0037679,0.056946,0.00061027,0.017267,-7.7576e-07,0,0,0.051583,-0.021653,0,-2.017e-06,0,0,0,0.056946,0.00061027,0.017267,-0.00078899,0.024941,0.050127,4.1434e-06,0.44,0.74,0
0.021704,-0.0038005,0.056917,0.00053619,0.017236,4.765e-05,0,0,0.051585,-0.02171,0,0.00012389,0,0,0,0.056917,0.00053615,0.017236,0.048423,0.024896,0.050161,4.1431e-06,0.45,0.74,0
0.02222,-0.0038315,0.056889,0.0004678,0.017207,9.207e-05,0,0,0.051587,-0.021761,0,0.00023938,0,0,0,0.056889,0.00046765,0.017207,0.093497,0.024855,0.050191,4.1425e-06,0.46,0.74,0
0.022736,-0.0038608,0.056862,0.00040465,0.01718,0.00013268,0,0,0.051586,-0.021808,0,0.00034495,0,0,0,0.056862,0.00040434,0.01718,0.13464,0.024815,0.050217,4.1416e-06,0.47,0.74,0
0.023252,-0.0038886,0.056835,0.00034635,0.017154,0.00016965,0,0,0.051585,-0.02185,0,0.0004411,0,0,0,0.056835,0.00034584,0.017154,0.17207,0.024778,0.05024,4.1404e-06,0.48,0.74,0
0.023767,-0.0039149,0.056809,0.00029253,0.01713,0.00020318,0,0,0.051582,-0.021889,0,0.00052828,0,0,0,0.056809,0.0002918,0.01713,0.20598,0.024744,0.05026,4.139e-06,0.49,0.74,0
0.024283,-0.0039398,0.056783,0.00024286,0.017108,0.00023345,0,0,0.051578,-0.021924,0,0.00060698,0,0,0,0.056784,0.0002419,0.017108,0.23657,0.024711,0.050278,4.1375e-06,0.5,0.74,0
0.024799,-0.0039633,0.056759,0.00019702,0.017087,0.00026063,0,0,0.051574,-0.021957,0,0.00067765,0,0,0,0.05676,0.00019582,0.017087,0.26401,0.024681,0.050293,4.1358e-06,0.51,0.74,0
0.025315,-0.0039856,0.056735,0.00015472,0.017067,0.00028489,0,0,0.051569,-0.021986,0,0.00074071,0,0,0,0.056737,0.00015328,0.017067,0.28848,0.024652,0.050306,4.134e-06,0.52,0.74,0
0.02583,-0.0040066,0.056712,0.0001157,0.017048,0.00030639,0,0,0.051563,-0.022012,0,0.00079661,0,0,0,0.056714,0.00011404,0.017048,0.31016,0.024625,0.050317,4.1321e-06,0.53,0.74,0
0.026346,-0.0040265,0.05669,7.9715e-05,0.017031,0.00032528,0,0,0.051557,-0.022037,0,0.00084574,0,0,0,0.056692,7.7846e-05,0.017031,0.32921,0.0246,0.050327,4.1302e-06,0.54,0.74,0
0.026861,-0.0040453,0.056669,4.654e-05,0.017014,0.00034173,0,0,0.05155,-0.022058,0,0.0008885,0,0,0,0.056671,4.4478e-05,0.017014,0.34578,0.024577,0.050334,4.1282e-06,0.55,0.74,0
0.027377,-0.004063,0.056648,1.5966e-05,0.016999,0.00035587,0,0,0.051543,-0.022078,0,0.00092527,0,0,0,0.05665,1.373e-05,0.016999,0.36002,0.024554,0.050341,4.1261e-06,0.56,0.74,0
0.027892,-0.0040797,0.056628,-1.2199e-05,0.016985,0.00036785,0,0,0.051537,-0.022096,0,0.0009564,0,0,0,0.056631,-1.4588e-05,0.016985,0.37208,0.024534,0.050346,4.1241e-06,0.57,0.74,0
0.028408,-0.0040955,0.056609,-3.8133e-05,0.016971,0.00037779,0,0,0.051529,-0.022112,0,0.00098225,0,0,0,0.056612,-4.0652e-05,0.016971,0.38209,0.024514,0.05035,4.122e-06,0.58,0.74,0
0.028923,-0.0041103,0.056591,-6.2e-05,0.016959,0.00038582,0,0,0.051522,-0.022127,0,0.0010031,0,0,0,0.056594,-6.4627e-05,0.016959,0.39017,0.024496,0.050353,4.1199e-06,0.59,0.74,0
0.029438,-0.0041243,0.056574,-8.3951e-05,0.016947,0.00039207,0,0,0.051515,-0.02214,0,0.0010194,0,0,0,0.056577,-8.6664e-05,0.016947,0.39646,0.024479,0.050356,4.1178e-06,0.6,0.74,0
0.029953,-0.0041375,0.056557,-0.00010413,0.016936,0.00039664,0,0,0.051508,-0.022152,0,0.0010313,0,0,0,0.05656,-0.0001069,0.016936,0.40106,0.024463,0.050357,4.1158e-06,0.61,0.74,0
0.030468,-0.0041499,0.056541,-0.00012266,0.016926,0.00039965,0,0,0.0515,-0.022163,0,0.0010391,0,0,0,0.056544,-0.00012548,0.016926,0.40408,0.024448,0.050358,4.1138e-06,0.62,0.74,0
0.030983,-0.0041615,0.056526,-0.00013967,0.016916,0.00040121,0,0,0.051493,-0.022172,0,0.0010431,0,0,0,0.056529,-0.00014251,0.016916,0.40564,0.024434,0.050358,4.1118e-06,0.63,0.74,0
0.031498,-0.0041724,0.056511,-0.00015527,0.016907,0.0004014,0,0,0.051486,-0.022181,0,0.0010436,0,0,0,0.056514,-0.00015811,0.016907,0.40583,0.024421,0.050357,4.1098e-06,0.64,0.74,0
0.032013,-0.0041827,0.056498,-0.00016956,0.016898,0.00040032,0,0,0.051479,-0.022188,0,0.0010408,0,0,0,0.0565,-0.00017238,0.016898,0.40474,0.024409,0.050356,4.1079e-06,0.65,0.74,0
0.032528,-0.0041924,0.056484,-0.00018264,0.01689,0.00039807,0,0,0.051472,-0.022195,0,0.001035,0,0,0,0.056487,-0.00018543,0.01689,0.40246,0.024397,0.050355,4.106e-06,0.66,0.74,0
0.033042,-0.0042014,0.056472,-0.00019459,0.016883,0.00039471,0,0,0.051465,-0.022201,0,0.0010263,0,0,0,0.056474,-0.00019734,0.016883,0.39907,0.024387,0.050353,4.1041e-06,0.67,0.74,0
0.033557,-0.0042099,0.05646,-0.00020551,0.016876,0.00039034,0,0,0.051458,-0.022206,0,0.0010149,0,0,0,0.056462,-0.0002082,0.016876,0.39466,0.024377,0.050351,4.1023e-06,0.68,0.74,0
0.034072,-0.0042179,0.056448,-0.00021547,0.01687,0.00038502,0,0,0.051452,-0.022211,0,0.0010011,0,0,0,0.056451,-0.00021809,0.01687,0.38929,0.024368,0.050349,4.1006e-06,0.69,0.74,0
0.034586,-0.0042253,0.056437,-0.00022454,0.016864,0.00037883,0,0,0.051445,-0.022215,0,0.00098495,0,0,0,0.05644,-0.00022707,0.016864,0.38305,0.024359,0.050346,4.0989e-06,0.7,0.74,0
0.0351,-0.0042323,0.056427,-0.00023279,0.016858,0.00037182,0,0,0.051439,-0.022218,0,0.00096674,0,0,0,0.056429,-0.00023523,0.016858,0.37598,0.024351,0.050343,4.0972e-06,0.71,0.74,0
0.035615,-0.0042388,0.056417,-0.00024028,0.016853,0.00036407,0,0,0.051433,-0.022221,0,0.00094659,0,0,0,0.056419,-0.00024262,0.016853,0.36816,0.024343,0.05034,4.0956e-06,0.72,0.74,0
0.036129,-0.0042449,0.056407,-0.00024708,0.016848,0.00035563,0,0,0.051427,-0.022224,0,0.00092463,0,0,0,0.05641,-0.00024931,0.016848,0.35963,0.024336,0.050337,4.0941e-06,0.73,0.74,0
0.036643,-0.0042506,0.056398,-0.00025323,0.016844,0.00034655,0,0,0.051421,-0.022226,0,0.00090102,0,0,0,0.056401,-0.00025535,0.016844,0.35047,0.02433,0.050334,4.0926e-06,0.74,0.74,0
0.037158,-0.0042559,0.05639,-0.00025878,0.016839,0.00033688,0,0,0.051416,-0.022228,0,0.00087588,0,0,0,0.056392,-0.00026079,0.016839,0.34071,0.024324,0.050331,4.0911e-06,0.75,0.74,0
0.037672,-0.0042608,0.056382,-0.0002638,0.016835,0.00032667,0,0,0.051411,-0.022229,0,0.00084933,0,0,0,0.056384,-0.00026568,0.016835,0.3304,0.024318,0.050327,4.0897e-06,0.76,0.74,0
0.038186,-0.0042654,0.056375,-0.00026831,0.016832,0.00031596,0,0,0.051405,-0.02223,0,0.0008215,0,0,0,0.056376,-0.00027007,0.016832,0.31959,0.024313,0.050324,4.0884e-06,0.77,0.74,0
0.0387,-0.0042697,0.056367,-0.00027236,0.016828,0.0003048,0,0,0.051401,-0.022231,0,0.00079249,0,0,0,0.056369,-0.000274,0.016828,0.30832,0.024308,0.050321,4.0871e-06,0.78,0.74,0
0.039214,-0.0042737,0.056361,-0.00027599,0.016825,0.00029323,0,0,0.051396,-0.022232,0,0.00076239,0,0,0,0.056362,-0.0002775,0.016825,0.29663,0.024303,0.050318,4.0859e-06,0.79,0.74,0
0.039728,-0.0042773,0.056354,-0.00027923,0.016823,0.00028127,0,0,0.051391,-0.022232,0,0.0007313,0,0,0,0.056356,-0.00028063,0.016823,0.28455,0.024299,0.050314,4.0847e-06,0.8,0.74,0
0.040242,-0.0042807,0.056348,-0.00028212,0.01682,0.00026897,0,0,0.051387,-0.022232,0,0.00069931,0,0,0,0.056349,-0.0002834,0.01682,0.27212,0.024295,0.050311,4.0836e-06,0.81,0.74,0
0.040756,-0.0042839,0.056343,-0.00028469,0.016817,0.00025635,0,0,0.051383,-0.022233,0,0.0006665,0,0,0,0.056344,-0.00028585,0.016817,0.25937,0.024292,0.050308,4.0825e-06,0.82,0.74,0
0.041269,-0.0042868,0.056337,-0.00028697,0.016815,0.00024344,0,0,0.051379,-0.022233,0,0.00063294,0,0,0,0.056338,-0.00028802,0.016815,0.24632,0.024289,0.050305,4.0815e-06,0.83,0.74,0
0.041783,-0.0042895,0.056332,-0.00028899,0.016813,0.00023027,0,0,0.051375,-0.022233,0,0.00059871,0,0,0,0.056333,-0.00028993,0.016813,0.23301,0.024286,0.050302,4.0806e-06,0.84,0.74,0
0.042297,-0.0042919,0.056328,-0.00029077,0.016811,0.00021687,0,0,0.051372,-0.022232,0,0.00056386,0,0,0,0.056329,-0.0002916,0.016811,0.21946,0.024283,0.050299,4.0797e-06,0.85,0.74,0
0.042811,-0.0042942,0.056324,-0.00029233,0.016809,0.00020325,0,0,0.051368,-0.022232,0,0.00052846,0,0,0,0.056324,-0.00029306,0.016809,0.20569,0.02428,0.050296,4.0789e-06,0.86,0.74,0
0.043324,-0.0042962,0.05632,-0.00029369,0.016808,0.00018945,0,0,0.051366,-0.022232,0,0.00049256,0,0,0,0.05632,-0.00029433,0.016808,0.19173,0.024278,0.050294,4.0781e-06,0.87,0.74,0
0.043838,-0.0042981,0.056316,-0.00029488,0.016806,0.00017547,0,0,0.051363,-0.022232,0,0.00045621,0,0,0,0.056317,-0.00029542,0.016806,0.17759,0.024276,0.050292,4.0774e-06,0.88,0.74,0
0.044351,-0.0042998,0.056313,-0.00029591,0.016805,0.00016133,0,0,0.05136,-0.022231,0,0.00041947,0,0,0,0.056313,-0.00029637,0.016805,0.16329,0.024274,0.050289,4.0767e-06,0.89,0.74,0
0.044865,-0.0043013,0.05631,-0.0002968,0.016804,0.00014707,0,0,0.051358,-0.022231,0,0.00038237,0,0,0,0.05631,-0.00029718,0.016804,0.14886,0.024272,0.050287,4.0761e-06,0.9,0.74,0
0.045379,-0.0043026,0.056307,-0.00029756,0.016803,0.00013268,0,0,0.051356,-0.022231,0,0.00034496,0,0,0,0.056308,-0.00029787,0.016803,0.1343,0.024271,0.050285,4.0756e-06,0.91,0.74,0
0.045892,-0.0043038,0.056305,-0.00029821,0.016802,0.00011819,0,0,0.051354,-0.02223,0,0.00030728,0,0,0,0.056305,-0.00029846,0.016802,0.11963,0.024269,0.050284,4.0751e-06,0.92,0.74,0
0.046406,-0.0043048,0.056303,-0.00029875,0.016801,0.0001036,0,0,0.051352,-0.02223,0,0.00026937,0,0,0,0.056303,-0.00029894,0.016801,0.10487,0.024268,0.050282,4.0747e-06,0.93,0.74,0
0.046919,-0.0043057,0.056301,-0.0002992,0.0168,8.8941e-05,0,0,0.051351,-0.02223,0,0.00023125,0,0,0,0.056301,-0.00029934,0.0168,0.090034,0.024267,0.050281,4.0743e-06,0.94,0.74,0
0.047433,-0.0043065,0.056299,-0.00029957,0.0168,7.4215e-05,0,0,0.051349,-0.022229,0,0.00019296,0,0,0,0.056299,-0.00029967,0.0168,0.075128,0.024267,0.050279,4.074e-06,0.95,0.74,0
0.047946,-0.0043071,0.056298,-0.00029986,0.016799,5.9435e-05,0,0,0.051348,-0.022229,0,0.00015453,0,0,0,0.056298,-0.00029992,0.016799,0.060167,0.024266,0.050279,4.0737e-06,0.96,0.74,0
0.04846,-0.0043075,0.056297,-0.00030008,0.016799,4.4612e-05,0,0,0.051347,-0.022229,0,0.00011599,0,0,0,0.056297,-0.00030012,0.016799,0.045163,0.024265,0.050278,4.0735e-06,0.97,0.74,0
0.048973,-0.0043079,0.056296,-0.00030023,0.016799,2.9759e-05,0,0,0.051347,-0.022229,0,7.7373e-05,0,0,0,0.056296,-0.00030025,0.016799,0.030126,0.024265,0.050277,4.0734e-06,0.98,0.74,0
0.049487,-0.0043081,0.056296,-0.00030033,0.016799,1.4884e-05,0,0,0.051347,-0.022229,0,3.87e-05,0,0,0,0.056296,-0.00030033,0.016799,0.015069,0.024265,0.050277,4.0733e-06,0.99,0.74,0
0.05,-0.0043081,0.056296,-0.00030036,0.016799,-2.5282e-06,0,0,0.051346,-0.022229,0,-6.5732e-06,0,0,0,0.056296,-0.00030036,0.016799,-0.0025594,0.024265,0.050277,4.0733e-06,1,0.74,0
0,0,0.052082,0.022321,0.022321,-0.0048573,0,0,0.038689,-5.421e-20,0,-0.012629,0,0,0,0.052854,0.021548,0.022321,-9.0389,0.032241,0.030927,1.5161e-06,0,0.75,0
0.00038689,-0.00012629,0.051983,0.021141,0.021937,-0.0048578,0,0,0.039059,-0.0010353,0,-0.01263,0,0,0,0.05273,0.020394,0.021937,-8.7426,0.031687,0.031593,1.6065e-06,0.01,0.75,0
0.00078119,-0.00025408,0.052378,0.020164,0.021763,-0.0048784,0,0,0.0398,-0.0020779,0,-0.012684,0,0,0,0.053101,0.019442,0.021763,-8.4252,0.031435,0.032561,1.7426e-06,0.02,0.75,0
0.0011829,-0.0003831,0.052771,0.019185,0.021587,-0.0048842,0,0,0.04054,-0.0031228,0,-0.012699,0,0,0,0.053467,0.018489,0.021587,-8.1084,0.031181,0.033537,1.8816e-06,0.03,0.75,0
0.001592,-0.00051306,0.053159,0.018206,0.021409,-0.0048738,0,0,0.041274,-0.0041645,0,-0.012672,0,0,0,0.053825,0.017539,0.021409,-7.7913,0.030925,0.034514,2.0224e-06,0.04,0.75,0
0.0020084,-0.00064364,0.053538,0.017233,0.021231,-0.004846,0,0,0.041998,-0.0051972,0,-0.0126,0,0,0,0.054173,0.016598,0.021231,-7.4737,0.030668,0.035486,2.1638e-06,0.05,0.75,0
0.0024319,-0.00077448,0.053906,0.016272,0.021053,-0.0048003,0,0,0.042708,-0.0062153,0,-0.012481,0,0,0,0.054509,0.01567,0.021053,-7.1557,0.030411,0.036446,2.3046e-06,0.06,0.75,0
0.0028625,-0.00090523,0.05426,0.015328,0.020876,-0.0047365,0,0,0.043399,-0.0072132,0,-0.012315,0,0,0,0.054828,0.01476,0.020876,-6.8378,0.030155,0.037387,2.4436e-06,0.07,0.75,0
0.0032999,-0.0010355,0.054598,0.014404,0.020701,-0.004655,0,0,0.044067,-0.0081858,0,-0.012103,0,0,0,0.05513,0.013872,0.020701,-6.5206,0.029901,0.038303,2.5798e-06,0.08,0.75,0
0.0037439,-0.001165,0.054918,0.013505,0.020527,-0.0045565,0,0,0.044709,-0.0091286,0,-0.011847,0,0,0,0.055414,0.01301,0.020527,-6.205,0.02965,0.03919,2.7119e-06,0.09,0.75,0
0.0041941,-0.0012933,0.055218,0.012635,0.020356,-0.0044419,0,0,0.045321,-0.010037,0,-0.011549,0,0,0,0.055677,0.012176,0.020356,-5.8921,0.029403,0.040042,2.8392e-06,0.1,0.75,0
0.0046503,-0.0014201,0.055497,0.011796,0.020188,-0.0043129,0,0,0.045902,-0.010909,0,-0.011213,0,0,0,0.055919,0.011375,0.020188,-5.5828,0.02916,0.040856,2.9607e-06,0.11,0.75,0
0.0051121,-0.0015451,0.055754,0.010992,0.020024,-0.0041708,0,0,0.046449,-0.011741,0,-0.010844,0,0,0,0.056139,0.010607,0.020024,-5.2782,0.028923,0.04163,3.076e-06,0.12,0.75,0
0.0055793,-0.0016679,0.055988,0.010224,0.019864,-0.0040176,0,0,0.046962,-0.012531,0,-0.010446,0,0,0,0.056338,0.0098745,0.019864,-4.9793,0.028692,0.042362,3.1845e-06,0.13,0.75,0
0.0060514,-0.0017884,0.0562,0.0094942,0.019708,-0.0038551,0,0,0.047439,-0.013278,0,-0.010023,0,0,0,0.056516,0.0091781,0.019708,-4.6869,0.028467,0.04305,3.2859e-06,0.14,0.75,0
0.0065281,-0.0019063,0.05639,0.0088021,0.019557,-0.003685,0,0,0.047882,-0.013982,0,-0.009581,0,0,0,0.056673,0.0085184,0.019557,-4.4018,0.02825,0.043694,3.38e-06,0.15,0.75,0
0.007009,-0.0020214,0.056557,0.0081484,0.019412,-0.0035093,0,0,0.048289,-0.014642,0,-0.0091241,0,0,0,0.05681,0.0078954,0.019412,-4.1248,0.028039,0.044294,3.4669e-06,0.16,0.75,0
0.0074938,-0.0021336,0.056704,0.007533,0.019271,-0.0033296,0,0,0.048663,-0.01526,0,-0.008657,0,0,0,0.056928,0.0073085,0.019271,-3.8563,0.027836,0.044852,3.5465e-06,0.17,0.75,0
0.0079823,-0.0022426,0.056831,0.0069551,0.019136,-0.0031477,0,0,0.049004,-0.015835,0,-0.0081841,0,0,0,0.057029,0.0067573,0.019136,-3.597,0.027641,0.045367,3.6191e-06,0.18,0.75,0
0.0084739,-0.0023484,0.056939,0.006414,0.019006,-0.002965,0,0,0.049313,-0.01637,0,-0.0077091,0,0,0,0.057113,0.0062406,0.019006,-3.347,0.027453,0.045843,3.6849e-06,0.19,0.75,0
0.0089685,-0.0024509,0.05703,0.0059083,0.018882,-0.002783,0,0,0.049593,-0.016865,0,-0.0072357,0,0,0,0.057181,0.0057573,0.018882,-3.1068,0.027273,0.046279,3.7443e-06,0.2,0.75,0
0.0094658,-0.00255,0.057105,0.0054368,0.018763,-0.0026027,0,0,0.049845,-0.017323,0,-0.0067671,0,0,0,0.057236,0.005306,0.018763,-2.8765,0.027102,0.04668,3.7975e-06,0.21,0.75,0
0.0099654,-0.0026458,0.057165,0.0049979,0.018649,-0.0024253,0,0,0.050071,-0.017746,0,-0.0063058,0,0,0,0.057278,0.0048854,0.018649,-2.6561,0.026937,0.047046,3.845e-06,0.22,0.75,0
0.010467,-0.0027382,0.057212,0.00459,0.018541,-0.0022516,0,0,0.050273,-0.018136,0,-0.0058542,0,0,0,0.057308,0.0044938,0.018541,-2.4457,0.026781,0.047379,3.8873e-06,0.23,0.75,0
0.010971,-0.0028271,0.057247,0.0042115,0.018437,-0.0020825,0,0,0.050452,-0.018494,0,-0.0054144,0,0,0,0.057329,0.0041298,0.018437,-2.2451,0.026632,0.047683,3.9246e-06,0.24,0.75,0
0.011476,-0.0029127,0.057271,0.0038606,0.01834,-0.0019184,0,0,0.050611,-0.018823,0,-0.0049879,0,0,0,0.05734,0.0037918,0.01834,-2.0545,0.02649,0.047959,3.9574e-06,0.25,0.75,0
0.011983,-0.0029949,0.057286,0.0035357,0.018246,-0.00176,0,0,0.050751,-0.019124,0,-0.004576,0,0,0,0.057343,0.0034782,0.018246,-1.8734,0.026356,0.048209,3.9862e-06,0.26,0.75,0
0.012491,-0.0030738,0.057292,0.0032352,0.018158,-0.0016075,0,0,0.050874,-0.0194,0,-0.0041796,0,0,0,0.05734,0.0031874,0.018158,-1.7019,0.026228,0.048435,4.0112e-06,0.27,0.75,0
0.013001,-0.0031495,0.057291,0.0029574,0.018075,-0.0014614,0,0,0.050982,-0.019652,0,-0.0037996,0,0,0,0.05733,0.0029181,0.018075,-1.5396,0.026108,0.048639,4.0328e-06,0.28,0.75,0
0.013511,-0.003222,0.057284,0.0027008,0.017996,-0.0013217,0,0,0.051075,-0.019883,0,-0.0034364,0,0,0,0.057316,0.0026688,0.017996,-1.3863,0.025993,0.048823,4.0515e-06,0.29,0.75,0
0.014022,-0.0032914,0.057272,0.0024638,0.017921,-0.0011886,0,0,0.051156,-0.020094,0,-0.0030902,0,0,0,0.057297,0.0024381,0.017921,-1.2417,0.025885,0.048989,4.0674e-06,0.3,0.75,0
0.014534,-0.0033578,0.057255,0.0022452,0.01785,-0.001062,0,0,0.051226,-0.020286,0,-0.0027613,0,0,0,0.057275,0.0022247,0.01785,-1.1056,0.025783,0.049138,4.0809e-06,0.31,0.75,0
0.015047,-0.0034212,0.057234,0.0020434,0.017783,-0.00094215,0,0,0.051286,-0.020462,0,-0.0024496,0,0,0,0.05725,0.0020274,0.017783,-0.97771,0.025687,0.049272,4.0923e-06,0.32,0.75,0
0.01556,-0.0034817,0.05721,0.0018574,0.01772,-0.00082881,0,0,0.051337,-0.020622,0,-0.0021549,0,0,0,0.057222,0.001845,0.01772,-0.85765,0.025596,0.049392,4.1018e-06,0.33,0.75,0
0.016073,-0.0035395,0.057183,0.0016859,0.017661,-0.00072194,0,0,0.05138,-0.020767,0,-0.001877,0,0,0,0.057193,0.0016765,0.017661,-0.74516,0.02551,0.049499,4.1096e-06,0.34,0.75,0
0.016587,-0.0035946,0.057155,0.0015278,0.017605,-0.0006214,0,0,0.051415,-0.0209,0,-0.0016156,0,0,0,0.057162,0.0015208,0.017605,-0.63993,0.025429,0.049596,4.1159e-06,0.35,0.75,0
0.017102,-0.0036471,0.057125,0.001382,0.017552,-0.00052704,0,0,0.051445,-0.021021,0,-0.0013703,0,0,0,0.05713,0.001377,0.017552,-0.54165,0.025353,0.049681,4.121e-06,0.36,0.75,0
0.017616,-0.0036971,0.057094,0.0012477,0.017503,-0.00043868,0,0,0.051469,-0.021131,0,-0.0011406,0,0,0,0.057098,0.0012442,0.017503,-0.45003,0.025281,0.049758,4.1249e-06,0.37,0.75,0
0.018131,-0.0037447,0.057063,0.0011239,0.017456,-0.00035613,0,0,0.051489,-0.021232,0,-0.00092595,0,0,0,0.057065,0.0011216,0.017456,-0.36475,0.025214,0.049826,4.1278e-06,0.38,0.75,0
0.018646,-0.00379,0.057031,0.0010098,0.017412,-0.0002792,0,0,0.051504,-0.021323,0,-0.00072591,0,0,0,0.057032,0.0010084,0.017412,-0.28554,0.025151,0.049887,4.1299e-06,0.39,0.75,0
0.019161,-0.003833,0.056998,0.0009046,0.017371,-0.00020766,0,0,0.051516,-0.021406,0,-0.0005399,0,0,0,0.056999,0.00090383,0.017371,-0.2121,0.025091,0.049941,4.1313e-06,0.4,0.75,0
0.019676,-0.0038739,0.056966,0.00080769,0.017332,-0.00014129,0,0,0.051524,-0.021482,0,-0.00036736,0,0,0,0.056967,0.00080733,0.017332,-0.14415,0.025035,0.049989,4.132e-06,0.41,0.75,0
0.020192,-0.0039127,0.056934,0.00071837,0.017296,-7.9892e-05,0,0,0.05153,-0.021551,0,-0.00020772,0,0,0,0.056934,0.00071826,0.017296,-0.081427,0.024983,0.050031,4.1322e-06,0.42,0.75,0
0.020707,-0.0039496,0.056903,0.00063605,0.017262,-2.3231e-05,0,0,0.051533,-0.021613,0,-6.0401e-05,0,0,0,0.056903,0.00063604,0.017262,-0.023656,0.024934,0.050069,4.1319e-06,0.43,0.75,0
0.021222,-0.0039845,0.056872,0.00056017,0.01723,2.891e-05,0,0,0.051535,-0.02167,0,7.5165e-05,0,0,0,0.056872,0.00056016,0.01723,0.029415,0.024887,0.050102,4.1313e-06,0.44,0.75,0
0.021738,-0.0040177,0.056842,0.00049025,0.017199,7.6746e-05,0,0,0.051535,-0.021722,0,0.00019954,0,0,0,0.056842,0.00049014,0.017199,0.078032,0.024844,0.050131,4.1303e-06,0.45,0.75,0
0.022253,-0.0040491,0.056812,0.00042579,0.017171,0.00012049,0,0,0.051533,-0.021769,0,0.00031328,0,0,0,0.056812,0.00042553,0.017171,0.12243,0.024803,0.050156,4.129e-06,0.46,0.75,0
0.022768,-0.0040789,0.056783,0.00036639,0.017145,0.00016035,0,0,0.05153,-0.021812,0,0.00041692,0,0,0,0.056784,0.00036593,0.017145,0.16285,0.024765,0.050179,4.1275e-06,0.47,0.75,0
0.023284,-0.0041071,0.056756,0.00031164,0.01712,0.00019654,0,0,0.051526,-0.021851,0,0.000511,0,0,0,0.056756,0.00031096,0.01712,0.1995,0.024729,0.050198,4.1259e-06,0.48,0.75,0
0.023799,-0.0041338,0.056729,0.00026119,0.017097,0.00022924,0,0,0.051521,-0.021886,0,0.00059602,0,0,0,0.05673,0.00026025,0.017097,0.23259,0.024696,0.050215,4.1241e-06,0.49,0.75,0
0.024314,-0.004159,0.056703,0.00021469,0.017075,0.00025865,0,0,0.051516,-0.021919,0,0.00067248,0,0,0,0.056704,0.00021351,0.017075,0.26234,0.024664,0.050229,4.1222e-06,0.5,0.75,0
0.024829,-0.0041829,0.056678,0.00017186,0.017055,0.00028495,0,0,0.05151,-0.021948,0,0.00074086,0,0,0,0.056679,0.00017042,0.017055,0.28892,0.024635,0.050242,4.1201e-06,0.51,0.75,0
0.025344,-0.0042054,0.056654,0.00013239,0.017036,0.00030832,0,0,0.051503,-0.021975,0,0.00080162,0,0,0,0.056655,0.00013071,0.017036,0.31253,0.024607,0.050252,4.1181e-06,0.52,0.75,0
0.025859,-0.0042267,0.056631,9.6048e-05,0.017018,0.00032892,0,0,0.051497,-0.021999,0,0.00085521,0,0,0,0.056633,9.4134e-05,0.017018,0.33334,0.024582,0.050261,4.116e-06,0.53,0.75,0
0.026374,-0.0042468,0.056609,6.2579e-05,0.017001,0.00034694,0,0,0.05149,-0.02202,0,0.00090204,0,0,0,0.056611,6.0451e-05,0.017001,0.35152,0.024557,0.050269,4.1138e-06,0.54,0.75,0
0.026889,-0.0042658,0.056587,3.177e-05,0.016986,0.00036251,0,0,0.051482,-0.02204,0,0.00094252,0,0,0,0.05659,2.9447e-05,0.016986,0.36723,0.024535,0.050275,4.1117e-06,0.55,0.75,0
0.027404,-0.0042837,0.056567,3.4189e-06,0.016971,0.00037579,0,0,0.051475,-0.022058,0,0.00097704,0,0,0,0.05657,9.2249e-07,0.016971,0.38063,0.024514,0.05028,4.1096e-06,0.56,0.75,0
0.027918,-0.0043006,0.056548,-2.2661e-05,0.016958,0.00038691,0,0,0.051467,-0.022074,0,0.001006,0,0,0,0.056551,-2.5307e-05,0.016958,0.39185,0.024494,0.050284,4.1074e-06,0.57,0.75,0
0.028433,-0.0043165,0.05653,-4.6639e-05,0.016945,0.00039603,0,0,0.05146,-0.022089,0,0.0010297,0,0,0,0.056532,-4.9411e-05,0.016945,0.40104,0.024476,0.050286,4.1053e-06,0.58,0.75,0
0.028948,-0.0043315,0.056512,-6.8675e-05,0.016933,0.00040325,0,0,0.051453,-0.022102,0,0.0010485,0,0,0,0.056515,-7.1549e-05,0.016933,0.40832,0.024459,0.050289,4.1032e-06,0.59,0.75,0
0.029462,-0.0043456,0.056495,-8.8915e-05,0.016922,0.00040872,0,0,0.051445,-0.022114,0,0.0010627,0,0,0,0.056498,-9.1867e-05,0.016922,0.41383,0.024443,0.05029,4.1012e-06,0.6,0.75,0
0.029977,-0.0043589,0.056479,-0.00010749,0.016911,0.00041253,0,0,0.051438,-0.022125,0,0.0010726,0,0,0,0.056482,-0.0001105,0.016911,0.41767,0.024428,0.050291,4.0992e-06,0.61,0.75,0
0.030491,-0.0043713,0.056464,-0.00012453,0.016902,0.00041481,0,0,0.051431,-0.022134,0,0.0010785,0,0,0,0.056467,-0.00012757,0.016902,0.41996,0.024414,0.050291,4.0972e-06,0.62,0.75,0
0.031005,-0.0043831,0.05645,-0.00014015,0.016893,0.00041565,0,0,0.051424,-0.022143,0,0.0010807,0,0,0,0.056453,-0.0001432,0.016893,0.4208,0.024401,0.050291,4.0953e-06,0.63,0.75,0
0.031519,-0.0043941,0.056436,-0.00015444,0.016885,0.00041515,0,0,0.051417,-0.022151,0,0.0010794,0,0,0,0.056439,-0.00015749,0.016885,0.4203,0.024389,0.05029,4.0934e-06,0.64,0.75,0
0.032033,-0.0044044,0.056423,-0.00016753,0.016877,0.00041342,0,0,0.05141,-0.022158,0,0.0010749,0,0,0,0.056426,-0.00017055,0.016877,0.41854,0.024377,0.050289,4.0916e-06,0.65,0.75,0
0.032548,-0.0044142,0.056411,-0.00017948,0.016869,0.00041052,0,0,0.051404,-0.022163,0,0.0010674,0,0,0,0.056414,-0.00018246,0.016869,0.41561,0.024367,0.050287,4.0898e-06,0.66,0.75,0
0.033062,-0.0044233,0.056399,-0.0001904,0.016863,0.00040656,0,0,0.051397,-0.022169,0,0.001057,0,0,0,0.056402,-0.00019332,0.016863,0.4116,0.024357,0.050286,4.0881e-06,0.67,0.75,0
0.033576,-0.0044318,0.056388,-0.00020035,0.016856,0.0004016,0,0,0.051391,-0.022174,0,0.0010441,0,0,0,0.056391,-0.0002032,0.016856,0.40659,0.024348,0.050284,4.0864e-06,0.68,0.75,0
0.034089,-0.0044398,0.056377,-0.00020941,0.01685,0.00039571,0,0,0.051385,-0.022178,0,0.0010288,0,0,0,0.05638,-0.00021218,0.01685,0.40064,0.02434,0.050281,4.0848e-06,0.69,0.75,0
0.034603,-0.0044473,0.056368,-0.00021765,0.016845,0.00038898,0,0,0.051379,-0.022181,0,0.0010113,0,0,0,0.05637,-0.00022033,0.016845,0.39383,0.024332,0.050279,4.0833e-06,0.7,0.75,0
0.035117,-0.0044543,0.056358,-0.00022514,0.01684,0.00038145,0,0,0.051374,-0.022185,0,0.00099177,0,0,0,0.056361,-0.00022771,0.01684,0.38623,0.024324,0.050277,4.0818e-06,0.71,0.75,0
0.035631,-0.0044608,0.056349,-0.00023192,0.016835,0.00037319,0,0,0.051368,-0.022187,0,0.00097031,0,0,0,0.056352,-0.00023439,0.016835,0.37789,0.024317,0.050274,4.0803e-06,0.72,0.75,0
0.036144,-0.004467,0.056341,-0.00023807,0.016831,0.00036427,0,0,0.051363,-0.02219,0,0.0009471,0,0,0,0.056343,-0.00024041,0.016831,0.36886,0.024311,0.050271,4.0789e-06,0.73,0.75,0
0.036658,-0.0044727,0.056333,-0.00024361,0.016827,0.00035472,0,0,0.051358,-0.022191,0,0.00092228,0,0,0,0.056335,-0.00024584,0.016827,0.35921,0.024305,0.050268,4.0776e-06,0.74,0.75,0
0.037172,-0.004478,0.056326,-0.00024862,0.016823,0.00034461,0,0,0.051353,-0.022193,0,0.00089598,0,0,0,0.056328,-0.00025072,0.016823,0.34899,0.0243,0.050265,4.0763e-06,0.75,0.75,0
0.037685,-0.0044829,0.056318,-0.00025312,0.01682,0.00033397,0,0,0.051348,-0.022194,0,0.00086832,0,0,0,0.05632,-0.00025509,0.01682,0.33823,0.024295,0.050263,4.0751e-06,0.76,0.75,0
0.038199,-0.0044875,0.056312,-0.00025717,0.016816,0.00032285,0,0,0.051344,-0.022196,0,0.00083941,0,0,0,0.056314,-0.00025901,0.016816,0.32699,0.02429,0.05026,4.074e-06,0.77,0.75,0
0.038712,-0.0044918,0.056306,-0.00026079,0.016813,0.00031129,0,0,0.05134,-0.022197,0,0.00080936,0,0,0,0.056307,-0.0002625,0.016813,0.31529,0.024286,0.050257,4.0728e-06,0.78,0.75,0
0.039225,-0.0044958,0.0563,-0.00026403,0.016811,0.00029934,0,0,0.051336,-0.022197,0,0.00077827,0,0,0,0.056301,-0.00026561,0.016811,0.3032,0.024282,0.050254,4.0718e-06,0.79,0.75,0
0.039739,-0.0044995,0.056294,-0.00026692,0.016808,0.00028701,0,0,0.051332,-0.022198,0,0.00074622,0,0,0,0.056296,-0.00026837,0.016808,0.29073,0.024279,0.050251,4.0708e-06,0.8,0.75,0
0.040252,-0.0045029,0.056289,-0.00026949,0.016806,0.00027435,0,0,0.051328,-0.022198,0,0.0007133,0,0,0,0.05629,-0.00027082,0.016806,0.27791,0.024275,0.050248,4.0698e-06,0.81,0.75,0
0.040765,-0.0045061,0.056284,-0.00027176,0.016804,0.00026138,0,0,0.051325,-0.022198,0,0.00067959,0,0,0,0.056285,-0.00027297,0.016804,0.26479,0.024272,0.050246,4.0689e-06,0.82,0.75,0
0.041279,-0.004509,0.05628,-0.00027378,0.016802,0.00024814,0,0,0.051321,-0.022198,0,0.00064516,0,0,0,0.056281,-0.00027486,0.016802,0.25139,0.024269,0.050243,4.0681e-06,0.83,0.75,0
0.041792,-0.0045116,0.056276,-0.00027555,0.0168,0.00023465,0,0,0.051318,-0.022198,0,0.00061008,0,0,0,0.056277,-0.00027652,0.0168,0.23773,0.024267,0.050241,4.0673e-06,0.84,0.75,0
0.042305,-0.0045141,0.056272,-0.00027711,0.016798,0.00022093,0,0,0.051315,-0.022198,0,0.00057441,0,0,0,0.056273,-0.00027797,0.016798,0.22384,0.024264,0.050238,4.0665e-06,0.85,0.75,0
0.042818,-0.0045163,0.056268,-0.00027847,0.016797,0.000207,0,0,0.051313,-0.022198,0,0.00053821,0,0,0,0.056269,-0.00027923,0.016797,0.20974,0.024262,0.050236,4.0658e-06,0.86,0.75,0
0.043331,-0.0045184,0.056265,-0.00027966,0.016796,0.0001929,0,0,0.05131,-0.022198,0,0.00050153,0,0,0,0.056266,-0.00028032,0.016796,0.19546,0.02426,0.050234,4.0652e-06,0.87,0.75,0
0.043844,-0.0045202,0.056262,-0.00028069,0.016794,0.00017863,0,0,0.051308,-0.022197,0,0.00046443,0,0,0,0.056262,-0.00028125,0.016794,0.181,0.024258,0.050232,4.0645e-06,0.88,0.75,0
0.044357,-0.0045219,0.056259,-0.00028158,0.016793,0.00016421,0,0,0.051305,-0.022197,0,0.00042694,0,0,0,0.056259,-0.00028206,0.016793,0.1664,0.024257,0.05023,4.064e-06,0.89,0.75,0
0.04487,-0.0045234,0.056257,-0.00028234,0.016792,0.00014966,0,0,0.051304,-0.022197,0,0.00038912,0,0,0,0.056257,-0.00028274,0.016792,0.15166,0.024255,0.050228,4.0635e-06,0.9,0.75,0
0.045383,-0.0045248,0.056254,-0.000283,0.016791,0.000135,0,0,0.051302,-0.022197,0,0.000351,0,0,0,0.056255,-0.00028332,0.016791,0.13681,0.024254,0.050227,4.063e-06,0.91,0.75,0
0.045896,-0.0045259,0.056252,-0.00028355,0.016791,0.00012024,0,0,0.0513,-0.022196,0,0.00031261,0,0,0,0.056253,-0.0002838,0.016791,0.12185,0.024253,0.050225,4.0626e-06,0.92,0.75,0
0.046409,-0.004527,0.056251,-0.00028401,0.01679,0.00010539,0,0,0.051299,-0.022196,0,0.00027401,0,0,0,0.056251,-0.00028421,0.01679,0.10681,0.024252,0.050224,4.0623e-06,0.93,0.75,0
0.046922,-0.0045279,0.056249,-0.00028439,0.016789,9.0465e-05,0,0,0.051298,-0.022196,0,0.00023521,0,0,0,0.056249,-0.00028454,0.016789,0.091684,0.024251,0.050223,4.062e-06,0.94,0.75,0
0.047435,-0.0045286,0.056248,-0.0002847,0.016789,7.548e-05,0,0,0.051297,-0.022196,0,0.00019625,0,0,0,0.056248,-0.0002848,0.016789,0.076499,0.024251,0.050222,4.0617e-06,0.95,0.75,0
0.047948,-0.0045292,0.056247,-0.00028495,0.016789,6.0443e-05,0,0,0.051296,-0.022195,0,0.00015715,0,0,0,0.056247,-0.00028501,0.016789,0.06126,0.02425,0.050221,4.0615e-06,0.96,0.75,0
0.048461,-0.0045297,0.056246,-0.00028513,0.016788,4.5367e-05,0,0,0.051295,-0.022195,0,0.00011796,0,0,0,0.056246,-0.00028517,0.016788,0.045981,0.02425,0.050221,4.0613e-06,0.97,0.75,0
0.048974,-0.00453,0.056245,-0.00028526,0.016788,3.0261e-05,0,0,0.051295,-0.022195,0,7.8679e-05,0,0,0,0.056245,-0.00028527,0.016788,0.030671,0.024249,0.05022,4.0612e-06,0.98,0.75,0
0.049487,-0.0045302,0.056245,-0.00028533,0.016788,1.5135e-05,0,0,0.051294,-0.022195,0,3.9352e-05,0,0,0,0.056245,-0.00028534,0.016788,0.01534,0.024249,0.05022,4.0611e-06,0.99,0.75,0
0.05,-0.0045303,0.056245,-0.00028536,0.016788,-2.5189e-06,0,0,0.051294,-0.022195,0,-6.5491e-06,0,0,0,0.056245,-0.00028536,0.016788,-0.002553,0.024249,0.05022,4.0611e-06,1,0.75,0
0,0,0.052185,0.022365,0.022365,-0.005258,0,0,0.038766,1.6263e-19,0,-0.013671,0,0,0,0.053085,0.021465,0.022365,-9.7126,0.032305,0.031179,1.5524e-06,0,0.76,0
0.00038766,-0.00013671,0.052084,0.021169,0.021976,-0.0052576,0,0,0.039141,-0.0010494,0,-0.01367,0,0,0,0.052954,0.020299,0.021976,-9.3923,0.031743,0.03185,1.6439e-06,0.01,0.76,0
0.00078282,-0.00027499,0.052485,0.020177,0.021799,-0.0052772,0,0,0.039893,-0.0021083,0,-0.013721,0,0,0,0.053326,0.019337,0.021799,-9.0455,0.031487,0.032827,1.7824e-06,0.02,0.76,0
0.0011855,-0.00041455,0.052884,0.01918,0.021619,-0.0052791,0,0,0.040644,-0.0031711,0,-0.013726,0,0,0,0.053692,0.018372,0.021619,-8.6969,0.031228,0.033813,1.9239e-06,0.03,0.76,0
0.0015957,-0.00055501,0.053277,0.018183,0.021438,-0.0052617,0,0,0.041391,-0.0042318,0,-0.01368,0,0,0,0.054049,0.017411,0.021438,-8.3459,0.030966,0.0348,2.0671e-06,0.04,0.76,0
0.0020133,-0.00069601,0.053661,0.017191,0.021256,-0.0052239,0,0,0.042127,-0.0052842,0,-0.013582,0,0,0,0.054395,0.016457,0.021256,-7.9927,0.030703,0.03578,2.2107e-06,0.05,0.76,0
0.0024383,-0.00083712,0.054034,0.01621,0.021073,-0.0051652,0,0,0.042849,-0.0063219,0,-0.01343,0,0,0,0.054727,0.015518,0.021073,-7.638,0.030439,0.036748,2.3535e-06,0.06,0.76,0
0.0028703,-0.00097794,0.054392,0.015246,0.020891,-0.0050858,0,0,0.043551,-0.007339,0,-0.013223,0,0,0,0.055042,0.014596,0.020891,-7.2827,0.030176,0.037695,2.4941e-06,0.07,0.76,0
0.0033093,-0.001118,0.054733,0.014303,0.020711,-0.0049862,0,0,0.044228,-0.0083297,0,-0.012964,0,0,0,0.055339,0.013698,0.020711,-6.9281,0.029916,0.038615,2.6315e-06,0.08,0.76,0
0.0037549,-0.001257,0.055054,0.013387,0.020532,-0.0048677,0,0,0.044878,-0.0092889,0,-0.012656,0,0,0,0.055615,0.012826,0.020532,-6.5755,0.029658,0.039504,2.7645e-06,0.09,0.76,0
0.0042068,-0.0013945,0.055354,0.012501,0.020356,-0.0047316,0,0,0.045497,-0.010212,0,-0.012302,0,0,0,0.05587,0.011985,0.020356,-6.2263,0.029404,0.040356,2.8921e-06,0.1,0.76,0
0.0046648,-0.0015301,0.055632,0.011648,0.020184,-0.0045799,0,0,0.046082,-0.011096,0,-0.011908,0,0,0,0.056103,0.011176,0.020184,-5.882,0.029155,0.041169,3.0135e-06,0.11,0.76,0
0.0051285,-0.0016634,0.055885,0.010832,0.020015,-0.0044146,0,0,0.046631,-0.011938,0,-0.011478,0,0,0,0.056314,0.010403,0.020015,-5.5439,0.028911,0.041939,3.1281e-06,0.12,0.76,0
0.0055975,-0.0017942,0.056116,0.010054,0.019851,-0.004238,0,0,0.047144,-0.012736,0,-0.011019,0,0,0,0.056502,0.0096671,0.019851,-5.2133,0.028673,0.042665,3.2356e-06,0.13,0.76,0
0.0060714,-0.0019222,0.056322,0.0093153,0.019691,-0.0040522,0,0,0.04762,-0.013489,0,-0.010536,0,0,0,0.056669,0.0089686,0.019691,-4.891,0.028443,0.043345,3.3355e-06,0.14,0.76,0
0.0065499,-0.0020472,0.056505,0.008617,0.019536,-0.0038594,0,0,0.048059,-0.014195,0,-0.010034,0,0,0,0.056814,0.008308,0.019536,-4.5782,0.028219,0.04398,3.4277e-06,0.15,0.76,0
0.0070325,-0.0021689,0.056665,0.0079592,0.019387,-0.0036618,0,0,0.048461,-0.014856,0,-0.0095206,0,0,0,0.056939,0.0076854,0.019387,-4.2755,0.028004,0.04457,3.5124e-06,0.16,0.76,0
0.0075191,-0.0022872,0.056803,0.0073413,0.019243,-0.0034613,0,0,0.048828,-0.015473,0,-0.0089993,0,0,0,0.057044,0.0071002,0.019243,-3.9836,0.027796,0.045115,3.5895e-06,0.17,0.76,0
0.0080091,-0.0024019,0.056921,0.0067627,0.019105,-0.0032598,0,0,0.049161,-0.016045,0,-0.0084753,0,0,0,0.057132,0.0065517,0.019105,-3.7028,0.027596,0.045618,3.6595e-06,0.18,0.76,0
0.0085023,-0.0025131,0.05702,0.0062222,0.018973,-0.0030588,0,0,0.049461,-0.016575,0,-0.0079529,0,0,0,0.057203,0.0060387,0.018973,-3.4335,0.027405,0.04608,3.7224e-06,0.19,0.76,0
0.0089983,-0.0026205,0.057101,0.0057186,0.018846,-0.0028599,0,0,0.049731,-0.017065,0,-0.0074356,0,0,0,0.057259,0.0055599,0.018846,-3.1759,0.027222,0.046503,3.7788e-06,0.2,0.76,0
0.0094969,-0.0027242,0.057166,0.0052502,0.018725,-0.0026642,0,0,0.049973,-0.017517,0,-0.0069268,0,0,0,0.057302,0.0051139,0.018725,-2.93,0.027047,0.046888,3.829e-06,0.21,0.76,0
0.0099978,-0.0028242,0.057216,0.0048155,0.018609,-0.0024728,0,0,0.050188,-0.017932,0,-0.0064292,0,0,0,0.057332,0.004699,0.018609,-2.6958,0.02688,0.04724,3.8735e-06,0.22,0.76,0
0.010501,-0.0029204,0.057252,0.0044125,0.018499,-0.0022866,0,0,0.050379,-0.018313,0,-0.0059451,0,0,0,0.057351,0.0043137,0.018499,-2.4732,0.026721,0.047559,3.9127e-06,0.23,0.76,0
0.011005,-0.0030129,0.057277,0.0040395,0.018395,-0.0021062,0,0,0.050547,-0.018662,0,-0.0054761,0,0,0,0.05736,0.0039563,0.018395,-2.262,0.026571,0.047848,3.947e-06,0.24,0.76,0
0.011512,-0.0031017,0.057292,0.0036947,0.018296,-0.0019323,0,0,0.050695,-0.018981,0,-0.0050239,0,0,0,0.057361,0.0036252,0.018296,-2.0621,0.026427,0.048109,3.9769e-06,0.25,0.76,0
0.012019,-0.0031869,0.057297,0.0033763,0.018202,-0.0017652,0,0,0.050824,-0.019273,0,-0.0045895,0,0,0,0.057355,0.0033186,0.018202,-1.873,0.026292,0.048344,4.0028e-06,0.26,0.76,0
0.012528,-0.0032685,0.057294,0.0030825,0.018113,-0.0016052,0,0,0.050936,-0.01954,0,-0.0041736,0,0,0,0.057342,0.003035,0.018113,-1.6946,0.026163,0.048557,4.025e-06,0.27,0.76,0
0.013038,-0.0033467,0.057285,0.0028116,0.018029,-0.0014526,0,0,0.051033,-0.019783,0,-0.0037767,0,0,0,0.057324,0.0027729,0.018029,-1.5264,0.026042,0.048747,4.044e-06,0.28,0.76,0
0.013549,-0.0034214,0.05727,0.002562,0.01795,-0.0013074,0,0,0.051116,-0.020004,0,-0.0033992,0,0,0,0.057301,0.0025307,0.01795,-1.3682,0.025927,0.048918,4.0602e-06,0.29,0.76,0
0.01406,-0.0034929,0.05725,0.0023321,0.017875,-0.0011696,0,0,0.051187,-0.020205,0,-0.003041,0,0,0,0.057274,0.0023072,0.017875,-1.2195,0.025819,0.049072,4.0737e-06,0.3,0.76,0
0.014573,-0.0035611,0.057225,0.0021204,0.017804,-0.0010393,0,0,0.051248,-0.020388,0,-0.0027021,0,0,0,0.057245,0.0021008,0.017804,-1.0801,0.025716,0.049209,4.085e-06,0.31,0.76,0
0.015085,-0.0036263,0.057198,0.0019256,0.017737,-0.00091623,0,0,0.051299,-0.020555,0,-0.0023822,0,0,0,0.057213,0.0019104,0.017737,-0.94942,0.02562,0.049332,4.0942e-06,0.32,0.76,0
0.015598,-0.0036884,0.057168,0.0017464,0.017674,-0.00080039,0,0,0.051342,-0.020706,0,-0.002081,0,0,0,0.057179,0.0017349,0.017674,-0.82723,0.02553,0.049441,4.1018e-06,0.33,0.76,0
0.016112,-0.0037476,0.057136,0.0015815,0.017615,-0.00069157,0,0,0.051377,-0.020844,0,-0.0017981,0,0,0,0.057144,0.0015729,0.017615,-0.7131,0.025444,0.049538,4.1077e-06,0.34,0.76,0
0.016626,-0.003804,0.057102,0.0014299,0.01756,-0.00058957,0,0,0.051405,-0.020969,0,-0.0015329,0,0,0,0.057108,0.0014237,0.01756,-0.60667,0.025364,0.049625,4.1123e-06,0.35,0.76,0
0.01714,-0.0038576,0.057068,0.0012905,0.017507,-0.00049418,0,0,0.051428,-0.021082,0,-0.0012849,0,0,0,0.057072,0.0012861,0.017507,-0.50758,0.025288,0.049702,4.1158e-06,0.36,0.76,0
0.017655,-0.0039087,0.057032,0.0011622,0.017458,-0.00040516,0,0,0.051446,-0.021185,0,-0.0010534,0,0,0,0.057035,0.0011593,0.017458,-0.41547,0.025218,0.04977,4.1183e-06,0.37,0.76,0
0.018169,-0.0039572,0.056997,0.0010442,0.017412,-0.00032228,0,0,0.05146,-0.021278,0,-0.00083793,0,0,0,0.056999,0.0010424,0.017412,-0.33,0.025151,0.049831,4.1199e-06,0.38,0.76,0
0.018684,-0.0040034,0.056961,0.00093576,0.017369,-0.00024528,0,0,0.05147,-0.021363,0,-0.00063773,0,0,0,0.056962,0.00093469,0.017369,-0.25083,0.025089,0.049884,4.1208e-06,0.39,0.76,0
0.019199,-0.0040472,0.056926,0.00083599,0.017329,-0.00017391,0,0,0.051477,-0.02144,0,-0.00045216,0,0,0,0.056926,0.00083545,0.017329,-0.17765,0.02503,0.049931,4.121e-06,0.4,0.76,0
0.019713,-0.0040888,0.056891,0.00074423,0.017291,-0.00010792,0,0,0.051481,-0.02151,0,-0.00028058,0,0,0,0.056891,0.00074402,0.017291,-0.11012,0.024975,0.049973,4.1207e-06,0.41,0.76,0
0.020228,-0.0041283,0.056857,0.00065983,0.017255,-4.7046e-05,0,0,0.051482,-0.021574,0,-0.00012232,0,0,0,0.056857,0.00065979,0.017255,-0.047966,0.024924,0.050009,4.12e-06,0.42,0.76,0
0.020743,-0.0041658,0.056823,0.00058219,0.017222,8.9486e-06,0,0,0.051482,-0.021631,0,2.3266e-05,0,0,0,0.056823,0.00058219,0.017222,0.0091164,0.024876,0.050041,4.1189e-06,0.43,0.76,0
0.021258,-0.0042013,0.056791,0.00051077,0.01719,6.0314e-05,0,0,0.05148,-0.021684,0,0.00015682,0,0,0,0.056791,0.0005107,0.01719,0.061403,0.024831,0.050069,4.1175e-06,0.44,0.76,0
0.021773,-0.004235,0.056759,0.00044507,0.017161,0.00010729,0,0,0.051477,-0.021731,0,0.00027895,0,0,0,0.056759,0.00044486,0.017161,0.10916,0.024788,0.050094,4.1159e-06,0.45,0.76,0
0.022287,-0.0042668,0.056728,0.00038462,0.017134,0.00015011,0,0,0.051473,-0.021774,0,0.00039028,0,0,0,0.056729,0.00038422,0.017134,0.15264,0.024749,0.050115,4.1141e-06,0.46,0.76,0
0.022802,-0.004297,0.056699,0.00032901,0.017108,0.00018899,0,0,0.051467,-0.021813,0,0.00049138,0,0,0,0.056699,0.00032838,0.017108,0.19209,0.024712,0.050133,4.1121e-06,0.47,0.76,0
0.023317,-0.0043256,0.05667,0.00027785,0.017084,0.00022416,0,0,0.051462,-0.021848,0,0.00058282,0,0,0,0.056671,0.00027696,0.017084,0.22775,0.024678,0.050149,4.11e-06,0.48,0.76,0
0.023831,-0.0043526,0.056643,0.00023078,0.017062,0.00025583,0,0,0.051455,-0.021881,0,0.00066515,0,0,0,0.056644,0.00022962,0.017062,0.25983,0.024645,0.050163,4.1078e-06,0.49,0.76,0
0.024346,-0.0043781,0.056617,0.00018749,0.017041,0.00028419,0,0,0.051448,-0.02191,0,0.00073889,0,0,0,0.056618,0.00018605,0.017041,0.28854,0.024615,0.050175,4.1056e-06,0.5,0.76,0
0.02486,-0.0044023,0.056592,0.00014766,0.017022,0.00030944,0,0,0.051441,-0.021936,0,0.00080454,0,0,0,0.056593,0.00014596,0.017022,0.3141,0.024587,0.050184,4.1033e-06,0.51,0.76,0
0.025375,-0.0044251,0.056567,0.00011103,0.017004,0.00033176,0,0,0.051433,-0.02196,0,0.00086259,0,0,0,0.056569,0.00010908,0.017004,0.33668,0.024561,0.050193,4.101e-06,0.52,0.76,0
0.025889,-0.0044466,0.056545,7.735e-05,0.016987,0.00035134,0,0,0.051425,-0.021982,0,0.00091349,0,0,0,0.056547,7.5164e-05,0.016987,0.35648,0.024536,0.0502,4.0988e-06,0.53,0.76,0
0.026403,-0.0044669,0.056523,4.6385e-05,0.016971,0.00036834,0,0,0.051418,-0.022002,0,0.00095768,0,0,0,0.056525,4.3982e-05,0.016971,0.37366,0.024513,0.050206,4.0965e-06,0.54,0.76,0
0.026917,-0.0044861,0.056502,1.7924e-05,0.016956,0.00038292,0,0,0.05141,-0.02202,0,0.00099558,0,0,0,0.056505,1.5329e-05,0.016956,0.38839,0.024492,0.05021,4.0942e-06,0.55,0.76,0
0.027431,-0.0045042,0.056482,-8.2251e-06,0.016942,0.00039523,0,0,0.051402,-0.022036,0,0.0010276,0,0,0,0.056485,-1.099e-05,0.016942,0.40083,0.024472,0.050214,4.0921e-06,0.56,0.76,0
0.027945,-0.0045212,0.056464,-3.2242e-05,0.016929,0.00040541,0,0,0.051395,-0.02205,0,0.0010541,0,0,0,0.056467,-3.5151e-05,0.016929,0.41112,0.024454,0.050217,4.0899e-06,0.57,0.76,0
0.028459,-0.0045373,0.056446,-5.4291e-05,0.016917,0.00041361,0,0,0.051387,-0.022063,0,0.0010754,0,0,0,0.056449,-5.7319e-05,0.016917,0.4194,0.024436,0.050219,4.0878e-06,0.58,0.76,0
0.028973,-0.0045524,0.056429,-7.4523e-05,0.016906,0.00041996,0,0,0.05138,-0.022075,0,0.0010919,0,0,0,0.056432,-7.7644e-05,0.016906,0.42581,0.02442,0.05022,4.0857e-06,0.59,0.76,0
0.029487,-0.0045666,0.056413,-9.3077e-05,0.016896,0.00042457,0,0,0.051372,-0.022086,0,0.0011039,0,0,0,0.056417,-9.6267e-05,0.016896,0.43047,0.024405,0.050221,4.0837e-06,0.6,0.76,0
0.03,-0.00458,0.056398,-0.00011008,0.016886,0.00042756,0,0,0.051365,-0.022096,0,0.0011117,0,0,0,0.056402,-0.00011332,0.016886,0.43349,0.024392,0.050221,4.0818e-06,0.61,0.76,0
0.030514,-0.0045925,0.056384,-0.00012565,0.016878,0.00042906,0,0,0.051359,-0.022104,0,0.0011155,0,0,0,0.056387,-0.00012891,0.016878,0.43499,0.024379,0.050221,4.0799e-06,0.62,0.76,0
0.031028,-0.0046044,0.056371,-0.00013991,0.016869,0.00042915,0,0,0.051352,-0.022112,0,0.0011158,0,0,0,0.056374,-0.00014317,0.016869,0.43507,0.024367,0.050221,4.0781e-06,0.63,0.76,0
0.031541,-0.0046155,0.056358,-0.00015294,0.016862,0.00042793,0,0,0.051346,-0.022119,0,0.0011126,0,0,0,0.056361,-0.00015618,0.016862,0.43384,0.024356,0.05022,4.0764e-06,0.64,0.76,0
0.032054,-0.0046259,0.056346,-0.00016484,0.016854,0.0004255,0,0,0.051339,-0.022125,0,0.0011063,0,0,0,0.056349,-0.00016804,0.016854,0.43138,0.024345,0.050219,4.0747e-06,0.65,0.76,0
0.032568,-0.0046356,0.056335,-0.0001757,0.016848,0.00042195,0,0,0.051333,-0.022131,0,0.0010971,0,0,0,0.056338,-0.00017885,0.016848,0.42778,0.024336,0.050217,4.0731e-06,0.66,0.76,0
0.033081,-0.0046448,0.056324,-0.0001856,0.016842,0.00041736,0,0,0.051327,-0.022135,0,0.0010851,0,0,0,0.056327,-0.00018868,0.016842,0.42313,0.024327,0.050216,4.0716e-06,0.67,0.76,0
0.033594,-0.0046534,0.056314,-0.00019461,0.016836,0.0004118,0,0,0.051322,-0.02214,0,0.0010707,0,0,0,0.056317,-0.00019761,0.016836,0.4175,0.024319,0.050214,4.0701e-06,0.68,0.76,0
0.034108,-0.0046614,0.056305,-0.0002028,0.016831,0.00040534,0,0,0.051317,-0.022143,0,0.0010539,0,0,0,0.056308,-0.00020571,0.016831,0.41096,0.024311,0.050212,4.0686e-06,0.69,0.76,0
0.034621,-0.0046689,0.056296,-0.00021024,0.016826,0.00039806,0,0,0.051312,-0.022147,0,0.0010349,0,0,0,0.056299,-0.00021304,0.016826,0.40359,0.024304,0.05021,4.0673e-06,0.7,0.76,0
0.035134,-0.004676,0.056288,-0.00021698,0.016821,0.00039001,0,0,0.051307,-0.02215,0,0.001014,0,0,0,0.056291,-0.00021967,0.016821,0.39545,0.024297,0.050208,4.0659e-06,0.71,0.76,0
0.035647,-0.0046825,0.05628,-0.00022308,0.016817,0.00038126,0,0,0.051302,-0.022152,0,0.00099128,0,0,0,0.056283,-0.00022565,0.016817,0.38659,0.024291,0.050206,4.0647e-06,0.72,0.76,0
0.03616,-0.0046887,0.056273,-0.00022859,0.016813,0.00037186,0,0,0.051297,-0.022154,0,0.00096685,0,0,0,0.056275,-0.00023103,0.016813,0.37707,0.024286,0.050203,4.0635e-06,0.73,0.76,0
0.036673,-0.0046944,0.056266,-0.00023356,0.01681,0.00036187,0,0,0.051293,-0.022156,0,0.00094086,0,0,0,0.056268,-0.00023587,0.01681,0.36695,0.024281,0.050201,4.0624e-06,0.74,0.76,0
0.037186,-0.0046997,0.056259,-0.00023802,0.016806,0.00035133,0,0,0.051289,-0.022158,0,0.00091345,0,0,0,0.056262,-0.00024021,0.016806,0.35627,0.024276,0.050199,4.0613e-06,0.75,0.76,0
0.037699,-0.0047047,0.056253,-0.00024204,0.016803,0.00034028,0,0,0.051285,-0.022159,0,0.00088473,0,0,0,0.056256,-0.00024409,0.016803,0.34508,0.024272,0.050196,4.0602e-06,0.76,0.76,0
0.038212,-0.0047093,0.056248,-0.00024563,0.016801,0.00032878,0,0,0.051281,-0.02216,0,0.00085481,0,0,0,0.05625,-0.00024755,0.016801,0.33343,0.024268,0.050194,4.0593e-06,0.77,0.76,0
0.038724,-0.0047136,0.056243,-0.00024885,0.016798,0.00031685,0,0,0.051278,-0.022161,0,0.0008238,0,0,0,0.056244,-0.00025062,0.016798,0.32134,0.024264,0.050191,4.0583e-06,0.78,0.76,0
0.039237,-0.0047176,0.056238,-0.00025171,0.016796,0.00030453,0,0,0.051275,-0.022162,0,0.00079178,0,0,0,0.056239,-0.00025335,0.016796,0.30887,0.024261,0.050189,4.0574e-06,0.79,0.76,0
0.03975,-0.0047213,0.056233,-0.00025426,0.016794,0.00029187,0,0,0.051271,-0.022162,0,0.00075885,0,0,0,0.056235,-0.00025577,0.016794,0.29603,0.024258,0.050187,4.0566e-06,0.8,0.76,0
0.040262,-0.0047247,0.056229,-0.00025652,0.016792,0.00027888,0,0,0.051268,-0.022163,0,0.00072509,0,0,0,0.05623,-0.00025789,0.016792,0.28287,0.024255,0.050185,4.0558e-06,0.81,0.76,0
0.040775,-0.0047279,0.056225,-0.00025851,0.01679,0.0002656,0,0,0.051265,-0.022163,0,0.00069057,0,0,0,0.056226,-0.00025976,0.01679,0.26942,0.024252,0.050182,4.0551e-06,0.82,0.76,0
0.041288,-0.0047308,0.056221,-0.00026027,0.016788,0.00025206,0,0,0.051263,-0.022163,0,0.00065536,0,0,0,0.056222,-0.00026139,0.016788,0.25569,0.02425,0.050181,4.0544e-06,0.83,0.76,0
0.0418,-0.0047335,0.056218,-0.00026181,0.016787,0.00023828,0,0,0.05126,-0.022163,0,0.00061954,0,0,0,0.056219,-0.00026281,0.016787,0.24172,0.024248,0.050179,4.0537e-06,0.84,0.76,0
0.042313,-0.0047359,0.056215,-0.00026316,0.016785,0.00022429,0,0,0.051258,-0.022163,0,0.00058315,0,0,0,0.056216,-0.00026405,0.016785,0.22753,0.024246,0.050177,4.0531e-06,0.85,0.76,0
0.042826,-0.0047381,0.056212,-0.00026433,0.016784,0.0002101,0,0,0.051256,-0.022163,0,0.00054625,0,0,0,0.056213,-0.00026512,0.016784,0.21314,0.024244,0.050175,4.0526e-06,0.86,0.76,0
0.043338,-0.0047402,0.056209,-0.00026535,0.016783,0.00019573,0,0,0.051254,-0.022163,0,0.00050891,0,0,0,0.05621,-0.00026603,0.016783,0.19858,0.024242,0.050173,4.052e-06,0.87,0.76,0
0.043851,-0.004742,0.056207,-0.00026623,0.016782,0.00018121,0,0,0.051252,-0.022163,0,0.00047116,0,0,0,0.056207,-0.00026681,0.016782,0.18385,0.024241,0.050171,4.0516e-06,0.88,0.76,0
0.044363,-0.0047437,0.056205,-0.00026699,0.016781,0.00016656,0,0,0.05125,-0.022163,0,0.00043304,0,0,0,0.056205,-0.00026748,0.016781,0.16898,0.02424,0.05017,4.0511e-06,0.89,0.76,0
0.044876,-0.0047452,0.056203,-0.00026764,0.016781,0.00015177,0,0,0.051249,-0.022163,0,0.00039461,0,0,0,0.056203,-0.00026804,0.016781,0.15399,0.024238,0.050169,4.0507e-06,0.9,0.76,0
0.045388,-0.0047466,0.056201,-0.00026818,0.01678,0.00013688,0,0,0.051247,-0.022162,0,0.0003559,0,0,0,0.056201,-0.00026851,0.01678,0.13889,0.024237,0.050167,4.0504e-06,0.91,0.76,0
0.045901,-0.0047477,0.056199,-0.00026864,0.016779,0.0001219,0,0,0.051246,-0.022162,0,0.00031694,0,0,0,0.056199,-0.00026891,0.016779,0.12369,0.024237,0.050166,4.05e-06,0.92,0.76,0
0.046413,-0.0047488,0.056198,-0.00026903,0.016779,0.00010683,0,0,0.051245,-0.022162,0,0.00027776,0,0,0,0.056198,-0.00026923,0.016779,0.1084,0.024236,0.050165,4.0497e-06,0.93,0.76,0
0.046926,-0.0047497,0.056197,-0.00026934,0.016778,9.1695e-05,0,0,0.051244,-0.022162,0,0.00023841,0,0,0,0.056197,-0.00026949,0.016778,0.093042,0.024235,0.050164,4.0495e-06,0.94,0.76,0
0.047438,-0.0047504,0.056196,-0.0002696,0.016778,7.6499e-05,0,0,0.051243,-0.022162,0,0.0001989,0,0,0,0.056196,-0.0002697,0.016778,0.077624,0.024235,0.050163,4.0493e-06,0.95,0.76,0
0.04795,-0.004751,0.056195,-0.0002698,0.016778,6.1256e-05,0,0,0.051243,-0.022162,0,0.00015926,0,0,0,0.056195,-0.00026987,0.016778,0.062157,0.024234,0.050163,4.0491e-06,0.96,0.76,0
0.048463,-0.0047514,0.056194,-0.00026995,0.016777,4.5974e-05,0,0,0.051242,-0.022161,0,0.00011953,0,0,0,0.056194,-0.00026999,0.016777,0.046651,0.024234,0.050162,4.049e-06,0.97,0.76,0
0.048975,-0.0047518,0.056194,-0.00027006,0.016777,3.0665e-05,0,0,0.051242,-0.022161,0,7.9729e-05,0,0,0,0.056194,-0.00027007,0.016777,0.031117,0.024234,0.050162,4.0489e-06,0.98,0.76,0
0.049488,-0.004752,0.056194,-0.00027012,0.016777,1.5337e-05,0,0,0.051242,-0.022161,0,3.9876e-05,0,0,0,0.056194,-0.00027012,0.016777,0.015563,0.024234,0.050162,4.0489e-06,0.99,0.76,0
0.05,-0.004752,0.056194,-0.00027014,0.016777,-2.5116e-06,0,0,0.051242,-0.022161,0,-6.5303e-06,0,0,0,0.056194,-0.00027014,0.016777,-0.0025487,0.024234,0.050162,4.0488e-06,1,0.76,0
0,0,0.052297,0.022413,0.022413,-0.0056646,0,0,0.038849,-1.6263e-19,0,-0.014728,0,0,0,0.053334,0.021375,0.022413,-10.381,0.032374,0.031453,1.5923e-06,0,0.77,0
0.00038849,-0.00014728,0.052195,0.021198,0.022018,-0.0056635,0,0,0.039231,-0.0010664,0,-0.014725,0,0,0,0.053198,0.020195,0.022018,-10.036,0.031803,0.03213,1.6851e-06,0.01,0.77,0
0.00078461,-0.00029624,0.052603,0.020187,0.021837,-0.0056823,0,0,0.039996,-0.0021447,0,-0.014774,0,0,0,0.05357,0.01922,0.021837,-9.6601,0.031542,0.033119,1.8265e-06,0.02,0.77,0
0.0011884,-0.00044652,0.053008,0.01917,0.021653,-0.0056803,0,0,0.040761,-0.0032287,0,-0.014769,0,0,0,0.053936,0.018242,0.021653,-9.2792,0.031277,0.034117,1.9709e-06,0.03,0.77,0
0.0015998,-0.0005977,0.053407,0.018151,0.021467,-0.0056555,0,0,0.041522,-0.0043118,0,-0.014704,0,0,0,0.054292,0.017266,0.021467,-8.8936,0.031009,0.035115,2.1169e-06,0.04,0.77,0
0.0020188,-0.00074932,0.053798,0.017136,0.02128,-0.0056071,0,0,0.042273,-0.0053871,0,-0.014578,0,0,0,0.054636,0.016298,0.02128,-8.504,0.030738,0.036106,2.263e-06,0.05,0.77,0
0.0024453,-0.00090092,0.054176,0.016133,0.021093,-0.0055346,0,0,0.043008,-0.0064475,0,-0.01439,0,0,0,0.054964,0.015344,0.021093,-8.1116,0.030467,0.037082,2.408e-06,0.06,0.77,0
0.002879,-0.001052,0.054537,0.015147,0.020905,-0.0054383,0,0,0.043722,-0.0074861,0,-0.01414,0,0,0,0.055274,0.01441,0.020905,-7.718,0.030196,0.038035,2.5505e-06,0.07,0.77,0
0.0033197,-0.0012021,0.054881,0.014183,0.020719,-0.0053194,0,0,0.04441,-0.0084969,0,-0.01383,0,0,0,0.055565,0.013499,0.020719,-7.3249,0.029928,0.03896,2.6891e-06,0.08,0.77,0
0.0037672,-0.0013508,0.055203,0.013247,0.020535,-0.0051793,0,0,0.045068,-0.0094742,0,-0.013466,0,0,0,0.055833,0.012617,0.020535,-6.9343,0.029662,0.039851,2.8228e-06,0.09,0.77,0
0.0042211,-0.0014976,0.055502,0.012344,0.020354,-0.0050201,0,0,0.045693,-0.010413,0,-0.013052,0,0,0,0.056079,0.011768,0.020354,-6.5481,0.0294,0.040703,2.9505e-06,0.1,0.77,0
0.0046811,-0.001642,0.055777,0.011476,0.020176,-0.0048442,0,0,0.046282,-0.01131,0,-0.012595,0,0,0,0.056301,0.010953,0.020176,-6.168,0.029143,0.041512,3.0715e-06,0.11,0.77,0
0.0051467,-0.0017838,0.056027,0.010647,0.020002,-0.0046542,0,0,0.046832,-0.012162,0,-0.012101,0,0,0,0.0565,0.010175,0.020002,-5.7958,0.028892,0.042277,3.1852e-06,0.12,0.77,0
0.0056177,-0.0019227,0.056252,0.0098589,0.019833,-0.0044526,0,0,0.047344,-0.012967,0,-0.011577,0,0,0,0.056675,0.0094354,0.019833,-5.433,0.028648,0.042994,3.2911e-06,0.13,0.77,0
0.0060936,-0.0020582,0.056451,0.0091127,0.019669,-0.0042423,0,0,0.047816,-0.013723,0,-0.01103,0,0,0,0.056828,0.0087355,0.019669,-5.0807,0.028411,0.043665,3.3889e-06,0.14,0.77,0
0.006574,-0.0021902,0.056625,0.0084091,0.01951,-0.0040257,0,0,0.04825,-0.014432,0,-0.010467,0,0,0,0.056959,0.0080753,0.01951,-4.74,0.028182,0.044288,3.4788e-06,0.15,0.77,0
0.0070586,-0.0023186,0.056776,0.007748,0.019357,-0.0038052,0,0,0.048645,-0.015092,0,-0.0098936,0,0,0,0.05707,0.0074545,0.019357,-4.4117,0.02796,0.044864,3.5607e-06,0.16,0.77,0
0.0075469,-0.002443,0.056904,0.007129,0.01921,-0.0035832,0,0,0.049003,-0.015705,0,-0.0093163,0,0,0,0.057161,0.0068724,0.01921,-4.0964,0.027748,0.045395,3.6348e-06,0.17,0.77,0
0.0080387,-0.0025635,0.057012,0.0065511,0.019069,-0.0033615,0,0,0.049326,-0.016273,0,-0.0087399,0,0,0,0.057235,0.0063281,0.019069,-3.7945,0.027544,0.045882,3.7015e-06,0.18,0.77,0
0.0085334,-0.0026799,0.057099,0.0060128,0.018934,-0.0031419,0,0,0.049615,-0.016797,0,-0.0081689,0,0,0,0.057292,0.0058203,0.018934,-3.5062,0.027349,0.046328,3.7611e-06,0.19,0.77,0
0.009031,-0.0027922,0.057169,0.0055128,0.018804,-0.0029259,0,0,0.049874,-0.017279,0,-0.0076073,0,0,0,0.057334,0.0053476,0.018804,-3.2316,0.027162,0.046734,3.814e-06,0.2,0.77,0
0.0095309,-0.0029004,0.057222,0.0050491,0.018681,-0.0027147,0,0,0.050103,-0.017722,0,-0.0070583,0,0,0,0.057363,0.0049082,0.018681,-2.9706,0.026984,0.047103,3.8607e-06,0.21,0.77,0
0.010033,-0.0030045,0.05726,0.0046199,0.018564,-0.0025095,0,0,0.050305,-0.018128,0,-0.0065246,0,0,0,0.05738,0.0045006,0.018564,-2.7232,0.026815,0.047438,3.9017e-06,0.22,0.77,0
0.010537,-0.0031044,0.057286,0.0042233,0.018453,-0.0023109,0,0,0.050483,-0.018498,0,-0.0060083,0,0,0,0.057386,0.0041229,0.018453,-2.489,0.026654,0.04774,3.9375e-06,0.23,0.77,0
0.011043,-0.0032004,0.0573,0.0038573,0.018347,-0.0021196,0,0,0.050639,-0.018837,0,-0.0055111,0,0,0,0.057384,0.0037733,0.018347,-2.2677,0.026502,0.048012,3.9685e-06,0.24,0.77,0
0.01155,-0.0032923,0.057304,0.0035198,0.018247,-0.0019362,0,0,0.050774,-0.019145,0,-0.0050341,0,0,0,0.057374,0.0034502,0.018247,-2.0591,0.026357,0.048257,3.9951e-06,0.25,0.77,0
0.012058,-0.0033804,0.057299,0.0032091,0.018152,-0.0017609,0,0,0.050891,-0.019426,0,-0.0045783,0,0,0,0.057356,0.0031518,0.018152,-1.8626,0.02622,0.048477,4.0179e-06,0.26,0.77,0
0.012568,-0.0034646,0.057287,0.0029231,0.018063,-0.0015939,0,0,0.050991,-0.019682,0,-0.004144,0,0,0,0.057334,0.0028764,0.018063,-1.6779,0.026091,0.048675,4.0372e-06,0.27,0.77,0
0.013078,-0.0035452,0.057269,0.0026601,0.017979,-0.0014353,0,0,0.051077,-0.019914,0,-0.0037317,0,0,0,0.057306,0.0026224,0.017979,-1.5045,0.025969,0.048851,4.0534e-06,0.28,0.77,0
0.013589,-0.0036221,0.057245,0.0024184,0.017899,-0.0012851,0,0,0.05115,-0.020125,0,-0.0033412,0,0,0,0.057275,0.0023883,0.017899,-1.342,0.025854,0.049008,4.0669e-06,0.29,0.77,0
0.014101,-0.0036955,0.057217,0.0021964,0.017824,-0.0011432,0,0,0.051211,-0.020316,0,-0.0029723,0,0,0,0.057241,0.0021726,0.017824,-1.1898,0.025746,0.049148,4.0779e-06,0.3,0.77,0
0.014613,-0.0037655,0.057186,0.0019925,0.017753,-0.0010095,0,0,0.051262,-0.020489,0,-0.0026248,0,0,0,0.057204,0.001974,0.017753,-1.0475,0.025644,0.049273,4.0869e-06,0.31,0.77,0
0.015126,-0.0038323,0.057152,0.0018053,0.017687,-0.00088392,0,0,0.051304,-0.020646,0,-0.0022982,0,0,0,0.057166,0.0017912,0.017687,-0.91475,0.025548,0.049384,4.094e-06,0.32,0.77,0
0.015639,-0.0038959,0.057115,0.0016335,0.017625,-0.0007661,0,0,0.051338,-0.020789,0,-0.0019919,0,0,0,0.057126,0.0016229,0.017625,-0.79095,0.025458,0.049482,4.0995e-06,0.33,0.77,0
0.016153,-0.0039564,0.057078,0.0014758,0.017566,-0.00065584,0,0,0.051365,-0.020917,0,-0.0017052,0,0,0,0.057085,0.0014681,0.017566,-0.6757,0.025373,0.049569,4.1036e-06,0.34,0.77,0
0.016667,-0.004014,0.057039,0.0013311,0.017511,-0.00055288,0,0,0.051387,-0.021034,0,-0.0014375,0,0,0,0.057045,0.0013256,0.017511,-0.56856,0.025294,0.049646,4.1066e-06,0.35,0.77,0
0.017181,-0.0040688,0.057,0.0011983,0.017459,-0.00045693,0,0,0.051403,-0.021139,0,-0.001188,0,0,0,0.057004,0.0011946,0.017459,-0.46912,0.025219,0.049714,4.1085e-06,0.36,0.77,0
0.017695,-0.0041208,0.056961,0.0010765,0.017411,-0.00036771,0,0,0.051414,-0.021235,0,-0.00095605,0,0,0,0.056963,0.0010741,0.017411,-0.37698,0.025149,0.049774,4.1095e-06,0.37,0.77,0
0.018209,-0.0041703,0.056922,0.00096465,0.017366,-0.00028492,0,0,0.051422,-0.021322,0,-0.0007408,0,0,0,0.056923,0.0009632,0.017366,-0.29173,0.025084,0.049826,4.1098e-06,0.38,0.77,0
0.018723,-0.0042172,0.056883,0.00086204,0.017323,-0.00020827,0,0,0.051427,-0.0214,0,-0.00054149,0,0,0,0.056884,0.00086126,0.017323,-0.213,0.025023,0.049872,4.1095e-06,0.39,0.77,0
0.019238,-0.0042618,0.056845,0.00076786,0.017284,-0.00013745,0,0,0.051429,-0.021471,0,-0.00035737,0,0,0,0.056845,0.00076752,0.017284,-0.14044,0.024966,0.049913,4.1087e-06,0.4,0.77,0
0.019752,-0.0043041,0.056807,0.00068141,0.017247,-7.2187e-05,0,0,0.051429,-0.021535,0,-0.00018769,0,0,0,0.056808,0.00068132,0.017247,-0.073691,0.024912,0.049948,4.1075e-06,0.41,0.77,0
0.020266,-0.0043442,0.056771,0.00060206,0.017212,-1.2186e-05,0,0,0.051427,-0.021593,0,-3.1684e-05,0,0,0,0.056771,0.00060206,0.017212,-0.012431,0.024862,0.049979,4.1059e-06,0.42,0.77,0
0.02078,-0.0043822,0.056736,0.00052921,0.01718,4.2828e-05,0,0,0.051423,-0.021645,0,0.00011135,0,0,0,0.056736,0.00052918,0.01718,0.043658,0.024815,0.050006,4.1041e-06,0.43,0.77,0
0.021295,-0.0044182,0.056702,0.00046233,0.017149,9.3126e-05,0,0,0.051418,-0.021693,0,0.00024213,0,0,0,0.056702,0.00046218,0.017149,0.094874,0.024771,0.050029,4.102e-06,0.44,0.77,0
0.021809,-0.0044523,0.056669,0.00040092,0.017121,0.00013897,0,0,0.051412,-0.021736,0,0.00036132,0,0,0,0.056669,0.00040058,0.017121,0.1415,0.02473,0.050049,4.0998e-06,0.45,0.77,0
0.022323,-0.0044846,0.056638,0.00034453,0.017095,0.0001806,0,0,0.051406,-0.021775,0,0.00046957,0,0,0,0.056638,0.00034395,0.017095,0.18382,0.024692,0.050066,4.0975e-06,0.46,0.77,0
0.022837,-0.0045151,0.056607,0.00029274,0.01707,0.00021828,0,0,0.051398,-0.021811,0,0.00056753,0,0,0,0.056608,0.0002919,0.01707,0.22208,0.024657,0.050081,4.0951e-06,0.47,0.77,0
0.023351,-0.004544,0.056578,0.00024519,0.017047,0.00025223,0,0,0.051391,-0.021843,0,0.00065578,0,0,0,0.05658,0.00024406,0.017047,0.25653,0.024624,0.050094,4.0926e-06,0.48,0.77,0
0.023865,-0.0045714,0.056551,0.00020152,0.017026,0.00028266,0,0,0.051383,-0.021871,0,0.00073491,0,0,0,0.056552,0.0002001,0.017026,0.2874,0.024593,0.050105,4.0902e-06,0.49,0.77,0
0.024379,-0.0045972,0.056525,0.00016141,0.017006,0.0003098,0,0,0.051374,-0.021898,0,0.00080547,0,0,0,0.056526,0.00015971,0.017006,0.31491,0.024564,0.050114,4.0877e-06,0.5,0.77,0
0.024892,-0.0046216,0.0565,0.00012459,0.016987,0.00033383,0,0,0.051366,-0.021922,0,0.00086797,0,0,0,0.056502,0.00012261,0.016987,0.33927,0.024537,0.050122,4.0852e-06,0.51,0.77,0
0.025406,-0.0046446,0.056476,9.0776e-05,0.01697,0.00035497,0,0,0.051358,-0.021943,0,0.00092292,0,0,0,0.056478,8.8542e-05,0.01697,0.36068,0.024512,0.050128,4.0828e-06,0.52,0.77,0
0.025919,-0.0046663,0.056453,5.9737e-05,0.016954,0.00037338,0,0,0.051349,-0.021962,0,0.00097079,0,0,0,0.056456,5.7265e-05,0.016954,0.37933,0.024489,0.050133,4.0804e-06,0.53,0.77,0
0.026433,-0.0046869,0.056432,3.1249e-05,0.016939,0.00038924,0,0,0.051341,-0.02198,0,0.001012,0,0,0,0.056435,2.8563e-05,0.016939,0.39539,0.024467,0.050138,4.0781e-06,0.54,0.77,0
0.026946,-0.0047062,0.056412,5.1082e-06,0.016925,0.00040272,0,0,0.051333,-0.021996,0,0.0010471,0,0,0,0.056415,2.2331e-06,0.016925,0.40903,0.024448,0.050141,4.0758e-06,0.55,0.77,0
0.027459,-0.0047244,0.056393,-1.8871e-05,0.016912,0.00041396,0,0,0.051325,-0.022011,0,0.0010763,0,0,0,0.056396,-2.1909e-05,0.016912,0.42041,0.024429,0.050144,4.0736e-06,0.56,0.77,0
0.027973,-0.0047416,0.056376,-4.086e-05,0.0169,0.00042312,0,0,0.051318,-0.022024,0,0.0011001,0,0,0,0.056379,-4.4033e-05,0.0169,0.42968,0.024412,0.050146,4.0715e-06,0.57,0.77,0
0.028486,-0.0047578,0.056359,-6.1014e-05,0.016889,0.00043033,0,0,0.05131,-0.022035,0,0.0011189,0,0,0,0.056362,-6.4296e-05,0.016889,0.43698,0.024396,0.050147,4.0695e-06,0.58,0.77,0
0.028999,-0.004773,0.056343,-7.9478e-05,0.016879,0.00043573,0,0,0.051303,-0.022046,0,0.0011329,0,0,0,0.056346,-8.2843e-05,0.016879,0.44244,0.024381,0.050148,4.0675e-06,0.59,0.77,0
0.029512,-0.0047873,0.056328,-9.6383e-05,0.016869,0.00043943,0,0,0.051296,-0.022056,0,0.0011425,0,0,0,0.056331,-9.9806e-05,0.016869,0.44618,0.024367,0.050148,4.0656e-06,0.6,0.77,0
0.030025,-0.0048008,0.056314,-0.00011185,0.016861,0.00044156,0,0,0.05129,-0.022064,0,0.0011481,0,0,0,0.056318,-0.00011531,0.016861,0.44833,0.024354,0.050148,4.0638e-06,0.61,0.77,0
0.030538,-0.0048134,0.056301,-0.000126,0.016852,0.00044223,0,0,0.051283,-0.022072,0,0.0011498,0,0,0,0.056305,-0.00012946,0.016852,0.449,0.024343,0.050148,4.0621e-06,0.62,0.77,0
0.03105,-0.0048253,0.056289,-0.00013892,0.016845,0.00044153,0,0,0.051277,-0.022079,0,0.001148,0,0,0,0.056292,-0.00014237,0.016845,0.44829,0.024332,0.050147,4.0604e-06,0.63,0.77,0
0.031563,-0.0048365,0.056278,-0.00015071,0.016838,0.00043957,0,0,0.051271,-0.022085,0,0.0011429,0,0,0,0.056281,-0.00015414,0.016838,0.44629,0.024322,0.050147,4.0588e-06,0.64,0.77,0
0.032076,-0.004847,0.056267,-0.00016147,0.016832,0.00043643,0,0,0.051266,-0.022091,0,0.0011347,0,0,0,0.05627,-0.00016485,0.016832,0.44311,0.024312,0.050146,4.0573e-06,0.65,0.77,0
0.032588,-0.0048568,0.056257,-0.00017127,0.016826,0.00043221,0,0,0.051261,-0.022096,0,0.0011237,0,0,0,0.05626,-0.00017458,0.016826,0.43882,0.024304,0.050145,4.0559e-06,0.66,0.77,0
0.033101,-0.004866,0.056247,-0.00018018,0.01682,0.00042698,0,0,0.051255,-0.0221,0,0.0011101,0,0,0,0.056251,-0.00018341,0.01682,0.43351,0.024296,0.050143,4.0545e-06,0.67,0.77,0
0.033614,-0.0048746,0.056239,-0.00018828,0.016815,0.00042081,0,0,0.051251,-0.022104,0,0.0010941,0,0,0,0.056242,-0.00019142,0.016815,0.42726,0.024289,0.050142,4.0532e-06,0.68,0.77,0
0.034126,-0.0048827,0.056231,-0.00019563,0.01681,0.00041379,0,0,0.051246,-0.022108,0,0.0010758,0,0,0,0.056234,-0.00019867,0.01681,0.42013,0.024282,0.05014,4.052e-06,0.69,0.77,0
0.034639,-0.0048902,0.056223,-0.00020229,0.016806,0.00040596,0,0,0.051242,-0.022111,0,0.0010555,0,0,0,0.056226,-0.00020521,0.016806,0.4122,0.024276,0.050139,4.0509e-06,0.7,0.77,0
0.035151,-0.0048973,0.056216,-0.00020832,0.016802,0.00039741,0,0,0.051238,-0.022114,0,0.0010333,0,0,0,0.056219,-0.00021112,0.016802,0.40352,0.02427,0.050137,4.0498e-06,0.71,0.77,0
0.035663,-0.0049039,0.056209,-0.00021376,0.016799,0.00038818,0,0,0.051234,-0.022116,0,0.0010093,0,0,0,0.056212,-0.00021643,0.016799,0.39416,0.024265,0.050135,4.0487e-06,0.72,0.77,0
0.036176,-0.00491,0.056203,-0.00021866,0.016795,0.00037833,0,0,0.05123,-0.022118,0,0.00098365,0,0,0,0.056206,-0.0002212,0.016795,0.38416,0.02426,0.050134,4.0477e-06,0.73,0.77,0
0.036688,-0.0049158,0.056198,-0.00022307,0.016792,0.0003679,0,0,0.051227,-0.02212,0,0.00095655,0,0,0,0.0562,-0.00022547,0.016792,0.37359,0.024256,0.050132,4.0468e-06,0.74,0.77,0
0.0372,-0.0049211,0.056192,-0.00022703,0.01679,0.00035696,0,0,0.051223,-0.022122,0,0.00092809,0,0,0,0.056195,-0.00022929,0.01679,0.36248,0.024252,0.05013,4.0459e-06,0.75,0.77,0
0.037712,-0.0049261,0.056187,-0.00023057,0.016787,0.00034553,0,0,0.051221,-0.022123,0,0.00089837,0,0,0,0.05619,-0.00023269,0.016787,0.35089,0.024248,0.050128,4.0451e-06,0.76,0.77,0
0.038225,-0.0049308,0.056183,-0.00023374,0.016785,0.00033366,0,0,0.051218,-0.022124,0,0.00086752,0,0,0,0.056185,-0.00023571,0.016785,0.33885,0.024245,0.050127,4.0443e-06,0.77,0.77,0
0.038737,-0.004935,0.056179,-0.00023656,0.016783,0.00032139,0,0,0.051215,-0.022125,0,0.00083562,0,0,0,0.056181,-0.00023839,0.016783,0.32639,0.024242,0.050125,4.0436e-06,0.78,0.77,0
0.039249,-0.004939,0.056175,-0.00023907,0.016781,0.00030876,0,0,0.051212,-0.022126,0,0.00080276,0,0,0,0.056176,-0.00024076,0.016781,0.31357,0.024239,0.050123,4.0429e-06,0.79,0.77,0
0.039761,-0.0049427,0.056171,-0.00024129,0.016779,0.00029579,0,0,0.05121,-0.022126,0,0.00076904,0,0,0,0.056173,-0.00024284,0.016779,0.30041,0.024236,0.050121,4.0423e-06,0.8,0.77,0
0.040273,-0.0049462,0.056168,-0.00024325,0.016777,0.00028251,0,0,0.051208,-0.022127,0,0.00073453,0,0,0,0.056169,-0.00024466,0.016777,0.28693,0.024234,0.05012,4.0417e-06,0.81,0.77,0
0.040785,-0.0049493,0.056165,-0.00024497,0.016776,0.00026896,0,0,0.051206,-0.022127,0,0.0006993,0,0,0,0.056166,-0.00024626,0.016776,0.27318,0.024232,0.050118,4.0411e-06,0.82,0.77,0
0.041297,-0.0049522,0.056162,-0.00024649,0.016775,0.00025516,0,0,0.051204,-0.022128,0,0.00066343,0,0,0,0.056163,-0.00024764,0.016775,0.25917,0.02423,0.050117,4.0406e-06,0.83,0.77,0
0.041809,-0.0049549,0.056159,-0.00024781,0.016774,0.00024114,0,0,0.051202,-0.022128,0,0.00062696,0,0,0,0.056161,-0.00024884,0.016774,0.24493,0.024228,0.050115,4.0401e-06,0.84,0.77,0
0.042321,-0.0049574,0.056157,-0.00024896,0.016772,0.00022691,0,0,0.0512,-0.022128,0,0.00058997,0,0,0,0.056158,-0.00024987,0.016772,0.23048,0.024227,0.050114,4.0396e-06,0.85,0.77,0
0.042833,-0.0049596,0.056155,-0.00024996,0.016772,0.0002125,0,0,0.051199,-0.022128,0,0.0005525,0,0,0,0.056156,-0.00025076,0.016772,0.21585,0.024226,0.050113,4.0392e-06,0.86,0.77,0
0.043345,-0.0049616,0.056153,-0.00025082,0.016771,0.00019792,0,0,0.051197,-0.022128,0,0.0005146,0,0,0,0.056154,-0.00025151,0.016771,0.20105,0.024224,0.050112,4.0388e-06,0.87,0.77,0
0.043857,-0.0049635,0.056151,-0.00025156,0.01677,0.0001832,0,0,0.051196,-0.022128,0,0.00047632,0,0,0,0.056152,-0.00025215,0.01677,0.1861,0.024223,0.05011,4.0385e-06,0.88,0.77,0
0.044369,-0.0049652,0.05615,-0.00025219,0.016769,0.00016835,0,0,0.051194,-0.022128,0,0.0004377,0,0,0,0.05615,-0.00025269,0.016769,0.17101,0.024222,0.050109,4.0381e-06,0.89,0.77,0
0.044881,-0.0049667,0.056148,-0.00025272,0.016769,0.00015338,0,0,0.051193,-0.022128,0,0.00039879,0,0,0,0.056149,-0.00025314,0.016769,0.15581,0.024221,0.050108,4.0378e-06,0.9,0.77,0
0.045393,-0.004968,0.056147,-0.00025317,0.016768,0.00013831,0,0,0.051192,-0.022128,0,0.0003596,0,0,0,0.056147,-0.00025351,0.016768,0.1405,0.024221,0.050107,4.0376e-06,0.91,0.77,0
0.045905,-0.0049692,0.056146,-0.00025355,0.016768,0.00012315,0,0,0.051192,-0.022128,0,0.00032019,0,0,0,0.056146,-0.00025382,0.016768,0.12511,0.02422,0.050106,4.0374e-06,0.92,0.77,0
0.046417,-0.0049702,0.056145,-0.00025386,0.016767,0.00010792,0,0,0.051191,-0.022128,0,0.00028058,0,0,0,0.056145,-0.00025406,0.016767,0.10963,0.024219,0.050106,4.0371e-06,0.93,0.77,0
0.046929,-0.0049711,0.056144,-0.00025411,0.016767,9.2616e-05,0,0,0.05119,-0.022127,0,0.0002408,0,0,0,0.056144,-0.00025426,0.016767,0.09409,0.024219,0.050105,4.037e-06,0.94,0.77,0
0.047441,-0.0049718,0.056143,-0.00025432,0.016767,7.7261e-05,0,0,0.051189,-0.022127,0,0.00020088,0,0,0,0.056143,-0.00025442,0.016767,0.078492,0.024219,0.050105,4.0368e-06,0.95,0.77,0
0.047953,-0.0049724,0.056143,-0.00025447,0.016767,6.1862e-05,0,0,0.051189,-0.022127,0,0.00016084,0,0,0,0.056143,-0.00025454,0.016767,0.062847,0.024218,0.050104,4.0367e-06,0.96,0.77,0
0.048464,-0.0049729,0.056142,-0.00025459,0.016766,4.6426e-05,0,0,0.051189,-0.022127,0,0.00012071,0,0,0,0.056142,-0.00025463,0.016766,0.047166,0.024218,0.050104,4.0366e-06,0.97,0.77,0
0.048976,-0.0049732,0.056142,-0.00025468,0.016766,3.0965e-05,0,0,0.051188,-0.022127,0,8.051e-05,0,0,0,0.056142,-0.00025469,0.016766,0.031459,0.024218,0.050104,4.0365e-06,0.98,0.77,0
0.049488,-0.0049734,0.056142,-0.00025473,0.016766,1.5487e-05,0,0,0.051188,-0.022127,0,4.0266e-05,0,0,0,0.056142,-0.00025473,0.016766,0.015734,0.024218,0.050104,4.0365e-06,0.99,0.77,0
0.05,-0.0049735,0.056142,-0.00025474,0.016766,-2.5067e-06,0,0,0.051188,-0.022127,0,-6.5173e-06,0,0,0,0.056142,-0.00025474,0.016766,-0.0025466,0.024218,0.050103,4.0365e-06,1,0.77,0
0,0,0.05242,0.022465,0.022465,-0.0060783,0,0,0.03894,2.1684e-19,0,-0.015804,0,0,0,0.053606,0.021279,0.022465,-11.045,0.03245,0.03175,1.6361e-06,0,0.78,0
0.0003894,-0.00015804,0.052316,0.021227,0.022063,-0.0060763,0,0,0.039329,-0.0010865,0,-0.015799,0,0,0,0.053462,0.020082,0.022063,-10.675,0.031869,0.032435,1.7305e-06,0.01,0.78,0
0.00078659,-0.00031789,0.052732,0.020195,0.021878,-0.0060948,0,0,0.04011,-0.0021876,0,-0.015846,0,0,0,0.053836,0.019091,0.021878,-10.269,0.031602,0.033439,1.8754e-06,0.02,0.78,0
0.0011916,-0.00047912,0.053145,0.019154,0.02169,-0.0060887,0,0,0.040892,-0.0032965,0,-0.015831,0,0,0,0.054202,0.018096,0.02169,-9.8552,0.031329,0.034451,2.0231e-06,0.03,0.78,0
0.0016044,-0.00064125,0.053552,0.018109,0.021498,-0.0060563,0,0,0.041669,-0.0044057,0,-0.015746,0,0,0,0.054558,0.017103,0.021498,-9.434,0.031053,0.035462,2.1723e-06,0.04,0.78,0
0.002025,-0.00080375,0.053949,0.017069,0.021305,-0.0059964,0,0,0.042436,-0.0055074,0,-0.015591,0,0,0,0.054899,0.016118,0.021305,-9.0068,0.030774,0.036465,2.3213e-06,0.05,0.78,0
0.0024531,-0.00096607,0.054332,0.016039,0.021111,-0.0059088,0,0,0.043187,-0.0065936,0,-0.015363,0,0,0,0.055223,0.015148,0.021111,-8.5755,0.030494,0.037451,2.4688e-06,0.06,0.78,0
0.0028887,-0.0011277,0.054698,0.015028,0.020918,-0.0057942,0,0,0.043914,-0.0076567,0,-0.015065,0,0,0,0.055527,0.014199,0.020918,-8.1421,0.030215,0.038412,2.6132e-06,0.07,0.78,0
0.0033314,-0.001288,0.055044,0.014041,0.020725,-0.0056542,0,0,0.044614,-0.0086897,0,-0.014701,0,0,0,0.055809,0.013276,0.020725,-7.7093,0.029937,0.039341,2.7531e-06,0.08,0.78,0
0.003781,-0.0014465,0.055366,0.013084,0.020535,-0.0054907,0,0,0.045281,-0.0096865,0,-0.014276,0,0,0,0.056068,0.012383,0.020535,-7.2795,0.029662,0.040233,2.8873e-06,0.09,0.78,0
0.004237,-0.0016028,0.055664,0.012162,0.020348,-0.0053065,0,0,0.045911,-0.010642,0,-0.013797,0,0,0,0.056302,0.011524,0.020348,-6.8551,0.029391,0.041083,3.015e-06,0.1,0.78,0
0.0046992,-0.0017563,0.055935,0.011278,0.020164,-0.0051045,0,0,0.046503,-0.011552,0,-0.013272,0,0,0,0.056511,0.010702,0.020164,-6.4385,0.029126,0.041888,3.1351e-06,0.11,0.78,0
0.0051671,-0.0019066,0.05618,0.010436,0.019985,-0.0048879,0,0,0.047053,-0.012413,0,-0.012708,0,0,0,0.056696,0.00992,0.019985,-6.0316,0.028867,0.042644,3.2473e-06,0.12,0.78,0
0.0056403,-0.0020535,0.056397,0.0096383,0.019811,-0.0046599,0,0,0.047562,-0.013224,0,-0.012116,0,0,0,0.056857,0.0091784,0.019811,-5.6361,0.028615,0.043351,3.3511e-06,0.13,0.78,0
0.0061183,-0.0021967,0.056587,0.0088851,0.019642,-0.0044236,0,0,0.048029,-0.013984,0,-0.011501,0,0,0,0.056994,0.0084783,0.019642,-5.2536,0.028371,0.044009,3.4464e-06,0.14,0.78,0
0.0066009,-0.0023358,0.056752,0.0081772,0.019479,-0.004182,0,0,0.048455,-0.014692,0,-0.010873,0,0,0,0.057109,0.0078197,0.019479,-4.885,0.028136,0.044617,3.5332e-06,0.15,0.78,0
0.0070874,-0.0024707,0.056891,0.0075143,0.019322,-0.0039378,0,0,0.04884,-0.01535,0,-0.010238,0,0,0,0.057203,0.0072022,0.019322,-4.5312,0.027909,0.045177,3.6117e-06,0.16,0.78,0
0.0075777,-0.0026013,0.057007,0.0068956,0.019171,-0.0036935,0,0,0.049187,-0.015958,0,-0.0096031,0,0,0,0.057278,0.0066248,0.019171,-4.1928,0.027691,0.045691,3.6822e-06,0.17,0.78,0
0.0080712,-0.0027274,0.057102,0.0063199,0.019026,-0.0034512,0,0,0.049498,-0.016518,0,-0.0089731,0,0,0,0.057335,0.0060864,0.019026,-3.8702,0.027483,0.04616,3.745e-06,0.18,0.78,0
0.0085676,-0.002849,0.057176,0.0057855,0.018888,-0.0032127,0,0,0.049774,-0.017034,0,-0.008353,0,0,0,0.057376,0.0055855,0.018888,-3.5634,0.027283,0.046586,3.8006e-06,0.19,0.78,0
0.0090667,-0.0029661,0.057233,0.0052907,0.018757,-0.0029796,0,0,0.050018,-0.017506,0,-0.0077469,0,0,0,0.057403,0.0051204,0.018757,-3.2724,0.027093,0.046973,3.8496e-06,0.2,0.78,0
0.009568,-0.0030787,0.057273,0.0048334,0.018632,-0.0027531,0,0,0.050233,-0.017938,0,-0.007158,0,0,0,0.057417,0.0046893,0.018632,-2.9971,0.026913,0.047323,3.8923e-06,0.21,0.78,0
0.010071,-0.0031867,0.057299,0.0044115,0.018513,-0.0025342,0,0,0.050422,-0.018332,0,-0.0065889,0,0,0,0.05742,0.0042903,0.018513,-2.737,0.026741,0.047638,3.9294e-06,0.22,0.78,0
0.010576,-0.0032904,0.057312,0.0040228,0.0184,-0.0023236,0,0,0.050585,-0.018691,0,-0.0060414,0,0,0,0.057413,0.0039217,0.0184,-2.492,0.026578,0.047922,3.9613e-06,0.23,0.78,0
0.011083,-0.0033896,0.057314,0.0036651,0.018294,-0.0021219,0,0,0.050727,-0.019017,0,-0.005517,0,0,0,0.057398,0.0035814,0.018294,-2.2614,0.026424,0.048176,3.9887e-06,0.24,0.78,0
0.011591,-0.0034846,0.057307,0.0033364,0.018193,-0.0019295,0,0,0.050848,-0.019314,0,-0.0050166,0,0,0,0.057376,0.0032675,0.018193,-2.0449,0.026279,0.048403,4.0118e-06,0.25,0.78,0
0.0121,-0.0035754,0.057292,0.0030346,0.018098,-0.0017465,0,0,0.050952,-0.019582,0,-0.0045409,0,0,0,0.057348,0.0029784,0.018098,-1.8418,0.026141,0.048606,4.0312e-06,0.26,0.78,0
0.01261,-0.0036622,0.057269,0.0027576,0.018008,-0.001573,0,0,0.05104,-0.019826,0,-0.0040899,0,0,0,0.057315,0.0027122,0.018008,-1.6515,0.026012,0.048787,4.0474e-06,0.27,0.78,0
0.013121,-0.003745,0.057242,0.0025036,0.017923,-0.0014091,0,0,0.051113,-0.020046,0,-0.0036636,0,0,0,0.057278,0.0024673,0.017923,-1.4736,0.025889,0.048948,4.0606e-06,0.28,0.78,0
0.013632,-0.003824,0.057209,0.0022707,0.017844,-0.0012545,0,0,0.051175,-0.020245,0,-0.0032618,0,0,0,0.057238,0.0022421,0.017844,-1.3075,0.025775,0.049091,4.0714e-06,0.29,0.78,0
0.014144,-0.0038992,0.057173,0.0020574,0.017769,-0.0011092,0,0,0.051225,-0.020425,0,-0.002884,0,0,0,0.057196,0.0020351,0.017769,-1.1525,0.025667,0.049217,4.0799e-06,0.3,0.78,0
0.014657,-0.0039709,0.057134,0.001862,0.017699,-0.00097289,0,0,0.051266,-0.020588,0,-0.0025295,0,0,0,0.057152,0.0018449,0.017699,-1.0081,0.025565,0.049329,4.0864e-06,0.31,0.78,0
0.01517,-0.0040392,0.057094,0.001683,0.017633,-0.00084527,0,0,0.051299,-0.020735,0,-0.0021977,0,0,0,0.057107,0.0016702,0.017633,-0.87375,0.02547,0.049428,4.0914e-06,0.32,0.78,0
0.015683,-0.0041041,0.057052,0.0015192,0.017571,-0.00072605,0,0,0.051324,-0.020868,0,-0.0018877,0,0,0,0.057061,0.0015097,0.017571,-0.74894,0.025381,0.049515,4.0949e-06,0.33,0.78,0
0.016196,-0.0041659,0.057008,0.0013692,0.017513,-0.00061492,0,0,0.051344,-0.020987,0,-0.0015988,0,0,0,0.057015,0.0013624,0.017513,-0.63313,0.025297,0.049591,4.0972e-06,0.34,0.78,0
0.01671,-0.0042246,0.056965,0.0012318,0.017459,-0.00051153,0,0,0.051358,-0.021095,0,-0.00133,0,0,0,0.05697,0.0012271,0.017459,-0.52582,0.025219,0.049658,4.0984e-06,0.35,0.78,0
0.017223,-0.0042804,0.056922,0.0011061,0.017408,-0.00041554,0,0,0.051367,-0.021193,0,-0.0010804,0,0,0,0.056925,0.001103,0.017408,-0.42653,0.025145,0.049717,4.0988e-06,0.36,0.78,0
0.017737,-0.0043334,0.056879,0.00099095,0.017361,-0.0003266,0,0,0.051373,-0.021281,0,-0.00084916,0,0,0,0.056881,0.00098904,0.017361,-0.33481,0.025077,0.049768,4.0985e-06,0.37,0.78,0
0.018251,-0.0043837,0.056836,0.00088552,0.017316,-0.00024436,0,0,0.051376,-0.02136,0,-0.00063533,0,0,0,0.056837,0.00088446,0.017316,-0.25023,0.025013,0.049813,4.0976e-06,0.38,0.78,0
0.018764,-0.0044314,0.056795,0.00078898,0.017275,-0.00016847,0,0,0.051375,-0.021432,0,-0.00043803,0,0,0,0.056795,0.00078848,0.017275,-0.17235,0.024953,0.049852,4.0962e-06,0.39,0.78,0
0.019278,-0.0044767,0.056754,0.00070057,0.017236,-9.8613e-05,0,0,0.051373,-0.021497,0,-0.00025639,0,0,0,0.056754,0.00070039,0.017236,-0.1008,0.024897,0.049886,4.0944e-06,0.4,0.78,0
0.019792,-0.0045195,0.056715,0.00061958,0.0172,-3.4446e-05,0,0,0.051369,-0.021555,0,-8.9559e-05,0,0,0,0.056715,0.00061956,0.0172,-0.035183,0.024845,0.049915,4.0923e-06,0.41,0.78,0
0.020306,-0.0045602,0.056677,0.00054539,0.017167,2.4343e-05,0,0,0.051363,-0.021608,0,6.3291e-05,0,0,0,0.056677,0.00054538,0.017167,0.024848,0.024796,0.04994,4.0899e-06,0.42,0.78,0
0.020819,-0.0045987,0.05664,0.00047742,0.017135,7.8059e-05,0,0,0.051356,-0.021655,0,0.00020295,0,0,0,0.05664,0.00047731,0.017135,0.079633,0.024751,0.049962,4.0874e-06,0.43,0.78,0
0.021333,-0.0046352,0.056605,0.00041514,0.017106,0.000127,0,0,0.051349,-0.021698,0,0.00033019,0,0,0,0.056606,0.00041485,0.017106,0.12949,0.024709,0.049981,4.0848e-06,0.44,0.78,0
0.021846,-0.0046697,0.056572,0.00035806,0.017079,0.00017144,0,0,0.05134,-0.021737,0,0.00044574,0,0,0,0.056572,0.00035754,0.017079,0.17474,0.02467,0.049997,4.0821e-06,0.45,0.78,0
0.02236,-0.0047024,0.05654,0.00030575,0.017054,0.00021165,0,0,0.051332,-0.021772,0,0.00055029,0,0,0,0.05654,0.00030495,0.017054,0.21564,0.024633,0.050011,4.0794e-06,0.46,0.78,0
0.022873,-0.0047332,0.056509,0.0002578,0.01703,0.00024789,0,0,0.051323,-0.021804,0,0.00064451,0,0,0,0.05651,0.00025671,0.01703,0.25249,0.024599,0.050022,4.0766e-06,0.47,0.78,0
0.023386,-0.0047624,0.05648,0.00021385,0.017008,0.0002804,0,0,0.051313,-0.021833,0,0.00072904,0,0,0,0.056481,0.00021246,0.017008,0.28552,0.024567,0.050032,4.0738e-06,0.48,0.78,0
0.023899,-0.00479,0.056453,0.00017357,0.016988,0.00030942,0,0,0.051304,-0.021859,0,0.00080449,0,0,0,0.056454,0.00017186,0.016988,0.315,0.024538,0.050041,4.0711e-06,0.49,0.78,0
0.024412,-0.0048161,0.056427,0.00013664,0.016969,0.00033516,0,0,0.051295,-0.021882,0,0.00087142,0,0,0,0.056429,0.00013464,0.016969,0.34113,0.024511,0.050047,4.0685e-06,0.5,0.78,0
0.024925,-0.0048407,0.056402,0.00010279,0.016952,0.00035783,0,0,0.051286,-0.021903,0,0.00093037,0,0,0,0.056405,0.00010051,0.016952,0.36415,0.024486,0.050053,4.0659e-06,0.51,0.78,0
0.025438,-0.0048639,0.056379,7.1762e-05,0.016935,0.00037764,0,0,0.051277,-0.021923,0,0.00098186,0,0,0,0.056382,6.9229e-05,0.016935,0.38425,0.024462,0.050058,4.0634e-06,0.52,0.78,0
0.025951,-0.0048859,0.056357,4.3331e-05,0.01692,0.00039476,0,0,0.051268,-0.02194,0,0.0010264,0,0,0,0.05636,4.0563e-05,0.01692,0.40162,0.02444,0.050062,4.061e-06,0.53,0.78,0
0.026463,-0.0049065,0.056337,1.7281e-05,0.016906,0.00040938,0,0,0.05126,-0.021956,0,0.0010644,0,0,0,0.05634,1.4305e-05,0.016906,0.41644,0.02442,0.050065,4.0586e-06,0.54,0.78,0
0.026976,-0.004926,0.056318,-6.582e-06,0.016893,0.00042165,0,0,0.051252,-0.02197,0,0.0010963,0,0,0,0.056321,-9.7384e-06,0.016893,0.42889,0.024402,0.050067,4.0564e-06,0.55,0.78,0
0.027488,-0.0049444,0.0563,-2.8434e-05,0.016882,0.00043175,0,0,0.051244,-0.021983,0,0.0011225,0,0,0,0.056303,-3.1743e-05,0.016882,0.43913,0.024384,0.050069,4.0543e-06,0.56,0.78,0
0.028001,-0.0049617,0.056283,-4.8439e-05,0.016871,0.0004398,0,0,0.051237,-0.021995,0,0.0011435,0,0,0,0.056287,-5.1872e-05,0.016871,0.44729,0.024369,0.05007,4.0523e-06,0.57,0.78,0
0.028513,-0.004978,0.056268,-6.6743e-05,0.01686,0.00044596,0,0,0.05123,-0.022005,0,0.0011595,0,0,0,0.056271,-7.0273e-05,0.01686,0.45354,0.024354,0.050071,4.0503e-06,0.58,0.78,0
0.029025,-0.0049933,0.056253,-8.3484e-05,0.016851,0.00045036,0,0,0.051223,-0.022015,0,0.0011709,0,0,0,0.056257,-8.7084e-05,0.016851,0.45799,0.02434,0.050072,4.0485e-06,0.59,0.78,0
0.029537,-0.0050077,0.05624,-9.8786e-05,0.016842,0.00045311,0,0,0.051217,-0.022023,0,0.0011781,0,0,0,0.056243,-0.00010243,0.016842,0.46077,0.024328,0.050072,4.0467e-06,0.6,0.78,0
0.030049,-0.0050212,0.056227,-0.00011276,0.016834,0.00045434,0,0,0.051211,-0.022031,0,0.0011813,0,0,0,0.056231,-0.00011643,0.016834,0.46201,0.024316,0.050072,4.0451e-06,0.61,0.78,0
0.030562,-0.005034,0.056215,-0.00012552,0.016827,0.00045415,0,0,0.051205,-0.022038,0,0.0011808,0,0,0,0.056219,-0.00012918,0.016827,0.4618,0.024306,0.050072,4.0436e-06,0.62,0.78,0
0.031074,-0.0050459,0.056204,-0.00013716,0.01682,0.00045264,0,0,0.0512,-0.022045,0,0.0011769,0,0,0,0.056208,-0.00014079,0.01682,0.46026,0.024296,0.050071,4.0421e-06,0.63,0.78,0
0.031586,-0.0050572,0.056194,-0.00014776,0.016814,0.00044991,0,0,0.051194,-0.02205,0,0.0011698,0,0,0,0.056198,-0.00015135,0.016814,0.45749,0.024287,0.050071,4.0407e-06,0.64,0.78,0
0.032098,-0.0050677,0.056185,-0.00015741,0.016808,0.00044605,0,0,0.05119,-0.022055,0,0.0011597,0,0,0,0.056189,-0.00016094,0.016808,0.45356,0.024279,0.05007,4.0394e-06,0.65,0.78,0
0.032609,-0.0050776,0.056176,-0.00016619,0.016803,0.00044115,0,0,0.051185,-0.02206,0,0.001147,0,0,0,0.05618,-0.00016964,0.016803,0.44858,0.024271,0.050069,4.0382e-06,0.66,0.78,0
0.033121,-0.0050868,0.056169,-0.00017415,0.016798,0.00043528,0,0,0.051181,-0.022064,0,0.0011317,0,0,0,0.056172,-0.00017751,0.016798,0.44261,0.024264,0.050069,4.0371e-06,0.67,0.78,0
0.033633,-0.0050955,0.056161,-0.00018138,0.016794,0.00042852,0,0,0.051177,-0.022068,0,0.0011141,0,0,0,0.056164,-0.00018464,0.016794,0.43573,0.024258,0.050068,4.036e-06,0.68,0.78,0
0.034145,-0.0051036,0.056154,-0.00018792,0.01679,0.00042093,0,0,0.051174,-0.022071,0,0.0010944,0,0,0,0.056157,-0.00019107,0.01679,0.42802,0.024252,0.050067,4.035e-06,0.69,0.78,0
0.034656,-0.0051112,0.056148,-0.00019384,0.016786,0.00041258,0,0,0.05117,-0.022074,0,0.0010727,0,0,0,0.056151,-0.00019686,0.016786,0.41954,0.024247,0.050066,4.0341e-06,0.7,0.78,0
0.035168,-0.0051183,0.056142,-0.00019918,0.016783,0.00040353,0,0,0.051167,-0.022077,0,0.0010492,0,0,0,0.056145,-0.00020206,0.016783,0.41034,0.024242,0.050064,4.0332e-06,0.71,0.78,0
0.03568,-0.0051249,0.056137,-0.00020398,0.01678,0.00039384,0,0,0.051164,-0.022079,0,0.001024,0,0,0,0.05614,-0.00020674,0.01678,0.40049,0.024238,0.050063,4.0324e-06,0.72,0.78,0
0.036192,-0.005131,0.056132,-0.00020831,0.016777,0.00038356,0,0,0.051162,-0.022081,0,0.00099725,0,0,0,0.056135,-0.00021092,0.016777,0.39004,0.024234,0.050062,4.0317e-06,0.73,0.78,0
0.036703,-0.0051368,0.056128,-0.00021218,0.016775,0.00037273,0,0,0.051159,-0.022083,0,0.00096911,0,0,0,0.05613,-0.00021465,0.016775,0.37903,0.02423,0.050061,4.031e-06,0.74,0.78,0
0.037215,-0.0051422,0.056124,-0.00021566,0.016772,0.00036141,0,0,0.051157,-0.022085,0,0.00093967,0,0,0,0.056126,-0.00021797,0.016772,0.36752,0.024227,0.05006,4.0304e-06,0.75,0.78,0
0.037726,-0.0051472,0.05612,-0.00021876,0.01677,0.00034963,0,0,0.051155,-0.022086,0,0.00090904,0,0,0,0.056122,-0.00022092,0.01677,0.35555,0.024224,0.050059,4.0297e-06,0.76,0.78,0
0.038238,-0.0051518,0.056117,-0.00022151,0.016769,0.00033744,0,0,0.051153,-0.022087,0,0.00087734,0,0,0,0.056119,-0.00022353,0.016769,0.34315,0.024221,0.050058,4.0292e-06,0.77,0.78,0
0.038749,-0.0051561,0.056114,-0.00022396,0.016767,0.00032486,0,0,0.051151,-0.022088,0,0.00084464,0,0,0,0.056116,-0.00022584,0.016767,0.33037,0.024219,0.050057,4.0287e-06,0.78,0.78,0
0.039261,-0.0051601,0.056111,-0.00022613,0.016765,0.00031194,0,0,0.051149,-0.022089,0,0.00081105,0,0,0,0.056113,-0.00022786,0.016765,0.31724,0.024217,0.050056,4.0282e-06,0.79,0.78,0
0.039772,-0.0051638,0.056108,-0.00022804,0.016764,0.00029871,0,0,0.051148,-0.02209,0,0.00077664,0,0,0,0.05611,-0.00022963,0.016764,0.30378,0.024215,0.050055,4.0277e-06,0.8,0.78,0
0.040284,-0.0051672,0.056106,-0.00022972,0.016763,0.00028519,0,0,0.051146,-0.02209,0,0.00074149,0,0,0,0.056107,-0.00023117,0.016763,0.29004,0.024213,0.050054,4.0273e-06,0.81,0.78,0
0.040795,-0.0051704,0.056104,-0.0002312,0.016762,0.00027141,0,0,0.051145,-0.022091,0,0.00070566,0,0,0,0.056105,-0.0002325,0.016762,0.27603,0.024212,0.050053,4.027e-06,0.82,0.78,0
0.041307,-0.0051733,0.056102,-0.00023248,0.016761,0.00025739,0,0,0.051144,-0.022091,0,0.00066923,0,0,0,0.056103,-0.00023366,0.016761,0.26178,0.02421,0.050052,4.0266e-06,0.83,0.78,0
0.041818,-0.005176,0.0561,-0.00023359,0.01676,0.00024317,0,0,0.051143,-0.022092,0,0.00063224,0,0,0,0.056101,-0.00023464,0.01676,0.24732,0.024209,0.050052,4.0263e-06,0.84,0.78,0
0.042329,-0.0051785,0.056099,-0.00023456,0.016759,0.00022876,0,0,0.051141,-0.022092,0,0.00059476,0,0,0,0.0561,-0.00023549,0.016759,0.23266,0.024208,0.050051,4.026e-06,0.85,0.78,0
0.042841,-0.0051807,0.056098,-0.00023539,0.016759,0.00021417,0,0,0.05114,-0.022092,0,0.00055684,0,0,0,0.056098,-0.0002362,0.016759,0.21783,0.024207,0.05005,4.0257e-06,0.86,0.78,0
0.043352,-0.0051827,0.056096,-0.0002361,0.016758,0.00019943,0,0,0.05114,-0.022092,0,0.00051852,0,0,0,0.056097,-0.00023681,0.016758,0.20284,0.024206,0.050049,4.0255e-06,0.87,0.78,0
0.043864,-0.0051846,0.056095,-0.00023671,0.016758,0.00018456,0,0,0.051139,-0.022093,0,0.00047984,0,0,0,0.056096,-0.00023731,0.016758,0.18771,0.024205,0.050049,4.0253e-06,0.88,0.78,0
0.044375,-0.0051863,0.056094,-0.00023722,0.016757,0.00016956,0,0,0.051138,-0.022093,0,0.00044085,0,0,0,0.056095,-0.00023773,0.016757,0.17246,0.024205,0.050048,4.0251e-06,0.89,0.78,0
0.044886,-0.0051878,0.056093,-0.00023765,0.016757,0.00015446,0,0,0.051138,-0.022093,0,0.00040158,0,0,0,0.056094,-0.00023807,0.016757,0.1571,0.024204,0.050048,4.0249e-06,0.9,0.78,0
0.045398,-0.0051891,0.056093,-0.00023801,0.016756,0.00013926,0,0,0.051137,-0.022093,0,0.00036207,0,0,0,0.056093,-0.00023835,0.016756,0.14164,0.024204,0.050047,4.0247e-06,0.91,0.78,0
0.045909,-0.0051903,0.056092,-0.00023831,0.016756,0.00012398,0,0,0.051137,-0.022093,0,0.00032234,0,0,0,0.056092,-0.00023858,0.016756,0.1261,0.024203,0.050047,4.0246e-06,0.92,0.78,0
0.046421,-0.0051913,0.056091,-0.00023855,0.016756,0.00010863,0,0,0.051136,-0.022093,0,0.00028243,0,0,0,0.056092,-0.00023876,0.016756,0.11049,0.024203,0.050046,4.0245e-06,0.93,0.78,0
0.046932,-0.0051922,0.056091,-0.00023875,0.016756,9.3216e-05,0,0,0.051136,-0.022093,0,0.00024236,0,0,0,0.056091,-0.0002389,0.016756,0.094814,0.024203,0.050046,4.0244e-06,0.94,0.78,0
0.047443,-0.0051929,0.056091,-0.0002389,0.016755,7.7754e-05,0,0,0.051136,-0.022093,0,0.00020216,0,0,0,0.056091,-0.00023901,0.016755,0.079088,0.024202,0.050045,4.0243e-06,0.95,0.78,0
0.047955,-0.0051935,0.05609,-0.00023902,0.016755,6.2252e-05,0,0,0.051135,-0.022093,0,0.00016185,0,0,0,0.05609,-0.00023909,0.016755,0.06332,0.024202,0.050045,4.0242e-06,0.96,0.78,0
0.048466,-0.005194,0.05609,-0.00023911,0.016755,4.6717e-05,0,0,0.051135,-0.022093,0,0.00012146,0,0,0,0.05609,-0.00023915,0.016755,0.047518,0.024202,0.050045,4.0242e-06,0.97,0.78,0
0.048977,-0.0051943,0.05609,-0.00023917,0.016755,3.1158e-05,0,0,0.051135,-0.022093,0,8.101e-05,0,0,0,0.05609,-0.00023919,0.016755,0.031692,0.024202,0.050045,4.0241e-06,0.98,0.78,0
0.049489,-0.0051945,0.05609,-0.00023921,0.016755,1.5583e-05,0,0,0.051135,-0.022093,0,4.0515e-05,0,0,0,0.05609,-0.00023921,0.016755,0.01585,0.024202,0.050045,4.0241e-06,0.99,0.78,0
0.05,-0.0051946,0.05609,-0.00023922,0.016755,-2.5042e-06,0,0,0.051135,-0.022093,0,-6.511e-06,0,0,0,0.05609,-0.00023922,0.016755,-0.0025472,0.024202,0.050045,4.0241e-06,1,0.78,0
0,0,0.052555,0.022524,0.022524,-0.0065003,0,0,0.039041,1.0842e-19,0,-0.016901,0,0,0,0.053902,0.021177,0.022524,-11.704,0.032534,0.032072,1.6844e-06,0,0.79,0
0.00039041,-0.00016901,0.05245,0.021259,0.022113,-0.0064976,0,0,0.039439,-0.0011099,0,-0.016894,0,0,0,0.053749,0.01996,0.022113,-11.309,0.03194,0.032766,1.7805e-06,0.01,0.79,0
0.00078877,-0.00033999,0.052874,0.020201,0.021923,-0.0065159,0,0,0.040237,-0.0022377,0,-0.016941,0,0,0,0.054126,0.01895,0.021923,-10.872,0.031666,0.033788,1.9294e-06,0.02,0.79,0
0.0011952,-0.00051245,0.053296,0.019132,0.021728,-0.0065057,0,0,0.041038,-0.0033756,0,-0.016915,0,0,0,0.054493,0.017935,0.021728,-10.425,0.031385,0.034817,2.0811e-06,0.03,0.79,0
0.0016095,-0.00068581,0.053712,0.018058,0.021531,-0.0064649,0,0,0.041835,-0.0045151,0,-0.016809,0,0,0,0.054848,0.016922,0.021531,-9.9665,0.0311,0.035844,2.234e-06,0.04,0.79,0
0.0020318,-0.00085947,0.054116,0.016987,0.021331,-0.0063924,0,0,0.042621,-0.0056471,0,-0.01662,0,0,0,0.055186,0.015917,0.021331,-9.5001,0.030811,0.036861,2.3864e-06,0.05,0.79,0
0.002462,-0.0010328,0.054505,0.015928,0.02113,-0.0062882,0,0,0.043388,-0.0067627,0,-0.016349,0,0,0,0.055505,0.014929,0.02113,-9.0281,0.030521,0.037858,2.5365e-06,0.06,0.79,0
0.0028996,-0.0012051,0.054876,0.014888,0.020929,-0.0061534,0,0,0.044131,-0.0078532,0,-0.015999,0,0,0,0.055801,0.013963,0.020929,-8.5534,0.030231,0.038827,2.6829e-06,0.07,0.79,0
0.0033446,-0.0013759,0.055223,0.013875,0.02073,-0.0059901,0,0,0.044842,-0.0089107,0,-0.015574,0,0,0,0.056074,0.013025,0.02073,-8.0792,0.029943,0.03976,2.824e-06,0.08,0.79,0
0.0037964,-0.0015445,0.055546,0.012895,0.020532,-0.005801,0,0,0.045518,-0.0099285,0,-0.015083,0,0,0,0.056321,0.01212,0.020532,-7.6088,0.029658,0.040653,2.9587e-06,0.09,0.79,0
0.0042549,-0.0017104,0.055841,0.011953,0.020338,-0.0055895,0,0,0.046154,-0.010901,0,-0.014533,0,0,0,0.056541,0.011252,0.020338,-7.1451,0.029377,0.041499,3.0858e-06,0.1,0.79,0
0.0047195,-0.0018731,0.056107,0.011053,0.020148,-0.0053592,0,0,0.046747,-0.011824,0,-0.013934,0,0,0,0.056736,0.010424,0.020148,-6.691,0.029102,0.042296,3.2046e-06,0.11,0.79,0
0.0051898,-0.0020321,0.056344,0.010198,0.019963,-0.005114,0,0,0.047296,-0.012694,0,-0.013296,0,0,0,0.056904,0.0096381,0.019963,-6.2487,0.028835,0.043042,3.3147e-06,0.12,0.79,0
0.0056654,-0.0021871,0.056551,0.0093905,0.019783,-0.0048578,0,0,0.0478,-0.01351,0,-0.01263,0,0,0,0.057047,0.0088953,0.019783,-5.8203,0.028575,0.043736,3.4158e-06,0.13,0.79,0
0.0061458,-0.0023379,0.056731,0.0086312,0.019609,-0.004594,0,0,0.048259,-0.014271,0,-0.011945,0,0,0,0.057166,0.0081964,0.019609,-5.4073,0.028324,0.044378,3.5078e-06,0.14,0.79,0
0.0066306,-0.0024841,0.056883,0.0079203,0.019441,-0.0043262,0,0,0.048674,-0.014977,0,-0.011248,0,0,0,0.057262,0.0075409,0.019441,-5.0108,0.028081,0.044968,3.5908e-06,0.15,0.79,0
0.0071193,-0.0026255,0.057008,0.0072571,0.01928,-0.0040574,0,0,0.049048,-0.015629,0,-0.010549,0,0,0,0.057337,0.0069283,0.01928,-4.6319,0.027848,0.045508,3.6652e-06,0.16,0.79,0
0.0076116,-0.0027622,0.05711,0.0066405,0.019125,-0.0037902,0,0,0.049381,-0.01623,0,-0.0098546,0,0,0,0.057393,0.0063574,0.019125,-4.2709,0.027625,0.046001,3.7313e-06,0.17,0.79,0
0.0081069,-0.0028939,0.05719,0.0060689,0.018978,-0.003527,0,0,0.049676,-0.016782,0,-0.0091701,0,0,0,0.057432,0.0058267,0.018978,-3.9281,0.027412,0.046448,3.7896e-06,0.18,0.79,0
0.0086051,-0.0030206,0.05725,0.0055403,0.018837,-0.0032695,0,0,0.049937,-0.017286,0,-0.0085007,0,0,0,0.057456,0.0053344,0.018837,-3.6036,0.027209,0.046853,3.8407e-06,0.19,0.79,0
0.0091057,-0.0031423,0.057292,0.0050526,0.018703,-0.0030194,0,0,0.050165,-0.017746,0,-0.0078503,0,0,0,0.057466,0.0048787,0.018703,-3.297,0.027016,0.047218,3.8851e-06,0.2,0.79,0
0.0096084,-0.0032592,0.057317,0.0046035,0.018576,-0.0027778,0,0,0.050363,-0.018165,0,-0.0072222,0,0,0,0.057463,0.0044575,0.018576,-3.0081,0.026832,0.047546,3.9234e-06,0.21,0.79,0
0.010113,-0.0033711,0.057329,0.0041906,0.018456,-0.0025457,0,0,0.050535,-0.018545,0,-0.0066187,0,0,0,0.057451,0.0040689,0.018456,-2.7365,0.026659,0.04784,3.9561e-06,0.22,0.79,0
0.010619,-0.0034783,0.057329,0.0038115,0.018342,-0.0023236,0,0,0.050683,-0.01889,0,-0.0060415,0,0,0,0.05743,0.0037108,0.018342,-2.4815,0.026494,0.048102,3.9838e-06,0.23,0.79,0
0.011127,-0.0035807,0.057318,0.0034637,0.018235,-0.0021121,0,0,0.050809,-0.019202,0,-0.0054916,0,0,0,0.057401,0.003381,0.018235,-2.2425,0.026339,0.048336,4.0072e-06,0.24,0.79,0
0.011635,-0.0036786,0.057299,0.0031452,0.018133,-0.0019114,0,0,0.050915,-0.019484,0,-0.0049696,0,0,0,0.057366,0.0030778,0.018133,-2.0189,0.026192,0.048544,4.0265e-06,0.25,0.79,0
0.012145,-0.003772,0.057272,0.0028535,0.018038,-0.0017215,0,0,0.051005,-0.01974,0,-0.0044758,0,0,0,0.057327,0.0027991,0.018038,-1.8101,0.026055,0.048729,4.0424e-06,0.26,0.79,0
0.012655,-0.0038611,0.05724,0.0025866,0.017948,-0.0015423,0,0,0.051079,-0.01997,0,-0.00401,0,0,0,0.057283,0.0025432,0.017948,-1.6152,0.025925,0.048893,4.0552e-06,0.27,0.79,0
0.013166,-0.0039461,0.057202,0.0023426,0.017863,-0.0013738,0,0,0.05114,-0.020177,0,-0.0035719,0,0,0,0.057237,0.0023082,0.017863,-1.4336,0.025803,0.049037,4.0654e-06,0.28,0.79,0
0.013678,-0.004027,0.057161,0.0021196,0.017784,-0.0012157,0,0,0.05119,-0.020364,0,-0.0031607,0,0,0,0.057188,0.0020927,0.017784,-1.2646,0.025688,0.049165,4.0733e-06,0.29,0.79,0
0.01419,-0.004104,0.057117,0.0019158,0.01771,-0.0010676,0,0,0.051229,-0.020532,0,-0.0027758,0,0,0,0.057138,0.0018951,0.01771,-1.1076,0.025581,0.049277,4.0791e-06,0.3,0.79,0
0.014703,-0.0041773,0.057071,0.0017296,0.01764,-0.0009293,0,0,0.05126,-0.020684,0,-0.0024162,0,0,0,0.057086,0.001714,0.01764,-0.96176,0.02548,0.049375,4.0833e-06,0.31,0.79,0
0.015215,-0.004247,0.057024,0.0015595,0.017575,-0.00080037,0,0,0.051283,-0.02082,0,-0.002081,0,0,0,0.057035,0.0015479,0.017575,-0.82657,0.025386,0.049461,4.086e-06,0.32,0.79,0
0.015728,-0.0043132,0.056975,0.0014041,0.017514,-0.00068042,0,0,0.0513,-0.020943,0,-0.0017691,0,0,0,0.056984,0.0013958,0.017514,-0.70139,0.025298,0.049536,4.0876e-06,0.33,0.79,0
0.016241,-0.0043761,0.056927,0.0012622,0.017457,-0.00056903,0,0,0.051312,-0.021053,0,-0.0014795,0,0,0,0.056933,0.0012564,0.017457,-0.58562,0.025215,0.049602,4.088e-06,0.34,0.79,0
0.016755,-0.0044359,0.056879,0.0011326,0.017404,-0.0004658,0,0,0.051319,-0.021152,0,-0.0012111,0,0,0,0.056883,0.0011287,0.017404,-0.4787,0.025139,0.049659,4.0877e-06,0.35,0.79,0
0.017268,-0.0044926,0.056832,0.0010142,0.017354,-0.00037031,0,0,0.051321,-0.021241,0,-0.00096282,0,0,0,0.056834,0.0010118,0.017354,-0.3801,0.025067,0.049709,4.0866e-06,0.36,0.79,0
0.017781,-0.0045464,0.056785,0.00090611,0.017307,-0.00028216,0,0,0.051321,-0.021322,0,-0.00073362,0,0,0,0.056787,0.00090468,0.017307,-0.2893,0.025,0.049752,4.085e-06,0.37,0.79,0
0.018294,-0.0045975,0.05674,0.0008073,0.017264,-0.00020094,0,0,0.051319,-0.021394,0,-0.00052246,0,0,0,0.056741,0.00080658,0.017264,-0.20584,0.024937,0.049789,4.0829e-06,0.38,0.79,0
0.018807,-0.0046459,0.056696,0.00071702,0.017224,-0.00012627,0,0,0.051314,-0.021459,0,-0.00032831,0,0,0,0.056696,0.00071674,0.017224,-0.12924,0.024879,0.049821,4.0805e-06,0.39,0.79,0
0.019321,-0.0046917,0.056654,0.00063451,0.017186,-5.7772e-05,0,0,0.051307,-0.021517,0,-0.00015021,0,0,0,0.056654,0.00063446,0.017186,-0.059089,0.024825,0.049849,4.0778e-06,0.4,0.79,0
0.019834,-0.0047352,0.056613,0.0005591,0.017152,4.9205e-06,0,0,0.051299,-0.02157,0,1.2793e-05,0,0,0,0.056613,0.0005591,0.017152,0.0050295,0.024774,0.049872,4.0749e-06,0.41,0.79,0
0.020347,-0.0047763,0.056573,0.00049016,0.017119,6.2152e-05,0,0,0.051291,-0.021618,0,0.00016159,0,0,0,0.056573,0.00049009,0.017119,0.063495,0.024727,0.049892,4.0719e-06,0.42,0.79,0
0.020859,-0.0048153,0.056536,0.00042712,0.017089,0.00011425,0,0,0.051281,-0.02166,0,0.00029706,0,0,0,0.056536,0.00042689,0.017089,0.11667,0.024684,0.04991,4.0688e-06,0.43,0.79,0
0.021372,-0.0048522,0.0565,0.00036947,0.017061,0.00016154,0,0,0.051271,-0.021699,0,0.00042001,0,0,0,0.056501,0.00036901,0.017061,0.16489,0.024643,0.049924,4.0657e-06,0.44,0.79,0
0.021885,-0.0048871,0.056466,0.00031675,0.017035,0.00020432,0,0,0.051261,-0.021734,0,0.00053122,0,0,0,0.056467,0.000316,0.017035,0.20848,0.024606,0.049937,4.0626e-06,0.45,0.79,0
0.022397,-0.00492,0.056434,0.00026852,0.017011,0.00024286,0,0,0.05125,-0.021765,0,0.00063144,0,0,0,0.056435,0.00026747,0.017011,0.24774,0.024571,0.049947,4.0595e-06,0.46,0.79,0
0.02291,-0.0049512,0.056404,0.0002244,0.016988,0.00027745,0,0,0.05124,-0.021793,0,0.00072137,0,0,0,0.056405,0.00022303,0.016988,0.28296,0.024539,0.049956,4.0565e-06,0.47,0.79,0
0.023422,-0.0049807,0.056375,0.00018404,0.016968,0.00030834,0,0,0.05123,-0.021819,0,0.00080167,0,0,0,0.056377,0.00018234,0.016968,0.31439,0.024509,0.049963,4.0536e-06,0.48,0.79,0
0.023934,-0.0050085,0.056348,0.0001471,0.016949,0.00033576,0,0,0.05122,-0.021842,0,0.00087298,0,0,0,0.05635,0.0001451,0.016949,0.34228,0.024481,0.049969,4.0507e-06,0.49,0.79,0
0.024447,-0.0050348,0.056323,0.00011331,0.016931,0.00035995,0,0,0.05121,-0.021863,0,0.00093587,0,0,0,0.056325,0.00011101,0.016931,0.36689,0.024456,0.049974,4.0479e-06,0.5,0.79,0
0.024959,-0.0050596,0.056299,8.2396e-05,0.016914,0.00038112,0,0,0.0512,-0.021882,0,0.00099091,0,0,0,0.056302,7.9813e-05,0.016914,0.38841,0.024432,0.049978,4.0453e-06,0.51,0.79,0
0.025471,-0.0050831,0.056277,5.4112e-05,0.016899,0.00039947,0,0,0.051191,-0.021899,0,0.0010386,0,0,0,0.05628,5.1274e-05,0.016899,0.40707,0.02441,0.049982,4.0428e-06,0.52,0.79,0
0.025982,-0.0051051,0.056256,2.8239e-05,0.016885,0.00041519,0,0,0.051182,-0.021914,0,0.0010795,0,0,0,0.056259,2.5174e-05,0.016885,0.42305,0.02439,0.049984,4.0404e-06,0.53,0.79,0
0.026494,-0.005126,0.056237,4.5757e-06,0.016872,0.00042847,0,0,0.051174,-0.021928,0,0.001114,0,0,0,0.05624,1.3111e-06,0.016872,0.43653,0.024371,0.049987,4.0382e-06,0.54,0.79,0
0.027006,-0.0051456,0.056219,-1.7062e-05,0.016861,0.00043946,0,0,0.051166,-0.021941,0,0.0011426,0,0,0,0.056223,-2.0496e-05,0.016861,0.4477,0.024354,0.049988,4.036e-06,0.55,0.79,0
0.027518,-0.0051641,0.056203,-3.6842e-05,0.01685,0.00044833,0,0,0.051159,-0.021953,0,0.0011657,0,0,0,0.056206,-4.0415e-05,0.01685,0.45671,0.024338,0.049989,4.034e-06,0.56,0.79,0
0.028029,-0.0051815,0.056187,-5.4916e-05,0.01684,0.00045522,0,0,0.051152,-0.021963,0,0.0011836,0,0,0,0.056191,-5.86e-05,0.01684,0.46371,0.024324,0.049991,4.0321e-06,0.57,0.79,0
0.028541,-0.0051979,0.056173,-7.1425e-05,0.016831,0.00046028,0,0,0.051145,-0.021972,0,0.0011967,0,0,0,0.056177,-7.5192e-05,0.016831,0.46884,0.024311,0.049991,4.0304e-06,0.58,0.79,0
0.029052,-0.0052133,0.05616,-8.6497e-05,0.016822,0.00046363,0,0,0.051139,-0.021981,0,0.0012054,0,0,0,0.056164,-9.0319e-05,0.016822,0.47223,0.024299,0.049992,4.0287e-06,0.59,0.79,0
0.029563,-0.0052278,0.056148,-0.00010025,0.016814,0.00046539,0,0,0.051134,-0.021989,0,0.00121,0,0,0,0.056152,-0.0001041,0.016814,0.47401,0.024287,0.049992,4.0272e-06,0.6,0.79,0
0.030075,-0.0052414,0.056137,-0.00011279,0.016807,0.00046569,0,0,0.051129,-0.021996,0,0.0012108,0,0,0,0.056141,-0.00011664,0.016807,0.4743,0.024277,0.049992,4.0258e-06,0.61,0.79,0
0.030586,-0.0052542,0.056127,-0.00012421,0.016801,0.00046462,0,0,0.051124,-0.022002,0,0.001208,0,0,0,0.05613,-0.00012805,0.016801,0.4732,0.024268,0.049992,4.0244e-06,0.62,0.79,0
0.031097,-0.0052662,0.056117,-0.00013461,0.016795,0.00046229,0,0,0.051119,-0.022008,0,0.001202,0,0,0,0.056121,-0.00013841,0.016795,0.47082,0.024259,0.049992,4.0232e-06,0.63,0.79,0
0.031608,-0.0052775,0.056109,-0.00014406,0.016789,0.00045879,0,0,0.051115,-0.022013,0,0.0011929,0,0,0,0.056113,-0.00014781,0.016789,0.46725,0.024251,0.049992,4.0221e-06,0.64,0.79,0
0.03212,-0.0052881,0.056101,-0.00015265,0.016785,0.00045421,0,0,0.051111,-0.022018,0,0.0011809,0,0,0,0.056105,-0.00015632,0.016785,0.46258,0.024244,0.049992,4.021e-06,0.65,0.79,0
0.032631,-0.005298,0.056094,-0.00016045,0.01678,0.00044863,0,0,0.051108,-0.022023,0,0.0011664,0,0,0,0.056098,-0.00016403,0.01678,0.4569,0.024238,0.049992,4.0201e-06,0.66,0.79,0
0.033142,-0.0053073,0.056088,-0.00016751,0.016776,0.00044213,0,0,0.051105,-0.022027,0,0.0011495,0,0,0,0.056091,-0.00017099,0.016776,0.45027,0.024232,0.049991,4.0192e-06,0.67,0.79,0
0.033653,-0.005316,0.056082,-0.0001739,0.016772,0.00043478,0,0,0.051102,-0.02203,0,0.0011304,0,0,0,0.056085,-0.00017726,0.016772,0.44278,0.024227,0.049991,4.0184e-06,0.68,0.79,0
0.034164,-0.0053241,0.056077,-0.00017968,0.016769,0.00042665,0,0,0.0511,-0.022033,0,0.0011093,0,0,0,0.05608,-0.00018291,0.016769,0.4345,0.024222,0.049991,4.0177e-06,0.69,0.79,0
0.034675,-0.0053317,0.056072,-0.00018488,0.016766,0.00041779,0,0,0.051097,-0.022036,0,0.0010863,0,0,0,0.056075,-0.00018799,0.016766,0.42548,0.024218,0.049991,4.017e-06,0.7,0.79,0
0.035186,-0.0053388,0.056067,-0.00018957,0.016763,0.00040827,0,0,0.051095,-0.022039,0,0.0010615,0,0,0,0.05607,-0.00019253,0.016763,0.41578,0.024214,0.04999,4.0164e-06,0.71,0.79,0
0.035697,-0.0053455,0.056064,-0.00019378,0.016761,0.00039815,0,0,0.051094,-0.022041,0,0.0010352,0,0,0,0.056066,-0.0001966,0.016761,0.40547,0.02421,0.04999,4.0159e-06,0.72,0.79,0
0.036207,-0.0053517,0.05606,-0.00019756,0.016759,0.00038746,0,0,0.051092,-0.022043,0,0.0010074,0,0,0,0.056063,-0.00020022,0.016759,0.39459,0.024207,0.04999,4.0154e-06,0.73,0.79,0
0.036718,-0.0053574,0.056057,-0.00020093,0.016757,0.00037627,0,0,0.05109,-0.022045,0,0.00097829,0,0,0,0.05606,-0.00020345,0.016757,0.38318,0.024204,0.049989,4.015e-06,0.74,0.79,0
0.037229,-0.0053628,0.056054,-0.00020394,0.016755,0.0003646,0,0,0.051089,-0.022047,0,0.00094797,0,0,0,0.056057,-0.0002063,0.016755,0.3713,0.024202,0.049989,4.0146e-06,0.75,0.79,0
0.03774,-0.0053678,0.056052,-0.00020662,0.016754,0.00035251,0,0,0.051088,-0.022048,0,0.00091652,0,0,0,0.056054,-0.00020883,0.016754,0.35899,0.0242,0.049989,4.0142e-06,0.76,0.79,0
0.038251,-0.0053725,0.05605,-0.00020899,0.016752,0.00034003,0,0,0.051087,-0.02205,0,0.00088407,0,0,0,0.056052,-0.00021105,0.016752,0.34628,0.024198,0.049989,4.0139e-06,0.77,0.79,0
0.038762,-0.0053768,0.056048,-0.00021109,0.016751,0.00032719,0,0,0.051086,-0.022051,0,0.00085069,0,0,0,0.05605,-0.000213,0.016751,0.3332,0.024196,0.049988,4.0136e-06,0.78,0.79,0
0.039273,-0.0053808,0.056046,-0.00021294,0.01675,0.00031403,0,0,0.051085,-0.022052,0,0.00081647,0,0,0,0.056048,-0.0002147,0.01675,0.3198,0.024195,0.049988,4.0133e-06,0.79,0.79,0
0.039784,-0.0053845,0.056045,-0.00021457,0.016749,0.00030057,0,0,0.051085,-0.022053,0,0.00078149,0,0,0,0.056046,-0.00021617,0.016749,0.3061,0.024193,0.049988,4.0131e-06,0.8,0.79,0
0.040294,-0.005388,0.056044,-0.00021599,0.016748,0.00028685,0,0,0.051084,-0.022054,0,0.00074581,0,0,0,0.056045,-0.00021745,0.016748,0.29212,0.024192,0.049988,4.0129e-06,0.81,0.79,0
0.040805,-0.0053911,0.056043,-0.00021722,0.016748,0.00027289,0,0,0.051083,-0.022054,0,0.00070951,0,0,0,0.056044,-0.00021855,0.016748,0.27791,0.024191,0.049988,4.0127e-06,0.82,0.79,0
0.041316,-0.0053941,0.056042,-0.00021829,0.016747,0.00025871,0,0,0.051083,-0.022055,0,0.00067264,0,0,0,0.056043,-0.00021948,0.016747,0.26347,0.02419,0.049987,4.0126e-06,0.83,0.79,0
0.041827,-0.0053967,0.056041,-0.00021922,0.016747,0.00024433,0,0,0.051083,-0.022055,0,0.00063527,0,0,0,0.056042,-0.00022028,0.016747,0.24882,0.024189,0.049987,4.0124e-06,0.84,0.79,0
0.042338,-0.0053992,0.05604,-0.00022001,0.016746,0.00022978,0,0,0.051082,-0.022056,0,0.00059743,0,0,0,0.056041,-0.00022095,0.016746,0.23401,0.024189,0.049987,4.0123e-06,0.85,0.79,0
0.042849,-0.0054014,0.05604,-0.00022068,0.016746,0.00021507,0,0,0.051082,-0.022056,0,0.00055919,0,0,0,0.056041,-0.0002215,0.016746,0.21903,0.024188,0.049987,4.0122e-06,0.86,0.79,0
0.043359,-0.0054035,0.056039,-0.00022125,0.016745,0.00020022,0,0,0.051082,-0.022057,0,0.00052058,0,0,0,0.05604,-0.00022197,0.016745,0.2039,0.024188,0.049987,4.0121e-06,0.87,0.79,0
0.04387,-0.0054053,0.056039,-0.00022174,0.016745,0.00018525,0,0,0.051082,-0.022057,0,0.00048164,0,0,0,0.056039,-0.00022235,0.016745,0.18865,0.024187,0.049987,4.012e-06,0.88,0.79,0
0.044381,-0.005407,0.056038,-0.00022214,0.016745,0.00017016,0,0,0.051082,-0.022057,0,0.00044241,0,0,0,0.056039,-0.00022265,0.016745,0.17329,0.024187,0.049987,4.012e-06,0.89,0.79,0
0.044892,-0.0054085,0.056038,-0.00022247,0.016745,0.00015497,0,0,0.051082,-0.022057,0,0.00040293,0,0,0,0.056039,-0.0002229,0.016745,0.15782,0.024187,0.049986,4.0119e-06,0.9,0.79,0
0.045403,-0.0054099,0.056038,-0.00022275,0.016745,0.0001397,0,0,0.051081,-0.022058,0,0.00036323,0,0,0,0.056038,-0.0002231,0.016745,0.14227,0.024187,0.049986,4.0119e-06,0.91,0.79,0
0.045914,-0.005411,0.056038,-0.00022297,0.016744,0.00012436,0,0,0.051081,-0.022058,0,0.00032332,0,0,0,0.056038,-0.00022325,0.016744,0.12664,0.024186,0.049986,4.0118e-06,0.92,0.79,0
0.046424,-0.0054121,0.056038,-0.00022316,0.016744,0.00010894,0,0,0.051081,-0.022058,0,0.00028325,0,0,0,0.056038,-0.00022337,0.016744,0.11095,0.024186,0.049986,4.0118e-06,0.93,0.79,0
0.046935,-0.0054129,0.056038,-0.0002233,0.016744,9.3478e-05,0,0,0.051081,-0.022058,0,0.00024304,0,0,0,0.056038,-0.00022346,0.016744,0.095197,0.024186,0.049986,4.0118e-06,0.94,0.79,0
0.047446,-0.0054137,0.056037,-0.00022341,0.016744,7.7966e-05,0,0,0.051081,-0.022058,0,0.00020271,0,0,0,0.056038,-0.00022352,0.016744,0.0794,0.024186,0.049986,4.0117e-06,0.95,0.79,0
0.047957,-0.0054143,0.056037,-0.0002235,0.016744,6.2417e-05,0,0,0.051081,-0.022058,0,0.00016228,0,0,0,0.056037,-0.00022357,0.016744,0.063565,0.024186,0.049986,4.0117e-06,0.96,0.79,0
0.048468,-0.0054147,0.056037,-0.00022356,0.016744,4.6838e-05,0,0,0.051081,-0.022058,0,0.00012178,0,0,0,0.056037,-0.0002236,0.016744,0.047699,0.024186,0.049986,4.0117e-06,0.97,0.79,0
0.048978,-0.0054151,0.056037,-0.0002236,0.016744,3.1237e-05,0,0,0.051081,-0.022058,0,8.1217e-05,0,0,0,0.056037,-0.00022362,0.016744,0.031812,0.024186,0.049986,4.0117e-06,0.98,0.79,0
0.049489,-0.0054153,0.056037,-0.00022363,0.016744,1.5622e-05,0,0,0.051081,-0.022058,0,4.0618e-05,0,0,0,0.056037,-0.00022363,0.016744,0.01591,0.024186,0.049986,4.0117e-06,0.99,0.79,0
0.05,-0.0054153,0.056037,-0.00022364,0.016744,-2.5047e-06,0,0,0.051081,-0.022058,0,-6.5121e-06,0,0,0,0.056037,-0.00022364,0.016744,-0.0025507,0.024186,0.049986,4.0117e-06,1,0.79,0
0,0,0.052705,0.022588,0.022588,-0.006932,0,0,0.039152,-3.2526e-19,0,-0.018023,0,0,0,0.054224,0.021069,0.022588,-12.359,0.032627,0.032422,1.7375e-06,0,0.8,0
0.00039152,-0.00018023,0.052598,0.021292,0.022167,-0.0069284,0,0,0.03956,-0.0011371,0,-0.018014,0,0,0,0.054063,0.019828,0.022167,-11.938,0.032019,0.033128,1.8358e-06,0.01,0.8,0
0.00079121,-0.00036264,0.053033,0.020205,0.021971,-0.0069469,0,0,0.04038,-0.0022958,0,-0.018062,0,0,0,0.054442,0.018796,0.021971,-11.47,0.031737,0.034169,1.9894e-06,0.02,0.8,0
0.0011991,-0.00054663,0.053465,0.019103,0.02177,-0.0069324,0,0,0.041203,-0.0034673,0,-0.018024,0,0,0,0.054811,0.017757,0.02177,-10.987,0.031446,0.035219,2.1457e-06,0.03,0.8,0
0.0016153,-0.00073155,0.05389,0.017995,0.021565,-0.0068823,0,0,0.042022,-0.0046418,0,-0.017894,0,0,0,0.055164,0.01672,0.021565,-10.49,0.03115,0.036265,2.3028e-06,0.04,0.8,0
0.0020395,-0.00091669,0.054303,0.01689,0.021358,-0.0067958,0,0,0.042829,-0.0058086,0,-0.017669,0,0,0,0.055499,0.015693,0.021358,-9.9826,0.03085,0.037297,2.4589e-06,0.05,0.8,0
0.0024718,-0.0011013,0.054699,0.015797,0.021149,-0.006673,0,0,0.043615,-0.0069575,0,-0.01735,0,0,0,0.055811,0.014684,0.021149,-9.4678,0.030548,0.038307,2.612e-06,0.06,0.8,0
0.0029119,-0.0012847,0.055073,0.014725,0.020939,-0.0065157,0,0,0.044374,-0.0080786,0,-0.016941,0,0,0,0.056099,0.013699,0.020939,-8.9496,0.030246,0.039283,2.7604e-06,0.07,0.8,0
0.0033593,-0.0014662,0.055422,0.013683,0.020732,-0.0063265,0,0,0.045098,-0.0091629,0,-0.016449,0,0,0,0.05636,0.012745,0.020732,-8.4322,0.029946,0.040221,2.9026e-06,0.08,0.8,0
0.0038138,-0.0016451,0.055743,0.012678,0.020526,-0.006109,0,0,0.045782,-0.010203,0,-0.015883,0,0,0,0.056593,0.011828,0.020526,-7.9195,0.029649,0.041112,3.0373e-06,0.09,0.8,0
0.0042749,-0.0018208,0.056034,0.011714,0.020324,-0.0058675,0,0,0.046422,-0.011193,0,-0.015255,0,0,0,0.056797,0.010951,0.020324,-7.4152,0.029357,0.041953,3.1634e-06,0.1,0.8,0
0.0047422,-0.0019927,0.056293,0.010797,0.020127,-0.0056064,0,0,0.047015,-0.012129,0,-0.014577,0,0,0,0.056973,0.010117,0.020127,-6.9226,0.029072,0.04274,3.2803e-06,0.11,0.8,0
0.0052153,-0.0021605,0.05652,0.0099299,0.019935,-0.0053303,0,0,0.04756,-0.013007,0,-0.013859,0,0,0,0.057122,0.0093278,0.019935,-6.4442,0.028795,0.043472,3.3876e-06,0.12,0.8,0
0.0056935,-0.0023237,0.056716,0.0091138,0.019749,-0.0050439,0,0,0.048057,-0.013826,0,-0.013114,0,0,0,0.057244,0.0085852,0.019749,-5.9825,0.028526,0.044149,3.4851e-06,0.13,0.8,0
0.0061764,-0.0024821,0.056881,0.0083497,0.019569,-0.0047511,0,0,0.048506,-0.014585,0,-0.012353,0,0,0,0.057342,0.007889,0.019569,-5.539,0.028267,0.044771,3.573e-06,0.14,0.8,0
0.0066636,-0.0026353,0.057018,0.0076374,0.019397,-0.0044559,0,0,0.048908,-0.015287,0,-0.011585,0,0,0,0.057417,0.0072385,0.019397,-5.1151,0.028017,0.045339,3.6514e-06,0.15,0.8,0
0.0071545,-0.0027833,0.057128,0.0069758,0.019231,-0.0041616,0,0,0.049266,-0.015932,0,-0.01082,0,0,0,0.057471,0.0066328,0.019231,-4.7115,0.027778,0.045856,3.7209e-06,0.16,0.8,0
0.0076489,-0.0029259,0.057213,0.0063633,0.019073,-0.0038711,0,0,0.049582,-0.016522,0,-0.010065,0,0,0,0.057506,0.0060703,0.019073,-4.3286,0.02755,0.046324,3.7819e-06,0.17,0.8,0
0.0081462,-0.003063,0.057276,0.0057979,0.018922,-0.0035867,0,0,0.04986,-0.017062,0,-0.0093254,0,0,0,0.057524,0.0055492,0.018922,-3.9665,0.027332,0.046746,3.8349e-06,0.18,0.8,0
0.0086461,-0.0031947,0.057319,0.0052773,0.018779,-0.0033103,0,0,0.050102,-0.017552,0,-0.0086068,0,0,0,0.057528,0.0050675,0.018779,-3.6251,0.027125,0.047126,3.8808e-06,0.19,0.8,0
0.0091482,-0.003321,0.057344,0.0047988,0.018643,-0.0030435,0,0,0.050311,-0.017997,0,-0.0079132,0,0,0,0.05752,0.0046231,0.018643,-3.304,0.026929,0.047466,3.92e-06,0.2,0.8,0
0.0096523,-0.003442,0.057354,0.0043599,0.018514,-0.0027874,0,0,0.050491,-0.0184,0,-0.0072472,0,0,0,0.0575,0.0042137,0.018514,-3.0026,0.026742,0.047769,3.9533e-06,0.21,0.8,0
0.010158,-0.0035576,0.05735,0.0039578,0.018392,-0.0025427,0,0,0.050645,-0.018765,0,-0.006611,0,0,0,0.057471,0.003837,0.018392,-2.7204,0.026567,0.048039,3.9813e-06,0.22,0.8,0
0.010665,-0.0036682,0.057335,0.00359,0.018277,-0.00231,0,0,0.050775,-0.019094,0,-0.006006,0,0,0,0.057434,0.0034909,0.018277,-2.4566,0.026401,0.048279,4.0045e-06,0.23,0.8,0
0.011173,-0.0037737,0.057311,0.0032538,0.018169,-0.0020895,0,0,0.050884,-0.01939,0,-0.0054327,0,0,0,0.057391,0.0031732,0.018169,-2.2103,0.026245,0.048491,4.0235e-06,0.24,0.8,0
0.011683,-0.0038743,0.057278,0.0029468,0.018068,-0.0018813,0,0,0.050974,-0.019657,0,-0.0048914,0,0,0,0.057343,0.0028817,0.018068,-1.9808,0.026098,0.048679,4.0388e-06,0.25,0.8,0
0.012193,-0.0039702,0.05724,0.0026667,0.017972,-0.0016853,0,0,0.051048,-0.019897,0,-0.0043819,0,0,0,0.057292,0.0026147,0.017972,-1.7672,0.025959,0.048844,4.0509e-06,0.26,0.8,0
0.012704,-0.0040616,0.057196,0.0024111,0.017882,-0.0015014,0,0,0.051108,-0.020112,0,-0.0039037,0,0,0,0.057237,0.00237,0.017882,-1.5686,0.02583,0.048989,4.0603e-06,0.27,0.8,0
0.013215,-0.0041485,0.057149,0.0021781,0.017798,-0.0013292,0,0,0.051156,-0.020306,0,-0.0034559,0,0,0,0.057181,0.002146,0.017798,-1.3843,0.025708,0.049117,4.0673e-06,0.28,0.8,0
0.013727,-0.0042312,0.057099,0.0019658,0.017719,-0.0011683,0,0,0.051193,-0.02048,0,-0.0030376,0,0,0,0.057124,0.001941,0.017719,-1.2134,0.025595,0.049228,4.0722e-06,0.29,0.8,0
0.014239,-0.0043099,0.057047,0.0017723,0.017646,-0.0010184,0,0,0.051222,-0.020636,0,-0.0026478,0,0,0,0.057066,0.0017535,0.017646,-1.0551,0.025488,0.049325,4.0755e-06,0.3,0.8,0
0.014751,-0.0043846,0.056994,0.001596,0.017577,-0.0008789,0,0,0.051242,-0.020775,0,-0.0022852,0,0,0,0.057008,0.001582,0.017577,-0.90871,0.025389,0.04941,4.0772e-06,0.31,0.8,0
0.015264,-0.0044556,0.05694,0.0014353,0.017513,-0.00074942,0,0,0.051256,-0.0209,0,-0.0019485,0,0,0,0.05695,0.0014252,0.017513,-0.77342,0.025296,0.049483,4.0778e-06,0.32,0.8,0
0.015776,-0.004523,0.056886,0.001289,0.017453,-0.00062944,0,0,0.051264,-0.021013,0,-0.0016366,0,0,0,0.056893,0.0012818,0.017453,-0.64856,0.025209,0.049547,4.0773e-06,0.33,0.8,0
0.016289,-0.004587,0.056833,0.0011556,0.017397,-0.00051847,0,0,0.051268,-0.021113,0,-0.001348,0,0,0,0.056838,0.0011508,0.017397,-0.53348,0.025129,0.049602,4.0761e-06,0.34,0.8,0
0.016802,-0.0046477,0.056781,0.0010341,0.017344,-0.00041602,0,0,0.051268,-0.021204,0,-0.0010817,0,0,0,0.056784,0.001031,0.017344,-0.42755,0.025053,0.049649,4.0741e-06,0.35,0.8,0
0.017315,-0.0047053,0.05673,0.00092338,0.017296,-0.00032162,0,0,0.051264,-0.021285,0,-0.00083621,0,0,0,0.056732,0.00092152,0.017296,-0.33019,0.024983,0.04969,4.0717e-06,0.36,0.8,0
0.017827,-0.0047598,0.056681,0.00082246,0.017251,-0.00023479,0,0,0.051259,-0.021357,0,-0.00061046,0,0,0,0.056682,0.00082147,0.017251,-0.24083,0.024918,0.049724,4.0689e-06,0.37,0.8,0
0.01834,-0.0048116,0.056633,0.00073046,0.017209,-0.00015509,0,0,0.051251,-0.021422,0,-0.00040324,0,0,0,0.056633,0.00073003,0.017209,-0.15896,0.024857,0.049754,4.0657e-06,0.38,0.8,0
0.018852,-0.0048606,0.056587,0.00064658,0.01717,-8.2089e-05,0,0,0.051242,-0.02148,0,-0.00021343,0,0,0,0.056587,0.00064646,0.01717,-0.084078,0.024801,0.04978,4.0624e-06,0.39,0.8,0
0.019364,-0.004907,0.056543,0.00057009,0.017134,-1.5364e-05,0,0,0.051231,-0.021533,0,-3.9946e-05,0,0,0,0.056543,0.00057008,0.017134,-0.015727,0.024749,0.049801,4.0589e-06,0.4,0.8,0
0.019877,-0.0049509,0.056501,0.00050032,0.0171,4.5476e-05,0,0,0.05122,-0.02158,0,0.00011824,0,0,0,0.056501,0.00050028,0.0171,0.046528,0.0247,0.04982,4.0553e-06,0.41,0.8,0
0.020389,-0.0049926,0.05646,0.00043667,0.017069,0.0001008,0,0,0.051209,-0.021622,0,0.00026209,0,0,0,0.056461,0.00043649,0.017069,0.10309,0.024655,0.049835,4.0517e-06,0.42,0.8,0
0.020901,-0.0050319,0.056423,0.0003786,0.01704,0.00015098,0,0,0.051197,-0.02166,0,0.00039255,0,0,0,0.056423,0.00037819,0.01704,0.15435,0.024614,0.049848,4.0482e-06,0.43,0.8,0
0.021413,-0.0050691,0.056387,0.0003256,0.017014,0.00019634,0,0,0.051185,-0.021694,0,0.00051047,0,0,0,0.056387,0.00032491,0.017014,0.20066,0.024575,0.049859,4.0447e-06,0.44,0.8,0
0.021925,-0.0051044,0.056353,0.00027722,0.016989,0.00023719,0,0,0.051173,-0.021725,0,0.00061669,0,0,0,0.056354,0.00027622,0.016989,0.24235,0.02454,0.049868,4.0413e-06,0.45,0.8,0
0.022436,-0.0051376,0.056321,0.00023305,0.016966,0.00027384,0,0,0.051161,-0.021753,0,0.00071199,0,0,0,0.056322,0.00023172,0.016966,0.27973,0.024507,0.049875,4.038e-06,0.46,0.8,0
0.022948,-0.0051691,0.056291,0.00019273,0.016945,0.00030657,0,0,0.05115,-0.021778,0,0.00079709,0,0,0,0.056293,0.00019106,0.016945,0.3131,0.024476,0.049882,4.0348e-06,0.47,0.8,0
0.023459,-0.0051988,0.056263,0.00015591,0.016926,0.00033565,0,0,0.051139,-0.021801,0,0.00087268,0,0,0,0.056265,0.0001539,0.016926,0.34274,0.024448,0.049887,4.0317e-06,0.48,0.8,0
0.023971,-0.0052269,0.056237,0.00012229,0.016908,0.00036132,0,0,0.051128,-0.021821,0,0.00093942,0,0,0,0.056239,0.00011996,0.016908,0.3689,0.024422,0.049891,4.0288e-06,0.49,0.8,0
0.024482,-0.0052534,0.056213,9.1581e-05,0.016891,0.00038381,0,0,0.051118,-0.02184,0,0.0009979,0,0,0,0.056216,8.8957e-05,0.016891,0.39182,0.024399,0.049894,4.0261e-06,0.5,0.8,0
0.024993,-0.0052783,0.05619,6.3541e-05,0.016876,0.00040334,0,0,0.051109,-0.021856,0,0.0010487,0,0,0,0.056193,6.0643e-05,0.016876,0.41172,0.024377,0.049897,4.0235e-06,0.51,0.8,0
0.025504,-0.0053019,0.05617,3.7937e-05,0.016862,0.00042013,0,0,0.051099,-0.021872,0,0.0010923,0,0,0,0.056173,3.4792e-05,0.016862,0.42881,0.024357,0.0499,4.021e-06,0.52,0.8,0
0.026015,-0.0053241,0.05615,1.4559e-05,0.016849,0.00043436,0,0,0.051091,-0.021885,0,0.0011293,0,0,0,0.056154,1.1198e-05,0.016849,0.4433,0.024338,0.049902,4.0187e-06,0.53,0.8,0
0.026526,-0.0053451,0.056133,-6.783e-06,0.016838,0.00044621,0,0,0.051083,-0.021898,0,0.0011601,0,0,0,0.056136,-1.0329e-05,0.016838,0.45536,0.024321,0.049903,4.0166e-06,0.54,0.8,0
0.027037,-0.0053649,0.056116,-2.6261e-05,0.016827,0.00045585,0,0,0.051076,-0.021909,0,0.0011852,0,0,0,0.05612,-2.9962e-05,0.016827,0.46517,0.024306,0.049904,4.0146e-06,0.55,0.8,0
0.027547,-0.0053834,0.056101,-4.4033e-05,0.016817,0.00046343,0,0,0.051069,-0.02192,0,0.0012049,0,0,0,0.056105,-4.7858e-05,0.016817,0.47289,0.024291,0.049905,4.0128e-06,0.56,0.8,0
0.028058,-0.0054009,0.056087,-6.0242e-05,0.016808,0.00046911,0,0,0.051063,-0.021929,0,0.0012197,0,0,0,0.056091,-6.4162e-05,0.016808,0.47866,0.024278,0.049906,4.0111e-06,0.57,0.8,0
0.028569,-0.0054174,0.056075,-7.502e-05,0.0168,0.00047302,0,0,0.051057,-0.021937,0,0.0012299,0,0,0,0.056079,-7.9005e-05,0.0168,0.48263,0.024267,0.049907,4.0096e-06,0.58,0.8,0
0.029079,-0.0054329,0.056064,-8.8485e-05,0.016792,0.0004753,0,0,0.051052,-0.021945,0,0.0012358,0,0,0,0.056067,-9.2508e-05,0.016792,0.48493,0.024256,0.049908,4.0082e-06,0.59,0.8,0
0.02959,-0.0054475,0.056053,-0.00010075,0.016786,0.00047605,0,0,0.051048,-0.021952,0,0.0012377,0,0,0,0.056057,-0.00010478,0.016786,0.48568,0.024246,0.049908,4.0069e-06,0.6,0.8,0
0.0301,-0.0054612,0.056044,-0.0001119,0.01678,0.0004754,0,0,0.051043,-0.021959,0,0.001236,0,0,0,0.056048,-0.00011593,0.01678,0.485,0.024237,0.049909,4.0057e-06,0.61,0.8,0
0.030611,-0.005474,0.056035,-0.00012205,0.016774,0.00047345,0,0,0.05104,-0.021965,0,0.001231,0,0,0,0.056039,-0.00012604,0.016774,0.483,0.024229,0.04991,4.0047e-06,0.62,0.8,0
0.031121,-0.0054861,0.056028,-0.00013127,0.016769,0.00047029,0,0,0.051036,-0.02197,0,0.0012228,0,0,0,0.056032,-0.00013521,0.016769,0.47976,0.024222,0.04991,4.0038e-06,0.63,0.8,0
0.031631,-0.0054974,0.056021,-0.00013963,0.016764,0.00046602,0,0,0.051034,-0.021975,0,0.0012117,0,0,0,0.056025,-0.0001435,0.016764,0.4754,0.024215,0.049911,4.0029e-06,0.64,0.8,0
0.032142,-0.0055081,0.056015,-0.00014721,0.01676,0.00046073,0,0,0.051031,-0.02198,0,0.0011979,0,0,0,0.056019,-0.00015099,0.01676,0.46999,0.024209,0.049911,4.0022e-06,0.65,0.8,0
0.032652,-0.005518,0.056009,-0.00015407,0.016757,0.00045449,0,0,0.051029,-0.021984,0,0.0011817,0,0,0,0.056013,-0.00015775,0.016757,0.46361,0.024204,0.049912,4.0015e-06,0.66,0.8,0
0.033162,-0.0055273,0.056005,-0.00016028,0.016753,0.00044738,0,0,0.051027,-0.021988,0,0.0011632,0,0,0,0.056008,-0.00016384,0.016753,0.45634,0.024199,0.049912,4.0009e-06,0.67,0.8,0
0.033673,-0.0055361,0.056001,-0.00016588,0.01675,0.00043946,0,0,0.051025,-0.021991,0,0.0011426,0,0,0,0.056004,-0.00016932,0.01675,0.44826,0.024195,0.049913,4.0004e-06,0.68,0.8,0
0.034183,-0.0055442,0.055997,-0.00017092,0.016748,0.0004308,0,0,0.051024,-0.021994,0,0.0011201,0,0,0,0.056,-0.00017423,0.016748,0.43942,0.024191,0.049913,4e-06,0.69,0.8,0
0.034693,-0.0055519,0.055994,-0.00017546,0.016745,0.00042147,0,0,0.051023,-0.021997,0,0.0010958,0,0,0,0.055997,-0.00017862,0.016745,0.42989,0.024188,0.049914,3.9996e-06,0.7,0.8,0
0.035203,-0.005559,0.055991,-0.00017953,0.016744,0.00041152,0,0,0.051022,-0.022,0,0.0010699,0,0,0,0.055994,-0.00018255,0.016744,0.41973,0.024185,0.049915,3.9993e-06,0.71,0.8,0
0.035713,-0.0055657,0.055989,-0.00018318,0.016742,0.00040099,0,0,0.051021,-0.022002,0,0.0010426,0,0,0,0.055992,-0.00018604,0.016742,0.40898,0.024182,0.049915,3.9991e-06,0.72,0.8,0
0.036224,-0.0055719,0.055987,-0.00018644,0.01674,0.00038994,0,0,0.051021,-0.022005,0,0.0010138,0,0,0,0.05599,-0.00018915,0.01674,0.3977,0.02418,0.049916,3.9989e-06,0.73,0.8,0
0.036734,-0.0055777,0.055985,-0.00018934,0.016739,0.00037841,0,0,0.051021,-0.022007,0,0.00098387,0,0,0,0.055988,-0.00019189,0.016739,0.38594,0.024178,0.049916,3.9987e-06,0.74,0.8,0
0.037244,-0.0055831,0.055984,-0.00019192,0.016738,0.00036645,0,0,0.05102,-0.022008,0,0.00095276,0,0,0,0.055986,-0.00019431,0.016738,0.37373,0.024177,0.049917,3.9986e-06,0.75,0.8,0
0.037754,-0.0055881,0.055983,-0.00019421,0.016737,0.00035408,0,0,0.05102,-0.02201,0,0.00092061,0,0,0,0.055985,-0.00019644,0.016737,0.36111,0.024175,0.049918,3.9985e-06,0.76,0.8,0
0.038264,-0.0055928,0.055982,-0.00019622,0.016736,0.00034136,0,0,0.05102,-0.022012,0,0.00088753,0,0,0,0.055984,-0.0001983,0.016736,0.34813,0.024174,0.049918,3.9984e-06,0.77,0.8,0
0.038775,-0.0055971,0.055982,-0.000198,0.016735,0.0003283,0,0,0.05102,-0.022013,0,0.00085358,0,0,0,0.055983,-0.00019992,0.016735,0.33481,0.024173,0.049919,3.9984e-06,0.78,0.8,0
0.039285,-0.0056012,0.055981,-0.00019955,0.016734,0.00031495,0,0,0.051021,-0.022014,0,0.00081886,0,0,0,0.055983,-0.00020132,0.016734,0.32118,0.024172,0.04992,3.9983e-06,0.79,0.8,0
0.039795,-0.0056049,0.055981,-0.00020091,0.016734,0.00030132,0,0,0.051021,-0.022015,0,0.00078343,0,0,0,0.055982,-0.00020252,0.016734,0.30728,0.024171,0.04992,3.9983e-06,0.8,0.8,0
0.040305,-0.0056083,0.055981,-0.00020208,0.016734,0.00028745,0,0,0.051021,-0.022016,0,0.00074736,0,0,0,0.055982,-0.00020355,0.016734,0.29313,0.024171,0.049921,3.9984e-06,0.81,0.8,0
0.040815,-0.0056115,0.055981,-0.0002031,0.016733,0.00027335,0,0,0.051022,-0.022017,0,0.00071071,0,0,0,0.055982,-0.00020443,0.016733,0.27875,0.02417,0.049921,3.9984e-06,0.82,0.8,0
0.041326,-0.0056144,0.055981,-0.00020397,0.016733,0.00025906,0,0,0.051022,-0.022018,0,0.00067355,0,0,0,0.055982,-0.00020517,0.016733,0.26417,0.02417,0.049922,3.9984e-06,0.83,0.8,0
0.041836,-0.0056171,0.055981,-0.00020472,0.016733,0.00024458,0,0,0.051023,-0.022019,0,0.00063592,0,0,0,0.055982,-0.00020578,0.016733,0.24941,0.02417,0.049922,3.9985e-06,0.84,0.8,0
0.042346,-0.0056196,0.055981,-0.00020535,0.016733,0.00022995,0,0,0.051023,-0.02202,0,0.00059787,0,0,0,0.055982,-0.00020629,0.016733,0.23448,0.02417,0.049923,3.9986e-06,0.85,0.8,0
0.042856,-0.0056218,0.055981,-0.00020588,0.016733,0.00021517,0,0,0.051023,-0.02202,0,0.00055944,0,0,0,0.055982,-0.00020671,0.016733,0.21941,0.024169,0.049923,3.9986e-06,0.86,0.8,0
0.043367,-0.0056239,0.055982,-0.00020633,0.016733,0.00020026,0,0,0.051024,-0.022021,0,0.00052069,0,0,0,0.055983,-0.00020704,0.016733,0.20421,0.024169,0.049924,3.9987e-06,0.87,0.8,0
0.043877,-0.0056257,0.055982,-0.0002067,0.016733,0.00018524,0,0,0.051024,-0.022021,0,0.00048163,0,0,0,0.055983,-0.00020731,0.016733,0.18889,0.024169,0.049924,3.9988e-06,0.88,0.8,0
0.044387,-0.0056274,0.055983,-0.000207,0.016733,0.00017012,0,0,0.051025,-0.022022,0,0.00044232,0,0,0,0.055983,-0.00020752,0.016733,0.17347,0.024169,0.049925,3.9988e-06,0.89,0.8,0
0.044897,-0.0056289,0.055983,-0.00020725,0.016733,0.00015491,0,0,0.051025,-0.022022,0,0.00040277,0,0,0,0.055983,-0.00020768,0.016733,0.15796,0.02417,0.049925,3.9989e-06,0.9,0.8,0
0.045408,-0.0056303,0.055983,-0.00020745,0.016733,0.00013962,0,0,0.051026,-0.022022,0,0.00036302,0,0,0,0.055984,-0.0002078,0.016733,0.14237,0.02417,0.049925,3.999e-06,0.91,0.8,0
0.045918,-0.0056314,0.055984,-0.00020761,0.016733,0.00012427,0,0,0.051026,-0.022023,0,0.00032309,0,0,0,0.055984,-0.00020788,0.016733,0.12671,0.02417,0.049926,3.9991e-06,0.92,0.8,0
0.046428,-0.0056325,0.055984,-0.00020773,0.016733,0.00010885,0,0,0.051026,-0.022023,0,0.00028302,0,0,0,0.055984,-0.00020794,0.016733,0.11099,0.02417,0.049926,3.9991e-06,0.93,0.8,0
0.046938,-0.0056333,0.055984,-0.00020783,0.016733,9.339e-05,0,0,0.051027,-0.022023,0,0.00024281,0,0,0,0.055984,-0.00020799,0.016733,0.095224,0.02417,0.049926,3.9991e-06,0.94,0.8,0
0.047449,-0.0056341,0.055984,-0.0002079,0.016733,7.7885e-05,0,0,0.051027,-0.022023,0,0.0002025,0,0,0,0.055984,-0.00020801,0.016733,0.079414,0.02417,0.049926,3.9992e-06,0.95,0.8,0
0.047959,-0.0056347,0.055985,-0.00020796,0.016733,6.2347e-05,0,0,0.051027,-0.022023,0,0.0001621,0,0,0,0.055985,-0.00020803,0.016733,0.063571,0.02417,0.049926,3.9992e-06,0.96,0.8,0
0.048469,-0.0056352,0.055985,-0.000208,0.016733,4.6783e-05,0,0,0.051027,-0.022023,0,0.00012164,0,0,0,0.055985,-0.00020804,0.016733,0.047701,0.02417,0.049927,3.9993e-06,0.97,0.8,0
0.04898,-0.0056355,0.055985,-0.00020802,0.016733,3.1199e-05,0,0,0.051027,-0.022023,0,8.1118e-05,0,0,0,0.055985,-0.00020804,0.016733,0.031812,0.02417,0.049927,3.9993e-06,0.98,0.8,0
0.04949,-0.0056357,0.055985,-0.00020804,0.016733,1.5603e-05,0,0,0.051028,-0.022024,0,4.0568e-05,0,0,0,0.055985,-0.00020804,0.016733,0.015909,0.02417,0.049927,3.9993e-06,0.99,0.8,0
0.05,-0.0056357,0.055985,-0.00020804,0.016733,-2.5083e-06,0,0,0.051028,-0.022024,0,-6.5215e-06,0,0,0,0.055985,-0.00020804,0.016733,-0.0025575,0.02417,0.049927,3.9993e-06,1,0.8,0
0,0,0.052873,0.02266,0.02266,-0.007375,0,0,0.039277,3.2526e-19,0,-0.019175,0,0,0,0.054577,0.020956,0.02266,-13.011,0.032731,0.032803,1.7963e-06,0,0.81,0
0.00039277,-0.00019175,0.052764,0.021329,0.022228,-0.0073704,0,0,0.039697,-0.0011685,0,-0.019163,0,0,0,0.054406,0.019687,0.022228,-12.562,0.032107,0.033521,1.8971e-06,0.01,0.81,0
0.00079393,-0.00038591,0.05321,0.020207,0.022025,-0.0073894,0,0,0.04054,-0.0023631,0,-0.019212,0,0,0,0.054789,0.018628,0.022025,-12.062,0.031814,0.034587,2.0561e-06,0.02,0.81,0
0.0012036,-0.0005818,0.053654,0.019068,0.021816,-0.0073701,0,0,0.041389,-0.0035736,0,-0.019162,0,0,0,0.055159,0.017563,0.021816,-11.541,0.031513,0.03566,2.2177e-06,0.03,0.81,0
0.0016217,-0.00077865,0.05409,0.01792,0.021603,-0.0073097,0,0,0.042233,-0.0047883,0,-0.019005,0,0,0,0.055511,0.016498,0.021603,-11.004,0.031204,0.036728,2.3797e-06,0.04,0.81,0
0.0020482,-0.00097564,0.054512,0.016774,0.021386,-0.0072073,0,0,0.043064,-0.0059949,0,-0.018739,0,0,0,0.055842,0.015445,0.021386,-10.453,0.030891,0.037778,2.5398e-06,0.05,0.81,0
0.002483,-0.0011719,0.054914,0.015643,0.021167,-0.0070634,0,0,0.043871,-0.0071815,0,-0.018365,0,0,0,0.056146,0.014411,0.021167,-9.8925,0.030575,0.038801,2.6961e-06,0.06,0.81,0
0.0029257,-0.0013667,0.055293,0.014536,0.020948,-0.0068806,0,0,0.044647,-0.0083366,0,-0.017889,0,0,0,0.056423,0.013406,0.020948,-9.3284,0.030259,0.039786,2.8466e-06,0.07,0.81,0
0.0033759,-0.0015592,0.055642,0.013462,0.020731,-0.0066622,0,0,0.045384,-0.0094502,0,-0.017322,0,0,0,0.056669,0.012435,0.020731,-8.7655,0.029945,0.040725,2.9896e-06,0.08,0.81,0
0.0038334,-0.0017486,0.05596,0.012429,0.020517,-0.0064131,0,0,0.046076,-0.010514,0,-0.016674,0,0,0,0.056885,0.011504,0.020517,-8.2086,0.029635,0.041613,3.1238e-06,0.09,0.81,0
0.0042975,-0.0019342,0.056244,0.011443,0.020306,-0.0061383,0,0,0.046719,-0.011522,0,-0.01596,0,0,0,0.05707,0.010617,0.020306,-7.6622,0.029331,0.042446,3.2483e-06,0.1,0.81,0
0.0047677,-0.0021156,0.056494,0.010509,0.020101,-0.0058435,0,0,0.047311,-0.012469,0,-0.015193,0,0,0,0.057225,0.0097782,0.020101,-7.13,0.029035,0.04322,3.3625e-06,0.11,0.81,0
0.0052437,-0.0022922,0.056708,0.0096297,0.019901,-0.0055341,0,0,0.047849,-0.013353,0,-0.014389,0,0,0,0.05735,0.008988,0.019901,-6.615,0.028747,0.043934,3.4661e-06,0.12,0.81,0
0.0057247,-0.0024636,0.056889,0.0088063,0.019709,-0.0052153,0,0,0.048335,-0.014173,0,-0.01356,0,0,0,0.057449,0.0082471,0.019709,-6.1198,0.028468,0.044589,3.5591e-06,0.13,0.81,0
0.0062104,-0.0026296,0.057038,0.0080392,0.019523,-0.004892,0,0,0.04877,-0.014929,0,-0.012719,0,0,0,0.057522,0.0075556,0.019523,-5.646,0.0282,0.045187,3.6419e-06,0.14,0.81,0
0.0067001,-0.0027898,0.057157,0.0073276,0.019345,-0.0045682,0,0,0.049155,-0.015623,0,-0.011877,0,0,0,0.057572,0.0069122,0.019345,-5.1951,0.027943,0.045729,3.7147e-06,0.15,0.81,0
0.0071935,-0.0029442,0.057248,0.0066699,0.019175,-0.0042478,0,0,0.049494,-0.016257,0,-0.011044,0,0,0,0.057602,0.0063156,0.019175,-4.7675,0.027698,0.046218,3.7783e-06,0.16,0.81,0
0.00769,-0.0030926,0.057313,0.0060639,0.019013,-0.0039336,0,0,0.04979,-0.016834,0,-0.010227,0,0,0,0.057614,0.0057638,0.019013,-4.3636,0.027463,0.046658,3.8333e-06,0.17,0.81,0
0.0081893,-0.0032351,0.057357,0.0055072,0.018859,-0.0036281,0,0,0.050047,-0.017358,0,-0.0094331,0,0,0,0.05761,0.0052546,0.018859,-3.9833,0.027241,0.047052,3.8804e-06,0.18,0.81,0
0.0086909,-0.0033716,0.057381,0.0049968,0.018713,-0.0033332,0,0,0.050267,-0.017831,0,-0.0086664,0,0,0,0.057592,0.0047856,0.018713,-3.6263,0.02703,0.047403,3.9203e-06,0.19,0.81,0
0.0091946,-0.0035023,0.057387,0.0045299,0.018575,-0.0030503,0,0,0.050456,-0.018259,0,-0.0079309,0,0,0,0.057563,0.0043544,0.018575,-3.2919,0.026831,0.047714,3.9539e-06,0.2,0.81,0
0.0097,-0.0036272,0.057379,0.0041033,0.018445,-0.0027804,0,0,0.050615,-0.018644,0,-0.007229,0,0,0,0.057524,0.0039586,0.018445,-2.9794,0.026642,0.047991,3.9816e-06,0.21,0.81,0
0.010207,-0.0037464,0.057359,0.0037141,0.018322,-0.0025241,0,0,0.050748,-0.01899,0,-0.0065626,0,0,0,0.057477,0.0035956,0.018322,-2.6879,0.026465,0.048235,4.0044e-06,0.22,0.81,0
0.010715,-0.0038601,0.057328,0.0033594,0.018206,-0.0022816,0,0,0.050858,-0.019301,0,-0.0059323,0,0,0,0.057424,0.0032631,0.018206,-2.4165,0.026298,0.04845,4.0227e-06,0.23,0.81,0
0.011224,-0.0039685,0.057289,0.0030363,0.018098,-0.0020532,0,0,0.050949,-0.01958,0,-0.0053383,0,0,0,0.057367,0.0029587,0.018098,-2.1643,0.026141,0.048639,4.0371e-06,0.24,0.81,0
0.011734,-0.0040717,0.057244,0.0027424,0.017996,-0.0018387,0,0,0.051022,-0.019829,0,-0.0047805,0,0,0,0.057305,0.0026804,0.017996,-1.93,0.025994,0.048804,4.0482e-06,0.25,0.81,0
0.012245,-0.00417,0.057193,0.002475,0.0179,-0.0016377,0,0,0.05108,-0.020053,0,-0.0042581,0,0,0,0.057242,0.0024261,0.0179,-1.7129,0.025856,0.048949,4.0564e-06,0.26,0.81,0
0.012756,-0.0042634,0.057138,0.002232,0.017811,-0.0014501,0,0,0.051125,-0.020253,0,-0.0037702,0,0,0,0.057176,0.0021937,0.017811,-1.5118,0.025727,0.049075,4.0622e-06,0.27,0.81,0
0.013267,-0.0043522,0.057081,0.002011,0.017728,-0.0012752,0,0,0.051159,-0.020431,0,-0.0033155,0,0,0,0.05711,0.0019815,0.017728,-1.3258,0.025606,0.049184,4.0659e-06,0.28,0.81,0
0.013779,-0.0044366,0.057022,0.0018102,0.01765,-0.0011126,0,0,0.051184,-0.020591,0,-0.0028927,0,0,0,0.057044,0.0017878,0.01765,-1.1539,0.025494,0.049279,4.0679e-06,0.29,0.81,0
0.014291,-0.0045167,0.056962,0.0016278,0.017577,-0.00096167,0,0,0.0512,-0.020734,0,-0.0025003,0,0,0,0.056978,0.001611,0.017577,-0.99536,0.025389,0.049361,4.0685e-06,0.3,0.81,0
0.014803,-0.0045928,0.056902,0.001462,0.017509,-0.00082191,0,0,0.05121,-0.020861,0,-0.002137,0,0,0,0.056914,0.0014498,0.017509,-0.84918,0.025291,0.049431,4.0679e-06,0.31,0.81,0
0.015315,-0.004665,0.056842,0.0013113,0.017446,-0.00069271,0,0,0.051215,-0.020975,0,-0.001801,0,0,0,0.05685,0.0013027,0.017446,-0.71458,0.0252,0.049492,4.0663e-06,0.32,0.81,0
0.015827,-0.0047335,0.056783,0.0011744,0.017387,-0.00057347,0,0,0.051215,-0.021077,0,-0.001491,0,0,0,0.056789,0.0011685,0.017387,-0.59079,0.025115,0.049544,4.064e-06,0.33,0.81,0
0.016339,-0.0047984,0.056725,0.00105,0.017333,-0.00046364,0,0,0.051211,-0.021167,0,-0.0012055,0,0,0,0.056729,0.0010461,0.017333,-0.47708,0.025036,0.049588,4.061e-06,0.34,0.81,0
0.016851,-0.00486,0.056669,0.00093686,0.017282,-0.00036263,0,0,0.051204,-0.021249,0,-0.00094284,0,0,0,0.056672,0.0009345,0.017282,-0.37278,0.024963,0.049626,4.0577e-06,0.35,0.81,0
0.017363,-0.0049183,0.056615,0.00083402,0.017235,-0.00026991,0,0,0.051195,-0.021321,0,-0.00070178,0,0,0,0.056617,0.00083272,0.017235,-0.27723,0.024895,0.049658,4.0539e-06,0.36,0.81,0
0.017875,-0.0049736,0.056563,0.00074051,0.017191,-0.00018497,0,0,0.051184,-0.021386,0,-0.00048092,0,0,0,0.056564,0.0007399,0.017191,-0.18985,0.024832,0.049685,4.05e-06,0.37,0.81,0
0.018387,-0.0050259,0.056514,0.00065546,0.017151,-0.00010729,0,0,0.051172,-0.021444,0,-0.00027896,0,0,0,0.056514,0.00065526,0.017151,-0.11005,0.024773,0.049708,4.0459e-06,0.38,0.81,0
0.018899,-0.0050755,0.056466,0.00057809,0.017113,-3.6412e-05,0,0,0.051159,-0.021496,0,-9.4671e-05,0,0,0,0.056466,0.00057807,0.017113,-0.037329,0.024719,0.049727,4.0417e-06,0.39,0.81,0
0.01941,-0.0051224,0.056421,0.00050768,0.017079,2.8121e-05,0,0,0.051145,-0.021542,0,7.3114e-05,0,0,0,0.056421,0.00050767,0.017079,0.028816,0.024669,0.049743,4.0376e-06,0.4,0.81,0
0.019922,-0.0051668,0.056378,0.00044361,0.017046,8.6731e-05,0,0,0.051131,-0.021584,0,0.0002255,0,0,0,0.056378,0.00044347,0.017046,0.088842,0.024623,0.049756,4.0335e-06,0.41,0.81,0
0.020433,-0.0052088,0.056338,0.00038527,0.017017,0.00013982,0,0,0.051117,-0.021621,0,0.00036353,0,0,0,0.056338,0.00038492,0.017017,0.14317,0.02458,0.049767,4.0294e-06,0.42,0.81,0
0.020944,-0.0052485,0.0563,0.00033215,0.01699,0.00018776,0,0,0.051103,-0.021655,0,0.00048818,0,0,0,0.056301,0.00033152,0.01699,0.19221,0.024541,0.049776,4.0255e-06,0.43,0.81,0
0.021455,-0.0052861,0.056264,0.00028378,0.016964,0.00023091,0,0,0.05109,-0.021685,0,0.00060038,0,0,0,0.056265,0.00028283,0.016964,0.23633,0.024504,0.049784,4.0217e-06,0.44,0.81,0
0.021966,-0.0053216,0.056231,0.00023971,0.016941,0.00026961,0,0,0.051077,-0.021712,0,0.00070097,0,0,0,0.056232,0.00023841,0.016941,0.27588,0.024471,0.04979,4.0181e-06,0.45,0.81,0
0.022476,-0.0053551,0.0562,0.00019956,0.01692,0.00030415,0,0,0.051064,-0.021736,0,0.00079078,0,0,0,0.056202,0.00019791,0.01692,0.31117,0.02444,0.049795,4.0146e-06,0.46,0.81,0
0.022987,-0.0053868,0.056171,0.00016298,0.0169,0.00033483,0,0,0.051052,-0.021758,0,0.00087056,0,0,0,0.056173,0.00016098,0.0169,0.34251,0.024411,0.049799,4.0114e-06,0.47,0.81,0
0.023497,-0.0054167,0.056144,0.00012964,0.016882,0.00036193,0,0,0.051041,-0.021778,0,0.00094101,0,0,0,0.056147,0.00012731,0.016882,0.37018,0.024385,0.049803,4.0083e-06,0.48,0.81,0
0.024008,-0.005445,0.05612,9.9261e-05,0.016866,0.00038569,0,0,0.05103,-0.021796,0,0.0010028,0,0,0,0.056122,9.6606e-05,0.016866,0.39445,0.024362,0.049806,4.0054e-06,0.49,0.81,0
0.024518,-0.0054716,0.056097,7.1569e-05,0.016851,0.00040636,0,0,0.05102,-0.021813,0,0.0010565,0,0,0,0.0561,6.8622e-05,0.016851,0.41555,0.02434,0.049808,4.0028e-06,0.5,0.81,0
0.025028,-0.0054968,0.056076,4.6331e-05,0.016837,0.00042415,0,0,0.051011,-0.021827,0,0.0011028,0,0,0,0.056079,4.312e-05,0.016837,0.43371,0.02432,0.04981,4.0003e-06,0.51,0.81,0
0.025538,-0.0055205,0.056057,2.333e-05,0.016824,0.00043928,0,0,0.051002,-0.021841,0,0.0011421,0,0,0,0.05606,1.9886e-05,0.016824,0.44914,0.024301,0.049811,3.998e-06,0.52,0.81,0
0.026048,-0.0055429,0.056039,2.3694e-06,0.016812,0.00045193,0,0,0.050995,-0.021853,0,0.001175,0,0,0,0.056043,-1.2751e-06,0.016812,0.46205,0.024285,0.049813,3.9959e-06,0.53,0.81,0
0.026558,-0.0055639,0.056023,-1.6727e-05,0.016802,0.00046229,0,0,0.050987,-0.021864,0,0.001202,0,0,0,0.056027,-2.0541e-05,0.016802,0.47261,0.024269,0.049814,3.994e-06,0.54,0.81,0
0.027068,-0.0055838,0.056009,-3.4123e-05,0.016792,0.00047052,0,0,0.050981,-0.021874,0,0.0012234,0,0,0,0.056012,-3.8073e-05,0.016792,0.48099,0.024256,0.049815,3.9923e-06,0.55,0.81,0
0.027578,-0.0056025,0.055995,-4.9963e-05,0.016784,0.00047678,0,0,0.050975,-0.021884,0,0.0012396,0,0,0,0.056,-5.4018e-05,0.016784,0.48737,0.024243,0.049817,3.9907e-06,0.56,0.81,0
0.028088,-0.0056201,0.055984,-6.4381e-05,0.016776,0.00048121,0,0,0.05097,-0.021892,0,0.0012511,0,0,0,0.055988,-6.8513e-05,0.016776,0.49187,0.024232,0.049818,3.9893e-06,0.57,0.81,0
0.028597,-0.0056366,0.055973,-7.75e-05,0.016769,0.00048395,0,0,0.050966,-0.0219,0,0.0012583,0,0,0,0.055977,-8.1678e-05,0.016769,0.49466,0.024221,0.049819,3.988e-06,0.58,0.81,0
0.029107,-0.0056522,0.055964,-8.9429e-05,0.016762,0.00048513,0,0,0.050962,-0.021907,0,0.0012613,0,0,0,0.055968,-9.3627e-05,0.016762,0.49584,0.024212,0.04982,3.9869e-06,0.59,0.81,0
0.029616,-0.0056668,0.055955,-0.00010027,0.016757,0.00048487,0,0,0.050958,-0.021914,0,0.0012607,0,0,0,0.055959,-0.00010446,0.016757,0.49555,0.024204,0.049821,3.986e-06,0.6,0.81,0
0.030126,-0.0056806,0.055948,-0.00011011,0.016751,0.00048326,0,0,0.050955,-0.02192,0,0.0012565,0,0,0,0.055952,-0.00011428,0.016751,0.49389,0.024196,0.049822,3.9851e-06,0.61,0.81,0
0.030635,-0.0056935,0.055941,-0.00011904,0.016747,0.00048043,0,0,0.050953,-0.021925,0,0.0012491,0,0,0,0.055945,-0.00012316,0.016747,0.49097,0.02419,0.049824,3.9844e-06,0.62,0.81,0
0.031145,-0.0057056,0.055936,-0.00012714,0.016743,0.00047646,0,0,0.050951,-0.021931,0,0.0012388,0,0,0,0.05594,-0.00013119,0.016743,0.48689,0.024184,0.049825,3.9838e-06,0.63,0.81,0
0.031655,-0.005717,0.055931,-0.00013447,0.016739,0.00047144,0,0,0.050949,-0.021935,0,0.0012257,0,0,0,0.055935,-0.00013843,0.016739,0.48174,0.024178,0.049827,3.9833e-06,0.64,0.81,0
0.032164,-0.0057277,0.055927,-0.00014109,0.016736,0.00046545,0,0,0.050948,-0.02194,0,0.0012102,0,0,0,0.055931,-0.00014496,0.016736,0.4756,0.024174,0.049828,3.9829e-06,0.65,0.81,0
0.032674,-0.0057377,0.055923,-0.00014708,0.016733,0.00045857,0,0,0.050947,-0.021944,0,0.0011923,0,0,0,0.055927,-0.00015083,0.016733,0.46855,0.02417,0.049829,3.9825e-06,0.66,0.81,0
0.033183,-0.005747,0.05592,-0.00015247,0.01673,0.00045087,0,0,0.050947,-0.021948,0,0.0011723,0,0,0,0.055924,-0.0001561,0.01673,0.46066,0.024166,0.049831,3.9823e-06,0.67,0.81,0
0.033692,-0.0057558,0.055918,-0.00015733,0.016728,0.00044242,0,0,0.050947,-0.021951,0,0.0011503,0,0,0,0.055921,-0.00016082,0.016728,0.45201,0.024163,0.049833,3.9821e-06,0.68,0.81,0
0.034202,-0.005764,0.055916,-0.00016169,0.016726,0.00043328,0,0,0.050947,-0.021954,0,0.0011265,0,0,0,0.055919,-0.00016504,0.016726,0.44265,0.02416,0.049834,3.982e-06,0.69,0.81,0
0.034711,-0.0057717,0.055915,-0.0001656,0.016725,0.0004235,0,0,0.050947,-0.021957,0,0.0011011,0,0,0,0.055918,-0.0001688,0.016725,0.43265,0.024158,0.049836,3.982e-06,0.7,0.81,0
0.035221,-0.0057788,0.055914,-0.0001691,0.016723,0.00041315,0,0,0.050947,-0.02196,0,0.0010742,0,0,0,0.055917,-0.00017214,0.016723,0.42205,0.024156,0.049837,3.982e-06,0.71,0.81,0
0.03573,-0.0057855,0.055913,-0.00017222,0.016722,0.00040226,0,0,0.050948,-0.021963,0,0.0010459,0,0,0,0.055916,-0.00017511,0.016722,0.41091,0.024154,0.049839,3.982e-06,0.72,0.81,0
0.03624,-0.0057918,0.055913,-0.000175,0.016721,0.00039089,0,0,0.050949,-0.021965,0,0.0010163,0,0,0,0.055915,-0.00017772,0.016721,0.39928,0.024153,0.049841,3.9821e-06,0.73,0.81,0
0.036749,-0.0057976,0.055913,-0.00017746,0.01672,0.00037907,0,0,0.05095,-0.021967,0,0.00098559,0,0,0,0.055915,-0.00018003,0.01672,0.3872,0.024152,0.049842,3.9822e-06,0.74,0.81,0
0.037259,-0.005803,0.055913,-0.00017964,0.01672,0.00036685,0,0,0.050951,-0.021969,0,0.00095382,0,0,0,0.055915,-0.00018204,0.01672,0.3747,0.024151,0.049844,3.9824e-06,0.75,0.81,0
0.037768,-0.005808,0.055913,-0.00018156,0.01672,0.00035427,0,0,0.050952,-0.021971,0,0.0009211,0,0,0,0.055915,-0.0001838,0.01672,0.36183,0.02415,0.049846,3.9826e-06,0.76,0.81,0
0.038278,-0.0058127,0.055914,-0.00018325,0.016719,0.00034135,0,0,0.050953,-0.021973,0,0.00088751,0,0,0,0.055916,-0.00018533,0.016719,0.34863,0.02415,0.049847,3.9828e-06,0.77,0.81,0
0.038787,-0.0058171,0.055914,-0.00018472,0.016719,0.00032813,0,0,0.050954,-0.021975,0,0.00085313,0,0,0,0.055916,-0.00018664,0.016719,0.33511,0.02415,0.049849,3.983e-06,0.78,0.81,0
0.039297,-0.0058211,0.055915,-0.000186,0.016719,0.00031463,0,0,0.050956,-0.021976,0,0.00081803,0,0,0,0.055917,-0.00018777,0.016719,0.32131,0.024149,0.04985,3.9833e-06,0.79,0.81,0
0.039806,-0.0058248,0.055916,-0.00018711,0.016719,0.00030088,0,0,0.050957,-0.021978,0,0.0007823,0,0,0,0.055918,-0.00018873,0.016719,0.30727,0.024149,0.049852,3.9835e-06,0.8,0.81,0
0.040316,-0.0058283,0.055917,-0.00018807,0.016719,0.00028691,0,0,0.050958,-0.021979,0,0.00074598,0,0,0,0.055919,-0.00018954,0.016719,0.29299,0.024149,0.049853,3.9838e-06,0.81,0.81,0
0.040826,-0.0058315,0.055919,-0.00018888,0.016719,0.00027274,0,0,0.050959,-0.02198,0,0.00070913,0,0,0,0.05592,-0.00019021,0.016719,0.27851,0.02415,0.049855,3.984e-06,0.82,0.81,0
0.041335,-0.0058344,0.05592,-0.00018958,0.016719,0.00025839,0,0,0.050961,-0.021981,0,0.00067182,0,0,0,0.055921,-0.00019077,0.016719,0.26385,0.02415,0.049856,3.9843e-06,0.83,0.81,0
0.041845,-0.0058371,0.055921,-0.00019016,0.016719,0.00024388,0,0,0.050962,-0.021982,0,0.00063408,0,0,0,0.055922,-0.00019122,0.016719,0.24902,0.02415,0.049857,3.9845e-06,0.84,0.81,0
0.042355,-0.0058396,0.055922,-0.00019065,0.016719,0.00022922,0,0,0.050963,-0.021983,0,0.00059596,0,0,0,0.055923,-0.00019159,0.016719,0.23404,0.02415,0.049859,3.9848e-06,0.85,0.81,0
0.042864,-0.0058418,0.055923,-0.00019106,0.01672,0.00021443,0,0,0.050965,-0.021984,0,0.00055751,0,0,0,0.055924,-0.00019187,0.01672,0.21894,0.024151,0.04986,3.9851e-06,0.86,0.81,0
0.043374,-0.0058439,0.055924,-0.00019139,0.01672,0.00019952,0,0,0.050966,-0.021985,0,0.00051876,0,0,0,0.055925,-0.0001921,0.01672,0.20371,0.024151,0.049861,3.9853e-06,0.87,0.81,0
0.043883,-0.0058458,0.055926,-0.00019165,0.01672,0.00018452,0,0,0.050967,-0.021985,0,0.00047974,0,0,0,0.055926,-0.00019226,0.01672,0.18839,0.024151,0.049862,3.9855e-06,0.88,0.81,0
0.044393,-0.0058475,0.055927,-0.00019187,0.01672,0.00016942,0,0,0.050968,-0.021986,0,0.00044049,0,0,0,0.055927,-0.00019238,0.01672,0.17297,0.024152,0.049863,3.9857e-06,0.89,0.81,0
0.044903,-0.005849,0.055928,-0.00019204,0.016721,0.00015424,0,0,0.050969,-0.021986,0,0.00040103,0,0,0,0.055928,-0.00019246,0.016721,0.15747,0.024152,0.049864,3.9859e-06,0.9,0.81,0
0.045413,-0.0058503,0.055928,-0.00019217,0.016721,0.000139,0,0,0.05097,-0.021987,0,0.00036139,0,0,0,0.055929,-0.00019251,0.016721,0.14191,0.024152,0.049864,3.9861e-06,0.91,0.81,0
0.045922,-0.0058515,0.055929,-0.00019227,0.016721,0.00012369,0,0,0.050971,-0.021987,0,0.0003216,0,0,0,0.05593,-0.00019254,0.016721,0.12628,0.024153,0.049865,3.9863e-06,0.92,0.81,0
0.046432,-0.0058525,0.05593,-0.00019234,0.016721,0.00010833,0,0,0.050972,-0.021988,0,0.00028167,0,0,0,0.05593,-0.00019255,0.016721,0.1106,0.024153,0.049866,3.9864e-06,0.93,0.81,0
0.046942,-0.0058534,0.055931,-0.0001924,0.016722,9.2935e-05,0,0,0.050972,-0.021988,0,0.00024163,0,0,0,0.055931,-0.00019255,0.016722,0.094877,0.024153,0.049866,3.9866e-06,0.94,0.81,0
0.047451,-0.0058541,0.055931,-0.00019244,0.016722,7.7499e-05,0,0,0.050973,-0.021988,0,0.0002015,0,0,0,0.055932,-0.00019254,0.016722,0.079117,0.024154,0.049867,3.9867e-06,0.95,0.81,0
0.047961,-0.0058547,0.055932,-0.00019246,0.016722,6.2034e-05,0,0,0.050973,-0.021989,0,0.00016129,0,0,0,0.055932,-0.00019253,0.016722,0.063328,0.024154,0.049867,3.9868e-06,0.96,0.81,0
0.048471,-0.0058552,0.055932,-0.00019248,0.016722,4.6545e-05,0,0,0.050973,-0.021989,0,0.00012102,0,0,0,0.055932,-0.00019252,0.016722,0.047516,0.024154,0.049868,3.9869e-06,0.97,0.81,0
0.048981,-0.0058555,0.055933,-0.00019249,0.016722,3.1039e-05,0,0,0.050974,-0.021989,0,8.0702e-05,0,0,0,0.055933,-0.00019251,0.016722,0.031687,0.024154,0.049868,3.9869e-06,0.98,0.81,0
0.04949,-0.0058557,0.055933,-0.0001925,0.016722,1.5522e-05,0,0,0.050974,-0.021989,0,4.0358e-05,0,0,0,0.055933,-0.0001925,0.016722,0.015846,0.024154,0.049868,3.987e-06,0.99,0.81,0
0.05,-0.0058558,0.055933,-0.0001925,0.016722,-2.5153e-06,0,0,0.050974,-0.021989,0,-6.5398e-06,0,0,0,0.055933,-0.0001925,0.016722,-0.0025678,0.024154,0.049868,3.987e-06,1,0.81,0
0,0,0.053062,0.022741,0.022741,-0.0078309,0,0,0.039418,3.7947e-19,0,-0.02036,0,0,0,0.054965,0.020838,0.022741,-13.659,0.032848,0.033217,1.8615e-06,0,0.82,0
0.00039418,-0.0002036,0.05295,0.021369,0.022296,-0.0078253,0,0,0.03985,-0.0012047,0,-0.020346,0,0,0,0.054782,0.019536,0.022296,-13.181,0.032205,0.033951,1.9652e-06,0.01,0.82,0
0.00079701,-0.0004099,0.053409,0.020207,0.022085,-0.0078451,0,0,0.040722,-0.0024409,0,-0.020397,0,0,0,0.05517,0.018447,0.022085,-12.647,0.031901,0.035046,2.1306e-06,0.02,0.82,0
0.0012086,-0.0006181,0.053867,0.019024,0.021867,-0.0078204,0,0,0.041599,-0.0036965,0,-0.020333,0,0,0,0.055542,0.017349,0.021867,-12.088,0.031586,0.036146,2.2982e-06,0.03,0.82,0
0.001629,-0.00082732,0.054315,0.01783,0.021643,-0.0077481,0,0,0.042473,-0.0049577,0,-0.020145,0,0,0,0.055892,0.016252,0.021643,-11.506,0.031263,0.037238,2.4657e-06,0.04,0.82,0
0.0020581,-0.0010366,0.054747,0.016639,0.021416,-0.0076273,0,0,0.04333,-0.0062099,0,-0.019831,0,0,0,0.056217,0.015169,0.021416,-10.908,0.030934,0.038308,2.6304e-06,0.05,0.82,0
0.0024956,-0.001245,0.055156,0.015464,0.021186,-0.0074593,0,0,0.044161,-0.0074389,0,-0.019394,0,0,0,0.056512,0.014108,0.021186,-10.299,0.030602,0.039345,2.79e-06,0.06,0.82,0
0.0029413,-0.0014515,0.055538,0.014316,0.020956,-0.0072472,0,0,0.044956,-0.0086317,0,-0.018843,0,0,0,0.056775,0.013079,0.020956,-9.6864,0.03027,0.040338,2.9424e-06,0.07,0.82,0
0.0033947,-0.0016552,0.055886,0.013208,0.020728,-0.0069958,0,0,0.045706,-0.0097769,0,-0.018189,0,0,0,0.057004,0.01209,0.020728,-9.0754,0.029941,0.041278,3.0858e-06,0.08,0.82,0
0.0038554,-0.0018554,0.056199,0.012145,0.020503,-0.006711,0,0,0.046405,-0.010865,0,-0.017449,0,0,0,0.057199,0.011146,0.020503,-8.4723,0.029616,0.04216,3.2189e-06,0.09,0.82,0
0.0043228,-0.0020512,0.056474,0.011137,0.020283,-0.0063994,0,0,0.047048,-0.011891,0,-0.016638,0,0,0,0.05736,0.010251,0.020283,-7.8822,0.029298,0.04298,3.3409e-06,0.1,0.82,0
0.0047964,-0.0022421,0.056711,0.010186,0.020069,-0.0060675,0,0,0.047634,-0.012848,0,-0.015776,0,0,0,0.057489,0.0094074,0.020069,-7.3094,0.028988,0.043737,3.4514e-06,0.11,0.82,0
0.0052755,-0.0024276,0.05691,0.0092953,0.019861,-0.005722,0,0,0.048162,-0.013736,0,-0.014877,0,0,0,0.057587,0.0086173,0.019861,-6.7573,0.028689,0.044428,3.5501e-06,0.12,0.82,0
0.0057596,-0.0026072,0.057072,0.0084663,0.019661,-0.0053688,0,0,0.048634,-0.014554,0,-0.013959,0,0,0,0.057658,0.0078804,0.019661,-6.2286,0.0284,0.045057,3.6375e-06,0.13,0.82,0
0.0062482,-0.0027807,0.0572,0.0076984,0.01947,-0.0050132,0,0,0.04905,-0.015303,0,-0.013034,0,0,0,0.057703,0.0071958,0.01947,-5.725,0.028123,0.045626,3.714e-06,0.14,0.82,0
0.0067406,-0.0029478,0.057297,0.0069901,0.019286,-0.00466,0,0,0.049415,-0.015985,0,-0.012116,0,0,0,0.057725,0.006562,0.019286,-5.2478,0.027858,0.046137,3.7802e-06,0.15,0.82,0
0.0072365,-0.0031084,0.057366,0.006339,0.019112,-0.0043129,0,0,0.049731,-0.016604,0,-0.011213,0,0,0,0.057728,0.005977,0.019112,-4.7973,0.027606,0.046594,3.837e-06,0.16,0.82,0
0.0077352,-0.0032626,0.057409,0.0057424,0.018946,-0.003975,0,0,0.050003,-0.017164,0,-0.010335,0,0,0,0.057714,0.0054384,0.018946,-4.3738,0.027366,0.047,3.8851e-06,0.17,0.82,0
0.0082365,-0.0034102,0.057431,0.0051971,0.018788,-0.0036488,0,0,0.050235,-0.017669,0,-0.009487,0,0,0,0.057684,0.0049434,0.018788,-3.9767,0.027139,0.047361,3.9253e-06,0.18,0.82,0
0.0087399,-0.0035514,0.057433,0.0046996,0.01864,-0.0033361,0,0,0.050431,-0.018122,0,-0.0086739,0,0,0,0.057643,0.0044894,0.01864,-3.6056,0.026924,0.04768,3.9586e-06,0.19,0.82,0
0.0092452,-0.0036862,0.057419,0.0042467,0.0185,-0.003038,0,0,0.050595,-0.018529,0,-0.0078988,0,0,0,0.057592,0.0040736,0.0185,-3.2595,0.026722,0.047961,3.9858e-06,0.2,0.82,0
0.0097518,-0.0038148,0.057392,0.0038347,0.018368,-0.0027554,0,0,0.050731,-0.018893,0,-0.007164,0,0,0,0.057533,0.0036933,0.018368,-2.9374,0.026531,0.048208,4.0076e-06,0.21,0.82,0
0.01026,-0.0039374,0.057353,0.0034604,0.018244,-0.0024886,0,0,0.050842,-0.019219,0,-0.0064703,0,0,0,0.057468,0.0033457,0.018244,-2.6382,0.026353,0.048424,4.0247e-06,0.22,0.82,0
0.010769,-0.0040542,0.057306,0.0031207,0.018128,-0.0022377,0,0,0.050931,-0.019509,0,-0.005818,0,0,0,0.057398,0.0030284,0.018128,-2.3608,0.026185,0.048612,4.0377e-06,0.23,0.82,0
0.011278,-0.0041653,0.057252,0.0028125,0.018019,-0.0020026,0,0,0.051002,-0.019769,0,-0.0052068,0,0,0,0.057325,0.0027389,0.018019,-2.1039,0.026028,0.048775,4.0473e-06,0.24,0.82,0
0.011789,-0.0042709,0.057192,0.0025331,0.017917,-0.001783,0,0,0.051057,-0.02,0,-0.0046358,0,0,0,0.05725,0.002475,0.017917,-1.8664,0.025881,0.048918,4.054e-06,0.25,0.82,0
0.012299,-0.0043713,0.057129,0.0022798,0.017823,-0.0015784,0,0,0.051098,-0.020206,0,-0.0041038,0,0,0,0.057174,0.0022344,0.017823,-1.647,0.025744,0.04904,4.0582e-06,0.26,0.82,0
0.012811,-0.0044666,0.057063,0.0020503,0.017734,-0.0013882,0,0,0.051128,-0.020389,0,-0.0036093,0,0,0,0.057098,0.0020153,0.017734,-1.4446,0.025616,0.049146,4.0604e-06,0.27,0.82,0
0.013322,-0.0045571,0.056996,0.0018423,0.017651,-0.0012118,0,0,0.051147,-0.020552,0,-0.0031507,0,0,0,0.057022,0.0018157,0.017651,-1.2581,0.025496,0.049237,4.0608e-06,0.28,0.82,0
0.013834,-0.0046431,0.056928,0.0016539,0.017574,-0.0010486,0,0,0.051159,-0.020697,0,-0.0027262,0,0,0,0.056948,0.001634,0.017574,-1.0864,0.025385,0.049315,4.0599e-06,0.29,0.82,0
0.014345,-0.0047246,0.05686,0.0014832,0.017503,-0.00089774,0,0,0.051164,-0.020826,0,-0.0023341,0,0,0,0.056875,0.0014686,0.017503,-0.92852,0.025282,0.049382,4.0579e-06,0.3,0.82,0
0.014857,-0.0048018,0.056793,0.0013285,0.017437,-0.00075866,0,0,0.051164,-0.020941,0,-0.0019725,0,0,0,0.056804,0.0013181,0.017437,-0.78351,0.025186,0.049438,4.0549e-06,0.31,0.82,0
0.015369,-0.0048751,0.056728,0.0011883,0.017375,-0.00063063,0,0,0.051159,-0.021043,0,-0.0016396,0,0,0,0.056735,0.0011811,0.017375,-0.65046,0.025097,0.049486,4.0513e-06,0.32,0.82,0
0.01588,-0.0049445,0.056664,0.0010612,0.017318,-0.00051297,0,0,0.051151,-0.021133,0,-0.0013337,0,0,0,0.056669,0.0010565,0.017318,-0.52852,0.025014,0.049527,4.0472e-06,0.33,0.82,0
0.016392,-0.0050103,0.056603,0.000946,0.017265,-0.00040501,0,0,0.05114,-0.021214,0,-0.001053,0,0,0,0.056606,0.00094306,0.017265,-0.41691,0.024938,0.049561,4.0427e-06,0.34,0.82,0
0.016903,-0.0050727,0.056544,0.00084153,0.017216,-0.00030614,0,0,0.051127,-0.021286,0,-0.00079595,0,0,0,0.056545,0.00083985,0.017216,-0.31488,0.024867,0.049589,4.038e-06,0.35,0.82,0
0.017414,-0.0051317,0.056487,0.00074677,0.01717,-0.00021574,0,0,0.051112,-0.021351,0,-0.00056091,0,0,0,0.056488,0.00074594,0.01717,-0.22175,0.024801,0.049613,4.0331e-06,0.36,0.82,0
0.017925,-0.0051875,0.056433,0.00066081,0.017128,-0.00013323,0,0,0.051097,-0.021408,0,-0.00034641,0,0,0,0.056434,0.00066049,0.017128,-0.13687,0.024741,0.049632,4.0282e-06,0.37,0.82,0
0.018436,-0.0052404,0.056382,0.0005828,0.01709,-5.8094e-05,0,0,0.05108,-0.021459,0,-0.00015104,0,0,0,0.056382,0.00058274,0.01709,-0.059652,0.024685,0.049649,4.0233e-06,0.38,0.82,0
0.018947,-0.0052905,0.056334,0.00051198,0.017054,1.0201e-05,0,0,0.051064,-0.021504,0,2.6522e-05,0,0,0,0.056334,0.00051198,0.017054,0.01047,0.024633,0.049662,4.0185e-06,0.39,0.82,0
0.019457,-0.0053378,0.056288,0.00044769,0.017021,7.2129e-05,0,0,0.051048,-0.021545,0,0.00018754,0,0,0,0.056288,0.0004476,0.017021,0.074009,0.024585,0.049673,4.0138e-06,0.4,0.82,0
0.019968,-0.0053826,0.056245,0.0003893,0.01699,0.00012814,0,0,0.051031,-0.021581,0,0.00033317,0,0,0,0.056246,0.00038901,0.01699,0.13145,0.024542,0.049682,4.0092e-06,0.41,0.82,0
0.020478,-0.005425,0.056205,0.00033626,0.016962,0.00017866,0,0,0.051016,-0.021614,0,0.00046452,0,0,0,0.056206,0.00033569,0.016962,0.18322,0.024501,0.049689,4.0048e-06,0.42,0.82,0
0.020988,-0.005465,0.056168,0.00028806,0.016937,0.00022408,0,0,0.051,-0.021643,0,0.00058262,0,0,0,0.056169,0.00028716,0.016937,0.22976,0.024464,0.049695,4.0007e-06,0.43,0.82,0
0.021498,-0.0055029,0.056133,0.00024426,0.016913,0.00026477,0,0,0.050986,-0.02167,0,0.00068841,0,0,0,0.056134,0.00024301,0.016913,0.27143,0.02443,0.049699,3.9967e-06,0.44,0.82,0
0.022008,-0.0055386,0.056101,0.00020444,0.016892,0.00030108,0,0,0.050972,-0.021693,0,0.0007828,0,0,0,0.056102,0.00020282,0.016892,0.3086,0.024399,0.049703,3.993e-06,0.45,0.82,0
0.022517,-0.0055724,0.056071,0.00016824,0.016872,0.00033331,0,0,0.050959,-0.021715,0,0.00086661,0,0,0,0.056073,0.00016625,0.016872,0.3416,0.02437,0.049706,3.9896e-06,0.46,0.82,0
0.023027,-0.0056043,0.056044,0.00013532,0.016854,0.00036177,0,0,0.050947,-0.021734,0,0.00094061,0,0,0,0.056046,0.00013298,0.016854,0.37073,0.024344,0.049709,3.9864e-06,0.47,0.82,0
0.023536,-0.0056344,0.056019,0.00010538,0.016837,0.00038674,0,0,0.050936,-0.021751,0,0.0010055,0,0,0,0.056021,0.00010271,0.016837,0.39628,0.02432,0.049711,3.9834e-06,0.48,0.82,0
0.024046,-0.0056628,0.055996,7.8153e-05,0.016822,0.00040847,0,0,0.050925,-0.021767,0,0.001062,0,0,0,0.055999,7.5169e-05,0.016822,0.41851,0.024299,0.049713,3.9806e-06,0.49,0.82,0
0.024555,-0.0056896,0.055975,5.3385e-05,0.016808,0.00042721,0,0,0.050916,-0.021781,0,0.0011107,0,0,0,0.055978,5.0122e-05,0.016808,0.43767,0.024279,0.049714,3.9781e-06,0.5,0.82,0
0.025064,-0.0057149,0.055956,3.0857e-05,0.016796,0.00044317,0,0,0.050908,-0.021795,0,0.0011522,0,0,0,0.055959,2.7346e-05,0.016796,0.45399,0.024261,0.049716,3.9759e-06,0.51,0.82,0
0.025573,-0.0057387,0.055938,1.0368e-05,0.016785,0.00045656,0,0,0.0509,-0.021806,0,0.0011871,0,0,0,0.055942,6.6415e-06,0.016785,0.46768,0.024244,0.049717,3.9738e-06,0.52,0.82,0
0.026082,-0.0057612,0.055923,-8.2645e-06,0.016774,0.00046757,0,0,0.050893,-0.021818,0,0.0012157,0,0,0,0.055927,-1.2173e-05,0.016774,0.47893,0.02423,0.049719,3.972e-06,0.53,0.82,0
0.026591,-0.0057824,0.055909,-2.5206e-05,0.016765,0.00047639,0,0,0.050887,-0.021827,0,0.0012386,0,0,0,0.055913,-2.9263e-05,0.016765,0.48794,0.024216,0.04972,3.9704e-06,0.54,0.82,0
0.0271,-0.0058023,0.055897,-4.0606e-05,0.016757,0.00048317,0,0,0.050882,-0.021837,0,0.0012562,0,0,0,0.055901,-4.4779e-05,0.016757,0.49485,0.024204,0.049722,3.969e-06,0.55,0.82,0
0.027609,-0.0058211,0.055886,-5.46e-05,0.016749,0.00048807,0,0,0.050877,-0.021845,0,0.001269,0,0,0,0.05589,-5.8858e-05,0.016749,0.49985,0.024193,0.049723,3.9677e-06,0.56,0.82,0
0.028117,-0.0058388,0.055876,-6.7312e-05,0.016743,0.00049124,0,0,0.050874,-0.021853,0,0.0012772,0,0,0,0.05588,-7.1625e-05,0.016743,0.50306,0.024184,0.049725,3.9667e-06,0.57,0.82,0
0.028626,-0.0058554,0.055868,-7.8852e-05,0.016737,0.0004928,0,0,0.05087,-0.02186,0,0.0012813,0,0,0,0.055872,-8.3192e-05,0.016737,0.50463,0.024175,0.049727,3.9657e-06,0.58,0.82,0
0.029135,-0.0058711,0.055861,-8.9323e-05,0.016731,0.00049289,0,0,0.050868,-0.021867,0,0.0012815,0,0,0,0.055865,-9.3664e-05,0.016731,0.50469,0.024168,0.049729,3.965e-06,0.59,0.82,0
0.029643,-0.0058858,0.055854,-9.8817e-05,0.016727,0.0004916,0,0,0.050866,-0.021873,0,0.0012782,0,0,0,0.055859,-0.00010314,0.016727,0.50335,0.024161,0.049731,3.9644e-06,0.6,0.82,0
0.030152,-0.0058996,0.055849,-0.00010742,0.016723,0.00048907,0,0,0.050864,-0.021879,0,0.0012716,0,0,0,0.055853,-0.00011169,0.016723,0.50072,0.024155,0.049733,3.9639e-06,0.61,0.82,0
0.030661,-0.0059125,0.055845,-0.0001152,0.016719,0.00048537,0,0,0.050864,-0.021884,0,0.0012619,0,0,0,0.055849,-0.00011941,0.016719,0.4969,0.02415,0.049735,3.9636e-06,0.62,0.82,0
0.031169,-0.0059247,0.055841,-0.00012224,0.016716,0.0004806,0,0,0.050863,-0.021889,0,0.0012496,0,0,0,0.055845,-0.00012637,0.016716,0.49199,0.024145,0.049737,3.9633e-06,0.63,0.82,0
0.031678,-0.0059361,0.055838,-0.0001286,0.016713,0.00047485,0,0,0.050863,-0.021894,0,0.0012346,0,0,0,0.055843,-0.00013263,0.016713,0.48607,0.024141,0.04974,3.9632e-06,0.64,0.82,0
0.032186,-0.0059469,0.055836,-0.00013433,0.016711,0.00046819,0,0,0.050863,-0.021898,0,0.0012173,0,0,0,0.05584,-0.00013825,0.016711,0.47923,0.024138,0.049742,3.9632e-06,0.65,0.82,0
0.032695,-0.0059569,0.055835,-0.00013949,0.016709,0.00046071,0,0,0.050864,-0.021903,0,0.0011978,0,0,0,0.055839,-0.00014328,0.016709,0.47154,0.024135,0.049745,3.9632e-06,0.66,0.82,0
0.033204,-0.0059663,0.055834,-0.00014413,0.016707,0.00045246,0,0,0.050865,-0.021906,0,0.0011764,0,0,0,0.055838,-0.00014779,0.016707,0.46307,0.024132,0.049748,3.9633e-06,0.67,0.82,0
0.033712,-0.0059751,0.055834,-0.00014829,0.016706,0.00044351,0,0,0.050866,-0.02191,0,0.0011531,0,0,0,0.055837,-0.00015181,0.016706,0.45388,0.02413,0.04975,3.9635e-06,0.68,0.82,0
0.034221,-0.0059833,0.055834,-0.00015202,0.016705,0.00043393,0,0,0.050868,-0.021913,0,0.0011282,0,0,0,0.055837,-0.00015538,0.016705,0.44404,0.024129,0.049753,3.9637e-06,0.69,0.82,0
0.03473,-0.005991,0.055834,-0.00015535,0.016704,0.00042375,0,0,0.05087,-0.021917,0,0.0011018,0,0,0,0.055837,-0.00015856,0.016704,0.43361,0.024127,0.049756,3.964e-06,0.7,0.82,0
0.035238,-0.0059982,0.055835,-0.00015832,0.016703,0.00041305,0,0,0.050872,-0.02192,0,0.0010739,0,0,0,0.055838,-0.00016136,0.016703,0.42262,0.024126,0.049759,3.9644e-06,0.71,0.82,0
0.035747,-0.0060049,0.055836,-0.00016095,0.016702,0.00040185,0,0,0.050874,-0.021923,0,0.0010448,0,0,0,0.055839,-0.00016384,0.016702,0.41114,0.024126,0.049762,3.9648e-06,0.72,0.82,0
0.036256,-0.0060112,0.055837,-0.00016329,0.016702,0.00039021,0,0,0.050876,-0.021925,0,0.0010145,0,0,0,0.05584,-0.000166,0.016702,0.3992,0.024126,0.049765,3.9652e-06,0.73,0.82,0
0.036765,-0.0060171,0.055839,-0.00016535,0.016702,0.00037816,0,0,0.050878,-0.021928,0,0.0009832,0,0,0,0.055842,-0.0001679,0.016702,0.38685,0.024125,0.049767,3.9657e-06,0.74,0.82,0
0.037274,-0.0060225,0.055841,-0.00016716,0.016702,0.00036574,0,0,0.05088,-0.02193,0,0.00095092,0,0,0,0.055843,-0.00016955,0.016702,0.37412,0.024125,0.04977,3.9661e-06,0.75,0.82,0
0.037782,-0.0060275,0.055843,-0.00016875,0.016702,0.00035298,0,0,0.050883,-0.021932,0,0.00091776,0,0,0,0.055845,-0.00017097,0.016702,0.36106,0.024125,0.049773,3.9666e-06,0.76,0.82,0
0.038291,-0.0060323,0.055845,-0.00017013,0.016702,0.00033993,0,0,0.050885,-0.021934,0,0.00088381,0,0,0,0.055847,-0.00017219,0.016702,0.34768,0.024126,0.049775,3.9671e-06,0.77,0.82,0
0.0388,-0.0060366,0.055847,-0.00017133,0.016703,0.00032659,0,0,0.050888,-0.021936,0,0.00084914,0,0,0,0.055849,-0.00017323,0.016703,0.33403,0.024126,0.049778,3.9676e-06,0.78,0.82,0
0.039309,-0.0060407,0.055849,-0.00017236,0.016703,0.00031301,0,0,0.05089,-0.021938,0,0.00081383,0,0,0,0.055851,-0.00017411,0.016703,0.32012,0.024127,0.049781,3.9681e-06,0.79,0.82,0
0.039818,-0.0060444,0.055852,-0.00017325,0.016703,0.00029921,0,0,0.050893,-0.02194,0,0.00077794,0,0,0,0.055853,-0.00017484,0.016703,0.30598,0.024127,0.049783,3.9686e-06,0.8,0.82,0
0.040327,-0.0060479,0.055854,-0.000174,0.016704,0.0002852,0,0,0.050895,-0.021941,0,0.00074152,0,0,0,0.055855,-0.00017545,0.016704,0.29164,0.024128,0.049786,3.9691e-06,0.81,0.82,0
0.040836,-0.0060511,0.055856,-0.00017463,0.016705,0.00027101,0,0,0.050897,-0.021943,0,0.00070463,0,0,0,0.055857,-0.00017594,0.016705,0.27712,0.024129,0.049788,3.9697e-06,0.82,0.82,0
0.041345,-0.006054,0.055858,-0.00017517,0.016705,0.00025666,0,0,0.0509,-0.021944,0,0.00066732,0,0,0,0.05586,-0.00017634,0.016705,0.26244,0.024129,0.04979,3.9701e-06,0.83,0.82,0
0.041854,-0.0060567,0.055861,-0.00017561,0.016706,0.00024217,0,0,0.050902,-0.021945,0,0.00062963,0,0,0,0.055862,-0.00017665,0.016706,0.2476,0.02413,0.049792,3.9706e-06,0.84,0.82,0
0.042363,-0.0060592,0.055863,-0.00017596,0.016706,0.00022754,0,0,0.050904,-0.021947,0,0.00059161,0,0,0,0.055864,-0.00017689,0.016706,0.23264,0.024131,0.049794,3.9711e-06,0.85,0.82,0
0.042872,-0.0060615,0.055865,-0.00017625,0.016707,0.0002128,0,0,0.050906,-0.021948,0,0.00055329,0,0,0,0.055866,-0.00017706,0.016707,0.21756,0.024132,0.049796,3.9715e-06,0.86,0.82,0
0.043381,-0.0060636,0.055867,-0.00017648,0.016707,0.00019796,0,0,0.050908,-0.021949,0,0.0005147,0,0,0,0.055868,-0.00017718,0.016707,0.20238,0.024133,0.049798,3.9719e-06,0.87,0.82,0
0.04389,-0.0060655,0.055869,-0.00017666,0.016708,0.00018303,0,0,0.05091,-0.02195,0,0.00047588,0,0,0,0.05587,-0.00017726,0.016708,0.18711,0.024133,0.049799,3.9723e-06,0.88,0.82,0
0.044399,-0.0060671,0.055871,-0.0001768,0.016708,0.00016802,0,0,0.050911,-0.021951,0,0.00043685,0,0,0,0.055871,-0.0001773,0.016708,0.17176,0.024134,0.049801,3.9727e-06,0.89,0.82,0
0.044908,-0.0060687,0.055872,-0.0001769,0.016709,0.00015294,0,0,0.050913,-0.021951,0,0.00039765,0,0,0,0.055873,-0.00017731,0.016709,0.15634,0.024135,0.049802,3.973e-06,0.9,0.82,0
0.045417,-0.00607,0.055874,-0.00017697,0.016709,0.0001378,0,0,0.050914,-0.021952,0,0.00035829,0,0,0,0.055874,-0.00017731,0.016709,0.14086,0.024135,0.049804,3.9733e-06,0.91,0.82,0
0.045927,-0.0060712,0.055875,-0.00017702,0.016709,0.00012261,0,0,0.050916,-0.021952,0,0.00031879,0,0,0,0.055876,-0.00017729,0.016709,0.12533,0.024136,0.049805,3.9736e-06,0.92,0.82,0
0.046436,-0.0060722,0.055877,-0.00017705,0.01671,0.00010737,0,0,0.050917,-0.021953,0,0.00027917,0,0,0,0.055877,-0.00017725,0.01671,0.10975,0.024137,0.049806,3.9739e-06,0.93,0.82,0
0.046945,-0.0060731,0.055878,-0.00017707,0.01671,9.2101e-05,0,0,0.050918,-0.021953,0,0.00023946,0,0,0,0.055878,-0.00017722,0.01671,0.09414,0.024137,0.049807,3.9741e-06,0.94,0.82,0
0.047454,-0.0060739,0.055879,-0.00017707,0.01671,7.6797e-05,0,0,0.050919,-0.021954,0,0.00019967,0,0,0,0.055879,-0.00017718,0.01671,0.078495,0.024137,0.049808,3.9743e-06,0.95,0.82,0
0.047963,-0.0060745,0.055879,-0.00017708,0.016711,6.1467e-05,0,0,0.050919,-0.021954,0,0.00015981,0,0,0,0.055879,-0.00017714,0.016711,0.062826,0.024138,0.049808,3.9744e-06,0.96,0.82,0
0.048472,-0.0060749,0.05588,-0.00017707,0.016711,4.6117e-05,0,0,0.05092,-0.021954,0,0.0001199,0,0,0,0.05588,-0.00017711,0.016711,0.047136,0.024138,0.049809,3.9745e-06,0.97,0.82,0
0.048982,-0.0060752,0.05588,-0.00017707,0.016711,3.0753e-05,0,0,0.05092,-0.021954,0,7.9957e-05,0,0,0,0.05588,-0.00017709,0.016711,0.031432,0.024138,0.049809,3.9746e-06,0.98,0.82,0
0.049491,-0.0060754,0.055881,-0.00017707,0.016711,1.5379e-05,0,0,0.050921,-0.021955,0,3.9985e-05,0,0,0,0.055881,-0.00017707,0.016711,0.015718,0.024138,0.049809,3.9747e-06,0.99,0.82,0
0.05,-0.0060755,0.055881,-0.00017707,0.016711,-2.5262e-06,0,0,0.050921,-0.021955,0,-6.5681e-06,0,0,0,0.055881,-0.00017707,0.016711,-0.002582,0.024138,0.049809,3.9747e-06,1,0.82,0
0,0,0.053276,0.022832,0.022832,-0.0083017,0,0,0.039576,0,0,-0.021584,0,0,0,0.055392,0.020716,0.022832,-14.304,0.03298,0.033668,1.934e-06,0,0.83,0
0.00039576,-0.00021584,0.05316,0.021413,0.022372,-0.0082949,0,0,0.040025,-0.0012465,0,-0.021567,0,0,0,0.055197,0.019377,0.022372,-13.795,0.032315,0.03442,2.0411e-06,0.01,0.83,0
0.00080049,-0.00043473,0.053636,0.020205,0.022152,-0.0083158,0,0,0.040928,-0.002531,0,-0.021621,0,0,0,0.05559,0.018251,0.022152,-13.225,0.031998,0.035549,2.2139e-06,0.02,0.83,0
0.0012143,-0.00065573,0.054108,0.01897,0.021923,-0.008285,0,0,0.04184,-0.0038391,0,-0.021541,0,0,0,0.055963,0.017115,0.021923,-12.624,0.031667,0.036681,2.3887e-06,0.03,0.83,0
0.0016373,-0.0008778,0.054569,0.017723,0.021688,-0.0081988,0,0,0.042746,-0.005154,0,-0.021317,0,0,0,0.056311,0.015981,0.021688,-11.995,0.031327,0.037801,2.5624e-06,0.04,0.83,0
0.0020692,-0.0010998,0.055012,0.01648,0.021448,-0.0080565,0,0,0.043634,-0.0064583,0,-0.020947,0,0,0,0.056629,0.014863,0.021448,-11.347,0.03098,0.038894,2.7321e-06,0.05,0.83,0
0.00251,-0.0013207,0.055428,0.015255,0.021205,-0.0078601,0,0,0.04449,-0.0077352,0,-0.020436,0,0,0,0.056911,0.013772,0.021205,-10.685,0.030629,0.039945,2.8952e-06,0.06,0.83,0
0.0029591,-0.0015394,0.055812,0.014063,0.020962,-0.0076142,0,0,0.045304,-0.0089694,0,-0.019797,0,0,0,0.057157,0.012717,0.020962,-10.02,0.030279,0.040945,3.0491e-06,0.07,0.83,0
0.003416,-0.0017547,0.056157,0.012916,0.020722,-0.0073249,0,0,0.046066,-0.010148,0,-0.019045,0,0,0,0.057365,0.011709,0.020722,-9.3579,0.029932,0.041883,3.1923e-06,0.08,0.83,0
0.0038804,-0.0019659,0.056462,0.011822,0.020485,-0.0069999,0,0,0.04677,-0.011262,0,-0.0182,0,0,0,0.057534,0.010751,0.020485,-8.7062,0.02959,0.042756,3.3234e-06,0.09,0.83,0
0.0043514,-0.0021721,0.056725,0.01079,0.020255,-0.0066471,0,0,0.047411,-0.012303,0,-0.017282,0,0,0,0.057667,0.0098478,0.020255,-8.0707,0.029257,0.043558,3.4417e-06,0.1,0.83,0
0.0048286,-0.0023726,0.056944,0.0098235,0.02003,-0.0062746,0,0,0.047988,-0.013269,0,-0.016314,0,0,0,0.057766,0.0090023,0.02003,-7.4564,0.028933,0.044291,3.5471e-06,0.11,0.83,0
0.0053112,-0.002567,0.057123,0.008924,0.019814,-0.00589,0,0,0.048502,-0.014157,0,-0.015314,0,0,0,0.057832,0.0082147,0.019814,-6.867,0.02862,0.044955,3.6397e-06,0.12,0.83,0
0.0057986,-0.0027547,0.057263,0.008092,0.019606,-0.0055001,0,0,0.048953,-0.014969,0,-0.0143,0,0,0,0.05787,0.0074842,0.019606,-6.3051,0.02832,0.045551,3.72e-06,0.13,0.83,0
0.0062903,-0.0029356,0.057366,0.0073262,0.019408,-0.0051109,0,0,0.049346,-0.015706,0,-0.013288,0,0,0,0.057883,0.0068095,0.019408,-5.7726,0.028033,0.046085,3.7889e-06,0.14,0.83,0
0.0067856,-0.0031095,0.057438,0.0066243,0.019219,-0.0047274,0,0,0.049685,-0.016373,0,-0.012291,0,0,0,0.057874,0.0061883,0.019219,-5.2702,0.02776,0.046559,3.8473e-06,0.15,0.83,0
0.007284,-0.0032763,0.05748,0.0059832,0.019039,-0.0043536,0,0,0.049974,-0.016973,0,-0.011319,0,0,0,0.057846,0.0056178,0.019039,-4.7984,0.027501,0.046978,3.896e-06,0.16,0.83,0
0.007785,-0.0034359,0.057498,0.0053992,0.018869,-0.0039924,0,0,0.050218,-0.017511,0,-0.01038,0,0,0,0.057802,0.005095,0.018869,-4.3568,0.027255,0.047348,3.9362e-06,0.17,0.83,0
0.0082883,-0.0035885,0.057495,0.0048684,0.018709,-0.0036463,0,0,0.050421,-0.017993,0,-0.0094804,0,0,0,0.057746,0.0046169,0.018709,-3.9447,0.027024,0.047672,3.9688e-06,0.18,0.83,0
0.0087935,-0.0037341,0.057473,0.0043868,0.018558,-0.0033168,0,0,0.05059,-0.018423,0,-0.0086236,0,0,0,0.05768,0.0041803,0.018558,-3.5613,0.026806,0.047955,3.9948e-06,0.19,0.83,0
0.0093001,-0.0038729,0.057437,0.0039504,0.018416,-0.0030048,0,0,0.050727,-0.018805,0,-0.0078125,0,0,0,0.057605,0.0037821,0.018416,-3.2054,0.026601,0.048202,4.015e-06,0.2,0.83,0
0.009808,-0.004005,0.057388,0.0035554,0.018283,-0.0027109,0,0,0.050837,-0.019146,0,-0.0070483,0,0,0,0.057525,0.0034193,0.018283,-2.8756,0.026409,0.048416,4.0303e-06,0.21,0.83,0
0.010317,-0.0041308,0.057331,0.0031983,0.018159,-0.0024352,0,0,0.050924,-0.019449,0,-0.0063314,0,0,0,0.05744,0.0030889,0.018159,-2.5705,0.026229,0.048601,4.0414e-06,0.22,0.83,0
0.010826,-0.0042503,0.057266,0.0028754,0.018042,-0.0021774,0,0,0.05099,-0.019717,0,-0.0056612,0,0,0,0.057353,0.0027884,0.018042,-2.2888,0.026061,0.048761,4.049e-06,0.23,0.83,0
0.011337,-0.0043639,0.057196,0.0025838,0.017934,-0.0019372,0,0,0.05104,-0.019955,0,-0.0050368,0,0,0,0.057264,0.0025151,0.017934,-2.029,0.025904,0.048898,4.0536e-06,0.24,0.83,0
0.011847,-0.0044717,0.057122,0.0023203,0.017833,-0.001714,0,0,0.051076,-0.020166,0,-0.0044565,0,0,0,0.057175,0.0022667,0.017833,-1.7897,0.025758,0.049016,4.0557e-06,0.25,0.83,0
0.012358,-0.0045741,0.057046,0.0020823,0.017738,-0.0015072,0,0,0.051099,-0.020353,0,-0.0039187,0,0,0,0.057087,0.002041,0.017738,-1.5696,0.025622,0.049116,4.0559e-06,0.26,0.83,0
0.012869,-0.0046712,0.056969,0.0018674,0.017651,-0.0013159,0,0,0.051113,-0.020518,0,-0.0034213,0,0,0,0.057,0.001836,0.017651,-1.3672,0.025496,0.049201,4.0544e-06,0.27,0.83,0
0.01338,-0.0047633,0.056892,0.0016733,0.017569,-0.0011393,0,0,0.051119,-0.020665,0,-0.0029622,0,0,0,0.056915,0.0016499,0.017569,-1.1815,0.025378,0.049274,4.0516e-06,0.28,0.83,0
0.013892,-0.0048505,0.056815,0.001498,0.017494,-0.00097661,0,0,0.051118,-0.020795,0,-0.0025392,0,0,0,0.056833,0.0014808,0.017494,-1.0111,0.025269,0.049335,4.0478e-06,0.29,0.83,0
0.014403,-0.0049333,0.056741,0.0013396,0.017424,-0.000827,0,0,0.051112,-0.02091,0,-0.0021502,0,0,0,0.056753,0.0013273,0.017424,-0.85503,0.025168,0.049386,4.0432e-06,0.3,0.83,0
0.014914,-0.0050116,0.056668,0.0011965,0.017359,-0.00068964,0,0,0.051101,-0.021012,0,-0.0017931,0,0,0,0.056676,0.0011879,0.017359,-0.71218,0.025075,0.049428,4.0381e-06,0.31,0.83,0
0.015425,-0.0050859,0.056598,0.0010671,0.017299,-0.00056373,0,0,0.051088,-0.021102,0,-0.0014657,0,0,0,0.056603,0.0010614,0.017299,-0.58157,0.024988,0.049464,4.0326e-06,0.32,0.83,0
0.015936,-0.0051561,0.05653,0.0009502,0.017244,-0.0004485,0,0,0.051071,-0.021182,0,-0.0011661,0,0,0,0.056533,0.00094658,0.017244,-0.46231,0.024908,0.049493,4.0268e-06,0.33,0.83,0
0.016446,-0.0052227,0.056465,0.00084445,0.017193,-0.00034321,0,0,0.051054,-0.021253,0,-0.00089235,0,0,0,0.056467,0.00084233,0.017193,-0.35353,0.024834,0.049517,4.0209e-06,0.34,0.83,0
0.016957,-0.0052857,0.056403,0.00074878,0.017146,-0.00024717,0,0,0.051035,-0.021316,0,-0.00064264,0,0,0,0.056404,0.00074768,0.017146,-0.25445,0.024766,0.049537,4.015e-06,0.35,0.83,0
0.017467,-0.0053453,0.056345,0.00066222,0.017102,-0.00015972,0,0,0.051015,-0.021372,0,-0.00041527,0,0,0,0.056345,0.00066176,0.017102,-0.16434,0.024703,0.049553,4.0092e-06,0.36,0.83,0
0.017977,-0.0054017,0.05629,0.00058387,0.017062,-8.0234e-05,0,0,0.050996,-0.021422,0,-0.00020861,0,0,0,0.05629,0.00058376,0.017062,-0.082524,0.024645,0.049566,4.0034e-06,0.37,0.83,0
0.018487,-0.0054551,0.056238,0.00051294,0.017025,-8.1343e-06,0,0,0.050976,-0.021466,0,-2.1149e-05,0,0,0,0.056238,0.00051293,0.017025,-0.0083636,0.024592,0.049576,3.9978e-06,0.38,0.83,0
0.018996,-0.0055056,0.056189,0.00044869,0.016991,5.7124e-05,0,0,0.050957,-0.021506,0,0.00014852,0,0,0,0.056189,0.00044863,0.016991,0.058717,0.024543,0.049584,3.9925e-06,0.39,0.83,0
0.019506,-0.0055533,0.056144,0.00039049,0.01696,0.00011605,0,0,0.050938,-0.021541,0,0.00030172,0,0,0,0.056144,0.00039025,0.01696,0.11926,0.024498,0.04959,3.9874e-06,0.4,0.83,0
0.020015,-0.0055984,0.056101,0.00033775,0.016932,0.00016911,0,0,0.050921,-0.021572,0,0.00043968,0,0,0,0.056102,0.00033723,0.016932,0.17375,0.024457,0.049595,3.9825e-06,0.41,0.83,0
0.020524,-0.0056411,0.056062,0.00028994,0.016906,0.00021675,0,0,0.050904,-0.021601,0,0.00056355,0,0,0,0.056063,0.00028909,0.016906,0.22267,0.024419,0.049599,3.978e-06,0.42,0.83,0
0.021033,-0.0056814,0.056026,0.00024659,0.016882,0.00025938,0,0,0.050888,-0.021626,0,0.00067438,0,0,0,0.056027,0.00024538,0.016882,0.26642,0.024385,0.049602,3.9737e-06,0.43,0.83,0
0.021542,-0.0057195,0.055993,0.00020728,0.01686,0.00029737,0,0,0.050873,-0.021649,0,0.00077316,0,0,0,0.055994,0.00020569,0.01686,0.30541,0.024353,0.049605,3.9697e-06,0.44,0.83,0
0.022051,-0.0057554,0.055962,0.00017161,0.01684,0.00033108,0,0,0.050859,-0.021669,0,0.0008608,0,0,0,0.055964,0.00016965,0.01684,0.33999,0.024325,0.049607,3.9661e-06,0.45,0.83,0
0.022559,-0.0057894,0.055934,0.00013926,0.016822,0.00036082,0,0,0.050846,-0.021688,0,0.00093814,0,0,0,0.055937,0.00013693,0.016822,0.37051,0.024299,0.049608,3.9627e-06,0.46,0.83,0
0.023068,-0.0058215,0.055909,0.0001099,0.016806,0.00038691,0,0,0.050834,-0.021704,0,0.001006,0,0,0,0.055912,0.00010721,0.016806,0.39727,0.024275,0.04961,3.9597e-06,0.47,0.83,0
0.023576,-0.0058517,0.055886,8.3253e-05,0.016791,0.00040963,0,0,0.050824,-0.02172,0,0.001065,0,0,0,0.055889,8.0246e-05,0.016791,0.42056,0.024253,0.049611,3.9569e-06,0.48,0.83,0
0.024084,-0.0058803,0.055865,5.9068e-05,0.016777,0.00042922,0,0,0.050814,-0.021734,0,0.001116,0,0,0,0.055868,5.5767e-05,0.016777,0.44065,0.024234,0.049612,3.9544e-06,0.49,0.83,0
0.024592,-0.0059073,0.055846,3.7117e-05,0.016765,0.00044593,0,0,0.050806,-0.021746,0,0.0011594,0,0,0,0.05585,3.3554e-05,0.016765,0.45777,0.024216,0.049614,3.9522e-06,0.5,0.83,0
0.0251,-0.0059327,0.05583,1.7194e-05,0.016754,0.00045999,0,0,0.050798,-0.021758,0,0.001196,0,0,0,0.055833,1.3403e-05,0.016754,0.47217,0.0242,0.049615,3.9502e-06,0.51,0.83,0
0.025608,-0.0059566,0.055815,-8.8894e-07,0.016744,0.00047159,0,0,0.050792,-0.021769,0,0.0012261,0,0,0,0.055819,-4.8731e-06,0.016744,0.48404,0.024186,0.049617,3.9485e-06,0.52,0.83,0
0.026116,-0.0059792,0.055802,-1.7298e-05,0.016735,0.00048092,0,0,0.050786,-0.021778,0,0.0012504,0,0,0,0.055806,-2.1441e-05,0.016735,0.49359,0.024173,0.049619,3.947e-06,0.53,0.83,0
0.026624,-0.0060005,0.05579,-3.2185e-05,0.016727,0.00048816,0,0,0.050782,-0.021788,0,0.0012692,0,0,0,0.055795,-3.6454e-05,0.016727,0.50099,0.024162,0.04962,3.9458e-06,0.54,0.83,0
0.027132,-0.0060205,0.055781,-4.5689e-05,0.01672,0.00049347,0,0,0.050778,-0.021796,0,0.001283,0,0,0,0.055785,-5.005e-05,0.01672,0.50641,0.024152,0.049623,3.9447e-06,0.55,0.83,0
0.02764,-0.0060394,0.055772,-5.7932e-05,0.016714,0.00049701,0,0,0.050775,-0.021804,0,0.0012922,0,0,0,0.055776,-6.2356e-05,0.016714,0.51001,0.024143,0.049625,3.9439e-06,0.56,0.83,0
0.028147,-0.0060571,0.055765,-6.9028e-05,0.016709,0.00049891,0,0,0.050773,-0.021811,0,0.0012972,0,0,0,0.055769,-7.3486e-05,0.016709,0.51192,0.024135,0.049628,3.9432e-06,0.57,0.83,0
0.028655,-0.0060738,0.055759,-7.9078e-05,0.016704,0.00049931,0,0,0.050772,-0.021818,0,0.0012982,0,0,0,0.055764,-8.3543e-05,0.016704,0.51228,0.024128,0.049631,3.9427e-06,0.58,0.83,0
0.029163,-0.0060895,0.055754,-8.8176e-05,0.0167,0.00049831,0,0,0.050771,-0.021824,0,0.0012956,0,0,0,0.055759,-9.2622e-05,0.0167,0.51122,0.024122,0.049633,3.9424e-06,0.59,0.83,0
0.02967,-0.0061043,0.055751,-9.6404e-05,0.016696,0.00049603,0,0,0.050771,-0.02183,0,0.0012897,0,0,0,0.055755,-0.00010081,0.016696,0.50884,0.024117,0.049637,3.9422e-06,0.6,0.83,0
0.030178,-0.0061182,0.055748,-0.00010384,0.016693,0.00049258,0,0,0.050771,-0.021836,0,0.0012807,0,0,0,0.055752,-0.00010818,0.016693,0.50526,0.024112,0.04964,3.9422e-06,0.61,0.83,0
0.030686,-0.0061312,0.055746,-0.00011055,0.016691,0.00048804,0,0,0.050772,-0.021841,0,0.0012689,0,0,0,0.05575,-0.00011482,0.016691,0.50057,0.024109,0.049644,3.9422e-06,0.62,0.83,0
0.031194,-0.0061434,0.055745,-0.0001166,0.016688,0.00048251,0,0,0.050773,-0.021847,0,0.0012545,0,0,0,0.055749,-0.00012077,0.016688,0.49485,0.024105,0.049647,3.9424e-06,0.63,0.83,0
0.031701,-0.0061549,0.055744,-0.00012206,0.016687,0.00047607,0,0,0.050775,-0.021851,0,0.0012378,0,0,0,0.055748,-0.00012611,0.016687,0.4882,0.024103,0.049651,3.9427e-06,0.64,0.83,0
0.032209,-0.0061656,0.055744,-0.00012696,0.016685,0.00046879,0,0,0.050777,-0.021856,0,0.0012189,0,0,0,0.055748,-0.00013089,0.016685,0.4807,0.024101,0.049655,3.9431e-06,0.65,0.83,0
0.032717,-0.0061757,0.055745,-0.00013135,0.016684,0.00046074,0,0,0.050779,-0.02186,0,0.0011979,0,0,0,0.055749,-0.00013515,0.016684,0.4724,0.024099,0.049659,3.9435e-06,0.66,0.83,0
0.033225,-0.0061852,0.055746,-0.00013529,0.016683,0.00045199,0,0,0.050782,-0.021864,0,0.0011752,0,0,0,0.05575,-0.00013895,0.016683,0.46339,0.024098,0.049663,3.944e-06,0.67,0.83,0
0.033732,-0.006194,0.055748,-0.00013882,0.016683,0.0004426,0,0,0.050785,-0.021868,0,0.0011508,0,0,0,0.055752,-0.00014232,0.016683,0.45372,0.024097,0.049667,3.9446e-06,0.68,0.83,0
0.03424,-0.0062023,0.05575,-0.00014196,0.016682,0.00043262,0,0,0.050788,-0.021872,0,0.0011248,0,0,0,0.055753,-0.00014531,0.016682,0.44345,0.024097,0.049671,3.9452e-06,0.69,0.83,0
0.034748,-0.00621,0.055753,-0.00014475,0.016682,0.00042211,0,0,0.050791,-0.021875,0,0.0010975,0,0,0,0.055756,-0.00014794,0.016682,0.43263,0.024097,0.049675,3.9459e-06,0.7,0.83,0
0.035256,-0.0062172,0.055755,-0.00014723,0.016682,0.0004111,0,0,0.050795,-0.021879,0,0.0010689,0,0,0,0.055758,-0.00015025,0.016682,0.42131,0.024097,0.049679,3.9466e-06,0.71,0.83,0
0.035764,-0.006224,0.055758,-0.00014942,0.016683,0.00039965,0,0,0.050798,-0.021882,0,0.0010391,0,0,0,0.055761,-0.00015228,0.016683,0.40954,0.024097,0.049683,3.9474e-06,0.72,0.83,0
0.036272,-0.0062303,0.055761,-0.00015135,0.016683,0.00038779,0,0,0.050802,-0.021885,0,0.0010083,0,0,0,0.055764,-0.00015404,0.016683,0.39736,0.024098,0.049687,3.9482e-06,0.73,0.83,0
0.03678,-0.0062361,0.055765,-0.00015304,0.016684,0.00037557,0,0,0.050806,-0.021888,0,0.00097647,0,0,0,0.055767,-0.00015557,0.016684,0.3848,0.024098,0.049691,3.949e-06,0.74,0.83,0
0.037288,-0.0062416,0.055768,-0.00015452,0.016684,0.00036301,0,0,0.05081,-0.02189,0,0.00094382,0,0,0,0.055771,-0.00015688,0.016684,0.3719,0.024099,0.049695,3.9498e-06,0.75,0.83,0
0.037796,-0.0062467,0.055772,-0.0001558,0.016685,0.00035015,0,0,0.050813,-0.021893,0,0.00091038,0,0,0,0.055774,-0.000158,0.016685,0.35869,0.0241,0.049699,3.9506e-06,0.76,0.83,0
0.038304,-0.0062514,0.055776,-0.00015691,0.016686,0.00033701,0,0,0.050817,-0.021895,0,0.00087623,0,0,0,0.055778,-0.00015894,0.016686,0.34521,0.024101,0.049703,3.9514e-06,0.77,0.83,0
0.038813,-0.0062558,0.055779,-0.00015787,0.016686,0.00032363,0,0,0.050821,-0.021898,0,0.00084145,0,0,0,0.055781,-0.00015974,0.016686,0.33148,0.024103,0.049707,3.9522e-06,0.78,0.83,0
0.039321,-0.0062599,0.055783,-0.00015868,0.016687,0.00031003,0,0,0.050824,-0.0219,0,0.00080608,0,0,0,0.055785,-0.0001604,0.016687,0.31752,0.024104,0.049711,3.953e-06,0.79,0.83,0
0.039829,-0.0062636,0.055787,-0.00015936,0.016688,0.00029623,0,0,0.050828,-0.021902,0,0.00077019,0,0,0,0.055788,-0.00016093,0.016688,0.30336,0.024105,0.049714,3.9538e-06,0.8,0.83,0
0.040337,-0.0062671,0.05579,-0.00015994,0.016689,0.00028225,0,0,0.050831,-0.021904,0,0.00073384,0,0,0,0.055792,-0.00016136,0.016689,0.28903,0.024106,0.049718,3.9545e-06,0.81,0.83,0
0.040846,-0.0062703,0.055794,-0.00016041,0.01669,0.00026811,0,0,0.050835,-0.021906,0,0.00069708,0,0,0,0.055795,-0.0001617,0.01669,0.27453,0.024108,0.049721,3.9553e-06,0.82,0.83,0
0.041354,-0.0062733,0.055797,-0.0001608,0.016691,0.00025382,0,0,0.050838,-0.021907,0,0.00065994,0,0,0,0.055798,-0.00016195,0.016691,0.25988,0.024109,0.049724,3.956e-06,0.83,0.83,0
0.041863,-0.006276,0.055801,-0.00016111,0.016692,0.00023941,0,0,0.050841,-0.021909,0,0.00062247,0,0,0,0.055801,-0.00016213,0.016692,0.24511,0.02411,0.049727,3.9567e-06,0.84,0.83,0
0.042371,-0.0062785,0.055804,-0.00016135,0.016693,0.00022489,0,0,0.050844,-0.02191,0,0.00058471,0,0,0,0.055805,-0.00016226,0.016693,0.23023,0.024112,0.04973,3.9574e-06,0.85,0.83,0
0.04288,-0.0062808,0.055807,-0.00016154,0.016694,0.00021026,0,0,0.050847,-0.021912,0,0.00054668,0,0,0,0.055808,-0.00016233,0.016694,0.21525,0.024113,0.049733,3.958e-06,0.86,0.83,0
0.043388,-0.0062829,0.05581,-0.00016168,0.016694,0.00019555,0,0,0.05085,-0.021913,0,0.00050843,0,0,0,0.05581,-0.00016237,0.016694,0.20017,0.024114,0.049735,3.9586e-06,0.87,0.83,0
0.043896,-0.0062848,0.055812,-0.00016178,0.016695,0.00018076,0,0,0.050852,-0.021914,0,0.00046998,0,0,0,0.055813,-0.00016237,0.016695,0.18503,0.024115,0.049737,3.9592e-06,0.88,0.83,0
0.044405,-0.0062865,0.055815,-0.00016185,0.016696,0.0001659,0,0,0.050855,-0.021915,0,0.00043135,0,0,0,0.055815,-0.00016234,0.016696,0.16981,0.024116,0.04974,3.9597e-06,0.89,0.83,0
0.044914,-0.006288,0.055817,-0.00016189,0.016697,0.00015099,0,0,0.050857,-0.021916,0,0.00039256,0,0,0,0.055818,-0.0001623,0.016697,0.15454,0.024117,0.049742,3.9602e-06,0.9,0.83,0
0.045422,-0.0062893,0.05582,-0.00016191,0.016697,0.00013602,0,0,0.050859,-0.021917,0,0.00035364,0,0,0,0.05582,-0.00016224,0.016697,0.13921,0.024118,0.049744,3.9606e-06,0.91,0.83,0
0.045931,-0.0062905,0.055822,-0.00016192,0.016698,0.000121,0,0,0.050861,-0.021918,0,0.00031461,0,0,0,0.055822,-0.00016218,0.016698,0.12384,0.024119,0.049745,3.961e-06,0.92,0.83,0
0.046439,-0.0062916,0.055823,-0.00016191,0.016698,0.00010595,0,0,0.050862,-0.021918,0,0.00027548,0,0,0,0.055823,-0.00016211,0.016698,0.10844,0.02412,0.049747,3.9614e-06,0.93,0.83,0
0.046948,-0.0062925,0.055825,-0.00016189,0.016699,9.0874e-05,0,0,0.050864,-0.021919,0,0.00023627,0,0,0,0.055825,-0.00016204,0.016699,0.092998,0.024121,0.049748,3.9617e-06,0.94,0.83,0
0.047457,-0.0062932,0.055826,-0.00016188,0.016699,7.5766e-05,0,0,0.050865,-0.02192,0,0.00019699,0,0,0,0.055826,-0.00016198,0.016699,0.077535,0.024121,0.049749,3.962e-06,0.95,0.83,0
0.047965,-0.0062938,0.055827,-0.00016186,0.0167,6.0637e-05,0,0,0.050866,-0.02192,0,0.00015766,0,0,0,0.055827,-0.00016192,0.0167,0.062052,0.024122,0.04975,3.9622e-06,0.96,0.83,0
0.048474,-0.0062943,0.055828,-0.00016184,0.0167,4.5492e-05,0,0,0.050867,-0.02192,0,0.00011828,0,0,0,0.055828,-0.00016188,0.0167,0.046553,0.024122,0.049751,3.9623e-06,0.97,0.83,0
0.048983,-0.0062946,0.055829,-0.00016183,0.0167,3.0335e-05,0,0,0.050867,-0.02192,0,7.887e-05,0,0,0,0.055829,-0.00016184,0.0167,0.031042,0.024122,0.049751,3.9625e-06,0.98,0.83,0
0.049491,-0.0062948,0.055829,-0.00016182,0.0167,1.5169e-05,0,0,0.050868,-0.021921,0,3.944e-05,0,0,0,0.055829,-0.00016182,0.0167,0.015523,0.024123,0.049751,3.9625e-06,0.99,0.83,0
0.05,-0.0062949,0.055829,-0.00016182,0.0167,-2.5411e-06,0,0,0.050868,-0.021921,0,-6.6069e-06,0,0,0,0.055829,-0.00016182,0.0167,-0.0026003,0.024123,0.049751,3.9626e-06,1,0.83,0
0,0,0.053519,0.022937,0.022937,-0.0087897,0,0,0.039757,0,0,-0.022853,0,0,0,0.055866,0.020591,0.022937,-14.946,0.033131,0.034162,2.0152e-06,0,0.84,0
0.00039757,-0.00022853,0.0534,0.021463,0.022459,-0.0087815,0,0,0.040224,-0.0012948,0,-0.022832,0,0,0,0.055655,0.019207,0.022459,-14.404,0.03244,0.034936,2.1261e-06,0.01,0.84,0
0.00080447,-0.00046052,0.053893,0.020201,0.022228,-0.008804,0,0,0.041164,-0.0026358,0,-0.02289,0,0,0,0.056055,0.018039,0.022228,-13.796,0.032107,0.036104,2.3078e-06,0.02,0.84,0
0.0012209,-0.00069489,0.054383,0.018906,0.021986,-0.0087658,0,0,0.042115,-0.004005,0,-0.022791,0,0,0,0.05643,0.016858,0.021986,-13.149,0.031758,0.037274,2.4908e-06,0.03,0.84,0
0.0016468,-0.0009304,0.054859,0.017597,0.021737,-0.0086629,0,0,0.043059,-0.0053822,0,-0.022523,0,0,0,0.056775,0.015681,0.021737,-12.468,0.031398,0.038425,2.6716e-06,0.04,0.84,0
0.002082,-0.0011658,0.055313,0.016292,0.021482,-0.0084949,0,0,0.043981,-0.0067462,0,-0.022087,0,0,0,0.057082,0.014523,0.021482,-11.764,0.031029,0.039542,2.8467e-06,0.05,0.84,0
0.0025264,-0.0013997,0.055735,0.015011,0.021224,-0.008265,0,0,0.044865,-0.0080768,0,-0.021489,0,0,0,0.057349,0.013397,0.021224,-11.046,0.030657,0.040608,3.0131e-06,0.06,0.84,0
0.0029793,-0.0016308,0.056119,0.013769,0.020966,-0.0079795,0,0,0.045698,-0.0093563,0,-0.020747,0,0,0,0.057573,0.012316,0.020966,-10.324,0.030285,0.041612,3.1681e-06,0.07,0.84,0
0.0034404,-0.0018582,0.056459,0.012581,0.020712,-0.0076466,0,0,0.046471,-0.01057,0,-0.019881,0,0,0,0.057753,0.011286,0.020712,-9.6077,0.029917,0.042544,3.3101e-06,0.08,0.84,0
0.0039088,-0.0020806,0.056752,0.011456,0.020462,-0.0072758,0,0,0.047177,-0.011709,0,-0.018917,0,0,0,0.057892,0.010316,0.020462,-8.9049,0.029557,0.043402,3.4378e-06,0.09,0.84,0
0.0043839,-0.0022973,0.056997,0.010401,0.020219,-0.006877,0,0,0.047811,-0.012764,0,-0.01788,0,0,0,0.057991,0.0094068,0.020219,-8.2226,0.029205,0.044181,3.551e-06,0.1,0.84,0
0.004865,-0.0025075,0.057195,0.0094194,0.019984,-0.0064598,0,0,0.048374,-0.013734,0,-0.016796,0,0,0,0.058053,0.0085613,0.019984,-7.5662,0.028866,0.044884,3.6496e-06,0.11,0.84,0
0.0053514,-0.0027107,0.057348,0.0085134,0.019758,-0.0060331,0,0,0.048866,-0.014618,0,-0.015686,0,0,0,0.058082,0.0077791,0.019758,-6.9395,0.02854,0.045512,3.7343e-06,0.12,0.84,0
0.0058423,-0.0029066,0.057459,0.0076817,0.019542,-0.0056046,0,0,0.049292,-0.015419,0,-0.014572,0,0,0,0.058083,0.0070584,0.019542,-6.3452,0.028228,0.046069,3.8061e-06,0.13,0.84,0
0.0063372,-0.0030948,0.057534,0.0069218,0.019337,-0.0051807,0,0,0.049656,-0.016139,0,-0.01347,0,0,0,0.058058,0.006397,0.019337,-5.7849,0.027931,0.04656,3.8658e-06,0.14,0.84,0
0.0068354,-0.0032752,0.057575,0.0062303,0.019142,-0.0047665,0,0,0.049963,-0.016785,0,-0.012393,0,0,0,0.058014,0.0057916,0.019142,-5.2591,0.027649,0.046991,3.9149e-06,0.15,0.84,0
0.0073365,-0.0034479,0.057588,0.005603,0.018957,-0.0043663,0,0,0.05022,-0.017361,0,-0.011352,0,0,0,0.057952,0.0052388,0.018957,-4.7678,0.027383,0.047368,3.9545e-06,0.16,0.84,0
0.0078398,-0.0036128,0.057576,0.0050352,0.018783,-0.0039827,0,0,0.050431,-0.017873,0,-0.010355,0,0,0,0.057876,0.004735,0.018783,-4.3103,0.027132,0.047695,3.9857e-06,0.17,0.84,0
0.0083451,-0.00377,0.057545,0.0045223,0.01862,-0.0036179,0,0,0.050602,-0.018327,0,-0.0094067,0,0,0,0.057791,0.0042766,0.01862,-3.8855,0.026896,0.047978,4.0098e-06,0.18,0.84,0
0.0088519,-0.0039198,0.057497,0.0040596,0.018467,-0.0032732,0,0,0.050739,-0.01873,0,-0.0085103,0,0,0,0.057697,0.0038599,0.018467,-3.4921,0.026675,0.048222,4.0277e-06,0.19,0.84,0
0.0093599,-0.0040623,0.057436,0.0036427,0.018324,-0.0029491,0,0,0.050846,-0.019085,0,-0.0076676,0,0,0,0.057598,0.0034815,0.018324,-3.1286,0.026468,0.048432,4.0405e-06,0.2,0.84,0
0.0098688,-0.0041978,0.057366,0.0032673,0.01819,-0.0026457,0,0,0.050929,-0.019399,0,-0.0068789,0,0,0,0.057495,0.0031382,0.01819,-2.7932,0.026274,0.048611,4.0489e-06,0.21,0.84,0
0.010378,-0.0043264,0.057288,0.0029294,0.018065,-0.0023629,0,0,0.050989,-0.019676,0,-0.0061436,0,0,0,0.05739,0.0028269,0.018065,-2.4844,0.026094,0.048764,4.0537e-06,0.22,0.84,0
0.010889,-0.0044485,0.057205,0.0026253,0.017949,-0.0021002,0,0,0.051032,-0.019921,0,-0.0054604,0,0,0,0.057285,0.0025446,0.017949,-2.2003,0.025926,0.048894,4.0556e-06,0.23,0.84,0
0.011399,-0.0045644,0.057118,0.0023517,0.017841,-0.0018567,0,0,0.05106,-0.020136,0,-0.0048274,0,0,0,0.057181,0.0022889,0.017841,-1.9395,0.02577,0.049003,4.0551e-06,0.24,0.84,0
0.01191,-0.0046742,0.05703,0.0021056,0.017741,-0.0016317,0,0,0.051076,-0.020326,0,-0.0042425,0,0,0,0.057078,0.0020572,0.017741,-1.7002,0.025625,0.049096,4.0526e-06,0.25,0.84,0
0.012421,-0.0047783,0.056941,0.0018841,0.017648,-0.0014243,0,0,0.051082,-0.020493,0,-0.0037031,0,0,0,0.056978,0.0018473,0.017648,-1.4809,0.025491,0.049173,4.0487e-06,0.26,0.84,0
0.012931,-0.004877,0.056854,0.0016848,0.017562,-0.0012334,0,0,0.05108,-0.02064,0,-0.0032068,0,0,0,0.056881,0.0016572,0.017562,-1.2801,0.025367,0.049238,4.0436e-06,0.27,0.84,0
0.013442,-0.0049705,0.056767,0.0015053,0.017482,-0.001058,0,0,0.051071,-0.020769,0,-0.0027509,0,0,0,0.056788,0.001485,0.017482,-1.0964,0.025251,0.049291,4.0377e-06,0.28,0.84,0
0.013953,-0.005059,0.056683,0.0013437,0.017408,-0.00089725,0,0,0.051058,-0.020884,0,-0.0023329,0,0,0,0.056698,0.0013292,0.017408,-0.92864,0.025145,0.049335,4.0312e-06,0.29,0.84,0
0.014463,-0.0051427,0.056602,0.0011982,0.01734,-0.00075005,0,0,0.05104,-0.020984,0,-0.0019501,0,0,0,0.056612,0.001188,0.01734,-0.77548,0.025047,0.049371,4.0242e-06,0.3,0.84,0
0.014974,-0.0052221,0.056524,0.001067,0.017277,-0.0006155,0,0,0.05102,-0.021073,0,-0.0016003,0,0,0,0.05653,0.0010602,0.017277,-0.63581,0.024956,0.0494,4.0171e-06,0.31,0.84,0
0.015484,-0.0052971,0.056449,0.00094878,0.017219,-0.00049269,0,0,0.050999,-0.021152,0,-0.001281,0,0,0,0.056453,0.00094441,0.017219,-0.50858,0.024872,0.049424,4.0098e-06,0.32,0.84,0
0.015994,-0.0053682,0.056378,0.00084219,0.017166,-0.00038078,0,0,0.050975,-0.021221,0,-0.00099004,0,0,0,0.05638,0.00083958,0.017166,-0.39283,0.024795,0.049443,4.0026e-06,0.33,0.84,0
0.016503,-0.0054354,0.056311,0.00074604,0.017117,-0.00027896,0,0,0.050952,-0.021282,0,-0.0007253,0,0,0,0.056312,0.00074464,0.017117,-0.28764,0.024724,0.049457,3.9955e-06,0.34,0.84,0
0.017013,-0.005499,0.056247,0.00065928,0.017072,-0.00018647,0,0,0.050928,-0.021336,0,-0.00048482,0,0,0,0.056248,0.00065865,0.017072,-0.1922,0.02466,0.049469,3.9885e-06,0.35,0.84,0
0.017522,-0.0055591,0.056188,0.00058096,0.017031,-0.0001026,0,0,0.050904,-0.021385,0,-0.00026676,0,0,0,0.056188,0.00058077,0.017031,-0.10572,0.0246,0.049477,3.9818e-06,0.36,0.84,0
0.018031,-0.005616,0.056132,0.00051024,0.016993,-2.6691e-05,0,0,0.050881,-0.021427,0,-6.9396e-05,0,0,0,0.056132,0.00051022,0.016993,-0.027494,0.024545,0.049484,3.9755e-06,0.37,0.84,0
0.018539,-0.0056698,0.05608,0.00044635,0.016958,4.1871e-05,0,0,0.050859,-0.021465,0,0.00010886,0,0,0,0.05608,0.00044632,0.016958,0.043122,0.024495,0.049489,3.9694e-06,0.38,0.84,0
0.019048,-0.0057206,0.056032,0.00038862,0.016926,0.00010366,0,0,0.050838,-0.021499,0,0.00026951,0,0,0,0.056032,0.00038843,0.016926,0.10673,0.024449,0.049493,3.9637e-06,0.39,0.84,0
0.019556,-0.0057687,0.055988,0.00033644,0.016897,0.00015919,0,0,0.050818,-0.021529,0,0.00041391,0,0,0,0.055988,0.00033599,0.016897,0.1639,0.024407,0.049495,3.9583e-06,0.4,0.84,0
0.020064,-0.0058141,0.055947,0.00028926,0.016871,0.00020897,0,0,0.050799,-0.021556,0,0.00054333,0,0,0,0.055947,0.00028847,0.016871,0.21512,0.024369,0.049497,3.9534e-06,0.41,0.84,0
0.020572,-0.005857,0.055909,0.00024658,0.016847,0.00025345,0,0,0.050781,-0.02158,0,0.00065896,0,0,0,0.05591,0.00024543,0.016847,0.26088,0.024334,0.049498,3.9488e-06,0.42,0.84,0
0.02108,-0.0058975,0.055875,0.00020797,0.016825,0.00029303,0,0,0.050765,-0.021602,0,0.00076188,0,0,0,0.055876,0.00020642,0.016825,0.3016,0.024302,0.049499,3.9445e-06,0.43,0.84,0
0.021587,-0.0059358,0.055843,0.00017303,0.016805,0.00032811,0,0,0.05075,-0.021621,0,0.00085309,0,0,0,0.055845,0.00017109,0.016805,0.33768,0.024274,0.0495,3.9407e-06,0.44,0.84,0
0.022095,-0.005972,0.055815,0.0001414,0.016787,0.00035904,0,0,0.050736,-0.021639,0,0.00093351,0,0,0,0.055817,0.00013908,0.016787,0.36949,0.024248,0.0495,3.9372e-06,0.45,0.84,0
0.022602,-0.0060061,0.055789,0.00011276,0.016771,0.00038616,0,0,0.050724,-0.021655,0,0.001004,0,0,0,0.055792,0.00011009,0.016771,0.39736,0.024224,0.049501,3.9341e-06,0.46,0.84,0
0.023109,-0.0060383,0.055766,8.6836e-05,0.016756,0.00040975,0,0,0.050714,-0.02167,0,0.0010654,0,0,0,0.055769,8.3821e-05,0.016756,0.42161,0.024203,0.049502,3.9313e-06,0.47,0.84,0
0.023616,-0.0060688,0.055746,6.3356e-05,0.016743,0.00043011,0,0,0.050704,-0.021683,0,0.0011183,0,0,0,0.055749,6.0034e-05,0.016743,0.44253,0.024184,0.049503,3.9288e-06,0.48,0.84,0
0.024123,-0.0060975,0.055728,4.2092e-05,0.016731,0.00044748,0,0,0.050696,-0.021696,0,0.0011634,0,0,0,0.055732,3.8496e-05,0.016731,0.46037,0.024167,0.049504,3.9267e-06,0.49,0.84,0
0.02463,-0.0061245,0.055712,2.2832e-05,0.01672,0.0004621,0,0,0.050689,-0.021707,0,0.0012015,0,0,0,0.055716,1.8998e-05,0.01672,0.47539,0.024152,0.049506,3.9249e-06,0.5,0.84,0
0.025137,-0.00615,0.055698,5.3902e-06,0.016711,0.0004742,0,0,0.050683,-0.021717,0,0.0012329,0,0,0,0.055702,1.3529e-06,0.016711,0.4878,0.024138,0.049508,3.9233e-06,0.51,0.84,0
0.025644,-0.0061741,0.055686,-1.0405e-05,0.016703,0.00048397,0,0,0.050678,-0.021727,0,0.0012583,0,0,0,0.05569,-1.461e-05,0.016703,0.49782,0.024126,0.04951,3.922e-06,0.52,0.84,0
0.026151,-0.0061968,0.055676,-2.4706e-05,0.016695,0.0004916,0,0,0.050675,-0.021736,0,0.0012782,0,0,0,0.05568,-2.9044e-05,0.016695,0.50563,0.024116,0.049513,3.921e-06,0.53,0.84,0
0.026658,-0.0062181,0.055667,-3.7651e-05,0.016689,0.00049726,0,0,0.050672,-0.021744,0,0.0012929,0,0,0,0.055672,-4.209e-05,0.016689,0.51141,0.024106,0.049516,3.9202e-06,0.54,0.84,0
0.027164,-0.0062382,0.05566,-4.9366e-05,0.016683,0.00050111,0,0,0.05067,-0.021753,0,0.0013029,0,0,0,0.055665,-5.3873e-05,0.016683,0.51532,0.024098,0.049519,3.9196e-06,0.55,0.84,0
0.027671,-0.0062572,0.055655,-5.9962e-05,0.016678,0.00050329,0,0,0.050669,-0.02176,0,0.0013086,0,0,0,0.055659,-6.4509e-05,0.016678,0.51752,0.024091,0.049523,3.9192e-06,0.56,0.84,0
0.028178,-0.006275,0.05565,-6.9542e-05,0.016674,0.00050395,0,0,0.050669,-0.021767,0,0.0013103,0,0,0,0.055655,-7.41e-05,0.016674,0.51814,0.024085,0.049526,3.919e-06,0.57,0.84,0
0.028684,-0.0062918,0.055647,-7.8198e-05,0.016671,0.00050319,0,0,0.050669,-0.021774,0,0.0013083,0,0,0,0.055652,-8.2741e-05,0.016671,0.51731,0.02408,0.04953,3.919e-06,0.58,0.84,0
0.029191,-0.0063076,0.055645,-8.6013e-05,0.016668,0.00050114,0,0,0.050671,-0.02178,0,0.001303,0,0,0,0.05565,-9.0519e-05,0.016668,0.51515,0.024076,0.049535,3.9192e-06,0.59,0.84,0
0.029698,-0.0063224,0.055644,-9.3063e-05,0.016665,0.0004979,0,0,0.050673,-0.021786,0,0.0012945,0,0,0,0.055649,-9.751e-05,0.016665,0.51177,0.024072,0.04954,3.9195e-06,0.6,0.84,0
0.030204,-0.0063363,0.055644,-9.9416e-05,0.016663,0.00049357,0,0,0.050675,-0.021792,0,0.0012833,0,0,0,0.055648,-0.00010378,0.016663,0.50726,0.024069,0.049544,3.9199e-06,0.61,0.84,0
0.030711,-0.0063494,0.055645,-0.00010513,0.016662,0.00048824,0,0,0.050678,-0.021797,0,0.0012694,0,0,0,0.055649,-0.00010941,0.016662,0.50173,0.024067,0.049549,3.9204e-06,0.62,0.84,0
0.031218,-0.0063616,0.055646,-0.00011027,0.016661,0.000482,0,0,0.050681,-0.021802,0,0.0012532,0,0,0,0.05565,-0.00011444,0.016661,0.49526,0.024066,0.049554,3.9211e-06,0.63,0.84,0
0.031725,-0.0063732,0.055648,-0.00011489,0.01666,0.00047492,0,0,0.050685,-0.021807,0,0.0012348,0,0,0,0.055652,-0.00011893,0.01666,0.48793,0.024064,0.04956,3.9218e-06,0.64,0.84,0
0.032232,-0.006384,0.055651,-0.00011902,0.01666,0.00046707,0,0,0.050688,-0.021812,0,0.0012144,0,0,0,0.055655,-0.00012293,0.01666,0.4798,0.024064,0.049565,3.9226e-06,0.65,0.84,0
0.032739,-0.0063941,0.055654,-0.00012272,0.016659,0.00045852,0,0,0.050693,-0.021817,0,0.0011921,0,0,0,0.055658,-0.00012649,0.016659,0.47096,0.024064,0.049571,3.9235e-06,0.66,0.84,0
0.033246,-0.0064036,0.055657,-0.00012602,0.016659,0.00044932,0,0,0.050697,-0.021821,0,0.0011682,0,0,0,0.055661,-0.00012964,0.016659,0.46147,0.024064,0.049576,3.9245e-06,0.67,0.84,0
0.033753,-0.0064125,0.055661,-0.00012896,0.01666,0.00043954,0,0,0.050702,-0.021825,0,0.0011428,0,0,0,0.055665,-0.00013242,0.01666,0.45137,0.024064,0.049582,3.9255e-06,0.68,0.84,0
0.03426,-0.0064208,0.055666,-0.00013156,0.01666,0.00042923,0,0,0.050707,-0.021829,0,0.001116,0,0,0,0.055669,-0.00013486,0.01666,0.44072,0.024065,0.049587,3.9265e-06,0.69,0.84,0
0.034767,-0.0064285,0.05567,-0.00013387,0.016661,0.00041843,0,0,0.050712,-0.021833,0,0.0010879,0,0,0,0.055673,-0.00013701,0.016661,0.42959,0.024066,0.049593,3.9276e-06,0.7,0.84,0
0.035274,-0.0064358,0.055675,-0.00013591,0.016662,0.00040719,0,0,0.050717,-0.021837,0,0.0010587,0,0,0,0.055678,-0.00013888,0.016662,0.418,0.024067,0.049599,3.9288e-06,0.71,0.84,0
0.035781,-0.0064426,0.05568,-0.00013769,0.016663,0.00039555,0,0,0.050722,-0.02184,0,0.0010284,0,0,0,0.055683,-0.0001405,0.016663,0.406,0.024068,0.049604,3.9299e-06,0.72,0.84,0
0.036288,-0.0064489,0.055685,-0.00013926,0.016664,0.00038355,0,0,0.050728,-0.021844,0,0.00099722,0,0,0,0.055688,-0.00014189,0.016664,0.39363,0.02407,0.04961,3.931e-06,0.73,0.84,0
0.036796,-0.0064548,0.05569,-0.00014062,0.016665,0.00037121,0,0,0.050733,-0.021847,0,0.00096515,0,0,0,0.055693,-0.00014309,0.016665,0.38093,0.024071,0.049615,3.9322e-06,0.74,0.84,0
0.037303,-0.0064603,0.055696,-0.0001418,0.016666,0.00035858,0,0,0.050738,-0.02185,0,0.00093231,0,0,0,0.055698,-0.0001441,0.016666,0.36793,0.024073,0.04962,3.9334e-06,0.75,0.84,0
0.03781,-0.0064654,0.055701,-0.00014281,0.016667,0.00034568,0,0,0.050743,-0.021853,0,0.00089877,0,0,0,0.055703,-0.00014495,0.016667,0.35465,0.024075,0.049626,3.9345e-06,0.76,0.84,0
0.038318,-0.0064702,0.055706,-0.00014368,0.016669,0.00033254,0,0,0.050749,-0.021856,0,0.00086459,0,0,0,0.055708,-0.00014565,0.016669,0.34113,0.024077,0.049631,3.9356e-06,0.77,0.84,0
0.038825,-0.0064746,0.055711,-0.00014441,0.01667,0.00031917,0,0,0.050754,-0.021859,0,0.00082986,0,0,0,0.055713,-0.00014623,0.01667,0.32739,0.024079,0.049636,3.9368e-06,0.78,0.84,0
0.039333,-0.0064787,0.055717,-0.00014502,0.016671,0.00030562,0,0,0.050759,-0.021861,0,0.00079461,0,0,0,0.055718,-0.00014669,0.016671,0.31345,0.024081,0.049641,3.9378e-06,0.79,0.84,0
0.039841,-0.0064825,0.055722,-0.00014553,0.016673,0.00029189,0,0,0.050763,-0.021864,0,0.00075891,0,0,0,0.055723,-0.00014705,0.016673,0.29934,0.024083,0.049645,3.9389e-06,0.8,0.84,0
0.040348,-0.006486,0.055726,-0.00014595,0.016674,0.000278,0,0,0.050768,-0.021866,0,0.0007228,0,0,0,0.055728,-0.00014733,0.016674,0.28507,0.024085,0.04965,3.94e-06,0.81,0.84,0
0.040856,-0.0064892,0.055731,-0.00014628,0.016675,0.00026398,0,0,0.050773,-0.021868,0,0.00068634,0,0,0,0.055733,-0.00014753,0.016675,0.27067,0.024087,0.049654,3.941e-06,0.82,0.84,0
0.041364,-0.0064922,0.055736,-0.00014654,0.016677,0.00024983,0,0,0.050777,-0.02187,0,0.00064955,0,0,0,0.055737,-0.00014766,0.016677,0.25614,0.024089,0.049658,3.9419e-06,0.83,0.84,0
0.041871,-0.0064949,0.05574,-0.00014674,0.016678,0.00023557,0,0,0.050781,-0.021872,0,0.00061247,0,0,0,0.055741,-0.00014773,0.016678,0.2415,0.024091,0.049662,3.9429e-06,0.84,0.84,0
0.042379,-0.0064974,0.055745,-0.00014689,0.016679,0.00022121,0,0,0.050785,-0.021874,0,0.00057515,0,0,0,0.055746,-0.00014776,0.016679,0.22676,0.024092,0.049666,3.9438e-06,0.85,0.84,0
0.042887,-0.0064997,0.055749,-0.00014699,0.016681,0.00020677,0,0,0.050789,-0.021876,0,0.0005376,0,0,0,0.05575,-0.00014776,0.016681,0.21194,0.024094,0.049669,3.9446e-06,0.86,0.84,0
0.043395,-0.0065018,0.055753,-0.00014705,0.016682,0.00019226,0,0,0.050792,-0.021877,0,0.00049986,0,0,0,0.055753,-0.00014772,0.016682,0.19705,0.024096,0.049673,3.9454e-06,0.87,0.84,0
0.043903,-0.0065037,0.055756,-0.00014709,0.016683,0.00017767,0,0,0.050796,-0.021879,0,0.00046195,0,0,0,0.055757,-0.00014765,0.016683,0.1821,0.024097,0.049676,3.9461e-06,0.88,0.84,0
0.044411,-0.0065054,0.05576,-0.0001471,0.016684,0.00016304,0,0,0.050799,-0.02188,0,0.0004239,0,0,0,0.05576,-0.00014757,0.016684,0.16709,0.024099,0.049679,3.9468e-06,0.89,0.84,0
0.044919,-0.006507,0.055763,-0.00014709,0.016685,0.00014835,0,0,0.050801,-0.021881,0,0.00038571,0,0,0,0.055763,-0.00014748,0.016685,0.15203,0.0241,0.049681,3.9475e-06,0.9,0.84,0
0.045427,-0.0065083,0.055766,-0.00014706,0.016686,0.00013362,0,0,0.050804,-0.021882,0,0.00034742,0,0,0,0.055766,-0.00014738,0.016686,0.13693,0.024101,0.049684,3.948e-06,0.91,0.84,0
0.045935,-0.0065096,0.055768,-0.00014703,0.016686,0.00011886,0,0,0.050806,-0.021883,0,0.00030903,0,0,0,0.055768,-0.00014728,0.016686,0.12179,0.024102,0.049686,3.9486e-06,0.92,0.84,0
0.046443,-0.0065106,0.055771,-0.00014699,0.016687,0.00010406,0,0,0.050808,-0.021884,0,0.00027056,0,0,0,0.055771,-0.00014719,0.016687,0.10662,0.024103,0.049688,3.949e-06,0.93,0.84,0
0.046951,-0.0065115,0.055773,-0.00014695,0.016688,8.9239e-05,0,0,0.05081,-0.021885,0,0.00023202,0,0,0,0.055773,-0.0001471,0.016688,0.091435,0.024104,0.049689,3.9494e-06,0.94,0.84,0
0.047459,-0.0065122,0.055774,-0.00014691,0.016688,7.4396e-05,0,0,0.050812,-0.021886,0,0.00019343,0,0,0,0.055774,-0.00014701,0.016688,0.076225,0.024105,0.049691,3.9498e-06,0.95,0.84,0
0.047967,-0.0065128,0.055775,-0.00014688,0.016689,5.9536e-05,0,0,0.050813,-0.021886,0,0.00015479,0,0,0,0.055776,-0.00014694,0.016689,0.060998,0.024106,0.049692,3.9501e-06,0.96,0.84,0
0.048476,-0.0065133,0.055777,-0.00014685,0.016689,4.4663e-05,0,0,0.050814,-0.021886,0,0.00011613,0,0,0,0.055777,-0.00014689,0.016689,0.045759,0.024106,0.049693,3.9503e-06,0.97,0.84,0
0.048984,-0.0065137,0.055777,-0.00014683,0.016689,2.9781e-05,0,0,0.050815,-0.021887,0,7.743e-05,0,0,0,0.055777,-0.00014684,0.016689,0.030511,0.024107,0.049693,3.9504e-06,0.98,0.84,0
0.049492,-0.0065139,0.055778,-0.00014681,0.016689,1.4892e-05,0,0,0.050815,-0.021887,0,3.8719e-05,0,0,0,0.055778,-0.00014682,0.016689,0.015257,0.024107,0.049694,3.9505e-06,0.99,0.84,0
0.05,-0.0065139,0.055778,-0.00014681,0.016689,-2.5605e-06,0,0,0.050815,-0.021887,0,-6.6572e-06,0,0,0,0.055778,-0.00014681,0.016689,-0.0026233,0.024107,0.049694,3.9505e-06,1,0.84,0
0,0,0.053799,0.023057,0.023057,-0.0092977,0,0,0.039965,4.3368e-19,0,-0.024174,0,0,0,0.056392,0.020463,0.023057,-15.585,0.033304,0.034705,2.1064e-06,0,0.85,0
0.00039965,-0.00024174,0.053675,0.021519,0.022558,-0.0092878,0,0,0.040452,-0.001351,0,-0.024148,0,0,0,0.056165,0.019029,0.022558,-15.007,0.032584,0.035503,2.222e-06,0.01,0.85,0
0.00080904,-0.00048744,0.054189,0.020193,0.022315,-0.0093121,0,0,0.041437,-0.0027581,0,-0.024211,0,0,0,0.056572,0.017809,0.022315,-14.358,0.032232,0.036718,2.414e-06,0.02,0.85,0
0.0012284,-0.00073583,0.054698,0.018827,0.022058,-0.0092648,0,0,0.042432,-0.0041992,0,-0.024088,0,0,0,0.05695,0.016576,0.022058,-13.66,0.031861,0.037931,2.6066e-06,0.03,0.85,0
0.0016577,-0.00098545,0.055191,0.017446,0.021791,-0.0091414,0,0,0.04342,-0.0056489,0,-0.023768,0,0,0,0.057288,0.015348,0.021791,-12.922,0.031476,0.039119,2.7954e-06,0.04,0.85,0
0.0020968,-0.0012348,0.055656,0.016071,0.021518,-0.0089423,0,0,0.044379,-0.0070813,0,-0.02325,0,0,0,0.057582,0.014145,0.021518,-12.157,0.031082,0.040261,2.9763e-06,0.05,0.85,0
0.0025453,-0.0014823,0.056083,0.014726,0.021243,-0.0086724,0,0,0.045293,-0.008472,0,-0.022548,0,0,0,0.057828,0.012981,0.021243,-11.376,0.030684,0.04134,3.1457e-06,0.06,0.85,0
0.0030026,-0.0017265,0.056465,0.013429,0.020968,-0.0083401,0,0,0.046145,-0.0098004,0,-0.021684,0,0,0,0.058024,0.01187,0.020968,-10.593,0.030287,0.042345,3.3009e-06,0.07,0.85,0
0.0034682,-0.0019661,0.056794,0.012197,0.020697,-0.0079565,0,0,0.046926,-0.011051,0,-0.020687,0,0,0,0.058171,0.01082,0.020697,-9.8185,0.029896,0.043267,3.4402e-06,0.08,0.85,0
0.0039412,-0.0022,0.05707,0.011039,0.020433,-0.0075334,0,0,0.047628,-0.012212,0,-0.019587,0,0,0,0.058271,0.0098374,0.020433,-9.0622,0.029514,0.044102,3.5629e-06,0.09,0.85,0
0.0044208,-0.0024273,0.057292,0.0099623,0.020176,-0.0070832,0,0,0.04825,-0.013278,0,-0.018416,0,0,0,0.058329,0.0089249,0.020176,-8.3317,0.029143,0.04485,3.6688e-06,0.1,0.85,0
0.0049061,-0.0026473,0.057461,0.0089697,0.019929,-0.0066172,0,0,0.048791,-0.014247,0,-0.017205,0,0,0,0.058348,0.0080829,0.019929,-7.6328,0.028787,0.045513,3.7587e-06,0.11,0.85,0
0.0053966,-0.0028593,0.057582,0.0080611,0.019693,-0.0061455,0,0,0.049256,-0.015121,0,-0.015978,0,0,0,0.058333,0.0073099,0.019693,-6.9695,0.028445,0.046097,3.8335e-06,0.12,0.85,0
0.0058913,-0.0030631,0.05766,0.0072341,0.019468,-0.0056766,0,0,0.049649,-0.015904,0,-0.014759,0,0,0,0.058291,0.006603,0.019468,-6.3442,0.028121,0.046606,3.8947e-06,0.13,0.85,0
0.0063895,-0.0032584,0.057699,0.0064849,0.019255,-0.0052173,0,0,0.049977,-0.016601,0,-0.013565,0,0,0,0.058225,0.0059588,0.019255,-5.7581,0.027813,0.047049,3.9436e-06,0.14,0.85,0
0.0068908,-0.0034452,0.057705,0.0058084,0.019054,-0.0047729,0,0,0.050246,-0.017219,0,-0.012409,0,0,0,0.05814,0.0053731,0.019054,-5.2112,0.027522,0.04743,3.9819e-06,0.15,0.85,0
0.0073945,-0.0036235,0.057683,0.0051992,0.018865,-0.0043471,0,0,0.050464,-0.017765,0,-0.011303,0,0,0,0.058041,0.0048416,0.018865,-4.703,0.027249,0.047758,4.011e-06,0.16,0.85,0
0.0079001,-0.0037934,0.057639,0.0046519,0.018687,-0.0039427,0,0,0.050637,-0.018246,0,-0.010251,0,0,0,0.057931,0.0043601,0.018687,-4.2322,0.026993,0.048037,4.0323e-06,0.17,0.85,0
0.0084072,-0.003955,0.057577,0.0041607,0.018521,-0.0035611,0,0,0.050772,-0.018669,0,-0.0092589,0,0,0,0.057813,0.0039243,0.018521,-3.7974,0.026753,0.048275,4.047e-06,0.18,0.85,0
0.0089155,-0.0041087,0.057501,0.0037203,0.018366,-0.0032033,0,0,0.050875,-0.01904,0,-0.0083285,0,0,0,0.057691,0.0035302,0.018366,-3.3967,0.026529,0.048476,4.0563e-06,0.19,0.85,0
0.0094247,-0.0042546,0.057414,0.0033257,0.018222,-0.0028693,0,0,0.05095,-0.019365,0,-0.0074601,0,0,0,0.057566,0.0031739,0.018222,-3.0281,0.026321,0.048646,4.0611e-06,0.2,0.85,0
0.0099345,-0.004393,0.05732,0.0029723,0.018088,-0.0025588,0,0,0.051002,-0.01965,0,-0.0066529,0,0,0,0.05744,0.0028521,0.018088,-2.6897,0.026127,0.048788,4.0623e-06,0.21,0.85,0
0.010445,-0.0045243,0.057221,0.0026558,0.017963,-0.0022712,0,0,0.051035,-0.019899,0,-0.0059052,0,0,0,0.057315,0.0025614,0.017963,-2.3794,0.025947,0.048907,4.0606e-06,0.22,0.85,0
0.010955,-0.0046487,0.057119,0.0023723,0.017847,-0.0020057,0,0,0.051053,-0.020118,0,-0.0052147,0,0,0,0.057193,0.002299,0.017847,-2.0953,0.02578,0.049006,4.0567e-06,0.23,0.85,0
0.011466,-0.0047666,0.057016,0.0021184,0.01774,-0.0017611,0,0,0.051059,-0.020309,0,-0.0045787,0,0,0,0.057073,0.0020619,0.01774,-1.8355,0.025625,0.049087,4.051e-06,0.24,0.85,0
0.011976,-0.0048782,0.056914,0.0018908,0.017642,-0.0015362,0,0,0.051054,-0.020476,0,-0.0039942,0,0,0,0.056957,0.0018479,0.017642,-1.598,0.025482,0.049154,4.044e-06,0.25,0.85,0
0.012487,-0.0049839,0.056813,0.0016868,0.01755,-0.00133,0,0,0.051042,-0.020622,0,-0.0034581,0,0,0,0.056846,0.0016547,0.01755,-1.3813,0.02535,0.049208,4.0362e-06,0.26,0.85,0
0.012997,-0.005084,0.056715,0.0015038,0.017466,-0.0011412,0,0,0.051024,-0.020751,0,-0.0029672,0,0,0,0.056739,0.0014802,0.017466,-1.1837,0.025228,0.049252,4.0276e-06,0.27,0.85,0
0.013507,-0.0051786,0.05662,0.0013396,0.017388,-0.00096868,0,0,0.051002,-0.020863,0,-0.0025186,0,0,0,0.056637,0.0013227,0.017388,-1.0036,0.025116,0.049286,4.0187e-06,0.28,0.85,0
0.014017,-0.0052682,0.056529,0.0011923,0.017316,-0.00081118,0,0,0.050977,-0.020961,0,-0.0021091,0,0,0,0.056541,0.0011804,0.017316,-0.83966,0.025013,0.049314,4.0096e-06,0.29,0.85,0
0.014527,-0.0053529,0.056442,0.0010599,0.017251,-0.00066766,0,0,0.050949,-0.021048,0,-0.0017359,0,0,0,0.05645,0.0010519,0.017251,-0.69059,0.024918,0.049335,4.0005e-06,0.3,0.85,0
0.015036,-0.0054331,0.056359,0.00094103,0.01719,-0.00053705,0,0,0.05092,-0.021124,0,-0.0013963,0,0,0,0.056365,0.00093582,0.01719,-0.55517,0.02483,0.049352,3.9915e-06,0.31,0.85,0
0.015545,-0.0055089,0.056281,0.00083414,0.017135,-0.00041837,0,0,0.050891,-0.021191,0,-0.0010878,0,0,0,0.056285,0.00083099,0.017135,-0.43228,0.02475,0.049364,3.9827e-06,0.32,0.85,0
0.016054,-0.0055806,0.056208,0.00073801,0.017084,-0.00031068,0,0,0.050861,-0.021249,0,-0.00080777,0,0,0,0.05621,0.00073627,0.017084,-0.32089,0.024677,0.049373,3.9742e-06,0.33,0.85,0
0.016563,-0.0056483,0.056139,0.00065153,0.017037,-0.00021312,0,0,0.050832,-0.021301,0,-0.00055412,0,0,0,0.05614,0.00065071,0.017037,-0.22006,0.024609,0.049379,3.9661e-06,0.34,0.85,0
0.017071,-0.0057124,0.056075,0.00057368,0.016994,-0.00012488,0,0,0.050804,-0.021347,0,-0.0003247,0,0,0,0.056075,0.00057339,0.016994,-0.12892,0.024548,0.049383,3.9584e-06,0.35,0.85,0
0.017579,-0.005773,0.056015,0.00050357,0.016956,-4.5217e-05,0,0,0.050777,-0.021388,0,-0.00011756,0,0,0,0.056015,0.00050353,0.016956,-0.04667,0.024491,0.049385,3.9511e-06,0.36,0.85,0
0.018086,-0.0058303,0.05596,0.00044041,0.01692,2.6573e-05,0,0,0.050752,-0.021424,0,6.9089e-05,0,0,0,0.05596,0.0004404,0.01692,0.027423,0.02444,0.049387,3.9443e-06,0.37,0.85,0
0.018594,-0.0058844,0.055909,0.00038349,0.016888,9.1124e-05,0,0,0.050728,-0.021455,0,0.00023692,0,0,0,0.055909,0.00038334,0.016888,0.094029,0.024393,0.049387,3.9379e-06,0.38,0.85,0
0.019101,-0.0059355,0.055862,0.00033217,0.016858,0.00014903,0,0,0.050705,-0.021484,0,0.00038747,0,0,0,0.055863,0.00033177,0.016858,0.15377,0.024351,0.049387,3.932e-06,0.39,0.85,0
0.019608,-0.0059839,0.055819,0.00028588,0.016832,0.00020083,0,0,0.050684,-0.021509,0,0.00052215,0,0,0,0.05582,0.00028516,0.016832,0.2072,0.024312,0.049386,3.9266e-06,0.4,0.85,0
0.020115,-0.0060295,0.05578,0.00024412,0.016807,0.00024702,0,0,0.050665,-0.021532,0,0.00064225,0,0,0,0.055781,0.00024302,0.016807,0.25484,0.024277,0.049386,3.9217e-06,0.41,0.85,0
0.020621,-0.0060727,0.055745,0.00020644,0.016785,0.00028807,0,0,0.050647,-0.021553,0,0.00074898,0,0,0,0.055747,0.00020494,0.016785,0.29717,0.024246,0.049385,3.9172e-06,0.42,0.85,0
0.021128,-0.0061134,0.055713,0.00017241,0.016766,0.00032439,0,0,0.050632,-0.021571,0,0.00084342,0,0,0,0.055715,0.00017052,0.016766,0.33463,0.024217,0.049384,3.9132e-06,0.43,0.85,0
0.021634,-0.0061519,0.055685,0.00014169,0.016748,0.00035638,0,0,0.050618,-0.021588,0,0.00092659,0,0,0,0.055687,0.0001394,0.016748,0.36761,0.024191,0.049384,3.9096e-06,0.44,0.85,0
0.02214,-0.0061882,0.055659,0.00011394,0.016732,0.00038439,0,0,0.050605,-0.021603,0,0.00099941,0,0,0,0.055662,0.00011129,0.016732,0.39648,0.024168,0.049384,3.9065e-06,0.45,0.85,0
0.022646,-0.0062225,0.055636,8.888e-05,0.016718,0.00040874,0,0,0.050595,-0.021617,0,0.0010627,0,0,0,0.05564,8.5872e-05,0.016718,0.42158,0.024148,0.049385,3.9037e-06,0.46,0.85,0
0.023152,-0.0062549,0.055617,6.6234e-05,0.016705,0.00042974,0,0,0.050585,-0.02163,0,0.0011173,0,0,0,0.05562,6.2909e-05,0.016705,0.44321,0.024129,0.049386,3.9013e-06,0.47,0.85,0
0.023658,-0.0062854,0.055599,4.5771e-05,0.016694,0.00044767,0,0,0.050577,-0.021642,0,0.0011639,0,0,0,0.055603,4.2164e-05,0.016694,0.46167,0.024113,0.049387,3.8993e-06,0.48,0.85,0
0.024163,-0.0063142,0.055584,2.7281e-05,0.016684,0.00046276,0,0,0.050571,-0.021653,0,0.0012032,0,0,0,0.055588,2.3426e-05,0.016684,0.4772,0.024098,0.049389,3.8976e-06,0.49,0.85,0
0.024669,-0.0063414,0.055572,1.0572e-05,0.016675,0.00047526,0,0,0.050566,-0.021663,0,0.0012357,0,0,0,0.055576,6.5071e-06,0.016675,0.49006,0.024086,0.049392,3.8963e-06,0.5,0.85,0
0.025175,-0.006367,0.055561,-4.5252e-06,0.016667,0.00048539,0,0,0.050562,-0.021673,0,0.001262,0,0,0,0.055565,-8.7649e-06,0.016667,0.50045,0.024074,0.049395,3.8952e-06,0.51,0.85,0
0.02568,-0.0063912,0.055552,-1.8165e-05,0.01666,0.00049332,0,0,0.05056,-0.021682,0,0.0012826,0,0,0,0.055557,-2.2544e-05,0.01666,0.50858,0.024065,0.049398,3.8944e-06,0.52,0.85,0
0.026186,-0.0064139,0.055545,-3.0486e-05,0.016654,0.00049925,0,0,0.050558,-0.02169,0,0.0012981,0,0,0,0.05555,-3.497e-05,0.016654,0.51465,0.024056,0.049402,3.8939e-06,0.53,0.85,0
0.026691,-0.0064354,0.05554,-4.1611e-05,0.01665,0.00050334,0,0,0.050558,-0.021698,0,0.0013087,0,0,0,0.055545,-4.6169e-05,0.01665,0.51881,0.024049,0.049406,3.8937e-06,0.54,0.85,0
0.027197,-0.0064556,0.055536,-5.1654e-05,0.016645,0.00050575,0,0,0.050558,-0.021706,0,0.0013149,0,0,0,0.055541,-5.6255e-05,0.016645,0.52123,0.024043,0.049411,3.8936e-06,0.55,0.85,0
0.027703,-0.0064746,0.055534,-6.0715e-05,0.016642,0.0005066,0,0,0.050559,-0.021713,0,0.0013172,0,0,0,0.055538,-6.5331e-05,0.016642,0.52205,0.024038,0.049416,3.8938e-06,0.56,0.85,0
0.028208,-0.0064925,0.055532,-6.8885e-05,0.016639,0.00050604,0,0,0.050561,-0.02172,0,0.0013157,0,0,0,0.055537,-7.349e-05,0.016639,0.5214,0.024034,0.049421,3.8941e-06,0.57,0.85,0
0.028714,-0.0065093,0.055532,-7.6247e-05,0.016637,0.00050417,0,0,0.050564,-0.021727,0,0.0013108,0,0,0,0.055537,-8.0818e-05,0.016637,0.51941,0.024031,0.049427,3.8947e-06,0.58,0.85,0
0.029219,-0.0065251,0.055533,-8.2876e-05,0.016635,0.00050112,0,0,0.050568,-0.021733,0,0.0013029,0,0,0,0.055538,-8.739e-05,0.016635,0.51619,0.024029,0.049433,3.8954e-06,0.59,0.85,0
0.029725,-0.00654,0.055535,-8.8837e-05,0.016634,0.00049697,0,0,0.050572,-0.02174,0,0.0012921,0,0,0,0.05554,-9.3277e-05,0.016634,0.51185,0.024027,0.049439,3.8962e-06,0.6,0.85,0
0.030231,-0.006554,0.055538,-9.4193e-05,0.016633,0.00049182,0,0,0.050576,-0.021746,0,0.0012787,0,0,0,0.055542,-9.8541e-05,0.016633,0.50648,0.024026,0.049446,3.8971e-06,0.61,0.85,0
0.030737,-0.0065671,0.055542,-9.8998e-05,0.016633,0.00048576,0,0,0.050581,-0.021751,0,0.001263,0,0,0,0.055546,-0.00010324,0.016633,0.50016,0.024025,0.049453,3.8982e-06,0.62,0.85,0
0.031242,-0.0065794,0.055546,-0.0001033,0.016633,0.00047887,0,0,0.050587,-0.021757,0,0.001245,0,0,0,0.05555,-0.00010742,0.016633,0.49299,0.024025,0.04946,3.8994e-06,0.63,0.85,0
0.031748,-0.006591,0.05555,-0.00010715,0.016633,0.00047121,0,0,0.050593,-0.021762,0,0.0012251,0,0,0,0.055554,-0.00011114,0.016633,0.48503,0.024025,0.049467,3.9006e-06,0.64,0.85,0
0.032254,-0.0066019,0.055556,-0.00011059,0.016633,0.00046285,0,0,0.050599,-0.021767,0,0.0012034,0,0,0,0.055559,-0.00011444,0.016633,0.47636,0.024026,0.049474,3.9019e-06,0.65,0.85,0
0.03276,-0.006612,0.055561,-0.00011365,0.016634,0.00045386,0,0,0.050605,-0.021772,0,0.00118,0,0,0,0.055565,-0.00011735,0.016634,0.46703,0.024027,0.049481,3.9033e-06,0.66,0.85,0
0.033266,-0.0066216,0.055567,-0.00011637,0.016635,0.00044429,0,0,0.050612,-0.021777,0,0.0011552,0,0,0,0.055571,-0.00011991,0.016635,0.45712,0.024029,0.049488,3.9047e-06,0.67,0.85,0
0.033773,-0.0066305,0.055574,-0.00011878,0.016636,0.0004342,0,0,0.050618,-0.021782,0,0.0011289,0,0,0,0.055577,-0.00012216,0.016636,0.44666,0.02403,0.049495,3.9062e-06,0.68,0.85,0
0.034279,-0.0066388,0.05558,-0.0001209,0.016638,0.00042362,0,0,0.050625,-0.021786,0,0.0011014,0,0,0,0.055584,-0.00012412,0.016638,0.43572,0.024032,0.049503,3.9077e-06,0.69,0.85,0
0.034785,-0.0066467,0.055587,-0.00012277,0.016639,0.00041261,0,0,0.050632,-0.021791,0,0.0010728,0,0,0,0.05559,-0.00012583,0.016639,0.42433,0.024035,0.04951,3.9092e-06,0.7,0.85,0
0.035291,-0.006654,0.055594,-0.00012441,0.016641,0.00040121,0,0,0.050639,-0.021795,0,0.0010432,0,0,0,0.055597,-0.0001273,0.016641,0.41254,0.024037,0.049517,3.9108e-06,0.71,0.85,0
0.035798,-0.0066608,0.055601,-0.00012584,0.016643,0.00038945,0,0,0.050646,-0.021799,0,0.0010126,0,0,0,0.055604,-0.00012856,0.016643,0.40039,0.024039,0.049524,3.9123e-06,0.72,0.85,0
0.036304,-0.0066671,0.055608,-0.00012708,0.016644,0.00037737,0,0,0.050653,-0.021803,0,0.00098117,0,0,0,0.055611,-0.00012963,0.016644,0.38791,0.024042,0.049531,3.9139e-06,0.73,0.85,0
0.036811,-0.0066731,0.055615,-0.00012814,0.016646,0.000365,0,0,0.05066,-0.021807,0,0.000949,0,0,0,0.055618,-0.00013053,0.016646,0.37514,0.024044,0.049538,3.9154e-06,0.74,0.85,0
0.037318,-0.0066786,0.055622,-0.00012905,0.016648,0.00035237,0,0,0.050667,-0.02181,0,0.00091615,0,0,0,0.055625,-0.00013128,0.016648,0.36211,0.024047,0.049545,3.9169e-06,0.75,0.85,0
0.037824,-0.0066837,0.055629,-0.00012983,0.01665,0.0003395,0,0,0.050674,-0.021814,0,0.0008827,0,0,0,0.055632,-0.0001319,0.01665,0.34884,0.02405,0.049552,3.9184e-06,0.76,0.85,0
0.038331,-0.0066885,0.055636,-0.00013048,0.016652,0.00032642,0,0,0.05068,-0.021817,0,0.00084869,0,0,0,0.055638,-0.00013239,0.016652,0.33535,0.024053,0.049558,3.9199e-06,0.77,0.85,0
0.038838,-0.006693,0.055643,-0.00013102,0.016654,0.00031315,0,0,0.050687,-0.02182,0,0.00081419,0,0,0,0.055645,-0.00013278,0.016654,0.32168,0.024055,0.049565,3.9214e-06,0.78,0.85,0
0.039345,-0.0066971,0.05565,-0.00013146,0.016656,0.00029971,0,0,0.050693,-0.021823,0,0.00077926,0,0,0,0.055652,-0.00013307,0.016656,0.30784,0.024058,0.049571,3.9228e-06,0.79,0.85,0
0.039852,-0.0067009,0.055657,-0.00013182,0.016657,0.00028613,0,0,0.050699,-0.021826,0,0.00074393,0,0,0,0.055658,-0.00013329,0.016657,0.29385,0.024061,0.049577,3.9242e-06,0.8,0.85,0
0.040359,-0.0067044,0.055663,-0.0001321,0.016659,0.00027241,0,0,0.050705,-0.021829,0,0.00070826,0,0,0,0.055664,-0.00013343,0.016659,0.27973,0.024063,0.049582,3.9255e-06,0.81,0.85,0
0.040866,-0.0067077,0.055669,-0.00013231,0.016661,0.00025857,0,0,0.050711,-0.021831,0,0.00067228,0,0,0,0.05567,-0.00013351,0.016661,0.26549,0.024066,0.049588,3.9268e-06,0.82,0.85,0
0.041373,-0.0067107,0.055675,-0.00013247,0.016663,0.00024463,0,0,0.050716,-0.021834,0,0.00063603,0,0,0,0.055676,-0.00013354,0.016663,0.25114,0.024068,0.049593,3.928e-06,0.83,0.85,0
0.04188,-0.0067135,0.055681,-0.00013257,0.016664,0.00023059,0,0,0.050721,-0.021836,0,0.00059954,0,0,0,0.055682,-0.00013353,0.016664,0.23671,0.024071,0.049598,3.9292e-06,0.84,0.85,0
0.042387,-0.006716,0.055686,-0.00013264,0.016666,0.00021648,0,0,0.050726,-0.021838,0,0.00056284,0,0,0,0.055687,-0.00013348,0.016666,0.2222,0.024073,0.049602,3.9303e-06,0.85,0.85,0
0.042895,-0.0067183,0.055691,-0.00013266,0.016668,0.00020229,0,0,0.050731,-0.02184,0,0.00052596,0,0,0,0.055692,-0.0001334,0.016668,0.20762,0.024075,0.049607,3.9313e-06,0.86,0.85,0
0.043402,-0.0067204,0.055696,-0.00013267,0.016669,0.00018804,0,0,0.050735,-0.021842,0,0.00048892,0,0,0,0.055697,-0.0001333,0.016669,0.19298,0.024078,0.049611,3.9323e-06,0.87,0.85,0
0.043909,-0.0067223,0.055701,-0.00013265,0.01667,0.00017374,0,0,0.050739,-0.021844,0,0.00045173,0,0,0,0.055701,-0.00013319,0.01667,0.17829,0.02408,0.049615,3.9332e-06,0.88,0.85,0
0.044417,-0.0067241,0.055705,-0.00013261,0.016672,0.0001594,0,0,0.050743,-0.021846,0,0.00041443,0,0,0,0.055705,-0.00013306,0.016672,0.16356,0.024081,0.049618,3.9341e-06,0.89,0.85,0
0.044924,-0.0067256,0.055709,-0.00013256,0.016673,0.00014501,0,0,0.050747,-0.021847,0,0.00037703,0,0,0,0.055709,-0.00013293,0.016673,0.14879,0.024083,0.049621,3.9349e-06,0.9,0.85,0
0.045432,-0.006727,0.055712,-0.0001325,0.016674,0.00013059,0,0,0.05075,-0.021848,0,0.00033954,0,0,0,0.055712,-0.0001328,0.016674,0.13399,0.024085,0.049625,3.9356e-06,0.91,0.85,0
0.045939,-0.0067282,0.055715,-0.00013244,0.016675,0.00011615,0,0,0.050753,-0.02185,0,0.00030198,0,0,0,0.055716,-0.00013268,0.016675,0.11916,0.024086,0.049627,3.9363e-06,0.92,0.85,0
0.046447,-0.0067293,0.055718,-0.00013237,0.016676,0.00010168,0,0,0.050755,-0.021851,0,0.00026435,0,0,0,0.055718,-0.00013256,0.016676,0.1043,0.024087,0.04963,3.9368e-06,0.93,0.85,0
0.046954,-0.0067302,0.055721,-0.00013231,0.016677,8.7184e-05,0,0,0.050757,-0.021851,0,0.00022668,0,0,0,0.055721,-0.00013245,0.016677,0.089435,0.024088,0.049632,3.9373e-06,0.94,0.85,0
0.047462,-0.0067309,0.055723,-0.00013225,0.016677,7.2676e-05,0,0,0.050759,-0.021852,0,0.00018896,0,0,0,0.055723,-0.00013235,0.016677,0.074551,0.024089,0.049633,3.9378e-06,0.95,0.85,0
0.047969,-0.0067316,0.055724,-0.00013221,0.016678,5.8156e-05,0,0,0.050761,-0.021853,0,0.0001512,0,0,0,0.055725,-0.00013227,0.016678,0.059654,0.02409,0.049635,3.9381e-06,0.96,0.85,0
0.048477,-0.006732,0.055726,-0.00013217,0.016678,4.3625e-05,0,0,0.050762,-0.021853,0,0.00011343,0,0,0,0.055726,-0.0001322,0.016678,0.044748,0.024091,0.049636,3.9384e-06,0.97,0.85,0
0.048985,-0.0067324,0.055727,-0.00013214,0.016678,2.9087e-05,0,0,0.050763,-0.021854,0,7.5627e-05,0,0,0,0.055727,-0.00013215,0.016678,0.029836,0.024091,0.049637,3.9386e-06,0.98,0.85,0
0.049492,-0.0067326,0.055727,-0.00013212,0.016679,1.4545e-05,0,0,0.050763,-0.021854,0,3.7817e-05,0,0,0,0.055727,-0.00013212,0.016679,0.014919,0.024091,0.049637,3.9387e-06,0.99,0.85,0
0.05,-0.0067326,0.055727,-0.00013211,0.016679,-2.5845e-06,0,0,0.050764,-0.021854,0,-6.7198e-06,0,0,0,0.055727,-0.00013211,0.016679,-0.002651,0.024091,0.049637,3.9387e-06,1,0.85,0
0,0,0.054122,0.023195,0.023195,-0.0098289,0,0,0.040205,3.2526e-19,0,-0.025555,0,0,0,0.056982,0.020336,0.023195,-16.221,0.033504,0.035303,2.2098e-06,0,0.86,0
0.00040205,-0.00025555,0.053994,0.021583,0.022673,-0.009817,0,0,0.040717,-0.0014168,0,-0.025524,0,0,0,0.056735,0.018842,0.022673,-15.604,0.03275,0.036131,2.3308e-06,0.01,0.86,0
0.00081433,-0.00051569,0.054531,0.020181,0.022413,-0.0098432,0,0,0.041752,-0.0029021,0,-0.025592,0,0,0,0.057151,0.01756,0.022413,-14.909,0.032375,0.037401,2.5352e-06,0.02,0.86,0
0.0012371,-0.00077887,0.055062,0.018732,0.022138,-0.0097843,0,0,0.042801,-0.0044281,0,-0.025439,0,0,0,0.057529,0.016264,0.022138,-14.154,0.031977,0.038664,2.739e-06,0.03,0.86,0
0.0016703,-0.0010434,0.055573,0.017265,0.021851,-0.0096354,0,0,0.043838,-0.0059625,0,-0.025052,0,0,0,0.05786,0.014978,0.021851,-13.352,0.031563,0.039892,2.9368e-06,0.04,0.86,0
0.0021139,-0.0013074,0.056049,0.015809,0.021557,-0.009398,0,0,0.044839,-0.0074732,0,-0.024435,0,0,0,0.058136,0.013722,0.021557,-12.518,0.031138,0.04106,3.1235e-06,0.05,0.86,0
0.0025671,-0.0015691,0.056479,0.014391,0.021261,-0.0090794,0,0,0.045783,-0.0089308,0,-0.023606,0,0,0,0.058354,0.012516,0.021261,-11.669,0.03071,0.042151,3.2953e-06,0.06,0.86,0
0.0030295,-0.0018269,0.056853,0.013035,0.020966,-0.0086914,0,0,0.046653,-0.010311,0,-0.022598,0,0,0,0.058514,0.011374,0.020966,-10.819,0.030285,0.043151,3.4492e-06,0.07,0.86,0
0.0035002,-0.0020792,0.057167,0.011756,0.020677,-0.0082485,0,0,0.047437,-0.011597,0,-0.021446,0,0,0,0.058619,0.010304,0.020677,-9.9826,0.029867,0.044054,3.5839e-06,0.08,0.86,0
0.0039783,-0.0023248,0.057418,0.010566,0.020395,-0.0077659,0,0,0.04813,-0.012778,0,-0.020191,0,0,0,0.058672,0.0093125,0.020395,-9.1704,0.02946,0.044857,3.6991e-06,0.09,0.86,0
0.0044628,-0.0025628,0.057609,0.0094708,0.020124,-0.0072585,0,0,0.04873,-0.013849,0,-0.018872,0,0,0,0.058679,0.0084002,0.020124,-8.3909,0.029068,0.045563,3.7952e-06,0.1,0.86,0
0.0049529,-0.0027924,0.057742,0.0084712,0.019864,-0.0067394,0,0,0.049241,-0.01481,0,-0.017522,0,0,0,0.058647,0.007566,0.019864,-7.65,0.028692,0.046177,3.8737e-06,0.11,0.86,0
0.0054476,-0.0030132,0.057823,0.0075653,0.019616,-0.0062201,0,0,0.049668,-0.015666,0,-0.016172,0,0,0,0.058581,0.0068069,0.019616,-6.9515,0.028335,0.046706,3.9362e-06,0.12,0.86,0
0.0059462,-0.0032247,0.057859,0.0067488,0.019382,-0.0057097,0,0,0.05002,-0.016424,0,-0.014845,0,0,0,0.058489,0.0061187,0.019382,-6.2973,0.027997,0.047159,3.9846e-06,0.13,0.86,0
0.006448,-0.0034268,0.057856,0.0060158,0.019162,-0.0052151,0,0,0.050303,-0.01709,0,-0.013559,0,0,0,0.058376,0.0054963,0.019162,-5.688,0.027678,0.047543,4.0208e-06,0.14,0.86,0
0.0069523,-0.0036196,0.057822,0.0053598,0.018954,-0.0047415,0,0,0.050528,-0.017673,0,-0.012328,0,0,0,0.058247,0.0049347,0.018954,-5.123,0.027379,0.047868,4.0467e-06,0.15,0.86,0
0.0074586,-0.0038032,0.057762,0.0047739,0.018761,-0.0042921,0,0,0.050701,-0.018183,0,-0.011159,0,0,0,0.058107,0.0044285,0.018761,-4.6011,0.027099,0.04814,4.0641e-06,0.16,0.86,0
0.0079663,-0.0039777,0.057681,0.0042514,0.01858,-0.0038691,0,0,0.050832,-0.018627,0,-0.01006,0,0,0,0.05796,0.0039727,0.01858,-4.1204,0.026838,0.048367,4.0743e-06,0.17,0.86,0
0.0084752,-0.0041434,0.057585,0.0037859,0.018411,-0.0034734,0,0,0.050926,-0.019013,0,-0.0090309,0,0,0,0.057809,0.0035626,0.018411,-3.6788,0.026594,0.048556,4.0789e-06,0.18,0.86,0
0.0089849,-0.0043006,0.057479,0.0033713,0.018255,-0.0031053,0,0,0.050991,-0.019349,0,-0.0080737,0,0,0,0.057656,0.0031936,0.018255,-3.2739,0.026368,0.048711,4.079e-06,0.19,0.86,0
0.009495,-0.0044496,0.057365,0.003002,0.01811,-0.0027643,0,0,0.051031,-0.01964,0,-0.007187,0,0,0,0.057505,0.0028618,0.01811,-2.9034,0.026159,0.048838,4.0755e-06,0.2,0.86,0
0.010006,-0.0045908,0.057246,0.0026731,0.017976,-0.0024495,0,0,0.051051,-0.019894,0,-0.0063686,0,0,0,0.057356,0.0025634,0.017976,-2.5648,0.025965,0.048942,4.0693e-06,0.21,0.86,0
0.010516,-0.0047244,0.057126,0.00238,0.017852,-0.0021598,0,0,0.051056,-0.020113,0,-0.0056155,0,0,0,0.057211,0.002295,0.017852,-2.2557,0.025786,0.049025,4.061e-06,0.22,0.86,0
0.011027,-0.0048509,0.057006,0.0021188,0.017737,-0.001894,0,0,0.051049,-0.020304,0,-0.0049244,0,0,0,0.057071,0.0020535,0.017737,-1.974,0.025621,0.049092,4.0513e-06,0.23,0.86,0
0.011537,-0.0049705,0.056887,0.0018858,0.017632,-0.0016506,0,0,0.051032,-0.02047,0,-0.0042915,0,0,0,0.056936,0.0018363,0.017632,-1.7174,0.025468,0.049145,4.0406e-06,0.24,0.86,0
0.012047,-0.0050837,0.056771,0.0016779,0.017535,-0.0014281,0,0,0.051007,-0.020614,0,-0.0037131,0,0,0,0.056808,0.0016409,0.017535,-1.4839,0.025328,0.049186,4.0292e-06,0.25,0.86,0
0.012557,-0.0051908,0.056659,0.0014922,0.017445,-0.0012251,0,0,0.050978,-0.020739,0,-0.0031854,0,0,0,0.056686,0.001465,0.017445,-1.2716,0.025199,0.049217,4.0176e-06,0.26,0.86,0
0.013067,-0.005292,0.056551,0.0013262,0.017363,-0.0010403,0,0,0.050945,-0.020848,0,-0.0027047,0,0,0,0.056571,0.0013066,0.017363,-1.0788,0.02508,0.04924,4.0058e-06,0.27,0.86,0
0.013576,-0.0053877,0.056449,0.0011779,0.017288,-0.00087212,0,0,0.050909,-0.020943,0,-0.0022675,0,0,0,0.056463,0.0011641,0.017288,-0.90376,0.024972,0.049257,3.9941e-06,0.28,0.86,0
0.014085,-0.0054782,0.056352,0.0010451,0.017219,-0.00071937,0,0,0.050873,-0.021026,0,-0.0018704,0,0,0,0.056361,0.0010357,0.017219,-0.74508,0.024872,0.049269,3.9828e-06,0.29,0.86,0
0.014594,-0.0055637,0.05626,0.00092618,0.017156,-0.00058083,0,0,0.050835,-0.021099,0,-0.0015102,0,0,0,0.056266,0.00092008,0.017156,-0.60133,0.024781,0.049277,3.9717e-06,0.3,0.86,0
0.015102,-0.0056445,0.056174,0.00081966,0.017098,-0.00045532,0,0,0.050799,-0.021162,0,-0.0011838,0,0,0,0.056178,0.00081591,0.017098,-0.47124,0.024697,0.049281,3.9612e-06,0.31,0.86,0
0.01561,-0.0057209,0.056094,0.00072417,0.017045,-0.00034177,0,0,0.050763,-0.021218,0,-0.00088861,0,0,0,0.056096,0.00072206,0.017045,-0.35365,0.024621,0.049283,3.9511e-06,0.32,0.86,0
0.016117,-0.0057932,0.056019,0.00063851,0.016997,-0.00023921,0,0,0.050728,-0.021266,0,-0.00062194,0,0,0,0.05602,0.00063748,0.016997,-0.24748,0.024552,0.049283,3.9417e-06,0.33,0.86,0
0.016624,-0.0058614,0.055949,0.00056164,0.016953,-0.0001467,0,0,0.050695,-0.021309,0,-0.00038141,0,0,0,0.05595,0.00056125,0.016953,-0.15175,0.024488,0.049281,3.9328e-06,0.34,0.86,0
0.017131,-0.0059259,0.055885,0.00049262,0.016913,-6.3394e-05,0,0,0.050664,-0.021347,0,-0.00016483,0,0,0,0.055885,0.00049255,0.016913,-0.065572,0.024431,0.049279,3.9245e-06,0.35,0.86,0
0.017637,-0.0059869,0.055827,0.00043061,0.016877,1.1479e-05,0,0,0.050634,-0.021381,0,2.9846e-05,0,0,0,0.055827,0.00043061,0.016877,0.011873,0.024378,0.049276,3.9168e-06,0.36,0.86,0
0.018143,-0.0060445,0.055773,0.00037488,0.016844,7.8639e-05,0,0,0.050607,-0.02141,0,0.00020446,0,0,0,0.055773,0.00037476,0.016844,0.081333,0.024331,0.049273,3.9098e-06,0.37,0.86,0
0.018649,-0.0060989,0.055724,0.00032476,0.016814,0.00013874,0,0,0.050582,-0.021437,0,0.00036073,0,0,0,0.055724,0.00032442,0.016814,0.14349,0.024288,0.04927,3.9034e-06,0.38,0.86,0
0.019155,-0.0061503,0.055679,0.00027969,0.016788,0.00019239,0,0,0.050559,-0.02146,0,0.00050022,0,0,0,0.05568,0.00027902,0.016788,0.19897,0.024249,0.049266,3.8975e-06,0.39,0.86,0
0.019661,-0.0061988,0.055639,0.00023912,0.016763,0.00024014,0,0,0.050538,-0.021482,0,0.00062435,0,0,0,0.05564,0.00023808,0.016763,0.24835,0.024214,0.049264,3.8923e-06,0.4,0.86,0
0.020166,-0.0062447,0.055603,0.0002026,0.016742,0.00028248,0,0,0.05052,-0.021501,0,0.00073445,0,0,0,0.055604,0.00020116,0.016742,0.29213,0.024182,0.049261,3.8876e-06,0.41,0.86,0
0.020671,-0.006288,0.055571,0.00016972,0.016722,0.00031988,0,0,0.050503,-0.021518,0,0.0008317,0,0,0,0.055572,0.00016787,0.016722,0.33081,0.024154,0.04926,3.8834e-06,0.42,0.86,0
0.021176,-0.0063289,0.055542,0.0001401,0.016705,0.00035277,0,0,0.050489,-0.021534,0,0.0009172,0,0,0,0.055544,0.00013785,0.016705,0.36481,0.024129,0.049259,3.8798e-06,0.43,0.86,0
0.021681,-0.0063676,0.055517,0.00011342,0.016689,0.00038152,0,0,0.050476,-0.021548,0,0.00099195,0,0,0,0.055519,0.00011079,0.016689,0.39453,0.024106,0.049258,3.8766e-06,0.44,0.86,0
0.022186,-0.006404,0.055495,8.9369e-05,0.016675,0.00040649,0,0,0.050465,-0.021562,0,0.0010569,0,0,0,0.055498,8.6387e-05,0.016675,0.42033,0.024087,0.049258,3.8739e-06,0.45,0.86,0
0.02269,-0.0064385,0.055476,6.7695e-05,0.016663,0.000428,0,0,0.050457,-0.021574,0,0.0011128,0,0,0,0.055479,6.4389e-05,0.016663,0.44255,0.024069,0.049259,3.8716e-06,0.46,0.86,0
0.023195,-0.006471,0.05546,4.8157e-05,0.016652,0.00044634,0,0,0.050449,-0.021585,0,0.0011605,0,0,0,0.055463,4.4562e-05,0.016652,0.46148,0.024053,0.049261,3.8698e-06,0.47,0.86,0
0.023699,-0.0065016,0.055446,3.0544e-05,0.016643,0.00046179,0,0,0.050444,-0.021596,0,0.0012006,0,0,0,0.05545,2.6696e-05,0.016643,0.47741,0.02404,0.049264,3.8683e-06,0.48,0.86,0
0.024203,-0.0065305,0.055435,1.4665e-05,0.016635,0.00047458,0,0,0.05044,-0.021606,0,0.0012339,0,0,0,0.055439,1.0601e-05,0.016635,0.4906,0.024028,0.049267,3.8672e-06,0.49,0.86,0
0.024708,-0.0065578,0.055426,3.5085e-07,0.016628,0.00048495,0,0,0.050437,-0.021616,0,0.0012609,0,0,0,0.05543,-3.892e-06,0.016628,0.50127,0.024018,0.04927,3.8665e-06,0.5,0.86,0
0.025212,-0.0065835,0.055419,-1.2552e-05,0.016622,0.0004931,0,0,0.050436,-0.021625,0,0.0012821,0,0,0,0.055423,-1.6938e-05,0.016622,0.50963,0.024009,0.049275,3.866e-06,0.51,0.86,0
0.025717,-0.0066077,0.055414,-2.418e-05,0.016617,0.00049922,0,0,0.050436,-0.021633,0,0.001298,0,0,0,0.055418,-2.8676e-05,0.016617,0.5159,0.024002,0.04928,3.8658e-06,0.52,0.86,0
0.026221,-0.0066306,0.05541,-3.4657e-05,0.016613,0.00050348,0,0,0.050437,-0.021642,0,0.001309,0,0,0,0.055415,-3.9229e-05,0.016613,0.52023,0.023996,0.049285,3.866e-06,0.53,0.86,0
0.026725,-0.0066521,0.055409,-4.4094e-05,0.016609,0.00050604,0,0,0.050439,-0.021649,0,0.0013157,0,0,0,0.055413,-4.8712e-05,0.016609,0.5228,0.023991,0.049291,3.8663e-06,0.54,0.86,0
0.02723,-0.0066724,0.055408,-5.2589e-05,0.016607,0.00050704,0,0,0.050442,-0.021657,0,0.0013183,0,0,0,0.055413,-5.7225e-05,0.016607,0.52376,0.023987,0.049298,3.8669e-06,0.55,0.86,0
0.027734,-0.0066915,0.055409,-6.0233e-05,0.016605,0.00050662,0,0,0.050446,-0.021664,0,0.0013172,0,0,0,0.055414,-6.486e-05,0.016605,0.52324,0.023985,0.049305,3.8677e-06,0.56,0.86,0
0.028239,-0.0067094,0.055412,-6.7106e-05,0.016603,0.0005049,0,0,0.050451,-0.021672,0,0.0013127,0,0,0,0.055416,-7.1701e-05,0.016603,0.52138,0.023983,0.049312,3.8686e-06,0.57,0.86,0
0.028743,-0.0067263,0.055415,-7.328e-05,0.016602,0.00050199,0,0,0.050456,-0.021678,0,0.0013052,0,0,0,0.055419,-7.7821e-05,0.016602,0.51828,0.023981,0.04932,3.8698e-06,0.58,0.86,0
0.029248,-0.0067422,0.055419,-7.8822e-05,0.016602,0.00049799,0,0,0.050462,-0.021685,0,0.0012948,0,0,0,0.055424,-8.329e-05,0.016602,0.51407,0.023981,0.049328,3.871e-06,0.59,0.86,0
0.029752,-0.0067572,0.055424,-8.379e-05,0.016602,0.000493,0,0,0.050469,-0.021692,0,0.0012818,0,0,0,0.055428,-8.8168e-05,0.016602,0.50883,0.023981,0.049336,3.8724e-06,0.6,0.86,0
0.030257,-0.0067712,0.05543,-8.8238e-05,0.016602,0.00048711,0,0,0.050476,-0.021698,0,0.0012665,0,0,0,0.055434,-9.2511e-05,0.016602,0.50265,0.023981,0.049345,3.874e-06,0.61,0.86,0
0.030762,-0.0067844,0.055436,-9.2214e-05,0.016603,0.00048039,0,0,0.050483,-0.021704,0,0.001249,0,0,0,0.055441,-9.637e-05,0.016603,0.49562,0.023983,0.049354,3.8756e-06,0.62,0.86,0
0.031267,-0.0067968,0.055444,-9.5762e-05,0.016604,0.00047291,0,0,0.050491,-0.02171,0,0.0012296,0,0,0,0.055448,-9.9788e-05,0.016604,0.48782,0.023984,0.049363,3.8773e-06,0.63,0.86,0
0.031772,-0.0068084,0.055451,-9.8922e-05,0.016606,0.00046475,0,0,0.050499,-0.021716,0,0.0012084,0,0,0,0.055455,-0.00010281,0.016606,0.47931,0.023986,0.049372,3.8791e-06,0.64,0.86,0
0.032277,-0.0068193,0.055459,-0.00010173,0.016607,0.00045597,0,0,0.050507,-0.021722,0,0.0011855,0,0,0,0.055463,-0.00010547,0.016607,0.47016,0.023988,0.049381,3.881e-06,0.65,0.86,0
0.032782,-0.0068295,0.055468,-0.00010422,0.016609,0.00044662,0,0,0.050516,-0.021727,0,0.0011612,0,0,0,0.055471,-0.00010781,0.016609,0.46043,0.023991,0.04939,3.8829e-06,0.66,0.86,0
0.033287,-0.0068391,0.055476,-0.00010641,0.016611,0.00043675,0,0,0.050525,-0.021733,0,0.0011356,0,0,0,0.05548,-0.00010985,0.016611,0.45018,0.023994,0.049399,3.8848e-06,0.67,0.86,0
0.033792,-0.0068481,0.055485,-0.00010835,0.016613,0.00042642,0,0,0.050534,-0.021738,0,0.0011087,0,0,0,0.055488,-0.00011162,0.016613,0.43944,0.023997,0.049408,3.8868e-06,0.68,0.86,0
0.034298,-0.0068565,0.055494,-0.00011005,0.016615,0.00041567,0,0,0.050543,-0.021743,0,0.0010807,0,0,0,0.055497,-0.00011315,0.016615,0.42828,0.024,0.049418,3.8887e-06,0.69,0.86,0
0.034803,-0.0068643,0.055503,-0.00011153,0.016618,0.00040453,0,0,0.050552,-0.021748,0,0.0010518,0,0,0,0.055506,-0.00011447,0.016618,0.41672,0.024003,0.049427,3.8907e-06,0.7,0.86,0
0.035309,-0.0068717,0.055513,-0.00011281,0.01662,0.00039304,0,0,0.050561,-0.021753,0,0.0010219,0,0,0,0.055515,-0.00011559,0.01662,0.40482,0.024007,0.049436,3.8927e-06,0.71,0.86,0
0.035814,-0.0068786,0.055522,-0.00011393,0.016622,0.00038125,0,0,0.050569,-0.021757,0,0.00099124,0,0,0,0.055524,-0.00011654,0.016622,0.3926,0.02401,0.049444,3.8947e-06,0.72,0.86,0
0.03632,-0.006885,0.055531,-0.00011488,0.016625,0.00036917,0,0,0.050578,-0.021762,0,0.00095984,0,0,0,0.055534,-0.00011733,0.016625,0.38009,0.024014,0.049453,3.8967e-06,0.73,0.86,0
0.036826,-0.0068909,0.05554,-0.00011569,0.016627,0.00035684,0,0,0.050587,-0.021766,0,0.00092779,0,0,0,0.055543,-0.00011798,0.016627,0.36734,0.024017,0.049462,3.8986e-06,0.74,0.86,0
0.037332,-0.0068965,0.055549,-0.00011637,0.01663,0.00034429,0,0,0.050595,-0.02177,0,0.00089514,0,0,0,0.055551,-0.0001185,0.01663,0.35435,0.024021,0.04947,3.9006e-06,0.75,0.86,0
0.037838,-0.0069017,0.055558,-0.00011694,0.016632,0.00033153,0,0,0.050604,-0.021774,0,0.00086198,0,0,0,0.05556,-0.00011891,0.016632,0.34116,0.024025,0.049478,3.9024e-06,0.76,0.86,0
0.038344,-0.0069065,0.055567,-0.00011741,0.016635,0.00031859,0,0,0.050612,-0.021778,0,0.00082834,0,0,0,0.055569,-0.00011923,0.016635,0.3278,0.024028,0.049486,3.9043e-06,0.77,0.86,0
0.03885,-0.006911,0.055576,-0.00011778,0.016637,0.0003055,0,0,0.05062,-0.021782,0,0.00079429,0,0,0,0.055577,-0.00011946,0.016637,0.31427,0.024032,0.049494,3.9061e-06,0.78,0.86,0
0.039356,-0.0069151,0.055584,-0.00011808,0.01664,0.00029226,0,0,0.050627,-0.021785,0,0.00075987,0,0,0,0.055586,-0.00011961,0.01664,0.30061,0.024035,0.049501,3.9078e-06,0.79,0.86,0
0.039863,-0.006919,0.055592,-0.0001183,0.016642,0.00027889,0,0,0.050635,-0.021789,0,0.00072512,0,0,0,0.055593,-0.0001197,0.016642,0.28682,0.024039,0.049508,3.9095e-06,0.8,0.86,0
0.040369,-0.0069225,0.0556,-0.00011847,0.016644,0.00026542,0,0,0.050642,-0.021792,0,0.00069008,0,0,0,0.055601,-0.00011973,0.016644,0.27292,0.024042,0.049515,3.9111e-06,0.81,0.86,0
0.040876,-0.0069258,0.055607,-0.00011858,0.016647,0.00025184,0,0,0.050649,-0.021795,0,0.00065478,0,0,0,0.055609,-0.00011972,0.016647,0.25893,0.024045,0.049522,3.9127e-06,0.82,0.86,0
0.041382,-0.0069289,0.055615,-0.00011865,0.016649,0.00023818,0,0,0.050656,-0.021798,0,0.00061927,0,0,0,0.055616,-0.00011966,0.016649,0.24485,0.024048,0.049528,3.9142e-06,0.83,0.86,0
0.041889,-0.0069317,0.055622,-0.00011867,0.016651,0.00022445,0,0,0.050662,-0.0218,0,0.00058356,0,0,0,0.055622,-0.00011958,0.016651,0.2307,0.024051,0.049534,3.9156e-06,0.84,0.86,0
0.042395,-0.0069342,0.055628,-0.00011867,0.016653,0.00021065,0,0,0.050668,-0.021803,0,0.00054768,0,0,0,0.055629,-0.00011947,0.016653,0.21649,0.024054,0.04954,3.917e-06,0.85,0.86,0
0.042902,-0.0069365,0.055634,-0.00011864,0.016655,0.00019679,0,0,0.050674,-0.021805,0,0.00051166,0,0,0,0.055635,-0.00011933,0.016655,0.20223,0.024057,0.049545,3.9182e-06,0.86,0.86,0
0.043409,-0.0069387,0.05564,-0.00011859,0.016657,0.00018289,0,0,0.050679,-0.021808,0,0.00047551,0,0,0,0.055641,-0.00011919,0.016657,0.18793,0.024059,0.04955,3.9194e-06,0.87,0.86,0
0.043916,-0.0069406,0.055646,-0.00011853,0.016658,0.00016894,0,0,0.050684,-0.02181,0,0.00043925,0,0,0,0.055646,-0.00011904,0.016658,0.17358,0.024062,0.049555,3.9206e-06,0.88,0.86,0
0.044422,-0.0069423,0.055651,-0.00011845,0.01666,0.00015496,0,0,0.050688,-0.021812,0,0.0004029,0,0,0,0.055651,-0.00011888,0.01666,0.1592,0.024064,0.049559,3.9216e-06,0.89,0.86,0
0.044929,-0.0069439,0.055655,-0.00011837,0.016661,0.00014095,0,0,0.050693,-0.021813,0,0.00036647,0,0,0,0.055656,-0.00011872,0.016661,0.1448,0.024066,0.049563,3.9225e-06,0.9,0.86,0
0.045436,-0.0069453,0.05566,-0.00011828,0.016662,0.00012691,0,0,0.050696,-0.021815,0,0.00032998,0,0,0,0.05566,-0.00011857,0.016662,0.13037,0.024068,0.049566,3.9234e-06,0.91,0.86,0
0.045943,-0.0069465,0.055663,-0.0001182,0.016664,0.00011286,0,0,0.0507,-0.021816,0,0.00029343,0,0,0,0.055663,-0.00011842,0.016664,0.11592,0.02407,0.04957,3.9242e-06,0.92,0.86,0
0.04645,-0.0069476,0.055667,-0.00011811,0.016665,9.8784e-05,0,0,0.050703,-0.021818,0,0.00025684,0,0,0,0.055667,-0.00011829,0.016665,0.10146,0.024071,0.049572,3.9249e-06,0.93,0.86,0
0.046957,-0.0069485,0.05567,-0.00011804,0.016665,8.4696e-05,0,0,0.050705,-0.021819,0,0.00022021,0,0,0,0.05567,-0.00011817,0.016665,0.086985,0.024072,0.049575,3.9255e-06,0.94,0.86,0
0.047464,-0.0069493,0.055672,-0.00011797,0.016666,7.0596e-05,0,0,0.050708,-0.021819,0,0.00018355,0,0,0,0.055672,-0.00011806,0.016666,0.072501,0.024074,0.049577,3.926e-06,0.95,0.86,0
0.047972,-0.0069499,0.055674,-0.00011791,0.016667,5.6487e-05,0,0,0.050709,-0.02182,0,0.00014687,0,0,0,0.055674,-0.00011797,0.016667,0.058009,0.024074,0.049578,3.9264e-06,0.96,0.86,0
0.048479,-0.0069504,0.055676,-0.00011786,0.016667,4.2371e-05,0,0,0.050711,-0.021821,0,0.00011016,0,0,0,0.055676,-0.0001179,0.016667,0.043512,0.024075,0.04958,3.9267e-06,0.97,0.86,0
0.048986,-0.0069507,0.055677,-0.00011783,0.016668,2.825e-05,0,0,0.050712,-0.021821,0,7.345e-05,0,0,0,0.055677,-0.00011784,0.016668,0.02901,0.024076,0.049581,3.9269e-06,0.98,0.86,0
0.049493,-0.0069509,0.055677,-0.00011781,0.016668,1.4126e-05,0,0,0.050713,-0.021821,0,3.6727e-05,0,0,0,0.055677,-0.00011781,0.016668,0.014506,0.024076,0.049581,3.9271e-06,0.99,0.86,0
0.05,-0.006951,0.055678,-0.0001178,0.016668,-2.6136e-06,0,0,0.050713,-0.021822,0,-6.7953e-06,0,0,0,0.055678,-0.0001178,0.016668,-0.0026839,0.024076,0.049582,3.9271e-06,1,0.86,0
0,0,0.054499,0.023357,0.023357,-0.010387,0,0,0.040485,3.2526e-19,0,-0.027008,0,0,0,0.057646,0.02021,0.023357,-16.854,0.033738,0.035966,2.3279e-06,0,0.87,0
0.00040485,-0.00027008,0.054365,0.021657,0.022807,-0.010373,0,0,0.041026,-0.0014944,0,-0.026969,0,0,0,0.057377,0.018645,0.022807,-16.193,0.032943,0.036828,2.4553e-06,0.01,0.87,0
0.00082052,-0.00054549,0.054929,0.020164,0.022528,-0.010401,0,0,0.042122,-0.0030732,0,-0.027042,0,0,0,0.057803,0.01729,0.022528,-15.447,0.03254,0.038165,2.6746e-06,0.02,0.87,0
0.0012473,-0.00082439,0.055485,0.018614,0.02223,-0.010327,0,0,0.043232,-0.0047003,0,-0.02685,0,0,0,0.058181,0.015919,0.02223,-14.628,0.03211,0.039486,2.8916e-06,0.03,0.87,0
0.0016852,-0.0011047,0.056015,0.017046,0.021918,-0.010145,0,0,0.044326,-0.0063344,0,-0.026378,0,0,0,0.058498,0.014563,0.021918,-13.752,0.03166,0.040759,3.0993e-06,0.04,0.87,0
0.0021338,-0.0013842,0.056501,0.015495,0.021599,-0.0098598,0,0,0.045373,-0.0079348,0,-0.025635,0,0,0,0.058749,0.013248,0.021599,-12.841,0.031199,0.041954,3.2917e-06,0.05,0.87,0
0.0025926,-0.0016609,0.05693,0.013996,0.021278,-0.0094815,0,0,0.046348,-0.009466,0,-0.024652,0,0,0,0.058931,0.011996,0.021278,-11.915,0.030735,0.043051,3.4645e-06,0.06,0.87,0
0.0030608,-0.0019327,0.057291,0.012575,0.02096,-0.0090268,0,0,0.047231,-0.0109,0,-0.02347,0,0,0,0.059045,0.010822,0.02096,-10.993,0.030275,0.044038,3.6149e-06,0.07,0.87,0
0.0035372,-0.0021981,0.057581,0.01125,0.020649,-0.0085146,0,0,0.048011,-0.012219,0,-0.022138,0,0,0,0.059096,0.0097344,0.020649,-10.091,0.029826,0.04491,3.7421e-06,0.08,0.87,0
0.004021,-0.0024556,0.057798,0.01003,0.020348,-0.0079641,0,0,0.048684,-0.013414,0,-0.020707,0,0,0,0.059091,0.0087376,0.020348,-9.2206,0.029392,0.045669,3.8465e-06,0.09,0.87,0
0.0045109,-0.0027043,0.057947,0.0089213,0.02006,-0.0073933,0,0,0.049252,-0.014481,0,-0.019223,0,0,0,0.059037,0.0078306,0.02006,-8.3919,0.028976,0.046319,3.9296e-06,0.1,0.87,0
0.005006,-0.0029435,0.058034,0.007921,0.019786,-0.0068173,0,0,0.049721,-0.015425,0,-0.017725,0,0,0,0.058944,0.0070102,0.019786,-7.6103,0.02858,0.046871,3.9935e-06,0.11,0.87,0
0.0055053,-0.0031726,0.058066,0.0070249,0.019527,-0.0062486,0,0,0.0501,-0.016253,0,-0.016246,0,0,0,0.05882,0.006271,0.019527,-6.879,0.028206,0.047334,4.0408e-06,0.12,0.87,0
0.006008,-0.0033916,0.058052,0.0062259,0.019283,-0.0056966,0,0,0.050399,-0.016975,0,-0.014811,0,0,0,0.058671,0.0056071,0.019283,-6.1992,0.027854,0.047719,4.074e-06,0.13,0.87,0
0.0065133,-0.0036002,0.058001,0.005516,0.019055,-0.005168,0,0,0.05063,-0.017601,0,-0.013437,0,0,0,0.058505,0.0050119,0.019055,-5.5704,0.027524,0.048037,4.0954e-06,0.14,0.87,0
0.0070206,-0.0037987,0.05792,0.0048867,0.018842,-0.0046674,0,0,0.050801,-0.018142,0,-0.012135,0,0,0,0.058328,0.0044791,0.018842,-4.9914,0.027216,0.048296,4.1073e-06,0.15,0.87,0
0.0075294,-0.0039871,0.057816,0.0043297,0.018644,-0.0041973,0,0,0.050924,-0.018608,0,-0.010913,0,0,0,0.058144,0.0040023,0.018644,-4.4598,0.02693,0.048507,4.1116e-06,0.16,0.87,0
0.0080391,-0.0041659,0.057696,0.0038369,0.01846,-0.003759,0,0,0.051007,-0.01901,0,-0.0097735,0,0,0,0.057957,0.0035759,0.01846,-3.9732,0.026664,0.048677,4.11e-06,0.17,0.87,0
0.0085495,-0.0043353,0.057564,0.0034012,0.01829,-0.0033527,0,0,0.051057,-0.019355,0,-0.0087171,0,0,0,0.057771,0.0031944,0.01829,-3.5287,0.026418,0.048812,4.1038e-06,0.18,0.87,0
0.0090602,-0.0044956,0.057425,0.0030158,0.018132,-0.0029778,0,0,0.051081,-0.019651,0,-0.0077424,0,0,0,0.057588,0.0028533,0.018132,-3.1234,0.026191,0.048919,4.0943e-06,0.19,0.87,0
0.0095711,-0.0046474,0.057283,0.0026747,0.017987,-0.0026332,0,0,0.051084,-0.019906,0,-0.0068464,0,0,0,0.05741,0.002548,0.017987,-2.7543,0.025982,0.049002,4.0822e-06,0.2,0.87,0
0.010082,-0.0047909,0.05714,0.0023726,0.017854,-0.0023174,0,0,0.051072,-0.020126,0,-0.0060253,0,0,0,0.057238,0.0022747,0.017854,-2.4186,0.025789,0.049065,4.0686e-06,0.21,0.87,0
0.010593,-0.0049266,0.056998,0.0021048,0.017731,-0.0020288,0,0,0.051048,-0.020314,0,-0.0052749,0,0,0,0.057073,0.00203,0.017731,-2.1137,0.025611,0.049113,4.0538e-06,0.22,0.87,0
0.011103,-0.0050548,0.05686,0.0018673,0.017618,-0.0017656,0,0,0.051014,-0.020476,0,-0.0045905,0,0,0,0.056917,0.0018107,0.017618,-1.837,0.025448,0.049147,4.0385e-06,0.23,0.87,0
0.011613,-0.005176,0.056726,0.0016565,0.017515,-0.001526,0,0,0.050975,-0.020616,0,-0.0039675,0,0,0,0.056768,0.0016142,0.017515,-1.586,0.025299,0.049171,4.0229e-06,0.24,0.87,0
0.012122,-0.0052905,0.056598,0.001469,0.01742,-0.0013082,0,0,0.050931,-0.020736,0,-0.0034014,0,0,0,0.056629,0.001438,0.01742,-1.3586,0.025162,0.049187,4.0075e-06,0.25,0.87,0
0.012632,-0.0053987,0.056476,0.0013023,0.017333,-0.0011106,0,0,0.050885,-0.02084,0,-0.0028877,0,0,0,0.056498,0.0012799,0.017333,-1.1527,0.025037,0.049197,3.9923e-06,0.26,0.87,0
0.01314,-0.0055009,0.05636,0.0011538,0.017254,-0.0009316,0,0,0.050838,-0.02093,0,-0.0024222,0,0,0,0.056376,0.0011381,0.017254,-0.96649,0.024923,0.049201,3.9776e-06,0.27,0.87,0
0.013648,-0.0055975,0.056251,0.0010215,0.017182,-0.00076954,0,0,0.05079,-0.021008,0,-0.0020008,0,0,0,0.056262,0.0010108,0.017182,-0.79812,0.024818,0.049201,3.9636e-06,0.28,0.87,0
0.014156,-0.0056887,0.056149,0.00090346,0.017116,-0.00062305,0,0,0.050743,-0.021076,0,-0.0016199,0,0,0,0.056156,0.00089644,0.017116,-0.64606,0.024723,0.049198,3.9502e-06,0.29,0.87,0
0.014663,-0.0057749,0.056054,0.00079809,0.017056,-0.00049079,0,0,0.050698,-0.021135,0,-0.001276,0,0,0,0.056059,0.00079374,0.017056,-0.50885,0.024636,0.049193,3.9376e-06,0.3,0.87,0
0.01517,-0.0058563,0.055966,0.00070396,0.017001,-0.00037152,0,0,0.050655,-0.021186,0,-0.00096596,0,0,0,0.055969,0.00070146,0.017001,-0.38517,0.024557,0.049186,3.9258e-06,0.31,0.87,0
0.015676,-0.0059332,0.055885,0.0006198,0.016951,-0.00026412,0,0,0.050613,-0.021231,0,-0.00068672,0,0,0,0.055886,0.00061853,0.016951,-0.27382,0.024485,0.049179,3.9148e-06,0.32,0.87,0
0.016182,-0.0060059,0.05581,0.0005445,0.016906,-0.00016754,0,0,0.050575,-0.02127,0,-0.00043561,0,0,0,0.05581,0.00054399,0.016906,-0.17369,0.02442,0.049171,3.9047e-06,0.33,0.87,0
0.016688,-0.0060745,0.055741,0.00047709,0.016865,-8.0825e-05,0,0,0.050539,-0.021305,0,-0.00021015,0,0,0,0.055741,0.00047697,0.016865,-0.083796,0.024361,0.049163,3.8953e-06,0.34,0.87,0
0.017193,-0.0061394,0.055679,0.00041672,0.016829,-3.1006e-06,0,0,0.050505,-0.021336,0,-8.0616e-06,0,0,0,0.055679,0.00041672,0.016829,-0.0032147,0.024308,0.049156,3.8868e-06,0.35,0.87,0
0.017698,-0.0062006,0.055622,0.0003626,0.016795,6.6431e-05,0,0,0.050474,-0.021363,0,0.00017272,0,0,0,0.055622,0.00036252,0.016795,0.068879,0.02426,0.049148,3.879e-06,0.36,0.87,0
0.018202,-0.0062585,0.055571,0.00031408,0.016765,0.0001285,0,0,0.050447,-0.021387,0,0.00033409,0,0,0,0.055571,0.00031378,0.016765,0.13324,0.024217,0.049142,3.872e-06,0.37,0.87,0
0.018707,-0.0063131,0.055524,0.00027055,0.016738,0.00018376,0,0,0.050422,-0.021408,0,0.00047778,0,0,0,0.055525,0.00026994,0.016738,0.19055,0.024178,0.049136,3.8657e-06,0.38,0.87,0
0.019211,-0.0063647,0.055483,0.00023149,0.016714,0.00023283,0,0,0.050399,-0.021428,0,0.00060536,0,0,0,0.055484,0.00023051,0.016714,0.24144,0.024143,0.049131,3.8601e-06,0.39,0.87,0
0.019715,-0.0064135,0.055446,0.00019641,0.016693,0.00027625,0,0,0.05038,-0.021445,0,0.00071825,0,0,0,0.055448,0.00019503,0.016693,0.28647,0.024112,0.049127,3.8552e-06,0.4,0.87,0
0.020218,-0.0064595,0.055414,0.00016491,0.016674,0.00031453,0,0,0.050362,-0.021461,0,0.00081777,0,0,0,0.055416,0.00016312,0.016674,0.32616,0.024084,0.049124,3.851e-06,0.41,0.87,0
0.020722,-0.006503,0.055386,0.00013661,0.016657,0.00034811,0,0,0.050348,-0.021476,0,0.00090509,0,0,0,0.055388,0.00013441,0.016657,0.36099,0.02406,0.049122,3.8473e-06,0.42,0.87,0
0.021225,-0.0065441,0.055361,0.00011117,0.016642,0.00037742,0,0,0.050335,-0.02149,0,0.00098129,0,0,0,0.055364,0.00010859,0.016642,0.39137,0.024038,0.049121,3.8442e-06,0.43,0.87,0
0.021729,-0.0065829,0.05534,8.8305e-05,0.016629,0.00040283,0,0,0.050325,-0.021502,0,0.0010474,0,0,0,0.055343,8.5368e-05,0.016629,0.41771,0.024019,0.049122,3.8416e-06,0.44,0.87,0
0.022232,-0.0066194,0.055322,6.7748e-05,0.016617,0.00042469,0,0,0.050317,-0.021514,0,0.0011042,0,0,0,0.055325,6.4484e-05,0.016617,0.44034,0.024002,0.049123,3.8395e-06,0.45,0.87,0
0.022735,-0.006654,0.055307,4.9263e-05,0.016607,0.00044331,0,0,0.050311,-0.021525,0,0.0011526,0,0,0,0.055311,4.5707e-05,0.016607,0.45961,0.023988,0.049125,3.8379e-06,0.46,0.87,0
0.023238,-0.0066866,0.055295,3.2639e-05,0.016598,0.00045897,0,0,0.050306,-0.021535,0,0.0011933,0,0,0,0.055299,2.8827e-05,0.016598,0.47581,0.023976,0.049128,3.8367e-06,0.47,0.87,0
0.023741,-0.0067173,0.055286,1.7688e-05,0.016591,0.00047193,0,0,0.050303,-0.021545,0,0.001227,0,0,0,0.05529,1.3659e-05,0.016591,0.4892,0.023965,0.049132,3.836e-06,0.48,0.87,0
0.024244,-0.0067463,0.055279,4.2434e-06,0.016585,0.00048244,0,0,0.050302,-0.021555,0,0.0012543,0,0,0,0.055283,3.3074e-08,0.016585,0.50002,0.023956,0.049137,3.8356e-06,0.49,0.87,0
0.024747,-0.0067737,0.055274,-7.8469e-06,0.01658,0.0004907,0,0,0.050303,-0.021564,0,0.0012758,0,0,0,0.055279,-1.2202e-05,0.01658,0.50852,0.023949,0.049142,3.8355e-06,0.5,0.87,0
0.02525,-0.0067995,0.055271,-1.8717e-05,0.016576,0.00049691,0,0,0.050304,-0.021573,0,0.001292,0,0,0,0.055276,-2.3183e-05,0.016576,0.51488,0.023943,0.049149,3.8357e-06,0.51,0.87,0
0.025753,-0.0068238,0.05527,-2.8488e-05,0.016573,0.00050125,0,0,0.050307,-0.021581,0,0.0013033,0,0,0,0.055275,-3.3031e-05,0.016573,0.5193,0.023938,0.049156,3.8363e-06,0.52,0.87,0
0.026256,-0.0068468,0.055271,-3.7268e-05,0.01657,0.00050389,0,0,0.050311,-0.02159,0,0.0013101,0,0,0,0.055276,-4.1858e-05,0.01657,0.52194,0.023935,0.049164,3.8371e-06,0.53,0.87,0
0.026759,-0.0068683,0.055273,-4.5153e-05,0.016568,0.00050498,0,0,0.050316,-0.021598,0,0.001313,0,0,0,0.055278,-4.9763e-05,0.016568,0.52297,0.023932,0.049172,3.8382e-06,0.54,0.87,0
0.027263,-0.0068887,0.055277,-5.2232e-05,0.016567,0.00050465,0,0,0.050322,-0.021605,0,0.0013121,0,0,0,0.055281,-5.6834e-05,0.016567,0.52253,0.023931,0.049181,3.8394e-06,0.55,0.87,0
0.027766,-0.0069079,0.055282,-5.8582e-05,0.016567,0.00050303,0,0,0.050329,-0.021613,0,0.0013079,0,0,0,0.055286,-6.3154e-05,0.016567,0.52074,0.02393,0.04919,3.8409e-06,0.56,0.87,0
0.028269,-0.0069259,0.055288,-6.4273e-05,0.016567,0.00050022,0,0,0.050337,-0.021621,0,0.0013006,0,0,0,0.055292,-6.8794e-05,0.016567,0.51773,0.02393,0.0492,3.8425e-06,0.57,0.87,0
0.028773,-0.0069429,0.055295,-6.937e-05,0.016568,0.00049635,0,0,0.050345,-0.021628,0,0.0012905,0,0,0,0.055299,-7.3819e-05,0.016568,0.51361,0.023931,0.04921,3.8443e-06,0.58,0.87,0
0.029276,-0.0069588,0.055302,-7.3928e-05,0.016568,0.00049149,0,0,0.050354,-0.021635,0,0.0012779,0,0,0,0.055307,-7.829e-05,0.016568,0.50848,0.023932,0.04922,3.8463e-06,0.59,0.87,0
0.02978,-0.0069738,0.055311,-7.7999e-05,0.01657,0.00048575,0,0,0.050363,-0.021642,0,0.001263,0,0,0,0.055315,-8.2259e-05,0.01657,0.50242,0.023934,0.049231,3.8483e-06,0.6,0.87,0
0.030283,-0.0069879,0.05532,-8.163e-05,0.016571,0.0004792,0,0,0.050373,-0.021649,0,0.0012459,0,0,0,0.055324,-8.5775e-05,0.016571,0.49553,0.023937,0.049242,3.8505e-06,0.61,0.87,0
0.030787,-0.0070012,0.05533,-8.4862e-05,0.016574,0.0004719,0,0,0.050383,-0.021656,0,0.001227,0,0,0,0.055334,-8.888e-05,0.016574,0.48787,0.023939,0.049253,3.8527e-06,0.62,0.87,0
0.031291,-0.0070136,0.05534,-8.7733e-05,0.016576,0.00046394,0,0,0.050394,-0.021663,0,0.0012063,0,0,0,0.055344,-9.1616e-05,0.016576,0.47953,0.023943,0.049264,3.855e-06,0.63,0.87,0
0.031795,-0.0070253,0.055351,-9.0277e-05,0.016578,0.00045537,0,0,0.050404,-0.021669,0,0.001184,0,0,0,0.055355,-9.4017e-05,0.016578,0.47056,0.023946,0.049275,3.8574e-06,0.64,0.87,0
0.032299,-0.0070363,0.055362,-9.2526e-05,0.016581,0.00044625,0,0,0.050415,-0.021675,0,0.0011603,0,0,0,0.055365,-9.6117e-05,0.016581,0.46103,0.02395,0.049287,3.8598e-06,0.65,0.87,0
0.032803,-0.0070466,0.055373,-9.4507e-05,0.016584,0.00043663,0,0,0.050426,-0.021681,0,0.0011352,0,0,0,0.055377,-9.7943e-05,0.016584,0.45099,0.023954,0.049298,3.8623e-06,0.66,0.87,0
0.033308,-0.0070562,0.055385,-9.6245e-05,0.016587,0.00042656,0,0,0.050437,-0.021687,0,0.0011091,0,0,0,0.055388,-9.9524e-05,0.016587,0.44048,0.023958,0.049309,3.8648e-06,0.67,0.87,0
0.033812,-0.0070653,0.055396,-9.7764e-05,0.01659,0.00041608,0,0,0.050449,-0.021693,0,0.0010818,0,0,0,0.055399,-0.00010088,0.01659,0.42956,0.023963,0.049321,3.8673e-06,0.68,0.87,0
0.034317,-0.0070737,0.055408,-9.9086e-05,0.016593,0.00040523,0,0,0.05046,-0.021699,0,0.0010536,0,0,0,0.055411,-0.00010204,0.016593,0.41826,0.023967,0.049332,3.8698e-06,0.69,0.87,0
0.034821,-0.0070816,0.055419,-0.00010023,0.016596,0.00039405,0,0,0.050471,-0.021705,0,0.0010245,0,0,0,0.055422,-0.00010302,0.016596,0.40663,0.023972,0.049343,3.8722e-06,0.7,0.87,0
0.035326,-0.007089,0.055431,-0.00010121,0.016599,0.00038258,0,0,0.050482,-0.02171,0,0.0009947,0,0,0,0.055434,-0.00010385,0.016599,0.3947,0.023976,0.049354,3.8747e-06,0.71,0.87,0
0.035831,-0.0070959,0.055443,-0.00010205,0.016602,0.00037083,0,0,0.050493,-0.021715,0,0.00096416,0,0,0,0.055445,-0.00010452,0.016602,0.3825,0.023981,0.049364,3.8771e-06,0.72,0.87,0
0.036336,-0.0071024,0.055454,-0.00010275,0.016605,0.00035885,0,0,0.050503,-0.021721,0,0.000933,0,0,0,0.055456,-0.00010507,0.016605,0.37006,0.023986,0.049375,3.8796e-06,0.73,0.87,0
0.036841,-0.0071084,0.055465,-0.00010334,0.016609,0.00034665,0,0,0.050514,-0.021725,0,0.00090129,0,0,0,0.055468,-0.00010551,0.016609,0.3574,0.02399,0.049385,3.8819e-06,0.74,0.87,0
0.037346,-0.007114,0.055476,-0.00010383,0.016612,0.00033426,0,0,0.050524,-0.02173,0,0.00086907,0,0,0,0.055479,-0.00010584,0.016612,0.34456,0.023995,0.049395,3.8843e-06,0.75,0.87,0
0.037852,-0.0071192,0.055487,-0.00010422,0.016615,0.0003217,0,0,0.050534,-0.021735,0,0.00083642,0,0,0,0.055489,-0.00010608,0.016615,0.33155,0.023999,0.049405,3.8865e-06,0.76,0.87,0
0.038357,-0.0071241,0.055498,-0.00010453,0.016618,0.00030899,0,0,0.050544,-0.021739,0,0.00080337,0,0,0,0.0555,-0.00010625,0.016618,0.31838,0.024004,0.049414,3.8887e-06,0.77,0.87,0
0.038862,-0.0071286,0.055508,-0.00010477,0.016621,0.00029615,0,0,0.050553,-0.021744,0,0.00076998,0,0,0,0.05551,-0.00010635,0.016621,0.3051,0.024008,0.049423,3.8909e-06,0.78,0.87,0
0.039368,-0.0071328,0.055518,-0.00010495,0.016624,0.00028319,0,0,0.050563,-0.021748,0,0.00073629,0,0,0,0.05552,-0.00010639,0.016624,0.29169,0.024012,0.049432,3.893e-06,0.79,0.87,0
0.039874,-0.0071367,0.055528,-0.00010506,0.016627,0.00027013,0,0,0.050571,-0.021752,0,0.00070232,0,0,0,0.055529,-0.00010638,0.016627,0.27819,0.024017,0.049441,3.895e-06,0.8,0.87,0
0.040379,-0.0071403,0.055537,-0.00010514,0.01663,0.00025697,0,0,0.05058,-0.021755,0,0.00066813,0,0,0,0.055539,-0.00010632,0.01663,0.2646,0.024021,0.049449,3.8969e-06,0.81,0.87,0
0.040885,-0.0071436,0.055546,-0.00010516,0.016632,0.00024374,0,0,0.050588,-0.021759,0,0.00063373,0,0,0,0.055547,-0.00010623,0.016632,0.25094,0.024025,0.049457,3.8988e-06,0.82,0.87,0
0.041391,-0.0071467,0.055555,-0.00010516,0.016635,0.00023045,0,0,0.050596,-0.021762,0,0.00059916,0,0,0,0.055556,-0.00010611,0.016635,0.23721,0.024028,0.049464,3.9006e-06,0.83,0.87,0
0.041897,-0.0071495,0.055563,-0.00010513,0.016637,0.00021709,0,0,0.050604,-0.021765,0,0.00056444,0,0,0,0.055564,-0.00010597,0.016637,0.22343,0.024032,0.049471,3.9022e-06,0.84,0.87,0
0.042403,-0.0071521,0.055571,-0.00010507,0.01664,0.00020369,0,0,0.050611,-0.021768,0,0.00052959,0,0,0,0.055572,-0.00010581,0.01664,0.20961,0.024035,0.049478,3.9038e-06,0.85,0.87,0
0.042909,-0.0071544,0.055578,-0.00010499,0.016642,0.00019024,0,0,0.050617,-0.021771,0,0.00049462,0,0,0,0.055579,-0.00010564,0.016642,0.19575,0.024038,0.049484,3.9053e-06,0.86,0.87,0
0.043416,-0.0071566,0.055585,-0.0001049,0.016644,0.00017676,0,0,0.050623,-0.021774,0,0.00045957,0,0,0,0.055586,-0.00010547,0.016644,0.18185,0.024041,0.04949,3.9068e-06,0.87,0.87,0
0.043922,-0.0071585,0.055591,-0.00010481,0.016646,0.00016324,0,0,0.050629,-0.021776,0,0.00042443,0,0,0,0.055592,-0.00010529,0.016646,0.16793,0.024044,0.049495,3.9081e-06,0.88,0.87,0
0.044428,-0.0071603,0.055597,-0.0001047,0.016648,0.0001497,0,0,0.050634,-0.021778,0,0.00038923,0,0,0,0.055598,-0.00010511,0.016648,0.15399,0.024047,0.0495,3.9093e-06,0.89,0.87,0
0.044935,-0.0071619,0.055603,-0.0001046,0.016649,0.00013615,0,0,0.050639,-0.02178,0,0.00035398,0,0,0,0.055603,-0.00010493,0.016649,0.14003,0.024049,0.049505,3.9104e-06,0.9,0.87,0
0.045441,-0.0071633,0.055608,-0.00010449,0.016651,0.00012257,0,0,0.050644,-0.021782,0,0.00031868,0,0,0,0.055608,-0.00010476,0.016651,0.12605,0.024051,0.049509,3.9114e-06,0.91,0.87,0
0.045947,-0.0071645,0.055612,-0.00010439,0.016652,0.00010898,0,0,0.050648,-0.021784,0,0.00028334,0,0,0,0.055612,-0.0001046,0.016652,0.11207,0.024053,0.049513,3.9123e-06,0.92,0.87,0
0.046454,-0.0071656,0.055616,-0.0001043,0.016654,9.5375e-05,0,0,0.050651,-0.021785,0,0.00024797,0,0,0,0.055616,-0.00010446,0.016654,0.098071,0.024055,0.049516,3.9131e-06,0.93,0.87,0
0.04696,-0.0071665,0.055619,-0.00010421,0.016655,8.1764e-05,0,0,0.050654,-0.021786,0,0.00021259,0,0,0,0.05562,-0.00010433,0.016655,0.084071,0.024057,0.049519,3.9138e-06,0.94,0.87,0
0.047467,-0.0071673,0.055622,-0.00010413,0.016656,6.8146e-05,0,0,0.050657,-0.021788,0,0.00017718,0,0,0,0.055622,-0.00010422,0.016656,0.070065,0.024058,0.049522,3.9144e-06,0.95,0.87,0
0.047974,-0.007168,0.055625,-0.00010407,0.016656,5.4523e-05,0,0,0.050659,-0.021788,0,0.00014176,0,0,0,0.055625,-0.00010412,0.016656,0.056056,0.024059,0.049524,3.9149e-06,0.96,0.87,0
0.04848,-0.0071684,0.055627,-0.00010402,0.016657,4.0895e-05,0,0,0.050661,-0.021789,0,0.00010633,0,0,0,0.055627,-0.00010405,0.016657,0.042044,0.02406,0.049525,3.9153e-06,0.97,0.87,0
0.048987,-0.0071688,0.055628,-0.00010398,0.016657,2.7265e-05,0,0,0.050662,-0.021789,0,7.0889e-05,0,0,0,0.055628,-0.00010399,0.016657,0.02803,0.02406,0.049526,3.9156e-06,0.98,0.87,0
0.049493,-0.007169,0.055629,-0.00010396,0.016657,1.3633e-05,0,0,0.050663,-0.02179,0,3.5446e-05,0,0,0,0.055629,-0.00010396,0.016657,0.014015,0.024061,0.049527,3.9157e-06,0.99,0.87,0
0.05,-0.0071691,0.055629,-0.00010395,0.016657,-2.6479e-06,0,0,0.050663,-0.02179,0,-6.8845e-06,0,0,0,0.055629,-0.00010395,0.016657,-0.0027221,0.024061,0.049527,3.9158e-06,1,0.87,0
0,0,0.054943,0.023547,0.023547,-0.010979,0,0,0.040815,-3.2526e-19,0,-0.028544,0,0,0,0.058402,0.020089,0.023547,-17.484,0.034013,0.036706,2.4641e-06,0,0.88,0
0.00040815,-0.00028544,0.054802,0.021742,0.022963,-0.01096,0,0,0.04139,-0.0015871,0,-0.028497,0,0,0,0.058105,0.018439,0.022963,-16.773,0.033169,0.037609,2.5993e-06,0.01,0.88,0
0.0008278,-0.00057715,0.055398,0.020139,0.022661,-0.01099,0,0,0.042558,-0.003279,0,-0.028573,0,0,0,0.058543,0.016994,0.022661,-15.969,0.032732,0.039025,2.8367e-06,0.02,0.88,0
0.0012593,-0.00087288,0.055982,0.018467,0.022335,-0.010895,0,0,0.043741,-0.0050277,0,-0.028327,0,0,0,0.058917,0.015533,0.022335,-15.075,0.032261,0.040414,3.069e-06,0.03,0.88,0
0.0017026,-0.0011701,0.056531,0.016778,0.021993,-0.010671,0,0,0.0449,-0.0067795,0,-0.027744,0,0,0,0.059215,0.014095,0.021993,-14.115,0.031767,0.041735,3.2875e-06,0.04,0.88,0
0.0021573,-0.0014661,0.057025,0.015118,0.021643,-0.010324,0,0,0.045997,-0.0084824,0,-0.026843,0,0,0,0.05943,0.012712,0.021643,-13.115,0.031262,0.042954,3.4848e-06,0.05,0.88,0
0.0026226,-0.0017584,0.057446,0.013528,0.021292,-0.0098718,0,0,0.047,-0.010093,0,-0.025667,0,0,0,0.059563,0.011411,0.021292,-12.103,0.030755,0.04405,3.6564e-06,0.06,0.88,0
0.0030973,-0.0020449,0.057785,0.012039,0.020947,-0.0093365,0,0,0.047889,-0.011581,0,-0.024275,0,0,0,0.059617,0.010206,0.020947,-11.102,0.030257,0.045012,3.7999e-06,0.07,0.88,0
0.0035803,-0.0023236,0.058038,0.010668,0.020612,-0.0087432,0,0,0.048654,-0.012927,0,-0.022732,0,0,0,0.0596,0.0091056,0.020612,-10.131,0.029773,0.045838,3.9155e-06,0.08,0.88,0
0.0040704,-0.0025931,0.058208,0.0094246,0.02029,-0.008116,0,0,0.049294,-0.014125,0,-0.021102,0,0,0,0.059523,0.0081098,0.02029,-9.202,0.029308,0.046535,4.0048e-06,0.09,0.88,0
0.0045662,-0.0028524,0.058303,0.0083093,0.019984,-0.0074759,0,0,0.049815,-0.015177,0,-0.019437,0,0,0,0.059397,0.0072153,0.019984,-8.3253,0.028865,0.047113,4.0706e-06,0.1,0.88,0
0.0050667,-0.0031009,0.058331,0.0073172,0.019695,-0.0068401,0,0,0.050228,-0.01609,0,-0.017784,0,0,0,0.059232,0.006416,0.019695,-7.5058,0.028448,0.047587,4.1162e-06,0.11,0.88,0
0.0055708,-0.0033382,0.058303,0.0064398,0.019423,-0.0062214,0,0,0.050544,-0.016878,0,-0.016176,0,0,0,0.059039,0.005704,0.019423,-6.7456,0.028055,0.04797,4.1451e-06,0.12,0.88,0
0.0060776,-0.0035642,0.058231,0.0056671,0.019169,-0.0056292,0,0,0.05078,-0.017553,0,-0.014636,0,0,0,0.058827,0.005071,0.019169,-6.0446,0.027689,0.048276,4.1603e-06,0.13,0.88,0
0.0065864,-0.0037788,0.058123,0.0049882,0.018933,-0.0050694,0,0,0.050947,-0.018129,0,-0.01318,0,0,0,0.058603,0.0045089,0.018933,-5.4014,0.027348,0.048517,4.1649e-06,0.14,0.88,0
0.0070965,-0.0039825,0.05799,0.0043926,0.018715,-0.0045455,0,0,0.051058,-0.018619,0,-0.011818,0,0,0,0.058373,0.0040098,0.018715,-4.8133,0.027032,0.048705,4.1612e-06,0.15,0.88,0
0.0076075,-0.0041754,0.057838,0.0038704,0.018513,-0.0040589,0,0,0.051123,-0.019035,0,-0.010553,0,0,0,0.058142,0.0035668,0.018513,-4.2771,0.026741,0.048848,4.1513e-06,0.16,0.88,0
0.008119,-0.0043579,0.057675,0.0034124,0.018326,-0.0036099,0,0,0.051154,-0.019388,0,-0.0093857,0,0,0,0.057914,0.0031734,0.018326,-3.7894,0.026471,0.048956,4.1371e-06,0.17,0.88,0
0.0086306,-0.0045305,0.057506,0.0030106,0.018155,-0.0031974,0,0,0.051156,-0.019688,0,-0.0083133,0,0,0,0.057693,0.0028236,0.018155,-3.3465,0.026224,0.049035,4.1197e-06,0.18,0.88,0
0.0091421,-0.0046936,0.057334,0.0026577,0.017997,-0.0028201,0,0,0.051137,-0.019942,0,-0.0073323,0,0,0,0.057479,0.0025126,0.017997,-2.9448,0.025996,0.049091,4.1004e-06,0.19,0.88,0
0.0096533,-0.0048477,0.057163,0.0023474,0.017853,-0.002476,0,0,0.051103,-0.020157,0,-0.0064377,0,0,0,0.057274,0.0022358,0.017853,-2.5811,0.025788,0.049128,4.0799e-06,0.2,0.88,0
0.010164,-0.0049933,0.056996,0.0020742,0.017721,-0.002163,0,0,0.051057,-0.020341,0,-0.0056239,0,0,0,0.057081,0.0019891,0.017721,-2.2519,0.025597,0.049152,4.0589e-06,0.21,0.88,0
0.010674,-0.0051307,0.056834,0.0018334,0.0176,-0.0018789,0,0,0.051004,-0.020497,0,-0.0048852,0,0,0,0.056898,0.0017692,0.0176,-1.9543,0.025422,0.049163,4.0379e-06,0.22,0.88,0
0.011184,-0.0052604,0.056678,0.0016208,0.01749,-0.0016214,0,0,0.050945,-0.02063,0,-0.0042157,0,0,0,0.056726,0.0015731,0.01749,-1.6854,0.025263,0.049167,4.0172e-06,0.23,0.88,0
0.011693,-0.0053828,0.056531,0.0014328,0.017389,-0.0013885,0,0,0.050884,-0.020743,0,-0.0036101,0,0,0,0.056566,0.0013979,0.017389,-1.4426,0.025118,0.049163,3.9972e-06,0.24,0.88,0
0.012202,-0.0054985,0.056391,0.0012665,0.017297,-0.001178,0,0,0.050822,-0.02084,0,-0.0030627,0,0,0,0.056417,0.0012414,0.017297,-1.2236,0.024985,0.049155,3.978e-06,0.25,0.88,0
0.01271,-0.0056076,0.05626,0.0011191,0.017214,-0.00098799,0,0,0.050761,-0.020923,0,-0.0025688,0,0,0,0.056278,0.0011014,0.017214,-1.0262,0.024865,0.049143,3.9598e-06,0.26,0.88,0
0.013217,-0.0057106,0.056138,0.00098832,0.017138,-0.00081671,0,0,0.0507,-0.020995,0,-0.0021235,0,0,0,0.05615,0.00097623,0.017138,-0.84824,0.024755,0.049129,3.9427e-06,0.27,0.88,0
0.013724,-0.0058079,0.056025,0.00087214,0.017069,-0.00066247,0,0,0.050643,-0.021056,0,-0.0017224,0,0,0,0.056033,0.00086419,0.017069,-0.68808,0.024655,0.049114,3.9266e-06,0.28,0.88,0
0.01423,-0.0058997,0.05592,0.00076884,0.017007,-0.00052371,0,0,0.050587,-0.021109,0,-0.0013616,0,0,0,0.055925,0.00076386,0.017007,-0.54401,0.024565,0.049098,3.9117e-06,0.29,0.88,0
0.014736,-0.0059864,0.055823,0.00067688,0.01695,-0.00039902,0,0,0.050535,-0.021155,0,-0.0010375,0,0,0,0.055826,0.000674,0.01695,-0.41454,0.024483,0.049082,3.8979e-06,0.3,0.88,0
0.015241,-0.0060683,0.055735,0.00059496,0.016899,-0.00028711,0,0,0.050487,-0.021195,0,-0.0007465,0,0,0,0.055736,0.00059347,0.016899,-0.29833,0.02441,0.049066,3.8853e-06,0.31,0.88,0
0.015745,-0.0061456,0.055654,0.00052192,0.016853,-0.00018681,0,0,0.050442,-0.02123,0,-0.0004857,0,0,0,0.055655,0.00052128,0.016853,-0.19414,0.024343,0.049051,3.8737e-06,0.32,0.88,0
0.01625,-0.0062186,0.05558,0.00045673,0.016811,-9.7025e-05,0,0,0.0504,-0.021261,0,-0.00025227,0,0,0,0.055581,0.00045656,0.016811,-0.10085,0.024283,0.049037,3.8632e-06,0.33,0.88,0
0.016753,-0.0062875,0.055514,0.00039853,0.016774,-1.6795e-05,0,0,0.050362,-0.021288,0,-4.3666e-05,0,0,0,0.055514,0.00039852,0.016774,-0.017459,0.024229,0.049024,3.8537e-06,0.34,0.88,0
0.017257,-0.0063526,0.055454,0.00034652,0.01674,5.4771e-05,0,0,0.050328,-0.021312,0,0.0001424,0,0,0,0.055454,0.00034646,0.01674,0.056945,0.02418,0.049012,3.8452e-06,0.35,0.88,0
0.01776,-0.0064141,0.055401,0.00030001,0.01671,0.00011847,0,0,0.050298,-0.021333,0,0.00030803,0,0,0,0.055401,0.00029976,0.01671,0.12319,0.024137,0.049002,3.8376e-06,0.36,0.88,0
0.018263,-0.0064722,0.055353,0.00025841,0.016683,0.00017504,0,0,0.05027,-0.021352,0,0.00045512,0,0,0,0.055353,0.00025786,0.016683,0.18204,0.024098,0.048993,3.8309e-06,0.37,0.88,0
0.018765,-0.006527,0.055311,0.00022118,0.01666,0.00022514,0,0,0.050246,-0.02137,0,0.00058537,0,0,0,0.055312,0.00022026,0.01666,0.23415,0.024064,0.048986,3.825e-06,0.38,0.88,0
0.019268,-0.0065788,0.055274,0.00018784,0.016639,0.00026936,0,0,0.050226,-0.021386,0,0.00070034,0,0,0,0.055275,0.00018652,0.016639,0.28016,0.024033,0.048981,3.8199e-06,0.39,0.88,0
0.01977,-0.0066277,0.055241,0.00015797,0.01662,0.00030825,0,0,0.050208,-0.0214,0,0.00080144,0,0,0,0.055243,0.00015625,0.01662,0.32061,0.024006,0.048976,3.8156e-06,0.4,0.88,0
0.020272,-0.0066739,0.055214,0.00013121,0.016604,0.00034229,0,0,0.050193,-0.021414,0,0.00088995,0,0,0,0.055216,0.00012908,0.016604,0.35603,0.023983,0.048974,3.8119e-06,0.41,0.88,0
0.020774,-0.0067176,0.05519,0.00010722,0.016589,0.00037193,0,0,0.050181,-0.021427,0,0.00096703,0,0,0,0.055193,0.00010471,0.016589,0.38685,0.023962,0.048973,3.809e-06,0.42,0.88,0
0.021275,-0.0067587,0.05517,8.5709e-05,0.016577,0.00039758,0,0,0.050172,-0.021438,0,0.0010337,0,0,0,0.055173,8.284e-05,0.016577,0.41351,0.023944,0.048973,3.8066e-06,0.43,0.88,0
0.021777,-0.0067976,0.055154,6.642e-05,0.016566,0.0004196,0,0,0.050164,-0.02145,0,0.001091,0,0,0,0.055157,6.3224e-05,0.016566,0.43639,0.023929,0.048974,3.8047e-06,0.44,0.88,0
0.022279,-0.0068343,0.055141,4.9118e-05,0.016557,0.00043832,0,0,0.050159,-0.02146,0,0.0011396,0,0,0,0.055145,4.5631e-05,0.016557,0.45581,0.023916,0.048977,3.8034e-06,0.45,0.88,0
0.02278,-0.006869,0.055131,3.3597e-05,0.01655,0.00045404,0,0,0.050156,-0.021471,0,0.0011805,0,0,0,0.055135,2.9856e-05,0.01655,0.47211,0.023905,0.048981,3.8026e-06,0.46,0.88,0
0.023282,-0.0069017,0.055124,1.9674e-05,0.016543,0.00046703,0,0,0.050155,-0.021481,0,0.0012143,0,0,0,0.055128,1.5716e-05,0.016543,0.48555,0.023896,0.048987,3.8022e-06,0.47,0.88,0
0.023783,-0.0069325,0.05512,7.1837e-06,0.016538,0.00047754,0,0,0.050156,-0.02149,0,0.0012416,0,0,0,0.055124,3.0461e-06,0.016538,0.49641,0.023888,0.048993,3.8023e-06,0.48,0.88,0
0.024285,-0.0069616,0.055118,-4.0201e-06,0.016534,0.0004858,0,0,0.050159,-0.0215,0,0.0012631,0,0,0,0.055122,-8.3013e-06,0.016534,0.50491,0.023883,0.049,3.8027e-06,0.49,0.88,0
0.024787,-0.0069891,0.055117,-1.4068e-05,0.016531,0.00049201,0,0,0.050162,-0.021509,0,0.0012792,0,0,0,0.055122,-1.8459e-05,0.016531,0.51127,0.023878,0.049008,3.8034e-06,0.5,0.88,0
0.025288,-0.007015,0.055119,-2.3078e-05,0.016529,0.00049636,0,0,0.050168,-0.021517,0,0.0012905,0,0,0,0.055124,-2.7545e-05,0.016529,0.51568,0.023875,0.049017,3.8045e-06,0.51,0.88,0
0.02579,-0.0070394,0.055123,-3.1153e-05,0.016528,0.000499,0,0,0.050174,-0.021526,0,0.0012974,0,0,0,0.055127,-3.5668e-05,0.016528,0.51833,0.023873,0.049027,3.8059e-06,0.52,0.88,0
0.026292,-0.0070624,0.055128,-3.8389e-05,0.016527,0.00050011,0,0,0.050181,-0.021535,0,0.0013003,0,0,0,0.055133,-4.2922e-05,0.016527,0.51936,0.023872,0.049037,3.8074e-06,0.53,0.88,0
0.026794,-0.0070841,0.055135,-4.4868e-05,0.016527,0.00049981,0,0,0.05019,-0.021543,0,0.0012995,0,0,0,0.055139,-4.9395e-05,0.016527,0.51893,0.023872,0.049048,3.8093e-06,0.54,0.88,0
0.027296,-0.0071045,0.055142,-5.0665e-05,0.016528,0.00049824,0,0,0.050199,-0.021552,0,0.0012954,0,0,0,0.055147,-5.5162e-05,0.016528,0.51717,0.023873,0.04906,3.8113e-06,0.55,0.88,0
0.027797,-0.0071237,0.055151,-5.5848e-05,0.016529,0.00049551,0,0,0.050209,-0.02156,0,0.0012883,0,0,0,0.055156,-6.0295e-05,0.016529,0.5142,0.023875,0.049072,3.8136e-06,0.56,0.88,0
0.0283,-0.0071418,0.055161,-6.0478e-05,0.01653,0.00049173,0,0,0.05022,-0.021568,0,0.0012785,0,0,0,0.055166,-6.4856e-05,0.01653,0.51014,0.023877,0.049084,3.8159e-06,0.57,0.88,0
0.028802,-0.0071589,0.055172,-6.4608e-05,0.016532,0.00048699,0,0,0.050232,-0.021576,0,0.0012662,0,0,0,0.055176,-6.8901e-05,0.016532,0.50509,0.02388,0.049097,3.8185e-06,0.58,0.88,0
0.029304,-0.0071749,0.055184,-6.8288e-05,0.016535,0.00048138,0,0,0.050244,-0.021584,0,0.0012516,0,0,0,0.055188,-7.2481e-05,0.016535,0.49913,0.023883,0.04911,3.8211e-06,0.59,0.88,0
0.029807,-0.00719,0.055196,-7.1561e-05,0.016537,0.00047498,0,0,0.050256,-0.021591,0,0.001235,0,0,0,0.0552,-7.5642e-05,0.016537,0.49236,0.023887,0.049123,3.8239e-06,0.6,0.88,0
0.030309,-0.0072042,0.055209,-7.4466e-05,0.01654,0.00046787,0,0,0.050269,-0.021599,0,0.0012165,0,0,0,0.055213,-7.8426e-05,0.01654,0.48486,0.023891,0.049137,3.8267e-06,0.61,0.88,0
0.030812,-0.0072175,0.055222,-7.704e-05,0.016543,0.00046011,0,0,0.050282,-0.021607,0,0.0011963,0,0,0,0.055226,-8.0868e-05,0.016543,0.47668,0.023896,0.04915,3.8296e-06,0.62,0.88,0
0.031315,-0.00723,0.055236,-7.9314e-05,0.016547,0.00045177,0,0,0.050295,-0.021614,0,0.0011746,0,0,0,0.055239,-8.3003e-05,0.016547,0.4679,0.023901,0.049164,3.8326e-06,0.63,0.88,0
0.031818,-0.0072418,0.055249,-8.1318e-05,0.01655,0.00044289,0,0,0.050309,-0.021621,0,0.0011515,0,0,0,0.055253,-8.4862e-05,0.01655,0.45858,0.023906,0.049178,3.8356e-06,0.64,0.88,0
0.032321,-0.0072528,0.055264,-8.3077e-05,0.016554,0.00043353,0,0,0.050322,-0.021628,0,0.0011272,0,0,0,0.055267,-8.6473e-05,0.016554,0.44877,0.023912,0.049191,3.8386e-06,0.65,0.88,0
0.032825,-0.0072632,0.055278,-8.4615e-05,0.016558,0.00042375,0,0,0.050336,-0.021635,0,0.0011018,0,0,0,0.055281,-8.7859e-05,0.016558,0.43851,0.023917,0.049205,3.8416e-06,0.66,0.88,0
0.033328,-0.0072729,0.055292,-8.5955e-05,0.016562,0.00041357,0,0,0.050349,-0.021642,0,0.0010753,0,0,0,0.055295,-8.9043e-05,0.016562,0.42786,0.023923,0.049219,3.8447e-06,0.67,0.88,0
0.033832,-0.007282,0.055307,-8.7115e-05,0.016566,0.00040305,0,0,0.050363,-0.021649,0,0.0010479,0,0,0,0.05531,-9.0047e-05,0.016566,0.41686,0.023928,0.049232,3.8477e-06,0.68,0.88,0
0.034335,-0.0072905,0.055321,-8.8113e-05,0.01657,0.00039221,0,0,0.050376,-0.021655,0,0.0010197,0,0,0,0.055324,-9.0889e-05,0.01657,0.40553,0.023934,0.049245,3.8508e-06,0.69,0.88,0
0.034839,-0.0072984,0.055335,-8.8965e-05,0.016574,0.00038108,0,0,0.05039,-0.021662,0,0.00099082,0,0,0,0.055338,-9.1585e-05,0.016574,0.39393,0.02394,0.049259,3.8538e-06,0.7,0.88,0
0.035343,-0.0073059,0.055349,-8.9687e-05,0.016578,0.00036971,0,0,0.050403,-0.021668,0,0.00096125,0,0,0,0.055352,-9.2152e-05,0.016578,0.38207,0.023946,0.049272,3.8567e-06,0.71,0.88,0
0.035847,-0.0073129,0.055363,-9.0291e-05,0.016582,0.00035811,0,0,0.050416,-0.021674,0,0.00093109,0,0,0,0.055366,-9.2604e-05,0.016582,0.36999,0.023952,0.049284,3.8597e-06,0.72,0.88,0
0.036351,-0.0073194,0.055377,-9.079e-05,0.016586,0.00034631,0,0,0.050429,-0.02168,0,0.00090042,0,0,0,0.055379,-9.2952e-05,0.016586,0.35771,0.023957,0.049297,3.8625e-06,0.73,0.88,0
0.036856,-0.0073254,0.055391,-9.1196e-05,0.01659,0.00033434,0,0,0.050441,-0.021685,0,0.00086928,0,0,0,0.055393,-9.321e-05,0.01659,0.34525,0.023963,0.049309,3.8653e-06,0.74,0.88,0
0.03736,-0.0073311,0.055404,-9.1518e-05,0.016594,0.0003222,0,0,0.050453,-0.021691,0,0.00083773,0,0,0,0.055406,-9.3388e-05,0.016594,0.33264,0.023969,0.04932,3.8681e-06,0.75,0.88,0
0.037865,-0.0073364,0.055417,-9.1766e-05,0.016598,0.00030993,0,0,0.050465,-0.021696,0,0.00080583,0,0,0,0.055419,-9.3496e-05,0.016598,0.3199,0.023974,0.049332,3.8708e-06,0.76,0.88,0
0.03837,-0.0073413,0.055429,-9.1949e-05,0.016601,0.00029754,0,0,0.050477,-0.021701,0,0.00077361,0,0,0,0.055431,-9.3543e-05,0.016601,0.30704,0.02398,0.049343,3.8734e-06,0.77,0.88,0
0.038874,-0.0073459,0.055441,-9.2075e-05,0.016605,0.00028504,0,0,0.050488,-0.021706,0,0.00074111,0,0,0,0.055443,-9.3538e-05,0.016605,0.29408,0.023985,0.049354,3.8759e-06,0.78,0.88,0
0.039379,-0.0073501,0.055453,-9.2151e-05,0.016608,0.00027245,0,0,0.050498,-0.021711,0,0.00070837,0,0,0,0.055455,-9.3487e-05,0.016608,0.28103,0.02399,0.049364,3.8783e-06,0.79,0.88,0
0.039884,-0.007354,0.055465,-9.2184e-05,0.016612,0.00025978,0,0,0.050509,-0.021715,0,0.00067542,0,0,0,0.055466,-9.3399e-05,0.016612,0.2679,0.023995,0.049374,3.8807e-06,0.8,0.88,0
0.040389,-0.0073577,0.055476,-9.2181e-05,0.016615,0.00024704,0,0,0.050519,-0.021719,0,0.0006423,0,0,0,0.055477,-9.3279e-05,0.016615,0.25471,0.023999,0.049383,3.8829e-06,0.81,0.88,0
0.040895,-0.007361,0.055486,-9.2147e-05,0.016618,0.00023424,0,0,0.050528,-0.021723,0,0.00060902,0,0,0,0.055487,-9.3134e-05,0.016618,0.24147,0.024004,0.049392,3.8851e-06,0.82,0.88,0
0.0414,-0.0073641,0.055496,-9.2087e-05,0.016621,0.00022139,0,0,0.050537,-0.021727,0,0.0005756,0,0,0,0.055497,-9.2969e-05,0.016621,0.22818,0.024008,0.049401,3.8871e-06,0.83,0.88,0
0.041905,-0.007367,0.055505,-9.2007e-05,0.016624,0.00020849,0,0,0.050546,-0.021731,0,0.00054208,0,0,0,0.055506,-9.2789e-05,0.016624,0.21486,0.024012,0.049409,3.8891e-06,0.84,0.88,0
0.042411,-0.0073696,0.055514,-9.191e-05,0.016627,0.00019557,0,0,0.050554,-0.021734,0,0.00050847,0,0,0,0.055515,-9.2598e-05,0.016627,0.2015,0.024016,0.049417,3.891e-06,0.85,0.88,0
0.042917,-0.007372,0.055523,-9.1802e-05,0.016629,0.00018261,0,0,0.050562,-0.021737,0,0.00047478,0,0,0,0.055524,-9.2402e-05,0.016629,0.18812,0.02402,0.049424,3.8927e-06,0.86,0.88,0
0.043422,-0.0073742,0.055531,-9.1686e-05,0.016632,0.00016962,0,0,0.050569,-0.02174,0,0.00044102,0,0,0,0.055531,-9.2203e-05,0.016632,0.17473,0.024024,0.049431,3.8943e-06,0.87,0.88,0
0.043928,-0.0073761,0.055538,-9.1565e-05,0.016634,0.00015662,0,0,0.050575,-0.021743,0,0.00040722,0,0,0,0.055539,-9.2006e-05,0.016634,0.16131,0.024027,0.049437,3.8958e-06,0.88,0.88,0
0.044434,-0.0073779,0.055545,-9.1442e-05,0.016636,0.0001436,0,0,0.050582,-0.021746,0,0.00037337,0,0,0,0.055545,-9.1813e-05,0.016636,0.14789,0.02403,0.049443,3.8972e-06,0.89,0.88,0
0.04494,-0.0073795,0.055551,-9.1321e-05,0.016638,0.00013057,0,0,0.050587,-0.021748,0,0.00033949,0,0,0,0.055551,-9.1628e-05,0.016638,0.13445,0.024033,0.049448,3.8985e-06,0.9,0.88,0
0.045445,-0.0073809,0.055557,-9.1204e-05,0.01664,0.00011754,0,0,0.050592,-0.02175,0,0.00030559,0,0,0,0.055557,-9.1452e-05,0.01664,0.12101,0.024035,0.049453,3.8997e-06,0.91,0.88,0
0.045951,-0.0073822,0.055562,-9.1093e-05,0.016641,0.00010449,0,0,0.050597,-0.021752,0,0.00027167,0,0,0,0.055562,-9.1289e-05,0.016641,0.10757,0.024037,0.049458,3.9007e-06,0.92,0.88,0
0.046457,-0.0073833,0.055566,-9.0991e-05,0.016643,9.1434e-05,0,0,0.050601,-0.021754,0,0.00023773,0,0,0,0.055567,-9.1141e-05,0.016643,0.094126,0.024039,0.049461,3.9017e-06,0.93,0.88,0
0.046963,-0.0073843,0.05557,-9.0898e-05,0.016644,7.8378e-05,0,0,0.050604,-0.021755,0,0.00020378,0,0,0,0.05557,-9.1009e-05,0.016644,0.080679,0.024041,0.049465,3.9025e-06,0.94,0.88,0
0.047469,-0.007385,0.055574,-9.0818e-05,0.016645,6.5318e-05,0,0,0.050607,-0.021756,0,0.00016983,0,0,0,0.055574,-9.0894e-05,0.016645,0.067232,0.024043,0.049468,3.9032e-06,0.95,0.88,0
0.047975,-0.0073857,0.055576,-9.075e-05,0.016646,5.2256e-05,0,0,0.05061,-0.021757,0,0.00013586,0,0,0,0.055576,-9.0799e-05,0.016646,0.053785,0.024044,0.04947,3.9037e-06,0.96,0.88,0
0.048482,-0.0073862,0.055579,-9.0696e-05,0.016646,3.9193e-05,0,0,0.050612,-0.021758,0,0.0001019,0,0,0,0.055579,-9.0724e-05,0.016646,0.040338,0.024045,0.049472,3.9041e-06,0.97,0.88,0
0.048988,-0.0073865,0.05558,-9.0657e-05,0.016647,2.6129e-05,0,0,0.050613,-0.021759,0,6.7935e-05,0,0,0,0.05558,-9.0669e-05,0.016647,0.026892,0.024045,0.049473,3.9045e-06,0.98,0.88,0
0.049494,-0.0073867,0.055581,-9.0633e-05,0.016647,1.3065e-05,0,0,0.050614,-0.021759,0,3.3968e-05,0,0,0,0.055581,-9.0636e-05,0.016647,0.013446,0.024046,0.049474,3.9046e-06,0.99,0.88,0
0.05,-0.0073868,0.055581,-9.0626e-05,0.016647,-2.6877e-06,0,0,0.050614,-0.021759,0,-6.988e-06,0,0,0,0.055581,-9.0626e-05,0.016647,-0.0027661,0.024046,0.049474,3.9047e-06,1,0.88,0
0,0,0.055472,0.023773,0.023773,-0.011608,0,0,0.041207,-4.3368e-19,0,-0.030182,0,0,0,0.059268,0.019977,0.023773,-18.11,0.03434,0.037537,2.623e-06,0,0.89,0
0.00041207,-0.00030182,0.055322,0.021842,0.023149,-0.011585,0,0,0.041824,-0.0016994,0,-0.030121,0,0,0,0.058939,0.018224,0.023149,-17.343,0.033437,0.03849,2.7677e-06,0.01,0.89,0
0.00083649,-0.00061107,0.055954,0.020101,0.022817,-0.011615,0,0,0.043079,-0.00353,0,-0.030198,0,0,0,0.059388,0.016668,0.022817,-16.47,0.032958,0.040002,3.0273e-06,0.02,0.89,0
0.0012737,-0.00092495,0.05657,0.018281,0.022455,-0.011491,0,0,0.044349,-0.0054269,0,-0.029877,0,0,0,0.059754,0.015097,0.022455,-15.487,0.032435,0.041471,3.2777e-06,0.03,0.89,0
0.0017235,-0.0012403,0.057138,0.016446,0.022075,-0.01121,0,0,0.045582,-0.0073182,0,-0.029147,0,0,0,0.060022,0.013562,0.022075,-14.427,0.031886,0.042843,3.5073e-06,0.04,0.89,0
0.0021853,-0.0015539,0.057633,0.014659,0.021688,-0.010785,0,0,0.04673,-0.0091373,0,-0.02804,0,0,0,0.060188,0.012105,0.021688,-13.326,0.031327,0.04408,3.7078e-06,0.05,0.89,0
0.0026581,-0.0018627,0.058037,0.01297,0.021302,-0.010239,0,0,0.047755,-0.010832,0,-0.026623,0,0,0,0.060254,0.010752,0.021302,-12.219,0.03077,0.045161,3.8743e-06,0.06,0.89,0
0.0031404,-0.0021643,0.058339,0.011411,0.020925,-0.0096067,0,0,0.048638,-0.012368,0,-0.024977,0,0,0,0.060229,0.0095204,0.020925,-11.133,0.030225,0.046078,4.0058e-06,0.07,0.89,0
0.0036308,-0.0024566,0.05854,0.01,0.020562,-0.0089191,0,0,0.049371,-0.013731,0,-0.02319,0,0,0,0.060127,0.008413,0.020562,-10.089,0.029701,0.046837,4.1041e-06,0.08,0.89,0
0.0041278,-0.0027381,0.058647,0.0087418,0.020216,-0.0082061,0,0,0.049959,-0.014917,0,-0.021336,0,0,0,0.059961,0.0074271,0.020216,-9.1022,0.029202,0.04745,4.1727e-06,0.09,0.89,0
0.00463,-0.0030079,0.058671,0.0076317,0.019891,-0.0074919,0,0,0.050414,-0.015937,0,-0.019479,0,0,0,0.059747,0.0065547,0.019891,-8.1805,0.028731,0.047937,4.2161e-06,0.1,0.89,0
0.0051361,-0.0032653,0.058625,0.0066594,0.019585,-0.0067949,0,0,0.050752,-0.016804,0,-0.017667,0,0,0,0.059499,0.0057857,0.019585,-7.3277,0.02829,0.048315,4.2389e-06,0.11,0.89,0
0.0056451,-0.0035102,0.058525,0.0058122,0.019301,-0.0061279,0,0,0.050991,-0.017536,0,-0.015932,0,0,0,0.059228,0.0051092,0.019301,-6.5443,0.02788,0.048603,4.2457e-06,0.12,0.89,0
0.0061559,-0.0037426,0.058384,0.0050759,0.019038,-0.005499,0,0,0.05115,-0.01815,0,-0.014297,0,0,0,0.058945,0.0045146,0.019038,-5.8286,0.027499,0.048817,4.2403e-06,0.13,0.89,0
0.006668,-0.0039628,0.058212,0.004437,0.018795,-0.0049128,0,0,0.051243,-0.018665,0,-0.012773,0,0,0,0.058657,0.0039918,0.018795,-5.1773,0.027148,0.048972,4.2259e-06,0.14,0.89,0
0.0071808,-0.004171,0.058021,0.0038826,0.018571,-0.0043711,0,0,0.051285,-0.019095,0,-0.011365,0,0,0,0.058372,0.0035319,0.018571,-4.5865,0.026825,0.04908,4.2053e-06,0.15,0.89,0
0.0076937,-0.0043678,0.057818,0.0034013,0.018366,-0.0038739,0,0,0.051288,-0.019454,0,-0.010072,0,0,0,0.058092,0.0031269,0.018366,-4.0516,0.026528,0.049151,4.1804e-06,0.16,0.89,0
0.0082065,-0.0045537,0.05761,0.0029831,0.018178,-0.0034198,0,0,0.051262,-0.019753,0,-0.0088915,0,0,0,0.057823,0.0027698,0.018178,-3.5683,0.026257,0.049194,4.1531e-06,0.17,0.89,0
0.008719,-0.004729,0.057401,0.002619,0.018006,-0.0030067,0,0,0.051214,-0.020003,0,-0.0078176,0,0,0,0.057566,0.0024545,0.018006,-3.1322,0.026009,0.049214,4.1244e-06,0.18,0.89,0
0.0092308,-0.0048945,0.057196,0.0023016,0.017849,-0.0026322,0,0,0.051151,-0.020212,0,-0.0068437,0,0,0,0.057322,0.0021757,0.017849,-2.7389,0.025782,0.049218,4.0954e-06,0.19,0.89,0
0.009742,-0.0050505,0.056998,0.0020244,0.017707,-0.0022933,0,0,0.051078,-0.020387,0,-0.0059627,0,0,0,0.057093,0.0019289,0.017707,-2.3847,0.025576,0.04921,4.0667e-06,0.2,0.89,0
0.010252,-0.0051977,0.056807,0.0017818,0.017577,-0.0019874,0,0,0.051,-0.020533,0,-0.0051672,0,0,0,0.056879,0.0017101,0.017577,-2.0658,0.025389,0.049194,4.0388e-06,0.21,0.89,0
0.010762,-0.0053365,0.056627,0.001569,0.017459,-0.0017116,0,0,0.050918,-0.020657,0,-0.00445,0,0,0,0.05668,0.0015159,0.017459,-1.7788,0.025218,0.049171,4.012e-06,0.22,0.89,0
0.011271,-0.0054674,0.056456,0.0013821,0.017351,-0.0014632,0,0,0.050836,-0.02076,0,-0.0038044,0,0,0,0.056495,0.0013433,0.017351,-1.5208,0.025063,0.049144,3.9866e-06,0.23,0.89,0
0.011779,-0.0055909,0.056297,0.0012177,0.017254,-0.0012399,0,0,0.050755,-0.020848,0,-0.0032237,0,0,0,0.056325,0.0011898,0.017254,-1.2889,0.024923,0.049114,3.9627e-06,0.24,0.89,0
0.012286,-0.0057073,0.056148,0.0010727,0.017166,-0.0010392,0,0,0.050677,-0.020922,0,-0.0027019,0,0,0,0.056168,0.0010531,0.017166,-1.0806,0.024796,0.049084,3.9403e-06,0.25,0.89,0
0.012792,-0.0058172,0.056011,0.00094471,0.017087,-0.00085906,0,0,0.050602,-0.020985,0,-0.0022336,0,0,0,0.056025,0.00093131,0.017087,-0.89355,0.024681,0.049053,3.9196e-06,0.26,0.89,0
0.013298,-0.0059208,0.055885,0.00083154,0.017015,-0.00069751,0,0,0.050531,-0.021038,0,-0.0018135,0,0,0,0.055893,0.0008227,0.017015,-0.72577,0.024577,0.049023,3.9005e-06,0.27,0.89,0
0.013803,-0.0060186,0.055768,0.00073134,0.01695,-0.00055274,0,0,0.050464,-0.021084,0,-0.0014371,0,0,0,0.055774,0.00072579,0.01695,-0.57535,0.024483,0.048994,3.883e-06,0.28,0.89,0
0.014307,-0.0061109,0.055663,0.00064252,0.016892,-0.00042315,0,0,0.050402,-0.021124,0,-0.0011002,0,0,0,0.055666,0.00063926,0.016892,-0.44062,0.024399,0.048967,3.867e-06,0.29,0.89,0
0.014811,-0.006198,0.055566,0.00056369,0.016839,-0.00030727,0,0,0.050345,-0.021158,0,-0.0007989,0,0,0,0.055568,0.00056197,0.016839,-0.32007,0.024323,0.048941,3.8524e-06,0.3,0.89,0
0.015314,-0.0062802,0.055479,0.00049365,0.016792,-0.00020376,0,0,0.050293,-0.021188,0,-0.00052977,0,0,0,0.05548,0.00049289,0.016792,-0.21231,0.024255,0.048918,3.8393e-06,0.31,0.89,0
0.015817,-0.0063578,0.0554,0.00043136,0.01675,-0.00011142,0,0,0.050246,-0.021214,0,-0.00028968,0,0,0,0.055401,0.00043113,0.01675,-0.11613,0.024194,0.048897,3.8276e-06,0.32,0.89,0
0.016319,-0.0064311,0.05533,0.00037592,0.016712,-2.9168e-05,0,0,0.050204,-0.021237,0,-7.5837e-05,0,0,0,0.05533,0.0003759,0.016712,-0.030411,0.024139,0.048878,3.8171e-06,0.33,0.89,0
0.016821,-0.0065003,0.055267,0.00032653,0.016678,4.3968e-05,0,0,0.050166,-0.021257,0,0.00011432,0,0,0,0.055267,0.00032649,0.016678,0.045853,0.024091,0.048862,3.8078e-06,0.34,0.89,0
0.017322,-0.0065656,0.055212,0.00028251,0.016648,0.00010887,0,0,0.050132,-0.021275,0,0.00028307,0,0,0,0.055212,0.00028229,0.016648,0.11356,0.024047,0.048848,3.7997e-06,0.35,0.89,0
0.017823,-0.0066273,0.055163,0.00024324,0.016622,0.00016634,0,0,0.050103,-0.021292,0,0.00043249,0,0,0,0.055163,0.00024273,0.016622,0.17354,0.024009,0.048836,3.7926e-06,0.36,0.89,0
0.018324,-0.0066855,0.05512,0.00020819,0.016598,0.00021709,0,0,0.050078,-0.021307,0,0.00056443,0,0,0,0.055121,0.00020733,0.016598,0.22651,0.023976,0.048827,3.7864e-06,0.37,0.89,0
0.018825,-0.0067405,0.055083,0.00017689,0.016578,0.00026176,0,0,0.050056,-0.021321,0,0.00068058,0,0,0,0.055084,0.00017564,0.016578,0.27315,0.023946,0.04882,3.7813e-06,0.38,0.89,0
0.019325,-0.0067925,0.055051,0.00014893,0.01656,0.00030094,0,0,0.050039,-0.021334,0,0.00078244,0,0,0,0.055053,0.00014728,0.01656,0.31405,0.02392,0.048814,3.7769e-06,0.39,0.89,0
0.019826,-0.0068415,0.055025,0.00012395,0.016545,0.00033515,0,0,0.050024,-0.021347,0,0.00087138,0,0,0,0.055027,0.0001219,0.016545,0.34975,0.023898,0.048811,3.7734e-06,0.4,0.89,0
0.020326,-0.0068878,0.055003,0.00010161,0.016531,0.00036486,0,0,0.050013,-0.021358,0,0.00094863,0,0,0,0.055005,9.9182e-05,0.016531,0.38075,0.023878,0.04881,3.7706e-06,0.41,0.89,0
0.020826,-0.0069316,0.054985,8.1629e-05,0.01652,0.0003905,0,0,0.050004,-0.02137,0,0.0010153,0,0,0,0.054987,7.8851e-05,0.01652,0.40749,0.023862,0.048811,3.7685e-06,0.42,0.89,0
0.021326,-0.0069729,0.05497,6.3759e-05,0.01651,0.00041246,0,0,0.049998,-0.021381,0,0.0010724,0,0,0,0.054974,6.066e-05,0.01651,0.43038,0.023848,0.048813,3.767e-06,0.43,0.89,0
0.021826,-0.0070118,0.05496,4.7772e-05,0.016502,0.00043108,0,0,0.049995,-0.021391,0,0.0011208,0,0,0,0.054963,4.4388e-05,0.016502,0.44976,0.023837,0.048817,3.7661e-06,0.44,0.89,0
0.022326,-0.0070487,0.054953,3.3467e-05,0.016496,0.00044668,0,0,0.049994,-0.021401,0,0.0011614,0,0,0,0.054956,2.9835e-05,0.016496,0.46597,0.023827,0.048822,3.7657e-06,0.45,0.89,0
0.022826,-0.0070834,0.054948,2.0668e-05,0.016491,0.00045955,0,0,0.049995,-0.021411,0,0.0011948,0,0,0,0.054952,1.6824e-05,0.016491,0.47932,0.02382,0.048829,3.7658e-06,0.46,0.89,0
0.023326,-0.0071162,0.054947,9.2156e-06,0.016487,0.00046993,0,0,0.049998,-0.021421,0,0.0012218,0,0,0,0.054951,5.1961e-06,0.016487,0.49006,0.023814,0.048837,3.7664e-06,0.47,0.89,0
0.023826,-0.0071471,0.054948,-1.0309e-06,0.016484,0.00047807,0,0,0.050003,-0.021431,0,0.001243,0,0,0,0.054952,-5.1899e-06,0.016484,0.49844,0.02381,0.048846,3.7674e-06,0.48,0.89,0
0.024326,-0.0071763,0.054951,-1.0197e-05,0.016482,0.00048416,0,0,0.050009,-0.02144,0,0.0012588,0,0,0,0.054955,-1.4462e-05,0.016482,0.50468,0.023808,0.048857,3.7687e-06,0.49,0.89,0
0.024826,-0.0072039,0.054956,-1.8395e-05,0.016481,0.00048842,0,0,0.050017,-0.021449,0,0.0012699,0,0,0,0.05496,-2.2733e-05,0.016481,0.50899,0.023806,0.048868,3.7704e-06,0.5,0.89,0
0.025326,-0.0072299,0.054963,-2.5723e-05,0.016481,0.00049099,0,0,0.050026,-0.021459,0,0.0012766,0,0,0,0.054967,-3.0107e-05,0.016481,0.51154,0.023806,0.04888,3.7724e-06,0.51,0.89,0
0.025827,-0.0072543,0.054971,-3.2272e-05,0.016482,0.00049205,0,0,0.050036,-0.021468,0,0.0012793,0,0,0,0.054976,-3.6674e-05,0.016482,0.5125,0.023807,0.048893,3.7746e-06,0.52,0.89,0
0.026327,-0.0072775,0.054981,-3.8121e-05,0.016483,0.00049173,0,0,0.050048,-0.021477,0,0.0012785,0,0,0,0.054986,-4.2516e-05,0.016483,0.51202,0.023809,0.048906,3.7771e-06,0.53,0.89,0
0.026828,-0.0072992,0.054993,-4.3341e-05,0.016485,0.00049017,0,0,0.05006,-0.021487,0,0.0012744,0,0,0,0.054997,-4.7706e-05,0.016485,0.51024,0.023811,0.04892,3.7798e-06,0.54,0.89,0
0.027328,-0.0073197,0.055005,-4.7995e-05,0.016487,0.00048748,0,0,0.050073,-0.021496,0,0.0012674,0,0,0,0.055009,-5.2312e-05,0.016487,0.50728,0.023815,0.048935,3.7827e-06,0.55,0.89,0
0.027829,-0.007339,0.055018,-5.2142e-05,0.01649,0.00048376,0,0,0.050087,-0.021505,0,0.0012578,0,0,0,0.055023,-5.6391e-05,0.01649,0.50325,0.023819,0.04895,3.7857e-06,0.56,0.89,0
0.02833,-0.0073573,0.055033,-5.583e-05,0.016493,0.00047911,0,0,0.050102,-0.021514,0,0.0012457,0,0,0,0.055037,-5.9997e-05,0.016493,0.49826,0.023823,0.048966,3.7889e-06,0.57,0.89,0
0.028831,-0.0073744,0.055048,-5.9108e-05,0.016497,0.00047363,0,0,0.050117,-0.021522,0,0.0012314,0,0,0,0.055052,-6.3178e-05,0.016497,0.4924,0.023828,0.048982,3.7922e-06,0.58,0.89,0
0.029332,-0.0073905,0.055063,-6.2014e-05,0.0165,0.00046739,0,0,0.050132,-0.021531,0,0.0012152,0,0,0,0.055067,-6.5976e-05,0.0165,0.48574,0.023834,0.048998,3.7957e-06,0.59,0.89,0
0.029834,-0.0074057,0.05508,-6.4586e-05,0.016504,0.00046046,0,0,0.050148,-0.02154,0,0.0011972,0,0,0,0.055083,-6.8431e-05,0.016504,0.47838,0.02384,0.049014,3.7992e-06,0.6,0.89,0
0.030335,-0.0074199,0.055096,-6.6858e-05,0.016509,0.00045291,0,0,0.050163,-0.021548,0,0.0011776,0,0,0,0.0551,-7.0577e-05,0.016509,0.47038,0.023846,0.04903,3.8027e-06,0.61,0.89,0
0.030837,-0.0074333,0.055113,-6.8859e-05,0.016513,0.00044481,0,0,0.05018,-0.021557,0,0.0011565,0,0,0,0.055117,-7.2444e-05,0.016513,0.46181,0.023852,0.049047,3.8063e-06,0.62,0.89,0
0.031339,-0.0074459,0.05513,-7.0616e-05,0.016518,0.0004362,0,0,0.050196,-0.021565,0,0.0011341,0,0,0,0.055134,-7.4062e-05,0.016518,0.45271,0.023859,0.049063,3.81e-06,0.63,0.89,0
0.031841,-0.0074578,0.055148,-7.2152e-05,0.016523,0.00042713,0,0,0.050212,-0.021573,0,0.0011105,0,0,0,0.055151,-7.5456e-05,0.016523,0.44316,0.023866,0.049079,3.8136e-06,0.64,0.89,0
0.032343,-0.0074689,0.055165,-7.3491e-05,0.016527,0.00041766,0,0,0.050229,-0.021581,0,0.0010859,0,0,0,0.055168,-7.6648e-05,0.016527,0.43318,0.023873,0.049096,3.8173e-06,0.65,0.89,0
0.032845,-0.0074793,0.055182,-7.4651e-05,0.016532,0.00040782,0,0,0.050245,-0.021589,0,0.0010603,0,0,0,0.055185,-7.766e-05,0.016532,0.42284,0.02388,0.049112,3.821e-06,0.66,0.89,0
0.033348,-0.0074891,0.0552,-7.565e-05,0.016537,0.00039765,0,0,0.050261,-0.021597,0,0.0010339,0,0,0,0.055203,-7.8511e-05,0.016537,0.41216,0.023887,0.049128,3.8246e-06,0.67,0.89,0
0.033851,-0.0074982,0.055217,-7.6505e-05,0.016542,0.00038719,0,0,0.050278,-0.021604,0,0.0010067,0,0,0,0.05522,-7.9216e-05,0.016542,0.40118,0.023894,0.049144,3.8283e-06,0.68,0.89,0
0.034354,-0.0075068,0.055234,-7.723e-05,0.016547,0.00037647,0,0,0.050293,-0.021612,0,0.00097881,0,0,0,0.055237,-7.9793e-05,0.016547,0.38995,0.023901,0.049159,3.8318e-06,0.69,0.89,0
0.034856,-0.0075149,0.055251,-7.784e-05,0.016552,0.00036551,0,0,0.050309,-0.021619,0,0.00095032,0,0,0,0.055254,-8.0254e-05,0.016552,0.37848,0.023908,0.049175,3.8354e-06,0.7,0.89,0
0.03536,-0.0075224,0.055268,-7.8344e-05,0.016557,0.00035434,0,0,0.050325,-0.021626,0,0.0009213,0,0,0,0.05527,-8.0613e-05,0.016557,0.3668,0.023916,0.04919,3.8389e-06,0.71,0.89,0
0.035863,-0.0075294,0.055285,-7.8756e-05,0.016562,0.000343,0,0,0.05034,-0.021633,0,0.00089179,0,0,0,0.055287,-8.0881e-05,0.016562,0.35495,0.023922,0.049204,3.8423e-06,0.72,0.89,0
0.036367,-0.007536,0.055301,-7.9085e-05,0.016567,0.00033149,0,0,0.050355,-0.021639,0,0.00086186,0,0,0,0.055303,-8.1069e-05,0.016567,0.34294,0.023929,0.049219,3.8456e-06,0.73,0.89,0
0.03687,-0.0075421,0.055316,-7.934e-05,0.016571,0.00031983,0,0,0.050369,-0.021646,0,0.00083157,0,0,0,0.055318,-8.1186e-05,0.016571,0.33079,0.023936,0.049233,3.8489e-06,0.74,0.89,0
0.037374,-0.0075478,0.055332,-7.9529e-05,0.016576,0.00030806,0,0,0.050383,-0.021652,0,0.00080094,0,0,0,0.055334,-8.1242e-05,0.016576,0.31852,0.023943,0.049246,3.8521e-06,0.75,0.89,0
0.037878,-0.0075531,0.055347,-7.9662e-05,0.01658,0.00029617,0,0,0.050397,-0.021658,0,0.00077004,0,0,0,0.055349,-8.1244e-05,0.01658,0.30615,0.023949,0.04926,3.8552e-06,0.76,0.89,0
0.038382,-0.0075581,0.055361,-7.9744e-05,0.016584,0.00028419,0,0,0.05041,-0.021663,0,0.00073889,0,0,0,0.055363,-8.1201e-05,0.016584,0.29368,0.023955,0.049272,3.8582e-06,0.77,0.89,0
0.038886,-0.0075627,0.055376,-7.9782e-05,0.016589,0.00027213,0,0,0.050423,-0.021669,0,0.00070753,0,0,0,0.055377,-8.1118e-05,0.016589,0.28115,0.023962,0.049285,3.8611e-06,0.78,0.89,0
0.03939,-0.007567,0.055389,-7.9783e-05,0.016593,0.00025999,0,0,0.050435,-0.021674,0,0.00067598,0,0,0,0.05539,-8.1002e-05,0.016593,0.26855,0.023967,0.049297,3.8639e-06,0.79,0.89,0
0.039895,-0.007571,0.055402,-7.9751e-05,0.016597,0.0002478,0,0,0.050447,-0.021679,0,0.00064429,0,0,0,0.055403,-8.0858e-05,0.016597,0.2559,0.023973,0.049308,3.8666e-06,0.8,0.89,0
0.040399,-0.0075747,0.055415,-7.9693e-05,0.016601,0.00023556,0,0,0.050458,-0.021684,0,0.00061246,0,0,0,0.055416,-8.0693e-05,0.016601,0.2432,0.023978,0.049319,3.8692e-06,0.81,0.89,0
0.040904,-0.0075781,0.055427,-7.9612e-05,0.016604,0.00022328,0,0,0.050469,-0.021689,0,0.00058053,0,0,0,0.055427,-8.051e-05,0.016604,0.23047,0.023984,0.049329,3.8717e-06,0.82,0.89,0
0.041409,-0.0075812,0.055438,-7.9514e-05,0.016608,0.00021096,0,0,0.05048,-0.021693,0,0.0005485,0,0,0,0.055439,-8.0315e-05,0.016608,0.21772,0.023989,0.049339,3.874e-06,0.83,0.89,0
0.041913,-0.0075841,0.055449,-7.9401e-05,0.016611,0.00019862,0,0,0.050489,-0.021697,0,0.00051641,0,0,0,0.055449,-8.0112e-05,0.016611,0.20494,0.023993,0.049349,3.8763e-06,0.84,0.89,0
0.042418,-0.0075867,0.055459,-7.9278e-05,0.016614,0.00018625,0,0,0.050499,-0.021701,0,0.00048425,0,0,0,0.05546,-7.9903e-05,0.016614,0.19214,0.023998,0.049357,3.8784e-06,0.85,0.89,0
0.042923,-0.0075892,0.055469,-7.9149e-05,0.016617,0.00017387,0,0,0.050507,-0.021705,0,0.00045205,0,0,0,0.055469,-7.9693e-05,0.016617,0.17933,0.024002,0.049366,3.8803e-06,0.86,0.89,0
0.043429,-0.0075914,0.055478,-7.9015e-05,0.01662,0.00016147,0,0,0.050515,-0.021708,0,0.00041981,0,0,0,0.055478,-7.9485e-05,0.01662,0.16652,0.024006,0.049374,3.8822e-06,0.87,0.89,0
0.043934,-0.0075934,0.055486,-7.8881e-05,0.016622,0.00014906,0,0,0.050523,-0.021711,0,0.00038755,0,0,0,0.055486,-7.9281e-05,0.016622,0.1537,0.02401,0.049381,3.8839e-06,0.88,0.89,0
0.044439,-0.0075952,0.055494,-7.8749e-05,0.016625,0.00013664,0,0,0.05053,-0.021714,0,0.00035527,0,0,0,0.055494,-7.9085e-05,0.016625,0.14088,0.024013,0.049387,3.8855e-06,0.89,0.89,0
0.044944,-0.0075968,0.055501,-7.862e-05,0.016627,0.00012422,0,0,0.050536,-0.021717,0,0.00032298,0,0,0,0.055501,-7.8898e-05,0.016627,0.12806,0.024016,0.049393,3.887e-06,0.9,0.89,0
0.04545,-0.0075983,0.055507,-7.8497e-05,0.016629,0.0001118,0,0,0.050542,-0.021719,0,0.00029068,0,0,0,0.055507,-7.8722e-05,0.016629,0.11524,0.024019,0.049399,3.8883e-06,0.91,0.89,0
0.045955,-0.0075996,0.055513,-7.8383e-05,0.01663,9.9375e-05,0,0,0.050547,-0.021721,0,0.00025838,0,0,0,0.055513,-7.8561e-05,0.01663,0.10242,0.024022,0.049404,3.8895e-06,0.92,0.89,0
0.046461,-0.0076007,0.055518,-7.8278e-05,0.016632,8.6951e-05,0,0,0.050552,-0.021723,0,0.00022607,0,0,0,0.055518,-7.8414e-05,0.016632,0.089608,0.024024,0.049408,3.8905e-06,0.93,0.89,0
0.046966,-0.0076016,0.055522,-7.8184e-05,0.016633,7.4526e-05,0,0,0.050556,-0.021725,0,0.00019377,0,0,0,0.055523,-7.8284e-05,0.016633,0.076798,0.024026,0.049412,3.8914e-06,0.94,0.89,0
0.047472,-0.0076025,0.055526,-7.8103e-05,0.016634,6.2103e-05,0,0,0.050559,-0.021726,0,0.00016147,0,0,0,0.055526,-7.8172e-05,0.016634,0.063992,0.024028,0.049415,3.8922e-06,0.95,0.89,0
0.047977,-0.0076031,0.055529,-7.8035e-05,0.016635,4.968e-05,0,0,0.050562,-0.021727,0,0.00012917,0,0,0,0.055529,-7.8079e-05,0.016635,0.051189,0.024029,0.049418,3.8929e-06,0.96,0.89,0
0.048483,-0.0076036,0.055532,-7.7981e-05,0.016636,3.7259e-05,0,0,0.050564,-0.021728,0,9.6873e-05,0,0,0,0.055532,-7.8006e-05,0.016636,0.038389,0.02403,0.04942,3.8933e-06,0.97,0.89,0
0.048989,-0.007604,0.055533,-7.7942e-05,0.016637,2.4839e-05,0,0,0.050566,-0.021729,0,6.4581e-05,0,0,0,0.055533,-7.7953e-05,0.016637,0.025591,0.024031,0.049421,3.8937e-06,0.98,0.89,0
0.049494,-0.0076042,0.055534,-7.7918e-05,0.016637,1.2419e-05,0,0,0.050567,-0.021729,0,3.229e-05,0,0,0,0.055534,-7.7921e-05,0.016637,0.012795,0.024031,0.049422,3.8939e-06,0.99,0.89,0
0.05,-0.0076042,0.055535,-7.791e-05,0.016637,-2.7333e-06,0,0,0.050567,-0.021729,0,-7.1065e-06,0,0,0,0.055535,-7.791e-05,0.016637,-0.002816,0.024031,0.049423,3.894e-06,1,0.89,0
0,0,0.056107,0.024046,0.024046,-0.012286,0,0,0.04168,2.1684e-19,0,-0.031943,0,0,0,0.060274,0.01988,0.024046,-18.733,0.034733,0.038481,2.8111e-06,0,0.9,0
0.0004168,-0.00031943,0.055947,0.021958,0.023371,-0.012255,0,0,0.042348,-0.0018379,0,-0.031863,0,0,0,0.059904,0.018,0.023371,-17.898,0.033758,0.039494,2.9675e-06,0.01,0.9,0
0.00084696,-0.00064775,0.056623,0.020045,0.023,-0.012282,0,0,0.043709,-0.0038419,0,-0.031934,0,0,0,0.060365,0.016304,0.023,-16.942,0.033223,0.041124,3.2549e-06,0.02,0.9,0
0.001291,-0.00098142,0.057273,0.018038,0.022593,-0.012117,0,0,0.045083,-0.0059215,0,-0.031505,0,0,0,0.060713,0.014598,0.022593,-15.852,0.032635,0.042683,3.5262e-06,0.03,0.9,0
0.0017486,-0.0013164,0.057857,0.016028,0.022166,-0.011759,0,0,0.046399,-0.0079787,0,-0.030573,0,0,0,0.060936,0.012949,0.022166,-14.673,0.032017,0.044107,3.7666e-06,0.04,0.9,0
0.002219,-0.0016488,0.058345,0.014096,0.021732,-0.011229,0,0,0.047596,-0.0099272,0,-0.029196,0,0,0,0.061031,0.011409,0.021732,-13.455,0.031391,0.04535,3.9664e-06,0.05,0.9,0
0.0027005,-0.001975,0.058714,0.0123,0.021304,-0.010568,0,0,0.048633,-0.011705,0,-0.027475,0,0,0,0.061007,0.010007,0.021304,-12.241,0.030773,0.046394,4.1217e-06,0.06,0.9,0
0.0031916,-0.0022922,0.058959,0.010676,0.02089,-0.0098174,0,0,0.049489,-0.013279,0,-0.025525,0,0,0,0.060879,0.0087558,0.02089,-11.065,0.030175,0.047239,4.2337e-06,0.07,0.9,0
0.0036903,-0.0025982,0.059085,0.0092354,0.020496,-0.0090214,0,0,0.050166,-0.014639,0,-0.023456,0,0,0,0.060667,0.0076531,0.020496,-9.9487,0.029606,0.047902,4.3069e-06,0.08,0.9,0
0.0041949,-0.0028914,0.059106,0.0079768,0.020125,-0.0082146,0,0,0.050675,-0.015792,0,-0.021358,0,0,0,0.060393,0.0066895,0.020125,-8.9069,0.029069,0.048405,4.3475e-06,0.09,0.9,0
0.0047038,-0.0031712,0.059039,0.0068875,0.019778,-0.0074238,0,0,0.051039,-0.016757,0,-0.019302,0,0,0,0.060075,0.0058513,0.019778,-7.9459,0.028568,0.048775,4.3622e-06,0.1,0.9,0
0.0052157,-0.003437,0.058903,0.0059503,0.019456,-0.0066673,0,0,0.051281,-0.017557,0,-0.017335,0,0,0,0.05973,0.0051237,0.019456,-7.0672,0.028103,0.049037,4.3573e-06,0.11,0.9,0
0.0057295,-0.0036889,0.058717,0.0051467,0.019159,-0.0059566,0,0,0.051425,-0.018216,0,-0.015487,0,0,0,0.059371,0.0044923,0.019159,-6.2688,0.027674,0.049213,4.3383e-06,0.12,0.9,0
0.0062442,-0.0039272,0.058496,0.0044585,0.018886,-0.0052975,0,0,0.051493,-0.018756,0,-0.013774,0,0,0,0.059011,0.003944,0.018886,-5.5466,0.02728,0.049323,4.3096e-06,0.13,0.9,0
0.0067593,-0.0041521,0.058254,0.0038689,0.018637,-0.0046923,0,0,0.051502,-0.019198,0,-0.0122,0,0,0,0.058656,0.0034671,0.018637,-4.8953,0.02692,0.049383,4.2746e-06,0.14,0.9,0
0.0072743,-0.0043644,0.058,0.0033634,0.018409,-0.0041406,0,0,0.051468,-0.019559,0,-0.010766,0,0,0,0.058312,0.0030514,0.018409,-4.3093,0.026591,0.049406,4.236e-06,0.15,0.9,0
0.0077887,-0.0045644,0.057743,0.0029291,0.018202,-0.0036402,0,0,0.051404,-0.019854,0,-0.0094645,0,0,0,0.057984,0.0026884,0.018202,-3.7828,0.026291,0.049401,4.1957e-06,0.16,0.9,0
0.0083023,-0.004753,0.057489,0.0025551,0.018013,-0.0031881,0,0,0.051319,-0.020096,0,-0.0082892,0,0,0,0.057673,0.0023707,0.018013,-3.3104,0.026019,0.049376,4.1553e-06,0.17,0.9,0
0.008815,-0.0049306,0.057242,0.0022322,0.017842,-0.002781,0,0,0.05122,-0.020293,0,-0.0072306,0,0,0,0.057382,0.002092,0.017842,-2.8868,0.025772,0.049338,4.1156e-06,0.18,0.9,0
0.0093267,-0.0050979,0.057005,0.0019528,0.017687,-0.0024151,0,0,0.051113,-0.020455,0,-0.0062792,0,0,0,0.057111,0.0018471,0.017687,-2.5071,0.025548,0.049291,4.0774e-06,0.19,0.9,0
0.0098373,-0.0052555,0.056781,0.0017104,0.017547,-0.0020867,0,0,0.051003,-0.020588,0,-0.0054254,0,0,0,0.05686,0.0016314,0.017547,-2.1669,0.025346,0.049239,4.0411e-06,0.2,0.9,0
0.010347,-0.0054039,0.056569,0.0014994,0.017421,-0.0017924,0,0,0.050893,-0.020698,0,-0.0046603,0,0,0,0.056628,0.0014411,0.017421,-1.8622,0.025163,0.049184,4.007e-06,0.21,0.9,0
0.010855,-0.0055438,0.056372,0.0013154,0.017306,-0.001529,0,0,0.050786,-0.020788,0,-0.0039753,0,0,0,0.056415,0.001273,0.017306,-1.5895,0.024998,0.049128,3.9751e-06,0.22,0.9,0
0.011362,-0.0056756,0.05619,0.0011546,0.017203,-0.0012932,0,0,0.050682,-0.020863,0,-0.0033625,0,0,0,0.05622,0.0011242,0.017203,-1.3454,0.024849,0.049073,3.9457e-06,0.23,0.9,0
0.011869,-0.0057998,0.056021,0.0010137,0.01711,-0.0010825,0,0,0.050584,-0.020926,0,-0.0028146,0,0,0,0.056042,0.00099238,0.01711,-1.127,0.024715,0.04902,3.9185e-06,0.24,0.9,0
0.012374,-0.0059169,0.055866,0.00088995,0.017027,-0.00089429,0,0,0.050491,-0.020978,0,-0.0023251,0,0,0,0.055881,0.00087541,0.017027,-0.93169,0.024594,0.04897,3.8937e-06,0.25,0.9,0
0.012879,-0.0060273,0.055725,0.00078112,0.016952,-0.00072622,0,0,0.050405,-0.021022,0,-0.0018882,0,0,0,0.055735,0.00077152,0.016952,-0.75712,0.024486,0.048923,3.8712e-06,0.26,0.9,0
0.013382,-0.0061314,0.055597,0.00068522,0.016885,-0.00057626,0,0,0.050326,-0.021059,0,-0.0014983,0,0,0,0.055603,0.00067917,0.016885,-0.6012,0.024389,0.048879,3.8507e-06,0.27,0.9,0
0.013885,-0.0062296,0.055481,0.00060058,0.016824,-0.00044258,0,0,0.050253,-0.021091,0,-0.0011507,0,0,0,0.055484,0.00059701,0.016824,-0.46202,0.024302,0.048839,3.8323e-06,0.28,0.9,0
0.014387,-0.0063222,0.055376,0.00052577,0.016771,-0.00032349,0,0,0.050187,-0.021118,0,-0.00084108,0,0,0,0.055378,0.00052386,0.016771,-0.3379,0.024224,0.048803,3.8158e-06,0.29,0.9,0
0.014889,-0.0064096,0.055282,0.00045956,0.016723,-0.00021752,0,0,0.050127,-0.021142,0,-0.00056556,0,0,0,0.055283,0.0004587,0.016723,-0.22733,0.024155,0.04877,3.8011e-06,0.3,0.9,0
0.01539,-0.006492,0.055198,0.00040089,0.01668,-0.00012333,0,0,0.050074,-0.021163,0,-0.00032067,0,0,0,0.055198,0.00040061,0.01668,-0.12896,0.024093,0.048742,3.788e-06,0.31,0.9,0
0.01589,-0.0065699,0.055124,0.00034885,0.016642,-3.9728e-05,0,0,0.050027,-0.021181,0,-0.00010329,0,0,0,0.055124,0.00034882,0.016642,-0.041556,0.024038,0.048717,3.7765e-06,0.32,0.9,0
0.01639,-0.0066433,0.055058,0.00030265,0.016608,3.4365e-05,0,0,0.049985,-0.021197,0,8.935e-05,0,0,0,0.055058,0.00030263,0.016608,0.035959,0.02399,0.048695,3.7665e-06,0.33,0.9,0
0.01689,-0.0067127,0.055001,0.00026159,0.016579,9.9905e-05,0,0,0.049949,-0.021212,0,0.00025975,0,0,0,0.055001,0.00026141,0.016579,0.10457,0.023947,0.048677,3.7578e-06,0.34,0.9,0
0.017389,-0.0067781,0.054951,0.00022508,0.016553,0.00015775,0,0,0.049918,-0.021226,0,0.00041015,0,0,0,0.054952,0.00022462,0.016553,0.16516,0.02391,0.048663,3.7503e-06,0.35,0.9,0
0.017888,-0.00684,0.054908,0.00019258,0.01653,0.00020868,0,0,0.049891,-0.021239,0,0.00054256,0,0,0,0.054909,0.00019179,0.01653,0.21851,0.023877,0.048651,3.7441e-06,0.36,0.9,0
0.018387,-0.0068983,0.054872,0.00016365,0.016511,0.00025337,0,0,0.049869,-0.021251,0,0.00065875,0,0,0,0.054873,0.00016248,0.016511,0.26534,0.023849,0.048642,3.7388e-06,0.37,0.9,0
0.018886,-0.0069535,0.054841,0.00013787,0.016494,0.00029245,0,0,0.049852,-0.021263,0,0.00076036,0,0,0,0.054843,0.00013631,0.016494,0.30629,0.023824,0.048636,3.7346e-06,0.38,0.9,0
0.019384,-0.0070055,0.054816,0.0001149,0.016479,0.00032647,0,0,0.049838,-0.021274,0,0.00084881,0,0,0,0.054818,0.00011295,0.016479,0.34193,0.023803,0.048633,3.7313e-06,0.39,0.9,0
0.019883,-0.0070547,0.054796,9.4413e-05,0.016467,0.00035593,0,0,0.049827,-0.021285,0,0.00092542,0,0,0,0.054798,9.2098e-05,0.016467,0.37279,0.023786,0.048632,3.7288e-06,0.4,0.9,0
0.020381,-0.0071011,0.054781,7.6143e-05,0.016457,0.00038128,0,0,0.04982,-0.021295,0,0.00099134,0,0,0,0.054783,7.3485e-05,0.016457,0.39932,0.023771,0.048634,3.727e-06,0.41,0.9,0
0.020879,-0.0071449,0.054769,5.9843e-05,0.016449,0.00040293,0,0,0.049817,-0.021306,0,0.0010476,0,0,0,0.054772,5.6875e-05,0.016449,0.42195,0.023759,0.048637,3.726e-06,0.42,0.9,0
0.021377,-0.0071864,0.054762,4.5298e-05,0.016442,0.00042124,0,0,0.049815,-0.021316,0,0.0010952,0,0,0,0.054765,4.2056e-05,0.016442,0.44106,0.02375,0.048642,3.7256e-06,0.43,0.9,0
0.021875,-0.0072254,0.054758,3.2319e-05,0.016437,0.00043652,0,0,0.049817,-0.021326,0,0.001135,0,0,0,0.054761,2.8837e-05,0.016437,0.45699,0.023742,0.04865,3.7258e-06,0.44,0.9,0
0.022374,-0.0072623,0.054757,2.0735e-05,0.016433,0.00044908,0,0,0.04982,-0.021336,0,0.0011676,0,0,0,0.05476,1.7051e-05,0.016433,0.47004,0.023737,0.048658,3.7265e-06,0.45,0.9,0
0.022872,-0.0072972,0.054759,1.0398e-05,0.016431,0.00045919,0,0,0.049826,-0.021346,0,0.0011939,0,0,0,0.054762,6.5469e-06,0.016431,0.48051,0.023733,0.048669,3.7277e-06,0.46,0.9,0
0.02337,-0.0073301,0.054763,1.1733e-06,0.016429,0.00046707,0,0,0.049834,-0.021357,0,0.0012144,0,0,0,0.054767,-2.81e-06,0.016429,0.48863,0.023731,0.04868,3.7293e-06,0.47,0.9,0
0.023868,-0.0073611,0.05477,-7.0567e-06,0.016429,0.00047294,0,0,0.049843,-0.021367,0,0.0012297,0,0,0,0.054774,-1.114e-05,0.016429,0.49464,0.023731,0.048693,3.7314e-06,0.48,0.9,0
0.024367,-0.0073904,0.054779,-1.4397e-05,0.016429,0.000477,0,0,0.049855,-0.021377,0,0.0012402,0,0,0,0.054783,-1.855e-05,0.016429,0.49874,0.023731,0.048707,3.7338e-06,0.49,0.9,0
0.024865,-0.0074181,0.05479,-2.0942e-05,0.016431,0.00047943,0,0,0.049867,-0.021387,0,0.0012465,0,0,0,0.054794,-2.5136e-05,0.016431,0.50111,0.023733,0.048722,3.7365e-06,0.5,0.9,0
0.025364,-0.0074441,0.054802,-2.6775e-05,0.016433,0.00048037,0,0,0.049881,-0.021397,0,0.001249,0,0,0,0.054806,-3.0984e-05,0.016433,0.50193,0.023736,0.048738,3.7394e-06,0.51,0.9,0
0.025863,-0.0074687,0.054816,-3.197e-05,0.016435,0.00047998,0,0,0.049895,-0.021407,0,0.001248,0,0,0,0.05482,-3.617e-05,0.016435,0.50135,0.02374,0.048754,3.7427e-06,0.52,0.9,0
0.026362,-0.0074919,0.054831,-3.6594e-05,0.016438,0.00047838,0,0,0.049911,-0.021418,0,0.0012438,0,0,0,0.054836,-4.0764e-05,0.016438,0.4995,0.023744,0.048772,3.7461e-06,0.53,0.9,0
0.026861,-0.0075138,0.054848,-4.0704e-05,0.016442,0.0004757,0,0,0.049927,-0.021428,0,0.0012368,0,0,0,0.054852,-4.4827e-05,0.016442,0.49651,0.02375,0.048789,3.7498e-06,0.54,0.9,0
0.027361,-0.0075344,0.054865,-4.4356e-05,0.016446,0.00047202,0,0,0.049945,-0.021438,0,0.0012273,0,0,0,0.054869,-4.8413e-05,0.016446,0.49249,0.023756,0.048807,3.7536e-06,0.55,0.9,0
0.02786,-0.0075538,0.054883,-4.7595e-05,0.016451,0.00046747,0,0,0.049962,-0.021448,0,0.0012154,0,0,0,0.054887,-5.1573e-05,0.016451,0.48754,0.023762,0.048826,3.7575e-06,0.56,0.9,0
0.02836,-0.0075721,0.054902,-5.0463e-05,0.016456,0.0004621,0,0,0.049981,-0.021458,0,0.0012015,0,0,0,0.054906,-5.4349e-05,0.016456,0.48176,0.023769,0.048845,3.7616e-06,0.57,0.9,0
0.02886,-0.0075893,0.054922,-5.2999e-05,0.016461,0.00045602,0,0,0.049999,-0.021468,0,0.0011856,0,0,0,0.054926,-5.6782e-05,0.016461,0.47523,0.023776,0.048864,3.7657e-06,0.58,0.9,0
0.02936,-0.0076055,0.054942,-5.5237e-05,0.016466,0.00044929,0,0,0.050018,-0.021478,0,0.0011681,0,0,0,0.054945,-5.8907e-05,0.016466,0.46803,0.023784,0.048884,3.77e-06,0.59,0.9,0
0.02986,-0.0076208,0.054962,-5.7206e-05,0.016471,0.00044197,0,0,0.050038,-0.021487,0,0.0011491,0,0,0,0.054966,-6.0756e-05,0.016471,0.46022,0.023792,0.048903,3.7743e-06,0.6,0.9,0
0.030361,-0.0076352,0.054983,-5.8934e-05,0.016477,0.00043412,0,0,0.050057,-0.021497,0,0.0011287,0,0,0,0.054986,-6.2358e-05,0.016477,0.45187,0.0238,0.048922,3.7786e-06,0.61,0.9,0
0.030861,-0.0076486,0.055003,-6.0446e-05,0.016483,0.0004258,0,0,0.050077,-0.021506,0,0.0011071,0,0,0,0.055007,-6.3738e-05,0.016483,0.44303,0.023809,0.048942,3.783e-06,0.62,0.9,0
0.031362,-0.0076613,0.055024,-6.1762e-05,0.016489,0.00041706,0,0,0.050096,-0.021516,0,0.0010844,0,0,0,0.055027,-6.492e-05,0.016489,0.43376,0.023817,0.048961,3.7873e-06,0.63,0.9,0
0.031863,-0.0076733,0.055045,-6.2904e-05,0.016495,0.00040794,0,0,0.050116,-0.021525,0,0.0010606,0,0,0,0.055048,-6.5923e-05,0.016495,0.4241,0.023826,0.048981,3.7917e-06,0.64,0.9,0
0.032364,-0.0076844,0.055066,-6.3888e-05,0.016501,0.00039847,0,0,0.050135,-0.021534,0,0.001036,0,0,0,0.055069,-6.6768e-05,0.016501,0.4141,0.023834,0.049,3.796e-06,0.65,0.9,0
0.032866,-0.0076949,0.055087,-6.4731e-05,0.016507,0.00038871,0,0,0.050154,-0.021543,0,0.0010106,0,0,0,0.05509,-6.747e-05,0.016507,0.40379,0.023843,0.049019,3.8004e-06,0.66,0.9,0
0.033368,-0.0077048,0.055107,-6.5447e-05,0.016513,0.00037867,0,0,0.050173,-0.021552,0,0.00098454,0,0,0,0.05511,-6.8046e-05,0.016513,0.39322,0.023852,0.049037,3.8046e-06,0.67,0.9,0
0.033869,-0.0077141,0.055128,-6.605e-05,0.016518,0.00036839,0,0,0.050192,-0.02156,0,0.00095782,0,0,0,0.05513,-6.8509e-05,0.016518,0.3824,0.02386,0.049056,3.8089e-06,0.68,0.9,0
0.034371,-0.0077227,0.055148,-6.6551e-05,0.016524,0.0003579,0,0,0.050211,-0.021568,0,0.00093055,0,0,0,0.05515,-6.8871e-05,0.016524,0.37137,0.023869,0.049074,3.813e-06,0.69,0.9,0
0.034874,-0.0077308,0.055168,-6.6962e-05,0.01653,0.00034723,0,0,0.050229,-0.021576,0,0.00090279,0,0,0,0.05517,-6.9144e-05,0.01653,0.36016,0.023877,0.049091,3.8171e-06,0.7,0.9,0
0.035376,-0.0077384,0.055187,-6.7291e-05,0.016536,0.00033638,0,0,0.050247,-0.021584,0,0.0008746,0,0,0,0.055189,-6.9339e-05,0.016536,0.34879,0.023885,0.049109,3.8212e-06,0.71,0.9,0
0.035879,-0.0077455,0.055206,-6.7548e-05,0.016542,0.0003254,0,0,0.050264,-0.021592,0,0.00084603,0,0,0,0.055208,-6.9464e-05,0.016542,0.33728,0.023893,0.049126,3.8251e-06,0.72,0.9,0
0.036381,-0.0077522,0.055225,-6.7742e-05,0.016547,0.00031428,0,0,0.050281,-0.021599,0,0.00081713,0,0,0,0.055227,-6.9528e-05,0.016547,0.32565,0.023901,0.049142,3.8289e-06,0.73,0.9,0
0.036884,-0.0077584,0.055243,-6.7878e-05,0.016553,0.00030306,0,0,0.050298,-0.021607,0,0.00078795,0,0,0,0.055245,-6.9539e-05,0.016553,0.31392,0.023909,0.049158,3.8327e-06,0.74,0.9,0
0.037387,-0.0077641,0.055261,-6.7966e-05,0.016558,0.00029174,0,0,0.050314,-0.021614,0,0.00075853,0,0,0,0.055262,-6.9504e-05,0.016558,0.3021,0.023917,0.049174,3.8363e-06,0.75,0.9,0
0.037891,-0.0077695,0.055278,-6.8009e-05,0.016563,0.00028034,0,0,0.050329,-0.02162,0,0.00072889,0,0,0,0.055279,-6.9429e-05,0.016563,0.29021,0.023924,0.049189,3.8399e-06,0.76,0.9,0
0.038394,-0.0077746,0.055294,-6.8015e-05,0.016568,0.00026887,0,0,0.050344,-0.021627,0,0.00069907,0,0,0,0.055296,-6.9321e-05,0.016568,0.27825,0.023931,0.049203,3.8433e-06,0.77,0.9,0
0.038897,-0.0077792,0.05531,-6.7989e-05,0.016573,0.00025735,0,0,0.050359,-0.021633,0,0.0006691,0,0,0,0.055312,-6.9185e-05,0.016573,0.26625,0.023938,0.049217,3.8466e-06,0.78,0.9,0
0.039401,-0.0077836,0.055326,-6.7935e-05,0.016577,0.00024577,0,0,0.050373,-0.021639,0,0.000639,0,0,0,0.055327,-6.9026e-05,0.016577,0.2542,0.023945,0.049231,3.8498e-06,0.79,0.9,0
0.039905,-0.0077876,0.055341,-6.7858e-05,0.016582,0.00023416,0,0,0.050386,-0.021645,0,0.00060881,0,0,0,0.055342,-6.8848e-05,0.016582,0.24213,0.023952,0.049244,3.8528e-06,0.8,0.9,0
0.040409,-0.0077913,0.055355,-6.7762e-05,0.016586,0.00022251,0,0,0.050399,-0.02165,0,0.00057852,0,0,0,0.055356,-6.8655e-05,0.016586,0.23002,0.023958,0.049256,3.8558e-06,0.81,0.9,0
0.040913,-0.0077948,0.055368,-6.7651e-05,0.01659,0.00021084,0,0,0.050411,-0.021655,0,0.00054817,0,0,0,0.055369,-6.8453e-05,0.01659,0.2179,0.023964,0.049268,3.8585e-06,0.82,0.9,0
0.041417,-0.007798,0.055381,-6.7528e-05,0.016594,0.00019914,0,0,0.050423,-0.02166,0,0.00051777,0,0,0,0.055382,-6.8243e-05,0.016594,0.20577,0.023969,0.049279,3.8612e-06,0.83,0.9,0
0.041921,-0.0078009,0.055393,-6.7396e-05,0.016598,0.00018743,0,0,0.050434,-0.021665,0,0.00048733,0,0,0,0.055394,-6.8029e-05,0.016598,0.19363,0.023975,0.04929,3.8637e-06,0.84,0.9,0
0.042426,-0.0078036,0.055405,-6.7259e-05,0.016601,0.00017572,0,0,0.050445,-0.021669,0,0.00045686,0,0,0,0.055405,-6.7815e-05,0.016601,0.18149,0.02398,0.0493,3.8661e-06,0.85,0.9,0
0.04293,-0.0078061,0.055416,-6.7118e-05,0.016605,0.00016399,0,0,0.050454,-0.021673,0,0.00042638,0,0,0,0.055416,-6.7603e-05,0.016605,0.16935,0.023984,0.049309,3.8683e-06,0.86,0.9,0
0.043435,-0.0078083,0.055426,-6.6978e-05,0.016608,0.00015226,0,0,0.050464,-0.021677,0,0.00039588,0,0,0,0.055426,-6.7395e-05,0.016608,0.15721,0.023989,0.049318,3.8704e-06,0.87,0.9,0
0.043939,-0.0078103,0.055435,-6.6839e-05,0.016611,0.00014053,0,0,0.050472,-0.02168,0,0.00036538,0,0,0,0.055435,-6.7195e-05,0.016611,0.14507,0.023993,0.049326,3.8723e-06,0.88,0.9,0
0.044444,-0.0078122,0.055444,-6.6704e-05,0.016613,0.0001288,0,0,0.05048,-0.021684,0,0.00033488,0,0,0,0.055444,-6.7003e-05,0.016613,0.13294,0.023997,0.049333,3.8741e-06,0.89,0.9,0
0.044949,-0.0078139,0.055452,-6.6574e-05,0.016615,0.00011707,0,0,0.050487,-0.021687,0,0.00030439,0,0,0,0.055452,-6.6821e-05,0.016615,0.12082,0.024,0.04934,3.8758e-06,0.9,0.9,0
0.045454,-0.0078153,0.055459,-6.6452e-05,0.016618,0.00010535,0,0,0.050493,-0.021689,0,0.00027391,0,0,0,0.055459,-6.6652e-05,0.016618,0.10871,0.024003,0.049346,3.8772e-06,0.91,0.9,0
0.045959,-0.0078166,0.055465,-6.6339e-05,0.01662,9.3629e-05,0,0,0.050499,-0.021692,0,0.00024344,0,0,0,0.055465,-6.6497e-05,0.01662,0.096604,0.024006,0.049352,3.8786e-06,0.92,0.9,0
0.046464,-0.0078178,0.055471,-6.6236e-05,0.016621,8.1913e-05,0,0,0.050504,-0.021694,0,0.00021297,0,0,0,0.055471,-6.6357e-05,0.016621,0.084507,0.024009,0.049357,3.8797e-06,0.93,0.9,0
0.046969,-0.0078187,0.055476,-6.6145e-05,0.016623,7.0201e-05,0,0,0.050509,-0.021696,0,0.00018252,0,0,0,0.055476,-6.6234e-05,0.016623,0.072418,0.024011,0.049361,3.8808e-06,0.94,0.9,0
0.047474,-0.0078196,0.05548,-6.6066e-05,0.016624,5.8494e-05,0,0,0.050513,-0.021697,0,0.00015208,0,0,0,0.05548,-6.6128e-05,0.016624,0.060336,0.024013,0.049365,3.8816e-06,0.95,0.9,0
0.047979,-0.0078202,0.055483,-6.6e-05,0.016625,4.679e-05,0,0,0.050516,-0.021699,0,0.00012165,0,0,0,0.055483,-6.604e-05,0.016625,0.048261,0.024014,0.049368,3.8823e-06,0.96,0.9,0
0.048484,-0.0078207,0.055486,-6.5948e-05,0.016626,3.5089e-05,0,0,0.050518,-0.0217,0,9.1232e-05,0,0,0,0.055486,-6.597e-05,0.016626,0.036191,0.024015,0.04937,3.8829e-06,0.97,0.9,0
0.04899,-0.0078211,0.055488,-6.5911e-05,0.016627,2.3391e-05,0,0,0.05052,-0.0217,0,6.0818e-05,0,0,0,0.055488,-6.5921e-05,0.016627,0.024125,0.024016,0.049371,3.8833e-06,0.98,0.9,0
0.049495,-0.0078213,0.055489,-6.5888e-05,0.016627,1.1695e-05,0,0,0.050521,-0.021701,0,3.0408e-05,0,0,0,0.055489,-6.5891e-05,0.016627,0.012062,0.024017,0.049372,3.8835e-06,0.99,0.9,0
0.05,-0.0078214,0.05549,-6.5881e-05,0.016627,-2.7848e-06,0,0,0.050521,-0.021701,0,-7.2404e-06,0,0,0,0.05549,-6.5881e-05,0.016627,-0.002872,0.024017,0.049373,3.8836e-06,1,0.9,0
0,0,0.056884,0.024379,0.024379,-0.013022,0,0,0.042257,7.5894e-19,0,-0.033858,0,0,0,0.061457,0.019805,0.024379,-19.352,0.035214,0.039564,3.0379e-06,0,0.91,0
0.00042257,-0.00033858,0.056709,0.022093,0.023641,-0.01298,0,0,0.042989,-0.0020124,0,-0.033749,0,0,0,0.061036,0.017766,0.023641,-18.434,0.034147,0.040652,3.2089e-06,0.01,0.91,0
0.00085979,-0.00068791,0.057436,0.019958,0.023218,-0.013,0,0,0.044483,-0.004238,0,-0.0338,0,0,0,0.061504,0.015891,0.023218,-17.375,0.033538,0.042427,3.5311e-06,0.02,0.91,0
0.0013122,-0.0010434,0.058122,0.017716,0.022751,-0.012773,0,0,0.045982,-0.006546,0,-0.03321,0,0,0,0.061821,0.014017,0.022751,-16.151,0.032863,0.044091,3.8263e-06,0.03,0.91,0
0.0017794,-0.0013999,0.058715,0.015494,0.022263,-0.012306,0,0,0.047388,-0.0087996,0,-0.031997,0,0,0,0.061974,0.012235,0.022263,-14.83,0.032157,0.04556,4.0751e-06,0.04,0.91,0
0.00226,-0.0017524,0.059177,0.013397,0.021772,-0.011639,0,0,0.048627,-0.010888,0,-0.030262,0,0,0,0.061967,0.010608,0.021772,-13.476,0.031449,0.046787,4.2673e-06,0.05,0.91,0
0.0027519,-0.0020968,0.059488,0.011494,0.021295,-0.01083,0,0,0.049651,-0.01274,0,-0.028159,0,0,0,0.061818,0.0091634,0.021295,-12.146,0.030759,0.047759,4.4015e-06,0.06,0.91,0
0.003253,-0.0024299,0.059645,0.009816,0.020838,-0.0099403,0,0,0.050449,-0.014329,0,-0.025845,0,0,0,0.061555,0.0079062,0.020838,-10.875,0.0301,0.048494,4.483e-06,0.07,0.91,0
0.0037609,-0.0027494,0.059666,0.0083654,0.020409,-0.0090225,0,0,0.051033,-0.015657,0,-0.023458,0,0,0,0.061206,0.0068248,0.020409,-9.6897,0.02948,0.049022,4.5206e-06,0.08,0.91,0
0.0042737,-0.003054,0.059572,0.0071278,0.02001,-0.0081171,0,0,0.05143,-0.016747,0,-0.021105,0,0,0,0.060799,0.0059002,0.02001,-8.6,0.028903,0.04938,4.5242e-06,0.09,0.91,0
0.0047895,-0.003343,0.05939,0.0060799,0.019641,-0.0072515,0,0,0.051673,-0.017629,0,-0.018854,0,0,0,0.060359,0.0051112,0.019641,-7.6095,0.02837,0.049605,4.5032e-06,0.1,0.91,0
0.0053072,-0.0036164,0.059145,0.0051962,0.019302,-0.0064419,0,0,0.051796,-0.018338,0,-0.016749,0,0,0,0.059904,0.0044376,0.019302,-6.7157,0.027881,0.049729,4.4654e-06,0.11,0.91,0
0.0058255,-0.0038745,0.058859,0.0044516,0.018993,-0.0056963,0,0,0.051826,-0.018904,0,-0.014811,0,0,0,0.059449,0.0038616,0.018993,-5.9133,0.027435,0.049778,4.4171e-06,0.12,0.91,0
0.0063437,-0.0041178,0.05855,0.0038237,0.018712,-0.0050172,0,0,0.051789,-0.019355,0,-0.013045,0,0,0,0.059006,0.0033676,0.018712,-5.1951,0.027029,0.049773,4.3629e-06,0.13,0.91,0
0.0068612,-0.0043468,0.05823,0.0032933,0.018457,-0.0044034,0,0,0.051705,-0.019713,0,-0.011449,0,0,0,0.058581,0.0029426,0.018457,-4.5537,0.02666,0.049731,4.3062e-06,0.14,0.91,0
0.0073778,-0.0045622,0.057912,0.0028438,0.018227,-0.0038516,0,0,0.05159,-0.019998,0,-0.010014,0,0,0,0.05818,0.0025757,0.018227,-3.9816,0.026327,0.049664,4.2493e-06,0.15,0.91,0
0.007893,-0.0047649,0.0576,0.0024618,0.018018,-0.0033573,0,0,0.051456,-0.020224,0,-0.0087291,0,0,0,0.057804,0.0022581,0.018018,-3.4716,0.026027,0.049581,4.1939e-06,0.16,0.91,0
0.0084069,-0.0049556,0.057301,0.0021358,0.017831,-0.0029158,0,0,0.051311,-0.020404,0,-0.007581,0,0,0,0.057455,0.0019821,0.017831,-3.0172,0.025756,0.049489,4.1409e-06,0.17,0.91,0
0.0089193,-0.0051349,0.057017,0.0018568,0.017662,-0.002522,0,0,0.051162,-0.020547,0,-0.0065571,0,0,0,0.057133,0.0017417,0.017662,-2.6123,0.025512,0.049394,4.091e-06,0.18,0.91,0
0.0094301,-0.0053036,0.056752,0.001617,0.017511,-0.0021712,0,0,0.051013,-0.020662,0,-0.0056451,0,0,0,0.056837,0.0015317,0.017511,-2.2517,0.025293,0.049298,4.0445e-06,0.19,0.91,0
0.0099395,-0.0054623,0.056504,0.0014103,0.017374,-0.001859,0,0,0.050869,-0.020753,0,-0.0048333,0,0,0,0.056567,0.0013476,0.017374,-1.9303,0.025096,0.049204,4.0016e-06,0.2,0.91,0
0.010448,-0.0056117,0.056276,0.0012315,0.017252,-0.0015812,0,0,0.050731,-0.020827,0,-0.0041112,0,0,0,0.056321,0.0011861,0.017252,-1.6441,0.02492,0.049114,3.9622e-06,0.21,0.91,0
0.010954,-0.0057523,0.056066,0.0010764,0.017143,-0.0013342,0,0,0.0506,-0.020886,0,-0.003469,0,0,0,0.056098,0.001044,0.017143,-1.3891,0.024762,0.049029,3.9263e-06,0.22,0.91,0
0.011459,-0.0058847,0.055874,0.00094136,0.017045,-0.0011147,0,0,0.050479,-0.020934,0,-0.0028982,0,0,0,0.055897,0.00091875,0.017045,-1.162,0.02462,0.04895,3.8937e-06,0.23,0.91,0
0.011964,-0.0060094,0.0557,0.00082358,0.016957,-0.00091956,0,0,0.050366,-0.020974,0,-0.0023909,0,0,0,0.055716,0.00080817,0.016957,-0.95974,0.024494,0.048877,3.8643e-06,0.24,0.91,0
0.012467,-0.0061269,0.055543,0.00072057,0.016879,-0.00074623,0,0,0.050263,-0.021006,0,-0.0019402,0,0,0,0.055553,0.00071041,0.016879,-0.77971,0.024381,0.04881,3.8379e-06,0.25,0.91,0
0.012969,-0.0062376,0.055401,0.00063028,0.016809,-0.0005923,0,0,0.050169,-0.021033,0,-0.00154,0,0,0,0.055407,0.00062387,0.016809,-0.61952,0.02428,0.048749,3.8142e-06,0.26,0.91,0
0.01347,-0.006342,0.055273,0.00055097,0.016747,-0.00045569,0,0,0.050084,-0.021055,0,-0.0011848,0,0,0,0.055277,0.00054718,0.016747,-0.47707,0.024191,0.048695,3.7932e-06,0.27,0.91,0
0.013971,-0.0064404,0.05516,0.0004812,0.016692,-0.00033451,0,0,0.050008,-0.021074,0,-0.00086973,0,0,0,0.055162,0.00047915,0.016692,-0.35051,0.024111,0.048647,3.7745e-06,0.28,0.91,0
0.01447,-0.0065333,0.055059,0.0004197,0.016644,-0.00022712,0,0,0.04994,-0.021091,0,-0.0005905,0,0,0,0.05506,0.00041875,0.016644,-0.23815,0.024041,0.048604,3.7581e-06,0.29,0.91,0
0.014969,-0.0066209,0.05497,0.00036542,0.016601,-0.00013203,0,0,0.04988,-0.021106,0,-0.00034327,0,0,0,0.05497,0.0003651,0.016601,-0.13853,0.023979,0.048567,3.7437e-06,0.3,0.91,0
0.015468,-0.0067035,0.054892,0.00031745,0.016563,-4.794e-05,0,0,0.049828,-0.021119,0,-0.00012464,0,0,0,0.054892,0.00031741,0.016563,-0.05033,0.023924,0.048536,3.7313e-06,0.31,0.91,0
0.015966,-0.0067814,0.054824,0.000275,0.01653,2.6313e-05,0,0,0.049783,-0.021131,0,6.8414e-05,0,0,0,0.054824,0.00027499,0.01653,0.027638,0.023876,0.048509,3.7205e-06,0.32,0.91,0
0.016464,-0.006855,0.054765,0.00023741,0.016501,9.1765e-05,0,0,0.049744,-0.021142,0,0.00023859,0,0,0,0.054765,0.00023725,0.016501,0.096423,0.023834,0.048487,3.7114e-06,0.33,0.91,0
0.016961,-0.0069245,0.054715,0.00020408,0.016476,0.00014934,0,0,0.049711,-0.021153,0,0.00038827,0,0,0,0.054715,0.00020367,0.016476,0.15696,0.023798,0.048469,3.7037e-06,0.34,0.91,0
0.017458,-0.0069901,0.054672,0.00017451,0.016454,0.00019985,0,0,0.049684,-0.021163,0,0.00051961,0,0,0,0.054673,0.00017378,0.016454,0.2101,0.023767,0.048456,3.6973e-06,0.35,0.91,0
0.017955,-0.007052,0.054637,0.00014826,0.016436,0.00024403,0,0,0.049662,-0.021174,0,0.00063449,0,0,0,0.054638,0.00014716,0.016436,0.2566,0.02374,0.048446,3.6922e-06,0.36,0.91,0
0.018451,-0.0071105,0.054608,0.00012494,0.01642,0.00028254,0,0,0.049645,-0.021184,0,0.00073461,0,0,0,0.05461,0.00012347,0.01642,0.29712,0.023718,0.04844,3.6881e-06,0.37,0.91,0
0.018947,-0.0071658,0.054586,0.0001042,0.016407,0.00031596,0,0,0.049632,-0.021194,0,0.00082149,0,0,0,0.054588,0.00010237,0.016407,0.33226,0.023699,0.048437,3.6851e-06,0.38,0.91,0
0.019444,-0.0072179,0.054568,8.5771e-05,0.016396,0.0003448,0,0,0.049624,-0.021204,0,0.00089649,0,0,0,0.054571,8.3589e-05,0.016396,0.36259,0.023683,0.048437,3.6831e-06,0.39,0.91,0
0.01994,-0.0072672,0.054556,6.9374e-05,0.016388,0.00036954,0,0,0.049619,-0.021214,0,0.00096081,0,0,0,0.054559,6.6868e-05,0.016388,0.38857,0.023671,0.048439,3.6818e-06,0.4,0.91,0
0.020436,-0.0073137,0.054548,5.4785e-05,0.016381,0.00039059,0,0,0.049618,-0.021224,0,0.0010155,0,0,0,0.054551,5.1986e-05,0.016381,0.41065,0.023661,0.048444,3.6814e-06,0.41,0.91,0
0.020932,-0.0073577,0.054544,4.1802e-05,0.016376,0.00040833,0,0,0.049619,-0.021234,0,0.0010616,0,0,0,0.054547,3.8743e-05,0.016376,0.42922,0.023654,0.048452,3.6816e-06,0.42,0.91,0
0.021428,-0.0073992,0.054544,3.0246e-05,0.016372,0.00042308,0,0,0.049624,-0.021245,0,0.0011,0,0,0,0.054547,2.6963e-05,0.016372,0.44463,0.023649,0.048461,3.6825e-06,0.43,0.91,0
0.021925,-0.0074384,0.054547,1.996e-05,0.01637,0.00043515,0,0,0.04963,-0.021255,0,0.0011314,0,0,0,0.054551,1.6488e-05,0.01637,0.4572,0.023646,0.048473,3.684e-06,0.44,0.91,0
0.022421,-0.0074754,0.054554,1.0806e-05,0.016369,0.00044481,0,0,0.04964,-0.021266,0,0.0011565,0,0,0,0.054557,7.1786e-06,0.016369,0.46722,0.023645,0.048486,3.6859e-06,0.45,0.91,0
0.022918,-0.0075103,0.054563,2.6588e-06,0.01637,0.0004523,0,0,0.049651,-0.021277,0,0.001176,0,0,0,0.054566,-1.0905e-06,0.01637,0.47493,0.023645,0.048501,3.6883e-06,0.46,0.91,0
0.023414,-0.0075433,0.054574,-4.5902e-06,0.016371,0.00045783,0,0,0.049664,-0.021288,0,0.0011904,0,0,0,0.054578,-8.4305e-06,0.016371,0.48058,0.023647,0.048516,3.6912e-06,0.47,0.91,0
0.023911,-0.0075745,0.054587,-1.1038e-05,0.016373,0.00046161,0,0,0.049679,-0.021299,0,0.0012002,0,0,0,0.054591,-1.4941e-05,0.016373,0.48437,0.02365,0.048534,3.6944e-06,0.48,0.91,0
0.024408,-0.0076039,0.054603,-1.6771e-05,0.016376,0.0004638,0,0,0.049695,-0.02131,0,0.0012059,0,0,0,0.054607,-2.0709e-05,0.016376,0.48648,0.023654,0.048552,3.6979e-06,0.49,0.91,0
0.024905,-0.0076316,0.05462,-2.1866e-05,0.016379,0.00046457,0,0,0.049712,-0.021322,0,0.0012079,0,0,0,0.054624,-2.5816e-05,0.016379,0.48709,0.023659,0.048571,3.7018e-06,0.5,0.91,0
0.025402,-0.0076578,0.054638,-2.6391e-05,0.016383,0.00046406,0,0,0.049731,-0.021333,0,0.0012066,0,0,0,0.054642,-3.033e-05,0.016383,0.48635,0.023665,0.048591,3.7058e-06,0.51,0.91,0
0.025899,-0.0076825,0.054658,-3.0405e-05,0.016388,0.00046239,0,0,0.049751,-0.021344,0,0.0012022,0,0,0,0.054662,-3.4315e-05,0.016388,0.48439,0.023672,0.048612,3.7102e-06,0.52,0.91,0
0.026397,-0.0077058,0.054679,-3.3965e-05,0.016393,0.00045969,0,0,0.049771,-0.021356,0,0.0011952,0,0,0,0.054683,-3.7827e-05,0.016393,0.48134,0.023679,0.048633,3.7147e-06,0.53,0.91,0
0.026895,-0.0077278,0.054701,-3.7116e-05,0.016399,0.00045605,0,0,0.049792,-0.021367,0,0.0011857,0,0,0,0.054704,-4.0915e-05,0.016399,0.47732,0.023688,0.048655,3.7193e-06,0.54,0.91,0
0.027393,-0.0077485,0.054723,-3.9903e-05,0.016405,0.00045157,0,0,0.049814,-0.021378,0,0.0011741,0,0,0,0.054727,-4.3626e-05,0.016405,0.47241,0.023696,0.048677,3.7241e-06,0.55,0.91,0
0.027891,-0.007768,0.054746,-4.2363e-05,0.016411,0.00044634,0,0,0.049836,-0.02139,0,0.0011605,0,0,0,0.05475,-4.5999e-05,0.016411,0.46672,0.023705,0.0487,3.729e-06,0.56,0.91,0
0.02839,-0.0077864,0.05477,-4.4531e-05,0.016418,0.00044042,0,0,0.049858,-0.021401,0,0.0011451,0,0,0,0.054774,-4.8069e-05,0.016418,0.46032,0.023714,0.048722,3.734e-06,0.57,0.91,0
0.028888,-0.0078037,0.054794,-4.6437e-05,0.016424,0.00043391,0,0,0.049881,-0.021412,0,0.0011282,0,0,0,0.054798,-4.9869e-05,0.016424,0.45329,0.023724,0.048745,3.7391e-06,0.58,0.91,0
0.029387,-0.0078201,0.054819,-4.8107e-05,0.016431,0.00042684,0,0,0.049904,-0.021423,0,0.0011098,0,0,0,0.054822,-5.1428e-05,0.016431,0.4457,0.023734,0.048768,3.7442e-06,0.59,0.91,0
0.029886,-0.0078354,0.054844,-4.9568e-05,0.016438,0.00041929,0,0,0.049927,-0.021434,0,0.0010902,0,0,0,0.054847,-5.277e-05,0.016438,0.4376,0.023744,0.048791,3.7493e-06,0.6,0.91,0
0.030386,-0.0078499,0.054868,-5.0839e-05,0.016445,0.0004113,0,0,0.04995,-0.021445,0,0.0010694,0,0,0,0.054871,-5.3919e-05,0.016445,0.42906,0.023754,0.048814,3.7545e-06,0.61,0.91,0
0.030885,-0.0078635,0.054893,-5.1942e-05,0.016452,0.00040292,0,0,0.049973,-0.021456,0,0.0010476,0,0,0,0.054896,-5.4896e-05,0.016452,0.42012,0.023765,0.048837,3.7596e-06,0.62,0.91,0
0.031385,-0.0078762,0.054918,-5.2893e-05,0.01646,0.00039419,0,0,0.049996,-0.021466,0,0.0010249,0,0,0,0.054921,-5.5719e-05,0.01646,0.41083,0.023775,0.048859,3.7647e-06,0.63,0.91,0
0.031885,-0.0078883,0.054943,-5.3708e-05,0.016467,0.00038515,0,0,0.050019,-0.021476,0,0.0010014,0,0,0,0.054945,-5.6405e-05,0.016467,0.40122,0.023785,0.048882,3.7698e-06,0.64,0.91,0
0.032385,-0.0078995,0.054967,-5.4401e-05,0.016474,0.00037583,0,0,0.050041,-0.021487,0,0.00097717,0,0,0,0.05497,-5.6968e-05,0.016474,0.39134,0.023796,0.048904,3.7749e-06,0.65,0.91,0
0.032886,-0.0079101,0.054991,-5.4986e-05,0.016481,0.00036628,0,0,0.050064,-0.021497,0,0.00095232,0,0,0,0.054994,-5.7423e-05,0.016481,0.38122,0.023806,0.048925,3.7799e-06,0.66,0.91,0
0.033387,-0.0079201,0.055015,-5.5473e-05,0.016488,0.00035651,0,0,0.050086,-0.021507,0,0.00092692,0,0,0,0.055018,-5.7781e-05,0.016488,0.37089,0.023816,0.048947,3.7848e-06,0.67,0.91,0
0.033888,-0.0079294,0.055039,-5.5873e-05,0.016495,0.00034654,0,0,0.050107,-0.021516,0,0.00090101,0,0,0,0.055041,-5.8053e-05,0.016495,0.36037,0.023826,0.048968,3.7897e-06,0.68,0.91,0
0.034389,-0.0079382,0.055062,-5.6196e-05,0.016502,0.00033642,0,0,0.050128,-0.021525,0,0.00087468,0,0,0,0.055064,-5.825e-05,0.016502,0.34969,0.023836,0.048989,3.7944e-06,0.69,0.91,0
0.03489,-0.0079464,0.055085,-5.645e-05,0.016508,0.00032614,0,0,0.050149,-0.021534,0,0.00084797,0,0,0,0.055087,-5.8379e-05,0.016508,0.33887,0.023846,0.049009,3.7991e-06,0.7,0.91,0
0.035392,-0.0079541,0.055107,-5.6643e-05,0.016515,0.00031574,0,0,0.050169,-0.021543,0,0.00082093,0,0,0,0.055109,-5.845e-05,0.016515,0.32793,0.023855,0.049029,3.8037e-06,0.71,0.91,0
0.035894,-0.0079612,0.055129,-5.6781e-05,0.016522,0.00030523,0,0,0.050189,-0.021552,0,0.00079361,0,0,0,0.05513,-5.8469e-05,0.016522,0.31689,0.023865,0.049048,3.8082e-06,0.72,0.91,0
0.036396,-0.0079679,0.05515,-5.6871e-05,0.016528,0.00029463,0,0,0.050209,-0.02156,0,0.00076604,0,0,0,0.055151,-5.8444e-05,0.016528,0.30577,0.023874,0.049066,3.8125e-06,0.73,0.91,0
0.036898,-0.0079742,0.05517,-5.692e-05,0.016534,0.00028395,0,0,0.050227,-0.021568,0,0.00073827,0,0,0,0.055172,-5.838e-05,0.016534,0.29457,0.023883,0.049085,3.8168e-06,0.74,0.91,0
0.0374,-0.0079801,0.055191,-5.6932e-05,0.01654,0.0002732,0,0,0.050245,-0.021576,0,0.00071032,0,0,0,0.055192,-5.8283e-05,0.01654,0.28332,0.023891,0.049102,3.8209e-06,0.75,0.91,0
0.037903,-0.0079855,0.05521,-5.6912e-05,0.016546,0.0002624,0,0,0.050263,-0.021584,0,0.00068223,0,0,0,0.055211,-5.8158e-05,0.016546,0.27202,0.0239,0.049119,3.8249e-06,0.76,0.91,0
0.038406,-0.0079907,0.055228,-5.6865e-05,0.016552,0.00025154,0,0,0.05028,-0.021591,0,0.00065401,0,0,0,0.05523,-5.801e-05,0.016552,0.26069,0.023908,0.049135,3.8287e-06,0.77,0.91,0
0.038908,-0.0079954,0.055246,-5.6795e-05,0.016557,0.00024066,0,0,0.050296,-0.021598,0,0.0006257,0,0,0,0.055247,-5.7842e-05,0.016557,0.24932,0.023915,0.049151,3.8324e-06,0.78,0.91,0
0.039411,-0.0079998,0.055264,-5.6705e-05,0.016562,0.00022974,0,0,0.050312,-0.021604,0,0.00059732,0,0,0,0.055265,-5.7659e-05,0.016562,0.23794,0.023923,0.049166,3.836e-06,0.79,0.91,0
0.039915,-0.0080039,0.05528,-5.66e-05,0.016567,0.0002188,0,0,0.050327,-0.021611,0,0.00056887,0,0,0,0.055281,-5.7465e-05,0.016567,0.22654,0.02393,0.049181,3.8394e-06,0.8,0.91,0
0.040418,-0.0080077,0.055296,-5.6482e-05,0.016572,0.00020784,0,0,0.050341,-0.021617,0,0.00054038,0,0,0,0.055297,-5.7262e-05,0.016572,0.21513,0.023937,0.049195,3.8427e-06,0.81,0.91,0
0.040921,-0.0080112,0.055311,-5.6354e-05,0.016577,0.00019687,0,0,0.050355,-0.021623,0,0.00051187,0,0,0,0.055312,-5.7054e-05,0.016577,0.20372,0.023944,0.049208,3.8458e-06,0.82,0.91,0
0.041425,-0.0080144,0.055326,-5.622e-05,0.016581,0.0001859,0,0,0.050368,-0.021628,0,0.00048333,0,0,0,0.055326,-5.6844e-05,0.016581,0.19232,0.02395,0.049221,3.8488e-06,0.83,0.91,0
0.041929,-0.0080174,0.055339,-5.608e-05,0.016585,0.00017492,0,0,0.050381,-0.021633,0,0.00045478,0,0,0,0.05534,-5.6633e-05,0.016585,0.18091,0.023956,0.049232,3.8516e-06,0.84,0.91,0
0.042433,-0.0080201,0.055352,-5.5939e-05,0.016589,0.00016394,0,0,0.050392,-0.021638,0,0.00042624,0,0,0,0.055352,-5.6424e-05,0.016589,0.16952,0.023962,0.049243,3.8542e-06,0.85,0.91,0
0.042937,-0.0080226,0.055364,-5.5798e-05,0.016592,0.00015296,0,0,0.050403,-0.021643,0,0.0003977,0,0,0,0.055364,-5.622e-05,0.016592,0.15814,0.023967,0.049254,3.8567e-06,0.86,0.91,0
0.043441,-0.0080249,0.055375,-5.5658e-05,0.016596,0.00014199,0,0,0.050413,-0.021647,0,0.00036917,0,0,0,0.055376,-5.6022e-05,0.016596,0.14677,0.023972,0.049264,3.859e-06,0.87,0.91,0
0.043945,-0.008027,0.055386,-5.5522e-05,0.016599,0.00013102,0,0,0.050423,-0.021651,0,0.00034066,0,0,0,0.055386,-5.5832e-05,0.016599,0.1354,0.023976,0.049273,3.8611e-06,0.88,0.91,0
0.044449,-0.0080289,0.055395,-5.5391e-05,0.016602,0.00012006,0,0,0.050431,-0.021655,0,0.00031217,0,0,0,0.055396,-5.5651e-05,0.016602,0.12406,0.023981,0.049281,3.8631e-06,0.89,0.91,0
0.044954,-0.0080306,0.055404,-5.5267e-05,0.016605,0.00010911,0,0,0.050439,-0.021658,0,0.0002837,0,0,0,0.055404,-5.5482e-05,0.016605,0.11273,0.023984,0.049289,3.8649e-06,0.9,0.91,0
0.045458,-0.0080321,0.055412,-5.5151e-05,0.016607,9.8172e-05,0,0,0.050446,-0.021661,0,0.00025525,0,0,0,0.055412,-5.5325e-05,0.016607,0.10141,0.023988,0.049296,3.8666e-06,0.91,0.91,0
0.045963,-0.0080334,0.055419,-5.5044e-05,0.016609,8.7239e-05,0,0,0.050453,-0.021663,0,0.00022682,0,0,0,0.055419,-5.5181e-05,0.016609,0.090103,0.023991,0.049302,3.8681e-06,0.92,0.91,0
0.046467,-0.0080346,0.055425,-5.4947e-05,0.016611,7.6313e-05,0,0,0.050459,-0.021666,0,0.00019841,0,0,0,0.055426,-5.5052e-05,0.016611,0.07881,0.023994,0.049307,3.8693e-06,0.93,0.91,0
0.046972,-0.0080356,0.055431,-5.4861e-05,0.016613,6.5395e-05,0,0,0.050463,-0.021668,0,0.00017003,0,0,0,0.055431,-5.4938e-05,0.016613,0.067529,0.023996,0.049312,3.8705e-06,0.94,0.91,0
0.047476,-0.0080364,0.055435,-5.4787e-05,0.016614,5.4485e-05,0,0,0.050468,-0.02167,0,0.00014166,0,0,0,0.055435,-5.4841e-05,0.016614,0.056257,0.023998,0.049316,3.8714e-06,0.95,0.91,0
0.047981,-0.0080371,0.055439,-5.4726e-05,0.016615,4.358e-05,0,0,0.050471,-0.021671,0,0.00011331,0,0,0,0.055439,-5.476e-05,0.016615,0.044995,0.024,0.049319,3.8722e-06,0.96,0.91,0
0.048486,-0.0080376,0.055442,-5.4678e-05,0.016616,3.268e-05,0,0,0.050474,-0.021672,0,8.4969e-05,0,0,0,0.055442,-5.4697e-05,0.016616,0.03374,0.024001,0.049322,3.8728e-06,0.97,0.91,0
0.04899,-0.008038,0.055444,-5.4643e-05,0.016617,2.1785e-05,0,0,0.050476,-0.021673,0,5.664e-05,0,0,0,0.055444,-5.4652e-05,0.016617,0.02249,0.024002,0.049324,3.8733e-06,0.98,0.91,0
0.049495,-0.0080382,0.055446,-5.4622e-05,0.016617,1.0892e-05,0,0,0.050477,-0.021673,0,2.8318e-05,0,0,0,0.055446,-5.4624e-05,0.016617,0.011244,0.024003,0.049325,3.8735e-06,0.99,0.91,0
0.05,-0.0080383,0.055446,-5.4615e-05,0.016617,-2.8424e-06,0,0,0.050477,-0.021674,0,-7.3904e-06,0,0,0,0.055446,-5.4615e-05,0.016617,-0.0029344,0.024003,0.049325,3.8736e-06,1,0.91,0
0,0,0.057848,0.024792,0.024792,-0.013834,0,0,0.042973,-6.5052e-19,0,-0.035968,0,0,0,0.062873,0.019766,0.024792,-19.965,0.035811,0.040827,3.3172e-06,0,0.92,0
0.00042973,-0.00035968,0.057654,0.022249,0.023971,-0.013774,0,0,0.043789,-0.0022389,0,-0.035813,0,0,0,0.062382,0.017521,0.023971,-18.943,0.034625,0.042009,3.5069e-06,0.01,0.92,0
0.00087577,-0.00073251,0.05844,0.019821,0.023478,-0.013775,0,0,0.04545,-0.0047549,0,-0.035816,0,0,0,0.06285,0.015411,0.023478,-17.752,0.033913,0.043964,3.8736e-06,0.02,0.92,0
0.0013387,-0.0011123,0.05916,0.017276,0.022931,-0.013454,0,0,0.047098,-0.0073517,0,-0.034981,0,0,0,0.06311,0.013326,0.022931,-16.359,0.033122,0.045744,4.1948e-06,0.03,0.92,0
0.0018177,-0.0014924,0.059747,0.014798,0.022364,-0.012833,0,0,0.048599,-0.0098351,0,-0.033367,0,0,0,0.063153,0.011392,0.022364,-14.864,0.032303,0.047241,4.4457e-06,0.04,0.92,0
0.0023107,-0.0018666,0.060154,0.012523,0.021803,-0.011982,0,0,0.049856,-0.012064,0,-0.031154,0,0,0,0.062998,0.009679,0.021803,-13.354,0.031494,0.04841,4.6176e-06,0.05,0.92,0
0.0028148,-0.0022299,0.060365,0.010524,0.021267,-0.010989,0,0,0.050828,-0.013966,0,-0.028571,0,0,0,0.06268,0.0082085,0.021267,-11.898,0.030718,0.049258,4.715e-06,0.06,0.92,0
0.0033273,-0.0025788,0.060392,0.0088167,0.020763,-0.0099359,0,0,0.051518,-0.01553,0,-0.025833,0,0,0,0.06224,0.0069687,0.020763,-10.536,0.02999,0.049827,4.7503e-06,0.07,0.92,0
0.0038452,-0.0029113,0.060265,0.0073859,0.020295,-0.0088871,0,0,0.051961,-0.016782,0,-0.023106,0,0,0,0.061719,0.0059322,0.020295,-9.2895,0.029315,0.050171,4.7388e-06,0.08,0.92,0
0.0043665,-0.0032264,0.060021,0.0061987,0.019866,-0.0078848,0,0,0.052202,-0.017767,0,-0.0205,0,0,0,0.061153,0.0050675,0.019866,-8.165,0.028695,0.050345,4.6949e-06,0.09,0.92,0
0.0048893,-0.0035238,0.059698,0.0052182,0.019475,-0.0069531,0,0,0.05229,-0.018534,0,-0.018078,0,0,0,0.060571,0.0043448,0.019475,-7.1597,0.02813,0.050394,4.6307e-06,0.1,0.92,0
0.0054123,-0.0038038,0.059324,0.0044088,0.01912,-0.0061031,0,0,0.052266,-0.019124,0,-0.015868,0,0,0,0.059994,0.0037387,0.01912,-6.2658,0.027618,0.050359,4.5552e-06,0.11,0.92,0
0.0059346,-0.004067,0.058926,0.0037395,0.0188,-0.0053372,0,0,0.052164,-0.019578,0,-0.013877,0,0,0,0.059437,0.0032281,0.0188,-5.4736,0.027155,0.050266,4.4749e-06,0.12,0.92,0
0.0064556,-0.0043143,0.058521,0.0031843,0.018512,-0.0046526,0,0,0.052012,-0.019925,0,-0.012097,0,0,0,0.058909,0.0027958,0.018512,-4.7727,0.026739,0.050138,4.394e-06,0.13,0.92,0
0.0069748,-0.0045464,0.058122,0.0027217,0.018253,-0.0040438,0,0,0.05183,-0.020191,0,-0.010514,0,0,0,0.058416,0.0024281,0.018253,-4.1529,0.026366,0.04999,4.3154e-06,0.14,0.92,0
0.0074921,-0.0047643,0.057738,0.0023345,0.018022,-0.0035044,0,0,0.051631,-0.020393,0,-0.0091114,0,0,0,0.057959,0.0021137,0.018022,-3.6049,0.026031,0.049833,4.2408e-06,0.15,0.92,0
0.0080074,-0.0049689,0.057374,0.0020088,0.017815,-0.0030272,0,0,0.051427,-0.020548,0,-0.0078707,0,0,0,0.057539,0.0018438,0.017815,-3.1204,0.025732,0.049674,4.1712e-06,0.16,0.92,0
0.0085207,-0.005161,0.057033,0.0017335,0.01763,-0.0026056,0,0,0.051224,-0.020665,0,-0.0067746,0,0,0,0.057155,0.001611,0.01763,-2.6917,0.025465,0.049518,4.1069e-06,0.17,0.92,0
0.0090319,-0.0053415,0.056717,0.0014997,0.017465,-0.0022333,0,0,0.051028,-0.020755,0,-0.0058066,0,0,0,0.056807,0.0014096,0.017465,-2.3123,0.025227,0.049369,4.0482e-06,0.18,0.92,0
0.0095412,-0.0055111,0.056427,0.0013003,0.017318,-0.0019046,0,0,0.050841,-0.020823,0,-0.0049519,0,0,0,0.056493,0.0012346,0.017318,-1.9764,0.025015,0.049228,3.9948e-06,0.19,0.92,0
0.010049,-0.0056705,0.056162,0.0011294,0.017187,-0.0016143,0,0,0.050667,-0.020875,0,-0.0041972,0,0,0,0.056209,0.0010821,0.017187,-1.6788,0.024826,0.049097,3.9466e-06,0.2,0.92,0
0.010555,-0.0058205,0.05592,0.00098237,0.017071,-0.0013579,0,0,0.050505,-0.020915,0,-0.0035306,0,0,0,0.055954,0.00094882,0.017071,-1.4151,0.024658,0.048976,3.9033e-06,0.21,0.92,0
0.011059,-0.0059615,0.055703,0.00085544,0.016967,-0.0011315,0,0,0.050356,-0.020946,0,-0.0029419,0,0,0,0.055726,0.00083211,0.016967,-1.1813,0.024508,0.048867,3.8646e-06,0.22,0.92,0
0.011562,-0.0060943,0.055507,0.00074548,0.016876,-0.00093144,0,0,0.05022,-0.020969,0,-0.0024217,0,0,0,0.055522,0.00072964,0.016876,-0.97418,0.024376,0.048767,3.8301e-06,0.23,0.92,0
0.012063,-0.0062193,0.055331,0.00064993,0.016794,-0.0007547,0,0,0.050098,-0.020988,0,-0.0019622,0,0,0,0.055341,0.00063952,0.016794,-0.79059,0.024258,0.048678,3.7995e-06,0.24,0.92,0
0.012564,-0.006337,0.055174,0.00056667,0.016722,-0.00059857,0,0,0.049988,-0.021002,0,-0.0015563,0,0,0,0.055181,0.00056011,0.016722,-0.62793,0.024154,0.048599,3.7724e-06,0.25,0.92,0
0.013063,-0.0064479,0.055036,0.00049393,0.016659,-0.00046065,0,0,0.04989,-0.021014,0,-0.0011977,0,0,0,0.055039,0.00049004,0.016659,-0.48387,0.024063,0.048529,3.7486e-06,0.26,0.92,0
0.013561,-0.0065525,0.054913,0.00043024,0.016603,-0.00033889,0,0,0.049803,-0.021025,0,-0.00088112,0,0,0,0.054915,0.00042813,0.016603,-0.35637,0.023982,0.048468,3.7277e-06,0.27,0.92,0
0.014059,-0.006651,0.054805,0.00037436,0.016554,-0.00023144,0,0,0.049727,-0.021033,0,-0.00060175,0,0,0,0.054806,0.00037338,0.016554,-0.24362,0.023911,0.048415,3.7096e-06,0.28,0.92,0
0.014556,-0.006744,0.054711,0.00032525,0.016511,-0.00013671,0,0,0.04966,-0.021041,0,-0.00035543,0,0,0,0.054712,0.00032491,0.016511,-0.14402,0.023849,0.048369,3.694e-06,0.29,0.92,0
0.015052,-0.0068317,0.05463,0.00028202,0.016473,-5.3259e-05,0,0,0.049603,-0.021049,0,-0.00013847,0,0,0,0.05463,0.00028197,0.016473,-0.056148,0.023795,0.048331,3.6806e-06,0.3,0.92,0
0.015548,-0.0069144,0.05456,0.0002439,0.016441,2.0143e-05,0,0,0.049554,-0.021056,0,5.2371e-05,0,0,0,0.05456,0.0002439,0.016441,0.021248,0.023748,0.048299,3.6692e-06,0.31,0.92,0
0.016043,-0.0069925,0.054501,0.00021026,0.016413,8.4602e-05,0,0,0.049514,-0.021064,0,0.00021997,0,0,0,0.054501,0.00021013,0.016413,0.089286,0.023708,0.048273,3.6597e-06,0.32,0.92,0
0.016538,-0.0070662,0.054451,0.00018053,0.016389,0.00014109,0,0,0.04948,-0.021071,0,0.00036684,0,0,0,0.054451,0.00018017,0.016389,0.14896,0.023674,0.048253,3.6519e-06,0.33,0.92,0
0.017033,-0.0071357,0.05441,0.00015424,0.016369,0.00019048,0,0,0.049453,-0.021079,0,0.00049525,0,0,0,0.05441,0.00015357,0.016369,0.20115,0.023644,0.048238,3.6456e-06,0.34,0.92,0
0.017527,-0.0072014,0.054376,0.00013097,0.016352,0.00023353,0,0,0.049431,-0.021088,0,0.00060717,0,0,0,0.054377,0.00012996,0.016352,0.24665,0.02362,0.048228,3.6407e-06,0.35,0.92,0
0.018022,-0.0072634,0.05435,0.00011035,0.016338,0.00027091,0,0,0.049416,-0.021096,0,0.00070436,0,0,0,0.054352,0.000109,0.016338,0.28616,0.0236,0.048222,3.6371e-06,0.36,0.92,0
0.018516,-0.007322,0.054331,9.2076e-05,0.016327,0.00030323,0,0,0.049405,-0.021105,0,0.0007884,0,0,0,0.054332,9.0381e-05,0.016327,0.32031,0.023583,0.04822,3.6346e-06,0.37,0.92,0
0.01901,-0.0073773,0.054317,7.5872e-05,0.016318,0.00033103,0,0,0.049399,-0.021115,0,0.00086068,0,0,0,0.054319,7.3852e-05,0.016318,0.34965,0.02357,0.048221,3.6331e-06,0.38,0.92,0
0.019504,-0.0074296,0.054309,6.1498e-05,0.016311,0.00035478,0,0,0.049397,-0.021125,0,0.00092243,0,0,0,0.054311,5.9178e-05,0.016311,0.3747,0.023561,0.048226,3.6325e-06,0.39,0.92,0
0.019998,-0.007479,0.054305,4.8742e-05,0.016306,0.00037491,0,0,0.049399,-0.021135,0,0.00097477,0,0,0,0.054308,4.6152e-05,0.016306,0.39589,0.023553,0.048233,3.6328e-06,0.4,0.92,0
0.020492,-0.0075256,0.054306,3.7421e-05,0.016303,0.0003918,0,0,0.049404,-0.021145,0,0.0010187,0,0,0,0.054309,3.4593e-05,0.016303,0.41362,0.023549,0.048243,3.6338e-06,0.41,0.92,0
0.020986,-0.0075696,0.054311,2.7372e-05,0.016302,0.00040578,0,0,0.049412,-0.021156,0,0.001055,0,0,0,0.054314,2.4339e-05,0.016302,0.42826,0.023547,0.048256,3.6356e-06,0.42,0.92,0
0.02148,-0.0076112,0.054319,1.8452e-05,0.016301,0.00041715,0,0,0.049423,-0.021168,0,0.0010846,0,0,0,0.054322,1.5247e-05,0.016301,0.44013,0.023546,0.048271,3.6379e-06,0.43,0.92,0
0.021974,-0.0076505,0.05433,1.0533e-05,0.016302,0.0004262,0,0,0.049437,-0.021179,0,0.0011081,0,0,0,0.054334,7.1894e-06,0.016302,0.44951,0.023548,0.048287,3.6408e-06,0.44,0.92,0
0.022469,-0.0076877,0.054344,3.5056e-06,0.016304,0.00043315,0,0,0.049452,-0.021191,0,0.0011262,0,0,0,0.054348,5.3137e-08,0.016304,0.45667,0.023551,0.048305,3.6441e-06,0.45,0.92,0
0.022963,-0.0077227,0.054361,-2.73e-06,0.016307,0.00043823,0,0,0.049469,-0.021203,0,0.0011394,0,0,0,0.054364,-6.2624e-06,0.016307,0.46183,0.023555,0.048325,3.6479e-06,0.46,0.92,0
0.023458,-0.0077558,0.054379,-8.261e-06,0.016311,0.00044163,0,0,0.049489,-0.021216,0,0.0011482,0,0,0,0.054383,-1.1847e-05,0.016311,0.4652,0.023561,0.048346,3.6521e-06,0.47,0.92,0
0.023953,-0.0077871,0.0544,-1.3165e-05,0.016316,0.00044352,0,0,0.049509,-0.021228,0,0.0011531,0,0,0,0.054404,-1.678e-05,0.016316,0.46697,0.023568,0.048369,3.6566e-06,0.48,0.92,0
0.024448,-0.0078166,0.054422,-1.751e-05,0.016321,0.00044406,0,0,0.049531,-0.021241,0,0.0011546,0,0,0,0.054426,-2.1132e-05,0.016321,0.46731,0.023575,0.048392,3.6614e-06,0.49,0.92,0
0.024944,-0.0078445,0.054446,-2.1357e-05,0.016327,0.00044338,0,0,0.049554,-0.021253,0,0.0011528,0,0,0,0.05445,-2.4966e-05,0.016327,0.46637,0.023584,0.048416,3.6665e-06,0.5,0.92,0
0.025439,-0.0078708,0.054471,-2.476e-05,0.016334,0.00044162,0,0,0.049578,-0.021266,0,0.0011482,0,0,0,0.054475,-2.8339e-05,0.016334,0.46427,0.023593,0.048441,3.6717e-06,0.51,0.92,0
0.025935,-0.0078956,0.054497,-2.7768e-05,0.016341,0.00043889,0,0,0.049603,-0.021279,0,0.0011411,0,0,0,0.054501,-3.1301e-05,0.016341,0.46115,0.023603,0.048466,3.6772e-06,0.52,0.92,0
0.026431,-0.007919,0.054524,-3.0423e-05,0.016348,0.00043528,0,0,0.049629,-0.021292,0,0.0011317,0,0,0,0.054527,-3.3896e-05,0.016348,0.45711,0.023614,0.048492,3.6828e-06,0.53,0.92,0
0.026928,-0.0079411,0.054551,-3.2762e-05,0.016356,0.00043089,0,0,0.049655,-0.021305,0,0.0011203,0,0,0,0.054555,-3.6163e-05,0.016356,0.45226,0.023625,0.048518,3.6886e-06,0.54,0.92,0
0.027424,-0.007962,0.05458,-3.482e-05,0.016363,0.0004258,0,0,0.049681,-0.021318,0,0.0011071,0,0,0,0.054583,-3.814e-05,0.016363,0.44667,0.023636,0.048545,3.6944e-06,0.55,0.92,0
0.027921,-0.0079816,0.054608,-3.6627e-05,0.016372,0.00042009,0,0,0.049708,-0.02133,0,0.0010922,0,0,0,0.054612,-3.9856e-05,0.016372,0.44043,0.023648,0.048572,3.7003e-06,0.56,0.92,0
0.028418,-0.0080001,0.054637,-3.8209e-05,0.01638,0.00041382,0,0,0.049735,-0.021343,0,0.0010759,0,0,0,0.05464,-4.1341e-05,0.01638,0.43362,0.023659,0.048598,3.7063e-06,0.57,0.92,0
0.028916,-0.0080176,0.054666,-3.959e-05,0.016388,0.00040704,0,0,0.049762,-0.021356,0,0.0010583,0,0,0,0.054669,-4.2619e-05,0.016388,0.42628,0.023672,0.048625,3.7123e-06,0.58,0.92,0
0.029414,-0.008034,0.054696,-4.0792e-05,0.016396,0.00039983,0,0,0.049789,-0.021368,0,0.0010395,0,0,0,0.054698,-4.3713e-05,0.016396,0.41849,0.023684,0.048652,3.7183e-06,0.59,0.92,0
0.029912,-0.0080495,0.054725,-4.1834e-05,0.016405,0.00039222,0,0,0.049816,-0.021381,0,0.0010198,0,0,0,0.054728,-4.4643e-05,0.016405,0.4103,0.023696,0.048679,3.7243e-06,0.6,0.92,0
0.03041,-0.008064,0.054754,-4.2732e-05,0.016413,0.00038425,0,0,0.049843,-0.021393,0,0.00099905,0,0,0,0.054757,-4.5427e-05,0.016413,0.40175,0.023708,0.048705,3.7303e-06,0.61,0.92,0
0.030909,-0.0080778,0.054783,-4.3503e-05,0.016422,0.00037597,0,0,0.04987,-0.021405,0,0.00097753,0,0,0,0.054786,-4.6081e-05,0.016422,0.39288,0.02372,0.048731,3.7363e-06,0.62,0.92,0
0.031407,-0.0080907,0.054812,-4.4159e-05,0.01643,0.00036742,0,0,0.049896,-0.021417,0,0.00095529,0,0,0,0.054815,-4.6619e-05,0.01643,0.38374,0.023733,0.048757,3.7422e-06,0.63,0.92,0
0.031907,-0.0081028,0.054841,-4.4712e-05,0.016439,0.00035862,0,0,0.049922,-0.021428,0,0.00093242,0,0,0,0.054843,-4.7055e-05,0.016439,0.37435,0.023745,0.048783,3.7481e-06,0.64,0.92,0
0.032406,-0.0081142,0.054869,-4.5174e-05,0.016447,0.00034961,0,0,0.049948,-0.02144,0,0.00090899,0,0,0,0.054871,-4.74e-05,0.016447,0.36476,0.023757,0.048808,3.7539e-06,0.65,0.92,0
0.032906,-0.0081249,0.054897,-4.5555e-05,0.016455,0.00034041,0,0,0.049974,-0.021451,0,0.00088507,0,0,0,0.054899,-4.7664e-05,0.016455,0.35498,0.023769,0.048833,3.7596e-06,0.66,0.92,0
0.033405,-0.0081349,0.054924,-4.5864e-05,0.016463,0.00033105,0,0,0.049999,-0.021462,0,0.00086072,0,0,0,0.054926,-4.7858e-05,0.016463,0.34504,0.02378,0.048857,3.7652e-06,0.67,0.92,0
0.033905,-0.0081444,0.054951,-4.6108e-05,0.016471,0.00032154,0,0,0.050023,-0.021473,0,0.000836,0,0,0,0.054953,-4.7988e-05,0.016471,0.33496,0.023792,0.048881,3.7707e-06,0.68,0.92,0
0.034406,-0.0081532,0.054977,-4.6294e-05,0.016479,0.00031191,0,0,0.050047,-0.021483,0,0.00081096,0,0,0,0.054979,-4.8063e-05,0.016479,0.32477,0.023803,0.048905,3.7761e-06,0.69,0.92,0
0.034907,-0.0081615,0.055003,-4.643e-05,0.016487,0.00030217,0,0,0.050071,-0.021493,0,0.00078564,0,0,0,0.055004,-4.8089e-05,0.016487,0.31449,0.023814,0.048927,3.7814e-06,0.7,0.92,0
0.035407,-0.0081693,0.055028,-4.6521e-05,0.016494,0.00029234,0,0,0.050093,-0.021503,0,0.00076009,0,0,0,0.055029,-4.8073e-05,0.016494,0.30412,0.023825,0.04895,3.7865e-06,0.71,0.92,0
0.035908,-0.0081766,0.055052,-4.6573e-05,0.016502,0.00028243,0,0,0.050116,-0.021513,0,0.00073433,0,0,0,0.055054,-4.8021e-05,0.016502,0.29369,0.023836,0.048971,3.7915e-06,0.72,0.92,0
0.03641,-0.0081834,0.055076,-4.6591e-05,0.016509,0.00027247,0,0,0.050137,-0.021522,0,0.00070841,0,0,0,0.055078,-4.7937e-05,0.016509,0.2832,0.023846,0.048992,3.7964e-06,0.73,0.92,0
0.036911,-0.0081897,0.055099,-4.6578e-05,0.016516,0.00026244,0,0,0.050158,-0.021531,0,0.00068236,0,0,0,0.0551,-4.7827e-05,0.016516,0.27267,0.023856,0.049013,3.8012e-06,0.74,0.92,0
0.037413,-0.0081957,0.055121,-4.6539e-05,0.016522,0.00025238,0,0,0.050179,-0.02154,0,0.00065619,0,0,0,0.055123,-4.7694e-05,0.016522,0.26211,0.023866,0.049032,3.8058e-06,0.75,0.92,0
0.037915,-0.0082012,0.055143,-4.6478e-05,0.016529,0.00024228,0,0,0.050198,-0.021548,0,0.00062993,0,0,0,0.055144,-4.7542e-05,0.016529,0.25152,0.023875,0.049051,3.8102e-06,0.76,0.92,0
0.038417,-0.0082064,0.055164,-4.6398e-05,0.016535,0.00023216,0,0,0.050217,-0.021556,0,0.00060361,0,0,0,0.055165,-4.7375e-05,0.016535,0.24092,0.023884,0.04907,3.8145e-06,0.77,0.92,0
0.038919,-0.0082112,0.055184,-4.6303e-05,0.016541,0.00022201,0,0,0.050235,-0.021564,0,0.00057723,0,0,0,0.055185,-4.7195e-05,0.016541,0.23031,0.023893,0.049087,3.8186e-06,0.78,0.92,0
0.039421,-0.0082157,0.055203,-4.6195e-05,0.016547,0.00021186,0,0,0.050253,-0.021571,0,0.00055083,0,0,0,0.055204,-4.7007e-05,0.016547,0.2197,0.023901,0.049104,3.8226e-06,0.79,0.92,0
0.039924,-0.0082198,0.055221,-4.6076e-05,0.016553,0.00020169,0,0,0.05027,-0.021578,0,0.0005244,0,0,0,0.055222,-4.6812e-05,0.016553,0.20909,0.023909,0.04912,3.8264e-06,0.8,0.92,0
0.040427,-0.0082237,0.055239,-4.595e-05,0.016558,0.00019153,0,0,0.050285,-0.021585,0,0.00049797,0,0,0,0.05524,-4.6614e-05,0.016558,0.19849,0.023917,0.049135,3.83e-06,0.81,0.92,0
0.04093,-0.0082272,0.055256,-4.5819e-05,0.016563,0.00018136,0,0,0.050301,-0.021591,0,0.00047153,0,0,0,0.055256,-4.6413e-05,0.016563,0.1879,0.023924,0.04915,3.8334e-06,0.82,0.92,0
0.041433,-0.0082305,0.055272,-4.5684e-05,0.016568,0.0001712,0,0,0.050315,-0.021597,0,0.00044511,0,0,0,0.055272,-4.6213e-05,0.016568,0.17732,0.023931,0.049164,3.8367e-06,0.83,0.92,0
0.041936,-0.0082336,0.055287,-4.5547e-05,0.016572,0.00016104,0,0,0.050329,-0.021603,0,0.00041871,0,0,0,0.055287,-4.6016e-05,0.016572,0.16675,0.023938,0.049177,3.8398e-06,0.84,0.92,0
0.042439,-0.0082364,0.055301,-4.5411e-05,0.016577,0.00015089,0,0,0.050341,-0.021609,0,0.00039232,0,0,0,0.055301,-4.5822e-05,0.016577,0.15621,0.023944,0.049189,3.8427e-06,0.85,0.92,0
0.042943,-0.0082389,0.055314,-4.5276e-05,0.016581,0.00014076,0,0,0.050353,-0.021614,0,0.00036597,0,0,0,0.055314,-4.5634e-05,0.016581,0.14568,0.02395,0.049201,3.8454e-06,0.86,0.92,0
0.043446,-0.0082413,0.055326,-4.5145e-05,0.016584,0.00013063,0,0,0.050365,-0.021618,0,0.00033964,0,0,0,0.055327,-4.5453e-05,0.016584,0.13517,0.023955,0.049212,3.848e-06,0.87,0.92,0
0.04395,-0.0082434,0.055338,-4.5018e-05,0.016588,0.00012052,0,0,0.050375,-0.021623,0,0.00031335,0,0,0,0.055338,-4.528e-05,0.016588,0.12468,0.02396,0.049222,3.8504e-06,0.88,0.92,0
0.044454,-0.0082453,0.055348,-4.4897e-05,0.016591,0.00011042,0,0,0.050384,-0.021627,0,0.00028709,0,0,0,0.055349,-4.5117e-05,0.016591,0.11421,0.023965,0.049231,3.8525e-06,0.89,0.92,0
0.044958,-0.008247,0.055358,-4.4783e-05,0.016594,0.00010033,0,0,0.050393,-0.02163,0,0.00026086,0,0,0,0.055358,-4.4965e-05,0.016594,0.10376,0.023969,0.049239,3.8545e-06,0.9,0.92,0
0.045462,-0.0082486,0.055367,-4.4677e-05,0.016597,9.0257e-05,0,0,0.050401,-0.021634,0,0.00023467,0,0,0,0.055367,-4.4824e-05,0.016597,0.093326,0.023973,0.049247,3.8563e-06,0.91,0.92,0
0.045966,-0.0082499,0.055375,-4.458e-05,0.016599,8.0194e-05,0,0,0.050408,-0.021637,0,0.0002085,0,0,0,0.055375,-4.4696e-05,0.016599,0.082909,0.023976,0.049254,3.858e-06,0.92,0.92,0
0.04647,-0.0082511,0.055382,-4.4492e-05,0.016601,7.0143e-05,0,0,0.050415,-0.021639,0,0.00018237,0,0,0,0.055382,-4.4581e-05,0.016601,0.072509,0.023979,0.04926,3.8594e-06,0.93,0.92,0
0.046974,-0.0082521,0.055387,-4.4415e-05,0.016603,6.0102e-05,0,0,0.05042,-0.021642,0,0.00015626,0,0,0,0.055387,-4.448e-05,0.016603,0.062122,0.023982,0.049265,3.8606e-06,0.94,0.92,0
0.047478,-0.008253,0.055392,-4.4348e-05,0.016605,5.007e-05,0,0,0.050424,-0.021643,0,0.00013018,0,0,0,0.055393,-4.4394e-05,0.016605,0.051749,0.023984,0.04927,3.8617e-06,0.95,0.92,0
0.047983,-0.0082536,0.055397,-4.4293e-05,0.016606,4.0046e-05,0,0,0.050428,-0.021645,0,0.00010412,0,0,0,0.055397,-4.4322e-05,0.016606,0.041386,0.023986,0.049273,3.8625e-06,0.96,0.92,0
0.048487,-0.0082542,0.0554,-4.425e-05,0.016607,3.0029e-05,0,0,0.050431,-0.021646,0,7.8075e-05,0,0,0,0.0554,-4.4267e-05,0.016607,0.031032,0.023987,0.049276,3.8632e-06,0.97,0.92,0
0.048991,-0.0082546,0.055402,-4.4219e-05,0.016607,2.0016e-05,0,0,0.050433,-0.021647,0,5.2043e-05,0,0,0,0.055402,-4.4226e-05,0.016607,0.020684,0.023988,0.049278,3.8637e-06,0.98,0.92,0
0.049496,-0.0082548,0.055404,-4.42e-05,0.016608,1.0007e-05,0,0,0.050435,-0.021648,0,2.6019e-05,0,0,0,0.055404,-4.4202e-05,0.016608,0.010341,0.023989,0.049279,3.864e-06,0.99,0.92,0
0.05,-0.0082549,0.055404,-4.4194e-05,0.016608,-2.9064e-06,0,0,0.050435,-0.021648,0,-7.5566e-06,0,0,0,0.055404,-4.4194e-05,0.016608,-0.0030032,0.023989,0.049279,3.8641e-06,1,0.92,0
0,0,0.05907,0.025316,0.025316,-0.014744,0,0,0.043881,-2.1684e-19,0,-0.038335,0,0,0,0.064604,0.019782,0.025316,-20.571,0.036567,0.042327,3.6712e-06,0,0.93,0
0.00043881,-0.00038335,0.058849,0.022426,0.024383,-0.014656,0,0,0.044806,-0.0025434,0,-0.038105,0,0,0,0.064014,0.017261,0.024383,-19.413,0.035219,0.04363,3.8853e-06,0.01,0.93,0
0.00089613,-0.000783,0.0597,0.019594,0.023788,-0.014616,0,0,0.046685,-0.0054521,0,-0.038003,0,0,0,0.064462,0.014833,0.023788,-18.044,0.034361,0.045812,4.309e-06,0.02,0.93,0
0.0013725,-0.0011904,0.060445,0.016655,0.02313,-0.014146,0,0,0.04851,-0.0084175,0,-0.03678,0,0,0,0.064618,0.012483,0.02313,-16.433,0.03341,0.047711,4.6551e-06,0.03,0.93,0
0.0018663,-0.0015966,0.060994,0.013877,0.022461,-0.013302,0,0,0.050093,-0.01116,0,-0.034584,0,0,0,0.06449,0.010381,0.022461,-14.725,0.032444,0.049194,4.8938e-06,0.04,0.93,0
0.0023744,-0.0019937,0.061294,0.011426,0.021816,-0.012204,0,0,0.051322,-0.013507,0,-0.031731,0,0,0,0.064121,0.0085993,0.021816,-13.04,0.031512,0.050234,5.023e-06,0.05,0.93,0
0.0028928,-0.0023762,0.061344,0.0093614,0.021212,-0.010985,0,0,0.052172,-0.015405,0,-0.028561,0,0,0,0.06357,0.0071353,0.021212,-11.456,0.030639,0.050878,5.0593e-06,0.06,0.93,0
0.0034178,-0.0027405,0.061178,0.0076697,0.020654,-0.0097511,0,0,0.052681,-0.01688,0,-0.025353,0,0,0,0.0629,0.0059481,0.020654,-10.013,0.029834,0.051208,5.027e-06,0.07,0.93,0
0.0039464,-0.003085,0.060851,0.0063026,0.020146,-0.0085721,0,0,0.052916,-0.017996,0,-0.022287,0,0,0,0.062166,0.0049873,0.020146,-8.7238,0.0291,0.051307,4.9499e-06,0.08,0.93,0
0.0044761,-0.0034093,0.060417,0.0052035,0.019686,-0.0074858,0,0,0.05295,-0.018828,0,-0.019463,0,0,0,0.061414,0.0042066,0.019686,-7.5857,0.028436,0.051252,4.8473e-06,0.09,0.93,0
0.0050054,-0.0037137,0.059923,0.0043197,0.019273,-0.0065073,0,0,0.052845,-0.019439,0,-0.016919,0,0,0,0.060675,0.0035683,0.019273,-6.5868,0.027839,0.051097,4.7331e-06,0.1,0.93,0
0.005533,-0.0039989,0.059404,0.0036066,0.018903,-0.0056383,0,0,0.052651,-0.019886,0,-0.01466,0,0,0,0.059968,0.0030426,0.018903,-5.7127,0.027305,0.050884,4.6164e-06,0.11,0.93,0
0.0060584,-0.0042661,0.058885,0.0030283,0.018574,-0.0048728,0,0,0.052404,-0.020209,0,-0.012669,0,0,0,0.059307,0.0026063,0.018574,-4.9486,0.026829,0.050641,4.5029e-06,0.12,0.93,0
0.0065811,-0.0045163,0.058382,0.0025563,0.018281,-0.0042018,0,0,0.05213,-0.020443,0,-0.010925,0,0,0,0.058696,0.0022418,0.018281,-4.2804,0.026406,0.050387,4.3957e-06,0.13,0.93,0
0.007101,-0.0047506,0.057904,0.0021685,0.018022,-0.003615,0,0,0.051847,-0.020609,0,-0.0093991,0,0,0,0.058138,0.001935,0.018022,-3.6956,0.026032,0.050134,4.2966e-06,0.14,0.93,0
0.0076181,-0.0049701,0.057459,0.0018478,0.017792,-0.0031024,0,0,0.051567,-0.020727,0,-0.0080662,0,0,0,0.057631,0.0016752,0.017792,-3.1832,0.0257,0.04989,4.2061e-06,0.15,0.93,0
0.0081323,-0.0051759,0.057048,0.0015808,0.017589,-0.0026545,0,0,0.051297,-0.02081,0,-0.0069018,0,0,0,0.057175,0.001454,0.017589,-2.7337,0.025406,0.04966,4.1243e-06,0.16,0.93,0
0.008644,-0.0053689,0.056672,0.0013571,0.017409,-0.0022631,0,0,0.051042,-0.020867,0,-0.0058841,0,0,0,0.056764,0.0012646,0.017409,-2.3389,0.025146,0.049446,4.0508e-06,0.17,0.93,0
0.0091532,-0.00555,0.056331,0.0011685,0.01725,-0.0019207,0,0,0.050805,-0.020906,0,-0.0049939,0,0,0,0.056398,0.0011017,0.01725,-1.9918,0.024916,0.049249,3.9852e-06,0.18,0.93,0
0.0096601,-0.00572,0.056023,0.0010088,0.017109,-0.001621,0,0,0.050587,-0.020931,0,-0.0042146,0,0,0,0.05607,0.00096104,0.017109,-1.6863,0.024714,0.04907,3.9269e-06,0.19,0.93,0
0.010165,-0.0058798,0.055746,0.00087267,0.016986,-0.0013583,0,0,0.050388,-0.020947,0,-0.0035317,0,0,0,0.05578,0.00083906,0.016986,-1.4172,0.024535,0.048909,3.8753e-06,0.2,0.93,0
0.010668,-0.00603,0.055498,0.00075621,0.016876,-0.001128,0,0,0.050209,-0.020956,0,-0.0029328,0,0,0,0.055522,0.00073297,0.016876,-1.18,0.024377,0.048764,3.8297e-06,0.21,0.93,0
0.011169,-0.0061712,0.055279,0.00065612,0.01678,-0.00092587,0,0,0.050048,-0.020962,0,-0.0024073,0,0,0,0.055294,0.00064043,0.01678,-0.97081,0.024238,0.048636,3.7896e-06,0.22,0.93,0
0.011669,-0.0063041,0.055084,0.00056977,0.016696,-0.00074836,0,0,0.049904,-0.020964,0,-0.0019457,0,0,0,0.055094,0.0005595,0.016696,-0.78636,0.024116,0.048522,3.7545e-06,0.23,0.93,0
0.012167,-0.0064291,0.054912,0.00049501,0.016622,-0.00059243,0,0,0.049776,-0.020965,0,-0.0015403,0,0,0,0.054918,0.00048856,0.016622,-0.62368,0.024009,0.048422,3.7238e-06,0.24,0.93,0
0.012664,-0.0065469,0.054761,0.00043009,0.016557,-0.00045543,0,0,0.049664,-0.020965,0,-0.0011841,0,0,0,0.054764,0.00042627,0.016557,-0.48024,0.023916,0.048336,3.6972e-06,0.25,0.93,0
0.013161,-0.0066579,0.054629,0.00037355,0.016501,-0.00033507,0,0,0.049567,-0.020965,0,-0.00087119,0,0,0,0.054631,0.00037148,0.016501,-0.35383,0.023834,0.048261,3.6742e-06,0.26,0.93,0
0.013656,-0.0067625,0.054515,0.00032419,0.016452,-0.00022936,0,0,0.049482,-0.020966,0,-0.00059634,0,0,0,0.054516,0.00032321,0.016452,-0.2425,0.023763,0.048197,3.6545e-06,0.27,0.93,0
0.01415,-0.0068611,0.054416,0.00028099,0.016409,-0.00013657,0,0,0.049409,-0.020967,0,-0.00035508,0,0,0,0.054417,0.00028065,0.016409,-0.14454,0.023702,0.048143,3.6377e-06,0.28,0.93,0
0.014644,-0.0069541,0.054332,0.00024313,0.016373,-5.5184e-05,0,0,0.049348,-0.020968,0,-0.00014348,0,0,0,0.054332,0.00024308,0.016373,-0.058455,0.023649,0.048098,3.6235e-06,0.29,0.93,0
0.015137,-0.0070418,0.054262,0.00020988,0.016341,1.6111e-05,0,0,0.049296,-0.020971,0,4.1887e-05,0,0,0,0.054262,0.00020988,0.016341,0.017077,0.023604,0.048061,3.6117e-06,0.3,0.93,0
0.01563,-0.0071246,0.054203,0.00018064,0.016315,7.847e-05,0,0,0.049254,-0.020975,0,0.00020402,0,0,0,0.054203,0.00018052,0.016315,0.083225,0.023566,0.048032,3.6021e-06,0.31,0.93,0
0.016122,-0.0072027,0.054154,0.00015489,0.016293,0.00013291,0,0,0.04922,-0.020979,0,0.00034556,0,0,0,0.054155,0.00015456,0.016293,0.14102,0.023534,0.04801,3.5943e-06,0.32,0.93,0
0.016614,-0.0072765,0.054115,0.00013218,0.016274,0.00018031,0,0,0.049194,-0.020985,0,0.00046882,0,0,0,0.054116,0.00013158,0.016274,0.19137,0.023507,0.047994,3.5883e-06,0.33,0.93,0
0.017106,-0.0073461,0.054086,0.00011215,0.016259,0.00022148,0,0,0.049174,-0.020991,0,0.00057584,0,0,0,0.054086,0.00011124,0.016259,0.2351,0.023486,0.047984,3.5839e-06,0.34,0.93,0
0.017598,-0.0074119,0.054063,9.445e-05,0.016247,0.00025708,0,0,0.049161,-0.020999,0,0.00066842,0,0,0,0.054065,9.3225e-05,0.016247,0.27292,0.023468,0.047979,3.5808e-06,0.35,0.93,0
0.018089,-0.007474,0.054048,7.8811e-05,0.016238,0.00028775,0,0,0.049153,-0.021007,0,0.00074815,0,0,0,0.05405,7.7277e-05,0.016238,0.30547,0.023455,0.047979,3.579e-06,0.36,0.93,0
0.018581,-0.0075326,0.054039,6.4982e-05,0.016231,0.00031402,0,0,0.04915,-0.021016,0,0.00081645,0,0,0,0.054041,6.3155e-05,0.016231,0.33333,0.023445,0.047982,3.5783e-06,0.37,0.93,0
0.019072,-0.0075881,0.054036,5.2747e-05,0.016227,0.00033636,0,0,0.049152,-0.021026,0,0.00087455,0,0,0,0.054038,5.0652e-05,0.016227,0.35698,0.023439,0.04799,3.5786e-06,0.38,0.93,0
0.019564,-0.0076404,0.054038,4.192e-05,0.016224,0.00035522,0,0,0.049158,-0.021037,0,0.00092356,0,0,0,0.05404,3.9584e-05,0.016224,0.3769,0.023435,0.048001,3.5798e-06,0.39,0.93,0
0.020055,-0.0076899,0.054045,3.2337e-05,0.016223,0.00037095,0,0,0.049168,-0.021048,0,0.00096448,0,0,0,0.054047,2.9789e-05,0.016223,0.39348,0.023433,0.048014,3.5819e-06,0.4,0.93,0
0.020547,-0.0077366,0.054055,2.3853e-05,0.016224,0.00038391,0,0,0.049181,-0.02106,0,0.00099816,0,0,0,0.054058,2.1125e-05,0.016224,0.40708,0.023434,0.048031,3.5846e-06,0.41,0.93,0
0.021039,-0.0077808,0.054069,1.6342e-05,0.016226,0.00039438,0,0,0.049197,-0.021072,0,0.0010254,0,0,0,0.054072,1.3465e-05,0.016226,0.41801,0.023437,0.04805,3.588e-06,0.42,0.93,0
0.021531,-0.0078225,0.054087,9.6931e-06,0.016229,0.00040264,0,0,0.049215,-0.021085,0,0.0010469,0,0,0,0.05409,6.6954e-06,0.016229,0.42657,0.023442,0.048071,3.592e-06,0.43,0.93,0
0.022023,-0.0078619,0.054107,3.8084e-06,0.016233,0.00040891,0,0,0.049236,-0.021098,0,0.0010632,0,0,0,0.05411,7.1794e-07,0.016233,0.43301,0.023448,0.048093,3.5964e-06,0.44,0.93,0
0.022516,-0.0078992,0.054129,-1.3985e-06,0.016238,0.00041343,0,0,0.049258,-0.021112,0,0.0010749,0,0,0,0.054133,-4.5559e-06,0.016238,0.43756,0.023455,0.048118,3.6013e-06,0.45,0.93,0
0.023009,-0.0079344,0.054154,-6.0039e-06,0.016244,0.00041636,0,0,0.049283,-0.021126,0,0.0010825,0,0,0,0.054157,-9.2045e-06,0.016244,0.44043,0.023464,0.048143,3.6066e-06,0.46,0.93,0
0.023501,-0.0079676,0.054181,-1.0075e-05,0.016251,0.00041788,0,0,0.049308,-0.02114,0,0.0010865,0,0,0,0.054184,-1.3297e-05,0.016251,0.44179,0.023474,0.04817,3.6122e-06,0.47,0.93,0
0.023995,-0.007999,0.054209,-1.3672e-05,0.016259,0.00041814,0,0,0.049336,-0.021154,0,0.0010872,0,0,0,0.054212,-1.6896e-05,0.016259,0.44181,0.023485,0.048198,3.6181e-06,0.48,0.93,0
0.024488,-0.0080287,0.054239,-1.6846e-05,0.016267,0.00041728,0,0,0.049364,-0.021168,0,0.0010849,0,0,0,0.054242,-2.0056e-05,0.016267,0.44063,0.023496,0.048227,3.6243e-06,0.49,0.93,0
0.024982,-0.0080567,0.05427,-1.9646e-05,0.016275,0.00041541,0,0,0.049393,-0.021183,0,0.0010801,0,0,0,0.054273,-2.2825e-05,0.016275,0.43839,0.023508,0.048257,3.6307e-06,0.5,0.93,0
0.025476,-0.0080831,0.054301,-2.2112e-05,0.016284,0.00041265,0,0,0.049423,-0.021198,0,0.0010729,0,0,0,0.054304,-2.5246e-05,0.016284,0.4352,0.023521,0.048287,3.6372e-06,0.51,0.93,0
0.02597,-0.0081081,0.054334,-2.4281e-05,0.016293,0.00040909,0,0,0.049453,-0.021212,0,0.0010636,0,0,0,0.054337,-2.736e-05,0.016293,0.43117,0.023534,0.048318,3.6439e-06,0.52,0.93,0
0.026465,-0.0081316,0.054367,-2.6186e-05,0.016302,0.00040482,0,0,0.049484,-0.021227,0,0.0010525,0,0,0,0.05437,-2.9198e-05,0.016302,0.42639,0.023548,0.048349,3.6507e-06,0.53,0.93,0
0.02696,-0.0081539,0.054401,-2.7855e-05,0.016312,0.00039991,0,0,0.049516,-0.021242,0,0.0010398,0,0,0,0.054404,-3.0793e-05,0.016312,0.42095,0.023562,0.04838,3.6576e-06,0.54,0.93,0
0.027455,-0.0081748,0.054435,-2.9315e-05,0.016322,0.00039444,0,0,0.049547,-0.021256,0,0.0010255,0,0,0,0.054438,-3.2171e-05,0.016322,0.41491,0.023576,0.048411,3.6646e-06,0.55,0.93,0
0.027951,-0.0081946,0.054469,-3.0588e-05,0.016332,0.00038846,0,0,0.049579,-0.021271,0,0.00101,0,0,0,0.054472,-3.3356e-05,0.016332,0.40836,0.02359,0.048442,3.6716e-06,0.56,0.93,0
0.028447,-0.0082133,0.054504,-3.1694e-05,0.016341,0.00038204,0,0,0.049611,-0.021285,0,0.00099329,0,0,0,0.054506,-3.437e-05,0.016341,0.40135,0.023604,0.048474,3.6786e-06,0.57,0.93,0
0.028943,-0.0082308,0.054538,-3.2652e-05,0.016352,0.00037522,0,0,0.049642,-0.021299,0,0.00097556,0,0,0,0.05454,-3.5232e-05,0.016352,0.39393,0.023619,0.048505,3.6856e-06,0.58,0.93,0
0.02944,-0.0082474,0.054572,-3.3478e-05,0.016362,0.00036805,0,0,0.049674,-0.021314,0,0.00095692,0,0,0,0.054575,-3.5959e-05,0.016362,0.38616,0.023633,0.048536,3.6925e-06,0.59,0.93,0
0.029937,-0.008263,0.054606,-3.4186e-05,0.016372,0.00036057,0,0,0.049705,-0.021327,0,0.00093748,0,0,0,0.054608,-3.6565e-05,0.016372,0.37807,0.023648,0.048566,3.6995e-06,0.6,0.93,0
0.030434,-0.0082777,0.05464,-3.4789e-05,0.016382,0.00035281,0,0,0.049736,-0.021341,0,0.00091732,0,0,0,0.054642,-3.7066e-05,0.016382,0.36971,0.023662,0.048597,3.7064e-06,0.61,0.93,0
0.030931,-0.0082916,0.054673,-3.5299e-05,0.016391,0.00034482,0,0,0.049766,-0.021355,0,0.00089653,0,0,0,0.054676,-3.7472e-05,0.016391,0.36111,0.023676,0.048627,3.7132e-06,0.62,0.93,0
0.031429,-0.0083046,0.054706,-3.5725e-05,0.016401,0.00033662,0,0,0.049797,-0.021368,0,0.00087521,0,0,0,0.054709,-3.7794e-05,0.016401,0.3523,0.023691,0.048656,3.7199e-06,0.63,0.93,0
0.031927,-0.0083168,0.054739,-3.6076e-05,0.016411,0.00032823,0,0,0.049827,-0.021381,0,0.0008534,0,0,0,0.054741,-3.8043e-05,0.016411,0.34332,0.023705,0.048685,3.7266e-06,0.64,0.93,0
0.032426,-0.0083283,0.054771,-3.6362e-05,0.01642,0.00031968,0,0,0.049856,-0.021394,0,0.00083117,0,0,0,0.054773,-3.8227e-05,0.01642,0.33418,0.023718,0.048714,3.7331e-06,0.65,0.93,0
0.032925,-0.0083392,0.054802,-3.659e-05,0.01643,0.000311,0,0,0.049885,-0.021406,0,0.00080859,0,0,0,0.054804,-3.8353e-05,0.01643,0.32492,0.023732,0.048742,3.7395e-06,0.66,0.93,0
0.033424,-0.0083493,0.054833,-3.6765e-05,0.016439,0.00030219,0,0,0.049913,-0.021419,0,0.0007857,0,0,0,0.054835,-3.8429e-05,0.016439,0.31554,0.023745,0.048769,3.7458e-06,0.67,0.93,0
0.033923,-0.0083589,0.054864,-3.6894e-05,0.016448,0.00029329,0,0,0.04994,-0.02143,0,0.00076255,0,0,0,0.054865,-3.8461e-05,0.016448,0.30607,0.023758,0.048796,3.752e-06,0.68,0.93,0
0.034422,-0.0083678,0.054893,-3.6983e-05,0.016457,0.0002843,0,0,0.049967,-0.021442,0,0.00073917,0,0,0,0.054895,-3.8454e-05,0.016457,0.29653,0.023771,0.048822,3.7581e-06,0.69,0.93,0
0.034922,-0.0083762,0.054922,-3.7036e-05,0.016466,0.00027523,0,0,0.049993,-0.021453,0,0.0007156,0,0,0,0.054923,-3.8414e-05,0.016466,0.28692,0.023783,0.048848,3.764e-06,0.7,0.93,0
0.035422,-0.0083841,0.05495,-3.7057e-05,0.016474,0.00026611,0,0,0.050019,-0.021464,0,0.00069188,0,0,0,0.054951,-3.8345e-05,0.016474,0.27727,0.023796,0.048872,3.7697e-06,0.71,0.93,0
0.035923,-0.0083915,0.054977,-3.7051e-05,0.016482,0.00025694,0,0,0.050044,-0.021475,0,0.00066804,0,0,0,0.054978,-3.8251e-05,0.016482,0.26759,0.023807,0.048897,3.7753e-06,0.72,0.93,0
0.036423,-0.0083984,0.055004,-3.7021e-05,0.01649,0.00024773,0,0,0.050068,-0.021485,0,0.00064409,0,0,0,0.055005,-3.8136e-05,0.01649,0.25787,0.023819,0.04892,3.7807e-06,0.73,0.93,0
0.036924,-0.0084049,0.055029,-3.6971e-05,0.016498,0.00023849,0,0,0.050091,-0.021495,0,0.00062007,0,0,0,0.05503,-3.8004e-05,0.016498,0.24814,0.02383,0.048942,3.786e-06,0.74,0.93,0
0.037425,-0.0084109,0.055054,-3.6903e-05,0.016505,0.00022923,0,0,0.050114,-0.021505,0,0.00059599,0,0,0,0.055055,-3.7857e-05,0.016505,0.2384,0.023841,0.048964,3.791e-06,0.75,0.93,0
0.037926,-0.0084165,0.055078,-3.6821e-05,0.016512,0.00021995,0,0,0.050135,-0.021514,0,0.00057188,0,0,0,0.055079,-3.7698e-05,0.016512,0.22865,0.023851,0.048985,3.7959e-06,0.76,0.93,0
0.038428,-0.0084218,0.055101,-3.6726e-05,0.016519,0.00021067,0,0,0.050156,-0.021523,0,0.00054774,0,0,0,0.055102,-3.7531e-05,0.016519,0.21891,0.023861,0.049005,3.8007e-06,0.77,0.93,0
0.038929,-0.0084267,0.055123,-3.6621e-05,0.016526,0.00020138,0,0,0.050176,-0.021531,0,0.00052359,0,0,0,0.055124,-3.7356e-05,0.016526,0.20918,0.023871,0.049025,3.8052e-06,0.78,0.93,0
0.039431,-0.0084312,0.055144,-3.6508e-05,0.016532,0.0001921,0,0,0.050195,-0.021539,0,0.00049945,0,0,0,0.055145,-3.7177e-05,0.016532,0.19945,0.02388,0.049043,3.8096e-06,0.79,0.93,0
0.039933,-0.0084354,0.055164,-3.639e-05,0.016538,0.00018281,0,0,0.050214,-0.021547,0,0.00047531,0,0,0,0.055165,-3.6995e-05,0.016538,0.18975,0.023889,0.049061,3.8137e-06,0.8,0.93,0
0.040435,-0.0084394,0.055184,-3.6267e-05,0.016544,0.00017354,0,0,0.050231,-0.021555,0,0.0004512,0,0,0,0.055184,-3.6812e-05,0.016544,0.18006,0.023897,0.049078,3.8177e-06,0.81,0.93,0
0.040938,-0.008443,0.055202,-3.6142e-05,0.01655,0.00016427,0,0,0.050248,-0.021562,0,0.00042712,0,0,0,0.055203,-3.663e-05,0.01655,0.17039,0.023905,0.049094,3.8215e-06,0.82,0.93,0
0.04144,-0.0084464,0.055219,-3.6016e-05,0.016555,0.00015502,0,0,0.050264,-0.021568,0,0.00040306,0,0,0,0.05522,-3.645e-05,0.016555,0.16075,0.023913,0.04911,3.8251e-06,0.83,0.93,0
0.041943,-0.0084495,0.055236,-3.589e-05,0.01656,0.00014579,0,0,0.050279,-0.021575,0,0.00037905,0,0,0,0.055236,-3.6274e-05,0.01656,0.15113,0.02392,0.049124,3.8285e-06,0.84,0.93,0
0.042446,-0.0084523,0.055251,-3.5766e-05,0.016565,0.00013657,0,0,0.050293,-0.02158,0,0.00035508,0,0,0,0.055252,-3.6103e-05,0.016565,0.14153,0.023927,0.049138,3.8317e-06,0.85,0.93,0
0.042949,-0.0084549,0.055266,-3.5644e-05,0.016569,0.00012736,0,0,0.050306,-0.021586,0,0.00033115,0,0,0,0.055266,-3.5938e-05,0.016569,0.13196,0.023933,0.04915,3.8346e-06,0.86,0.93,0
0.043452,-0.0084573,0.055279,-3.5527e-05,0.016573,0.00011818,0,0,0.050318,-0.021591,0,0.00030726,0,0,0,0.05528,-3.578e-05,0.016573,0.12241,0.023939,0.049162,3.8374e-06,0.87,0.93,0
0.043955,-0.0084595,0.055292,-3.5415e-05,0.016577,0.00010901,0,0,0.050329,-0.021596,0,0.00028342,0,0,0,0.055292,-3.563e-05,0.016577,0.11288,0.023944,0.049173,3.84e-06,0.88,0.93,0
0.044459,-0.0084614,0.055303,-3.5308e-05,0.01658,9.9853e-05,0,0,0.05034,-0.0216,0,0.00025962,0,0,0,0.055303,-3.5488e-05,0.01658,0.10338,0.023949,0.049183,3.8424e-06,0.89,0.93,0
0.044962,-0.0084632,0.055314,-3.5208e-05,0.016584,9.0716e-05,0,0,0.050349,-0.021604,0,0.00023586,0,0,0,0.055314,-3.5357e-05,0.016584,0.093907,0.023954,0.049192,3.8446e-06,0.9,0.93,0
0.045466,-0.0084648,0.055323,-3.5116e-05,0.016587,8.1595e-05,0,0,0.050358,-0.021608,0,0.00021215,0,0,0,0.055323,-3.5236e-05,0.016587,0.084451,0.023958,0.049201,3.8466e-06,0.91,0.93,0
0.045969,-0.0084662,0.055332,-3.5031e-05,0.016589,7.2489e-05,0,0,0.050366,-0.021611,0,0.00018847,0,0,0,0.055332,-3.5126e-05,0.016589,0.075014,0.023962,0.049208,3.8483e-06,0.92,0.93,0
0.046473,-0.0084674,0.055339,-3.4955e-05,0.016591,6.3396e-05,0,0,0.050373,-0.021614,0,0.00016483,0,0,0,0.055339,-3.5028e-05,0.016591,0.065596,0.023965,0.049215,3.8499e-06,0.93,0.93,0
0.046977,-0.0084684,0.055346,-3.4888e-05,0.016593,5.4316e-05,0,0,0.050378,-0.021617,0,0.00014122,0,0,0,0.055346,-3.4942e-05,0.016593,0.056194,0.023968,0.049221,3.8512e-06,0.94,0.93,0
0.04748,-0.0084693,0.055351,-3.4831e-05,0.016595,4.5246e-05,0,0,0.050383,-0.021619,0,0.00011764,0,0,0,0.055351,-3.4868e-05,0.016595,0.046806,0.023971,0.049225,3.8524e-06,0.95,0.93,0
0.047984,-0.00847,0.055356,-3.4784e-05,0.016596,3.6185e-05,0,0,0.050388,-0.021621,0,9.4082e-05,0,0,0,0.055356,-3.4807e-05,0.016596,0.03743,0.023973,0.049229,3.8533e-06,0.96,0.93,0
0.048488,-0.0084705,0.055359,-3.4747e-05,0.016597,2.7132e-05,0,0,0.050391,-0.021622,0,7.0544e-05,0,0,0,0.05536,-3.476e-05,0.016597,0.028064,0.023974,0.049232,3.8541e-06,0.97,0.93,0
0.048992,-0.0084709,0.055362,-3.472e-05,0.016598,1.8085e-05,0,0,0.050393,-0.021623,0,4.7021e-05,0,0,0,0.055362,-3.4726e-05,0.016598,0.018705,0.023975,0.049235,3.8546e-06,0.98,0.93,0
0.049496,-0.0084711,0.055364,-3.4704e-05,0.016599,9.0416e-06,0,0,0.050394,-0.021623,0,2.3508e-05,0,0,0,0.055364,-3.4705e-05,0.016599,0.0093513,0.023976,0.049236,3.8549e-06,0.99,0.93,0
0.05,-0.0084712,0.055364,-3.4698e-05,0.016599,-2.9768e-06,0,0,0.050395,-0.021624,0,-7.7396e-06,0,0,0,0.055364,-3.4699e-05,0.016599,-0.0030787,0.023976,0.049236,3.855e-06,1,0.93,0
0,0,0.060662,0.025998,0.025998,-0.01579,0,0,0.045063,0,0,-0.041055,0,0,0,0.066776,0.019884,0.025998,-21.168,0.037553,0.044154,4.1368e-06,0,0.94,0
0.00045063,-0.00041055,0.060395,0.022616,0.024903,-0.01565,0,0,0.046139,-0.0029731,0,-0.04069,0,0,0,0.066036,0.016976,0.024903,-19.821,0.035971,0.045616,4.3827e-06,0.01,0.94,0
0.00092278,-0.00084155,0.061313,0.019209,0.024157,-0.015525,0,0,0.048303,-0.0064318,0,-0.040366,0,0,0,0.066419,0.014103,0.024157,-18.204,0.034893,0.048084,4.879e-06,0.02,0.94,0
0.0014167,-0.0012807,0.062057,0.015753,0.023343,-0.014811,0,0,0.050328,-0.0098666,0,-0.038508,0,0,0,0.066389,0.011421,0.023343,-16.304,0.033718,0.050083,5.2401e-06,0.03,0.94,0
0.0019293,-0.0017156,0.062505,0.012641,0.022544,-0.013638,0,0,0.051949,-0.012873,0,-0.035458,0,0,0,0.065991,0.0091549,0.022544,-14.339,0.032563,0.051465,5.436e-06,0.04,0.94,0
0.0024557,-0.0021367,0.06261,0.010051,0.021798,-0.012216,0,0,0.053055,-0.015271,0,-0.031762,0,0,0,0.06531,0.0073507,0.021798,-12.466,0.031487,0.052256,5.4838e-06,0.05,0.94,0
0.0029904,-0.002538,0.062401,0.0079907,0.021118,-0.010735,0,0,0.053669,-0.017065,0,-0.02791,0,0,0,0.064443,0.0059494,0.021118,-10.767,0.030503,0.052577,5.4231e-06,0.06,0.94,0
0.0035291,-0.0029164,0.061958,0.0063839,0.020503,-0.0093182,0,0,0.053892,-0.018354,0,-0.024227,0,0,0,0.063479,0.0048632,0.020503,-9.2692,0.029615,0.052571,5.2958e-06,0.07,0.94,0
0.0040683,-0.0032712,0.061367,0.0051378,0.019951,-0.0080294,0,0,0.05384,-0.019258,0,-0.020876,0,0,0,0.062491,0.0040137,0.019951,-7.9696,0.028819,0.05236,5.1352e-06,0.08,0.94,0
0.0046059,-0.0036029,0.060701,0.0041694,0.019461,-0.0068897,0,0,0.053612,-0.019879,0,-0.017913,0,0,0,0.061528,0.0033419,0.019461,-6.8492,0.028111,0.052034,4.9639e-06,0.09,0.94,0
0.0051405,-0.0039125,0.060013,0.0034122,0.019028,-0.0058974,0,0,0.053282,-0.0203,0,-0.015333,0,0,0,0.060621,0.0028043,0.019028,-5.8855,0.027484,0.051653,4.7954e-06,0.1,0.94,0
0.0056715,-0.0042015,0.059339,0.0028153,0.018646,-0.0050404,0,0,0.0529,-0.02058,0,-0.013105,0,0,0,0.059785,0.0023693,0.018646,-5.0561,0.026933,0.051254,4.6368e-06,0.11,0.94,0
0.0061985,-0.0044712,0.058697,0.0023403,0.018311,-0.004303,0,0,0.052502,-0.020762,0,-0.011188,0,0,0,0.059024,0.0020137,0.018311,-4.3411,0.02645,0.050859,4.4916e-06,0.12,0.94,0
0.0067215,-0.0047231,0.0581,0.0019589,0.018018,-0.0036689,0,0,0.052107,-0.020876,0,-0.0095392,0,0,0,0.058339,0.0017202,0.018018,-3.7233,0.026026,0.050483,4.3607e-06,0.13,0.94,0
0.0072407,-0.0049586,0.057552,0.0016497,0.017761,-0.0031234,0,0,0.051729,-0.020944,0,-0.0081209,0,0,0,0.057726,0.0014758,0.017761,-3.188,0.025654,0.050133,4.2441e-06,0.14,0.94,0
0.0077561,-0.0051789,0.057055,0.001397,0.017535,-0.0026534,0,0,0.051375,-0.02098,0,-0.0068988,0,0,0,0.057181,0.0012707,0.017535,-2.7232,0.025329,0.049811,4.1409e-06,0.15,0.94,0
0.0082682,-0.0053851,0.056607,0.0011885,0.017339,-0.0022476,0,0,0.051049,-0.020995,0,-0.0058438,0,0,0,0.056698,0.0010975,0.017339,-2.3187,0.025045,0.049519,4.0501e-06,0.16,0.94,0
0.0087771,-0.0055784,0.056206,0.0010153,0.017166,-0.0018966,0,0,0.050751,-0.020996,0,-0.0049312,0,0,0,0.056271,0.00095021,0.017166,-1.9659,0.024796,0.049257,3.9703e-06,0.17,0.94,0
0.0092832,-0.0057596,0.055848,0.00087037,0.017016,-0.0015924,0,0,0.050482,-0.020989,0,-0.0041402,0,0,0,0.055894,0.00082429,0.017016,-1.6577,0.024578,0.049023,3.9006e-06,0.18,0.94,0
0.0097867,-0.0059297,0.055531,0.0007483,0.016884,-0.0013282,0,0,0.050242,-0.020976,0,-0.0034533,0,0,0,0.055564,0.00071612,0.016884,-1.388,0.024388,0.048815,3.8397e-06,0.19,0.94,0
0.010288,-0.0060895,0.055252,0.00064488,0.016769,-0.0010983,0,0,0.050028,-0.020961,0,-0.0028557,0,0,0,0.055274,0.0006228,0.016769,-1.1518,0.024222,0.048632,3.7868e-06,0.2,0.94,0
0.010787,-0.0062396,0.055006,0.00055679,0.016669,-0.00089812,0,0,0.049838,-0.020945,0,-0.0023351,0,0,0,0.05502,0.00054198,0.016669,-0.94474,0.024077,0.048471,3.7408e-06,0.21,0.94,0
0.011285,-0.0063808,0.05479,0.0004814,0.016581,-0.00072349,0,0,0.049672,-0.02093,0,-0.0018811,0,0,0,0.0548,0.00047176,0.016581,-0.7631,0.023951,0.048331,3.7011e-06,0.22,0.94,0
0.011781,-0.0065136,0.054603,0.0004166,0.016506,-0.00057103,0,0,0.049526,-0.020916,0,-0.0014847,0,0,0,0.054609,0.00041058,0.016506,-0.60371,0.023842,0.04821,3.6668e-06,0.23,0.94,0
0.012275,-0.0066386,0.05444,0.00036069,0.01644,-0.00043785,0,0,0.0494,-0.020903,0,-0.0011384,0,0,0,0.054444,0.00035714,0.01644,-0.46385,0.023747,0.048106,3.6375e-06,0.24,0.94,0
0.012769,-0.0067563,0.0543,0.00031228,0.016384,-0.00032147,0,0,0.049291,-0.020893,0,-0.00083583,0,0,0,0.054302,0.00031037,0.016384,-0.34115,0.023665,0.048017,3.6125e-06,0.25,0.94,0
0.013261,-0.0068672,0.05418,0.00027025,0.016335,-0.00021977,0,0,0.049199,-0.020884,0,-0.0005714,0,0,0,0.054181,0.00026935,0.016335,-0.23357,0.023595,0.047942,3.5914e-06,0.26,0.94,0
0.013753,-0.0069718,0.054079,0.00023364,0.016294,-0.00013092,0,0,0.049121,-0.020878,0,-0.00034039,0,0,0,0.054079,0.00023332,0.016294,-0.13931,0.023535,0.04788,3.5737e-06,0.27,0.94,0
0.014243,-0.0070704,0.053994,0.0002017,0.016259,-5.3345e-05,0,0,0.049056,-0.020874,0,-0.0001387,0,0,0,0.053994,0.00020164,0.016259,-0.056819,0.023485,0.04783,3.559e-06,0.28,0.94,0
0.014734,-0.0071634,0.053923,0.00017376,0.016229,1.4314e-05,0,0,0.049002,-0.020872,0,3.7217e-05,0,0,0,0.053923,0.00017375,0.016229,0.015259,0.023442,0.047789,3.547e-06,0.29,0.94,0
0.015224,-0.0072511,0.053866,0.00014928,0.016205,7.3242e-05,0,0,0.04896,-0.020872,0,0.00019043,0,0,0,0.053866,0.00014918,0.016205,0.078122,0.023407,0.047758,3.5375e-06,0.3,0.94,0
0.015713,-0.0073339,0.053821,0.0001278,0.016185,0.00012447,0,0,0.048927,-0.020874,0,0.00032362,0,0,0,0.053821,0.00012751,0.016185,0.13282,0.023378,0.047735,3.5301e-06,0.31,0.94,0
0.016202,-0.007412,0.053786,0.00010892,0.016168,0.0001689,0,0,0.048903,-0.020877,0,0.00043914,0,0,0,0.053786,0.00010839,0.016168,0.18028,0.023354,0.04772,3.5247e-06,0.32,0.94,0
0.016691,-0.0074858,0.05376,9.2317e-05,0.016156,0.00020731,0,0,0.048886,-0.020882,0,0.00053902,0,0,0,0.053761,9.1517e-05,0.016156,0.22132,0.023336,0.047711,3.5209e-06,0.33,0.94,0
0.01718,-0.0075556,0.053743,7.7697e-05,0.016146,0.00024041,0,0,0.048876,-0.020889,0,0.00062506,0,0,0,0.053745,7.662e-05,0.016146,0.25666,0.023322,0.047708,3.5187e-06,0.34,0.94,0
0.017669,-0.0076214,0.053734,6.4813e-05,0.01614,0.00026879,0,0,0.048873,-0.020897,0,0.00069884,0,0,0,0.053735,6.3467e-05,0.01614,0.28694,0.023313,0.04771,3.5179e-06,0.35,0.94,0
0.018157,-0.0076836,0.053732,5.3452e-05,0.016136,0.00029298,0,0,0.048875,-0.020907,0,0.00076176,0,0,0,0.053733,5.1853e-05,0.016136,0.31272,0.023307,0.047718,3.5182e-06,0.36,0.94,0
0.018646,-0.0077423,0.053735,4.3429e-05,0.016133,0.00031347,0,0,0.048882,-0.020917,0,0.00081502,0,0,0,0.053737,4.1599e-05,0.016133,0.3345,0.023304,0.047729,3.5197e-06,0.37,0.94,0
0.019135,-0.0077979,0.053744,3.4583e-05,0.016133,0.00033066,0,0,0.048893,-0.020928,0,0.00085972,0,0,0,0.053746,3.2548e-05,0.016133,0.35273,0.023304,0.047744,3.5221e-06,0.38,0.94,0
0.019624,-0.0078503,0.053757,2.6774e-05,0.016135,0.00034493,0,0,0.048909,-0.020941,0,0.00089682,0,0,0,0.053759,2.456e-05,0.016135,0.3678,0.023306,0.047763,3.5253e-06,0.39,0.94,0
0.020113,-0.0078999,0.053775,1.988e-05,0.016138,0.0003566,0,0,0.048927,-0.020954,0,0.00092715,0,0,0,0.053777,1.7514e-05,0.016138,0.38006,0.023311,0.047784,3.5293e-06,0.4,0.94,0
0.020602,-0.0079468,0.053796,1.3792e-05,0.016143,0.00036595,0,0,0.048949,-0.020968,0,0.00095147,0,0,0,0.053798,1.1303e-05,0.016143,0.38983,0.023318,0.047808,3.5339e-06,0.41,0.94,0
0.021092,-0.0079911,0.053821,8.4184e-06,0.016149,0.00037325,0,0,0.048973,-0.020982,0,0.00097045,0,0,0,0.053823,5.8297e-06,0.016149,0.39739,0.023326,0.047834,3.5392e-06,0.42,0.94,0
0.021582,-0.008033,0.053848,3.6752e-06,0.016155,0.00037872,0,0,0.049,-0.020997,0,0.00098466,0,0,0,0.053851,1.0116e-06,0.016155,0.40297,0.023336,0.047863,3.5449e-06,0.43,0.94,0
0.022072,-0.0080725,0.053878,-5.0995e-07,0.016163,0.00038256,0,0,0.049029,-0.021013,0,0.00099465,0,0,0,0.05388,-3.2262e-06,0.016163,0.4068,0.023347,0.047892,3.5511e-06,0.44,0.94,0
0.022562,-0.0081099,0.053909,-4.2009e-06,0.016172,0.00038495,0,0,0.049059,-0.021028,0,0.0010009,0,0,0,0.053912,-6.9495e-06,0.016172,0.40908,0.023359,0.047924,3.5577e-06,0.45,0.94,0
0.023053,-0.0081452,0.053943,-7.4542e-06,0.016181,0.00038606,0,0,0.049091,-0.021045,0,0.0010038,0,0,0,0.053946,-1.0217e-05,0.016181,0.40997,0.023372,0.047956,3.5646e-06,0.46,0.94,0
0.023544,-0.0081786,0.053978,-1.032e-05,0.01619,0.00038602,0,0,0.049124,-0.021061,0,0.0010037,0,0,0,0.053981,-1.3079e-05,0.01619,0.40964,0.023386,0.04799,3.5718e-06,0.47,0.94,0
0.024036,-0.0082102,0.054015,-1.2841e-05,0.016201,0.00038497,0,0,0.049159,-0.021077,0,0.0010009,0,0,0,0.054018,-1.5584e-05,0.016201,0.40823,0.023401,0.048024,3.5792e-06,0.48,0.94,0
0.024528,-0.00824,0.054052,-1.5057e-05,0.016211,0.00038301,0,0,0.049194,-0.021094,0,0.00099582,0,0,0,0.054055,-1.777e-05,0.016211,0.40585,0.023416,0.048059,3.5868e-06,0.49,0.94,0
0.02502,-0.0082682,0.054091,-1.7002e-05,0.016222,0.00038024,0,0,0.049229,-0.021111,0,0.00098864,0,0,0,0.054094,-1.9674e-05,0.016222,0.40262,0.023432,0.048095,3.5946e-06,0.5,0.94,0
0.025512,-0.0082948,0.05413,-1.8707e-05,0.016233,0.00037677,0,0,0.049265,-0.021128,0,0.00097959,0,0,0,0.054133,-2.1329e-05,0.016233,0.39864,0.023448,0.048131,3.6025e-06,0.51,0.94,0
0.026005,-0.0083199,0.054169,-2.0199e-05,0.016245,0.00037266,0,0,0.049302,-0.021145,0,0.0009689,0,0,0,0.054172,-2.2762e-05,0.016245,0.39399,0.023465,0.048167,3.6105e-06,0.52,0.94,0
0.026498,-0.0083436,0.054209,-2.1501e-05,0.016256,0.00036798,0,0,0.049339,-0.021161,0,0.00095675,0,0,0,0.054212,-2.3998e-05,0.016256,0.38876,0.023481,0.048204,3.6186e-06,0.53,0.94,0
0.026992,-0.008366,0.054249,-2.2635e-05,0.016268,0.00036281,0,0,0.049376,-0.021178,0,0.00094331,0,0,0,0.054252,-2.506e-05,0.016268,0.383,0.023498,0.04824,3.6267e-06,0.54,0.94,0
0.027486,-0.0083871,0.05429,-2.362e-05,0.01628,0.0003572,0,0,0.049413,-0.021194,0,0.00092872,0,0,0,0.054292,-2.5969e-05,0.01628,0.37679,0.023515,0.048276,3.6348e-06,0.55,0.94,0
0.02798,-0.008407,0.05433,-2.4471e-05,0.016292,0.0003512,0,0,0.04945,-0.021211,0,0.00091312,0,0,0,0.054332,-2.674e-05,0.016292,0.37019,0.023532,0.048313,3.6429e-06,0.56,0.94,0
0.028475,-0.0084258,0.05437,-2.5204e-05,0.016303,0.00034486,0,0,0.049486,-0.021227,0,0.00089664,0,0,0,0.054372,-2.7391e-05,0.016303,0.36323,0.023549,0.048349,3.651e-06,0.57,0.94,0
0.02897,-0.0084436,0.054409,-2.5833e-05,0.016315,0.00033822,0,0,0.049523,-0.021243,0,0.00087936,0,0,0,0.054412,-2.7934e-05,0.016315,0.35597,0.023566,0.048384,3.659e-06,0.58,0.94,0
0.029465,-0.0084603,0.054449,-2.6368e-05,0.016327,0.00033131,0,0,0.049559,-0.021259,0,0.0008614,0,0,0,0.054451,-2.8383e-05,0.016327,0.34845,0.023583,0.04842,3.667e-06,0.59,0.94,0
0.029961,-0.008476,0.054488,-2.682e-05,0.016338,0.00032417,0,0,0.049594,-0.021275,0,0.00084284,0,0,0,0.05449,-2.8748e-05,0.016338,0.34069,0.0236,0.048454,3.6748e-06,0.6,0.94,0
0.030457,-0.0084909,0.054526,-2.7199e-05,0.01635,0.00031683,0,0,0.04963,-0.02129,0,0.00082376,0,0,0,0.054528,-2.9039e-05,0.01635,0.33274,0.023616,0.048489,3.6826e-06,0.61,0.94,0
0.030953,-0.0085049,0.054564,-2.7512e-05,0.016361,0.00030931,0,0,0.049664,-0.021305,0,0.00080422,0,0,0,0.054566,-2.9265e-05,0.016361,0.32462,0.023633,0.048523,3.6903e-06,0.62,0.94,0
0.03145,-0.008518,0.054602,-2.7768e-05,0.016372,0.00030165,0,0,0.049698,-0.02132,0,0.00078428,0,0,0,0.054603,-2.9433e-05,0.016372,0.31636,0.023649,0.048556,3.6979e-06,0.63,0.94,0
0.031947,-0.0085304,0.054638,-2.7972e-05,0.016383,0.00029385,0,0,0.049732,-0.021334,0,0.00076401,0,0,0,0.05464,-2.9551e-05,0.016383,0.30797,0.023665,0.048589,3.7054e-06,0.64,0.94,0
0.032445,-0.0085421,0.054674,-2.813e-05,0.016394,0.00028594,0,0,0.049765,-0.021349,0,0.00074344,0,0,0,0.054676,-2.9625e-05,0.016394,0.29948,0.02368,0.048621,3.7127e-06,0.65,0.94,0
0.032943,-0.008553,0.05471,-2.8248e-05,0.016404,0.00027794,0,0,0.049797,-0.021362,0,0.00072263,0,0,0,0.054711,-2.9659e-05,0.016404,0.29091,0.023695,0.048652,3.7199e-06,0.66,0.94,0
0.033441,-0.0085633,0.054744,-2.8331e-05,0.016415,0.00026985,0,0,0.049828,-0.021376,0,0.00070162,0,0,0,0.054746,-2.966e-05,0.016415,0.28228,0.02371,0.048683,3.7269e-06,0.67,0.94,0
0.033939,-0.008573,0.054778,-2.8382e-05,0.016425,0.00026171,0,0,0.049859,-0.021389,0,0.00068044,0,0,0,0.054779,-2.9632e-05,0.016425,0.27359,0.023725,0.048712,3.7337e-06,0.68,0.94,0
0.034438,-0.0085821,0.054811,-2.8406e-05,0.016435,0.00025351,0,0,0.049889,-0.021402,0,0.00065911,0,0,0,0.054812,-2.9578e-05,0.016435,0.26485,0.023739,0.048742,3.7404e-06,0.69,0.94,0
0.034937,-0.0085906,0.054843,-2.8406e-05,0.016444,0.00024526,0,0,0.049918,-0.021414,0,0.00063768,0,0,0,0.054844,-2.9502e-05,0.016444,0.25609,0.023753,0.04877,3.747e-06,0.7,0.94,0
0.035436,-0.0085986,0.054874,-2.8385e-05,0.016454,0.00023698,0,0,0.049946,-0.021427,0,0.00061616,0,0,0,0.054875,-2.9408e-05,0.016454,0.24731,0.023766,0.048797,3.7533e-06,0.71,0.94,0
0.035936,-0.0086061,0.054904,-2.8346e-05,0.016463,0.00022869,0,0,0.049973,-0.021438,0,0.00059458,0,0,0,0.054905,-2.9298e-05,0.016463,0.23852,0.023779,0.048824,3.7595e-06,0.72,0.94,0
0.036436,-0.0086131,0.054933,-2.8291e-05,0.016471,0.00022037,0,0,0.05,-0.02145,0,0.00057295,0,0,0,0.054934,-2.9175e-05,0.016471,0.22972,0.023792,0.048849,3.7654e-06,0.73,0.94,0
0.036936,-0.0086196,0.054961,-2.8223e-05,0.01648,0.00021204,0,0,0.050026,-0.021461,0,0.0005513,0,0,0,0.054962,-2.9041e-05,0.01648,0.22093,0.023804,0.048874,3.7712e-06,0.74,0.94,0
0.037436,-0.0086258,0.054988,-2.8144e-05,0.016488,0.00020371,0,0,0.05005,-0.021471,0,0.00052964,0,0,0,0.054989,-2.8899e-05,0.016488,0.21214,0.023816,0.048898,3.7768e-06,0.75,0.94,0
0.037937,-0.0086315,0.055015,-2.8056e-05,0.016496,0.00019538,0,0,0.050074,-0.021481,0,0.00050798,0,0,0,0.055015,-2.8749e-05,0.016496,0.20337,0.023828,0.048921,3.7821e-06,0.76,0.94,0
0.038438,-0.0086368,0.05504,-2.7961e-05,0.016504,0.00018705,0,0,0.050097,-0.021491,0,0.00048633,0,0,0,0.05504,-2.8596e-05,0.016504,0.19462,0.023838,0.048944,3.7873e-06,0.77,0.94,0
0.038939,-0.0086418,0.055064,-2.7859e-05,0.016511,0.00017873,0,0,0.050119,-0.0215,0,0.0004647,0,0,0,0.055064,-2.8439e-05,0.016511,0.18588,0.023849,0.048965,3.7923e-06,0.78,0.94,0
0.03944,-0.0086464,0.055087,-2.7754e-05,0.016518,0.00017043,0,0,0.05014,-0.021509,0,0.00044311,0,0,0,0.055087,-2.8281e-05,0.016518,0.17717,0.023859,0.048986,3.797e-06,0.79,0.94,0
0.039942,-0.0086508,0.055109,-2.7645e-05,0.016524,0.00016213,0,0,0.05016,-0.021518,0,0.00042155,0,0,0,0.05511,-2.8122e-05,0.016524,0.16848,0.023869,0.049005,3.8016e-06,0.8,0.94,0
0.040443,-0.0086548,0.05513,-2.7535e-05,0.016531,0.00015386,0,0,0.050179,-0.021526,0,0.00040003,0,0,0,0.055131,-2.7964e-05,0.016531,0.15982,0.023878,0.049023,3.8059e-06,0.81,0.94,0
0.040945,-0.0086585,0.05515,-2.7424e-05,0.016537,0.0001456,0,0,0.050197,-0.021534,0,0.00037856,0,0,0,0.05515,-2.7808e-05,0.016537,0.15119,0.023887,0.049041,3.8101e-06,0.82,0.94,0
0.041447,-0.0086619,0.055169,-2.7314e-05,0.016543,0.00013736,0,0,0.050215,-0.021541,0,0.00035714,0,0,0,0.055169,-2.7656e-05,0.016543,0.14258,0.023895,0.049058,3.814e-06,0.83,0.94,0
0.04195,-0.0086651,0.055187,-2.7205e-05,0.016548,0.00012914,0,0,0.050231,-0.021548,0,0.00033577,0,0,0,0.055187,-2.7507e-05,0.016548,0.13401,0.023903,0.049073,3.8177e-06,0.84,0.94,0
0.042452,-0.008668,0.055204,-2.7099e-05,0.016553,0.00012095,0,0,0.050246,-0.021554,0,0.00031446,0,0,0,0.055204,-2.7364e-05,0.016553,0.12547,0.02391,0.049088,3.8211e-06,0.85,0.94,0
0.042954,-0.0086706,0.055219,-2.6996e-05,0.016558,0.00011277,0,0,0.05026,-0.02156,0,0.0002932,0,0,0,0.05522,-2.7226e-05,0.016558,0.11695,0.023917,0.049102,3.8244e-06,0.86,0.94,0
0.043457,-0.0086731,0.055234,-2.6897e-05,0.016562,0.00010461,0,0,0.050274,-0.021566,0,0.00027199,0,0,0,0.055234,-2.7095e-05,0.016562,0.10846,0.023923,0.049115,3.8274e-06,0.87,0.94,0
0.04396,-0.0086753,0.055248,-2.6802e-05,0.016566,9.6476e-05,0,0,0.050286,-0.021571,0,0.00025084,0,0,0,0.055248,-2.6971e-05,0.016566,0.1,0.023929,0.049127,3.8302e-06,0.88,0.94,0
0.044463,-0.0086773,0.05526,-2.6713e-05,0.01657,8.836e-05,0,0,0.050297,-0.021576,0,0.00022974,0,0,0,0.05526,-2.6854e-05,0.01657,0.09157,0.023935,0.049138,3.8328e-06,0.89,0.94,0
0.044966,-0.0086791,0.055272,-2.663e-05,0.016574,8.0262e-05,0,0,0.050308,-0.02158,0,0.00020868,0,0,0,0.055272,-2.6746e-05,0.016574,0.083161,0.023939,0.049148,3.8352e-06,0.9,0.94,0
0.045469,-0.0086807,0.055282,-2.6553e-05,0.016577,7.2182e-05,0,0,0.050317,-0.021584,0,0.00018767,0,0,0,0.055282,-2.6647e-05,0.016577,0.074775,0.023944,0.049157,3.8373e-06,0.91,0.94,0
0.045972,-0.0086821,0.055291,-2.6483e-05,0.016579,6.4118e-05,0,0,0.050325,-0.021588,0,0.00016671,0,0,0,0.055291,-2.6558e-05,0.016579,0.06641,0.023948,0.049165,3.8392e-06,0.92,0.94,0
0.046476,-0.0086834,0.055299,-2.642e-05,0.016582,5.6069e-05,0,0,0.050333,-0.021591,0,0.00014578,0,0,0,0.0553,-2.6477e-05,0.016582,0.058065,0.023952,0.049172,3.8409e-06,0.93,0.94,0
0.046979,-0.0086844,0.055307,-2.6366e-05,0.016584,4.8033e-05,0,0,0.050339,-0.021594,0,0.00012489,0,0,0,0.055307,-2.6407e-05,0.016584,0.049737,0.023955,0.049179,3.8424e-06,0.94,0.94,0
0.047482,-0.0086853,0.055313,-2.6318e-05,0.016586,4.0009e-05,0,0,0.050345,-0.021596,0,0.00010402,0,0,0,0.055313,-2.6347e-05,0.016586,0.041424,0.023957,0.049184,3.8436e-06,0.95,0.94,0
0.047986,-0.0086861,0.055317,-2.628e-05,0.016587,3.1996e-05,0,0,0.050349,-0.021598,0,8.3188e-05,0,0,0,0.055317,-2.6298e-05,0.016587,0.033124,0.02396,0.049188,3.8446e-06,0.96,0.94,0
0.048489,-0.0086866,0.055321,-2.6249e-05,0.016588,2.399e-05,0,0,0.050353,-0.021599,0,6.2373e-05,0,0,0,0.055321,-2.626e-05,0.016588,0.024834,0.023961,0.049191,3.8454e-06,0.97,0.94,0
0.048993,-0.008687,0.055324,-2.6227e-05,0.016589,1.599e-05,0,0,0.050355,-0.0216,0,4.1573e-05,0,0,0,0.055324,-2.6232e-05,0.016589,0.016552,0.023962,0.049194,3.846e-06,0.98,0.94,0
0.049496,-0.0086873,0.055325,-2.6214e-05,0.01659,7.9938e-06,0,0,0.050356,-0.021601,0,2.0784e-05,0,0,0,0.055325,-2.6215e-05,0.01659,0.0082745,0.023963,0.049195,3.8463e-06,0.99,0.94,0
0.05,-0.0086873,0.055326,-2.621e-05,0.01659,-3.0536e-06,0,0,0.050357,-0.021601,0,-7.9394e-06,0,0,0,0.055326,-2.621e-05,0.01659,-0.0031608,0.023963,0.049196,3.8464e-06,1,0.94,0
0,0,0.062807,0.026917,0.026917,-0.017031,0,0,0.046656,2.1684e-19,0,-0.044282,0,0,0,0.069602,0.020122,0.026917,-21.752,0.03888,0.046457,4.7803e-06,0,0.95,0
0.00046657,-0.00044282,0.062457,0.02279,0.025574,-0.016791,0,0,0.047947,-0.003619,0,-0.043655,0,0,0,0.06861,0.016637,0.025574,-20.125,0.03694,0.04813,5.0673e-06,0.01,0.95,0
0.00095895,-0.00091164,0.063424,0.018523,0.024584,-0.016487,0,0,0.050492,-0.0078798,0,-0.042865,0,0,0,0.068827,0.013119,0.024584,-18.146,0.03551,0.050952,5.6516e-06,0.02,0.95,0
0.0014764,-0.0013877,0.064099,0.014404,0.023551,-0.015358,0,0,0.052712,-0.011891,0,-0.03993,0,0,0,0.068462,0.010041,0.023551,-15.86,0.034018,0.052974,5.9937e-06,0.03,0.95,0
0.0020132,-0.001854,0.064325,0.010983,0.022592,-0.013705,0,0,0.054253,-0.015093,0,-0.035633,0,0,0,0.06764,0.0076676,0.022592,-13.598,0.032634,0.054078,6.0847e-06,0.04,0.95,0
0.0025615,-0.0022991,0.064081,0.0083645,0.021734,-0.011878,0,0,0.055052,-0.01738,0,-0.030883,0,0,0,0.066508,0.0059379,0.021734,-11.546,0.031393,0.05442,5.9866e-06,0.05,0.95,0
0.0031142,-0.0027175,0.063473,0.0064278,0.02097,-0.010125,0,0,0.055253,-0.018905,0,-0.026326,0,0,0,0.065217,0.0046839,0.02097,-9.7723,0.03029,0.054255,5.7794e-06,0.06,0.95,0
0.0036665,-0.0031076,0.062644,0.0049983,0.020293,-0.0085609,0,0,0.055057,-0.019883,0,-0.022258,0,0,0,0.063888,0.0037538,0.020293,-8.2712,0.029312,0.053807,5.5261e-06,0.07,0.95,0
0.0042154,-0.0034702,0.061722,0.0039369,0.019698,-0.0072145,0,0,0.054632,-0.020489,0,-0.018758,0,0,0,0.062609,0.0030498,0.019698,-7.01,0.028452,0.053225,5.2668e-06,0.08,0.95,0
0.0047592,-0.0038069,0.060791,0.0031401,0.019179,-0.0060751,0,0,0.054095,-0.020851,0,-0.015795,0,0,0,0.061425,0.0025069,0.019179,-5.9506,0.027704,0.052602,5.0218e-06,0.09,0.95,0
0.0052973,-0.0041197,0.0599,0.0025342,0.01873,-0.0051174,0,0,0.053521,-0.021055,0,-0.013305,0,0,0,0.060353,0.0020813,0.01873,-5.0579,0.027055,0.051987,4.7998e-06,0.1,0.95,0
0.0058296,-0.0044105,0.059073,0.0020671,0.018342,-0.0043131,0,0,0.05295,-0.021157,0,-0.011214,0,0,0,0.059397,0.0017426,0.018342,-4.3024,0.026494,0.051406,4.6032e-06,0.11,0.95,0
0.0063563,-0.0046813,0.05832,0.0017022,0.018007,-0.0036365,0,0,0.052407,-0.021196,0,-0.0094548,0,0,0,0.058552,0.0014696,0.018007,-3.66,0.02601,0.050872,4.4313e-06,0.12,0.95,0
0.0068777,-0.0049338,0.057643,0.0014136,0.017717,-0.0030654,0,0,0.051904,-0.021194,0,-0.0079701,0,0,0,0.057809,0.001247,0.017717,-3.1113,0.025591,0.050388,4.2822e-06,0.13,0.95,0
0.0073944,-0.0051695,0.05704,0.0011825,0.017467,-0.0025816,0,0,0.051445,-0.021169,0,-0.0067122,0,0,0,0.057159,0.0010635,0.017467,-2.6406,0.02523,0.049956,4.1532e-06,0.14,0.95,0
0.0079066,-0.0053897,0.056506,0.00099554,0.01725,-0.0021701,0,0,0.051032,-0.021131,0,-0.0056422,0,0,0,0.056591,0.00091084,0.01725,-2.2353,0.024917,0.049572,4.042e-06,0.15,0.95,0
0.008415,-0.0055958,0.056036,0.00084271,0.017063,-0.0018187,0,0,0.050664,-0.021087,0,-0.0047286,0,0,0,0.056095,0.00078285,0.017063,-1.8853,0.024647,0.049234,3.9463e-06,0.16,0.95,0
0.0089199,-0.0057888,0.055623,0.00071665,0.016902,-0.0015176,0,0,0.050337,-0.021041,0,-0.0039458,0,0,0,0.055665,0.00067474,0.016902,-1.5821,0.024414,0.048938,3.864e-06,0.17,0.95,0
0.0094217,-0.0059698,0.055262,0.00061184,0.016762,-0.0012588,0,0,0.05005,-0.020995,0,-0.0032729,0,0,0,0.055291,0.00058285,0.016762,-1.3188,0.024212,0.048678,3.7933e-06,0.18,0.95,0
0.0099209,-0.0061395,0.054948,0.00052403,0.016641,-0.0010357,0,0,0.049798,-0.020953,0,-0.0026929,0,0,0,0.054967,0.00050433,0.016641,-1.0899,0.024038,0.048453,3.7327e-06,0.19,0.95,0
0.010418,-0.006299,0.054675,0.00044999,0.016537,-0.00084298,0,0,0.049578,-0.020914,0,-0.0021918,0,0,0,0.054688,0.00043688,0.016537,-0.89044,0.023887,0.048259,3.6809e-06,0.2,0.95,0
0.010913,-0.0064489,0.054439,0.00038718,0.016448,-0.00067611,0,0,0.049389,-0.020879,0,-0.0017579,0,0,0,0.054448,0.00037873,0.016448,-0.71654,0.023758,0.048092,3.6367e-06,0.21,0.95,0
0.011406,-0.0065898,0.054236,0.00033363,0.016371,-0.0005314,0,0,0.049225,-0.020849,0,-0.0013816,0,0,0,0.054242,0.00032839,0.016371,-0.56478,0.023647,0.047949,3.5992e-06,0.22,0.95,0
0.011897,-0.0067224,0.054063,0.00028775,0.016305,-0.00040578,0,0,0.049085,-0.020823,0,-0.001055,0,0,0,0.054066,0.00028469,0.016305,-0.43231,0.023552,0.047828,3.5675e-06,0.23,0.95,0
0.012387,-0.0068472,0.053916,0.00024828,0.016249,-0.00029663,0,0,0.048967,-0.020802,0,-0.00077124,0,0,0,0.053918,0.00024664,0.016249,-0.31667,0.023471,0.047726,3.5408e-06,0.24,0.95,0
0.012876,-0.0069648,0.053793,0.0002142,0.016202,-0.00020176,0,0,0.048868,-0.020784,0,-0.00052457,0,0,0,0.053794,0.00021344,0.016202,-0.21575,0.023403,0.047642,3.5187e-06,0.25,0.95,0
0.013364,-0.0070756,0.05369,0.00018468,0.016162,-0.00011929,0,0,0.048786,-0.020771,0,-0.00031015,0,0,0,0.05369,0.00018441,0.016162,-0.12774,0.023346,0.047574,3.5005e-06,0.26,0.95,0
0.013852,-0.0071801,0.053606,0.00015904,0.016129,-4.7635e-05,0,0,0.048719,-0.020761,0,-0.00012385,0,0,0,0.053606,0.00015899,0.016129,-0.051066,0.023298,0.047519,3.4857e-06,0.27,0.95,0
0.014339,-0.0072786,0.053538,0.00013671,0.016102,1.4572e-05,0,0,0.048666,-0.020755,0,3.7887e-05,0,0,0,0.053538,0.0001367,0.016102,0.015635,0.023259,0.047476,3.474e-06,0.28,0.95,0
0.014825,-0.0073715,0.053484,0.00011722,0.01608,6.8509e-05,0,0,0.048625,-0.020752,0,0.00017812,0,0,0,0.053484,0.00011713,0.01608,0.073552,0.023227,0.047444,3.465e-06,0.29,0.95,0
0.015311,-0.0074593,0.053444,0.00010018,0.016063,0.00011519,0,0,0.048595,-0.020752,0,0.0002995,0,0,0,0.053444,9.9932e-05,0.016063,0.12372,0.023202,0.047422,3.4584e-06,0.3,0.95,0
0.015797,-0.0075421,0.053415,8.5262e-05,0.01605,0.0001555,0,0,0.048574,-0.020754,0,0.00040429,0,0,0,0.053415,8.4808e-05,0.01605,0.16706,0.023183,0.047409,3.4538e-06,0.31,0.95,0
0.016283,-0.0076203,0.053396,7.218e-05,0.01604,0.0001902,0,0,0.048562,-0.020759,0,0.00049451,0,0,0,0.053397,7.1501e-05,0.01604,0.20436,0.02317,0.047403,3.4512e-06,0.32,0.95,0
0.016768,-0.0076941,0.053386,6.0696e-05,0.016034,0.00021995,0,0,0.048558,-0.020765,0,0.00057187,0,0,0,0.053387,5.9788e-05,0.016034,0.23632,0.02316,0.047404,3.4501e-06,0.33,0.95,0
0.017254,-0.0077639,0.053385,5.0605e-05,0.016031,0.00024535,0,0,0.04856,-0.020774,0,0.0006379,0,0,0,0.053386,4.9477e-05,0.016031,0.26356,0.023155,0.047411,3.4506e-06,0.34,0.95,0
0.01774,-0.0078298,0.05339,4.1733e-05,0.016029,0.00026689,0,0,0.048569,-0.020784,0,0.00069392,0,0,0,0.053391,4.0398e-05,0.016029,0.28663,0.023154,0.047423,3.4523e-06,0.35,0.95,0
0.018225,-0.0078921,0.053402,3.3927e-05,0.016031,0.00028503,0,0,0.048582,-0.020796,0,0.00074109,0,0,0,0.053403,3.2404e-05,0.016031,0.306,0.023155,0.04744,3.4551e-06,0.36,0.95,0
0.018711,-0.007951,0.053419,2.7056e-05,0.016034,0.00030017,0,0,0.0486,-0.020809,0,0.00078044,0,0,0,0.053421,2.5368e-05,0.016034,0.3221,0.02316,0.047461,3.459e-06,0.37,0.95,0
0.019197,-0.0080066,0.053441,2.1007e-05,0.016039,0.00031264,0,0,0.048623,-0.020823,0,0.00081287,0,0,0,0.053442,1.9177e-05,0.016039,0.33531,0.023167,0.047485,3.4637e-06,0.38,0.95,0
0.019684,-0.0080592,0.053467,1.568e-05,0.016045,0.00032276,0,0,0.048649,-0.020838,0,0.00083918,0,0,0,0.053469,1.3731e-05,0.016045,0.34596,0.023176,0.047513,3.4692e-06,0.39,0.95,0
0.02017,-0.008109,0.053497,1.099e-05,0.016052,0.00033079,0,0,0.048678,-0.020854,0,0.00086006,0,0,0,0.053499,8.9439e-06,0.016052,0.35434,0.023187,0.047544,3.4754e-06,0.4,0.95,0
0.020657,-0.008156,0.05353,6.86e-06,0.016061,0.00033697,0,0,0.048709,-0.02087,0,0.00087613,0,0,0,0.053532,4.7385e-06,0.016061,0.36071,0.023199,0.047576,3.4821e-06,0.41,0.95,0
0.021145,-0.0082004,0.053566,3.2249e-06,0.016071,0.00034152,0,0,0.048743,-0.020888,0,0.00088795,0,0,0,0.053568,1.0475e-06,0.016071,0.3653,0.023213,0.047611,3.4894e-06,0.42,0.95,0
0.021632,-0.0082425,0.053604,2.6554e-08,0.016081,0.00034461,0,0,0.048779,-0.020905,0,0.000896,0,0,0,0.053606,-2.1888e-06,0.016081,0.36833,0.023228,0.047648,3.4971e-06,0.43,0.95,0
0.02212,-0.0082822,0.053644,-2.7861e-06,0.016092,0.00034642,0,0,0.048817,-0.020924,0,0.0009007,0,0,0,0.053646,-5.0231e-06,0.016092,0.36997,0.023244,0.047686,3.5051e-06,0.44,0.95,0
0.022609,-0.0083198,0.053685,-5.2579e-06,0.016104,0.0003471,0,0,0.048856,-0.020942,0,0.00090245,0,0,0,0.053688,-7.5017e-06,0.016104,0.37038,0.023261,0.047725,3.5135e-06,0.45,0.95,0
0.023097,-0.0083553,0.053729,-7.4283e-06,0.016116,0.00034676,0,0,0.048896,-0.020961,0,0.00090158,0,0,0,0.053731,-9.6659e-06,0.016116,0.36971,0.023279,0.047765,3.5221e-06,0.46,0.95,0
0.023586,-0.0083888,0.053773,-9.332e-06,0.016129,0.00034553,0,0,0.048937,-0.02098,0,0.00089839,0,0,0,0.053775,-1.1552e-05,0.016129,0.36809,0.023298,0.047806,3.531e-06,0.47,0.95,0
0.024076,-0.0084206,0.053818,-1.1e-05,0.016142,0.00034352,0,0,0.048979,-0.020999,0,0.00089315,0,0,0,0.05382,-1.3192e-05,0.016142,0.36562,0.023317,0.047847,3.54e-06,0.48,0.95,0
0.024566,-0.0084506,0.053864,-1.2459e-05,0.016155,0.0003408,0,0,0.049021,-0.021018,0,0.00088609,0,0,0,0.053866,-1.4615e-05,0.016155,0.36241,0.023336,0.047889,3.5492e-06,0.49,0.95,0
0.025056,-0.0084789,0.053911,-1.3733e-05,0.016169,0.00033747,0,0,0.049064,-0.021038,0,0.00087743,0,0,0,0.053913,-1.5845e-05,0.016169,0.35856,0.023355,0.047931,3.5584e-06,0.5,0.95,0
0.025547,-0.0085057,0.053957,-1.4843e-05,0.016183,0.0003336,0,0,0.049107,-0.021057,0,0.00086736,0,0,0,0.053959,-1.6905e-05,0.016183,0.35413,0.023375,0.047974,3.5677e-06,0.51,0.95,0
0.026039,-0.008531,0.054004,-1.5809e-05,0.016196,0.00032925,0,0,0.04915,-0.021076,0,0.00085604,0,0,0,0.054006,-1.7815e-05,0.016196,0.34919,0.023395,0.048016,3.5771e-06,0.52,0.95,0
0.02653,-0.0085549,0.054051,-1.6645e-05,0.01621,0.00032447,0,0,0.049193,-0.021095,0,0.00084362,0,0,0,0.054053,-1.8593e-05,0.01621,0.34383,0.023415,0.048058,3.5864e-06,0.53,0.95,0
0.027023,-0.0085774,0.054098,-1.7368e-05,0.016224,0.00031932,0,0,0.049236,-0.021114,0,0.00083024,0,0,0,0.0541,-1.9253e-05,0.016224,0.33808,0.023435,0.0481,3.5958e-06,0.54,0.95,0
0.027515,-0.0085987,0.054144,-1.799e-05,0.016238,0.00031385,0,0,0.049278,-0.021133,0,0.00081601,0,0,0,0.054146,-1.9809e-05,0.016238,0.33199,0.023455,0.048142,3.6051e-06,0.55,0.95,0
0.028008,-0.0086188,0.054191,-1.8523e-05,0.016252,0.00030809,0,0,0.049321,-0.021151,0,0.00080103,0,0,0,0.054192,-2.0274e-05,0.016252,0.32562,0.023474,0.048183,3.6144e-06,0.56,0.95,0
0.028501,-0.0086378,0.054236,-1.8977e-05,0.016265,0.00030208,0,0,0.049362,-0.021169,0,0.00078542,0,0,0,0.054238,-2.0659e-05,0.016265,0.319,0.023494,0.048224,3.6236e-06,0.57,0.95,0
0.028995,-0.0086557,0.054282,-1.936e-05,0.016279,0.00029586,0,0,0.049404,-0.021187,0,0.00076923,0,0,0,0.054283,-2.0972e-05,0.016279,0.31216,0.023514,0.048265,3.6327e-06,0.58,0.95,0
0.029489,-0.0086726,0.054326,-1.9682e-05,0.016292,0.00028945,0,0,0.049445,-0.021205,0,0.00075256,0,0,0,0.054328,-2.1223e-05,0.016292,0.30515,0.023533,0.048305,3.6417e-06,0.59,0.95,0
0.029984,-0.0086885,0.05437,-1.9948e-05,0.016305,0.00028287,0,0,0.049485,-0.021223,0,0.00073547,0,0,0,0.054372,-2.1419e-05,0.016305,0.29797,0.023552,0.048344,3.6505e-06,0.6,0.95,0
0.030479,-0.0087035,0.054414,-2.0165e-05,0.016318,0.00027616,0,0,0.049524,-0.02124,0,0.00071801,0,0,0,0.054415,-2.1566e-05,0.016318,0.29067,0.023571,0.048383,3.6593e-06,0.61,0.95,0
0.030975,-0.0087177,0.054456,-2.034e-05,0.016331,0.00026933,0,0,0.049563,-0.021257,0,0.00070025,0,0,0,0.054458,-2.1671e-05,0.016331,0.28325,0.023589,0.04842,3.6679e-06,0.62,0.95,0
0.03147,-0.008731,0.054498,-2.0476e-05,0.016343,0.00026239,0,0,0.049601,-0.021273,0,0.00068222,0,0,0,0.054499,-2.1739e-05,0.016343,0.27575,0.023607,0.048458,3.6763e-06,0.63,0.95,0
0.031967,-0.0087435,0.054539,-2.0579e-05,0.016356,0.00025538,0,0,0.049639,-0.021289,0,0.00066398,0,0,0,0.05454,-2.1774e-05,0.016356,0.26817,0.023625,0.048494,3.6846e-06,0.64,0.95,0
0.032463,-0.0087553,0.054579,-2.0652e-05,0.016368,0.00024829,0,0,0.049675,-0.021305,0,0.00064555,0,0,0,0.05458,-2.1781e-05,0.016368,0.26054,0.023642,0.04853,3.6927e-06,0.65,0.95,0
0.03296,-0.0087664,0.054618,-2.07e-05,0.016379,0.00024114,0,0,0.049711,-0.02132,0,0.00062697,0,0,0,0.05462,-2.1764e-05,0.016379,0.25286,0.023659,0.048564,3.7006e-06,0.66,0.95,0
0.033458,-0.0087769,0.054657,-2.0724e-05,0.016391,0.00023395,0,0,0.049746,-0.021335,0,0.00060828,0,0,0,0.054658,-2.1725e-05,0.016391,0.24515,0.023675,0.048598,3.7084e-06,0.67,0.95,0
0.033955,-0.0087867,0.054694,-2.0728e-05,0.016402,0.00022673,0,0,0.049779,-0.021349,0,0.00058949,0,0,0,0.054695,-2.1668e-05,0.016402,0.23742,0.023692,0.048631,3.7159e-06,0.68,0.95,0
0.034453,-0.0087959,0.05473,-2.0715e-05,0.016413,0.00021947,0,0,0.049812,-0.021364,0,0.00057063,0,0,0,0.054731,-2.1595e-05,0.016413,0.22967,0.023707,0.048663,3.7233e-06,0.69,0.95,0
0.034951,-0.0088045,0.054765,-2.0687e-05,0.016423,0.0002122,0,0,0.049844,-0.021377,0,0.00055173,0,0,0,0.054766,-2.1509e-05,0.016423,0.22192,0.023723,0.048694,3.7305e-06,0.7,0.95,0
0.03545,-0.0088126,0.054799,-2.0646e-05,0.016434,0.00020492,0,0,0.049875,-0.02139,0,0.00053279,0,0,0,0.0548,-2.1412e-05,0.016434,0.21417,0.023737,0.048724,3.7374e-06,0.71,0.95,0
0.035949,-0.0088203,0.054832,-2.0593e-05,0.016443,0.00019763,0,0,0.049905,-0.021403,0,0.00051384,0,0,0,0.054833,-2.1306e-05,0.016443,0.20643,0.023752,0.048753,3.7441e-06,0.72,0.95,0
0.036448,-0.0088274,0.054864,-2.0532e-05,0.016453,0.00019034,0,0,0.049934,-0.021416,0,0.00049489,0,0,0,0.054865,-2.1192e-05,0.016453,0.1987,0.023765,0.048782,3.7506e-06,0.73,0.95,0
0.036948,-0.0088341,0.054895,-2.0462e-05,0.016462,0.00018306,0,0,0.049962,-0.021428,0,0.00047595,0,0,0,0.054895,-2.1072e-05,0.016462,0.19099,0.023779,0.048809,3.757e-06,0.74,0.95,0
0.037447,-0.0088403,0.054925,-2.0386e-05,0.016471,0.00017578,0,0,0.049989,-0.021439,0,0.00045704,0,0,0,0.054925,-2.0949e-05,0.016471,0.1833,0.023792,0.048835,3.763e-06,0.75,0.95,0
0.037947,-0.0088461,0.054953,-2.0305e-05,0.01648,0.00016852,0,0,0.050015,-0.02145,0,0.00043815,0,0,0,0.054954,-2.0822e-05,0.01648,0.17564,0.023804,0.048861,3.7689e-06,0.76,0.95,0
0.038448,-0.0088516,0.054981,-2.022e-05,0.016488,0.00016127,0,0,0.05004,-0.021461,0,0.0004193,0,0,0,0.054981,-2.0692e-05,0.016488,0.168,0.023816,0.048885,3.7745e-06,0.77,0.95,0
0.038948,-0.0088567,0.055007,-2.0131e-05,0.016496,0.00015404,0,0,0.050064,-0.021471,0,0.0004005,0,0,0,0.055007,-2.0563e-05,0.016496,0.16039,0.023828,0.048908,3.7799e-06,0.78,0.95,0
0.039449,-0.0088614,0.055032,-2.0041e-05,0.016504,0.00014683,0,0,0.050087,-0.021481,0,0.00038175,0,0,0,0.055032,-2.0433e-05,0.016504,0.15281,0.023838,0.04893,3.7851e-06,0.79,0.95,0
0.03995,-0.0088658,0.055056,-1.995e-05,0.016511,0.00013964,0,0,0.050109,-0.02149,0,0.00036305,0,0,0,0.055056,-2.0304e-05,0.016511,0.14526,0.023849,0.048951,3.79e-06,0.8,0.95,0
0.040451,-0.0088699,0.055079,-1.9859e-05,0.016518,0.00013247,0,0,0.050129,-0.021499,0,0.00034441,0,0,0,0.055079,-2.0177e-05,0.016518,0.13775,0.023859,0.048972,3.7947e-06,0.81,0.95,0
0.040952,-0.0088737,0.0551,-1.9768e-05,0.016524,0.00012532,0,0,0.050149,-0.021507,0,0.00032583,0,0,0,0.055101,-2.0053e-05,0.016524,0.13026,0.023868,0.048991,3.7992e-06,0.82,0.95,0
0.041454,-0.0088772,0.055121,-1.9679e-05,0.01653,0.0001182,0,0,0.050168,-0.021515,0,0.00030731,0,0,0,0.055121,-1.9932e-05,0.01653,0.12281,0.023877,0.049009,3.8034e-06,0.83,0.95,0
0.041956,-0.0088804,0.05514,-1.9591e-05,0.016536,0.0001111,0,0,0.050185,-0.021522,0,0.00028885,0,0,0,0.055141,-1.9815e-05,0.016536,0.1154,0.023886,0.049026,3.8074e-06,0.84,0.95,0
0.042458,-0.0088834,0.055158,-1.9506e-05,0.016542,0.00010402,0,0,0.050202,-0.02153,0,0.00027045,0,0,0,0.055159,-1.9702e-05,0.016542,0.10801,0.023894,0.049042,3.8111e-06,0.85,0.95,0
0.04296,-0.0088861,0.055175,-1.9424e-05,0.016547,9.6964e-05,0,0,0.050217,-0.021536,0,0.00025211,0,0,0,0.055176,-1.9594e-05,0.016547,0.10065,0.023901,0.049057,3.8146e-06,0.86,0.95,0
0.043462,-0.0088886,0.055191,-1.9345e-05,0.016552,8.9933e-05,0,0,0.050232,-0.021542,0,0.00023383,0,0,0,0.055191,-1.9492e-05,0.016552,0.093329,0.023908,0.049071,3.8179e-06,0.87,0.95,0
0.043964,-0.0088909,0.055206,-1.9271e-05,0.016556,8.2923e-05,0,0,0.050245,-0.021548,0,0.0002156,0,0,0,0.055206,-1.9396e-05,0.016556,0.086032,0.023914,0.049084,3.821e-06,0.88,0.95,0
0.044467,-0.0088929,0.055219,-1.9201e-05,0.01656,7.5934e-05,0,0,0.050257,-0.021553,0,0.00019743,0,0,0,0.055219,-1.9306e-05,0.01656,0.078761,0.02392,0.049096,3.8237e-06,0.89,0.95,0
0.04497,-0.0088948,0.055232,-1.9136e-05,0.016564,6.8964e-05,0,0,0.050268,-0.021558,0,0.00017931,0,0,0,0.055232,-1.9222e-05,0.016564,0.071516,0.023925,0.049106,3.8263e-06,0.9,0.95,0
0.045472,-0.0088964,0.055243,-1.9076e-05,0.016567,6.2013e-05,0,0,0.050278,-0.021562,0,0.00016123,0,0,0,0.055243,-1.9146e-05,0.016567,0.064295,0.02393,0.049116,3.8286e-06,0.91,0.95,0
0.045975,-0.0088979,0.055253,-1.9022e-05,0.01657,5.5078e-05,0,0,0.050287,-0.021566,0,0.0001432,0,0,0,0.055253,-1.9077e-05,0.01657,0.057095,0.023935,0.049125,3.8307e-06,0.92,0.95,0
0.046478,-0.0088992,0.055262,-1.8973e-05,0.016573,4.8159e-05,0,0,0.050295,-0.021569,0,0.00012521,0,0,0,0.055262,-1.9015e-05,0.016573,0.049914,0.023939,0.049133,3.8325e-06,0.93,0.95,0
0.046981,-0.0089003,0.055269,-1.893e-05,0.016575,4.1253e-05,0,0,0.050302,-0.021572,0,0.00010726,0,0,0,0.055269,-1.8961e-05,0.016575,0.042751,0.023942,0.04914,3.8341e-06,0.94,0.95,0
0.047484,-0.0089012,0.055276,-1.8894e-05,0.016577,3.4359e-05,0,0,0.050308,-0.021575,0,8.9333e-05,0,0,0,0.055276,-1.8915e-05,0.016577,0.035603,0.023945,0.049145,3.8354e-06,0.95,0.95,0
0.047987,-0.0089019,0.055281,-1.8864e-05,0.016579,2.7475e-05,0,0,0.050313,-0.021577,0,7.1435e-05,0,0,0,0.055281,-1.8878e-05,0.016579,0.028467,0.023947,0.04915,3.8365e-06,0.96,0.95,0
0.04849,-0.0089025,0.055285,-1.884e-05,0.01658,2.0599e-05,0,0,0.050317,-0.021578,0,5.3558e-05,0,0,0,0.055285,-1.8848e-05,0.01658,0.021341,0.023949,0.049153,3.8373e-06,0.97,0.95,0
0.048994,-0.0089029,0.055288,-1.8824e-05,0.016581,1.3729e-05,0,0,0.050319,-0.021579,0,3.5696e-05,0,0,0,0.055288,-1.8827e-05,0.016581,0.014223,0.02395,0.049156,3.8379e-06,0.98,0.95,0
0.049497,-0.0089032,0.05529,-1.8813e-05,0.016581,6.8637e-06,0,0,0.050321,-0.02158,0,1.7846e-05,0,0,0,0.05529,-1.8814e-05,0.016581,0.0071103,0.023951,0.049158,3.8383e-06,0.99,0.95,0
0.05,-0.0089032,0.05529,-1.881e-05,0.016581,-3.137e-06,0,0,0.050321,-0.02158,0,-8.1563e-06,0,0,0,0.05529,-1.881e-05,0.016581,-0.0032497,0.023951,0.049158,3.8384e-06,1,0.95,0
0,0,0.065848,0.028221,0.028221,-0.018574,0,0,0.048916,1.5179e-18,0,-0.048293,0,0,0,0.073472,0.020597,0.028221,-22.316,0.040763,0.049506,5.7365e-06,0,0.96,0
0.00048916,-0.00048293,0.065305,0.02284,0.026443,-0.018125,0,0,0.05052,-0.0046849,0,-0.047125,0,0,0,0.071989,0.016155,0.026443,-20.243,0.038196,0.051467,6.0693e-06,0.01,0.96,0
0.0010104,-0.00099915,0.066251,0.017235,0.025046,-0.017414,0,0,0.053567,-0.010154,0,-0.045276,0,0,0,0.071808,0.011678,0.025046,-17.698,0.036177,0.054685,6.7372e-06,0.02,0.96,0
0.0015605,-0.0015185,0.066705,0.012358,0.023719,-0.015578,0,0,0.055882,-0.014769,0,-0.040504,0,0,0,0.070854,0.0082091,0.023719,-14.913,0.034261,0.05651,6.968e-06,0.03,0.96,0
0.002128,-0.0020175,0.066465,0.0088075,0.022582,-0.013247,0,0,0.057048,-0.017906,0,-0.034442,0,0,0,0.069362,0.0059096,0.022582,-12.34,0.032618,0.056977,6.8292e-06,0.04,0.96,0
0.0027015,-0.0024843,0.06562,0.0064042,0.021607,-0.010986,0,0,0.057217,-0.019764,0,-0.028563,0,0,0,0.067593,0.0044319,0.021607,-10.178,0.031211,0.056564,6.4872e-06,0.05,0.96,0
0.0032724,-0.0029161,0.064407,0.0047487,0.020747,-0.0090274,0,0,0.056758,-0.020797,0,-0.023471,0,0,0,0.065743,0.0034125,0.020747,-8.4189,0.029967,0.055724,6.0738e-06,0.06,0.96,0
0.0038366,-0.0033141,0.063081,0.0035939,0.020003,-0.0074128,0,0,0.056002,-0.021331,0,-0.019273,0,0,0,0.063991,0.0026841,0.020003,-6.9971,0.028893,0.054742,5.6701e-06,0.07,0.96,0
0.0043924,-0.003681,0.061784,0.002772,0.019367,-0.0061024,0,0,0.055142,-0.021573,0,-0.015866,0,0,0,0.062408,0.0021476,0.019367,-5.8426,0.027974,0.053761,5.3075e-06,0.08,0.96,0
0.0049395,-0.00402,0.060582,0.002175,0.018827,-0.0050418,0,0,0.054282,-0.021648,0,-0.013109,0,0,0,0.061014,0.001743,0.018827,-4.8976,0.027195,0.052843,4.9941e-06,0.09,0.96,0
0.0054781,-0.0043336,0.059502,0.0017326,0.01837,-0.00418,0,0,0.053471,-0.021629,0,-0.010868,0,0,0,0.059803,0.0014318,0.01837,-4.1171,0.026535,0.052013,4.7277e-06,0.1,0.96,0
0.0060089,-0.0046246,0.058546,0.0013986,0.017983,-0.003475,0,0,0.052731,-0.02156,0,-0.0090351,0,0,0,0.058756,0.0011881,0.017983,-3.4671,0.025976,0.051277,4.5029e-06,0.11,0.96,0
0.0065327,-0.0048951,0.057708,0.001142,0.017655,-0.0028942,0,0,0.052068,-0.021467,0,-0.007525,0,0,0,0.057855,0.00099428,0.017655,-2.9214,0.025501,0.05063,4.3138e-06,0.12,0.96,0
0.0070503,-0.005147,0.056977,0.00094167,0.017376,-0.0024122,0,0,0.051482,-0.021364,0,-0.0062716,0,0,0,0.057081,0.00083802,0.017376,-2.4603,0.025098,0.050066,4.1546e-06,0.13,0.96,0
0.0075623,-0.005382,0.056343,0.00078307,0.017138,-0.0020093,0,0,0.050967,-0.021261,0,-0.0052242,0,0,0,0.056416,0.0007105,0.017138,-2.0684,0.024755,0.049577,4.0205e-06,0.14,0.96,0
0.0080696,-0.0056015,0.055795,0.00065589,0.016935,-0.0016705,0,0,0.050518,-0.021163,0,-0.0043433,0,0,0,0.055846,0.00060532,0.016935,-1.7337,0.024462,0.049154,3.9074e-06,0.15,0.96,0
0.0085727,-0.0058069,0.055322,0.00055271,0.016762,-0.001384,0,0,0.050128,-0.021073,0,-0.0035985,0,0,0,0.055357,0.00051776,0.016762,-1.4466,0.024212,0.048789,3.812e-06,0.16,0.96,0
0.0090721,-0.0059992,0.054915,0.00046815,0.016615,-0.0011406,0,0,0.04979,-0.020991,0,-0.0029656,0,0,0,0.054939,0.00044426,0.016615,-1.1996,0.023999,0.048476,3.7314e-06,0.17,0.96,0
0.0095685,-0.0061795,0.054566,0.00039821,0.016489,-0.0009329,0,0,0.049499,-0.020918,0,-0.0024255,0,0,0,0.054582,0.00038215,0.016489,-0.98638,0.023818,0.048208,3.6635e-06,0.18,0.96,0
0.010062,-0.0063488,0.054267,0.00033989,0.016382,-0.00075504,0,0,0.04925,-0.020855,0,-0.0019631,0,0,0,0.054278,0.00032932,0.016382,-0.802,0.023663,0.04798,3.6063e-06,0.19,0.96,0
0.010554,-0.0065077,0.054013,0.0002909,0.016291,-0.0006023,0,0,0.049038,-0.0208,0,-0.001566,0,0,0,0.054019,0.00028415,0.016291,-0.64226,0.023532,0.047787,3.5582e-06,0.2,0.96,0
0.011043,-0.0066572,0.053797,0.0002495,0.016214,-0.00047082,0,0,0.048858,-0.020754,0,-0.0012241,0,0,0,0.053802,0.00024536,0.016214,-0.50372,0.02342,0.047624,3.518e-06,0.21,0.96,0
0.011531,-0.0067977,0.053616,0.0002143,0.016149,-0.00035742,0,0,0.048707,-0.020715,0,-0.00092929,0,0,0,0.053619,0.00021191,0.016149,-0.38346,0.023327,0.047488,3.4846e-06,0.22,0.96,0
0.012017,-0.00693,0.053465,0.00018423,0.016095,-0.00025949,0,0,0.048582,-0.020684,0,-0.00067469,0,0,0,0.053467,0.00018296,0.016095,-0.27904,0.023248,0.047376,3.457e-06,0.23,0.96,0
0.012502,-0.0070546,0.053341,0.00015842,0.01605,-0.00017486,0,0,0.048479,-0.020659,0,-0.00045463,0,0,0,0.053342,0.00015785,0.01605,-0.18838,0.023183,0.047285,3.4345e-06,0.24,0.96,0
0.012987,-0.007172,0.05324,0.00013619,0.016013,-0.00010168,0,0,0.048395,-0.02064,0,-0.00026436,0,0,0,0.05324,0.000136,0.016013,-0.1097,0.02313,0.047212,3.4164e-06,0.25,0.96,0
0.01347,-0.0072827,0.053159,0.00011698,0.015983,-3.8415e-05,0,0,0.048329,-0.020626,0,-9.988e-05,0,0,0,0.053159,0.00011695,0.015983,-0.041496,0.023086,0.047156,3.4022e-06,0.26,0.96,0
0.013953,-0.007387,0.053096,0.00010032,0.015959,1.6241e-05,0,0,0.048279,-0.020616,0,4.2228e-05,0,0,0,0.053096,0.00010032,0.015959,0.017559,0.023052,0.047113,3.3913e-06,0.27,0.96,0
0.014436,-0.0074855,0.05305,8.585e-05,0.015941,6.3408e-05,0,0,0.048242,-0.020611,0,0.00016486,0,0,0,0.05305,8.5774e-05,0.015941,0.068594,0.023025,0.047083,3.3833e-06,0.28,0.96,0
0.014918,-0.0075784,0.053017,7.3242e-05,0.015927,0.00010404,0,0,0.048217,-0.02061,0,0.0002705,0,0,0,0.053017,7.3038e-05,0.015927,0.11259,0.023006,0.047064,3.378e-06,0.29,0.96,0
0.0154,-0.0076661,0.052997,6.2241e-05,0.015918,0.00013896,0,0,0.048203,-0.020612,0,0.0003613,0,0,0,0.052997,6.1876e-05,0.015918,0.15041,0.022992,0.047055,3.3749e-06,0.3,0.96,0
0.015882,-0.007749,0.052987,5.2626e-05,0.015912,0.00016888,0,0,0.048198,-0.020617,0,0.00043908,0,0,0,0.052987,5.2087e-05,0.015912,0.18279,0.022984,0.047055,3.3737e-06,0.31,0.96,0
0.016364,-0.0078272,0.052987,4.4212e-05,0.015909,0.00019441,0,0,0.048201,-0.020625,0,0.00050546,0,0,0,0.052988,4.3498e-05,0.015909,0.21039,0.02298,0.047062,3.3743e-06,0.32,0.96,0
0.016846,-0.0079012,0.052995,3.684e-05,0.01591,0.00021609,0,0,0.048211,-0.020635,0,0.00056182,0,0,0,0.052996,3.5959e-05,0.01591,0.23378,0.022981,0.047075,3.3765e-06,0.33,0.96,0
0.017328,-0.007971,0.053011,3.0377e-05,0.015912,0.00023437,0,0,0.048228,-0.020647,0,0.00060937,0,0,0,0.053012,2.934e-05,0.015912,0.25346,0.022984,0.047094,3.3799e-06,0.34,0.96,0
0.017811,-0.0080371,0.053033,2.4705e-05,0.015917,0.00024968,0,0,0.04825,-0.02066,0,0.00064917,0,0,0,0.053034,2.3529e-05,0.015917,0.26987,0.022992,0.047119,3.3845e-06,0.35,0.96,0
0.018293,-0.0080995,0.05306,1.9727e-05,0.015924,0.00026236,0,0,0.048277,-0.020675,0,0.00068215,0,0,0,0.053061,1.8429e-05,0.015924,0.28341,0.023001,0.047147,3.3902e-06,0.36,0.96,0
0.018776,-0.0081585,0.053092,1.5355e-05,0.015932,0.00027273,0,0,0.048308,-0.020692,0,0.0007091,0,0,0,0.053094,1.3953e-05,0.015932,0.2944,0.023013,0.047179,3.3967e-06,0.37,0.96,0
0.019259,-0.0082143,0.053129,1.1515e-05,0.015942,0.00028106,0,0,0.048343,-0.02071,0,0.00073076,0,0,0,0.05313,1.0028e-05,0.015942,0.30316,0.023027,0.047215,3.404e-06,0.38,0.96,0
0.019743,-0.0082671,0.053169,8.143e-06,0.015953,0.00028759,0,0,0.04838,-0.020728,0,0.00074773,0,0,0,0.05317,6.5872e-06,0.015953,0.30995,0.023043,0.047253,3.4119e-06,0.39,0.96,0
0.020227,-0.008317,0.053212,5.1816e-06,0.015965,0.00029253,0,0,0.048421,-0.020748,0,0.00076057,0,0,0,0.053213,3.5734e-06,0.015965,0.315,0.023061,0.047294,3.4204e-06,0.4,0.96,0
0.020712,-0.0083642,0.053257,2.582e-06,0.015978,0.00029607,0,0,0.048463,-0.020768,0,0.00076978,0,0,0,0.053259,9.3603e-07,0.015978,0.31852,0.023079,0.047337,3.4294e-06,0.41,0.96,0
0.021196,-0.0084088,0.053305,3.008e-07,0.015992,0.00029837,0,0,0.048508,-0.020789,0,0.00077577,0,0,0,0.053307,-1.3693e-06,0.015992,0.3207,0.023099,0.047381,3.4389e-06,0.42,0.96,0
0.021682,-0.008451,0.053355,-1.6997e-06,0.016006,0.00029959,0,0,0.048554,-0.02081,0,0.00077893,0,0,0,0.053357,-3.3817e-06,0.016006,0.32169,0.02312,0.047427,3.4486e-06,0.43,0.96,0
0.022167,-0.008491,0.053406,-3.4526e-06,0.016021,0.00029984,0,0,0.048601,-0.020832,0,0.0007796,0,0,0,0.053408,-5.1359e-06,0.016021,0.32165,0.023141,0.047474,3.4587e-06,0.44,0.96,0
0.022654,-0.0085287,0.053458,-4.9871e-06,0.016036,0.00029925,0,0,0.048649,-0.020853,0,0.00077806,0,0,0,0.05346,-6.6621e-06,0.016036,0.32069,0.023163,0.047522,3.469e-06,0.45,0.96,0
0.02314,-0.0085645,0.053512,-6.3289e-06,0.016052,0.00029791,0,0,0.048698,-0.020875,0,0.00077458,0,0,0,0.053513,-7.9873e-06,0.016052,0.31893,0.023186,0.04757,3.4794e-06,0.46,0.96,0
0.023628,-0.0085982,0.053566,-7.5006e-06,0.016067,0.00029592,0,0,0.048748,-0.020897,0,0.00076939,0,0,0,0.053567,-9.1351e-06,0.016067,0.31647,0.023208,0.047619,3.49e-06,0.47,0.96,0
0.024115,-0.0086302,0.05362,-8.522e-06,0.016084,0.00029335,0,0,0.048798,-0.02092,0,0.0007627,0,0,0,0.053622,-1.0127e-05,0.016084,0.31339,0.023232,0.047668,3.5007e-06,0.48,0.96,0
0.024604,-0.0086604,0.053675,-9.4107e-06,0.0161,0.00029027,0,0,0.048848,-0.020942,0,0.00075469,0,0,0,0.053676,-1.098e-05,0.0161,0.30978,0.023255,0.047717,3.5115e-06,0.49,0.96,0
0.025092,-0.0086889,0.053729,-1.0182e-05,0.016116,0.00028674,0,0,0.048898,-0.020964,0,0.00074553,0,0,0,0.053731,-1.1712e-05,0.016116,0.30571,0.023278,0.047766,3.5223e-06,0.5,0.96,0
0.025582,-0.0087159,0.053784,-1.085e-05,0.016132,0.00028283,0,0,0.048948,-0.020986,0,0.00073535,0,0,0,0.053785,-1.2337e-05,0.016132,0.30122,0.023302,0.047815,3.5331e-06,0.51,0.96,0
0.026071,-0.0087414,0.053838,-1.1426e-05,0.016148,0.00027857,0,0,0.048997,-0.021007,0,0.00072428,0,0,0,0.05384,-1.2867e-05,0.016148,0.29639,0.023325,0.047864,3.5438e-06,0.52,0.96,0
0.026561,-0.0087655,0.053893,-1.1922e-05,0.016164,0.00027402,0,0,0.049047,-0.021029,0,0.00071244,0,0,0,0.053894,-1.3315e-05,0.016164,0.29124,0.023348,0.047913,3.5546e-06,0.53,0.96,0
0.027052,-0.0087882,0.053946,-1.2346e-05,0.01618,0.0002692,0,0,0.049096,-0.02105,0,0.00069993,0,0,0,0.053948,-1.3689e-05,0.01618,0.28584,0.023371,0.047961,3.5652e-06,0.54,0.96,0
0.027543,-0.0088097,0.053999,-1.2707e-05,0.016196,0.00026416,0,0,0.049145,-0.021071,0,0.00068682,0,0,0,0.054001,-1.3998e-05,0.016196,0.28021,0.023394,0.048008,3.5758e-06,0.55,0.96,0
0.028035,-0.0088301,0.054052,-1.3012e-05,0.016212,0.00025893,0,0,0.049192,-0.021092,0,0.00067322,0,0,0,0.054053,-1.4252e-05,0.016212,0.27439,0.023417,0.048055,3.5862e-06,0.56,0.96,0
0.028527,-0.0088492,0.054104,-1.3267e-05,0.016227,0.00025353,0,0,0.04924,-0.021113,0,0.00065917,0,0,0,0.054105,-1.4455e-05,0.016227,0.26841,0.023439,0.048101,3.5965e-06,0.57,0.96,0
0.02902,-0.0088673,0.054155,-1.348e-05,0.016242,0.00024798,0,0,0.049286,-0.021133,0,0.00064476,0,0,0,0.054156,-1.4615e-05,0.016242,0.26229,0.023461,0.048147,3.6067e-06,0.58,0.96,0
0.029513,-0.0088844,0.054205,-1.3654e-05,0.016257,0.00024232,0,0,0.049332,-0.021152,0,0.00063002,0,0,0,0.054206,-1.4737e-05,0.016257,0.25606,0.023483,0.048191,3.6168e-06,0.59,0.96,0
0.030006,-0.0089005,0.054254,-1.3794e-05,0.016272,0.00023654,0,0,0.049377,-0.021172,0,0.00061501,0,0,0,0.054255,-1.4825e-05,0.016272,0.24973,0.023504,0.048235,3.6266e-06,0.6,0.96,0
0.0305,-0.0089157,0.054303,-1.3904e-05,0.016287,0.00023068,0,0,0.049421,-0.021191,0,0.00059978,0,0,0,0.054304,-1.4884e-05,0.016287,0.24333,0.023525,0.048278,3.6363e-06,0.61,0.96,0
0.030995,-0.00893,0.05435,-1.3988e-05,0.016301,0.00022475,0,0,0.049464,-0.021209,0,0.00058436,0,0,0,0.054351,-1.4917e-05,0.016301,0.23687,0.023546,0.04832,3.6459e-06,0.62,0.96,0
0.03149,-0.0089435,0.054397,-1.4049e-05,0.016315,0.00021876,0,0,0.049506,-0.021227,0,0.00056879,0,0,0,0.054397,-1.4929e-05,0.016315,0.23036,0.023566,0.048361,3.6552e-06,0.63,0.96,0
0.031985,-0.0089562,0.054442,-1.409e-05,0.016328,0.00021273,0,0,0.049548,-0.021245,0,0.00055309,0,0,0,0.054443,-1.4921e-05,0.016328,0.22381,0.023585,0.048402,3.6643e-06,0.64,0.96,0
0.032481,-0.0089681,0.054486,-1.4113e-05,0.016341,0.00020665,0,0,0.049588,-0.021262,0,0.0005373,0,0,0,0.054487,-1.4896e-05,0.016341,0.21725,0.023605,0.048441,3.6732e-06,0.65,0.96,0
0.032977,-0.0089794,0.054529,-1.412e-05,0.016355,0.00020055,0,0,0.049627,-0.021279,0,0.00052143,0,0,0,0.05453,-1.4857e-05,0.016355,0.21067,0.023623,0.048479,3.6819e-06,0.66,0.96,0
0.033473,-0.00899,0.054571,-1.4113e-05,0.016367,0.00019443,0,0,0.049665,-0.021295,0,0.00050551,0,0,0,0.054572,-1.4806e-05,0.016367,0.20408,0.023641,0.048516,3.6904e-06,0.67,0.96,0
0.03397,-0.009,0.054612,-1.4096e-05,0.016379,0.00018829,0,0,0.049702,-0.021311,0,0.00048956,0,0,0,0.054612,-1.4744e-05,0.016379,0.19749,0.023659,0.048552,3.6987e-06,0.68,0.96,0
0.034467,-0.0090093,0.054651,-1.4067e-05,0.016391,0.00018215,0,0,0.049738,-0.021327,0,0.0004736,0,0,0,0.054652,-1.4674e-05,0.016391,0.19092,0.023676,0.048587,3.7067e-06,0.69,0.96,0
0.034965,-0.0090181,0.05469,-1.403e-05,0.016403,0.00017601,0,0,0.049773,-0.021342,0,0.00045763,0,0,0,0.05469,-1.4597e-05,0.016403,0.18435,0.023693,0.048621,3.7145e-06,0.7,0.96,0
0.035463,-0.0090264,0.054727,-1.3986e-05,0.016414,0.00016987,0,0,0.049807,-0.021356,0,0.00044167,0,0,0,0.054727,-1.4513e-05,0.016414,0.1778,0.023709,0.048654,3.7221e-06,0.71,0.96,0
0.035961,-0.0090341,0.054763,-1.3936e-05,0.016425,0.00016374,0,0,0.04984,-0.02137,0,0.00042573,0,0,0,0.054763,-1.4425e-05,0.016425,0.17127,0.023724,0.048686,3.7294e-06,0.72,0.96,0
0.036459,-0.0090414,0.054797,-1.388e-05,0.016435,0.00015762,0,0,0.049871,-0.021384,0,0.00040982,0,0,0,0.054798,-1.4333e-05,0.016435,0.16477,0.02374,0.048717,3.7365e-06,0.73,0.96,0
0.036958,-0.0090482,0.054831,-1.382e-05,0.016445,0.00015152,0,0,0.049901,-0.021397,0,0.00039395,0,0,0,0.054831,-1.4238e-05,0.016445,0.15829,0.023754,0.048746,3.7433e-06,0.74,0.96,0
0.037458,-0.0090545,0.054863,-1.3756e-05,0.016455,0.00014543,0,0,0.049931,-0.021409,0,0.00037812,0,0,0,0.054863,-1.4142e-05,0.016455,0.15184,0.023768,0.048775,3.7499e-06,0.75,0.96,0
0.037957,-0.0090605,0.054894,-1.3691e-05,0.016464,0.00013936,0,0,0.049959,-0.021421,0,0.00036234,0,0,0,0.054894,-1.4044e-05,0.016464,0.14542,0.023781,0.048802,3.7562e-06,0.76,0.96,0
0.038457,-0.0090661,0.054924,-1.3623e-05,0.016473,0.00013332,0,0,0.049986,-0.021433,0,0.00034662,0,0,0,0.054924,-1.3946e-05,0.016473,0.13904,0.023794,0.048829,3.7623e-06,0.77,0.96,0
0.038957,-0.0090712,0.054952,-1.3554e-05,0.016481,0.00012729,0,0,0.050012,-0.021444,0,0.00033095,0,0,0,0.054952,-1.3849e-05,0.016481,0.13268,0.023807,0.048854,3.7681e-06,0.78,0.96,0
0.039457,-0.0090761,0.054979,-1.3484e-05,0.01649,0.00012129,0,0,0.050036,-0.021454,0,0.00031535,0,0,0,0.05498,-1.3752e-05,0.01649,0.12637,0.023818,0.048878,3.7737e-06,0.79,0.96,0
0.039957,-0.0090806,0.055005,-1.3415e-05,0.016497,0.00011531,0,0,0.05006,-0.021464,0,0.0002998,0,0,0,0.055005,-1.3657e-05,0.016497,0.12008,0.02383,0.048901,3.779e-06,0.8,0.96,0
0.040458,-0.0090847,0.05503,-1.3346e-05,0.016505,0.00010935,0,0,0.050082,-0.021474,0,0.00028432,0,0,0,0.05503,-1.3563e-05,0.016505,0.11383,0.02384,0.048923,3.7841e-06,0.81,0.96,0
0.040959,-0.0090886,0.055053,-1.3278e-05,0.016512,0.00010342,0,0,0.050103,-0.021483,0,0.0002689,0,0,0,0.055053,-1.3472e-05,0.016512,0.10761,0.023851,0.048943,3.7889e-06,0.82,0.96,0
0.04146,-0.0090922,0.055075,-1.3212e-05,0.016519,9.7519e-05,0,0,0.050124,-0.021491,0,0.00025355,0,0,0,0.055075,-1.3384e-05,0.016519,0.10143,0.02386,0.048963,3.7934e-06,0.83,0.96,0
0.041962,-0.0090955,0.055096,-1.3147e-05,0.016525,9.1638e-05,0,0,0.050142,-0.021499,0,0.00023826,0,0,0,0.055096,-1.3299e-05,0.016525,0.095274,0.023869,0.048981,3.7977e-06,0.84,0.96,0
0.042463,-0.0090986,0.055115,-1.3084e-05,0.016531,8.5781e-05,0,0,0.05016,-0.021507,0,0.00022303,0,0,0,0.055115,-1.3218e-05,0.016531,0.089153,0.023878,0.048998,3.8017e-06,0.85,0.96,0
0.042965,-0.0091014,0.055134,-1.3024e-05,0.016536,7.9946e-05,0,0,0.050177,-0.021514,0,0.00020786,0,0,0,0.055134,-1.314e-05,0.016536,0.083061,0.023886,0.049015,3.8055e-06,0.86,0.96,0
0.043467,-0.0091039,0.055151,-1.2967e-05,0.016541,7.4134e-05,0,0,0.050192,-0.021521,0,0.00019275,0,0,0,0.055151,-1.3067e-05,0.016541,0.076999,0.023893,0.049029,3.809e-06,0.87,0.96,0
0.043969,-0.0091062,0.055166,-1.2913e-05,0.016546,6.8343e-05,0,0,0.050206,-0.021527,0,0.00017769,0,0,0,0.055167,-1.2998e-05,0.016546,0.070964,0.0239,0.049043,3.8123e-06,0.88,0.96,0
0.044471,-0.0091084,0.055181,-1.2862e-05,0.01655,6.2573e-05,0,0,0.05022,-0.021532,0,0.00016269,0,0,0,0.055181,-1.2933e-05,0.01655,0.064955,0.023906,0.049056,3.8153e-06,0.89,0.96,0
0.044973,-0.0091103,0.055194,-1.2815e-05,0.016554,5.6821e-05,0,0,0.050232,-0.021537,0,0.00014773,0,0,0,0.055194,-1.2874e-05,0.016554,0.058971,0.023912,0.049068,3.818e-06,0.9,0.96,0
0.045475,-0.009112,0.055206,-1.2772e-05,0.016558,5.1086e-05,0,0,0.050242,-0.021542,0,0.00013282,0,0,0,0.055206,-1.2819e-05,0.016558,0.053008,0.023917,0.049078,3.8205e-06,0.91,0.96,0
0.045978,-0.0091135,0.055217,-1.2733e-05,0.016561,4.5368e-05,0,0,0.050252,-0.021546,0,0.00011796,0,0,0,0.055217,-1.277e-05,0.016561,0.047066,0.023922,0.049088,3.8227e-06,0.92,0.96,0
0.04648,-0.0091148,0.055226,-1.2698e-05,0.016564,3.9664e-05,0,0,0.050261,-0.02155,0,0.00010313,0,0,0,0.055226,-1.2727e-05,0.016564,0.041142,0.023926,0.049096,3.8246e-06,0.93,0.96,0
0.046983,-0.0091159,0.055234,-1.2668e-05,0.016567,3.3974e-05,0,0,0.050268,-0.021553,0,8.8332e-05,0,0,0,0.055234,-1.2689e-05,0.016567,0.035234,0.023929,0.049103,3.8263e-06,0.94,0.96,0
0.047486,-0.0091168,0.055241,-1.2642e-05,0.016568,2.8294e-05,0,0,0.050274,-0.021555,0,7.3565e-05,0,0,0,0.055241,-1.2656e-05,0.016568,0.02934,0.023932,0.04911,3.8277e-06,0.95,0.96,0
0.047989,-0.0091176,0.055247,-1.262e-05,0.01657,2.2624e-05,0,0,0.050279,-0.021558,0,5.8822e-05,0,0,0,0.055247,-1.2629e-05,0.01657,0.023458,0.023935,0.049114,3.8289e-06,0.96,0.96,0
0.048491,-0.0091182,0.055251,-1.2603e-05,0.016572,1.6961e-05,0,0,0.050284,-0.021559,0,4.4099e-05,0,0,0,0.055251,-1.2608e-05,0.016572,0.017585,0.023937,0.049118,3.8298e-06,0.97,0.96,0
0.048994,-0.0091186,0.055254,-1.2591e-05,0.016573,1.1304e-05,0,0,0.050286,-0.021561,0,2.9391e-05,0,0,0,0.055254,-1.2594e-05,0.016573,0.011719,0.023938,0.049121,3.8305e-06,0.98,0.96,0
0.049497,-0.0091189,0.055256,-1.2584e-05,0.016573,5.6512e-06,0,0,0.050288,-0.021561,0,1.4693e-05,0,0,0,0.055256,-1.2584e-05,0.016573,0.0058584,0.023939,0.049123,3.8309e-06,0.99,0.96,0
0.05,-0.0091189,0.055257,-1.2581e-05,0.016573,-3.227e-06,0,0,0.050289,-0.021562,0,-8.3901e-06,0,0,0,0.055257,-1.2582e-05,0.016573,-0.0033453,0.023939,0.049123,3.831e-06,1,0.96,0
0,0,0.070432,0.030185,0.030185,-0.020635,0,0,0.052321,1.301e-18,0,-0.053651,0,0,0,0.079131,0.021486,0.030185,-22.86,0.043601,0.053826,7.309e-06,0,0.97,0
0.00052321,-0.00053651,0.069451,0.022437,0.027566,-0.019634,0,0,0.05445,-0.0066686,0,-0.05105,0,0,0,0.076572,0.015315,0.027566,-19.935,0.039818,0.056143,7.6503e-06,0.01,0.97,0
0.001089,-0.0011147,0.070121,0.014713,0.02545,-0.018047,0,0,0.058072,-0.013959,0,-0.046921,0,0,0,0.075481,0.0093533,0.02545,-16.54,0.036761,0.059728,8.3228e-06,0.02,0.97,0
0.0016846,-0.0016831,0.069983,0.0092969,0.023784,-0.014949,0,0,0.060059,-0.018833,0,-0.038866,0,0,0,0.073466,0.0058145,0.023784,-13.114,0.034355,0.060695,8.1812e-06,0.03,0.97,0
0.0022902,-0.0022122,0.068844,0.006257,0.02253,-0.011851,0,0,0.060208,-0.021155,0,-0.030813,0,0,0,0.071013,0.0040881,0.02253,-10.371,0.032544,0.059874,7.6003e-06,0.04,0.97,0
0.0028888,-0.0026944,0.066934,0.0043388,0.021382,-0.0093001,0,0,0.059218,-0.022156,0,-0.02418,0,0,0,0.068287,0.0029862,0.021382,-8.2746,0.030885,0.058321,6.8755e-06,0.05,0.97,0
0.0034745,-0.0031334,0.064916,0.0031106,0.020408,-0.0073435,0,0,0.057861,-0.022487,0,-0.019093,0,0,0,0.065777,0.0022501,0.020408,-6.6837,0.029478,0.056673,6.2156e-06,0.06,0.97,0
0.004046,-0.0035342,0.063037,0.0022947,0.0196,-0.0058538,0,0,0.056469,-0.022496,0,-0.01522,0,0,0,0.063596,0.0017357,0.0196,-5.4547,0.028311,0.055143,5.6636e-06,0.07,0.97,0
0.0046039,-0.0039016,0.061381,0.0017361,0.018935,-0.0047117,0,0,0.055179,-0.022359,0,-0.01225,0,0,0,0.061751,0.0013662,0.018935,-4.489,0.027351,0.053796,5.2157e-06,0.08,0.97,0
0.0051496,-0.0042398,0.059953,0.0013422,0.018389,-0.0038239,0,0,0.054034,-0.02216,0,-0.0099422,0,0,0,0.060201,0.0010938,0.018389,-3.7171,0.026561,0.052636,4.8548e-06,0.09,0.97,0
0.0056846,-0.0045523,0.058735,0.0010571,0.017938,-0.0031238,0,0,0.053037,-0.021945,0,-0.008122,0,0,0,0.058904,0.00088837,0.017938,-3.0911,0.02591,0.051646,4.5634e-06,0.1,0.97,0
0.0062103,-0.0048417,0.0577,0.00084559,0.017564,-0.002564,0,0,0.052177,-0.021733,0,-0.0066665,0,0,0,0.057815,0.00073019,0.017564,-2.577,0.02537,0.050805,4.3269e-06,0.11,0.97,0
0.0067281,-0.0051107,0.056822,0.00068543,0.017252,-0.0021108,0,0,0.05144,-0.021537,0,-0.0054881,0,0,0,0.056901,0.00060617,0.017252,-2.1503,0.02492,0.050091,4.1339e-06,0.12,0.97,0
0.0072391,-0.0053611,0.056077,0.00056183,0.016992,-0.0017398,0,0,0.050811,-0.021359,0,-0.0045234,0,0,0,0.056131,0.00050736,0.016992,-1.7933,0.024543,0.049486,3.9755e-06,0.13,0.97,0
0.0077444,-0.0055947,0.055446,0.00046487,0.016773,-0.0014332,0,0,0.050274,-0.021201,0,-0.0037263,0,0,0,0.055483,0.00042753,0.016773,-1.4922,0.024228,0.048973,3.845e-06,0.14,0.97,0
0.0082446,-0.005813,0.054911,0.00038768,0.01659,-0.0011778,0,0,0.049818,-0.021063,0,-0.0030623,0,0,0,0.054937,0.00036225,0.01659,-1.2369,0.023963,0.04854,3.7371e-06,0.15,0.97,0
0.0087407,-0.0060172,0.054459,0.00032546,0.016435,-0.00096352,0,0,0.049431,-0.020943,0,-0.0025052,0,0,0,0.054477,0.00030831,0.016435,-1.0194,0.02374,0.048174,3.6477e-06,0.16,0.97,0
0.0092333,-0.0062086,0.054078,0.00027472,0.016306,-0.00078271,0,0,0.049104,-0.020841,0,-0.0020351,0,0,0,0.054089,0.00026333,0.016306,-0.83328,0.023553,0.047866,3.5736e-06,0.17,0.97,0
0.0097228,-0.0063881,0.053757,0.00023293,0.016197,-0.00062939,0,0,0.048828,-0.020754,0,-0.0016364,0,0,0,0.053765,0.00022553,0.016197,-0.67361,0.023396,0.047607,3.5122e-06,0.18,0.97,0
0.01021,-0.0065566,0.053489,0.00019821,0.016106,-0.00049884,0,0,0.048598,-0.02068,0,-0.001297,0,0,0,0.053494,0.00019354,0.016106,-0.53627,0.023265,0.047392,3.4615e-06,0.19,0.97,0
0.010695,-0.006715,0.053266,0.00016915,0.01603,-0.00038732,0,0,0.048406,-0.02062,0,-0.001007,0,0,0,0.053269,0.00016632,0.01603,-0.41792,0.023155,0.047214,3.4198e-06,0.2,0.97,0
0.011178,-0.0068639,0.053082,0.00014464,0.015968,-0.00029181,0,0,0.048248,-0.02057,0,-0.00075871,0,0,0,0.053083,0.00014304,0.015968,-0.31582,0.023065,0.047067,3.3858e-06,0.21,0.97,0
0.01166,-0.0070041,0.052932,0.00012387,0.015917,-0.00020985,0,0,0.04812,-0.020531,0,-0.00054562,0,0,0,0.052933,0.00012303,0.015917,-0.22768,0.022991,0.046949,3.3584e-06,0.22,0.97,0
0.01214,-0.007136,0.052811,0.00010615,0.015875,-0.00013943,0,0,0.048017,-0.0205,0,-0.00036252,0,0,0,0.052811,0.00010578,0.015875,-0.15157,0.022931,0.046855,3.3365e-06,0.23,0.97,0
0.01262,-0.0072604,0.052716,9.0984e-05,0.015842,-7.8876e-05,0,0,0.047936,-0.020476,0,-0.00020508,0,0,0,0.052716,9.0866e-05,0.015842,-0.085877,0.022883,0.046782,3.3195e-06,0.24,0.97,0
0.013099,-0.0073776,0.052643,7.7942e-05,0.015816,-2.68e-05,0,0,0.047875,-0.02046,0,-6.9679e-05,0,0,0,0.052643,7.7929e-05,0.015816,-0.029211,0.022846,0.046728,3.3066e-06,0.25,0.97,0
0.013578,-0.0074881,0.05259,6.669e-05,0.015797,1.7967e-05,0,0,0.047831,-0.020449,0,4.6715e-05,0,0,0,0.05259,6.6684e-05,0.015797,0.0196,0.022818,0.04669,3.2974e-06,0.26,0.97,0
0.014056,-0.0075924,0.052554,5.6953e-05,0.015783,5.641e-05,0,0,0.047802,-0.020444,0,0.00014667,0,0,0,0.052554,5.6892e-05,0.015783,0.061567,0.022798,0.046665,3.2912e-06,0.27,0.97,0
0.014534,-0.0076908,0.052532,4.8505e-05,0.015774,8.9367e-05,0,0,0.047786,-0.020443,0,0.00023235,0,0,0,0.052533,4.8353e-05,0.015774,0.09756,0.022785,0.046653,3.2878e-06,0.28,0.97,0
0.015011,-0.0077837,0.052524,4.116e-05,0.015769,0.00011755,0,0,0.047781,-0.020447,0,0.00030563,0,0,0,0.052524,4.0897e-05,0.015769,0.12833,0.022778,0.046652,3.2867e-06,0.29,0.97,0
0.015489,-0.0078715,0.052527,3.4762e-05,0.015768,0.00014158,0,0,0.047786,-0.020454,0,0.0003681,0,0,0,0.052527,3.438e-05,0.015768,0.15453,0.022777,0.046659,3.2877e-06,0.3,0.97,0
0.015967,-0.0079544,0.052539,2.918e-05,0.01577,0.00016197,0,0,0.047799,-0.020464,0,0.00042113,0,0,0,0.05254,2.868e-05,0.01577,0.17673,0.02278,0.046675,3.2904e-06,0.31,0.97,0
0.016445,-0.0080328,0.05256,2.4303e-05,0.015775,0.00017919,0,0,0.04782,-0.020476,0,0.0004659,0,0,0,0.052561,2.3692e-05,0.015775,0.19543,0.022787,0.046698,3.2948e-06,0.32,0.97,0
0.016924,-0.0081068,0.052589,2.004e-05,0.015783,0.00019363,0,0,0.047848,-0.020491,0,0.00050345,0,0,0,0.052589,1.9326e-05,0.015783,0.21104,0.022797,0.046727,3.3004e-06,0.33,0.97,0
0.017402,-0.0081768,0.052623,1.6308e-05,0.015792,0.00020564,0,0,0.047881,-0.020508,0,0.00053466,0,0,0,0.052624,1.5504e-05,0.015792,0.22396,0.02281,0.046761,3.3072e-06,0.34,0.97,0
0.017881,-0.008243,0.052663,1.3041e-05,0.015803,0.0002155,0,0,0.047919,-0.020527,0,0.00056031,0,0,0,0.052664,1.2159e-05,0.015803,0.23451,0.022826,0.046799,3.315e-06,0.35,0.97,0
0.01836,-0.0083056,0.052708,1.0179e-05,0.015815,0.00022349,0,0,0.04796,-0.020547,0,0.00058108,0,0,0,0.052709,9.2314e-06,0.015815,0.24299,0.022845,0.046842,3.3237e-06,0.36,0.97,0
0.01884,-0.0083648,0.052757,7.6721e-06,0.015829,0.00022984,0,0,0.048006,-0.020568,0,0.00059757,0,0,0,0.052758,6.6707e-06,0.015829,0.24964,0.022865,0.046887,3.3331e-06,0.37,0.97,0
0.019321,-0.0084208,0.052809,5.4755e-06,0.015844,0.00023473,0,0,0.048054,-0.020591,0,0.0006103,0,0,0,0.05281,4.4321e-06,0.015844,0.25469,0.022886,0.046935,3.3432e-06,0.38,0.97,0
0.019801,-0.0084738,0.052864,3.5515e-06,0.01586,0.00023835,0,0,0.048105,-0.020614,0,0.00061972,0,0,0,0.052865,2.4767e-06,0.01586,0.25835,0.022909,0.046986,3.3538e-06,0.39,0.97,0
0.020283,-0.0085239,0.052921,1.8667e-06,0.015877,0.00024086,0,0,0.048158,-0.020638,0,0.00062624,0,0,0,0.052922,7.7041e-07,0.015877,0.26077,0.022933,0.047038,3.3648e-06,0.4,0.97,0
0.020765,-0.0085714,0.052981,3.9209e-07,0.015894,0.00024239,0,0,0.048212,-0.020662,0,0.00063021,0,0,0,0.052982,-7.1683e-07,0.015894,0.26212,0.022958,0.047092,3.3763e-06,0.41,0.97,0
0.021247,-0.0086162,0.053041,-8.976e-07,0.015912,0.00024305,0,0,0.048268,-0.020687,0,0.00063194,0,0,0,0.053042,-2.0113e-06,0.015912,0.26254,0.022984,0.047147,3.388e-06,0.42,0.97,0
0.02173,-0.0086587,0.053103,-2.0246e-06,0.01593,0.00024296,0,0,0.048325,-0.020712,0,0.0006317,0,0,0,0.053104,-3.1361e-06,0.01593,0.26212,0.023011,0.047203,3.3999e-06,0.43,0.97,0
0.022214,-0.0086988,0.053166,-3.0084e-06,0.015949,0.00024221,0,0,0.048382,-0.020737,0,0.00062974,0,0,0,0.053167,-4.1117e-06,0.015949,0.261,0.023037,0.047259,3.4121e-06,0.44,0.97,0
0.022698,-0.0087368,0.05323,-3.866e-06,0.015968,0.00024087,0,0,0.04844,-0.020763,0,0.00062626,0,0,0,0.053231,-4.9559e-06,0.015968,0.25924,0.023065,0.047316,3.4244e-06,0.45,0.97,0
0.023182,-0.0087728,0.053293,-4.6125e-06,0.015987,0.00023902,0,0,0.048499,-0.020789,0,0.00062147,0,0,0,0.053295,-5.6845e-06,0.015987,0.25695,0.023092,0.047374,3.4367e-06,0.46,0.97,0
0.023668,-0.0088068,0.053357,-5.2611e-06,0.016006,0.00023673,0,0,0.048557,-0.020814,0,0.00061551,0,0,0,0.053358,-6.3114e-06,0.016006,0.25418,0.023119,0.047431,3.4491e-06,0.47,0.97,0
0.024153,-0.008839,0.053421,-5.8235e-06,0.016025,0.00023406,0,0,0.048616,-0.02084,0,0.00060855,0,0,0,0.053422,-6.8488e-06,0.016025,0.251,0.023147,0.047488,3.4616e-06,0.48,0.97,0
0.02464,-0.0088694,0.053485,-6.3097e-06,0.016044,0.00023104,0,0,0.048674,-0.020865,0,0.0006007,0,0,0,0.053486,-7.3076e-06,0.016044,0.24746,0.023174,0.047545,3.474e-06,0.49,0.97,0
0.025127,-0.0088982,0.053548,-6.729e-06,0.016063,0.00022773,0,0,0.048732,-0.02089,0,0.00059209,0,0,0,0.053549,-7.6973e-06,0.016063,0.24363,0.023201,0.047602,3.4864e-06,0.5,0.97,0
0.025614,-0.0089254,0.053611,-7.0891e-06,0.016081,0.00022416,0,0,0.048789,-0.020915,0,0.00058281,0,0,0,0.053612,-8.0262e-06,0.016081,0.23953,0.023228,0.047658,3.4987e-06,0.51,0.97,0
0.026103,-0.0089511,0.053673,-7.3972e-06,0.0161,0.00022037,0,0,0.048846,-0.020939,0,0.00057296,0,0,0,0.053674,-8.3019e-06,0.0161,0.2352,0.023255,0.047713,3.5109e-06,0.52,0.97,0
0.026591,-0.0089754,0.053735,-7.6594e-06,0.016118,0.00021639,0,0,0.048902,-0.020964,0,0.0005626,0,0,0,0.053736,-8.5307e-06,0.016118,0.23069,0.023282,0.047768,3.5231e-06,0.53,0.97,0
0.027081,-0.0089984,0.053796,-7.8813e-06,0.016136,0.00021224,0,0,0.048957,-0.020988,0,0.00055183,0,0,0,0.053797,-8.7185e-06,0.016136,0.22601,0.023308,0.047823,3.535e-06,0.54,0.97,0
0.027571,-0.0090201,0.053856,-8.0675e-06,0.016154,0.00020796,0,0,0.049012,-0.021011,0,0.00054068,0,0,0,0.053857,-8.8703e-06,0.016154,0.2212,0.023334,0.047876,3.5469e-06,0.55,0.97,0
0.028061,-0.0090407,0.053915,-8.2223e-06,0.016172,0.00020355,0,0,0.049066,-0.021034,0,0.00052923,0,0,0,0.053916,-8.9907e-06,0.016172,0.21628,0.023359,0.047928,3.5585e-06,0.56,0.97,0
0.028552,-0.0090601,0.053973,-8.3496e-06,0.016189,0.00019904,0,0,0.049119,-0.021057,0,0.00051751,0,0,0,0.053974,-9.0835e-06,0.016189,0.21126,0.023385,0.04798,3.57e-06,0.57,0.97,0
0.029043,-0.0090784,0.05403,-8.4525e-06,0.016206,0.00019445,0,0,0.04917,-0.021079,0,0.00050557,0,0,0,0.054031,-9.1522e-06,0.016206,0.20617,0.023409,0.048031,3.5813e-06,0.58,0.97,0
0.029535,-0.0090956,0.054086,-8.5342e-06,0.016223,0.00018979,0,0,0.049221,-0.021101,0,0.00049346,0,0,0,0.054086,-9.2e-06,0.016223,0.20102,0.023433,0.04808,3.5924e-06,0.59,0.97,0
0.030028,-0.009112,0.05414,-8.597e-06,0.01624,0.00018507,0,0,0.049271,-0.021122,0,0.00048119,0,0,0,0.054141,-9.2296e-06,0.01624,0.19582,0.023457,0.048129,3.6033e-06,0.6,0.97,0
0.030521,-0.0091273,0.054194,-8.6435e-06,0.016255,0.00018031,0,0,0.04932,-0.021143,0,0.0004688,0,0,0,0.054194,-9.2433e-06,0.016255,0.19059,0.02348,0.048176,3.614e-06,0.61,0.97,0
0.031014,-0.0091418,0.054246,-8.6755e-06,0.016271,0.00017551,0,0,0.049367,-0.021164,0,0.00045632,0,0,0,0.054246,-9.2432e-06,0.016271,0.18534,0.023503,0.048223,3.6244e-06,0.62,0.97,0
0.031508,-0.0091555,0.054297,-8.6949e-06,0.016286,0.00017068,0,0,0.049413,-0.021184,0,0.00044376,0,0,0,0.054297,-9.2313e-06,0.016286,0.18007,0.023525,0.048268,3.6347e-06,0.63,0.97,0
0.032002,-0.0091684,0.054346,-8.7033e-06,0.016301,0.00016583,0,0,0.049459,-0.021203,0,0.00043116,0,0,0,0.054347,-9.2092e-06,0.016301,0.1748,0.023546,0.048312,3.6446e-06,0.64,0.97,0
0.032497,-0.0091806,0.054395,-8.7022e-06,0.016316,0.00016097,0,0,0.049503,-0.021222,0,0.00041852,0,0,0,0.054395,-9.1784e-06,0.016316,0.16952,0.023567,0.048355,3.6544e-06,0.65,0.97,0
0.032993,-0.009192,0.054442,-8.6927e-06,0.01633,0.0001561,0,0,0.049545,-0.02124,0,0.00040586,0,0,0,0.054442,-9.1402e-06,0.01633,0.16426,0.023588,0.048397,3.6638e-06,0.66,0.97,0
0.033488,-0.0092028,0.054488,-8.676e-06,0.016344,0.00015123,0,0,0.049587,-0.021258,0,0.0003932,0,0,0,0.054488,-9.0956e-06,0.016344,0.159,0.023608,0.048437,3.6731e-06,0.67,0.97,0
0.033984,-0.0092129,0.054532,-8.6531e-06,0.016357,0.00014636,0,0,0.049627,-0.021275,0,0.00038055,0,0,0,0.054532,-9.0459e-06,0.016357,0.15376,0.023627,0.048477,3.682e-06,0.68,0.97,0
0.034481,-0.0092224,0.054575,-8.6249e-06,0.01637,0.0001415,0,0,0.049667,-0.021292,0,0.00036791,0,0,0,0.054575,-8.9918e-06,0.01637,0.14853,0.023645,0.048515,3.6907e-06,0.69,0.97,0
0.034978,-0.0092314,0.054617,-8.5923e-06,0.016382,0.00013665,0,0,0.049704,-0.021308,0,0.0003553,0,0,0,0.054617,-8.9342e-06,0.016382,0.14333,0.023664,0.048552,3.6992e-06,0.7,0.97,0
0.035475,-0.0092398,0.054657,-8.556e-06,0.016394,0.00013181,0,0,0.049741,-0.021324,0,0.00034272,0,0,0,0.054657,-8.8738e-06,0.016394,0.13816,0.023681,0.048587,3.7074e-06,0.71,0.97,0
0.035972,-0.0092477,0.054696,-8.5165e-06,0.016406,0.00012699,0,0,0.049776,-0.021339,0,0.00033018,0,0,0,0.054696,-8.8113e-06,0.016406,0.13301,0.023698,0.048622,3.7153e-06,0.72,0.97,0
0.03647,-0.0092551,0.054733,-8.4746e-06,0.016417,0.00012219,0,0,0.049811,-0.021354,0,0.00031769,0,0,0,0.054733,-8.7473e-06,0.016417,0.12789,0.023714,0.048655,3.7229e-06,0.73,0.97,0
0.036969,-0.009262,0.054769,-8.4307e-06,0.016428,0.0001174,0,0,0.049843,-0.021368,0,0.00030524,0,0,0,0.054769,-8.6823e-06,0.016428,0.1228,0.02373,0.048687,3.7303e-06,0.74,0.97,0
0.037467,-0.0092685,0.054804,-8.3853e-06,0.016439,0.00011264,0,0,0.049875,-0.021381,0,0.00029286,0,0,0,0.054804,-8.6167e-06,0.016439,0.11774,0.023745,0.048718,3.7373e-06,0.75,0.97,0
0.037966,-0.0092746,0.054837,-8.3389e-06,0.016449,0.00010789,0,0,0.049905,-0.021394,0,0.00028052,0,0,0,0.054837,-8.5511e-06,0.016449,0.11271,0.023759,0.048747,3.7442e-06,0.76,0.97,0
0.038465,-0.0092802,0.054869,-8.2918e-06,0.016458,0.00010317,0,0,0.049934,-0.021407,0,0.00026825,0,0,0,0.05487,-8.4858e-06,0.016458,0.10772,0.023773,0.048776,3.7507e-06,0.77,0.97,0
0.038965,-0.0092855,0.0549,-8.2445e-06,0.016467,9.8473e-05,0,0,0.049962,-0.021418,0,0.00025603,0,0,0,0.0549,-8.4211e-06,0.016467,0.10275,0.023786,0.048803,3.757e-06,0.78,0.97,0
0.039464,-0.0092905,0.054929,-8.1973e-06,0.016476,9.3798e-05,0,0,0.049989,-0.02143,0,0.00024387,0,0,0,0.054929,-8.3574e-06,0.016476,0.097824,0.023799,0.048829,3.7629e-06,0.79,0.97,0
0.039965,-0.0092951,0.054957,-8.1505e-06,0.016485,8.9146e-05,0,0,0.050014,-0.021441,0,0.00023178,0,0,0,0.054957,-8.295e-06,0.016485,0.092926,0.023811,0.048853,3.7686e-06,0.8,0.97,0
0.040465,-0.0092994,0.054983,-8.1043e-06,0.016493,8.4517e-05,0,0,0.050038,-0.021451,0,0.00021975,0,0,0,0.054983,-8.2342e-06,0.016493,0.088059,0.023822,0.048877,3.7741e-06,0.81,0.97,0
0.040965,-0.0093033,0.055008,-8.0591e-06,0.0165,7.9912e-05,0,0,0.050061,-0.021461,0,0.00020777,0,0,0,0.055008,-8.1752e-06,0.0165,0.083223,0.023833,0.048899,3.7792e-06,0.82,0.97,0
0.041466,-0.009307,0.055032,-8.0151e-06,0.016507,7.533e-05,0,0,0.050082,-0.02147,0,0.00019586,0,0,0,0.055032,-8.1182e-06,0.016507,0.078418,0.023844,0.04892,3.7841e-06,0.83,0.97,0
0.041967,-0.0093104,0.055054,-7.9725e-06,0.016514,7.077e-05,0,0,0.050102,-0.021478,0,0.000184,0,0,0,0.055054,-8.0634e-06,0.016514,0.073641,0.023853,0.04894,3.7887e-06,0.84,0.97,0
0.042468,-0.0093135,0.055075,-7.9315e-06,0.01652,6.6232e-05,0,0,0.050121,-0.021486,0,0.0001722,0,0,0,0.055075,-8.0111e-06,0.01652,0.068892,0.023862,0.048958,3.793e-06,0.85,0.97,0
0.042969,-0.0093164,0.055094,-7.8923e-06,0.016526,6.1714e-05,0,0,0.050139,-0.021494,0,0.00016046,0,0,0,0.055094,-7.9614e-06,0.016526,0.064171,0.023871,0.048975,3.797e-06,0.86,0.97,0
0.043471,-0.009319,0.055113,-7.855e-06,0.016531,5.7217e-05,0,0,0.050155,-0.021501,0,0.00014876,0,0,0,0.055113,-7.9144e-06,0.016531,0.059475,0.023879,0.048992,3.8007e-06,0.87,0.97,0
0.043972,-0.0093214,0.055129,-7.8199e-06,0.016536,5.2738e-05,0,0,0.050171,-0.021508,0,0.00013712,0,0,0,0.055129,-7.8704e-06,0.016536,0.054803,0.023886,0.049006,3.8042e-06,0.88,0.97,0
0.044474,-0.0093236,0.055145,-7.7871e-06,0.016541,4.8277e-05,0,0,0.050185,-0.021514,0,0.00012552,0,0,0,0.055145,-7.8294e-06,0.016541,0.050153,0.023893,0.04902,3.8074e-06,0.89,0.97,0
0.044976,-0.0093255,0.055159,-7.7568e-06,0.016545,4.3833e-05,0,0,0.050198,-0.021519,0,0.00011397,0,0,0,0.055159,-7.7916e-06,0.016545,0.045525,0.023899,0.049033,3.8103e-06,0.9,0.97,0
0.045478,-0.0093273,0.055172,-7.7289e-06,0.016549,3.9404e-05,0,0,0.050209,-0.021524,0,0.00010245,0,0,0,0.055172,-7.7571e-06,0.016549,0.040916,0.023904,0.049044,3.813e-06,0.91,0.97,0
0.04598,-0.0093288,0.055183,-7.7037e-06,0.016553,3.499e-05,0,0,0.05022,-0.021528,0,9.0974e-05,0,0,0,0.055183,-7.7259e-06,0.016553,0.036324,0.023909,0.049054,3.8153e-06,0.92,0.97,0
0.046483,-0.0093302,0.055193,-7.6813e-06,0.016556,3.0588e-05,0,0,0.050229,-0.021532,0,7.9528e-05,0,0,0,0.055193,-7.6982e-06,0.016556,0.031749,0.023914,0.049063,3.8174e-06,0.93,0.97,0
0.046985,-0.0093313,0.055202,-7.6616e-06,0.016558,2.6197e-05,0,0,0.050237,-0.021536,0,6.8112e-05,0,0,0,0.055202,-7.674e-06,0.016558,0.027187,0.023918,0.049071,3.8192e-06,0.94,0.97,0
0.047487,-0.0093323,0.055209,-7.6449e-06,0.01656,2.1816e-05,0,0,0.050243,-0.021538,0,5.6721e-05,0,0,0,0.055209,-7.6535e-06,0.01656,0.022637,0.023921,0.049077,3.8207e-06,0.95,0.97,0
0.04799,-0.0093331,0.055215,-7.6311e-06,0.016562,1.7443e-05,0,0,0.050249,-0.021541,0,4.5351e-05,0,0,0,0.055215,-7.6366e-06,0.016562,0.018098,0.023923,0.049082,3.822e-06,0.96,0.97,0
0.048492,-0.0093337,0.05522,-7.6203e-06,0.016564,1.3076e-05,0,0,0.050253,-0.021543,0,3.3999e-05,0,0,0,0.05522,-7.6234e-06,0.016564,0.013566,0.023925,0.049087,3.8229e-06,0.97,0.97,0
0.048995,-0.0093341,0.055223,-7.6126e-06,0.016565,8.7148e-06,0,0,0.050256,-0.021544,0,2.2659e-05,0,0,0,0.055223,-7.614e-06,0.016565,0.0090407,0.023927,0.04909,3.8236e-06,0.98,0.97,0
0.049497,-0.0093344,0.055225,-7.608e-06,0.016565,4.3566e-06,0,0,0.050258,-0.021545,0,1.1327e-05,0,0,0,0.055225,-7.6083e-06,0.016565,0.0045193,0.023928,0.049091,3.8241e-06,0.99,0.97,0
0.05,-0.0093345,0.055226,-7.6064e-06,0.016566,-3.3234e-06,0,0,0.050258,-0.021545,0,-8.6408e-06,0,0,0,0.055226,-7.6066e-06,0.016566,-0.0034475,0.023928,0.049092,3.8242e-06,1,0.97,0
0,0,0.078464,0.033628,0.033628,-0.023704,0,0,0.058288,-8.6736e-19,0,-0.06163,0,0,0,0.088672,0.02342,0.033628,-23.298,0.048573,0.060794,1.0452e-05,0,0.98,0
0.00058288,-0.0006163,0.075499,0.019934,0.02863,-0.021343,0,0,0.06093,-0.011304,0,-0.055492,0,0,0,0.082751,0.012683,0.02863,-18.766,0.041354,0.063612,1.0472e-05,0.01,0.98,0
0.0012186,-0.0012783,0.075387,0.0095268,0.025474,-0.017076,0,0,0.064886,-0.020731,0,-0.044398,0,0,0,0.079551,0.0053625,0.025474,-13.705,0.036796,0.066456,1.055e-05,0.02,0.98,0
0.0018806,-0.0018952,0.074223,0.0059503,0.024052,-0.012512,0,0,0.065223,-0.023532,0,-0.032531,0,0,0,0.076444,0.0037296,0.024052,-10.065,0.034742,0.064982,9.5856e-06,0.03,0.98,0
0.002523,-0.0024406,0.070755,0.003751,0.022352,-0.0090308,0,0,0.062924,-0.024181,0,-0.02348,0,0,0,0.071951,0.0025552,0.022352,-7.543,0.032286,0.061918,8.1228e-06,0.04,0.98,0
0.0031391,-0.0029274,0.067403,0.0024935,0.020969,-0.0067026,0,0,0.060365,-0.024018,0,-0.017427,0,0,0,0.068088,0.0018086,0.020969,-5.8343,0.030289,0.059077,6.9563e-06,0.05,0.98,0
0.0037303,-0.0033658,0.064552,0.0017282,0.019884,-0.0050968,0,0,0.058068,-0.023602,0,-0.013252,0,0,0,0.064962,0.0013174,0.019884,-4.6082,0.028721,0.05669,6.0855e-06,0.06,0.98,0
0.0043004,-0.003764,0.062221,0.0012443,0.01904,-0.0039597,0,0,0.056136,-0.023134,0,-0.010295,0,0,0,0.062478,0.00098826,0.01904,-3.6999,0.027502,0.054743,5.4409e-06,0.07,0.98,0
0.0048531,-0.0041282,0.06033,0.00092479,0.018376,-0.0031272,0,0,0.054539,-0.022687,0,-0.0081307,0,0,0,0.060494,0.00076063,0.018376,-3.0051,0.026544,0.053161,4.9569e-06,0.08,0.98,0
0.0053912,-0.0044631,0.058789,0.00070566,0.017848,-0.0025005,0,0,0.053223,-0.022286,0,-0.0065014,0,0,0,0.058897,0.0005982,0.017848,-2.4605,0.025781,0.051871,4.5869e-06,0.09,0.98,0
0.0059175,-0.0047725,0.057529,0.00055025,0.017424,-0.0020174,0,0,0.052137,-0.021936,0,-0.0052453,0,0,0,0.0576,0.00047891,0.017424,-2.0253,0.025168,0.050814,4.2993e-06,0.1,0.98,0
0.006434,-0.0050593,0.056492,0.00043682,0.017079,-0.0016375,0,0,0.051237,-0.021634,0,-0.0042575,0,0,0,0.05654,0.00038902,0.017079,-1.6719,0.024669,0.049943,4.0726e-06,0.11,0.98,0
0.0069423,-0.0053259,0.055635,0.00035194,0.016796,-0.0013338,0,0,0.050491,-0.021378,0,-0.0034679,0,0,0,0.055668,0.00031978,0.016796,-1.3813,0.024261,0.049223,3.8919e-06,0.12,0.98,0
0.0074438,-0.0055742,0.054926,0.00028707,0.016564,-0.0010877,0,0,0.049871,-0.02116,0,-0.002828,0,0,0,0.054948,0.00026542,0.016564,-1.14,0.023926,0.048627,3.7466e-06,0.13,0.98,0
0.0079397,-0.005806,0.054338,0.00023655,0.016372,-0.00088596,0,0,0.049355,-0.020976,0,-0.0023035,0,0,0,0.054352,0.00022205,0.016372,-0.93794,0.023649,0.048132,3.629e-06,0.14,0.98,0
0.0084309,-0.0060228,0.05385,0.00019658,0.016214,-0.00071903,0,0,0.048927,-0.020823,0,-0.0018695,0,0,0,0.05386,0.00018694,0.016214,-0.76766,0.02342,0.047722,3.5335e-06,0.15,0.98,0
0.0089182,-0.0062257,0.053446,0.00016451,0.016083,-0.0005798,0,0,0.048572,-0.020694,0,-0.0015075,0,0,0,0.053452,0.0001582,0.016083,-0.62339,0.023231,0.047383,3.4559e-06,0.16,0.98,0
0.0094023,-0.006416,0.053113,0.00013846,0.015975,-0.00046293,0,0,0.048279,-0.020588,0,-0.0012036,0,0,0,0.053117,0.00013442,0.015975,-0.50065,0.023075,0.047104,3.3928e-06,0.17,0.98,0
0.0098838,-0.0065946,0.052839,0.00011708,0.015887,-0.00036431,0,0,0.048038,-0.020501,0,-0.00094719,0,0,0,0.052842,0.00011457,0.015887,-0.39588,0.022948,0.046875,3.3417e-06,0.18,0.98,0
0.010363,-0.0067624,0.052617,9.937e-05,0.015815,-0.00028071,0,0,0.047842,-0.02043,0,-0.00072985,0,0,0,0.052618,9.787e-05,0.015815,-0.30624,0.022844,0.04669,3.3006e-06,0.19,0.98,0
0.010841,-0.0069201,0.052437,8.4576e-05,0.015757,-0.00020962,0,0,0.047685,-0.020374,0,-0.00054502,0,0,0,0.052438,8.3736e-05,0.015757,-0.22941,0.02276,0.046541,3.2678e-06,0.2,0.98,0
0.011317,-0.0070686,0.052296,7.2131e-05,0.01571,-0.00014901,0,0,0.047561,-0.02033,0,-0.00038742,0,0,0,0.052296,7.1706e-05,0.01571,-0.16348,0.022693,0.046425,3.242e-06,0.21,0.98,0
0.011792,-0.0072083,0.052186,6.1597e-05,0.015674,-9.7229e-05,0,0,0.047465,-0.020296,0,-0.0002528,0,0,0,0.052186,6.1416e-05,0.015674,-0.10688,0.022641,0.046335,3.2222e-06,0.22,0.98,0
0.012266,-0.00734,0.052103,5.2633e-05,0.015647,-5.2952e-05,0,0,0.047393,-0.020272,0,-0.00013768,0,0,0,0.052103,5.258e-05,0.015647,-0.058288,0.022601,0.046268,3.2075e-06,0.23,0.98,0
0.01274,-0.0074641,0.052045,4.4969e-05,0.015627,-1.5072e-05,0,0,0.047343,-0.020256,0,-3.9186e-05,0,0,0,0.052045,4.4965e-05,0.015627,-0.016607,0.022572,0.046222,3.1972e-06,0.24,0.98,0
0.013213,-0.0075812,0.052006,3.8389e-05,0.015613,1.7328e-05,0,0,0.047311,-0.020248,0,4.5054e-05,0,0,0,0.052006,3.8384e-05,0.015613,0.019105,0.022553,0.046194,3.1906e-06,0.25,0.98,0
0.013686,-0.0076917,0.051986,3.2721e-05,0.015605,4.5015e-05,0,0,0.047294,-0.020245,0,0.00011704,0,0,0,0.051986,3.2682e-05,0.015605,0.049644,0.022541,0.04618,3.1872e-06,0.26,0.98,0
0.014159,-0.0077959,0.05198,2.7823e-05,0.015603,6.8634e-05,0,0,0.047291,-0.020247,0,0.00017845,0,0,0,0.05198,2.7732e-05,0.015603,0.075692,0.022537,0.046179,3.1866e-06,0.27,0.98,0
0.014632,-0.0078943,0.051988,2.358e-05,0.015604,8.8732e-05,0,0,0.0473,-0.020254,0,0.0002307,0,0,0,0.051988,2.3428e-05,0.015604,0.097835,0.022538,0.04619,3.1883e-06,0.28,0.98,0
0.015105,-0.0079873,0.052007,1.9896e-05,0.015608,0.00010578,0,0,0.047319,-0.020265,0,0.00027502,0,0,0,0.052008,1.9681e-05,0.015608,0.11658,0.022545,0.04621,3.1921e-06,0.29,0.98,0
0.015578,-0.0080752,0.052036,1.6692e-05,0.015616,0.00012017,0,0,0.047347,-0.020279,0,0.00031243,0,0,0,0.052037,1.6414e-05,0.015616,0.13235,0.022556,0.046238,3.1977e-06,0.3,0.98,0
0.016052,-0.0081583,0.052074,1.3901e-05,0.015626,0.00013224,0,0,0.047382,-0.020296,0,0.00034384,0,0,0,0.052074,1.3565e-05,0.015626,0.14554,0.022571,0.046274,3.2047e-06,0.31,0.98,0
0.016526,-0.0082367,0.052118,1.1467e-05,0.015639,0.00014231,0,0,0.047423,-0.020316,0,0.00037,0,0,0,0.052119,1.1078e-05,0.015639,0.15648,0.022589,0.046315,3.2131e-06,0.32,0.98,0
0.017,-0.008311,0.052169,9.3425e-06,0.015653,0.00015061,0,0,0.04747,-0.020337,0,0.00039158,0,0,0,0.052169,8.9077e-06,0.015653,0.16544,0.02261,0.046362,3.2226e-06,0.33,0.98,0
0.017475,-0.0083812,0.052224,7.4869e-06,0.01567,0.00015737,0,0,0.047521,-0.020361,0,0.00040917,0,0,0,0.052225,7.0126e-06,0.01567,0.17268,0.022634,0.046413,3.2331e-06,0.34,0.98,0
0.017951,-0.0084476,0.052284,5.8654e-06,0.015687,0.00016279,0,0,0.047577,-0.020386,0,0.00042326,0,0,0,0.052285,5.3584e-06,0.015687,0.17841,0.022659,0.046468,3.2444e-06,0.35,0.98,0
0.018427,-0.0085104,0.052348,4.448e-06,0.015706,0.00016704,0,0,0.047635,-0.020412,0,0.00043429,0,0,0,0.052349,3.915e-06,0.015706,0.18284,0.022686,0.046525,3.2563e-06,0.36,0.98,0
0.018903,-0.0085699,0.052415,3.2092e-06,0.015725,0.00017025,0,0,0.047696,-0.020439,0,0.00044265,0,0,0,0.052415,2.6561e-06,0.015725,0.18611,0.022714,0.046586,3.2689e-06,0.37,0.98,0
0.019381,-0.0086261,0.052484,2.1265e-06,0.015746,0.00017256,0,0,0.047759,-0.020467,0,0.00044866,0,0,0,0.052484,1.5591e-06,0.015746,0.18839,0.022744,0.046648,3.2819e-06,0.38,0.98,0
0.019859,-0.0086794,0.052555,1.1806e-06,0.015767,0.00017409,0,0,0.047824,-0.020495,0,0.00045263,0,0,0,0.052555,6.0391e-07,0.015767,0.18979,0.022774,0.046712,3.2953e-06,0.39,0.98,0
0.020337,-0.0087297,0.052627,3.5469e-07,0.015788,0.00017492,0,0,0.047891,-0.020524,0,0.0004548,0,0,0,0.052628,-2.2673e-07,0.015788,0.19044,0.022805,0.046777,3.309e-06,0.4,0.98,0
0.020816,-0.0087774,0.052701,-3.6591e-07,0.01581,0.00017516,0,0,0.047958,-0.020554,0,0.00045541,0,0,0,0.052701,-9.4806e-07,0.01581,0.19043,0.022837,0.046843,3.3229e-06,0.41,0.98,0
0.021296,-0.0088226,0.052775,-9.9402e-07,0.015832,0.00017486,0,0,0.048026,-0.020583,0,0.00045465,0,0,0,0.052776,-1.5734e-06,0.015832,0.18984,0.022869,0.046909,3.337e-06,0.42,0.98,0
0.021777,-0.0088653,0.05285,-1.5409e-06,0.015855,0.00017411,0,0,0.048094,-0.020613,0,0.0004527,0,0,0,0.05285,-2.1145e-06,0.015855,0.18875,0.022901,0.046976,3.3513e-06,0.43,0.98,0
0.022258,-0.0089057,0.052925,-2.0163e-06,0.015877,0.00017296,0,0,0.048162,-0.020643,0,0.0004497,0,0,0,0.052925,-2.5816e-06,0.015877,0.18724,0.022933,0.047043,3.3656e-06,0.44,0.98,0
0.02274,-0.008944,0.053,-2.429e-06,0.015899,0.00017146,0,0,0.048231,-0.020672,0,0.0004458,0,0,0,0.053,-2.9837e-06,0.015899,0.18535,0.022965,0.04711,3.38e-06,0.45,0.98,0
0.023223,-0.0089802,0.053075,-2.7864e-06,0.015922,0.00016966,0,0,0.048299,-0.020702,0,0.00044111,0,0,0,0.053075,-3.3287e-06,0.015922,0.18314,0.022998,0.047177,3.3943e-06,0.46,0.98,0
0.023706,-0.0090145,0.053149,-3.0953e-06,0.015944,0.00016759,0,0,0.048367,-0.020731,0,0.00043574,0,0,0,0.05315,-3.6237e-06,0.015944,0.18066,0.02303,0.047243,3.4086e-06,0.47,0.98,0
0.02419,-0.009047,0.053223,-3.3615e-06,0.015966,0.0001653,0,0,0.048434,-0.02076,0,0.00042978,0,0,0,0.053223,-3.8748e-06,0.015966,0.17794,0.023062,0.047309,3.4229e-06,0.48,0.98,0
0.024675,-0.0090777,0.053296,-3.5901e-06,0.015988,0.00016281,0,0,0.048501,-0.020789,0,0.0004233,0,0,0,0.053296,-4.0874e-06,0.015988,0.17501,0.023093,0.047374,3.437e-06,0.49,0.98,0
0.02516,-0.0091067,0.053368,-3.7856e-06,0.016009,0.00016015,0,0,0.048567,-0.020817,0,0.00041639,0,0,0,0.053369,-4.2662e-06,0.016009,0.17192,0.023125,0.047439,3.451e-06,0.5,0.98,0
0.025646,-0.0091342,0.05344,-3.9522e-06,0.016031,0.00015735,0,0,0.048632,-0.020845,0,0.0004091,0,0,0,0.05344,-4.4154e-06,0.016031,0.16869,0.023155,0.047502,3.4649e-06,0.51,0.98,0
0.026133,-0.0091602,0.05351,-4.0932e-06,0.016052,0.00015442,0,0,0.048696,-0.020873,0,0.00040149,0,0,0,0.05351,-4.5388e-06,0.016052,0.16533,0.023186,0.047565,3.4786e-06,0.52,0.98,0
0.02662,-0.0091848,0.053579,-4.2118e-06,0.016072,0.00015139,0,0,0.048759,-0.0209,0,0.0003936,0,0,0,0.05358,-4.6395e-06,0.016072,0.16187,0.023216,0.047626,3.4921e-06,0.53,0.98,0
0.027108,-0.009208,0.053647,-4.3107e-06,0.016093,0.00014826,0,0,0.048821,-0.020926,0,0.00038549,0,0,0,0.053648,-4.7204e-06,0.016093,0.15833,0.023245,0.047687,3.5054e-06,0.54,0.98,0
0.027596,-0.00923,0.053714,-4.3922e-06,0.016113,0.00014507,0,0,0.048882,-0.020952,0,0.00037718,0,0,0,0.053715,-4.784e-06,0.016113,0.15473,0.023274,0.047746,3.5186e-06,0.55,0.98,0
0.028086,-0.0092507,0.05378,-4.4586e-06,0.016133,0.00014181,0,0,0.048941,-0.020978,0,0.00036871,0,0,0,0.05378,-4.8326e-06,0.016133,0.15107,0.023303,0.047805,3.5315e-06,0.56,0.98,0
0.028575,-0.0092704,0.053844,-4.5117e-06,0.016152,0.00013851,0,0,0.049,-0.021003,0,0.00036011,0,0,0,0.053844,-4.868e-06,0.016152,0.14737,0.02333,0.047862,3.5441e-06,0.57,0.98,0
0.029066,-0.0092889,0.053907,-4.5531e-06,0.016171,0.00013516,0,0,0.049057,-0.021028,0,0.00035141,0,0,0,0.053907,-4.892e-06,0.016171,0.14364,0.023358,0.047918,3.5566e-06,0.58,0.98,0
0.029556,-0.0093064,0.053968,-4.5843e-06,0.016189,0.00013178,0,0,0.049113,-0.021052,0,0.00034262,0,0,0,0.053969,-4.9061e-06,0.016189,0.13989,0.023384,0.047972,3.5687e-06,0.59,0.98,0
0.030048,-0.0093229,0.054028,-4.6066e-06,0.016207,0.00012837,0,0,0.049168,-0.021075,0,0.00033378,0,0,0,0.054029,-4.9116e-06,0.016207,0.13613,0.02341,0.048026,3.5807e-06,0.6,0.98,0
0.03054,-0.0093385,0.054087,-4.621e-06,0.016225,0.00012495,0,0,0.049221,-0.021098,0,0.00032488,0,0,0,0.054087,-4.9097e-06,0.016225,0.13236,0.023436,0.048078,3.5923e-06,0.61,0.98,0
0.031032,-0.0093533,0.054144,-4.6287e-06,0.016242,0.00012152,0,0,0.049273,-0.02112,0,0.00031595,0,0,0,0.054144,-4.9014e-06,0.016242,0.12858,0.02346,0.048128,3.6037e-06,0.62,0.98,0
0.031525,-0.0093671,0.0542,-4.6304e-06,0.016258,0.00011808,0,0,0.049323,-0.021142,0,0.00030701,0,0,0,0.0542,-4.8877e-06,0.016258,0.12481,0.023484,0.048178,3.6148e-06,0.63,0.98,0
0.032019,-0.0093802,0.054254,-4.6271e-06,0.016275,0.00011464,0,0,0.049373,-0.021163,0,0.00029806,0,0,0,0.054254,-4.8693e-06,0.016275,0.12105,0.023508,0.048226,3.6257e-06,0.64,0.98,0
0.032513,-0.0093926,0.054306,-4.6192e-06,0.01629,0.0001112,0,0,0.049421,-0.021184,0,0.00028911,0,0,0,0.054307,-4.8469e-06,0.01629,0.11731,0.023531,0.048273,3.6362e-06,0.65,0.98,0
0.033007,-0.0094042,0.054357,-4.6076e-06,0.016306,0.00010776,0,0,0.049467,-0.021204,0,0.00028018,0,0,0,0.054358,-4.8212e-06,0.016306,0.11357,0.023553,0.048318,3.6465e-06,0.66,0.98,0
0.033502,-0.0094152,0.054407,-4.5927e-06,0.016321,0.00010433,0,0,0.049512,-0.021223,0,0.00027126,0,0,0,0.054407,-4.7928e-06,0.016321,0.10986,0.023574,0.048362,3.6564e-06,0.67,0.98,0
0.033997,-0.0094255,0.054455,-4.5751e-06,0.016335,0.00010091,0,0,0.049556,-0.021242,0,0.00026237,0,0,0,0.054455,-4.762e-06,0.016335,0.10617,0.023595,0.048405,3.6661e-06,0.68,0.98,0
0.034493,-0.0094352,0.054501,-4.555e-06,0.016349,9.7504e-05,0,0,0.049598,-0.02126,0,0.00025351,0,0,0,0.054502,-4.7295e-06,0.016349,0.10249,0.023615,0.048446,3.6755e-06,0.69,0.98,0
0.034989,-0.0094443,0.054546,-4.5331e-06,0.016362,9.4111e-05,0,0,0.049639,-0.021277,0,0.00024469,0,0,0,0.054546,-4.6955e-06,0.016362,0.098846,0.023635,0.048486,3.6846e-06,0.7,0.98,0
0.035486,-0.0094529,0.05459,-4.5095e-06,0.016376,9.0733e-05,0,0,0.049678,-0.021294,0,0.00023591,0,0,0,0.05459,-4.6603e-06,0.016376,0.095222,0.023654,0.048524,3.6934e-06,0.71,0.98,0
0.035983,-0.0094609,0.054631,-4.4847e-06,0.016388,8.7371e-05,0,0,0.049716,-0.02131,0,0.00022717,0,0,0,0.054632,-4.6244e-06,0.016388,0.091624,0.023672,0.048561,3.7019e-06,0.72,0.98,0
0.03648,-0.0094684,0.054672,-4.4589e-06,0.0164,8.4027e-05,0,0,0.049753,-0.021326,0,0.00021847,0,0,0,0.054672,-4.588e-06,0.0164,0.088053,0.023689,0.048597,3.7101e-06,0.73,0.98,0
0.036978,-0.0094755,0.054711,-4.4324e-06,0.016412,8.0701e-05,0,0,0.049788,-0.021341,0,0.00020982,0,0,0,0.054711,-4.5514e-06,0.016412,0.084507,0.023706,0.048632,3.718e-06,0.74,0.98,0
0.037476,-0.0094822,0.054748,-4.4053e-06,0.016423,7.7394e-05,0,0,0.049822,-0.021356,0,0.00020122,0,0,0,0.054748,-4.5147e-06,0.016423,0.08099,0.023722,0.048665,3.7255e-06,0.75,0.98,0
0.037974,-0.0094884,0.054783,-4.3779e-06,0.016434,7.4106e-05,0,0,0.049855,-0.021369,0,0.00019268,0,0,0,0.054784,-4.4782e-06,0.016434,0.077498,0.023738,0.048696,3.7328e-06,0.76,0.98,0
0.038473,-0.0094942,0.054818,-4.3505e-06,0.016444,7.0838e-05,0,0,0.049886,-0.021383,0,0.00018418,0,0,0,0.054818,-4.442e-06,0.016444,0.074034,0.023752,0.048727,3.7398e-06,0.77,0.98,0
0.038972,-0.0094996,0.05485,-4.3231e-06,0.016454,6.7589e-05,0,0,0.049916,-0.021396,0,0.00017573,0,0,0,0.05485,-4.4064e-06,0.016454,0.070597,0.023767,0.048756,3.7465e-06,0.78,0.98,0
0.039471,-0.0095047,0.054881,-4.296e-06,0.016463,6.436e-05,0,0,0.049944,-0.021408,0,0.00016734,0,0,0,0.054882,-4.3715e-06,0.016463,0.067186,0.02378,0.048783,3.7529e-06,0.79,0.98,0
0.039971,-0.0095094,0.054911,-4.2693e-06,0.016472,6.115e-05,0,0,0.049971,-0.021419,0,0.00015899,0,0,0,0.054911,-4.3374e-06,0.016472,0.0638,0.023793,0.04881,3.759e-06,0.8,0.98,0
0.040471,-0.0095138,0.054939,-4.2431e-06,0.01648,5.7959e-05,0,0,0.049996,-0.02143,0,0.00015069,0,0,0,0.054939,-4.3042e-06,0.01648,0.06044,0.023805,0.048835,3.7648e-06,0.81,0.98,0
0.040971,-0.0095178,0.054966,-4.2175e-06,0.016488,5.4787e-05,0,0,0.050021,-0.021441,0,0.00014244,0,0,0,0.054966,-4.2721e-06,0.016488,0.057104,0.023817,0.048858,3.7702e-06,0.82,0.98,0
0.041471,-0.0095216,0.054991,-4.1928e-06,0.016496,5.1632e-05,0,0,0.050044,-0.02145,0,0.00013424,0,0,0,0.054991,-4.2412e-06,0.016496,0.053792,0.023828,0.048881,3.7754e-06,0.83,0.98,0
0.041972,-0.0095251,0.055015,-4.1689e-06,0.016503,4.8496e-05,0,0,0.050065,-0.02146,0,0.00012609,0,0,0,0.055015,-4.2116e-06,0.016503,0.050502,0.023838,0.048902,3.7803e-06,0.84,0.98,0
0.042473,-0.0095283,0.055037,-4.1459e-06,0.01651,4.5376e-05,0,0,0.050085,-0.021468,0,0.00011798,0,0,0,0.055037,-4.1834e-06,0.01651,0.047235,0.023848,0.048921,3.7849e-06,0.85,0.98,0
0.042973,-0.0095312,0.055058,-4.1241e-06,0.016516,4.2273e-05,0,0,0.050104,-0.021476,0,0.00010991,0,0,0,0.055058,-4.1566e-06,0.016516,0.043988,0.023857,0.04894,3.7892e-06,0.86,0.98,0
0.043475,-0.0095339,0.055077,-4.1034e-06,0.016522,3.9185e-05,0,0,0.050122,-0.021484,0,0.00010188,0,0,0,0.055077,-4.1313e-06,0.016522,0.04076,0.023865,0.048957,3.7932e-06,0.87,0.98,0
0.043976,-0.0095364,0.055095,-4.084e-06,0.016527,3.6112e-05,0,0,0.050138,-0.021491,0,9.3891e-05,0,0,0,0.055095,-4.1076e-06,0.016527,0.037552,0.023873,0.048973,3.7968e-06,0.88,0.98,0
0.044477,-0.0095386,0.055112,-4.0658e-06,0.016532,3.3053e-05,0,0,0.050153,-0.021497,0,8.5937e-05,0,0,0,0.055112,-4.0856e-06,0.016532,0.03436,0.02388,0.048988,3.8002e-06,0.89,0.98,0
0.044979,-0.0095406,0.055127,-4.049e-06,0.016537,3.0006e-05,0,0,0.050167,-0.021503,0,7.8015e-05,0,0,0,0.055127,-4.0654e-06,0.016537,0.031184,0.023886,0.049001,3.8033e-06,0.9,0.98,0
0.045481,-0.0095424,0.05514,-4.0337e-06,0.016541,2.6971e-05,0,0,0.050179,-0.021508,0,7.0124e-05,0,0,0,0.05514,-4.0469e-06,0.016541,0.028023,0.023892,0.049013,3.8061e-06,0.91,0.98,0
0.045983,-0.009544,0.055152,-4.0198e-06,0.016544,2.3947e-05,0,0,0.05019,-0.021513,0,6.2261e-05,0,0,0,0.055152,-4.0302e-06,0.016544,0.024875,0.023897,0.049023,3.8086e-06,0.92,0.98,0
0.046484,-0.0095454,0.055163,-4.0074e-06,0.016548,2.0932e-05,0,0,0.0502,-0.021517,0,5.4423e-05,0,0,0,0.055163,-4.0154e-06,0.016548,0.02174,0.023902,0.049033,3.8109e-06,0.93,0.98,0
0.046987,-0.0095466,0.055172,-3.9966e-06,0.01655,1.7926e-05,0,0,0.050208,-0.021521,0,4.6607e-05,0,0,0,0.055172,-4.0025e-06,0.01655,0.018614,0.023906,0.049041,3.8128e-06,0.94,0.98,0
0.047489,-0.0095476,0.05518,-3.9875e-06,0.016553,1.4927e-05,0,0,0.050215,-0.021524,0,3.881e-05,0,0,0,0.05518,-3.9915e-06,0.016553,0.015498,0.02391,0.049048,3.8144e-06,0.95,0.98,0
0.047991,-0.0095484,0.055186,-3.9799e-06,0.016555,1.1934e-05,0,0,0.050221,-0.021526,0,3.1029e-05,0,0,0,0.055186,-3.9825e-06,0.016555,0.012389,0.023912,0.049054,3.8157e-06,0.96,0.98,0
0.048493,-0.009549,0.055191,-3.974e-06,0.016556,8.9462e-06,0,0,0.050225,-0.021528,0,2.326e-05,0,0,0,0.055191,-3.9754e-06,0.016556,0.0092867,0.023915,0.049058,3.8167e-06,0.97,0.98,0
0.048995,-0.0095495,0.055195,-3.9698e-06,0.016557,5.962e-06,0,0,0.050229,-0.02153,0,1.5501e-05,0,0,0,0.055195,-3.9704e-06,0.016557,0.0061886,0.023916,0.049061,3.8175e-06,0.98,0.98,0
0.049498,-0.0095497,0.055197,-3.9672e-06,0.016558,2.9804e-06,0,0,0.050231,-0.02153,0,7.749e-06,0,0,0,0.055197,-3.9674e-06,0.016558,0.0030935,0.023917,0.049063,3.8179e-06,0.99,0.98,0
0.05,-0.0095498,0.055198,-3.9664e-06,0.016558,-3.4262e-06,0,0,0.050231,-0.021531,0,-8.9082e-06,0,0,0,0.055198,-3.9666e-06,0.016558,-0.0035562,0.023917,0.049064,3.818e-06,1,0.98,0
0,0,0.093113,0.039906,0.039906,-0.029331,0,0,0.06917,-3.4694e-18,0,-0.07626,0,0,0,0.10611,0.026911,0.039906,-23.896,0.057641,0.073566,1.8316e-05,0,0.99,0
0.0006917,-0.0007626,0.084803,0.008143,0.027884,-0.018311,0,0,0.073995,-0.025663,0,-0.047608,0,0,0,0.088952,0.0039939,0.027884,-12.767,0.040277,0.075888,1.5176e-05,0.01,0.99,0
0.0014799,-0.0015293,0.085408,0.0063883,0.027539,-0.011942,0,0,0.07523,-0.027496,0,-0.031049,0,0,0,0.087173,0.004623,0.027539,-8.4087,0.039778,0.07381,1.414e-05,0.02,0.99,0
0.0021963,-0.0021538,0.076871,0.003347,0.024066,-0.0071772,0,0,0.068648,-0.026934,0,-0.018661,0,0,0,0.077566,0.0026529,0.024066,-5.5235,0.034761,0.066831,1.0192e-05,0.03,0.99,0
0.0028529,-0.0026958,0.070568,0.0019386,0.021752,-0.0048239,0,0,0.063461,-0.025757,0,-0.012542,0,0,0,0.070905,0.0016011,0.021752,-4.001,0.03142,0.061746,7.8922e-06,0.04,0.99,0
0.0034655,-0.0031748,0.066075,0.0012017,0.020183,-0.0034172,0,0,0.05966,-0.024676,0,-0.0088848,0,0,0,0.066254,0.0010222,0.020183,-3.007,0.029153,0.058073,6.4914e-06,0.05,0.99,0
0.004046,-0.0036055,0.062815,0.00079835,0.019084,-0.0025331,0,0,0.056851,-0.023772,0,-0.006586,0,0,0,0.062919,0.00069506,0.019084,-2.335,0.027566,0.055369,5.5867e-06,0.06,0.99,0
0.0046025,-0.0039969,0.060373,0.00055913,0.01828,-0.0019342,0,0,0.054721,-0.023037,0,-0.0050288,0,0,0,0.060436,0.00049665,0.01828,-1.8502,0.026404,0.05332,4.9665e-06,0.07,0.99,0
0.0051405,-0.0043554,0.058494,0.00040804,0.017671,-0.0015086,0,0,0.05307,-0.022441,0,-0.0039223,0,0,0,0.058533,0.00036889,0.017671,-1.4867,0.025524,0.051731,4.5216e-06,0.08,0.99,0
0.0056639,-0.0046856,0.05702,0.00030746,0.017198,-0.0011941,0,0,0.051768,-0.021958,0,-0.0031047,0,0,0,0.057045,0.00028233,0.017198,-1.2057,0.024842,0.050478,4.1916e-06,0.09,0.99,0
0.0061759,-0.004991,0.055847,0.0002376,0.016826,-0.00095482,0,0,0.050729,-0.021564,0,-0.0024825,0,0,0,0.055864,0.00022121,0.016826,-0.98338,0.024303,0.049476,3.9408e-06,0.1,0.99,0
0.0066785,-0.0052744,0.054905,0.00018736,0.016528,-0.00076837,0,0,0.049891,-0.021243,0,-0.0019978,0,0,0,0.054916,0.00017657,0.016528,-0.80436,0.023873,0.048669,3.7466e-06,0.11,0.99,0
0.0071737,-0.0055382,0.054143,0.00015017,0.016288,-0.00062036,0,0,0.049212,-0.020979,0,-0.0016129,0,0,0,0.05415,0.00014305,0.016288,-0.65819,0.023527,0.048016,3.5943e-06,0.12,0.99,0
0.0076627,-0.0057843,0.053525,0.00012198,0.016094,-0.00050106,0,0,0.04866,-0.020764,0,-0.0013028,0,0,0,0.05353,0.00011728,0.016094,-0.53752,0.023247,0.047485,3.4739e-06,0.13,0.99,0
0.0081469,-0.0060142,0.053023,0.00010016,0.015937,-0.00040371,0,0,0.048212,-0.020588,0,-0.0010496,0,0,0,0.053026,9.7084e-05,0.015937,-0.43703,0.02302,0.047053,3.378e-06,0.14,0.99,0
0.008627,-0.0062294,0.052616,8.2985e-05,0.01581,-0.00032346,0,0,0.047848,-0.020445,0,-0.00084101,0,0,0,0.052618,8.0993e-05,0.01581,-0.35277,0.022836,0.046703,3.3017e-06,0.15,0.99,0
0.0091038,-0.0064311,0.052288,6.9255e-05,0.015707,-0.00025677,0,0,0.047555,-0.020329,0,-0.00066762,0,0,0,0.052289,6.7992e-05,0.015707,-0.28173,0.022688,0.046421,3.241e-06,0.16,0.99,0
0.0095781,-0.0066204,0.052025,5.8138e-05,0.015625,-0.00020098,0,0,0.04732,-0.020237,0,-0.00052254,0,0,0,0.052026,5.7361e-05,0.015625,-0.22158,0.022569,0.046196,3.193e-06,0.17,0.99,0
0.01005,-0.0067981,0.051817,4.9036e-05,0.01556,-0.00015404,0,0,0.047135,-0.020164,0,-0.00040051,0,0,0,0.051818,4.8578e-05,0.01556,-0.17049,0.022475,0.046018,3.1553e-06,0.18,0.99,0
0.010521,-0.0069653,0.051656,4.1511e-05,0.015509,-0.00011439,0,0,0.04699,-0.020108,0,-0.00029742,0,0,0,0.051656,4.1258e-05,0.015509,-0.12698,0.022402,0.04588,3.1264e-06,0.19,0.99,0
0.01099,-0.0071225,0.051533,3.5238e-05,0.015471,-8.0784e-05,0,0,0.046882,-0.020066,0,-0.00021004,0,0,0,0.051534,3.5111e-05,0.015471,-0.089878,0.022346,0.045776,3.1046e-06,0.2,0.99,0
0.011458,-0.0072705,0.051444,2.9969e-05,0.015442,-5.2232e-05,0,0,0.046803,-0.020036,0,-0.0001358,0,0,0,0.051444,2.9916e-05,0.015442,-0.058207,0.022305,0.045701,3.0888e-06,0.21,0.99,0
0.011926,-0.00741,0.051384,2.5516e-05,0.015423,-2.7938e-05,0,0,0.046749,-0.020016,0,-7.2639e-05,0,0,0,0.051384,2.5501e-05,0.015423,-0.031168,0.022277,0.04565,3.0782e-06,0.22,0.99,0
0.012393,-0.0075415,0.051347,2.1732e-05,0.015411,-7.2509e-06,0,0,0.046718,-0.020006,0,-1.8852e-05,0,0,0,0.051347,2.1731e-05,0.015411,-0.0080943,0.02226,0.045621,3.0719e-06,0.23,0.99,0
0.012861,-0.0076655,0.051332,1.8501e-05,0.015405,1.0365e-05,0,0,0.046705,-0.020002,0,2.6948e-05,0,0,0,0.051332,1.8499e-05,0.015405,0.011573,0.022252,0.04561,3.0693e-06,0.24,0.99,0
0.013328,-0.0077825,0.051334,1.5731e-05,0.015405,2.5353e-05,0,0,0.046707,-0.020006,0,6.5916e-05,0,0,0,0.051334,1.5718e-05,0.015405,0.028306,0.022251,0.045614,3.0698e-06,0.25,0.99,0
0.013795,-0.007893,0.051351,1.3347e-05,0.015409,3.8084e-05,0,0,0.046724,-0.020015,0,9.9018e-05,0,0,0,0.051351,1.3319e-05,0.015409,0.042504,0.022258,0.045631,3.073e-06,0.26,0.99,0
0.014262,-0.0079973,0.051381,1.129e-05,0.015418,4.8872e-05,0,0,0.046752,-0.020028,0,0.00012707,0,0,0,0.051381,1.1244e-05,0.015418,0.05451,0.02227,0.045659,3.0785e-06,0.27,0.99,0
0.01473,-0.0080959,0.051421,9.5105e-06,0.015429,5.798e-05,0,0,0.04679,-0.020046,0,0.00015075,0,0,0,0.051421,9.4452e-06,0.015429,0.064616,0.022287,0.045697,3.086e-06,0.28,0.99,0
0.015198,-0.008189,0.051471,7.9679e-06,0.015444,6.5634e-05,0,0,0.046836,-0.020067,0,0.00017065,0,0,0,0.051472,7.8842e-06,0.015444,0.073072,0.022308,0.045743,3.0951e-06,0.29,0.99,0
0.015666,-0.0082771,0.051529,6.6283e-06,0.015461,7.2027e-05,0,0,0.046889,-0.02009,0,0.00018727,0,0,0,0.051529,6.5276e-06,0.015461,0.080097,0.022332,0.045795,3.1057e-06,0.3,0.99,0
0.016136,-0.0083603,0.051594,5.4634e-06,0.01548,7.7323e-05,0,0,0.046948,-0.020117,0,0.00020104,0,0,0,0.051594,5.3475e-06,0.01548,0.085877,0.02236,0.045853,3.1174e-06,0.31,0.99,0
0.016605,-0.0084391,0.051664,4.4493e-06,0.015501,8.1666e-05,0,0,0.047012,-0.020145,0,0.00021233,0,0,0,0.051664,4.3202e-06,0.015501,0.090575,0.02239,0.045917,3.1302e-06,0.32,0.99,0
0.017076,-0.0085136,0.051739,3.5658e-06,0.015523,8.5178e-05,0,0,0.047081,-0.020175,0,0.00022146,0,0,0,0.051739,3.4256e-06,0.015523,0.094333,0.022422,0.045984,3.1439e-06,0.33,0.99,0
0.017547,-0.008584,0.051817,2.7957e-06,0.015546,8.7966e-05,0,0,0.047152,-0.020206,0,0.00022871,0,0,0,0.051817,2.6464e-06,0.015546,0.097272,0.022455,0.046054,3.1582e-06,0.34,0.99,0
0.018019,-0.0086507,0.051898,2.1243e-06,0.01557,9.0123e-05,0,0,0.047227,-0.020238,0,0.00023432,0,0,0,0.051898,1.9678e-06,0.01557,0.0995,0.02249,0.046127,3.1732e-06,0.35,0.99,0
0.018492,-0.0087139,0.051982,1.5389e-06,0.015595,9.1731e-05,0,0,0.047303,-0.020272,0,0.0002385,0,0,0,0.051982,1.377e-06,0.015595,0.10111,0.022526,0.046202,3.1886e-06,0.36,0.99,0
0.018965,-0.0087736,0.052068,1.0285e-06,0.015621,9.2858e-05,0,0,0.047381,-0.020305,0,0.00024143,0,0,0,0.052068,8.6292e-07,0.015621,0.10218,0.022563,0.046278,3.2044e-06,0.37,0.99,0
0.019439,-0.0088302,0.052154,5.8379e-07,0.015647,9.3568e-05,0,0,0.04746,-0.02034,0,0.00024328,0,0,0,0.052155,4.1592e-07,0.015647,0.10279,0.0226,0.046356,3.2205e-06,0.38,0.99,0
0.019914,-0.0088837,0.052242,1.9646e-07,0.015673,9.3913e-05,0,0,0.04754,-0.020374,0,0.00024417,0,0,0,0.052242,2.7641e-08,0.015673,0.103,0.022638,0.046434,3.2368e-06,0.39,0.99,0
0.02039,-0.0089344,0.052331,-1.4057e-07,0.015699,9.3942e-05,0,0,0.047621,-0.020409,0,0.00024425,0,0,0,0.052331,-3.0921e-07,0.015699,0.10285,0.022676,0.046513,3.2533e-06,0.4,0.99,0
0.020866,-0.0089824,0.052419,-4.3353e-07,0.015726,9.3694e-05,0,0,0.047702,-0.020444,0,0.00024361,0,0,0,0.052419,-6.01e-07,0.015726,0.10241,0.022715,0.046592,3.2698e-06,0.41,0.99,0
0.021344,-0.0090279,0.052508,-6.8785e-07,0.015752,9.3207e-05,0,0,0.047782,-0.020479,0,0.00024234,0,0,0,0.052508,-8.533e-07,0.015752,0.10171,0.022753,0.046671,3.2864e-06,0.42,0.99,0
0.021822,-0.0090709,0.052596,-9.0826e-07,0.015779,9.2512e-05,0,0,0.047863,-0.020513,0,0.00024053,0,0,0,0.052596,-1.071e-06,0.015779,0.10078,0.022791,0.046749,3.3031e-06,0.43,0.99,0
0.022301,-0.0091117,0.052684,-1.0989e-06,0.015805,9.1637e-05,0,0,0.047942,-0.020548,0,0.00023826,0,0,0,0.052684,-1.2583e-06,0.015805,0.099657,0.022829,0.046827,3.3196e-06,0.44,0.99,0
0.022781,-0.0091503,0.05277,-1.2635e-06,0.015831,9.0607e-05,0,0,0.048022,-0.020582,0,0.00023558,0,0,0,0.052771,-1.4191e-06,0.015831,0.098374,0.022867,0.046905,3.3361e-06,0.45,0.99,0
0.023262,-0.0091868,0.052857,-1.4052e-06,0.015857,8.9442e-05,0,0,0.0481,-0.020615,0,0.00023255,0,0,0,0.052857,-1.5565e-06,0.015857,0.096951,0.022904,0.046981,3.3525e-06,0.46,0.99,0
0.023743,-0.0092214,0.052942,-1.5267e-06,0.015882,8.8163e-05,0,0,0.048178,-0.020649,0,0.00022922,0,0,0,0.052942,-1.6735e-06,0.015882,0.09541,0.022941,0.047057,3.3687e-06,0.47,0.99,0
0.024225,-0.0092542,0.053026,-1.6306e-06,0.015907,8.6784e-05,0,0,0.048254,-0.020681,0,0.00022564,0,0,0,0.053026,-1.7727e-06,0.015907,0.09377,0.022977,0.047132,3.3848e-06,0.48,0.99,0
0.024708,-0.0092852,0.053109,-1.7191e-06,0.015932,8.5322e-05,0,0,0.048329,-0.020714,0,0.00022184,0,0,0,0.053109,-1.8562e-06,0.015932,0.092046,0.023013,0.047205,3.4006e-06,0.49,0.99,0
0.025192,-0.0093145,0.05319,-1.794e-06,0.015956,8.3787e-05,0,0,0.048404,-0.020746,0,0.00021785,0,0,0,0.05319,-1.9259e-06,0.015956,0.090252,0.023048,0.047278,3.4163e-06,0.5,0.99,0
0.025676,-0.0093423,0.05327,-1.857e-06,0.01598,8.2193e-05,0,0,0.048476,-0.020777,0,0.0002137,0,0,0,0.05327,-1.9838e-06,0.01598,0.088401,0.023083,0.047349,3.4317e-06,0.51,0.99,0
0.026161,-0.0093686,0.053349,-1.9095e-06,0.016004,8.0547e-05,0,0,0.048548,-0.020808,0,0.00020942,0,0,0,0.053349,-2.0311e-06,0.016004,0.086504,0.023117,0.047419,3.447e-06,0.52,0.99,0
0.026647,-0.0093934,0.053426,-1.953e-06,0.016027,7.886e-05,0,0,0.048618,-0.020838,0,0.00020504,0,0,0,0.053426,-2.0693e-06,0.016027,0.08457,0.02315,0.047488,3.4619e-06,0.53,0.99,0
0.027134,-0.009417,0.053501,-1.9884e-06,0.01605,7.7138e-05,0,0,0.048687,-0.020867,0,0.00020056,0,0,0,0.053501,-2.0996e-06,0.01605,0.082606,0.023183,0.047555,3.4766e-06,0.54,0.99,0
0.027621,-0.0094392,0.053575,-2.0169e-06,0.016072,7.5388e-05,0,0,0.048754,-0.020896,0,0.00019601,0,0,0,0.053575,-2.1229e-06,0.016072,0.080621,0.023215,0.04762,3.4911e-06,0.55,0.99,0
0.028109,-0.0094602,0.053647,-2.0392e-06,0.016094,7.3616e-05,0,0,0.04882,-0.020924,0,0.0001914,0,0,0,0.053647,-2.1402e-06,0.016094,0.078619,0.023246,0.047685,3.5052e-06,0.56,0.99,0
0.028597,-0.0094801,0.053718,-2.0562e-06,0.016115,7.1827e-05,0,0,0.048884,-0.020952,0,0.00018675,0,0,0,0.053718,-2.1523e-06,0.016115,0.076608,0.023277,0.047747,3.5191e-06,0.57,0.99,0
0.029086,-0.0094989,0.053787,-2.0686e-06,0.016135,7.0024e-05,0,0,0.048947,-0.020979,0,0.00018206,0,0,0,0.053787,-2.1597e-06,0.016135,0.07459,0.023307,0.047809,3.5326e-06,0.58,0.99,0
0.029576,-0.0095167,0.053854,-2.0769e-06,0.016156,6.8213e-05,0,0,0.049008,-0.021005,0,0.00017735,0,0,0,0.053854,-2.1633e-06,0.016156,0.072569,0.023336,0.047868,3.5459e-06,0.59,0.99,0
0.030067,-0.0095335,0.05392,-2.0817e-06,0.016175,6.6395e-05,0,0,0.049068,-0.021031,0,0.00017263,0,0,0,0.05392,-2.1635e-06,0.016175,0.07055,0.023364,0.047926,3.5588e-06,0.6,0.99,0
0.030558,-0.0095493,0.053983,-2.0834e-06,0.016194,6.4575e-05,0,0,0.049126,-0.021055,0,0.0001679,0,0,0,0.053983,-2.1607e-06,0.016194,0.068535,0.023392,0.047983,3.5715e-06,0.61,0.99,0
0.031049,-0.0095642,0.054045,-2.0826e-06,0.016213,6.2755e-05,0,0,0.049182,-0.02108,0,0.00016316,0,0,0,0.054045,-2.1554e-06,0.016213,0.066526,0.023419,0.048038,3.5838e-06,0.62,0.99,0
0.031541,-0.0095784,0.054106,-2.0794e-06,0.016231,6.0936e-05,0,0,0.049237,-0.021103,0,0.00015843,0,0,0,0.054106,-2.148e-06,0.016231,0.064526,0.023445,0.048092,3.5958e-06,0.63,0.99,0
0.032034,-0.0095917,0.054164,-2.0742e-06,0.016249,5.9121e-05,0,0,0.04929,-0.021126,0,0.00015371,0,0,0,0.054164,-2.1388e-06,0.016249,0.062536,0.02347,0.048144,3.6075e-06,0.64,0.99,0
0.032527,-0.0096042,0.054221,-2.0674e-06,0.016266,5.7311e-05,0,0,0.049342,-0.021148,0,0.00014901,0,0,0,0.054221,-2.128e-06,0.016266,0.060558,0.023495,0.048194,3.6188e-06,0.65,0.99,0
0.033021,-0.0096161,0.054276,-2.0592e-06,0.016282,5.5507e-05,0,0,0.049392,-0.02117,0,0.00014432,0,0,0,0.054276,-2.1159e-06,0.016282,0.058593,0.023519,0.048243,3.6299e-06,0.66,0.99,0
0.033515,-0.0096272,0.054329,-2.0497e-06,0.016298,5.3711e-05,0,0,0.049441,-0.02119,0,0.00013965,0,0,0,0.05433,-2.1028e-06,0.016298,0.056642,0.023542,0.048291,3.6406e-06,0.67,0.99,0
0.034009,-0.0096377,0.054381,-2.0392e-06,0.016314,5.1924e-05,0,0,0.049487,-0.021211,0,0.000135,0,0,0,0.054381,-2.0888e-06,0.016314,0.054705,0.023564,0.048337,3.651e-06,0.68,0.99,0
0.034505,-0.0096476,0.054431,-2.028e-06,0.016329,5.0147e-05,0,0,0.049533,-0.02123,0,0.00013038,0,0,0,0.054431,-2.0742e-06,0.016329,0.052784,0.023586,0.048381,3.661e-06,0.69,0.99,0
0.035,-0.0096569,0.054479,-2.016e-06,0.016343,4.8379e-05,0,0,0.049577,-0.021249,0,0.00012579,0,0,0,0.054479,-2.059e-06,0.016343,0.050879,0.023607,0.048424,3.6708e-06,0.7,0.99,0
0.035496,-0.0096656,0.054526,-2.0035e-06,0.016357,4.6622e-05,0,0,0.049619,-0.021267,0,0.00012122,0,0,0,0.054526,-2.0434e-06,0.016357,0.048989,0.023627,0.048465,3.6802e-06,0.71,0.99,0
0.035992,-0.0096739,0.05457,-1.9906e-06,0.01637,4.4877e-05,0,0,0.04966,-0.021284,0,0.00011668,0,0,0,0.05457,-2.0275e-06,0.01637,0.047116,0.023646,0.048505,3.6892e-06,0.72,0.99,0
0.036489,-0.0096816,0.054614,-1.9774e-06,0.016383,4.3142e-05,0,0,0.049699,-0.021301,0,0.00011217,0,0,0,0.054614,-2.0115e-06,0.016383,0.04526,0.023665,0.048543,3.698e-06,0.73,0.99,0
0.036986,-0.0096888,0.054655,-1.964e-06,0.016396,4.1419e-05,0,0,0.049737,-0.021317,0,0.00010769,0,0,0,0.054655,-1.9954e-06,0.016396,0.043419,0.023683,0.04858,3.7064e-06,0.74,0.99,0
0.037484,-0.0096956,0.054695,-1.9505e-06,0.016408,3.9709e-05,0,0,0.049773,-0.021333,0,0.00010324,0,0,0,0.054695,-1.9794e-06,0.016408,0.041595,0.0237,0.048615,3.7145e-06,0.75,0.99,0
0.037982,-0.009702,0.054733,-1.9371e-06,0.016419,3.8009e-05,0,0,0.049807,-0.021347,0,9.8824e-05,0,0,0,0.054733,-1.9635e-06,0.016419,0.039788,0.023717,0.048649,3.7222e-06,0.76,0.99,0
0.03848,-0.0097079,0.054769,-1.9236e-06,0.01643,3.6322e-05,0,0,0.049841,-0.021362,0,9.4437e-05,0,0,0,0.054769,-1.9477e-06,0.01643,0.037996,0.023733,0.048681,3.7297e-06,0.77,0.99,0
0.038979,-0.0097135,0.054804,-1.9103e-06,0.016441,3.4646e-05,0,0,0.049872,-0.021375,0,9.0079e-05,0,0,0,0.054804,-1.9323e-06,0.016441,0.03622,0.023748,0.048712,3.7368e-06,0.78,0.99,0
0.039478,-0.0097186,0.054837,-1.8973e-06,0.016451,3.2982e-05,0,0,0.049903,-0.021388,0,8.5752e-05,0,0,0,0.054837,-1.9171e-06,0.016451,0.034459,0.023762,0.048742,3.7436e-06,0.79,0.99,0
0.039977,-0.0097235,0.054869,-1.8844e-06,0.01646,3.1329e-05,0,0,0.049931,-0.0214,0,8.1455e-05,0,0,0,0.054869,-1.9023e-06,0.01646,0.032713,0.023776,0.04877,3.7501e-06,0.8,0.99,0
0.040476,-0.009728,0.054899,-1.8719e-06,0.016469,2.9687e-05,0,0,0.049958,-0.021412,0,7.7185e-05,0,0,0,0.054899,-1.888e-06,0.016469,0.030982,0.023789,0.048796,3.7562e-06,0.81,0.99,0
0.040976,-0.0097321,0.054927,-1.8598e-06,0.016477,2.8056e-05,0,0,0.049984,-0.021423,0,7.2945e-05,0,0,0,0.054927,-1.8741e-06,0.016477,0.029265,0.023801,0.048822,3.762e-06,0.82,0.99,0
0.041476,-0.009736,0.054954,-1.8481e-06,0.016486,2.6435e-05,0,0,0.050008,-0.021434,0,6.8731e-05,0,0,0,0.054954,-1.8608e-06,0.016486,0.027561,0.023812,0.048845,3.7675e-06,0.83,0.99,0
0.041976,-0.0097396,0.054979,-1.8368e-06,0.016493,2.4824e-05,0,0,0.050031,-0.021443,0,6.4543e-05,0,0,0,0.054979,-1.848e-06,0.016493,0.02587,0.023823,0.048868,3.7727e-06,0.84,0.99,0
0.042477,-0.0097429,0.055002,-1.826e-06,0.0165,2.3223e-05,0,0,0.050053,-0.021453,0,6.038e-05,0,0,0,0.055002,-1.8358e-06,0.0165,0.024191,0.023834,0.048889,3.7775e-06,0.85,0.99,0
0.042977,-0.0097459,0.055024,-1.8157e-06,0.016507,2.1631e-05,0,0,0.050073,-0.021461,0,5.6241e-05,0,0,0,0.055024,-1.8242e-06,0.016507,0.022523,0.023843,0.048908,3.7821e-06,0.86,0.99,0
0.043478,-0.0097487,0.055045,-1.8061e-06,0.016513,2.0048e-05,0,0,0.050091,-0.021469,0,5.2125e-05,0,0,0,0.055045,-1.8134e-06,0.016513,0.020867,0.023852,0.048926,3.7863e-06,0.87,0.99,0
0.043979,-0.0097512,0.055064,-1.797e-06,0.016519,1.8473e-05,0,0,0.050109,-0.021476,0,4.803e-05,0,0,0,0.055064,-1.8032e-06,0.016519,0.019221,0.02386,0.048943,3.7902e-06,0.88,0.99,0
0.04448,-0.0097535,0.055081,-1.7885e-06,0.016524,1.6906e-05,0,0,0.050125,-0.021483,0,4.3956e-05,0,0,0,0.055081,-1.7937e-06,0.016524,0.017585,0.023868,0.048959,3.7938e-06,0.89,0.99,0
0.044982,-0.0097556,0.055097,-1.7807e-06,0.016529,1.5346e-05,0,0,0.050139,-0.02149,0,3.9899e-05,0,0,0,0.055097,-1.785e-06,0.016529,0.015958,0.023875,0.048973,3.7971e-06,0.9,0.99,0
0.045483,-0.0097575,0.055111,-1.7736e-06,0.016533,1.3792e-05,0,0,0.050152,-0.021495,0,3.586e-05,0,0,0,0.055111,-1.777e-06,0.016533,0.014338,0.023881,0.048985,3.8e-06,0.91,0.99,0
0.045985,-0.0097591,0.055124,-1.7671e-06,0.016537,1.2244e-05,0,0,0.050164,-0.0215,0,3.1836e-05,0,0,0,0.055124,-1.7698e-06,0.016537,0.012726,0.023886,0.048997,3.8027e-06,0.92,0.99,0
0.046486,-0.0097605,0.055135,-1.7614e-06,0.01654,1.0702e-05,0,0,0.050174,-0.021504,0,2.7825e-05,0,0,0,0.055135,-1.7635e-06,0.01654,0.011121,0.023891,0.049007,3.805e-06,0.93,0.99,0
0.046988,-0.0097617,0.055145,-1.7564e-06,0.016543,9.1644e-06,0,0,0.050183,-0.021508,0,2.3828e-05,0,0,0,0.055145,-1.7579e-06,0.016543,0.0095216,0.023896,0.049015,3.807e-06,0.94,0.99,0
0.04749,-0.0097628,0.055153,-1.7521e-06,0.016546,7.6308e-06,0,0,0.05019,-0.021511,0,1.984e-05,0,0,0,0.055153,-1.7532e-06,0.016546,0.007927,0.023899,0.049023,3.8087e-06,0.95,0.99,0
0.047992,-0.0097636,0.05516,-1.7486e-06,0.016547,6.1006e-06,0,0,0.050196,-0.021514,0,1.5862e-05,0,0,0,0.05516,-1.7493e-06,0.016547,0.0063365,0.023902,0.049029,3.8101e-06,0.96,0.99,0
0.048494,-0.0097643,0.055165,-1.7459e-06,0.016549,4.573e-06,0,0,0.050201,-0.021516,0,1.189e-05,0,0,0,0.055165,-1.7463e-06,0.016549,0.0047495,0.023904,0.049034,3.8112e-06,0.97,0.99,0
0.048996,-0.0097647,0.055169,-1.7439e-06,0.01655,3.0475e-06,0,0,0.050205,-0.021518,0,7.9236e-06,0,0,0,0.055169,-1.7441e-06,0.01655,0.0031649,0.023906,0.049037,3.812e-06,0.98,0.99,0
0.049498,-0.009765,0.055171,-1.7428e-06,0.016551,1.5234e-06,0,0,0.050207,-0.021518,0,3.9609e-06,0,0,0,0.055171,-1.7428e-06,0.016551,0.001582,0.023907,0.049039,3.8125e-06,0.99,0.99,0
0.05,-0.0097651,0.055172,-1.7424e-06,0.016551,-3.5353e-06,0,0,0.050207,-0.021519,0,-9.1919e-06,0,0,0,0.055172,-1.7426e-06,0.016551,-0.0036713,0.023907,0.049039,3.8126e-06,1,0.99,0
0,0,0.15616,0.066927,0.066927,-0.043445,0,0,0.11601,-6.9389e-18,0,-0.11296,0,0,0,0.17382,0.049269,0.066927,-22.118,0.096672,0.11673,7.5422e-05,0,1,0
0.0011601,-0.0011296,0.11269,0.0079702,0.036198,-0.017144,0,0,0.09944,-0.036696,0,-0.044575,0,0,0,0.11542,0.0052348,0.036198,-9.0651,0.052286,0.098432,3.3139e-05,0.01,1,0
0.0019888,-0.0018282,0.084644,0.0034309,0.026423,-0.0055098,0,0,0.075688,-0.029889,0,-0.014326,0,0,0,0.085017,0.0030588,0.026423,-3.8636,0.038166,0.073131,1.3393e-05,0.02,1,0
0.0026738,-0.0024338,0.071637,-7.5765e-05,0.021468,-0.0033156,0,0,0.065219,-0.028007,0,-0.0086205,0,0,0,0.07179,-0.00022873,0.021468,-2.6415,0.03101,0.063991,8.4279e-06,0.03,1,0
0.0032932,-0.0029557,0.065587,-0.00045657,0.019539,-0.0020476,0,0,0.059862,-0.025994,0,-0.0053237,0,0,0,0.06565,-0.00051999,0.019539,-1.7741,0.028223,0.058767,6.4774e-06,0.04,1,0
0.0038711,-0.003421,0.061689,-0.00061752,0.018322,-0.0014304,0,0,0.056378,-0.024621,0,-0.003719,0,0,0,0.061722,-0.00065034,0.018322,-1.3144,0.026464,0.05538,5.3975e-06,0.05,1,0
0.0044207,-0.0038412,0.059004,-0.00062203,0.017515,-0.0010458,0,0,0.053936,-0.023578,0,-0.0027191,0,0,0,0.059022,-0.00064037,0.017515,-1.0045,0.025299,0.052972,4.7214e-06,0.06,1,0
0.0049498,-0.0042247,0.057027,-0.00059701,0.016929,-0.00079313,0,0,0.052127,-0.022784,0,-0.0020621,0,0,0,0.057038,-0.00060792,0.016929,-0.78842,0.024453,0.051182,4.26e-06,0.07,1,0
0.0054633,-0.004577,0.055526,-0.00056015,0.01649,-0.00061514,0,0,0.050747,-0.022165,0,-0.0015994,0,0,0,0.055532,-0.00056689,0.01649,-0.62831,0.023818,0.049812,3.9298e-06,0.08,1,0
0.0059647,-0.0049023,0.054362,-0.00052168,0.016152,-0.00048459,0,0,0.049673,-0.021676,0,-0.0012599,0,0,0,0.054366,-0.00052596,0.016152,-0.50583,0.023331,0.048742,3.6853e-06,0.09,1,0
0.0064567,-0.0052038,0.053449,-0.00048456,0.015889,-0.00038563,0,0,0.048827,-0.021286,0,-0.0010026,0,0,0,0.053451,-0.00048732,0.015889,-0.40965,0.022951,0.047898,3.5003e-06,0.1,1,0
0.0069413,-0.0054842,0.052726,-0.00044996,0.015683,-0.00030876,0,0,0.048156,-0.020973,0,-0.00080279,0,0,0,0.052728,-0.00045175,0.015683,-0.33267,0.022653,0.047227,3.3582e-06,0.11,1,0
0.0074199,-0.0057454,0.052153,-0.00041813,0.01552,-0.00024787,0,0,0.047622,-0.02072,0,-0.00064447,0,0,0,0.052154,-0.0004193,0.01552,-0.27014,0.022419,0.046691,3.248e-06,0.12,1,0
0.0078937,-0.0059895,0.0517,-0.00038901,0.015393,-0.00019888,0,0,0.047198,-0.020517,0,-0.00051709,0,0,0,0.0517,-0.00038977,0.015393,-0.21876,0.022235,0.046264,3.1623e-06,0.13,1,0
0.0083638,-0.0062178,0.051342,-0.00036242,0.015294,-0.00015896,0,0,0.046863,-0.020353,0,-0.0004133,0,0,0,0.051342,-0.00036291,0.015294,-0.17615,0.022091,0.045924,3.0955e-06,0.14,1,0
0.008831,-0.0064316,0.051063,-0.00033812,0.015218,-0.00012611,0,0,0.046599,-0.020222,0,-0.00032788,0,0,0,0.051063,-0.00033843,0.015218,-0.14057,0.021981,0.045657,3.0439e-06,0.15,1,0
0.0092958,-0.0066323,0.050849,-0.00031587,0.01516,-9.884e-05,0,0,0.046396,-0.020119,0,-0.00025698,0,0,0,0.050849,-0.00031606,0.01516,-0.11068,0.021898,0.045448,3.0045e-06,0.16,1,0
0.0097589,-0.0068208,0.050689,-0.00029546,0.015118,-7.6062e-05,0,0,0.046242,-0.020038,0,-0.00019776,0,0,0,0.050689,-0.00029557,0.015118,-0.085477,0.021837,0.04529,2.975e-06,0.17,1,0
0.010221,-0.0069979,0.050574,-0.00027669,0.015089,-5.6931e-05,0,0,0.04613,-0.019976,0,-0.00014802,0,0,0,0.050574,-0.00027676,0.015089,-0.064147,0.021795,0.045172,2.9536e-06,0.18,1,0
0.010682,-0.0071646,0.050496,-0.00025941,0.015071,-4.0799e-05,0,0,0.046053,-0.01993,0,-0.00010608,0,0,0,0.050496,-0.00025944,0.015071,-0.046056,0.021769,0.04509,2.939e-06,0.19,1,0
0.011142,-0.0073215,0.050451,-0.00024345,0.015062,-2.7153e-05,0,0,0.046005,-0.019897,0,-7.0598e-05,0,0,0,0.050451,-0.00024346,0.015062,-0.030689,0.021757,0.045036,2.9301e-06,0.2,1,0
0.011602,-0.0074693,0.050432,-0.00022869,0.015061,-1.5586e-05,0,0,0.045983,-0.019877,0,-4.0524e-05,0,0,0,0.050432,-0.00022869,0.015061,-0.017627,0.021755,0.045008,2.926e-06,0.21,1,0
0.012061,-0.0076087,0.050436,-0.000215,0.015066,-5.7688e-06,0,0,0.045981,-0.019866,0,-1.4999e-05,0,0,0,0.050436,-0.000215,0.015066,-0.0065256,0.021762,0.045,2.9258e-06,0.22,1,0
0.012521,-0.0077401,0.050459,-0.0002023,0.015077,2.5668e-06,0,0,0.045997,-0.019863,0,6.6737e-06,0,0,0,0.050459,-0.0002023,0.015077,0.0029029,0.021778,0.045011,2.929e-06,0.23,1,0
0.012981,-0.0078642,0.050498,-0.00019049,0.015092,9.6412e-06,0,0,0.046027,-0.019868,0,2.5067e-05,0,0,0,0.050498,-0.00019049,0.015092,0.010898,0.0218,0.045036,2.9351e-06,0.24,1,0
0.013442,-0.0079813,0.050551,-0.00017949,0.015111,1.5637e-05,0,0,0.046071,-0.019878,0,4.0657e-05,0,0,0,0.050551,-0.00017949,0.015111,0.017661,0.021827,0.045074,2.9435e-06,0.25,1,0
0.013903,-0.0080919,0.050614,-0.00016923,0.015134,2.0708e-05,0,0,0.046125,-0.019894,0,5.3842e-05,0,0,0,0.050614,-0.00016924,0.015134,0.023364,0.02186,0.045122,2.9541e-06,0.26,1,0
0.014364,-0.0081965,0.050688,-0.00015966,0.015159,2.4983e-05,0,0,0.046188,-0.019914,0,6.4956e-05,0,0,0,0.050688,-0.00015967,0.015159,0.028151,0.021896,0.04518,2.9664e-06,0.27,1,0
0.014826,-0.0082953,0.050769,-0.00015071,0.015186,2.857e-05,0,0,0.046259,-0.019937,0,7.4283e-05,0,0,0,0.050769,-0.00015073,0.015186,0.032148,0.021935,0.045245,2.9801e-06,0.28,1,0
0.015289,-0.0083887,0.050857,-0.00014234,0.015214,3.1563e-05,0,0,0.046336,-0.019964,0,8.2064e-05,0,0,0,0.050857,-0.00014236,0.015214,0.03546,0.021976,0.045317,2.995e-06,0.29,1,0
0.015753,-0.008477,0.05095,-0.0001345,0.015245,3.4041e-05,0,0,0.046417,-0.019993,0,8.8505e-05,0,0,0,0.05095,-0.00013453,0.015245,0.038179,0.02202,0.045393,3.011e-06,0.3,1,0
0.016218,-0.0085606,0.051048,-0.00012716,0.015276,3.6071e-05,0,0,0.046503,-0.020024,0,9.3784e-05,0,0,0,0.051048,-0.00012718,0.015276,0.040385,0.022065,0.045474,3.0278e-06,0.31,1,0
0.016683,-0.0086397,0.051148,-0.00012027,0.015308,3.7713e-05,0,0,0.046592,-0.020057,0,9.8054e-05,0,0,0,0.051148,-0.00012029,0.015308,0.042147,0.022112,0.045558,3.0453e-06,0.32,1,0
0.01715,-0.0087145,0.051252,-0.0001138,0.015341,3.9017e-05,0,0,0.046683,-0.020092,0,0.00010145,0,0,0,0.051252,-0.00011383,0.015341,0.043522,0.02216,0.045644,3.0634e-06,0.33,1,0
0.017617,-0.0087853,0.051357,-0.00010772,0.015375,4.0028e-05,0,0,0.046777,-0.020127,0,0.00010407,0,0,0,0.051357,-0.00010775,0.015375,0.044564,0.022208,0.045733,3.0819e-06,0.34,1,0
0.018085,-0.0088524,0.051463,-0.00010201,0.015408,4.0784e-05,0,0,0.046871,-0.020164,0,0.00010604,0,0,0,0.051463,-0.00010204,0.015408,0.045316,0.022257,0.045823,3.1007e-06,0.35,1,0
0.018554,-0.0089159,0.051571,-9.6634e-05,0.015442,4.1317e-05,0,0,0.046967,-0.0202,0,0.00010742,0,0,0,0.051571,-9.6667e-05,0.015442,0.045818,0.022305,0.045914,3.1198e-06,0.36,1,0
0.019024,-0.008976,0.051678,-9.1576e-05,0.015476,4.1657e-05,0,0,0.047063,-0.020238,0,0.00010831,0,0,0,0.051678,-9.161e-05,0.015476,0.046103,0.022354,0.046006,3.1391e-06,0.37,1,0
0.019496,-0.0090329,0.051786,-8.6812e-05,0.01551,4.1829e-05,0,0,0.047159,-0.020276,0,0.00010875,0,0,0,0.051786,-8.6846e-05,0.01551,0.046202,0.022403,0.046098,3.1584e-06,0.38,1,0
0.019968,-0.0090869,0.051894,-8.2323e-05,0.015543,4.1855e-05,0,0,0.047255,-0.020313,0,0.00010882,0,0,0,0.051894,-8.2357e-05,0.015543,0.046139,0.022451,0.04619,3.1778e-06,0.39,1,0
0.020441,-0.0091379,0.052,-7.809e-05,0.015577,4.1755e-05,0,0,0.047351,-0.020351,0,0.00010856,0,0,0,0.052,-7.8123e-05,0.015577,0.045938,0.0225,0.046281,3.1971e-06,0.4,1,0
0.020915,-0.0091863,0.052106,-7.4096e-05,0.01561,4.1545e-05,0,0,0.047446,-0.020389,0,0.00010802,0,0,0,0.052106,-7.4129e-05,0.01561,0.045617,0.022547,0.046372,3.2164e-06,0.41,1,0
0.02139,-0.0092321,0.052211,-7.0326e-05,0.015642,4.124e-05,0,0,0.047539,-0.020426,0,0.00010722,0,0,0,0.052211,-7.0359e-05,0.015642,0.045195,0.022594,0.046462,3.2356e-06,0.42,1,0
0.021865,-0.0092756,0.052315,-6.6766e-05,0.015674,4.0853e-05,0,0,0.047632,-0.020463,0,0.00010622,0,0,0,0.052315,-6.6797e-05,0.015674,0.044686,0.022641,0.046552,3.2547e-06,0.43,1,0
0.022342,-0.0093167,0.052417,-6.3401e-05,0.015706,4.0396e-05,0,0,0.047724,-0.0205,0,0.00010503,0,0,0,0.052417,-6.3432e-05,0.015706,0.044102,0.022686,0.04664,3.2736e-06,0.44,1,0
0.02282,-0.0093556,0.052518,-6.0221e-05,0.015737,3.9878e-05,0,0,0.047814,-0.020537,0,0.00010368,0,0,0,0.052518,-6.0251e-05,0.015737,0.043456,0.022732,0.046727,3.2923e-06,0.45,1,0
0.023299,-0.0093925,0.052616,-5.7213e-05,0.015768,3.9308e-05,0,0,0.047903,-0.020573,0,0.0001022,0,0,0,0.052617,-5.7242e-05,0.015768,0.042757,0.022776,0.046812,3.3107e-06,0.46,1,0
0.023778,-0.0094275,0.052714,-5.4366e-05,0.015798,3.8694e-05,0,0,0.047991,-0.020608,0,0.0001006,0,0,0,0.052714,-5.4395e-05,0.015798,0.042014,0.022819,0.046897,3.3289e-06,0.47,1,0
0.024258,-0.0094606,0.052809,-5.1671e-05,0.015827,3.8042e-05,0,0,0.048077,-0.020643,0,9.8909e-05,0,0,0,0.05281,-5.1699e-05,0.015827,0.041233,0.022862,0.046979,3.3469e-06,0.48,1,0
0.02474,-0.0094919,0.052903,-4.9119e-05,0.015856,3.7358e-05,0,0,0.048161,-0.020677,0,9.7132e-05,0,0,0,0.052903,-4.9145e-05,0.015856,0.040423,0.022903,0.047061,3.3645e-06,0.49,1,0
0.025222,-0.0095216,0.052995,-4.6701e-05,0.015884,3.6648e-05,0,0,0.048244,-0.02071,0,9.5286e-05,0,0,0,0.052995,-4.6726e-05,0.015884,0.039588,0.022944,0.04714,3.3819e-06,0.5,1,0
0.025704,-0.0095497,0.053085,-4.4409e-05,0.015912,3.5916e-05,0,0,0.048324,-0.020744,0,9.3382e-05,0,0,0,0.053085,-4.4433e-05,0.015912,0.038733,0.022984,0.047218,3.399e-06,0.51,1,0
0.026188,-0.0095763,0.053173,-4.2236e-05,0.015939,3.5166e-05,0,0,0.048404,-0.020776,0,9.143e-05,0,0,0,0.053173,-4.2259e-05,0.015939,0.037862,0.023023,0.047295,3.4157e-06,0.52,1,0
0.026672,-0.0096015,0.053259,-4.0174e-05,0.015966,3.44e-05,0,0,0.048481,-0.020807,0,8.944e-05,0,0,0,0.053259,-4.0196e-05,0.015966,0.03698,0.023061,0.047369,3.4322e-06,0.53,1,0
0.027158,-0.0096253,0.053342,-3.8218e-05,0.015991,3.3623e-05,0,0,0.048556,-0.020838,0,8.7419e-05,0,0,0,0.053342,-3.8239e-05,0.015991,0.036089,0.023099,0.047442,3.4482e-06,0.54,1,0
0.027644,-0.0096479,0.053424,-3.6362e-05,0.016016,3.2836e-05,0,0,0.04863,-0.020869,0,8.5374e-05,0,0,0,0.053424,-3.6382e-05,0.016016,0.035192,0.023135,0.047514,3.464e-06,0.55,1,0
0.02813,-0.0096692,0.053504,-3.4599e-05,0.016041,3.2042e-05,0,0,0.048702,-0.020898,0,8.331e-05,0,0,0,0.053504,-3.4618e-05,0.016041,0.034291,0.02317,0.047583,3.4794e-06,0.56,1,0
0.028618,-0.0096894,0.053582,-3.2925e-05,0.016065,3.1244e-05,0,0,0.048772,-0.020927,0,8.1233e-05,0,0,0,0.053582,-3.2943e-05,0.016065,0.033389,0.023204,0.047651,3.4945e-06,0.57,1,0
0.029106,-0.0097085,0.053657,-3.1335e-05,0.016088,3.0441e-05,0,0,0.04884,-0.020955,0,7.9148e-05,0,0,0,0.053657,-3.1352e-05,0.016088,0.032487,0.023238,0.047717,3.5092e-06,0.58,1,0
0.029594,-0.0097265,0.053731,-2.9824e-05,0.01611,2.9637e-05,0,0,0.048907,-0.020982,0,7.7057e-05,0,0,0,0.053731,-2.9841e-05,0.01611,0.031586,0.02327,0.047781,3.5235e-06,0.59,1,0
0.030084,-0.0097435,0.053803,-2.8389e-05,0.016132,2.8833e-05,0,0,0.048971,-0.021009,0,7.4965e-05,0,0,0,0.053803,-2.8404e-05,0.016132,0.030689,0.023302,0.047843,3.5375e-06,0.6,1,0
0.030574,-0.0097596,0.053872,-2.7025e-05,0.016154,2.8028e-05,0,0,0.049034,-0.021035,0,7.2874e-05,0,0,0,0.053872,-2.7039e-05,0.016154,0.029795,0.023333,0.047904,3.5512e-06,0.61,1,0
0.031065,-0.0097748,0.05394,-2.5728e-05,0.016174,2.7225e-05,0,0,0.049095,-0.02106,0,7.0786e-05,0,0,0,0.05394,-2.5742e-05,0.016174,0.028906,0.023363,0.047963,3.5644e-06,0.62,1,0
0.031556,-0.0097892,0.054005,-2.4496e-05,0.016194,2.6425e-05,0,0,0.049154,-0.021084,0,6.8704e-05,0,0,0,0.054005,-2.4509e-05,0.016194,0.028022,0.023392,0.04802,3.5774e-06,0.63,1,0
0.032048,-0.0098028,0.054068,-2.3325e-05,0.016214,2.5627e-05,0,0,0.049211,-0.021108,0,6.663e-05,0,0,0,0.054068,-2.3337e-05,0.016214,0.027145,0.02342,0.048076,3.5899e-06,0.64,1,0
0.03254,-0.0098155,0.05413,-2.2212e-05,0.016232,2.4833e-05,0,0,0.049267,-0.021131,0,6.4565e-05,0,0,0,0.05413,-2.2223e-05,0.016232,0.026274,0.023447,0.04813,3.6021e-06,0.65,1,0
0.033033,-0.0098276,0.05419,-2.1154e-05,0.016251,2.4042e-05,0,0,0.049321,-0.021153,0,6.251e-05,0,0,0,0.05419,-2.1165e-05,0.016251,0.025411,0.023473,0.048182,3.6139e-06,0.66,1,0
0.033527,-0.009839,0.054247,-2.0149e-05,0.016268,2.3257e-05,0,0,0.049373,-0.021175,0,6.0467e-05,0,0,0,0.054247,-2.0159e-05,0.016268,0.024554,0.023498,0.048232,3.6254e-06,0.67,1,0
0.03402,-0.0098497,0.054303,-1.9194e-05,0.016285,2.2475e-05,0,0,0.049423,-0.021196,0,5.8436e-05,0,0,0,0.054303,-1.9204e-05,0.016285,0.023706,0.023523,0.048281,3.6365e-06,0.68,1,0
0.034515,-0.0098598,0.054357,-1.8288e-05,0.016302,2.1699e-05,0,0,0.049472,-0.021216,0,5.6418e-05,0,0,0,0.054357,-1.8296e-05,0.016302,0.022865,0.023547,0.048328,3.6472e-06,0.69,1,0
0.03501,-0.0098693,0.054408,-1.7427e-05,0.016317,2.0928e-05,0,0,0.049518,-0.021235,0,5.4414e-05,0,0,0,0.054408,-1.7435e-05,0.016317,0.022032,0.023569,0.048373,3.6576e-06,0.7,1,0
0.035505,-0.0098782,0.054458,-1.661e-05,0.016332,2.0163e-05,0,0,0.049564,-0.021254,0,5.2423e-05,0,0,0,0.054458,-1.6618e-05,0.016332,0.021207,0.023591,0.048417,3.6676e-06,0.71,1,0
0.036001,-0.0098866,0.054506,-1.5835e-05,0.016347,1.9403e-05,0,0,0.049607,-0.021272,0,5.0447e-05,0,0,0,0.054506,-1.5842e-05,0.016347,0.02039,0.023613,0.048459,3.6773e-06,0.72,1,0
0.036497,-0.0098945,0.054552,-1.5101e-05,0.016361,1.8648e-05,0,0,0.049649,-0.021289,0,4.8486e-05,0,0,0,0.054552,-1.5107e-05,0.016361,0.019581,0.023633,0.048499,3.6866e-06,0.73,1,0
0.036994,-0.0099019,0.054597,-1.4405e-05,0.016375,1.79e-05,0,0,0.049689,-0.021306,0,4.6539e-05,0,0,0,0.054597,-1.4411e-05,0.016375,0.018779,0.023652,0.048538,3.6955e-06,0.74,1,0
0.037491,-0.0099088,0.054639,-1.3746e-05,0.016388,1.7156e-05,0,0,0.049727,-0.021322,0,4.4606e-05,0,0,0,0.054639,-1.3752e-05,0.016388,0.017986,0.023671,0.048576,3.7041e-06,0.75,1,0
0.037989,-0.0099153,0.05468,-1.3123e-05,0.0164,1.6419e-05,0,0,0.049764,-0.021337,0,4.2689e-05,0,0,0,0.05468,-1.3128e-05,0.0164,0.0172,0.023689,0.048611,3.7123e-06,0.76,1,0
0.038486,-0.0099214,0.054719,-1.2535e-05,0.016412,1.5687e-05,0,0,0.049799,-0.021352,0,4.0786e-05,0,0,0,0.054719,-1.2539e-05,0.016412,0.016422,0.023706,0.048645,3.7202e-06,0.77,1,0
0.038985,-0.0099271,0.054756,-1.1979e-05,0.016423,1.496e-05,0,0,0.049833,-0.021366,0,3.8897e-05,0,0,0,0.054756,-1.1983e-05,0.016423,0.015651,0.023723,0.048678,3.7278e-06,0.78,1,0
0.039483,-0.0099324,0.054791,-1.1456e-05,0.016434,1.4239e-05,0,0,0.049865,-0.021379,0,3.7022e-05,0,0,0,0.054791,-1.1459e-05,0.016434,0.014887,0.023738,0.048709,3.7349e-06,0.79,1,0
0.039982,-0.0099374,0.054825,-1.0963e-05,0.016444,1.3523e-05,0,0,0.049895,-0.021392,0,3.5161e-05,0,0,0,0.054825,-1.0967e-05,0.016444,0.01413,0.023753,0.048738,3.7418e-06,0.8,1,0
0.040481,-0.009942,0.054857,-1.0501e-05,0.016454,1.2813e-05,0,0,0.049924,-0.021404,0,3.3313e-05,0,0,0,0.054857,-1.0504e-05,0.016454,0.01338,0.023767,0.048766,3.7483e-06,0.81,1,0
0.04098,-0.0099463,0.054887,-1.0067e-05,0.016463,1.2107e-05,0,0,0.049951,-0.021415,0,3.1478e-05,0,0,0,0.054887,-1.007e-05,0.016463,0.012636,0.02378,0.048793,3.7544e-06,0.82,1,0
0.04148,-0.0099503,0.054915,-9.6613e-06,0.016472,1.1406e-05,0,0,0.049977,-0.021426,0,2.9656e-05,0,0,0,0.054915,-9.6637e-06,0.016472,0.011898,0.023793,0.048818,3.7602e-06,0.83,1,0
0.04198,-0.0099539,0.054942,-9.283e-06,0.01648,1.071e-05,0,0,0.050001,-0.021436,0,2.7845e-05,0,0,0,0.054942,-9.285e-06,0.01648,0.011166,0.023804,0.048841,3.7657e-06,0.84,1,0
0.04248,-0.0099573,0.054967,-8.9311e-06,0.016487,1.0018e-05,0,0,0.050024,-0.021445,0,2.6046e-05,0,0,0,0.054967,-8.9329e-06,0.016487,0.01044,0.023815,0.048863,3.7708e-06,0.85,1,0
0.04298,-0.0099605,0.054991,-8.605e-06,0.016495,9.3301e-06,0,0,0.050045,-0.021454,0,2.4258e-05,0,0,0,0.054991,-8.6066e-06,0.016495,0.0097197,0.023826,0.048884,3.7756e-06,0.86,1,0
0.043481,-0.0099633,0.055012,-8.3042e-06,0.016501,8.6464e-06,0,0,0.050065,-0.021462,0,2.2481e-05,0,0,0,0.055012,-8.3055e-06,0.016501,0.0090039,0.023835,0.048903,3.7801e-06,0.87,1,0
0.043982,-0.0099659,0.055032,-8.0278e-06,0.016507,7.9664e-06,0,0,0.050083,-0.02147,0,2.0713e-05,0,0,0,0.055032,-8.029e-06,0.016507,0.0082928,0.023844,0.04892,3.7842e-06,0.88,1,0
0.044483,-0.0099683,0.055051,-7.7755e-06,0.016513,7.29e-06,0,0,0.050099,-0.021477,0,1.8954e-05,0,0,0,0.055051,-7.7765e-06,0.016513,0.0075861,0.023852,0.048937,3.788e-06,0.89,1,0
0.044984,-0.0099704,0.055068,-7.5468e-06,0.016518,6.6167e-06,0,0,0.050115,-0.021483,0,1.7203e-05,0,0,0,0.055068,-7.5476e-06,0.016518,0.0068835,0.023859,0.048951,3.7914e-06,0.9,1,0
0.045485,-0.0099723,0.055083,-7.3411e-06,0.016523,5.9464e-06,0,0,0.050128,-0.021489,0,1.5461e-05,0,0,0,0.055083,-7.3417e-06,0.016523,0.0061845,0.023866,0.048965,3.7946e-06,0.91,1,0
0.045986,-0.009974,0.055096,-7.1581e-06,0.016527,5.2788e-06,0,0,0.050141,-0.021494,0,1.3725e-05,0,0,0,0.055096,-7.1586e-06,0.016527,0.0054888,0.023872,0.048977,3.7974e-06,0.92,1,0
0.046488,-0.0099755,0.055108,-6.9975e-06,0.01653,4.6137e-06,0,0,0.050151,-0.021499,0,1.1996e-05,0,0,0,0.055108,-6.9979e-06,0.01653,0.0047962,0.023877,0.048987,3.7998e-06,0.93,1,0
0.046989,-0.0099768,0.055119,-6.8589e-06,0.016534,3.9506e-06,0,0,0.050161,-0.021503,0,1.0271e-05,0,0,0,0.055119,-6.8592e-06,0.016534,0.0041061,0.023882,0.048996,3.8019e-06,0.94,1,0
0.047491,-0.0099778,0.055128,-6.7421e-06,0.016536,3.2893e-06,0,0,0.050169,-0.021506,0,8.5523e-06,0,0,0,0.055128,-6.7423e-06,0.016536,0.0034183,0.023886,0.049004,3.8037e-06,0.95,1,0
0.047993,-0.0099787,0.055135,-6.6468e-06,0.016538,2.6296e-06,0,0,0.050175,-0.021509,0,6.837e-06,0,0,0,0.055135,-6.6469e-06,0.016538,0.0027324,0.023889,0.04901,3.8052e-06,0.96,1,0
0.048495,-0.0099794,0.05514,-6.5729e-06,0.01654,1.9711e-06,0,0,0.05018,-0.021511,0,5.125e-06,0,0,0,0.05514,-6.5729e-06,0.01654,0.002048,0.023891,0.049015,3.8063e-06,0.97,1,0
0.048996,-0.0099798,0.055144,-6.5201e-06,0.016541,1.3136e-06,0,0,0.050184,-0.021512,0,3.4153e-06,0,0,0,0.055144,-6.5202e-06,0.016541,0.0013647,0.023893,0.049018,3.8072e-06,0.98,1,0
0.049498,-0.0099801,0.055147,-6.4886e-06,0.016542,6.5664e-07,0,0,0.050186,-0.021513,0,1.7073e-06,0,0,0,0.055147,-6.4886e-06,0.016542,0.00068214,0.023894,0.049021,3.8077e-06,0.99,1,0
0.05,-0.0099802,0.055147,-6.478e-06,0.016542,-3.6506e-06,0,0,0.050187,-0.021513,0,-9.4915e-06,0,0,0,0.055147,-6.4783e-06,0.016542,-0.0037923,0.023894,0.049021,3.8078e-06,1,1,0
