"Displacements:0","Displacements:1","Stress/Strain:0","Stress/Strain:1","Stress/Strain:2","Stress/Strain:3","Stress/Strain:4","Stress/Strain:5","Stress/Strain:6","Stress/Strain:7","Stress/Strain:8","Stress/Strain:9","Stress/Strain:10","Stress/Strain:11","Stress/Strain:12","Principal Stress:0","Principal Stress:1","Principal Stress:2","Principal Stress:3","Principal Stress:4","Principal Stress:5","Principal Stress:6","nodes:0","nodes:1","nodes:2"
0,0,0.070764,0.030327,0.030327,0.020053,0,0,0.10514,-3.4694e-18,0,0.10428,0,0,0,0.079022,0.022069,0.030327,22.383,0.043806,0.053306,7.154e-06,0,0,0
0.0010513,0.0010428,0.050774,0.0037415,0.016355,0.0079744,0,0,0.089491,-0.032794,0,0.041467,0,0,0,0.052089,0.0024262,0.016355,9.3659,0.023623,0.04437,3.041e-06,0.01,0,0
0.0017898,0.0017004,0.037412,0.0015931,0.011702,0.0026755,0,0,0.066847,-0.026282,0,0.013912,0,0,0,0.037611,0.0013944,0.011702,4.2483,0.016902,0.03232,1.158e-06,0.02,0,0
0.0023883,0.0022707,0.031029,-6.198e-05,0.00929,0.0016412,0,0,0.05652,-0.024315,0,0.0085341,0,0,0,0.031115,-0.00014837,0.00929,3.0133,0.013419,0.027774,6.8732e-07,0.03,0,0
0.0029202,0.0027584,0.027944,-0.00027069,0.0083019,0.001028,0,0,0.051069,-0.022289,0,0.0053455,0,0,0,0.027981,-0.00030809,0.0083019,2.0838,0.011992,0.025117,5.0314e-07,0.04,0,0
0.0034097,0.0031863,0.025949,-0.00036439,0.0076753,0.00071295,0,0,0.047511,-0.020903,0,0.0037073,0,0,0,0.025968,-0.00038369,0.0076753,1.5509,0.011086,0.023388,4.0373e-07,0.05,0,0
0.0038704,0.0035637,0.024601,-0.0003774,0.0072671,0.00050574,0,0,0.045068,-0.019876,0,0.0026298,0,0,0,0.024611,-0.00038764,0.0072671,1.1594,0.010497,0.022185,3.4404e-07,0.06,0,0
0.004311,0.0038976,0.023661,-0.00037027,0.0069874,0.00036039,0,0,0.043353,-0.01913,0,0.001874,0,0,0,0.023667,-0.00037568,0.0069874,0.85896,0.010093,0.021336,3.0598e-07,0.07,0,0
0.0047375,0.0041932,0.023018,-0.00035264,0.0067996,0.00025085,0,0,0.042168,-0.018596,0,0.0013044,0,0,0,0.023021,-0.00035533,0.0067996,0.61489,0.0098217,0.020746,2.8147e-07,0.08,0,0
0.0051544,0.0044543,0.022601,-0.00033012,0.0066814,0.00016487,0,0,0.041392,-0.01823,0,0.00085733,0,0,0,0.022603,-0.00033131,0.0066814,0.41191,0.0096509,0.020355,2.6619e-07,0.09,0,0
0.0055653,0.0046846,0.022365,-0.00030477,0.0066182,9.5469e-05,0,0,0.040943,-0.018,0,0.00049644,0,0,0,0.022366,-0.00030517,0.0066182,0.24128,0.0095596,0.020123,2.5765e-07,0.1,0,0
0.0059732,0.0048873,0.022277,-0.00027767,0.0065998,3.8576e-05,0,0,0.040761,-0.017881,0,0.0002006,0,0,0,0.022277,-0.00027774,0.0065998,0.097995,0.009533,0.020022,2.5428e-07,0.11,0,0
0.0063805,0.0050653,0.02231,-0.00024944,0.0066181,-8.3062e-06,0,0,0.040799,-0.017856,0,-4.3192e-05,0,0,0,0.02231,-0.00024944,0.0066181,-0.021096,0.0095595,0.020029,2.5507e-07,0.12,0,0
0.0067892,0.0052216,0.022443,-0.00022051,0.0066667,-4.6767e-05,0,0,0.041018,-0.017907,0,-0.00024319,0,0,0,0.022443,-0.0002206,0.0066667,-0.11823,0.0096297,0.020124,2.593e-07,0.13,0,0
0.0072009,0.005359,0.022657,-0.00019125,0.0067397,-7.7864e-05,0,0,0.041385,-0.01802,0,-0.00040489,0,0,0,0.022657,-0.00019152,0.0067397,-0.19525,0.0097351,0.020291,2.6641e-07,0.14,0,0
0.0076169,0.0054802,0.022936,-0.00016203,0.006832,-0.00010235,0,0,0.041869,-0.018184,0,-0.00053221,0,0,0,0.022936,-0.00016248,0.006832,-0.25388,0.0098685,0.020516,2.7597e-07,0.15,0,0
0.0080383,0.0055881,0.023263,-0.00013318,0.0069389,-0.00012081,0,0,0.042443,-0.018388,0,-0.0006282,0,0,0,0.023264,-0.00013381,0.0069389,-0.29584,0.010023,0.020784,2.8756e-07,0.16,0,0
0.0084658,0.005685,0.023625,-0.00010507,0.0070561,-0.00013376,0,0,0.04308,-0.018619,0,-0.00069556,0,0,0,0.023626,-0.00010582,0.0070561,-0.32295,0.010192,0.021084,3.0081e-07,0.17,0,0
0.0088999,0.0057737,0.024009,-7.8029e-05,0.0071794,-0.00014171,0,0,0.043758,-0.018869,0,-0.00073689,0,0,0,0.02401,-7.8863e-05,0.0071794,-0.33707,0.01037,0.021404,3.1532e-07,0.18,0,0
0.0093409,0.0058564,0.024403,-5.24e-05,0.0073052,-0.00014517,0,0,0.044455,-0.01913,0,-0.00075487,0,0,0,0.024404,-5.3261e-05,0.0073052,-0.34009,0.010552,0.021733,3.3071e-07,0.19,0,0
0.009789,0.0059353,0.024796,-2.8494e-05,0.0074303,-0.00014466,0,0,0.045151,-0.019393,0,-0.00075223,0,0,0,0.024797,-2.9337e-05,0.0074303,-0.33386,0.010733,0.022064,3.4658e-07,0.2,0,0
0.010244,0.0060127,0.02518,-6.6009e-06,0.0075519,-0.00014072,0,0,0.045832,-0.019652,0,-0.00073175,0,0,0,0.02518,-7.3871e-06,0.0075519,-0.32011,0.010908,0.022387,3.6255e-07,0.21,0,0
0.010706,0.0060902,0.025545,1.3023e-05,0.0076673,-0.00013387,0,0,0.046481,-0.019901,0,-0.0006961,0,0,0,0.025545,1.2322e-05,0.0076673,-0.3004,0.011075,0.022696,3.7824e-07,0.22,0,0
0.011174,0.0061696,0.025885,3.0165e-05,0.0077747,-0.00012458,0,0,0.047088,-0.020136,0,-0.00064784,0,0,0,0.025886,2.9565e-05,0.0077747,-0.27607,0.01123,0.022985,3.9329e-07,0.23,0,0
0.011647,0.0062522,0.026196,4.4661e-05,0.0078723,-0.00011332,0,0,0.047642,-0.020352,0,-0.00058927,0,0,0,0.026197,4.4171e-05,0.0078723,-0.24827,0.011371,0.023249,4.0739e-07,0.24,0,0
0.012126,0.0063393,0.026473,5.641e-05,0.0079588,-0.00010049,0,0,0.048136,-0.020546,0,-0.00052254,0,0,0,0.026473,5.6027e-05,0.0079588,-0.21795,0.011496,0.023485,4.2022e-07,0.25,0,0
0.01261,0.0064318,0.026712,6.5372e-05,0.0080331,-8.6482e-05,0,0,0.048564,-0.020716,0,-0.00044971,0,0,0,0.026712,6.5092e-05,0.0080331,-0.18596,0.011603,0.02369,4.3154e-07,0.26,0,0
0.013098,0.0065304,0.026911,7.1577e-05,0.0080947,-7.1695e-05,0,0,0.048921,-0.02086,0,-0.00037281,0,0,0,0.026911,7.1385e-05,0.0080947,-0.15305,0.011692,0.023862,4.4115e-07,0.27,0,0
0.013588,0.0066357,0.027069,7.5113e-05,0.0081431,-5.6536e-05,0,0,0.049206,-0.020977,0,-0.00029399,0,0,0,0.027069,7.4994e-05,0.0081431,-0.12,0.011762,0.023999,4.489e-07,0.28,0,0
0.014082,0.0067478,0.027185,7.6122e-05,0.0081784,-4.1434e-05,0,0,0.049418,-0.021066,0,-0.00021546,0,0,0,0.027185,7.6059e-05,0.0081784,-0.087571,0.011813,0.024102,4.5472e-07,0.29,0,0
0.014577,0.0068669,0.027262,7.4796e-05,0.008201,-2.6824e-05,0,0,0.049558,-0.021128,0,-0.00013948,0,0,0,0.027262,7.4769e-05,0.008201,-0.05653,0.011846,0.024171,4.586e-07,0.3,0,0
0.015073,0.0069927,0.0273,7.136e-05,0.0082115,-1.3128e-05,0,0,0.049631,-0.021164,0,-6.8267e-05,0,0,0,0.0273,7.1354e-05,0.0082115,-0.027625,0.011861,0.024208,4.6061e-07,0.31,0,0
0.01557,0.0071249,0.027304,6.6075e-05,0.008211,-7.2817e-07,0,0,0.049642,-0.021177,0,-3.7865e-06,0,0,0,0.027304,6.6075e-05,0.008211,-0.0015317,0.01186,0.024216,4.6089e-07,0.32,0,0
0.016066,0.007263,0.027277,5.9229e-05,0.0082008,1.0062e-05,0,0,0.049598,-0.021168,0,5.2323e-05,0,0,0,0.027277,5.9225e-05,0.0082008,0.021182,0.011846,0.024197,4.5964e-07,0.33,0,0
0.016561,0.0074062,0.027224,5.1124e-05,0.0081825,1.9013e-05,0,0,0.049508,-0.021142,0,9.8866e-05,0,0,0,0.027224,5.1111e-05,0.0081825,0.04009,0.011819,0.024156,4.5711e-07,0.34,0,0
0.017056,0.0075539,0.02715,4.2077e-05,0.0081576,2.5988e-05,0,0,0.04938,-0.021101,0,0.00013514,0,0,0,0.02715,4.2052e-05,0.0081576,0.054928,0.011783,0.024098,4.5356e-07,0.35,0,0
0.017549,0.0077051,0.027061,3.2398e-05,0.008128,3.0946e-05,0,0,0.049226,-0.021049,0,0.00016092,0,0,0,0.027061,3.2363e-05,0.008128,0.065599,0.01174,0.024027,4.4929e-07,0.36,0,0
0.018041,0.007859,0.026962,2.2389e-05,0.0080954,3.3931e-05,0,0,0.049054,-0.02099,0,0.00017644,0,0,0,0.026962,2.2347e-05,0.0080954,0.072164,0.011693,0.023947,4.4456e-07,0.37,0,0
0.01853,0.0080146,0.026859,1.2327e-05,0.0080613,3.506e-05,0,0,0.048873,-0.020927,0,0.00018231,0,0,0,0.026859,1.2281e-05,0.0080613,0.074826,0.011644,0.023863,4.3963e-07,0.38,0,0
0.019018,0.0081712,0.026755,2.4571e-06,0.0080273,3.451e-05,0,0,0.048692,-0.020865,0,0.00017945,0,0,0,0.026755,2.4125e-06,0.0080273,0.07391,0.011595,0.023779,4.3474e-07,0.39,0,0
0.019504,0.0083277,0.026656,-7.0098e-06,0.0079946,3.2498e-05,0,0,0.048519,-0.020804,0,0.00016899,0,0,0,0.026656,-7.0494e-06,0.0079946,0.069834,0.011548,0.023698,4.3008e-07,0.4,0,0
0.019988,0.0084834,0.026564,-1.5903e-05,0.0079645,2.9266e-05,0,0,0.048359,-0.020749,0,0.00015218,0,0,0,0.026564,-1.5936e-05,0.0079645,0.063085,0.011504,0.023623,4.2581e-07,0.41,0,0
0.020471,0.0086376,0.026483,-2.4093e-05,0.0079377,2.5068e-05,0,0,0.048218,-0.020701,0,0.00013035,0,0,0,0.026483,-2.4117e-05,0.0079377,0.054185,0.011465,0.023558,4.2206e-07,0.42,0,0
0.020953,0.0087897,0.026415,-3.1489e-05,0.0079149,2.0158e-05,0,0,0.048099,-0.020661,0,0.00010482,0,0,0,0.026415,-3.1504e-05,0.0079149,0.043672,0.011433,0.023503,4.1892e-07,0.43,0,0
0.021433,0.0089389,0.02636,-3.8033e-05,0.0078966,1.4774e-05,0,0,0.048005,-0.02063,0,7.6822e-05,0,0,0,0.02636,-3.8042e-05,0.0078966,0.032065,0.011406,0.02346,4.1645e-07,0.44,0,0
0.021913,0.0090849,0.026321,-4.3704e-05,0.0078831,9.1357e-06,0,0,0.047938,-0.02061,0,4.7506e-05,0,0,0,0.026321,-4.3707e-05,0.0078831,0.019854,0.011387,0.023429,4.1468e-07,0.45,0,0
0.022392,0.0092273,0.026297,-4.8503e-05,0.0078745,3.4368e-06,0,0,0.047898,-0.0206,0,1.7871e-05,0,0,0,0.026297,-4.8504e-05,0.0078745,0.0074743,0.011374,0.023412,4.1363e-07,0.46,0,0
0.022871,0.0093657,0.026288,-5.2458e-05,0.0078706,-2.1608e-06,0,0,0.047885,-0.0206,0,-1.1236e-05,0,0,0,0.026288,-5.2458e-05,0.0078706,-0.0047002,0.011369,0.023407,4.1328e-07,0.47,0,0
0.02335,0.0094998,0.026294,-5.5613e-05,0.0078714,-7.526e-06,0,0,0.047898,-0.02061,0,-3.9135e-05,0,0,0,0.026294,-5.5615e-05,0.0078714,-0.016365,0.01137,0.023415,4.136e-07,0.48,0,0
0.023829,0.0096295,0.026313,-5.8023e-05,0.0078766,-1.2559e-05,0,0,0.047935,-0.02063,0,-6.5307e-05,0,0,0,0.026313,-5.8029e-05,0.0078766,-0.027287,0.011377,0.023434,4.1457e-07,0.49,0,0
0.024308,0.0097547,0.026346,-5.9755e-05,0.0078857,-1.7189e-05,0,0,0.047996,-0.020658,0,-8.9385e-05,0,0,0,0.026346,-5.9766e-05,0.0078857,-0.037298,0.01139,0.023464,4.1612e-07,0.5,0,0
0.024789,0.0098752,0.026389,-6.0879e-05,0.0078986,-2.1372e-05,0,0,0.048076,-0.020695,0,-0.00011113,0,0,0,0.026389,-6.0896e-05,0.0078986,-0.046295,0.011409,0.023504,4.1823e-07,0.51,0,0
0.02527,0.0099911,0.026444,-6.1467e-05,0.0079147,-2.5085e-05,0,0,0.048176,-0.020738,0,-0.00013044,0,0,0,0.026444,-6.1491e-05,0.0079147,-0.054225,0.011432,0.023553,4.2082e-07,0.52,0,0
0.025752,0.010102,0.026507,-6.1592e-05,0.0079337,-2.8323e-05,0,0,0.048291,-0.020788,0,-0.00014728,0,0,0,0.026507,-6.1622e-05,0.0079337,-0.061078,0.01146,0.023609,4.2385e-07,0.53,0,0
0.026236,0.010209,0.026578,-6.132e-05,0.0079551,-3.1096e-05,0,0,0.04842,-0.020843,0,-0.0001617,0,0,0,0.026578,-6.1357e-05,0.0079551,-0.066881,0.011491,0.023672,4.2727e-07,0.54,0,0
0.026721,0.010311,0.026656,-6.0717e-05,0.0079786,-3.3426e-05,0,0,0.048561,-0.020902,0,-0.00017381,0,0,0,0.026656,-6.0759e-05,0.0079786,-0.071684,0.011525,0.023741,4.3102e-07,0.55,0,0
0.027207,0.010409,0.026739,-5.9841e-05,0.0080038,-3.5339e-05,0,0,0.048712,-0.020966,0,-0.00018376,0,0,0,0.026739,-5.9887e-05,0.0080038,-0.075554,0.011561,0.023814,4.3505e-07,0.56,0,0
0.027695,0.010502,0.026827,-5.8743e-05,0.0080305,-3.6868e-05,0,0,0.048871,-0.021032,0,-0.00019171,0,0,0,0.026827,-5.8794e-05,0.0080305,-0.078568,0.0116,0.023891,4.3932e-07,0.57,0,0
0.028184,0.010591,0.026918,-5.7472e-05,0.0080582,-3.8046e-05,0,0,0.049036,-0.021101,0,-0.00019784,0,0,0,0.026918,-5.7525e-05,0.0080582,-0.08081,0.01164,0.023971,4.4379e-07,0.58,0,0
0.028675,0.010676,0.027012,-5.6066e-05,0.0080867,-3.891e-05,0,0,0.049205,-0.021171,0,-0.00020233,0,0,0,0.027012,-5.6122e-05,0.0080867,-0.082362,0.011681,0.024053,4.4841e-07,0.59,0,0
0.029168,0.010757,0.027107,-5.4562e-05,0.0081158,-3.9492e-05,0,0,0.049378,-0.021243,0,-0.00020536,0,0,0,0.027107,-5.4619e-05,0.0081158,-0.083304,0.011723,0.024137,4.5316e-07,0.6,0,0
0.029663,0.010835,0.027204,-5.2988e-05,0.0081453,-3.9824e-05,0,0,0.049553,-0.021316,0,-0.00020709,0,0,0,0.027204,-5.3046e-05,0.0081453,-0.083712,0.011765,0.024222,4.5799e-07,0.61,0,0
0.030159,0.010908,0.027301,-5.137e-05,0.008175,-3.9937e-05,0,0,0.049729,-0.021389,0,-0.00020767,0,0,0,0.027301,-5.1428e-05,0.008175,-0.083656,0.011808,0.024307,4.6289e-07,0.62,0,0
0.030658,0.010978,0.027399,-4.9728e-05,0.0082047,-3.9858e-05,0,0,0.049904,-0.021462,0,-0.00020726,0,0,0,0.027399,-4.9785e-05,0.0082047,-0.083199,0.011851,0.024392,4.6783e-07,0.63,0,0
0.031158,0.011045,0.027496,-4.8078e-05,0.0082343,-3.9611e-05,0,0,0.05008,-0.021534,0,-0.00020598,0,0,0,0.027496,-4.8135e-05,0.0082343,-0.082397,0.011894,0.024477,4.7278e-07,0.64,0,0
0.031659,0.011108,0.027592,-4.6436e-05,0.0082636,-3.9218e-05,0,0,0.050253,-0.021606,0,-0.00020393,0,0,0,0.027592,-4.6492e-05,0.0082636,-0.081301,0.011936,0.024561,4.7772e-07,0.65,0,0
0.032163,0.011168,0.027687,-4.4812e-05,0.0082926,-3.8699e-05,0,0,0.050425,-0.021677,0,-0.00020123,0,0,0,0.027687,-4.4867e-05,0.0082926,-0.079954,0.011978,0.024644,4.8264e-07,0.66,0,0
0.032668,0.011225,0.02778,-4.3216e-05,0.0083212,-3.8069e-05,0,0,0.050594,-0.021747,0,-0.00019796,0,0,0,0.02778,-4.3268e-05,0.0083212,-0.078394,0.012019,0.024726,4.8752e-07,0.67,0,0
0.033175,0.011279,0.027872,-4.1653e-05,0.0083492,-3.7346e-05,0,0,0.05076,-0.021816,0,-0.0001942,0,0,0,0.027872,-4.1703e-05,0.0083492,-0.076655,0.01206,0.024807,4.9234e-07,0.68,0,0
0.033683,0.011331,0.027962,-4.0131e-05,0.0083766,-3.654e-05,0,0,0.050923,-0.021884,0,-0.00019001,0,0,0,0.027962,-4.0179e-05,0.0083766,-0.074764,0.0121,0.024886,4.9709e-07,0.69,0,0
0.034193,0.011379,0.02805,-3.8653e-05,0.0084035,-3.5664e-05,0,0,0.051082,-0.02195,0,-0.00018545,0,0,0,0.02805,-3.8698e-05,0.0084035,-0.072746,0.012138,0.024962,5.0176e-07,0.7,0,0
0.034705,0.011425,0.028136,-3.7222e-05,0.0084296,-3.4726e-05,0,0,0.051236,-0.022014,0,-0.00018058,0,0,0,0.028136,-3.7265e-05,0.0084296,-0.070623,0.012176,0.025038,5.0635e-07,0.71,0,0
0.035218,0.011469,0.028219,-3.5841e-05,0.008455,-3.3737e-05,0,0,0.051387,-0.022076,0,-0.00017543,0,0,0,0.028219,-3.5881e-05,0.008455,-0.068412,0.012213,0.025111,5.1083e-07,0.72,0,0
0.035732,0.01151,0.0283,-3.4512e-05,0.0084796,-3.2703e-05,0,0,0.051533,-0.022137,0,-0.00017006,0,0,0,0.0283,-3.455e-05,0.0084796,-0.066129,0.012248,0.025181,5.152e-07,0.73,0,0
0.036248,0.011549,0.028378,-3.3236e-05,0.0085035,-3.1631e-05,0,0,0.051674,-0.022195,0,-0.00016448,0,0,0,0.028378,-3.3271e-05,0.0085035,-0.063787,0.012283,0.02525,5.1946e-07,0.74,0,0
0.036766,0.011586,0.028454,-3.2013e-05,0.0085265,-3.0526e-05,0,0,0.051811,-0.022252,0,-0.00015873,0,0,0,0.028454,-3.2046e-05,0.0085265,-0.061399,0.012316,0.025316,5.2359e-07,0.75,0,0
0.037285,0.01162,0.028527,-3.0845e-05,0.0085487,-2.9393e-05,0,0,0.051942,-0.022307,0,-0.00015285,0,0,0,0.028527,-3.0875e-05,0.0085487,-0.058973,0.012348,0.02538,5.276e-07,0.76,0,0
0.037805,0.011653,0.028597,-2.9731e-05,0.00857,-2.8238e-05,0,0,0.052069,-0.022359,0,-0.00014684,0,0,0,0.028597,-2.9758e-05,0.00857,-0.056518,0.012379,0.025441,5.3146e-07,0.77,0,0
0.038326,0.011683,0.028664,-2.8671e-05,0.0085905,-2.7063e-05,0,0,0.05219,-0.02241,0,-0.00014073,0,0,0,0.028664,-2.8696e-05,0.0085905,-0.054043,0.012408,0.0255,5.3519e-07,0.78,0,0
0.038848,0.011712,0.028728,-2.7664e-05,0.0086101,-2.5873e-05,0,0,0.052306,-0.022458,0,-0.00013454,0,0,0,0.028728,-2.7688e-05,0.0086101,-0.051551,0.012437,0.025556,5.3878e-07,0.79,0,0
0.039372,0.011739,0.028789,-2.6712e-05,0.0086288,-2.4669e-05,0,0,0.052417,-0.022504,0,-0.00012828,0,0,0,0.028789,-2.6733e-05,0.0086288,-0.04905,0.012464,0.02561,5.4222e-07,0.8,0,0
0.039897,0.011765,0.028848,-2.5812e-05,0.0086465,-2.3455e-05,0,0,0.052523,-0.022548,0,-0.00012197,0,0,0,0.028848,-2.5831e-05,0.0086465,-0.046544,0.01249,0.025661,5.455e-07,0.81,0,0
0.040423,0.011788,0.028903,-2.4964e-05,0.0086634,-2.2233e-05,0,0,0.052623,-0.02259,0,-0.00011561,0,0,0,0.028903,-2.4981e-05,0.0086634,-0.044035,0.012514,0.02571,5.4863e-07,0.82,0,0
0.040949,0.01181,0.028955,-2.4168e-05,0.0086794,-2.1005e-05,0,0,0.052718,-0.022629,0,-0.00010922,0,0,0,0.028955,-2.4183e-05,0.0086794,-0.041528,0.012537,0.025756,5.5161e-07,0.83,0,0
0.041477,0.011831,0.029005,-2.3423e-05,0.0086944,-1.9771e-05,0,0,0.052807,-0.022666,0,-0.00010281,0,0,0,0.029005,-2.3436e-05,0.0086944,-0.039025,0.012559,0.025799,5.5442e-07,0.84,0,0
0.042005,0.01185,0.029051,-2.2727e-05,0.0087086,-1.8535e-05,0,0,0.052891,-0.022701,0,-9.6383e-05,0,0,0,0.029051,-2.2739e-05,0.0087086,-0.036527,0.012579,0.02584,5.5707e-07,0.85,0,0
0.042535,0.011867,0.029095,-2.2081e-05,0.0087218,-1.7297e-05,0,0,0.05297,-0.022734,0,-8.9942e-05,0,0,0,0.029095,-2.2091e-05,0.0087218,-0.034036,0.012598,0.025878,5.5956e-07,0.86,0,0
0.043065,0.011883,0.029135,-2.1483e-05,0.0087341,-1.6057e-05,0,0,0.053043,-0.022765,0,-8.3496e-05,0,0,0,0.029135,-2.1492e-05,0.0087341,-0.031553,0.012616,0.025913,5.6188e-07,0.87,0,0
0.043596,0.011898,0.029173,-2.0933e-05,0.0087455,-1.4817e-05,0,0,0.05311,-0.022793,0,-7.7047e-05,0,0,0,0.029173,-2.0941e-05,0.0087455,-0.02908,0.012632,0.025946,5.6403e-07,0.88,0,0
0.044127,0.011912,0.029207,-2.043e-05,0.0087559,-1.3577e-05,0,0,0.053172,-0.022819,0,-7.0599e-05,0,0,0,0.029207,-2.0436e-05,0.0087559,-0.026615,0.012648,0.025976,5.6602e-07,0.89,0,0
0.044659,0.011924,0.029238,-1.9973e-05,0.0087655,-1.2337e-05,0,0,0.053229,-0.022842,0,-6.4154e-05,0,0,0,0.029238,-1.9979e-05,0.0087655,-0.02416,0.012661,0.026003,5.6783e-07,0.9,0,0
0.045192,0.011935,0.029267,-1.9562e-05,0.0087741,-1.1099e-05,0,0,0.053281,-0.022864,0,-5.7714e-05,0,0,0,0.029267,-1.9566e-05,0.0087741,-0.021714,0.012674,0.026028,5.6948e-07,0.91,0,0
0.045725,0.011944,0.029292,-1.9196e-05,0.0087818,-9.8613e-06,0,0,0.053326,-0.022883,0,-5.1279e-05,0,0,0,0.029292,-1.9199e-05,0.0087818,-0.019276,0.012685,0.026051,5.7095e-07,0.92,0,0
0.046258,0.011953,0.029314,-1.8874e-05,0.0087887,-8.6251e-06,0,0,0.053367,-0.0229,0,-4.4851e-05,0,0,0,0.029314,-1.8877e-05,0.0087887,-0.016847,0.012695,0.02607,5.7226e-07,0.93,0,0
0.046792,0.01196,0.029334,-1.8597e-05,0.0087945,-7.3902e-06,0,0,0.053402,-0.022914,0,-3.8429e-05,0,0,0,0.029334,-1.8598e-05,0.0087945,-0.014426,0.012703,0.026087,5.7338e-07,0.94,0,0
0.047326,0.011966,0.02935,-1.8362e-05,0.0087995,-6.1564e-06,0,0,0.053432,-0.022926,0,-3.2013e-05,0,0,0,0.02935,-1.8364e-05,0.0087995,-0.012011,0.01271,0.026102,5.7434e-07,0.95,0,0
0.047861,0.011971,0.029364,-1.8171e-05,0.0088036,-4.9237e-06,0,0,0.053456,-0.022937,0,-2.5603e-05,0,0,0,0.029364,-1.8172e-05,0.0088036,-0.0096014,0.012716,0.026113,5.7512e-07,0.96,0,0
0.048395,0.011975,0.029374,-1.8023e-05,0.0088068,-3.6919e-06,0,0,0.053475,-0.022944,0,-1.9198e-05,0,0,0,0.029374,-1.8023e-05,0.0088068,-0.0071969,0.012721,0.026123,5.7573e-07,0.97,0,0
0.04893,0.011978,0.029381,-1.7917e-05,0.0088091,-2.4609e-06,0,0,0.053488,-0.02295,0,-1.2797e-05,0,0,0,0.029381,-1.7917e-05,0.0088091,-0.0047959,0.012724,0.026129,5.7617e-07,0.98,0,0
0.049465,0.01198,0.029386,-1.7854e-05,0.0088104,-1.2303e-06,0,0,0.053496,-0.022954,0,-6.3976e-06,0,0,0,0.029386,-1.7854e-05,0.0088104,-0.0023973,0.012726,0.026133,5.7643e-07,0.99,0,0
0.05,0.01198,0.029387,-1.7832e-05,0.0088109,1.0636e-05,0,0,0.053499,-0.022955,0,5.5305e-05,0,0,0,0.029387,-1.7836e-05,0.0088109,0.020723,0.012727,0.026134,5.7652e-07,1,0,0
0,0,0.04145,0.017764,0.017764,0.013747,0,0,0.061583,2.6021e-18,0,0.071482,0,0,0,0.047752,0.011463,0.017764,24.627,0.02566,0.033585,1.717e-06,0,0.01,0
0.00061584,0.00071482,0.037712,0.0037023,0.012424,0.0086784,0,0,0.065749,-0.022677,0,0.045128,0,0,0,0.039799,0.0016158,0.012424,13.519,0.017946,0.034089,1.3663e-06,0.01,0.01,0
0.001315,0.0014375,0.037775,0.0029649,0.012222,0.0057641,0,0,0.066438,-0.024068,0,0.029974,0,0,0,0.038705,0.0020352,0.012222,9.1618,0.017654,0.032785,1.2383e-06,0.02,0.01,0
0.0019446,0.0020275,0.033678,0.0016001,0.010583,0.0035376,0,0,0.060046,-0.023357,0,0.018396,0,0,0,0.034063,0.0012146,0.010583,6.2191,0.015287,0.02931,8.6176e-07,0.03,0.01,0
0.0025159,0.0025356,0.030619,0.00096261,0.0094745,0.0023978,0,0,0.054976,-0.022131,0,0.012469,0,0,0,0.030812,0.00076999,0.0094745,4.5927,0.013685,0.026773,6.4582e-07,0.04,0.01,0
0.0030441,0.0029772,0.028432,0.00062627,0.0087175,0.0016877,0,0,0.051258,-0.021037,0,0.0087762,0,0,0,0.028534,0.0005242,0.0087175,3.4608,0.012592,0.024944,5.1682e-07,0.05,0.01,0
0.003541,0.0033649,0.026862,0.0004402,0.0081907,0.001217,0,0,0.048545,-0.020151,0,0.0063286,0,0,0,0.026918,0.00038426,0.0081907,2.6317,0.011831,0.023619,4.3589e-07,0.06,0.01,0
0.004015,0.0037063,0.025722,0.00032797,0.0078149,0.00087875,0,0,0.046558,-0.019466,0,0.0045695,0,0,0,0.025752,0.0002976,0.0078149,1.9795,0.011288,0.022652,3.8284e-07,0.07,0.01,0
0.0044722,0.0040072,0.024895,0.00025513,0.0075451,0.00062262,0,0,0.04511,-0.018954,0,0.0032376,0,0,0,0.024911,0.0002394,0.0075451,1.4466,0.010899,0.02195,3.4728e-07,0.08,0.01,0
0.0049172,0.004272,0.024308,0.00020451,0.0073537,0.00042099,0,0,0.044081,-0.018588,0,0.0021891,0,0,0,0.024315,0.00019715,0.0073537,1.0003,0.010622,0.021454,3.2349e-07,0.09,0.01,0
0.0053538,0.0045046,0.023909,0.00016707,0.0072227,0.00025814,0,0,0.043383,-0.018345,0,0.0013423,0,0,0,0.023911,0.00016427,0.0072227,0.62287,0.010433,0.021122,3.0806e-07,0.1,0.01,0
0.0057849,0.0047085,0.023661,0.00013777,0.0071398,0.00012462,0,0,0.042956,-0.018205,0,0.00064803,0,0,0,0.023662,0.00013711,0.0071398,0.30352,0.010313,0.020922,2.9887e-07,0.11,0.01,0
0.0062129,0.0048867,0.023539,0.00011365,0.0070956,1.4549e-05,0,0,0.042751,-0.018153,0,7.5655e-05,0,0,0,0.023539,0.00011364,0.0070956,0.035586,0.010249,0.020831,2.9452e-07,0.12,0.01,0
0.0066399,0.0050425,0.023517,9.2953e-05,0.0070831,-7.5877e-05,0,0,0.042729,-0.018174,0,-0.00039456,0,0,0,0.023518,9.2708e-05,0.0070831,-0.18559,0.010231,0.020829,2.9402e-07,0.13,0.01,0
0.0070675,0.0051788,0.023579,7.463e-05,0.0070962,-0.00014921,0,0,0.042856,-0.018256,0,-0.00077592,0,0,0,0.02358,7.3682e-05,0.0070962,-0.36371,0.01025,0.0209,2.9665e-07,0.14,0.01,0
0.0074971,0.0052984,0.023709,5.8084e-05,0.00713,-0.0002073,0,0,0.043104,-0.018387,0,-0.0010779,0,0,0,0.02371,5.6267e-05,0.00713,-0.50214,0.010299,0.021029,3.0183e-07,0.15,0.01,0
0.0079296,0.0054042,0.02389,4.3012e-05,0.00718,-0.00025155,0,0,0.043447,-0.018556,0,-0.0013081,0,0,0,0.023893,4.0359e-05,0.00718,-0.60429,0.010371,0.021204,3.0908e-07,0.16,0.01,0
0.008366,0.0054988,0.024112,2.9297e-05,0.0072425,-0.00028323,0,0,0.043861,-0.018754,0,-0.0014728,0,0,0,0.024116,2.5967e-05,0.0072425,-0.6737,0.010461,0.021414,3.1801e-07,0.17,0.01,0
0.0088068,0.005585,0.024362,1.6927e-05,0.0073138,-0.00030351,0,0,0.044326,-0.018972,0,-0.0015782,0,0,0,0.024366,1.3144e-05,0.0073138,-0.71414,0.010564,0.021647,3.2821e-07,0.18,0.01,0
0.0092525,0.0056651,0.02463,5.9293e-06,0.0073909,-0.00031357,0,0,0.044823,-0.019201,0,-0.0016306,0,0,0,0.024634,1.9368e-06,0.0073909,-0.72946,0.010676,0.021894,3.3934e-07,0.19,0.01,0
0.0097033,0.0057414,0.024907,-3.6759e-06,0.007471,-0.00031464,0,0,0.045334,-0.019434,0,-0.0016361,0,0,0,0.024911,-7.6493e-06,0.007471,-0.72353,0.010792,0.022148,3.5105e-07,0.2,0.01,0
0.010159,0.0058161,0.025185,-1.191e-05,0.0075518,-0.00030791,0,0,0.045845,-0.019666,0,-0.0016011,0,0,0,0.025188,-1.5672e-05,0.0075518,-0.70002,0.010908,0.022401,3.6303e-07,0.21,0.01,0
0.01062,0.0058912,0.025456,-1.8845e-05,0.0076312,-0.00029454,0,0,0.046345,-0.01989,0,-0.0015316,0,0,0,0.025459,-2.225e-05,0.0076312,-0.66234,0.011023,0.022647,3.7498e-07,0.22,0.01,0
0.011086,0.0059682,0.025715,-2.4585e-05,0.0077072,-0.00027563,0,0,0.046821,-0.020103,0,-0.0014333,0,0,0,0.025718,-2.7536e-05,0.0077072,-0.61345,0.011133,0.022881,3.8661e-07,0.23,0.01,0
0.011557,0.0060487,0.025957,-2.9238e-05,0.0077785,-0.00025217,0,0,0.047265,-0.0203,0,-0.0013113,0,0,0,0.02596,-3.1685e-05,0.0077785,-0.55592,0.011236,0.023099,3.9767e-07,0.24,0.01,0
0.012031,0.0061338,0.026179,-3.2883e-05,0.0078437,-0.00022509,0,0,0.047671,-0.020479,0,-0.0011704,0,0,0,0.02618,-3.4816e-05,0.0078437,-0.49197,0.01133,0.023297,4.0794e-07,0.25,0.01,0
0.01251,0.0062246,0.026375,-3.5545e-05,0.007902,-0.00019524,0,0,0.048031,-0.020637,0,-0.0010153,0,0,0,0.026377,-3.6988e-05,0.007902,-0.42352,0.011414,0.023474,4.1723e-07,0.26,0.01,0
0.012992,0.0063218,0.026546,-3.7197e-05,0.0079526,-0.00016351,0,0,0.048342,-0.020773,0,-0.00085027,0,0,0,0.026547,-3.8203e-05,0.0079526,-0.35241,0.011487,0.023626,4.2536e-07,0.27,0.01,0
0.013477,0.0064259,0.026688,-3.7786e-05,0.0079951,-0.00013081,0,0,0.048602,-0.020886,0,-0.0006802,0,0,0,0.026689,-3.8426e-05,0.0079951,-0.28042,0.011548,0.023752,4.3222e-07,0.28,0.01,0
0.013964,0.0065372,0.026802,-3.7267e-05,0.0080293,-9.8071e-05,0,0,0.048808,-0.020973,0,-0.00050997,0,0,0,0.026802,-3.7625e-05,0.0080293,-0.20936,0.011598,0.023852,4.3773e-07,0.29,0.01,0
0.014453,0.0066556,0.026887,-3.564e-05,0.0080553,-6.627e-05,0,0,0.048962,-0.021036,0,-0.00034461,0,0,0,0.026887,-3.5803e-05,0.0080553,-0.14103,0.011636,0.023926,4.4186e-07,0.3,0.01,0
0.014943,0.0067811,0.026944,-3.2971e-05,0.0080734,-3.634e-05,0,0,0.049064,-0.021077,0,-0.00018897,0,0,0,0.026944,-3.302e-05,0.0080734,-0.077181,0.011662,0.023975,4.4465e-07,0.31,0.01,0
0.015434,0.0069131,0.026976,-2.9397e-05,0.0080841,-9.1287e-06,0,0,0.04912,-0.021095,0,-4.7469e-05,0,0,0,0.026976,-2.94e-05,0.0080841,-0.019367,0.011677,0.024001,4.4618e-07,0.32,0.01,0
0.015926,0.0070513,0.026985,-2.5111e-05,0.0080881,1.466e-05,0,0,0.049133,-0.021094,0,7.6234e-05,0,0,0,0.026985,-2.5119e-05,0.0080881,0.031098,0.011683,0.024005,4.4655e-07,0.33,0.01,0
0.016417,0.0071948,0.026975,-2.0343e-05,0.0080863,3.4507e-05,0,0,0.04911,-0.021077,0,0.00017943,0,0,0,0.026975,-2.0388e-05,0.0080863,0.073239,0.01168,0.023992,4.4593e-07,0.34,0.01,0
0.016908,0.0073429,0.026947,-1.5334e-05,0.0080797,5.0093e-05,0,0,0.049056,-0.021047,0,0.00026048,0,0,0,0.026948,-1.5427e-05,0.0080797,0.10645,0.011671,0.023964,4.445e-07,0.35,0.01,0
0.017398,0.0074946,0.026908,-1.0312e-05,0.0080692,6.1307e-05,0,0,0.04898,-0.021007,0,0.0003188,0,0,0,0.026908,-1.0451e-05,0.0080692,0.13049,0.011656,0.023925,4.4245e-07,0.36,0.01,0
0.017888,0.0076491,0.026859,-5.4806e-06,0.0080561,6.8226e-05,0,0,0.048888,-0.02096,0,0.00035478,0,0,0,0.026859,-5.6539e-06,0.0080561,0.14551,0.011637,0.023878,4.3998e-07,0.37,0.01,0
0.018376,0.0078054,0.026806,-1.0081e-06,0.0080414,7.1087e-05,0,0,0.048787,-0.02091,0,0.00036965,0,0,0,0.026806,-1.1966e-06,0.0080414,0.15194,0.011615,0.023826,4.3727e-07,0.38,0.01,0
0.018863,0.0079625,0.02675,2.9782e-06,0.008026,7.0256e-05,0,0,0.048683,-0.02086,0,0.00036533,0,0,0,0.02675,2.7937e-06,0.008026,0.15049,0.011593,0.023774,4.3451e-07,0.39,0.01,0
0.019349,0.0081197,0.026697,6.3912e-06,0.0080109,6.6195e-05,0,0,0.048583,-0.020812,0,0.00034422,0,0,0,0.026697,6.227e-06,0.0080109,0.1421,0.011571,0.023724,4.3183e-07,0.4,0.01,0
0.019835,0.0082759,0.026647,9.1819e-06,0.0079969,5.9425e-05,0,0,0.04849,-0.020768,0,0.00030901,0,0,0,0.026647,9.0493e-06,0.0079969,0.12782,0.011551,0.023677,4.2938e-07,0.41,0.01,0
0.020319,0.0084306,0.026604,1.1336e-05,0.0079846,5.0494e-05,0,0,0.048411,-0.02073,0,0.00026257,0,0,0,0.026604,1.124e-05,0.0079846,0.10879,0.011533,0.023637,4.2727e-07,0.42,0.01,0
0.020803,0.0085831,0.026569,1.2869e-05,0.0079746,3.995e-05,0,0,0.048346,-0.020701,0,0.00020774,0,0,0,0.026569,1.2808e-05,0.0079746,0.086191,0.011519,0.023605,4.2556e-07,0.43,0.01,0
0.021286,0.0087326,0.026544,1.382e-05,0.0079674,2.8317e-05,0,0,0.0483,-0.020679,0,0.00014725,0,0,0,0.026544,1.3789e-05,0.0079674,0.061154,0.011508,0.023582,4.2434e-07,0.44,0.01,0
0.021769,0.0088789,0.026529,1.4248e-05,0.0079631,1.6078e-05,0,0,0.048272,-0.020667,0,8.3606e-05,0,0,0,0.026529,1.4238e-05,0.0079631,0.034743,0.011502,0.023568,4.2362e-07,0.45,0.01,0
0.022252,0.0090213,0.026526,1.4223e-05,0.0079619,3.6587e-06,0,0,0.048265,-0.020664,0,1.9025e-05,0,0,0,0.026526,1.4223e-05,0.0079619,0.0079072,0.011501,0.023565,4.2344e-07,0.46,0.01,0
0.022734,0.0091597,0.026533,1.3824e-05,0.0079639,-8.5799e-06,0,0,0.048279,-0.02067,0,-4.4615e-05,0,0,0,0.026533,1.3821e-05,0.0079639,-0.018537,0.011503,0.023572,4.2379e-07,0.47,0.01,0
0.023217,0.0092937,0.026551,1.313e-05,0.0079691,-2.0345e-05,0,0,0.048312,-0.020686,0,-0.00010579,0,0,0,0.026551,1.3114e-05,0.0079691,-0.043926,0.011511,0.023588,4.2466e-07,0.48,0.01,0
0.023701,0.0094232,0.026579,1.2216e-05,0.0079773,-3.1411e-05,0,0,0.048364,-0.020709,0,-0.00016334,0,0,0,0.026579,1.2179e-05,0.0079773,-0.067743,0.011523,0.023614,4.2603e-07,0.49,0.01,0
0.024185,0.0095481,0.026617,1.1153e-05,0.0079884,-4.1617e-05,0,0,0.048434,-0.020741,0,-0.00021641,0,0,0,0.026617,1.1088e-05,0.0079884,-0.089622,0.011539,0.023649,4.2788e-07,0.5,0.01,0
0.024669,0.0096683,0.026663,1.0001e-05,0.0080021,-5.0857e-05,0,0,0.04852,-0.020779,0,-0.00026446,0,0,0,0.026664,9.9039e-06,0.0080021,-0.10933,0.011558,0.023691,4.3016e-07,0.51,0.01,0
0.025155,0.0097837,0.026718,8.8121e-06,0.0080182,-5.9077e-05,0,0,0.048621,-0.020824,0,-0.0003072,0,0,0,0.026718,8.6814e-06,0.0080182,-0.12673,0.011582,0.023741,4.3285e-07,0.52,0.01,0
0.025642,0.0098945,0.02678,7.6274e-06,0.0080364,-6.6262e-05,0,0,0.048734,-0.020875,0,-0.00034456,0,0,0,0.02678,7.4634e-06,0.0080364,-0.14181,0.011608,0.023797,4.3589e-07,0.53,0.01,0
0.02613,0.010001,0.026849,6.4785e-06,0.0080565,-7.2429e-05,0,0,0.048859,-0.02093,0,-0.00037663,0,0,0,0.026849,6.2831e-06,0.0080565,-0.1546,0.011637,0.023859,4.3924e-07,0.54,0.01,0
0.026619,0.010102,0.026922,5.3882e-06,0.0080782,-7.7618e-05,0,0,0.048994,-0.020989,0,-0.00040361,0,0,0,0.026922,5.1643e-06,0.0080782,-0.16522,0.011669,0.023925,4.4288e-07,0.55,0.01,0
0.02711,0.010199,0.027,4.3714e-06,0.0081013,-8.1887e-05,0,0,0.049136,-0.021052,0,-0.00042581,0,0,0,0.027,4.1231e-06,0.0081013,-0.1738,0.011702,0.023995,4.4676e-07,0.56,0.01,0
0.027602,0.010292,0.027081,3.4371e-06,0.0081254,-8.5303e-05,0,0,0.049285,-0.021117,0,-0.00044357,0,0,0,0.027082,3.1684e-06,0.0081254,-0.18049,0.011737,0.024068,4.5083e-07,0.57,0.01,0
0.028095,0.01038,0.027166,2.5888e-06,0.0081505,-8.794e-05,0,0,0.04944,-0.021185,0,-0.00045729,0,0,0,0.027166,2.3041e-06,0.0081505,-0.18549,0.011773,0.024144,4.5508e-07,0.58,0.01,0
0.02859,0.010465,0.027252,1.8263e-06,0.0081762,-8.9874e-05,0,0,0.049598,-0.021254,0,-0.00046734,0,0,0,0.027253,1.5299e-06,0.0081762,-0.18896,0.01181,0.024221,4.5946e-07,0.59,0.01,0
0.029087,0.010545,0.02734,1.1466e-06,0.0082025,-9.1177e-05,0,0,0.049759,-0.021323,0,-0.00047412,0,0,0,0.027341,8.4257e-07,0.0082025,-0.19108,0.011848,0.0243,4.6394e-07,0.6,0.01,0
0.029586,0.010622,0.027429,5.4493e-07,0.008229,-9.192e-05,0,0,0.049921,-0.021394,0,-0.00047798,0,0,0,0.02743,2.3689e-07,0.008229,-0.19201,0.011886,0.02438,4.6851e-07,0.61,0.01,0
0.030086,0.010694,0.027519,1.5172e-08,0.0082557,-9.2168e-05,0,0,0.050085,-0.021465,0,-0.00047927,0,0,0,0.027519,-2.9352e-07,0.0082557,-0.19189,0.011925,0.02446,4.7312e-07,0.62,0.01,0
0.030587,0.010764,0.027609,-4.4918e-07,0.0082825,-9.1981e-05,0,0,0.050248,-0.021536,0,-0.0004783,0,0,0,0.027609,-7.5562e-07,0.0082825,-0.19088,0.011964,0.02454,4.7777e-07,0.63,0.01,0
0.031091,0.010829,0.027698,-8.548e-07,0.0083092,-9.1413e-05,0,0,0.050411,-0.021606,0,-0.00047535,0,0,0,0.027698,-1.1565e-06,0.0083092,-0.18909,0.012002,0.02462,4.8243e-07,0.64,0.01,0
0.031595,0.010892,0.027787,-1.2082e-06,0.0083357,-9.0514e-05,0,0,0.050573,-0.021676,0,-0.00047067,0,0,0,0.027787,-1.503e-06,0.0083357,-0.18663,0.01204,0.024699,4.8708e-07,0.65,0.01,0
0.032102,0.010951,0.027874,-1.5153e-06,0.0083619,-8.9326e-05,0,0,0.050733,-0.021745,0,-0.00046449,0,0,0,0.027875,-1.8016e-06,0.0083619,-0.1836,0.012078,0.024777,4.9171e-07,0.66,0.01,0
0.03261,0.011008,0.027961,-1.7819e-06,0.0083877,-8.7886e-05,0,0,0.05089,-0.021813,0,-0.00045701,0,0,0,0.027961,-2.0582e-06,0.0083877,-0.18008,0.012116,0.024854,4.963e-07,0.67,0.01,0
0.03312,0.011061,0.028046,-2.013e-06,0.0084131,-8.6229e-05,0,0,0.051045,-0.021879,0,-0.00044839,0,0,0,0.028046,-2.2781e-06,0.0084131,-0.17615,0.012152,0.02493,5.0084e-07,0.68,0.01,0
0.033631,0.011112,0.028129,-2.2129e-06,0.008438,-8.4383e-05,0,0,0.051196,-0.021945,0,-0.00043879,0,0,0,0.028129,-2.466e-06,0.008438,-0.17186,0.012188,0.025004,5.0531e-07,0.69,0.01,0
0.034144,0.01116,0.02821,-2.3857e-06,0.0084624,-8.2375e-05,0,0,0.051345,-0.022008,0,-0.00042835,0,0,0,0.028211,-2.6262e-06,0.0084624,-0.16729,0.012223,0.025076,5.0971e-07,0.7,0.01,0
0.034658,0.011205,0.02829,-2.5348e-06,0.0084861,-8.0225e-05,0,0,0.051489,-0.022071,0,-0.00041717,0,0,0,0.02829,-2.7623e-06,0.0084861,-0.16246,0.012258,0.025147,5.1403e-07,0.71,0.01,0
0.035174,0.011248,0.028367,-2.6631e-06,0.0085093,-7.7954e-05,0,0,0.05163,-0.022131,0,-0.00040536,0,0,0,0.028367,-2.8773e-06,0.0085093,-0.15744,0.012291,0.025216,5.1826e-07,0.72,0.01,0
0.035691,0.011289,0.028442,-2.7731e-06,0.0085318,-7.5579e-05,0,0,0.051767,-0.02219,0,-0.00039301,0,0,0,0.028442,-2.974e-06,0.0085318,-0.15224,0.012324,0.025282,5.2238e-07,0.73,0.01,0
0.036209,0.011327,0.028515,-2.8673e-06,0.0085535,-7.3114e-05,0,0,0.051899,-0.022247,0,-0.00038019,0,0,0,0.028515,-3.0548e-06,0.0085535,-0.14689,0.012355,0.025347,5.2639e-07,0.74,0.01,0
0.036728,0.011363,0.028585,-2.9475e-06,0.0085746,-7.0573e-05,0,0,0.052027,-0.022302,0,-0.00036698,0,0,0,0.028585,-3.1217e-06,0.0085746,-0.14144,0.012386,0.025409,5.3029e-07,0.75,0.01,0
0.037249,0.011397,0.028653,-3.0153e-06,0.0085949,-6.7967e-05,0,0,0.05215,-0.022354,0,-0.00035343,0,0,0,0.028653,-3.1765e-06,0.0085949,-0.1359,0.012415,0.02547,5.3407e-07,0.76,0.01,0
0.037771,0.011429,0.028718,-3.0724e-06,0.0086144,-6.5307e-05,0,0,0.052269,-0.022405,0,-0.0003396,0,0,0,0.028718,-3.2209e-06,0.0086144,-0.13028,0.012443,0.025528,5.3773e-07,0.77,0.01,0
0.038295,0.011459,0.02878,-3.12e-06,0.0086332,-6.2601e-05,0,0,0.052383,-0.022454,0,-0.00032552,0,0,0,0.028781,-3.2561e-06,0.0086332,-0.12461,0.01247,0.025583,5.4125e-07,0.78,0.01,0
0.038819,0.011488,0.02884,-3.1592e-06,0.0086511,-5.9857e-05,0,0,0.052492,-0.022501,0,-0.00031125,0,0,0,0.02884,-3.2834e-06,0.0086511,-0.1189,0.012496,0.025637,5.4464e-07,0.79,0.01,0
0.039345,0.011514,0.028898,-3.1913e-06,0.0086683,-5.7081e-05,0,0,0.052596,-0.022546,0,-0.00029682,0,0,0,0.028898,-3.304e-06,0.0086683,-0.11316,0.012521,0.025687,5.4789e-07,0.8,0.01,0
0.039871,0.011539,0.028952,-3.217e-06,0.0086847,-5.428e-05,0,0,0.052695,-0.022589,0,-0.00028226,0,0,0,0.028952,-3.3187e-06,0.0086847,-0.10741,0.012545,0.025736,5.5099e-07,0.81,0.01,0
0.040398,0.011562,0.029004,-3.2372e-06,0.0087002,-5.1459e-05,0,0,0.05279,-0.022629,0,-0.00026759,0,0,0,0.029004,-3.3285e-06,0.0087002,-0.10164,0.012567,0.025782,5.5395e-07,0.82,0.01,0
0.040927,0.011584,0.029053,-3.2528e-06,0.0087149,-4.8623e-05,0,0,0.052879,-0.022667,0,-0.00025284,0,0,0,0.029053,-3.3342e-06,0.0087149,-0.095879,0.012588,0.025826,5.5677e-07,0.83,0.01,0
0.041456,0.011604,0.029099,-3.2644e-06,0.0087288,-4.5775e-05,0,0,0.052963,-0.022703,0,-0.00023803,0,0,0,0.029099,-3.3364e-06,0.0087288,-0.090119,0.012608,0.025867,5.5943e-07,0.84,0.01,0
0.041986,0.011623,0.029143,-3.2726e-06,0.0087418,-4.2917e-05,0,0,0.053042,-0.022737,0,-0.00022317,0,0,0,0.029143,-3.3358e-06,0.0087418,-0.084368,0.012627,0.025905,5.6194e-07,0.85,0.01,0
0.042517,0.01164,0.029183,-3.278e-06,0.008754,-4.0054e-05,0,0,0.053116,-0.022769,0,-0.00020828,0,0,0,0.029183,-3.3329e-06,0.008754,-0.07863,0.012645,0.025941,5.643e-07,0.86,0.01,0
0.043049,0.011656,0.029221,-3.281e-06,0.0087654,-3.7187e-05,0,0,0.053185,-0.022798,0,-0.00019337,0,0,0,0.029221,-3.3284e-06,0.0087654,-0.072907,0.012661,0.025975,5.6649e-07,0.87,0.01,0
0.043581,0.01167,0.029256,-3.2823e-06,0.0087759,-3.4319e-05,0,0,0.053249,-0.022826,0,-0.00017846,0,0,0,0.029256,-3.3225e-06,0.0087759,-0.067202,0.012676,0.026006,5.6853e-07,0.88,0.01,0
0.044113,0.011683,0.029288,-3.2821e-06,0.0087855,-3.1449e-05,0,0,0.053308,-0.022851,0,-0.00016354,0,0,0,0.029288,-3.3159e-06,0.0087855,-0.061516,0.01269,0.026035,5.7042e-07,0.89,0.01,0
0.044647,0.011695,0.029318,-3.2808e-06,0.0087944,-2.8581e-05,0,0,0.053361,-0.022874,0,-0.00014862,0,0,0,0.029318,-3.3087e-06,0.0087944,-0.055849,0.012703,0.026061,5.7214e-07,0.9,0.01,0
0.045181,0.011706,0.029344,-3.2788e-06,0.0088024,-2.5714e-05,0,0,0.05341,-0.022895,0,-0.00013371,0,0,0,0.029344,-3.3014e-06,0.0088024,-0.050201,0.012715,0.026085,5.737e-07,0.91,0.01,0
0.045715,0.011716,0.029368,-3.2763e-06,0.0088095,-2.2848e-05,0,0,0.053453,-0.022913,0,-0.00011881,0,0,0,0.029368,-3.2941e-06,0.0088095,-0.04457,0.012725,0.026106,5.7509e-07,0.92,0.01,0
0.04625,0.011724,0.029389,-3.2736e-06,0.0088158,-1.9985e-05,0,0,0.053491,-0.02293,0,-0.00010392,0,0,0,0.029389,-3.2872e-06,0.0088158,-0.038958,0.012734,0.026124,5.7633e-07,0.93,0.01,0
0.046785,0.011731,0.029408,-3.2708e-06,0.0088213,-1.7125e-05,0,0,0.053524,-0.022944,0,-8.9048e-05,0,0,0,0.029408,-3.2808e-06,0.0088213,-0.033361,0.012742,0.026141,5.774e-07,0.94,0.01,0
0.04732,0.011737,0.029423,-3.2682e-06,0.0088259,-1.4266e-05,0,0,0.053552,-0.022956,0,-7.4185e-05,0,0,0,0.029423,-3.2751e-06,0.0088259,-0.027778,0.012748,0.026154,5.7831e-07,0.95,0.01,0
0.047856,0.011742,0.029436,-3.2659e-06,0.0088297,-1.141e-05,0,0,0.053575,-0.022966,0,-5.9333e-05,0,0,0,0.029436,-3.2703e-06,0.0088297,-0.022207,0.012754,0.026166,5.7905e-07,0.96,0.01,0
0.048392,0.011746,0.029445,-3.264e-06,0.0088326,-8.5559e-06,0,0,0.053593,-0.022973,0,-4.4491e-05,0,0,0,0.029445,-3.2665e-06,0.0088326,-0.016647,0.012758,0.026174,5.7963e-07,0.97,0.01,0
0.048928,0.011749,0.029452,-3.2625e-06,0.0088347,-5.7031e-06,0,0,0.053606,-0.022979,0,-2.9656e-05,0,0,0,0.029452,-3.2636e-06,0.0088347,-0.011093,0.012761,0.02618,5.8004e-07,0.98,0.01,0
0.049464,0.01175,0.029457,-3.2616e-06,0.008836,-2.8513e-06,0,0,0.053614,-0.022982,0,-1.4827e-05,0,0,0,0.029457,-3.2619e-06,0.008836,-0.0055454,0.012763,0.026184,5.8029e-07,0.99,0.01,0
0.05,0.011751,0.029458,-3.2614e-06,0.0088364,1.042e-05,0,0,0.053616,-0.022983,0,5.4183e-05,0,0,0,0.029458,-3.265e-06,0.0088364,0.020264,0.012764,0.026185,5.8037e-07,1,0.01,0
0,0,0.034755,0.014895,0.014895,0.011331,0,0,0.051636,1.301e-18,0,0.058922,0,0,0,0.039891,0.0097585,0.014895,24.385,0.021515,0.027921,9.9164e-07,0,0.02,0
0.00051636,0.00058922,0.033471,0.0090889,0.012768,0.010259,0,0,0.053828,-0.0095656,0,0.053349,0,0,0,0.037213,0.0053465,0.012768,20.041,0.018443,0.02888,9.6723e-07,0.01,0.02,0
0.0010766,0.001219,0.033275,0.0044481,0.011317,0.0082873,0,0,0.057092,-0.017859,0,0.043094,0,0,0,0.035488,0.0022355,0.011317,14.949,0.016347,0.02977,9.42e-07,0.02,0.02,0
0.0016582,0.0018036,0.032634,0.0028556,0.010647,0.0061362,0,0,0.057167,-0.020258,0,0.031908,0,0,0,0.033849,0.0016407,0.010647,11.199,0.015379,0.028782,8.3254e-07,0.03,0.02,0
0.0022199,0.0023158,0.030955,0.0018678,0.0098468,0.0044503,0,0,0.054881,-0.020745,0,0.023141,0,0,0,0.03162,0.0012021,0.0098468,8.507,0.014223,0.027149,6.8738e-07,0.04,0.02,0
0.0027558,0.0027655,0.029347,0.0012986,0.0091938,0.0032776,0,0,0.052399,-0.020528,0,0.017043,0,0,0,0.029725,0.00092068,0.0091938,6.5771,0.01328,0.025687,5.7584e-07,0.05,0.02,0
0.0032679,0.0031607,0.027998,0.00094839,0.0086838,0.0024305,0,0,0.050216,-0.020112,0,0.012639,0,0,0,0.028214,0.00073173,0.0086838,5.0939,0.012543,0.024495,4.9533e-07,0.06,0.02,0
0.0037601,0.0035083,0.026922,0.00072312,0.0082936,0.0017978,0,0,0.048434,-0.019683,0,0.0093487,0,0,0,0.027045,0.00060033,0.0082936,3.9073,0.01198,0.02356,4.3814e-07,0.07,0.02,0
0.0042366,0.0038141,0.026086,0.00057025,0.0079968,0.0013076,0,0,0.047031,-0.019309,0,0.0067995,0,0,0,0.026152,0.00050341,0.0079968,2.9261,0.011551,0.022843,3.9752e-07,0.08,0.02,0
0.0047008,0.0040825,0.025449,0.0004609,0.007773,0.00091687,0,0,0.045958,-0.019012,0,0.0047677,0,0,0,0.025483,0.0004273,0.007773,2.0985,0.011228,0.022309,3.6878e-07,0.09,0.02,0
0.0051557,0.0043177,0.024979,0.00037851,0.0076071,0.00059898,0,0,0.045166,-0.018794,0,0.0031147,0,0,0,0.024993,0.00036394,0.0076071,1.394,0.010988,0.021924,3.488e-07,0.1,0.02,0
0.0056041,0.0045232,0.024646,0.00031331,0.0074879,0.00033714,0,0,0.044612,-0.018654,0,0.0017531,0,0,0,0.024651,0.00030864,0.0074879,0.79363,0.010816,0.021664,3.3544e-07,0.11,0.02,0
0.006048,0.0047022,0.02443,0.00025933,0.0074067,0.00012045,0,0,0.04426,-0.018583,0,0.00062635,0,0,0,0.02443,0.00025873,0.0074067,0.28552,0.010699,0.021508,3.272e-07,0.12,0.02,0
0.0064893,0.0048581,0.024309,0.00021291,0.0073566,-5.8313e-05,0,0,0.044076,-0.018574,0,-0.00030323,0,0,0,0.024309,0.00021277,0.0073566,-0.13865,0.010626,0.021437,3.2302e-07,0.13,0.02,0
0.0069295,0.0049939,0.024268,0.00017184,0.0073321,-0.00020415,0,0,0.044035,-0.018617,0,-0.0010616,0,0,0,0.02427,0.00017011,0.0073321,-0.48538,0.010591,0.021436,3.2208e-07,0.14,0.02,0
0.00737,0.0051125,0.024293,0.00013481,0.0073285,-0.00032071,0,0,0.044109,-0.018704,0,-0.0016677,0,0,0,0.024298,0.00013055,0.0073285,-0.76043,0.010586,0.021492,3.2376e-07,0.15,0.02,0
0.0078117,0.0052169,0.024372,0.00010115,0.0073418,-0.00041086,0,0,0.044277,-0.018826,0,-0.0021365,0,0,0,0.024379,9.4201e-05,0.0073418,-0.96954,0.010605,0.021593,3.2754e-07,0.16,0.02,0
0.0082555,0.0053099,0.024492,7.059e-05,0.0073687,-0.00047707,0,0,0.04452,-0.018975,0,-0.0024807,0,0,0,0.024501,6.1274e-05,0.0073687,-1.1187,0.010644,0.021728,3.3299e-07,0.17,0.02,0
0.0087021,0.0053942,0.024643,4.3072e-05,0.0074059,-0.00052168,0,0,0.044817,-0.019143,0,-0.0027127,0,0,0,0.024654,3.2014e-05,0.0074059,-1.2143,0.010697,0.021888,3.3972e-07,0.18,0.02,0
0.0091518,0.0054723,0.024818,1.8644e-05,0.0074509,-0.00054699,0,0,0.045154,-0.019324,0,-0.0028443,0,0,0,0.02483,6.5851e-06,0.0074509,-1.2629,0.010762,0.022064,3.4741e-07,0.19,0.02,0
0.0096051,0.0055467,0.025007,-2.6694e-06,0.0075013,-0.00055531,0,0,0.045515,-0.01951,0,-0.0028876,0,0,0,0.025019,-1.4993e-05,0.0075013,-1.2713,0.010835,0.02225,3.5576e-07,0.2,0.02,0
0.010062,0.0056194,0.025204,-2.0938e-05,0.007555,-0.00054892,0,0,0.045888,-0.019698,0,-0.0028544,0,0,0,0.025216,-3.2877e-05,0.007555,-1.246,0.010913,0.022439,3.645e-07,0.21,0.02,0
0.010523,0.0056924,0.025404,-3.6343e-05,0.0076102,-0.00053,0,0,0.046263,-0.019881,0,-0.002756,0,0,0,0.025415,-4.738e-05,0.0076102,-1.193,0.010993,0.022627,3.734e-07,0.22,0.02,0
0.010987,0.0057675,0.0256,-4.9144e-05,0.0076653,-0.00050056,0,0,0.046631,-0.020057,0,-0.0026029,0,0,0,0.02561,-5.8909e-05,0.0076653,-1.1176,0.011072,0.02281,3.8224e-07,0.23,0.02,0
0.011456,0.0058462,0.025789,-5.9605e-05,0.0077189,-0.00046242,0,0,0.046983,-0.020224,0,-0.0024046,0,0,0,0.025797,-6.7875e-05,0.0077189,-1.0246,0.011149,0.022983,3.9084e-07,0.24,0.02,0
0.011927,0.0059297,0.025967,-6.7913e-05,0.0077698,-0.00041724,0,0,0.047313,-0.020378,0,-0.0021696,0,0,0,0.025974,-7.4598e-05,0.0077698,-0.9179,0.011223,0.023146,3.9901e-07,0.25,0.02,0
0.012402,0.006019,0.026131,-7.4127e-05,0.0078171,-0.00036656,0,0,0.047617,-0.020517,0,-0.0019061,0,0,0,0.026136,-7.9254e-05,0.0078171,-0.80125,0.011291,0.023294,4.0662e-07,0.26,0.02,0
0.012879,0.0061149,0.026279,-7.818e-05,0.0078602,-0.00031197,0,0,0.047889,-0.02064,0,-0.0016222,0,0,0,0.026283,-8.1872e-05,0.0078602,-0.67805,0.011354,0.023426,4.1352e-07,0.27,0.02,0
0.01336,0.0062179,0.026408,-7.9936e-05,0.0078985,-0.00025509,0,0,0.048126,-0.020744,0,-0.0013265,0,0,0,0.026411,-8.2392e-05,0.0078985,-0.5517,0.011409,0.02354,4.196e-07,0.28,0.02,0
0.013842,0.0063283,0.026519,-7.9277e-05,0.0079318,-0.00019764,0,0,0.048326,-0.020829,0,-0.0010277,0,0,0,0.02652,-8.0746e-05,0.0079318,-0.42572,0.011457,0.023636,4.2479e-07,0.29,0.02,0
0.014326,0.0064462,0.026609,-7.6188e-05,0.0079598,-0.00014139,0,0,0.048487,-0.020893,0,-0.00073524,0,0,0,0.02661,-7.6937e-05,0.0079598,-0.30357,0.011498,0.023713,4.2904e-07,0.3,0.02,0
0.014812,0.0065712,0.026679,-7.0801e-05,0.0079826,-8.8073e-05,0,0,0.048612,-0.020939,0,-0.00045798,0,0,0,0.02668,-7.1091e-05,0.0079826,-0.18864,0.01153,0.02377,4.3235e-07,0.31,0.02,0
0.015298,0.006703,0.026731,-6.3411e-05,0.0080004,-3.9255e-05,0,0,0.048701,-0.020966,0,-0.00020413,0,0,0,0.026732,-6.3468e-05,0.0080004,-0.083939,0.011556,0.02381,4.3473e-07,0.32,0.02,0
0.015786,0.0068411,0.026766,-5.4434e-05,0.0080135,3.7417e-06,0,0,0.048757,-0.020977,0,1.9457e-05,0,0,0,0.026766,-5.4435e-05,0.0080135,0.0079932,0.011575,0.023834,4.3627e-07,0.33,0.02,0
0.016273,0.0069847,0.026786,-4.4367e-05,0.0080224,3.9927e-05,0,0,0.048785,-0.020974,0,0.00020762,0,0,0,0.026786,-4.4426e-05,0.0080224,0.085264,0.011588,0.023843,4.3705e-07,0.34,0.02,0
0.016761,0.0071329,0.026792,-3.3727e-05,0.0080276,6.8673e-05,0,0,0.048788,-0.020959,0,0.0003571,0,0,0,0.026793,-3.3903e-05,0.0080276,0.14667,0.011595,0.023841,4.372e-07,0.35,0.02,0
0.017249,0.007285,0.026789,-2.301e-05,0.0080297,8.972e-05,0,0,0.048773,-0.020937,0,0.00046654,0,0,0,0.026789,-2.331e-05,0.0080297,0.19173,0.011598,0.023829,4.3684e-07,0.36,0.02,0
0.017737,0.0074398,0.026777,-1.2657e-05,0.0080294,0.00010314,0,0,0.048745,-0.020909,0,0.00053635,0,0,0,0.026778,-1.3054e-05,0.0080294,0.22059,0.011598,0.023811,4.3611e-07,0.37,0.02,0
0.018224,0.0075965,0.026761,-3.0321e-06,0.0080274,0.00010932,0,0,0.048707,-0.020879,0,0.00056846,0,0,0,0.026762,-3.4786e-06,0.0080274,0.23402,0.011595,0.023789,4.3515e-07,0.38,0.02,0
0.018711,0.007754,0.026742,5.5826e-06,0.0080244,0.00010885,0,0,0.048667,-0.020849,0,0.00056604,0,0,0,0.026743,5.1395e-06,0.0080244,0.23326,0.011591,0.023765,4.3409e-07,0.39,0.02,0
0.019197,0.0079115,0.026724,1.2992e-05,0.008021,0.00010253,0,0,0.048627,-0.020821,0,0.00053317,0,0,0,0.026724,1.2599e-05,0.008021,0.21993,0.011586,0.023743,4.3305e-07,0.4,0.02,0
0.019683,0.0080681,0.026707,1.9084e-05,0.0080179,9.1258e-05,0,0,0.048592,-0.020797,0,0.00047454,0,0,0,0.026708,1.8772e-05,0.0080179,0.19591,0.011581,0.023723,4.3214e-07,0.41,0.02,0
0.020169,0.008223,0.026695,2.3818e-05,0.0080156,7.5993e-05,0,0,0.048566,-0.020778,0,0.00039517,0,0,0,0.026695,2.3601e-05,0.0080156,0.16325,0.011578,0.023708,4.3144e-07,0.42,0.02,0
0.020655,0.0083757,0.026687,2.7219e-05,0.0080144,5.771e-05,0,0,0.04855,-0.020767,0,0.00030009,0,0,0,0.026688,2.7094e-05,0.0080144,0.12402,0.011576,0.023699,4.3103e-07,0.43,0.02,0
0.02114,0.0085253,0.026687,2.9368e-05,0.0080148,3.7346e-05,0,0,0.048547,-0.020762,0,0.0001942,0,0,0,0.026687,2.9316e-05,0.0080148,0.080269,0.011577,0.023696,4.3095e-07,0.44,0.02,0
0.021626,0.0086716,0.026693,3.0385e-05,0.0080171,1.5769e-05,0,0,0.048558,-0.020765,0,8.1998e-05,0,0,0,0.026693,3.0376e-05,0.0080171,0.033885,0.01158,0.023701,4.3124e-07,0.45,0.02,0
0.022111,0.008814,0.026707,3.042e-05,0.0080214,-6.249e-06,0,0,0.048584,-0.020776,0,-3.2495e-05,0,0,0,0.026707,3.0418e-05,0.0080214,-0.013421,0.011586,0.023714,4.3193e-07,0.46,0.02,0
0.022597,0.0089523,0.026729,2.9637e-05,0.0080277,-2.8047e-05,0,0,0.048625,-0.020795,0,-0.00014584,0,0,0,0.026729,2.9608e-05,0.0080277,-0.060187,0.011596,0.023734,4.3302e-07,0.47,0.02,0
0.023084,0.0090861,0.026759,2.8206e-05,0.0080363,-4.9085e-05,0,0,0.04868,-0.020821,0,-0.00025524,0,0,0,0.026759,2.8116e-05,0.0080363,-0.10521,0.011608,0.023762,4.345e-07,0.48,0.02,0
0.023571,0.0092153,0.026797,2.6291e-05,0.0080469,-6.8944e-05,0,0,0.04875,-0.020854,0,-0.00035851,0,0,0,0.026797,2.6114e-05,0.0080469,-0.14756,0.011623,0.023797,4.3637e-07,0.49,0.02,0
0.024059,0.0093399,0.026841,2.4042e-05,0.0080596,-8.7317e-05,0,0,0.048833,-0.020893,0,-0.00045405,0,0,0,0.026842,2.3758e-05,0.0080596,-0.18655,0.011642,0.023838,4.386e-07,0.5,0.02,0
0.024548,0.0094596,0.026893,2.1592e-05,0.0080743,-0.000104,0,0,0.048928,-0.020937,0,-0.00054081,0,0,0,0.026893,2.1189e-05,0.0080743,-0.22175,0.011663,0.023886,4.4117e-07,0.51,0.02,0
0.025038,0.0095746,0.02695,1.9051e-05,0.0080907,-0.00011888,0,0,0.049034,-0.020986,0,-0.0006182,0,0,0,0.02695,1.8526e-05,0.0080907,-0.25292,0.011687,0.023939,4.4404e-07,0.52,0.02,0
0.025528,0.0096849,0.027013,1.6509e-05,0.0081087,-0.00013192,0,0,0.04915,-0.02104,0,-0.00068601,0,0,0,0.027013,1.5865e-05,0.0081087,-0.27999,0.011713,0.023997,4.472e-07,0.53,0.02,0
0.02602,0.0097904,0.02708,1.4037e-05,0.0081282,-0.00014314,0,0,0.049275,-0.021097,0,-0.00074434,0,0,0,0.027081,1.328e-05,0.0081282,-0.30301,0.011741,0.024059,4.5061e-07,0.54,0.02,0
0.026514,0.0098913,0.027151,1.1683e-05,0.0081489,-0.0001526,0,0,0.049406,-0.021157,0,-0.00079352,0,0,0,0.027152,1.0825e-05,0.0081489,-0.32215,0.011771,0.024125,4.5424e-07,0.55,0.02,0
0.027009,0.0099878,0.027226,9.4823e-06,0.0081707,-0.00016039,0,0,0.049544,-0.021219,0,-0.00083405,0,0,0,0.027227,8.5371e-06,0.0081707,-0.33764,0.011802,0.024193,4.5805e-07,0.56,0.02,0
0.027505,0.01008,0.027304,7.4542e-06,0.0081934,-0.00016664,0,0,0.049687,-0.021284,0,-0.00086651,0,0,0,0.027305,6.437e-06,0.0081934,-0.34976,0.011835,0.024264,4.6202e-07,0.57,0.02,0
0.028002,0.010168,0.027384,5.6078e-06,0.0082168,-0.00017146,0,0,0.049834,-0.021349,0,-0.00089158,0,0,0,0.027385,4.5341e-06,0.0082168,-0.3588,0.011869,0.024337,4.6612e-07,0.58,0.02,0
0.028501,0.010251,0.027465,3.9436e-06,0.0082407,-0.00017499,0,0,0.049984,-0.021416,0,-0.00090992,0,0,0,0.027466,2.8286e-06,0.0082407,-0.36507,0.011903,0.02441,4.7033e-07,0.59,0.02,0
0.029002,0.010331,0.027548,2.4559e-06,0.0082651,-0.00017735,0,0,0.050135,-0.021483,0,-0.00092223,0,0,0,0.027549,1.3141e-06,0.0082651,-0.36888,0.011938,0.024485,4.7461e-07,0.6,0.02,0
0.029504,0.010407,0.027631,1.1351e-06,0.0082897,-0.00017868,0,0,0.050288,-0.02155,0,-0.00092913,0,0,0,0.027632,-2.0363e-08,0.0082897,-0.3705,0.011974,0.02456,4.7896e-07,0.61,0.02,0
0.030008,0.010479,0.027715,-3.1227e-08,0.0083144,-0.00017909,0,0,0.050441,-0.021618,0,-0.00093125,0,0,0,0.027716,-1.1884e-06,0.0083144,-0.37021,0.01201,0.024635,4.8334e-07,0.62,0.02,0
0.030513,0.010547,0.027798,-1.0566e-06,0.0083392,-0.00017868,0,0,0.050594,-0.021685,0,-0.00092914,0,0,0,0.0278,-2.205e-06,0.0083392,-0.36825,0.012046,0.02471,4.8775e-07,0.63,0.02,0
0.03102,0.010613,0.027882,-1.955e-06,0.0083639,-0.00017756,0,0,0.050746,-0.021751,0,-0.00092331,0,0,0,0.027883,-3.0856e-06,0.0083639,-0.36483,0.012081,0.024785,4.9215e-07,0.64,0.02,0
0.031528,0.010674,0.027964,-2.74e-06,0.0083884,-0.00017581,0,0,0.050897,-0.021817,0,-0.00091422,0,0,0,0.027965,-3.8452e-06,0.0083884,-0.36017,0.012117,0.024859,4.9655e-07,0.65,0.02,0
0.032038,0.010733,0.028046,-3.4246e-06,0.0084127,-0.00017352,0,0,0.051046,-0.021882,0,-0.00090228,0,0,0,0.028047,-4.498e-06,0.0084127,-0.35442,0.012152,0.024932,5.0092e-07,0.66,0.02,0
0.032549,0.010789,0.028126,-4.0206e-06,0.0084366,-0.00017074,0,0,0.051193,-0.021946,0,-0.00088786,0,0,0,0.028127,-5.0569e-06,0.0084366,-0.34775,0.012186,0.025004,5.0525e-07,0.67,0.02,0
0.033062,0.010842,0.028205,-4.5387e-06,0.0084602,-0.00016755,0,0,0.051337,-0.022008,0,-0.00087127,0,0,0,0.028206,-5.5339e-06,0.0084602,-0.34029,0.01222,0.025075,5.0953e-07,0.68,0.02,0
0.033576,0.010892,0.028283,-4.9885e-06,0.0084833,-0.000164,0,0,0.051478,-0.022069,0,-0.00085279,0,0,0,0.028284,-5.9393e-06,0.0084833,-0.33216,0.012254,0.025144,5.1375e-07,0.69,0.02,0
0.034091,0.010939,0.028358,-5.3784e-06,0.0085059,-0.00016013,0,0,0.051617,-0.022129,0,-0.00083268,0,0,0,0.028359,-6.2824e-06,0.0085059,-0.32345,0.012286,0.025211,5.179e-07,0.7,0.02,0
0.034608,0.010984,0.028432,-5.7158e-06,0.008528,-0.00015599,0,0,0.051752,-0.022188,0,-0.00081114,0,0,0,0.028433,-6.5714e-06,0.008528,-0.31427,0.012318,0.025277,5.2196e-07,0.71,0.02,0
0.035126,0.011026,0.028504,-6.0072e-06,0.0085496,-0.00015161,0,0,0.051883,-0.022245,0,-0.00078837,0,0,0,0.028505,-6.8134e-06,0.0085496,-0.30467,0.012349,0.025342,5.2594e-07,0.72,0.02,0
0.035645,0.011066,0.028574,-6.2581e-06,0.0085705,-0.00014703,0,0,0.052011,-0.022299,0,-0.00076454,0,0,0,0.028575,-7.0144e-06,0.0085705,-0.29474,0.01238,0.025404,5.2983e-07,0.73,0.02,0
0.036166,0.011104,0.028642,-6.4733e-06,0.0085908,-0.00014227,0,0,0.052134,-0.022353,0,-0.0007398,0,0,0,0.028643,-7.1798e-06,0.0085908,-0.28452,0.012409,0.025464,5.3361e-07,0.74,0.02,0
0.036688,0.01114,0.028708,-6.6573e-06,0.0086104,-0.00013736,0,0,0.052254,-0.022404,0,-0.00071427,0,0,0,0.028709,-7.3144e-06,0.0086104,-0.27407,0.012437,0.025523,5.3729e-07,0.75,0.02,0
0.037211,0.011173,0.028771,-6.8137e-06,0.0086294,-0.00013232,0,0,0.052369,-0.022454,0,-0.00068807,0,0,0,0.028772,-7.4221e-06,0.0086294,-0.26344,0.012465,0.025579,5.4085e-07,0.76,0.02,0
0.037736,0.011205,0.028832,-6.9458e-06,0.0086476,-0.00012717,0,0,0.05248,-0.022502,0,-0.0006613,0,0,0,0.028833,-7.5066e-06,0.0086476,-0.25265,0.012491,0.025633,5.4429e-07,0.77,0.02,0
0.038261,0.011234,0.028891,-7.0565e-06,0.0086651,-0.00012193,0,0,0.052587,-0.022548,0,-0.00063405,0,0,0,0.028891,-7.571e-06,0.0086651,-0.24175,0.012516,0.025685,5.4762e-07,0.78,0.02,0
0.038787,0.011262,0.028947,-7.1485e-06,0.008682,-0.00011661,0,0,0.052689,-0.022592,0,-0.00060639,0,0,0,0.028948,-7.6181e-06,0.008682,-0.23076,0.012541,0.025735,5.5081e-07,0.79,0.02,0
0.039315,0.011288,0.029001,-7.224e-06,0.008698,-0.00011123,0,0,0.052787,-0.022634,0,-0.00057841,0,0,0,0.029001,-7.6505e-06,0.008698,-0.2197,0.012564,0.025783,5.5388e-07,0.8,0.02,0
0.039843,0.011313,0.029052,-7.2852e-06,0.0087133,-0.0001058,0,0,0.05288,-0.022674,0,-0.00055015,0,0,0,0.029052,-7.6704e-06,0.0087133,-0.2086,0.012586,0.025828,5.5681e-07,0.81,0.02,0
0.040372,0.011336,0.0291,-7.334e-06,0.0087279,-0.00010032,0,0,0.052968,-0.022712,0,-0.00052166,0,0,0,0.029101,-7.6798e-06,0.0087279,-0.19747,0.012607,0.025871,5.596e-07,0.82,0.02,0
0.040902,0.011357,0.029146,-7.3721e-06,0.0087417,-9.4809e-05,0,0,0.053052,-0.022748,0,-0.00049301,0,0,0,0.029147,-7.6804e-06,0.0087417,-0.18632,0.012627,0.025912,5.6226e-07,0.83,0.02,0
0.041433,0.011377,0.02919,-7.401e-06,0.0087547,-8.9272e-05,0,0,0.053131,-0.022781,0,-0.00046421,0,0,0,0.02919,-7.6739e-06,0.0087547,-0.17518,0.012646,0.025951,5.6477e-07,0.84,0.02,0
0.041965,0.011395,0.029231,-7.4221e-06,0.008767,-8.3714e-05,0,0,0.053205,-0.022813,0,-0.00043531,0,0,0,0.029231,-7.6618e-06,0.008767,-0.16405,0.012663,0.025987,5.6714e-07,0.85,0.02,0
0.042498,0.011412,0.029269,-7.4368e-06,0.0087784,-7.8143e-05,0,0,0.053275,-0.022843,0,-0.00040634,0,0,0,0.029269,-7.6453e-06,0.0087784,-0.15293,0.01268,0.026021,5.6937e-07,0.86,0.02,0
0.043031,0.011427,0.029304,-7.446e-06,0.0087891,-7.2561e-05,0,0,0.05334,-0.022871,0,-0.00037732,0,0,0,0.029305,-7.6257e-06,0.0087891,-0.14183,0.012695,0.026053,5.7145e-07,0.87,0.02,0
0.043564,0.011442,0.029337,-7.451e-06,0.008799,-6.6974e-05,0,0,0.0534,-0.022897,0,-0.00034826,0,0,0,0.029337,-7.6039e-06,0.008799,-0.13076,0.01271,0.026082,5.7337e-07,0.88,0.02,0
0.044099,0.011455,0.029368,-7.4526e-06,0.0088081,-6.1382e-05,0,0,0.053455,-0.02292,0,-0.00031919,0,0,0,0.029368,-7.5808e-06,0.0088081,-0.11972,0.012723,0.026109,5.7515e-07,0.89,0.02,0
0.044633,0.011466,0.029395,-7.4515e-06,0.0088164,-5.5791e-05,0,0,0.053505,-0.022942,0,-0.00029011,0,0,0,0.029396,-7.5574e-06,0.0088164,-0.10872,0.012735,0.026133,5.7678e-07,0.9,0.02,0
0.045169,0.011477,0.02942,-7.4486e-06,0.0088239,-5.0199e-05,0,0,0.053551,-0.022961,0,-0.00026104,0,0,0,0.02942,-7.5342e-06,0.0088239,-0.097737,0.012746,0.026156,5.7825e-07,0.91,0.02,0
0.045704,0.011486,0.029443,-7.4444e-06,0.0088306,-4.461e-05,0,0,0.053592,-0.022979,0,-0.00023197,0,0,0,0.029443,-7.512e-06,0.0088306,-0.086789,0.012755,0.026176,5.7958e-07,0.92,0.02,0
0.04624,0.011494,0.029463,-7.4395e-06,0.0088366,-3.9024e-05,0,0,0.053628,-0.022994,0,-0.00020292,0,0,0,0.029463,-7.4912e-06,0.0088366,-0.07587,0.012764,0.026193,5.8074e-07,0.93,0.02,0
0.046777,0.011501,0.02948,-7.4344e-06,0.0088417,-3.344e-05,0,0,0.053659,-0.023008,0,-0.00017389,0,0,0,0.02948,-7.4723e-06,0.0088417,-0.064977,0.012771,0.026208,5.8176e-07,0.94,0.02,0
0.047314,0.011507,0.029494,-7.4295e-06,0.0088461,-2.7861e-05,0,0,0.053685,-0.023019,0,-0.00014488,0,0,0,0.029494,-7.4558e-06,0.0088461,-0.054109,0.012778,0.026221,5.8262e-07,0.95,0.02,0
0.047851,0.011512,0.029506,-7.425e-06,0.0088496,-2.2284e-05,0,0,0.053707,-0.023028,0,-0.00011588,0,0,0,0.029506,-7.4418e-06,0.0088496,-0.043261,0.012783,0.026232,5.8332e-07,0.96,0.02,0
0.048388,0.011516,0.029515,-7.4212e-06,0.0088524,-1.671e-05,0,0,0.053724,-0.023036,0,-8.6895e-05,0,0,0,0.029515,-7.4307e-06,0.0088524,-0.032431,0.012787,0.02624,5.8387e-07,0.97,0.02,0
0.048925,0.011518,0.029522,-7.4184e-06,0.0088544,-1.1139e-05,0,0,0.053736,-0.023041,0,-5.7923e-05,0,0,0,0.029522,-7.4226e-06,0.0088544,-0.021613,0.01279,0.026246,5.8426e-07,0.98,0.02,0
0.049462,0.01152,0.029526,-7.4167e-06,0.0088556,-5.5691e-06,0,0,0.053743,-0.023044,0,-2.8959e-05,0,0,0,0.029526,-7.4177e-06,0.0088556,-0.010804,0.012791,0.026249,5.8449e-07,0.99,0.02,0
0.05,0.011521,0.029527,-7.416e-06,0.008856,1.0216e-05,0,0,0.053746,-0.023045,0,5.3124e-05,0,0,0,0.029527,-7.4196e-06,0.008856,0.019819,0.012792,0.02625,5.8457e-07,1,0.02,0
0,0,0.031219,0.013379,0.013379,0.010068,0,0,0.046382,-1.0842e-18,0,0.052351,0,0,0,0.035749,0.0088486,0.013379,24.23,0.019326,0.024946,7.0946e-07,0,0.03,0
0.00046382,0.00052351,0.030831,0.01024,0.012321,0.0096116,0,0,0.048125,-0.005411,0,0.04998,0,0,0,0.03462,0.006451,0.012321,21.516,0.017798,0.025741,7.2477e-07,0.01,0.03,0
0.00096251,0.0010804,0.031028,0.0068781,0.011372,0.0088365,0,0,0.051106,-0.011684,0,0.04595,0,0,0,0.033916,0.0039901,0.011372,18.099,0.016426,0.027002,7.622e-07,0.02,0.03,0
0.0014859,0.0016224,0.030883,0.0044795,0.010609,0.0073417,0,0,0.052713,-0.015936,0,0.038177,0,0,0,0.032787,0.0025754,0.010609,14.54,0.015324,0.027103,7.278e-07,0.03,0.03,0
0.0020168,0.0021206,0.030301,0.0031255,0.010028,0.0058157,0,0,0.05271,-0.017947,0,0.030242,0,0,0,0.031494,0.0019333,0.010028,11.586,0.014485,0.026458,6.5972e-07,0.04,0.03,0
0.0025401,0.0025667,0.029384,0.0022638,0.0094942,0.0045183,0,0,0.051712,-0.018799,0,0.023495,0,0,0,0.030117,0.0015308,0.0094942,9.2144,0.013714,0.025552,5.8467e-07,0.05,0.03,0
0.003051,0.0029627,0.028435,0.0017056,0.0090422,0.003482,0,0,0.050421,-0.019075,0,0.018106,0,0,0,0.028881,0.0012595,0.0090422,7.3014,0.013061,0.024669,5.2024e-07,0.06,0.03,0
0.0035486,0.0033127,0.027573,0.0013281,0.0086704,0.0026555,0,0,0.049147,-0.01909,0,0.013808,0,0,0,0.027839,0.0010621,0.0086704,5.7199,0.012524,0.023899,4.6903e-07,0.07,0.03,0
0.004034,0.003621,0.026839,0.0010622,0.0083705,0.0019894,0,0,0.048019,-0.019002,0,0.010345,0,0,0,0.026992,0.00090957,0.0083705,4.3873,0.012091,0.023267,4.2977e-07,0.08,0.03,0
0.004509,0.0038918,0.026238,0.00086669,0.0081314,0.001445,0,0,0.047077,-0.018888,0,0.007514,0,0,0,0.02632,0.00078466,0.0081314,3.2492,0.011745,0.022769,4.0029e-07,0.09,0.03,0
0.0049755,0.0041287,0.02576,0.00071646,0.007943,0.0009948,0,0,0.046325,-0.018789,0,0.005173,0,0,0,0.0258,0.00067701,0.007943,2.2712,0.011473,0.022392,3.7859e-07,0.1,0.03,0
0.0054354,0.0043354,0.025393,0.00059594,0.0077968,0.00061975,0,0,0.045751,-0.018722,0,0.0032227,0,0,0,0.025409,0.00058047,0.0077968,1.4308,0.011262,0.022121,3.6307e-07,0.11,0.03,0
0.0058905,0.0045151,0.025124,0.00049533,0.0076857,0.00030668,0,0,0.045339,-0.018695,0,0.0015948,0,0,0,0.025128,0.00049151,0.0076857,0.71332,0.011102,0.021942,3.5246e-07,0.12,0.03,0
0.0063422,0.0046711,0.024938,0.00040841,0.0076039,4.6373e-05,0,0,0.045068,-0.018708,0,0.00024114,0,0,0,0.024938,0.00040833,0.0076039,0.10832,0.010983,0.02184,3.4579e-07,0.13,0.03,0
0.0067919,0.0048065,0.024824,0.00033134,0.0075466,-0.00016781,0,0,0.044921,-0.01876,0,-0.00087259,0,0,0,0.024825,0.00033019,0.0075466,-0.39252,0.010901,0.021802,3.4229e-07,0.14,0.03,0
0.0072407,0.0049243,0.024771,0.00026182,0.0075097,-0.00034084,0,0,0.044878,-0.018845,0,-0.0017724,0,0,0,0.024775,0.00025708,0.0075097,-0.7966,0.010847,0.021816,3.4134e-07,0.15,0.03,0
0.0076894,0.0050277,0.024768,0.00019867,0.0074899,-0.00047675,0,0,0.044922,-0.018957,0,-0.0024791,0,0,0,0.024777,0.00018942,0.0074899,-1.1113,0.010819,0.021871,3.4244e-07,0.16,0.03,0
0.0081391,0.0051193,0.024806,0.00014137,0.0074841,-0.00057908,0,0,0.045036,-0.019091,0,-0.0030112,0,0,0,0.024819,0.00012778,0.0074841,-1.3442,0.01081,0.021958,3.4515e-07,0.17,0.03,0
0.0085902,0.0052021,0.024877,8.9845e-05,0.00749,-0.00065114,0,0,0.045206,-0.019241,0,-0.0033859,0,0,0,0.024894,7.2751e-05,0.00749,-1.5037,0.010819,0.022068,3.4911e-07,0.18,0.03,0
0.0090432,0.0052786,0.024973,4.417e-05,0.0075053,-0.00069624,0,0,0.045417,-0.019399,0,-0.0036205,0,0,0,0.024993,2.474e-05,0.0075053,-1.5985,0.010841,0.022194,3.5403e-07,0.19,0.03,0
0.0094985,0.0053512,0.025089,4.373e-06,0.0075281,-0.00071766,0,0,0.045659,-0.019562,0,-0.0037319,0,0,0,0.02511,-1.6142e-05,0.0075281,-1.6374,0.010874,0.022331,3.5964e-07,0.2,0.03,0
0.0099564,0.0054222,0.025218,-2.9706e-05,0.0075566,-0.00071863,0,0,0.04592,-0.019724,0,-0.0037369,0,0,0,0.025239,-5.0143e-05,0.0075566,-1.629,0.010915,0.022473,3.6574e-07,0.21,0.03,0
0.010417,0.0054936,0.025356,-5.8458e-05,0.0075892,-0.00070217,0,0,0.046193,-0.019884,0,-0.0036513,0,0,0,0.025375,-7.7844e-05,0.0075892,-1.5814,0.010962,0.022616,3.7214e-07,0.22,0.03,0
0.01088,0.005567,0.025498,-8.2435e-05,0.0076247,-0.00067104,0,0,0.046471,-0.020039,0,-0.0034894,0,0,0,0.025516,-0.00010003,0.0076247,-1.5016,0.011014,0.022759,3.7869e-07,0.23,0.03,0
0.011346,0.0056442,0.025641,-0.00010219,0.0076617,-0.00062764,0,0,0.046747,-0.020186,0,-0.0032637,0,0,0,0.025656,-0.00011749,0.0076617,-1.3958,0.011067,0.022898,3.8526e-07,0.24,0.03,0
0.011815,0.0057262,0.025782,-0.00011812,0.0076992,-0.00057409,0,0,0.047016,-0.020325,0,-0.0029853,0,0,0,0.025795,-0.00013084,0.0076992,-1.2692,0.011121,0.023032,3.9174e-07,0.25,0.03,0
0.012287,0.0058142,0.025918,-0.00013033,0.0077364,-0.00051238,0,0,0.047273,-0.020453,0,-0.0026644,0,0,0,0.025928,-0.00014041,0.0077364,-1.1264,0.011175,0.023158,3.9799e-07,0.26,0.03,0
0.012761,0.005909,0.026047,-0.00013867,0.0077724,-0.0004445,0,0,0.047513,-0.020569,0,-0.0023114,0,0,0,0.026054,-0.00014621,0.0077724,-0.97222,0.011227,0.023274,4.039e-07,0.27,0.03,0
0.013237,0.006011,0.026166,-0.00014283,0.0078069,-0.00037256,0,0,0.047733,-0.020669,0,-0.0019373,0,0,0,0.026171,-0.00014811,0.0078069,-0.81116,0.011277,0.02338,4.0938e-07,0.28,0.03,0
0.013715,0.0061206,0.026273,-0.00014254,0.0078393,-0.00029889,0,0,0.047929,-0.020753,0,-0.0015542,0,0,0,0.026277,-0.00014592,0.0078393,-0.64818,0.011323,0.023472,4.1431e-07,0.29,0.03,0
0.014195,0.0062377,0.026369,-0.00013771,0.0078693,-0.00022591,0,0,0.048098,-0.020818,0,-0.0011748,0,0,0,0.026371,-0.00013963,0.0078693,-0.48828,0.011367,0.02355,4.1865e-07,0.3,0.03,0
0.014677,0.0063623,0.026451,-0.00012858,0.0078967,-0.00015603,0,0,0.048241,-0.020866,0,-0.00081135,0,0,0,0.026452,-0.0001295,0.0078967,-0.33633,0.011406,0.023614,4.2235e-07,0.31,0.03,0
0.01516,0.0064938,0.02652,-0.00011568,0.0079213,-9.145e-05,0,0,0.048357,-0.020896,0,-0.00047554,0,0,0,0.02652,-0.000116,0.0079213,-0.19671,0.011442,0.023665,4.2541e-07,0.32,0.03,0
0.015644,0.0066318,0.026577,-9.9787e-05,0.0079431,-3.4046e-05,0,0,0.048448,-0.020912,0,-0.00017704,0,0,0,0.026577,-9.983e-05,0.0079431,-0.073124,0.011473,0.023702,4.2786e-07,0.33,0.03,0
0.016129,0.0067753,0.026622,-8.1799e-05,0.0079622,1.4754e-05,0,0,0.048516,-0.020914,0,7.6719e-05,0,0,0,0.026622,-8.1807e-05,0.0079622,0.031655,0.011501,0.023728,4.2975e-07,0.34,0.03,0
0.016615,0.0069237,0.026658,-6.2671e-05,0.0079785,5.4014e-05,0,0,0.048566,-0.020907,0,0.00028087,0,0,0,0.026658,-6.278e-05,0.0079785,0.11582,0.011525,0.023744,4.3114e-07,0.35,0.03,0
0.017101,0.0070759,0.026685,-4.3312e-05,0.0079925,8.3289e-05,0,0,0.0486,-0.020893,0,0.0004331,0,0,0,0.026685,-4.3572e-05,0.0079925,0.17854,0.011545,0.023753,4.3214e-07,0.36,0.03,0
0.017587,0.0072309,0.026706,-2.4532e-05,0.0080044,0.00010259,0,0,0.048624,-0.020875,0,0.00053347,0,0,0,0.026706,-2.4926e-05,0.0080044,0.2199,0.011562,0.023757,4.3283e-07,0.37,0.03,0
0.018073,0.0073878,0.026722,-7.005e-06,0.0080145,0.00011233,0,0,0.048639,-0.020856,0,0.00058411,0,0,0,0.026722,-7.4771e-06,0.0080145,0.24078,0.011576,0.023757,4.3331e-07,0.38,0.03,0
0.018559,0.0075455,0.026735,8.7451e-06,0.0080232,0.00011324,0,0,0.048651,-0.020838,0,0.00058885,0,0,0,0.026736,8.2653e-06,0.0080232,0.24276,0.011589,0.023757,4.3369e-07,0.39,0.03,0
0.019046,0.0077032,0.026748,2.2349e-05,0.008031,0.00010631,0,0,0.048663,-0.020823,0,0.0005528,0,0,0,0.026748,2.1926e-05,0.008031,0.2279,0.0116,0.023757,4.3406e-07,0.4,0.03,0
0.019533,0.00786,0.026761,3.3585e-05,0.0080383,9.2681e-05,0,0,0.048678,-0.020812,0,0.00048194,0,0,0,0.026761,3.3263e-05,0.0080383,0.19868,0.011611,0.023759,4.3449e-07,0.41,0.03,0
0.02002,0.0080151,0.026776,4.2366e-05,0.0080454,7.3611e-05,0,0,0.048699,-0.020808,0,0.00038278,0,0,0,0.026776,4.2164e-05,0.0080454,0.15776,0.011621,0.023765,4.3505e-07,0.42,0.03,0
0.020507,0.0081677,0.026794,4.8727e-05,0.0080527,5.0371e-05,0,0,0.048726,-0.02081,0,0.00026193,0,0,0,0.026794,4.8632e-05,0.0080527,0.10791,0.011632,0.023776,4.3581e-07,0.43,0.03,0
0.020994,0.0083174,0.026816,5.2801e-05,0.0080605,2.4202e-05,0,0,0.048763,-0.02082,0,0.00012585,0,0,0,0.026816,5.2779e-05,0.0080605,0.051813,0.011643,0.023792,4.3681e-07,0.44,0.03,0
0.021482,0.0084636,0.026842,5.4802e-05,0.0080691,-3.737e-06,0,0,0.04881,-0.020837,0,-1.9432e-05,0,0,0,0.026842,5.4801e-05,0.0080691,-0.007993,0.011655,0.023814,4.3808e-07,0.45,0.03,0
0.02197,0.0086058,0.026874,5.4998e-05,0.0080787,-3.2408e-05,0,0,0.048868,-0.020862,0,-0.00016852,0,0,0,0.026874,5.4958e-05,0.0080787,-0.069236,0.011669,0.023842,4.3964e-07,0.46,0.03,0
0.022459,0.0087438,0.026911,5.3687e-05,0.0080894,-6.0919e-05,0,0,0.048936,-0.020893,0,-0.00031678,0,0,0,0.026911,5.3549e-05,0.0080894,-0.12996,0.011685,0.023876,4.4148e-07,0.47,0.03,0
0.022949,0.0088773,0.026953,5.1178e-05,0.0081013,-8.8536e-05,0,0,0.049015,-0.02093,0,-0.00046039,0,0,0,0.026953,5.0886e-05,0.0081013,-0.18856,0.011702,0.023916,4.4362e-07,0.48,0.03,0
0.02344,0.0090062,0.027001,4.7768e-05,0.0081145,-0.00011468,0,0,0.049104,-0.020974,0,-0.00059635,0,0,0,0.027001,4.728e-05,0.0081145,-0.24378,0.011721,0.023961,4.4604e-07,0.49,0.03,0
0.023931,0.0091302,0.027053,4.3733e-05,0.008129,-0.00013893,0,0,0.049202,-0.021022,0,-0.00072246,0,0,0,0.027054,4.3018e-05,0.008129,-0.29472,0.011742,0.024011,4.4873e-07,0.5,0.03,0
0.024424,0.0092495,0.02711,3.9314e-05,0.0081447,-0.00016101,0,0,0.049309,-0.021074,0,-0.00083723,0,0,0,0.027111,3.8357e-05,0.0081447,-0.34076,0.011765,0.024066,4.5166e-07,0.51,0.03,0
0.024917,0.009364,0.027171,3.4717e-05,0.0081616,-0.00018073,0,0,0.049424,-0.02113,0,-0.00093979,0,0,0,0.027172,3.3513e-05,0.0081616,-0.38157,0.011789,0.024124,4.5482e-07,0.52,0.03,0
0.025412,0.0094737,0.027235,3.0105e-05,0.0081797,-0.00019804,0,0,0.049545,-0.021189,0,-0.0010298,0,0,0,0.027237,2.8664e-05,0.0081797,-0.41705,0.011815,0.024186,4.5817e-07,0.53,0.03,0
0.025908,0.0095786,0.027303,2.5607e-05,0.0081987,-0.00021294,0,0,0.049672,-0.02125,0,-0.0011073,0,0,0,0.027305,2.3945e-05,0.0081987,-0.44724,0.011843,0.02425,4.6171e-07,0.54,0.03,0
0.026406,0.009679,0.027374,2.1316e-05,0.0082186,-0.00022552,0,0,0.049804,-0.021313,0,-0.0011727,0,0,0,0.027376,1.9457e-05,0.0082186,-0.47235,0.011871,0.024317,4.6539e-07,0.55,0.03,0
0.026904,0.0097748,0.027447,1.7294e-05,0.0082393,-0.00023588,0,0,0.04994,-0.021377,0,-0.0012266,0,0,0,0.027449,1.5266e-05,0.0082393,-0.49266,0.011901,0.024385,4.6921e-07,0.56,0.03,0
0.027404,0.0098662,0.027522,1.358e-05,0.0082606,-0.00024417,0,0,0.050079,-0.021442,0,-0.0012697,0,0,0,0.027524,1.1413e-05,0.0082606,-0.50851,0.011932,0.024455,4.7314e-07,0.57,0.03,0
0.027906,0.0099533,0.027598,1.0191e-05,0.0082825,-0.00025054,0,0,0.050221,-0.021508,0,-0.0013028,0,0,0,0.027601,7.9156e-06,0.0082825,-0.52028,0.011964,0.024525,4.7716e-07,0.58,0.03,0
0.028409,0.010036,0.027676,7.1288e-06,0.0083048,-0.00025518,0,0,0.050364,-0.021574,0,-0.0013269,0,0,0,0.027678,4.7756e-06,0.0083048,-0.52836,0.011996,0.024597,4.8125e-07,0.59,0.03,0
0.028913,0.010115,0.027754,4.3852e-06,0.0083274,-0.00025824,0,0,0.050508,-0.02164,0,-0.0013428,0,0,0,0.027756,1.9822e-06,0.0083274,-0.53314,0.012028,0.024668,4.8538e-07,0.6,0.03,0
0.029419,0.01019,0.027832,1.9432e-06,0.0083502,-0.00025989,0,0,0.050653,-0.021705,0,-0.0013514,0,0,0,0.027834,-4.8348e-07,0.0083502,-0.53499,0.012061,0.02474,4.8956e-07,0.61,0.03,0
0.029926,0.010262,0.02791,-2.1871e-07,0.008373,-0.00026028,0,0,0.050797,-0.021771,0,-0.0013534,0,0,0,0.027913,-2.6456e-06,0.008373,-0.53424,0.012094,0.024812,4.9375e-07,0.62,0.03,0
0.030435,0.01033,0.027989,-2.1245e-06,0.0083959,-0.00025955,0,0,0.050941,-0.021835,0,-0.0013496,0,0,0,0.027991,-4.5309e-06,0.0083959,-0.53122,0.012127,0.024882,4.9794e-07,0.63,0.03,0
0.030945,0.010394,0.028066,-3.7989e-06,0.0084187,-0.00025783,0,0,0.051083,-0.021899,0,-0.0013407,0,0,0,0.028069,-6.1669e-06,0.0084187,-0.52621,0.01216,0.024953,5.0213e-07,0.64,0.03,0
0.031457,0.010456,0.028143,-5.2661e-06,0.0084414,-0.00025524,0,0,0.051225,-0.021961,0,-0.0013273,0,0,0,0.028146,-7.5803e-06,0.0084414,-0.51948,0.012193,0.025022,5.0629e-07,0.65,0.03,0
0.03197,0.010514,0.028219,-6.5493e-06,0.0084638,-0.00025189,0,0,0.051364,-0.022023,0,-0.0013098,0,0,0,0.028221,-8.7969e-06,0.0084638,-0.51125,0.012226,0.025091,5.1042e-07,0.66,0.03,0
0.032484,0.010569,0.028294,-7.6696e-06,0.0084859,-0.00024786,0,0,0.051501,-0.022083,0,-0.0012889,0,0,0,0.028296,-9.8401e-06,0.0084859,-0.50173,0.012257,0.025158,5.1451e-07,0.67,0.03,0
0.033,0.010621,0.028368,-8.6464e-06,0.0085077,-0.00024325,0,0,0.051636,-0.022142,0,-0.0012649,0,0,0,0.02837,-1.0731e-05,0.0085077,-0.4911,0.012289,0.025224,5.1855e-07,0.68,0.03,0
0.033517,0.01067,0.02844,-9.4969e-06,0.0085291,-0.00023812,0,0,0.051768,-0.0222,0,-0.0012382,0,0,0,0.028442,-1.149e-05,0.0085291,-0.47952,0.01232,0.025289,5.2252e-07,0.69,0.03,0
0.034035,0.010717,0.02851,-1.0236e-05,0.00855,-0.00023254,0,0,0.051897,-0.022257,0,-0.0012092,0,0,0,0.028512,-1.2132e-05,0.00855,-0.46712,0.01235,0.025352,5.2643e-07,0.7,0.03,0
0.034555,0.010761,0.028579,-1.0878e-05,0.0085705,-0.00022657,0,0,0.052022,-0.022312,0,-0.0011782,0,0,0,0.028581,-1.2673e-05,0.0085705,-0.45402,0.01238,0.025413,5.3025e-07,0.71,0.03,0
0.035075,0.010803,0.028646,-1.1434e-05,0.0085904,-0.00022026,0,0,0.052145,-0.022365,0,-0.0011453,0,0,0,0.028648,-1.3127e-05,0.0085904,-0.44033,0.012408,0.025473,5.34e-07,0.72,0.03,0
0.035597,0.010843,0.028711,-1.1914e-05,0.0086098,-0.00021365,0,0,0.052264,-0.022417,0,-0.001111,0,0,0,0.028713,-1.3503e-05,0.0086098,-0.42614,0.012436,0.025531,5.3765e-07,0.73,0.03,0
0.036121,0.01088,0.028775,-1.2327e-05,0.0086287,-0.00020678,0,0,0.052379,-0.022467,0,-0.0010753,0,0,0,0.028776,-1.3813e-05,0.0086287,-0.41154,0.012464,0.025588,5.4121e-07,0.74,0.03,0
0.036645,0.010915,0.028836,-1.2682e-05,0.0086469,-0.00019969,0,0,0.052491,-0.022515,0,-0.0010384,0,0,0,0.028837,-1.4064e-05,0.0086469,-0.39659,0.01249,0.025642,5.4467e-07,0.75,0.03,0
0.037171,0.010948,0.028895,-1.2984e-05,0.0086645,-0.00019242,0,0,0.052599,-0.022562,0,-0.0010006,0,0,0,0.028896,-1.4265e-05,0.0086645,-0.38135,0.012515,0.025695,5.4802e-07,0.76,0.03,0
0.037697,0.010979,0.028952,-1.324e-05,0.0086815,-0.00018497,0,0,0.052702,-0.022606,0,-0.00096186,0,0,0,0.028953,-1.4422e-05,0.0086815,-0.36588,0.01254,0.025745,5.5126e-07,0.77,0.03,0
0.038225,0.011008,0.029006,-1.3456e-05,0.0086979,-0.00017739,0,0,0.052802,-0.022649,0,-0.00092245,0,0,0,0.029007,-1.4541e-05,0.0086979,-0.35022,0.012564,0.025794,5.5438e-07,0.78,0.03,0
0.038753,0.011036,0.029059,-1.3637e-05,0.0087135,-0.0001697,0,0,0.052897,-0.022691,0,-0.00088242,0,0,0,0.02906,-1.4627e-05,0.0087135,-0.33442,0.012586,0.02584,5.5738e-07,0.79,0.03,0
0.039282,0.011062,0.029109,-1.3786e-05,0.0087285,-0.0001619,0,0,0.052989,-0.02273,0,-0.00084189,0,0,0,0.02911,-1.4686e-05,0.0087285,-0.31851,0.012608,0.025885,5.6027e-07,0.8,0.03,0
0.039813,0.011086,0.029156,-1.3907e-05,0.0087428,-0.00015403,0,0,0.053076,-0.022767,0,-0.00080094,0,0,0,0.029157,-1.4721e-05,0.0087428,-0.30252,0.012629,0.025927,5.6302e-07,0.81,0.03,0
0.040344,0.011108,0.029202,-1.4005e-05,0.0087564,-0.00014608,0,0,0.053158,-0.022803,0,-0.00075964,0,0,0,0.029203,-1.4736e-05,0.0087564,-0.28648,0.012648,0.025968,5.6565e-07,0.82,0.03,0
0.040876,0.011129,0.029245,-1.4082e-05,0.0087692,-0.00013809,0,0,0.053237,-0.022837,0,-0.00071805,0,0,0,0.029246,-1.4734e-05,0.0087692,-0.2704,0.012667,0.026006,5.6815e-07,0.83,0.03,0
0.041409,0.011148,0.029286,-1.4142e-05,0.0087814,-0.00013005,0,0,0.053311,-0.022868,0,-0.00067625,0,0,0,0.029286,-1.4719e-05,0.0087814,-0.2543,0.012684,0.026042,5.7052e-07,0.84,0.03,0
0.041942,0.011166,0.029324,-1.4187e-05,0.0087929,-0.00012198,0,0,0.05338,-0.022898,0,-0.00063428,0,0,0,0.029324,-1.4694e-05,0.0087929,-0.23821,0.012701,0.026076,5.7275e-07,0.85,0.03,0
0.042476,0.011183,0.02936,-1.4219e-05,0.0088036,-0.00011388,0,0,0.053445,-0.022926,0,-0.00059217,0,0,0,0.02936,-1.466e-05,0.0088036,-0.22212,0.012716,0.026107,5.7484e-07,0.86,0.03,0
0.043011,0.011198,0.029393,-1.424e-05,0.0088136,-0.00010576,0,0,0.053506,-0.022952,0,-0.00054996,0,0,0,0.029393,-1.4621e-05,0.0088136,-0.20606,0.012731,0.026137,5.768e-07,0.87,0.03,0
0.043547,0.011212,0.029424,-1.4253e-05,0.0088229,-9.7633e-05,0,0,0.053562,-0.022977,0,-0.00050769,0,0,0,0.029424,-1.4577e-05,0.0088229,-0.19002,0.012744,0.026164,5.7861e-07,0.88,0.03,0
0.044082,0.011225,0.029452,-1.426e-05,0.0088314,-8.9495e-05,0,0,0.053614,-0.022999,0,-0.00046538,0,0,0,0.029452,-1.4531e-05,0.0088314,-0.17402,0.012756,0.02619,5.8029e-07,0.89,0.03,0
0.044619,0.011236,0.029478,-1.4261e-05,0.0088392,-8.1353e-05,0,0,0.053661,-0.023019,0,-0.00042304,0,0,0,0.029478,-1.4485e-05,0.0088392,-0.15804,0.012768,0.026212,5.8182e-07,0.9,0.03,0
0.045156,0.011247,0.029502,-1.4258e-05,0.0088462,-7.3209e-05,0,0,0.053704,-0.023037,0,-0.00038069,0,0,0,0.029502,-1.444e-05,0.0088462,-0.14211,0.012778,0.026233,5.8321e-07,0.91,0.03,0
0.045693,0.011256,0.029523,-1.4253e-05,0.0088525,-6.5065e-05,0,0,0.053742,-0.023054,0,-0.00033834,0,0,0,0.029523,-1.4396e-05,0.0088525,-0.12621,0.012787,0.026252,5.8445e-07,0.92,0.03,0
0.046231,0.011264,0.029541,-1.4245e-05,0.0088581,-5.6923e-05,0,0,0.053776,-0.023068,0,-0.000296,0,0,0,0.029541,-1.4355e-05,0.0088581,-0.11035,0.012795,0.026268,5.8555e-07,0.93,0.03,0
0.046768,0.011271,0.029557,-1.4238e-05,0.0088629,-4.8783e-05,0,0,0.053805,-0.023081,0,-0.00025367,0,0,0,0.029557,-1.4318e-05,0.0088629,-0.094518,0.012802,0.026283,5.8651e-07,0.94,0.03,0
0.047307,0.011277,0.029571,-1.423e-05,0.008867,-4.0646e-05,0,0,0.05383,-0.023091,0,-0.00021136,0,0,0,0.029571,-1.4286e-05,0.008867,-0.078716,0.012808,0.026295,5.8732e-07,0.95,0.03,0
0.047845,0.011281,0.029582,-1.4223e-05,0.0088704,-3.2512e-05,0,0,0.053851,-0.0231,0,-0.00016906,0,0,0,0.029582,-1.4258e-05,0.0088704,-0.062941,0.012813,0.026305,5.8798e-07,0.96,0.03,0
0.048384,0.011285,0.029591,-1.4217e-05,0.008873,-2.4381e-05,0,0,0.053866,-0.023107,0,-0.00012678,0,0,0,0.029591,-1.4236e-05,0.008873,-0.047186,0.012816,0.026312,5.8849e-07,0.97,0.03,0
0.048922,0.011288,0.029597,-1.4212e-05,0.0088748,-1.6253e-05,0,0,0.053878,-0.023112,0,-8.4515e-05,0,0,0,0.029597,-1.4221e-05,0.0088748,-0.031448,0.012819,0.026318,5.8886e-07,0.98,0.03,0
0.049461,0.011289,0.029601,-1.4209e-05,0.0088759,-8.126e-06,0,0,0.053884,-0.023114,0,-4.2255e-05,0,0,0,0.029601,-1.4211e-05,0.0088759,-0.015721,0.012821,0.026321,5.8908e-07,0.99,0.03,0
0.05,0.01129,0.029602,-1.4208e-05,0.0088763,1.0025e-05,0,0,0.053887,-0.023115,0,5.2128e-05,0,0,0,0.029602,-1.4211e-05,0.0088763,0.019394,0.012821,0.026322,5.8916e-07,1,0.03,0
0,0,0.02932,0.012566,0.012566,0.0092499,0,0,0.043561,-4.3368e-19,0,0.0481,0,0,0,0.033422,0.0084633,0.012566,23.917,0.01815,0.023182,5.7285e-07,0,0.04,0
0.00043561,0.000481,0.029122,0.010472,0.011878,0.0090371,0,0,0.044834,-0.0036561,0,0.046993,0,0,0,0.032783,0.0068115,0.011878,22.051,0.017157,0.023845,5.9173e-07,0.01,0.04,0
0.00089668,0.00098532,0.029458,0.0081033,0.011268,0.008633,0,0,0.047292,-0.0082289,0,0.044891,0,0,0,0.032511,0.0050498,0.011268,19.479,0.016276,0.02494,6.3288e-07,0.02,0.04,0
0.0013814,0.0014848,0.029592,0.0059857,0.010673,0.0076952,0,0,0.049189,-0.012188,0,0.040015,0,0,0,0.031879,0.0036988,0.010673,16.552,0.015417,0.025421,6.3448e-07,0.03,0.04,0
0.0018805,0.0019569,0.02943,0.0044232,0.010156,0.0065045,0,0,0.050112,-0.014905,0,0.033823,0,0,0,0.03102,0.0028325,0.010156,13.742,0.01467,0.025333,6.0572e-07,0.04,0.04,0
0.0023837,0.0023895,0.029008,0.0033544,0.0097087,0.0053238,0,0,0.050178,-0.016521,0,0.027684,0,0,0,0.030069,0.0022934,0.0097087,11.271,0.014024,0.02491,5.631e-07,0.05,0.04,0
0.002884,0.0027792,0.028433,0.002608,0.0093123,0.0042677,0,0,0.049714,-0.017431,0,0.022192,0,0,0,0.02912,0.001921,0.0093123,9.1446,0.013451,0.024359,5.1845e-07,0.06,0.04,0
0.003378,0.0031265,0.027823,0.0020769,0.00897,0.0033621,0,0,0.049018,-0.017922,0,0.017483,0,0,0,0.028255,0.0016451,0.00897,7.3185,0.012957,0.023808,4.7834e-07,0.07,0.04,0
0.0038644,0.0034341,0.027245,0.0016876,0.0086797,0.0025952,0,0,0.048269,-0.018179,0,0.013495,0,0,0,0.027505,0.0014267,0.0086797,5.74,0.012537,0.023314,4.4482e-07,0.08,0.04,0
0.0043433,0.0037048,0.026729,0.0013924,0.0084366,0.001947,0,0,0.047561,-0.018315,0,0.010124,0,0,0,0.026878,0.0012437,0.0084366,4.3686,0.012186,0.022902,4.1796e-07,0.09,0.04,0
0.0048156,0.0039419,0.02629,0.0011604,0.008235,0.0013983,0,0,0.046942,-0.018394,0,0.0072711,0,0,0,0.026367,0.0010829,0.008235,3.1751,0.011895,0.022575,3.9709e-07,0.1,0.04,0
0.0052822,0.0041487,0.025927,0.00097121,0.0080694,0.00093341,0,0,0.046429,-0.018455,0,0.0048538,0,0,0,0.025962,0.00093635,0.0080694,2.1391,0.011656,0.02233,3.8133e-07,0.11,0.04,0
0.0057442,0.0043283,0.025637,0.00081148,0.0079346,0.00054032,0,0,0.046027,-0.01852,0,0.0028097,0,0,0,0.025649,0.00079972,0.0079346,1.2462,0.011461,0.022161,3.6985e-07,0.12,0.04,0
0.0062027,0.0044839,0.025414,0.0006725,0.0078261,0.00020987,0,0,0.04573,-0.018599,0,0.0010913,0,0,0,0.025416,0.00067073,0.0078261,0.48596,0.011304,0.022056,3.619e-07,0.13,0.04,0
0.0066588,0.0046187,0.025252,0.00054877,0.0077401,-6.4908e-05,0,0,0.04553,-0.018697,0,-0.00033752,0,0,0,0.025252,0.0005486,0.0077401,-0.15055,0.01118,0.022007,3.5683e-07,0.14,0.04,0
0.0071133,0.0047356,0.025141,0.00043695,0.0076735,-0.00028953,0,0,0.045416,-0.018815,0,-0.0015056,0,0,0,0.025145,0.00043356,0.0076735,-0.67138,0.011084,0.022003,3.5411e-07,0.15,0.04,0
0.0075671,0.0048378,0.025076,0.00033529,0.0076234,-0.00046866,0,0,0.045377,-0.018949,0,-0.002437,0,0,0,0.025085,0.00032642,0.0076234,-1.0848,0.011012,0.022036,3.5327e-07,0.16,0.04,0
0.0080208,0.0049281,0.025049,0.00024309,0.0075877,-0.0006065,0,0,0.0454,-0.019096,0,-0.0031538,0,0,0,0.025064,0.00022827,0.0075877,-1.3997,0.01096,0.022095,3.5393e-07,0.17,0.04,0
0.0084751,0.0050094,0.025055,0.00016025,0.0075645,-0.00070714,0,0,0.045475,-0.019251,0,-0.0036771,0,0,0,0.025075,0.00014018,0.0075645,-1.6258,0.010927,0.022175,3.5574e-07,0.18,0.04,0
0.0089303,0.0050844,0.025087,8.694e-05,0.007552,-0.00077469,0,0,0.04559,-0.019409,0,-0.0040284,0,0,0,0.025111,6.2957e-05,0.007552,-1.7732,0.010908,0.022268,3.5846e-07,0.19,0.04,0
0.0093869,0.0051554,0.02514,2.3203e-05,0.0075489,-0.0008133,0,0,0.045736,-0.019567,0,-0.0042292,0,0,0,0.025166,-3.1056e-06,0.0075489,-1.8527,0.010904,0.022371,3.6187e-07,0.2,0.04,0
0.0098451,0.0052249,0.02521,-3.1263e-05,0.0075537,-0.00082703,0,0,0.045907,-0.019721,0,-0.0043006,0,0,0,0.025237,-5.8332e-05,0.0075537,-1.8746,0.010911,0.022478,3.6581e-07,0.21,0.04,0
0.010305,0.0052947,0.025295,-7.7196e-05,0.0075653,-0.00081965,0,0,0.046097,-0.01987,0,-0.0042622,0,0,0,0.025321,-0.00010365,0.0075653,-1.8484,0.010928,0.022589,3.7017e-07,0.22,0.04,0
0.010767,0.0053667,0.02539,-0.00011564,0.0075824,-0.00079444,0,0,0.046301,-0.020015,0,-0.0041311,0,0,0,0.025415,-0.00014036,0.0075824,-1.7823,0.010952,0.022702,3.7486e-07,0.23,0.04,0
0.011231,0.0054425,0.025494,-0.00014765,0.007604,-0.00075414,0,0,0.046515,-0.020154,0,-0.0039215,0,0,0,0.025516,-0.00016981,0.007604,-1.6832,0.010984,0.022815,3.7981e-07,0.24,0.04,0
0.011697,0.0055232,0.025604,-0.00017395,0.0076289,-0.00070101,0,0,0.046734,-0.020287,0,-0.0036453,0,0,0,0.025623,-0.000193,0.0076289,-1.5566,0.01102,0.022928,3.8494e-07,0.25,0.04,0
0.012166,0.0056099,0.025717,-0.00019472,0.0076566,-0.00063709,0,0,0.046956,-0.020413,0,-0.0033128,0,0,0,0.025732,-0.00021038,0.0076566,-1.4076,0.011059,0.02304,3.9016e-07,0.26,0.04,0
0.012636,0.0057035,0.02583,-0.00020964,0.0076862,-0.00056445,0,0,0.047175,-0.020529,0,-0.0029352,0,0,0,0.025843,-0.00022187,0.0076862,-1.2412,0.011102,0.023147,3.9536e-07,0.27,0.04,0
0.013109,0.0058046,0.025942,-0.00021805,0.0077172,-0.00048549,0,0,0.047384,-0.020632,0,-0.0025245,0,0,0,0.025951,-0.00022706,0.0077172,-1.0628,0.011147,0.023247,4.0043e-07,0.28,0.04,0
0.013584,0.0059133,0.026049,-0.00021937,0.0077491,-0.00040292,0,0,0.047581,-0.020718,0,-0.0020952,0,0,0,0.026056,-0.00022555,0.0077491,-0.87855,0.011193,0.023339,4.0526e-07,0.29,0.04,0
0.014061,0.0060298,0.026151,-0.00021339,0.0077813,-0.00031976,0,0,0.047761,-0.020786,0,-0.0016627,0,0,0,0.026155,-0.00021726,0.0077813,-0.69477,0.01124,0.023421,4.0976e-07,0.3,0.04,0
0.014539,0.0061539,0.026245,-0.00020041,0.0078134,-0.00023903,0,0,0.047923,-0.020836,0,-0.001243,0,0,0,0.026247,-0.00020257,0.0078134,-0.51781,0.011286,0.023491,4.1386e-07,0.31,0.04,0
0.015019,0.0062851,0.026331,-0.00018129,0.007845,-0.00016355,0,0,0.048064,-0.020868,0,-0.00085046,0,0,0,0.026332,-0.0001823,0.007845,-0.35343,0.011332,0.02355,4.1754e-07,0.32,0.04,0
0.015501,0.0064229,0.026409,-0.00015725,0.0078754,-9.5725e-05,0,0,0.048187,-0.020885,0,-0.00049777,0,0,0,0.026409,-0.0001576,0.0078754,-0.20645,0.011376,0.023599,4.2079e-07,0.33,0.04,0
0.015983,0.0065664,0.026478,-0.00012974,0.0079045,-3.7409e-05,0,0,0.048291,-0.020889,0,-0.00019453,0,0,0,0.026478,-0.00012979,0.0079045,-0.080554,0.011418,0.023638,4.2362e-07,0.34,0.04,0
0.016466,0.0067148,0.02654,-0.00010027,0.0079319,1.0138e-05,0,0,0.048381,-0.020884,0,5.2719e-05,0,0,0,0.02654,-0.00010027,0.0079319,0.021805,0.011457,0.023669,4.2608e-07,0.35,0.04,0
0.016951,0.0068671,0.026595,-7.0259e-05,0.0079574,4.6254e-05,0,0,0.048458,-0.020872,0,0.00024052,0,0,0,0.026595,-7.0339e-05,0.0079574,0.099386,0.011494,0.023694,4.2823e-07,0.36,0.04,0
0.017436,0.0070223,0.026645,-4.1006e-05,0.0079811,7.0827e-05,0,0,0.048525,-0.020857,0,0.0003683,0,0,0,0.026645,-4.1194e-05,0.0079811,0.15207,0.011528,0.023715,4.3013e-07,0.37,0.04,0
0.017921,0.0071793,0.02669,-1.3583e-05,0.0080029,8.423e-05,0,0,0.048586,-0.020843,0,0.00043799,0,0,0,0.02669,-1.3848e-05,0.0080029,0.18072,0.01156,0.023734,4.3186e-07,0.38,0.04,0
0.018407,0.0073372,0.026732,1.117e-05,0.008023,8.7236e-05,0,0,0.048644,-0.020831,0,0.00045363,0,0,0,0.026732,1.0885e-05,0.008023,0.18705,0.011589,0.023752,4.3348e-07,0.39,0.04,0
0.018894,0.007495,0.026773,3.2647e-05,0.0080416,8.0928e-05,0,0,0.048701,-0.020823,0,0.00042083,0,0,0,0.026773,3.2402e-05,0.0080416,0.1734,0.011616,0.02377,4.3508e-07,0.4,0.04,0
0.019381,0.0076518,0.026812,5.0471e-05,0.0080588,6.6612e-05,0,0,0.048759,-0.020822,0,0.00034638,0,0,0,0.026812,5.0306e-05,0.0080588,0.14261,0.01164,0.023791,4.367e-07,0.41,0.04,0
0.019869,0.0078069,0.026852,6.4481e-05,0.0080751,4.5724e-05,0,0,0.048821,-0.020827,0,0.00023776,0,0,0,0.026853,6.4403e-05,0.0080751,0.097797,0.011664,0.023816,4.3841e-07,0.42,0.04,0
0.020358,0.0079594,0.026894,7.4705e-05,0.0080906,1.9754e-05,0,0,0.048888,-0.020841,0,0.00010272,0,0,0,0.026894,7.4691e-05,0.0080906,0.042201,0.011686,0.023844,4.4026e-07,0.43,0.04,0
0.020847,0.008109,0.026937,8.1338e-05,0.0081055,-9.8351e-06,0,0,0.048962,-0.020863,0,-5.1142e-05,0,0,0,0.026937,8.1334e-05,0.0081055,-0.020983,0.011708,0.023877,4.4227e-07,0.44,0.04,0
0.021337,0.0082549,0.026983,8.4702e-05,0.0081203,-4.1666e-05,0,0,0.049043,-0.020893,0,-0.00021666,0,0,0,0.026983,8.4638e-05,0.0081203,-0.088752,0.011729,0.023915,4.4447e-07,0.45,0.04,0
0.021828,0.0083968,0.027031,8.5213e-05,0.008135,-7.45e-05,0,0,0.049131,-0.020929,0,-0.0003874,0,0,0,0.027032,8.5007e-05,0.008135,-0.15841,0.011751,0.023958,4.4688e-07,0.46,0.04,0
0.02232,0.0085344,0.027083,8.3337e-05,0.0081499,-0.00010727,0,0,0.049226,-0.020973,0,-0.0005578,0,0,0,0.027083,8.2911e-05,0.0081499,-0.22763,0.011772,0.024006,4.495e-07,0.47,0.04,0
0.022812,0.0086675,0.027138,7.9557e-05,0.0081651,-0.00013909,0,0,0.049328,-0.021022,0,-0.00072329,0,0,0,0.027138,7.8842e-05,0.0081651,-0.29452,0.011794,0.024058,4.5231e-07,0.48,0.04,0
0.023306,0.0087959,0.027195,7.4342e-05,0.0081809,-0.00016928,0,0,0.049437,-0.021077,0,-0.00088024,0,0,0,0.027196,7.3285e-05,0.0081809,-0.3576,0.011817,0.024114,4.5532e-07,0.49,0.04,0
0.023801,0.0089194,0.027256,6.8124e-05,0.0081971,-0.00019731,0,0,0.049552,-0.021135,0,-0.001026,0,0,0,0.027257,6.6692e-05,0.0081971,-0.41579,0.01184,0.024173,4.585e-07,0.5,0.04,0
0.024297,0.0090382,0.027319,6.1284e-05,0.008214,-0.00022284,0,0,0.049672,-0.021197,0,-0.0011588,0,0,0,0.027321,5.9462e-05,0.008214,-0.46838,0.011865,0.024236,4.6185e-07,0.51,0.04,0
0.024795,0.009152,0.027384,5.4143e-05,0.0082315,-0.00024567,0,0,0.049797,-0.021261,0,-0.0012775,0,0,0,0.027386,5.1935e-05,0.0082315,-0.51497,0.01189,0.0243,4.6533e-07,0.52,0.04,0
0.025293,0.0092611,0.027452,4.6963e-05,0.0082496,-0.00026569,0,0,0.049925,-0.021327,0,-0.0013816,0,0,0,0.027454,4.4387e-05,0.0082496,-0.55543,0.011916,0.024366,4.6894e-07,0.53,0.04,0
0.025793,0.0093654,0.027521,3.9944e-05,0.0082683,-0.00028293,0,0,0.050057,-0.021394,0,-0.0014712,0,0,0,0.027524,3.7031e-05,0.0082683,-0.5898,0.011943,0.024434,4.7266e-07,0.54,0.04,0
0.026294,0.0094651,0.027592,3.3233e-05,0.0082875,-0.00029744,0,0,0.050191,-0.021461,0,-0.0015467,0,0,0,0.027595,3.0023e-05,0.0082875,-0.6183,0.011971,0.024503,4.7647e-07,0.55,0.04,0
0.026797,0.0095602,0.027664,2.6932e-05,0.0083072,-0.00030937,0,0,0.050327,-0.021529,0,-0.0016087,0,0,0,0.027667,2.3469e-05,0.0083072,-0.64126,0.011999,0.024573,4.8034e-07,0.56,0.04,0
0.027301,0.009651,0.027737,2.11e-05,0.0083274,-0.00031886,0,0,0.050465,-0.021596,0,-0.0016581,0,0,0,0.02774,1.7432e-05,0.0083274,-0.65905,0.012028,0.024642,4.8428e-07,0.57,0.04,0
0.027806,0.0097374,0.02781,1.5766e-05,0.0083478,-0.0003261,0,0,0.050603,-0.021663,0,-0.0016957,0,0,0,0.027814,1.1941e-05,0.0083478,-0.6721,0.012058,0.024712,4.8826e-07,0.58,0.04,0
0.028313,0.0098198,0.027884,1.0937e-05,0.0083686,-0.00033129,0,0,0.050741,-0.02173,0,-0.0017227,0,0,0,0.027888,6.9999e-06,0.0083686,-0.68086,0.012088,0.024782,4.9226e-07,0.59,0.04,0
0.028821,0.0098981,0.027959,6.5991e-06,0.0083895,-0.0003346,0,0,0.050879,-0.021796,0,-0.0017399,0,0,0,0.027963,2.5942e-06,0.0083895,-0.68574,0.012118,0.024851,4.9629e-07,0.6,0.04,0
0.02933,0.0099727,0.028032,2.7282e-06,0.0084106,-0.00033624,0,0,0.051017,-0.02186,0,-0.0017484,0,0,0,0.028037,-1.3046e-06,0.0084106,-0.68717,0.012149,0.024921,5.0032e-07,0.61,0.04,0
0.029841,0.010044,0.028106,-7.0804e-07,0.0084317,-0.00033636,0,0,0.051154,-0.021924,0,-0.0017491,0,0,0,0.02811,-4.7327e-06,0.0084317,-0.68553,0.012179,0.024989,5.0434e-07,0.62,0.04,0
0.030354,0.010111,0.02818,-3.7458e-06,0.0084528,-0.00033514,0,0,0.05129,-0.021987,0,-0.0017427,0,0,0,0.028184,-7.7305e-06,0.0084528,-0.6812,0.012209,0.025056,5.0835e-07,0.63,0.04,0
0.030867,0.010175,0.028252,-6.4226e-06,0.0084737,-0.00033272,0,0,0.051424,-0.022048,0,-0.0017302,0,0,0,0.028256,-1.034e-05,0.0084737,-0.67449,0.01224,0.025123,5.1234e-07,0.64,0.04,0
0.031382,0.010235,0.028324,-8.7755e-06,0.0084946,-0.00032925,0,0,0.051556,-0.022109,0,-0.0017121,0,0,0,0.028328,-1.2601e-05,0.0084946,-0.6657,0.01227,0.025188,5.1629e-07,0.65,0.04,0
0.031898,0.010293,0.028395,-1.084e-05,0.0085152,-0.00032483,0,0,0.051687,-0.022168,0,-0.0016891,0,0,0,0.028399,-1.4554e-05,0.0085152,-0.6551,0.0123,0.025253,5.202e-07,0.66,0.04,0
0.032416,0.010347,0.028464,-1.2648e-05,0.0085355,-0.0003196,0,0,0.051815,-0.022225,0,-0.0016619,0,0,0,0.028468,-1.6234e-05,0.0085355,-0.64292,0.012329,0.025316,5.2406e-07,0.67,0.04,0
0.032935,0.010399,0.028533,-1.4229e-05,0.0085556,-0.00031363,0,0,0.051941,-0.022281,0,-0.0016309,0,0,0,0.028536,-1.7674e-05,0.0085556,-0.62937,0.012358,0.025378,5.2787e-07,0.68,0.04,0
0.033455,0.010448,0.0286,-1.561e-05,0.0085753,-0.00030702,0,0,0.052064,-0.022336,0,-0.0015965,0,0,0,0.028603,-1.8904e-05,0.0085753,-0.61464,0.012386,0.025438,5.3161e-07,0.69,0.04,0
0.033976,0.010494,0.028665,-1.6815e-05,0.0085946,-0.00029985,0,0,0.052184,-0.02239,0,-0.0015592,0,0,0,0.028668,-1.995e-05,0.0085946,-0.59889,0.012414,0.025497,5.3529e-07,0.7,0.04,0
0.034498,0.010538,0.028729,-1.7865e-05,0.0086134,-0.00029218,0,0,0.052301,-0.022441,0,-0.0015194,0,0,0,0.028732,-2.0834e-05,0.0086134,-0.58227,0.012442,0.025555,5.3889e-07,0.71,0.04,0
0.035022,0.010579,0.028792,-1.8776e-05,0.0086318,-0.00028408,0,0,0.052415,-0.022492,0,-0.0014772,0,0,0,0.028794,-2.1577e-05,0.0086318,-0.56489,0.012468,0.02561,5.424e-07,0.72,0.04,0
0.035547,0.010618,0.028852,-1.9566e-05,0.0086498,-0.0002756,0,0,0.052526,-0.02254,0,-0.0014331,0,0,0,0.028855,-2.2197e-05,0.0086498,-0.54687,0.012494,0.025664,5.4583e-07,0.73,0.04,0
0.036072,0.010655,0.028911,-2.0249e-05,0.0086672,-0.0002668,0,0,0.052633,-0.022587,0,-0.0013873,0,0,0,0.028913,-2.2709e-05,0.0086672,-0.52831,0.012519,0.025717,5.4917e-07,0.74,0.04,0
0.036599,0.010689,0.028968,-2.0836e-05,0.008684,-0.0002577,0,0,0.052737,-0.022633,0,-0.00134,0,0,0,0.02897,-2.3127e-05,0.008684,-0.5093,0.012544,0.025767,5.5241e-07,0.75,0.04,0
0.037127,0.010722,0.029022,-2.134e-05,0.0087004,-0.00024836,0,0,0.052838,-0.022676,0,-0.0012915,0,0,0,0.029025,-2.3463e-05,0.0087004,-0.4899,0.012567,0.025816,5.5555e-07,0.76,0.04,0
0.037656,0.010753,0.029075,-2.1768e-05,0.0087161,-0.00023881,0,0,0.052934,-0.022718,0,-0.0012418,0,0,0,0.029077,-2.3728e-05,0.0087161,-0.47019,0.01259,0.025863,5.5859e-07,0.77,0.04,0
0.038186,0.010781,0.029126,-2.213e-05,0.0087312,-0.00022907,0,0,0.053027,-0.022759,0,-0.0011911,0,0,0,0.029128,-2.393e-05,0.0087312,-0.45023,0.012612,0.025909,5.6152e-07,0.78,0.04,0
0.038717,0.010808,0.029175,-2.2435e-05,0.0087457,-0.00021918,0,0,0.053116,-0.022797,0,-0.0011397,0,0,0,0.029177,-2.408e-05,0.0087457,-0.43007,0.012633,0.025952,5.6433e-07,0.79,0.04,0
0.039248,0.010834,0.029222,-2.2687e-05,0.0087597,-0.00020915,0,0,0.053201,-0.022834,0,-0.0010876,0,0,0,0.029223,-2.4183e-05,0.0087597,-0.40975,0.012653,0.025993,5.6703e-07,0.8,0.04,0
0.039781,0.010857,0.029266,-2.2895e-05,0.0087729,-0.00019902,0,0,0.053282,-0.022869,0,-0.0010349,0,0,0,0.029267,-2.4248e-05,0.0087729,-0.3893,0.012672,0.026033,5.6962e-07,0.81,0.04,0
0.040314,0.01088,0.029308,-2.3064e-05,0.0087855,-0.00018879,0,0,0.053359,-0.022902,0,-0.00098172,0,0,0,0.029309,-2.4279e-05,0.0087855,-0.36877,0.01269,0.02607,5.7208e-07,0.82,0.04,0
0.040848,0.0109,0.029348,-2.3199e-05,0.0087975,-0.00017849,0,0,0.053432,-0.022934,0,-0.00092816,0,0,0,0.029349,-2.4284e-05,0.0087975,-0.34817,0.012708,0.026106,5.7442e-07,0.83,0.04,0
0.041382,0.010919,0.029386,-2.3305e-05,0.0088089,-0.00016813,0,0,0.053501,-0.022964,0,-0.00087429,0,0,0,0.029387,-2.4266e-05,0.0088089,-0.32754,0.012724,0.026139,5.7664e-07,0.84,0.04,0
0.041918,0.010937,0.029422,-2.3385e-05,0.0088195,-0.00015772,0,0,0.053566,-0.022992,0,-0.00082017,0,0,0,0.029423,-2.423e-05,0.0088195,-0.3069,0.012739,0.026171,5.7873e-07,0.85,0.04,0
0.042454,0.010953,0.029455,-2.3445e-05,0.0088295,-0.00014728,0,0,0.053627,-0.023018,0,-0.00076585,0,0,0,0.029456,-2.4181e-05,0.0088295,-0.28625,0.012754,0.0262,5.8069e-07,0.86,0.04,0
0.04299,0.010968,0.029486,-2.3487e-05,0.0088388,-0.0001368,0,0,0.053683,-0.023042,0,-0.00071138,0,0,0,0.029487,-2.4121e-05,0.0088388,-0.26561,0.012767,0.026228,5.8252e-07,0.87,0.04,0
0.043527,0.010982,0.029515,-2.3514e-05,0.0088475,-0.00012631,0,0,0.053736,-0.023065,0,-0.0006568,0,0,0,0.029516,-2.4055e-05,0.0088475,-0.24499,0.01278,0.026253,5.8423e-07,0.88,0.04,0
0.044065,0.010995,0.029542,-2.3531e-05,0.0088554,-0.0001158,0,0,0.053784,-0.023085,0,-0.00060214,0,0,0,0.029542,-2.3984e-05,0.0088554,-0.2244,0.012791,0.026277,5.858e-07,0.89,0.04,0
0.044603,0.011006,0.029566,-2.3538e-05,0.0088627,-0.00010527,0,0,0.053828,-0.023104,0,-0.00054743,0,0,0,0.029566,-2.3912e-05,0.0088627,-0.20385,0.012802,0.026298,5.8723e-07,0.9,0.04,0
0.045142,0.011016,0.029588,-2.3538e-05,0.0088693,-9.4747e-05,0,0,0.053868,-0.023121,0,-0.00049268,0,0,0,0.029588,-2.3841e-05,0.0088693,-0.18332,0.012811,0.026318,5.8854e-07,0.91,0.04,0
0.04568,0.011025,0.029607,-2.3533e-05,0.0088752,-8.4216e-05,0,0,0.053904,-0.023137,0,-0.00043792,0,0,0,0.029608,-2.3773e-05,0.0088752,-0.16284,0.01282,0.026335,5.897e-07,0.92,0.04,0
0.04622,0.011033,0.029625,-2.3525e-05,0.0088804,-7.3684e-05,0,0,0.053935,-0.02315,0,-0.00038315,0,0,0,0.029625,-2.3709e-05,0.0088804,-0.14239,0.012827,0.02635,5.9074e-07,0.93,0.04,0
0.046759,0.01104,0.02964,-2.3516e-05,0.0088849,-6.3152e-05,0,0,0.053963,-0.023162,0,-0.00032839,0,0,0,0.02964,-2.365e-05,0.0088849,-0.12198,0.012834,0.026364,5.9163e-07,0.94,0.04,0
0.047299,0.011045,0.029653,-2.3506e-05,0.0088887,-5.2622e-05,0,0,0.053986,-0.023172,0,-0.00027364,0,0,0,0.029653,-2.3599e-05,0.0088887,-0.1016,0.012839,0.026375,5.9239e-07,0.95,0.04,0
0.047839,0.01105,0.029663,-2.3496e-05,0.0088918,-4.2094e-05,0,0,0.054005,-0.02318,0,-0.00021889,0,0,0,0.029663,-2.3556e-05,0.0088918,-0.081243,0.012844,0.026384,5.9301e-07,0.96,0.04,0
0.048379,0.011054,0.029671,-2.3488e-05,0.0088943,-3.1569e-05,0,0,0.05402,-0.023186,0,-0.00016416,0,0,0,0.029671,-2.3522e-05,0.0088943,-0.060912,0.012847,0.026391,5.935e-07,0.97,0.04,0
0.048919,0.011056,0.029677,-2.3482e-05,0.008896,-2.1045e-05,0,0,0.05403,-0.023191,0,-0.00010943,0,0,0,0.029677,-2.3497e-05,0.008896,-0.040598,0.01285,0.026396,5.9384e-07,0.98,0.04,0
0.04946,0.011058,0.02968,-2.3478e-05,0.0088971,-1.0522e-05,0,0,0.054037,-0.023193,0,-5.4714e-05,0,0,0,0.02968,-2.3481e-05,0.0088971,-0.020296,0.012851,0.026399,5.9405e-07,0.99,0.04,0
0.05,0.011058,0.029681,-2.3476e-05,0.0088974,9.8453e-06,0,0,0.054039,-0.023194,0,5.1196e-05,0,0,0,0.029681,-2.348e-05,0.0088974,0.01899,0.012852,0.0264,5.9412e-07,1,0.04,0
0,0,0.028158,0.012068,0.012068,0.0086613,0,0,0.041835,1.0842e-18,0,0.045039,0,0,0,0.031935,0.0082918,0.012068,23.556,0.017431,0.021999,4.9295e-07,0,0.05,0
0.00041835,0.00045039,0.028043,0.010531,0.011572,0.0085356,0,0,0.042824,-0.0027078,0,0.044385,0,0,0,0.031515,0.0070587,0.011572,22.134,0.016715,0.022541,5.0964e-07,0.01,0.05,0
0.00085649,0.00091578,0.02839,0.0087874,0.011153,0.0082921,0,0,0.044816,-0.0061513,0,0.043119,0,0,0,0.031427,0.0057503,0.011153,20.116,0.01611,0.023447,5.454e-07,0.02,0.05,0
0.0013147,0.0013786,0.028624,0.0070428,0.0107,0.0076559,0,0,0.046602,-0.0095088,0,0.039811,0,0,0,0.031064,0.0046028,0.0107,17.678,0.015456,0.024001,5.5855e-07,0.03,0.05,0
0.0017885,0.0018225,0.028672,0.0055635,0.010271,0.0067591,0,0,0.047844,-0.012239,0,0.035147,0,0,0,0.030504,0.0037317,0.010271,15.164,0.014835,0.024175,5.5065e-07,0.04,0.05,0
0.0022715,0.0022362,0.028521,0.0044134,0.0098805,0.005763,0,0,0.048467,-0.014214,0,0.029968,0,0,0,0.029828,0.0031066,0.0098805,12.776,0.014272,0.024061,5.2885e-07,0.05,0.05,0
0.0027579,0.0026141,0.028218,0.0035481,0.0095298,0.0047866,0,0,0.048589,-0.015552,0,0.02489,0,0,0,0.029114,0.0026519,0.0095298,10.604,0.013765,0.023781,5.0093e-07,0.06,0.05,0
0.0032433,0.0029542,0.027826,0.0028947,0.0092163,0.0038885,0,0,0.048386,-0.016436,0,0.02022,0,0,0,0.028419,0.0023023,0.0092163,8.6621,0.013312,0.023437,4.7237e-07,0.07,0.05,0
0.0037256,0.0032574,0.027406,0.0023938,0.0089399,0.0030884,0,0,0.048011,-0.01702,0,0.01606,0,0,0,0.027781,0.0020181,0.0089399,6.9359,0.012913,0.023094,4.4627e-07,0.08,0.05,0
0.0042036,0.0035255,0.026995,0.0020007,0.0086987,0.0023867,0,0,0.04757,-0.017415,0,0.012411,0,0,0,0.027221,0.0017749,0.0086987,5.406,0.012565,0.022787,4.239e-07,0.09,0.05,0
0.004677,0.0037609,0.026616,0.0016834,0.0084899,0.0017764,0,0,0.047129,-0.017697,0,0.0092374,0,0,0,0.026742,0.0015575,0.0084899,4.0549,0.012263,0.022533,4.0554e-07,0.1,0.05,0
0.0051461,0.0039663,0.026281,0.0014195,0.0083103,0.0012488,0,0,0.046725,-0.017916,0,0.0064939,0,0,0,0.026344,0.001357,0.0083103,2.8684,0.012004,0.022337,3.9099e-07,0.11,0.05,0
0.0056115,0.0041447,0.025994,0.0011935,0.0081564,0.00079557,0,0,0.046379,-0.018103,0,0.004137,0,0,0,0.02602,0.001168,0.0081564,1.8355,0.011781,0.022199,3.7983e-07,0.12,0.05,0
0.0060737,0.0042991,0.025756,0.000995,0.0080251,0.00040948,0,0,0.046099,-0.018278,0,0.0021293,0,0,0,0.025762,0.00098823,0.0080251,0.94719,0.011592,0.022112,3.7159e-07,0.13,0.05,0
0.0065335,0.0044325,0.025562,0.00081711,0.0079139,8.4508e-05,0,0,0.045886,-0.018452,0,0.00043944,0,0,0,0.025563,0.00081682,0.0079139,0.19567,0.011431,0.02207,3.658e-07,0.14,0.05,0
0.0069914,0.004548,0.025412,0.00065574,0.0078202,-0.00018451,0,0,0.045738,-0.018628,0,-0.00095944,0,0,0,0.025413,0.00065436,0.0078202,-0.427,0.011296,0.022066,3.6203e-07,0.15,0.05,0
0.0074482,0.0046487,0.025299,0.00050874,0.0077424,-0.00040223,0,0,0.045648,-0.018807,0,-0.0020916,0,0,0,0.025306,0.00050222,0.0077424,-0.92932,0.011183,0.022092,3.5989e-07,0.16,0.05,0
0.0079044,0.0047374,0.02522,0.00037533,0.0076787,-0.00057314,0,0,0.045608,-0.018989,0,-0.0029804,0,0,0,0.025234,0.00036211,0.0076787,-1.3208,0.011092,0.022139,3.5905e-07,0.17,0.05,0
0.0083604,0.0048171,0.025171,0.00025554,0.007628,-0.00070179,0,0,0.045612,-0.019169,0,-0.0036493,0,0,0,0.025191,0.00023579,0.007628,-1.6121,0.011018,0.022202,3.5922e-07,0.18,0.05,0
0.0088166,0.0048904,0.025148,0.00014973,0.0075893,-0.0007929,0,0,0.045652,-0.019343,0,-0.0041231,0,0,0,0.025173,0.00012461,0.0075893,-1.8149,0.010962,0.022275,3.6019e-07,0.19,0.05,0
0.0092734,0.0049599,0.025147,5.8056e-05,0.0075616,-0.00085138,0,0,0.045723,-0.019509,0,-0.0044272,0,0,0,0.025176,2.9198e-05,0.0075616,-1.9413,0.010922,0.022354,3.6181e-07,0.2,0.05,0
0.0097311,0.0050278,0.025167,-1.9973e-05,0.0075441,-0.00088206,0,0,0.04582,-0.019667,0,-0.0045867,0,0,0,0.025198,-5.0825e-05,0.0075441,-2.0033,0.010897,0.022437,3.6398e-07,0.21,0.05,0
0.01019,0.0050961,0.025205,-8.5632e-05,0.0075358,-0.00088937,0,0,0.04594,-0.019816,0,-0.0046247,0,0,0,0.025236,-0.00011687,0.0075358,-2.0116,0.010885,0.022524,3.6666e-07,0.22,0.05,0
0.01065,0.0051668,0.02526,-0.00014078,0.0075356,-0.00087697,0,0,0.046082,-0.019959,0,-0.0045603,0,0,0,0.02529,-0.00017102,0.0075356,-1.9751,0.010885,0.022615,3.6983e-07,0.23,0.05,0
0.011111,0.0052411,0.02533,-0.00018729,0.0075427,-0.0008476,0,0,0.046246,-0.020098,0,-0.0044075,0,0,0,0.025358,-0.00021542,0.0075427,-1.9004,0.010895,0.022711,3.7349e-07,0.24,0.05,0
0.011575,0.0053205,0.025413,-0.00022647,0.007556,-0.00080323,0,0,0.046428,-0.020234,0,-0.0041768,0,0,0,0.025438,-0.00025161,0.007556,-1.7926,0.010914,0.022811,3.7761e-07,0.25,0.05,0
0.01204,0.005406,0.025508,-0.00025857,0.0075748,-0.00074546,0,0,0.046626,-0.020367,0,-0.0038764,0,0,0,0.025529,-0.00028012,0.0075748,-1.6558,0.010941,0.022915,3.8211e-07,0.26,0.05,0
0.012507,0.0054984,0.025611,-0.00028289,0.0075985,-0.00067607,0,0,0.046833,-0.020492,0,-0.0035156,0,0,0,0.025629,-0.00030053,0.0075985,-1.4946,0.010976,0.02302,3.869e-07,0.27,0.05,0
0.012977,0.0055984,0.02572,-0.00029816,0.0076266,-0.00059738,0,0,0.047043,-0.020604,0,-0.0031064,0,0,0,0.025734,-0.00031187,0.0076266,-1.3146,0.011016,0.023122,3.9183e-07,0.28,0.05,0
0.013448,0.0057062,0.025831,-0.00030318,0.0076584,-0.00051243,0,0,0.047249,-0.0207,0,-0.0026646,0,0,0,0.025841,-0.00031323,0.0076584,-1.1228,0.011062,0.023219,3.9676e-07,0.29,0.05,0
0.013922,0.005822,0.025942,-0.00029746,0.0076934,-0.00042473,0,0,0.047447,-0.020776,0,-0.0022086,0,0,0,0.025949,-0.00030433,0.0076934,-0.92711,0.011113,0.023307,4.0158e-07,0.3,0.05,0
0.014397,0.0059456,0.026051,-0.00028138,0.0077307,-0.00033799,0,0,0.047632,-0.020831,0,-0.0017575,0,0,0,0.026055,-0.00028571,0.0077307,-0.73526,0.011167,0.023387,4.062e-07,0.31,0.05,0
0.014874,0.0060765,0.026155,-0.00025617,0.0077696,-0.00025563,0,0,0.047801,-0.020867,0,-0.0013293,0,0,0,0.026157,-0.00025864,0.0077696,-0.55449,0.011223,0.023456,4.1054e-07,0.32,0.05,0
0.015353,0.0062141,0.026254,-0.00022364,0.007809,-0.00018061,0,0,0.047956,-0.020885,0,-0.00093917,0,0,0,0.026255,-0.00022487,0.007809,-0.3908,0.01128,0.023516,4.1459e-07,0.33,0.05,0
0.015833,0.0063576,0.026347,-0.00018587,0.0078484,-0.00011522,0,0,0.048097,-0.020889,0,-0.00059917,0,0,0,0.026348,-0.00018637,0.0078484,-0.24881,0.011337,0.023567,4.1834e-07,0.34,0.05,0
0.016315,0.006506,0.026435,-0.000145,0.0078869,-6.1087e-05,0,0,0.048224,-0.020883,0,-0.00031765,0,0,0,0.026435,-0.00014514,0.0078869,-0.13168,0.011392,0.023612,4.2181e-07,0.35,0.05,0
0.016798,0.0066584,0.026517,-0.00010311,0.0079241,-1.9125e-05,0,0,0.048341,-0.020871,0,-9.9448e-05,0,0,0,0.026517,-0.00010312,0.0079241,-0.041163,0.011446,0.023651,4.2503e-07,0.36,0.05,0
0.017282,0.0068138,0.026594,-6.2029e-05,0.0079596,1.0365e-05,0,0,0.048449,-0.020856,0,5.39e-05,0,0,0,0.026594,-6.2033e-05,0.0079596,0.02228,0.011497,0.023687,4.2803e-07,0.37,0.05,0
0.017767,0.0069709,0.026667,-2.3317e-05,0.007993,2.7645e-05,0,0,0.048551,-0.020842,0,0.00014375,0,0,0,0.026667,-2.3346e-05,0.007993,0.059347,0.011545,0.02372,4.3088e-07,0.38,0.05,0
0.018253,0.0071289,0.026736,1.1797e-05,0.0080243,3.3445e-05,0,0,0.04865,-0.020832,0,0.00017392,0,0,0,0.026736,1.1755e-05,0.0080243,0.071706,0.011591,0.023754,4.3363e-07,0.39,0.05,0
0.01874,0.0072868,0.026802,4.2411e-05,0.0080534,2.8868e-05,0,0,0.048747,-0.020828,0,0.00015011,0,0,0,0.026802,4.238e-05,0.0080534,0.06181,0.011633,0.023789,4.3634e-07,0.4,0.05,0
0.019228,0.0074436,0.026867,6.7944e-05,0.0080804,1.5292e-05,0,0,0.048845,-0.020832,0,7.952e-05,0,0,0,0.026867,6.7936e-05,0.0080804,0.032695,0.011672,0.023825,4.3905e-07,0.41,0.05,0
0.019717,0.0075985,0.02693,8.8119e-05,0.0081055,-5.7239e-06,0,0,0.048944,-0.020845,0,-2.9764e-05,0,0,0,0.02693,8.8118e-05,0.0081055,-0.012218,0.011708,0.023866,4.4181e-07,0.42,0.05,0
0.020207,0.0077509,0.026993,0.00010294,0.0081289,-3.254e-05,0,0,0.049048,-0.020868,0,-0.00016921,0,0,0,0.026993,0.0001029,0.0081289,-0.069332,0.011742,0.02391,4.4467e-07,0.43,0.05,0
0.020698,0.0079001,0.027057,0.00011266,0.0081508,-6.3522e-05,0,0,0.049155,-0.020899,0,-0.00033032,0,0,0,0.027057,0.00011251,0.0081508,-0.13508,0.011773,0.023959,4.4764e-07,0.44,0.05,0
0.02119,0.0080457,0.02712,0.00011772,0.0081714,-9.7129e-05,0,0,0.049267,-0.02094,0,-0.00050507,0,0,0,0.027121,0.00011737,0.0081714,-0.20609,0.011803,0.024012,4.5074e-07,0.45,0.05,0
0.021683,0.0081872,0.027185,0.0001187,0.0081911,-0.00013197,0,0,0.049384,-0.020988,0,-0.00068623,0,0,0,0.027186,0.00011806,0.0081911,-0.27935,0.011832,0.024069,4.5398e-07,0.46,0.05,0
0.022177,0.0083243,0.027251,0.00011627,0.0082101,-0.00016684,0,0,0.049506,-0.021044,0,-0.00086756,0,0,0,0.027252,0.00011525,0.0082101,-0.35227,0.011859,0.02413,4.5735e-07,0.47,0.05,0
0.022673,0.0084569,0.027317,0.00011112,0.0082285,-0.00020075,0,0,0.049631,-0.021105,0,-0.0010439,0,0,0,0.027319,0.00010964,0.0082285,-0.42275,0.011886,0.024194,4.6084e-07,0.48,0.05,0
0.02317,0.0085846,0.027385,0.00010391,0.0082467,-0.00023294,0,0,0.04976,-0.021171,0,-0.0012113,0,0,0,0.027387,0.00010193,0.0082467,-0.48917,0.011912,0.024261,4.6445e-07,0.49,0.05,0
0.023668,0.0087075,0.027454,9.5266e-05,0.0082647,-0.00026282,0,0,0.049891,-0.02124,0,-0.0013667,0,0,0,0.027456,9.2741e-05,0.0082647,-0.55036,0.011938,0.02433,4.6815e-07,0.5,0.05,0
0.024168,0.0088256,0.027523,8.5717e-05,0.0082827,-0.00029002,0,0,0.050025,-0.021312,0,-0.0015081,0,0,0,0.027526,8.2652e-05,0.0082827,-0.60554,0.011964,0.0244,4.7194e-07,0.51,0.05,0
0.024669,0.0089388,0.027593,7.5725e-05,0.0083007,-0.0003143,0,0,0.050161,-0.021385,0,-0.0016343,0,0,0,0.027597,7.2136e-05,0.0083007,-0.6543,0.01199,0.024471,4.7578e-07,0.52,0.05,0
0.025171,0.0090471,0.027664,6.5658e-05,0.0083189,-0.00033555,0,0,0.050298,-0.021458,0,-0.0017449,0,0,0,0.027668,6.1579e-05,0.0083189,-0.69648,0.012016,0.024543,4.7968e-07,0.53,0.05,0
0.025675,0.0091508,0.027735,5.58e-05,0.0083373,-0.00035378,0,0,0.050435,-0.021532,0,-0.0018397,0,0,0,0.02774,5.1279e-05,0.0083373,-0.73216,0.012043,0.024615,4.8361e-07,0.54,0.05,0
0.02618,0.0092497,0.027807,4.6361e-05,0.0083559,-0.00036907,0,0,0.050572,-0.021605,0,-0.0019192,0,0,0,0.027812,4.1456e-05,0.0083559,-0.76156,0.01207,0.024686,4.8756e-07,0.55,0.05,0
0.026686,0.0093442,0.027878,3.7483e-05,0.0083747,-0.00038155,0,0,0.050709,-0.021677,0,-0.0019841,0,0,0,0.027883,3.2255e-05,0.0083747,-0.78502,0.012097,0.024758,4.9153e-07,0.56,0.05,0
0.027194,0.0094342,0.02795,2.9251e-05,0.0083937,-0.00039139,0,0,0.050846,-0.021748,0,-0.0020352,0,0,0,0.027955,2.3766e-05,0.0083937,-0.80296,0.012124,0.024828,4.955e-07,0.57,0.05,0
0.027703,0.00952,0.028021,2.171e-05,0.0084129,-0.00039878,0,0,0.050982,-0.021817,0,-0.0020736,0,0,0,0.028027,1.6031e-05,0.0084129,-0.8158,0.012152,0.024898,4.9947e-07,0.58,0.05,0
0.028214,0.0096017,0.028092,1.4866e-05,0.0084322,-0.00040392,0,0,0.051117,-0.021885,0,-0.0021004,0,0,0,0.028098,9.0568e-06,0.0084322,-0.82402,0.01218,0.024967,5.0342e-07,0.59,0.05,0
0.028726,0.0096794,0.028163,8.705e-06,0.0084515,-0.00040701,0,0,0.05125,-0.021951,0,-0.0021165,0,0,0,0.028169,2.8224e-06,0.0084515,-0.82806,0.012208,0.025035,5.0736e-07,0.6,0.05,0
0.029239,0.0097533,0.028233,3.1929e-06,0.0084709,-0.00040825,0,0,0.051382,-0.022016,0,-0.0021229,0,0,0,0.028239,-2.7099e-06,0.0084709,-0.82836,0.012236,0.025102,5.1127e-07,0.61,0.05,0
0.029753,0.0098235,0.028303,-1.7138e-06,0.0084903,-0.00040783,0,0,0.051513,-0.022079,0,-0.0021207,0,0,0,0.028309,-7.5887e-06,0.0084903,-0.82532,0.012264,0.025167,5.1515e-07,0.62,0.05,0
0.030269,0.0098901,0.028372,-6.0643e-06,0.0085097,-0.00040591,0,0,0.051641,-0.022141,0,-0.0021107,0,0,0,0.028377,-1.1869e-05,0.0085097,-0.81932,0.012292,0.025232,5.1899e-07,0.63,0.05,0
0.030786,0.0099534,0.028439,-9.9099e-06,0.0085289,-0.00040265,0,0,0.051768,-0.022201,0,-0.0020938,0,0,0,0.028445,-1.5607e-05,0.0085289,-0.8107,0.01232,0.025295,5.228e-07,0.64,0.05,0
0.031304,0.010013,0.028507,-1.3301e-05,0.008548,-0.0003982,0,0,0.051892,-0.022259,0,-0.0020707,0,0,0,0.028512,-1.886e-05,0.008548,-0.79978,0.012347,0.025357,5.2655e-07,0.65,0.05,0
0.031824,0.01007,0.028572,-1.6286e-05,0.0085668,-0.0003927,0,0,0.052014,-0.022316,0,-0.002042,0,0,0,0.028578,-2.168e-05,0.0085668,-0.78682,0.012374,0.025418,5.3026e-07,0.66,0.05,0
0.032345,0.010124,0.028637,-1.891e-05,0.0085855,-0.00038625,0,0,0.052134,-0.022371,0,-0.0020085,0,0,0,0.028642,-2.4115e-05,0.0085855,-0.7721,0.012401,0.025477,5.3391e-07,0.67,0.05,0
0.032866,0.010175,0.028701,-2.1213e-05,0.0086038,-0.00037897,0,0,0.052252,-0.022425,0,-0.0019707,0,0,0,0.028706,-2.6213e-05,0.0086038,-0.75582,0.012428,0.025535,5.3749e-07,0.68,0.05,0
0.03339,0.010224,0.028763,-2.3232e-05,0.0086219,-0.00037095,0,0,0.052366,-0.022477,0,-0.0019289,0,0,0,0.028768,-2.8011e-05,0.0086219,-0.73818,0.012454,0.025591,5.4101e-07,0.69,0.05,0
0.033914,0.010269,0.028823,-2.4999e-05,0.0086395,-0.00036228,0,0,0.052478,-0.022528,0,-0.0018838,0,0,0,0.028828,-2.9548e-05,0.0086395,-0.71936,0.012479,0.025646,5.4447e-07,0.7,0.05,0
0.034439,0.010313,0.028883,-2.6543e-05,0.0086569,-0.00035302,0,0,0.052587,-0.022577,0,-0.0018357,0,0,0,0.028887,-3.0854e-05,0.0086569,-0.69952,0.012504,0.0257,5.4784e-07,0.71,0.05,0
0.034966,0.010353,0.02894,-2.789e-05,0.0086737,-0.00034326,0,0,0.052693,-0.022624,0,-0.001785,0,0,0,0.028945,-3.1957e-05,0.0086737,-0.6788,0.012529,0.025752,5.5114e-07,0.72,0.05,0
0.035493,0.010392,0.028996,-2.9061e-05,0.0086902,-0.00033305,0,0,0.052796,-0.02267,0,-0.0017319,0,0,0,0.029,-3.2882e-05,0.0086902,-0.65733,0.012552,0.025802,5.5435e-07,0.73,0.05,0
0.036021,0.010428,0.029051,-3.0077e-05,0.0087062,-0.00032245,0,0,0.052896,-0.022714,0,-0.0016768,0,0,0,0.029054,-3.3652e-05,0.0087062,-0.6352,0.012576,0.025851,5.5747e-07,0.74,0.05,0
0.036551,0.010462,0.029103,-3.0954e-05,0.0087217,-0.00031151,0,0,0.052992,-0.022757,0,-0.0016198,0,0,0,0.029107,-3.4284e-05,0.0087217,-0.61252,0.012598,0.025898,5.605e-07,0.75,0.05,0
0.037081,0.010495,0.029154,-3.1708e-05,0.0087367,-0.00030026,0,0,0.053085,-0.022798,0,-0.0015614,0,0,0,0.029157,-3.4796e-05,0.0087367,-0.58937,0.01262,0.025943,5.6343e-07,0.76,0.05,0
0.037613,0.010525,0.029203,-3.2353e-05,0.0087512,-0.00028876,0,0,0.053175,-0.022837,0,-0.0015016,0,0,0,0.029206,-3.5204e-05,0.0087512,-0.56584,0.012641,0.025987,5.6627e-07,0.77,0.05,0
0.038145,0.010553,0.02925,-3.2901e-05,0.0087652,-0.00027704,0,0,0.053261,-0.022875,0,-0.0014406,0,0,0,0.029253,-3.5521e-05,0.0087652,-0.54199,0.012661,0.026029,5.69e-07,0.78,0.05,0
0.038678,0.01058,0.029295,-3.3363e-05,0.0087786,-0.00026512,0,0,0.053344,-0.022911,0,-0.0013786,0,0,0,0.029298,-3.576e-05,0.0087786,-0.51788,0.01268,0.026069,5.7163e-07,0.79,0.05,0
0.039212,0.010605,0.029338,-3.375e-05,0.0087914,-0.00025304,0,0,0.053422,-0.022946,0,-0.0013158,0,0,0,0.029341,-3.593e-05,0.0087914,-0.49355,0.012699,0.026107,5.7415e-07,0.8,0.05,0
0.039746,0.010628,0.02938,-3.407e-05,0.0088037,-0.00024083,0,0,0.053498,-0.022978,0,-0.0012523,0,0,0,0.029382,-3.6042e-05,0.0088037,-0.46907,0.012717,0.026144,5.7657e-07,0.81,0.05,0
0.040282,0.01065,0.029419,-3.4332e-05,0.0088154,-0.00022849,0,0,0.053569,-0.023009,0,-0.0011882,0,0,0,0.029421,-3.6104e-05,0.0088154,-0.44445,0.012733,0.026179,5.7887e-07,0.82,0.05,0
0.040818,0.01067,0.029456,-3.4543e-05,0.0088265,-0.00021607,0,0,0.053637,-0.023039,0,-0.0011235,0,0,0,0.029458,-3.6126e-05,0.0088265,-0.41975,0.012749,0.026211,5.8105e-07,0.83,0.05,0
0.041354,0.010689,0.029491,-3.4711e-05,0.008837,-0.00020356,0,0,0.053701,-0.023066,0,-0.0010585,0,0,0,0.029493,-3.6115e-05,0.008837,-0.39498,0.012764,0.026242,5.8312e-07,0.84,0.05,0
0.041892,0.010707,0.029524,-3.4842e-05,0.0088468,-0.00019099,0,0,0.053761,-0.023092,0,-0.00099314,0,0,0,0.029525,-3.6076e-05,0.0088468,-0.37018,0.012779,0.026272,5.8507e-07,0.85,0.05,0
0.04243,0.010723,0.029555,-3.494e-05,0.0088561,-0.00017837,0,0,0.053818,-0.023117,0,-0.00092751,0,0,0,0.029556,-3.6015e-05,0.0088561,-0.34536,0.012792,0.026299,5.869e-07,0.86,0.05,0
0.042968,0.010738,0.029584,-3.5012e-05,0.0088647,-0.00016571,0,0,0.053871,-0.023139,0,-0.00086167,0,0,0,0.029585,-3.5939e-05,0.0088647,-0.32053,0.012805,0.026325,5.8861e-07,0.87,0.05,0
0.043507,0.010751,0.029611,-3.5062e-05,0.0088728,-0.00015301,0,0,0.053919,-0.02316,0,-0.00079567,0,0,0,0.029612,-3.5852e-05,0.0088728,-0.29571,0.012816,0.026348,5.902e-07,0.88,0.05,0
0.044047,0.010763,0.029636,-3.5095e-05,0.0088801,-0.0001403,0,0,0.053964,-0.02318,0,-0.00072955,0,0,0,0.029636,-3.5758e-05,0.0088801,-0.27091,0.012827,0.02637,5.9167e-07,0.89,0.05,0
0.044586,0.010774,0.029658,-3.5113e-05,0.0088869,-0.00012757,0,0,0.054005,-0.023197,0,-0.00066334,0,0,0,0.029659,-3.5661e-05,0.0088869,-0.24614,0.012837,0.02639,5.9301e-07,0.9,0.05,0
0.045127,0.010784,0.029679,-3.5121e-05,0.008893,-0.00011482,0,0,0.054042,-0.023213,0,-0.00059707,0,0,0,0.029679,-3.5565e-05,0.008893,-0.2214,0.012845,0.026408,5.9423e-07,0.91,0.05,0
0.045667,0.010793,0.029697,-3.512e-05,0.0088985,-0.00010207,0,0,0.054076,-0.023227,0,-0.00053076,0,0,0,0.029697,-3.5471e-05,0.0088985,-0.19669,0.012853,0.026424,5.9532e-07,0.92,0.05,0
0.046208,0.010801,0.029713,-3.5114e-05,0.0089034,-8.9312e-05,0,0,0.054105,-0.02324,0,-0.00046442,0,0,0,0.029713,-3.5383e-05,0.0089034,-0.17202,0.01286,0.026438,5.9628e-07,0.93,0.05,0
0.046749,0.010808,0.029727,-3.5105e-05,0.0089076,-7.6553e-05,0,0,0.05413,-0.023251,0,-0.00039807,0,0,0,0.029727,-3.5302e-05,0.0089076,-0.14737,0.012866,0.02645,5.9712e-07,0.94,0.05,0
0.047291,0.010813,0.029739,-3.5095e-05,0.0089111,-6.3793e-05,0,0,0.054152,-0.02326,0,-0.00033172,0,0,0,0.029739,-3.5231e-05,0.0089111,-0.12276,0.012872,0.026461,5.9782e-07,0.95,0.05,0
0.047832,0.010818,0.029749,-3.5084e-05,0.008914,-5.1033e-05,0,0,0.05417,-0.023268,0,-0.00026537,0,0,0,0.029749,-3.5172e-05,0.008914,-0.098173,0.012876,0.026469,5.984e-07,0.96,0.05,0
0.048374,0.010821,0.029756,-3.5074e-05,0.0089163,-3.8273e-05,0,0,0.054183,-0.023273,0,-0.00019902,0,0,0,0.029756,-3.5124e-05,0.0089163,-0.073609,0.012879,0.026476,5.9886e-07,0.97,0.05,0
0.048916,0.010824,0.029761,-3.5067e-05,0.0089179,-2.5515e-05,0,0,0.054193,-0.023278,0,-0.00013268,0,0,0,0.029761,-3.5089e-05,0.0089179,-0.049063,0.012881,0.026481,5.9918e-07,0.98,0.05,0
0.049458,0.010826,0.029765,-3.5062e-05,0.0089189,-1.2757e-05,0,0,0.054199,-0.02328,0,-6.6338e-05,0,0,0,0.029765,-3.5068e-05,0.0089189,-0.024529,0.012883,0.026483,5.9937e-07,0.99,0.05,0
0.05,0.010826,0.029766,-3.5061e-05,0.0089192,9.6782e-06,0,0,0.054201,-0.023281,0,5.0327e-05,0,0,0,0.029766,-3.5064e-05,0.0089192,0.018608,0.012883,0.026484,5.9944e-07,1,0.05,0
0,0,0.02743,0.011756,0.011756,0.0082084,0,0,0.040753,1.0842e-18,0,0.042684,0,0,0,0.030942,0.0082438,0.011756,23.163,0.01698,0.021162,4.4187e-07,0,0.06,0
0.00040753,0.00042684,0.027349,0.010558,0.011372,0.0081222,0,0,0.041541,-0.0021171,0,0.042236,0,0,0,0.030635,0.007272,0.011372,22.026,0.016427,0.021607,4.5583e-07,0.01,0.06,0
0.00083081,0.00086229,0.02767,0.0092201,0.011067,0.0079396,0,0,0.043168,-0.0048023,0,0.041286,0,0,0,0.030617,0.006274,0.011067,20.358,0.015986,0.022335,4.846e-07,0.02,0.06,0
0.0012709,0.0012947,0.027929,0.0077985,0.010718,0.0074728,0,0,0.044748,-0.0075914,0,0.038858,0,0,0,0.0304,0.0053277,0.010718,18.296,0.015482,0.022859,5.0033e-07,0.03,0.06,0
0.0017258,0.0017121,0.02807,0.006481,0.010365,0.0067791,0,0,0.046032,-0.010099,0,0.035251,0,0,0,0.030022,0.0045289,0.010365,16.065,0.014972,0.023134,5.0202e-07,0.04,0.06,0
0.0021915,0.0021052,0.028068,0.0053603,0.010028,0.0059552,0,0,0.046903,-0.012137,0,0.030967,0,0,0,0.029535,0.0038933,0.010028,13.839,0.014486,0.023191,4.9263e-07,0.05,0.06,0
0.0026638,0.0024681,0.027935,0.0044485,0.0097152,0.0050912,0,0,0.047372,-0.013693,0,0.026474,0,0,0,0.028991,0.0033924,0.0097152,11.719,0.014033,0.023096,4.7652e-07,0.06,0.06,0
0.003139,0.0027978,0.027706,0.0037183,0.0094272,0.0042493,0,0,0.047524,-0.014843,0,0.022096,0,0,0,0.028436,0.0029878,0.0094272,9.7544,0.013617,0.022918,4.576e-07,0.07,0.06,0
0.0036143,0.0030937,0.027418,0.0031317,0.0091649,0.0034638,0,0,0.047458,-0.015686,0,0.018012,0,0,0,0.027902,0.0026473,0.0091649,7.9603,0.013238,0.022709,4.3863e-07,0.08,0.06,0
0.0040881,0.0033565,0.027106,0.0026538,0.0089279,0.0027499,0,0,0.047263,-0.016313,0,0.014299,0,0,0,0.027411,0.0023484,0.0089279,6.338,0.012896,0.022506,4.2122e-07,0.09,0.06,0
0.0045596,0.003588,0.026794,0.0022568,0.0087151,0.0021116,0,0,0.047004,-0.016792,0,0.010981,0,0,0,0.026974,0.0020764,0.0087151,4.883,0.012589,0.022331,4.0613e-07,0.1,0.06,0
0.0050282,0.0037904,0.026497,0.0019191,0.0085248,0.0015478,0,0,0.046727,-0.017175,0,0.0080486,0,0,0,0.026594,0.0018219,0.0085248,3.5894,0.012314,0.022193,3.9359e-07,0.11,0.06,0
0.0054941,0.0039663,0.026225,0.001625,0.008355,0.001055,0,0,0.046462,-0.017498,0,0.005486,0,0,0,0.02627,0.0015798,0.008355,2.4512,0.012068,0.022096,3.8351e-07,0.12,0.06,0
0.0059575,0.0041184,0.025982,0.0013635,0.0082038,0.0006291,0,0,0.046224,-0.017785,0,0.0032713,0,0,0,0.025998,0.0013475,0.0082038,1.4628,0.01185,0.022038,3.7566e-07,0.13,0.06,0
0.0064186,0.0042496,0.025771,0.0011273,0.0080695,0.00026589,0,0,0.046024,-0.01805,0,0.0013826,0,0,0,0.025774,0.0011244,0.0080695,0.61809,0.011656,0.022015,3.6974e-07,0.14,0.06,0
0.0068779,0.0043631,0.025591,0.00091189,0.0079509,-3.8733e-05,0,0,0.045865,-0.018301,0,-0.00020141,0,0,0,0.025591,0.00091183,0.0079509,-0.089922,0.011485,0.02202,3.6543e-07,0.15,0.06,0
0.0073359,0.0044616,0.025441,0.00071503,0.0078468,-0.00028892,0,0,0.045745,-0.018543,0,-0.0015024,0,0,0,0.025444,0.00071165,0.0078468,-0.66939,0.011334,0.022049,3.6243e-07,0.16,0.06,0
0.0077928,0.0045483,0.025319,0.00053611,0.0077565,-0.00048903,0,0,0.045662,-0.018773,0,-0.002543,0,0,0,0.025329,0.00052646,0.0077565,-1.13,0.011204,0.022093,3.6048e-07,0.17,0.06,0
0.0082491,0.004626,0.025223,0.0003755,0.0076795,-0.00064378,0,0,0.045613,-0.01899,0,-0.0033477,0,0,0,0.025239,0.00035884,0.0076795,-1.4832,0.011093,0.022147,3.5935e-07,0.18,0.06,0
0.0087051,0.0046975,0.025151,0.00023399,0.0076155,-0.00075833,0,0,0.045592,-0.019192,0,-0.0039433,0,0,0,0.025174,0.00021093,0.0076155,-1.7416,0.011,0.022207,3.5888e-07,0.19,0.06,0
0.009161,0.0047652,0.025102,0.000112,0.0075642,-0.00083828,0,0,0.045598,-0.019376,0,-0.004359,0,0,0,0.02513,8.3908e-05,0.0075642,-1.9191,0.010926,0.022269,3.5898e-07,0.2,0.06,0
0.0096171,0.0048315,0.025075,8.8809e-06,0.0075253,-0.00088925,0,0,0.04563,-0.019543,0,-0.0046241,0,0,0,0.025107,-2.2626e-05,0.0075253,-2.0292,0.01087,0.022334,3.5962e-07,0.21,0.06,0
0.010074,0.0048984,0.025071,-7.7441e-05,0.0074981,-0.00091634,0,0,0.04569,-0.019696,0,-0.004765,0,0,0,0.025104,-0.00011079,0.0074981,-2.084,0.01083,0.022402,3.6086e-07,0.22,0.06,0
0.010531,0.0049676,0.025089,-0.00015015,0.0074817,-0.00092343,0,0,0.045779,-0.019843,0,-0.0048018,0,0,0,0.025123,-0.0001839,0.0074817,-2.0926,0.010807,0.022477,3.6276e-07,0.23,0.06,0
0.010989,0.0050405,0.025129,-0.00021254,0.0074751,-0.00091289,0,0,0.045901,-0.019988,0,-0.004747,0,0,0,0.025162,-0.00024538,0.0074751,-2.0604,0.010797,0.022561,3.654e-07,0.24,0.06,0
0.011449,0.0051185,0.025192,-0.0002668,0.0074774,-0.00088582,0,0,0.046057,-0.020135,0,-0.0046063,0,0,0,0.025222,-0.00029758,0.0074774,-1.9904,0.010801,0.022656,3.6881e-07,0.25,0.06,0
0.01191,0.0052026,0.025274,-0.00031331,0.007488,-0.00084274,0,0,0.046242,-0.020283,0,-0.0043823,0,0,0,0.025301,-0.00034104,0.007488,-1.8844,0.010816,0.022761,3.7292e-07,0.26,0.06,0
0.012374,0.0052937,0.025372,-0.00035064,0.0075064,-0.00078453,0,0,0.046451,-0.020428,0,-0.0040796,0,0,0,0.025396,-0.00037454,0.0075064,-1.7453,0.010843,0.022872,3.7762e-07,0.27,0.06,0
0.012839,0.0053925,0.025483,-0.00037633,0.0075322,-0.00071314,0,0,0.046674,-0.020562,0,-0.0037083,0,0,0,0.025503,-0.00039598,0.0075322,-1.5784,0.01088,0.022985,3.8273e-07,0.28,0.06,0
0.013307,0.0054993,0.025604,-0.00038813,0.0075647,-0.00063175,0,0,0.046902,-0.020677,0,-0.0032851,0,0,0,0.025619,-0.00040348,0.0075647,-1.3915,0.010927,0.023094,3.8806e-07,0.29,0.06,0
0.013777,0.0056143,0.025729,-0.00038498,0.0076032,-0.00054452,0,0,0.047127,-0.020769,0,-0.0028315,0,0,0,0.02574,-0.00039633,0.0076032,-1.194,0.010982,0.023196,3.9345e-07,0.3,0.06,0
0.01425,0.0057372,0.025856,-0.00036737,0.0076466,-0.00045587,0,0,0.047344,-0.020836,0,-0.0023705,0,0,0,0.025864,-0.00037529,0.0076466,-0.99565,0.011045,0.023289,3.9878e-07,0.31,0.06,0
0.014724,0.0058677,0.025982,-0.00033705,0.0076935,-0.00036994,0,0,0.04755,-0.020879,0,-0.0019237,0,0,0,0.025987,-0.00034225,0.0076935,-0.80512,0.011113,0.023372,4.0396e-07,0.32,0.06,0
0.015201,0.0060052,0.026106,-0.00029651,0.0077427,-0.00029021,0,0,0.047743,-0.020902,0,-0.0015091,0,0,0,0.026109,-0.0002997,0.0077427,-0.6297,0.011184,0.023446,4.0894e-07,0.33,0.06,0
0.015679,0.0061486,0.026225,-0.00024852,0.007793,-0.00021949,0,0,0.047924,-0.020908,0,-0.0011413,0,0,0,0.026227,-0.00025034,0.007793,-0.47498,0.011256,0.023511,4.1369e-07,0.34,0.06,0
0.016159,0.0062971,0.02634,-0.00019596,0.0078432,-0.00015977,0,0,0.048092,-0.020902,0,-0.00083083,0,0,0,0.026341,-0.00019692,0.0078432,-0.34496,0.011329,0.02357,4.182e-07,0.35,0.06,0
0.016641,0.0064497,0.02645,-0.00014157,0.0078925,-0.00011236,0,0,0.048249,-0.020889,0,-0.00058428,0,0,0,0.02645,-0.00014205,0.0078925,-0.2421,0.0114,0.023623,4.2249e-07,0.36,0.06,0
0.017124,0.0066052,0.026554,-8.786e-05,0.0079399,-7.7819e-05,0,0,0.048397,-0.020872,0,-0.00040466,0,0,0,0.026555,-8.8088e-05,0.0079399,-0.16735,0.011469,0.023673,4.2658e-07,0.37,0.06,0
0.017609,0.0067625,0.026654,-3.6932e-05,0.0079851,-5.6082e-05,0,0,0.048539,-0.020857,0,-0.00029163,0,0,0,0.026654,-3.705e-05,0.0079851,-0.12039,0.011534,0.02372,4.3051e-07,0.38,0.06,0
0.018095,0.0069206,0.026749,9.5263e-06,0.0080276,-4.6551e-05,0,0,0.048676,-0.020847,0,-0.00024207,0,0,0,0.026749,9.4453e-06,0.0080276,-0.099746,0.011595,0.023768,4.3433e-07,0.39,0.06,0
0.018582,0.0070784,0.02684,5.025e-05,0.0080672,-4.8183e-05,0,0,0.04881,-0.020844,0,-0.00025055,0,0,0,0.026841,5.0163e-05,0.0080672,-0.10305,0.011653,0.023816,4.3808e-07,0.4,0.06,0
0.019071,0.0072352,0.026929,8.4385e-05,0.0081039,-5.9592e-05,0,0,0.048944,-0.020851,0,-0.00030988,0,0,0,0.026929,8.4253e-05,0.0081039,-0.12719,0.011706,0.023867,4.4181e-07,0.41,0.06,0
0.019561,0.00739,0.027014,0.00011149,0.0081377,-7.9147e-05,0,0,0.049079,-0.020868,0,-0.00041156,0,0,0,0.027014,0.00011126,0.0081377,-0.16856,0.011754,0.023922,4.4555e-07,0.42,0.06,0
0.020053,0.0075421,0.027098,0.00013151,0.0081687,-0.00010509,0,0,0.049215,-0.020897,0,-0.00054647,0,0,0,0.027098,0.0001311,0.0081687,-0.22328,0.011799,0.023981,4.4936e-07,0.43,0.06,0
0.020546,0.007691,0.027179,0.00014474,0.0081973,-0.00013565,0,0,0.049354,-0.020937,0,-0.00070538,0,0,0,0.02718,0.00014406,0.0081973,-0.28748,0.011841,0.024043,4.5323e-07,0.44,0.06,0
0.02104,0.0078361,0.02726,0.00015177,0.0082236,-0.00016914,0,0,0.049495,-0.020987,0,-0.00087955,0,0,0,0.027261,0.00015071,0.0082236,-0.35748,0.011879,0.02411,4.5718e-07,0.45,0.06,0
0.021535,0.007977,0.02734,0.00015337,0.008248,-0.00020405,0,0,0.049639,-0.021046,0,-0.0010611,0,0,0,0.027342,0.00015184,0.008248,-0.43001,0.011914,0.024181,4.6122e-07,0.46,0.06,0
0.022033,0.0081135,0.027419,0.00015042,0.0082708,-0.00023908,0,0,0.049785,-0.021113,0,-0.0012432,0,0,0,0.027421,0.00014833,0.0082708,-0.5023,0.011947,0.024254,4.6533e-07,0.47,0.06,0
0.022531,0.0082454,0.027497,0.00014386,0.0082923,-0.00027317,0,0,0.049932,-0.021186,0,-0.0014205,0,0,0,0.0275,0.00014113,0.0082923,-0.57212,0.011978,0.02433,4.6949e-07,0.48,0.06,0
0.023031,0.0083725,0.027574,0.00013456,0.0083127,-0.00030549,0,0,0.05008,-0.021263,0,-0.0015885,0,0,0,0.027578,0.00013116,0.0083127,-0.63777,0.012007,0.024407,4.7369e-07,0.49,0.06,0
0.023533,0.0084946,0.027651,0.00012335,0.0083323,-0.00033544,0,0,0.050229,-0.021343,0,-0.0017443,0,0,0,0.027655,0.00011926,0.0083323,-0.69805,0.012035,0.024485,4.7791e-07,0.5,0.06,0
0.024036,0.0086119,0.027727,0.00011094,0.0083513,-0.00036262,0,0,0.050376,-0.021425,0,-0.0018856,0,0,0,0.027731,0.00010618,0.0083513,-0.75218,0.012063,0.024563,4.8214e-07,0.51,0.06,0
0.02454,0.0087243,0.027801,9.7934e-05,0.0083698,-0.00038679,0,0,0.050522,-0.021507,0,-0.0020113,0,0,0,0.027807,9.2534e-05,0.0083698,-0.79975,0.01209,0.024642,4.8635e-07,0.52,0.06,0
0.025046,0.0088319,0.027876,8.4817e-05,0.0083881,-0.00040786,0,0,0.050667,-0.021589,0,-0.0021209,0,0,0,0.027882,7.8832e-05,0.0083881,-0.84063,0.012116,0.024719,4.9054e-07,0.53,0.06,0
0.025554,0.0089348,0.027949,7.1961e-05,0.0084062,-0.00042581,0,0,0.050811,-0.021669,0,-0.0022142,0,0,0,0.027955,6.5458e-05,0.0084062,-0.87491,0.012142,0.024795,4.947e-07,0.54,0.06,0
0.026062,0.009033,0.028021,5.9639e-05,0.0084242,-0.00044075,0,0,0.050951,-0.021748,0,-0.0022919,0,0,0,0.028028,5.2693e-05,0.0084242,-0.90284,0.012168,0.02487,4.9881e-07,0.55,0.06,0
0.026573,0.0091267,0.028092,4.8036e-05,0.0084421,-0.0004528,0,0,0.05109,-0.021825,0,-0.0023545,0,0,0,0.028099,4.0727e-05,0.0084421,-0.92477,0.012194,0.024943,5.0288e-07,0.56,0.06,0
0.027084,0.009216,0.028163,3.7264e-05,0.00846,-0.00046214,0,0,0.051227,-0.021899,0,-0.0024031,0,0,0,0.02817,2.9673e-05,0.00846,-0.9411,0.01222,0.025014,5.069e-07,0.57,0.06,0
0.027597,0.0093011,0.028232,2.7379e-05,0.0084778,-0.00046895,0,0,0.051361,-0.021971,0,-0.0024386,0,0,0,0.02824,1.9584e-05,0.0084778,-0.9523,0.012246,0.025084,5.1087e-07,0.58,0.06,0
0.028112,0.0093821,0.0283,1.8392e-05,0.0084957,-0.00047345,0,0,0.051493,-0.022041,0,-0.002462,0,0,0,0.028308,1.0469e-05,0.0084957,-0.95879,0.012271,0.025153,5.1478e-07,0.59,0.06,0
0.028627,0.0094591,0.028368,1.0284e-05,0.0085135,-0.00047584,0,0,0.051622,-0.022108,0,-0.0024744,0,0,0,0.028376,2.3015e-06,0.0085135,-0.96105,0.012297,0.025219,5.1864e-07,0.6,0.06,0
0.029144,0.0095323,0.028435,3.0113e-06,0.0085313,-0.0004763,0,0,0.051749,-0.022174,0,-0.0024767,0,0,0,0.028443,-4.9655e-06,0.0085313,-0.95948,0.012323,0.025284,5.2244e-07,0.61,0.06,0
0.029662,0.0096019,0.0285,-3.4803e-06,0.008549,-0.00047502,0,0,0.051873,-0.022237,0,-0.0024701,0,0,0,0.028508,-1.1394e-05,0.008549,-0.95448,0.012349,0.025348,5.2619e-07,0.62,0.06,0
0.030181,0.009668,0.028565,-9.2536e-06,0.0085667,-0.00047217,0,0,0.051995,-0.022297,0,-0.0024553,0,0,0,0.028573,-1.7054e-05,0.0085667,-0.94643,0.012374,0.02541,5.2988e-07,0.63,0.06,0
0.030702,0.0097306,0.028628,-1.4374e-05,0.0085842,-0.00046791,0,0,0.052115,-0.022356,0,-0.0024331,0,0,0,0.028636,-2.2015e-05,0.0085842,-0.93566,0.012399,0.02547,5.3351e-07,0.64,0.06,0
0.031224,0.0097901,0.028691,-1.8904e-05,0.0086016,-0.00046239,0,0,0.052232,-0.022413,0,-0.0024044,0,0,0,0.028698,-2.635e-05,0.0086016,-0.92248,0.012424,0.025529,5.3708e-07,0.65,0.06,0
0.031747,0.0098464,0.028752,-2.2907e-05,0.0086187,-0.00045574,0,0,0.052346,-0.022468,0,-0.0023699,0,0,0,0.028759,-3.0123e-05,0.0086187,-0.90715,0.012449,0.025586,5.4059e-07,0.66,0.06,0
0.032271,0.0098998,0.028812,-2.6438e-05,0.0086357,-0.00044807,0,0,0.052459,-0.022521,0,-0.00233,0,0,0,0.028819,-3.3398e-05,0.0086357,-0.88994,0.012474,0.025642,5.4403e-07,0.67,0.06,0
0.032796,0.0099503,0.028871,-2.9549e-05,0.0086524,-0.0004395,0,0,0.052568,-0.022573,0,-0.0022854,0,0,0,0.028878,-3.6231e-05,0.0086524,-0.87105,0.012498,0.025696,5.4741e-07,0.68,0.06,0
0.033322,0.0099981,0.028928,-3.2287e-05,0.0086688,-0.00043012,0,0,0.052675,-0.022623,0,-0.0022366,0,0,0,0.028935,-3.8673e-05,0.0086688,-0.85069,0.012522,0.025749,5.5071e-07,0.69,0.06,0
0.033849,0.010043,0.028984,-3.4692e-05,0.0086849,-0.00042001,0,0,0.052779,-0.022671,0,-0.0021841,0,0,0,0.02899,-4.077e-05,0.0086849,-0.82905,0.012545,0.0258,5.5395e-07,0.7,0.06,0
0.034378,0.010086,0.029039,-3.6802e-05,0.0087007,-0.00040927,0,0,0.05288,-0.022718,0,-0.0021282,0,0,0,0.029045,-4.2561e-05,0.0087007,-0.80627,0.012568,0.02585,5.571e-07,0.71,0.06,0
0.034907,0.010126,0.029092,-3.8648e-05,0.0087161,-0.00039795,0,0,0.052978,-0.022762,0,-0.0020694,0,0,0,0.029098,-4.4083e-05,0.0087161,-0.78252,0.01259,0.025898,5.6018e-07,0.72,0.06,0
0.035437,0.010164,0.029144,-4.026e-05,0.0087311,-0.00038614,0,0,0.053073,-0.022806,0,-0.0020079,0,0,0,0.029149,-4.5368e-05,0.0087311,-0.75791,0.012612,0.025944,5.6318e-07,0.73,0.06,0
0.035968,0.0102,0.029194,-4.1663e-05,0.0087457,-0.00037388,0,0,0.053166,-0.022847,0,-0.0019441,0,0,0,0.029199,-4.6443e-05,0.0087457,-0.73256,0.012633,0.02599,5.6609e-07,0.74,0.06,0
0.0365,0.010234,0.029243,-4.2879e-05,0.0087599,-0.00036122,0,0,0.053255,-0.022887,0,-0.0018784,0,0,0,0.029247,-4.7334e-05,0.0087599,-0.70657,0.012653,0.026033,5.6891e-07,0.75,0.06,0
0.037033,0.010266,0.029289,-4.3929e-05,0.0087736,-0.00034823,0,0,0.053341,-0.022926,0,-0.0018108,0,0,0,0.029294,-4.8063e-05,0.0087736,-0.68005,0.012673,0.026075,5.7164e-07,0.76,0.06,0
0.037567,0.010296,0.029334,-4.4831e-05,0.0087869,-0.00033493,0,0,0.053424,-0.022963,0,-0.0017417,0,0,0,0.029338,-4.8649e-05,0.0087869,-0.65308,0.012692,0.026115,5.7428e-07,0.77,0.06,0
0.038102,0.010324,0.029378,-4.5601e-05,0.0087997,-0.00032138,0,0,0.053503,-0.022998,0,-0.0016712,0,0,0,0.029382,-4.911e-05,0.0087997,-0.62572,0.012711,0.026154,5.7683e-07,0.78,0.06,0
0.038637,0.01035,0.02942,-4.6253e-05,0.008812,-0.0003076,0,0,0.05358,-0.023031,0,-0.0015995,0,0,0,0.029423,-4.9464e-05,0.008812,-0.59804,0.012728,0.026191,5.7927e-07,0.79,0.06,0
0.039173,0.010375,0.029459,-4.6802e-05,0.0088238,-0.00029363,0,0,0.053653,-0.023064,0,-0.0015269,0,0,0,0.029462,-4.9724e-05,0.0088238,-0.57011,0.012745,0.026226,5.8161e-07,0.8,0.06,0
0.03971,0.010398,0.029497,-4.7259e-05,0.0088351,-0.0002795,0,0,0.053722,-0.023094,0,-0.0014534,0,0,0,0.0295,-4.9903e-05,0.0088351,-0.54197,0.012762,0.02626,5.8385e-07,0.81,0.06,0
0.040248,0.010419,0.029534,-4.7636e-05,0.0088458,-0.00026523,0,0,0.053788,-0.023123,0,-0.0013792,0,0,0,0.029536,-5.0014e-05,0.0088458,-0.51367,0.012777,0.026292,5.8599e-07,0.82,0.06,0
0.040786,0.010439,0.029568,-4.7943e-05,0.008856,-0.00025084,0,0,0.053851,-0.02315,0,-0.0013044,0,0,0,0.02957,-5.0068e-05,0.008856,-0.48524,0.012792,0.026322,5.8802e-07,0.83,0.06,0
0.041325,0.010458,0.0296,-4.819e-05,0.0088657,-0.00023636,0,0,0.05391,-0.023176,0,-0.0012291,0,0,0,0.029602,-5.0074e-05,0.0088657,-0.45673,0.012806,0.026351,5.8994e-07,0.84,0.06,0
0.041864,0.010475,0.029631,-4.8384e-05,0.0088748,-0.0002218,0,0,0.053966,-0.0232,0,-0.0011534,0,0,0,0.029633,-5.0042e-05,0.0088748,-0.42815,0.012819,0.026378,5.9176e-07,0.85,0.06,0
0.042404,0.010491,0.02966,-4.8534e-05,0.0088833,-0.00020717,0,0,0.054018,-0.023223,0,-0.0010773,0,0,0,0.029661,-4.9979e-05,0.0088833,-0.39953,0.012831,0.026403,5.9346e-07,0.86,0.06,0
0.042945,0.010506,0.029686,-4.8647e-05,0.0088913,-0.00019249,0,0,0.054067,-0.023244,0,-0.001001,0,0,0,0.029687,-4.9893e-05,0.0088913,-0.37089,0.012843,0.026427,5.9504e-07,0.87,0.06,0
0.043486,0.010519,0.029711,-4.8729e-05,0.0088987,-0.00017777,0,0,0.054112,-0.023263,0,-0.0009244,0,0,0,0.029712,-4.9791e-05,0.0088987,-0.34224,0.012854,0.026448,5.9652e-07,0.88,0.06,0
0.044027,0.010531,0.029734,-4.8785e-05,0.0089055,-0.00016302,0,0,0.054154,-0.023281,0,-0.00084768,0,0,0,0.029735,-4.9677e-05,0.0089055,-0.3136,0.012863,0.026468,5.9788e-07,0.89,0.06,0
0.044569,0.010542,0.029755,-4.8821e-05,0.0089117,-0.00014824,0,0,0.054192,-0.023297,0,-0.00077084,0,0,0,0.029755,-4.9558e-05,0.0089117,-0.28497,0.012873,0.026487,5.9913e-07,0.9,0.06,0
0.045111,0.010552,0.029774,-4.8841e-05,0.0089174,-0.00013344,0,0,0.054226,-0.023312,0,-0.0006939,0,0,0,0.029774,-4.9438e-05,0.0089174,-0.25637,0.012881,0.026503,6.0026e-07,0.91,0.06,0
0.045653,0.010561,0.029791,-4.885e-05,0.0089225,-0.00011863,0,0,0.054257,-0.023325,0,-0.00061689,0,0,0,0.029791,-4.9321e-05,0.0089225,-0.22779,0.012888,0.026518,6.0127e-07,0.92,0.06,0
0.046196,0.010568,0.029805,-4.8849e-05,0.008927,-0.00010381,0,0,0.054284,-0.023337,0,-0.00053984,0,0,0,0.029806,-4.921e-05,0.008927,-0.19924,0.012894,0.026531,6.0216e-07,0.93,0.06,0
0.046739,0.010575,0.029818,-4.8844e-05,0.0089309,-8.899e-05,0,0,0.054308,-0.023347,0,-0.00046275,0,0,0,0.029819,-4.9109e-05,0.0089309,-0.17071,0.0129,0.026543,6.0294e-07,0.94,0.06,0
0.047282,0.01058,0.029829,-4.8835e-05,0.0089341,-7.4162e-05,0,0,0.054327,-0.023356,0,-0.00038564,0,0,0,0.029829,-4.9019e-05,0.0089341,-0.14222,0.012905,0.026552,6.036e-07,0.95,0.06,0
0.047825,0.010585,0.029838,-4.8825e-05,0.0089368,-5.9331e-05,0,0,0.054344,-0.023363,0,-0.00030852,0,0,0,0.029838,-4.8943e-05,0.0089368,-0.11374,0.012909,0.02656,6.0414e-07,0.96,0.06,0
0.048369,0.010588,0.029845,-4.8815e-05,0.0089389,-4.4499e-05,0,0,0.054356,-0.023368,0,-0.00023139,0,0,0,0.029845,-4.8882e-05,0.0089389,-0.085287,0.012912,0.026566,6.0456e-07,0.97,0.06,0
0.048913,0.010591,0.02985,-4.8808e-05,0.0089404,-2.9666e-05,0,0,0.054365,-0.023372,0,-0.00015426,0,0,0,0.02985,-4.8837e-05,0.0089404,-0.056849,0.012914,0.026571,6.0486e-07,0.98,0.06,0
0.049456,0.010592,0.029853,-4.8803e-05,0.0089413,-1.4833e-05,0,0,0.054371,-0.023374,0,-7.7132e-05,0,0,0,0.029853,-4.881e-05,0.0089413,-0.028422,0.012915,0.026573,6.0504e-07,0.99,0.06,0
0.05,0.010593,0.029854,-4.8801e-05,0.0089416,9.5232e-06,0,0,0.054373,-0.023375,0,4.952e-05,0,0,0,0.029854,-4.8804e-05,0.0089416,0.018247,0.012916,0.026574,6.051e-07,1,0.06,0
0,0,0.026975,0.011561,0.011561,0.007847,0,0,0.040078,-7.5894e-19,0,0.040805,0,0,0,0.030267,0.0082691,0.011561,22.758,0.016699,0.020551,4.0748e-07,0,0.07,0
0.00040078,0.00040805,0.026915,0.010598,0.011254,0.0077796,0,0,0.040719,-0.0017053,0,0.040454,0,0,0,0.03003,0.0074834,0.011254,21.819,0.016256,0.020917,4.1903e-07,0.01,0.07,0
0.00081437,0.00081973,0.027198,0.0095358,0.01102,0.007618,0,0,0.042063,-0.0038594,0,0.039614,0,0,0,0.03003,0.006704,0.01102,20.391,0.015918,0.021495,4.4157e-07,0.02,0.07,0
0.001242,0.0012268,0.027448,0.0083666,0.010745,0.0072454,0,0,0.04343,-0.0061824,0,0.037676,0,0,0,0.029888,0.0059273,0.010745,18.607,0.01552,0.021952,4.5633e-07,0.03,0.07,0
0.001683,0.0016206,0.027623,0.0072185,0.010452,0.0066872,0,0,0.044643,-0.0084083,0,0.034773,0,0,0,0.029619,0.0052222,0.010452,16.622,0.015098,0.022248,4.6192e-07,0.04,0.07,0
0.0021349,0.0019935,0.027697,0.0061752,0.010162,0.0059997,0,0,0.045591,-0.010365,0,0.031198,0,0,0,0.029256,0.0046156,0.010162,14.571,0.014678,0.022389,4.5934e-07,0.05,0.07,0
0.0025948,0.0023402,0.027666,0.0052711,0.0098811,0.0052461,0,0,0.04624,-0.011986,0,0.02728,0,0,0,0.028834,0.0041031,0.0098811,12.552,0.014273,0.022408,4.5089e-07,0.06,0.07,0
0.0030597,0.0026574,0.027544,0.0045062,0.0096152,0.0044793,0,0,0.046616,-0.013283,0,0.023292,0,0,0,0.028385,0.0036659,0.0096152,10.624,0.013889,0.022346,4.3909e-07,0.07,0.07,0
0.0035271,0.0029437,0.027356,0.003863,0.0093658,0.0037362,0,0,0.046775,-0.014307,0,0.019428,0,0,0,0.027936,0.0032832,0.0093658,8.8221,0.013528,0.022244,4.2602e-07,0.08,0.07,0
0.0039952,0.0031992,0.027125,0.0033193,0.0091333,0.003039,0,0,0.046779,-0.015116,0,0.015803,0,0,0,0.027507,0.0029375,0.0091333,7.1613,0.013193,0.022132,4.1316e-07,0.09,0.07,0
0.0044627,0.003425,0.026872,0.0028537,0.0089178,0.0023994,0,0,0.046682,-0.015767,0,0.012477,0,0,0,0.02711,0.0026164,0.0089178,5.6494,0.012881,0.022029,4.0137e-07,0.1,0.07,0
0.0049288,0.0036228,0.026613,0.0024482,0.0087185,0.0018225,0,0,0.046527,-0.016303,0,0.0094768,0,0,0,0.02675,0.0023115,0.0087185,4.2887,0.012593,0.021948,3.9106e-07,0.11,0.07,0
0.0053932,0.0037947,0.02636,0.0020887,0.0085345,0.0013094,0,0,0.046346,-0.016759,0,0.0068089,0,0,0,0.02643,0.0020182,0.0085345,3.0791,0.012328,0.021894,3.8237e-07,0.12,0.07,0
0.0058557,0.0039434,0.026119,0.0017646,0.008365,0.00085938,0,0,0.04616,-0.017161,0,0.0044688,0,0,0,0.026149,0.0017343,0.008365,2.0184,0.012083,0.021867,3.7523e-07,0.13,0.07,0
0.0063164,0.0040715,0.025895,0.001469,0.0082092,0.00047045,0,0,0.045983,-0.017524,0,0.0024463,0,0,0,0.025904,0.00146,0.0082092,1.103,0.011858,0.021865,3.6948e-07,0.14,0.07,0
0.0067754,0.004182,0.025691,0.0011978,0.0080667,0.0001399,0,0,0.045824,-0.017859,0,0.00072749,0,0,0,0.025692,0.001197,0.0080667,0.32725,0.011652,0.021884,3.6489e-07,0.15,0.07,0
0.0072329,0.0042778,0.025508,0.00094888,0.0079372,-0.00013559,0,0,0.045685,-0.01817,0,-0.00070509,0,0,0,0.025509,0.00094813,0.0079372,-0.31632,0.011465,0.021919,3.6126e-07,0.16,0.07,0
0.0076891,0.0043619,0.025347,0.00072228,0.0078208,-0.00036002,0,0,0.045568,-0.018456,0,-0.0018721,0,0,0,0.025352,0.00071701,0.0078208,-0.83745,0.011297,0.021963,3.5838e-07,0.17,0.07,0
0.0081443,0.0044373,0.025207,0.00051888,0.0077179,-0.00053803,0,0,0.045473,-0.018717,0,-0.0027978,0,0,0,0.025219,0.00050716,0.0077179,-1.2478,0.011148,0.022011,3.5611e-07,0.18,0.07,0
0.0085986,0.0045066,0.02509,0.00034017,0.007629,-0.00067507,0,0,0.045398,-0.018951,0,-0.0035104,0,0,0,0.025108,0.00032177,0.007629,-1.5613,0.01102,0.02206,3.5433e-07,0.19,0.07,0
0.0090522,0.0045724,0.024994,0.00018724,0.0075545,-0.00077734,0,0,0.045344,-0.019155,0,-0.0040422,0,0,0,0.025019,0.00016291,0.0075545,-1.793,0.010912,0.022107,3.5301e-07,0.2,0.07,0
0.0095055,0.0046369,0.024923,5.9475e-05,0.0074949,-0.00085145,0,0,0.045314,-0.019332,0,-0.0044275,0,0,0,0.024952,3.0352e-05,0.0074949,-1.959,0.010826,0.022154,3.5223e-07,0.21,0.07,0
0.0099585,0.0047022,0.024878,-4.6387e-05,0.0074496,-0.0009033,0,0,0.045315,-0.019489,0,-0.0046972,0,0,0,0.024911,-7.9081e-05,0.0074496,-2.0728,0.01076,0.022205,3.5212e-07,0.22,0.07,0
0.010412,0.0047699,0.024862,-0.00013571,0.0074179,-0.00093697,0,0,0.045354,-0.019639,0,-0.0048723,0,0,0,0.024897,-0.00017078,0.0074179,-2.1436,0.010715,0.022265,3.529e-07,0.23,0.07,0
0.010866,0.0048413,0.024876,-0.00021413,0.0073985,-0.00095399,0,0,0.045441,-0.019793,0,-0.0049608,0,0,0,0.024912,-0.00025035,0.0073985,-2.1744,0.010687,0.022343,3.5472e-07,0.24,0.07,0
0.011321,0.0049178,0.024921,-0.00028538,0.0073907,-0.00095376,0,0,0.045579,-0.019958,0,-0.0049595,0,0,0,0.024957,-0.00032141,0.0073907,-2.1638,0.010675,0.022439,3.5768e-07,0.25,0.07,0
0.011777,0.0050003,0.024995,-0.00034992,0.0073936,-0.00093476,0,0,0.045764,-0.020133,0,-0.0048607,0,0,0,0.02503,-0.00038435,0.0073936,-2.1093,0.01068,0.022554,3.6174e-07,0.26,0.07,0
0.012236,0.0050898,0.025095,-0.00040501,0.0074071,-0.00089619,0,0,0.04599,-0.020312,0,-0.0046602,0,0,0,0.025127,-0.00043647,0.0074071,-2.0103,0.010699,0.022683,3.6673e-07,0.27,0.07,0
0.012697,0.0051871,0.025216,-0.00044606,0.0074311,-0.00083917,0,0,0.046242,-0.020481,0,-0.0043637,0,0,0,0.025244,-0.00047347,0.0074311,-1.8709,0.010734,0.022816,3.7239e-07,0.28,0.07,0
0.013161,0.0052927,0.025353,-0.0004689,0.0074651,-0.00076707,0,0,0.046508,-0.020629,0,-0.0039888,0,0,0,0.025375,-0.00049167,0.0074651,-1.7001,0.010783,0.022948,3.7848e-07,0.29,0.07,0
0.013627,0.0054066,0.025499,-0.0004716,0.0075082,-0.00068485,0,0,0.046776,-0.020748,0,-0.0035612,0,0,0,0.025517,-0.00048965,0.0075082,-1.5095,0.010845,0.023072,3.8479e-07,0.3,0.07,0
0.014096,0.0055288,0.025651,-0.00045492,0.0075588,-0.00059789,0,0,0.04704,-0.020836,0,-0.003109,0,0,0,0.025665,-0.0004686,0.0075588,-1.3113,0.010918,0.023186,3.9113e-07,0.31,0.07,0
0.014568,0.0056589,0.025805,-0.00042139,0.0076151,-0.00051102,0,0,0.047294,-0.020895,0,-0.0026573,0,0,0,0.025815,-0.00043134,0.0076151,-1.1159,0.011,0.02329,3.9742e-07,0.32,0.07,0
0.015042,0.005796,0.025958,-0.00037424,0.0076752,-0.00042833,0,0,0.047536,-0.020928,0,-0.0022273,0,0,0,0.025965,-0.00038121,0.0076752,-0.93166,0.011086,0.023383,4.0356e-07,0.33,0.07,0
0.015519,0.0059394,0.026108,-0.00031692,0.0077375,-0.0003531,0,0,0.047765,-0.020941,0,-0.0018361,0,0,0,0.026113,-0.00032163,0.0077375,-0.76542,0.011176,0.023467,4.095e-07,0.34,0.07,0
0.015997,0.006088,0.026254,-0.000253,0.0078003,-0.00028793,0,0,0.04798,-0.020939,0,-0.0014972,0,0,0,0.026257,-0.00025613,0.0078003,-0.62227,0.011267,0.023543,4.1521e-07,0.35,0.07,0
0.016478,0.0062407,0.026394,-0.00018606,0.0078624,-0.0002346,0,0,0.048182,-0.020926,0,-0.0012199,0,0,0,0.026396,-0.00018813,0.0078624,-0.50566,0.011357,0.023612,4.2067e-07,0.36,0.07,0
0.016961,0.0063963,0.026528,-0.00011935,0.0079225,-0.00019411,0,0,0.048373,-0.020909,0,-0.0010094,0,0,0,0.026529,-0.00012076,0.0079225,-0.41734,0.011444,0.023676,4.2591e-07,0.37,0.07,0
0.017446,0.0065538,0.026655,-5.56e-05,0.0079798,-0.00016669,0,0,0.048555,-0.020892,0,-0.0008668,0,0,0,0.026656,-5.664e-05,0.0079798,-0.35755,0.011526,0.023738,4.3094e-07,0.38,0.07,0
0.017932,0.006712,0.026776,2.9623e-06,0.0080337,-0.000152,0,0,0.04873,-0.02088,0,-0.00079039,0,0,0,0.026777,2.0994e-06,0.0080337,-0.32527,0.011604,0.023798,4.3581e-07,0.39,0.07,0
0.01842,0.0068699,0.026892,5.4622e-05,0.0080839,-0.00014913,0,0,0.0489,-0.020876,0,-0.00077548,0,0,0,0.026893,5.3793e-05,0.0080839,-0.31837,0.011677,0.02386,4.4057e-07,0.4,0.07,0
0.01891,0.0070266,0.027002,9.8157e-05,0.0081302,-0.00015676,0,0,0.049068,-0.020883,0,-0.00081513,0,0,0,0.027003,9.7244e-05,0.0081302,-0.33381,0.011744,0.023924,4.4526e-07,0.41,0.07,0
0.019402,0.0071811,0.027109,0.00013288,0.0081725,-0.0001732,0,0,0.049234,-0.020903,0,-0.00090062,0,0,0,0.02711,0.00013176,0.0081725,-0.36784,0.011805,0.023991,4.4994e-07,0.42,0.07,0
0.019895,0.007333,0.027211,0.00015863,0.008211,-0.00019658,0,0,0.049401,-0.020936,0,-0.0010222,0,0,0,0.027213,0.0001572,0.008211,-0.41631,0.01186,0.024062,4.5463e-07,0.43,0.07,0
0.02039,0.0074814,0.027311,0.00017575,0.008246,-0.00022499,0,0,0.049569,-0.020983,0,-0.00117,0,0,0,0.027313,0.00017389,0.008246,-0.47503,0.011911,0.024137,4.5935e-07,0.44,0.07,0
0.020886,0.007626,0.027407,0.00018498,0.0082777,-0.00025661,0,0,0.049737,-0.021041,0,-0.0013344,0,0,0,0.02741,0.00018256,0.0082777,-0.54003,0.011957,0.024217,4.6412e-07,0.45,0.07,0
0.021384,0.0077663,0.027501,0.00018732,0.0083065,-0.0002898,0,0,0.049906,-0.02111,0,-0.001507,0,0,0,0.027504,0.00018424,0.0083065,-0.60783,0.011998,0.024299,4.6891e-07,0.46,0.07,0
0.021884,0.0079021,0.027592,0.0001839,0.0083328,-0.0003232,0,0,0.050075,-0.021187,0,-0.0016806,0,0,0,0.027596,0.00018009,0.0083328,-0.6755,0.012036,0.024384,4.7372e-07,0.47,0.07,0
0.022386,0.0080331,0.027681,0.00017592,0.0083571,-0.00035567,0,0,0.050242,-0.021271,0,-0.0018495,0,0,0,0.027686,0.00017132,0.0083571,-0.74074,0.012071,0.024471,4.7852e-07,0.48,0.07,0
0.022889,0.0081593,0.027767,0.0001645,0.0083795,-0.00038639,0,0,0.050408,-0.021359,0,-0.0020093,0,0,0,0.027773,0.00015909,0.0083795,-0.80184,0.012104,0.024558,4.8329e-07,0.49,0.07,0
0.023394,0.0082807,0.027851,0.00015069,0.0084005,-0.00041475,0,0,0.050571,-0.021449,0,-0.0021567,0,0,0,0.027857,0.00014448,0.0084005,-0.85762,0.012134,0.024645,4.8801e-07,0.5,0.07,0
0.023901,0.0083971,0.027932,0.00013538,0.0084204,-0.00044035,0,0,0.050731,-0.021541,0,-0.0022898,0,0,0,0.027939,0.00012841,0.0084204,-0.90735,0.012163,0.024731,4.9266e-07,0.51,0.07,0
0.024409,0.0085086,0.028012,0.00011933,0.0084393,-0.00046296,0,0,0.050888,-0.021632,0,-0.0024074,0,0,0,0.028019,0.00011165,0.0084393,-0.95066,0.01219,0.024815,4.9723e-07,0.52,0.07,0
0.024918,0.0086154,0.028088,0.00010314,0.0084575,-0.0004825,0,0,0.051041,-0.021721,0,-0.002509,0,0,0,0.028097,9.482e-05,0.0084575,-0.98746,0.012216,0.024897,5.017e-07,0.53,0.07,0
0.02543,0.0087174,0.028163,8.7265e-05,0.0084752,-0.00049898,0,0,0.051189,-0.021809,0,-0.0025947,0,0,0,0.028172,7.8399e-05,0.0084752,-1.0179,0.012242,0.024977,5.0607e-07,0.54,0.07,0
0.025942,0.0088148,0.028236,7.2047e-05,0.0084925,-0.0005125,0,0,0.051334,-0.021893,0,-0.002665,0,0,0,0.028245,6.2724e-05,0.0084925,-1.0421,0.012267,0.025055,5.1034e-07,0.55,0.07,0
0.026456,0.0089077,0.028307,5.7708e-05,0.0085094,-0.00052318,0,0,0.051474,-0.021975,0,-0.0027205,0,0,0,0.028317,4.8022e-05,0.0085094,-1.0606,0.012291,0.02513,5.145e-07,0.56,0.07,0
0.026972,0.0089963,0.028376,4.4385e-05,0.0085262,-0.00053121,0,0,0.05161,-0.022053,0,-0.0027623,0,0,0,0.028386,3.4429e-05,0.0085262,-1.0738,0.012316,0.025203,5.1857e-07,0.57,0.07,0
0.027488,0.0090806,0.028444,3.2143e-05,0.0085428,-0.00053677,0,0,0.051742,-0.022128,0,-0.0027912,0,0,0,0.028454,2.2006e-05,0.0085428,-1.082,0.01234,0.025273,5.2253e-07,0.58,0.07,0
0.028007,0.0091609,0.02851,2.0995e-05,0.0085592,-0.00054006,0,0,0.051871,-0.022199,0,-0.0028083,0,0,0,0.02852,1.0761e-05,0.0085592,-1.0856,0.012363,0.02534,5.264e-07,0.59,0.07,0
0.028526,0.0092372,0.028574,1.0916e-05,0.0085755,-0.00054126,0,0,0.051997,-0.022268,0,-0.0028146,0,0,0,0.028584,6.6278e-07,0.0085755,-1.0852,0.012387,0.025406,5.3018e-07,0.6,0.07,0
0.029046,0.0093098,0.028637,1.8533e-06,0.0085917,-0.00054056,0,0,0.052118,-0.022334,0,-0.0028109,0,0,0,0.028647,-8.3475e-06,0.0085917,-1.0811,0.01241,0.025469,5.3388e-07,0.61,0.07,0
0.029568,0.0093787,0.028699,-6.2593e-06,0.0086078,-0.00053814,0,0,0.052237,-0.022397,0,-0.0027983,0,0,0,0.028709,-1.6344e-05,0.0086078,-1.0736,0.012434,0.02553,5.375e-07,0.62,0.07,0
0.030091,0.0094442,0.02876,-1.3497e-05,0.0086238,-0.00053414,0,0,0.052353,-0.022457,0,-0.0027775,0,0,0,0.028769,-2.3409e-05,0.0086238,-1.0631,0.012457,0.02559,5.4103e-07,0.63,0.07,0
0.030615,0.0095063,0.028819,-1.9938e-05,0.0086397,-0.00052872,0,0,0.052466,-0.022515,0,-0.0027493,0,0,0,0.028828,-2.9628e-05,0.0086397,-1.05,0.012479,0.025647,5.4449e-07,0.64,0.07,0
0.03114,0.0095652,0.028877,-2.5659e-05,0.0086553,-0.00052202,0,0,0.052576,-0.022571,0,-0.0027145,0,0,0,0.028886,-3.5085e-05,0.0086553,-1.0344,0.012502,0.025703,5.4788e-07,0.65,0.07,0
0.031667,0.009621,0.028934,-3.0733e-05,0.0086709,-0.00051416,0,0,0.052683,-0.022624,0,-0.0026736,0,0,0,0.028943,-3.9857e-05,0.0086709,-1.0167,0.012525,0.025757,5.5119e-07,0.66,0.07,0
0.032194,0.0096738,0.028989,-3.5227e-05,0.0086862,-0.00050524,0,0,0.052788,-0.022676,0,-0.0026273,0,0,0,0.028998,-4.4019e-05,0.0086862,-0.99698,0.012547,0.025809,5.5443e-07,0.67,0.07,0
0.032723,0.0097238,0.029043,-3.9202e-05,0.0087012,-0.00049539,0,0,0.052889,-0.022725,0,-0.002576,0,0,0,0.029052,-4.7638e-05,0.0087012,-0.97559,0.012568,0.02586,5.576e-07,0.68,0.07,0
0.033252,0.0097712,0.029096,-4.2714e-05,0.008716,-0.00048468,0,0,0.052988,-0.022773,0,-0.0025204,0,0,0,0.029104,-5.0774e-05,0.008716,-0.95268,0.01259,0.025909,5.607e-07,0.69,0.07,0
0.033782,0.0098159,0.029148,-4.5812e-05,0.0087306,-0.00047321,0,0,0.053085,-0.022819,0,-0.0024607,0,0,0,0.029156,-5.348e-05,0.0087306,-0.92841,0.012611,0.025957,5.6372e-07,0.7,0.07,0
0.034314,0.0098582,0.029198,-4.854e-05,0.0087449,-0.00046106,0,0,0.053178,-0.022863,0,-0.0023975,0,0,0,0.029205,-5.5807e-05,0.0087449,-0.90294,0.012632,0.026003,5.6666e-07,0.71,0.07,0
0.034846,0.0098981,0.029247,-5.0937e-05,0.0087588,-0.00044829,0,0,0.053269,-0.022905,0,-0.0023311,0,0,0,0.029254,-5.7795e-05,0.0087588,-0.87642,0.012652,0.026048,5.6953e-07,0.72,0.07,0
0.035379,0.0099357,0.029294,-5.3038e-05,0.0087724,-0.00043498,0,0,0.053357,-0.022946,0,-0.0022619,0,0,0,0.029301,-5.9484e-05,0.0087724,-0.84897,0.012671,0.026091,5.7231e-07,0.73,0.07,0
0.035913,0.0099712,0.02934,-5.4873e-05,0.0087857,-0.00042118,0,0,0.053442,-0.022985,0,-0.0021901,0,0,0,0.029347,-6.0907e-05,0.0087857,-0.82072,0.01269,0.026132,5.7501e-07,0.74,0.07,0
0.036448,0.010005,0.029385,-5.6471e-05,0.0087985,-0.00040695,0,0,0.053525,-0.023023,0,-0.0021162,0,0,0,0.02939,-6.2095e-05,0.0087985,-0.79177,0.012709,0.026173,5.7763e-07,0.75,0.07,0
0.036984,0.010036,0.029428,-5.7855e-05,0.008811,-0.00039235,0,0,0.053604,-0.023059,0,-0.0020402,0,0,0,0.029433,-6.3075e-05,0.008811,-0.76221,0.012727,0.026211,5.8016e-07,0.76,0.07,0
0.03752,0.010066,0.029469,-5.9049e-05,0.0088231,-0.00037741,0,0,0.05368,-0.023093,0,-0.0019625,0,0,0,0.029474,-6.3872e-05,0.0088231,-0.73215,0.012744,0.026248,5.8261e-07,0.77,0.07,0
0.038057,0.010093,0.029509,-6.0072e-05,0.0088347,-0.00036218,0,0,0.053754,-0.023126,0,-0.0018833,0,0,0,0.029514,-6.4507e-05,0.0088347,-0.70164,0.012761,0.026284,5.8496e-07,0.78,0.07,0
0.038595,0.010119,0.029547,-6.0944e-05,0.0088459,-0.00034669,0,0,0.053824,-0.023158,0,-0.0018028,0,0,0,0.029551,-6.5003e-05,0.0088459,-0.67077,0.012777,0.026318,5.8722e-07,0.79,0.07,0
0.039134,0.010144,0.029584,-6.1681e-05,0.0088567,-0.00033099,0,0,0.053891,-0.023188,0,-0.0017212,0,0,0,0.029588,-6.5375e-05,0.0088567,-0.6396,0.012793,0.02635,5.8939e-07,0.8,0.07,0
0.039673,0.010166,0.029619,-6.2298e-05,0.008867,-0.0003151,0,0,0.053955,-0.023216,0,-0.0016385,0,0,0,0.029622,-6.5643e-05,0.008867,-0.60818,0.012808,0.026381,5.9146e-07,0.81,0.07,0
0.040213,0.010188,0.029652,-6.2811e-05,0.0088768,-0.00029906,0,0,0.054016,-0.023243,0,-0.0015551,0,0,0,0.029655,-6.5821e-05,0.0088768,-0.57656,0.012822,0.026411,5.9344e-07,0.82,0.07,0
0.040753,0.010207,0.029684,-6.3232e-05,0.0088861,-0.00028287,0,0,0.054073,-0.023268,0,-0.0014709,0,0,0,0.029686,-6.5922e-05,0.0088861,-0.54478,0.012835,0.026438,5.9531e-07,0.83,0.07,0
0.041294,0.010226,0.029713,-6.3574e-05,0.0088949,-0.00026658,0,0,0.054128,-0.023292,0,-0.0013862,0,0,0,0.029716,-6.596e-05,0.0088949,-0.51288,0.012848,0.026465,5.9709e-07,0.84,0.07,0
0.041836,0.010243,0.029741,-6.3847e-05,0.0089033,-0.00025018,0,0,0.054179,-0.023314,0,-0.001301,0,0,0,0.029743,-6.5947e-05,0.0089033,-0.4809,0.01286,0.026489,5.9876e-07,0.85,0.07,0
0.042378,0.010258,0.029768,-6.4061e-05,0.0089111,-0.00023372,0,0,0.054227,-0.023335,0,-0.0012153,0,0,0,0.02977,-6.5892e-05,0.0089111,-0.44884,0.012872,0.026512,6.0033e-07,0.86,0.07,0
0.04292,0.010273,0.029792,-6.4225e-05,0.0089184,-0.00021718,0,0,0.054272,-0.023355,0,-0.0011294,0,0,0,0.029794,-6.5805e-05,0.0089184,-0.41675,0.012882,0.026534,6.018e-07,0.87,0.07,0
0.043463,0.010286,0.029815,-6.4348e-05,0.0089252,-0.0002006,0,0,0.054313,-0.023373,0,-0.0010431,0,0,0,0.029816,-6.5694e-05,0.0089252,-0.38464,0.012892,0.026554,6.0316e-07,0.88,0.07,0
0.044006,0.010298,0.029836,-6.4436e-05,0.0089315,-0.00018397,0,0,0.054352,-0.023389,0,-0.00095664,0,0,0,0.029837,-6.5568e-05,0.0089315,-0.35251,0.012901,0.026572,6.0442e-07,0.89,0.07,0
0.04455,0.010308,0.029855,-6.4497e-05,0.0089372,-0.00016731,0,0,0.054387,-0.023404,0,-0.00087001,0,0,0,0.029856,-6.5433e-05,0.0089372,-0.32038,0.012909,0.026589,6.0557e-07,0.9,0.07,0
0.045094,0.010318,0.029872,-6.4536e-05,0.0089424,-0.00015062,0,0,0.054418,-0.023418,0,-0.00078325,0,0,0,0.029873,-6.5294e-05,0.0089424,-0.28827,0.012917,0.026604,6.0661e-07,0.91,0.07,0
0.045638,0.010327,0.029888,-6.4558e-05,0.008947,-0.00013392,0,0,0.054447,-0.02343,0,-0.00069639,0,0,0,0.029889,-6.5157e-05,0.008947,-0.25617,0.012923,0.026618,6.0754e-07,0.92,0.07,0
0.046183,0.010334,0.029902,-6.4568e-05,0.0089512,-0.0001172,0,0,0.054472,-0.023441,0,-0.00060945,0,0,0,0.029902,-6.5027e-05,0.0089512,-0.22409,0.01293,0.02663,6.0837e-07,0.93,0.07,0
0.046728,0.010341,0.029914,-6.4569e-05,0.0089547,-0.00010047,0,0,0.054493,-0.02345,0,-0.00052246,0,0,0,0.029914,-6.4906e-05,0.0089547,-0.19203,0.012935,0.02664,6.0909e-07,0.94,0.07,0
0.047273,0.010346,0.029924,-6.4565e-05,0.0089578,-8.3736e-05,0,0,0.054512,-0.023458,0,-0.00043543,0,0,0,0.029924,-6.4799e-05,0.0089578,-0.15998,0.012939,0.026649,6.097e-07,0.95,0.07,0
0.047818,0.010351,0.029932,-6.4558e-05,0.0089602,-6.6994e-05,0,0,0.054527,-0.023464,0,-0.00034837,0,0,0,0.029932,-6.4708e-05,0.0089602,-0.12796,0.012943,0.026656,6.1019e-07,0.96,0.07,0
0.048363,0.010354,0.029938,-6.4551e-05,0.0089622,-5.0248e-05,0,0,0.054538,-0.02347,0,-0.00026129,0,0,0,0.029939,-6.4635e-05,0.0089622,-0.095957,0.012945,0.026662,6.1058e-07,0.97,0.07,0
0.048909,0.010356,0.029943,-6.4545e-05,0.0089636,-3.35e-05,0,0,0.054547,-0.023473,0,-0.0001742,0,0,0,0.029943,-6.4582e-05,0.0089636,-0.063964,0.012947,0.026666,6.1086e-07,0.98,0.07,0
0.049454,0.010358,0.029946,-6.454e-05,0.0089644,-1.675e-05,0,0,0.054552,-0.023475,0,-8.7101e-05,0,0,0,0.029946,-6.455e-05,0.0089644,-0.03198,0.012949,0.026668,6.1102e-07,0.99,0.07,0
0.05,0.010358,0.029947,-6.4539e-05,0.0089647,9.38e-06,0,0,0.054553,-0.023476,0,4.8776e-05,0,0,0,0.029947,-6.4542e-05,0.0089647,0.017908,0.012949,0.026669,6.1108e-07,1,0.07,0
0,0,0.026713,0.011448,0.011448,0.0075526,0,0,0.039688,-2.1684e-19,0,0.039273,0,0,0,0.029818,0.0083432,0.011448,22.35,0.016536,0.020103,3.8391e-07,0,0.08,0
0.00039688,0.00039273,0.026666,0.010661,0.011198,0.0074949,0,0,0.040216,-0.0013962,0,0.038974,0,0,0,0.029628,0.0076993,0.011198,21.562,0.016175,0.020405,3.9346e-07,0.01,0.08,0
0.00080432,0.00078511,0.02691,0.0097963,0.011012,0.0073363,0,0,0.041335,-0.0031607,0,0.038149,0,0,0,0.029625,0.0070819,0.011012,20.304,0.015906,0.020857,4.1079e-07,0.02,0.08,0
0.0012236,0.001171,0.027138,0.0088212,0.010788,0.0070172,0,0,0.042511,-0.0051131,0,0.036489,0,0,0,0.029517,0.006442,0.010788,18.73,0.015582,0.021239,4.2343e-07,0.03,0.08,0
0.0016545,0.001544,0.027317,0.0078242,0.010542,0.0065487,0,0,0.043614,-0.0070674,0,0.034053,0,0,0,0.029313,0.0058285,0.010542,16.949,0.015228,0.021518,4.301e-07,0.04,0.08,0
0.0020959,0.001898,0.027424,0.0068728,0.010289,0.005964,0,0,0.04455,-0.0088821,0,0.031013,0,0,0,0.029029,0.0052674,0.010289,15.066,0.014862,0.021691,4.3098e-07,0.05,0.08,0
0.0025456,0.0022284,0.027449,0.0060059,0.010036,0.0053062,0,0,0.045272,-0.010479,0,0.027592,0,0,0,0.02869,0.0047647,0.010036,13.166,0.014497,0.021773,4.272e-07,0.06,0.08,0
0.0030013,0.0025321,0.027395,0.0052371,0.0097895,0.0046166,0,0,0.045773,-0.011836,0,0.024006,0,0,0,0.028318,0.0043136,0.0097895,11.311,0.01414,0.021789,4.2029e-07,0.07,0.08,0
0.003461,0.0028075,0.027274,0.0045631,0.0095511,0.0039285,0,0,0.046079,-0.012969,0,0.020428,0,0,0,0.027934,0.0039027,0.0095511,9.5418,0.013796,0.021764,4.1169e-07,0.08,0.08,0
0.0039229,0.0030542,0.027103,0.0039727,0.0093226,0.0032659,0,0,0.046228,-0.01391,0,0.016983,0,0,0,0.027555,0.0035204,0.0093226,7.8849,0.013466,0.021722,4.0255e-07,0.09,0.08,0
0.0043856,0.0032727,0.026896,0.003452,0.0091044,0.0026444,0,0,0.046258,-0.014696,0,0.013751,0,0,0,0.02719,0.0031574,0.0091044,6.3563,0.013151,0.02168,3.9364e-07,0.1,0.08,0
0.004848,0.0034644,0.026668,0.0029876,0.0088967,0.002073,0,0,0.046206,-0.015364,0,0.010779,0,0,0,0.026848,0.0028075,0.0088967,4.9653,0.012851,0.021648,3.8542e-07,0.11,0.08,0
0.0053097,0.0036311,0.02643,0.0025681,0.0086994,0.0015566,0,0,0.046099,-0.015941,0,0.0080942,0,0,0,0.026531,0.002467,0.0086994,3.7166,0.012566,0.021632,3.7808e-07,0.12,0.08,0
0.00577,0.0037752,0.02619,0.0021847,0.0085123,0.0010972,0,0,0.045961,-0.016452,0,0.0057054,0,0,0,0.02624,0.0021346,0.0085123,2.6116,0.012295,0.021633,3.7166e-07,0.13,0.08,0
0.0062289,0.0038992,0.025953,0.0018313,0.0083354,0.00069501,0,0,0.045807,-0.016911,0,0.003614,0,0,0,0.025973,0.0018113,0.0083354,1.649,0.01204,0.02165,3.6609e-07,0.14,0.08,0
0.0066862,0.0040059,0.025726,0.0015047,0.0081691,0.00034873,0,0,0.045647,-0.017327,0,0.0018134,0,0,0,0.025731,0.0014996,0.0081691,0.82472,0.0118,0.02168,3.6122e-07,0.15,0.08,0
0.0071418,0.0040983,0.02551,0.001204,0.0080141,5.5832e-05,0,0,0.045489,-0.017706,0,0.00029033,0,0,0,0.02551,0.0012039,0.0080141,0.13161,0.011576,0.021717,3.5692e-07,0.16,0.08,0
0.0075959,0.0041792,0.025309,0.00092986,0.0078715,-0.00018732,0,0,0.045336,-0.018048,0,-0.00097405,0,0,0,0.02531,0.00092842,0.0078715,-0.44021,0.01137,0.021757,3.5307e-07,0.17,0.08,0
0.0080486,0.0042517,0.025124,0.00068379,0.0077424,-0.00038525,0,0,0.045192,-0.018352,0,-0.0020033,0,0,0,0.02513,0.00067772,0.0077424,-0.90285,0.011183,0.021796,3.4958e-07,0.18,0.08,0
0.0084998,0.0043185,0.024959,0.00046816,0.0076281,-0.00054338,0,0,0.04506,-0.018616,0,-0.0028256,0,0,0,0.024971,0.00045611,0.0076281,-1.2704,0.011018,0.021831,3.4642e-07,0.19,0.08,0
0.0089498,0.0043821,0.024816,0.00028551,0.0075304,-0.0006685,0,0,0.044942,-0.018837,0,-0.0034762,0,0,0,0.024834,0.0002673,0.0075304,-1.5599,0.010877,0.02186,3.4363e-07,0.2,0.08,0
0.0093986,0.0044449,0.024698,0.00013583,0.0074503,-0.00076844,0,0,0.044845,-0.019017,0,-0.0039959,0,0,0,0.024722,0.00011181,0.0074503,-1.7902,0.010762,0.021885,3.4135e-07,0.21,0.08,0
0.0098467,0.0045086,0.024612,1.4251e-05,0.0073878,-0.00085048,0,0,0.044782,-0.019171,0,-0.0044225,0,0,0,0.024641,-1.512e-05,0.0073878,-1.9779,0.010671,0.021913,3.3987e-07,0.22,0.08,0
0.010294,0.0045748,0.02456,-8.828e-05,0.0073417,-0.00091891,0,0,0.044769,-0.019318,0,-0.0047783,0,0,0,0.024595,-0.00012249,0.0073417,-2.1321,0.010605,0.021958,3.3953e-07,0.23,0.08,0
0.010742,0.0046446,0.02455,-0.00018133,0.0073105,-0.00097386,0,0,0.044822,-0.019479,0,-0.0050641,0,0,0,0.024588,-0.00021962,0.0073105,-2.2516,0.01056,0.02203,3.4066e-07,0.24,0.08,0
0.011191,0.0047193,0.024581,-0.00027111,0.007293,-0.0010119,0,0,0.044949,-0.019667,0,-0.0052617,0,0,0,0.024622,-0.00031224,0.007293,-2.3277,0.010534,0.022134,3.4342e-07,0.25,0.08,0
0.011641,0.0047999,0.024654,-0.00035821,0.0072886,-0.001028,0,0,0.045149,-0.019882,0,-0.0053458,0,0,0,0.024696,-0.00040039,0.0072886,-2.3497,0.010528,0.02227,3.4776e-07,0.26,0.08,0
0.012094,0.0048875,0.024763,-0.00043755,0.0072976,-0.0010187,0,0,0.045409,-0.020111,0,-0.0052974,0,0,0,0.024804,-0.00047867,0.0072976,-2.3112,0.010541,0.022429,3.5345e-07,0.27,0.08,0
0.012549,0.0049829,0.024902,-0.00050083,0.0073203,-0.00098369,0,0,0.045712,-0.020335,0,-0.0051152,0,0,0,0.02494,-0.00053887,0.0073203,-2.2143,0.010574,0.022598,3.6013e-07,0.28,0.08,0
0.013008,0.0050867,0.025063,-0.00054047,0.0073568,-0.00092659,0,0,0.046037,-0.020533,0,-0.0048183,0,0,0,0.025097,-0.00057396,0.0073568,-2.0699,0.010627,0.022766,3.6743e-07,0.29,0.08,0
0.01347,0.0051993,0.02524,-0.00055329,0.007406,-0.00085376,0,0,0.046368,-0.020694,0,-0.0044395,0,0,0,0.025268,-0.00058152,0.007406,-1.8937,0.010698,0.022925,3.7507e-07,0.3,0.08,0
0.013935,0.0053205,0.025426,-0.00054094,0.0074655,-0.00077177,0,0,0.046697,-0.020817,0,-0.0040132,0,0,0,0.025449,-0.00056386,0.0074655,-1.7009,0.010784,0.023071,3.8285e-07,0.31,0.08,0
0.014404,0.0054499,0.025617,-0.00050733,0.0075328,-0.00068614,0,0,0.047018,-0.020904,0,-0.0035679,0,0,0,0.025635,-0.00052534,0.0075328,-1.5035,0.010881,0.023205,3.9064e-07,0.32,0.08,0
0.014876,0.0055866,0.025808,-0.00045628,0.0076054,-0.00060129,0,0,0.047325,-0.02096,0,-0.0031267,0,0,0,0.025821,-0.00047003,0.0076054,-1.3108,0.010986,0.023327,3.9831e-07,0.33,0.08,0
0.01535,0.0057298,0.025995,-0.00039144,0.0076811,-0.00052123,0,0,0.047617,-0.020989,0,-0.0027104,0,0,0,0.026006,-0.00040174,0.0076811,-1.1312,0.011095,0.023436,4.0576e-07,0.34,0.08,0
0.015828,0.0058784,0.026177,-0.00031716,0.007758,-0.00044942,0,0,0.04789,-0.020995,0,-0.002337,0,0,0,0.026185,-0.00032478,0.007758,-0.97154,0.011206,0.023533,4.1291e-07,0.35,0.08,0
0.016308,0.0060312,0.026351,-0.00023801,0.007834,-0.0003885,0,0,0.048145,-0.020987,0,-0.0020202,0,0,0,0.026357,-0.00024369,0.007834,-0.83693,0.011316,0.023621,4.1974e-07,0.36,0.08,0
0.016791,0.006187,0.026517,-0.00015823,0.0079076,-0.00034005,0,0,0.048384,-0.020971,0,-0.0017683,0,0,0,0.026521,-0.00016256,0.0079076,-0.73025,0.011422,0.023702,4.2624e-07,0.37,0.08,0
0.017276,0.0063446,0.026673,-8.1236e-05,0.0079776,-0.00030478,0,0,0.048609,-0.020953,0,-0.0015849,0,0,0,0.026677,-8.4707e-05,0.0079776,-0.65259,0.011523,0.023779,4.3244e-07,0.38,0.08,0
0.017763,0.006503,0.026821,-9.8435e-06,0.0080434,-0.00028272,0,0,0.048822,-0.020938,0,-0.0014701,0,0,0,0.026824,-1.2822e-05,0.0080434,-0.60363,0.011618,0.023852,4.3838e-07,0.39,0.08,0
0.018252,0.0066609,0.026961,5.3643e-05,0.0081044,-0.00027323,0,0,0.049027,-0.020932,0,-0.0014208,0,0,0,0.026964,5.0869e-05,0.0081044,-0.58173,0.011706,0.023925,4.4413e-07,0.4,0.08,0
0.018744,0.0068175,0.027094,0.00010746,0.0081603,-0.0002751,0,0,0.049226,-0.020937,0,-0.0014305,0,0,0,0.027096,0.00010466,0.0081603,-0.584,0.011787,0.024,4.4975e-07,0.41,0.08,0
0.019237,0.0069719,0.02722,0.00015054,0.0082111,-0.00028659,0,0,0.049423,-0.020957,0,-0.0014903,0,0,0,0.027223,0.00014751,0.0082111,-0.60652,0.01186,0.024078,4.553e-07,0.42,0.08,0
0.019732,0.0071234,0.02734,0.00018257,0.0082568,-0.00030567,0,0,0.049617,-0.020993,0,-0.0015895,0,0,0,0.027344,0.00017913,0.0082568,-0.64477,0.011926,0.024161,4.6082e-07,0.43,0.08,0
0.020229,0.0072713,0.027456,0.00020395,0.0082979,-0.00033022,0,0,0.04981,-0.021044,0,-0.0017171,0,0,0,0.02746,0.00019995,0.0082979,-0.69414,0.011986,0.024247,4.6634e-07,0.44,0.08,0
0.020728,0.0074153,0.027567,0.0002156,0.0083346,-0.00035825,0,0,0.050003,-0.021109,0,-0.0018629,0,0,0,0.027571,0.00021091,0.0083346,-0.75031,0.012039,0.024338,4.7186e-07,0.45,0.08,0
0.021229,0.0075548,0.027673,0.00021878,0.0083675,-0.00038803,0,0,0.050194,-0.021187,0,-0.0020177,0,0,0,0.027678,0.0002133,0.0083675,-0.80958,0.012086,0.024431,4.7736e-07,0.46,0.08,0
0.021732,0.0076898,0.027775,0.00021495,0.008397,-0.00041808,0,0,0.050383,-0.021273,0,-0.002174,0,0,0,0.027782,0.00020861,0.008397,-0.86889,0.012129,0.024526,4.8281e-07,0.47,0.08,0
0.022237,0.00782,0.027873,0.00020559,0.0084237,-0.00044728,0,0,0.050569,-0.021367,0,-0.0023259,0,0,0,0.02788,0.00019836,0.0084237,-0.92593,0.012167,0.024622,4.882e-07,0.48,0.08,0
0.022743,0.0079453,0.027967,0.00019209,0.0084478,-0.00047478,0,0,0.050751,-0.021465,0,-0.0024689,0,0,0,0.027975,0.00018397,0.0084478,-0.97902,0.012202,0.024718,4.935e-07,0.49,0.08,0
0.023252,0.0080656,0.028057,0.00017572,0.0084699,-0.0005,0,0,0.050927,-0.021565,0,-0.0026,0,0,0,0.028066,0.00016676,0.0084699,-1.027,0.012234,0.024813,4.9867e-07,0.5,0.08,0
0.023762,0.0081811,0.028144,0.00015758,0.0084904,-0.00052255,0,0,0.051099,-0.021665,0,-0.0027173,0,0,0,0.028153,0.00014782,0.0084904,-1.0693,0.012264,0.024905,5.0371e-07,0.51,0.08,0
0.024274,0.0082917,0.028226,0.00013857,0.0085095,-0.00054226,0,0,0.051264,-0.021764,0,-0.0028197,0,0,0,0.028237,0.0001281,0.0085095,-1.1056,0.012291,0.024995,5.0859e-07,0.52,0.08,0
0.024787,0.0083975,0.028306,0.0001194,0.0085275,-0.00055904,0,0,0.051423,-0.021861,0,-0.002907,0,0,0,0.028317,0.00010832,0.0085275,-1.1358,0.012318,0.025082,5.1331e-07,0.53,0.08,0
0.025302,0.0084986,0.028381,0.00010063,0.0085446,-0.00057293,0,0,0.051576,-0.021954,0,-0.0029793,0,0,0,0.028393,8.9026e-05,0.0085446,-1.1601,0.012342,0.025165,5.1786e-07,0.54,0.08,0
0.025819,0.0085951,0.028454,8.2633e-05,0.0085611,-0.00058404,0,0,0.051722,-0.022044,0,-0.003037,0,0,0,0.028466,7.0615e-05,0.0085611,-1.1788,0.012366,0.025245,5.2226e-07,0.55,0.08,0
0.026337,0.0086872,0.028525,6.5676e-05,0.0085771,-0.0005925,0,0,0.051863,-0.02213,0,-0.003081,0,0,0,0.028537,5.3346e-05,0.0085771,-1.1922,0.012389,0.025322,5.2649e-07,0.56,0.08,0
0.026856,0.008775,0.028592,4.9913e-05,0.0085926,-0.00059849,0,0,0.051999,-0.022211,0,-0.0031121,0,0,0,0.028605,3.7369e-05,0.0085926,-1.2007,0.012412,0.025395,5.3058e-07,0.57,0.08,0
0.027377,0.0088585,0.028657,3.5413e-05,0.0086079,-0.00060216,0,0,0.052129,-0.022288,0,-0.0031313,0,0,0,0.02867,2.275e-05,0.0086079,-1.2047,0.012434,0.025464,5.3452e-07,0.58,0.08,0
0.027899,0.0089381,0.028721,2.2189e-05,0.0086229,-0.00060371,0,0,0.052254,-0.022362,0,-0.0031393,0,0,0,0.028733,9.4945e-06,0.0086229,-1.2046,0.012455,0.025531,5.3834e-07,0.59,0.08,0
0.028422,0.0090138,0.028782,1.0208e-05,0.0086377,-0.00060331,0,0,0.052375,-0.022431,0,-0.0031372,0,0,0,0.028795,-2.4374e-06,0.0086377,-1.2007,0.012477,0.025595,5.4203e-07,0.6,0.08,0
0.028946,0.0090857,0.028842,-5.9217e-07,0.0086523,-0.0006011,0,0,0.052492,-0.022498,0,-0.0031258,0,0,0,0.028854,-1.3114e-05,0.0086523,-1.1934,0.012498,0.025657,5.4561e-07,0.61,0.08,0
0.029472,0.009154,0.0289,-1.0289e-05,0.0086668,-0.00059726,0,0,0.052605,-0.02256,0,-0.0031058,0,0,0,0.028912,-2.2623e-05,0.0086668,-1.183,0.012519,0.025715,5.4909e-07,0.62,0.08,0
0.029998,0.0092188,0.028956,-1.897e-05,0.0086811,-0.00059191,0,0,0.052715,-0.02262,0,-0.0030779,0,0,0,0.028968,-3.1057e-05,0.0086811,-1.1698,0.012539,0.025772,5.5247e-07,0.63,0.08,0
0.030526,0.0092803,0.029011,-2.6724e-05,0.0086953,-0.00058518,0,0,0.052821,-0.022677,0,-0.003043,0,0,0,0.029023,-3.8513e-05,0.0086953,-1.154,0.01256,0.025827,5.5575e-07,0.64,0.08,0
0.031055,0.0093387,0.029065,-3.364e-05,0.0087093,-0.0005772,0,0,0.052924,-0.022732,0,-0.0030015,0,0,0,0.029076,-4.5084e-05,0.0087093,-1.1359,0.01258,0.025879,5.5896e-07,0.65,0.08,0
0.031585,0.0093939,0.029117,-3.9798e-05,0.0087232,-0.00056808,0,0,0.053024,-0.022784,0,-0.002954,0,0,0,0.029128,-5.0862e-05,0.0087232,-1.1158,0.0126,0.02593,5.6208e-07,0.66,0.08,0
0.032115,0.0094463,0.029168,-4.5276e-05,0.0087368,-0.0005579,0,0,0.053121,-0.022833,0,-0.0029011,0,0,0,0.029179,-5.5926e-05,0.0087368,-1.0937,0.01262,0.025979,5.6511e-07,0.67,0.08,0
0.032647,0.0094958,0.029218,-5.0142e-05,0.0087503,-0.00054678,0,0,0.053216,-0.022881,0,-0.0028432,0,0,0,0.029228,-6.0353e-05,0.0087503,-1.0699,0.012639,0.026027,5.6808e-07,0.68,0.08,0
0.03318,0.0095427,0.029266,-5.446e-05,0.0087636,-0.00053478,0,0,0.053307,-0.022927,0,-0.0027809,0,0,0,0.029276,-6.4211e-05,0.0087636,-1.0446,0.012658,0.026072,5.7096e-07,0.69,0.08,0
0.033713,0.009587,0.029314,-5.8286e-05,0.0087766,-0.00052201,0,0,0.053396,-0.022971,0,-0.0027144,0,0,0,0.029323,-6.756e-05,0.0087766,-1.0178,0.012677,0.026117,5.7377e-07,0.7,0.08,0
0.034248,0.0096288,0.02936,-6.1669e-05,0.0087894,-0.00050852,0,0,0.053483,-0.023013,0,-0.0026443,0,0,0,0.029368,-7.0455e-05,0.0087894,-0.98991,0.012696,0.026159,5.765e-07,0.71,0.08,0
0.034783,0.0096683,0.029404,-6.4653e-05,0.0088019,-0.00049439,0,0,0.053566,-0.023053,0,-0.0025708,0,0,0,0.029413,-7.2945e-05,0.0088019,-0.96088,0.012714,0.026201,5.7916e-07,0.72,0.08,0
0.035319,0.0097055,0.029448,-6.7279e-05,0.0088141,-0.00047969,0,0,0.053647,-0.023092,0,-0.0024944,0,0,0,0.029455,-7.5073e-05,0.0088141,-0.93087,0.012731,0.02624,5.8173e-07,0.73,0.08,0
0.035856,0.0097406,0.029489,-6.9582e-05,0.008826,-0.00046447,0,0,0.053725,-0.023128,0,-0.0024152,0,0,0,0.029497,-7.6878e-05,0.008826,-0.90001,0.012749,0.026279,5.8423e-07,0.74,0.08,0
0.036393,0.0097737,0.02953,-7.1594e-05,0.0088375,-0.00044879,0,0,0.053801,-0.023164,0,-0.0023337,0,0,0,0.029537,-7.8396e-05,0.0088375,-0.8684,0.012765,0.026316,5.8664e-07,0.75,0.08,0
0.036932,0.0098047,0.029569,-7.3344e-05,0.0088488,-0.00043271,0,0,0.053873,-0.023197,0,-0.0022501,0,0,0,0.029576,-7.9659e-05,0.0088488,-0.83613,0.012782,0.026351,5.8898e-07,0.76,0.08,0
0.037471,0.009834,0.029607,-7.486e-05,0.0088597,-0.00041626,0,0,0.053943,-0.02323,0,-0.0021646,0,0,0,0.029613,-8.0696e-05,0.0088597,-0.80331,0.012797,0.026385,5.9123e-07,0.77,0.08,0
0.038011,0.0098614,0.029643,-7.6164e-05,0.0088702,-0.0003995,0,0,0.05401,-0.02326,0,-0.0020774,0,0,0,0.029649,-8.1533e-05,0.0088702,-0.77,0.012812,0.026418,5.9339e-07,0.78,0.08,0
0.038551,0.0098871,0.029678,-7.728e-05,0.0088803,-0.00038246,0,0,0.054075,-0.02329,0,-0.0019888,0,0,0,0.029683,-8.2196e-05,0.0088803,-0.73628,0.012827,0.026449,5.9547e-07,0.79,0.08,0
0.039092,0.0099111,0.029712,-7.8229e-05,0.00889,-0.00036518,0,0,0.054136,-0.023317,0,-0.0018989,0,0,0,0.029716,-8.2705e-05,0.00889,-0.70222,0.012841,0.026478,5.9746e-07,0.8,0.08,0
0.039634,0.0099336,0.029743,-7.9028e-05,0.0088993,-0.00034769,0,0,0.054195,-0.023344,0,-0.001808,0,0,0,0.029747,-8.3081e-05,0.0088993,-0.66787,0.012855,0.026506,5.9937e-07,0.81,0.08,0
0.040176,0.0099545,0.029774,-7.9696e-05,0.0089082,-0.00033002,0,0,0.05425,-0.023369,0,-0.0017161,0,0,0,0.029777,-8.3344e-05,0.0089082,-0.63328,0.012867,0.026533,6.0118e-07,0.82,0.08,0
0.040719,0.009974,0.029802,-8.0249e-05,0.0089167,-0.0003122,0,0,0.054303,-0.023392,0,-0.0016234,0,0,0,0.029806,-8.351e-05,0.0089167,-0.59851,0.01288,0.026559,6.029e-07,0.83,0.08,0
0.041262,0.0099921,0.02983,-8.0701e-05,0.0089247,-0.00029425,0,0,0.054353,-0.023414,0,-0.0015301,0,0,0,0.029833,-8.3595e-05,0.0089247,-0.56358,0.012891,0.026583,6.0453e-07,0.84,0.08,0
0.041806,0.010009,0.029855,-8.1066e-05,0.0089323,-0.00027619,0,0,0.0544,-0.023435,0,-0.0014362,0,0,0,0.029858,-8.3614e-05,0.0089323,-0.52854,0.012902,0.026605,6.0607e-07,0.85,0.08,0
0.04235,0.010024,0.029879,-8.1356e-05,0.0089394,-0.00025804,0,0,0.054444,-0.023454,0,-0.0013418,0,0,0,0.029881,-8.3578e-05,0.0089394,-0.49341,0.012912,0.026626,6.0751e-07,0.86,0.08,0
0.042895,0.010039,0.029902,-8.1583e-05,0.008946,-0.00023981,0,0,0.054485,-0.023472,0,-0.001247,0,0,0,0.029904,-8.3501e-05,0.008946,-0.45822,0.012922,0.026646,6.0886e-07,0.87,0.08,0
0.04344,0.010051,0.029923,-8.1757e-05,0.0089522,-0.00022152,0,0,0.054523,-0.023488,0,-0.0011519,0,0,0,0.029924,-8.3392e-05,0.0089522,-0.42298,0.012931,0.026664,6.101e-07,0.88,0.08,0
0.043985,0.010063,0.029942,-8.1886e-05,0.0089579,-0.00020318,0,0,0.054558,-0.023504,0,-0.0010565,0,0,0,0.029943,-8.3261e-05,0.0089579,-0.38772,0.012939,0.02668,6.1126e-07,0.89,0.08,0
0.044531,0.010074,0.029959,-8.198e-05,0.0089631,-0.0001848,0,0,0.05459,-0.023517,0,-0.00096096,0,0,0,0.02996,-8.3116e-05,0.0089631,-0.35244,0.012947,0.026696,6.1231e-07,0.9,0.08,0
0.045077,0.010083,0.029975,-8.2044e-05,0.0089679,-0.00016639,0,0,0.054619,-0.02353,0,-0.00086521,0,0,0,0.029976,-8.2965e-05,0.0089679,-0.31716,0.012954,0.02671,6.1327e-07,0.91,0.08,0
0.045623,0.010092,0.029989,-8.2086e-05,0.0089721,-0.00014795,0,0,0.054644,-0.023541,0,-0.00076932,0,0,0,0.02999,-8.2814e-05,0.0089721,-0.28188,0.01296,0.026722,6.1413e-07,0.92,0.08,0
0.04617,0.010099,0.030002,-8.2111e-05,0.0089759,-0.00012949,0,0,0.054667,-0.023551,0,-0.00067333,0,0,0,0.030002,-8.2668e-05,0.0089759,-0.2466,0.012965,0.026733,6.1488e-07,0.93,0.08,0
0.046717,0.010106,0.030013,-8.2123e-05,0.0089792,-0.00011101,0,0,0.054687,-0.023559,0,-0.00057726,0,0,0,0.030013,-8.2533e-05,0.0089792,-0.21134,0.01297,0.026742,6.1554e-07,0.94,0.08,0
0.047263,0.010111,0.030022,-8.2128e-05,0.0089819,-9.2524e-05,0,0,0.054704,-0.023567,0,-0.00048113,0,0,0,0.030022,-8.2412e-05,0.0089819,-0.1761,0.012974,0.02675,6.161e-07,0.95,0.08,0
0.047811,0.010115,0.03003,-8.2127e-05,0.0089842,-7.4028e-05,0,0,0.054718,-0.023572,0,-0.00038495,0,0,0,0.03003,-8.2309e-05,0.0089842,-0.14086,0.012977,0.026757,6.1655e-07,0.96,0.08,0
0.048358,0.010119,0.030035,-8.2123e-05,0.008986,-5.5526e-05,0,0,0.054728,-0.023577,0,-0.00028874,0,0,0,0.030035,-8.2226e-05,0.008986,-0.10563,0.01298,0.026762,6.1691e-07,0.97,0.08,0
0.048905,0.010121,0.03004,-8.212e-05,0.0089872,-3.702e-05,0,0,0.054736,-0.02358,0,-0.0001925,0,0,0,0.03004,-8.2165e-05,0.0089872,-0.070417,0.012982,0.026766,6.1716e-07,0.98,0.08,0
0.049453,0.010123,0.030042,-8.2117e-05,0.008988,-1.851e-05,0,0,0.054741,-0.023582,0,-9.6254e-05,0,0,0,0.030042,-8.2128e-05,0.008988,-0.035207,0.012983,0.026768,6.1732e-07,0.99,0.08,0
0.05,0.010123,0.030043,-8.2116e-05,0.0089882,9.2485e-06,0,0,0.054742,-0.023583,0,4.8092e-05,0,0,0,0.030043,-8.2119e-05,0.0089882,0.01759,0.012983,0.026768,6.1737e-07,1,0.08,0
0,0,0.026596,0.011398,0.011398,0.00731,0,0,0.039514,-2.7105e-19,0,0.038012,0,0,0,0.029541,0.008453,0.011398,21.945,0.016464,0.019781,3.6798e-07,0,0.09,0
0.00039514,0.00038012,0.026559,0.010749,0.011192,0.0072578,0,0,0.039953,-0.0011533,0,0.037741,0,0,0,0.029385,0.0079223,0.011192,21.278,0.016167,0.020029,3.7588e-07,0.01,0.09,0
0.00079906,0.00075652,0.026767,0.010031,0.01104,0.0070941,0,0,0.040892,-0.0026216,0,0.036889,0,0,0,0.029369,0.0074288,0.01104,20.145,0.015946,0.020377,3.8895e-07,0.02,0.09,0
0.001213,0.0011245,0.026968,0.0092062,0.010852,0.0068058,0,0,0.041901,-0.0042799,0,0.03539,0,0,0,0.029276,0.0068983,0.010852,18.732,0.015676,0.020686,3.9922e-07,0.03,0.09,0
0.0016371,0.0014792,0.027137,0.0083364,0.010642,0.0063978,0,0,0.042887,-0.0059944,0,0.033269,0,0,0,0.029108,0.0063658,0.010642,17.12,0.015372,0.020934,4.0568e-07,0.04,0.09,0
0.0020707,0.0018159,0.027252,0.0074749,0.010418,0.0058901,0,0,0.043769,-0.0076527,0,0.030629,0,0,0,0.028874,0.0058536,0.010418,15.39,0.015049,0.021111,4.0813e-07,0.05,0.09,0
0.0025125,0.0021306,0.027304,0.0066577,0.010188,0.0053118,0,0,0.044499,-0.0091797,0,0.027622,0,0,0,0.02859,0.0053713,0.010188,13.614,0.014717,0.021224,4.0707e-07,0.06,0.09,0
0.0029607,0.0024206,0.027287,0.0059037,0.0099574,0.004694,0,0,0.045058,-0.01054,0,0.024409,0,0,0,0.028272,0.0049186,0.0099574,11.851,0.014383,0.021287,4.0336e-07,0.07,0.09,0
0.0034136,0.0026843,0.027209,0.0052179,0.009728,0.0040647,0,0,0.04545,-0.011726,0,0.021136,0,0,0,0.027936,0.0044906,0.009728,10.144,0.014052,0.021315,3.9796e-07,0.08,0.09,0
0.0038697,0.002921,0.027077,0.0045971,0.0095022,0.0034466,0,0,0.045694,-0.012753,0,0.017922,0,0,0,0.027593,0.0040805,0.0095022,8.5238,0.013725,0.021325,3.9166e-07,0.09,0.09,0
0.0043275,0.0031311,0.026902,0.0040341,0.0092808,0.0028562,0,0,0.045815,-0.013641,0,0.014852,0,0,0,0.027253,0.0036828,0.0092808,7.0128,0.013406,0.02133,3.8507e-07,0.1,0.09,0
0.004786,0.0033155,0.026695,0.0035204,0.0090646,0.0023049,0,0,0.045839,-0.014415,0,0.011986,0,0,0,0.026922,0.0032934,0.0090646,5.6252,0.013093,0.021337,3.7855e-07,0.11,0.09,0
0.0052443,0.0034759,0.026465,0.0030481,0.0088539,0.0017997,0,0,0.045788,-0.015095,0,0.0093587,0,0,0,0.026602,0.0029106,0.0088539,4.3694,0.012789,0.02135,3.723e-07,0.12,0.09,0
0.0057018,0.0036143,0.02622,0.0026103,0.008649,0.0013446,0,0,0.045684,-0.015701,0,0.0069922,0,0,0,0.026296,0.002534,0.008649,3.2492,0.012493,0.021371,3.6639e-07,0.13,0.09,0
0.006158,0.0037333,0.025966,0.0022025,0.0084506,0.00094151,0,0,0.045541,-0.016245,0,0.0048959,0,0,0,0.026003,0.0021652,0.0084506,2.2653,0.012207,0.021399,3.6078e-07,0.14,0.09,0
0.0066126,0.0038355,0.02571,0.0018229,0.0082598,0.00059025,0,0,0.04537,-0.016736,0,0.0030693,0,0,0,0.025724,0.0018083,0.0082598,1.4146,0.011931,0.021431,3.5539e-07,0.15,0.09,0
0.0070654,0.0039237,0.025455,0.0014729,0.0080784,0.00028882,0,0,0.045179,-0.017174,0,0.0015019,0,0,0,0.025459,0.0014694,0.0080784,0.68989,0.011669,0.021462,3.5014e-07,0.16,0.09,0
0.0075162,0.004001,0.025208,0.0011543,0.0079086,3.3173e-05,0,0,0.044978,-0.017561,0,0.0001725,0,0,0,0.025208,0.0011542,0.0079086,0.079019,0.011423,0.021488,3.4498e-07,0.17,0.09,0
0.0079649,0.0040702,0.024972,0.00086837,0.0077521,-0.00018116,0,0,0.044772,-0.017898,0,-0.00094203,0,0,0,0.024973,0.00086701,0.0077521,-0.43059,0.011198,0.021507,3.3997e-07,0.18,0.09,0
0.0084116,0.0041342,0.024753,0.00061788,0.0076112,-0.00035928,0,0,0.044568,-0.018183,0,-0.0018682,0,0,0,0.024758,0.00061253,0.0076112,-0.85266,0.010994,0.021518,3.3515e-07,0.19,0.09,0
0.0088563,0.0041956,0.024556,0.00040831,0.0074891,-0.00050782,0,0,0.044373,-0.01841,0,-0.0026407,0,0,0,0.024566,0.00039763,0.0074891,-1.2042,0.010818,0.021518,3.3062e-07,0.2,0.09,0
0.0092991,0.0042566,0.024386,0.00024225,0.0073886,-0.00063665,0,0,0.044194,-0.018581,0,-0.0033106,0,0,0,0.024403,0.00022547,0.0073886,-1.5094,0.010672,0.02151,3.2661e-07,0.21,0.09,0
0.0097402,0.0043188,0.024254,0.00011236,0.0073098,-0.00075523,0,0,0.044054,-0.018713,0,-0.0039272,0,0,0,0.024277,8.8758e-05,0.0073098,-1.7901,0.010559,0.021507,3.2354e-07,0.22,0.09,0
0.01018,0.0043835,0.024165,3.3078e-06,0.0072506,-0.00086857,0,0,0.043978,-0.018843,0,-0.0045165,0,0,0,0.024196,-2.7875e-05,0.0072506,-2.0561,0.010473,0.021529,3.2199e-07,0.23,0.09,0
0.01062,0.0044518,0.02413,-0.00010105,0.0072085,-0.00097437,0,0,0.043994,-0.019005,0,-0.0050667,0,0,0,0.024169,-0.00014017,0.0072085,-2.2991,0.010412,0.021594,3.2246e-07,0.24,0.09,0
0.01106,0.0045245,0.02415,-0.00021054,0.0071819,-0.0010648,0,0,0.044118,-0.01922,0,-0.0055371,0,0,0,0.024197,-0.000257,0.0071819,-2.4981,0.010374,0.021712,3.2523e-07,0.25,0.09,0
0.011502,0.0046027,0.024227,-0.00032588,0.0071704,-0.0011299,0,0,0.044347,-0.01949,0,-0.0058753,0,0,0,0.024279,-0.00037776,0.0071704,-2.6292,0.010357,0.021882,3.3023e-07,0.26,0.09,0
0.011947,0.0046876,0.024354,-0.00043857,0.0071746,-0.0011614,0,0,0.044666,-0.019794,0,-0.0060395,0,0,0,0.024408,-0.00049286,0.0071746,-2.6763,0.010363,0.022089,3.371e-07,0.27,0.09,0
0.012395,0.0047804,0.024521,-0.00053379,0.0071962,-0.001157,0,0,0.045045,-0.020098,0,-0.0060162,0,0,0,0.024574,-0.0005871,0.0071962,-2.6383,0.010394,0.022312,3.4532e-07,0.28,0.09,0
0.012848,0.004882,0.024719,-0.00059788,0.0072364,-0.001121,0,0,0.045455,-0.020369,0,-0.005829,0,0,0,0.024769,-0.00064742,0.0072364,-2.5303,0.010452,0.022533,3.5436e-07,0.29,0.09,0
0.013305,0.0049927,0.024939,-0.00062578,0.0072938,-0.001062,0,0,0.045876,-0.020591,0,-0.0055226,0,0,0,0.024983,-0.00066983,0.0072938,-2.3748,0.010535,0.022742,3.6386e-07,0.3,0.09,0
0.013765,0.0051125,0.025171,-0.00062227,0.0073647,-0.00098865,0,0,0.046297,-0.020766,0,-0.005141,0,0,0,0.025209,-0.00066011,0.0073647,-2.1918,0.010638,0.022935,3.7362e-07,0.31,0.09,0
0.014231,0.0052408,0.025411,-0.00059389,0.007445,-0.00090599,0,0,0.046711,-0.020901,0,-0.0047111,0,0,0,0.025442,-0.00062541,0.007445,-1.9929,0.010754,0.023114,3.8347e-07,0.32,0.09,0
0.0147,0.0053768,0.02565,-0.00054368,0.007532,-0.00081858,0,0,0.047108,-0.020997,0,-0.0042566,0,0,0,0.025676,-0.00056924,0.007532,-1.7882,0.01088,0.023277,3.932e-07,0.33,0.09,0
0.015173,0.0055196,0.025886,-0.00047434,0.0076234,-0.00073142,0,0,0.047482,-0.021054,0,-0.0038034,0,0,0,0.025906,-0.00049462,0.0076234,-1.5882,0.011012,0.023422,4.026e-07,0.34,0.09,0
0.015649,0.0056681,0.026112,-0.00039099,0.0077162,-0.00064997,0,0,0.047828,-0.021079,0,-0.0033798,0,0,0,0.026128,-0.00040692,0.0077162,-1.404,0.011146,0.023548,4.1155e-07,0.35,0.09,0
0.016129,0.0058209,0.026326,-0.00030027,0.0078077,-0.00057809,0,0,0.048147,-0.021081,0,-0.0030061,0,0,0,0.026338,-0.00031281,0.0078077,-1.2432,0.011278,0.02366,4.2e-07,0.36,0.09,0
0.016612,0.0059769,0.026527,-0.00020753,0.0078959,-0.00051817,0,0,0.048441,-0.021069,0,-0.0026945,0,0,0,0.026537,-0.00021757,0.0078959,-1.1099,0.011405,0.023761,4.2794e-07,0.37,0.09,0
0.017098,0.0061347,0.026715,-0.00011687,0.0079795,-0.00047151,0,0,0.048713,-0.021051,0,-0.0024518,0,0,0,0.026724,-0.00012515,0.0079795,-1.0064,0.011526,0.023852,4.354e-07,0.38,0.09,0
0.017586,0.0062932,0.026891,-3.165e-05,0.0080577,-0.00043876,0,0,0.048966,-0.021032,0,-0.0022816,0,0,0,0.026898,-3.8799e-05,0.0080577,-0.93344,0.011639,0.023938,4.4245e-07,0.39,0.09,0
0.018077,0.0064513,0.027054,4.4927e-05,0.0081298,-0.00041978,0,0,0.049204,-0.021021,0,-0.0021828,0,0,0,0.027061,3.8404e-05,0.0081298,-0.89019,0.011743,0.024022,4.4918e-07,0.4,0.09,0
0.018571,0.0066078,0.027208,0.00011024,0.0081955,-0.00041346,0,0,0.049432,-0.021022,0,-0.00215,0,0,0,0.027214,0.00010393,0.0081955,-0.87396,0.011838,0.024106,4.5567e-07,0.41,0.09,0
0.019066,0.006762,0.027352,0.00016262,0.0082545,-0.00041792,0,0,0.049655,-0.021039,0,-0.0021732,0,0,0,0.027359,0.0001562,0.0082545,-0.88039,0.011923,0.024192,4.6202e-07,0.42,0.09,0
0.019564,0.0069131,0.027489,0.00020159,0.0083073,-0.00043083,0,0,0.049873,-0.021075,0,-0.0022403,0,0,0,0.027496,0.00019479,0.0083073,-0.90432,0.011999,0.024284,4.6831e-07,0.43,0.09,0
0.020063,0.0070605,0.027619,0.00022762,0.0083541,-0.00044978,0,0,0.05009,-0.021129,0,-0.0023389,0,0,0,0.027627,0.00022024,0.0083541,-0.94048,0.012067,0.024379,4.7454e-07,0.44,0.09,0
0.020565,0.0072038,0.027743,0.00024191,0.0083954,-0.00047255,0,0,0.050303,-0.021199,0,-0.0024572,0,0,0,0.027751,0.00023379,0.0083954,-0.98413,0.012127,0.024479,4.8073e-07,0.45,0.09,0
0.02107,0.0073425,0.02786,0.00024608,0.0084319,-0.00049724,0,0,0.050514,-0.021283,0,-0.0025856,0,0,0,0.027869,0.00023713,0.0084319,-1.0312,0.012179,0.024581,4.8687e-07,0.46,0.09,0
0.021576,0.0074766,0.027972,0.00024192,0.0084642,-0.00052233,0,0,0.05072,-0.021378,0,-0.0027161,0,0,0,0.027982,0.00023209,0.0084642,-1.0787,0.012226,0.024685,4.929e-07,0.47,0.09,0
0.022084,0.0076058,0.028078,0.00023126,0.0084927,-0.00054667,0,0,0.050921,-0.02148,0,-0.0028427,0,0,0,0.028089,0.00022053,0.0084927,-1.1242,0.012267,0.02479,4.9881e-07,0.48,0.09,0
0.022594,0.0077301,0.028178,0.00021577,0.0085182,-0.00056943,0,0,0.051116,-0.021586,0,-0.002961,0,0,0,0.02819,0.00020418,0.0085182,-1.1661,0.012304,0.024893,5.0456e-07,0.49,0.09,0
0.023106,0.0078494,0.028273,0.00019699,0.0085411,-0.00059006,0,0,0.051304,-0.021695,0,-0.0030683,0,0,0,0.028286,0.00018459,0.0085411,-1.2034,0.012337,0.024993,5.1013e-07,0.5,0.09,0
0.02362,0.0079638,0.028363,0.00017618,0.0085618,-0.00060823,0,0,0.051484,-0.021803,0,-0.0031628,0,0,0,0.028376,0.00016306,0.0085618,-1.2356,0.012367,0.025091,5.1548e-07,0.51,0.09,0
0.024136,0.0080733,0.028448,0.00015442,0.0085808,-0.00062378,0,0,0.051655,-0.021909,0,-0.0032437,0,0,0,0.028462,0.00014067,0.0085808,-1.2624,0.012394,0.025185,5.2062e-07,0.52,0.09,0
0.024653,0.0081782,0.028529,0.0001325,0.0085983,-0.00063669,0,0,0.051819,-0.022011,0,-0.0033108,0,0,0,0.028543,0.00011824,0.0085983,-1.2838,0.01242,0.025275,5.2553e-07,0.53,0.09,0
0.025172,0.0082783,0.028605,0.00011107,0.0086147,-0.000647,0,0,0.051974,-0.02211,0,-0.0033644,0,0,0,0.028619,9.6384e-05,0.0086147,-1.3001,0.012443,0.025361,5.3022e-07,0.54,0.09,0
0.025693,0.0083739,0.028677,9.0538e-05,0.0086303,-0.00065482,0,0,0.052122,-0.022203,0,-0.0034051,0,0,0,0.028692,7.5546e-05,0.0086303,-1.3115,0.012466,0.025442,5.3469e-07,0.55,0.09,0
0.026215,0.0084651,0.028746,7.12e-05,0.0086451,-0.0006603,0,0,0.052262,-0.022292,0,-0.0034336,0,0,0,0.028761,5.6002e-05,0.0086451,-1.3184,0.012487,0.025519,5.3895e-07,0.56,0.09,0
0.026738,0.008552,0.028811,5.3217e-05,0.0086594,-0.00066359,0,0,0.052395,-0.022376,0,-0.0034507,0,0,0,0.028827,3.7913e-05,0.0086594,-1.3212,0.012508,0.025591,5.4302e-07,0.57,0.09,0
0.027263,0.0086348,0.028874,3.6663e-05,0.0086732,-0.00066484,0,0,0.052522,-0.022455,0,-0.0034572,0,0,0,0.028889,2.1344e-05,0.0086732,-1.32,0.012528,0.02566,5.4691e-07,0.58,0.09,0
0.027789,0.0087136,0.028934,2.1543e-05,0.0086867,-0.0006642,0,0,0.052644,-0.02253,0,-0.0034539,0,0,0,0.028949,6.292e-06,0.0086867,-1.3153,0.012547,0.025726,5.5064e-07,0.59,0.09,0
0.028316,0.0087886,0.028992,7.8133e-06,0.0087,-0.00066183,0,0,0.05276,-0.0226,0,-0.0034415,0,0,0,0.029007,-7.2909e-06,0.0087,-1.3074,0.012567,0.025788,5.5422e-07,0.6,0.09,0
0.028844,0.0088599,0.029048,-4.5965e-06,0.008713,-0.00065783,0,0,0.052871,-0.022666,0,-0.0034207,0,0,0,0.029063,-1.9484e-05,0.008713,-1.2965,0.012585,0.025847,5.5767e-07,0.61,0.09,0
0.029373,0.0089275,0.029102,-1.5776e-05,0.0087259,-0.00065234,0,0,0.052978,-0.022728,0,-0.0033922,0,0,0,0.029117,-3.0383e-05,0.0087259,-1.2828,0.012604,0.025904,5.6099e-07,0.62,0.09,0
0.029903,0.0089918,0.029154,-2.5822e-05,0.0087385,-0.00064547,0,0,0.053081,-0.022787,0,-0.0033565,0,0,0,0.029169,-4.0093e-05,0.0087385,-1.2666,0.012622,0.025958,5.642e-07,0.63,0.09,0
0.030434,0.0090528,0.029205,-3.4833e-05,0.0087511,-0.00063733,0,0,0.05318,-0.022843,0,-0.0033141,0,0,0,0.029219,-4.8718e-05,0.0087511,-1.2481,0.01264,0.026009,5.673e-07,0.64,0.09,0
0.030967,0.0091105,0.029254,-4.2904e-05,0.0087634,-0.00062799,0,0,0.053276,-0.022897,0,-0.0032656,0,0,0,0.029268,-5.6359e-05,0.0087634,-1.2274,0.012658,0.026059,5.7031e-07,0.65,0.09,0
0.0315,0.0091653,0.029302,-5.0125e-05,0.0087757,-0.00061757,0,0,0.053369,-0.022947,0,-0.0032113,0,0,0,0.029315,-6.3113e-05,0.0087757,-1.2048,0.012676,0.026107,5.7323e-07,0.66,0.09,0
0.032034,0.0092172,0.029349,-5.6578e-05,0.0087877,-0.00060612,0,0,0.053459,-0.022995,0,-0.0031518,0,0,0,0.029361,-6.9067e-05,0.0087877,-1.1803,0.012693,0.026152,5.7607e-07,0.67,0.09,0
0.032569,0.0092662,0.029394,-6.2339e-05,0.0087996,-0.00059375,0,0,0.053546,-0.023041,0,-0.0030875,0,0,0,0.029406,-7.4302e-05,0.0087996,-1.1543,0.012711,0.026196,5.7882e-07,0.68,0.09,0
0.033105,0.0093126,0.029439,-6.7473e-05,0.0088113,-0.00058051,0,0,0.053631,-0.023085,0,-0.0030187,0,0,0,0.02945,-7.889e-05,0.0088113,-1.1267,0.012727,0.026239,5.815e-07,0.69,0.09,0
0.033642,0.0093565,0.029482,-7.2042e-05,0.0088228,-0.00056649,0,0,0.053713,-0.023127,0,-0.0029457,0,0,0,0.029492,-8.2897e-05,0.0088228,-1.0977,0.012744,0.02628,5.8409e-07,0.7,0.09,0
0.034179,0.0093979,0.029523,-7.6101e-05,0.0088342,-0.00055175,0,0,0.053792,-0.023167,0,-0.0028691,0,0,0,0.029534,-8.6382e-05,0.0088342,-1.0675,0.01276,0.026319,5.8661e-07,0.71,0.09,0
0.034718,0.009437,0.029564,-7.9696e-05,0.0088452,-0.00053635,0,0,0.053868,-0.023205,0,-0.002789,0,0,0,0.029573,-8.9397e-05,0.0088452,-1.0362,0.012776,0.026357,5.8906e-07,0.72,0.09,0
0.035257,0.0094739,0.029603,-8.2872e-05,0.0088561,-0.00052036,0,0,0.053942,-0.023241,0,-0.0027059,0,0,0,0.029612,-9.199e-05,0.0088561,-1.0039,0.012792,0.026393,5.9142e-07,0.73,0.09,0
0.035797,0.0095086,0.029641,-8.5668e-05,0.0088666,-0.00050383,0,0,0.054014,-0.023276,0,-0.0026199,0,0,0,0.02965,-9.4205e-05,0.0088666,-0.97072,0.012807,0.026428,5.9371e-07,0.74,0.09,0
0.036337,0.0095413,0.029678,-8.8121e-05,0.0088769,-0.00048682,0,0,0.054082,-0.023309,0,-0.0025315,0,0,0,0.029686,-9.608e-05,0.0088769,-0.93674,0.012822,0.026462,5.9593e-07,0.75,0.09,0
0.036878,0.0095721,0.029713,-9.0263e-05,0.0088869,-0.00046939,0,0,0.054149,-0.023341,0,-0.0024408,0,0,0,0.029721,-9.7653e-05,0.0088869,-0.90207,0.012837,0.026494,5.9807e-07,0.76,0.09,0
0.03742,0.009601,0.029747,-9.2124e-05,0.0088966,-0.00045157,0,0,0.054212,-0.023371,0,-0.0023482,0,0,0,0.029754,-9.8956e-05,0.0088966,-0.8668,0.012851,0.026525,6.0012e-07,0.77,0.09,0
0.037962,0.0096281,0.02978,-9.3733e-05,0.008906,-0.00043341,0,0,0.054274,-0.023399,0,-0.0022538,0,0,0,0.029787,-0.00010002,0.008906,-0.83101,0.012864,0.026555,6.021e-07,0.78,0.09,0
0.038505,0.0096535,0.029812,-9.5115e-05,0.0089151,-0.00041496,0,0,0.054332,-0.023426,0,-0.0021578,0,0,0,0.029818,-0.00010087,0.0089151,-0.79477,0.012877,0.026583,6.04e-07,0.79,0.09,0
0.039049,0.0096773,0.029842,-9.6296e-05,0.0089238,-0.00039624,0,0,0.054388,-0.023452,0,-0.0020605,0,0,0,0.029847,-0.00010154,0.0089238,-0.75815,0.01289,0.02661,6.0582e-07,0.8,0.09,0
0.039593,0.0096995,0.029871,-9.7295e-05,0.0089321,-0.0003773,0,0,0.054441,-0.023476,0,-0.001962,0,0,0,0.029876,-0.00010205,0.0089321,-0.72121,0.012902,0.026636,6.0756e-07,0.81,0.09,0
0.040138,0.0097202,0.029898,-9.8136e-05,0.0089401,-0.00035817,0,0,0.054492,-0.023499,0,-0.0018625,0,0,0,0.029903,-0.00010241,0.0089401,-0.684,0.012913,0.02666,6.0921e-07,0.82,0.09,0
0.040683,0.0097394,0.029924,-9.8835e-05,0.0089477,-0.00033886,0,0,0.05454,-0.023521,0,-0.0017621,0,0,0,0.029928,-0.00010266,0.0089477,-0.64657,0.012924,0.026683,6.1078e-07,0.83,0.09,0
0.041229,0.0097573,0.029949,-9.9412e-05,0.0089549,-0.00031941,0,0,0.054585,-0.023541,0,-0.001661,0,0,0,0.029952,-0.00010281,0.0089549,-0.60896,0.012935,0.026704,6.1226e-07,0.84,0.09,0
0.041775,0.0097739,0.029972,-9.9883e-05,0.0089617,-0.00029984,0,0,0.054628,-0.02356,0,-0.0015592,0,0,0,0.029975,-0.00010287,0.0089617,-0.57121,0.012945,0.026725,6.1366e-07,0.85,0.09,0
0.042321,0.0097891,0.029994,-0.00010026,0.0089681,-0.00028017,0,0,0.054667,-0.023578,0,-0.0014569,0,0,0,0.029997,-0.00010287,0.0089681,-0.53334,0.012954,0.026744,6.1497e-07,0.86,0.09,0
0.042868,0.0098031,0.030014,-0.00010056,0.0089741,-0.0002604,0,0,0.054705,-0.023594,0,-0.0013541,0,0,0,0.030017,-0.00010281,0.0089741,-0.49539,0.012963,0.026762,6.162e-07,0.87,0.09,0
0.043415,0.009816,0.030033,-0.0001008,0.0089797,-0.00024057,0,0,0.054739,-0.023609,0,-0.001251,0,0,0,0.030035,-0.00010272,0.0089797,-0.45737,0.012971,0.026778,6.1733e-07,0.88,0.09,0
0.043963,0.0098276,0.030051,-0.00010098,0.0089849,-0.00022067,0,0,0.054771,-0.023623,0,-0.0011475,0,0,0,0.030052,-0.00010259,0.0089849,-0.41931,0.012978,0.026793,6.1838e-07,0.89,0.09,0
0.044511,0.0098381,0.030066,-0.00010111,0.0089896,-0.00020073,0,0,0.0548,-0.023636,0,-0.0010438,0,0,0,0.030068,-0.00010244,0.0089896,-0.38121,0.012985,0.026807,6.1934e-07,0.9,0.09,0
0.045059,0.0098476,0.030081,-0.00010121,0.0089939,-0.00018074,0,0,0.054826,-0.023647,0,-0.00093986,0,0,0,0.030082,-0.00010229,0.0089939,-0.34309,0.012991,0.026819,6.2021e-07,0.91,0.09,0
0.045607,0.0098559,0.030094,-0.00010127,0.0089977,-0.00016072,0,0,0.05485,-0.023658,0,-0.00083577,0,0,0,0.030095,-0.00010213,0.0089977,-0.30497,0.012997,0.02683,6.2099e-07,0.92,0.09,0
0.046156,0.0098633,0.030105,-0.00010132,0.0090011,-0.00014068,0,0,0.05487,-0.023666,0,-0.00073154,0,0,0,0.030106,-0.00010197,0.0090011,-0.26684,0.013002,0.02684,6.2168e-07,0.93,0.09,0
0.046705,0.0098696,0.030115,-0.00010135,0.0090041,-0.00012062,0,0,0.054888,-0.023674,0,-0.0006272,0,0,0,0.030115,-0.00010183,0.0090041,-0.2287,0.013006,0.026849,6.2228e-07,0.94,0.09,0
0.047254,0.0098749,0.030123,-0.00010137,0.0090066,-0.00010053,0,0,0.054904,-0.023681,0,-0.00052278,0,0,0,0.030124,-0.0001017,0.0090066,-0.19058,0.01301,0.026856,6.2279e-07,0.95,0.09,0
0.047803,0.0098792,0.03013,-0.00010137,0.0090087,-8.0441e-05,0,0,0.054916,-0.023686,0,-0.0004183,0,0,0,0.030131,-0.00010159,0.0090087,-0.15245,0.013012,0.026862,6.232e-07,0.96,0.09,0
0.048352,0.0098825,0.030136,-0.00010138,0.0090103,-6.0338e-05,0,0,0.054926,-0.02369,0,-0.00031376,0,0,0,0.030136,-0.0001015,0.0090103,-0.11433,0.013015,0.026866,6.2353e-07,0.97,0.09,0
0.048901,0.0098849,0.030139,-0.00010138,0.0090114,-4.0229e-05,0,0,0.054933,-0.023693,0,-0.00020919,0,0,0,0.030139,-0.00010143,0.0090114,-0.07622,0.013017,0.02687,6.2376e-07,0.98,0.09,0
0.049451,0.0098863,0.030142,-0.00010138,0.0090121,-2.0116e-05,0,0,0.054937,-0.023695,0,-0.0001046,0,0,0,0.030142,-0.00010139,0.0090121,-0.038109,0.013017,0.026872,6.239e-07,0.99,0.09,0
0.05,0.0098868,0.030142,-0.00010138,0.0090123,9.1285e-06,0,0,0.054938,-0.023696,0,4.7468e-05,0,0,0,0.030142,-0.00010138,0.0090123,0.017293,0.013018,0.026872,6.2394e-07,1,0.09,0
0,0,0.026598,0.011399,0.011399,0.007109,0,0,0.039517,1.6263e-19,0,0.036967,0,0,0,0.029405,0.0085922,0.011399,21.545,0.016465,0.019561,3.5785e-07,0,0.1,0
0.00039517,0.00036967,0.026569,0.01086,0.011229,0.0070601,0,0,0.039884,-0.00095822,0,0.036713,0,0,0,0.029275,0.0081533,0.011229,20.976,0.016219,0.019765,3.6439e-07,0.01,0.1,0
0.00079768,0.00073267,0.026745,0.010255,0.0111,0.0068877,0,0,0.040676,-0.0021962,0,0.035816,0,0,0,0.029243,0.0077569,0.0111,19.938,0.016033,0.020025,3.7397e-07,0.02,0.1,0
0.0012087,0.0010854,0.026919,0.0095472,0.01094,0.0066177,0,0,0.041545,-0.0036209,0,0.034412,0,0,0,0.029153,0.0073134,0.01094,18.652,0.015802,0.020271,3.8205e-07,0.03,0.1,0
0.0016286,0.0014241,0.027071,0.008782,0.010756,0.0062519,0,0,0.042418,-0.0051318,0,0.03251,0,0,0,0.029003,0.006849,0.010756,17.18,0.015536,0.020482,3.8777e-07,0.04,0.1,0
0.0020571,0.0017449,0.027182,0.0080012,0.010555,0.0058028,0,0,0.04323,-0.0066397,0,0.030174,0,0,0,0.028801,0.0063824,0.010555,15.588,0.015246,0.020651,3.9079e-07,0.05,0.1,0
0.0024932,0.0020448,0.027241,0.0072362,0.010343,0.0052899,0,0,0.043935,-0.0080784,0,0.027508,0,0,0,0.028554,0.0059236,0.010343,13.936,0.01494,0.020776,3.9126e-07,0.06,0.1,0
0.0029358,0.0023213,0.027243,0.0065065,0.010125,0.0047365,0,0,0.044508,-0.009408,0,0.02463,0,0,0,0.028274,0.0054758,0.010125,12.276,0.014625,0.020866,3.8963e-07,0.07,0.1,0
0.0033833,0.002573,0.027188,0.0058211,0.0099026,0.0041653,0,0,0.044941,-0.010612,0,0.02166,0,0,0,0.027971,0.0050377,0.0099026,10.65,0.014304,0.020929,3.8645e-07,0.08,0.1,0
0.0038346,0.0027991,0.027078,0.0051819,0.0096781,0.0035965,0,0,0.045241,-0.01169,0,0.018702,0,0,0,0.027654,0.0046063,0.0096781,9.0928,0.013979,0.020977,3.8226e-07,0.09,0.1,0
0.0042882,0.0029998,0.026921,0.004587,0.0094525,0.0030464,0,0,0.045419,-0.01265,0,0.015841,0,0,0,0.027329,0.0041789,0.0094525,7.6293,0.013654,0.021016,3.7744e-07,0.1,0.1,0
0.004743,0.0031761,0.026724,0.0040326,0.009227,0.0025268,0,0,0.045492,-0.013505,0,0.01314,0,0,0,0.027002,0.0037546,0.009227,6.2778,0.013328,0.021052,3.7221e-07,0.11,0.1,0
0.005198,0.0033292,0.026493,0.0035146,0.0090022,0.0020457,0,0,0.045476,-0.014268,0,0.010638,0,0,0,0.026673,0.0033339,0.0090022,5.0481,0.013003,0.021085,3.6669e-07,0.12,0.1,0
0.0056525,0.0034611,0.026235,0.0030285,0.008779,0.0016079,0,0,0.045385,-0.014951,0,0.008361,0,0,0,0.026346,0.0029176,0.008779,3.9447,0.012681,0.021117,3.6093e-07,0.13,0.1,0
0.0061057,0.0035743,0.025956,0.0025705,0.0085578,0.0012162,0,0,0.045234,-0.015567,0,0.006324,0,0,0,0.026019,0.0025075,0.0085578,2.969,0.012361,0.021146,3.5491e-07,0.14,0.1,0
0.0065572,0.0036712,0.025661,0.0021413,0.0083406,0.00087194,0,0,0.045032,-0.016118,0,0.0045341,0,0,0,0.025693,0.002109,0.0083406,2.1202,0.012047,0.021168,3.4856e-07,0.15,0.1,0
0.0070063,0.0037548,0.025356,0.0017459,0.0081305,0.0005726,0,0,0.044786,-0.0166,0,0.0029775,0,0,0,0.02537,0.001732,0.0081305,1.3885,0.011744,0.021176,3.418e-07,0.16,0.1,0
0.0074529,0.003828,0.02505,0.0013902,0.007932,0.0003125,0,0,0.044506,-0.017008,0,0.001625,0,0,0,0.025054,0.0013861,0.007932,0.7566,0.011457,0.021168,3.3471e-07,0.17,0.1,0
0.0078965,0.0038938,0.02475,0.0010719,0.0077465,8.4565e-05,0,0,0.044208,-0.017354,0,0.00043974,0,0,0,0.02475,0.0010716,0.0077465,0.20463,0.011189,0.021146,3.2753e-07,0.18,0.1,0
0.008337,0.0039548,0.024464,0.00079038,0.0075763,-0.00011342,0,0,0.043908,-0.017643,0,-0.0005898,0,0,0,0.024464,0.00078984,0.0075763,-0.27451,0.010944,0.021116,3.2052e-07,0.19,0.1,0
0.0087746,0.0040139,0.024201,0.0005575,0.0074275,-0.00028737,0,0,0.043611,-0.017862,0,-0.0014943,0,0,0,0.024204,0.000554,0.0074275,-0.69625,0.010729,0.021072,3.1382e-07,0.2,0.1,0
0.0092093,0.0040733,0.023971,0.0003838,0.0073063,-0.00044867,0,0,0.043327,-0.017999,0,-0.0023331,0,0,0,0.023979,0.00037527,0.0073063,-1.0894,0.010554,0.021014,3.0767e-07,0.21,0.1,0
0.0096412,0.0041343,0.023785,0.00025849,0.0072129,-0.00061241,0,0,0.043086,-0.018082,0,-0.0031845,0,0,0,0.0238,0.00024256,0.0072129,-1.4901,0.010419,0.020961,3.0268e-07,0.22,0.1,0
0.010071,0.0041979,0.023654,0.00015301,0.0071422,-0.00078369,0,0,0.042931,-0.018172,0,-0.0040752,0,0,0,0.02368,0.0001269,0.0071422,-1.9078,0.010316,0.020946,2.9971e-07,0.23,0.1,0
0.0105,0.0042645,0.023592,4.2437e-05,0.0070903,-0.00095656,0,0,0.042904,-0.018325,0,-0.0049741,0,0,0,0.023631,3.6463e-06,0.0070903,-2.3222,0.010242,0.021,2.9951e-07,0.24,0.1,0
0.010929,0.0043349,0.023605,-8.7451e-05,0.0070551,-0.0011168,0,0,0.043028,-0.018571,0,-0.0058074,0,0,0,0.023657,-0.00013998,0.0070551,-2.6929,0.010191,0.021139,3.0246e-07,0.25,0.1,0
0.01136,0.0044101,0.023692,-0.00023769,0.0070362,-0.0012478,0,0,0.043304,-0.018912,0,-0.0064886,0,0,0,0.023756,-0.00030258,0.0070362,-2.9769,0.010163,0.021357,3.0847e-07,0.26,0.1,0
0.011795,0.0044916,0.023845,-0.00039568,0.0070349,-0.0013349,0,0,0.043707,-0.01932,0,-0.0069415,0,0,0,0.023919,-0.00046896,0.0070349,-3.1425,0.010162,0.021635,3.1704e-07,0.27,0.1,0
0.012235,0.0045809,0.024053,-0.00053743,0.0070546,-0.0013718,0,0,0.044195,-0.019739,0,-0.0071333,0,0,0,0.024129,-0.00061371,0.0070546,-3.1831,0.01019,0.021938,3.2738e-07,0.28,0.1,0
0.012679,0.0046793,0.024302,-0.00063582,0.0070997,-0.0013635,0,0,0.044725,-0.020112,0,-0.00709,0,0,0,0.024376,-0.00071015,0.0070997,-3.1202,0.010255,0.022235,3.3877e-07,0.29,0.1,0
0.013129,0.0047875,0.02458,-0.00068346,0.007169,-0.0013244,0,0,0.045269,-0.020416,0,-0.0068871,0,0,0,0.024649,-0.0007527,0.007169,-2.9928,0.010355,0.022512,3.5077e-07,0.3,0.1,0
0.013584,0.0049052,0.024877,-0.00069455,0.0072547,-0.0012642,0,0,0.045818,-0.020668,0,-0.0065741,0,0,0,0.024939,-0.0007569,0.0072547,-2.8235,0.010479,0.022773,3.6323e-07,0.31,0.1,0
0.014045,0.0050318,0.025182,-0.00068138,0.0073502,-0.0011866,0,0,0.046363,-0.020882,0,-0.0061704,0,0,0,0.025236,-0.00073571,0.0073502,-2.6214,0.010617,0.02302,3.7592e-07,0.32,0.1,0
0.014512,0.0051667,0.025487,-0.00064101,0.0074537,-0.0010934,0,0,0.046886,-0.021046,0,-0.0056857,0,0,0,0.025532,-0.00068669,0.0074537,-2.3922,0.010767,0.023244,3.8845e-07,0.33,0.1,0
0.014983,0.0053087,0.025783,-0.00057051,0.0075638,-0.00099384,0,0,0.04737,-0.021149,0,-0.005168,0,0,0,0.025821,-0.00060793,0.0075638,-2.1566,0.010925,0.023437,4.0042e-07,0.34,0.1,0
0.015459,0.0054568,0.026064,-0.00047911,0.0076753,-0.00089686,0,0,0.047809,-0.021202,0,-0.0046637,0,0,0,0.026094,-0.00050938,0.0076753,-1.933,0.011087,0.0236,4.1161e-07,0.35,0.1,0
0.015939,0.0056096,0.026325,-0.00037732,0.0077843,-0.00080862,0,0,0.048206,-0.02122,0,-0.0042048,0,0,0,0.02635,-0.00040178,0.0077843,-1.733,0.011244,0.023741,4.2199e-07,0.36,0.1,0
0.016423,0.0057656,0.026566,-0.00027219,0.0078883,-0.00073165,0,0,0.048563,-0.021217,0,-0.0038046,0,0,0,0.026586,-0.00029212,0.0078883,-1.5604,0.011394,0.023864,4.3158e-07,0.37,0.1,0
0.01691,0.0059236,0.026789,-0.00016712,0.0079865,-0.00066816,0,0,0.048886,-0.021199,0,-0.0034744,0,0,0,0.026805,-0.00018368,0.0079865,-1.419,0.011536,0.023972,4.4041e-07,0.38,0.1,0
0.017401,0.0060823,0.026992,-6.629e-05,0.0080778,-0.00061993,0,0,0.049178,-0.021175,0,-0.0032236,0,0,0,0.027006,-8.0485e-05,0.0080778,-1.3118,0.011668,0.024068,4.4858e-07,0.39,0.1,0
0.017894,0.0062405,0.027179,2.5547e-05,0.0081615,-0.00058764,0,0,0.049447,-0.021153,0,-0.0030557,0,0,0,0.027192,1.2835e-05,0.0081615,-1.2392,0.011789,0.024159,4.5621e-07,0.4,0.1,0
0.01839,0.0063971,0.027352,0.00010417,0.008237,-0.00057025,0,0,0.0497,-0.021145,0,-0.0029653,0,0,0,0.027364,9.2245e-05,0.008237,-1.1984,0.011898,0.024248,4.6348e-07,0.41,0.1,0
0.018888,0.0065511,0.027514,0.00016717,0.0083042,-0.0005654,0,0,0.049944,-0.021156,0,-0.0029401,0,0,0,0.027525,0.00015549,0.0083042,-1.1839,0.011995,0.024341,4.7053e-07,0.42,0.1,0
0.019389,0.0067019,0.027665,0.00021389,0.0083636,-0.0005702,0,0,0.050183,-0.021189,0,-0.002965,0,0,0,0.027677,0.00020206,0.0083636,-1.1894,0.012081,0.024438,4.7747e-07,0.43,0.1,0
0.019892,0.0068487,0.027807,0.00024506,0.0084156,-0.00058177,0,0,0.050418,-0.021243,0,-0.0030252,0,0,0,0.027819,0.00023279,0.0084156,-1.2087,0.012156,0.02454,4.8433e-07,0.44,0.1,0
0.020397,0.0069913,0.027941,0.00026227,0.008461,-0.00059758,0,0,0.050648,-0.021317,0,-0.0031074,0,0,0,0.027954,0.00024937,0.008461,-1.2362,0.012221,0.024647,4.911e-07,0.45,0.1,0
0.020905,0.0071292,0.028068,0.00026758,0.0085006,-0.00061557,0,0,0.050874,-0.021406,0,-0.003201,0,0,0,0.028081,0.00025396,0.0085006,-1.2679,0.012279,0.024757,4.9777e-07,0.46,0.1,0
0.021415,0.0072622,0.028187,0.00026324,0.008535,-0.00063413,0,0,0.051094,-0.021507,0,-0.0032975,0,0,0,0.028201,0.00024884,0.008535,-1.3003,0.012328,0.024867,5.0429e-07,0.47,0.1,0
0.021927,0.0073904,0.028299,0.00025142,0.008565,-0.00065212,0,0,0.051307,-0.021615,0,-0.003391,0,0,0,0.028314,0.00023626,0.008565,-1.3312,0.012372,0.024977,5.1062e-07,0.48,0.1,0
0.022441,0.0075135,0.028403,0.00023414,0.0085912,-0.00066872,0,0,0.051512,-0.021729,0,-0.0034773,0,0,0,0.028419,0.00021827,0.0085912,-1.3591,0.01241,0.025085,5.1673e-07,0.49,0.1,0
0.022957,0.0076317,0.028502,0.00021316,0.0086144,-0.00068344,0,0,0.051707,-0.021843,0,-0.0035539,0,0,0,0.028518,0.00019666,0.0086144,-1.3832,0.012443,0.02519,5.2259e-07,0.5,0.1,0
0.023475,0.007745,0.028593,0.00018998,0.008635,-0.00069601,0,0,0.051892,-0.021957,0,-0.0036193,0,0,0,0.028611,0.00017293,0.008635,-1.4029,0.012473,0.025292,5.2818e-07,0.51,0.1,0
0.023995,0.0078535,0.028679,0.00016577,0.0086535,-0.00070632,0,0,0.052067,-0.022068,0,-0.0036729,0,0,0,0.028697,0.00014829,0.0086535,-1.4181,0.0125,0.025388,5.3349e-07,0.52,0.1,0
0.024516,0.0079573,0.02876,0.00014146,0.0086703,-0.00071437,0,0,0.052232,-0.022175,0,-0.0037147,0,0,0,0.028778,0.00012364,0.0086703,-1.429,0.012524,0.025479,5.3851e-07,0.53,0.1,0
0.025039,0.0080564,0.028835,0.00011772,0.0086858,-0.00072023,0,0,0.052388,-0.022277,0,-0.0037452,0,0,0,0.028853,9.967e-05,0.0086858,-1.4358,0.012546,0.025566,5.4325e-07,0.54,0.1,0
0.025564,0.008151,0.028906,9.5018e-05,0.0087002,-0.00072403,0,0,0.052534,-0.022373,0,-0.0037649,0,0,0,0.028924,7.6834e-05,0.0087002,-1.4387,0.012567,0.025647,5.4773e-07,0.55,0.1,0
0.02609,0.0082413,0.028972,7.3646e-05,0.0087137,-0.00072589,0,0,0.052672,-0.022464,0,-0.0037746,0,0,0,0.02899,5.5424e-05,0.0087137,-1.438,0.012587,0.025723,5.5197e-07,0.56,0.1,0
0.026617,0.0083274,0.029035,5.3772e-05,0.0087266,-0.00072595,0,0,0.052802,-0.022549,0,-0.003775,0,0,0,0.029053,3.5598e-05,0.0087266,-1.434,0.012605,0.025795,5.5597e-07,0.57,0.1,0
0.027146,0.0084094,0.029094,3.546e-05,0.008739,-0.00072434,0,0,0.052924,-0.022629,0,-0.0037666,0,0,0,0.029112,1.7416e-05,0.008739,-1.427,0.012623,0.025862,5.5976e-07,0.58,0.1,0
0.027676,0.0084875,0.029151,1.8706e-05,0.0087509,-0.00072116,0,0,0.05304,-0.022704,0,-0.0037501,0,0,0,0.029169,8.6425e-07,0.0087509,-1.4172,0.01264,0.025925,5.6337e-07,0.59,0.1,0
0.028207,0.0085618,0.029205,3.4557e-06,0.0087625,-0.00071653,0,0,0.053151,-0.022774,0,-0.003726,0,0,0,0.029223,-1.4116e-05,0.0087625,-1.4048,0.012657,0.025985,5.668e-07,0.6,0.1,0
0.028739,0.0086324,0.029257,-1.0372e-05,0.0087739,-0.00071053,0,0,0.053255,-0.022839,0,-0.0036948,0,0,0,0.029274,-2.7612e-05,0.0087739,-1.3899,0.012674,0.026041,5.7008e-07,0.61,0.1,0
0.029272,0.0086994,0.029307,-2.2877e-05,0.0087851,-0.00070324,0,0,0.053356,-0.022901,0,-0.0036569,0,0,0,0.029323,-3.9729e-05,0.0087851,-1.3727,0.01269,0.026095,5.7322e-07,0.62,0.1,0
0.029806,0.0087631,0.029355,-3.4162e-05,0.0087961,-0.00069474,0,0,0.053452,-0.022959,0,-0.0036127,0,0,0,0.029371,-5.0576e-05,0.0087961,-1.3535,0.012705,0.026146,5.7624e-07,0.63,0.1,0
0.030341,0.0088235,0.029401,-4.4332e-05,0.008807,-0.0006851,0,0,0.053544,-0.023013,0,-0.0035625,0,0,0,0.029417,-6.0264e-05,0.008807,-1.3321,0.012721,0.026194,5.7915e-07,0.64,0.1,0
0.030877,0.0088807,0.029446,-5.3487e-05,0.0088177,-0.00067438,0,0,0.053633,-0.023065,0,-0.0035068,0,0,0,0.029461,-6.8896e-05,0.0088177,-1.3089,0.012737,0.026241,5.8196e-07,0.65,0.1,0
0.031414,0.008935,0.029489,-6.172e-05,0.0088283,-0.00066264,0,0,0.053719,-0.023114,0,-0.0034457,0,0,0,0.029504,-7.6571e-05,0.0088283,-1.2839,0.012752,0.026285,5.8467e-07,0.66,0.1,0
0.031951,0.0089864,0.029532,-6.9115e-05,0.0088388,-0.00064994,0,0,0.053802,-0.023161,0,-0.0033797,0,0,0,0.029546,-8.3379e-05,0.0088388,-1.2572,0.012767,0.026328,5.8729e-07,0.67,0.1,0
0.03249,0.009035,0.029573,-7.575e-05,0.0088491,-0.00063635,0,0,0.053881,-0.023205,0,-0.003309,0,0,0,0.029586,-8.9401e-05,0.0088491,-1.229,0.012782,0.026368,5.8983e-07,0.68,0.1,0
0.033029,0.009081,0.029613,-8.1693e-05,0.0088593,-0.00062193,0,0,0.053959,-0.023246,0,-0.003234,0,0,0,0.029626,-9.4713e-05,0.0088593,-1.1993,0.012797,0.026408,5.9229e-07,0.69,0.1,0
0.033569,0.0091244,0.029651,-8.7007e-05,0.0088693,-0.00060673,0,0,0.054033,-0.023286,0,-0.003155,0,0,0,0.029664,-9.938e-05,0.0088693,-1.1683,0.012811,0.026445,5.9467e-07,0.7,0.1,0
0.03411,0.0091655,0.029689,-9.1747e-05,0.0088792,-0.00059081,0,0,0.054105,-0.023324,0,-0.0030722,0,0,0,0.029701,-0.00010346,0.0088792,-1.1361,0.012825,0.026481,5.9698e-07,0.71,0.1,0
0.034651,0.0092042,0.029725,-9.5966e-05,0.0088888,-0.00057424,0,0,0.054175,-0.02336,0,-0.0029861,0,0,0,0.029736,-0.00010702,0.0088888,-1.1027,0.012839,0.026516,5.9921e-07,0.72,0.1,0
0.035193,0.0092407,0.029761,-9.9707e-05,0.0088983,-0.00055706,0,0,0.054242,-0.023395,0,-0.0028967,0,0,0,0.029771,-0.0001101,0.0088983,-1.0684,0.012853,0.026549,6.0137e-07,0.73,0.1,0
0.035736,0.0092751,0.029795,-0.00010302,0.0089075,-0.00053934,0,0,0.054307,-0.023427,0,-0.0028046,0,0,0,0.029805,-0.00011274,0.0089075,-1.0331,0.012866,0.026581,6.0346e-07,0.74,0.1,0
0.036279,0.0093075,0.029828,-0.00010593,0.0089166,-0.00052112,0,0,0.054369,-0.023459,0,-0.0027099,0,0,0,0.029837,-0.000115,0.0089166,-0.99707,0.01288,0.026611,6.0547e-07,0.75,0.1,0
0.036823,0.0093379,0.02986,-0.00010848,0.0089254,-0.00050246,0,0,0.054429,-0.023488,0,-0.0026128,0,0,0,0.029868,-0.0001169,0.0089254,-0.96029,0.012892,0.026641,6.0741e-07,0.76,0.1,0
0.037368,0.0093665,0.02989,-0.00011071,0.0089339,-0.0004834,0,0,0.054487,-0.023516,0,-0.0025137,0,0,0,0.029898,-0.00011849,0.0089339,-0.92288,0.012904,0.026669,6.0928e-07,0.77,0.1,0
0.037913,0.0093934,0.02992,-0.00011264,0.0089422,-0.00046399,0,0,0.054542,-0.023543,0,-0.0024127,0,0,0,0.029927,-0.0001198,0.0089422,-0.88491,0.012916,0.026696,6.1107e-07,0.78,0.1,0
0.038459,0.0094185,0.029948,-0.0001143,0.0089502,-0.00044426,0,0,0.054595,-0.023568,0,-0.0023101,0,0,0,0.029955,-0.00012087,0.0089502,-0.84646,0.012928,0.026721,6.1279e-07,0.79,0.1,0
0.039005,0.0094421,0.029975,-0.00011573,0.0089579,-0.00042425,0,0,0.054645,-0.023591,0,-0.0022061,0,0,0,0.029981,-0.00012171,0.0089579,-0.8076,0.012939,0.026745,6.1444e-07,0.8,0.1,0
0.039552,0.009464,0.030001,-0.00011695,0.0089653,-0.00040401,0,0,0.054693,-0.023614,0,-0.0021008,0,0,0,0.030007,-0.00012237,0.0089653,-0.76839,0.01295,0.026768,6.16e-07,0.81,0.1,0
0.040099,0.0094845,0.030026,-0.00011798,0.0089723,-0.00038355,0,0,0.054739,-0.023635,0,-0.0019945,0,0,0,0.030031,-0.00012286,0.0089723,-0.72888,0.01296,0.02679,6.175e-07,0.82,0.1,0
0.040646,0.0095036,0.030049,-0.00011884,0.0089791,-0.00036291,0,0,0.054782,-0.023655,0,-0.0018871,0,0,0,0.030054,-0.00012321,0.0089791,-0.68912,0.01297,0.026811,6.1891e-07,0.83,0.1,0
0.041194,0.0095213,0.030071,-0.00011956,0.0089855,-0.00034212,0,0,0.054823,-0.023673,0,-0.001779,0,0,0,0.030075,-0.00012343,0.0089855,-0.64915,0.012979,0.02683,6.2025e-07,0.84,0.1,0
0.041743,0.0095376,0.030092,-0.00012014,0.0089916,-0.00032118,0,0,0.054861,-0.02369,0,-0.0016702,0,0,0,0.030096,-0.00012356,0.0089916,-0.60902,0.012988,0.026848,6.2152e-07,0.85,0.1,0
0.042292,0.0095527,0.030112,-0.00012062,0.0089973,-0.00030014,0,0,0.054897,-0.023707,0,-0.0015607,0,0,0,0.030115,-0.0001236,0.0089973,-0.56874,0.012996,0.026865,6.227e-07,0.86,0.1,0
0.042841,0.0095666,0.03013,-0.00012101,0.0090027,-0.00027899,0,0,0.054931,-0.023721,0,-0.0014508,0,0,0,0.030132,-0.00012358,0.0090027,-0.52836,0.013004,0.026881,6.238e-07,0.87,0.1,0
0.04339,0.0095792,0.030147,-0.00012131,0.0090076,-0.00025777,0,0,0.054962,-0.023735,0,-0.0013404,0,0,0,0.030149,-0.00012351,0.0090076,-0.48789,0.013011,0.026896,6.2483e-07,0.88,0.1,0
0.04394,0.0095908,0.030162,-0.00012155,0.0090123,-0.00023647,0,0,0.05499,-0.023748,0,-0.0012297,0,0,0,0.030164,-0.00012339,0.0090123,-0.44736,0.013018,0.026909,6.2578e-07,0.89,0.1,0
0.04449,0.0096012,0.030177,-0.00012173,0.0090165,-0.00021512,0,0,0.055017,-0.023759,0,-0.0011186,0,0,0,0.030178,-0.00012326,0.0090165,-0.40677,0.013024,0.026922,6.2664e-07,0.9,0.1,0
0.04504,0.0096105,0.03019,-0.00012187,0.0090203,-0.00019372,0,0,0.05504,-0.02377,0,-0.0010073,0,0,0,0.030191,-0.00012311,0.0090203,-0.36615,0.013029,0.026933,6.2743e-07,0.91,0.1,0
0.045591,0.0096188,0.030201,-0.00012197,0.0090238,-0.00017227,0,0,0.055061,-0.023779,0,-0.00089583,0,0,0,0.030202,-0.00012295,0.0090238,-0.3255,0.013034,0.026943,6.2813e-07,0.92,0.1,0
0.046142,0.009626,0.030211,-0.00012204,0.0090268,-0.0001508,0,0,0.05508,-0.023787,0,-0.00078416,0,0,0,0.030212,-0.00012279,0.0090268,-0.28483,0.013039,0.026951,6.2875e-07,0.93,0.1,0
0.046692,0.0096322,0.03022,-0.00012209,0.0090295,-0.0001293,0,0,0.055096,-0.023794,0,-0.00067236,0,0,0,0.030221,-0.00012264,0.0090295,-0.24415,0.013043,0.026959,6.2929e-07,0.94,0.1,0
0.047243,0.0096375,0.030228,-0.00012212,0.0090317,-0.00010778,0,0,0.05511,-0.0238,0,-0.00056045,0,0,0,0.030228,-0.0001225,0.0090317,-0.20347,0.013046,0.026965,6.2975e-07,0.95,0.1,0
0.047795,0.0096417,0.030234,-0.00012214,0.0090336,-8.6241e-05,0,0,0.055121,-0.023805,0,-0.00044845,0,0,0,0.030234,-0.00012239,0.0090336,-0.16277,0.013048,0.026971,6.3012e-07,0.96,0.1,0
0.048346,0.009645,0.030239,-0.00012216,0.009035,-6.4691e-05,0,0,0.05513,-0.023809,0,-0.00033639,0,0,0,0.030239,-0.00012229,0.009035,-0.12208,0.013051,0.026975,6.3041e-07,0.97,0.1,0
0.048897,0.0096474,0.030242,-0.00012216,0.0090361,-4.3132e-05,0,0,0.055136,-0.023811,0,-0.00022429,0,0,0,0.030242,-0.00012222,0.0090361,-0.081387,0.013052,0.026978,6.3062e-07,0.98,0.1,0
0.049449,0.0096488,0.030244,-0.00012217,0.0090367,-2.1567e-05,0,0,0.05514,-0.023813,0,-0.00011215,0,0,0,0.030245,-0.00012218,0.0090367,-0.040694,0.013053,0.02698,6.3075e-07,0.99,0.1,0
0.05,0.0096493,0.030245,-0.00012217,0.0090369,9.0196e-06,0,0,0.055141,-0.023814,0,4.6902e-05,0,0,0,0.030245,-0.00012217,0.0090369,0.017018,0.013053,0.02698,6.3079e-07,1,0.1,0
0,0,0.026702,0.011444,0.011444,0.0069415,0,0,0.039672,5.421e-20,0,0.036096,0,0,0,0.029388,0.0087586,0.011444,21.149,0.01653,0.019426,3.5238e-07,0,0.11,0
0.00039672,0.00036096,0.026679,0.010993,0.011302,0.006895,0,0,0.039982,-0.00080191,0,0.035854,0,0,0,0.029279,0.0083935,0.011302,20.66,0.016325,0.019594,3.5784e-07,0.01,0.11,0
0.00079963,0.0007126,0.026828,0.010476,0.011191,0.0067125,0,0,0.040656,-0.0018597,0,0.034905,0,0,0,0.02923,0.0080734,0.011191,19.693,0.016165,0.019783,3.6459e-07,0.02,0.11,0
0.0012098,0.0010521,0.026977,0.0098589,0.011051,0.0064537,0,0,0.041409,-0.003099,0,0.033559,0,0,0,0.029138,0.0076985,0.011051,18.508,0.015962,0.019975,3.7078e-07,0.03,0.11,0
0.0016278,0.0013766,0.02711,0.0091784,0.010887,0.0061189,0,0,0.042181,-0.0044412,0,0.031818,0,0,0,0.028999,0.0072894,0.010887,17.156,0.015725,0.020153,3.7566e-07,0.04,0.11,0
0.0020535,0.0016831,0.027211,0.0084671,0.010703,0.0057158,0,0,0.04292,-0.0058145,0,0.029722,0,0,0,0.028816,0.0068617,0.010703,15.689,0.015461,0.020308,3.7881e-07,0.05,0.11,0
0.0024862,0.001969,0.027269,0.0077513,0.010506,0.0052578,0,0,0.043583,-0.007162,0,0.02734,0,0,0,0.028595,0.0064251,0.010506,14.158,0.015175,0.020437,3.8016e-07,0.06,0.11,0
0.0029251,0.0022325,0.027276,0.0070491,0.010297,0.0047618,0,0,0.044144,-0.0084457,0,0.024761,0,0,0,0.028341,0.0059841,0.010297,12.607,0.014874,0.020542,3.7989e-07,0.07,0.11,0
0.0033691,0.0024721,0.02723,0.0063707,0.01008,0.0042463,0,0,0.044589,-0.0096445,0,0.022081,0,0,0,0.028061,0.0055394,0.01008,11.077,0.01456,0.020629,3.7831e-07,0.08,0.11,0
0.0038169,0.0026872,0.027131,0.0057207,0.0098555,0.0037289,0,0,0.044916,-0.01075,0,0.01939,0,0,0,0.027762,0.0050899,0.0098555,9.6023,0.014236,0.020705,3.7571e-07,0.09,0.11,0
0.0042674,0.0028781,0.026982,0.0051006,0.0096247,0.0032253,0,0,0.045128,-0.011763,0,0.016771,0,0,0,0.027447,0.0046351,0.0096247,8.2128,0.013902,0.020772,3.7229e-07,0.1,0.11,0
0.0047195,0.0030454,0.026784,0.004511,0.0093885,0.0027475,0,0,0.045228,-0.012681,0,0.014287,0,0,0,0.027118,0.0041771,0.0093885,6.9294,0.013561,0.02083,3.6806e-07,0.11,0.11,0
0.005172,0.0031905,0.026542,0.0039534,0.0091487,0.0023033,0,0,0.045223,-0.013508,0,0.011977,0,0,0,0.026775,0.0037209,0.0091487,5.7631,0.013215,0.020876,3.6294e-07,0.12,0.11,0
0.0056239,0.0033153,0.026261,0.0034259,0.0089062,0.0018959,0,0,0.045123,-0.014249,0,0.0098587,0,0,0,0.026418,0.0032695,0.0089062,4.7139,0.012864,0.020908,3.5691e-07,0.13,0.11,0
0.0060744,0.003422,0.025947,0.0029241,0.0086612,0.0015287,0,0,0.044942,-0.014916,0,0.0079491,0,0,0,0.026048,0.002823,0.0086612,3.7822,0.012511,0.020925,3.5002e-07,0.14,0.11,0
0.0065228,0.0035131,0.025599,0.0024453,0.0084133,0.0012045,0,0,0.044683,-0.015517,0,0.0062636,0,0,0,0.025662,0.0023828,0.0084133,2.97,0.012153,0.020926,3.4218e-07,0.15,0.11,0
0.0069681,0.0035917,0.025227,0.002008,0.0081705,0.00092364,0,0,0.044347,-0.016022,0,0.0048029,0,0,0,0.025264,0.0019714,0.0081705,2.2744,0.011802,0.020894,3.332e-07,0.16,0.11,0
0.0074097,0.0036608,0.02484,0.0016282,0.0079405,0.00067012,0,0,0.043939,-0.016412,0,0.0034847,0,0,0,0.024859,0.0016089,0.0079405,1.6523,0.01147,0.02082,3.2308e-07,0.17,0.11,0
0.0078469,0.0037232,0.024456,0.0012982,0.0077261,0.0004331,0,0,0.043496,-0.016713,0,0.0022521,0,0,0,0.024464,0.0012901,0.0077261,1.0711,0.01116,0.020719,3.1262e-07,0.18,0.11,0
0.0082796,0.0037814,0.024081,0.00099087,0.0075214,0.00020893,0,0,0.043054,-0.01698,0,0.0010864,0,0,0,0.024082,0.00098898,0.0075214,0.51838,0.010864,0.020619,3.0255e-07,0.19,0.11,0
0.008708,0.0038384,0.023732,0.00073445,0.0073398,7.1011e-06,0,0,0.042619,-0.017174,0,3.6926e-05,0,0,0,0.023732,0.00073445,0.0073398,0.017692,0.010602,0.020508,2.9304e-07,0.2,0.11,0
0.009132,0.0038966,0.023428,0.00056963,0.0071994,-0.00019425,0,0,0.042195,-0.017237,0,-0.0010101,0,0,0,0.02343,0.00056798,0.0071994,-0.48683,0.010399,0.020373,2.8422e-07,0.21,0.11,0
0.0095519,0.0039572,0.023179,0.00046771,0.0070941,-0.00041526,0,0,0.041822,-0.017229,0,-0.0021593,0,0,0,0.023187,0.00046012,0.0070941,-1.0471,0.010247,0.020242,2.7686e-07,0.22,0.11,0
0.0099684,0.0040201,0.023003,0.0003793,0.0070146,-0.00066313,0,0,0.041569,-0.017252,0,-0.0034483,0,0,0,0.023022,0.00035988,0.0070146,-1.6775,0.010132,0.020176,2.7229e-07,0.23,0.11,0
0.010383,0.0040853,0.022912,0.00026514,0.0069531,-0.00092167,0,0,0.041493,-0.017389,0,-0.0047927,0,0,0,0.022949,0.0002277,0.0069531,-2.3267,0.010043,0.020216,2.7143e-07,0.24,0.11,0
0.010798,0.0041531,0.022918,0.00011493,0.0069098,-0.0011702,0,0,0.041621,-0.017667,0,-0.0060849,0,0,0,0.022978,5.5042e-05,0.0069098,-2.93,0.0099808,0.020379,2.7469e-07,0.25,0.11,0
0.011216,0.0042244,0.023021,-7.3326e-05,0.0068842,-0.001387,0,0,0.041955,-0.01809,0,-0.0072126,0,0,0,0.023104,-0.00015633,0.0068842,-3.4248,0.0099438,0.02066,2.8197e-07,0.26,0.11,0
0.011637,0.0043012,0.023209,-0.00029172,0.0068752,-0.0015502,0,0,0.042468,-0.018634,0,-0.0080613,0,0,0,0.023311,-0.00039354,0.0068752,-3.7578,0.0099309,0.021034,2.9268e-07,0.27,0.11,0
0.012065,0.0043856,0.02347,-0.00050055,0.0068908,-0.0016427,0,0,0.043105,-0.019217,0,-0.0085418,0,0,0,0.023582,-0.00061259,0.0068908,-3.9021,0.0099533,0.021451,3.0577e-07,0.28,0.11,0
0.0125,0.0044798,0.023785,-0.00064985,0.0069405,-0.0016722,0,0,0.043795,-0.019735,0,-0.0086953,0,0,0,0.023899,-0.00076375,0.0069405,-3.8968,0.010025,0.021854,3.2014e-07,0.29,0.11,0
0.012941,0.0045844,0.024146,-0.00071586,0.0070291,-0.0016597,0,0,0.044504,-0.020137,0,-0.0086303,0,0,0,0.024257,-0.00082616,0.0070291,-3.8023,0.010153,0.022222,3.3541e-07,0.3,0.11,0
0.01339,0.0046991,0.024533,-0.00074889,0.0071351,-0.0016241,0,0,0.045233,-0.020498,0,-0.0084455,0,0,0,0.024636,-0.0008528,0.0071351,-3.6608,0.010306,0.022581,3.5161e-07,0.31,0.11,0
0.013846,0.0048231,0.024927,-0.00077559,0.0072454,-0.0015512,0,0,0.045972,-0.020855,0,-0.0080662,0,0,0,0.02502,-0.00086887,0.0072454,-3.4413,0.010466,0.022935,3.6833e-07,0.32,0.11,0
0.014309,0.0049559,0.025321,-0.00075938,0.0073684,-0.0014444,0,0,0.046676,-0.021132,0,-0.0075111,0,0,0,0.0254,-0.00083914,0.0073684,-3.1604,0.010643,0.023249,3.8476e-07,0.33,0.11,0
0.014779,0.0050967,0.025696,-0.00068945,0.007502,-0.0013198,0,0,0.047305,-0.021298,0,-0.0068629,0,0,0,0.025762,-0.0007553,0.007502,-2.8564,0.010836,0.023503,3.9998e-07,0.34,0.11,0
0.015255,0.0052441,0.026044,-0.00058672,0.0076372,-0.001199,0,0,0.047858,-0.021382,0,-0.0062347,0,0,0,0.026098,-0.00064059,0.0076372,-2.5726,0.011032,0.02371,4.1388e-07,0.35,0.11,0
0.015736,0.0053965,0.02636,-0.00047633,0.007765,-0.0010865,0,0,0.048346,-0.021427,0,-0.0056496,0,0,0,0.026403,-0.00052025,0.007765,-2.3146,0.011216,0.023884,4.2652e-07,0.36,0.11,0
0.016222,0.0055526,0.026647,-0.00036011,0.0078859,-0.00098411,0,0,0.048777,-0.02144,0,-0.0051174,0,0,0,0.026682,-0.00039593,0.0078859,-2.0842,0.011391,0.024032,4.38e-07,0.37,0.11,0
0.016712,0.0057107,0.026905,-0.00023905,0.0079997,-0.0008953,0,0,0.049153,-0.021421,0,-0.0046556,0,0,0,0.026934,-0.00026855,0.0079997,-1.8871,0.011555,0.024155,4.4827e-07,0.38,0.11,0
0.017205,0.0058697,0.027137,-0.00011857,0.0081055,-0.00082494,0,0,0.049481,-0.021382,0,-0.0042897,0,0,0,0.027162,-0.00014352,0.0081055,-1.7321,0.011708,0.024257,4.5747e-07,0.39,0.11,0
0.017701,0.0060282,0.027345,-7.7959e-06,0.0082013,-0.00077474,0,0,0.049775,-0.021344,0,-0.0040287,0,0,0,0.027367,-2.9722e-05,0.0082013,-1.6211,0.011846,0.024348,4.6585e-07,0.4,0.11,0
0.018201,0.0061849,0.027535,8.6848e-05,0.0082866,-0.00074311,0,0,0.050046,-0.021319,0,-0.0038642,0,0,0,0.027555,6.6744e-05,0.0082866,-1.5497,0.011969,0.024438,4.7373e-07,0.41,0.11,0
0.018702,0.0063389,0.02771,0.00016218,0.0083617,-0.0007266,0,0,0.050306,-0.021319,0,-0.0037783,0,0,0,0.027729,0.00014303,0.0083617,-1.5098,0.012078,0.024532,4.8133e-07,0.42,0.11,0
0.019207,0.0064893,0.027873,0.00021768,0.0084271,-0.00072132,0,0,0.050558,-0.021344,0,-0.0037509,0,0,0,0.027891,0.00019887,0.0084271,-1.4931,0.012172,0.024632,4.8877e-07,0.43,0.11,0
0.019713,0.0066356,0.028025,0.00025458,0.0084837,-0.00072374,0,0,0.050806,-0.021396,0,-0.0037635,0,0,0,0.028043,0.00023573,0.0084837,-1.4919,0.012254,0.024737,4.9611e-07,0.44,0.11,0
0.020223,0.0067774,0.028167,0.00027506,0.0085325,-0.00073095,0,0,0.051049,-0.021469,0,-0.0038009,0,0,0,0.028186,0.00025591,0.0085325,-1.5002,0.012325,0.024848,5.0332e-07,0.45,0.11,0
0.020734,0.0069144,0.028299,0.00028176,0.0085743,-0.00074067,0,0,0.051285,-0.021561,0,-0.0038515,0,0,0,0.028319,0.00026219,0.0085743,-1.5133,0.012385,0.024961,5.1039e-07,0.46,0.11,0
0.021249,0.0070465,0.028423,0.00027743,0.0086102,-0.00075123,0,0,0.051514,-0.021665,0,-0.0039064,0,0,0,0.028443,0.00025739,0.0086102,-1.5278,0.012437,0.025076,5.1726e-07,0.47,0.11,0
0.021765,0.0071735,0.028539,0.00026469,0.008641,-0.00076147,0,0,0.051734,-0.021778,0,-0.0039597,0,0,0,0.028559,0.00024419,0.008641,-1.5416,0.012481,0.025189,5.2389e-07,0.48,0.11,0
0.022283,0.0072955,0.028646,0.00024589,0.0086675,-0.00077064,0,0,0.051943,-0.021896,0,-0.0040073,0,0,0,0.028667,0.00022499,0.0086675,-1.5532,0.01252,0.0253,5.3024e-07,0.49,0.11,0
0.022804,0.0074125,0.028745,0.00022307,0.0086904,-0.00077829,0,0,0.052142,-0.022015,0,-0.0040471,0,0,0,0.028766,0.00020185,0.0086904,-1.5619,0.012553,0.025407,5.3628e-07,0.5,0.11,0
0.023326,0.0075246,0.028837,0.0001979,0.0087104,-0.0007842,0,0,0.052329,-0.022132,0,-0.0040778,0,0,0,0.028858,0.00017644,0.0087104,-1.5673,0.012582,0.025509,5.4198e-07,0.51,0.11,0
0.02385,0.007632,0.028922,0.00017169,0.008728,-0.00078832,0,0,0.052504,-0.022246,0,-0.0040993,0,0,0,0.028943,0.00015009,0.008728,-1.5695,0.012607,0.025606,5.4735e-07,0.52,0.11,0
0.024376,0.0077346,0.029,0.00014545,0.0087438,-0.0007907,0,0,0.052667,-0.022356,0,-0.0041116,0,0,0,0.029022,0.0001238,0.0087438,-1.5685,0.01263,0.025697,5.5238e-07,0.53,0.11,0
0.024904,0.0078327,0.029073,0.00011988,0.008758,-0.00079142,0,0,0.05282,-0.022459,0,-0.0041154,0,0,0,0.029095,9.8267e-05,0.008758,-1.5646,0.01265,0.025782,5.5709e-07,0.54,0.11,0
0.025433,0.0079264,0.029141,9.5475e-05,0.008771,-0.00079061,0,0,0.052962,-0.022556,0,-0.0041112,0,0,0,0.029163,7.3971e-05,0.008771,-1.558,0.012669,0.025861,5.6149e-07,0.55,0.11,0
0.025963,0.0080158,0.029204,7.252e-05,0.008783,-0.00078837,0,0,0.053095,-0.022647,0,-0.0040995,0,0,0,0.029226,5.12e-05,0.008783,-1.5491,0.012687,0.025935,5.6561e-07,0.56,0.11,0
0.026494,0.0081011,0.029263,5.1172e-05,0.0087943,-0.00078482,0,0,0.053219,-0.022732,0,-0.0040811,0,0,0,0.029284,3.0102e-05,0.0087943,-1.5378,0.012703,0.026004,5.6948e-07,0.57,0.11,0
0.027027,0.0081823,0.029319,3.1481e-05,0.0088051,-0.00078004,0,0,0.053336,-0.022811,0,-0.0040562,0,0,0,0.02934,1.0721e-05,0.0088051,-1.5246,0.012719,0.026069,5.7311e-07,0.58,0.11,0
0.027561,0.0082596,0.029371,1.3428e-05,0.0088154,-0.00077409,0,0,0.053445,-0.022885,0,-0.0040253,0,0,0,0.029392,-6.9686e-06,0.0088154,-1.5093,0.012733,0.026129,5.7654e-07,0.59,0.11,0
0.028096,0.0083331,0.029421,-3.0539e-06,0.0088254,-0.00076703,0,0,0.053548,-0.022954,0,-0.0039885,0,0,0,0.029441,-2.3035e-05,0.0088254,-1.4922,0.012748,0.026186,5.7978e-07,0.6,0.11,0
0.028632,0.0084031,0.029468,-1.8056e-05,0.0088351,-0.0007589,0,0,0.053646,-0.023018,0,-0.0039463,0,0,0,0.029488,-3.7575e-05,0.0088351,-1.4733,0.012762,0.026239,5.8286e-07,0.61,0.11,0
0.029169,0.0084695,0.029514,-3.1684e-05,0.0088446,-0.00074973,0,0,0.053739,-0.023078,0,-0.0038986,0,0,0,0.029533,-5.0697e-05,0.0088446,-1.4527,0.012776,0.02629,5.858e-07,0.62,0.11,0
0.029707,0.0085326,0.029557,-4.4046e-05,0.0088539,-0.00073955,0,0,0.053828,-0.023135,0,-0.0038457,0,0,0,0.029576,-6.2512e-05,0.0088539,-1.4303,0.012789,0.026337,5.8861e-07,0.63,0.11,0
0.030246,0.0085925,0.029599,-5.5248e-05,0.0088631,-0.00072839,0,0,0.053913,-0.023188,0,-0.0037877,0,0,0,0.029617,-7.3128e-05,0.0088631,-1.4062,0.012802,0.026382,5.913e-07,0.64,0.11,0
0.030785,0.0086492,0.029639,-6.5388e-05,0.0088722,-0.00071629,0,0,0.053994,-0.023238,0,-0.0037247,0,0,0,0.029656,-8.265e-05,0.0088722,-1.3805,0.012815,0.026425,5.9388e-07,0.65,0.11,0
0.031325,0.008703,0.029678,-7.4559e-05,0.0088811,-0.00070327,0,0,0.054073,-0.023285,0,-0.003657,0,0,0,0.029695,-9.1173e-05,0.0088811,-1.3533,0.012828,0.026466,5.9637e-07,0.66,0.11,0
0.031867,0.0087539,0.029716,-8.2844e-05,0.00889,-0.00068936,0,0,0.054148,-0.023329,0,-0.0035847,0,0,0,0.029732,-9.8783e-05,0.00889,-1.3245,0.012841,0.026505,5.9878e-07,0.67,0.11,0
0.032408,0.0088021,0.029753,-9.0318e-05,0.0088988,-0.00067462,0,0,0.054221,-0.023372,0,-0.003508,0,0,0,0.029768,-0.00010556,0.0088988,-1.2943,0.012854,0.026543,6.0109e-07,0.68,0.11,0
0.032951,0.0088477,0.029788,-9.7048e-05,0.0089074,-0.00065907,0,0,0.05429,-0.023412,0,-0.0034272,0,0,0,0.029803,-0.00011158,0.0089074,-1.2627,0.012866,0.026579,6.0333e-07,0.69,0.11,0
0.033494,0.0088908,0.029823,-0.0001031,0.0089159,-0.00064278,0,0,0.054358,-0.02345,0,-0.0033424,0,0,0,0.029837,-0.0001169,0.0089159,-1.2299,0.012879,0.026613,6.055e-07,0.7,0.11,0
0.034038,0.0089314,0.029856,-0.00010852,0.0089243,-0.00062578,0,0,0.054423,-0.023485,0,-0.003254,0,0,0,0.029869,-0.00012158,0.0089243,-1.1959,0.012891,0.026646,6.0759e-07,0.71,0.11,0
0.034583,0.0089698,0.029889,-0.00011336,0.0089326,-0.00060813,0,0,0.054486,-0.023519,0,-0.0031623,0,0,0,0.029901,-0.00012568,0.0089326,-1.1607,0.012903,0.026677,6.0961e-07,0.72,0.11,0
0.035128,0.009006,0.02992,-0.00011768,0.0089407,-0.00058987,0,0,0.054546,-0.023552,0,-0.0030673,0,0,0,0.029932,-0.00012926,0.0089407,-1.1246,0.012914,0.026707,6.1156e-07,0.73,0.11,0
0.035674,0.0090401,0.02995,-0.00012151,0.0089487,-0.00057106,0,0,0.054605,-0.023582,0,-0.0029695,0,0,0,0.029961,-0.00013235,0.0089487,-1.0875,0.012926,0.026736,6.1344e-07,0.74,0.11,0
0.03622,0.0090721,0.02998,-0.00012489,0.0089565,-0.00055176,0,0,0.054661,-0.023612,0,-0.0028691,0,0,0,0.02999,-0.000135,0.0089565,-1.0496,0.012937,0.026763,6.1525e-07,0.75,0.11,0
0.036767,0.0091023,0.030008,-0.00012787,0.008964,-0.00053199,0,0,0.054714,-0.023639,0,-0.0027663,0,0,0,0.030017,-0.00013725,0.008964,-1.011,0.012948,0.02679,6.17e-07,0.76,0.11,0
0.037314,0.0091307,0.030035,-0.00013047,0.0089714,-0.00051182,0,0,0.054766,-0.023665,0,-0.0026615,0,0,0,0.030044,-0.00013915,0.0089714,-0.97175,0.012959,0.026815,6.1867e-07,0.77,0.11,0
0.037862,0.0091572,0.030062,-0.00013274,0.0089786,-0.00049128,0,0,0.054815,-0.023689,0,-0.0025546,0,0,0,0.030069,-0.00014073,0.0089786,-0.9319,0.012969,0.026839,6.2028e-07,0.78,0.11,0
0.038411,0.0091821,0.030087,-0.00013471,0.0089856,-0.00047041,0,0,0.054863,-0.023713,0,-0.0024461,0,0,0,0.030094,-0.00014203,0.0089856,-0.89155,0.012979,0.026862,6.2182e-07,0.79,0.11,0
0.038959,0.0092054,0.030111,-0.0001364,0.0089923,-0.00044926,0,0,0.054908,-0.023734,0,-0.0023361,0,0,0,0.030117,-0.00014307,0.0089923,-0.85076,0.012989,0.026883,6.2329e-07,0.8,0.11,0
0.039509,0.0092272,0.030134,-0.00013785,0.0089987,-0.00042785,0,0,0.054951,-0.023755,0,-0.0022248,0,0,0,0.03014,-0.00014389,0.0089987,-0.80958,0.012998,0.026904,6.247e-07,0.81,0.11,0
0.040058,0.0092475,0.030155,-0.00013908,0.0090049,-0.00040622,0,0,0.054991,-0.023774,0,-0.0021123,0,0,0,0.030161,-0.00014452,0.0090049,-0.76809,0.013007,0.026923,6.2603e-07,0.82,0.11,0
0.040609,0.0092663,0.030176,-0.00014011,0.0090108,-0.00038439,0,0,0.05503,-0.023792,0,-0.0019988,0,0,0,0.030181,-0.00014498,0.0090108,-0.72631,0.013016,0.026941,6.273e-07,0.83,0.11,0
0.041159,0.0092839,0.030196,-0.00014098,0.0090165,-0.00036239,0,0,0.055066,-0.023809,0,-0.0018844,0,0,0,0.0302,-0.00014531,0.0090165,-0.68431,0.013024,0.026959,6.2849e-07,0.84,0.11,0
0.04171,0.0093001,0.030214,-0.0001417,0.0090218,-0.00034025,0,0,0.055101,-0.023825,0,-0.0017693,0,0,0,0.030218,-0.00014551,0.0090218,-0.64211,0.013031,0.026975,6.2962e-07,0.85,0.11,0
0.042261,0.009315,0.030232,-0.00014228,0.0090268,-0.00031799,0,0,0.055133,-0.02384,0,-0.0016535,0,0,0,0.030235,-0.00014561,0.0090268,-0.59975,0.013039,0.02699,6.3068e-07,0.86,0.11,0
0.042813,0.0093287,0.030248,-0.00014276,0.0090315,-0.00029561,0,0,0.055163,-0.023853,0,-0.0015372,0,0,0,0.030251,-0.00014564,0.0090315,-0.55725,0.013046,0.027004,6.3166e-07,0.87,0.11,0
0.043364,0.0093413,0.030263,-0.00014315,0.0090359,-0.00027315,0,0,0.05519,-0.023866,0,-0.0014204,0,0,0,0.030265,-0.0001456,0.0090359,-0.51465,0.013052,0.027017,6.3258e-07,0.88,0.11,0
0.043916,0.0093527,0.030277,-0.00014345,0.00904,-0.0002506,0,0,0.055216,-0.023877,0,-0.0013031,0,0,0,0.030279,-0.00014552,0.00904,-0.47196,0.013058,0.027029,6.3342e-07,0.89,0.11,0
0.044469,0.009363,0.03029,-0.00014369,0.0090438,-0.00022799,0,0,0.055239,-0.023887,0,-0.0011856,0,0,0,0.030291,-0.0001454,0.0090438,-0.4292,0.013063,0.02704,6.3419e-07,0.9,0.11,0
0.045021,0.0093722,0.030301,-0.00014387,0.0090472,-0.00020533,0,0,0.05526,-0.023897,0,-0.0010677,0,0,0,0.030302,-0.00014526,0.0090472,-0.38639,0.013068,0.02705,6.3489e-07,0.91,0.11,0
0.045574,0.0093804,0.030311,-0.00014401,0.0090502,-0.00018261,0,0,0.055279,-0.023905,0,-0.00094959,0,0,0,0.030312,-0.00014511,0.0090502,-0.34353,0.013073,0.027058,6.3552e-07,0.92,0.11,0
0.046127,0.0093875,0.030321,-0.00014412,0.0090529,-0.00015986,0,0,0.055296,-0.023912,0,-0.00083128,0,0,0,0.030321,-0.00014496,0.0090529,-0.30064,0.013076,0.027066,6.3607e-07,0.93,0.11,0
0.04668,0.0093937,0.030329,-0.00014419,0.0090553,-0.00013708,0,0,0.05531,-0.023919,0,-0.0007128,0,0,0,0.030329,-0.00014481,0.0090553,-0.25773,0.01308,0.027073,6.3655e-07,0.94,0.11,0
0.047233,0.0093989,0.030335,-0.00014425,0.0090573,-0.00011427,0,0,0.055323,-0.023924,0,-0.00059419,0,0,0,0.030336,-0.00014468,0.0090573,-0.2148,0.013083,0.027078,6.3696e-07,0.95,0.11,0
0.047786,0.0094031,0.030341,-0.00014428,0.0090589,-9.1438e-05,0,0,0.055333,-0.023928,0,-0.00047547,0,0,0,0.030341,-0.00014456,0.0090589,-0.17185,0.013085,0.027083,6.3729e-07,0.96,0.11,0
0.04834,0.0094064,0.030345,-0.00014431,0.0090602,-6.8591e-05,0,0,0.05534,-0.023932,0,-0.00035667,0,0,0,0.030345,-0.00014446,0.0090602,-0.1289,0.013087,0.027087,6.3755e-07,0.97,0.11,0
0.048893,0.0094087,0.030348,-0.00014432,0.0090611,-4.5734e-05,0,0,0.055346,-0.023934,0,-0.00023782,0,0,0,0.030348,-0.00014439,0.0090611,-0.085934,0.013088,0.027089,6.3774e-07,0.98,0.11,0
0.049446,0.0094101,0.03035,-0.00014433,0.0090617,-2.2869e-05,0,0,0.055349,-0.023936,0,-0.00011892,0,0,0,0.03035,-0.00014435,0.0090617,-0.042968,0.013089,0.027091,6.3785e-07,0.99,0.11,0
0.05,0.0094105,0.03035,-0.00014433,0.0090618,8.9215e-06,0,0,0.05535,-0.023936,0,4.6392e-05,0,0,0,0.03035,-0.00014434,0.0090618,0.016762,0.013089,0.027092,6.3789e-07,1,0.11,0
0,0,0.0269,0.011529,0.011529,0.0068006,0,0,0.039966,-2.7105e-20,0,0.035363,0,0,0,0.029477,0.0089518,0.011529,20.752,0.016652,0.019366,3.5084e-07,0,0.12,0
0.00039966,0.00035363,0.026882,0.011147,0.011409,0.0067563,0,0,0.04023,-0.00068004,0,0.035133,0,0,0,0.029385,0.0086442,0.011409,20.328,0.016479,0.019506,3.5549e-07,0.01,0.12,0
0.0008046,0.00069548,0.027008,0.010696,0.011311,0.0065633,0,0,0.040811,-0.0015988,0,0.034129,0,0,0,0.029321,0.0083835,0.011311,19.413,0.016338,0.019638,3.5998e-07,0.02,0.12,0
0.0012159,0.0010234,0.027136,0.01015,0.011186,0.006312,0,0,0.041471,-0.002693,0,0.032822,0,0,0,0.029225,0.0080614,0.011186,18.31,0.016157,0.019787,3.6467e-07,0.03,0.12,0
0.001634,0.0013352,0.027251,0.009537,0.011036,0.0060015,0,0,0.042158,-0.0038985,0,0.031208,0,0,0,0.029093,0.0076952,0.011036,17.061,0.015942,0.019938,3.6884e-07,0.04,0.12,0
0.002059,0.0016286,0.027339,0.0088835,0.010867,0.0056362,0,0,0.042828,-0.0051567,0,0.029308,0,0,0,0.028924,0.0072984,0.010867,15.708,0.015697,0.020081,3.7201e-07,0.05,0.12,0
0.0024906,0.0019016,0.02739,0.0082112,0.01068,0.0052252,0,0,0.043445,-0.0064196,0,0.027171,0,0,0,0.028721,0.00688,0.01068,14.293,0.015427,0.020211,3.7397e-07,0.06,0.12,0
0.0029279,0.0021524,0.027395,0.0075358,0.010479,0.004781,0,0,0.043981,-0.0076531,0,0.024861,0,0,0,0.028486,0.0064448,0.010479,12.855,0.015137,0.020327,3.7471e-07,0.07,0.12,0
0.0033702,0.0023801,0.027351,0.0068671,0.010266,0.0043185,0,0,0.044423,-0.0088359,0,0.022456,0,0,0,0.028224,0.0059939,0.010266,11.431,0.014828,0.020432,3.7438e-07,0.08,0.12,0
0.0038164,0.0025841,0.027256,0.0062101,0.01004,0.0038531,0,0,0.044762,-0.0099571,0,0.020036,0,0,0,0.027939,0.0055268,0.01004,10.055,0.014502,0.020531,3.7312e-07,0.09,0.12,0
0.0042654,0.0027646,0.027107,0.0055677,0.0098025,0.0034004,0,0,0.044992,-0.01101,0,0.017682,0,0,0,0.027631,0.0050436,0.0098025,8.7613,0.014159,0.020624,3.7096e-07,0.1,0.12,0
0.0047162,0.0029224,0.026904,0.0049441,0.0095543,0.0029735,0,0,0.045108,-0.011987,0,0.015462,0,0,0,0.027299,0.0045486,0.0095543,7.5766,0.013801,0.020707,3.6771e-07,0.11,0.12,0
0.0051676,0.003059,0.026642,0.0043464,0.0092966,0.0025803,0,0,0.045099,-0.01287,0,0.013418,0,0,0,0.026937,0.0040517,0.0092966,6.5162,0.013428,0.020766,3.6288e-07,0.12,0.12,0
0.0056182,0.0031762,0.026329,0.0037866,0.0090346,0.0022211,0,0,0.044965,-0.013645,0,0.01155,0,0,0,0.026546,0.0035698,0.0090346,5.574,0.01305,0.020789,3.5621e-07,0.13,0.12,0
0.0060669,0.0032759,0.025967,0.003252,0.0087657,0.0018908,0,0,0.044723,-0.014335,0,0.0098323,0,0,0,0.026123,0.0030957,0.0087657,4.726,0.012662,0.020781,3.4785e-07,0.14,0.12,0
0.0065127,0.0033608,0.025558,0.0027262,0.0084852,0.0016015,0,0,0.044388,-0.014973,0,0.0083278,0,0,0,0.02567,0.0026144,0.0084852,3.9929,0.012256,0.020752,3.3817e-07,0.15,0.12,0
0.0069547,0.0034343,0.025086,0.0022233,0.0081926,0.0013587,0,0,0.043922,-0.01552,0,0.007065,0,0,0,0.025166,0.0021428,0.0081926,3.3891,0.011834,0.020673,3.2619e-07,0.16,0.12,0
0.0073911,0.0034998,0.024591,0.0018492,0.0079321,0.0011462,0,0,0.043313,-0.015815,0,0.00596,0,0,0,0.024649,0.0017916,0.0079321,2.8779,0.011458,0.020489,3.1167e-07,0.17,0.12,0
0.007821,0.0035595,0.024086,0.0015582,0.0076933,0.00089598,0,0,0.042621,-0.015951,0,0.0046591,0,0,0,0.024122,0.0015227,0.0076933,2.274,0.011113,0.020232,2.9577e-07,0.18,0.12,0
0.0082435,0.0036152,0.023583,0.0012336,0.007445,0.00064152,0,0,0.041959,-0.01615,0,0.0033359,0,0,0,0.023602,0.0012152,0.007445,1.6428,0.010754,0.020012,2.8116e-07,0.19,0.12,0
0.0086601,0.0036705,0.023117,0.00094531,0.0072188,0.00039114,0,0,0.041336,-0.016311,0,0.0020339,0,0,0,0.023124,0.00093841,0.0072188,1.0103,0.010427,0.019807,2.6802e-07,0.2,0.12,0
0.0090703,0.0037285,0.022721,0.00081307,0.0070601,0.00014423,0,0,0.040717,-0.016242,0,0.00074998,0,0,0,0.022722,0.00081212,0.0070601,0.37718,0.010198,0.019549,2.5574e-07,0.21,0.12,0
0.0094745,0.0037898,0.02241,0.00077579,0.0069559,-0.00016465,0,0,0.040182,-0.016068,0,-0.00085616,0,0,0,0.022412,0.00077453,0.0069559,-0.436,0.010047,0.019304,2.4576e-07,0.22,0.12,0
0.0098739,0.0038529,0.022181,0.00069856,0.006864,-0.00051426,0,0,0.039825,-0.01603,0,-0.0026742,0,0,0,0.022194,0.00068625,0.006864,-1.3705,0.0099147,0.01918,2.3969e-07,0.23,0.12,0
0.010271,0.0039168,0.022069,0.00057651,0.0067936,-0.00087411,0,0,0.039715,-0.016164,0,-0.0045454,0,0,0,0.022104,0.00054102,0.0067936,-2.3251,0.0098129,0.019216,2.3858e-07,0.24,0.12,0
0.010668,0.0039816,0.022068,0.00040695,0.0067425,-0.001222,0,0,0.039847,-0.016473,0,-0.0063546,0,0,0,0.022137,0.00033822,0.0067425,-3.2188,0.0097392,0.019406,2.4217e-07,0.25,0.12,0
0.011068,0.0040484,0.022182,0.00018677,0.0067105,-0.0015425,0,0,0.040225,-0.016962,0,-0.0080212,0,0,0,0.022289,7.9121e-05,0.0067105,-3.9922,0.009693,0.019748,2.5043e-07,0.26,0.12,0
0.011473,0.0041189,0.022413,-8.7476e-05,0.0066978,-0.0018104,0,0,0.040861,-0.017642,0,-0.0094141,0,0,0,0.022558,-0.00023221,0.0066978,-4.5708,0.0096746,0.020236,2.6344e-07,0.27,0.12,0
0.011885,0.0041966,0.022728,-0.00040899,0.0066957,-0.001991,0,0,0.041684,-0.018472,0,-0.010353,0,0,0,0.022898,-0.00057908,0.0066957,-4.8827,0.0096716,0.020816,2.7975e-07,0.28,0.12,0
0.012306,0.0042846,0.023132,-0.00063221,0.00675,-0.0020652,0,0,0.042594,-0.019194,0,-0.010739,0,0,0,0.02331,-0.00081035,0.00675,-4.9299,0.00975,0.021368,2.9787e-07,0.29,0.12,0
0.012737,0.0043847,0.023611,-0.00070184,0.0068728,-0.0021043,0,0,0.04352,-0.019694,0,-0.010942,0,0,0,0.023792,-0.00088262,0.0068728,-4.9103,0.0099274,0.021854,3.1743e-07,0.3,0.12,0
0.013177,0.0044952,0.024129,-0.00076777,0.0070083,-0.0021036,0,0,0.044513,-0.020218,0,-0.010939,0,0,0,0.024305,-0.00094425,0.0070083,-4.7958,0.010123,0.02236,3.3898e-07,0.31,0.12,0
0.013627,0.0046147,0.024649,-0.00089484,0.0071262,-0.0020428,0,0,0.045559,-0.020855,0,-0.010623,0,0,0,0.024811,-0.0010572,0.0071262,-4.5437,0.010293,0.022901,3.6187e-07,0.32,0.12,0
0.014088,0.004744,0.025159,-0.00093423,0.0072676,-0.0018882,0,0,0.046519,-0.021325,0,-0.0098185,0,0,0,0.025295,-0.0010701,0.0072676,-4.1174,0.010498,0.023342,3.8336e-07,0.33,0.12,0
0.014558,0.0048827,0.025647,-0.00083454,0.0074436,-0.0017211,0,0,0.047328,-0.021523,0,-0.0089497,0,0,0,0.025758,-0.00094594,0.0074436,-3.7031,0.010752,0.023653,4.0265e-07,0.34,0.12,0
0.015034,0.0050292,0.026068,-0.00071921,0.0076048,-0.0015662,0,0,0.048005,-0.021642,0,-0.0081443,0,0,0,0.02616,-0.00081047,0.0076048,-3.3348,0.010985,0.023901,4.1946e-07,0.35,0.12,0
0.015518,0.005181,0.026446,-0.00060891,0.0077511,-0.0014209,0,0,0.048607,-0.021736,0,-0.0073888,0,0,0,0.02652,-0.00068334,0.0077511,-2.9982,0.011196,0.024119,4.3483e-07,0.36,0.12,0
0.016007,0.0053368,0.026783,-0.00048634,0.007889,-0.001278,0,0,0.049124,-0.021776,0,-0.0066454,0,0,0,0.026843,-0.0005461,0.007889,-2.6773,0.011395,0.024295,4.4844e-07,0.37,0.12,0
0.0165,0.0054952,0.02708,-0.00034145,0.0080216,-0.0011511,0,0,0.049552,-0.021744,0,-0.0059859,0,0,0,0.027128,-0.00038969,0.0080216,-2.3996,0.011587,0.024424,4.6011e-07,0.38,0.12,0
0.016998,0.0056547,0.027337,-0.00019373,0.008143,-0.0010503,0,0,0.049904,-0.021675,0,-0.0054617,0,0,0,0.027377,-0.00023374,0.008143,-2.1817,0.011762,0.02452,4.7003e-07,0.39,0.12,0
0.017498,0.0058136,0.027562,-5.8265e-05,0.0082512,-0.00097748,0,0,0.050209,-0.021605,0,-0.0050829,0,0,0,0.027597,-9.2814e-05,0.0082512,-2.0243,0.011918,0.024603,4.7884e-07,0.4,0.12,0
0.018002,0.0059707,0.027765,5.5921e-05,0.0083462,-0.00092868,0,0,0.050488,-0.021555,0,-0.0048291,0,0,0,0.027796,2.483e-05,0.0083462,-1.9174,0.012056,0.024685,4.8704e-07,0.41,0.12,0
0.018508,0.0061247,0.027949,0.00014561,0.0084285,-0.00089825,0,0,0.050754,-0.021535,0,-0.0046709,0,0,0,0.027978,0.00011662,0.0084285,-1.8485,0.012174,0.024775,4.9495e-07,0.42,0.12,0
0.019017,0.006275,0.02812,0.00021115,0.0084993,-0.00088099,0,0,0.051013,-0.021549,0,-0.0045811,0,0,0,0.028148,0.00018337,0.0084993,-1.8062,0.012277,0.024872,5.027e-07,0.43,0.12,0
0.019528,0.0064208,0.028278,0.00025452,0.0085597,-0.00087254,0,0,0.051267,-0.021593,0,-0.0045372,0,0,0,0.028305,0.00022738,0.0085597,-1.7817,0.012364,0.024976,5.1032e-07,0.44,0.12,0
0.020042,0.0065619,0.028424,0.00027874,0.0086109,-0.00086956,0,0,0.051515,-0.021664,0,-0.0045217,0,0,0,0.028451,0.0002519,0.0086109,-1.7679,0.012438,0.025087,5.178e-07,0.45,0.12,0
0.020559,0.006698,0.02856,0.00028717,0.0086541,-0.00086957,0,0,0.051755,-0.021754,0,-0.0045217,0,0,0,0.028587,0.00026045,0.0086541,-1.76,0.0125,0.025201,5.2509e-07,0.46,0.12,0
0.021077,0.0068289,0.028685,0.00028317,0.0086906,-0.0008708,0,0,0.051987,-0.021859,0,-0.0045282,0,0,0,0.028712,0.0002565,0.0086906,-1.7545,0.012553,0.025315,5.3214e-07,0.47,0.12,0
0.021598,0.0069548,0.028801,0.00026985,0.0087213,-0.0008721,0,0,0.052208,-0.021974,0,-0.0045349,0,0,0,0.028828,0.00024322,0.0087213,-1.7491,0.012597,0.025429,5.389e-07,0.48,0.12,0
0.022121,0.0070756,0.028908,0.00024993,0.0087473,-0.00087273,0,0,0.052417,-0.022093,0,-0.0045382,0,0,0,0.028934,0.00022338,0.0087473,-1.7427,0.012635,0.025539,5.4531e-07,0.49,0.12,0
0.022647,0.0071914,0.029006,0.00022572,0.0087694,-0.00087233,0,0,0.052614,-0.022213,0,-0.0045361,0,0,0,0.029032,0.0001993,0.0087694,-1.7346,0.012667,0.025645,5.5137e-07,0.5,0.12,0
0.023174,0.0073024,0.029095,0.00019907,0.0087882,-0.00087074,0,0,0.052798,-0.022332,0,-0.0045278,0,0,0,0.029121,0.00017285,0.0087882,-1.7244,0.012694,0.025746,5.5704e-07,0.51,0.12,0
0.023703,0.0074086,0.029177,0.00017142,0.0088045,-0.00086795,0,0,0.052969,-0.022446,0,-0.0045133,0,0,0,0.029203,0.00014547,0.0088045,-1.7125,0.012718,0.02584,5.6233e-07,0.52,0.12,0
0.024233,0.0075101,0.029252,0.00014383,0.0088188,-0.00086404,0,0,0.053127,-0.022555,0,-0.004493,0,0,0,0.029278,0.0001182,0.0088188,-1.6988,0.012738,0.025928,5.6724e-07,0.53,0.12,0
0.024765,0.0076072,0.029321,0.00011702,0.0088314,-0.00085912,0,0,0.053273,-0.022657,0,-0.0044675,0,0,0,0.029346,9.1771e-05,0.0088314,-1.6836,0.012757,0.02601,5.718e-07,0.54,0.12,0
0.025299,0.0076999,0.029384,9.1484e-05,0.0088428,-0.00085331,0,0,0.053408,-0.022753,0,-0.0044372,0,0,0,0.029409,6.6648e-05,0.0088428,-1.6671,0.012773,0.026086,5.7602e-07,0.55,0.12,0
0.025833,0.0077884,0.029443,6.7488e-05,0.0088531,-0.00084667,0,0,0.053533,-0.022843,0,-0.0044027,0,0,0,0.029467,4.3105e-05,0.0088531,-1.6496,0.012788,0.026157,5.7995e-07,0.56,0.12,0
0.026369,0.0078728,0.029497,4.5164e-05,0.0088627,-0.00083929,0,0,0.05365,-0.022926,0,-0.0043643,0,0,0,0.029521,2.1267e-05,0.0088627,-1.631,0.012802,0.026222,5.8359e-07,0.57,0.12,0
0.026906,0.0079532,0.029548,2.4541e-05,0.0088717,-0.00083118,0,0,0.053758,-0.023003,0,-0.0043221,0,0,0,0.029571,1.1589e-06,0.0088717,-1.6114,0.012815,0.026283,5.87e-07,0.58,0.12,0
0.027445,0.0080298,0.029595,5.579e-06,0.0088803,-0.00082236,0,0,0.053859,-0.023074,0,-0.0042763,0,0,0,0.029618,-1.7259e-05,0.0088803,-1.5907,0.012827,0.026339,5.9019e-07,0.59,0.12,0
0.027984,0.0081027,0.02964,-1.18e-05,0.0088885,-0.00081282,0,0,0.053954,-0.023141,0,-0.0042267,0,0,0,0.029662,-3.4064e-05,0.0088885,-1.569,0.012839,0.026392,5.9319e-07,0.6,0.12,0
0.028524,0.008172,0.029682,-2.7696e-05,0.0088964,-0.00080254,0,0,0.054044,-0.023203,0,-0.0041732,0,0,0,0.029704,-4.9358e-05,0.0088964,-1.5462,0.01285,0.026441,5.9603e-07,0.61,0.12,0
0.029064,0.0082378,0.029723,-4.2216e-05,0.0089042,-0.0007915,0,0,0.054128,-0.023261,0,-0.0041158,0,0,0,0.029744,-6.3248e-05,0.0089042,-1.5221,0.012862,0.026487,5.9872e-07,0.62,0.12,0
0.029606,0.0083004,0.029761,-5.5468e-05,0.0089118,-0.00077967,0,0,0.054209,-0.023315,0,-0.0040543,0,0,0,0.029782,-7.5842e-05,0.0089118,-1.4969,0.012873,0.026531,6.0129e-07,0.63,0.12,0
0.030149,0.0083597,0.029798,-6.7553e-05,0.0089193,-0.00076705,0,0,0.054286,-0.023366,0,-0.0039887,0,0,0,0.029818,-8.724e-05,0.0089193,-1.4702,0.012883,0.026573,6.0374e-07,0.64,0.12,0
0.030692,0.008416,0.029834,-7.8564e-05,0.0089267,-0.00075362,0,0,0.05436,-0.023414,0,-0.0039188,0,0,0,0.029853,-9.7539e-05,0.0089267,-1.4423,0.012894,0.026612,6.0609e-07,0.65,0.12,0
0.031236,0.0084693,0.029869,-8.8588e-05,0.008934,-0.00073938,0,0,0.05443,-0.023459,0,-0.0038448,0,0,0,0.029887,-0.00010682,0.008934,-1.413,0.012905,0.026649,6.0834e-07,0.66,0.12,0
0.031781,0.0085198,0.029902,-9.7699e-05,0.0089413,-0.00072434,0,0,0.054498,-0.023501,0,-0.0037666,0,0,0,0.02992,-0.00011518,0.0089413,-1.3823,0.012915,0.026685,6.1051e-07,0.67,0.12,0
0.032326,0.0085676,0.029934,-0.00010597,0.0089485,-0.00070852,0,0,0.054563,-0.023542,0,-0.0036843,0,0,0,0.029951,-0.00012267,0.0089485,-1.3504,0.012926,0.026719,6.126e-07,0.68,0.12,0
0.032872,0.0086128,0.029965,-0.00011346,0.0089556,-0.00069195,0,0,0.054626,-0.02358,0,-0.0035982,0,0,0,0.029982,-0.00012936,0.0089556,-1.3171,0.012936,0.026752,6.1461e-07,0.69,0.12,0
0.033418,0.0086554,0.029996,-0.00012022,0.0089627,-0.00067466,0,0,0.054686,-0.023616,0,-0.0035082,0,0,0,0.030011,-0.00013532,0.0089627,-1.2827,0.012946,0.026783,6.1656e-07,0.7,0.12,0
0.033965,0.0086958,0.030025,-0.00012631,0.0089697,-0.00065668,0,0,0.054744,-0.02365,0,-0.0034147,0,0,0,0.03004,-0.0001406,0.0089697,-1.2471,0.012956,0.026812,6.1843e-07,0.71,0.12,0
0.034513,0.0087338,0.030054,-0.00013178,0.0089765,-0.00063805,0,0,0.0548,-0.023682,0,-0.0033179,0,0,0,0.030067,-0.00014526,0.0089765,-1.2104,0.012966,0.02684,6.2023e-07,0.72,0.12,0
0.035061,0.0087697,0.030081,-0.00013667,0.0089833,-0.00061883,0,0,0.054854,-0.023712,0,-0.0032179,0,0,0,0.030094,-0.00014934,0.0089833,-1.1727,0.012976,0.026867,6.2197e-07,0.73,0.12,0
0.03561,0.0088035,0.030108,-0.00014102,0.00899,-0.00059906,0,0,0.054906,-0.023741,0,-0.0031151,0,0,0,0.03012,-0.00015288,0.00899,-1.1341,0.012986,0.026893,6.2365e-07,0.74,0.12,0
0.03616,0.0088353,0.030133,-0.00014489,0.0089965,-0.00057877,0,0,0.054956,-0.023768,0,-0.0030096,0,0,0,0.030144,-0.00015595,0.0089965,-1.0947,0.012995,0.026918,6.2526e-07,0.75,0.12,0
0.036709,0.0088652,0.030158,-0.0001483,0.0090029,-0.00055803,0,0,0.055003,-0.023793,0,-0.0029018,0,0,0,0.030168,-0.00015857,0.0090029,-1.0545,0.013004,0.026941,6.2681e-07,0.76,0.12,0
0.03726,0.0088932,0.030182,-0.00015129,0.0090092,-0.00053687,0,0,0.055049,-0.023817,0,-0.0027917,0,0,0,0.030191,-0.00016079,0.0090092,-1.0137,0.013013,0.026963,6.2829e-07,0.77,0.12,0
0.03781,0.0089196,0.030205,-0.00015391,0.0090153,-0.00051534,0,0,0.055093,-0.02384,0,-0.0026798,0,0,0,0.030214,-0.00016266,0.0090153,-0.97222,0.013022,0.026985,6.2971e-07,0.78,0.12,0
0.038361,0.0089443,0.030227,-0.00015619,0.0090212,-0.00049347,0,0,0.055135,-0.023861,0,-0.002566,0,0,0,0.030235,-0.0001642,0.0090212,-0.93025,0.013031,0.027005,6.3108e-07,0.79,0.12,0
0.038913,0.0089674,0.030248,-0.00015815,0.0090269,-0.0004713,0,0,0.055175,-0.023881,0,-0.0024508,0,0,0,0.030255,-0.00016546,0.0090269,-0.88782,0.013039,0.027024,6.3238e-07,0.8,0.12,0
0.039465,0.0089889,0.030268,-0.00015984,0.0090324,-0.00044887,0,0,0.055212,-0.0239,0,-0.0023341,0,0,0,0.030275,-0.00016646,0.0090324,-0.84498,0.013047,0.027042,6.3361e-07,0.81,0.12,0
0.040017,0.009009,0.030287,-0.00016128,0.0090378,-0.00042621,0,0,0.055248,-0.023918,0,-0.0022163,0,0,0,0.030293,-0.00016725,0.0090378,-0.8018,0.013055,0.027059,6.3479e-07,0.82,0.12,0
0.04057,0.0090277,0.030305,-0.0001625,0.0090428,-0.00040334,0,0,0.055282,-0.023934,0,-0.0020974,0,0,0,0.030311,-0.00016784,0.0090428,-0.75831,0.013062,0.027075,6.359e-07,0.83,0.12,0
0.041123,0.0090451,0.030322,-0.00016353,0.0090477,-0.00038029,0,0,0.055315,-0.023949,0,-0.0019775,0,0,0,0.030327,-0.00016827,0.0090477,-0.71458,0.013069,0.02709,6.3696e-07,0.84,0.12,0
0.041676,0.0090611,0.030339,-0.00016439,0.0090523,-0.00035709,0,0,0.055345,-0.023963,0,-0.0018569,0,0,0,0.030343,-0.00016857,0.0090523,-0.67062,0.013076,0.027104,6.3795e-07,0.85,0.12,0
0.04223,0.0090759,0.030354,-0.0001651,0.0090567,-0.00033375,0,0,0.055373,-0.023977,0,-0.0017355,0,0,0,0.030358,-0.00016875,0.0090567,-0.62648,0.013082,0.027117,6.3888e-07,0.86,0.12,0
0.042784,0.0090895,0.030368,-0.00016568,0.0090607,-0.0003103,0,0,0.055399,-0.023989,0,-0.0016135,0,0,0,0.030371,-0.00016883,0.0090607,-0.58218,0.013088,0.02713,6.3974e-07,0.87,0.12,0
0.043338,0.0091019,0.030381,-0.00016615,0.0090646,-0.00028674,0,0,0.055424,-0.024,0,-0.0014911,0,0,0,0.030384,-0.00016884,0.0090646,-0.53775,0.013093,0.027141,6.4055e-07,0.88,0.12,0
0.043892,0.0091132,0.030394,-0.00016653,0.0090681,-0.0002631,0,0,0.055446,-0.02401,0,-0.0013681,0,0,0,0.030396,-0.0001688,0.0090681,-0.49322,0.013098,0.027151,6.4129e-07,0.89,0.12,0
0.044447,0.0091234,0.030405,-0.00016684,0.0090714,-0.00023938,0,0,0.055467,-0.024019,0,-0.0012448,0,0,0,0.030407,-0.00016871,0.0090714,-0.4486,0.013103,0.027161,6.4197e-07,0.9,0.12,0
0.045001,0.0091326,0.030415,-0.00016708,0.0090743,-0.0002156,0,0,0.055485,-0.024028,0,-0.0011211,0,0,0,0.030416,-0.0001686,0.0090743,-0.4039,0.013107,0.027169,6.4259e-07,0.91,0.12,0
0.045556,0.0091407,0.030424,-0.00016726,0.009077,-0.00019176,0,0,0.055502,-0.024035,0,-0.00099717,0,0,0,0.030425,-0.00016846,0.009077,-0.35914,0.013111,0.027177,6.4314e-07,0.92,0.12,0
0.046112,0.0091478,0.030432,-0.0001674,0.0090794,-0.00016788,0,0,0.055517,-0.024042,0,-0.00087299,0,0,0,0.030433,-0.00016832,0.0090794,-0.31434,0.013115,0.027184,6.4362e-07,0.93,0.12,0
0.046667,0.0091539,0.030439,-0.00016751,0.0090814,-0.00014396,0,0,0.05553,-0.024047,0,-0.00074861,0,0,0,0.03044,-0.00016819,0.0090814,-0.26949,0.013118,0.02719,6.4405e-07,0.94,0.12,0
0.047222,0.009159,0.030445,-0.00016759,0.0090832,-0.00012001,0,0,0.05554,-0.024052,0,-0.00062408,0,0,0,0.030445,-0.00016806,0.0090832,-0.22462,0.01312,0.027195,6.444e-07,0.95,0.12,0
0.047778,0.0091632,0.03045,-0.00016765,0.0090846,-9.604e-05,0,0,0.055549,-0.024056,0,-0.00049941,0,0,0,0.03045,-0.00016795,0.0090846,-0.17972,0.013122,0.027199,6.447e-07,0.96,0.12,0
0.048333,0.0091664,0.030454,-0.00016768,0.0090857,-7.2047e-05,0,0,0.055556,-0.024059,0,-0.00037464,0,0,0,0.030454,-0.00016786,0.0090857,-0.13481,0.013124,0.027202,6.4493e-07,0.97,0.12,0
0.048889,0.0091687,0.030456,-0.00016771,0.0090865,-4.8039e-05,0,0,0.055561,-0.024061,0,-0.0002498,0,0,0,0.030456,-0.00016779,0.0090865,-0.089878,0.013125,0.027204,6.4509e-07,0.98,0.12,0
0.049444,0.0091701,0.030458,-0.00016773,0.009087,-2.4022e-05,0,0,0.055564,-0.024062,0,-0.00012491,0,0,0,0.030458,-0.00016774,0.009087,-0.044941,0.013126,0.027206,6.4519e-07,0.99,0.12,0
0.05,0.0091705,0.030458,-0.00016773,0.0090872,8.8339e-06,0,0,0.055565,-0.024063,0,4.5936e-05,0,0,0,0.030458,-0.00016773,0.0090872,0.016526,0.013126,0.027206,6.4522e-07,1,0.12,0
0,0,0.027185,0.011651,0.011651,0.0066799,0,0,0.040389,-4.3368e-19,0,0.034736,0,0,0,0.029662,0.0091734,0.011651,20.348,0.016829,0.01937,3.5273e-07,0,0.13,0
0.00040389,0.00034736,0.02717,0.01132,0.011547,0.0066377,0,0,0.04062,-0.00059086,0,0.034516,0,0,0,0.029583,0.0089072,0.011547,19.974,0.016679,0.01949,3.5684e-07,0.01,0.13,0
0.0008124,0.00068062,0.027279,0.010918,0.011459,0.0064347,0,0,0.041132,-0.0014064,0,0.03346,0,0,0,0.029507,0.0086908,0.011459,19.094,0.016552,0.019579,3.5963e-07,0.02,0.13,0
0.0012265,0.00099827,0.027391,0.010425,0.011345,0.0061891,0,0,0.041719,-0.0023904,0,0.032183,0,0,0,0.029409,0.0084076,0.011345,18.058,0.016387,0.019697,3.6325e-07,0.03,0.13,0
0.0016468,0.0012986,0.027491,0.0098648,0.011207,0.005899,0,0,0.042339,-0.0034889,0,0.030675,0,0,0,0.029283,0.0080728,0.011207,16.898,0.016188,0.01983,3.6698e-07,0.04,0.13,0
0.0020733,0.0015799,0.027567,0.0092579,0.011048,0.0055662,0,0,0.042951,-0.0046531,0,0.028944,0,0,0,0.029127,0.0076986,0.011048,15.65,0.015958,0.019966,3.7028e-07,0.05,0.13,0
0.0025058,0.0018407,0.02761,0.0086223,0.01087,0.0051969,0,0,0.043525,-0.0058433,0,0.027024,0,0,0,0.028939,0.007293,0.01087,14.348,0.015701,0.020098,3.7283e-07,0.06,0.13,0
0.0029438,0.0020794,0.027611,0.0079707,0.010674,0.0048002,0,0,0.044035,-0.00703,0,0.024961,0,0,0,0.028721,0.0068603,0.010674,13.025,0.015419,0.020226,3.7451e-07,0.07,0.13,0
0.0033865,0.0022954,0.027565,0.0073111,0.010463,0.0043881,0,0,0.044466,-0.0081946,0,0.022818,0,0,0,0.028475,0.0064013,0.010463,11.714,0.015113,0.020349,3.7533e-07,0.08,0.13,0
0.0038331,0.0024881,0.02747,0.0066486,0.010236,0.0039745,0,0,0.04481,-0.0093261,0,0.020667,0,0,0,0.028203,0.0059158,0.010236,10.448,0.014785,0.020472,3.7537e-07,0.09,0.13,0
0.0042827,0.0026579,0.027321,0.0059841,0.0099916,0.0035747,0,0,0.045057,-0.01042,0,0.018588,0,0,0,0.027904,0.0054011,0.0099916,9.2621,0.014432,0.020595,3.7462e-07,0.1,0.13,0
0.0047343,0.0028056,0.027112,0.0053216,0.0097301,0.0032058,0,0,0.045193,-0.011462,0,0.01667,0,0,0,0.027574,0.0048598,0.0097301,8.1979,0.014055,0.020713,3.7273e-07,0.11,0.13,0
0.0051866,0.0029331,0.026833,0.004677,0.0094529,0.0028802,0,0,0.045187,-0.012417,0,0.014977,0,0,0,0.027201,0.0043087,0.0094529,7.2869,0.013654,0.020803,3.6879e-07,0.12,0.13,0
0.005638,0.0030424,0.026465,0.0040705,0.0091608,0.0025939,0,0,0.044992,-0.013235,0,0.013488,0,0,0,0.026762,0.003774,0.0091608,6.5213,0.013232,0.020824,3.6125e-07,0.13,0.13,0
0.0060864,0.0031353,0.02605,0.0035462,0.008879,0.0023304,0,0,0.044646,-0.013865,0,0.012118,0,0,0,0.026289,0.0033074,0.008879,5.8504,0.012825,0.020764,3.5063e-07,0.14,0.13,0
0.0065309,0.0032136,0.025569,0.0029923,0.0085685,0.0020688,0,0,0.044202,-0.014498,0,0.010758,0,0,0,0.025757,0.0028043,0.0085685,5.1925,0.012377,0.020683,3.3821e-07,0.15,0.13,0
0.0069705,0.0032813,0.024996,0.0023767,0.0082119,0.0018942,0,0,0.04364,-0.015172,0,0.0098496,0,0,0,0.025154,0.0022191,0.0082119,4.7538,0.011862,0.020603,3.2435e-07,0.16,0.13,0
0.0074037,0.0033445,0.024284,0.0019135,0.0078593,0.0017676,0,0,0.042705,-0.015459,0,0.0091915,0,0,0,0.024423,0.0017747,0.0078593,4.49,0.011352,0.020302,3.032e-07,0.17,0.13,0
0.0078246,0.0034041,0.023666,0.0019102,0.007673,0.0015879,0,0,0.041583,-0.014983,0,0.0082573,0,0,0,0.023782,0.0017949,0.007673,4.1526,0.011083,0.019716,2.7889e-07,0.18,0.13,0
0.0082354,0.0034584,0.022947,0.0015699,0.007355,0.0012036,0,0,0.040539,-0.015041,0,0.0062586,0,0,0,0.023014,0.0015023,0.007355,3.2124,0.010624,0.019264,2.5616e-07,0.19,0.13,0
0.0086353,0.0035122,0.022259,0.001148,0.0070221,0.00093727,0,0,0.039616,-0.015273,0,0.0048738,0,0,0,0.0223,0.0011065,0.0070221,2.5371,0.010143,0.018942,2.3773e-07,0.2,0.13,0
0.0090277,0.0035718,0.021825,0.0012423,0.0069203,0.00056128,0,0,0.038753,-0.014763,0,0.0029187,0,0,0,0.02184,0.001227,0.0069203,1.5609,0.0099959,0.018438,2.215e-07,0.21,0.13,0
0.0094104,0.0036358,0.021403,0.0012071,0.0067832,0.00010779,0,0,0.038013,-0.014498,0,0.0005605,0,0,0,0.021404,0.0012065,0.0067832,0.30578,0.0097979,0.018067,2.0843e-07,0.22,0.13,0
0.009788,0.0036995,0.021169,0.0011105,0.0066838,-0.00036826,0,0,0.037661,-0.01449,0,-0.001915,0,0,0,0.021176,0.0011038,0.0066838,-1.0515,0.0096544,0.017945,2.0291e-07,0.23,0.13,0
0.010164,0.003762,0.021065,0.00096857,0.0066102,-0.00082454,0,0,0.037584,-0.014668,0,-0.0042876,0,0,0,0.021099,0.00093479,0.0066102,-2.3455,0.0095481,0.01801,2.0267e-07,0.24,0.13,0
0.01054,0.0038236,0.021057,0.00078145,0.0065516,-0.0012609,0,0,0.037715,-0.015002,0,-0.0065568,0,0,0,0.021135,0.00070334,0.0065516,-3.5449,0.0094634,0.018226,2.0643e-07,0.25,0.13,0
0.010918,0.0038852,0.021148,0.00054485,0.0065077,-0.0016828,0,0,0.038064,-0.015503,0,-0.0087507,0,0,0,0.021284,0.0004083,0.0065077,-4.639,0.0094,0.018592,2.143e-07,0.26,0.13,0
0.011301,0.0039484,0.02138,0.00025063,0.0064892,-0.0020856,0,0,0.038716,-0.01622,0,-0.010845,0,0,0,0.021584,4.6742e-05,0.0064892,-5.5835,0.0093733,0.019147,2.2774e-07,0.27,0.13,0
0.011692,0.0040162,0.021802,-0.00013031,0.0065015,-0.0024178,0,0,0.039781,-0.017243,0,-0.012573,0,0,0,0.022065,-0.00039369,0.0065015,-6.2169,0.009391,0.019927,2.4846e-07,0.28,0.13,0
0.012096,0.0040959,0.022235,-0.00063549,0.0064798,-0.0026178,0,0,0.040963,-0.0185,0,-0.013612,0,0,0,0.022531,-0.00093131,0.0064798,-6.4471,0.0093597,0.020773,2.7065e-07,0.29,0.13,0
0.012512,0.0041905,0.022949,-0.00057434,0.0067124,-0.0026778,0,0,0.042215,-0.018946,0,-0.013924,0,0,0,0.02325,-0.00087531,0.0067124,-6.4129,0.0096957,0.021367,2.9638e-07,0.3,0.13,0
0.012941,0.0042948,0.023686,-0.00068555,0.0069,-0.0028236,0,0,0.043643,-0.019723,0,-0.014683,0,0,0,0.024009,-0.0010084,0.0069,-6.5231,0.0099667,0.022148,3.2769e-07,0.31,0.13,0
0.013384,0.004406,0.02432,-0.0011898,0.0069391,-0.0026882,0,0,0.045191,-0.021135,0,-0.013979,0,0,0,0.0246,-0.00147,0.0069391,-5.9507,0.010023,0.023047,3.5826e-07,0.32,0.13,0
0.013845,0.0045294,0.025061,-0.0011794,0.0071645,-0.0024368,0,0,0.046531,-0.021694,0,-0.012671,0,0,0,0.025285,-0.0014037,0.0071645,-5.2608,0.010349,0.023602,3.8756e-07,0.33,0.13,0
0.014315,0.0046662,0.025657,-0.00098856,0.0074005,-0.0022005,0,0,0.047467,-0.021812,0,-0.011442,0,0,0,0.025837,-0.0011691,0.0074005,-4.6894,0.01069,0.023903,4.0966e-07,0.34,0.13,0
0.014794,0.0048112,0.026158,-0.00087891,0.0075837,-0.0020254,0,0,0.048293,-0.022003,0,-0.010532,0,0,0,0.026309,-0.0010298,0.0075837,-4.2605,0.010954,0.02421,4.3003e-07,0.35,0.13,0
0.015281,0.0049618,0.0266,-0.00081512,0.0077356,-0.0018201,0,0,0.049049,-0.022232,0,-0.0094644,0,0,0,0.026721,-0.00093543,0.0077356,-3.7816,0.011174,0.0245,4.4878e-07,0.36,0.13,0
0.015775,0.005117,0.027006,-0.00066785,0.0079014,-0.0016107,0,0,0.049672,-0.02228,0,-0.0083755,0,0,0,0.027099,-0.00076128,0.0079014,-3.3198,0.011413,0.024696,4.6499e-07,0.37,0.13,0
0.016274,0.0052759,0.027334,-0.0004837,0.0080552,-0.0014284,0,0,0.050126,-0.022201,0,-0.0074275,0,0,0,0.027408,-0.00055685,0.0080552,-2.9316,0.011635,0.024806,4.7734e-07,0.38,0.13,0
0.016778,0.0054362,0.027607,-0.00029542,0.0081936,-0.0012895,0,0,0.050476,-0.022071,0,-0.0067052,0,0,0,0.027667,-0.00035488,0.0081936,-2.6403,0.011835,0.024875,4.8728e-07,0.39,0.13,0
0.017284,0.0055961,0.027842,-0.00012823,0.008314,-0.0011908,0,0,0.050772,-0.02195,0,-0.0061921,0,0,0,0.027892,-0.00017883,0.008314,-2.4334,0.012009,0.024934,4.9597e-07,0.4,0.13,0
0.017793,0.0057538,0.02805,8.8761e-06,0.0084177,-0.0011224,0,0,0.051044,-0.021863,0,-0.0058363,0,0,0,0.028095,-3.5975e-05,0.0084177,-2.2884,0.012159,0.025,5.0412e-07,0.41,0.13,0
0.018305,0.0059082,0.02824,0.00011553,0.0085066,-0.001076,0,0,0.051306,-0.021817,0,-0.0055952,0,0,0,0.028281,7.4423e-05,0.0085066,-2.1878,0.012287,0.025077,5.1204e-07,0.42,0.13,0
0.018819,0.0060583,0.028413,0.00019258,0.0085818,-0.0010449,0,0,0.051562,-0.021812,0,-0.0054336,0,0,0,0.028452,0.00015394,0.0085818,-2.1176,0.012396,0.025166,5.1981e-07,0.43,0.13,0
0.019336,0.0062038,0.028573,0.00024337,0.0086448,-0.001024,0,0,0.051812,-0.021844,0,-0.0053249,0,0,0,0.028609,0.00020641,0.0086448,-2.0675,0.012487,0.025264,5.2745e-07,0.44,0.13,0
0.019855,0.0063442,0.028719,0.00027195,0.0086973,-0.0010095,0,0,0.052056,-0.021906,0,-0.0052493,0,0,0,0.028755,0.00023617,0.0086973,-2.0298,0.012563,0.025369,5.3493e-07,0.45,0.13,0
0.020377,0.0064794,0.028853,0.00028261,0.0087408,-0.00099854,0,0,0.052293,-0.021991,0,-0.0051924,0,0,0,0.028888,0.00024775,0.0087408,-1.9992,0.012626,0.025479,5.4221e-07,0.46,0.13,0
0.020901,0.0066093,0.028977,0.00027938,0.0087768,-0.00098937,0,0,0.052519,-0.022093,0,-0.0051447,0,0,0,0.029011,0.00024532,0.0087768,-1.9722,0.012678,0.025589,5.492e-07,0.47,0.13,0
0.021427,0.006734,0.029089,0.00026593,0.0088065,-0.00098078,0,0,0.052735,-0.022205,0,-0.0051001,0,0,0,0.029122,0.0002326,0.0088065,-1.9466,0.01272,0.025699,5.5586e-07,0.48,0.13,0
0.021956,0.0068536,0.029192,0.00024539,0.0088311,-0.00097208,0,0,0.052938,-0.022323,0,-0.0050548,0,0,0,0.029224,0.00021278,0.0088311,-1.9212,0.012756,0.025805,5.6215e-07,0.49,0.13,0
0.022486,0.0069682,0.029285,0.00022034,0.0088516,-0.00096293,0,0,0.053127,-0.022441,0,-0.0050072,0,0,0,0.029317,0.00018848,0.0088516,-1.8955,0.012786,0.025907,5.6804e-07,0.5,0.13,0
0.023018,0.007078,0.029369,0.00019285,0.0088687,-0.00095323,0,0,0.053302,-0.022557,0,-0.0049568,0,0,0,0.029401,0.00016174,0.0088687,-1.8693,0.01281,0.026003,5.735e-07,0.51,0.13,0
0.023552,0.0071831,0.029446,0.00016443,0.0088831,-0.00094306,0,0,0.053464,-0.022669,0,-0.0049039,0,0,0,0.029476,0.00013408,0.0088831,-1.8428,0.012831,0.026092,5.7855e-07,0.52,0.13,0
0.024088,0.0072835,0.029516,0.00013618,0.0088955,-0.0009325,0,0,0.053612,-0.022774,0,-0.004849,0,0,0,0.029545,0.00010661,0.0088955,-1.8161,0.012849,0.026175,5.8319e-07,0.53,0.13,0
0.024625,0.0073796,0.029579,0.00010883,0.0089062,-0.00092169,0,0,0.053748,-0.022873,0,-0.0047928,0,0,0,0.029607,8.003e-05,0.0089062,-1.7896,0.012864,0.026252,5.8746e-07,0.54,0.13,0
0.025163,0.0074714,0.029636,8.2825e-05,0.0089156,-0.0009107,0,0,0.053873,-0.022965,0,-0.0047356,0,0,0,0.029664,5.4788e-05,0.0089156,-1.7634,0.012878,0.026322,5.9138e-07,0.55,0.13,0
0.025702,0.007559,0.029688,5.8407e-05,0.008924,-0.00089958,0,0,0.053987,-0.023051,0,-0.0046778,0,0,0,0.029716,3.112e-05,0.008924,-1.7374,0.01289,0.026387,5.95e-07,0.56,0.13,0
0.026242,0.0076425,0.029737,3.5668e-05,0.0089317,-0.00088833,0,0,0.054093,-0.02313,0,-0.0046193,0,0,0,0.029763,9.1225e-06,0.0089317,-1.7116,0.012901,0.026447,5.9833e-07,0.57,0.13,0
0.026784,0.0077222,0.029781,1.4607e-05,0.0089388,-0.00087693,0,0,0.054191,-0.023203,0,-0.00456,0,0,0,0.029807,-1.1204e-05,0.0089388,-1.686,0.012912,0.026502,6.0143e-07,0.58,0.13,0
0.027326,0.0077981,0.029823,-4.8346e-06,0.0089455,-0.00086529,0,0,0.054282,-0.023271,0,-0.0044995,0,0,0,0.029848,-2.9915e-05,0.0089455,-1.6603,0.012921,0.026554,6.0432e-07,0.59,0.13,0
0.027869,0.0078703,0.029862,-2.2748e-05,0.0089518,-0.00085336,0,0,0.054367,-0.023334,0,-0.0044374,0,0,0,0.029887,-4.7096e-05,0.0089518,-1.6343,0.01293,0.026601,6.0703e-07,0.6,0.13,0
0.028414,0.007939,0.029899,-3.9236e-05,0.008958,-0.00084103,0,0,0.054447,-0.023393,0,-0.0043733,0,0,0,0.029923,-6.2844e-05,0.008958,-1.6079,0.012939,0.026646,6.0958e-07,0.61,0.13,0
0.028958,0.0080043,0.029934,-5.4403e-05,0.008964,-0.00082822,0,0,0.054523,-0.023448,0,-0.0043067,0,0,0,0.029957,-7.726e-05,0.008964,-1.5808,0.012948,0.026688,6.1199e-07,0.62,0.13,0
0.029504,0.0080663,0.029968,-6.8349e-05,0.0089698,-0.00081486,0,0,0.054594,-0.023499,0,-0.0042373,0,0,0,0.02999,-9.0439e-05,0.0089698,-1.5529,0.012956,0.026728,6.1428e-07,0.63,0.13,0
0.03005,0.0081252,0.03,-8.1163e-05,0.0089756,-0.00080089,0,0,0.054663,-0.023548,0,-0.0041646,0,0,0,0.030021,-0.00010247,0.0089756,-1.524,0.012965,0.026765,6.1647e-07,0.64,0.13,0
0.030597,0.008181,0.030031,-9.2926e-05,0.0089813,-0.00078624,0,0,0.054728,-0.023593,0,-0.0040885,0,0,0,0.030051,-0.00011343,0.0089813,-1.4941,0.012973,0.026801,6.1856e-07,0.65,0.13,0
0.031145,0.0082338,0.03006,-0.00010371,0.008987,-0.0007709,0,0,0.054791,-0.023636,0,-0.0040087,0,0,0,0.03008,-0.0001234,0.008987,-1.463,0.012981,0.026834,6.2056e-07,0.66,0.13,0
0.031693,0.0082839,0.030089,-0.00011358,0.0089927,-0.00075484,0,0,0.054851,-0.023676,0,-0.0039252,0,0,0,0.030108,-0.00013244,0.0089927,-1.4308,0.012989,0.026866,6.2249e-07,0.67,0.13,0
0.032242,0.0083313,0.030117,-0.0001226,0.0089983,-0.00073806,0,0,0.054908,-0.023714,0,-0.0038379,0,0,0,0.030135,-0.0001406,0.0089983,-1.3973,0.012998,0.026897,6.2434e-07,0.68,0.13,0
0.032791,0.0083761,0.030144,-0.00013081,0.0090039,-0.00072057,0,0,0.054964,-0.02375,0,-0.003747,0,0,0,0.030161,-0.00014795,0.0090039,-1.3627,0.013006,0.026926,6.2612e-07,0.69,0.13,0
0.033341,0.0084184,0.03017,-0.00013827,0.0090095,-0.00070239,0,0,0.055017,-0.023784,0,-0.0036524,0,0,0,0.030186,-0.00015454,0.0090095,-1.3269,0.013014,0.026954,6.2783e-07,0.7,0.13,0
0.033891,0.0084584,0.030195,-0.00014502,0.0090151,-0.00068354,0,0,0.055068,-0.023816,0,-0.0035544,0,0,0,0.030211,-0.00016041,0.0090151,-1.2899,0.013022,0.02698,6.2948e-07,0.71,0.13,0
0.034443,0.0084962,0.03022,-0.0001511,0.0090206,-0.00066406,0,0,0.055118,-0.023846,0,-0.0034531,0,0,0,0.030234,-0.00016561,0.0090206,-1.252,0.01303,0.027005,6.3107e-07,0.72,0.13,0
0.034994,0.0085317,0.030243,-0.00015656,0.0090261,-0.00064399,0,0,0.055165,-0.023875,0,-0.0033487,0,0,0,0.030257,-0.0001702,0.0090261,-1.213,0.013038,0.027029,6.3259e-07,0.73,0.13,0
0.035546,0.0085652,0.030266,-0.00016145,0.0090314,-0.00062336,0,0,0.055211,-0.023901,0,-0.0032415,0,0,0,0.030279,-0.00017421,0.0090314,-1.1731,0.013045,0.027052,6.3406e-07,0.74,0.13,0
0.036098,0.0085968,0.030288,-0.0001658,0.0090368,-0.00060223,0,0,0.055254,-0.023927,0,-0.0031316,0,0,0,0.0303,-0.0001777,0.0090368,-1.1324,0.013053,0.027074,6.3547e-07,0.75,0.13,0
0.036651,0.0086265,0.03031,-0.00016965,0.009042,-0.00058064,0,0,0.055296,-0.02395,0,-0.0030193,0,0,0,0.030321,-0.0001807,0.009042,-1.091,0.013061,0.027094,6.3682e-07,0.76,0.13,0
0.037204,0.0086543,0.03033,-0.00017304,0.0090471,-0.00055862,0,0,0.055336,-0.023972,0,-0.0029048,0,0,0,0.03034,-0.00018327,0.0090471,-1.0488,0.013068,0.027114,6.3811e-07,0.77,0.13,0
0.037758,0.0086804,0.03035,-0.00017601,0.0090521,-0.00053623,0,0,0.055374,-0.023993,0,-0.0027884,0,0,0,0.030359,-0.00018543,0.0090521,-1.0061,0.013075,0.027132,6.3935e-07,0.78,0.13,0
0.038311,0.0087049,0.030369,-0.00017861,0.009057,-0.00051349,0,0,0.05541,-0.024013,0,-0.0026701,0,0,0,0.030377,-0.00018724,0.009057,-0.96276,0.013082,0.02715,6.4053e-07,0.79,0.13,0
0.038866,0.0087278,0.030387,-0.00018086,0.0090618,-0.00049044,0,0,0.055445,-0.024031,0,-0.0025503,0,0,0,0.030395,-0.00018872,0.0090618,-0.91897,0.013089,0.027166,6.4166e-07,0.8,0.13,0
0.03942,0.0087492,0.030404,-0.0001828,0.0090664,-0.00046713,0,0,0.055478,-0.024048,0,-0.0024291,0,0,0,0.030411,-0.00018993,0.0090664,-0.87476,0.013096,0.027182,6.4273e-07,0.81,0.13,0
0.039975,0.0087691,0.030421,-0.00018446,0.0090708,-0.00044357,0,0,0.055509,-0.024064,0,-0.0023066,0,0,0,0.030427,-0.00019089,0.0090708,-0.83018,0.013102,0.027197,6.4375e-07,0.82,0.13,0
0.040531,0.0087877,0.030436,-0.00018587,0.0090751,-0.0004198,0,0,0.055539,-0.024078,0,-0.002183,0,0,0,0.030442,-0.00019163,0.0090751,-0.78528,0.013109,0.027211,6.4472e-07,0.83,0.13,0
0.041086,0.0088049,0.030451,-0.00018707,0.0090792,-0.00039585,0,0,0.055567,-0.024092,0,-0.0020584,0,0,0,0.030456,-0.00019218,0.0090792,-0.74011,0.013114,0.027224,6.4563e-07,0.84,0.13,0
0.041642,0.0088208,0.030465,-0.00018808,0.0090831,-0.00037173,0,0,0.055593,-0.024105,0,-0.001933,0,0,0,0.03047,-0.00019258,0.0090831,-0.69469,0.01312,0.027236,6.4649e-07,0.85,0.13,0
0.042198,0.0088355,0.030478,-0.00018892,0.0090868,-0.00034746,0,0,0.055618,-0.024117,0,-0.0018068,0,0,0,0.030482,-0.00019285,0.0090868,-0.64907,0.013125,0.027247,6.4729e-07,0.86,0.13,0
0.042754,0.0088489,0.03049,-0.00018961,0.0090902,-0.00032308,0,0,0.05564,-0.024128,0,-0.00168,0,0,0,0.030494,-0.00019301,0.0090902,-0.60326,0.01313,0.027258,6.4804e-07,0.87,0.13,0
0.043311,0.0088612,0.030502,-0.00019018,0.0090935,-0.00029858,0,0,0.055662,-0.024137,0,-0.0015526,0,0,0,0.030505,-0.00019309,0.0090935,-0.55731,0.013135,0.027268,6.4873e-07,0.88,0.13,0
0.043867,0.0088725,0.030512,-0.00019065,0.0090965,-0.00027398,0,0,0.055681,-0.024147,0,-0.0014247,0,0,0,0.030515,-0.00019309,0.0090965,-0.51123,0.013139,0.027276,6.4938e-07,0.89,0.13,0
0.044424,0.0088826,0.030522,-0.00019102,0.0090993,-0.0002493,0,0,0.055699,-0.024155,0,-0.0012964,0,0,0,0.030524,-0.00019305,0.0090993,-0.46504,0.013143,0.027285,6.4996e-07,0.9,0.13,0
0.044982,0.0088916,0.030531,-0.00019132,0.0091018,-0.00022456,0,0,0.055715,-0.024162,0,-0.0011677,0,0,0,0.030532,-0.00019296,0.0091018,-0.41876,0.013147,0.027292,6.5049e-07,0.91,0.13,0
0.045539,0.0088997,0.030538,-0.00019156,0.0091041,-0.00019975,0,0,0.05573,-0.024169,0,-0.0010387,0,0,0,0.03054,-0.00019286,0.0091041,-0.3724,0.01315,0.027299,6.5097e-07,0.92,0.13,0
0.046096,0.0089067,0.030545,-0.00019175,0.0091061,-0.00017488,0,0,0.055742,-0.024175,0,-0.00090939,0,0,0,0.030547,-0.00019274,0.0091061,-0.32598,0.013153,0.027304,6.5139e-07,0.93,0.13,0
0.046654,0.0089127,0.030551,-0.00019189,0.0091079,-0.00014998,0,0,0.055753,-0.024179,0,-0.00077988,0,0,0,0.030552,-0.00019262,0.0091079,-0.2795,0.013156,0.027309,6.5176e-07,0.94,0.13,0
0.047211,0.0089178,0.030557,-0.000192,0.0091094,-0.00012503,0,0,0.055763,-0.024184,0,-0.00065017,0,0,0,0.030557,-0.00019251,0.0091094,-0.23298,0.013158,0.027314,6.5207e-07,0.95,0.13,0
0.047769,0.008922,0.030561,-0.00019208,0.0091106,-0.00010006,0,0,0.055771,-0.024187,0,-0.00052032,0,0,0,0.030561,-0.00019241,0.0091106,-0.18642,0.01316,0.027317,6.5232e-07,0.96,0.13,0
0.048327,0.0089252,0.030564,-0.00019214,0.0091116,-7.5066e-05,0,0,0.055776,-0.02419,0,-0.00039034,0,0,0,0.030564,-0.00019232,0.0091116,-0.13984,0.013161,0.02732,6.5252e-07,0.97,0.13,0
0.048884,0.0089274,0.030566,-0.00019218,0.0091123,-5.0053e-05,0,0,0.055781,-0.024192,0,-0.00026028,0,0,0,0.030566,-0.00019226,0.0091123,-0.093236,0.013162,0.027322,6.5266e-07,0.98,0.13,0
0.049442,0.0089288,0.030568,-0.0001922,0.0091127,-2.5029e-05,0,0,0.055783,-0.024193,0,-0.00013015,0,0,0,0.030568,-0.00019222,0.0091127,-0.046621,0.013163,0.027323,6.5274e-07,0.99,0.13,0
0.05,0.0089293,0.030568,-0.00019221,0.0091128,8.7564e-06,0,0,0.055784,-0.024193,0,4.5533e-05,0,0,0,0.030568,-0.00019221,0.0091128,0.01631,0.013163,0.027323,6.5277e-07,1,0.13,0
0,0,0.027553,0.011808,0.011808,0.0065733,0,0,0.040936,-6.7763e-19,0,0.034181,0,0,0,0.029937,0.0094249,0.011808,19.931,0.017057,0.01943,3.5769e-07,0,0.14,0
0.00040936,0.00034181,0.02754,0.01151,0.011715,0.0065333,0,0,0.041145,-0.0005338,0,0.033973,0,0,0,0.029865,0.0091841,0.011715,19.592,0.016921,0.019539,3.6155e-07,0.01,0.14,0
0.0008229,0.00066735,0.027638,0.011142,0.011634,0.006321,0,0,0.04161,-0.0012787,0,0.032869,0,0,0,0.029781,0.0089985,0.011634,18.733,0.016805,0.019599,3.6317e-07,0.02,0.14,0
0.0012416,0.00097563,0.027738,0.010688,0.011528,0.0060803,0,0,0.042147,-0.002184,0,0.031618,0,0,0,0.029684,0.0087415,0.011528,17.749,0.016651,0.019698,3.662e-07,0.03,0.14,0
0.0016658,0.0012654,0.027828,0.010166,0.011398,0.0058081,0,0,0.042717,-0.003203,0,0.030202,0,0,0,0.029567,0.0084275,0.011398,16.667,0.016464,0.019822,3.6987e-07,0.04,0.14,0
0.0020959,0.0015355,0.027896,0.0095955,0.011248,0.0055045,0,0,0.043287,-0.0042952,0,0.028623,0,0,0,0.029424,0.0080675,0.011248,15.515,0.016246,0.019958,3.7357e-07,0.05,0.14,0
0.0025316,0.0017847,0.027933,0.0089891,0.011077,0.0051731,0,0,0.043827,-0.0054277,0,0.0269,0,0,0,0.029254,0.0076686,0.011077,14.32,0.016,0.020099,3.7691e-07,0.06,0.14,0
0.0029724,0.0020118,0.027931,0.0083567,0.010886,0.0048207,0,0,0.044317,-0.0065772,0,0.025068,0,0,0,0.029054,0.0072339,0.010886,13.111,0.015725,0.020243,3.7968e-07,0.07,0.14,0
0.0034179,0.0022162,0.027885,0.0077043,0.010677,0.0044573,0,0,0.044741,-0.0077281,0,0.023178,0,0,0,0.028825,0.0067637,0.010677,11.917,0.015422,0.020389,3.8182e-07,0.08,0.14,0
0.0038673,0.0023976,0.027788,0.0070337,0.010446,0.0040948,0,0,0.045088,-0.0088733,0,0.021293,0,0,0,0.028567,0.006255,0.010446,10.767,0.015089,0.020539,3.8329e-07,0.09,0.14,0
0.0043197,0.0025562,0.027643,0.0063501,0.010198,0.0037488,0,0,0.045357,-0.010004,0,0.019494,0,0,0,0.028284,0.0057094,0.010198,9.699,0.01473,0.020698,3.8423e-07,0.1,0.14,0
0.0047744,0.0026932,0.027439,0.0056433,0.0099245,0.0034371,0,0,0.045536,-0.011131,0,0.017873,0,0,0,0.027968,0.0051141,0.0099245,8.7527,0.014335,0.020869,3.8446e-07,0.11,0.14,0
0.0052304,0.0028107,0.02715,0.0049235,0.0096221,0.0031897,0,0,0.045573,-0.012216,0,0.016586,0,0,0,0.027599,0.0044748,0.0096221,8.0071,0.013899,0.021028,3.8283e-07,0.12,0.14,0
0.0056859,0.0029115,0.026762,0.004261,0.009307,0.003016,0,0,0.045384,-0.01312,0,0.015683,0,0,0,0.02716,0.0038638,0.009307,7.5033,0.013444,0.021107,3.7685e-07,0.13,0.14,0
0.0061381,0.0029986,0.026184,0.0036647,0.0089547,0.0028631,0,0,0.044797,-0.013754,0,0.014888,0,0,0,0.026543,0.0033064,0.0089547,7.1334,0.012934,0.02099,3.6155e-07,0.14,0.14,0
0.0065818,0.0030709,0.025671,0.0033138,0.0086955,0.0027063,0,0,0.044137,-0.013992,0,0.014073,0,0,0,0.025994,0.0029909,0.0086955,6.8046,0.01256,0.020748,3.4447e-07,0.15,0.14,0
0.0070208,0.0031309,0.024998,0.0025393,0.0082612,0.0024778,0,0,0.043516,-0.014877,0,0.012884,0,0,0,0.025268,0.0022692,0.0082612,6.2214,0.011933,0.020665,3.2807e-07,0.16,0.14,0
0.0074521,0.0031906,0.024171,0.0018205,0.0077975,0.0025466,0,0,0.042571,-0.01554,0,0.013242,0,0,0,0.024458,0.001534,0.0077975,6.4186,0.011263,0.020522,3.0846e-07,0.17,0.14,0
0.0078722,0.0032598,0.023017,0.001876,0.007468,0.0024476,0,0,0.040428,-0.014539,0,0.012727,0,0,0,0.023297,0.0015964,0.007468,6.5184,0.010787,0.019442,2.646e-07,0.18,0.14,0
0.0082607,0.0033144,0.022068,0.0020036,0.0072214,0.0024531,0,0,0.038601,-0.013566,0,0.012756,0,0,0,0.022363,0.001708,0.0072214,6.8702,0.010431,0.018525,2.3163e-07,0.19,0.14,0
0.0086442,0.003365,0.021284,0.0019506,0.0069705,0.0015918,0,0,0.037216,-0.013052,0,0.0082772,0,0,0,0.021414,0.0018204,0.0069705,4.6753,0.010068,0.017594,2.0101e-07,0.2,0.14,0
0.009005,0.0034333,0.020403,0.0018557,0.0066776,0.00094795,0,0,0.035686,-0.012537,0,0.0049293,0,0,0,0.020451,0.0018073,0.0066776,2.9182,0.0096454,0.016749,1.7429e-07,0.21,0.14,0
0.009358,0.0034998,0.020091,0.001724,0.0065445,0.00028721,0,0,0.035221,-0.012533,0,0.0014935,0,0,0,0.020096,0.0017196,0.0065445,0.89565,0.0094532,0.016501,1.6599e-07,0.22,0.14,0
0.0097094,0.0035631,0.019996,0.0015817,0.0064734,-0.00028154,0,0,0.035159,-0.012718,0,-0.001464,0,0,0,0.020001,0.0015774,0.0064734,-0.87572,0.0093504,0.016528,1.6514e-07,0.23,0.14,0
0.010061,0.0036234,0.019957,0.0014095,0.00641,-0.00078954,0,0,0.035222,-0.013001,0,-0.0041056,0,0,0,0.019991,0.0013759,0.00641,-2.4331,0.0092589,0.016678,1.6711e-07,0.24,0.14,0
0.010414,0.0036816,0.019939,0.0012065,0.0063437,-0.0012684,0,0,0.035348,-0.013357,0,-0.0065955,0,0,0,0.020025,0.001121,0.0063437,-3.8559,0.0091632,0.016909,1.7076e-07,0.25,0.14,0
0.010768,0.0037383,0.019946,0.000968,0.0062743,-0.0017472,0,0,0.035547,-0.013796,0,-0.0090856,0,0,0,0.020106,0.00080849,0.0062743,-5.2165,0.0090628,0.017227,1.7624e-07,0.26,0.14,0
0.011125,0.0037945,0.020021,0.00068479,0.0062118,-0.0022568,0,0,0.035904,-0.01437,0,-0.011735,0,0,0,0.020281,0.0004249,0.0062118,-6.5694,0.0089726,0.017688,1.8503e-07,0.27,0.14,0
0.011486,0.0038517,0.020351,0.00036934,0.0062161,-0.0028145,0,0,0.03675,-0.015201,0,-0.014635,0,0,0,0.02074,-1.9532e-05,0.0062161,-7.8665,0.0089788,0.01845,2.0272e-07,0.28,0.14,0
0.01186,0.0039146,0.021222,-6.1703e-05,0.006348,-0.003294,0,0,0.038671,-0.016665,0,-0.017129,0,0,0,0.02172,-0.00055985,0.006348,-8.5996,0.0091693,0.019753,2.3886e-07,0.29,0.14,0
0.01226,0.0040058,0.022052,-0.00032676,0.0065176,-0.0039561,0,0,0.040389,-0.017795,0,-0.020572,0,0,0,0.022731,-0.0010055,0.0065176,-9.7359,0.0094142,0.02101,2.7868e-07,0.3,0.14,0
0.012668,0.0041008,0.02302,-0.00099592,0.0066072,-0.0037098,0,0,0.042673,-0.019768,0,-0.019291,0,0,0,0.02358,-0.0015559,0.0066072,-8.5841,0.0095437,0.02221,3.1722e-07,0.31,0.14,0
0.013113,0.004192,0.024199,-0.0016644,0.0067603,-0.0034904,0,0,0.04534,-0.021904,0,-0.01815,0,0,0,0.024661,-0.0021271,0.0067603,-7.5525,0.0097648,0.023633,3.6905e-07,0.32,0.14,0
0.013574,0.0043101,0.02505,-0.0014161,0.0070902,-0.0030284,0,0,0.046696,-0.022116,0,-0.015748,0,0,0,0.025392,-0.0017582,0.0070902,-6.4452,0.010241,0.023983,3.9722e-07,0.33,0.14,0
0.014047,0.0044465,0.02575,-0.0010598,0.0074072,-0.0028592,0,0,0.047692,-0.022014,0,-0.014868,0,0,0,0.026052,-0.0013613,0.0074072,-6.0202,0.010699,0.024249,4.2265e-07,0.34,0.14,0
0.014528,0.0045891,0.026285,-0.0012101,0.0075224,-0.0025963,0,0,0.048782,-0.022704,0,-0.013501,0,0,0,0.026528,-0.0014531,0.0075224,-5.3475,0.010866,0.024746,4.4725e-07,0.35,0.14,0
0.015023,0.0047364,0.026906,-0.0011181,0.0077365,-0.0022832,0,0,0.049842,-0.023022,0,-0.011873,0,0,0,0.027091,-0.0013029,0.0077365,-4.6273,0.011175,0.025125,4.7348e-07,0.36,0.14,0
0.015525,0.0048912,0.027346,-0.00092773,0.0079256,-0.001963,0,0,0.050494,-0.023019,0,-0.010208,0,0,0,0.027482,-0.0010634,0.0079256,-3.9527,0.011448,0.025279,4.8996e-07,0.37,0.14,0
0.016033,0.0050512,0.027689,-0.00066634,0.0081069,-0.0017118,0,0,0.050914,-0.02281,0,-0.0089014,0,0,0,0.027792,-0.0007693,0.0081069,-3.4422,0.01171,0.025319,5.0138e-07,0.38,0.14,0
0.016543,0.0052133,0.027961,-0.00042311,0.0082614,-0.001535,0,0,0.051219,-0.02258,0,-0.0079819,0,0,0,0.028044,-0.00050588,0.0082614,-3.0865,0.011933,0.025331,5.1018e-07,0.39,0.14,0
0.017057,0.0053746,0.028193,-0.00022217,0.0083913,-0.0014084,0,0,0.051485,-0.022395,0,-0.0073234,0,0,0,0.028263,-0.0002918,0.0083913,-2.8305,0.012121,0.025354,5.1811e-07,0.4,0.14,0
0.017573,0.0055334,0.028403,-5.6346e-05,0.008504,-0.0013183,0,0,0.051737,-0.022257,0,-0.0068554,0,0,0,0.028464,-0.00011729,0.008504,-2.6466,0.012284,0.025393,5.2582e-07,0.41,0.14,0
0.018092,0.0056884,0.028591,6.9982e-05,0.0085982,-0.0012538,0,0,0.05198,-0.022173,0,-0.00652,0,0,0,0.028646,1.4965e-05,0.0085982,-2.5124,0.01242,0.025449,5.3332e-07,0.42,0.14,0
0.018613,0.0058388,0.028761,0.00016058,0.0086764,-0.0012074,0,0,0.052219,-0.022141,0,-0.0062785,0,0,0,0.028812,0.0001097,0.0086764,-2.4131,0.012533,0.025521,5.4071e-07,0.43,0.14,0
0.019136,0.005984,0.028915,0.00021992,0.0087404,-0.0011728,0,0,0.052454,-0.022153,0,-0.0060985,0,0,0,0.028963,0.00017207,0.0087404,-2.3365,0.012625,0.025605,5.4799e-07,0.44,0.14,0
0.019662,0.0061238,0.029055,0.0002537,0.0087927,-0.0011457,0,0,0.052683,-0.022201,0,-0.0059574,0,0,0,0.029101,0.0002082,0.0087927,-2.2743,0.012701,0.025699,5.5513e-07,0.45,0.14,0
0.02019,0.0062581,0.029183,0.00026723,0.0088351,-0.001123,0,0,0.052905,-0.022277,0,-0.0058395,0,0,0,0.029227,0.00022368,0.0088351,-2.2207,0.012762,0.025799,5.6206e-07,0.46,0.14,0
0.02072,0.0063871,0.029299,0.00026535,0.0088694,-0.0011028,0,0,0.053118,-0.022371,0,-0.0057345,0,0,0,0.029341,0.00022352,0.0088694,-2.1721,0.012811,0.0259,5.687e-07,0.47,0.14,0
0.021252,0.0065107,0.029404,0.00025231,0.008897,-0.0010838,0,0,0.053319,-0.022476,0,-0.0056357,0,0,0,0.029445,0.00021207,0.008897,-2.1262,0.012851,0.026002,5.7501e-07,0.48,0.14,0
0.021786,0.0066292,0.029499,0.00023172,0.0089193,-0.0010653,0,0,0.053508,-0.022588,0,-0.0055396,0,0,0,0.029538,0.00019299,0.0089193,-2.0818,0.012883,0.0261,5.8092e-07,0.49,0.14,0
0.022322,0.0067426,0.029584,0.0002065,0.0089373,-0.001047,0,0,0.053683,-0.0227,0,-0.0054446,0,0,0,0.029622,0.00016923,0.0089373,-2.0386,0.012909,0.026193,5.864e-07,0.5,0.14,0
0.02286,0.0068512,0.029661,0.00017887,0.0089519,-0.001029,0,0,0.053843,-0.02281,0,-0.0053508,0,0,0,0.029697,0.000143,0.0089519,-1.9965,0.012931,0.026281,5.9145e-07,0.51,0.14,0
0.023399,0.0069552,0.029729,0.00015046,0.008964,-0.0010113,0,0,0.05399,-0.022915,0,-0.0052586,0,0,0,0.029764,0.00011593,0.008964,-1.9558,0.012948,0.026362,5.9607e-07,0.52,0.14,0
0.02394,0.0070547,0.029791,0.00012235,0.0089739,-0.00099399,0,0,0.054124,-0.023014,0,-0.0051688,0,0,0,0.029824,8.9089e-05,0.0089739,-1.9167,0.012962,0.026437,6.0027e-07,0.53,0.14,0
0.024481,0.0071497,0.029846,9.524e-05,0.0089823,-0.0009773,0,0,0.054245,-0.023106,0,-0.0050819,0,0,0,0.029878,6.3171e-05,0.0089823,-1.8795,0.012974,0.026506,6.041e-07,0.54,0.14,0
0.025025,0.0072406,0.029895,6.9511e-05,0.0089895,-0.00096123,0,0,0.054356,-0.023192,0,-0.0049984,0,0,0,0.029926,3.8565e-05,0.0089895,-1.844,0.012985,0.026568,6.0759e-07,0.55,0.14,0
0.025569,0.0073274,0.02994,4.5348e-05,0.0089957,-0.00094578,0,0,0.054456,-0.023271,0,-0.004918,0,0,0,0.02997,1.5457e-05,0.0089957,-1.8102,0.012994,0.026626,6.1077e-07,0.56,0.14,0
0.026114,0.0074102,0.029982,2.2797e-05,0.0090013,-0.00093087,0,0,0.054549,-0.023344,0,-0.0048405,0,0,0,0.03001,-6.0987e-06,0.0090013,-1.778,0.013002,0.026679,6.137e-07,0.57,0.14,0
0.02666,0.0074892,0.030019,1.8222e-06,0.0090063,-0.00091638,0,0,0.054634,-0.023412,0,-0.0047652,0,0,0,0.030047,-2.6127e-05,0.0090063,-1.747,0.013009,0.026728,6.1641e-07,0.58,0.14,0
0.027206,0.0075644,0.030054,-1.7656e-05,0.009011,-0.00090216,0,0,0.054713,-0.023475,0,-0.0046912,0,0,0,0.030082,-4.4696e-05,0.009011,-1.7168,0.013016,0.026773,6.1892e-07,0.59,0.14,0
0.027754,0.007636,0.030087,-3.5735e-05,0.0090155,-0.00088806,0,0,0.054787,-0.023533,0,-0.0046179,0,0,0,0.030113,-6.1893e-05,0.0090155,-1.6872,0.013022,0.026815,6.2127e-07,0.6,0.14,0
0.028302,0.0077041,0.030118,-5.2514e-05,0.0090197,-0.0008739,0,0,0.054856,-0.023588,0,-0.0045443,0,0,0,0.030144,-7.7805e-05,0.0090197,-1.6577,0.013029,0.026854,6.2348e-07,0.61,0.14,0
0.028851,0.0077689,0.030148,-6.8086e-05,0.0090238,-0.00085954,0,0,0.054922,-0.023639,0,-0.0044696,0,0,0,0.030172,-9.2518e-05,0.0090238,-1.6281,0.013034,0.026891,6.2558e-07,0.62,0.14,0
0.0294,0.0078304,0.030176,-8.2535e-05,0.0090279,-0.00084485,0,0,0.054984,-0.023687,0,-0.0043932,0,0,0,0.030199,-0.00010611,0.0090279,-1.5981,0.01304,0.026926,6.2757e-07,0.63,0.14,0
0.029951,0.0078888,0.030202,-9.5931e-05,0.009032,-0.00082971,0,0,0.055043,-0.023733,0,-0.0043145,0,0,0,0.030225,-0.00011864,0.009032,-1.5675,0.013046,0.02696,6.2946e-07,0.64,0.14,0
0.030501,0.0079441,0.030228,-0.00010833,0.009036,-0.00081403,0,0,0.0551,-0.023775,0,-0.0042329,0,0,0,0.03025,-0.00013016,0.009036,-1.5359,0.013052,0.026991,6.3128e-07,0.65,0.14,0
0.031053,0.0079966,0.030253,-0.0001198,0.00904,-0.00079774,0,0,0.055154,-0.023815,0,-0.0041483,0,0,0,0.030274,-0.00014074,0.00904,-1.5035,0.013058,0.027021,6.3301e-07,0.66,0.14,0
0.031605,0.0080463,0.030277,-0.00013037,0.0090441,-0.00078081,0,0,0.055206,-0.023854,0,-0.0040602,0,0,0,0.030297,-0.00015041,0.0090441,-1.47,0.013064,0.027049,6.3468e-07,0.67,0.14,0
0.032157,0.0080933,0.030301,-0.00014009,0.0090482,-0.00076321,0,0,0.055256,-0.02389,0,-0.0039687,0,0,0,0.03032,-0.00015921,0.0090482,-1.4353,0.01307,0.027076,6.3628e-07,0.68,0.14,0
0.03271,0.0081377,0.030323,-0.00014899,0.0090523,-0.00074493,0,0,0.055304,-0.023923,0,-0.0038736,0,0,0,0.030341,-0.00016719,0.0090523,-1.3996,0.013076,0.027102,6.3782e-07,0.69,0.14,0
0.033263,0.0081798,0.030345,-0.00015713,0.0090564,-0.00072598,0,0,0.055351,-0.023955,0,-0.0037751,0,0,0,0.030362,-0.00017439,0.0090564,-1.3627,0.013081,0.027126,6.393e-07,0.7,0.14,0
0.033817,0.0082194,0.030366,-0.00016452,0.0090605,-0.00070639,0,0,0.055395,-0.023985,0,-0.0036732,0,0,0,0.030383,-0.00018085,0.0090605,-1.3247,0.013087,0.027149,6.4073e-07,0.71,0.14,0
0.034371,0.0082569,0.030387,-0.00017121,0.0090647,-0.00068618,0,0,0.055438,-0.024013,0,-0.0035681,0,0,0,0.030402,-0.00018661,0.0090647,-1.2857,0.013093,0.027171,6.4209e-07,0.72,0.14,0
0.034925,0.0082922,0.030407,-0.00017725,0.0090688,-0.00066538,0,0,0.055478,-0.02404,0,-0.00346,0,0,0,0.030421,-0.00019171,0.0090688,-1.2457,0.013099,0.027192,6.434e-07,0.73,0.14,0
0.03548,0.0083254,0.030426,-0.00018266,0.009073,-0.00064403,0,0,0.055517,-0.024065,0,-0.0033489,0,0,0,0.030439,-0.0001962,0.009073,-1.2048,0.013105,0.027212,6.4466e-07,0.74,0.14,0
0.036036,0.0083567,0.030444,-0.00018749,0.0090771,-0.00062217,0,0,0.055555,-0.024088,0,-0.0032353,0,0,0,0.030457,-0.00020012,0.0090771,-1.1631,0.013111,0.027231,6.4586e-07,0.75,0.14,0
0.036591,0.0083862,0.030462,-0.00019179,0.0090811,-0.00059986,0,0,0.055591,-0.02411,0,-0.0031193,0,0,0,0.030474,-0.00020352,0.0090811,-1.1206,0.013117,0.027248,6.4701e-07,0.76,0.14,0
0.037148,0.0084138,0.030479,-0.00019558,0.0090852,-0.00057711,0,0,0.055625,-0.02413,0,-0.003001,0,0,0,0.03049,-0.00020643,0.0090852,-1.0774,0.013123,0.027265,6.4812e-07,0.77,0.14,0
0.037704,0.0084397,0.030496,-0.00019892,0.0090891,-0.00055399,0,0,0.055658,-0.024149,0,-0.0028807,0,0,0,0.030506,-0.00020891,0.0090891,-1.0336,0.013129,0.027281,6.4917e-07,0.78,0.14,0
0.038261,0.008464,0.030512,-0.00020183,0.009093,-0.00053051,0,0,0.055689,-0.024167,0,-0.0027587,0,0,0,0.030521,-0.000211,0.009093,-0.98927,0.013134,0.027296,6.5017e-07,0.79,0.14,0
0.038818,0.0084867,0.030527,-0.00020437,0.0090968,-0.00050673,0,0,0.055719,-0.024183,0,-0.002635,0,0,0,0.030535,-0.00021273,0.0090968,-0.9444,0.01314,0.027311,6.5113e-07,0.8,0.14,0
0.039375,0.008508,0.030542,-0.00020657,0.0091005,-0.00048267,0,0,0.055747,-0.024198,0,-0.0025099,0,0,0,0.030549,-0.00021415,0.0091005,-0.8991,0.013145,0.027324,6.5204e-07,0.81,0.14,0
0.039933,0.0085278,0.030555,-0.00020846,0.0091041,-0.00045836,0,0,0.055773,-0.024213,0,-0.0023835,0,0,0,0.030562,-0.00021529,0.0091041,-0.85341,0.01315,0.027336,6.529e-07,0.82,0.14,0
0.040491,0.0085462,0.030569,-0.00021008,0.0091075,-0.00043383,0,0,0.055799,-0.024226,0,-0.0022559,0,0,0,0.030575,-0.00021619,0.0091075,-0.80738,0.013155,0.027348,6.5372e-07,0.83,0.14,0
0.041049,0.0085632,0.030581,-0.00021145,0.0091109,-0.00040911,0,0,0.055822,-0.024238,0,-0.0021274,0,0,0,0.030586,-0.00021689,0.0091109,-0.76105,0.01316,0.027359,6.5449e-07,0.84,0.14,0
0.041607,0.008579,0.030593,-0.00021262,0.0091141,-0.00038421,0,0,0.055845,-0.024249,0,-0.0019979,0,0,0,0.030598,-0.00021741,0.0091141,-0.71446,0.013165,0.02737,6.5521e-07,0.85,0.14,0
0.042166,0.0085936,0.030604,-0.00021359,0.0091171,-0.00035917,0,0,0.055866,-0.02426,0,-0.0018677,0,0,0,0.030608,-0.00021778,0.0091171,-0.66765,0.013169,0.027379,6.5589e-07,0.86,0.14,0
0.042724,0.008607,0.030614,-0.00021441,0.0091199,-0.00033399,0,0,0.055885,-0.024269,0,-0.0017367,0,0,0,0.030618,-0.00021803,0.0091199,-0.62063,0.013173,0.027388,6.5652e-07,0.87,0.14,0
0.043283,0.0086192,0.030624,-0.00021509,0.0091226,-0.00030869,0,0,0.055903,-0.024278,0,-0.0016052,0,0,0,0.030627,-0.00021817,0.0091226,-0.57344,0.013177,0.027396,6.5711e-07,0.88,0.14,0
0.043842,0.0086303,0.030633,-0.00021564,0.0091251,-0.00028329,0,0,0.05592,-0.024286,0,-0.0014731,0,0,0,0.030635,-0.00021824,0.0091251,-0.5261,0.013181,0.027404,6.5765e-07,0.89,0.14,0
0.044402,0.0086403,0.030641,-0.0002161,0.0091274,-0.0002578,0,0,0.055935,-0.024293,0,-0.0013405,0,0,0,0.030643,-0.00021825,0.0091274,-0.47863,0.013184,0.027411,6.5815e-07,0.9,0.14,0
0.044961,0.0086493,0.030648,-0.00021647,0.0091295,-0.00023222,0,0,0.055949,-0.0243,0,-0.0012076,0,0,0,0.03065,-0.00021822,0.0091295,-0.43106,0.013187,0.027417,6.586e-07,0.91,0.14,0
0.045521,0.0086573,0.030655,-0.00021677,0.0091314,-0.00020658,0,0,0.055961,-0.024305,0,-0.0010742,0,0,0,0.030656,-0.00021815,0.0091314,-0.38338,0.01319,0.027422,6.59e-07,0.92,0.14,0
0.04608,0.0086643,0.030661,-0.00021701,0.0091331,-0.00018088,0,0,0.055972,-0.02431,0,-0.00094058,0,0,0,0.030662,-0.00021807,0.0091331,-0.33562,0.013192,0.027427,6.5935e-07,0.93,0.14,0
0.04664,0.0086703,0.030666,-0.00021719,0.0091346,-0.00015513,0,0,0.055981,-0.024315,0,-0.00080668,0,0,0,0.030667,-0.00021797,0.0091346,-0.2878,0.013194,0.027431,6.5966e-07,0.94,0.14,0
0.0472,0.0086753,0.03067,-0.00021734,0.0091359,-0.00012934,0,0,0.055989,-0.024318,0,-0.00067256,0,0,0,0.030671,-0.00021788,0.0091359,-0.23991,0.013196,0.027435,6.5992e-07,0.95,0.14,0
0.04776,0.0086794,0.030674,-0.00021745,0.0091369,-0.00010351,0,0,0.055996,-0.024321,0,-0.00053826,0,0,0,0.030674,-0.0002178,0.0091369,-0.19198,0.013198,0.027438,6.6014e-07,0.96,0.14,0
0.04832,0.0086826,0.030676,-0.00021753,0.0091377,-7.7657e-05,0,0,0.056001,-0.024324,0,-0.00040382,0,0,0,0.030677,-0.00021772,0.0091377,-0.14402,0.013199,0.02744,6.6031e-07,0.97,0.14,0
0.04888,0.0086849,0.030679,-0.00021758,0.0091383,-5.1782e-05,0,0,0.056005,-0.024325,0,-0.00026927,0,0,0,0.030679,-0.00021767,0.0091383,-0.096028,0.0132,0.027442,6.6043e-07,0.98,0.14,0
0.04944,0.0086862,0.03068,-0.00021761,0.0091386,-2.5894e-05,0,0,0.056007,-0.024326,0,-0.00013465,0,0,0,0.03068,-0.00021764,0.0091386,-0.048018,0.0132,0.027443,6.605e-07,0.99,0.14,0
0.05,0.0086867,0.03068,-0.00021762,0.0091387,8.6886e-06,0,0,0.056008,-0.024327,0,4.5181e-05,0,0,0,0.03068,-0.00021763,0.0091387,0.016112,0.0132,0.027443,6.6052e-07,1,0.14,0
0,0,0.028,0.012,0.012,0.0064746,0,0,0.0416,2.7105e-20,0,0.033668,0,0,0,0.030292,0.0097083,0.012,19.492,0.017334,0.019539,3.654e-07,0,0.15,0
0.000416,0.00033668,0.027987,0.011715,0.011911,0.0064369,0,0,0.041799,-0.0005085,0,0.033472,0,0,0,0.030225,0.0094767,0.011911,19.175,0.017204,0.019645,3.6933e-07,0.01,0.15,0
0.00083598,0.00065505,0.02808,0.011368,0.011834,0.0062162,0,0,0.042239,-0.0012133,0,0.032324,0,0,0,0.030139,0.009309,0.011834,18.323,0.017094,0.019689,3.7034e-07,0.02,0.15,0
0.0012608,0.00095459,0.028175,0.010939,0.011734,0.0059801,0,0,0.042747,-0.0020685,0,0.031096,0,0,0,0.030047,0.009067,0.011734,17.378,0.016949,0.019781,3.733e-07,0.03,0.15,0
0.0016909,0.0012346,0.028261,0.010445,0.011612,0.0057241,0,0,0.043288,-0.003034,0,0.029765,0,0,0,0.029941,0.0087642,0.011612,16.362,0.016772,0.019907,3.7736e-07,0.04,0.15,0
0.0021265,0.001494,0.028327,0.0099002,0.011468,0.0054469,0,0,0.043832,-0.0040762,0,0.028324,0,0,0,0.029816,0.0084106,0.011468,15.296,0.016565,0.020052,3.8187e-07,0.05,0.15,0
0.0025676,0.0017321,0.028363,0.0093155,0.011304,0.0051503,0,0,0.044355,-0.0051692,0,0.026781,0,0,0,0.029667,0.0080121,0.011304,14.202,0.016328,0.020211,3.8637e-07,0.06,0.15,0
0.0030136,0.0019479,0.028364,0.0086973,0.011118,0.0048395,0,0,0.044839,-0.0062949,0,0.025166,0,0,0,0.029491,0.0075709,0.011118,13.102,0.01606,0.020379,3.9064e-07,0.07,0.15,0
0.0034643,0.0021408,0.028321,0.0080465,0.01091,0.0045228,0,0,0.045267,-0.0074455,0,0.023519,0,0,0,0.029284,0.0070833,0.01091,12.022,0.015759,0.020556,3.945e-07,0.08,0.15,0
0.003919,0.0023106,0.02823,0.0073669,0.010679,0.0042133,0,0,0.045632,-0.0086116,0,0.021909,0,0,0,0.029049,0.0065482,0.010679,10.997,0.015425,0.020746,3.9799e-07,0.09,0.15,0
0.004377,0.0024578,0.028077,0.0066493,0.010418,0.0039207,0,0,0.045913,-0.0097981,0,0.020387,0,0,0,0.028772,0.0059545,0.010418,10.05,0.015048,0.020945,4.0064e-07,0.1,0.15,0
0.0048373,0.002583,0.027898,0.0059271,0.010148,0.0036682,0,0,0.046152,-0.010973,0,0.019075,0,0,0,0.028494,0.0053309,0.010148,9.2323,0.014658,0.02117,4.0356e-07,0.11,0.15,0
0.0053,0.0026888,0.027645,0.0051147,0.0098279,0.0034748,0,0,0.046324,-0.012254,0,0.018069,0,0,0,0.028169,0.0045909,0.0098279,8.5714,0.014196,0.021444,4.0645e-07,0.12,0.15,0
0.0057637,0.00278,0.027234,0.0042637,0.0094491,0.0034271,0,0,0.046239,-0.013482,0,0.017821,0,0,0,0.027734,0.0037633,0.0094491,8.3076,0.013649,0.021694,4.0544e-07,0.13,0.15,0
0.0062248,0.0028602,0.026788,0.0037628,0.0091653,0.0034991,0,0,0.045819,-0.014046,0,0.018196,0,0,0,0.027308,0.0032428,0.0091653,8.4531,0.013239,0.021718,3.9721e-07,0.14,0.15,0
0.0066801,0.0029338,0.025553,0.0029785,0.0085594,0.0034549,0,0,0.044183,-0.01451,0,0.017965,0,0,0,0.02607,0.0024616,0.0085594,8.5094,0.012363,0.021226,3.5798e-07,0.15,0.15,0
0.0071084,0.0029838,0.024776,0.0027143,0.008247,0.0038097,0,0,0.042975,-0.014385,0,0.01981,0,0,0,0.025415,0.0020749,0.008247,9.5267,0.011912,0.020948,3.3759e-07,0.16,0.15,0
0.0075396,0.0030337,0.024411,0.002676,0.0081262,0.0031467,0,0,0.042341,-0.01417,0,0.016363,0,0,0,0.024858,0.0022296,0.0081262,8.0742,0.011738,0.020331,3.1238e-07,0.17,0.15,0
0.0079553,0.0031133,0.024506,0.0029697,0.0082427,0.0026416,0,0,0.042285,-0.01371,0,0.013736,0,0,0,0.024825,0.0026504,0.0082427,6.8916,0.011906,0.019975,3.0374e-07,0.18,0.15,0
0.0083853,0.003187,0.027894,0.002329,0.0090669,0.0020309,0,0,0.034115,-0.01183,0,0.0088682,0,0,0,0.028112,0.0021111,0.0090669,5.1192,0.013097,0.023317,5.1635e-07,0.19,0.15,0
0.008682,0.0032511,0.025938,0.0022372,0.0084525,0.0014896,0,0,0.030308,-0.010927,0,0.0064921,0,0,0,0.026077,0.0020978,0.0084525,4.4059,0.012209,0.021519,4.8026e-07,0.2,0.15,0
0.0089915,0.003321,0.026862,0.0022496,0.0087336,0.00081398,0,0,0.031423,-0.011236,0,0.0034535,0,0,0,0.0269,0.002212,0.0087336,2.3099,0.012615,0.022159,5.3155e-07,0.21,0.15,0
0.0093105,0.0033851,0.027449,0.0021639,0.0088839,0.0001819,0,0,0.03218,-0.011603,0,0.0008375,0,0,0,0.027452,0.0021614,0.0088839,0.54908,0.012832,0.022689,5.693e-07,0.22,0.15,0
0.0096351,0.0034451,0.027749,0.0020035,0.0089257,-0.00033759,0,0,0.032627,-0.011947,0,-0.001276,0,0,0,0.027754,0.0019987,0.0089257,-0.82052,0.012893,0.023085,5.936e-07,0.23,0.15,0
0.009963,0.003502,0.027883,0.0018127,0.0089086,-0.00080017,0,0,0.032888,-0.012261,0,-0.0031419,0,0,0,0.027911,0.0017847,0.0089086,-1.991,0.012868,0.023392,6.0929e-07,0.24,0.15,0
0.010293,0.0035565,0.027892,0.0015997,0.0088476,-0.0012362,0,0,0.033011,-0.012549,0,-0.0048984,0,0,0,0.02796,0.0015323,0.0088476,-3.0644,0.01278,0.023634,6.1823e-07,0.25,0.15,0
0.010623,0.0036093,0.027777,0.0013596,0.0087411,-0.0016718,0,0,0.032996,-0.012821,0,-0.0066619,0,0,0,0.027901,0.001236,0.0087411,-4.1211,0.012626,0.023817,6.2037e-07,0.26,0.15,0
0.010953,0.003661,0.027501,0.0010757,0.0085729,-0.0021378,0,0,0.032808,-0.013085,0,-0.008573,0,0,0,0.027704,0.00087234,0.0085729,-5.2507,0.012383,0.02393,6.1381e-07,0.27,0.15,0
0.011279,0.0037122,0.02696,0.00069114,0.0082953,-0.0026997,0,0,0.032352,-0.013373,0,-0.010919,0,0,0,0.027288,0.00036275,0.0082953,-6.6215,0.011982,0.023967,5.9432e-07,0.28,0.15,0
0.0116,0.0037626,0.026248,0.0002323,0.0079441,-0.003188,0,0,0.031727,-0.013827,0,-0.013259,0,0,0,0.026731,-0.00025121,0.0079441,-7.8755,0.011475,0.02397,5.6513e-07,0.29,0.15,0
0.011914,0.0038346,0.028222,-0.00057397,0.0082943,-0.0035461,0,0,0.036105,-0.015622,0,-0.01455,0,0,0,0.028716,-0.0010687,0.0082943,-7.4985,0.011981,0.026383,6.1934e-07,0.3,0.15,0
0.012369,0.0038994,0.02466,-2.8558e-05,0.0073894,-0.0038248,0,0,0.044903,-0.019287,0,-0.019889,0,0,0,0.025239,-0.00060752,0.0073894,-8.6076,0.010674,0.022919,3.7415e-07,0.31,0.15,0
0.012812,0.003968,0.024417,-0.0011286,0.0069865,-0.0041012,0,0,0.045319,-0.021099,0,-0.021327,0,0,0,0.025059,-0.0017709,0.0069865,-8.9007,0.010092,0.023698,3.8227e-07,0.32,0.15,0
0.013275,0.0040871,0.024747,-0.0016578,0.0069267,-0.0044014,0,0,0.046332,-0.02232,0,-0.022888,0,0,0,0.025461,-0.0023721,0.0069267,-9.2188,0.010005,0.024543,4.0834e-07,0.33,0.15,0
0.013739,0.0042259,0.025586,-0.0017665,0.0071459,-0.003649,0,0,0.047945,-0.023172,0,-0.018975,0,0,0,0.026065,-0.002245,0.0071459,-7.4697,0.010322,0.024975,4.3565e-07,0.34,0.15,0
0.014234,0.0043571,0.026873,-0.0015673,0.0075916,-0.0032873,0,0,0.050131,-0.023813,0,-0.017094,0,0,0,0.027248,-0.0019424,0.0075916,-6.5084,0.010966,0.025781,4.9167e-07,0.35,0.15,0
0.014741,0.0045014,0.027381,-0.0016164,0.0077294,-0.0027473,0,0,0.051095,-0.024299,0,-0.014286,0,0,0,0.027639,-0.0018743,0.0077294,-5.3647,0.011165,0.026074,5.1166e-07,0.36,0.15,0
0.015256,0.0046567,0.027845,-0.0012431,0.0079807,-0.0022914,0,0,0.051648,-0.023982,0,-0.011915,0,0,0,0.028025,-0.0014225,0.0079807,-4.4766,0.011528,0.026051,5.2541e-07,0.37,0.15,0
0.015774,0.0048196,0.028156,-0.00086639,0.0081869,-0.0019958,0,0,0.05192,-0.023539,0,-0.010378,0,0,0,0.028293,-0.001003,0.0081869,-3.9155,0.011825,0.025951,5.3296e-07,0.38,0.15,0
0.016294,0.0049846,0.028396,-0.00059449,0.0083406,-0.0017799,0,0,0.052145,-0.023231,0,-0.0092555,0,0,0,0.028505,-0.00070336,0.0083406,-3.5002,0.012047,0.025899,5.3937e-07,0.39,0.15,0
0.016817,0.0051482,0.028635,-0.00034163,0.0084879,-0.0016239,0,0,0.052381,-0.022957,0,-0.0084443,0,0,0,0.028725,-0.00043235,0.0084879,-3.1977,0.01226,0.025878,5.4662e-07,0.4,0.15,0
0.017342,0.0053087,0.028835,-0.00014304,0.0086076,-0.0015076,0,0,0.052591,-0.022752,0,-0.0078393,0,0,0,0.028913,-0.00022126,0.0086076,-2.9701,0.012433,0.025876,5.5318e-07,0.41,0.15,0
0.017869,0.0054647,0.029012,8.2453e-06,0.0087062,-0.0014236,0,0,0.052796,-0.022615,0,-0.0074025,0,0,0,0.029082,-6.1458e-05,0.0087062,-2.8032,0.012576,0.025898,5.5963e-07,0.42,0.15,0
0.018398,0.0056155,0.029169,0.00011415,0.0087849,-0.0013607,0,0,0.052998,-0.022544,0,-0.0070757,0,0,0,0.029233,5.0566e-05,0.0087849,-2.6755,0.012689,0.025942,5.6603e-07,0.43,0.15,0
0.018929,0.0057607,0.02931,0.00018357,0.008848,-0.0013118,0,0,0.053201,-0.022528,0,-0.0068216,0,0,0,0.029369,0.00012461,0.008848,-2.5736,0.012781,0.026004,5.7243e-07,0.44,0.15,0
0.019462,0.0059001,0.029437,0.00022361,0.0088982,-0.0012718,0,0,0.053401,-0.022554,0,-0.0066135,0,0,0,0.029492,0.00016835,0.0088982,-2.4881,0.012853,0.026079,5.7875e-07,0.45,0.15,0
0.019997,0.0060338,0.029552,0.00024084,0.0089378,-0.0012374,0,0,0.053596,-0.022612,0,-0.0064343,0,0,0,0.029604,0.00018869,0.0089378,-2.413,0.01291,0.026162,5.8492e-07,0.46,0.15,0
0.020534,0.0061619,0.029655,0.00024091,0.0089688,-0.0012062,0,0,0.053784,-0.022693,0,-0.0062721,0,0,0,0.029704,0.00019153,0.0089688,-2.3443,0.012955,0.026249,5.9085e-07,0.47,0.15,0
0.021073,0.0062845,0.029748,0.00022882,0.008993,-0.0011768,0,0,0.053962,-0.022787,0,-0.0061196,0,0,0,0.029795,0.00018198,0.008993,-2.2794,0.01299,0.026337,5.9647e-07,0.48,0.15,0
0.021613,0.0064019,0.029831,0.00020879,0.0090118,-0.0011486,0,0,0.054129,-0.022888,0,-0.0059729,0,0,0,0.029875,0.00016431,0.0090118,-2.2173,0.013017,0.026422,6.0171e-07,0.49,0.15,0
0.022155,0.0065142,0.029904,0.00018409,0.0090265,-0.0011214,0,0,0.054282,-0.02299,0,-0.005831,0,0,0,0.029946,0.00014184,0.0090265,-2.1577,0.013038,0.026504,6.0654e-07,0.5,0.15,0
0.022699,0.0066218,0.029969,0.00015715,0.0090379,-0.0010951,0,0,0.054421,-0.02309,0,-0.0056944,0,0,0,0.03001,0.00011698,0.0090379,-2.1008,0.013055,0.02658,6.1094e-07,0.51,0.15,0
0.023244,0.0067248,0.030027,0.00012961,0.0090469,-0.00107,0,0,0.054548,-0.023185,0,-0.0055639,0,0,0,0.030065,9.1362e-05,0.0090469,-2.0471,0.013068,0.026649,6.1491e-07,0.52,0.15,0
0.02379,0.0068233,0.030078,0.00010252,0.009054,-0.0010463,0,0,0.054661,-0.023274,0,-0.0054406,0,0,0,0.030114,6.6042e-05,0.009054,-1.9967,0.013078,0.026713,6.1849e-07,0.53,0.15,0
0.024337,0.0069175,0.030123,7.649e-05,0.0090597,-0.001024,0,0,0.054763,-0.023356,0,-0.005325,0,0,0,0.030157,4.1629e-05,0.0090597,-1.9498,0.013086,0.026771,6.2171e-07,0.54,0.15,0
0.024885,0.0070075,0.030163,5.1824e-05,0.0090643,-0.0010033,0,0,0.054856,-0.023432,0,-0.0052171,0,0,0,0.030196,1.8432e-05,0.0090643,-1.9063,0.013093,0.026824,6.2462e-07,0.55,0.15,0
0.025434,0.0070935,0.030199,2.8625e-05,0.0090682,-0.00098392,0,0,0.054939,-0.023503,0,-0.0051164,0,0,0,0.030231,-3.4289e-06,0.0090682,-1.8659,0.013099,0.026872,6.2725e-07,0.56,0.15,0
0.025984,0.0071757,0.030231,6.8791e-06,0.0090714,-0.00096577,0,0,0.055015,-0.023568,0,-0.005022,0,0,0,0.030262,-2.3949e-05,0.0090714,-1.8283,0.013103,0.026917,6.2967e-07,0.57,0.15,0
0.026534,0.007254,0.030261,-1.3486e-05,0.0090743,-0.00094863,0,0,0.055086,-0.023628,0,-0.0049329,0,0,0,0.030291,-4.3182e-05,0.0090743,-1.793,0.013107,0.026958,6.3189e-07,0.58,0.15,0
0.027085,0.0073286,0.030289,-3.2567e-05,0.0090769,-0.00093224,0,0,0.055151,-0.023685,0,-0.0048477,0,0,0,0.030317,-6.1202e-05,0.0090769,-1.7594,0.013111,0.026996,6.3396e-07,0.59,0.15,0
0.027637,0.0073997,0.030315,-5.046e-05,0.0090793,-0.00091635,0,0,0.055212,-0.023737,0,-0.004765,0,0,0,0.030342,-7.8088e-05,0.0090793,-1.727,0.013114,0.027031,6.359e-07,0.6,0.15,0
0.02819,0.0074673,0.030339,-6.7251e-05,0.0090816,-0.00090073,0,0,0.05527,-0.023787,0,-0.0046838,0,0,0,0.030366,-9.391e-05,0.0090816,-1.6953,0.013118,0.027065,6.3773e-07,0.61,0.15,0
0.028743,0.0075315,0.030362,-8.3012e-05,0.0090838,-0.00088513,0,0,0.055324,-0.023834,0,-0.0046027,0,0,0,0.030388,-0.00010872,0.0090838,-1.6639,0.013121,0.027096,6.3946e-07,0.62,0.15,0
0.029296,0.0075926,0.030385,-9.7798e-05,0.0090861,-0.00086939,0,0,0.055376,-0.023878,0,-0.0045208,0,0,0,0.030409,-0.00012257,0.0090861,-1.6324,0.013124,0.027127,6.4112e-07,0.63,0.15,0
0.02985,0.0076505,0.030406,-0.00011165,0.0090883,-0.00085333,0,0,0.055426,-0.02392,0,-0.0044373,0,0,0,0.03043,-0.00013549,0.0090883,-1.6004,0.013128,0.027155,6.427e-07,0.64,0.15,0
0.030405,0.0077054,0.030427,-0.0001246,0.0090906,-0.00083684,0,0,0.055474,-0.02396,0,-0.0043516,0,0,0,0.03045,-0.00014751,0.0090906,-1.5678,0.013131,0.027182,6.4422e-07,0.65,0.15,0
0.03096,0.0077575,0.030447,-0.00013668,0.009093,-0.00081981,0,0,0.05552,-0.023997,0,-0.004263,0,0,0,0.030469,-0.00015864,0.009093,-1.5344,0.013134,0.027208,6.4568e-07,0.66,0.15,0
0.031515,0.0078068,0.030466,-0.0001479,0.0090955,-0.00080219,0,0,0.055564,-0.024033,0,-0.0041714,0,0,0,0.030487,-0.00016891,0.0090955,-1.5,0.013138,0.027233,6.4708e-07,0.67,0.15,0
0.032071,0.0078535,0.030485,-0.00015829,0.009098,-0.00078393,0,0,0.055606,-0.024066,0,-0.0040764,0,0,0,0.030505,-0.00017833,0.009098,-1.4645,0.013142,0.027256,6.4842e-07,0.68,0.15,0
0.032627,0.0078976,0.030503,-0.00016787,0.0091006,-0.00076502,0,0,0.055647,-0.024098,0,-0.0039781,0,0,0,0.030522,-0.00018694,0.0091006,-1.4279,0.013145,0.027278,6.4971e-07,0.69,0.15,0
0.033184,0.0079393,0.030521,-0.00017666,0.0091033,-0.00074546,0,0,0.055686,-0.024128,0,-0.0038764,0,0,0,0.030539,-0.00019475,0.0091033,-1.3903,0.013149,0.027299,6.5096e-07,0.7,0.15,0
0.033741,0.0079787,0.030538,-0.00018469,0.009106,-0.00072525,0,0,0.055723,-0.024156,0,-0.0037713,0,0,0,0.030555,-0.0002018,0.009106,-1.3516,0.013153,0.027319,6.5215e-07,0.71,0.15,0
0.034298,0.0080159,0.030555,-0.00019199,0.0091088,-0.00070444,0,0,0.055759,-0.024182,0,-0.0036631,0,0,0,0.030571,-0.00020812,0.0091088,-1.3118,0.013157,0.027338,6.5328e-07,0.72,0.15,0
0.034856,0.0080509,0.030571,-0.00019859,0.0091116,-0.00068304,0,0,0.055794,-0.024206,0,-0.0035518,0,0,0,0.030586,-0.00021374,0.0091116,-1.2711,0.013161,0.027356,6.5438e-07,0.73,0.15,0
0.035414,0.008084,0.030586,-0.00020453,0.0091145,-0.0006611,0,0,0.055826,-0.02423,0,-0.0034377,0,0,0,0.0306,-0.00021871,0.0091145,-1.2294,0.013165,0.027373,6.5542e-07,0.74,0.15,0
0.035973,0.008115,0.030601,-0.00020985,0.0091174,-0.00063865,0,0,0.055858,-0.024251,0,-0.003321,0,0,0,0.030614,-0.00022308,0.0091174,-1.1869,0.01317,0.027389,6.5642e-07,0.75,0.15,0
0.036531,0.0081443,0.030616,-0.00021458,0.0091203,-0.00061573,0,0,0.055888,-0.024271,0,-0.0032018,0,0,0,0.030628,-0.00022688,0.0091203,-1.1437,0.013174,0.027404,6.5738e-07,0.76,0.15,0
0.03709,0.0081717,0.03063,-0.00021878,0.0091232,-0.00059239,0,0,0.055917,-0.024289,0,-0.0030804,0,0,0,0.030641,-0.00023015,0.0091232,-1.0997,0.013178,0.027418,6.5829e-07,0.77,0.15,0
0.03765,0.0081975,0.030643,-0.00022248,0.0091262,-0.00056866,0,0,0.055944,-0.024307,0,-0.0029571,0,0,0,0.030654,-0.00023296,0.0091262,-1.0551,0.013182,0.027432,6.5916e-07,0.78,0.15,0
0.038209,0.0082216,0.030656,-0.00022573,0.0091291,-0.00054459,0,0,0.05597,-0.024322,0,-0.0028319,0,0,0,0.030665,-0.00023533,0.0091291,-1.01,0.013186,0.027444,6.5998e-07,0.79,0.15,0
0.038769,0.0082442,0.030668,-0.00022856,0.0091319,-0.0005202,0,0,0.055995,-0.024337,0,-0.002705,0,0,0,0.030677,-0.00023732,0.0091319,-0.96431,0.013191,0.027456,6.6077e-07,0.8,0.15,0
0.039329,0.0082652,0.03068,-0.00023102,0.0091347,-0.00049553,0,0,0.056018,-0.024351,0,-0.0025768,0,0,0,0.030688,-0.00023896,0.0091347,-0.91818,0.013195,0.027467,6.6151e-07,0.81,0.15,0
0.03989,0.0082849,0.030691,-0.00023315,0.0091375,-0.00047061,0,0,0.05604,-0.024364,0,-0.0024472,0,0,0,0.030699,-0.00024031,0.0091375,-0.87166,0.013199,0.027477,6.6222e-07,0.82,0.15,0
0.04045,0.0083032,0.030702,-0.00023497,0.0091401,-0.00044546,0,0,0.056061,-0.024375,0,-0.0023164,0,0,0,0.030708,-0.00024139,0.0091401,-0.82477,0.013202,0.027487,6.6289e-07,0.83,0.15,0
0.041011,0.0083201,0.030712,-0.00023653,0.0091427,-0.00042011,0,0,0.056081,-0.024386,0,-0.0021846,0,0,0,0.030718,-0.00024223,0.0091427,-0.77757,0.013206,0.027496,6.6351e-07,0.84,0.15,0
0.041572,0.0083358,0.030722,-0.00023786,0.0091452,-0.00039459,0,0,0.056099,-0.024396,0,-0.0020519,0,0,0,0.030727,-0.00024289,0.0091452,-0.73008,0.01321,0.027505,6.6411e-07,0.85,0.15,0
0.042133,0.0083503,0.030731,-0.00023898,0.0091476,-0.0003689,0,0,0.056116,-0.024405,0,-0.0019183,0,0,0,0.030735,-0.00024338,0.0091476,-0.68235,0.013213,0.027513,6.6466e-07,0.86,0.15,0
0.042694,0.0083636,0.030739,-0.00023993,0.0091498,-0.00034307,0,0,0.056133,-0.024413,0,-0.001784,0,0,0,0.030743,-0.00024373,0.0091498,-0.6344,0.013216,0.02752,6.6518e-07,0.87,0.15,0
0.043255,0.0083757,0.030747,-0.00024072,0.0091519,-0.00031712,0,0,0.056148,-0.024421,0,-0.001649,0,0,0,0.03075,-0.00024397,0.0091519,-0.58626,0.01322,0.027527,6.6566e-07,0.88,0.15,0
0.043817,0.0083867,0.030754,-0.00024138,0.0091539,-0.00029105,0,0,0.056161,-0.024428,0,-0.0015134,0,0,0,0.030757,-0.00024411,0.0091539,-0.53794,0.013222,0.027533,6.661e-07,0.89,0.15,0
0.044379,0.0083967,0.030761,-0.00024193,0.0091558,-0.00026488,0,0,0.056174,-0.024434,0,-0.0013774,0,0,0,0.030763,-0.00024419,0.0091558,-0.48947,0.013225,0.027538,6.665e-07,0.9,0.15,0
0.04494,0.0084056,0.030767,-0.00024237,0.0091574,-0.00023863,0,0,0.056185,-0.02444,0,-0.0012409,0,0,0,0.030769,-0.00024421,0.0091574,-0.44088,0.013227,0.027543,6.6687e-07,0.91,0.15,0
0.045502,0.0084136,0.030773,-0.00024274,0.009159,-0.0002123,0,0,0.056196,-0.024445,0,-0.001104,0,0,0,0.030774,-0.00024419,0.009159,-0.39216,0.01323,0.027548,6.672e-07,0.92,0.15,0
0.046064,0.0084205,0.030777,-0.00024304,0.0091603,-0.0001859,0,0,0.056205,-0.024449,0,-0.00096669,0,0,0,0.030779,-0.00024415,0.0091603,-0.34335,0.013232,0.027552,6.6749e-07,0.93,0.15,0
0.046626,0.0084264,0.030782,-0.00024327,0.0091615,-0.00015945,0,0,0.056212,-0.024452,0,-0.00082913,0,0,0,0.030783,-0.00024409,0.0091615,-0.29445,0.013233,0.027555,6.6774e-07,0.94,0.15,0
0.047189,0.0084315,0.030785,-0.00024346,0.0091626,-0.00013295,0,0,0.056219,-0.024456,0,-0.00069132,0,0,0,0.030786,-0.00024403,0.0091626,-0.24548,0.013235,0.027558,6.6796e-07,0.95,0.15,0
0.047751,0.0084355,0.030788,-0.0002436,0.0091634,-0.0001064,0,0,0.056225,-0.024458,0,-0.0005533,0,0,0,0.030789,-0.00024397,0.0091634,-0.19646,0.013236,0.027561,6.6814e-07,0.96,0.15,0
0.048313,0.0084387,0.030791,-0.00024371,0.009164,-7.983e-05,0,0,0.056229,-0.02446,0,-0.00041512,0,0,0,0.030791,-0.00024391,0.009164,-0.14738,0.013237,0.027562,6.6827e-07,0.97,0.15,0
0.048875,0.0084409,0.030792,-0.00024378,0.0091645,-5.3233e-05,0,0,0.056232,-0.024462,0,-0.00027681,0,0,0,0.030792,-0.00024387,0.0091645,-0.098273,0.013238,0.027564,6.6837e-07,0.98,0.15,0
0.049438,0.0084423,0.030793,-0.00024382,0.0091648,-2.662e-05,0,0,0.056234,-0.024462,0,-0.00013843,0,0,0,0.030793,-0.00024384,0.0091648,-0.049142,0.013238,0.027564,6.6843e-07,0.99,0.15,0
0.05,0.0084428,0.030794,-0.00024384,0.0091649,8.6301e-06,0,0,0.056234,-0.024463,0,4.4876e-05,0,0,0,0.030794,-0.00024384,0.0091649,0.015931,0.013238,0.027565,6.6845e-07,1,0.15,0
0,0,0.028522,0.012224,0.012224,0.0063777,0,0,0.042375,-2.7105e-20,0,0.033164,0,0,0,0.030721,0.010025,0.012224,19.024,0.017656,0.019689,3.7557e-07,0,0.16,0
0.00042375,0.00033164,0.028507,0.011935,0.012133,0.0063424,0,0,0.042574,-0.00051415,0,0.03298,0,0,0,0.030656,0.0097863,0.012133,18.715,0.017525,0.019801,3.7993e-07,0.01,0.16,0
0.00085148,0.00064309,0.028602,0.011595,0.012059,0.0061141,0,0,0.043011,-0.001207,0,0.031794,0,0,0,0.030572,0.0096247,0.012059,17.858,0.017418,0.019842,3.8094e-07,0.02,0.16,0
0.001284,0.00093426,0.028698,0.011179,0.011963,0.005882,0,0,0.043511,-0.002038,0,0.030586,0,0,0,0.03049,0.0093877,0.011963,16.941,0.01728,0.019939,3.8435e-07,0.03,0.16,0
0.0017217,0.0012048,0.028786,0.010703,0.011847,0.0056403,0,0,0.044043,-0.0029742,0,0.02933,0,0,0,0.030401,0.0090878,0.011847,15.978,0.017112,0.020077,3.8929e-07,0.04,0.16,0
0.0021648,0.001454,0.028857,0.010176,0.01171,0.0053866,0,0,0.044583,-0.0039891,0,0.02801,0,0,0,0.030299,0.0087336,0.01171,14.986,0.016914,0.020242,3.9511e-07,0.05,0.16,0
0.0026133,0.0016813,0.028902,0.0096054,0.011552,0.0051216,0,0,0.04511,-0.0050621,0,0.026632,0,0,0,0.030177,0.0083303,0.011552,13.98,0.016687,0.020428,4.0133e-07,0.06,0.16,0
0.003067,0.0018859,0.028915,0.0089949,0.011373,0.0048486,0,0,0.045609,-0.0061827,0,0.025213,0,0,0,0.030032,0.0078774,0.011373,12.979,0.016427,0.02063,4.0766e-07,0.07,0.16,0
0.0035255,0.0020673,0.02889,0.0083449,0.011171,0.0045767,0,0,0.046071,-0.0073467,0,0.023799,0,0,0,0.029864,0.0073716,0.011171,12.007,0.016135,0.020854,4.1416e-07,0.08,0.16,0
0.0039885,0.0022253,0.028809,0.0076378,0.010934,0.004316,0,0,0.046475,-0.0085701,0,0.022443,0,0,0,0.029655,0.0067917,0.010934,11.091,0.015793,0.021099,4.2043e-07,0.09,0.16,0
0.004455,0.0023602,0.028683,0.0069,0.010675,0.0040952,0,0,0.046821,-0.0098145,0,0.021295,0,0,0,0.029427,0.0061556,0.010675,10.303,0.015419,0.021373,4.2687e-07,0.1,0.16,0
0.0049249,0.0024737,0.028415,0.0060619,0.010343,0.0038958,0,0,0.046988,-0.011131,0,0.020258,0,0,0,0.029075,0.0054024,0.010343,9.6083,0.01494,0.021629,4.297e-07,0.11,0.16,0
0.0053948,0.0025656,0.028294,0.0053763,0.010101,0.0037844,0,0,0.047301,-0.012284,0,0.019679,0,0,0,0.028903,0.0047675,0.010101,9.1382,0.01459,0.021959,4.3761e-07,0.12,0.16,0
0.0058709,0.0026418,0.028018,0.0042573,0.0096827,0.0037145,0,0,0.047673,-0.014106,0,0.019315,0,0,0,0.028585,0.0036902,0.0096827,8.6809,0.013986,0.022506,4.4851e-07,0.13,0.16,0
0.0063482,0.0027177,0.02744,0.0033455,0.0092356,0.0039224,0,0,0.047331,-0.015314,0,0.020396,0,0,0,0.028062,0.0027231,0.0092356,9.0173,0.01334,0.022792,4.4485e-07,0.14,0.16,0
0.0068175,0.0027807,0.028293,0.0039109,0.0096612,0.004296,0,0,0.048443,-0.014951,0,0.022339,0,0,0,0.029028,0.0031761,0.0096612,9.7059,0.013955,0.023296,4.8371e-07,0.15,0.16,0
0.0073171,0.0028432,0.032027,0.003618,0.010694,0.0039804,0,0,0.038832,-0.012521,0,0.015701,0,0,0,0.032608,0.0030376,0.010694,8.2193,0.015446,0.026584,7.7532e-07,0.16,0.16,0
0.0076498,0.0029072,0.029303,0.0033227,0.0097876,0.0028333,0,0,0.033826,-0.011568,0,0.011901,0,0,0,0.0297,0.0029251,0.0097876,7.1506,0.014138,0.024096,6.788e-07,0.17,0.16,0
0.0079936,0.0029856,0.030569,0.0035095,0.010223,0.0016809,0,0,0.035265,-0.011921,0,0.0074052,0,0,0,0.030729,0.0033495,0.010223,4.3703,0.014767,0.024675,7.5335e-07,0.18,0.16,0
0.0083551,0.0030733,0.028157,0.0027178,0.0092624,0.00042955,0,0,0.0336,-0.011352,0,0.0025526,0,0,0,0.028191,0.0026837,0.0092624,1.507,0.013379,0.022939,5.4523e-07,0.19,0.16,0
0.0086401,0.0031465,0.033259,0.0026085,0.01076,0.00027465,0,0,0.029248,-0.010597,0,0.00071409,0,0,0,0.033261,0.002606,0.01076,0.51336,0.015543,0.0275,7.6006e-07,0.2,0.16,0
0.00894,0.0032086,0.03469,0.0026765,0.01121,2.2984e-05,0,0,0.030524,-0.011093,0,5.976e-05,0,0,0,0.03469,0.0026765,0.01121,0.041136,0.016192,0.028714,8.6365e-07,0.21,0.16,0
0.0092506,0.0032677,0.035559,0.002585,0.011443,-0.00024435,0,0,0.031351,-0.011516,0,-0.00063531,0,0,0,0.035561,0.0025832,0.011443,-0.42455,0.016529,0.029561,9.3596e-07,0.22,0.16,0
0.0095671,0.0033241,0.035994,0.0023989,0.011518,-0.00055681,0,0,0.031819,-0.011855,0,-0.0014477,0,0,0,0.036003,0.0023896,0.011518,-0.94928,0.016637,0.030106,9.7934e-07,0.23,0.16,0
0.009887,0.0033782,0.036184,0.0021832,0.01151,-0.00087159,0,0,0.032076,-0.012125,0,-0.0022662,0,0,0,0.036206,0.0021609,0.01151,-1.4675,0.016626,0.030466,1.0046e-06,0.24,0.16,0
0.010209,0.0034306,0.036185,0.0019496,0.01144,-0.001175,0,0,0.032168,-0.012338,0,-0.0030551,0,0,0,0.036226,0.0019093,0.01144,-1.9634,0.016525,0.030682,1.0151e-06,0.25,0.16,0
0.01053,0.0034819,0.035992,0.0016922,0.011305,-0.0014584,0,0,0.032093,-0.012497,0,-0.0037917,0,0,0,0.036054,0.0016303,0.011305,-2.4303,0.01633,0.03075,1.0101e-06,0.26,0.16,0
0.01085,0.0035328,0.035533,0.0013863,0.011076,-0.0017089,0,0,0.031794,-0.012596,0,-0.0044432,0,0,0,0.035618,0.0013009,0.011076,-2.8579,0.015998,0.030623,9.8421e-07,0.27,0.16,0
0.011166,0.0035842,0.034561,0.00092979,0.010647,-0.0018731,0,0,0.031088,-0.012632,0,-0.0048702,0,0,0,0.034665,0.00082578,0.010647,-3.1781,0.015379,0.030153,9.2088e-07,0.28,0.16,0
0.011472,0.0036381,0.032954,0.00024469,0.0099597,-0.0020154,0,0,0.029893,-0.01263,0,-0.00524,0,0,0,0.033078,0.00012098,0.0099597,-3.5125,0.014386,0.029304,8.1839e-07,0.29,0.16,0
0.011764,0.0036859,0.02769,-0.00012374,0.0082699,-0.0018868,0,0,0.034556,-0.01463,0,-0.0079235,0,0,0,0.027852,-0.000286,0.0082699,-4.4271,0.011945,0.024986,5.9067e-07,0.3,0.16,0
0.012136,0.003715,0.030388,0.00024942,0.0091912,-0.0029321,0,0,0.036741,-0.016234,0,-0.01238,0,0,0,0.030757,-0.00011917,0.0091912,-6.3669,0.013276,0.027449,8.639e-07,0.31,0.16,0
0.012499,0.0037701,0.029517,-0.00057128,0.0086839,-0.0037257,0,0,0.036112,-0.01698,0,-0.015655,0,0,0,0.030092,-0.0011461,0.0086839,-7.8846,0.012543,0.027692,8.2833e-07,0.32,0.16,0
0.012859,0.0038637,0.032148,-0.0018285,0.0090958,-0.0045394,0,0,0.041945,-0.019421,0,-0.017733,0,0,0,0.032773,-0.0024537,0.0090958,-7.8274,0.013138,0.031106,9.4518e-07,0.33,0.16,0
0.013397,0.0039831,0.028394,-0.0011954,0.0081595,-0.0044805,0,0,0.052609,-0.024323,0,-0.023299,0,0,0,0.029057,-0.001859,0.0081595,-8.4245,0.011786,0.027321,5.9257e-07,0.34,0.16,0
0.013911,0.0041128,0.027556,-0.0023634,0.0075579,-0.0037884,0,0,0.051996,-0.025795,0,-0.0197,0,0,0,0.028029,-0.0028356,0.0075579,-7.1053,0.010917,0.0272,5.4809e-07,0.35,0.16,0
0.014437,0.0042504,0.028114,-0.0021956,0.0077754,-0.0030813,0,0,0.05288,-0.025925,0,-0.016023,0,0,0,0.028424,-0.0025057,0.0077754,-5.7464,0.011231,0.027283,5.6589e-07,0.36,0.16,0
0.014968,0.0044116,0.028487,-0.0014556,0.0081093,-0.0026407,0,0,0.052981,-0.024869,0,-0.013732,0,0,0,0.028718,-0.0016868,0.0081093,-5.0016,0.011713,0.026881,5.6943e-07,0.37,0.16,0
0.015497,0.0045804,0.028641,-0.0011983,0.0082329,-0.0022794,0,0,0.053062,-0.024521,0,-0.011853,0,0,0,0.028814,-0.0013715,0.0082329,-4.3431,0.011892,0.026712,5.6944e-07,0.38,0.16,0
0.01603,0.0047486,0.028969,-0.00079989,0.0084509,-0.002027,0,0,0.053349,-0.024052,0,-0.01054,0,0,0,0.029107,-0.00093728,0.0084509,-3.8775,0.012207,0.026622,5.785e-07,0.39,0.16,0
0.016564,0.0049155,0.029183,-0.00049863,0.0086053,-0.00182,0,0,0.053502,-0.02367,0,-0.0094639,0,0,0,0.029294,-0.00060981,0.0086053,-3.4958,0.01243,0.026525,5.8314e-07,0.4,0.16,0
0.0171,0.0050784,0.029366,-0.00024765,0.0087354,-0.0016775,0,0,0.053639,-0.023356,0,-0.0087229,0,0,0,0.02946,-0.00034237,0.0087354,-3.2318,0.012618,0.026459,5.876e-07,0.41,0.16,0
0.017637,0.0052361,0.029513,-7.0431e-05,0.0088329,-0.0015731,0,0,0.053769,-0.023149,0,-0.00818,0,0,0,0.029597,-0.00015384,0.0088329,-3.0352,0.012759,0.026429,5.9181e-07,0.42,0.16,0
0.018175,0.0053879,0.029645,5.3703e-05,0.0089096,-0.0014947,0,0,0.053912,-0.023025,0,-0.0077724,0,0,0,0.02972,-2.1605e-05,0.0089096,-2.8843,0.012869,0.026433,5.964e-07,0.43,0.16,0
0.018715,0.0055334,0.029762,0.00013466,0.0089689,-0.0014322,0,0,0.054061,-0.022969,0,-0.0074472,0,0,0,0.029831,6.5591e-05,0.0089689,-2.7611,0.012955,0.026462,6.0119e-07,0.44,0.16,0
0.019256,0.0056727,0.029866,0.00018247,0.0090146,-0.0013803,0,0,0.054214,-0.022964,0,-0.0071776,0,0,0,0.02993,0.00011842,0.0090146,-2.6566,0.013021,0.026508,6.0608e-07,0.45,0.16,0
0.019799,0.0058059,0.02996,0.00020424,0.0090493,-0.0013352,0,0,0.054368,-0.022997,0,-0.0069432,0,0,0,0.03002,0.00014444,0.0090493,-2.5642,0.013071,0.026567,6.1097e-07,0.46,0.16,0
0.020344,0.0059332,0.030044,0.00020666,0.0090752,-0.0012941,0,0,0.054519,-0.023058,0,-0.0067295,0,0,0,0.0301,0.00015064,0.0090752,-2.4789,0.013109,0.026633,6.1575e-07,0.47,0.16,0
0.02089,0.006055,0.030119,0.0001959,0.0090945,-0.0012553,0,0,0.054664,-0.023136,0,-0.0065276,0,0,0,0.030172,0.00014333,0.0090945,-2.398,0.013137,0.026703,6.2032e-07,0.48,0.16,0
0.021437,0.0061714,0.030185,0.00017693,0.0091087,-0.0012181,0,0,0.054799,-0.023223,0,-0.0063339,0,0,0,0.030235,0.00012757,0.0091087,-2.3206,0.013157,0.026771,6.2458e-07,0.49,0.16,0
0.021986,0.0062828,0.030243,0.00015347,0.009119,-0.0011823,0,0,0.054923,-0.023311,0,-0.0061481,0,0,0,0.03029,0.00010708,0.009119,-2.2467,0.013172,0.026837,6.2846e-07,0.5,0.16,0
0.022535,0.0063894,0.030294,0.00012805,0.0091265,-0.0011484,0,0,0.055035,-0.023396,0,-0.0059715,0,0,0,0.030337,8.4397e-05,0.0091265,-2.177,0.013183,0.026897,6.3195e-07,0.51,0.16,0
0.023086,0.0064915,0.030337,0.00010231,0.0091319,-0.0011165,0,0,0.055134,-0.023477,0,-0.005806,0,0,0,0.030378,6.1133e-05,0.0091319,-2.112,0.013191,0.026952,6.3505e-07,0.52,0.16,0
0.023638,0.0065892,0.030375,7.7179e-05,0.0091356,-0.001087,0,0,0.055222,-0.023552,0,-0.0056526,0,0,0,0.030414,3.8228e-05,0.0091356,-2.0522,0.013196,0.027002,6.3779e-07,0.53,0.16,0
0.024191,0.0066826,0.030408,5.3131e-05,0.0091383,-0.00106,0,0,0.055301,-0.023621,0,-0.0055118,0,0,0,0.030445,1.6163e-05,0.0091383,-1.9975,0.0132,0.027047,6.4023e-07,0.54,0.16,0
0.024744,0.006772,0.030436,3.0341e-05,0.00914,-0.0010352,0,0,0.055371,-0.023685,0,-0.0053833,0,0,0,0.030472,-4.8654e-06,0.00914,-1.9478,0.013202,0.027088,6.4241e-07,0.55,0.16,0
0.025298,0.0068573,0.030462,8.8136e-06,0.0091412,-0.0010127,0,0,0.055434,-0.023744,0,-0.0052659,0,0,0,0.030495,-2.4824e-05,0.0091412,-1.9025,0.013204,0.027125,6.4437e-07,0.56,0.16,0
0.025853,0.0069388,0.030485,-1.153e-05,0.009142,-0.00099199,0,0,0.055491,-0.023799,0,-0.0051583,0,0,0,0.030517,-4.3763e-05,0.009142,-1.8611,0.013205,0.027159,6.4617e-07,0.57,0.16,0
0.026408,0.0070166,0.030506,-3.0795e-05,0.0091425,-0.00097284,0,0,0.055545,-0.023851,0,-0.0050587,0,0,0,0.030537,-6.1756e-05,0.0091425,-1.8229,0.013206,0.027191,6.4783e-07,0.58,0.16,0
0.026964,0.0070907,0.030525,-4.9087e-05,0.0091429,-0.00095487,0,0,0.055595,-0.023899,0,-0.0049653,0,0,0,0.030555,-7.8879e-05,0.0091429,-1.7871,0.013206,0.027221,6.4938e-07,0.59,0.16,0
0.02752,0.0071613,0.030544,-6.649e-05,0.0091432,-0.00093773,0,0,0.055642,-0.023945,0,-0.0048762,0,0,0,0.030572,-9.5189e-05,0.0091432,-1.753,0.013207,0.027249,6.5086e-07,0.6,0.16,0
0.028077,0.0072284,0.030561,-8.3061e-05,0.0091435,-0.0009211,0,0,0.055686,-0.023989,0,-0.0047897,0,0,0,0.030589,-0.00011072,0.0091435,-1.7201,0.013207,0.027277,6.5226e-07,0.61,0.16,0
0.028634,0.0072922,0.030578,-9.8838e-05,0.0091438,-0.00090469,0,0,0.055729,-0.024031,0,-0.0047044,0,0,0,0.030605,-0.00012549,0.0091438,-1.6878,0.013208,0.027303,6.5361e-07,0.62,0.16,0
0.029191,0.0073528,0.030595,-0.00011384,0.0091442,-0.00088826,0,0,0.055771,-0.024071,0,-0.004619,0,0,0,0.03062,-0.00013951,0.0091442,-1.6555,0.013208,0.027327,6.549e-07,0.63,0.16,0
0.029749,0.0074104,0.03061,-0.00012806,0.0091447,-0.00087161,0,0,0.055811,-0.024109,0,-0.0045324,0,0,0,0.030635,-0.00015275,0.0091447,-1.6229,0.013209,0.027351,6.5615e-07,0.64,0.16,0
0.030307,0.0074649,0.030626,-0.0001415,0.0091453,-0.00085458,0,0,0.055849,-0.024146,0,-0.0044438,0,0,0,0.030649,-0.00016522,0.0091453,-1.5898,0.01321,0.027374,6.5736e-07,0.65,0.16,0
0.030866,0.0075166,0.030641,-0.00015415,0.0091459,-0.00083705,0,0,0.055886,-0.02418,0,-0.0043526,0,0,0,0.030663,-0.00017688,0.0091459,-1.5558,0.013211,0.027396,6.5852e-07,0.66,0.16,0
0.031425,0.0075656,0.030655,-0.000166,0.0091468,-0.00081894,0,0,0.055922,-0.024213,0,-0.0042585,0,0,0,0.030677,-0.00018774,0.0091468,-1.521,0.013212,0.027416,6.5965e-07,0.67,0.16,0
0.031984,0.007612,0.030669,-0.00017704,0.0091477,-0.00080022,0,0,0.055957,-0.024244,0,-0.0041611,0,0,0,0.03069,-0.00019779,0.0091477,-1.485,0.013213,0.027436,6.6073e-07,0.68,0.16,0
0.032544,0.0076558,0.030683,-0.00018728,0.0091488,-0.00078084,0,0,0.05599,-0.024274,0,-0.0040604,0,0,0,0.030703,-0.00020702,0.0091488,-1.448,0.013215,0.027455,6.6177e-07,0.69,0.16,0
0.033104,0.0076972,0.030697,-0.00019673,0.00915,-0.00076082,0,0,0.056022,-0.024302,0,-0.0039562,0,0,0,0.030716,-0.00021545,0.00915,-1.4099,0.013217,0.027473,6.6276e-07,0.7,0.16,0
0.033665,0.0077363,0.03071,-0.00020539,0.0091514,-0.00074015,0,0,0.056052,-0.024328,0,-0.0038488,0,0,0,0.030728,-0.0002231,0.0091514,-1.3707,0.013219,0.02749,6.6372e-07,0.71,0.16,0
0.034225,0.0077732,0.030723,-0.00021329,0.0091528,-0.00071887,0,0,0.056082,-0.024352,0,-0.0037381,0,0,0,0.030739,-0.00022998,0.0091528,-1.3304,0.013221,0.027506,6.6463e-07,0.72,0.16,0
0.034786,0.007808,0.030735,-0.00022046,0.0091544,-0.00069701,0,0,0.05611,-0.024375,0,-0.0036244,0,0,0,0.030751,-0.00023614,0.0091544,-1.2892,0.013223,0.027521,6.655e-07,0.73,0.16,0
0.035347,0.0078408,0.030747,-0.00022692,0.009156,-0.0006746,0,0,0.056136,-0.024396,0,-0.0035079,0,0,0,0.030762,-0.00024161,0.009156,-1.2471,0.013225,0.027535,6.6633e-07,0.74,0.16,0
0.035909,0.0078717,0.030759,-0.00023273,0.0091577,-0.00065169,0,0,0.056162,-0.024415,0,-0.0033888,0,0,0,0.030772,-0.00024643,0.0091577,-1.2041,0.013228,0.027548,6.6713e-07,0.75,0.16,0
0.036471,0.0079007,0.03077,-0.00023791,0.0091595,-0.00062831,0,0,0.056186,-0.024433,0,-0.0032672,0,0,0,0.030782,-0.00025064,0.0091595,-1.1603,0.01323,0.02756,6.6788e-07,0.76,0.16,0
0.037033,0.007928,0.03078,-0.00024252,0.0091614,-0.0006045,0,0,0.05621,-0.02445,0,-0.0031434,0,0,0,0.030792,-0.00025429,0.0091614,-1.1159,0.013233,0.027572,6.686e-07,0.77,0.16,0
0.037595,0.0079536,0.030791,-0.00024658,0.0091632,-0.00058031,0,0,0.056231,-0.024466,0,-0.0030176,0,0,0,0.030802,-0.00025743,0.0091632,-1.0708,0.013236,0.027583,6.6928e-07,0.78,0.16,0
0.038157,0.0079776,0.030801,-0.00025016,0.0091652,-0.00055577,0,0,0.056252,-0.02448,0,-0.00289,0,0,0,0.030811,-0.00026011,0.0091652,-1.0251,0.013239,0.027593,6.6993e-07,0.79,0.16,0
0.03872,0.008,0.03081,-0.00025329,0.0091671,-0.00053091,0,0,0.056272,-0.024493,0,-0.0027607,0,0,0,0.030819,-0.00026236,0.0091671,-0.97886,0.013241,0.027602,6.7054e-07,0.8,0.16,0
0.039283,0.008021,0.030819,-0.00025602,0.009169,-0.00050577,0,0,0.056291,-0.024505,0,-0.00263,0,0,0,0.030828,-0.00026425,0.009169,-0.93219,0.013244,0.027611,6.7113e-07,0.81,0.16,0
0.039846,0.0080405,0.030828,-0.00025838,0.0091709,-0.00048037,0,0,0.056309,-0.024516,0,-0.0024979,0,0,0,0.030835,-0.0002658,0.0091709,-0.88509,0.013247,0.02762,6.7168e-07,0.82,0.16,0
0.040409,0.0080587,0.030836,-0.00026042,0.0091728,-0.00045474,0,0,0.056325,-0.024526,0,-0.0023646,0,0,0,0.030843,-0.00026707,0.0091728,-0.83762,0.01325,0.027627,6.722e-07,0.83,0.16,0
0.040972,0.0080755,0.030844,-0.00026218,0.0091746,-0.0004289,0,0,0.056341,-0.024536,0,-0.0022303,0,0,0,0.03085,-0.00026809,0.0091746,-0.78981,0.013252,0.027635,6.7269e-07,0.84,0.16,0
0.041536,0.0080911,0.030852,-0.00026367,0.0091764,-0.00040288,0,0,0.056356,-0.024544,0,-0.002095,0,0,0,0.030857,-0.00026889,0.0091764,-0.7417,0.013255,0.027641,6.7315e-07,0.85,0.16,0
0.042099,0.0081055,0.030859,-0.00026495,0.0091781,-0.0003767,0,0,0.05637,-0.024552,0,-0.0019588,0,0,0,0.030863,-0.00026951,0.0091781,-0.69333,0.013257,0.027647,6.7358e-07,0.86,0.16,0
0.042663,0.0081187,0.030865,-0.00026604,0.0091798,-0.00035036,0,0,0.056383,-0.024559,0,-0.0018219,0,0,0,0.030869,-0.00026998,0.0091798,-0.64471,0.01326,0.027653,6.7398e-07,0.87,0.16,0
0.043227,0.0081308,0.030872,-0.00026695,0.0091814,-0.00032389,0,0,0.056395,-0.024566,0,-0.0016842,0,0,0,0.030875,-0.00027032,0.0091814,-0.59588,0.013262,0.027658,6.7436e-07,0.88,0.16,0
0.043791,0.0081417,0.030877,-0.00026772,0.0091829,-0.0002973,0,0,0.056405,-0.024571,0,-0.0015459,0,0,0,0.03088,-0.00027056,0.0091829,-0.54686,0.013264,0.027663,6.747e-07,0.89,0.16,0
0.044355,0.0081516,0.030883,-0.00026836,0.0091843,-0.0002706,0,0,0.056416,-0.024577,0,-0.0014071,0,0,0,0.030885,-0.00027071,0.0091843,-0.49766,0.013266,0.027668,6.7502e-07,0.9,0.16,0
0.044919,0.0081605,0.030887,-0.0002689,0.0091855,-0.0002438,0,0,0.056425,-0.024581,0,-0.0012678,0,0,0,0.030889,-0.0002708,0.0091855,-0.44831,0.013268,0.027672,6.753e-07,0.91,0.16,0
0.045484,0.0081684,0.030892,-0.00026934,0.0091867,-0.00021692,0,0,0.056433,-0.024586,0,-0.001128,0,0,0,0.030893,-0.00027085,0.0091867,-0.39883,0.01327,0.027675,6.7556e-07,0.92,0.16,0
0.046048,0.0081753,0.030895,-0.0002697,0.0091877,-0.00018997,0,0,0.05644,-0.024589,0,-0.00098783,0,0,0,0.030897,-0.00027086,0.0091877,-0.34923,0.013271,0.027678,6.7579e-07,0.93,0.16,0
0.046613,0.0081812,0.030899,-0.00026999,0.0091887,-0.00016295,0,0,0.056446,-0.024592,0,-0.00084732,0,0,0,0.0309,-0.00027084,0.0091887,-0.29952,0.013272,0.027681,6.7599e-07,0.94,0.16,0
0.047177,0.0081862,0.030902,-0.00027023,0.0091894,-0.00013587,0,0,0.056452,-0.024595,0,-0.00070654,0,0,0,0.030902,-0.00027082,0.0091894,-0.24974,0.013274,0.027683,6.7616e-07,0.95,0.16,0
0.047741,0.0081903,0.030904,-0.00027041,0.0091901,-0.00010875,0,0,0.056456,-0.024597,0,-0.00056551,0,0,0,0.030904,-0.00027079,0.0091901,-0.19987,0.013275,0.027685,6.7629e-07,0.96,0.16,0
0.048306,0.0081934,0.030906,-0.00027054,0.0091906,-8.1596e-05,0,0,0.05646,-0.024599,0,-0.0004243,0,0,0,0.030906,-0.00027076,0.0091906,-0.14996,0.013275,0.027686,6.764e-07,0.97,0.16,0
0.048871,0.0081957,0.030907,-0.00027064,0.0091909,-5.4412e-05,0,0,0.056462,-0.0246,0,-0.00028294,0,0,0,0.030907,-0.00027073,0.0091909,-0.099993,0.013276,0.027687,6.7648e-07,0.98,0.16,0
0.049435,0.008197,0.030908,-0.00027069,0.0091912,-2.721e-05,0,0,0.056464,-0.024601,0,-0.00014149,0,0,0,0.030908,-0.00027071,0.0091912,-0.050004,0.013276,0.027688,6.7652e-07,0.99,0.16,0
0.05,0.0081974,0.030908,-0.00027071,0.0091912,8.5804e-06,0,0,0.056464,-0.024601,0,4.4618e-05,0,0,0,0.030908,-0.00027071,0.0091912,0.015768,0.013276,0.027688,6.7654e-07,1,0.16,0
0,0,0.029112,0.012477,0.012477,0.0062769,0,0,0.043252,6.5052e-19,0,0.03264,0,0,0,0.031215,0.010374,0.012477,18.52,0.018022,0.019873,3.8793e-07,0,0.17,0
0.00043252,0.0003264,0.029094,0.012167,0.012379,0.0062437,0,0,0.043462,-0.00054903,0,0.032467,0,0,0,0.031148,0.010114,0.012379,18.208,0.01788,0.019999,3.9309e-07,0.01,0.17,0
0.00086923,0.0006309,0.029196,0.011823,0.012306,0.0060087,0,0,0.043915,-0.0012551,0,0.031245,0,0,0,0.031072,0.0099473,0.012306,17.336,0.017775,0.02005,3.9469e-07,0.02,0.17,0
0.0013108,0.00091383,0.0293,0.011412,0.012214,0.0057796,0,0,0.044425,-0.0020844,0,0.030054,0,0,0,0.031005,0.0097071,0.012214,16.435,0.017642,0.020162,3.9909e-07,0.03,0.17,0
0.0017577,0.0011751,0.029399,0.010944,0.012103,0.0055492,0,0,0.044969,-0.0030125,0,0.028856,0,0,0,0.030939,0.0094042,0.012103,15.511,0.017482,0.02032,4.0543e-07,0.04,0.17,0
0.0022102,0.0014142,0.029484,0.010426,0.011973,0.0053147,0,0,0.045528,-0.0040221,0,0.027636,0,0,0,0.030866,0.0090442,0.011973,14.575,0.017294,0.020515,4.1312e-07,0.05,0.17,0
0.0026683,0.0016309,0.029548,0.009862,0.011823,0.0050763,0,0,0.046085,-0.0050984,0,0.026397,0,0,0,0.03078,0.0086301,0.011823,13.641,0.017078,0.020738,4.2171e-07,0.06,0.17,0
0.0031319,0.0018242,0.029588,0.0092573,0.011654,0.004837,0,0,0.046629,-0.0062302,0,0.025153,0,0,0,0.03068,0.0081652,0.011654,12.723,0.016833,0.020989,4.3102e-07,0.07,0.17,0
0.0036009,0.0019939,0.029591,0.008596,0.011456,0.0045997,0,0,0.04715,-0.0074361,0,0.023918,0,0,0,0.030554,0.0076325,0.011456,11.831,0.016548,0.021269,4.4083e-07,0.08,0.17,0
0.0040749,0.0021392,0.029577,0.0078855,0.011239,0.0043904,0,0,0.047681,-0.008719,0,0.02283,0,0,0,0.030432,0.0070305,0.011239,11.019,0.016234,0.021607,4.5258e-07,0.09,0.17,0
0.0045545,0.0022615,0.029444,0.0070262,0.010941,0.0042113,0,0,0.048107,-0.010179,0,0.021899,0,0,0,0.030209,0.0062611,0.010941,10.296,0.015804,0.021985,4.6346e-07,0.1,0.17,0
0.0050371,0.0023604,0.029352,0.0062457,0.010679,0.0041799,0,0,0.048549,-0.011527,0,0.021736,0,0,0,0.030085,0.0055128,0.010679,9.9451,0.015426,0.022439,4.7822e-07,0.11,0.17,0
0.0055255,0.0024431,0.028517,0.0049458,0.010039,0.0040764,0,0,0.048044,-0.013242,0,0.021197,0,0,0,0.029202,0.0042608,0.010039,9.5395,0.014501,0.022613,4.6573e-07,0.12,0.17,0
0.0059979,0.0024979,0.02851,0.0044462,0.009887,0.004528,0,0,0.048421,-0.014146,0,0.023546,0,0,0,0.029334,0.0036224,0.009887,10.311,0.014281,0.023222,4.8885e-07,0.13,0.17,0
0.0064939,0.0025539,0.029557,0.0046393,0.010259,0.0037214,0,0,0.050174,-0.014611,0,0.019352,0,0,0,0.0301,0.0040954,0.010259,8.3155,0.014818,0.023537,5.1805e-07,0.14,0.17,0
0.0070014,0.0026348,0.033916,0.0048553,0.011631,0.003138,0,0,0.040359,-0.012151,0,0.013107,0,0,0,0.034313,0.0044586,0.011631,6.6243,0.016801,0.026992,8.6764e-07,0.15,0.17,0
0.007353,0.0027257,0.027606,0.0027327,0.0091017,0.0018377,0,0,0.032847,-0.011218,0,0.0079492,0,0,0,0.027792,0.0025467,0.0091017,4.8971,0.013147,0.02269,5.2314e-07,0.16,0.17,0
0.0076352,0.0028023,0.033608,0.003519,0.011138,0.0012707,0,0,0.029211,-0.0099048,0,0.0033037,0,0,0,0.033661,0.0034655,0.011138,2.4139,0.016088,0.027184,7.6137e-07,0.17,0.17,0
0.0079372,0.0028749,0.035051,0.0037821,0.01165,0.00061855,0,0,0.030421,-0.010228,0,0.0016082,0,0,0,0.035063,0.0037699,0.01165,1.1328,0.016828,0.028192,8.5484e-07,0.18,0.17,0
0.0082436,0.0029603,0.035706,0.0033432,0.011715,-0.00033036,0,0,0.031188,-0.010883,0,-0.00085894,0,0,0,0.035709,0.0033398,0.011715,-0.5848,0.016921,0.0291,9.2115e-07,0.19,0.17,0
0.008561,0.0030392,0.03591,0.0033081,0.011765,-0.00033263,0,0,0.031388,-0.010995,0,-0.00086483,0,0,0,0.035914,0.0033047,0.011765,-0.58448,0.016995,0.029309,9.3906e-07,0.2,0.17,0
0.0088714,0.0030992,0.035465,0.0031097,0.011572,-0.00052032,0,0,0.03106,-0.011002,0,-0.0013528,0,0,0,0.035473,0.0031014,0.011572,-0.92108,0.016716,0.029077,9.1069e-07,0.21,0.17,0
0.0091822,0.0031548,0.035539,0.002888,0.011528,-0.00060927,0,0,0.031214,-0.011232,0,-0.0015841,0,0,0,0.035551,0.0028766,0.011528,-1.0686,0.016652,0.029322,9.2486e-07,0.22,0.17,0
0.0094957,0.003208,0.035709,0.0026764,0.011516,-0.00075691,0,0,0.031452,-0.011491,0,-0.001968,0,0,0,0.035727,0.0026591,0.011516,-1.3119,0.016634,0.029649,9.4686e-07,0.23,0.17,0
0.0098113,0.0032595,0.035795,0.002445,0.011472,-0.00092947,0,0,0.03162,-0.011735,0,-0.0024166,0,0,0,0.035821,0.0024191,0.011472,-1.5952,0.016571,0.029921,9.6306e-07,0.24,0.17,0
0.010128,0.0033097,0.035769,0.0021942,0.011389,-0.0010965,0,0,0.031694,-0.011953,0,-0.002851,0,0,0,0.035805,0.0021584,0.011389,-1.8686,0.016451,0.030111,9.708e-07,0.25,0.17,0
0.010445,0.0033593,0.035627,0.0019185,0.011264,-0.0012307,0,0,0.031673,-0.012149,0,-0.0031999,0,0,0,0.035672,0.0018736,0.011264,-2.0882,0.01627,0.030218,9.6953e-07,0.26,0.17,0
0.010762,0.0034091,0.03539,0.0016044,0.011098,-0.0012974,0,0,0.031579,-0.012342,0,-0.0033732,0,0,0,0.035439,0.0015547,0.011098,-2.1959,0.016031,0.030263,9.609e-07,0.27,0.17,0
0.011077,0.0034595,0.035262,0.001278,0.010962,-0.001258,0,0,0.03159,-0.012589,0,-0.0032708,0,0,0,0.035308,0.0012315,0.010962,-2.1171,0.015834,0.030403,9.6064e-07,0.28,0.17,0
0.011393,0.00351,0.035703,0.00083349,0.010961,-0.001297,0,0,0.032165,-0.013166,0,-0.0033721,0,0,0,0.035751,0.00078532,0.010961,-2.1271,0.015833,0.031151,1.0124e-06,0.29,0.17,0
0.01172,0.0035445,0.035412,9.8268e-05,0.010653,-0.0011664,0,0,0.032187,-0.013721,0,-0.0030326,0,0,0,0.035451,5.9786e-05,0.010653,-1.8897,0.015388,0.031462,1.0096e-06,0.3,0.17,0
0.012037,0.0035747,0.034745,0.0002787,0.010507,-0.0018843,0,0,0.031509,-0.013297,0,-0.0048991,0,0,0,0.034848,0.000176,0.010507,-3.12,0.015177,0.030833,9.5543e-07,0.31,0.17,0
0.01235,0.0036284,0.033182,-0.00084857,0.0097,-0.0023339,0,0,0.030526,-0.013713,0,-0.0060681,0,0,0,0.033341,-0.0010079,0.0097,-3.9051,0.014011,0.030442,8.6781e-07,0.32,0.17,0
0.012648,0.0036841,0.027268,-0.0019596,0.0075926,-0.0025352,0,0,0.034978,-0.016909,0,-0.010486,0,0,0,0.027532,-0.0022235,0.0075926,-5.5114,0.010967,0.026262,6.1031e-07,0.33,0.17,0
0.013024,0.0037395,0.033589,-0.0013306,0.0096774,-0.0034041,0,0,0.043371,-0.019835,0,-0.014003,0,0,0,0.033965,-0.0017064,0.0096774,-5.9424,0.013978,0.031558,1.045e-06,0.34,0.17,0
0.013573,0.0038412,0.029544,-0.0014795,0.0084194,-0.00357,0,0,0.054924,-0.025737,0,-0.018564,0,0,0,0.02995,-0.001885,0.0084194,-6.4804,0.012161,0.028135,6.4827e-07,0.35,0.17,0
0.014122,0.0039829,0.028515,-0.0026038,0.0077733,-0.0040025,0,0,0.053928,-0.02698,0,-0.020813,0,0,0,0.029021,-0.0031103,0.0077733,-7.2131,0.011228,0.028305,6.1114e-07,0.36,0.17,0
0.014651,0.0041593,0.028616,-0.0023381,0.0078833,-0.0029934,0,0,0.053904,-0.026575,0,-0.015566,0,0,0,0.028903,-0.0026249,0.0078833,-5.4733,0.011387,0.027805,5.9621e-07,0.37,0.17,0
0.0152,0.0043292,0.029496,-0.0015064,0.0083969,-0.0026252,0,0,0.054858,-0.025749,0,-0.013651,0,0,0,0.029717,-0.0017271,0.0083969,-4.8061,0.012129,0.027801,6.3059e-07,0.38,0.17,0
0.015748,0.0045036,0.029688,-0.0011075,0.0085742,-0.0022168,0,0,0.054897,-0.025173,0,-0.011527,0,0,0,0.029847,-0.0012663,0.0085742,-4.0961,0.012385,0.027545,6.2986e-07,0.39,0.17,0
0.016298,0.0046748,0.029893,-0.00066221,0.0087692,-0.0019769,0,0,0.054922,-0.024522,0,-0.01028,0,0,0,0.03002,-0.00078959,0.0087692,-3.6866,0.012667,0.027315,6.3103e-07,0.4,0.17,0
0.016847,0.0048416,0.03,-0.00037283,0.0088881,-0.0018054,0,0,0.054891,-0.024078,0,-0.0093881,0,0,0,0.030107,-0.00047977,0.0088881,-3.3899,0.012838,0.027143,6.2992e-07,0.41,0.17,0
0.017396,0.0050017,0.030103,-0.0001617,0.0089825,-0.001688,0,0,0.054914,-0.023775,0,-0.0087779,0,0,0,0.030197,-0.00025557,0.0089825,-3.1825,0.012975,0.027044,6.3072e-07,0.42,0.17,0
0.017945,0.005155,0.030191,-2.0259e-05,0.0090513,-0.001596,0,0,0.054964,-0.023586,0,-0.0082994,0,0,0,0.030275,-0.00010434,0.0090513,-3.0157,0.013074,0.026993,6.3228e-07,0.43,0.17,0
0.018495,0.0053013,0.030271,7.5711e-05,0.0091041,-0.0015226,0,0,0.055035,-0.023474,0,-0.0079173,0,0,0,0.030348,-8.6697e-07,0.0091041,-2.8793,0.01315,0.026974,6.3452e-07,0.44,0.17,0
0.019046,0.0054409,0.030343,0.00013317,0.0091427,-0.0014621,0,0,0.055119,-0.023425,0,-0.0076032,0,0,0,0.030413,6.2569e-05,0.0091427,-2.7645,0.013206,0.026982,6.3719e-07,0.45,0.17,0
0.019598,0.0055739,0.030407,0.00015959,0.0091698,-0.0014096,0,0,0.055215,-0.023427,0,-0.00733,0,0,0,0.030472,9.404e-05,0.0091698,-2.6625,0.013245,0.027009,6.4019e-07,0.46,0.17,0
0.02015,0.0057007,0.030465,0.00016411,0.0091886,-0.001361,0,0,0.055318,-0.023464,0,-0.0070773,0,0,0,0.030526,0.0001031,0.0091886,-2.5667,0.013272,0.02705,6.4337e-07,0.47,0.17,0
0.020704,0.0058218,0.030516,0.00015459,0.0092013,-0.0013144,0,0,0.055419,-0.023522,0,-0.0068349,0,0,0,0.030573,9.7791e-05,0.0092013,-2.4743,0.013291,0.027096,6.4651e-07,0.48,0.17,0
0.021259,0.0059374,0.030562,0.000137,0.0092096,-0.0012694,0,0,0.055515,-0.023589,0,-0.0066008,0,0,0,0.030614,8.413e-05,0.0092096,-2.385,0.013303,0.027144,6.4945e-07,0.49,0.17,0
0.021814,0.006048,0.0306,0.00011542,0.0092146,-0.0012263,0,0,0.055602,-0.023658,0,-0.0063767,0,0,0,0.030649,6.617e-05,0.0092146,-2.2999,0.01331,0.027189,6.5208e-07,0.5,0.17,0
0.022371,0.0061539,0.030632,9.2412e-05,0.0092174,-0.0011857,0,0,0.055679,-0.023725,0,-0.0061659,0,0,0,0.030678,4.6444e-05,0.0092174,-2.2201,0.013314,0.02723,6.5439e-07,0.51,0.17,0
0.022928,0.0062552,0.030659,6.9444e-05,0.0092185,-0.0011482,0,0,0.055745,-0.023788,0,-0.0059708,0,0,0,0.030702,2.6404e-05,0.0092185,-2.1467,0.013316,0.027268,6.5637e-07,0.52,0.17,0
0.023485,0.0063522,0.030681,4.7243e-05,0.0092185,-0.001114,0,0,0.055803,-0.023845,0,-0.005793,0,0,0,0.030722,6.7829e-06,0.0092185,-2.08,0.013316,0.0273,6.5808e-07,0.53,0.17,0
0.024044,0.006445,0.0307,2.6076e-05,0.0092177,-0.0010832,0,0,0.055853,-0.023898,0,-0.0056327,0,0,0,0.030738,-1.2129e-05,0.0092177,-2.02,0.013314,0.02733,6.5955e-07,0.54,0.17,0
0.024603,0.0065338,0.030715,5.9533e-06,0.0092164,-0.0010556,0,0,0.055897,-0.023947,0,-0.005489,0,0,0,0.030752,-3.0288e-05,0.0092164,-1.9664,0.013312,0.027357,6.6085e-07,0.55,0.17,0
0.025162,0.0066187,0.030729,-1.3236e-05,0.0092147,-0.0010308,0,0,0.055937,-0.023993,0,-0.0053603,0,0,0,0.030763,-4.7763e-05,0.0092147,-1.9183,0.01331,0.027381,6.6203e-07,0.56,0.17,0
0.025721,0.0066997,0.030741,-3.1639e-05,0.0092129,-0.0010085,0,0,0.055974,-0.024036,0,-0.0052444,0,0,0,0.030774,-6.4657e-05,0.0092129,-1.8751,0.013307,0.027404,6.6311e-07,0.57,0.17,0
0.026281,0.006777,0.030753,-4.9387e-05,0.009211,-0.00098825,0,0,0.056008,-0.024077,0,-0.0051389,0,0,0,0.030784,-8.1061e-05,0.009211,-1.8357,0.013305,0.027426,6.6413e-07,0.58,0.17,0
0.026842,0.0068506,0.030763,-6.6575e-05,0.009209,-0.00096947,0,0,0.056041,-0.024117,0,-0.0050412,0,0,0,0.030794,-9.7031e-05,0.009209,-1.7993,0.013302,0.027448,6.6512e-07,0.59,0.17,0
0.027402,0.0069208,0.030774,-8.3259e-05,0.0092072,-0.00095176,0,0,0.056073,-0.024155,0,-0.0049492,0,0,0,0.030803,-0.00011259,0.0092072,-1.765,0.013299,0.027468,6.6608e-07,0.6,0.17,0
0.027963,0.0069875,0.030784,-9.9453e-05,0.0092054,-0.00093473,0,0,0.056105,-0.024193,0,-0.0048606,0,0,0,0.030812,-0.00012772,0.0092054,-1.732,0.013297,0.027489,6.6702e-07,0.61,0.17,0
0.028524,0.0070509,0.030794,-0.00011514,0.0092037,-0.00091801,0,0,0.056135,-0.024229,0,-0.0047737,0,0,0,0.030822,-0.00014238,0.0092037,-1.6997,0.013294,0.027509,6.6795e-07,0.62,0.17,0
0.029086,0.0071112,0.030804,-0.00013029,0.0092022,-0.00090133,0,0,0.056166,-0.024265,0,-0.0046869,0,0,0,0.030831,-0.00015653,0.0092022,-1.6675,0.013292,0.027528,6.6887e-07,0.63,0.17,0
0.029648,0.0071683,0.030815,-0.00014484,0.0092009,-0.00088444,0,0,0.056195,-0.024299,0,-0.0045991,0,0,0,0.03084,-0.00017009,0.0092009,-1.635,0.01329,0.027547,6.6977e-07,0.64,0.17,0
0.03021,0.0072225,0.030825,-0.00015876,0.0091997,-0.00086718,0,0,0.056224,-0.024332,0,-0.0045094,0,0,0,0.030849,-0.00018301,0.0091997,-1.602,0.013288,0.027565,6.7066e-07,0.65,0.17,0
0.030772,0.0072739,0.030835,-0.00017197,0.0091988,-0.00084942,0,0,0.056253,-0.024364,0,-0.004417,0,0,0,0.030858,-0.00019523,0.0091988,-1.568,0.013287,0.027583,6.7152e-07,0.66,0.17,0
0.031335,0.0073226,0.030844,-0.00018445,0.009198,-0.00083107,0,0,0.056281,-0.024394,0,-0.0043216,0,0,0,0.030867,-0.0002067,0.009198,-1.5331,0.013286,0.0276,6.7236e-07,0.67,0.17,0
0.031898,0.0073686,0.030854,-0.00019616,0.0091974,-0.00081207,0,0,0.056307,-0.024423,0,-0.0042228,0,0,0,0.030875,-0.00021738,0.0091974,-1.4971,0.013285,0.027616,6.7317e-07,0.68,0.17,0
0.032461,0.0074122,0.030864,-0.00020707,0.009197,-0.00079241,0,0,0.056333,-0.024451,0,-0.0041205,0,0,0,0.030884,-0.00022727,0.009197,-1.46,0.013284,0.027632,6.7395e-07,0.69,0.17,0
0.033024,0.0074533,0.030873,-0.00021718,0.0091967,-0.00077209,0,0,0.056358,-0.024476,0,-0.0040149,0,0,0,0.030892,-0.00023634,0.0091967,-1.4217,0.013284,0.027647,6.747e-07,0.7,0.17,0
0.033588,0.0074922,0.030882,-0.00022648,0.0091967,-0.00075112,0,0,0.056382,-0.0245,0,-0.0039058,0,0,0,0.0309,-0.0002446,0.0091967,-1.3823,0.013284,0.02766,6.7542e-07,0.71,0.17,0
0.034152,0.0075289,0.030891,-0.00023499,0.0091968,-0.00072952,0,0,0.056405,-0.024523,0,-0.0037935,0,0,0,0.030908,-0.00025207,0.0091968,-1.3419,0.013284,0.027673,6.761e-07,0.72,0.17,0
0.034716,0.0075635,0.0309,-0.00024272,0.0091971,-0.00070733,0,0,0.056426,-0.024543,0,-0.0036781,0,0,0,0.030916,-0.00025878,0.0091971,-1.3005,0.013285,0.027685,6.7675e-07,0.73,0.17,0
0.03528,0.0075961,0.030908,-0.00024972,0.0091975,-0.00068459,0,0,0.056447,-0.024563,0,-0.0035599,0,0,0,0.030923,-0.00026475,0.0091975,-1.2581,0.013285,0.027697,6.7737e-07,0.74,0.17,0
0.035845,0.0076267,0.030916,-0.00025601,0.009198,-0.00066134,0,0,0.056467,-0.02458,0,-0.003439,0,0,0,0.03093,-0.00027004,0.009198,-1.2148,0.013286,0.027707,6.7796e-07,0.75,0.17,0
0.03641,0.0076556,0.030924,-0.00026164,0.0091987,-0.00063763,0,0,0.056486,-0.024597,0,-0.0033157,0,0,0,0.030937,-0.00027467,0.0091987,-1.1708,0.013287,0.027717,6.7851e-07,0.76,0.17,0
0.036975,0.0076827,0.030931,-0.00026665,0.0091994,-0.00061349,0,0,0.056503,-0.024612,0,-0.0031902,0,0,0,0.030943,-0.00027871,0.0091994,-1.1261,0.013288,0.027726,6.7903e-07,0.77,0.17,0
0.03754,0.0077081,0.030939,-0.00027108,0.0092003,-0.00058896,0,0,0.05652,-0.024626,0,-0.0030626,0,0,0,0.03095,-0.00028219,0.0092003,-1.0807,0.013289,0.027734,6.7953e-07,0.78,0.17,0
0.038105,0.007732,0.030946,-0.00027499,0.0092012,-0.00056409,0,0,0.056536,-0.024638,0,-0.0029333,0,0,0,0.030956,-0.00028518,0.0092012,-1.0348,0.013291,0.027742,6.8e-07,0.79,0.17,0
0.03867,0.0077543,0.030953,-0.00027842,0.0092022,-0.0005389,0,0,0.056551,-0.02465,0,-0.0028023,0,0,0,0.030962,-0.00028772,0.0092022,-0.98826,0.013292,0.027749,6.8045e-07,0.8,0.17,0
0.039236,0.0077751,0.030959,-0.00028142,0.0092033,-0.00051342,0,0,0.056565,-0.02466,0,-0.0026698,0,0,0,0.030967,-0.00028985,0.0092033,-0.94128,0.013294,0.027756,6.8087e-07,0.81,0.17,0
0.039802,0.0077946,0.030965,-0.00028403,0.0092044,-0.00048768,0,0,0.056578,-0.02467,0,-0.0025359,0,0,0,0.030973,-0.00029164,0.0092044,-0.89387,0.013295,0.027762,6.8126e-07,0.82,0.17,0
0.040368,0.0078126,0.030971,-0.00028629,0.0092055,-0.00046171,0,0,0.056591,-0.024679,0,-0.0024009,0,0,0,0.030978,-0.0002931,0.0092055,-0.84608,0.013297,0.027768,6.8164e-07,0.83,0.17,0
0.040934,0.0078294,0.030977,-0.00028824,0.0092066,-0.00043553,0,0,0.056603,-0.024687,0,-0.0022647,0,0,0,0.030983,-0.0002943,0.0092066,-0.79793,0.013298,0.027774,6.8199e-07,0.84,0.17,0
0.0415,0.0078449,0.030982,-0.00028992,0.0092077,-0.00040915,0,0,0.056614,-0.024694,0,-0.0021276,0,0,0,0.030988,-0.00029527,0.0092077,-0.74946,0.0133,0.027779,6.8232e-07,0.85,0.17,0
0.042066,0.0078592,0.030987,-0.00029135,0.0092088,-0.00038261,0,0,0.056624,-0.0247,0,-0.0019896,0,0,0,0.030992,-0.00029603,0.0092088,-0.70071,0.013302,0.027783,6.8263e-07,0.86,0.17,0
0.042632,0.0078724,0.030992,-0.00029258,0.0092099,-0.0003559,0,0,0.056634,-0.024706,0,-0.0018507,0,0,0,0.030996,-0.00029663,0.0092099,-0.65169,0.013303,0.027787,6.8292e-07,0.87,0.17,0
0.043199,0.0078844,0.030997,-0.00029363,0.0092109,-0.00032905,0,0,0.056643,-0.024712,0,-0.0017111,0,0,0,0.031,-0.00029709,0.0092109,-0.60244,0.013305,0.027791,6.8319e-07,0.88,0.17,0
0.043765,0.0078953,0.031001,-0.00029452,0.0092119,-0.00030207,0,0,0.056651,-0.024717,0,-0.0015708,0,0,0,0.031004,-0.00029743,0.0092119,-0.55297,0.013306,0.027795,6.8344e-07,0.89,0.17,0
0.044332,0.0079052,0.031005,-0.00029527,0.0092129,-0.00027498,0,0,0.056659,-0.024721,0,-0.0014299,0,0,0,0.031007,-0.00029768,0.0092129,-0.5033,0.013307,0.027798,6.8366e-07,0.9,0.17,0
0.044898,0.007914,0.031008,-0.0002959,0.0092137,-0.00024777,0,0,0.056666,-0.024725,0,-0.0012884,0,0,0,0.03101,-0.00029786,0.0092137,-0.45346,0.013309,0.027801,6.8387e-07,0.91,0.17,0
0.045465,0.0079218,0.031012,-0.00029642,0.0092145,-0.00022048,0,0,0.056672,-0.024729,0,-0.0011465,0,0,0,0.031013,-0.00029798,0.0092145,-0.40347,0.01331,0.027803,6.8406e-07,0.92,0.17,0
0.046032,0.0079287,0.031014,-0.00029686,0.0092153,-0.0001931,0,0,0.056678,-0.024732,0,-0.0010041,0,0,0,0.031016,-0.00029805,0.0092153,-0.35333,0.013311,0.027806,6.8422e-07,0.93,0.17,0
0.046599,0.0079346,0.031017,-0.00029721,0.0092159,-0.00016565,0,0,0.056683,-0.024734,0,-0.00086138,0,0,0,0.031018,-0.00029809,0.0092159,-0.30308,0.013312,0.027808,6.8437e-07,0.94,0.17,0
0.047165,0.0079396,0.031019,-0.0002975,0.0092164,-0.00013814,0,0,0.056687,-0.024736,0,-0.00071831,0,0,0,0.03102,-0.00029811,0.0092164,-0.25272,0.013313,0.027809,6.8449e-07,0.95,0.17,0
0.047732,0.0079436,0.031021,-0.00029773,0.0092169,-0.00011057,0,0,0.05669,-0.024738,0,-0.00057497,0,0,0,0.031021,-0.00029812,0.0092169,-0.20228,0.013313,0.027811,6.8459e-07,0.96,0.17,0
0.048299,0.0079467,0.031022,-0.0002979,0.0092173,-8.2964e-05,0,0,0.056693,-0.024739,0,-0.00043141,0,0,0,0.031022,-0.00029812,0.0092173,-0.15177,0.013314,0.027812,6.8467e-07,0.97,0.17,0
0.048866,0.0079489,0.031023,-0.00029801,0.0092175,-5.5327e-05,0,0,0.056695,-0.02474,0,-0.0002877,0,0,0,0.031023,-0.00029811,0.0092175,-0.10121,0.013314,0.027812,6.8473e-07,0.98,0.17,0
0.049433,0.0079503,0.031024,-0.00029808,0.0092177,-2.7669e-05,0,0,0.056696,-0.024741,0,-0.00014388,0,0,0,0.031024,-0.00029811,0.0092177,-0.050613,0.013314,0.027813,6.8476e-07,0.99,0.17,0
0.05,0.0079507,0.031024,-0.00029811,0.0092177,8.5391e-06,0,0,0.056696,-0.024741,0,4.4403e-05,0,0,0,0.031024,-0.00029811,0.0092177,0.01562,0.013314,0.027813,6.8477e-07,1,0.17,0
0,0,0.029763,0.012755,0.012755,0.0061666,0,0,0.044219,1.03e-18,0,0.032066,0,0,0,0.031764,0.010755,0.012755,17.974,0.018425,0.020083,4.0213e-07,0,0.18,0
0.00044219,0.00032066,0.029741,0.012411,0.012645,0.0061354,0,0,0.044448,-0.00061051,0,0.031904,0,0,0,0.031693,0.010458,0.012645,17.65,0.018266,0.02023,4.0851e-07,0.01,0.18,0
0.00088896,0.00061798,0.029855,0.012053,0.012572,0.0058946,0,0,0.044935,-0.0013512,0,0.030652,0,0,0,0.03163,0.010278,0.012572,16.757,0.01816,0.020302,4.1134e-07,0.02,0.18,0
0.0013409,0.00089257,0.029972,0.011639,0.012483,0.0056671,0,0,0.045471,-0.0021959,0,0.029469,0,0,0,0.031583,0.010028,0.012483,15.863,0.018031,0.020438,4.1719e-07,0.03,0.18,0
0.0017984,0.0011445,0.030088,0.011175,0.012379,0.0054435,0,0,0.046044,-0.0031309,0,0.028306,0,0,0,0.031543,0.0097198,0.012379,14.963,0.017881,0.020622,4.2531e-07,0.04,0.18,0
0.0022618,0.0013736,0.030199,0.010661,0.012258,0.0052203,0,0,0.046646,-0.004152,0,0.027146,0,0,0,0.031506,0.0093536,0.012258,14.06,0.017706,0.020852,4.3539e-07,0.05,0.18,0
0.0027313,0.0015793,0.030296,0.010094,0.012117,0.0050003,0,0,0.047265,-0.0052594,0,0.026002,0,0,0,0.031466,0.0089241,0.012117,13.169,0.017502,0.021127,4.4725e-07,0.06,0.18,0
0.0032071,0.0017613,0.030369,0.0094786,0.011954,0.0047868,0,0,0.047879,-0.006437,0,0.024891,0,0,0,0.031414,0.0084341,0.011954,12.31,0.017268,0.021438,4.6034e-07,0.07,0.18,0
0.0036889,0.0019186,0.030446,0.0088364,0.011785,0.0045833,0,0,0.048519,-0.0076656,0,0.023833,0,0,0,0.031378,0.0079045,0.011785,11.493,0.017022,0.021794,4.7535e-07,0.08,0.18,0
0.0041775,0.002051,0.030454,0.0080519,0.011552,0.0043767,0,0,0.049147,-0.0091001,0,0.022759,0,0,0,0.031279,0.0072272,0.011552,10.671,0.016686,0.022208,4.9138e-07,0.09,0.18,0
0.0046718,0.0021567,0.030605,0.0072767,0.011365,0.0042898,0,0,0.050026,-0.010629,0,0.022307,0,0,0,0.031369,0.0065129,0.011365,10.096,0.016416,0.022821,5.186e-07,0.1,0.18,0
0.005178,0.0022432,0.030284,0.0059579,0.010873,0.0041643,0,0,0.050469,-0.012778,0,0.021654,0,0,0,0.030977,0.0052648,0.010873,9.45,0.015705,0.023417,5.342e-07,0.11,0.18,0
0.0056812,0.0023007,0.031353,0.0056539,0.011102,0.004666,0,0,0.052653,-0.014165,0,0.024263,0,0,0,0.032174,0.004833,0.011102,9.9784,0.016036,0.024808,6.1856e-07,0.12,0.18,0
0.006231,0.0023589,0.036076,0.0057333,0.012543,0.0043352,0,0,0.042818,-0.012103,0,0.017043,0,0,0,0.036716,0.0050933,0.012543,8.3439,0.018117,0.028635,1.037e-06,0.13,0.18,0
0.0065984,0.0024255,0.032912,0.0052847,0.011459,0.0027774,0,0,0.037185,-0.011237,0,0.011916,0,0,0,0.033292,0.0049048,0.011459,6.6837,0.016552,0.025758,8.8447e-07,0.14,0.18,0
0.0069747,0.0025254,0.029489,0.0041223,0.010083,0.0010336,0,0,0.034636,-0.010483,0,0.0045192,0,0,0,0.029548,0.0040627,0.010083,2.7327,0.014565,0.023073,5.818e-07,0.15,0.18,0
0.0072611,0.0026242,0.034185,0.0038864,0.011421,0.00021135,0,0,0.029593,-0.0097957,0,0.00054951,0,0,0,0.034187,0.0038849,0.011421,0.39964,0.016498,0.027325,7.8527e-07,0.16,0.18,0
0.0075666,0.0027091,0.035315,0.0046144,0.011979,0.00018676,0,0,0.030337,-0.0095736,0,0.00048558,0,0,0,0.035316,0.0046133,0.011979,0.34853,0.017303,0.027762,8.4376e-07,0.17,0.18,0
0.0078679,0.0027811,0.03537,0.0047037,0.012022,9.3913e-05,0,0,0.030353,-0.0095141,0,0.00024417,0,0,0,0.035371,0.0047034,0.012022,0.17546,0.017365,0.027742,8.4462e-07,0.18,0.18,0
0.0081736,0.0028556,0.035509,0.0038723,0.011815,9.6585e-05,0,0,0.030804,-0.010325,0,0.00025112,0,0,0,0.03551,0.003872,0.011815,0.17491,0.017065,0.028509,8.8597e-07,0.19,0.18,0
0.0084839,0.0029266,0.035628,0.00317,0.01164,-0.00028399,0,0,0.031185,-0.01101,0,-0.00073837,0,0,0,0.035631,0.0031675,0.01164,-0.50125,0.016813,0.029165,9.2101e-07,0.2,0.18,0
0.0087974,0.0029885,0.03577,0.0031949,0.01169,-0.00056481,0,0,0.031305,-0.011043,0,-0.0014685,0,0,0,0.03578,0.0031851,0.01169,-0.99304,0.016885,0.029284,9.3249e-07,0.21,0.18,0
0.00911,0.0030431,0.035686,0.0030485,0.01162,-0.00072984,0,0,0.031286,-0.011143,0,-0.0018976,0,0,0,0.035702,0.0030322,0.01162,-1.2804,0.016785,0.029335,9.3165e-07,0.22,0.18,0
0.0094231,0.0030943,0.035667,0.0028435,0.011553,-0.00083824,0,0,0.031348,-0.011322,0,-0.0021794,0,0,0,0.035688,0.0028221,0.011553,-1.462,0.016688,0.029487,9.3795e-07,0.23,0.18,0
0.009737,0.0031435,0.035657,0.0026057,0.011479,-0.00093813,0,0,0.031432,-0.011535,0,-0.0024391,0,0,0,0.035684,0.002579,0.011479,-1.6245,0.016581,0.029673,9.4613e-07,0.24,0.18,0
0.010052,0.0031915,0.035616,0.0023363,0.011386,-0.0010239,0,0,0.0315,-0.011764,0,-0.0026621,0,0,0,0.035648,0.0023048,0.011386,-1.7605,0.016446,0.029857,9.5271e-07,0.25,0.18,0
0.010367,0.0032389,0.035545,0.0020295,0.011272,-0.0010822,0,0,0.031555,-0.012016,0,-0.0028138,0,0,0,0.03558,0.0019946,0.011272,-1.8475,0.016282,0.030041,9.5778e-07,0.26,0.18,0
0.010683,0.003286,0.035492,0.001673,0.01115,-0.0011071,0,0,0.031646,-0.01232,0,-0.0028785,0,0,0,0.035529,0.0016368,0.01115,-1.873,0.016105,0.030278,9.6557e-07,0.27,0.18,0
0.011,0.0033324,0.035524,0.0012174,0.011022,-0.0011536,0,0,0.031852,-0.012746,0,-0.0029994,0,0,0,0.035562,0.0011787,0.011022,-1.9238,0.015921,0.030671,9.8355e-07,0.28,0.18,0
0.01132,0.0033748,0.035318,0.00051231,0.010749,-0.0013049,0,0,0.03194,-0.013308,0,-0.0033929,0,0,0,0.035367,0.00046346,0.010749,-2.1441,0.015527,0.031065,9.8996e-07,0.29,0.18,0
0.011639,0.0034115,0.035116,0.00055836,0.010702,-0.0015526,0,0,0.031738,-0.013187,0,-0.0040367,0,0,0,0.035185,0.00048875,0.010702,-2.5672,0.015459,0.030884,9.7392e-07,0.3,0.18,0
0.011955,0.0034491,0.034969,0.00088652,0.010757,-0.0013429,0,0,0.031476,-0.012831,0,-0.0034915,0,0,0,0.035022,0.00083369,0.010757,-2.2529,0.015537,0.030464,9.4965e-07,0.31,0.18,0
0.012268,0.0034958,0.034841,-1.966e-05,0.010446,-0.0011499,0,0,0.031713,-0.013606,0,-0.0029897,0,0,0,0.034879,-5.7547e-05,0.010446,-1.8872,0.015089,0.031047,9.6495e-07,0.32,0.18,0
0.012589,0.0035361,0.033717,-0.0015884,0.0096385,-0.0010054,0,0,0.031302,-0.014595,0,-0.0026141,0,0,0,0.033745,-0.001617,0.0096385,-1.6299,0.013922,0.031291,9.1493e-07,0.33,0.18,0
0.012894,0.0035637,0.029132,-0.0010725,0.0084177,-0.0015797,0,0,0.036977,-0.01673,0,-0.0064814,0,0,0,0.029229,-0.0011703,0.0084177,-3.3324,0.012159,0.026919,6.99e-07,0.34,0.18,0
0.013296,0.0035981,0.032908,-0.0009848,0.0095769,-0.0027403,0,0,0.04044,-0.019808,0,-0.012201,0,0,0,0.033236,-0.0013127,0.0095769,-5.4035,0.013833,0.030643,1.1308e-06,0.35,0.18,0
0.013703,0.0037108,0.035962,-0.0029166,0.0099136,-0.0036513,0,0,0.047383,-0.022949,0,-0.014417,0,0,0,0.036324,-0.0032785,0.0099136,-5.6059,0.01432,0.034929,1.3113e-06,0.36,0.18,0
0.014311,0.0038801,0.031334,-0.0023133,0.0087063,-0.0036247,0,0,0.058833,-0.028651,0,-0.018848,0,0,0,0.03172,-0.0026994,0.0087063,-6.0792,0.012576,0.030368,7.8458e-07,0.37,0.18,0
0.01488,0.0040654,0.030453,-0.0021999,0.008476,-0.0026977,0,0,0.057141,-0.027757,0,-0.014028,0,0,0,0.030675,-0.0024213,0.008476,-4.6912,0.012243,0.029214,7.0598e-07,0.38,0.18,0
0.015454,0.0042452,0.030773,-0.0013192,0.0088362,-0.0023431,0,0,0.057036,-0.026404,0,-0.012184,0,0,0,0.030943,-0.0014894,0.0088362,-4.1539,0.012763,0.028698,7.0555e-07,0.39,0.18,0
0.01602,0.0044251,0.03071,-0.00087004,0.008952,-0.0020344,0,0,0.056571,-0.025537,0,-0.010579,0,0,0,0.030841,-0.0010006,0.008952,-3.6708,0.012931,0.028214,6.8831e-07,0.4,0.18,0
0.016585,0.0045968,0.03076,-0.00048923,0.0090814,-0.0018764,0,0,0.056366,-0.024884,0,-0.0097572,0,0,0,0.030873,-0.00060149,0.0090814,-3.4239,0.013118,0.027922,6.8168e-07,0.41,0.18,0
0.017148,0.0047606,0.030776,-0.00027187,0.0091513,-0.0017486,0,0,0.056225,-0.0245,0,-0.0090928,0,0,0,0.030874,-0.00037004,0.0091513,-3.2133,0.013219,0.027738,6.7659e-07,0.42,0.18,0
0.017709,0.0049162,0.030809,-0.00010331,0.0092117,-0.0016473,0,0,0.056153,-0.024219,0,-0.0085658,0,0,0,0.030897,-0.00019084,0.0092117,-3.0417,0.013306,0.027614,6.7395e-07,0.43,0.18,0
0.018271,0.0050639,0.030836,1.4786e-05,0.0092553,-0.0015696,0,0,0.056111,-0.024025,0,-0.0081618,0,0,0,0.030916,-6.4939e-05,0.0092553,-2.9078,0.013369,0.027531,6.7232e-07,0.44,0.18,0
0.018832,0.0052042,0.03086,8.1271e-05,0.0092824,-0.0015082,0,0,0.056102,-0.023923,0,-0.0078426,0,0,0,0.030934,7.5449e-06,0.0092824,-2.7986,0.013408,0.027489,6.718e-07,0.45,0.18,0
0.019393,0.0053374,0.030886,0.0001105,0.009299,-0.001454,0,0,0.056127,-0.02389,0,-0.0075606,0,0,0,0.030955,4.1959e-05,0.009299,-2.6989,0.013432,0.02748,6.7235e-07,0.46,0.18,0
0.019954,0.005464,0.030912,0.00011544,0.0093083,-0.0014015,0,0,0.05617,-0.023902,0,-0.007288,0,0,0,0.030976,5.1784e-05,0.0093083,-2.6003,0.013445,0.027491,6.7351e-07,0.47,0.18,0
0.020516,0.0055845,0.030936,0.00010645,0.0093128,-0.0013495,0,0,0.056221,-0.023937,0,-0.0070177,0,0,0,0.030995,4.7492e-05,0.0093128,-2.5017,0.013452,0.027511,6.7487e-07,0.48,0.18,0
0.021079,0.0056996,0.030956,9.0337e-05,0.0093139,-0.0012986,0,0,0.05627,-0.023981,0,-0.0067525,0,0,0,0.031011,3.5802e-05,0.0093139,-2.4048,0.013454,0.027534,6.7615e-07,0.49,0.18,0
0.021642,0.0058097,0.030971,7.1252e-05,0.0093128,-0.0012497,0,0,0.056312,-0.024028,0,-0.0064985,0,0,0,0.031022,2.0791e-05,0.0093128,-2.3122,0.013452,0.027556,6.7723e-07,0.5,0.18,0
0.022205,0.0059149,0.030982,5.1542e-05,0.0093101,-0.0012041,0,0,0.056347,-0.024072,0,-0.0062613,0,0,0,0.031029,4.7377e-06,0.0093101,-2.226,0.013448,0.027575,6.7807e-07,0.51,0.18,0
0.022769,0.0060158,0.030989,3.2339e-05,0.0093065,-0.0011625,0,0,0.056375,-0.024113,0,-0.0060448,0,0,0,0.031033,-1.1251e-05,0.0093065,-2.1475,0.013443,0.027592,6.787e-07,0.52,0.18,0
0.023332,0.0061123,0.030994,1.4035e-05,0.0093022,-0.0011251,0,0,0.056397,-0.024149,0,-0.0058506,0,0,0,0.031034,-2.6773e-05,0.0093022,-2.0772,0.013437,0.027605,6.7916e-07,0.53,0.18,0
0.023897,0.0062047,0.030996,-3.3852e-06,0.0092977,-0.0010921,0,0,0.056415,-0.024183,0,-0.0056786,0,0,0,0.031034,-4.1808e-05,0.0092977,-2.0151,0.01343,0.027617,6.7951e-07,0.54,0.18,0
0.024461,0.006293,0.030997,-2.0117e-05,0.0092931,-0.001063,0,0,0.05643,-0.024214,0,-0.0055274,0,0,0,0.031033,-5.6501e-05,0.0092931,-1.9605,0.013423,0.027628,6.798e-07,0.55,0.18,0
0.025025,0.0063775,0.030998,-3.6397e-05,0.0092884,-0.0010374,0,0,0.056444,-0.024244,0,-0.0053942,0,0,0,0.031032,-7.1033e-05,0.0092884,-1.9123,0.013417,0.027639,6.8008e-07,0.56,0.18,0
0.02559,0.0064581,0.030999,-5.2431e-05,0.0092838,-0.0010147,0,0,0.056458,-0.024274,0,-0.0052763,0,0,0,0.031032,-8.5552e-05,0.0092838,-1.8696,0.01341,0.02765,6.8037e-07,0.57,0.18,0
0.026154,0.006535,0.031,-6.8357e-05,0.0092794,-0.0009943,0,0,0.056473,-0.024304,0,-0.0051704,0,0,0,0.031032,-0.00010015,0.0092794,-1.8312,0.013404,0.027661,6.8069e-07,0.58,0.18,0
0.026719,0.0066084,0.031001,-8.4243e-05,0.0092751,-0.00097565,0,0,0.056488,-0.024334,0,-0.0050734,0,0,0,0.031032,-0.00011483,0.0092751,-1.7959,0.013397,0.027674,6.8106e-07,0.59,0.18,0
0.027284,0.0066782,0.031003,-0.00010009,0.009271,-0.00095818,0,0,0.056504,-0.024365,0,-0.0049825,0,0,0,0.031033,-0.00012958,0.009271,-1.7628,0.013392,0.027686,6.8148e-07,0.6,0.18,0
0.027849,0.0067446,0.031006,-0.00011585,0.0092672,-0.00094142,0,0,0.056522,-0.024396,0,-0.0048954,0,0,0,0.031035,-0.0001443,0.0092672,-1.731,0.013386,0.0277,6.8194e-07,0.61,0.18,0
0.028414,0.0068076,0.03101,-0.00013144,0.0092635,-0.00092497,0,0,0.05654,-0.024427,0,-0.0048098,0,0,0,0.031037,-0.00015888,0.0092635,-1.6998,0.013381,0.027713,6.8244e-07,0.62,0.18,0
0.02898,0.0068675,0.031014,-0.00014674,0.0092601,-0.00090851,0,0,0.056559,-0.024458,0,-0.0047243,0,0,0,0.03104,-0.00017321,0.0092601,-1.6686,0.013376,0.027728,6.8297e-07,0.63,0.18,0
0.029546,0.0069244,0.031018,-0.00016166,0.0092569,-0.0008918,0,0,0.056579,-0.024488,0,-0.0046374,0,0,0,0.031044,-0.00018715,0.0092569,-1.637,0.013371,0.027742,6.8351e-07,0.64,0.18,0
0.030112,0.0069783,0.031023,-0.00017609,0.009254,-0.00087466,0,0,0.056599,-0.024518,0,-0.0045482,0,0,0,0.031047,-0.00020059,0.009254,-1.6046,0.013367,0.027756,6.8407e-07,0.65,0.18,0
0.030678,0.0070294,0.031028,-0.00018991,0.0092514,-0.00085694,0,0,0.056619,-0.024547,0,-0.0044561,0,0,0,0.031051,-0.00021342,0.0092514,-1.5712,0.013363,0.02777,6.8463e-07,0.66,0.18,0
0.031244,0.0070777,0.031033,-0.00020305,0.009249,-0.00083858,0,0,0.056638,-0.024575,0,-0.0043606,0,0,0,0.031055,-0.00022555,0.009249,-1.5367,0.01336,0.027783,6.8518e-07,0.67,0.18,0
0.03181,0.0071235,0.031038,-0.00021546,0.0092468,-0.00081953,0,0,0.056657,-0.024602,0,-0.0042616,0,0,0,0.03106,-0.00023693,0.0092468,-1.501,0.013357,0.027796,6.8572e-07,0.68,0.18,0
0.032377,0.0071668,0.031043,-0.00022707,0.0092449,-0.00079977,0,0,0.056676,-0.024627,0,-0.0041588,0,0,0,0.031064,-0.00024751,0.0092449,-1.4641,0.013354,0.027808,6.8625e-07,0.69,0.18,0
0.032944,0.0072077,0.031049,-0.00023785,0.0092432,-0.00077932,0,0,0.056694,-0.024651,0,-0.0040524,0,0,0,0.031068,-0.00025725,0.0092432,-1.426,0.013351,0.02782,6.8675e-07,0.7,0.18,0
0.033511,0.0072463,0.031054,-0.00024781,0.0092418,-0.00075818,0,0,0.056711,-0.024673,0,-0.0039426,0,0,0,0.031072,-0.00026616,0.0092418,-1.3867,0.013349,0.02783,6.8723e-07,0.71,0.18,0
0.034078,0.0072828,0.031059,-0.00025694,0.0092406,-0.00073641,0,0,0.056728,-0.024694,0,-0.0038293,0,0,0,0.031076,-0.00027424,0.0092406,-1.3463,0.013347,0.02784,6.8768e-07,0.72,0.18,0
0.034646,0.0073172,0.031064,-0.00026525,0.0092396,-0.00071403,0,0,0.056743,-0.024712,0,-0.003713,0,0,0,0.03108,-0.00028151,0.0092396,-1.3049,0.013346,0.02785,6.881e-07,0.73,0.18,0
0.035213,0.0073496,0.031069,-0.00027278,0.0092388,-0.0006911,0,0,0.056758,-0.02473,0,-0.0035937,0,0,0,0.031084,-0.00028801,0.0092388,-1.2626,0.013345,0.027858,6.8851e-07,0.74,0.18,0
0.035781,0.0073801,0.031073,-0.00027956,0.0092381,-0.00066765,0,0,0.056772,-0.024746,0,-0.0034718,0,0,0,0.031088,-0.00029377,0.0092381,-1.2194,0.013344,0.027866,6.8888e-07,0.75,0.18,0
0.036348,0.0074088,0.031078,-0.00028563,0.0092377,-0.00064374,0,0,0.056785,-0.024761,0,-0.0033475,0,0,0,0.031091,-0.00029884,0.0092377,-1.1753,0.013343,0.027873,6.8924e-07,0.76,0.18,0
0.036916,0.0074358,0.031082,-0.00029105,0.0092374,-0.0006194,0,0,0.056797,-0.024774,0,-0.0032209,0,0,0,0.031095,-0.00030327,0.0092374,-1.1306,0.013343,0.02788,6.8957e-07,0.77,0.18,0
0.037484,0.0074611,0.031087,-0.00029585,0.0092373,-0.00059468,0,0,0.056809,-0.024786,0,-0.0030923,0,0,0,0.031098,-0.00030711,0.0092373,-1.0852,0.013343,0.027886,6.8988e-07,0.78,0.18,0
0.038053,0.0074848,0.031091,-0.00030009,0.0092372,-0.0005696,0,0,0.05682,-0.024797,0,-0.0029619,0,0,0,0.031101,-0.00031042,0.0092372,-1.0392,0.013343,0.027892,6.9017e-07,0.79,0.18,0
0.038621,0.007507,0.031095,-0.00030382,0.0092373,-0.00054421,0,0,0.05683,-0.024807,0,-0.0028299,0,0,0,0.031104,-0.00031325,0.0092373,-0.99267,0.013343,0.027897,6.9045e-07,0.8,0.18,0
0.039189,0.0075277,0.031099,-0.00030709,0.0092375,-0.00051853,0,0,0.05684,-0.024816,0,-0.0026964,0,0,0,0.031107,-0.00031565,0.0092375,-0.94565,0.013343,0.027901,6.9071e-07,0.81,0.18,0
0.039758,0.0075471,0.031103,-0.00030994,0.0092378,-0.0004926,0,0,0.056849,-0.024824,0,-0.0025615,0,0,0,0.03111,-0.00031767,0.0092378,-0.89819,0.013343,0.027905,6.9095e-07,0.82,0.18,0
0.040326,0.0075651,0.031106,-0.00031243,0.0092382,-0.00046642,0,0,0.056857,-0.024831,0,-0.0024254,0,0,0,0.031113,-0.00031935,0.0092382,-0.85032,0.013344,0.027909,6.9118e-07,0.83,0.18,0
0.040895,0.0075818,0.03111,-0.00031458,0.0092386,-0.00044003,0,0,0.056865,-0.024838,0,-0.0022882,0,0,0,0.031116,-0.00032074,0.0092386,-0.80209,0.013345,0.027913,6.9139e-07,0.84,0.18,0
0.041463,0.0075972,0.031113,-0.00031644,0.009239,-0.00041344,0,0,0.056873,-0.024844,0,-0.0021499,0,0,0,0.031119,-0.00032188,0.009239,-0.75352,0.013345,0.027916,6.9159e-07,0.85,0.18,0
0.042032,0.0076115,0.031116,-0.00031805,0.0092395,-0.00038667,0,0,0.05688,-0.02485,0,-0.0020107,0,0,0,0.031121,-0.00032281,0.0092395,-0.70464,0.013346,0.027919,6.9178e-07,0.86,0.18,0
0.042601,0.0076246,0.03112,-0.00031944,0.00924,-0.00035973,0,0,0.056887,-0.024855,0,-0.0018706,0,0,0,0.031124,-0.00032355,0.00924,-0.65547,0.013347,0.027922,6.9196e-07,0.87,0.18,0
0.04317,0.0076365,0.031122,-0.00032062,0.0092405,-0.00033264,0,0,0.056893,-0.024859,0,-0.0017297,0,0,0,0.031126,-0.00032414,0.0092405,-0.60605,0.013347,0.027925,6.9213e-07,0.88,0.18,0
0.043739,0.0076474,0.031125,-0.00032164,0.009241,-0.00030541,0,0,0.056898,-0.024863,0,-0.0015881,0,0,0,0.031128,-0.00032461,0.009241,-0.55638,0.013348,0.027927,6.9228e-07,0.89,0.18,0
0.044308,0.0076572,0.031128,-0.00032251,0.0092415,-0.00027805,0,0,0.056904,-0.024866,0,-0.0014459,0,0,0,0.03113,-0.00032496,0.0092415,-0.5065,0.013349,0.027929,6.9242e-07,0.9,0.18,0
0.044877,0.007666,0.03113,-0.00032324,0.009242,-0.00025058,0,0,0.056909,-0.02487,0,-0.001303,0,0,0,0.031132,-0.00032524,0.009242,-0.45642,0.01335,0.027931,6.9255e-07,0.91,0.18,0
0.045446,0.0076738,0.031132,-0.00032386,0.0092424,-0.000223,0,0,0.056913,-0.024872,0,-0.0011596,0,0,0,0.031134,-0.00032544,0.0092424,-0.40616,0.01335,0.027932,6.9267e-07,0.92,0.18,0
0.046015,0.0076807,0.031134,-0.00032438,0.0092429,-0.00019533,0,0,0.056917,-0.024875,0,-0.0010157,0,0,0,0.031135,-0.00032559,0.0092429,-0.35574,0.013351,0.027934,6.9278e-07,0.93,0.18,0
0.046584,0.0076865,0.031136,-0.00032481,0.0092432,-0.00016758,0,0,0.05692,-0.024877,0,-0.00087141,0,0,0,0.031137,-0.0003257,0.0092432,-0.30518,0.013351,0.027935,6.9287e-07,0.94,0.18,0
0.047154,0.0076915,0.031137,-0.00032516,0.0092436,-0.00013976,0,0,0.056923,-0.024879,0,-0.00072673,0,0,0,0.031138,-0.00032578,0.0092436,-0.2545,0.013352,0.027936,6.9295e-07,0.95,0.18,0
0.047723,0.0076955,0.031138,-0.00032543,0.0092438,-0.00011188,0,0,0.056925,-0.02488,0,-0.00058176,0,0,0,0.031139,-0.00032583,0.0092438,-0.20372,0.013352,0.027937,6.9301e-07,0.96,0.18,0
0.048292,0.0076986,0.031139,-0.00032564,0.009244,-8.3949e-05,0,0,0.056927,-0.024881,0,-0.00043653,0,0,0,0.031139,-0.00032586,0.009244,-0.15287,0.013352,0.027938,6.9306e-07,0.97,0.18,0
0.048861,0.0077008,0.03114,-0.00032579,0.0092442,-5.5986e-05,0,0,0.056928,-0.024882,0,-0.00029112,0,0,0,0.03114,-0.00032589,0.0092442,-0.10194,0.013353,0.027938,6.931e-07,0.98,0.18,0
0.049431,0.0077022,0.03114,-0.00032587,0.0092443,-2.7999e-05,0,0,0.056929,-0.024882,0,-0.00014559,0,0,0,0.03114,-0.0003259,0.0092443,-0.050982,0.013353,0.027939,6.9312e-07,0.99,0.18,0
0.05,0.0077026,0.03114,-0.0003259,0.0092443,8.5056e-06,0,0,0.05693,-0.024883,0,4.4229e-05,0,0,0,0.03114,-0.0003259,0.0092443,0.015487,0.013353,0.027939,6.9313e-07,1,0.18,0
0,0,0.030465,0.013056,0.013056,0.0060421,0,0,0.045262,-1.0842e-19,0,0.031419,0,0,0,0.032356,0.011165,0.013056,17.383,0.018859,0.020312,4.1785e-07,0,0.19,0
0.00045262,0.00031419,0.030437,0.012662,0.01293,0.0060127,0,0,0.045518,-0.00069526,0,0.031266,0,0,0,0.03228,0.010819,0.01293,17.04,0.018676,0.020487,4.2585e-07,0.01,0.19,0
0.00091036,0.00060388,0.030567,0.012283,0.012855,0.0057675,0,0,0.046052,-0.0014876,0,0.029991,0,0,0,0.032234,0.010616,0.012855,16.123,0.018568,0.020591,4.3054e-07,0.02,0.19,0
0.0013736,0.00086991,0.030701,0.011862,0.012769,0.0055403,0,0,0.046624,-0.0023587,0,0.028809,0,0,0,0.03221,0.010353,0.012769,15.231,0.018444,0.020754,4.3824e-07,0.03,0.19,0
0.0018428,0.0011125,0.030838,0.0114,0.012672,0.0053182,0,0,0.047233,-0.0033049,0,0.027655,0,0,0,0.032198,0.01004,0.012672,14.344,0.018303,0.020966,4.4831e-07,0.04,0.19,0
0.0023183,0.0013312,0.03098,0.010892,0.012562,0.0050945,0,0,0.047888,-0.0043415,0,0.026492,0,0,0,0.032198,0.0096736,0.012562,13.447,0.018145,0.021229,4.6083e-07,0.05,0.19,0
0.0028006,0.0015257,0.031134,0.010325,0.012438,0.0048745,0,0,0.048609,-0.0054918,0,0.025347,0,0,0,0.032219,0.0092401,0.012438,12.552,0.017965,0.021559,4.7667e-07,0.06,0.19,0
0.0032905,0.0016955,0.031271,0.0096761,0.012284,0.0046744,0,0,0.049365,-0.0067808,0,0.024307,0,0,0,0.032239,0.0087077,0.012284,11.704,0.017744,0.021963,4.9582e-07,0.07,0.19,0
0.0037879,0.0018406,0.031364,0.008983,0.012104,0.0044923,0,0,0.050075,-0.0081145,0,0.02336,0,0,0,0.032232,0.008115,0.012104,10.936,0.017483,0.02239,5.1536e-07,0.08,0.19,0
0.004292,0.0019572,0.031632,0.0083895,0.012006,0.0043329,0,0,0.051026,-0.0094038,0,0.022531,0,0,0,0.032413,0.007608,0.012006,10.224,0.017343,0.022925,5.4279e-07,0.09,0.19,0
0.0048084,0.0020489,0.031443,0.0070806,0.011557,0.0040701,0,0,0.051703,-0.011639,0,0.021164,0,0,0,0.032105,0.0064186,0.011557,9.2379,0.016694,0.023541,5.6396e-07,0.1,0.19,0
0.0053261,0.0021049,0.032682,0.0066063,0.011787,0.0044008,0,0,0.054328,-0.013468,0,0.022884,0,0,0,0.033405,0.0058836,0.011787,9.3258,0.017025,0.025096,6.6283e-07,0.11,0.19,0
0.005895,0.0021598,0.037775,0.007069,0.013453,0.0039936,0,0,0.044262,-0.011499,0,0.015706,0,0,0,0.038312,0.006532,0.013453,7.6104,0.019432,0.028947,1.1197e-06,0.12,0.19,0
0.0062745,0.0022469,0.029931,0.0044087,0.010302,0.002125,0,0,0.035005,-0.010462,0,0.0087875,0,0,0,0.030142,0.004198,0.010302,5.2626,0.014881,0.023494,6.1282e-07,0.13,0.19,0
0.0065657,0.0023291,0.034821,0.0055349,0.012107,0.0016035,0,0,0.029529,-0.0085435,0,0.004169,0,0,0,0.034909,0.0054474,0.012107,3.1246,0.017488,0.02676,7.8256e-07,0.14,0.19,0
0.006865,0.0024296,0.036142,0.0055207,0.012499,0.00051128,0,0,0.030736,-0.0090717,0,0.0013293,0,0,0,0.036151,0.0055122,0.012499,0.95629,0.018054,0.027812,8.7421e-07,0.15,0.19,0
0.0071804,0.0025297,0.036424,0.0051201,0.012463,0.00050127,0,0,0.031149,-0.0095459,0,0.0013033,0,0,0,0.036432,0.0051121,0.012463,0.91718,0.018002,0.028368,9.1237e-07,0.16,0.19,0
0.007488,0.0026109,0.035784,0.004627,0.012123,7.4856e-05,0,0,0.030759,-0.0097452,0,0.00019463,0,0,0,0.035784,0.0046269,0.012123,0.13765,0.017511,0.028168,8.7958e-07,0.17,0.19,0
0.0077956,0.0026846,0.035779,0.004623,0.012121,-5.2497e-06,0,0,0.030756,-0.009747,0,-1.3649e-05,0,0,0,0.035779,0.004623,0.012121,-0.009654,0.017508,0.028166,8.7934e-07,0.18,0.19,0
0.0081031,0.0027538,0.035718,0.004142,0.011958,-9.4942e-05,0,0,0.030888,-0.010161,0,-0.00024685,0,0,0,0.035719,0.0041417,0.011958,-0.17227,0.017273,0.028485,8.9255e-07,0.19,0.19,0
0.0084133,0.002819,0.035748,0.0036238,0.011812,-0.00027515,0,0,0.031117,-0.010644,0,-0.00071538,0,0,0,0.03575,0.0036215,0.011812,-0.49069,0.017061,0.028917,9.1426e-07,0.2,0.19,0
0.0087255,0.0028783,0.035776,0.0033274,0.011731,-0.00052414,0,0,0.031259,-0.010925,0,-0.0013628,0,0,0,0.035785,0.003319,0.011731,-0.92518,0.016945,0.029184,9.2801e-07,0.21,0.19,0
0.0090385,0.002932,0.035762,0.0031608,0.011677,-0.00070692,0,0,0.031311,-0.011071,0,-0.001838,0,0,0,0.035778,0.0031454,0.011677,-1.2416,0.016867,0.029313,9.3371e-07,0.22,0.19,0
0.0093517,0.0029816,0.035702,0.0029513,0.011596,-0.00082637,0,0,0.031338,-0.011238,0,-0.0021486,0,0,0,0.035723,0.0029305,0.011596,-1.4445,0.01675,0.029433,9.3697e-07,0.23,0.19,0
0.0096653,0.0030288,0.035649,0.0027024,0.011506,-0.00090719,0,0,0.031387,-0.011444,0,-0.0023587,0,0,0,0.035674,0.0026775,0.011506,-1.576,0.016619,0.029588,9.4191e-07,0.24,0.19,0
0.0099794,0.0030744,0.0356,0.0024138,0.011404,-0.00096524,0,0,0.031455,-0.011688,0,-0.0025096,0,0,0,0.035628,0.0023857,0.011404,-1.6646,0.016473,0.029776,9.4833e-07,0.25,0.19,0
0.010294,0.003119,0.035559,0.0020795,0.011291,-0.0010072,0,0,0.031547,-0.011976,0,-0.0026188,0,0,0,0.035589,0.0020492,0.011291,-1.7217,0.01631,0.030006,9.5665e-07,0.26,0.19,0
0.01061,0.0031627,0.035533,0.0016864,0.011166,-0.001052,0,0,0.031677,-0.012323,0,-0.0027352,0,0,0,0.035566,0.0016537,0.011166,-1.7785,0.016128,0.030297,9.6808e-07,0.27,0.19,0
0.010928,0.0032046,0.035469,0.0012156,0.011005,-0.0011323,0,0,0.031802,-0.012727,0,-0.0029441,0,0,0,0.035506,0.0011783,0.011005,-1.8913,0.015897,0.030621,9.7883e-07,0.28,0.19,0
0.011246,0.0032438,0.035366,0.00084649,0.010864,-0.0012606,0,0,0.031852,-0.013022,0,-0.0032774,0,0,0,0.035411,0.00080052,0.010864,-2.0886,0.015692,0.030836,9.8307e-07,0.29,0.19,0
0.011565,0.0032807,0.035276,0.00070942,0.010796,-0.0012933,0,0,0.031825,-0.013112,0,-0.0033626,0,0,0,0.035324,0.0006611,0.010796,-2.1397,0.015594,0.03087,9.8018e-07,0.3,0.19,0
0.011883,0.0033181,0.035302,0.0005216,0.010747,-0.0011878,0,0,0.031921,-0.013293,0,-0.0030883,0,0,0,0.035342,0.00048108,0.010747,-1.9537,0.015524,0.031029,9.8733e-07,0.31,0.19,0
0.012203,0.0033563,0.035312,-0.00022593,0.010526,-0.001052,0,0,0.032222,-0.013977,0,-0.0027352,0,0,0,0.035343,-0.00025705,0.010526,-1.6941,0.015204,0.031619,1.01e-06,0.32,0.19,0
0.012527,0.0033922,0.035945,-0.00057663,0.010611,-0.0012865,0,0,0.032935,-0.014543,0,-0.003345,0,0,0,0.03599,-0.0006219,0.010611,-2.015,0.015326,0.032487,1.0775e-06,0.33,0.19,0
0.012862,0.0034133,0.035628,-0.00075607,0.010462,-0.001019,0,0,0.032716,-0.014583,0,-0.0026493,0,0,0,0.035656,-0.00078459,0.010462,-1.603,0.015111,0.03232,1.0528e-06,0.34,0.19,0
0.013182,0.003445,0.034453,-0.0012584,0.0099584,-0.0018301,0,0,0.031843,-0.014582,0,-0.0047584,0,0,0,0.034547,-0.001352,0.0099584,-2.9261,0.014384,0.03179,9.7366e-07,0.35,0.19,0
0.013499,0.0035026,0.029754,-0.0026422,0.0081336,-0.0019382,0,0,0.038626,-0.019213,0,-0.0080498,0,0,0,0.029894,-0.002782,0.0081336,-3.8087,0.011749,0.028813,7.8106e-07,0.36,0.19,0
0.01392,0.0035863,0.037495,-0.0025726,0.010477,-0.0030679,0,0,0.04921,-0.023585,0,-0.01202,0,0,0,0.03774,-0.0028174,0.010477,-4.5483,0.015133,0.035811,1.4557e-06,0.37,0.19,0
0.014554,0.0037741,0.032676,-0.0023117,0.0091093,-0.0029138,0,0,0.061274,-0.029695,0,-0.015152,0,0,0,0.032917,-0.0025527,0.0091093,-4.7282,0.013158,0.031312,8.7142e-07,0.38,0.19,0
0.015145,0.0039755,0.031623,-0.0018761,0.0089241,-0.0021839,0,0,0.059017,-0.02808,0,-0.011356,0,0,0,0.031765,-0.0020178,0.0089241,-3.7144,0.01289,0.029855,7.7381e-07,0.39,0.19,0
0.015735,0.004164,0.03178,-0.000913,0.00926,-0.0020218,0,0,0.058551,-0.02645,0,-0.010514,0,0,0,0.031904,-0.0010376,0.00926,-3.5255,0.013376,0.029189,7.6206e-07,0.4,0.19,0
0.016316,0.0043439,0.031583,-0.00065754,0.0092776,-0.0018625,0,0,0.057994,-0.025831,0,-0.0096847,0,0,0,0.03169,-0.00076477,0.0092776,-3.2952,0.013401,0.028779,7.407e-07,0.41,0.19,0
0.016895,0.0045117,0.031542,-0.00040162,0.009342,-0.0017255,0,0,0.057719,-0.025333,0,-0.0089728,0,0,0,0.031635,-0.00049456,0.009342,-3.0831,0.013494,0.028513,7.3054e-07,0.42,0.19,0
0.017471,0.0046706,0.031497,-0.00017067,0.009398,-0.0016245,0,0,0.057459,-0.024879,0,-0.0084473,0,0,0,0.031581,-0.00025378,0.009398,-2.9289,0.013575,0.028272,7.2111e-07,0.43,0.19,0
0.018044,0.0048208,0.031441,-3.4944e-05,0.0094219,-0.0015604,0,0,0.057251,-0.024588,0,-0.0081138,0,0,0,0.031519,-0.0001121,0.0094219,-2.831,0.01361,0.028104,7.135e-07,0.44,0.19,0
0.018616,0.0049624,0.031408,3.49e-05,0.0094328,-0.001512,0,0,0.057135,-0.024435,0,-0.0078622,0,0,0,0.031481,-3.7797e-05,0.0094328,-2.7527,0.013625,0.028011,7.0915e-07,0.45,0.19,0
0.019187,0.0050961,0.03139,6.0805e-05,0.0094354,-0.0014635,0,0,0.057083,-0.024374,0,-0.0076102,0,0,0,0.031459,-7.4102e-06,0.0094354,-2.6687,0.013629,0.027967,7.0693e-07,0.46,0.19,0
0.019757,0.0052227,0.031381,6.3097e-05,0.0094333,-0.0014113,0,0,0.057064,-0.024362,0,-0.0073388,0,0,0,0.031445,-3.7303e-07,0.0094333,-2.575,0.013626,0.027949,7.0581e-07,0.47,0.19,0
0.020328,0.005343,0.031373,5.3467e-05,0.0094281,-0.0013565,0,0,0.057058,-0.024374,0,-0.007054,0,0,0,0.031432,-5.1782e-06,0.0094281,-2.4754,0.013618,0.027942,7.0509e-07,0.48,0.19,0
0.020898,0.0054578,0.031364,3.8767e-05,0.0094209,-0.0013017,0,0,0.057053,-0.024394,0,-0.0067691,0,0,0,0.031418,-1.5234e-05,0.0094209,-2.3755,0.013608,0.027937,7.044e-07,0.49,0.19,0
0.021469,0.0055675,0.031353,2.2775e-05,0.0094126,-0.0012492,0,0,0.057044,-0.024414,0,-0.0064959,0,0,0,0.031402,-2.6956e-05,0.0094126,-2.2797,0.013596,0.027933,7.0362e-07,0.5,0.19,0
0.022039,0.0056724,0.031339,7.2739e-06,0.0094039,-0.0012006,0,0,0.057031,-0.024431,0,-0.0062433,0,0,0,0.031385,-3.8666e-05,0.0094039,-2.1913,0.013583,0.027926,7.0273e-07,0.51,0.19,0
0.02261,0.005773,0.031324,-7.1743e-06,0.0093951,-0.0011569,0,0,0.057015,-0.024446,0,-0.0060161,0,0,0,0.031367,-4.9837e-05,0.0093951,-2.1119,0.013571,0.027919,7.0177e-07,0.52,0.19,0
0.02318,0.0058692,0.031309,-2.0664e-05,0.0093864,-0.0011185,0,0,0.056998,-0.024458,0,-0.0058161,0,0,0,0.031349,-6.0543e-05,0.0093864,-2.042,0.013558,0.027911,7.008e-07,0.53,0.19,0
0.023749,0.0059614,0.031293,-3.357e-05,0.0093779,-0.0010851,0,0,0.05698,-0.02447,0,-0.0056425,0,0,0,0.031331,-7.111e-05,0.0093779,-1.9814,0.013546,0.027904,6.9988e-07,0.54,0.19,0
0.024319,0.0060495,0.031279,-4.632e-05,0.0093698,-0.0010563,0,0,0.056964,-0.024482,0,-0.0054929,0,0,0,0.031315,-8.19e-05,0.0093698,-1.9292,0.013534,0.027899,6.9905e-07,0.55,0.19,0
0.024889,0.0061338,0.031266,-5.9274e-05,0.0093621,-0.0010315,0,0,0.056951,-0.024495,0,-0.0053638,0,0,0,0.0313,-9.3204e-05,0.0093621,-1.884,0.013523,0.027895,6.9834e-07,0.56,0.19,0
0.025458,0.0062142,0.031255,-7.2676e-05,0.0093547,-0.0010099,0,0,0.056941,-0.024511,0,-0.0052513,0,0,0,0.031288,-0.0001052,0.0093547,-1.8444,0.013512,0.027893,6.9778e-07,0.57,0.19,0
0.026028,0.0062909,0.031245,-8.6644e-05,0.0093477,-0.00099068,0,0,0.056934,-0.024529,0,-0.0051515,0,0,0,0.031277,-0.00011794,0.0093477,-1.8092,0.013502,0.027894,6.9737e-07,0.58,0.19,0
0.026597,0.0063639,0.031238,-0.00010119,0.009341,-0.00097322,0,0,0.056932,-0.02455,0,-0.0050607,0,0,0,0.031268,-0.00013138,0.009341,-1.777,0.013493,0.027897,6.971e-07,0.59,0.19,0
0.027166,0.0064335,0.031232,-0.00011622,0.0093347,-0.00095688,0,0,0.056933,-0.024572,0,-0.0049758,0,0,0,0.031261,-0.0001454,0.0093347,-1.7468,0.013483,0.027902,6.9696e-07,0.6,0.19,0
0.027736,0.0064996,0.031227,-0.00013161,0.0093287,-0.00094114,0,0,0.056936,-0.024597,0,-0.0048939,0,0,0,0.031255,-0.00015983,0.0093287,-1.7175,0.013475,0.027908,6.9693e-07,0.61,0.19,0
0.028305,0.0065624,0.031224,-0.00014719,0.009323,-0.00092557,0,0,0.056943,-0.024623,0,-0.004813,0,0,0,0.031251,-0.00017447,0.009323,-1.6885,0.013467,0.027916,6.97e-07,0.62,0.19,0
0.028874,0.006622,0.031222,-0.00016276,0.0093177,-0.00090986,0,0,0.056951,-0.024649,0,-0.0047313,0,0,0,0.031248,-0.00018912,0.0093177,-1.6592,0.013459,0.027925,6.9714e-07,0.63,0.19,0
0.029444,0.0066786,0.031221,-0.00017815,0.0093127,-0.00089374,0,0,0.05696,-0.024676,0,-0.0046475,0,0,0,0.031246,-0.00020357,0.0093127,-1.6291,0.013452,0.027935,6.9733e-07,0.64,0.19,0
0.030014,0.0067322,0.03122,-0.00019318,0.0093081,-0.00087705,0,0,0.056971,-0.024703,0,-0.0045607,0,0,0,0.031245,-0.00021765,0.0093081,-1.598,0.013445,0.027945,6.9756e-07,0.65,0.19,0
0.030583,0.006783,0.03122,-0.0002077,0.0093037,-0.00085967,0,0,0.056983,-0.02473,0,-0.0044703,0,0,0,0.031244,-0.0002312,0.0093037,-1.5657,0.013439,0.027955,6.9782e-07,0.66,0.19,0
0.031153,0.0068311,0.031221,-0.00022158,0.0092997,-0.00084155,0,0,0.056994,-0.024755,0,-0.004376,0,0,0,0.031243,-0.00024409,0.0092997,-1.532,0.013433,0.027965,6.9809e-07,0.67,0.19,0
0.031723,0.0068766,0.031221,-0.00023474,0.009296,-0.00082264,0,0,0.057006,-0.02478,0,-0.0042778,0,0,0,0.031243,-0.00025624,0.009296,-1.497,0.013428,0.027974,6.9836e-07,0.68,0.19,0
0.032293,0.0069196,0.031223,-0.00024709,0.0092926,-0.00080297,0,0,0.057018,-0.024803,0,-0.0041754,0,0,0,0.031243,-0.00026757,0.0092926,-1.4607,0.013423,0.027983,6.9862e-07,0.69,0.19,0
0.032864,0.0069603,0.031224,-0.0002586,0.0092895,-0.00078254,0,0,0.057029,-0.024825,0,-0.0040692,0,0,0,0.031243,-0.00027804,0.0092895,-1.423,0.013418,0.027992,6.9887e-07,0.7,0.19,0
0.033434,0.0069987,0.031225,-0.00026924,0.0092867,-0.0007614,0,0,0.057039,-0.024845,0,-0.0039593,0,0,0,0.031243,-0.00028764,0.0092867,-1.3841,0.013414,0.028,6.9911e-07,0.71,0.19,0
0.034004,0.007035,0.031226,-0.000279,0.0092842,-0.0007396,0,0,0.057049,-0.024864,0,-0.0038459,0,0,0,0.031244,-0.00029635,0.0092842,-1.344,0.013411,0.028007,6.9933e-07,0.72,0.19,0
0.034575,0.0070692,0.031228,-0.0002879,0.0092819,-0.00071717,0,0,0.057059,-0.024882,0,-0.0037293,0,0,0,0.031244,-0.00030421,0.0092819,-1.3029,0.013407,0.028013,6.9954e-07,0.73,0.19,0
0.035146,0.0071014,0.031229,-0.00029597,0.0092799,-0.00069418,0,0,0.057068,-0.024897,0,-0.0036097,0,0,0,0.031244,-0.00031125,0.0092799,-1.2608,0.013404,0.028019,6.9972e-07,0.74,0.19,0
0.035716,0.0071318,0.03123,-0.00030324,0.0092781,-0.00067066,0,0,0.057076,-0.024911,0,-0.0034875,0,0,0,0.031245,-0.0003175,0.0092781,-1.2179,0.013402,0.028025,6.9989e-07,0.75,0.19,0
0.036287,0.0071604,0.031232,-0.00030976,0.0092766,-0.00064669,0,0,0.057083,-0.024924,0,-0.0033628,0,0,0,0.031245,-0.00032301,0.0092766,-1.1741,0.013399,0.028029,7.0004e-07,0.76,0.19,0
0.036858,0.0071872,0.031233,-0.00031558,0.0092752,-0.00062228,0,0,0.05709,-0.024936,0,-0.0032359,0,0,0,0.031245,-0.00032785,0.0092752,-1.1296,0.013398,0.028034,7.0018e-07,0.77,0.19,0
0.037429,0.0072124,0.031234,-0.00032074,0.0092741,-0.00059749,0,0,0.057097,-0.024947,0,-0.003107,0,0,0,0.031246,-0.00033205,0.0092741,-1.0844,0.013396,0.028037,7.0031e-07,0.78,0.19,0
0.038,0.007236,0.031236,-0.00032532,0.0092731,-0.00057236,0,0,0.057103,-0.024956,0,-0.0029763,0,0,0,0.031246,-0.00033569,0.0092731,-1.0386,0.013395,0.028041,7.0042e-07,0.79,0.19,0
0.038571,0.0072581,0.031237,-0.00032935,0.0092724,-0.00054691,0,0,0.057109,-0.024964,0,-0.0028439,0,0,0,0.031247,-0.00033882,0.0092724,-0.99228,0.013393,0.028044,7.0053e-07,0.8,0.19,0
0.039142,0.0072788,0.031239,-0.00033289,0.0092717,-0.00052117,0,0,0.057114,-0.024972,0,-0.0027101,0,0,0,0.031247,-0.00034149,0.0092717,-0.94547,0.013392,0.028046,7.0062e-07,0.81,0.19,0
0.039713,0.0072981,0.03124,-0.00033599,0.0092712,-0.00049516,0,0,0.057119,-0.024979,0,-0.0025749,0,0,0,0.031248,-0.00034376,0.0092712,-0.8982,0.013392,0.028049,7.0071e-07,0.82,0.19,0
0.040285,0.007316,0.031241,-0.0003387,0.0092708,-0.00046892,0,0,0.057124,-0.024985,0,-0.0024384,0,0,0,0.031248,-0.00034567,0.0092708,-0.85051,0.013391,0.028051,7.008e-07,0.83,0.19,0
0.040856,0.0073326,0.031243,-0.00034107,0.0092705,-0.00044246,0,0,0.057128,-0.02499,0,-0.0023008,0,0,0,0.031249,-0.00034727,0.0092705,-0.80244,0.013391,0.028052,7.0088e-07,0.84,0.19,0
0.041427,0.007348,0.031244,-0.00034313,0.0092703,-0.00041579,0,0,0.057132,-0.024995,0,-0.0021621,0,0,0,0.03125,-0.0003486,0.0092703,-0.75402,0.01339,0.028054,7.0095e-07,0.85,0.19,0
0.041998,0.0073622,0.031245,-0.00034491,0.0092702,-0.00038893,0,0,0.057136,-0.024999,0,-0.0020224,0,0,0,0.03125,-0.0003497,0.0092702,-0.70526,0.01339,0.028056,7.0103e-07,0.86,0.19,0
0.04257,0.0073753,0.031247,-0.00034646,0.0092701,-0.00036189,0,0,0.05714,-0.025003,0,-0.0018818,0,0,0,0.031251,-0.0003506,0.0092701,-0.65619,0.01339,0.028057,7.0109e-07,0.87,0.19,0
0.043141,0.0073872,0.031248,-0.0003478,0.0092701,-0.00033469,0,0,0.057143,-0.025007,0,-0.0017404,0,0,0,0.031252,-0.00035134,0.0092701,-0.60684,0.01339,0.028058,7.0116e-07,0.88,0.19,0
0.043713,0.007398,0.031249,-0.00034896,0.0092701,-0.00030735,0,0,0.057146,-0.02501,0,-0.0015982,0,0,0,0.031253,-0.00035194,0.0092701,-0.55723,0.01339,0.028059,7.0122e-07,0.89,0.19,0
0.044284,0.0074078,0.031251,-0.00034995,0.0092702,-0.00027986,0,0,0.057149,-0.025012,0,-0.0014553,0,0,0,0.031253,-0.00035243,0.0092702,-0.50737,0.01339,0.02806,7.0128e-07,0.9,0.19,0
0.044856,0.0074166,0.031252,-0.0003508,0.0092703,-0.00025225,0,0,0.057152,-0.025015,0,-0.0013117,0,0,0,0.031254,-0.00035281,0.0092703,-0.45728,0.01339,0.028061,7.0133e-07,0.91,0.19,0
0.045427,0.0074244,0.031253,-0.00035152,0.0092704,-0.00022452,0,0,0.057154,-0.025017,0,-0.0011675,0,0,0,0.031254,-0.00035312,0.0092704,-0.407,0.013391,0.028062,7.0138e-07,0.92,0.19,0
0.045999,0.0074312,0.031254,-0.00035214,0.0092705,-0.00019668,0,0,0.057157,-0.025019,0,-0.0010228,0,0,0,0.031255,-0.00035336,0.0092705,-0.35653,0.013391,0.028063,7.0143e-07,0.93,0.19,0
0.04657,0.007437,0.031255,-0.00035265,0.0092706,-0.00016876,0,0,0.057159,-0.025021,0,-0.00087754,0,0,0,0.031256,-0.00035355,0.0092706,-0.3059,0.013391,0.028063,7.0147e-07,0.94,0.19,0
0.047142,0.007442,0.031255,-0.00035306,0.0092707,-0.00014076,0,0,0.05716,-0.025022,0,-0.00073193,0,0,0,0.031256,-0.00035369,0.0092707,-0.25514,0.013391,0.028064,7.015e-07,0.95,0.19,0
0.047713,0.007446,0.031256,-0.0003534,0.0092708,-0.00011268,0,0,0.057162,-0.025023,0,-0.00058596,0,0,0,0.031256,-0.0003538,0.0092708,-0.20425,0.013391,0.028064,7.0153e-07,0.96,0.19,0
0.048285,0.0074491,0.031257,-0.00035365,0.0092709,-8.4561e-05,0,0,0.057163,-0.025024,0,-0.00043972,0,0,0,0.031257,-0.00035387,0.0092709,-0.15327,0.013391,0.028065,7.0156e-07,0.97,0.19,0
0.048857,0.0074513,0.031257,-0.00035382,0.0092709,-5.6397e-05,0,0,0.057164,-0.025024,0,-0.00029326,0,0,0,0.031257,-0.00035393,0.0092709,-0.10222,0.013391,0.028065,7.0157e-07,0.98,0.19,0
0.049428,0.0074526,0.031257,-0.00035393,0.009271,-2.8205e-05,0,0,0.057164,-0.025025,0,-0.00014667,0,0,0,0.031257,-0.00035396,0.009271,-0.051122,0.013391,0.028065,7.0158e-07,0.99,0.19,0
0.05,0.0074531,0.031257,-0.00035397,0.009271,8.4792e-06,0,0,0.057164,-0.025025,0,4.4092e-05,0,0,0,0.031257,-0.00035397,0.009271,0.015369,0.013391,0.028065,7.0159e-07,1,0.19,0
0,0,0.031206,0.013374,0.013374,0.0058992,0,0,0.046364,-5.421e-20,0,0.030676,0,0,0,0.032981,0.011599,0.013374,16.745,0.019318,0.020552,4.3466e-07,0,0.2,0
0.00046364,0.00030676,0.03117,0.01292,0.013227,0.0058715,0,0,0.046653,-0.00079934,0,0.030532,0,0,0,0.032896,0.011194,0.013227,16.379,0.019106,0.020761,4.4473e-07,0.01,0.2,0
0.00093306,0.00058823,0.031321,0.012513,0.01315,0.0056239,0,0,0.047244,-0.0016563,0,0.029244,0,0,0,0.032874,0.01096,0.01315,15.441,0.018995,0.020906,4.5193e-07,0.02,0.2,0
0.0014085,0.0008454,0.031472,0.012082,0.013066,0.0053972,0,0,0.047856,-0.00256,0,0.028066,0,0,0,0.032873,0.010681,0.013066,14.552,0.018873,0.021101,4.6184e-07,0.03,0.2,0
0.0018902,0.0010784,0.031627,0.011624,0.012975,0.0051734,0,0,0.048494,-0.0035131,0,0.026902,0,0,0,0.032885,0.010365,0.012975,13.676,0.018742,0.021335,4.7373e-07,0.04,0.2,0
0.0023784,0.0012868,0.031799,0.011135,0.01288,0.0049389,0,0,0.04919,-0.0045387,0,0.025683,0,0,0,0.032919,0.010015,0.01288,12.774,0.018605,0.021615,4.8805e-07,0.05,0.2,0
0.002874,0.0014695,0.032003,0.010577,0.012774,0.0046875,0,0,0.049996,-0.0057132,0,0.024375,0,0,0,0.032984,0.0095959,0.012774,11.816,0.018451,0.021972,5.0658e-07,0.06,0.2,0
0.0033783,0.0016257,0.032292,0.0099407,0.01267,0.0044526,0,0,0.051018,-0.0070959,0,0.023153,0,0,0,0.033147,0.0090863,0.01267,10.861,0.018301,0.022484,5.341e-07,0.07,0.2,0
0.0038943,0.0017563,0.032509,0.0090977,0.012482,0.0042833,0,0,0.05207,-0.0087993,0,0.022273,0,0,0,0.033268,0.0083386,0.012482,10.049,0.01803,0.023138,5.6804e-07,0.08,0.2,0
0.0044197,0.0018629,0.032488,0.0082949,0.012235,0.0041177,0,0,0.052657,-0.010244,0,0.021412,0,0,0,0.033169,0.0076132,0.012235,9.3995,0.017672,0.023587,5.8773e-07,0.09,0.2,0
0.0049475,0.0019239,0.033789,0.0080041,0.012538,0.0041892,0,0,0.055253,-0.011788,0,0.021784,0,0,0,0.034453,0.0073406,0.012538,9.0003,0.01811,0.024923,6.8003e-07,0.1,0.2,0
0.0055248,0.0019738,0.03857,0.0078356,0.013922,0.0037896,0,0,0.044867,-0.010914,0,0.014812,0,0,0,0.039051,0.0073548,0.013922,7.2159,0.020109,0.028976,1.1513e-06,0.11,0.2,0
0.0059091,0.0020578,0.030393,0.0054371,0.010749,0.0017817,0,0,0.035146,-0.0094555,0,0.0070859,0,0,0,0.030532,0.005298,0.010749,4.3848,0.015526,0.022998,5.9866e-07,0.12,0.2,0
0.0061948,0.0021571,0.034962,0.0059528,0.012275,0.0010356,0,0,0.029494,-0.0082182,0,0.0026925,0,0,0,0.034999,0.0059159,0.012275,2.0419,0.01773,0.026483,7.717e-07,0.13,0.2,0
0.006499,0.0022546,0.036291,0.0069956,0.012986,0.0010271,0,0,0.030297,-0.0077876,0,0.0026703,0,0,0,0.036327,0.0069597,0.012986,2.0054,0.018758,0.026866,8.2951e-07,0.14,0.2,0
0.0068007,0.002344,0.035975,0.0061329,0.012632,0.00094462,0,0,0.030345,-0.0084492,0,0.002456,0,0,0,0.036005,0.006103,0.012632,1.8112,0.018247,0.027231,8.3947e-07,0.15,0.2,0
0.0071059,0.0024333,0.035987,0.0051406,0.012338,0.00059057,0,0,0.030743,-0.0093569,0,0.0015355,0,0,0,0.035998,0.0051293,0.012338,1.0964,0.017822,0.02797,8.7718e-07,0.16,0.2,0
0.0074156,0.0025142,0.036107,0.0049201,0.012308,0.00026307,0,0,0.030939,-0.0096045,0,0.00068399,0,0,0,0.036109,0.0049178,0.012308,0.48326,0.017778,0.028231,8.9417e-07,0.17,0.2,0
0.0077247,0.0025861,0.035983,0.004629,0.012183,2.1114e-05,0,0,0.030939,-0.0098208,0,5.4896e-05,0,0,0,0.035983,0.004629,0.012183,0.038584,0.017598,0.028342,8.9519e-07,0.18,0.2,0
0.0080344,0.0026524,0.035925,0.0042876,0.012064,-0.00012945,0,0,0.031019,-0.010109,0,-0.00033656,0,0,0,0.035925,0.004287,0.012064,-0.23442,0.017425,0.028556,9.0359e-07,0.19,0.2,0
0.0083451,0.0027137,0.035881,0.003883,0.011929,-0.00029933,0,0,0.031137,-0.01046,0,-0.00077826,0,0,0,0.035884,0.0038802,0.011929,-0.53592,0.017231,0.028834,9.1548e-07,0.2,0.2,0
0.0086571,0.00277,0.035856,0.003552,0.011822,-0.00048385,0,0,0.031244,-0.010752,0,-0.001258,0,0,0,0.035864,0.0035448,0.011822,-0.85791,0.017077,0.029077,9.262e-07,0.21,0.2,0
0.00897,0.0028217,0.035815,0.0032902,0.011732,-0.00064948,0,0,0.031308,-0.010974,0,-0.0016887,0,0,0,0.035828,0.0032773,0.011732,-1.1435,0.016945,0.029254,9.3302e-07,0.22,0.2,0
0.0092833,0.0028695,0.035756,0.0030453,0.01164,-0.00077054,0,0,0.031351,-0.011174,0,-0.0020034,0,0,0,0.035775,0.0030272,0.01164,-1.3486,0.016814,0.029403,9.3771e-07,0.23,0.2,0
0.009597,0.0029146,0.035693,0.0027743,0.01154,-0.00085379,0,0,0.031398,-0.011395,0,-0.0022199,0,0,0,0.035715,0.0027521,0.01154,-1.4847,0.016669,0.029565,9.4259e-07,0.24,0.2,0
0.0099112,0.0029577,0.035637,0.0024673,0.011431,-0.00091272,0,0,0.031468,-0.011653,0,-0.0023731,0,0,0,0.035662,0.0024422,0.011431,-1.575,0.016512,0.029762,9.4915e-07,0.25,0.2,0
0.010226,0.0029994,0.035593,0.0021189,0.011314,-0.00096224,0,0,0.031563,-0.011953,0,-0.0025018,0,0,0,0.03562,0.0020913,0.011314,-1.6452,0.016342,0.030001,9.5781e-07,0.26,0.2,0
0.010542,0.0030395,0.035549,0.0017281,0.011183,-0.0010187,0,0,0.031676,-0.012292,0,-0.0026486,0,0,0,0.03558,0.0016975,0.011183,-1.7237,0.016153,0.030275,9.6778e-07,0.27,0.2,0
0.01086,0.0030779,0.035497,0.0013318,0.011049,-0.0010937,0,0,0.031783,-0.012632,0,-0.0028435,0,0,0,0.035532,0.0012968,0.011049,-1.8316,0.015959,0.03055,9.7709e-07,0.28,0.2,0
0.011178,0.0031143,0.035438,0.00098557,0.010927,-0.0011641,0,0,0.031865,-0.012924,0,-0.0030266,0,0,0,0.035478,0.00094628,0.010927,-1.933,0.015784,0.03078,9.8397e-07,0.29,0.2,0
0.011497,0.0031492,0.035414,0.00069718,0.010833,-0.0011937,0,0,0.031955,-0.013177,0,-0.0031035,0,0,0,0.035455,0.00065619,0.010833,-1.9669,0.015648,0.03099,9.9135e-07,0.3,0.2,0
0.011817,0.0031832,0.035428,0.00032012,0.010724,-0.0011775,0,0,0.032114,-0.013525,0,-0.0030616,0,0,0,0.035467,0.00028067,0.010724,-1.9189,0.015491,0.0313,1.0041e-06,0.31,0.2,0
0.012139,0.0032162,0.035518,-0.00015936,0.010608,-0.0012382,0,0,0.032384,-0.013997,0,-0.0032193,0,0,0,0.035561,-0.00020228,0.010608,-1.9853,0.015322,0.031769,1.027e-06,0.32,0.2,0
0.012465,0.0032452,0.035347,-0.00072355,0.010387,-0.0013735,0,0,0.032448,-0.014444,0,-0.0035711,0,0,0,0.0354,-0.00077577,0.010387,-2.1775,0.015004,0.032085,1.0302e-06,0.33,0.2,0
0.012788,0.0032721,0.035371,-0.00038245,0.010497,-0.0014865,0,0,0.032337,-0.014143,0,-0.0038648,0,0,0,0.035433,-0.00044414,0.010497,-2.3766,0.015162,0.031849,1.0233e-06,0.34,0.2,0
0.013112,0.0033065,0.035669,-0.00040783,0.010578,-0.0012137,0,0,0.032618,-0.014282,0,-0.0031556,0,0,0,0.03571,-0.00044862,0.010578,-1.9246,0.01528,0.032099,1.0475e-06,0.35,0.2,0
0.013441,0.0033426,0.034498,-0.0022881,0.0096628,-0.00099707,0,0,0.032285,-0.015536,0,-0.0025924,0,0,0,0.034524,-0.0023151,0.0096628,-1.5515,0.013957,0.032548,9.9657e-07,0.36,0.2,0
0.013757,0.0033794,0.030294,-0.0023206,0.0083921,-0.0012836,0,0,0.039224,-0.019098,0,-0.0050918,0,0,0,0.03035,-0.0023758,0.0083921,-2.4273,0.012122,0.028888,8.0379e-07,0.37,0.2,0
0.014187,0.0034715,0.038154,-0.0030374,0.010535,-0.0024076,0,0,0.050307,-0.024487,0,-0.0093688,0,0,0,0.0383,-0.0031834,0.010535,-3.4741,0.015217,0.036606,1.5332e-06,0.38,0.2,0
0.014837,0.0036836,0.033714,-0.0017418,0.0095916,-0.0022121,0,0,0.062717,-0.029467,0,-0.011503,0,0,0,0.033851,-0.0018792,0.0095916,-3.5564,0.013855,0.031597,9.2994e-07,0.39,0.2,0
0.015442,0.0038961,0.032666,-0.0011593,0.0094519,-0.0018625,0,0,0.060356,-0.027589,0,-0.009685,0,0,0,0.032768,-0.0012616,0.0094519,-3.1422,0.013653,0.030137,8.3039e-07,0.4,0.2,0
0.016044,0.0040802,0.032565,-0.00092238,0.0094927,-0.0017013,0,0,0.059987,-0.027079,0,-0.008847,0,0,0,0.032651,-0.0010086,0.0094927,-2.901,0.013712,0.029829,8.1554e-07,0.41,0.2,0
0.016642,0.004254,0.032441,-0.00044705,0.0095982,-0.0015631,0,0,0.059391,-0.026118,0,-0.0081282,0,0,0,0.032515,-0.00052117,0.0095982,-2.715,0.013864,0.029317,7.9357e-07,0.42,0.2,0
0.017232,0.0044186,0.032203,-0.00019471,0.0096025,-0.0015063,0,0,0.058761,-0.025473,0,-0.0078326,0,0,0,0.032273,-0.00026459,0.0096025,-2.6562,0.01387,0.028896,7.6972e-07,0.43,0.2,0
0.017817,0.0045722,0.032058,-5.426e-05,0.0096012,-0.0014936,0,0,0.058389,-0.025104,0,-0.0077669,0,0,0,0.032128,-0.00012358,0.0096012,-2.6573,0.013869,0.028654,7.5591e-07,0.44,0.2,0
0.018399,0.0047155,0.031967,-1.2321e-06,0.0095897,-0.0014728,0,0,0.058181,-0.024937,0,-0.0076587,0,0,0,0.032035,-6.8943e-05,0.0095897,-2.6322,0.013852,0.028528,7.4802e-07,0.45,0.2,0
0.01898,0.0048499,0.031909,1.3296e-05,0.0095768,-0.0014359,0,0,0.058065,-0.024865,0,-0.0074669,0,0,0,0.031974,-5.1219e-05,0.0095768,-2.5725,0.013833,0.02846,7.4332e-07,0.46,0.2,0
0.019561,0.0049767,0.031864,9.4853e-06,0.0095619,-0.0013867,0,0,0.057984,-0.024836,0,-0.007211,0,0,0,0.031924,-5.077e-05,0.0095619,-2.488,0.013812,0.028415,7.3983e-07,0.47,0.2,0
0.02014,0.0050971,0.031821,-2.0639e-06,0.0095458,-0.0013316,0,0,0.057916,-0.024824,0,-0.0069242,0,0,0,0.031877,-5.7684e-05,0.0095458,-2.3918,0.013788,0.028379,7.3674e-07,0.48,0.2,0
0.020719,0.0052118,0.03178,-1.5386e-05,0.0095293,-0.0012755,0,0,0.057851,-0.024816,0,-0.0066323,0,0,0,0.031831,-6.6468e-05,0.0095293,-2.2935,0.013765,0.028345,7.3377e-07,0.49,0.2,0
0.021297,0.0053214,0.031739,-2.7634e-05,0.0095133,-0.0012218,0,0,0.057786,-0.024806,0,-0.0063534,0,0,0,0.031785,-7.4559e-05,0.0095133,-2.1994,0.013741,0.028311,7.3084e-07,0.5,0.2,0
0.021875,0.0054263,0.031698,-3.7993e-05,0.009498,-0.0011729,0,0,0.05772,-0.024794,0,-0.006099,0,0,0,0.031741,-8.1282e-05,0.009498,-2.1137,0.013719,0.028277,7.2797e-07,0.51,0.2,0
0.022451,0.0055268,0.031659,-4.6744e-05,0.0094837,-0.0011298,0,0,0.057656,-0.024779,0,-0.0058749,0,0,0,0.031699,-8.6951e-05,0.0094837,-2.0382,0.013699,0.028244,7.2522e-07,0.52,0.2,0
0.023028,0.0056231,0.031622,-5.4618e-05,0.0094703,-0.0010927,0,0,0.057595,-0.024765,0,-0.0056823,0,0,0,0.03166,-9.2269e-05,0.0094703,-1.9734,0.013679,0.028214,7.2266e-07,0.53,0.2,0
0.023603,0.0057153,0.031589,-6.2415e-05,0.0094579,-0.0010614,0,0,0.05754,-0.024753,0,-0.0055195,0,0,0,0.031624,-9.797e-05,0.0094579,-1.9186,0.013661,0.028186,7.2035e-07,0.54,0.2,0
0.024178,0.0058034,0.031558,-7.0802e-05,0.0094463,-0.0010351,0,0,0.057491,-0.024744,0,-0.0053827,0,0,0,0.031592,-0.00010464,0.0094463,-1.8725,0.013645,0.028163,7.1833e-07,0.55,0.2,0
0.024753,0.0058876,0.031531,-8.0241e-05,0.0094354,-0.001013,0,0,0.05745,-0.024741,0,-0.0052675,0,0,0,0.031564,-0.00011267,0.0094354,-1.8335,0.013629,0.028145,7.166e-07,0.56,0.2,0
0.025327,0.0059679,0.031508,-9.0975e-05,0.0094252,-0.00099401,0,0,0.057416,-0.024742,0,-0.0051689,0,0,0,0.031539,-0.00012221,0.0094252,-1.8,0.013614,0.028131,7.1517e-07,0.57,0.2,0
0.025902,0.0060445,0.031488,-0.00010306,0.0094156,-0.00097736,0,0,0.057389,-0.024748,0,-0.0050823,0,0,0,0.031519,-0.00013327,0.0094156,-1.7703,0.0136,0.028121,7.1401e-07,0.58,0.2,0
0.026475,0.0061174,0.031471,-0.00011641,0.0094065,-0.00096225,0,0,0.057369,-0.02476,0,-0.0050037,0,0,0,0.031501,-0.0001457,0.0094065,-1.7432,0.013587,0.028115,7.131e-07,0.59,0.2,0
0.027049,0.0061867,0.031457,-0.00013083,0.009398,-0.00094799,0,0,0.057355,-0.024775,0,-0.0049295,0,0,0,0.031486,-0.00015926,0.009398,-1.7174,0.013575,0.028113,7.1242e-07,0.6,0.2,0
0.027622,0.0062526,0.031446,-0.00014607,0.0093899,-0.00093404,0,0,0.057345,-0.024793,0,-0.004857,0,0,0,0.031473,-0.00017367,0.0093899,-1.692,0.013563,0.028113,7.1191e-07,0.61,0.2,0
0.028196,0.0063152,0.031436,-0.00016186,0.0093823,-0.00091999,0,0,0.05734,-0.024815,0,-0.0047839,0,0,0,0.031463,-0.00018862,0.0093823,-1.6663,0.013552,0.028116,7.1155e-07,0.62,0.2,0
0.028769,0.0063746,0.031428,-0.0001779,0.009375,-0.00090551,0,0,0.057338,-0.024838,0,-0.0047087,0,0,0,0.031454,-0.00020383,0.009375,-1.6397,0.013542,0.02812,7.1131e-07,0.63,0.2,0
0.029343,0.0064309,0.031421,-0.00019394,0.0093682,-0.00089039,0,0,0.057338,-0.024862,0,-0.0046301,0,0,0,0.031446,-0.000219,0.0093682,-1.6119,0.013532,0.028125,7.1117e-07,0.64,0.2,0
0.029916,0.0064842,0.031416,-0.00020974,0.0093618,-0.00087449,0,0,0.05734,-0.024886,0,-0.0045474,0,0,0,0.03144,-0.0002339,0.0093618,-1.5827,0.013523,0.028131,7.1108e-07,0.65,0.2,0
0.030489,0.0065348,0.031411,-0.00022509,0.0093558,-0.00085772,0,0,0.057344,-0.02491,0,-0.0044602,0,0,0,0.031434,-0.00024833,0.0093558,-1.5519,0.013514,0.028138,7.1104e-07,0.66,0.2,0
0.031063,0.0065826,0.031407,-0.00023983,0.0093502,-0.00084006,0,0,0.057348,-0.024934,0,-0.0043683,0,0,0,0.031429,-0.00026211,0.0093502,-1.5195,0.013506,0.028145,7.1103e-07,0.67,0.2,0
0.031636,0.0066279,0.031404,-0.00025383,0.0093449,-0.0008215,0,0,0.057352,-0.024957,0,-0.0042718,0,0,0,0.031425,-0.00027513,0.0093449,-1.4855,0.013498,0.028151,7.1103e-07,0.68,0.2,0
0.03221,0.0066707,0.0314,-0.000267,0.00934,-0.00080208,0,0,0.057357,-0.024978,0,-0.0041708,0,0,0,0.031421,-0.0002873,0.00934,-1.45,0.013491,0.028157,7.1104e-07,0.69,0.2,0
0.032784,0.0067112,0.031398,-0.00027927,0.0093355,-0.00078184,0,0,0.057362,-0.024998,0,-0.0040656,0,0,0,0.031417,-0.00029856,0.0093355,-1.413,0.013485,0.028163,7.1105e-07,0.7,0.2,0
0.033357,0.0067494,0.031395,-0.00029062,0.0093313,-0.00076083,0,0,0.057366,-0.025017,0,-0.0039563,0,0,0,0.031413,-0.00030888,0.0093313,-1.3747,0.013479,0.028168,7.1105e-07,0.71,0.2,0
0.033931,0.0067855,0.031393,-0.00030104,0.0093275,-0.00073913,0,0,0.057369,-0.025034,0,-0.0038435,0,0,0,0.03141,-0.00031827,0.0093275,-1.3352,0.013473,0.028172,7.1104e-07,0.72,0.2,0
0.034505,0.0068195,0.03139,-0.00031055,0.009324,-0.00071679,0,0,0.057373,-0.02505,0,-0.0037273,0,0,0,0.031407,-0.00032675,0.009324,-1.2946,0.013468,0.028176,7.1102e-07,0.73,0.2,0
0.035078,0.0068516,0.031388,-0.00031916,0.0093208,-0.00069387,0,0,0.057376,-0.025064,0,-0.0036081,0,0,0,0.031404,-0.00033434,0.0093208,-1.253,0.013463,0.028179,7.1099e-07,0.74,0.2,0
0.035652,0.0068819,0.031386,-0.00032692,0.0093179,-0.00067043,0,0,0.057378,-0.025076,0,-0.0034862,0,0,0,0.031401,-0.00034109,0.0093179,-1.2105,0.013459,0.028182,7.1095e-07,0.75,0.2,0
0.036226,0.0069103,0.031385,-0.00033389,0.0093152,-0.00064651,0,0,0.057381,-0.025088,0,-0.0033619,0,0,0,0.031398,-0.00034706,0.0093152,-1.1672,0.013455,0.028185,7.109e-07,0.76,0.2,0
0.0368,0.0069371,0.031383,-0.00034011,0.0093129,-0.00062218,0,0,0.057382,-0.025098,0,-0.0032353,0,0,0,0.031395,-0.0003523,0.0093129,-1.1232,0.013452,0.028186,7.1085e-07,0.77,0.2,0
0.037373,0.0069622,0.031381,-0.00034564,0.0093108,-0.00059746,0,0,0.057384,-0.025107,0,-0.0031068,0,0,0,0.031393,-0.00035688,0.0093108,-1.0784,0.013449,0.028188,7.1079e-07,0.78,0.2,0
0.037947,0.0069857,0.03138,-0.00035054,0.0093089,-0.0005724,0,0,0.057385,-0.025115,0,-0.0029765,0,0,0,0.031391,-0.00036086,0.0093089,-1.0331,0.013446,0.028189,7.1072e-07,0.79,0.2,0
0.038521,0.0070077,0.031379,-0.00035487,0.0093072,-0.00054703,0,0,0.057386,-0.025121,0,-0.0028445,0,0,0,0.031388,-0.00036429,0.0093072,-0.98727,0.013444,0.02819,7.1066e-07,0.8,0.2,0
0.039095,0.0070283,0.031378,-0.00035868,0.0093057,-0.00052136,0,0,0.057387,-0.025128,0,-0.0027111,0,0,0,0.031386,-0.00036724,0.0093057,-0.94091,0.013442,0.028191,7.106e-07,0.81,0.2,0
0.039669,0.0070475,0.031377,-0.00036204,0.0093045,-0.00049543,0,0,0.057388,-0.025133,0,-0.0025763,0,0,0,0.031385,-0.00036977,0.0093045,-0.89408,0.01344,0.028191,7.1054e-07,0.82,0.2,0
0.040243,0.0070654,0.031376,-0.00036498,0.0093033,-0.00046926,0,0,0.057389,-0.025138,0,-0.0024402,0,0,0,0.031383,-0.00037192,0.0093033,-0.84682,0.013438,0.028191,7.1048e-07,0.83,0.2,0
0.040817,0.007082,0.031375,-0.00036756,0.0093023,-0.00044286,0,0,0.05739,-0.025142,0,-0.0023029,0,0,0,0.031382,-0.00037374,0.0093023,-0.79915,0.013437,0.028192,7.1042e-07,0.84,0.2,0
0.041391,0.0070973,0.031375,-0.00036982,0.0093015,-0.00041625,0,0,0.057391,-0.025146,0,-0.0021645,0,0,0,0.03138,-0.00037528,0.0093015,-0.75111,0.013435,0.028192,7.1038e-07,0.85,0.2,0
0.041965,0.0071115,0.031374,-0.0003718,0.0093008,-0.00038944,0,0,0.057391,-0.025149,0,-0.0020251,0,0,0,0.031379,-0.00037657,0.0093008,-0.70272,0.013435,0.028192,7.1033e-07,0.86,0.2,0
0.042538,0.0071245,0.031374,-0.00037352,0.0093002,-0.00036244,0,0,0.057392,-0.025152,0,-0.0018847,0,0,0,0.031378,-0.00037766,0.0093002,-0.65399,0.013434,0.028192,7.1029e-07,0.87,0.2,0
0.043112,0.0071364,0.031374,-0.00037502,0.0092997,-0.00033527,0,0,0.057393,-0.025154,0,-0.0017434,0,0,0,0.031378,-0.00037856,0.0092997,-0.60495,0.013433,0.028192,7.1026e-07,0.88,0.2,0
0.043686,0.0071472,0.031374,-0.00037633,0.0092992,-0.00030793,0,0,0.057394,-0.025156,0,-0.0016013,0,0,0,0.031377,-0.00037932,0.0092992,-0.55562,0.013432,0.028192,7.1023e-07,0.89,0.2,0
0.04426,0.007157,0.031374,-0.00037746,0.0092989,-0.00028044,0,0,0.057395,-0.025159,0,-0.0014583,0,0,0,0.031376,-0.00037994,0.0092989,-0.50602,0.013432,0.028192,7.1021e-07,0.9,0.2,0
0.044834,0.0071657,0.031374,-0.00037844,0.0092986,-0.00025282,0,0,0.057395,-0.02516,0,-0.0013147,0,0,0,0.031376,-0.00038045,0.0092986,-0.45616,0.013431,0.028192,7.1019e-07,0.91,0.2,0
0.045408,0.0071735,0.031374,-0.00037928,0.0092984,-0.00022506,0,0,0.057396,-0.025162,0,-0.0011703,0,0,0,0.031375,-0.00038088,0.0092984,-0.40608,0.013431,0.028192,7.1017e-07,0.92,0.2,0
0.045982,0.0071803,0.031374,-0.00038,0.0092982,-0.00019719,0,0,0.057397,-0.025163,0,-0.0010254,0,0,0,0.031375,-0.00038122,0.0092982,-0.35579,0.013431,0.028192,7.1016e-07,0.93,0.2,0
0.046556,0.0071861,0.031374,-0.0003806,0.009298,-0.00016922,0,0,0.057397,-0.025164,0,-0.00087993,0,0,0,0.031375,-0.0003815,0.009298,-0.30531,0.01343,0.028192,7.1015e-07,0.94,0.2,0
0.04713,0.007191,0.031374,-0.0003811,0.0092979,-0.00014115,0,0,0.057398,-0.025165,0,-0.000734,0,0,0,0.031375,-0.00038172,0.0092979,-0.25468,0.01343,0.028192,7.1014e-07,0.95,0.2,0
0.047704,0.007195,0.031374,-0.00038149,0.0092978,-0.00011302,0,0,0.057398,-0.025166,0,-0.00058767,0,0,0,0.031374,-0.00038189,0.0092978,-0.20391,0.01343,0.028192,7.1014e-07,0.96,0.2,0
0.048278,0.0071981,0.031374,-0.0003818,0.0092977,-8.4815e-05,0,0,0.057399,-0.025167,0,-0.00044104,0,0,0,0.031374,-0.00038202,0.0092977,-0.15303,0.01343,0.028192,7.1014e-07,0.97,0.2,0
0.048852,0.0072004,0.031374,-0.00038201,0.0092977,-5.6569e-05,0,0,0.057399,-0.025167,0,-0.00029416,0,0,0,0.031374,-0.00038211,0.0092977,-0.10206,0.01343,0.028192,7.1013e-07,0.98,0.2,0
0.049426,0.0072017,0.031374,-0.00038214,0.0092977,-2.8292e-05,0,0,0.057399,-0.025167,0,-0.00014712,0,0,0,0.031374,-0.00038216,0.0092977,-0.051046,0.01343,0.028192,7.1013e-07,0.99,0.2,0
0.05,0.0072021,0.031374,-0.00038218,0.0092976,8.4594e-06,0,0,0.057399,-0.025167,0,4.3989e-05,0,0,0,0.031374,-0.00038218,0.0092976,0.015263,0.01343,0.028192,7.1013e-07,1,0.2,0
0,0,0.031973,0.013703,0.013703,0.0057346,0,0,0.047503,1.0842e-18,0,0.02982,0,0,0,0.033624,0.012052,0.013703,16.059,0.019793,0.020796,4.521e-07,0,0.21,0
0.00047503,0.0002982,0.031929,0.01318,0.013532,0.0057084,0,0,0.047831,-0.0009179,0,0.029684,0,0,0,0.03353,0.011578,0.013532,15.669,0.019547,0.021043,4.6467e-07,0.01,0.21,0
0.00095661,0.00057076,0.032102,0.012743,0.013454,0.0054609,0,0,0.048487,-0.0018482,0,0.028397,0,0,0,0.033536,0.011309,0.013454,14.715,0.019433,0.021237,4.7504e-07,0.02,0.21,0
0.0014448,0.00081871,0.032274,0.012299,0.013372,0.0052358,0,0,0.049145,-0.002789,0,0.027226,0,0,0,0.033563,0.01101,0.013372,13.833,0.019315,0.02147,4.8761e-07,0.03,0.21,0
0.0019395,0.0010422,0.032443,0.011846,0.013286,0.005013,0,0,0.049806,-0.0037456,0,0.026068,0,0,0,0.033598,0.010691,0.013286,12.978,0.019192,0.021726,5.0143e-07,0.04,0.21,0
0.0024409,0.0012404,0.032613,0.011376,0.013197,0.0047671,0,0,0.050482,-0.0047332,0,0.024789,0,0,0,0.033634,0.010355,0.013197,12.089,0.019062,0.021996,5.1596e-07,0.05,0.21,0
0.0029492,0.0014114,0.032852,0.010893,0.013123,0.0044768,0,0,0.051295,-0.0057999,0,0.023279,0,0,0,0.03373,0.010015,0.013123,11.091,0.018956,0.022323,5.3419e-07,0.06,0.21,0
0.0034668,0.0015536,0.033153,0.010238,0.013017,0.0041143,0,0,0.052352,-0.0072251,0,0.021394,0,0,0,0.033869,0.0095221,0.013017,9.8767,0.018803,0.022801,5.6089e-07,0.07,0.21,0
0.0039962,0.0016646,0.03396,0.0096349,0.013078,0.0038116,0,0,0.054292,-0.0089534,0,0.01982,0,0,0,0.034543,0.0090517,0.013078,8.7002,0.018891,0.023736,6.2071e-07,0.08,0.21,0
0.0045526,0.0017524,0.03494,0.0086421,0.013074,0.0034439,0,0,0.056849,-0.011524,0,0.017909,0,0,0,0.035383,0.0081986,0.013074,7.3386,0.018885,0.025104,7.1036e-07,0.09,0.21,0
0.0051332,0.0018132,0.040355,0.0087056,0.014718,0.0045526,0,0,0.046383,-0.010515,0,0.017049,0,0,0,0.041005,0.0080557,0.014718,8.2325,0.02126,0.030177,1.3442e-06,0.1,0.21,0
0.0055386,0.0018756,0.031933,0.0066181,0.011565,0.0017013,0,0,0.036615,-0.0088861,0,0.0063315,0,0,0,0.032048,0.0065032,0.011565,3.9185,0.016705,0.023427,6.4885e-07,0.11,0.21,0
0.0058262,0.0019781,0.035678,0.007242,0.012876,0.0013222,0,0,0.029642,-0.007324,0,0.0034377,0,0,0,0.035739,0.0071807,0.012876,2.6565,0.018599,0.026179,7.7653e-07,0.12,0.21,0
0.0061315,0.0020825,0.036426,0.0073015,0.013118,0.0013225,0,0,0.0303,-0.0075616,0,0.0034385,0,0,0,0.036486,0.0072416,0.013118,2.5947,0.018949,0.026794,8.2995e-07,0.13,0.21,0
0.0064322,0.0021734,0.036049,0.0066758,0.012818,0.00095176,0,0,0.030201,-0.0079843,0,0.0024746,0,0,0,0.03608,0.006645,0.012818,1.8539,0.018514,0.026886,8.2352e-07,0.14,0.21,0
0.0067355,0.0022606,0.036166,0.0063352,0.01275,0.00081469,0,0,0.03044,-0.0083396,0,0.0021182,0,0,0,0.036188,0.006313,0.01275,1.5632,0.018417,0.027233,8.4516e-07,0.15,0.21,0
0.0070409,0.0023426,0.036119,0.0056505,0.012531,0.00061316,0,0,0.030665,-0.0089444,0,0.0015942,0,0,0,0.036131,0.0056382,0.012531,1.1524,0.0181,0.027698,8.677e-07,0.16,0.21,0
0.0073488,0.0024188,0.03613,0.0051378,0.01238,0.00033632,0,0,0.030874,-0.0094151,0,0.00087442,0,0,0,0.036133,0.0051342,0.01238,0.62167,0.017882,0.028086,8.8765e-07,0.17,0.21,0
0.0076584,0.0024882,0.036121,0.0047929,0.012274,9.6551e-05,0,0,0.031001,-0.0097257,0,0.00025103,0,0,0,0.036122,0.0047926,0.012274,0.17658,0.017729,0.028339,8.9997e-07,0.18,0.21,0
0.0079688,0.0025516,0.03606,0.0044329,0.012148,-9.9887e-05,0,0,0.031085,-0.010029,0,-0.00025971,0,0,0,0.03606,0.0044326,0.012148,-0.18096,0.017547,0.028562,9.0886e-07,0.19,0.21,0
0.0082801,0.0026098,0.036003,0.0040722,0.012023,-0.00027251,0,0,0.031175,-0.010336,0,-0.00070852,0,0,0,0.036006,0.0040699,0.012023,-0.48893,0.017366,0.028795,9.182e-07,0.2,0.21,0
0.0085923,0.0026632,0.035947,0.0037341,0.011904,-0.00043739,0,0,0.031255,-0.010621,0,-0.0011372,0,0,0,0.035953,0.0037281,0.011904,-0.77779,0.017195,0.029014,9.2668e-07,0.21,0.21,0
0.0089052,0.0027125,0.035887,0.0034313,0.011796,-0.00058356,0,0,0.031319,-0.010873,0,-0.0015173,0,0,0,0.035898,0.0034208,0.011796,-1.0297,0.017038,0.029204,9.335e-07,0.22,0.21,0
0.0092187,0.0027581,0.03582,0.0031428,0.011689,-0.00070114,0,0,0.031371,-0.01111,0,-0.001823,0,0,0,0.035835,0.0031278,0.011689,-1.2286,0.016884,0.029378,9.3906e-07,0.23,0.21,0
0.0095327,0.0028009,0.035753,0.0028447,0.011579,-0.00078951,0,0,0.031426,-0.011355,0,-0.0020527,0,0,0,0.035772,0.0028258,0.011579,-1.3736,0.016726,0.029558,9.4465e-07,0.24,0.21,0
0.0098472,0.0028413,0.035691,0.0025216,0.011464,-0.00085749,0,0,0.031495,-0.011625,0,-0.0022295,0,0,0,0.035713,0.0024994,0.011464,-1.4799,0.016559,0.029761,9.513e-07,0.25,0.21,0
0.010163,0.00288,0.035636,0.0021688,0.011341,-0.00091693,0,0,0.031583,-0.011924,0,-0.002384,0,0,0,0.035661,0.0021437,0.011341,-1.5682,0.016382,0.029995,9.5935e-07,0.26,0.21,0
0.010479,0.0029168,0.035585,0.0017943,0.011214,-0.00097846,0,0,0.031683,-0.012245,0,-0.002544,0,0,0,0.035614,0.001766,0.011214,-1.6572,0.016198,0.030251,9.6831e-07,0.27,0.21,0
0.010796,0.002952,0.035537,0.0014169,0.011086,-0.001044,0,0,0.031786,-0.01257,0,-0.0027144,0,0,0,0.035569,0.001385,0.011086,-1.751,0.016013,0.030512,9.7726e-07,0.28,0.21,0
0.011115,0.0029853,0.035495,0.0010558,0.010965,-0.0011054,0,0,0.031889,-0.012882,0,-0.002874,0,0,0,0.035531,0.0010203,0.010965,-1.8365,0.015839,0.030768,9.8605e-07,0.29,0.21,0
0.011434,0.0030172,0.035469,0.00069641,0.01085,-0.0011524,0,0,0.032005,-0.013199,0,-0.0029962,0,0,0,0.035507,0.00065826,0.01085,-1.896,0.015672,0.031035,9.9567e-07,0.3,0.21,0
0.011755,0.0030476,0.035462,0.00030906,0.010731,-0.0012029,0,0,0.03215,-0.013549,0,-0.0031275,0,0,0,0.035503,0.00026795,0.010731,-1.9575,0.015501,0.031342,1.0076e-06,0.31,0.21,0
0.012077,0.0030763,0.035411,-0.00012076,0.010587,-0.0012788,0,0,0.032271,-0.01392,0,-0.0033248,0,0,0,0.035457,-0.00016672,0.010587,-2.0585,0.015292,0.031648,1.017e-06,0.32,0.21,0
0.0124,0.0031033,0.035362,-0.00038274,0.010494,-0.0013677,0,0,0.032329,-0.014139,0,-0.003556,0,0,0,0.035414,-0.00043499,0.010494,-2.188,0.015158,0.031825,1.0214e-06,0.33,0.21,0
0.012724,0.0031304,0.03539,-0.00049573,0.010468,-0.0013336,0,0,0.032398,-0.014253,0,-0.0034674,0,0,0,0.035439,-0.00054522,0.010468,-2.1254,0.015121,0.031935,1.0268e-06,0.34,0.21,0
0.013048,0.0031594,0.035317,-0.001001,0.010295,-0.0012135,0,0,0.032529,-0.014685,0,-0.0031552,0,0,0,0.035358,-0.0010414,0.010295,-1.9116,0.014871,0.032261,1.0342e-06,0.35,0.21,0
0.013374,0.0031919,0.03567,-0.0013959,0.010282,-0.0012848,0,0,0.033004,-0.015182,0,-0.0033404,0,0,0,0.035715,-0.0014403,0.010282,-1.9828,0.014852,0.032899,1.077e-06,0.36,0.21,0
0.013708,0.0032202,0.035292,-0.0020252,0.00998,-0.0010623,0,0,0.032905,-0.015607,0,-0.0027619,0,0,0,0.035322,-0.0020554,0.00998,-1.6292,0.014416,0.033046,1.059e-06,0.37,0.21,0
0.014032,0.0032555,0.031957,-0.002104,0.0089558,-0.00079671,0,0,0.04136,-0.019779,0,-0.0026841,0,0,0,0.031976,-0.0021232,0.0089558,-1.2816,0.012936,0.030128,9.1964e-07,0.38,0.21,0
0.014491,0.0033862,0.039995,-0.0031772,0.011045,-0.0026742,0,0,0.052352,-0.025379,0,-0.0096587,0,0,0,0.04016,-0.0033423,0.011045,-3.5382,0.015954,0.038388,1.8078e-06,0.39,0.21,0
0.015144,0.0036123,0.03492,-0.0012615,0.010098,-0.0010613,0,0,0.064538,-0.029534,0,-0.0055187,0,0,0,0.034951,-0.0012926,0.010098,-1.6787,0.014585,0.032102,1.0062e-06,0.4,0.21,0
0.015781,0.0038023,0.034009,-0.00072833,0.0099841,-0.0012508,0,0,0.062464,-0.027852,0,-0.0065042,0,0,0,0.034054,-0.00077331,0.0099841,-2.0596,0.014422,0.030887,9.178e-07,0.41,0.21,0
0.016394,0.0039894,0.033184,-0.00041356,0.0098312,-0.0012218,0,0,0.060718,-0.026636,0,-0.0063533,0,0,0,0.033229,-0.00045794,0.0098312,-2.0799,0.014201,0.0299,8.4502e-07,0.42,0.21,0
0.016996,0.0041612,0.032854,-0.00012483,0.0098188,-0.0013257,0,0,0.059892,-0.025854,0,-0.0068935,0,0,0,0.032907,-0.00017803,0.0098188,-2.2982,0.014183,0.029391,8.1364e-07,0.43,0.21,0
0.017592,0.0043187,0.032643,-4.8956e-05,0.0097783,-0.0013859,0,0,0.059449,-0.025551,0,-0.0072068,0,0,0,0.032702,-0.0001076,0.0097783,-2.4232,0.014124,0.029152,7.9669e-07,0.44,0.21,0
0.018185,0.0044637,0.032527,-2.834e-05,0.0097496,-0.0013961,0,0,0.059222,-0.025423,0,-0.0072596,0,0,0,0.032587,-8.8099e-05,0.0097496,-2.451,0.014083,0.029034,7.8783e-07,0.45,0.21,0
0.018776,0.0045988,0.032437,-3.0051e-05,0.009722,-0.0013693,0,0,0.059058,-0.025355,0,-0.0071204,0,0,0,0.032494,-8.7701e-05,0.009722,-2.4108,0.014043,0.028952,7.8112e-07,0.46,0.21,0
0.019366,0.0047259,0.032352,-4.268e-05,0.0096928,-0.0013243,0,0,0.058914,-0.025312,0,-0.0068862,0,0,0,0.032406,-9.6726e-05,0.0096928,-2.337,0.014001,0.028881,7.7503e-07,0.47,0.21,0
0.019954,0.0048465,0.032272,-5.7357e-05,0.0096643,-0.0012712,0,0,0.058779,-0.025276,0,-0.0066102,0,0,0,0.032322,-0.00010726,0.0096643,-2.2483,0.013959,0.028814,7.6924e-07,0.48,0.21,0
0.020542,0.0049615,0.032195,-6.9225e-05,0.0096376,-0.0012167,0,0,0.058648,-0.025238,0,-0.0063267,0,0,0,0.03224,-0.00011504,0.0096376,-2.1566,0.013921,0.028748,7.6367e-07,0.49,0.21,0
0.021127,0.0050713,0.032121,-7.6981e-05,0.0096133,-0.0011651,0,0,0.058521,-0.025195,0,-0.0060587,0,0,0,0.032163,-0.00011909,0.0096133,-2.0697,0.013886,0.028683,7.5832e-07,0.5,0.21,0
0.021712,0.0051766,0.032052,-8.1262e-05,0.0095913,-0.0011191,0,0,0.058399,-0.025149,0,-0.0058196,0,0,0,0.032091,-0.00012019,0.0095913,-1.9923,0.013854,0.028619,7.5325e-07,0.51,0.21,0
0.022295,0.0052774,0.031988,-8.3483e-05,0.0095714,-0.0010799,0,0,0.058284,-0.025103,0,-0.0056152,0,0,0,0.032025,-0.0001198,0.0095714,-1.9262,0.013825,0.02856,7.4857e-07,0.52,0.21,0
0.022877,0.0053739,0.03193,-8.5149e-05,0.0095534,-0.0010473,0,0,0.058179,-0.02506,0,-0.0054458,0,0,0,0.031964,-0.00011937,0.0095534,-1.8716,0.013799,0.028506,7.4433e-07,0.53,0.21,0
0.023459,0.0054663,0.031878,-8.7513e-05,0.009537,-0.0010208,0,0,0.058085,-0.025024,0,-0.005308,0,0,0,0.03191,-0.00012008,0.009537,-1.8272,0.013776,0.028458,7.4058e-07,0.54,0.21,0
0.024039,0.0055547,0.031831,-9.1461e-05,0.0095219,-0.00099936,0,0,0.058004,-0.024995,0,-0.0051967,0,0,0,0.031863,-0.00012272,0.0095219,-1.7913,0.013754,0.028418,7.3734e-07,0.55,0.21,0
0.024619,0.005639,0.031791,-9.75e-05,0.009508,-0.00098193,0,0,0.057935,-0.024974,0,-0.005106,0,0,0,0.031821,-0.00012771,0.009508,-1.7621,0.013734,0.028385,7.346e-07,0.56,0.21,0
0.025198,0.0057193,0.031756,-0.00010582,0.0094951,-0.00096738,0,0,0.057878,-0.024962,0,-0.0050304,0,0,0,0.031785,-0.00013516,0.0094951,-1.7375,0.013715,0.028359,7.3232e-07,0.57,0.21,0
0.025777,0.0057959,0.031726,-0.00011637,0.009483,-0.00095473,0,0,0.057833,-0.024958,0,-0.0049646,0,0,0,0.031755,-0.00014496,0.009483,-1.7158,0.013698,0.02834,7.3045e-07,0.58,0.21,0
0.026355,0.0058687,0.031701,-0.00012891,0.0094716,-0.00094312,0,0,0.057796,-0.024961,0,-0.0049042,0,0,0,0.031729,-0.00015683,0.0094716,-1.6957,0.013681,0.028326,7.2894e-07,0.59,0.21,0
0.026932,0.005938,0.031679,-0.00014311,0.0094608,-0.00093188,0,0,0.057768,-0.02497,0,-0.0048458,0,0,0,0.031706,-0.00017037,0.0094608,-1.6759,0.013666,0.028317,7.2773e-07,0.6,0.21,0
0.02751,0.0060037,0.031661,-0.00015858,0.0094507,-0.00092047,0,0,0.057746,-0.024984,0,-0.0047865,0,0,0,0.031687,-0.00018518,0.0094507,-1.6556,0.013651,0.028312,7.2678e-07,0.61,0.21,0
0.028087,0.0060661,0.031645,-0.00017492,0.009441,-0.00090852,0,0,0.05773,-0.025001,0,-0.0047243,0,0,0,0.031671,-0.00020084,0.009441,-1.6341,0.013637,0.02831,7.2603e-07,0.62,0.21,0
0.028665,0.0061252,0.031631,-0.00019175,0.0094319,-0.00089575,0,0,0.057719,-0.025022,0,-0.0046579,0,0,0,0.031657,-0.00021694,0.0094319,-1.611,0.013624,0.02831,7.2544e-07,0.63,0.21,0
0.029242,0.0061813,0.03162,-0.00020871,0.0094233,-0.000882,0,0,0.057711,-0.025043,0,-0.0045864,0,0,0,0.031644,-0.00023313,0.0094233,-1.5861,0.013611,0.028312,7.2497e-07,0.64,0.21,0
0.029819,0.0062345,0.031609,-0.0002255,0.0094152,-0.00086718,0,0,0.057705,-0.025066,0,-0.0045093,0,0,0,0.031633,-0.00024911,0.0094152,-1.5592,0.0136,0.028315,7.2459e-07,0.65,0.21,0
0.030396,0.0062848,0.0316,-0.00024187,0.0094075,-0.00085126,0,0,0.057701,-0.025088,0,-0.0044265,0,0,0,0.031623,-0.00026461,0.0094075,-1.5303,0.013589,0.028319,7.2426e-07,0.66,0.21,0
0.030973,0.0063324,0.031592,-0.0002576,0.0094002,-0.00083425,0,0,0.057698,-0.02511,0,-0.0043381,0,0,0,0.031614,-0.00027944,0.0094002,-1.4994,0.013578,0.028322,7.2398e-07,0.67,0.21,0
0.03155,0.0063774,0.031584,-0.00027256,0.0093934,-0.00081621,0,0,0.057695,-0.025132,0,-0.0042443,0,0,0,0.031605,-0.00029346,0.0093934,-1.4667,0.013568,0.028326,7.2373e-07,0.68,0.21,0
0.032127,0.0064201,0.031577,-0.00028662,0.0093871,-0.00079719,0,0,0.057694,-0.025152,0,-0.0041454,0,0,0,0.031597,-0.00030655,0.0093871,-1.4323,0.013559,0.028329,7.2349e-07,0.69,0.21,0
0.032704,0.0064603,0.03157,-0.00029972,0.0093811,-0.00077728,0,0,0.057691,-0.02517,0,-0.0040418,0,0,0,0.031589,-0.00031867,0.0093811,-1.3963,0.013551,0.028332,7.2325e-07,0.7,0.21,0
0.03328,0.0064984,0.031564,-0.00031183,0.0093756,-0.00075655,0,0,0.057689,-0.025187,0,-0.003934,0,0,0,0.031582,-0.00032978,0.0093756,-1.3588,0.013543,0.028334,7.2301e-07,0.71,0.21,0
0.033857,0.0065343,0.031558,-0.00032293,0.0093705,-0.00073508,0,0,0.057687,-0.025203,0,-0.0038224,0,0,0,0.031575,-0.00033987,0.0093705,-1.3201,0.013535,0.028336,7.2277e-07,0.72,0.21,0
0.034434,0.0065682,0.031552,-0.00033305,0.0093657,-0.00071295,0,0,0.057685,-0.025217,0,-0.0037073,0,0,0,0.031568,-0.00034899,0.0093657,-1.2803,0.013528,0.028337,7.2253e-07,0.73,0.21,0
0.035011,0.0066002,0.031547,-0.00034222,0.0093613,-0.00069023,0,0,0.057682,-0.025229,0,-0.0035892,0,0,0,0.031562,-0.00035715,0.0093613,-1.2394,0.013522,0.028338,7.2228e-07,0.74,0.21,0
0.035588,0.0066303,0.031542,-0.00035047,0.0093573,-0.00066699,0,0,0.057679,-0.02524,0,-0.0034683,0,0,0,0.031556,-0.00036442,0.0093573,-1.1976,0.013516,0.028339,7.2203e-07,0.75,0.21,0
0.036165,0.0066586,0.031537,-0.00035788,0.0093536,-0.00064328,0,0,0.057676,-0.02525,0,-0.003345,0,0,0,0.03155,-0.00037085,0.0093536,-1.155,0.013511,0.028338,7.2178e-07,0.76,0.21,0
0.036741,0.0066853,0.031532,-0.00036449,0.0093503,-0.00061915,0,0,0.057673,-0.025258,0,-0.0032196,0,0,0,0.031544,-0.00037651,0.0093503,-1.1116,0.013506,0.028338,7.2154e-07,0.77,0.21,0
0.037318,0.0067103,0.031528,-0.00037038,0.0093472,-0.00059464,0,0,0.057669,-0.025266,0,-0.0030921,0,0,0,0.031539,-0.00038146,0.0093472,-1.0676,0.013501,0.028337,7.2129e-07,0.78,0.21,0
0.037895,0.0067338,0.031524,-0.00037561,0.0093444,-0.00056979,0,0,0.057666,-0.025272,0,-0.0029629,0,0,0,0.031534,-0.00038578,0.0093444,-1.023,0.013498,0.028336,7.2105e-07,0.79,0.21,0
0.038471,0.0067557,0.03152,-0.00038024,0.0093419,-0.00054463,0,0,0.057663,-0.025278,0,-0.0028321,0,0,0,0.031529,-0.00038953,0.0093419,-0.97783,0.013494,0.028335,7.2082e-07,0.8,0.21,0
0.039048,0.0067763,0.031516,-0.00038433,0.0093396,-0.00051918,0,0,0.05766,-0.025282,0,-0.0026997,0,0,0,0.031525,-0.00039278,0.0093396,-0.93215,0.013491,0.028334,7.206e-07,0.81,0.21,0
0.039625,0.0067954,0.031513,-0.00038794,0.0093375,-0.00049346,0,0,0.057656,-0.025286,0,-0.002566,0,0,0,0.031521,-0.00039557,0.0093375,-0.886,0.013488,0.028333,7.2039e-07,0.82,0.21,0
0.040201,0.0068132,0.03151,-0.00039112,0.0093357,-0.0004675,0,0,0.057654,-0.02529,0,-0.002431,0,0,0,0.031517,-0.00039797,0.0093357,-0.8394,0.013485,0.028331,7.2019e-07,0.83,0.21,0
0.040778,0.0068298,0.031508,-0.00039393,0.0093341,-0.0004413,0,0,0.057651,-0.025293,0,-0.0022948,0,0,0,0.031514,-0.00040003,0.0093341,-0.79238,0.013482,0.02833,7.2001e-07,0.84,0.21,0
0.041354,0.0068451,0.031505,-0.0003964,0.0093326,-0.00041488,0,0,0.057648,-0.025295,0,-0.0021574,0,0,0,0.03151,-0.00040179,0.0093326,-0.74497,0.01348,0.028328,7.1984e-07,0.85,0.21,0
0.041931,0.0068593,0.031503,-0.00039857,0.0093313,-0.00038825,0,0,0.057646,-0.025298,0,-0.0020189,0,0,0,0.031508,-0.0004033,0.0093313,-0.69717,0.013478,0.028327,7.1968e-07,0.86,0.21,0
0.042507,0.0068722,0.031501,-0.00040048,0.0093302,-0.00036142,0,0,0.057644,-0.0253,0,-0.0018794,0,0,0,0.031505,-0.00040458,0.0093302,-0.64901,0.013477,0.028326,7.1954e-07,0.87,0.21,0
0.043084,0.0068841,0.031499,-0.00040216,0.0093291,-0.0003344,0,0,0.057642,-0.025301,0,-0.0017389,0,0,0,0.031503,-0.00040567,0.0093291,-0.60051,0.013475,0.028325,7.1941e-07,0.88,0.21,0
0.04366,0.0068949,0.031498,-0.00040363,0.0093282,-0.00030721,0,0,0.057641,-0.025303,0,-0.0015975,0,0,0,0.031501,-0.00040659,0.0093282,-0.55169,0.013474,0.028324,7.1929e-07,0.89,0.21,0
0.044236,0.0069047,0.031496,-0.00040492,0.0093275,-0.00027985,0,0,0.05764,-0.025304,0,-0.0014552,0,0,0,0.031499,-0.00040738,0.0093275,-0.50256,0.013473,0.028323,7.1919e-07,0.9,0.21,0
0.044813,0.0069134,0.031495,-0.00040604,0.0093268,-0.00025233,0,0,0.057638,-0.025305,0,-0.0013121,0,0,0,0.031497,-0.00040804,0.0093268,-0.45316,0.013472,0.028322,7.191e-07,0.91,0.21,0
0.045389,0.0069212,0.031495,-0.00040701,0.0093262,-0.00022467,0,0,0.057638,-0.025306,0,-0.0011683,0,0,0,0.031496,-0.0004086,0.0093262,-0.40349,0.013471,0.028321,7.1902e-07,0.92,0.21,0
0.045965,0.0069279,0.031494,-0.00040785,0.0093258,-0.00019688,0,0,0.057637,-0.025307,0,-0.0010238,0,0,0,0.031495,-0.00040906,0.0093258,-0.35359,0.01347,0.02832,7.1895e-07,0.93,0.21,0
0.046542,0.0069338,0.031493,-0.00040855,0.0093253,-0.00016898,0,0,0.057636,-0.025308,0,-0.0008787,0,0,0,0.031494,-0.00040945,0.0093253,-0.30348,0.01347,0.02832,7.1889e-07,0.94,0.21,0
0.047118,0.0069387,0.031492,-0.00040914,0.009325,-0.00014098,0,0,0.057636,-0.025309,0,-0.00073307,0,0,0,0.031493,-0.00040976,0.009325,-0.25319,0.01347,0.02832,7.1885e-07,0.95,0.21,0
0.047695,0.0069427,0.031492,-0.00040961,0.0093248,-0.00011289,0,0,0.057635,-0.025309,0,-0.000587,0,0,0,0.031492,-0.00041001,0.0093248,-0.20274,0.013469,0.028319,7.1881e-07,0.96,0.21,0
0.048271,0.0069458,0.031492,-0.00040997,0.0093246,-8.4725e-05,0,0,0.057635,-0.02531,0,-0.00044057,0,0,0,0.031492,-0.00041019,0.0093246,-0.15217,0.013469,0.028319,7.1878e-07,0.97,0.21,0
0.048847,0.006948,0.031492,-0.00041022,0.0093244,-5.6513e-05,0,0,0.057635,-0.02531,0,-0.00029387,0,0,0,0.031492,-0.00041032,0.0093244,-0.1015,0.013469,0.028319,7.1876e-07,0.98,0.21,0
0.049424,0.0069493,0.031491,-0.00041037,0.0093243,-2.8265e-05,0,0,0.057635,-0.02531,0,-0.00014698,0,0,0,0.031491,-0.0004104,0.0093243,-0.050764,0.013468,0.028318,7.1875e-07,0.99,0.21,0
0.05,0.0069497,0.031491,-0.00041043,0.0093243,8.4455e-06,0,0,0.057634,-0.02531,0,4.3916e-05,0,0,0,0.031491,-0.00041043,0.0093243,0.015168,0.013468,0.028318,7.1874e-07,1,0.21,0
0,0,0.032749,0.014035,0.014035,0.0055461,0,0,0.048656,5.421e-20,0,0.02884,0,0,0,0.034269,0.012515,0.014035,15.328,0.020273,0.021035,4.6963e-07,0,0.22,0
0.00048656,0.0002884,0.032696,0.013439,0.01384,0.0055208,0,0,0.049024,-0.0010445,0,0.028708,0,0,0,0.034166,0.011968,0.01384,14.915,0.019992,0.021324,4.8506e-07,0.01,0.22,0
0.00098048,0.00055127,0.032895,0.012971,0.01376,0.0052755,0,0,0.049752,-0.0020515,0,0.027433,0,0,0,0.034206,0.01166,0.01376,13.952,0.019875,0.021573,4.9919e-07,0.02,0.22,0
0.0014816,0.00078962,0.033093,0.012518,0.013683,0.005052,0,0,0.050466,-0.0030302,0,0.02627,0,0,0,0.034267,0.011344,0.013683,13.077,0.019765,0.021847,5.1491e-07,0.03,0.22,0
0.0019898,0.0010035,0.033286,0.012069,0.013607,0.0048306,0,0,0.051167,-0.0039982,0,0.025119,0,0,0,0.034334,0.011021,0.013607,12.241,0.019654,0.022134,5.3141e-07,0.04,0.22,0
0.0025049,0.0011921,0.033455,0.011612,0.01352,0.0045959,0,0,0.051831,-0.0049609,0,0.023899,0,0,0,0.034383,0.010685,0.01352,11.411,0.019529,0.022416,5.4737e-07,0.05,0.22,0
0.0030264,0.0013535,0.033572,0.011151,0.013417,0.0042901,0,0,0.052404,-0.0058923,0,0.022308,0,0,0,0.034365,0.010358,0.013417,10.47,0.01938,0.022633,5.5897e-07,0.06,0.22,0
0.003553,0.0014812,0.033892,0.010779,0.013401,0.003896,0,0,0.053276,-0.0068186,0,0.020259,0,0,0,0.034531,0.01014,0.013401,9.3149,0.019357,0.022935,5.7762e-07,0.07,0.22,0
0.004092,0.0015772,0.03365,0.0095235,0.012952,0.0032586,0,0,0.053814,-0.0089141,0,0.016945,0,0,0,0.034082,0.0090911,0.012952,7.5582,0.018708,0.023302,5.9012e-07,0.08,0.22,0
0.0046293,0.0016324,0.034431,0.009105,0.013061,0.0032756,0,0,0.055563,-0.010285,0,0.017033,0,0,0,0.034848,0.0086882,0.013061,7.2515,0.018866,0.024271,6.5468e-07,0.09,0.22,0
0.0052032,0.0017108,0.033913,0.0076998,0.012484,0.0025541,0,0,0.042206,-0.0082924,0,0.0085839,0,0,0,0.034193,0.0074195,0.012484,5.4118,0.018032,0.024678,6.5067e-07,0.1,0.22,0
0.0054734,0.0018054,0.034609,0.0079607,0.012771,0.0015968,0,0,0.028389,-0.0062532,0,0.0041516,0,0,0,0.034704,0.0078653,0.012771,3.4169,0.018447,0.024753,6.77e-07,0.11,0.22,0
0.005771,0.0019113,0.036165,0.0081187,0.013285,0.0016563,0,0,0.029744,-0.0067163,0,0.0043065,0,0,0,0.036263,0.0080213,0.013285,3.3681,0.01919,0.026012,7.8062e-07,0.12,0.22,0
0.0060683,0.0020058,0.03605,0.0072729,0.012997,0.0012066,0,0,0.029969,-0.0074412,0,0.003137,0,0,0,0.036101,0.0072224,0.012997,2.3967,0.018773,0.026468,8.016e-07,0.13,0.22,0
0.0063704,0.0020949,0.036253,0.0069499,0.012961,0.00098937,0,0,0.03028,-0.0078142,0,0.0025724,0,0,0,0.036286,0.0069165,0.012961,1.9316,0.018721,0.026862,8.2815e-07,0.14,0.22,0
0.0066739,0.0021772,0.036233,0.006432,0.0128,0.00077688,0,0,0.030464,-0.0082777,0,0.0020199,0,0,0,0.036253,0.0064118,0.0128,1.4923,0.018488,0.027216,8.462e-07,0.15,0.22,0
0.0069797,0.0022544,0.036248,0.0059146,0.012649,0.00058418,0,0,0.030679,-0.0087544,0,0.0015189,0,0,0,0.036259,0.0059033,0.012649,1.1029,0.01827,0.027608,8.6715e-07,0.16,0.22,0
0.0072875,0.0023259,0.036236,0.0054137,0.012495,0.00036816,0,0,0.030864,-0.0092057,0,0.00095722,0,0,0,0.036241,0.0054093,0.012495,0.68424,0.018048,0.02797,8.8534e-07,0.17,0.22,0
0.0075969,0.0023916,0.036212,0.0049867,0.01236,0.0001504,0,0,0.031008,-0.0095847,0,0.00039105,0,0,0,0.036213,0.004986,0.01236,0.27597,0.017853,0.02827,8.9974e-07,0.18,0.22,0
0.0079076,0.0024518,0.036167,0.0046054,0.012232,-4.4861e-05,0,0,0.031116,-0.0099142,0,-0.00011664,0,0,0,0.036167,0.0046053,0.012232,-0.081438,0.017668,0.028524,9.1084e-07,0.19,0.22,0
0.0082192,0.002507,0.036105,0.0042389,0.012103,-0.00021896,0,0,0.031202,-0.010223,0,-0.0005693,0,0,0,0.036106,0.0042374,0.012103,-0.39367,0.017482,0.028755,9.2002e-07,0.2,0.22,0
0.0085317,0.0025576,0.036038,0.0038916,0.011979,-0.00037489,0,0,0.031276,-0.010513,0,-0.00097472,0,0,0,0.036042,0.0038873,0.011979,-0.66808,0.017303,0.028969,9.2799e-07,0.21,0.22,0
0.0088448,0.0026042,0.035966,0.0035631,0.011859,-0.00051174,0,0,0.031339,-0.010784,0,-0.0013305,0,0,0,0.035974,0.003555,0.011859,-0.90459,0.017129,0.029167,9.348e-07,0.22,0.22,0
0.0091585,0.0026473,0.035892,0.0032445,0.011741,-0.00062613,0,0,0.031396,-0.011045,0,-0.0016279,0,0,0,0.035904,0.0032325,0.011741,-1.0983,0.016959,0.029357,9.4086e-07,0.23,0.22,0
0.0094727,0.0026875,0.035818,0.0029219,0.011622,-0.00071877,0,0,0.031455,-0.01131,0,-0.0018688,0,0,0,0.035834,0.0029062,0.011622,-1.2511,0.016787,0.02955,9.4689e-07,0.24,0.22,0
0.0097876,0.0027252,0.035749,0.0025848,0.0115,-0.00079502,0,0,0.031523,-0.01159,0,-0.002067,0,0,0,0.035768,0.0025657,0.0115,-1.3725,0.016611,0.029758,9.5352e-07,0.25,0.22,0
0.010103,0.0027609,0.035685,0.0022297,0.011374,-0.0008627,0,0,0.031604,-0.011888,0,-0.002243,0,0,0,0.035707,0.0022075,0.011374,-1.4762,0.01643,0.029986,9.6101e-07,0.26,0.22,0
0.01042,0.0027946,0.035627,0.0018608,0.011246,-0.00092824,0,0,0.031695,-0.012201,0,-0.0024134,0,0,0,0.035652,0.0018353,0.011246,-1.5735,0.016245,0.030231,9.6918e-07,0.27,0.22,0
0.010737,0.0028265,0.035574,0.0014871,0.011118,-0.00099394,0,0,0.031792,-0.012521,0,-0.0025842,0,0,0,0.035603,0.0014581,0.011118,-1.6688,0.01606,0.030485,9.777e-07,0.28,0.22,0
0.011055,0.0028567,0.035527,0.0011139,0.010992,-0.0010579,0,0,0.031895,-0.012842,0,-0.0027506,0,0,0,0.035559,0.0010814,0.010992,-1.7592,0.015878,0.030745,9.8645e-07,0.29,0.22,0
0.011375,0.0028852,0.035486,0.00073853,0.010868,-0.0011204,0,0,0.032005,-0.013168,0,-0.0029131,0,0,0,0.035523,0.00070245,0.010868,-1.8449,0.015697,0.031013,9.9557e-07,0.3,0.22,0
0.011696,0.0029123,0.035442,0.00035414,0.010739,-0.0011852,0,0,0.032114,-0.0135,0,-0.0030816,0,0,0,0.035482,0.00031415,0.010739,-1.9325,0.015511,0.031286,1.0043e-06,0.31,0.22,0
0.012017,0.0029378,0.035391,-6.5112e-06,0.010615,-0.0012526,0,0,0.032208,-0.013808,0,-0.0032567,0,0,0,0.035435,-5.078e-05,0.010615,-2.0241,0.015333,0.031536,1.0116e-06,0.32,0.22,0
0.01234,0.0029625,0.035344,-0.00031637,0.010508,-0.0012924,0,0,0.032286,-0.014072,0,-0.0033603,0,0,0,0.03539,-0.00036315,0.010508,-2.0729,0.015178,0.031746,1.0172e-06,0.33,0.22,0
0.012663,0.002987,0.035296,-0.00063794,0.010398,-0.0012809,0,0,0.032368,-0.014346,0,-0.0033304,0,0,0,0.035342,-0.00068355,0.010398,-2.039,0.015019,0.03196,1.0225e-06,0.34,0.22,0
0.012987,0.0030128,0.035286,-0.0010256,0.010278,-0.001259,0,0,0.032511,-0.014695,0,-0.0032733,0,0,0,0.03533,-0.0010692,0.010278,-1.9833,0.014846,0.032259,1.0326e-06,0.35,0.22,0
0.013313,0.0030389,0.0351,-0.0016131,0.010046,-0.0012347,0,0,0.03257,-0.015157,0,-0.0032102,0,0,0,0.035141,-0.0016546,0.010046,-1.924,0.014511,0.032562,1.0324e-06,0.36,0.22,0
0.013638,0.0030673,0.035047,-0.0018484,0.0099594,-0.0013862,0,0,0.032613,-0.01535,0,-0.0036041,0,0,0,0.035099,-0.0019004,0.0099594,-2.1486,0.014386,0.032723,1.0353e-06,0.37,0.22,0
0.013965,0.0030942,0.033864,-0.002587,0.0093831,-0.0008225,0,0,0.031825,-0.015561,0,-0.0021385,0,0,0,0.033883,-0.0026055,0.0093831,-1.292,0.013553,0.032213,9.4986e-07,0.38,0.22,0
0.014275,0.0031542,0.03315,-0.003382,0.0089305,-0.0011383,0,0,0.047493,-0.021342,0,-0.002425,0,0,0,0.033242,-0.003474,0.0089305,-1.544,0.0129,0.032475,8.4821e-07,0.39,0.22,0
0.014915,0.0033054,0.033947,-0.0016539,0.0096878,-0.001181,0,0,0.063073,-0.029489,0,-0.006141,0,0,0,0.033986,-0.001693,0.0096878,-1.8979,0.013994,0.031567,9.3625e-07,0.4,0.22,0
0.015536,0.0035232,0.033598,-0.0011098,0.0097465,-0.00061488,0,0,0.062014,-0.028226,0,-0.0031974,0,0,0,0.033609,-0.0011206,0.0097465,-1.0146,0.014078,0.030771,8.9158e-07,0.41,0.22,0
0.016156,0.0037212,0.033671,-0.00013935,0.010059,-0.00093995,0,0,0.061389,-0.026517,0,-0.0048878,0,0,0,0.033697,-0.00016546,0.010059,-1.5912,0.01453,0.030083,8.7315e-07,0.42,0.22,0
0.016764,0.0039015,0.033348,-4.4135e-05,0.0099911,-0.0011528,0,0,0.060727,-0.026092,0,-0.0059944,0,0,0,0.033388,-8.3884e-05,0.0099911,-1.9748,0.014432,0.029743,8.4716e-07,0.43,0.22,0
0.01737,0.0040612,0.033218,-4.2517e-05,0.0099526,-0.0012618,0,0,0.060489,-0.025987,0,-0.0065615,0,0,0,0.033266,-9.0319e-05,0.0099526,-2.1695,0.014376,0.029639,8.3809e-07,0.44,0.22,0
0.017974,0.0042071,0.033101,-4.4271e-05,0.009917,-0.0012781,0,0,0.060278,-0.025899,0,-0.0066462,0,0,0,0.03315,-9.3484e-05,0.009917,-2.205,0.014325,0.029539,8.295e-07,0.45,0.22,0
0.018576,0.0043428,0.032967,-6.4672e-05,0.0098708,-0.0012584,0,0,0.060051,-0.025832,0,-0.0065435,0,0,0,0.033015,-0.00011254,0.0098708,-2.1785,0.014258,0.029434,8.1992e-07,0.46,0.22,0
0.019175,0.0044704,0.032836,-8.9929e-05,0.0098239,-0.00122,0,0,0.059832,-0.025776,0,-0.006344,0,0,0,0.032882,-0.00013507,0.0098239,-2.1191,0.01419,0.029334,8.1059e-07,0.47,0.22,0
0.019772,0.0045915,0.032714,-0.00010907,0.0097814,-0.0011725,0,0,0.059624,-0.025715,0,-0.0060969,0,0,0,0.032756,-0.0001509,0.0097814,-2.0432,0.014129,0.029234,8.0174e-07,0.48,0.22,0
0.020368,0.004707,0.032599,-0.00011923,0.009744,-0.0011233,0,0,0.059423,-0.025644,0,-0.0058412,0,0,0,0.032638,-0.00015775,0.009744,-1.964,0.014075,0.029135,7.933e-07,0.49,0.22,0
0.020961,0.0048175,0.032493,-0.00012161,0.0097112,-0.0010778,0,0,0.059231,-0.025565,0,-0.0056043,0,0,0,0.032528,-0.00015719,0.0097112,-1.8906,0.014027,0.029037,7.8534e-07,0.5,0.22,0
0.021552,0.0049233,0.032394,-0.00011893,0.0096826,-0.0010387,0,0,0.05905,-0.025484,0,-0.0054011,0,0,0,0.032427,-0.00015208,0.0096826,-1.8279,0.013986,0.028944,7.7795e-07,0.51,0.22,0
0.022142,0.0050248,0.032305,-0.00011401,0.0096573,-0.0010069,0,0,0.058884,-0.025406,0,-0.0052361,0,0,0,0.032336,-0.00014525,0.0096573,-1.7773,0.01395,0.028857,7.7125e-07,0.52,0.22,0
0.02273,0.0051219,0.032225,-0.0001092,0.0096349,-0.00098227,0,0,0.058736,-0.025335,0,-0.0051078,0,0,0,0.032255,-0.00013901,0.0096349,-1.7384,0.013917,0.02878,7.6532e-07,0.53,0.22,0
0.023317,0.0052148,0.032155,-0.0001062,0.0096147,-0.00096362,0,0,0.058605,-0.025274,0,-0.0050108,0,0,0,0.032184,-0.00013496,0.0096147,-1.7093,0.013888,0.028714,7.6017e-07,0.54,0.22,0
0.023902,0.0053035,0.032094,-0.00010603,0.0095964,-0.0009497,0,0,0.058494,-0.025226,0,-0.0049385,0,0,0,0.032122,-0.00013402,0.0095964,-1.6879,0.013862,0.028658,7.5577e-07,0.55,0.22,0
0.024486,0.0053881,0.032041,-0.00010917,0.0095796,-0.00093917,0,0,0.0584,-0.025191,0,-0.0048837,0,0,0,0.032069,-0.00013658,0.0095796,-1.6718,0.013837,0.028612,7.5208e-07,0.56,0.22,0
0.02507,0.0054687,0.031996,-0.00011568,0.0095641,-0.0009308,0,0,0.058323,-0.025167,0,-0.0048401,0,0,0,0.032023,-0.00014264,0.0095641,-1.6589,0.013815,0.028577,7.4902e-07,0.57,0.22,0
0.025653,0.0055453,0.031957,-0.00012532,0.0095496,-0.00092354,0,0,0.05826,-0.025155,0,-0.0048024,0,0,0,0.031984,-0.00015189,0.0095496,-1.6475,0.013794,0.028549,7.465e-07,0.58,0.22,0
0.026235,0.0056181,0.031924,-0.0001377,0.0095359,-0.00091654,0,0,0.058209,-0.025151,0,-0.004766,0,0,0,0.03195,-0.00016388,0.0095359,-1.6361,0.013774,0.028529,7.4446e-07,0.59,0.22,0
0.026817,0.0056873,0.031896,-0.00015228,0.0095231,-0.00090918,0,0,0.058169,-0.025156,0,-0.0047277,0,0,0,0.031922,-0.00017805,0.0095231,-1.6237,0.013756,0.028515,7.4281e-07,0.6,0.22,0
0.027398,0.0057529,0.031871,-0.00016853,0.0095109,-0.00090098,0,0,0.058137,-0.025166,0,-0.0046851,0,0,0,0.031897,-0.00019385,0.0095109,-1.6095,0.013738,0.028505,7.4147e-07,0.61,0.22,0
0.02798,0.0058151,0.03185,-0.00018592,0.0094993,-0.00089163,0,0,0.058112,-0.025182,0,-0.0046365,0,0,0,0.031875,-0.00021071,0.0094993,-1.593,0.013721,0.0285,7.4037e-07,0.62,0.22,0
0.028561,0.0058741,0.031832,-0.00020394,0.0094883,-0.00088095,0,0,0.058093,-0.0252,0,-0.004581,0,0,0,0.031856,-0.00022815,0.0094883,-1.574,0.013705,0.028497,7.3946e-07,0.63,0.22,0
0.029142,0.00593,0.031815,-0.00022217,0.0094779,-0.00086887,0,0,0.058077,-0.02522,0,-0.0045181,0,0,0,0.031839,-0.00024572,0.0094779,-1.5524,0.01369,0.028495,7.387e-07,0.64,0.22,0
0.029722,0.0059829,0.0318,-0.00024023,0.009468,-0.00085536,0,0,0.058064,-0.025242,0,-0.0044479,0,0,0,0.031823,-0.00026305,0.009468,-1.5281,0.013676,0.028495,7.3804e-07,0.65,0.22,0
0.030303,0.006033,0.031787,-0.00025784,0.0094587,-0.00084048,0,0,0.058053,-0.025263,0,-0.0043705,0,0,0,0.031809,-0.00027987,0.0094587,-1.5014,0.013662,0.028496,7.3745e-07,0.66,0.22,0
0.030883,0.0060804,0.031774,-0.00027475,0.0094499,-0.00082429,0,0,0.058043,-0.025284,0,-0.0042863,0,0,0,0.031795,-0.00029593,0.0094499,-1.4723,0.01365,0.028497,7.3691e-07,0.67,0.22,0
0.031464,0.0061253,0.031763,-0.00029079,0.0094415,-0.0008069,0,0,0.058035,-0.025304,0,-0.0041959,0,0,0,0.031783,-0.00031109,0.0094415,-1.4411,0.013638,0.028498,7.3641e-07,0.68,0.22,0
0.032044,0.0061677,0.031752,-0.00030584,0.0094337,-0.00078842,0,0,0.058026,-0.025323,0,-0.0040998,0,0,0,0.031771,-0.00032522,0.0094337,-1.408,0.013626,0.028499,7.3592e-07,0.69,0.22,0
0.032624,0.0062078,0.031741,-0.00031983,0.0094264,-0.00076895,0,0,0.058018,-0.02534,0,-0.0039985,0,0,0,0.03176,-0.00033826,0.0094264,-1.3731,0.013616,0.028499,7.3544e-07,0.7,0.22,0
0.033204,0.0062457,0.031731,-0.00033274,0.0094195,-0.00074861,0,0,0.05801,-0.025356,0,-0.0038928,0,0,0,0.031748,-0.0003502,0.0094195,-1.3367,0.013606,0.028499,7.3497e-07,0.71,0.22,0
0.033785,0.0062814,0.031721,-0.00034455,0.0094131,-0.00072749,0,0,0.058002,-0.02537,0,-0.003783,0,0,0,0.031738,-0.00036104,0.0094131,-1.299,0.013597,0.028498,7.345e-07,0.72,0.22,0
0.034364,0.0063152,0.031712,-0.00035529,0.0094071,-0.0007057,0,0,0.057994,-0.025382,0,-0.0036697,0,0,0,0.031728,-0.00037081,0.0094071,-1.2601,0.013588,0.028497,7.3404e-07,0.73,0.22,0
0.034944,0.006347,0.031704,-0.00036501,0.0094016,-0.00068331,0,0,0.057985,-0.025393,0,-0.0035532,0,0,0,0.031718,-0.00037956,0.0094016,-1.2201,0.01358,0.028495,7.3358e-07,0.74,0.22,0
0.035524,0.0063771,0.031695,-0.00037376,0.0093965,-0.0006604,0,0,0.057977,-0.025403,0,-0.0034341,0,0,0,0.031709,-0.00038735,0.0093965,-1.1792,0.013573,0.028493,7.3312e-07,0.75,0.22,0
0.036104,0.0064053,0.031687,-0.0003816,0.0093917,-0.00063702,0,0,0.057969,-0.025411,0,-0.0033125,0,0,0,0.0317,-0.00039425,0.0093917,-1.1375,0.013566,0.028491,7.3267e-07,0.76,0.22,0
0.036684,0.0064319,0.03168,-0.00038861,0.0093873,-0.00061323,0,0,0.05796,-0.025417,0,-0.0031888,0,0,0,0.031691,-0.00040033,0.0093873,-1.0951,0.01356,0.028488,7.3223e-07,0.77,0.22,0
0.037263,0.0064568,0.031673,-0.00039485,0.0093833,-0.00058907,0,0,0.057952,-0.025423,0,-0.0030632,0,0,0,0.031684,-0.00040567,0.0093833,-1.052,0.013554,0.028485,7.318e-07,0.78,0.22,0
0.037843,0.0064802,0.031666,-0.0004004,0.0093797,-0.00056457,0,0,0.057944,-0.025428,0,-0.0029358,0,0,0,0.031676,-0.00041034,0.0093797,-1.0084,0.013548,0.028482,7.3139e-07,0.79,0.22,0
0.038422,0.0065022,0.03166,-0.00040533,0.0093763,-0.00053976,0,0,0.057937,-0.025432,0,-0.0028068,0,0,0,0.031669,-0.00041441,0.0093763,-0.96412,0.013543,0.028479,7.3099e-07,0.8,0.22,0
0.039001,0.0065227,0.031654,-0.00040969,0.0093732,-0.00051467,0,0,0.057929,-0.025436,0,-0.0026763,0,0,0,0.031662,-0.00041795,0.0093732,-0.91937,0.013539,0.028476,7.3061e-07,0.81,0.22,0
0.039581,0.0065418,0.031648,-0.00041356,0.0093704,-0.00048931,0,0,0.057923,-0.025438,0,-0.0025444,0,0,0,0.031656,-0.00042103,0.0093704,-0.87414,0.013535,0.028473,7.3026e-07,0.82,0.22,0
0.04016,0.0065596,0.031643,-0.00041699,0.0093679,-0.00046369,0,0,0.057916,-0.025441,0,-0.0024112,0,0,0,0.03165,-0.0004237,0.0093679,-0.82844,0.013531,0.02847,7.2992e-07,0.83,0.22,0
0.040739,0.0065761,0.031639,-0.00042003,0.0093656,-0.00043783,0,0,0.05791,-0.025443,0,-0.0022767,0,0,0,0.031645,-0.00042601,0.0093656,-0.7823,0.013528,0.028467,7.2961e-07,0.84,0.22,0
0.041318,0.0065914,0.031634,-0.00042272,0.0093635,-0.00041174,0,0,0.057904,-0.025444,0,-0.002141,0,0,0,0.03164,-0.00042801,0.0093635,-0.73573,0.013525,0.028464,7.2932e-07,0.85,0.22,0
0.041897,0.0066055,0.031631,-0.00042511,0.0093616,-0.00038542,0,0,0.057899,-0.025446,0,-0.0020042,0,0,0,0.031635,-0.00042974,0.0093616,-0.68876,0.013522,0.028462,7.2905e-07,0.86,0.22,0
0.042476,0.0066185,0.031627,-0.00042722,0.00936,-0.00035889,0,0,0.057895,-0.025447,0,-0.0018662,0,0,0,0.031631,-0.00043124,0.00936,-0.6414,0.01352,0.028459,7.288e-07,0.87,0.22,0
0.043055,0.0066304,0.031624,-0.00042909,0.0093585,-0.00033216,0,0,0.05789,-0.025448,0,-0.0017272,0,0,0,0.031628,-0.00043253,0.0093585,-0.59366,0.013518,0.028457,7.2858e-07,0.88,0.22,0
0.043634,0.0066412,0.031621,-0.00043075,0.0093571,-0.00030523,0,0,0.057887,-0.025448,0,-0.0015872,0,0,0,0.031624,-0.00043365,0.0093571,-0.54556,0.013516,0.028455,7.2838e-07,0.89,0.22,0
0.044213,0.0066509,0.031619,-0.0004322,0.009356,-0.00027812,0,0,0.057883,-0.025449,0,-0.0014462,0,0,0,0.031621,-0.00043462,0.009356,-0.49713,0.013514,0.028453,7.282e-07,0.9,0.22,0
0.044791,0.0066596,0.031617,-0.00043348,0.009355,-0.00025083,0,0,0.05788,-0.02545,0,-0.0013043,0,0,0,0.031619,-0.00043545,0.009355,-0.44838,0.013513,0.028452,7.2804e-07,0.91,0.22,0
0.04537,0.0066674,0.031615,-0.0004346,0.009354,-0.00022339,0,0,0.057878,-0.025451,0,-0.0011616,0,0,0,0.031616,-0.00043616,0.009354,-0.39934,0.013511,0.02845,7.279e-07,0.92,0.22,0
0.045949,0.0066741,0.031613,-0.00043556,0.0093533,-0.0001958,0,0,0.057876,-0.025451,0,-0.0010182,0,0,0,0.031614,-0.00043676,0.0093533,-0.35003,0.01351,0.028449,7.2778e-07,0.93,0.22,0
0.046528,0.00668,0.031612,-0.00043639,0.0093526,-0.00016808,0,0,0.057874,-0.025451,0,-0.00087403,0,0,0,0.031613,-0.00043727,0.0093526,-0.30049,0.013509,0.028448,7.2768e-07,0.94,0.22,0
0.047107,0.0066849,0.031611,-0.00043707,0.0093521,-0.00014025,0,0,0.057872,-0.025452,0,-0.00072929,0,0,0,0.031611,-0.00043768,0.0093521,-0.25073,0.013509,0.028447,7.2759e-07,0.95,0.22,0
0.047685,0.0066889,0.03161,-0.00043762,0.0093517,-0.00011232,0,0,0.057871,-0.025452,0,-0.00058405,0,0,0,0.03161,-0.00043802,0.0093517,-0.2008,0.013508,0.028446,7.2752e-07,0.96,0.22,0
0.048264,0.006692,0.031609,-0.00043805,0.0093513,-8.4308e-05,0,0,0.05787,-0.025452,0,-0.0004384,0,0,0,0.031609,-0.00043827,0.0093513,-0.15073,0.013508,0.028446,7.2747e-07,0.97,0.22,0
0.048843,0.0066942,0.031609,-0.00043835,0.0093511,-5.6239e-05,0,0,0.05787,-0.025452,0,-0.00029244,0,0,0,0.031609,-0.00043845,0.0093511,-0.10055,0.013507,0.028445,7.2743e-07,0.98,0.22,0
0.049421,0.0066955,0.031608,-0.00043853,0.009351,-2.813e-05,0,0,0.057869,-0.025453,0,-0.00014627,0,0,0,0.031608,-0.00043856,0.009351,-0.050292,0.013507,0.028445,7.2741e-07,0.99,0.22,0
0.05,0.0066959,0.031608,-0.00043859,0.0093509,8.4366e-06,0,0,0.057869,-0.025453,0,4.387e-05,0,0,0,0.031608,-0.0004386,0.0093509,0.015084,0.013507,0.028445,7.274e-07,1,0.22,0
0,0,0.033515,0.014363,0.014363,0.0053329,0,0,0.049793,-2.1684e-19,0,0.027731,0,0,0,0.034899,0.012979,0.014363,14.557,0.020747,0.021262,4.8664e-07,0,0.23,0
0.00049793,0.00027731,0.033452,0.013693,0.014144,0.0053079,0,0,0.050202,-0.0011712,0,0.027601,0,0,0,0.034788,0.012358,0.014144,14.124,0.02043,0.021593,5.0515e-07,0.01,0.23,0
0.0010041,0.00052972,0.033678,0.013197,0.014062,0.0050667,0,0,0.051,-0.0022508,0,0.026347,0,0,0,0.034863,0.012012,0.014062,13.162,0.020312,0.021898,5.2337e-07,0.02,0.23,0
0.0015179,0.00075811,0.033904,0.01274,0.013993,0.0048414,0,0,0.051769,-0.0032592,0,0.025175,0,0,0,0.034959,0.011685,0.013993,12.292,0.020213,0.02221,5.4228e-07,0.03,0.23,0
0.0020394,0.00096222,0.034148,0.012311,0.013938,0.0046124,0,0,0.052547,-0.0042286,0,0.023985,0,0,0,0.035083,0.011377,0.013938,11.451,0.020133,0.022534,5.6219e-07,0.04,0.23,0
0.0025689,0.0011412,0.034396,0.011872,0.01388,0.0043721,0,0,0.053339,-0.0052209,0,0.022735,0,0,0,0.035215,0.011053,0.01388,10.609,0.020049,0.022879,5.8354e-07,0.05,0.23,0
0.0031062,0.0012936,0.034534,0.011389,0.013777,0.0041472,0,0,0.053969,-0.006209,0,0.021565,0,0,0,0.035255,0.010668,0.013777,9.8578,0.0199,0.023189,6.0181e-07,0.06,0.23,0
0.0036483,0.0014172,0.034274,0.010891,0.01355,0.0037617,0,0,0.053883,-0.0069117,0,0.019561,0,0,0,0.034864,0.010301,0.01355,8.9178,0.019572,0.023111,5.9196e-07,0.07,0.23,0
0.0041839,0.0014863,0.035144,0.010754,0.013769,0.0036526,0,0,0.055573,-0.0078391,0,0.018993,0,0,0,0.035679,0.010219,0.013769,8.3371,0.019889,0.023883,6.4788e-07,0.08,0.23,0
0.0047597,0.0015467,0.039089,0.010938,0.015008,0.0032728,0,0,0.044003,-0.0072721,0,0.01245,0,0,0,0.03947,0.010557,0.015008,6.7005,0.021678,0.026965,1.0108e-06,0.09,0.23,0
0.0051319,0.0016473,0.031054,0.0079717,0.011708,0.00066946,0,0,0.034453,-0.0064439,0,0.0024728,0,0,0,0.031073,0.007952,0.011708,1.7165,0.016911,0.021493,5.529e-07,0.1,0.23,0
0.0054212,0.0017506,0.035651,0.0088261,0.013343,0.0014384,0,0,0.029,-0.005872,0,0.0037398,0,0,0,0.035727,0.0087492,0.013343,3.0606,0.019273,0.025,7.1202e-07,0.11,0.23,0
0.0057118,0.0018438,0.035829,0.0080304,0.013158,0.0012723,0,0,0.029473,-0.0066657,0,0.003308,0,0,0,0.035887,0.0079723,0.013158,2.6151,0.019006,0.025717,7.5524e-07,0.12,0.23,0
0.0060106,0.0019337,0.036261,0.0076357,0.013169,0.0011593,0,0,0.030019,-0.0071931,0,0.0030141,0,0,0,0.036307,0.0075889,0.013169,2.3154,0.019022,0.026375,8.0198e-07,0.13,0.23,0
0.0063122,0.0020171,0.03633,0.0070941,0.013027,0.00095232,0,0,0.030293,-0.0077129,0,0.002476,0,0,0,0.036361,0.0070631,0.013027,1.8637,0.018817,0.026818,8.2781e-07,0.14,0.23,0
0.0066165,0.0020951,0.036377,0.0066172,0.012898,0.0007703,0,0,0.030523,-0.0081654,0,0.0020028,0,0,0,0.036397,0.0065973,0.012898,1.4817,0.018631,0.027202,8.4977e-07,0.15,0.23,0
0.0069227,0.0021675,0.036368,0.0061121,0.012744,0.00058269,0,0,0.030711,-0.0086214,0,0.001515,0,0,0,0.036379,0.0061009,0.012744,1.1029,0.018408,0.027564,8.6859e-07,0.16,0.23,0
0.0072307,0.0022347,0.036349,0.0056323,0.012594,0.00039063,0,0,0.030881,-0.0090506,0,0.0010156,0,0,0,0.036354,0.0056273,0.012594,0.72848,0.018192,0.027903,8.8565e-07,0.17,0.23,0
0.0075403,0.0022965,0.036313,0.0051888,0.01245,0.0001978,0,0,0.031021,-0.0094402,0,0.00051428,0,0,0,0.036314,0.0051875,0.01245,0.36411,0.017984,0.028205,8.9995e-07,0.18,0.23,0
0.0078511,0.0023533,0.036262,0.0047813,0.012313,1.4748e-05,0,0,0.031133,-0.009791,0,3.8344e-05,0,0,0,0.036262,0.0047813,0.012313,0.026842,0.017785,0.028472,9.1164e-07,0.19,0.23,0
0.008163,0.0024053,0.036197,0.0043997,0.012179,-0.00015224,0,0,0.031224,-0.010113,0,-0.00039583,0,0,0,0.036198,0.004399,0.012179,-0.27432,0.017592,0.028711,9.2126e-07,0.2,0.23,0
0.0084756,0.002453,0.036124,0.0040366,0.012048,-0.00030193,0,0,0.031298,-0.010415,0,-0.00078503,0,0,0,0.036126,0.0040338,0.012048,-0.53908,0.017403,0.02893,9.2936e-07,0.21,0.23,0
0.0087889,0.0024968,0.036045,0.0036881,0.01192,-0.00043342,0,0,0.031363,-0.010701,0,-0.0011269,0,0,0,0.036051,0.0036823,0.01192,-0.76728,0.017218,0.029137,9.3638e-07,0.22,0.23,0
0.0091028,0.0025372,0.035965,0.0033472,0.011794,-0.00054631,0,0,0.031422,-0.01098,0,-0.0014204,0,0,0,0.035974,0.0033381,0.011794,-0.95929,0.017035,0.029337,9.4275e-07,0.23,0.23,0
0.0094174,0.0025746,0.035885,0.0030057,0.011667,-0.00064197,0,0,0.031483,-0.01126,0,-0.0016691,0,0,0,0.035897,0.0029932,0.011667,-1.1181,0.016852,0.029538,9.4898e-07,0.24,0.23,0
0.0097325,0.0026095,0.035808,0.0026566,0.011539,-0.00072423,0,0,0.031549,-0.011548,0,-0.001883,0,0,0,0.035824,0.0026408,0.011539,-1.2509,0.016668,0.029749,9.5548e-07,0.25,0.23,0
0.010048,0.0026422,0.035735,0.0022971,0.01141,-0.00079818,0,0,0.031623,-0.011846,0,-0.0020753,0,0,0,0.035754,0.0022781,0.01141,-1.3666,0.016481,0.029972,9.6245e-07,0.26,0.23,0
0.010365,0.0026728,0.035667,0.0019286,0.011279,-0.00086835,0,0,0.031705,-0.012155,0,-0.0022577,0,0,0,0.03569,0.0019062,0.011279,-1.4733,0.016292,0.030208,9.6989e-07,0.27,0.23,0
0.010682,0.0027016,0.035604,0.0015545,0.011148,-0.00093722,0,0,0.031794,-0.012471,0,-0.0024368,0,0,0,0.03563,0.0015287,0.011148,-1.5755,0.016102,0.030453,9.7763e-07,0.28,0.23,0
0.011001,0.0027285,0.035545,0.0011779,0.011017,-0.0010056,0,0,0.031886,-0.012791,0,-0.0026144,0,0,0,0.035574,0.0011485,0.011017,-1.6745,0.015913,0.030705,9.8552e-07,0.29,0.23,0
0.01132,0.0027538,0.035487,0.00079931,0.010886,-0.0010734,0,0,0.031982,-0.013113,0,-0.0027907,0,0,0,0.03552,0.00076612,0.010886,-1.7707,0.015724,0.030961,9.9334e-07,0.3,0.23,0
0.01164,0.0027776,0.035429,0.00042388,0.010756,-0.0011395,0,0,0.032075,-0.013431,0,-0.0029626,0,0,0,0.035466,0.00038683,0.010756,-1.8624,0.015536,0.031214,1.0007e-06,0.31,0.23,0
0.011962,0.0028001,0.035369,5.9261e-05,0.010629,-0.0011961,0,0,0.032163,-0.01374,0,-0.00311,0,0,0,0.03541,1.8787e-05,0.010629,-1.938,0.015352,0.031458,1.0073e-06,0.32,0.23,0
0.012284,0.0028219,0.035311,-0.00029726,0.010504,-0.0012304,0,0,0.032249,-0.014042,0,-0.0031991,0,0,0,0.035353,-0.00033973,0.010504,-1.9767,0.015173,0.031694,1.0133e-06,0.33,0.23,0
0.012607,0.0028435,0.03526,-0.0006668,0.010378,-0.0012353,0,0,0.032347,-0.014358,0,-0.0032117,0,0,0,0.035303,-0.00070922,0.010378,-1.9669,0.014991,0.031946,1.0199e-06,0.34,0.23,0
0.012931,0.0028655,0.035176,-0.001103,0.010222,-0.0012095,0,0,0.03244,-0.014722,0,-0.0031448,0,0,0,0.035216,-0.0011433,0.010222,-1.9074,0.014765,0.032217,1.0248e-06,0.35,0.23,0
0.013255,0.0028887,0.035064,-0.0015342,0.010059,-0.001174,0,0,0.032506,-0.015071,0,-0.0030523,0,0,0,0.035101,-0.0015718,0.010059,-1.8354,0.01453,0.03246,1.0267e-06,0.36,0.23,0
0.013581,0.0029132,0.034653,-0.0021096,0.0097629,-0.00097738,0,0,0.032357,-0.015434,0,-0.0025412,0,0,0,0.034679,-0.0021355,0.0097629,-1.5219,0.014102,0.032539,1.0052e-06,0.37,0.23,0
0.013903,0.0029443,0.034679,-0.0024346,0.0096732,-0.0010091,0,0,0.032507,-0.01574,0,-0.0026238,0,0,0,0.034706,-0.002462,0.0096732,-1.5564,0.013972,0.032828,1.0157e-06,0.38,0.23,0
0.014231,0.0029593,0.030483,-0.0019967,0.0085458,0.00023087,0,0,0.039062,-0.018576,0,0.0010771,0,0,0,0.030486,-0.0019997,0.0085458,0.50888,0.012344,0.028705,8.2192e-07,0.39,0.23,0
0.014653,0.0030225,0.038072,-0.0019779,0.010828,-0.0012498,0,0,0.049747,-0.023068,0,-0.0043894,0,0,0,0.038112,-0.0020172,0.010828,-1.7496,0.015641,0.035496,1.464e-06,0.4,0.23,0
0.015302,0.0032378,0.034407,-0.00080388,0.010081,-0.00084567,0,0,0.063248,-0.028301,0,-0.0043975,0,0,0,0.034428,-0.00082418,0.010081,-1.375,0.014561,0.03126,9.4954e-07,0.41,0.23,0
0.015918,0.003459,0.033929,4.3386e-05,0.010192,-0.00078105,0,0,0.061717,-0.026386,0,-0.0040614,0,0,0,0.033947,2.5393e-05,0.010192,-1.3197,0.014721,0.030152,8.8736e-07,0.42,0.23,0
0.016536,0.0036393,0.033975,-3.1317e-05,0.010183,-0.0010187,0,0,0.061859,-0.026558,0,-0.0052975,0,0,0,0.034006,-6.1808e-05,0.010183,-1.7144,0.014709,0.030274,8.9441e-07,0.43,0.23,0
0.017155,0.003799,0.033907,-1.2628e-07,0.010172,-0.0010769,0,0,0.061711,-0.026448,0,-0.0055999,0,0,0,0.033941,-3.4294e-05,0.010172,-1.8173,0.014693,0.030195,8.886e-07,0.44,0.23,0
0.01777,0.0039457,0.033694,-2.8996e-05,0.0101,-0.0010982,0,0,0.061346,-0.026334,0,-0.0057107,0,0,0,0.03373,-6.4722e-05,0.0101,-1.8632,0.014588,0.030032,8.7295e-07,0.45,0.23,0
0.018382,0.0040821,0.033483,-8.4544e-05,0.010019,-0.0010963,0,0,0.061004,-0.02627,0,-0.0057005,0,0,0,0.033518,-0.00012031,0.010019,-1.8685,0.014472,0.029888,8.5814e-07,0.46,0.23,0
0.01899,0.0042104,0.033299,-0.0001287,0.009951,-0.0010715,0,0,0.060704,-0.026207,0,-0.0055717,0,0,0,0.033333,-0.00016301,0.009951,-1.834,0.014374,0.029757,8.4514e-07,0.47,0.23,0
0.019596,0.0043322,0.033133,-0.0001535,0.0098939,-0.0010341,0,0,0.060422,-0.026123,0,-0.0053773,0,0,0,0.033165,-0.00018559,0.0098939,-1.7777,0.014291,0.029626,8.3307e-07,0.48,0.23,0
0.020199,0.0044486,0.032981,-0.00016125,0.0098459,-0.00099468,0,0,0.060151,-0.026019,0,-0.0051724,0,0,0,0.033011,-0.00019108,0.0098459,-1.7175,0.014222,0.029493,8.2165e-07,0.49,0.23,0
0.020799,0.00456,0.032841,-0.00015722,0.0098052,-0.00095972,0,0,0.059894,-0.025902,0,-0.0049906,0,0,0,0.032869,-0.00018511,0.0098052,-1.6645,0.014163,0.029363,8.11e-07,0.5,0.23,0
0.021397,0.0046669,0.032715,-0.00014683,0.0097705,-0.00093207,0,0,0.059656,-0.025785,0,-0.0048468,0,0,0,0.032741,-0.00017324,0.0097705,-1.6234,0.014113,0.02924,8.0129e-07,0.51,0.23,0
0.021992,0.0047693,0.032602,-0.00013452,0.0097404,-0.00091218,0,0,0.059441,-0.025675,0,-0.0047433,0,0,0,0.032628,-0.00015992,0.0097404,-1.5948,0.014069,0.029128,7.9264e-07,0.52,0.23,0
0.022585,0.0048673,0.032503,-0.00012347,0.009714,-0.00089916,0,0,0.059252,-0.025577,0,-0.0046757,0,0,0,0.032528,-0.00014824,0.009714,-1.5774,0.014031,0.02903,7.8512e-07,0.53,0.23,0
0.023177,0.0049609,0.032417,-0.0001157,0.0096905,-0.00089155,0,0,0.05909,-0.025496,0,-0.0046361,0,0,0,0.032442,-0.00014011,0.0096905,-1.5686,0.013997,0.028947,7.7868e-07,0.54,0.23,0
0.023767,0.0050501,0.032343,-0.00011224,0.0096693,-0.00088773,0,0,0.058952,-0.025432,0,-0.0046162,0,0,0,0.032368,-0.0001365,0.0096693,-1.5656,0.013967,0.028878,7.7326e-07,0.55,0.23,0
0.024356,0.0051351,0.03228,-0.00011343,0.0096499,-0.00088618,0,0,0.058838,-0.025385,0,-0.0046081,0,0,0,0.032304,-0.00013765,0.0096499,-1.5659,0.013939,0.028823,7.6876e-07,0.56,0.23,0
0.024944,0.005216,0.032226,-0.00011911,0.009632,-0.00088561,0,0,0.058744,-0.025353,0,-0.0046052,0,0,0,0.03225,-0.00014334,0.009632,-1.5672,0.013913,0.028779,7.6506e-07,0.57,0.23,0
0.025531,0.0052928,0.03218,-0.00012883,0.0096153,-0.00088499,0,0,0.058667,-0.025335,0,-0.004602,0,0,0,0.032204,-0.00015305,0.0096153,-1.5679,0.013889,0.028746,7.6203e-07,0.58,0.23,0
0.026117,0.0053657,0.03214,-0.00014193,0.0095995,-0.00088356,0,0,0.058606,-0.025328,0,-0.0045945,0,0,0,0.032164,-0.0001661,0.0095995,-1.5666,0.013866,0.028721,7.5956e-07,0.59,0.23,0
0.026703,0.0054348,0.032106,-0.00015771,0.0095846,-0.00088077,0,0,0.058556,-0.02533,0,-0.00458,0,0,0,0.03213,-0.00018174,0.0095846,-1.5626,0.013844,0.028703,7.5754e-07,0.6,0.23,0
0.027288,0.0055004,0.032077,-0.00017545,0.0095704,-0.00087628,0,0,0.058517,-0.025339,0,-0.0045567,0,0,0,0.032101,-0.00019924,0.0095704,-1.5552,0.013824,0.028691,7.5588e-07,0.61,0.23,0
0.027873,0.0055625,0.032051,-0.00019448,0.009557,-0.00086992,0,0,0.058485,-0.025354,0,-0.0045236,0,0,0,0.032074,-0.00021793,0.009557,-1.5442,0.013805,0.028683,7.545e-07,0.62,0.23,0
0.028458,0.0056213,0.032028,-0.00021421,0.0095441,-0.00086161,0,0,0.058458,-0.025372,0,-0.0044804,0,0,0,0.032051,-0.00023722,0.0095441,-1.5297,0.013786,0.028677,7.5333e-07,0.63,0.23,0
0.029043,0.0056769,0.032007,-0.00023411,0.009532,-0.00085139,0,0,0.058436,-0.025392,0,-0.0044272,0,0,0,0.03203,-0.00025658,0.009532,-1.5116,0.013768,0.028674,7.5231e-07,0.64,0.23,0
0.029627,0.0057296,0.031988,-0.00025378,0.0095204,-0.00083936,0,0,0.058417,-0.025413,0,-0.0043647,0,0,0,0.03201,-0.00027561,0.0095204,-1.4902,0.013752,0.028672,7.514e-07,0.65,0.23,0
0.030211,0.0057795,0.031971,-0.00027287,0.0095094,-0.00082563,0,0,0.0584,-0.025434,0,-0.0042933,0,0,0,0.031992,-0.000294,0.0095094,-1.4658,0.013736,0.02867,7.5057e-07,0.66,0.23,0
0.030795,0.0058267,0.031954,-0.00029114,0.009499,-0.00081036,0,0,0.058384,-0.025454,0,-0.0042139,0,0,0,0.031975,-0.00031149,0.009499,-1.4387,0.013721,0.028669,7.4979e-07,0.67,0.23,0
0.031379,0.0058714,0.031939,-0.0003084,0.0094891,-0.00079372,0,0,0.058369,-0.025474,0,-0.0041274,0,0,0,0.031958,-0.00032792,0.0094891,-1.4091,0.013706,0.028667,7.4904e-07,0.68,0.23,0
0.031962,0.0059136,0.031924,-0.00032454,0.0094798,-0.00077587,0,0,0.058355,-0.025491,0,-0.0040345,0,0,0,0.031943,-0.00034319,0.0094798,-1.3774,0.013693,0.028666,7.4832e-07,0.69,0.23,0
0.032546,0.0059535,0.03191,-0.00033949,0.0094711,-0.00075694,0,0,0.058341,-0.025508,0,-0.0039361,0,0,0,0.031928,-0.00035724,0.0094711,-1.3438,0.01368,0.028664,7.476e-07,0.7,0.23,0
0.033129,0.0059913,0.031896,-0.00035322,0.0094629,-0.0007371,0,0,0.058327,-0.025522,0,-0.0038329,0,0,0,0.031913,-0.00037006,0.0094629,-1.3086,0.013669,0.028661,7.469e-07,0.71,0.23,0
0.033712,0.0060269,0.031883,-0.00036576,0.0094553,-0.00071645,0,0,0.058313,-0.025535,0,-0.0037255,0,0,0,0.031899,-0.00038167,0.0094553,-1.272,0.013658,0.028658,7.462e-07,0.72,0.23,0
0.034295,0.0060606,0.031871,-0.00037714,0.0094481,-0.00069511,0,0,0.058299,-0.025546,0,-0.0036146,0,0,0,0.031886,-0.00039212,0.0094481,-1.2343,0.013647,0.028654,7.4552e-07,0.73,0.23,0
0.034878,0.0060923,0.031859,-0.00038741,0.0094414,-0.00067317,0,0,0.058285,-0.025555,0,-0.0035005,0,0,0,0.031873,-0.00040146,0.0094414,-1.1954,0.013638,0.02865,7.4484e-07,0.74,0.23,0
0.035461,0.0061222,0.031847,-0.00039665,0.0094352,-0.00065072,0,0,0.058271,-0.025563,0,-0.0033837,0,0,0,0.03186,-0.00040977,0.0094352,-1.1557,0.013629,0.028646,7.4418e-07,0.75,0.23,0
0.036044,0.0061504,0.031836,-0.00040492,0.0094294,-0.00062781,0,0,0.058258,-0.025569,0,-0.0032646,0,0,0,0.031849,-0.00041714,0.0094294,-1.1151,0.01362,0.028641,7.4353e-07,0.76,0.23,0
0.036626,0.0061769,0.031826,-0.00041231,0.0094241,-0.00060449,0,0,0.058245,-0.025575,0,-0.0031434,0,0,0,0.031837,-0.00042364,0.0094241,-1.0738,0.013613,0.028636,7.4289e-07,0.77,0.23,0
0.037208,0.0062018,0.031816,-0.0004189,0.0094191,-0.00058082,0,0,0.058232,-0.025579,0,-0.0030202,0,0,0,0.031827,-0.00042936,0.0094191,-1.0319,0.013605,0.028632,7.4228e-07,0.78,0.23,0
0.037791,0.0062252,0.031807,-0.00042477,0.0094146,-0.00055681,0,0,0.05822,-0.025582,0,-0.0028954,0,0,0,0.031816,-0.00043438,0.0094146,-0.98941,0.013599,0.028626,7.417e-07,0.79,0.23,0
0.038373,0.0062471,0.031798,-0.00042999,0.0094104,-0.0005325,0,0,0.058208,-0.025585,0,-0.002769,0,0,0,0.031807,-0.00043878,0.0094104,-0.94634,0.013593,0.028622,7.4114e-07,0.8,0.23,0
0.038955,0.0062676,0.03179,-0.00043463,0.0094066,-0.0005079,0,0,0.058196,-0.025587,0,-0.0026411,0,0,0,0.031798,-0.00044263,0.0094066,-0.90276,0.013587,0.028617,7.406e-07,0.81,0.23,0
0.039537,0.0062867,0.031782,-0.00043876,0.009403,-0.00048303,0,0,0.058186,-0.025589,0,-0.0025118,0,0,0,0.031789,-0.000446,0.009403,-0.85867,0.013582,0.028612,7.401e-07,0.82,0.23,0
0.040119,0.0063044,0.031775,-0.00044245,0.0093998,-0.0004579,0,0,0.058176,-0.02559,0,-0.0023811,0,0,0,0.031782,-0.00044895,0.0093998,-0.8141,0.013577,0.028607,7.3963e-07,0.83,0.23,0
0.0407,0.0063209,0.031769,-0.00044573,0.0093969,-0.00043251,0,0,0.058167,-0.025591,0,-0.0022491,0,0,0,0.031774,-0.00045153,0.0093969,-0.76907,0.013573,0.028603,7.3919e-07,0.84,0.23,0
0.041282,0.0063362,0.031763,-0.00044865,0.0093942,-0.00040688,0,0,0.058158,-0.025591,0,-0.0021158,0,0,0,0.031768,-0.00045379,0.0093942,-0.72359,0.013569,0.028599,7.3879e-07,0.85,0.23,0
0.041863,0.0063504,0.031757,-0.00045127,0.0093918,-0.00038101,0,0,0.05815,-0.025592,0,-0.0019813,0,0,0,0.031762,-0.00045577,0.0093918,-0.67766,0.013566,0.028595,7.3841e-07,0.86,0.23,0
0.042445,0.0063633,0.031752,-0.0004536,0.0093896,-0.00035491,0,0,0.058143,-0.025592,0,-0.0018455,0,0,0,0.031756,-0.00045751,0.0093896,-0.6313,0.013563,0.028592,7.3807e-07,0.87,0.23,0
0.043026,0.0063752,0.031748,-0.00045568,0.0093877,-0.00032859,0,0,0.058137,-0.025593,0,-0.0017087,0,0,0,0.031751,-0.00045903,0.0093877,-0.58454,0.01356,0.028588,7.3776e-07,0.88,0.23,0
0.043608,0.0063859,0.031744,-0.00045754,0.0093859,-0.00030205,0,0,0.058131,-0.025593,0,-0.0015707,0,0,0,0.031747,-0.00046037,0.0093859,-0.53737,0.013557,0.028585,7.3747e-07,0.89,0.23,0
0.044189,0.0063957,0.03174,-0.00045919,0.0093843,-0.00027531,0,0,0.058125,-0.025593,0,-0.0014316,0,0,0,0.031743,-0.00046154,0.0093843,-0.48984,0.013555,0.028583,7.3722e-07,0.9,0.23,0
0.04477,0.0064044,0.031737,-0.00046064,0.0093829,-0.00024837,0,0,0.058121,-0.025593,0,-0.0012915,0,0,0,0.031739,-0.00046256,0.0093829,-0.44194,0.013553,0.02858,7.37e-07,0.91,0.23,0
0.045351,0.0064121,0.031734,-0.00046192,0.0093817,-0.00022126,0,0,0.058117,-0.025594,0,-0.0011505,0,0,0,0.031736,-0.00046344,0.0093817,-0.39372,0.013551,0.028578,7.368e-07,0.92,0.23,0
0.045933,0.0064189,0.031732,-0.00046304,0.0093807,-0.00019398,0,0,0.058113,-0.025594,0,-0.0010087,0,0,0,0.031733,-0.0004642,0.0093807,-0.3452,0.01355,0.028576,7.3663e-07,0.93,0.23,0
0.046514,0.0064247,0.03173,-0.00046399,0.0093798,-0.00016656,0,0,0.058111,-0.025594,0,-0.00086609,0,0,0,0.031731,-0.00046485,0.0093798,-0.29641,0.013549,0.028575,7.3648e-07,0.94,0.23,0
0.047095,0.0064296,0.031728,-0.00046479,0.0093791,-0.000139,0,0,0.058108,-0.025594,0,-0.0007228,0,0,0,0.031729,-0.00046539,0.0093791,-0.24738,0.013548,0.028574,7.3636e-07,0.95,0.23,0
0.047676,0.0064336,0.031727,-0.00046543,0.0093785,-0.00011134,0,0,0.058106,-0.025594,0,-0.00057894,0,0,0,0.031727,-0.00046582,0.0093785,-0.19815,0.013547,0.028573,7.3626e-07,0.96,0.23,0
0.048257,0.0064367,0.031726,-0.00046594,0.009378,-8.3581e-05,0,0,0.058105,-0.025594,0,-0.00043462,0,0,0,0.031726,-0.00046615,0.009378,-0.14876,0.013546,0.028572,7.3619e-07,0.97,0.23,0
0.048838,0.0064389,0.031725,-0.00046629,0.0093777,-5.5759e-05,0,0,0.058104,-0.025594,0,-0.00028995,0,0,0,0.031725,-0.00046639,0.0093777,-0.099241,0.013546,0.028571,7.3614e-07,0.98,0.23,0
0.049419,0.0064402,0.031725,-0.0004665,0.0093775,-2.7891e-05,0,0,0.058103,-0.025594,0,-0.00014503,0,0,0,0.031725,-0.00046653,0.0093775,-0.049642,0.013545,0.028571,7.361e-07,0.99,0.23,0
0.05,0.0064407,0.031725,-0.00046658,0.0093774,8.4319e-06,0,0,0.058103,-0.025594,0,4.3846e-05,0,0,0,0.031725,-0.00046658,0.0093774,0.015008,0.013545,0.028571,7.3609e-07,1,0.23,0
0,0,0.03425,0.014678,0.014678,0.0050957,0,0,0.050885,1.1926e-18,0,0.026498,0,0,0,0.035497,0.013431,0.014678,13.754,0.021202,0.021469,5.0247e-07,0,0.24,0
0.00050885,0.00026498,0.034178,0.013939,0.014435,0.0050705,0,0,0.051331,-0.0012897,0,0.026367,0,0,0,0.035377,0.01274,0.014435,13.307,0.020851,0.021839,5.2411e-07,0.01,0.24,0
0.0010266,0.00050625,0.034425,0.013418,0.014353,0.0048364,0,0,0.052188,-0.002431,0,0.025149,0,0,0,0.035485,0.012358,0.014353,12.362,0.020732,0.022197,5.4643e-07,0.02,0.24,0
0.0015526,0.00072443,0.03467,0.012964,0.01429,0.0046095,0,0,0.052988,-0.0034487,0,0.02397,0,0,0,0.035609,0.012025,0.01429,11.506,0.020641,0.022536,5.6788e-07,0.03,0.24,0
0.0020864,0.00091894,0.034939,0.012569,0.014252,0.004356,0,0,0.053785,-0.0043766,0,0.022651,0,0,0,0.035757,0.011751,0.014252,10.639,0.020587,0.022859,5.8875e-07,0.04,0.24,0
0.0026283,0.0010877,0.035337,0.012238,0.014273,0.0040562,0,0,0.054769,-0.0052907,0,0.021092,0,0,0,0.036029,0.011546,0.014273,9.6754,0.020616,0.02324,6.1484e-07,0.05,0.24,0
0.0031818,0.0012293,0.035931,0.01184,0.014331,0.0037191,0,0,0.056159,-0.0064775,0,0.019339,0,0,0,0.036492,0.011279,0.014331,8.5791,0.020701,0.023834,6.5708e-07,0.06,0.24,0
0.0037515,0.001343,0.036832,0.011542,0.014512,0.0034277,0,0,0.058031,-0.0077217,0,0.017824,0,0,0,0.037288,0.011086,0.014512,7.5836,0.020962,0.024668,7.2108e-07,0.07,0.24,0
0.0043424,0.0014204,0.042221,0.012231,0.016335,0.0041923,0,0,0.046899,-0.0070387,0,0.015828,0,0,0,0.042806,0.011646,0.016335,8.049,0.023596,0.029103,1.3099e-06,0.08,0.24,0
0.0047504,0.0014804,0.033355,0.0091226,0.012743,0.0013501,0,0,0.036996,-0.0063621,0,0.0047782,0,0,0,0.03343,0.0090476,0.012743,3.1539,0.018407,0.022761,6.485e-07,0.09,0.24,0
0.0050442,0.001581,0.037004,0.0092533,0.013877,0.0013929,0,0,0.030065,-0.0060111,0,0.0036215,0,0,0,0.037074,0.0091836,0.013877,2.8662,0.020045,0.025865,7.9095e-07,0.1,0.24,0
0.0053517,0.001688,0.037341,0.0089471,0.013886,0.001413,0,0,0.030491,-0.006421,0,0.0036739,0,0,0,0.037411,0.0088769,0.013886,2.842,0.020058,0.026388,8.3026e-07,0.11,0.24,0
0.005654,0.001778,0.036782,0.0084472,0.013569,0.0012198,0,0,0.030177,-0.0066581,0,0.0031715,0,0,0,0.036835,0.0083948,0.013569,2.4604,0.019599,0.026238,8.0749e-07,0.12,0.24,0
0.0059553,0.001862,0.036563,0.0078164,0.013314,0.0010985,0,0,0.030224,-0.0071466,0,0.002856,0,0,0,0.036605,0.0077745,0.013314,2.1852,0.019231,0.026499,8.1663e-07,0.13,0.24,0
0.0062585,0.0019407,0.036551,0.0073022,0.013156,0.00094956,0,0,0.030414,-0.00761,0,0.0024688,0,0,0,0.036582,0.0072714,0.013156,1.8575,0.019003,0.026856,8.361e-07,0.14,0.24,0
0.0065635,0.0020139,0.036528,0.00679,0.012996,0.0007781,0,0,0.030593,-0.0080671,0,0.0020231,0,0,0,0.036549,0.0067697,0.012996,1.4978,0.018771,0.027206,8.5442e-07,0.15,0.24,0
0.0068704,0.0020819,0.036503,0.0062988,0.012841,0.0006037,0,0,0.030761,-0.0085043,0,0.0015696,0,0,0,0.036515,0.0062867,0.012841,1.1446,0.018548,0.027543,8.717e-07,0.16,0.24,0
0.0071788,0.0021448,0.036464,0.0058228,0.012686,0.0004256,0,0,0.030912,-0.0089223,0,0.0011066,0,0,0,0.03647,0.0058169,0.012686,0.79562,0.018324,0.027861,8.8726e-07,0.17,0.24,0
0.0074886,0.0022028,0.036416,0.0053738,0.012537,0.00024882,0,0,0.031042,-0.0093119,0,0.00064695,0,0,0,0.036418,0.0053718,0.012537,0.45923,0.018109,0.028155,9.0093e-07,0.18,0.24,0
0.0077996,0.002256,0.036355,0.0049522,0.012392,7.904e-05,0,0,0.031152,-0.0096721,0,0.0002055,0,0,0,0.036356,0.004952,0.012392,0.14421,0.0179,0.028423,9.1255e-07,0.19,0.24,0
0.0081116,0.0023047,0.036285,0.0045543,0.012252,-7.8859e-05,0,0,0.031243,-0.010007,0,-0.00020503,0,0,0,0.036285,0.0045541,0.012252,-0.14239,0.017697,0.028668,9.2235e-07,0.2,0.24,0
0.0084245,0.0023493,0.036206,0.004175,0.012114,-0.00022206,0,0,0.031319,-0.010321,0,-0.00057736,0,0,0,0.036208,0.0041735,0.012114,-0.39719,0.017499,0.028894,9.3069e-07,0.21,0.24,0
0.008738,0.0023902,0.036123,0.003809,0.011979,-0.00034948,0,0,0.031386,-0.010622,0,-0.00090865,0,0,0,0.036126,0.0038052,0.011979,-0.61958,0.017304,0.029108,9.3795e-07,0.22,0.24,0
0.0090522,0.0024277,0.036036,0.0034506,0.011846,-0.00046121,0,0,0.031447,-0.010914,0,-0.0011991,0,0,0,0.036043,0.0034441,0.011846,-0.81074,0.017111,0.029315,9.4452e-07,0.23,0.24,0
0.009367,0.0024623,0.03595,0.0030941,0.011713,-0.00055875,0,0,0.031508,-0.011205,0,-0.0014528,0,0,0,0.035959,0.0030846,0.011713,-0.974,0.016919,0.029522,9.508e-07,0.24,0.24,0
0.0096823,0.0024943,0.035865,0.0027346,0.01158,-0.00064496,0,0,0.031571,-0.011499,0,-0.0016769,0,0,0,0.035878,0.002722,0.01158,-1.1148,0.016727,0.029733,9.5708e-07,0.25,0.24,0
0.0099984,0.002524,0.035784,0.0023696,0.011446,-0.00072344,0,0,0.031639,-0.011799,0,-0.0018809,0,0,0,0.035799,0.002354,0.011446,-1.2397,0.016533,0.029953,9.6355e-07,0.26,0.24,0
0.010315,0.0025515,0.035705,0.0019991,0.011311,-0.00079756,0,0,0.031712,-0.012106,0,-0.0020737,0,0,0,0.035724,0.0019802,0.011311,-1.3547,0.016338,0.03018,9.7022e-07,0.27,0.24,0
0.010633,0.0025771,0.03563,0.0016241,0.011176,-0.00086965,0,0,0.03179,-0.012418,0,-0.0022611,0,0,0,0.035652,0.0016019,0.011176,-1.464,0.016143,0.030415,9.7703e-07,0.28,0.24,0
0.010951,0.0026009,0.035557,0.0012465,0.011041,-0.00094071,0,0,0.031871,-0.012733,0,-0.0024458,0,0,0,0.035583,0.0012207,0.011041,-1.5693,0.015948,0.030655,9.8386e-07,0.29,0.24,0
0.01127,0.002623,0.035485,0.00086776,0.010906,-0.0010103,0,0,0.031953,-0.01305,0,-0.0026269,0,0,0,0.035515,0.0008383,0.010906,-1.6704,0.015753,0.030898,9.9055e-07,0.3,0.24,0
0.01159,0.0026436,0.035415,0.00048972,0.010771,-0.0010759,0,0,0.032036,-0.013366,0,-0.0027972,0,0,0,0.035448,0.00045661,0.010771,-1.7628,0.015559,0.031143,9.9701e-07,0.31,0.24,0
0.011911,0.002663,0.035347,0.00011236,0.010638,-0.0011317,0,0,0.032122,-0.013683,0,-0.0029423,0,0,0,0.035383,7.6054e-05,0.010638,-1.8377,0.015366,0.031388,1.0033e-06,0.32,0.24,0
0.012232,0.0026816,0.035286,-0.00026995,0.010505,-0.0011704,0,0,0.032216,-0.014007,0,-0.0030432,0,0,0,0.035325,-0.00030844,0.010505,-1.8834,0.015174,0.031644,1.01e-06,0.33,0.24,0
0.012555,0.0026999,0.035235,-0.00067399,0.010368,-0.0011853,0,0,0.032326,-0.014355,0,-0.0030817,0,0,0,0.035274,-0.00071307,0.010368,-1.8885,0.014976,0.031923,1.0175e-06,0.34,0.24,0
0.012879,0.0027183,0.035207,-0.0011014,0.010232,-0.0011732,0,0,0.032468,-0.014733,0,-0.0030504,0,0,0,0.035245,-0.0011393,0.010232,-1.8488,0.014779,0.032239,1.0272e-06,0.35,0.24,0
0.013204,0.0027375,0.035217,-0.0015663,0.010095,-0.0011075,0,0,0.032659,-0.01516,0,-0.0028794,0,0,0,0.035251,-0.0015997,0.010095,-1.7229,0.014582,0.032615,1.0405e-06,0.36,0.24,0
0.013532,0.0027586,0.035556,-0.0019548,0.01008,-0.0010082,0,0,0.033118,-0.015645,0,-0.0026213,0,0,0,0.035583,-0.0019819,0.01008,-1.5385,0.01456,0.033219,1.0802e-06,0.37,0.24,0
0.013867,0.0027794,0.036088,-0.0027112,0.010013,-0.00096589,0,0,0.033897,-0.016541,0,-0.0025113,0,0,0,0.036112,-0.0027352,0.010013,-1.4252,0.014463,0.034298,1.1488e-06,0.38,0.24,0
0.01421,0.0027917,0.036249,-0.0026716,0.010073,-0.00074714,0,0,0.034028,-0.016568,0,-0.0019426,0,0,0,0.036263,-0.002686,0.010073,-1.0994,0.01455,0.034393,1.1617e-06,0.39,0.24,0
0.014547,0.0028179,0.033021,-0.001418,0.0094808,0.00019298,0,0,0.042217,-0.019282,0,0.0013492,0,0,0,0.03303,-0.0014271,0.0094808,0.54839,0.013694,0.030504,9.9892e-07,0.4,0.24,0
0.015012,0.0029571,0.041175,-0.0016554,0.011856,-0.0013199,0,0,0.053,-0.024083,0,-0.0046828,0,0,0,0.041216,-0.0016961,0.011856,-1.7464,0.017125,0.037996,1.8885e-06,0.41,0.24,0
0.015673,0.0031935,0.03612,0.00053761,0.010997,-0.00024267,0,0,0.065319,-0.027195,0,-0.0012619,0,0,0,0.036122,0.00053596,0.010997,-0.39073,0.015885,0.031678,1.0526e-06,0.42,0.24,0
0.016318,0.0033704,0.035238,0.00023246,0.010641,-0.00062532,0,0,0.063951,-0.027062,0,-0.0032517,0,0,0,0.035249,0.00022129,0.010641,-1.0231,0.01537,0.031153,9.8748e-07,0.43,0.24,0
0.016952,0.0035322,0.034644,0.00017294,0.010445,-0.00074881,0,0,0.062918,-0.026708,0,-0.0038938,0,0,0,0.034661,0.00015668,0.010445,-1.2438,0.015088,0.030682,9.4067e-07,0.44,0.24,0
0.017577,0.0036804,0.034218,2.39e-05,0.010273,-0.00084864,0,0,0.062258,-0.026646,0,-0.0044129,0,0,0,0.034239,2.8513e-06,0.010273,-1.4208,0.014838,0.03043,9.111e-07,0.45,0.24,0
0.018197,0.0038174,0.03394,-8.9843e-05,0.010155,-0.00088701,0,0,0.061841,-0.026637,0,-0.0046124,0,0,0,0.033963,-0.00011295,0.010155,-1.4921,0.014668,0.030277,8.9251e-07,0.46,0.24,0
0.018814,0.0039463,0.033716,-0.00015709,0.010068,-0.00088096,0,0,0.061485,-0.026584,0,-0.004581,0,0,0,0.033738,-0.00017998,0.010068,-1.4888,0.014542,0.030131,8.7678e-07,0.47,0.24,0
0.019427,0.0040691,0.033513,-0.00018687,0.0099977,-0.0008574,0,0,0.061139,-0.02648,0,-0.0044585,0,0,0,0.033535,-0.00020867,0.0099977,-1.4565,0.014441,0.029973,8.6178e-07,0.48,0.24,0
0.020036,0.0041866,0.033326,-0.00019054,0.0099407,-0.00083232,0,0,0.060802,-0.026341,0,-0.004328,0,0,0,0.033347,-0.00021119,0.0099407,-1.4217,0.014359,0.029808,8.4749e-07,0.49,0.24,0
0.020643,0.0042994,0.033157,-0.00017887,0.0098934,-0.00081307,0,0,0.060485,-0.026188,0,-0.004228,0,0,0,0.033177,-0.00019869,0.0098934,-1.3964,0.01429,0.029647,8.3427e-07,0.5,0.24,0
0.021246,0.0044076,0.033006,-0.00016037,0.0098536,-0.00080188,0,0,0.060195,-0.026036,0,-0.0041698,0,0,0,0.033025,-0.00017975,0.0098536,-1.3842,0.014233,0.029497,8.2241e-07,0.51,0.24,0
0.021847,0.0045113,0.032873,-0.00014102,0.0098196,-0.00079831,0,0,0.059939,-0.025898,0,-0.0041512,0,0,0,0.032892,-0.00016031,0.0098196,-1.3844,0.014184,0.029363,8.1204e-07,0.52,0.24,0
0.022445,0.0046104,0.032758,-0.00012463,0.00979,-0.00080075,0,0,0.059717,-0.025778,0,-0.0041639,0,0,0,0.032778,-0.00014412,0.00979,-1.3942,0.014141,0.029248,8.0317e-07,0.53,0.24,0
0.023041,0.0047049,0.03266,-0.00011331,0.0097638,-0.00080723,0,0,0.059529,-0.025681,0,-0.0041976,0,0,0,0.032679,-0.00013318,0.0097638,-1.4101,0.014103,0.029153,7.9571e-07,0.54,0.24,0
0.023635,0.0047948,0.032576,-0.00010796,0.0097403,-0.00081589,0,0,0.059372,-0.025605,0,-0.0042426,0,0,0,0.032596,-0.00012832,0.0097403,-1.4291,0.014069,0.029074,7.8951e-07,0.55,0.24,0
0.024228,0.0048804,0.032504,-0.00010865,0.0097187,-0.00082513,0,0,0.059243,-0.025551,0,-0.0042907,0,0,0,0.032525,-0.00012951,0.0097187,-1.4484,0.014038,0.029013,7.8442e-07,0.56,0.24,0
0.02482,0.0049616,0.032444,-0.00011491,0.0096987,-0.00083371,0,0,0.059137,-0.025515,0,-0.0043353,0,0,0,0.032465,-0.00013624,0.0096987,-1.4659,0.014009,0.028965,7.8027e-07,0.57,0.24,0
0.025411,0.0050386,0.032392,-0.00012598,0.0096799,-0.0008407,0,0,0.059052,-0.025495,0,-0.0043717,0,0,0,0.032414,-0.0001477,0.0096799,-1.48,0.013982,0.028928,7.7688e-07,0.58,0.24,0
0.026001,0.0051116,0.032348,-0.00014097,0.0096622,-0.0008455,0,0,0.058984,-0.025488,0,-0.0043966,0,0,0,0.03237,-0.00016296,0.0096622,-1.4897,0.013957,0.028902,7.7412e-07,0.59,0.24,0
0.026591,0.0051807,0.03231,-0.00015895,0.0096453,-0.00084775,0,0,0.058928,-0.025491,0,-0.0044083,0,0,0,0.032332,-0.00018107,0.0096453,-1.4946,0.013932,0.028882,7.7186e-07,0.6,0.24,0
0.02718,0.0052461,0.032277,-0.00017903,0.0096293,-0.00084728,0,0,0.058883,-0.025502,0,-0.0044059,0,0,0,0.032299,-0.00020113,0.0096293,-1.4944,0.013909,0.028868,7.6997e-07,0.61,0.24,0
0.027768,0.0053081,0.032247,-0.00020041,0.009614,-0.00084409,0,0,0.058846,-0.025517,0,-0.0043893,0,0,0,0.032269,-0.00022235,0.009614,-1.4892,0.013887,0.028859,7.6838e-07,0.62,0.24,0
0.028357,0.0053667,0.03222,-0.0002224,0.0095993,-0.00083827,0,0,0.058814,-0.025537,0,-0.004359,0,0,0,0.032242,-0.00024404,0.0095993,-1.4791,0.013866,0.028852,7.6699e-07,0.63,0.24,0
0.028945,0.0054222,0.032196,-0.00024443,0.0095854,-0.00083,0,0,0.058787,-0.025558,0,-0.004316,0,0,0,0.032217,-0.00026566,0.0095854,-1.4647,0.013846,0.028848,7.6576e-07,0.64,0.24,0
0.029532,0.0054747,0.032173,-0.00026605,0.0095721,-0.00081948,0,0,0.058763,-0.025579,0,-0.0042613,0,0,0,0.032194,-0.00028674,0.0095721,-1.4462,0.013826,0.028844,7.6464e-07,0.65,0.24,0
0.03012,0.0055243,0.032152,-0.00028689,0.0095595,-0.00080696,0,0,0.05874,-0.025601,0,-0.0041962,0,0,0,0.032172,-0.00030695,0.0095595,-1.4241,0.013808,0.028841,7.6359e-07,0.66,0.24,0
0.030707,0.0055713,0.032132,-0.00030671,0.0095475,-0.00079266,0,0,0.058719,-0.025621,0,-0.0041218,0,0,0,0.032151,-0.00032607,0.0095475,-1.3989,0.013791,0.028837,7.6258e-07,0.67,0.24,0
0.031294,0.0056158,0.032113,-0.00032533,0.0095362,-0.00077682,0,0,0.058699,-0.02564,0,-0.0040394,0,0,0,0.032131,-0.00034392,0.0095362,-1.3711,0.013775,0.028834,7.6161e-07,0.68,0.24,0
0.031881,0.0056578,0.032094,-0.00034264,0.0095254,-0.00075965,0,0,0.058679,-0.025657,0,-0.0039502,0,0,0,0.032112,-0.00036042,0.0095254,-1.3409,0.013759,0.02883,7.6065e-07,0.69,0.24,0
0.032468,0.0056976,0.032076,-0.0003586,0.0095154,-0.00074135,0,0,0.058659,-0.025672,0,-0.003855,0,0,0,0.032093,-0.00037553,0.0095154,-1.3087,0.013744,0.028826,7.5971e-07,0.7,0.24,0
0.033054,0.0057352,0.032059,-0.0003732,0.0095058,-0.00072208,0,0,0.058639,-0.025685,0,-0.0037548,0,0,0,0.032075,-0.00038927,0.0095058,-1.2748,0.013731,0.028821,7.5877e-07,0.71,0.24,0
0.033641,0.0057707,0.032043,-0.00038648,0.0094969,-0.000702,0,0,0.058619,-0.025697,0,-0.0036504,0,0,0,0.032058,-0.00040167,0.0094969,-1.2395,0.013718,0.028815,7.5785e-07,0.72,0.24,0
0.034227,0.0058043,0.032027,-0.00039849,0.0094886,-0.00068122,0,0,0.0586,-0.025706,0,-0.0035424,0,0,0,0.032041,-0.00041279,0.0094886,-1.203,0.013706,0.028809,7.5694e-07,0.73,0.24,0
0.034813,0.005836,0.032012,-0.0004093,0.0094808,-0.00065986,0,0,0.058581,-0.025714,0,-0.0034313,0,0,0,0.032025,-0.00042273,0.0094808,-1.1655,0.013694,0.028803,7.5605e-07,0.74,0.24,0
0.035398,0.0058658,0.031997,-0.00041901,0.0094735,-0.00063799,0,0,0.058562,-0.025721,0,-0.0033175,0,0,0,0.03201,-0.00043156,0.0094735,-1.1271,0.013684,0.028796,7.5518e-07,0.75,0.24,0
0.035984,0.0058939,0.031983,-0.0004277,0.0094667,-0.00061568,0,0,0.058543,-0.025725,0,-0.0032015,0,0,0,0.031995,-0.00043939,0.0094667,-1.0879,0.013674,0.028789,7.5433e-07,0.76,0.24,0
0.036569,0.0059204,0.03197,-0.00043546,0.0094604,-0.00059298,0,0,0.058525,-0.025729,0,-0.0030835,0,0,0,0.031981,-0.0004463,0.0094604,-1.048,0.013665,0.028782,7.5351e-07,0.77,0.24,0
0.037155,0.0059453,0.031958,-0.00044238,0.0094546,-0.00056994,0,0,0.058508,-0.025732,0,-0.0029637,0,0,0,0.031968,-0.0004524,0.0094546,-1.0074,0.013657,0.028775,7.5271e-07,0.78,0.24,0
0.037739,0.0059686,0.031946,-0.00044856,0.0094492,-0.00054657,0,0,0.058491,-0.025734,0,-0.0028421,0,0,0,0.031955,-0.00045778,0.0094492,-0.96634,0.013649,0.028768,7.5196e-07,0.79,0.24,0
0.038324,0.0059905,0.031935,-0.00045408,0.0094442,-0.00052289,0,0,0.058475,-0.025736,0,-0.0027191,0,0,0,0.031943,-0.00046251,0.0094442,-0.92468,0.013642,0.028762,7.5124e-07,0.8,0.24,0
0.038909,0.0060109,0.031924,-0.000459,0.0094396,-0.00049894,0,0,0.05846,-0.025736,0,-0.0025945,0,0,0,0.031932,-0.00046669,0.0094396,-0.88249,0.013635,0.028755,7.5055e-07,0.81,0.24,0
0.039494,0.00603,0.031915,-0.00046341,0.0094354,-0.0004747,0,0,0.058446,-0.025737,0,-0.0024684,0,0,0,0.031922,-0.00047036,0.0094354,-0.83979,0.013629,0.028749,7.4991e-07,0.82,0.24,0
0.040078,0.0060478,0.031906,-0.00046735,0.0094315,-0.00045019,0,0,0.058433,-0.025737,0,-0.002341,0,0,0,0.031912,-0.00047361,0.0094315,-0.79658,0.013623,0.028743,7.4931e-07,0.83,0.24,0
0.040662,0.0060643,0.031897,-0.00047089,0.0094279,-0.00042542,0,0,0.05842,-0.025737,0,-0.0022122,0,0,0,0.031903,-0.00047648,0.0094279,-0.75288,0.013618,0.028737,7.4875e-07,0.84,0.24,0
0.041246,0.0060796,0.03189,-0.00047407,0.0094247,-0.00040039,0,0,0.058409,-0.025737,0,-0.002082,0,0,0,0.031895,-0.00047902,0.0094247,-0.70869,0.013613,0.028732,7.4823e-07,0.85,0.24,0
0.04183,0.0060937,0.031883,-0.00047693,0.0094217,-0.00037509,0,0,0.058398,-0.025736,0,-0.0019505,0,0,0,0.031887,-0.00048127,0.0094217,-0.66402,0.013609,0.028727,7.4775e-07,0.86,0.24,0
0.042414,0.0061067,0.031876,-0.0004795,0.009419,-0.00034955,0,0,0.058389,-0.025736,0,-0.0018177,0,0,0,0.03188,-0.00048328,0.009419,-0.61889,0.013605,0.028722,7.4731e-07,0.87,0.24,0
0.042998,0.0061185,0.031871,-0.00048182,0.0094166,-0.00032376,0,0,0.05838,-0.025736,0,-0.0016835,0,0,0,0.031874,-0.00048506,0.0094166,-0.57329,0.013602,0.028718,7.4691e-07,0.88,0.24,0
0.043582,0.0061293,0.031865,-0.00048389,0.0094144,-0.00029773,0,0,0.058372,-0.025736,0,-0.0015482,0,0,0,0.031868,-0.00048663,0.0094144,-0.52726,0.013599,0.028714,7.4656e-07,0.89,0.24,0
0.044166,0.006139,0.031861,-0.00048575,0.0094125,-0.00027147,0,0,0.058365,-0.025735,0,-0.0014116,0,0,0,0.031863,-0.00048803,0.0094125,-0.48081,0.013596,0.028711,7.4623e-07,0.9,0.24,0
0.044749,0.0061478,0.031857,-0.00048741,0.0094108,-0.000245,0,0,0.058359,-0.025735,0,-0.001274,0,0,0,0.031858,-0.00048927,0.0094108,-0.43396,0.013593,0.028708,7.4595e-07,0.91,0.24,0
0.045333,0.0061555,0.031853,-0.00048888,0.0094092,-0.00021832,0,0,0.058354,-0.025735,0,-0.0011353,0,0,0,0.031855,-0.00049035,0.0094092,-0.38675,0.013591,0.028705,7.457e-07,0.92,0.24,0
0.045916,0.0061623,0.03185,-0.00049015,0.0094079,-0.00019146,0,0,0.058349,-0.025735,0,-0.0009956,0,0,0,0.031851,-0.00049129,0.0094079,-0.33919,0.013589,0.028703,7.4548e-07,0.93,0.24,0
0.0465,0.0061681,0.031847,-0.00049126,0.0094068,-0.00016443,0,0,0.058345,-0.025735,0,-0.00085506,0,0,0,0.031848,-0.00049209,0.0094068,-0.29133,0.013588,0.028701,7.4529e-07,0.94,0.24,0
0.047083,0.006173,0.031845,-0.00049218,0.0094059,-0.00013726,0,0,0.058342,-0.025735,0,-0.00071376,0,0,0,0.031846,-0.00049277,0.0094059,-0.24319,0.013586,0.028699,7.4514e-07,0.95,0.24,0
0.047667,0.006177,0.031843,-0.00049294,0.0094051,-0.00010996,0,0,0.058339,-0.025735,0,-0.0005718,0,0,0,0.031844,-0.00049331,0.0094051,-0.19484,0.013585,0.028698,7.4501e-07,0.96,0.24,0
0.04825,0.0061801,0.031842,-0.00049352,0.0094045,-8.2562e-05,0,0,0.058337,-0.025735,0,-0.00042932,0,0,0,0.031842,-0.00049373,0.0094045,-0.14629,0.013584,0.028697,7.4492e-07,0.97,0.24,0
0.048833,0.0061823,0.031841,-0.00049394,0.0094041,-5.5085e-05,0,0,0.058336,-0.025735,0,-0.00028644,0,0,0,0.031841,-0.00049403,0.0094041,-0.097607,0.013584,0.028696,7.4485e-07,0.98,0.24,0
0.049417,0.0061836,0.03184,-0.00049419,0.0094039,-2.7556e-05,0,0,0.058335,-0.025735,0,-0.00014329,0,0,0,0.03184,-0.00049422,0.0094039,-0.048827,0.013583,0.028696,7.448e-07,0.99,0.24,0
0.05,0.006184,0.03184,-0.00049428,0.0094038,8.4304e-06,0,0,0.058335,-0.025735,0,4.3838e-05,0,0,0,0.03184,-0.00049428,0.0094038,0.014938,0.013583,0.028696,7.4479e-07,1,0.24,0
0,0,0.034933,0.014972,0.014972,0.0048369,0,0,0.051901,9.7578e-19,0,0.025152,0,0,0,0.036044,0.013861,0.014972,12.928,0.021625,0.021649,5.1648e-07,0,0.25,0
0.00051901,0.00025152,0.034853,0.014172,0.014708,0.0048112,0,0,0.052379,-0.0013922,0,0.025018,0,0,0,0.035918,0.013108,0.014708,12.476,0.021244,0.022054,5.4113e-07,0.01,0.25,0
0.0010476,0.0004811,0.035118,0.013632,0.014625,0.0045892,0,0,0.053281,-0.0025817,0,0.023864,0,0,0,0.036057,0.012693,0.014625,11.566,0.021125,0.02246,5.6744e-07,0.02,0.25,0
0.0015846,0.00068913,0.035365,0.013183,0.014564,0.0043676,0,0,0.054082,-0.0035925,0,0.022712,0,0,0,0.036194,0.012354,0.014564,10.747,0.021037,0.022816,5.9072e-07,0.03,0.25,0
0.0021292,0.00087469,0.035596,0.012821,0.014525,0.0041117,0,0,0.054785,-0.0044307,0,0.021381,0,0,0,0.036316,0.012101,0.014525,9.9266,0.020981,0.023098,6.0949e-07,0.04,0.25,0
0.0026803,0.0010354,0.035833,0.012554,0.014516,0.0037363,0,0,0.055425,-0.0051023,0,0.019429,0,0,0,0.036418,0.011969,0.014516,8.8983,0.020968,0.023281,6.2196e-07,0.05,0.25,0
0.0032377,0.001164,0.036495,0.012508,0.014701,0.0031957,0,0,0.056665,-0.005702,0,0.016617,0,0,0,0.036913,0.012089,0.014701,7.4598,0.021234,0.023627,6.4957e-07,0.06,0.25,0
0.0038136,0.0012628,0.037034,0.011791,0.014647,0.0025046,0,0,0.058205,-0.0074276,0,0.013024,0,0,0,0.03728,0.011544,0.014647,5.612,0.021157,0.024333,6.9955e-07,0.07,0.25,0
0.0044018,0.0013478,0.03654,0.010379,0.014076,0.0029452,0,0,0.043909,-0.0064078,0,0.01039,0,0,0,0.036886,0.010033,0.014076,6.2648,0.020332,0.025102,7.349e-07,0.08,0.25,0
0.0046918,0.001422,0.037262,0.01067,0.01438,0.0019038,0,0,0.029747,-0.0048221,0,0.0049499,0,0,0,0.037398,0.010535,0.01438,4.0744,0.020771,0.025162,7.5417e-07,0.09,0.25,0
0.0049968,0.0015271,0.037672,0.010232,0.014371,0.0021758,0,0,0.030291,-0.0053808,0,0.0056569,0,0,0,0.037843,0.010061,0.014371,4.5056,0.020758,0.025898,8.0942e-07,0.1,0.25,0
0.0052976,0.0016221,0.03706,0.008971,0.013809,0.0016781,0,0,0.030225,-0.0062896,0,0.0043632,0,0,0,0.037159,0.0088711,0.013809,3.407,0.019947,0.026171,8.1125e-07,0.11,0.25,0
0.0056013,0.0017106,0.037029,0.0085229,0.013666,0.0013812,0,0,0.030373,-0.0066856,0,0.0035912,0,0,0,0.037096,0.0084561,0.013666,2.7675,0.019739,0.026423,8.2473e-07,0.12,0.25,0
0.0059051,0.0017908,0.036861,0.0080066,0.01346,0.0011609,0,0,0.030421,-0.0070899,0,0.0030182,0,0,0,0.036908,0.00796,0.01346,2.3001,0.019443,0.026627,8.3186e-07,0.13,0.25,0
0.0062097,0.0018649,0.036754,0.007475,0.013269,0.00098586,0,0,0.030531,-0.0075318,0,0.0025632,0,0,0,0.036787,0.0074418,0.013269,1.9263,0.019166,0.026909,8.4472e-07,0.14,0.25,0
0.0065157,0.0019337,0.036692,0.0069679,0.013098,0.00081603,0,0,0.030672,-0.0079691,0,0.0021217,0,0,0,0.036714,0.0069455,0.013098,1.5714,0.018919,0.027219,8.6002e-07,0.15,0.25,0
0.0068231,0.0019974,0.036636,0.0064741,0.012933,0.00064535,0,0,0.030814,-0.0083967,0,0.0016779,0,0,0,0.03665,0.0064603,0.012933,1.2252,0.018681,0.02753,8.7518e-07,0.16,0.25,0
0.007132,0.0020562,0.03658,0.0059993,0.012774,0.00047572,0,0,0.030948,-0.0088068,0,0.0012369,0,0,0,0.036587,0.0059918,0.012774,0.89103,0.018451,0.027831,8.8946e-07,0.17,0.25,0
0.0074421,0.0021103,0.036517,0.0055451,0.012619,0.00030927,0,0,0.031068,-0.0091957,0,0.0008041,0,0,0,0.03652,0.005542,0.012619,0.57204,0.018227,0.028116,9.0235e-07,0.18,0.25,0
0.0077533,0.0021599,0.036447,0.0051133,0.012468,0.00014963,0,0,0.031173,-0.0095613,0,0.00038904,0,0,0,0.036448,0.0051126,0.012468,0.2736,0.01801,0.028382,9.1368e-07,0.19,0.25,0
0.0080655,0.0022052,0.03637,0.0047021,0.012322,1.3644e-07,0,0,0.031263,-0.0099053,0,3.5475e-07,0,0,0,0.03637,0.0047021,0.012322,0.00024686,0.017798,0.028629,9.235e-07,0.2,0.25,0
0.0083786,0.0022466,0.036286,0.0043081,0.012178,-0.00013692,0,0,0.03134,-0.010231,0,-0.00035599,0,0,0,0.036286,0.0043075,0.012178,-0.24531,0.017591,0.02886,9.3198e-07,0.21,0.25,0
0.0086923,0.0022844,0.036197,0.0039269,0.012037,-0.00026048,0,0,0.031408,-0.010543,0,-0.00067725,0,0,0,0.036199,0.0039248,0.012037,-0.46245,0.017387,0.02908,9.3942e-07,0.22,0.25,0
0.0090067,0.0023189,0.036105,0.003554,0.011898,-0.00037073,0,0,0.03147,-0.010847,0,-0.0009639,0,0,0,0.03611,0.0035498,0.011898,-0.65243,0.017186,0.029292,9.4612e-07,0.23,0.25,0
0.0093217,0.0023505,0.036013,0.0031851,0.011759,-0.00046894,0,0,0.03153,-0.011147,0,-0.0012193,0,0,0,0.03602,0.0031784,0.011759,-0.81825,0.016986,0.029502,9.5236e-07,0.24,0.25,0
0.0096373,0.0023796,0.035921,0.0028164,0.011621,-0.00055734,0,0,0.031589,-0.011446,0,-0.0014491,0,0,0,0.03593,0.002807,0.011621,-0.96425,0.016786,0.029713,9.5838e-07,0.25,0.25,0
0.0099535,0.0024062,0.03583,0.0024458,0.011483,-0.0006386,0,0,0.031651,-0.011748,0,-0.0016604,0,0,0,0.035842,0.0024336,0.011483,-1.0955,0.016586,0.029928,9.6433e-07,0.26,0.25,0
0.01027,0.0024307,0.035741,0.0020723,0.011344,-0.00071534,0,0,0.031716,-0.012053,0,-0.0018599,0,0,0,0.035756,0.0020571,0.011344,-1.2166,0.016386,0.030148,9.7025e-07,0.27,0.25,0
0.010588,0.0024532,0.035653,0.001696,0.011205,-0.00078951,0,0,0.031783,-0.012361,0,-0.0020527,0,0,0,0.035672,0.0016777,0.011205,-1.3312,0.016185,0.030373,9.7613e-07,0.28,0.25,0
0.010906,0.0024739,0.035567,0.0013176,0.011065,-0.00086208,0,0,0.031852,-0.012672,0,-0.0022414,0,0,0,0.035589,0.0012959,0.011065,-1.441,0.015983,0.030601,9.8191e-07,0.29,0.25,0
0.011225,0.0024928,0.035482,0.00093734,0.010926,-0.00093275,0,0,0.031923,-0.012985,0,-0.0024252,0,0,0,0.035507,0.00091217,0.010926,-1.5455,0.015782,0.030833,9.8756e-07,0.3,0.25,0
0.011544,0.0025103,0.0354,0.00055466,0.010786,-0.00099967,0,0,0.031997,-0.013301,0,-0.0025991,0,0,0,0.035428,0.00052601,0.010786,-1.642,0.01558,0.03107,9.9318e-07,0.31,0.25,0
0.011865,0.0025265,0.035322,0.00016685,0.010647,-0.0010595,0,0,0.032078,-0.013624,0,-0.0027548,0,0,0,0.035354,0.00013494,0.010647,-1.7247,0.015379,0.031316,9.9905e-07,0.32,0.25,0
0.012186,0.0025417,0.035256,-0.00023297,0.010507,-0.0011084,0,0,0.032174,-0.013962,0,-0.0028818,0,0,0,0.03529,-0.00026755,0.010507,-1.7871,0.015177,0.031581,1.0058e-06,0.33,0.25,0
0.012508,0.0025564,0.03521,-0.00065289,0.010367,-0.0011431,0,0,0.032296,-0.014326,0,-0.0029721,0,0,0,0.035247,-0.00068929,0.010367,-1.8238,0.014975,0.03188,1.0145e-06,0.34,0.25,0
0.012832,0.0025708,0.035202,-0.0011041,0.010229,-0.0011606,0,0,0.032464,-0.014734,0,-0.0030175,0,0,0,0.035239,-0.0011411,0.010229,-1.829,0.014776,0.032236,1.0267e-06,0.35,0.25,0
0.013158,0.0025855,0.035284,-0.0015808,0.010111,-0.0011706,0,0,0.032725,-0.015199,0,-0.0030436,0,0,0,0.035321,-0.001618,0.010111,-1.817,0.014605,0.032692,1.0471e-06,0.36,0.25,0
0.013487,0.0026003,0.035429,-0.0021543,0.0099823,-0.0012169,0,0,0.03308,-0.015778,0,-0.003164,0,0,0,0.035468,-0.0021937,0.0099823,-1.8526,0.014419,0.033288,1.0757e-06,0.37,0.25,0
0.013819,0.0026135,0.035485,-0.00273,0.0098265,-0.0013481,0,0,0.033356,-0.016324,0,-0.003505,0,0,0,0.035533,-0.0027775,0.0098265,-2.0178,0.014194,0.033818,1.0966e-06,0.38,0.25,0
0.014154,0.002628,0.035997,-0.0024996,0.010049,-0.0015081,0,0,0.033732,-0.016314,0,-0.0039211,0,0,0,0.036056,-0.0025586,0.010049,-2.24,0.014516,0.034106,1.139e-06,0.39,0.25,0
0.014494,0.0026486,0.036009,-0.0025853,0.010027,-0.00043758,0,0,0.033776,-0.016396,0,-0.0011377,0,0,0,0.036014,-0.0025903,0.010027,-0.6495,0.014483,0.034094,1.1359e-06,0.4,0.25,0
0.014829,0.0027362,0.035158,-0.0026183,0.009762,-0.00051714,0,0,0.049267,-0.021459,0,-0.00027147,0,0,0,0.035209,-0.0026694,0.009762,-0.54591,0.014101,0.033545,1.0023e-06,0.41,0.25,0
0.015479,0.0029151,0.035982,0.00042489,0.010922,0.00046783,0,0,0.065155,-0.027292,0,0.0024327,0,0,0,0.035988,0.00041874,0.010922,0.75368,0.015776,0.031653,1.0447e-06,0.42,0.25,0
0.016132,0.0030981,0.035705,0.00076333,0.010941,2.5659e-05,0,0,0.064388,-0.026461,0,0.00013343,0,0,0,0.035705,0.00076331,0.010941,0.042075,0.015803,0.031127,1.0091e-06,0.43,0.25,0
0.016767,0.0032648,0.034894,0.00036247,0.010577,-0.00037446,0,0,0.063224,-0.026558,0,-0.0019472,0,0,0,0.034898,0.00035841,0.010577,-0.62122,0.015278,0.030732,9.5409e-07,0.44,0.25,0
0.017397,0.0034128,0.034555,7.6539e-05,0.010389,-0.00058491,0,0,0.06283,-0.026814,0,-0.0030415,0,0,0,0.034565,6.662e-05,0.010389,-0.97162,0.015007,0.030669,9.3552e-07,0.45,0.25,0
0.018024,0.0035494,0.034309,-8.8554e-05,0.010266,-0.00064844,0,0,0.062511,-0.026922,0,-0.0033719,0,0,0,0.034321,-0.00010077,0.010266,-1.0796,0.014829,0.030586,9.2062e-07,0.46,0.25,0
0.018647,0.0036788,0.034068,-0.00017432,0.010168,-0.00065486,0,0,0.062139,-0.02689,0,-0.0034053,0,0,0,0.03408,-0.00018684,0.010168,-1.0952,0.014687,0.030441,9.0384e-07,0.47,0.25,0
0.019266,0.0038026,0.033836,-0.0002047,0.010089,-0.0006464,0,0,0.061741,-0.026765,0,-0.0033613,0,0,0,0.033848,-0.00021697,0.010089,-1.0875,0.014574,0.030258,8.8637e-07,0.48,0.25,0
0.019882,0.0039218,0.033621,-0.00020154,0.010026,-0.00064035,0,0,0.061347,-0.026591,0,-0.0033298,0,0,0,0.033633,-0.00021366,0.010026,-1.0842,0.014482,0.030064,8.6949e-07,0.49,0.25,0
0.020493,0.0040363,0.033427,-0.00018118,0.0099737,-0.0006424,0,0,0.060978,-0.026403,0,-0.0033405,0,0,0,0.033439,-0.00019346,0.0099737,-1.0946,0.014406,0.029876,8.5405e-07,0.5,0.25,0
0.021101,0.0041462,0.033257,-0.00015485,0.0099305,-0.0006529,0,0,0.060648,-0.026222,0,-0.0033951,0,0,0,0.033269,-0.0001676,0.0099305,-1.1191,0.014344,0.029704,8.4045e-07,0.51,0.25,0
0.021706,0.0042513,0.03311,-0.00012965,0.009894,-0.00067004,0,0,0.060361,-0.026062,0,-0.0034842,0,0,0,0.033123,-0.00014315,0.009894,-1.1543,0.014291,0.029555,8.2879e-07,0.52,0.25,0
0.022308,0.0043517,0.032984,-0.00010963,0.0098624,-0.00069137,0,0,0.060117,-0.025927,0,-0.0035951,0,0,0,0.032999,-0.00012406,0.0098624,-1.1963,0.014246,0.029429,8.1899e-07,0.53,0.25,0
0.022909,0.0044472,0.032878,-9.6733e-05,0.0098344,-0.00071453,0,0,0.059914,-0.025821,0,-0.0037156,0,0,0,0.032894,-0.00011221,0.0098344,-1.2408,0.014205,0.029326,8.1089e-07,0.54,0.25,0
0.023507,0.004538,0.032788,-9.1508e-05,0.0098091,-0.00073755,0,0,0.059746,-0.025742,0,-0.0038352,0,0,0,0.032805,-0.00010804,0.0098091,-1.2844,0.014169,0.029244,8.0426e-07,0.55,0.25,0
0.024103,0.0046241,0.032713,-9.362e-05,0.0097858,-0.00075888,0,0,0.05961,-0.025687,0,-0.0039462,0,0,0,0.03273,-0.00011116,0.0097858,-1.3244,0.014135,0.02918,7.9887e-07,0.56,0.25,0
0.024699,0.0047057,0.032649,-0.00010223,0.009764,-0.00077746,0,0,0.059501,-0.025652,0,-0.0040428,0,0,0,0.032667,-0.00012067,0.009764,-1.3591,0.014104,0.029132,7.9451e-07,0.57,0.25,0
0.025294,0.0047829,0.032594,-0.00011624,0.0097435,-0.0007926,0,0,0.059413,-0.025635,0,-0.0041215,0,0,0,0.032614,-0.00013543,0.0097435,-1.3872,0.014074,0.029096,7.9098e-07,0.58,0.25,0
0.025887,0.004856,0.032548,-0.00013447,0.0097239,-0.00080394,0,0,0.059341,-0.025632,0,-0.0041805,0,0,0,0.032567,-0.00015424,0.0097239,-1.4083,0.014046,0.02907,7.881e-07,0.59,0.25,0
0.02648,0.004925,0.032507,-0.00015579,0.0097052,-0.00081136,0,0,0.059284,-0.025639,0,-0.0042191,0,0,0,0.032527,-0.00017594,0.0097052,-1.4221,0.014019,0.029051,7.8572e-07,0.6,0.25,0
0.027073,0.0049903,0.03247,-0.00017915,0.0096874,-0.00081495,0,0,0.059236,-0.025653,0,-0.0042377,0,0,0,0.032491,-0.00019948,0.0096874,-1.4289,0.013993,0.029038,7.8372e-07,0.61,0.25,0
0.027665,0.0050521,0.032438,-0.00020365,0.0096703,-0.0008149,0,0,0.059196,-0.025672,0,-0.0042375,0,0,0,0.032458,-0.00022398,0.0096703,-1.4292,0.013968,0.029028,7.8199e-07,0.62,0.25,0
0.028257,0.0051105,0.032408,-0.00022851,0.0096539,-0.00081152,0,0,0.059161,-0.025694,0,-0.0042199,0,0,0,0.032428,-0.00024868,0.0096539,-1.4235,0.013945,0.029022,7.8045e-07,0.63,0.25,0
0.028848,0.0051658,0.03238,-0.00025314,0.0096382,-0.00080512,0,0,0.05913,-0.025717,0,-0.0041866,0,0,0,0.0324,-0.00027299,0.0096382,-1.4124,0.013922,0.029016,7.7905e-07,0.64,0.25,0
0.029439,0.005218,0.032355,-0.00027705,0.0096232,-0.00079607,0,0,0.059101,-0.025741,0,-0.0041395,0,0,0,0.032374,-0.00029646,0.0096232,-1.3967,0.0139,0.029012,7.7774e-07,0.65,0.25,0
0.03003,0.0052675,0.03233,-0.0002999,0.009609,-0.0007847,0,0,0.059074,-0.025763,0,-0.0040804,0,0,0,0.032349,-0.00031876,0.009609,-1.3768,0.01388,0.029007,7.7649e-07,0.66,0.25,0
0.030621,0.0053143,0.032306,-0.00032144,0.0095954,-0.00077135,0,0,0.059048,-0.025784,0,-0.004011,0,0,0,0.032324,-0.00033967,0.0095954,-1.3535,0.01386,0.029002,7.7528e-07,0.67,0.25,0
0.031211,0.0053586,0.032283,-0.00034153,0.0095826,-0.00075631,0,0,0.059022,-0.025803,0,-0.0039328,0,0,0,0.032301,-0.00035905,0.0095826,-1.3273,0.013841,0.028997,7.7408e-07,0.68,0.25,0
0.031801,0.0054005,0.032262,-0.00036009,0.0095704,-0.00073986,0,0,0.058997,-0.025819,0,-0.0038473,0,0,0,0.032278,-0.00037686,0.0095704,-1.2986,0.013824,0.028991,7.729e-07,0.69,0.25,0
0.032391,0.0054401,0.03224,-0.00037709,0.009559,-0.00072223,0,0,0.058972,-0.025834,0,-0.0037556,0,0,0,0.032256,-0.00039307,0.009559,-1.2678,0.013807,0.028984,7.7173e-07,0.7,0.25,0
0.032981,0.0054776,0.03222,-0.00039257,0.0095482,-0.00070362,0,0,0.058946,-0.025846,0,-0.0036588,0,0,0,0.032235,-0.00040774,0.0095482,-1.2354,0.013792,0.028977,7.7056e-07,0.71,0.25,0
0.03357,0.005513,0.0322,-0.00040658,0.009538,-0.00068419,0,0,0.058921,-0.025856,0,-0.0035578,0,0,0,0.032214,-0.00042093,0.009538,-1.2015,0.013777,0.028969,7.6942e-07,0.72,0.25,0
0.034159,0.0055464,0.032181,-0.00041921,0.0095285,-0.00066409,0,0,0.058896,-0.025864,0,-0.0034533,0,0,0,0.032194,-0.00043273,0.0095285,-1.1665,0.013763,0.028961,7.6829e-07,0.73,0.25,0
0.034748,0.005578,0.032163,-0.00043055,0.0095196,-0.00064342,0,0,0.058872,-0.02587,0,-0.0033458,0,0,0,0.032175,-0.00044324,0.0095196,-1.1305,0.013751,0.028953,7.6718e-07,0.74,0.25,0
0.035337,0.0056078,0.032145,-0.00044071,0.0095113,-0.00062227,0,0,0.058848,-0.025875,0,-0.0032358,0,0,0,0.032157,-0.00045258,0.0095113,-1.0936,0.013739,0.028944,7.661e-07,0.75,0.25,0
0.035925,0.0056359,0.032128,-0.00044979,0.0095035,-0.0006007,0,0,0.058824,-0.025879,0,-0.0031236,0,0,0,0.032139,-0.00046086,0.0095035,-1.056,0.013727,0.028935,7.6505e-07,0.76,0.25,0
0.036513,0.0056623,0.032112,-0.0004579,0.0094963,-0.00057876,0,0,0.058801,-0.025881,0,-0.0030096,0,0,0,0.032122,-0.00046818,0.0094963,-1.0177,0.013717,0.028926,7.6404e-07,0.77,0.25,0
0.037101,0.0056872,0.032097,-0.00046516,0.0094896,-0.00055649,0,0,0.058779,-0.025882,0,-0.0028938,0,0,0,0.032107,-0.00047466,0.0094896,-0.97881,0.013707,0.028917,7.6306e-07,0.78,0.25,0
0.037689,0.0057105,0.032083,-0.00047164,0.0094833,-0.00053391,0,0,0.058759,-0.025883,0,-0.0027763,0,0,0,0.032092,-0.00048039,0.0094833,-0.93934,0.013698,0.028908,7.6214e-07,0.79,0.25,0
0.038276,0.0057324,0.032069,-0.00047745,0.0094776,-0.00051103,0,0,0.058739,-0.025883,0,-0.0026573,0,0,0,0.032077,-0.00048547,0.0094776,-0.89932,0.01369,0.028899,7.6126e-07,0.8,0.25,0
0.038864,0.0057528,0.032057,-0.00048266,0.0094722,-0.00048785,0,0,0.05872,-0.025883,0,-0.0025368,0,0,0,0.032064,-0.00048997,0.0094722,-0.85876,0.013682,0.028891,7.6043e-07,0.81,0.25,0
0.039451,0.0057719,0.032045,-0.00048734,0.0094673,-0.0004644,0,0,0.058702,-0.025882,0,-0.0024149,0,0,0,0.032052,-0.00049397,0.0094673,-0.81767,0.013675,0.028883,7.5965e-07,0.82,0.25,0
0.040037,0.0057897,0.032034,-0.00049156,0.0094628,-0.00044065,0,0,0.058686,-0.025881,0,-0.0022914,0,0,0,0.03204,-0.00049753,0.0094628,-0.77605,0.013669,0.028876,7.5892e-07,0.83,0.25,0
0.040624,0.0058062,0.032024,-0.00049538,0.0094587,-0.00041663,0,0,0.05867,-0.025881,0,-0.0021665,0,0,0,0.03203,-0.00050071,0.0094587,-0.7339,0.013662,0.028869,7.5824e-07,0.84,0.25,0
0.041211,0.0058215,0.032015,-0.00049883,0.0094548,-0.00039233,0,0,0.058656,-0.025879,0,-0.0020401,0,0,0,0.03202,-0.00050356,0.0094548,-0.69122,0.013657,0.028863,7.5761e-07,0.85,0.25,0
0.041798,0.0058356,0.032007,-0.00050196,0.0094514,-0.00036774,0,0,0.058643,-0.025879,0,-0.0019122,0,0,0,0.032011,-0.00050612,0.0094514,-0.64802,0.013652,0.028857,7.5704e-07,0.86,0.25,0
0.042384,0.0058486,0.031999,-0.0005048,0.0094482,-0.00034287,0,0,0.058632,-0.025878,0,-0.0017829,0,0,0,0.032002,-0.00050841,0.0094482,-0.60431,0.013647,0.028851,7.5651e-07,0.87,0.25,0
0.04297,0.0058604,0.031992,-0.00050737,0.0094453,-0.00031773,0,0,0.058621,-0.025877,0,-0.0016522,0,0,0,0.031995,-0.00051048,0.0094453,-0.56009,0.013643,0.028846,7.5603e-07,0.88,0.25,0
0.043556,0.0058712,0.031986,-0.0005097,0.0094427,-0.00029233,0,0,0.058611,-0.025876,0,-0.0015201,0,0,0,0.031988,-0.00051233,0.0094427,-0.51538,0.01364,0.028842,7.556e-07,0.89,0.25,0
0.044142,0.005881,0.03198,-0.0005118,0.0094404,-0.00026667,0,0,0.058603,-0.025876,0,-0.0013867,0,0,0,0.031982,-0.00051398,0.0094404,-0.47019,0.013636,0.028838,7.5521e-07,0.9,0.25,0
0.044728,0.0058897,0.031975,-0.00051368,0.0094384,-0.00024076,0,0,0.058595,-0.025875,0,-0.001252,0,0,0,0.031977,-0.00051546,0.0094384,-0.42457,0.013633,0.028834,7.5487e-07,0.91,0.25,0
0.045314,0.0058974,0.031971,-0.00051535,0.0094366,-0.00021463,0,0,0.058588,-0.025875,0,-0.0011161,0,0,0,0.031972,-0.00051677,0.0094366,-0.37852,0.013631,0.028831,7.5457e-07,0.92,0.25,0
0.0459,0.0059042,0.031967,-0.00051682,0.009435,-0.00018829,0,0,0.058583,-0.025875,0,-0.0009791,0,0,0,0.031968,-0.00051791,0.009435,-0.3321,0.013628,0.028828,7.5431e-07,0.93,0.25,0
0.046486,0.00591,0.031964,-0.00051809,0.0094337,-0.00016176,0,0,0.058578,-0.025875,0,-0.00084115,0,0,0,0.031964,-0.00051889,0.0094337,-0.28532,0.013626,0.028826,7.5408e-07,0.94,0.25,0
0.047072,0.0059149,0.031961,-0.00051916,0.0094325,-0.00013506,0,0,0.058574,-0.025874,0,-0.00070233,0,0,0,0.031961,-0.00051972,0.0094325,-0.23825,0.013625,0.028824,7.539e-07,0.95,0.25,0
0.047657,0.0059189,0.031959,-0.00052004,0.0094316,-0.00010823,0,0,0.05857,-0.025874,0,-0.00056277,0,0,0,0.031959,-0.0005204,0.0094316,-0.19092,0.013623,0.028822,7.5375e-07,0.96,0.25,0
0.048243,0.005922,0.031957,-0.00052072,0.0094309,-8.1272e-05,0,0,0.058568,-0.025874,0,-0.00042261,0,0,0,0.031957,-0.00052092,0.0094309,-0.14338,0.013622,0.028821,7.5363e-07,0.97,0.25,0
0.048829,0.0059242,0.031956,-0.00052121,0.0094304,-5.4231e-05,0,0,0.058566,-0.025874,0,-0.000282,0,0,0,0.031956,-0.0005213,0.0094304,-0.095673,0.013622,0.02882,7.5355e-07,0.98,0.25,0
0.049414,0.0059255,0.031955,-0.0005215,0.0094301,-2.713e-05,0,0,0.058565,-0.025874,0,-0.00014108,0,0,0,0.031955,-0.00052152,0.0094301,-0.047863,0.013621,0.02882,7.535e-07,0.99,0.25,0
0.05,0.005926,0.031955,-0.0005216,0.00943,8.431e-06,0,0,0.058565,-0.025874,0,4.3841e-05,0,0,0,0.031955,-0.0005216,0.00943,0.014874,0.013621,0.02882,7.5348e-07,1,0.25,0
0,0,0.035546,0.015234,0.015234,0.0045602,0,0,0.052811,-2.1684e-19,0,0.023713,0,0,0,0.036523,0.014257,0.015234,12.09,0.022005,0.021794,5.2804e-07,0,0.26,0
0.00052811,0.00023713,0.03546,0.01439,0.014955,0.0045333,0,0,0.053314,-0.0014694,0,0.023573,0,0,0,0.036395,0.013456,0.014955,11.641,0.021602,0.022227,5.5532e-07,0.01,0.26,0
0.0010663,0.00045462,0.035742,0.013838,0.014874,0.0043262,0,0,0.054257,-0.002693,0,0.022496,0,0,0,0.036566,0.013015,0.014874,10.777,0.021485,0.022678,5.8548e-07,0.02,0.26,0
0.0016133,0.00065258,0.036001,0.013397,0.014819,0.0041193,0,0,0.055073,-0.0036982,0,0.02142,0,0,0,0.036729,0.01267,0.014819,10.013,0.021406,0.023059,6.1131e-07,0.03,0.26,0
0.0021677,0.00083033,0.036211,0.013062,0.014782,0.0038901,0,0,0.055716,-0.0044722,0,0.020228,0,0,0,0.036847,0.012426,0.014782,9.2883,0.021352,0.023333,6.3006e-07,0.04,0.26,0
0.0027276,0.00098563,0.036234,0.012815,0.014715,0.0036152,0,0,0.055951,-0.0049395,0,0.018799,0,0,0,0.03678,0.01227,0.014715,8.5786,0.021255,0.023384,6.3254e-07,0.05,0.26,0
0.0032868,0.0011153,0.035631,0.012586,0.014465,0.0030776,0,0,0.055031,-0.0048857,0,0.016004,0,0,0,0.036035,0.012182,0.014465,7.4772,0.020894,0.022797,5.8798e-07,0.06,0.26,0
0.0038282,0.0011944,0.03582,0.0128,0.014586,0.0028483,0,0,0.05521,-0.0046447,0,0.014811,0,0,0,0.036168,0.012452,0.014586,6.9494,0.021069,0.022724,5.8477e-07,0.07,0.26,0
0.0043909,0.0012923,0.035602,0.011206,0.014042,0.0016408,0,0,0.042096,-0.0049162,0,0.0057905,0,0,0,0.035718,0.011089,0.014042,3.793,0.020283,0.023307,6.1185e-07,0.08,0.26,0
0.0046701,0.001384,0.035794,0.010919,0.014014,0.0021823,0,0,0.028315,-0.0040237,0,0.0056739,0,0,0,0.035985,0.010729,0.014014,4.9757,0.020242,0.023784,6.4676e-07,0.09,0.26,0
0.0049572,0.0014734,0.036433,0.0099704,0.013921,0.0019534,0,0,0.029266,-0.0051359,0,0.005079,0,0,0,0.036577,0.009827,0.013921,4.1992,0.020108,0.024956,7.2635e-07,0.1,0.26,0
0.0052554,0.0015622,0.036984,0.0093717,0.013907,0.0017683,0,0,0.03,-0.0058954,0,0.0045976,0,0,0,0.037096,0.0092589,0.013907,3.6494,0.020087,0.025829,7.893e-07,0.11,0.26,0
0.0055572,0.0016443,0.037023,0.0087026,0.013718,0.0014865,0,0,0.030297,-0.0065194,0,0.003865,0,0,0,0.0371,0.0086248,0.013718,2.9965,0.019814,0.026302,8.1764e-07,0.12,0.26,0
0.0058614,0.0017202,0.036995,0.0081735,0.013551,0.0012556,0,0,0.030478,-0.00699,0,0.0032645,0,0,0,0.037049,0.0081189,0.013551,2.4898,0.019573,0.026633,8.3587e-07,0.13,0.26,0
0.0061668,0.00179,0.036911,0.0076515,0.013369,0.001057,0,0,0.030605,-0.0074326,0,0.0027481,0,0,0,0.03695,0.0076134,0.013369,2.0661,0.019311,0.026924,8.5001e-07,0.14,0.26,0
0.0064735,0.0018545,0.036832,0.0071404,0.013192,0.00087736,0,0,0.030732,-0.0078666,0,0.0022811,0,0,0,0.036858,0.0071145,0.013192,1.6911,0.019054,0.027218,8.6412e-07,0.15,0.26,0
0.0067814,0.001914,0.036759,0.0066453,0.013021,0.00070582,0,0,0.030859,-0.0082889,0,0.0018351,0,0,0,0.036776,0.0066288,0.013021,1.3419,0.018809,0.027513,8.7812e-07,0.16,0.26,0
0.0070907,0.0019687,0.036688,0.0061667,0.012856,0.0005397,0,0,0.030981,-0.0086966,0,0.0014032,0,0,0,0.036698,0.0061572,0.012856,1.0127,0.01857,0.027803,8.9148e-07,0.17,0.26,0
0.0074011,0.0020189,0.036614,0.0057068,0.012696,0.00037961,0,0,0.031093,-0.0090864,0,0.000987,0,0,0,0.036619,0.0057021,0.012696,0.70358,0.018339,0.028081,9.038e-07,0.18,0.26,0
0.0077125,0.0020648,0.036536,0.0052659,0.01254,0.00022726,0,0,0.031194,-0.009457,0,0.00059087,0,0,0,0.036538,0.0052643,0.01254,0.41637,0.018114,0.028345,9.1487e-07,0.19,0.26,0
0.0080249,0.0021066,0.036452,0.0048432,0.012389,8.4568e-05,0,0,0.031282,-0.0098089,0,0.00021988,0,0,0,0.036452,0.004843,0.012389,0.15329,0.017895,0.028593,9.2466e-07,0.2,0.26,0
0.0083382,0.0021447,0.036363,0.0044363,0.01224,-4.699e-05,0,0,0.03136,-0.010144,0,-0.00012217,0,0,0,0.036363,0.0044362,0.01224,-0.08433,0.01768,0.028828,9.3324e-07,0.21,0.26,0
0.0086521,0.0021793,0.036269,0.004042,0.012093,-0.00016676,0,0,0.031428,-0.010467,0,-0.00043357,0,0,0,0.03627,0.0040411,0.012093,-0.29646,0.017468,0.029052,9.408e-07,0.22,0.26,0
0.0089667,0.0022108,0.036172,0.0036567,0.011949,-0.00027497,0,0,0.031491,-0.010779,0,-0.00071493,0,0,0,0.036174,0.0036544,0.011949,-0.48449,0.017259,0.029268,9.4755e-07,0.23,0.26,0
0.0092819,0.0022394,0.036074,0.0032771,0.011805,-0.00037272,0,0,0.031549,-0.011086,0,-0.00096907,0,0,0,0.036078,0.0032729,0.011805,-0.65103,0.017052,0.02948,9.5372e-07,0.24,0.26,0
0.0095977,0.0022654,0.035974,0.0029003,0.011662,-0.00046173,0,0,0.031606,-0.011391,0,-0.0012005,0,0,0,0.035981,0.0028938,0.011662,-0.79967,0.016846,0.02969,9.5947e-07,0.25,0.26,0
0.0099141,0.002289,0.035875,0.002524,0.01152,-0.00054411,0,0,0.031662,-0.011694,0,-0.0014147,0,0,0,0.035884,0.0025151,0.01152,-0.93443,0.01664,0.029901,9.6493e-07,0.26,0.26,0
0.010231,0.0023104,0.035776,0.0021472,0.011377,-0.00062191,0,0,0.031719,-0.011999,0,-0.001617,0,0,0,0.035787,0.0021357,0.011377,-1.0591,0.016433,0.030114,9.7015e-07,0.27,0.26,0
0.010548,0.0023299,0.035677,0.0017691,0.011234,-0.00069682,0,0,0.031776,-0.012304,0,-0.0018117,0,0,0,0.035691,0.0017548,0.011234,-1.1768,0.016227,0.030329,9.7515e-07,0.28,0.26,0
0.010866,0.0023474,0.035578,0.0013895,0.01109,-0.00076988,0,0,0.031834,-0.012611,0,-0.0020017,0,0,0,0.035595,0.0013721,0.01109,-1.2893,0.016019,0.030546,9.7992e-07,0.29,0.26,0
0.011185,0.0023633,0.03548,0.0010075,0.010946,-0.00084129,0,0,0.031893,-0.01292,0,-0.0021873,0,0,0,0.0355,0.00098693,0.010946,-1.3972,0.015811,0.030767,9.8453e-07,0.3,0.26,0
0.011504,0.0023776,0.035383,0.00062117,0.010801,-0.00091049,0,0,0.031957,-0.013234,0,-0.0023673,0,0,0,0.035407,0.00059734,0.010801,-1.4993,0.015602,0.030994,9.8915e-07,0.31,0.26,0
0.011824,0.0023906,0.035293,0.0002268,0.010656,-0.00097638,0,0,0.032028,-0.013558,0,-0.0025386,0,0,0,0.03532,0.00019963,0.010656,-1.5937,0.015392,0.031234,9.9413e-07,0.32,0.26,0
0.012145,0.0024024,0.035213,-0.00018172,0.010509,-0.0010381,0,0,0.032114,-0.013898,0,-0.002699,0,0,0,0.035243,-0.00021214,0.010509,-1.6785,0.01518,0.031494,1.0001e-06,0.33,0.26,0
0.012467,0.0024133,0.035152,-0.00061296,0.010362,-0.0010956,0,0,0.032228,-0.014267,0,-0.0028486,0,0,0,0.035186,-0.0006465,0.010362,-1.753,0.014967,0.031791,1.008e-06,0.34,0.26,0
0.012789,0.0024236,0.035123,-0.0010746,0.010214,-0.0011527,0,0,0.032381,-0.014676,0,-0.0029971,0,0,0,0.03516,-0.0011113,0.010214,-1.8222,0.014754,0.032141,1.0191e-06,0.35,0.26,0
0.013114,0.0024336,0.035116,-0.0015822,0.01006,-0.0012199,0,0,0.032573,-0.015135,0,-0.0031716,0,0,0,0.035157,-0.0016227,0.01006,-1.9017,0.014531,0.032551,1.0329e-06,0.36,0.26,0
0.013441,0.002443,0.03507,-0.002125,0.0098835,-0.0013066,0,0,0.032743,-0.015611,0,-0.0033971,0,0,0,0.035116,-0.0021708,0.0098835,-2.0094,0.014276,0.032957,1.0439e-06,0.37,0.26,0
0.013769,0.002453,0.034922,-0.002572,0.0097049,-0.0013852,0,0,0.032782,-0.01596,0,-0.0036016,0,0,0,0.034973,-0.0026231,0.0097049,-2.113,0.014018,0.033196,1.0429e-06,0.38,0.26,0
0.014096,0.0024655,0.034251,-0.0030778,0.009352,-0.0012541,0,0,0.032369,-0.016159,0,-0.0032607,0,0,0,0.034293,-0.0031199,0.009352,-1.922,0.013508,0.032995,9.9603e-07,0.39,0.26,0
0.014416,0.00249,0.033917,-0.0033523,0.0091693,-0.00094676,0,0,0.032172,-0.016278,0,-0.0024616,0,0,0,0.033941,-0.0033764,0.0091693,-1.4543,0.013245,0.032891,9.7198e-07,0.4,0.26,0
0.01474,0.002528,0.033745,-0.0024623,0.009385,0.0003525,0,0,0.047157,-0.020535,0,0.0025845,0,0,0,0.033775,-0.0024923,0.009385,0.74915,0.013556,0.032119,8.8632e-07,0.41,0.26,0
0.015359,0.0026477,0.03411,0.0006584,0.010431,1.0734e-05,0,0,0.061567,-0.025407,0,5.5818e-05,0,0,0,0.03411,0.0006584,0.010431,0.018385,0.015066,0.029793,8.8193e-07,0.42,0.26,0
0.015971,0.0028412,0.034423,0.0009191,0.010603,0.0002338,0,0,0.061933,-0.025177,0,0.0012158,0,0,0,0.034425,0.00091747,0.010603,0.3998,0.015315,0.029867,8.9893e-07,0.43,0.26,0
0.016598,0.003001,0.034803,0.00043699,0.010572,-0.00020567,0,0,0.063001,-0.026351,0,-0.0010695,0,0,0,0.034804,0.00043576,0.010572,-0.34287,0.015271,0.030587,9.4407e-07,0.44,0.26,0
0.017231,0.0031441,0.034812,0.00011772,0.010479,-0.0003535,0,0,0.063267,-0.026939,0,-0.0018382,0,0,0,0.034816,0.00011412,0.010479,-0.58371,0.015136,0.030854,9.5465e-07,0.45,0.26,0
0.017864,0.0032789,0.034603,-8.324e-05,0.010356,-0.00038968,0,0,0.063043,-0.027142,0,-0.0020263,0,0,0,0.034607,-8.7617e-05,0.010356,-0.64357,0.014959,0.03083,9.4348e-07,0.46,0.26,0
0.018492,0.0034085,0.034345,-0.00017617,0.01025,-0.00039822,0,0,0.062644,-0.027109,0,-0.0020707,0,0,0,0.034349,-0.00018076,0.01025,-0.66083,0.014806,0.030675,9.2518e-07,0.47,0.26,0
0.019116,0.0035338,0.034087,-0.00020085,0.010166,-0.00040734,0,0,0.062194,-0.026953,0,-0.0021182,0,0,0,0.034091,-0.00020568,0.010166,-0.68056,0.014684,0.030466,9.0526e-07,0.48,0.26,0
0.019736,0.0036548,0.03385,-0.00018806,0.010098,-0.00042628,0,0,0.061753,-0.026745,0,-0.0022167,0,0,0,0.033855,-0.0001934,0.010098,-0.71742,0.014587,0.030246,8.8625e-07,0.49,0.26,0
0.020352,0.0037714,0.03364,-0.00015878,0.010044,-0.00045558,0,0,0.06135,-0.026529,0,-0.002369,0,0,0,0.033647,-0.00016492,0.010044,-0.7721,0.014509,0.030038,8.6924e-07,0.5,0.26,0
0.020963,0.0038832,0.03346,-0.00012599,0.01,-0.00049264,0,0,0.060996,-0.026328,0,-0.0025618,0,0,0,0.033468,-0.00013322,0.01,-0.84018,0.014445,0.029853,8.546e-07,0.51,0.26,0
0.021571,0.0039901,0.033307,-9.7182e-05,0.0099631,-0.00053413,0,0,0.060695,-0.026157,0,-0.0027775,0,0,0,0.033316,-0.00010572,0.0099631,-0.91583,0.014391,0.029696,8.4232e-07,0.52,0.26,0
0.022177,0.0040918,0.033179,-7.6158e-05,0.0099308,-0.00057691,0,0,0.060445,-0.026018,0,-0.0029999,0,0,0,0.033189,-8.6163e-05,0.0099308,-0.99357,0.014344,0.029568,8.322e-07,0.53,0.26,0
0.02278,0.0041884,0.033071,-6.4377e-05,0.009902,-0.00061843,0,0,0.06024,-0.025913,0,-0.0032158,0,0,0,0.033083,-7.5915e-05,0.009902,-1.0689,0.014303,0.029465,8.2398e-07,0.54,0.26,0
0.023382,0.00428,0.032981,-6.1848e-05,0.0098757,-0.00065682,0,0,0.060074,-0.025838,0,-0.0034154,0,0,0,0.032994,-7.4898e-05,0.0098757,-1.1383,0.014265,0.029385,8.1734e-07,0.55,0.26,0
0.023982,0.0043667,0.032905,-6.7734e-05,0.0098512,-0.00069078,0,0,0.05994,-0.025789,0,-0.0035921,0,0,0,0.032919,-8.22e-05,0.0098512,-1.1997,0.01423,0.029325,8.1202e-07,0.56,0.26,0
0.024581,0.0044485,0.032841,-8.0764e-05,0.009828,-0.00071957,0,0,0.059833,-0.025763,0,-0.0037418,0,0,0,0.032857,-9.6484e-05,0.009828,-1.2515,0.014196,0.029281,8.0775e-07,0.57,0.26,0
0.025178,0.0045259,0.032786,-9.9491e-05,0.0098059,-0.00074283,0,0,0.059748,-0.025754,0,-0.0038627,0,0,0,0.032803,-0.00011626,0.0098059,-1.2933,0.014164,0.029249,8.043e-07,0.58,0.26,0
0.025775,0.004599,0.032738,-0.00012247,0.0097847,-0.00076054,0,0,0.059679,-0.025759,0,-0.0039548,0,0,0,0.032756,-0.00014006,0.0097847,-1.3251,0.014134,0.029226,8.0148e-07,0.59,0.26,0
0.026372,0.0046679,0.032696,-0.00014836,0.0097643,-0.0007729,0,0,0.059623,-0.025773,0,-0.0040191,0,0,0,0.032714,-0.00016654,0.0097643,-1.3473,0.014104,0.02921,7.9912e-07,0.6,0.26,0
0.026968,0.0047331,0.032658,-0.00017599,0.0097447,-0.00078027,0,0,0.059575,-0.025794,0,-0.0040574,0,0,0,0.032677,-0.00019452,0.0097447,-1.3605,0.014076,0.029199,7.971e-07,0.61,0.26,0
0.027564,0.0047946,0.032624,-0.00020437,0.0097258,-0.0007831,0,0,0.059534,-0.025818,0,-0.0040721,0,0,0,0.032642,-0.00022304,0.0097258,-1.3657,0.014048,0.029191,7.9532e-07,0.62,0.26,0
0.028159,0.0048528,0.032592,-0.0002327,0.0097076,-0.00078189,0,0,0.059498,-0.025845,0,-0.0040659,0,0,0,0.03261,-0.00025132,0.0097076,-1.3638,0.014022,0.029185,7.9369e-07,0.63,0.26,0
0.028754,0.0049078,0.032561,-0.00026036,0.0096902,-0.00077716,0,0,0.059464,-0.025872,0,-0.0040412,0,0,0,0.03258,-0.00027875,0.0096902,-1.3557,0.013997,0.02918,7.9217e-07,0.64,0.26,0
0.029348,0.0049598,0.032532,-0.00028688,0.0096736,-0.0007694,0,0,0.059432,-0.025897,0,-0.0040009,0,0,0,0.03255,-0.00030491,0.0096736,-1.3422,0.013973,0.029175,7.907e-07,0.65,0.26,0
0.029942,0.0050091,0.032504,-0.00031195,0.0096577,-0.00075906,0,0,0.059401,-0.025921,0,-0.0039471,0,0,0,0.032522,-0.0003295,0.0096577,-1.3243,0.01395,0.02917,7.8927e-07,0.66,0.26,0
0.030536,0.0050557,0.032477,-0.00033536,0.0096426,-0.00074658,0,0,0.059371,-0.025943,0,-0.0038822,0,0,0,0.032495,-0.00035234,0.0096426,-1.3027,0.013928,0.029163,7.8785e-07,0.67,0.26,0
0.03113,0.0050997,0.032451,-0.000357,0.0096283,-0.00073231,0,0,0.05934,-0.025962,0,-0.003808,0,0,0,0.032468,-0.00037334,0.0096283,-1.278,0.013908,0.029156,7.8644e-07,0.68,0.26,0
0.031723,0.0051415,0.032426,-0.00037685,0.0096148,-0.00071658,0,0,0.059309,-0.025978,0,-0.0037262,0,0,0,0.032442,-0.00039249,0.0096148,-1.2508,0.013888,0.029149,7.8503e-07,0.69,0.26,0
0.032316,0.0051809,0.032401,-0.0003949,0.0096019,-0.00069966,0,0,0.059278,-0.025992,0,-0.0036382,0,0,0,0.032416,-0.00040982,0.0096019,-1.2216,0.013869,0.02914,7.8363e-07,0.7,0.26,0
0.032908,0.0052183,0.032377,-0.00041125,0.0095899,-0.00068176,0,0,0.059248,-0.026003,0,-0.0035452,0,0,0,0.032392,-0.00042542,0.0095899,-1.1906,0.013852,0.029131,7.8224e-07,0.71,0.26,0
0.033501,0.0052536,0.032354,-0.00042597,0.0095785,-0.00066309,0,0,0.059217,-0.026012,0,-0.003448,0,0,0,0.032368,-0.00043938,0.0095785,-1.1584,0.013836,0.029121,7.8086e-07,0.72,0.26,0
0.034093,0.005287,0.032332,-0.00043918,0.0095678,-0.00064377,0,0,0.059187,-0.026018,0,-0.0033476,0,0,0,0.032345,-0.00045183,0.0095678,-1.1249,0.01382,0.02911,7.7951e-07,0.73,0.26,0
0.034684,0.0053186,0.03231,-0.00045102,0.0095579,-0.00062391,0,0,0.059157,-0.026023,0,-0.0032444,0,0,0,0.032322,-0.0004629,0.0095579,-1.0906,0.013806,0.029099,7.7819e-07,0.74,0.26,0
0.035276,0.0053483,0.03229,-0.0004616,0.0095485,-0.00060362,0,0,0.059128,-0.026026,0,-0.0031388,0,0,0,0.032301,-0.00047272,0.0095485,-1.0555,0.013792,0.029088,7.769e-07,0.75,0.26,0
0.035867,0.0053764,0.03227,-0.00047105,0.0095398,-0.00058293,0,0,0.059099,-0.026028,0,-0.0030313,0,0,0,0.032281,-0.00048143,0.0095398,-1.0197,0.01378,0.029077,7.7565e-07,0.76,0.26,0
0.036458,0.0054028,0.032252,-0.00047951,0.0095317,-0.00056191,0,0,0.059072,-0.026029,0,-0.0029219,0,0,0,0.032261,-0.00048915,0.0095317,-0.98323,0.013768,0.029066,7.7445e-07,0.77,0.26,0
0.037048,0.0054276,0.032234,-0.00048707,0.0095241,-0.00054056,0,0,0.059046,-0.026029,0,-0.0028109,0,0,0,0.032243,-0.000496,0.0095241,-0.94619,0.013757,0.029055,7.733e-07,0.78,0.26,0
0.037639,0.0054509,0.032217,-0.00049385,0.0095171,-0.00051891,0,0,0.059021,-0.026028,0,-0.0026983,0,0,0,0.032226,-0.00050208,0.0095171,-0.9086,0.013747,0.029045,7.7221e-07,0.79,0.26,0
0.038229,0.0054728,0.032202,-0.00049995,0.0095105,-0.00049697,0,0,0.058997,-0.026027,0,-0.0025842,0,0,0,0.032209,-0.00050751,0.0095105,-0.87046,0.013737,0.029034,7.7117e-07,0.8,0.26,0
0.038819,0.0054933,0.032187,-0.00050546,0.0095045,-0.00047473,0,0,0.058975,-0.026026,0,-0.0024686,0,0,0,0.032194,-0.00051235,0.0095045,-0.83176,0.013729,0.029025,7.702e-07,0.81,0.26,0
0.039408,0.0055124,0.032174,-0.00051043,0.0094989,-0.0004522,0,0,0.058954,-0.026024,0,-0.0023514,0,0,0,0.03218,-0.00051669,0.0094989,-0.79252,0.013721,0.029015,7.6929e-07,0.82,0.26,0
0.039998,0.0055302,0.032161,-0.00051495,0.0094938,-0.00042937,0,0,0.058934,-0.026023,0,-0.0022327,0,0,0,0.032167,-0.00052059,0.0094938,-0.7527,0.013713,0.029007,7.6844e-07,0.83,0.26,0
0.040587,0.0055467,0.032149,-0.00051906,0.009489,-0.00040623,0,0,0.058916,-0.026021,0,-0.0021124,0,0,0,0.032154,-0.00052411,0.009489,-0.71232,0.013706,0.028999,7.6765e-07,0.84,0.26,0
0.041176,0.005562,0.032138,-0.00052281,0.0094847,-0.00038278,0,0,0.0589,-0.02602,0,-0.0019905,0,0,0,0.032143,-0.0005273,0.0094847,-0.67137,0.0137,0.028991,7.6692e-07,0.85,0.26,0
0.041765,0.0055761,0.032128,-0.00052624,0.0094807,-0.00035902,0,0,0.058884,-0.026018,0,-0.0018669,0,0,0,0.032133,-0.00053018,0.0094807,-0.62984,0.013694,0.028984,7.6625e-07,0.86,0.26,0
0.042354,0.0055891,0.03212,-0.00052937,0.0094771,-0.00033496,0,0,0.058871,-0.026017,0,-0.0017418,0,0,0,0.032123,-0.00053281,0.0094771,-0.58774,0.013689,0.028978,7.6564e-07,0.87,0.26,0
0.042942,0.005601,0.032112,-0.00053223,0.0094738,-0.00031059,0,0,0.058858,-0.026016,0,-0.0016151,0,0,0,0.032114,-0.00053518,0.0094738,-0.54507,0.013684,0.028972,7.6509e-07,0.88,0.26,0
0.043531,0.0056118,0.032104,-0.00053484,0.0094708,-0.00028592,0,0,0.058847,-0.026015,0,-0.0014868,0,0,0,0.032107,-0.00053734,0.0094708,-0.50186,0.01368,0.028967,7.6459e-07,0.89,0.26,0
0.044119,0.0056215,0.032098,-0.0005372,0.0094681,-0.00026096,0,0,0.058837,-0.026014,0,-0.001357,0,0,0,0.0321,-0.00053929,0.0094681,-0.45812,0.013676,0.028962,7.6414e-07,0.9,0.26,0
0.044708,0.0056302,0.032092,-0.00053934,0.0094658,-0.00023573,0,0,0.058828,-0.026013,0,-0.0012258,0,0,0,0.032093,-0.00054104,0.0094658,-0.41388,0.013673,0.028958,7.6375e-07,0.91,0.26,0
0.045296,0.005638,0.032087,-0.00054124,0.0094637,-0.00021024,0,0,0.05882,-0.026013,0,-0.0010933,0,0,0,0.032088,-0.0005426,0.0094637,-0.36917,0.01367,0.028955,7.634e-07,0.92,0.26,0
0.045884,0.0056448,0.032082,-0.00054293,0.0094618,-0.00018451,0,0,0.058813,-0.026012,0,-0.00095947,0,0,0,0.032083,-0.00054397,0.0094618,-0.32403,0.013667,0.028952,7.631e-07,0.93,0.26,0
0.046472,0.0056506,0.032079,-0.00054439,0.0094603,-0.00015857,0,0,0.058808,-0.026012,0,-0.00082458,0,0,0,0.032079,-0.00054516,0.0094603,-0.27849,0.013665,0.028949,7.6284e-07,0.94,0.26,0
0.04706,0.0056555,0.032075,-0.00054563,0.0094589,-0.00013244,0,0,0.058803,-0.026012,0,-0.00068871,0,0,0,0.032076,-0.00054617,0.0094589,-0.23262,0.013663,0.028947,7.6263e-07,0.95,0.26,0
0.047648,0.0056595,0.032073,-0.00054665,0.0094579,-0.00010615,0,0,0.058799,-0.026012,0,-0.000552,0,0,0,0.032073,-0.00054699,0.0094579,-0.18645,0.013661,0.028945,7.6245e-07,0.96,0.26,0
0.048236,0.0056626,0.032071,-0.00054744,0.009457,-7.9732e-05,0,0,0.058796,-0.026012,0,-0.00041461,0,0,0,0.032071,-0.00054763,0.009457,-0.14005,0.01366,0.028944,7.6232e-07,0.97,0.26,0
0.048824,0.0056648,0.03207,-0.000548,0.0094565,-5.3211e-05,0,0,0.058794,-0.026012,0,-0.00027669,0,0,0,0.03207,-0.00054809,0.0094565,-0.093469,0.013659,0.028943,7.6222e-07,0.98,0.26,0
0.049412,0.0056661,0.032069,-0.00054834,0.0094561,-2.6622e-05,0,0,0.058793,-0.026012,0,-0.00013844,0,0,0,0.032069,-0.00054837,0.0094561,-0.046765,0.013659,0.028942,7.6217e-07,0.99,0.26,0
0.05,0.0056665,0.032068,-0.00054846,0.009456,8.4326e-06,0,0,0.058792,-0.026012,0,4.385e-05,0,0,0,0.032068,-0.00054846,0.009456,0.014813,0.013659,0.028942,7.6215e-07,1,0.26,0
0,0,0.036067,0.015457,0.015457,0.0042717,0,0,0.053586,-7.5894e-19,0,0.022213,0,0,0,0.036917,0.014607,0.015457,11.258,0.022327,0.021898,5.3654e-07,0,0.27,0
0.00053586,0.00022213,0.03598,0.014591,0.015171,0.0042417,0,0,0.054102,-0.0015092,0,0.022057,0,0,0,0.03679,0.01378,0.015171,10.817,0.021914,0.022347,5.6569e-07,0.01,0.27,0
0.001082,0.00042724,0.036277,0.014039,0.015095,0.0040484,0,0,0.055074,-0.0027459,0,0.021052,0,0,0,0.036991,0.013324,0.015095,10.003,0.021803,0.022833,5.99e-07,0.02,0.27,0
0.0016373,0.00061517,0.036567,0.013613,0.015054,0.0038488,0,0,0.055934,-0.0037466,0,0.020014,0,0,0,0.037196,0.012985,0.015054,9.2693,0.021745,0.023245,6.2789e-07,0.03,0.27,0
0.0022007,0.00078524,0.036863,0.013319,0.015055,0.0036405,0,0,0.056701,-0.0045114,0,0.01893,0,0,0,0.037413,0.012769,0.015055,8.5923,0.021746,0.023584,6.5243e-07,0.04,0.27,0
0.0027714,0.00093662,0.037206,0.013207,0.015124,0.003419,0,0,0.057413,-0.0049843,0,0.017779,0,0,0,0.037683,0.012729,0.015124,7.952,0.021845,0.023847,6.7289e-07,0.05,0.27,0
0.003349,0.0010663,0.037634,0.013357,0.015297,0.0032117,0,0,0.058075,-0.0050443,0,0.016701,0,0,0,0.038052,0.012939,0.015297,7.4101,0.022096,0.02402,6.8871e-07,0.06,0.27,0
0.0039328,0.0011699,0.042355,0.014771,0.017138,0.0042054,0,0,0.045807,-0.0038675,0,0.015471,0,0,0,0.042985,0.014142,0.017138,8.5906,0.024755,0.027472,1.1569e-06,0.07,0.27,0
0.004328,0.0012495,0.033454,0.010526,0.013194,0.000731,0,0,0.036217,-0.0045384,0,0.0023176,0,0,0,0.03348,0.010501,0.013194,1.6699,0.019058,0.02176,5.9996e-07,0.08,0.27,0
0.0046242,0.0013415,0.037223,0.010942,0.01445,0.0016722,0,0,0.029606,-0.0045598,0,0.0043478,0,0,0,0.03733,0.010836,0.01445,3.6261,0.020872,0.024884,7.3544e-07,0.09,0.27,0
0.0049201,0.0014244,0.037101,0.010358,0.014238,0.0017567,0,0,0.029722,-0.0050431,0,0.0045675,0,0,0,0.037215,0.010243,0.014238,3.7424,0.020566,0.025213,7.5404e-07,0.1,0.27,0
0.0052186,0.0015042,0.037098,0.0095867,0.014005,0.0016971,0,0,0.03002,-0.0057442,0,0.0044126,0,0,0,0.037202,0.0094824,0.014005,3.5168,0.02023,0.025758,7.8724e-07,0.11,0.27,0
0.0055205,0.0015803,0.037133,0.0089552,0.013827,0.0015376,0,0,0.030299,-0.0063329,0,0.0039978,0,0,0,0.037217,0.0088715,0.013827,3.1141,0.019972,0.026222,8.1564e-07,0.12,0.27,0
0.0058246,0.0016509,0.037091,0.0083708,0.013638,0.0013339,0,0,0.030488,-0.0068479,0,0.0034682,0,0,0,0.037152,0.008309,0.013638,2.6536,0.0197,0.026582,8.3552e-07,0.13,0.27,0
0.0061303,0.0017163,0.037024,0.0078336,0.013457,0.001137,0,0,0.030637,-0.0073107,0,0.0029563,0,0,0,0.037068,0.0077894,0.013457,2.2273,0.019438,0.026897,8.5166e-07,0.14,0.27,0
0.0064373,0.0017764,0.036945,0.0073156,0.013278,0.00095241,0,0,0.030766,-0.0077512,0,0.0024763,0,0,0,0.036975,0.007285,0.013278,1.8392,0.019179,0.027194,8.6611e-07,0.15,0.27,0
0.0067456,0.0018317,0.036865,0.006814,0.013104,0.00077883,0,0,0.03089,-0.0081765,0,0.002025,0,0,0,0.036885,0.0067938,0.013104,1.4836,0.018927,0.027485,8.7985e-07,0.16,0.27,0
0.0070551,0.0018823,0.036785,0.0063292,0.012934,0.00061425,0,0,0.031006,-0.0085867,0,0.001597,0,0,0,0.036798,0.0063168,0.012934,1.1549,0.018683,0.02777,8.9286e-07,0.17,0.27,0
0.0073658,0.0019286,0.036704,0.0058617,0.01277,0.00045819,0,0,0.031114,-0.0089804,0,0.0011913,0,0,0,0.036711,0.0058549,0.01277,0.85093,0.018445,0.028045,9.0494e-07,0.18,0.27,0
0.0076774,0.0019707,0.036619,0.0054116,0.012609,0.00031117,0,0,0.031213,-0.0093568,0,0.00080904,0,0,0,0.036622,0.0054085,0.012609,0.57122,0.018213,0.028309,9.1592e-07,0.19,0.27,0
0.00799,0.002009,0.03653,0.0049783,0.012452,0.00017399,0,0,0.0313,-0.0097163,0,0.00045237,0,0,0,0.036531,0.0049773,0.012452,0.31595,0.017987,0.028559,9.2573e-07,0.2,0.27,0
0.0083034,0.0020437,0.036436,0.0045599,0.012299,4.7311e-05,0,0,0.031378,-0.01006,0,0.00012301,0,0,0,0.036436,0.0045598,0.012299,0.085039,0.017765,0.028797,9.3441e-07,0.21,0.27,0
0.0086176,0.002075,0.036338,0.004154,0.012148,-6.8661e-05,0,0,0.031447,-0.010391,0,-0.00017852,0,0,0,0.036338,0.0041539,0.012148,-0.12223,0.017546,0.029025,9.4208e-07,0.22,0.27,0
0.0089324,0.0021033,0.036236,0.003758,0.011998,-0.0001743,0,0,0.03151,-0.010712,0,-0.00045317,0,0,0,0.036237,0.0037571,0.011998,-0.30747,0.017331,0.029244,9.4887e-07,0.23,0.27,0
0.0092478,0.0021288,0.036132,0.003369,0.01185,-0.00027055,0,0,0.031567,-0.011026,0,-0.00070343,0,0,0,0.036135,0.0033667,0.01185,-0.47309,0.017117,0.029457,9.5496e-07,0.24,0.27,0
0.0095637,0.0021518,0.036027,0.0029845,0.011703,-0.00035883,0,0,0.031621,-0.011335,0,-0.00093295,0,0,0,0.036031,0.0029806,0.011703,-0.62211,0.016905,0.029667,9.6047e-07,0.25,0.27,0
0.0098802,0.0021723,0.03592,0.0026028,0.011557,-0.0004408,0,0,0.031672,-0.01164,0,-0.0011461,0,0,0,0.035926,0.0025969,0.011557,-0.75787,0.016693,0.029874,9.6551e-07,0.26,0.27,0
0.010197,0.0021907,0.035812,0.0022222,0.01141,-0.00051815,0,0,0.031722,-0.011944,0,-0.0013472,0,0,0,0.03582,0.0022143,0.01141,-0.88357,0.016481,0.030081,9.7012e-07,0.27,0.27,0
0.010515,0.0022071,0.035702,0.001842,0.011263,-0.0005924,0,0,0.031771,-0.012248,0,-0.0015402,0,0,0,0.035712,0.0018316,0.011263,-1.002,0.016269,0.030287,9.7432e-07,0.28,0.27,0
0.010833,0.0022216,0.035591,0.0014609,0.011116,-0.00066469,0,0,0.031818,-0.012551,0,-0.0017282,0,0,0,0.035604,0.0014479,0.011116,-1.1153,0.016056,0.030494,9.7816e-07,0.29,0.27,0
0.011151,0.0022344,0.035479,0.0010776,0.010967,-0.00073584,0,0,0.031866,-0.012856,0,-0.0019132,0,0,0,0.035495,0.0010618,0.010967,-1.2248,0.015841,0.030703,9.8169e-07,0.3,0.27,0
0.01147,0.0022456,0.035368,0.0006896,0.010817,-0.00080643,0,0,0.031916,-0.013166,0,-0.0020967,0,0,0,0.035387,0.00067086,0.010817,-1.3314,0.015625,0.030918,9.8509e-07,0.31,0.27,0
0.011789,0.0022553,0.035259,0.00029308,0.010666,-0.00087718,0,0,0.031971,-0.013484,0,-0.0022807,0,0,0,0.035281,0.00027109,0.010666,-1.4362,0.015406,0.031142,9.8868e-07,0.32,0.27,0
0.012109,0.0022638,0.035157,-0.00011769,0.010512,-0.00094937,0,0,0.032039,-0.013818,0,-0.0024684,0,0,0,0.035183,-0.00014322,0.010512,-1.5406,0.015184,0.031385,9.9292e-07,0.33,0.27,0
0.01243,0.002271,0.035067,-0.00054971,0.010355,-0.0010255,0,0,0.032125,-0.014176,0,-0.0026662,0,0,0,0.035096,-0.00057921,0.010355,-1.6478,0.014957,0.031658,9.9845e-07,0.34,0.27,0
0.012752,0.0022773,0.034991,-0.0010113,0.010194,-0.0011088,0,0,0.032236,-0.014567,0,-0.0028828,0,0,0,0.035025,-0.0010454,0.010194,-1.7623,0.014724,0.031968,1.0056e-06,0.35,0.27,0
0.013075,0.0022828,0.034921,-0.0015054,0.010025,-0.0011985,0,0,0.032365,-0.014989,0,-0.0031162,0,0,0,0.03496,-0.0015447,0.010025,-1.8825,0.01448,0.032313,1.0139e-06,0.36,0.27,0
0.013399,0.002288,0.03485,-0.0020113,0.0098516,-0.0012737,0,0,0.032498,-0.015422,0,-0.0033118,0,0,0,0.034894,-0.0020553,0.0098516,-1.9767,0.01423,0.032666,1.0216e-06,0.37,0.27,0
0.013725,0.0022943,0.034754,-0.0025261,0.0096683,-0.0012527,0,0,0.032611,-0.015853,0,-0.0032571,0,0,0,0.034796,-0.0025681,0.0096683,-1.9224,0.013965,0.032994,1.0261e-06,0.38,0.27,0
0.014051,0.0023048,0.034838,-0.0029909,0.0095541,-0.0010168,0,0,0.032869,-0.016309,0,-0.0026438,0,0,0,0.034865,-0.0030183,0.0095541,-1.5387,0.0138,0.033421,1.0431e-06,0.39,0.27,0
0.014382,0.002323,0.035241,-0.0038975,0.0094031,-0.00084848,0,0,0.03359,-0.017291,0,-0.002206,0,0,0,0.035259,-0.0039159,0.0094031,-1.2413,0.013582,0.034501,1.0991e-06,0.4,0.27,0
0.014723,0.0023255,0.031933,-0.0020713,0.0089585,0.00072967,0,0,0.040967,-0.0194,0,0.003513,0,0,0,0.031964,-0.0021028,0.0089585,1.5711,0.01294,0.030103,9.4021e-07,0.41,0.27,0
0.015167,0.002407,0.040127,3.8399e-05,0.01205,-0.0012951,0,0,0.050801,-0.021284,0,-0.003917,0,0,0,0.040177,-1.1914e-05,0.01205,-1.6465,0.017405,0.035723,1.6757e-06,0.42,0.27,0
0.015803,0.0025946,0.035721,0.0015865,0.011192,0.00024652,0,0,0.063774,-0.024975,0,0.0012819,0,0,0,0.035723,0.0015847,0.011192,0.41377,0.016167,0.030491,9.8353e-07,0.43,0.27,0
0.016443,0.0027378,0.035418,0.00066223,0.010824,-7.1428e-05,0,0,0.063944,-0.02642,0,-0.00037143,0,0,0,0.035418,0.00066209,0.010824,-0.11775,0.015635,0.030952,9.88e-07,0.44,0.27,0
0.017082,0.002874,0.035128,0.00017011,0.010589,-8.9774e-05,0,0,0.0638,-0.02709,0,-0.00046683,0,0,0,0.035128,0.00016988,0.010589,-0.14714,0.015296,0.031087,9.789e-07,0.45,0.27,0
0.017719,0.0030066,0.034825,-6.4482e-05,0.010428,-9.7581e-05,0,0,0.063431,-0.027281,0,-0.00050742,0,0,0,0.034825,-6.4755e-05,0.010428,-0.16025,0.015063,0.031005,9.6069e-07,0.46,0.27,0
0.018351,0.0031366,0.034523,-0.00015503,0.010311,-0.00011529,0,0,0.062953,-0.02721,0,-0.00059952,0,0,0,0.034524,-0.00015542,0.010311,-0.19048,0.014893,0.03081,9.386e-07,0.47,0.27,0
0.018978,0.0032636,0.034245,-0.00016803,0.010223,-0.00015113,0,0,0.062457,-0.027017,0,-0.00078588,0,0,0,0.034246,-0.0001687,0.010223,-0.25162,0.014767,0.030573,9.1651e-07,0.48,0.27,0
0.0196,0.0033869,0.033999,-0.00014424,0.010157,-0.00020251,0,0,0.061991,-0.026782,0,-0.0010531,0,0,0,0.034001,-0.00014544,0.010157,-0.33982,0.014671,0.030337,8.9637e-07,0.49,0.27,0
0.020217,0.0035057,0.033789,-0.00010733,0.010105,-0.0002644,0,0,0.06158,-0.026551,0,-0.0013749,0,0,0,0.033791,-0.00010939,0.010105,-0.44688,0.014595,0.030122,8.7893e-07,0.5,0.27,0
0.020831,0.0036196,0.033612,-7.0824e-05,0.010062,-0.00033148,0,0,0.061229,-0.026346,0,-0.0017237,0,0,0,0.033615,-7.4086e-05,0.010062,-0.5638,0.014534,0.029937,8.6432e-07,0.51,0.27,0
0.021442,0.0037282,0.033464,-4.1734e-05,0.010027,-0.00039933,0,0,0.060937,-0.026178,0,-0.0020765,0,0,0,0.033469,-4.6493e-05,0.010027,-0.68273,0.014483,0.029785,8.5233e-07,0.52,0.27,0
0.02205,0.0038313,0.033341,-2.3137e-05,0.0099953,-0.00046452,0,0,0.060698,-0.026048,0,-0.0024155,0,0,0,0.033347,-2.9603e-05,0.0099953,-0.79752,0.014438,0.029663,8.4264e-07,0.53,0.27,0
0.022656,0.003929,0.033239,-1.5737e-05,0.0099669,-0.0005247,0,0,0.060506,-0.025955,0,-0.0027284,0,0,0,0.033247,-2.4013e-05,0.0099669,-0.90373,0.014397,0.02957,8.349e-07,0.54,0.27,0
0.02326,0.0040213,0.033153,-1.8874e-05,0.0099403,-0.00057829,0,0,0.060354,-0.025894,0,-0.0030071,0,0,0,0.033163,-2.8952e-05,0.0099403,-0.99843,0.014358,0.029499,8.2876e-07,0.55,0.27,0
0.023863,0.0041083,0.033082,-3.1151e-05,0.0099151,-0.00062445,0,0,0.060233,-0.02586,0,-0.0032471,0,0,0,0.033093,-4.2923e-05,0.0099151,-1.08,0.014322,0.029448,8.239e-07,0.56,0.27,0
0.024465,0.0041904,0.033021,-5.0845e-05,0.0098909,-0.00066285,0,0,0.060137,-0.025848,0,-0.0034468,0,0,0,0.033034,-6.4125e-05,0.0098909,-1.1478,0.014287,0.029412,8.2002e-07,0.57,0.27,0
0.025066,0.0042678,0.032968,-7.6165e-05,0.0098674,-0.00069356,0,0,0.060061,-0.025853,0,-0.0036065,0,0,0,0.032982,-9.0716e-05,0.0098674,-1.2019,0.014253,0.029388,8.1689e-07,0.58,0.27,0
0.025666,0.0043408,0.032921,-0.00010542,0.0098447,-0.00071696,0,0,0.059999,-0.02587,0,-0.0037282,0,0,0,0.032937,-0.00012098,0.0098447,-1.243,0.01422,0.029371,8.1431e-07,0.59,0.27,0
0.026266,0.0044096,0.032879,-0.00013711,0.0098226,-0.0007336,0,0,0.059947,-0.025895,0,-0.0038147,0,0,0,0.032896,-0.0001534,0.0098226,-1.2722,0.014188,0.029361,8.1211e-07,0.6,0.27,0
0.026865,0.0044745,0.032841,-0.00016996,0.0098013,-0.00074415,0,0,0.059903,-0.025925,0,-0.0038696,0,0,0,0.032858,-0.00018673,0.0098013,-1.2907,0.014157,0.029354,8.1018e-07,0.61,0.27,0
0.027464,0.0045357,0.032805,-0.00020295,0.0097806,-0.00074933,0,0,0.059863,-0.025957,0,-0.0038965,0,0,0,0.032822,-0.00021995,0.0097806,-1.2998,0.014127,0.029349,8.0841e-07,0.62,0.27,0
0.028062,0.0045936,0.032771,-0.00023528,0.0097607,-0.00074987,0,0,0.059827,-0.025989,0,-0.0038993,0,0,0,0.032788,-0.0002523,0.0097607,-1.3008,0.014099,0.029344,8.0674e-07,0.63,0.27,0
0.02866,0.0046483,0.032738,-0.00026634,0.0097416,-0.00074644,0,0,0.059791,-0.02602,0,-0.0038815,0,0,0,0.032755,-0.00028321,0.0097416,-1.2949,0.014071,0.02934,8.0512e-07,0.64,0.27,0
0.029258,0.0047001,0.032706,-0.00029573,0.0097232,-0.00073969,0,0,0.059757,-0.026049,0,-0.0038464,0,0,0,0.032723,-0.0003123,0.0097232,-1.2833,0.014045,0.029335,8.0351e-07,0.65,0.27,0
0.029856,0.0047491,0.032676,-0.00032318,0.0097058,-0.00073019,0,0,0.059722,-0.026075,0,-0.003797,0,0,0,0.032692,-0.00033933,0.0097058,-1.267,0.014019,0.029329,8.0191e-07,0.66,0.27,0
0.030453,0.0047954,0.032646,-0.00034855,0.0096891,-0.00071844,0,0,0.059687,-0.026098,0,-0.0037359,0,0,0,0.032661,-0.00036418,0.0096891,-1.2468,0.013995,0.029321,8.0029e-07,0.67,0.27,0
0.031049,0.0048393,0.032616,-0.00037178,0.0096733,-0.00070487,0,0,0.059651,-0.026117,0,-0.0036653,0,0,0,0.032631,-0.00038683,0.0096733,-1.2235,0.013973,0.029313,7.9867e-07,0.68,0.27,0
0.031646,0.0048809,0.032587,-0.0003929,0.0096583,-0.00068984,0,0,0.059615,-0.026133,0,-0.0035872,0,0,0,0.032602,-0.00040732,0.0096583,-1.1978,0.013951,0.029303,7.9703e-07,0.69,0.27,0
0.032242,0.0049202,0.032559,-0.00041199,0.0096442,-0.00067365,0,0,0.059579,-0.026146,0,-0.003503,0,0,0,0.032573,-0.00042575,0.0096442,-1.17,0.013931,0.029292,7.954e-07,0.7,0.27,0
0.032837,0.0049575,0.032532,-0.00042916,0.0096308,-0.00065654,0,0,0.059543,-0.026156,0,-0.003414,0,0,0,0.032545,-0.00044223,0.0096308,-1.1406,0.013911,0.02928,7.9378e-07,0.71,0.27,0
0.033432,0.0049927,0.032505,-0.00044454,0.0096183,-0.0006387,0,0,0.059507,-0.026163,0,-0.0033213,0,0,0,0.032518,-0.00045692,0.0096183,-1.1101,0.013893,0.029268,7.9217e-07,0.72,0.27,0
0.034027,0.0050261,0.03248,-0.0004583,0.0096065,-0.00062028,0,0,0.059471,-0.026169,0,-0.0032254,0,0,0,0.032492,-0.00046997,0.0096065,-1.0785,0.013876,0.029255,7.9059e-07,0.73,0.27,0
0.034622,0.0050576,0.032455,-0.00047058,0.0095955,-0.00060138,0,0,0.059436,-0.026172,0,-0.0031272,0,0,0,0.032466,-0.00048156,0.0095955,-1.046,0.01386,0.029242,7.8905e-07,0.74,0.27,0
0.035216,0.0050873,0.032432,-0.00048154,0.0095851,-0.00058208,0,0,0.059402,-0.026173,0,-0.0030268,0,0,0,0.032442,-0.00049183,0.0095851,-1.0129,0.013845,0.029229,7.8755e-07,0.75,0.27,0
0.03581,0.0051153,0.03241,-0.00049134,0.0095755,-0.00056243,0,0,0.059369,-0.026174,0,-0.0029246,0,0,0,0.032419,-0.00050095,0.0095755,-0.97908,0.013831,0.029216,7.8611e-07,0.76,0.27,0
0.036403,0.0051417,0.032388,-0.0005001,0.0095665,-0.00054247,0,0,0.059337,-0.026173,0,-0.0028209,0,0,0,0.032397,-0.00050905,0.0095665,-0.94471,0.013818,0.029203,7.8472e-07,0.77,0.27,0
0.036997,0.0051666,0.032368,-0.00050797,0.0095581,-0.00052221,0,0,0.059306,-0.026172,0,-0.0027155,0,0,0,0.032377,-0.00051626,0.0095581,-0.90979,0.013806,0.02919,7.834e-07,0.78,0.27,0
0.03759,0.0051899,0.032349,-0.00051505,0.0095502,-0.00050166,0,0,0.059277,-0.02617,0,-0.0026086,0,0,0,0.032357,-0.0005227,0.0095502,-0.87433,0.013795,0.029178,7.8214e-07,0.79,0.27,0
0.038182,0.0052118,0.032331,-0.00052144,0.009543,-0.00048081,0,0,0.05925,-0.026168,0,-0.0025002,0,0,0,0.032338,-0.00052848,0.009543,-0.8383,0.013784,0.029166,7.8096e-07,0.8,0.27,0
0.038775,0.0052323,0.032315,-0.00052725,0.0095363,-0.00045966,0,0,0.059224,-0.026165,0,-0.0023903,0,0,0,0.032321,-0.00053368,0.0095363,-0.80171,0.013775,0.029155,7.7985e-07,0.81,0.27,0
0.039367,0.0052514,0.032299,-0.00053253,0.00953,-0.0004382,0,0,0.0592,-0.026163,0,-0.0022787,0,0,0,0.032305,-0.00053838,0.00953,-0.76454,0.013766,0.029144,7.7881e-07,0.82,0.27,0
0.039959,0.0052692,0.032285,-0.00053737,0.0095243,-0.00041642,0,0,0.059178,-0.02616,0,-0.0021654,0,0,0,0.03229,-0.00054265,0.0095243,-0.72676,0.013757,0.029135,7.7784e-07,0.83,0.27,0
0.04055,0.0052858,0.032272,-0.0005418,0.009519,-0.0003943,0,0,0.059157,-0.026158,0,-0.0020504,0,0,0,0.032276,-0.00054654,0.009519,-0.68836,0.01375,0.029125,7.7695e-07,0.84,0.27,0
0.041142,0.0053011,0.03226,-0.00054588,0.0095141,-0.00037185,0,0,0.059138,-0.026156,0,-0.0019336,0,0,0,0.032264,-0.0005501,0.0095141,-0.64933,0.013743,0.029117,7.7613e-07,0.85,0.27,0
0.041733,0.0053153,0.032248,-0.00054964,0.0095097,-0.00034905,0,0,0.059121,-0.026154,0,-0.001815,0,0,0,0.032252,-0.00055335,0.0095097,-0.60966,0.013736,0.029109,7.7537e-07,0.86,0.27,0
0.042324,0.0053282,0.032238,-0.0005531,0.0095056,-0.0003259,0,0,0.059105,-0.026153,0,-0.0016947,0,0,0,0.032242,-0.00055634,0.0095056,-0.56936,0.01373,0.029102,7.7468e-07,0.87,0.27,0
0.042915,0.0053401,0.032229,-0.00055629,0.0095019,-0.00030241,0,0,0.059091,-0.026151,0,-0.0015725,0,0,0,0.032232,-0.00055908,0.0095019,-0.52843,0.013725,0.029096,7.7406e-07,0.88,0.27,0
0.043506,0.0053509,0.032221,-0.00055921,0.0094985,-0.00027858,0,0,0.059078,-0.02615,0,-0.0014486,0,0,0,0.032223,-0.00056158,0.0094985,-0.48688,0.01372,0.02909,7.735e-07,0.89,0.27,0
0.044097,0.0053607,0.032214,-0.00056188,0.0094955,-0.00025443,0,0,0.059067,-0.026149,0,-0.001323,0,0,0,0.032216,-0.00056385,0.0094955,-0.44474,0.013716,0.029085,7.73e-07,0.9,0.27,0
0.044687,0.0053694,0.032207,-0.0005643,0.0094928,-0.00022997,0,0,0.059057,-0.026149,0,-0.0011958,0,0,0,0.032209,-0.00056591,0.0094928,-0.40203,0.013712,0.029081,7.7256e-07,0.91,0.27,0
0.045278,0.0053772,0.032201,-0.00056647,0.0094905,-0.00020521,0,0,0.059048,-0.026148,0,-0.0010671,0,0,0,0.032203,-0.00056776,0.0094905,-0.3588,0.013708,0.029077,7.7217e-07,0.92,0.27,0
0.045868,0.005384,0.032196,-0.0005684,0.0094884,-0.00018019,0,0,0.059041,-0.026148,0,-0.00093698,0,0,0,0.032197,-0.00056939,0.0094884,-0.31508,0.013706,0.029073,7.7183e-07,0.93,0.27,0
0.046459,0.0053898,0.032192,-0.00057008,0.0094866,-0.00015492,0,0,0.059034,-0.026147,0,-0.00080559,0,0,0,0.032193,-0.00057081,0.0094866,-0.27092,0.013703,0.02907,7.7154e-07,0.94,0.27,0
0.047049,0.0053947,0.032189,-0.0005715,0.0094851,-0.00012944,0,0,0.059029,-0.026147,0,-0.00067309,0,0,0,0.032189,-0.00057202,0.0094851,-0.22638,0.013701,0.029068,7.713e-07,0.95,0.27,0
0.047639,0.0053987,0.032186,-0.00057268,0.0094839,-0.00010378,0,0,0.059025,-0.026147,0,-0.00053964,0,0,0,0.032186,-0.00057301,0.0094839,-0.18151,0.013699,0.029066,7.7111e-07,0.96,0.27,0
0.048229,0.0054018,0.032183,-0.00057359,0.009483,-7.7965e-05,0,0,0.059021,-0.026147,0,-0.00040542,0,0,0,0.032184,-0.00057378,0.009483,-0.13637,0.013698,0.029065,7.7096e-07,0.97,0.27,0
0.04882,0.005404,0.032182,-0.00057425,0.0094823,-5.204e-05,0,0,0.059019,-0.026147,0,-0.00027061,0,0,0,0.032182,-0.00057433,0.0094823,-0.091026,0.013697,0.029064,7.7086e-07,0.98,0.27,0
0.04941,0.0054053,0.032181,-0.00057465,0.0094819,-2.6039e-05,0,0,0.059018,-0.026147,0,-0.0001354,0,0,0,0.032181,-0.00057467,0.0094819,-0.045548,0.013696,0.029063,7.7079e-07,0.99,0.27,0
0.05,0.0054057,0.032181,-0.00057478,0.0094818,8.434e-06,0,0,0.059017,-0.026147,0,4.3857e-05,0,0,0,0.032181,-0.00057478,0.0094818,0.014753,0.013696,0.029063,7.7077e-07,1,0.27,0
0,0,0.036481,0.015635,0.015635,0.0039797,0,0,0.0542,-6.5052e-19,0,0.020695,0,0,0,0.037215,0.014901,0.015635,10.449,0.022583,0.021956,5.4159e-07,0,0.28,0
0.000542,0.00020695,0.036393,0.014772,0.01535,0.0039457,0,0,0.054713,-0.0015011,0,0.020518,0,0,0,0.037091,0.014075,0.01535,10.026,0.022172,0.022406,5.7141e-07,0.01,0.28,0
0.0010943,0.0003997,0.03669,0.014231,0.015276,0.003764,0,0,0.055676,-0.0027179,0,0.019573,0,0,0,0.037304,0.013617,0.015276,9.2652,0.022066,0.022903,6.0608e-07,0.02,0.28,0
0.0016555,0.00057765,0.036986,0.013825,0.015244,0.003562,0,0,0.056531,-0.0036873,0,0.018523,0,0,0,0.037522,0.01329,0.015244,8.5487,0.022018,0.023317,6.3566e-07,0.03,0.28,0
0.0022249,0.0007401,0.037313,0.013565,0.015263,0.0033316,0,0,0.057329,-0.0044168,0,0.017324,0,0,0,0.037772,0.013106,0.015263,7.8364,0.022047,0.023661,6.6129e-07,0.04,0.28,0
0.0028021,0.00088594,0.037716,0.013477,0.015358,0.0030657,0,0,0.058131,-0.0048894,0,0.015942,0,0,0,0.038098,0.013096,0.015358,7.0979,0.022184,0.023951,6.8448e-07,0.05,0.28,0
0.0033875,0.0010144,0.038254,0.013676,0.015579,0.002737,0,0,0.058955,-0.0049474,0,0.014233,0,0,0,0.038555,0.013375,0.015579,6.2781,0.022503,0.024154,7.0344e-07,0.06,0.28,0
0.0039812,0.0011241,0.037902,0.013081,0.015295,0.003028,0,0,0.044231,-0.0038369,0,0.011079,0,0,0,0.038275,0.012708,0.015295,6.8235,0.022093,0.024387,7.1392e-07,0.07,0.28,0
0.0042721,0.0011989,0.038011,0.011648,0.014898,0.0020297,0,0,0.030047,-0.0042244,0,0.0052771,0,0,0,0.038167,0.011493,0.014898,4.3768,0.021519,0.025145,7.6627e-07,0.08,0.28,0
0.0045822,0.0012928,0.038479,0.011097,0.014873,0.0021216,0,0,0.030688,-0.0049083,0,0.0055161,0,0,0,0.038642,0.010934,0.014873,4.4044,0.021483,0.025964,8.2964e-07,0.09,0.28,0
0.0048859,0.0013725,0.037761,0.010464,0.014468,0.0018633,0,0,0.030282,-0.0052047,0,0.0048445,0,0,0,0.037888,0.010337,0.014468,3.8868,0.020898,0.025735,7.9993e-07,0.1,0.28,0
0.0051878,0.0014473,0.037421,0.0098061,0.014168,0.0017528,0,0,0.030229,-0.0056707,0,0.0045572,0,0,0,0.037532,0.0096953,0.014168,3.6173,0.020465,0.025892,8.025e-07,0.11,0.28,0
0.0054905,0.0015176,0.037275,0.0091658,0.013932,0.0015944,0,0,0.030346,-0.0061964,0,0.0041454,0,0,0,0.037365,0.0090757,0.013932,3.236,0.020125,0.026201,8.1785e-07,0.12,0.28,0
0.0057947,0.0015832,0.037193,0.0085786,0.013731,0.0014089,0,0,0.0305,-0.0066986,0,0.0036632,0,0,0,0.037262,0.0085094,0.013731,2.8121,0.019834,0.02653,8.3513e-07,0.13,0.28,0
0.0061005,0.0016438,0.037114,0.0080232,0.013541,0.0012168,0,0,0.030645,-0.0071732,0,0.0031636,0,0,0,0.037165,0.0079724,0.013541,2.3909,0.019559,0.026845,8.5122e-07,0.14,0.28,0
0.0064076,0.0016995,0.037034,0.0074933,0.013358,0.0010322,0,0,0.030779,-0.0076245,0,0.0026836,0,0,0,0.03707,0.0074573,0.013358,1.9987,0.019295,0.027148,8.662e-07,0.15,0.28,0
0.006716,0.0017505,0.036953,0.0069821,0.01318,0.00085826,0,0,0.030904,-0.0080579,0,0.0022315,0,0,0,0.036977,0.0069575,0.01318,1.639,0.019038,0.027443,8.8025e-07,0.16,0.28,0
0.0070257,0.001797,0.03687,0.0064882,0.013007,0.00069517,0,0,0.031021,-0.0084749,0,0.0018074,0,0,0,0.036886,0.0064723,0.013007,1.3101,0.018788,0.02773,8.9341e-07,0.17,0.28,0
0.0073365,0.0018393,0.036784,0.0060115,0.012839,0.00054243,0,0,0.031129,-0.0088754,0,0.0014103,0,0,0,0.036794,0.006002,0.012839,1.0095,0.018545,0.028007,9.056e-07,0.18,0.28,0
0.0076483,0.0018776,0.036695,0.0055517,0.012674,0.00039985,0,0,0.031228,-0.0092591,0,0.0010396,0,0,0,0.0367,0.0055466,0.012674,0.73546,0.018307,0.028272,9.167e-07,0.19,0.28,0
0.007961,0.0019123,0.036602,0.0051081,0.012513,0.00026748,0,0,0.031316,-0.0096266,0,0.00069544,0,0,0,0.036605,0.0051058,0.012513,0.48656,0.018075,0.028526,9.2665e-07,0.2,0.28,0
0.0082746,0.0019435,0.036505,0.004679,0.012355,0.00014534,0,0,0.031395,-0.009979,0,0.00037788,0,0,0,0.036506,0.0046784,0.012355,0.26164,0.017846,0.028768,9.3548e-07,0.21,0.28,0
0.0085889,0.0019715,0.036403,0.0042628,0.0122,3.3245e-05,0,0,0.031464,-0.010318,0,8.6436e-05,0,0,0,0.036403,0.0042627,0.0122,0.059264,0.017622,0.028998,9.4328e-07,0.22,0.28,0
0.0089039,0.0019965,0.036298,0.003857,0.012046,-6.9318e-05,0,0,0.031527,-0.010646,0,-0.00018023,0,0,0,0.036298,0.0038568,0.012046,-0.12243,0.017401,0.02922,9.5014e-07,0.23,0.28,0
0.0092194,0.0020189,0.03619,0.0034594,0.011895,-0.00016322,0,0,0.031584,-0.010966,0,-0.00042438,0,0,0,0.036191,0.0034585,0.011895,-0.28571,0.017181,0.029435,9.5619e-07,0.24,0.28,0
0.0095356,0.0020387,0.036079,0.0030678,0.011744,-0.00024963,0,0,0.031635,-0.011279,0,-0.00064905,0,0,0,0.036081,0.003066,0.011744,-0.43324,0.016964,0.029644,9.6153e-07,0.25,0.28,0
0.0098522,0.0020562,0.035966,0.0026806,0.011594,-0.0003299,0,0,0.031683,-0.011587,0,-0.00085774,0,0,0,0.035969,0.0026773,0.011594,-0.56781,0.016747,0.029849,9.6624e-07,0.26,0.28,0
0.010169,0.0020716,0.03585,0.0022961,0.011444,-0.00040543,0,0,0.031728,-0.011892,0,-0.0010541,0,0,0,0.035855,0.0022912,0.011444,-0.69217,0.01653,0.030051,9.7035e-07,0.27,0.28,0
0.010487,0.0020849,0.035731,0.0019132,0.011293,-0.00047756,0,0,0.031769,-0.012194,0,-0.0012417,0,0,0,0.035738,0.0019065,0.011293,-0.80889,0.016313,0.030251,9.739e-07,0.28,0.28,0
0.010805,0.0020964,0.03561,0.0015305,0.011142,-0.00054754,0,0,0.031808,-0.012495,0,-0.0014236,0,0,0,0.035618,0.0015218,0.011142,-0.92024,0.016094,0.030449,9.769e-07,0.29,0.28,0
0.011123,0.0021062,0.035485,0.0011464,0.010989,-0.00061658,0,0,0.031844,-0.012796,0,-0.0016031,0,0,0,0.035496,0.0011353,0.010989,-1.0284,0.015874,0.030646,9.7939e-07,0.3,0.28,0
0.011442,0.0021143,0.035358,0.0007584,0.010835,-0.00068606,0,0,0.03188,-0.013099,0,-0.0017838,0,0,0,0.035372,0.0007448,0.010835,-1.1355,0.01565,0.030845,9.8148e-07,0.31,0.28,0
0.011761,0.0021209,0.035229,0.000363,0.010678,-0.00075782,0,0,0.031917,-0.013409,0,-0.0019703,0,0,0,0.035245,0.00034654,0.010678,-1.2446,0.015423,0.03105,9.8334e-07,0.32,0.28,0
0.01208,0.002126,0.0351,-4.4523e-05,0.010517,-0.00083447,0,0,0.031958,-0.01373,0,-0.0021696,0,0,0,0.03512,-6.4325e-05,0.010517,-1.3594,0.015191,0.031267,9.8526e-07,0.33,0.28,0
0.0124,0.0021298,0.034973,-0.00047015,0.010351,-0.00091937,0,0,0.032009,-0.014067,0,-0.0023903,0,0,0,0.034997,-0.00049398,0.010351,-1.4849,0.014951,0.031501,9.8758e-07,0.34,0.28,0
0.01272,0.0021323,0.034852,-0.00091991,0.010179,-0.001015,0,0,0.032074,-0.014429,0,-0.002639,0,0,0,0.03488,-0.00094868,0.010179,-1.624,0.014704,0.031762,9.9067e-07,0.35,0.28,0
0.013041,0.0021338,0.034744,-0.0013973,0.010004,-0.0011179,0,0,0.032162,-0.014822,0,-0.0029066,0,0,0,0.034778,-0.0014318,0.010004,-1.77,0.01445,0.03206,9.9529e-07,0.36,0.28,0
0.013363,0.0021346,0.034676,-0.0019091,0.0098302,-0.0012082,0,0,0.0323,-0.015261,0,-0.0031414,0,0,0,0.034716,-0.0019489,0.0098302,-1.8894,0.014199,0.032422,1.0036e-06,0.37,0.28,0
0.013687,0.0021359,0.034751,-0.002464,0.0096862,-0.0012483,0,0,0.032585,-0.015795,0,-0.0032455,0,0,0,0.034793,-0.0025058,0.0096862,-1.9189,0.013991,0.032941,1.0243e-06,0.38,0.28,0
0.014015,0.0021393,0.035161,-0.0031437,0.009605,-0.0012338,0,0,0.033222,-0.016573,0,-0.003208,0,0,0,0.0352,-0.0031834,0.009605,-1.843,0.013874,0.033852,1.0767e-06,0.39,0.28,0
0.014351,0.0021442,0.035675,-0.0041724,0.0094507,-0.0012806,0,0,0.034091,-0.01771,0,-0.0033296,0,0,0,0.035716,-0.0042135,0.0094507,-1.8389,0.013651,0.035149,1.148e-06,0.4,0.28,0
0.014697,0.0021484,0.035567,-0.0039015,0.0094998,-0.00047899,0,0,0.033888,-0.017422,0,-0.0012454,0,0,0,0.035573,-0.0039073,0.0094998,-0.6952,0.013722,0.034773,1.1277e-06,0.41,0.28,0
0.015029,0.0022081,0.035371,-0.00092315,0.010334,-0.00039559,0,0,0.048468,-0.019513,0,-0.00013939,0,0,0,0.035405,-0.00095723,0.010334,-0.42729,0.014927,0.032323,9.8968e-07,0.42,0.28,0
0.015666,0.0023416,0.035979,0.0017705,0.011325,0.00040828,0,0,0.064101,-0.024841,0,0.0021231,0,0,0,0.035984,0.0017657,0.011325,0.68369,0.016358,0.030581,9.9949e-07,0.43,0.28,0
0.016311,0.0024726,0.035682,0.00074867,0.010929,0.000286,0,0,0.064357,-0.026469,0,0.0014872,0,0,0,0.035684,0.00074633,0.010929,0.46905,0.015787,0.031122,1.0079e-06,0.44,0.28,0
0.016953,0.0026023,0.035234,0.00019719,0.010629,0.0002468,0,0,0.063972,-0.027123,0,0.0012833,0,0,0,0.035236,0.00019546,0.010629,0.40356,0.015354,0.031162,9.8716e-07,0.45,0.28,0
0.017591,0.0027333,0.034874,-3.2448e-05,0.010452,0.00022467,0,0,0.063495,-0.027261,0,0.0011683,0,0,0,0.034875,-3.3894e-05,0.010452,0.36876,0.015098,0.031025,9.6394e-07,0.46,0.28,0
0.018223,0.0028643,0.03456,-0.00010401,0.010337,0.00017512,0,0,0.06298,-0.027146,0,0.00091064,0,0,0,0.034561,-0.0001049,0.010337,0.28945,0.014931,0.030802,9.4018e-07,0.47,0.28,0
0.01885,0.0029934,0.034289,-0.00010112,0.010256,0.00010151,0,0,0.062485,-0.02693,0,0.00052785,0,0,0,0.034289,-0.00010142,0.010256,0.16912,0.014815,0.030558,9.1812e-07,0.48,0.28,0
0.019473,0.0031192,0.03406,-6.6654e-05,0.010198,1.2043e-05,0,0,0.062042,-0.026688,0,6.2622e-05,0,0,0,0.03406,-6.6658e-05,0.010198,0.020218,0.014731,0.030327,8.9888e-07,0.49,0.28,0
0.020091,0.0032404,0.033869,-2.5088e-05,0.010153,-8.469e-05,0,0,0.061662,-0.026464,0,-0.00044039,0,0,0,0.033869,-2.5299e-05,0.010153,-0.14316,0.014666,0.030124,8.8272e-07,0.5,0.28,0
0.020706,0.0033563,0.033711,1.1253e-05,0.010117,-0.00018216,0,0,0.061345,-0.026274,0,-0.00094724,0,0,0,0.033712,1.0268e-05,0.010117,-0.3097,0.014613,0.029956,8.6949e-07,0.51,0.28,0
0.021318,0.0034665,0.033581,3.6536e-05,0.010085,-0.00027565,0,0,0.061088,-0.026126,0,-0.0014334,0,0,0,0.033583,3.4271e-05,0.010085,-0.47079,0.014567,0.029822,8.5887e-07,0.52,0.28,0
0.021928,0.0035708,0.033473,4.8829e-05,0.010056,-0.00036202,0,0,0.060882,-0.02602,0,-0.0018825,0,0,0,0.033477,4.4908e-05,0.010056,-0.62048,0.014526,0.029719,8.5045e-07,0.53,0.28,0
0.022536,0.0036694,0.033383,4.8325e-05,0.01003,-0.00043934,0,0,0.06072,-0.025951,0,-0.0022846,0,0,0,0.033389,4.2536e-05,0.01003,-0.75496,0.014487,0.029643,8.4385e-07,0.54,0.28,0
0.023142,0.0037621,0.033308,3.6417e-05,0.010003,-0.00050658,0,0,0.060593,-0.025914,0,-0.0026342,0,0,0,0.033316,2.8706e-05,0.010003,-0.87208,0.014449,0.029589,8.387e-07,0.55,0.28,0
0.023748,0.0038494,0.033245,1.5082e-05,0.0099779,-0.00056339,0,0,0.060494,-0.025903,0,-0.0029296,0,0,0,0.033254,5.5333e-06,0.0099779,-0.97104,0.014413,0.029553,8.3467e-07,0.56,0.28,0
0.024352,0.0039316,0.03319,-1.3509e-05,0.0099529,-0.00060993,0,0,0.060416,-0.025913,0,-0.0031716,0,0,0,0.033201,-2.4709e-05,0.0099529,-1.052,0.014376,0.029529,8.3147e-07,0.57,0.28,0
0.024956,0.0040088,0.033141,-4.7245e-05,0.0099282,-0.00064675,0,0,0.060354,-0.025936,0,-0.0033631,0,0,0,0.033154,-5.9843e-05,0.0099282,-1.116,0.014341,0.029516,8.2888e-07,0.58,0.28,0
0.025559,0.0040815,0.033098,-8.4225e-05,0.009904,-0.00067462,0,0,0.060303,-0.025969,0,-0.003508,0,0,0,0.033111,-9.7935e-05,0.009904,-1.1643,0.014306,0.029508,8.2669e-07,0.59,0.28,0
0.026162,0.00415,0.033057,-0.00012283,0.0098803,-0.00069448,0,0,0.06026,-0.026008,0,-0.0036113,0,0,0,0.033071,-0.00013736,0.0098803,-1.1986,0.014271,0.029504,8.2477e-07,0.6,0.28,0
0.026764,0.0042146,0.033019,-0.00016175,0.0098571,-0.00070731,0,0,0.06022,-0.026049,0,-0.003678,0,0,0,0.033034,-0.00017682,0.0098571,-1.2206,0.014238,0.029503,8.23e-07,0.61,0.28,0
0.027366,0.0042755,0.032982,-0.00019996,0.0098347,-0.00071409,0,0,0.060184,-0.02609,0,-0.0037133,0,0,0,0.032997,-0.00021532,0.0098347,-1.2323,0.014206,0.029501,8.213e-07,0.62,0.28,0
0.027968,0.004333,0.032946,-0.0002367,0.009813,-0.00071575,0,0,0.060147,-0.026129,0,-0.0037219,0,0,0,0.032962,-0.00025213,0.009813,-1.2351,0.014174,0.029499,8.1961e-07,0.63,0.28,0
0.028569,0.0043874,0.032912,-0.00027144,0.0097921,-0.00071316,0,0,0.060111,-0.026165,0,-0.0037084,0,0,0,0.032927,-0.00028676,0.0097921,-1.2306,0.014144,0.029495,8.1791e-07,0.64,0.28,0
0.02917,0.0044389,0.032877,-0.00030386,0.009772,-0.00070706,0,0,0.060074,-0.026197,0,-0.0036767,0,0,0,0.032892,-0.00031892,0.009772,-1.2202,0.014115,0.02949,8.1618e-07,0.65,0.28,0
0.029771,0.0044876,0.032843,-0.00033377,0.0097529,-0.00069814,0,0,0.060035,-0.026225,0,-0.0036303,0,0,0,0.032858,-0.00034845,0.0097529,-1.2049,0.014088,0.029484,8.144e-07,0.66,0.28,0
0.030371,0.0045337,0.03281,-0.0003611,0.0097347,-0.00068696,0,0,0.059996,-0.026249,0,-0.0035722,0,0,0,0.032824,-0.00037532,0.0097347,-1.1859,0.014061,0.029475,8.1259e-07,0.67,0.28,0
0.030971,0.0045774,0.032777,-0.00038589,0.0097174,-0.000674,0,0,0.059956,-0.026269,0,-0.0035048,0,0,0,0.032791,-0.00039959,0.0097174,-1.1638,0.014036,0.029465,8.1074e-07,0.68,0.28,0
0.03157,0.0046188,0.032745,-0.00040824,0.009701,-0.00065965,0,0,0.059915,-0.026284,0,-0.0034302,0,0,0,0.032758,-0.00042136,0.009701,-1.1394,0.014013,0.029453,8.0888e-07,0.69,0.28,0
0.032169,0.004658,0.032714,-0.00042829,0.0096856,-0.00064422,0,0,0.059873,-0.026296,0,-0.0033499,0,0,0,0.032726,-0.00044081,0.0096856,-1.1132,0.01399,0.02944,8.07e-07,0.7,0.28,0
0.032768,0.0046952,0.032683,-0.0004462,0.009671,-0.00062796,0,0,0.059831,-0.026305,0,-0.0032654,0,0,0,0.032695,-0.0004581,0.009671,-1.0855,0.013969,0.029426,8.0514e-07,0.71,0.28,0
0.033366,0.0047304,0.032653,-0.00046218,0.0096573,-0.00061107,0,0,0.059789,-0.026311,0,-0.0031775,0,0,0,0.032664,-0.00047345,0.0096573,-1.0568,0.013949,0.029412,8.033e-07,0.72,0.28,0
0.033963,0.0047636,0.032625,-0.00047641,0.0096444,-0.00059366,0,0,0.059748,-0.026314,0,-0.0030871,0,0,0,0.032635,-0.00048705,0.0096444,-1.0272,0.013931,0.029396,8.0149e-07,0.73,0.28,0
0.034561,0.0047951,0.032597,-0.00048908,0.0096324,-0.00057586,0,0,0.059708,-0.026316,0,-0.0029945,0,0,0,0.032607,-0.0004991,0.0096324,-0.99683,0.013913,0.029381,7.9973e-07,0.74,0.28,0
0.035158,0.0048248,0.032571,-0.00050038,0.0096211,-0.00055772,0,0,0.059669,-0.026316,0,-0.0029001,0,0,0,0.03258,-0.00050978,0.0096211,-0.96588,0.013897,0.029366,7.9802e-07,0.75,0.28,0
0.035754,0.0048529,0.032545,-0.00051048,0.0096105,-0.00053927,0,0,0.059631,-0.026315,0,-0.0028042,0,0,0,0.032554,-0.00051927,0.0096105,-0.93439,0.013882,0.02935,7.9638e-07,0.76,0.28,0
0.03635,0.0048793,0.032522,-0.00051953,0.0096006,-0.00052054,0,0,0.059595,-0.026312,0,-0.0027068,0,0,0,0.03253,-0.00052773,0.0096006,-0.90236,0.013868,0.029336,7.9481e-07,0.77,0.28,0
0.036946,0.0049042,0.032499,-0.00052768,0.0095914,-0.00050154,0,0,0.05956,-0.02631,0,-0.002608,0,0,0,0.032507,-0.0005353,0.0095914,-0.86981,0.013854,0.029321,7.9332e-07,0.78,0.28,0
0.037541,0.0049276,0.032478,-0.00053505,0.0095829,-0.00048225,0,0,0.059527,-0.026307,0,-0.0025077,0,0,0,0.032485,-0.0005421,0.0095829,-0.83673,0.013842,0.029307,7.9191e-07,0.79,0.28,0
0.038136,0.0049495,0.032458,-0.00054175,0.0095749,-0.00046266,0,0,0.059497,-0.026303,0,-0.0024058,0,0,0,0.032465,-0.00054824,0.0095749,-0.80307,0.013831,0.029294,7.9058e-07,0.8,0.28,0
0.038731,0.00497,0.03244,-0.00054788,0.0095676,-0.00044275,0,0,0.059468,-0.0263,0,-0.0023023,0,0,0,0.032446,-0.00055382,0.0095676,-0.76883,0.01382,0.029281,7.8933e-07,0.81,0.28,0
0.039326,0.0049891,0.032423,-0.0005535,0.0095607,-0.00042251,0,0,0.059441,-0.026297,0,-0.0021971,0,0,0,0.032428,-0.00055891,0.0095607,-0.73396,0.01381,0.02927,7.8818e-07,0.82,0.28,0
0.03992,0.005007,0.032407,-0.00055868,0.0095544,-0.00040192,0,0,0.059416,-0.026294,0,-0.00209,0,0,0,0.032412,-0.00056358,0.0095544,-0.69843,0.013801,0.029259,7.871e-07,0.83,0.28,0
0.040514,0.0050235,0.032392,-0.00056347,0.0095486,-0.00038096,0,0,0.059393,-0.026291,0,-0.001981,0,0,0,0.032396,-0.00056788,0.0095486,-0.66222,0.013792,0.029249,7.8611e-07,0.84,0.28,0
0.041108,0.0050389,0.032378,-0.00056792,0.0095432,-0.00035962,0,0,0.059372,-0.026289,0,-0.0018701,0,0,0,0.032383,-0.00057184,0.0095432,-0.62531,0.013785,0.02924,7.852e-07,0.85,0.28,0
0.041702,0.005053,0.032366,-0.00057205,0.0095383,-0.0003379,0,0,0.059353,-0.026287,0,-0.0017571,0,0,0,0.03237,-0.00057551,0.0095383,-0.58769,0.013777,0.029231,7.8437e-07,0.86,0.28,0
0.042295,0.005066,0.032355,-0.00057588,0.0095338,-0.00031579,0,0,0.059335,-0.026285,0,-0.0016421,0,0,0,0.032358,-0.00057891,0.0095338,-0.54936,0.013771,0.029224,7.8361e-07,0.87,0.28,0
0.042888,0.005078,0.032345,-0.00057943,0.0095297,-0.00029328,0,0,0.05932,-0.026284,0,-0.0015251,0,0,0,0.032348,-0.00058204,0.0095297,-0.51032,0.013765,0.029217,7.8293e-07,0.88,0.28,0
0.043481,0.0050888,0.032336,-0.00058271,0.0095259,-0.0002704,0,0,0.059306,-0.026283,0,-0.0014061,0,0,0,0.032338,-0.00058493,0.0095259,-0.4706,0.01376,0.029211,7.8231e-07,0.89,0.28,0
0.044074,0.0050985,0.032328,-0.00058572,0.0095226,-0.00024715,0,0,0.059293,-0.026282,0,-0.0012852,0,0,0,0.032329,-0.00058758,0.0095226,-0.4302,0.013755,0.029205,7.8177e-07,0.9,0.28,0
0.044667,0.0051073,0.032321,-0.00058847,0.0095196,-0.00022354,0,0,0.059282,-0.026281,0,-0.0011624,0,0,0,0.032322,-0.00058999,0.0095196,-0.38917,0.013751,0.029201,7.8128e-07,0.91,0.28,0
0.04526,0.005115,0.032314,-0.00059094,0.009517,-0.00019961,0,0,0.059273,-0.026281,0,-0.001038,0,0,0,0.032315,-0.00059215,0.009517,-0.34755,0.013747,0.029197,7.8086e-07,0.92,0.28,0
0.045853,0.0051218,0.032309,-0.00059314,0.0095147,-0.00017537,0,0,0.059264,-0.02628,0,-0.00091191,0,0,0,0.03231,-0.00059408,0.0095147,-0.30538,0.013743,0.029193,7.8049e-07,0.93,0.28,0
0.046445,0.0051277,0.032304,-0.00059507,0.0095127,-0.00015085,0,0,0.059257,-0.02628,0,-0.00078443,0,0,0,0.032305,-0.00059576,0.0095127,-0.26271,0.01374,0.02919,7.8018e-07,0.94,0.28,0
0.047038,0.0051326,0.0323,-0.00059671,0.009511,-0.00012609,0,0,0.059252,-0.02628,0,-0.00065569,0,0,0,0.032301,-0.00059719,0.009511,-0.21961,0.013738,0.029187,7.7991e-07,0.95,0.28,0
0.04763,0.0051366,0.032297,-0.00059806,0.0095097,-0.00010113,0,0,0.059247,-0.02628,0,-0.00052587,0,0,0,0.032297,-0.00059837,0.0095097,-0.17614,0.013736,0.029185,7.797e-07,0.96,0.28,0
0.048223,0.0051396,0.032294,-0.00059912,0.0095086,-7.5997e-05,0,0,0.059243,-0.02628,0,-0.00039518,0,0,0,0.032295,-0.00059929,0.0095086,-0.13237,0.013735,0.029184,7.7954e-07,0.97,0.28,0
0.048815,0.0051418,0.032293,-0.00059988,0.0095079,-5.0737e-05,0,0,0.059241,-0.02628,0,-0.00026383,0,0,0,0.032293,-0.00059995,0.0095079,-0.088378,0.013734,0.029183,7.7943e-07,0.98,0.28,0
0.049408,0.0051432,0.032292,-0.00060033,0.0095074,-2.539e-05,0,0,0.059239,-0.02628,0,-0.00013203,0,0,0,0.032292,-0.00060035,0.0095074,-0.044228,0.013733,0.029182,7.7936e-07,0.99,0.28,0
0.05,0.0051436,0.032291,-0.00060048,0.0095073,8.4335e-06,0,0,0.059239,-0.02628,0,4.3854e-05,0,0,0,0.032291,-0.00060049,0.0095073,0.014691,0.013733,0.029182,7.7934e-07,1,0.28,0
0,0,0.036784,0.015765,0.015765,0.0036943,0,0,0.054651,8.6736e-19,0,0.019211,0,0,0,0.037415,0.015134,0.015765,9.6836,0.022771,0.021972,5.4329e-07,0,0.29,0
0.00054651,0.00019211,0.036696,0.014932,0.015489,0.0036583,0,0,0.05514,-0.0014463,0,0.019023,0,0,0,0.037295,0.014334,0.015489,9.2907,0.022372,0.022406,5.7254e-07,0.01,0.29,0
0.0011028,0.00037288,0.03697,0.014411,0.015414,0.0034928,0,0,0.056044,-0.0026076,0,0.018162,0,0,0,0.037498,0.013883,0.015414,8.603,0.022265,0.022888,6.0651e-07,0.02,0.29,0
0.0016674,0.00054142,0.037225,0.01403,0.015376,0.0032947,0,0,0.056807,-0.0035016,0,0.017132,0,0,0,0.037684,0.013571,0.015376,7.9293,0.022211,0.023263,6.3347e-07,0.03,0.29,0
0.0022389,0.00069691,0.037463,0.013791,0.015376,0.0030573,0,0,0.057425,-0.0041217,0,0.015898,0,0,0,0.037851,0.013402,0.015376,7.2417,0.02221,0.023524,6.5275e-07,0.04,0.29,0
0.0028159,0.00083883,0.037649,0.013712,0.015409,0.0027693,0,0,0.057826,-0.0044102,0,0.0144,0,0,0,0.037965,0.013396,0.015409,6.514,0.022257,0.023628,6.6092e-07,0.05,0.29,0
0.0033955,0.00096734,0.037625,0.013817,0.015433,0.0025016,0,0,0.0577,-0.0042,0,0.013008,0,0,0,0.037885,0.013557,0.015433,5.9341,0.022292,0.023446,6.4772e-07,0.06,0.29,0
0.0039699,0.0010931,0.03782,0.013603,0.015427,0.002358,0,0,0.043472,-0.0031614,0,0.0090736,0,0,0,0.038048,0.013376,0.015427,5.5094,0.022283,0.023718,6.6775e-07,0.07,0.29,0
0.0042649,0.001165,0.037794,0.012407,0.01506,0.0026039,0,0,0.029554,-0.0034497,0,0.00677,0,0,0,0.038058,0.012142,0.01506,5.7961,0.021754,0.024587,7.2729e-07,0.08,0.29,0
0.004561,0.0012434,0.037575,0.011052,0.014588,0.0024073,0,0,0.029883,-0.0045965,0,0.0062589,0,0,0,0.037791,0.010836,0.014588,5.1444,0.021072,0.025289,7.6938e-07,0.09,0.29,0
0.0048626,0.0013203,0.037688,0.010545,0.01447,0.0021369,0,0,0.030183,-0.0051026,0,0.0055559,0,0,0,0.037855,0.010377,0.01447,4.474,0.020901,0.025677,7.9555e-07,0.1,0.29,0
0.0051646,0.0013908,0.03751,0.0099622,0.014242,0.0018872,0,0,0.030249,-0.0055633,0,0.0049066,0,0,0,0.037639,0.0098335,0.014242,3.9007,0.020571,0.025884,8.043e-07,0.11,0.29,0
0.0054675,0.0014563,0.037368,0.0093646,0.01402,0.0016852,0,0,0.030352,-0.0060516,0,0.0043814,0,0,0,0.037469,0.0092636,0.01402,3.4314,0.020251,0.026153,8.1729e-07,0.12,0.29,0
0.0057717,0.001517,0.037267,0.0087777,0.013813,0.0014877,0,0,0.030489,-0.0065462,0,0.0038681,0,0,0,0.037344,0.0087002,0.013813,2.9813,0.019953,0.02646,8.3301e-07,0.13,0.29,0
0.0060773,0.0015728,0.037184,0.0082141,0.013619,0.0012953,0,0,0.030634,-0.007027,0,0.0033677,0,0,0,0.037242,0.0081563,0.013619,2.5549,0.019673,0.026776,8.492e-07,0.14,0.29,0
0.0063844,0.0016239,0.037105,0.0076716,0.013433,0.0011115,0,0,0.030774,-0.0074899,0,0.00289,0,0,0,0.037147,0.0076297,0.013433,2.1596,0.019403,0.027086,8.6479e-07,0.15,0.29,0
0.0066928,0.0016705,0.037025,0.0071487,0.013252,0.00093924,0,0,0.030905,-0.0079345,0,0.002442,0,0,0,0.037055,0.0071192,0.013252,1.7989,0.019142,0.027389,8.7949e-07,0.16,0.29,0
0.0070025,0.0017128,0.036942,0.006644,0.013076,0.00077877,0,0,0.031026,-0.0083614,0,0.0020248,0,0,0,0.036962,0.006624,0.013076,1.4714,0.018887,0.027682,8.9317e-07,0.17,0.29,0
0.0073133,0.0017511,0.036856,0.0061569,0.012904,0.00062972,0,0,0.031137,-0.0087709,0,0.0016373,0,0,0,0.036869,0.006144,0.012904,1.1746,0.018639,0.027964,9.0574e-07,0.18,0.29,0
0.0076252,0.0017855,0.036765,0.0056868,0.012736,0.00049156,0,0,0.031238,-0.0091633,0,0.0012781,0,0,0,0.036773,0.0056791,0.012736,0.90595,0.018396,0.028235,9.1715e-07,0.19,0.29,0
0.0079381,0.0018165,0.03667,0.0052329,0.012571,0.00036386,0,0,0.031329,-0.0095392,0,0.00094605,0,0,0,0.036674,0.0052287,0.012571,0.66305,0.018158,0.028493,9.2737e-07,0.2,0.29,0
0.0082518,0.0018441,0.03657,0.0047938,0.012409,0.00024623,0,0,0.031409,-0.0098998,0,0.00064019,0,0,0,0.036572,0.0047919,0.012409,0.44394,0.017924,0.028739,9.3644e-07,0.21,0.29,0
0.0085662,0.0018687,0.036466,0.0043679,0.01225,0.00013818,0,0,0.03148,-0.010247,0,0.00035927,0,0,0,0.036466,0.0043673,0.01225,0.24665,0.017695,0.028973,9.4442e-07,0.22,0.29,0
0.0088814,0.0018904,0.036358,0.0039531,0.012093,3.911e-05,0,0,0.031544,-0.010582,0,0.00010169,0,0,0,0.036358,0.003953,0.012093,0.069151,0.017468,0.029198,9.514e-07,0.23,0.29,0
0.0091971,0.0019095,0.036246,0.0035475,0.011938,-5.1789e-05,0,0,0.0316,-0.010908,0,-0.00013465,0,0,0,0.036246,0.0035474,0.011938,-0.090745,0.017244,0.029415,9.5748e-07,0.24,0.29,0
0.0095134,0.0019262,0.036131,0.0031491,0.011784,-0.00013548,0,0,0.031651,-0.011225,0,-0.00035224,0,0,0,0.036132,0.0031485,0.011784,-0.23534,0.017021,0.029625,9.6275e-07,0.25,0.29,0
0.0098302,0.0019406,0.036013,0.0027563,0.011631,-0.00021303,0,0,0.031697,-0.011537,0,-0.00055388,0,0,0,0.036015,0.0027549,0.011631,-0.36699,0.0168,0.029829,9.6726e-07,0.26,0.29,0
0.010147,0.0019529,0.035892,0.0023676,0.011478,-0.00028557,0,0,0.031738,-0.011843,0,-0.00074249,0,0,0,0.035894,0.0023651,0.011478,-0.48802,0.016579,0.030028,9.7106e-07,0.27,0.29,0
0.010465,0.0019632,0.035766,0.0019815,0.011324,-0.00035425,0,0,0.031774,-0.012146,0,-0.00092106,0,0,0,0.03577,0.0019778,0.011324,-0.60069,0.016357,0.030223,9.7414e-07,0.28,0.29,0
0.010783,0.0019717,0.035636,0.0015968,0.01117,-0.00042025,0,0,0.031806,-0.012445,0,-0.0010926,0,0,0,0.035641,0.0015917,0.01117,-0.70723,0.016134,0.030414,9.7649e-07,0.29,0.29,0
0.011101,0.0019785,0.035501,0.0012118,0.011014,-0.00048489,0,0,0.031833,-0.012743,0,-0.0012607,0,0,0,0.035508,0.001205,0.011014,-0.81001,0.015909,0.030601,9.7811e-07,0.3,0.29,0
0.01142,0.0019836,0.03536,0.00082446,0.010855,-0.00054984,0,0,0.031856,-0.01304,0,-0.0014296,0,0,0,0.035369,0.00081571,0.010855,-0.91189,0.01568,0.030786,9.7899e-07,0.31,0.29,0
0.011738,0.0019872,0.035212,0.00043179,0.010693,-0.00061736,0,0,0.031875,-0.01334,0,-0.0016051,0,0,0,0.035223,0.00042084,0.010693,-1.0166,0.015446,0.030971,9.7917e-07,0.32,0.29,0
0.012057,0.0019892,0.035057,3.0079e-05,0.010526,-0.00069058,0,0,0.03189,-0.013645,0,-0.0017955,0,0,0,0.03507,1.6469e-05,0.010526,-1.129,0.015204,0.031158,9.787e-07,0.33,0.29,0
0.012376,0.0019897,0.034894,-0.00038547,0.010353,-0.00077336,0,0,0.031904,-0.013959,0,-0.0020107,0,0,0,0.034911,-0.00040242,0.010353,-1.2552,0.014954,0.031351,9.777e-07,0.34,0.29,0
0.012695,0.0019888,0.034726,-0.00082088,0.010172,-0.00086962,0,0,0.031921,-0.01429,0,-0.002261,0,0,0,0.034748,-0.00084214,0.010172,-1.4006,0.014692,0.031559,9.7654e-07,0.35,0.29,0
0.013014,0.0019864,0.034563,-0.0012859,0.0099833,-0.00098177,0,0,0.031954,-0.01465,0,-0.0025526,0,0,0,0.03459,-0.0013127,0.0099833,-1.5675,0.01442,0.031797,9.7627e-07,0.36,0.29,0
0.013334,0.0019828,0.034436,-0.0017989,0.0097911,-0.0011113,0,0,0.032038,-0.015067,0,-0.0028894,0,0,0,0.03447,-0.001833,0.0097911,-1.755,0.014143,0.03211,9.7981e-07,0.37,0.29,0
0.013655,0.0019784,0.034394,-0.0024076,0.009596,-0.0012669,0,0,0.032238,-0.015605,0,-0.0032941,0,0,0,0.034438,-0.0024511,0.009596,-1.9694,0.013861,0.032581,9.9255e-07,0.38,0.29,0
0.013979,0.0019733,0.034406,-0.0032151,0.0093573,-0.0014737,0,0,0.032564,-0.016344,0,-0.0038315,0,0,0,0.034464,-0.0032727,0.0093573,-2.2397,0.013516,0.033271,1.0141e-06,0.39,0.29,0
0.014306,0.0019688,0.034224,-0.0041738,0.009015,-0.0015874,0,0,0.032771,-0.017145,0,-0.0041272,0,0,0,0.034289,-0.0042393,0.009015,-2.3633,0.013022,0.033904,1.0198e-06,0.4,0.29,0
0.014634,0.0019771,0.034635,-0.0044005,0.0090705,-0.0011862,0,0,0.033235,-0.017512,0,-0.003084,0,0,0,0.034672,-0.0044365,0.0090705,-1.7389,0.013102,0.034404,1.0574e-06,0.41,0.29,0
0.014971,0.0020167,0.03472,-0.0012629,0.010037,-5.7247e-05,0,0,0.047337,-0.019587,0,0.00049087,0,0,0,0.034729,-0.0012713,0.010037,0.03069,0.014498,0.03196,9.5153e-07,0.42,0.29,0
0.015581,0.0020977,0.034817,0.0017136,0.010959,0.00043282,0,0,0.062031,-0.024039,0,0.0022507,0,0,0,0.034823,0.0017079,0.010959,0.74896,0.01583,0.029594,9.0584e-07,0.43,0.29,0
0.016212,0.0022084,0.035049,0.00063186,0.010704,0.0005588,0,0,0.063297,-0.026188,0,0.0029058,0,0,0,0.035058,0.00062279,0.010704,0.92993,0.015462,0.030664,9.5923e-07,0.44,0.29,0
0.016847,0.0023315,0.034924,0.00019032,0.010534,0.00056458,0,0,0.063412,-0.026894,0,0.0029358,0,0,0,0.034933,0.00018114,0.010534,0.931,0.015216,0.030904,9.623e-07,0.45,0.29,0
0.01748,0.0024613,0.034672,1.9253e-05,0.010407,0.00051668,0,0,0.063088,-0.027009,0,0.0026867,0,0,0,0.03468,1.1551e-05,0.010407,0.85404,0.015033,0.030815,9.4648e-07,0.46,0.29,0
0.018109,0.0025936,0.034424,-2.2622e-05,0.01032,0.0004305,0,0,0.06267,-0.026892,0,0.0022386,0,0,0,0.03443,-2.8001e-05,0.01032,0.7159,0.014907,0.030624,9.2732e-07,0.47,0.29,0
0.018733,0.002725,0.034213,5.5239e-08,0.010264,0.00031782,0,0,0.062268,-0.026686,0,0.0016527,0,0,0,0.034216,-2.8968e-06,0.010264,0.53218,0.014826,0.030414,9.0946e-07,0.48,0.29,0
0.019354,0.0028531,0.034036,4.2935e-05,0.010223,0.00019292,0,0,0.061911,-0.026469,0,0.0010032,0,0,0,0.034036,4.184e-05,0.010223,0.32516,0.014767,0.030219,8.9395e-07,0.49,0.29,0
0.019972,0.0029764,0.033888,8.5571e-05,0.010192,6.523e-05,0,0,0.06161,-0.026277,0,0.00033919,0,0,0,0.033888,8.5445e-05,0.010192,0.11056,0.014722,0.030052,8.8108e-07,0.5,0.29,0
0.020586,0.0030941,0.033766,0.00011748,0.010165,-5.8223e-05,0,0,0.061363,-0.026124,0,-0.00030276,0,0,0,0.033766,0.00011737,0.010165,-0.099139,0.014683,0.029918,8.7071e-07,0.51,0.29,0
0.021199,0.0032057,0.033665,0.0001349,0.01014,-0.00017309,0,0,0.061166,-0.026013,0,-0.00090008,0,0,0,0.033666,0.00013401,0.01014,-0.29577,0.014647,0.029816,8.6251e-07,0.52,0.29,0
0.02181,0.0033109,0.033581,0.00013718,0.010116,-0.00027675,0,0,0.061011,-0.025944,0,-0.0014391,0,0,0,0.033584,0.00013489,0.010116,-0.47408,0.014611,0.029742,8.5615e-07,0.53,0.29,0
0.022419,0.00341,0.033511,0.00012546,0.010091,-0.0003678,0,0,0.060892,-0.02591,0,-0.0019126,0,0,0,0.033515,0.0001214,0.010091,-0.63112,0.014576,0.029692,8.5127e-07,0.54,0.29,0
0.023027,0.003503,0.033451,0.00010188,0.010066,-0.00044569,0,0,0.060801,-0.025906,0,-0.0023176,0,0,0,0.033457,9.5927e-05,0.010066,-0.76555,0.01454,0.02966,8.4753e-07,0.55,0.29,0
0.023635,0.0035903,0.033398,6.9028e-05,0.01004,-0.00051053,0,0,0.060731,-0.025925,0,-0.0026548,0,0,0,0.033406,6.121e-05,0.01004,-0.87737,0.014503,0.029643,8.4465e-07,0.56,0.29,0
0.024242,0.0036722,0.033352,2.9513e-05,0.010014,-0.00056294,0,0,0.060678,-0.025961,0,-0.0029273,0,0,0,0.033362,2.0006e-05,0.010014,-0.96757,0.014465,0.029636,8.4237e-07,0.57,0.29,0
0.024849,0.0037491,0.033309,-1.4251e-05,0.0099885,-0.00060389,0,0,0.060634,-0.026007,0,-0.0031402,0,0,0,0.03332,-2.5191e-05,0.0099885,-1.0379,0.014428,0.029636,8.4048e-07,0.58,0.29,0
0.025455,0.0038214,0.033269,-6.0195e-05,0.0099627,-0.00063456,0,0,0.060597,-0.02606,0,-0.0032997,0,0,0,0.033281,-7.2272e-05,0.0099627,-1.0903,0.014391,0.029639,8.3881e-07,0.59,0.29,0
0.026061,0.0038894,0.033231,-0.00010663,0.0099373,-0.00065622,0,0,0.060563,-0.026114,0,-0.0034124,0,0,0,0.033244,-0.00011955,0.0099373,-1.1272,0.014354,0.029643,8.3723e-07,0.6,0.29,0
0.026666,0.0039535,0.033193,-0.00015226,0.0099123,-0.00067016,0,0,0.060531,-0.026168,0,-0.0034848,0,0,0,0.033207,-0.00016573,0.0099123,-1.1509,0.014318,0.029647,8.3567e-07,0.61,0.29,0
0.027271,0.0040139,0.033156,-0.00019612,0.009888,-0.0006776,0,0,0.060497,-0.026219,0,-0.0035235,0,0,0,0.03317,-0.00020988,0.009888,-1.1634,0.014283,0.02965,8.3406e-07,0.62,0.29,0
0.027876,0.004071,0.033119,-0.00023754,0.0098644,-0.00067966,0,0,0.060462,-0.026265,0,-0.0035342,0,0,0,0.033133,-0.00025138,0.0098644,-1.1668,0.014249,0.02965,8.3237e-07,0.63,0.29,0
0.02848,0.004125,0.033082,-0.0002761,0.0098417,-0.00067732,0,0,0.060424,-0.026306,0,-0.0035221,0,0,0,0.033096,-0.00028984,0.0098417,-1.1627,0.014216,0.029648,8.3058e-07,0.64,0.29,0
0.029084,0.0041762,0.033045,-0.00031158,0.00982,-0.00067148,0,0,0.060385,-0.026342,0,-0.0034917,0,0,0,0.033058,-0.00032509,0.00982,-1.1528,0.014184,0.029643,8.2871e-07,0.65,0.29,0
0.029688,0.0042246,0.033008,-0.00034391,0.0097992,-0.00066285,0,0,0.060343,-0.026372,0,-0.0034468,0,0,0,0.033021,-0.00035707,0.0097992,-1.1381,0.014154,0.029635,8.2675e-07,0.66,0.29,0
0.030291,0.0042705,0.032971,-0.00037313,0.0097794,-0.00065207,0,0,0.060299,-0.026397,0,-0.0033908,0,0,0,0.032984,-0.00038588,0.0097794,-1.1199,0.014126,0.029625,8.2472e-07,0.67,0.29,0
0.030894,0.004314,0.032935,-0.00039939,0.0097606,-0.00063964,0,0,0.060253,-0.026416,0,-0.0033261,0,0,0,0.032947,-0.00041165,0.0097606,-1.0989,0.014099,0.029613,8.2264e-07,0.68,0.29,0
0.031496,0.0043552,0.032899,-0.00042285,0.0097429,-0.00062595,0,0,0.060206,-0.026431,0,-0.0032549,0,0,0,0.032911,-0.0004346,0.0097429,-1.0758,0.014073,0.0296,8.2053e-07,0.69,0.29,0
0.032098,0.0043943,0.032864,-0.00044374,0.0097261,-0.00061133,0,0,0.060159,-0.026442,0,-0.0031789,0,0,0,0.032875,-0.00045495,0.0097261,-1.0511,0.014049,0.029584,8.1841e-07,0.7,0.29,0
0.0327,0.0044314,0.03283,-0.00046229,0.0097103,-0.00059601,0,0,0.060111,-0.026449,0,-0.0030993,0,0,0,0.032841,-0.00047296,0.0097103,-1.0253,0.014026,0.029568,8.163e-07,0.71,0.29,0
0.0333,0.0044665,0.032797,-0.00047876,0.0096955,-0.00058018,0,0,0.060064,-0.026453,0,-0.0030169,0,0,0,0.032807,-0.00048887,0.0096955,-0.99858,0.014005,0.029551,8.1421e-07,0.72,0.29,0
0.033901,0.0044998,0.032765,-0.00049337,0.0096816,-0.00056395,0,0,0.060018,-0.026455,0,-0.0029325,0,0,0,0.032775,-0.00050293,0.0096816,-0.97117,0.013985,0.029533,8.1217e-07,0.73,0.29,0
0.034501,0.0045312,0.032735,-0.00050636,0.0096685,-0.00054741,0,0,0.059972,-0.026455,0,-0.0028465,0,0,0,0.032744,-0.00051537,0.0096685,-0.94319,0.013966,0.029516,8.1019e-07,0.74,0.29,0
0.0351,0.004561,0.032705,-0.00051794,0.0096563,-0.00053059,0,0,0.059928,-0.026453,0,-0.0027591,0,0,0,0.032714,-0.00052641,0.0096563,-0.91472,0.013948,0.029498,8.0827e-07,0.75,0.29,0
0.035699,0.004589,0.032678,-0.0005283,0.0096448,-0.00051353,0,0,0.059886,-0.02645,0,-0.0026703,0,0,0,0.032686,-0.00053624,0.0096448,-0.88579,0.013931,0.029481,8.0644e-07,0.76,0.29,0
0.036298,0.0046155,0.032651,-0.00053762,0.0096342,-0.00049621,0,0,0.059845,-0.026447,0,-0.0025803,0,0,0,0.032659,-0.00054504,0.0096342,-0.85638,0.013916,0.029464,8.0469e-07,0.77,0.29,0
0.036896,0.0046404,0.032627,-0.00054605,0.0096242,-0.00047864,0,0,0.059806,-0.026443,0,-0.0024889,0,0,0,0.032634,-0.00055295,0.0096242,-0.82647,0.013902,0.029448,8.0303e-07,0.78,0.29,0
0.037494,0.0046638,0.032604,-0.00055371,0.0096149,-0.00046078,0,0,0.05977,-0.026439,0,-0.0023961,0,0,0,0.03261,-0.00056012,0.0096149,-0.79603,0.013888,0.029433,8.0147e-07,0.79,0.29,0
0.038092,0.0046858,0.032582,-0.00056073,0.0096063,-0.00044262,0,0,0.059736,-0.026434,0,-0.0023016,0,0,0,0.032588,-0.00056664,0.0096063,-0.765,0.013876,0.029418,8e-07,0.8,0.29,0
0.038689,0.0047063,0.032562,-0.00056719,0.0095983,-0.00042411,0,0,0.059704,-0.02643,0,-0.0022054,0,0,0,0.032567,-0.00057262,0.0095983,-0.73334,0.013864,0.029404,7.9863e-07,0.81,0.29,0
0.039286,0.0047255,0.032543,-0.00057318,0.0095909,-0.00040525,0,0,0.059675,-0.026426,0,-0.0021073,0,0,0,0.032548,-0.00057814,0.0095909,-0.701,0.013853,0.029392,7.9736e-07,0.82,0.29,0
0.039882,0.0047434,0.032525,-0.00057874,0.009584,-0.00038599,0,0,0.059648,-0.026423,0,-0.0020072,0,0,0,0.03253,-0.00058324,0.009584,-0.66794,0.013843,0.02938,7.9619e-07,0.83,0.29,0
0.040479,0.00476,0.032509,-0.00058394,0.0095776,-0.00036632,0,0,0.059623,-0.02642,0,-0.0019049,0,0,0,0.032514,-0.00058799,0.0095776,-0.63413,0.013834,0.029369,7.9511e-07,0.84,0.29,0
0.041075,0.0047753,0.032495,-0.0005888,0.0095718,-0.00034623,0,0,0.0596,-0.026418,0,-0.0018004,0,0,0,0.032498,-0.00059242,0.0095718,-0.59953,0.013826,0.029359,7.9412e-07,0.85,0.29,0
0.041671,0.0047895,0.032481,-0.00059335,0.0095664,-0.0003257,0,0,0.059579,-0.026415,0,-0.0016936,0,0,0,0.032485,-0.00059655,0.0095664,-0.56414,0.013818,0.02935,7.9322e-07,0.86,0.29,0
0.042266,0.0048026,0.032469,-0.0005976,0.0095615,-0.00030472,0,0,0.05956,-0.026414,0,-0.0015846,0,0,0,0.032472,-0.00060041,0.0095615,-0.52794,0.013811,0.029342,7.924e-07,0.87,0.29,0
0.042862,0.0048145,0.032458,-0.00060156,0.009557,-0.00028331,0,0,0.059543,-0.026412,0,-0.0014732,0,0,0,0.032461,-0.00060399,0.009557,-0.49095,0.013805,0.029335,7.9167e-07,0.88,0.29,0
0.043457,0.0048253,0.032448,-0.00060525,0.009553,-0.00026146,0,0,0.059528,-0.026411,0,-0.0013596,0,0,0,0.032451,-0.00060731,0.009553,-0.45319,0.013799,0.029329,7.9101e-07,0.89,0.29,0
0.044053,0.0048351,0.03244,-0.00060865,0.0095493,-0.0002392,0,0,0.059515,-0.026411,0,-0.0012438,0,0,0,0.032441,-0.00061038,0.0095493,-0.41467,0.013793,0.029323,7.9042e-07,0.9,0.29,0
0.044648,0.0048438,0.032432,-0.00061176,0.009546,-0.00021654,0,0,0.059503,-0.02641,0,-0.001126,0,0,0,0.032433,-0.00061318,0.009546,-0.37544,0.013789,0.029318,7.899e-07,0.91,0.29,0
0.045242,0.0048516,0.032425,-0.00061458,0.0095431,-0.0001935,0,0,0.059493,-0.02641,0,-0.0010062,0,0,0,0.032426,-0.00061571,0.0095431,-0.33554,0.013784,0.029314,7.8944e-07,0.92,0.29,0
0.045837,0.0048584,0.032419,-0.00061709,0.0095406,-0.00017011,0,0,0.059484,-0.02641,0,-0.00088459,0,0,0,0.03242,-0.00061797,0.0095406,-0.29502,0.013781,0.02931,7.8905e-07,0.93,0.29,0
0.046432,0.0048642,0.032414,-0.00061929,0.0095384,-0.00014642,0,0,0.059477,-0.02641,0,-0.00076138,0,0,0,0.032415,-0.00061994,0.0095384,-0.25395,0.013778,0.029307,7.8872e-07,0.94,0.29,0
0.047027,0.0048691,0.03241,-0.00062118,0.0095366,-0.00012245,0,0,0.05947,-0.02641,0,-0.00063674,0,0,0,0.03241,-0.00062163,0.0095366,-0.2124,0.013775,0.029305,7.8844e-07,0.95,0.29,0
0.047622,0.0048731,0.032406,-0.00062273,0.0095351,-9.8247e-05,0,0,0.059465,-0.02641,0,-0.00051088,0,0,0,0.032407,-0.00062302,0.0095351,-0.17043,0.013773,0.029302,7.8822e-07,0.96,0.29,0
0.048216,0.0048762,0.032404,-0.00062394,0.009534,-7.3854e-05,0,0,0.059462,-0.026411,0,-0.00038404,0,0,0,0.032404,-0.00062411,0.009534,-0.12812,0.013771,0.029301,7.8804e-07,0.97,0.29,0
0.048811,0.0048784,0.032402,-0.00062482,0.0095332,-4.9317e-05,0,0,0.059459,-0.026411,0,-0.00025645,0,0,0,0.032402,-0.00062489,0.0095332,-0.085557,0.01377,0.0293,7.8792e-07,0.98,0.29,0
0.049405,0.0048797,0.032401,-0.00062534,0.0095327,-2.4683e-05,0,0,0.059457,-0.026411,0,-0.00012835,0,0,0,0.032401,-0.00062536,0.0095327,-0.042822,0.013769,0.029299,7.8785e-07,0.99,0.29,0
0.05,0.0048801,0.0324,-0.00062552,0.0095325,8.4298e-06,0,0,0.059457,-0.026411,0,4.3835e-05,0,0,0,0.0324,-0.00062552,0.0095325,0.014625,0.013769,0.029299,7.8782e-07,1,0.29,0
0,0,0.036991,0.015853,0.015853,0.0034235,0,0,0.054957,-4.8789e-19,0,0.017802,0,0,0,0.037531,0.015312,0.015853,8.9742,0.022899,0.021954,5.4231e-07,0,0.3,0
0.00054957,0.00017802,0.036902,0.015066,0.01559,0.0033902,0,0,0.05541,-0.0013632,0,0.017629,0,0,0,0.037416,0.014552,0.01559,8.6252,0.02252,0.022363,5.7024e-07,0.01,0.3,0
0.0011082,0.00034755,0.03714,0.014571,0.015513,0.0032523,0,0,0.056228,-0.0024487,0,0.016912,0,0,0,0.037599,0.014112,0.015513,8.0391,0.022408,0.022818,6.0246e-07,0.02,0.3,0
0.0016741,0.00050762,0.037336,0.014217,0.015466,0.0030821,0,0,0.056862,-0.0032469,0,0.016027,0,0,0,0.03774,0.013813,0.015466,7.4648,0.02234,0.023145,6.2582e-07,0.03,0.3,0
0.0022454,0.00065766,0.037475,0.01401,0.015446,0.0028807,0,0,0.057277,-0.0037322,0,0.01498,0,0,0,0.037824,0.013662,0.015446,6.8975,0.02231,0.023321,6.3862e-07,0.04,0.3,0
0.0028197,0.00079774,0.03752,0.013961,0.015444,0.0026685,0,0,0.057396,-0.0038557,0,0.013876,0,0,0,0.037818,0.013663,0.015444,6.3823,0.022308,0.023316,6.3819e-07,0.05,0.3,0
0.0033934,0.0009304,0.037523,0.014132,0.015496,0.0025014,0,0,0.057268,-0.0035479,0,0.013007,0,0,0,0.037787,0.013867,0.015496,6.0362,0.022384,0.023148,6.2644e-07,0.06,0.3,0
0.0039651,0.0010609,0.037518,0.013428,0.015284,0.0024764,0,0,0.043197,-0.0032169,0,0.0096091,0,0,0,0.03777,0.013176,0.015284,5.813,0.022077,0.023616,6.5781e-07,0.07,0.3,0
0.0042573,0.00113,0.037488,0.012218,0.014912,0.0024919,0,0,0.029349,-0.0035018,0,0.0064789,0,0,0,0.037731,0.011975,0.014912,5.5784,0.021539,0.024421,7.1166e-07,0.08,0.3,0
0.004552,0.0012009,0.037471,0.011502,0.014692,0.0024515,0,0,0.029613,-0.0041466,0,0.006374,0,0,0,0.037701,0.011273,0.014692,5.346,0.021222,0.024895,7.4227e-07,0.09,0.3,0
0.0048496,0.0012704,0.037458,0.010754,0.014464,0.0022408,0,0,0.029892,-0.0048224,0,0.005826,0,0,0,0.037644,0.010567,0.014464,4.7634,0.020892,0.025354,7.7091e-07,0.1,0.3,0
0.0051499,0.001336,0.03745,0.010157,0.014282,0.0019993,0,0,0.030118,-0.0053622,0,0.0051981,0,0,0,0.037596,0.010012,0.014282,4.1675,0.02063,0.025716,7.9285e-07,0.11,0.3,0
0.0054519,0.0013966,0.037379,0.0095622,0.014082,0.001771,0,0,0.030286,-0.0058763,0,0.0046046,0,0,0,0.037492,0.0094499,0.014082,3.6282,0.020341,0.026036,8.1061e-07,0.12,0.3,0
0.0057556,0.0014523,0.037305,0.0089748,0.013884,0.001563,0,0,0.030447,-0.0063819,0,0.0040638,0,0,0,0.037391,0.0088888,0.013884,3.1484,0.020055,0.026362,8.282e-07,0.13,0.3,0
0.0060609,0.0015033,0.037233,0.0084018,0.01369,0.0013687,0,0,0.030606,-0.0068753,0,0.0035587,0,0,0,0.037298,0.008337,0.01369,2.7119,0.019775,0.02669,8.4558e-07,0.14,0.3,0
0.0063677,0.0015497,0.037161,0.0078475,0.013503,0.0011872,0,0,0.030756,-0.0073515,0,0.0030868,0,0,0,0.037209,0.0077995,0.013503,2.3155,0.019504,0.027013,8.6225e-07,0.15,0.3,0
0.006676,0.0015918,0.037085,0.0073122,0.013319,0.0010185,0,0,0.030896,-0.007809,0,0.0026482,0,0,0,0.03712,0.0072774,0.013319,1.957,0.019239,0.027327,8.7787e-07,0.16,0.3,0
0.0069856,0.0016297,0.037005,0.0067958,0.01314,0.00086231,0,0,0.031024,-0.0082476,0,0.002242,0,0,0,0.037029,0.0067712,0.01314,1.6337,0.01898,0.02763,8.9229e-07,0.17,0.3,0
0.0072965,0.0016639,0.036919,0.0062975,0.012965,0.00071797,0,0,0.03114,-0.0086675,0,0.0018667,0,0,0,0.036936,0.0062807,0.012965,1.3424,0.018727,0.027919,9.0545e-07,0.18,0.3,0
0.0076084,0.0016944,0.036828,0.0058169,0.012793,0.00058477,0,0,0.031245,-0.0090694,0,0.0015204,0,0,0,0.036839,0.0058059,0.012793,1.0799,0.018479,0.028196,9.1731e-07,0.19,0.3,0
0.0079214,0.0017215,0.036732,0.0053529,0.012625,0.00046201,0,0,0.031338,-0.0094542,0,0.0012012,0,0,0,0.036738,0.0053461,0.012625,0.84337,0.018237,0.02846,9.2791e-07,0.2,0.3,0
0.0082352,0.0017455,0.036631,0.0049042,0.01246,0.00034905,0,0,0.031421,-0.0098231,0,0.00090752,0,0,0,0.036634,0.0049003,0.01246,0.63026,0.017998,0.02871,9.3728e-07,0.21,0.3,0
0.0085498,0.0017665,0.036525,0.0044691,0.012298,0.00024525,0,0,0.031495,-0.010178,0,0.00063765,0,0,0,0.036527,0.0044672,0.012298,0.43832,0.017764,0.02895,9.455e-07,0.22,0.3,0
0.0088651,0.0017849,0.036415,0.0040459,0.012138,0.00014996,0,0,0.03156,-0.01052,0,0.00038991,0,0,0,0.036416,0.0040452,0.012138,0.26544,0.017533,0.029178,9.5267e-07,0.23,0.3,0
0.009181,0.0018007,0.036302,0.0036327,0.01198,6.2485e-05,0,0,0.031618,-0.010852,0,0.00016246,0,0,0,0.036302,0.0036326,0.01198,0.10959,0.017305,0.029398,9.5888e-07,0.24,0.3,0
0.0094974,0.0018142,0.036184,0.0032276,0.011824,-1.7947e-05,0,0,0.031669,-0.011175,0,-4.6662e-05,0,0,0,0.036184,0.0032276,0.011824,-0.031201,0.017078,0.02961,9.642e-07,0.25,0.3,0
0.0098144,0.0018254,0.036063,0.0028291,0.011668,-9.2133e-05,0,0,0.031714,-0.01149,0,-0.00023955,0,0,0,0.036064,0.0028288,0.011668,-0.15884,0.016853,0.029815,9.6869e-07,0.26,0.3,0
0.010132,0.0018347,0.035938,0.0024355,0.011512,-0.0001609,0,0,0.031754,-0.0118,0,-0.00041834,0,0,0,0.035939,0.0024348,0.011512,-0.27516,0.016629,0.030014,9.7237e-07,0.27,0.3,0
0.010449,0.001842,0.035809,0.0020457,0.011356,-0.00022511,0,0,0.031788,-0.012104,0,-0.00058529,0,0,0,0.03581,0.0020442,0.011356,-0.38199,0.016404,0.030207,9.7524e-07,0.28,0.3,0
0.010767,0.0018475,0.035674,0.0016582,0.0112,-0.00028571,0,0,0.031816,-0.012404,0,-0.00074284,0,0,0,0.035676,0.0016558,0.0112,-0.4812,0.016177,0.030394,9.7724e-07,0.29,0.3,0
0.011086,0.0018513,0.035532,0.0012716,0.011041,-0.00034381,0,0,0.031838,-0.0127,0,-0.0008939,0,0,0,0.035535,0.0012682,0.011041,-0.5749,0.015948,0.030575,9.7832e-07,0.3,0.3,0
0.011404,0.0018535,0.035381,0.00088422,0.01088,-0.00040089,0,0,0.031852,-0.012994,0,-0.0010423,0,0,0,0.035386,0.00087956,0.01088,-0.66573,0.015715,0.030751,9.7837e-07,0.31,0.3,0
0.011723,0.0018541,0.035219,0.0004938,0.010714,-0.00045902,0,0,0.031857,-0.013286,0,-0.0011934,0,0,0,0.035225,0.00048774,0.010714,-0.75719,0.015476,0.03092,9.7729e-07,0.32,0.3,0
0.012041,0.0018531,0.035044,9.7515e-05,0.010542,-0.00052104,0,0,0.031852,-0.013578,0,-0.0013547,0,0,0,0.035051,8.9748e-05,0.010542,-0.85402,0.015228,0.031083,9.7491e-07,0.33,0.3,0
0.01236,0.0018506,0.034851,-0.00030858,0.010363,-0.00059086,0,0,0.031835,-0.013873,0,-0.0015362,0,0,0,0.034861,-0.00031851,0.010363,-0.96249,0.014968,0.03124,9.711e-07,0.34,0.3,0
0.012678,0.0018465,0.034639,-0.00073066,0.010172,-0.00067374,0,0,0.031807,-0.014174,0,-0.0017517,0,0,0,0.034652,-0.00074349,0.010172,-1.0909,0.014694,0.031394,9.6581e-07,0.35,0.3,0
0.012996,0.0018408,0.034407,-0.0011798,0.0099682,-0.00077769,0,0,0.031771,-0.014492,0,-0.002022,0,0,0,0.034424,-0.0011967,0.0099682,-1.2513,0.014398,0.031556,9.5933e-07,0.36,0.3,0
0.013314,0.0018333,0.034157,-0.001678,0.0097438,-0.00091663,0,0,0.031738,-0.014848,0,-0.0023832,0,0,0,0.034181,-0.0017015,0.0097438,-1.4643,0.014074,0.031746,9.5242e-07,0.37,0.3,0
0.013631,0.0018238,0.033885,-0.0022659,0.0094856,-0.0011132,0,0,0.031719,-0.015277,0,-0.0028943,0,0,0,0.033919,-0.0023002,0.0094856,-1.7621,0.013702,0.031998,9.4566e-07,0.38,0.3,0
0.013948,0.0018124,0.033589,-0.0029789,0.0091829,-0.0013638,0,0,0.031727,-0.01581,0,-0.0035459,0,0,0,0.033639,-0.0030297,0.0091829,-2.1329,0.013264,0.032341,9.3946e-07,0.39,0.3,0
0.014265,0.0018013,0.033507,-0.0037794,0.0089181,-0.0015378,0,0,0.031965,-0.016507,0,-0.0039983,0,0,0,0.03357,-0.0038427,0.0089181,-2.3577,0.012882,0.032941,9.5088e-07,0.4,0.3,0
0.014587,0.0017982,0.033606,-0.0053297,0.0084829,-0.001291,0,0,0.03266,-0.017956,0,-0.0033567,0,0,0,0.033649,-0.0053724,0.0084829,-1.897,0.012253,0.034263,9.858e-07,0.41,0.3,0
0.014918,0.0018163,0.033697,-0.0023719,0.0093974,-0.00056086,0,0,0.046613,-0.0204,0,-0.0015048,0,0,0,0.033711,-0.0023862,0.0093974,-0.78792,0.013574,0.031961,8.8936e-07,0.42,0.3,0
0.015519,0.0018609,0.034055,0.0014356,0.010647,0.00017086,0,0,0.06086,-0.02395,0,0.00088846,0,0,0,0.034056,0.0014347,0.010647,0.3001,0.015379,0.029129,8.5451e-07,0.43,0.3,0
0.016136,0.0019489,0.034272,0.00050325,0.010433,0.00061004,0,0,0.061982,-0.025816,0,0.0031722,0,0,0,0.034283,0.00049223,0.010433,1.0346,0.015069,0.030079,9.0042e-07,0.44,0.3,0
0.016759,0.0020644,0.034337,0.00020279,0.010362,0.00072733,0,0,0.062335,-0.026414,0,0.0037821,0,0,0,0.034352,0.0001873,0.010362,1.2201,0.014967,0.030383,9.1486e-07,0.45,0.3,0
0.017382,0.0021932,0.034243,7.7754e-05,0.010296,0.00069727,0,0,0.062262,-0.026568,0,0.0036258,0,0,0,0.034257,6.3529e-05,0.010296,1.1687,0.014872,0.030398,9.1084e-07,0.46,0.3,0
0.018004,0.0023265,0.034146,8.2489e-05,0.010268,0.00059405,0,0,0.06208,-0.026483,0,0.003089,0,0,0,0.034156,7.2132e-05,0.010268,0.99881,0.014832,0.030301,9.0252e-07,0.47,0.3,0
0.018624,0.0024597,0.034042,0.00012499,0.01025,0.00046149,0,0,0.061859,-0.026325,0,0.0023997,0,0,0,0.034048,0.00011872,0.01025,0.77939,0.014806,0.030168,8.927e-07,0.48,0.3,0
0.019242,0.0025898,0.033949,0.00017642,0.010238,0.0003151,0,0,0.06165,-0.026159,0,0.0016385,0,0,0,0.033952,0.00017348,0.010238,0.53451,0.014788,0.030039,8.8358e-07,0.49,0.3,0
0.019857,0.0027148,0.033866,0.00021691,0.010225,0.00016845,0,0,0.061467,-0.026021,0,0.00087592,0,0,0,0.033867,0.00021607,0.010225,0.28681,0.014769,0.029929,8.7573e-07,0.5,0.3,0
0.020471,0.0028338,0.033794,0.00024141,0.010211,2.8734e-05,0,0,0.061317,-0.02592,0,0.00014941,0,0,0,0.033794,0.00024138,0.010211,0.049066,0.014749,0.029844,8.6938e-07,0.51,0.3,0
0.021083,0.0029462,0.033732,0.00024802,0.010194,-9.9627e-05,0,0,0.061198,-0.025859,0,-0.00051806,0,0,0,0.033732,0.00024772,0.010194,-0.17047,0.014725,0.029784,8.6441e-07,0.52,0.3,0
0.021695,0.003052,0.033678,0.00023752,0.010174,-0.00021429,0,0,0.061108,-0.025836,0,-0.0011143,0,0,0,0.033679,0.00023614,0.010174,-0.36715,0.014696,0.029746,8.6064e-07,0.53,0.3,0
0.022305,0.0031511,0.03363,0.00021198,0.010153,-0.00031401,0,0,0.061041,-0.025846,0,-0.0016329,0,0,0,0.033633,0.00020903,0.010153,-0.53832,0.014665,0.029727,8.5786e-07,0.54,0.3,0
0.022916,0.003244,0.033587,0.00017437,0.010129,-0.00039839,0,0,0.060993,-0.025881,0,-0.0020716,0,0,0,0.033592,0.00016962,0.010129,-0.68303,0.01463,0.029722,8.5582e-07,0.55,0.3,0
0.023525,0.003331,0.033548,0.00012798,0.010103,-0.00046779,0,0,0.060958,-0.025935,0,-0.0024325,0,0,0,0.033555,0.00012143,0.010103,-0.80178,0.014593,0.029727,8.543e-07,0.56,0.3,0
0.024135,0.0034124,0.033511,7.59e-05,0.010076,-0.00052314,0,0,0.060931,-0.026,0,-0.0027203,0,0,0,0.033519,6.7716e-05,0.010076,-0.89618,0.014554,0.029738,8.5307e-07,0.57,0.3,0
0.024744,0.0034887,0.033475,2.085e-05,0.010049,-0.00056577,0,0,0.060908,-0.026072,0,-0.002942,0,0,0,0.033485,1.1285e-05,0.010049,-0.9686,0.014515,0.029753,8.5197e-07,0.58,0.3,0
0.025353,0.0035604,0.033439,-3.497e-05,0.010021,-0.0005972,0,0,0.060886,-0.026146,0,-0.0031054,0,0,0,0.03345,-4.5621e-05,0.010021,-1.0218,0.014475,0.029767,8.5086e-07,0.59,0.3,0
0.025962,0.0036277,0.033403,-8.9861e-05,0.0099938,-0.00061901,0,0,0.060863,-0.026218,0,-0.0032188,0,0,0,0.033414,-0.0001013,0.0099938,-1.0585,0.014436,0.02978,8.4965e-07,0.6,0.3,0
0.02657,0.0036912,0.033365,-0.00014258,0.0099669,-0.00063273,0,0,0.060836,-0.026285,0,-0.0032902,0,0,0,0.033377,-0.00015453,0.0099669,-1.0814,0.014397,0.02979,8.4829e-07,0.61,0.3,0
0.027178,0.0037511,0.033327,-0.00019228,0.0099405,-0.00063978,0,0,0.060806,-0.026345,0,-0.0033268,0,0,0,0.03334,-0.00020449,0.0099405,-1.0931,0.014359,0.029796,8.4676e-07,0.62,0.3,0
0.027786,0.0038077,0.033289,-0.00023843,0.009915,-0.00064142,0,0,0.060771,-0.026399,0,-0.0033354,0,0,0,0.033301,-0.0002507,0.009915,-1.0956,0.014322,0.029799,8.4505e-07,0.63,0.3,0
0.028394,0.0038613,0.033249,-0.00028076,0.0098905,-0.00063877,0,0,0.060732,-0.026445,0,-0.0033216,0,0,0,0.033261,-0.00029293,0.0098905,-1.091,0.014286,0.029797,8.4316e-07,0.64,0.3,0
0.029001,0.003912,0.033209,-0.00031919,0.0098669,-0.00063275,0,0,0.060689,-0.026484,0,-0.0032903,0,0,0,0.033221,-0.00033113,0.0098669,-1.0808,0.014252,0.029792,8.4111e-07,0.65,0.3,0
0.029608,0.0039601,0.033169,-0.0003538,0.0098445,-0.00062416,0,0,0.060643,-0.026516,0,-0.0032456,0,0,0,0.03318,-0.00036542,0.0098445,-1.0663,0.01422,0.029784,8.3894e-07,0.66,0.3,0
0.030214,0.0040057,0.033128,-0.00038474,0.0098231,-0.00061362,0,0,0.060594,-0.026541,0,-0.0031908,0,0,0,0.03314,-0.00039598,0.0098231,-1.0486,0.014189,0.029772,8.3668e-07,0.67,0.3,0
0.030819,0.0040491,0.033088,-0.00041227,0.0098029,-0.00060166,0,0,0.060543,-0.026559,0,-0.0031286,0,0,0,0.033099,-0.00042308,0.0098029,-1.0286,0.01416,0.029758,8.3434e-07,0.68,0.3,0
0.031425,0.0040902,0.033049,-0.00043667,0.0097838,-0.00058866,0,0,0.06049,-0.026573,0,-0.003061,0,0,0,0.033059,-0.00044702,0.0097838,-1.0068,0.014132,0.029742,8.3197e-07,0.69,0.3,0
0.032029,0.0041292,0.033011,-0.00045824,0.0097657,-0.00057492,0,0,0.060437,-0.026582,0,-0.0029896,0,0,0,0.033021,-0.00046811,0.0097657,-0.98383,0.014106,0.029724,8.2958e-07,0.7,0.3,0
0.032633,0.0041662,0.032973,-0.00047729,0.0097487,-0.00056067,0,0,0.060383,-0.026588,0,-0.0029155,0,0,0,0.032982,-0.00048668,0.0097487,-0.95999,0.014082,0.029705,8.2721e-07,0.71,0.3,0
0.033237,0.0042013,0.032937,-0.00049412,0.0097328,-0.00054605,0,0,0.06033,-0.02659,0,-0.0028395,0,0,0,0.032946,-0.00050303,0.0097328,-0.93553,0.014058,0.029685,8.2487e-07,0.72,0.3,0
0.03384,0.0042346,0.032902,-0.00050901,0.0097178,-0.00053117,0,0,0.060278,-0.02659,0,-0.0027621,0,0,0,0.03291,-0.00051745,0.0097178,-0.91058,0.014037,0.029665,8.2259e-07,0.73,0.3,0
0.034443,0.004266,0.032868,-0.00052224,0.0097038,-0.00051607,0,0,0.060228,-0.026588,0,-0.0026835,0,0,0,0.032876,-0.00053021,0.0097038,-0.88525,0.014017,0.029645,8.2039e-07,0.74,0.3,0
0.035044,0.0042958,0.032836,-0.00053403,0.0096907,-0.00050077,0,0,0.060179,-0.026584,0,-0.002604,0,0,0,0.032844,-0.00054155,0.0096907,-0.85955,0.013998,0.029625,8.1826e-07,0.75,0.3,0
0.035646,0.0043239,0.032806,-0.00054462,0.0096784,-0.00048528,0,0,0.060132,-0.02658,0,-0.0025235,0,0,0,0.032813,-0.00055168,0.0096784,-0.83347,0.01398,0.029606,8.1624e-07,0.76,0.3,0
0.036247,0.0043504,0.032777,-0.00055418,0.009667,-0.00046958,0,0,0.060087,-0.026575,0,-0.0024418,0,0,0,0.032784,-0.00056079,0.009667,-0.80697,0.013963,0.029588,8.1431e-07,0.77,0.3,0
0.036848,0.0043753,0.03275,-0.00056288,0.0096563,-0.00045362,0,0,0.060045,-0.02657,0,-0.0023588,0,0,0,0.032757,-0.00056905,0.0096563,-0.78,0.013948,0.02957,8.125e-07,0.78,0.3,0
0.037448,0.0043988,0.032725,-0.00057085,0.0096463,-0.00043738,0,0,0.060005,-0.026565,0,-0.0022744,0,0,0,0.032731,-0.00057659,0.0096463,-0.75247,0.013934,0.029553,8.1079e-07,0.79,0.3,0
0.038048,0.0044208,0.032702,-0.0005782,0.009637,-0.00042082,0,0,0.059968,-0.02656,0,-0.0021882,0,0,0,0.032707,-0.00058352,0.009637,-0.72433,0.01392,0.029538,8.092e-07,0.8,0.3,0
0.038647,0.0044414,0.03268,-0.00058504,0.0096285,-0.00040388,0,0,0.059934,-0.026555,0,-0.0021002,0,0,0,0.032685,-0.00058994,0.0096285,-0.69551,0.013908,0.029523,8.0772e-07,0.81,0.3,0
0.039247,0.0044606,0.03266,-0.00059143,0.0096205,-0.00038654,0,0,0.059902,-0.026551,0,-0.00201,0,0,0,0.032664,-0.00059592,0.0096205,-0.66593,0.013896,0.02951,8.0635e-07,0.82,0.3,0
0.039845,0.0044785,0.032641,-0.00059743,0.0096131,-0.00036876,0,0,0.059873,-0.026547,0,-0.0019175,0,0,0,0.032645,-0.00060152,0.0096131,-0.63555,0.013886,0.029497,8.0508e-07,0.83,0.3,0
0.040444,0.0044951,0.032624,-0.00060308,0.0096062,-0.00035051,0,0,0.059846,-0.026544,0,-0.0018227,0,0,0,0.032627,-0.00060677,0.0096062,-0.60433,0.013876,0.029486,8.0393e-07,0.84,0.3,0
0.041042,0.0045105,0.032608,-0.0006084,0.0095999,-0.00033178,0,0,0.059821,-0.026542,0,-0.0017253,0,0,0,0.032612,-0.00061171,0.0095999,-0.57222,0.013867,0.029475,8.0287e-07,0.85,0.3,0
0.04164,0.0045247,0.032594,-0.00061342,0.0095941,-0.00031256,0,0,0.059799,-0.02654,0,-0.0016253,0,0,0,0.032597,-0.00061637,0.0095941,-0.53922,0.013858,0.029466,8.0191e-07,0.86,0.3,0
0.042238,0.0045378,0.032581,-0.00061815,0.0095888,-0.00029283,0,0,0.059779,-0.026538,0,-0.0015227,0,0,0,0.032584,-0.00062073,0.0095888,-0.50531,0.01385,0.029458,8.0104e-07,0.87,0.3,0
0.042836,0.0045497,0.032569,-0.00062259,0.009584,-0.0002726,0,0,0.059762,-0.026537,0,-0.0014175,0,0,0,0.032571,-0.00062483,0.009584,-0.47051,0.013843,0.02945,8.0026e-07,0.88,0.3,0
0.043434,0.0045605,0.032559,-0.00062673,0.0095796,-0.00025187,0,0,0.059746,-0.026536,0,-0.0013097,0,0,0,0.032561,-0.00062865,0.0095796,-0.43484,0.013837,0.029444,7.9956e-07,0.89,0.3,0
0.044031,0.0045703,0.032549,-0.00063057,0.0095756,-0.00023068,0,0,0.059732,-0.026536,0,-0.0011995,0,0,0,0.032551,-0.00063218,0.0095756,-0.39831,0.013831,0.029438,7.9894e-07,0.9,0.3,0
0.044628,0.0045791,0.032541,-0.0006341,0.0095721,-0.00020903,0,0,0.059719,-0.026536,0,-0.001087,0,0,0,0.032542,-0.00063542,0.0095721,-0.36099,0.013826,0.029433,7.9839e-07,0.91,0.3,0
0.045225,0.0045868,0.032534,-0.00063731,0.0095689,-0.00018696,0,0,0.059708,-0.026536,0,-0.00097218,0,0,0,0.032535,-0.00063836,0.0095689,-0.32291,0.013822,0.029429,7.9792e-07,0.92,0.3,0
0.045822,0.0045936,0.032528,-0.00064017,0.0095662,-0.00016449,0,0,0.059699,-0.026537,0,-0.00085537,0,0,0,0.032528,-0.00064099,0.0095662,-0.28415,0.013818,0.029425,7.9751e-07,0.93,0.3,0
0.046419,0.0045994,0.032522,-0.00064269,0.0095638,-0.00014168,0,0,0.059692,-0.026537,0,-0.00073673,0,0,0,0.032523,-0.0006433,0.0095638,-0.24476,0.013814,0.029422,7.9715e-07,0.94,0.3,0
0.047016,0.0046044,0.032518,-0.00064485,0.0095618,-0.00011855,0,0,0.059685,-0.026537,0,-0.00061648,0,0,0,0.032518,-0.00064527,0.0095618,-0.20483,0.013812,0.029419,7.9687e-07,0.95,0.3,0
0.047613,0.0046083,0.032514,-0.00064662,0.0095602,-9.5167e-05,0,0,0.05968,-0.026538,0,-0.00049487,0,0,0,0.032514,-0.0006469,0.0095602,-0.16443,0.013809,0.029417,7.9663e-07,0.96,0.3,0
0.04821,0.0046114,0.032511,-0.00064802,0.009559,-7.1565e-05,0,0,0.059676,-0.026538,0,-0.00037214,0,0,0,0.032511,-0.00064817,0.009559,-0.12366,0.013807,0.029416,7.9645e-07,0.97,0.3,0
0.048807,0.0046136,0.032509,-0.00064902,0.0095581,-4.7801e-05,0,0,0.059673,-0.026538,0,-0.00024857,0,0,0,0.032509,-0.00064909,0.0095581,-0.082598,0.013806,0.029415,7.9632e-07,0.98,0.3,0
0.049403,0.0046149,0.032508,-0.00064963,0.0095576,-2.3928e-05,0,0,0.059672,-0.026539,0,-0.00012443,0,0,0,0.032508,-0.00064964,0.0095576,-0.041347,0.013805,0.029414,7.9625e-07,0.99,0.3,0
0.05,0.0046154,0.032508,-0.00064983,0.0095574,8.421e-06,0,0,0.059671,-0.026539,0,4.3789e-05,0,0,0,0.032508,-0.00064983,0.0095574,0.014551,0.013805,0.029414,7.9622e-07,1,0.3,0
0,0,0.037123,0.01591,0.01591,0.00317,0,0,0.055154,-1.0842e-19,0,0.016484,0,0,0,0.037587,0.015446,0.01591,8.32,0.022981,0.021912,5.3955e-07,0,0.31,0
0.00055154,0.00016484,0.037035,0.015168,0.015661,0.0031451,0,0,0.055572,-0.0012807,0,0.016355,0,0,0,0.037478,0.014725,0.015661,8.0243,0.022621,0.0223,5.6618e-07,0.01,0.31,0
0.0011114,0.00032391,0.037241,0.014699,0.015582,0.003047,0,0,0.056314,-0.0022962,0,0.015844,0,0,0,0.037645,0.014294,0.015582,7.5637,0.022507,0.022735,5.9701e-07,0.02,0.31,0
0.0016778,0.00047648,0.037393,0.014369,0.015529,0.0029265,0,0,0.056848,-0.003015,0,0.015218,0,0,0,0.03776,0.014003,0.015529,7.1316,0.02243,0.023032,6.182e-07,0.03,0.31,0
0.0022484,0.00062226,0.037477,0.014186,0.015499,0.0027922,0,0,0.057143,-0.003413,0,0.014519,0,0,0,0.037808,0.013856,0.015499,6.7415,0.022388,0.023173,6.2832e-07,0.04,0.31,0
0.0028207,0.00076171,0.037496,0.014156,0.015496,0.0026627,0,0,0.057202,-0.0034834,0,0.013846,0,0,0,0.037796,0.013856,0.015496,6.4262,0.022383,0.023164,6.2758e-07,0.05,0.31,0
0.0033924,0.00089638,0.037466,0.014226,0.015508,0.0025727,0,0,0.057092,-0.0033317,0,0.013378,0,0,0,0.037748,0.013945,0.015508,6.242,0.0224,0.023061,6.2013e-07,0.06,0.31,0
0.0039625,0.0010288,0.037454,0.013415,0.015261,0.0025282,0,0,0.043103,-0.0031989,0,0.0098688,0,0,0,0.037717,0.013152,0.015261,5.9473,0.022043,0.023587,6.5536e-07,0.07,0.31,0
0.0042545,0.0010949,0.037396,0.012201,0.014879,0.0024999,0,0,0.029272,-0.0034818,0,0.0064997,0,0,0,0.037641,0.011955,0.014879,5.612,0.021492,0.024356,7.0618e-07,0.08,0.31,0
0.004548,0.0011604,0.03738,0.011653,0.01471,0.0024142,0,0,0.029471,-0.0039735,0,0.0062768,0,0,0,0.037604,0.011429,0.01471,5.3148,0.021248,0.024699,7.2802e-07,0.09,0.31,0
0.0048439,0.0012238,0.037386,0.011017,0.014521,0.0022552,0,0,0.029724,-0.0045548,0,0.0058634,0,0,0,0.037577,0.010826,0.014521,4.8532,0.020975,0.025109,7.5399e-07,0.1,0.31,0
0.0051424,0.0012836,0.037384,0.010379,0.014329,0.0020441,0,0,0.029971,-0.0051345,0,0.0053147,0,0,0,0.037538,0.010226,0.014329,4.3043,0.020697,0.025509,7.7869e-07,0.11,0.31,0
0.0054433,0.0013388,0.037365,0.0097687,0.01414,0.0018277,0,0,0.030192,-0.0056826,0,0.0047519,0,0,0,0.037485,0.0096482,0.01414,3.7727,0.020424,0.025885,8.011e-07,0.12,0.31,0
0.0057463,0.0013893,0.037322,0.0091695,0.013948,0.0016227,0,0,0.030387,-0.0062115,0,0.0042191,0,0,0,0.037416,0.0090762,0.013948,3.288,0.020147,0.026245,8.2168e-07,0.13,0.31,0
0.0060511,0.0014353,0.037269,0.0085851,0.013756,0.0014329,0,0,0.030566,-0.0067223,0,0.0037255,0,0,0,0.03734,0.0085137,0.013756,2.8527,0.01987,0.026596,8.4101e-07,0.14,0.31,0
0.0063576,0.0014769,0.037206,0.0080184,0.013567,0.001257,0,0,0.030731,-0.0072137,0,0.0032682,0,0,0,0.03726,0.0079644,0.013567,2.4615,0.019597,0.026935,8.5908e-07,0.15,0.31,0
0.0066657,0.0015143,0.037136,0.0074707,0.013382,0.0010944,0,0,0.030881,-0.0076849,0,0.0028454,0,0,0,0.037177,0.0074303,0.013382,2.1099,0.01933,0.027262,8.7577e-07,0.16,0.31,0
0.0069752,0.0015478,0.037059,0.0069422,0.0132,0.00094428,0,0,0.031016,-0.0081357,0,0.0024551,0,0,0,0.037089,0.0069126,0.0132,1.7941,0.019067,0.027575,8.9104e-07,0.17,0.31,0
0.007286,0.0015777,0.036975,0.0064328,0.013022,0.0008059,0,0,0.031138,-0.0085665,0,0.0020954,0,0,0,0.036996,0.0064115,0.013022,1.5104,0.01881,0.027874,9.0486e-07,0.18,0.31,0
0.007598,0.0016041,0.036885,0.0059417,0.012848,0.00067842,0,0,0.031248,-0.0089781,0,0.0017639,0,0,0,0.0369,0.0059268,0.012848,1.2554,0.018558,0.028157,9.1725e-07,0.19,0.31,0
0.007911,0.0016274,0.036788,0.0054679,0.012677,0.00056103,0,0,0.031345,-0.0093717,0,0.0014587,0,0,0,0.036798,0.0054578,0.012677,1.0259,0.018311,0.028427,9.2827e-07,0.2,0.31,0
0.0082249,0.0016476,0.036687,0.00501,0.012509,0.00045296,0,0,0.031431,-0.0097488,0,0.0011777,0,0,0,0.036693,0.0050035,0.012509,0.81908,0.018069,0.028683,9.3799e-07,0.21,0.31,0
0.0085396,0.0016651,0.03658,0.0045664,0.012344,0.00035354,0,0,0.031507,-0.010111,0,0.00091921,0,0,0,0.036584,0.0045625,0.012344,0.63264,0.01783,0.028927,9.4651e-07,0.22,0.31,0
0.008855,0.00168,0.03647,0.0041352,0.012181,0.00026215,0,0,0.031575,-0.01046,0,0.00068159,0,0,0,0.036472,0.0041331,0.012181,0.46448,0.017596,0.02916,9.5394e-07,0.23,0.31,0
0.0091711,0.0016925,0.036355,0.0037147,0.012021,0.00017821,0,0,0.031635,-0.010798,0,0.00046335,0,0,0,0.036356,0.0037137,0.012021,0.31281,0.017364,0.029383,9.6037e-07,0.24,0.31,0
0.0094877,0.0017027,0.036237,0.003303,0.011862,0.00010119,0,0,0.031688,-0.011127,0,0.00026309,0,0,0,0.036238,0.0033026,0.011862,0.17603,0.017134,0.029599,9.6589e-07,0.25,0.31,0
0.0098049,0.0017108,0.036116,0.0028984,0.011704,3.0569e-05,0,0,0.031735,-0.011448,0,7.948e-05,0,0,0,0.036116,0.0028984,0.011704,0.052728,0.016906,0.029807,9.7055e-07,0.26,0.31,0
0.010122,0.0017169,0.03599,0.0024995,0.011547,-3.4135e-05,0,0,0.031776,-0.011762,0,-8.8751e-05,0,0,0,0.03599,0.0024995,0.011547,-0.058398,0.016679,0.030008,9.7436e-07,0.27,0.31,0
0.01044,0.0017212,0.03586,0.002105,0.01139,-9.3424e-05,0,0,0.031812,-0.01207,0,-0.0002429,0,0,0,0.03586,0.0021047,0.01139,-0.15857,0.016452,0.030203,9.7732e-07,0.28,0.31,0
0.010759,0.0017237,0.035724,0.0017135,0.011231,-0.00014784,0,0,0.031841,-0.012373,0,-0.0003844,0,0,0,0.035724,0.0017129,0.011231,-0.24906,0.016223,0.030392,9.7936e-07,0.29,0.31,0
0.011077,0.0017245,0.03558,0.0013239,0.011071,-0.00019808,0,0,0.031862,-0.012672,0,-0.00051501,0,0,0,0.035581,0.0013227,0.011071,-0.33129,0.015992,0.030573,9.8038e-07,0.3,0.31,0
0.011396,0.0017237,0.035426,0.00093468,0.010908,-0.00024506,0,0,0.031873,-0.012966,0,-0.00063715,0,0,0,0.035428,0.00093293,0.010908,-0.40705,0.015756,0.030746,9.8021e-07,0.31,0.31,0
0.011715,0.0017214,0.035259,0.00054426,0.010741,-0.0002901,0,0,0.031874,-0.013256,0,-0.00075427,0,0,0,0.035262,0.00054183,0.010741,-0.47876,0.015515,0.030909,9.7865e-07,0.32,0.31,0
0.012033,0.0017176,0.035074,0.00015046,0.010568,-0.00033514,0,0,0.031859,-0.013542,0,-0.00087135,0,0,0,0.035078,0.00014725,0.010568,-0.54975,0.015264,0.03106,9.7538e-07,0.33,0.31,0
0.012352,0.0017122,0.034866,-0.00024989,0.010385,-0.00038298,0,0,0.031826,-0.013825,0,-0.00099576,0,0,0,0.03487,-0.00025406,0.010385,-0.62478,0.015,0.031196,9.7e-07,0.34,0.31,0
0.01267,0.0017053,0.034626,-0.00066203,0.010189,-0.00043806,0,0,0.031768,-0.014107,0,-0.001139,0,0,0,0.034631,-0.00066746,0.010189,-0.71112,0.014718,0.031315,9.6199e-07,0.35,0.31,0
0.012987,0.0016966,0.034342,-0.0010954,0.009974,-0.00050775,0,0,0.031678,-0.01439,0,-0.0013201,0,0,0,0.034349,-0.0011027,0.009974,-0.82072,0.014407,0.031414,9.5065e-07,0.36,0.31,0
0.013303,0.0016859,0.033994,-0.0015669,0.0097281,-0.00060452,0,0,0.031545,-0.014683,0,-0.0015717,0,0,0,0.034004,-0.0015772,0.0097281,-0.97363,0.014052,0.031489,9.3481e-07,0.37,0.31,0
0.013618,0.0016728,0.033554,-0.0021019,0.0094357,-0.00074433,0,0,0.031354,-0.014999,0,-0.0019353,0,0,0,0.03357,-0.0021174,0.0094357,-1.1954,0.013629,0.03154,9.1301e-07,0.38,0.31,0
0.013931,0.0016571,0.033035,-0.0027371,0.0090893,-0.00094288,0,0,0.031129,-0.015374,0,-0.0024515,0,0,0,0.03306,-0.0027619,0.0090893,-1.5088,0.013129,0.031609,8.8711e-07,0.39,0.31,0
0.014241,0.0016387,0.032606,-0.0036142,0.0086974,-0.0012132,0,0,0.031081,-0.016005,0,-0.0031544,0,0,0,0.032646,-0.0036548,0.0086974,-1.9163,0.012563,0.031968,8.7295e-07,0.4,0.31,0
0.014552,0.0016179,0.0328,-0.0052124,0.0082762,-0.0014023,0,0,0.03188,-0.017535,0,-0.0036458,0,0,0,0.032851,-0.005264,0.0082762,-2.1098,0.011954,0.033467,9.1766e-07,0.41,0.31,0
0.014878,0.0016087,0.032601,-0.0034392,0.0087487,-0.001103,0,0,0.045709,-0.021126,0,-0.0035033,0,0,0,0.032641,-0.0034787,0.0087487,-1.6427,0.012637,0.0319,8.2346e-07,0.42,0.31,0
0.015466,0.0016187,0.033032,0.00057925,0.010083,-0.00010027,0,0,0.059667,-0.024711,0,-0.0005214,0,0,0,0.033032,0.00057894,0.010083,-0.17702,0.014565,0.028898,8.0257e-07,0.43,0.31,0
0.016072,0.0016921,0.033479,0.00042278,0.010171,0.00043082,0,0,0.060602,-0.025344,0,0.0022403,0,0,0,0.033485,0.00041717,0.010171,0.74656,0.014691,0.029429,8.4077e-07,0.44,0.31,0
0.016678,0.0018032,0.033531,0.00011049,0.010093,0.00067748,0,0,0.06094,-0.025953,0,0.0035229,0,0,0,0.033545,9.6766e-05,0.010093,1.1608,0.014578,0.029738,8.5423e-07,0.45,0.31,0
0.01729,0.00193,0.033725,0.00012648,0.010155,0.00069004,0,0,0.061281,-0.026075,0,0.0035882,0,0,0,0.033739,0.00011231,0.010155,1.1761,0.014669,0.029898,8.6874e-07,0.46,0.31,0
0.017904,0.002064,0.033801,0.00017668,0.010193,0.00062654,0,0,0.06138,-0.026043,0,0.003258,0,0,0,0.033813,0.00016501,0.010193,1.0671,0.014724,0.029922,8.7297e-07,0.47,0.31,0
0.018518,0.0021985,0.033841,0.00025773,0.01023,0.00050462,0,0,0.06139,-0.025927,0,0.002624,0,0,0,0.033849,0.00025015,0.01023,0.86065,0.014776,0.029886,8.7338e-07,0.48,0.31,0
0.019132,0.0023299,0.033846,0.00031728,0.010249,0.00036212,0,0,0.061352,-0.025822,0,0.001883,0,0,0,0.03385,0.00031337,0.010249,0.61872,0.014804,0.029836,8.7165e-07,0.49,0.31,0
0.019745,0.002456,0.033837,0.00035674,0.010258,0.00021457,0,0,0.061306,-0.025744,0,0.0011158,0,0,0,0.033839,0.00035536,0.010258,0.36718,0.014818,0.029793,8.6961e-07,0.5,0.31,0
0.020358,0.0025757,0.03382,0.00037337,0.010258,7.2637e-05,0,0,0.061262,-0.0257,0,0.00037771,0,0,0,0.03382,0.00037321,0.010258,0.12443,0.014817,0.029763,8.6768e-07,0.51,0.31,0
0.02097,0.0026885,0.033799,0.00036872,0.01025,-5.8931e-05,0,0,0.061227,-0.025692,0,-0.00030644,0,0,0,0.033799,0.00036862,0.01025,-0.101,0.014806,0.029747,8.6616e-07,0.52,0.31,0
0.021582,0.0027942,0.033775,0.00034432,0.010236,-0.00017698,0,0,0.061203,-0.025718,0,-0.00092032,0,0,0,0.033776,0.00034338,0.010236,-0.30331,0.014785,0.029747,8.6512e-07,0.53,0.31,0
0.022194,0.002893,0.033751,0.00030335,0.010216,-0.0002795,0,0,0.06119,-0.025774,0,-0.0014534,0,0,0,0.033753,0.00030102,0.010216,-0.47874,0.014757,0.02976,8.6454e-07,0.54,0.31,0
0.022806,0.0029854,0.033726,0.00025007,0.010193,-0.00036563,0,0,0.061186,-0.025851,0,-0.0019013,0,0,0,0.03373,0.00024608,0.010193,-0.6257,0.014723,0.029783,8.6427e-07,0.55,0.31,0
0.023418,0.0030716,0.033699,0.00018869,0.010166,-0.00043565,0,0,0.061186,-0.025942,0,-0.0022654,0,0,0,0.033705,0.00018303,0.010166,-0.74469,0.014685,0.029812,8.6414e-07,0.56,0.31,0
0.02403,0.0031522,0.033672,0.00012293,0.010138,-0.00049066,0,0,0.061186,-0.02604,0,-0.0025514,0,0,0,0.033679,0.00011576,0.010138,-0.83773,0.014644,0.029842,8.6398e-07,0.57,0.31,0
0.024642,0.0032276,0.033641,5.5809e-05,0.010109,-0.00053226,0,0,0.061184,-0.026139,0,-0.0027677,0,0,0,0.03365,4.7376e-05,0.010109,-0.90771,0.014602,0.029871,8.6366e-07,0.58,0.31,0
0.025254,0.0032985,0.033609,-1.0382e-05,0.01008,-0.00056224,0,0,0.061176,-0.026234,0,-0.0029237,0,0,0,0.033618,-1.9782e-05,0.01008,-0.95785,0.014559,0.029896,8.6308e-07,0.59,0.31,0
0.025865,0.0033651,0.033574,-7.3977e-05,0.01005,-0.00058244,0,0,0.061162,-0.026322,0,-0.0030287,0,0,0,0.033584,-8.4055e-05,0.01005,-0.99138,0.014517,0.029917,8.622e-07,0.6,0.31,0
0.026477,0.0034278,0.033537,-0.00013385,0.010021,-0.00059456,0,0,0.061141,-0.026402,0,-0.0030917,0,0,0,0.033547,-0.00014435,0.010021,-1.0113,0.014474,0.029933,8.61e-07,0.61,0.31,0
0.027088,0.003487,0.033497,-0.00018932,0.0099924,-0.00060017,0,0,0.061113,-0.026472,0,-0.0031209,0,0,0,0.033508,-0.00020001,0.0099924,-1.0204,0.014433,0.029942,8.5949e-07,0.62,0.31,0
0.027699,0.0035431,0.033456,-0.00024003,0.0099648,-0.00060062,0,0,0.061077,-0.026533,0,-0.0031232,0,0,0,0.033467,-0.00025073,0.0099648,-1.0209,0.014394,0.029946,8.577e-07,0.63,0.31,0
0.02831,0.0035961,0.033413,-0.00028589,0.0099382,-0.00059709,0,0,0.061035,-0.026583,0,-0.0031049,0,0,0,0.033424,-0.00029647,0.0099382,-1.0148,0.014355,0.029945,8.5565e-07,0.64,0.31,0
0.02892,0.0036465,0.03337,-0.00032701,0.0099129,-0.00059054,0,0,0.060988,-0.026624,0,-0.0030708,0,0,0,0.03338,-0.00033735,0.0099129,-1.0037,0.014319,0.029939,8.5339e-07,0.65,0.31,0
0.02953,0.0036943,0.033326,-0.0003636,0.0098887,-0.00058176,0,0,0.060937,-0.026656,0,-0.0030251,0,0,0,0.033336,-0.00037364,0.0098887,-0.989,0.014284,0.029928,8.5097e-07,0.66,0.31,0
0.030139,0.0037396,0.033282,-0.00039599,0.0098657,-0.00057138,0,0,0.060882,-0.02668,0,-0.0029712,0,0,0,0.033291,-0.00040568,0.0098657,-0.97171,0.01425,0.029915,8.4843e-07,0.67,0.31,0
0.030747,0.0037828,0.033238,-0.00042454,0.009844,-0.00055988,0,0,0.060824,-0.026698,0,-0.0029114,0,0,0,0.033247,-0.00043385,0.009844,-0.9526,0.014219,0.029898,8.4581e-07,0.68,0.31,0
0.031355,0.0038237,0.033195,-0.00044963,0.0098235,-0.00054764,0,0,0.060765,-0.02671,0,-0.0028477,0,0,0,0.033204,-0.00045855,0.0098235,-0.93229,0.01419,0.029879,8.4314e-07,0.69,0.31,0
0.031962,0.0038627,0.033152,-0.00047167,0.0098042,-0.00053491,0,0,0.060705,-0.026717,0,-0.0027815,0,0,0,0.033161,-0.00048018,0.0098042,-0.91119,0.014162,0.029858,8.4047e-07,0.7,0.31,0
0.032569,0.0038997,0.033111,-0.00049103,0.0097861,-0.00052189,0,0,0.060646,-0.026721,0,-0.0027138,0,0,0,0.033119,-0.00049913,0.0097861,-0.88959,0.014136,0.029837,8.3783e-07,0.71,0.31,0
0.033175,0.0039347,0.033072,-0.00050807,0.0097691,-0.00050868,0,0,0.060587,-0.026721,0,-0.0026451,0,0,0,0.033079,-0.00051578,0.0097691,-0.86767,0.014111,0.029814,8.3523e-07,0.72,0.31,0
0.033781,0.003968,0.033034,-0.00052313,0.0097531,-0.00049534,0,0,0.060529,-0.026718,0,-0.0025758,0,0,0,0.033041,-0.00053044,0.0097531,-0.84552,0.014088,0.029792,8.3271e-07,0.73,0.31,0
0.034386,0.0039995,0.032997,-0.0005365,0.0097382,-0.00048191,0,0,0.060473,-0.026714,0,-0.0025059,0,0,0,0.033004,-0.00054342,0.0097382,-0.82316,0.014066,0.02977,8.3028e-07,0.74,0.31,0
0.03499,0.0040293,0.032962,-0.00054845,0.0097242,-0.00046835,0,0,0.06042,-0.026709,0,-0.0024354,0,0,0,0.032969,-0.000555,0.0097242,-0.80056,0.014046,0.029748,8.2795e-07,0.75,0.31,0
0.035594,0.0040574,0.03293,-0.00055922,0.0097112,-0.00045465,0,0,0.060368,-0.026703,0,-0.0023642,0,0,0,0.032936,-0.0005654,0.0097112,-0.77767,0.014027,0.029727,8.2574e-07,0.76,0.31,0
0.036198,0.004084,0.032899,-0.00056901,0.009699,-0.00044077,0,0,0.06032,-0.026697,0,-0.002292,0,0,0,0.032905,-0.00057482,0.009699,-0.7544,0.01401,0.029706,8.2365e-07,0.77,0.31,0
0.036801,0.004109,0.03287,-0.00057798,0.0096876,-0.00042663,0,0,0.060274,-0.02669,0,-0.0022185,0,0,0,0.032875,-0.00058342,0.0096876,-0.73065,0.013993,0.029687,8.2168e-07,0.78,0.31,0
0.037403,0.0041325,0.032843,-0.00058628,0.009677,-0.0004122,0,0,0.060232,-0.026684,0,-0.0021434,0,0,0,0.032848,-0.00059136,0.009677,-0.70634,0.013978,0.029669,8.1984e-07,0.79,0.31,0
0.038005,0.0041546,0.032818,-0.000594,0.0096671,-0.0003974,0,0,0.060192,-0.026679,0,-0.0020665,0,0,0,0.032823,-0.00059873,0.0096671,-0.68135,0.013964,0.029652,8.1813e-07,0.8,0.31,0
0.038607,0.0041752,0.032794,-0.00060126,0.009658,-0.00038219,0,0,0.060155,-0.026674,0,-0.0019874,0,0,0,0.032799,-0.00060563,0.009658,-0.6556,0.01395,0.029637,8.1655e-07,0.81,0.31,0
0.039208,0.0041945,0.032773,-0.00060811,0.0096495,-0.00036653,0,0,0.060121,-0.02667,0,-0.001906,0,0,0,0.032777,-0.00061213,0.0096495,-0.62902,0.013938,0.029623,8.1509e-07,0.82,0.31,0
0.039809,0.0042124,0.032753,-0.00061459,0.0096416,-0.00035037,0,0,0.06009,-0.026666,0,-0.0018219,0,0,0,0.032757,-0.00061827,0.0096416,-0.60153,0.013927,0.02961,8.1375e-07,0.83,0.31,0
0.04041,0.0042291,0.032735,-0.00062076,0.0096343,-0.00033367,0,0,0.060062,-0.026663,0,-0.0017351,0,0,0,0.032738,-0.00062409,0.0096343,-0.57308,0.013916,0.029598,8.1253e-07,0.84,0.31,0
0.041011,0.0042445,0.032718,-0.00062662,0.0096275,-0.00031642,0,0,0.060036,-0.026661,0,-0.0016454,0,0,0,0.032721,-0.00062962,0.0096275,-0.54364,0.013906,0.029587,8.1141e-07,0.85,0.31,0
0.041611,0.0042587,0.032703,-0.00063218,0.0096214,-0.00029861,0,0,0.060013,-0.026659,0,-0.0015528,0,0,0,0.032706,-0.00063486,0.0096214,-0.51318,0.013898,0.029578,8.1041e-07,0.86,0.31,0
0.042211,0.0042718,0.03269,-0.00063745,0.0096157,-0.00028022,0,0,0.059992,-0.026658,0,-0.0014571,0,0,0,0.032692,-0.00063981,0.0096157,-0.4817,0.013889,0.029569,8.095e-07,0.87,0.31,0
0.042811,0.0042837,0.032677,-0.00064243,0.0096105,-0.00026126,0,0,0.059974,-0.026658,0,-0.0013585,0,0,0,0.032679,-0.00064447,0.0096105,-0.44921,0.013882,0.029562,8.0868e-07,0.88,0.31,0
0.04341,0.0042946,0.032666,-0.00064709,0.0096058,-0.00024174,0,0,0.059957,-0.026657,0,-0.0012571,0,0,0,0.032668,-0.00064884,0.0096058,-0.41574,0.013875,0.029555,8.0796e-07,0.89,0.31,0
0.04401,0.0043043,0.032656,-0.00065143,0.0096015,-0.00022168,0,0,0.059943,-0.026658,0,-0.0011527,0,0,0,0.032658,-0.0006529,0.0096015,-0.38131,0.013869,0.02955,8.0731e-07,0.9,0.31,0
0.044609,0.0043131,0.032648,-0.00065543,0.0095977,-0.00020111,0,0,0.05993,-0.026658,0,-0.0010458,0,0,0,0.032649,-0.00065664,0.0095977,-0.34598,0.013863,0.029545,8.0675e-07,0.91,0.31,0
0.045208,0.0043209,0.03264,-0.00065907,0.0095943,-0.00018007,0,0,0.059919,-0.026659,0,-0.00093634,0,0,0,0.032641,-0.00066004,0.0095943,-0.30981,0.013858,0.029541,8.0626e-07,0.92,0.31,0
0.045808,0.0043276,0.032634,-0.00066234,0.0095914,-0.00015858,0,0,0.05991,-0.02666,0,-0.0008246,0,0,0,0.032634,-0.00066309,0.0095914,-0.27287,0.013854,0.029537,8.0583e-07,0.93,0.31,0
0.046407,0.0043334,0.032628,-0.00066521,0.0095888,-0.00013669,0,0,0.059902,-0.026661,0,-0.00071079,0,0,0,0.032629,-0.00066577,0.0095888,-0.23523,0.013851,0.029534,8.0547e-07,0.94,0.31,0
0.047006,0.0043384,0.032623,-0.00066767,0.0095867,-0.00011446,0,0,0.059895,-0.026661,0,-0.00059518,0,0,0,0.032624,-0.00066806,0.0095867,-0.19698,0.013848,0.029531,8.0517e-07,0.95,0.31,0
0.047605,0.0043423,0.03262,-0.0006697,0.009585,-9.1929e-05,0,0,0.05989,-0.026662,0,-0.00047803,0,0,0,0.03262,-0.00066996,0.009585,-0.15822,0.013845,0.02953,8.0494e-07,0.96,0.31,0
0.048204,0.0043454,0.032617,-0.0006713,0.0095836,-6.916e-05,0,0,0.059886,-0.026663,0,-0.00035963,0,0,0,0.032617,-0.00067144,0.0095836,-0.11904,0.013843,0.029528,8.0475e-07,0.97,0.31,0
0.048802,0.0043476,0.032615,-0.00067245,0.0095827,-4.6209e-05,0,0,0.059883,-0.026663,0,-0.00024029,0,0,0,0.032615,-0.00067251,0.0095827,-0.079537,0.013842,0.029527,8.0462e-07,0.98,0.31,0
0.049401,0.0043489,0.032613,-0.00067314,0.0095821,-2.3135e-05,0,0,0.059881,-0.026664,0,-0.0001203,0,0,0,0.032613,-0.00067315,0.0095821,-0.039822,0.013841,0.029526,8.0454e-07,0.99,0.31,0
0.05,0.0043494,0.032613,-0.00067337,0.0095819,8.4055e-06,0,0,0.059881,-0.026664,0,4.3709e-05,0,0,0,0.032613,-0.00067337,0.0095819,0.014468,0.013841,0.029526,8.0452e-07,1,0.31,0
0,0,0.037205,0.015945,0.015945,0.0029309,0,0,0.055275,4.8789e-19,0,0.015241,0,0,0,0.037601,0.015548,0.015945,7.7073,0.023031,0.021857,5.3573e-07,0,0.32,0
0.00055276,0.0001524,0.037118,0.015234,0.015706,0.0029181,0,0,0.055672,-0.0012258,0,0.015174,0,0,0,0.0375,0.014852,0.015706,7.4663,0.022686,0.022234,5.6172e-07,0.01,0.32,0
0.0011134,0.00030162,0.037307,0.014781,0.015626,0.0028667,0,0,0.05637,-0.0021984,0,0.014907,0,0,0,0.037666,0.014422,0.015626,7.14,0.022571,0.022666,5.9238e-07,0.02,0.32,0
0.0016802,0.00044732,0.03744,0.014465,0.015571,0.0028073,0,0,0.056858,-0.0028775,0,0.014598,0,0,0,0.037778,0.014127,0.015571,6.8664,0.022492,0.022963,6.1359e-07,0.03,0.32,0
0.0022506,0.0005894,0.037508,0.014292,0.01554,0.0027455,0,0,0.057117,-0.003245,0,0.014276,0,0,0,0.037828,0.013971,0.01554,6.6534,0.022446,0.023112,6.2425e-07,0.04,0.32,0
0.0028225,0.00072807,0.037514,0.014248,0.015529,0.0026886,0,0,0.057162,-0.0033299,0,0.013981,0,0,0,0.037821,0.013941,0.015529,6.5069,0.02243,0.023127,6.252e-07,0.05,0.32,0
0.0033938,0.00086376,0.037478,0.014281,0.015528,0.002641,0,0,0.05707,-0.0032404,0,0.013733,0,0,0,0.037775,0.013985,0.015528,6.4142,0.022429,0.023057,6.2006e-07,0.06,0.32,0
0.0039639,0.00099692,0.037454,0.013442,0.015269,0.0025944,0,0,0.043091,-0.0031658,0,0.010157,0,0,0,0.037731,0.013165,0.015269,6.1066,0.022055,0.02359,6.557e-07,0.07,0.32,0
0.0042557,0.0010603,0.037385,0.012257,0.014893,0.0025189,0,0,0.02924,-0.0034259,0,0.0065492,0,0,0,0.037635,0.012007,0.014893,5.6685,0.021512,0.024314,7.0327e-07,0.08,0.32,0
0.0045487,0.0011214,0.037365,0.011795,0.014748,0.0024021,0,0,0.029402,-0.0038386,0,0.0062454,0,0,0,0.037588,0.011571,0.014748,5.3205,0.021302,0.024583,7.2024e-07,0.09,0.32,0
0.0048437,0.0011793,0.037364,0.011218,0.014575,0.0022403,0,0,0.029627,-0.0043639,0,0.0058248,0,0,0,0.037555,0.011027,0.014575,4.862,0.021052,0.024944,7.4304e-07,0.1,0.32,0
0.0051412,0.0012333,0.03737,0.010596,0.01439,0.0020515,0,0,0.029875,-0.0049324,0,0.0053339,0,0,0,0.037526,0.010439,0.01439,4.3562,0.020785,0.025344,7.6804e-07,0.11,0.32,0
0.0054412,0.0012829,0.037365,0.0099702,0.014201,0.0018552,0,0,0.030114,-0.0054996,0,0.0048234,0,0,0,0.03749,0.0098451,0.014201,3.8565,0.020512,0.025745,7.9253e-07,0.12,0.32,0
0.0057435,0.0013281,0.037343,0.0093577,0.01401,0.0016655,0,0,0.030332,-0.0060482,0,0.0043302,0,0,0,0.037442,0.0092589,0.01401,3.3939,0.020237,0.026133,8.1543e-07,0.13,0.32,0
0.0060478,0.0013688,0.037303,0.0087609,0.013819,0.001487,0,0,0.030529,-0.0065755,0,0.0038662,0,0,0,0.03738,0.0086836,0.013819,2.9744,0.019961,0.026504,8.3652e-07,0.14,0.32,0
0.006354,0.0014054,0.037248,0.008182,0.013629,0.0013208,0,0,0.030705,-0.0070813,0,0.0034341,0,0,0,0.037308,0.0081221,0.013629,2.5965,0.019686,0.02686,8.5589e-07,0.15,0.32,0
0.0066619,0.0014381,0.037183,0.0076221,0.013442,0.0011668,0,0,0.030864,-0.0075653,0,0.0030336,0,0,0,0.037229,0.0075761,0.013442,2.2568,0.019416,0.027199,8.7359e-07,0.16,0.32,0
0.0069713,0.001467,0.037109,0.0070821,0.013257,0.0010244,0,0,0.031007,-0.0080277,0,0.0026635,0,0,0,0.037144,0.0070472,0.013257,1.9518,0.019149,0.027522,8.8966e-07,0.17,0.32,0
0.0072821,0.0014925,0.037026,0.0065618,0.013076,0.00089313,0,0,0.031134,-0.0084689,0,0.0023221,0,0,0,0.037052,0.0065356,0.013076,1.6778,0.018888,0.027829,9.0412e-07,0.18,0.32,0
0.007594,0.0015148,0.036936,0.0060606,0.012899,0.00077206,0,0,0.031248,-0.0088899,0,0.0020074,0,0,0,0.036955,0.0060414,0.012899,1.4315,0.018632,0.028119,9.1703e-07,0.19,0.32,0
0.007907,0.0015341,0.03684,0.0055776,0.012725,0.00066039,0,0,0.031349,-0.0092919,0,0.001717,0,0,0,0.036854,0.0055637,0.012725,1.2096,0.018381,0.028395,9.2848e-07,0.2,0.32,0
0.008221,0.0015505,0.036738,0.0051112,0.012555,0.00055734,0,0,0.031438,-0.0096767,0,0.0014491,0,0,0,0.036748,0.0051014,0.012555,1.0093,0.018135,0.028656,9.3856e-07,0.21,0.32,0
0.0085358,0.0015643,0.036632,0.0046597,0.012387,0.00046226,0,0,0.031518,-0.010046,0,0.0012019,0,0,0,0.036638,0.004653,0.012387,0.82816,0.017893,0.028905,9.4742e-07,0.22,0.32,0
0.0088513,0.0015757,0.036521,0.0042211,0.012223,0.0003746,0,0,0.031588,-0.010402,0,0.00097397,0,0,0,0.036526,0.0042167,0.012223,0.66437,0.017655,0.029143,9.5516e-07,0.23,0.32,0
0.0091676,0.0015848,0.036408,0.0037936,0.01206,0.00029398,0,0,0.031651,-0.010747,0,0.00076434,0,0,0,0.03641,0.0037909,0.01206,0.5164,0.01742,0.029371,9.6191e-07,0.24,0.32,0
0.0094844,0.0015916,0.036291,0.0033753,0.0119,0.00022008,0,0,0.031708,-0.011082,0,0.00057221,0,0,0,0.036292,0.0033738,0.0119,0.38307,0.017188,0.029591,9.6776e-07,0.25,0.32,0
0.0098017,0.0015965,0.03617,0.0029644,0.01174,0.00015272,0,0,0.031759,-0.011409,0,0.00039707,0,0,0,0.036171,0.0029637,0.01174,0.26351,0.016958,0.029805,9.7278e-07,0.26,0.32,0
0.01012,0.0015995,0.036047,0.0025596,0.011582,9.1756e-05,0,0,0.031804,-0.011729,0,0.00023857,0,0,0,0.036047,0.0025593,0.011582,0.15699,0.01673,0.030012,9.7699e-07,0.27,0.32,0
0.010438,0.0016006,0.035919,0.0021593,0.011424,3.7098e-05,0,0,0.031845,-0.012044,0,9.6456e-05,0,0,0,0.03592,0.0021593,0.011424,0.062961,0.016501,0.030213,9.8038e-07,0.28,0.32,0
0.010756,0.0016,0.035787,0.0017625,0.011265,-1.1335e-05,0,0,0.031878,-0.012353,0,-2.9472e-05,0,0,0,0.035787,0.0017625,0.011265,-0.019088,0.016271,0.030408,9.829e-07,0.29,0.32,0
0.011075,0.0015979,0.035647,0.0013679,0.011104,-5.3663e-05,0,0,0.031905,-0.012658,0,-0.00013952,0,0,0,0.035647,0.0013678,0.011104,-0.089695,0.01604,0.030596,9.8442e-07,0.3,0.32,0
0.011395,0.0015942,0.035498,0.00097435,0.010942,-9.0092e-05,0,0,0.031923,-0.012958,0,-0.00023424,0,0,0,0.035498,0.00097412,0.010942,-0.14952,0.015805,0.030776,9.8479e-07,0.31,0.32,0
0.011714,0.001589,0.035336,0.00058058,0.010775,-0.00012097,0,0,0.031929,-0.013253,0,-0.00031454,0,0,0,0.035336,0.00058016,0.010775,-0.19943,0.015564,0.030945,9.8374e-07,0.32,0.32,0
0.012033,0.0015823,0.035157,0.00018482,0.010603,-0.0001469,0,0,0.031921,-0.013543,0,-0.00038193,0,0,0,0.035158,0.0001842,0.010603,-0.24066,0.015315,0.031102,9.8094e-07,0.33,0.32,0
0.012352,0.0015741,0.034953,-0.00021548,0.010421,-0.00016881,0,0,0.031892,-0.013828,0,-0.00043889,0,0,0,0.034954,-0.0002163,0.010421,-0.275,0.015053,0.031241,9.7589e-07,0.34,0.32,0
0.012671,0.0015644,0.034716,-0.00062451,0.010228,-0.00018828,0,0,0.031835,-0.014108,0,-0.00048954,0,0,0,0.034717,-0.00062551,0.010228,-0.30524,0.014773,0.031358,9.6792e-07,0.35,0.32,0
0.012989,0.001553,0.034429,-0.0010494,0.010014,-0.00020796,0,0,0.03174,-0.014382,0,-0.00054069,0,0,0,0.034431,-0.0010506,0.010014,-0.33582,0.014465,0.031445,9.5594e-07,0.36,0.32,0
0.013306,0.0015396,0.034069,-0.0015025,0.00977,-0.00023164,0,0,0.031589,-0.014654,0,-0.00060228,0,0,0,0.034071,-0.001504,0.00977,-0.37309,0.014112,0.03149,9.3838e-07,0.37,0.32,0
0.013621,0.0015238,0.033602,-0.0020072,0.0094783,-0.00026589,0,0,0.03136,-0.014931,0,-0.00069133,0,0,0,0.033604,-0.0020092,0.0094783,-0.4278,0.013691,0.031482,9.1315e-07,0.38,0.32,0
0.013933,0.0015049,0.032973,-0.0026279,0.0091036,-0.00032877,0,0,0.03103,-0.015251,0,-0.00085481,0,0,0,0.032976,-0.0026309,0.0091036,-0.52906,0.01315,0.031428,8.7773e-07,0.39,0.32,0
0.014241,0.0014812,0.03206,-0.0035541,0.0085516,-0.00050889,0,0,0.03056,-0.015738,0,-0.0013231,0,0,0,0.032067,-0.0035614,0.0085516,-0.81848,0.012352,0.031377,8.2677e-07,0.4,0.32,0
0.014544,0.0014475,0.031159,-0.0050206,0.0078416,-0.001034,0,0,0.030313,-0.016721,0,-0.0026885,0,0,0,0.031189,-0.0050501,0.0078416,-1.6357,0.011327,0.031816,7.8603e-07,0.41,0.32,0
0.014848,0.0013938,0.030965,-0.0036986,0.00818,-0.0010037,0,0,0.04407,-0.02059,0,-0.0030382,0,0,0,0.031003,-0.0037363,0.00818,-1.537,0.011815,0.030669,7.0035e-07,0.42,0.32,0
0.015426,0.0013667,0.03149,-0.00013521,0.0094065,-0.0012365,0,0,0.057418,-0.024809,0,-0.0064298,0,0,0,0.031539,-0.00018348,0.0094065,-2.2356,0.013587,0.028179,7.1657e-07,0.43,0.32,0
0.015996,0.001442,0.031873,-0.00037723,0.0094486,4.6097e-06,0,0,0.058303,-0.025547,0,2.397e-05,0,0,0,0.031873,-0.00037723,0.0094486,0.0081896,0.013648,0.028631,7.4425e-07,0.44,0.32,0
0.016592,0.0015454,0.032886,-2.2818e-05,0.0098591,0.00029154,0,0,0.059871,-0.025693,0,0.001516,0,0,0,0.032889,-2.5401e-05,0.0098591,0.50752,0.014241,0.029253,8.0827e-07,0.45,0.32,0
0.017193,0.0016716,0.033242,4.5433e-05,0.0099863,0.00050344,0,0,0.060465,-0.025846,0,0.0026179,0,0,0,0.03325,3.78e-05,0.0099863,0.86865,0.014425,0.029523,8.3347e-07,0.46,0.32,0
0.017801,0.0018056,0.033545,0.00025085,0.010139,0.00051281,0,0,0.060856,-0.025709,0,0.0026666,0,0,0,0.033553,0.00024296,0.010139,0.88221,0.014645,0.029629,8.5081e-07,0.47,0.32,0
0.01841,0.0019412,0.033691,0.00036634,0.010217,0.00044647,0,0,0.061032,-0.025612,0,0.0023216,0,0,0,0.033697,0.00036036,0.010217,0.76744,0.014758,0.029663,8.5853e-07,0.48,0.32,0
0.019022,0.0020733,0.03379,0.00044777,0.010271,0.0003323,0,0,0.061148,-0.025541,0,0.001728,0,0,0,0.033793,0.00044446,0.010271,0.57096,0.014836,0.029681,8.6353e-07,0.49,0.32,0
0.019634,0.0021999,0.033845,0.00048876,0.0103,0.00020556,0,0,0.061216,-0.025509,0,0.0010689,0,0,0,0.033846,0.00048749,0.0103,0.35308,0.014878,0.029694,8.6639e-07,0.5,0.32,0
0.020246,0.0023198,0.033875,0.00050302,0.010313,7.6285e-05,0,0,0.061261,-0.025507,0,0.00039668,0,0,0,0.033876,0.00050285,0.010313,0.13097,0.014897,0.029708,8.6823e-07,0.51,0.32,0
0.020859,0.0024324,0.033888,0.00049003,0.010313,-4.8563e-05,0,0,0.061294,-0.025541,0,-0.00025253,0,0,0,0.033888,0.00048996,0.010313,-0.083311,0.014897,0.02973,8.6959e-07,0.52,0.32,0
0.021472,0.0025376,0.03389,0.000452,0.010303,-0.00016306,0,0,0.061327,-0.025612,0,-0.00084789,0,0,0,0.033891,0.0004512,0.010303,-0.27938,0.014882,0.029763,8.7089e-07,0.53,0.32,0
0.022085,0.0026357,0.033885,0.00039487,0.010284,-0.00026291,0,0,0.061363,-0.025712,0,-0.0013671,0,0,0,0.033887,0.0003928,0.010284,-0.44976,0.014855,0.029806,8.7228e-07,0.54,0.32,0
0.022699,0.002727,0.033875,0.00032492,0.01026,-0.00034619,0,0,0.061398,-0.025831,0,-0.0018002,0,0,0,0.033878,0.00032135,0.01026,-0.59113,0.01482,0.029855,8.7362e-07,0.55,0.32,0
0.023313,0.0028121,0.033859,0.00024775,0.010232,-0.00041292,0,0,0.06143,-0.025959,0,-0.0021472,0,0,0,0.033864,0.00024267,0.010232,-0.70374,0.014779,0.029905,8.7476e-07,0.56,0.32,0
0.023928,0.0028916,0.033838,0.00016777,0.010202,-0.00046432,0,0,0.061455,-0.026088,0,-0.0024144,0,0,0,0.033844,0.00016137,0.010202,-0.78991,0.014736,0.029953,8.7554e-07,0.57,0.32,0
0.024542,0.0029659,0.033812,8.8303e-05,0.01017,-0.00050221,0,0,0.061469,-0.026213,0,-0.0026115,0,0,0,0.03382,8.0826e-05,0.01017,-0.85298,0.01469,0.029995,8.7587e-07,0.58,0.32,0
0.025157,0.0030357,0.033782,1.1712e-05,0.010138,-0.0005286,0,0,0.061473,-0.026328,0,-0.0027487,0,0,0,0.03379,3.4398e-06,0.010138,-0.89656,0.014644,0.03003,8.7571e-07,0.59,0.32,0
0.025772,0.0031013,0.033747,-6.0431e-05,0.010106,-0.00054549,0,0,0.061466,-0.026432,0,-0.0028365,0,0,0,0.033755,-6.9231e-05,0.010106,-0.92417,0.014597,0.030058,8.7504e-07,0.6,0.32,0
0.026386,0.0031632,0.033708,-0.00012717,0.010074,-0.00055472,0,0,0.061447,-0.026523,0,-0.0028846,0,0,0,0.033717,-0.00013627,0.010074,-0.93902,0.014552,0.030077,8.7389e-07,0.61,0.32,0
0.027001,0.0032217,0.033666,-0.00018804,0.010043,-0.00055793,0,0,0.061418,-0.026602,0,-0.0029013,0,0,0,0.033675,-0.00019723,0.010043,-0.94393,0.014507,0.030089,8.7231e-07,0.62,0.32,0
0.027615,0.0032771,0.033621,-0.00024289,0.010013,-0.00055653,0,0,0.06138,-0.026667,0,-0.002894,0,0,0,0.03363,-0.00025203,0.010013,-0.94127,0.014464,0.030093,8.7035e-07,0.63,0.32,0
0.028228,0.0033296,0.033575,-0.00029185,0.0099849,-0.00055167,0,0,0.061334,-0.02672,0,-0.0028687,0,0,0,0.033584,-0.00030084,0.0099849,-0.933,0.014423,0.03009,8.6807e-07,0.64,0.32,0
0.028841,0.0033795,0.033527,-0.00033522,0.0099576,-0.00054433,0,0,0.061281,-0.026761,0,-0.0028305,0,0,0,0.033536,-0.00034397,0.0099576,-0.9207,0.014383,0.030083,8.6553e-07,0.65,0.32,0
0.029454,0.003427,0.033479,-0.0003734,0.0099317,-0.00053525,0,0,0.061223,-0.026793,0,-0.0027833,0,0,0,0.033487,-0.00038186,0.0099317,-0.90562,0.014346,0.03007,8.628e-07,0.66,0.32,0
0.030066,0.0034721,0.033431,-0.00040686,0.0099071,-0.00052502,0,0,0.061161,-0.026816,0,-0.0027301,0,0,0,0.033439,-0.000415,0.0099071,-0.88871,0.01431,0.030053,8.5994e-07,0.67,0.32,0
0.030677,0.0035151,0.033383,-0.00043609,0.0098839,-0.00051408,0,0,0.061096,-0.026832,0,-0.0026732,0,0,0,0.03339,-0.0004439,0.0098839,-0.87068,0.014277,0.030033,8.5699e-07,0.68,0.32,0
0.031288,0.003556,0.033335,-0.00046159,0.0098621,-0.00050274,0,0,0.06103,-0.026842,0,-0.0026142,0,0,0,0.033343,-0.00046906,0.0098621,-0.85204,0.014245,0.030011,8.5401e-07,0.69,0.32,0
0.031898,0.0035948,0.033289,-0.00048384,0.0098416,-0.00049121,0,0,0.060964,-0.026846,0,-0.0025543,0,0,0,0.033296,-0.00049098,0.0098416,-0.83311,0.014216,0.029987,8.5104e-07,0.7,0.32,0
0.032507,0.0036318,0.033245,-0.00050331,0.0098224,-0.00047964,0,0,0.060898,-0.026847,0,-0.0024941,0,0,0,0.033251,-0.00051012,0.0098224,-0.81409,0.014188,0.029962,8.4811e-07,0.71,0.32,0
0.033116,0.0036669,0.033201,-0.00052039,0.0098043,-0.00046807,0,0,0.060832,-0.026844,0,-0.002434,0,0,0,0.033208,-0.00052689,0.0098043,-0.79509,0.014162,0.029937,8.4525e-07,0.72,0.32,0
0.033724,0.0037002,0.03316,-0.00053549,0.0097874,-0.00045654,0,0,0.060769,-0.026839,0,-0.002374,0,0,0,0.033166,-0.00054167,0.0097874,-0.7761,0.014137,0.029912,8.4248e-07,0.73,0.32,0
0.034331,0.0037317,0.033121,-0.00054892,0.0097716,-0.00044501,0,0,0.060708,-0.026833,0,-0.002314,0,0,0,0.033127,-0.0005548,0.0097716,-0.75709,0.014115,0.029888,8.3983e-07,0.74,0.32,0
0.034938,0.0037616,0.033084,-0.00056097,0.0097568,-0.00043344,0,0,0.06065,-0.026826,0,-0.0022539,0,0,0,0.033089,-0.00056655,0.0097568,-0.73797,0.014093,0.029864,8.373e-07,0.75,0.32,0
0.035544,0.0037898,0.033049,-0.0005719,0.009743,-0.00042177,0,0,0.060595,-0.026819,0,-0.0021932,0,0,0,0.033054,-0.00057719,0.009743,-0.71863,0.014073,0.029841,8.349e-07,0.76,0.32,0
0.03615,0.0038164,0.033016,-0.0005819,0.0097302,-0.00040992,0,0,0.060543,-0.026811,0,-0.0021316,0,0,0,0.033021,-0.0005869,0.0097302,-0.69892,0.014055,0.029819,8.3265e-07,0.77,0.32,0
0.036755,0.0038415,0.032985,-0.00059117,0.0097182,-0.00039782,0,0,0.060494,-0.026804,0,-0.0020687,0,0,0,0.03299,-0.00059588,0.0097182,-0.67873,0.014037,0.029799,8.3055e-07,0.78,0.32,0
0.03736,0.0038651,0.032956,-0.00059981,0.009707,-0.00038539,0,0,0.060448,-0.026798,0,-0.002004,0,0,0,0.032961,-0.00060424,0.009707,-0.65791,0.014021,0.02978,8.2859e-07,0.79,0.32,0
0.037964,0.0038872,0.03293,-0.00060796,0.0096965,-0.00037255,0,0,0.060406,-0.026792,0,-0.0019372,0,0,0,0.032934,-0.0006121,0.0096965,-0.63635,0.014006,0.029762,8.2678e-07,0.8,0.32,0
0.038568,0.0039079,0.032905,-0.00061569,0.0096869,-0.00035923,0,0,0.060368,-0.026787,0,-0.001868,0,0,0,0.032909,-0.00061954,0.0096869,-0.61393,0.013992,0.029746,8.251e-07,0.81,0.32,0
0.039171,0.0039272,0.032883,-0.00062306,0.0096778,-0.0003454,0,0,0.060332,-0.026782,0,-0.0017961,0,0,0,0.032886,-0.00062662,0.0096778,-0.59056,0.013979,0.029731,8.2357e-07,0.82,0.32,0
0.039774,0.0039452,0.032862,-0.00063011,0.0096695,-0.00033099,0,0,0.0603,-0.026779,0,-0.0017211,0,0,0,0.032865,-0.00063338,0.0096695,-0.56616,0.013967,0.029718,8.2217e-07,0.83,0.32,0
0.040377,0.0039619,0.032843,-0.00063687,0.0096618,-0.00031596,0,0,0.06027,-0.026776,0,-0.001643,0,0,0,0.032846,-0.00063985,0.0096618,-0.54066,0.013956,0.029706,8.2089e-07,0.84,0.32,0
0.04098,0.0039773,0.032825,-0.00064334,0.0096546,-0.00030031,0,0,0.060244,-0.026775,0,-0.0015616,0,0,0,0.032828,-0.00064603,0.0096546,-0.51404,0.013946,0.029695,8.1974e-07,0.85,0.32,0
0.041582,0.0039915,0.03281,-0.00064952,0.0096481,-0.000284,0,0,0.06022,-0.026774,0,-0.0014768,0,0,0,0.032812,-0.00065193,0.0096481,-0.48627,0.013936,0.029686,8.187e-07,0.86,0.32,0
0.042184,0.0040046,0.032795,-0.00065541,0.009642,-0.00026703,0,0,0.060199,-0.026773,0,-0.0013886,0,0,0,0.032798,-0.00065754,0.009642,-0.45735,0.013927,0.029677,8.1776e-07,0.87,0.32,0
0.042786,0.0040165,0.032783,-0.00066099,0.0096365,-0.00024942,0,0,0.06018,-0.026773,0,-0.001297,0,0,0,0.032785,-0.00066285,0.0096365,-0.42728,0.013919,0.02967,8.1692e-07,0.88,0.32,0
0.043388,0.0040274,0.032771,-0.00066625,0.0096315,-0.00023117,0,0,0.060163,-0.026774,0,-0.0012021,0,0,0,0.032773,-0.00066785,0.0096315,-0.3961,0.013912,0.029664,8.1618e-07,0.89,0.32,0
0.043989,0.0040372,0.032761,-0.00067115,0.009627,-0.00021232,0,0,0.060149,-0.026775,0,-0.0011041,0,0,0,0.032762,-0.0006725,0.009627,-0.36385,0.013906,0.029658,8.1552e-07,0.9,0.32,0
0.044591,0.0040459,0.032752,-0.00067568,0.0096229,-0.00019288,0,0,0.060136,-0.026776,0,-0.001003,0,0,0,0.032753,-0.0006768,0.0096229,-0.33059,0.0139,0.029653,8.1495e-07,0.91,0.32,0
0.045192,0.0040537,0.032744,-0.00067982,0.0096193,-0.00017291,0,0,0.060125,-0.026778,0,-0.00089911,0,0,0,0.032745,-0.00068071,0.0096193,-0.29639,0.013895,0.029649,8.1445e-07,0.92,0.32,0
0.045793,0.0040604,0.032738,-0.00068353,0.0096162,-0.00015243,0,0,0.060115,-0.026779,0,-0.00079266,0,0,0,0.032738,-0.00068423,0.0096162,-0.26132,0.01389,0.029646,8.1402e-07,0.93,0.32,0
0.046394,0.0040662,0.032732,-0.0006868,0.0096135,-0.00013152,0,0,0.060107,-0.026781,0,-0.0006839,0,0,0,0.032732,-0.00068732,0.0096135,-0.22548,0.013886,0.029643,8.1365e-07,0.94,0.32,0
0.046995,0.0040711,0.032727,-0.0006896,0.0096112,-0.00011021,0,0,0.060101,-0.026782,0,-0.0005731,0,0,0,0.032727,-0.00068997,0.0096112,-0.18897,0.013883,0.029641,8.1336e-07,0.95,0.32,0
0.047596,0.0040751,0.032723,-0.00069192,0.0096093,-8.8575e-05,0,0,0.060096,-0.026783,0,-0.00046059,0,0,0,0.032723,-0.00069216,0.0096093,-0.15188,0.01388,0.029639,8.1311e-07,0.96,0.32,0
0.048197,0.0040782,0.03272,-0.00069374,0.0096079,-6.667e-05,0,0,0.060092,-0.026784,0,-0.00034668,0,0,0,0.03272,-0.00069388,0.0096079,-0.11432,0.013878,0.029638,8.1293e-07,0.97,0.32,0
0.048798,0.0040804,0.032718,-0.00069505,0.0096069,-4.456e-05,0,0,0.060089,-0.026785,0,-0.00023171,0,0,0,0.032718,-0.00069511,0.0096069,-0.076411,0.013877,0.029637,8.128e-07,0.98,0.32,0
0.049399,0.0040817,0.032717,-0.00069584,0.0096063,-2.2315e-05,0,0,0.060087,-0.026786,0,-0.00011604,0,0,0,0.032717,-0.00069586,0.0096063,-0.038265,0.013876,0.029636,8.1272e-07,0.99,0.32,0
0.05,0.0040821,0.032716,-0.00069611,0.009606,8.3812e-06,0,0,0.060087,-0.026786,0,4.3582e-05,0,0,0,0.032716,-0.00069611,0.009606,0.014372,0.013875,0.029636,8.127e-07,1,0.32,0
0,0,0.037248,0.015963,0.015963,0.0026986,0,0,0.05534,2.1684e-19,0,0.014033,0,0,0,0.037585,0.015627,0.015963,7.1143,0.023058,0.021792,5.3107e-07,0,0.33,0
0.0005534,0.00014033,0.037164,0.015262,0.015727,0.0026985,0,0,0.055734,-0.0012117,0,0.014032,0,0,0,0.037491,0.014934,0.015727,6.9214,0.022718,0.022171,5.5732e-07,0.01,0.33,0
0.0011147,0.00027994,0.037353,0.014812,0.01565,0.0026945,0,0,0.05643,-0.0021782,0,0.014011,0,0,0,0.037671,0.014494,0.01565,6.7226,0.022605,0.022621,5.893e-07,0.02,0.33,0
0.001682,0.00041893,0.03749,0.014494,0.015595,0.0026966,0,0,0.056925,-0.0028624,0,0.014022,0,0,0,0.037801,0.014182,0.015595,6.5996,0.022526,0.022946,6.1253e-07,0.03,0.33,0
0.0022532,0.00055736,0.037562,0.014316,0.015563,0.0027062,0,0,0.057197,-0.0032437,0,0.014072,0,0,0,0.037873,0.014005,0.015563,6.5533,0.022481,0.023128,6.2571e-07,0.04,0.33,0
0.0028259,0.00069512,0.037573,0.014268,0.015552,0.0027163,0,0,0.057254,-0.0033394,0,0.014125,0,0,0,0.037885,0.013955,0.015552,6.5609,0.022464,0.023173,6.2887e-07,0.05,0.33,0
0.0033983,0.00083157,0.037537,0.014307,0.015553,0.0027112,0,0,0.057158,-0.0032396,0,0.014098,0,0,0,0.03785,0.013995,0.015553,6.5695,0.022466,0.023115,6.2457e-07,0.06,0.33,0
0.0039691,0.00096548,0.037507,0.013501,0.015303,0.0026647,0,0,0.043137,-0.003122,0,0.010454,0,0,0,0.0378,0.013208,0.015303,6.269,0.022104,0.023619,6.5833e-07,0.07,0.33,0
0.004261,0.0010264,0.037431,0.012374,0.014942,0.0025569,0,0,0.029236,-0.0033377,0,0.0066479,0,0,0,0.03769,0.012116,0.014942,5.7674,0.021582,0.024284,7.0207e-07,0.08,0.33,0
0.0045538,0.0010837,0.037403,0.011957,0.014808,0.0024002,0,0,0.029374,-0.0037068,0,0.0062405,0,0,0,0.037628,0.011732,0.014808,5.3415,0.021389,0.024503,7.1558e-07,0.09,0.33,0
0.0048485,0.0011366,0.037397,0.011402,0.01464,0.0022246,0,0,0.029584,-0.0042085,0,0.005784,0,0,0,0.037586,0.011213,0.01464,4.8563,0.021146,0.024837,7.3668e-07,0.1,0.33,0
0.0051455,0.0011849,0.037402,0.010785,0.014456,0.0020452,0,0,0.02983,-0.0047725,0,0.0053174,0,0,0,0.037559,0.010629,0.014456,4.3682,0.020881,0.025235,7.6169e-07,0.11,0.33,0
0.0054451,0.0012288,0.0374,0.010155,0.014266,0.0018696,0,0,0.030074,-0.0053455,0,0.0048609,0,0,0,0.037528,0.010027,0.014266,3.9072,0.020607,0.025646,7.8707e-07,0.12,0.33,0
0.005747,0.0012684,0.037382,0.0095334,0.014075,0.001699,0,0,0.030299,-0.0059034,0,0.0044174,0,0,0,0.037485,0.0094302,0.014075,3.4783,0.02033,0.026045,8.1099e-07,0.13,0.33,0
0.0060511,0.0013038,0.037345,0.0089265,0.013881,0.0015356,0,0,0.030502,-0.0064413,0,0.0039925,0,0,0,0.037427,0.0088437,0.013881,3.084,0.020051,0.026427,8.3303e-07,0.14,0.33,0
0.006357,0.0013353,0.037292,0.0083364,0.013689,0.0013813,0,0,0.030685,-0.0069579,0,0.0035913,0,0,0,0.037358,0.0082707,0.013689,2.7249,0.019772,0.026793,8.5322e-07,0.15,0.33,0
0.0066648,0.001363,0.037228,0.0077653,0.013498,0.0012372,0,0,0.030849,-0.0074527,0,0.0032168,0,0,0,0.03728,0.0077134,0.013498,2.4003,0.019497,0.027141,8.7165e-07,0.16,0.33,0
0.006974,0.0013873,0.037155,0.0072144,0.013311,0.0011036,0,0,0.030997,-0.0079252,0,0.0028694,0,0,0,0.037195,0.0071737,0.013311,2.1082,0.019227,0.027472,8.8834e-07,0.17,0.33,0
0.0072847,0.0014083,0.037072,0.0066839,0.013127,0.00098005,0,0,0.031129,-0.0083757,0,0.0025481,0,0,0,0.037103,0.0066524,0.013127,1.8453,0.018961,0.027786,9.0332e-07,0.18,0.33,0
0.0075966,0.0014263,0.036982,0.0061735,0.012947,0.00086577,0,0,0.031246,-0.0088051,0,0.002251,0,0,0,0.037006,0.0061492,0.012947,1.6084,0.018701,0.028082,9.1667e-07,0.19,0.33,0
0.0079096,0.0014415,0.036886,0.0056821,0.01277,0.00075995,0,0,0.03135,-0.0092147,0,0.0019759,0,0,0,0.036904,0.0056636,0.01277,1.3943,0.018446,0.028363,9.285e-07,0.2,0.33,0
0.0082236,0.0014541,0.036784,0.005208,0.012598,0.00066182,0,0,0.031442,-0.0096065,0,0.0017207,0,0,0,0.036798,0.0051941,0.012598,1.2002,0.018197,0.028629,9.3893e-07,0.21,0.33,0
0.0085385,0.0014642,0.036678,0.0047492,0.012428,0.00057076,0,0,0.031525,-0.0099826,0,0.001484,0,0,0,0.036688,0.0047391,0.012428,1.0238,0.017952,0.028883,9.4811e-07,0.22,0.33,0
0.0088541,0.001472,0.036568,0.0043039,0.012262,0.00048637,0,0,0.031599,-0.010345,0,0.0012645,0,0,0,0.036576,0.0042966,0.012262,0.86343,0.017711,0.029125,9.5621e-07,0.23,0.33,0
0.0091704,0.0014775,0.036456,0.0038698,0.012098,0.00040844,0,0,0.031666,-0.010696,0,0.0010619,0,0,0,0.036461,0.0038647,0.012098,0.718,0.017475,0.029359,9.6336e-07,0.24,0.33,0
0.0094874,0.001481,0.036342,0.003445,0.011936,0.00033694,0,0,0.031727,-0.011038,0,0.00087605,0,0,0,0.036345,0.0034416,0.011936,0.58677,0.017241,0.029586,9.6967e-07,0.25,0.33,0
0.009805,0.0014826,0.036225,0.0030278,0.011776,0.00027198,0,0,0.031784,-0.011373,0,0.00070716,0,0,0,0.036227,0.0030255,0.011776,0.46938,0.01701,0.029806,9.7523e-07,0.26,0.33,0
0.010123,0.0014823,0.036106,0.0026163,0.011617,0.00021379,0,0,0.031836,-0.011701,0,0.00055585,0,0,0,0.036108,0.002615,0.011617,0.36573,0.01678,0.030022,9.8009e-07,0.27,0.33,0
0.010442,0.0014803,0.035985,0.0022094,0.011458,0.00016266,0,0,0.031885,-0.012024,0,0.00042291,0,0,0,0.035986,0.0022086,0.011458,0.27592,0.016551,0.030233,9.8425e-07,0.28,0.33,0
0.010761,0.0014766,0.03586,0.0018058,0.0113,0.00011896,0,0,0.031929,-0.012342,0,0.0003093,0,0,0,0.035861,0.0018054,0.0113,0.20014,0.016322,0.03044,9.8767e-07,0.29,0.33,0
0.01108,0.0014713,0.03573,0.0014043,0.01114,8.3111e-05,0,0,0.031967,-0.012657,0,0.00021609,0,0,0,0.035731,0.0014041,0.01114,0.13872,0.016092,0.030641,9.9027e-07,0.3,0.33,0
0.0114,0.0014646,0.035594,0.0010038,0.010979,5.5572e-05,0,0,0.031999,-0.012968,0,0.00014449,0,0,0,0.035594,0.0010037,0.010979,0.09205,0.015859,0.030837,9.9191e-07,0.31,0.33,0
0.01172,0.0014564,0.035448,0.00060318,0.010815,3.686e-05,0,0,0.032022,-0.013276,0,9.5837e-05,0,0,0,0.035448,0.00060314,0.010815,0.06061,0.015622,0.031026,9.9241e-07,0.32,0.33,0
0.012041,0.0014467,0.035289,0.00020078,0.010647,2.7582e-05,0,0,0.032035,-0.01358,0,7.1713e-05,0,0,0,0.035289,0.00020075,0.010647,0.045039,0.015379,0.031205,9.915e-07,0.33,0.33,0
0.012361,0.0014357,0.035112,-0.00020566,0.010472,2.8488e-05,0,0,0.032032,-0.013881,0,7.4068e-05,0,0,0,0.035112,-0.00020568,0.010472,0.046215,0.015126,0.031373,9.8885e-07,0.34,0.33,0
0.012681,0.0014231,0.034911,-0.00061966,0.010287,4.0568e-05,0,0,0.032011,-0.014179,0,0.00010548,0,0,0,0.034911,-0.00061971,0.010287,0.065418,0.01486,0.031526,9.84e-07,0.35,0.33,0
0.013001,0.0014089,0.034678,-0.0010471,0.010089,6.5259e-05,0,0,0.031965,-0.014477,0,0.00016967,0,0,0,0.034678,-0.0010472,0.010089,0.10466,0.014573,0.031661,9.7638e-07,0.36,0.33,0
0.013321,0.0013928,0.0344,-0.001498,0.0098707,0.00010439,0,0,0.031888,-0.014779,0,0.00027141,0,0,0,0.034401,-0.0014983,0.0098707,0.16661,0.014258,0.031778,9.6536e-07,0.37,0.33,0
0.013639,0.0013742,0.034067,-0.0019932,0.0096221,0.00015856,0,0,0.031778,-0.0151,0,0.00041225,0,0,0,0.034068,-0.0019939,0.0096221,0.25193,0.013899,0.031882,9.5043e-07,0.38,0.33,0
0.013956,0.0013521,0.033662,-0.0025765,0.0093255,0.00021457,0,0,0.031637,-0.015473,0,0.00055787,0,0,0,0.033663,-0.0025777,0.0093255,0.33923,0.01347,0.031995,9.3124e-07,0.39,0.33,0
0.014272,0.0013239,0.033168,-0.0033301,0.0089512,0.00021904,0,0,0.031481,-0.015966,0,0.0005695,0,0,0,0.033169,-0.0033314,0.0089512,0.34384,0.01293,0.032169,9.0783e-07,0.4,0.33,0
0.014586,0.0012835,0.032532,-0.0044325,0.0084299,-0.00034967,0,0,0.031333,-0.016721,0,-0.00090914,0,0,0,0.032535,-0.0044358,0.0084299,-0.54193,0.012176,0.032507,8.7857e-07,0.41,0.33,0
0.014898,0.0011969,0.028119,-0.0029079,0.0075632,-0.00035647,0,0,0.036503,-0.018535,0,-0.001518,0,0,0,0.028124,-0.0029133,0.0075632,-0.76317,0.010925,0.027348,6.7312e-07,0.42,0.33,0
0.01529,0.0011226,0.035956,-0.00042669,0.010659,-0.0019732,0,0,0.04621,-0.019957,0,-0.006969,0,0,0,0.036063,-0.00053411,0.010659,-3.0425,0.015396,0.032482,1.1958e-06,0.43,0.33,0
0.015893,0.0011812,0.032429,-0.00057818,0.0095553,-0.0011513,0,0,0.059472,-0.026347,0,-0.0059869,0,0,0,0.032469,-0.00061829,0.0095553,-1.9953,0.013802,0.029354,7.9265e-07,0.44,0.33,0
0.016479,0.0012894,0.03238,-0.00067277,0.0095122,-0.00016208,0,0,0.059457,-0.026481,0,-0.00084284,0,0,0,0.032381,-0.00067356,0.0095122,-0.28096,0.01374,0.02932,7.8758e-07,0.45,0.33,0
0.017083,0.001413,0.033196,-2.8484e-05,0.0099502,0.00013569,0,0,0.060438,-0.025944,0,0.00070561,0,0,0,0.033196,-2.9039e-05,0.0099502,0.234,0.014372,0.029529,8.3123e-07,0.46,0.33,0
0.017688,0.0015498,0.033453,0.00022472,0.010103,0.0003148,0,0,0.060709,-0.025684,0,0.0016369,0,0,0,0.033456,0.00022174,0.010103,0.54274,0.014594,0.029559,8.4401e-07,0.47,0.33,0
0.018297,0.0016862,0.033703,0.00044887,0.010245,0.00030496,0,0,0.060989,-0.025471,0,0.0015858,0,0,0,0.033706,0.00044607,0.010245,0.52539,0.014799,0.029603,8.5678e-07,0.48,0.33,0
0.018908,0.0018191,0.033837,0.0005381,0.010312,0.00024726,0,0,0.061163,-0.025413,0,0.0012858,0,0,0,0.033839,0.00053627,0.010312,0.42543,0.014896,0.029649,8.6441e-07,0.49,0.33,0
0.01952,0.0019458,0.033933,0.00059943,0.01036,0.00015978,0,0,0.061291,-0.025377,0,0.00083085,0,0,0,0.033934,0.00059867,0.01036,0.27463,0.014964,0.029684,8.7e-07,0.5,0.33,0
0.020133,0.0020656,0.033989,0.00062496,0.010384,5.3325e-05,0,0,0.061373,-0.025374,0,0.00027729,0,0,0,0.033989,0.00062488,0.010384,0.091574,0.015,0.029712,8.7351e-07,0.51,0.33,0
0.020747,0.0021777,0.034018,0.00060726,0.010388,-5.9738e-05,0,0,0.06144,-0.025429,0,-0.00031064,0,0,0,0.034019,0.00060715,0.010388,-0.10244,0.015004,0.029752,8.763e-07,0.52,0.33,0
0.021362,0.002282,0.034035,0.00055616,0.010377,-0.00016681,0,0,0.061509,-0.025535,0,-0.00086741,0,0,0,0.034036,0.00055533,0.010377,-0.28547,0.014989,0.029809,8.7913e-07,0.53,0.33,0
0.021978,0.0023788,0.034042,0.00048224,0.010357,-0.00026007,0,0,0.06158,-0.025675,0,-0.0013523,0,0,0,0.034044,0.00048023,0.010357,-0.44397,0.01496,0.029876,8.8197e-07,0.54,0.33,0
0.022594,0.0024688,0.034041,0.00039512,0.010331,-0.00033668,0,0,0.061646,-0.025833,0,-0.0017507,0,0,0,0.034044,0.00039175,0.010331,-0.57326,0.014922,0.029947,8.8457e-07,0.55,0.33,0
0.023211,0.0025524,0.034032,0.00030189,0.0103,-0.0003967,0,0,0.061703,-0.025996,0,-0.0020628,0,0,0,0.034037,0.00029723,0.0103,-0.67373,0.014878,0.030015,8.8667e-07,0.56,0.33,0
0.023828,0.0026304,0.034015,0.00020772,0.010267,-0.00044159,0,0,0.061745,-0.026153,0,-0.0022963,0,0,0,0.034021,0.00020195,0.010267,-0.74824,0.01483,0.030077,8.8814e-07,0.57,0.33,0
0.024445,0.0027034,0.03399,0.00011618,0.010232,-0.00047341,0,0,0.061771,-0.026301,0,-0.0024617,0,0,0,0.033997,0.00010956,0.010232,-0.80053,0.014779,0.03013,8.889e-07,0.58,0.33,0
0.025063,0.0027719,0.033959,2.9628e-05,0.010197,-0.00049434,0,0,0.061782,-0.026434,0,-0.0025706,0,0,0,0.033966,2.2428e-05,0.010197,-0.83456,0.014728,0.030172,8.8894e-07,0.59,0.33,0
0.025681,0.0028364,0.033922,-5.0503e-05,0.010161,-0.00050651,0,0,0.061777,-0.026551,0,-0.0026339,0,0,0,0.033929,-5.8053e-05,0.010161,-0.85401,0.014677,0.030203,8.883e-07,0.6,0.33,0
0.026299,0.0028973,0.033879,-0.00012348,0.010127,-0.00051182,0,0,0.061757,-0.026651,0,-0.0026614,0,0,0,0.033887,-0.00013119,0.010127,-0.86216,0.014628,0.030224,8.8704e-07,0.61,0.33,0
0.026916,0.002955,0.033833,-0.00018909,0.010093,-0.00051191,0,0,0.061724,-0.026734,0,-0.0026619,0,0,0,0.033841,-0.00019679,0.010093,-0.86182,0.014579,0.030236,8.8525e-07,0.62,0.33,0
0.027533,0.0030097,0.033784,-0.00024743,0.010061,-0.00050817,0,0,0.06168,-0.026802,0,-0.0026425,0,0,0,0.033792,-0.00025502,0.010061,-0.85531,0.014533,0.030239,8.83e-07,0.63,0.33,0
0.02815,0.0030617,0.033733,-0.00029887,0.01003,-0.00050174,0,0,0.061627,-0.026856,0,-0.002609,0,0,0,0.03374,-0.00030627,0.01003,-0.84448,0.014488,0.030234,8.8038e-07,0.64,0.33,0
0.028766,0.0031112,0.033681,-0.00034392,0.010001,-0.0004935,0,0,0.061567,-0.026897,0,-0.0025662,0,0,0,0.033688,-0.00035108,0.010001,-0.8308,0.014446,0.030223,8.7748e-07,0.65,0.33,0
0.029381,0.0031584,0.033627,-0.00038316,0.0099733,-0.00048415,0,0,0.061501,-0.026927,0,-0.0025176,0,0,0,0.033634,-0.00039005,0.0099733,-0.81539,0.014406,0.030207,8.7438e-07,0.66,0.33,0
0.029996,0.0032033,0.033574,-0.00041723,0.0099471,-0.00047419,0,0,0.061431,-0.026947,0,-0.0024658,0,0,0,0.033581,-0.00042384,0.0099471,-0.79907,0.014368,0.030186,8.7115e-07,0.67,0.33,0
0.03061,0.0032461,0.033522,-0.00044674,0.0099225,-0.00046399,0,0,0.061358,-0.02696,0,-0.0024127,0,0,0,0.033528,-0.00045307,0.0099225,-0.78243,0.014332,0.030163,8.6784e-07,0.68,0.33,0
0.031223,0.0032869,0.03347,-0.00047231,0.0098994,-0.00045379,0,0,0.061284,-0.026966,0,-0.0023597,0,0,0,0.033476,-0.00047837,0.0098994,-0.76582,0.014299,0.030137,8.6451e-07,0.69,0.33,0
0.031836,0.0033258,0.03342,-0.0004945,0.0098777,-0.00044374,0,0,0.061211,-0.026968,0,-0.0023074,0,0,0,0.033426,-0.00050031,0.0098777,-0.74948,0.014268,0.03011,8.6122e-07,0.7,0.33,0
0.032447,0.0033627,0.033372,-0.00051385,0.0098574,-0.00043389,0,0,0.061137,-0.026965,0,-0.0022563,0,0,0,0.033377,-0.0005194,0.0098574,-0.73349,0.014238,0.030082,8.5799e-07,0.71,0.33,0
0.033058,0.0033978,0.033325,-0.00053082,0.0098384,-0.00042427,0,0,0.061066,-0.02696,0,-0.0022062,0,0,0,0.033331,-0.00053613,0.0098384,-0.71785,0.014211,0.030054,8.5485e-07,0.72,0.33,0
0.033669,0.0034312,0.033281,-0.00054582,0.0098206,-0.00041483,0,0,0.060998,-0.026953,0,-0.0021571,0,0,0,0.033286,-0.00055091,0.0098206,-0.70249,0.014185,0.030026,8.5184e-07,0.73,0.33,0
0.034278,0.0034628,0.033239,-0.00055922,0.009804,-0.00040549,0,0,0.060932,-0.026944,0,-0.0021086,0,0,0,0.033244,-0.00056409,0.009804,-0.68727,0.014161,0.029999,8.4897e-07,0.74,0.33,0
0.034887,0.0034928,0.0332,-0.00057133,0.0097885,-0.00039618,0,0,0.060869,-0.026936,0,-0.0020602,0,0,0,0.033204,-0.00057598,0.0097885,-0.67204,0.014139,0.029974,8.4625e-07,0.75,0.33,0
0.035496,0.0035211,0.033162,-0.0005824,0.009774,-0.0003868,0,0,0.06081,-0.026927,0,-0.0020113,0,0,0,0.033167,-0.00058683,0.009774,-0.65663,0.014118,0.029949,8.4368e-07,0.76,0.33,0
0.036103,0.0035478,0.033128,-0.00059264,0.0097605,-0.00037723,0,0,0.060755,-0.026918,0,-0.0019616,0,0,0,0.033132,-0.00059685,0.0097605,-0.64086,0.014098,0.029926,8.4129e-07,0.77,0.33,0
0.036711,0.0035729,0.033095,-0.00060222,0.0097479,-0.00036738,0,0,0.060703,-0.02691,0,-0.0019103,0,0,0,0.033099,-0.00060622,0.0097479,-0.62455,0.01408,0.029904,8.3906e-07,0.78,0.33,0
0.037318,0.0035966,0.033065,-0.00061127,0.0097362,-0.00035714,0,0,0.060655,-0.026903,0,-0.0018571,0,0,0,0.033069,-0.00061506,0.0097362,-0.60754,0.014063,0.029885,8.37e-07,0.79,0.33,0
0.037924,0.0036187,0.033037,-0.00061991,0.0097252,-0.00034644,0,0,0.060611,-0.026897,0,-0.0018015,0,0,0,0.033041,-0.00062347,0.0097252,-0.58967,0.014047,0.029866,8.351e-07,0.8,0.33,0
0.03853,0.0036395,0.033012,-0.00062819,0.009715,-0.00033519,0,0,0.060571,-0.026892,0,-0.001743,0,0,0,0.033015,-0.00063153,0.009715,-0.57082,0.014033,0.02985,8.3335e-07,0.81,0.33,0
0.039135,0.0036588,0.032988,-0.00063616,0.0097056,-0.00032333,0,0,0.060534,-0.026888,0,-0.0016813,0,0,0,0.032991,-0.00063927,0.0097056,-0.55088,0.014019,0.029835,8.3176e-07,0.82,0.33,0
0.03974,0.0036768,0.032967,-0.00064386,0.0096968,-0.0003108,0,0,0.060501,-0.026886,0,-0.0016161,0,0,0,0.032969,-0.00064673,0.0096968,-0.52976,0.014006,0.029822,8.3031e-07,0.83,0.33,0
0.040345,0.0036935,0.032947,-0.00065129,0.0096887,-0.00029756,0,0,0.060471,-0.026884,0,-0.0015473,0,0,0,0.032949,-0.00065393,0.0096887,-0.50739,0.013995,0.029809,8.29e-07,0.84,0.33,0
0.04095,0.003709,0.032929,-0.00065846,0.0096811,-0.00028359,0,0,0.060444,-0.026883,0,-0.0014747,0,0,0,0.032931,-0.00066086,0.0096811,-0.48373,0.013984,0.029799,8.2782e-07,0.85,0.33,0
0.041554,0.0037232,0.032913,-0.00066536,0.0096742,-0.00026888,0,0,0.06042,-0.026883,0,-0.0013982,0,0,0,0.032915,-0.00066751,0.0096742,-0.45877,0.013974,0.02979,8.2675e-07,0.86,0.33,0
0.042158,0.0037363,0.032898,-0.00067195,0.0096678,-0.00025342,0,0,0.060399,-0.026884,0,-0.0013178,0,0,0,0.0329,-0.00067386,0.0096678,-0.43249,0.013965,0.029782,8.258e-07,0.87,0.33,0
0.042762,0.0037482,0.032885,-0.00067822,0.009662,-0.00023722,0,0,0.06038,-0.026885,0,-0.0012335,0,0,0,0.032887,-0.0006799,0.009662,-0.40493,0.013956,0.029775,8.2496e-07,0.88,0.33,0
0.043366,0.0037591,0.032873,-0.00068415,0.0096567,-0.0002203,0,0,0.060363,-0.026886,0,-0.0011456,0,0,0,0.032875,-0.0006856,0.0096567,-0.37612,0.013949,0.029768,8.2421e-07,0.89,0.33,0
0.043969,0.0037688,0.032863,-0.00068969,0.0096519,-0.0002027,0,0,0.060348,-0.026888,0,-0.001054,0,0,0,0.032864,-0.00069092,0.0096519,-0.34612,0.013942,0.029763,8.2355e-07,0.9,0.33,0
0.044573,0.0037776,0.032854,-0.00069482,0.0096477,-0.00018444,0,0,0.060336,-0.026891,0,-0.00095907,0,0,0,0.032855,-0.00069584,0.0096477,-0.31498,0.013935,0.029759,8.2298e-07,0.91,0.33,0
0.045176,0.0037853,0.032846,-0.00069951,0.0096439,-0.00016557,0,0,0.060325,-0.026893,0,-0.00086096,0,0,0,0.032847,-0.00070033,0.0096439,-0.28279,0.01393,0.029755,8.2248e-07,0.92,0.33,0
0.045779,0.003792,0.032839,-0.00070372,0.0096405,-0.00014615,0,0,0.060316,-0.026895,0,-0.00075997,0,0,0,0.03284,-0.00070436,0.0096405,-0.24964,0.013925,0.029752,8.2205e-07,0.93,0.33,0
0.046382,0.0037978,0.032833,-0.00070744,0.0096376,-0.00012623,0,0,0.060308,-0.026897,0,-0.00065639,0,0,0,0.032833,-0.00070791,0.0096376,-0.21563,0.013921,0.02975,8.2169e-07,0.94,0.33,0
0.046985,0.0038027,0.032828,-0.00071062,0.0096352,-0.00010587,0,0,0.060301,-0.026899,0,-0.00055054,0,0,0,0.032828,-0.00071096,0.0096352,-0.18087,0.013918,0.029748,8.2139e-07,0.95,0.33,0
0.047588,0.0038067,0.032824,-0.00071326,0.0096333,-8.515e-05,0,0,0.060296,-0.026901,0,-0.00044278,0,0,0,0.032824,-0.00071348,0.0096333,-0.14547,0.013915,0.029746,8.2115e-07,0.96,0.33,0
0.048191,0.0038097,0.032821,-0.00071534,0.0096317,-6.4127e-05,0,0,0.060292,-0.026902,0,-0.00033346,0,0,0,0.032821,-0.00071546,0.0096317,-0.10956,0.013912,0.029745,8.2097e-07,0.97,0.33,0
0.048794,0.0038119,0.032819,-0.00071683,0.0096306,-4.2878e-05,0,0,0.06029,-0.026903,0,-0.00022297,0,0,0,0.032819,-0.00071688,0.0096306,-0.073257,0.013911,0.029744,8.2084e-07,0.98,0.33,0
0.049397,0.0038132,0.032818,-0.00071773,0.00963,-2.1477e-05,0,0,0.060288,-0.026904,0,-0.00011168,0,0,0,0.032818,-0.00071774,0.00963,-0.036694,0.01391,0.029744,8.2077e-07,0.99,0.33,0
0.05,0.0038137,0.032817,-0.00071802,0.0096298,8.3461e-06,0,0,0.060288,-0.026904,0,4.34e-05,0,0,0,0.032817,-0.00071803,0.0096298,0.014259,0.01391,0.029743,8.2074e-07,1,0.33,0
0,0,0.037252,0.015965,0.015965,0.0024648,0,0,0.055346,1.0842e-19,0,0.012817,0,0,0,0.037534,0.015683,0.015965,6.5194,0.023061,0.021711,5.2529e-07,0,0.34,0
0.00055346,0.00012817,0.03717,0.015252,0.015727,0.0024748,0,0,0.055753,-0.0012336,0,0.012869,0,0,0,0.037446,0.014976,0.015727,6.3627,0.022717,0.022104,5.5253e-07,0.01,0.34,0
0.0011151,0.00025806,0.037377,0.014795,0.015652,0.0025119,0,0,0.056486,-0.0022271,0,0.013062,0,0,0,0.037653,0.014519,0.015652,6.2712,0.022608,0.022589,5.8697e-07,0.02,0.34,0
0.0016832,0.00039007,0.037539,0.014462,0.0156,0.0025677,0,0,0.057041,-0.0029588,0,0.013352,0,0,0,0.037821,0.01418,0.0156,6.2731,0.022534,0.022964,6.1395e-07,0.03,0.34,0
0.0022559,0.00052453,0.037639,0.014262,0.01557,0.0026444,0,0,0.057379,-0.0034019,0,0.013751,0,0,0,0.037935,0.013967,0.01557,6.3739,0.022491,0.023208,6.3167e-07,0.04,0.34,0
0.0028308,0.00066128,0.037673,0.014213,0.015566,0.0027297,0,0,0.057479,-0.0035178,0,0.014195,0,0,0,0.037987,0.013899,0.015566,6.5501,0.022484,0.023299,6.3837e-07,0.05,0.34,0
0.0034054,0.00079897,0.037646,0.014294,0.015582,0.0027797,0,0,0.057367,-0.0033495,0,0.014454,0,0,0,0.037972,0.013967,0.015582,6.6954,0.022507,0.02324,6.3417e-07,0.06,0.34,0
0.0039781,0.00093448,0.037614,0.013578,0.015358,0.0027492,0,0,0.04325,-0.0030846,0,0.010805,0,0,0,0.037925,0.013267,0.015358,6.4539,0.022183,0.023687,6.6416e-07,0.07,0.34,0
0.0042704,0.00099356,0.037537,0.012555,0.015028,0.0026036,0,0,0.029262,-0.0032143,0,0.0067694,0,0,0,0.037806,0.012287,0.015028,5.8871,0.021707,0.024265,7.0229e-07,0.08,0.34,0
0.0045633,0.0010473,0.037497,0.012151,0.014894,0.0024044,0,0,0.029384,-0.0035666,0,0.0062514,0,0,0,0.037723,0.011925,0.014894,5.3713,0.021514,0.024449,7.1343e-07,0.09,0.34,0
0.0048581,0.0010952,0.037486,0.011578,0.014719,0.0022094,0,0,0.029597,-0.0040837,0,0.0057443,0,0,0,0.037674,0.011391,0.014719,4.8394,0.021261,0.024787,7.348e-07,0.1,0.34,0
0.0051553,0.0011379,0.037484,0.010947,0.014529,0.0020443,0,0,0.029842,-0.0046575,0,0.0053153,0,0,0,0.037641,0.01079,0.014529,4.3794,0.020987,0.02519,7.6034e-07,0.11,0.34,0
0.005455,0.001176,0.037475,0.01032,0.014339,0.0018892,0,0,0.030078,-0.0052244,0,0.0049119,0,0,0,0.037606,0.010189,0.014339,3.9606,0.020711,0.025596,7.855e-07,0.12,0.34,0
0.0057568,0.00121,0.037444,0.0096959,0.014142,0.0017361,0,0,0.030293,-0.0057799,0,0.0045139,0,0,0,0.037552,0.0095877,0.014142,3.5663,0.020427,0.025988,8.0896e-07,0.13,0.34,0
0.0060608,0.00124,0.037398,0.0090813,0.013944,0.001586,0,0,0.03049,-0.0063211,0,0.0041236,0,0,0,0.037486,0.0089927,0.013944,3.1958,0.020141,0.026369,8.3088e-07,0.14,0.34,0
0.0063666,0.0012663,0.03734,0.0084813,0.013746,0.0014427,0,0,0.030672,-0.0068447,0,0.0037511,0,0,0,0.037412,0.0084094,0.013746,2.8548,0.019856,0.026737,8.5128e-07,0.15,0.34,0
0.0066742,0.001289,0.037273,0.0078998,0.013552,0.0013084,0,0,0.030838,-0.0073477,0,0.0034017,0,0,0,0.037331,0.0078416,0.013552,2.5454,0.019575,0.02709,8.7005e-07,0.16,0.34,0
0.0069834,0.0013085,0.037197,0.0073387,0.013361,0.0011835,0,0,0.030987,-0.0078286,0,0.003077,0,0,0,0.037244,0.0072919,0.013361,2.2662,0.019299,0.027426,8.8712e-07,0.17,0.34,0
0.007294,0.001325,0.037113,0.006799,0.013174,0.0010677,0,0,0.031121,-0.008287,0,0.0027759,0,0,0,0.037151,0.0067614,0.013174,2.0146,0.019029,0.027744,9.0246e-07,0.18,0.34,0
0.0076058,0.0013387,0.037022,0.0062803,0.012991,0.00096011,0,0,0.031241,-0.0087235,0,0.0024963,0,0,0,0.037052,0.0062504,0.012991,1.7871,0.018764,0.028046,9.1614e-07,0.19,0.34,0
0.0079188,0.0013498,0.036925,0.0057815,0.012812,0.00085992,0,0,0.031347,-0.0091396,0,0.0022358,0,0,0,0.036949,0.0057577,0.012812,1.5804,0.018506,0.02833,9.2825e-07,0.2,0.34,0
0.0082328,0.0013584,0.036823,0.0053007,0.012637,0.00076626,0,0,0.031442,-0.0095374,0,0.0019923,0,0,0,0.036842,0.005282,0.012637,1.3917,0.018254,0.0286,9.3897e-07,0.21,0.34,0
0.0085476,0.0013647,0.036718,0.0048358,0.012466,0.00067859,0,0,0.031527,-0.0099193,0,0.0017643,0,0,0,0.036732,0.0048213,0.012466,1.2188,0.018006,0.028858,9.4846e-07,0.22,0.34,0
0.0088633,0.0013688,0.036609,0.0043844,0.012298,0.00059664,0,0,0.031605,-0.010288,0,0.0015513,0,0,0,0.036621,0.0043734,0.012298,1.0603,0.017764,0.029105,9.5692e-07,0.23,0.34,0
0.0091797,0.0013708,0.0365,0.0039443,0.012133,0.00052041,0,0,0.031676,-0.010646,0,0.0013531,0,0,0,0.036508,0.003936,0.012133,0.91558,0.017526,0.029345,9.6452e-07,0.24,0.34,0
0.0094968,0.0013709,0.036389,0.0035133,0.011971,0.00045013,0,0,0.031744,-0.010995,0,0.0011703,0,0,0,0.036395,0.0035072,0.011971,0.78429,0.017291,0.029579,9.7139e-07,0.25,0.34,0
0.0098146,0.001369,0.036278,0.0030895,0.01181,0.00038622,0,0,0.031808,-0.011337,0,0.0010042,0,0,0,0.036282,0.003085,0.01181,0.66664,0.017059,0.029808,9.7765e-07,0.26,0.34,0
0.010133,0.0013654,0.036166,0.0026711,0.011651,0.00032922,0,0,0.03187,-0.011674,0,0.00085597,0,0,0,0.03617,0.0026679,0.011651,0.56308,0.01683,0.030035,9.8337e-07,0.27,0.34,0
0.010452,0.0013601,0.036054,0.0022568,0.011493,0.00027977,0,0,0.031929,-0.012007,0,0.00072741,0,0,0,0.036056,0.0022545,0.011493,0.47425,0.016601,0.03026,9.8858e-07,0.28,0.34,0
0.010772,0.0013532,0.035941,0.0018452,0.011336,0.0002386,0,0,0.031987,-0.012338,0,0.00062036,0,0,0,0.035943,0.0018435,0.011336,0.40093,0.016374,0.030482,9.9327e-07,0.29,0.34,0
0.011092,0.0013448,0.035826,0.0014352,0.011178,0.0002065,0,0,0.032042,-0.012666,0,0.00053689,0,0,0,0.035827,0.001434,0.011178,0.34401,0.016147,0.030704,9.9743e-07,0.3,0.34,0
0.011412,0.0013348,0.035708,0.0010257,0.01102,0.00018434,0,0,0.032094,-0.012993,0,0.00047929,0,0,0,0.035709,0.0010247,0.01102,0.30453,0.015918,0.030923,1.001e-06,0.31,0.34,0
0.011734,0.0013235,0.035586,0.00061541,0.010861,0.00017314,0,0,0.032143,-0.013319,0,0.00045016,0,0,0,0.035587,0.00061455,0.010861,0.28366,0.015687,0.031141,1.0038e-06,0.32,0.34,0
0.012055,0.0013107,0.035459,0.00020279,0.010698,0.00017404,0,0,0.032189,-0.013644,0,0.00045249,0,0,0,0.03546,0.00020193,0.010698,0.28282,0.015453,0.031356,1.006e-06,0.33,0.34,0
0.012377,0.0012965,0.035325,-0.00021437,0.010533,0.00018838,0,0,0.032229,-0.013972,0,0.00048978,0,0,0,0.035326,-0.00021537,0.010533,0.30369,0.015215,0.03157,1.0072e-06,0.34,0.34,0
0.0127,0.0012808,0.035183,-0.0006393,0.010363,0.00021771,0,0,0.032266,-0.014303,0,0.00056603,0,0,0,0.035185,-0.00064062,0.010363,0.34819,0.014969,0.031785,1.0077e-06,0.35,0.34,0
0.013023,0.0012634,0.035036,-0.001077,0.010188,0.00026347,0,0,0.032302,-0.014644,0,0.00068503,0,0,0,0.035038,-0.0010789,0.010188,0.41799,0.014715,0.032007,1.0077e-06,0.36,0.34,0
0.013346,0.001244,0.034889,-0.0015355,0.010006,0.00032585,0,0,0.032348,-0.015004,0,0.0008472,0,0,0,0.034892,-0.0015384,0.010006,0.5125,0.014453,0.032247,1.0079e-06,0.37,0.34,0
0.01367,0.0012218,0.034764,-0.0020264,0.0098212,0.00039884,0,0,0.032426,-0.015402,0,0.001037,0,0,0,0.034768,-0.0020308,0.0098212,0.62103,0.014186,0.032535,1.0102e-06,0.38,0.34,0
0.013994,0.0011955,0.034707,-0.0025631,0.0096433,0.00045801,0,0,0.032583,-0.015868,0,0.0011908,0,0,0,0.034713,-0.0025687,0.0096433,0.70396,0.013929,0.032921,1.019e-06,0.39,0.34,0
0.014321,0.0011619,0.034847,-0.0031241,0.0095167,0.00040266,0,0,0.032929,-0.016433,0,0.0010469,0,0,0,0.034851,-0.0031284,0.0095167,0.6075,0.013746,0.033497,1.0444e-06,0.4,0.34,0
0.014653,0.001113,0.034946,-0.0037638,0.0093546,9.1858e-06,0,0,0.033268,-0.017054,0,2.3883e-05,0,0,0,0.034946,-0.0037638,0.0093546,0.013596,0.013512,0.034099,1.0674e-06,0.41,0.34,0
0.014987,0.0010347,0.034166,-0.0029859,0.0093541,-0.0003029,0,0,0.032256,-0.016042,0,-0.00078754,0,0,0,0.034169,-0.0029884,0.0093541,-0.46708,0.013511,0.032778,9.8251e-07,0.42,0.34,0
0.015298,0.00094525,0.029945,-0.00068844,0.0087769,-0.00034751,0,0,0.037801,-0.016737,0,-0.0014456,0,0,0,0.02995,-0.00069328,0.0087769,-0.73362,0.012678,0.027175,7.4259e-07,0.43,0.34,0
0.015709,0.00091503,0.037664,-0.00070796,0.011087,-0.0012964,0,0,0.048536,-0.021326,0,-0.0050423,0,0,0,0.03771,-0.00075336,0.011087,-2.0087,0.016014,0.034121,1.3749e-06,0.44,0.34,0
0.016343,0.0010157,0.033623,-0.00088425,0.0098216,-0.00099712,0,0,0.061883,-0.027835,0,-0.0051851,0,0,0,0.033652,-0.00091304,0.0098216,-1.6538,0.014187,0.030642,8.8957e-07,0.45,0.34,0
0.016947,0.0011527,0.033206,-0.00057238,0.00979,-0.00012383,0,0,0.060881,-0.026942,0,-0.00064393,0,0,0,0.033206,-0.00057283,0.00979,-0.21005,0.014141,0.029973,8.463e-07,0.46,0.34,0
0.01756,0.0012919,0.033797,0.0002781,0.010223,5.1994e-05,0,0,0.061293,-0.025855,0,0.00027037,0,0,0,0.033797,0.00027802,0.010223,0.088876,0.014766,0.029818,8.6856e-07,0.47,0.34,0
0.018173,0.0014317,0.033895,0.00042184,0.010295,0.00013878,0,0,0.061359,-0.02567,0,0.00072165,0,0,0,0.033895,0.00042126,0.010295,0.23754,0.014871,0.029791,8.721e-07,0.48,0.34,0
0.018788,0.0015651,0.034053,0.00056723,0.010386,0.00015643,0,0,0.061533,-0.025529,0,0.00081344,0,0,0,0.034053,0.0005665,0.010386,0.26765,0.015002,0.029816,8.8019e-07,0.49,0.34,0
0.019404,0.0016924,0.034144,0.00069833,0.010453,0.00011473,0,0,0.061597,-0.025361,0,0.00059662,0,0,0,0.034144,0.00069794,0.010453,0.19655,0.015098,0.029792,8.8343e-07,0.5,0.34,0
0.02002,0.0018123,0.034177,0.0007412,0.010475,2.5674e-05,0,0,0.061623,-0.025309,0,0.00013351,0,0,0,0.034177,0.00074118,0.010475,0.043996,0.015131,0.029786,8.847e-07,0.51,0.34,0
0.020636,0.0019238,0.0342,0.00071989,0.010476,-8.0278e-05,0,0,0.061683,-0.025366,0,-0.00041745,0,0,0,0.0342,0.0007197,0.010476,-0.13738,0.015132,0.029824,8.8719e-07,0.52,0.34,0
0.021253,0.0020269,0.034218,0.00065364,0.010462,-0.00018001,0,0,0.061767,-0.0255,0,-0.00093604,0,0,0,0.034219,0.00065268,0.010462,-0.30727,0.015111,0.029894,8.9064e-07,0.53,0.34,0
0.021871,0.0021222,0.034229,0.00056205,0.010437,-0.00026458,0,0,0.061859,-0.025676,0,-0.0013758,0,0,0,0.034231,0.00055997,0.010437,-0.45023,0.015076,0.029979,8.9434e-07,0.54,0.34,0
0.022491,0.0022103,0.034231,0.00045752,0.010407,-0.00033181,0,0,0.061943,-0.025868,0,-0.0017254,0,0,0,0.034234,0.00045426,0.010407,-0.56283,0.015032,0.030066,8.9769e-07,0.55,0.34,0
0.02311,0.0022922,0.034223,0.00034846,0.010371,-0.00038254,0,0,0.062013,-0.026059,0,-0.0019892,0,0,0,0.034227,0.00034414,0.010371,-0.64694,0.014981,0.030147,9.0032e-07,0.56,0.34,0
0.023731,0.0023685,0.034204,0.0002406,0.010333,-0.00041873,0,0,0.062064,-0.026241,0,-0.0021774,0,0,0,0.034209,0.00023544,0.010333,-0.70625,0.014926,0.030218,9.0208e-07,0.57,0.34,0
0.024352,0.0024399,0.034177,0.00013771,0.010294,-0.00044272,0,0,0.062094,-0.026407,0,-0.0023022,0,0,0,0.034183,0.00013195,0.010294,-0.74504,0.01487,0.030277,9.0293e-07,0.58,0.34,0
0.024973,0.002507,0.034141,4.2057e-05,0.010255,-0.00045686,0,0,0.062105,-0.026554,0,-0.0023757,0,0,0,0.034147,3.5937e-05,0.010255,-0.76746,0.014813,0.030322,9.0289e-07,0.59,0.34,0
0.025594,0.0025703,0.034099,-4.5137e-05,0.010216,-0.00046333,0,0,0.062096,-0.02668,0,-0.0024093,0,0,0,0.034106,-5.1424e-05,0.010216,-0.7773,0.014757,0.030355,9.0204e-07,0.6,0.34,0
0.026215,0.0026302,0.034052,-0.00012342,0.010179,-0.00046406,0,0,0.06207,-0.026785,0,-0.0024131,0,0,0,0.034058,-0.00012972,0.010179,-0.77782,0.014702,0.030375,9.0047e-07,0.61,0.34,0
0.026835,0.002687,0.034,-0.00019286,0.010142,-0.00046064,0,0,0.06203,-0.026871,0,-0.0023953,0,0,0,0.034006,-0.00019907,0.010142,-0.7717,0.01465,0.030384,8.9829e-07,0.62,0.34,0
0.027455,0.002741,0.033945,-0.00025385,0.010107,-0.0004544,0,0,0.061977,-0.026939,0,-0.0023629,0,0,0,0.033951,-0.00025989,0.010107,-0.76111,0.014599,0.030384,8.9561e-07,0.63,0.34,0
0.028075,0.0027925,0.033888,-0.00030699,0.010074,-0.00044637,0,0,0.061915,-0.026991,0,-0.0023211,0,0,0,0.033893,-0.00031282,0.010074,-0.74775,0.014552,0.030375,8.9255e-07,0.64,0.34,0
0.028693,0.0028416,0.033829,-0.00035302,0.010043,-0.00043735,0,0,0.061845,-0.027029,0,-0.0022742,0,0,0,0.033835,-0.00035862,0.010043,-0.73291,0.014506,0.03036,8.892e-07,0.65,0.34,0
0.029312,0.0028885,0.033771,-0.00039272,0.010013,-0.00042792,0,0,0.061769,-0.027056,0,-0.0022252,0,0,0,0.033776,-0.00039808,0.010013,-0.71752,0.014464,0.030339,8.8565e-07,0.66,0.34,0
0.029929,0.0029332,0.033712,-0.00042686,0.0099856,-0.00041851,0,0,0.061689,-0.027072,0,-0.0021762,0,0,0,0.033717,-0.00043199,0.0099856,-0.70224,0.014424,0.030314,8.8198e-07,0.67,0.34,0
0.030545,0.0029759,0.033655,-0.00045621,0.0099596,-0.00040937,0,0,0.061608,-0.027081,0,-0.0021287,0,0,0,0.03366,-0.00046113,0.0099596,-0.68747,0.014386,0.030286,8.7827e-07,0.68,0.34,0
0.031161,0.0030166,0.033599,-0.00048148,0.0099352,-0.00040065,0,0,0.061526,-0.027083,0,-0.0020834,0,0,0,0.033604,-0.00048619,0.0099352,-0.67345,0.014351,0.030257,8.7458e-07,0.69,0.34,0
0.031776,0.0030555,0.033545,-0.00050333,0.0099124,-0.00039243,0,0,0.061444,-0.027081,0,-0.0020406,0,0,0,0.033549,-0.00050785,0.0099124,-0.66026,0.014318,0.030226,8.7094e-07,0.7,0.34,0
0.03239,0.0030925,0.033493,-0.00052233,0.0098911,-0.00038468,0,0,0.061364,-0.027075,0,-0.0020003,0,0,0,0.033497,-0.00052668,0.0098911,-0.64785,0.014287,0.030194,8.674e-07,0.71,0.34,0
0.033003,0.0031277,0.033443,-0.00053901,0.0098712,-0.00037735,0,0,0.061287,-0.027067,0,-0.0019622,0,0,0,0.033447,-0.0005432,0.0098712,-0.63612,0.014259,0.030163,8.6399e-07,0.72,0.34,0
0.033616,0.0031611,0.033396,-0.00055382,0.0098526,-0.00037033,0,0,0.061213,-0.027057,0,-0.0019257,0,0,0,0.0334,-0.00055786,0.0098526,-0.62489,0.014232,0.030133,8.6073e-07,0.73,0.34,0
0.034227,0.0031929,0.033351,-0.00056713,0.0098353,-0.00036351,0,0,0.061142,-0.027046,0,-0.0018903,0,0,0,0.033355,-0.00057102,0.0098353,-0.61396,0.014207,0.030104,8.5765e-07,0.74,0.34,0
0.034838,0.0032229,0.03331,-0.00057925,0.0098191,-0.00035676,0,0,0.061075,-0.027036,0,-0.0018551,0,0,0,0.033313,-0.00058301,0.0098191,-0.60308,0.014183,0.030076,8.5475e-07,0.75,0.34,0
0.035449,0.0032513,0.033271,-0.00059047,0.009804,-0.00034993,0,0,0.061013,-0.027026,0,-0.0018196,0,0,0,0.033274,-0.00059408,0.009804,-0.59203,0.014161,0.03005,8.5203e-07,0.76,0.34,0
0.036059,0.0032781,0.033234,-0.00060097,0.0097899,-0.00034289,0,0,0.060955,-0.027016,0,-0.001783,0,0,0,0.033238,-0.00060445,0.0097899,-0.58057,0.014141,0.030026,8.4951e-07,0.77,0.34,0
0.036668,0.0033033,0.0332,-0.00061093,0.0097768,-0.00033552,0,0,0.060901,-0.027008,0,-0.0017447,0,0,0,0.033203,-0.00061426,0.0097768,-0.56849,0.014122,0.030004,8.4717e-07,0.78,0.34,0
0.037277,0.003327,0.033169,-0.00062046,0.0097645,-0.00032769,0,0,0.060851,-0.027001,0,-0.001704,0,0,0,0.033172,-0.00062364,0.0097645,-0.55559,0.014104,0.029983,8.4503e-07,0.79,0.34,0
0.037885,0.0033492,0.03314,-0.00062967,0.0097531,-0.00031931,0,0,0.060806,-0.026995,0,-0.0016604,0,0,0,0.033143,-0.00063269,0.0097531,-0.54169,0.014088,0.029965,8.4306e-07,0.8,0.34,0
0.038493,0.00337,0.033113,-0.00063859,0.0097425,-0.00031028,0,0,0.060765,-0.026991,0,-0.0016134,0,0,0,0.033116,-0.00064144,0.0097425,-0.52665,0.014072,0.029948,8.4126e-07,0.81,0.34,0
0.0391,0.0033894,0.033089,-0.00064727,0.0097326,-0.00030053,0,0,0.060727,-0.026988,0,-0.0015627,0,0,0,0.033092,-0.00064995,0.0097326,-0.51034,0.014058,0.029933,8.3963e-07,0.82,0.34,0
0.039707,0.0034075,0.033067,-0.00065572,0.0097234,-0.00029,0,0,0.060694,-0.026986,0,-0.001508,0,0,0,0.03307,-0.00065821,0.0097234,-0.49267,0.014045,0.02992,8.3816e-07,0.83,0.34,0
0.040314,0.0034242,0.033047,-0.00066394,0.0097149,-0.00027866,0,0,0.060663,-0.026985,0,-0.001449,0,0,0,0.033049,-0.00066624,0.0097149,-0.47357,0.014033,0.029908,8.3683e-07,0.84,0.34,0
0.040921,0.0034396,0.033029,-0.00067191,0.0097071,-0.00026647,0,0,0.060636,-0.026985,0,-0.0013856,0,0,0,0.033031,-0.00067402,0.0097071,-0.453,0.014021,0.029898,8.3563e-07,0.85,0.34,0
0.041527,0.0034539,0.033012,-0.00067961,0.0096998,-0.00025343,0,0,0.060612,-0.026987,0,-0.0013178,0,0,0,0.033014,-0.00068152,0.0096998,-0.43095,0.014011,0.029889,8.3457e-07,0.86,0.34,0
0.042133,0.0034669,0.032997,-0.00068701,0.0096931,-0.00023954,0,0,0.060591,-0.026988,0,-0.0012456,0,0,0,0.032999,-0.00068871,0.0096931,-0.40741,0.014001,0.029882,8.3362e-07,0.87,0.34,0
0.042739,0.0034789,0.032984,-0.00069407,0.009687,-0.0002248,0,0,0.060573,-0.026991,0,-0.001169,0,0,0,0.032986,-0.00069557,0.009687,-0.38243,0.013992,0.029875,8.3278e-07,0.88,0.34,0
0.043344,0.0034897,0.032972,-0.00070075,0.0096815,-0.00020926,0,0,0.060556,-0.026994,0,-0.0010881,0,0,0,0.032974,-0.00070205,0.0096815,-0.35604,0.013984,0.02987,8.3203e-07,0.89,0.34,0
0.04395,0.0034994,0.032962,-0.00070701,0.0096764,-0.00019294,0,0,0.060542,-0.026997,0,-0.0010033,0,0,0,0.032963,-0.00070812,0.0096764,-0.32832,0.013977,0.029865,8.3138e-07,0.9,0.34,0
0.044555,0.0035081,0.032953,-0.00071281,0.0096719,-0.00017588,0,0,0.06053,-0.027,0,-0.00091459,0,0,0,0.032953,-0.00071373,0.0096719,-0.29933,0.013971,0.029861,8.3082e-07,0.91,0.34,0
0.04516,0.0035158,0.032945,-0.00071812,0.0096679,-0.00015815,0,0,0.060519,-0.027004,0,-0.00082238,0,0,0,0.032945,-0.00071886,0.0096679,-0.26917,0.013965,0.029858,8.3033e-07,0.92,0.34,0
0.045766,0.0035225,0.032938,-0.00072289,0.0096644,-0.0001398,0,0,0.06051,-0.027007,0,-0.00072694,0,0,0,0.032938,-0.00072348,0.0096644,-0.23795,0.01396,0.029855,8.2992e-07,0.93,0.34,0
0.046371,0.0035283,0.032932,-0.0007271,0.0096614,-0.00012089,0,0,0.060503,-0.02701,0,-0.00062863,0,0,0,0.032932,-0.00072754,0.0096614,-0.20578,0.013955,0.029853,8.2957e-07,0.94,0.34,0
0.046976,0.0035331,0.032927,-0.00073072,0.0096588,-0.0001015,0,0,0.060497,-0.027013,0,-0.00052779,0,0,0,0.032927,-0.00073102,0.0096588,-0.17278,0.013952,0.029852,8.2928e-07,0.95,0.34,0
0.04758,0.0035371,0.032923,-0.00073371,0.0096568,-8.1698e-05,0,0,0.060492,-0.027015,0,-0.00042483,0,0,0,0.032923,-0.00073391,0.0096568,-0.13908,0.013949,0.02985,8.2905e-07,0.96,0.34,0
0.048185,0.0035401,0.03292,-0.00073606,0.0096551,-6.1567e-05,0,0,0.060488,-0.027017,0,-0.00032015,0,0,0,0.03292,-0.00073617,0.0096551,-0.10481,0.013946,0.029849,8.2887e-07,0.97,0.34,0
0.04879,0.0035423,0.032918,-0.00073775,0.009654,-4.1185e-05,0,0,0.060486,-0.027019,0,-0.00021416,0,0,0,0.032918,-0.0007378,0.009654,-0.070114,0.013945,0.029849,8.2875e-07,0.98,0.34,0
0.049395,0.0035436,0.032917,-0.00073877,0.0096533,-2.0635e-05,0,0,0.060484,-0.027019,0,-0.0001073,0,0,0,0.032917,-0.00073878,0.0096533,-0.035129,0.013944,0.029848,8.2867e-07,0.99,0.34,0
0.05,0.003544,0.032916,-0.00073911,0.0096531,8.298e-06,0,0,0.060484,-0.02702,0,4.315e-05,0,0,0,0.032916,-0.00073911,0.0096531,0.014127,0.013943,0.029848,8.2865e-07,1,0.34,0
0,0,0.037202,0.015944,0.015944,0.0022241,0,0,0.055272,5.9631e-19,0,0.011565,0,0,0,0.037433,0.015714,0.015944,5.9092,0.02303,0.021605,5.1773e-07,0,0.35,0
0.00055272,0.00011565,0.037125,0.015213,0.015701,0.0022389,0,0,0.055701,-0.0012701,0,0.011642,0,0,0,0.037351,0.014986,0.015701,5.7748,0.022679,0.022016,5.4613e-07,0.01,0.35,0
0.001114,0.0002354,0.037358,0.014743,0.01563,0.0023052,0,0,0.056493,-0.0023078,0,0.011987,0,0,0,0.037591,0.01451,0.01563,5.7613,0.022577,0.022541,5.8336e-07,0.02,0.35,0
0.0016826,0.00035976,0.037566,0.014387,0.015586,0.0023961,0,0,0.057149,-0.0031175,0,0.01246,0,0,0,0.037811,0.014142,0.015586,5.8406,0.022513,0.022981,6.1509e-07,0.03,0.35,0
0.002257,0.00048932,0.037736,0.014152,0.015566,0.0025253,0,0,0.057641,-0.003678,0,0.013132,0,0,0,0.038003,0.013884,0.015566,6.0438,0.022485,0.023324,6.4023e-07,0.04,0.35,0
0.0028354,0.00062476,0.037812,0.01405,0.015559,0.0026902,0,0,0.057858,-0.0039216,0,0.013989,0,0,0,0.038112,0.013749,0.015559,6.3792,0.022474,0.023511,6.5414e-07,0.05,0.35,0
0.0034141,0.00076459,0.037824,0.014204,0.015608,0.0028441,0,0,0.057761,-0.0036519,0,0.014789,0,0,0,0.038162,0.013866,0.015608,6.77,0.022545,0.023473,6.5191e-07,0.06,0.35,0
0.0039906,0.00090379,0.03778,0.013638,0.015425,0.0028402,0,0,0.043473,-0.0030981,0,0.011194,0,0,0,0.038111,0.013307,0.015425,6.6321,0.022281,0.02382,6.7497e-07,0.07,0.35,0
0.0042836,0.00096213,0.037734,0.012835,0.01517,0.0026719,0,0,0.029332,-0.0030365,0,0.0069468,0,0,0,0.038017,0.012551,0.01517,6.0564,0.021913,0.024262,7.048e-07,0.08,0.35,0
0.0045772,0.0010123,0.037678,0.012384,0.015019,0.0023914,0,0,0.029457,-0.003425,0,0.0062176,0,0,0,0.037902,0.01216,0.015019,5.3537,0.021693,0.024438,7.1517e-07,0.09,0.35,0
0.0048727,0.0010549,0.037636,0.0117,0.014801,0.0022134,0,0,0.029686,-0.0040313,0,0.0057548,0,0,0,0.037823,0.011512,0.014801,4.8429,0.021379,0.024831,7.4003e-07,0.1,0.35,0
0.005171,0.0010918,0.037637,0.011094,0.014619,0.0020738,0,0,0.029923,-0.0045827,0,0.0053918,0,0,0,0.037798,0.010933,0.014619,4.4406,0.021117,0.025224,7.6529e-07,0.11,0.35,0
0.0054712,0.0011243,0.037586,0.010476,0.014419,0.0019349,0,0,0.030117,-0.0051249,0,0.0050307,0,0,0,0.037723,0.010339,0.014419,4.0619,0.020827,0.025589,7.8737e-07,0.12,0.35,0
0.0057733,0.0011528,0.037522,0.0098505,0.014212,0.0017887,0,0,0.030304,-0.0056698,0,0.0046507,0,0,0,0.037638,0.0097354,0.014212,3.6832,0.020528,0.025955,8.0872e-07,0.13,0.35,0
0.0060773,0.0011774,0.037457,0.0092277,0.014005,0.0016453,0,0,0.030487,-0.006211,0,0.0042776,0,0,0,0.037552,0.0091321,0.014005,3.3243,0.02023,0.026324,8.297e-07,0.14,0.35,0
0.006383,0.0011984,0.037389,0.0086177,0.013802,0.0015094,0,0,0.030663,-0.0067394,0,0.0039243,0,0,0,0.037468,0.0085387,0.013802,2.9949,0.019936,0.026689,8.4984e-07,0.15,0.35,0
0.0066905,0.0012161,0.037315,0.0080259,0.013602,0.0013829,0,0,0.030826,-0.0072492,0,0.0035955,0,0,0,0.03738,0.0079608,0.013602,2.6972,0.019648,0.027044,8.6867e-07,0.16,0.35,0
0.0069996,0.0012307,0.037235,0.0074553,0.013407,0.0012658,0,0,0.030976,-0.0077371,0,0.003291,0,0,0,0.037288,0.0074016,0.013407,2.4295,0.019366,0.027382,8.859e-07,0.17,0.35,0
0.00731,0.0012426,0.037147,0.0069072,0.013216,0.0011572,0,0,0.03111,-0.008202,0,0.0030086,0,0,0,0.037192,0.006863,0.013216,2.1882,0.01909,0.027704,9.0144e-07,0.18,0.35,0
0.0076218,0.0012519,0.037054,0.0063812,0.013031,0.0010559,0,0,0.031231,-0.0086442,0,0.0027453,0,0,0,0.037091,0.0063449,0.013031,1.9692,0.018822,0.028008,9.1529e-07,0.19,0.35,0
0.0079347,0.0012588,0.036956,0.0058762,0.01285,0.00096071,0,0,0.031338,-0.0090654,0,0.0024978,0,0,0,0.036985,0.0058466,0.01285,1.7688,0.018561,0.028295,9.2759e-07,0.2,0.35,0
0.0082485,0.0012634,0.036853,0.00539,0.012673,0.00087076,0,0,0.031434,-0.0094679,0,0.002264,0,0,0,0.036878,0.005366,0.012673,1.5841,0.018305,0.028568,9.385e-07,0.21,0.35,0
0.0085633,0.0012658,0.036748,0.0049201,0.0125,0.0007855,0,0,0.031522,-0.0098546,0,0.0020423,0,0,0,0.036768,0.0049007,0.0125,1.4129,0.018056,0.028828,9.4825e-07,0.22,0.35,0
0.008879,0.0012662,0.036642,0.0044637,0.012332,0.0007048,0,0,0.031603,-0.010228,0,0.0018325,0,0,0,0.036658,0.0044483,0.012332,1.2541,0.017812,0.02908,9.5707e-07,0.23,0.35,0
0.0091954,0.0012646,0.036536,0.0040183,0.012166,0.00062888,0,0,0.03168,-0.010592,0,0.0016351,0,0,0,0.036548,0.0040062,0.012166,1.1075,0.017573,0.029326,9.6514e-07,0.24,0.35,0
0.0095126,0.0012611,0.03643,0.0035816,0.012003,0.00055826,0,0,0.031754,-0.010948,0,0.0014515,0,0,0,0.036439,0.0035721,0.012003,0.97337,0.017338,0.029567,9.7264e-07,0.25,0.35,0
0.0098305,0.0012559,0.036325,0.0031513,0.011843,0.00049362,0,0,0.031827,-0.011299,0,0.0012834,0,0,0,0.036333,0.003144,0.011843,0.85229,0.017107,0.029807,9.7972e-07,0.26,0.35,0
0.010149,0.0012488,0.036223,0.0027258,0.011685,0.00043579,0,0,0.0319,-0.011646,0,0.001133,0,0,0,0.036228,0.0027202,0.011685,0.74523,0.016878,0.030046,9.8645e-07,0.27,0.35,0
0.010469,0.0012401,0.036122,0.0023036,0.011528,0.00038564,0,0,0.031973,-0.011991,0,0.0010027,0,0,0,0.036126,0.0022992,0.011528,0.65324,0.016651,0.030286,9.9291e-07,0.28,0.35,0
0.010789,0.0012298,0.036023,0.0018834,0.011372,0.00034411,0,0,0.032046,-0.012335,0,0.00089469,0,0,0,0.036027,0.0018799,0.011372,0.57743,0.016426,0.030528,9.9915e-07,0.29,0.35,0
0.011109,0.001218,0.035926,0.0014639,0.011217,0.00031216,0,0,0.032122,-0.012679,0,0.00081162,0,0,0,0.035929,0.0014611,0.011217,0.51893,0.016202,0.030773,1.0052e-06,0.3,0.35,0
0.011431,0.0012047,0.035831,0.0010442,0.011062,0.00029076,0,0,0.032199,-0.013024,0,0.00075598,0,0,0,0.035833,0.0010417,0.011062,0.47885,0.015979,0.03102,1.011e-06,0.31,0.35,0
0.011753,0.00119,0.035738,0.00062281,0.010908,0.00028088,0,0,0.032279,-0.013371,0,0.00073029,0,0,0,0.03574,0.00062056,0.010908,0.45826,0.015756,0.031272,1.0167e-06,0.32,0.35,0
0.012077,0.0011739,0.035647,0.00019839,0.010754,0.00028342,0,0,0.032362,-0.013722,0,0.00073689,0,0,0,0.03565,0.00019612,0.010754,0.45805,0.015533,0.03153,1.0224e-06,0.33,0.35,0
0.012401,0.0011562,0.035562,-0.00023107,0.010599,0.00029904,0,0,0.032451,-0.014079,0,0.0007775,0,0,0,0.035564,-0.00023357,0.010599,0.47865,0.01531,0.031797,1.0283e-06,0.34,0.35,0
0.012726,0.001137,0.035485,-0.00066823,0.010445,0.00032772,0,0,0.032552,-0.014447,0,0.00085206,0,0,0,0.035488,-0.0006712,0.010445,0.51931,0.015087,0.032079,1.0348e-06,0.35,0.35,0
0.013052,0.001116,0.035425,-0.0011167,0.010292,0.00036758,0,0,0.032672,-0.014832,0,0.00095571,0,0,0,0.035429,-0.0011204,0.010292,0.57628,0.014867,0.032387,1.0426e-06,0.36,0.35,0
0.013379,0.0010927,0.035397,-0.0015806,0.010145,0.00041205,0,0,0.032827,-0.015243,0,0.0010713,0,0,0,0.035401,-0.0015852,0.010145,0.63836,0.014654,0.032738,1.0533e-06,0.37,0.35,0
0.013708,0.0010662,0.035425,-0.0020629,0.010009,0.0004433,0,0,0.033042,-0.015693,0,0.0011526,0,0,0,0.03543,-0.0020682,0.010009,0.6774,0.014457,0.033153,1.069e-06,0.38,0.35,0
0.01404,0.0010347,0.035544,-0.0025555,0.0098964,0.00041693,0,0,0.033341,-0.016188,0,0.001084,0,0,0,0.035548,-0.00256,0.0098964,0.6269,0.014295,0.033656,1.0925e-06,0.39,0.35,0
0.014375,0.00099526,0.035703,-0.0030372,0.0097999,0.00024353,0,0,0.033675,-0.016688,0,0.00063318,0,0,0,0.035705,-0.0030387,0.0097999,0.36015,0.014155,0.034183,1.119e-06,0.4,0.35,0
0.014713,0.00094245,0.035713,-0.003251,0.0097385,-9.3466e-05,0,0,0.033766,-0.016886,0,-0.00024301,0,0,0,0.035713,-0.0032512,0.0097385,-0.13744,0.014067,0.034363,1.125e-06,0.41,0.35,0
0.01505,0.00087608,0.036093,-0.0022114,0.010164,-0.00044082,0,0,0.033707,-0.016089,0,-0.0011461,0,0,0,0.036098,-0.0022165,0.010164,-0.65926,0.014682,0.033866,1.1336e-06,0.42,0.35,0
0.015388,0.00079773,0.0355,-0.0011779,0.010297,3.2099e-06,0,0,0.032764,-0.014917,0,8.3458e-06,0,0,0,0.0355,-0.0011779,0.010297,0.0050144,0.014873,0.032497,1.0505e-06,0.43,0.35,0
0.015706,0.00072821,0.031165,-0.00061867,0.009164,0.00015728,0,0,0.0394,-0.017388,0,0.00042649,0,0,0,0.031166,-0.00061981,0.009164,0.2331,0.013237,0.028198,8.2671e-07,0.44,0.35,0
0.016138,0.00073267,0.039085,-0.0014384,0.011294,-0.00079939,0,0,0.050659,-0.02296,0,-0.0032861,0,0,0,0.039103,-0.0014564,0.011294,-1.2181,0.016313,0.035924,1.5668e-06,0.45,0.35,0
0.016793,0.00087421,0.034825,-0.00057652,0.010274,-0.00061525,0,0,0.06383,-0.028212,0,-0.0031993,0,0,0,0.034835,-0.00058721,0.010274,-0.99537,0.014841,0.031432,9.7668e-07,0.46,0.35,0
0.017414,0.0010327,0.034209,4.5165e-05,0.010276,-0.00012154,0,0,0.062225,-0.026601,0,-0.00063202,0,0,0,0.03421,4.4733e-05,0.010276,-0.20383,0.014844,0.03037,9.0757e-07,0.47,0.35,0
0.018038,0.0011728,0.034409,0.00022416,0.01039,5.96e-05,0,0,0.062449,-0.026431,0,0.00030992,0,0,0,0.034409,0.00022405,0.01039,0.099894,0.015008,0.030404,9.1831e-07,0.48,0.35,0
0.018663,0.0013085,0.034518,0.00062654,0.010543,0.00014972,0,0,0.062334,-0.025784,0,0.00077855,0,0,0,0.034519,0.00062587,0.010543,0.25311,0.015229,0.030182,9.1521e-07,0.49,0.35,0
0.019285,0.0014386,0.034452,0.00080532,0.010577,0.00011564,0,0,0.062074,-0.025407,0,0.00060135,0,0,0,0.034452,0.00080492,0.010577,0.19692,0.015278,0.029981,9.0454e-07,0.5,0.35,0
0.019905,0.0015594,0.034432,0.0008646,0.010589,1.0377e-05,0,0,0.061991,-0.025283,0,5.3961e-05,0,0,0,0.034432,0.0008646,0.010589,0.017713,0.015295,0.029915,9.011e-07,0.51,0.35,0
0.020525,0.0016703,0.034432,0.00082714,0.010578,-9.9229e-05,0,0,0.062022,-0.025352,0,-0.00051599,0,0,0,0.034433,0.00082684,0.010578,-0.16918,0.015279,0.029946,9.0233e-07,0.52,0.35,0
0.021145,0.001772,0.034444,0.00074222,0.010556,-0.00019362,0,0,0.06211,-0.025516,0,-0.0010068,0,0,0,0.034445,0.00074111,0.010556,-0.32915,0.015248,0.030025,9.0591e-07,0.53,0.35,0
0.021767,0.0018653,0.034451,0.00063206,0.010525,-0.00026836,0,0,0.062208,-0.025721,0,-0.0013954,0,0,0,0.034453,0.00062993,0.010525,-0.45461,0.015203,0.03012,9.0987e-07,0.54,0.35,0
0.022389,0.0019514,0.034447,0.00051011,0.010487,-0.00032468,0,0,0.062296,-0.025941,0,-0.0016884,0,0,0,0.034451,0.00050701,0.010487,-0.54809,0.015148,0.030216,9.1333e-07,0.55,0.35,0
0.023013,0.0020312,0.034433,0.00038568,0.010445,-0.00036473,0,0,0.062367,-0.026156,0,-0.0018966,0,0,0,0.034437,0.00038178,0.010445,-0.61369,0.015088,0.030303,9.1592e-07,0.56,0.35,0
0.023637,0.0021056,0.034407,0.00026498,0.010402,-0.00039104,0,0,0.062415,-0.026356,0,-0.0020334,0,0,0,0.034412,0.0002605,0.010402,-0.65611,0.015025,0.030378,9.175e-07,0.57,0.35,0
0.024261,0.0021753,0.034373,0.0001518,0.010357,-0.00040629,0,0,0.06244,-0.026534,0,-0.0021127,0,0,0,0.034377,0.00014698,0.010357,-0.68013,0.01496,0.030438,9.1803e-07,0.58,0.35,0
0.024885,0.0022408,0.034329,4.8237e-05,0.010313,-0.00041301,0,0,0.062442,-0.026689,0,-0.0021477,0,0,0,0.034334,4.3262e-05,0.010313,-0.69015,0.014897,0.030482,9.1757e-07,0.59,0.35,0
0.02551,0.0023028,0.034279,-4.4815e-05,0.01027,-0.00041342,0,0,0.062423,-0.026819,0,-0.0021498,0,0,0,0.034284,-4.9794e-05,0.01027,-0.68998,0.014835,0.030512,9.1622e-07,0.6,0.35,0
0.026134,0.0023616,0.034223,-0.00012724,0.010229,-0.00040941,0,0,0.062386,-0.026926,0,-0.002129,0,0,0,0.034228,-0.00013212,0.010229,-0.68276,0.014775,0.030529,9.141e-07,0.61,0.35,0
0.026758,0.0024176,0.034164,-0.00019941,0.010189,-0.00040252,0,0,0.062334,-0.027011,0,-0.0020931,0,0,0,0.034169,-0.00020413,0.010189,-0.67102,0.014718,0.030533,9.1135e-07,0.62,0.35,0
0.02738,0.0024709,0.034101,-0.00026205,0.010152,-0.00039394,0,0,0.062269,-0.027076,0,-0.0020485,0,0,0,0.034106,-0.00026656,0.010152,-0.65673,0.014664,0.030527,9.081e-07,0.63,0.35,0
0.028003,0.0025219,0.034037,-0.00031601,0.010116,-0.0003846,0,0,0.062194,-0.027124,0,-0.0019999,0,0,0,0.034041,-0.00032031,0.010116,-0.64135,0.014613,0.030513,9.0446e-07,0.64,0.35,0
0.028624,0.0025707,0.033972,-0.00036224,0.010083,-0.00037515,0,0,0.062112,-0.027158,0,-0.0019508,0,0,0,0.033976,-0.00036634,0.010083,-0.62594,0.014564,0.030492,9.0056e-07,0.65,0.35,0
0.029245,0.0026173,0.033907,-0.00040172,0.010052,-0.00036607,0,0,0.062025,-0.027179,0,-0.0019036,0,0,0,0.033911,-0.00040563,0.010052,-0.61124,0.014519,0.030465,8.965e-07,0.66,0.35,0
0.029865,0.0026619,0.033843,-0.00043538,0.010022,-0.00035764,0,0,0.061935,-0.02719,0,-0.0018597,0,0,0,0.033847,-0.00043911,0.010022,-0.59769,0.014477,0.030435,8.9236e-07,0.67,0.35,0
0.030484,0.0027045,0.033781,-0.00046411,0.0099951,-0.00035001,0,0,0.061843,-0.027194,0,-0.0018201,0,0,0,0.033785,-0.00046769,0.0099951,-0.58553,0.014437,0.030402,8.8821e-07,0.68,0.35,0
0.031102,0.0027452,0.033721,-0.00048872,0.0099695,-0.00034324,0,0,0.061752,-0.027191,0,-0.0017849,0,0,0,0.033724,-0.00049216,0.0099695,-0.57481,0.0144,0.030368,8.8411e-07,0.69,0.35,0
0.031719,0.0027841,0.033662,-0.00050992,0.0099457,-0.00033729,0,0,0.061663,-0.027185,0,-0.0017539,0,0,0,0.033666,-0.00051325,0.0099457,-0.56546,0.014366,0.030333,8.8012e-07,0.7,0.35,0
0.032335,0.0028212,0.033607,-0.00052837,0.0099235,-0.00033207,0,0,0.061576,-0.027175,0,-0.0017267,0,0,0,0.03361,-0.0005316,0.0099235,-0.55731,0.014334,0.030298,8.7627e-07,0.71,0.35,0
0.03295,0.0028565,0.033554,-0.00054462,0.0099028,-0.00032743,0,0,0.061493,-0.027163,0,-0.0017026,0,0,0,0.033557,-0.00054776,0.0099028,-0.55012,0.014304,0.030264,8.7259e-07,0.72,0.35,0
0.033565,0.0028901,0.033504,-0.00055913,0.0098835,-0.00032323,0,0,0.061413,-0.027151,0,-0.0016808,0,0,0,0.033507,-0.0005622,0.0098835,-0.54362,0.014276,0.030232,8.691e-07,0.73,0.35,0
0.034179,0.0029219,0.033457,-0.0005723,0.0098654,-0.00031928,0,0,0.061338,-0.027138,0,-0.0016602,0,0,0,0.03346,-0.00057529,0.0098654,-0.53751,0.01425,0.0302,8.6582e-07,0.74,0.35,0
0.034792,0.002952,0.033413,-0.00058445,0.0098487,-0.0003154,0,0,0.061268,-0.027126,0,-0.0016401,0,0,0,0.033416,-0.00058738,0.0098487,-0.53148,0.014226,0.030171,8.6275e-07,0.75,0.35,0
0.035404,0.0029806,0.033372,-0.00059584,0.009833,-0.00031142,0,0,0.061203,-0.027115,0,-0.0016194,0,0,0,0.033375,-0.0005987,0.009833,-0.52523,0.014203,0.030144,8.5991e-07,0.76,0.35,0
0.036016,0.0030075,0.033335,-0.00060667,0.0098184,-0.00030718,0,0,0.061142,-0.027105,0,-0.0015973,0,0,0,0.033337,-0.00060945,0.0098184,-0.51848,0.014182,0.030119,8.5727e-07,0.77,0.35,0
0.036627,0.0030328,0.0333,-0.00061709,0.0098048,-0.00030251,0,0,0.061087,-0.027097,0,-0.0015731,0,0,0,0.033302,-0.00061978,0.0098048,-0.51098,0.014162,0.030096,8.5486e-07,0.78,0.35,0
0.037237,0.0030565,0.033267,-0.0006272,0.0097921,-0.00029729,0,0,0.061036,-0.02709,0,-0.0015459,0,0,0,0.03327,-0.0006298,0.0097921,-0.5025,0.014144,0.030075,8.5264e-07,0.79,0.35,0
0.037848,0.0030788,0.033238,-0.00063707,0.0097802,-0.0002914,0,0,0.06099,-0.027085,0,-0.0015153,0,0,0,0.03324,-0.00063958,0.0097802,-0.49283,0.014127,0.030057,8.5063e-07,0.8,0.35,0
0.038457,0.0030996,0.033211,-0.00064676,0.0097692,-0.00028474,0,0,0.060948,-0.027082,0,-0.0014807,0,0,0,0.033213,-0.00064915,0.0097692,-0.48182,0.014111,0.03004,8.4881e-07,0.81,0.35,0
0.039066,0.0031191,0.033186,-0.00065626,0.0097589,-0.00027724,0,0,0.06091,-0.027079,0,-0.0014416,0,0,0,0.033188,-0.00065853,0.0097589,-0.46933,0.014096,0.030026,8.4716e-07,0.82,0.35,0
0.039675,0.0031371,0.033164,-0.00066559,0.0097494,-0.00026882,0,0,0.060877,-0.027079,0,-0.0013979,0,0,0,0.033166,-0.00066772,0.0097494,-0.45526,0.014082,0.030013,8.4568e-07,0.83,0.35,0
0.040284,0.0031539,0.033143,-0.00067471,0.0097405,-0.00025946,0,0,0.060847,-0.02708,0,-0.0013492,0,0,0,0.033145,-0.0006767,0.0097405,-0.43956,0.01407,0.030002,8.4435e-07,0.84,0.35,0
0.040892,0.0031693,0.033125,-0.00068361,0.0097324,-0.00024913,0,0,0.06082,-0.027082,0,-0.0012955,0,0,0,0.033127,-0.00068544,0.0097324,-0.42218,0.014058,0.029992,8.4316e-07,0.85,0.35,0
0.041501,0.0031835,0.033108,-0.00069223,0.0097248,-0.00023782,0,0,0.060797,-0.027084,0,-0.0012367,0,0,0,0.03311,-0.0006939,0.0097248,-0.40311,0.014047,0.029984,8.4211e-07,0.86,0.35,0
0.042108,0.0031965,0.033093,-0.00070054,0.0097178,-0.00022555,0,0,0.060776,-0.027088,0,-0.0011728,0,0,0,0.033095,-0.00070204,0.0097178,-0.38238,0.014037,0.029977,8.4118e-07,0.87,0.35,0
0.042716,0.0032084,0.03308,-0.00070848,0.0097115,-0.00021232,0,0,0.060758,-0.027092,0,-0.0011041,0,0,0,0.033081,-0.00070982,0.0097115,-0.36001,0.014028,0.029972,8.4036e-07,0.88,0.35,0
0.043324,0.0032192,0.033068,-0.00071601,0.0097057,-0.00019818,0,0,0.060743,-0.027096,0,-0.0010305,0,0,0,0.033069,-0.00071718,0.0097057,-0.33608,0.014019,0.029967,8.3964e-07,0.89,0.35,0
0.043931,0.0032289,0.033058,-0.00072308,0.0097004,-0.00018316,0,0,0.060729,-0.027101,0,-0.00095245,0,0,0,0.033059,-0.00072407,0.0097004,-0.31065,0.014012,0.029963,8.3901e-07,0.9,0.35,0
0.044538,0.0032376,0.033049,-0.00072963,0.0096957,-0.00016733,0,0,0.060718,-0.027106,0,-0.00087013,0,0,0,0.033049,-0.00073046,0.0096957,-0.28383,0.014005,0.02996,8.3847e-07,0.91,0.35,0
0.045145,0.0032452,0.033041,-0.00073563,0.0096915,-0.00015074,0,0,0.060708,-0.02711,0,-0.00078387,0,0,0,0.033041,-0.0007363,0.0096915,-0.25571,0.013999,0.029957,8.38e-07,0.92,0.35,0
0.045752,0.0032519,0.033034,-0.00074103,0.0096878,-0.00013347,0,0,0.060699,-0.027115,0,-0.00069402,0,0,0,0.033034,-0.00074155,0.0096878,-0.22641,0.013994,0.029955,8.376e-07,0.93,0.35,0
0.046359,0.0032576,0.033028,-0.00074579,0.0096846,-0.00011557,0,0,0.060693,-0.027119,0,-0.00060098,0,0,0,0.033028,-0.00074618,0.0096846,-0.19606,0.013989,0.029954,8.3727e-07,0.94,0.35,0
0.046966,0.0032625,0.033023,-0.00074987,0.009682,-9.7147e-05,0,0,0.060687,-0.027123,0,-0.00050516,0,0,0,0.033023,-0.00075015,0.009682,-0.16481,0.013985,0.029952,8.37e-07,0.95,0.35,0
0.047573,0.0032664,0.033019,-0.00075325,0.0096798,-7.8268e-05,0,0,0.060683,-0.027126,0,-0.00040699,0,0,0,0.033019,-0.00075343,0.0096798,-0.13278,0.013982,0.029952,8.3678e-07,0.96,0.35,0
0.04818,0.0032694,0.033016,-0.00075591,0.0096781,-5.9024e-05,0,0,0.060679,-0.027128,0,-0.00030692,0,0,0,0.033016,-0.00075601,0.0096781,-0.10014,0.01398,0.029951,8.3662e-07,0.97,0.35,0
0.048786,0.0032715,0.033014,-0.00075782,0.0096769,-3.9503e-05,0,0,0.060677,-0.02713,0,-0.00020542,0,0,0,0.033014,-0.00075787,0.0096769,-0.067019,0.013978,0.029951,8.365e-07,0.98,0.35,0
0.049393,0.0032728,0.033013,-0.00075897,0.0096762,-1.9798e-05,0,0,0.060675,-0.027131,0,-0.00010295,0,0,0,0.033013,-0.00075899,0.0096762,-0.033589,0.013977,0.02995,8.3643e-07,0.99,0.35,0
0.05,0.0032733,0.033012,-0.00075936,0.0096759,8.2347e-06,0,0,0.060675,-0.027132,0,4.282e-05,0,0,0,0.033012,-0.00075936,0.0096759,0.013971,0.013976,0.02995,8.3641e-07,1,0.35,0
0,0,0.03708,0.015891,0.015891,0.0019763,0,0,0.05509,2.7105e-19,0,0.010277,0,0,0,0.037263,0.015709,0.015891,5.2834,0.022954,0.021463,5.077e-07,0,0.36,0
0.0005509,0.00010277,0.037007,0.01515,0.015647,0.0019901,0,0,0.055535,-0.001292,0,0.010348,0,0,0,0.037186,0.01497,0.015647,5.1603,0.022601,0.021885,5.3665e-07,0.01,0.36,0
0.0011107,0.0002119,0.037264,0.01467,0.01558,0.0020709,0,0,0.056377,-0.0023661,0,0.010769,0,0,0,0.037452,0.014482,0.01558,5.1939,0.022505,0.022441,5.7575e-07,0.02,0.36,0
0.0016784,0.00032772,0.037521,0.014293,0.015544,0.0021707,0,0,0.05714,-0.0032535,0,0.011288,0,0,0,0.037722,0.014092,0.015544,5.2932,0.022453,0.022939,6.1155e-07,0.03,0.36,0
0.0022535,0.00045097,0.03779,0.01402,0.015543,0.0023094,0,0,0.057841,-0.0039594,0,0.012009,0,0,0,0.038012,0.013798,0.015543,5.4982,0.022451,0.023391,6.4494e-07,0.04,0.36,0
0.0028353,0.00058285,0.038051,0.013869,0.015576,0.0025277,0,0,0.058435,-0.0044383,0,0.013144,0,0,0,0.038313,0.013608,0.015576,5.904,0.022499,0.023782,6.7488e-07,0.05,0.36,0
0.0034222,0.00072593,0.038049,0.013835,0.015565,0.0027958,0,0,0.058458,-0.0044979,0,0.014538,0,0,0,0.038368,0.013517,0.015565,6.5017,0.022483,0.023893,6.8317e-07,0.06,0.36,0
0.0040044,0.00087252,0.038139,0.013668,0.015542,0.0030259,0,0,0.043931,-0.0032485,0,0.011928,0,0,0,0.038509,0.013298,0.015542,6.9586,0.02245,0.024172,7.0362e-07,0.07,0.36,0
0.0043008,0.00093283,0.038207,0.01344,0.015494,0.0026524,0,0,0.029526,-0.0026698,0,0.0068963,0,0,0,0.038488,0.01316,0.015494,6.0449,0.02238,0.024245,7.0914e-07,0.08,0.36,0
0.004595,0.00097877,0.037882,0.012375,0.015077,0.0024307,0,0,0.029646,-0.003513,0,0.0063197,0,0,0,0.038111,0.012145,0.015077,5.3952,0.021778,0.024632,7.3101e-07,0.09,0.36,0
0.0048938,0.0010145,0.03797,0.011837,0.014942,0.0022949,0,0,0.029937,-0.0040371,0,0.0059667,0,0,0,0.03817,0.011637,0.014942,4.9806,0.021583,0.025045,7.5967e-07,0.1,0.36,0
0.0051937,0.0010462,0.037837,0.011263,0.01473,0.0021762,0,0,0.030039,-0.0045073,0,0.0056582,0,0,0,0.038014,0.011086,0.01473,4.6508,0.021277,0.025304,7.7425e-07,0.11,0.36,0
0.0054946,0.0010735,0.037701,0.010644,0.014503,0.0020188,0,0,0.030157,-0.0050175,0,0.005249,0,0,0,0.037851,0.010494,0.014503,4.2437,0.020949,0.025589,7.8978e-07,0.12,0.36,0
0.0057968,0.0010966,0.037596,0.010004,0.01428,0.0018621,0,0,0.030311,-0.0055586,0,0.0048415,0,0,0,0.037721,0.0098791,0.01428,3.8435,0.020627,0.025923,8.0848e-07,0.13,0.36,0
0.0061008,0.0011158,0.037511,0.0093692,0.014064,0.0017164,0,0,0.030481,-0.0061035,0,0.0044627,0,0,0,0.037616,0.0092649,0.014064,3.4773,0.020315,0.026282,8.2855e-07,0.14,0.36,0
0.0064065,0.0011315,0.037432,0.0087475,0.013854,0.0015837,0,0,0.030651,-0.0066382,0,0.0041177,0,0,0,0.037519,0.0086603,0.013854,3.1507,0.020011,0.026644,8.484e-07,0.15,0.36,0
0.0067138,0.001144,0.03735,0.0081449,0.013649,0.0014628,0,0,0.030812,-0.0071547,0,0.0038033,0,0,0,0.037423,0.0080719,0.013649,2.8602,0.019715,0.026999,8.6717e-07,0.16,0.36,0
0.0070227,0.0011538,0.037264,0.0075649,0.013449,0.0013521,0,0,0.03096,-0.007649,0,0.0035154,0,0,0,0.037326,0.0075035,0.013449,2.6013,0.019426,0.027339,8.8445e-07,0.17,0.36,0
0.007333,0.001161,0.037173,0.007009,0.013255,0.0012498,0,0,0.031094,-0.0081193,0,0.0032494,0,0,0,0.037225,0.0069573,0.013255,2.3685,0.019145,0.027662,9.0004e-07,0.18,0.36,0
0.0076446,0.0011658,0.037076,0.006477,0.013066,0.0011539,0,0,0.031214,-0.0085658,0,0.0030002,0,0,0,0.03712,0.0064335,0.013066,2.1565,0.018873,0.027966,9.1394e-07,0.19,0.36,0
0.0079573,0.0011685,0.036976,0.0059672,0.012883,0.0010629,0,0,0.031321,-0.0089904,0,0.0027635,0,0,0,0.037012,0.0059308,0.012883,1.9608,0.018609,0.028254,9.2628e-07,0.2,0.36,0
0.008271,0.001169,0.036873,0.0054771,0.012705,0.00097552,0,0,0.031418,-0.0093962,0,0.0025364,0,0,0,0.036903,0.0054468,0.012705,1.778,0.018351,0.028528,9.3729e-07,0.21,0.36,0
0.0085856,0.0011676,0.036768,0.0050035,0.012531,0.00089133,0,0,0.031508,-0.0097864,0,0.0023175,0,0,0,0.036793,0.0049785,0.012531,1.6061,0.018101,0.028791,9.4722e-07,0.22,0.36,0
0.0089011,0.0011642,0.036664,0.0045432,0.012362,0.00081034,0,0,0.031592,-0.010164,0,0.0021069,0,0,0,0.036684,0.0045228,0.012362,1.4443,0.017856,0.029046,9.5635e-07,0.23,0.36,0
0.0092175,0.001159,0.036561,0.0040934,0.012196,0.00073304,0,0,0.031674,-0.010534,0,0.0019059,0,0,0,0.036578,0.0040769,0.012196,1.2927,0.017617,0.029297,9.649e-07,0.24,0.36,0
0.0095346,0.0011519,0.036461,0.0036515,0.012034,0.0006602,0,0,0.031755,-0.010897,0,0.0017165,0,0,0,0.036474,0.0036382,0.012034,1.1523,0.017382,0.029547,9.7308e-07,0.25,0.36,0
0.0098526,0.0011431,0.036365,0.0032151,0.011874,0.00059279,0,0,0.031838,-0.011256,0,0.0015412,0,0,0,0.036375,0.0032045,0.011874,1.0241,0.017151,0.029797,9.8103e-07,0.26,0.36,0
0.010171,0.0011325,0.036272,0.0027826,0.011716,0.00053182,0,0,0.031922,-0.011614,0,0.0013827,0,0,0,0.03628,0.0027742,0.011716,0.90956,0.016924,0.03005,9.8888e-07,0.27,0.36,0
0.010491,0.0011203,0.036184,0.0023525,0.011561,0.00047833,0,0,0.03201,-0.011971,0,0.0012437,0,0,0,0.036191,0.0023457,0.011561,0.80986,0.016699,0.030307,9.9672e-07,0.28,0.36,0
0.010812,0.0011065,0.036101,0.0019234,0.011407,0.00043331,0,0,0.032102,-0.012329,0,0.0011266,0,0,0,0.036106,0.0019179,0.011407,0.72625,0.016477,0.030569,1.0046e-06,0.29,0.36,0
0.011133,0.0010912,0.036023,0.0014943,0.011255,0.00039767,0,0,0.032198,-0.012689,0,0.0010339,0,0,0,0.036028,0.0014897,0.011255,0.65975,0.016258,0.030838,1.0127e-06,0.3,0.36,0
0.011456,0.0010743,0.035952,0.0010641,0.011105,0.00037217,0,0,0.032301,-0.013053,0,0.00096765,0,0,0,0.035956,0.0010601,0.011105,0.61112,0.01604,0.031114,1.0209e-06,0.31,0.36,0
0.011779,0.001056,0.035888,0.00063178,0.010956,0.00035735,0,0,0.032412,-0.013421,0,0.00092912,0,0,0,0.035892,0.00062816,0.010956,0.58066,0.015825,0.0314,1.0296e-06,0.32,0.36,0
0.012104,0.0010362,0.035834,0.00019616,0.010809,0.0003533,0,0,0.032532,-0.013797,0,0.00091858,0,0,0,0.035838,0.00019266,0.010809,0.56793,0.015613,0.031699,1.0388e-06,0.33,0.36,0
0.01243,0.0010149,0.035793,-0.00024405,0.010665,0.00035925,0,0,0.032667,-0.014181,0,0.00093404,0,0,0,0.035797,-0.00024763,0.010665,0.57109,0.015405,0.032015,1.049e-06,0.34,0.36,0
0.012757,0.00099185,0.035772,-0.00069021,0.010524,0.00037278,0,0,0.032822,-0.014579,0,0.00096923,0,0,0,0.035776,-0.00069402,0.010524,0.5857,0.015202,0.032354,1.0607e-06,0.35,0.36,0
0.013086,0.00096678,0.035778,-0.0011432,0.010391,0.00038821,0,0,0.033004,-0.014994,0,0.0010094,0,0,0,0.035783,-0.0011473,0.010391,0.60235,0.015009,0.032724,1.0746e-06,0.36,0.36,0
0.013417,0.00093914,0.035824,-0.0016018,0.010267,0.0003936,0,0,0.033225,-0.015429,0,0.0010233,0,0,0,0.035828,-0.0016059,0.010267,0.60247,0.01483,0.033134,1.0919e-06,0.37,0.36,0
0.013751,0.00090797,0.03592,-0.002058,0.010159,0.00036593,0,0,0.03349,-0.015882,0,0.00095143,0,0,0,0.035924,-0.0020615,0.010159,0.552,0.014674,0.033586,1.1133e-06,0.38,0.36,0
0.014087,0.00087172,0.036056,-0.002487,0.010071,0.00026707,0,0,0.033781,-0.016325,0,0.00069438,0,0,0,0.036058,-0.0024889,0.010071,0.39698,0.014547,0.034051,1.1372e-06,0.39,0.36,0
0.014426,0.00082809,0.036179,-0.0028017,0.010013,6.6013e-05,0,0,0.034015,-0.016659,0,0.00017163,0,0,0,0.036179,-0.0028018,0.010013,0.09703,0.014463,0.034412,1.1568e-06,0.4,0.36,0
0.014767,0.00077531,0.036307,-0.0027451,0.010069,-0.00021626,0,0,0.03411,-0.016658,0,-0.00056227,0,0,0,0.036309,-0.0027463,0.010069,-0.31727,0.014544,0.034482,1.1676e-06,0.41,0.36,0
0.015109,0.00071289,0.036316,-0.0022943,0.010207,-0.0003787,0,0,0.033943,-0.016251,0,-0.00098462,0,0,0,0.03632,-0.0022981,0.010207,-0.5619,0.014743,0.034129,1.1565e-06,0.42,0.36,0
0.015446,0.00064692,0.036756,-0.0011688,0.010676,-0.00040613,0,0,0.033904,-0.015399,0,-0.0010559,0,0,0,0.036761,-0.0011731,0.010676,-0.61347,0.015421,0.033614,1.165e-06,0.43,0.36,0
0.015787,0.00058021,0.036529,-0.00060809,0.010776,0.00021936,0,0,0.033478,-0.0148,0,0.00057033,0,0,0,0.03653,-0.00060939,0.010776,0.33842,0.015566,0.032956,1.1261e-06,0.44,0.36,0
0.016116,0.0005298,0.033216,-0.00055854,0.0097974,0.00060846,0,0,0.042129,-0.018534,0,0.0025028,0,0,0,0.033229,-0.00057136,0.0097974,1.1351,0.014152,0.029992,9.8418e-07,0.45,0.36,0
0.016583,0.0005885,0.041298,-0.0020103,0.011786,-0.0012218,0,0,0.053363,-0.024579,0,-0.0041882,0,0,0,0.041333,-0.0020454,0.011786,-1.5627,0.017025,0.038382,1.9171e-06,0.46,0.36,0
0.017249,0.00075989,0.036216,-0.00012722,0.010827,0.00036975,0,0,0.066012,-0.02848,0,0.0019227,0,0,0,0.03622,-0.00013098,0.010827,0.58284,0.015638,0.032297,1.0828e-06,0.47,0.36,0
0.017903,0.00090313,0.035566,0.00040771,0.010792,0.00026658,0,0,0.064412,-0.026999,0,0.0013862,0,0,0,0.035568,0.00040569,0.010792,0.4344,0.015588,0.03129,1.0088e-06,0.48,0.36,0
0.018537,0.0010494,0.034962,0.00071634,0.010703,0.00030852,0,0,0.063072,-0.025966,0,0.0016043,0,0,0,0.034965,0.00071356,0.010703,0.51612,0.015461,0.030509,9.4871e-07,0.49,0.36,0
0.019165,0.0011843,0.034799,0.00097258,0.010731,0.00015773,0,0,0.062575,-0.025373,0,0.00082022,0,0,0,0.034799,0.00097185,0.010731,0.26717,0.015501,0.030156,9.2724e-07,0.5,0.36,0
0.019789,0.0013066,0.034721,0.00098919,0.010713,9.3386e-06,0,0,0.062421,-0.025282,0,4.8561e-05,0,0,0,0.034721,0.00098919,0.010713,0.015862,0.015475,0.030073,9.2042e-07,0.51,0.36,0
0.020413,0.0014168,0.034716,0.00092599,0.010693,-0.00010949,0,0,0.06246,-0.025393,0,-0.00056933,0,0,0,0.034716,0.00092564,0.010693,-0.18565,0.015445,0.030119,9.2194e-07,0.52,0.36,0
0.021038,0.0015166,0.034717,0.0008214,0.010662,-0.00019702,0,0,0.062544,-0.025584,0,-0.0010245,0,0,0,0.034718,0.00082025,0.010662,-0.33302,0.0154,0.030205,9.2536e-07,0.53,0.36,0
0.021664,0.0016077,0.034709,0.00069205,0.01062,-0.00026174,0,0,0.06263,-0.025813,0,-0.001361,0,0,0,0.034711,0.00069004,0.01062,-0.44082,0.01534,0.030302,9.2875e-07,0.54,0.36,0
0.022291,0.0016915,0.03469,0.0005524,0.010573,-0.00030733,0,0,0.062705,-0.026053,0,-0.0015981,0,0,0,0.034693,0.00054964,0.010573,-0.51576,0.015272,0.030397,9.3156e-07,0.55,0.36,0
0.022918,0.0017691,0.034661,0.00041302,0.010522,-0.0003368,0,0,0.062761,-0.026284,0,-0.0017514,0,0,0,0.034665,0.00040971,0.010522,-0.56338,0.015199,0.030484,9.3347e-07,0.56,0.36,0
0.023546,0.0018414,0.034623,0.00028041,0.010471,-0.0003533,0,0,0.062795,-0.026495,0,-0.0018372,0,0,0,0.034626,0.00027678,0.010471,-0.58936,0.015125,0.030556,9.3433e-07,0.57,0.36,0
0.024174,0.0019092,0.034575,0.0001582,0.01042,-0.00035993,0,0,0.062804,-0.026681,0,-0.0018717,0,0,0,0.034579,0.00015444,0.01042,-0.59911,0.015051,0.030611,9.3411e-07,0.58,0.36,0
0.024802,0.0019732,0.03452,4.8086e-05,0.010371,-0.00035944,0,0,0.06279,-0.026838,0,-0.0018691,0,0,0,0.034524,4.4339e-05,0.010371,-0.59733,0.01498,0.03065,9.3286e-07,0.59,0.36,0
0.02543,0.0020339,0.034459,-4.9448e-05,0.010323,-0.00035412,0,0,0.062754,-0.026968,0,-0.0018414,0,0,0,0.034463,-5.3081e-05,0.010323,-0.58787,0.014911,0.030674,9.3072e-07,0.6,0.36,0
0.026057,0.0020917,0.034393,-0.00013469,0.010278,-0.00034581,0,0,0.062701,-0.027072,0,-0.0017982,0,0,0,0.034397,-0.00013816,0.010278,-0.57376,0.014845,0.030683,9.2781e-07,0.61,0.36,0
0.026684,0.0021468,0.034324,-0.00020841,0.010235,-0.00033594,0,0,0.062632,-0.027152,0,-0.0017469,0,0,0,0.034327,-0.00021168,0.010235,-0.55732,0.014783,0.03068,9.2429e-07,0.62,0.36,0
0.02731,0.0021995,0.034253,-0.00027161,0.010194,-0.00032559,0,0,0.062551,-0.027211,0,-0.0016931,0,0,0,0.034256,-0.00027468,0.010194,-0.54029,0.014725,0.030667,9.2031e-07,0.63,0.36,0
0.027935,0.00225,0.03418,-0.00032544,0.010156,-0.00031553,0,0,0.062462,-0.027253,0,-0.0016408,0,0,0,0.034183,-0.00032832,0.010156,-0.52388,0.01467,0.030645,9.1599e-07,0.64,0.36,0
0.028559,0.0022985,0.034108,-0.00037106,0.010121,-0.00030628,0,0,0.062366,-0.02728,0,-0.0015927,0,0,0,0.034111,-0.00037378,0.010121,-0.50892,0.014619,0.030617,9.1146e-07,0.65,0.36,0
0.029182,0.0023449,0.034036,-0.00040964,0.010088,-0.00029816,0,0,0.062266,-0.027294,0,-0.0015505,0,0,0,0.034039,-0.00041222,0.010088,-0.4959,0.014572,0.030584,9.0681e-07,0.66,0.36,0
0.029804,0.0023894,0.033967,-0.00044226,0.010057,-0.00029133,0,0,0.062164,-0.027299,0,-0.0015149,0,0,0,0.033969,-0.00044473,0.010057,-0.48506,0.014527,0.030548,9.0214e-07,0.67,0.36,0
0.030426,0.002432,0.033899,-0.00046991,0.010029,-0.00028581,0,0,0.062063,-0.027296,0,-0.0014862,0,0,0,0.033901,-0.00047229,0.010029,-0.47643,0.014486,0.03051,8.9753e-07,0.68,0.36,0
0.031046,0.0024728,0.033834,-0.0004935,0.010002,-0.00028156,0,0,0.061962,-0.027289,0,-0.0014641,0,0,0,0.033836,-0.00049581,0.010002,-0.4699,0.014448,0.030471,8.9302e-07,0.69,0.36,0
0.031665,0.0025118,0.033772,-0.0005138,0.0099773,-0.00027842,0,0,0.061865,-0.027277,0,-0.0014478,0,0,0,0.033774,-0.00051607,0.0099773,-0.46523,0.014412,0.030432,8.8867e-07,0.7,0.36,0
0.032283,0.002549,0.033712,-0.00053152,0.0099543,-0.00027621,0,0,0.061771,-0.027263,0,-0.0014363,0,0,0,0.033715,-0.00053374,0.0099543,-0.46211,0.014378,0.030393,8.8451e-07,0.71,0.36,0
0.0329,0.0025844,0.033657,-0.00054721,0.0099329,-0.00027474,0,0,0.061682,-0.027248,0,-0.0014287,0,0,0,0.033659,-0.00054942,0.0099329,-0.46018,0.014347,0.030356,8.8057e-07,0.72,0.36,0
0.033517,0.0026181,0.033605,-0.00056138,0.0099129,-0.00027376,0,0,0.061598,-0.027233,0,-0.0014236,0,0,0,0.033607,-0.00056357,0.0099129,-0.45906,0.014319,0.030321,8.7687e-07,0.73,0.36,0
0.034132,0.0026501,0.033556,-0.0005744,0.0098944,-0.00027306,0,0,0.061519,-0.027219,0,-0.0014199,0,0,0,0.033558,-0.00057659,0.0098944,-0.45836,0.014292,0.030288,8.7341e-07,0.74,0.36,0
0.034747,0.0026804,0.03351,-0.00058661,0.0098771,-0.0002724,0,0,0.061446,-0.027206,0,-0.0014165,0,0,0,0.033512,-0.00058879,0.0098771,-0.4577,0.014267,0.030258,8.7021e-07,0.75,0.36,0
0.035361,0.002709,0.033468,-0.00059825,0.0098609,-0.00027157,0,0,0.061378,-0.027194,0,-0.0014122,0,0,0,0.03347,-0.00060041,0.0098609,-0.45671,0.014243,0.030229,8.6725e-07,0.76,0.36,0
0.035974,0.002736,0.033429,-0.00060949,0.0098459,-0.00027038,0,0,0.061316,-0.027184,0,-0.001406,0,0,0,0.033431,-0.00061164,0.0098459,-0.45508,0.014222,0.030204,8.6454e-07,0.77,0.36,0
0.036587,0.0027614,0.033393,-0.00062047,0.0098318,-0.00026865,0,0,0.06126,-0.027176,0,-0.001397,0,0,0,0.033395,-0.0006226,0.0098318,-0.45251,0.014202,0.030181,8.6207e-07,0.78,0.36,0
0.0372,0.0027852,0.03336,-0.00063129,0.0098187,-0.00026624,0,0,0.061208,-0.02717,0,-0.0013844,0,0,0,0.033362,-0.00063337,0.0098187,-0.44873,0.014183,0.03016,8.5982e-07,0.79,0.36,0
0.037812,0.0028075,0.03333,-0.00064197,0.0098065,-0.00026301,0,0,0.061162,-0.027166,0,-0.0013676,0,0,0,0.033332,-0.00064401,0.0098065,-0.44354,0.014165,0.030142,8.5779e-07,0.8,0.36,0
0.038423,0.0028284,0.033303,-0.00065256,0.0097951,-0.00025886,0,0,0.06112,-0.027164,0,-0.0013461,0,0,0,0.033305,-0.00065453,0.0097951,-0.43676,0.014148,0.030126,8.5596e-07,0.81,0.36,0
0.039034,0.0028478,0.033278,-0.00066303,0.0097845,-0.00025371,0,0,0.061083,-0.027164,0,-0.0013193,0,0,0,0.03328,-0.00066493,0.0097845,-0.42826,0.014133,0.030112,8.5432e-07,0.82,0.36,0
0.039645,0.0028659,0.033256,-0.00067337,0.0097747,-0.00024751,0,0,0.06105,-0.027165,0,-0.001287,0,0,0,0.033257,-0.00067518,0.0097747,-0.41794,0.014119,0.0301,8.5285e-07,0.83,0.36,0
0.040255,0.0028826,0.033235,-0.00068354,0.0097655,-0.00024021,0,0,0.061021,-0.027168,0,-0.0012491,0,0,0,0.033237,-0.00068524,0.0097655,-0.40573,0.014106,0.03009,8.5155e-07,0.84,0.36,0
0.040865,0.002898,0.033217,-0.00069349,0.009757,-0.00023179,0,0,0.060996,-0.027171,0,-0.0012053,0,0,0,0.033218,-0.00069508,0.009757,-0.39161,0.014094,0.030082,8.504e-07,0.85,0.36,0
0.041475,0.0029122,0.0332,-0.00070316,0.0097492,-0.00022226,0,0,0.060973,-0.027176,0,-0.0011557,0,0,0,0.033202,-0.00070462,0.0097492,-0.37559,0.014082,0.030075,8.4938e-07,0.86,0.36,0
0.042084,0.0029252,0.033186,-0.0007125,0.009742,-0.00021163,0,0,0.060954,-0.027182,0,-0.0011005,0,0,0,0.033187,-0.00071382,0.009742,-0.35768,0.014072,0.030069,8.4848e-07,0.87,0.36,0
0.042694,0.002937,0.033173,-0.00072144,0.0097353,-0.00019993,0,0,0.060937,-0.027188,0,-0.0010396,0,0,0,0.033174,-0.00072262,0.0097353,-0.33796,0.014062,0.030064,8.477e-07,0.88,0.36,0
0.043303,0.0029477,0.033161,-0.00072993,0.0097293,-0.00018721,0,0,0.060922,-0.027194,0,-0.00097347,0,0,0,0.033162,-0.00073096,0.0097293,-0.31648,0.014053,0.03006,8.4701e-07,0.89,0.36,0
0.043912,0.0029574,0.033151,-0.00073789,0.0097238,-0.00017351,0,0,0.06091,-0.0272,0,-0.00090224,0,0,0,0.033152,-0.00073878,0.0097238,-0.29334,0.014046,0.030057,8.4642e-07,0.9,0.36,0
0.044521,0.002966,0.033142,-0.00074528,0.0097189,-0.0001589,0,0,0.060899,-0.027207,0,-0.00082627,0,0,0,0.033142,-0.00074603,0.0097189,-0.26866,0.014038,0.030055,8.4591e-07,0.91,0.36,0
0.04513,0.0029736,0.033134,-0.00075204,0.0097145,-0.00014345,0,0,0.06089,-0.027213,0,-0.00074594,0,0,0,0.033134,-0.00075265,0.0097145,-0.24255,0.014032,0.030053,8.4548e-07,0.92,0.36,0
0.045739,0.0029802,0.033127,-0.00075813,0.0097107,-0.00012724,0,0,0.060883,-0.027219,0,-0.00066165,0,0,0,0.033128,-0.0007586,0.0097107,-0.21515,0.014027,0.030052,8.4511e-07,0.93,0.36,0
0.046348,0.0029859,0.033121,-0.00076349,0.0097074,-0.00011035,0,0,0.060877,-0.027224,0,-0.00057384,0,0,0,0.033122,-0.00076385,0.0097074,-0.18659,0.014022,0.030051,8.448e-07,0.94,0.36,0
0.046957,0.0029907,0.033117,-0.0007681,0.0097046,-9.2878e-05,0,0,0.060872,-0.027229,0,-0.00048296,0,0,0,0.033117,-0.00076835,0.0097046,-0.15704,0.014018,0.03005,8.4455e-07,0.95,0.36,0
0.047565,0.0029946,0.033113,-0.00077191,0.0097023,-7.4905e-05,0,0,0.060868,-0.027233,0,-0.00038951,0,0,0,0.033113,-0.00077208,0.0097023,-0.12666,0.014014,0.03005,8.4435e-07,0.96,0.36,0
0.048174,0.0029976,0.03311,-0.0007749,0.0097006,-5.6532e-05,0,0,0.060865,-0.027236,0,-0.00029397,0,0,0,0.03311,-0.000775,0.0097006,-0.09559,0.014012,0.03005,8.442e-07,0.97,0.36,0
0.048783,0.0029997,0.033108,-0.00077706,0.0096993,-3.7857e-05,0,0,0.060863,-0.027238,0,-0.00019686,0,0,0,0.033108,-0.0007771,0.0096993,-0.064012,0.01401,0.030049,8.4409e-07,0.98,0.36,0
0.049391,0.003001,0.033107,-0.00077836,0.0096985,-1.8979e-05,0,0,0.060861,-0.02724,0,-9.8693e-05,0,0,0,0.033107,-0.00077837,0.0096985,-0.032092,0.014009,0.030049,8.4403e-07,0.99,0.36,0
0.05,0.0030014,0.033106,-0.00077879,0.0096983,8.1537e-06,0,0,0.060861,-0.02724,0,4.2399e-05,0,0,0,0.033106,-0.00077879,0.0096983,0.013787,0.014009,0.030049,8.4401e-07,1,0.36,0
0,0,0.03687,0.015801,0.015801,0.0017272,0,0,0.054779,1.6263e-19,0,0.0089815,0,0,0,0.037011,0.015661,0.015801,4.6557,0.022824,0.02128,4.9485e-07,0,0.37,0
0.00054778,8.9815e-05,0.036801,0.015072,0.015562,0.001736,0,0,0.055222,-0.0012743,0,0.009027,0,0,0,0.036939,0.014934,0.015562,4.539,0.022478,0.021698,5.2317e-07,0.01,0.37,0
0.0011044,0.00018808,0.037063,0.014591,0.015496,0.0018204,0,0,0.056074,-0.0023536,0,0.0094658,0,0,0,0.037209,0.014444,0.015496,4.6013,0.022383,0.022258,5.6207e-07,0.02,0.37,0
0.0016693,0.00029469,0.037338,0.014199,0.015461,0.0019068,0,0,0.05688,-0.0032814,0,0.0099152,0,0,0,0.037494,0.014043,0.015461,4.6794,0.022333,0.022775,5.9882e-07,0.03,0.37,0
0.002242,0.00041014,0.037662,0.0139,0.015469,0.0020137,0,0,0.057703,-0.0040782,0,0.010471,0,0,0,0.037831,0.013731,0.015469,4.8098,0.022344,0.02328,6.3587e-07,0.04,0.37,0
0.0028233,0.00053599,0.038113,0.013725,0.015551,0.0021613,0,0,0.05866,-0.0047489,0,0.011239,0,0,0,0.038303,0.013535,0.015551,5.0253,0.022463,0.023824,6.7775e-07,0.05,0.37,0
0.0034152,0.00067463,0.038843,0.013776,0.015786,0.002468,0,0,0.059948,-0.0052241,0,0.012834,0,0,0,0.039083,0.013536,0.015786,5.5701,0.022801,0.0245,7.3388e-07,0.06,0.37,0
0.0040223,0.00083881,0.03812,0.012471,0.015177,0.0023266,0,0,0.045001,-0.0046916,0,0.0096367,0,0,0,0.038338,0.012253,0.015177,5.1546,0.021923,0.024763,7.4056e-07,0.07,0.37,0
0.0043153,0.00090874,0.038728,0.013486,0.015664,0.0032727,0,0,0.029983,-0.0028314,0,0.0085091,0,0,0,0.039145,0.013069,0.015664,7.2687,0.022626,0.02488,7.621e-07,0.08,0.37,0
0.0046219,0.00094206,0.038912,0.012674,0.015476,0.0027044,0,0,0.030467,-0.0036422,0,0.0070314,0,0,0,0.039188,0.012398,0.015476,5.824,0.022354,0.025391,7.9924e-07,0.09,0.37,0
0.0049246,0.00097414,0.038333,0.012108,0.015132,0.0025801,0,0,0.030161,-0.0039313,0,0.0067082,0,0,0,0.038584,0.011857,0.015132,5.5659,0.021858,0.02525,7.8006e-07,0.1,0.37,0
0.0052251,0.0010016,0.037958,0.011494,0.014836,0.0023437,0,0,0.030059,-0.0043443,0,0.0060936,0,0,0,0.038164,0.011288,0.014836,5.022,0.021429,0.02529,7.7589e-07,0.11,0.37,0
0.0055258,0.001024,0.037756,0.010822,0.014574,0.0021294,0,0,0.030138,-0.0048766,0,0.0055365,0,0,0,0.037924,0.010655,0.014574,4.4927,0.021051,0.025536,7.8775e-07,0.12,0.37,0
0.0058279,0.0010416,0.037643,0.010161,0.014341,0.0019494,0,0,0.030293,-0.0054348,0,0.0050684,0,0,0,0.037781,0.010023,0.014341,4.0371,0.020715,0.025871,8.064e-07,0.13,0.37,0
0.0061317,0.0010553,0.037551,0.0095083,0.014118,0.0017984,0,0,0.030463,-0.0059922,0,0.0046759,0,0,0,0.037666,0.0093934,0.014118,3.6546,0.020392,0.026231,8.2654e-07,0.14,0.37,0
0.0064371,0.0010656,0.037463,0.0088731,0.013901,0.0016664,0,0,0.030631,-0.0065361,0,0.0043326,0,0,0,0.03756,0.0087763,0.013901,3.3245,0.020079,0.026594,8.4639e-07,0.15,0.37,0
0.0067443,0.001073,0.037374,0.0082583,0.01369,0.0015491,0,0,0.03079,-0.0070609,0,0.0040276,0,0,0,0.037456,0.0081761,0.01369,3.0369,0.019774,0.02695,8.6516e-07,0.16,0.37,0
0.0070529,0.0010777,0.037282,0.0076683,0.013485,0.0014434,0,0,0.030936,-0.0075619,0,0.0037528,0,0,0,0.037352,0.0075981,0.013485,2.7839,0.019478,0.027291,8.8243e-07,0.17,0.37,0
0.007363,0.0010802,0.037186,0.0071051,0.013287,0.0013464,0,0,0.031068,-0.0080368,0,0.0035006,0,0,0,0.037246,0.007045,0.013287,2.5577,0.019193,0.027614,8.9798e-07,0.18,0.37,0
0.0076743,0.0010806,0.037086,0.0065683,0.013096,0.001255,0,0,0.031186,-0.0084862,0,0.0032631,0,0,0,0.037137,0.0065168,0.013096,2.351,0.018917,0.027918,9.1179e-07,0.19,0.37,0
0.0079867,0.0010789,0.036982,0.0060556,0.012911,0.001167,0,0,0.031292,-0.0089125,0,0.0030341,0,0,0,0.037026,0.0060116,0.012911,2.1579,0.01865,0.028205,9.2405e-07,0.2,0.37,0
0.0083001,0.0010754,0.036878,0.0055633,0.012732,0.0010808,0,0,0.031389,-0.0093197,0,0.00281,0,0,0,0.036915,0.005526,0.012732,1.9744,0.018391,0.028478,9.3503e-07,0.21,0.37,0
0.0086145,0.0010701,0.036773,0.0050876,0.012558,0.00099599,0,0,0.03148,-0.0097119,0,0.0025896,0,0,0,0.036805,0.0050563,0.012558,1.7986,0.01814,0.028741,9.4505e-07,0.22,0.37,0
0.0089297,0.0010629,0.036671,0.0046248,0.012389,0.00091286,0,0,0.031567,-0.010093,0,0.0023734,0,0,0,0.036697,0.0045988,0.012389,1.6303,0.017895,0.028999,9.5444e-07,0.23,0.37,0
0.0092458,0.0010539,0.036573,0.0041715,0.012223,0.0008322,0,0,0.031655,-0.010467,0,0.0021637,0,0,0,0.036594,0.0041501,0.012223,1.4703,0.017656,0.029255,9.6346e-07,0.24,0.37,0
0.0095628,0.0010432,0.036479,0.003725,0.012061,0.00075509,0,0,0.031744,-0.010837,0,0.0019632,0,0,0,0.036497,0.0037076,0.012061,1.3199,0.017422,0.029513,9.7232e-07,0.25,0.37,0
0.0098807,0.0010307,0.036391,0.0032831,0.011902,0.00068272,0,0,0.031836,-0.011205,0,0.0017751,0,0,0,0.036406,0.003269,0.011902,1.1808,0.017192,0.029774,9.8119e-07,0.26,0.37,0
0.0102,0.0010165,0.03631,0.0028439,0.011746,0.00061628,0,0,0.031933,-0.011573,0,0.0016023,0,0,0,0.036321,0.0028326,0.011746,1.0546,0.016967,0.030041,9.9019e-07,0.27,0.37,0
0.010519,0.0010007,0.036235,0.0024061,0.011592,0.00055686,0,0,0.032036,-0.011942,0,0.0014478,0,0,0,0.036244,0.0023969,0.011592,0.9428,0.016744,0.030314,9.9944e-07,0.28,0.37,0
0.01084,0.00098326,0.036168,0.0019685,0.011441,0.00050537,0,0,0.032145,-0.012314,0,0.001314,0,0,0,0.036175,0.001961,0.011441,0.84642,0.016526,0.030597,1.009e-06,0.29,0.37,0
0.011162,0.00096424,0.03611,0.0015301,0.011292,0.00046252,0,0,0.032263,-0.01269,0,0.0012026,0,0,0,0.036116,0.0015239,0.011292,0.76619,0.01631,0.030889,1.019e-06,0.3,0.37,0
0.011485,0.00094367,0.036061,0.0010903,0.011145,0.00042871,0,0,0.03239,-0.013072,0,0.0011146,0,0,0,0.036066,0.001085,0.011145,0.70226,0.016099,0.031192,1.0296e-06,0.31,0.37,0
0.01181,0.00092158,0.036024,0.00064826,0.011002,0.00040383,0,0,0.032529,-0.013459,0,0.00105,0,0,0,0.036028,0.00064365,0.011002,0.65394,0.015891,0.03151,1.0409e-06,0.32,0.37,0
0.012136,0.00089792,0.036001,0.00020364,0.010861,0.000387,0,0,0.032681,-0.013855,0,0.0010062,0,0,0,0.036005,0.00019946,0.010861,0.61933,0.015689,0.031843,1.0533e-06,0.33,0.37,0
0.012464,0.00087261,0.035996,-0.00024377,0.010726,0.0003761,0,0,0.032851,-0.01426,0,0.00097786,0,0,0,0.036,-0.00024767,0.010726,0.59454,0.015493,0.032196,1.0669e-06,0.34,0.37,0
0.012793,0.00084547,0.036014,-0.00069331,0.010596,0.00036685,0,0,0.033043,-0.014677,0,0.00095382,0,0,0,0.036018,-0.00069698,0.010596,0.57253,0.015306,0.032571,1.0823e-06,0.35,0.37,0
0.013125,0.00081615,0.036061,-0.0011424,0.010476,0.00035158,0,0,0.033261,-0.015103,0,0.00091412,0,0,0,0.036064,-0.0011457,0.010476,0.5414,0.015131,0.032973,1.0999e-06,0.36,0.37,0
0.013458,0.00078411,0.03614,-0.0015838,0.010367,0.00031757,0,0,0.033505,-0.015536,0,0.00082567,0,0,0,0.036143,-0.0015865,0.010367,0.48228,0.014974,0.033397,1.1199e-06,0.37,0.37,0
0.013795,0.00074852,0.036248,-0.0020003,0.010274,0.00024625,0,0,0.033766,-0.015957,0,0.00064025,0,0,0,0.03625,-0.0020019,0.010274,0.36886,0.014841,0.033828,1.1417e-06,0.38,0.37,0
0.014134,0.00070824,0.036366,-0.0023518,0.010204,0.00011903,0,0,0.034011,-0.016323,0,0.00030947,0,0,0,0.036367,-0.0023522,0.010204,0.17614,0.01474,0.034215,1.1624e-06,0.39,0.37,0
0.014475,0.00066207,0.036471,-0.0025517,0.010176,-6.7123e-05,0,0,0.034184,-0.016546,0,-0.00017452,0,0,0,0.036471,-0.0025518,0.010176,-0.098555,0.014698,0.034469,1.1778e-06,0.4,0.37,0
0.014817,0.00060929,0.036515,-0.0025161,0.0102,-0.00026336,0,0,0.03421,-0.016531,0,-0.00068475,0,0,0,0.036517,-0.0025179,0.0102,-0.38658,0.014733,0.034482,1.1811e-06,0.41,0.37,0
0.015159,0.00055106,0.036543,-0.0021389,0.010321,-0.00040283,0,0,0.034088,-0.016198,0,-0.0010474,0,0,0,0.036547,-0.0021431,0.010321,-0.5966,0.014908,0.034206,1.1735e-06,0.42,0.37,0
0.015499,0.00048976,0.036376,-0.001674,0.010411,-0.00033705,0,0,0.033755,-0.01571,0,-0.00087632,0,0,0,0.036379,-0.0016769,0.010411,-0.50747,0.015038,0.033681,1.1444e-06,0.43,0.37,0
0.015834,0.00043222,0.036308,-0.00098078,0.010598,-0.00022296,0,0,0.033423,-0.015053,0,-0.00057971,0,0,0,0.03631,-0.00098211,0.010598,-0.34258,0.015309,0.033059,1.1173e-06,0.44,0.37,0
0.016168,0.00037951,0.035064,-0.0011171,0.010184,0.00061624,0,0,0.032344,-0.014691,0,0.0016022,0,0,0,0.035075,-0.0011276,0.010184,0.97549,0.01471,0.032079,1.0122e-06,0.45,0.37,0
0.016481,0.00036267,0.034409,-0.0020186,0.0097173,0.0002377,0,0,0.048524,-0.020342,0,0.0027784,0,0,0,0.034469,-0.0020779,0.0097173,0.58011,0.014036,0.032426,9.2668e-07,0.46,0.37,0
0.017138,0.00046309,0.03533,-0.00058562,0.010423,7.3915e-05,0,0,0.064758,-0.028623,0,0.00038436,0,0,0,0.03533,-0.00058577,0.010423,0.11791,0.015056,0.031871,1.0186e-06,0.47,0.37,0
0.017776,0.00063285,0.035051,-1.4961e-05,0.010511,0.00071053,0,0,0.063805,-0.027367,0,0.0036947,0,0,0,0.035065,-2.9352e-05,0.010511,1.1603,0.015182,0.03119,9.7966e-07,0.48,0.37,0
0.018414,0.00078918,0.035258,0.0010124,0.010881,0.00043198,0,0,0.06338,-0.025659,0,0.0022463,0,0,0,0.035264,0.001007,0.010881,0.72258,0.015717,0.030541,9.6415e-07,0.49,0.37,0
0.019044,0.00093116,0.035071,0.0011273,0.01086,0.00019354,0,0,0.062951,-0.025304,0,0.0010064,0,0,0,0.035072,0.0011262,0.01086,0.32667,0.015686,0.030277,9.4459e-07,0.5,0.37,0
0.019673,0.0010537,0.035067,0.0010952,0.010849,1.3972e-05,0,0,0.062967,-0.025359,0,7.2654e-05,0,0,0,0.035067,0.0010952,0.010849,0.023565,0.01567,0.030296,9.4511e-07,0.51,0.37,0
0.020303,0.0011625,0.035066,0.0010202,0.010826,-9.5503e-05,0,0,0.063025,-0.025495,0,-0.00049661,0,0,0,0.035067,0.0010199,0.010826,-0.16072,0.015637,0.030356,9.4749e-07,0.52,0.37,0
0.020934,0.0012603,0.035037,0.00089594,0.01078,-0.000176,0,0,0.063069,-0.025698,0,-0.00091522,0,0,0,0.035038,0.00089503,0.01078,-0.29536,0.015571,0.03043,9.4908e-07,0.53,0.37,0
0.021565,0.001349,0.034998,0.00074436,0.010723,-0.00023402,0,0,0.063116,-0.025944,0,-0.0012169,0,0,0,0.035,0.00074276,0.010723,-0.39142,0.015488,0.030516,9.5067e-07,0.54,0.37,0
0.022196,0.0014303,0.034954,0.00058558,0.010662,-0.00027161,0,0,0.063159,-0.026198,0,-0.0014124,0,0,0,0.034956,0.00058343,0.010662,-0.45276,0.0154,0.030604,9.5201e-07,0.55,0.37,0
0.022828,0.0015055,0.034904,0.00043121,0.010601,-0.00029233,0,0,0.063188,-0.02644,0,-0.0015201,0,0,0,0.034906,0.00042873,0.010601,-0.48583,0.015312,0.030683,9.5263e-07,0.56,0.37,0
0.02346,0.0015757,0.034846,0.00028752,0.01054,-0.00030039,0,0,0.063196,-0.026657,0,-0.001562,0,0,0,0.034849,0.00028491,0.01054,-0.49797,0.015225,0.030747,9.5226e-07,0.57,0.37,0
0.024092,0.0016416,0.034782,0.00015751,0.010482,-0.00029956,0,0,0.06318,-0.026843,0,-0.0015577,0,0,0,0.034785,0.00015492,0.010482,-0.49566,0.01514,0.030793,9.5086e-07,0.58,0.37,0
0.024723,0.0017041,0.034712,4.2262e-05,0.010426,-0.00029294,0,0,0.063142,-0.026998,0,-0.0015233,0,0,0,0.034714,3.9787e-05,0.010426,-0.48408,0.01506,0.030823,9.4848e-07,0.59,0.37,0
0.025354,0.0017634,0.034637,-5.8338e-05,0.010374,-0.00028293,0,0,0.063084,-0.027123,0,-0.0014712,0,0,0,0.034639,-6.0645e-05,0.010374,-0.46719,0.014984,0.030836,9.4526e-07,0.6,0.37,0
0.025985,0.0018202,0.034558,-0.00014507,0.010324,-0.00027133,0,0,0.063009,-0.027219,0,-0.0014109,0,0,0,0.03456,-0.00014719,0.010324,-0.44793,0.014912,0.030835,9.4134e-07,0.61,0.37,0
0.026615,0.0018746,0.034478,-0.0002191,0.010278,-0.00025947,0,0,0.06292,-0.027291,0,-0.0013493,0,0,0,0.03448,-0.00022104,0.010278,-0.42845,0.014845,0.030823,9.3689e-07,0.62,0.37,0
0.027243,0.0019267,0.034396,-0.00028178,0.010234,-0.0002483,0,0,0.062821,-0.027342,0,-0.0012912,0,0,0,0.034398,-0.00028356,0.010234,-0.41023,0.014783,0.0308,9.3204e-07,0.63,0.37,0
0.027871,0.0019769,0.034315,-0.00033454,0.010194,-0.00023844,0,0,0.062714,-0.027374,0,-0.0012399,0,0,0,0.034316,-0.00033618,0.010194,-0.39426,0.014725,0.03077,9.2694e-07,0.64,0.37,0
0.028498,0.0020251,0.034235,-0.00037876,0.010157,-0.00023026,0,0,0.062603,-0.027392,0,-0.0011973,0,0,0,0.034236,-0.00038029,0.010157,-0.38112,0.014671,0.030734,9.217e-07,0.65,0.37,0
0.029123,0.0020714,0.034156,-0.00041578,0.010122,-0.00022393,0,0,0.062489,-0.027399,0,-0.0011644,0,0,0,0.034158,-0.00041723,0.010122,-0.37109,0.014621,0.030694,9.1643e-07,0.66,0.37,0
0.029747,0.0021159,0.03408,-0.00044682,0.01009,-0.00021947,0,0,0.062375,-0.027396,0,-0.0011412,0,0,0,0.034082,-0.00044822,0.01009,-0.36417,0.014575,0.030651,9.1121e-07,0.67,0.37,0
0.030371,0.0021586,0.034008,-0.00047298,0.01006,-0.00021679,0,0,0.062262,-0.027387,0,-0.0011273,0,0,0,0.034009,-0.00047434,0.01006,-0.36022,0.014532,0.030607,9.0611e-07,0.68,0.37,0
0.030993,0.0021995,0.033938,-0.00049524,0.010033,-0.00021571,0,0,0.062153,-0.027373,0,-0.0011217,0,0,0,0.033939,-0.00049659,0.010033,-0.35892,0.014492,0.030563,9.0119e-07,0.69,0.37,0
0.031614,0.0022386,0.033872,-0.00051443,0.010007,-0.000216,0,0,0.062048,-0.027356,0,-0.0011232,0,0,0,0.033873,-0.00051578,0.010007,-0.35988,0.014455,0.03052,8.9649e-07,0.7,0.37,0
0.032234,0.002276,0.03381,-0.00053126,0.0099835,-0.00021738,0,0,0.061948,-0.027339,0,-0.0011304,0,0,0,0.033811,-0.00053264,0.0099835,-0.36267,0.014421,0.030478,8.9204e-07,0.71,0.37,0
0.032853,0.0023115,0.033751,-0.00054634,0.0099615,-0.00021957,0,0,0.061854,-0.02732,0,-0.0011418,0,0,0,0.033753,-0.00054775,0.0099615,-0.36678,0.014389,0.030438,8.8787e-07,0.72,0.37,0
0.033471,0.0023454,0.033697,-0.00056015,0.009941,-0.00022227,0,0,0.061765,-0.027303,0,-0.0011558,0,0,0,0.033698,-0.00056159,0.009941,-0.37174,0.014359,0.030401,8.8398e-07,0.73,0.37,0
0.034088,0.0023775,0.033646,-0.00057307,0.009922,-0.00022521,0,0,0.061684,-0.027287,0,-0.0011711,0,0,0,0.033648,-0.00057456,0.009922,-0.37707,0.014332,0.030367,8.8037e-07,0.74,0.37,0
0.034704,0.0024079,0.0336,-0.00058542,0.0099043,-0.00022812,0,0,0.061608,-0.027273,0,-0.0011862,0,0,0,0.033601,-0.00058694,0.0099043,-0.38231,0.014306,0.030335,8.7706e-07,0.75,0.37,0
0.03532,0.0024367,0.033557,-0.0005974,0.0098877,-0.00023074,0,0,0.061539,-0.027261,0,-0.0011998,0,0,0,0.033558,-0.00059896,0.0098877,-0.38706,0.014282,0.030306,8.7403e-07,0.76,0.37,0
0.035935,0.0024638,0.033517,-0.00060919,0.0098723,-0.00023286,0,0,0.061476,-0.027252,0,-0.0012109,0,0,0,0.033518,-0.00061078,0.0098723,-0.39094,0.01426,0.030281,8.7127e-07,0.77,0.37,0
0.03655,0.0024893,0.033481,-0.00062089,0.0098579,-0.00023429,0,0,0.061419,-0.027245,0,-0.0012183,0,0,0,0.033482,-0.0006225,0.0098579,-0.39362,0.014239,0.030258,8.6877e-07,0.78,0.37,0
0.037164,0.0025131,0.033448,-0.00063256,0.0098445,-0.00023487,0,0,0.061368,-0.02724,0,-0.0012213,0,0,0,0.033449,-0.00063418,0.0098445,-0.39483,0.01422,0.030238,8.6652e-07,0.79,0.37,0
0.037777,0.0025355,0.033417,-0.00064423,0.009832,-0.00023445,0,0,0.061322,-0.027238,0,-0.0012191,0,0,0,0.033419,-0.00064584,0.009832,-0.39434,0.014202,0.030221,8.645e-07,0.8,0.37,0
0.03839,0.0025564,0.03339,-0.00065588,0.0098203,-0.00023293,0,0,0.061282,-0.027238,0,-0.0012113,0,0,0,0.033392,-0.00065747,0.0098203,-0.39198,0.014185,0.030205,8.627e-07,0.81,0.37,0
0.039003,0.0025758,0.033365,-0.00066748,0.0098094,-0.00023024,0,0,0.061246,-0.02724,0,-0.0011972,0,0,0,0.033367,-0.00066904,0.0098094,-0.38759,0.014169,0.030193,8.6109e-07,0.82,0.37,0
0.039615,0.0025938,0.033343,-0.000679,0.0097992,-0.00022631,0,0,0.061214,-0.027243,0,-0.0011768,0,0,0,0.033345,-0.00068051,0.0097992,-0.38111,0.014154,0.030182,8.5967e-07,0.83,0.37,0
0.040227,0.0026105,0.033323,-0.00069037,0.0097898,-0.00022113,0,0,0.061186,-0.027248,0,-0.0011499,0,0,0,0.033324,-0.00069181,0.0097898,-0.37247,0.014141,0.030173,8.5842e-07,0.84,0.37,0
0.040839,0.0026259,0.033305,-0.00070152,0.009781,-0.00021466,0,0,0.061162,-0.027255,0,-0.0011163,0,0,0,0.033306,-0.00070288,0.009781,-0.36166,0.014128,0.030166,8.5732e-07,0.85,0.37,0
0.04145,0.00264,0.033289,-0.00071238,0.009773,-0.00020694,0,0,0.061141,-0.027262,0,-0.0010761,0,0,0,0.03329,-0.00071364,0.009773,-0.34869,0.014117,0.03016,8.5635e-07,0.86,0.37,0
0.042062,0.0026529,0.033274,-0.00072288,0.0097655,-0.00019797,0,0,0.061123,-0.02727,0,-0.0010294,0,0,0,0.033276,-0.00072404,0.0097655,-0.33363,0.014106,0.030156,8.5551e-07,0.87,0.37,0
0.042673,0.0026647,0.033262,-0.00073294,0.0097586,-0.00018781,0,0,0.061108,-0.027278,0,-0.00097659,0,0,0,0.033263,-0.00073398,0.0097586,-0.31652,0.014096,0.030152,8.5478e-07,0.88,0.37,0
0.043284,0.0026753,0.03325,-0.00074248,0.0097524,-0.00017649,0,0,0.061095,-0.027287,0,-0.00091777,0,0,0,0.033251,-0.0007434,0.0097524,-0.29747,0.014087,0.03015,8.5415e-07,0.89,0.37,0
0.043895,0.0026849,0.03324,-0.00075145,0.0097467,-0.0001641,0,0,0.061084,-0.027295,0,-0.00085332,0,0,0,0.033241,-0.00075224,0.0097467,-0.27659,0.014079,0.030148,8.536e-07,0.9,0.37,0
0.044505,0.0026934,0.033232,-0.00075976,0.0097416,-0.0001507,0,0,0.061074,-0.027304,0,-0.00078364,0,0,0,0.033232,-0.00076043,0.0097416,-0.25401,0.014071,0.030146,8.5314e-07,0.91,0.37,0
0.045116,0.002701,0.033224,-0.00076737,0.0097371,-0.00013637,0,0,0.061067,-0.027311,0,-0.00070914,0,0,0,0.033225,-0.00076792,0.0097371,-0.22986,0.014065,0.030146,8.5275e-07,0.92,0.37,0
0.045727,0.0027075,0.033218,-0.00077421,0.0097331,-0.00012121,0,0,0.06106,-0.027319,0,-0.00063029,0,0,0,0.033218,-0.00077464,0.0097331,-0.2043,0.014059,0.030145,8.5241e-07,0.93,0.37,0
0.046337,0.0027132,0.033212,-0.00078024,0.0097296,-0.0001053,0,0,0.061055,-0.027326,0,-0.00054757,0,0,0,0.033213,-0.00078057,0.0097296,-0.17749,0.014054,0.030145,8.5214e-07,0.94,0.37,0
0.046948,0.0027179,0.033208,-0.00078542,0.0097267,-8.8751e-05,0,0,0.061051,-0.027332,0,-0.00046151,0,0,0,0.033208,-0.00078565,0.0097267,-0.14959,0.01405,0.030145,8.5192e-07,0.95,0.37,0
0.047558,0.0027217,0.033204,-0.0007897,0.0097243,-7.1658e-05,0,0,0.061047,-0.027336,0,-0.00037262,0,0,0,0.033204,-0.00078985,0.0097243,-0.12078,0.014046,0.030145,8.5174e-07,0.96,0.37,0
0.048169,0.0027247,0.033201,-0.00079306,0.0097225,-5.4128e-05,0,0,0.061045,-0.027341,0,-0.00028147,0,0,0,0.033202,-0.00079315,0.0097225,-0.09123,0.014044,0.030145,8.5161e-07,0.97,0.37,0
0.048779,0.0027268,0.033199,-0.00079548,0.0097212,-3.6269e-05,0,0,0.061043,-0.027343,0,-0.0001886,0,0,0,0.033199,-0.00079552,0.0097212,-0.061129,0.014042,0.030145,8.5152e-07,0.98,0.37,0
0.04939,0.002728,0.033198,-0.00079694,0.0097204,-1.819e-05,0,0,0.061042,-0.027345,0,-9.4587e-05,0,0,0,0.033198,-0.00079695,0.0097204,-0.030657,0.014041,0.030145,8.5146e-07,0.99,0.37,0
0.05,0.0027284,0.033198,-0.00079742,0.0097201,8.0527e-06,0,0,0.061042,-0.027346,0,4.1874e-05,0,0,0,0.033198,-0.00079743,0.0097201,0.013572,0.01404,0.030145,8.5144e-07,1,0.37,0
0,0,0.036573,0.015674,0.015674,0.0014862,0,0,0.054336,-5.421e-20,0,0.0077282,0,0,0,0.036678,0.015569,0.015674,4.0474,0.02264,0.021056,4.7946e-07,0,0.38,0
0.00054336,7.7282e-05,0.036507,0.014982,0.015447,0.0014896,0,0,0.054757,-0.0012082,0,0.0077458,0,0,0,0.03661,0.01488,0.015447,3.94,0.022312,0.021452,5.0585e-07,0.01,0.38,0
0.0010951,0.00016483,0.036751,0.014512,0.015379,0.0015748,0,0,0.055567,-0.0022534,0,0.0081889,0,0,0,0.036861,0.014401,0.015379,4.0305,0.022214,0.021988,5.4234e-07,0.02,0.38,0
0.0016547,0.00026209,0.036995,0.014113,0.015332,0.0016476,0,0,0.056324,-0.0031716,0,0.0085677,0,0,0,0.037114,0.013994,0.015332,4.0973,0.022147,0.02248,5.7649e-07,0.03,0.38,0
0.0022216,0.00036941,0.037248,0.01378,0.015308,0.0017203,0,0,0.057043,-0.003974,0,0.0089457,0,0,0,0.037374,0.013654,0.015308,4.1704,0.022112,0.022937,6.0891e-07,0.04,0.38,0
0.0027956,0.00048787,0.037513,0.013528,0.015312,0.0018111,0,0,0.057722,-0.004639,0,0.0094176,0,0,0,0.037649,0.013392,0.015312,4.2939,0.022118,0.023356,6.3949e-07,0.05,0.38,0
0.0033761,0.00062145,0.037817,0.0134,0.015365,0.0019355,0,0,0.058375,-0.0051092,0,0.010065,0,0,0,0.037969,0.013248,0.015365,4.5043,0.022194,0.023734,6.6826e-07,0.06,0.38,0
0.0039631,0.00077869,0.042506,0.01356,0.01682,0.0013581,0,0,0.046548,-0.0054687,0,0.0051471,0,0,0,0.042571,0.013495,0.01682,2.7798,0.024295,0.02757,1.1691e-06,0.07,0.38,0
0.0043678,0.0008762,0.035157,0.012946,0.014431,0.0040541,0,0,0.037062,-0.002438,0,0.01522,0,0,0,0.035888,0.012214,0.014431,10.394,0.020844,0.022648,6.7844e-07,0.08,0.38,0
0.0046702,0.00090593,0.038565,0.012984,0.015464,0.0032975,0,0,0.03003,-0.0032251,0,0.0085734,0,0,0,0.038983,0.012565,0.015464,7.2282,0.022337,0.025094,7.7516e-07,0.09,0.38,0
0.0049684,0.00093592,0.038067,0.012472,0.015162,0.0028428,0,0,0.029777,-0.0034963,0,0.0073913,0,0,0,0.038379,0.01216,0.015162,6.2621,0.0219,0.024854,7.4992e-07,0.1,0.38,0
0.0052657,0.00095935,0.037812,0.0117,0.014854,0.0024839,0,0,0.029846,-0.0040997,0,0.006458,0,0,0,0.038047,0.011466,0.014854,5.3857,0.021455,0.025059,7.5864e-07,0.11,0.38,0
0.0055653,0.00097601,0.037746,0.011005,0.014625,0.0022251,0,0,0.030057,-0.0047066,0,0.0057853,0,0,0,0.03793,0.010821,0.014625,4.7242,0.021125,0.025421,7.8043e-07,0.12,0.38,0
0.0058669,0.00098792,0.037662,0.010315,0.014393,0.0020424,0,0,0.030249,-0.0053015,0,0.0053102,0,0,0,0.037813,0.010163,0.014393,4.2477,0.02079,0.025797,8.0237e-07,0.13,0.38,0
0.0061703,0.00099594,0.037573,0.0096491,0.014167,0.0018893,0,0,0.030428,-0.0058729,0,0.0049123,0,0,0,0.0377,0.0095218,0.014167,3.8532,0.020463,0.026167,8.2334e-07,0.14,0.38,0
0.0064754,0.0010008,0.037478,0.0089973,0.013943,0.0017569,0,0,0.030596,-0.0064288,0,0.004568,0,0,0,0.037586,0.0088893,0.013943,3.5167,0.020139,0.026533,8.4329e-07,0.15,0.38,0
0.0067822,0.0010028,0.037381,0.0083673,0.013725,0.0016416,0,0,0.030754,-0.0069645,0,0.0042681,0,0,0,0.037474,0.0082747,0.013725,3.228,0.019824,0.026892,8.6215e-07,0.16,0.38,0
0.0070905,0.0010026,0.037283,0.0077661,0.013515,0.0015401,0,0,0.030899,-0.0074733,0,0.0040041,0,0,0,0.037364,0.007686,0.013515,2.9786,0.019522,0.027235,8.7946e-07,0.17,0.38,0
0.0074002,0.0010003,0.037182,0.0071962,0.013314,0.0014477,0,0,0.031029,-0.0079524,0,0.003764,0,0,0,0.037252,0.0071265,0.013314,2.7576,0.019231,0.027558,8.9492e-07,0.18,0.38,0
0.0077111,0.0009961,0.037077,0.0066564,0.01312,0.0013599,0,0,0.031144,-0.0084029,0,0.0035357,0,0,0,0.037138,0.0065957,0.01312,2.5545,0.018951,0.027859,9.0852e-07,0.19,0.38,0
0.0080231,0.00099022,0.036971,0.0061427,0.012934,0.0012734,0,0,0.031248,-0.0088288,0,0.003311,0,0,0,0.037024,0.0060902,0.012934,2.3614,0.018683,0.028143,9.2054e-07,0.2,0.38,0
0.008336,0.00098263,0.036865,0.0056504,0.012755,0.0011867,0,0,0.031343,-0.0092354,0,0.0030853,0,0,0,0.03691,0.0056053,0.012755,2.174,0.018423,0.028413,9.3136e-07,0.21,0.38,0
0.0086499,0.00097335,0.036761,0.0051744,0.012581,0.0010992,0,0,0.031435,-0.0096282,0,0.002858,0,0,0,0.036799,0.0051362,0.012581,1.9907,0.018172,0.028675,9.4139e-07,0.22,0.38,0
0.0089647,0.00096235,0.036662,0.0047103,0.012412,0.0010118,0,0,0.031525,-0.010012,0,0.0026308,0,0,0,0.036694,0.0046783,0.012412,1.812,0.017928,0.028935,9.5099e-07,0.23,0.38,0
0.0092805,0.00094962,0.036568,0.0042545,0.012247,0.00092567,0,0,0.031618,-0.01039,0,0.0024068,0,0,0,0.036595,0.004228,0.012247,1.6395,0.01769,0.029195,9.6046e-07,0.24,0.38,0
0.0095971,0.00093516,0.036482,0.0038042,0.012086,0.00084218,0,0,0.031715,-0.010766,0,0.0021897,0,0,0,0.036503,0.0037826,0.012086,1.4753,0.017457,0.02946,9.7001e-07,0.25,0.38,0
0.0099147,0.00091896,0.036403,0.0033572,0.011928,0.00076276,0,0,0.031817,-0.011142,0,0.0019832,0,0,0,0.03642,0.0033396,0.011928,1.3216,0.017229,0.029732,9.798e-07,0.26,0.38,0
0.010233,0.00090105,0.036332,0.0029118,0.011773,0.0006887,0,0,0.031927,-0.01152,0,0.0017906,0,0,0,0.036346,0.0028976,0.011773,1.18,0.017006,0.030012,9.8996e-07,0.27,0.38,0
0.010553,0.00088146,0.036271,0.0024668,0.011621,0.00062106,0,0,0.032044,-0.011901,0,0.0016148,0,0,0,0.036282,0.0024554,0.011621,1.0522,0.016786,0.030302,1.0006e-06,0.28,0.38,0
0.010874,0.00086022,0.036219,0.0020212,0.011472,0.00056063,0,0,0.032171,-0.012286,0,0.0014577,0,0,0,0.036228,0.0020121,0.011472,0.93896,0.016571,0.030603,1.0118e-06,0.29,0.38,0
0.011197,0.00083736,0.036178,0.0015746,0.011326,0.00050785,0,0,0.032308,-0.012677,0,0.0013204,0,0,0,0.036186,0.0015671,0.011326,0.84063,0.01636,0.030917,1.0236e-06,0.3,0.38,0
0.01152,0.0008129,0.03615,0.0011264,0.011183,0.00046266,0,0,0.032457,-0.013073,0,0.0012029,0,0,0,0.036156,0.0011203,0.011183,0.7567,0.016153,0.031244,1.0362e-06,0.31,0.38,0
0.011846,0.00078684,0.036135,0.00067668,0.011043,0.00042438,0,0,0.032619,-0.013477,0,0.0011034,0,0,0,0.03614,0.0006716,0.011043,0.68562,0.015952,0.031586,1.0498e-06,0.32,0.38,0
0.012173,0.00075914,0.036136,0.00022588,0.010908,0.00039141,0,0,0.032796,-0.013888,0,0.0010177,0,0,0,0.03614,0.00022162,0.010908,0.62441,0.015757,0.031945,1.0645e-06,0.33,0.38,0
0.012502,0.00072969,0.036156,-0.00022474,0.010779,0.00036076,0,0,0.03299,-0.014306,0,0.00093798,0,0,0,0.03616,-0.00022832,0.010779,0.56808,0.01557,0.032322,1.0805e-06,0.34,0.38,0
0.012833,0.00069832,0.036199,-0.00067239,0.010658,0.00032753,0,0,0.033203,-0.014729,0,0.00085158,0,0,0,0.036201,-0.0006753,0.010658,0.50892,0.015395,0.032717,1.0982e-06,0.35,0.38,0
0.013166,0.00066472,0.036264,-0.0011112,0.010546,0.00028432,0,0,0.033434,-0.015154,0,0.00073924,0,0,0,0.036266,-0.0011134,0.010546,0.43583,0.015233,0.033127,1.1173e-06,0.36,0.38,0
0.013501,0.00062842,0.036352,-0.0015297,0.010447,0.00022121,0,0,0.033677,-0.015569,0,0.00057516,0,0,0,0.036353,-0.001531,0.010447,0.33457,0.01509,0.03354,1.1377e-06,0.37,0.38,0
0.013839,0.00058883,0.036453,-0.001906,0.010364,0.00012785,0,0,0.033915,-0.015951,0,0.00033241,0,0,0,0.036453,-0.0019064,0.010364,0.19097,0.01497,0.033931,1.1579e-06,0.38,0.38,0
0.01418,0.00054526,0.036551,-0.0022014,0.010305,-5.6307e-07,0,0,0.03412,-0.016258,0,-1.464e-06,0,0,0,0.036551,-0.0022014,0.010305,-0.0008325,0.014885,0.034257,1.1756e-06,0.39,0.38,0
0.014522,0.00049718,0.036622,-0.0023651,0.010277,-0.00015083,0,0,0.034249,-0.016435,0,-0.00039215,0,0,0,0.036623,-0.0023657,0.010277,-0.22165,0.014845,0.034453,1.187e-06,0.4,0.38,0
0.014865,0.0004447,0.036653,-0.0023391,0.010294,-0.00028655,0,0,0.034266,-0.016423,0,-0.00074504,0,0,0,0.036655,-0.0023412,0.010294,-0.42104,0.014869,0.034462,1.1894e-06,0.41,0.38,0
0.015207,0.00038893,0.036604,-0.0021357,0.010341,-0.00033499,0,0,0.034142,-0.016219,0,-0.00087098,0,0,0,0.036607,-0.0021386,0.010341,-0.4954,0.014936,0.034255,1.1791e-06,0.42,0.38,0
0.015548,0.00033272,0.036505,-0.0017658,0.010422,-0.00024678,0,0,0.033908,-0.015844,0,-0.00064163,0,0,0,0.036506,-0.0017674,0.010422,-0.36944,0.015053,0.033866,1.1589e-06,0.43,0.38,0
0.015885,0.00027916,0.036148,-0.0015329,0.010384,0.00013649,0,0,0.033492,-0.015493,0,0.00035487,0,0,0,0.036148,-0.0015333,0.010384,0.20753,0.015,0.03336,1.1189e-06,0.44,0.38,0
0.016217,0.00023597,0.03629,-0.0012007,0.010527,0.0003749,0,0,0.033492,-0.015246,0,0.00097475,0,0,0,0.036293,-0.0012045,0.010527,0.57288,0.015205,0.033224,1.1225e-06,0.45,0.38,0
0.016555,0.00018166,0.031966,-0.00040051,0.0094697,0.0016377,0,0,0.040038,-0.017356,0,0.0062517,0,0,0,0.032053,-0.00048699,0.0094697,3.0631,0.013678,0.028879,9.1204e-07,0.46,0.38,0
0.016987,0.00018742,0.039544,-0.0006912,0.011656,0.00018142,0,0,0.050925,-0.022283,0,0.00078329,0,0,0,0.039545,-0.00069225,0.011656,0.28654,0.016836,0.035704,1.5825e-06,0.47,0.38,0
0.017651,0.00035579,0.035708,0.0001569,0.01076,0.0003391,0,0,0.064867,-0.027567,0,0.0017633,0,0,0,0.035712,0.00015367,0.01076,0.54643,0.015542,0.031619,1.0291e-06,0.48,0.38,0
0.018284,0.00053622,0.035384,0.0012029,0.010976,0.0004614,0,0,0.06346,-0.02541,0,0.0023993,0,0,0,0.03539,0.0011967,0.010976,0.77323,0.015854,0.030503,9.6853e-07,0.49,0.38,0
0.01892,0.00067819,0.035541,0.0011977,0.011022,0.00020263,0,0,0.063751,-0.025542,0,0.0010537,0,0,0,0.035542,0.0011965,0.011022,0.33803,0.01592,0.030638,9.8126e-07,0.5,0.38,0
0.019559,0.00079948,0.03559,0.0012232,0.011044,8.0199e-05,0,0,0.06382,-0.025534,0,0.00041704,0,0,0,0.03559,0.001223,0.011044,0.13371,0.015952,0.03066,9.8442e-07,0.51,0.38,0
0.020197,0.00090687,0.035492,0.0011351,0.010988,-2.6046e-05,0,0,0.063711,-0.025618,0,-0.00013544,0,0,0,0.035492,0.0011351,0.010988,-0.043436,0.015872,0.030643,9.7908e-07,0.52,0.38,0
0.020833,0.0010026,0.035389,0.00097461,0.010909,-0.00011545,0,0,0.063647,-0.025829,0,-0.00060031,0,0,0,0.035389,0.00097422,0.010909,-0.1922,0.015758,0.030679,9.7564e-07,0.53,0.38,0
0.02147,0.0010889,0.035305,0.00079293,0.010829,-0.00017631,0,0,0.063636,-0.026095,0,-0.00091684,0,0,0,0.035306,0.00079203,0.010829,-0.2927,0.015642,0.030749,9.7448e-07,0.54,0.38,0
0.022106,0.0011676,0.035229,0.000612,0.010752,-0.0002108,0,0,0.063638,-0.026364,0,-0.0010962,0,0,0,0.03523,0.00061071,0.010752,-0.3489,0.015531,0.030826,9.7384e-07,0.55,0.38,0
0.022742,0.0012403,0.035152,0.00044207,0.010678,-0.0002259,0,0,0.063631,-0.026614,0,-0.0011747,0,0,0,0.035153,0.0004406,0.010678,-0.37288,0.015424,0.030893,9.7271e-07,0.56,0.38,0
0.023379,0.0013082,0.035071,0.00028789,0.010608,-0.00022792,0,0,0.063604,-0.026831,0,-0.0011852,0,0,0,0.035072,0.0002864,0.010608,-0.37542,0.015322,0.030944,9.7072e-07,0.57,0.38,0
0.024015,0.0013724,0.034986,0.00015122,0.010541,-0.00022172,0,0,0.063557,-0.027014,0,-0.001153,0,0,0,0.034987,0.00014981,0.010541,-0.36466,0.015226,0.030978,9.6779e-07,0.58,0.38,0
0.02465,0.0014333,0.034898,3.2133e-05,0.010479,-0.00021084,0,0,0.063489,-0.027162,0,-0.0010964,0,0,0,0.034899,3.0858e-05,0.010479,-0.34646,0.015136,0.030994,9.64e-07,0.59,0.38,0
0.025284,0.0014914,0.034807,-7.0204e-05,0.010421,-0.00019782,0,0,0.063403,-0.027277,0,-0.0010287,0,0,0,0.034808,-7.1326e-05,0.010421,-0.32497,0.015052,0.030995,9.5947e-07,0.6,0.38,0
0.025918,0.0015473,0.034714,-0.00015716,0.010367,-0.00018447,0,0,0.063303,-0.027363,0,-0.00095926,0,0,0,0.034715,-0.00015813,0.010367,-0.30309,0.014975,0.030982,9.5437e-07,0.61,0.38,0
0.02655,0.001601,0.034621,-0.00023035,0.010317,-0.00017204,0,0,0.063191,-0.027424,0,-0.00089461,0,0,0,0.034622,-0.0002312,0.010317,-0.28282,0.014903,0.030958,9.4884e-07,0.62,0.38,0
0.027182,0.0016527,0.034529,-0.0002915,0.010271,-0.00016134,0,0,0.063071,-0.027463,0,-0.00083899,0,0,0,0.03453,-0.00029225,0.010271,-0.26548,0.014836,0.030925,9.4304e-07,0.63,0.38,0
0.027812,0.0017025,0.034439,-0.0003423,0.010229,-0.00015287,0,0,0.062945,-0.027485,0,-0.00079491,0,0,0,0.034439,-0.00034298,0.010229,-0.25182,0.014775,0.030885,9.3708e-07,0.64,0.38,0
0.028441,0.0017506,0.03435,-0.00038439,0.01019,-0.00014684,0,0,0.062817,-0.027493,0,-0.00076358,0,0,0,0.034351,-0.00038501,0.01019,-0.24222,0.014719,0.03084,9.311e-07,0.65,0.38,0
0.029068,0.0017969,0.034265,-0.00041926,0.010154,-0.00014331,0,0,0.062689,-0.02749,0,-0.00074518,0,0,0,0.034266,-0.00041985,0.010154,-0.23672,0.014667,0.030792,9.2517e-07,0.66,0.38,0
0.029694,0.0018415,0.034183,-0.00044826,0.01012,-0.00014214,0,0,0.062563,-0.027479,0,-0.00073913,0,0,0,0.034184,-0.00044884,0.01012,-0.23516,0.014618,0.030742,9.1939e-07,0.67,0.38,0
0.030319,0.0018843,0.034105,-0.00047258,0.01009,-0.00014313,0,0,0.06244,-0.027462,0,-0.00074429,0,0,0,0.034106,-0.00047317,0.01009,-0.23716,0.014574,0.030693,9.1382e-07,0.68,0.38,0
0.030943,0.0019254,0.034032,-0.00049326,0.010061,-0.00014599,0,0,0.062322,-0.027442,0,-0.00075915,0,0,0,0.034032,-0.00049388,0.010061,-0.24227,0.014533,0.030644,9.085e-07,0.69,0.38,0
0.031566,0.0019647,0.033962,-0.00051118,0.010035,-0.00015038,0,0,0.06221,-0.027421,0,-0.00078198,0,0,0,0.033963,-0.00051184,0.010035,-0.24993,0.014495,0.030596,9.0348e-07,0.7,0.38,0
0.032187,0.0020022,0.033897,-0.00052707,0.010011,-0.00015595,0,0,0.062104,-0.027399,0,-0.00081094,0,0,0,0.033898,-0.00052778,0.010011,-0.25955,0.01446,0.030551,8.9877e-07,0.71,0.38,0
0.032808,0.002038,0.033837,-0.00054152,0.0099886,-0.00016233,0,0,0.062005,-0.027378,0,-0.00084414,0,0,0,0.033838,-0.00054229,0.0099886,-0.27054,0.014428,0.030509,8.9439e-07,0.72,0.38,0
0.033427,0.0020721,0.033781,-0.00055503,0.0099677,-0.00016919,0,0,0.061914,-0.027359,0,-0.00087977,0,0,0,0.033782,-0.00055586,0.0099677,-0.28231,0.014398,0.030471,8.9035e-07,0.73,0.38,0
0.034046,0.0021043,0.033729,-0.00056794,0.0099483,-0.00017617,0,0,0.06183,-0.027342,0,-0.00091609,0,0,0,0.03373,-0.00056885,0.0099483,-0.2943,0.01437,0.030435,8.8664e-07,0.74,0.38,0
0.034664,0.0021349,0.033681,-0.00058055,0.0099303,-0.00018299,0,0,0.061753,-0.027328,0,-0.00095153,0,0,0,0.033682,-0.00058152,0.0099303,-0.30599,0.014344,0.030403,8.8325e-07,0.75,0.38,0
0.035281,0.0021638,0.033638,-0.00059304,0.0099134,-0.00018935,0,0,0.061683,-0.027317,0,-0.00098464,0,0,0,0.033639,-0.00059409,0.0099134,-0.31693,0.014319,0.030374,8.8019e-07,0.76,0.38,0
0.035898,0.0021909,0.033598,-0.00060555,0.0098977,-0.00019504,0,0,0.061621,-0.027308,0,-0.0010142,0,0,0,0.033599,-0.00060666,0.0098977,-0.3267,0.014297,0.030349,8.7742e-07,0.77,0.38,0
0.036514,0.0022165,0.033562,-0.00061815,0.0098831,-0.00019982,0,0,0.061565,-0.027303,0,-0.0010391,0,0,0,0.033563,-0.00061932,0.0098831,-0.33495,0.014275,0.030327,8.7494e-07,0.78,0.38,0
0.037129,0.0022404,0.033529,-0.00063088,0.0098694,-0.00020355,0,0,0.061514,-0.027301,0,-0.0010584,0,0,0,0.03353,-0.00063209,0.0098694,-0.34139,0.014256,0.030308,8.7272e-07,0.79,0.38,0
0.037744,0.0022628,0.033499,-0.00064371,0.0098566,-0.00020607,0,0,0.06147,-0.027301,0,-0.0010716,0,0,0,0.0335,-0.00064495,0.0098566,-0.34579,0.014237,0.030292,8.7075e-07,0.8,0.38,0
0.038358,0.0022836,0.033472,-0.00065662,0.0098446,-0.00020729,0,0,0.061431,-0.027303,0,-0.0010779,0,0,0,0.033473,-0.00065788,0.0098446,-0.34798,0.01422,0.030278,8.6901e-07,0.81,0.38,0
0.038973,0.002303,0.033448,-0.00066955,0.0098335,-0.00020712,0,0,0.061397,-0.027308,0,-0.001077,0,0,0,0.033449,-0.00067081,0.0098335,-0.34782,0.014204,0.030267,8.6747e-07,0.82,0.38,0
0.039586,0.002321,0.033426,-0.00068242,0.0098231,-0.00020553,0,0,0.061368,-0.027314,0,-0.0010688,0,0,0,0.033427,-0.00068366,0.0098231,-0.34523,0.014189,0.030258,8.6612e-07,0.83,0.38,0
0.0402,0.0023376,0.033406,-0.00069516,0.0098134,-0.00020249,0,0,0.061342,-0.027322,0,-0.0010529,0,0,0,0.033408,-0.00069637,0.0098134,-0.34019,0.014175,0.030251,8.6494e-07,0.84,0.38,0
0.040813,0.0023529,0.033389,-0.00070768,0.0098044,-0.00019799,0,0,0.06132,-0.027331,0,-0.0010296,0,0,0,0.03339,-0.00070883,0.0098044,-0.33269,0.014162,0.030245,8.6392e-07,0.85,0.38,0
0.041426,0.002367,0.033374,-0.00071988,0.0097961,-0.00019207,0,0,0.061301,-0.027342,0,-0.00099879,0,0,0,0.033375,-0.00072097,0.0097961,-0.32278,0.01415,0.030241,8.6303e-07,0.86,0.38,0
0.042039,0.0023798,0.03336,-0.00073168,0.0097884,-0.00018476,0,0,0.061285,-0.027352,0,-0.00096077,0,0,0,0.033361,-0.00073268,0.0097884,-0.31051,0.014139,0.030238,8.6226e-07,0.87,0.38,0
0.042652,0.0023915,0.033347,-0.00074298,0.0097813,-0.00017611,0,0,0.061272,-0.027363,0,-0.00091579,0,0,0,0.033348,-0.00074389,0.0097813,-0.29598,0.014129,0.030236,8.616e-07,0.88,0.38,0
0.043265,0.002402,0.033337,-0.00075371,0.0097749,-0.00016619,0,0,0.061261,-0.027374,0,-0.00086421,0,0,0,0.033337,-0.00075452,0.0097749,-0.27931,0.014119,0.030235,8.6104e-07,0.89,0.38,0
0.043877,0.0024115,0.033327,-0.00076377,0.009769,-0.00015508,0,0,0.061251,-0.027385,0,-0.0008064,0,0,0,0.033328,-0.00076448,0.009769,-0.26063,0.014111,0.030235,8.6055e-07,0.9,0.38,0
0.04449,0.0024199,0.033319,-0.00077311,0.0097637,-0.00014285,0,0,0.061243,-0.027396,0,-0.00074283,0,0,0,0.03332,-0.0007737,0.0097637,-0.24008,0.014103,0.030235,8.6015e-07,0.91,0.38,0
0.045102,0.0024274,0.033312,-0.00078164,0.009759,-0.00012961,0,0,0.061237,-0.027406,0,-0.00067399,0,0,0,0.033312,-0.00078213,0.009759,-0.21782,0.014096,0.030235,8.5981e-07,0.92,0.38,0
0.045714,0.0024338,0.033306,-0.00078931,0.0097549,-0.00011546,0,0,0.061232,-0.027415,0,-0.00060038,0,0,0,0.033306,-0.0007897,0.0097549,-0.19402,0.01409,0.030235,8.5953e-07,0.93,0.38,0
0.046327,0.0024394,0.0333,-0.00079607,0.0097513,-0.00010049,0,0,0.061228,-0.027423,0,-0.00052256,0,0,0,0.033301,-0.00079636,0.0097513,-0.16887,0.014085,0.030236,8.5929e-07,0.94,0.38,0
0.046939,0.0024441,0.033296,-0.00080186,0.0097483,-8.4827e-05,0,0,0.061225,-0.02743,0,-0.0004411,0,0,0,0.033296,-0.00080207,0.0097483,-0.14254,0.014081,0.030237,8.5911e-07,0.95,0.38,0
0.047551,0.0024478,0.033293,-0.00080665,0.0097458,-6.8573e-05,0,0,0.061222,-0.027436,0,-0.00035658,0,0,0,0.033293,-0.00080679,0.0097458,-0.11522,0.014077,0.030238,8.5896e-07,0.96,0.38,0
0.048163,0.0024507,0.03329,-0.00081042,0.0097439,-5.1846e-05,0,0,0.06122,-0.027441,0,-0.0002696,0,0,0,0.03329,-0.0008105,0.0097439,-0.087112,0.014075,0.030238,8.5885e-07,0.97,0.38,0
0.048776,0.0024528,0.033288,-0.00081312,0.0097426,-3.4763e-05,0,0,0.061219,-0.027445,0,-0.00018077,0,0,0,0.033288,-0.00081316,0.0097426,-0.058407,0.014073,0.030239,8.5877e-07,0.98,0.38,0
0.049388,0.0024541,0.033287,-0.00081475,0.0097417,-1.7441e-05,0,0,0.061218,-0.027447,0,-9.0694e-05,0,0,0,0.033287,-0.00081476,0.0097417,-0.029303,0.014071,0.030239,8.5873e-07,0.99,0.38,0
0.05,0.0024545,0.033287,-0.00081529,0.0097415,7.9293e-06,0,0,0.061218,-0.027448,0,4.1232e-05,0,0,0,0.033287,-0.0008153,0.0097415,0.013322,0.014071,0.030239,8.5871e-07,1,0.38,0
0,0,0.036203,0.015515,0.015515,0.0012625,0,0,0.053787,-1.6263e-19,0,0.0065651,0,0,0,0.03628,0.015439,0.015515,3.4795,0.022411,0.020803,4.6234e-07,0,0.39,0
0.00053787,6.5651e-05,0.036143,0.014884,0.015308,0.0012627,0,0,0.054171,-0.001102,0,0.006566,0,0,0,0.036218,0.01481,0.015308,3.3873,0.022112,0.021163,4.8591e-07,0.01,0.39,0
0.0010834,0.00014301,0.036356,0.014436,0.015238,0.001352,0,0,0.054908,-0.002084,0,0.0070306,0,0,0,0.036439,0.014353,0.015238,3.5162,0.02201,0.021658,5.188e-07,0.02,0.39,0
0.001636,0.00023126,0.036559,0.014037,0.015179,0.0014235,0,0,0.055588,-0.0029684,0,0.0074023,0,0,0,0.036648,0.013947,0.015179,3.6024,0.021925,0.022111,5.4939e-07,0.03,0.39,0
0.0021952,0.00033066,0.036729,0.013676,0.015121,0.001506,0,0,0.056179,-0.0037588,0,0.0078311,0,0,0,0.036827,0.013578,0.015121,3.7219,0.021842,0.022517,5.7705e-07,0.04,0.39,0
0.0027596,0.00044322,0.036769,0.013324,0.015028,0.0016357,0,0,0.056528,-0.0044305,0,0.0085058,0,0,0,0.036883,0.01321,0.015028,3.9717,0.021707,0.022818,5.9715e-07,0.05,0.39,0
0.0033257,0.00057244,0.036403,0.01289,0.014788,0.0019755,0,0,0.0562,-0.0049355,0,0.010273,0,0,0,0.036568,0.012725,0.014788,4.7692,0.02136,0.022882,5.9847e-07,0.06,0.39,0
0.0038836,0.00073488,0.036374,0.012325,0.01461,0.0018987,0,0,0.056587,-0.00594,0,0.0098731,0,0,0,0.036523,0.012176,0.01461,4.4865,0.021103,0.023226,6.1971e-07,0.07,0.39,0
0.0044574,0.0008559,0.036432,0.012813,0.014774,0.0032177,0,0,0.042502,-0.0033986,0,0.012811,0,0,0,0.036865,0.01238,0.014774,7.6232,0.02134,0.023386,6.3246e-07,0.08,0.39,0
0.0047337,0.00087756,0.036468,0.013098,0.01487,0.0028928,0,0,0.028078,-0.0023036,0,0.0075213,0,0,0,0.036821,0.012745,0.01487,6.9523,0.021479,0.023087,6.14e-07,0.09,0.39,0
0.005019,0.00090421,0.037256,0.012503,0.014928,0.0028053,0,0,0.029027,-0.003152,0,0.0072938,0,0,0,0.03757,0.012189,0.014928,6.3855,0.021562,0.024129,6.9023e-07,0.1,0.39,0
0.0053142,0.00091962,0.037739,0.011913,0.014896,0.0024884,0,0,0.029696,-0.003877,0,0.0064699,0,0,0,0.037977,0.011676,0.014896,5.4539,0.021516,0.024848,7.4352e-07,0.11,0.39,0
0.0056129,0.00092984,0.037746,0.011159,0.014671,0.0023135,0,0,0.029997,-0.0045667,0,0.0060152,0,0,0,0.037946,0.010959,0.014671,4.9362,0.021192,0.025336,7.7514e-07,0.12,0.39,0
0.0059141,0.00093557,0.037686,0.010483,0.014451,0.0021461,0,0,0.030206,-0.0051582,0,0.00558,0,0,0,0.037854,0.010315,0.014451,4.4833,0.020873,0.025722,7.9844e-07,0.13,0.39,0
0.0062171,0.00093784,0.037577,0.009799,0.014213,0.001991,0,0,0.030373,-0.0057379,0,0.0051766,0,0,0,0.037719,0.009657,0.014213,4.0789,0.020529,0.026084,8.1855e-07,0.14,0.39,0
0.0065216,0.00093702,0.037469,0.0091222,0.013977,0.001854,0,0,0.030539,-0.0063116,0,0.0048203,0,0,0,0.037589,0.0090015,0.013977,3.7262,0.020189,0.026453,8.3849e-07,0.15,0.39,0
0.0068278,0.00093367,0.037366,0.0084723,0.013751,0.0017393,0,0,0.030699,-0.006863,0,0.0045221,0,0,0,0.03747,0.008368,0.013751,3.4324,0.019863,0.026819,8.5771e-07,0.16,0.39,0
0.0071356,0.00092827,0.037263,0.0078583,0.013536,0.001642,0,0,0.030845,-0.0073815,0,0.0042692,0,0,0,0.037354,0.0077669,0.013536,3.1862,0.019553,0.027166,8.7519e-07,0.17,0.39,0
0.0074447,0.00092115,0.037157,0.0072829,0.013332,0.0015542,0,0,0.030972,-0.0078637,0,0.0040409,0,0,0,0.037237,0.0072023,0.013332,2.9701,0.019257,0.027488,8.905e-07,0.18,0.39,0
0.0077551,0.0009125,0.037048,0.0067424,0.013137,0.0014691,0,0,0.031084,-0.008313,0,0.0038197,0,0,0,0.037119,0.0066714,0.013137,2.7689,0.018976,0.027785,9.0374e-07,0.19,0.39,0
0.0080664,0.00090237,0.036938,0.0062306,0.012951,0.0013826,0,0,0.031183,-0.0087359,0,0.0035948,0,0,0,0.037,0.0061685,0.012951,2.5729,0.018706,0.028062,9.1535e-07,0.2,0.39,0
0.0083787,0.00089072,0.03683,0.0057406,0.012771,0.001293,0,0,0.031277,-0.0091398,0,0.0033618,0,0,0,0.036884,0.0056869,0.012771,2.3775,0.018447,0.028327,9.2588e-07,0.21,0.39,0
0.0086919,0.00087752,0.036727,0.0052661,0.012598,0.0012005,0,0,0.031368,-0.0095315,0,0.0031214,0,0,0,0.036773,0.0052203,0.012598,2.1821,0.018197,0.028587,9.3584e-07,0.22,0.39,0
0.0090061,0.00086268,0.036631,0.004802,0.01243,0.0011065,0,0,0.031462,-0.0099164,0,0.0028769,0,0,0,0.03667,0.0047636,0.01243,1.9886,0.017955,0.028847,9.4563e-07,0.23,0.39,0
0.0093212,0.00084614,0.036544,0.0043447,0.012266,0.0010126,0,0,0.03156,-0.010298,0,0.0026328,0,0,0,0.036575,0.0043128,0.012266,1.7995,0.017718,0.029112,9.5555e-07,0.24,0.39,0
0.0096373,0.00082789,0.036465,0.0038911,0.012107,0.00092073,0,0,0.031665,-0.01068,0,0.0023939,0,0,0,0.036491,0.0038651,0.012107,1.6178,0.017488,0.029385,9.6581e-07,0.25,0.39,0
0.0099545,0.00080789,0.036396,0.0034395,0.011951,0.00083241,0,0,0.031779,-0.011064,0,0.0021642,0,0,0,0.036417,0.0034185,0.011951,1.4459,0.017262,0.029667,9.7653e-07,0.26,0.39,0
0.010273,0.00078616,0.036337,0.0029883,0.011798,0.00074897,0,0,0.031901,-0.011452,0,0.0019473,0,0,0,0.036353,0.0029715,0.011798,1.2859,0.017041,0.02996,9.8782e-07,0.27,0.39,0
0.010592,0.0007627,0.036288,0.0025366,0.011647,0.0006714,0,0,0.032033,-0.011844,0,0.0017457,0,0,0,0.036301,0.0025233,0.011647,1.1392,0.016824,0.030266,9.9975e-07,0.28,0.39,0
0.010913,0.00073754,0.03625,0.0020839,0.0115,0.00060031,0,0,0.032175,-0.012241,0,0.0015608,0,0,0,0.036261,0.0020733,0.0115,1.0063,0.016612,0.030584,1.0124e-06,0.29,0.39,0
0.011236,0.0007107,0.036225,0.0016299,0.011357,0.00053583,0,0,0.032329,-0.012644,0,0.0013932,0,0,0,0.036233,0.0016216,0.011357,0.88716,0.016404,0.030916,1.0258e-06,0.3,0.39,0
0.01156,0.00068221,0.036213,0.0011749,0.011216,0.00047759,0,0,0.032495,-0.013054,0,0.0012417,0,0,0,0.036219,0.0011684,0.011216,0.7808,0.016201,0.031262,1.0401e-06,0.31,0.39,0
0.011886,0.00065204,0.036215,0.00071951,0.01108,0.0004245,0,0,0.032675,-0.013469,0,0.0011037,0,0,0,0.03622,0.00071444,0.01108,0.68509,0.016005,0.031623,1.0554e-06,0.32,0.39,0
0.012214,0.00062017,0.036233,0.00026513,0.010949,0.00037457,0,0,0.032869,-0.01389,0,0.00097388,0,0,0,0.036237,0.00026123,0.010949,0.59659,0.015816,0.032,1.0718e-06,0.33,0.39,0
0.012543,0.00058651,0.036269,-0.00018562,0.010825,0.00032466,0,0,0.033077,-0.014314,0,0.00084412,0,0,0,0.036272,-0.00018851,0.010825,0.51022,0.015636,0.03239,1.0893e-06,0.34,0.39,0
0.012875,0.00055088,0.036323,-0.00062813,0.010708,0.00027031,0,0,0.033299,-0.014738,0,0.0007028,0,0,0,0.036325,-0.00063011,0.010708,0.41911,0.015468,0.032791,1.108e-06,0.35,0.39,0
0.013209,0.00051306,0.036394,-0.0010545,0.010602,0.0002058,0,0,0.03353,-0.015153,0,0.00053508,0,0,0,0.036395,-0.0010556,0.010602,0.31486,0.015314,0.033195,1.1275e-06,0.36,0.39,0
0.013546,0.00047273,0.036479,-0.0014514,0.010508,0.00012515,0,0,0.033762,-0.015548,0,0.00032539,0,0,0,0.036479,-0.0014519,0.010508,0.18904,0.015178,0.033588,1.1471e-06,0.37,0.39,0
0.013884,0.00042951,0.036568,-0.0017981,0.010431,2.4636e-05,0,0,0.033978,-0.015898,0,6.4053e-05,0,0,0,0.036568,-0.0017981,0.010431,0.036791,0.015067,0.033946,1.1656e-06,0.38,0.39,0
0.014225,0.00038308,0.036648,-0.0020657,0.010375,-9.2251e-05,0,0,0.034155,-0.016172,0,-0.00023985,0,0,0,0.036648,-0.0020659,0.010375,-0.13653,0.014986,0.034233,1.1809e-06,0.39,0.39,0
0.014568,0.00033337,0.036707,-0.0022203,0.010346,-0.00020955,0,0,0.03427,-0.016336,0,-0.00054484,0,0,0,0.036708,-0.0022214,0.010346,-0.30842,0.014944,0.034413,1.1911e-06,0.4,0.39,0
0.014911,0.00028083,0.036735,-0.0022409,0.010348,-0.00029321,0,0,0.034303,-0.016366,0,-0.00076235,0,0,0,0.036737,-0.0022431,0.010348,-0.431,0.014947,0.034456,1.1945e-06,0.41,0.39,0
0.015254,0.00022668,0.036748,-0.0021225,0.010388,-0.00029975,0,0,0.034268,-0.016263,0,-0.00077936,0,0,0,0.03675,-0.0021248,0.010388,-0.44181,0.015004,0.034371,1.1923e-06,0.42,0.39,0
0.015596,0.00017289,0.036778,-0.0019267,0.010455,-0.0001694,0,0,0.034219,-0.016097,0,-0.00044043,0,0,0,0.036779,-0.0019275,0.010455,-0.25076,0.015102,0.034237,1.1894e-06,0.43,0.39,0
0.015938,0.00012237,0.037129,-0.0016354,0.010648,7.6355e-05,0,0,0.034425,-0.015969,0,0.00019852,0,0,0,0.037129,-0.0016355,0.010648,0.11286,0.015381,0.034313,1.2143e-06,0.44,0.39,0
0.016285,7.4598e-05,0.037678,-0.0017487,0.010779,0.0003186,0,0,0.034969,-0.016286,0,0.00082835,0,0,0,0.03768,-0.0017513,0.010779,0.46295,0.015569,0.034897,1.2721e-06,0.45,0.39,0
0.016637,2.298e-05,0.037982,-0.0010768,0.011071,0.00075978,0,0,0.034983,-0.015793,0,0.0019754,0,0,0,0.037996,-0.0010916,0.011071,1.114,0.015992,0.034646,1.2825e-06,0.46,0.39,0
0.016984,-8.9843e-06,0.0346,-2.7207e-05,0.010372,0.0015404,0,0,0.043459,-0.018429,0,0.0062035,0,0,0,0.034677,-0.00010434,0.010372,2.7742,0.014982,0.030906,1.1095e-06,0.47,0.39,0
0.017463,8.1505e-05,0.0428,-0.00063448,0.01265,1.1475e-06,0,0,0.054466,-0.023655,0,0.00016121,0,0,0,0.0428,-0.00063484,0.01265,0.040769,0.018272,0.038551,2.0664e-06,0.48,0.39,0
0.01814,0.00028098,0.037517,0.0017101,0.011768,0.00090276,0,0,0.066948,-0.026151,0,0.0046944,0,0,0,0.03754,0.0016873,0.011768,1.4433,0.016999,0.032025,1.1406e-06,0.49,0.39,0
0.018802,0.00042031,0.036721,0.0015096,0.011469,0.0004916,0,0,0.065654,-0.025895,0,0.0025563,0,0,0,0.036728,0.0015027,0.011469,0.79972,0.016567,0.031449,1.0734e-06,0.5,0.39,0
0.019453,0.00054306,0.03623,0.0014822,0.011314,0.00030238,0,0,0.064783,-0.025562,0,0.0015724,0,0,0,0.036233,0.0014795,0.011314,0.49854,0.016342,0.031028,1.0307e-06,0.51,0.39,0
0.020097,0.00065012,0.035904,0.0012863,0.011157,0.00011589,0,0,0.064341,-0.025664,0,0.00060262,0,0,0,0.035904,0.0012859,0.011157,0.1918,0.016116,0.030889,1.009e-06,0.52,0.39,0
0.02074,0.00074369,0.035729,0.0010618,0.011037,-1.2749e-05,0,0,0.064199,-0.025936,0,-6.6294e-05,0,0,0,0.035729,0.0010618,0.011037,-0.02107,0.015943,0.030911,1.0015e-06,0.53,0.39,0
0.021381,0.00082715,0.035607,0.00084079,0.010934,-8.5392e-05,0,0,0.064149,-0.026243,0,-0.00044404,0,0,0,0.035607,0.00084058,0.010934,-0.14073,0.015794,0.030979,9.9832e-07,0.54,0.39,0
0.022023,0.00090305,0.035499,0.00063444,0.01084,-0.00012112,0,0,0.064114,-0.026535,0,-0.00062984,0,0,0,0.0355,0.00063402,0.01084,-0.19905,0.015658,0.031047,9.9579e-07,0.55,0.39,0
0.022664,0.00097325,0.035394,0.00044824,0.010753,-0.00013392,0,0,0.064067,-0.026791,0,-0.00069639,0,0,0,0.035394,0.00044772,0.010753,-0.21957,0.015532,0.031102,9.9274e-07,0.56,0.39,0
0.023304,0.001039,0.035288,0.00028396,0.010672,-0.00013292,0,0,0.064002,-0.027008,0,-0.00069119,0,0,0,0.035288,0.00028346,0.010672,-0.21757,0.015414,0.031138,9.8888e-07,0.57,0.39,0
0.023944,0.0011014,0.03518,0.00014149,0.010597,-0.00012408,0,0,0.063918,-0.027183,0,-0.00064524,0,0,0,0.035181,0.00014106,0.010597,-0.2029,0.015306,0.031157,9.8421e-07,0.58,0.39,0
0.024582,0.0011608,0.035072,1.9663e-05,0.010528,-0.00011139,0,0,0.063817,-0.027321,0,-0.00057925,0,0,0,0.035073,1.9309e-05,0.010528,-0.18208,0.015207,0.031158,9.7882e-07,0.59,0.39,0
0.02522,0.0012179,0.034965,-8.328e-05,0.010464,-9.7555e-05,0,0,0.0637,-0.027424,0,-0.00050728,0,0,0,0.034965,-8.3552e-05,0.010464,-0.15948,0.015115,0.031144,9.7286e-07,0.6,0.39,0
0.025856,0.0012729,0.034857,-0.00016936,0.010406,-8.4395e-05,0,0,0.063573,-0.027497,0,-0.00043885,0,0,0,0.034858,-0.00016957,0.010406,-0.13805,0.015031,0.031118,9.6647e-07,0.61,0.39,0
0.026491,0.0013261,0.034752,-0.00024071,0.010353,-7.3114e-05,0,0,0.063436,-0.027544,0,-0.0003802,0,0,0,0.034752,-0.00024087,0.010353,-0.11972,0.014955,0.031081,9.598e-07,0.62,0.39,0
0.027125,0.0013775,0.034649,-0.00029944,0.010305,-6.4442e-05,0,0,0.063294,-0.027571,0,-0.0003351,0,0,0,0.034649,-0.00029956,0.010305,-0.10565,0.014885,0.031036,9.5299e-07,0.63,0.39,0
0.027757,0.0014272,0.034549,-0.00034754,0.01026,-5.875e-05,0,0,0.06315,-0.027581,0,-0.0003055,0,0,0,0.034549,-0.00034764,0.01026,-0.096461,0.014821,0.030986,9.4616e-07,0.64,0.39,0
0.028388,0.0014752,0.034453,-0.00038686,0.01022,-5.6146e-05,0,0,0.063006,-0.027577,0,-0.00029196,0,0,0,0.034453,-0.00038696,0.01022,-0.092335,0.014762,0.030932,9.3942e-07,0.65,0.39,0
0.029017,0.0015216,0.034361,-0.00041908,0.010183,-5.6535e-05,0,0,0.062863,-0.027564,0,-0.00029398,0,0,0,0.034361,-0.00041917,0.010183,-0.093135,0.014708,0.030876,9.3285e-07,0.66,0.39,0
0.029645,0.0015663,0.034273,-0.00044567,0.010148,-5.9683e-05,0,0,0.062725,-0.027544,0,-0.00031035,0,0,0,0.034273,-0.00044577,0.010148,-0.098493,0.014659,0.030819,9.2653e-07,0.67,0.39,0
0.030272,0.0016093,0.034191,-0.00046789,0.010117,-6.5256e-05,0,0,0.062592,-0.02752,0,-0.00033933,0,0,0,0.034191,-0.00046802,0.010117,-0.10788,0.014613,0.030764,9.2051e-07,0.68,0.39,0
0.030897,0.0016506,0.034114,-0.00048684,0.010088,-7.2861e-05,0,0,0.062467,-0.027495,0,-0.00037887,0,0,0,0.034114,-0.000487,0.010088,-0.12065,0.014572,0.030711,9.1483e-07,0.69,0.39,0
0.031521,0.0016902,0.034041,-0.00050342,0.010061,-8.207e-05,0,0,0.062348,-0.027468,0,-0.00042677,0,0,0,0.034042,-0.00050362,0.010061,-0.13612,0.014533,0.03066,9.0952e-07,0.7,0.39,0
0.032144,0.001728,0.033974,-0.00051837,0.010037,-9.2451e-05,0,0,0.062238,-0.027443,0,-0.00048074,0,0,0,0.033975,-0.00051862,0.010037,-0.15357,0.014498,0.030612,9.046e-07,0.71,0.39,0
0.032766,0.001764,0.033912,-0.00053227,0.010014,-0.00010357,0,0,0.062136,-0.02742,0,-0.00053859,0,0,0,0.033913,-0.00053258,0.010014,-0.17229,0.014465,0.030568,9.0006e-07,0.72,0.39,0
0.033387,0.0017982,0.033855,-0.00054558,0.0099929,-0.00011504,0,0,0.062042,-0.0274,0,-0.0005982,0,0,0,0.033856,-0.00054597,0.0099929,-0.1916,0.014434,0.030529,8.9592e-07,0.73,0.39,0
0.034007,0.0018307,0.033803,-0.00055864,0.0099733,-0.00012647,0,0,0.061957,-0.027383,0,-0.00065763,0,0,0,0.033803,-0.00055911,0.0099733,-0.21087,0.014406,0.030492,8.9215e-07,0.74,0.39,0
0.034626,0.0018614,0.033755,-0.0005717,0.009955,-0.00013752,0,0,0.06188,-0.02737,0,-0.00071512,0,0,0,0.033756,-0.00057225,0.009955,-0.22954,0.014379,0.030461,8.8875e-07,0.75,0.39,0
0.035244,0.0018904,0.033711,-0.00058491,0.009938,-0.00014791,0,0,0.061811,-0.027359,0,-0.00076912,0,0,0,0.033712,-0.00058555,0.009938,-0.24709,0.014355,0.030433,8.8569e-07,0.76,0.39,0
0.035862,0.0019176,0.033672,-0.00059836,0.0099221,-0.00015737,0,0,0.06175,-0.027353,0,-0.00081832,0,0,0,0.033673,-0.00059908,0.0099221,-0.26309,0.014332,0.030408,8.8296e-07,0.77,0.39,0
0.036479,0.0019432,0.033636,-0.00061209,0.0099072,-0.00016569,0,0,0.061695,-0.02735,0,-0.00086158,0,0,0,0.033637,-0.0006129,0.0099072,-0.27718,0.01431,0.030388,8.8054e-07,0.78,0.39,0
0.037096,0.0019671,0.033604,-0.0006261,0.0098933,-0.0001727,0,0,0.061647,-0.02735,0,-0.00089803,0,0,0,0.033605,-0.00062697,0.0098933,-0.28906,0.01429,0.03037,8.784e-07,0.79,0.39,0
0.037712,0.0019895,0.033575,-0.00064033,0.0098803,-0.00017826,0,0,0.061606,-0.027354,0,-0.00092696,0,0,0,0.033576,-0.00064126,0.0098803,-0.2985,0.014272,0.030356,8.7651e-07,0.8,0.39,0
0.038328,0.0020103,0.033549,-0.00065472,0.0098682,-0.00018228,0,0,0.061569,-0.027359,0,-0.00094785,0,0,0,0.03355,-0.00065569,0.0098682,-0.30533,0.014254,0.030344,8.7487e-07,0.81,0.39,0
0.038944,0.0020296,0.033525,-0.00066918,0.0098568,-0.00018469,0,0,0.061538,-0.027368,0,-0.00096037,0,0,0,0.033526,-0.00067018,0.0098568,-0.30945,0.014238,0.030335,8.7343e-07,0.82,0.39,0
0.039559,0.0020475,0.033504,-0.00068362,0.0098462,-0.00018545,0,0,0.061511,-0.027377,0,-0.00096433,0,0,0,0.033505,-0.00068462,0.0098462,-0.31078,0.014222,0.030328,8.7218e-07,0.83,0.39,0
0.040174,0.0020641,0.033486,-0.00069792,0.0098363,-0.00018456,0,0,0.061488,-0.027389,0,-0.00095969,0,0,0,0.033487,-0.00069891,0.0098363,-0.30933,0.014208,0.030323,8.7111e-07,0.84,0.39,0
0.040789,0.0020792,0.033469,-0.00071197,0.0098271,-0.00018202,0,0,0.061469,-0.027402,0,-0.00094653,0,0,0,0.03347,-0.00071294,0.0098271,-0.30511,0.014195,0.030319,8.7019e-07,0.85,0.39,0
0.041403,0.0020932,0.033454,-0.00072568,0.0098186,-0.00017789,0,0,0.061453,-0.027415,0,-0.00092503,0,0,0,0.033455,-0.0007266,0.0098186,-0.29819,0.014182,0.030317,8.694e-07,0.86,0.39,0
0.042018,0.0021059,0.033441,-0.00073892,0.0098107,-0.0001722,0,0,0.061439,-0.027429,0,-0.00089545,0,0,0,0.033442,-0.00073979,0.0098107,-0.28865,0.014171,0.030316,8.6872e-07,0.87,0.39,0
0.042632,0.0021174,0.03343,-0.00075161,0.0098034,-0.00016503,0,0,0.061428,-0.027443,0,-0.00085817,0,0,0,0.03343,-0.00075241,0.0098034,-0.27662,0.01416,0.030316,8.6815e-07,0.88,0.39,0
0.043246,0.0021278,0.033419,-0.00076363,0.0097968,-0.00015646,0,0,0.061419,-0.027457,0,-0.00081359,0,0,0,0.03342,-0.00076435,0.0097968,-0.26224,0.014151,0.030317,8.6767e-07,0.89,0.39,0
0.04386,0.0021372,0.033411,-0.00077491,0.0097907,-0.00014657,0,0,0.061412,-0.027471,0,-0.00076218,0,0,0,0.033411,-0.00077554,0.0097907,-0.24565,0.014142,0.030318,8.6727e-07,0.9,0.39,0
0.044475,0.0021455,0.033403,-0.00078535,0.0097853,-0.00013547,0,0,0.061406,-0.027484,0,-0.00070447,0,0,0,0.033404,-0.00078589,0.0097853,-0.22704,0.014134,0.030319,8.6694e-07,0.91,0.39,0
0.045089,0.0021528,0.033396,-0.0007949,0.0097804,-0.00012327,0,0,0.061401,-0.027496,0,-0.00064101,0,0,0,0.033397,-0.00079534,0.0097804,-0.20657,0.014127,0.030321,8.6666e-07,0.92,0.39,0
0.045703,0.0021592,0.033391,-0.00080347,0.0097761,-0.00011007,0,0,0.061398,-0.027507,0,-0.00057237,0,0,0,0.033391,-0.00080382,0.0097761,-0.18443,0.014121,0.030322,8.6643e-07,0.93,0.39,0
0.046317,0.0021647,0.033386,-0.00081101,0.0097725,-9.5996e-05,0,0,0.061395,-0.027517,0,-0.00049918,0,0,0,0.033386,-0.00081128,0.0097725,-0.16084,0.014116,0.030324,8.6625e-07,0.94,0.39,0
0.04693,0.0021693,0.033382,-0.00081748,0.0097693,-8.1163e-05,0,0,0.061393,-0.027526,0,-0.00042205,0,0,0,0.033382,-0.00081767,0.0097693,-0.13598,0.014111,0.030325,8.661e-07,0.95,0.39,0
0.047544,0.002173,0.033379,-0.00082282,0.0097668,-6.5696e-05,0,0,0.061391,-0.027533,0,-0.00034162,0,0,0,0.033379,-0.00082295,0.0097668,-0.11006,0.014108,0.030327,8.6599e-07,0.96,0.39,0
0.048158,0.0021758,0.033376,-0.00082701,0.0097648,-4.972e-05,0,0,0.06139,-0.027539,0,-0.00025854,0,0,0,0.033376,-0.00082709,0.0097648,-0.083288,0.014105,0.030328,8.6591e-07,0.97,0.39,0
0.048772,0.0021779,0.033375,-0.00083003,0.0097634,-3.336e-05,0,0,0.061389,-0.027543,0,-0.00017347,0,0,0,0.033375,-0.00083006,0.0097634,-0.055881,0.014103,0.030329,8.6585e-07,0.98,0.39,0
0.049386,0.0021791,0.033374,-0.00083184,0.0097625,-1.6744e-05,0,0,0.061389,-0.027545,0,-8.7069e-05,0,0,0,0.033374,-0.00083185,0.0097625,-0.028047,0.014101,0.030329,8.6582e-07,0.99,0.39,0
0.05,0.0021795,0.033373,-0.00083245,0.0097622,7.7811e-06,0,0,0.061389,-0.027546,0,4.0461e-05,0,0,0,0.033373,-0.00083245,0.0097622,0.013033,0.014101,0.030329,8.658e-07,1,0.39,0
0,0,0.035786,0.015337,0.015337,0.0010623,0,0,0.053167,-2.1684e-19,0,0.0055241,0,0,0,0.035841,0.015282,0.015337,2.9659,0.022153,0.020532,4.4451e-07,0,0.4,0
0.00053167,5.5241e-05,0.035734,0.01478,0.015154,0.0010617,0,0,0.053507,-0.00097304,0,0.0055208,0,0,0,0.035788,0.014726,0.015154,2.8931,0.021889,0.020851,4.6491e-07,0.01,0.4,0
0.0010701,0.00012315,0.03592,0.014362,0.015085,0.0011564,0,0,0.054171,-0.001878,0,0.0060134,0,0,0,0.035981,0.0143,0.015085,3.0619,0.021789,0.0213,4.9404e-07,0.02,0.4,0
0.0016151,0.00020272,0.036102,0.013972,0.015022,0.0012324,0,0,0.054807,-0.0027298,0,0.0064086,0,0,0,0.03617,0.013904,0.015022,3.1778,0.021699,0.021729,5.222e-07,0.03,0.4,0
0.0021663,0.00029423,0.036291,0.013603,0.014968,0.0013221,0,0,0.05544,-0.00355,0,0.0068751,0,0,0,0.036368,0.013526,0.014968,3.3239,0.021621,0.022156,5.5062e-07,0.04,0.4,0
0.0027239,0.00039926,0.036544,0.013246,0.014937,0.0014911,0,0,0.056178,-0.0043958,0,0.0077536,0,0,0,0.036639,0.013151,0.014937,3.6472,0.021576,0.022648,5.8414e-07,0.05,0.4,0
0.0032898,0.00052274,0.037234,0.012957,0.015057,0.0017467,0,0,0.057659,-0.0054611,0,0.0090829,0,0,0,0.037359,0.012832,0.015057,4.0943,0.021749,0.023493,6.4587e-07,0.06,0.4,0
0.0038771,0.00065989,0.037914,0.012092,0.015002,0.0021463,0,0,0.059573,-0.0075665,0,0.011161,0,0,0,0.038092,0.011914,0.015002,4.7191,0.021669,0.024778,7.4059e-07,0.07,0.4,0
0.0044813,0.00080823,0.037156,0.010658,0.014344,0.0018154,0,0,0.044762,-0.0063894,0,0.0079053,0,0,0,0.037298,0.010517,0.014344,3.9349,0.02072,0.025106,7.439e-07,0.08,0.4,0
0.0047723,0.00085985,0.038224,0.013436,0.015498,0.0031909,0,0,0.029544,-0.0026806,0,0.0082964,0,0,0,0.038629,0.013032,0.015498,7.2188,0.022386,0.024457,7.2562e-07,0.09,0.4,0
0.0050722,0.00087288,0.038464,0.013187,0.015495,0.0026129,0,0,0.02986,-0.0030009,0,0.0067936,0,0,0,0.038732,0.01292,0.015495,5.8404,0.022382,0.024625,7.3874e-07,0.1,0.4,0
0.0053695,0.00088181,0.037971,0.012001,0.014992,0.0026074,0,0,0.029874,-0.003888,0,0.0067792,0,0,0,0.038231,0.011742,0.014992,5.6769,0.021655,0.025023,7.5911e-07,0.11,0.4,0
0.0056697,0.00088467,0.037898,0.011381,0.014784,0.0024611,0,0,0.030049,-0.0044235,0,0.0063989,0,0,0,0.038124,0.011154,0.014784,5.258,0.021354,0.025351,7.7927e-07,0.12,0.4,0
0.0059705,0.00088475,0.037699,0.010693,0.014517,0.0022833,0,0,0.030136,-0.0049723,0,0.0059366,0,0,0,0.03789,0.010501,0.014517,4.7989,0.020969,0.025618,7.9246e-07,0.13,0.4,0
0.0062724,0.00088118,0.03754,0.009961,0.01425,0.002101,0,0,0.030277,-0.0055763,0,0.0054627,0,0,0,0.0377,0.0098018,0.01425,4.3315,0.020584,0.025961,8.104e-07,0.14,0.4,0
0.006576,0.00087452,0.037427,0.0092478,0.014002,0.0019531,0,0,0.030451,-0.0061808,0,0.005078,0,0,0,0.037561,0.0091131,0.014002,3.946,0.020226,0.026346,8.3124e-07,0.15,0.4,0
0.0068814,0.00086556,0.037322,0.0085706,0.013768,0.0018403,0,0,0.03062,-0.0067563,0,0.0047848,0,0,0,0.037439,0.0084533,0.013768,3.6475,0.019887,0.026728,8.5144e-07,0.16,0.4,0
0.0071884,0.00085492,0.037216,0.0079438,0.013548,0.0017491,0,0,0.030769,-0.0072855,0,0.0045477,0,0,0,0.03732,0.0078396,0.013548,3.4074,0.019569,0.027082,8.6929e-07,0.17,0.4,0
0.0074968,0.00084297,0.037105,0.0073654,0.013341,0.0016666,0,0,0.030893,-0.0077684,0,0.0043333,0,0,0,0.037198,0.0072723,0.013341,3.1976,0.019271,0.0274,8.8433e-07,0.18,0.4,0
0.0078063,0.00082984,0.036991,0.0068283,0.013146,0.0015833,0,0,0.030999,-0.0082127,0,0.0041165,0,0,0,0.037074,0.0067454,0.013146,2.9965,0.018988,0.027689,8.9697e-07,0.19,0.4,0
0.0081168,0.0008155,0.036878,0.0063218,0.01296,0.0014944,0,0,0.031093,-0.0086294,0,0.0038854,0,0,0,0.03695,0.0062489,0.01296,2.7933,0.01872,0.027957,9.0798e-07,0.2,0.4,0
0.0084281,0.00079984,0.036769,0.0058367,0.012782,0.0013991,0,0,0.031183,-0.0090285,0,0.0036377,0,0,0,0.036832,0.0057735,0.012782,2.5845,0.018462,0.028215,9.1811e-07,0.21,0.4,0
0.0087404,0.00078272,0.036668,0.0053653,0.01261,0.0012987,0,0,0.031276,-0.0094182,0,0.0033767,0,0,0,0.036722,0.0053115,0.01261,2.3717,0.018215,0.028472,9.2798e-07,0.22,0.4,0
0.0090536,0.00076403,0.036577,0.0049022,0.012444,0.0011955,0,0,0.031373,-0.0098041,0,0.0031084,0,0,0,0.036622,0.0048572,0.012444,2.1585,0.017974,0.028733,9.38e-07,0.23,0.4,0
0.0093679,0.00074366,0.036497,0.0044437,0.012282,0.0010919,0,0,0.031479,-0.01019,0,0.0028389,0,0,0,0.036534,0.0044066,0.012282,1.9487,0.017741,0.029003,9.4845e-07,0.24,0.4,0
0.0096832,0.00072155,0.036427,0.0039873,0.012124,0.00098986,0,0,0.031593,-0.010578,0,0.0025736,0,0,0,0.036457,0.0039572,0.012124,1.7462,0.017513,0.029283,9.5947e-07,0.25,0.4,0
0.0099998,0.00069768,0.036368,0.0035313,0.01197,0.00089121,0,0,0.031718,-0.01097,0,0.0023171,0,0,0,0.036392,0.0035072,0.01197,1.5535,0.01729,0.029576,9.7115e-07,0.26,0.4,0
0.010318,0.00067202,0.03632,0.0030747,0.011818,0.00079721,0,0,0.031852,-0.011367,0,0.0020727,0,0,0,0.036339,0.0030556,0.011818,1.3729,0.017071,0.029882,9.8355e-07,0.27,0.4,0
0.010637,0.00064458,0.036284,0.0026168,0.01167,0.00070869,0,0,0.031998,-0.011769,0,0.0018426,0,0,0,0.036299,0.0026019,0.01167,1.2054,0.016857,0.030202,9.967e-07,0.28,0.4,0
0.010958,0.0006154,0.036259,0.0021577,0.011525,0.00062606,0,0,0.032154,-0.012178,0,0.0016278,0,0,0,0.036271,0.0021462,0.011525,1.0514,0.016647,0.030535,1.0106e-06,0.29,0.4,0
0.01128,0.00058447,0.036247,0.0016975,0.011383,0.00054922,0,0,0.032322,-0.012592,0,0.001428,0,0,0,0.036255,0.0016887,0.011383,0.91051,0.016442,0.030883,1.0254e-06,0.3,0.4,0
0.011604,0.00055183,0.036247,0.0012369,0.011245,0.00047756,0,0,0.032502,-0.013011,0,0.0012417,0,0,0,0.036254,0.0012304,0.011245,0.78136,0.016243,0.031244,1.041e-06,0.31,0.4,0
0.01193,0.00051746,0.036261,0.00077739,0.011112,0.00040982,0,0,0.032695,-0.013435,0,0.0010655,0,0,0,0.036266,0.00077266,0.011112,0.66161,0.01605,0.031618,1.0575e-06,0.32,0.4,0
0.012258,0.00048135,0.03629,0.00032118,0.010983,0.000344,0,0,0.032899,-0.013861,0,0.0008944,0,0,0,0.036294,0.00031789,0.010983,0.54789,0.015865,0.032005,1.075e-06,0.33,0.4,0
0.012588,0.00044342,0.036334,-0.00012806,0.010862,0.00027733,0,0,0.033114,-0.014287,0,0.00072107,0,0,0,0.036336,-0.00013017,0.010862,0.43576,0.015689,0.0324,1.0933e-06,0.34,0.4,0
0.01292,0.00040357,0.036392,-0.00056464,0.010748,0.00020637,0,0,0.033337,-0.014707,0,0.00053656,0,0,0,0.036393,-0.0005658,0.010748,0.31993,0.015525,0.0328,1.1122e-06,0.35,0.4,0
0.013255,0.00036165,0.036462,-0.00097988,0.010644,0.00012746,0,0,0.033562,-0.015112,0,0.00033139,0,0,0,0.036462,-0.00098031,0.010644,0.19504,0.015375,0.033193,1.1313e-06,0.36,0.4,0
0.013591,0.00031747,0.036538,-0.001361,0.010553,3.7941e-05,0,0,0.033781,-0.015489,0,9.8646e-05,0,0,0,0.036538,-0.0013611,0.010553,0.057359,0.015243,0.033567,1.1499e-06,0.37,0.4,0
0.01393,0.00027088,0.036615,-0.001691,0.010477,-6.168e-05,0,0,0.033979,-0.015818,0,-0.00016037,0,0,0,0.036615,-0.0016911,0.010477,-0.092257,0.015134,0.033901,1.1669e-06,0.38,0.4,0
0.014271,0.00022181,0.036682,-0.001949,0.01042,-0.00016491,0,0,0.034141,-0.01608,0,-0.00042878,0,0,0,0.036683,-0.0019497,0.01042,-0.24458,0.015051,0.034171,1.1809e-06,0.39,0.4,0
0.014613,0.00017045,0.036735,-0.0021162,0.010386,-0.00025644,0,0,0.034254,-0.016252,0,-0.00066674,0,0,0,0.036737,-0.0021179,0.010386,-0.37816,0.015002,0.034354,1.1909e-06,0.4,0.4,0
0.014956,0.00011739,0.036775,-0.0021816,0.010378,-0.00031295,0,0,0.034316,-0.016328,0,-0.00081366,0,0,0,0.036778,-0.0021841,0.010378,-0.46022,0.014991,0.034444,1.1967e-06,0.41,0.4,0
0.015299,6.3672e-05,0.036818,-0.0021574,0.010398,-0.0003069,0,0,0.034346,-0.016322,0,-0.00079793,0,0,0,0.03682,-0.0021598,0.010398,-0.45112,0.015019,0.034462,1.2001e-06,0.42,0.4,0
0.015643,1.0784e-05,0.03692,-0.0020677,0.010456,-0.00023197,0,0,0.034403,-0.01628,0,-0.00060313,0,0,0,0.036921,-0.0020691,0.010456,-0.34089,0.015103,0.034479,1.2072e-06,0.43,0.4,0
0.015988,-4.0214e-05,0.037059,-0.0020291,0.010509,-0.00013356,0,0,0.034515,-0.016299,0,-0.00034726,0,0,0,0.037059,-0.0020295,0.010509,-0.19578,0.01518,0.034569,1.2194e-06,0.44,0.4,0
0.016333,-8.9747e-05,0.037099,-0.0019819,0.010535,-7.8518e-05,0,0,0.034533,-0.016272,0,-0.00020415,0,0,0,0.037099,-0.0019821,0.010535,-0.11511,0.015218,0.034567,1.2219e-06,0.45,0.4,0
0.016678,-0.00013419,0.037567,-0.0012062,0.010908,-4.8016e-05,0,0,0.034656,-0.015749,0,-0.00012484,0,0,0,0.037567,-0.0012063,0.010908,-0.070953,0.015756,0.034357,1.2436e-06,0.46,0.4,0
0.017026,-0.00016904,0.037585,-0.00088304,0.011011,0.0011083,0,0,0.034547,-0.015462,0,0.0028815,0,0,0,0.037617,-0.00091494,0.011011,1.6489,0.015904,0.034168,1.2391e-06,0.47,0.4,0
0.017369,-0.00013617,0.036619,-0.0014431,0.010553,0.00078441,0,0,0.050639,-0.020793,0,0.0046609,0,0,0,0.036682,-0.0015055,0.010553,1.3998,0.015243,0.033909,1.1099e-06,0.48,0.4,0
0.018039,1.3192e-05,0.037532,0.0016591,0.011757,0.0016099,0,0,0.067014,-0.026255,0,0.0083713,0,0,0,0.037604,0.001587,0.011757,2.5644,0.016983,0.032161,1.1503e-06,0.49,0.4,0
0.018709,0.00016029,0.037215,0.0021195,0.0118,0.0010843,0,0,0.066078,-0.02517,0,0.0056383,0,0,0,0.037249,0.0020861,0.0118,1.7679,0.017045,0.031452,1.099e-06,0.5,0.4,0
0.019361,0.00028823,0.036443,0.0017781,0.011466,0.00059668,0,0,0.064939,-0.025189,0,0.0031027,0,0,0,0.036453,0.0017679,0.011466,0.98584,0.016562,0.030996,1.0398e-06,0.51,0.4,0
0.020008,0.00039359,0.036175,0.0014464,0.011287,0.00027985,0,0,0.064711,-0.025584,0,0.0014552,0,0,0,0.036178,0.0014442,0.011287,0.46166,0.016303,0.031007,1.0271e-06,0.52,0.4,0
0.020655,0.00048391,0.036024,0.0011539,0.011153,0.0001179,0,0,0.064664,-0.025999,0,0.00061306,0,0,0,0.036025,0.0011535,0.011153,0.19371,0.01611,0.031101,1.0237e-06,0.53,0.4,0
0.021301,0.000564,0.035886,0.00088942,0.011033,3.6394e-05,0,0,0.064619,-0.026372,0,0.00018925,0,0,0,0.035886,0.00088938,0.011033,0.059583,0.015936,0.031188,1.0205e-06,0.54,0.4,0
0.021947,0.00063687,0.035751,0.00065593,0.010922,-1.6661e-06,0,0,0.064555,-0.026692,0,-8.664e-06,0,0,0,0.035751,0.00065593,0.010922,-0.0027202,0.015776,0.031253,1.0165e-06,0.55,0.4,0
0.022593,0.00070446,0.035617,0.0004529,0.010821,-1.5017e-05,0,0,0.06447,-0.026957,0,-7.8087e-05,0,0,0,0.035617,0.00045289,0.010821,-0.024468,0.01563,0.031296,1.0116e-06,0.56,0.4,0
0.023237,0.0007681,0.035486,0.00027869,0.010729,-1.424e-05,0,0,0.064366,-0.027172,0,-7.405e-05,0,0,0,0.035486,0.00027868,0.010729,-0.023175,0.015498,0.031318,1.0058e-06,0.57,0.4,0
0.02388,0.00082869,0.035356,0.000131,0.010646,-5.8518e-06,0,0,0.064246,-0.027339,0,-3.043e-05,0,0,0,0.035356,0.000131,0.010646,-0.0095184,0.015378,0.03132,9.9931e-07,0.58,0.4,0
0.024522,0.00088684,0.035229,7.1933e-06,0.010571,5.8844e-06,0,0,0.06411,-0.027465,0,3.0599e-05,0,0,0,0.035229,7.1923e-06,0.010571,0.0095724,0.015269,0.031306,9.9229e-07,0.59,0.4,0
0.025162,0.00094297,0.035104,-9.5492e-05,0.010502,1.8112e-05,0,0,0.063964,-0.027555,0,9.4182e-05,0,0,0,0.035104,-9.5501e-05,0.010502,0.029482,0.01517,0.031277,9.8486e-07,0.6,0.4,0
0.025801,0.00099732,0.034982,-0.00017984,0.010441,2.8937e-05,0,0,0.063808,-0.027614,0,0.00015047,0,0,0,0.034982,-0.00017986,0.010441,0.047152,0.015081,0.031237,9.7718e-07,0.61,0.4,0
0.026438,0.0010501,0.034865,-0.00024853,0.010385,3.7165e-05,0,0,0.063647,-0.027647,0,0.00019326,0,0,0,0.034865,-0.00024857,0.010385,0.060643,0.015,0.031187,9.6937e-07,0.62,0.4,0
0.027074,0.0011013,0.034751,-0.00030411,0.010334,4.2119e-05,0,0,0.063484,-0.027659,0,0.00021902,0,0,0,0.034751,-0.00030416,0.010334,0.068841,0.014927,0.031131,9.6157e-07,0.63,0.4,0
0.027708,0.0011509,0.034642,-0.00034889,0.010288,4.3512e-05,0,0,0.063322,-0.027656,0,0.00022626,0,0,0,0.034642,-0.00034895,0.010288,0.071248,0.014861,0.03107,9.5389e-07,0.64,0.4,0
0.02834,0.0011991,0.034539,-0.00038497,0.010246,4.1344e-05,0,0,0.063161,-0.027641,0,0.00021499,0,0,0,0.034539,-0.00038501,0.010246,0.067828,0.0148,0.031007,9.4642e-07,0.65,0.4,0
0.028971,0.0012456,0.034441,-0.00041416,0.010208,3.5819e-05,0,0,0.063006,-0.027618,0,0.00018626,0,0,0,0.034441,-0.0004142,0.010208,0.05888,0.014745,0.030943,9.3925e-07,0.66,0.4,0
0.0296,0.0012906,0.034349,-0.00043808,0.010173,2.7286e-05,0,0,0.062857,-0.02759,0,0.00014189,0,0,0,0.034349,-0.0004381,0.010173,0.044941,0.014695,0.030881,9.3244e-07,0.67,0.4,0
0.030228,0.0013339,0.034263,-0.00045806,0.010141,1.6183e-05,0,0,0.062716,-0.027559,0,8.4152e-05,0,0,0,0.034263,-0.00045807,0.010141,0.026705,0.014649,0.03082,9.2603e-07,0.68,0.4,0
0.030855,0.0013755,0.034183,-0.00047523,0.010112,3.0008e-06,0,0,0.062584,-0.027528,0,1.5604e-05,0,0,0,0.034183,-0.00047523,0.010112,0.0049608,0.014607,0.030763,9.2005e-07,0.69,0.4,0
0.03148,0.0014153,0.034109,-0.00049049,0.010085,-1.1751e-05,0,0,0.06246,-0.027498,0,-6.1106e-05,0,0,0,0.034109,-0.0004905,0.010085,-0.01946,0.014568,0.030709,9.1452e-07,0.7,0.4,0
0.032104,0.0014533,0.03404,-0.00050459,0.010061,-2.7566e-05,0,0,0.062347,-0.02747,0,-0.00014334,0,0,0,0.03404,-0.00050462,0.010061,-0.045721,0.014532,0.030659,9.0944e-07,0.71,0.4,0
0.032727,0.0014896,0.033978,-0.00051809,0.010038,-4.3961e-05,0,0,0.062243,-0.027445,0,-0.0002286,0,0,0,0.033978,-0.00051815,0.010038,-0.073016,0.014499,0.030614,9.0481e-07,0.72,0.4,0
0.033349,0.0015241,0.03392,-0.0005314,0.010017,-6.0482e-05,0,0,0.062149,-0.027425,0,-0.00031451,0,0,0,0.03392,-0.00053151,0.010017,-0.10059,0.014468,0.030574,9.0063e-07,0.73,0.4,0
0.03397,0.0015567,0.033868,-0.00054484,0.0099969,-7.6723e-05,0,0,0.062064,-0.027408,0,-0.00039896,0,0,0,0.033868,-0.00054501,0.0099969,-0.12774,0.01444,0.030539,8.9686e-07,0.74,0.4,0
0.03459,0.0015875,0.03382,-0.00055859,0.0099785,-9.2321e-05,0,0,0.061989,-0.027397,0,-0.00048007,0,0,0,0.033821,-0.00055884,0.0099785,-0.15386,0.014413,0.030508,8.935e-07,0.75,0.4,0
0.03521,0.0016166,0.033778,-0.00057278,0.0099614,-0.00010696,0,0,0.061922,-0.027389,0,-0.00055621,0,0,0,0.033778,-0.00057312,0.0099614,-0.17841,0.014389,0.030481,8.9051e-07,0.76,0.4,0
0.035828,0.0016439,0.033739,-0.00058745,0.0099454,-0.00012039,0,0,0.061863,-0.027385,0,-0.00062602,0,0,0,0.033739,-0.00058787,0.0099454,-0.20094,0.014366,0.030458,8.8787e-07,0.77,0.4,0
0.036447,0.0016695,0.033704,-0.00060258,0.0099304,-0.00013238,0,0,0.061811,-0.027386,0,-0.00068838,0,0,0,0.033704,-0.00060309,0.0099304,-0.22109,0.014344,0.03044,8.8556e-07,0.78,0.4,0
0.037065,0.0016934,0.033673,-0.00061813,0.0099164,-0.00014277,0,0,0.061767,-0.02739,0,-0.00074242,0,0,0,0.033673,-0.00061873,0.0099164,-0.23855,0.014324,0.030425,8.8354e-07,0.79,0.4,0
0.037682,0.0017157,0.033645,-0.00063402,0.0099033,-0.00015144,0,0,0.061728,-0.027397,0,-0.00078747,0,0,0,0.033646,-0.00063469,0.0099033,-0.25311,0.014305,0.030413,8.8178e-07,0.8,0.4,0
0.038299,0.0017365,0.03362,-0.00065014,0.0098909,-0.00015829,0,0,0.061695,-0.027407,0,-0.00082311,0,0,0,0.033621,-0.00065087,0.0098909,-0.26464,0.014287,0.030404,8.8027e-07,0.81,0.4,0
0.038916,0.0017557,0.033598,-0.00066637,0.0098794,-0.00016328,0,0,0.061668,-0.027419,0,-0.00084905,0,0,0,0.033599,-0.00066714,0.0098794,-0.27302,0.01427,0.030397,8.7897e-07,0.82,0.4,0
0.039533,0.0017735,0.033578,-0.00068258,0.0098686,-0.00016638,0,0,0.061644,-0.027433,0,-0.0008652,0,0,0,0.033579,-0.00068339,0.0098686,-0.27825,0.014255,0.030392,8.7786e-07,0.83,0.4,0
0.040149,0.0017898,0.03356,-0.00069865,0.0098585,-0.00016762,0,0,0.061625,-0.027449,0,-0.0008716,0,0,0,0.033561,-0.00069947,0.0098585,-0.28032,0.01424,0.03039,8.7692e-07,0.84,0.4,0
0.040765,0.0018049,0.033545,-0.00071443,0.0098491,-0.000167,0,0,0.061609,-0.027465,0,-0.00086843,0,0,0,0.033546,-0.00071525,0.0098491,-0.27929,0.014226,0.030389,8.7612e-07,0.85,0.4,0
0.041381,0.0018187,0.033531,-0.00072981,0.0098404,-0.0001646,0,0,0.061596,-0.027483,0,-0.00085595,0,0,0,0.033532,-0.0007306,0.0098404,-0.27527,0.014214,0.030389,8.7546e-07,0.86,0.4,0
0.041997,0.0018312,0.033519,-0.00074466,0.0098323,-0.00016049,0,0,0.061586,-0.0275,0,-0.00083453,0,0,0,0.03352,-0.00074541,0.0098323,-0.26836,0.014202,0.03039,8.749e-07,0.87,0.4,0
0.042613,0.0018426,0.033508,-0.00075886,0.0098249,-0.00015473,0,0,0.061577,-0.027518,0,-0.00080461,0,0,0,0.033509,-0.00075956,0.0098249,-0.25871,0.014191,0.030392,8.7444e-07,0.88,0.4,0
0.043229,0.0018529,0.033499,-0.00077231,0.0098181,-0.00014744,0,0,0.061571,-0.027535,0,-0.0007667,0,0,0,0.0335,-0.00077295,0.0098181,-0.24649,0.014182,0.030394,8.7406e-07,0.89,0.4,0
0.043844,0.0018621,0.033491,-0.00078491,0.0098118,-0.00013872,0,0,0.061566,-0.027552,0,-0.00072134,0,0,0,0.033492,-0.00078547,0.0098118,-0.23188,0.014173,0.030397,8.7375e-07,0.9,0.4,0
0.04446,0.0018702,0.033484,-0.00079657,0.0098062,-0.00012868,0,0,0.061562,-0.027567,0,-0.00066914,0,0,0,0.033485,-0.00079705,0.0098062,-0.21507,0.014165,0.0304,8.735e-07,0.91,0.4,0
0.045076,0.0018774,0.033478,-0.0008072,0.0098012,-0.00011744,0,0,0.06156,-0.027582,0,-0.0006107,0,0,0,0.033478,-0.0008076,0.0098012,-0.19626,0.014157,0.030403,8.733e-07,0.92,0.4,0
0.045691,0.0018837,0.033473,-0.00081675,0.0097968,-0.00010513,0,0,0.061558,-0.027595,0,-0.0005467,0,0,0,0.033473,-0.00081707,0.0097968,-0.17567,0.014151,0.030406,8.7314e-07,0.93,0.4,0
0.046307,0.0018891,0.033468,-0.00082514,0.009793,-9.1881e-05,0,0,0.061556,-0.027607,0,-0.00047778,0,0,0,0.033469,-0.00082538,0.009793,-0.15351,0.014146,0.030409,8.7301e-07,0.94,0.4,0
0.046922,0.0018935,0.033465,-0.00083232,0.0097898,-7.7815e-05,0,0,0.061555,-0.027617,0,-0.00040464,0,0,0,0.033465,-0.0008325,0.0097898,-0.12999,0.014141,0.030411,8.7291e-07,0.95,0.4,0
0.047538,0.0018972,0.033462,-0.00083826,0.0097871,-6.307e-05,0,0,0.061555,-0.027626,0,-0.00032796,0,0,0,0.033462,-0.00083838,0.0097871,-0.10535,0.014137,0.030413,8.7284e-07,0.96,0.4,0
0.048153,0.0019,0.03346,-0.00084291,0.0097851,-4.778e-05,0,0,0.061554,-0.027633,0,-0.00024846,0,0,0,0.03346,-0.00084298,0.0097851,-0.079807,0.014134,0.030415,8.7279e-07,0.97,0.4,0
0.048769,0.001902,0.033458,-0.00084626,0.0097836,-3.2081e-05,0,0,0.061554,-0.027638,0,-0.00016682,0,0,0,0.033458,-0.00084629,0.0097836,-0.053582,0.014132,0.030416,8.7275e-07,0.98,0.4,0
0.049384,0.0019031,0.033457,-0.00084827,0.0097827,-1.6109e-05,0,0,0.061554,-0.027641,0,-8.3767e-05,0,0,0,0.033458,-0.00084828,0.0097827,-0.026904,0.014131,0.030417,8.7273e-07,0.99,0.4,0
0.05,0.0019035,0.033457,-0.00084894,0.0097825,7.6057e-06,0,0,0.061554,-0.027642,0,3.955e-05,0,0,0,0.033457,-0.00084895,0.0097825,0.012703,0.01413,0.030417,8.7272e-07,1,0.4,0
0,0,0.035346,0.015148,0.015148,0.00088827,0,0,0.052514,1.0842e-19,0,0.004619,0,0,0,0.035385,0.015109,0.015148,2.5133,0.021881,0.020256,4.2686e-07,0,0.41,0
0.00052514,4.619e-05,0.035304,0.01467,0.014992,0.00088819,0,0,0.05281,-0.00083722,0,0.0046186,0,0,0,0.035342,0.014632,0.014992,2.4603,0.021655,0.020532,4.4409e-07,0.01,0.41,0
0.0010562,0.00010545,0.035463,0.014287,0.014925,0.0009862,0,0,0.0534,-0.0016596,0,0.0051282,0,0,0,0.035509,0.014241,0.014925,2.6606,0.021558,0.020935,4.6952e-07,0.02,0.41,0
0.0015931,0.00017666,0.03563,0.013909,0.014862,0.0010597,0,0,0.053997,-0.0024763,0,0.0055102,0,0,0,0.035681,0.013858,0.014862,2.7864,0.021467,0.021339,4.9535e-07,0.03,0.41,0
0.0021361,0.00025966,0.035827,0.013528,0.014806,0.0011317,0,0,0.054653,-0.0033237,0,0.0058849,0,0,0,0.035884,0.013471,0.014806,2.898,0.021387,0.021776,5.2363e-07,0.04,0.41,0
0.0026862,0.0003553,0.036138,0.013129,0.01478,0.0012037,0,0,0.055531,-0.0042928,0,0.0062592,0,0,0,0.036201,0.013066,0.01478,2.9865,0.021349,0.022327,5.6031e-07,0.05,0.41,0
0.0032468,0.00046322,0.036581,0.012589,0.014751,0.001249,0,0,0.056759,-0.0056216,0,0.0064949,0,0,0,0.036646,0.012524,0.014751,2.972,0.021307,0.023089,6.1242e-07,0.06,0.41,0
0.0038214,0.00058355,0.03731,0.012131,0.014833,0.0012344,0,0,0.058442,-0.0070227,0,0.0064188,0,0,0,0.037371,0.012071,0.014833,2.8,0.021425,0.024038,6.8173e-07,0.07,0.41,0
0.0044156,0.00072811,0.042891,0.01196,0.016455,0.00076688,0,0,0.047765,-0.007681,0,0.0024817,0,0,0,0.042911,0.01194,0.016455,1.3213,0.023769,0.028984,1.3244e-06,0.08,0.41,0
0.0048349,0.00082395,0.035014,0.011428,0.013933,0.0030485,0,0,0.03789,-0.0044915,0,0.011024,0,0,0,0.035402,0.01104,0.013933,7.2766,0.020125,0.023052,6.9407e-07,0.09,0.41,0
0.0051329,0.00084419,0.038747,0.013095,0.015553,0.0034914,0,0,0.030153,-0.0031947,0,0.0090777,0,0,0,0.039214,0.012629,0.015553,7.6139,0.022465,0.025251,7.8962e-07,0.1,0.41,0
0.005438,0.00084187,0.03856,0.012405,0.015289,0.0029848,0,0,0.030252,-0.0037504,0,0.0077605,0,0,0,0.038897,0.012068,0.015289,6.4283,0.022085,0.025372,7.9342e-07,0.11,0.41,0
0.005738,0.00084137,0.037911,0.011744,0.014896,0.0027231,0,0,0.029919,-0.0040983,0,0.0070801,0,0,0,0.038191,0.011463,0.014896,5.8787,0.021517,0.025187,7.6951e-07,0.12,0.41,0
0.0060364,0.00083613,0.037568,0.010918,0.014546,0.0024292,0,0,0.029929,-0.0047156,0,0.0063158,0,0,0,0.037787,0.010699,0.014546,5.166,0.021011,0.025385,7.7546e-07,0.13,0.41,0
0.0063365,0.00082631,0.037444,0.010135,0.014274,0.0021997,0,0,0.030121,-0.0053801,0,0.0057193,0,0,0,0.03762,0.0099592,0.014274,4.5759,0.020618,0.025776,7.9711e-07,0.14,0.41,0
0.0066388,0.00081341,0.037342,0.0093641,0.014012,0.002048,0,0,0.030329,-0.0060422,0,0.0053247,0,0,0,0.037491,0.009215,0.014012,4.1644,0.020239,0.026209,8.2124e-07,0.15,0.41,0
0.0069431,0.00079855,0.037247,0.0086588,0.013772,0.0019431,0,0,0.030517,-0.0066466,0,0.005052,0,0,0,0.037378,0.0085273,0.013772,3.8706,0.019892,0.026619,8.4336e-07,0.16,0.41,0
0.0072492,0.00078256,0.037138,0.0080204,0.013547,0.0018629,0,0,0.030667,-0.0071852,0,0.0048435,0,0,0,0.037256,0.0079017,0.013547,3.6459,0.019568,0.026979,8.6151e-07,0.17,0.41,0
0.0075565,0.00076578,0.037021,0.0074453,0.01334,0.0017863,0,0,0.030785,-0.0076628,0,0.0046444,0,0,0,0.037128,0.0073378,0.01334,3.4439,0.019269,0.027289,8.7593e-07,0.18,0.41,0
0.0078648,0.00074825,0.036901,0.0069169,0.013145,0.0017025,0,0,0.030882,-0.0080968,0,0.0044265,0,0,0,0.036997,0.0068206,0.013145,3.2394,0.018988,0.027564,8.8762e-07,0.19,0.41,0
0.0081741,0.00072978,0.036784,0.0064199,0.012961,0.0016077,0,0,0.03097,-0.0085037,0,0.00418,0,0,0,0.036869,0.006335,0.012961,3.0224,0.018722,0.027819,8.9783e-07,0.2,0.41,0
0.0084843,0.00071015,0.036677,0.0059419,0.012785,0.001503,0,0,0.031058,-0.0088967,0,0.0039079,0,0,0,0.03675,0.0058686,0.012785,2.7931,0.018468,0.02807,9.0754e-07,0.21,0.41,0
0.0087953,0.00068915,0.03658,0.0054747,0.012616,0.0013916,0,0,0.031153,-0.0092844,0,0.0036182,0,0,0,0.036643,0.0054126,0.012616,2.5565,0.018224,0.028324,9.1742e-07,0.22,0.41,0
0.0091073,0.00066659,0.036497,0.0050129,0.012453,0.0012768,0,0,0.031257,-0.009672,0,0.0033197,0,0,0,0.036548,0.0049612,0.012453,2.3186,0.017988,0.028587,9.2783e-07,0.23,0.41,0
0.0094204,0.00064235,0.036426,0.0045533,0.012294,0.0011616,0,0,0.031371,-0.010062,0,0.0030202,0,0,0,0.036468,0.0045111,0.012294,2.0846,0.017757,0.028864,9.3895e-07,0.24,0.41,0
0.0097347,0.00061633,0.036367,0.0040939,0.012138,0.0010483,0,0,0.031497,-0.010457,0,0.0027257,0,0,0,0.036401,0.0040599,0.012138,1.8586,0.017533,0.029153,9.5085e-07,0.25,0.41,0
0.01005,0.00058849,0.036319,0.0036336,0.011986,0.00093862,0,0,0.031633,-0.010858,0,0.0024404,0,0,0,0.036346,0.0036066,0.011986,1.6435,0.017313,0.029458,9.6355e-07,0.26,0.41,0
0.010367,0.00055882,0.036283,0.0031716,0.011836,0.00083359,0,0,0.031781,-0.011264,0,0.0021673,0,0,0,0.036304,0.0031507,0.011836,1.4412,0.017097,0.029776,9.7705e-07,0.27,0.41,0
0.010686,0.00052731,0.036258,0.002708,0.01169,0.0007339,0,0,0.031939,-0.011676,0,0.0019081,0,0,0,0.036274,0.002692,0.01169,1.2525,0.016885,0.030109,9.9134e-07,0.28,0.41,0
0.011006,0.00049399,0.036245,0.002243,0.011546,0.00063974,0,0,0.032108,-0.012094,0,0.0016633,0,0,0,0.036257,0.002231,0.011546,1.0775,0.016678,0.030456,1.0064e-06,0.29,0.41,0
0.011328,0.00045887,0.036243,0.0017773,0.011406,0.00055084,0,0,0.032288,-0.012517,0,0.0014322,0,0,0,0.036251,0.0017685,0.011406,0.91541,0.016475,0.030816,1.0223e-06,0.3,0.41,0
0.011652,0.00042199,0.036253,0.0013121,0.01127,0.00046647,0,0,0.032478,-0.012945,0,0.0012128,0,0,0,0.036259,0.0013059,0.01127,0.76474,0.016278,0.031189,1.0389e-06,0.31,0.41,0
0.011978,0.00038335,0.036275,0.00084943,0.011137,0.0003854,0,0,0.032679,-0.013374,0,0.001002,0,0,0,0.036279,0.00084524,0.011137,0.62323,0.016087,0.031572,1.0563e-06,0.32,0.41,0
0.012306,0.00034295,0.03631,0.0003922,0.011011,0.00030589,0,0,0.032889,-0.013804,0,0.00079532,0,0,0,0.036312,0.0003896,0.011011,0.48791,0.015904,0.031964,1.0743e-06,0.33,0.41,0
0.012635,0.00030077,0.036356,-5.5327e-05,0.01089,0.00022581,0,0,0.033106,-0.014229,0,0.0005871,0,0,0,0.036357,-5.6727e-05,0.01089,0.3553,0.01573,0.032361,1.0928e-06,0.34,0.41,0
0.012968,0.00025675,0.036413,-0.00048706,0.010778,0.00014285,0,0,0.033325,-0.014644,0,0.00037141,0,0,0,0.036413,-0.00048761,0.010778,0.22181,0.015568,0.032755,1.1115e-06,0.35,0.41,0
0.013302,0.00021083,0.036476,-0.00089456,0.010674,5.5175e-05,0,0,0.033542,-0.01504,0,0.00014346,0,0,0,0.036476,-0.00089464,0.010674,0.084593,0.015419,0.033137,1.13e-06,0.36,0.41,0
0.013638,0.00016296,0.036543,-0.0012668,0.010583,-3.76e-05,0,0,0.033748,-0.015405,0,-9.7759e-05,0,0,0,0.036543,-0.0012668,0.010583,-0.056977,0.015286,0.033496,1.1475e-06,0.37,0.41,0
0.013977,0.00011314,0.036608,-0.0015903,0.010505,-0.00013295,0,0,0.033933,-0.015724,0,-0.00034566,0,0,0,0.036608,-0.0015907,0.010505,-0.19941,0.015174,0.033814,1.1633e-06,0.38,0.41,0
0.014317,6.1481e-05,0.036664,-0.0018513,0.010444,-0.0002239,0,0,0.034087,-0.015984,0,-0.00058214,0,0,0,0.036666,-0.0018526,0.010444,-0.33305,0.015086,0.034077,1.1764e-06,0.39,0.41,0
0.014659,8.3243e-06,0.036711,-0.0020388,0.010402,-0.00029851,0,0,0.034202,-0.016173,0,-0.00077613,0,0,0,0.036713,-0.0020411,0.010402,-0.44134,0.015025,0.034271,1.1864e-06,0.4,0.41,0
0.015001,-4.5726e-05,0.03675,-0.0021503,0.01038,-0.00034129,0,0,0.034281,-0.016289,0,-0.00088735,0,0,0,0.036753,-0.0021533,0.01038,-0.50263,0.014993,0.034397,1.1934e-06,0.41,0.41,0
0.015344,-9.9761e-05,0.036789,-0.0021945,0.010378,-0.00033999,0,0,0.034334,-0.016345,0,-0.00088397,0,0,0,0.036792,-0.0021975,0.010378,-0.49964,0.014991,0.034468,1.1985e-06,0.42,0.41,0
0.015688,-0.00015272,0.036822,-0.0022017,0.010386,-0.00029516,0,0,0.034366,-0.016364,0,-0.00076742,0,0,0,0.036824,-0.0022039,0.010386,-0.43334,0.015002,0.034501,1.2017e-06,0.43,0.41,0
0.016032,-0.00020362,0.036788,-0.0021832,0.010382,-0.00021803,0,0,0.034329,-0.016334,0,-0.00056689,0,0,0,0.036789,-0.0021844,0.010382,-0.32054,0.014996,0.034455,1.1978e-06,0.44,0.41,0
0.016374,-0.00025085,0.036631,-0.0020404,0.010377,-9.7011e-05,0,0,0.03413,-0.016143,0,-0.00025223,0,0,0,0.036631,-0.0020407,0.010377,-0.14373,0.014989,0.034197,1.1785e-06,0.45,0.41,0
0.016714,-0.000292,0.035935,-0.0019704,0.010189,0.00023633,0,0,0.033469,-0.015808,0,0.00061447,0,0,0,0.035936,-0.0019718,0.010189,0.35721,0.014718,0.033525,1.1119e-06,0.46,0.41,0
0.017044,-0.00031822,0.035471,-0.0017807,0.010107,0.00062478,0,0,0.032973,-0.015454,0,0.0016244,0,0,0,0.035481,-0.0017912,0.010107,0.96061,0.014599,0.032974,1.066e-06,0.47,0.41,0
0.017374,-0.00033436,0.035331,-0.00068346,0.010394,0.0017644,0,0,0.048343,-0.019201,0,0.0078894,0,0,0,0.035444,-0.00079617,0.010394,2.9681,0.015014,0.032225,9.9036e-07,0.48,0.41,0
0.018011,-0.00024412,0.035578,0.0018809,0.011238,0.0011637,0,0,0.063285,-0.024328,0,0.0060512,0,0,0,0.035618,0.0018408,0.011238,1.9755,0.016232,0.030196,9.6616e-07,0.49,0.41,0
0.018639,-8.3095e-05,0.035938,0.0023879,0.011498,0.0012837,0,0,0.063544,-0.023686,0,0.0066753,0,0,0,0.035987,0.0023389,0.011498,2.188,0.016608,0.030131,9.7975e-07,0.5,0.41,0
0.019282,3.928e-05,0.03633,0.00199,0.011496,0.00070509,0,0,0.064568,-0.024716,0,0.0036664,0,0,0,0.036344,0.0019755,0.011496,1.1758,0.016605,0.030735,1.023e-06,0.51,0.41,0
0.019931,0.00013843,0.036402,0.00161,0.011404,0.00041615,0,0,0.064996,-0.025463,0,0.002164,0,0,0,0.036407,0.001605,0.011404,0.68519,0.016472,0.031084,1.0415e-06,0.52,0.41,0
0.020581,0.00022372,0.036288,0.0012507,0.011262,0.00026761,0,0,0.065068,-0.026028,0,0.0013916,0,0,0,0.03629,0.0012487,0.011262,0.43759,0.016267,0.031261,1.0436e-06,0.53,0.41,0
0.021232,0.0002997,0.036132,0.00094199,0.011122,0.00018734,0,0,0.065025,-0.026468,0,0.00097414,0,0,0,0.036133,0.00094099,0.011122,0.30501,0.016065,0.031366,1.0402e-06,0.54,0.41,0
0.021882,0.00036922,0.035969,0.00068006,0.010995,0.00014668,0,0,0.064933,-0.026818,0,0.00076273,0,0,0,0.035969,0.00067945,0.010995,0.23815,0.015881,0.031429,1.0346e-06,0.55,0.41,0
0.022531,0.00043411,0.035809,0.00045953,0.01088,0.0001298,0,0,0.064813,-0.027094,0,0.00067498,0,0,0,0.035809,0.00045905,0.01088,0.21039,0.015716,0.031462,1.0279e-06,0.56,0.41,0
0.023178,0.00049562,0.035653,0.0002752,0.010778,0.00012704,0,0,0.064674,-0.027309,0,0.00066062,0,0,0,0.035654,0.00027474,0.010778,0.20575,0.015569,0.03147,1.0203e-06,0.57,0.41,0
0.023824,0.00055457,0.035503,0.00012247,0.010688,0.00013193,0,0,0.06452,-0.02747,0,0.00068602,0,0,0,0.035504,0.00012198,0.010688,0.21364,0.015438,0.031459,1.0122e-06,0.58,0.41,0
0.024469,0.00061152,0.035358,-2.8539e-06,0.010607,0.00014001,0,0,0.064354,-0.027585,0,0.00072804,0,0,0,0.035359,-3.4082e-06,0.010607,0.22685,0.015321,0.03143,1.0037e-06,0.59,0.41,0
0.025111,0.00066681,0.035219,-0.00010469,0.010534,0.00014824,0,0,0.06418,-0.027661,0,0.00077085,0,0,0,0.035219,-0.00010531,0.010534,0.24045,0.015216,0.031388,9.9489e-07,0.6,0.41,0
0.025752,0.00072065,0.035084,-0.00018666,0.010469,0.00015462,0,0,0.063999,-0.027705,0,0.00080401,0,0,0,0.035085,-0.00018733,0.010469,0.25116,0.015122,0.031334,9.86e-07,0.61,0.41,0
0.026391,0.00077313,0.034956,-0.00025208,0.010411,0.0001579,0,0,0.063816,-0.027724,0,0.00082109,0,0,0,0.034956,-0.00025278,0.010411,0.25696,0.015038,0.031272,9.7714e-07,0.62,0.41,0
0.027029,0.00082427,0.034833,-0.00030396,0.010359,0.00015744,0,0,0.063633,-0.027723,0,0.00081869,0,0,0,0.034834,-0.00030466,0.010359,0.25672,0.014963,0.031204,9.6843e-07,0.63,0.41,0
0.027664,0.00087404,0.034717,-0.00034496,0.010312,0.00015301,0,0,0.063454,-0.027707,0,0.00079566,0,0,0,0.034717,-0.00034563,0.010312,0.25004,0.014894,0.031134,9.5998e-07,0.64,0.41,0
0.028298,0.00092239,0.034607,-0.00037744,0.010269,0.00014471,0,0,0.06328,-0.027681,0,0.00075248,0,0,0,0.034608,-0.00037804,0.010269,0.23699,0.014833,0.031062,9.5187e-07,0.65,0.41,0
0.02893,0.00096924,0.034505,-0.00040339,0.01023,0.00013283,0,0,0.063113,-0.027648,0,0.00069074,0,0,0,0.034505,-0.00040389,0.01023,0.21802,0.014777,0.030992,9.4418e-07,0.66,0.41,0
0.02956,0.0010145,0.034409,-0.00042451,0.010195,0.00011784,0,0,0.062955,-0.027612,0,0.00061278,0,0,0,0.034409,-0.00042491,0.010195,0.19383,0.014727,0.030924,9.3696e-07,0.67,0.41,0
0.030189,0.0010582,0.03432,-0.00044222,0.010163,0.00010027,0,0,0.062808,-0.027575,0,0.0005214,0,0,0,0.03432,-0.00044251,0.010163,0.16526,0.014681,0.030859,9.3024e-07,0.68,0.41,0
0.030816,0.0011001,0.034238,-0.00045766,0.010134,8.0695e-05,0,0,0.062671,-0.027539,0,0.00041961,0,0,0,0.034238,-0.00045785,0.010134,0.13326,0.014638,0.030798,9.2404e-07,0.69,0.41,0
0.031442,0.0011402,0.034163,-0.00047175,0.010107,5.9701e-05,0,0,0.062545,-0.027506,0,0.00031045,0,0,0,0.034163,-0.00047185,0.010107,0.098762,0.014599,0.030742,9.1837e-07,0.7,0.41,0
0.032067,0.0011786,0.034094,-0.00048519,0.010083,3.7859e-05,0,0,0.06243,-0.027477,0,0.00019687,0,0,0,0.034094,-0.00048523,0.010083,0.062729,0.014564,0.030692,9.1322e-07,0.71,0.41,0
0.032691,0.0012151,0.034031,-0.00049852,0.01006,1.5701e-05,0,0,0.062326,-0.027452,0,8.1644e-05,0,0,0,0.034031,-0.00049853,0.01006,0.026052,0.014531,0.030647,9.0858e-07,0.72,0.41,0
0.033314,0.0012497,0.033975,-0.00051212,0.010039,-6.2844e-06,0,0,0.062233,-0.027432,0,-3.2679e-05,0,0,0,0.033975,-0.00051212,0.010039,-0.010441,0.0145,0.030607,9.0442e-07,0.73,0.41,0
0.033935,0.0012825,0.033923,-0.00052623,0.010019,-2.7663e-05,0,0,0.062151,-0.027418,0,-0.00014385,0,0,0,0.033923,-0.00052625,0.010019,-0.046008,0.014472,0.030573,9.0073e-07,0.74,0.41,0
0.034556,0.0013135,0.033877,-0.000541,0.010001,-4.8057e-05,0,0,0.062078,-0.027409,0,-0.0002499,0,0,0,0.033877,-0.00054106,0.010001,-0.080001,0.014446,0.030544,8.9747e-07,0.75,0.41,0
0.035177,0.0013426,0.033835,-0.00055648,0.0099837,-6.7149e-05,0,0,0.062015,-0.027404,0,-0.00034917,0,0,0,0.033836,-0.00055661,0.0099837,-0.11187,0.014421,0.030519,8.9462e-07,0.76,0.41,0
0.035797,0.0013699,0.033798,-0.00057268,0.0099677,-8.4675e-05,0,0,0.06196,-0.027405,0,-0.00044031,0,0,0,0.033798,-0.00057289,0.0099677,-0.14115,0.014398,0.030499,8.9213e-07,0.77,0.41,0
0.036416,0.0013955,0.033765,-0.00058953,0.0099527,-0.00010043,0,0,0.061912,-0.02741,0,-0.00052223,0,0,0,0.033765,-0.00058982,0.0099527,-0.16749,0.014376,0.030483,8.8998e-07,0.78,0.41,0
0.037035,0.0014193,0.033735,-0.00060693,0.0099386,-0.00011425,0,0,0.061872,-0.027418,0,-0.00059412,0,0,0,0.033736,-0.00060731,0.0099386,-0.19062,0.014356,0.030471,8.8813e-07,0.79,0.41,0
0.037653,0.0014415,0.033709,-0.00062476,0.0099253,-0.00012604,0,0,0.061838,-0.02743,0,-0.00065541,0,0,0,0.03371,-0.00062522,0.0099253,-0.21033,0.014337,0.030462,8.8655e-07,0.8,0.41,0
0.038272,0.0014622,0.033686,-0.00064288,0.0099129,-0.00013572,0,0,0.06181,-0.027445,0,-0.00070573,0,0,0,0.033686,-0.00064342,0.0099129,-0.22651,0.014319,0.030456,8.8521e-07,0.81,0.41,0
0.03889,0.0014813,0.033665,-0.00066113,0.0099012,-0.00014326,0,0,0.061786,-0.027462,0,-0.00074493,0,0,0,0.033666,-0.00066173,0.0099012,-0.23911,0.014302,0.030453,8.8409e-07,0.82,0.41,0
0.039508,0.0014989,0.033647,-0.00067936,0.0098903,-0.00014866,0,0,0.061767,-0.027481,0,-0.00077302,0,0,0,0.033648,-0.00068,0.0098903,-0.24812,0.014286,0.030451,8.8315e-07,0.83,0.41,0
0.040125,0.0015151,0.033631,-0.00069741,0.00988,-0.00015195,0,0,0.061752,-0.027501,0,-0.00079014,0,0,0,0.033632,-0.00069808,0.00988,-0.25361,0.014271,0.030451,8.8237e-07,0.84,0.41,0
0.040743,0.0015299,0.033617,-0.00071512,0.0098705,-0.00015319,0,0,0.06174,-0.027523,0,-0.00079657,0,0,0,0.033617,-0.0007158,0.0098705,-0.25565,0.014257,0.030453,8.8173e-07,0.85,0.41,0
0.04136,0.0015435,0.033604,-0.00073235,0.0098616,-0.00015244,0,0,0.061731,-0.027544,0,-0.00079271,0,0,0,0.033605,-0.00073303,0.0098616,-0.25437,0.014245,0.030456,8.8121e-07,0.86,0.41,0
0.041977,0.0015559,0.033593,-0.00074896,0.0098533,-0.00014981,0,0,0.061724,-0.027566,0,-0.00077901,0,0,0,0.033594,-0.00074962,0.0098533,-0.24993,0.014233,0.030459,8.8079e-07,0.87,0.41,0
0.042594,0.0015671,0.033584,-0.00076483,0.0098457,-0.00014539,0,0,0.061719,-0.027587,0,-0.00075601,0,0,0,0.033585,-0.00076544,0.0098457,-0.24251,0.014222,0.030464,8.8046e-07,0.88,0.41,0
0.043212,0.0015771,0.033576,-0.00077983,0.0098387,-0.00013929,0,0,0.061716,-0.027608,0,-0.00072431,0,0,0,0.033576,-0.00078039,0.0098387,-0.2323,0.014212,0.030468,8.802e-07,0.89,0.41,0
0.043829,0.0015861,0.033568,-0.00079385,0.0098324,-0.00013165,0,0,0.061714,-0.027628,0,-0.00068455,0,0,0,0.033569,-0.00079436,0.0098324,-0.2195,0.014202,0.030473,8.8e-07,0.9,0.41,0
0.044446,0.0015942,0.033562,-0.00080682,0.0098266,-0.00012258,0,0,0.061712,-0.027647,0,-0.0006374,0,0,0,0.033563,-0.00080725,0.0098266,-0.20434,0.014194,0.030478,8.7984e-07,0.91,0.41,0
0.045063,0.0016012,0.033557,-0.00081863,0.0098214,-0.00011222,0,0,0.061712,-0.027664,0,-0.00058356,0,0,0,0.033557,-0.000819,0.0098214,-0.18705,0.014186,0.030482,8.7972e-07,0.92,0.41,0
0.04568,0.0016073,0.033552,-0.00082922,0.0098169,-0.00010072,0,0,0.061712,-0.02768,0,-0.00052375,0,0,0,0.033552,-0.00082951,0.0098169,-0.16785,0.01418,0.030486,8.7964e-07,0.93,0.41,0
0.046297,0.0016125,0.033548,-0.00083851,0.009813,-8.821e-05,0,0,0.061712,-0.027694,0,-0.00045869,0,0,0,0.033549,-0.00083874,0.009813,-0.14697,0.014174,0.03049,8.7958e-07,0.94,0.41,0
0.046914,0.0016169,0.033545,-0.00084647,0.0098096,-7.4833e-05,0,0,0.061713,-0.027706,0,-0.00038913,0,0,0,0.033545,-0.00084663,0.0098096,-0.12467,0.014169,0.030494,8.7953e-07,0.95,0.41,0
0.047531,0.0016205,0.033543,-0.00085304,0.0098069,-6.0734e-05,0,0,0.061713,-0.027716,0,-0.00031582,0,0,0,0.033543,-0.00085315,0.0098069,-0.10117,0.014166,0.030497,8.795e-07,0.96,0.41,0
0.048149,0.0016232,0.033541,-0.00085818,0.0098048,-4.6057e-05,0,0,0.061714,-0.027724,0,-0.0002395,0,0,0,0.033541,-0.00085825,0.0098048,-0.076713,0.014162,0.030499,8.7948e-07,0.97,0.41,0
0.048766,0.0016251,0.033539,-0.00086188,0.0098033,-3.0946e-05,0,0,0.061714,-0.02773,0,-0.00016092,0,0,0,0.03354,-0.00086191,0.0098033,-0.05154,0.01416,0.030501,8.7947e-07,0.98,0.41,0
0.049383,0.0016263,0.033539,-0.0008641,0.0098024,-1.5545e-05,0,0,0.061714,-0.027733,0,-8.0835e-05,0,0,0,0.033539,-0.00086411,0.0098024,-0.025889,0.014159,0.030502,8.7946e-07,0.99,0.41,0
0.05,0.0016267,0.033538,-0.00086485,0.0098021,7.4011e-06,0,0,0.061715,-0.027734,0,3.8486e-05,0,0,0,0.033538,-0.00086485,0.0098021,0.012326,0.014159,0.030502,8.7946e-07,1,0.41,0
0,0,0.034905,0.014959,0.014959,0.00074031,0,0,0.051859,1.0842e-19,0,0.0038496,0,0,0,0.034933,0.014932,0.014959,2.1227,0.021608,0.019987,4.1008e-07,0,0.42,0
0.00051859,3.8496e-05,0.034872,0.014557,0.014828,0.00074182,0,0,0.052112,-0.00070674,0,0.0038575,0,0,0,0.034899,0.01453,0.014828,2.0885,0.021419,0.020221,4.2436e-07,0.01,0.42,0
0.0010422,8.9957e-05,0.035004,0.014208,0.014764,0.00084076,0,0,0.052625,-0.0014447,0,0.0043719,0,0,0,0.035038,0.014174,0.014764,2.3114,0.021325,0.020576,4.4614e-07,0.02,0.42,0
0.0015711,0.0001532,0.035139,0.013845,0.014695,0.00091072,0,0,0.053155,-0.0022116,0,0.0047357,0,0,0,0.035178,0.013806,0.014695,2.4444,0.021226,0.020942,4.6885e-07,0.03,0.42,0
0.0021054,0.00022776,0.035284,0.013458,0.014623,0.00095998,0,0,0.053721,-0.003029,0,0.0049919,0,0,0,0.035326,0.013415,0.014623,2.5135,0.021122,0.021333,4.9326e-07,0.04,0.42,0
0.0026455,0.0003134,0.035415,0.013009,0.014527,0.00098414,0,0,0.054308,-0.0039464,0,0.0051175,0,0,0,0.035458,0.012966,0.014527,2.5102,0.020984,0.021753,5.1951e-07,0.05,0.42,0
0.0031915,0.00041031,0.035431,0.012477,0.014372,0.00095684,0,0,0.054752,-0.0049275,0,0.0049755,0,0,0,0.035471,0.012438,0.014372,2.3829,0.02076,0.022129,5.4226e-07,0.06,0.42,0
0.0037406,0.00051943,0.035133,0.011865,0.014099,0.0010027,0,0,0.054687,-0.0058097,0,0.0052141,0,0,0,0.035176,0.011822,0.014099,2.463,0.020366,0.022303,5.4979e-07,0.07,0.42,0
0.0042852,0.00065792,0.035615,0.011148,0.014029,0.00063109,0,0,0.056124,-0.0074896,0,0.0032817,0,0,0,0.035631,0.011132,0.014029,1.4766,0.020264,0.023187,6.0669e-07,0.08,0.42,0
0.004863,0.00077453,0.039858,0.01255,0.015723,0.0015691,0,0,0.044113,-0.0057771,0,0.0050327,0,0,0,0.039959,0.01245,0.015723,3.0535,0.022711,0.026028,9.5187e-07,0.09,0.42,0
0.0052358,0.00080899,0.032784,0.011735,0.013356,0.0037088,0,0,0.034577,-0.002667,0,0.013414,0,0,0,0.03342,0.011099,0.013356,9.864,0.019292,0.021285,5.7529e-07,0.1,0.42,0
0.0055275,0.0008068,0.037423,0.012812,0.015071,0.0032583,0,0,0.029059,-0.0029364,0,0.0084717,0,0,0,0.037847,0.012388,0.015071,7.4153,0.021768,0.02423,7.0049e-07,0.11,0.42,0
0.005817,0.00080271,0.037207,0.011905,0.014733,0.0028775,0,0,0.029215,-0.0036776,0,0.0074816,0,0,0,0.03753,0.011581,0.014733,6.407,0.021282,0.024525,7.156e-07,0.12,0.42,0
0.0061118,0.00079044,0.037347,0.011184,0.014559,0.0024921,0,0,0.029624,-0.0043881,0,0.0064795,0,0,0,0.037582,0.010948,0.014559,5.393,0.02103,0.025025,7.4868e-07,0.13,0.42,0
0.0064095,0.00077358,0.037288,0.010284,0.014271,0.0022764,0,0,0.029921,-0.0051842,0,0.0059186,0,0,0,0.037478,0.010093,0.014271,4.7849,0.020614,0.025554,7.8033e-07,0.14,0.42,0
0.0067103,0.00075368,0.037235,0.0094709,0.014012,0.0021339,0,0,0.03019,-0.0059032,0,0.0055481,0,0,0,0.037398,0.0093079,0.014012,4.3694,0.020239,0.026059,8.0992e-07,0.15,0.42,0
0.0070133,0.00073263,0.037135,0.0087274,0.013759,0.0020523,0,0,0.030389,-0.0065407,0,0.0053361,0,0,0,0.037282,0.0085798,0.013759,4.1109,0.019874,0.026496,8.336e-07,0.16,0.42,0
0.007318,0.00071122,0.037021,0.0080888,0.013533,0.0019866,0,0,0.030535,-0.0070774,0,0.0051652,0,0,0,0.037157,0.007953,0.013533,3.9097,0.019548,0.026852,8.5146e-07,0.17,0.42,0
0.007624,0.00068972,0.036894,0.0075257,0.013326,0.001915,0,0,0.030638,-0.0075402,0,0.004979,0,0,0,0.037018,0.0074014,0.013326,3.7151,0.019249,0.027144,8.645e-07,0.18,0.42,0
0.0079308,0.0006679,0.036768,0.0070137,0.013134,0.0018258,0,0,0.030723,-0.0079569,0,0.0047472,0,0,0,0.036879,0.006902,0.013134,3.4984,0.018972,0.027398,8.7483e-07,0.19,0.42,0
0.0082384,0.00064542,0.036651,0.0065296,0.012954,0.0017196,0,0,0.030805,-0.0083518,0,0.004471,0,0,0,0.036748,0.0064317,0.012954,3.2569,0.018711,0.027639,8.8416e-07,0.2,0.42,0
0.0085469,0.0006219,0.036548,0.0060598,0.012782,0.001601,0,0,0.030895,-0.0087391,0,0.0041626,0,0,0,0.036632,0.005976,0.012782,2.9977,0.018463,0.027883,8.9365e-07,0.21,0.42,0
0.0088564,0.00059703,0.036461,0.0055966,0.012617,0.0014754,0,0,0.030996,-0.0091267,0,0.003836,0,0,0,0.036531,0.0055263,0.012617,2.7306,0.018225,0.028137,9.0384e-07,0.22,0.42,0
0.0091669,0.00057059,0.036388,0.0051356,0.012457,0.0013471,0,0,0.031111,-0.0095182,0,0.0035026,0,0,0,0.036446,0.0050776,0.012457,2.4636,0.017994,0.028407,9.1494e-07,0.23,0.42,0
0.0094786,0.00054241,0.03633,0.0046742,0.012301,0.0012195,0,0,0.031237,-0.0099152,0,0.0031707,0,0,0,0.036377,0.0046273,0.012301,2.2029,0.017768,0.028693,9.2699e-07,0.24,0.42,0
0.0097916,0.0005124,0.036284,0.0042113,0.012149,0.0010946,0,0,0.031376,-0.010318,0,0.002846,0,0,0,0.036321,0.004174,0.012149,1.9525,0.017548,0.028994,9.3995e-07,0.25,0.42,0
0.010106,0.00048052,0.036249,0.0037463,0.011999,0.00097395,0,0,0.031526,-0.010728,0,0.0025323,0,0,0,0.036278,0.0037172,0.011999,1.7148,0.017331,0.029311,9.5377e-07,0.26,0.42,0
0.010422,0.00044673,0.036225,0.0032791,0.011851,0.00085829,0,0,0.031686,-0.011144,0,0.0022316,0,0,0,0.036248,0.0032567,0.011851,1.4913,0.017118,0.029643,9.6839e-07,0.27,0.42,0
0.01074,0.00041106,0.036211,0.0028098,0.011706,0.00074804,0,0,0.031856,-0.011565,0,0.0019449,0,0,0,0.036228,0.0027931,0.011706,1.2823,0.016909,0.029989,9.8377e-07,0.28,0.42,0
0.011059,0.00037351,0.036208,0.0023393,0.011564,0.00064319,0,0,0.032037,-0.011992,0,0.0016723,0,0,0,0.03622,0.0023271,0.011564,1.0876,0.016704,0.030348,9.9986e-07,0.29,0.42,0
0.01138,0.00033412,0.036214,0.0018685,0.011425,0.00054335,0,0,0.032226,-0.012423,0,0.0014127,0,0,0,0.036223,0.0018599,0.011425,0.90612,0.016502,0.030718,1.0166e-06,0.3,0.42,0
0.011704,0.00029294,0.036231,0.0013993,0.011289,0.00044779,0,0,0.032425,-0.012857,0,0.0011642,0,0,0,0.036237,0.0013935,0.011289,0.73642,0.016306,0.031099,1.034e-06,0.31,0.42,0
0.012029,0.00024997,0.036258,0.0009338,0.011158,0.00035544,0,0,0.03263,-0.013291,0,0.00092414,0,0,0,0.036261,0.00093023,0.011158,0.57644,0.016116,0.031489,1.0519e-06,0.32,0.42,0
0.012356,0.00020527,0.036294,0.0004755,0.011031,0.00026496,0,0,0.032842,-0.013722,0,0.00068889,0,0,0,0.036296,0.00047354,0.011031,0.42379,0.015934,0.031883,1.0701e-06,0.33,0.42,0
0.012686,0.00015884,0.03634,2.884e-05,0.010911,0.0001749,0,0,0.033058,-0.014146,0,0.00045474,0,0,0,0.03634,2.7998e-05,0.010911,0.27597,0.01576,0.032278,1.0886e-06,0.34,0.42,0
0.013017,0.00011069,0.036392,-0.00040019,0.010797,8.4016e-05,0,0,0.033272,-0.014557,0,0.00021844,0,0,0,0.036392,-0.00040038,0.010797,0.13084,0.015596,0.032666,1.1069e-06,0.35,0.42,0
0.013351,6.0854e-05,0.036447,-0.00080395,0.010693,-8.2091e-06,0,0,0.033481,-0.014946,0,-2.1344e-05,0,0,0,0.036447,-0.00080395,0.010693,-0.012626,0.015445,0.033039,1.1245e-06,0.36,0.42,0
0.013687,9.3816e-06,0.036504,-0.0011732,0.010599,-0.00010082,0,0,0.033676,-0.015304,0,-0.00026215,0,0,0,0.036504,-0.0011735,0.010599,-0.15332,0.01531,0.033386,1.1411e-06,0.37,0.42,0
0.014025,-4.3605e-05,0.036556,-0.001498,0.010517,-0.00019056,0,0,0.03385,-0.01562,0,-0.00049546,0,0,0,0.036557,-0.0014989,0.010517,-0.28691,0.015192,0.033695,1.1558e-06,0.38,0.42,0
0.014364,-9.7869e-05,0.036602,-0.0017688,0.01045,-0.00027122,0,0,0.033997,-0.015884,0,-0.00070518,0,0,0,0.036603,-0.0017707,0.01045,-0.40497,0.015094,0.033955,1.1681e-06,0.39,0.42,0
0.014705,-0.000153,0.036638,-0.0019795,0.010398,-0.00033382,0,0,0.034113,-0.01609,0,-0.00086792,0,0,0,0.036641,-0.0019824,0.010398,-0.49522,0.015019,0.03416,1.1779e-06,0.4,0.42,0
0.015046,-0.00020839,0.036667,-0.0021294,0.010361,-0.00036816,0,0,0.034198,-0.016238,0,-0.0009572,0,0,0,0.036671,-0.0021329,0.010361,-0.54363,0.014966,0.034307,1.185e-06,0.41,0.42,0
0.015389,-0.00026323,0.036688,-0.0022258,0.010339,-0.00036535,0,0,0.034254,-0.016334,0,-0.00094992,0,0,0,0.036691,-0.0022293,0.010339,-0.53788,0.014934,0.034404,1.1897e-06,0.42,0.42,0
0.015731,-0.0003165,0.036692,-0.0022768,0.010325,-0.00031726,0,0,0.034277,-0.016382,0,-0.00082487,0,0,0,0.036694,-0.0022793,0.010325,-0.46643,0.014913,0.034447,1.1914e-06,0.43,0.42,0
0.016074,-0.0003669,0.036671,-0.0022713,0.01032,-0.00020533,0,0,0.034256,-0.016368,0,-0.00053387,0,0,0,0.036672,-0.0022723,0.01032,-0.3021,0.014906,0.034421,1.1891e-06,0.44,0.42,0
0.016417,-0.0004126,0.036607,-0.0022169,0.010317,3.3885e-05,0,0,0.034177,-0.016294,0,8.81e-05,0,0,0,0.036607,-0.002217,0.010317,0.050007,0.014902,0.034319,1.1813e-06,0.45,0.42,0
0.016758,-0.00045034,0.036733,-0.0020656,0.0104,0.00047366,0,0,0.034232,-0.016206,0,0.0012315,0,0,0,0.036739,-0.0020714,0.0104,0.69934,0.015022,0.034318,1.1897e-06,0.46,0.42,0
0.017101,-0.00047812,0.037183,-0.0023367,0.010454,0.00079411,0,0,0.034748,-0.016628,0,0.0020647,0,0,0,0.037199,-0.0023527,0.010454,1.1507,0.0151,0.034955,1.2425e-06,0.47,0.42,0
0.017453,-0.0005202,0.03374,-5.2612e-05,0.010106,0.0022134,0,0,0.042128,-0.017853,0,0.0089036,0,0,0,0.033904,-0.00021703,0.010106,4.1099,0.014598,0.030309,1.0596e-06,0.48,0.42,0
0.017909,-0.00047336,0.041821,0.0015544,0.013013,9.8355e-05,0,0,0.052095,-0.020299,0,0.0011238,0,0,0,0.041831,0.0015449,0.013013,0.34838,0.018796,0.035954,1.8165e-06,0.49,0.42,0
0.018559,-0.00031342,0.037188,0.0032077,0.012119,0.0012813,0,0,0.065181,-0.023169,0,0.006663,0,0,0,0.037236,0.0031595,0.012119,2.1564,0.017505,0.030597,1.0571e-06,0.5,0.42,0
0.019213,-0.00020608,0.036944,0.0023868,0.011799,0.00077917,0,0,0.065376,-0.024472,0,0.0040517,0,0,0,0.036961,0.0023693,0.011799,1.291,0.017043,0.030973,1.0627e-06,0.51,0.42,0
0.019867,-0.00011568,0.036735,0.0018069,0.011563,0.00058247,0,0,0.065449,-0.025365,0,0.0030289,0,0,0,0.036745,0.0017971,0.011563,0.95511,0.016702,0.031232,1.0645e-06,0.52,0.42,0
0.020522,-3.6659e-05,0.036529,0.001361,0.011367,0.00045012,0,0,0.065421,-0.026015,0,0.0023406,0,0,0,0.036534,0.0013552,0.011367,0.73318,0.016419,0.031394,1.0614e-06,0.53,0.42,0
0.021175,3.4634e-05,0.036327,0.0010026,0.011199,0.00036786,0,0,0.065333,-0.02651,0,0.0019129,0,0,0,0.036331,0.00099876,0.011199,0.59658,0.016176,0.031496,1.0556e-06,0.54,0.42,0
0.021828,0.00010051,0.036135,0.00071028,0.011054,0.00032038,0,0,0.065211,-0.026892,0,0.001666,0,0,0,0.036138,0.00070738,0.011054,0.51812,0.015966,0.031556,1.0484e-06,0.55,0.42,0
0.02248,0.00016258,0.035952,0.00047111,0.010927,0.00029646,0,0,0.065066,-0.027185,0,0.0015416,0,0,0,0.035955,0.00046863,0.010927,0.47869,0.015783,0.031584,1.0402e-06,0.56,0.42,0
0.02313,0.00022193,0.035779,0.00027612,0.010816,0.00028727,0,0,0.064902,-0.027405,0,0.0014938,0,0,0,0.035781,0.00027379,0.010816,0.46357,0.015624,0.031585,1.0314e-06,0.57,0.42,0
0.023778,0.0002793,0.035613,0.00011828,0.010719,0.0002862,0,0,0.064724,-0.027563,0,0.0014882,0,0,0,0.035615,0.00011597,0.010719,0.46194,0.015484,0.031563,1.022e-06,0.58,0.42,0
0.024424,0.00033515,0.035454,-8.3365e-06,0.010634,0.00028845,0,0,0.064534,-0.02767,0,0.0014999,0,0,0,0.035457,-1.0682e-05,0.010634,0.466,0.01536,0.031523,1.0122e-06,0.59,0.42,0
0.025068,0.00038974,0.035303,-0.00010891,0.010558,0.00029071,0,0,0.064336,-0.027734,0,0.0015117,0,0,0,0.035305,-0.00011129,0.010558,0.47032,0.015251,0.031469,1.0024e-06,0.6,0.42,0
0.025711,0.00044321,0.035158,-0.00018801,0.010491,0.0002908,0,0,0.064134,-0.027765,0,0.0015122,0,0,0,0.03516,-0.0001904,0.010491,0.47135,0.015154,0.031404,9.9246e-07,0.61,0.42,0
0.026351,0.00049557,0.035021,-0.00024969,0.010431,0.00028745,0,0,0.063933,-0.027771,0,0.0014947,0,0,0,0.035023,-0.00025203,0.010431,0.46691,0.015067,0.031331,9.8272e-07,0.62,0.42,0
0.026989,0.00054679,0.034891,-0.00029746,0.010378,0.00028,0,0,0.063734,-0.027756,0,0.001456,0,0,0,0.034893,-0.00029969,0.010378,0.45588,0.014991,0.031253,9.7325e-07,0.63,0.42,0
0.027626,0.00059678,0.034769,-0.00033439,0.01033,0.00026832,0,0,0.063541,-0.027728,0,0.0013953,0,0,0,0.034771,-0.00033644,0.01033,0.43792,0.014922,0.031174,9.6416e-07,0.64,0.42,0
0.02826,0.00064545,0.034655,-0.00036306,0.010288,0.00025259,0,0,0.063356,-0.027692,0,0.0013135,0,0,0,0.034657,-0.00036488,0.010288,0.41325,0.01486,0.031096,9.5554e-07,0.65,0.42,0
0.028893,0.00069268,0.034549,-0.00038566,0.010249,0.00023321,0,0,0.063181,-0.02765,0,0.0012127,0,0,0,0.034551,-0.00038722,0.010249,0.38247,0.014804,0.031019,9.4745e-07,0.66,0.42,0
0.029524,0.00073836,0.034451,-0.000404,0.010214,0.00021075,0,0,0.063017,-0.027607,0,0.0010959,0,0,0,0.034453,-0.00040527,0.010214,0.34642,0.014754,0.030946,9.3993e-07,0.67,0.42,0
0.030153,0.00078239,0.034361,-0.00041953,0.010183,0.00018582,0,0,0.062865,-0.027565,0,0.00096628,0,0,0,0.034362,-0.00042052,0.010183,0.3061,0.014708,0.030878,9.3301e-07,0.68,0.42,0
0.030781,0.00082469,0.034279,-0.00043343,0.010154,0.0001591,0,0,0.062726,-0.027526,0,0.0008273,0,0,0,0.03428,-0.00043416,0.010154,0.26259,0.014666,0.030816,9.267e-07,0.69,0.42,0
0.031408,0.00086518,0.034204,-0.00044658,0.010127,0.00013122,0,0,0.062599,-0.027492,0,0.00068235,0,0,0,0.034204,-0.00044708,0.010127,0.21697,0.014628,0.030759,9.2099e-07,0.7,0.42,0
0.032033,0.00090382,0.034136,-0.00045967,0.010103,0.00010282,0,0,0.062485,-0.027462,0,0.00053466,0,0,0,0.034136,-0.00045998,0.010103,0.17028,0.014593,0.030709,9.1586e-07,0.71,0.42,0
0.032657,0.00094057,0.034074,-0.00047317,0.01008,7.4467e-05,0,0,0.062384,-0.027439,0,0.00038723,0,0,0,0.034074,-0.00047333,0.01008,0.1235,0.01456,0.030665,9.113e-07,0.72,0.42,0
0.033281,0.0009754,0.034019,-0.00048741,0.010059,4.6678e-05,0,0,0.062294,-0.027422,0,0.00024272,0,0,0,0.034019,-0.00048747,0.010059,0.077505,0.01453,0.030627,9.0726e-07,0.73,0.42,0
0.033903,0.0010083,0.033969,-0.00050256,0.01004,1.9901e-05,0,0,0.062216,-0.027411,0,0.00010348,0,0,0,0.033969,-0.00050258,0.01004,0.033077,0.014502,0.030595,9.0373e-07,0.74,0.42,0
0.034525,0.0010393,0.033925,-0.00051872,0.010022,-5.4803e-06,0,0,0.062148,-0.027405,0,-2.8498e-05,0,0,0,0.033925,-0.00051872,0.010022,-0.0091163,0.014476,0.030568,9.0065e-07,0.75,0.42,0
0.035146,0.0010685,0.033885,-0.00053588,0.010005,-2.9149e-05,0,0,0.062089,-0.027406,0,-0.00015158,0,0,0,0.033885,-0.00053591,0.010005,-0.048521,0.014452,0.030547,8.98e-07,0.76,0.42,0
0.035767,0.0010958,0.03385,-0.00055398,0.0099889,-5.0855e-05,0,0,0.06204,-0.027411,0,-0.00026444,0,0,0,0.03385,-0.00055406,0.0099889,-0.084691,0.014428,0.03053,8.9572e-07,0.77,0.42,0
0.036387,0.0011213,0.033819,-0.0005729,0.0099739,-7.0403e-05,0,0,0.061998,-0.027422,0,-0.00036609,0,0,0,0.03382,-0.00057304,0.0099739,-0.11729,0.014407,0.030518,8.9379e-07,0.78,0.42,0
0.037007,0.001145,0.033792,-0.00059249,0.0099598,-8.7657e-05,0,0,0.061963,-0.027436,0,-0.00045581,0,0,0,0.033792,-0.00059271,0.0099598,-0.14606,0.014386,0.030509,8.9217e-07,0.79,0.42,0
0.037626,0.0011671,0.033768,-0.00061258,0.0099466,-0.00010253,0,0,0.061935,-0.027454,0,-0.00053315,0,0,0,0.033768,-0.00061288,0.0099466,-0.17086,0.014367,0.030504,8.9082e-07,0.8,0.42,0
0.038246,0.0011876,0.033747,-0.00063299,0.0099341,-0.00011497,0,0,0.061913,-0.027474,0,-0.00059786,0,0,0,0.033747,-0.00063338,0.0099341,-0.19161,0.014349,0.030502,8.897e-07,0.81,0.42,0
0.038865,0.0012064,0.033728,-0.00065354,0.0099223,-0.00012498,0,0,0.061895,-0.027497,0,-0.00064992,0,0,0,0.033728,-0.00065399,0.0099223,-0.20828,0.014332,0.030502,8.8879e-07,0.82,0.42,0
0.039483,0.0012238,0.033712,-0.00067403,0.0099113,-0.00013259,0,0,0.061881,-0.027522,0,-0.00068946,0,0,0,0.033712,-0.00067454,0.0099113,-0.22092,0.014316,0.030504,8.8806e-07,0.83,0.42,0
0.040102,0.0012398,0.033697,-0.00069428,0.0099009,-0.00013784,0,0,0.061871,-0.027547,0,-0.00071678,0,0,0,0.033698,-0.00069484,0.0099009,-0.22964,0.014301,0.030507,8.8747e-07,0.84,0.42,0
0.040721,0.0012545,0.033685,-0.00071413,0.0098912,-0.00014082,0,0,0.061863,-0.027574,0,-0.00073227,0,0,0,0.033685,-0.0007147,0.0098912,-0.23455,0.014287,0.030512,8.8702e-07,0.85,0.42,0
0.041339,0.0012678,0.033674,-0.00073339,0.0098821,-0.00014162,0,0,0.061858,-0.0276,0,-0.00073644,0,0,0,0.033674,-0.00073397,0.0098821,-0.23583,0.014274,0.030518,8.8667e-07,0.86,0.42,0
0.041958,0.0012799,0.033664,-0.00075193,0.0098737,-0.00014036,0,0,0.061856,-0.027627,0,-0.00072987,0,0,0,0.033665,-0.0007525,0.0098737,-0.23366,0.014262,0.030524,8.8641e-07,0.87,0.42,0
0.042577,0.0012909,0.033656,-0.0007696,0.0098659,-0.00013716,0,0,0.061854,-0.027652,0,-0.00071321,0,0,0,0.033657,-0.00077014,0.0098659,-0.22827,0.014251,0.030531,8.8622e-07,0.88,0.42,0
0.043195,0.0013007,0.033649,-0.00078627,0.0098588,-0.00013214,0,0,0.061854,-0.027677,0,-0.00068715,0,0,0,0.033649,-0.00078678,0.0098588,-0.21987,0.01424,0.030538,8.861e-07,0.89,0.42,0
0.043814,0.0013095,0.033643,-0.00080184,0.0098522,-0.00012547,0,0,0.061855,-0.027701,0,-0.00065242,0,0,0,0.033643,-0.0008023,0.0098522,-0.2087,0.014231,0.030545,8.8601e-07,0.9,0.42,0
0.044432,0.0013173,0.033637,-0.0008162,0.0098463,-0.00011727,0,0,0.061857,-0.027723,0,-0.00060979,0,0,0,0.033638,-0.0008166,0.0098463,-0.19501,0.014223,0.030552,8.8596e-07,0.91,0.42,0
0.045051,0.0013242,0.033633,-0.00082927,0.0098411,-0.0001077,0,0,0.061858,-0.027743,0,-0.00056001,0,0,0,0.033633,-0.00082961,0.0098411,-0.17905,0.014215,0.030558,8.8594e-07,0.92,0.42,0
0.045669,0.0013301,0.033629,-0.00084097,0.0098364,-9.6902e-05,0,0,0.061861,-0.027761,0,-0.00050389,0,0,0,0.033629,-0.00084124,0.0098364,-0.16107,0.014208,0.030564,8.8594e-07,0.93,0.42,0
0.046288,0.0013352,0.033626,-0.00085123,0.0098323,-8.504e-05,0,0,0.061863,-0.027777,0,-0.00044221,0,0,0,0.033626,-0.00085144,0.0098323,-0.14132,0.014202,0.030569,8.8595e-07,0.94,0.42,0
0.046907,0.0013394,0.033623,-0.00086,0.0098289,-7.2263e-05,0,0,0.061865,-0.027791,0,-0.00037577,0,0,0,0.033623,-0.00086015,0.0098289,-0.12007,0.014197,0.030574,8.8596e-07,0.95,0.42,0
0.047525,0.0013429,0.033621,-0.00086724,0.0098261,-5.8724e-05,0,0,0.061866,-0.027803,0,-0.00030536,0,0,0,0.033621,-0.00086734,0.0098261,-0.097558,0.014193,0.030578,8.8598e-07,0.96,0.42,0
0.048144,0.0013455,0.033619,-0.0008729,0.0098239,-4.4575e-05,0,0,0.061868,-0.027812,0,-0.00023179,0,0,0,0.033619,-0.00087296,0.0098239,-0.074045,0.01419,0.030581,8.86e-07,0.97,0.42,0
0.048763,0.0013474,0.033618,-0.00087696,0.0098224,-2.997e-05,0,0,0.061869,-0.027818,0,-0.00015584,0,0,0,0.033618,-0.00087699,0.0098224,-0.04978,0.014188,0.030583,8.8601e-07,0.98,0.42,0
0.049381,0.0013485,0.033618,-0.00087941,0.0098214,-1.5061e-05,0,0,0.06187,-0.027822,0,-7.8318e-05,0,0,0,0.033618,-0.00087942,0.0098214,-0.025015,0.014186,0.030584,8.8602e-07,0.99,0.42,0
0.05,0.0013489,0.033617,-0.00088023,0.0098211,7.1652e-06,0,0,0.06187,-0.027824,0,3.7259e-05,0,0,0,0.033617,-0.00088023,0.0098211,0.0119,0.014186,0.030585,8.8602e-07,1,0.42,0
0,0,0.034484,0.014779,0.014779,0.00061644,0,0,0.051233,2.7105e-20,0,0.0032055,0,0,0,0.034503,0.014759,0.014779,1.7901,0.021347,0.019734,3.9469e-07,0,0.43,0
0.00051233,3.2055e-05,0.034457,0.014442,0.01467,0.00062066,0,0,0.051447,-0.00059191,0,0.0032275,0,0,0,0.034476,0.014423,0.01467,1.7745,0.02119,0.019931,4.0643e-07,0.01,0.43,0
0.0010289,7.6556e-05,0.034563,0.014125,0.014606,0.00072078,0,0,0.051886,-0.0012504,0,0.0037481,0,0,0,0.034588,0.0141,0.014606,2.0174,0.021098,0.020239,4.2491e-07,0.02,0.43,0
0.0015501,0.00013243,0.034665,0.01378,0.014534,0.00079299,0,0,0.052341,-0.001958,0,0.0041236,0,0,0,0.034695,0.013751,0.014534,2.1714,0.020993,0.020564,4.4445e-07,0.03,0.43,0
0.0020758,0.00019908,0.034753,0.013402,0.014446,0.00084499,0,0,0.052797,-0.0027162,0,0.0043939,0,0,0,0.034786,0.013368,0.014446,2.2628,0.020867,0.0209,4.6466e-07,0.04,0.43,0
0.002606,0.00027637,0.034807,0.012982,0.014337,0.00088099,0,0,0.053224,-0.003523,0,0.0045811,0,0,0,0.034843,0.012946,0.014337,2.3077,0.020709,0.021236,4.8473e-07,0.05,0.43,0
0.0031402,0.00036467,0.034818,0.012521,0.014202,0.00093724,0,0,0.053603,-0.0043706,0,0.0048737,0,0,0,0.034857,0.012481,0.014202,2.4027,0.020513,0.021567,5.0421e-07,0.06,0.43,0
0.003678,0.00046736,0.034998,0.012053,0.014115,0.00099693,0,0,0.054295,-0.0053618,0,0.005184,0,0,0,0.035041,0.01201,0.014115,2.4832,0.020389,0.022054,5.3403e-07,0.07,0.43,0
0.0042261,0.00057832,0.034686,0.010786,0.013642,0.0011375,0,0,0.054714,-0.0074238,0,0.0059151,0,0,0,0.03474,0.010732,0.013642,2.7189,0.019704,0.022693,5.6709e-07,0.08,0.43,0
0.0047723,0.00070005,0.035452,0.010535,0.013796,0.00072319,0,0,0.056305,-0.0084791,0,0.0037606,0,0,0,0.035473,0.010514,0.013796,1.6611,0.019927,0.02349,6.2213e-07,0.09,0.43,0
0.0053522,0.00078658,0.034827,0.010565,0.013617,0.0017511,0,0,0.04207,-0.0052914,0,0.00757,0,0,0,0.034965,0.010426,0.013617,4.0942,0.019669,0.023126,5.9322e-07,0.1,0.43,0
0.0056137,0.00078314,0.035571,0.012263,0.01435,0.0031429,0,0,0.027587,-0.0027133,0,0.0081715,0,0,0,0.035987,0.011847,0.01435,7.5463,0.020728,0.022991,5.993e-07,0.11,0.43,0
0.005904,0.00076782,0.03728,0.012451,0.014919,0.0027163,0,0,0.029069,-0.0032089,0,0.0070625,0,0,0,0.037573,0.012157,0.014919,6.171,0.02155,0.024154,6.9195e-07,0.12,0.43,0
0.0061951,0.00074837,0.037151,0.011339,0.014547,0.0025599,0,0,0.029385,-0.0041705,0,0.0066557,0,0,0,0.037403,0.011088,0.014547,5.6094,0.021012,0.024767,7.2923e-07,0.13,0.43,0
0.0064917,0.00072263,0.037219,0.010483,0.014311,0.0023287,0,0,0.029781,-0.0049758,0,0.0060545,0,0,0,0.037421,0.010282,0.014311,4.9408,0.020671,0.025365,7.6741e-07,0.14,0.43,0
0.0067907,0.00069534,0.037088,0.0095348,0.013987,0.0022351,0,0,0.030032,-0.0057878,0,0.0058111,0,0,0,0.037269,0.0093547,0.013987,4.6075,0.020203,0.02591,7.9797e-07,0.15,0.43,0
0.0070923,0.00066773,0.036986,0.0087817,0.01373,0.0021755,0,0,0.030233,-0.0064334,0,0.0056563,0,0,0,0.037153,0.0086148,0.01373,4.3848,0.019833,0.026356,8.2212e-07,0.16,0.43,0
0.0073954,0.00064101,0.036848,0.0081502,0.013499,0.0021272,0,0,0.030353,-0.0069541,0,0.0055308,0,0,0,0.037005,0.0079933,0.013499,4.2164,0.019499,0.026688,8.3789e-07,0.17,0.43,0
0.0076994,0.00061498,0.03671,0.0076161,0.013298,0.0020523,0,0,0.030436,-0.0073863,0,0.005336,0,0,0,0.036854,0.007472,0.013298,4.0152,0.019208,0.026946,8.4865e-07,0.18,0.43,0
0.0080041,0.00058911,0.03658,0.0071261,0.013112,0.0019486,0,0,0.030508,-0.0077813,0,0.0050664,0,0,0,0.036708,0.0069977,0.013112,3.7687,0.018939,0.027174,8.5733e-07,0.19,0.43,0
0.0083095,0.00056274,0.036468,0.006656,0.012937,0.0018234,0,0,0.03059,-0.0081657,0,0.0047408,0,0,0,0.036579,0.0065448,0.012937,3.487,0.018687,0.027403,8.6614e-07,0.2,0.43,0
0.0086159,0.00053537,0.036379,0.0061934,0.012772,0.0016863,0,0,0.030689,-0.0085517,0,0.0043844,0,0,0,0.036472,0.0060995,0.012772,3.1876,0.018448,0.027647,8.7599e-07,0.21,0.43,0
0.0089233,0.00050662,0.036308,0.0057325,0.012612,0.0015443,0,0,0.030805,-0.0089435,0,0.0040153,0,0,0,0.036386,0.0056547,0.012612,2.8842,0.018218,0.027911,8.8709e-07,0.22,0.43,0
0.009232,0.00047623,0.036253,0.0052705,0.012457,0.0014021,0,0,0.030935,-0.0093426,0,0.0036456,0,0,0,0.036317,0.0052072,0.012457,2.5859,0.017994,0.028192,8.9938e-07,0.23,0.43,0
0.009542,0.00044404,0.036212,0.0048062,0.012305,0.0012625,0,0,0.031078,-0.009749,0,0.0032824,0,0,0,0.036263,0.0047555,0.012305,2.2983,0.017774,0.028492,9.1273e-07,0.24,0.43,0
0.0098536,0.00040996,0.036181,0.0043389,0.012156,0.0011269,0,0,0.031233,-0.010162,0,0.00293,0,0,0,0.036221,0.0042991,0.012156,2.0244,0.017559,0.028809,9.2699e-07,0.25,0.43,0
0.010167,0.00037393,0.036161,0.0038688,0.012009,0.00099647,0,0,0.031397,-0.010582,0,0.0025908,0,0,0,0.036191,0.0038381,0.012009,1.7658,0.017346,0.02914,9.4205e-07,0.26,0.43,0
0.010481,0.00033594,0.036149,0.003396,0.011864,0.0008715,0,0,0.031571,-0.011008,0,0.0022659,0,0,0,0.036172,0.0033729,0.011864,1.5231,0.017136,0.029485,9.5782e-07,0.27,0.43,0
0.010798,0.000296,0.036145,0.0029212,0.01172,0.00075212,0,0,0.031753,-0.011438,0,0.0019555,0,0,0,0.036163,0.0029042,0.01172,1.2962,0.016929,0.029843,9.7422e-07,0.28,0.43,0
0.011117,0.00025414,0.03615,0.0024453,0.011579,0.00063815,0,0,0.031943,-0.011873,0,0.0016592,0,0,0,0.036162,0.0024333,0.011579,1.0843,0.016725,0.030213,9.912e-07,0.29,0.43,0
0.011437,0.00021041,0.036164,0.0019698,0.01144,0.00052914,0,0,0.032141,-0.012311,0,0.0013758,0,0,0,0.036172,0.0019616,0.01144,0.88637,0.016524,0.030593,1.0087e-06,0.3,0.43,0
0.011759,0.00016486,0.036185,0.0014965,0.011304,0.00042446,0,0,0.032344,-0.01275,0,0.0011036,0,0,0,0.03619,0.0014913,0.011304,0.70096,0.016328,0.03098,1.0265e-06,0.31,0.43,0
0.012084,0.00011754,0.036213,0.0010281,0.011172,0.00032327,0,0,0.032553,-0.013188,0,0.0008405,0,0,0,0.036216,0.0010252,0.011172,0.52635,0.016138,0.031373,1.0447e-06,0.32,0.43,0
0.01241,6.8513e-05,0.036249,0.0005681,0.011045,0.00022466,0,0,0.032765,-0.01362,0,0.00058411,0,0,0,0.03625,0.00056668,0.011045,0.36073,0.015954,0.031768,1.063e-06,0.33,0.43,0
0.012739,1.7845e-05,0.036291,0.00012087,0.010923,0.00012783,0,0,0.032977,-0.014043,0,0.00033235,0,0,0,0.036291,0.00012042,0.010923,0.20249,0.015778,0.03216,1.0812e-06,0.34,0.43,0
0.01307,-3.4389e-05,0.036336,-0.00030798,0.010808,3.2373e-05,0,0,0.033186,-0.014451,0,8.417e-05,0,0,0,0.036336,-0.00030801,0.010808,0.050618,0.015612,0.032542,1.0989e-06,0.35,0.43,0
0.013403,-8.8093e-05,0.036382,-0.0007118,0.010701,-6.1321e-05,0,0,0.033386,-0.014837,0,-0.00015944,0,0,0,0.036382,-0.0007119,0.010701,-0.094716,0.015457,0.032907,1.1158e-06,0.36,0.43,0
0.013738,-0.00014312,0.036427,-0.0010831,0.010603,-0.00015159,0,0,0.033571,-0.015192,0,-0.00039414,0,0,0,0.036428,-0.0010837,0.010603,-0.23155,0.015316,0.033246,1.1313e-06,0.37,0.43,0
0.014074,-0.00019927,0.036468,-0.0014142,0.010516,-0.00023508,0,0,0.033737,-0.015509,0,-0.0006112,0,0,0,0.036469,-0.0014157,0.010516,-0.35553,0.01519,0.03355,1.1451e-06,0.38,0.43,0
0.014412,-0.0002562,0.0365,-0.0016986,0.010441,-0.00030653,0,0,0.033878,-0.015781,0,-0.00079697,0,0,0,0.036503,-0.001701,0.010441,-0.45973,0.015081,0.03381,1.1567e-06,0.39,0.43,0
0.014752,-0.00031348,0.036525,-0.0019322,0.010378,-0.00035915,0,0,0.033991,-0.016003,0,-0.00093379,0,0,0,0.036528,-0.0019356,0.010378,-0.53502,0.01499,0.034022,1.1659e-06,0.4,0.43,0
0.015092,-0.00037049,0.036541,-0.0021149,0.010328,-0.00038536,0,0,0.034078,-0.016176,0,-0.0010019,0,0,0,0.036545,-0.0021188,0.010328,-0.5711,0.014918,0.034185,1.1727e-06,0.41,0.43,0
0.015433,-0.00042644,0.036551,-0.0022501,0.01029,-0.00037703,0,0,0.034139,-0.016302,0,-0.00098027,0,0,0,0.036555,-0.0022537,0.01029,-0.55667,0.014864,0.034302,1.1774e-06,0.42,0.43,0
0.015775,-0.00048035,0.03656,-0.0023408,0.010266,-0.00032343,0,0,0.034183,-0.016389,0,-0.00084091,0,0,0,0.036563,-0.0023435,0.010266,-0.47632,0.014828,0.034382,1.1807e-06,0.43,0.43,0
0.016117,-0.00053099,0.03659,-0.0023934,0.010259,-0.0002052,0,0,0.03423,-0.016448,0,-0.00053351,0,0,0,0.036591,-0.0023944,0.010259,-0.30157,0.014819,0.034448,1.1848e-06,0.44,0.43,0
0.01646,-0.00057673,0.036731,-0.0024114,0.010296,-1.5746e-06,0,0,0.034366,-0.016519,0,-4.094e-06,0,0,0,0.036731,-0.0024114,0.010296,-0.0023049,0.014872,0.034586,1.1987e-06,0.45,0.43,0
0.016804,-0.00061611,0.037146,-0.0024686,0.010403,0.00025041,0,0,0.034766,-0.016733,0,0.00065106,0,0,0,0.037148,-0.0024701,0.010403,0.36215,0.015027,0.035004,1.2409e-06,0.46,0.43,0
0.017155,-0.00065078,0.037592,-0.0027584,0.01045,0.00038244,0,0,0.035285,-0.017171,0,0.00099435,0,0,0,0.037596,-0.002762,0.01045,0.54298,0.015095,0.035639,1.2939e-06,0.47,0.43,0
0.01751,-0.00068409,0.037456,-0.0016907,0.010729,0.0012375,0,0,0.034744,-0.016146,0,0.0032175,0,0,0,0.037495,-0.0017298,0.010729,1.8088,0.015498,0.034714,1.253e-06,0.48,0.43,0
0.01785,-0.00066322,0.037038,0.00084042,0.011364,0.0010258,0,0,0.049765,-0.01824,0,0.005154,0,0,0,0.037095,0.0007836,0.011364,1.7914,0.016414,0.032426,1.093e-06,0.49,0.43,0
0.018505,-0.00054647,0.037711,0.0036966,0.012422,0.0014943,0,0,0.06575,-0.022686,0,0.0077706,0,0,0,0.037776,0.0036311,0.012422,2.5107,0.017943,0.030708,1.0866e-06,0.5,0.43,0
0.019165,-0.00045016,0.037337,0.0027254,0.012019,0.0010804,0,0,0.065827,-0.024162,0,0.0056181,0,0,0,0.03737,0.0026917,0.012019,1.7862,0.01736,0.031083,1.0871e-06,0.51,0.43,0
0.019822,-0.00036887,0.036933,0.0020032,0.011681,0.00082319,0,0,0.065656,-0.025162,0,0.0042806,0,0,0,0.036953,0.0019838,0.011681,1.3493,0.016872,0.031269,1.0762e-06,0.52,0.43,0
0.020478,-0.00029659,0.036659,0.001479,0.011441,0.00066733,0,0,0.065565,-0.025902,0,0.0034701,0,0,0,0.036671,0.0014664,0.011441,1.0863,0.016526,0.031428,1.0696e-06,0.53,0.43,0
0.021133,-0.0002305,0.036431,0.0010715,0.011251,0.0005688,0,0,0.065469,-0.026466,0,0.0029577,0,0,0,0.03644,0.0010624,0.011251,0.92134,0.016251,0.031543,1.0632e-06,0.54,0.43,0
0.021787,-0.00016863,0.036226,0.00074769,0.011092,0.00050978,0,0,0.065349,-0.026896,0,0.0026508,0,0,0,0.036234,0.00074037,0.011092,0.82303,0.016022,0.031615,1.0558e-06,0.55,0.43,0
0.02244,-0.0001096,0.036035,0.00048893,0.010957,0.0004769,0,0,0.065202,-0.027217,0,0.0024799,0,0,0,0.036041,0.00048253,0.010957,0.76852,0.015827,0.031649,1.0473e-06,0.56,0.43,0
0.023091,-5.2484e-05,0.035852,0.00028283,0.010841,0.00046016,0,0,0.065031,-0.02745,0,0.0023928,0,0,0,0.035858,0.00027688,0.010841,0.74106,0.015659,0.031651,1.038e-06,0.57,0.43,0
0.023741,3.3086e-06,0.035678,0.00011988,0.010739,0.00045208,0,0,0.06484,-0.027611,0,0.0023508,0,0,0,0.035684,0.00011413,0.010739,0.7283,0.015512,0.031625,1.0279e-06,0.58,0.43,0
0.024388,5.8125e-05,0.035511,-7.7296e-06,0.010651,0.00044735,0,0,0.064636,-0.027713,0,0.0023262,0,0,0,0.035516,-1.3363e-05,0.010651,0.72148,0.015385,0.031578,1.0175e-06,0.59,0.43,0
0.025034,0.00011213,0.035351,-0.0001066,0.010573,0.00044236,0,0,0.064423,-0.027768,0,0.0023003,0,0,0,0.035357,-0.00011212,0.010573,0.71466,0.015273,0.031516,1.0068e-06,0.6,0.43,0
0.025677,0.00016534,0.0352,-0.00018238,0.010505,0.00043483,0,0,0.064206,-0.027788,0,0.0022611,0,0,0,0.035205,-0.00018772,0.010505,0.70399,0.015174,0.031441,9.9617e-07,0.61,0.43,0
0.026318,0.00021772,0.035057,-0.0002399,0.010445,0.00042347,0,0,0.063991,-0.027781,0,0.002202,0,0,0,0.035062,-0.00024498,0.010445,0.68727,0.015087,0.031359,9.8577e-07,0.62,0.43,0
0.026957,0.00026914,0.034923,-0.00028326,0.010392,0.00040772,0,0,0.06378,-0.027755,0,0.0021201,0,0,0,0.034927,-0.00028798,0.010392,0.66343,0.01501,0.031274,9.7573e-07,0.63,0.43,0
0.027593,0.00031947,0.034797,-0.0003159,0.010344,0.00038754,0,0,0.063577,-0.027717,0,0.0020152,0,0,0,0.034801,-0.00032017,0.010344,0.63226,0.014942,0.031188,9.6619e-07,0.64,0.43,0
0.028228,0.00036855,0.034681,-0.00034068,0.010302,0.00036323,0,0,0.063385,-0.027671,0,0.0018888,0,0,0,0.034685,-0.00034445,0.010302,0.59416,0.014881,0.031104,9.5722e-07,0.65,0.43,0
0.028861,0.00041623,0.034574,-0.00035997,0.010264,0.00033532,0,0,0.063205,-0.027623,0,0.0017437,0,0,0,0.034577,-0.00036319,0.010264,0.5499,0.014826,0.031023,9.4888e-07,0.66,0.43,0
0.029492,0.00046237,0.034475,-0.00037566,0.01023,0.00030447,0,0,0.063038,-0.027574,0,0.0015832,0,0,0,0.034478,-0.00037832,0.01023,0.5005,0.014776,0.030947,9.4122e-07,0.67,0.43,0
0.030122,0.00050685,0.034385,-0.00038925,0.010199,0.0002714,0,0,0.062885,-0.027529,0,0.0014113,0,0,0,0.034388,-0.00039137,0.010199,0.44714,0.014732,0.030877,9.3424e-07,0.68,0.43,0
0.03075,0.00054955,0.034304,-0.0004019,0.010171,0.00023686,0,0,0.062747,-0.027488,0,0.0012317,0,0,0,0.034306,-0.00040351,0.010171,0.39101,0.014691,0.030814,9.2794e-07,0.69,0.43,0
0.031377,0.00059039,0.03423,-0.00041447,0.010145,0.00020156,0,0,0.062622,-0.027454,0,0.0010481,0,0,0,0.034231,-0.00041565,0.010145,0.33332,0.014654,0.030758,9.2231e-07,0.7,0.43,0
0.032002,0.00062932,0.034164,-0.0004276,0.010121,0.00016616,0,0,0.062512,-0.027426,0,0.00086403,0,0,0,0.034165,-0.0004284,0.010121,0.27521,0.014619,0.030709,9.1732e-07,0.71,0.43,0
0.032627,0.00066629,0.034105,-0.0004417,0.010099,0.00013127,0,0,0.062416,-0.027406,0,0.00068261,0,0,0,0.034106,-0.0004422,0.010099,0.21771,0.014587,0.030667,9.1294e-07,0.72,0.43,0
0.033251,0.00070128,0.034052,-0.00045702,0.010079,9.7423e-05,0,0,0.062332,-0.027393,0,0.0005066,0,0,0,0.034053,-0.00045729,0.010079,0.16175,0.014558,0.030632,9.0913e-07,0.73,0.43,0
0.033874,0.0007343,0.034006,-0.00047367,0.01006,6.5072e-05,0,0,0.062259,-0.027386,0,0.00033838,0,0,0,0.034006,-0.00047379,0.01006,0.10813,0.01453,0.030604,9.0584e-07,0.74,0.43,0
0.034496,0.00076534,0.033964,-0.00049166,0.010042,3.4595e-05,0,0,0.062198,-0.027387,0,0.0001799,0,0,0,0.033964,-0.0004917,0.010042,0.057528,0.014505,0.030581,9.0303e-07,0.75,0.43,0
0.035117,0.00079445,0.033927,-0.00051093,0.010025,6.2969e-06,0,0,0.062147,-0.027393,0,3.2744e-05,0,0,0,0.033927,-0.00051093,0.010025,0.010476,0.014481,0.030564,9.0065e-07,0.76,0.43,0
0.035739,0.00082166,0.033895,-0.00053134,0.010009,-1.9589e-05,0,0,0.062104,-0.027405,0,-0.00010187,0,0,0,0.033895,-0.00053135,0.010009,-0.032602,0.014458,0.030552,8.9866e-07,0.77,0.43,0
0.03636,0.00084703,0.033867,-0.00055271,0.0099943,-4.2895e-05,0,0,0.062069,-0.027422,0,-0.00022305,0,0,0,0.033867,-0.00055277,0.0099943,-0.071403,0.014436,0.030544,8.9702e-07,0.78,0.43,0
0.03698,0.00087061,0.033843,-0.00057486,0.0099803,-6.3509e-05,0,0,0.062042,-0.027443,0,-0.00033024,0,0,0,0.033843,-0.00057498,0.0099803,-0.10572,0.014416,0.03054,8.9567e-07,0.79,0.43,0
0.0376,0.00089247,0.033821,-0.00059755,0.009967,-8.1371e-05,0,0,0.06202,-0.027468,0,-0.00042313,0,0,0,0.033821,-0.00059775,0.009967,-0.13546,0.014397,0.030539,8.9459e-07,0.8,0.43,0
0.03822,0.00091268,0.033802,-0.00062058,0.0099545,-9.6469e-05,0,0,0.062004,-0.027495,0,-0.00050164,0,0,0,0.033803,-0.00062085,0.0099545,-0.16057,0.014379,0.030541,8.9374e-07,0.81,0.43,0
0.038841,0.00093132,0.033786,-0.0006437,0.0099427,-0.00010883,0,0,0.061993,-0.027525,0,-0.00056589,0,0,0,0.033786,-0.00064405,0.0099427,-0.1811,0.014362,0.030545,8.9309e-07,0.82,0.43,0
0.03946,0.00094844,0.033772,-0.00066672,0.0099316,-0.0001185,0,0,0.061985,-0.027556,0,-0.00061619,0,0,0,0.033772,-0.00066712,0.0099316,-0.19714,0.014346,0.030551,8.9259e-07,0.83,0.43,0
0.04008,0.00096413,0.03376,-0.00068941,0.0099211,-0.00012557,0,0,0.06198,-0.027587,0,-0.00065296,0,0,0,0.03376,-0.00068986,0.0099211,-0.20884,0.01433,0.030559,8.9224e-07,0.84,0.43,0
0.0407,0.00097847,0.033749,-0.00071158,0.0099112,-0.00013014,0,0,0.061978,-0.027619,0,-0.00067675,0,0,0,0.03375,-0.00071207,0.0099112,-0.21638,0.014316,0.030567,8.9199e-07,0.85,0.43,0
0.04132,0.00099151,0.03374,-0.00073306,0.009902,-0.00013235,0,0,0.061978,-0.027651,0,-0.00068821,0,0,0,0.03374,-0.00073357,0.009902,-0.21996,0.014303,0.030576,8.9184e-07,0.86,0.43,0
0.041939,0.0010033,0.033732,-0.00075369,0.0098935,-0.00013231,0,0,0.06198,-0.027683,0,-0.00068803,0,0,0,0.033732,-0.00075419,0.0098935,-0.21983,0.014291,0.030586,8.9176e-07,0.87,0.43,0
0.042559,0.001014,0.033725,-0.0007733,0.0098855,-0.00013019,0,0,0.061983,-0.027713,0,-0.00067699,0,0,0,0.033725,-0.00077379,0.0098855,-0.21622,0.014279,0.030596,8.9173e-07,0.88,0.43,0
0.043179,0.0010236,0.033719,-0.00079177,0.0098782,-0.00012613,0,0,0.061986,-0.027742,0,-0.00065587,0,0,0,0.03372,-0.00079223,0.0098782,-0.2094,0.014268,0.030605,8.9175e-07,0.89,0.43,0
0.043799,0.0010321,0.033714,-0.00080898,0.0098715,-0.00012029,0,0,0.061991,-0.027769,0,-0.00062552,0,0,0,0.033715,-0.0008094,0.0098715,-0.19964,0.014259,0.030614,8.918e-07,0.9,0.43,0
0.044419,0.0010397,0.03371,-0.00082483,0.0098655,-0.00011284,0,0,0.061995,-0.027795,0,-0.00058676,0,0,0,0.03371,-0.0008252,0.0098655,-0.18721,0.01425,0.030623,8.9187e-07,0.91,0.43,0
0.045039,0.0010463,0.033706,-0.00083923,0.00986,-0.00010393,0,0,0.061999,-0.027818,0,-0.00054044,0,0,0,0.033706,-0.00083955,0.00986,-0.17238,0.014242,0.030631,8.9195e-07,0.92,0.43,0
0.045659,0.0010521,0.033703,-0.0008521,0.0098552,-9.3738e-05,0,0,0.062004,-0.027839,0,-0.00048744,0,0,0,0.033703,-0.00085236,0.0098552,-0.15543,0.014235,0.030639,8.9204e-07,0.93,0.43,0
0.046279,0.001057,0.0337,-0.00086338,0.0098511,-8.2421e-05,0,0,0.062008,-0.027858,0,-0.00042859,0,0,0,0.033701,-0.00086358,0.0098511,-0.13663,0.014229,0.030645,8.9212e-07,0.94,0.43,0
0.046899,0.0010611,0.033698,-0.00087301,0.0098476,-7.0143e-05,0,0,0.062012,-0.027873,0,-0.00036475,0,0,0,0.033698,-0.00087315,0.0098476,-0.11625,0.014224,0.030651,8.922e-07,0.95,0.43,0
0.047519,0.0010644,0.033696,-0.00088094,0.0098447,-5.7068e-05,0,0,0.062015,-0.027887,0,-0.00029675,0,0,0,0.033697,-0.00088104,0.0098447,-0.094563,0.01422,0.030656,8.9227e-07,0.96,0.43,0
0.048139,0.001067,0.033695,-0.00088715,0.0098424,-4.3356e-05,0,0,0.062017,-0.027897,0,-0.00022545,0,0,0,0.033695,-0.0008872,0.0098424,-0.071832,0.014217,0.03066,8.9233e-07,0.97,0.43,0
0.04876,0.0010688,0.033694,-0.0008916,0.0098408,-2.9168e-05,0,0,0.062019,-0.027904,0,-0.00015167,0,0,0,0.033694,-0.00089163,0.0098408,-0.048321,0.014214,0.030662,8.9237e-07,0.98,0.43,0
0.04938,0.0010698,0.033694,-0.00089428,0.0098398,-1.4663e-05,0,0,0.06202,-0.027909,0,-7.6249e-05,0,0,0,0.033694,-0.00089429,0.0098398,-0.02429,0.014213,0.030664,8.924e-07,0.99,0.43,0
0.05,0.0010702,0.033694,-0.00089518,0.0098395,6.8962e-06,0,0,0.06202,-0.02791,0,3.586e-05,0,0,0,0.033694,-0.00089518,0.0098395,0.011423,0.014213,0.030665,8.9241e-07,1,0.43,0
0,0,0.034097,0.014613,0.014613,0.00051266,0,0,0.050658,2.7105e-20,0,0.0026658,0,0,0,0.034111,0.014599,0.014613,1.5062,0.021108,0.019504,3.8108e-07,0,0.44,0
0.00050658,2.6658e-05,0.034076,0.014328,0.014521,0.00052071,0,0,0.050842,-0.00050199,0,0.0027077,0,0,0,0.034089,0.014314,0.014521,1.5094,0.020975,0.019672,3.9088e-07,0.01,0.44,0
0.0010168,6.495e-05,0.034161,0.014039,0.01446,0.00062286,0,0,0.051223,-0.001095,0,0.0032389,0,0,0,0.03418,0.01402,0.01446,1.7712,0.020887,0.019944,4.0678e-07,0.02,0.44,0
0.001531,0.00011404,0.034241,0.013712,0.014386,0.0007039,0,0,0.051622,-0.0017513,0,0.0036603,0,0,0,0.034265,0.013688,0.014386,1.9615,0.02078,0.020237,4.2394e-07,0.03,0.44,0
0.0020493,0.00017343,0.034307,0.013351,0.014297,0.00077043,0,0,0.052025,-0.0024605,0,0.0040062,0,0,0,0.034335,0.013323,0.014297,2.1027,0.020652,0.020542,4.4184e-07,0.04,0.44,0
0.0025715,0.00024295,0.034361,0.012952,0.014194,0.00083207,0,0,0.052435,-0.0032299,0,0.0043268,0,0,0,0.034393,0.012919,0.014194,2.2223,0.020502,0.020866,4.6074e-07,0.05,0.44,0
0.003098,0.0003229,0.034456,0.012509,0.014089,0.00088877,0,0,0.052953,-0.0041093,0,0.0046216,0,0,0,0.034492,0.012473,0.014089,2.3152,0.020351,0.021257,4.8369e-07,0.06,0.44,0
0.0036306,0.0004122,0.034569,0.011887,0.013937,0.00093368,0,0,0.053643,-0.0053296,0,0.0048551,0,0,0,0.034607,0.011848,0.013937,2.3532,0.020131,0.02179,5.1492e-07,0.07,0.44,0
0.0041709,0.00050944,0.03505,0.01131,0.013908,0.00083134,0,0,0.054969,-0.0067542,0,0.004323,0,0,0,0.035079,0.011281,0.013908,2.0032,0.02009,0.022599,5.6589e-07,0.08,0.44,0
0.00473,0.00060495,0.03563,0.010489,0.013836,0.00071733,0,0,0.056665,-0.0087011,0,0.0037301,0,0,0,0.03565,0.010469,0.013836,1.633,0.019985,0.023678,6.356e-07,0.09,0.44,0
0.0053041,0.00070316,0.041161,0.010841,0.015601,-0.00012715,0,0,0.046178,-0.0082031,0,-0.0007257,0,0,0,0.041163,0.010839,0.015601,-0.34029,0.022534,0.02825,1.2066e-06,0.1,0.44,0
0.0057097,0.00075254,0.033483,0.010583,0.01322,0.0023906,0,0,0.036482,-0.0048726,0,0.008305,0,0,0,0.033733,0.010333,0.01322,5.7519,0.019095,0.022099,6.0565e-07,0.11,0.44,0
0.005993,0.00073853,0.037208,0.012405,0.014884,0.0032461,0,0,0.029021,-0.0032221,0,0.0084399,0,0,0,0.037625,0.011988,0.014884,7.3343,0.021499,0.024319,7.0352e-07,0.12,0.44,0
0.0062901,0.00070703,0.037588,0.011991,0.014874,0.0026129,0,0,0.029529,-0.0037475,0,0.0067935,0,0,0,0.037852,0.011727,0.014874,5.7693,0.021484,0.024702,7.3201e-07,0.13,0.44,0
0.0065836,0.00067407,0.037009,0.010553,0.014269,0.0024856,0,0,0.029562,-0.0048298,0,0.0064625,0,0,0,0.03724,0.010322,0.014269,5.3211,0.02061,0.025178,7.5231e-07,0.14,0.44,0
0.0068814,0.00063793,0.036932,0.0096175,0.013965,0.0023502,0,0,0.029857,-0.0056517,0,0.0061105,0,0,0,0.037133,0.0094167,0.013965,4.882,0.020171,0.025745,7.8502e-07,0.15,0.44,0
0.0071807,0.00060396,0.036739,0.0087979,0.013661,0.0023342,0,0,0.030002,-0.0063222,0,0.0060689,0,0,0,0.036933,0.0086043,0.013661,4.7426,0.019733,0.026169,8.0581e-07,0.16,0.44,0
0.0074814,0.00057214,0.036595,0.0082267,0.013447,0.0022851,0,0,0.030093,-0.0067857,0,0.0059412,0,0,0,0.036778,0.0080439,0.013447,4.5759,0.019423,0.02645,8.1831e-07,0.17,0.44,0
0.0077826,0.00054199,0.036443,0.0077303,0.013252,0.0021906,0,0,0.030148,-0.0071782,0,0.0056956,0,0,0,0.036609,0.0075642,0.013252,4.3379,0.019142,0.02666,8.2586e-07,0.18,0.44,0
0.0080844,0.00051228,0.036321,0.0072625,0.013075,0.0020578,0,0,0.03022,-0.0075563,0,0.0053504,0,0,0,0.036466,0.0071175,0.013075,4.0307,0.018886,0.02687,8.336e-07,0.19,0.44,0
0.008387,0.00048211,0.036231,0.0068026,0.01291,0.0019066,0,0,0.030318,-0.0079399,0,0.0049571,0,0,0,0.036354,0.0066796,0.01291,3.6914,0.018648,0.027102,8.4311e-07,0.2,0.44,0
0.0086907,0.00045087,0.036169,0.0063432,0.012754,0.0017488,0,0,0.03044,-0.0083335,0,0.0045468,0,0,0,0.036271,0.006241,0.012754,3.3441,0.018422,0.027361,8.5448e-07,0.21,0.44,0
0.0089958,0.00041816,0.036125,0.0058814,0.012602,0.0015911,0,0,0.03058,-0.0087367,0,0.0041367,0,0,0,0.036209,0.0057979,0.012602,3.0032,0.018203,0.027644,8.674e-07,0.22,0.44,0
0.0093023,0.00038373,0.036095,0.0054162,0.012453,0.0014368,0,0,0.030734,-0.0091484,0,0.0037355,0,0,0,0.036162,0.0053491,0.012453,2.6755,0.017988,0.027947,8.8153e-07,0.23,0.44,0
0.0096105,0.00034743,0.036075,0.0049474,0.012307,0.0012874,0,0,0.030899,-0.0095672,0,0.0033471,0,0,0,0.036128,0.0048942,0.012307,2.3642,0.017776,0.028266,8.9658e-07,0.24,0.44,0
0.0099203,0.00030916,0.036063,0.0044749,0.012161,0.0011436,0,0,0.031072,-0.0099923,0,0.0029733,0,0,0,0.036104,0.0044336,0.012161,2.0707,0.017566,0.028601,9.1238e-07,0.25,0.44,0
0.010232,0.00026888,0.036057,0.0039992,0.012017,0.0010057,0,0,0.031253,-0.010423,0,0.0026147,0,0,0,0.036089,0.0039677,0.012017,1.795,0.017358,0.028948,9.2879e-07,0.26,0.44,0
0.010545,0.00022658,0.036058,0.0035208,0.011874,0.00087359,0,0,0.03144,-0.010859,0,0.0022713,0,0,0,0.036081,0.0034974,0.011874,1.5369,0.017151,0.029308,9.4572e-07,0.27,0.44,0
0.010861,0.00018229,0.036064,0.0030404,0.011731,0.00074724,0,0,0.031633,-0.011298,0,0.0019428,0,0,0,0.036081,0.0030235,0.011731,1.2956,0.016945,0.029678,9.6309e-07,0.28,0.44,0
0.011178,0.00013604,0.036076,0.0025593,0.011591,0.00062632,0,0,0.031831,-0.011741,0,0.0016284,0,0,0,0.036088,0.0025476,0.011591,1.0702,0.016742,0.030057,9.8083e-07,0.29,0.44,0
0.011497,8.7899e-05,0.036094,0.0020789,0.011452,0.0005104,0,0,0.032035,-0.012185,0,0.001327,0,0,0,0.036102,0.0020713,0.011452,0.85948,0.016542,0.030444,9.9886e-07,0.3,0.44,0
0.011819,3.7932e-05,0.036117,0.0016015,0.011316,0.000399,0,0,0.032242,-0.012628,0,0.0010374,0,0,0,0.036122,0.0015969,0.011316,0.66221,0.016345,0.030836,1.0171e-06,0.31,0.44,0
0.012142,-1.3777e-05,0.036146,0.0011298,0.011183,0.00029154,0,0,0.032452,-0.013069,0,0.00075802,0,0,0,0.036148,0.0011274,0.011183,0.477,0.016153,0.031232,1.0353e-06,0.32,0.44,0
0.012468,-6.7134e-05,0.036178,0.00066708,0.011054,0.00018756,0,0,0.032662,-0.013503,0,0.00048766,0,0,0,0.036179,0.00066609,0.011054,0.30261,0.015966,0.031626,1.0535e-06,0.33,0.44,0
0.012795,-0.00012203,0.036214,0.00021764,0.01093,8.6797e-05,0,0,0.03287,-0.013926,0,0.00022567,0,0,0,0.036214,0.00021743,0.01093,0.13815,0.015787,0.032015,1.0712e-06,0.34,0.44,0
0.013125,-0.00017834,0.036251,-0.00021352,0.010811,-1.0522e-05,0,0,0.033072,-0.014332,0,-2.7356e-05,0,0,0,0.036251,-0.00021352,0.010811,-0.016532,0.015617,0.032392,1.0883e-06,0.35,0.44,0
0.013457,-0.00023588,0.036288,-0.00062069,0.0107,-0.00010341,0,0,0.033264,-0.014717,0,-0.00026886,0,0,0,0.036288,-0.00062097,0.0107,-0.16053,0.015456,0.032751,1.1044e-06,0.36,0.44,0
0.01379,-0.00029446,0.036321,-0.00099775,0.010597,-0.00018983,0,0,0.033441,-0.015073,0,-0.00049356,0,0,0,0.036322,-0.00099872,0.010597,-0.29143,0.015307,0.033084,1.119e-06,0.37,0.44,0
0.014126,-0.00035379,0.036349,-0.0013388,0.010503,-0.00026653,0,0,0.0336,-0.015394,0,-0.00069298,0,0,0,0.036351,-0.0013407,0.010503,-0.40517,0.015171,0.033384,1.1319e-06,0.38,0.44,0
0.014462,-0.00041349,0.036369,-0.0016389,0.010419,-0.00032907,0,0,0.033735,-0.015675,0,-0.00085557,0,0,0,0.036372,-0.0016417,0.010419,-0.49601,0.01505,0.033645,1.1427e-06,0.39,0.44,0
0.0148,-0.00047306,0.03638,-0.001895,0.010346,-0.00037212,0,0,0.033845,-0.015913,0,-0.00096752,0,0,0,0.036384,-0.0018987,0.010346,-0.55698,0.014944,0.033863,1.1512e-06,0.4,0.44,0
0.015139,-0.00053191,0.036383,-0.0021069,0.010283,-0.00038997,0,0,0.03393,-0.016107,0,-0.0010139,0,0,0,0.036387,-0.0021109,0.010283,-0.58042,0.014853,0.034037,1.1575e-06,0.41,0.44,0
0.015479,-0.00058927,0.036381,-0.0022771,0.010231,-0.00037666,0,0,0.033995,-0.016261,0,-0.00097932,0,0,0,0.036385,-0.0022807,0.010231,-0.55819,0.014778,0.034173,1.1621e-06,0.42,0.44,0
0.015819,-0.00064427,0.036384,-0.0024117,0.010192,-0.00032595,0,0,0.03405,-0.016384,0,-0.00084747,0,0,0,0.036387,-0.0024144,0.010192,-0.48134,0.014721,0.034283,1.166e-06,0.43,0.44,0
0.01616,-0.00069586,0.036415,-0.0025228,0.010168,-0.0002342,0,0,0.034121,-0.016497,0,-0.00060892,0,0,0,0.036416,-0.0025242,0.010168,-0.3446,0.014686,0.034398,1.1718e-06,0.44,0.44,0
0.016502,-0.00074299,0.0365,-0.002642,0.010157,-0.00011281,0,0,0.034245,-0.016639,0,-0.0002933,0,0,0,0.0365,-0.0026423,0.010157,-0.16513,0.014672,0.034568,1.183e-06,0.45,0.44,0
0.016845,-0.00078501,0.036561,-0.0028314,0.010119,-8.8355e-06,0,0,0.034374,-0.016835,0,-2.2972e-05,0,0,0,0.036561,-0.0028314,0.010119,-0.012851,0.014616,0.034775,1.1939e-06,0.46,0.44,0
0.017189,-0.00082155,0.036352,-0.0029578,0.010018,0.00015682,0,0,0.034234,-0.016869,0,0.00040774,0,0,0,0.036353,-0.0029584,0.010018,0.22857,0.014471,0.034694,1.1775e-06,0.47,0.44,0
0.01753,-0.00084313,0.036694,-0.0022341,0.010338,0.00064423,0,0,0.034263,-0.016344,0,0.001675,0,0,0,0.036705,-0.0022447,0.010338,0.94785,0.014933,0.034429,1.1915e-06,0.48,0.44,0
0.017874,-0.00083816,0.036665,0.0011232,0.011336,0.0015286,0,0,0.048613,-0.017703,0,0.0063999,0,0,0,0.036738,0.0010495,0.011336,2.5685,0.016375,0.031882,1.0655e-06,0.49,0.44,0
0.018502,-0.00076715,0.036681,0.0039912,0.012202,0.0015846,0,0,0.063646,-0.021347,0,0.0082401,0,0,0,0.036757,0.0039146,0.012202,2.7688,0.017625,0.029583,9.863e-07,0.5,0.44,0
0.019147,-0.00068933,0.036889,0.0029208,0.011943,0.0013196,0,0,0.06486,-0.023458,0,0.0068617,0,0,0,0.036941,0.0028696,0.011943,2.2213,0.017251,0.030562,1.0421e-06,0.51,0.44,0
0.019799,-0.00061892,0.036791,0.0021767,0.01169,0.0010512,0,0,0.065263,-0.024736,0,0.0054661,0,0,0,0.036823,0.0021448,0.01169,1.7378,0.016886,0.031027,1.0588e-06,0.52,0.44,0
0.020453,-0.0005547,0.036606,0.0015962,0.011461,0.00087476,0,0,0.065378,-0.025648,0,0.0045488,0,0,0,0.036628,0.0015744,0.011461,1.4304,0.016554,0.031304,1.062e-06,0.53,0.44,0
0.021107,-0.00049469,0.036417,0.0011444,0.011269,0.00076472,0,0,0.065387,-0.026322,0,0.0039765,0,0,0,0.036434,0.0011279,0.011269,1.2414,0.016277,0.031485,1.0603e-06,0.54,0.44,0
0.02176,-0.00043741,0.036231,0.00078973,0.011106,0.00069835,0,0,0.065324,-0.026823,0,0.0036314,0,0,0,0.036245,0.00077597,0.011106,1.1284,0.016042,0.031596,1.0555e-06,0.55,0.44,0
0.022413,-0.00038177,0.036048,0.00051161,0.010968,0.00065982,0,0,0.065208,-0.027186,0,0.0034311,0,0,0,0.03606,0.00049937,0.010968,1.0634,0.015842,0.031653,1.0484e-06,0.56,0.44,0
0.023065,-0.00032707,0.035868,0.00029487,0.010849,0.00063761,0,0,0.06505,-0.02744,0,0.0033156,0,0,0,0.035879,0.00028345,0.010849,1.0265,0.015671,0.031664,1.0396e-06,0.57,0.44,0
0.023714,-0.00027291,0.035693,0.0001275,0.010746,0.00062354,0,0,0.064861,-0.027608,0,0.0032424,0,0,0,0.035704,0.00011657,0.010746,1.0041,0.015522,0.031641,1.0296e-06,0.58,0.44,0
0.024362,-0.0002191,0.035523,-3.3713e-07,0.010657,0.00061199,0,0,0.064653,-0.027709,0,0.0031823,0,0,0,0.035534,-1.0877e-05,0.010657,0.98668,0.015393,0.031592,1.0189e-06,0.59,0.44,0
0.025007,-0.00016562,0.035361,-9.6782e-05,0.010579,0.00059934,0,0,0.064432,-0.027758,0,0.0031166,0,0,0,0.035371,-0.00010691,0.010579,0.9681,0.015281,0.031524,1.0078e-06,0.6,0.44,0
0.02565,-0.00011255,0.035206,-0.00016863,0.010511,0.00058341,0,0,0.064207,-0.027768,0,0.0030337,0,0,0,0.035216,-0.00017825,0.010511,0.94459,0.015183,0.031443,9.968e-07,0.61,0.44,0
0.026291,-6.0045e-05,0.035061,-0.00022154,0.010452,0.00056309,0,0,0.063984,-0.027751,0,0.0029281,0,0,0,0.03507,-0.00023053,0.010452,0.9141,0.015097,0.031355,9.8601e-07,0.62,0.44,0
0.02693,-8.3099e-06,0.034925,-0.00026019,0.010399,0.00053802,0,0,0.063766,-0.027715,0,0.0027977,0,0,0,0.034933,-0.00026841,0.010399,0.87584,0.015021,0.031264,9.7566e-07,0.63,0.44,0
0.027567,4.2451e-05,0.034799,-0.00028841,0.010353,0.00050832,0,0,0.063559,-0.027668,0,0.0026433,0,0,0,0.034806,-0.00029577,0.010353,0.82983,0.014955,0.031173,9.6588e-07,0.64,0.44,0
0.028201,9.2028e-05,0.034683,-0.00030933,0.010312,0.00047448,0,0,0.063364,-0.027615,0,0.0024673,0,0,0,0.034689,-0.00031576,0.010312,0.77673,0.014895,0.031085,9.5676e-07,0.65,0.44,0
0.028834,0.00014023,0.034576,-0.00032545,0.010275,0.00043718,0,0,0.063182,-0.027562,0,0.0022733,0,0,0,0.034582,-0.00033092,0.010275,0.71753,0.014842,0.031001,9.4836e-07,0.66,0.44,0
0.029465,0.00018687,0.034479,-0.00033874,0.010242,0.00039719,0,0,0.063017,-0.02751,0,0.0020654,0,0,0,0.034484,-0.00034327,0.010242,0.65349,0.014794,0.030924,9.4072e-07,0.67,0.44,0
0.030094,0.00023181,0.034392,-0.00035072,0.010212,0.00035534,0,0,0.062867,-0.027464,0,0.0018478,0,0,0,0.034395,-0.00035436,0.010212,0.58593,0.014751,0.030855,9.3384e-07,0.68,0.44,0
0.030722,0.00027492,0.034313,-0.00036254,0.010185,0.00031246,0,0,0.062732,-0.027424,0,0.0016248,0,0,0,0.034316,-0.00036535,0.010185,0.51623,0.014712,0.030793,9.277e-07,0.69,0.44,0
0.031349,0.0003161,0.034243,-0.000375,0.01016,0.00026931,0,0,0.062614,-0.027392,0,0.0014004,0,0,0,0.034245,-0.0003771,0.01016,0.44569,0.014676,0.030739,9.2229e-07,0.7,0.44,0
0.031974,0.0003553,0.03418,-0.00038867,0.010137,0.00022659,0,0,0.06251,-0.027368,0,0.0011783,0,0,0,0.034181,-0.00039015,0.010137,0.37554,0.014643,0.030693,9.1757e-07,0.71,0.44,0
0.032599,0.00039245,0.034124,-0.00040388,0.010116,0.00018494,0,0,0.062421,-0.027352,0,0.00096168,0,0,0,0.034125,-0.00040487,0.010116,0.30687,0.014612,0.030655,9.1349e-07,0.72,0.44,0
0.033223,0.00042755,0.034075,-0.0004208,0.010096,0.00014489,0,0,0.062345,-0.027345,0,0.00075342,0,0,0,0.034076,-0.0004214,0.010096,0.24064,0.014584,0.030624,9.1e-07,0.73,0.44,0
0.033846,0.0004606,0.034032,-0.00043945,0.010078,0.00010689,0,0,0.062282,-0.027345,0,0.00055582,0,0,0,0.034033,-0.00043979,0.010078,0.17766,0.014557,0.030601,9.0706e-07,0.74,0.44,0
0.034468,0.0004916,0.033995,-0.00045978,0.01006,7.1305e-05,0,0,0.062229,-0.027353,0,0.00037079,0,0,0,0.033995,-0.00045993,0.01006,0.11857,0.014532,0.030583,9.046e-07,0.75,0.44,0
0.03509,0.00052061,0.033962,-0.00048164,0.010044,3.8418e-05,0,0,0.062186,-0.027367,0,0.00019977,0,0,0,0.033962,-0.00048168,0.010044,0.063907,0.014508,0.030571,9.0258e-07,0.76,0.44,0
0.035712,0.00054767,0.033933,-0.00050481,0.010029,8.4323e-06,0,0,0.062153,-0.027387,0,4.3848e-05,0,0,0,0.033933,-0.00050482,0.010029,0.014029,0.014486,0.030565,9.0095e-07,0.77,0.44,0
0.036334,0.00057283,0.033909,-0.00052908,0.010014,-1.8514e-05,0,0,0.062127,-0.027412,0,-9.6275e-05,0,0,0,0.033909,-0.00052908,0.010014,-0.030803,0.014464,0.030562,8.9966e-07,0.78,0.44,0
0.036955,0.00059617,0.033887,-0.00055417,0.01,-4.2346e-05,0,0,0.062107,-0.027441,0,-0.0002202,0,0,0,0.033888,-0.00055422,0.01,-0.070445,0.014444,0.030563,8.9866e-07,0.79,0.44,0
0.037576,0.00061775,0.033869,-0.00057982,0.0099868,-6.3039e-05,0,0,0.062094,-0.027473,0,-0.0003278,0,0,0,0.033869,-0.00057994,0.0099868,-0.10485,0.014425,0.030568,8.979e-07,0.8,0.44,0
0.038197,0.00063765,0.033853,-0.00060578,0.0099743,-8.0616e-05,0,0,0.062086,-0.027508,0,-0.0004192,0,0,0,0.033854,-0.00060597,0.0099743,-0.13404,0.014407,0.030575,8.9736e-07,0.81,0.44,0
0.038817,0.00065595,0.03384,-0.00063178,0.0099624,-9.5136e-05,0,0,0.062081,-0.027545,0,-0.00049471,0,0,0,0.03384,-0.00063204,0.0099624,-0.15812,0.01439,0.030584,8.97e-07,0.82,0.44,0
0.039438,0.00067273,0.033828,-0.00065757,0.0099512,-0.00010669,0,0,0.06208,-0.027583,0,-0.00055479,0,0,0,0.033828,-0.0006579,0.0099512,-0.17725,0.014374,0.030594,8.9678e-07,0.83,0.44,0
0.040059,0.00068808,0.033818,-0.00068294,0.0099406,-0.00011539,0,0,0.062082,-0.027621,0,-0.00060004,0,0,0,0.033819,-0.00068332,0.0099406,-0.19163,0.014359,0.030606,8.9668e-07,0.84,0.44,0
0.04068,0.00070206,0.03381,-0.00070765,0.0099306,-0.00012138,0,0,0.062086,-0.02766,0,-0.00063119,0,0,0,0.03381,-0.00070808,0.0099306,-0.20148,0.014344,0.030618,8.9667e-07,0.85,0.44,0
0.041301,0.00071476,0.033802,-0.00073153,0.0099213,-0.00012481,0,0,0.062091,-0.027697,0,-0.000649,0,0,0,0.033803,-0.00073198,0.0099213,-0.20707,0.014331,0.030631,8.9674e-07,0.86,0.44,0
0.041922,0.00072625,0.033796,-0.00075439,0.0099126,-0.00012583,0,0,0.062098,-0.027734,0,-0.00065432,0,0,0,0.033797,-0.00075485,0.0099126,-0.20866,0.014318,0.030644,8.9685e-07,0.87,0.44,0
0.042543,0.00073659,0.033791,-0.00077608,0.0099045,-0.00012462,0,0,0.062105,-0.027769,0,-0.00064804,0,0,0,0.033791,-0.00077653,0.0099045,-0.20656,0.014306,0.030656,8.9701e-07,0.88,0.44,0
0.043164,0.00074586,0.033786,-0.00079646,0.009897,-0.00012136,0,0,0.062113,-0.027803,0,-0.00063106,0,0,0,0.033787,-0.00079689,0.009897,-0.20106,0.014296,0.030669,8.9719e-07,0.89,0.44,0
0.043785,0.00075411,0.033783,-0.00081541,0.0098902,-0.00011621,0,0,0.06212,-0.027835,0,-0.00060431,0,0,0,0.033783,-0.00081581,0.0098902,-0.19245,0.014286,0.03068,8.9738e-07,0.9,0.44,0
0.044406,0.00076141,0.033779,-0.00083284,0.009884,-0.00010937,0,0,0.062128,-0.027864,0,-0.0005687,0,0,0,0.03378,-0.00083318,0.009884,-0.18104,0.014277,0.030691,8.9758e-07,0.91,0.44,0
0.045027,0.0007678,0.033777,-0.00084863,0.0098784,-0.000101,0,0,0.062135,-0.02789,0,-0.00052518,0,0,0,0.033777,-0.00084893,0.0098784,-0.16712,0.014269,0.030701,8.9777e-07,0.92,0.44,0
0.045649,0.00077332,0.033774,-0.00086273,0.0098735,-9.1279e-05,0,0,0.062142,-0.027914,0,-0.00047465,0,0,0,0.033774,-0.00086297,0.0098735,-0.15099,0.014262,0.030711,8.9795e-07,0.93,0.44,0
0.04627,0.00077803,0.033772,-0.00087507,0.0098692,-8.0391e-05,0,0,0.062148,-0.027935,0,-0.00041803,0,0,0,0.033772,-0.00087526,0.0098692,-0.13294,0.014256,0.030719,8.9812e-07,0.94,0.44,0
0.046892,0.00078195,0.033771,-0.00088559,0.0098656,-6.8504e-05,0,0,0.062154,-0.027953,0,-0.00035622,0,0,0,0.033771,-0.00088573,0.0098656,-0.11325,0.01425,0.030726,8.9826e-07,0.95,0.44,0
0.047514,0.00078512,0.03377,-0.00089425,0.0098626,-5.579e-05,0,0,0.062158,-0.027968,0,-0.00029011,0,0,0,0.03377,-0.00089434,0.0098626,-0.092215,0.014246,0.030731,8.9838e-07,0.96,0.44,0
0.048135,0.00078756,0.033769,-0.00090102,0.0098603,-4.2417e-05,0,0,0.062162,-0.027979,0,-0.00022057,0,0,0,0.033769,-0.00090108,0.0098603,-0.070099,0.014243,0.030736,8.9848e-07,0.97,0.44,0
0.048757,0.00078929,0.033768,-0.00090588,0.0098586,-2.8551e-05,0,0,0.062164,-0.027988,0,-0.00014846,0,0,0,0.033768,-0.0009059,0.0098586,-0.047178,0.01424,0.030739,8.9856e-07,0.98,0.44,0
0.049378,0.00079032,0.033767,-0.0009088,0.0098576,-1.4357e-05,0,0,0.062166,-0.027993,0,-7.4657e-05,0,0,0,0.033767,-0.0009088,0.0098576,-0.023722,0.014239,0.030741,8.986e-07,0.99,0.44,0
0.05,0.00079066,0.033767,-0.00090977,0.0098573,6.5926e-06,0,0,0.062166,-0.027994,0,3.4282e-05,0,0,0,0.033767,-0.00090977,0.0098573,0.010893,0.014238,0.030742,8.9861e-07,1,0.44,0
0,0,0.033757,0.014467,0.014467,0.00042337,0,0,0.050153,8.1315e-20,0,0.0022015,0,0,0,0.033766,0.014458,0.014467,1.2567,0.020897,0.019304,3.6944e-07,0,0.45,0
0.00050153,2.2015e-05,0.033739,0.014216,0.014386,0.00043575,0,0,0.050317,-0.00044345,0,0.0022659,0,0,0,0.033749,0.014206,0.014386,1.278,0.020781,0.019453,3.7798e-07,0.01,0.45,0
0.0010063,5.4656e-05,0.033813,0.013946,0.014328,0.00053998,0,0,0.050662,-0.0009923,0,0.0028079,0,0,0,0.033828,0.013931,0.014328,1.5558,0.020696,0.019701,3.922e-07,0.02,0.45,0
0.0015148,9.74e-05,0.033883,0.013634,0.014255,0.00063129,0,0,0.051032,-0.0016144,0,0.0032827,0,0,0,0.033902,0.013614,0.014255,1.784,0.020591,0.019975,4.0794e-07,0.03,0.45,0
0.002027,0.00014987,0.033943,0.013284,0.014168,0.00071296,0,0,0.051414,-0.002298,0,0.0037074,0,0,0,0.033967,0.01326,0.014168,1.9743,0.020465,0.020269,4.2477e-07,0.04,0.45,0
0.002543,0.00021177,0.033999,0.012893,0.014068,0.00078378,0,0,0.051822,-0.0030536,0,0.0040756,0,0,0,0.034029,0.012864,0.014068,2.1238,0.02032,0.020589,4.4309e-07,0.05,0.45,0
0.0030634,0.00028249,0.034052,0.012432,0.013945,0.00083288,0,0,0.052277,-0.003934,0,0.004331,0,0,0,0.034084,0.0124,0.013945,2.2029,0.020143,0.020954,4.6386e-07,0.06,0.45,0
0.0035886,0.00036076,0.034123,0.011901,0.013807,0.00081428,0,0,0.052821,-0.0049562,0,0.0042343,0,0,0,0.034153,0.011871,0.013807,2.0957,0.019944,0.021379,4.8805e-07,0.07,0.45,0
0.0041198,0.00044323,0.034054,0.011216,0.013581,0.00067635,0,0,0.053231,-0.0061499,0,0.003517,0,0,0,0.034075,0.011196,0.013581,1.6948,0.019617,0.021784,5.0955e-07,0.08,0.45,0
0.0046532,0.00052603,0.03371,0.010596,0.013292,0.00046437,0,0,0.053087,-0.0070089,0,0.0024147,0,0,0,0.033719,0.010587,0.013292,1.1505,0.019199,0.021906,5.1222e-07,0.09,0.45,0
0.0051816,0.00062391,0.034359,0.010252,0.013383,-0.00012445,0,0,0.054536,-0.0081406,0,-0.00064715,0,0,0,0.034359,0.010252,0.013383,-0.29579,0.019331,0.022704,5.6274e-07,0.1,0.45,0
0.0057439,0.00069475,0.039328,0.011741,0.015321,0.00072491,0,0,0.043701,-0.0064183,0,0.0016282,0,0,0,0.039369,0.011699,0.015321,1.1572,0.022129,0.026049,9.5364e-07,0.11,0.45,0
0.0061183,0.00070338,0.031649,0.010164,0.012544,0.0023475,0,0,0.034195,-0.0042467,0,0.0078596,0,0,0,0.03191,0.0099026,0.012544,5.8746,0.018119,0.020813,5.2155e-07,0.12,0.45,0
0.0063954,0.00067342,0.036484,0.011825,0.014493,0.0032629,0,0,0.028588,-0.0034674,0,0.0084835,0,0,0,0.036908,0.011401,0.014493,7.4117,0.020934,0.02411,6.801e-07,0.13,0.45,0
0.00669,0.00062603,0.037018,0.011043,0.014418,0.0025698,0,0,0.02938,-0.0043885,0,0.0066814,0,0,0,0.03727,0.010791,0.014418,5.5959,0.020826,0.024865,7.3323e-07,0.14,0.45,0
0.006983,0.00058231,0.036459,0.0095012,0.013788,0.0025511,0,0,0.029472,-0.0055729,0,0.006633,0,0,0,0.036698,0.0092619,0.013788,5.3588,0.019916,0.025477,7.5971e-07,0.15,0.45,0
0.0072795,0.00054129,0.036385,0.0088545,0.013572,0.0025177,0,0,0.029657,-0.0061326,0,0.0065461,0,0,0,0.036613,0.0086261,0.013572,5.1825,0.019604,0.025871,7.8094e-07,0.16,0.45,0
0.0075762,0.0005053,0.036196,0.0083456,0.013362,0.0024465,0,0,0.029684,-0.006522,0,0.006361,0,0,0,0.036409,0.0081323,0.013362,4.9823,0.019301,0.026059,7.8682e-07,0.17,0.45,0
0.0078732,0.00047142,0.03606,0.0078815,0.013182,0.0023005,0,0,0.02974,-0.0068911,0,0.0059814,0,0,0,0.036246,0.0076949,0.013182,4.6368,0.019041,0.026241,7.93e-07,0.18,0.45,0
0.008171,0.00043798,0.035981,0.0074253,0.013022,0.0021283,0,0,0.029847,-0.0072757,0,0.0055337,0,0,0,0.036139,0.0072675,0.013022,4.2392,0.018809,0.026468,8.0264e-07,0.19,0.45,0
0.0084701,0.00040394,0.035942,0.0069676,0.012873,0.0019504,0,0,0.02999,-0.007677,0,0.005071,0,0,0,0.036073,0.0068369,0.012873,3.8337,0.018594,0.026734,8.1522e-07,0.2,0.45,0
0.0087708,0.0003687,0.035926,0.0065058,0.012729,0.0017758,0,0,0.030155,-0.0080907,0,0.0046171,0,0,0,0.036033,0.006399,0.012729,3.4417,0.018387,0.02703,8.2978e-07,0.21,0.45,0
0.0090732,0.00033188,0.035921,0.0060396,0.012588,0.0016075,0,0,0.030332,-0.0085131,0,0.0041795,0,0,0,0.036007,0.0059533,0.012588,3.0705,0.018183,0.027347,8.4558e-07,0.22,0.45,0
0.0093774,0.00029326,0.035922,0.005569,0.012447,0.0014462,0,0,0.030517,-0.0089419,0,0.00376,0,0,0,0.035991,0.0055003,0.012447,2.7216,0.01798,0.027679,8.6217e-07,0.23,0.45,0
0.0096835,0.0002527,0.035927,0.0050946,0.012307,0.0012916,0,0,0.030707,-0.0093756,0,0.0033582,0,0,0,0.035981,0.0050406,0.012307,2.3946,0.017776,0.028023,8.7929e-07,0.24,0.45,0
0.0099916,0.00021011,0.035935,0.0046164,0.012165,0.0011435,0,0,0.030901,-0.0098138,0,0.0029731,0,0,0,0.035977,0.0045747,0.012165,2.0882,0.017572,0.028379,8.9679e-07,0.25,0.45,0
0.010302,0.00016547,0.035945,0.004135,0.012024,0.0010015,0,0,0.031097,-0.010256,0,0.0026039,0,0,0,0.035977,0.0041035,0.012024,1.8015,0.017368,0.028743,9.1459e-07,0.26,0.45,0
0.010613,0.00011877,0.035957,0.0036509,0.011882,0.00086533,0,0,0.031297,-0.010701,0,0.0022499,0,0,0,0.03598,0.0036278,0.011882,1.5332,0.017164,0.029117,9.3264e-07,0.27,0.45,0
0.010927,7.0035e-05,0.035972,0.0031651,0.011741,0.00073474,0,0,0.0315,-0.011149,0,0.0019103,0,0,0,0.035988,0.0031487,0.011741,1.2823,0.016959,0.029498,9.5087e-07,0.28,0.45,0
0.011244,1.9326e-05,0.03599,0.0026788,0.011601,0.00060946,0,0,0.031706,-0.011598,0,0.0015846,0,0,0,0.036001,0.0026677,0.011601,1.0478,0.016756,0.029885,9.6924e-07,0.29,0.45,0
0.011562,-3.3286e-05,0.03601,0.0021937,0.011461,0.00048919,0,0,0.031914,-0.012048,0,0.0012719,0,0,0,0.036017,0.0021866,0.011461,0.8286,0.016555,0.030278,9.8767e-07,0.3,0.45,0
0.011882,-8.771e-05,0.036034,0.0017119,0.011324,0.00037362,0,0,0.032123,-0.012495,0,0.00097141,0,0,0,0.036038,0.0017078,0.011324,0.62361,0.016356,0.030674,1.0061e-06,0.31,0.45,0
0.012204,-0.00014384,0.03606,0.0012362,0.011189,0.00026249,0,0,0.032332,-0.012938,0,0.00068249,0,0,0,0.036062,0.0012342,0.011189,0.43185,0.016162,0.03107,1.0242e-06,0.32,0.45,0
0.012528,-0.00020154,0.036088,0.00076975,0.011057,0.00015571,0,0,0.032539,-0.013374,0,0.00040485,0,0,0,0.036088,0.00076906,0.011057,0.2526,0.015971,0.031463,1.0421e-06,0.33,0.45,0
0.012855,-0.00026066,0.036116,0.00031651,0.01093,5.3461e-05,0,0,0.032742,-0.013797,0,0.000139,0,0,0,0.036116,0.00031643,0.01093,0.085562,0.015787,0.031848,1.0593e-06,0.34,0.45,0
0.013183,-0.00032104,0.036144,-0.00011914,0.010807,-4.3558e-05,0,0,0.032938,-0.014205,0,-0.00011325,0,0,0,0.036144,-0.00011919,0.010807,-0.068821,0.015611,0.032221,1.0757e-06,0.35,0.45,0
0.013514,-0.00038243,0.03617,-0.00053236,0.010691,-0.00013395,0,0,0.033122,-0.014591,0,-0.00034828,0,0,0,0.03617,-0.00053285,0.010691,-0.20911,0.015443,0.032575,1.091e-06,0.36,0.45,0
0.013846,-0.00044459,0.036191,-0.00091813,0.010582,-0.00021547,0,0,0.033292,-0.01495,0,-0.00056021,0,0,0,0.036192,-0.00091938,0.010582,-0.33266,0.015285,0.032905,1.1048e-06,0.37,0.45,0
0.014179,-0.00050715,0.036206,-0.0012717,0.01048,-0.00028494,0,0,0.033443,-0.015278,0,-0.00074085,0,0,0,0.036208,-0.0012739,0.01048,-0.43559,0.015138,0.033204,1.1168e-06,0.38,0.45,0
0.014515,-0.00056971,0.036213,-0.0015891,0.010387,-0.00033846,0,0,0.033573,-0.015569,0,-0.00088,0,0,0,0.036216,-0.0015922,0.010387,-0.51295,0.015004,0.033467,1.1268e-06,0.39,0.45,0
0.014851,-0.00063174,0.03621,-0.0018679,0.010303,-0.00037169,0,0,0.03368,-0.015822,0,-0.0009664,0,0,0,0.036214,-0.0018715,0.010303,-0.55921,0.014882,0.03369,1.1347e-06,0.4,0.45,0
0.015188,-0.00069262,0.036199,-0.0021075,0.010227,-0.00038042,0,0,0.033763,-0.016035,0,-0.0009891,0,0,0,0.036202,-0.0021113,0.010227,-0.56894,0.014773,0.033874,1.1403e-06,0.41,0.45,0
0.015526,-0.00075165,0.036179,-0.0023102,0.010161,-0.00036124,0,0,0.033824,-0.016212,0,-0.00093923,0,0,0,0.036183,-0.0023136,0.010161,-0.53768,0.014677,0.03402,1.1441e-06,0.42,0.45,0
0.015865,-0.00080804,0.036157,-0.0024827,0.010102,-0.00031287,0,0,0.033871,-0.016361,0,-0.00081346,0,0,0,0.03616,-0.0024852,0.010102,-0.46389,0.014592,0.034139,1.1466e-06,0.43,0.45,0
0.016204,-0.00086094,0.036137,-0.0026384,0.010049,-0.00023856,0,0,0.033913,-0.016494,0,-0.00062026,0,0,0,0.036138,-0.0026398,0.010049,-0.35249,0.014516,0.034244,1.1488e-06,0.44,0.45,0
0.016543,-0.00090951,0.036101,-0.002798,0.009991,-0.00014745,0,0,0.033943,-0.016626,0,-0.00038336,0,0,0,0.036102,-0.0027985,0.009991,-0.21717,0.014431,0.034341,1.1496e-06,0.45,0.45,0
0.016883,-0.00095281,0.036003,-0.0029545,0.0099145,-2.3588e-05,0,0,0.033915,-0.01673,0,-6.1329e-05,0,0,0,0.036003,-0.0029545,0.0099145,-0.034692,0.014321,0.03438,1.1444e-06,0.46,0.45,0
0.017221,-0.00098816,0.03596,-0.0029797,0.0098942,0.00021747,0,0,0.033886,-0.016736,0,0.00056542,0,0,0,0.035961,-0.0029809,0.0098942,0.31997,0.014292,0.034364,1.1412e-06,0.47,0.45,0
0.01756,-0.001011,0.036003,-0.0032544,0.0098245,0.00071274,0,0,0.034032,-0.017003,0,0.0018531,0,0,0,0.036016,-0.0032674,0.0098245,1.0398,0.014191,0.034645,1.1536e-06,0.48,0.45,0
0.017902,-0.0010173,0.036038,0.00057399,0.010984,0.0011945,0,0,0.048057,-0.018043,0,0.0049772,0,0,0,0.036083,0.00052917,0.010984,2.0134,0.015865,0.031715,1.0235e-06,0.49,0.45,0
0.018521,-0.00097341,0.036241,0.0043059,0.012164,0.0014038,0,0,0.0626,-0.020431,0,0.0072998,0,0,0,0.036302,0.0042443,0.012164,2.5122,0.01757,0.028923,9.357e-07,0.5,0.45,0
0.019154,-0.00091932,0.036388,0.0031581,0.011864,0.001321,0,0,0.063763,-0.022635,0,0.006869,0,0,0,0.036441,0.0031056,0.011864,2.2728,0.017137,0.029933,9.9023e-07,0.51,0.45,0
0.019797,-0.00086359,0.036464,0.0023352,0.01164,0.0011599,0,0,0.064543,-0.024192,0,0.0060313,0,0,0,0.036503,0.0022958,0.01164,1.9442,0.016813,0.030624,1.0253e-06,0.52,0.45,0
0.020445,-0.00080954,0.036413,0.0017043,0.011435,0.0010206,0,0,0.064943,-0.025301,0,0.0053073,0,0,0,0.036443,0.0016743,0.011435,1.6829,0.016518,0.031061,1.0422e-06,0.53,0.45,0
0.021095,-0.00075695,0.036298,0.0012119,0.011253,0.00092686,0,0,0.065117,-0.026107,0,0.0048197,0,0,0,0.036323,0.0011874,0.011253,1.5122,0.016254,0.031339,1.0485e-06,0.54,0.45,0
0.021747,-0.00070508,0.036153,0.00082958,0.011095,0.00086887,0,0,0.065151,-0.02669,0,0.0045181,0,0,0,0.036174,0.00080822,0.011095,1.4082,0.016026,0.031509,1.0483e-06,0.55,0.45,0
0.022398,-0.00065332,0.035993,0.00053487,0.010958,0.00083395,0,0,0.065089,-0.027101,0,0.0043365,0,0,0,0.036012,0.00051527,0.010958,1.3466,0.015829,0.031597,1.0437e-06,0.56,0.45,0
0.023049,-0.00060129,0.035825,0.0003099,0.01084,0.00081166,0,0,0.06496,-0.02738,0,0.0042206,0,0,0,0.035844,0.00029136,0.01084,1.3085,0.015658,0.031626,1.0362e-06,0.57,0.45,0
0.023698,-0.00054886,0.035656,0.00014014,0.010739,0.00079449,0,0,0.064785,-0.027557,0,0.0041313,0,0,0,0.035674,0.00012238,0.010739,1.2809,0.015512,0.03161,1.0268e-06,0.58,0.45,0
0.024345,-0.00049605,0.03549,1.3722e-05,0.010651,0.00077745,0,0,0.064581,-0.027657,0,0.0040428,0,0,0,0.035507,-3.3078e-06,0.010651,1.2548,0.015385,0.031562,1.0163e-06,0.59,0.45,0
0.024989,-0.00044302,0.035329,-7.9036e-05,0.010575,0.00075749,0,0,0.06436,-0.0277,0,0.0039389,0,0,0,0.035345,-9.5234e-05,0.010575,1.225,0.015275,0.031491,1.0053e-06,0.6,0.45,0
0.025632,-0.00039002,0.035176,-0.00014604,0.010509,0.00073292,0,0,0.064134,-0.027703,0,0.0038112,0,0,0,0.035191,-0.00016125,0.010509,1.1882,0.01518,0.031407,9.9416e-07,0.61,0.45,0
0.026272,-0.0003373,0.035031,-0.00019374,0.010451,0.00070309,0,0,0.063908,-0.027677,0,0.0036561,0,0,0,0.035045,-0.00020777,0.010451,1.143,0.015096,0.031315,9.8328e-07,0.62,0.45,0
0.02691,-0.00028516,0.034897,-0.00022734,0.010401,0.00066797,0,0,0.06369,-0.027633,0,0.0034734,0,0,0,0.03491,-0.00024004,0.010401,1.0891,0.015024,0.03122,9.7287e-07,0.63,0.45,0
0.027546,-0.00023389,0.034773,-0.00025105,0.010357,0.00062801,0,0,0.063483,-0.02758,0,0.0032656,0,0,0,0.034784,-0.0002623,0.010357,1.0269,0.01496,0.031127,9.631e-07,0.64,0.45,0
0.02818,-0.00018376,0.03466,-0.00026818,0.010317,0.00058391,0,0,0.06329,-0.027523,0,0.0030363,0,0,0,0.034669,-0.00027794,0.010317,0.9575,0.014903,0.031037,9.5405e-07,0.65,0.45,0
0.028812,-0.000135,0.034556,-0.00028138,0.010282,0.00053655,0,0,0.063112,-0.027466,0,0.0027901,0,0,0,0.034565,-0.00028964,0.010282,0.88216,0.014853,0.030953,9.4581e-07,0.66,0.45,0
0.029442,-8.7834e-05,0.034464,-0.00029264,0.010251,0.00048686,0,0,0.062952,-0.027414,0,0.0025317,0,0,0,0.03447,-0.00029946,0.010251,0.80238,0.014807,0.030877,9.3838e-07,0.67,0.45,0
0.030071,-4.2431e-05,0.03438,-0.00030347,0.010223,0.00043577,0,0,0.062809,-0.027369,0,0.002266,0,0,0,0.034386,-0.00030895,0.010223,0.71971,0.014767,0.03081,9.3177e-07,0.68,0.45,0
0.030698,1.0696e-06,0.034306,-0.00031498,0.010197,0.00038418,0,0,0.062683,-0.027332,0,0.0019977,0,0,0,0.03431,-0.00031924,0.010197,0.63569,0.014729,0.030751,9.2597e-07,0.69,0.45,0
0.031324,4.2561e-05,0.034241,-0.00032789,0.010174,0.00033291,0,0,0.062573,-0.027304,0,0.0017312,0,0,0,0.034244,-0.0003311,0.010174,0.55172,0.014695,0.030701,9.2093e-07,0.7,0.45,0
0.031949,8.197e-05,0.034183,-0.00034268,0.010152,0.00028271,0,0,0.06248,-0.027286,0,0.0014701,0,0,0,0.034185,-0.000345,0.010152,0.46912,0.014664,0.03066,9.1661e-07,0.71,0.45,0
0.032574,0.00011925,0.034132,-0.0003596,0.010132,0.00023421,0,0,0.062401,-0.027278,0,0.0012179,0,0,0,0.034134,-0.00036119,0.010132,0.38903,0.014635,0.030628,9.1295e-07,0.72,0.45,0
0.033197,0.00015439,0.034088,-0.00037871,0.010113,0.00018794,0,0,0.062336,-0.027278,0,0.00097728,0,0,0,0.034089,-0.00037974,0.010113,0.31241,0.014607,0.030603,9.0991e-07,0.73,0.45,0
0.033821,0.0001874,0.03405,-0.00039996,0.010095,0.00014434,0,0,0.062283,-0.027287,0,0.00075058,0,0,0,0.034051,-0.00040056,0.010095,0.24006,0.014582,0.030585,9.0741e-07,0.74,0.45,0
0.034443,0.00021829,0.034017,-0.00042317,0.010078,0.00010375,0,0,0.062241,-0.027304,0,0.00053951,0,0,0,0.034017,-0.00042348,0.010078,0.1726,0.014557,0.030574,9.0541e-07,0.75,0.45,0
0.035065,0.00024711,0.033989,-0.00044813,0.010062,6.6421e-05,0,0,0.06221,-0.027327,0,0.00034539,0,0,0,0.033989,-0.00044826,0.010062,0.11051,0.014534,0.030569,9.0383e-07,0.76,0.45,0
0.035687,0.00027393,0.033965,-0.00047456,0.010047,3.2515e-05,0,0,0.062186,-0.027356,0,0.00016908,0,0,0,0.033965,-0.00047459,0.010047,0.054094,0.014512,0.030568,9.0263e-07,0.77,0.45,0
0.036309,0.0002988,0.033944,-0.00050216,0.010033,2.1305e-06,0,0,0.062171,-0.027391,0,1.1078e-05,0,0,0,0.033944,-0.00050216,0.010033,0.0035436,0.014492,0.030572,9.0175e-07,0.78,0.45,0
0.036931,0.0003218,0.033927,-0.00053061,0.010019,-2.4698e-05,0,0,0.062161,-0.027429,0,-0.00012843,0,0,0,0.033927,-0.00053062,0.010019,-0.041067,0.014472,0.03058,9.0115e-07,0.79,0.45,0
0.037552,0.00034301,0.033912,-0.00055959,0.010006,-4.7989e-05,0,0,0.062157,-0.02747,0,-0.00024954,0,0,0,0.033912,-0.00055966,0.010006,-0.079762,0.014453,0.03059,9.0077e-07,0.8,0.45,0
0.038174,0.00036252,0.0339,-0.00058882,0.0099933,-6.7807e-05,0,0,0.062157,-0.027514,0,-0.00035259,0,0,0,0.0339,-0.00058895,0.0099933,-0.11265,0.014435,0.030602,9.0059e-07,0.81,0.45,0
0.038795,0.00038042,0.03389,-0.00061799,0.0099815,-8.425e-05,0,0,0.062161,-0.027559,0,-0.0004381,0,0,0,0.03389,-0.00061819,0.0099815,-0.13989,0.014418,0.030617,9.0056e-07,0.82,0.45,0
0.039417,0.00039679,0.033881,-0.00064682,0.0099702,-9.7449e-05,0,0,0.062168,-0.027604,0,-0.00050674,0,0,0,0.033881,-0.0006471,0.0099702,-0.16171,0.014401,0.030632,9.0065e-07,0.83,0.45,0
0.040039,0.00041171,0.033873,-0.00067508,0.0099595,-0.00010755,0,0,0.062176,-0.02765,0,-0.00055928,0,0,0,0.033874,-0.00067542,0.0099595,-0.17837,0.014386,0.030648,9.0083e-07,0.84,0.45,0
0.040661,0.00042528,0.033867,-0.00070253,0.0099494,-0.00011474,0,0,0.062186,-0.027695,0,-0.00059662,0,0,0,0.033868,-0.00070292,0.0099494,-0.19016,0.014371,0.030665,9.0108e-07,0.85,0.45,0
0.041283,0.00043757,0.033862,-0.00072897,0.0099399,-0.00011917,0,0,0.062198,-0.027739,0,-0.00061969,0,0,0,0.033862,-0.00072939,0.0099399,-0.19739,0.014358,0.030682,9.0138e-07,0.86,0.45,0
0.041905,0.00044866,0.033858,-0.00075422,0.0099311,-0.00012105,0,0,0.062209,-0.027782,0,-0.00062946,0,0,0,0.033858,-0.00075464,0.0099311,-0.20038,0.014345,0.030698,9.0171e-07,0.87,0.45,0
0.042527,0.00045862,0.033854,-0.00077811,0.0099228,-0.00012057,0,0,0.062221,-0.027822,0,-0.00062696,0,0,0,0.033855,-0.00077853,0.0099228,-0.19947,0.014333,0.030714,9.0206e-07,0.88,0.45,0
0.043149,0.00046753,0.033851,-0.00080051,0.0099152,-0.00011792,0,0,0.062233,-0.027861,0,-0.00061319,0,0,0,0.033851,-0.00080091,0.0099152,-0.19498,0.014322,0.030729,9.0241e-07,0.89,0.45,0
0.043771,0.00047545,0.033848,-0.00082129,0.0099082,-0.0001133,0,0,0.062245,-0.027897,0,-0.00058918,0,0,0,0.033849,-0.00082166,0.0099082,-0.18724,0.014312,0.030744,9.0275e-07,0.9,0.45,0
0.044394,0.00048244,0.033846,-0.00084035,0.0099018,-0.00010691,0,0,0.062256,-0.02793,0,-0.00055593,0,0,0,0.033847,-0.00084068,0.0099018,-0.17659,0.014303,0.030757,9.0308e-07,0.91,0.45,0
0.045017,0.00048854,0.033845,-0.0008576,0.0098961,-9.8932e-05,0,0,0.062266,-0.02796,0,-0.00051445,0,0,0,0.033845,-0.00085789,0.0098961,-0.16334,0.014294,0.030769,9.0339e-07,0.92,0.45,0
0.045639,0.00049381,0.033843,-0.00087298,0.009891,-8.9559e-05,0,0,0.062275,-0.027986,0,-0.00046571,0,0,0,0.033843,-0.00087321,0.009891,-0.14781,0.014287,0.03078,9.0367e-07,0.93,0.45,0
0.046262,0.0004983,0.033842,-0.00088641,0.0098866,-7.8977e-05,0,0,0.062284,-0.02801,0,-0.00041068,0,0,0,0.033842,-0.00088659,0.0098866,-0.1303,0.014281,0.03079,9.0392e-07,0.94,0.45,0
0.046885,0.00050203,0.033841,-0.00089786,0.0098829,-6.7366e-05,0,0,0.062291,-0.02803,0,-0.0003503,0,0,0,0.033841,-0.00089799,0.0098829,-0.11111,0.014275,0.030798,9.0414e-07,0.95,0.45,0
0.047508,0.00050504,0.03384,-0.00090727,0.0098798,-5.4904e-05,0,0,0.062297,-0.028046,0,-0.0002855,0,0,0,0.03384,-0.00090736,0.0098798,-0.090533,0.014271,0.030805,9.0432e-07,0.96,0.45,0
0.048131,0.00050736,0.03384,-0.00091462,0.0098774,-4.1766e-05,0,0,0.062301,-0.028059,0,-0.00021718,0,0,0,0.03384,-0.00091467,0.0098774,-0.068856,0.014267,0.03081,9.0446e-07,0.97,0.45,0
0.048754,0.000509,0.033839,-0.00091989,0.0098757,-2.8123e-05,0,0,0.062305,-0.028069,0,-0.00014624,0,0,0,0.033839,-0.00091991,0.0098757,-0.046358,0.014265,0.030814,9.0456e-07,0.98,0.45,0
0.049377,0.00050998,0.033839,-0.00092306,0.0098747,-1.4145e-05,0,0,0.062307,-0.028074,0,-7.3555e-05,0,0,0,0.033839,-0.00092306,0.0098747,-0.023315,0.014264,0.030816,9.0463e-07,0.99,0.45,0
0.05,0.0005103,0.033839,-0.00092411,0.0098744,6.2534e-06,0,0,0.062307,-0.028076,0,3.2518e-05,0,0,0,0.033839,-0.00092411,0.0098744,0.010307,0.014263,0.030817,9.0465e-07,1,0.45,0
0,0,0.033468,0.014344,0.014344,0.0003421,0,0,0.049725,-8.1315e-20,0,0.0017789,0,0,0,0.033475,0.014337,0.014344,1.0245,0.020719,0.019134,3.5979e-07,0,0.46,0
0.00049725,1.7789e-05,0.033453,0.014107,0.014268,0.00035865,0,0,0.04988,-0.00041847,0,0.001865,0,0,0,0.033459,0.0141,0.014268,1.0617,0.020609,0.019276,3.6775e-07,0.01,0.46,0
0.00099761,4.5104e-05,0.033523,0.013847,0.014211,0.00046395,0,0,0.050212,-0.00094675,0,0.0024125,0,0,0,0.033534,0.013836,0.014211,1.35,0.020527,0.019513,3.8114e-07,0.02,0.46,0
0.0015015,8.1748e-05,0.033591,0.013543,0.01414,0.00056449,0,0,0.050572,-0.0015531,0,0.0029353,0,0,0,0.033607,0.013527,0.01414,1.6115,0.020425,0.019781,3.9622e-07,0.03,0.46,0
0.0020091,0.00012747,0.03365,0.0132,0.014055,0.0006588,0,0,0.050947,-0.0022232,0,0.0034257,0,0,0,0.033671,0.013179,0.014055,1.8432,0.020302,0.020069,4.1246e-07,0.04,0.46,0
0.0025204,0.00018187,0.033694,0.012814,0.013952,0.00074152,0,0,0.051328,-0.0029589,0,0.0038559,0,0,0,0.03372,0.012788,0.013952,2.0314,0.020154,0.020375,4.2963e-07,0.05,0.46,0
0.0030356,0.00024422,0.033716,0.012383,0.01383,0.0007975,0,0,0.051705,-0.0037616,0,0.004147,0,0,0,0.033746,0.012353,0.01383,2.1379,0.019976,0.020694,4.4735e-07,0.06,0.46,0
0.0035545,0.00031308,0.033677,0.011894,0.013672,0.00080455,0,0,0.052015,-0.0046206,0,0.0041837,0,0,0,0.033707,0.011865,0.013672,2.1124,0.019748,0.020997,4.6362e-07,0.07,0.46,0
0.0040759,0.00038644,0.03354,0.011396,0.013481,0.00075899,0,0,0.052153,-0.0054199,0,0.0039467,0,0,0,0.033566,0.01137,0.013481,1.9608,0.019472,0.021219,4.7435e-07,0.08,0.46,0
0.0045976,0.00046477,0.033465,0.010996,0.013338,0.00063803,0,0,0.052328,-0.0060887,0,0.0033178,0,0,0,0.033483,0.010978,0.013338,1.6253,0.019266,0.021422,4.843e-07,0.09,0.46,0
0.0051225,0.00054035,0.032807,0.0099661,0.012832,0.0005219,0,0,0.051935,-0.0074511,0,0.0027139,0,0,0,0.032819,0.0099541,0.012832,1.3083,0.018535,0.02157,4.8466e-07,0.1,0.46,0
0.0056363,0.00061777,0.033286,0.0098861,0.012952,-0.000249,0,0,0.05287,-0.0079708,0,-0.0012948,0,0,0,0.033289,0.0098834,0.012952,-0.60958,0.018708,0.022032,5.1356e-07,0.11,0.46,0
0.0061799,0.00065725,0.038048,0.01211,0.015048,0.00069646,0,0,0.041938,-0.0053302,0,0.001519,0,0,0,0.038091,0.012067,0.015048,1.1794,0.021735,0.024669,8.1872e-07,0.12,0.46,0
0.0065372,0.00063768,0.030611,0.010078,0.012207,0.0022265,0,0,0.032857,-0.0037125,0,0.0074551,0,0,0,0.030856,0.009833,0.012207,5.8378,0.017632,0.019943,4.6697e-07,0.13,0.46,0
0.0068083,0.0005863,0.035431,0.010669,0.01383,0.0030393,0,0,0.028081,-0.0041091,0,0.0079022,0,0,0,0.035799,0.010302,0.01383,6.8961,0.019977,0.023929,6.5242e-07,0.14,0.46,0
0.0070988,0.00052647,0.036,0.0095963,0.013679,0.002712,0,0,0.029017,-0.0053073,0,0.0070513,0,0,0,0.036276,0.0093206,0.013679,5.8043,0.019758,0.025062,7.2673e-07,0.15,0.46,0
0.0073887,0.00048131,0.035705,0.0089883,0.013408,0.002702,0,0,0.028986,-0.0057456,0,0.0070252,0,0,0,0.035975,0.0087177,0.013408,5.7175,0.019367,0.025242,7.3078e-07,0.16,0.46,0
0.0076785,0.0004417,0.035565,0.0085152,0.013224,0.0025291,0,0,0.029044,-0.0061217,0,0.0065756,0,0,0,0.0358,0.0082808,0.013224,5.2958,0.019102,0.025411,7.3634e-07,0.17,0.46,0
0.0079696,0.00040417,0.035544,0.0080606,0.013081,0.0023264,0,0,0.029201,-0.0065269,0,0.0060486,0,0,0,0.035739,0.0078651,0.013081,4.8044,0.018895,0.025667,7.4896e-07,0.18,0.46,0
0.0082625,0.00036677,0.035575,0.0076041,0.012954,0.0021243,0,0,0.029407,-0.0069545,0,0.0055232,0,0,0,0.035735,0.0074437,0.012954,4.3185,0.018711,0.025979,7.657e-07,0.19,0.46,0
0.0085577,0.00032857,0.035621,0.007141,0.012829,0.0019342,0,0,0.02963,-0.007394,0,0.0050289,0,0,0,0.035752,0.0070103,0.012829,3.8675,0.01853,0.026319,7.8432e-07,0.2,0.46,0
0.0088551,0.00028905,0.035669,0.0066726,0.012702,0.0017559,0,0,0.029856,-0.0078386,0,0.0045654,0,0,0,0.035775,0.0065667,0.012702,3.4529,0.018348,0.026675,8.0364e-07,0.21,0.46,0
0.0091548,0.0002479,0.035711,0.0061999,0.012573,0.0015876,0,0,0.030079,-0.0082854,0,0.0041279,0,0,0,0.035796,0.0061147,0.012573,3.0706,0.018162,0.027037,8.2313e-07,0.22,0.46,0
0.0094567,0.0002049,0.035748,0.0057233,0.012441,0.0014275,0,0,0.030298,-0.0087335,0,0.0037116,0,0,0,0.035816,0.0056556,0.012441,2.716,0.017971,0.027405,8.4255e-07,0.23,0.46,0
0.0097608,0.00015992,0.035779,0.0052431,0.012307,0.0012742,0,0,0.030514,-0.0091827,0,0.0033129,0,0,0,0.035832,0.00519,0.012307,2.3853,0.017776,0.027776,8.6186e-07,0.24,0.46,0
0.010067,0.00011288,0.035806,0.0047595,0.01217,0.0011268,0,0,0.030728,-0.0096334,0,0.0029298,0,0,0,0.035847,0.0047186,0.01217,2.0759,0.017579,0.028153,8.8106e-07,0.25,0.46,0
0.010375,6.3763e-05,0.035831,0.0042728,0.012031,0.00098489,0,0,0.03094,-0.010086,0,0.0025607,0,0,0,0.035861,0.0042421,0.012031,1.7858,0.017378,0.028534,9.0016e-07,0.26,0.46,0
0.010686,1.2561e-05,0.035853,0.0037835,0.011891,0.00084812,0,0,0.031151,-0.01054,0,0.0022051,0,0,0,0.035875,0.0037611,0.011891,1.5139,0.017176,0.02892,9.192e-07,0.27,0.46,0
0.010998,-4.0689e-05,0.035874,0.0032926,0.01175,0.00071637,0,0,0.031362,-0.010995,0,0.0018626,0,0,0,0.03589,0.0032769,0.01175,1.2589,0.016972,0.02931,9.3815e-07,0.28,0.46,0
0.011313,-9.5924e-05,0.035896,0.0028014,0.011609,0.00058955,0,0,0.031573,-0.01145,0,0.0015328,0,0,0,0.035906,0.0027909,0.011609,1.0203,0.016769,0.029705,9.5698e-07,0.29,0.46,0
0.01163,-0.00015306,0.035917,0.0023115,0.011469,0.00046759,0,0,0.031783,-0.011904,0,0.0012157,0,0,0,0.035924,0.002305,0.011469,0.797,0.016566,0.030102,9.7563e-07,0.3,0.46,0
0.011949,-0.00021197,0.035939,0.001825,0.011329,0.00035044,0,0,0.031992,-0.012355,0,0.00091114,0,0,0,0.035942,0.0018215,0.011329,0.5885,0.016364,0.030499,9.9401e-07,0.31,0.46,0
0.01227,-0.00027255,0.03596,0.0013448,0.011192,0.00023814,0,0,0.032199,-0.012801,0,0.00061917,0,0,0,0.035962,0.0013431,0.011192,0.39415,0.016165,0.030895,1.012e-06,0.32,0.46,0
0.012593,-0.00033461,0.035981,0.00087369,0.011057,0.00013091,0,0,0.032402,-0.013238,0,0.00034036,0,0,0,0.035982,0.0008732,0.011057,0.21364,0.01597,0.031286,1.0294e-06,0.33,0.46,0
0.012918,-0.00039798,0.036001,0.00041528,0.010925,2.927e-05,0,0,0.032599,-0.013662,0,7.6103e-05,0,0,0,0.036001,0.00041526,0.010925,0.047127,0.01578,0.031667,1.046e-06,0.34,0.46,0
0.013245,-0.00046243,0.036019,-2.6633e-05,0.010798,-6.5739e-05,0,0,0.032787,-0.014072,0,-0.00017092,0,0,0,0.036019,-2.6753e-05,0.010798,-0.1045,0.015597,0.032036,1.0617e-06,0.35,0.46,0
0.013573,-0.0005277,0.036033,-0.00044799,0.010675,-0.00015245,0,0,0.032965,-0.01446,0,-0.00039636,0,0,0,0.036033,-0.00044863,0.010675,-0.23942,0.01542,0.032386,1.0761e-06,0.36,0.46,0
0.013904,-0.00059346,0.036042,-0.00084469,0.010559,-0.00022842,0,0,0.033127,-0.014825,0,-0.00059389,0,0,0,0.036043,-0.00084611,0.010559,-0.35479,0.015252,0.032713,1.0891e-06,0.37,0.46,0
0.014236,-0.00065934,0.036044,-0.0012128,0.010449,-0.0002905,0,0,0.033273,-0.015161,0,-0.00075531,0,0,0,0.036046,-0.0012151,0.010449,-0.44672,0.015093,0.033013,1.1003e-06,0.38,0.46,0
0.014569,-0.00072487,0.036038,-0.0015491,0.010347,-0.00033499,0,0,0.033399,-0.015465,0,-0.00087097,0,0,0,0.036041,-0.0015521,0.010347,-0.51059,0.014945,0.033279,1.1097e-06,0.39,0.46,0
0.014904,-0.0007895,0.036023,-0.0018511,0.010251,-0.00035802,0,0,0.033502,-0.015733,0,-0.00093085,0,0,0,0.036026,-0.0018545,0.010251,-0.54155,0.014808,0.03351,1.1169e-06,0.4,0.46,0
0.015239,-0.00085261,0.035996,-0.002118,0.010164,-0.00035618,0,0,0.033583,-0.015966,0,-0.00092608,0,0,0,0.036,-0.0021213,0.010164,-0.53538,0.014681,0.033702,1.1219e-06,0.41,0.46,0
0.015576,-0.00091352,0.035958,-0.002351,0.010082,-0.00032738,0,0,0.033639,-0.016163,0,-0.00085119,0,0,0,0.035961,-0.0023538,0.010082,-0.48959,0.014563,0.033855,1.1247e-06,0.42,0.46,0
0.015912,-0.00097148,0.035907,-0.0025545,0.010006,-0.00027182,0,0,0.033672,-0.016328,0,-0.00070672,0,0,0,0.035909,-0.0025565,0.010006,-0.4049,0.014453,0.033973,1.1253e-06,0.43,0.46,0
0.016249,-0.0010257,0.035839,-0.0027371,0.0099305,-0.00019202,0,0,0.033681,-0.016468,0,-0.00049925,0,0,0,0.03584,-0.0027381,0.0099305,-0.28519,0.014344,0.034059,1.1237e-06,0.44,0.46,0
0.016586,-0.0010755,0.035746,-0.0029082,0.0098513,-8.574e-05,0,0,0.033663,-0.016587,0,-0.00022292,0,0,0,0.035746,-0.0029084,0.0098513,-0.12709,0.01423,0.034114,1.1194e-06,0.45,0.46,0
0.016922,-0.0011196,0.035649,-0.0030689,0.009774,6.7891e-05,0,0,0.033638,-0.016696,0,0.00017652,0,0,0,0.035649,-0.003069,0.009774,0.10047,0.014118,0.034158,1.1146e-06,0.46,0.46,0
0.017259,-0.0011563,0.035587,-0.0033036,0.0096849,0.00031598,0,0,0.033672,-0.016885,0,0.00082154,0,0,0,0.035589,-0.0033062,0.0096849,0.46548,0.013989,0.034298,1.1149e-06,0.47,0.46,0
0.017596,-0.0011832,0.035612,-0.003801,0.0095432,0.00065596,0,0,0.033889,-0.017347,0,0.0017055,0,0,0,0.035623,-0.0038119,0.0095432,0.95324,0.013785,0.034739,1.1301e-06,0.48,0.46,0
0.017936,-0.001199,0.035668,0.00023055,0.01077,0.00099217,0,0,0.047705,-0.018268,0,0.0040914,0,0,0,0.035699,0.00020012,0.01077,1.6701,0.015556,0.031635,1.0008e-06,0.49,0.46,0
0.01855,-0.0011758,0.035862,0.0042872,0.012045,0.0011663,0,0,0.061924,-0.020169,0,0.0060647,0,0,0,0.035905,0.0042442,0.012045,2.1126,0.017398,0.02857,9.0356e-07,0.5,0.46,0
0.019175,-0.001142,0.03603,0.0032988,0.011799,0.0011973,0,0,0.063001,-0.022099,0,0.0062262,0,0,0,0.036074,0.0032551,0.011799,2.0922,0.017042,0.02949,9.54e-07,0.51,0.46,0
0.01981,-0.0011028,0.036138,0.0024499,0.011576,0.0011505,0,0,0.06386,-0.023729,0,0.0059828,0,0,0,0.036177,0.0024107,0.011576,1.9538,0.016722,0.030244,9.9326e-07,0.52,0.46,0
0.020452,-0.0010607,0.036165,0.0017801,0.011384,0.0010894,0,0,0.064432,-0.024969,0,0.0056651,0,0,0,0.0362,0.0017456,0.011384,1.8129,0.016443,0.030788,1.0186e-06,0.53,0.46,0
0.021098,-0.0010168,0.036115,0.0012582,0.011212,0.0010421,0,0,0.064747,-0.02588,0,0.005419,0,0,0,0.036146,0.0012271,0.011212,1.7109,0.016195,0.031151,1.0318e-06,0.54,0.46,0
0.021747,-0.0009712,0.036013,0.00085688,0.011061,0.0010117,0,0,0.064875,-0.02653,0,0.005261,0,0,0,0.036042,0.00082779,0.011061,1.6471,0.015977,0.031375,1.0361e-06,0.55,0.46,0
0.022396,-0.00092378,0.035879,0.00055236,0.010929,0.00099208,0,0,0.064869,-0.02698,0,0.0051588,0,0,0,0.035907,0.00052452,0.010929,1.6074,0.015787,0.031496,1.0342e-06,0.56,0.46,0
0.023044,-0.00087466,0.035728,0.00032432,0.010816,0.00097651,0,0,0.064772,-0.027278,0,0.0050778,0,0,0,0.035755,0.00029741,0.010816,1.5787,0.015623,0.031542,1.0283e-06,0.57,0.46,0
0.023692,-0.00082405,0.035569,0.00015601,0.010718,0.00095998,0,0,0.064615,-0.02746,0,0.0049919,0,0,0,0.035596,0.00013,0.010718,1.5516,0.015481,0.031534,1.0198e-06,0.58,0.46,0
0.024337,-0.00077224,0.03541,3.3782e-05,0.010633,0.00093931,0,0,0.064421,-0.027559,0,0.0048844,0,0,0,0.035435,8.859e-06,0.010633,1.5199,0.015359,0.031489,1.0098e-06,0.59,0.46,0
0.02498,-0.00071962,0.035255,-5.3348e-05,0.010561,0.00091276,0,0,0.064206,-0.027596,0,0.0047463,0,0,0,0.035279,-7.6928e-05,0.010561,1.4798,0.015254,0.031418,9.9907e-07,0.6,0.46,0
0.025621,-0.0006666,0.035107,-0.00011422,0.010498,0.00087964,0,0,0.063983,-0.027591,0,0.0045741,0,0,0,0.035129,-0.00013618,0.010498,1.4298,0.015163,0.031332,9.8816e-07,0.61,0.46,0
0.02626,-0.00061359,0.034967,-0.00015592,0.010443,0.00084,0,0,0.063762,-0.027558,0,0.004368,0,0,0,0.034987,-0.000176,0.010443,1.3692,0.015085,0.031238,9.7748e-07,0.62,0.46,0
0.026896,-0.00056098,0.034838,-0.00018409,0.010396,0.0007944,0,0,0.063549,-0.027509,0,0.0041309,0,0,0,0.034856,-0.0002021,0.010396,1.2987,0.015017,0.031142,9.6729e-07,0.63,0.46,0
0.02753,-0.00050915,0.034719,-0.00020318,0.010355,0.00074367,0,0,0.063348,-0.027451,0,0.0038671,0,0,0,0.034735,-0.00021901,0.010355,1.2194,0.014957,0.031048,9.5777e-07,0.64,0.46,0
0.028163,-0.00045842,0.034612,-0.00021668,0.010318,0.00068883,0,0,0.063162,-0.027391,0,0.0035819,0,0,0,0.034625,-0.0002303,0.010318,1.1326,0.014904,0.03096,9.4905e-07,0.65,0.46,0
0.028794,-0.0004091,0.034514,-0.00022727,0.010286,0.00063099,0,0,0.062994,-0.027335,0,0.0032811,0,0,0,0.034526,-0.00023873,0.010286,1.0402,0.014858,0.030878,9.4118e-07,0.66,0.46,0
0.029423,-0.00036141,0.034428,-0.00023696,0.010257,0.00057124,0,0,0.062843,-0.027285,0,0.0029705,0,0,0,0.034437,-0.00024637,0.010257,0.94384,0.014816,0.030805,9.3417e-07,0.67,0.46,0
0.030051,-0.00031557,0.034351,-0.0002472,0.010231,0.00051065,0,0,0.062712,-0.027244,0,0.0026554,0,0,0,0.034359,-0.00025473,0.010231,0.84541,0.014778,0.030742,9.2804e-07,0.68,0.46,0
0.030677,-0.00027172,0.034283,-0.000259,0.010207,0.00045018,0,0,0.062598,-0.027212,0,0.002341,0,0,0,0.034289,-0.00026486,0.010207,0.74656,0.014744,0.030689,9.2274e-07,0.69,0.46,0
0.031303,-0.00022998,0.034224,-0.00027302,0.010185,0.00039073,0,0,0.062501,-0.027192,0,0.0020318,0,0,0,0.034229,-0.00027744,0.010185,0.64884,0.014712,0.030645,9.1823e-07,0.7,0.46,0
0.031927,-0.00019043,0.034173,-0.00028961,0.010165,0.00033304,0,0,0.062421,-0.027182,0,0.0017318,0,0,0,0.034176,-0.00029282,0.010165,0.55362,0.014683,0.030611,9.1446e-07,0.71,0.46,0
0.032551,-0.0001531,0.034129,-0.0003089,0.010146,0.00027776,0,0,0.062356,-0.027183,0,0.0014443,0,0,0,0.034131,-0.00031114,0.010146,0.46208,0.014655,0.030585,9.1137e-07,0.72,0.46,0
0.033174,-0.00011801,0.034091,-0.00033086,0.010128,0.00022541,0,0,0.062304,-0.027193,0,0.0011721,0,0,0,0.034093,-0.00033234,0.010128,0.37517,0.01463,0.030568,9.0889e-07,0.73,0.46,0
0.033797,-8.5143e-05,0.034059,-0.00035532,0.010111,0.0001764,0,0,0.062265,-0.027213,0,0.00091727,0,0,0,0.03406,-0.00035622,0.010111,0.29367,0.014605,0.030558,9.0695e-07,0.74,0.46,0
0.03442,-5.4467e-05,0.034032,-0.00038201,0.010095,0.00013103,0,0,0.062237,-0.02724,0,0.00068137,0,0,0,0.034033,-0.00038251,0.010095,0.21815,0.014582,0.030555,9.0549e-07,0.75,0.46,0
0.035042,-2.5927e-05,0.034009,-0.00041064,0.01008,8.9516e-05,0,0,0.062218,-0.027275,0,0.00046548,0,0,0,0.03401,-0.00041087,0.01008,0.14901,0.014559,0.030557,9.0444e-07,0.76,0.46,0
0.035664,5.4351e-07,0.03399,-0.00044083,0.010065,5.1972e-05,0,0,0.062207,-0.027315,0,0.00027026,0,0,0,0.033991,-0.00044091,0.010065,0.086485,0.014538,0.030564,9.0375e-07,0.77,0.46,0
0.036286,2.5021e-05,0.033975,-0.00047222,0.010051,1.8449e-05,0,0,0.062203,-0.02736,0,9.5933e-05,0,0,0,0.033975,-0.00047223,0.010051,0.030686,0.014518,0.030575,9.0335e-07,0.78,0.46,0
0.036908,4.7592e-05,0.033962,-0.00050444,0.010037,-1.107e-05,0,0,0.062204,-0.027408,0,-5.7563e-05,0,0,0,0.033962,-0.00050445,0.010037,-0.018402,0.014498,0.03059,9.032e-07,0.79,0.46,0
0.03753,6.8346e-05,0.033951,-0.00053714,0.010024,-3.6651e-05,0,0,0.06221,-0.02746,0,-0.00019058,0,0,0,0.033951,-0.00053718,0.010024,-0.060888,0.014479,0.030606,9.0325e-07,0.8,0.46,0
0.038152,8.7377e-05,0.033943,-0.00056996,0.010012,-5.8404e-05,0,0,0.06222,-0.027513,0,-0.0003037,0,0,0,0.033943,-0.00057006,0.010012,-0.096958,0.014462,0.030625,9.0346e-07,0.81,0.46,0
0.038774,0.00010478,0.033936,-0.00060258,0.0099999,-7.6473e-05,0,0,0.062233,-0.027567,0,-0.00039766,0,0,0,0.033936,-0.00060275,0.0099999,-0.12686,0.014444,0.030645,9.038e-07,0.82,0.46,0
0.039397,0.00012065,0.03393,-0.00063472,0.0099886,-9.1029e-05,0,0,0.062248,-0.027621,0,-0.00047335,0,0,0,0.03393,-0.00063496,0.0099886,-0.15089,0.014428,0.030666,9.0422e-07,0.83,0.46,0
0.040019,0.00013508,0.033925,-0.00066609,0.0099778,-0.00010226,0,0,0.062264,-0.027674,0,-0.00053176,0,0,0,0.033926,-0.00066639,0.0099778,-0.16938,0.014412,0.030687,9.0471e-07,0.84,0.46,0
0.040642,0.00014816,0.033922,-0.00069646,0.0099676,-0.00011037,0,0,0.062281,-0.027727,0,-0.00057393,0,0,0,0.033922,-0.00069682,0.0099676,-0.18267,0.014398,0.030708,9.0524e-07,0.85,0.46,0
0.041265,0.00015998,0.033919,-0.00072563,0.009958,-0.00011557,0,0,0.062298,-0.027777,0,-0.00060098,0,0,0,0.033919,-0.00072601,0.009958,-0.19113,0.014384,0.030729,9.0579e-07,0.86,0.46,0
0.041888,0.00017061,0.033917,-0.00075339,0.0099489,-0.00011808,0,0,0.062316,-0.027826,0,-0.00061401,0,0,0,0.033917,-0.00075379,0.0099489,-0.19514,0.014371,0.030749,9.0635e-07,0.87,0.46,0
0.042511,0.00018014,0.033915,-0.00077959,0.0099405,-0.00011811,0,0,0.062333,-0.027872,0,-0.00061418,0,0,0,0.033915,-0.00077999,0.0099405,-0.19505,0.014358,0.030769,9.069e-07,0.88,0.46,0
0.043135,0.00018865,0.033913,-0.00080409,0.0099327,-0.00011588,0,0,0.062349,-0.027916,0,-0.0006026,0,0,0,0.033913,-0.00080447,0.0099327,-0.19125,0.014347,0.030787,9.0743e-07,0.89,0.46,0
0.043758,0.00019618,0.033912,-0.00082677,0.0099255,-0.00011161,0,0,0.062365,-0.027956,0,-0.00058038,0,0,0,0.033912,-0.00082712,0.0099255,-0.18408,0.014337,0.030804,9.0794e-07,0.9,0.46,0
0.044382,0.00020282,0.033911,-0.00084753,0.009919,-0.00010551,0,0,0.062379,-0.027993,0,-0.00054863,0,0,0,0.033911,-0.00084785,0.009919,-0.17391,0.014327,0.03082,9.084e-07,0.91,0.46,0
0.045006,0.0002086,0.03391,-0.00086629,0.0099132,-9.7767e-05,0,0,0.062392,-0.028026,0,-0.00050839,0,0,0,0.03391,-0.00086656,0.0099132,-0.16107,0.014319,0.030834,9.0883e-07,0.92,0.46,0
0.04563,0.0002136,0.03391,-0.00088297,0.009908,-8.8599e-05,0,0,0.062404,-0.028056,0,-0.00046071,0,0,0,0.03391,-0.0008832,0.009908,-0.1459,0.014311,0.030847,9.0922e-07,0.93,0.46,0
0.046254,0.00021783,0.033909,-0.00089753,0.0099034,-7.8192e-05,0,0,0.062414,-0.028082,0,-0.0004066,0,0,0,0.033909,-0.00089771,0.0099034,-0.12871,0.014305,0.030858,9.0956e-07,0.94,0.46,0
0.046878,0.00022135,0.033909,-0.00090992,0.0098996,-6.6737e-05,0,0,0.062423,-0.028105,0,-0.00034703,0,0,0,0.033909,-0.00091005,0.0098996,-0.10982,0.014299,0.030868,9.0985e-07,0.95,0.46,0
0.047502,0.00022419,0.033908,-0.0009201,0.0098964,-5.4416e-05,0,0,0.06243,-0.028123,0,-0.00028296,0,0,0,0.033908,-0.00092019,0.0098964,-0.089519,0.014295,0.030876,9.1008e-07,0.96,0.46,0
0.048127,0.00022637,0.033908,-0.00092804,0.009894,-4.1408e-05,0,0,0.062436,-0.028137,0,-0.00021532,0,0,0,0.033908,-0.00092809,0.009894,-0.068105,0.014291,0.030882,9.1027e-07,0.97,0.46,0
0.048751,0.00022791,0.033908,-0.00093373,0.0098922,-2.7888e-05,0,0,0.06244,-0.028147,0,-0.00014502,0,0,0,0.033908,-0.00093375,0.0098922,-0.045861,0.014289,0.030886,9.104e-07,0.98,0.46,0
0.049376,0.00022883,0.033908,-0.00093715,0.0098911,-1.4029e-05,0,0,0.062443,-0.028154,0,-7.2949e-05,0,0,0,0.033908,-0.00093715,0.0098911,-0.023068,0.014287,0.030888,9.1048e-07,0.99,0.46,0
0.05,0.00022914,0.033908,-0.00093829,0.0098908,5.8778e-06,0,0,0.062444,-0.028156,0,3.0565e-05,0,0,0,0.033908,-0.00093829,0.0098908,0.0096646,0.014287,0.030889,9.1051e-07,1,0.46,0
0,0,0.033232,0.014242,0.014242,0.00026242,0,0,0.049373,8.1315e-20,0,0.0013646,0,0,0,0.033235,0.014238,0.014242,0.79158,0.020572,0.018995,3.52e-07,0,0.47,0
0.00049373,1.3646e-05,0.033216,0.014002,0.014165,0.00028246,0,0,0.049531,-0.00042506,0,0.0014688,0,0,0,0.03322,0.013998,0.014165,0.84205,0.020461,0.019139,3.5998e-07,0.01,0.47,0
0.00099063,3.5721e-05,0.03329,0.013742,0.01411,0.0003875,0,0,0.049869,-0.00095533,0,0.002015,0,0,0,0.033298,0.013735,0.01411,1.1352,0.020381,0.019378,3.7327e-07,0.02,0.47,0
0.0014911,6.6338e-05,0.033363,0.01344,0.014041,0.00049547,0,0,0.050237,-0.0015622,0,0.0025764,0,0,0,0.033375,0.013428,0.014041,1.4237,0.020281,0.019648,3.8828e-07,0.03,0.47,0
0.0019954,0.0001054,0.033425,0.0131,0.013958,0.00060242,0,0,0.050616,-0.0022292,0,0.0031326,0,0,0,0.033443,0.013083,0.013958,1.6962,0.020161,0.019938,4.044e-07,0.04,0.47,0
0.0025034,0.00015259,0.03347,0.012726,0.013859,0.0007025,0,0,0.05099,-0.0029454,0,0.003653,0,0,0,0.033494,0.012702,0.013859,1.9374,0.020018,0.020238,4.2105e-07,0.05,0.47,0
0.0030151,0.00020725,0.033483,0.012318,0.01374,0.00078737,0,0,0.051331,-0.0036974,0,0.0040943,0,0,0,0.033512,0.012289,0.01374,2.1276,0.019847,0.020536,4.3732e-07,0.06,0.47,0
0.00353,0.00026835,0.033445,0.011888,0.0136,0.00085063,0,0,0.051596,-0.0044501,0,0.0044233,0,0,0,0.033478,0.011855,0.0136,2.2563,0.019644,0.020806,4.5161e-07,0.07,0.47,0
0.0040471,0.00033484,0.033363,0.011461,0.013447,0.00088562,0,0,0.051781,-0.005164,0,0.0046052,0,0,0,0.033399,0.011425,0.013447,2.3118,0.019424,0.021035,4.632e-07,0.08,0.47,0
0.0045657,0.00040426,0.033144,0.010939,0.013225,0.00089729,0,0,0.051789,-0.0059423,0,0.0046659,0,0,0,0.03318,0.010903,0.013225,2.3104,0.019103,0.021211,4.7041e-07,0.09,0.47,0
0.0050829,0.00047489,0.032946,0.010498,0.013033,0.00076488,0,0,0.051773,-0.0065911,0,0.0039774,0,0,0,0.032972,0.010472,0.013033,1.9493,0.018826,0.021335,4.7462e-07,0.1,0.47,0
0.0056011,0.00053533,0.03213,0.009647,0.012533,0.00064223,0,0,0.050951,-0.0075036,0,0.0033396,0,0,0,0.032148,0.0096287,0.012533,1.6349,0.018103,0.021217,4.5968e-07,0.11,0.47,0
0.0061019,0.00058959,0.032303,0.0098452,0.012645,-0.00010701,0,0,0.051113,-0.0072784,0,-0.00055646,0,0,0,0.032304,0.0098447,0.012645,-0.273,0.018264,0.021198,4.606e-07,0.12,0.47,0
0.0066234,0.00059986,0.03625,0.012053,0.014491,0.00058465,0,0,0.039778,-0.0044472,0,0.0015297,0,0,0,0.036273,0.01203,0.014491,1.1661,0.020931,0.023112,6.7512e-07,0.13,0.47,0
0.0069593,0.00054385,0.029337,0.0095097,0.011654,0.0025243,0,0,0.031386,-0.0036112,0,0.0088354,0,0,0,0.029653,0.0091932,0.011654,7.0935,0.016834,0.019349,4.317e-07,0.14,0.47,0
0.007229,0.00047616,0.034006,0.0094179,0.013027,0.0026551,0,0,0.027273,-0.0046922,0,0.0069032,0,0,0,0.03429,0.0091345,0.013027,6.0932,0.018817,0.023453,6.0144e-07,0.15,0.47,0
0.0075048,0.00042638,0.03443,0.0090819,0.013054,0.0025951,0,0,0.027789,-0.0051632,0,0.0067473,0,0,0,0.034693,0.0088189,0.013054,5.7859,0.018855,0.024038,6.394e-07,0.16,0.47,0
0.0077848,0.00038286,0.034723,0.0086721,0.013018,0.0024064,0,0,0.028215,-0.0056502,0,0.0062566,0,0,0,0.034943,0.0084516,0.013018,5.2337,0.018804,0.024529,6.7028e-07,0.17,0.47,0
0.0080691,0.00034088,0.034969,0.0082338,0.012961,0.0022029,0,0,0.028611,-0.0061452,0,0.0057276,0,0,0,0.035149,0.0080535,0.012961,4.679,0.018721,0.025006,6.9996e-07,0.18,0.47,0
0.008357,0.00029889,0.035163,0.0077742,0.012881,0.0020171,0,0,0.028966,-0.0066389,0,0.0052444,0,0,0,0.03531,0.0076264,0.012881,4.1895,0.018606,0.025467,7.2802e-07,0.19,0.47,0
0.0086484,0.00025606,0.035313,0.007305,0.012785,0.0018456,0,0,0.029286,-0.0071246,0,0.0047986,0,0,0,0.035434,0.0071839,0.012785,3.7539,0.018468,0.025908,7.543e-07,0.2,0.47,0
0.0089428,0.00021193,0.035429,0.0068308,0.012678,0.0016846,0,0,0.029576,-0.0076013,0,0.0043799,0,0,0,0.035528,0.0067319,0.012678,3.3595,0.018313,0.026332,7.789e-07,0.21,0.47,0
0.0092399,0.00016617,0.035519,0.006353,0.012561,0.0015306,0,0,0.029844,-0.008071,0,0.0039794,0,0,0,0.035599,0.0062729,0.012561,2.9958,0.018144,0.026742,8.0209e-07,0.22,0.47,0
0.0095396,0.00011859,0.035588,0.0058719,0.012438,0.0013816,0,0,0.030095,-0.0085359,0,0.0035922,0,0,0,0.035652,0.0058078,0.012438,2.6563,0.017966,0.027144,8.242e-07,0.23,0.47,0
0.0098418,6.9045e-05,0.035643,0.0053875,0.012309,0.0012368,0,0,0.030334,-0.008998,0,0.0032157,0,0,0,0.035693,0.005337,0.012309,2.337,0.01778,0.02754,8.4547e-07,0.24,0.47,0
0.010146,1.7446e-05,0.035686,0.0048998,0.012176,0.0010956,0,0,0.030564,-0.0094589,0,0.0028486,0,0,0,0.035725,0.0048609,0.012176,2.0356,0.017587,0.027935,8.6611e-07,0.25,0.47,0
0.010453,-3.6245e-05,0.035722,0.004409,0.012039,0.00095802,0,0,0.030788,-0.0099194,0,0.0024909,0,0,0,0.035751,0.0043797,0.012039,1.7508,0.01739,0.028329,8.8628e-07,0.26,0.47,0
0.010762,-9.2027e-05,0.035752,0.0039155,0.0119,0.0008242,0,0,0.031007,-0.01038,0,0.0021429,0,0,0,0.035773,0.0038942,0.0119,1.482,0.017189,0.028725,9.0607e-07,0.27,0.47,0
0.011073,-0.00014986,0.035777,0.0034202,0.011759,0.00069437,0,0,0.031224,-0.010841,0,0.0018054,0,0,0,0.035792,0.0034053,0.011759,1.2288,0.016986,0.029123,9.2552e-07,0.28,0.47,0
0.011387,-0.00020968,0.0358,0.0029243,0.011617,0.00056883,0,0,0.031437,-0.011301,0,0.0014789,0,0,0,0.03581,0.0029145,0.011617,0.99096,0.016781,0.029522,9.4461e-07,0.29,0.47,0
0.011702,-0.00027137,0.035819,0.0024297,0.011475,0.00044782,0,0,0.031648,-0.011759,0,0.0011643,0,0,0,0.035826,0.0024237,0.011475,0.76825,0.016575,0.029921,9.6329e-07,0.3,0.47,0
0.01202,-0.00033482,0.035837,0.0019385,0.011333,0.0003316,0,0,0.031856,-0.012212,0,0.00086217,0,0,0,0.03584,0.0019353,0.011333,0.56041,0.016369,0.030319,9.8148e-07,0.31,0.47,0
0.012339,-0.00039985,0.035852,0.0014532,0.011192,0.00022049,0,0,0.032059,-0.01266,0,0.00057328,0,0,0,0.035853,0.0014518,0.011192,0.36724,0.016166,0.030713,9.9906e-07,0.32,0.47,0
0.012661,-0.00046629,0.035865,0.00097673,0.011052,0.00011495,0,0,0.032256,-0.013098,0,0.00029887,0,0,0,0.035865,0.00097635,0.011052,0.18878,0.015964,0.0311,1.0159e-06,0.33,0.47,0
0.012984,-0.00053392,0.035874,0.00051214,0.010916,1.5736e-05,0,0,0.032446,-0.013525,0,4.0914e-05,0,0,0,0.035874,0.00051213,0.010916,0.025497,0.015767,0.031477,1.0318e-06,0.34,0.47,0
0.01331,-0.00060247,0.03588,6.2698e-05,0.010783,-7.5924e-05,0,0,0.032626,-0.013936,0,-0.0001974,0,0,0,0.03588,6.2537e-05,0.010783,-0.12145,0.015575,0.031841,1.0466e-06,0.35,0.47,0
0.013637,-0.00067164,0.035881,-0.00036827,0.010654,-0.00015818,0,0,0.032795,-0.014329,0,-0.00041126,0,0,0,0.035882,-0.00036896,0.010654,-0.25001,0.015389,0.032187,1.0602e-06,0.36,0.47,0
0.013966,-0.00074109,0.035877,-0.00077748,0.01053,-0.00022846,0,0,0.032951,-0.0147,0,-0.00059398,0,0,0,0.035879,-0.00077891,0.01053,-0.35709,0.01521,0.032513,1.0723e-06,0.37,0.47,0
0.014296,-0.00081037,0.035867,-0.0011618,0.010412,-0.00028349,0,0,0.033092,-0.015045,0,-0.00073707,0,0,0,0.035869,-0.0011639,0.010412,-0.43861,0.015039,0.032814,1.0829e-06,0.38,0.47,0
0.014627,-0.000879,0.035849,-0.0015183,0.010299,-0.00031949,0,0,0.033215,-0.015363,0,-0.00083068,0,0,0,0.035852,-0.001521,0.010299,-0.48983,0.014877,0.033086,1.0916e-06,0.39,0.47,0
0.01496,-0.0009464,0.035822,-0.0018447,0.010193,-0.00033256,0,0,0.033318,-0.015649,0,-0.00086466,0,0,0,0.035825,-0.0018476,0.010193,-0.50581,0.014724,0.033326,1.0984e-06,0.4,0.47,0
0.015294,-0.0010119,0.035784,-0.0021394,0.010094,-0.00031923,0,0,0.033398,-0.015903,0,-0.00083,0,0,0,0.035787,-0.002142,0.010094,-0.48225,0.01458,0.03353,1.103e-06,0.41,0.47,0
0.015628,-0.0010749,0.035733,-0.0024022,0.0099992,-0.00027719,0,0,0.033454,-0.016122,0,-0.0007207,0,0,0,0.035735,-0.0024042,0.0099992,-0.41644,0.014443,0.033695,1.1053e-06,0.42,0.47,0
0.015963,-0.0011346,0.035664,-0.0026347,0.0099086,-0.00020598,0,0,0.033481,-0.016306,0,-0.00053554,0,0,0,0.035665,-0.0026358,0.0099086,-0.30814,0.014312,0.033821,1.105e-06,0.43,0.47,0
0.016298,-0.0011903,0.035573,-0.002841,0.0098195,-0.00010652,0,0,0.033479,-0.016459,0,-0.00027696,0,0,0,0.035573,-0.0028413,0.0098195,-0.15888,0.014184,0.033906,1.1019e-06,0.44,0.47,0
0.016632,-0.0012413,0.035466,-0.0030309,0.0097305,2.1065e-05,0,0,0.033456,-0.01659,0,5.4768e-05,0,0,0,0.035466,-0.0030309,0.0097305,0.031351,0.014055,0.033964,1.0969e-06,0.45,0.47,0
0.016967,-0.0012867,0.035363,-0.0032419,0.0096363,0.00018176,0,0,0.033445,-0.016742,0,0.00047258,0,0,0,0.035364,-0.0032427,0.0096363,0.26975,0.013919,0.034046,1.0929e-06,0.46,0.47,0
0.017301,-0.0013259,0.035303,-0.0035622,0.0095222,0.0003783,0,0,0.033515,-0.01701,0,0.00098359,0,0,0,0.035307,-0.0035658,0.0095222,0.55763,0.013754,0.034258,1.0954e-06,0.47,0.47,0
0.017637,-0.0013579,0.035321,-0.0041303,0.0093571,0.00060253,0,0,0.033753,-0.017534,0,0.0015666,0,0,0,0.03533,-0.0041395,0.0093571,0.87479,0.013516,0.034746,1.1105e-06,0.48,0.47,0
0.017976,-0.0013826,0.035376,-7.6887e-06,0.010611,0.00080966,0,0,0.047428,-0.018405,0,0.003316,0,0,0,0.035396,-2.7767e-05,0.010611,1.3627,0.015326,0.031549,9.8159e-07,0.49,0.47,0
0.018586,-0.0013768,0.035567,0.0042027,0.011931,0.00095153,0,0,0.061454,-0.020094,0,0.004948,0,0,0,0.035596,0.0041739,0.011931,1.7361,0.017234,0.028351,8.817e-07,0.5,0.47,0
0.019205,-0.0013613,0.035735,0.0032985,0.01171,0.0010331,0,0,0.062465,-0.02187,0,0.005372,0,0,0,0.035768,0.0032657,0.01171,1.8224,0.016914,0.02921,9.2858e-07,0.51,0.47,0
0.019835,-0.0013382,0.035861,0.0024767,0.011501,0.0010773,0,0,0.063336,-0.023464,0,0.0056017,0,0,0,0.035896,0.002442,0.011501,1.8463,0.016613,0.029969,9.6851e-07,0.52,0.47,0
0.020472,-0.0013089,0.035918,0.0017976,0.011315,0.0011013,0,0,0.063969,-0.024745,0,0.0057269,0,0,0,0.035954,0.0017621,0.011315,1.8468,0.016344,0.030557,9.9704e-07,0.53,0.47,0
0.021114,-0.0012745,0.035904,0.0012661,0.011151,0.0011174,0,0,0.064357,-0.025701,0,0.0058105,0,0,0,0.03594,0.0012301,0.011151,1.8458,0.016107,0.030965,1.0139e-06,0.54,0.47,0
0.021759,-0.0012357,0.035831,0.00086096,0.011007,0.0011284,0,0,0.06454,-0.026381,0,0.0058676,0,0,0,0.035867,0.00082459,0.011007,1.8462,0.0159,0.031222,1.021e-06,0.55,0.47,0
0.022405,-0.0011929,0.035718,0.00055774,0.010883,0.0011331,0,0,0.064572,-0.026845,0,0.0058921,0,0,0,0.035754,0.00052126,0.010883,1.8439,0.01572,0.031364,1.0212e-06,0.56,0.47,0
0.023051,-0.0011468,0.035582,0.00033459,0.010775,0.0011296,0,0,0.064499,-0.027145,0,0.0058741,0,0,0,0.035618,0.00029842,0.010775,1.8337,0.015564,0.03142,1.0165e-06,0.57,0.47,0
0.023695,-0.0010981,0.035435,0.00017329,0.010683,0.0011167,0,0,0.064357,-0.027324,0,0.005807,0,0,0,0.035471,0.00013796,0.010683,1.8121,0.01543,0.031417,1.0089e-06,0.58,0.47,0
0.024338,-0.0010472,0.035286,5.9083e-05,0.010604,0.0010939,0,0,0.064174,-0.027415,0,0.0056884,0,0,0,0.03532,2.5145e-05,0.010604,1.777,0.015316,0.031373,9.9948e-07,0.59,0.47,0
0.024979,-0.00099494,0.035139,-1.9867e-05,0.010536,0.0010614,0,0,0.063969,-0.027445,0,0.0055193,0,0,0,0.035172,-5.1879e-05,0.010536,1.7276,0.015218,0.031302,9.8925e-07,0.6,0.47,0
0.025617,-0.00094184,0.035,-7.2983e-05,0.010478,0.0010198,0,0,0.063756,-0.027432,0,0.0053032,0,0,0,0.035029,-0.00010261,0.010478,1.6642,0.015135,0.031217,9.7881e-07,0.61,0.47,0
0.026254,-0.00088846,0.034869,-0.00010774,0.010428,0.00097028,0,0,0.063545,-0.027394,0,0.0050455,0,0,0,0.034896,-0.00013463,0.010428,1.5878,0.015063,0.031123,9.6859e-07,0.62,0.47,0
0.026888,-0.00083533,0.034748,-0.00013002,0.010385,0.00091395,0,0,0.063342,-0.02734,0,0.0047525,0,0,0,0.034772,-0.00015395,0.010385,1.5,0.015001,0.031029,9.589e-07,0.63,0.47,0
0.02752,-0.00078291,0.034638,-0.00014443,0.010348,0.00085218,0,0,0.063153,-0.02728,0,0.0044314,0,0,0,0.034659,-0.00016529,0.010348,1.4027,0.014947,0.030937,9.4992e-07,0.64,0.47,0
0.028151,-0.00073158,0.034539,-0.00015449,0.010315,0.00078637,0,0,0.062981,-0.027221,0,0.0040891,0,0,0,0.034556,-0.0001723,0.010315,1.2978,0.0149,0.030852,9.4177e-07,0.65,0.47,0
0.02878,-0.0006817,0.034451,-0.00016287,0.010286,0.00071787,0,0,0.062827,-0.027168,0,0.003733,0,0,0,0.034465,-0.00017775,0.010286,1.1876,0.014858,0.030776,9.345e-07,0.66,0.47,0
0.029408,-0.00063353,0.034373,-0.00017151,0.01026,0.00064797,0,0,0.062692,-0.027123,0,0.0033694,0,0,0,0.034385,-0.00018366,0.01026,1.0742,0.014821,0.030709,9.2815e-07,0.67,0.47,0
0.030034,-0.0005873,0.034305,-0.00018179,0.010237,0.00057785,0,0,0.062576,-0.027089,0,0.0030048,0,0,0,0.034314,-0.00019147,0.010237,0.95968,0.014787,0.030652,9.2268e-07,0.68,0.47,0
0.030659,-0.00054318,0.034246,-0.0001946,0.010215,0.00050856,0,0,0.062479,-0.027066,0,0.0026445,0,0,0,0.034253,-0.00020211,0.010215,0.84581,0.014755,0.030606,9.1807e-07,0.69,0.47,0
0.031284,-0.00050128,0.034195,-0.00021045,0.010195,0.00044104,0,0,0.062399,-0.027055,0,0.0022934,0,0,0,0.034201,-0.00021611,0.010195,0.73431,0.014727,0.030571,9.1427e-07,0.7,0.47,0
0.031907,-0.00046167,0.034152,-0.00022958,0.010177,0.00037606,0,0,0.062336,-0.027057,0,0.0019555,0,0,0,0.034156,-0.00023369,0.010177,0.62659,0.0147,0.030546,9.112e-07,0.71,0.47,0
0.03253,-0.00042441,0.034116,-0.00025198,0.010159,0.00031425,0,0,0.062288,-0.027069,0,0.0016341,0,0,0,0.034119,-0.00025485,0.010159,0.52384,0.014674,0.030529,9.0881e-07,0.72,0.47,0
0.033153,-0.00038948,0.034086,-0.00027749,0.010143,0.00025612,0,0,0.062253,-0.027092,0,0.0013318,0,0,0,0.034088,-0.0002794,0.010143,0.42701,0.01465,0.030521,9.0701e-07,0.73,0.47,0
0.033775,-0.00035686,0.034061,-0.00030583,0.010127,0.00020203,0,0,0.062229,-0.027124,0,0.0010506,0,0,0,0.034062,-0.00030701,0.010127,0.33681,0.014627,0.03052,9.0573e-07,0.74,0.47,0
0.034398,-0.00032652,0.034041,-0.00033663,0.010111,0.00015226,0,0,0.062216,-0.027164,0,0.00079173,0,0,0,0.034041,-0.0003373,0.010111,0.25376,0.014605,0.030526,9.0491e-07,0.75,0.47,0
0.03502,-0.00029838,0.034024,-0.00036948,0.010096,0.00010694,0,0,0.062212,-0.027211,0,0.00055609,0,0,0,0.034024,-0.00036981,0.010096,0.17815,0.014584,0.030537,9.0447e-07,0.76,0.47,0
0.035642,-0.00027237,0.034011,-0.00040396,0.010082,6.6152e-05,0,0,0.062215,-0.027264,0,0.00034399,0,0,0,0.034011,-0.00040408,0.010082,0.11013,0.014563,0.030553,9.0436e-07,0.77,0.47,0
0.036264,-0.0002484,0.034001,-0.00043962,0.010068,2.9887e-05,0,0,0.062224,-0.027321,0,0.00015541,0,0,0,0.034001,-0.00043964,0.010068,0.049721,0.014543,0.030572,9.045e-07,0.78,0.47,0
0.036886,-0.00022637,0.033993,-0.00047603,0.010055,-1.9277e-06,0,0,0.062238,-0.027381,0,-1.0024e-05,0,0,0,0.033993,-0.00047603,0.010055,-0.0032044,0.014524,0.030594,9.0486e-07,0.79,0.47,0
0.037509,-0.00020618,0.033986,-0.0005128,0.010042,-2.9412e-05,0,0,0.062255,-0.027443,0,-0.00015294,0,0,0,0.033987,-0.00051283,0.010042,-0.048847,0.014505,0.030618,9.0538e-07,0.8,0.47,0
0.038131,-0.00018773,0.033982,-0.00054954,0.01003,-5.2728e-05,0,0,0.062276,-0.027506,0,-0.00027418,0,0,0,0.033982,-0.00054962,0.01003,-0.087488,0.014487,0.030644,9.0603e-07,0.81,0.47,0
0.038754,-0.00017091,0.033979,-0.0005859,0.010018,-7.2066e-05,0,0,0.062298,-0.02757,0,-0.00037474,0,0,0,0.033979,-0.00058605,0.010018,-0.11946,0.01447,0.03067,9.0676e-07,0.82,0.47,0
0.039377,-0.00015563,0.033976,-0.00062156,0.010006,-8.764e-05,0,0,0.062322,-0.027633,0,-0.00045573,0,0,0,0.033976,-0.00062178,0.010006,-0.14514,0.014454,0.030697,9.0754e-07,0.83,0.47,0
0.040001,-0.00014177,0.033975,-0.00065625,0.0099955,-9.968e-05,0,0,0.062346,-0.027695,0,-0.00051834,0,0,0,0.033975,-0.00065654,0.0099955,-0.16492,0.014438,0.030723,9.0836e-07,0.84,0.47,0
0.040624,-0.00012925,0.033974,-0.00068971,0.0099852,-0.00010842,0,0,0.06237,-0.027755,0,-0.0005638,0,0,0,0.033974,-0.00069005,0.0099852,-0.17921,0.014423,0.030749,9.0919e-07,0.85,0.47,0
0.041248,-0.00011798,0.033973,-0.00072173,0.0099754,-0.00011411,0,0,0.062394,-0.027813,0,-0.00059339,0,0,0,0.033973,-0.00072211,0.0099754,-0.18845,0.014409,0.030774,9.1001e-07,0.86,0.47,0
0.041872,-0.00010786,0.033973,-0.00075212,0.0099662,-0.00011699,0,0,0.062417,-0.027868,0,-0.00060836,0,0,0,0.033973,-0.00075251,0.0099662,-0.19304,0.014396,0.030798,9.108e-07,0.87,0.47,0
0.042496,-9.8821e-05,0.033973,-0.00078072,0.0099576,-0.00011731,0,0,0.062439,-0.02792,0,-0.00060998,0,0,0,0.033973,-0.00078112,0.0099576,-0.19339,0.014383,0.030821,9.1156e-07,0.88,0.47,0
0.043121,-9.078e-05,0.033973,-0.00080739,0.0099496,-0.00011529,0,0,0.06246,-0.027968,0,-0.00059948,0,0,0,0.033973,-0.00080778,0.0099496,-0.18991,0.014372,0.030843,9.1228e-07,0.89,0.47,0
0.043746,-8.3668e-05,0.033973,-0.00083203,0.0099423,-0.00011116,0,0,0.06248,-0.028013,0,-0.00057805,0,0,0,0.033973,-0.00083239,0.0099423,-0.183,0.014361,0.030863,9.1295e-07,0.9,0.47,0
0.044371,-7.7424e-05,0.033973,-0.00085453,0.0099356,-0.00010517,0,0,0.062498,-0.028054,0,-0.00054687,0,0,0,0.033973,-0.00085485,0.0099356,-0.17301,0.014351,0.030881,9.1356e-07,0.91,0.47,0
0.044996,-7.1989e-05,0.033973,-0.00087483,0.0099295,-9.7508e-05,0,0,0.062514,-0.028091,0,-0.00050704,0,0,0,0.033974,-0.0008751,0.0099295,-0.16032,0.014343,0.030897,9.1411e-07,0.92,0.47,0
0.045621,-6.7312e-05,0.033973,-0.00089285,0.0099242,-8.8397e-05,0,0,0.062528,-0.028124,0,-0.00045966,0,0,0,0.033974,-0.00089308,0.0099242,-0.14526,0.014335,0.030912,9.1459e-07,0.93,0.47,0
0.046246,-6.3349e-05,0.033974,-0.00090855,0.0099195,-7.8034e-05,0,0,0.062541,-0.028153,0,-0.00040578,0,0,0,0.033974,-0.00090873,0.0099195,-0.12817,0.014328,0.030925,9.1502e-07,0.94,0.47,0
0.046872,-6.0061e-05,0.033974,-0.0009219,0.0099156,-6.6613e-05,0,0,0.062551,-0.028177,0,-0.00034639,0,0,0,0.033974,-0.00092202,0.0099156,-0.10937,0.014323,0.030935,9.1538e-07,0.95,0.47,0
0.047497,-5.7415e-05,0.033974,-0.00093285,0.0099123,-5.432e-05,0,0,0.06256,-0.028197,0,-0.00028246,0,0,0,0.033974,-0.00093293,0.0099123,-0.089161,0.014318,0.030944,9.1568e-07,0.96,0.47,0
0.048123,-5.5384e-05,0.033974,-0.00094139,0.0099098,-4.1338e-05,0,0,0.062567,-0.028213,0,-0.00021495,0,0,0,0.033974,-0.00094144,0.0099098,-0.067834,0.014314,0.030951,9.1591e-07,0.97,0.47,0
0.048749,-5.3949e-05,0.033974,-0.0009475,0.009908,-2.7842e-05,0,0,0.062572,-0.028224,0,-0.00014478,0,0,0,0.033974,-0.00094752,0.009908,-0.04568,0.014311,0.030956,9.1607e-07,0.98,0.47,0
0.049374,-5.3093e-05,0.033974,-0.00095117,0.0099069,-1.4005e-05,0,0,0.062575,-0.028231,0,-7.2829e-05,0,0,0,0.033974,-0.00095118,0.0099069,-0.022976,0.01431,0.030959,9.1617e-07,0.99,0.47,0
0.05,-5.2809e-05,0.033974,-0.0009524,0.0099065,5.4656e-06,0,0,0.062576,-0.028233,0,2.8421e-05,0,0,0,0.033974,-0.0009524,0.0099065,0.0089662,0.014309,0.03096,9.162e-07,1,0.47,0
0,0,0.033041,0.014161,0.014161,0.00017862,0,0,0.04909,0,0,0.00092881,0,0,0,0.033043,0.014159,0.014161,0.54197,0.020454,0.018883,3.4583e-07,0,0.48,0
0.0004909,9.2881e-06,0.033024,0.013902,0.014078,0.00020117,0,0,0.049261,-0.00045818,0,0.0010461,0,0,0,0.033026,0.013899,0.014078,0.60266,0.020334,0.019038,3.5431e-07,0.01,0.48,0
0.00098522,2.5997e-05,0.033108,0.013634,0.014023,0.00030457,0,0,0.049621,-0.0010099,0,0.0015838,0,0,0,0.033113,0.013629,0.014023,0.89582,0.020255,0.01929,3.6811e-07,0.02,0.48,0
0.0014833,5.0504e-05,0.033191,0.013328,0.013956,0.00041778,0,0,0.050012,-0.0016323,0,0.0021724,0,0,0,0.0332,0.013319,0.013956,1.2044,0.020158,0.01957,3.8358e-07,0.03,0.48,0
0.0019855,8.2888e-05,0.033267,0.012988,0.013877,0.00053583,0,0,0.050415,-0.0023094,0,0.0027863,0,0,0,0.033281,0.012974,0.013877,1.5125,0.020044,0.019871,4.0019e-07,0.04,0.48,0
0.0024916,0.00012296,0.033329,0.01262,0.013785,0.0006544,0,0,0.050814,-0.0030277,0,0.0034029,0,0,0,0.033349,0.012599,0.013785,1.8082,0.019911,0.020183,4.1738e-07,0.05,0.48,0
0.0030017,0.00017027,0.033366,0.012228,0.013678,0.00076985,0,0,0.051189,-0.0037703,0,0.0040032,0,0,0,0.033394,0.0122,0.013678,2.083,0.019758,0.020495,4.344e-07,0.06,0.48,0
0.0035154,0.00022407,0.033373,0.011821,0.013558,0.00087909,0,0,0.051519,-0.0045163,0,0.0045713,0,0,0,0.033409,0.011786,0.013558,2.3319,0.019584,0.020794,4.5048e-07,0.07,0.48,0
0.0040321,0.00028316,0.033329,0.011392,0.013416,0.00098075,0,0,0.051772,-0.005262,0,0.0050999,0,0,0,0.033372,0.011349,0.013416,2.5549,0.019379,0.021066,4.6459e-07,0.08,0.48,0
0.0045509,0.00034592,0.033239,0.010964,0.013261,0.0010528,0,0,0.051942,-0.0059711,0,0.0054745,0,0,0,0.033288,0.010915,0.013261,2.7001,0.019155,0.021298,4.7592e-07,0.09,0.48,0
0.005071,0.00040853,0.032991,0.010472,0.013039,0.0010978,0,0,0.051876,-0.006675,0,0.0057087,0,0,0,0.033045,0.010418,0.013039,2.7843,0.018834,0.021437,4.8054e-07,0.1,0.48,0
0.0055884,0.0004677,0.032745,0.010169,0.012874,0.0010097,0,0,0.051664,-0.007033,0,0.0052506,0,0,0,0.03279,0.010124,0.012874,2.5559,0.018596,0.021424,4.7707e-07,0.11,0.48,0
0.0061042,0.00051169,0.03184,0.0095378,0.012413,0.00097862,0,0,0.05051,-0.0074767,0,0.0050888,0,0,0,0.031883,0.0094949,0.012413,2.5077,0.01793,0.021081,4.5024e-07,0.12,0.48,0
0.0065986,0.00054209,0.031752,0.0098602,0.012484,0.00032937,0,0,0.050098,-0.0068214,0,0.0017127,0,0,0,0.031757,0.0098552,0.012484,0.86175,0.018032,0.020713,4.3175e-07,0.13,0.48,0
0.0071062,0.0005109,0.03173,0.0096854,0.012424,0.0013693,0,0,0.037787,-0.0047477,0,0.0055319,0,0,0,0.031816,0.009599,0.012424,3.5552,0.017946,0.020961,4.4137e-07,0.14,0.48,0
0.0073543,0.00043262,0.031905,0.0089683,0.012262,0.0016833,0,0,0.025536,-0.0042819,0,0.0043767,0,0,0,0.032028,0.0088455,0.012262,4.1751,0.017712,0.021677,4.7965e-07,0.15,0.48,0
0.0076169,0.00037805,0.033263,0.0090472,0.012693,0.0020438,0,0,0.026741,-0.0047396,0,0.0053139,0,0,0,0.033434,0.0088759,0.012693,4.7906,0.018334,0.02289,5.5864e-07,0.16,0.48,0
0.0078891,0.0003287,0.034042,0.0087705,0.012844,0.0020123,0,0,0.027558,-0.0052952,0,0.0052318,0,0,0,0.034201,0.0086113,0.012844,4.5242,0.018552,0.023758,6.1571e-07,0.17,0.48,0
0.0081681,0.00028126,0.034522,0.0083589,0.012864,0.001921,0,0,0.028155,-0.0058569,0,0.0049946,0,0,0,0.034662,0.0082186,0.012864,4.177,0.018582,0.024454,6.6061e-07,0.18,0.48,0
0.0084522,0.00023399,0.034848,0.0079057,0.012826,0.0018101,0,0,0.028628,-0.0063964,0,0.0047062,0,0,0,0.034969,0.0077846,0.012826,3.8265,0.018526,0.025047,6.9808e-07,0.19,0.48,0
0.0087406,0.00018608,0.035078,0.0074398,0.012755,0.0016922,0,0,0.02902,-0.0069102,0,0.0043998,0,0,0,0.035181,0.0073366,0.012755,3.4907,0.018424,0.02557,7.3032e-07,0.2,0.48,0
0.0090326,0.00013703,0.035244,0.006967,0.012663,0.0015693,0,0,0.029355,-0.0074054,0,0.0040802,0,0,0,0.035331,0.0068801,0.012663,3.1667,0.018292,0.026046,7.5881e-07,0.21,0.48,0
0.0093277,8.6478e-05,0.035367,0.0064894,0.012557,0.0014428,0,0,0.029653,-0.0078879,0,0.0037512,0,0,0,0.035439,0.0064175,0.012557,2.8531,0.018138,0.026491,7.8467e-07,0.22,0.48,0
0.0096257,3.4177e-05,0.03546,0.0060079,0.01244,0.001314,0,0,0.029925,-0.0083621,0,0.0034164,0,0,0,0.035518,0.0059494,0.01244,2.5495,0.017969,0.026917,8.0865e-07,0.23,0.48,0
0.0099262,-2.0045e-05,0.03553,0.0055226,0.012316,0.001184,0,0,0.030179,-0.0088313,0,0.0030784,0,0,0,0.035577,0.0054759,0.012316,2.256,0.01779,0.027331,8.3127e-07,0.24,0.48,0
0.010229,-7.6295e-05,0.035585,0.0050333,0.012185,0.0010538,0,0,0.030419,-0.0092977,0,0.0027398,0,0,0,0.035621,0.004997,0.012185,1.9731,0.017601,0.027737,8.5287e-07,0.25,0.48,0
0.010535,-0.00013463,0.035627,0.0045403,0.01205,0.00092433,0,0,0.03065,-0.0097629,0,0.0024033,0,0,0,0.035655,0.0045128,0.01205,1.7016,0.017406,0.028141,8.737e-07,0.26,0.48,0
0.010842,-0.00019504,0.035661,0.0040439,0.011911,0.00079662,0,0,0.030874,-0.010228,0,0.0020712,0,0,0,0.035681,0.0040238,0.011911,1.4424,0.017205,0.028542,8.9391e-07,0.27,0.48,0
0.011152,-0.00025751,0.035687,0.003545,0.01177,0.00067153,0,0,0.031092,-0.010692,0,0.001746,0,0,0,0.035701,0.003531,0.01177,1.1964,0.017001,0.028944,9.1356e-07,0.28,0.48,0
0.011464,-0.00032194,0.035707,0.0030451,0.011626,0.00054985,0,0,0.031306,-0.011155,0,0.0014296,0,0,0,0.035717,0.0030359,0.011626,0.96418,0.016793,0.029344,9.3267e-07,0.29,0.48,0
0.011778,-0.00038823,0.035723,0.002546,0.011481,0.00043227,0,0,0.031515,-0.011615,0,0.0011239,0,0,0,0.035729,0.0025403,0.011481,0.74635,0.016583,0.029743,9.5117e-07,0.3,0.48,0
0.012094,-0.00045622,0.035734,0.0020499,0.011335,0.00031936,0,0,0.031718,-0.012071,0,0.00083034,0,0,0,0.035737,0.0020468,0.011335,0.54317,0.016373,0.030139,9.6899e-07,0.31,0.48,0
0.012413,-0.00052574,0.03574,0.0015593,0.01119,0.00021167,0,0,0.031915,-0.01252,0,0.00055035,0,0,0,0.035741,0.001558,0.01119,0.3548,0.016163,0.030529,9.86e-07,0.32,0.48,0
0.012733,-0.00059657,0.035742,0.0010769,0.011046,0.00010981,0,0,0.032105,-0.012959,0,0.00028552,0,0,0,0.035742,0.0010765,0.011046,0.1815,0.015955,0.030911,1.0021e-06,0.33,0.48,0
0.013055,-0.00066847,0.035739,0.00060553,0.010903,1.4636e-05,0,0,0.032286,-0.013387,0,3.8052e-05,0,0,0,0.035739,0.00060553,0.010903,0.023868,0.015749,0.031282,1.0171e-06,0.34,0.48,0
0.013378,-0.00074115,0.035731,0.00014787,0.010764,-7.2593e-05,0,0,0.032457,-0.0138,0,-0.00018874,0,0,0,0.035731,0.00014772,0.010764,-0.11689,0.015547,0.03164,1.031e-06,0.35,0.48,0
0.013704,-0.00081427,0.035718,-0.00029348,0.010627,-0.00014998,0,0,0.032618,-0.014197,0,-0.00038996,0,0,0,0.035719,-0.00029411,0.010627,-0.23863,0.015351,0.031982,1.0436e-06,0.36,0.48,0
0.014031,-0.00088745,0.0357,-0.00071606,0.010495,-0.00021489,0,0,0.032766,-0.014575,0,-0.00055872,0,0,0,0.035701,-0.00071732,0.010495,-0.33809,0.01516,0.032306,1.0548e-06,0.37,0.48,0
0.014359,-0.00096025,0.035677,-0.0011175,0.010368,-0.0002639,0,0,0.032902,-0.014931,0,-0.00068614,0,0,0,0.035679,-0.0011194,0.010368,-0.41091,0.014976,0.032609,1.0646e-06,0.38,0.48,0
0.014689,-0.0010321,0.035648,-0.0014953,0.010246,-0.00029295,0,0,0.033023,-0.015263,0,-0.00076166,0,0,0,0.03565,-0.0014976,0.010246,-0.45185,0.014799,0.032888,1.0729e-06,0.39,0.48,0
0.01502,-0.0011025,0.035612,-0.0018473,0.010129,-0.0002977,0,0,0.033127,-0.01557,0,-0.00077401,0,0,0,0.035614,-0.0018497,0.010129,-0.45531,0.014631,0.03314,1.0795e-06,0.4,0.48,0
0.015351,-0.0011707,0.035567,-0.0021713,0.010019,-0.00027405,0,0,0.033213,-0.015847,0,-0.00071254,0,0,0,0.035569,-0.0021733,0.010019,-0.41605,0.014471,0.033361,1.0842e-06,0.41,0.48,0
0.015684,-0.0012359,0.035511,-0.0024657,0.0099136,-0.00021873,0,0,0.033277,-0.016093,0,-0.00056869,0,0,0,0.035512,-0.002467,0.0099136,-0.32998,0.01432,0.033549,1.0868e-06,0.42,0.48,0
0.016017,-0.0012976,0.035439,-0.0027302,0.0098128,-0.00012981,0,0,0.033315,-0.016306,0,-0.0003375,0,0,0,0.03544,-0.0027306,0.0098128,-0.19485,0.014174,0.033698,1.0871e-06,0.43,0.48,0
0.01635,-0.0013549,0.035348,-0.0029664,0.0097145,-8.178e-06,0,0,0.033324,-0.016485,0,-2.1263e-05,0,0,0,0.035348,-0.0029664,0.0097145,-0.012229,0.014032,0.033807,1.0847e-06,0.44,0.48,0
0.016683,-0.0014073,0.035241,-0.0031817,0.0096177,0.00013944,0,0,0.03331,-0.016639,0,0.00036254,0,0,0,0.035241,-0.0031822,0.0096177,0.20793,0.013892,0.033888,1.0804e-06,0.45,0.48,0
0.017016,-0.0014544,0.035137,-0.0034102,0.009518,0.00029522,0,0,0.033305,-0.016807,0,0.00076758,0,0,0,0.035139,-0.0034125,0.009518,0.43878,0.013748,0.033984,1.0767e-06,0.46,0.48,0
0.01735,-0.0014965,0.035074,-0.003736,0.0094015,0.00043662,0,0,0.033375,-0.017079,0,0.0011352,0,0,0,0.035079,-0.0037409,0.0094015,0.64448,0.01358,0.034198,1.0789e-06,0.47,0.48,0
0.017684,-0.0015339,0.035089,-0.0042948,0.0092382,0.00054748,0,0,0.033606,-0.017593,0,0.0014234,0,0,0,0.035096,-0.0043024,0.0092382,0.79627,0.013344,0.034672,1.0928e-06,0.48,0.48,0
0.018022,-0.0015671,0.035141,-0.00014263,0.0105,0.00064203,0,0,0.047182,-0.018446,0,0.0026051,0,0,0,0.035153,-0.00015511,0.0105,1.0802,0.015166,0.031435,9.6475e-07,0.49,0.48,0
0.018628,-0.0015776,0.035329,0.0040952,0.011827,0.00074343,0,0,0.061105,-0.020103,0,0.0038658,0,0,0,0.035347,0.0040775,0.011827,1.3627,0.017084,0.028205,8.6574e-07,0.5,0.48,0
0.019244,-0.0015794,0.035497,0.003209,0.011612,0.00086124,0,0,0.062102,-0.021848,0,0.0044785,0,0,0,0.03552,0.003186,0.011612,1.5268,0.016773,0.029053,9.1146e-07,0.51,0.48,0
0.019869,-0.001572,0.035627,0.0024039,0.011409,0.00098185,0,0,0.062966,-0.023414,0,0.0051056,0,0,0,0.035656,0.0023749,0.011409,1.6913,0.01648,0.029809,9.5097e-07,0.52,0.48,0
0.020503,-0.0015556,0.03569,0.0017407,0.011229,0.0010891,0,0,0.063598,-0.02467,0,0.0056634,0,0,0,0.035725,0.0017058,0.011229,1.8356,0.01622,0.030398,9.7964e-07,0.53,0.48,0
0.021142,-0.0015308,0.035683,0.0012248,0.011072,0.0011722,0,0,0.063988,-0.025604,0,0.0060954,0,0,0,0.035723,0.001185,0.011072,1.9461,0.015994,0.030808,9.969e-07,0.54,0.48,0
0.021783,-0.0014988,0.035619,0.00083526,0.010936,0.0012288,0,0,0.064176,-0.026263,0,0.0063899,0,0,0,0.035663,0.0007919,0.010936,2.0207,0.015797,0.031067,1.0046e-06,0.55,0.48,0
0.022425,-0.0014607,0.035517,0.00054725,0.010819,0.0012608,0,0,0.064213,-0.026707,0,0.0065564,0,0,0,0.035562,0.00050185,0.010819,2.0623,0.015628,0.031208,1.0053e-06,0.56,0.48,0
0.023067,-0.0014176,0.035391,0.00033867,0.010719,0.0012712,0,0,0.064148,-0.026989,0,0.0066104,0,0,0,0.035437,0.00029263,0.010719,2.0743,0.015483,0.031264,1.0012e-06,0.57,0.48,0
0.023708,-0.0013705,0.035256,0.000191,0.010634,0.0012628,0,0,0.064016,-0.027152,0,0.0065667,0,0,0,0.035301,0.00014558,0.010634,2.0599,0.01536,0.03126,9.9421e-07,0.58,0.48,0
0.024347,-0.0013205,0.035118,8.923e-05,0.010562,0.0012382,0,0,0.063845,-0.027229,0,0.0064389,0,0,0,0.035161,4.5512e-05,0.010562,2.022,0.015256,0.031216,9.8547e-07,0.59,0.48,0
0.024985,-0.0012685,0.034983,2.1342e-05,0.010501,0.0011999,0,0,0.063652,-0.027248,0,0.0062393,0,0,0,0.035024,-1.9788e-05,0.010501,1.9633,0.015168,0.031146,9.7591e-07,0.6,0.48,0
0.02562,-0.0012152,0.034855,-2.2225e-05,0.01045,0.0011498,0,0,0.063453,-0.027227,0,0.0059792,0,0,0,0.034893,-6.0092e-05,0.01045,1.8862,0.015094,0.031061,9.6618e-07,0.61,0.48,0
0.026254,-0.0011615,0.034736,-4.9024e-05,0.010406,0.0010903,0,0,0.063258,-0.027183,0,0.0056694,0,0,0,0.03477,-8.3164e-05,0.010406,1.7935,0.015031,0.030971,9.5671e-07,0.62,0.48,0
0.026886,-0.0011078,0.034627,-6.4975e-05,0.010369,0.0010232,0,0,0.063072,-0.027128,0,0.0053204,0,0,0,0.034658,-9.5123e-05,0.010369,1.6878,0.014977,0.03088,9.4779e-07,0.63,0.48,0
0.027515,-0.0010547,0.034529,-7.465e-05,0.010336,0.00095032,0,0,0.062902,-0.027069,0,0.0049417,0,0,0,0.034555,-0.00010073,0.010336,1.5719,0.01493,0.030794,9.3961e-07,0.64,0.48,0
0.028144,-0.0010029,0.034442,-8.1524e-05,0.010308,0.00087357,0,0,0.062748,-0.027013,0,0.0045425,0,0,0,0.034464,-0.00010361,0.010308,1.4485,0.01489,0.030715,9.3229e-07,0.65,0.48,0
0.02877,-0.00095245,0.034366,-8.8162e-05,0.010283,0.0007945,0,0,0.062615,-0.026966,0,0.0041314,0,0,0,0.034384,-0.00010647,0.010283,1.3203,0.014854,0.030646,9.2588e-07,0.66,0.48,0
0.029396,-0.00090387,0.034299,-9.6386e-05,0.010261,0.0007146,0,0,0.0625,-0.026929,0,0.0037159,0,0,0,0.034314,-0.00011123,0.010261,1.1897,0.014821,0.030588,9.2039e-07,0.67,0.48,0
0.03002,-0.00085734,0.034243,-0.00010742,0.01024,0.00063517,0,0,0.062405,-0.026905,0,0.0033029,0,0,0,0.034254,-0.00011916,0.01024,1.059,0.014792,0.030541,9.1581e-07,0.68,0.48,0
0.030644,-0.00081304,0.034194,-0.000122,0.010222,0.00055737,0,0,0.062329,-0.026894,0,0.0028983,0,0,0,0.034203,-0.00013104,0.010222,0.93027,0.014765,0.030505,9.1207e-07,0.69,0.48,0
0.031267,-0.00077109,0.034154,-0.00014048,0.010204,0.00048213,0,0,0.06227,-0.026896,0,0.0025071,0,0,0,0.034161,-0.00014725,0.010204,0.80528,0.014739,0.030481,9.0914e-07,0.7,0.48,0
0.031889,-0.00073156,0.034121,-0.00016293,0.010187,0.00041026,0,0,0.062227,-0.026911,0,0.0021334,0,0,0,0.034126,-0.00016784,0.010187,0.6855,0.014715,0.030466,9.0693e-07,0.71,0.48,0
0.032511,-0.00069448,0.034094,-0.00018921,0.010171,0.00034237,0,0,0.062199,-0.026938,0,0.0017803,0,0,0,0.034098,-0.00019263,0.010171,0.57211,0.014692,0.030461,9.0536e-07,0.72,0.48,0
0.033133,-0.00065985,0.034073,-0.00021901,0.010156,0.00027893,0,0,0.062183,-0.026975,0,0.0014504,0,0,0,0.034075,-0.00022128,0.010156,0.466,0.01467,0.030463,9.0437e-07,0.73,0.48,0
0.033755,-0.00062763,0.034056,-0.00025192,0.010141,0.00022027,0,0,0.062178,-0.027022,0,0.0011454,0,0,0,0.034057,-0.00025333,0.010141,0.36784,0.014648,0.030473,9.0386e-07,0.74,0.48,0
0.034377,-0.00059775,0.034043,-0.00028746,0.010127,0.00016658,0,0,0.062183,-0.027077,0,0.00086624,0,0,0,0.034044,-0.00028826,0.010127,0.27801,0.014627,0.030489,9.0377e-07,0.75,0.48,0
0.034999,-0.00057015,0.034034,-0.00032512,0.010112,0.00011798,0,0,0.062195,-0.027138,0,0.0006135,0,0,0,0.034034,-0.00032553,0.010112,0.19674,0.014607,0.03051,9.0402e-07,0.76,0.48,0
0.035621,-0.00054473,0.034027,-0.0003644,0.010099,7.4459e-05,0,0,0.062213,-0.027204,0,0.00038719,0,0,0,0.034027,-0.00036457,0.010099,0.12405,0.014587,0.030536,9.0454e-07,0.77,0.48,0
0.036243,-0.00052139,0.034022,-0.00040479,0.010085,3.595e-05,0,0,0.062237,-0.027274,0,0.00018694,0,0,0,0.034022,-0.00040483,0.010085,0.05983,0.014568,0.030564,9.0529e-07,0.78,0.48,0
0.036866,-0.00050002,0.03402,-0.00044581,0.010072,2.3227e-06,0,0,0.062264,-0.027347,0,1.2078e-05,0,0,0,0.03402,-0.00044581,0.010072,0.0038613,0.014549,0.030594,9.062e-07,0.79,0.48,0
0.037488,-0.00048051,0.034019,-0.000487,0.01006,-2.6603e-05,0,0,0.062294,-0.027421,0,-0.00013833,0,0,0,0.034019,-0.00048702,0.01006,-0.044173,0.01453,0.030626,9.0723e-07,0.8,0.48,0
0.038111,-0.00046274,0.034018,-0.00052795,0.010047,-5.1041e-05,0,0,0.062325,-0.027495,0,-0.00026541,0,0,0,0.034018,-0.00052803,0.010047,-0.084652,0.014512,0.030659,9.0834e-07,0.81,0.48,0
0.038735,-0.00044661,0.034019,-0.0005683,0.010035,-7.1233e-05,0,0,0.062358,-0.027569,0,-0.00037041,0,0,0,0.034019,-0.00056845,0.010035,-0.118,0.014495,0.030692,9.095e-07,0.82,0.48,0
0.039359,-0.000432,0.03402,-0.00060771,0.010024,-8.7439e-05,0,0,0.062391,-0.027642,0,-0.00045468,0,0,0,0.03402,-0.00060793,0.010024,-0.14468,0.014479,0.030724,9.1067e-07,0.83,0.48,0
0.039983,-0.00041881,0.034022,-0.00064588,0.010013,-9.9927e-05,0,0,0.062423,-0.027712,0,-0.00051962,0,0,0,0.034022,-0.00064617,0.010013,-0.16515,0.014463,0.030756,9.1183e-07,0.84,0.48,0
0.040607,-0.00040693,0.034023,-0.00068258,0.010002,-0.00010897,0,0,0.062455,-0.02778,0,-0.00056666,0,0,0,0.034024,-0.00068292,0.010002,-0.1799,0.014448,0.030788,9.1296e-07,0.85,0.48,0
0.041232,-0.00039628,0.034025,-0.00071757,0.0099923,-0.00011485,0,0,0.062485,-0.027846,0,-0.00059721,0,0,0,0.034026,-0.00071795,0.0099923,-0.1894,0.014433,0.030817,9.1405e-07,0.86,0.48,0
0.041857,-0.00038674,0.034027,-0.00075067,0.0099829,-0.00011782,0,0,0.062515,-0.027907,0,-0.00061268,0,0,0,0.034027,-0.00075107,0.0099829,-0.19411,0.01442,0.030846,9.1509e-07,0.87,0.48,0
0.042482,-0.00037825,0.034029,-0.00078174,0.0099741,-0.00011816,0,0,0.062542,-0.027965,0,-0.00061445,0,0,0,0.034029,-0.00078214,0.0099741,-0.19449,0.014407,0.030872,9.1607e-07,0.88,0.48,0
0.043108,-0.00037072,0.03403,-0.00081064,0.0099659,-0.00011613,0,0,0.062567,-0.028019,0,-0.00060385,0,0,0,0.034031,-0.00081103,0.0099659,-0.19096,0.014395,0.030897,9.1697e-07,0.89,0.48,0
0.043733,-0.00036408,0.034032,-0.00083727,0.0099583,-0.00011195,0,0,0.062591,-0.028069,0,-0.00058215,0,0,0,0.034032,-0.00083763,0.0099583,-0.18395,0.014384,0.030919,9.178e-07,0.9,0.48,0
0.044359,-0.00035827,0.034033,-0.00086154,0.0099515,-0.00010588,0,0,0.062612,-0.028114,0,-0.00055058,0,0,0,0.034033,-0.00086186,0.0099515,-0.17385,0.014374,0.03094,9.1855e-07,0.91,0.48,0
0.044986,-0.00035322,0.034034,-0.00088338,0.0099452,-9.8137e-05,0,0,0.062631,-0.028154,0,-0.00051031,0,0,0,0.034035,-0.00088366,0.0099452,-0.16103,0.014365,0.030958,9.1922e-07,0.92,0.48,0
0.045612,-0.00034889,0.034035,-0.00090275,0.0099397,-8.8935e-05,0,0,0.062648,-0.028191,0,-0.00046246,0,0,0,0.034035,-0.00090298,0.0099397,-0.14585,0.014357,0.030975,9.1981e-07,0.93,0.48,0
0.046239,-0.00034523,0.034036,-0.0009196,0.0099349,-7.8483e-05,0,0,0.062663,-0.028222,0,-0.00040811,0,0,0,0.034036,-0.00091977,0.0099349,-0.12864,0.014351,0.030989,9.2032e-07,0.94,0.48,0
0.046865,-0.00034219,0.034037,-0.0009339,0.0099308,-6.6975e-05,0,0,0.062675,-0.028248,0,-0.00034827,0,0,0,0.034037,-0.00093403,0.0099308,-0.10973,0.014345,0.031001,9.2075e-07,0.95,0.48,0
0.047492,-0.00033976,0.034037,-0.00094562,0.0099275,-5.4601e-05,0,0,0.062685,-0.02827,0,-0.00028392,0,0,0,0.034037,-0.00094571,0.0099275,-0.089426,0.01434,0.031011,9.211e-07,0.96,0.48,0
0.048119,-0.00033789,0.034038,-0.00095476,0.0099249,-4.1542e-05,0,0,0.062693,-0.028287,0,-0.00021602,0,0,0,0.034038,-0.00095481,0.0099249,-0.068019,0.014336,0.031018,9.2137e-07,0.97,0.48,0
0.048746,-0.00033657,0.034038,-0.00096129,0.009923,-2.7975e-05,0,0,0.062699,-0.028299,0,-0.00014547,0,0,0,0.034038,-0.00096131,0.009923,-0.045796,0.014333,0.031024,9.2157e-07,0.98,0.48,0
0.049373,-0.00033578,0.034038,-0.00096521,0.0099219,-1.4071e-05,0,0,0.062702,-0.028306,0,-7.317e-05,0,0,0,0.034038,-0.00096522,0.0099219,-0.023033,0.014332,0.031027,9.2168e-07,0.99,0.48,0
0.05,-0.00033552,0.034038,-0.00096652,0.0099215,5.0172e-06,0,0,0.062703,-0.028309,0,2.6089e-05,0,0,0,0.034038,-0.00096652,0.0099215,0.0082122,0.014331,0.031028,9.2172e-07,1,0.48,0
0,0,0.03289,0.014096,0.014096,8.6198e-05,0,0,0.048865,1.3552e-19,0,0.00044823,0,0,0,0.03289,0.014095,0.014096,0.26277,0.02036,0.018795,3.4099e-07,0,0.49,0
0.00048865,4.4823e-06,0.03287,0.013806,0.014003,0.00011009,0,0,0.049054,-0.00051078,0,0.00057244,0,0,0,0.032871,0.013806,0.014003,0.33085,0.020227,0.018967,3.5032e-07,0.01,0.49,0
0.00098109,1.5524e-05,0.032967,0.013525,0.013948,0.0002104,0,0,0.049451,-0.0010988,0,0.0010941,0,0,0,0.032969,0.013523,0.013948,0.61996,0.020147,0.019238,3.6507e-07,0.02,0.49,0
0.0014777,3.3693e-05,0.033066,0.01321,0.013883,0.00032564,0,0,0.049877,-0.0017493,0,0.0016933,0,0,0,0.033072,0.013205,0.013883,0.93929,0.020053,0.019537,3.8143e-07,0.03,0.49,0
0.0019786,5.9216e-05,0.033163,0.012866,0.013809,0.0004505,0,0,0.050322,-0.0024506,0,0.0023426,0,0,0,0.033174,0.012856,0.013809,1.2709,0.019946,0.019858,3.9907e-07,0.04,0.49,0
0.0024841,9.204e-05,0.033254,0.012498,0.013726,0.00058157,0,0,0.050774,-0.0031918,0,0.0030242,0,0,0,0.033271,0.012482,0.013726,1.6037,0.019826,0.020196,4.1764e-07,0.05,0.49,0
0.0029941,0.00013185,0.033335,0.01211,0.013633,0.00071666,0,0,0.051223,-0.0039612,0,0.0037266,0,0,0,0.033359,0.012086,0.013633,1.9317,0.019693,0.020543,4.3675e-07,0.06,0.49,0
0.0035086,0.00017803,0.033399,0.011705,0.013531,0.00085449,0,0,0.051656,-0.0047479,0,0.0044433,0,0,0,0.033432,0.011671,0.013531,2.2521,0.019545,0.020893,4.5594e-07,0.07,0.49,0
0.0040272,0.00022959,0.033444,0.011292,0.013421,0.00099085,0,0,0.052061,-0.0055352,0,0.0051524,0,0,0,0.033488,0.011248,0.013421,2.556,0.019386,0.021238,4.7465e-07,0.08,0.49,0
0.0045498,0.00028484,0.03345,0.010869,0.013296,0.0011225,0,0,0.052401,-0.0063097,0,0.0058369,0,0,0,0.033506,0.010813,0.013296,2.8388,0.019205,0.021559,4.9169e-07,0.09,0.49,0
0.0050752,0.00034139,0.033428,0.010487,0.013175,0.0012279,0,0,0.05266,-0.0069872,0,0.006385,0,0,0,0.033494,0.010422,0.013175,3.055,0.01903,0.021826,5.055e-07,0.1,0.49,0
0.005603,0.00039467,0.033294,0.010121,0.013024,0.0013183,0,0,0.052701,-0.0075494,0,0.0068552,0,0,0,0.033369,0.010046,0.013024,3.2456,0.018813,0.021985,5.1218e-07,0.11,0.49,0
0.0061293,0.00044006,0.033306,0.010058,0.013009,0.0012868,0,0,0.052772,-0.0076733,0,0.0066915,0,0,0,0.033377,0.0099869,0.013009,3.1586,0.018791,0.022035,5.1481e-07,0.12,0.49,0
0.0066584,0.00046343,0.033065,0.0098359,0.01287,0.0011696,0,0,0.052506,-0.0078893,0,0.0060818,0,0,0,0.033124,0.0097772,0.01287,2.8751,0.01859,0.021964,5.08e-07,0.13,0.49,0
0.0071794,0.00044889,0.032975,0.0089264,0.01257,0.00078982,0,0,0.039551,-0.0063163,0,0.0034685,0,0,0,0.033006,0.0088954,0.01257,1.9323,0.018157,0.022517,5.3117e-07,0.14,0.49,0
0.0074494,0.00039053,0.033317,0.0090784,0.012719,0.0010276,0,0,0.026778,-0.0047323,0,0.0026717,0,0,0,0.033361,0.0090349,0.012719,2.4232,0.018371,0.022709,5.485e-07,0.15,0.49,0
0.0077149,0.00033159,0.033376,0.0090542,0.012729,0.0013265,0,0,0.026841,-0.0047773,0,0.0034489,0,0,0,0.033448,0.0089821,0.012729,3.1126,0.018386,0.022824,5.5562e-07,0.16,0.49,0
0.0079862,0.00027696,0.033917,0.0087921,0.012813,0.0015036,0,0,0.027435,-0.0052267,0,0.0039093,0,0,0,0.034006,0.0087025,0.012813,3.4126,0.018507,0.02352,6.0001e-07,0.17,0.49,0
0.0082637,0.00022374,0.034376,0.0084016,0.012833,0.0015586,0,0,0.028005,-0.0057611,0,0.0040525,0,0,0,0.034469,0.0083084,0.012833,3.4218,0.018537,0.024217,6.4445e-07,0.18,0.49,0
0.0085463,0.00017096,0.03472,0.007979,0.01281,0.0015526,0,0,0.028484,-0.0062801,0,0.0040368,0,0,0,0.03481,0.0078891,0.01281,3.3118,0.018503,0.024829,6.8324e-07,0.19,0.49,0
0.0088333,0.00011786,0.034965,0.0075324,0.012749,0.0015049,0,0,0.028881,-0.0067819,0,0.0039129,0,0,0,0.035048,0.0074501,0.012749,3.1307,0.018416,0.025366,7.1653e-07,0.2,0.49,0
0.009124,6.3818e-05,0.035144,0.0070717,0.012665,0.0014301,0,0,0.029223,-0.0072707,0,0.0037184,0,0,0,0.035216,0.0069991,0.012665,2.9089,0.018293,0.025854,7.4594e-07,0.21,0.49,0
0.0094178,8.4146e-06,0.035276,0.0066022,0.012564,0.001338,0,0,0.029527,-0.0077498,0,0.0034788,0,0,0,0.035339,0.0065399,0.012564,2.6658,0.018147,0.026309,7.7257e-07,0.22,0.49,0
0.0097145,-4.865e-05,0.035376,0.0061262,0.012451,0.0012344,0,0,0.029803,-0.0082219,0,0.0032094,0,0,0,0.035428,0.0060742,0.012451,2.4122,0.017984,0.026742,7.9714e-07,0.23,0.49,0
0.010014,-0.00010758,0.035452,0.0056443,0.012329,0.0011231,0,0,0.03006,-0.00869,0,0.0029201,0,0,0,0.035494,0.0056021,0.012329,2.1547,0.017808,0.027161,8.2019e-07,0.24,0.49,0
0.010316,-0.00016851,0.035509,0.0051568,0.0122,0.001007,0,0,0.030302,-0.009156,0,0.0026182,0,0,0,0.035543,0.0051234,0.0122,1.8981,0.017622,0.027571,8.4207e-07,0.25,0.49,0
0.01062,-0.0002315,0.035553,0.0046638,0.012065,0.00088834,0,0,0.030534,-0.0096214,0,0.0023097,0,0,0,0.035578,0.0046383,0.012065,1.646,0.017427,0.027976,8.6305e-07,0.26,0.49,0
0.010926,-0.00029658,0.035585,0.0041662,0.011925,0.00076913,0,0,0.030758,-0.010087,0,0.0019997,0,0,0,0.035604,0.0041473,0.011925,1.4015,0.017226,0.028378,8.8328e-07,0.27,0.49,0
0.011235,-0.0003637,0.035608,0.0036648,0.011782,0.00065103,0,0,0.030974,-0.010552,0,0.0016927,0,0,0,0.035621,0.0036515,0.011782,1.1671,0.017018,0.028779,9.0282e-07,0.28,0.49,0
0.011546,-0.00043277,0.035624,0.0031614,0.011636,0.00053544,0,0,0.031185,-0.011016,0,0.0013921,0,0,0,0.035632,0.0031526,0.011636,0.9447,0.016807,0.029178,9.2168e-07,0.29,0.49,0
0.011859,-0.00050367,0.035632,0.0026579,0.011487,0.00042349,0,0,0.031388,-0.011478,0,0.0011011,0,0,0,0.035637,0.0026525,0.011487,0.7357,0.016592,0.029575,9.3978e-07,0.3,0.49,0
0.012174,-0.00057623,0.035634,0.0021569,0.011337,0.00031609,0,0,0.031586,-0.011934,0,0.00082185,0,0,0,0.035637,0.0021539,0.011337,0.54093,0.016376,0.029966,9.5701e-07,0.31,0.49,0
0.01249,-0.00065024,0.035629,0.0016608,0.011187,0.00021396,0,0,0.031774,-0.012384,0,0.00055629,0,0,0,0.03563,0.0016594,0.011187,0.36088,0.016159,0.03035,9.7326e-07,0.32,0.49,0
0.012809,-0.00072548,0.035617,0.0011723,0.011037,0.00011773,0,0,0.031954,-0.012824,0,0.0003061,0,0,0,0.035618,0.0011719,0.011037,0.19583,0.015942,0.030725,9.8841e-07,0.33,0.49,0
0.01313,-0.00080166,0.035599,0.000694,0.010888,2.8168e-05,0,0,0.032125,-0.013252,0,7.3238e-05,0,0,0,0.035599,0.00069397,0.010888,0.046237,0.015727,0.031088,1.0024e-06,0.34,0.49,0
0.013452,-0.00087848,0.035576,0.00022807,0.010741,-5.3626e-05,0,0,0.032285,-0.013667,0,-0.00013943,0,0,0,0.035576,0.00022799,0.010741,-0.086924,0.015515,0.031438,1.0151e-06,0.35,0.49,0
0.013775,-0.00095559,0.035546,-0.00022361,0.010597,-0.00012594,0,0,0.032434,-0.014066,0,-0.00032743,0,0,0,0.035547,-0.00022405,0.010597,-0.20172,0.015306,0.031774,1.0265e-06,0.36,0.49,0
0.0141,-0.0010326,0.035512,-0.00065949,0.010456,-0.0001862,0,0,0.032573,-0.01445,0,-0.00048412,0,0,0,0.035513,-0.00066045,0.010456,-0.29493,0.015103,0.032093,1.0367e-06,0.37,0.49,0
0.014427,-0.001109,0.035474,-0.0010781,0.010319,-0.0002309,0,0,0.032702,-0.014816,0,-0.00060034,0,0,0,0.035476,-0.0010796,0.010319,-0.36191,0.014905,0.032397,1.0456e-06,0.38,0.49,0
0.014754,-0.0011843,0.035433,-0.0014778,0.010187,-0.00025563,0,0,0.032821,-0.015164,0,-0.00066464,0,0,0,0.035435,-0.0014796,0.010187,-0.39678,0.014714,0.032682,1.0533e-06,0.39,0.49,0
0.015083,-0.0012578,0.035389,-0.0018564,0.01006,-0.00025547,0,0,0.032928,-0.015491,0,-0.00066423,0,0,0,0.035391,-0.0018582,0.01006,-0.39298,0.014531,0.032948,1.0598e-06,0.4,0.49,0
0.015413,-0.0013289,0.035341,-0.0022113,0.009939,-0.00022554,0,0,0.033023,-0.015796,0,-0.00058641,0,0,0,0.035343,-0.0022127,0.009939,-0.3441,0.014356,0.033192,1.065e-06,0.41,0.49,0
0.015744,-0.0013968,0.035289,-0.0025395,0.0098249,-0.00016162,0,0,0.033104,-0.016074,0,-0.00042022,0,0,0,0.03529,-0.0025402,0.0098249,-0.24479,0.014191,0.03341,1.0688e-06,0.42,0.49,0
0.016075,-0.0014607,0.03523,-0.0028395,0.0097171,-6.066e-05,0,0,0.033167,-0.016324,0,-0.00015772,0,0,0,0.03523,-0.0028396,0.0097171,-0.091296,0.014036,0.033599,1.071e-06,0.43,0.49,0
0.016407,-0.00152,0.035158,-0.0031123,0.0096137,7.818e-05,0,0,0.033207,-0.016544,0,0.00020327,0,0,0,0.035158,-0.0031125,0.0096137,0.11704,0.013886,0.033757,1.0712e-06,0.44,0.49,0
0.016739,-0.001574,0.035064,-0.0033599,0.0095111,0.00024614,0,0,0.033218,-0.016732,0,0.00063997,0,0,0,0.035065,-0.0033615,0.0095111,0.36702,0.013738,0.033877,1.0689e-06,0.45,0.49,0
0.017071,-0.0016229,0.034964,-0.0035757,0.0094164,0.00041069,0,0,0.033211,-0.01689,0,0.0010678,0,0,0,0.034968,-0.0035801,0.0094164,0.61047,0.013602,0.033969,1.0653e-06,0.46,0.49,0
0.017403,-0.0016674,0.034893,-0.003829,0.0093192,0.00050582,0,0,0.033246,-0.017093,0,0.0013151,0,0,0,0.0349,-0.0038356,0.0093192,0.74828,0.013461,0.034116,1.0649e-06,0.47,0.49,0
0.017736,-0.0017098,0.034908,-0.0042964,0.0091833,0.00050471,0,0,0.033441,-0.017524,0,0.0013122,0,0,0,0.034914,-0.0043029,0.0091833,0.73746,0.013265,0.03451,1.0763e-06,0.48,0.49,0
0.018072,-0.0017516,0.034956,-0.00017007,0.010436,0.00046784,0,0,0.046953,-0.018383,0,0.0018631,0,0,0,0.034962,-0.00017656,0.010436,0.78461,0.015074,0.031282,9.4946e-07,0.49,0.49,0
0.018675,-0.0017789,0.03514,0.0039692,0.011733,0.00053045,0,0,0.060858,-0.020185,0,0.0027583,0,0,0,0.035149,0.0039601,0.011733,0.97466,0.016947,0.02812,8.5466e-07,0.5,0.49,0
0.019289,-0.0017983,0.03531,0.0030341,0.011503,0.00069152,0,0,0.061898,-0.02202,0,0.0035959,0,0,0,0.035325,0.0030193,0.011503,1.2268,0.016616,0.02901,9.0174e-07,0.51,0.49,0
0.019913,-0.0018064,0.03543,0.0022339,0.011299,0.00089667,0,0,0.06274,-0.02357,0,0.0046627,0,0,0,0.035454,0.0022097,0.011299,1.5461,0.016321,0.02976,9.4012e-07,0.52,0.49,0
0.020544,-0.0018023,0.035477,0.0016105,0.011126,0.0010852,0,0,0.063311,-0.024741,0,0.005643,0,0,0,0.035511,0.0015757,0.011126,1.8335,0.016071,0.030311,9.6617e-07,0.53,0.49,0
0.021179,-0.0017866,0.035451,0.0011352,0.010976,0.0012293,0,0,0.063636,-0.025586,0,0.0063923,0,0,0,0.035495,0.0010913,0.010976,2.049,0.015854,0.03068,9.8075e-07,0.54,0.49,0
0.021817,-0.001761,0.035377,0.00078044,0.010847,0.0013257,0,0,0.063778,-0.026174,0,0.0068935,0,0,0,0.035428,0.00072972,0.010847,2.1911,0.015668,0.030908,9.8673e-07,0.55,0.49,0
0.022455,-0.0017271,0.035274,0.00052146,0.010739,0.0013808,0,0,0.063793,-0.026565,0,0.00718,0,0,0,0.035329,0.00046668,0.010739,2.2717,0.015511,0.031029,9.8666e-07,0.56,0.49,0
0.023093,-0.0016866,0.035156,0.00033701,0.010648,0.0014022,0,0,0.06372,-0.026808,0,0.0072916,0,0,0,0.035212,0.00028063,0.010648,2.3025,0.01538,0.031073,9.8257e-07,0.57,0.49,0
0.023729,-0.0016411,0.035031,0.00020946,0.010572,0.0013966,0,0,0.063593,-0.026943,0,0.0072626,0,0,0,0.035087,0.00015353,0.010572,2.2932,0.015271,0.031063,9.7595e-07,0.58,0.49,0
0.024365,-0.0015918,0.034906,0.00012446,0.010509,0.0013693,0,0,0.063433,-0.027001,0,0.0071204,0,0,0,0.03496,7.0633e-05,0.010509,2.251,0.01518,0.031017,9.6789e-07,0.59,0.49,0
0.024998,-0.0015399,0.034787,7.0426e-05,0.010457,0.0013245,0,0,0.063257,-0.027005,0,0.0068875,0,0,0,0.034837,1.9965e-05,0.010457,2.1818,0.015105,0.030948,9.5919e-07,0.6,0.49,0
0.02563,-0.0014864,0.034674,3.8119e-05,0.010414,0.0012658,0,0,0.063078,-0.026977,0,0.0065822,0,0,0,0.034721,-8.0799e-06,0.010414,2.0902,0.015042,0.030867,9.5042e-07,0.61,0.49,0
0.02626,-0.0014321,0.034571,2.0211e-05,0.010377,0.0011962,0,0,0.062904,-0.026929,0,0.0062204,0,0,0,0.034613,-2.1155e-05,0.010377,1.9805,0.01499,0.030781,9.4197e-07,0.62,0.49,0
0.026888,-0.0013779,0.034478,1.0972e-05,0.010347,0.0011184,0,0,0.062742,-0.026873,0,0.0058158,0,0,0,0.034515,-2.528e-05,0.010347,1.8566,0.014945,0.030697,9.3411e-07,0.63,0.49,0
0.027514,-0.0013243,0.034396,5.9989e-06,0.010321,0.0010348,0,0,0.062596,-0.026818,0,0.0053807,0,0,0,0.034427,-2.5108e-05,0.010321,1.7219,0.014908,0.030619,9.2701e-07,0.64,0.49,0
0.02814,-0.0012718,0.034324,1.9905e-06,0.010298,0.00094736,0,0,0.062468,-0.026769,0,0.0049263,0,0,0,0.03435,-2.4139e-05,0.010298,1.5799,0.014875,0.03055,9.2078e-07,0.65,0.49,0
0.028764,-0.001221,0.034262,-3.4372e-06,0.010278,0.00085812,0,0,0.06236,-0.026731,0,0.0044622,0,0,0,0.034284,-2.4914e-05,0.010278,1.4337,0.014845,0.030492,9.1547e-07,0.66,0.49,0
0.029387,-0.0011721,0.03421,-1.1917e-05,0.010259,0.00076867,0,0,0.062271,-0.026705,0,0.0039971,0,0,0,0.034227,-2.9173e-05,0.010259,1.2861,0.014819,0.030445,9.1107e-07,0.67,0.49,0
0.030009,-0.0011254,0.034166,-2.4471e-05,0.010243,0.00068045,0,0,0.062202,-0.026694,0,0.0035383,0,0,0,0.03418,-3.8008e-05,0.010243,1.1397,0.014795,0.03041,9.0756e-07,0.68,0.49,0
0.030631,-0.0010811,0.034131,-4.1641e-05,0.010227,0.00059467,0,0,0.062151,-0.026698,0,0.0030923,0,0,0,0.034141,-5.1986e-05,0.010227,0.99665,0.014772,0.030387,9.0489e-07,0.69,0.49,0
0.031252,-0.0010392,0.034103,-6.3591e-05,0.010212,0.00051232,0,0,0.062117,-0.026716,0,0.002664,0,0,0,0.034111,-7.1271e-05,0.010212,0.85888,0.01475,0.030375,9.0299e-07,0.7,0.49,0
0.031873,-0.00099989,0.034081,-9.0203e-05,0.010197,0.00043418,0,0,0.062098,-0.026747,0,0.0022577,0,0,0,0.034086,-9.5719e-05,0.010197,0.72784,0.014729,0.030373,9.0178e-07,0.71,0.49,0
0.032494,-0.00096316,0.034065,-0.00012116,0.010183,0.00036085,0,0,0.062092,-0.026791,0,0.0018764,0,0,0,0.034069,-0.00012497,0.010183,0.60471,0.014709,0.030381,9.0117e-07,0.72,0.49,0
0.033115,-0.00092898,0.034053,-0.00015599,0.010169,0.00029277,0,0,0.062098,-0.026845,0,0.0015224,0,0,0,0.034056,-0.0001585,0.010169,0.4903,0.014689,0.030396,9.0109e-07,0.73,0.49,0
0.033736,-0.0008973,0.034045,-0.00019417,0.010155,0.00023019,0,0,0.062114,-0.026909,0,0.001197,0,0,0,0.034047,-0.00019572,0.010155,0.38517,0.014669,0.030418,9.0145e-07,0.74,0.49,0
0.034357,-0.00086805,0.034041,-0.00023508,0.010142,0.00017326,0,0,0.062138,-0.02698,0,0.00090095,0,0,0,0.034042,-0.00023596,0.010142,0.28961,0.014649,0.030446,9.0217e-07,0.75,0.49,0
0.034979,-0.00084114,0.034039,-0.00027814,0.010128,0.00012201,0,0,0.062169,-0.027057,0,0.00063446,0,0,0,0.03404,-0.00027857,0.010128,0.2037,0.01463,0.030478,9.0317e-07,0.76,0.49,0
0.035601,-0.00081646,0.03404,-0.00032273,0.010115,7.638e-05,0,0,0.062204,-0.027138,0,0.00039717,0,0,0,0.03404,-0.0003229,0.010115,0.12735,0.014611,0.030513,9.0441e-07,0.77,0.49,0
0.036223,-0.00079389,0.034042,-0.00036829,0.010102,3.6226e-05,0,0,0.062243,-0.027223,0,0.00018838,0,0,0,0.034042,-0.00036832,0.010102,0.06032,0.014592,0.030551,9.058e-07,0.78,0.49,0
0.036846,-0.00077331,0.034044,-0.00041428,0.010089,1.3555e-06,0,0,0.062284,-0.027309,0,7.0485e-06,0,0,0,0.034044,-0.00041428,0.010089,0.0022538,0.014573,0.030591,9.073e-07,0.79,0.49,0
0.037469,-0.0007546,0.034048,-0.00046022,0.010077,-2.8473e-05,0,0,0.062327,-0.027395,0,-0.00014806,0,0,0,0.034048,-0.00046024,0.010077,-0.047275,0.014555,0.030631,9.0888e-07,0.8,0.49,0
0.038092,-0.00073763,0.034053,-0.00050566,0.010064,-5.3531e-05,0,0,0.06237,-0.027481,0,-0.00027836,0,0,0,0.034053,-0.00050574,0.010064,-0.088751,0.014537,0.030671,9.1047e-07,0.81,0.49,0
0.038716,-0.00072229,0.034057,-0.00055022,0.010052,-7.4111e-05,0,0,0.062414,-0.027566,0,-0.00038538,0,0,0,0.034057,-0.00055037,0.010052,-0.1227,0.01452,0.030711,9.1207e-07,0.82,0.49,0
0.03934,-0.00070846,0.034062,-0.00059355,0.010041,-9.0517e-05,0,0,0.062456,-0.027649,0,-0.00047069,0,0,0,0.034062,-0.00059378,0.010041,-0.14965,0.014503,0.03075,9.1363e-07,0.83,0.49,0
0.039965,-0.00069602,0.034067,-0.00063535,0.010029,-0.00010306,0,0,0.062497,-0.027728,0,-0.00053591,0,0,0,0.034067,-0.00063566,0.010029,-0.17016,0.014487,0.030788,9.1515e-07,0.84,0.49,0
0.04059,-0.00068486,0.034071,-0.00067539,0.010019,-0.00011205,0,0,0.062536,-0.027805,0,-0.00058264,0,0,0,0.034071,-0.00067575,0.010019,-0.18476,0.014471,0.030824,9.166e-07,0.85,0.49,0
0.041216,-0.00067489,0.034075,-0.00071343,0.010009,-0.00011778,0,0,0.062574,-0.027877,0,-0.00061246,0,0,0,0.034076,-0.00071383,0.010009,-0.19398,0.014457,0.030859,9.1797e-07,0.86,0.49,0
0.041842,-0.00066601,0.034079,-0.00074931,0.0099989,-0.00012056,0,0,0.062608,-0.027946,0,-0.00062691,0,0,0,0.03408,-0.00074973,0.0099989,-0.19833,0.014443,0.030891,9.1925e-07,0.87,0.49,0
0.042468,-0.00065812,0.034083,-0.00078289,0.0099899,-0.00012066,0,0,0.062641,-0.028009,0,-0.00062746,0,0,0,0.034083,-0.0007833,0.0099899,-0.19829,0.01443,0.030921,9.2043e-07,0.88,0.49,0
0.043095,-0.00065116,0.034086,-0.00081404,0.0099815,-0.00011837,0,0,0.062671,-0.028068,0,-0.00061552,0,0,0,0.034086,-0.00081444,0.0099815,-0.19433,0.014418,0.030949,9.2152e-07,0.89,0.49,0
0.043722,-0.00064504,0.034089,-0.00084267,0.0099738,-0.00011393,0,0,0.062698,-0.028123,0,-0.00059246,0,0,0,0.034089,-0.00084304,0.0099738,-0.18688,0.014406,0.030974,9.2251e-07,0.9,0.49,0
0.044349,-0.0006397,0.034091,-0.00086871,0.0099667,-0.0001076,0,0,0.062723,-0.028172,0,-0.00055954,0,0,0,0.034091,-0.00086904,0.0099667,-0.17635,0.014396,0.030997,9.234e-07,0.91,0.49,0
0.044976,-0.00063508,0.034093,-0.0008921,0.0099603,-9.9609e-05,0,0,0.062745,-0.028216,0,-0.00051797,0,0,0,0.034093,-0.00089238,0.0099603,-0.16313,0.014387,0.031018,9.2418e-07,0.92,0.49,0
0.045603,-0.00063112,0.034095,-0.00091281,0.0099546,-9.0171e-05,0,0,0.062764,-0.028255,0,-0.00046889,0,0,0,0.034095,-0.00091304,0.0099546,-0.14758,0.014379,0.031036,9.2487e-07,0.93,0.49,0
0.046231,-0.00062778,0.034096,-0.00093079,0.0099496,-7.9499e-05,0,0,0.062781,-0.028289,0,-0.00041339,0,0,0,0.034096,-0.00093097,0.0099496,-0.13004,0.014372,0.031051,9.2546e-07,0.94,0.49,0
0.046859,-0.00062503,0.034097,-0.00094604,0.0099454,-6.7789e-05,0,0,0.062795,-0.028318,0,-0.0003525,0,0,0,0.034098,-0.00094617,0.0099454,-0.11083,0.014366,0.031064,9.2596e-07,0.95,0.49,0
0.047487,-0.00062282,0.034098,-0.00095852,0.0099419,-5.5229e-05,0,0,0.062807,-0.028341,0,-0.00028719,0,0,0,0.034098,-0.00095861,0.0099419,-0.090264,0.014361,0.031075,9.2636e-07,0.96,0.49,0
0.048115,-0.00062113,0.034099,-0.00096824,0.0099392,-4.1999e-05,0,0,0.062815,-0.028359,0,-0.00021839,0,0,0,0.034099,-0.00096829,0.0099392,-0.068622,0.014357,0.031084,9.2668e-07,0.97,0.49,0
0.048744,-0.00061993,0.034099,-0.00097519,0.0099373,-2.8273e-05,0,0,0.062822,-0.028372,0,-0.00014702,0,0,0,0.034099,-0.00097521,0.0099373,-0.046184,0.014354,0.03109,9.269e-07,0.98,0.49,0
0.049372,-0.00061922,0.0341,-0.00097936,0.0099361,-1.4218e-05,0,0,0.062825,-0.02838,0,-7.3934e-05,0,0,0,0.0341,-0.00097937,0.0099361,-0.023223,0.014352,0.031093,9.2703e-07,0.99,0.49,0
0.05,-0.00061899,0.0341,-0.00098075,0.0099357,4.5335e-06,0,0,0.062827,-0.028383,0,2.3574e-05,0,0,0,0.0341,-0.00098075,0.0099357,0.0074043,0.014352,0.031094,9.2707e-07,1,0.49,0
0,0,0.032767,0.014043,0.014043,-1.7835e-05,0,0,0.048683,-2.7105e-20,0,-9.2744e-05,0,0,0,0.032767,0.014043,0.014043,-0.054577,0.020284,0.018724,3.3715e-07,0,0.5,0
0.00048683,-9.2744e-07,0.032744,0.013717,0.013938,6.1233e-06,0,0,0.048894,-0.00057469,0,3.1841e-05,0,0,0,0.032744,0.013717,0.013938,0.01844,0.020133,0.018917,3.4752e-07,0.01,0.5,0
0.00097789,4.0223e-06,0.032857,0.013418,0.013882,0.00010184,0,0,0.049334,-0.0012081,0,0.00052955,0,0,0,0.032858,0.013417,0.013882,0.30015,0.020052,0.019212,3.6348e-07,0.02,0.5,0
0.0014735,1.5518e-05,0.032975,0.013091,0.01382,0.00021509,0,0,0.049804,-0.0018949,0,0.0011185,0,0,0,0.032977,0.013089,0.01382,0.61969,0.019962,0.019533,3.8098e-07,0.03,0.5,0
0.001974,3.3876e-05,0.033097,0.01274,0.013751,0.00034043,0,0,0.050299,-0.0026292,0,0.0017702,0,0,0,0.033102,0.012734,0.013751,0.9578,0.019862,0.019879,3.9993e-07,0.04,0.5,0
0.0024795,5.9129e-05,0.033221,0.012367,0.013676,0.00047449,0,0,0.050816,-0.0034053,0,0.0024673,0,0,0,0.033232,0.012356,0.013676,1.3027,0.019755,0.020248,4.2025e-07,0.05,0.5,0
0.0029903,9.1044e-05,0.033348,0.011975,0.013597,0.00061521,0,0,0.051352,-0.0042166,0,0.0031991,0,0,0,0.033365,0.011957,0.013597,1.6474,0.01964,0.020637,4.4182e-07,0.06,0.5,0
0.0035065,0.00012912,0.033477,0.01157,0.013514,0.0007607,0,0,0.051903,-0.0050544,0,0.0039556,0,0,0,0.033503,0.011544,0.013514,1.9864,0.01952,0.021044,4.645e-07,0.07,0.5,0
0.0040283,0.00017246,0.033608,0.011158,0.01343,0.00090899,0,0,0.052463,-0.0059073,0,0.0047268,0,0,0,0.033644,0.011121,0.01343,2.3148,0.019398,0.021463,4.8801e-07,0.08,0.5,0
0.0045558,0.00021973,0.033743,0.010754,0.013349,0.0010548,0,0,0.053024,-0.0067466,0,0.0054848,0,0,0,0.033791,0.010706,0.013349,2.6215,0.019282,0.021884,5.1187e-07,0.09,0.5,0
0.0050888,0.00026878,0.033871,0.010377,0.013274,0.0011954,0,0,0.053551,-0.0075332,0,0.0062162,0,0,0,0.033932,0.010316,0.013274,2.9053,0.019174,0.022284,5.3473e-07,0.1,0.5,0
0.0056268,0.00031672,0.034011,0.010099,0.013233,0.0013093,0,0,0.054024,-0.0081489,0,0.0068081,0,0,0,0.034083,0.010027,0.013233,3.1246,0.019114,0.022624,5.5467e-07,0.11,0.5,0
0.0061693,0.00035822,0.034047,0.0099195,0.01319,0.0013656,0,0,0.054228,-0.0085029,0,0.0071012,0,0,0,0.034124,0.0098425,0.01319,3.2292,0.019052,0.022793,5.6419e-07,0.12,0.5,0
0.0067114,0.0003843,0.034005,0.010168,0.013252,0.0012424,0,0,0.053959,-0.008019,0,0.0064606,0,0,0,0.03407,0.010103,0.013252,2.9755,0.019142,0.022558,5.5102e-07,0.13,0.5,0
0.0072485,0.00038458,0.033894,0.0091958,0.012927,0.00099608,0,0,0.040684,-0.006467,0,0.0042343,0,0,0,0.033938,0.0091513,0.012927,2.3523,0.018672,0.023149,5.7692e-07,0.14,0.5,0
0.0075251,0.00033798,0.033975,0.0086354,0.012783,0.00083652,0,0,0.027549,-0.005392,0,0.002175,0,0,0,0.034002,0.0086078,0.012783,1.8887,0.018464,0.023586,6.0331e-07,0.15,0.5,0
0.0077995,0.0002825,0.034059,0.0089447,0.012901,0.00089749,0,0,0.027505,-0.0051433,0,0.0023335,0,0,0,0.034091,0.0089126,0.012901,2.0441,0.018635,0.02344,5.9741e-07,0.16,0.5,0
0.0080752,0.00022416,0.034242,0.0086592,0.01287,0.0010906,0,0,0.027783,-0.0054743,0,0.0028355,0,0,0,0.034288,0.0086128,0.01287,2.4366,0.01859,0.023833,6.2119e-07,0.17,0.5,0
0.0083551,0.00016604,0.034556,0.0083635,0.012876,0.0012453,0,0,0.028184,-0.005866,0,0.0032378,0,0,0,0.034615,0.0083045,0.012876,2.716,0.018599,0.024349,6.542e-07,0.18,0.5,0
0.0086389,0.00010838,0.034796,0.0079954,0.012837,0.0013181,0,0,0.028546,-0.0062946,0,0.003427,0,0,0,0.034861,0.0079307,0.012837,2.8088,0.018543,0.024843,6.8503e-07,0.19,0.5,0
0.008926,5.044e-05,0.034985,0.0075817,0.01277,0.0013259,0,0,0.028879,-0.0067447,0,0.0034473,0,0,0,0.035049,0.0075177,0.01277,2.7636,0.018446,0.025317,7.1399e-07,0.2,0.5,0
0.0092164,-8.3857e-06,0.035135,0.0071425,0.012683,0.0012931,0,0,0.029187,-0.007203,0,0.003362,0,0,0,0.035195,0.0070829,0.012683,2.6392,0.01832,0.025772,7.4114e-07,0.21,0.5,0
0.0095098,-6.8517e-05,0.035254,0.0066888,0.012583,0.0012334,0,0,0.029472,-0.007662,0,0.0032068,0,0,0,0.035307,0.0066357,0.012583,2.4679,0.018175,0.026208,7.6653e-07,0.22,0.5,0
0.0098059,-0.00013026,0.035345,0.0062245,0.012471,0.0011549,0,0,0.029736,-0.0081202,0,0.0030027,0,0,0,0.03539,0.0061787,0.012471,2.2675,0.018013,0.026629,7.9032e-07,0.23,0.5,0
0.010105,-0.00019384,0.035414,0.0057507,0.012349,0.0010629,0,0,0.029984,-0.0085783,0,0.0027636,0,0,0,0.035452,0.0057127,0.012349,2.0496,0.017838,0.027039,8.1279e-07,0.24,0.5,0
0.010406,-0.00025941,0.035466,0.0052683,0.01222,0.00096186,0,0,0.030219,-0.0090376,0,0.0025008,0,0,0,0.035497,0.0052377,0.01222,1.8225,0.017652,0.027442,8.3422e-07,0.25,0.5,0
0.010709,-0.00032705,0.035504,0.0047779,0.012084,0.00085518,0,0,0.030445,-0.0094986,0,0.0022235,0,0,0,0.035528,0.0047541,0.012084,1.593,0.017455,0.027842,8.548e-07,0.26,0.5,0
0.011014,-0.00039678,0.03553,0.0042805,0.011943,0.00074583,0,0,0.030663,-0.0099615,0,0.0019392,0,0,0,0.035548,0.0042627,0.011943,1.3664,0.017251,0.028239,8.7463e-07,0.27,0.5,0
0.011322,-0.00046855,0.035546,0.0037776,0.011797,0.00063626,0,0,0.030874,-0.010425,0,0.0016543,0,0,0,0.035559,0.0037649,0.011797,1.1469,0.01704,0.028636,8.9374e-07,0.28,0.5,0
0.011632,-0.00054227,0.035553,0.0032712,0.011647,0.00052847,0,0,0.031078,-0.010889,0,0.001374,0,0,0,0.035562,0.0032625,0.011647,0.93762,0.016824,0.02903,9.1209e-07,0.29,0.5,0
0.011944,-0.00061778,0.035552,0.0027635,0.011495,0.00042407,0,0,0.031274,-0.01135,0,0.0011026,0,0,0,0.035557,0.002758,0.011495,0.74087,0.016603,0.029421,9.2956e-07,0.3,0.5,0
0.012257,-0.00069491,0.035542,0.0022573,0.01134,0.00032424,0,0,0.031463,-0.011807,0,0.00084302,0,0,0,0.035545,0.0022542,0.01134,0.55807,0.01638,0.029805,9.4603e-07,0.31,0.5,0
0.012573,-0.00077342,0.035523,0.0017555,0.011184,0.00022979,0,0,0.031642,-0.012257,0,0.00059744,0,0,0,0.035525,0.001754,0.011184,0.38987,0.016154,0.030182,9.6133e-07,0.32,0.5,0
0.01289,-0.00085305,0.035496,0.0012609,0.011027,0.00014124,0,0,0.031809,-0.012696,0,0.00036722,0,0,0,0.035497,0.0012603,0.011027,0.23637,0.015928,0.030547,9.7534e-07,0.33,0.5,0
0.013209,-0.00093352,0.03546,0.00077597,0.010871,5.9047e-05,0,0,0.031966,-0.013123,0,0.00015352,0,0,0,0.03546,0.00077587,0.010871,0.09754,0.015702,0.0309,9.8797e-07,0.34,0.5,0
0.01353,-0.0010145,0.035417,0.00030243,0.010716,-1.6133e-05,0,0,0.032112,-0.013537,0,-4.1946e-05,0,0,0,0.035417,0.00030242,0.010716,-0.026324,0.015478,0.031238,9.9922e-07,0.35,0.5,0
0.013851,-0.0010956,0.035368,-0.00015857,0.010563,-8.3057e-05,0,0,0.032247,-0.013938,0,-0.00021595,0,0,0,0.035368,-0.00015877,0.010563,-0.13395,0.015257,0.031563,1.0092e-06,0.36,0.5,0
0.014174,-0.0011764,0.035314,-0.00060655,0.010412,-0.00013952,0,0,0.032373,-0.014325,0,-0.00036277,0,0,0,0.035315,-0.00060709,0.010412,-0.22254,0.01504,0.031875,1.0179e-06,0.37,0.5,0
0.014499,-0.0012566,0.035259,-0.0010413,0.010265,-0.00018211,0,0,0.032492,-0.014698,0,-0.00047348,0,0,0,0.03526,-0.0010422,0.010265,-0.28743,0.014828,0.032175,1.0257e-06,0.38,0.5,0
0.014824,-0.0013354,0.035203,-0.0014621,0.010122,-0.00020612,0,0,0.032605,-0.01506,0,-0.0005359,0,0,0,0.035204,-0.0014633,0.010122,-0.32208,0.014621,0.032464,1.0327e-06,0.39,0.5,0
0.015151,-0.0014123,0.035149,-0.0018676,0.0099845,-0.00020597,0,0,0.032714,-0.015408,0,-0.00053553,0,0,0,0.03515,-0.0018687,0.0099845,-0.3188,0.014422,0.032743,1.039e-06,0.4,0.5,0
0.015479,-0.0014866,0.035098,-0.0022543,0.0098531,-0.00017604,0,0,0.032818,-0.01574,0,-0.00045769,0,0,0,0.035099,-0.0022551,0.0098531,-0.27002,0.014232,0.03301,1.0446e-06,0.41,0.5,0
0.015807,-0.0015574,0.035051,-0.0026176,0.0097301,-0.00011178,0,0,0.032917,-0.016052,0,-0.00029062,0,0,0,0.035051,-0.002618,0.0097301,-0.17002,0.014054,0.033261,1.0497e-06,0.42,0.5,0
0.016137,-0.0016241,0.035011,-0.0029533,0.0096174,-1.0488e-05,0,0,0.033012,-0.016342,0,-2.7268e-05,0,0,0,0.035011,-0.0029533,0.0096174,-0.015828,0.013892,0.033498,1.0544e-06,0.43,0.5,0
0.016468,-0.0016858,0.034979,-0.0032613,0.0095155,0.00012958,0,0,0.033103,-0.01661,0,0.0003369,0,0,0,0.03498,-0.0032617,0.0095155,0.19414,0.013745,0.03372,1.059e-06,0.44,0.5,0
0.016799,-0.0017419,0.034939,-0.0035489,0.0094169,0.00031035,0,0,0.033178,-0.016855,0,0.00080691,0,0,0,0.034941,-0.0035514,0.0094169,0.46197,0.013602,0.033922,1.0622e-06,0.45,0.5,0
0.017131,-0.0017922,0.034836,-0.0037994,0.009311,0.00050553,0,0,0.033182,-0.017043,0,0.0013144,0,0,0,0.034843,-0.003806,0.009311,0.74953,0.013449,0.034041,1.0592e-06,0.46,0.5,0
0.017463,-0.0018383,0.034776,-0.0038706,0.0092716,0.00061575,0,0,0.033156,-0.017085,0,0.001601,0,0,0,0.034786,-0.0038804,0.0092716,0.91258,0.013392,0.034052,1.0558e-06,0.47,0.5,0
0.017794,-0.0018843,0.034799,-0.0040899,0.0092128,0.0004721,0,0,0.033262,-0.017293,0,0.0012275,0,0,0,0.034805,-0.0040956,0.0092128,0.69542,0.013307,0.034244,1.0622e-06,0.48,0.5,0
0.018128,-0.0019348,0.034826,-7.3795e-05,0.010426,0.00028205,0,0,0.046756,-0.018199,0,0.0010431,0,0,0,0.034828,-7.6075e-05,0.010426,0.46182,0.015059,0.031083,9.3534e-07,0.49,0.5,0
0.018729,-0.0019813,0.035011,0.0037932,0.011641,0.00029401,0,0,0.060762,-0.020405,0,0.0015288,0,0,0,0.035014,0.0037904,0.011641,0.53954,0.016815,0.028132,8.5033e-07,0.5,0.5,0
0.019343,-0.0020198,0.035167,0.0027304,0.011369,0.00055114,0,0,0.061875,-0.022461,0,0.0028659,0,0,0,0.035177,0.002721,0.011369,0.97315,0.016422,0.029112,9.0029e-07,0.51,0.5,0
0.019967,-0.0020434,0.035268,0.0019801,0.011174,0.00085978,0,0,0.062643,-0.023905,0,0.0044708,0,0,0,0.03529,0.0019579,0.011174,1.4786,0.016141,0.029812,9.3523e-07,0.52,0.5,0
0.020596,-0.0020504,0.035257,0.0014249,0.011004,0.0011202,0,0,0.063055,-0.024907,0,0.0058249,0,0,0,0.035293,0.0013879,0.011004,1.8943,0.015895,0.030266,9.5433e-07,0.53,0.5,0
0.021228,-0.0020426,0.035187,0.0010096,0.010859,0.0013068,0,0,0.063252,-0.025608,0,0.0067953,0,0,0,0.035236,0.0009597,0.010859,2.1865,0.015685,0.030554,9.634e-07,0.54,0.5,0
0.021861,-0.0020223,0.035091,0.00070439,0.010739,0.0014277,0,0,0.063316,-0.026089,0,0.0074241,0,0,0,0.03515,0.00064522,0.010739,2.3734,0.015511,0.030728,9.6613e-07,0.55,0.5,0
0.022494,-0.001992,0.034983,0.00048516,0.010641,0.0014957,0,0,0.063291,-0.026404,0,0.0077774,0,0,0,0.035048,0.00042044,0.010641,2.4778,0.01537,0.030816,9.646e-07,0.56,0.5,0
0.023127,-0.0019537,0.034871,0.00033244,0.010561,0.0015219,0,0,0.063206,-0.026595,0,0.0079138,0,0,0,0.034938,0.00026551,0.010561,2.5181,0.015255,0.030842,9.6022e-07,0.57,0.5,0
0.023758,-0.0019094,0.03476,0.00023027,0.010497,0.0015154,0,0,0.063083,-0.026694,0,0.0078803,0,0,0,0.034826,0.00016388,0.010497,2.5082,0.015162,0.030823,9.5403e-07,0.58,0.5,0
0.024389,-0.0018606,0.034653,0.00016556,0.010445,0.0014834,0,0,0.062939,-0.026728,0,0.0077136,0,0,0,0.034716,0.00010187,0.010445,2.4584,0.015088,0.030775,9.4684e-07,0.59,0.5,0
0.025017,-0.0018086,0.034552,0.00012767,0.010404,0.0014313,0,0,0.062785,-0.026718,0,0.0074427,0,0,0,0.034612,6.8263e-05,0.010404,2.3767,0.015028,0.030709,9.3927e-07,0.6,0.5,0
0.025644,-0.0017548,0.03446,0.00010801,0.01037,0.0013636,0,0,0.062632,-0.026682,0,0.0070909,0,0,0,0.034514,5.3968e-05,0.01037,2.2697,0.014979,0.030633,9.3174e-07,0.61,0.5,0
0.02627,-0.0017,0.034377,9.9733e-05,0.010343,0.0012842,0,0,0.062488,-0.026632,0,0.0066777,0,0,0,0.034425,5.169e-05,0.010343,2.1425,0.01494,0.030556,9.2461e-07,0.62,0.5,0
0.026894,-0.0016452,0.034303,9.7451e-05,0.01032,0.0011961,0,0,0.062356,-0.026579,0,0.0062196,0,0,0,0.034345,5.5679e-05,0.01032,2.0002,0.014907,0.030482,9.181e-07,0.63,0.5,0
0.027517,-0.0015911,0.03424,9.7059e-05,0.010301,0.0011021,0,0,0.062241,-0.026531,0,0.0057311,0,0,0,0.034276,6.1519e-05,0.010301,1.8469,0.014879,0.030416,9.1236e-07,0.64,0.5,0
0.028139,-0.0015382,0.034186,9.5523e-05,0.010285,0.0010047,0,0,0.062145,-0.026492,0,0.0052246,0,0,0,0.034216,6.5937e-05,0.010285,1.6867,0.014856,0.030359,9.0748e-07,0.65,0.5,0
0.02876,-0.0014871,0.034142,9.0715e-05,0.01027,0.00090602,0,0,0.062068,-0.026466,0,0.0047113,0,0,0,0.034166,6.6625e-05,0.01027,1.5231,0.014834,0.030314,9.0349e-07,0.66,0.5,0
0.02938,-0.001438,0.034106,8.1255e-05,0.010256,0.00080779,0,0,0.06201,-0.026455,0,0.0042005,0,0,0,0.034126,6.2088e-05,0.010256,1.3592,0.014815,0.030282,9.004e-07,0.67,0.5,0
0.03,-0.0013912,0.034078,6.6366e-05,0.010243,0.00071157,0,0,0.061971,-0.026461,0,0.0037002,0,0,0,0.034093,5.1486e-05,0.010243,1.198,0.014796,0.030262,8.9816e-07,0.68,0.5,0
0.03062,-0.001347,0.034058,4.5751e-05,0.010231,0.00061865,0,0,0.06195,-0.026482,0,0.003217,0,0,0,0.034069,3.4502e-05,0.010231,1.0417,0.014778,0.030254,8.9672e-07,0.69,0.5,0
0.031239,-0.0013054,0.034043,1.9472e-05,0.010219,0.00053003,0,0,0.061944,-0.026518,0,0.0027561,0,0,0,0.034052,1.1218e-05,0.010219,0.89226,0.014761,0.030257,8.9601e-07,0.7,0.5,0
0.031858,-0.0012665,0.034034,-1.214e-05,0.010207,0.00044648,0,0,0.061952,-0.026569,0,0.0023217,0,0,0,0.03404,-1.7994e-05,0.010207,0.75119,0.014743,0.03027,8.9593e-07,0.71,0.5,0
0.032478,-0.0012303,0.03403,-4.8574e-05,0.010194,0.00036857,0,0,0.061972,-0.026632,0,0.0019166,0,0,0,0.034034,-5.256e-05,0.010194,0.61958,0.014725,0.030292,8.964e-07,0.72,0.5,0
0.033098,-0.0011968,0.034029,-8.92e-05,0.010182,0.00029668,0,0,0.062003,-0.026705,0,0.0015427,0,0,0,0.034032,-9.178e-05,0.010182,0.49817,0.014707,0.030321,8.9733e-07,0.73,0.5,0
0.033718,-0.0011658,0.034031,-0.00013333,0.010169,0.00023101,0,0,0.062041,-0.026787,0,0.0012013,0,0,0,0.034033,-0.00013489,0.010169,0.38739,0.014689,0.030357,8.9864e-07,0.74,0.5,0
0.034339,-0.0011374,0.034036,-0.00018023,0.010157,0.00017164,0,0,0.062086,-0.026876,0,0.00089253,0,0,0,0.034037,-0.00018109,0.010157,0.2874,0.014671,0.030398,9.0024e-07,0.75,0.5,0
0.03496,-0.0011113,0.034043,-0.00022921,0.010144,0.00011852,0,0,0.062136,-0.02697,0,0.0006163,0,0,0,0.034043,-0.00022962,0.010144,0.19814,0.014653,0.030442,9.0207e-07,0.76,0.5,0
0.035582,-0.0010875,0.03405,-0.00027959,0.010131,7.1512e-05,0,0,0.06219,-0.027068,0,0.00037186,0,0,0,0.03405,-0.00027974,0.010131,0.11935,0.014634,0.030488,9.0405e-07,0.77,0.5,0
0.036204,-0.0010658,0.034059,-0.00033072,0.010118,3.0409e-05,0,0,0.062245,-0.027168,0,0.00015813,0,0,0,0.034059,-0.00033075,0.010118,0.050663,0.014616,0.030537,9.0613e-07,0.78,0.5,0
0.036826,-0.0010462,0.034068,-0.00038203,0.010106,-5.0548e-06,0,0,0.062301,-0.027268,0,-2.6285e-05,0,0,0,0.034068,-0.00038203,0.010106,-0.008407,0.014597,0.030586,9.0826e-07,0.79,0.5,0
0.03745,-0.0010284,0.034077,-0.000433,0.010093,-3.5181e-05,0,0,0.062358,-0.027368,0,-0.00018294,0,0,0,0.034077,-0.00043304,0.010093,-0.058411,0.014579,0.030634,9.1039e-07,0.8,0.5,0
0.038074,-0.0010124,0.034086,-0.00048316,0.010081,-6.03e-05,0,0,0.062413,-0.027466,0,-0.00031356,0,0,0,0.034086,-0.00048327,0.010081,-0.099943,0.014561,0.030683,9.125e-07,0.81,0.5,0
0.038698,-0.00099793,0.034094,-0.00053211,0.010069,-8.0753e-05,0,0,0.062467,-0.027562,0,-0.00041992,0,0,0,0.034095,-0.0005323,0.010069,-0.13362,0.014544,0.03073,9.1454e-07,0.82,0.5,0
0.039323,-0.00098498,0.034103,-0.0005795,0.010057,-9.6891e-05,0,0,0.062519,-0.027655,0,-0.00050384,0,0,0,0.034103,-0.00057977,0.010057,-0.16007,0.014527,0.030775,9.1651e-07,0.83,0.5,0
0.039948,-0.00097338,0.03411,-0.00062505,0.010046,-0.00010906,0,0,0.062568,-0.027744,0,-0.00056713,0,0,0,0.034111,-0.00062539,0.010046,-0.17989,0.01451,0.030819,9.1838e-07,0.84,0.5,0
0.040574,-0.00096303,0.034118,-0.00066849,0.010035,-0.00011761,0,0,0.062615,-0.027828,0,-0.00061156,0,0,0,0.034118,-0.00066889,0.010035,-0.19371,0.014495,0.03086,9.2014e-07,0.85,0.5,0
0.041201,-0.00095382,0.034124,-0.00070964,0.010024,-0.00012286,0,0,0.062659,-0.027908,0,-0.00063887,0,0,0,0.034124,-0.00071007,0.010024,-0.20208,0.014479,0.030899,9.2178e-07,0.86,0.5,0
0.041827,-0.00094565,0.03413,-0.00074832,0.010014,-0.00012513,0,0,0.0627,-0.027983,0,-0.00065069,0,0,0,0.03413,-0.00074877,0.010014,-0.20556,0.014465,0.030935,9.233e-07,0.87,0.5,0
0.042455,-0.00093844,0.034135,-0.00078441,0.010005,-0.00012473,0,0,0.062738,-0.028053,0,-0.00064861,0,0,0,0.034135,-0.00078486,0.010005,-0.20466,0.014452,0.030969,9.2469e-07,0.88,0.5,0
0.043082,-0.00093209,0.03414,-0.00081781,0.0099965,-0.00012194,0,0,0.062772,-0.028117,0,-0.00063411,0,0,0,0.03414,-0.00081823,0.0099965,-0.19986,0.014439,0.030999,9.2596e-07,0.89,0.5,0
0.04371,-0.00092654,0.034144,-0.00084843,0.0099885,-0.00011703,0,0,0.062803,-0.028176,0,-0.00060858,0,0,0,0.034144,-0.00084882,0.0099885,-0.19163,0.014428,0.031027,9.271e-07,0.9,0.5,0
0.044338,-0.00092171,0.034147,-0.00087622,0.0099812,-0.00011026,0,0,0.062831,-0.028229,0,-0.00057335,0,0,0,0.034147,-0.00087657,0.0099812,-0.18038,0.014417,0.031053,9.2812e-07,0.91,0.5,0
0.044967,-0.00091754,0.03415,-0.00090114,0.0099746,-0.00010185,0,0,0.062855,-0.028277,0,-0.00052964,0,0,0,0.03415,-0.00090143,0.0099746,-0.16649,0.014408,0.031075,9.2901e-07,0.92,0.5,0
0.045595,-0.00091399,0.034152,-0.00092315,0.0099687,-9.204e-05,0,0,0.062877,-0.028319,0,-0.00047861,0,0,0,0.034152,-0.0009234,0.0099687,-0.15035,0.014399,0.031095,9.2979e-07,0.93,0.5,0
0.046224,-0.00091101,0.034154,-0.00094225,0.0099636,-8.1025e-05,0,0,0.062895,-0.028355,0,-0.00042133,0,0,0,0.034154,-0.00094244,0.0099636,-0.13227,0.014392,0.031112,9.3046e-07,0.94,0.5,0
0.046853,-0.00090855,0.034156,-0.00095841,0.0099592,-6.9005e-05,0,0,0.062911,-0.028386,0,-0.00035882,0,0,0,0.034156,-0.00095855,0.0099592,-0.11259,0.014386,0.031126,9.3101e-07,0.95,0.5,0
0.047482,-0.00090658,0.034157,-0.00097164,0.0099556,-5.6164e-05,0,0,0.062924,-0.028411,0,-0.00029205,0,0,0,0.034157,-0.00097173,0.0099556,-0.091605,0.01438,0.031138,9.3146e-07,0.96,0.5,0
0.048112,-0.00090508,0.034158,-0.00098193,0.0099528,-4.2678e-05,0,0,0.062933,-0.02843,0,-0.00022192,0,0,0,0.034158,-0.00098198,0.0099528,-0.069586,0.014376,0.031147,9.3181e-07,0.97,0.5,0
0.048741,-0.00090402,0.034159,-0.00098928,0.0099508,-2.8714e-05,0,0,0.06294,-0.028444,0,-0.00014931,0,0,0,0.034159,-0.0009893,0.0099508,-0.046808,0.014373,0.031154,9.3206e-07,0.98,0.5,0
0.04937,-0.00090339,0.034159,-0.00099368,0.0099496,-1.4435e-05,0,0,0.062944,-0.028452,0,-7.5064e-05,0,0,0,0.034159,-0.00099369,0.0099496,-0.023528,0.014372,0.031157,9.322e-07,0.99,0.5,0
0.05,-0.00090318,0.034159,-0.00099515,0.0099492,4.016e-06,0,0,0.062946,-0.028455,0,2.0883e-05,0,0,0,0.034159,-0.00099515,0.0099492,0.0065454,0.014371,0.031159,9.3225e-07,1,0.5,0
0,0,0.032662,0.013998,0.013998,-0.00013484,0,0,0.048527,-1.3552e-19,0,-0.00070116,0,0,0,0.032663,0.013997,0.013998,-0.41391,0.020219,0.018666,3.34e-07,0,0.51,0
0.00048527,-7.0116e-06,0.032635,0.013634,0.013881,-0.00011202,0,0,0.048762,-0.00064152,0,-0.0005825,0,0,0,0.032636,0.013633,0.013881,-0.33776,0.02005,0.01888,3.4545e-07,0.01,0.51,0
0.00097523,-8.6385e-06,0.032765,0.013315,0.013824,-2.2304e-05,0,0,0.049246,-0.0013232,0,-0.00011598,0,0,0,0.032765,0.013315,0.013824,-0.065704,0.019968,0.0192,3.6267e-07,0.02,0.51,0
0.0014702,-4.2039e-06,0.032901,0.012975,0.013763,8.494e-05,0,0,0.049759,-0.0020483,0,0.00044169,0,0,0,0.032902,0.012975,0.013763,0.24423,0.01988,0.019545,3.8134e-07,0.03,0.51,0
0.0019704,6.6315e-06,0.033046,0.012615,0.013698,0.00020421,0,0,0.050305,-0.0028174,0,0.0010619,0,0,0,0.033048,0.012613,0.013698,0.57258,0.019786,0.019915,4.0161e-07,0.04,0.51,0
0.0024763,2.3933e-05,0.033202,0.012235,0.013631,0.00033183,0,0,0.050884,-0.0036292,0,0.0017255,0,0,0,0.033207,0.01223,0.013631,0.90649,0.01969,0.020313,4.2357e-07,0.05,0.51,0
0.0029881,4.7518e-05,0.033371,0.01184,0.013563,0.00046508,0,0,0.051499,-0.0044804,0,0.0024184,0,0,0,0.033381,0.01183,0.013563,1.2369,0.019591,0.020738,4.4732e-07,0.06,0.51,0
0.0035063,7.6938e-05,0.033555,0.011433,0.013496,0.0006015,0,0,0.052152,-0.0053649,0,0.0031278,0,0,0,0.033571,0.011416,0.013496,1.5563,0.019495,0.021191,4.7293e-07,0.07,0.51,0
0.0040311,0.00011145,0.033759,0.011023,0.013435,0.0007379,0,0,0.052844,-0.0062702,0,0.0038371,0,0,0,0.033783,0.010999,0.013435,1.8569,0.019406,0.021669,5.0039e-07,0.08,0.51,0
0.0045632,0.00014991,0.033989,0.010625,0.013384,0.00087077,0,0,0.053572,-0.0071738,0,0.004528,0,0,0,0.034021,0.010592,0.013384,2.1315,0.019332,0.022165,5.2949e-07,0.09,0.51,0
0.0051026,0.00019073,0.034251,0.010269,0.013356,0.0009942,0,0,0.054328,-0.0080262,0,0.0051699,0,0,0,0.034292,0.010228,0.013356,2.3698,0.019292,0.022663,5.5961e-07,0.1,0.51,0
0.0056497,0.00023169,0.034533,0.009993,0.013358,0.0011053,0,0,0.055056,-0.0087486,0,0.0057478,0,0,0,0.034583,0.0099434,0.013358,2.5738,0.019295,0.023122,5.885e-07,0.11,0.51,0
0.0062037,0.00027,0.034778,0.0098932,0.013401,0.0012063,0,0,0.055578,-0.0091207,0,0.0062726,0,0,0,0.034836,0.0098349,0.013401,2.7688,0.019357,0.023422,6.0869e-07,0.12,0.51,0
0.0067613,0.00030305,0.034746,0.010131,0.013463,0.0012654,0,0,0.055335,-0.008664,0,0.0065801,0,0,0,0.03481,0.010066,0.013463,2.9351,0.019446,0.023233,5.9794e-07,0.13,0.51,0
0.0073104,0.00031955,0.034813,0.0095427,0.013307,0.0012204,0,0,0.041687,-0.0065242,0,0.0051203,0,0,0,0.034877,0.0094789,0.013307,2.8085,0.019221,0.023734,6.2368e-07,0.14,0.51,0
0.007595,0.00028269,0.034898,0.0089902,0.013167,0.00076484,0,0,0.028251,-0.0054294,0,0.0019886,0,0,0,0.034921,0.0089676,0.013167,1.6895,0.019018,0.02413,6.4852e-07,0.15,0.51,0
0.0078754,0.00022872,0.034661,0.0085149,0.012953,0.00073908,0,0,0.028221,-0.0057692,0,0.0019216,0,0,0,0.034682,0.008494,0.012953,1.6179,0.01871,0.024268,6.5128e-07,0.16,0.51,0
0.0081594,0.00016747,0.034891,0.0084958,0.013016,0.00091435,0,0,0.028438,-0.0058764,0,0.0023773,0,0,0,0.034923,0.0084642,0.013016,1.9816,0.018801,0.024502,6.6845e-07,0.17,0.51,0
0.0084442,0.00010642,0.034935,0.0082992,0.01297,0.0010815,0,0,0.028554,-0.0060722,0,0.002812,0,0,0,0.034979,0.0082554,0.01297,2.3214,0.018735,0.024705,6.8037e-07,0.18,0.51,0
0.0087305,4.5073e-05,0.035005,0.0079793,0.012895,0.0011597,0,0,0.028743,-0.0063909,0,0.0030152,0,0,0,0.035055,0.0079296,0.012895,2.4526,0.018627,0.025015,6.9833e-07,0.19,0.51,0
0.0090191,-1.7035e-05,0.035105,0.0075958,0.01281,0.0011875,0,0,0.028983,-0.0067789,0,0.0030876,0,0,0,0.035156,0.0075446,0.01281,2.4672,0.018504,0.025392,7.2044e-07,0.2,0.51,0
0.0093102,-8.0242e-05,0.035208,0.0071833,0.012717,0.0011802,0,0,0.029237,-0.0071942,0,0.0030684,0,0,0,0.035257,0.0071337,0.012717,2.4071,0.018369,0.025789,7.4361e-07,0.21,0.51,0
0.0096038,-0.00014483,0.035295,0.0067513,0.012614,0.0011449,0,0,0.029486,-0.0076215,0,0.0029768,0,0,0,0.035341,0.0067054,0.012614,2.2932,0.01822,0.026186,7.6633e-07,0.22,0.51,0
0.0098999,-0.00021105,0.035365,0.0063037,0.012501,0.0010871,0,0,0.029724,-0.0080561,0,0.0028264,0,0,0,0.035406,0.0062631,0.012501,2.1392,0.018056,0.026579,7.8819e-07,0.23,0.51,0
0.010198,-0.00027915,0.035418,0.005842,0.012378,0.001012,0,0,0.029952,-0.008497,0,0.0026313,0,0,0,0.035453,0.0058074,0.012378,1.9575,0.017879,0.026967,8.0923e-07,0.24,0.51,0
0.010499,-0.00034926,0.035457,0.0053675,0.012247,0.00092485,0,0,0.030173,-0.008944,0,0.0024046,0,0,0,0.035486,0.0053391,0.012247,1.7589,0.017691,0.027355,8.2956e-07,0.25,0.51,0
0.010802,-0.00042148,0.035484,0.0048816,0.01211,0.00082986,0,0,0.030387,-0.0093965,0,0.0021577,0,0,0,0.035507,0.0048591,0.01211,1.5522,0.017492,0.027742,8.4925e-07,0.26,0.51,0
0.011107,-0.00049581,0.0355,0.0043859,0.011966,0.00073072,0,0,0.030594,-0.0098538,0,0.0018999,0,0,0,0.035517,0.0043687,0.011966,1.3446,0.017284,0.02813,8.6831e-07,0.27,0.51,0
0.011414,-0.00057221,0.035505,0.0038822,0.011816,0.0006305,0,0,0.030796,-0.010314,0,0.0016393,0,0,0,0.035518,0.0038696,0.011816,1.1418,0.017068,0.028518,8.8669e-07,0.28,0.51,0
0.011723,-0.00065055,0.035501,0.0033729,0.011662,0.00053175,0,0,0.030991,-0.010776,0,0.0013825,0,0,0,0.03551,0.003364,0.011662,0.94793,0.016845,0.028904,9.043e-07,0.29,0.51,0
0.012033,-0.00073068,0.035487,0.0028607,0.011504,0.00043649,0,0,0.031178,-0.011237,0,0.0011349,0,0,0,0.035493,0.0028549,0.011504,0.76633,0.016618,0.029288,9.2097e-07,0.3,0.51,0
0.012346,-0.00081237,0.035463,0.0023491,0.011344,0.00034617,0,0,0.031355,-0.011693,0,0.00090004,0,0,0,0.035467,0.0023454,0.011344,0.59887,0.016385,0.029664,9.3649e-07,0.31,0.51,0
0.01266,-0.00089538,0.035428,0.0018413,0.011181,0.00026162,0,0,0.031522,-0.012141,0,0.00068021,0,0,0,0.03543,0.0018392,0.011181,0.44626,0.01615,0.03003,9.5066e-07,0.32,0.51,0
0.012977,-0.0009794,0.035382,0.0013405,0.011017,0.0001831,0,0,0.031675,-0.012579,0,0.00047606,0,0,0,0.035383,0.0013396,0.011017,0.30817,0.015913,0.030384,9.6332e-07,0.33,0.51,0
0.013294,-0.0010641,0.035326,0.00084948,0.010853,0.00011049,0,0,0.031815,-0.013004,0,0.00028727,0,0,0,0.035326,0.00084913,0.010853,0.18362,0.015676,0.030722,9.7437e-07,0.34,0.51,0
0.013613,-0.0011492,0.03526,0.00036965,0.010689,4.3644e-05,0,0,0.031942,-0.013415,0,0.00011347,0,0,0,0.03526,0.0003696,0.010689,0.071672,0.015439,0.031045,9.8383e-07,0.35,0.51,0
0.013933,-0.0012343,0.035186,-9.861e-05,0.010526,-1.7083e-05,0,0,0.032058,-0.013812,0,-4.4415e-05,0,0,0,0.035186,-9.8618e-05,0.010526,-0.02774,0.015204,0.031353,9.9186e-07,0.36,0.51,0
0.014254,-0.0013191,0.035108,-0.00055607,0.010365,-7.0279e-05,0,0,0.032165,-0.014198,0,-0.00018273,0,0,0,0.035108,-0.00055621,0.010365,-0.11291,0.014972,0.031649,9.9875e-07,0.37,0.51,0
0.014576,-0.001403,0.035029,-0.0010041,0.010207,-0.00011295,0,0,0.032268,-0.014575,0,-0.00029368,0,0,0,0.035029,-0.0010045,0.010207,-0.1796,0.014744,0.031939,1.0049e-06,0.38,0.51,0
0.014899,-0.0014855,0.034953,-0.0014439,0.010053,-0.0001403,0,0,0.03237,-0.014946,0,-0.00036477,0,0,0,0.034953,-0.0014444,0.010053,-0.22085,0.014521,0.032226,1.0105e-06,0.39,0.51,0
0.015224,-0.0015659,0.034884,-0.0018749,0.0099026,-0.00014597,0,0,0.032475,-0.015311,0,-0.00037951,0,0,0,0.034884,-0.0018755,0.0099026,-0.22751,0.014304,0.032512,1.0161e-06,0.4,0.51,0
0.015549,-0.0016437,0.034824,-0.0022936,0.009759,-0.00012325,0,0,0.032584,-0.015668,0,-0.00032045,0,0,0,0.034824,-0.002294,0.009759,-0.19025,0.014096,0.032797,1.0217e-06,0.41,0.51,0
0.015875,-0.0017178,0.034776,-0.0026927,0.0096249,-6.7282e-05,0,0,0.032696,-0.016013,0,-0.00017493,0,0,0,0.034776,-0.0026929,0.0096249,-0.10289,0.013903,0.033077,1.0274e-06,0.42,0.51,0
0.016203,-0.0017876,0.034745,-0.0030621,0.009505,2.2023e-05,0,0,0.032813,-0.016337,0,5.7259e-05,0,0,0,0.034745,-0.0030621,0.009505,0.033375,0.013729,0.03335,1.0336e-06,0.43,0.51,0
0.016532,-0.0018522,0.03475,-0.0033929,0.0094071,0.00014023,0,0,0.032946,-0.01664,0,0.00036459,0,0,0,0.03475,-0.0033934,0.0094071,0.21063,0.013588,0.033624,1.0418e-06,0.44,0.51,0
0.016862,-0.0019111,0.034813,-0.0036935,0.009336,0.00028951,0,0,0.033121,-0.016938,0,0.00075272,0,0,0,0.034816,-0.0036957,0.009336,0.43073,0.013485,0.033927,1.0543e-06,0.45,0.51,0
0.017194,-0.0019637,0.034862,-0.0040093,0.0092557,0.00050201,0,0,0.033288,-0.017245,0,0.0013052,0,0,0,0.034868,-0.0040158,0.0092557,0.7398,0.013369,0.034235,1.0661e-06,0.46,0.51,0
0.017528,-0.0020091,0.03464,-0.0042111,0.0091286,0.0006913,0,0,0.033165,-0.017342,0,0.0017974,0,0,0,0.034652,-0.0042234,0.0091286,1.0191,0.013186,0.034213,1.0513e-06,0.47,0.51,0
0.017857,-0.0020557,0.034922,-0.0034646,0.0094371,0.00057148,0,0,0.03313,-0.016772,0,0.0014859,0,0,0,0.03493,-0.0034731,0.0094371,0.85275,0.013631,0.033848,1.0595e-06,0.48,0.51,0
0.01819,-0.0021155,0.034914,0.00028258,0.010559,-1.9039e-05,0,0,0.046682,-0.017813,0,-0.00025818,0,0,0,0.034915,0.00028196,0.010559,-0.064251,0.015252,0.030873,9.3355e-07,0.49,0.51,0
0.018791,-0.002187,0.034905,0.0033238,0.011469,9.5647e-05,0,0,0.060935,-0.021177,0,0.00049736,0,0,0,0.034906,0.0033235,0.011469,0.17352,0.016566,0.0284,8.5833e-07,0.5,0.51,0
0.019409,-0.0022475,0.03513,0.0023329,0.011239,0.00051422,0,0,0.062118,-0.023156,0,0.002674,0,0,0,0.035138,0.0023248,0.011239,0.89803,0.016234,0.029389,9.1069e-07,0.51,0.51,0
0.020033,-0.0022846,0.035092,0.0016884,0.011034,0.00091939,0,0,0.062551,-0.024299,0,0.0047808,0,0,0,0.035117,0.0016631,0.011034,1.5754,0.015938,0.029892,9.3095e-07,0.52,0.51,0
0.02066,-0.0023005,0.03497,0.0012121,0.010855,0.0012113,0,0,0.0627,-0.025071,0,0.0062986,0,0,0,0.035014,0.0011687,0.010855,2.0523,0.015679,0.030191,9.3844e-07,0.53,0.51,0
0.021287,-0.0022988,0.03485,0.00086692,0.010715,0.001409,0,0,0.06275,-0.025605,0,0.0073269,0,0,0,0.034908,0.0008086,0.010715,2.3702,0.015477,0.030383,9.4112e-07,0.54,0.51,0
0.021915,-0.0022827,0.034737,0.00061904,0.010607,0.001534,0,0,0.062738,-0.025968,0,0.0079771,0,0,0,0.034806,0.0005502,0.010607,2.5693,0.015321,0.030497,9.4071e-07,0.55,0.51,0
0.022542,-0.0022551,0.034631,0.0004456,0.010523,0.0016022,0,0,0.062682,-0.026201,0,0.0083312,0,0,0,0.034706,0.00037068,0.010523,2.6774,0.0152,0.030552,9.3803e-07,0.56,0.51,0
0.023168,-0.0022185,0.034533,0.00032912,0.010459,0.0016257,0,0,0.062593,-0.026337,0,0.0084535,0,0,0,0.03461,0.00025203,0.010459,2.715,0.015107,0.030561,9.3374e-07,0.57,0.51,0
0.023794,-0.002175,0.034442,0.00025557,0.010409,0.0016142,0,0,0.062484,-0.026399,0,0.008394,0,0,0,0.034518,0.00017952,0.010409,2.6974,0.015035,0.030537,9.2839e-07,0.58,0.51,0
0.024418,-0.0021264,0.034358,0.00021344,0.010371,0.0015754,0,0,0.062365,-0.02641,0,0.0081922,0,0,0,0.03443,0.0001409,0.010371,2.6362,0.014981,0.03049,9.2246e-07,0.59,0.51,0
0.025041,-0.0020743,0.034282,0.00019322,0.010342,0.0015153,0,0,0.062242,-0.026388,0,0.0078796,0,0,0,0.034349,0.000126,0.010342,2.5402,0.014939,0.030429,9.1637e-07,0.6,0.51,0
0.025663,-0.00202,0.034214,0.00018715,0.01032,0.0014388,0,0,0.062124,-0.026347,0,0.0074817,0,0,0,0.034275,0.00012642,0.01032,2.4169,0.014907,0.030363,9.1045e-07,0.61,0.51,0
0.026284,-0.0019648,0.034156,0.00018896,0.010303,0.00135,0,0,0.062016,-0.026298,0,0.0070199,0,0,0,0.034209,0.00013539,0.010303,2.2724,0.014883,0.030298,9.0496e-07,0.62,0.51,0
0.026903,-0.0019095,0.034106,0.00019372,0.01029,0.0012524,0,0,0.061922,-0.02625,0,0.0065125,0,0,0,0.034152,0.00014753,0.01029,2.1121,0.014863,0.030238,9.0009e-07,0.63,0.51,0
0.027522,-0.0018549,0.034065,0.0001977,0.010279,0.0011491,0,0,0.061845,-0.026211,0,0.0059754,0,0,0,0.034104,0.00015876,0.010279,1.941,0.014847,0.030186,8.9598e-07,0.64,0.51,0
0.02814,-0.0018017,0.034033,0.00019819,0.010269,0.0010428,0,0,0.061786,-0.026185,0,0.0054223,0,0,0,0.034065,0.00016608,0.010269,1.7636,0.014834,0.030145,8.9268e-07,0.65,0.51,0
0.028758,-0.0017503,0.034009,0.00019337,0.010261,0.00093564,0,0,0.061746,-0.026175,0,0.0048653,0,0,0,0.034035,0.00016751,0.010261,1.5837,0.014821,0.030117,8.9025e-07,0.66,0.51,0
0.029375,-0.0017012,0.033992,0.00018218,0.010252,0.00082972,0,0,0.061724,-0.026182,0,0.0043145,0,0,0,0.034013,0.00016183,0.010252,1.4049,0.014809,0.030102,8.8866e-07,0.67,0.51,0
0.029992,-0.0016546,0.033982,0.00016413,0.010244,0.00072662,0,0,0.061719,-0.026207,0,0.0037784,0,0,0,0.033998,0.00014852,0.010244,1.2303,0.014797,0.030099,8.8787e-07,0.68,0.51,0
0.03061,-0.0016107,0.033978,0.00013921,0.010235,0.00062765,0,0,0.061731,-0.026249,0,0.0032638,0,0,0,0.033989,0.00012757,0.010235,1.0623,0.014784,0.030109,8.8782e-07,0.69,0.51,0
0.031227,-0.0015696,0.033979,0.00010774,0.010226,0.00053385,0,0,0.061757,-0.026307,0,0.002776,0,0,0,0.033987,9.9327e-05,0.010226,0.90277,0.014771,0.030129,8.8842e-07,0.7,0.51,0
0.031845,-0.0015313,0.033984,7.0293e-05,0.010216,0.00044598,0,0,0.061795,-0.026379,0,0.0023191,0,0,0,0.033989,6.4429e-05,0.010216,0.7533,0.014757,0.030159,8.896e-07,0.71,0.51,0
0.032463,-0.0014958,0.033992,2.7594e-05,0.010206,0.00036455,0,0,0.061844,-0.026463,0,0.0018957,0,0,0,0.033996,2.3682e-05,0.010206,0.61488,0.014742,0.030197,8.9125e-07,0.72,0.51,0
0.033081,-0.0014631,0.034003,-1.9544e-05,0.010195,0.00028988,0,0,0.0619,-0.026558,0,0.0015074,0,0,0,0.034005,-2.2014e-05,0.010195,0.48813,0.014726,0.030242,8.9328e-07,0.73,0.51,0
0.033701,-0.001433,0.034016,-7.0274e-05,0.010184,0.00022211,0,0,0.061963,-0.02666,0,0.001155,0,0,0,0.034017,-7.1721e-05,0.010184,0.37333,0.01471,0.030292,8.9561e-07,0.74,0.51,0
0.034321,-0.0014056,0.03403,-0.00012375,0.010172,0.00016124,0,0,0.062031,-0.026769,0,0.00083845,0,0,0,0.034031,-0.00012451,0.010172,0.27049,0.014693,0.030347,8.9815e-07,0.75,0.51,0
0.034941,-0.0013805,0.034045,-0.00017916,0.01016,0.00010714,0,0,0.062101,-0.026881,0,0.00055712,0,0,0,0.034045,-0.0001795,0.01016,0.17936,0.014675,0.030403,9.0084e-07,0.76,0.51,0
0.035563,-0.0013578,0.03406,-0.00023574,0.010147,5.9593e-05,0,0,0.062173,-0.026996,0,0.00030988,0,0,0,0.03406,-0.00023585,0.010147,0.099558,0.014657,0.030462,9.0361e-07,0.77,0.51,0
0.036185,-0.0013372,0.034075,-0.00029281,0.010135,1.8321e-05,0,0,0.062246,-0.027112,0,9.5268e-05,0,0,0,0.034075,-0.00029282,0.010135,0.030543,0.014639,0.030521,9.064e-07,0.78,0.51,0
0.036808,-0.0013187,0.03409,-0.00034973,0.010122,-1.7012e-05,0,0,0.062317,-0.027227,0,-8.8462e-05,0,0,0,0.03409,-0.00034974,0.010122,-0.028302,0.014621,0.03058,9.0917e-07,0.79,0.51,0
0.037431,-0.001302,0.034105,-0.00040596,0.01011,-4.6771e-05,0,0,0.062387,-0.027341,0,-0.00024321,0,0,0,0.034105,-0.00040602,0.01011,-0.077651,0.014603,0.030638,9.1187e-07,0.8,0.51,0
0.038055,-0.001287,0.034118,-0.00046102,0.010097,-7.1342e-05,0,0,0.062455,-0.027451,0,-0.00037098,0,0,0,0.034118,-0.00046116,0.010097,-0.11821,0.014585,0.030694,9.1449e-07,0.81,0.51,0
0.03868,-0.0012735,0.034131,-0.00051449,0.010085,-9.1118e-05,0,0,0.06252,-0.027558,0,-0.00047381,0,0,0,0.034131,-0.00051473,0.010085,-0.15069,0.014567,0.030748,9.1698e-07,0.82,0.51,0
0.039306,-0.0012616,0.034143,-0.00056603,0.010073,-0.00010649,0,0,0.062581,-0.027661,0,-0.00055375,0,0,0,0.034143,-0.00056636,0.010073,-0.17579,0.01455,0.0308,9.1935e-07,0.83,0.51,0
0.039932,-0.0012509,0.034153,-0.00061537,0.010061,-0.00011784,0,0,0.062639,-0.027759,0,-0.00061279,0,0,0,0.034154,-0.00061577,0.010061,-0.1942,0.014533,0.030849,9.2156e-07,0.84,0.51,0
0.040559,-0.0012414,0.034163,-0.00066226,0.01005,-0.00012555,0,0,0.062693,-0.027852,0,-0.00065286,0,0,0,0.034163,-0.00066271,0.01005,-0.20656,0.014517,0.030895,9.2363e-07,0.85,0.51,0
0.041186,-0.0012331,0.034172,-0.00070651,0.010039,-0.00012997,0,0,0.062743,-0.02794,0,-0.00067582,0,0,0,0.034172,-0.000707,0.010039,-0.2135,0.014502,0.030939,9.2553e-07,0.86,0.51,0
0.041814,-0.0012257,0.034179,-0.00074799,0.010029,-0.00013143,0,0,0.062789,-0.028021,0,-0.00068341,0,0,0,0.03418,-0.00074848,0.010029,-0.21559,0.014487,0.030979,9.2728e-07,0.87,0.51,0
0.042442,-0.0012192,0.034186,-0.00078657,0.01002,-0.00013025,0,0,0.062832,-0.028096,0,-0.00067728,0,0,0,0.034186,-0.00078706,0.01002,-0.21338,0.014473,0.031016,9.2886e-07,0.88,0.51,0
0.04307,-0.0012135,0.034192,-0.00082218,0.010011,-0.00012673,0,0,0.06287,-0.028166,0,-0.00065897,0,0,0,0.034192,-0.00082263,0.010011,-0.20737,0.01446,0.031049,9.303e-07,0.89,0.51,0
0.043699,-0.0012086,0.034197,-0.00085475,0.010003,-0.00012114,0,0,0.062905,-0.028229,0,-0.00062992,0,0,0,0.034197,-0.00085516,0.010003,-0.19801,0.014448,0.03108,9.3158e-07,0.9,0.51,0
0.044328,-0.0012043,0.034201,-0.00088424,0.009995,-0.00011374,0,0,0.062935,-0.028286,0,-0.00059145,0,0,0,0.034201,-0.00088461,0.009995,-0.18574,0.014437,0.031107,9.3271e-07,0.91,0.51,0
0.044958,-0.0012006,0.034204,-0.00091064,0.0099882,-0.00010477,0,0,0.062963,-0.028337,0,-0.00054481,0,0,0,0.034205,-0.00091095,0.0099882,-0.17095,0.014427,0.031132,9.3371e-07,0.92,0.51,0
0.045587,-0.0011975,0.034208,-0.00093392,0.0099821,-9.445e-05,0,0,0.062986,-0.028382,0,-0.00049114,0,0,0,0.034208,-0.00093417,0.0099821,-0.15399,0.014419,0.031153,9.3457e-07,0.93,0.51,0
0.046217,-0.0011949,0.03421,-0.00095408,0.0099768,-8.2981e-05,0,0,0.063006,-0.02842,0,-0.0004315,0,0,0,0.03421,-0.00095427,0.0099768,-0.13521,0.014411,0.031171,9.353e-07,0.94,0.51,0
0.046848,-0.0011927,0.034212,-0.00097112,0.0099722,-7.0555e-05,0,0,0.063023,-0.028453,0,-0.00036689,0,0,0,0.034212,-0.00097127,0.0099722,-0.1149,0.014404,0.031186,9.3591e-07,0.95,0.51,0
0.047478,-0.001191,0.034213,-0.00098506,0.0099685,-5.7351e-05,0,0,0.063037,-0.028479,0,-0.00029822,0,0,0,0.034214,-0.00098515,0.0099685,-0.093355,0.014399,0.031199,9.364e-07,0.96,0.51,0
0.048108,-0.0011897,0.034215,-0.00099589,0.0099656,-4.3536e-05,0,0,0.063047,-0.0285,0,-0.00022639,0,0,0,0.034215,-0.00099594,0.0099656,-0.070844,0.014395,0.031209,9.3678e-07,0.97,0.51,0
0.048739,-0.0011888,0.034215,-0.0010036,0.0099635,-2.9271e-05,0,0,0.063055,-0.028515,0,-0.00015221,0,0,0,0.034215,-0.0010036,0.0099635,-0.04762,0.014392,0.031215,9.3705e-07,0.98,0.51,0
0.049369,-0.0011883,0.034216,-0.0010083,0.0099623,-1.4709e-05,0,0,0.063059,-0.028523,0,-7.6489e-05,0,0,0,0.034216,-0.0010083,0.0099623,-0.023926,0.01439,0.03122,9.3721e-07,0.99,0.51,0
0.05,-0.0011881,0.034216,-0.0010098,0.0099618,3.4669e-06,0,0,0.063061,-0.028526,0,1.8028e-05,0,0,0,0.034216,-0.0010098,0.0099618,0.0056391,0.014389,0.031221,9.3726e-07,1,0.51,0
0,0,0.032564,0.013956,0.013956,-0.00026457,0,0,0.048381,5.421e-20,0,-0.0013758,0,0,0,0.032568,0.013952,0.013956,-0.81441,0.020159,0.018614,3.3124e-07,0,0.52,0
0.00048381,-1.3758e-05,0.032534,0.013557,0.013827,-0.00024389,0,0,0.048638,-0.00070355,0,-0.0012682,0,0,0,0.032537,0.013553,0.013827,-0.73617,0.019973,0.018848,3.4367e-07,0.01,0.52,0
0.00097276,-2.2441e-05,0.032678,0.013219,0.013769,-0.00016116,0,0,0.049163,-0.0014301,0,-0.00083801,0,0,0,0.032679,0.013218,0.013769,-0.47447,0.019889,0.019192,3.6204e-07,0.02,0.52,0
0.0014671,-2.5447e-05,0.03283,0.012867,0.013709,-6.3173e-05,0,0,0.049715,-0.0021902,0,-0.0003285,0,0,0,0.03283,0.012866,0.013709,-0.18131,0.019802,0.019556,3.8173e-07,0.03,0.52,0
0.0019671,-2.2472e-05,0.032995,0.012498,0.013648,4.477e-05,0,0,0.050302,-0.0029893,0,0.0002328,0,0,0,0.032995,0.012498,0.013648,0.12515,0.019714,0.019947,4.0304e-07,0.04,0.52,0
0.0024731,-1.3456e-05,0.033175,0.012114,0.013587,0.0001587,0,0,0.05093,-0.0038293,0,0.00082523,0,0,0,0.033176,0.012113,0.013587,0.4317,0.019625,0.020366,4.2623e-07,0.05,0.52,0
0.0029856,1.4367e-06,0.033374,0.011716,0.013527,0.00027526,0,0,0.051602,-0.0047087,0,0.0014314,0,0,0,0.033377,0.011712,0.013527,0.72804,0.019539,0.020817,4.5148e-07,0.06,0.52,0
0.0035051,2.1817e-05,0.033596,0.01131,0.013472,0.00039108,0,0,0.052324,-0.0056218,0,0.0020336,0,0,0,0.033603,0.011303,0.013472,1.005,0.019459,0.021299,4.7894e-07,0.07,0.52,0
0.0040321,4.7052e-05,0.033846,0.010903,0.013425,0.00050234,0,0,0.053096,-0.0065558,0,0.0026122,0,0,0,0.033857,0.010892,0.013425,1.2537,0.019392,0.021809,5.0864e-07,0.08,0.52,0
0.0045671,7.6253e-05,0.03413,0.010515,0.013394,0.00060429,0,0,0.053916,-0.0074845,0,0.0031423,0,0,0,0.034146,0.0105,0.013394,1.4649,0.019346,0.02234,5.4039e-07,0.09,0.52,0
0.0051104,0.00010826,0.034453,0.010171,0.013387,0.00069216,0,0,0.054772,-0.008362,0,0.0035992,0,0,0,0.034473,0.010152,0.013387,1.6314,0.019337,0.022876,5.7359e-07,0.1,0.52,0
0.0056625,0.00014174,0.03483,0.0099275,0.013427,0.00076495,0,0,0.055647,-0.0090994,0,0.0039777,0,0,0,0.034854,0.0099041,0.013427,1.7578,0.019395,0.023388,6.0708e-07,0.11,0.52,0
0.0062234,0.00017581,0.035305,0.0098835,0.013557,0.00084066,0,0,0.056546,-0.0095499,0,0.0043714,0,0,0,0.035333,0.0098558,0.013557,1.892,0.019582,0.023843,6.3998e-07,0.12,0.52,0
0.0067934,0.00021102,0.035906,0.010199,0.013832,0.0010105,0,0,0.057393,-0.009444,0,0.0052545,0,0,0,0.035946,0.01016,0.013832,2.2476,0.019979,0.02416,6.6826e-07,0.13,0.52,0
0.0073713,0.00025409,0.035326,0.0089227,0.013274,0.00063227,0,0,0.043112,-0.0075432,0,0.0033214,0,0,0,0.035359,0.0088896,0.013274,1.4394,0.019174,0.024598,6.7549e-07,0.14,0.52,0
0.0076557,0.00022939,0.035771,0.0088693,0.013392,0.0013303,0,0,0.029093,-0.0058797,0,0.0034588,0,0,0,0.035837,0.0088037,0.013392,2.8241,0.019344,0.025056,7.1742e-07,0.15,0.52,0
0.0079531,0.00016712,0.036032,0.0085191,0.013365,0.00092164,0,0,0.029467,-0.0063003,0,0.0023963,0,0,0,0.036063,0.0084882,0.013365,1.9164,0.019306,0.025489,7.4661e-07,0.16,0.52,0
0.008245,0.00010663,0.035542,0.0084898,0.01321,0.0010423,0,0,0.029033,-0.0061359,0,0.00271,0,0,0,0.035583,0.0084497,0.01321,2.2031,0.019081,0.025094,7.1413e-07,0.17,0.52,0
0.0085338,4.4599e-05,0.035282,0.0082731,0.013066,0.001057,0,0,0.02888,-0.0062314,0,0.0027482,0,0,0,0.035323,0.0082318,0.013066,2.2377,0.018874,0.025027,7.0487e-07,0.18,0.52,0
0.0088226,-1.9432e-05,0.035237,0.0079448,0.012955,0.0010782,0,0,0.028967,-0.0065127,0,0.0028034,0,0,0,0.03528,0.0079023,0.012955,2.2589,0.018712,0.025233,7.1495e-07,0.19,0.52,0
0.0091131,-8.5137e-05,0.035283,0.0075863,0.012861,0.0010991,0,0,0.029149,-0.006857,0,0.0028577,0,0,0,0.035327,0.0075427,0.012861,2.2689,0.018577,0.025544,7.3249e-07,0.2,0.52,0
0.0094056,-0.00015227,0.035341,0.0072014,0.012763,0.001104,0,0,0.029351,-0.0072296,0,0.0028705,0,0,0,0.035384,0.0071582,0.012763,2.2434,0.018435,0.025883,7.517e-07,0.21,0.52,0
0.0097001,-0.00022095,0.035392,0.0067953,0.012656,0.0010837,0,0,0.029556,-0.0076192,0,0.0028176,0,0,0,0.035433,0.0067543,0.012656,2.1671,0.018281,0.026231,7.7108e-07,0.22,0.52,0
0.0099967,-0.00029138,0.035433,0.0063676,0.01254,0.0010398,0,0,0.02976,-0.0080243,0,0.0027035,0,0,0,0.03547,0.0063304,0.01254,2.0463,0.018114,0.026584,7.9031e-07,0.23,0.52,0
0.010295,-0.00036378,0.035463,0.0059202,0.012415,0.00097725,0,0,0.029963,-0.0084433,0,0.0025408,0,0,0,0.035496,0.0058879,0.012415,1.8925,0.017933,0.026944,8.0932e-07,0.24,0.52,0
0.010596,-0.00043829,0.035484,0.0054554,0.012282,0.00090134,0,0,0.030163,-0.0088744,0,0.0023435,0,0,0,0.035511,0.0054284,0.012282,1.7177,0.01774,0.027309,8.2809e-07,0.25,0.52,0
0.010899,-0.00051499,0.035495,0.0049753,0.012141,0.00081671,0,0,0.03036,-0.0093157,0,0.0021234,0,0,0,0.035517,0.0049534,0.012141,1.5318,0.017537,0.027679,8.4652e-07,0.26,0.52,0
0.011203,-0.00059386,0.035497,0.0044819,0.011994,0.00072733,0,0,0.030554,-0.0097653,0,0.0018911,0,0,0,0.035514,0.0044649,0.011994,1.3426,0.017324,0.028053,8.6452e-07,0.27,0.52,0
0.01151,-0.00067484,0.035489,0.0039776,0.01184,0.00063666,0,0,0.030744,-0.010221,0,0.0016553,0,0,0,0.035502,0.0039648,0.01184,1.157,0.017102,0.02843,8.8196e-07,0.28,0.52,0
0.011818,-0.00075779,0.035471,0.0034652,0.011681,0.0005477,0,0,0.030927,-0.01068,0,0.001424,0,0,0,0.03548,0.0034558,0.011681,0.98009,0.016872,0.028807,8.9866e-07,0.29,0.52,0
0.012128,-0.00084252,0.035443,0.002948,0.011517,0.0004629,0,0,0.031103,-0.01114,0,0.0012035,0,0,0,0.035449,0.0029414,0.011517,0.81598,0.016636,0.029181,9.1439e-07,0.3,0.52,0
0.01244,-0.00092877,0.035402,0.0024299,0.01135,0.00038398,0,0,0.031268,-0.011595,0,0.00099836,0,0,0,0.035407,0.0024255,0.01135,0.66713,0.016394,0.029548,9.2885e-07,0.31,0.52,0
0.012754,-0.0010163,0.035349,0.0019154,0.011179,0.00031178,0,0,0.03142,-0.012043,0,0.00081062,0,0,0,0.035352,0.0019125,0.011179,0.53424,0.016148,0.029903,9.4177e-07,0.32,0.52,0
0.013069,-0.0011046,0.035282,0.0014083,0.011007,0.00024613,0,0,0.031557,-0.012478,0,0.00063994,0,0,0,0.035283,0.0014065,0.011007,0.41629,0.015899,0.030242,9.5289e-07,0.33,0.52,0
0.013385,-0.0011936,0.035201,0.00091185,0.010834,0.00018608,0,0,0.031677,-0.012899,0,0.0004838,0,0,0,0.035202,0.00091084,0.010834,0.31092,0.015649,0.030562,9.6207e-07,0.34,0.52,0
0.013702,-0.0012828,0.035107,0.00042759,0.01066,0.00013027,0,0,0.031781,-0.013303,0,0.0003387,0,0,0,0.035107,0.0004271,0.01066,0.21522,0.015398,0.030864,9.6934e-07,0.35,0.52,0
0.01402,-0.0013718,0.035003,-4.4784e-05,0.010488,7.7609e-05,0,0,0.03187,-0.013692,0,0.00020178,0,0,0,0.035003,-4.4956e-05,0.010488,0.12687,0.015149,0.031148,9.7493e-07,0.36,0.52,0
0.014339,-0.0014604,0.034893,-0.00050749,0.010316,2.8124e-05,0,0,0.031951,-0.01407,0,7.3123e-05,0,0,0,0.034893,-0.00050751,0.010316,0.045519,0.014901,0.03142,9.7926e-07,0.37,0.52,0
0.014659,-0.0015481,0.034783,-0.00096409,0.010146,-1.6192e-05,0,0,0.032028,-0.014443,0,-4.2098e-05,0,0,0,0.034783,-0.0009641,0.010146,-0.025952,0.014655,0.031688,9.829e-07,0.38,0.52,0
0.01498,-0.0016343,0.034678,-0.0014182,0.009978,-5.0746e-05,0,0,0.03211,-0.014815,0,-0.00013194,0,0,0,0.034678,-0.0014183,0.009978,-0.080549,0.014413,0.03196,9.8647e-07,0.39,0.52,0
0.015302,-0.0017185,0.034585,-0.0018716,0.009814,-6.8308e-05,0,0,0.032202,-0.015191,0,-0.0001776,0,0,0,0.034585,-0.0018717,0.009814,-0.10735,0.014176,0.032243,9.9051e-07,0.4,0.52,0
0.015624,-0.0018,0.034507,-0.0023216,0.0096556,-6.011e-05,0,0,0.032307,-0.01557,0,-0.00015629,0,0,0,0.034507,-0.0023217,0.0096556,-0.093515,0.013947,0.032538,9.9525e-07,0.41,0.52,0
0.015948,-0.0018777,0.034445,-0.0027586,0.0095058,-1.8946e-05,0,0,0.03242,-0.015944,0,-4.9261e-05,0,0,0,0.034445,-0.0027586,0.0095058,-0.029179,0.013731,0.032836,1.0005e-06,0.42,0.52,0
0.016272,-0.0019508,0.034399,-0.0031631,0.0093708,5.4702e-05,0,0,0.032537,-0.016294,0,0.00014222,0,0,0,0.034399,-0.0031631,0.0093708,0.08344,0.013536,0.033124,1.0061e-06,0.43,0.52,0
0.016598,-0.0020186,0.034382,-0.003511,0.0092612,0.00014339,0,0,0.032657,-0.016604,0,0.00037283,0,0,0,0.034382,-0.0035115,0.0092612,0.21682,0.013377,0.033393,1.0124e-06,0.44,0.52,0
0.016926,-0.0020807,0.034468,-0.0037757,0.0092077,0.00021617,0,0,0.032838,-0.016878,0,0.00056203,0,0,0,0.034469,-0.0037769,0.0092077,0.32384,0.0133,0.033686,1.0257e-06,0.45,0.52,0
0.017255,-0.0021371,0.034823,-0.003993,0.0092491,0.00028742,0,0,0.033246,-0.017215,0,0.00074729,0,0,0,0.034825,-0.0039952,0.0092491,0.42422,0.01336,0.03418,1.0618e-06,0.46,0.52,0
0.017591,-0.0021851,0.035228,-0.0043595,0.0092607,0.0005067,0,0,0.033758,-0.017706,0,0.0013174,0,0,0,0.035235,-0.0043659,0.0092607,0.73319,0.013376,0.034847,1.1068e-06,0.47,0.52,0
0.01793,-0.0022198,0.035021,-0.0033528,0.0095005,5.5487e-05,0,0,0.033177,-0.016709,0,0.00014427,0,0,0,0.035021,-0.0033529,0.0095005,0.082847,0.013723,0.033831,1.0648e-06,0.48,0.52,0
0.018254,-0.0022911,0.034758,3.6992e-05,0.010438,0.00042907,0,0,0.047044,-0.018029,0,0.00077813,0,0,0,0.034775,1.9796e-05,0.010438,0.58253,0.015078,0.030972,9.1799e-07,0.49,0.52,0
0.018871,-0.0024049,0.035284,0.002833,0.011435,0.00013114,0,0,0.062006,-0.022365,0,0.00068191,0,0,0,0.035284,0.0028324,0.011435,0.23154,0.016517,0.029119,9.0498e-07,0.5,0.52,0
0.019494,-0.0024829,0.035033,0.0019863,0.011106,0.00068371,0,0,0.06221,-0.02371,0,0.0035553,0,0,0,0.035047,0.0019722,0.011106,1.1847,0.016042,0.029585,9.1512e-07,0.51,0.52,0
0.020116,-0.0025294,0.034717,0.0013906,0.010832,0.0010758,0,0,0.062101,-0.024549,0,0.0055942,0,0,0,0.034752,0.0013559,0.010832,1.847,0.015647,0.02981,9.114e-07,0.52,0.52,0
0.020736,-0.0025518,0.03453,0.00099739,0.010658,0.0013398,0,0,0.062066,-0.025118,0,0.0069668,0,0,0,0.034583,0.00094395,0.010658,2.2844,0.015395,0.029986,9.1073e-07,0.53,0.52,0
0.021357,-0.0025547,0.034397,0.00072447,0.010536,0.0015192,0,0,0.062037,-0.025511,0,0.0078997,0,0,0,0.034465,0.00065607,0.010536,2.578,0.015219,0.03011,9.1004e-07,0.54,0.52,0
0.021977,-0.0025417,0.034294,0.0005358,0.010449,0.0016313,0,0,0.061996,-0.025774,0,0.0084825,0,0,0,0.034372,0.00045716,0.010449,2.7601,0.015093,0.030186,9.0855e-07,0.55,0.52,0
0.022597,-0.002516,0.034209,0.00040969,0.010386,0.0016895,0,0,0.061941,-0.025937,0,0.0087855,0,0,0,0.034293,0.00032545,0.010386,2.8546,0.015001,0.030221,9.0613e-07,0.56,0.52,0
0.023216,-0.0024805,0.034138,0.00033082,0.010341,0.0017047,0,0,0.061873,-0.026025,0,0.0088644,0,0,0,0.034223,0.00024508,0.010341,2.8794,0.014936,0.030223,9.0292e-07,0.57,0.52,0
0.023834,-0.0024374,0.034077,0.0002871,0.010309,0.0016855,0,0,0.061796,-0.026057,0,0.0087644,0,0,0,0.034161,0.00020323,0.010309,2.8485,0.014891,0.0302,8.9913e-07,0.58,0.52,0
0.024452,-0.0023888,0.034024,0.0002685,0.010288,0.0016389,0,0,0.061715,-0.02605,0,0.0085224,0,0,0,0.034104,0.00018912,0.010288,2.7732,0.01486,0.030161,8.9504e-07,0.59,0.52,0
0.025068,-0.0023364,0.03398,0.00026668,0.010274,0.0015709,0,0,0.061635,-0.026019,0,0.0081689,0,0,0,0.034053,0.00019363,0.010274,2.6621,0.01484,0.030112,8.9092e-07,0.6,0.52,0
0.025684,-0.0022817,0.033943,0.00027466,0.010265,0.0014864,0,0,0.061562,-0.025976,0,0.0077291,0,0,0,0.034008,0.00020917,0.010265,2.5229,0.014828,0.03006,8.8699e-07,0.61,0.52,0
0.0263,-0.002226,0.033914,0.00028679,0.01026,0.0013894,0,0,0.061499,-0.025931,0,0.007225,0,0,0,0.033971,0.00022948,0.01026,2.362,0.01482,0.030011,8.8348e-07,0.62,0.52,0
0.026914,-0.0021702,0.033892,0.00029857,0.010257,0.0012837,0,0,0.06145,-0.025892,0,0.0066754,0,0,0,0.033941,0.00024958,0.010257,2.1853,0.014816,0.029968,8.8054e-07,0.63,0.52,0
0.027529,-0.0021153,0.033877,0.00030666,0.010255,0.0011726,0,0,0.061417,-0.025866,0,0.0060972,0,0,0,0.033918,0.00026576,0.010255,1.998,0.014813,0.029935,8.7829e-07,0.64,0.52,0
0.028143,-0.0020619,0.033869,0.00030871,0.010253,0.0010587,0,0,0.061401,-0.025856,0,0.0055052,0,0,0,0.033902,0.00027534,0.010253,1.8051,0.01481,0.029913,8.7681e-07,0.65,0.52,0
0.028757,-0.0020106,0.033867,0.00030326,0.010251,0.00094464,0,0,0.061402,-0.025865,0,0.0049121,0,0,0,0.033894,0.00027669,0.010251,1.6108,0.014807,0.029905,8.7612e-07,0.66,0.52,0
0.029371,-0.0019616,0.033872,0.00028959,0.010248,0.00083247,0,0,0.06142,-0.025893,0,0.0043288,0,0,0,0.033892,0.00026897,0.010248,1.4191,0.014803,0.029909,8.762e-07,0.67,0.52,0
0.029985,-0.0019154,0.033881,0.00026757,0.010245,0.00072389,0,0,0.061454,-0.02594,0,0.0037642,0,0,0,0.033896,0.00025198,0.010245,1.2331,0.014798,0.029927,8.7701e-07,0.68,0.52,0
0.0306,-0.001872,0.033894,0.0002375,0.01024,0.00062028,0,0,0.061503,-0.026005,0,0.0032254,0,0,0,0.033906,0.00022607,0.01024,1.0554,0.01479,0.029956,8.7848e-07,0.69,0.52,0
0.031215,-0.0018315,0.033911,0.0002,0.010233,0.00052265,0,0,0.061563,-0.026087,0,0.0027178,0,0,0,0.033919,0.0001919,0.010233,0.88801,0.014782,0.029995,8.8052e-07,0.7,0.52,0
0.031831,-0.0017941,0.033931,0.00015592,0.010226,0.00043175,0,0,0.061633,-0.026183,0,0.0022451,0,0,0,0.033937,0.0001504,0.010226,0.73226,0.014771,0.030044,8.8304e-07,0.71,0.52,0
0.032448,-0.0017596,0.033953,0.00010622,0.010218,0.00034806,0,0,0.061712,-0.02629,0,0.0018099,0,0,0,0.033957,0.00010264,0.010218,0.5891,0.014759,0.030099,8.8595e-07,0.72,0.52,0
0.033065,-0.0017279,0.033976,5.1889e-05,0.010208,0.00027181,0,0,0.061796,-0.026407,0,0.0014134,0,0,0,0.033978,4.9711e-05,0.010208,0.45903,0.014745,0.030161,8.8915e-07,0.73,0.52,0
0.033684,-0.001699,0.034,-6.0438e-06,0.010198,0.00020307,0,0,0.061885,-0.026531,0,0.001056,0,0,0,0.034001,-7.2565e-06,0.010198,0.34214,0.014731,0.030227,8.9255e-07,0.74,0.52,0
0.034303,-0.0016727,0.034024,-6.6607e-05,0.010187,0.00014177,0,0,0.061976,-0.02666,0,0.00073719,0,0,0,0.034025,-6.7197e-05,0.010187,0.23826,0.014715,0.030295,8.9607e-07,0.75,0.52,0
0.034923,-0.0016489,0.034048,-0.00012889,0.010176,8.7683e-05,0,0,0.062067,-0.026792,0,0.00045595,0,0,0,0.034048,-0.00012911,0.010176,0.147,0.014698,0.030366,8.9965e-07,0.76,0.52,0
0.035544,-0.0016274,0.034071,-0.00019205,0.010164,4.0527e-05,0,0,0.062158,-0.026925,0,0.00021074,0,0,0,0.034071,-0.00019209,0.010164,0.067772,0.014681,0.030436,9.0322e-07,0.77,0.52,0
0.036166,-0.0016081,0.034093,-0.00025533,0.010151,-5.9327e-08,0,0,0.062248,-0.027057,0,-3.085e-07,0,0,0,0.034093,-0.00025533,0.010151,-9.8964e-05,0.014663,0.030506,9.0673e-07,0.78,0.52,0
0.036789,-0.0015907,0.034113,-0.00031809,0.010139,-3.4479e-05,0,0,0.062335,-0.027187,0,-0.00017929,0,0,0,0.034113,-0.00031812,0.010139,-0.057374,0.014645,0.030575,9.1014e-07,0.79,0.52,0
0.037413,-0.0015752,0.034133,-0.00037975,0.010126,-6.3159e-05,0,0,0.062418,-0.027315,0,-0.00032842,0,0,0,0.034133,-0.00037986,0.010126,-0.10485,0.014626,0.030642,9.1342e-07,0.8,0.52,0
0.038038,-0.0015614,0.034151,-0.00043981,0.010113,-8.6539e-05,0,0,0.062498,-0.027438,0,-0.00045,0,0,0,0.034151,-0.00044003,0.010113,-0.14334,0.014608,0.030706,9.1653e-07,0.81,0.52,0
0.038663,-0.0015491,0.034167,-0.00049788,0.010101,-0.00010506,0,0,0.062573,-0.027557,0,-0.0005463,0,0,0,0.034168,-0.0004982,0.010101,-0.17364,0.01459,0.030767,9.1947e-07,0.82,0.52,0
0.039289,-0.0015382,0.034182,-0.00055362,0.010089,-0.00011915,0,0,0.062644,-0.02767,0,-0.00061957,0,0,0,0.034183,-0.00055402,0.010089,-0.19653,0.014573,0.030826,9.2221e-07,0.83,0.52,0
0.039916,-0.0015286,0.034196,-0.00060675,0.010077,-0.00012923,0,0,0.06271,-0.027777,0,-0.00067198,0,0,0,0.034196,-0.00060723,0.010077,-0.21274,0.014555,0.03088,9.2476e-07,0.84,0.52,0
0.040543,-0.0015201,0.034208,-0.00065706,0.010065,-0.00013569,0,0,0.062771,-0.027878,0,-0.00070559,0,0,0,0.034208,-0.00065759,0.010065,-0.22299,0.014539,0.030931,9.2711e-07,0.85,0.52,0
0.041171,-0.0015126,0.034218,-0.00070438,0.010054,-0.00013892,0,0,0.062827,-0.027972,0,-0.00072236,0,0,0,0.034219,-0.00070493,0.010054,-0.22791,0.014523,0.030979,9.2926e-07,0.86,0.52,0
0.0418,-0.0015061,0.034228,-0.00074859,0.010044,-0.00013925,0,0,0.062878,-0.02806,0,-0.00072411,0,0,0,0.034228,-0.00074915,0.010044,-0.22811,0.014507,0.031022,9.3121e-07,0.87,0.52,0
0.042429,-0.0015004,0.034236,-0.0007896,0.010034,-0.00013703,0,0,0.062925,-0.028141,0,-0.00071255,0,0,0,0.034236,-0.00079014,0.010034,-0.22415,0.014493,0.031062,9.3298e-07,0.88,0.52,0
0.043058,-0.0014954,0.034243,-0.00082735,0.010025,-0.00013255,0,0,0.062967,-0.028215,0,-0.00068925,0,0,0,0.034243,-0.00082785,0.010025,-0.21655,0.01448,0.031099,9.3456e-07,0.89,0.52,0
0.043688,-0.0014911,0.034248,-0.0008618,0.010016,-0.00012609,0,0,0.063004,-0.028282,0,-0.00065565,0,0,0,0.034249,-0.00086225,0.010016,-0.20575,0.014467,0.031132,9.3596e-07,0.9,0.52,0
0.044318,-0.0014874,0.034253,-0.00089292,0.010008,-0.0001179,0,0,0.063037,-0.028343,0,-0.00061309,0,0,0,0.034254,-0.00089332,0.010008,-0.1922,0.014456,0.031161,9.372e-07,0.91,0.52,0
0.044949,-0.0014843,0.034257,-0.00092072,0.010001,-0.00010823,0,0,0.063067,-0.028397,0,-0.0005628,0,0,0,0.034258,-0.00092106,0.010001,-0.17628,0.014446,0.031187,9.3828e-07,0.92,0.52,0
0.04558,-0.0014816,0.034261,-0.0009452,0.0099947,-9.7286e-05,0,0,0.063092,-0.028444,0,-0.00050589,0,0,0,0.034261,-0.00094547,0.0099947,-0.15833,0.014437,0.031209,9.3921e-07,0.93,0.52,0
0.046211,-0.0014794,0.034264,-0.00096637,0.0099892,-8.5267e-05,0,0,0.063113,-0.028484,0,-0.00044339,0,0,0,0.034264,-0.00096658,0.0099892,-0.13867,0.014429,0.031229,9.4e-07,0.94,0.52,0
0.046842,-0.0014776,0.034266,-0.00098425,0.0099845,-7.2356e-05,0,0,0.063131,-0.028519,0,-0.00037625,0,0,0,0.034266,-0.0009844,0.0099845,-0.11761,0.014422,0.031245,9.4065e-07,0.95,0.52,0
0.047474,-0.0014762,0.034267,-0.00099884,0.0099806,-5.8723e-05,0,0,0.063146,-0.028546,0,-0.00030536,0,0,0,0.034268,-0.00099894,0.0099806,-0.095404,0.014416,0.031258,9.4118e-07,0.96,0.52,0
0.048105,-0.0014751,0.034269,-0.0010102,0.0099776,-4.4524e-05,0,0,0.063157,-0.028568,0,-0.00023153,0,0,0,0.034269,-0.0010102,0.0099776,-0.072311,0.014412,0.031268,9.4158e-07,0.97,0.52,0
0.048737,-0.0014743,0.03427,-0.0010183,0.0099754,-2.991e-05,0,0,0.063165,-0.028584,0,-0.00015553,0,0,0,0.03427,-0.0010183,0.0099754,-0.048564,0.014409,0.031275,9.4187e-07,0.98,0.52,0
0.049368,-0.0014739,0.03427,-0.0010231,0.0099741,-1.5023e-05,0,0,0.06317,-0.028593,0,-7.8119e-05,0,0,0,0.03427,-0.0010231,0.0099741,-0.024389,0.014407,0.03128,9.4204e-07,0.99,0.52,0
0.05,-0.0014737,0.03427,-0.0010247,0.0099737,2.8892e-06,0,0,0.063171,-0.028596,0,1.5024e-05,0,0,0,0.03427,-0.0010247,0.0099737,0.0046902,0.014406,0.031281,9.4209e-07,1,0.52,0
0,0,0.032465,0.013914,0.013914,-0.00040544,0,0,0.048234,0,0,-0.0021083,0,0,0,0.032474,0.013905,0.013914,-1.2514,0.020098,0.018565,3.2863e-07,0,0.53,0
0.00048234,-2.1083e-05,0.032432,0.013485,0.013775,-0.00038755,0,0,0.048508,-0.00075472,0,-0.0020153,0,0,0,0.03244,0.013477,0.013775,-1.1713,0.019897,0.018816,3.4184e-07,0.01,0.53,0
0.00097016,-3.7241e-05,0.032587,0.013132,0.013716,-0.00031218,0,0,0.049065,-0.0015181,0,-0.0016233,0,0,0,0.032592,0.013127,0.013716,-0.91907,0.019811,0.019177,3.6109e-07,0.02,0.53,0
0.0014636,-4.8008e-05,0.032751,0.012769,0.013656,-0.00022543,0,0,0.049646,-0.0023055,0,-0.0011722,0,0,0,0.032753,0.012767,0.013656,-0.64629,0.019725,0.019557,3.815e-07,0.03,0.53,0
0.0019631,-5.3155e-05,0.032928,0.012395,0.013597,-0.000132,0,0,0.050262,-0.0031255,0,-0.00068641,0,0,0,0.032929,0.012394,0.013597,-0.36831,0.01964,0.019961,4.0348e-07,0.04,0.53,0
0.0024689,-5.2652e-05,0.033124,0.012008,0.013539,-3.5874e-05,0,0,0.050919,-0.0039818,0,-0.00018655,0,0,0,0.033124,0.012008,0.013539,-0.097343,0.019557,0.020393,4.2731e-07,0.05,0.53,0
0.0029815,-4.6657e-05,0.03334,0.011611,0.013485,5.9327e-05,0,0,0.051622,-0.0048735,0,0.0003085,0,0,0,0.03334,0.011611,0.013485,0.15643,0.019479,0.020855,4.5322e-07,0.06,0.53,0
0.0035013,-3.5498e-05,0.033581,0.011208,0.013437,0.00014998,0,0,0.052375,-0.0057941,0,0.00077991,0,0,0,0.033582,0.011207,0.013437,0.38408,0.019409,0.021347,4.8131e-07,0.07,0.53,0
0.004029,-1.9667e-05,0.033849,0.01081,0.013397,0.00023232,0,0,0.053173,-0.0067286,0,0.001208,0,0,0,0.033851,0.010807,0.013397,0.57766,0.019352,0.021864,5.1149e-07,0.08,0.53,0
0.0045648,2.1617e-07,0.034144,0.010431,0.013373,0.0003027,0,0,0.054006,-0.0076484,0,0.0015741,0,0,0,0.034148,0.010427,0.013373,0.73123,0.019316,0.022394,5.433e-07,0.09,0.53,0
0.0051091,2.3489e-05,0.034463,0.010099,0.013369,0.00035886,0,0,0.054846,-0.0085016,0,0.0018661,0,0,0,0.034468,0.010093,0.013369,0.84365,0.01931,0.022914,5.7556e-07,0.1,0.53,0
0.0056617,4.9705e-05,0.034795,0.0098562,0.013395,0.00040116,0,0,0.055639,-0.0092017,0,0.0020861,0,0,0,0.034801,0.0098498,0.013395,0.92135,0.019349,0.023381,6.0591e-07,0.11,0.53,0
0.0062219,7.9002e-05,0.035135,0.0097787,0.013474,0.00044313,0,0,0.056318,-0.009608,0,0.0023043,0,0,0,0.035143,0.0097709,0.013474,1.0009,0.019463,0.023738,6.3098e-07,0.12,0.53,0
0.0067881,0.00011417,0.035501,0.0099759,0.013643,0.00055964,0,0,0.056831,-0.0095347,0,0.0029101,0,0,0,0.035513,0.0099636,0.013643,1.2554,0.019707,0.023923,6.4748e-07,0.13,0.53,0
0.0073585,0.00016869,0.039957,0.010124,0.015024,-0.00034101,0,0,0.045192,-0.0084714,0,-0.00095414,0,0,0,0.039963,0.010118,0.015024,-0.55563,0.021702,0.027724,1.1167e-06,0.14,0.53,0
0.0077512,0.00016509,0.0325,0.0086681,0.01235,0.002242,0,0,0.036011,-0.0063729,0,0.0086647,0,0,0,0.032721,0.008447,0.01235,5.6645,0.017839,0.022577,6.3e-07,0.15,0.53,0
0.0080461,0.00010271,0.035829,0.0086039,0.01333,0.001373,0,0,0.029249,-0.0061438,0,0.0035699,0,0,0,0.035898,0.0085349,0.01333,2.8798,0.019254,0.025309,7.3288e-07,0.16,0.53,0
0.0083361,4.4757e-05,0.035493,0.0085741,0.01322,0.0011719,0,0,0.028955,-0.00604,0,0.0030471,0,0,0,0.035544,0.0085232,0.01322,2.4881,0.019096,0.025006,7.0849e-07,0.17,0.53,0
0.0086252,-1.8208e-05,0.035398,0.0082144,0.013084,0.0010466,0,0,0.029008,-0.0063299,0,0.002721,0,0,0,0.035438,0.0081742,0.013084,2.2015,0.018898,0.025171,7.1514e-07,0.18,0.53,0
0.0089163,-8.5181e-05,0.035463,0.0078976,0.013008,0.0010301,0,0,0.029191,-0.0066436,0,0.0026782,0,0,0,0.035501,0.0078592,0.013008,2.1371,0.018789,0.025461,7.3221e-07,0.19,0.53,0
0.009209,-0.00015417,0.035497,0.0075587,0.012917,0.0010577,0,0,0.029354,-0.0069654,0,0.00275,0,0,0,0.035537,0.0075187,0.012917,2.165,0.018657,0.025747,7.4837e-07,0.2,0.53,0
0.0095034,-0.00022483,0.03552,0.0072088,0.012819,0.0010696,0,0,0.029511,-0.0072926,0,0.002781,0,0,0,0.03556,0.0071684,0.012819,2.1606,0.018516,0.02603,7.6397e-07,0.21,0.53,0
0.0097993,-0.00029721,0.035531,0.0068295,0.012708,0.0010555,0,0,0.02967,-0.0076424,0,0.0027443,0,0,0,0.03557,0.0067907,0.012708,2.1032,0.018356,0.026324,7.7967e-07,0.22,0.53,0
0.010097,-0.00037154,0.03554,0.0064216,0.012588,0.0010179,0,0,0.029837,-0.0080169,0,0.0026465,0,0,0,0.035575,0.006386,0.012588,1.9996,0.018183,0.026635,7.9595e-07,0.23,0.53,0
0.010396,-0.00044801,0.035545,0.0059886,0.01246,0.00096264,0,0,0.030011,-0.008413,0,0.0025029,0,0,0,0.035576,0.0059573,0.01246,1.8635,0.017998,0.026963,8.1271e-07,0.24,0.53,0
0.010697,-0.00052675,0.035545,0.0055337,0.012324,0.00089489,0,0,0.030188,-0.008827,0,0.0023267,0,0,0,0.035572,0.005507,0.012324,1.7064,0.017801,0.027303,8.297e-07,0.25,0.53,0
0.011,-0.00060779,0.035539,0.0050596,0.012179,0.00081888,0,0,0.030367,-0.0092558,0,0.0021291,0,0,0,0.035561,0.0050376,0.012179,1.5379,0.017593,0.027653,8.4668e-07,0.26,0.53,0
0.011304,-0.00069111,0.035524,0.0045687,0.012028,0.00073841,0,0,0.030545,-0.0096967,0,0.0019199,0,0,0,0.035541,0.0045511,0.012028,1.3657,0.017373,0.028011,8.6344e-07,0.27,0.53,0
0.011611,-0.00077663,0.0355,0.0040637,0.011869,0.00065708,0,0,0.03072,-0.010147,0,0.0017084,0,0,0,0.035514,0.0040499,0.011869,1.1969,0.017144,0.028374,8.7979e-07,0.28,0.53,0
0.011919,-0.00086416,0.035467,0.0035473,0.011704,0.00057827,0,0,0.030891,-0.010604,0,0.0015035,0,0,0,0.035477,0.0035368,0.011704,1.0375,0.016906,0.02874,8.9549e-07,0.29,0.53,0
0.012228,-0.00095348,0.035422,0.0030237,0.011534,0.00050497,0,0,0.031054,-0.011063,0,0.0013129,0,0,0,0.03543,0.0030158,0.011534,0.89274,0.01666,0.029105,9.1021e-07,0.3,0.53,0
0.01254,-0.0010443,0.035364,0.0024977,0.011358,0.0004393,0,0,0.031207,-0.011519,0,0.0011422,0,0,0,0.035369,0.0024918,0.011358,0.76566,0.016407,0.029463,9.2358e-07,0.31,0.53,0
0.012853,-0.0011362,0.03529,0.0019749,0.01118,0.00038215,0,0,0.031344,-0.011966,0,0.00099358,0,0,0,0.035295,0.0019705,0.01118,0.6571,0.016148,0.029806,9.3518e-07,0.32,0.53,0
0.013167,-0.001229,0.0352,0.0014607,0.010998,0.00033289,0,0,0.031462,-0.012399,0,0.00086551,0,0,0,0.035203,0.0014574,0.010998,0.56524,0.015886,0.03013,9.4463e-07,0.33,0.53,0
0.013482,-0.0013221,0.035091,0.00095928,0.010815,0.00028946,0,0,0.031559,-0.012813,0,0.0007526,0,0,0,0.035094,0.00095683,0.010815,0.48586,0.015622,0.03043,9.5171e-07,0.34,0.53,0
0.013798,-0.0014153,0.034966,0.00047274,0.010632,0.00024883,0,0,0.031634,-0.013206,0,0.00064696,0,0,0,0.034967,0.00047095,0.010632,0.4133,0.015357,0.030704,9.5639e-07,0.35,0.53,0
0.014115,-0.0015082,0.034825,3.4942e-07,0.010448,0.00020782,0,0,0.031691,-0.013581,0,0.00054033,0,0,0,0.034826,-8.9069e-07,0.010448,0.3419,0.015091,0.030955,9.5892e-07,0.36,0.53,0
0.014432,-0.0016005,0.034675,-0.00046167,0.010264,0.00016426,0,0,0.031734,-0.013943,0,0.00042709,0,0,0,0.034676,-0.00046244,0.010264,0.26785,0.014826,0.03119,9.5987e-07,0.37,0.53,0
0.014749,-0.0016918,0.034523,-0.0009196,0.010081,0.00011834,0,0,0.031774,-0.014301,0,0.00030768,0,0,0,0.034523,-0.00092,0.010081,0.1913,0.014561,0.031422,9.6003e-07,0.38,0.53,0
0.015067,-0.0017818,0.034377,-0.0013806,0.0098989,7.3757e-05,0,0,0.031822,-0.014663,0,0.00019177,0,0,0,0.034377,-0.0013808,0.0098989,0.11818,0.014298,0.031663,9.6034e-07,0.39,0.53,0
0.015386,-0.0018698,0.034247,-0.0018503,0.0097189,3.8449e-05,0,0,0.031886,-0.01504,0,9.9968e-05,0,0,0,0.034247,-0.0018504,0.0097189,0.061029,0.014038,0.031925,9.6165e-07,0.4,0.53,0
0.015705,-0.0019551,0.034139,-0.0023286,0.009543,2.4196e-05,0,0,0.031974,-0.015433,0,6.2909e-05,0,0,0,0.034139,-0.0023286,0.009543,0.038015,0.013784,0.032216,9.6448e-07,0.41,0.53,0
0.016025,-0.0020367,0.034052,-0.0028065,0.0093736,4.4247e-05,0,0,0.032082,-0.015834,0,0.00011504,0,0,0,0.034052,-0.0028066,0.0093736,0.068781,0.01354,0.032526,9.6853e-07,0.42,0.53,0
0.016346,-0.0021134,0.033972,-0.0032599,0.0092135,0.00010641,0,0,0.032185,-0.016215,0,0.00027668,0,0,0,0.033972,-0.0032602,0.0092135,0.16376,0.013308,0.032824,9.7205e-07,0.43,0.53,0
0.016669,-0.0021843,0.033878,-0.0036372,0.0090721,0.00019707,0,0,0.032247,-0.016522,0,0.00051237,0,0,0,0.033879,-0.0036382,0.0090721,0.30097,0.013104,0.033049,9.7237e-07,0.44,0.53,0
0.016991,-0.0022487,0.033737,-0.0039012,0.0089508,0.0002474,0,0,0.032222,-0.016708,0,0.00064325,0,0,0,0.033739,-0.0039028,0.0089508,0.37659,0.012929,0.03314,9.6613e-07,0.45,0.53,0
0.017313,-0.002308,0.033732,-0.0039807,0.0089254,0.0001582,0,0,0.032249,-0.016778,0,0.00041132,0,0,0,0.033733,-0.0039813,0.0089254,0.24034,0.012892,0.033199,9.6721e-07,0.46,0.53,0
0.017636,-0.0023633,0.034005,-0.0043348,0.008901,0.00022298,0,0,0.032635,-0.017206,0,0.00057975,0,0,0,0.034006,-0.0043361,0.008901,0.33321,0.012857,0.033731,9.9737e-07,0.47,0.53,0
0.017966,-0.0023898,0.030664,-0.0019947,0.0086007,-0.00087474,0,0,0.0393,-0.018637,0,-0.0038201,0,0,0,0.030697,-0.0020281,0.0086007,-1.8123,0.012423,0.028916,8.3649e-07,0.48,0.53,0
0.018391,-0.0024761,0.038556,0.00055346,0.011733,0.0012792,0,0,0.048504,-0.019812,0,0.0041346,0,0,0,0.038603,0.00050692,0.011733,1.7919,0.016948,0.033909,1.4679e-06,0.49,0.53,0
0.018996,-0.0026343,0.034297,0.0022263,0.010957,0.00025958,0,0,0.060684,-0.0227,0,0.0013498,0,0,0,0.034299,0.0022242,0.010957,0.46372,0.015827,0.028722,8.4841e-07,0.5,0.53,0
0.019604,-0.0027217,0.034103,0.0015241,0.010688,0.0009054,0,0,0.060879,-0.023827,0,0.0047081,0,0,0,0.034128,0.0014989,0.010688,1.5906,0.015439,0.029142,8.581e-07,0.51,0.53,0
0.020214,-0.0027755,0.033979,0.0010836,0.010519,0.0012208,0,0,0.060997,-0.024532,0,0.0063484,0,0,0,0.034025,0.0010384,0.010519,2.1225,0.015194,0.029415,8.6406e-07,0.52,0.53,0
0.020824,-0.0028028,0.033885,0.0007916,0.010403,0.0014489,0,0,0.061053,-0.024989,0,0.0075344,0,0,0,0.033948,0.00072828,0.010403,2.5022,0.015026,0.029593,8.673e-07,0.53,0.53,0
0.021435,-0.002809,0.03381,0.00059305,0.010321,0.0016025,0,0,0.061072,-0.025292,0,0.0083329,0,0,0,0.033887,0.00051592,0.010321,2.7556,0.014908,0.029708,8.6875e-07,0.54,0.53,0
0.022046,-0.0027982,0.033755,0.00046199,0.010265,0.0016964,0,0,0.061073,-0.025488,0,0.0088211,0,0,0,0.033841,0.00037578,0.010265,2.9093,0.014827,0.029779,8.6918e-07,0.55,0.53,0
0.022656,-0.0027739,0.033715,0.00038162,0.010229,0.0017414,0,0,0.061064,-0.025603,0,0.0090553,0,0,0,0.033806,0.00029089,0.010229,2.9824,0.014775,0.029815,8.6889e-07,0.56,0.53,0
0.023267,-0.002739,0.033688,0.00033938,0.010208,0.0017467,0,0,0.061047,-0.025659,0,0.0090826,0,0,0,0.033779,0.00024815,0.010208,2.99,0.014745,0.029826,8.6803e-07,0.57,0.53,0
0.023877,-0.0026961,0.03367,0.00032505,0.010198,0.0017196,0,0,0.061025,-0.025671,0,0.0089417,0,0,0,0.033758,0.00023661,0.010198,2.9443,0.014731,0.029816,8.6672e-07,0.58,0.53,0
0.024488,-0.0026474,0.033658,0.00032993,0.010197,0.0016663,0,0,0.061001,-0.025653,0,0.0086646,0,0,0,0.033741,0.00024683,0.010197,2.855,0.014728,0.029793,8.6515e-07,0.59,0.53,0
0.025097,-0.0025946,0.033653,0.00034664,0.0102,0.001592,0,0,0.060978,-0.025618,0,0.0082786,0,0,0,0.033729,0.00027071,0.0102,2.7304,0.014733,0.029763,8.635e-07,0.6,0.53,0
0.025707,-0.0025395,0.033652,0.00036888,0.010206,0.0015014,0,0,0.060959,-0.025577,0,0.0078073,0,0,0,0.03372,0.00030129,0.010206,2.5776,0.014743,0.02973,8.6196e-07,0.61,0.53,0
0.026317,-0.0024834,0.033657,0.00039145,0.010214,0.0013984,0,0,0.06095,-0.02554,0,0.0072716,0,0,0,0.033716,0.00033277,0.010214,2.4029,0.014754,0.029701,8.6074e-07,0.62,0.53,0
0.026926,-0.0024273,0.033666,0.00041023,0.010223,0.0012867,0,0,0.060953,-0.025513,0,0.0066907,0,0,0,0.033716,0.00036052,0.010223,2.2123,0.014767,0.02968,8.5999e-07,0.63,0.53,0
0.027536,-0.0023722,0.03368,0.00042221,0.010231,0.0011696,0,0,0.060969,-0.025502,0,0.0060819,0,0,0,0.033722,0.00038113,0.010231,2.0116,0.014778,0.029668,8.5983e-07,0.64,0.53,0
0.028146,-0.0023188,0.033699,0.00042541,0.010237,0.0010502,0,0,0.061001,-0.025511,0,0.005461,0,0,0,0.033732,0.00039229,0.010237,1.806,0.014787,0.029669,8.6034e-07,0.65,0.53,0
0.028756,-0.0022676,0.033722,0.00041874,0.010242,0.00093105,0,0,0.061048,-0.025541,0,0.0048414,0,0,0,0.033748,0.00039274,0.010242,1.6001,0.014794,0.029683,8.6155e-07,0.66,0.53,0
0.029367,-0.0022191,0.033749,0.0004019,0.010245,0.00081441,0,0,0.061109,-0.025593,0,0.0042349,0,0,0,0.033769,0.00038202,0.010245,1.3982,0.014799,0.02971,8.6344e-07,0.67,0.53,0
0.029978,-0.0021734,0.033779,0.00037514,0.010246,0.00070208,0,0,0.061185,-0.025665,0,0.0036508,0,0,0,0.033794,0.00036039,0.010246,1.2035,0.0148,0.029749,8.6597e-07,0.68,0.53,0
0.03059,-0.0021308,0.033811,0.00033913,0.010245,0.00059546,0,0,0.061272,-0.025756,0,0.0030964,0,0,0,0.033822,0.00032854,0.010245,1.0188,0.014798,0.029799,8.6905e-07,0.69,0.53,0
0.031203,-0.0020913,0.033845,0.00029483,0.010242,0.00049559,0,0,0.061369,-0.025863,0,0.0025771,0,0,0,0.033853,0.00028751,0.010242,0.84609,0.014794,0.02986,8.7261e-07,0.7,0.53,0
0.031817,-0.0020549,0.033881,0.00024338,0.010237,0.00040317,0,0,0.061473,-0.025984,0,0.0020965,0,0,0,0.033885,0.00023855,0.010237,0.68661,0.014787,0.029928,8.7655e-07,0.71,0.53,0
0.032433,-0.0020216,0.033916,0.00018599,0.010231,0.00031864,0,0,0.061583,-0.026116,0,0.0016569,0,0,0,0.033919,0.00018298,0.010231,0.54119,0.014778,0.030002,8.8076e-07,0.72,0.53,0
0.033049,-0.0019912,0.033952,0.00012387,0.010223,0.00024216,0,0,0.061696,-0.026257,0,0.0012592,0,0,0,0.033954,0.00012214,0.010223,0.41013,0.014766,0.030081,8.8516e-07,0.73,0.53,0
0.033667,-0.0019637,0.033987,5.8211e-05,0.010214,0.00017372,0,0,0.061811,-0.026404,0,0.00090335,0,0,0,0.033988,5.7321e-05,0.010214,0.29336,0.014753,0.030163,8.8966e-07,0.74,0.53,0
0.034285,-0.0019388,0.034021,-9.881e-06,0.010203,0.00011316,0,0,0.061925,-0.026554,0,0.00058842,0,0,0,0.034021,-1.0257e-05,0.010203,0.19052,0.014738,0.030247,8.9418e-07,0.75,0.53,0
0.034905,-0.0019164,0.034053,-7.9388e-05,0.010192,6.0179e-05,0,0,0.062038,-0.026706,0,0.00031293,0,0,0,0.034053,-7.9495e-05,0.010192,0.10102,0.014722,0.03033,8.9866e-07,0.76,0.53,0
0.035526,-0.0018963,0.034083,-0.0001494,0.01018,1.4411e-05,0,0,0.062148,-0.026857,0,7.494e-05,0,0,0,0.034083,-0.00014941,0.01018,0.024121,0.014705,0.030413,9.0303e-07,0.77,0.53,0
0.036148,-0.0018784,0.034112,-0.00021913,0.010168,-2.4578e-05,0,0,0.062254,-0.027006,0,-0.00012781,0,0,0,0.034112,-0.00021914,0.010168,-0.041019,0.014687,0.030495,9.0725e-07,0.78,0.53,0
0.036771,-0.0018624,0.034138,-0.00028786,0.010155,-5.7258e-05,0,0,0.062356,-0.027152,0,-0.00029774,0,0,0,0.034138,-0.00028796,0.010155,-0.095295,0.014668,0.030573,9.1129e-07,0.79,0.53,0
0.037395,-0.0018483,0.034163,-0.00035504,0.010142,-8.4115e-05,0,0,0.062453,-0.027293,0,-0.0004374,0,0,0,0.034163,-0.00035525,0.010142,-0.13962,0.01465,0.030649,9.1512e-07,0.8,0.53,0
0.03802,-0.0018357,0.034185,-0.00042016,0.010129,-0.00010564,0,0,0.062544,-0.027429,0,-0.00054932,0,0,0,0.034185,-0.00042048,0.010129,-0.17491,0.014631,0.030721,9.1871e-07,0.81,0.53,0
0.038646,-0.0018247,0.034205,-0.00048283,0.010117,-0.00012231,0,0,0.062629,-0.027558,0,-0.00063601,0,0,0,0.034205,-0.00048326,0.010117,-0.20203,0.014613,0.030789,9.2207e-07,0.82,0.53,0
0.039273,-0.001815,0.034223,-0.00054273,0.010104,-0.0001346,0,0,0.062709,-0.027681,0,-0.00069991,0,0,0,0.034223,-0.00054325,0.010104,-0.22182,0.014595,0.030853,9.2517e-07,0.83,0.53,0
0.0399,-0.0018064,0.034238,-0.0005996,0.010092,-0.00014294,0,0,0.062782,-0.027797,0,-0.0007433,0,0,0,0.034239,-0.00060019,0.010092,-0.23508,0.014577,0.030913,9.2802e-07,0.84,0.53,0
0.040529,-0.001799,0.034252,-0.00065326,0.01008,-0.00014776,0,0,0.062849,-0.027906,0,-0.00076837,0,0,0,0.034253,-0.00065389,0.01008,-0.24254,0.01456,0.030968,9.3063e-07,0.85,0.53,0
0.041157,-0.0017925,0.034265,-0.00070356,0.010068,-0.00014945,0,0,0.06291,-0.028007,0,-0.00077715,0,0,0,0.034265,-0.0007042,0.010068,-0.24487,0.014543,0.031019,9.33e-07,0.86,0.53,0
0.041787,-0.0017869,0.034275,-0.00075042,0.010057,-0.00014837,0,0,0.062966,-0.0281,0,-0.00077153,0,0,0,0.034276,-0.00075104,0.010057,-0.2427,0.014527,0.031066,9.3514e-07,0.87,0.53,0
0.042417,-0.001782,0.034284,-0.00079375,0.010047,-0.00014485,0,0,0.063017,-0.028186,0,-0.00075322,0,0,0,0.034285,-0.00079435,0.010047,-0.23659,0.014513,0.031109,9.3705e-07,0.88,0.53,0
0.043047,-0.0017778,0.034292,-0.00083353,0.010037,-0.00013919,0,0,0.063062,-0.028265,0,-0.00072381,0,0,0,0.034292,-0.00083408,0.010037,-0.22705,0.014499,0.031148,9.3876e-07,0.89,0.53,0
0.043678,-0.0017742,0.034299,-0.00086975,0.010029,-0.00013168,0,0,0.063102,-0.028336,0,-0.00068475,0,0,0,0.034299,-0.00087024,0.010029,-0.21453,0.014486,0.031183,9.4027e-07,0.9,0.53,0
0.044309,-0.0017711,0.034304,-0.00090241,0.01002,-0.00012257,0,0,0.063137,-0.028399,0,-0.00063734,0,0,0,0.034304,-0.00090284,0.01002,-0.19946,0.014474,0.031214,9.4159e-07,0.91,0.53,0
0.044941,-0.0017685,0.034308,-0.00093152,0.010013,-0.00011207,0,0,0.063168,-0.028456,0,-0.00058277,0,0,0,0.034309,-0.00093188,0.010013,-0.18221,0.014463,0.031241,9.4274e-07,0.92,0.53,0
0.045573,-0.0017664,0.034312,-0.00095711,0.010006,-0.00010041,0,0,0.063195,-0.028505,0,-0.00052212,0,0,0,0.034312,-0.0009574,0.010006,-0.16311,0.014454,0.031265,9.4372e-07,0.93,0.53,0
0.046205,-0.0017646,0.034315,-0.00097921,0.010001,-8.7763e-05,0,0,0.063217,-0.028548,0,-0.00045637,0,0,0,0.034315,-0.00097943,0.010001,-0.14247,0.014446,0.031285,9.4455e-07,0.94,0.53,0
0.046837,-0.0017631,0.034317,-0.00099784,0.0099959,-7.4307e-05,0,0,0.063236,-0.028584,0,-0.0003864,0,0,0,0.034318,-0.000998,0.0099959,-0.12056,0.014438,0.031302,9.4523e-07,0.95,0.53,0
0.047469,-0.001762,0.034319,-0.001013,0.0099918,-6.0198e-05,0,0,0.063251,-0.028613,0,-0.00031303,0,0,0,0.034319,-0.0010131,0.0099918,-0.097619,0.014433,0.031315,9.4578e-07,0.96,0.53,0
0.048102,-0.0017611,0.03432,-0.0010248,0.0099887,-4.5581e-05,0,0,0.063263,-0.028635,0,-0.00023702,0,0,0,0.03432,-0.0010249,0.0099887,-0.073888,0.014428,0.031326,9.462e-07,0.97,0.53,0
0.048735,-0.0017605,0.034321,-0.0010332,0.0099864,-3.0591e-05,0,0,0.063271,-0.028651,0,-0.00015907,0,0,0,0.034321,-0.0010333,0.0099864,-0.049575,0.014425,0.031334,9.465e-07,0.98,0.53,0
0.049367,-0.0017601,0.034322,-0.0010383,0.0099851,-1.5356e-05,0,0,0.063276,-0.028661,0,-7.9851e-05,0,0,0,0.034322,-0.0010383,0.0099851,-0.024882,0.014423,0.031338,9.4668e-07,0.99,0.53,0
0.05,-0.00176,0.034322,-0.0010399,0.0099846,2.2866e-06,0,0,0.063277,-0.028664,0,1.189e-05,0,0,0,0.034322,-0.00104,0.0099846,0.0037048,0.014422,0.031339,9.4673e-07,1,0.53,0
0,0,0.032358,0.013868,0.013868,-0.00055485,0,0,0.048075,0,0,-0.0028852,0,0,0,0.032375,0.013851,0.013868,-1.7172,0.020031,0.018515,3.26e-07,0,0.54,0
0.00048075,-2.8852e-05,0.032322,0.013418,0.013722,-0.00054006,0,0,0.048361,-0.0007911,0,-0.0028083,0,0,0,0.032338,0.013402,0.013722,-1.635,0.019821,0.018778,3.3972e-07,0.01,0.54,0
0.00096722,-5.2803e-05,0.032484,0.013054,0.013661,-0.0004718,0,0,0.048939,-0.0015802,0,-0.0024534,0,0,0,0.032496,0.013042,0.013661,-1.3901,0.019733,0.019151,3.595e-07,0.02,0.54,0
0.0014595,-7.1557e-05,0.032655,0.012685,0.013602,-0.00039682,0,0,0.049538,-0.0023847,0,-0.0020635,0,0,0,0.032663,0.012677,0.013602,-1.1379,0.019647,0.01954,3.8027e-07,0.03,0.54,0
0.001958,-8.4981e-05,0.032839,0.012308,0.013544,-0.00031893,0,0,0.050167,-0.0032148,0,-0.0016584,0,0,0,0.032844,0.012302,0.013544,-0.88973,0.019563,0.01995,4.0246e-07,0.04,0.54,0
0.0024629,-9.3091e-05,0.03304,0.011921,0.013488,-0.00024166,0,0,0.050835,-0.0040748,0,-0.0012566,0,0,0,0.033043,0.011918,0.013488,-0.65552,0.019483,0.020385,4.2637e-07,0.05,0.54,0
0.0029747,-9.6033e-05,0.033261,0.011528,0.013437,-0.00016836,0,0,0.051544,-0.0049635,0,-0.0008755,0,0,0,0.033263,0.011526,0.013437,-0.44382,0.019409,0.020847,4.5217e-07,0.06,0.54,0
0.0034938,-9.4066e-05,0.033504,0.011132,0.013391,-0.00010213,0,0,0.052295,-0.0058736,0,-0.00053108,0,0,0,0.033505,0.011131,0.013391,-0.26155,0.019342,0.021334,4.7987e-07,0.07,0.54,0
0.0040206,-8.752e-05,0.03377,0.010742,0.013354,-4.5334e-05,0,0,0.053082,-0.0067892,0,-0.00023573,0,0,0,0.03377,0.010742,0.013354,-0.1128,0.019289,0.021839,5.0928e-07,0.08,0.54,0
0.0045554,-7.6714e-05,0.034053,0.010373,0.013328,1.7573e-06,0,0,0.053885,-0.0076817,0,9.1378e-06,0,0,0,0.034053,0.010373,0.013328,0.004252,0.019251,0.022349,5.3971e-07,0.09,0.54,0
0.0050983,-6.1773e-05,0.034341,0.010046,0.013316,4.3888e-05,0,0,0.054666,-0.0085035,0,0.00022822,0,0,0,0.034341,0.010045,0.013316,0.1035,0.019234,0.022837,5.6964e-07,0.1,0.54,0
0.0056487,-4.229e-05,0.034598,0.0097843,0.013315,9.9716e-05,0,0,0.055336,-0.009179,0,0.00051853,0,0,0,0.034598,0.0097839,0.013315,0.23024,0.019232,0.023251,5.957e-07,0.11,0.54,0
0.006205,-1.6353e-05,0.034696,0.0095978,0.013288,0.00021166,0,0,0.055661,-0.0095952,0,0.0011006,0,0,0,0.034698,0.009596,0.013288,0.48313,0.019194,0.023475,6.0937e-07,0.12,0.54,0
0.0067619,2.0329e-05,0.034356,0.0094536,0.013143,0.00055561,0,0,0.055155,-0.0095923,0,0.0028892,0,0,0,0.034369,0.0094412,0.013143,1.2775,0.018984,0.023298,5.9462e-07,0.13,0.54,0
0.0073081,8.5355e-05,0.034346,0.0092277,0.013072,0.0004805,0,0,0.055312,-0.0099953,0,0.0024986,0,0,0,0.034355,0.0092185,0.013072,1.0955,0.018882,0.023448,6.0231e-07,0.14,0.54,0
0.0078682,0.00010165,0.034282,0.008619,0.01287,0.0015043,0,0,0.041837,-0.0073691,0,0.0064433,0,0,0,0.03438,0.0085208,0.01287,3.3953,0.01859,0.024007,6.2576e-07,0.15,0.54,0
0.0081448,4.4242e-05,0.034427,0.0087004,0.012938,0.00098848,0,0,0.027935,-0.005509,0,0.00257,0,0,0,0.034465,0.0086625,0.012938,2.1972,0.018688,0.023952,6.3063e-07,0.16,0.54,0
0.0084269,-1.4167e-05,0.03509,0.0083803,0.013041,0.0010058,0,0,0.028664,-0.0060592,0,0.0026151,0,0,0,0.035128,0.0083425,0.013041,2.1535,0.018837,0.024773,6.8709e-07,0.17,0.54,0
0.0087181,-8.2e-05,0.035658,0.0081666,0.013147,0.00094252,0,0,0.029263,-0.0064748,0,0.0024506,0,0,0,0.03569,0.0081343,0.013147,1.9613,0.01899,0.025422,7.3449e-07,0.18,0.54,0
0.0090121,-0.0001523,0.035748,0.0078159,0.013069,0.0010188,0,0,0.029482,-0.006829,0,0.0026489,0,0,0,0.035785,0.0077788,0.013069,2.0862,0.018877,0.025771,7.5572e-07,0.19,0.54,0
0.0093078,-0.00022444,0.035764,0.0075379,0.012991,0.0010675,0,0,0.029605,-0.0070884,0,0.0027754,0,0,0,0.035804,0.0074976,0.012991,2.1627,0.018764,0.025999,7.6854e-07,0.2,0.54,0
0.0096042,-0.00029812,0.03573,0.0072205,0.012885,0.001079,0,0,0.029698,-0.0073641,0,0.0028055,0,0,0,0.035771,0.0071797,0.012885,2.1644,0.018612,0.026208,7.7891e-07,0.21,0.54,0
0.0099017,-0.0003738,0.0357,0.006862,0.012769,0.00106,0,0,0.029811,-0.0076784,0,0.002756,0,0,0,0.035739,0.0068231,0.012769,2.1023,0.018443,0.026449,7.9079e-07,0.22,0.54,0
0.0102,-0.00045172,0.035679,0.0064709,0.012645,0.0010214,0,0,0.029944,-0.0080263,0,0.0026555,0,0,0,0.035715,0.0064352,0.012645,2.0003,0.018265,0.026721,8.0437e-07,0.23,0.54,0
0.010501,-0.00053204,0.03566,0.0060501,0.012513,0.00096915,0,0,0.030092,-0.0084021,0,0.0025198,0,0,0,0.035692,0.0060184,0.012513,1.8726,0.018075,0.027018,8.1904e-07,0.24,0.54,0
0.010802,-0.00061483,0.03564,0.0056039,0.012373,0.00090711,0,0,0.030247,-0.0088001,0,0.0023585,0,0,0,0.035668,0.0055766,0.012373,1.7283,0.017872,0.027334,8.343e-07,0.25,0.54,0
0.011106,-0.0007001,0.035615,0.0051354,0.012225,0.00083835,0,0,0.030406,-0.0092165,0,0.0021797,0,0,0,0.035638,0.0051124,0.012225,1.5744,0.017658,0.027664,8.4978e-07,0.26,0.54,0
0.01141,-0.00078779,0.035582,0.0046469,0.012069,0.00076596,0,0,0.030568,-0.0096484,0,0.0019915,0,0,0,0.035601,0.004628,0.012069,1.4175,0.017433,0.028004,8.6522e-07,0.27,0.54,0
0.011717,-0.00087778,0.035541,0.0041404,0.011905,0.00069347,0,0,0.030728,-0.010093,0,0.001803,0,0,0,0.035557,0.0041251,0.011905,1.2645,0.017195,0.028354,8.8041e-07,0.28,0.54,0
0.012025,-0.00096987,0.035491,0.0036188,0.011733,0.0006248,0,0,0.030886,-0.010548,0,0.0016245,0,0,0,0.035503,0.0036066,0.011733,1.1226,0.016948,0.02871,8.9507e-07,0.29,0.54,0
0.012335,-0.0010638,0.035429,0.0030867,0.011555,0.00056369,0,0,0.031037,-0.011008,0,0.0014656,0,0,0,0.035439,0.0030769,0.011555,0.99818,0.01669,0.029066,9.0882e-07,0.3,0.54,0
0.012646,-0.0011592,0.035353,0.0025501,0.011371,0.00051299,0,0,0.031176,-0.011467,0,0.0013338,0,0,0,0.035361,0.0025421,0.011371,0.89574,0.016425,0.029415,9.2115e-07,0.31,0.54,0
0.012958,-0.0012556,0.035259,0.0020165,0.011182,0.00047388,0,0,0.031299,-0.011916,0,0.0012321,0,0,0,0.035265,0.0020097,0.011182,0.81655,0.016153,0.029749,9.3149e-07,0.32,0.54,0
0.013272,-0.0013526,0.035144,0.0014933,0.010991,0.00044529,0,0,0.031398,-0.012347,0,0.0011577,0,0,0,0.035149,0.0014874,0.010991,0.758,0.015876,0.030059,9.3927e-07,0.33,0.54,0
0.013586,-0.0014498,0.035005,0.00098661,0.010797,0.00042385,0,0,0.03147,-0.012754,0,0.001102,0,0,0,0.03501,0.00098133,0.010797,0.71373,0.015596,0.030336,9.4409e-07,0.34,0.54,0
0.013901,-0.0015469,0.034843,0.00049977,0.010603,0.0004044,0,0,0.031512,-0.013134,0,0.0010514,0,0,0,0.034848,0.00049501,0.010603,0.67454,0.015315,0.030579,9.4582e-07,0.35,0.54,0
0.014216,-0.0016435,0.034659,3.2031e-05,0.010407,0.00038096,0,0,0.031527,-0.013488,0,0.0009905,0,0,0,0.034663,2.784e-05,0.010407,0.63025,0.015033,0.030787,9.447e-07,0.36,0.54,0
0.014532,-0.0017393,0.03446,-0.00042188,0.010211,0.00034827,0,0,0.031523,-0.013823,0,0.0009055,0,0,0,0.034463,-0.00042535,0.010211,0.57199,0.01475,0.030972,9.4136e-07,0.37,0.54,0
0.014847,-0.0018341,0.034253,-0.00087137,0.010014,0.00030356,0,0,0.03151,-0.014152,0,0.00078925,0,0,0,0.034256,-0.00087399,0.010014,0.49513,0.014465,0.031147,9.3683e-07,0.38,0.54,0
0.015162,-0.0019276,0.03405,-0.0013285,0.0098166,0.00024851,0,0,0.031504,-0.014489,0,0.00064614,0,0,0,0.034052,-0.0013303,0.0098166,0.40244,0.014179,0.031333,9.3239e-07,0.39,0.54,0
0.015477,-0.0020193,0.033865,-0.0018046,0.0096182,0.00019099,0,0,0.031521,-0.01485,0,0.00049658,0,0,0,0.033866,-0.0018056,0.0096182,0.30677,0.013893,0.031551,9.2935e-07,0.4,0.54,0
0.015792,-0.0021086,0.033709,-0.0023049,0.0094212,0.00014533,0,0,0.031574,-0.015244,0,0.00037785,0,0,0,0.03371,-0.0023055,0.0094212,0.2312,0.013608,0.031816,9.2871e-07,0.41,0.54,0
0.016108,-0.0021944,0.03359,-0.0028208,0.0092308,0.0001321,0,0,0.031667,-0.015667,0,0.00034347,0,0,0,0.033591,-0.0028212,0.0092308,0.20787,0.013333,0.032128,9.3089e-07,0.42,0.54,0
0.016426,-0.0022751,0.033494,-0.0033346,0.0090478,0.00017598,0,0,0.03178,-0.016097,0,0.00045754,0,0,0,0.033495,-0.0033355,0.0090478,0.27376,0.013069,0.032461,9.3424e-07,0.43,0.54,0
0.016744,-0.002349,0.033354,-0.0037946,0.0088678,0.00029444,0,0,0.031832,-0.016461,0,0.00076555,0,0,0,0.033356,-0.0037969,0.0088678,0.4541,0.012809,0.032714,9.3241e-07,0.44,0.54,0
0.017062,-0.0024149,0.033099,-0.0040526,0.0087137,0.00046371,0,0,0.0317,-0.016596,0,0.0012056,0,0,0,0.033104,-0.0040584,0.0087137,0.715,0.012587,0.032704,9.1705e-07,0.45,0.54,0
0.017378,-0.0024727,0.03235,-0.0042249,0.0084374,0.00050309,0,0,0.031086,-0.016461,0,0.0013081,0,0,0,0.032357,-0.0042319,0.0084374,0.78792,0.012187,0.032182,8.6105e-07,0.46,0.54,0
0.017684,-0.0025293,0.031904,-0.0040824,0.0083465,0.00043645,0,0,0.030625,-0.016158,0,0.0011348,0,0,0,0.031909,-0.0040877,0.0083465,0.69475,0.012056,0.031667,8.2437e-07,0.47,0.54,0
0.01799,-0.0025844,0.031685,-0.0026551,0.0087091,-0.00050865,0,0,0.044413,-0.019698,0,-0.002778,0,0,0,0.031706,-0.0026761,0.0087091,-0.99321,0.01258,0.030424,7.3847e-07,0.48,0.54,0
0.018572,-0.0027003,0.031996,0.00072507,0.0098163,0.00011395,0,0,0.057667,-0.023637,0,0.00059256,0,0,0,0.031996,0.00072465,0.0098163,0.20879,0.014179,0.027862,7.2515e-07,0.49,0.54,0
0.019144,-0.0028589,0.032341,0.0012709,0.010084,0.00018411,0,0,0.05787,-0.022913,0,0.0009574,0,0,0,0.032342,0.0012698,0.010084,0.3395,0.014565,0.027737,7.3445e-07,0.5,0.54,0
0.01973,-0.0029595,0.032842,0.0010075,0.010155,0.00087336,0,0,0.058987,-0.023783,0,0.0045415,0,0,0,0.032866,0.00098356,0.010155,1.5703,0.014668,0.028429,7.793e-07,0.51,0.54,0
0.020324,-0.00302,0.033052,0.00078931,0.010152,0.0012563,0,0,0.059539,-0.024344,0,0.0065327,0,0,0,0.033101,0.00074046,0.010152,2.2266,0.014665,0.02883,8.0312e-07,0.52,0.54,0
0.02092,-0.0030516,0.033096,0.00060459,0.01011,0.0014835,0,0,0.059764,-0.024715,0,0.0077142,0,0,0,0.033164,0.00053699,0.01011,2.6088,0.014604,0.029049,8.1342e-07,0.53,0.54,0
0.021519,-0.0030605,0.033114,0.00047744,0.010077,0.0016241,0,0,0.059894,-0.02496,0,0.0084454,0,0,0,0.033194,0.00039682,0.010077,2.8419,0.014556,0.029187,8.1953e-07,0.54,0.54,0
0.022118,-0.0030514,0.033133,0.00039964,0.01006,0.0017046,0,0,0.05999,-0.025116,0,0.0088641,0,0,0,0.033222,0.0003111,0.01006,2.973,0.014531,0.02928,8.2392e-07,0.55,0.54,0
0.022719,-0.0030281,0.03316,0.00036154,0.010056,0.0017396,0,0,0.060069,-0.025207,0,0.0090458,0,0,0,0.033252,0.00026954,0.010056,3.0276,0.014526,0.02934,8.2733e-07,0.56,0.54,0
0.02332,-0.0029936,0.033193,0.00035367,0.010064,0.0017379,0,0,0.060136,-0.025247,0,0.0090369,0,0,0,0.033285,0.00026195,0.010064,3.0208,0.014537,0.029375,8.3e-07,0.57,0.54,0
0.023921,-0.0029508,0.03323,0.00036738,0.010079,0.0017061,0,0,0.060193,-0.025251,0,0.0088717,0,0,0,0.033319,0.00027904,0.010079,2.9639,0.014559,0.029392,8.3207e-07,0.58,0.54,0
0.024524,-0.0029018,0.03327,0.00039515,0.010099,0.0016495,0,0,0.060242,-0.025231,0,0.0085773,0,0,0,0.033352,0.00031259,0.010099,2.8652,0.014588,0.029395,8.3366e-07,0.59,0.54,0
0.025126,-0.0028488,0.03331,0.00043033,0.010122,0.0015725,0,0,0.060289,-0.025199,0,0.008177,0,0,0,0.033385,0.0003553,0.010122,2.7319,0.014621,0.02939,8.3496e-07,0.6,0.54,0
0.025729,-0.0027933,0.033351,0.00046707,0.010146,0.0014792,0,0,0.060335,-0.025164,0,0.0076916,0,0,0,0.033418,0.00040067,0.010146,2.5703,0.014655,0.029383,8.3617e-07,0.61,0.54,0
0.026333,-0.0027368,0.033394,0.00050037,0.010168,0.0013732,0,0,0.060387,-0.025137,0,0.0071407,0,0,0,0.033451,0.00044315,0.010168,2.3864,0.014687,0.029378,8.375e-07,0.62,0.54,0
0.026937,-0.0026805,0.033438,0.00052631,0.010189,0.0012583,0,0,0.060446,-0.025123,0,0.0065433,0,0,0,0.033486,0.00047828,0.010189,2.1864,0.014718,0.029381,8.3913e-07,0.63,0.54,0
0.027542,-0.0026254,0.033483,0.00054213,0.010208,0.001138,0,0,0.060517,-0.02513,0,0.0059175,0,0,0,0.033522,0.00050287,0.010208,1.9762,0.014744,0.029394,8.4121e-07,0.64,0.54,0
0.028147,-0.0025722,0.03353,0.00054619,0.010223,0.0010154,0,0,0.060599,-0.02516,0,0.0052801,0,0,0,0.033562,0.00051496,0.010223,1.7616,0.014767,0.02942,8.4384e-07,0.65,0.54,0
0.028754,-0.0025214,0.033579,0.00053785,0.010235,0.00089342,0,0,0.060695,-0.025213,0,0.0046458,0,0,0,0.033604,0.00051371,0.010235,1.5477,0.014784,0.029458,8.4706e-07,0.66,0.54,0
0.029361,-0.0024735,0.03363,0.00051723,0.010244,0.00077442,0,0,0.060803,-0.02529,0,0.004027,0,0,0,0.033648,0.00049913,0.010244,1.339,0.014797,0.029509,8.5085e-07,0.67,0.54,0
0.02997,-0.0024287,0.033681,0.00048505,0.01025,0.00066032,0,0,0.060921,-0.025388,0,0.0034336,0,0,0,0.033694,0.00047192,0.01025,1.1391,0.014805,0.029572,8.5516e-07,0.68,0.54,0
0.03058,-0.0023871,0.033733,0.0004424,0.010253,0.00055258,0,0,0.061049,-0.025506,0,0.0028734,0,0,0,0.033742,0.00043323,0.010253,0.95069,0.014809,0.029645,8.5993e-07,0.69,0.54,0
0.031191,-0.0023488,0.033784,0.00039061,0.010252,0.00045224,0,0,0.061183,-0.025641,0,0.0023517,0,0,0,0.033791,0.00038448,0.010252,0.77575,0.014809,0.029727,8.6505e-07,0.7,0.54,0
0.031803,-0.0023138,0.033835,0.00033114,0.01025,0.00035999,0,0,0.061322,-0.025789,0,0.001872,0,0,0,0.033839,0.00032727,0.01025,0.61554,0.014805,0.029816,8.7043e-07,0.71,0.54,0
0.032417,-0.0022819,0.033885,0.00026547,0.010245,0.0002762,0,0,0.061463,-0.025947,0,0.0014362,0,0,0,0.033887,0.0002632,0.010245,0.47066,0.014798,0.029909,8.7597e-07,0.72,0.54,0
0.033033,-0.002253,0.033933,0.00019505,0.010238,0.00020096,0,0,0.061605,-0.026113,0,0.001045,0,0,0,0.033934,0.00019385,0.010238,0.34126,0.014789,0.030006,8.8159e-07,0.73,0.54,0
0.033649,-0.0022271,0.033978,0.00012124,0.01023,0.00013418,0,0,0.061746,-0.026283,0,0.00069773,0,0,0,0.033979,0.0001207,0.01023,0.22706,0.014776,0.030105,8.8718e-07,0.74,0.54,0
0.034267,-0.0022038,0.034022,4.5271e-05,0.01022,7.5615e-05,0,0,0.061884,-0.026454,0,0.0003932,0,0,0,0.034022,4.5103e-05,0.01022,0.12751,0.014762,0.030203,8.9269e-07,0.75,0.54,0
0.034887,-0.002183,0.034062,-3.1727e-05,0.010209,2.4893e-05,0,0,0.062018,-0.026626,0,0.00012944,0,0,0,0.034062,-3.1746e-05,0.010209,0.041833,0.014746,0.0303,8.9804e-07,0.76,0.54,0
0.035508,-0.0021645,0.0341,-0.00010878,0.010197,-1.844e-05,0,0,0.062146,-0.026796,0,-9.5888e-05,0,0,0,0.0341,-0.00010879,0.010197,-0.030885,0.014729,0.030395,9.0319e-07,0.77,0.54,0
0.03613,-0.0021482,0.034134,-0.00018506,0.010185,-5.4887e-05,0,0,0.062269,-0.026962,0,-0.00028541,0,0,0,0.034134,-0.00018515,0.010185,-0.091632,0.014711,0.030487,9.081e-07,0.78,0.54,0
0.036753,-0.0021338,0.034166,-0.00025984,0.010172,-8.4979e-05,0,0,0.062385,-0.027122,0,-0.00044189,0,0,0,0.034166,-0.00026005,0.010172,-0.14143,0.014693,0.030575,9.1273e-07,0.79,0.54,0
0.037378,-0.0021211,0.034195,-0.00033255,0.010159,-0.00010926,0,0,0.062494,-0.027277,0,-0.00056813,0,0,0,0.034195,-0.00033289,0.010159,-0.1813,0.014674,0.030659,9.1708e-07,0.8,0.54,0
0.038003,-0.00211,0.034221,-0.00040269,0.010145,-0.00012825,0,0,0.062595,-0.027425,0,-0.00066692,0,0,0,0.034221,-0.00040316,0.010145,-0.21224,0.014654,0.030739,9.2112e-07,0.81,0.54,0
0.03863,-0.0021003,0.034244,-0.00046989,0.010132,-0.00014249,0,0,0.06269,-0.027565,0,-0.00074095,0,0,0,0.034244,-0.00047047,0.010132,-0.23518,0.014635,0.030813,9.2485e-07,0.82,0.54,0
0.039257,-0.0020918,0.034264,-0.00053385,0.010119,-0.00015246,0,0,0.062777,-0.027697,0,-0.00079278,0,0,0,0.034265,-0.00053452,0.010119,-0.25102,0.014616,0.030883,9.2827e-07,0.83,0.54,0
0.039885,-0.0020845,0.034282,-0.00059435,0.010106,-0.00015862,0,0,0.062856,-0.027821,0,-0.00082485,0,0,0,0.034283,-0.00059507,0.010106,-0.26059,0.014598,0.030947,9.314e-07,0.84,0.54,0
0.040514,-0.0020782,0.034297,-0.00065122,0.010094,-0.00016142,0,0,0.062929,-0.027937,0,-0.00083939,0,0,0,0.034298,-0.00065197,0.010094,-0.26463,0.01458,0.031007,9.3423e-07,0.85,0.54,0
0.041144,-0.0020727,0.034311,-0.00070437,0.010082,-0.00016125,0,0,0.062995,-0.028044,0,-0.00083849,0,0,0,0.034312,-0.00070511,0.010082,-0.26385,0.014563,0.031061,9.3678e-07,0.86,0.54,0
0.041774,-0.0020681,0.034322,-0.00075371,0.010071,-0.00015847,0,0,0.063054,-0.028143,0,-0.00082405,0,0,0,0.034323,-0.00075443,0.010071,-0.25885,0.014546,0.031111,9.3907e-07,0.87,0.54,0
0.042405,-0.0020641,0.034332,-0.00079923,0.01006,-0.00015343,0,0,0.063108,-0.028234,0,-0.00079781,0,0,0,0.034333,-0.0007999,0.01006,-0.25021,0.014531,0.031156,9.4111e-07,0.88,0.54,0
0.043036,-0.0020607,0.03434,-0.0008409,0.01005,-0.00014641,0,0,0.063155,-0.028316,0,-0.00076132,0,0,0,0.034341,-0.00084151,0.01005,-0.23843,0.014516,0.031197,9.4291e-07,0.89,0.54,0
0.043668,-0.0020578,0.034347,-0.00087875,0.010041,-0.00013769,0,0,0.063197,-0.02839,0,-0.00071599,0,0,0,0.034348,-0.00087929,0.010041,-0.22395,0.014503,0.031233,9.445e-07,0.9,0.54,0
0.0443,-0.0020554,0.034353,-0.00091281,0.010032,-0.00012752,0,0,0.063234,-0.028457,0,-0.00066309,0,0,0,0.034353,-0.00091327,0.010032,-0.20717,0.014491,0.031266,9.4588e-07,0.91,0.54,0
0.044933,-0.0020534,0.034357,-0.00094312,0.010024,-0.00011611,0,0,0.063266,-0.028515,0,-0.00060375,0,0,0,0.034358,-0.0009435,0.010024,-0.18845,0.01448,0.031294,9.4707e-07,0.92,0.54,0
0.045565,-0.0020517,0.034361,-0.00096971,0.010018,-0.00010365,0,0,0.063294,-0.028567,0,-0.00053898,0,0,0,0.034362,-0.00097001,0.010018,-0.16809,0.01447,0.031318,9.4809e-07,0.93,0.54,0
0.046199,-0.0020504,0.034364,-0.00099264,0.010011,-9.0326e-05,0,0,0.063317,-0.028611,0,-0.0004697,0,0,0,0.034364,-0.00099287,0.010011,-0.14637,0.014461,0.031339,9.4894e-07,0.94,0.54,0
0.046832,-0.0020493,0.034367,-0.0010119,0.010006,-7.629e-05,0,0,0.063336,-0.028648,0,-0.00039671,0,0,0,0.034367,-0.0010121,0.010006,-0.12355,0.014454,0.031357,9.4965e-07,0.95,0.54,0
0.047465,-0.0020484,0.034368,-0.0010277,0.010002,-6.1684e-05,0,0,0.063352,-0.028678,0,-0.00032076,0,0,0,0.034368,-0.0010278,0.010002,-0.099848,0.014448,0.031371,9.5021e-07,0.96,0.54,0
0.048099,-0.0020478,0.03437,-0.0010399,0.0099989,-4.6636e-05,0,0,0.063364,-0.028701,0,-0.00024251,0,0,0,0.03437,-0.0010399,0.0099989,-0.075462,0.014443,0.031382,9.5064e-07,0.97,0.54,0
0.048732,-0.0020473,0.03437,-0.0010486,0.0099966,-3.1266e-05,0,0,0.063372,-0.028717,0,-0.00016258,0,0,0,0.03437,-0.0010486,0.0099966,-0.050578,0.014439,0.031389,9.5094e-07,0.98,0.54,0
0.049366,-0.0020471,0.034371,-0.0010538,0.0099951,-1.5685e-05,0,0,0.063377,-0.028727,0,-8.1562e-05,0,0,0,0.034371,-0.0010538,0.0099951,-0.025369,0.014437,0.031394,9.5112e-07,0.99,0.54,0
0.05,-0.002047,0.034371,-0.0010555,0.0099947,1.6631e-06,0,0,0.063379,-0.02873,0,8.6482e-06,0,0,0,0.034371,-0.0010555,0.0099947,0.0026898,0.014437,0.031396,9.5118e-07,1,0.54,0
0,0,0.032239,0.013817,0.013817,-0.00070971,0,0,0.047898,5.421e-20,0,-0.0036905,0,0,0,0.032266,0.013789,0.013817,-2.2029,0.019957,0.018463,3.2325e-07,0,0.55,0
0.00047898,-3.6905e-05,0.032202,0.013355,0.013667,-0.00069795,0,0,0.04819,-0.00081104,0,-0.0036293,0,0,0,0.032227,0.013329,0.013667,-2.118,0.019741,0.018732,3.3719e-07,0.01,0.55,0
0.0009638,-6.8844e-05,0.032366,0.012985,0.013605,-0.00063603,0,0,0.048779,-0.0016134,0,-0.0033074,0,0,0,0.032387,0.012964,0.013605,-1.8775,0.019652,0.019111,3.5711e-07,0.02,0.55,0
0.0014545,-9.5703e-05,0.032539,0.012613,0.013546,-0.00057216,0,0,0.049383,-0.0024245,0,-0.0029752,0,0,0,0.032555,0.012597,0.013546,-1.6434,0.019566,0.019502,3.7787e-07,0.03,0.55,0
0.0019514,-0.00011745,0.032723,0.012236,0.013488,-0.00050898,0,0,0.050012,-0.0032543,0,-0.0026467,0,0,0,0.032736,0.012224,0.013488,-1.4223,0.019482,0.01991,3.9987e-07,0.04,0.55,0
0.0024548,-0.00013415,0.032923,0.011853,0.013433,-0.00044925,0,0,0.050674,-0.0041068,0,-0.0023361,0,0,0,0.032932,0.011844,0.013433,-1.2209,0.019403,0.020341,4.2335e-07,0.05,0.55,0
0.0029649,-0.00014593,0.033139,0.011466,0.013381,-0.0003956,0,0,0.05137,-0.0049806,0,-0.0020571,0,0,0,0.033146,0.011459,0.013381,-1.0454,0.019329,0.020793,4.4843e-07,0.06,0.55,0
0.0034822,-0.00015297,0.033373,0.011078,0.013336,-0.00035008,0,0,0.052098,-0.0058684,0,-0.0018204,0,0,0,0.033379,0.011073,0.013336,-0.89939,0.019262,0.021265,4.7508e-07,0.07,0.55,0
0.0040069,-0.00015545,0.033625,0.010698,0.013297,-0.00031324,0,0,0.052852,-0.006756,0,-0.0016288,0,0,0,0.033629,0.010694,0.013297,-0.78263,0.019207,0.02175,5.0305e-07,0.08,0.55,0
0.0045392,-0.00015342,0.03389,0.010337,0.013268,-0.00028208,0,0,0.053617,-0.0076206,0,-0.0014668,0,0,0,0.033893,0.010334,0.013268,-0.68608,0.019165,0.022238,5.3181e-07,0.09,0.55,0
0.0050792,-0.00014658,0.034164,0.010009,0.013252,-0.00024549,0,0,0.054372,-0.0084313,0,-0.0012765,0,0,0,0.034167,0.010007,0.013252,-0.58222,0.019142,0.022712,5.6051e-07,0.1,0.55,0
0.0056267,-0.00013387,0.034447,0.009733,0.013254,-0.00017671,0,0,0.055101,-0.0091545,0,-0.0009189,0,0,0,0.034448,0.0097317,0.013254,-0.40966,0.019144,0.023157,5.8834e-07,0.11,0.55,0
0.0061813,-0.0001129,0.034785,0.0095321,0.013295,-4.2833e-06,0,0,0.055874,-0.0097841,0,-2.2273e-05,0,0,0,0.034785,0.0095321,0.013295,-0.0097182,0.019204,0.023598,6.1743e-07,0.12,0.55,0
0.0067441,-7.7672e-05,0.035541,0.0094747,0.013505,0.00030046,0,0,0.057294,-0.010478,0,0.0015624,0,0,0,0.035544,0.0094712,0.013505,0.66033,0.019507,0.024309,6.6978e-07,0.13,0.55,0
0.0073271,-3.1215e-05,0.036133,0.0088623,0.013499,0.0007383,0,0,0.058849,-0.012054,0,0.0038392,0,0,0,0.036153,0.0088424,0.013499,1.5497,0.019498,0.025306,7.3822e-07,0.14,0.55,0
0.0079211,1.771e-05,0.035464,0.0072088,0.012802,0.0002532,0,0,0.04431,-0.0096943,0,0.0021128,0,0,0,0.035493,0.0071791,0.012802,0.61749,0.018491,0.026003,7.49e-07,0.15,0.55,0
0.0082133,-7.4683e-06,0.036439,0.008929,0.01361,0.0012884,0,0,0.029677,-0.0060859,0,0.0033498,0,0,0,0.036499,0.0088687,0.01361,2.6756,0.019659,0.025591,7.6215e-07,0.16,0.55,0
0.0085147,-7.6426e-05,0.0367,0.0088342,0.01366,0.00075464,0,0,0.029952,-0.0062739,0,0.0019621,0,0,0,0.036721,0.0088138,0.01366,1.5501,0.019732,0.025827,7.808e-07,0.17,0.55,0
0.0088124,-0.00014771,0.036226,0.0079827,0.013262,0.00099193,0,0,0.029852,-0.0068638,0,0.002579,0,0,0,0.03626,0.0079479,0.013262,2.009,0.019157,0.026065,7.8353e-07,0.18,0.55,0
0.0091117,-0.00022176,0.0362,0.0077999,0.0132,0.0011037,0,0,0.0299,-0.0070199,0,0.0028695,0,0,0,0.036242,0.0077571,0.0132,2.2221,0.019067,0.026192,7.9015e-07,0.19,0.55,0
0.0094104,-0.00029594,0.036048,0.0075571,0.013081,0.0011406,0,0,0.029856,-0.0071817,0,0.0029657,0,0,0,0.036093,0.0075115,0.013081,2.289,0.018895,0.026244,7.8923e-07,0.2,0.55,0
0.0097088,-0.00037212,0.03594,0.0072425,0.012955,0.0011237,0,0,0.029881,-0.007426,0,0.0029217,0,0,0,0.035984,0.0071985,0.012955,2.239,0.018712,0.026383,7.939e-07,0.21,0.55,0
0.010008,-0.00045078,0.035885,0.0068989,0.012835,0.0010891,0,0,0.029965,-0.0077172,0,0.0028318,0,0,0,0.035926,0.006858,0.012835,2.1488,0.01854,0.026588,8.0332e-07,0.22,0.55,0
0.010308,-0.00053206,0.035844,0.006518,0.012709,0.0010459,0,0,0.030076,-0.0080479,0,0.0027193,0,0,0,0.035881,0.0064808,0.012709,2.0399,0.018357,0.026834,8.1509e-07,0.23,0.55,0
0.010609,-0.00061605,0.035808,0.0061062,0.012574,0.00099496,0,0,0.030204,-0.0084086,0,0.0025869,0,0,0,0.035841,0.0060729,0.012574,1.9164,0.018163,0.027109,8.282e-07,0.24,0.55,0
0.010912,-0.00070275,0.03577,0.0056668,0.012431,0.00093808,0,0,0.03034,-0.0087933,0,0.002439,0,0,0,0.035799,0.0056376,0.012431,1.7832,0.017956,0.027403,8.4196e-07,0.25,0.55,0
0.011216,-0.00079212,0.035726,0.0052034,0.012279,0.00087623,0,0,0.030481,-0.0091979,0,0.0022782,0,0,0,0.035751,0.0051783,0.012279,1.643,0.017736,0.027713,8.5598e-07,0.26,0.55,0
0.011522,-0.00088408,0.035675,0.0047171,0.012117,0.0008114,0,0,0.030624,-0.0096206,0,0.0021096,0,0,0,0.035696,0.0046958,0.012117,1.5004,0.017503,0.028036,8.7006e-07,0.27,0.55,0
0.011829,-0.0009785,0.035616,0.0042085,0.011947,0.00074708,0,0,0.030769,-0.01006,0,0.0019424,0,0,0,0.035634,0.0041907,0.011947,1.3618,0.017257,0.028371,8.8404e-07,0.28,0.55,0
0.012137,-0.0010751,0.035548,0.0036799,0.011768,0.00068801,0,0,0.030914,-0.010515,0,0.0017888,0,0,0,0.035563,0.0036651,0.011768,1.2362,0.016999,0.028717,8.9769e-07,0.29,0.55,0
0.012447,-0.0011737,0.035469,0.0031362,0.011581,0.00063929,0,0,0.031054,-0.010979,0,0.0016622,0,0,0,0.035481,0.0031236,0.011581,1.1323,0.016729,0.029067,9.1057e-07,0.3,0.55,0
0.012758,-0.0012736,0.035374,0.002585,0.011388,0.00060501,0,0,0.031182,-0.011444,0,0.001573,0,0,0,0.035386,0.0025739,0.011388,1.0567,0.016449,0.029412,9.2205e-07,0.31,0.55,0
0.013071,-0.0013745,0.03526,0.0020363,0.011189,0.00058705,0,0,0.031292,-0.011898,0,0.0015263,0,0,0,0.03527,0.0020259,0.011189,1.012,0.016162,0.029741,9.3133e-07,0.32,0.55,0
0.013384,-0.0014759,0.03512,0.0015006,0.010986,0.0005841,0,0,0.031374,-0.012331,0,0.0015187,0,0,0,0.03513,0.0014904,0.010986,0.99505,0.015869,0.030039,9.376e-07,0.33,0.55,0
0.013698,-0.0015772,0.034951,0.00098711,0.010781,0.00059138,0,0,0.03142,-0.012732,0,0.0015376,0,0,0,0.034961,0.00097681,0.010781,0.99725,0.015573,0.030296,9.4019e-07,0.34,0.55,0
0.014013,-0.001678,0.034749,0.0005012,0.010575,0.00060115,0,0,0.031426,-0.013096,0,0.001563,0,0,0,0.03476,0.00049065,0.010575,1.0053,0.015275,0.030504,9.3878e-07,0.35,0.55,0
0.014327,-0.0017779,0.034517,4.2734e-05,0.010368,0.000604,0,0,0.031394,-0.013423,0,0.0015704,0,0,0,0.034528,3.2155e-05,0.010368,1.0034,0.014976,0.030663,9.335e-07,0.36,0.55,0
0.01464,-0.0018769,0.034259,-0.00039476,0.010159,0.00059068,0,0,0.03133,-0.01372,0,0.0015358,0,0,0,0.034269,-0.00040483,0.010159,0.97624,0.014674,0.030783,9.2502e-07,0.37,0.55,0
0.014953,-0.0019748,0.033984,-0.00082396,0.009948,0.00055422,0,0,0.031247,-0.014004,0,0.001441,0,0,0,0.033993,-0.00083278,0.009948,0.91197,0.014369,0.030881,9.1452e-07,0.38,0.55,0
0.015265,-0.0020715,0.033707,-0.0012626,0.0097332,0.0004927,0,0,0.031165,-0.014294,0,0.001281,0,0,0,0.033714,-0.0012695,0.0097332,0.80706,0.014059,0.030983,9.0364e-07,0.39,0.55,0
0.015577,-0.0021668,0.033443,-0.0017308,0.0095136,0.00041208,0,0,0.031108,-0.014618,0,0.0010714,0,0,0,0.033447,-0.0017356,0.0095136,0.67114,0.013742,0.031123,8.9415e-07,0.4,0.55,0
0.015887,-0.00226,0.03321,-0.0022419,0.0092905,0.00032872,0,0,0.031096,-0.014992,0,0.00085466,0,0,0,0.033213,-0.002245,0.0092905,0.53119,0.01342,0.031326,8.8769e-07,0.41,0.55,0
0.016199,-0.00235,0.033025,-0.0027943,0.0090691,0.00026582,0,0,0.031142,-0.015423,0,0.00069114,0,0,0,0.033027,-0.0027963,0.0090691,0.42518,0.0131,0.031607,8.8527e-07,0.42,0.55,0
0.01651,-0.0024354,0.032927,-0.0033462,0.0088742,0.00025708,0,0,0.031268,-0.015886,0,0.00066841,0,0,0,0.032928,-0.003348,0.0088742,0.40605,0.012818,0.031969,8.8906e-07,0.43,0.55,0
0.016824,-0.0025135,0.032882,-0.0039019,0.0086941,0.00035298,0,0,0.031445,-0.016375,0,0.00091773,0,0,0,0.032886,-0.0039053,0.0086941,0.54973,0.012558,0.032385,8.9661e-07,0.44,0.55,0
0.017139,-0.0025806,0.032763,-0.0043183,0.0085335,0.00059151,0,0,0.031499,-0.016707,0,0.0015379,0,0,0,0.032773,-0.0043277,0.0085335,0.91366,0.012326,0.032629,8.9544e-07,0.45,0.55,0
0.017454,-0.0026372,0.033035,-0.0038906,0.0087433,0.00089933,0,0,0.031579,-0.016424,0,0.0023383,0,0,0,0.033057,-0.0039125,0.0087433,1.3944,0.012629,0.032543,9.1043e-07,0.46,0.55,0
0.017771,-0.0026864,0.032968,-0.0035372,0.0088294,0.00011215,0,0,0.031381,-0.016077,0,0.0002916,0,0,0,0.032969,-0.0035375,0.0088294,0.17602,0.012754,0.032159,8.9606e-07,0.47,0.55,0
0.018082,-0.0027838,0.032155,-0.002982,0.0087518,0.00031368,0,0,0.045313,-0.020338,0,-4.0792e-05,0,0,0,0.032182,-0.0030099,0.0087518,0.31671,0.012641,0.031125,7.7387e-07,0.48,0.55,0
0.018677,-0.0029489,0.032891,0.00025979,0.0099454,-0.00039022,0,0,0.05966,-0.025183,0,-0.0020292,0,0,0,0.032896,0.00025513,0.0099454,-0.68504,0.014366,0.029035,8.0136e-07,0.49,0.55,0
0.019275,-0.0030925,0.032775,0.00087646,0.010095,0.00022917,0,0,0.058966,-0.023969,0,0.0011917,0,0,0,0.032776,0.00087482,0.010095,0.41161,0.014582,0.028435,7.7585e-07,0.5,0.55,0
0.019856,-0.0031974,0.032224,0.00069647,0.009876,0.00081219,0,0,0.058104,-0.023867,0,0.0042234,0,0,0,0.032245,0.00067556,0.009876,1.4747,0.014265,0.028121,7.4361e-07,0.51,0.55,0
0.020437,-0.0032624,0.032175,0.00054536,0.0098162,0.0012049,0,0,0.058134,-0.024104,0,0.0062656,0,0,0,0.032221,0.00049953,0.0098162,2.1784,0.014179,0.02824,7.4658e-07,0.52,0.55,0
0.021019,-0.0032971,0.032249,0.00044349,0.0098079,0.00143,0,0,0.058348,-0.024347,0,0.0074361,0,0,0,0.032314,0.00037933,0.0098079,2.5692,0.014167,0.028418,7.562e-07,0.53,0.55,0
0.021604,-0.0033082,0.032347,0.00037652,0.009817,0.0015618,0,0,0.058577,-0.024545,0,0.0081215,0,0,0,0.032423,0.0003004,0.009817,2.7902,0.01418,0.028578,7.6599e-07,0.54,0.55,0
0.022191,-0.0033005,0.032453,0.00034533,0.0098395,0.0016357,0,0,0.058795,-0.024685,0,0.0085054,0,0,0,0.032536,0.00026222,0.0098395,2.9088,0.014213,0.028709,7.7508e-07,0.55,0.55,0
0.02278,-0.003278,0.032562,0.00034537,0.0098723,0.0016673,0,0,0.058994,-0.02477,0,0.0086698,0,0,0,0.032648,0.00025932,0.0098723,2.9546,0.01426,0.028812,7.8322e-07,0.56,0.55,0
0.02337,-0.003244,0.03267,0.00036915,0.0099117,0.0016652,0,0,0.059171,-0.024811,0,0.0086591,0,0,0,0.032755,0.00028353,0.0099117,2.9434,0.014317,0.028887,7.9034e-07,0.57,0.55,0
0.023963,-0.0032011,0.032773,0.00040935,0.0099548,0.0016351,0,0,0.059328,-0.024818,0,0.0085023,0,0,0,0.032856,0.00032695,0.0099548,2.8848,0.014379,0.028942,7.9649e-07,0.58,0.55,0
0.024557,-0.003152,0.032872,0.00045941,0.0099994,0.0015811,0,0,0.059468,-0.024804,0,0.0082219,0,0,0,0.032949,0.00038246,0.0099994,2.7862,0.014443,0.02898,8.0179e-07,0.59,0.55,0
0.025152,-0.0030986,0.032964,0.00051335,0.010043,0.001507,0,0,0.059595,-0.024778,0,0.0078362,0,0,0,0.033034,0.00044352,0.010043,2.6531,0.014507,0.029008,8.0642e-07,0.6,0.55,0
0.025749,-0.0030428,0.033052,0.00056534,0.010085,0.0014158,0,0,0.059714,-0.024752,0,0.0073622,0,0,0,0.033113,0.00050375,0.010085,2.4907,0.014568,0.02903,8.1061e-07,0.61,0.55,0
0.026347,-0.0029861,0.033135,0.00061017,0.010124,0.0013111,0,0,0.05983,-0.024735,0,0.0068179,0,0,0,0.033188,0.00055741,0.010124,2.3047,0.014623,0.029054,8.1464e-07,0.62,0.55,0
0.026946,-0.0029298,0.033216,0.00064384,0.010158,0.0011967,0,0,0.05995,-0.024736,0,0.0062226,0,0,0,0.033259,0.00059994,0.010158,2.1012,0.014672,0.029083,8.1876e-07,0.63,0.55,0
0.027546,-0.0028748,0.033294,0.00066374,0.010187,0.0010762,0,0,0.060077,-0.024761,0,0.0055961,0,0,0,0.033329,0.00062828,0.010187,1.887,0.014715,0.029123,8.2315e-07,0.64,0.55,0
0.028147,-0.002822,0.03337,0.00066861,0.010212,0.00095324,0,0,0.060212,-0.024812,0,0.0049568,0,0,0,0.033398,0.00064084,0.010212,1.6683,0.01475,0.029174,8.2796e-07,0.65,0.55,0
0.02875,-0.0027719,0.033446,0.00065828,0.010231,0.00083097,0,0,0.060358,-0.02489,0,0.004321,0,0,0,0.033467,0.00063724,0.010231,1.4509,0.014778,0.029238,8.3322e-07,0.66,0.55,0
0.029354,-0.0027249,0.03352,0.00063344,0.010246,0.00071199,0,0,0.060512,-0.024993,0,0.0037023,0,0,0,0.033535,0.00061803,0.010246,1.2397,0.0148,0.029314,8.3894e-07,0.67,0.55,0
0.02996,-0.0026812,0.033593,0.00059528,0.010256,0.00059833,0,0,0.060675,-0.025119,0,0.0031113,0,0,0,0.033604,0.00058444,0.010256,1.0385,0.014815,0.029402,8.4507e-07,0.68,0.55,0
0.030568,-0.0026409,0.033664,0.0005454,0.010263,0.00049155,0,0,0.060843,-0.025265,0,0.0025561,0,0,0,0.033671,0.0005381,0.010263,0.85015,0.014824,0.029498,8.5152e-07,0.69,0.55,0
0.031177,-0.0026041,0.033733,0.00048554,0.010265,0.00039269,0,0,0.061015,-0.025428,0,0.002042,0,0,0,0.033737,0.0004809,0.010265,0.67661,0.014828,0.029603,8.582e-07,0.7,0.55,0
0.031788,-0.0025707,0.033799,0.00041751,0.010265,0.00030241,0,0,0.061188,-0.025603,0,0.0015726,0,0,0,0.033801,0.00041477,0.010265,0.51901,0.014827,0.029712,8.6502e-07,0.71,0.55,0
0.032401,-0.0025405,0.033862,0.0003431,0.010261,0.00022103,0,0,0.061361,-0.025788,0,0.0011494,0,0,0,0.033863,0.00034165,0.010261,0.3778,0.014822,0.029826,8.7188e-07,0.72,0.55,0
0.033015,-0.0025135,0.033921,0.00026399,0.010256,0.00014858,0,0,0.061531,-0.025978,0,0.00077263,0,0,0,0.033922,0.00026333,0.010256,0.25293,0.014814,0.02994,8.7868e-07,0.73,0.55,0
0.033631,-0.0024893,0.033977,0.0001817,0.010248,8.4897e-05,0,0,0.061697,-0.026172,0,0.00044146,0,0,0,0.033977,0.00018149,0.010248,0.14393,0.014802,0.030055,8.8534e-07,0.74,0.55,0
0.034249,-0.0024679,0.034029,9.7638e-05,0.010238,2.9638e-05,0,0,0.061857,-0.026365,0,0.00015412,0,0,0,0.034029,9.7612e-05,0.010238,0.050045,0.014788,0.030168,8.9179e-07,0.75,0.55,0
0.034869,-0.0024489,0.034077,1.2997e-05,0.010227,-1.7645e-05,0,0,0.062011,-0.026557,0,-9.1753e-05,0,0,0,0.034077,1.2988e-05,0.010227,-0.029678,0.014772,0.030278,8.9798e-07,0.76,0.55,0
0.035489,-0.0024322,0.034121,-7.1182e-05,0.010215,-5.7476e-05,0,0,0.062157,-0.026744,0,-0.00029888,0,0,0,0.034121,-7.1279e-05,0.010215,-0.096311,0.014755,0.030385,9.0386e-07,0.77,0.55,0
0.036112,-0.0024176,0.034161,-0.00015403,0.010202,-9.0426e-05,0,0,0.062294,-0.026926,0,-0.00047022,0,0,0,0.034162,-0.00015426,0.010202,-0.15098,0.014737,0.030487,9.094e-07,0.78,0.55,0
0.036735,-0.0024049,0.034198,-0.00023481,0.010189,-0.00011708,0,0,0.062423,-0.027102,0,-0.00060883,0,0,0,0.034198,-0.00023521,0.010189,-0.19482,0.014717,0.030584,9.1458e-07,0.79,0.55,0
0.03736,-0.0023938,0.03423,-0.00031296,0.010175,-0.00013803,0,0,0.062543,-0.027269,0,-0.00071777,0,0,0,0.034231,-0.00031351,0.010175,-0.22895,0.014697,0.030676,9.1939e-07,0.8,0.55,0
0.037986,-0.0023842,0.034259,-0.000388,0.010161,-0.00015385,0,0,0.062654,-0.027428,0,-0.00080002,0,0,0,0.03426,-0.00038868,0.010161,-0.25442,0.014677,0.030762,9.2382e-07,0.81,0.55,0
0.038613,-0.002376,0.034284,-0.00045958,0.010147,-0.00016508,0,0,0.062756,-0.027578,0,-0.00085843,0,0,0,0.034285,-0.00046037,0.010147,-0.27223,0.014657,0.030842,9.2788e-07,0.82,0.55,0
0.039241,-0.0023689,0.034307,-0.00052744,0.010134,-0.00017224,0,0,0.06285,-0.027719,0,-0.00089566,0,0,0,0.034307,-0.00052829,0.010134,-0.2833,0.014638,0.030916,9.3158e-07,0.83,0.55,0
0.03987,-0.0023629,0.034326,-0.00059138,0.01012,-0.00017581,0,0,0.062935,-0.027851,0,-0.00091422,0,0,0,0.034327,-0.00059227,0.01012,-0.28848,0.014618,0.030984,9.3492e-07,0.84,0.55,0
0.0405,-0.0023577,0.034343,-0.00065128,0.010107,-0.00017623,0,0,0.063012,-0.027973,0,-0.0009164,0,0,0,0.034344,-0.00065217,0.010107,-0.28853,0.0146,0.031047,9.3794e-07,0.85,0.55,0
0.041131,-0.0023534,0.034357,-0.00070707,0.010095,-0.0001739,0,0,0.063081,-0.028085,0,-0.00090429,0,0,0,0.034358,-0.00070793,0.010095,-0.28415,0.014582,0.031105,9.4063e-07,0.86,0.55,0
0.041762,-0.0023497,0.034369,-0.00075872,0.010083,-0.00016919,0,0,0.063144,-0.028189,0,-0.00087977,0,0,0,0.03437,-0.00075953,0.010083,-0.27595,0.014564,0.031157,9.4303e-07,0.87,0.55,0
0.042393,-0.0023467,0.034379,-0.00080622,0.010072,-0.00016241,0,0,0.063199,-0.028283,0,-0.00084455,0,0,0,0.03438,-0.00080697,0.010072,-0.26447,0.014548,0.031204,9.4516e-07,0.88,0.55,0
0.043026,-0.0023441,0.034388,-0.00084961,0.010061,-0.00015388,0,0,0.063248,-0.028369,0,-0.00080015,0,0,0,0.034388,-0.00085028,0.010061,-0.2502,0.014533,0.031246,9.4703e-07,0.89,0.55,0
0.043658,-0.002342,0.034395,-0.00088893,0.010052,-0.00014383,0,0,0.063291,-0.028446,0,-0.00074792,0,0,0,0.034395,-0.00088951,0.010052,-0.23356,0.014519,0.031283,9.4866e-07,0.9,0.55,0
0.044291,-0.0023403,0.0344,-0.00092423,0.010043,-0.00013251,0,0,0.063329,-0.028514,0,-0.00068905,0,0,0,0.034401,-0.00092472,0.010043,-0.21492,0.014506,0.031317,9.5007e-07,0.91,0.55,0
0.044925,-0.0023388,0.034405,-0.00095558,0.010035,-0.00012011,0,0,0.063362,-0.028575,0,-0.0006246,0,0,0,0.034405,-0.00095599,0.010035,-0.19462,0.014495,0.031346,9.5128e-07,0.92,0.55,0
0.045559,-0.0023377,0.034408,-0.00098304,0.010028,-0.00010683,0,0,0.06339,-0.028628,0,-0.00055549,0,0,0,0.034409,-0.00098336,0.010028,-0.17294,0.014484,0.031371,9.5231e-07,0.93,0.55,0
0.046193,-0.0023368,0.034411,-0.0010067,0.010021,-9.2799e-05,0,0,0.063413,-0.028673,0,-0.00048256,0,0,0,0.034411,-0.0010069,0.010021,-0.15012,0.014475,0.031392,9.5318e-07,0.94,0.55,0
0.046827,-0.0023361,0.034413,-0.0010266,0.010016,-7.8175e-05,0,0,0.063433,-0.028711,0,-0.00040651,0,0,0,0.034413,-0.0010268,0.010016,-0.12638,0.014468,0.03141,9.5389e-07,0.95,0.55,0
0.047461,-0.0023355,0.034415,-0.0010428,0.010012,-6.3076e-05,0,0,0.063448,-0.028741,0,-0.00032799,0,0,0,0.034415,-0.0010429,0.010012,-0.10192,0.014461,0.031424,9.5445e-07,0.96,0.55,0
0.048096,-0.0023351,0.034416,-0.0010553,0.010008,-4.7612e-05,0,0,0.06346,-0.028765,0,-0.00024758,0,0,0,0.034416,-0.0010554,0.010008,-0.076907,0.014456,0.031435,9.5488e-07,0.97,0.55,0
0.048731,-0.0023348,0.034417,-0.0010642,0.010006,-3.1885e-05,0,0,0.063469,-0.028782,0,-0.0001658,0,0,0,0.034417,-0.0010643,0.010006,-0.051488,0.014453,0.031443,9.5518e-07,0.98,0.55,0
0.049365,-0.0023347,0.034417,-0.0010696,0.010004,-1.5985e-05,0,0,0.063474,-0.028792,0,-8.312e-05,0,0,0,0.034417,-0.0010696,0.010004,-0.025808,0.014451,0.031448,9.5536e-07,0.99,0.55,0
0.05,-0.0023346,0.034417,-0.0010714,0.010004,1.0238e-06,0,0,0.063475,-0.028795,0,5.3239e-06,0,0,0,0.034417,-0.0010714,0.010004,0.001653,0.01445,0.031449,9.5541e-07,1,0.55,0
0,0,0.032106,0.01376,0.01376,-0.00086679,0,0,0.047701,-1.6263e-19,0,-0.0045073,0,0,0,0.032147,0.013719,0.01376,-2.699,0.019875,0.018408,3.2035e-07,0,0.56,0
0.00047701,-4.5073e-05,0.032068,0.013296,0.013609,-0.00085773,0,0,0.047994,-0.00081499,0,-0.0044602,0,0,0,0.032107,0.013257,0.013609,-2.6106,0.019658,0.018677,3.3421e-07,0.01,0.56,0
0.00095987,-8.5072e-05,0.032232,0.012924,0.013547,-0.00080105,0,0,0.048582,-0.0016187,0,-0.0041655,0,0,0,0.032265,0.012891,0.013547,-2.3717,0.019568,0.019055,3.5392e-07,0.02,0.56,0
0.0014486,-0.00012005,0.032403,0.012554,0.013487,-0.00074673,0,0,0.049181,-0.0024265,0,-0.003883,0,0,0,0.032431,0.012526,0.013487,-2.1515,0.019481,0.019442,3.7434e-07,0.03,0.56,0
0.0019435,-0.00015007,0.032582,0.01218,0.013429,-0.00069617,0,0,0.0498,-0.0032471,0,-0.0036201,0,0,0,0.032606,0.012156,0.013429,-1.952,0.019397,0.019844,3.958e-07,0.04,0.56,0
0.0024446,-0.00017523,0.032774,0.011802,0.013373,-0.00065115,0,0,0.050443,-0.0040838,0,-0.003386,0,0,0,0.032794,0.011782,0.013373,-1.7767,0.019316,0.020264,4.1848e-07,0.05,0.56,0
0.0029523,-0.00019564,0.032979,0.011422,0.01332,-0.00061339,0,0,0.051112,-0.004935,0,-0.0031896,0,0,0,0.032996,0.011405,0.01332,-1.6286,0.019241,0.0207,4.4244e-07,0.06,0.56,0
0.0034669,-0.00021143,0.033197,0.011044,0.013272,-0.00058391,0,0,0.051805,-0.0057944,0,-0.0030363,0,0,0,0.033212,0.011028,0.013272,-1.5088,0.019171,0.021152,4.6764e-07,0.07,0.56,0
0.0039884,-0.00022264,0.033428,0.010672,0.01323,-0.00056199,0,0,0.052515,-0.0066512,0,-0.0029224,0,0,0,0.033442,0.010658,0.01323,-1.4138,0.01911,0.021613,4.9387e-07,0.08,0.56,0
0.0045172,-0.00022913,0.033672,0.010315,0.013196,-0.00054348,0,0,0.053238,-0.0074915,0,-0.0028261,0,0,0,0.033685,0.010302,0.013196,-1.3322,0.019061,0.022078,5.2087e-07,0.09,0.56,0
0.0050532,-0.0002304,0.033933,0.0099805,0.013174,-0.00051867,0,0,0.053973,-0.0083033,0,-0.0026971,0,0,0,0.033944,0.0099693,0.013174,-1.2399,0.019029,0.022544,5.4859e-07,0.1,0.56,0
0.0055967,-0.00022538,0.034233,0.0096754,0.013173,-0.00046903,0,0,0.054758,-0.0090927,0,-0.002439,0,0,0,0.034242,0.0096664,0.013173,-1.0938,0.019027,0.023024,5.7813e-07,0.11,0.56,0
0.0061484,-0.00021204,0.034657,0.0094017,0.013218,-0.00038691,0,0,0.055742,-0.0099212,0,-0.0020119,0,0,0,0.034663,0.0093957,0.013218,-0.8775,0.019092,0.023589,6.1495e-07,0.12,0.56,0
0.0067115,-0.00018923,0.035229,0.0090517,0.013284,-0.00029295,0,0,0.057057,-0.011005,0,-0.0015233,0,0,0,0.035233,0.0090484,0.013284,-0.64107,0.019188,0.024344,6.66e-07,0.13,0.56,0
0.0072895,-0.00015573,0.036083,0.008862,0.013484,-0.0001578,0,0,0.058759,-0.012016,0,-0.00082056,0,0,0,0.036084,0.0088611,0.013484,-0.33213,0.019476,0.025231,7.3253e-07,0.14,0.56,0
0.0078867,-9.224e-05,0.041469,0.0085256,0.014998,-0.00080178,0,0,0.047859,-0.011332,0,-0.0031848,0,0,0,0.04149,0.0085044,0.014998,-1.4942,0.021664,0.030269,1.3821e-06,0.15,0.56,0
0.008306,-7.7476e-05,0.033502,0.0077023,0.012361,0.0014111,0,0,0.037966,-0.0082907,0,0.0052609,0,0,0,0.03358,0.0076244,0.012361,3.2079,0.017855,0.023942,7.1632e-07,0.16,0.56,0
0.0086064,-0.00013965,0.037081,0.0084364,0.013655,0.001523,0,0,0.030453,-0.0067842,0,0.0039599,0,0,0,0.037161,0.0083557,0.013655,3.035,0.019724,0.026555,8.3415e-07,0.17,0.56,0
0.008915,-0.00021928,0.037059,0.0080842,0.013543,0.0013035,0,0,0.030571,-0.0070964,0,0.0033892,0,0,0,0.037118,0.0080257,0.013543,2.5707,0.019562,0.026763,8.4523e-07,0.18,0.56,0
0.0092178,-0.0002927,0.036496,0.0079271,0.013327,0.0013018,0,0,0.03012,-0.0070197,0,0.0033846,0,0,0,0.036555,0.0078679,0.013327,2.6036,0.01925,0.026385,8.0891e-07,0.19,0.56,0
0.0095174,-0.00036808,0.036199,0.0075724,0.013131,0.0012328,0,0,0.029987,-0.0072265,0,0.0032054,0,0,0,0.036251,0.0075194,0.013131,2.4615,0.018967,0.026378,8.0068e-07,0.2,0.56,0
0.0098175,-0.00044664,0.036134,0.0072759,0.013023,0.0011736,0,0,0.030044,-0.0074712,0,0.0030515,0,0,0,0.036181,0.0072282,0.013023,2.3251,0.018811,0.026535,8.0744e-07,0.21,0.56,0
0.010118,-0.00052814,0.036083,0.0069357,0.012906,0.0011303,0,0,0.03013,-0.0077607,0,0.0029389,0,0,0,0.036126,0.006892,0.012906,2.2175,0.018641,0.02674,8.1702e-07,0.22,0.56,0
0.01042,-0.00061268,0.03604,0.0065643,0.012781,0.0010842,0,0,0.030236,-0.008082,0,0.0028188,0,0,0,0.03608,0.0065245,0.012781,2.1037,0.018462,0.026977,8.2834e-07,0.23,0.56,0
0.010723,-0.00070022,0.035991,0.0061556,0.012644,0.0010371,0,0,0.030351,-0.0084348,0,0.0026964,0,0,0,0.036027,0.0061195,0.012644,1.9884,0.018263,0.027237,8.4049e-07,0.24,0.56,0
0.011027,-0.0007907,0.035936,0.0057213,0.012497,0.00098736,0,0,0.030471,-0.0088088,0,0.0025671,0,0,0,0.035969,0.005689,0.012497,1.8696,0.018052,0.027515,8.5303e-07,0.25,0.56,0
0.011332,-0.00088406,0.035874,0.0052634,0.012341,0.00093355,0,0,0.030593,-0.0092012,0,0.0024272,0,0,0,0.035903,0.005235,0.012341,1.7452,0.017826,0.027804,8.656e-07,0.26,0.56,0
0.011639,-0.0009802,0.035804,0.00478,0.012175,0.0008761,0,0,0.030717,-0.0096137,0,0.0022779,0,0,0,0.035829,0.0047553,0.012175,1.6163,0.017586,0.028108,8.7821e-07,0.27,0.56,0
0.011947,-0.001079,0.035726,0.0042691,0.011999,0.00081883,0,0,0.030846,-0.010048,0,0.002129,0,0,0,0.035748,0.0042478,0.011999,1.4901,0.017331,0.028428,8.9092e-07,0.28,0.56,0
0.012256,-0.0011802,0.035641,0.0037314,0.011812,0.00076818,0,0,0.030978,-0.010504,0,0.0019973,0,0,0,0.035659,0.0037129,0.011812,1.3783,0.017061,0.028765,9.036e-07,0.29,0.56,0
0.012566,-0.0012834,0.035544,0.0031721,0.011615,0.00073128,0,0,0.031108,-0.010976,0,0.0019013,0,0,0,0.035561,0.0031556,0.011615,1.2934,0.016777,0.029113,9.1582e-07,0.3,0.56,0
0.012878,-0.001388,0.035433,0.0026006,0.01141,0.00071428,0,0,0.03123,-0.011452,0,0.0018571,0,0,0,0.035449,0.0025851,0.01141,1.2457,0.016481,0.02946,9.2676e-07,0.31,0.56,0
0.013191,-0.0014935,0.035299,0.0020303,0.011199,0.00072045,0,0,0.031331,-0.011919,0,0.0018732,0,0,0,0.035315,0.0020147,0.011199,1.24,0.016176,0.02979,9.3536e-07,0.32,0.56,0
0.013505,-0.0015992,0.035136,0.0014764,0.010984,0.0007486,0,0,0.031398,-0.01236,0,0.0019464,0,0,0,0.035153,0.0014598,0.010984,1.2734,0.015866,0.030084,9.4047e-07,0.33,0.56,0
0.013819,-0.0017045,0.034937,0.00095262,0.010767,0.00079244,0,0,0.031421,-0.012759,0,0.0020603,0,0,0,0.034955,0.00093415,0.010767,1.3351,0.015552,0.030325,9.4108e-07,0.34,0.56,0
0.014133,-0.0018088,0.034696,0.00046751,0.010549,0.00084129,0,0,0.031391,-0.013106,0,0.0021873,0,0,0,0.034717,0.00044685,0.010549,1.4071,0.015238,0.0305,9.366e-07,0.35,0.56,0
0.014447,-0.0019119,0.034413,2.2142e-05,0.01033,0.00088178,0,0,0.031307,-0.013401,0,0.0022926,0,0,0,0.034435,-4.5264e-07,0.01033,1.4678,0.014922,0.030607,9.2698e-07,0.36,0.56,0
0.014759,-0.0020137,0.03409,-0.00039094,0.01011,0.00090016,0,0,0.031174,-0.013651,0,0.0023404,0,0,0,0.034113,-0.00041443,0.01011,1.4944,0.014603,0.030652,9.128e-07,0.37,0.56,0
0.01507,-0.0021141,0.033736,-0.00078739,0.0098845,0.0008845,0,0,0.031006,-0.013873,0,0.0022997,0,0,0,0.033758,-0.00081004,0.0098845,1.4667,0.014278,0.030654,8.9527e-07,0.38,0.56,0
0.015379,-0.0022135,0.033364,-0.0011903,0.0096522,0.00082737,0,0,0.030826,-0.014095,0,0.0021512,0,0,0,0.033384,-0.0012101,0.0096522,1.3708,0.013942,0.030643,8.7624e-07,0.39,0.56,0
0.015687,-0.0023117,0.032996,-0.0016295,0.00941,0.00073045,0,0,0.030662,-0.014351,0,0.0018992,0,0,0,0.033012,-0.0016449,0.00941,1.208,0.013592,0.030662,8.5803e-07,0.4,0.56,0
0.015993,-0.0024084,0.032648,-0.0021384,0.0091529,0.00060944,0,0,0.030544,-0.014679,0,0.0015845,0,0,0,0.032659,-0.0021491,0.0091529,1.0034,0.013221,0.030756,8.4267e-07,0.41,0.56,0
0.016298,-0.0025028,0.03234,-0.0027209,0.0088857,0.00049741,0,0,0.03049,-0.015089,0,0.0012933,0,0,0,0.032347,-0.0027279,0.0088857,0.81264,0.012835,0.030948,8.3149e-07,0.42,0.56,0
0.016602,-0.0025929,0.03208,-0.0033481,0.0086195,0.00041132,0,0,0.030498,-0.015558,0,0.0010694,0,0,0,0.032085,-0.0033529,0.0086195,0.66509,0.01245,0.031223,8.2418e-07,0.43,0.56,0
0.016908,-0.0026765,0.032112,-0.0038309,0.0084844,0.00038816,0,0,0.030716,-0.01601,0,0.0010092,0,0,0,0.032116,-0.0038351,0.0084844,0.61866,0.012255,0.031644,8.3553e-07,0.44,0.56,0
0.017217,-0.002749,0.03231,-0.0044699,0.0083521,0.00048407,0,0,0.031146,-0.016669,0,0.0012586,0,0,0,0.032317,-0.0044763,0.0083521,0.7539,0.012064,0.032347,8.6219e-07,0.45,0.56,0
0.017531,-0.0028012,0.032262,-0.0041557,0.008432,0.0004531,0,0,0.03098,-0.016364,0,0.0011781,0,0,0,0.032268,-0.0041614,0.008432,0.71271,0.012179,0.032046,8.5296e-07,0.46,0.56,0
0.017836,-0.0028508,0.029228,-0.002362,0.0080598,-0.00028972,0,0,0.037913,-0.018389,0,-0.0015228,0,0,0,0.029236,-0.0023695,0.0080598,-0.71386,0.011642,0.027895,7.1783e-07,0.47,0.56,0
0.018252,-0.0029911,0.036382,-0.0024355,0.010184,0.0009383,0,0,0.047327,-0.022444,0,0.0033643,0,0,0,0.036405,-0.0024582,0.010184,1.3814,0.01471,0.034336,1.3333e-06,0.48,0.56,0
0.01884,-0.003204,0.032066,0.00020472,0.0096812,0.00010983,0,0,0.0582,-0.024639,0,0.00057111,0,0,0,0.032066,0.00020434,0.0096812,0.1975,0.013984,0.028338,7.4336e-07,0.49,0.56,0
0.019416,-0.0033383,0.031498,0.00018969,0.0095063,0.00060276,0,0,0.057178,-0.024223,0,0.0031344,0,0,0,0.031509,0.00017809,0.0095063,1.1025,0.013731,0.027864,7.0586e-07,0.5,0.56,0
0.019984,-0.0034368,0.031256,0.00033583,0.0094776,0.00086596,0,0,0.056624,-0.023769,0,0.004503,0,0,0,0.03128,0.0003116,0.0094776,1.603,0.01369,0.027554,6.873e-07,0.51,0.56,0
0.020549,-0.0035021,0.031212,0.0003303,0.0094627,0.0011092,0,0,0.056548,-0.023744,0,0.0057678,0,0,0,0.031252,0.00029051,0.0094627,2.0544,0.013668,0.027545,6.8593e-07,0.52,0.56,0
0.021115,-0.0035386,0.031339,0.0003011,0.0094921,0.0012839,0,0,0.056803,-0.023897,0,0.0066762,0,0,0,0.031392,0.00024808,0.0094921,2.3646,0.013711,0.027704,6.963e-07,0.53,0.56,0
0.021685,-0.0035514,0.031531,0.00028227,0.0095439,0.0013998,0,0,0.057166,-0.02408,0,0.007279,0,0,0,0.031593,0.00021969,0.0095439,2.5598,0.013786,0.027905,7.1049e-07,0.54,0.56,0
0.022258,-0.0035451,0.031739,0.00029055,0.009609,0.0014726,0,0,0.057539,-0.024228,0,0.0076573,0,0,0,0.031808,0.00022174,0.009609,2.675,0.01388,0.028095,7.2508e-07,0.55,0.56,0
0.022835,-0.0035235,0.031945,0.000325,0.009681,0.0015102,0,0,0.057887,-0.024326,0,0.0078529,0,0,0,0.032017,0.00025303,0.009681,2.7281,0.013984,0.028255,7.387e-07,0.56,0.56,0
0.023416,-0.0034899,0.032139,0.00037821,0.0097552,0.0015171,0,0,0.058198,-0.02438,0,0.0078886,0,0,0,0.032211,0.00030591,0.0097552,2.7284,0.014091,0.028386,7.5092e-07,0.57,0.56,0
0.023999,-0.0034471,0.032319,0.0004432,0.0098285,0.0014977,0,0,0.058474,-0.024402,0,0.0077883,0,0,0,0.032389,0.00037298,0.0098285,2.6843,0.014197,0.02849,7.6168e-07,0.58,0.56,0
0.024585,-0.0033979,0.032482,0.00051552,0.0098994,0.0014552,0,0,0.058716,-0.024398,0,0.0075672,0,0,0,0.032549,0.00044941,0.0098994,2.6011,0.014299,0.028571,7.7104e-07,0.59,0.56,0
0.025174,-0.0033443,0.032632,0.00058952,0.0099664,0.0013916,0,0,0.05893,-0.02438,0,0.0072362,0,0,0,0.032692,0.00052919,0.0099664,2.4821,0.014396,0.028635,7.792e-07,0.6,0.56,0
0.025764,-0.0032883,0.032768,0.00065866,0.010028,0.001309,0,0,0.059124,-0.02436,0,0.0068067,0,0,0,0.032821,0.00060539,0.010028,2.3306,0.014485,0.028689,7.8645e-07,0.61,0.56,0
0.026356,-0.0032315,0.032893,0.00071674,0.010083,0.0012107,0,0,0.059307,-0.024352,0,0.0062956,0,0,0,0.032939,0.00067125,0.010083,2.1518,0.014564,0.028742,7.9319e-07,0.62,0.56,0
0.02695,-0.0031752,0.03301,0.00075934,0.010131,0.0011008,0,0,0.059487,-0.024366,0,0.0057243,0,0,0,0.033048,0.00072181,0.010131,1.9526,0.014634,0.028798,7.9977e-07,0.63,0.56,0
0.027546,-0.0031206,0.033121,0.00078399,0.010172,0.00098375,0,0,0.059669,-0.024408,0,0.0051155,0,0,0,0.033151,0.00075409,0.010172,1.7409,0.014692,0.028865,8.0645e-07,0.64,0.56,0
0.028144,-0.0030684,0.033227,0.0007899,0.010205,0.00086355,0,0,0.059857,-0.02448,0,0.0044905,0,0,0,0.03325,0.00076693,0.010205,1.5239,0.014741,0.028942,8.134e-07,0.65,0.56,0
0.028743,-0.0030192,0.033329,0.00077753,0.010232,0.00074381,0,0,0.060052,-0.024581,0,0.0038678,0,0,0,0.033346,0.00076054,0.010232,1.3083,0.014779,0.029032,8.2068e-07,0.66,0.56,0
0.029345,-0.0029733,0.033426,0.00074817,0.010252,0.0006274,0,0,0.060252,-0.024711,0,0.0032625,0,0,0,0.033438,0.00073613,0.010252,1.0995,0.014809,0.029134,8.2829e-07,0.67,0.56,0
0.029948,-0.0029311,0.03352,0.00070366,0.010267,0.00051656,0,0,0.060457,-0.024865,0,0.0026861,0,0,0,0.033528,0.00069553,0.010267,0.9016,0.01483,0.029246,8.3618e-07,0.68,0.56,0
0.030554,-0.0028924,0.033609,0.00064611,0.010277,0.00041292,0,0,0.060665,-0.025039,0,0.0021472,0,0,0,0.033614,0.00064094,0.010277,0.71758,0.014844,0.029366,8.4428e-07,0.69,0.56,0
0.031161,-0.0028574,0.033694,0.00057774,0.010282,0.00031757,0,0,0.060873,-0.02523,0,0.0016513,0,0,0,0.033697,0.0005747,0.010282,0.54936,0.014851,0.029493,8.5248e-07,0.7,0.56,0
0.031771,-0.0028258,0.033775,0.00050076,0.010283,0.00023114,0,0,0.061079,-0.025433,0,0.0012019,0,0,0,0.033776,0.00049916,0.010283,0.39798,0.014853,0.029623,8.6068e-07,0.71,0.56,0
0.032383,-0.0027977,0.03385,0.00041727,0.01028,0.0001539,0,0,0.061282,-0.025644,0,0.0008003,0,0,0,0.033851,0.00041656,0.01028,0.26375,0.014849,0.029755,8.6879e-07,0.72,0.56,0
0.032997,-0.0027726,0.03392,0.00032919,0.010275,8.5836e-05,0,0,0.061478,-0.025859,0,0.00044635,0,0,0,0.033921,0.00032897,0.010275,0.14641,0.014842,0.029887,8.7671e-07,0.73,0.56,0
0.033613,-0.0027505,0.033986,0.00023826,0.010267,2.6688e-05,0,0,0.061668,-0.026075,0,0.00013878,0,0,0,0.033986,0.00023824,0.010267,0.04531,0.01483,0.030017,8.8437e-07,0.74,0.56,0
0.03423,-0.0027311,0.034045,0.00014599,0.010257,-2.3955e-05,0,0,0.061849,-0.02629,0,-0.00012457,0,0,0,0.034046,0.00014597,0.010257,-0.040488,0.014816,0.030144,8.917e-07,0.75,0.56,0
0.03485,-0.0027142,0.0341,5.368e-05,0.010246,-6.6618e-05,0,0,0.062021,-0.0265,0,-0.00034642,0,0,0,0.0341,5.3549e-05,0.010246,-0.11211,0.0148,0.030266,8.9865e-07,0.76,0.56,0
0.035471,-0.0026994,0.03415,-3.7583e-05,0.010234,-0.0001019,0,0,0.062182,-0.026705,0,-0.00052986,0,0,0,0.03415,-3.7887e-05,0.010234,-0.17077,0.014782,0.030384,9.0519e-07,0.77,0.56,0
0.036093,-0.0026867,0.034195,-0.0001269,0.01022,-0.00013042,0,0,0.062333,-0.026903,0,-0.00067817,0,0,0,0.034195,-0.0001274,0.01022,-0.21771,0.014763,0.030495,9.113e-07,0.78,0.56,0
0.036717,-0.0026758,0.034234,-0.00021355,0.010206,-0.00015282,0,0,0.062473,-0.027091,0,-0.00079466,0,0,0,0.034235,-0.00021422,0.010206,-0.25417,0.014742,0.0306,9.1695e-07,0.79,0.56,0
0.037343,-0.0026665,0.03427,-0.00029695,0.010192,-0.00016973,0,0,0.062602,-0.027271,0,-0.00088259,0,0,0,0.034271,-0.00029779,0.010192,-0.28132,0.014722,0.030698,9.2215e-07,0.8,0.56,0
0.037969,-0.0026585,0.034301,-0.00037668,0.010177,-0.00018175,0,0,0.062721,-0.02744,0,-0.0009451,0,0,0,0.034302,-0.00037764,0.010177,-0.30029,0.0147,0.03079,9.2691e-07,0.81,0.56,0
0.038597,-0.0026518,0.034328,-0.00045242,0.010163,-0.00018945,0,0,0.06283,-0.027599,0,-0.00098514,0,0,0,0.034329,-0.00045345,0.010163,-0.31208,0.014679,0.030875,9.3123e-07,0.82,0.56,0
0.039226,-0.0026462,0.034351,-0.00052392,0.010148,-0.00019336,0,0,0.062928,-0.027748,0,-0.0010054,0,0,0,0.034353,-0.00052499,0.010148,-0.31764,0.014659,0.030953,9.3514e-07,0.83,0.56,0
0.039856,-0.0026415,0.034372,-0.00059106,0.010134,-0.00019395,0,0,0.063017,-0.027886,0,-0.0010085,0,0,0,0.034373,-0.00059213,0.010134,-0.31783,0.014638,0.031025,9.3865e-07,0.84,0.56,0
0.040486,-0.0026377,0.034389,-0.00065373,0.01012,-0.00019168,0,0,0.063098,-0.028013,0,-0.00099674,0,0,0,0.03439,-0.00065478,0.01012,-0.31339,0.014619,0.031091,9.4178e-07,0.85,0.56,0
0.041118,-0.0026345,0.034403,-0.00071192,0.010107,-0.00018694,0,0,0.06317,-0.02813,0,-0.00097209,0,0,0,0.034404,-0.00071291,0.010107,-0.30501,0.0146,0.03115,9.4457e-07,0.86,0.56,0
0.04175,-0.0026319,0.034416,-0.00076563,0.010095,-0.00018008,0,0,0.063233,-0.028238,0,-0.00093644,0,0,0,0.034417,-0.00076655,0.010095,-0.29328,0.014582,0.031204,9.4704e-07,0.87,0.56,0
0.042382,-0.0026298,0.034426,-0.00081489,0.010083,-0.00017143,0,0,0.06329,-0.028335,0,-0.00089143,0,0,0,0.034426,-0.00081572,0.010083,-0.27871,0.014565,0.031252,9.4921e-07,0.88,0.56,0
0.043015,-0.0026281,0.034434,-0.00085977,0.010072,-0.00016125,0,0,0.06334,-0.028423,0,-0.0008385,0,0,0,0.034434,-0.00086051,0.010072,-0.26177,0.014549,0.031295,9.511e-07,0.89,0.56,0
0.043649,-0.0026267,0.03444,-0.00090035,0.010062,-0.00014979,0,0,0.063384,-0.028502,0,-0.00077892,0,0,0,0.034441,-0.00090099,0.010062,-0.24284,0.014534,0.031334,9.5274e-07,0.9,0.56,0
0.044283,-0.0026257,0.034446,-0.00093671,0.010053,-0.00013727,0,0,0.063422,-0.028573,0,-0.00071379,0,0,0,0.034446,-0.00093724,0.010053,-0.22228,0.014521,0.031367,9.5416e-07,0.91,0.56,0
0.044917,-0.0026249,0.03445,-0.00096894,0.010044,-0.00012386,0,0,0.063454,-0.028634,0,-0.00064406,0,0,0,0.03445,-0.00096937,0.010044,-0.20036,0.014508,0.031397,9.5537e-07,0.92,0.56,0
0.045552,-0.0026243,0.034453,-0.00099713,0.010037,-0.00010973,0,0,0.063482,-0.028688,0,-0.00057057,0,0,0,0.034453,-0.00099746,0.010037,-0.17734,0.014498,0.031422,9.5639e-07,0.93,0.56,0
0.046187,-0.0026238,0.034456,-0.0010214,0.01003,-9.5005e-05,0,0,0.063506,-0.028734,0,-0.00049403,0,0,0,0.034456,-0.0010216,0.01003,-0.15343,0.014488,0.031443,9.5724e-07,0.94,0.56,0
0.046822,-0.0026235,0.034457,-0.0010417,0.010025,-7.9816e-05,0,0,0.063525,-0.028773,0,-0.00041504,0,0,0,0.034458,-0.0010419,0.010025,-0.12882,0.01448,0.031461,9.5793e-07,0.95,0.56,0
0.047458,-0.0026233,0.034459,-0.0010583,0.01002,-6.4259e-05,0,0,0.06354,-0.028804,0,-0.00033415,0,0,0,0.034459,-0.0010584,0.01002,-0.10366,0.014474,0.031476,9.5848e-07,0.96,0.56,0
0.048093,-0.0026231,0.034459,-0.0010711,0.010016,-4.8424e-05,0,0,0.063552,-0.028828,0,-0.00025181,0,0,0,0.03446,-0.0010712,0.010016,-0.078087,0.014468,0.031487,9.589e-07,0.97,0.56,0
0.048729,-0.002623,0.03446,-0.0010802,0.010014,-3.239e-05,0,0,0.06356,-0.028845,0,-0.00016843,0,0,0,0.03446,-0.0010802,0.010014,-0.052216,0.014465,0.031495,9.5919e-07,0.98,0.56,0
0.049364,-0.0026229,0.03446,-0.0010857,0.010012,-1.6226e-05,0,0,0.063565,-0.028855,0,-8.4377e-05,0,0,0,0.03446,-0.0010857,0.010012,-0.026155,0.014462,0.031499,9.5936e-07,0.99,0.56,0
0.05,-0.0026229,0.034461,-0.0010875,0.010012,3.7424e-07,0,0,0.063566,-0.028858,0,1.946e-06,0,0,0,0.034461,-0.0010875,0.010012,0.00060319,0.014462,0.031501,9.5942e-07,1,0.56,0
0,0,0.031961,0.013697,0.013697,-0.0010232,0,0,0.047485,1.0842e-19,0,-0.0053204,0,0,0,0.032018,0.01364,0.013697,-3.1965,0.019785,0.018349,3.1729e-07,0,0.57,0
0.00047485,-5.3204e-05,0.031923,0.013239,0.013548,-0.0010163,0,0,0.047773,-0.00080495,0,-0.0052847,0,0,0,0.031978,0.013184,0.013548,-3.1043,0.01957,0.018614,3.3084e-07,0.01,0.57,0
0.00095546,-0.00010122,0.032083,0.012871,0.013486,-0.00096362,0,0,0.048352,-0.0015996,0,-0.0050108,0,0,0,0.032131,0.012823,0.013486,-2.8642,0.01948,0.018986,3.5003e-07,0.02,0.57,0
0.0014419,-0.00014423,0.032248,0.012504,0.013426,-0.0009168,0,0,0.048938,-0.002396,0,-0.0047674,0,0,0,0.03229,0.012462,0.013426,-2.6529,0.019393,0.019365,3.6985e-07,0.03,0.57,0
0.0019342,-0.00018239,0.03242,0.012136,0.013367,-0.00087603,0,0,0.049538,-0.0032008,0,-0.0045553,0,0,0,0.032458,0.012098,0.013367,-2.4683,0.019307,0.019756,3.9052e-07,0.04,0.57,0
0.0024327,-0.00021582,0.0326,0.011765,0.013309,-0.00084212,0,0,0.050156,-0.0040164,0,-0.004379,0,0,0,0.032634,0.011731,0.013309,-2.3107,0.019225,0.02016,4.1215e-07,0.05,0.57,0
0.0029373,-0.00024463,0.032789,0.011393,0.013255,-0.00081591,0,0,0.05079,-0.004841,0,-0.0042427,0,0,0,0.03282,0.011362,0.013255,-2.1806,0.019145,0.020578,4.3477e-07,0.06,0.57,0
0.0034485,-0.00026886,0.032987,0.011022,0.013203,-0.00079763,0,0,0.05144,-0.0056696,0,-0.0041477,0,0,0,0.033016,0.010993,0.013203,-2.077,0.019071,0.021005,4.5831e-07,0.07,0.57,0
0.0039661,-0.00028848,0.033194,0.010657,0.013155,-0.00078604,0,0,0.0521,-0.0064951,0,-0.0040874,0,0,0,0.033221,0.01063,0.013155,-1.9952,0.019002,0.021441,4.8261e-07,0.08,0.57,0
0.0044905,-0.00030325,0.033409,0.010302,0.013113,-0.0007777,0,0,0.05277,-0.0073105,0,-0.0040441,0,0,0,0.033435,0.010275,0.013113,-1.9254,0.018941,0.02188,5.0757e-07,0.09,0.57,0
0.0050215,-0.00031265,0.033637,0.0099573,0.013078,-0.00076643,0,0,0.053453,-0.0081146,0,-0.0039854,0,0,0,0.033662,0.0099325,0.013078,-1.8519,0.018891,0.022323,5.3329e-07,0.1,0.57,0
0.0055595,-0.00031573,0.033885,0.0096206,0.013052,-0.00074746,0,0,0.054166,-0.0089207,0,-0.0038868,0,0,0,0.033908,0.0095976,0.013052,-1.7628,0.018852,0.02278,5.604e-07,0.11,0.57,0
0.0061049,-0.00031133,0.03413,0.0092613,0.013017,-0.00072238,0,0,0.054893,-0.0097657,0,-0.0037563,0,0,0,0.034151,0.0092404,0.013017,-1.6624,0.018803,0.023253,5.8874e-07,0.12,0.57,0
0.0066574,-0.00029777,0.03426,0.0088584,0.012936,-0.00070402,0,0,0.055443,-0.0106,0,-0.0036609,0,0,0,0.034279,0.0088389,0.012936,-1.5864,0.018685,0.02366,6.1204e-07,0.13,0.57,0
0.0072137,-0.00027154,0.034112,0.0084633,0.012773,-0.00054898,0,0,0.055482,-0.011204,0,-0.0028547,0,0,0,0.034124,0.0084516,0.012773,-1.2256,0.018449,0.023808,6.1681e-07,0.14,0.57,0
0.007767,-0.00021229,0.034739,0.0079066,0.012794,-0.00071626,0,0,0.057058,-0.012707,0,-0.0037245,0,0,0,0.034758,0.0078875,0.012794,-1.528,0.01848,0.024785,6.798e-07,0.15,0.57,0
0.0083549,-0.00016683,0.038844,0.0085599,0.014221,-0.00017967,0,0,0.044981,-0.010252,0,-0.0011162,0,0,0,0.03885,0.0085545,0.014221,-0.47491,0.020542,0.027897,1.0662e-06,0.16,0.57,0
0.0087357,-0.00021211,0.031533,0.0074655,0.0117,0.0019501,0,0,0.035304,-0.0073578,0,0.0070765,0,0,0,0.031691,0.0073078,0.0117,4.6877,0.0169,0.022512,6.1757e-07,0.17,0.57,0
0.0090332,-0.00028963,0.036082,0.0082251,0.013292,0.0013813,0,0,0.029627,-0.0065872,0,0.0035915,0,0,0,0.036151,0.0081568,0.013292,2.8318,0.0192,0.025812,7.6674e-07,0.18,0.57,0
0.0093282,-0.00036216,0.03603,0.007761,0.013137,0.0013531,0,0,0.02976,-0.006989,0,0.003518,0,0,0,0.036094,0.0076964,0.013137,2.7342,0.018976,0.026106,7.8168e-07,0.19,0.57,0
0.0096284,-0.00044047,0.036318,0.0075975,0.013175,0.0012319,0,0,0.030086,-0.0072502,0,0.0032028,0,0,0,0.03637,0.0075448,0.013175,2.4515,0.01903,0.026464,8.0856e-07,0.2,0.57,0
0.0099299,-0.00052154,0.036329,0.0072828,0.013084,0.0012123,0,0,0.030219,-0.0075411,0,0.003152,0,0,0,0.03638,0.0072323,0.013084,2.3858,0.018899,0.026707,8.2226e-07,0.21,0.57,0
0.010233,-0.00060599,0.036325,0.0069829,0.012993,0.0011713,0,0,0.030333,-0.0078125,0,0.0030453,0,0,0,0.036372,0.0069362,0.012993,2.2822,0.018767,0.026924,8.3391e-07,0.22,0.57,0
0.010537,-0.0006937,0.036273,0.0066047,0.012863,0.0011312,0,0,0.030433,-0.0081364,0,0.002941,0,0,0,0.036316,0.0065616,0.012863,2.1802,0.01858,0.027158,8.4499e-07,0.23,0.57,0
0.010842,-0.00078475,0.036216,0.0061941,0.012723,0.0010929,0,0,0.030541,-0.0084875,0,0.0028415,0,0,0,0.036256,0.0061544,0.012723,2.0821,0.018378,0.027414,8.5678e-07,0.24,0.57,0
0.011147,-0.00087893,0.036146,0.0057642,0.012573,0.0010556,0,0,0.030645,-0.0088516,0,0.0027445,0,0,0,0.036183,0.0057276,0.012573,1.9874,0.018161,0.027675,8.6819e-07,0.25,0.57,0
0.011454,-0.00097614,0.036065,0.0053155,0.012414,0.0010123,0,0,0.030746,-0.0092283,0,0.002632,0,0,0,0.036098,0.0052822,0.012414,1.8835,0.017931,0.027941,8.791e-07,0.26,0.57,0
0.011762,-0.0010764,0.035974,0.0048377,0.012243,0.00096155,0,0,0.030849,-0.0096274,0,0.0025,0,0,0,0.036003,0.004808,0.012243,1.7672,0.017685,0.028222,8.8998e-07,0.27,0.57,0
0.012071,-0.0011795,0.035875,0.0043239,0.01206,0.00090955,0,0,0.03096,-0.010057,0,0.0023648,0,0,0,0.035902,0.0042977,0.01206,1.6499,0.01742,0.028526,9.0129e-07,0.28,0.57,0
0.012382,-0.0012852,0.035772,0.0037748,0.011864,0.00086525,0,0,0.03108,-0.010516,0,0.0022497,0,0,0,0.035795,0.0037514,0.011864,1.5479,0.017137,0.028856,9.1308e-07,0.29,0.57,0
0.012693,-0.0013932,0.03566,0.0031951,0.011656,0.00083866,0,0,0.031204,-0.011,0,0.0021805,0,0,0,0.035681,0.0031734,0.011656,1.4788,0.016837,0.029205,9.2488e-07,0.3,0.57,0
0.013006,-0.0015027,0.035533,0.0025957,0.011439,0.00083887,0,0,0.031323,-0.011496,0,0.002181,0,0,0,0.035554,0.0025744,0.011439,1.458,0.016522,0.029562,9.3571e-07,0.31,0.57,0
0.013319,-0.0016129,0.035383,0.0019947,0.011213,0.00087165,0,0,0.031421,-0.011984,0,0.0022663,0,0,0,0.035406,0.0019719,0.011213,1.4944,0.016197,0.029904,9.442e-07,0.32,0.57,0
0.013634,-0.0017231,0.0352,0.0014139,0.010984,0.00093645,0,0,0.03148,-0.012441,0,0.0024348,0,0,0,0.035225,0.001388,0.010984,1.5865,0.015866,0.030205,9.4872e-07,0.33,0.57,0
0.013949,-0.0018323,0.034973,0.00087399,0.010754,0.0010253,0,0,0.031484,-0.012844,0,0.0026659,0,0,0,0.035004,0.00084319,0.010754,1.7208,0.015534,0.03044,9.4787e-07,0.34,0.57,0
0.014264,-0.0019401,0.034695,0.00038794,0.010525,0.0011241,0,0,0.031421,-0.013178,0,0.0029225,0,0,0,0.034732,0.00035115,0.010525,1.8746,0.015203,0.03059,9.4071e-07,0.35,0.57,0
0.014577,-0.002046,0.034363,-4.1813e-05,0.010296,0.001215,0,0,0.031287,-0.01344,0,0.0031589,0,0,0,0.034406,-8.4664e-05,0.010296,2.02,0.014873,0.030648,9.2701e-07,0.36,0.57,0
0.014889,-0.0021499,0.033976,-0.00042411,0.010065,0.00128,0,0,0.031083,-0.013636,0,0.003328,0,0,0,0.034023,-0.00047168,0.010065,2.128,0.014539,0.030618,9.0718e-07,0.37,0.57,0
0.015199,-0.0022523,0.033538,-0.0007776,0.0098281,0.0013029,0,0,0.030823,-0.013787,0,0.0033876,0,0,0,0.033587,-0.000827,0.0098281,2.1713,0.014196,0.030515,8.8229e-07,0.38,0.57,0
0.015506,-0.0023534,0.03306,-0.0011293,0.0095791,0.0012706,0,0,0.030525,-0.013921,0,0.0033036,0,0,0,0.033107,-0.0011765,0.0095791,2.1254,0.013836,0.030369,8.5399e-07,0.39,0.57,0
0.01581,-0.0024538,0.032562,-0.0015152,0.0093139,0.001176,0,0,0.030222,-0.014078,0,0.0030575,0,0,0,0.032602,-0.0015558,0.0093139,1.9741,0.013453,0.030226,8.249e-07,0.4,0.57,0
0.01611,-0.0025535,0.032073,-0.0019866,0.0090259,0.0010306,0,0,0.029961,-0.014316,0,0.0026795,0,0,0,0.032104,-0.0020177,0.0090259,1.7316,0.013037,0.030157,7.984e-07,0.41,0.57,0
0.016409,-0.0026518,0.031578,-0.0026153,0.0086887,0.00087542,0,0,0.029756,-0.014695,0,0.0022761,0,0,0,0.0316,-0.0026377,0.0086887,1.4656,0.01255,0.030211,7.7469e-07,0.42,0.57,0
0.016706,-0.0027465,0.031069,-0.0033302,0.0083216,0.00079118,0,0,0.029572,-0.015147,0,0.0020571,0,0,0,0.031087,-0.0033484,0.0083216,1.3169,0.01202,0.030334,7.5145e-07,0.43,0.57,0
0.017,-0.0028337,0.03031,-0.0040974,0.0078637,0.00069047,0,0,0.02918,-0.01555,0,0.0017952,0,0,0,0.030324,-0.0041113,0.0078637,1.1492,0.011359,0.030279,7.1096e-07,0.44,0.57,0
0.017289,-0.002914,0.029926,-0.0044034,0.0076567,0.00087636,0,0,0.02895,-0.015678,0,0.0022785,0,0,0,0.029948,-0.0044258,0.0076567,1.4614,0.01106,0.030203,6.9014e-07,0.45,0.57,0
0.017579,-0.0029645,0.025975,-0.0033671,0.0067822,-6.3014e-05,0,0,0.034116,-0.017843,0,-0.0002268,0,0,0,0.025975,-0.0033672,0.0067822,-0.12467,0.0097965,0.025811,5.3592e-07,0.46,0.57,0
0.017946,-0.0030445,0.032354,-0.0032549,0.0087297,0.00088544,0,0,0.04309,-0.021478,0,0.0031233,0,0,0,0.032376,-0.0032771,0.0087297,1.3997,0.012609,0.031423,9.3365e-07,0.47,0.57,0
0.018505,-0.0032498,0.029326,-0.0014298,0.0083687,0.00045505,0,0,0.054488,-0.025476,0,0.0023662,0,0,0,0.029332,-0.0014365,0.0083687,0.84749,0.012088,0.027224,6.0145e-07,0.48,0.57,0
0.019036,-0.0034417,0.02913,-0.00029491,0.0086504,0.00038001,0,0,0.053246,-0.023258,0,0.0019761,0,0,0,0.029135,-0.00029982,0.0086504,0.7398,0.012495,0.026135,5.6753e-07,0.49,0.57,0
0.01957,-0.003577,0.029456,-0.00016191,0.0087882,0.00064006,0,0,0.053736,-0.02327,0,0.0033283,0,0,0,0.02947,-0.00017573,0.0087882,1.2374,0.012694,0.026334,5.8469e-07,0.5,0.57,0
0.02011,-0.0036727,0.029793,5.18e-05,0.0089534,0.00078285,0,0,0.054183,-0.023144,0,0.0040708,0,0,0,0.029813,3.1208e-05,0.0089534,1.5068,0.012933,0.026474,6.0089e-07,0.51,0.57,0
0.020654,-0.0037373,0.030056,0.00016044,0.0090649,0.00090027,0,0,0.054576,-0.023151,0,0.0046814,0,0,0,0.030083,0.00013335,0.0090649,1.7233,0.013094,0.026632,6.1507e-07,0.52,0.57,0
0.021202,-0.003775,0.030349,0.00017453,0.009157,0.0010126,0,0,0.055099,-0.023355,0,0.0052657,0,0,0,0.030383,0.00014058,0.009157,1.9199,0.013227,0.026893,6.3353e-07,0.53,0.57,0
0.021756,-0.0037898,0.030681,0.00018109,0.0092586,0.0011145,0,0,0.055698,-0.023602,0,0.0057956,0,0,0,0.030722,0.00014042,0.0092586,2.09,0.013374,0.027194,6.55e-07,0.54,0.57,0
0.022316,-0.0037851,0.031017,0.00022122,0.0093716,0.0011998,0,0,0.056279,-0.023791,0,0.0062389,0,0,0,0.031064,0.00017454,0.0093716,2.2277,0.013537,0.027471,6.7637e-07,0.55,0.57,0
0.022881,-0.0037645,0.031337,0.00029081,0.0094882,0.0012554,0,0,0.056806,-0.023913,0,0.0065283,0,0,0,0.031387,0.00024012,0.0094882,2.3119,0.013705,0.027706,6.9615e-07,0.56,0.57,0
0.023452,-0.0037316,0.031627,0.00036993,0.009599,0.0012833,0,0,0.057272,-0.023996,0,0.0066734,0,0,0,0.031679,0.00031733,0.009599,2.3472,0.013865,0.027904,7.139e-07,0.57,0.57,0
0.024027,-0.0036892,0.031889,0.00045761,0.009704,0.0012871,0,0,0.057681,-0.024041,0,0.0066931,0,0,0,0.031942,0.00040499,0.009704,2.3411,0.014017,0.028067,7.2963e-07,0.58,0.57,0
0.024606,-0.0036399,0.032123,0.00055319,0.0098029,0.0012681,0,0,0.058033,-0.024049,0,0.0065943,0,0,0,0.032174,0.00050233,0.0098029,2.2966,0.01416,0.028196,7.4323e-07,0.59,0.57,0
0.025188,-0.0035862,0.032331,0.00065111,0.0098946,0.001225,0,0,0.058335,-0.024033,0,0.0063699,0,0,0,0.032378,0.00060382,0.0098946,2.2111,0.014292,0.028297,7.5488e-07,0.6,0.57,0
0.025772,-0.00353,0.032516,0.00074125,0.009977,0.0011585,0,0,0.0586,-0.024013,0,0.0060242,0,0,0,0.032558,0.00069907,0.009977,2.0853,0.014411,0.028381,7.6503e-07,0.61,0.57,0
0.02636,-0.0034732,0.032682,0.00081554,0.010049,0.0010723,0,0,0.058845,-0.024008,0,0.0055759,0,0,0,0.032718,0.0007795,0.010049,1.9251,0.014516,0.028459,7.7429e-07,0.62,0.57,0
0.026949,-0.0034171,0.032835,0.00086903,0.010111,0.00097149,0,0,0.059081,-0.024029,0,0.0050517,0,0,0,0.032864,0.00083953,0.010111,1.7392,0.014605,0.028542,7.8316e-07,0.63,0.57,0
0.027541,-0.003363,0.032977,0.00089958,0.010163,0.00086154,0,0,0.059316,-0.024085,0,0.00448,0,0,0,0.033,0.00087646,0.010163,1.5374,0.01468,0.028633,7.9197e-07,0.64,0.57,0
0.028136,-0.0033116,0.03311,0.00090713,0.010205,0.00074735,0,0,0.059553,-0.024175,0,0.0038862,0,0,0,0.033128,0.0008898,0.010205,1.3287,0.014741,0.028736,8.0092e-07,0.65,0.57,0
0.028732,-0.0032635,0.033236,0.00089291,0.010239,0.00063304,0,0,0.059794,-0.024299,0,0.0032918,0,0,0,0.033249,0.00088052,0.010239,1.1208,0.014789,0.028851,8.1009e-07,0.66,0.57,0
0.029331,-0.0032191,0.033356,0.00085899,0.010264,0.00052185,0,0,0.060037,-0.024454,0,0.0027136,0,0,0,0.033364,0.00085062,0.010264,0.91977,0.014826,0.028977,8.1948e-07,0.67,0.57,0
0.029933,-0.0031785,0.033468,0.00080793,0.010283,0.00041624,0,0,0.060282,-0.024635,0,0.0021645,0,0,0,0.033474,0.00080262,0.010283,0.73006,0.014853,0.029112,8.2903e-07,0.68,0.57,0
0.030537,-0.0031417,0.033574,0.00074245,0.010295,0.00031797,0,0,0.060526,-0.024837,0,0.0016534,0,0,0,0.033578,0.00073937,0.010295,0.55482,0.014871,0.029255,8.3866e-07,0.69,0.57,0
0.031144,-0.0031087,0.033674,0.0006653,0.010302,0.00022815,0,0,0.060768,-0.025055,0,0.0011864,0,0,0,0.033676,0.00066372,0.010302,0.396,0.01488,0.029403,8.4827e-07,0.7,0.57,0
0.031752,-0.0030794,0.033767,0.00057912,0.010304,0.00014745,0,0,0.061004,-0.025284,0,0.00076671,0,0,0,0.033768,0.00057846,0.010304,0.25454,0.014883,0.029552,8.5775e-07,0.71,0.57,0
0.032364,-0.0030534,0.033853,0.00048635,0.010302,7.6071e-05,0,0,0.061234,-0.025521,0,0.00039557,0,0,0,0.033854,0.00048618,0.010302,0.13062,0.01488,0.029702,8.6701e-07,0.72,0.57,0
0.032977,-0.0030307,0.033933,0.00038919,0.010297,1.3946e-05,0,0,0.061455,-0.025759,0,7.2518e-05,0,0,0,0.033933,0.00038919,0.010297,0.023821,0.014873,0.02985,8.7595e-07,0.73,0.57,0
0.033593,-0.0030108,0.034006,0.00028957,0.010289,-3.9251e-05,0,0,0.061665,-0.025998,0,-0.0002041,0,0,0,0.034006,0.00028952,0.010289,-0.066701,0.014861,0.029994,8.845e-07,0.74,0.57,0
0.03421,-0.0029937,0.034072,0.00018913,0.010278,-8.4007e-05,0,0,0.061864,-0.026232,0,-0.00043684,0,0,0,0.034073,0.00018892,0.010278,-0.14205,0.014847,0.030134,8.9261e-07,0.75,0.57,0
0.03483,-0.0029789,0.034133,8.9245e-05,0.010266,-0.00012092,0,0,0.062052,-0.026461,0,-0.00062877,0,0,0,0.034133,8.8816e-05,0.010266,-0.2035,0.014829,0.030267,9.0022e-07,0.76,0.57,0
0.035451,-0.0029663,0.034186,-8.9374e-06,0.010253,-0.00015064,0,0,0.062226,-0.026682,0,-0.00078333,0,0,0,0.034187,-9.601e-06,0.010253,-0.2524,0.01481,0.030394,9.0732e-07,0.77,0.57,0
0.036075,-0.0029557,0.034234,-0.00010451,0.010239,-0.00017386,0,0,0.062388,-0.026893,0,-0.00090405,0,0,0,0.034235,-0.00010539,0.010239,-0.29008,0.01479,0.030513,9.1389e-07,0.78,0.57,0
0.036699,-0.0029467,0.034277,-0.00019676,0.010224,-0.00019124,0,0,0.062537,-0.027094,0,-0.00099446,0,0,0,0.034278,-0.00019782,0.010224,-0.31784,0.014768,0.030625,9.1992e-07,0.79,0.57,0
0.037325,-0.0029392,0.034314,-0.00028515,0.010209,-0.00020346,0,0,0.062674,-0.027284,0,-0.001058,0,0,0,0.034315,-0.00028634,0.010209,-0.33691,0.014746,0.030729,9.2543e-07,0.8,0.57,0
0.037953,-0.002933,0.034347,-0.00036927,0.010193,-0.00021113,0,0,0.062799,-0.027462,0,-0.0010979,0,0,0,0.034348,-0.00037055,0.010193,-0.34843,0.014723,0.030825,9.3043e-07,0.81,0.57,0
0.038581,-0.002928,0.034375,-0.00044883,0.010178,-0.00021483,0,0,0.062912,-0.027629,0,-0.0011171,0,0,0,0.034376,-0.00045016,0.010178,-0.35344,0.014701,0.030914,9.3494e-07,0.82,0.57,0
0.039211,-0.0029238,0.034398,-0.00052367,0.010162,-0.00021509,0,0,0.063014,-0.027784,0,-0.0011185,0,0,0,0.0344,-0.000525,0.010162,-0.35287,0.014679,0.030995,9.3898e-07,0.83,0.57,0
0.039842,-0.0029206,0.034419,-0.00059368,0.010148,-0.0002124,0,0,0.063105,-0.027927,0,-0.0011045,0,0,0,0.03442,-0.00059497,0.010148,-0.34756,0.014658,0.031069,9.4259e-07,0.84,0.57,0
0.040473,-0.002918,0.034436,-0.00065882,0.010133,-0.00020718,0,0,0.063187,-0.028059,0,-0.0010773,0,0,0,0.034437,-0.00066004,0.010133,-0.33823,0.014637,0.031137,9.4579e-07,0.85,0.57,0
0.041105,-0.002916,0.03445,-0.0007191,0.010119,-0.00019983,0,0,0.06326,-0.02818,0,-0.0010391,0,0,0,0.034451,-0.00072024,0.010119,-0.32554,0.014617,0.031197,9.4861e-07,0.86,0.57,0
0.041738,-0.0029145,0.034462,-0.00077459,0.010106,-0.00019068,0,0,0.063325,-0.02829,0,-0.00099156,0,0,0,0.034463,-0.00077562,0.010106,-0.31005,0.014598,0.031252,9.5109e-07,0.87,0.57,0
0.042372,-0.0029134,0.034471,-0.00082534,0.010094,-0.00018003,0,0,0.063381,-0.02839,0,-0.00093618,0,0,0,0.034472,-0.00082626,0.010094,-0.29224,0.01458,0.031301,9.5325e-07,0.88,0.57,0
0.043006,-0.0029126,0.034479,-0.00087147,0.010082,-0.00016814,0,0,0.063431,-0.02848,0,-0.00087435,0,0,0,0.03448,-0.00087227,0.010082,-0.27252,0.014563,0.031345,9.5513e-07,0.89,0.57,0
0.04364,-0.002912,0.034485,-0.00091308,0.010072,-0.00015523,0,0,0.063474,-0.02856,0,-0.0008072,0,0,0,0.034485,-0.00091376,0.010072,-0.25126,0.014548,0.031383,9.5675e-07,0.9,0.57,0
0.044275,-0.0029117,0.034489,-0.00095028,0.010062,-0.00014149,0,0,0.063512,-0.028631,0,-0.00073574,0,0,0,0.03449,-0.00095084,0.010062,-0.22874,0.014534,0.031417,9.5813e-07,0.91,0.57,0
0.044911,-0.0029115,0.034493,-0.0009832,0.010053,-0.00012707,0,0,0.063544,-0.028694,0,-0.00066078,0,0,0,0.034493,-0.00098365,0.010053,-0.20523,0.014521,0.031446,9.593e-07,0.92,0.57,0
0.045546,-0.0029115,0.034495,-0.0010119,0.010045,-0.00011213,0,0,0.063571,-0.028748,0,-0.00058305,0,0,0,0.034496,-0.0010123,0.010045,-0.18093,0.014509,0.031472,9.6029e-07,0.93,0.57,0
0.046182,-0.0029115,0.034497,-0.0010366,0.010038,-9.6755e-05,0,0,0.063594,-0.028795,0,-0.00050312,0,0,0,0.034498,-0.0010369,0.010038,-0.15601,0.0145,0.031493,9.611e-07,0.94,0.57,0
0.046818,-0.0029115,0.034499,-0.0010573,0.010032,-8.1057e-05,0,0,0.063612,-0.028833,0,-0.0004215,0,0,0,0.034499,-0.0010575,0.010032,-0.13062,0.014491,0.031511,9.6176e-07,0.95,0.57,0
0.047454,-0.0029116,0.034499,-0.0010741,0.010028,-6.511e-05,0,0,0.063627,-0.028865,0,-0.00033857,0,0,0,0.0345,-0.0010742,0.010028,-0.10487,0.014484,0.031525,9.6229e-07,0.96,0.57,0
0.048091,-0.0029117,0.0345,-0.0010871,0.010024,-4.898e-05,0,0,0.063638,-0.028889,0,-0.0002547,0,0,0,0.0345,-0.0010872,0.010024,-0.078858,0.014479,0.031536,9.6268e-07,0.97,0.57,0
0.048727,-0.0029117,0.0345,-0.0010964,0.010021,-3.2721e-05,0,0,0.063646,-0.028906,0,-0.00017015,0,0,0,0.0345,-0.0010964,0.010021,-0.052667,0.014475,0.031543,9.6295e-07,0.98,0.57,0
0.049363,-0.0029118,0.034501,-0.0011019,0.01002,-1.638e-05,0,0,0.06365,-0.028916,0,-8.5177e-05,0,0,0,0.034501,-0.0011019,0.01002,-0.026361,0.014473,0.031548,9.6312e-07,0.99,0.57,0
0.05,-0.0029118,0.034501,-0.0011037,0.010019,-2.7963e-07,0,0,0.063652,-0.028919,0,-1.4541e-06,0,0,0,0.034501,-0.0011037,0.010019,-0.00044999,0.014472,0.031549,9.6317e-07,1,0.57,0
0,0,0.031805,0.013631,0.013631,-0.0011764,0,0,0.047253,5.421e-20,0,-0.0061172,0,0,0,0.031881,0.013555,0.013631,-3.6881,0.019689,0.018288,3.1413e-07,0,0.58,0
0.00047253,-6.1172e-05,0.031768,0.013184,0.013486,-0.0011711,0,0,0.047534,-0.00078402,0,-0.0060896,0,0,0,0.031841,0.013111,0.013486,-3.5916,0.019479,0.018546,3.2718e-07,0.01,0.58,0
0.00095068,-0.00011706,0.031922,0.012823,0.013424,-0.0011213,0,0,0.048097,-0.0015616,0,-0.0058306,0,0,0,0.031988,0.012757,0.013424,-3.3483,0.01939,0.018906,3.4564e-07,0.02,0.58,0
0.0014345,-0.00016797,0.03208,0.012462,0.013363,-0.0010797,0,0,0.048664,-0.0023408,0,-0.0056145,0,0,0,0.032139,0.012403,0.013363,-3.1408,0.019301,0.019274,3.6467e-07,0.03,0.58,0
0.001924,-0.00021408,0.032241,0.0121,0.013303,-0.0010456,0,0,0.049241,-0.0031258,0,-0.0054374,0,0,0,0.032295,0.012046,0.013303,-2.964,0.019215,0.019651,3.8439e-07,0.04,0.58,0
0.0024193,-0.00025555,0.032408,0.011737,0.013243,-0.001019,0,0,0.049828,-0.0039176,0,-0.0052989,0,0,0,0.032458,0.011687,0.013243,-2.8154,0.019129,0.020039,4.0486e-07,0.05,0.58,0
0.0029205,-0.00029246,0.03258,0.011372,0.013186,-0.00099994,0,0,0.050424,-0.0047144,0,-0.0051997,0,0,0,0.032627,0.011325,0.013186,-2.6936,0.019046,0.020435,4.2604e-07,0.06,0.58,0
0.0034278,-0.00032483,0.032755,0.011009,0.01313,-0.00098808,0,0,0.051028,-0.0055123,0,-0.005138,0,0,0,0.0328,0.010965,0.01313,-2.5962,0.018965,0.020838,4.4784e-07,0.07,0.58,0
0.0039411,-0.00035254,0.032935,0.01065,0.013076,-0.00098211,0,0,0.051635,-0.0063068,0,-0.0051069,0,0,0,0.032978,0.010607,0.013076,-2.5185,0.018887,0.021245,4.7015e-07,0.08,0.58,0
0.0044605,-0.00037534,0.033118,0.010295,0.013024,-0.00097927,0,0,0.052244,-0.0070952,0,-0.0050922,0,0,0,0.03316,0.010253,0.013024,-2.4524,0.018812,0.021655,4.9287e-07,0.09,0.58,0
0.004986,-0.00039269,0.033303,0.0099437,0.012974,-0.00097563,0,0,0.052856,-0.0078791,0,-0.0050733,0,0,0,0.033344,0.0099031,0.012974,-2.3874,0.018741,0.022066,5.1599e-07,0.1,0.58,0
0.0055176,-0.00040379,0.033486,0.0095889,0.012922,-0.00096588,0,0,0.053465,-0.008667,0,-0.0050226,0,0,0,0.033525,0.0095499,0.012922,-2.3108,0.018666,0.022479,5.3939e-07,0.11,0.58,0
0.0060553,-0.00040735,0.033647,0.0092233,0.012861,-0.00094127,0,0,0.054044,-0.0094586,0,-0.0048946,0,0,0,0.033684,0.0091871,0.012861,-2.2037,0.018577,0.022882,5.6221e-07,0.12,0.58,0
0.0065985,-0.00040124,0.033785,0.0088529,0.012791,-0.00085409,0,0,0.054583,-0.01024,0,-0.0044412,0,0,0,0.033814,0.0088237,0.012791,-1.9597,0.018476,0.023262,5.8358e-07,0.13,0.58,0
0.0071469,-0.00037981,0.034109,0.0084977,0.012782,-0.00070083,0,0,0.05545,-0.011139,0,-0.0036443,0,0,0,0.034128,0.0084786,0.012782,-1.5663,0.018463,0.023792,6.1607e-07,0.14,0.58,0
0.0077075,-0.00034637,0.033966,0.0073484,0.012394,-0.00039414,0,0,0.056087,-0.01312,0,-0.0020495,0,0,0,0.033972,0.0073425,0.012394,-0.84815,0.017903,0.024497,6.4816e-07,0.15,0.58,0
0.0082687,-0.00029567,0.034711,0.0070368,0.012524,-0.00070172,0,0,0.057686,-0.014268,0,-0.0036489,0,0,0,0.034729,0.007019,0.012524,-1.4516,0.018091,0.025409,7.1098e-07,0.16,0.58,0
0.0088612,-0.00028625,0.034147,0.0063465,0.012148,8.5149e-05,0,0,0.043412,-0.010056,0,0.0015319,0,0,0,0.034178,0.0063154,0.012148,0.25301,0.017547,0.025503,6.8827e-07,0.17,0.58,0
0.0091369,-0.00035102,0.034985,0.0075586,0.012763,0.0012595,0,0,0.028889,-0.0067659,0,0.0032747,0,0,0,0.035043,0.0075009,0.012763,2.6238,0.018436,0.025324,7.1424e-07,0.18,0.58,0
0.009439,-0.00043248,0.036604,0.0079788,0.013375,0.0010338,0,0,0.030198,-0.0070149,0,0.0026878,0,0,0,0.036641,0.0079415,0.013375,2.0656,0.019319,0.026406,8.123e-07,0.19,0.58,0
0.0097409,-0.00051308,0.036553,0.0074566,0.013203,0.0012364,0,0,0.030355,-0.0074701,0,0.0032147,0,0,0,0.036605,0.0074042,0.013203,2.4289,0.019071,0.026777,8.3231e-07,0.2,0.58,0
0.010046,-0.00059747,0.036695,0.0073492,0.013213,0.001236,0,0,0.030526,-0.0076232,0,0.0032136,0,0,0,0.036747,0.0072972,0.013213,2.4075,0.019086,0.026982,8.4772e-07,0.21,0.58,0
0.010351,-0.00068439,0.036617,0.0070264,0.013093,0.0012212,0,0,0.030581,-0.0078867,0,0.003175,0,0,0,0.036667,0.0069761,0.013093,2.3591,0.018912,0.027155,8.5508e-07,0.22,0.58,0
0.010658,-0.00077541,0.036566,0.0066402,0.012962,0.0011812,0,0,0.030685,-0.008218,0,0.0030712,0,0,0,0.036612,0.0065936,0.012962,2.2569,0.018722,0.027395,8.6669e-07,0.23,0.58,0
0.010965,-0.00086997,0.036491,0.0062075,0.01281,0.0011621,0,0,0.030786,-0.0085827,0,0.0030213,0,0,0,0.036536,0.006163,0.01281,2.1943,0.018503,0.027655,8.7839e-07,0.24,0.58,0
0.011273,-0.00096773,0.036407,0.0057905,0.012659,0.001148,0,0,0.030872,-0.0089292,0,0.0029847,0,0,0,0.03645,0.0057475,0.012659,2.1443,0.018285,0.027896,8.8842e-07,0.25,0.58,0
0.011583,-0.0010686,0.036304,0.0053641,0.0125,0.0011155,0,0,0.030945,-0.0092772,0,0.0029002,0,0,0,0.036344,0.005324,0.0125,2.0621,0.018056,0.028127,8.9696e-07,0.26,0.58,0
0.011892,-0.0011727,0.036186,0.0048922,0.012324,0.0010689,0,0,0.031022,-0.0096607,0,0.0027791,0,0,0,0.036223,0.0048558,0.012324,1.954,0.017801,0.02838,9.0564e-07,0.27,0.58,0
0.012203,-0.0012801,0.036067,0.0043746,0.012132,0.0010194,0,0,0.031115,-0.010085,0,0.0026505,0,0,0,0.036099,0.0043419,0.012132,1.8405,0.017525,0.028667,9.1549e-07,0.28,0.58,0
0.012515,-0.0013905,0.035945,0.0038122,0.011927,0.00097933,0,0,0.031223,-0.010549,0,0.0025463,0,0,0,0.035975,0.0037824,0.011927,1.7441,0.017228,0.028991,9.2646e-07,0.29,0.58,0
0.012827,-0.0015034,0.035818,0.0032074,0.011708,0.00096046,0,0,0.031343,-0.01105,0,0.0024972,0,0,0,0.035846,0.0031791,0.011708,1.6856,0.016911,0.029347,9.3808e-07,0.3,0.58,0
0.013142,-0.0016179,0.035678,0.0025704,0.011474,0.00097652,0,0,0.031464,-0.011575,0,0.0025389,0,0,0,0.035706,0.0025416,0.011474,1.688,0.016574,0.029723,9.493e-07,0.31,0.58,0
0.013457,-0.0017332,0.035514,0.0019257,0.011232,0.0010375,0,0,0.031566,-0.012098,0,0.0026974,0,0,0,0.035546,0.0018936,0.011232,1.7675,0.016224,0.03009,9.5836e-07,0.32,0.58,0
0.013773,-0.0018481,0.035313,0.001306,0.010986,0.0011443,0,0,0.031626,-0.012584,0,0.0029752,0,0,0,0.035352,0.0012675,0.010986,1.925,0.015868,0.030413,9.6306e-07,0.33,0.58,0
0.014089,-0.0019614,0.035064,0.00074177,0.010742,0.0012867,0,0,0.031619,-0.013,0,0.0033453,0,0,0,0.035112,0.00069361,0.010742,2.1439,0.015516,0.030655,9.6146e-07,0.34,0.58,0
0.014405,-0.0020724,0.034755,0.00025202,0.010502,0.0014455,0,0,0.031529,-0.013325,0,0.0037584,0,0,0,0.034815,0.00019157,0.010502,2.3949,0.01517,0.030792,9.5231e-07,0.35,0.58,0
0.01472,-0.0021807,0.034381,-0.00016029,0.010266,0.0015983,0,0,0.031349,-0.013555,0,0.0041555,0,0,0,0.034455,-0.00023408,0.010266,2.6436,0.014829,0.030811,9.3527e-07,0.36,0.58,0
0.015032,-0.0022864,0.03394,-0.00050765,0.01003,0.0017237,0,0,0.031084,-0.013699,0,0.0044816,0,0,0,0.034026,-0.00059369,0.01003,2.8574,0.014487,0.030718,9.1075e-07,0.37,0.58,0
0.015341,-0.0023899,0.03343,-0.00081325,0.0097851,0.0018043,0,0,0.030739,-0.013778,0,0.0046913,0,0,0,0.033525,-0.00090807,0.0097851,3.0079,0.014134,0.030525,8.7954e-07,0.38,0.58,0
0.015647,-0.0024919,0.032851,-0.0011071,0.0095231,0.0018254,0,0,0.030326,-0.013819,0,0.0047461,0,0,0,0.032949,-0.001205,0.0095231,3.0682,0.013756,0.030252,8.4265e-07,0.39,0.58,0
0.015948,-0.0025932,0.032207,-0.0014267,0.009234,0.0017722,0,0,0.029864,-0.013859,0,0.0046077,0,0,0,0.0323,-0.0015198,0.009234,3.0079,0.013338,0.029929,8.0168e-07,0.4,0.58,0
0.016244,-0.0026948,0.031537,-0.0018199,0.008915,0.0016334,0,0,0.029408,-0.013955,0,0.0042468,0,0,0,0.031616,-0.0018997,0.008915,2.7967,0.012877,0.029628,7.6074e-07,0.41,0.58,0
0.016536,-0.0027967,0.030911,-0.0023916,0.0085558,0.0014531,0,0,0.029062,-0.014231,0,0.0037779,0,0,0,0.030974,-0.0024548,0.0085558,2.4936,0.012358,0.029507,7.2705e-07,0.42,0.58,0
0.016826,-0.0028958,0.030142,-0.0033642,0.0080333,0.00134,0,0,0.028741,-0.014817,0,0.0034841,0,0,0,0.030195,-0.0034177,0.0080333,2.2866,0.011604,0.029598,6.9135e-07,0.43,0.58,0
0.017111,-0.0029875,0.029445,-0.0040775,0.0076102,0.0015427,0,0,0.028385,-0.015194,0,0.004011,0,0,0,0.029516,-0.0041483,0.0076102,2.6293,0.010993,0.029592,6.5772e-07,0.44,0.58,0
0.017393,-0.0030626,0.028018,-0.0045837,0.0070302,0.0011912,0,0,0.027284,-0.015098,0,0.0030972,0,0,0,0.028061,-0.0046272,0.0070302,2.0898,0.010155,0.028694,5.7344e-07,0.45,0.58,0
0.017657,-0.0031505,0.027145,-0.0043547,0.006837,0.0011528,0,0,0.039626,-0.019399,0,0.0029449,0,0,0,0.027223,-0.0044326,0.006837,1.857,0.0098757,0.027896,4.7518e-07,0.46,0.58,0
0.018186,-0.0033015,0.027553,-0.0023759,0.0075532,0.0008814,0,0,0.052,-0.025816,0,0.0045833,0,0,0,0.027579,-0.0024019,0.0075532,1.6854,0.01091,0.026448,5.1649e-07,0.47,0.58,0
0.018697,-0.0035007,0.027433,-0.001466,0.0077902,8.6828e-05,0,0,0.051072,-0.024066,0,0.0004515,0,0,0,0.027434,-0.0014663,0.0077902,0.17214,0.011253,0.025561,4.9406e-07,0.48,0.58,0
0.019207,-0.0036691,0.027758,-0.00043281,0.0081974,0.00018895,0,0,0.050856,-0.022439,0,0.00098255,0,0,0,0.027759,-0.00043407,0.0081974,0.38402,0.011841,0.02502,4.9358e-07,0.49,0.58,0
0.019714,-0.0038037,0.027889,-0.00021598,0.0083018,0.00033624,0,0,0.050926,-0.022146,0,0.0017484,0,0,0,0.027893,-0.00022,0.0083018,0.68534,0.011992,0.024968,4.9677e-07,0.5,0.58,0
0.020226,-0.0038997,0.028302,-3.8167e-05,0.0084791,0.00043897,0,0,0.051539,-0.022145,0,0.0022826,0,0,0,0.028309,-4.4965e-05,0.0084791,0.88719,0.012248,0.025197,5.1587e-07,0.51,0.58,0
0.020745,-0.0039652,0.028804,8.7744e-05,0.0086675,0.00049316,0,0,0.052355,-0.022307,0,0.0025644,0,0,0,0.028812,7.9277e-05,0.0086675,0.98359,0.01252,0.025546,5.4138e-07,0.52,0.58,0
0.021273,-0.0040057,0.029312,5.6077e-05,0.0088103,0.00055462,0,0,0.053303,-0.022761,0,0.002884,0,0,0,0.029322,4.5567e-05,0.0088103,1.0857,0.012726,0.026026,5.7136e-07,0.53,0.58,0
0.021811,-0.0040234,0.029823,3.454e-05,0.0089572,0.00068169,0,0,0.054251,-0.023199,0,0.0035448,0,0,0,0.029838,1.8948e-05,0.0089572,1.3103,0.012938,0.026506,6.0266e-07,0.54,0.58,0
0.022358,-0.0040209,0.030326,0.00012795,0.0091361,0.00080258,0,0,0.055093,-0.023421,0,0.0041734,0,0,0,0.030347,0.00010663,0.0091361,1.5213,0.013197,0.026888,6.3206e-07,0.55,0.58,0
0.022912,-0.0040017,0.030768,0.00023325,0.0093003,0.00089193,0,0,0.055815,-0.023574,0,0.0046381,0,0,0,0.030794,0.00020722,0.0093003,1.6717,0.013434,0.027205,6.5807e-07,0.56,0.58,0
0.023474,-0.0039698,0.031163,0.00032932,0.0094476,0.00095332,0,0,0.056459,-0.023707,0,0.0049573,0,0,0,0.031192,0.00029988,0.0094476,1.7693,0.013647,0.027485,6.8177e-07,0.57,0.58,0
0.024042,-0.003928,0.031513,0.00043379,0.009584,0.00099906,0,0,0.057015,-0.023791,0,0.0051951,0,0,0,0.031545,0.00040171,0.009584,1.8393,0.013844,0.027717,7.0274e-07,0.58,0.58,0
0.024614,-0.0038789,0.031821,0.0005599,0.0097142,0.0010201,0,0,0.057477,-0.023801,0,0.0053046,0,0,0,0.031854,0.00052664,0.0097142,1.8671,0.014032,0.027892,7.2051e-07,0.59,0.58,0
0.025191,-0.003825,0.032084,0.00068963,0.0098321,0.0010094,0,0,0.057855,-0.02377,0,0.005249,0,0,0,0.032117,0.00065721,0.0098321,1.8397,0.014202,0.028022,7.352e-07,0.6,0.58,0
0.025771,-0.0037686,0.032313,0.0008072,0.0099361,0.00096698,0,0,0.05818,-0.023735,0,0.0050283,0,0,0,0.032343,0.00077755,0.0099361,1.7563,0.014352,0.028127,7.4777e-07,0.61,0.58,0
0.026355,-0.0037116,0.032517,0.00090197,0.010026,0.00089837,0,0,0.058477,-0.023721,0,0.0046715,0,0,0,0.032542,0.00087646,0.010026,1.6264,0.014481,0.028226,7.5914e-07,0.62,0.58,0
0.026941,-0.0036558,0.032701,0.000969,0.010101,0.00081105,0,0,0.058761,-0.023744,0,0.0042175,0,0,0,0.032722,0.00094828,0.010101,1.4631,0.01459,0.028329,7.6996e-07,0.63,0.58,0
0.02753,-0.0036023,0.032871,0.0010072,0.010164,0.00071195,0,0,0.05904,-0.023807,0,0.0037021,0,0,0,0.032887,0.00099126,0.010164,1.2793,0.014681,0.028442,7.8062e-07,0.64,0.58,0
0.028122,-0.0035519,0.033029,0.0010173,0.010214,0.00060701,0,0,0.05932,-0.023911,0,0.0031564,0,0,0,0.033041,0.0010058,0.010214,1.0859,0.014754,0.028567,7.9133e-07,0.65,0.58,0
0.028716,-0.0035052,0.033177,0.0010018,0.010254,0.000501,0,0,0.059601,-0.024055,0,0.0026052,0,0,0,0.033185,0.00099395,0.010254,0.89186,0.014811,0.028704,8.0217e-07,0.66,0.58,0
0.029314,-0.0034624,0.033315,0.00096348,0.010283,0.00039761,0,0,0.059882,-0.024232,0,0.0020676,0,0,0,0.03332,0.00095859,0.010283,0.70405,0.014854,0.028852,8.1313e-07,0.67,0.58,0
0.029914,-0.0034237,0.033444,0.00090588,0.010305,0.00029957,0,0,0.060161,-0.024438,0,0.0015577,0,0,0,0.033447,0.00090312,0.010305,0.52744,0.014885,0.029009,8.2415e-07,0.68,0.58,0
0.030517,-0.0033891,0.033564,0.00083239,0.010319,0.00020877,0,0,0.060438,-0.024665,0,0.0010856,0,0,0,0.033565,0.00083105,0.010319,0.36542,0.014905,0.029172,8.3513e-07,0.69,0.58,0
0.031123,-0.0033585,0.033676,0.00074634,0.010327,0.00012643,0,0,0.060708,-0.024909,0,0.00065744,0,0,0,0.033676,0.00074586,0.010327,0.21998,0.014916,0.029338,8.4598e-07,0.7,0.58,0
0.031731,-0.0033315,0.033779,0.00065087,0.010329,5.3211e-05,0,0,0.060971,-0.025163,0,0.0002767,0,0,0,0.033779,0.00065078,0.010329,0.092028,0.01492,0.029505,8.5658e-07,0.71,0.58,0
0.032342,-0.0033081,0.033875,0.00054878,0.010327,-1.0688e-05,0,0,0.061224,-0.025423,0,-5.5577e-05,0,0,0,0.033875,0.00054878,0.010327,-0.018375,0.014917,0.029671,8.6683e-07,0.72,0.58,0
0.032956,-0.0032878,0.033961,0.00044257,0.010321,-6.5405e-05,0,0,0.061465,-0.025684,0,-0.00034011,0,0,0,0.033962,0.00044244,0.010321,-0.1118,0.014908,0.029833,8.7665e-07,0.73,0.58,0
0.033571,-0.0032705,0.034041,0.00033435,0.010312,-0.00011133,0,0,0.061693,-0.025943,0,-0.00057892,0,0,0,0.034041,0.00033398,0.010312,-0.18924,0.014896,0.02999,8.8595e-07,0.74,0.58,0
0.03419,-0.0032557,0.034112,0.0002259,0.010301,-0.00014902,0,0,0.061907,-0.026196,0,-0.00077491,0,0,0,0.034112,0.00022525,0.010301,-0.25196,0.01488,0.03014,8.947e-07,0.75,0.58,0
0.03481,-0.0032434,0.034175,0.00011869,0.010288,-0.00017914,0,0,0.062107,-0.026441,0,-0.00093152,0,0,0,0.034176,0.00011775,0.010288,-0.30137,0.014861,0.030283,9.0284e-07,0.76,0.58,0
0.035432,-0.0032331,0.034232,1.3878e-05,0.010274,-0.0002024,0,0,0.062291,-0.026676,0,-0.0010525,0,0,0,0.034233,1.2681e-05,0.010274,-0.33888,0.01484,0.030417,9.1038e-07,0.77,0.58,0
0.036055,-0.0032246,0.034282,-8.7622e-05,0.010258,-0.00021952,0,0,0.062462,-0.026899,0,-0.0011415,0,0,0,0.034283,-8.9024e-05,0.010258,-0.36593,0.014818,0.030543,9.1729e-07,0.78,0.58,0
0.036681,-0.0032177,0.034326,-0.00018512,0.010242,-0.00023122,0,0,0.062617,-0.027111,0,-0.0012024,0,0,0,0.034327,-0.00018667,0.010242,-0.38386,0.014794,0.03066,9.2359e-07,0.79,0.58,0
0.037308,-0.0032121,0.034364,-0.0002781,0.010226,-0.00023818,0,0,0.062759,-0.02731,0,-0.0012385,0,0,0,0.034365,-0.00027973,0.010226,-0.39391,0.014771,0.030768,9.293e-07,0.8,0.58,0
0.037936,-0.0032078,0.034397,-0.0003662,0.010209,-0.00024102,0,0,0.062887,-0.027496,0,-0.0012533,0,0,0,0.034398,-0.00036787,0.010209,-0.39723,0.014746,0.030868,9.3444e-07,0.81,0.58,0
0.038566,-0.0032044,0.034424,-0.00044921,0.010193,-0.00024034,0,0,0.063003,-0.027669,0,-0.0012498,0,0,0,0.034426,-0.00045087,0.010193,-0.39484,0.014723,0.030959,9.3904e-07,0.82,0.58,0
0.039196,-0.0032019,0.034448,-0.00052699,0.010176,-0.00023665,0,0,0.063106,-0.027828,0,-0.0012306,0,0,0,0.03445,-0.00052859,0.010176,-0.38765,0.014699,0.031042,9.4314e-07,0.83,0.58,0
0.039828,-0.0032001,0.034468,-0.0005995,0.01016,-0.00023042,0,0,0.063199,-0.027976,0,-0.0011982,0,0,0,0.034469,-0.00060101,0.01016,-0.37646,0.014676,0.031118,9.4677e-07,0.84,0.58,0
0.04046,-0.0031988,0.034484,-0.00066673,0.010145,-0.00022208,0,0,0.063281,-0.028111,0,-0.0011548,0,0,0,0.034485,-0.00066814,0.010145,-0.36197,0.014654,0.031186,9.4996e-07,0.85,0.58,0
0.041093,-0.0031981,0.034497,-0.00072877,0.010131,-0.00021198,0,0,0.063353,-0.028234,0,-0.0011023,0,0,0,0.034498,-0.00073004,0.010131,-0.34478,0.014633,0.031247,9.5275e-07,0.86,0.58,0
0.041727,-0.0031976,0.034508,-0.00078569,0.010117,-0.00020045,0,0,0.063417,-0.028346,0,-0.0010424,0,0,0,0.034509,-0.00078683,0.010117,-0.32541,0.014613,0.031302,9.5519e-07,0.87,0.58,0
0.042362,-0.0031975,0.034516,-0.00083763,0.010103,-0.00018776,0,0,0.063473,-0.028447,0,-0.00097636,0,0,0,0.034517,-0.00083863,0.010103,-0.30428,0.014594,0.031351,9.5729e-07,0.88,0.58,0
0.042997,-0.0031977,0.034522,-0.00088472,0.010091,-0.00017414,0,0,0.063521,-0.028538,0,-0.00090551,0,0,0,0.034523,-0.00088558,0.010091,-0.28178,0.014576,0.031394,9.591e-07,0.89,0.58,0
0.043632,-0.0031979,0.034527,-0.0009271,0.01008,-0.00015978,0,0,0.063563,-0.028619,0,-0.00083085,0,0,0,0.034528,-0.00092782,0.01008,-0.2582,0.01456,0.031432,9.6065e-07,0.9,0.58,0
0.044268,-0.0031983,0.034531,-0.00096492,0.01007,-0.00014485,0,0,0.063599,-0.02869,0,-0.00075322,0,0,0,0.034531,-0.00096551,0.01007,-0.2338,0.014545,0.031466,9.6197e-07,0.91,0.58,0
0.044904,-0.0031988,0.034533,-0.00099831,0.01006,-0.00012948,0,0,0.063629,-0.028753,0,-0.00067331,0,0,0,0.034534,-0.00099879,0.01006,-0.20879,0.014532,0.031495,9.6308e-07,0.92,0.58,0
0.04554,-0.0031992,0.034535,-0.0010274,0.010052,-0.00011379,0,0,0.063655,-0.028807,0,-0.00059168,0,0,0,0.034535,-0.0010278,0.010052,-0.18332,0.01452,0.031519,9.64e-07,0.93,0.58,0
0.046177,-0.0031997,0.034536,-0.0010524,0.010045,-9.7847e-05,0,0,0.063677,-0.028854,0,-0.00050881,0,0,0,0.034536,-0.0010527,0.010045,-0.15753,0.01451,0.03154,9.6475e-07,0.94,0.58,0
0.046814,-0.0032002,0.034537,-0.0010733,0.010039,-8.1735e-05,0,0,0.063694,-0.028892,0,-0.00042502,0,0,0,0.034537,-0.0010735,0.010039,-0.13151,0.014501,0.031557,9.6536e-07,0.95,0.58,0
0.047451,-0.0032005,0.034537,-0.0010903,0.010034,-6.5501e-05,0,0,0.063708,-0.028923,0,-0.00034061,0,0,0,0.034537,-0.0010904,0.010034,-0.10534,0.014494,0.031571,9.6584e-07,0.96,0.58,0
0.048088,-0.0032008,0.034537,-0.0011034,0.01003,-4.9185e-05,0,0,0.063718,-0.028947,0,-0.00025576,0,0,0,0.034537,-0.0011034,0.01003,-0.07907,0.014488,0.031582,9.662e-07,0.97,0.58,0
0.048725,-0.0032011,0.034537,-0.0011127,0.010027,-3.2815e-05,0,0,0.063726,-0.028964,0,-0.00017064,0,0,0,0.034537,-0.0011127,0.010027,-0.052741,0.014484,0.031589,9.6645e-07,0.98,0.58,0
0.049363,-0.0032012,0.034537,-0.0011183,0.010026,-1.6415e-05,0,0,0.06373,-0.028974,0,-8.5358e-05,0,0,0,0.034537,-0.0011183,0.010026,-0.026378,0.014481,0.031594,9.6659e-07,0.99,0.58,0
0.05,-0.0032013,0.034537,-0.0011201,0.010025,-9.3129e-07,0,0,0.063731,-0.028977,0,-4.8427e-06,0,0,0,0.034537,-0.0011201,0.010025,-0.0014964,0.014481,0.031595,9.6664e-07,1,0.58,0
0,0,0.031643,0.013561,0.013561,-0.0013247,0,0,0.047012,5.421e-20,0,-0.0068885,0,0,0,0.031739,0.013465,0.013561,-4.168,0.019588,0.018226,3.1095e-07,0,0.59,0
0.00047012,-6.8885e-05,0.031607,0.01313,0.013421,-0.0013204,0,0,0.047282,-0.0007558,0,-0.0068658,0,0,0,0.031701,0.013037,0.013421,-4.067,0.019386,0.018475,3.2339e-07,0.01,0.59,0
0.00094565,-0.00013245,0.031754,0.012779,0.01336,-0.0012724,0,0,0.047825,-0.0015111,0,-0.0066162,0,0,0,0.031839,0.012694,0.01336,-3.8191,0.019297,0.018821,3.4097e-07,0.02,0.59,0
0.0014266,-0.00019105,0.031903,0.012426,0.013298,-0.0012339,0,0,0.048371,-0.0022697,0,-0.0064165,0,0,0,0.031981,0.012348,0.013298,-3.6106,0.019209,0.019175,3.5911e-07,0.03,0.59,0
0.0019131,-0.00024491,0.032053,0.012071,0.013237,-0.0012036,0,0,0.048922,-0.0030331,0,-0.0062586,0,0,0,0.032126,0.011998,0.013237,-3.4344,0.01912,0.019537,3.7783e-07,0.04,0.59,0
0.0024051,-0.00029417,0.032206,0.011714,0.013176,-0.0011805,0,0,0.049478,-0.0038009,0,-0.0061388,0,0,0,0.032274,0.011646,0.013176,-3.2864,0.019032,0.019907,3.9709e-07,0.05,0.59,0
0.0029026,-0.00033891,0.032359,0.011357,0.013115,-0.0011644,0,0,0.050036,-0.0045709,0,-0.0060548,0,0,0,0.032424,0.011293,0.013115,-3.1635,0.018944,0.020282,4.1684e-07,0.06,0.59,0
0.0034058,-0.0003791,0.032513,0.011,0.013054,-0.0011544,0,0,0.050594,-0.00534,0,-0.0060029,0,0,0,0.032575,0.010939,0.013054,-3.0628,0.018856,0.02066,4.3696e-07,0.07,0.59,0
0.0039145,-0.00041461,0.032666,0.010645,0.012993,-0.0011493,0,0,0.05115,-0.0061057,0,-0.0059764,0,0,0,0.032726,0.010585,0.012993,-2.9795,0.018768,0.021041,4.5734e-07,0.08,0.59,0
0.0044288,-0.00044515,0.032818,0.010291,0.012933,-0.0011467,0,0,0.051701,-0.0068674,0,-0.0059631,0,0,0,0.032876,0.010233,0.012933,-2.9068,0.018681,0.021421,4.779e-07,0.09,0.59,0
0.0049485,-0.00047023,0.032966,0.0099367,0.012871,-0.001143,0,0,0.052248,-0.0076287,0,-0.0059438,0,0,0,0.033023,0.0098802,0.012871,-2.8345,0.018591,0.021802,4.9862e-07,0.1,0.59,0
0.0054737,-0.00048907,0.033112,0.0095764,0.012807,-0.0011321,0,0,0.052794,-0.0083984,0,-0.0058871,0,0,0,0.033166,0.009522,0.012807,-2.7477,0.018498,0.022185,5.1961e-07,0.11,0.59,0
0.0060044,-0.0005005,0.033265,0.0092031,0.012741,-0.0011001,0,0,0.053364,-0.0091973,0,-0.0057206,0,0,0,0.033315,0.0091529,0.012741,-2.6123,0.018403,0.022583,5.4157e-07,0.12,0.59,0
0.006541,-0.00050256,0.033487,0.0088062,0.012688,-0.0010373,0,0,0.054078,-0.010093,0,-0.0053939,0,0,0,0.033531,0.0087627,0.012688,-2.4024,0.018327,0.023058,5.6857e-07,0.13,0.59,0
0.007086,-0.00049432,0.033777,0.0082428,0.012606,-0.00093745,0,0,0.055044,-0.011344,0,-0.0048747,0,0,0,0.033811,0.0082084,0.012606,-2.0998,0.018208,0.023712,6.061e-07,0.14,0.59,0
0.0076419,-0.00047469,0.034515,0.0077256,0.012672,-0.00093495,0,0,0.056791,-0.012861,0,-0.0048617,0,0,0,0.034547,0.007693,0.012672,-1.9964,0.018304,0.024743,6.7306e-07,0.15,0.59,0
0.0082218,-0.00045219,0.035393,0.0069574,0.012705,-0.00082875,0,0,0.058988,-0.014944,0,-0.0043095,0,0,0,0.035417,0.0069333,0.012705,-1.668,0.018352,0.026081,7.6292e-07,0.16,0.59,0
0.0088217,-0.00041323,0.041005,0.0067312,0.014321,-0.0018366,0,0,0.048215,-0.013384,0,-0.0069877,0,0,0,0.041106,0.0066304,0.014321,-3.1796,0.020686,0.031348,1.4513e-06,0.17,0.59,0
0.0092449,-0.00042495,0.033049,0.0063281,0.011813,0.00067369,0,0,0.038189,-0.0099301,0,0.0021919,0,0,0,0.033067,0.0063099,0.011813,1.3496,0.017063,0.024474,7.2861e-07,0.18,0.59,0
0.009544,-0.00050245,0.036878,0.0074912,0.013311,0.0013716,0,0,0.030637,-0.0075654,0,0.0035661,0,0,0,0.036942,0.0074273,0.013311,2.6664,0.019227,0.027057,8.5739e-07,0.19,0.59,0
0.0098577,-0.00058988,0.037437,0.0076761,0.013534,0.0011961,0,0,0.031074,-0.0076153,0,0.0031098,0,0,0,0.037485,0.0076281,0.013534,2.2977,0.019549,0.027386,8.9176e-07,0.2,0.59,0
0.010165,-0.000674,0.037003,0.0072941,0.013289,0.0013463,0,0,0.030828,-0.0077934,0,0.0035003,0,0,0,0.037064,0.0072332,0.013289,2.5893,0.019195,0.027311,8.7531e-07,0.21,0.59,0
0.010474,-0.00076373,0.037031,0.0071661,0.013259,0.0012643,0,0,0.030904,-0.0079211,0,0.0032873,0,0,0,0.037085,0.0071127,0.013259,2.4198,0.019152,0.027421,8.8216e-07,0.22,0.59,0
0.010784,-0.00085806,0.036902,0.0066206,0.013057,0.0012221,0,0,0.030998,-0.0083669,0,0.0031775,0,0,0,0.036951,0.0065714,0.013057,2.3074,0.01886,0.027712,8.9448e-07,0.23,0.59,0
0.011094,-0.0009564,0.036825,0.0061595,0.012895,0.0012623,0,0,0.031108,-0.0087566,0,0.003282,0,0,0,0.036877,0.0061076,0.012895,2.3532,0.018627,0.027999,9.0791e-07,0.24,0.59,0
0.011406,-0.0010575,0.036735,0.0058213,0.012767,0.0012741,0,0,0.031158,-0.0090293,0,0.0033128,0,0,0,0.036787,0.0057688,0.012767,2.3562,0.018441,0.028179,9.1466e-07,0.25,0.59,0
0.011717,-0.0011617,0.036588,0.0054171,0.012602,0.001245,0,0,0.031182,-0.0093398,0,0.0032371,0,0,0,0.036638,0.0053674,0.012602,2.2837,0.018202,0.028354,9.1885e-07,0.26,0.59,0
0.012029,-0.0012696,0.036444,0.004945,0.012417,0.0011945,0,0,0.031236,-0.0097133,0,0.0031057,0,0,0,0.036489,0.0048997,0.012417,2.1686,0.017935,0.028582,9.2546e-07,0.27,0.59,0
0.012342,-0.0013812,0.036305,0.0044185,0.012217,0.0011482,0,0,0.031314,-0.010138,0,0.0029855,0,0,0,0.036346,0.0043772,0.012217,2.0597,0.017647,0.028859,9.3414e-07,0.28,0.59,0
0.012656,-0.0014962,0.036167,0.0038459,0.012004,0.0011116,0,0,0.031412,-0.010605,0,0.0028902,0,0,0,0.036205,0.0038077,0.012004,1.9675,0.017339,0.029176,9.4434e-07,0.29,0.59,0
0.01297,-0.0016142,0.036025,0.0032135,0.011771,0.0010972,0,0,0.031529,-0.011125,0,0.0028527,0,0,0,0.036061,0.0031769,0.011771,1.9131,0.017003,0.02954,9.5584e-07,0.3,0.59,0
0.013286,-0.0017342,0.03587,0.0025261,0.011519,0.0011253,0,0,0.031657,-0.011691,0,0.0029259,0,0,0,0.035908,0.0024882,0.011519,1.9308,0.016638,0.029944,9.6788e-07,0.31,0.59,0
0.013603,-0.0018549,0.035693,0.0018194,0.011254,0.0012154,0,0,0.031771,-0.012265,0,0.00316,0,0,0,0.035737,0.0017758,0.011254,2.0522,0.016255,0.030353,9.7826e-07,0.32,0.59,0
0.013922,-0.0019748,0.035478,0.0011449,0.010987,0.0013695,0,0,0.031839,-0.012795,0,0.0035606,0,0,0,0.035533,0.0010903,0.010987,2.2806,0.01587,0.030714,9.8393e-07,0.33,0.59,0
0.01424,-0.0020923,0.035209,0.00054699,0.010727,0.0015734,0,0,0.031827,-0.013234,0,0.0040907,0,0,0,0.03528,0.00047572,0.010727,2.5936,0.015494,0.030978,9.8226e-07,0.34,0.59,0
0.014558,-0.0022066,0.034875,5.21e-05,0.010478,0.0017999,0,0,0.031716,-0.013554,0,0.0046798,0,0,0,0.034967,-4.0686e-05,0.010478,2.951,0.015135,0.031112,9.7181e-07,0.35,0.59,0
0.014875,-0.0023171,0.034472,-0.00033932,0.01024,0.0020205,0,0,0.031502,-0.013753,0,0.0052532,0,0,0,0.034589,-0.0004562,0.01024,3.3107,0.014791,0.031108,9.525e-07,0.36,0.59,0
0.015188,-0.0024239,0.033999,-0.00064802,0.010005,0.0022117,0,0,0.031192,-0.013849,0,0.0057505,0,0,0,0.03414,-0.00078863,0.010005,3.6379,0.014452,0.030975,9.2514e-07,0.37,0.59,0
0.015498,-0.0025279,0.033452,-0.00090686,0.0097636,0.0023607,0,0,0.030795,-0.013872,0,0.0061379,0,0,0,0.033613,-0.0010683,0.0097636,3.9122,0.014103,0.030732,8.9059e-07,0.38,0.59,0
0.015804,-0.0026298,0.032816,-0.0011508,0.0094997,0.0024606,0,0,0.030312,-0.013846,0,0.0063975,0,0,0,0.032994,-0.0013281,0.0094997,4.1218,0.013722,0.030391,8.4907e-07,0.39,0.59,0
0.016105,-0.002731,0.032063,-0.0014168,0.009194,0.0025028,0,0,0.02973,-0.013794,0,0.0065072,0,0,0,0.032249,-0.0016028,0.009194,4.2516,0.01328,0.029951,7.9988e-07,0.4,0.59,0
0.016399,-0.0028326,0.031158,-0.001755,0.0088209,0.0024633,0,0,0.029038,-0.013749,0,0.0064045,0,0,0,0.031342,-0.0019384,0.0088209,4.2565,0.012741,0.029415,7.4221e-07,0.41,0.59,0
0.016685,-0.0029364,0.030221,-0.0021992,0.0084064,0.0023037,0,0,0.028358,-0.013787,0,0.0059895,0,0,0,0.030383,-0.0023621,0.0084064,4.0442,0.012143,0.028907,6.8539e-07,0.42,0.59,0
0.016966,-0.0030429,0.02958,-0.0030091,0.0079713,0.0021847,0,0,0.028091,-0.014275,0,0.0056802,0,0,0,0.029726,-0.0031549,0.0079713,3.8182,0.011514,0.028967,6.5623e-07,0.43,0.59,0
0.017247,-0.0031376,0.028146,-0.004589,0.007067,0.0021075,0,0,0.027402,-0.015153,0,0.0054796,0,0,0,0.028281,-0.0047241,0.007067,3.6687,0.010208,0.028969,5.877e-07,0.44,0.59,0
0.017514,-0.003216,0.024874,-0.0035519,0.0063965,0.0016898,0,0,0.033098,-0.017625,0,0.0061814,0,0,0,0.024974,-0.0036525,0.0063965,3.4527,0.0092395,0.025156,4.6817e-07,0.45,0.59,0
0.017877,-0.0033525,0.030861,-0.0041221,0.0080217,0.0026298,0,0,0.041228,-0.021473,0,0.0094799,0,0,0,0.031058,-0.0043188,0.0080217,4.2919,0.011587,0.031103,8.6975e-07,0.46,0.59,0
0.018388,-0.0035608,0.026931,-0.0015773,0.0076061,0.00072133,0,0,0.050245,-0.023877,0,0.0037509,0,0,0,0.026949,-0.0015956,0.0076061,1.4485,0.010987,0.025235,4.7076e-07,0.47,0.59,0
0.018882,-0.0037311,0.026329,-0.00078195,0.0076642,0.00041908,0,0,0.04853,-0.02196,0,0.0021792,0,0,0,0.026336,-0.00078843,0.0076642,0.88539,0.011071,0.02404,4.2756e-07,0.48,0.59,0
0.019358,-0.0038904,0.026043,-0.00037346,0.0077009,1.1942e-05,0,0,0.04769,-0.020993,0,6.2101e-05,0,0,0,0.026043,-0.00037346,0.0077009,0.025903,0.011123,0.023446,4.0706e-07,0.49,0.59,0
0.019836,-0.0040199,0.026217,-0.00031501,0.0077707,-0.00012381,0,0,0.047961,-0.021023,0,-0.00064379,0,0,0,0.026218,-0.00031559,0.0077707,-0.26735,0.011224,0.023555,4.1432e-07,0.5,0.59,0
0.020317,-0.0041156,0.026803,1.665e-05,0.0080459,-0.00010243,0,0,0.048768,-0.020876,0,-0.00053265,0,0,0,0.026803,1.6259e-05,0.0080459,-0.2191,0.011622,0.02381,4.3685e-07,0.51,0.59,0
0.020811,-0.0041834,0.027564,0.00019342,0.0083273,-0.00022674,0,0,0.050016,-0.021148,0,-0.0011791,0,0,0,0.027566,0.00019155,0.0083273,-0.4746,0.012028,0.024348,4.7196e-07,0.52,0.59,0
0.021318,-0.0042303,0.028234,-0.00020309,0.0084094,-0.00012779,0,0,0.051545,-0.022392,0,-0.00066452,0,0,0,0.028235,-0.00020366,0.0084094,-0.25747,0.012147,0.025259,5.1491e-07,0.53,0.59,0
0.021842,-0.0042538,0.029035,-0.00018609,0.0086547,8.3752e-05,0,0,0.052989,-0.022986,0,0.00043551,0,0,0,0.029035,-0.00018633,0.0086547,0.16422,0.012501,0.025956,5.5948e-07,0.54,0.59,0
0.022378,-0.0042535,0.029707,2.1292e-05,0.0089186,0.00027978,0,0,0.054051,-0.023133,0,0.0014548,0,0,0,0.02971,1.8655e-05,0.0089186,0.53993,0.012882,0.026392,5.9492e-07,0.55,0.59,0
0.022923,-0.004236,0.030276,0.0001494,0.0091276,0.00039397,0,0,0.054986,-0.023343,0,0.0020486,0,0,0,0.030281,0.00014425,0.0091276,0.74908,0.013184,0.026799,6.2709e-07,0.56,0.59,0
0.023477,-0.0042057,0.030775,0.00021328,0.0092965,0.00051841,0,0,0.055844,-0.023616,0,0.0026957,0,0,0,0.030784,0.00020449,0.0092965,0.97152,0.013428,0.027198,6.5748e-07,0.57,0.59,0
0.02404,-0.004165,0.031231,0.00035012,0.0094744,0.00063556,0,0,0.056568,-0.023723,0,0.0033049,0,0,0,0.031244,0.00033704,0.0094744,1.1785,0.013685,0.027502,6.8432e-07,0.58,0.59,0
0.024609,-0.004116,0.031605,0.00052201,0.009638,0.00071843,0,0,0.057113,-0.023702,0,0.0037359,0,0,0,0.031621,0.00050541,0.009638,1.3234,0.013922,0.027703,7.0528e-07,0.59,0.59,0
0.025182,-0.0040616,0.031915,0.00069794,0.0097838,0.00075183,0,0,0.057541,-0.023623,0,0.0039095,0,0,0,0.031933,0.00067984,0.0097838,1.3789,0.014132,0.027841,7.2197e-07,0.6,0.59,0
0.02576,-0.0040047,0.032179,0.00085144,0.0099093,0.00073975,0,0,0.057903,-0.02355,0,0.0038467,0,0,0,0.032197,0.00083398,0.0099093,1.3519,0.014313,0.027953,7.3612e-07,0.61,0.59,0
0.02634,-0.0039476,0.032413,0.00097131,0.010015,0.00069371,0,0,0.058234,-0.023514,0,0.0036073,0,0,0,0.032428,0.00095601,0.010015,1.2633,0.014467,0.028062,7.4897e-07,0.62,0.59,0
0.026924,-0.003892,0.032624,0.0010555,0.010104,0.00062391,0,0,0.058553,-0.023526,0,0.0032444,0,0,0,0.032636,0.0010432,0.010104,1.1318,0.014594,0.028178,7.6126e-07,0.63,0.59,0
0.027511,-0.0038391,0.032817,0.0011034,0.010176,0.00053918,0,0,0.058866,-0.023589,0,0.0028037,0,0,0,0.032826,0.0010943,0.010176,0.97374,0.014699,0.028306,7.7335e-07,0.64,0.59,0
0.028102,-0.0037898,0.032995,0.0011176,0.010234,0.0004465,0,0,0.059178,-0.023702,0,0.0023218,0,0,0,0.033001,0.0011114,0.010234,0.80233,0.014782,0.028447,7.8544e-07,0.65,0.59,0
0.028695,-0.0037446,0.033159,0.0011015,0.010278,0.00035143,0,0,0.05949,-0.023859,0,0.0018274,0,0,0,0.033163,0.0010977,0.010278,0.628,0.014846,0.028602,7.976e-07,0.66,0.59,0
0.029291,-0.0037037,0.033311,0.0010594,0.010311,0.00025815,0,0,0.0598,-0.024055,0,0.0013424,0,0,0,0.033313,0.0010573,0.010311,0.45857,0.014894,0.028768,8.0982e-07,0.67,0.59,0
0.029891,-0.0036672,0.033453,0.0009955,0.010334,0.00016973,0,0,0.060107,-0.024281,0,0.00088258,0,0,0,0.033453,0.00099461,0.010334,0.29961,0.014927,0.028942,8.2203e-07,0.68,0.59,0
0.030493,-0.003635,0.033584,0.00091409,0.010349,8.8268e-05,0,0,0.060409,-0.024532,0,0.00045899,0,0,0,0.033584,0.00091385,0.010349,0.1548,0.014949,0.029122,8.3412e-07,0.69,0.59,0
0.031099,-0.0036069,0.033704,0.00081919,0.010357,1.5104e-05,0,0,0.060703,-0.024798,0,7.8542e-05,0,0,0,0.033704,0.00081919,0.010357,0.026316,0.01496,0.029304,8.4598e-07,0.7,0.59,0
0.031707,-0.0035826,0.033815,0.00071446,0.010359,-4.9069e-05,0,0,0.060986,-0.025076,0,-0.00025516,0,0,0,0.033815,0.00071439,0.010359,-0.084936,0.014963,0.029486,8.5748e-07,0.71,0.59,0
0.032319,-0.0035619,0.033916,0.00060315,0.010356,-0.00010407,0,0,0.061257,-0.025357,0,-0.00054115,0,0,0,0.033917,0.00060282,0.010356,-0.17898,0.014958,0.029665,8.6853e-07,0.72,0.59,0
0.032933,-0.0035443,0.034008,0.00048803,0.010349,-0.00015008,0,0,0.061514,-0.025638,0,-0.00078042,0,0,0,0.034009,0.00048736,0.010349,-0.25653,0.014948,0.029839,8.7903e-07,0.73,0.59,0
0.033549,-0.0035297,0.034091,0.00037145,0.010339,-0.00018757,0,0,0.061755,-0.025915,0,-0.00097537,0,0,0,0.034092,0.0003704,0.010339,-0.31871,0.014934,0.030006,8.889e-07,0.74,0.59,0
0.034168,-0.0035176,0.034165,0.00025531,0.010326,-0.00021717,0,0,0.061981,-0.026184,0,-0.0011293,0,0,0,0.034166,0.00025392,0.010326,-0.36692,0.014915,0.030165,8.9812e-07,0.75,0.59,0
0.034789,-0.0035077,0.03423,0.00014113,0.010311,-0.00023959,0,0,0.062189,-0.026443,0,-0.0012459,0,0,0,0.034232,0.00013944,0.010311,-0.40267,0.014894,0.030315,9.0663e-07,0.76,0.59,0
0.035411,-0.0034999,0.034288,3.0098e-05,0.010295,-0.00025561,0,0,0.06238,-0.02669,0,-0.0013292,0,0,0,0.03429,2.8191e-05,0.010295,-0.42747,0.014871,0.030455,9.1445e-07,0.77,0.59,0
0.036036,-0.0034937,0.034338,-7.6881e-05,0.010278,-0.00026599,0,0,0.062556,-0.026924,0,-0.0013831,0,0,0,0.03434,-7.8936e-05,0.010278,-0.44279,0.014847,0.030585,9.2157e-07,0.78,0.59,0
0.036663,-0.0034889,0.034382,-0.00017915,0.010261,-0.00027145,0,0,0.062715,-0.027144,0,-0.0014116,0,0,0,0.034384,-0.00018128,0.010261,-0.44998,0.014821,0.030706,9.2801e-07,0.79,0.59,0
0.037291,-0.0034854,0.034419,-0.00027624,0.010243,-0.0002727,0,0,0.062858,-0.02735,0,-0.001418,0,0,0,0.034421,-0.00027839,0.010243,-0.4503,0.014795,0.030817,9.338e-07,0.8,0.59,0
0.03792,-0.0034829,0.034451,-0.00036787,0.010225,-0.00027036,0,0,0.062988,-0.027541,0,-0.0014059,0,0,0,0.034453,-0.00036997,0.010225,-0.44485,0.014769,0.030919,9.3897e-07,0.81,0.59,0
0.03855,-0.0034813,0.034478,-0.00045385,0.010207,-0.00026501,0,0,0.063103,-0.027719,0,-0.001378,0,0,0,0.03448,-0.00045586,0.010207,-0.43464,0.014744,0.031011,9.4357e-07,0.82,0.59,0
0.039182,-0.0034804,0.0345,-0.00053411,0.01019,-0.00025715,0,0,0.063206,-0.027882,0,-0.0013372,0,0,0,0.034502,-0.000536,0.01019,-0.42052,0.014719,0.031095,9.4762e-07,0.83,0.59,0
0.039814,-0.0034801,0.034518,-0.00060867,0.010173,-0.00024723,0,0,0.063298,-0.028032,0,-0.0012856,0,0,0,0.03452,-0.00061041,0.010173,-0.40324,0.014694,0.03117,9.5118e-07,0.84,0.59,0
0.040448,-0.0034802,0.034533,-0.00067758,0.010157,-0.00023566,0,0,0.063378,-0.028169,0,-0.0012254,0,0,0,0.034534,-0.00067916,0.010157,-0.38345,0.01467,0.031238,9.5429e-07,0.85,0.59,0
0.041082,-0.0034807,0.034544,-0.00074098,0.010141,-0.00022276,0,0,0.063448,-0.028293,0,-0.0011584,0,0,0,0.034545,-0.00074238,0.010141,-0.3617,0.014648,0.031299,9.5698e-07,0.86,0.59,0
0.041717,-0.0034814,0.034553,-0.00079898,0.010126,-0.00020883,0,0,0.06351,-0.028406,0,-0.0010859,0,0,0,0.034554,-0.00080022,0.010126,-0.33844,0.014627,0.031353,9.5931e-07,0.87,0.59,0
0.042352,-0.0034823,0.03456,-0.00085177,0.010112,-0.0001941,0,0,0.063563,-0.028507,0,-0.0010093,0,0,0,0.034561,-0.00085284,0.010112,-0.31405,0.014607,0.031401,9.613e-07,0.88,0.59,0
0.042988,-0.0034833,0.034565,-0.00089951,0.0101,-0.00017879,0,0,0.063609,-0.028598,0,-0.0009297,0,0,0,0.034565,-0.00090041,0.0101,-0.28884,0.014588,0.031444,9.63e-07,0.89,0.59,0
0.043624,-0.0034844,0.034568,-0.00094238,0.010088,-0.00016305,0,0,0.063649,-0.028678,0,-0.00084785,0,0,0,0.034569,-0.00094313,0.010088,-0.26307,0.014571,0.031481,9.6444e-07,0.9,0.59,0
0.044261,-0.0034855,0.03457,-0.00098055,0.010077,-0.00014701,0,0,0.063682,-0.028749,0,-0.00076447,0,0,0,0.034571,-0.00098116,0.010077,-0.23693,0.014556,0.031513,9.6565e-07,0.91,0.59,0
0.044898,-0.0034866,0.034571,-0.0010142,0.010067,-0.00013079,0,0,0.063711,-0.028811,0,-0.00068012,0,0,0,0.034572,-0.0010147,0.010067,-0.21058,0.014541,0.031541,9.6666e-07,0.92,0.59,0
0.045535,-0.0034876,0.034572,-0.0010435,0.010058,-0.00011446,0,0,0.063735,-0.028865,0,-0.00059519,0,0,0,0.034572,-0.0010439,0.010058,-0.18413,0.014529,0.031565,9.6748e-07,0.93,0.59,0
0.046173,-0.0034885,0.034572,-0.0010685,0.010051,-9.8077e-05,0,0,0.063754,-0.028911,0,-0.00051,0,0,0,0.034572,-0.0010688,0.010051,-0.15767,0.014518,0.031585,9.6816e-07,0.94,0.59,0
0.04681,-0.0034894,0.034571,-0.0010895,0.010045,-8.1682e-05,0,0,0.06377,-0.028949,0,-0.00042475,0,0,0,0.034572,-0.0010897,0.010045,-0.13124,0.014509,0.031601,9.687e-07,0.95,0.59,0
0.047448,-0.0034901,0.034571,-0.0011065,0.010039,-6.5299e-05,0,0,0.063783,-0.028979,0,-0.00033956,0,0,0,0.034571,-0.0011067,0.010039,-0.10487,0.014501,0.031614,9.6911e-07,0.96,0.59,0
0.048086,-0.0034906,0.034571,-0.0011197,0.010035,-4.8941e-05,0,0,0.063792,-0.029003,0,-0.00025449,0,0,0,0.034571,-0.0011197,0.010035,-0.078567,0.014495,0.031625,9.6942e-07,0.97,0.59,0
0.048724,-0.003491,0.03457,-0.001129,0.010032,-3.2609e-05,0,0,0.063798,-0.02902,0,-0.00016956,0,0,0,0.03457,-0.001129,0.010032,-0.052336,0.014491,0.031632,9.6964e-07,0.98,0.59,0
0.049362,-0.0034912,0.03457,-0.0011346,0.010031,-1.6298e-05,0,0,0.063802,-0.029029,0,-8.4751e-05,0,0,0,0.03457,-0.0011346,0.010031,-0.026154,0.014489,0.031636,9.6976e-07,0.99,0.59,0
0.05,-0.0034913,0.03457,-0.0011364,0.01003,-1.5739e-06,0,0,0.063803,-0.029033,0,-8.1844e-06,0,0,0,0.03457,-0.0011364,0.01003,-0.0025256,0.014488,0.031637,9.6981e-07,1,0.59,0
0,0,0.031477,0.01349,0.01349,-0.0014671,0,0,0.046767,5.421e-20,0,-0.0076288,0,0,0,0.031596,0.013371,0.01349,-4.6324,0.019486,0.018166,3.0784e-07,0,0.6,0
0.00046767,-7.6288e-05,0.031443,0.013078,0.013356,-0.0014631,0,0,0.047026,-0.00072399,0,-0.0076082,0,0,0,0.031559,0.012962,0.013356,-4.5266,0.019293,0.018403,3.1961e-07,0.01,0.6,0
0.00094052,-0.00014729,0.031583,0.012736,0.013296,-0.0014161,0,0,0.047546,-0.0014546,0,-0.0073639,0,0,0,0.031689,0.01263,0.013296,-4.2732,0.019205,0.018734,3.3628e-07,0.02,0.6,0
0.0014186,-0.00021336,0.031723,0.012391,0.013234,-0.001379,0,0,0.04807,-0.0021916,0,-0.0071705,0,0,0,0.031821,0.012294,0.013234,-4.0596,0.019116,0.019074,3.535e-07,0.03,0.6,0
0.0019019,-0.00027475,0.031863,0.012044,0.013172,-0.0013496,0,0,0.048596,-0.0029338,0,-0.0070177,0,0,0,0.031954,0.011952,0.013172,-3.8776,0.019026,0.019421,3.7121e-07,0.04,0.6,0
0.0023905,-0.00033157,0.032002,0.011693,0.013109,-0.0013268,0,0,0.049122,-0.0036792,0,-0.0068993,0,0,0,0.032088,0.011607,0.013109,-3.7222,0.018934,0.019773,3.8933e-07,0.05,0.6,0
0.0028844,-0.00038388,0.032138,0.011342,0.013044,-0.0013098,0,0,0.049645,-0.0044252,0,-0.0068108,0,0,0,0.03222,0.01126,0.013044,-3.5897,0.018842,0.020128,4.0773e-07,0.06,0.6,0
0.0033834,-0.00043163,0.032272,0.010991,0.012979,-0.0012977,0,0,0.050162,-0.0051692,0,-0.0067479,0,0,0,0.032351,0.010912,0.012979,-3.4766,0.018747,0.020484,4.263e-07,0.07,0.6,0
0.0038876,-0.00047466,0.032401,0.010639,0.012912,-0.0012892,0,0,0.050671,-0.0059096,0,-0.006704,0,0,0,0.032477,0.010563,0.012912,-3.3786,0.018651,0.020839,4.4493e-07,0.08,0.6,0
0.0043968,-0.00051268,0.032524,0.010286,0.012843,-0.0012826,0,0,0.051171,-0.0066476,0,-0.0066695,0,0,0,0.032598,0.010213,0.012843,-3.2901,0.018551,0.021193,4.6357e-07,0.09,0.6,0
0.004911,-0.00054527,0.032643,0.00993,0.012772,-0.001275,0,0,0.051665,-0.007389,0,-0.0066302,0,0,0,0.032714,0.0098586,0.012772,-3.203,0.018448,0.021547,4.8229e-07,0.1,0.6,0
0.0054301,-0.00057176,0.032762,0.0095633,0.012698,-0.0012626,0,0,0.052167,-0.0081487,0,-0.0065656,0,0,0,0.03283,0.0094948,0.012698,-3.1062,0.018341,0.02191,5.0152e-07,0.11,0.6,0
0.0059543,-0.0005913,0.032896,0.0091749,0.012621,-0.0012433,0,0,0.052715,-0.0089608,0,-0.0064651,0,0,0,0.032961,0.0091099,0.012621,-2.9921,0.018231,0.022304,5.2256e-07,0.12,0.6,0
0.0064844,-0.00060309,0.033059,0.0087264,0.012535,-0.0012223,0,0,0.05336,-0.0099038,0,-0.0063557,0,0,0,0.03312,0.0086651,0.012535,-2.8684,0.018107,0.022768,5.4757e-07,0.13,0.6,0
0.0070215,-0.00060669,0.033289,0.0082075,0.012449,-0.0012402,0,0,0.054185,-0.011028,0,-0.0064492,0,0,0,0.03335,0.0081463,0.012449,-2.8239,0.017982,0.023352,5.799e-07,0.14,0.6,0
0.0075681,-0.00060359,0.033425,0.007514,0.012282,-0.0013376,0,0,0.054973,-0.012396,0,-0.0069554,0,0,0,0.033494,0.0074452,0.012282,-2.9472,0.01774,0.023999,6.1385e-07,0.15,0.6,0
0.008121,-0.00059455,0.033394,0.0069285,0.012097,-0.0014514,0,0,0.055373,-0.013438,0,-0.0075474,0,0,0,0.033474,0.0068491,0.012097,-3.1297,0.017473,0.024427,6.3367e-07,0.16,0.6,0
0.0086756,-0.00056077,0.034473,0.0065103,0.012295,-0.0018205,0,0,0.057662,-0.01504,0,-0.0094664,0,0,0,0.034591,0.0063923,0.012295,-3.7093,0.017759,0.02576,7.249e-07,0.17,0.6,0
0.0092743,-0.00053694,0.039638,0.0069341,0.013972,-0.001228,0,0,0.046686,-0.012699,0,-0.005509,0,0,0,0.039705,0.0068674,0.013972,-2.4439,0.020181,0.029925,1.2527e-06,0.18,0.6,0
0.0096752,-0.00058379,0.031737,0.0056277,0.011209,0.00045591,0,0,0.036709,-0.0099831,0,0.00090473,0,0,0,0.031758,0.005607,0.011209,0.67413,0.016191,0.023848,6.7536e-07,0.19,0.6,0
0.0099746,-0.00066539,0.036608,0.0066095,0.012965,0.0015308,0,0,0.030735,-0.0082624,0,0.00398,0,0,0,0.036686,0.0065316,0.012965,2.9137,0.018728,0.027508,8.7505e-07,0.2,0.6,0
0.01029,-0.00075333,0.037753,0.0077579,0.013653,0.0013827,0,0,0.031329,-0.0076637,0,0.003595,0,0,0,0.037816,0.0076943,0.013653,2.6338,0.019721,0.027629,9.1562e-07,0.21,0.6,0
0.010601,-0.00084281,0.037397,0.0072602,0.013397,0.0012245,0,0,0.0312,-0.0079781,0,0.0031838,0,0,0,0.037447,0.0072105,0.013397,2.323,0.019352,0.027667,9.0701e-07,0.22,0.6,0
0.010914,-0.00094274,0.037279,0.0063464,0.013088,0.0013238,0,0,0.031449,-0.0087637,0,0.0034419,0,0,0,0.037336,0.0062898,0.013088,2.4461,0.018904,0.028267,9.3771e-07,0.23,0.6,0
0.01123,-0.0010451,0.037309,0.0061533,0.013039,0.0014219,0,0,0.031552,-0.0089511,0,0.0036969,0,0,0,0.037374,0.0060886,0.013039,2.6076,0.018834,0.028454,9.4946e-07,0.24,0.6,0
0.011545,-0.0011483,0.037087,0.0058754,0.012889,0.0014499,0,0,0.031458,-0.0091172,0,0.0037696,0,0,0,0.037154,0.0058083,0.012889,2.6539,0.018617,0.028474,9.4304e-07,0.25,0.6,0
0.011859,-0.0012554,0.036913,0.0054966,0.012723,0.0013811,0,0,0.031447,-0.0093942,0,0.0035908,0,0,0,0.036974,0.005436,0.012723,2.5123,0.018378,0.028599,9.4357e-07,0.26,0.6,0
0.012174,-0.001367,0.036747,0.0049776,0.012517,0.0013277,0,0,0.031498,-0.0098017,0,0.0034521,0,0,0,0.036802,0.0049222,0.012517,2.389,0.018081,0.028843,9.5026e-07,0.27,0.6,0
0.012489,-0.0014829,0.036603,0.0044437,0.012314,0.0012955,0,0,0.031575,-0.010231,0,0.0033683,0,0,0,0.036655,0.0043916,0.012314,2.3031,0.017787,0.029122,9.5906e-07,0.28,0.6,0
0.012805,-0.0016026,0.036451,0.0038803,0.012099,0.0012691,0,0,0.031657,-0.010685,0,0.0032997,0,0,0,0.036501,0.0038309,0.012099,2.228,0.017477,0.02942,9.6794e-07,0.29,0.6,0
0.013122,-0.0017258,0.036289,0.0032241,0.011854,0.0012507,0,0,0.031765,-0.011219,0,0.0032517,0,0,0,0.036336,0.0031768,0.011854,2.1631,0.017122,0.029784,9.7875e-07,0.3,0.6,0
0.013441,-0.0018518,0.036114,0.0024644,0.011574,0.0012859,0,0,0.031903,-0.011842,0,0.0033434,0,0,0,0.036163,0.0024153,0.011574,2.1853,0.016717,0.030228,9.919e-07,0.31,0.6,0
0.013761,-0.0019785,0.035921,0.0016696,0.011277,0.0014055,0,0,0.032037,-0.01249,0,0.0036544,0,0,0,0.035979,0.001612,0.011277,2.3459,0.016289,0.030698,1.0043e-06,0.32,0.6,0
0.014082,-0.0021039,0.035689,0.00092208,0.010983,0.001615,0,0,0.032117,-0.01308,0,0.0041989,0,0,0,0.035764,0.00084723,0.010983,2.6538,0.015865,0.031112,1.0114e-06,0.33,0.6,0
0.014403,-0.002226,0.035397,0.00028311,0.010704,0.0018863,0,0,0.032101,-0.013547,0,0.0049044,0,0,0,0.035498,0.00018207,0.010704,3.0661,0.015461,0.031406,1.0098e-06,0.34,0.6,0
0.014724,-0.0023435,0.035038,-0.00021446,0.010447,0.0021839,0,0,0.031968,-0.01386,0,0.0056782,0,0,0,0.035173,-0.00034924,0.010447,3.5316,0.01509,0.031541,9.9819e-07,0.35,0.6,0
0.015042,-0.0024558,0.034618,-0.00057346,0.010213,0.0024669,0,0,0.031726,-0.014023,0,0.0064141,0,0,0,0.03479,-0.00074555,0.010213,3.9905,0.014753,0.031519,9.7738e-07,0.36,0.6,0
0.015358,-0.0025634,0.034142,-0.00083675,0.0099917,0.0027127,0,0,0.031396,-0.014077,0,0.0070529,0,0,0,0.034352,-0.0010459,0.0099917,4.4082,0.014432,0.03137,9.4931e-07,0.37,0.6,0
0.01567,-0.0026673,0.033615,-0.0010524,0.0097688,0.0029175,0,0,0.031,-0.014068,0,0.0075855,0,0,0,0.033859,-0.0012962,0.0097688,4.7771,0.01411,0.031134,9.1592e-07,0.38,0.6,0
0.015978,-0.0027688,0.03302,-0.0012642,0.0095267,0.0030939,0,0,0.030541,-0.014028,0,0.0080442,0,0,0,0.033297,-0.0015411,0.0095267,5.1155,0.013761,0.030832,8.7761e-07,0.39,0.6,0
0.016281,-0.0028691,0.032308,-0.0015111,0.0092391,0.0032586,0,0,0.02999,-0.013975,0,0.0084723,0,0,0,0.032619,-0.0018222,0.0092391,5.4538,0.013345,0.030456,8.3232e-07,0.4,0.6,0
0.016578,-0.0029698,0.031362,-0.001851,0.0088533,0.003426,0,0,0.029261,-0.013916,0,0.0089075,0,0,0,0.031712,-0.0022007,0.0088533,5.8283,0.012788,0.029956,7.7385e-07,0.41,0.6,0
0.016866,-0.0030725,0.029849,-0.0024561,0.0082179,0.0035709,0,0,0.028121,-0.013876,0,0.0092842,0,0,0,0.030239,-0.0028461,0.0082179,6.2329,0.01187,0.029172,6.8458e-07,0.42,0.6,0
0.01714,-0.0031813,0.02744,-0.0036011,0.0071517,0.0038232,0,0,0.026375,-0.013979,0,0.0099404,0,0,0,0.027904,-0.004065,0.0071517,6.9192,0.01033,0.028094,5.5753e-07,0.43,0.6,0
0.017394,-0.0032906,0.022566,-0.0040904,0.0055427,0.0034235,0,0,0.030339,-0.016977,0,0.013499,0,0,0,0.023037,-0.0045619,0.0055427,7.7569,0.0080061,0.024186,3.7785e-07,0.44,0.6,0
0.017722,-0.0034036,0.028034,-0.0042094,0.0071473,0.0033605,0,0,0.037887,-0.020144,0,0.012726,0,0,0,0.028387,-0.0045631,0.0071473,6.0827,0.010324,0.028934,6.5867e-07,0.45,0.6,0
0.018202,-0.0035927,0.024388,-0.0018962,0.0067474,0.0023023,0,0,0.045864,-0.022473,0,0.011972,0,0,0,0.024588,-0.0020963,0.0067474,4.9683,0.0097463,0.023543,3.6546e-07,0.46,0.6,0
0.018639,-0.003779,0.023434,-0.00096046,0.006742,0.0013936,0,0,0.043398,-0.020026,0,0.0072467,0,0,0,0.023513,-0.0010398,0.006742,3.2591,0.0097384,0.021733,3.0845e-07,0.47,0.6,0
0.01907,-0.0039398,0.023367,-0.00047007,0.006869,0.00065947,0,0,0.042894,-0.019082,0,0.0034292,0,0,0,0.023385,-0.0004883,0.006869,1.5835,0.0099219,0.021176,2.9667e-07,0.48,0.6,0
0.019497,-0.004089,0.02357,0.00011059,0.007104,-8.6516e-05,0,0,0.04281,-0.018183,0,-0.00044988,0,0,0,0.02357,0.00011027,0.007104,-0.2113,0.010261,0.020861,2.9575e-07,0.49,0.6,0
0.019926,-0.0042241,0.02435,0.0003222,0.0074016,-0.0006792,0,0,0.044065,-0.018406,0,-0.0035318,0,0,0,0.024369,0.00030302,0.0074016,-1.6179,0.010691,0.021418,3.2409e-07,0.5,0.6,0
0.020379,-0.0043172,0.025058,0.00016641,0.0075673,-0.0014129,0,0,0.045476,-0.019242,0,-0.0073469,0,0,0,0.025138,8.6467e-05,0.0075673,-3.2383,0.01093,0.022274,3.5927e-07,0.51,0.6,0
0.020836,-0.0043881,0.026129,-1.2436e-05,0.007835,-0.0011807,0,0,0.047565,-0.020403,0,-0.0061398,0,0,0,0.026183,-6.5658e-05,0.007835,-2.5808,0.011317,0.023324,4.0855e-07,0.52,0.6,0
0.02133,-0.0044535,0.027391,-0.00063768,0.0080259,-0.0010407,0,0,0.050349,-0.022525,0,-0.0054115,0,0,0,0.027429,-0.00067627,0.0080259,-2.1235,0.011593,0.024921,4.8056e-07,0.53,0.6,0
0.021843,-0.0044832,0.028369,-0.00042775,0.0083824,-0.0006082,0,0,0.051965,-0.022906,0,-0.0031627,0,0,0,0.028382,-0.00044059,0.0083824,-1.2094,0.012108,0.025579,5.2751e-07,0.54,0.6,0
0.022369,-0.0044836,0.029206,2.1903e-06,0.0087625,-0.00046324,0,0,0.053154,-0.022777,0,-0.0024089,0,0,0,0.029214,-5.156e-06,0.0087625,-0.90854,0.012657,0.02597,5.6609e-07,0.55,0.6,0
0.022906,-0.0044686,0.029841,-0.00010403,0.008921,-0.00025842,0,0,0.054392,-0.023465,0,-0.0013438,0,0,0,0.029843,-0.00010626,0.008921,-0.4944,0.012886,0.02661,6.0566e-07,0.56,0.6,0
0.023457,-0.0044421,0.030557,-7.4524e-06,0.0091647,-2.1707e-05,0,0,0.055619,-0.023848,0,-0.00011288,0,0,0,0.030557,-7.4678e-06,0.0091647,-0.040692,0.013238,0.027165,6.4785e-07,0.57,0.6,0
0.024018,-0.0044024,0.031087,0.00017747,0.0093793,0.00021619,0,0,0.056439,-0.023925,0,0.0011242,0,0,0,0.031088,0.00017596,0.0093793,0.40071,0.013548,0.027491,6.7792e-07,0.58,0.6,0
0.024586,-0.0043529,0.031508,0.00043412,0.0095826,0.00038014,0,0,0.057006,-0.023786,0,0.0019768,0,0,0,0.031513,0.00042947,0.0095826,0.70079,0.013842,0.027667,6.9988e-07,0.59,0.6,0
0.025158,-0.0042975,0.031845,0.00067365,0.0097556,0.00046146,0,0,0.057433,-0.023613,0,0.0023996,0,0,0,0.031852,0.00066682,0.0097556,0.84795,0.014091,0.027779,7.1678e-07,0.6,0.6,0
0.025734,-0.0042396,0.032132,0.0008671,0.0098996,0.00048462,0,0,0.057803,-0.023484,0,0.00252,0,0,0,0.032139,0.00085959,0.0098996,0.88784,0.014299,0.027881,7.3143e-07,0.61,0.6,0
0.026314,-0.0041819,0.032388,0.0010195,0.010022,0.00046524,0,0,0.058152,-0.023407,0,0.0024192,0,0,0,0.032395,0.0010126,0.010022,0.84952,0.014477,0.027987,7.4512e-07,0.62,0.6,0
0.026897,-0.0041263,0.032618,0.0011248,0.010123,0.00041693,0,0,0.058487,-0.023394,0,0.002168,0,0,0,0.032623,0.0011193,0.010123,0.75836,0.014622,0.028105,7.5821e-07,0.63,0.6,0
0.027484,-0.0040741,0.032825,0.0011856,0.010203,0.00034957,0,0,0.058817,-0.023446,0,0.0018178,0,0,0,0.032829,0.0011818,0.010203,0.63293,0.014738,0.028239,7.7113e-07,0.64,0.6,0
0.028074,-0.0040259,0.033015,0.0012056,0.010266,0.00027168,0,0,0.059147,-0.023558,0,0.0014127,0,0,0,0.033018,0.0012033,0.010266,0.48931,0.014829,0.028389,7.8406e-07,0.65,0.6,0
0.028667,-0.0039823,0.03319,0.0011902,0.010314,0.00018965,0,0,0.059477,-0.023722,0,0.00098616,0,0,0,0.033191,0.0011891,0.010314,0.33955,0.014898,0.028555,7.9707e-07,0.66,0.6,0
0.029263,-0.0039435,0.033351,0.001145,0.010349,0.00010826,0,0,0.059806,-0.02393,0,0.00056297,0,0,0,0.033351,0.0011446,0.010349,0.1926,0.014948,0.028733,8.1013e-07,0.67,0.6,0
0.029863,-0.0039094,0.0335,0.0010752,0.010372,3.1009e-05,0,0,0.060131,-0.024173,0,0.00016124,0,0,0,0.0335,0.0010751,0.010372,0.054794,0.014982,0.028919,8.2315e-07,0.68,0.6,0
0.030466,-0.0038798,0.033637,0.00098608,0.010387,-3.9714e-05,0,0,0.06045,-0.024442,0,-0.00020651,0,0,0,0.033637,0.00098603,0.010387,-0.06969,0.015003,0.029112,8.3601e-07,0.69,0.6,0
0.031072,-0.0038544,0.033762,0.00088245,0.010393,-0.0001024,0,0,0.060759,-0.024729,0,-0.00053249,0,0,0,0.033763,0.00088213,0.010393,-0.17844,0.015013,0.029306,8.4858e-07,0.7,0.6,0
0.031681,-0.003833,0.033877,0.0007686,0.010394,-0.0001563,0,0,0.061057,-0.025025,0,-0.00081278,0,0,0,0.033878,0.00076786,0.010394,-0.27048,0.015013,0.029499,8.6073e-07,0.71,0.6,0
0.032293,-0.0038152,0.033981,0.00064824,0.010389,-0.00020126,0,0,0.06134,-0.025325,0,-0.0010465,0,0,0,0.033982,0.00064702,0.010389,-0.34592,0.015006,0.029688,8.7232e-07,0.72,0.6,0
0.032908,-0.0038006,0.034075,0.00052449,0.01038,-0.00023752,0,0,0.061607,-0.025624,0,-0.0012351,0,0,0,0.034076,0.00052281,0.01038,-0.4056,0.014993,0.029871,8.8327e-07,0.73,0.6,0
0.033525,-0.0037888,0.034158,0.0003999,0.010367,-0.00026564,0,0,0.061856,-0.025916,0,-0.0013813,0,0,0,0.034161,0.00039781,0.010367,-0.45081,0.014975,0.030045,8.9351e-07,0.74,0.6,0
0.034145,-0.0037794,0.034232,0.00027649,0.010353,-0.00028631,0,0,0.062087,-0.026198,0,-0.0014888,0,0,0,0.034235,0.00027407,0.010353,-0.48306,0.014954,0.03021,9.0299e-07,0.75,0.6,0
0.034767,-0.0037722,0.034298,0.00015583,0.010336,-0.00030033,0,0,0.0623,-0.026469,0,-0.0015617,0,0,0,0.0343,0.00015318,0.010336,-0.50395,0.01493,0.030364,9.1169e-07,0.76,0.6,0
0.035391,-0.0037669,0.034354,3.9107e-05,0.010318,-0.00030851,0,0,0.062495,-0.026725,0,-0.0016043,0,0,0,0.034357,3.6334e-05,0.010318,-0.51506,0.014904,0.030508,9.1962e-07,0.77,0.6,0
0.036017,-0.0037631,0.034403,-7.2796e-05,0.010299,-0.00031165,0,0,0.062671,-0.026967,0,-0.0016206,0,0,0,0.034406,-7.5613e-05,0.010299,-0.51787,0.014877,0.030641,9.2678e-07,0.78,0.6,0
0.036644,-0.0037606,0.034445,-0.00017927,0.01028,-0.00031048,0,0,0.06283,-0.027193,0,-0.0016145,0,0,0,0.034448,-0.00018206,0.01028,-0.51373,0.014849,0.030764,9.3321e-07,0.79,0.6,0
0.037274,-0.0037591,0.034481,-0.00027992,0.01026,-0.00030571,0,0,0.062973,-0.027404,0,-0.0015897,0,0,0,0.034483,-0.00028261,0.01026,-0.50386,0.01482,0.030875,9.3895e-07,0.8,0.6,0
0.037904,-0.0037586,0.03451,-0.0003745,0.010241,-0.00029796,0,0,0.0631,-0.027599,0,-0.0015494,0,0,0,0.034513,-0.00037705,0.010241,-0.48933,0.014792,0.030977,9.4403e-07,0.81,0.6,0
0.038536,-0.0037588,0.034534,-0.00046291,0.010221,-0.00028777,0,0,0.063214,-0.027779,0,-0.0014964,0,0,0,0.034537,-0.00046528,0.010221,-0.47108,0.014764,0.031069,9.485e-07,0.82,0.6,0
0.039168,-0.0037595,0.034554,-0.00054514,0.010203,-0.00027564,0,0,0.063314,-0.027944,0,-0.0014333,0,0,0,0.034556,-0.00054731,0.010203,-0.44992,0.014737,0.031152,9.5241e-07,0.83,0.6,0
0.039802,-0.0037607,0.03457,-0.00062127,0.010185,-0.00026199,0,0,0.063401,-0.028095,0,-0.0013623,0,0,0,0.034572,-0.00062322,0.010185,-0.42652,0.014711,0.031227,9.5581e-07,0.84,0.6,0
0.040436,-0.0037622,0.034582,-0.00069141,0.010167,-0.00024717,0,0,0.063478,-0.028232,0,-0.0012853,0,0,0,0.034584,-0.00069314,0.010167,-0.40146,0.014686,0.031293,9.5875e-07,0.85,0.6,0
0.041071,-0.0037639,0.034591,-0.00075573,0.010151,-0.0002315,0,0,0.063545,-0.028356,0,-0.0012038,0,0,0,0.034592,-0.00075724,0.010151,-0.37523,0.014662,0.031353,9.6128e-07,0.86,0.6,0
0.041707,-0.0037658,0.034598,-0.00081442,0.010135,-0.00021522,0,0,0.063603,-0.028468,0,-0.0011191,0,0,0,0.034599,-0.00081573,0.010135,-0.3482,0.014639,0.031405,9.6343e-07,0.87,0.6,0
0.042343,-0.0037677,0.034602,-0.00086769,0.01012,-0.00019855,0,0,0.063653,-0.028569,0,-0.0010324,0,0,0,0.034603,-0.0008688,0.01012,-0.32071,0.014618,0.031452,9.6526e-07,0.88,0.6,0
0.04298,-0.0037696,0.034605,-0.00091575,0.010107,-0.00018164,0,0,0.063695,-0.028658,0,-0.00094454,0,0,0,0.034606,-0.00091667,0.010107,-0.29298,0.014599,0.031493,9.6679e-07,0.89,0.6,0
0.043617,-0.0037715,0.034606,-0.0009588,0.010094,-0.00016464,0,0,0.063731,-0.028738,0,-0.00085613,0,0,0,0.034607,-0.00095956,0.010094,-0.26523,0.014581,0.031528,9.6808e-07,0.9,0.6,0
0.044255,-0.0037733,0.034607,-0.00099707,0.010083,-0.00014764,0,0,0.063762,-0.028808,0,-0.00076772,0,0,0,0.034607,-0.00099768,0.010083,-0.23758,0.014564,0.031559,9.6914e-07,0.91,0.6,0
0.044893,-0.003775,0.034606,-0.0010307,0.010073,-0.00013071,0,0,0.063787,-0.028869,0,-0.00067969,0,0,0,0.034607,-0.0010312,0.010073,-0.21015,0.014549,0.031585,9.7001e-07,0.92,0.6,0
0.045531,-0.0037766,0.034605,-0.00106,0.010064,-0.0001139,0,0,0.063808,-0.028921,0,-0.00059228,0,0,0,0.034606,-0.0010603,0.010064,-0.18298,0.014536,0.031608,9.7072e-07,0.93,0.6,0
0.046169,-0.0037779,0.034604,-0.001085,0.010056,-9.7236e-05,0,0,0.063825,-0.028966,0,-0.00050563,0,0,0,0.034604,-0.0010853,0.010056,-0.1561,0.014525,0.031627,9.7128e-07,0.94,0.6,0
0.046807,-0.0037791,0.034603,-0.0011059,0.010049,-8.0728e-05,0,0,0.063839,-0.029003,0,-0.00041979,0,0,0,0.034603,-0.0011061,0.010049,-0.12953,0.014515,0.031642,9.7173e-07,0.95,0.6,0
0.047446,-0.0037801,0.034601,-0.0011228,0.010044,-6.4372e-05,0,0,0.06385,-0.029032,0,-0.00033473,0,0,0,0.034601,-0.0011229,0.010044,-0.10324,0.014507,0.031654,9.7207e-07,0.96,0.6,0
0.048084,-0.0037809,0.0346,-0.0011359,0.010039,-4.815e-05,0,0,0.063858,-0.029055,0,-0.00025038,0,0,0,0.0346,-0.0011359,0.010039,-0.077199,0.014501,0.031664,9.7232e-07,0.97,0.6,0
0.048723,-0.0037815,0.034599,-0.0011451,0.010036,-3.2036e-05,0,0,0.063864,-0.029072,0,-0.00016659,0,0,0,0.034599,-0.0011451,0.010036,-0.051352,0.014497,0.03167,9.7249e-07,0.98,0.6,0
0.049361,-0.0037818,0.034599,-0.0011506,0.010034,-1.5998e-05,0,0,0.063867,-0.029081,0,-8.3192e-05,0,0,0,0.034599,-0.0011507,0.010034,-0.025641,0.014494,0.031674,9.726e-07,0.99,0.6,0
0.05,-0.0037819,0.034598,-0.0011525,0.010034,-2.2005e-06,0,0,0.063868,-0.029084,0,-1.1443e-05,0,0,0,0.034598,-0.0011525,0.010034,-0.0035267,0.014493,0.031676,9.7263e-07,1,0.6,0
0,0,0.031314,0.01342,0.01342,-0.0016032,0,0,0.046524,8.1315e-20,0,-0.0083365,0,0,0,0.031457,0.013278,0.01342,-5.0794,0.019385,0.018108,3.0489e-07,0,0.61,0
0.00046524,-8.3365e-05,0.031282,0.013026,0.013292,-0.0015991,0,0,0.046772,-0.00069207,0,-0.0083153,0,0,0,0.031421,0.012887,0.013292,-4.9684,0.0192,0.018334,3.1601e-07,0.01,0.61,0
0.00093544,-0.00016154,0.031414,0.012695,0.013233,-0.0015526,0,0,0.047271,-0.0013984,0,-0.0080733,0,0,0,0.031542,0.012567,0.013233,-4.7092,0.019114,0.018651,3.3179e-07,0.02,0.61,0
0.0014107,-0.00023488,0.031546,0.012358,0.013171,-0.001515,0,0,0.047774,-0.0021149,0,-0.0078782,0,0,0,0.031664,0.012239,0.013171,-4.4868,0.019025,0.018977,3.4814e-07,0.03,0.61,0
0.0018909,-0.00030358,0.031676,0.012016,0.013107,-0.0014843,0,0,0.048277,-0.002838,0,-0.0077184,0,0,0,0.031787,0.011905,0.013107,-4.2934,0.018933,0.019309,3.6492e-07,0.04,0.61,0
0.0023762,-0.00036776,0.031802,0.011671,0.013042,-0.0014589,0,0,0.048777,-0.0035642,0,-0.0075865,0,0,0,0.031907,0.011566,0.013042,-4.1236,0.018839,0.019645,3.8199e-07,0.05,0.61,0
0.0028665,-0.00042742,0.031924,0.011324,0.012975,-0.0014379,0,0,0.049269,-0.0042904,0,-0.007477,0,0,0,0.032024,0.011225,0.012975,-3.9736,0.018741,0.019982,3.992e-07,0.06,0.61,0
0.0033616,-0.00048249,0.03204,0.010977,0.012905,-0.0014203,0,0,0.049751,-0.0050138,0,-0.0073853,0,0,0,0.032135,0.010881,0.012905,-3.8401,0.018641,0.020318,4.1641e-07,0.07,0.61,0
0.0038615,-0.0005328,0.032148,0.010627,0.012833,-0.001405,0,0,0.05022,-0.0057336,0,-0.0073059,0,0,0,0.032239,0.010536,0.012833,-3.7195,0.018536,0.020651,4.3352e-07,0.08,0.61,0
0.004366,-0.0005781,0.032248,0.010276,0.012757,-0.0013909,0,0,0.050676,-0.0064516,0,-0.0072328,0,0,0,0.032335,0.010188,0.012757,-3.6079,0.018427,0.020981,4.5048e-07,0.09,0.61,0
0.004875,-0.00061801,0.03234,0.0099177,0.012677,-0.0013769,0,0,0.051123,-0.0071748,0,-0.0071597,0,0,0,0.032424,0.0098335,0.012677,-3.5008,0.018312,0.021311,4.6741e-07,0.1,0.61,0
0.0053884,-0.00065204,0.032428,0.0095469,0.012592,-0.0013628,0,0,0.051572,-0.0079184,0,-0.0070863,0,0,0,0.032509,0.009466,0.012592,-3.3964,0.018189,0.021649,4.8472e-07,0.11,0.61,0
0.0059064,-0.00067972,0.032516,0.0091492,0.0125,-0.001352,0,0,0.052042,-0.0087108,0,-0.0070304,0,0,0,0.032594,0.0090712,0.0125,-3.3005,0.018055,0.02201,5.031e-07,0.12,0.61,0
0.0064293,-0.00070064,0.032608,0.0087102,0.012395,-0.0013575,0,0,0.052552,-0.0095815,0,-0.0070589,0,0,0,0.032685,0.0086334,0.012395,-3.2407,0.017905,0.022408,5.2342e-07,0.13,0.61,0
0.0069575,-0.00071488,0.032675,0.0082066,0.012265,-0.0013978,0,0,0.053068,-0.010551,0,-0.0072685,0,0,0,0.032755,0.008127,0.012265,-3.2589,0.017715,0.022842,5.4501e-07,0.14,0.61,0
0.0074906,-0.00072261,0.032704,0.0076839,0.012116,-0.0014701,0,0,0.053527,-0.011524,0,-0.0076448,0,0,0,0.03279,0.0075978,0.012116,-3.3513,0.017501,0.023264,5.6532e-07,0.15,0.61,0
0.008028,-0.00072094,0.032881,0.0072297,0.012033,-0.0015783,0,0,0.054203,-0.012489,0,-0.0082071,0,0,0,0.032977,0.007133,0.012033,-3.5078,0.017381,0.023776,5.9268e-07,0.16,0.61,0
0.0085747,-0.00071404,0.032617,0.0060948,0.011614,-0.0016378,0,0,0.054609,-0.014349,0,-0.0085164,0,0,0,0.032718,0.005994,0.011614,-3.5202,0.016775,0.024404,6.1514e-07,0.17,0.61,0
0.0091202,-0.00069392,0.033685,0.0057684,0.011836,-0.0022786,0,0,0.056807,-0.015776,0,-0.011849,0,0,0,0.033869,0.0055836,0.011836,-4.6358,0.017096,0.025736,7.0431e-07,0.18,0.61,0
0.0097109,-0.00069287,0.039166,0.0069169,0.013825,-0.0016384,0,0,0.046087,-0.012507,0,-0.0071882,0,0,0,0.039277,0.0068052,0.013825,-3.2453,0.019969,0.029593,1.21e-06,0.19,0.61,0
0.010107,-0.00075512,0.031596,0.0050932,0.011007,-4.3211e-05,0,0,0.036666,-0.010506,0,-0.0013812,0,0,0,0.031632,0.005057,0.011007,-0.66301,0.015899,0.024156,6.9533e-07,0.2,0.61,0
0.010415,-0.00082728,0.036803,0.0063215,0.012937,0.00078573,0,0,0.031025,-0.0086005,0,0.0020429,0,0,0,0.036823,0.0063013,0.012937,1.4756,0.018687,0.027804,8.9553e-07,0.21,0.61,0
0.010727,-0.00092329,0.038143,0.0069646,0.013532,0.0017765,0,0,0.031994,-0.0085379,0,0.004619,0,0,0,0.038244,0.0068637,0.013532,3.2507,0.019547,0.028634,9.8887e-07,0.22,0.61,0
0.011055,-0.0010333,0.038319,0.0065403,0.013458,0.0015015,0,0,0.03232,-0.0089928,0,0.003904,0,0,0,0.03839,0.0064696,0.013458,2.6992,0.019439,0.029063,1.0193e-06,0.23,0.61,0
0.011374,-0.0011354,0.037584,0.0060611,0.013094,0.0017176,0,0,0.031838,-0.0091423,0,0.0044659,0,0,0,0.037678,0.0059678,0.013094,3.1096,0.018913,0.028816,9.8014e-07,0.24,0.61,0
0.011692,-0.0012399,0.03745,0.0060784,0.013059,0.0016022,0,0,0.031709,-0.009074,0,0.0041658,0,0,0,0.037531,0.0059968,0.013059,2.9162,0.018862,0.028664,9.6653e-07,0.25,0.61,0
0.012008,-0.0013496,0.03725,0.0055775,0.012848,0.0014798,0,0,0.031722,-0.0094518,0,0.0038476,0,0,0,0.037319,0.0055086,0.012848,2.6693,0.018558,0.028849,9.693e-07,0.26,0.61,0
0.012326,-0.0014656,0.037121,0.0049298,0.012615,0.0014412,0,0,0.031857,-0.0099909,0,0.0037472,0,0,0,0.037185,0.0048654,0.012615,2.5584,0.018222,0.029226,9.8462e-07,0.27,0.61,0
0.012645,-0.0015858,0.036992,0.0044242,0.012425,0.0014808,0,0,0.031937,-0.010401,0,0.0038502,0,0,0,0.037059,0.004357,0.012425,2.5981,0.017947,0.029507,9.9447e-07,0.28,0.61,0
0.012965,-0.0017099,0.036826,0.0039412,0.01223,0.0014607,0,0,0.031974,-0.010776,0,0.0037979,0,0,0,0.03689,0.0038764,0.01223,2.5384,0.017666,0.029731,9.9909e-07,0.29,0.61,0
0.013284,-0.0018385,0.036623,0.003256,0.011964,0.0014261,0,0,0.032057,-0.01132,0,0.0037079,0,0,0,0.036684,0.0031952,0.011964,2.4429,0.017281,0.030079,1.0076e-06,0.3,0.61,0
0.013606,-0.001971,0.036416,0.002376,0.011638,0.0014569,0,0,0.032212,-0.01204,0,0.0037879,0,0,0,0.036478,0.0023138,0.011638,2.4462,0.01681,0.030588,1.0225e-06,0.31,0.61,0
0.013929,-0.0021047,0.036198,0.0014604,0.011298,0.0016236,0,0,0.032371,-0.012788,0,0.0042214,0,0,0,0.036274,0.0013847,0.011298,2.6702,0.016319,0.03114,1.0375e-06,0.32,0.61,0
0.014253,-0.0022364,0.035936,0.00063372,0.010971,0.0018929,0,0,0.032454,-0.013438,0,0.0049216,0,0,0,0.036037,0.00053251,0.010971,3.0605,0.015847,0.031606,1.0453e-06,0.33,0.61,0
0.014578,-0.0023633,0.035597,-5.6237e-05,0.010662,0.0022409,0,0,0.032415,-0.013934,0,0.0058264,0,0,0,0.035737,-0.00019653,0.010662,3.5824,0.015401,0.031921,1.0422e-06,0.34,0.61,0
0.014901,-0.0024838,0.035205,-0.00053693,0.0104,0.0026005,0,0,0.032246,-0.014219,0,0.0067612,0,0,0,0.035393,-0.00072514,0.0104,4.1396,0.015023,0.032039,1.0282e-06,0.35,0.61,0
0.015223,-0.0025975,0.034769,-0.00084201,0.010178,0.0029264,0,0,0.031968,-0.014326,0,0.0076086,0,0,0,0.035008,-0.0010809,0.010178,4.6667,0.014702,0.031982,1.0052e-06,0.36,0.61,0
0.015541,-0.0027055,0.03432,-0.0010408,0.0099837,0.0031888,0,0,0.031637,-0.014332,0,0.0082909,0,0,0,0.034605,-0.0013261,0.0099837,5.112,0.014421,0.031821,9.7785e-07,0.37,0.61,0
0.015856,-0.0028092,0.033871,-0.0012183,0.0097958,0.0034038,0,0,0.031298,-0.014318,0,0.0088499,0,0,0,0.034198,-0.0015454,0.0097958,5.4897,0.01415,0.031636,9.4987e-07,0.38,0.61,0
0.016167,-0.0029104,0.033432,-0.0014167,0.0096047,0.003606,0,0,0.030976,-0.014328,0,0.0093756,0,0,0,0.033802,-0.0017859,0.0096047,5.8461,0.013874,0.031478,9.2364e-07,0.39,0.61,0
0.016475,-0.0030105,0.032991,-0.0016668,0.0093973,0.0038362,0,0,0.030672,-0.014383,0,0.0099741,0,0,0,0.033411,-0.0020863,0.0093973,6.2413,0.013574,0.031373,8.996e-07,0.4,0.61,0
0.01678,-0.0031109,0.032524,-0.0020082,0.0091547,0.0041386,0,0,0.03038,-0.014512,0,0.01076,0,0,0,0.033013,-0.0024973,0.0091547,6.7396,0.013223,0.031353,8.7767e-07,0.41,0.61,0
0.017083,-0.003214,0.032032,-0.0025112,0.0088563,0.0045902,0,0,0.030129,-0.014778,0,0.011935,0,0,0,0.032632,-0.0031108,0.0088563,7.4416,0.012792,0.031512,8.6107e-07,0.42,0.61,0
0.017383,-0.0033224,0.03204,-0.0031888,0.0086555,0.0048676,0,0,0.0304,-0.015397,0,0.012656,0,0,0,0.032701,-0.003849,0.0086555,7.7238,0.012502,0.032174,8.8091e-07,0.43,0.61,0
0.017691,-0.0034687,0.029272,-0.0020505,0.0081664,0.0042057,0,0,0.037744,-0.017736,0,0.014261,0,0,0,0.029834,-0.0026129,0.0081664,7.2589,0.011796,0.028629,7.7104e-07,0.44,0.61,0
0.018103,-0.0036326,0.032,-0.0023778,0.0088866,0.0035752,0,0,0.040063,-0.020369,0,0.014652,0,0,0,0.032444,-0.0028213,0.0088866,6.6353,0.012836,0.031126,1.1058e-06,0.45,0.61,0
0.018492,-0.003802,0.031408,-0.0014188,0.0089967,0.00227,0,0,0.038846,-0.018772,0,0.0090432,0,0,0,0.031586,-0.0015971,0.0089967,4.3891,0.012995,0.029368,1.0009e-06,0.46,0.61,0
0.01888,-0.0039613,0.031559,-0.00026803,0.0093872,0.0015512,0,0,0.03843,-0.017108,0,0.0061611,0,0,0,0.031645,-0.00035479,0.0093872,3.1373,0.013559,0.028414,9.692e-07,0.47,0.61,0
0.01926,-0.0041127,0.031154,0.00021742,0.0094115,0.00091677,0,0,0.037688,-0.016275,0,0.0034891,0,0,0,0.031183,0.00018849,0.0094115,1.8406,0.013595,0.027568,9.1268e-07,0.48,0.61,0
0.019634,-0.0042541,0.030395,0.00045801,0.009256,0.00025995,0,0,0.036642,-0.015565,0,0.00064366,0,0,0,0.030399,0.00045423,0.009256,0.36088,0.01337,0.026659,8.3792e-07,0.49,0.61,0
0.019993,-0.0043881,0.029074,0.00043233,0.0088519,-0.00032652,0,0,0.035052,-0.015044,0,-0.0022478,0,0,0,0.029106,0.00040077,0.0088519,-1.2287,0.012786,0.025555,7.3439e-07,0.5,0.61,0
0.020335,-0.0045005,0.030859,2.0254e-05,0.0092637,-0.00064613,0,0,0.039084,-0.016351,0,-0.0038475,0,0,0,0.030919,-4.0184e-05,0.0092637,-1.7278,0.013381,0.027516,7.6005e-07,0.51,0.61,0
0.020825,-0.0045915,0.027043,0.00091708,0.0083879,-0.0013625,0,0,0.048502,-0.019424,0,-0.0070849,0,0,0,0.027113,0.00084622,0.0083879,-2.9773,0.012116,0.023425,4.3688e-07,0.52,0.61,0
0.021305,-0.0046808,0.027074,8.0551e-05,0.0081464,-0.0017407,0,0,0.049212,-0.020971,0,-0.0090517,0,0,0,0.027186,-3.1239e-05,0.0081464,-3.6745,0.011767,0.024188,4.5668e-07,0.53,0.61,0
0.021809,-0.0047119,0.027462,-0.00068176,0.008034,-0.0021353,0,0,0.050512,-0.022661,0,-0.011104,0,0,0,0.027623,-0.00084285,0.008034,-4.3143,0.011605,0.025227,4.9364e-07,0.54,0.61,0
0.022315,-0.0047091,0.028452,-0.00065202,0.0083399,-0.0013866,0,0,0.052291,-0.023379,0,-0.0072106,0,0,0,0.028518,-0.00071794,0.0083399,-2.7217,0.012046,0.025922,5.4033e-07,0.55,0.61,0
0.022855,-0.0047053,0.029887,-0.0003925,0.0088483,-0.0010783,0,0,0.0547,-0.024026,0,-0.0056071,0,0,0,0.029925,-0.00043085,0.0088483,-2.0369,0.012781,0.026943,6.1762e-07,0.56,0.61,0
0.023409,-0.0046827,0.030542,-0.00043951,0.0090306,-0.00060622,0,0,0.055929,-0.024622,0,-0.0031523,0,0,0,0.030554,-0.00045137,0.0090306,-1.1206,0.013044,0.027518,6.5759e-07,0.57,0.61,0
0.023973,-0.0046435,0.031133,-7.1118e-05,0.0093185,-0.00021097,0,0,0.056717,-0.024413,0,-0.001097,0,0,0,0.031134,-7.2545e-05,0.0093185,-0.38735,0.01346,0.027731,6.8682e-07,0.58,0.61,0
0.024543,-0.0045917,0.031553,0.00031732,0.0095611,1.5311e-05,0,0,0.057179,-0.024034,0,7.962e-05,0,0,0,0.031553,0.00031731,0.0095611,0.028086,0.01381,0.027792,7.0536e-07,0.59,0.61,0
0.025117,-0.0045339,0.031881,0.00059695,0.0097433,0.00014849,0,0,0.057557,-0.02378,0,0.00077215,0,0,0,0.031881,0.00059624,0.0097433,0.27195,0.014074,0.027861,7.206e-07,0.6,0.61,0
0.025694,-0.0044744,0.032194,0.0008505,0.0099132,0.00021016,0,0,0.057929,-0.023563,0,0.0010929,0,0,0,0.032195,0.00084909,0.0099132,0.38416,0.014319,0.027939,7.3558e-07,0.61,0.61,0
0.026275,-0.0044157,0.03246,0.0010414,0.010051,0.0002239,0,0,0.058265,-0.023424,0,0.0011643,0,0,0,0.032462,0.0010398,0.010051,0.40827,0.014517,0.028025,7.4905e-07,0.62,0.61,0
0.02686,-0.0043599,0.032697,0.0011749,0.010162,0.00019988,0,0,0.058592,-0.023366,0,0.0010394,0,0,0,0.032698,0.0011736,0.010162,0.36329,0.014678,0.028129,7.6204e-07,0.63,0.61,0
0.027447,-0.004308,0.032909,0.0012515,0.010248,0.00015217,0,0,0.058917,-0.023391,0,0.00079128,0,0,0,0.032909,0.0012508,0.010248,0.2754,0.014803,0.028255,7.7491e-07,0.64,0.61,0
0.028038,-0.004261,0.033101,0.0012797,0.010314,9.0591e-05,0,0,0.059246,-0.02349,0,0.00047107,0,0,0,0.033101,0.0012795,0.010314,0.16311,0.014898,0.028403,7.8795e-07,0.65,0.61,0
0.028632,-0.004219,0.033277,0.0012666,0.010363,2.2751e-05,0,0,0.059577,-0.023651,0,0.0001183,0,0,0,0.033278,0.0012666,0.010363,0.040721,0.014969,0.02857,8.0116e-07,0.66,0.61,0
0.02923,-0.0041823,0.03344,0.0012191,0.010398,-4.5889e-05,0,0,0.059909,-0.023864,0,-0.00023862,0,0,0,0.03344,0.0012191,0.010398,-0.081602,0.015019,0.028752,8.1451e-07,0.67,0.61,0
0.02983,-0.0041507,0.033589,0.001144,0.01042,-0.00011127,0,0,0.06024,-0.024118,0,-0.00057858,0,0,0,0.03359,0.0011436,0.01042,-0.19648,0.015051,0.028945,8.2788e-07,0.68,0.61,0
0.030434,-0.0041239,0.033727,0.0010474,0.010432,-0.00017055,0,0,0.060566,-0.0244,0,-0.00088685,0,0,0,0.033728,0.0010465,0.010432,-0.29901,0.015069,0.029145,8.4111e-07,0.69,0.61,0
0.031042,-0.0041015,0.033852,0.00093514,0.010436,-0.00022201,0,0,0.060882,-0.024703,0,-0.0011545,0,0,0,0.033854,0.00093364,0.010436,-0.38641,0.015075,0.029347,8.5405e-07,0.7,0.61,0
0.031652,-0.0040831,0.033967,0.00081231,0.010434,-0.00026487,0,0,0.061186,-0.025016,0,-0.0013773,0,0,0,0.033969,0.0008102,0.010434,-0.45769,0.015071,0.029547,8.6651e-07,0.71,0.61,0
0.032265,-0.0040684,0.03407,0.00068315,0.010426,-0.000299,0,0,0.061475,-0.025331,0,-0.0015548,0,0,0,0.034073,0.00068048,0.010426,-0.51307,0.01506,0.029742,8.7837e-07,0.72,0.61,0
0.032882,-0.0040568,0.034162,0.00055112,0.010414,-0.00032479,0,0,0.061746,-0.025643,0,-0.0016889,0,0,0,0.034165,0.00054799,0.010414,-0.55358,0.015043,0.02993,8.8951e-07,0.73,0.61,0
0.0335,-0.004048,0.034244,0.00041897,0.010399,-0.00034287,0,0,0.061997,-0.025948,0,-0.0017829,0,0,0,0.034248,0.0004155,0.010399,-0.5807,0.015021,0.030108,8.9987e-07,0.74,0.61,0
0.034121,-0.0040415,0.034316,0.00028881,0.010381,-0.00035405,0,0,0.062229,-0.026241,0,-0.001841,0,0,0,0.034319,0.00028513,0.010381,-0.59607,0.014995,0.030276,9.0939e-07,0.75,0.61,0
0.034745,-0.0040371,0.034378,0.00016226,0.010362,-0.00035919,0,0,0.062442,-0.02652,0,-0.0018678,0,0,0,0.034382,0.00015849,0.010362,-0.60138,0.014967,0.030433,9.1807e-07,0.76,0.61,0
0.03537,-0.0040343,0.034432,4.0479e-05,0.010342,-0.00035915,0,0,0.062634,-0.026783,0,-0.0018676,0,0,0,0.034436,3.6729e-05,0.010342,-0.59825,0.014938,0.030578,9.2591e-07,0.77,0.61,0
0.035998,-0.004033,0.034477,-7.5706e-05,0.01032,-0.00035475,0,0,0.062808,-0.02703,0,-0.0018447,0,0,0,0.034481,-7.9347e-05,0.01032,-0.58816,0.014907,0.030711,9.3294e-07,0.78,0.61,0
0.036626,-0.0040328,0.034516,-0.00018574,0.010299,-0.00034674,0,0,0.062963,-0.02726,0,-0.001803,0,0,0,0.034519,-0.00018921,0.010299,-0.57243,0.014876,0.030832,9.392e-07,0.79,0.61,0
0.037257,-0.0040335,0.034548,-0.0002893,0.010277,-0.00033581,0,0,0.063102,-0.027474,0,-0.0017462,0,0,0,0.034551,-0.00029254,0.010277,-0.55223,0.014845,0.030943,9.4474e-07,0.8,0.61,0
0.037888,-0.0040349,0.034573,-0.00038623,0.010256,-0.00032256,0,0,0.063225,-0.02767,0,-0.0016773,0,0,0,0.034576,-0.0003892,0.010256,-0.52859,0.014814,0.031043,9.4959e-07,0.81,0.61,0
0.038521,-0.0040369,0.034594,-0.00047647,0.010235,-0.00030752,0,0,0.063333,-0.027851,0,-0.0015991,0,0,0,0.034597,-0.00047917,0.010235,-0.50235,0.014784,0.031134,9.5382e-07,0.82,0.61,0
0.039155,-0.0040393,0.03461,-0.00056011,0.010215,-0.00029114,0,0,0.063427,-0.028015,0,-0.0015139,0,0,0,0.034613,-0.00056252,0.010215,-0.47425,0.014755,0.031214,9.5749e-07,0.83,0.61,0
0.03979,-0.004042,0.034622,-0.00063727,0.010196,-0.0002738,0,0,0.06351,-0.028165,0,-0.0014238,0,0,0,0.034625,-0.0006394,0.010196,-0.44488,0.014727,0.031287,9.6064e-07,0.84,0.61,0
0.040425,-0.0040449,0.034631,-0.00070814,0.010177,-0.00025584,0,0,0.063581,-0.028301,0,-0.0013304,0,0,0,0.034633,-0.00070999,0.010177,-0.41476,0.0147,0.031351,9.6333e-07,0.85,0.61,0
0.041062,-0.0040478,0.034637,-0.00077293,0.010159,-0.00023751,0,0,0.063643,-0.028424,0,-0.001235,0,0,0,0.034639,-0.00077452,0.010159,-0.38428,0.014675,0.031408,9.656e-07,0.86,0.61,0
0.041698,-0.0040508,0.034641,-0.00083189,0.010143,-0.00021902,0,0,0.063695,-0.028534,0,-0.0011389,0,0,0,0.034642,-0.00083324,0.010143,-0.35375,0.014651,0.031458,9.6752e-07,0.87,0.61,0
0.042335,-0.0040537,0.034643,-0.00088525,0.010127,-0.00020056,0,0,0.06374,-0.028632,0,-0.0010429,0,0,0,0.034644,-0.00088639,0.010127,-0.32343,0.014628,0.031502,9.6911e-07,0.88,0.61,0
0.042973,-0.0040565,0.034643,-0.00093328,0.010113,-0.00018224,0,0,0.063778,-0.02872,0,-0.00094764,0,0,0,0.034644,-0.00093422,0.010113,-0.29349,0.014608,0.03154,9.7043e-07,0.89,0.61,0
0.043611,-0.0040592,0.034642,-0.00097622,0.0101,-0.00016416,0,0,0.06381,-0.028797,0,-0.00085362,0,0,0,0.034643,-0.00097697,0.0101,-0.26406,0.014588,0.031574,9.7151e-07,0.9,0.61,0
0.044249,-0.0040617,0.03464,-0.0010143,0.010088,-0.00014638,0,0,0.063836,-0.028865,0,-0.00076118,0,0,0,0.034641,-0.0010149,0.010088,-0.23522,0.014571,0.031602,9.7239e-07,0.91,0.61,0
0.044888,-0.004064,0.034638,-0.0010477,0.010077,-0.00012894,0,0,0.063858,-0.028924,0,-0.0006705,0,0,0,0.034638,-0.0010482,0.010077,-0.20702,0.014556,0.031627,9.7309e-07,0.92,0.61,0
0.045526,-0.004066,0.034635,-0.0010767,0.010068,-0.00011186,0,0,0.063876,-0.028975,0,-0.00058165,0,0,0,0.034635,-0.0010771,0.010068,-0.17946,0.014542,0.031648,9.7365e-07,0.93,0.61,0
0.046165,-0.0040679,0.034632,-0.0011015,0.010059,-9.5119e-05,0,0,0.06389,-0.029018,0,-0.00049462,0,0,0,0.034632,-0.0011017,0.010059,-0.15251,0.01453,0.031665,9.7409e-07,0.94,0.61,0
0.046804,-0.0040694,0.03463,-0.0011221,0.010052,-7.8709e-05,0,0,0.063901,-0.029053,0,-0.00040929,0,0,0,0.03463,-0.0011223,0.010052,-0.12614,0.01452,0.031679,9.7442e-07,0.95,0.61,0
0.047443,-0.0040707,0.034627,-0.0011389,0.010046,-6.259e-05,0,0,0.06391,-0.029082,0,-0.00032547,0,0,0,0.034627,-0.001139,0.010046,-0.10027,0.014512,0.03169,9.7467e-07,0.96,0.61,0
0.048082,-0.0040717,0.034625,-0.0011517,0.010042,-4.6716e-05,0,0,0.063916,-0.029104,0,-0.00024293,0,0,0,0.034625,-0.0011518,0.010042,-0.074815,0.014505,0.031699,9.7485e-07,0.97,0.61,0
0.048722,-0.0040724,0.034624,-0.0011609,0.010039,-3.1035e-05,0,0,0.063921,-0.029119,0,-0.00016138,0,0,0,0.034624,-0.0011609,0.010039,-0.04969,0.014501,0.031705,9.7497e-07,0.98,0.61,0
0.049361,-0.0040729,0.034623,-0.0011663,0.010037,-1.5484e-05,0,0,0.063923,-0.029129,0,-8.0517e-05,0,0,0,0.034623,-0.0011663,0.010037,-0.024789,0.014498,0.031708,9.7504e-07,0.99,0.61,0
0.05,-0.004073,0.034623,-0.0011681,0.010036,-2.804e-06,0,0,0.063924,-0.029132,0,-1.4581e-05,0,0,0,0.034623,-0.0011681,0.010036,-0.0044888,0.014497,0.03171,9.7507e-07,1,0.61,0
0,0,0.031157,0.013353,0.013353,-0.0017333,0,0,0.04629,1.6263e-19,0,-0.009013,0,0,0,0.031324,0.013186,0.013353,-5.509,0.019288,0.018055,3.0221e-07,0,0.62,0
0.0004629,-9.013e-05,0.031126,0.012975,0.01323,-0.0017287,0,0,0.046528,-0.0006631,0,-0.0089893,0,0,0,0.031289,0.012812,0.01323,-5.3924,0.01911,0.018271,3.1273e-07,0.01,0.62,0
0.00093057,-0.00017525,0.031252,0.012653,0.013171,-0.0016823,0,0,0.047009,-0.0013477,0,-0.0087477,0,0,0,0.031402,0.012502,0.013171,-5.127,0.019025,0.018575,3.2771e-07,0.02,0.62,0
0.0014031,-0.00025566,0.031376,0.012322,0.01311,-0.0016432,0,0,0.047493,-0.0020468,0,-0.0085445,0,0,0,0.031517,0.012182,0.01311,-4.8929,0.018936,0.018888,3.4329e-07,0.03,0.62,0
0.0018804,-0.00033151,0.031498,0.011986,0.013045,-0.0016093,0,0,0.047977,-0.0027546,0,-0.0083682,0,0,0,0.03163,0.011854,0.013045,-4.6833,0.018843,0.019208,3.5926e-07,0.04,0.62,0
0.0023626,-0.00040286,0.031615,0.011645,0.012978,-0.001579,0,0,0.048456,-0.0034661,0,-0.0082109,0,0,0,0.031739,0.011521,0.012978,-4.4931,0.018746,0.01953,3.7543e-07,0.05,0.62,0
0.0028496,-0.00046969,0.031724,0.011301,0.012908,-0.0015513,0,0,0.048924,-0.0041774,0,-0.0080669,0,0,0,0.031842,0.011184,0.012908,-4.319,0.018644,0.019852,3.9163e-07,0.06,0.62,0
0.0033411,-0.0005319,0.031825,0.010955,0.012834,-0.0015253,0,0,0.049377,-0.0048858,0,-0.0079318,0,0,0,0.031936,0.010844,0.012834,-4.1581,0.018538,0.020171,4.0771e-07,0.07,0.62,0
0.0038371,-0.00058933,0.031916,0.010607,0.012757,-0.0015003,0,0,0.049814,-0.00559,0,-0.0078017,0,0,0,0.032021,0.010502,0.012757,-4.0077,0.018427,0.020485,4.2353e-07,0.08,0.62,0
0.0043374,-0.00064171,0.031996,0.010255,0.012675,-0.0014758,0,0,0.050233,-0.0062919,0,-0.007674,0,0,0,0.032096,0.010156,0.012675,-3.8657,0.018309,0.020795,4.3906e-07,0.09,0.62,0
0.0048418,-0.00068876,0.032064,0.009897,0.012588,-0.0014518,0,0,0.050636,-0.0069972,0,-0.0075494,0,0,0,0.032158,0.0098023,0.012588,-3.7313,0.018183,0.021102,4.5435e-07,0.1,0.62,0
0.0053501,-0.00073013,0.03212,0.0095256,0.012494,-0.0014301,0,0,0.051029,-0.007717,0,-0.0074366,0,0,0,0.03221,0.0094355,0.012494,-3.6073,0.018047,0.02141,4.6957e-07,0.11,0.62,0
0.0058623,-0.00076551,0.032164,0.0091334,0.012389,-0.0014154,0,0,0.051415,-0.0084654,0,-0.0073602,0,0,0,0.032251,0.0090467,0.012389,-3.5037,0.017896,0.021727,4.8498e-07,0.12,0.62,0
0.0063784,-0.00079472,0.03219,0.0087106,0.01227,-0.0014156,0,0,0.051791,-0.0092547,0,-0.0073612,0,0,0,0.032275,0.0086256,0.01227,-3.4379,0.017723,0.022054,5.0057e-07,0.13,0.62,0
0.0068982,-0.0008177,0.03219,0.0082584,0.012134,-0.0014365,0,0,0.052144,-0.010078,0,-0.0074698,0,0,0,0.032276,0.0081725,0.012134,-3.4228,0.017528,0.022387,5.1592e-07,0.14,0.62,0
0.0074213,-0.00083407,0.032188,0.0077879,0.011993,-0.0014821,0,0,0.052507,-0.010932,0,-0.0077071,0,0,0,0.032277,0.0076982,0.011993,-3.4634,0.017323,0.022738,5.3193e-07,0.15,0.62,0
0.0079483,-0.00084433,0.032116,0.0071846,0.01179,-0.0015461,0,0,0.052847,-0.011975,0,-0.0080395,0,0,0,0.032212,0.0070891,0.01179,-3.535,0.01703,0.023133,5.4834e-07,0.16,0.62,0
0.0084782,-0.00084775,0.03216,0.0065894,0.011625,-0.001747,0,0,0.053391,-0.013092,0,-0.0090844,0,0,0,0.032279,0.0064706,0.011625,-3.8904,0.016791,0.023656,5.726e-07,0.17,0.62,0
0.0090161,-0.00085245,0.031738,0.0055194,0.011177,-0.0019354,0,0,0.053458,-0.01471,0,-0.010064,0,0,0,0.03188,0.0053773,0.011177,-4.1991,0.016145,0.024132,5.8359e-07,0.18,0.62,0
0.0095474,-0.00084991,0.032598,0.0054079,0.011402,-0.0027233,0,0,0.05511,-0.015584,0,-0.014161,0,0,0,0.032868,0.0051379,0.011402,-5.6636,0.016469,0.025189,6.529e-07,0.19,0.62,0
0.010118,-0.00086784,0.037495,0.0061606,0.013097,-0.0022521,0,0,0.044405,-0.012398,0,-0.009411,0,0,0,0.037686,0.00597,0.013097,-4.451,0.018918,0.028822,1.0924e-06,0.2,0.62,0
0.010499,-0.00092534,0.034838,0.0061633,0.0123,-0.0007782,0,0,0.039065,-0.011053,0,-0.0046088,0,0,0,0.034939,0.0060617,0.0123,-2.5165,0.017767,0.026325,1.0001e-06,0.21,0.62,0
0.0109,-0.0010136,0.031881,0.0055535,0.01123,0.00096361,0,0,0.036863,-0.010002,0,0.0027431,0,0,0,0.031927,0.005507,0.01123,1.7687,0.016221,0.024075,6.9725e-07,0.22,0.62,0
0.011204,-0.0011226,0.036836,0.0056467,0.012745,0.0019114,0,0,0.031318,-0.0092275,0,0.0049697,0,0,0,0.036953,0.00553,0.012745,3.4939,0.018409,0.028508,9.3797e-07,0.23,0.62,0
0.011526,-0.0012279,0.037727,0.0062001,0.013178,0.0017199,0,0,0.031914,-0.0090717,0,0.0044718,0,0,0,0.037821,0.0061065,0.013178,3.1134,0.019035,0.028837,9.8633e-07,0.24,0.62,0
0.011842,-0.0013298,0.037673,0.0063616,0.01321,0.0016383,0,0,0.031801,-0.0089033,0,0.0042597,0,0,0,0.037758,0.0062761,0.01321,2.9871,0.019082,0.028651,9.736e-07,0.25,0.62,0
0.012162,-0.0014445,0.037689,0.0055512,0.012972,0.0014181,0,0,0.032132,-0.0096472,0,0.003687,0,0,0,0.037752,0.0054887,0.012972,2.5216,0.018738,0.029248,1.007e-06,0.26,0.62,0
0.012485,-0.0015668,0.037622,0.0046356,0.012677,0.0016069,0,0,0.032428,-0.010454,0,0.004178,0,0,0,0.0377,0.0045575,0.012677,2.7824,0.018312,0.029921,1.0418e-06,0.27,0.62,0
0.012811,-0.0016909,0.037569,0.0044504,0.012606,0.0017196,0,0,0.032453,-0.010602,0,0.004471,0,0,0,0.037659,0.0043613,0.012606,2.9643,0.018209,0.030036,1.0462e-06,0.28,0.62,0
0.013134,-0.0018181,0.037297,0.0040624,0.012408,0.0016961,0,0,0.032356,-0.010849,0,0.0044099,0,0,0,0.037383,0.003976,0.012408,2.914,0.017922,0.030091,1.0377e-06,0.29,0.62,0
0.013458,-0.0019522,0.037046,0.0032996,0.012104,0.0015995,0,0,0.032425,-0.011445,0,0.0041586,0,0,0,0.037122,0.003224,0.012104,2.7075,0.017483,0.030445,1.0445e-06,0.3,0.62,0
0.013783,-0.0020925,0.036812,0.0022323,0.011713,0.0016717,0,0,0.032628,-0.012325,0,0.0043465,0,0,0,0.036893,0.0021517,0.011713,2.7614,0.016919,0.031083,1.0647e-06,0.31,0.62,0
0.01411,-0.0022343,0.03653,0.0011532,0.011305,0.0018894,0,0,0.032793,-0.013197,0,0.0049125,0,0,0,0.036631,0.0010526,0.011305,3.0485,0.01633,0.03172,1.0805e-06,0.32,0.62,0
0.014438,-0.0023727,0.036192,0.00028068,0.010942,0.0022697,0,0,0.032826,-0.01386,0,0.0059013,0,0,0,0.036335,0.0001378,0.010942,3.6022,0.015805,0.032185,1.0846e-06,0.33,0.62,0
0.014767,-0.0025047,0.035767,-0.00044499,0.010597,0.0026564,0,0,0.032722,-0.014354,0,0.0069068,0,0,0,0.035961,-0.00063882,0.010597,4.1733,0.015306,0.032474,1.0755e-06,0.34,0.62,0
0.015093,-0.0026278,0.035283,-0.00091331,0.010311,0.0030749,0,0,0.032464,-0.014592,0,0.0079948,0,0,0,0.035542,-0.0011727,0.010311,4.8213,0.014894,0.032531,1.0541e-06,0.35,0.62,0
0.015416,-0.0027423,0.034846,-0.0010789,0.01013,0.0033908,0,0,0.03213,-0.014571,0,0.0088162,0,0,0,0.035163,-0.0013961,0.01013,5.3452,0.014632,0.032373,1.0272e-06,0.36,0.62,0
0.015735,-0.00285,0.034428,-0.0012036,0.0099674,0.0036006,0,0,0.031799,-0.014522,0,0.0093616,0,0,0,0.034788,-0.0015638,0.0099674,5.7128,0.014397,0.032176,9.9968e-07,0.37,0.62,0
0.016052,-0.0029537,0.034103,-0.0013546,0.0098245,0.003752,0,0,0.031562,-0.014533,0,0.0097553,0,0,0,0.034496,-0.0017473,0.0098245,5.9748,0.014191,0.032063,9.7977e-07,0.38,0.62,0
0.016367,-0.0030554,0.033891,-0.0015547,0.009701,0.0038958,0,0,0.031447,-0.014632,0,0.010129,0,0,0,0.034314,-0.0019779,0.009701,6.1987,0.014013,0.032088,9.7048e-07,0.39,0.62,0
0.016681,-0.0031568,0.033819,-0.0018209,0.0095996,0.0040639,0,0,0.031486,-0.014847,0,0.010566,0,0,0,0.034277,-0.0022784,0.0095996,6.4233,0.013866,0.032298,9.748e-07,0.4,0.62,0
0.016997,-0.00326,0.033981,-0.002168,0.0095439,0.0042704,0,0,0.031768,-0.015225,0,0.011103,0,0,0,0.034479,-0.0026656,0.0095439,6.6466,0.013786,0.032791,1.0012e-06,0.41,0.62,0
0.017316,-0.003368,0.034703,-0.0025646,0.0096415,0.004448,0,0,0.03258,-0.015868,0,0.011565,0,0,0,0.035227,-0.0030882,0.0096415,6.7128,0.013927,0.033798,1.0768e-06,0.42,0.62,0
0.017648,-0.0034892,0.03612,-0.0031937,0.0098778,0.0042825,0,0,0.034114,-0.016993,0,0.011135,0,0,0,0.036581,-0.0036548,0.0098778,6.1454,0.014268,0.035462,1.2173e-06,0.43,0.62,0
0.017999,-0.0036445,0.037266,-0.0028198,0.010334,0.0040935,0,0,0.035011,-0.0171,0,0.010643,0,0,0,0.037679,-0.0032335,0.010334,5.7717,0.014927,0.036095,1.3158e-06,0.44,0.62,0
0.018348,-0.003811,0.03831,-0.0019936,0.010895,0.0027786,0,0,0.03564,-0.016755,0,0.0072243,0,0,0,0.038501,-0.0021842,0.010895,3.9253,0.015737,0.035975,1.3697e-06,0.45,0.62,0
0.018711,-0.0039681,0.039557,-0.00064716,0.011673,0.0021969,0,0,0.036249,-0.016016,0,0.0057119,0,0,0,0.039677,-0.00076685,0.011673,3.1185,0.016861,0.035879,1.4468e-06,0.46,0.62,0
0.019073,-0.0041212,0.039633,3.7558e-05,0.011901,0.0016618,0,0,0.036052,-0.015423,0,0.0043208,0,0,0,0.039703,-3.2066e-05,0.011901,2.3991,0.017191,0.035314,1.422e-06,0.47,0.62,0
0.019432,-0.0042653,0.039366,0.00056132,0.011978,0.0013508,0,0,0.035604,-0.014842,0,0.003512,0,0,0,0.039413,0.00051436,0.011978,1.9912,0.017302,0.034621,1.3702e-06,0.48,0.62,0
0.019785,-0.0044003,0.038512,0.00075025,0.011779,0.0011929,0,0,0.034753,-0.014337,0,0.0031015,0,0,0,0.03855,0.0007126,0.011779,1.8076,0.017014,0.033696,1.2742e-06,0.49,0.62,0
0.020127,-0.004525,0.037181,0.00068202,0.011359,0.0010653,0,0,0.033569,-0.01388,0,0.0027696,0,0,0,0.037213,0.00065095,0.011359,1.6703,0.016407,0.032556,1.1475e-06,0.5,0.62,0
0.020457,-0.0046541,0.031695,0.0012152,0.0098729,0.00092958,0,0,0.038804,-0.015096,0,0.0024086,0,0,0,0.031739,0.0011707,0.0098729,1.3581,0.014261,0.027281,8.4178e-07,0.51,0.62,0
0.020874,-0.0047766,0.03409,0.0014285,0.010656,-0.00018769,0,0,0.04062,-0.016623,0,-0.0019832,0,0,0,0.034126,0.0013925,0.010656,-0.92286,0.015392,0.029234,1.1454e-06,0.52,0.62,0
0.021269,-0.0048729,0.032166,0.00057465,0.0098221,-0.0011492,0,0,0.038729,-0.016826,0,-0.0058719,0,0,0,0.032275,0.00046523,0.0098221,-2.8709,0.014188,0.028331,9.9259e-07,0.53,0.62,0
0.021649,-0.0049364,0.034582,-0.00042949,0.010246,-0.0020001,0,0,0.044293,-0.019067,0,-0.0084408,0,0,0,0.034721,-0.00056839,0.010246,-3.5859,0.014799,0.031317,1.0739e-06,0.54,0.62,0
0.022218,-0.0049512,0.030665,-0.00013576,0.0091589,-0.0024146,0,0,0.055917,-0.024166,0,-0.012556,0,0,0,0.030853,-0.0003239,0.0091589,-4.4554,0.013229,0.027682,6.7417e-07,0.55,0.62,0
0.022767,-0.0049491,0.030126,-0.0010979,0.0087084,-0.0017602,0,0,0.055686,-0.025496,0,-0.0091529,0,0,0,0.030225,-0.0011968,0.0087084,-3.2163,0.012579,0.027824,6.5234e-07,0.56,0.62,0
0.023332,-0.0049345,0.030835,-0.0010007,0.0089502,-0.0010888,0,0,0.0569,-0.025872,0,-0.0056619,0,0,0,0.030872,-0.0010379,0.0089502,-1.9566,0.012928,0.028272,6.9119e-07,0.57,0.62,0
0.023905,-0.0048907,0.031376,-0.00023008,0.0093439,-0.00068096,0,0,0.057285,-0.024892,0,-0.003541,0,0,0,0.031391,-0.00024475,0.0093439,-1.2337,0.013497,0.028097,7.0803e-07,0.58,0.62,0
0.024478,-0.0048336,0.03165,5.7072e-05,0.0095123,-0.00036937,0,0,0.057559,-0.024584,0,-0.0019207,0,0,0,0.031655,5.2754e-05,0.0095123,-0.66975,0.01374,0.028093,7.1877e-07,0.59,0.62,0
0.025056,-0.0047731,0.032082,0.00047473,0.0097669,-0.00018695,0,0,0.058018,-0.02416,0,-0.00097216,0,0,0,0.032083,0.00047363,0.0097669,-0.33889,0.014108,0.028138,7.3761e-07,0.6,0.62,0
0.025638,-0.0047108,0.032388,0.00078742,0.0099526,-6.3483e-05,0,0,0.058332,-0.023829,0,-0.00033011,0,0,0,0.032388,0.0007873,0.0099526,-0.1151,0.014376,0.02816,7.5068e-07,0.61,0.62,0
0.026223,-0.0046504,0.032654,0.0010391,0.010108,-1.5246e-05,0,0,0.058619,-0.023579,0,-7.9278e-05,0,0,0,0.032654,0.0010391,0.010108,-0.02763,0.0146,0.028196,7.626e-07,0.62,0.62,0
0.026811,-0.0045937,0.032877,0.0012038,0.010224,-1.2906e-05,0,0,0.058896,-0.023453,0,-6.7113e-05,0,0,0,0.032877,0.0012038,0.010224,-0.023348,0.014768,0.028264,7.7389e-07,0.63,0.62,0
0.027401,-0.0045419,0.033077,0.0013007,0.010313,-4.1047e-05,0,0,0.059186,-0.023433,0,-0.00021344,0,0,0,0.033077,0.0013007,0.010313,-0.07401,0.014897,0.028365,7.856e-07,0.64,0.62,0
0.027994,-0.0044957,0.033259,0.0013395,0.01038,-8.6232e-05,0,0,0.059487,-0.023504,0,-0.0004484,0,0,0,0.03326,0.0013393,0.01038,-0.15478,0.014993,0.028497,7.9775e-07,0.65,0.62,0
0.028591,-0.0044554,0.033427,0.0013307,0.010427,-0.00014032,0,0,0.059799,-0.023651,0,-0.00072965,0,0,0,0.033427,0.0013301,0.010427,-0.25048,0.015062,0.028653,8.1035e-07,0.66,0.62,0
0.02919,-0.0044208,0.033581,0.0012821,0.010459,-0.00019686,0,0,0.060117,-0.02386,0,-0.0010237,0,0,0,0.033582,0.0012809,0.010459,-0.3492,0.015107,0.02883,8.233e-07,0.67,0.62,0
0.029793,-0.0043917,0.033724,0.0012018,0.010478,-0.00025089,0,0,0.06044,-0.024117,0,-0.0013046,0,0,0,0.033726,0.0011999,0.010478,-0.44197,0.015135,0.029021,8.3646e-07,0.68,0.62,0
0.030399,-0.0043678,0.033855,0.0010977,0.010486,-0.00029896,0,0,0.060761,-0.02441,0,-0.0015546,0,0,0,0.033858,0.001095,0.010486,-0.52284,0.015146,0.029222,8.4962e-07,0.69,0.62,0
0.031008,-0.0043485,0.033976,0.00097681,0.010486,-0.00033915,0,0,0.061075,-0.024724,0,-0.0017636,0,0,0,0.03398,0.00097333,0.010486,-0.58877,0.015146,0.029427,8.6253e-07,0.7,0.62,0
0.031621,-0.0043333,0.034086,0.00084508,0.010479,-0.00037071,0,0,0.061377,-0.025049,0,-0.0019277,0,0,0,0.03409,0.00084094,0.010479,-0.63887,0.015137,0.02963,8.7497e-07,0.71,0.62,0
0.032236,-0.0043218,0.034184,0.00070734,0.010467,-0.00039369,0,0,0.061663,-0.025376,0,-0.0020472,0,0,0,0.034189,0.00070272,0.010467,-0.67368,0.01512,0.029827,8.8678e-07,0.72,0.62,0
0.032854,-0.0043134,0.034271,0.00056742,0.010452,-0.00040864,0,0,0.061931,-0.025699,0,-0.0021249,0,0,0,0.034276,0.00056246,0.010452,-0.69454,0.015097,0.030017,8.9782e-07,0.73,0.62,0
0.033474,-0.0043077,0.034348,0.00042821,0.010433,-0.00041636,0,0,0.062179,-0.026012,0,-0.0021651,0,0,0,0.034353,0.0004231,0.010433,-0.70316,0.01507,0.030196,9.0802e-07,0.74,0.62,0
0.034097,-0.0043042,0.034414,0.00029192,0.010412,-0.00041778,0,0,0.062406,-0.026312,0,-0.0021724,0,0,0,0.034419,0.00028681,0.010412,-0.70136,0.015039,0.030364,9.1734e-07,0.75,0.62,0
0.034723,-0.0043026,0.034471,0.00016014,0.010389,-0.00041383,0,0,0.062613,-0.026596,0,-0.0021519,0,0,0,0.034476,0.00015515,0.010389,-0.69092,0.015007,0.030519,9.2576e-07,0.76,0.62,0
0.03535,-0.0043025,0.03452,3.4004e-05,0.010366,-0.00040544,0,0,0.062799,-0.026863,0,-0.0021083,0,0,0,0.034524,2.9238e-05,0.010366,-0.67349,0.014973,0.030662,9.3332e-07,0.77,0.62,0
0.035978,-0.0043037,0.03456,-8.5743e-05,0.010342,-0.00039343,0,0,0.062966,-0.027113,0,-0.0020459,0,0,0,0.034564,-9.021e-05,0.010342,-0.65054,0.014939,0.030794,9.4003e-07,0.78,0.62,0
0.036609,-0.0043058,0.034593,-0.00019863,0.010318,-0.00037858,0,0,0.063114,-0.027344,0,-0.0019686,0,0,0,0.034597,-0.00020275,0.010318,-0.62335,0.014904,0.030912,9.4595e-07,0.79,0.62,0
0.037241,-0.0043086,0.034619,-0.00030441,0.010294,-0.00036153,0,0,0.063245,-0.027557,0,-0.00188,0,0,0,0.034623,-0.00030815,0.010294,-0.59304,0.01487,0.03102,9.5113e-07,0.8,0.62,0
0.037874,-0.004312,0.03464,-0.000403,0.010271,-0.00034288,0,0,0.06336,-0.027753,0,-0.0017829,0,0,0,0.034644,-0.00040636,0.010271,-0.56053,0.014836,0.031117,9.5562e-07,0.81,0.62,0
0.038508,-0.0043158,0.034656,-0.00049445,0.010249,-0.00032311,0,0,0.06346,-0.027932,0,-0.0016801,0,0,0,0.034659,-0.00049742,0.010249,-0.5266,0.014803,0.031204,9.5949e-07,0.82,0.62,0
0.039143,-0.0043198,0.034668,-0.0005789,0.010227,-0.00030263,0,0,0.063547,-0.028094,0,-0.0015737,0,0,0,0.03467,-0.0005815,0.010227,-0.4919,0.014772,0.031281,9.6279e-07,0.83,0.62,0
0.039779,-0.004324,0.034676,-0.00065654,0.010206,-0.0002818,0,0,0.063622,-0.028242,0,-0.0014654,0,0,0,0.034678,-0.00065878,0.010206,-0.45694,0.014742,0.03135,9.6559e-07,0.84,0.62,0
0.040415,-0.0043282,0.03468,-0.00072762,0.010186,-0.00026089,0,0,0.063686,-0.028375,0,-0.0013566,0,0,0,0.034682,-0.00072954,0.010186,-0.42212,0.014713,0.03141,9.6795e-07,0.85,0.62,0
0.041053,-0.0043324,0.034682,-0.00079241,0.010167,-0.00024011,0,0,0.06374,-0.028494,0,-0.0012486,0,0,0,0.034684,-0.00079403,0.010167,-0.38779,0.014686,0.031464,9.699e-07,0.86,0.62,0
0.04169,-0.0043364,0.034682,-0.0008512,0.010149,-0.00021965,0,0,0.063786,-0.028601,0,-0.0011422,0,0,0,0.034684,-0.00085255,0.010149,-0.35416,0.01466,0.03151,9.7151e-07,0.87,0.62,0
0.042328,-0.0043403,0.034681,-0.00090427,0.010133,-0.00019963,0,0,0.063824,-0.028697,0,-0.0010381,0,0,0,0.034682,-0.00090539,0.010133,-0.32141,0.014637,0.031551,9.7282e-07,0.88,0.62,0
0.042967,-0.004344,0.034678,-0.00095191,0.010118,-0.00018013,0,0,0.063856,-0.028781,0,-0.00093669,0,0,0,0.034679,-0.00095282,0.010118,-0.28966,0.014615,0.031587,9.7387e-07,0.89,0.62,0
0.043605,-0.0043475,0.034674,-0.0009944,0.010104,-0.00016122,0,0,0.063883,-0.028856,0,-0.00083833,0,0,0,0.034675,-0.00099513,0.010104,-0.25896,0.014595,0.031617,9.7471e-07,0.9,0.62,0
0.044244,-0.0043506,0.03467,-0.001032,0.010091,-0.00014291,0,0,0.063904,-0.028921,0,-0.00074313,0,0,0,0.03467,-0.0010326,0.010091,-0.22934,0.014576,0.031643,9.7536e-07,0.91,0.62,0
0.044883,-0.0043535,0.034665,-0.001065,0.01008,-0.00012521,0,0,0.063921,-0.028977,0,-0.00065108,0,0,0,0.034666,-0.0010654,0.01008,-0.20078,0.01456,0.031665,9.7587e-07,0.92,0.62,0
0.045523,-0.0043561,0.034661,-0.0010935,0.01007,-0.0001081,0,0,0.063935,-0.029025,0,-0.00056209,0,0,0,0.034661,-0.0010938,0.01007,-0.17322,0.014546,0.031684,9.7625e-07,0.93,0.62,0
0.046162,-0.0043583,0.034656,-0.0011178,0.010061,-9.1531e-05,0,0,0.063946,-0.029066,0,-0.00047596,0,0,0,0.034656,-0.001118,0.010061,-0.1466,0.014533,0.031699,9.7653e-07,0.94,0.62,0
0.046802,-0.0043602,0.034652,-0.0011381,0.010054,-7.5464e-05,0,0,0.063954,-0.0291,0,-0.00039241,0,0,0,0.034652,-0.0011382,0.010054,-0.12081,0.014523,0.031712,9.7673e-07,0.95,0.62,0
0.047441,-0.0043618,0.034648,-0.0011545,0.010048,-5.9829e-05,0,0,0.063961,-0.029127,0,-0.00031111,0,0,0,0.034649,-0.0011546,0.010048,-0.095744,0.014514,0.031722,9.7688e-07,0.96,0.62,0
0.048081,-0.004363,0.034646,-0.0011671,0.010044,-4.455e-05,0,0,0.063965,-0.029148,0,-0.00023166,0,0,0,0.034646,-0.0011671,0.010044,-0.071274,0.014507,0.031729,9.7697e-07,0.97,0.62,0
0.048721,-0.0043639,0.034644,-0.001176,0.01004,-2.9545e-05,0,0,0.063968,-0.029162,0,-0.00015363,0,0,0,0.034644,-0.001176,0.01004,-0.047259,0.014503,0.031735,9.7704e-07,0.98,0.62,0
0.04936,-0.0043644,0.034642,-0.0011813,0.010038,-1.4726e-05,0,0,0.06397,-0.029171,0,-7.6573e-05,0,0,0,0.034642,-0.0011814,0.010038,-0.023552,0.0145,0.031738,9.7707e-07,0.99,0.62,0
0.05,-0.0043646,0.034642,-0.0011831,0.010038,-3.3774e-06,0,0,0.063971,-0.029174,0,-1.7562e-05,0,0,0,0.034642,-0.0011831,0.010038,-0.0054015,0.014499,0.031739,9.7708e-07,1,0.62,0
0,0,0.031009,0.01329,0.01329,-0.0018582,0,0,0.046071,-5.421e-20,0,-0.0096627,0,0,0,0.031202,0.013097,0.01329,-5.9226,0.019196,0.018009,2.9988e-07,0,0.63,0
0.00046071,-9.6627e-05,0.03098,0.012925,0.013171,-0.0018529,0,0,0.046301,-0.00063956,0,-0.0096349,0,0,0,0.031168,0.012737,0.013171,-5.7997,0.019026,0.018217,3.0991e-07,0.01,0.63,0
0.00092602,-0.0001885,0.0311,0.01261,0.013113,-0.0018063,0,0,0.046766,-0.0013072,0,-0.009393,0,0,0,0.031275,0.012436,0.013113,-5.5278,0.018941,0.01851,3.2424e-07,0.02,0.63,0
0.001396,-0.00027582,0.031219,0.012284,0.013051,-0.0017649,0,0,0.047237,-0.0019935,0,-0.0091772,0,0,0,0.031382,0.012121,0.013051,-5.2797,0.018852,0.018813,3.3919e-07,0.03,0.63,0
0.0018708,-0.00035867,0.031335,0.011951,0.012986,-0.0017264,0,0,0.047707,-0.0026907,0,-0.0089772,0,0,0,0.031487,0.011798,0.012986,-5.0499,0.018757,0.019123,3.5449e-07,0.04,0.63,0
0.0023502,-0.00043708,0.031444,0.011612,0.012917,-0.0016895,0,0,0.04817,-0.0033929,0,-0.0087854,0,0,0,0.031587,0.011469,0.012917,-4.8346,0.018657,0.019434,3.6995e-07,0.05,0.63,0
0.0028342,-0.00051097,0.031544,0.011269,0.012844,-0.0016532,0,0,0.048621,-0.0040952,0,-0.0085965,0,0,0,0.031678,0.011135,0.012844,-4.6309,0.018552,0.019744,3.8535e-07,0.06,0.63,0
0.0033226,-0.0005802,0.031634,0.010923,0.012767,-0.0016167,0,0,0.049054,-0.0047944,0,-0.0084066,0,0,0,0.03176,0.010798,0.012767,-4.4365,0.018442,0.02005,4.0052e-07,0.07,0.63,0
0.0038153,-0.0006446,0.031712,0.010575,0.012686,-0.0015795,0,0,0.049467,-0.0054889,0,-0.0082131,0,0,0,0.031829,0.010458,0.012686,-4.2499,0.018324,0.020349,4.1534e-07,0.08,0.63,0
0.0043119,-0.00070394,0.031776,0.010223,0.0126,-0.0015415,0,0,0.049858,-0.0061795,0,-0.0080158,0,0,0,0.031886,0.010113,0.0126,-4.0703,0.0182,0.020642,4.297e-07,0.09,0.63,0
0.0048124,-0.00075795,0.031824,0.0098643,0.012507,-0.0015035,0,0,0.050226,-0.0068697,0,-0.0078182,0,0,0,0.031927,0.0097619,0.012507,-3.8986,0.018065,0.020928,4.4358e-07,0.1,0.63,0
0.0053165,-0.00080639,0.031855,0.0094953,0.012405,-0.0014674,0,0,0.05057,-0.0075656,0,-0.0076304,0,0,0,0.031951,0.0093994,0.012405,-3.7387,0.017919,0.021209,4.5699e-07,0.11,0.63,0
0.0058238,-0.00084902,0.031866,0.0091106,0.012293,-0.0014367,0,0,0.05089,-0.0082742,0,-0.0074708,0,0,0,0.031956,0.0090202,0.012293,-3.5984,0.017757,0.021487,4.6994e-07,0.12,0.63,0
0.0063342,-0.00088574,0.031852,0.0087059,0.012167,-0.0014157,0,0,0.05118,-0.009,0,-0.0073617,0,0,0,0.031939,0.0086196,0.012167,-3.4871,0.017575,0.021763,4.8231e-07,0.13,0.63,0
0.0068474,-0.00091643,0.031814,0.0082784,0.012028,-0.0014091,0,0,0.051444,-0.0097479,0,-0.0073275,0,0,0,0.031898,0.0081944,0.012028,-3.4142,0.017373,0.022038,4.9413e-07,0.14,0.63,0
0.0073631,-0.00094126,0.031738,0.0078069,0.011864,-0.001421,0,0,0.051674,-0.010547,0,-0.007389,0,0,0,0.031822,0.0077228,0.011864,-3.3862,0.017136,0.022319,5.0541e-07,0.15,0.63,0
0.0078809,-0.00096043,0.031643,0.007293,0.011681,-0.0014767,0,0,0.051901,-0.011408,0,-0.0076787,0,0,0,0.031732,0.0072038,0.011681,-3.4578,0.016872,0.022624,5.1714e-07,0.16,0.63,0
0.0084011,-0.00097588,0.031425,0.0066481,0.011422,-0.0015784,0,0,0.052008,-0.012412,0,-0.0082076,0,0,0,0.031525,0.0065479,0.011422,-3.6304,0.016498,0.022932,5.263e-07,0.17,0.63,0
0.0089211,-0.00098813,0.031235,0.0060944,0.011199,-0.0018303,0,0,0.052094,-0.013271,0,-0.0095176,0,0,0,0.031367,0.0059619,0.011199,-4.1422,0.016176,0.023234,5.3549e-07,0.18,0.63,0
0.009443,-0.0010046,0.030328,0.0050702,0.01062,-0.0020143,0,0,0.051243,-0.014428,0,-0.010474,0,0,0,0.030488,0.0049106,0.01062,-4.5311,0.015339,0.023255,5.1699e-07,0.19,0.63,0
0.0099459,-0.0010144,0.030232,0.0048122,0.010513,-0.0027439,0,0,0.051268,-0.014823,0,-0.014268,0,0,0,0.030525,0.0045193,0.010513,-6.0913,0.015186,0.023587,5.3006e-07,0.2,0.63,0
0.010468,-0.0010483,0.031288,0.0056045,0.011068,-0.0020848,0,0,0.052572,-0.014204,0,-0.010841,0,0,0,0.031456,0.0054364,0.011068,-4.6108,0.015987,0.023711,5.5662e-07,0.21,0.63,0
0.010997,-0.0011185,0.036133,0.006196,0.012699,-0.0012133,0,0,0.042373,-0.011662,0,-0.0062247,0,0,0,0.036251,0.0060773,0.012699,-2.9207,0.018342,0.027469,9.7571e-07,0.22,0.63,0
0.011369,-0.0012179,0.029947,0.0044272,0.010312,-0.00010407,0,0,0.034803,-0.010335,0,-0.0017403,0,0,0,0.029995,0.0043796,0.010312,-0.94228,0.014896,0.023225,6.1642e-07,0.23,0.63,0
0.01167,-0.0013169,0.036581,0.0052655,0.012554,0.00061236,0,0,0.031235,-0.0094749,0,0.0015921,0,0,0,0.036593,0.0052535,0.012554,1.1198,0.018133,0.028402,9.1977e-07,0.24,0.63,0
0.011993,-0.0014179,0.03797,0.0054794,0.013035,0.0011299,0,0,0.032416,-0.009822,0,0.0029377,0,0,0,0.038009,0.0054402,0.013035,1.9893,0.018828,0.029514,1.0315e-06,0.25,0.63,0
0.012319,-0.0015425,0.038668,0.0052586,0.013178,0.0019831,0,0,0.033137,-0.010295,0,0.0051562,0,0,0,0.038785,0.0051413,0.013178,3.3852,0.019035,0.030432,1.1143e-06,0.26,0.63,0
0.012656,-0.0016747,0.038748,0.004893,0.013092,0.0018021,0,0,0.033353,-0.010659,0,0.0046855,0,0,0,0.038844,0.0047973,0.013092,3.0384,0.018911,0.03075,1.1351e-06,0.27,0.63,0
0.012986,-0.0017978,0.038081,0.0044581,0.012762,0.0019099,0,0,0.032915,-0.010795,0,0.0049658,0,0,0,0.038189,0.0043499,0.012762,3.2408,0.018433,0.030515,1.0941e-06,0.28,0.63,0
0.013314,-0.0019269,0.037772,0.0039796,0.012525,0.0018813,0,0,0.03282,-0.01111,0,0.0048914,0,0,0,0.037876,0.0038751,0.012525,3.1767,0.018092,0.030607,1.0857e-06,0.29,0.63,0
0.013642,-0.0020675,0.037822,0.0035665,0.012417,0.0018502,0,0,0.033027,-0.011505,0,0.0048105,0,0,0,0.037922,0.0034669,0.012417,3.0827,0.017935,0.030966,1.1065e-06,0.3,0.63,0
0.013975,-0.0022175,0.037318,0.0018119,0.011739,0.0018437,0,0,0.033252,-0.012905,0,0.0047936,0,0,0,0.037413,0.0017164,0.011739,2.9646,0.016956,0.031889,1.1278e-06,0.31,0.63,0
0.014307,-0.0023686,0.036896,0.00058624,0.011245,0.0024681,0,0,0.033347,-0.013856,0,0.0064171,0,0,0,0.037063,0.00041924,0.011245,3.8709,0.016242,0.032608,1.1416e-06,0.32,0.63,0
0.014642,-0.0025135,0.036547,0.00015713,0.011011,0.0027439,0,0,0.033196,-0.01411,0,0.0071342,0,0,0,0.036753,-4.8614e-05,0.011011,4.288,0.015905,0.032705,1.1286e-06,0.33,0.63,0
0.014971,-0.0026504,0.035652,-0.0010807,0.010371,0.0032484,0,0,0.032864,-0.014887,0,0.0084459,0,0,0,0.035937,-0.0013657,0.010371,5.0151,0.014981,0.033036,1.0948e-06,0.34,0.63,0
0.015299,-0.0027756,0.035224,-0.0011676,0.010217,0.0036391,0,0,0.032509,-0.0148,0,0.0094617,0,0,0,0.035584,-0.0015279,0.010217,5.6549,0.014758,0.032854,1.0679e-06,0.35,0.63,0
0.015621,-0.0028889,0.034687,-0.0011841,0.010051,0.0038355,0,0,0.032027,-0.014605,0,0.0099724,0,0,0,0.035092,-0.0015896,0.010051,6.0355,0.014518,0.032466,1.0264e-06,0.36,0.63,0
0.015939,-0.0029959,0.034327,-0.0012694,0.0099172,0.0038927,0,0,0.031732,-0.014542,0,0.010121,0,0,0,0.034747,-0.0016901,0.0099172,6.1686,0.014325,0.032241,9.9953e-07,0.37,0.63,0
0.016256,-0.0030999,0.034174,-0.0014131,0.0098282,0.003912,0,0,0.031649,-0.014614,0,0.010171,0,0,0,0.034599,-0.0018381,0.0098282,6.1997,0.014196,0.032228,9.9081e-07,0.38,0.63,0
0.016573,-0.003203,0.034197,-0.0016228,0.0097723,0.0039293,0,0,0.031752,-0.014814,0,0.010216,0,0,0,0.034623,-0.0020487,0.0097723,6.1871,0.014116,0.03242,9.9826e-07,0.39,0.63,0
0.016891,-0.0033074,0.034409,-0.0019017,0.0097522,0.0039419,0,0,0.032054,-0.01515,0,0.010249,0,0,0,0.034832,-0.0023247,0.0097522,6.125,0.014087,0.032829,1.0232e-06,0.4,0.63,0
0.017214,-0.0034155,0.034872,-0.0022485,0.009787,0.0039022,0,0,0.03261,-0.015646,0,0.010146,0,0,0,0.035277,-0.0026542,0.009787,5.9366,0.014137,0.033492,1.0706e-06,0.41,0.63,0
0.017543,-0.0035313,0.035578,-0.0026823,0.0098686,0.0036757,0,0,0.033422,-0.016316,0,0.0095567,0,0,0,0.035928,-0.0030323,0.0098686,5.4382,0.014255,0.034376,1.1394e-06,0.42,0.63,0
0.017882,-0.0036623,0.036168,-0.0030557,0.0099336,0.0031361,0,0,0.034104,-0.016886,0,0.0081537,0,0,0,0.036417,-0.0033049,0.0099336,4.5426,0.014349,0.035032,1.1926e-06,0.43,0.63,0
0.018225,-0.0038107,0.03697,-0.0020722,0.010469,0.0024158,0,0,0.03445,-0.016304,0,0.006281,0,0,0,0.037118,-0.0022211,0.010469,3.5273,0.015122,0.034777,1.2308e-06,0.44,0.63,0
0.018571,-0.0039677,0.037598,-0.00086733,0.011019,0.0020958,0,0,0.034552,-0.015452,0,0.0054492,0,0,0,0.037712,-0.00098119,0.011019,3.1096,0.015917,0.034305,1.2506e-06,0.45,0.63,0
0.018916,-0.0041223,0.037929,-0.00027064,0.011298,0.0018143,0,0,0.034621,-0.015039,0,0.0047172,0,0,0,0.038015,-0.00035662,0.011298,2.7131,0.016319,0.034074,1.2596e-06,0.46,0.63,0
0.019263,-0.0042697,0.038265,0.00037163,0.011591,0.0016536,0,0,0.034676,-0.014585,0,0.0042993,0,0,0,0.038337,0.00029961,0.011591,2.4939,0.016742,0.033835,1.2683e-06,0.47,0.63,0
0.01961,-0.0044096,0.038344,0.00077714,0.011737,0.0015878,0,0,0.03459,-0.014247,0,0.0041282,0,0,0,0.038411,0.00071015,0.011737,2.4158,0.016953,0.033575,1.2606e-06,0.48,0.63,0
0.019955,-0.0045408,0.038516,0.0010604,0.011873,0.0016489,0,0,0.034636,-0.014056,0,0.0042871,0,0,0,0.038588,0.00098793,0.011873,2.5158,0.01715,0.033511,1.2677e-06,0.49,0.63,0
0.020303,-0.0046657,0.039139,0.001125,0.012079,0.001628,0,0,0.035178,-0.014241,0,0.0042327,0,0,0,0.039209,0.0010554,0.012079,2.4477,0.017448,0.034009,1.3278e-06,0.5,0.63,0
0.020659,-0.0047997,0.039068,0.0012609,0.012099,0.0018881,0,0,0.035061,-0.014089,0,0.004909,0,0,0,0.039163,0.0011669,0.012099,2.8519,0.017476,0.033879,1.3187e-06,0.51,0.63,0
0.021004,-0.004924,0.038378,0.0013211,0.01191,0.0011743,0,0,0.034409,-0.013765,0,0.0030532,0,0,0,0.038415,0.0012839,0.01191,1.8132,0.017203,0.033122,1.2393e-06,0.52,0.63,0
0.021347,-0.0050173,0.036992,0.00050916,0.01125,0.00069468,0,0,0.033464,-0.013964,0,0.0018062,0,0,0,0.037005,0.00049593,0.01125,1.0905,0.016251,0.032495,1.1336e-06,0.53,0.63,0
0.021673,-0.0051101,0.030311,-0.00025086,0.009018,-6.9985e-06,0,0,0.037768,-0.016394,0,-0.0014673,0,0,0,0.030354,-0.00029433,0.009018,-0.62426,0.013026,0.027215,7.815e-07,0.54,0.63,0
0.022076,-0.0051924,0.036563,0.00024465,0.011042,-0.00080394,0,0,0.04618,-0.019488,0,-0.0047415,0,0,0,0.036638,0.00016966,0.011042,-1.7645,0.01595,0.032429,1.2616e-06,0.55,0.63,0
0.022655,-0.0052153,0.03188,-1.6671e-05,0.009559,-0.0016209,0,0,0.058035,-0.024897,0,-0.0084285,0,0,0,0.031962,-9.8825e-05,0.009559,-2.9016,0.013808,0.028488,7.4369e-07,0.56,0.63,0
0.023237,-0.0052001,0.030899,-0.0013963,0.0088508,-0.0021772,0,0,0.057325,-0.026642,0,-0.011321,0,0,0,0.031045,-0.0015424,0.0088508,-3.8394,0.012785,0.028832,7.1355e-07,0.57,0.63,0
0.023801,-0.0051413,0.031135,-0.0010684,0.0090199,-0.0011698,0,0,0.057499,-0.02623,0,-0.0060829,0,0,0,0.031177,-0.0011108,0.0090199,-2.0776,0.013029,0.028601,7.1327e-07,0.58,0.63,0
0.024387,-0.0050834,0.032143,-0.00019957,0.009583,-0.00083759,0,0,0.058656,-0.025435,0,-0.0043555,0,0,0,0.032165,-0.00022124,0.009583,-1.4825,0.013842,0.028765,7.6094e-07,0.59,0.63,0
0.024975,-0.0050171,0.032461,0.00023461,0.0098088,-0.00048337,0,0,0.058897,-0.024893,0,-0.0025135,0,0,0,0.032469,0.00022736,0.0098088,-0.85912,0.014168,0.028677,7.7116e-07,0.6,0.63,0
0.025565,-0.004951,0.032776,0.0007068,0.010045,-0.00031329,0,0,0.059102,-0.024279,0,-0.0016291,0,0,0,0.032779,0.00070374,0.010045,-0.55966,0.014509,0.028574,7.8076e-07,0.61,0.63,0
0.026157,-0.0048873,0.03298,0.0010091,0.010197,-0.00022604,0,0,0.059236,-0.023888,0,-0.0011754,0,0,0,0.032981,0.0010075,0.010197,-0.40508,0.014728,0.028512,7.8694e-07,0.62,0.63,0
0.02675,-0.0048289,0.03317,0.0012154,0.010316,-0.00020413,0,0,0.059421,-0.02366,0,-0.0010615,0,0,0,0.033171,0.0012141,0.010316,-0.366,0.0149,0.028517,7.949e-07,0.63,0.63,0
0.027345,-0.0047767,0.033338,0.0013332,0.010401,-0.00021425,0,0,0.059636,-0.023577,0,-0.0011141,0,0,0,0.03334,0.0013318,0.010401,-0.38353,0.015024,0.028574,8.0384e-07,0.64,0.63,0
0.027943,-0.004731,0.033495,0.0013872,0.010465,-0.0002455,0,0,0.059879,-0.023602,0,-0.0012766,0,0,0,0.033497,0.0013853,0.010465,-0.43805,0.015116,0.028671,8.1388e-07,0.65,0.63,0
0.028543,-0.0046921,0.03364,0.0013851,0.010508,-0.00028893,0,0,0.060145,-0.023718,0,-0.0015025,0,0,0,0.033643,0.0013825,0.010508,-0.51319,0.015178,0.028803,8.2482e-07,0.66,0.63,0
0.029146,-0.0046595,0.033776,0.0013357,0.010533,-0.00033635,0,0,0.06043,-0.023914,0,-0.001749,0,0,0,0.033779,0.0013323,0.010533,-0.59397,0.015215,0.028964,8.3659e-07,0.67,0.63,0
0.029751,-0.004633,0.033904,0.0012498,0.010546,-0.00038117,0,0,0.06073,-0.02417,0,-0.0019821,0,0,0,0.033909,0.0012454,0.010546,-0.66869,0.015233,0.029148,8.4896e-07,0.68,0.63,0
0.03036,-0.004612,0.034023,0.0011376,0.010548,-0.00041933,0,0,0.061035,-0.024468,0,-0.0021805,0,0,0,0.034029,0.0011322,0.010548,-0.73042,0.015237,0.029344,8.6158e-07,0.69,0.63,0
0.030972,-0.0045959,0.034134,0.0010076,0.010542,-0.00044892,0,0,0.061337,-0.02479,0,-0.0023344,0,0,0,0.03414,0.0010015,0.010542,-0.77628,0.015228,0.029547,8.7406e-07,0.7,0.63,0
0.031587,-0.0045841,0.034233,0.00086682,0.01053,-0.00046951,0,0,0.061629,-0.025125,0,-0.0024414,0,0,0,0.03424,0.00086021,0.01053,-0.80601,0.01521,0.029748,8.8613e-07,0.71,0.63,0
0.032204,-0.0045759,0.034323,0.00072067,0.010513,-0.00048147,0,0,0.061905,-0.02546,0,-0.0025037,0,0,0,0.034329,0.00071377,0.010513,-0.82075,0.015185,0.029944,8.9754e-07,0.72,0.63,0
0.032825,-0.0045708,0.034401,0.00057322,0.010492,-0.00048564,0,0,0.062163,-0.02579,0,-0.0025253,0,0,0,0.034408,0.00056625,0.010492,-0.82232,0.015156,0.030131,9.0818e-07,0.73,0.63,0
0.033448,-0.0045682,0.034469,0.00042751,0.010469,-0.00048305,0,0,0.0624,-0.026108,0,-0.0025118,0,0,0,0.034476,0.00042065,0.010469,-0.8128,0.015122,0.030307,9.1794e-07,0.74,0.63,0
0.034073,-0.0045678,0.034528,0.00028574,0.010444,-0.00047477,0,0,0.062617,-0.026411,0,-0.0024688,0,0,0,0.034534,0.00027916,0.010444,-0.79421,0.015086,0.030472,9.2678e-07,0.75,0.63,0
0.0347,-0.004569,0.034577,0.00014946,0.010418,-0.00046184,0,0,0.062813,-0.026698,0,-0.0024016,0,0,0,0.034583,0.00014327,0.010418,-0.76844,0.015048,0.030623,9.3472e-07,0.76,0.63,0
0.035329,-0.0045716,0.034617,1.9724e-05,0.010391,-0.00044524,0,0,0.062988,-0.026965,0,-0.0023152,0,0,0,0.034623,1.3995e-05,0.010391,-0.73718,0.015009,0.030762,9.4177e-07,0.77,0.63,0
0.03596,-0.0045753,0.03465,-0.00010282,0.010364,-0.00042581,0,0,0.063143,-0.027214,0,-0.0022142,0,0,0,0.034655,-0.00010804,0.010364,-0.70188,0.01497,0.030888,9.4797e-07,0.78,0.63,0
0.036592,-0.0045797,0.034676,-0.0002178,0.010337,-0.00040432,0,0,0.06328,-0.027443,0,-0.0021025,0,0,0,0.034681,-0.00022248,0.010337,-0.66378,0.014932,0.031002,9.5337e-07,0.79,0.63,0
0.037226,-0.0045846,0.034696,-0.00032506,0.010311,-0.00038141,0,0,0.0634,-0.027654,0,-0.0019833,0,0,0,0.0347,-0.00032922,0.010311,-0.6239,0.014894,0.031105,9.5804e-07,0.8,0.63,0
0.03786,-0.00459,0.03471,-0.00042463,0.010286,-0.00035762,0,0,0.063504,-0.027847,0,-0.0018596,0,0,0,0.034714,-0.00042827,0.010286,-0.5831,0.014857,0.031197,9.6203e-07,0.81,0.63,0
0.038496,-0.0045956,0.03472,-0.00051663,0.010261,-0.0003334,0,0,0.063593,-0.028022,0,-0.0017337,0,0,0,0.034723,-0.00051978,0.010261,-0.54206,0.014821,0.031278,9.6542e-07,0.82,0.63,0
0.039132,-0.0046012,0.034726,-0.00060127,0.010237,-0.00030913,0,0,0.06367,-0.028181,0,-0.0016075,0,0,0,0.034729,-0.00060397,0.010237,-0.50132,0.014787,0.031351,9.6826e-07,0.83,0.63,0
0.039769,-0.0046068,0.034728,-0.00067882,0.010215,-0.00028511,0,0,0.063735,-0.028324,0,-0.0014826,0,0,0,0.034731,-0.00068111,0.010215,-0.46132,0.014755,0.031414,9.7062e-07,0.84,0.63,0
0.040407,-0.0046124,0.034728,-0.00074958,0.010194,-0.00026156,0,0,0.06379,-0.028452,0,-0.0013601,0,0,0,0.03473,-0.00075151,0.010194,-0.42238,0.014724,0.03147,9.7255e-07,0.85,0.63,0
0.041045,-0.0046177,0.034726,-0.00081389,0.010174,-0.00023866,0,0,0.063836,-0.028567,0,-0.001241,0,0,0,0.034727,-0.00081549,0.010174,-0.38473,0.014695,0.031519,9.7411e-07,0.86,0.63,0
0.041683,-0.0046228,0.034722,-0.00087207,0.010155,-0.00021653,0,0,0.063873,-0.02867,0,-0.001126,0,0,0,0.034723,-0.00087339,0.010155,-0.34854,0.014668,0.031562,9.7535e-07,0.87,0.63,0
0.042322,-0.0046276,0.034716,-0.00092445,0.010138,-0.00019526,0,0,0.063904,-0.028761,0,-0.0010154,0,0,0,0.034717,-0.00092552,0.010138,-0.31389,0.014643,0.031599,9.7632e-07,0.88,0.63,0
0.042961,-0.0046321,0.03471,-0.00097136,0.010122,-0.0001749,0,0,0.063929,-0.028841,0,-0.00090947,0,0,0,0.03471,-0.00097221,0.010122,-0.28084,0.01462,0.03163,9.7705e-07,0.89,0.63,0
0.043601,-0.0046363,0.034703,-0.0010131,0.010107,-0.00015545,0,0,0.063949,-0.028912,0,-0.00080835,0,0,0,0.034703,-0.0010138,0.010107,-0.24937,0.014599,0.031657,9.7761e-07,0.9,0.63,0
0.04424,-0.0046401,0.034695,-0.0010499,0.010094,-0.00013691,0,0,0.063965,-0.028973,0,-0.00071195,0,0,0,0.034696,-0.0010505,0.010094,-0.21945,0.01458,0.03168,9.78e-07,0.91,0.63,0
0.04488,-0.0046435,0.034688,-0.0010822,0.010082,-0.00011925,0,0,0.063977,-0.029027,0,-0.00062007,0,0,0,0.034689,-0.0010826,0.010082,-0.191,0.014563,0.0317,9.7827e-07,0.92,0.63,0
0.04552,-0.0046466,0.034681,-0.00111,0.010072,-0.00010239,0,0,0.063986,-0.029072,0,-0.00053245,0,0,0,0.034682,-0.0011103,0.010072,-0.16391,0.014548,0.031716,9.7845e-07,0.93,0.63,0
0.04616,-0.0046492,0.034675,-0.0011337,0.010062,-8.629e-05,0,0,0.063993,-0.02911,0,-0.00044871,0,0,0,0.034675,-0.0011339,0.010062,-0.13807,0.014535,0.031729,9.7856e-07,0.94,0.63,0
0.0468,-0.0046514,0.034669,-0.0011535,0.010055,-7.0849e-05,0,0,0.063998,-0.029142,0,-0.00036842,0,0,0,0.03467,-0.0011536,0.010055,-0.11332,0.014524,0.03174,9.7861e-07,0.95,0.63,0
0.04744,-0.0046532,0.034665,-0.0011694,0.010049,-5.5976e-05,0,0,0.064002,-0.029167,0,-0.00029108,0,0,0,0.034665,-0.0011695,0.010049,-0.089501,0.014515,0.031748,9.7863e-07,0.96,0.63,0
0.04808,-0.0046547,0.034661,-0.0011816,0.010044,-4.1567e-05,0,0,0.064004,-0.029186,0,-0.00021615,0,0,0,0.034661,-0.0011817,0.010044,-0.066447,0.014508,0.031754,9.7864e-07,0.97,0.63,0
0.04872,-0.0046557,0.034658,-0.0011903,0.01004,-2.7512e-05,0,0,0.064006,-0.0292,0,-0.00014306,0,0,0,0.034658,-0.0011903,0.01004,-0.043972,0.014503,0.031759,9.7863e-07,0.98,0.63,0
0.04936,-0.0046563,0.034656,-0.0011955,0.010038,-1.3696e-05,0,0,0.064007,-0.029208,0,-7.122e-05,0,0,0,0.034656,-0.0011955,0.010038,-0.021888,0.0145,0.031761,9.7863e-07,0.99,0.63,0
0.05,-0.0046565,0.034656,-0.0011972,0.010038,-3.9138e-06,0,0,0.064007,-0.02921,0,-2.0352e-05,0,0,0,0.034656,-0.0011972,0.010038,-0.0062546,0.014499,0.031762,9.7863e-07,1,0.63,0
0,0,0.030874,0.013232,0.013232,-0.0019792,0,0,0.04587,0,0,-0.010292,0,0,0,0.031093,0.013012,0.013232,-6.3231,0.019113,0.017972,2.98e-07,0,0.64,0
0.0004587,-0.00010292,0.030846,0.012877,0.013117,-0.0019729,0,0,0.046095,-0.00062335,0,-0.010259,0,0,0,0.03106,0.012663,0.013117,-6.1928,0.018946,0.018174,3.0765e-07,0.01,0.64,0
0.0009219,-0.0002014,0.030963,0.012566,0.013059,-0.0019263,0,0,0.04655,-0.0012803,0,-0.010017,0,0,0,0.031162,0.012367,0.013059,-5.9141,0.018863,0.018459,3.2151e-07,0.02,0.64,0
0.0013897,-0.00029553,0.031078,0.012243,0.012996,-0.0018819,0,0,0.047013,-0.0019594,0,-0.0097858,0,0,0,0.031264,0.012056,0.012996,-5.6501,0.018772,0.018756,3.36e-07,0.03,0.64,0
0.0018622,-0.00038532,0.031189,0.01191,0.01293,-0.0018379,0,0,0.047475,-0.0026519,0,-0.0095573,0,0,0,0.031363,0.011736,0.01293,-5.3973,0.018676,0.019058,3.5082e-07,0.04,0.64,0
0.0023392,-0.00047071,0.031294,0.01157,0.012859,-0.0017932,0,0,0.047929,-0.0033507,0,-0.0093248,0,0,0,0.031455,0.011409,0.012859,-5.1531,0.018574,0.019362,3.6576e-07,0.05,0.64,0
0.0028207,-0.00055159,0.031388,0.011227,0.012785,-0.0017469,0,0,0.04837,-0.0040503,0,-0.0090836,0,0,0,0.031538,0.011076,0.012785,-4.9154,0.018467,0.019664,3.8058e-07,0.06,0.64,0
0.0033066,-0.00062779,0.031471,0.01088,0.012705,-0.0016982,0,0,0.048792,-0.0047469,0,-0.0088306,0,0,0,0.03161,0.01074,0.012705,-4.683,0.018352,0.01996,3.9511e-07,0.07,0.64,0
0.0037966,-0.0006991,0.03154,0.010529,0.012621,-0.0016469,0,0,0.049191,-0.0054381,0,-0.008564,0,0,0,0.031669,0.010401,0.012621,-4.4548,0.01823,0.020249,4.092e-07,0.08,0.64,0
0.0042904,-0.0007653,0.031594,0.010175,0.012531,-0.0015932,0,0,0.049564,-0.0061237,0,-0.0082845,0,0,0,0.031711,0.010058,0.012531,-4.2309,0.0181,0.020529,4.2271e-07,0.09,0.64,0
0.0047878,-0.00082616,0.031629,0.0098161,0.012434,-0.0015377,0,0,0.049908,-0.0068052,0,-0.0079961,0,0,0,0.031737,0.0097082,0.012434,-4.0127,0.017959,0.0208,4.3556e-07,0.1,0.64,0
0.0052886,-0.00088144,0.031643,0.0094487,0.012328,-0.0014821,0,0,0.050221,-0.0074854,0,-0.0077069,0,0,0,0.031742,0.0093501,0.012328,-3.8035,0.017807,0.021062,4.4768e-07,0.11,0.64,0
0.0057923,-0.000931,0.031635,0.0090697,0.012211,-0.0014288,0,0,0.0505,-0.008168,0,-0.0074298,0,0,0,0.031725,0.0089796,0.012211,-3.6088,0.017639,0.021314,4.5898e-07,0.12,0.64,0
0.0062986,-0.00097472,0.031599,0.0086757,0.012082,-0.001381,0,0,0.050743,-0.0088576,0,-0.0071813,0,0,0,0.031682,0.0085928,0.012082,-3.4352,0.017452,0.021557,4.694e-07,0.13,0.64,0
0.0068071,-0.0010127,0.031532,0.0082594,0.011938,-0.0013427,0,0,0.050946,-0.009563,0,-0.006982,0,0,0,0.031609,0.0081822,0.011938,-3.291,0.017243,0.021794,4.7886e-07,0.14,0.64,0
0.0073175,-0.001045,0.031432,0.007815,0.011774,-0.0013221,0,0,0.05111,-0.010294,0,-0.0068748,0,0,0,0.031506,0.0077412,0.011774,-3.1941,0.017007,0.022027,4.8743e-07,0.15,0.64,0
0.0078293,-0.0010725,0.031277,0.0073222,0.01158,-0.0013274,0,0,0.051214,-0.01107,0,-0.0069026,0,0,0,0.031351,0.0072489,0.01158,-3.162,0.016726,0.022255,4.946e-07,0.16,0.64,0
0.0083418,-0.001096,0.03108,0.0068068,0.011366,-0.0013827,0,0,0.051256,-0.011854,0,-0.0071899,0,0,0,0.031158,0.0067283,0.011366,-3.2498,0.016417,0.022473,5.0025e-07,0.17,0.64,0
0.0088544,-0.0011179,0.030746,0.0062059,0.011086,-0.0014655,0,0,0.051118,-0.012687,0,-0.0076203,0,0,0,0.030834,0.0061187,0.011086,-3.4053,0.016013,0.022644,5.0094e-07,0.18,0.64,0
0.0093641,-0.0011385,0.030555,0.0057624,0.010895,-0.0016362,0,0,0.051115,-0.013345,0,-0.0085084,0,0,0,0.030662,0.0056548,0.010895,-3.7596,0.015737,0.022843,5.0523e-07,0.19,0.64,0
0.0098768,-0.0011643,0.030182,0.0049054,0.010526,-0.0018418,0,0,0.051105,-0.014614,0,-0.0095771,0,0,0,0.030315,0.0047719,0.010526,-4.1456,0.015204,0.023208,5.1137e-07,0.2,0.64,0
0.010386,-0.0012094,0.029549,0.0043726,0.010177,-0.0022792,0,0,0.050369,-0.01509,0,-0.011852,0,0,0,0.029754,0.0041679,0.010177,-5.1313,0.0147,0.023174,4.9721e-07,0.21,0.64,0
0.010884,-0.0012585,0.030282,0.0050893,0.010611,-0.002846,0,0,0.051144,-0.014358,0,-0.014799,0,0,0,0.0306,0.0047718,0.010611,-6.3656,0.015328,0.02346,5.2717e-07,0.22,0.64,0
0.011409,-0.0013253,0.034295,0.0054222,0.011915,-0.0024142,0,0,0.04075,-0.011513,0,-0.0099775,0,0,0,0.034527,0.0051903,0.011915,-5.1373,0.017211,0.02662,8.4912e-07,0.23,0.64,0
0.011758,-0.0014174,0.031766,0.0051089,0.011062,-0.0013553,0,0,0.035886,-0.01045,0,-0.0063993,0,0,0,0.031903,0.0049712,0.011062,-3.8613,0.015979,0.024463,7.8475e-07,0.24,0.64,0
0.012127,-0.0015262,0.033822,0.0054512,0.011782,-0.00018423,0,0,0.038202,-0.011044,0,-0.001818,0,0,0,0.033855,0.0054176,0.011782,-1.0429,0.017018,0.02585,9.4251e-07,0.25,0.64,0
0.012522,-0.0016504,0.031544,0.0047101,0.010876,0.0010661,0,0,0.036745,-0.010668,0,0.0029632,0,0,0,0.031601,0.0046525,0.010876,1.865,0.01571,0.024442,7.1592e-07,0.26,0.64,0
0.012834,-0.00178,0.037026,0.0043186,0.012403,0.0012308,0,0,0.032009,-0.01051,0,0.0032001,0,0,0,0.037072,0.0042723,0.012403,2.1521,0.017916,0.029584,9.9894e-07,0.27,0.64,0
0.013162,-0.0019068,0.038417,0.0040674,0.012745,0.0014582,0,0,0.033373,-0.011281,0,0.0037915,0,0,0,0.038479,0.0040056,0.012745,2.4266,0.01841,0.03104,1.1354e-06,0.28,0.64,0
0.013502,-0.0020403,0.039031,0.0035794,0.012783,0.0018228,0,0,0.034123,-0.011965,0,0.0047393,0,0,0,0.039125,0.003486,0.012783,2.9356,0.018465,0.032019,1.2191e-06,0.29,0.64,0
0.013845,-0.0021824,0.038494,0.0028794,0.012412,0.00212,0,0,0.033906,-0.012392,0,0.0055121,0,0,0,0.03862,0.0027536,0.012412,3.3947,0.017928,0.032144,1.2009e-06,0.3,0.64,0
0.01418,-0.0023507,0.038859,0.0021971,0.012317,0.0029268,0,0,0.034505,-0.013156,0,0.0076097,0,0,0,0.039091,0.0019649,0.012317,4.5358,0.017791,0.033184,1.2795e-06,0.31,0.64,0
0.014535,-0.0025114,0.037313,-0.00052531,0.011036,0.0025756,0,0,0.03416,-0.01503,0,0.0066965,0,0,0,0.037488,-0.00069982,0.011036,3.8761,0.015942,0.03388,1.2195e-06,0.32,0.64,0
0.014863,-0.0026549,0.036259,-0.00040905,0.010755,0.0041565,0,0,0.033155,-0.014513,0,0.010807,0,0,0,0.036724,-0.0008743,0.010755,6.3868,0.015535,0.033341,1.1524e-06,0.33,0.64,0
0.015198,-0.0028025,0.035621,-0.0012202,0.01032,0.004095,0,0,0.032891,-0.015003,0,0.010647,0,0,0,0.036071,-0.0016698,0.01032,6.2666,0.014907,0.033401,1.1158e-06,0.34,0.64,0
0.015521,-0.0029238,0.034593,-0.0010836,0.010053,0.0042454,0,0,0.031903,-0.014478,0,0.011038,0,0,0,0.035092,-0.0015818,0.010053,6.6934,0.014521,0.03246,1.0262e-06,0.35,0.64,0
0.015836,-0.0030344,0.034029,-0.0011335,0.0098686,0.0041267,0,0,0.031408,-0.014303,0,0.010729,0,0,0,0.034507,-0.0016113,0.0098686,6.6048,0.014255,0.031963,9.7716e-07,0.36,0.64,0
0.016149,-0.0031409,0.033916,-0.00122,0.0098087,0.0039774,0,0,0.031339,-0.014337,0,0.010341,0,0,0,0.03436,-0.0016646,0.0098087,6.3784,0.014168,0.031876,9.6633e-07,0.37,0.64,0
0.016463,-0.003246,0.034012,-0.0013737,0.0097915,0.0038515,0,0,0.031487,-0.014515,0,0.010014,0,0,0,0.034427,-0.0017881,0.0097915,6.1404,0.014143,0.032035,9.7504e-07,0.38,0.64,0
0.016779,-0.0033516,0.034254,-0.0015879,0.0097997,0.0037351,0,0,0.03179,-0.014804,0,0.0097112,0,0,0,0.034639,-0.001973,0.0097997,5.8866,0.014155,0.032373,9.9766e-07,0.39,0.64,0
0.017098,-0.0034598,0.034629,-0.0018511,0.0098334,0.003592,0,0,0.032234,-0.01519,0,0.0093391,0,0,0,0.034979,-0.0022014,0.0098334,5.5703,0.014204,0.03286,1.0328e-06,0.4,0.64,0
0.017423,-0.0035729,0.035122,-0.0021422,0.0098941,0.0033593,0,0,0.032797,-0.015647,0,0.0087343,0,0,0,0.035423,-0.0024426,0.0098941,5.1102,0.014291,0.033449,1.0782e-06,0.41,0.64,0
0.017754,-0.0036943,0.03564,-0.0023834,0.009977,0.0029674,0,0,0.033362,-0.016068,0,0.0077151,0,0,0,0.03587,-0.0026136,0.009977,4.4356,0.014411,0.033985,1.1232e-06,0.42,0.64,0
0.01809,-0.003827,0.036144,-0.0022508,0.010168,0.0024199,0,0,0.033768,-0.016144,0,0.0062918,0,0,0,0.036296,-0.0024027,0.010168,3.5923,0.014687,0.034192,1.1571e-06,0.43,0.64,0
0.01843,-0.0039706,0.036591,-0.0015849,0.010502,0.001924,0,0,0.033916,-0.015713,0,0.0050023,0,0,0,0.036688,-0.0016816,0.010502,2.8778,0.01517,0.033959,1.1735e-06,0.44,0.64,0
0.018769,-0.0041201,0.036954,-0.00070726,0.010874,0.0016094,0,0,0.033904,-0.015056,0,0.0041844,0,0,0,0.037023,-0.00077591,0.010874,2.4425,0.015707,0.033528,1.1774e-06,0.45,0.64,0
0.019108,-0.0042689,0.037235,-8.2057e-07,0.01117,0.0015015,0,0,0.033884,-0.014523,0,0.0039039,0,0,0,0.037296,-6.1268e-05,0.01117,2.3054,0.016135,0.033198,1.1798e-06,0.46,0.64,0
0.019447,-0.0044129,0.037473,0.00047303,0.011384,0.0014736,0,0,0.033916,-0.014184,0,0.0038313,0,0,0,0.037532,0.00041443,0.011384,2.2771,0.016443,0.033029,1.1858e-06,0.47,0.64,0
0.019786,-0.0045503,0.037743,0.00080642,0.011565,0.0015011,0,0,0.034032,-0.013986,0,0.0039028,0,0,0,0.037804,0.00074552,0.011565,2.3233,0.016705,0.033007,1.2001e-06,0.48,0.64,0
0.020127,-0.0046814,0.038036,0.00093462,0.011691,0.0015016,0,0,0.034249,-0.013984,0,0.0039043,0,0,0,0.038097,0.00087395,0.011691,2.3139,0.016887,0.033165,1.2236e-06,0.49,0.64,0
0.020471,-0.0048098,0.038044,0.00081469,0.011658,0.0014073,0,0,0.034302,-0.014096,0,0.0036589,0,0,0,0.038097,0.00076157,0.011658,2.1616,0.016839,0.033254,1.2278e-06,0.5,0.64,0
0.020813,-0.0049359,0.0381,0.0014929,0.011878,0.0012835,0,0,0.034089,-0.0135,0,0.0033371,0,0,0,0.038145,0.001448,0.011878,2.0056,0.017157,0.032752,1.2068e-06,0.51,0.64,0
0.021153,-0.0050519,0.03815,0.0020627,0.012064,0.0016339,0,0,0.033912,-0.013001,0,0.004248,0,0,0,0.038223,0.0019888,0.012064,2.5871,0.017425,0.032394,1.1935e-06,0.52,0.64,0
0.021492,-0.0051522,0.038205,0.0013278,0.01186,0.0018523,0,0,0.034249,-0.013692,0,0.004816,0,0,0,0.038298,0.001235,0.01186,2.8683,0.017131,0.033057,1.2297e-06,0.53,0.64,0
0.021838,-0.0052544,0.037449,0.0003957,0.011354,0.0020353,0,0,0.033925,-0.014245,0,0.0052917,0,0,0,0.037561,0.00028424,0.011354,3.1345,0.0164,0.033158,1.1931e-06,0.54,0.64,0
0.02217,-0.0053641,0.032494,0.0008154,0.0099929,0.0010219,0,0,0.04016,-0.016224,0,0.0029186,0,0,0,0.032537,0.00077216,0.0099929,1.5634,0.014434,0.028305,9.0983e-07,0.55,0.64,0
0.022606,-0.0054471,0.035768,0.00060262,0.010911,-0.00041035,0,0,0.043085,-0.019196,0,-0.0035752,0,0,0,0.035855,0.0005163,0.010911,-1.4446,0.015761,0.031492,1.3626e-06,0.56,0.64,0
0.023032,-0.0054674,0.038411,-0.0011392,0.011182,-0.0015329,0,0,0.049527,-0.022123,0,-0.0067467,0,0,0,0.038492,-0.0012205,0.011182,-2.5047,0.016151,0.035192,1.4923e-06,0.57,0.64,0
0.023667,-0.0054153,0.033462,-0.0010688,0.009718,-0.0019784,0,0,0.061735,-0.028046,0,-0.010288,0,0,0,0.033575,-0.0011817,0.009718,-3.2685,0.014037,0.03079,8.9046e-07,0.58,0.64,0
0.024266,-0.0053423,0.032786,-0.00086843,0.0095753,-0.0010556,0,0,0.060348,-0.027154,0,-0.0054893,0,0,0,0.032819,-0.00090151,0.0095753,-1.7949,0.013831,0.029892,8.2544e-07,0.59,0.64,0
0.024874,-0.0052709,0.033255,7.2015e-05,0.0099982,-0.00073005,0,0,0.060469,-0.025808,0,-0.0037963,0,0,0,0.033272,5.5961e-05,0.0099982,-1.2597,0.014442,0.029528,8.346e-07,0.6,0.64,0
0.025476,-0.0051964,0.033312,0.0005695,0.010164,-0.0004731,0,0,0.060184,-0.024947,0,-0.0024601,0,0,0,0.033319,0.00056267,0.010164,-0.82765,0.014682,0.029166,8.2423e-07,0.61,0.64,0
0.026077,-0.0051281,0.033466,0.00098111,0.010334,-0.00038888,0,0,0.060143,-0.024318,0,-0.0020222,0,0,0,0.033471,0.00097645,0.010334,-0.68576,0.014927,0.028972,8.2385e-07,0.62,0.64,0
0.026679,-0.0050669,0.033575,0.0012035,0.010434,-0.00035034,0,0,0.060168,-0.023998,0,-0.0018218,0,0,0,0.033579,0.0011997,0.010434,-0.61998,0.015071,0.028891,8.2545e-07,0.63,0.64,0
0.027281,-0.0050134,0.033696,0.0013532,0.010515,-0.00034694,0,0,0.060272,-0.02382,0,-0.0018041,0,0,0,0.0337,0.0013495,0.010515,-0.61451,0.015188,0.02888,8.3009e-07,0.64,0.64,0
0.027884,-0.0049677,0.033808,0.0014307,0.010572,-0.00037117,0,0,0.060415,-0.023767,0,-0.0019301,0,0,0,0.033813,0.0014264,0.010572,-0.6567,0.01527,0.028919,8.3627e-07,0.65,0.64,0
0.028489,-0.0049297,0.033915,0.0014357,0.010605,-0.00041182,0,0,0.060606,-0.023841,0,-0.0021415,0,0,0,0.03392,0.0014304,0.010605,-0.72633,0.015319,0.029012,8.4429e-07,0.66,0.64,0
0.029096,-0.0048991,0.034022,0.0013837,0.010622,-0.00045618,0,0,0.060841,-0.024019,0,-0.0023721,0,0,0,0.034028,0.0013773,0.010622,-0.80061,0.015343,0.02915,8.5414e-07,0.67,0.64,0
0.029706,-0.0048751,0.034128,0.00129,0.010625,-0.00049558,0,0,0.061106,-0.024272,0,-0.002577,0,0,0,0.034135,0.0012825,0.010625,-0.86445,0.015348,0.02932,8.6522e-07,0.68,0.64,0
0.030318,-0.0048571,0.034229,0.0011681,0.010619,-0.00052605,0,0,0.061386,-0.024573,0,-0.0027355,0,0,0,0.034237,0.0011597,0.010619,-0.91137,0.015339,0.029508,8.7688e-07,0.69,0.64,0
0.030933,-0.0048443,0.034323,0.0010281,0.010605,-0.00054639,0,0,0.061666,-0.024901,0,-0.0028412,0,0,0,0.034332,0.0010191,0.010605,-0.93991,0.015319,0.029704,8.8856e-07,0.7,0.64,0
0.031552,-0.0048358,0.034409,0.00087795,0.010586,-0.00055685,0,0,0.061939,-0.025241,0,-0.0028956,0,0,0,0.034418,0.00086871,0.010586,-0.95117,0.015291,0.029899,8.9988e-07,0.71,0.64,0
0.032172,-0.004831,0.034485,0.00072342,0.010562,-0.0005584,0,0,0.062197,-0.025581,0,-0.0029037,0,0,0,0.034494,0.00071419,0.010562,-0.94731,0.015257,0.030089,9.1057e-07,0.72,0.64,0
0.032796,-0.0048292,0.03455,0.00056878,0.010536,-0.00055228,0,0,0.062438,-0.025914,0,-0.0028718,0,0,0,0.034559,0.00055981,0.010536,-0.93086,0.015218,0.030271,9.2048e-07,0.73,0.64,0
0.033421,-0.0048299,0.034607,0.0004171,0.010507,-0.00053981,0,0,0.062659,-0.026234,0,-0.002807,0,0,0,0.034615,0.00040858,0.010507,-0.90433,0.015177,0.030441,9.295e-07,0.74,0.64,0
0.034049,-0.0048325,0.034654,0.00027053,0.010477,-0.00052226,0,0,0.062859,-0.026537,0,-0.0027157,0,0,0,0.034662,0.0002626,0.010477,-0.87002,0.015134,0.030598,9.3762e-07,0.75,0.64,0
0.034678,-0.0048366,0.034692,0.0001305,0.010447,-0.00050079,0,0,0.063038,-0.026822,0,-0.0026041,0,0,0,0.034699,0.00012325,0.010447,-0.82996,0.01509,0.030743,9.4482e-07,0.76,0.64,0
0.03531,-0.0048418,0.034723,-2.054e-06,0.010416,-0.00047641,0,0,0.063197,-0.027087,0,-0.0024773,0,0,0,0.034729,-8.5889e-06,0.010416,-0.78588,0.015046,0.030875,9.5115e-07,0.77,0.64,0
0.035942,-0.0048479,0.034746,-0.0001266,0.010386,-0.00045001,0,0,0.063337,-0.027332,0,-0.0023401,0,0,0,0.034752,-0.00013241,0.010386,-0.7392,0.015002,0.030994,9.5664e-07,0.78,0.64,0
0.036576,-0.0048546,0.034763,-0.0002429,0.010356,-0.00042233,0,0,0.063459,-0.027557,0,-0.0021961,0,0,0,0.034768,-0.000248,0.010356,-0.69112,0.014959,0.031101,9.6136e-07,0.79,0.64,0
0.037211,-0.0048617,0.034775,-0.00035091,0.010327,-0.00039401,0,0,0.063564,-0.027763,0,-0.0020488,0,0,0,0.034779,-0.00035533,0.010327,-0.64258,0.014917,0.031197,9.6537e-07,0.8,0.64,0
0.037847,-0.004869,0.034782,-0.00045075,0.010299,-0.00036553,0,0,0.063654,-0.02795,0,-0.0019008,0,0,0,0.034785,-0.00045454,0.010299,-0.59435,0.014877,0.031281,9.6873e-07,0.81,0.64,0
0.038484,-0.0048762,0.034784,-0.00054263,0.010273,-0.00033732,0,0,0.063731,-0.028119,0,-0.0017541,0,0,0,0.034787,-0.00054585,0.010273,-0.54703,0.014838,0.031357,9.7151e-07,0.82,0.64,0
0.039122,-0.0048835,0.034784,-0.00062685,0.010247,-0.0003097,0,0,0.063795,-0.028272,0,-0.0016105,0,0,0,0.034786,-0.00062956,0.010247,-0.50106,0.014801,0.031422,9.7379e-07,0.83,0.64,0
0.03976,-0.0048905,0.03478,-0.00070374,0.010223,-0.00028292,0,0,0.063848,-0.028409,0,-0.0014712,0,0,0,0.034782,-0.000706,0.010223,-0.45679,0.014766,0.03148,9.7561e-07,0.84,0.64,0
0.040399,-0.0048973,0.034774,-0.00077368,0.0102,-0.00025715,0,0,0.063892,-0.028532,0,-0.0013372,0,0,0,0.034776,-0.00077554,0.0102,-0.41445,0.014733,0.03153,9.7704e-07,0.85,0.64,0
0.041038,-0.0049037,0.034766,-0.00083703,0.010179,-0.00023253,0,0,0.063927,-0.028641,0,-0.0012091,0,0,0,0.034768,-0.00083855,0.010179,-0.37418,0.014703,0.031574,9.7814e-07,0.86,0.64,0
0.041678,-0.0049098,0.034757,-0.00089417,0.010159,-0.00020913,0,0,0.063956,-0.028738,0,-0.0010875,0,0,0,0.034759,-0.0008954,0.010159,-0.33609,0.014674,0.031611,9.7895e-07,0.87,0.64,0
0.042317,-0.0049156,0.034748,-0.00094547,0.010141,-0.00018701,0,0,0.063978,-0.028824,0,-0.00097243,0,0,0,0.034749,-0.00094645,0.010141,-0.30018,0.014648,0.031643,9.7952e-07,0.88,0.64,0
0.042957,-0.0049208,0.034737,-0.00099128,0.010124,-0.00016615,0,0,0.063995,-0.028899,0,-0.00086396,0,0,0,0.034738,-0.00099206,0.010124,-0.26643,0.014623,0.031671,9.7991e-07,0.89,0.64,0
0.043597,-0.0049257,0.034727,-0.001032,0.010108,-0.00014653,0,0,0.064008,-0.028965,0,-0.00076196,0,0,0,0.034727,-0.0010325,0.010108,-0.23478,0.014601,0.031694,9.8013e-07,0.9,0.64,0
0.044237,-0.0049301,0.034716,-0.0010678,0.010095,-0.00012811,0,0,0.064017,-0.029022,0,-0.00066618,0,0,0,0.034717,-0.0010682,0.010095,-0.20512,0.014581,0.031713,9.8024e-07,0.91,0.64,0
0.044878,-0.004934,0.034707,-0.001099,0.010082,-0.00011082,0,0,0.064023,-0.029071,0,-0.00057624,0,0,0,0.034707,-0.0010994,0.010082,-0.17733,0.014563,0.031729,9.8025e-07,0.92,0.64,0
0.045518,-0.0049375,0.034697,-0.001126,0.010071,-9.4558e-05,0,0,0.064027,-0.029113,0,-0.0004917,0,0,0,0.034697,-0.0011263,0.010071,-0.15124,0.014548,0.031743,9.802e-07,0.93,0.64,0
0.046158,-0.0049405,0.034689,-0.0011489,0.010062,-7.9236e-05,0,0,0.06403,-0.029148,0,-0.00041203,0,0,0,0.034689,-0.0011491,0.010062,-0.12668,0.014534,0.031753,9.8011e-07,0.94,0.64,0
0.046798,-0.004943,0.034681,-0.001168,0.010054,-6.4735e-05,0,0,0.064031,-0.029177,0,-0.00033662,0,0,0,0.034682,-0.0011681,0.010054,-0.10346,0.014523,0.031762,9.8001e-07,0.95,0.64,0
0.047439,-0.0049451,0.034675,-0.0011833,0.010048,-5.0931e-05,0,0,0.064032,-0.0292,0,-0.00026484,0,0,0,0.034675,-0.0011834,0.010048,-0.081379,0.014513,0.031769,9.799e-07,0.96,0.64,0
0.048079,-0.0049467,0.03467,-0.0011951,0.010043,-3.7695e-05,0,0,0.064032,-0.029218,0,-0.00019601,0,0,0,0.03467,-0.0011951,0.010043,-0.060219,0.014506,0.031774,9.798e-07,0.97,0.64,0
0.048719,-0.0049479,0.034667,-0.0012034,0.010039,-2.4889e-05,0,0,0.064032,-0.02923,0,-0.00012942,0,0,0,0.034667,-0.0012035,0.010039,-0.039755,0.014501,0.031777,9.7972e-07,0.98,0.64,0
0.04936,-0.0049485,0.034665,-0.0012084,0.010037,-1.2372e-05,0,0,0.064032,-0.029238,0,-6.4334e-05,0,0,0,0.034665,-0.0012084,0.010037,-0.01976,0.014498,0.031779,9.7967e-07,0.99,0.64,0
0.05,-0.0049488,0.034664,-0.0012101,0.010036,-4.407e-06,0,0,0.064032,-0.02924,0,-2.2916e-05,0,0,0,0.034664,-0.0012101,0.010036,-0.0070386,0.014497,0.03178,9.7965e-07,1,0.64,0
0,0,0.030754,0.01318,0.01318,-0.0020979,0,0,0.045692,-8.1315e-20,0,-0.010909,0,0,0,0.031001,0.012933,0.01318,-6.7143,0.019038,0.017945,2.9663e-07,0,0.65,0
0.00045692,-0.00010909,0.030726,0.01283,0.013067,-0.0020906,0,0,0.045914,-0.00061577,0,-0.010871,0,0,0,0.030967,0.012589,0.013067,-6.5752,0.018874,0.018144,3.0605e-07,0.01,0.65,0
0.00091828,-0.0002141,0.030842,0.012521,0.013009,-0.002044,0,0,0.046366,-0.0012692,0,-0.010629,0,0,0,0.031067,0.012295,0.013009,-6.2892,0.01879,0.018425,3.1965e-07,0.02,0.65,0
0.0013842,-0.000315,0.030956,0.012197,0.012946,-0.0019963,0,0,0.046826,-0.0019478,0,-0.010381,0,0,0,0.031166,0.011986,0.012946,-6.0077,0.018699,0.018718,3.3385e-07,0.03,0.65,0
0.0018548,-0.00041171,0.031065,0.011862,0.012878,-0.0019464,0,0,0.047286,-0.0026419,0,-0.010121,0,0,0,0.03126,0.011667,0.012878,-5.7298,0.018602,0.019017,3.4839e-07,0.04,0.65,0
0.00233,-0.00050409,0.031167,0.01152,0.012806,-0.0018932,0,0,0.047739,-0.0033437,0,-0.0098444,0,0,0,0.031348,0.011339,0.012806,-5.4541,0.018498,0.019317,3.6301e-07,0.05,0.65,0
0.0028096,-0.00059197,0.031259,0.011173,0.01273,-0.0018359,0,0,0.048177,-0.0040472,0,-0.0095467,0,0,0,0.031426,0.011007,0.01273,-5.1797,0.018387,0.019614,3.775e-07,0.06,0.65,0
0.0032935,-0.00067514,0.031339,0.010822,0.012648,-0.0017741,0,0,0.048596,-0.004748,0,-0.0092254,0,0,0,0.031491,0.01067,0.012648,-4.9059,0.01827,0.019906,3.9165e-07,0.07,0.65,0
0.0037815,-0.00075337,0.031404,0.010468,0.012562,-0.0017076,0,0,0.048991,-0.0054431,0,-0.0088796,0,0,0,0.031543,0.01033,0.012562,-4.6324,0.018145,0.02019,4.0531e-07,0.08,0.65,0
0.0042733,-0.00082642,0.031453,0.010111,0.012469,-0.0016366,0,0,0.049357,-0.0061313,0,-0.0085101,0,0,0,0.031577,0.0099861,0.012469,-4.3597,0.018011,0.020463,4.1832e-07,0.09,0.65,0
0.0047686,-0.00089406,0.031482,0.0097491,0.012369,-0.0015616,0,0,0.049693,-0.0068125,0,-0.0081203,0,0,0,0.031593,0.0096375,0.012369,-4.0889,0.017867,0.020726,4.3058e-07,0.1,0.65,0
0.0052672,-0.00095609,0.031489,0.0093811,0.012261,-0.0014839,0,0,0.049994,-0.0074881,0,-0.0077166,0,0,0,0.031589,0.009282,0.012261,-3.8229,0.017711,0.020976,4.4197e-07,0.11,0.65,0
0.0057685,-0.0010124,0.031473,0.0090044,0.012143,-0.0014055,0,0,0.050257,-0.0081606,0,-0.0073088,0,0,0,0.03156,0.0089168,0.012143,-3.5657,0.01754,0.021215,4.524e-07,0.12,0.65,0
0.0062723,-0.0010629,0.031428,0.0086155,0.012013,-0.001329,0,0,0.050479,-0.0088338,0,-0.0069108,0,0,0,0.031505,0.0085383,0.012013,-3.3229,0.017352,0.021442,4.6179e-07,0.13,0.65,0
0.0067781,-0.0011077,0.031353,0.0082099,0.011869,-0.0012584,0,0,0.050658,-0.009513,0,-0.0065439,0,0,0,0.031421,0.0081417,0.011869,-3.1034,0.017144,0.021657,4.7007e-07,0.14,0.65,0
0.0072855,-0.0011471,0.03124,0.007781,0.011706,-0.0011993,0,0,0.050788,-0.010206,0,-0.0062363,0,0,0,0.031301,0.0077198,0.011706,-2.919,0.016909,0.021863,4.771e-07,0.15,0.65,0
0.0077938,-0.0011818,0.031088,0.0073278,0.011525,-0.0011608,0,0,0.050864,-0.010912,0,-0.0060364,0,0,0,0.031144,0.0072712,0.011525,-2.7905,0.016647,0.022056,4.8272e-07,0.16,0.65,0
0.0083027,-0.0012129,0.03088,0.0068407,0.011316,-0.0011481,0,0,0.050865,-0.011636,0,-0.0059701,0,0,0,0.030934,0.0067859,0.011316,-2.7281,0.016345,0.022232,4.8633e-07,0.17,0.65,0
0.0088112,-0.0012419,0.030649,0.0063521,0.0111,-0.0011788,0,0,0.050827,-0.012346,0,-0.00613,0,0,0,0.030706,0.006295,0.0111,-2.7712,0.016034,0.022399,4.888e-07,0.18,0.65,0
0.0093193,-0.0012714,0.030339,0.0057798,0.010836,-0.001266,0,0,0.05071,-0.013146,0,-0.0065834,0,0,0,0.030405,0.0057147,0.010836,-2.9432,0.015652,0.022569,4.8952e-07,0.19,0.65,0
0.0098254,-0.0013066,0.029872,0.0051936,0.01052,-0.0014824,0,0,0.050317,-0.013848,0,-0.0077087,0,0,0,0.029961,0.0051049,0.01052,-3.4253,0.015195,0.02264,4.83e-07,0.2,0.65,0
0.010326,-0.0013502,0.029376,0.0049613,0.010301,-0.0017828,0,0,0.049595,-0.013884,0,-0.0092704,0,0,0,0.029506,0.0048318,0.010301,-4.1544,0.01488,0.022445,4.6651e-07,0.21,0.65,0
0.010817,-0.0014056,0.028085,0.0043806,0.0097397,-0.0019417,0,0,0.047698,-0.013934,0,-0.010097,0,0,0,0.028243,0.0042227,0.0097397,-4.6518,0.014068,0.021792,4.1888e-07,0.22,0.65,0
0.01128,-0.0014559,0.027286,0.0043021,0.0094764,-0.0024955,0,0,0.046305,-0.013453,0,-0.012977,0,0,0,0.027554,0.0040342,0.0094764,-6.1258,0.013688,0.021326,3.909e-07,0.23,0.65,0
0.011743,-0.0015259,0.026992,0.0046379,0.009489,-0.0019082,0,0,0.045508,-0.012613,0,-0.0099228,0,0,0,0.027154,0.0044762,0.009489,-4.8442,0.013706,0.020633,3.6295e-07,0.24,0.65,0
0.01219,-0.0016388,0.027106,0.0048904,0.0095988,-0.0014875,0,0,0.045518,-0.012242,0,-0.007735,0,0,0,0.027205,0.0047912,0.0095988,-3.8137,0.013865,0.020438,3.5804e-07,0.25,0.65,0
0.012654,-0.0017565,0.031057,0.0043793,0.010631,-0.00081986,0,0,0.036976,-0.010949,0,-0.0044305,0,0,0,0.031134,0.0043029,0.010631,-2.3502,0.015356,0.024296,6.4797e-07,0.26,0.65,0
0.012976,-0.0018849,0.029214,0.0039207,0.0099403,-0.00031265,0,0,0.033407,-0.010407,0,-0.0020633,0,0,0,0.029243,0.0038917,0.0099403,-1.3456,0.014358,0.022933,6.346e-07,0.27,0.65,0
0.013322,-0.0020235,0.030756,0.0036664,0.010327,0.00043743,0,0,0.03541,-0.011483,0,0.00132,0,0,0,0.030764,0.0036584,0.010327,0.8047,0.014916,0.024463,7.5749e-07,0.28,0.65,0
0.013685,-0.0021662,0.03193,0.0032644,0.010558,0.0012309,0,0,0.037045,-0.01267,0,0.0045467,0,0,0,0.031985,0.0032099,0.010558,2.6112,0.015251,0.025895,8.7283e-07,0.29,0.65,0
0.014063,-0.0023153,0.033027,0.0028873,0.010774,0.0020402,0,0,0.038572,-0.013859,0,0.0075613,0,0,0,0.033169,0.0027453,0.010774,4.0924,0.015563,0.027311,9.9504e-07,0.3,0.65,0
0.014456,-0.0024806,0.029216,0.0014219,0.0091915,0.0031796,0,0,0.035864,-0.013561,0,0.011473,0,0,0,0.029576,0.0010623,0.0091915,6.5137,0.013277,0.025445,6.6256e-07,0.31,0.65,0
0.014745,-0.0026693,0.02885,-0.00052992,0.0084959,0.0035782,0,0,0.036548,-0.015617,0,0.014443,0,0,0,0.029338,-0.0010186,0.0084959,7.4877,0.012272,0.026898,6.7613e-07,0.32,0.65,0
0.015149,-0.0028038,0.029698,0.00019613,0.0089682,0.0042314,0,0,0.037036,-0.015268,0,0.014814,0,0,0,0.030293,-0.00039947,0.0089682,7.9252,0.012954,0.027249,7.5916e-07,0.33,0.65,0
0.015453,-0.0029504,0.032614,-0.0011751,0.0094318,0.004568,0,0,0.030137,-0.013789,0,0.011877,0,0,0,0.033221,-0.0017818,0.0094318,7.565,0.013624,0.030959,8.7749e-07,0.34,0.65,0
0.015752,-0.0030652,0.032524,-0.001029,0.0094486,0.0043799,0,0,0.029998,-0.013621,0,0.011388,0,0,0,0.033086,-0.0015913,0.0094486,7.3159,0.013648,0.030685,8.6252e-07,0.35,0.65,0
0.016053,-0.003175,0.03288,-0.0010037,0.0095629,0.0040181,0,0,0.030312,-0.013737,0,0.010447,0,0,0,0.03335,-0.0014737,0.0095629,6.6711,0.013813,0.030825,8.8012e-07,0.36,0.65,0
0.016358,-0.0032827,0.033269,-0.0010933,0.0096528,0.0037657,0,0,0.030701,-0.01397,0,0.0097909,0,0,0,0.033677,-0.0015011,0.0096528,6.1812,0.013943,0.031137,9.0658e-07,0.37,0.65,0
0.016667,-0.0033902,0.033673,-0.0012547,0.0097254,0.0035624,0,0,0.031131,-0.014274,0,0.0092624,0,0,0,0.034032,-0.0016144,0.0097254,5.7648,0.014048,0.031544,9.3805e-07,0.38,0.65,0
0.01698,-0.0034991,0.034105,-0.0014586,0.0097939,0.0033668,0,0,0.031604,-0.014628,0,0.0087538,0,0,0,0.034421,-0.0017746,0.0097939,5.3608,0.014147,0.032019,9.7421e-07,0.39,0.65,0
0.017299,-0.0036112,0.034572,-0.0016776,0.0098683,0.0031358,0,0,0.032115,-0.01501,0,0.0081531,0,0,0,0.034841,-0.0019469,0.0098683,4.9078,0.014254,0.032532,1.0143e-06,0.4,0.65,0
0.017623,-0.0037284,0.035053,-0.0018645,0.0099565,0.0028283,0,0,0.032625,-0.015367,0,0.0073537,0,0,0,0.035268,-0.0020799,0.0099565,4.3557,0.014382,0.033018,1.0549e-06,0.41,0.65,0
0.017951,-0.0038527,0.035512,-0.0019129,0.01008,0.0024269,0,0,0.033062,-0.015591,0,0.0063101,0,0,0,0.035669,-0.0020696,0.01008,3.6949,0.01456,0.033366,1.0904e-06,0.42,0.65,0
0.018284,-0.0039852,0.035912,-0.0017007,0.010264,0.0019808,0,0,0.033343,-0.015553,0,0.0051501,0,0,0,0.036016,-0.0018047,0.010264,3.0063,0.014825,0.033461,1.1146e-06,0.43,0.65,0
0.018618,-0.004125,0.036247,-0.0011897,0.010517,0.0015891,0,0,0.033448,-0.015219,0,0.0041317,0,0,0,0.036314,-0.001257,0.010517,2.4263,0.015191,0.033284,1.126e-06,0.44,0.65,0
0.018953,-0.0042689,0.036516,-0.00054123,0.010792,0.0013458,0,0,0.033441,-0.014734,0,0.0034992,0,0,0,0.036565,-0.00059004,0.010792,2.0772,0.015589,0.032972,1.1287e-06,0.45,0.65,0
0.019287,-0.0044128,0.036745,4.4104e-05,0.011037,0.0012481,0,0,0.03342,-0.01429,0,0.003245,0,0,0,0.036787,1.711e-06,0.011037,1.9454,0.015942,0.032696,1.1301e-06,0.46,0.65,0
0.019621,-0.0045534,0.036974,0.00048094,0.011236,0.0012477,0,0,0.033459,-0.013982,0,0.0032439,0,0,0,0.037017,0.00043833,0.011236,1.9558,0.01623,0.032551,1.1366e-06,0.47,0.65,0
0.019956,-0.0046893,0.037213,0.00075349,0.01139,0.0012729,0,0,0.03357,-0.013827,0,0.0033096,0,0,0,0.037258,0.00070911,0.01139,1.9971,0.016452,0.03255,1.1497e-06,0.48,0.65,0
0.020293,-0.0048205,0.037402,0.00088497,0.011486,0.0012731,0,0,0.03369,-0.013781,0,0.0033101,0,0,0,0.037446,0.00084064,0.011486,1.9943,0.016591,0.032613,1.1626e-06,0.49,0.65,0
0.02063,-0.0049476,0.037542,0.0010858,0.011588,0.0012429,0,0,0.03374,-0.013654,0,0.0032315,0,0,0,0.037585,0.0010434,0.011588,1.9503,0.016739,0.032575,1.1684e-06,0.5,0.65,0
0.020968,-0.0050697,0.037697,0.0014445,0.011742,0.0013339,0,0,0.033741,-0.013387,0,0.0034683,0,0,0,0.037746,0.0013955,0.011742,2.1045,0.016961,0.032439,1.1707e-06,0.51,0.65,0
0.021305,-0.005184,0.037948,0.0016026,0.011865,0.001547,0,0,0.033908,-0.013341,0,0.0040222,0,0,0,0.038014,0.0015369,0.011865,2.4329,0.017139,0.032565,1.1908e-06,0.52,0.65,0
0.021646,-0.0052911,0.03818,0.0011708,0.011805,0.0017382,0,0,0.034287,-0.013825,0,0.0045194,0,0,0,0.038261,0.0010893,0.011805,2.6832,0.017052,0.03314,1.2316e-06,0.53,0.65,0
0.021991,-0.0053951,0.039001,0.0012006,0.012061,0.0015527,0,0,0.035023,-0.014118,0,0.0040369,0,0,0,0.039065,0.0011369,0.012061,2.3481,0.017421,0.033816,1.3099e-06,0.54,0.65,0
0.022346,-0.0055074,0.038868,0.0014626,0.012099,0.0019356,0,0,0.0348,-0.013828,0,0.0050326,0,0,0,0.038968,0.0013627,0.012099,2.9543,0.017477,0.033551,1.2912e-06,0.55,0.65,0
0.022687,-0.0055992,0.037658,0.00052808,0.011456,0.00098386,0,0,0.034063,-0.014206,0,0.002558,0,0,0,0.037684,0.00050202,0.011456,1.5168,0.016547,0.033094,1.1973e-06,0.56,0.65,0
0.023027,-0.0056656,0.032472,-0.00069798,0.0095321,0.00023208,0,0,0.040899,-0.018254,0,-0.00041669,0,0,0,0.032503,-0.00072915,0.0095321,-0.052631,0.013769,0.029473,9.5602e-07,0.57,0.65,0
0.023471,-0.0057022,0.040278,-0.00060463,0.011902,-0.00097336,0,0,0.051621,-0.02268,0,-0.0046106,0,0,0,0.040318,-0.00064508,0.011902,-1.6056,0.017192,0.036352,1.6932e-06,0.58,0.65,0
0.024133,-0.0056264,0.034811,-0.00096244,0.010155,-0.0014205,0,0,0.064107,-0.028904,0,-0.0073868,0,0,0,0.034868,-0.0010188,0.010155,-2.2704,0.014668,0.031807,9.9156e-07,0.59,0.65,0
0.024753,-0.0055332,0.033871,-0.00046261,0.010023,-0.00069231,0,0,0.062006,-0.027262,0,-0.0036,0,0,0,0.033885,-0.00047656,0.010023,-1.1547,0.014477,0.030499,8.9637e-07,0.6,0.65,0
0.025373,-0.0054499,0.034149,0.00058911,0.010422,-0.00056413,0,0,0.061692,-0.025564,0,-0.0029335,0,0,0,0.034159,0.00057963,0.010422,-0.96275,0.015053,0.029899,8.8806e-07,0.61,0.65,0
0.025987,-0.0053737,0.034053,0.00089654,0.010485,-0.00047064,0,0,0.061277,-0.024929,0,-0.0024474,0,0,0,0.034059,0.00088986,0.010485,-0.81308,0.015145,0.029564,8.7116e-07,0.62,0.65,0
0.026599,-0.0053089,0.034105,0.0011668,0.010582,-0.00041828,0,0,0.061162,-0.024479,0,-0.002175,0,0,0,0.034111,0.0011615,0.010582,-0.72742,0.015285,0.029394,8.6701e-07,0.63,0.65,0
0.02721,-0.0052531,0.034153,0.0013857,0.010662,-0.00041139,0,0,0.061078,-0.024118,0,-0.0021392,0,0,0,0.034159,0.0013805,0.010662,-0.71918,0.0154,0.029263,8.6404e-07,0.64,0.65,0
0.02782,-0.0052064,0.034187,0.0014843,0.010701,-0.0004471,0,0,0.061063,-0.023964,0,-0.0023249,0,0,0,0.034193,0.0014782,0.010701,-0.78313,0.015458,0.029216,8.6372e-07,0.65,0.65,0
0.028431,-0.0051689,0.034242,0.0014914,0.01072,-0.00050008,0,0,0.061157,-0.023994,0,-0.0026004,0,0,0,0.034249,0.0014837,0.01072,-0.8746,0.015484,0.029262,8.6789e-07,0.66,0.65,0
0.029043,-0.0051399,0.034312,0.0014304,0.010723,-0.00054982,0,0,0.061332,-0.02416,0,-0.0028591,0,0,0,0.034321,0.0014212,0.010723,-0.95769,0.015488,0.029375,8.7539e-07,0.67,0.65,0
0.029658,-0.0051185,0.03439,0.001325,0.010715,-0.00058843,0,0,0.061556,-0.024413,0,-0.0030598,0,0,0,0.034401,0.0013145,0.010715,-1.0192,0.015477,0.02953,8.8488e-07,0.68,0.65,0
0.030274,-0.0051035,0.034468,0.0011909,0.010698,-0.00061388,0,0,0.061803,-0.024718,0,-0.0031922,0,0,0,0.03448,0.0011796,0.010698,-1.0565,0.015452,0.029707,8.9526e-07,0.69,0.65,0
0.030894,-0.005094,0.034542,0.0010396,0.010674,-0.00062672,0,0,0.062055,-0.02505,0,-0.003259,0,0,0,0.034553,0.0010279,0.010674,-1.0713,0.015419,0.029893,9.0579e-07,0.7,0.65,0
0.031516,-0.0050889,0.034608,0.00087937,0.010646,-0.00062837,0,0,0.062301,-0.025394,0,-0.0032675,0,0,0,0.03462,0.00086767,0.010646,-1.0669,0.015378,0.03008,9.1602e-07,0.71,0.65,0
0.03214,-0.0050875,0.034667,0.00071634,0.010615,-0.00062057,0,0,0.062535,-0.025736,0,-0.003227,0,0,0,0.034678,0.000705,0.010615,-1.0468,0.015333,0.030261,9.2566e-07,0.72,0.65,0
0.032766,-0.0050891,0.034717,0.00055477,0.010581,-0.00060509,0,0,0.062752,-0.026069,0,-0.0031465,0,0,0,0.034727,0.00054405,0.010581,-1.0144,0.015284,0.030433,9.3452e-07,0.73,0.65,0
0.033395,-0.0050929,0.034758,0.00039762,0.010547,-0.0005836,0,0,0.062949,-0.026388,0,-0.0030347,0,0,0,0.034768,0.00038771,0.010547,-0.97278,0.015234,0.030593,9.4253e-07,0.74,0.65,0
0.034025,-0.0050985,0.034791,0.00024689,0.010511,-0.00055758,0,0,0.063127,-0.026687,0,-0.0028994,0,0,0,0.0348,0.00023789,0.010511,-0.9245,0.015183,0.030741,9.4965e-07,0.75,0.65,0
0.034657,-0.0051055,0.034816,0.00010385,0.010476,-0.00052832,0,0,0.063285,-0.026968,0,-0.0027473,0,0,0,0.034824,9.5812e-05,0.010476,-0.87177,0.015132,0.030876,9.5589e-07,0.76,0.65,0
0.035291,-0.0051134,0.034835,-3.0747e-05,0.010441,-0.00049691,0,0,0.063423,-0.027227,0,-0.0025839,0,0,0,0.034842,-3.7827e-05,0.010441,-0.81637,0.015082,0.030998,9.6129e-07,0.77,0.65,0
0.035926,-0.0051219,0.034847,-0.00015653,0.010407,-0.00046425,0,0,0.063543,-0.027465,0,-0.0024141,0,0,0,0.034853,-0.00016268,0.010407,-0.75974,0.015033,0.031108,9.6589e-07,0.78,0.65,0
0.036562,-0.0051308,0.034854,-0.00027339,0.010374,-0.00043108,0,0,0.063647,-0.027683,0,-0.0022416,0,0,0,0.034859,-0.00027868,0.010374,-0.703,0.014985,0.031206,9.6976e-07,0.79,0.65,0
0.037199,-0.0051399,0.034855,-0.00038141,0.010342,-0.000398,0,0,0.063734,-0.027881,0,-0.0020696,0,0,0,0.03486,-0.00038591,0.010342,-0.64704,0.014939,0.031293,9.7296e-07,0.8,0.65,0
0.037837,-0.005149,0.034853,-0.00048083,0.010312,-0.00036547,0,0,0.063808,-0.028061,0,-0.0019005,0,0,0,0.034857,-0.00048461,0.010312,-0.59254,0.014895,0.031369,9.7557e-07,0.81,0.65,0
0.038475,-0.0051579,0.034848,-0.00057195,0.010283,-0.00033387,0,0,0.063869,-0.028222,0,-0.0017361,0,0,0,0.034851,-0.0005751,0.010283,-0.54002,0.014853,0.031436,9.7764e-07,0.82,0.65,0
0.039114,-0.0051666,0.034839,-0.00065515,0.010255,-0.00030347,0,0,0.063919,-0.028367,0,-0.0015781,0,0,0,0.034842,-0.00065774,0.010255,-0.48983,0.014813,0.031495,9.7925e-07,0.83,0.65,0
0.039753,-0.005175,0.034829,-0.00073084,0.010229,-0.00027448,0,0,0.063959,-0.028497,0,-0.0014273,0,0,0,0.034831,-0.00073295,0.010229,-0.44222,0.014776,0.031545,9.8046e-07,0.84,0.65,0
0.040393,-0.005183,0.034817,-0.00079943,0.010205,-0.00024702,0,0,0.06399,-0.028612,0,-0.0012845,0,0,0,0.034818,-0.00080115,0.010205,-0.39736,0.014741,0.031589,9.8132e-07,0.85,0.65,0
0.041033,-0.0051905,0.034803,-0.00086137,0.010183,-0.00022118,0,0,0.064014,-0.028714,0,-0.0011501,0,0,0,0.034805,-0.00086274,0.010183,-0.35531,0.014708,0.031626,9.8189e-07,0.86,0.65,0
0.041673,-0.0051976,0.034789,-0.00091706,0.010162,-0.000197,0,0,0.064031,-0.028805,0,-0.0010244,0,0,0,0.03479,-0.00091814,0.010162,-0.3161,0.014678,0.031658,9.8223e-07,0.87,0.65,0
0.042314,-0.0052041,0.034774,-0.00096691,0.010142,-0.00017446,0,0,0.064044,-0.028884,0,-0.0009072,0,0,0,0.034775,-0.00096776,0.010142,-0.27966,0.01465,0.031684,9.8236e-07,0.88,0.65,0
0.042954,-0.0052101,0.03476,-0.0010113,0.010125,-0.00015354,0,0,0.064052,-0.028953,0,-0.0007984,0,0,0,0.034761,-0.001012,0.010125,-0.24592,0.014624,0.031707,9.8235e-07,0.89,0.65,0
0.043595,-0.0052156,0.034746,-0.0010506,0.010108,-0.00013417,0,0,0.064057,-0.029014,0,-0.00069768,0,0,0,0.034746,-0.0010511,0.010108,-0.21475,0.014601,0.031725,9.8222e-07,0.9,0.65,0
0.044235,-0.0052205,0.034732,-0.0010851,0.010094,-0.00011626,0,0,0.064059,-0.029066,0,-0.00060457,0,0,0,0.034732,-0.0010855,0.010094,-0.18598,0.01458,0.031741,9.8201e-07,0.91,0.65,0
0.044876,-0.0052249,0.034719,-0.0011152,0.010081,-9.9721e-05,0,0,0.064059,-0.029111,0,-0.00051855,0,0,0,0.034719,-0.0011155,0.010081,-0.15944,0.014562,0.031753,9.8174e-07,0.92,0.65,0
0.045517,-0.0052288,0.034707,-0.0011411,0.01007,-8.4421e-05,0,0,0.064057,-0.029149,0,-0.00043899,0,0,0,0.034708,-0.0011413,0.01007,-0.13493,0.014545,0.031764,9.8145e-07,0.93,0.65,0
0.046157,-0.0052321,0.034697,-0.0011631,0.01006,-7.0232e-05,0,0,0.064055,-0.02918,0,-0.00036521,0,0,0,0.034697,-0.0011632,0.01006,-0.11221,0.014531,0.031772,9.8115e-07,0.94,0.65,0
0.046798,-0.005235,0.034687,-0.0011813,0.010052,-5.7012e-05,0,0,0.064052,-0.029206,0,-0.00029646,0,0,0,0.034688,-0.0011814,0.010052,-0.09107,0.014519,0.031778,9.8086e-07,0.95,0.65,0
0.047438,-0.0052372,0.03468,-0.0011959,0.010045,-4.4612e-05,0,0,0.06405,-0.029227,0,-0.00023198,0,0,0,0.03468,-0.001196,0.010045,-0.071248,0.01451,0.031783,9.8061e-07,0.96,0.65,0
0.048079,-0.005239,0.034674,-0.0012072,0.01004,-3.2873e-05,0,0,0.064047,-0.029243,0,-0.00017094,0,0,0,0.034674,-0.0012072,0.01004,-0.052493,0.014502,0.031786,9.804e-07,0.97,0.65,0
0.048719,-0.0052403,0.034669,-0.0012151,0.010036,-2.1635e-05,0,0,0.064046,-0.029254,0,-0.0001125,0,0,0,0.034669,-0.0012152,0.010036,-0.034545,0.014497,0.031789,9.8024e-07,0.98,0.65,0
0.04936,-0.005241,0.034667,-0.0012199,0.010034,-1.0733e-05,0,0,0.064045,-0.02926,0,-5.5814e-05,0,0,0,0.034667,-0.0012199,0.010034,-0.017137,0.014493,0.03179,9.8015e-07,0.99,0.65,0
0.05,-0.0052413,0.034666,-0.0012215,0.010033,-4.851e-06,0,0,0.064044,-0.029262,0,-2.5226e-05,0,0,0,0.034666,-0.0012215,0.010033,-0.007745,0.014493,0.031791,9.8011e-07,1,0.65,0
0,0,0.030651,0.013136,0.013136,-0.0022161,0,0,0.045538,1.3552e-19,0,-0.011524,0,0,0,0.030927,0.01286,0.013136,-7.1004,0.018974,0.01793,2.9583e-07,0,0.66,0
0.00045538,-0.00011524,0.030623,0.012785,0.013022,-0.0022076,0,0,0.045761,-0.00061752,0,-0.01148,0,0,0,0.030892,0.012516,0.013022,-6.9511,0.01881,0.018128,3.0518e-07,0.01,0.66,0
0.00091523,-0.00022678,0.030739,0.012473,0.012964,-0.0021612,0,0,0.046216,-0.0012753,0,-0.011238,0,0,0,0.030991,0.012221,0.012964,-6.6568,0.018725,0.01841,3.1871e-07,0.02,0.66,0
0.0013797,-0.00033448,0.030853,0.012146,0.0129,-0.0021103,0,0,0.04668,-0.0019605,0,-0.010974,0,0,0,0.031089,0.011911,0.0129,-6.3569,0.018633,0.018703,3.3284e-07,0.03,0.66,0
0.0018488,-0.00043816,0.030964,0.011807,0.012831,-0.0020543,0,0,0.047144,-0.0026628,0,-0.010682,0,0,0,0.031181,0.011589,0.012831,-6.0525,0.018534,0.019002,3.473e-07,0.04,0.66,0
0.0023226,-0.00053759,0.031066,0.01146,0.012758,-0.0019923,0,0,0.047602,-0.0033743,0,-0.01036,0,0,0,0.031267,0.01126,0.012758,-5.7439,0.018428,0.019301,3.6182e-07,0.05,0.66,0
0.0028009,-0.00063254,0.031159,0.011107,0.01268,-0.0019238,0,0,0.048045,-0.0040884,0,-0.010004,0,0,0,0.031342,0.010925,0.01268,-5.4313,0.018315,0.019599,3.762e-07,0.06,0.66,0
0.0032835,-0.00072275,0.031239,0.010751,0.012597,-0.0018486,0,0,0.04847,-0.0048003,0,-0.0096128,0,0,0,0.031405,0.010585,0.012597,-5.1146,0.018196,0.01989,3.9024e-07,0.07,0.66,0
0.0037703,-0.00080797,0.031305,0.010391,0.012509,-0.0017665,0,0,0.048871,-0.0055066,0,-0.0091857,0,0,0,0.031454,0.010243,0.012509,-4.7941,0.018068,0.020173,4.0377e-07,0.08,0.66,0
0.0042609,-0.00088793,0.031354,0.010028,0.012415,-0.0016776,0,0,0.049243,-0.0062052,0,-0.0087235,0,0,0,0.031485,0.0098969,0.012415,-4.4704,0.017932,0.020446,4.1664e-07,0.09,0.66,0
0.0047551,-0.00096241,0.031384,0.0096617,0.012314,-0.0015825,0,0,0.049583,-0.0068955,0,-0.0082291,0,0,0,0.031499,0.009547,0.012314,-4.1449,0.017787,0.020708,4.2873e-07,0.1,0.66,0
0.0052526,-0.0010312,0.031393,0.0092906,0.012205,-0.0014823,0,0,0.049888,-0.0075776,0,-0.0077081,0,0,0,0.031492,0.0091916,0.012205,-3.8198,0.017629,0.020957,4.3993e-07,0.11,0.66,0
0.0057529,-0.0010942,0.031378,0.0089128,0.012087,-0.0013786,0,0,0.050155,-0.0082532,0,-0.0071688,0,0,0,0.031462,0.0088286,0.012087,-3.4986,0.017459,0.021193,4.5015e-07,0.12,0.66,0
0.0062557,-0.0011514,0.031336,0.0085259,0.011959,-0.0012738,0,0,0.050381,-0.0089248,0,-0.0066237,0,0,0,0.031407,0.008455,0.011959,-3.1864,0.017273,0.021416,4.5929e-07,0.13,0.66,0
0.0067605,-0.0012029,0.031264,0.0081265,0.011817,-0.0011713,0,0,0.050563,-0.0095961,0,-0.0060908,0,0,0,0.031323,0.0080673,0.011817,-2.8906,0.017069,0.021626,4.6728e-07,0.14,0.66,0
0.0072669,-0.0012491,0.03116,0.0077116,0.011661,-0.0010763,0,0,0.050696,-0.01027,0,-0.0055966,0,0,0,0.031209,0.0076623,0.011661,-2.6225,0.016844,0.021824,4.74e-07,0.15,0.66,0
0.0077744,-0.0012907,0.031017,0.0072779,0.011489,-0.00099463,0,0,0.050775,-0.010948,0,-0.0051721,0,0,0,0.031059,0.0072363,0.011489,-2.395,0.016595,0.022007,4.7923e-07,0.16,0.66,0
0.0082824,-0.0013287,0.030836,0.0068285,0.0113,-0.00093587,0,0,0.050796,-0.011625,0,-0.0048665,0,0,0,0.030873,0.006792,0.0113,-2.229,0.016321,0.022173,4.8285e-07,0.17,0.66,0
0.0087904,-0.0013648,0.030602,0.006354,0.011087,-0.00091116,0,0,0.05074,-0.012306,0,-0.004738,0,0,0,0.030636,0.0063198,0.011087,-2.1489,0.016014,0.022318,4.8431e-07,0.18,0.66,0
0.0092972,-0.0014014,0.030287,0.0058688,0.010847,-0.00094225,0,0,0.050546,-0.012943,0,-0.0048997,0,0,0,0.030324,0.0058325,0.010847,-2.2065,0.015668,0.022409,4.8182e-07,0.19,0.66,0
0.0098013,-0.0014413,0.029877,0.0054432,0.010596,-0.0010286,0,0,0.05013,-0.013397,0,-0.0053487,0,0,0,0.02992,0.0054,0.010596,-2.4064,0.015305,0.022379,4.7268e-07,0.2,0.66,0
0.0103,-0.0014871,0.029281,0.0050736,0.010306,-0.0011106,0,0,0.049334,-0.013605,0,-0.0057752,0,0,0,0.029332,0.0050228,0.010306,-2.6214,0.014887,0.022145,4.5253e-07,0.21,0.66,0
0.010788,-0.0015372,0.028757,0.0049196,0.010103,-0.0011677,0,0,0.048501,-0.013477,0,-0.0060718,0,0,0,0.028814,0.0048626,0.010103,-2.7976,0.014593,0.021809,4.3084e-07,0.22,0.66,0
0.01127,-0.0015943,0.028067,0.0043111,0.0097136,-0.0011343,0,0,0.04772,-0.014046,0,-0.0058982,0,0,0,0.028122,0.0042571,0.0097136,-2.7274,0.014031,0.021658,4.1224e-07,0.23,0.66,0
0.011742,-0.0016697,0.027255,0.0037921,0.009314,-0.0013654,0,0,0.046645,-0.014357,0,-0.0071001,0,0,0,0.027334,0.0037129,0.009314,-3.3194,0.013454,0.021378,3.8806e-07,0.24,0.66,0
0.012203,-0.0017711,0.02611,0.0039096,0.0090059,-0.0013776,0,0,0.044471,-0.013251,0,-0.0071637,0,0,0,0.026195,0.0038244,0.0090059,-3.5373,0.013008,0.020283,3.3611e-07,0.25,0.66,0
0.012632,-0.0018727,0.02522,0.0039049,0.0087374,-0.0015252,0,0,0.042854,-0.012565,0,-0.0079311,0,0,0,0.025328,0.0037963,0.0087374,-4.0722,0.012621,0.019536,3.0193e-07,0.26,0.66,0
0.01306,-0.0019882,0.024649,0.0037931,0.0085325,-0.00070493,0,0,0.041902,-0.012322,0,-0.0036657,0,0,0,0.024672,0.0037693,0.0085325,-1.9337,0.012325,0.018975,2.7776e-07,0.27,0.66,0
0.01347,-0.0021364,0.02404,0.0032415,0.0081846,-6.7764e-05,0,0,0.041225,-0.012852,0,-0.00035237,0,0,0,0.02404,0.0032413,0.0081846,-0.18667,0.011822,0.018821,2.6443e-07,0.28,0.66,0
0.013884,-0.0022937,0.024151,0.0024792,0.0079891,0.00064199,0,0,0.042022,-0.014326,0,0.0033383,0,0,0,0.02417,0.0024602,0.0079891,1.6953,0.01154,0.019541,2.8234e-07,0.29,0.66,0
0.01431,-0.0024595,0.024607,0.0019515,0.0079676,0.0014816,0,0,0.043263,-0.015642,0,0.0077043,0,0,0,0.024704,0.0018551,0.0079676,3.7258,0.011509,0.020488,3.1275e-07,0.3,0.66,0
0.01475,-0.0026191,0.029721,0.00032208,0.0090128,0.0026704,0,0,0.037042,-0.015675,0,0.0094823,0,0,0,0.029961,8.1299e-05,0.0090128,5.1129,0.013019,0.026566,7.2217e-07,0.31,0.66,0
0.015085,-0.0028246,0.028113,-0.00040253,0.0083132,0.0041375,0,0,0.03432,-0.015107,0,0.014343,0,0,0,0.028702,-0.00099073,0.0083132,8.0911,0.012008,0.026305,7.4119e-07,0.32,0.66,0
0.015436,-0.0029584,0.02508,-0.0011983,0.0071645,0.0032284,0,0,0.032051,-0.014736,0,0.012226,0,0,0,0.025482,-0.0016009,0.0071645,7.2108,0.010349,0.023937,4.6679e-07,0.33,0.66,0
0.015697,-0.0030783,0.028899,-0.0014216,0.0082432,0.0038472,0,0,0.026853,-0.012564,0,0.010003,0,0,0,0.029379,-0.0019021,0.0082432,7.1196,0.011907,0.027643,6.1291e-07,0.34,0.66,0
0.015973,-0.0031962,0.030663,-0.000968,0.0089085,0.0035923,0,0,0.028281,-0.012839,0,0.0093399,0,0,0,0.031066,-0.0013709,0.0089085,6.3985,0.012868,0.028712,7.1133e-07,0.35,0.66,0
0.016262,-0.0033091,0.031877,-0.00085735,0.0093058,0.0034291,0,0,0.029342,-0.013212,0,0.0089158,0,0,0,0.032232,-0.0012127,0.0093058,5.9166,0.013442,0.029621,7.8965e-07,0.36,0.66,0
0.01656,-0.0034203,0.032674,-0.00094584,0.0095185,0.0032562,0,0,0.030102,-0.013604,0,0.0084661,0,0,0,0.032987,-0.0012583,0.0095185,5.4814,0.013749,0.030328,8.4684e-07,0.37,0.66,0
0.016864,-0.0035315,0.033311,-0.001101,0.009663,0.0030807,0,0,0.030742,-0.013993,0,0.0080098,0,0,0,0.033585,-0.0013746,0.009663,5.0756,0.013958,0.030953,8.9608e-07,0.38,0.66,0
0.017175,-0.0036442,0.033872,-0.001278,0.0097783,0.0028829,0,0,0.031322,-0.014373,0,0.0074955,0,0,0,0.034107,-0.0015129,0.0097783,4.6577,0.014124,0.031529,9.4159e-07,0.39,0.66,0
0.017491,-0.00376,0.034391,-0.0014396,0.0098854,0.0026412,0,0,0.031857,-0.014722,0,0.0068672,0,0,0,0.034584,-0.0016332,0.0098854,4.1933,0.014279,0.03205,9.8427e-07,0.4,0.66,0
0.017812,-0.0038803,0.034868,-0.0015355,0.0099997,0.0023413,0,0,0.032329,-0.014996,0,0.0060873,0,0,0,0.035018,-0.0016855,0.0099997,3.6649,0.014444,0.032477,1.0226e-06,0.41,0.66,0
0.018137,-0.0040062,0.035289,-0.0015014,0.010136,0.001992,0,0,0.032698,-0.015129,0,0.0051791,0,0,0,0.035396,-0.001609,0.010136,3.0902,0.014641,0.032752,1.0535e-06,0.42,0.66,0
0.018466,-0.004138,0.035642,-0.001282,0.010308,0.001634,0,0,0.032934,-0.015067,0,0.0042483,0,0,0,0.035714,-0.0013542,0.010308,2.5289,0.014889,0.03283,1.0745e-06,0.43,0.66,0
0.018796,-0.0042749,0.035929,-0.00088464,0.010513,0.0013312,0,0,0.03304,-0.014817,0,0.0034611,0,0,0,0.035977,-0.00093271,0.010513,2.0682,0.015186,0.032724,1.0857e-06,0.44,0.66,0
0.019127,-0.0044147,0.036163,-0.00039488,0.010731,0.0011309,0,0,0.033063,-0.014463,0,0.0029403,0,0,0,0.036198,-0.00042983,0.010731,1.7701,0.0155,0.032517,1.0903e-06,0.45,0.66,0
0.019457,-0.0045547,0.036371,7.5423e-05,0.010934,0.0010407,0,0,0.033068,-0.014116,0,0.0027059,0,0,0,0.036401,4.5606e-05,0.010934,1.6411,0.015793,0.032317,1.0934e-06,0.46,0.66,0
0.019788,-0.0046925,0.036574,0.00045222,0.011108,0.0010275,0,0,0.033106,-0.013852,0,0.0026714,0,0,0,0.036603,0.00042301,0.011108,1.628,0.016045,0.032196,1.0993e-06,0.47,0.66,0
0.020119,-0.0048268,0.036773,0.00071731,0.011247,0.0010474,0,0,0.033184,-0.013689,0,0.0027233,0,0,0,0.036804,0.00068691,0.011247,1.6626,0.016246,0.032164,1.1086e-06,0.48,0.66,0
0.020452,-0.004957,0.036962,0.00091586,0.011363,0.0010701,0,0,0.033278,-0.013582,0,0.0027823,0,0,0,0.036994,0.00088412,0.011363,1.6989,0.016414,0.032176,1.1192e-06,0.49,0.66,0
0.020785,-0.0050829,0.037143,0.0011095,0.011476,0.0011124,0,0,0.033367,-0.013476,0,0.0028922,0,0,0,0.037177,0.0010752,0.011476,1.7665,0.016576,0.032188,1.1293e-06,0.5,0.66,0
0.021119,-0.0052036,0.037354,0.001292,0.011594,0.0012015,0,0,0.033488,-0.013392,0,0.0031238,0,0,0,0.037394,0.001252,0.011594,1.9061,0.016746,0.03224,1.143e-06,0.51,0.66,0
0.021455,-0.0053187,0.037589,0.0013103,0.01167,0.0013234,0,0,0.033695,-0.013468,0,0.0034407,0,0,0,0.037638,0.0012621,0.01167,2.0863,0.016857,0.032449,1.1654e-06,0.52,0.66,0
0.021793,-0.0054287,0.037879,0.0011895,0.011721,0.0013451,0,0,0.034006,-0.01369,0,0.0034974,0,0,0,0.037928,0.0011403,0.011721,2.0969,0.01693,0.032803,1.1975e-06,0.53,0.66,0
0.022135,-0.0055368,0.037892,0.00099968,0.011667,0.0012903,0,0,0.034092,-0.013868,0,0.0033548,0,0,0,0.037937,0.0009546,0.011667,2.0007,0.016853,0.032959,1.2052e-06,0.54,0.66,0
0.022475,-0.0056406,0.038131,0.0016807,0.011944,0.0012694,0,0,0.034044,-0.013342,0,0.0033004,0,0,0,0.038175,0.0016366,0.011944,1.9921,0.017252,0.03263,1.2025e-06,0.55,0.66,0
0.022816,-0.0057312,0.03854,0.0016861,0.012068,0.0015816,0,0,0.034413,-0.013496,0,0.0041123,0,0,0,0.038607,0.0016183,0.012068,2.4529,0.017431,0.033028,1.2453e-06,0.56,0.66,0
0.023163,-0.0058168,0.037542,8.9158e-05,0.011289,0.0017417,0,0,0.034128,-0.01456,0,0.0045285,0,0,0,0.037623,8.3334e-06,0.011289,2.6569,0.016307,0.033433,1.2086e-06,0.57,0.66,0
0.023498,-0.005899,0.032811,-0.00031858,0.0097476,0.00079469,0,0,0.041267,-0.018004,0,0.0022213,0,0,0,0.032837,-0.00034498,0.0097476,1.1543,0.01408,0.029462,9.6267e-07,0.58,0.66,0
0.02395,-0.0059204,0.04088,-0.00099751,0.011965,-0.00045137,0,0,0.05261,-0.023457,0,-0.002472,0,0,0,0.040895,-0.0010126,0.011965,-0.80443,0.017282,0.037159,1.7827e-06,0.59,0.66,0
0.024625,-0.0058161,0.035785,-0.00033932,0.010634,-0.00083688,0,0,0.065394,-0.02853,0,-0.0043518,0,0,0,0.035805,-0.00035869,0.010634,-1.3264,0.01536,0.032111,1.0531e-06,0.6,0.66,0
0.025257,-0.0057077,0.034849,0.00040613,0.010577,-0.00050286,0,0,0.063109,-0.026443,0,-0.0026149,0,0,0,0.034856,0.00039879,0.010577,-0.83627,0.015277,0.030663,9.4946e-07,0.61,0.66,0
0.025887,-0.0056267,0.034837,0.00070837,0.010664,-0.00040497,0,0,0.062851,-0.025884,0,-0.0021058,0,0,0,0.034842,0.00070356,0.010664,-0.67974,0.015403,0.030407,9.3895e-07,0.62,0.66,0
0.026514,-0.0055564,0.034806,0.0012083,0.010804,-0.00034667,0,0,0.062404,-0.024949,0,-0.0018027,0,0,0,0.03481,0.0012048,0.010804,-0.59111,0.015606,0.029981,9.2077e-07,0.63,0.66,0
0.027135,-0.0054958,0.034659,0.0014605,0.010836,-0.00038094,0,0,0.061941,-0.024376,0,-0.0019809,0,0,0,0.034664,0.0014562,0.010836,-0.65732,0.015652,0.029652,9.0122e-07,0.64,0.66,0
0.027753,-0.005447,0.034604,0.0015694,0.010852,-0.00046837,0,0,0.061755,-0.024135,0,-0.0024355,0,0,0,0.03461,0.0015628,0.010852,-0.81214,0.015675,0.02952,8.9362e-07,0.65,0.66,0
0.02837,-0.0054096,0.034603,0.0015586,0.010848,-0.00055067,0,0,0.061761,-0.024153,0,-0.0028635,0,0,0,0.034612,0.0015494,0.010848,-0.95446,0.01567,0.029532,8.9416e-07,0.66,0.66,0
0.028989,-0.0053823,0.034638,0.0014797,0.010835,-0.00061339,0,0,0.061886,-0.024324,0,-0.0031897,0,0,0,0.034649,0.0014684,0.010835,-1.0595,0.015651,0.029629,8.9964e-07,0.67,0.66,0
0.029608,-0.0053634,0.034686,0.0013576,0.010813,-0.00065492,0,0,0.062069,-0.024584,0,-0.0034056,0,0,0,0.034698,0.0013447,0.010813,-1.1253,0.015619,0.029771,9.0748e-07,0.68,0.66,0
0.03023,-0.0053515,0.034736,0.0012082,0.010783,-0.00067799,0,0,0.062278,-0.024895,0,-0.0035255,0,0,0,0.03475,0.0011945,0.010783,-1.158,0.015576,0.029936,9.1632e-07,0.69,0.66,0
0.030854,-0.0053453,0.034785,0.0010436,0.010748,-0.00068541,0,0,0.062494,-0.025233,0,-0.0035641,0,0,0,0.034799,0.0010297,0.010748,-1.1633,0.015526,0.03011,9.2539e-07,0.7,0.66,0
0.03148,-0.0053437,0.034828,0.00087244,0.01071,-0.00067998,0,0,0.062707,-0.025578,0,-0.0035359,0,0,0,0.034842,0.00085883,0.01071,-1.1468,0.01547,0.030284,9.342e-07,0.71,0.66,0
0.032108,-0.0053457,0.034866,0.00070061,0.01067,-0.00066433,0,0,0.062909,-0.02592,0,-0.0034545,0,0,0,0.034879,0.0006877,0.01067,-1.1135,0.015412,0.030453,9.4246e-07,0.72,0.66,0
0.032738,-0.0053506,0.034896,0.00053225,0.010629,-0.00064084,0,0,0.063096,-0.02625,0,-0.0033324,0,0,0,0.034908,0.00052031,0.010629,-1.068,0.015352,0.030612,9.5e-07,0.73,0.66,0
0.03337,-0.0053576,0.034919,0.00037007,0.010587,-0.00061157,0,0,0.063265,-0.026564,0,-0.0031802,0,0,0,0.03493,0.00035925,0.010587,-1.0138,0.015292,0.03076,9.5672e-07,0.74,0.66,0
0.034003,-0.0053662,0.034936,0.00021578,0.010545,-0.00057825,0,0,0.063415,-0.026857,0,-0.0030069,0,0,0,0.034945,0.00020615,0.010545,-0.9539,0.015232,0.030896,9.626e-07,0.75,0.66,0
0.034638,-0.0053759,0.034946,7.0415e-05,0.010505,-0.00054231,0,0,0.063547,-0.02713,0,-0.00282,0,0,0,0.034954,6.1984e-05,0.010505,-0.89065,0.015174,0.031019,9.6766e-07,0.76,0.66,0
0.035274,-0.0053864,0.03495,-6.5499e-05,0.010465,-0.0005049,0,0,0.063661,-0.02738,0,-0.0026255,0,0,0,0.034958,-7.2777e-05,0.010465,-0.82592,0.015117,0.031129,9.7194e-07,0.77,0.66,0
0.035911,-0.0053973,0.03495,-0.00019178,0.010427,-0.00046694,0,0,0.063758,-0.02761,0,-0.0024281,0,0,0,0.034956,-0.00019798,0.010427,-0.76114,0.015062,0.031228,9.7548e-07,0.78,0.66,0
0.036549,-0.0054083,0.034944,-0.00030848,0.010391,-0.00042919,0,0,0.063839,-0.027818,0,-0.0022318,0,0,0,0.03495,-0.0003137,0.010391,-0.69741,0.015009,0.031315,9.7836e-07,0.79,0.66,0
0.037188,-0.0054193,0.034936,-0.00041583,0.010356,-0.0003922,0,0,0.063907,-0.028007,0,-0.0020394,0,0,0,0.03494,-0.00042018,0.010356,-0.63555,0.014958,0.031391,9.8064e-07,0.8,0.66,0
0.037828,-0.0054302,0.034923,-0.00051417,0.010323,-0.00035642,0,0,0.063962,-0.028176,0,-0.0018534,0,0,0,0.034927,-0.00051776,0.010323,-0.57619,0.014911,0.031458,9.8238e-07,0.81,0.66,0
0.038467,-0.0054407,0.034909,-0.00060393,0.010291,-0.00032218,0,0,0.064005,-0.028328,0,-0.0016753,0,0,0,0.034912,-0.00060685,0.010291,-0.51975,0.014865,0.031516,9.8365e-07,0.82,0.66,0
0.039108,-0.0054508,0.034892,-0.00068555,0.010262,-0.00028971,0,0,0.064038,-0.028463,0,-0.0015065,0,0,0,0.034895,-0.00068791,0.010262,-0.46652,0.014823,0.031566,9.8452e-07,0.83,0.66,0
0.039748,-0.0054604,0.034874,-0.00075951,0.010234,-0.00025917,0,0,0.064063,-0.028584,0,-0.0013477,0,0,0,0.034876,-0.00076139,0.010234,-0.41669,0.014783,0.031608,9.8504e-07,0.84,0.66,0
0.040389,-0.0054695,0.034855,-0.0008263,0.010209,-0.00023064,0,0,0.06408,-0.028691,0,-0.0011993,0,0,0,0.034856,-0.00082779,0.010209,-0.37033,0.014746,0.031644,9.8528e-07,0.85,0.66,0
0.04103,-0.005478,0.034835,-0.00088639,0.010185,-0.00020416,0,0,0.064092,-0.028785,0,-0.0010616,0,0,0,0.034836,-0.00088756,0.010185,-0.32745,0.014711,0.031674,9.8527e-07,0.86,0.66,0
0.041671,-0.0054859,0.034815,-0.00094025,0.010163,-0.00017973,0,0,0.064098,-0.028867,0,-0.00093459,0,0,0,0.034816,-0.00094115,0.010163,-0.28799,0.014679,0.031699,9.8508e-07,0.87,0.66,0
0.042312,-0.0054932,0.034796,-0.0009883,0.010142,-0.0001573,0,0,0.064099,-0.028939,0,-0.00081797,0,0,0,0.034797,-0.00098899,0.010142,-0.25186,0.01465,0.03172,9.8474e-07,0.88,0.66,0
0.042953,-0.0054999,0.034777,-0.001031,0.010124,-0.0001368,0,0,0.064098,-0.029002,0,-0.00071137,0,0,0,0.034777,-0.0010315,0.010124,-0.21889,0.014623,0.031737,9.843e-07,0.89,0.66,0
0.043594,-0.005506,0.034758,-0.0010686,0.010107,-0.00011814,0,0,0.064094,-0.029057,0,-0.0006143,0,0,0,0.034759,-0.001069,0.010107,-0.18892,0.014599,0.031751,9.8379e-07,0.9,0.66,0
0.044235,-0.0055114,0.034741,-0.0011016,0.010092,-0.00010118,0,0,0.064088,-0.029103,0,-0.00052613,0,0,0,0.034742,-0.0011019,0.010092,-0.16174,0.014577,0.031762,9.8323e-07,0.91,0.66,0
0.044875,-0.0055162,0.034725,-0.0011303,0.010079,-8.5802e-05,0,0,0.064082,-0.029143,0,-0.00044617,0,0,0,0.034725,-0.0011305,0.010079,-0.13711,0.014558,0.031771,9.8267e-07,0.92,0.66,0
0.045516,-0.0055205,0.034711,-0.001155,0.010067,-7.1854e-05,0,0,0.064075,-0.029176,0,-0.00037364,0,0,0,0.034711,-0.0011551,0.010067,-0.11479,0.014541,0.031778,9.8211e-07,0.93,0.66,0
0.046157,-0.0055241,0.034698,-0.0011758,0.010057,-5.9176e-05,0,0,0.064067,-0.029204,0,-0.00030772,0,0,0,0.034698,-0.0011759,0.010057,-0.094513,0.014526,0.031783,9.8159e-07,0.94,0.66,0
0.046798,-0.0055271,0.034687,-0.001193,0.010048,-4.7601e-05,0,0,0.064061,-0.029227,0,-0.00024753,0,0,0,0.034687,-0.0011931,0.010048,-0.076013,0.014514,0.031787,9.8112e-07,0.95,0.66,0
0.047438,-0.0055296,0.034677,-0.0012069,0.010041,-3.6954e-05,0,0,0.064054,-0.029245,0,-0.00019216,0,0,0,0.034677,-0.001207,0.010041,-0.059004,0.014504,0.03179,9.8072e-07,0.96,0.66,0
0.048079,-0.0055316,0.03467,-0.0012176,0.010036,-2.7056e-05,0,0,0.064049,-0.029259,0,-0.00014069,0,0,0,0.03467,-0.0012176,0.010036,-0.043196,0.014496,0.031792,9.8039e-07,0.97,0.66,0
0.048719,-0.0055329,0.034665,-0.0012251,0.010032,-1.7722e-05,0,0,0.064046,-0.029268,0,-9.2155e-05,0,0,0,0.034665,-0.0012251,0.010032,-0.028292,0.014491,0.031793,9.8015e-07,0.98,0.66,0
0.04936,-0.0055337,0.034662,-0.0012296,0.01003,-8.7664e-06,0,0,0.064043,-0.029274,0,-4.5585e-05,0,0,0,0.034662,-0.0012296,0.01003,-0.013994,0.014487,0.031794,9.8001e-07,0.99,0.66,0
0.05,-0.005534,0.034661,-0.001231,0.010029,-5.2408e-06,0,0,0.064043,-0.029276,0,-2.7252e-05,0,0,0,0.034661,-0.001231,0.010029,-0.0083662,0.014486,0.031794,9.7996e-07,1,0.66,0
0,0,0.030565,0.013099,0.013099,-0.0023355,0,0,0.045411,5.421e-20,0,-0.012144,0,0,0,0.030872,0.012792,0.013099,-7.4862,0.018921,0.017928,2.9566e-07,0,0.67,0
0.00045411,-0.00012144,0.030537,0.012742,0.012984,-0.0023259,0,0,0.045638,-0.00062883,0,-0.012095,0,0,0,0.030836,0.012443,0.012984,-7.325,0.018754,0.018129,3.0508e-07,0.01,0.67,0
0.00091276,-0.00023961,0.030655,0.012424,0.012924,-0.0022799,0,0,0.046101,-0.0012991,0,-0.011855,0,0,0,0.030936,0.012143,0.012924,-7.0212,0.018668,0.018415,3.1877e-07,0.02,0.67,0
0.0013761,-0.00035421,0.030772,0.01209,0.012859,-0.002226,0,0,0.046575,-0.001998,0,-0.011576,0,0,0,0.031034,0.011829,0.012859,-6.7021,0.018574,0.018711,3.3303e-07,0.03,0.67,0
0.0018443,-0.00046497,0.030885,0.011745,0.012789,-0.002164,0,0,0.04705,-0.0027153,0,-0.011253,0,0,0,0.031127,0.011503,0.012789,-6.3707,0.018473,0.019013,3.4759e-07,0.04,0.67,0
0.0023171,-0.00057158,0.030991,0.01139,0.012715,-0.0020935,0,0,0.04752,-0.0034429,0,-0.010886,0,0,0,0.031212,0.011169,0.012715,-6.0288,0.018365,0.019317,3.6222e-07,0.05,0.67,0
0.0027947,-0.00067374,0.031088,0.01103,0.012635,-0.002014,0,0,0.047976,-0.0041741,0,-0.010473,0,0,0,0.031288,0.01083,0.012635,-5.6777,0.018251,0.019618,3.7672e-07,0.06,0.67,0
0.0032767,-0.00077114,0.031172,0.010665,0.012551,-0.0019256,0,0,0.048415,-0.0049038,0,-0.010013,0,0,0,0.031352,0.010486,0.012551,-5.3181,0.01813,0.019914,3.909e-07,0.07,0.67,0
0.003763,-0.0008635,0.031243,0.010297,0.012462,-0.0018281,0,0,0.04883,-0.0056283,0,-0.0095063,0,0,0,0.031401,0.010139,0.012462,-4.9509,0.018001,0.020201,4.0459e-07,0.08,0.67,0
0.0042533,-0.00095052,0.031298,0.0099269,0.012367,-0.0017218,0,0,0.049219,-0.0063451,0,-0.0089535,0,0,0,0.031435,0.0097891,0.012367,-4.5769,0.017864,0.020479,4.1766e-07,0.09,0.67,0
0.0047473,-0.001032,0.031334,0.0095537,0.012266,-0.0016072,0,0,0.049576,-0.0070528,0,-0.0083575,0,0,0,0.031452,0.0094358,0.012266,-4.1976,0.017718,0.020746,4.2997e-07,0.1,0.67,0
0.0052448,-0.0011076,0.031351,0.0091771,0.012158,-0.0014853,0,0,0.0499,-0.0077511,0,-0.0077234,0,0,0,0.03145,0.009078,0.012158,-3.8152,0.017562,0.021001,4.4144e-07,0.11,0.67,0
0.0057453,-0.0011775,0.031345,0.0087957,0.012042,-0.0013575,0,0,0.050187,-0.0084407,0,-0.007059,0,0,0,0.031426,0.0087143,0.012042,-3.4328,0.017394,0.021244,4.5197e-07,0.12,0.67,0
0.0062485,-0.0012414,0.031315,0.0084078,0.011917,-0.0012261,0,0,0.050434,-0.009123,0,-0.0063758,0,0,0,0.03138,0.0083424,0.011917,-3.0552,0.017213,0.021475,4.6149e-07,0.13,0.67,0
0.006754,-0.0012996,0.031258,0.0080115,0.011781,-0.0010943,0,0,0.05064,-0.0097998,0,-0.0056903,0,0,0,0.031309,0.0079601,0.011781,-2.6893,0.017017,0.021692,4.699e-07,0.14,0.67,0
0.0072613,-0.0013525,0.031171,0.0076048,0.011633,-0.00096628,0,0,0.050799,-0.010472,0,-0.0050247,0,0,0,0.03121,0.0075652,0.011633,-2.3441,0.016803,0.021896,4.7709e-07,0.15,0.67,0
0.00777,-0.0014008,0.031051,0.0071871,0.011472,-0.00084792,0,0,0.050907,-0.011139,0,-0.0044092,0,0,0,0.031081,0.007157,0.011472,-2.0324,0.01657,0.022085,4.8287e-07,0.16,0.67,0
0.0082795,-0.0014455,0.030892,0.0067577,0.011295,-0.00074643,0,0,0.050953,-0.011797,0,-0.0038814,0,0,0,0.030916,0.0067346,0.011295,-1.7698,0.016315,0.022254,4.8688e-07,0.17,0.67,0
0.0087891,-0.001488,0.030684,0.0063219,0.011102,-0.00067111,0,0,0.050914,-0.012428,0,-0.0034898,0,0,0,0.030703,0.0063034,0.011102,-1.5767,0.016036,0.022389,4.8835e-07,0.18,0.67,0
0.0092978,-0.0015303,0.030413,0.0058972,0.010893,-0.00062666,0,0,0.050752,-0.012989,0,-0.0032586,0,0,0,0.030429,0.0058812,0.010893,-1.4633,0.015734,0.022465,4.8603e-07,0.19,0.67,0
0.0098041,-0.0015746,0.03006,0.0055032,0.010669,-0.00060264,0,0,0.050416,-0.013431,0,-0.0031337,0,0,0,0.030074,0.0054884,0.010669,-1.405,0.015411,0.022449,4.7835e-07,0.2,0.67,0
0.010306,-0.0016222,0.029663,0.0051777,0.010452,-0.00057943,0,0,0.049948,-0.013713,0,-0.0030131,0,0,0,0.029677,0.005164,0.010452,-1.3549,0.015097,0.022343,4.6646e-07,0.21,0.67,0
0.010803,-0.0016752,0.0292,0.0048004,0.0102,-0.00053741,0,0,0.0494,-0.014039,0,-0.0027945,0,0,0,0.029212,0.0047886,0.0102,-1.2611,0.014734,0.022218,4.526e-07,0.22,0.67,0
0.011294,-0.0017368,0.028649,0.0043457,0.0098984,-0.00056169,0,0,0.048752,-0.014437,0,-0.0029208,0,0,0,0.028662,0.0043327,0.0098984,-1.3233,0.014298,0.022079,4.3662e-07,0.23,0.67,0
0.011778,-0.001813,0.027969,0.0040167,0.0095956,-0.00060343,0,0,0.04777,-0.014505,0,-0.0031378,0,0,0,0.027984,0.0040015,0.0095956,-1.4423,0.01386,0.021732,4.1173e-07,0.24,0.67,0
0.012249,-0.0019038,0.027404,0.0040657,0.009441,-0.00057001,0,0,0.046705,-0.013976,0,-0.0029641,0,0,0,0.027418,0.0040517,0.009441,-1.3982,0.013637,0.021192,3.8431e-07,0.25,0.67,0
0.012712,-0.0020078,0.026758,0.0036343,0.0091177,-0.00033658,0,0,0.045865,-0.014257,0,-0.0017502,0,0,0,0.026763,0.0036294,0.0091177,-0.83374,0.01317,0.020936,3.6438e-07,0.26,0.67,0
0.013167,-0.0021313,0.026255,0.0030465,0.0087905,-0.00025018,0,0,0.045408,-0.014934,0,-0.0013009,0,0,0,0.026258,0.0030438,0.0087905,-0.61752,0.012697,0.020941,3.5461e-07,0.27,0.67,0
0.01362,-0.0022805,0.026091,0.0026975,0.0086367,-5.2596e-05,0,0,0.045382,-0.015442,0,-0.0002735,0,0,0,0.026091,0.0026974,0.0086367,-0.12882,0.012475,0.021062,3.5434e-07,0.28,0.67,0
0.014074,-0.0024527,0.026197,0.0020343,0.0084694,0.00035631,0,0,0.046092,-0.016731,0,0.0018528,0,0,0,0.026202,0.0020291,0.0084694,0.84465,0.012234,0.021683,3.7203e-07,0.29,0.67,0
0.014542,-0.0026281,0.02637,0.0010819,0.0082357,0.00078059,0,0,0.04715,-0.0186,0,0.0040591,0,0,0,0.026395,0.0010578,0.0082357,1.7663,0.011896,0.022619,3.988e-07,0.3,0.67,0
0.015017,-0.0028125,0.030649,-0.0017697,0.0086638,0.0024221,0,0,0.039453,-0.018264,0,0.0083901,0,0,0,0.03083,-0.0019507,0.0086638,4.1614,0.012514,0.028975,8.229e-07,0.31,0.67,0
0.015372,-0.0029714,0.024754,-0.00097584,0.0071336,0.0023021,0,0,0.031761,-0.014213,0,0.0091629,0,0,0,0.024979,-0.0012006,0.0071336,5.4696,0.010304,0.023169,4.2181e-07,0.32,0.67,0
0.015616,-0.0030913,0.027632,-0.0021019,0.0076589,0.0022787,0,0,0.025965,-0.012689,0,0.0059245,0,0,0,0.027805,-0.0022755,0.0076589,4.357,0.011063,0.026546,5.2707e-07,0.33,0.67,0
0.015891,-0.0032017,0.029964,-0.0010115,0.0086857,0.0025286,0,0,0.027662,-0.012606,0,0.0065744,0,0,0,0.030169,-0.0012166,0.0086857,4.6363,0.012546,0.027791,6.4917e-07,0.34,0.67,0
0.016169,-0.003322,0.030696,-0.00073569,0.008988,0.0025195,0,0,0.02822,-0.012641,0,0.0065507,0,0,0,0.030896,-0.00093637,0.008988,4.554,0.012983,0.028212,6.906e-07,0.35,0.67,0
0.016455,-0.0034392,0.031558,-0.00075161,0.0092419,0.0025962,0,0,0.029011,-0.012992,0,0.0067502,0,0,0,0.031765,-0.00095889,0.0092419,4.5649,0.013349,0.029002,7.5044e-07,0.36,0.67,0
0.01675,-0.0035547,0.032378,-0.00083402,0.0094632,0.0025776,0,0,0.029789,-0.013386,0,0.0067016,0,0,0,0.032577,-0.0010329,0.0094632,4.4114,0.013669,0.029783,8.1065e-07,0.37,0.67,0
0.017051,-0.00367,0.033072,-0.00096294,0.0096326,0.0024896,0,0,0.030471,-0.013774,0,0.006473,0,0,0,0.033253,-0.0011441,0.0096326,4.1616,0.013914,0.030473,8.6442e-07,0.38,0.67,0
0.017359,-0.0037866,0.033672,-0.0010972,0.0097723,0.0023436,0,0,0.031069,-0.01413,0,0.0060935,0,0,0,0.033829,-0.0012545,0.0097723,3.8389,0.014116,0.031074,9.1245e-07,0.39,0.67,0
0.017672,-0.0039057,0.034199,-0.0012016,0.0098992,0.0021424,0,0,0.03159,-0.014431,0,0.0055702,0,0,0,0.034328,-0.0013307,0.0098992,3.4506,0.014299,0.031579,9.5497e-07,0.4,0.67,0
0.017991,-0.0040283,0.03466,-0.0012371,0.010027,0.0018918,0,0,0.032023,-0.014643,0,0.0049186,0,0,0,0.03476,-0.0013365,0.010027,3.0083,0.014483,0.031967,9.9114e-07,0.41,0.67,0
0.018313,-0.0041553,0.035054,-0.0011651,0.010167,0.0016102,0,0,0.032354,-0.014731,0,0.0041866,0,0,0,0.035125,-0.0012366,0.010167,2.5406,0.014685,0.032212,1.0196e-06,0.42,0.67,0
0.018638,-0.0042865,0.03538,-0.00096388,0.010325,0.0013319,0,0,0.032572,-0.014675,0,0.0034628,0,0,0,0.035429,-0.0010126,0.010325,2.0959,0.014914,0.032301,1.0395e-06,0.43,0.67,0
0.018964,-0.0044213,0.035645,-0.0006469,0.010499,0.0010968,0,0,0.032689,-0.01449,0,0.0028516,0,0,0,0.035678,-0.00068001,0.010499,1.7294,0.015166,0.032255,1.0516e-06,0.44,0.67,0
0.019292,-0.0045581,0.035864,-0.00026636,0.010679,0.00093493,0,0,0.03274,-0.014229,0,0.0024308,0,0,0,0.035888,-0.00029053,0.010679,1.4813,0.015426,0.032131,1.0584e-06,0.45,0.67,0
0.019619,-0.0046951,0.036058,0.00011124,0.010851,0.00085189,0,0,0.03277,-0.013961,0,0.0022149,0,0,0,0.036078,9.1067e-05,0.010851,1.3568,0.015673,0.031995,1.0632e-06,0.46,0.67,0
0.019947,-0.0048305,0.036243,0.00043603,0.011004,0.00083129,0,0,0.032811,-0.013738,0,0.0021614,0,0,0,0.036262,0.00041674,0.011004,1.3292,0.015894,0.031898,1.0689e-06,0.47,0.67,0
0.020275,-0.0049631,0.036425,0.00069266,0.011135,0.00084765,0,0,0.032877,-0.013576,0,0.0022039,0,0,0,0.036445,0.00067256,0.011135,1.3581,0.016085,0.031857,1.0768e-06,0.48,0.67,0
0.020605,-0.0050921,0.036608,0.00089421,0.011251,0.00088488,0,0,0.032965,-0.013463,0,0.0023007,0,0,0,0.03663,0.0008723,0.011251,1.4185,0.016251,0.031862,1.0866e-06,0.49,0.67,0
0.020935,-0.0052171,0.036797,0.0010582,0.011357,0.00094021,0,0,0.033073,-0.013388,0,0.0024445,0,0,0,0.036822,0.0010335,0.011357,1.5059,0.016404,0.031905,1.0983e-06,0.5,0.67,0
0.021266,-0.0053376,0.036997,0.0011679,0.011449,0.0010138,0,0,0.033212,-0.013366,0,0.0026359,0,0,0,0.037026,0.0011392,0.011449,1.6195,0.016538,0.032002,1.1131e-06,0.51,0.67,0
0.021599,-0.0054533,0.037206,0.0011979,0.011521,0.0010777,0,0,0.03339,-0.01342,0,0.0028021,0,0,0,0.037238,0.0011657,0.011521,1.7128,0.016642,0.03217,1.1317e-06,0.52,0.67,0
0.021934,-0.0055649,0.037358,0.0011533,0.011553,0.0011072,0,0,0.033546,-0.01352,0,0.0028786,0,0,0,0.037392,0.0011195,0.011553,1.7499,0.016688,0.032343,1.1476e-06,0.53,0.67,0
0.02227,-0.0056724,0.037509,0.0012546,0.011629,0.0011197,0,0,0.033644,-0.013487,0,0.0029111,0,0,0,0.037544,0.0012201,0.011629,1.7672,0.016798,0.032399,1.1582e-06,0.54,0.67,0
0.022607,-0.0057742,0.037722,0.0014329,0.011746,0.0012451,0,0,0.033768,-0.013408,0,0.0032372,0,0,0,0.037765,0.0013902,0.011746,1.9627,0.016967,0.03246,1.1727e-06,0.55,0.67,0
0.022945,-0.0058691,0.037809,0.0011459,0.011687,0.0014087,0,0,0.033959,-0.013703,0,0.0036627,0,0,0,0.037863,0.0010918,0.011687,2.1972,0.01688,0.032784,1.1931e-06,0.56,0.67,0
0.023286,-0.0059568,0.038313,0.0010034,0.011795,0.0013385,0,0,0.034473,-0.014029,0,0.0034802,0,0,0,0.038361,0.00095541,0.011795,2.0521,0.017037,0.033335,1.2464e-06,0.57,0.67,0
0.023635,-0.0060456,0.038056,0.0006318,0.011606,0.0015262,0,0,0.034385,-0.014267,0,0.0039682,0,0,0,0.038118,0.00056966,0.011606,2.3315,0.016765,0.033426,1.2369e-06,0.58,0.67,0
0.023974,-0.0061253,0.034395,5.8882e-05,0.010336,0.0011211,0,0,0.043264,-0.018482,0,0.0040485,0,0,0,0.034431,2.2311e-05,0.010336,1.8733,0.01493,0.030585,1.0773e-06,0.59,0.67,0
0.024453,-0.0061038,0.042582,-0.0013532,0.012369,-0.00098586,0,0,0.05458,-0.024497,0,-0.003602,0,0,0,0.042604,-0.0013754,0.012369,-1.2978,0.017866,0.038971,2.0741e-06,0.6,0.67,0
0.025132,-0.0059788,0.036981,0.00037976,0.011208,0.00021808,0,0,0.067009,-0.028154,0,0.001134,0,0,0,0.036982,0.00037846,0.011208,0.34137,0.01619,0.032569,1.1355e-06,0.61,0.67,0
0.025793,-0.0058914,0.036135,0.00096769,0.011131,-3.8645e-05,0,0,0.065012,-0.026424,0,-0.00020095,0,0,0,0.036135,0.00096765,0.011131,-0.062961,0.016078,0.031347,1.0396e-06,0.62,0.67,0
0.026432,-0.0058079,0.035395,0.0013295,0.011017,-8.6176e-05,0,0,0.063381,-0.025188,0,-0.00044811,0,0,0,0.035395,0.0013293,0.011017,-0.14494,0.015914,0.030402,9.646e-07,0.63,0.67,0
0.027061,-0.0057406,0.035142,0.0016336,0.011033,-0.00028263,0,0,0.062685,-0.024438,0,-0.0014697,0,0,0,0.035145,0.0016312,0.011033,-0.48323,0.015936,0.029941,9.342e-07,0.64,0.67,0
0.027685,-0.0056891,0.035013,0.0016838,0.011009,-0.00044834,0,0,0.062411,-0.024246,0,-0.0023314,0,0,0,0.035019,0.0016778,0.011009,-0.77055,0.015902,0.029793,9.2254e-07,0.65,0.67,0
0.028309,-0.005652,0.034987,0.0016387,0.010988,-0.0005672,0,0,0.062398,-0.024308,0,-0.0029495,0,0,0,0.034997,0.001629,0.010988,-0.97413,0.015871,0.029811,9.2231e-07,0.66,0.67,0
0.028933,-0.0056264,0.034993,0.001535,0.010958,-0.00064376,0,0,0.062489,-0.024501,0,-0.0033475,0,0,0,0.035005,0.0015226,0.010958,-1.1019,0.015829,0.029903,9.2641e-07,0.67,0.67,0
0.029559,-0.0056101,0.035008,0.0013909,0.01092,-0.00069059,0,0,0.062629,-0.024775,0,-0.0035911,0,0,0,0.035022,0.0013767,0.01092,-1.1764,0.015773,0.030033,9.3247e-07,0.68,0.67,0
0.030186,-0.0056014,0.035027,0.0012225,0.010875,-0.00071393,0,0,0.062795,-0.025096,0,-0.0037125,0,0,0,0.035042,0.0012075,0.010875,-1.2093,0.015708,0.030185,9.395e-07,0.69,0.67,0
0.030815,-0.0055986,0.035046,0.0010424,0.010826,-0.00071838,0,0,0.062971,-0.025439,0,-0.0037356,0,0,0,0.035061,0.0010272,0.010826,-1.2097,0.015638,0.030345,9.4681e-07,0.7,0.67,0
0.031445,-0.0056005,0.035063,0.00085894,0.010777,-0.00070801,0,0,0.063145,-0.025786,0,-0.0036816,0,0,0,0.035078,0.00084429,0.010777,-1.1853,0.015566,0.030505,9.5392e-07,0.71,0.67,0
0.032078,-0.0056059,0.035076,0.00067784,0.010726,-0.00068643,0,0,0.06331,-0.026126,0,-0.0035695,0,0,0,0.03509,0.00066415,0.010726,-1.1428,0.015493,0.030659,9.6054e-07,0.72,0.67,0
0.032711,-0.0056141,0.035084,0.00050272,0.010676,-0.0006567,0,0,0.063461,-0.026451,0,-0.0034148,0,0,0,0.035097,0.00049025,0.010676,-1.0875,0.015421,0.030803,9.6648e-07,0.73,0.67,0
0.033347,-0.0056242,0.035087,0.00033581,0.010627,-0.00062128,0,0,0.063596,-0.026757,0,-0.0032306,0,0,0,0.035098,0.00032471,0.010627,-1.0239,0.01535,0.030937,9.7169e-07,0.74,0.67,0
0.033983,-0.0056357,0.035085,0.00017847,0.010579,-0.00058216,0,0,0.063715,-0.027041,0,-0.0030272,0,0,0,0.035094,0.00016876,0.010579,-0.95522,0.015281,0.031058,9.7613e-07,0.75,0.67,0
0.034621,-0.0056481,0.035078,3.1377e-05,0.010533,-0.00054092,0,0,0.063817,-0.027304,0,-0.0028128,0,0,0,0.035086,2.303e-05,0.010533,-0.88405,0.015214,0.031167,9.7982e-07,0.76,0.67,0
0.03526,-0.005661,0.035067,-0.00010521,0.010488,-0.0004988,0,0,0.063903,-0.027543,0,-0.0025938,0,0,0,0.035074,-0.00011228,0.010488,-0.81234,0.01515,0.031264,9.8282e-07,0.77,0.67,0
0.035899,-0.0056741,0.035052,-0.00023132,0.010446,-0.00045674,0,0,0.063974,-0.027761,0,-0.0023751,0,0,0,0.035058,-0.00023723,0.010446,-0.74154,0.015089,0.03135,9.8517e-07,0.78,0.67,0
0.036539,-0.0056872,0.035034,-0.00034721,0.010406,-0.0004155,0,0,0.064032,-0.027958,0,-0.0021606,0,0,0,0.035038,-0.00035209,0.010406,-0.67275,0.015031,0.031424,9.8694e-07,0.79,0.67,0
0.03718,-0.0057,0.035013,-0.00045327,0.010368,-0.00037564,0,0,0.064077,-0.028135,0,-0.0019533,0,0,0,0.035017,-0.00045725,0.010368,-0.60675,0.014976,0.031489,9.8818e-07,0.8,0.67,0
0.037821,-0.0057125,0.03499,-0.00054995,0.010332,-0.00033755,0,0,0.064111,-0.028293,0,-0.0017553,0,0,0,0.034993,-0.00055316,0.010332,-0.54412,0.014924,0.031545,9.8897e-07,0.81,0.67,0
0.038462,-0.0057245,0.034966,-0.00063779,0.010298,-0.00030155,0,0,0.064135,-0.028434,0,-0.0015681,0,0,0,0.034968,-0.00064034,0.010298,-0.48523,0.014875,0.031593,9.8936e-07,0.82,0.67,0
0.039103,-0.0057359,0.03494,-0.00071732,0.010267,-0.00026782,0,0,0.06415,-0.028559,0,-0.0013927,0,0,0,0.034942,-0.00071933,0.010267,-0.43031,0.01483,0.031633,9.8942e-07,0.83,0.67,0
0.039745,-0.0057467,0.034914,-0.00078909,0.010238,-0.00023648,0,0,0.064159,-0.028669,0,-0.0012297,0,0,0,0.034916,-0.00079066,0.010238,-0.37947,0.014788,0.031667,9.8921e-07,0.84,0.67,0
0.040387,-0.0057568,0.034888,-0.00085365,0.01021,-0.00020757,0,0,0.064161,-0.028766,0,-0.0010794,0,0,0,0.034889,-0.00085485,0.01021,-0.33274,0.014748,0.031695,9.8877e-07,0.85,0.67,0
0.041028,-0.0057662,0.034861,-0.00091151,0.010185,-0.00018111,0,0,0.064159,-0.028851,0,-0.00094178,0,0,0,0.034862,-0.00091243,0.010185,-0.29007,0.014712,0.031717,9.8815e-07,0.86,0.67,0
0.04167,-0.0057749,0.034836,-0.00096318,0.010162,-0.00015704,0,0,0.064152,-0.028925,0,-0.00081661,0,0,0,0.034836,-0.00096387,0.010162,-0.25133,0.014678,0.031735,9.874e-07,0.87,0.67,0
0.042311,-0.0057829,0.034811,-0.0010091,0.010141,-0.00013528,0,0,0.064143,-0.028989,0,-0.00070348,0,0,0,0.034811,-0.0010096,0.010141,-0.21639,0.014647,0.03175,9.8656e-07,0.88,0.67,0
0.042953,-0.0057902,0.034787,-0.0010498,0.010121,-0.00011574,0,0,0.064131,-0.029045,0,-0.00060183,0,0,0,0.034787,-0.0010502,0.010121,-0.18504,0.01462,0.031761,9.8567e-07,0.89,0.67,0
0.043594,-0.0057967,0.034765,-0.0010856,0.010104,-9.8267e-05,0,0,0.064118,-0.029092,0,-0.00051099,0,0,0,0.034765,-0.0010858,0.010104,-0.15705,0.014594,0.03177,9.8475e-07,0.9,0.67,0
0.044235,-0.0058026,0.034744,-0.0011168,0.010088,-8.2725e-05,0,0,0.064105,-0.029133,0,-0.00043017,0,0,0,0.034744,-0.001117,0.010088,-0.13217,0.014572,0.031776,9.8384e-07,0.91,0.67,0
0.044876,-0.0058078,0.034725,-0.0011439,0.010074,-6.8951e-05,0,0,0.064091,-0.029167,0,-0.00035855,0,0,0,0.034725,-0.0011441,0.010074,-0.11014,0.014552,0.031781,9.8297e-07,0.92,0.67,0
0.045517,-0.0058123,0.034707,-0.0011671,0.010062,-5.677e-05,0,0,0.064078,-0.029196,0,-0.00029521,0,0,0,0.034707,-0.0011672,0.010062,-0.090669,0.014534,0.031784,9.8214e-07,0.93,0.67,0
0.046158,-0.0058162,0.034692,-0.0011867,0.010052,-4.5999e-05,0,0,0.064065,-0.02922,0,-0.0002392,0,0,0,0.034692,-0.0011868,0.010052,-0.073457,0.014519,0.031786,9.8139e-07,0.94,0.67,0
0.046798,-0.0058195,0.034679,-0.0012029,0.010043,-3.6448e-05,0,0,0.064054,-0.029239,0,-0.00018953,0,0,0,0.034679,-0.001203,0.010043,-0.0582,0.014506,0.031788,9.8073e-07,0.95,0.67,0
0.047439,-0.0058221,0.034668,-0.0012159,0.010036,-2.792e-05,0,0,0.064044,-0.029254,0,-0.00014518,0,0,0,0.034668,-0.0012159,0.010036,-0.04458,0.014496,0.031788,9.8017e-07,0.96,0.67,0
0.048079,-0.0058242,0.03466,-0.0012259,0.01003,-2.0216e-05,0,0,0.064036,-0.029265,0,-0.00010512,0,0,0,0.03466,-0.0012259,0.01003,-0.032277,0.014488,0.031789,9.7972e-07,0.97,0.67,0
0.048719,-0.0058257,0.034653,-0.0012329,0.010026,-1.3131e-05,0,0,0.064031,-0.029274,0,-6.8284e-05,0,0,0,0.034653,-0.0012329,0.010026,-0.020966,0.014482,0.031789,9.794e-07,0.98,0.67,0
0.04936,-0.0058265,0.03465,-0.0012371,0.010024,-6.4619e-06,0,0,0.064027,-0.029278,0,-3.3602e-05,0,0,0,0.03465,-0.0012371,0.010024,-0.010317,0.014479,0.031789,9.792e-07,0.99,0.67,0
0.05,-0.0058268,0.034648,-0.0012385,0.010023,-5.572e-06,0,0,0.064026,-0.02928,0,-2.8975e-05,0,0,0,0.034648,-0.0012385,0.010023,-0.0088961,0.014478,0.031789,9.7914e-07,1,0.67,0
0,0,0.030497,0.01307,0.01307,-0.0024579,0,0,0.045309,-5.421e-20,0,-0.012781,0,0,0,0.030837,0.01273,0.01307,-7.8766,0.018879,0.017939,2.9615e-07,0,0.68,0
0.00045309,-0.00012781,0.030468,0.012701,0.012951,-0.0024474,0,0,0.045545,-0.00064947,0,-0.012727,0,0,0,0.030798,0.01237,0.012951,-7.7016,0.018706,0.018145,3.0579e-07,0.01,0.68,0
0.00091089,-0.00025276,0.03059,0.012374,0.012889,-0.002402,0,0,0.046023,-0.0013401,0,-0.01249,0,0,0,0.030902,0.012062,0.012889,-7.3869,0.018618,0.01844,3.1984e-07,0.02,0.68,0
0.0013736,-0.00037444,0.030712,0.01203,0.012823,-0.0023455,0,0,0.046512,-0.0020598,0,-0.012197,0,0,0,0.031002,0.01174,0.012823,-7.0479,0.018522,0.018744,3.3442e-07,0.03,0.68,0
0.0018411,-0.00049246,0.03083,0.011675,0.012752,-0.0022779,0,0,0.047004,-0.0027987,0,-0.011845,0,0,0,0.031097,0.011408,0.012752,-6.6894,0.018419,0.019053,3.4928e-07,0.04,0.68,0
0.0023136,-0.00060645,0.030942,0.011311,0.012676,-0.0021993,0,0,0.047491,-0.0035486,0,-0.011436,0,0,0,0.031185,0.011068,0.012676,-6.3147,0.01831,0.019364,3.6423e-07,0.05,0.68,0
0.002791,-0.00071602,0.031045,0.010941,0.012596,-0.0021095,0,0,0.047968,-0.004303,0,-0.01097,0,0,0,0.031264,0.010722,0.012596,-5.9261,0.018194,0.019672,3.7906e-07,0.06,0.68,0
0.003273,-0.00082083,0.031137,0.010566,0.012511,-0.0020087,0,0,0.048427,-0.0050568,0,-0.010445,0,0,0,0.031331,0.010372,0.012511,-5.5252,0.018071,0.019976,3.9361e-07,0.07,0.68,0
0.0037595,-0.00092053,0.031216,0.010188,0.012421,-0.0018967,0,0,0.048866,-0.0058059,0,-0.009863,0,0,0,0.031385,0.010018,0.012421,-5.1132,0.017942,0.020273,4.0772e-07,0.08,0.68,0
0.0042503,-0.0010148,0.03128,0.0098081,0.012326,-0.0017741,0,0,0.049279,-0.0065477,0,-0.0092251,0,0,0,0.031426,0.0096625,0.012326,-4.6915,0.017805,0.020561,4.2127e-07,0.09,0.68,0
0.0047451,-0.0011035,0.031328,0.0094261,0.012226,-0.0016412,0,0,0.049664,-0.0072801,0,-0.0085345,0,0,0,0.03145,0.0093038,0.012226,-4.2619,0.01766,0.020839,4.3415e-07,0.1,0.68,0
0.0052436,-0.0011862,0.031357,0.0090419,0.01212,-0.0014993,0,0,0.050017,-0.0080024,0,-0.0077961,0,0,0,0.031457,0.0089416,0.01212,-3.8265,0.017506,0.021107,4.4627e-07,0.11,0.68,0
0.0057454,-0.001263,0.031367,0.0086547,0.012006,-0.0013496,0,0,0.050337,-0.0087145,0,-0.0070177,0,0,0,0.031447,0.0085748,0.012006,-3.3887,0.017343,0.021364,4.5754e-07,0.12,0.68,0
0.0062503,-0.0013339,0.031355,0.0082636,0.011886,-0.0011943,0,0,0.05062,-0.0094169,0,-0.0062102,0,0,0,0.031416,0.008202,0.011886,-2.9528,0.017168,0.021609,4.6791e-07,0.13,0.68,0
0.0067578,-0.0013989,0.031319,0.0078676,0.011756,-0.0010363,0,0,0.050864,-0.01011,0,-0.0053887,0,0,0,0.031365,0.0078219,0.011756,-2.5252,0.016981,0.021843,4.7728e-07,0.14,0.68,0
0.0072676,-0.0014586,0.031258,0.0074658,0.011617,-0.00087946,0,0,0.051066,-0.010793,0,-0.0045732,0,0,0,0.03129,0.0074334,0.011617,-2.1141,0.01678,0.022065,4.8553e-07,0.15,0.68,0
0.0077792,-0.0015135,0.031167,0.0070584,0.011468,-0.00072858,0,0,0.051219,-0.011464,0,-0.0037886,0,0,0,0.031189,0.0070364,0.011468,-1.7294,0.016564,0.02227,4.9244e-07,0.16,0.68,0
0.008292,-0.0015647,0.031043,0.0066476,0.011307,-0.00058927,0,0,0.051313,-0.012115,0,-0.0030642,0,0,0,0.031057,0.0066333,0.011307,-1.3829,0.016333,0.022455,4.9764e-07,0.17,0.68,0
0.0088054,-0.0016133,0.030878,0.0062393,0.011135,-0.00046625,0,0,0.051332,-0.01273,0,-0.0024245,0,0,0,0.030887,0.0062304,0.011135,-1.0837,0.016084,0.022607,5.0054e-07,0.18,0.68,0
0.0093186,-0.0016612,0.030666,0.0058431,0.010953,-0.00036041,0,0,0.051255,-0.013285,0,-0.0018741,0,0,0,0.030671,0.0058379,0.010953,-0.83165,0.015821,0.022712,5.0037e-07,0.19,0.68,0
0.0098305,-0.0017099,0.030409,0.0054721,0.010764,-0.00026744,0,0,0.051075,-0.013759,0,-0.0013907,0,0,0,0.030411,0.0054693,0.010764,-0.6144,0.015548,0.022761,4.9692e-07,0.2,0.68,0
0.01034,-0.0017614,0.030106,0.0051125,0.010565,-0.00018068,0,0,0.050804,-0.014178,0,-0.00093954,0,0,0,0.030107,0.0051112,0.010565,-0.41418,0.015261,0.022764,4.906e-07,0.21,0.68,0
0.010847,-0.001818,0.029757,0.004746,0.010351,-0.00011291,0,0,0.050456,-0.014573,0,-0.00058715,0,0,0,0.029758,0.0047455,0.010351,-0.25866,0.014951,0.022734,4.8201e-07,0.22,0.68,0
0.011349,-0.0018831,0.02935,0.0043828,0.01012,-7.0079e-05,0,0,0.049999,-0.014916,0,-0.00036441,0,0,0,0.02935,0.0043826,0.01012,-0.16082,0.014618,0.022651,4.7025e-07,0.23,0.68,0
0.011847,-0.0019598,0.028932,0.0041131,0.0099135,-3.7525e-05,0,0,0.049448,-0.015081,0,-0.00019513,0,0,0,0.028932,0.004113,0.0099135,-0.086627,0.01432,0.022487,4.5563e-07,0.24,0.68,0
0.012338,-0.0020506,0.02851,0.00385,0.009708,4.6218e-05,0,0,0.048885,-0.015231,0,0.00024033,0,0,0,0.02851,0.00385,0.009708,0.10738,0.014023,0.022315,4.409e-07,0.25,0.68,0
0.012824,-0.0021578,0.028083,0.0034536,0.0094609,0.00012751,0,0,0.048417,-0.015619,0,0.00066304,0,0,0,0.028083,0.003453,0.0094609,0.29662,0.013666,0.022243,4.2929e-07,0.26,0.68,0
0.013307,-0.0022869,0.027703,0.0030114,0.0092142,0.00015682,0,0,0.04807,-0.016127,0,0.00081546,0,0,0,0.027704,0.0030104,0.0092142,0.36388,0.013309,0.02225,4.2093e-07,0.27,0.68,0
0.013786,-0.0024453,0.027541,0.0025658,0.009032,0.00014048,0,0,0.048123,-0.016812,0,0.00073047,0,0,0,0.027542,0.002565,0.009032,0.32225,0.013046,0.022453,4.2287e-07,0.28,0.68,0
0.014269,-0.0026283,0.027114,0.0013769,0.0085472,0.00017315,0,0,0.048273,-0.018643,0,0.00090038,0,0,0,0.027115,0.0013757,0.0085472,0.38544,0.012346,0.023008,4.2675e-07,0.29,0.68,0
0.014751,-0.0028315,0.027437,0.00046632,0.0083711,0.0010498,0,0,0.049572,-0.020552,0,0.0054591,0,0,0,0.027478,0.00042551,0.0083711,2.2257,0.012091,0.024084,4.6304e-07,0.3,0.68,0
0.01526,-0.0029897,0.026871,-0.0022257,0.0073935,0.0012754,0,0,0.038053,-0.016673,0,0.0036924,0,0,0,0.026951,-0.0023063,0.0073935,2.3183,0.010679,0.025904,4.489e-07,0.31,0.68,0
0.015512,-0.0031041,0.027793,-0.0023713,0.0076265,0.00094909,0,0,0.026217,-0.012997,0,0.0024676,0,0,0,0.027823,-0.0024011,0.0076265,1.8004,0.011016,0.026664,5.2997e-07,0.32,0.68,0
0.015785,-0.0032122,0.029509,-0.0012139,0.0084885,0.0015313,0,0,0.027327,-0.012613,0,0.0039815,0,0,0,0.029585,-0.00129,0.0084885,2.8464,0.012261,0.027331,6.1409e-07,0.33,0.68,0
0.016059,-0.0033304,0.030028,-0.0013164,0.0086136,0.0015261,0,0,0.027839,-0.012909,0,0.0039679,0,0,0,0.030103,-0.0013905,0.0086136,2.7808,0.012442,0.027872,6.4844e-07,0.34,0.68,0
0.016342,-0.0034491,0.031012,-0.00087988,0.0090398,0.0016872,0,0,0.028564,-0.012896,0,0.0043868,0,0,0,0.031102,-0.00096889,0.0090398,3.0199,0.013057,0.02842,7.0504e-07,0.35,0.68,0
0.01663,-0.003569,0.031708,-0.00077644,0.0092794,0.001815,0,0,0.029157,-0.013073,0,0.0047189,0,0,0,0.031809,-0.00087753,0.0092794,3.188,0.013404,0.028975,7.5163e-07,0.36,0.68,0
0.016925,-0.003688,0.03238,-0.00080294,0.009473,0.0018933,0,0,0.029779,-0.013359,0,0.0049227,0,0,0,0.032487,-0.00091062,0.009473,3.2551,0.013683,0.029605,8.011e-07,0.37,0.68,0
0.017226,-0.0038069,0.033004,-0.00087527,0.0096386,0.0018873,0,0,0.030375,-0.013668,0,0.0049069,0,0,0,0.033109,-0.00098008,0.0096386,3.1786,0.013922,0.030213,8.4926e-07,0.38,0.68,0
0.017532,-0.0039268,0.033563,-0.0009533,0.0097828,0.0018071,0,0,0.030914,-0.013957,0,0.0046985,0,0,0,0.033657,-0.0010477,0.0097828,2.9889,0.014131,0.030755,8.9349e-07,0.39,0.68,0
0.017844,-0.0040486,0.034056,-0.001003,0.0099159,0.0016653,0,0,0.031382,-0.014195,0,0.0043297,0,0,0,0.034135,-0.0010819,0.0099159,2.7133,0.014323,0.031207,9.326e-07,0.4,0.68,0
0.01816,-0.0041731,0.034484,-0.00099427,0.010047,0.001477,0,0,0.031768,-0.014354,0,0.0038403,0,0,0,0.034546,-0.0010557,0.010047,2.3798,0.014512,0.031551,9.6561e-07,0.41,0.68,0
0.018479,-0.0043008,0.034848,-0.00090366,0.010183,0.001264,0,0,0.032064,-0.014413,0,0.0032864,0,0,0,0.034893,-0.0009483,0.010183,2.0223,0.014709,0.031773,9.917e-07,0.42,0.68,0
0.018801,-0.0044315,0.03515,-0.0007221,0.010328,0.0010537,0,0,0.032268,-0.014366,0,0.0027398,0,0,0,0.035181,-0.00075302,0.010328,1.6811,0.014919,0.031872,1.0107e-06,0.43,0.68,0
0.019125,-0.0045648,0.035399,-0.00046235,0.010481,0.00087452,0,0,0.032393,-0.014226,0,0.0022738,0,0,0,0.03542,-0.00048366,0.010481,1.3961,0.015139,0.031869,1.0233e-06,0.44,0.68,0
0.019449,-0.0046993,0.035608,-0.00015753,0.010635,0.00074641,0,0,0.032464,-0.01403,0,0.0019407,0,0,0,0.035623,-0.0001731,0.010635,1.1951,0.015362,0.031801,1.0316e-06,0.45,0.68,0
0.019774,-0.0048339,0.035792,0.00015113,0.010783,0.00067538,0,0,0.032512,-0.013821,0,0.001756,0,0,0,0.035805,0.00013833,0.010783,1.0852,0.015575,0.031713,1.0376e-06,0.46,0.68,0
0.020099,-0.0049673,0.035965,0.00043042,0.010918,0.0006539,0,0,0.03256,-0.013635,0,0.0017002,0,0,0,0.035977,0.00041839,0.010918,1.0539,0.015771,0.031643,1.0437e-06,0.47,0.68,0
0.020425,-0.0050983,0.036135,0.00066422,0.01104,0.00066834,0,0,0.032624,-0.013488,0,0.0017377,0,0,0,0.036147,0.00065163,0.01104,1.0791,0.015946,0.031609,1.0511e-06,0.48,0.68,0
0.020752,-0.0052263,0.036307,0.00085137,0.011148,0.00070652,0,0,0.032708,-0.013385,0,0.0018369,0,0,0,0.036321,0.00083729,0.011148,1.1411,0.016102,0.031616,1.0603e-06,0.49,0.68,0
0.021079,-0.0053506,0.036485,0.00099318,0.011243,0.00076082,0,0,0.032814,-0.013325,0,0.0019781,0,0,0,0.036501,0.00097688,0.011243,1.2275,0.01624,0.031665,1.0715e-06,0.5,0.68,0
0.021408,-0.005471,0.036665,0.0010868,0.011326,0.00082245,0,0,0.032942,-0.01331,0,0.0021384,0,0,0,0.036685,0.0010678,0.011326,1.3235,0.016359,0.031756,1.0847e-06,0.51,0.68,0
0.021738,-0.0055871,0.036836,0.0011301,0.01139,0.00088105,0,0,0.03308,-0.013338,0,0.0022907,0,0,0,0.036858,0.0011084,0.01139,1.4126,0.016452,0.031877,1.0989e-06,0.52,0.68,0
0.02207,-0.0056991,0.036994,0.001163,0.011447,0.00093288,0,0,0.033211,-0.013369,0,0.0024255,0,0,0,0.037018,0.0011387,0.011447,1.4904,0.016535,0.031996,1.1124e-06,0.53,0.68,0
0.022402,-0.0058065,0.037147,0.0012107,0.011507,0.0010052,0,0,0.033331,-0.013385,0,0.0026136,0,0,0,0.037175,0.0011826,0.011507,1.601,0.016622,0.0321,1.1252e-06,0.54,0.68,0
0.022736,-0.0059088,0.037287,0.001204,0.011547,0.001112,0,0,0.033462,-0.013446,0,0.0028911,0,0,0,0.037322,0.0011698,0.011547,1.7634,0.01668,0.032241,1.1393e-06,0.55,0.68,0
0.023072,-0.0060053,0.037445,0.0010958,0.011562,0.0012007,0,0,0.033648,-0.013607,0,0.0031219,0,0,0,0.037485,0.0010562,0.011562,1.8899,0.016701,0.032476,1.1586e-06,0.56,0.68,0
0.023409,-0.0060974,0.037397,0.00078053,0.011453,0.0012581,0,0,0.033727,-0.013875,0,0.003271,0,0,0,0.037441,0.00073735,0.011453,1.9655,0.016544,0.03269,1.1658e-06,0.57,0.68,0
0.023746,-0.0061843,0.03742,0.00080038,0.011466,0.0011176,0,0,0.03374,-0.013865,0,0.0029058,0,0,0,0.037454,0.0007663,0.011466,1.7465,0.016562,0.032679,1.166e-06,0.58,0.68,0
0.024084,-0.00627,0.036078,0.0002019,0.010884,0.0015541,0,0,0.032752,-0.013887,0,0.0040407,0,0,0,0.036145,0.0001347,0.010884,2.4758,0.015721,0.032019,1.0677e-06,0.59,0.68,0
0.024401,-0.0063275,0.035265,-0.0011075,0.010247,0.00065016,0,0,0.049187,-0.019682,0,0.0041562,0,0,0,0.035324,-0.0011659,0.010247,1.1972,0.014802,0.032445,9.8013e-07,0.6,0.68,0
0.025068,-0.0062708,0.036087,0.00014722,0.01087,0.00011522,0,0,0.065563,-0.02788,0,0.00059915,0,0,0,0.036087,0.00014685,0.01087,0.18368,0.015702,0.031958,1.0622e-06,0.61,0.68,0
0.025712,-0.0061552,0.035647,0.000669,0.010895,0.0005432,0,0,0.064356,-0.026587,0,0.0028247,0,0,0,0.035656,0.00066057,0.010895,0.8895,0.015737,0.031165,1.0082e-06,0.62,0.68,0
0.026355,-0.0060602,0.035752,0.0017014,0.011236,0.00013283,0,0,0.063742,-0.02479,0,0.00069073,0,0,0,0.035753,0.0017009,0.011236,0.22351,0.01623,0.030426,9.8214e-07,0.63,0.68,0
0.026987,-0.0059845,0.035487,0.0018259,0.011194,-0.00018422,0,0,0.063161,-0.024356,0,-0.00095794,0,0,0,0.035488,0.0018249,0.011194,-0.31356,0.016169,0.030093,9.5587e-07,0.64,0.68,0
0.027618,-0.005932,0.035434,0.0018083,0.011173,-0.00041114,0,0,0.06308,-0.024348,0,-0.002138,0,0,0,0.035439,0.0018032,0.011173,-0.70042,0.016138,0.030067,9.526e-07,0.65,0.68,0
0.028249,-0.0058958,0.035408,0.0017359,0.011143,-0.00054551,0,0,0.063088,-0.024459,0,-0.0028367,0,0,0,0.035416,0.0017271,0.011143,-0.92792,0.016095,0.030107,9.5328e-07,0.66,0.68,0
0.02888,-0.0058723,0.035374,0.0016023,0.011093,-0.0006351,0,0,0.063131,-0.024675,0,-0.0033025,0,0,0,0.035386,0.0015904,0.011093,-1.077,0.016023,0.030188,9.5529e-07,0.67,0.68,0
0.029511,-0.0058589,0.035348,0.0014291,0.011033,-0.00069078,0,0,0.063218,-0.02497,0,-0.003592,0,0,0,0.035362,0.001415,0.011033,-1.1662,0.015937,0.030305,9.5906e-07,0.68,0.68,0
0.030144,-0.0058534,0.03533,0.0012368,0.01097,-0.00071794,0,0,0.063336,-0.025306,0,-0.0037333,0,0,0,0.035345,0.0012217,0.01097,-1.2058,0.015846,0.030443,9.64e-07,0.69,0.68,0
0.030778,-0.0058541,0.035317,0.0010382,0.010907,-0.00072232,0,0,0.063467,-0.025658,0,-0.003756,0,0,0,0.035332,0.001023,0.010907,-1.2066,0.015754,0.030589,9.6933e-07,0.7,0.68,0
0.031413,-0.0058594,0.035305,0.00084102,0.010844,-0.00070953,0,0,0.063599,-0.026007,0,-0.0036895,0,0,0,0.035319,0.00082642,0.010844,-1.1789,0.015663,0.030734,9.7453e-07,0.71,0.68,0
0.03205,-0.0058683,0.035291,0.00065001,0.010782,-0.00068431,0,0,0.063723,-0.026344,0,-0.0035584,0,0,0,0.035305,0.0006365,0.010782,-1.1313,0.015574,0.030872,9.7928e-07,0.72,0.68,0
0.032688,-0.0058796,0.035275,0.00046798,0.010723,-0.00065042,0,0,0.063835,-0.026662,0,-0.0033822,0,0,0,0.035287,0.00045583,0.010723,-1.0702,0.015489,0.031,9.8345e-07,0.73,0.68,0
0.033327,-0.0058928,0.035255,0.00029654,0.010666,-0.00061079,0,0,0.063934,-0.02696,0,-0.0031761,0,0,0,0.035266,0.00028587,0.010666,-1.0007,0.015406,0.031117,9.8695e-07,0.74,0.68,0
0.033967,-0.005907,0.035233,0.00013651,0.010611,-0.00056767,0,0,0.064018,-0.027233,0,-0.0029519,0,0,0,0.035242,0.00012733,0.010611,-0.9264,0.015327,0.031222,9.898e-07,0.75,0.68,0
0.034607,-0.005922,0.035208,-1.1829e-05,0.010559,-0.00052277,0,0,0.064087,-0.027484,0,-0.0027184,0,0,0,0.035215,-1.9587e-05,0.010559,-0.85021,0.015252,0.031316,9.92e-07,0.76,0.68,0
0.035248,-0.0059372,0.03518,-0.00014855,0.010509,-0.00047744,0,0,0.064143,-0.027711,0,-0.0024827,0,0,0,0.035186,-0.000155,0.010509,-0.77412,0.01518,0.031398,9.936e-07,0.77,0.68,0
0.03589,-0.0059525,0.03515,-0.00027394,0.010463,-0.00043266,0,0,0.064186,-0.027915,0,-0.0022498,0,0,0,0.035155,-0.00027923,0.010463,-0.69966,0.015113,0.03147,9.9465e-07,0.78,0.68,0
0.036532,-0.0059675,0.035118,-0.00038848,0.010419,-0.0003892,0,0,0.064218,-0.028099,0,-0.0020238,0,0,0,0.035122,-0.00039274,0.010419,-0.62794,0.01505,0.031531,9.9522e-07,0.79,0.68,0
0.037174,-0.005982,0.035085,-0.0004927,0.010378,-0.00034761,0,0,0.064239,-0.028263,0,-0.0018075,0,0,0,0.035088,-0.0004961,0.010378,-0.55973,0.01499,0.031584,9.9535e-07,0.8,0.68,0
0.037817,-0.005996,0.035051,-0.00058722,0.010339,-0.00030828,0,0,0.064251,-0.028408,0,-0.001603,0,0,0,0.035054,-0.00058988,0.010339,-0.49557,0.014934,0.031628,9.9513e-07,0.81,0.68,0
0.038459,-0.0060094,0.035016,-0.00067266,0.010303,-0.00027149,0,0,0.064254,-0.028537,0,-0.0014117,0,0,0,0.035018,-0.00067472,0.010303,-0.43581,0.014882,0.031665,9.9459e-07,0.82,0.68,0
0.039102,-0.006022,0.034981,-0.00074965,0.01027,-0.00023739,0,0,0.064251,-0.02865,0,-0.0012344,0,0,0,0.034983,-0.00075123,0.01027,-0.38064,0.014834,0.031695,9.938e-07,0.83,0.68,0
0.039745,-0.0060338,0.034947,-0.00081883,0.010238,-0.00020608,0,0,0.064242,-0.028749,0,-0.0010716,0,0,0,0.034948,-0.00082002,0.010238,-0.33011,0.014789,0.031719,9.928e-07,0.84,0.68,0
0.040387,-0.0060448,0.034913,-0.00088078,0.01021,-0.00017756,0,0,0.064229,-0.028835,0,-0.00092332,0,0,0,0.034914,-0.00088166,0.01021,-0.28421,0.014747,0.031739,9.9166e-07,0.85,0.68,0
0.041029,-0.006055,0.03488,-0.00093608,0.010183,-0.00015181,0,0,0.064213,-0.02891,0,-0.00078942,0,0,0,0.034881,-0.00093672,0.010183,-0.24285,0.014709,0.031753,9.904e-07,0.86,0.68,0
0.041671,-0.0060644,0.034849,-0.00098526,0.010159,-0.00012875,0,0,0.064193,-0.028975,0,-0.00066951,0,0,0,0.034849,-0.00098573,0.010159,-0.20586,0.014674,0.031764,9.8908e-07,0.87,0.68,0
0.042313,-0.006073,0.034818,-0.0010288,0.010137,-0.00010827,0,0,0.064172,-0.029031,0,-0.000563,0,0,0,0.034819,-0.0010292,0.010137,-0.17305,0.014642,0.031772,9.8772e-07,0.88,0.68,0
0.042954,-0.0060808,0.03479,-0.0010673,0.010117,-9.0229e-05,0,0,0.06415,-0.029079,0,-0.00046919,0,0,0,0.03479,-0.0010675,0.010117,-0.14418,0.014613,0.031778,9.8637e-07,0.89,0.68,0
0.043596,-0.0060878,0.034763,-0.0011009,0.010099,-7.4475e-05,0,0,0.064128,-0.029119,0,-0.00038727,0,0,0,0.034763,-0.0011011,0.010099,-0.11898,0.014587,0.031781,9.8504e-07,0.9,0.68,0
0.044237,-0.0060941,0.034738,-0.0011303,0.010082,-6.0833e-05,0,0,0.064106,-0.029153,0,-0.00031633,0,0,0,0.034739,-0.0011304,0.010082,-0.097173,0.014564,0.031782,9.8376e-07,0.91,0.68,0
0.044878,-0.0060996,0.034716,-0.0011556,0.010068,-4.9118e-05,0,0,0.064085,-0.029182,0,-0.00025541,0,0,0,0.034716,-0.0011557,0.010068,-0.078453,0.014543,0.031783,9.8257e-07,0.92,0.68,0
0.045519,-0.0061044,0.034696,-0.0011773,0.010056,-3.9133e-05,0,0,0.064065,-0.029205,0,-0.00020349,0,0,0,0.034696,-0.0011773,0.010056,-0.062502,0.014525,0.031782,9.8147e-07,0.93,0.68,0
0.046159,-0.0061085,0.034678,-0.0011955,0.010045,-3.0674e-05,0,0,0.064047,-0.029225,0,-0.00015951,0,0,0,0.034678,-0.0011955,0.010045,-0.048991,0.014509,0.031781,9.8048e-07,0.94,0.68,0
0.0468,-0.0061119,0.034663,-0.0012105,0.010036,-2.3533e-05,0,0,0.064031,-0.029241,0,-0.00012237,0,0,0,0.034663,-0.0012106,0.010036,-0.037586,0.014496,0.03178,9.7963e-07,0.95,0.68,0
0.04744,-0.0061147,0.034651,-0.0012226,0.010028,-1.7495e-05,0,0,0.064018,-0.029253,0,-9.0976e-05,0,0,0,0.034651,-0.0012226,0.010028,-0.027943,0.014486,0.031779,9.7891e-07,0.96,0.68,0
0.04808,-0.0061169,0.034641,-0.0012318,0.010023,-1.2343e-05,0,0,0.064008,-0.029262,0,-6.4186e-05,0,0,0,0.034641,-0.0012318,0.010023,-0.019715,0.014477,0.031777,9.7834e-07,0.97,0.68,0
0.04872,-0.0061184,0.034634,-0.0012383,0.010019,-7.858e-06,0,0,0.064,-0.029268,0,-4.0861e-05,0,0,0,0.034634,-0.0012383,0.010019,-0.012551,0.014471,0.031776,9.7793e-07,0.98,0.68,0
0.04936,-0.0061193,0.03463,-0.0012421,0.010016,-3.8176e-06,0,0,0.063995,-0.029272,0,-1.9851e-05,0,0,0,0.03463,-0.0012421,0.010016,-0.0060975,0.014468,0.031776,9.7768e-07,0.99,0.68,0
0.05,-0.0061196,0.034628,-0.0012434,0.010016,-5.8413e-06,0,0,0.063994,-0.029273,0,-3.0375e-05,0,0,0,0.034628,-0.0012434,0.010016,-0.0093299,0.014467,0.031775,9.776e-07,1,0.68,0
0,0,0.030446,0.013048,0.013048,-0.0025853,0,0,0.045234,4.0658e-19,0,-0.013443,0,0,0,0.030822,0.012672,0.013048,-8.2759,0.018847,0.017965,2.9733e-07,0,0.69,0
0.00045234,-0.00013443,0.030415,0.012662,0.012923,-0.0025739,0,0,0.045479,-0.00067884,0,-0.013384,0,0,0,0.030781,0.012296,0.012923,-8.0852,0.018667,0.018179,3.0733e-07,0.01,0.69,0
0.00090958,-0.00026641,0.030544,0.012322,0.01286,-0.0025293,0,0,0.045978,-0.0013974,0,-0.013152,0,0,0,0.030888,0.011978,0.01286,-7.7579,0.018575,0.018485,3.2193e-07,0.02,0.69,0
0.0013719,-0.00039541,0.030672,0.011967,0.012792,-0.0024706,0,0,0.046489,-0.0021446,0,-0.012847,0,0,0,0.030993,0.011646,0.012792,-7.3985,0.018477,0.0188,3.3701e-07,0.03,0.69,0
0.0018394,-0.00052094,0.030797,0.011599,0.012719,-0.0023981,0,0,0.047003,-0.002911,0,-0.01247,0,0,0,0.031092,0.011304,0.012719,-7.0135,0.018372,0.01912,3.5236e-07,0.04,0.69,0
0.002312,-0.00064255,0.030916,0.011223,0.012642,-0.0023122,0,0,0.047514,-0.0036891,0,-0.012023,0,0,0,0.031184,0.010955,0.012642,-6.6072,0.01826,0.019441,3.6781e-07,0.05,0.69,0
0.0027896,-0.0007598,0.031028,0.01084,0.012561,-0.002213,0,0,0.048016,-0.0044724,0,-0.011508,0,0,0,0.031268,0.010601,0.012561,-6.183,0.018143,0.01976,3.8317e-07,0.06,0.69,0
0.0032723,-0.00087228,0.03113,0.010454,0.012475,-0.0021008,0,0,0.048503,-0.0052557,0,-0.010924,0,0,0,0.031341,0.010242,0.012475,-5.7431,0.01802,0.020076,3.9829e-07,0.07,0.69,0
0.0037597,-0.00097962,0.03122,0.010064,0.012385,-0.0019757,0,0,0.048971,-0.0060351,0,-0.010273,0,0,0,0.031403,0.0098813,0.012385,-5.2896,0.01789,0.020386,4.1306e-07,0.08,0.69,0
0.0042517,-0.0010815,0.031297,0.0096729,0.012291,-0.0018382,0,0,0.049417,-0.0068073,0,-0.0095587,0,0,0,0.031453,0.0095178,0.012291,-4.8243,0.017754,0.020688,4.2734e-07,0.09,0.69,0
0.004748,-0.0011776,0.03136,0.0092805,0.012192,-0.001689,0,0,0.049837,-0.0075704,0,-0.008783,0,0,0,0.031489,0.0091521,0.012192,-4.3493,0.017611,0.020982,4.4105e-07,0.1,0.69,0
0.0052484,-0.0012677,0.031407,0.0088871,0.012088,-0.0015292,0,0,0.050228,-0.0083228,0,-0.0079519,0,0,0,0.03151,0.0087837,0.012088,-3.867,0.017461,0.021268,4.5411e-07,0.11,0.69,0
0.0057526,-0.0013517,0.031436,0.0084924,0.011978,-0.0013602,0,0,0.05059,-0.0090639,0,-0.0070731,0,0,0,0.031516,0.0084121,0.011978,-3.381,0.017302,0.021544,4.6646e-07,0.12,0.69,0
0.0062602,-0.0014297,0.031447,0.0080963,0.011863,-0.0011841,0,0,0.050918,-0.0097933,0,-0.0061573,0,0,0,0.031507,0.0080364,0.011863,-2.8956,0.017135,0.02181,4.7803e-07,0.13,0.69,0
0.006771,-0.0015018,0.031438,0.0076984,0.011741,-0.0010036,0,0,0.051212,-0.01051,0,-0.0052187,0,0,0,0.03148,0.007656,0.011741,-2.4165,0.016959,0.022067,4.8875e-07,0.14,0.69,0
0.0072844,-0.0015684,0.031406,0.0072988,0.011612,-0.00082209,0,0,0.051467,-0.011213,0,-0.0042749,0,0,0,0.031434,0.0072708,0.011612,-1.9508,0.016772,0.022312,4.9849e-07,0.15,0.69,0
0.0078003,-0.0016301,0.031351,0.0068987,0.011475,-0.00064362,0,0,0.051678,-0.011898,0,-0.0033468,0,0,0,0.031368,0.0068818,0.011475,-1.5067,0.016575,0.022544,5.0706e-07,0.16,0.69,0
0.008318,-0.0016878,0.031269,0.0065007,0.011331,-0.00047229,0,0,0.051839,-0.012559,0,-0.0024559,0,0,0,0.031278,0.0064917,0.011331,-1.092,0.016367,0.022756,5.1416e-07,0.17,0.69,0
0.0088371,-0.0017426,0.031156,0.0061094,0.01118,-0.00031138,0,0,0.051939,-0.013183,0,-0.0016192,0,0,0,0.03116,0.0061055,0.01118,-0.71214,0.016148,0.022942,5.1939e-07,0.18,0.69,0
0.0093568,-0.001796,0.031011,0.0057309,0.011023,-0.00016242,0,0,0.051971,-0.013759,0,-0.00084457,0,0,0,0.031012,0.0057298,0.011023,-0.36808,0.015922,0.023096,5.2243e-07,0.19,0.69,0
0.0098765,-0.0018498,0.030834,0.0053672,0.01086,-2.5465e-05,0,0,0.051931,-0.014282,0,-0.00013242,0,0,0,0.030834,0.0053672,0.01086,-0.057292,0.015687,0.023213,5.2314e-07,0.2,0.69,0
0.010395,-0.0019058,0.030626,0.0050165,0.010693,9.6527e-05,0,0,0.051826,-0.014758,0,0.00050194,0,0,0,0.030626,0.0050162,0.010693,0.21596,0.015445,0.023297,5.2169e-07,0.21,0.69,0
0.010913,-0.0019666,0.030387,0.0046763,0.010519,0.00019833,0,0,0.051658,-0.015191,0,0.0010313,0,0,0,0.030389,0.0046748,0.010519,0.44194,0.015194,0.023347,5.1813e-07,0.22,0.69,0
0.011429,-0.0020351,0.030129,0.0043612,0.010347,0.00027495,0,0,0.051434,-0.015563,0,0.0014297,0,0,0,0.030132,0.0043583,0.010347,0.61126,0.014946,0.023363,5.1269e-07,0.23,0.69,0
0.011942,-0.0021146,0.029871,0.0040732,0.010183,0.00033444,0,0,0.051188,-0.015886,0,0.0017391,0,0,0,0.029875,0.0040689,0.010183,0.74261,0.014709,0.023357,5.0638e-07,0.24,0.69,0
0.012452,-0.0022084,0.029642,0.0037788,0.010026,0.00037957,0,0,0.051,-0.016243,0,0.0019737,0,0,0,0.029647,0.0037732,0.010026,0.84064,0.014482,0.023383,5.0176e-07,0.25,0.69,0
0.012962,-0.0023201,0.02943,0.0034015,0.0098494,0.00041616,0,0,0.050909,-0.016765,0,0.002164,0,0,0,0.029437,0.0033949,0.0098494,0.91576,0.014227,0.023489,5.0006e-07,0.26,0.69,0
0.01347,-0.0024539,0.029135,0.0029344,0.0096207,0.00043601,0,0,0.050736,-0.017384,0,0.0022672,0,0,0,0.029142,0.0029272,0.0096207,0.95313,0.013897,0.023591,4.958e-07,0.27,0.69,0
0.013976,-0.0026167,0.028782,0.0025327,0.0093945,0.00035368,0,0,0.050408,-0.01784,0,0.0018391,0,0,0,0.028787,0.002528,0.0093945,0.77181,0.01357,0.023588,4.8643e-07,0.28,0.69,0
0.014479,-0.0028256,0.02907,0.0013998,0.009141,0.00061085,0,0,0.051816,-0.020127,0,0.0031764,0,0,0,0.029084,0.0013863,0.009141,1.264,0.013204,0.024748,5.2861e-07,0.29,0.69,0
0.015013,-0.0030392,0.032198,-0.00021541,0.0095948,0.0010333,0,0,0.041211,-0.017542,0,0.0037555,0,0,0,0.032231,-0.00024832,0.0095948,1.8269,0.013859,0.028848,8.5082e-07,0.3,0.69,0
0.015364,-0.0031459,0.0258,-0.0012068,0.007378,-0.00011814,0,0,0.032727,-0.015065,0,-0.00039004,0,0,0,0.025801,-0.0012073,0.007378,-0.23685,0.010657,0.023902,4.941e-07,0.31,0.69,0
0.015643,-0.0032313,0.029802,-0.0020142,0.0083362,0.00069974,0,0,0.027905,-0.013456,0,0.0018193,0,0,0,0.029817,-0.0020296,0.0083362,1.2593,0.012041,0.028134,6.4252e-07,0.32,0.69,0
0.015922,-0.0033436,0.030219,-0.0017613,0.0085374,0.00059932,0,0,0.028186,-0.013388,0,0.0015582,0,0,0,0.03023,-0.0017725,0.0085374,1.0732,0.012332,0.028294,6.6416e-07,0.33,0.69,0
0.016207,-0.0034599,0.030973,-0.0012775,0.0089085,0.00086019,0,0,0.028683,-0.013242,0,0.0022365,0,0,0,0.030995,-0.0013005,0.0089085,1.5268,0.012868,0.028593,7.0508e-07,0.34,0.69,0
0.016496,-0.0035799,0.031489,-0.001073,0.0091248,0.0010322,0,0,0.029073,-0.013257,0,0.0026836,0,0,0,0.031522,-0.0011057,0.0091248,1.8138,0.01318,0.028903,7.3679e-07,0.35,0.69,0
0.016789,-0.0037007,0.032051,-0.00089719,0.0093463,0.0011959,0,0,0.029517,-0.013317,0,0.0031095,0,0,0,0.032095,-0.00094054,0.0093463,2.076,0.0135,0.02928,7.7337e-07,0.36,0.69,0
0.017086,-0.0038219,0.032573,-0.00084215,0.0095192,0.0013048,0,0,0.02997,-0.01347,0,0.0033926,0,0,0,0.032624,-0.00089303,0.0095192,2.2329,0.01375,0.029712,8.1071e-07,0.37,0.69,0
0.017388,-0.0039434,0.033079,-0.00084371,0.0096705,0.0013467,0,0,0.030431,-0.013669,0,0.0035015,0,0,0,0.033132,-0.00089709,0.0096705,2.2699,0.013969,0.030167,8.4896e-07,0.38,0.69,0
0.017695,-0.0040657,0.033553,-0.0008591,0.0098081,0.0013189,0,0,0.030868,-0.013867,0,0.0034292,0,0,0,0.033603,-0.00090958,0.0098081,2.1917,0.014167,0.030596,8.8569e-07,0.39,0.69,0
0.018005,-0.0041895,0.033982,-0.0008566,0.0099378,0.0012322,0,0,0.031258,-0.014033,0,0.0032037,0,0,0,0.034026,-0.00090012,0.0099378,2.0231,0.014355,0.030964,9.1898e-07,0.4,0.69,0
0.01832,-0.0043154,0.034362,-0.0008116,0.010065,0.0011025,0,0,0.031586,-0.014139,0,0.0028665,0,0,0,0.034396,-0.00084613,0.010065,1.7936,0.014538,0.031249,9.4755e-07,0.41,0.69,0
0.018637,-0.0044435,0.034688,-0.00070796,0.010194,0.00094977,0,0,0.031842,-0.014172,0,0.0024694,0,0,0,0.034713,-0.00073343,0.010194,1.5359,0.014724,0.031441,9.7062e-07,0.42,0.69,0
0.018957,-0.0045738,0.034963,-0.00054126,0.010326,0.00079635,0,0,0.032027,-0.014128,0,0.0020705,0,0,0,0.03498,-0.00055912,0.010326,1.2843,0.014916,0.031539,9.8807e-07,0.43,0.69,0
0.019278,-0.0047058,0.035193,-0.00032109,0.010462,0.00066316,0,0,0.032151,-0.014018,0,0.0017242,0,0,0,0.035206,-0.00033347,0.010462,1.0694,0.015111,0.031558,1.0005e-06,0.44,0.69,0
0.0196,-0.0048387,0.03539,-6.8976e-05,0.010596,0.0005652,0,0,0.032232,-0.013865,0,0.0014695,0,0,0,0.035399,-7.7983e-05,0.010596,0.91295,0.015306,0.031526,1.0093e-06,0.45,0.69,0
0.019922,-0.0049715,0.035564,0.00018855,0.010726,0.00050845,0,0,0.03229,-0.013699,0,0.001322,0,0,0,0.035571,0.00018124,0.010726,0.82327,0.015493,0.031472,1.0162e-06,0.46,0.69,0
0.020245,-0.0051032,0.035727,0.00042833,0.010847,0.00049043,0,0,0.032344,-0.013544,0,0.0012751,0,0,0,0.035734,0.00042152,0.010847,0.79585,0.015667,0.031424,1.0226e-06,0.47,0.69,0
0.020569,-0.0052328,0.035886,0.00063581,0.010956,0.00050359,0,0,0.032408,-0.013417,0,0.0013093,0,0,0,0.035893,0.00062862,0.010956,0.81833,0.015826,0.031401,1.0297e-06,0.48,0.69,0
0.020894,-0.0053598,0.036045,0.00080461,0.011055,0.00053938,0,0,0.032488,-0.013326,0,0.0014024,0,0,0,0.036054,0.00079636,0.011055,0.87668,0.015968,0.031411,1.0381e-06,0.49,0.69,0
0.021219,-0.0054836,0.036208,0.00093294,0.011142,0.00059005,0,0,0.032585,-0.013272,0,0.0015341,0,0,0,0.036217,0.00092307,0.011142,0.95805,0.016094,0.031455,1.0483e-06,0.5,0.69,0
0.021545,-0.0056038,0.03637,0.0010208,0.011217,0.0006491,0,0,0.032698,-0.013255,0,0.0016877,0,0,0,0.036381,0.0010089,0.011217,1.0516,0.016203,0.031533,1.0598e-06,0.51,0.69,0
0.021873,-0.0057201,0.036528,0.0010757,0.011281,0.00071224,0,0,0.032821,-0.013267,0,0.0018518,0,0,0,0.036542,0.0010614,0.011281,1.1505,0.016295,0.031634,1.0722e-06,0.52,0.69,0
0.022202,-0.0058323,0.03668,0.0011082,0.011337,0.0007828,0,0,0.032947,-0.013297,0,0.0020353,0,0,0,0.036698,0.0010909,0.011337,1.26,0.016375,0.031749,1.0851e-06,0.53,0.69,0
0.022532,-0.0059401,0.036827,0.0011172,0.011383,0.00086866,0,0,0.033077,-0.013346,0,0.0022585,0,0,0,0.036848,0.0010961,0.011383,1.3926,0.016443,0.031879,1.0985e-06,0.54,0.69,0
0.022863,-0.0060431,0.036971,0.0010835,0.011416,0.00097002,0,0,0.033221,-0.013433,0,0.0025221,0,0,0,0.036997,0.0010573,0.011416,1.5472,0.01649,0.032042,1.1134e-06,0.55,0.69,0
0.023196,-0.0061412,0.037067,0.00096197,0.011409,0.0010804,0,0,0.033356,-0.013581,0,0.0028089,0,0,0,0.0371,0.00092967,0.011409,1.7124,0.016479,0.032234,1.1273e-06,0.56,0.69,0
0.02353,-0.0062343,0.037125,0.00083772,0.011389,0.0011764,0,0,0.033457,-0.013716,0,0.0030586,0,0,0,0.037163,0.00079962,0.011389,1.8549,0.01645,0.032394,1.1377e-06,0.57,0.69,0
0.023865,-0.0063229,0.036904,0.00057667,0.011244,0.0014013,0,0,0.033358,-0.013868,0,0.0036434,0,0,0,0.036958,0.0005227,0.011244,2.2058,0.016242,0.032432,1.1284e-06,0.58,0.69,0
0.024198,-0.006403,0.037139,0.00055074,0.011307,0.0013812,0,0,0.033582,-0.013983,0,0.0035912,0,0,0,0.037191,0.00049868,0.011307,2.1589,0.016332,0.032658,1.1508e-06,0.59,0.69,0
0.024537,-0.0064975,0.032685,0.00085738,0.010063,0.0021897,0,0,0.040266,-0.016218,0,0.0081162,0,0,0,0.032838,0.00070513,0.010063,4.0521,0.014535,0.028625,9.4333e-07,0.6,0.69,0
0.024971,-0.0065364,0.040308,0.00055592,0.012259,0.00048058,0,0,0.051214,-0.021182,0,0.0016685,0,0,0,0.040314,0.00055001,0.012259,0.67382,0.017708,0.035393,1.624e-06,0.61,0.69,0
0.025639,-0.0064231,0.036253,0.0010253,0.011183,0.00024986,0,0,0.06518,-0.026411,0,0.0012993,0,0,0,0.036254,0.0010235,0.011183,0.40636,0.016154,0.031408,1.0481e-06,0.62,0.69,0
0.026275,-0.0063037,0.035855,0.0019731,0.011348,0.00023472,0,0,0.063716,-0.024376,0,0.0012206,0,0,0,0.035856,0.0019715,0.011348,0.39691,0.016392,0.030305,9.8159e-07,0.63,0.69,0
0.026913,-0.0062277,0.035981,0.0019661,0.011384,-0.0001234,0,0,0.063951,-0.024487,0,-0.00064167,0,0,0,0.035981,0.0019657,0.011384,-0.20785,0.016444,0.03042,9.9233e-07,0.64,0.69,0
0.027554,-0.006176,0.03599,0.0019781,0.01139,-0.00031369,0,0,0.06396,-0.024472,0,-0.0016312,0,0,0,0.035993,0.0019752,0.01139,-0.52837,0.016453,0.030423,9.9301e-07,0.65,0.69,0
0.028193,-0.0061411,0.035873,0.0018731,0.011324,-0.00046501,0,0,0.063827,-0.024571,0,-0.002418,0,0,0,0.035879,0.0018667,0.011324,-0.78343,0.016356,0.030407,9.8709e-07,0.66,0.69,0
0.02883,-0.0061199,0.035764,0.0016894,0.011236,-0.0005801,0,0,0.063774,-0.024822,0,-0.0030165,0,0,0,0.035774,0.0016795,0.011236,-0.97503,0.01623,0.030462,9.8468e-07,0.67,0.69,0
0.029468,-0.0061095,0.03569,0.0014761,0.01115,-0.00065251,0,0,0.063804,-0.025152,0,-0.0033931,0,0,0,0.035702,0.0014636,0.01115,-1.0922,0.016105,0.030569,9.8588e-07,0.68,0.69,0
0.030107,-0.0061075,0.035634,0.0012539,0.011066,-0.00068777,0,0,0.063876,-0.025513,0,-0.0035764,0,0,0,0.035648,0.0012402,0.011066,-1.1456,0.015985,0.030698,9.8872e-07,0.69,0.69,0
0.030746,-0.0061118,0.035588,0.0010337,0.010986,-0.00069517,0,0,0.063963,-0.025877,0,-0.0036149,0,0,0,0.035602,0.0010197,0.010986,-1.1521,0.015869,0.030831,9.9202e-07,0.7,0.69,0
0.031386,-0.0061206,0.035545,0.0008211,0.01091,-0.00068266,0,0,0.064051,-0.02623,0,-0.0035498,0,0,0,0.035558,0.00080769,0.01091,-1.1258,0.015759,0.030961,9.952e-07,0.71,0.69,0
0.032027,-0.0061328,0.035503,0.00061936,0.010837,-0.0006563,0,0,0.064132,-0.026565,0,-0.0034127,0,0,0,0.035515,0.00060702,0.010837,-1.0775,0.015653,0.031083,9.9799e-07,0.72,0.69,0
0.032668,-0.0061473,0.035461,0.00043013,0.010767,-0.0006206,0,0,0.064204,-0.026877,0,-0.0032271,0,0,0,0.035472,0.00041914,0.010767,-1.0146,0.015553,0.031194,1.0003e-06,0.73,0.69,0
0.033311,-0.0061634,0.035419,0.00025417,0.010702,-0.00057891,0,0,0.064264,-0.027164,0,-0.0030104,0,0,0,0.035428,0.00024465,0.010702,-0.94291,0.015458,0.031294,1.002e-06,0.74,0.69,0
0.033954,-0.0061803,0.035376,9.1666e-05,0.01064,-0.00053375,0,0,0.064312,-0.027426,0,-0.0027755,0,0,0,0.035384,8.3594e-05,0.01064,-0.86647,0.015369,0.031383,1.0031e-06,0.75,0.69,0
0.034597,-0.0061977,0.035331,-5.7594e-05,0.010582,-0.00048701,0,0,0.064348,-0.027663,0,-0.0025324,0,0,0,0.035338,-6.4295e-05,0.010582,-0.78828,0.015285,0.031461,1.0037e-06,0.76,0.69,0
0.035241,-0.0062152,0.035286,-0.00019405,0.010528,-0.0004401,0,0,0.064373,-0.027877,0,-0.0022885,0,0,0,0.035292,-0.00019951,0.010528,-0.71056,0.015207,0.031528,1.0039e-06,0.77,0.69,0
0.035884,-0.0062324,0.035241,-0.0003183,0.010477,-0.0003941,0,0,0.064387,-0.028067,0,-0.0020493,0,0,0,0.035245,-0.00032267,0.010477,-0.6349,0.015133,0.031585,1.0036e-06,0.78,0.69,0
0.036528,-0.0062492,0.035195,-0.00043104,0.010429,-0.00034978,0,0,0.064391,-0.028237,0,-0.0018188,0,0,0,0.035198,-0.00043447,0.010429,-0.56246,0.015064,0.031633,1.0029e-06,0.79,0.69,0
0.037172,-0.0062653,0.035149,-0.000533,0.010385,-0.0003077,0,0,0.064387,-0.028386,0,-0.0016001,0,0,0,0.035152,-0.00053565,0.010385,-0.49404,0.015,0.031672,1.0019e-06,0.8,0.69,0
0.037816,-0.0062807,0.035104,-0.00062493,0.010344,-0.00026827,0,0,0.064376,-0.028518,0,-0.001395,0,0,0,0.035106,-0.00062694,0.010344,-0.43018,0.014941,0.031704,1.0006e-06,0.81,0.69,0
0.03846,-0.0062952,0.035059,-0.00070758,0.010305,-0.00023173,0,0,0.064359,-0.028633,0,-0.001205,0,0,0,0.03506,-0.00070908,0.010305,-0.37119,0.014885,0.03173,9.9912e-07,0.82,0.69,0
0.039103,-0.0063089,0.035015,-0.00078168,0.01027,-0.00019822,0,0,0.064336,-0.028734,0,-0.0010307,0,0,0,0.035016,-0.00078278,0.01027,-0.31726,0.014834,0.031749,9.9745e-07,0.83,0.69,0
0.039746,-0.0063217,0.034972,-0.00084792,0.010237,-0.00016781,0,0,0.06431,-0.028821,0,-0.00087259,0,0,0,0.034973,-0.00084871,0.010237,-0.26841,0.014787,0.031764,9.9567e-07,0.84,0.69,0
0.04039,-0.0063335,0.03493,-0.00090696,0.010207,-0.00014048,0,0,0.064281,-0.028896,0,-0.00073049,0,0,0,0.034931,-0.00090751,0.010207,-0.22459,0.014743,0.031774,9.9381e-07,0.85,0.69,0
0.041032,-0.0063444,0.034891,-0.00095942,0.010179,-0.00011618,0,0,0.06425,-0.028961,0,-0.00060413,0,0,0,0.034891,-0.0009598,0.010179,-0.18568,0.014704,0.031781,9.919e-07,0.86,0.69,0
0.041675,-0.0063544,0.034853,-0.0010059,0.010154,-9.4803e-05,0,0,0.064217,-0.029016,0,-0.00049298,0,0,0,0.034853,-0.0010061,0.010154,-0.15148,0.014667,0.031784,9.8999e-07,0.87,0.69,0
0.042316,-0.0063635,0.034817,-0.0010468,0.010131,-7.6217e-05,0,0,0.064184,-0.029063,0,-0.00039633,0,0,0,0.034818,-0.001047,0.010131,-0.12176,0.014634,0.031786,9.8812e-07,0.88,0.69,0
0.042958,-0.0063717,0.034784,-0.0010828,0.01011,-6.0261e-05,0,0,0.064152,-0.029102,0,-0.00031336,0,0,0,0.034784,-0.0010829,0.01011,-0.096264,0.014604,0.031785,9.8629e-07,0.89,0.69,0
0.043599,-0.0063791,0.034753,-0.0011142,0.010092,-4.6756e-05,0,0,0.06412,-0.029135,0,-0.00024313,0,0,0,0.034753,-0.0011143,0.010092,-0.074689,0.014577,0.031782,9.8455e-07,0.9,0.69,0
0.044241,-0.0063857,0.034725,-0.0011415,0.010075,-3.5508e-05,0,0,0.06409,-0.029163,0,-0.00018464,0,0,0,0.034725,-0.0011415,0.010075,-0.056723,0.014553,0.031779,9.8291e-07,0.91,0.69,0
0.044881,-0.0063914,0.034699,-0.001165,0.01006,-2.6312e-05,0,0,0.064061,-0.029186,0,-0.00013683,0,0,0,0.034699,-0.001165,0.01006,-0.042036,0.014531,0.031775,9.814e-07,0.92,0.69,0
0.045522,-0.0063964,0.034676,-0.0011849,0.010047,-1.8956e-05,0,0,0.064035,-0.029204,0,-9.857e-05,0,0,0,0.034676,-0.001185,0.010047,-0.030286,0.014513,0.031771,9.8003e-07,0.93,0.69,0
0.046162,-0.0064007,0.034656,-0.0012017,0.010036,-1.3218e-05,0,0,0.064012,-0.029219,0,-6.8732e-05,0,0,0,0.034656,-0.0012017,0.010036,-0.02112,0.014497,0.031767,9.7881e-07,0.94,0.69,0
0.046802,-0.0064043,0.034639,-0.0012155,0.010027,-8.8736e-06,0,0,0.063992,-0.029231,0,-4.6143e-05,0,0,0,0.034639,-0.0012155,0.010027,-0.01418,0.014484,0.031763,9.7776e-07,0.95,0.69,0
0.047442,-0.0064072,0.034625,-0.0012265,0.01002,-5.695e-06,0,0,0.063975,-0.02924,0,-2.9614e-05,0,0,0,0.034625,-0.0012265,0.01002,-0.0091013,0.014473,0.031759,9.7688e-07,0.96,0.69,0
0.048081,-0.0064094,0.034614,-0.001235,0.010014,-3.4513e-06,0,0,0.063962,-0.029247,0,-1.7947e-05,0,0,0,0.034614,-0.001235,0.010014,-0.005516,0.014464,0.031756,9.762e-07,0.97,0.69,0
0.048721,-0.006411,0.034607,-0.0012409,0.01001,-1.9101e-06,0,0,0.063952,-0.029252,0,-9.9324e-06,0,0,0,0.034607,-0.0012409,0.01001,-0.0030529,0.014459,0.031754,9.757e-07,0.98,0.69,0
0.049361,-0.006412,0.034602,-0.0012444,0.010007,-8.3773e-07,0,0,0.063946,-0.029254,0,-4.3562e-06,0,0,0,0.034602,-0.0012444,0.010007,-0.001339,0.014455,0.031753,9.754e-07,0.99,0.69,0
0.05,-0.0064123,0.0346,-0.0012455,0.010006,-6.0463e-06,0,0,0.063944,-0.029255,0,-3.1441e-05,0,0,0,0.0346,-0.0012455,0.010006,-0.0096644,0.014454,0.031752,9.753e-07,1,0.69,0
0,0,0.030411,0.013033,0.013033,-0.002719,0,0,0.045182,1.0842e-19,0,-0.014139,0,0,0,0.030826,0.012618,0.013033,-8.6883,0.018826,0.018004,2.9922e-07,0,0.7,0
0.00045182,-0.00014139,0.030378,0.012626,0.012901,-0.002707,0,0,0.045441,-0.00071608,0,-0.014076,0,0,0,0.030782,0.012222,0.012901,-8.48,0.018635,0.01823,3.0969e-07,0.01,0.7,0
0.00090881,-0.00028071,0.030515,0.01227,0.012835,-0.0026634,0,0,0.045966,-0.0014694,0,-0.01385,0,0,0,0.030896,0.01189,0.012835,-8.1382,0.01854,0.018551,3.2503e-07,0.02,0.7,0
0.0013711,-0.00041733,0.030651,0.0119,0.012765,-0.0026029,0,0,0.046503,-0.0022502,0,-0.013535,0,0,0,0.031006,0.011545,0.012765,-7.758,0.018439,0.01888,3.4078e-07,0.03,0.7,0
0.0018389,-0.00055068,0.030785,0.011518,0.012691,-0.0025262,0,0,0.047044,-0.0030498,0,-0.013136,0,0,0,0.03111,0.011192,0.012691,-7.3471,0.018331,0.019213,3.5679e-07,0.04,0.7,0
0.002312,-0.00068023,0.030914,0.011127,0.012612,-0.002434,0,0,0.047583,-0.0038612,0,-0.012657,0,0,0,0.031209,0.010832,0.012612,-6.9109,0.018218,0.019547,3.7289e-07,0.05,0.7,0
0.0027905,-0.00080547,0.031036,0.010731,0.01253,-0.0023265,0,0,0.048115,-0.0046783,0,-0.012098,0,0,0,0.031299,0.010467,0.01253,-6.4535,0.018099,0.019881,3.8896e-07,0.06,0.7,0
0.0032743,-0.00092594,0.031149,0.01033,0.012444,-0.0022043,0,0,0.048634,-0.0054959,0,-0.011462,0,0,0,0.03138,0.010099,0.012444,-5.978,0.017974,0.020211,4.0484e-07,0.07,0.7,0
0.0037632,-0.0010412,0.031253,0.0099272,0.012354,-0.0020676,0,0,0.049138,-0.0063101,0,-0.010752,0,0,0,0.031452,0.0097286,0.012354,-5.4869,0.017845,0.020537,4.2044e-07,0.08,0.7,0
0.0042571,-0.001151,0.031346,0.0095232,0.012261,-0.0019172,0,0,0.049621,-0.0071174,0,-0.0099694,0,0,0,0.031513,0.0093561,0.012261,-4.9828,0.01771,0.020857,4.3566e-07,0.09,0.7,0
0.0047557,-0.0012549,0.031426,0.009119,0.012163,-0.0017538,0,0,0.050082,-0.0079155,0,-0.0091197,0,0,0,0.031563,0.0089819,0.012163,-4.4681,0.017569,0.02117,4.5042e-07,0.1,0.7,0
0.0052587,-0.0013527,0.031492,0.008715,0.012062,-0.0015786,0,0,0.050518,-0.0087025,0,-0.0082085,0,0,0,0.031601,0.0086061,0.012062,-3.9457,0.017423,0.021476,4.6465e-07,0.11,0.7,0
0.005766,-0.0014443,0.031544,0.0083116,0.011957,-0.0013931,0,0,0.050927,-0.0094771,0,-0.0072441,0,0,0,0.031627,0.0082284,0.011957,-3.4193,0.017271,0.021775,4.7831e-07,0.12,0.7,0
0.0062772,-0.0015297,0.03158,0.0079091,0.011847,-0.0011994,0,0,0.051307,-0.010238,0,-0.006237,0,0,0,0.031641,0.0078484,0.011847,-2.8933,0.017112,0.022067,4.9134e-07,0.13,0.7,0
0.0067921,-0.0016091,0.0316,0.0075078,0.011732,-0.0010001,0,0,0.051656,-0.010984,0,-0.0052007,0,0,0,0.031642,0.0074663,0.011732,-2.3731,0.016947,0.02235,5.0368e-07,0.14,0.7,0
0.0073104,-0.0016829,0.031602,0.0071085,0.011613,-0.00079838,0,0,0.051972,-0.011712,0,-0.0041516,0,0,0,0.031628,0.0070825,0.011613,-1.8649,0.016775,0.022623,5.1522e-07,0.15,0.7,0
0.0078316,-0.0017515,0.031586,0.0067129,0.01149,-0.00059763,0,0,0.05225,-0.01242,0,-0.0031077,0,0,0,0.0316,0.0066985,0.01149,-1.3756,0.016596,0.022885,5.2581e-07,0.16,0.7,0
0.0083554,-0.0018158,0.031549,0.0063235,0.011362,-0.00040144,0,0,0.052487,-0.0131,0,-0.0020875,0,0,0,0.031555,0.0063171,0.011362,-0.91151,0.016411,0.023132,5.3523e-07,0.17,0.7,0
0.0088813,-0.001877,0.031491,0.0059438,0.01123,-0.00021305,0,0,0.052677,-0.013745,0,-0.0011079,0,0,0,0.031492,0.0059421,0.01123,-0.47779,0.016222,0.02336,5.4326e-07,0.18,0.7,0
0.0094089,-0.0019363,0.031411,0.0055776,0.011096,-3.5211e-05,0,0,0.052817,-0.014349,0,-0.0001831,0,0,0,0.031411,0.0055775,0.011096,-0.078096,0.016028,0.023563,5.497e-07,0.19,0.7,0
0.0099376,-0.0019955,0.031309,0.0052273,0.010961,0.00012898,0,0,0.052906,-0.014908,0,0.0006707,0,0,0,0.03131,0.0052267,0.010961,0.28333,0.015833,0.023741,5.5447e-07,0.2,0.7,0
0.010467,-0.0020565,0.031189,0.0048945,0.010825,0.00027522,0,0,0.052946,-0.015419,0,0.0014311,0,0,0,0.031192,0.0048916,0.010825,0.59962,0.015636,0.023893,5.5754e-07,0.21,0.7,0
0.010997,-0.0021218,0.031053,0.0045828,0.010691,0.00039729,0,0,0.052942,-0.01588,0,0.0020659,0,0,0,0.031059,0.0045769,0.010691,0.8597,0.015442,0.024016,5.59e-07,0.22,0.7,0
0.011526,-0.0021943,0.03091,0.0042967,0.010562,0.00048871,0,0,0.052904,-0.016289,0,0.0025413,0,0,0,0.030919,0.0042877,0.010562,1.0517,0.015256,0.024114,5.5914e-07,0.23,0.7,0
0.012055,-0.0022775,0.030778,0.004036,0.010444,0.00053968,0,0,0.052867,-0.016661,0,0.0028063,0,0,0,0.030789,0.0040251,0.010444,1.1557,0.015086,0.024201,5.59e-07,0.24,0.7,0
0.012583,-0.0023754,0.030699,0.0037858,0.010346,0.00053426,0,0,0.052919,-0.017055,0,0.0027782,0,0,0,0.03071,0.0037752,0.010346,1.1368,0.014943,0.024324,5.6135e-07,0.25,0.7,0
0.013113,-0.0024931,0.030775,0.0035189,0.010288,0.00046479,0,0,0.053265,-0.0176,0,0.0024169,0,0,0,0.030783,0.003511,0.010288,0.97668,0.014861,0.024594,5.7291e-07,0.26,0.7,0
0.013648,-0.0026345,0.031036,0.0031143,0.010245,0.00037633,0,0,0.054055,-0.01854,0,0.0019569,0,0,0,0.031041,0.0031093,0.010245,0.77207,0.014798,0.025135,5.9939e-07,0.27,0.7,0
0.014194,-0.0028021,0.031619,0.0028508,0.010341,0.00012487,0,0,0.055324,-0.019474,0,0.00064932,0,0,0,0.03162,0.0028503,0.010341,0.24868,0.014937,0.025851,6.4257e-07,0.28,0.7,0
0.014755,-0.0030309,0.035987,0.00064734,0.01099,0.0010562,0,0,0.04515,-0.0183,0,0.0038176,0,0,0,0.036019,0.00061579,0.01099,1.7182,0.015875,0.031526,1.1904e-06,0.29,0.7,0
0.015152,-0.0031985,0.028916,8.2299e-05,0.0086996,-0.00030066,0,0,0.036203,-0.015185,0,-0.0014949,0,0,0,0.028924,7.5231e-05,0.0086996,-0.77574,0.012566,0.025649,6.4443e-07,0.3,0.7,0
0.015444,-0.0032855,0.031995,-0.0015587,0.0091308,0.00030512,0,0,0.029723,-0.013896,0,0.00079332,0,0,0,0.031998,-0.0015614,0.0091308,0.52097,0.013189,0.029694,7.8064e-07,0.31,0.7,0
0.015746,-0.0033732,0.032108,-0.0020395,0.0090205,0.00036439,0,0,0.030014,-0.014378,0,0.00094743,0,0,0,0.032112,-0.0020434,0.0090205,0.61132,0.01303,0.030184,7.9953e-07,0.32,0.7,0
0.016044,-0.0034799,0.031898,-0.0016571,0.0090723,0.00032613,0,0,0.029673,-0.013948,0,0.00084794,0,0,0,0.031901,-0.0016602,0.0090723,0.5568,0.013104,0.029688,7.7589e-07,0.33,0.7,0
0.01634,-0.0035952,0.031879,-0.0014535,0.0091277,0.00043763,0,0,0.029577,-0.013756,0,0.0011378,0,0,0,0.031885,-0.0014593,0.0091277,0.75207,0.013185,0.029511,7.7028e-07,0.34,0.7,0
0.016636,-0.0037142,0.032153,-0.0011984,0.0092862,0.00059931,0,0,0.029726,-0.01363,0,0.0015582,0,0,0,0.032163,-0.0012092,0.0092862,1.0292,0.013414,0.029557,7.8459e-07,0.35,0.7,0
0.016934,-0.0038353,0.032484,-0.0010277,0.009437,0.00073916,0,0,0.029962,-0.013604,0,0.0019218,0,0,0,0.032501,-0.001044,0.009437,1.2629,0.013631,0.029724,8.053e-07,0.36,0.7,0
0.017235,-0.0039574,0.03286,-0.00091403,0.0095838,0.00084635,0,0,0.030259,-0.013647,0,0.0022005,0,0,0,0.032881,-0.00093523,0.0095838,1.4346,0.013843,0.029975,8.3094e-07,0.37,0.7,0
0.017539,-0.0040803,0.033243,-0.00085138,0.0097176,0.00090296,0,0,0.030583,-0.01374,0,0.0023477,0,0,0,0.033267,-0.00087527,0.0097176,1.516,0.014037,0.03027,8.5874e-07,0.38,0.7,0
0.017847,-0.0042042,0.033619,-0.00080838,0.0098433,0.0009053,0,0,0.030909,-0.013847,0,0.0023538,0,0,0,0.033643,-0.00083217,0.0098433,1.5052,0.014218,0.030569,8.8681e-07,0.39,0.7,0
0.018158,-0.0043292,0.033973,-0.00075871,0.0099643,0.00085855,0,0,0.031211,-0.01394,0,0.0022322,0,0,0,0.033994,-0.00077992,0.0099643,1.4152,0.014393,0.030839,9.1321e-07,0.4,0.7,0
0.018471,-0.0044559,0.034293,-0.00068228,0.010083,0.00077487,0,0,0.031473,-0.013995,0,0.0020147,0,0,0,0.03431,-0.00069944,0.010083,1.2686,0.014565,0.031056,9.3653e-07,0.41,0.7,0
0.018787,-0.0045842,0.034575,-0.00056678,0.010202,0.00067024,0,0,0.031684,-0.014,0,0.0017426,0,0,0,0.034588,-0.00057956,0.010202,1.0922,0.014737,0.031206,9.5594e-07,0.42,0.7,0
0.019105,-0.0047141,0.034819,-0.00040906,0.010323,0.00056197,0,0,0.031844,-0.013952,0,0.0014611,0,0,0,0.034828,-0.00041802,0.010323,0.9137,0.014911,0.03129,9.712e-07,0.43,0.7,0
0.019424,-0.0048451,0.035028,-0.0002155,0.010444,0.00046594,0,0,0.031959,-0.013857,0,0.0012114,0,0,0,0.035034,-0.00022166,0.010444,0.75733,0.015085,0.031316,9.8271e-07,0.44,0.7,0
0.019744,-0.0049766,0.035209,-1.6815e-07,0.010563,0.00039383,0,0,0.03204,-0.013732,0,0.001024,0,0,0,0.035213,-4.5727e-06,0.010563,0.64077,0.015257,0.031302,9.9134e-07,0.45,0.7,0
0.020065,-0.0051079,0.035371,0.0002193,0.010677,0.0003514,0,0,0.032102,-0.013595,0,0.00091364,0,0,0,0.035374,0.00021579,0.010677,0.57269,0.015422,0.031269,9.9827e-07,0.46,0.7,0
0.020386,-0.0052382,0.035522,0.00042644,0.010785,0.00033872,0,0,0.032159,-0.013466,0,0.00088068,0,0,0,0.035526,0.00042317,0.010785,0.55291,0.015578,0.031238,1.0047e-06,0.47,0.7,0
0.020708,-0.0053667,0.035669,0.00060912,0.010884,0.00035189,0,0,0.032222,-0.013357,0,0.00091492,0,0,0,0.035673,0.00060559,0.010884,0.57499,0.015721,0.031224,1.0115e-06,0.48,0.7,0
0.021031,-0.0054928,0.035816,0.00076029,0.010973,0.00038528,0,0,0.032296,-0.013276,0,0.0010017,0,0,0,0.03582,0.00075606,0.010973,0.6296,0.01585,0.031235,1.0193e-06,0.49,0.7,0
0.021354,-0.0056161,0.035964,0.00087693,0.011052,0.00043328,0,0,0.032385,-0.013228,0,0.0011265,0,0,0,0.03597,0.00087158,0.011052,0.70739,0.015964,0.031276,1.0284e-06,0.5,0.7,0
0.021678,-0.0057361,0.036113,0.0009595,0.011122,0.00049151,0,0,0.032489,-0.013211,0,0.0012779,0,0,0,0.03612,0.00095263,0.011122,0.80088,0.016065,0.031346,1.0388e-06,0.51,0.7,0
0.022004,-0.0058525,0.036263,0.0010108,0.011182,0.00055818,0,0,0.032605,-0.013223,0,0.0014513,0,0,0,0.036271,0.001002,0.011182,0.90692,0.016152,0.031441,1.0503e-06,0.52,0.7,0
0.02233,-0.005965,0.036412,0.0010333,0.011234,0.00063453,0,0,0.032732,-0.01326,0,0.0016498,0,0,0,0.036423,0.0010219,0.011234,1.0272,0.016226,0.03156,1.063e-06,0.53,0.7,0
0.022658,-0.0060734,0.036563,0.0010245,0.011276,0.0007231,0,0,0.032872,-0.013327,0,0.0018801,0,0,0,0.036577,0.0010098,0.011276,1.1652,0.016288,0.031706,1.0771e-06,0.54,0.7,0
0.022988,-0.0061775,0.036713,0.00097263,0.011306,0.00082501,0,0,0.03303,-0.013433,0,0.002145,0,0,0,0.036732,0.0009536,0.011306,1.3216,0.016331,0.031889,1.093e-06,0.55,0.7,0
0.023319,-0.0062769,0.036877,0.00088336,0.011328,0.00093677,0,0,0.033213,-0.013578,0,0.0024356,0,0,0,0.036901,0.00085899,0.011328,1.4898,0.016363,0.032114,1.1116e-06,0.56,0.7,0
0.023652,-0.0063717,0.037068,0.00075156,0.011346,0.001077,0,0,0.033439,-0.013773,0,0.0028002,0,0,0,0.0371,0.00071965,0.011346,1.6971,0.016389,0.032401,1.1346e-06,0.57,0.7,0
0.023988,-0.0064617,0.037563,0.00068783,0.011475,0.0012152,0,0,0.033914,-0.014023,0,0.0031595,0,0,0,0.037603,0.00064782,0.011475,1.8854,0.016575,0.032905,1.1843e-06,0.58,0.7,0
0.02433,-0.0065496,0.03822,0.00028036,0.01155,0.0012591,0,0,0.034671,-0.014651,0,0.0032736,0,0,0,0.038262,0.00023862,0.01155,1.8986,0.016684,0.033818,1.2631e-06,0.59,0.7,0
0.024681,-0.006644,0.038575,0.00071757,0.011788,0.0014671,0,0,0.034823,-0.014391,0,0.0038144,0,0,0,0.038631,0.0006608,0.011788,2.216,0.017027,0.033809,1.2844e-06,0.6,0.7,0
0.025027,-0.0067213,0.035102,0.0011972,0.01089,0.0018219,0,0,0.043449,-0.017223,0,0.0070722,0,0,0,0.035206,0.001094,0.01089,3.2511,0.01573,0.030421,1.1174e-06,0.61,0.7,0
0.025506,-0.0066834,0.043393,0.00063623,0.013209,4.1554e-05,0,0,0.054533,-0.022398,0,0.00015585,0,0,0,0.043393,0.00063619,0.013209,0.057279,0.019079,0.038062,2.0876e-06,0.62,0.7,0
0.026184,-0.0065477,0.037958,0.0026015,0.012168,0.0007024,0,0,0.067055,-0.024873,0,0.0036525,0,0,0,0.037972,0.0025875,0.012168,1.1376,0.017576,0.031699,1.1463e-06,0.63,0.7,0
0.026847,-0.0064743,0.037137,0.0023641,0.01185,0.00019979,0,0,0.065746,-0.024665,0,0.0010389,0,0,0,0.037139,0.0023629,0.01185,0.32917,0.017117,0.031136,1.0788e-06,0.64,0.7,0
0.027499,-0.0064214,0.036631,0.0022943,0.011678,-7.3147e-05,0,0,0.064878,-0.024396,0,-0.00038036,0,0,0,0.036631,0.0022942,0.011678,-0.12206,0.016868,0.030739,1.0365e-06,0.65,0.7,0
0.028144,-0.0063872,0.036298,0.0020608,0.011508,-0.00031615,0,0,0.064455,-0.024562,0,-0.001644,0,0,0,0.036301,0.0020579,0.011508,-0.52901,0.016622,0.030632,1.0164e-06,0.66,0.7,0
0.028788,-0.0063687,0.036125,0.0017985,0.011377,-0.00048232,0,0,0.064345,-0.024904,0,-0.0025081,0,0,0,0.036132,0.0017917,0.011377,-0.80485,0.016434,0.030692,1.0112e-06,0.67,0.7,0
0.029431,-0.0063619,0.036013,0.0015336,0.011264,-0.00057758,0,0,0.064348,-0.025299,0,-0.0030034,0,0,0,0.036023,0.0015239,0.011264,-0.95941,0.01627,0.030806,1.0111e-06,0.68,0.7,0
0.030075,-0.0063637,0.035924,0.0012761,0.01116,-0.00062372,0,0,0.064387,-0.025698,0,-0.0032433,0,0,0,0.035936,0.0012649,0.01116,-1.031,0.01612,0.030934,1.0123e-06,0.69,0.7,0
0.030719,-0.0063716,0.035846,0.0010313,0.011063,-0.00063659,0,0,0.064435,-0.026083,0,-0.0033103,0,0,0,0.035857,0.0010197,0.011063,-1.0472,0.01598,0.031059,1.0138e-06,0.7,0.7,0
0.031364,-0.006384,0.035773,0.00080169,0.010972,-0.0006269,0,0,0.064481,-0.026444,0,-0.0032599,0,0,0,0.035784,0.00079045,0.010972,-1.0267,0.015849,0.031176,1.015e-06,0.71,0.7,0
0.032009,-0.0063996,0.035703,0.00058829,0.010887,-0.00060194,0,0,0.064521,-0.026778,0,-0.0031301,0,0,0,0.035714,0.00057798,0.010887,-0.98177,0.015726,0.031282,1.0158e-06,0.72,0.7,0
0.032654,-0.0064172,0.035636,0.0003914,0.010808,-0.00056683,0,0,0.064553,-0.027084,0,-0.0029475,0,0,0,0.035645,0.00038229,0.010808,-0.92115,0.015612,0.031377,1.0162e-06,0.73,0.7,0
0.0333,-0.006436,0.035571,0.00021075,0.010735,-0.00052532,0,0,0.064575,-0.027362,0,-0.0027316,0,0,0,0.035579,0.00020295,0.010735,-0.85094,0.015506,0.031461,1.0161e-06,0.74,0.7,0
0.033946,-0.0064556,0.035507,4.58e-05,0.010666,-0.00048016,0,0,0.064587,-0.027612,0,-0.0024968,0,0,0,0.035514,3.93e-05,0.010666,-0.77561,0.015406,0.031534,1.0156e-06,0.75,0.7,0
0.034591,-0.0064753,0.035444,-0.00010422,0.010602,-0.00043341,0,0,0.064589,-0.027836,0,-0.0022537,0,0,0,0.035449,-0.0001095,0.010602,-0.69842,0.015314,0.031595,1.0146e-06,0.76,0.7,0
0.035237,-0.0064948,0.035382,-0.00024017,0.010542,-0.00038662,0,0,0.064583,-0.028035,0,-0.0020104,0,0,0,0.035386,-0.00024436,0.010542,-0.62175,0.015228,0.031647,1.0133e-06,0.77,0.7,0
0.035883,-0.0065138,0.035321,-0.00036298,0.010487,-0.00034092,0,0,0.064567,-0.028211,0,-0.0017728,0,0,0,0.035324,-0.00036624,0.010487,-0.54733,0.015149,0.03169,1.0116e-06,0.78,0.7,0
0.036529,-0.0065322,0.035261,-0.0004736,0.010436,-0.00029714,0,0,0.064545,-0.028366,0,-0.0015451,0,0,0,0.035264,-0.00047607,0.010436,-0.47638,0.015075,0.031724,1.0097e-06,0.79,0.7,0
0.037174,-0.0065498,0.035203,-0.00057297,0.010389,-0.00025587,0,0,0.064516,-0.028501,0,-0.0013305,0,0,0,0.035204,-0.0005748,0.010389,-0.40975,0.015006,0.03175,1.0075e-06,0.8,0.7,0
0.037819,-0.0065664,0.035146,-0.000662,0.010345,-0.00021749,0,0,0.064482,-0.028619,0,-0.001131,0,0,0,0.035147,-0.00066332,0.010345,-0.34799,0.014943,0.03177,1.0052e-06,0.81,0.7,0
0.038464,-0.006582,0.035091,-0.00074156,0.010305,-0.00018227,0,0,0.064443,-0.02872,0,-0.00094779,0,0,0,0.035091,-0.00074249,0.010305,-0.29144,0.014885,0.031784,1.0027e-06,0.82,0.7,0
0.039108,-0.0065966,0.035037,-0.00081248,0.010268,-0.00015032,0,0,0.064402,-0.028808,0,-0.00078168,0,0,0,0.035038,-0.00081311,0.010268,-0.24024,0.014831,0.031794,1.0002e-06,0.83,0.7,0
0.039752,-0.0066102,0.034986,-0.00087553,0.010233,-0.0001217,0,0,0.064358,-0.028883,0,-0.00063285,0,0,0,0.034987,-0.00087594,0.010233,-0.19444,0.014781,0.031798,9.9764e-07,0.84,0.7,0
0.040395,-0.0066228,0.034938,-0.00093142,0.010202,-9.638e-05,0,0,0.064313,-0.028947,0,-0.00050118,0,0,0,0.034938,-0.00093168,0.010202,-0.15395,0.014736,0.0318,9.9506e-07,0.85,0.7,0
0.041038,-0.0066343,0.034891,-0.00098082,0.010173,-7.4277e-05,0,0,0.064267,-0.029,0,-0.00038624,0,0,0,0.034891,-0.00098098,0.010173,-0.11864,0.014694,0.031798,9.9252e-07,0.86,0.7,0
0.04168,-0.0066447,0.034848,-0.0010244,0.010147,-5.5271e-05,0,0,0.064222,-0.029045,0,-0.00028741,0,0,0,0.034848,-0.0010244,0.010147,-0.08828,0.014657,0.031794,9.9003e-07,0.87,0.7,0
0.042322,-0.0066543,0.034807,-0.0010625,0.010123,-3.9209e-05,0,0,0.064177,-0.029083,0,-0.00020388,0,0,0,0.034807,-0.0010626,0.010123,-0.06263,0.014623,0.031788,9.8764e-07,0.88,0.7,0
0.042964,-0.0066628,0.034769,-0.0010959,0.010102,-2.5913e-05,0,0,0.064134,-0.029114,0,-0.00013475,0,0,0,0.034769,-0.0010959,0.010102,-0.041398,0.014592,0.031781,9.8536e-07,0.89,0.7,0
0.043605,-0.0066705,0.034734,-0.0011249,0.010083,-1.519e-05,0,0,0.064093,-0.02914,0,-7.8988e-05,0,0,0,0.034734,-0.0011249,0.010083,-0.024271,0.014564,0.031774,9.8321e-07,0.9,0.7,0
0.044246,-0.0066773,0.034702,-0.00115,0.010066,-6.8288e-06,0,0,0.064055,-0.029161,0,-3.551e-05,0,0,0,0.034702,-0.00115,0.010066,-0.010913,0.014539,0.031766,9.8122e-07,0.91,0.7,0
0.044886,-0.0066833,0.034673,-0.0011715,0.010051,-6.1081e-07,0,0,0.064019,-0.029177,0,-3.1762e-06,0,0,0,0.034673,-0.0011715,0.010051,-0.00097634,0.014517,0.031757,9.794e-07,0.92,0.7,0
0.045526,-0.0066885,0.034648,-0.0011897,0.010037,3.6908e-06,0,0,0.063987,-0.029191,0,1.9192e-05,0,0,0,0.034648,-0.0011897,0.010037,0.0059008,0.014498,0.031749,9.7776e-07,0.93,0.7,0
0.046166,-0.0066929,0.034626,-0.001205,0.010026,6.3083e-06,0,0,0.063958,-0.029201,0,3.2803e-05,0,0,0,0.034626,-0.001205,0.010026,0.010087,0.014482,0.031742,9.7631e-07,0.94,0.7,0
0.046805,-0.0066965,0.034607,-0.0012175,0.010017,7.4774e-06,0,0,0.063934,-0.029209,0,3.8882e-05,0,0,0,0.034607,-0.0012175,0.010017,0.011959,0.014469,0.031735,9.7507e-07,0.95,0.7,0
0.047445,-0.0066995,0.034591,-0.0012274,0.010009,7.4368e-06,0,0,0.063913,-0.029215,0,3.8672e-05,0,0,0,0.034591,-0.0012274,0.010009,0.011896,0.014458,0.031729,9.7405e-07,0.96,0.7,0
0.048084,-0.0067018,0.034579,-0.001235,0.010003,6.427e-06,0,0,0.063897,-0.029219,0,3.342e-05,0,0,0,0.034579,-0.001235,0.010003,0.010282,0.014449,0.031725,9.7325e-07,0.97,0.7,0
0.048722,-0.0067034,0.03457,-0.0012403,0.0099991,4.6893e-06,0,0,0.063886,-0.029222,0,2.4384e-05,0,0,0,0.03457,-0.0012403,0.0099991,0.0075026,0.014443,0.031721,9.7267e-07,0.98,0.7,0
0.049361,-0.0067044,0.034565,-0.0012435,0.0099965,2.4661e-06,0,0,0.063879,-0.029224,0,1.2824e-05,0,0,0,0.034565,-0.0012435,0.0099965,0.0039458,0.014439,0.031719,9.7232e-07,0.99,0.7,0
0.05,-0.0067047,0.034564,-0.0012445,0.0099957,-6.1859e-06,0,0,0.063877,-0.029225,0,-3.2167e-05,0,0,0,0.034564,-0.0012445,0.0099957,-0.0098979,0.014438,0.031719,9.722e-07,1,0.7,0
0,0,0.030391,0.013025,0.013025,-0.0028607,0,0,0.045152,-1.6263e-19,0,-0.014875,0,0,0,0.03085,0.012566,0.013025,-9.1173,0.018813,0.018059,3.0184e-07,0,0.71,0
0.00045152,-0.00014876,0.030356,0.012592,0.012885,-0.0028481,0,0,0.045427,-0.00076012,0,-0.01481,0,0,0,0.030802,0.012147,0.012885,-8.8894,0.018611,0.018297,3.1289e-07,0.01,0.71,0
0.00090853,-0.0002958,0.030502,0.012218,0.012816,-0.0028057,0,0,0.045983,-0.0015543,0,-0.01459,0,0,0,0.030922,0.011797,0.012816,-8.5311,0.018512,0.018637,3.2911e-07,0.02,0.71,0
0.0013712,-0.00044041,0.030647,0.01183,0.012743,-0.002744,0,0,0.04655,-0.002374,0,-0.014269,0,0,0,0.031039,0.011438,0.012743,-8.1297,0.018407,0.018982,3.4568e-07,0.03,0.71,0
0.0018395,-0.00058194,0.03079,0.011431,0.012667,-0.0026639,0,0,0.047122,-0.0032118,0,-0.013852,0,0,0,0.03115,0.011071,0.012667,-7.6937,0.018296,0.019331,3.6249e-07,0.04,0.71,0
0.0023136,-0.00071977,0.03093,0.011024,0.012586,-0.0025663,0,0,0.047694,-0.0040611,0,-0.013345,0,0,0,0.031256,0.010699,0.012586,-7.2294,0.01818,0.019681,3.7941e-07,0.05,0.71,0
0.0027934,-0.00085337,0.031064,0.010612,0.012503,-0.0024519,0,0,0.048259,-0.0049161,0,-0.01275,0,0,0,0.031354,0.010322,0.012503,-6.7416,0.01806,0.020031,3.9633e-07,0.06,0.71,0
0.0032788,-0.0009822,0.031191,0.010196,0.012416,-0.0023211,0,0,0.048815,-0.005772,0,-0.01207,0,0,0,0.031445,0.0099428,0.012416,-6.2339,0.017935,0.020378,4.1313e-07,0.07,0.71,0
0.0037697,-0.0011058,0.03131,0.0097788,0.012327,-0.0021745,0,0,0.049357,-0.0066246,0,-0.011308,0,0,0,0.031528,0.0095613,0.012327,-5.7097,0.017805,0.020722,4.2972e-07,0.08,0.71,0
0.004266,-0.0012238,0.03142,0.0093609,0.012234,-0.002013,0,0,0.049882,-0.0074704,0,-0.010468,0,0,0,0.031602,0.0091787,0.012234,-5.1718,0.017671,0.021062,4.4602e-07,0.09,0.71,0
0.0047673,-0.0013359,0.031518,0.0089437,0.012139,-0.0018376,0,0,0.050387,-0.0083067,0,-0.0095555,0,0,0,0.031667,0.0087951,0.012139,-4.6234,0.017534,0.021397,4.6198e-07,0.1,0.71,0
0.0052737,-0.0014417,0.031606,0.0085283,0.01204,-0.0016495,0,0,0.050871,-0.0091311,0,-0.0085773,0,0,0,0.031723,0.008411,0.01204,-4.0677,0.017392,0.021726,4.7754e-07,0.11,0.71,0
0.0057848,-0.0015413,0.031682,0.0081153,0.011939,-0.0014504,0,0,0.051331,-0.0099419,0,-0.0075419,0,0,0,0.031771,0.0080263,0.011939,-3.5085,0.017245,0.02205,4.9267e-07,0.12,0.71,0
0.0063003,-0.0016345,0.031745,0.0077054,0.011835,-0.0012423,0,0,0.051766,-0.010737,0,-0.0064602,0,0,0,0.031809,0.0076414,0.011835,-2.9505,0.017095,0.022367,5.0732e-07,0.13,0.71,0
0.0068201,-0.0017215,0.031795,0.0072997,0.011728,-0.001028,0,0,0.052173,-0.011515,0,-0.0053457,0,0,0,0.031838,0.0072566,0.011728,-2.3989,0.016941,0.022679,5.2143e-07,0.14,0.71,0
0.0073438,-0.0018026,0.031832,0.0068994,0.011619,-0.00081034,0,0,0.052553,-0.012272,0,-0.0042138,0,0,0,0.031858,0.0068731,0.011619,-1.8596,0.016784,0.022983,5.3494e-07,0.15,0.71,0
0.0078711,-0.0018785,0.031855,0.0065065,0.011508,-0.00059266,0,0,0.052901,-0.013005,0,-0.0030818,0,0,0,0.031869,0.0064926,0.011508,-1.3386,0.016623,0.023277,5.4773e-07,0.16,0.71,0
0.0084018,-0.0019497,0.031863,0.0061234,0.011396,-0.0003785,0,0,0.053215,-0.013709,0,-0.0019682,0,0,0,0.031869,0.0061178,0.011396,-0.84228,0.016461,0.02356,5.5966e-07,0.17,0.71,0
0.0089354,-0.0020175,0.031857,0.0057533,0.011283,-0.00017149,0,0,0.053493,-0.014378,0,-0.00089173,0,0,0,0.031859,0.0057522,0.011283,-0.37637,0.016298,0.023827,5.7058e-07,0.18,0.71,0
0.0094716,-0.002083,0.031838,0.0053997,0.011171,2.4566e-05,0,0,0.053733,-0.015006,0,0.00012774,0,0,0,0.031838,0.0053997,0.011171,0.053237,0.016136,0.024077,5.8036e-07,0.19,0.71,0
0.01001,-0.0021479,0.031806,0.0050658,0.011062,0.00020527,0,0,0.053936,-0.015589,0,0.0010674,0,0,0,0.031808,0.0050642,0.011062,0.43978,0.015978,0.024306,5.8891e-07,0.2,0.71,0
0.01055,-0.0022142,0.031765,0.0047553,0.010956,0.0003651,0,0,0.054103,-0.016122,0,0.0018985,0,0,0,0.03177,0.0047503,0.010956,0.77431,0.015825,0.024513,5.9618e-07,0.21,0.71,0
0.011092,-0.0022842,0.031716,0.0044726,0.010857,0.00049711,0,0,0.054235,-0.016599,0,0.0025849,0,0,0,0.031725,0.0044636,0.010857,1.045,0.015682,0.024694,6.0215e-07,0.22,0.71,0
0.011635,-0.0023609,0.031666,0.0042227,0.010767,0.00059149,0,0,0.054339,-0.017014,0,0.0030757,0,0,0,0.031679,0.00421,0.010767,1.2341,0.015552,0.024848,6.0687e-07,0.23,0.71,0
0.012179,-0.0024478,0.03162,0.0040083,0.010689,0.00063203,0,0,0.054422,-0.017368,0,0.0032866,0,0,0,0.031634,0.0039939,0.010689,1.3106,0.015439,0.024976,6.1053e-07,0.24,0.71,0
0.012724,-0.0025495,0.031591,0.003828,0.010626,0.00058584,0,0,0.05451,-0.017674,0,0.0030464,0,0,0,0.031603,0.0038156,0.010626,1.2083,0.015348,0.025086,6.1384e-07,0.25,0.71,0
0.013269,-0.0026721,0.031667,0.003692,0.010608,0.00038278,0,0,0.054754,-0.017981,0,0.0019905,0,0,0,0.031672,0.0036868,0.010608,0.78378,0.015322,0.025247,6.2188e-07,0.26,0.71,0
0.013819,-0.0028247,0.032218,0.0035965,0.010744,3.5526e-06,0,0,0.05583,-0.018584,0,1.8474e-05,0,0,0,0.032218,0.0035965,0.010744,0.0071119,0.015519,0.025801,6.5917e-07,0.27,0.71,0
0.014386,-0.0030062,0.032434,0.0027627,0.010559,-0.00043868,0,0,0.056874,-0.02027,0,-0.0022811,0,0,0,0.03244,0.0027562,0.010559,-0.84685,0.015252,0.026653,6.9886e-07,0.28,0.71,0
0.014956,-0.0032027,0.031797,-0.00017867,0.0094854,0.00029526,0,0,0.043264,-0.016751,0,-3.9014e-05,0,0,0,0.031824,-0.00020605,0.0094854,0.34785,0.013701,0.028528,7.0616e-07,0.29,0.71,0
0.015251,-0.0033354,0.032613,-0.00062242,0.0095972,1.4551e-05,0,0,0.029921,-0.013286,0,3.7831e-05,0,0,0,0.032613,-0.00062242,0.0095972,0.025084,0.013863,0.029486,8.0326e-07,0.3,0.71,0
0.015555,-0.0034238,0.032759,-0.0012319,0.0094581,0.0007479,0,0,0.030291,-0.013897,0,0.0019445,0,0,0,0.032775,-0.0012484,0.0094581,1.2599,0.013662,0.030132,8.3062e-07,0.31,0.71,0
0.015857,-0.0035189,0.032482,-0.0019529,0.0091586,0.00047988,0,0,0.03032,-0.014445,0,0.0012477,0,0,0,0.032488,-0.0019596,0.0091586,0.79827,0.013229,0.030451,8.256e-07,0.32,0.71,0
0.016161,-0.0036225,0.032598,-0.0018017,0.0092389,0.00030702,0,0,0.030367,-0.014353,0,0.00079826,0,0,0,0.032601,-0.0018044,0.0092389,0.51132,0.013345,0.030426,8.3052e-07,0.33,0.71,0
0.016464,-0.003735,0.032633,-0.001543,0.0093271,0.0002789,0,0,0.030298,-0.014131,0,0.00072515,0,0,0,0.032636,-0.0015452,0.0093271,0.46753,0.013473,0.030248,8.2718e-07,0.34,0.71,0
0.016767,-0.0038525,0.032734,-0.0013234,0.0094231,0.00034306,0,0,0.030304,-0.01397,0,0.00089195,0,0,0,0.032737,-0.0013268,0.0094231,0.57706,0.013611,0.030162,8.2964e-07,0.35,0.71,0
0.01707,-0.0039728,0.032929,-0.0011307,0.0095394,0.00043355,0,0,0.030406,-0.013871,0,0.0011272,0,0,0,0.032934,-0.0011362,0.0095394,0.72917,0.013779,0.030184,8.3989e-07,0.36,0.71,0
0.017375,-0.0040948,0.033174,-0.00098562,0.0096565,0.00051219,0,0,0.030573,-0.013835,0,0.0013317,0,0,0,0.033182,-0.0009933,0.0096565,0.85883,0.013948,0.030288,8.5517e-07,0.37,0.71,0
0.017682,-0.0042182,0.033449,-0.00087589,0.0097719,0.00056182,0,0,0.03078,-0.013842,0,0.0014607,0,0,0,0.033458,-0.00088508,0.0097719,0.93746,0.014115,0.030447,8.7374e-07,0.38,0.71,0
0.017991,-0.0043427,0.033733,-0.00078619,0.009884,0.00057431,0,0,0.031003,-0.013871,0,0.0014932,0,0,0,0.033742,-0.00079574,0.009884,0.9529,0.014277,0.030628,8.9364e-07,0.39,0.71,0
0.018302,-0.0044683,0.03401,-0.00069756,0.0099938,0.00055072,0,0,0.031221,-0.013899,0,0.0014319,0,0,0,0.034019,-0.0007063,0.0099938,0.90882,0.014436,0.030802,9.1321e-07,0.4,0.71,0
0.018615,-0.0045953,0.03427,-0.00059471,0.010103,0.0004984,0,0,0.031418,-0.013907,0,0.0012958,0,0,0,0.034277,-0.00060183,0.010103,0.81884,0.014593,0.030948,9.3115e-07,0.41,0.71,0
0.01893,-0.0047235,0.034505,-0.00046803,0.010211,0.00042863,0,0,0.031582,-0.013883,0,0.0011144,0,0,0,0.034511,-0.00047328,0.010211,0.70208,0.01475,0.031052,9.4659e-07,0.42,0.71,0
0.019247,-0.0048529,0.034714,-0.00031473,0.01032,0.00035413,0,0,0.031713,-0.013825,0,0.00092073,0,0,0,0.034718,-0.00031831,0.01032,0.57916,0.014906,0.031112,9.592e-07,0.43,0.71,0
0.019564,-0.004983,0.034898,-0.0001387,0.010428,0.00028675,0,0,0.031811,-0.013736,0,0.00074554,0,0,0,0.0349,-0.00014104,0.010428,0.46888,0.015062,0.031133,9.6916e-07,0.44,0.71,0
0.019883,-0.0051134,0.03506,5.0876e-05,0.010533,0.00023559,0,0,0.031885,-0.013627,0,0.00061253,0,0,0,0.035062,4.929e-05,0.010533,0.38554,0.015215,0.031124,9.7701e-07,0.45,0.71,0
0.020202,-0.0052434,0.035208,0.00024206,0.010635,0.00020586,0,0,0.031945,-0.013511,0,0.00053523,0,0,0,0.035209,0.00024085,0.010635,0.3373,0.015362,0.031102,9.8355e-07,0.46,0.71,0
0.020522,-0.0053725,0.035347,0.00042303,0.010731,0.00019884,0,0,0.032,-0.0134,0,0.00051698,0,0,0,0.035348,0.0004219,0.010731,0.3262,0.0155,0.031081,9.8962e-07,0.47,0.71,0
0.020842,-0.0055,0.035481,0.00058419,0.01082,0.00021281,0,0,0.03206,-0.013306,0,0.00055331,0,0,0,0.035482,0.00058289,0.01082,0.34939,0.015628,0.031073,9.9596e-07,0.48,0.71,0
0.021163,-0.0056254,0.035615,0.00071904,0.0109,0.0002444,0,0,0.032129,-0.013236,0,0.00063545,0,0,0,0.035617,0.00071733,0.0109,0.40125,0.015745,0.031085,1.0031e-06,0.49,0.71,0
0.021485,-0.0057482,0.035751,0.00082418,0.010973,0.00028989,0,0,0.032212,-0.013193,0,0.00075372,0,0,0,0.035753,0.00082177,0.010973,0.47551,0.015849,0.031123,1.0114e-06,0.5,0.71,0
0.021807,-0.005868,0.035889,0.00089852,0.011036,0.00034632,0,0,0.032309,-0.013179,0,0.00090044,0,0,0,0.035893,0.0008951,0.011036,0.56701,0.015941,0.031189,1.0209e-06,0.51,0.71,0
0.022131,-0.0059845,0.036031,0.00094226,0.011092,0.0004121,0,0,0.03242,-0.013194,0,0.0010715,0,0,0,0.036035,0.00093742,0.011092,0.6728,0.016022,0.031282,1.0319e-06,0.52,0.71,0
0.022456,-0.0060975,0.036177,0.00095509,0.01114,0.000487,0,0,0.032548,-0.01324,0,0.0012662,0,0,0,0.036183,0.00094836,0.01114,0.79201,0.01609,0.031405,1.0444e-06,0.53,0.71,0
0.022782,-0.0062067,0.03633,0.00093418,0.011179,0.00057113,0,0,0.032696,-0.013318,0,0.0014849,0,0,0,0.036339,0.00092497,0.011179,0.92418,0.016148,0.031562,1.0589e-06,0.54,0.71,0
0.02311,-0.0063118,0.036496,0.00087725,0.011212,0.00066286,0,0,0.032869,-0.013435,0,0.0017234,0,0,0,0.036508,0.00086492,0.011212,1.0658,0.016195,0.03176,1.0759e-06,0.55,0.71,0
0.023439,-0.0064128,0.036687,0.00078083,0.01124,0.00075958,0,0,0.03308,-0.013597,0,0.0019749,0,0,0,0.036703,0.00076477,0.01124,1.2114,0.016236,0.032012,1.0968e-06,0.56,0.71,0
0.023771,-0.0065097,0.036945,0.00065772,0.011281,0.00084391,0,0,0.033363,-0.01381,0,0.0021942,0,0,0,0.036965,0.00063811,0.011281,1.3315,0.016294,0.032346,1.125e-06,0.57,0.71,0
0.024106,-0.0066034,0.037231,0.00044768,0.011304,0.00086447,0,0,0.033706,-0.014113,0,0.0022476,0,0,0,0.037251,0.00042737,0.011304,1.3456,0.016328,0.032769,1.1589e-06,0.58,0.71,0
0.024445,-0.006696,0.037391,0.0002581,0.011295,0.00077189,0,0,0.033925,-0.014348,0,0.0020069,0,0,0,0.037407,0.00024206,0.011295,1.1903,0.016315,0.033055,1.1799e-06,0.59,0.71,0
0.024785,-0.0067853,0.037952,0.00083474,0.011636,0.00060292,0,0,0.034211,-0.014042,0,0.0015676,0,0,0,0.037962,0.00082494,0.011636,0.93037,0.016807,0.033084,1.2123e-06,0.6,0.71,0
0.025129,-0.0068682,0.037984,0.00093156,0.011675,0.0014933,0,0,0.034202,-0.013966,0,0.0038825,0,0,0,0.038044,0.00087147,0.011675,2.3042,0.016863,0.03312,1.2186e-06,0.61,0.71,0
0.025469,-0.0068893,0.03701,-0.00010043,0.011073,0.0008336,0,0,0.050462,-0.019367,0,0.0047093,0,0,0,0.037069,-0.00015882,0.011073,1.4779,0.015994,0.033167,1.1125e-06,0.62,0.71,0
0.026139,-0.0068011,0.037944,0.0027056,0.012195,0.0014474,0,0,0.066948,-0.024672,0,0.0075266,0,0,0,0.038004,0.0026463,0.012195,2.3481,0.017615,0.031681,1.1469e-06,0.63,0.71,0
0.026808,-0.006721,0.037591,0.003066,0.012197,0.00079464,0,0,0.066023,-0.023741,0,0.0041322,0,0,0,0.037609,0.0030477,0.012197,1.3178,0.017618,0.031016,1.0948e-06,0.64,0.71,0
0.027459,-0.006664,0.036827,0.0026522,0.011844,0.00022471,0,0,0.064957,-0.023898,0,0.0011685,0,0,0,0.036829,0.0026507,0.011844,0.37672,0.017108,0.030634,1.0406e-06,0.65,0.71,0
0.028107,-0.0066324,0.03657,0.0022687,0.011652,-0.00015299,0,0,0.064788,-0.024395,0,-0.00079553,0,0,0,0.036571,0.0022681,0.011652,-0.25554,0.01683,0.030706,1.0321e-06,0.66,0.71,0
0.028755,-0.006618,0.036426,0.0019229,0.011505,-0.00035968,0,0,0.064796,-0.024913,0,-0.0018704,0,0,0,0.03643,0.0019191,0.011505,-0.5972,0.016618,0.030856,1.0324e-06,0.67,0.71,0
0.029403,-0.0066155,0.036302,0.0016014,0.011371,-0.00047217,0,0,0.06482,-0.025401,0,-0.0024553,0,0,0,0.036308,0.0015949,0.011371,-0.77943,0.016425,0.031003,1.0332e-06,0.68,0.71,0
0.030051,-0.0066215,0.036187,0.0013052,0.011248,-0.00052825,0,0,0.064842,-0.02585,0,-0.0027469,0,0,0,0.036195,0.0012972,0.011248,-0.86743,0.016246,0.031138,1.0336e-06,0.69,0.71,0
0.0307,-0.0066334,0.036079,0.0010335,0.011134,-0.00054799,0,0,0.064858,-0.026261,0,-0.0028496,0,0,0,0.036088,0.0010249,0.011134,-0.89562,0.016082,0.031259,1.0335e-06,0.7,0.71,0
0.031349,-0.0066495,0.035978,0.00078522,0.011029,-0.00054334,0,0,0.064868,-0.026634,0,-0.0028254,0,0,0,0.035987,0.00077684,0.011029,-0.8843,0.015931,0.031367,1.033e-06,0.71,0.71,0
0.031997,-0.0066684,0.035883,0.00055916,0.010933,-0.00052213,0,0,0.064871,-0.026971,0,-0.0027151,0,0,0,0.035891,0.00055144,0.010933,-0.84666,0.015792,0.031461,1.032e-06,0.72,0.71,0
0.032646,-0.006689,0.035792,0.00035396,0.010844,-0.00048989,0,0,0.064866,-0.027274,0,-0.0025474,0,0,0,0.035799,0.00034719,0.010844,-0.79184,0.015663,0.031542,1.0306e-06,0.73,0.71,0
0.033294,-0.0067106,0.035705,0.00016828,0.010762,-0.00045065,0,0,0.064853,-0.027544,0,-0.0023434,0,0,0,0.035711,0.00016257,0.010762,-0.72641,0.015545,0.031611,1.0288e-06,0.74,0.71,0
0.033943,-0.0067326,0.035622,7.4652e-07,0.010687,-0.00040741,0,0,0.064831,-0.027783,0,-0.0021185,0,0,0,0.035626,-3.9126e-06,0.010687,-0.6552,0.015436,0.031669,1.0266e-06,0.75,0.71,0
0.034591,-0.0067545,0.035541,-0.00015002,0.010617,-0.00036243,0,0,0.064801,-0.027995,0,-0.0018847,0,0,0,0.035544,-0.0001537,0.010617,-0.58175,0.015336,0.031715,1.0241e-06,0.76,0.71,0
0.035239,-0.0067759,0.035462,-0.00028535,0.010553,-0.00031738,0,0,0.064764,-0.02818,0,-0.0016504,0,0,0,0.035465,-0.00028817,0.010553,-0.50864,0.015243,0.031753,1.0214e-06,0.77,0.71,0
0.035886,-0.0067966,0.035387,-0.00040656,0.010494,-0.00027348,0,0,0.064721,-0.028341,0,-0.0014221,0,0,0,0.035389,-0.00040865,0.010494,-0.43774,0.015158,0.031781,1.0184e-06,0.78,0.71,0
0.036533,-0.0068165,0.035313,-0.00051486,0.01044,-0.00023161,0,0,0.064672,-0.028481,0,-0.0012044,0,0,0,0.035315,-0.00051636,0.01044,-0.37036,0.015079,0.031802,1.0153e-06,0.79,0.71,0
0.03718,-0.0068353,0.035243,-0.00061143,0.010389,-0.00019239,0,0,0.064619,-0.028602,0,-0.0010004,0,0,0,0.035244,-0.00061246,0.010389,-0.30743,0.015007,0.031815,1.012e-06,0.8,0.71,0
0.037826,-0.006853,0.035175,-0.00069734,0.010343,-0.00015622,0,0,0.064562,-0.028706,0,-0.00081237,0,0,0,0.035176,-0.00069803,0.010343,-0.24952,0.01494,0.031823,1.0086e-06,0.81,0.71,0
0.038471,-0.0068696,0.03511,-0.00077361,0.010301,-0.00012337,0,0,0.064504,-0.028794,0,-0.00064153,0,0,0,0.03511,-0.00077403,0.010301,-0.19698,0.014879,0.031827,1.0053e-06,0.82,0.71,0
0.039116,-0.0068851,0.035048,-0.00084115,0.010262,-9.3954e-05,0,0,0.064443,-0.028868,0,-0.00048856,0,0,0,0.035048,-0.0008414,0.010262,-0.14999,0.014823,0.031825,1.0019e-06,0.83,0.71,0
0.03976,-0.0068993,0.034989,-0.00090082,0.010226,-6.8009e-05,0,0,0.064382,-0.028931,0,-0.00035364,0,0,0,0.034989,-0.00090095,0.010226,-0.10857,0.014771,0.031821,9.9854e-07,0.84,0.71,0
0.040404,-0.0069124,0.034933,-0.0009534,0.010194,-4.5497e-05,0,0,0.064322,-0.028983,0,-0.00023659,0,0,0,0.034933,-0.00095346,0.010194,-0.07264,0.014724,0.031813,9.9528e-07,0.85,0.71,0
0.041046,-0.0069244,0.034881,-0.0009996,0.010164,-2.6327e-05,0,0,0.064262,-0.029026,0,-0.0001369,0,0,0,0.034881,-0.00099961,0.010164,-0.042041,0.014682,0.031803,9.9212e-07,0.86,0.71,0
0.041689,-0.0069353,0.034831,-0.0010401,0.010137,-1.0364e-05,0,0,0.064204,-0.029061,0,-5.3895e-05,0,0,0,0.034831,-0.0010401,0.010137,-0.016555,0.014643,0.031792,9.8908e-07,0.87,0.71,0
0.042331,-0.0069452,0.034785,-0.0010754,0.010113,2.5569e-06,0,0,0.064148,-0.02909,0,1.3296e-05,0,0,0,0.034785,-0.0010754,0.010113,0.0040853,0.014608,0.03178,9.862e-07,0.88,0.71,0
0.042972,-0.006954,0.034743,-0.001106,0.010091,1.2626e-05,0,0,0.064095,-0.029113,0,6.5654e-05,0,0,0,0.034743,-0.001106,0.010091,0.020179,0.014576,0.031767,9.8348e-07,0.89,0.71,0
0.043612,-0.0069619,0.034704,-0.0011326,0.010072,2.0049e-05,0,0,0.064045,-0.029131,0,0.00010425,0,0,0,0.034704,-0.0011326,0.010072,0.032054,0.014548,0.031754,9.8095e-07,0.9,0.71,0
0.044253,-0.0069689,0.034669,-0.0011554,0.010054,2.5045e-05,0,0,0.063999,-0.029145,0,0.00013024,0,0,0,0.034669,-0.0011554,0.010054,0.040056,0.014523,0.031741,9.7862e-07,0.91,0.71,0
0.044892,-0.006975,0.034638,-0.0011748,0.010039,2.7844e-05,0,0,0.063957,-0.029155,0,0.00014479,0,0,0,0.034638,-0.0011748,0.010039,0.044547,0.0145,0.031728,9.765e-07,0.92,0.71,0
0.045532,-0.0069803,0.03461,-0.0011912,0.010025,2.868e-05,0,0,0.063919,-0.029163,0,0.00014914,0,0,0,0.03461,-0.0011913,0.010025,0.0459,0.014481,0.031717,9.7461e-07,0.93,0.71,0
0.046171,-0.0069847,0.034585,-0.0012049,0.010014,2.7794e-05,0,0,0.063885,-0.029169,0,0.00014453,0,0,0,0.034585,-0.0012049,0.010014,0.044494,0.014465,0.031706,9.7295e-07,0.94,0.71,0
0.046809,-0.0069885,0.034565,-0.0012161,0.010005,2.5427e-05,0,0,0.063856,-0.029174,0,0.00013222,0,0,0,0.034565,-0.0012161,0.010005,0.040716,0.014451,0.031697,9.7153e-07,0.95,0.71,0
0.047448,-0.0069915,0.034548,-0.0012249,0.0099969,2.1825e-05,0,0,0.063833,-0.029177,0,0.00011349,0,0,0,0.034548,-0.0012249,0.0099969,0.034957,0.01444,0.031689,9.7036e-07,0.96,0.71,0
0.048086,-0.0069938,0.034535,-0.0012316,0.0099909,1.7235e-05,0,0,0.063814,-0.029179,0,8.9622e-05,0,0,0,0.034535,-0.0012317,0.0099909,0.027609,0.014431,0.031683,9.6945e-07,0.97,0.71,0
0.048724,-0.0069955,0.034525,-0.0012364,0.0099867,1.1902e-05,0,0,0.0638,-0.02918,0,6.1892e-05,0,0,0,0.034525,-0.0012364,0.0099867,0.019069,0.014425,0.031678,9.6879e-07,0.98,0.71,0
0.049362,-0.0069965,0.03452,-0.0012392,0.0099842,6.0749e-06,0,0,0.063792,-0.029181,0,3.159e-05,0,0,0,0.03452,-0.0012392,0.0099842,0.0097338,0.014422,0.031675,9.684e-07,0.99,0.71,0
0.05,-0.0069968,0.034518,-0.0012401,0.0099833,-6.26e-06,0,0,0.06379,-0.029181,0,-3.2552e-05,0,0,0,0.034518,-0.0012401,0.0099833,-0.010031,0.01442,0.031674,9.6827e-07,1,0.71,0
0,0,0.030384,0.013022,0.013022,-0.0030114,0,0,0.045142,-1.0842e-19,0,-0.015659,0,0,0,0.030891,0.012514,0.013022,-9.5655,0.018809,0.018129,3.052e-07,0,0.72,0
0.00045142,-0.00015659,0.030347,0.012561,0.012872,-0.0029984,0,0,0.045434,-0.00080977,0,-0.015592,0,0,0,0.030839,0.012069,0.012872,-9.3162,0.018593,0.018381,3.1691e-07,0.01,0.72,0
0.00090867,-0.0003118,0.030502,0.012166,0.0128,-0.0029574,0,0,0.046024,-0.0016498,0,-0.015378,0,0,0,0.030967,0.011701,0.0128,-8.9392,0.018489,0.018741,3.3414e-07,0.02,0.72,0
0.0013719,-0.00046481,0.030658,0.011758,0.012725,-0.0028949,0,0,0.046626,-0.0025132,0,-0.015053,0,0,0,0.031091,0.011325,0.012725,-8.5161,0.01838,0.019105,3.5167e-07,0.03,0.72,0
0.0018412,-0.00061492,0.030812,0.011341,0.012646,-0.0028123,0,0,0.047232,-0.0033933,0,-0.014624,0,0,0,0.03121,0.010943,0.012646,-8.056,0.018266,0.019472,3.6941e-07,0.04,0.72,0
0.0023166,-0.00076145,0.030964,0.010916,0.012564,-0.0027104,0,0,0.047839,-0.0042844,0,-0.014094,0,0,0,0.031323,0.010556,0.012564,-7.5655,0.018148,0.01984,3.8727e-07,0.05,0.72,0
0.002798,-0.00090379,0.031111,0.010486,0.012479,-0.0025902,0,0,0.048442,-0.0051809,0,-0.013469,0,0,0,0.031431,0.010166,0.012479,-7.0499,0.018025,0.020208,4.0516e-07,0.06,0.72,0
0.0032854,-0.0010414,0.031252,0.010054,0.012392,-0.0024523,0,0,0.049037,-0.0060782,0,-0.012752,0,0,0,0.031532,0.0097741,0.012392,-6.5136,0.017899,0.020574,4.2299e-07,0.07,0.72,0
0.0037787,-0.0011737,0.031387,0.0096207,0.012302,-0.0022975,0,0,0.04962,-0.006972,0,-0.011947,0,0,0,0.031627,0.0093808,0.012302,-5.9604,0.01777,0.020938,4.4069e-07,0.08,0.72,0
0.0042778,-0.0013004,0.031514,0.0091879,0.01221,-0.0021269,0,0,0.050188,-0.0078586,0,-0.01106,0,0,0,0.031714,0.0089871,0.01221,-5.3937,0.017637,0.021299,4.5819e-07,0.09,0.72,0
0.0047825,-0.001421,0.031632,0.0087571,0.012117,-0.0019415,0,0,0.05074,-0.0087351,0,-0.010096,0,0,0,0.031796,0.0085935,0.012117,-4.8171,0.017502,0.021656,4.7545e-07,0.1,0.72,0
0.0052926,-0.0015353,0.031741,0.0083295,0.012021,-0.0017429,0,0,0.051272,-0.0095986,0,-0.009063,0,0,0,0.03187,0.0082004,0.012021,-4.2343,0.017364,0.02201,4.9244e-07,0.11,0.72,0
0.0058079,-0.0016431,0.031841,0.0079063,0.011924,-0.0015328,0,0,0.051784,-0.010447,0,-0.0079706,0,0,0,0.031939,0.0078085,0.011924,-3.6494,0.017224,0.022359,5.0911e-07,0.12,0.72,0
0.0063283,-0.0017445,0.031932,0.0074886,0.011826,-0.0013135,0,0,0.052274,-0.011277,0,-0.0068302,0,0,0,0.032002,0.0074182,0.011826,-3.0671,0.017082,0.022703,5.2544e-07,0.13,0.72,0
0.0068534,-0.0018394,0.032012,0.0070779,0.011727,-0.0010875,0,0,0.052741,-0.012087,0,-0.0056552,0,0,0,0.032059,0.0070306,0.011727,-2.4928,0.016939,0.023042,5.414e-07,0.14,0.72,0
0.0073831,-0.0019283,0.032082,0.0066759,0.011628,-0.00085797,0,0,0.053183,-0.012874,0,-0.0044614,0,0,0,0.032111,0.006647,0.011628,-1.9319,0.016795,0.023375,5.5692e-07,0.15,0.72,0
0.007917,-0.0020116,0.032143,0.0062848,0.011528,-0.00062817,0,0,0.053598,-0.013633,0,-0.0032665,0,0,0,0.032158,0.0062696,0.011528,-1.3908,0.016652,0.023701,5.7193e-07,0.16,0.72,0
0.008455,-0.00209,0.032194,0.0059074,0.01143,-0.00040187,0,0,0.053985,-0.01436,0,-0.0020897,0,0,0,0.0322,0.0059013,0.01143,-0.87566,0.016511,0.024016,5.8632e-07,0.17,0.72,0
0.0089967,-0.0021645,0.032236,0.0055469,0.011335,-0.00018315,0,0,0.054344,-0.015049,0,-0.0009524,0,0,0,0.032238,0.0055456,0.011335,-0.39316,0.016373,0.02432,5.9999e-07,0.18,0.72,0
0.0095419,-0.0022365,0.032271,0.0052071,0.011244,2.3387e-05,0,0,0.054672,-0.015695,0,0.00012161,0,0,0,0.032271,0.0052071,0.011244,0.049512,0.016241,0.024608,6.1283e-07,0.19,0.72,0
0.01009,-0.0023073,0.0323,0.0048922,0.011158,0.00021244,0,0,0.054971,-0.01629,0,0.0011047,0,0,0,0.032302,0.0048906,0.011158,0.44407,0.016117,0.024877,6.2475e-07,0.2,0.72,0
0.010641,-0.002379,0.032327,0.0046073,0.01108,0.00037769,0,0,0.055241,-0.01683,0,0.001964,0,0,0,0.032332,0.0046021,0.01108,0.78049,0.016005,0.025125,6.3569e-07,0.21,0.72,0
0.011195,-0.0024538,0.032354,0.004358,0.011014,0.00051141,0,0,0.055484,-0.017304,0,0.0026593,0,0,0,0.032363,0.0043487,0.011014,1.0462,0.015908,0.025348,6.4555e-07,0.22,0.72,0
0.011751,-0.0025346,0.032383,0.0041513,0.01096,0.00060365,0,0,0.055698,-0.017703,0,0.003139,0,0,0,0.032396,0.0041384,0.01096,1.2244,0.015831,0.025539,6.5417e-07,0.23,0.72,0
0.012309,-0.0026249,0.03241,0.0039941,0.010921,0.00063972,0,0,0.055871,-0.018011,0,0.0033266,0,0,0,0.032425,0.0039797,0.010921,1.289,0.015775,0.025687,6.6095e-07,0.24,0.72,0
0.012868,-0.0027289,0.03241,0.0038918,0.010891,0.00059412,0,0,0.055951,-0.018197,0,0.0030894,0,0,0,0.032423,0.0038794,0.010891,1.1929,0.015731,0.025763,6.639e-07,0.25,0.72,0
0.013428,-0.0028528,0.032257,0.0038206,0.010823,0.0004071,0,0,0.055728,-0.018207,0,0.0021169,0,0,0,0.032263,0.0038147,0.010823,0.82003,0.015634,0.025672,6.5553e-07,0.26,0.72,0
0.013983,-0.0030062,0.031796,0.0037704,0.01067,-7.1722e-05,0,0,0.054928,-0.017939,0,-0.00037295,0,0,0,0.031796,0.0037702,0.01067,-0.14663,0.015412,0.025292,6.2716e-07,0.27,0.72,0
0.014527,-0.0032075,0.031556,0.0030918,0.010394,-1.2041e-05,0,0,0.055021,-0.018987,0,-6.2612e-05,0,0,0,0.031556,0.0030918,0.010394,-0.024237,0.015014,0.025606,6.3172e-07,0.28,0.72,0
0.015083,-0.0033659,0.031353,0.0002435,0.0094788,-0.00062775,0,0,0.042357,-0.016008,0,-0.0031778,0,0,0,0.031378,0.00021785,0.0094788,-1.2873,0.013692,0.027786,6.7039e-07,0.29,0.72,0
0.015374,-0.0034642,0.031558,-0.0011327,0.0091276,0.00027113,0,0,0.02916,-0.013338,0,0.00070495,0,0,0,0.03156,-0.0011349,0.0091276,0.47517,0.013184,0.028961,7.4012e-07,0.3,0.72,0
0.015667,-0.0035634,0.032074,-0.001603,0.0091412,0.00036608,0,0,0.029812,-0.013968,0,0.00095182,0,0,0,0.032078,-0.001607,0.0091412,0.62274,0.013204,0.029802,7.8746e-07,0.31,0.72,0
0.01597,-0.0036621,0.032773,-0.0017319,0.0093124,0.00038115,0,0,0.030499,-0.014358,0,0.00099099,0,0,0,0.032777,-0.0017361,0.0093124,0.6328,0.013451,0.030527,8.423e-07,0.32,0.72,0
0.016277,-0.003767,0.032993,-0.0017617,0.0093694,0.00026939,0,0,0.030711,-0.01447,0,0.00070042,0,0,0,0.032995,-0.0017638,0.0093694,0.44407,0.013534,0.030743,8.5957e-07,0.33,0.72,0
0.016584,-0.0038778,0.033113,-0.0015933,0.0094558,0.00020679,0,0,0.030754,-0.014364,0,0.00053765,0,0,0,0.033114,-0.0015945,0.0094558,0.34136,0.013658,0.030712,8.6471e-07,0.34,0.72,0
0.016892,-0.0039936,0.033198,-0.0013904,0.0095422,0.00020572,0,0,0.030752,-0.014212,0,0.00053489,0,0,0,0.033199,-0.0013916,0.0095422,0.34077,0.013783,0.030624,8.6637e-07,0.35,0.72,0
0.017199,-0.0041127,0.033314,-0.0012021,0.0096334,0.00024031,0,0,0.030784,-0.014086,0,0.00062482,0,0,0,0.033315,-0.0012038,0.0096334,0.39889,0.013915,0.030576,8.7072e-07,0.36,0.72,0
0.017507,-0.0042341,0.033472,-0.0010382,0.00973,0.00028215,0,0,0.030864,-0.013999,0,0.00073358,0,0,0,0.033474,-0.0010405,0.00973,0.4684,0.014054,0.030586,8.7894e-07,0.37,0.72,0
0.017816,-0.0043572,0.03366,-0.00089964,0.0098282,0.00031233,0,0,0.030982,-0.013946,0,0.00081206,0,0,0,0.033663,-0.00090246,0.0098282,0.51775,0.014196,0.030643,8.9019e-07,0.38,0.72,0
0.018127,-0.0044816,0.033866,-0.00077727,0.0099265,0.00032147,0,0,0.031121,-0.013915,0,0.00083583,0,0,0,0.033869,-0.00078025,0.0099265,0.53162,0.014338,0.030728,9.0323e-07,0.39,0.72,0
0.018439,-0.0046072,0.034075,-0.0006597,0.010025,0.0003073,0,0,0.031266,-0.01389,0,0.00079899,0,0,0,0.034078,-0.00066242,0.010025,0.50685,0.01448,0.030819,9.1676e-07,0.4,0.72,0
0.018752,-0.004734,0.034279,-0.0005363,0.010123,0.00027323,0,0,0.031403,-0.013857,0,0.0007104,0,0,0,0.034281,-0.00053845,0.010123,0.44962,0.014622,0.0309,9.2968e-07,0.41,0.72,0
0.019067,-0.0048619,0.034468,-0.00040005,0.010221,0.00022631,0,0,0.031522,-0.013807,0,0.0005884,0,0,0,0.03447,-0.00040152,0.010221,0.37185,0.014763,0.030959,9.4123e-07,0.42,0.72,0
0.019383,-0.0049906,0.034642,-0.00024857,0.010318,0.00017526,0,0,0.031621,-0.013737,0,0.00045566,0,0,0,0.034643,-0.00024945,0.010318,0.28779,0.014904,0.030991,9.5104e-07,0.43,0.72,0
0.019699,-0.0051198,0.034798,-8.4133e-05,0.010414,0.00012862,0,0,0.031699,-0.013648,0,0.00033441,0,0,0,0.034799,-8.4607e-05,0.010414,0.21126,0.015043,0.030997,9.5911e-07,0.44,0.72,0
0.020017,-0.0052492,0.03494,8.7217e-05,0.010508,9.33e-05,0,0,0.031762,-0.013547,0,0.00024258,0,0,0,0.034941,8.6967e-05,0.010508,0.15338,0.015179,0.030986,9.6577e-07,0.45,0.72,0
0.020335,-0.0053781,0.035071,0.0002573,0.010599,7.3705e-05,0,0,0.031815,-0.013444,0,0.00019163,0,0,0,0.035072,0.00025714,0.010599,0.1213,0.015309,0.030967,9.7154e-07,0.46,0.72,0
0.020653,-0.0055062,0.035196,0.00041757,0.010684,7.1561e-05,0,0,0.031865,-0.013346,0,0.00018606,0,0,0,0.035196,0.00041742,0.010684,0.11789,0.015433,0.03095,9.7702e-07,0.47,0.72,0
0.020972,-0.0056328,0.035317,0.00056057,0.010763,8.6384e-05,0,0,0.03192,-0.013264,0,0.0002246,0,0,0,0.035318,0.00056035,0.010763,0.1424,0.015547,0.030944,9.8277e-07,0.48,0.72,0
0.021291,-0.0057575,0.035439,0.00068072,0.010836,0.00011628,0,0,0.031984,-0.013202,0,0.00030232,0,0,0,0.035439,0.00068033,0.010836,0.19167,0.015652,0.030957,9.8923e-07,0.49,0.72,0
0.021612,-0.0058799,0.035563,0.00077443,0.010901,0.00015881,0,0,0.03206,-0.013165,0,0.00041292,0,0,0,0.035563,0.0007737,0.010901,0.26156,0.015746,0.030993,9.9676e-07,0.5,0.72,0
0.021933,-0.0059996,0.03569,0.0008397,0.010959,0.00021175,0,0,0.032151,-0.013155,0,0.00055054,0,0,0,0.035692,0.00083842,0.010959,0.3481,0.01583,0.031055,1.0056e-06,0.51,0.72,0
0.022255,-0.0061164,0.035823,0.00087537,0.01101,0.00027336,0,0,0.032258,-0.013175,0,0.00071073,0,0,0,0.035825,0.00087323,0.01101,0.44812,0.015903,0.031147,1.0159e-06,0.52,0.72,0
0.022578,-0.0062298,0.035963,0.00088011,0.011053,0.00034232,0,0,0.032383,-0.013225,0,0.00089004,0,0,0,0.035966,0.00087677,0.011053,0.55899,0.015965,0.031269,1.0279e-06,0.53,0.72,0
0.022902,-0.0063398,0.036113,0.00085227,0.01109,0.00041693,0,0,0.03253,-0.013308,0,0.001084,0,0,0,0.036118,0.00084734,0.01109,0.67734,0.016018,0.031427,1.0421e-06,0.54,0.72,0
0.023228,-0.0064462,0.036277,0.00078971,0.01112,0.00049408,0,0,0.032704,-0.013429,0,0.0012846,0,0,0,0.036284,0.00078284,0.01112,0.79751,0.016062,0.031626,1.0588e-06,0.55,0.72,0
0.023556,-0.0065488,0.036459,0.00069321,0.011146,0.00056628,0,0,0.032908,-0.013588,0,0.0014723,0,0,0,0.036468,0.00068424,0.011146,0.90685,0.016099,0.031868,1.0785e-06,0.56,0.72,0
0.023887,-0.0066479,0.036643,0.00055802,0.01116,0.00061827,0,0,0.033127,-0.013783,0,0.0016075,0,0,0,0.036653,0.00054743,0.01116,0.98132,0.01612,0.032142,1.0997e-06,0.57,0.72,0
0.024219,-0.0067439,0.036757,0.00040725,0.011149,0.00063542,0,0,0.03329,-0.013965,0,0.0016521,0,0,0,0.036768,0.00039615,0.011149,1.0012,0.016105,0.032364,1.1152e-06,0.58,0.72,0
0.024552,-0.0068366,0.036737,0.0003729,0.011133,0.00063646,0,0,0.033286,-0.013988,0,0.0016548,0,0,0,0.036749,0.00036176,0.011133,1.0024,0.016081,0.032374,1.1146e-06,0.59,0.72,0
0.024885,-0.0069248,0.036163,0.0002719,0.01093,0.00080524,0,0,0.032802,-0.013856,0,0.0020936,0,0,0,0.036181,0.00025384,0.01093,1.2846,0.015788,0.031956,1.0671e-06,0.6,0.72,0
0.025208,-0.0070006,0.035742,0.0002983,0.010812,0.00097636,0,0,0.032409,-0.013668,0,0.0025386,0,0,0,0.035769,0.00027142,0.010812,1.5767,0.015618,0.031576,1.0304e-06,0.61,0.72,0
0.025533,-0.0070708,0.035657,0.0010037,0.010998,0.001845,0,0,0.047891,-0.017324,0,0.0080593,0,0,0,0.035776,0.0008847,0.010998,3.1796,0.015886,0.03117,9.7644e-07,0.62,0.72,0
0.026166,-0.0070412,0.035934,0.0031124,0.011714,0.0010019,0,0,0.062971,-0.022364,0,0.00521,0,0,0,0.035964,0.0030818,0.011714,1.7469,0.01692,0.029528,9.5129e-07,0.63,0.72,0
0.026792,-0.0069491,0.036274,0.0034014,0.011902,0.00098069,0,0,0.063365,-0.022103,0,0.0050996,0,0,0,0.036303,0.0033722,0.011902,1.7073,0.017192,0.029602,9.6873e-07,0.64,0.72,0
0.027433,-0.0068994,0.036704,0.0029362,0.011892,0.00032442,0,0,0.064511,-0.023285,0,0.001687,0,0,0,0.036707,0.0029331,0.011892,0.5504,0.017177,0.030304,1.0194e-06,0.65,0.72,0
0.028082,-0.0068751,0.036785,0.0024867,0.011782,-2.476e-05,0,0,0.065009,-0.024167,0,-0.00012875,0,0,0,0.036785,0.0024866,0.011782,-0.041362,0.017018,0.030724,1.0428e-06,0.66,0.72,0
0.028734,-0.006867,0.036685,0.0020597,0.011624,-0.00022374,0,0,0.065161,-0.024866,0,-0.0011635,0,0,0,0.036687,0.0020582,0.011624,-0.37021,0.016789,0.030974,1.0499e-06,0.67,0.72,0
0.029386,-0.0068699,0.036548,0.00168,0.011468,-0.00034076,0,0,0.065208,-0.02545,0,-0.001772,0,0,0,0.036552,0.0016767,0.011468,-0.55987,0.016566,0.031155,1.0517e-06,0.68,0.72,0
0.030038,-0.0068807,0.036409,0.0013428,0.011326,-0.00040484,0,0,0.065216,-0.025955,0,-0.0021052,0,0,0,0.036413,0.0013381,0.011326,-0.66137,0.016359,0.0313,1.0513e-06,0.69,0.72,0
0.03069,-0.0068968,0.036276,0.0010423,0.011195,-0.00043259,0,0,0.065209,-0.026398,0,-0.0022495,0,0,0,0.036281,0.001037,0.011195,-0.70332,0.016171,0.031422,1.05e-06,0.7,0.72,0
0.031342,-0.0069167,0.036151,0.00077383,0.011077,-0.00043484,0,0,0.065191,-0.026789,0,-0.0022612,0,0,0,0.036156,0.00076849,0.011077,-0.70412,0.016001,0.031524,1.048e-06,0.71,0.72,0
0.031994,-0.006939,0.036033,0.00053396,0.01097,-0.00041933,0,0,0.065164,-0.027134,0,-0.0021805,0,0,0,0.036038,0.000529,0.01097,-0.67668,0.015846,0.031609,1.0455e-06,0.72,0.72,0
0.032645,-0.0069626,0.035922,0.0003197,0.010872,-0.0003918,0,0,0.065128,-0.027437,0,-0.0020373,0,0,0,0.035926,0.00031539,0.010872,-0.63043,0.015705,0.03168,1.0426e-06,0.73,0.72,0
0.033296,-0.0069869,0.035816,0.00012852,0.010783,-0.00035656,0,0,0.065084,-0.027702,0,-0.0018541,0,0,0,0.035819,0.00012496,0.010783,-0.57239,0.015576,0.031737,1.0393e-06,0.74,0.72,0
0.033947,-0.0070112,0.035714,-4.1841e-05,0.010702,-0.00031689,0,0,0.065032,-0.027933,0,-0.0016478,0,0,0,0.035717,-4.4649e-05,0.010702,-0.50774,0.015458,0.031781,1.0357e-06,0.75,0.72,0
0.034597,-0.0070352,0.035617,-0.00019345,0.010627,-0.00027522,0,0,0.064973,-0.028133,0,-0.0014311,0,0,0,0.035619,-0.00019556,0.010627,-0.44031,0.01535,0.031815,1.0319e-06,0.76,0.72,0
0.035246,-0.0070584,0.035523,-0.00032816,0.010559,-0.00023335,0,0,0.064909,-0.028306,0,-0.0012134,0,0,0,0.035525,-0.00032968,0.010559,-0.3729,0.015251,0.031839,1.0278e-06,0.77,0.72,0
0.035895,-0.0070806,0.035434,-0.0004477,0.010496,-0.00019259,0,0,0.064839,-0.028453,0,-0.0010015,0,0,0,0.035435,-0.00044873,0.010496,-0.30752,0.015161,0.031854,1.0236e-06,0.78,0.72,0
0.036543,-0.0071018,0.035348,-0.00055358,0.010438,-0.0001539,0,0,0.064766,-0.028579,0,-0.00080027,0,0,0,0.035349,-0.00055424,0.010438,-0.2456,0.015078,0.031863,1.0193e-06,0.79,0.72,0
0.037191,-0.0071218,0.035267,-0.00064723,0.010386,-0.00011791,0,0,0.06469,-0.028686,0,-0.00061311,0,0,0,0.035267,-0.00064762,0.010386,-0.1881,0.015002,0.031864,1.015e-06,0.8,0.72,0
0.037837,-0.0071405,0.035189,-0.0007299,0.010338,-8.5043e-05,0,0,0.064613,-0.028776,0,-0.00044222,0,0,0,0.035189,-0.0007301,0.010338,-0.13565,0.014932,0.031861,1.0107e-06,0.81,0.72,0
0.038483,-0.0071579,0.035115,-0.00080274,0.010294,-5.5563e-05,0,0,0.064535,-0.028851,0,-0.00028893,0,0,0,0.035115,-0.00080283,0.010294,-0.088635,0.014868,0.031854,1.0065e-06,0.82,0.72,0
0.039128,-0.007174,0.035044,-0.00086679,0.010253,-2.9596e-05,0,0,0.064457,-0.028912,0,-0.0001539,0,0,0,0.035044,-0.00086682,0.010253,-0.047219,0.01481,0.031843,1.0023e-06,0.83,0.72,0
0.039772,-0.0071888,0.034978,-0.00092298,0.010217,-7.1694e-06,0,0,0.06438,-0.028963,0,-3.7281e-05,0,0,0,0.034978,-0.00092298,0.010217,-0.011442,0.014757,0.031829,9.9824e-07,0.84,0.72,0
0.040415,-0.0072024,0.034916,-0.00097215,0.010183,1.1759e-05,0,0,0.064305,-0.029004,0,6.115e-05,0,0,0,0.034916,-0.00097215,0.010183,0.018774,0.014709,0.031813,9.9434e-07,0.85,0.72,0
0.041058,-0.0072148,0.034857,-0.001015,0.010153,2.7291e-05,0,0,0.064232,-0.029036,0,0.00014191,0,0,0,0.034857,-0.0010151,0.010153,0.04359,0.014665,0.031795,9.906e-07,0.86,0.72,0
0.0417,-0.007226,0.034803,-0.0010524,0.010125,3.9567e-05,0,0,0.064162,-0.029062,0,0.00020575,0,0,0,0.034803,-0.0010524,0.010125,0.063226,0.014625,0.031777,9.8705e-07,0.87,0.72,0
0.042341,-0.0072361,0.034753,-0.0010847,0.0101,4.876e-05,0,0,0.064096,-0.029081,0,0.00025355,0,0,0,0.034753,-0.0010848,0.0101,0.077955,0.014589,0.031758,9.837e-07,0.88,0.72,0
0.042982,-0.0072451,0.034706,-0.0011127,0.010078,5.5065e-05,0,0,0.064033,-0.029096,0,0.00028634,0,0,0,0.034706,-0.0011127,0.010078,0.088081,0.014557,0.03174,9.8058e-07,0.89,0.72,0
0.043622,-0.0072531,0.034664,-0.0011366,0.010058,5.8696e-05,0,0,0.063975,-0.029107,0,0.00030522,0,0,0,0.034664,-0.0011367,0.010058,0.093937,0.014528,0.031721,9.7769e-07,0.9,0.72,0
0.044261,-0.0072602,0.034626,-0.0011571,0.010041,5.9877e-05,0,0,0.063921,-0.029114,0,0.00031136,0,0,0,0.034626,-0.0011572,0.010041,0.095875,0.014503,0.031704,9.7504e-07,0.91,0.72,0
0.0449,-0.0072664,0.034591,-0.0011745,0.010025,5.8841e-05,0,0,0.063872,-0.029119,0,0.00030597,0,0,0,0.034591,-0.0011746,0.010025,0.094261,0.014481,0.031687,9.7265e-07,0.92,0.72,0
0.045539,-0.0072717,0.034561,-0.0011891,0.010012,5.5828e-05,0,0,0.063829,-0.029122,0,0.0002903,0,0,0,0.034561,-0.0011892,0.010012,0.089473,0.014461,0.031672,9.7052e-07,0.93,0.72,0
0.046177,-0.0072762,0.034535,-0.0012011,0.01,5.108e-05,0,0,0.063791,-0.029123,0,0.00026562,0,0,0,0.034535,-0.0012012,0.01,0.081896,0.014445,0.031658,9.6867e-07,0.94,0.72,0
0.046815,-0.00728,0.034513,-0.0012109,0.0099906,4.4843e-05,0,0,0.063758,-0.029124,0,0.00023319,0,0,0,0.034513,-0.001211,0.0099906,0.071922,0.014431,0.031647,9.6709e-07,0.95,0.72,0
0.047452,-0.0072831,0.034495,-0.0012187,0.0099828,3.7365e-05,0,0,0.063731,-0.029124,0,0.0001943,0,0,0,0.034495,-0.0012187,0.0099828,0.059946,0.01442,0.031637,9.6579e-07,0.96,0.72,0
0.048089,-0.0072854,0.034481,-0.0012246,0.0099768,2.8894e-05,0,0,0.06371,-0.029124,0,0.00015025,0,0,0,0.034481,-0.0012246,0.0099768,0.046365,0.014411,0.031629,9.6477e-07,0.97,0.72,0
0.048726,-0.007287,0.034471,-0.0012287,0.0099726,1.9677e-05,0,0,0.063695,-0.029123,0,0.00010232,0,0,0,0.034471,-0.0012287,0.0099726,0.03158,0.014405,0.031623,9.6405e-07,0.98,0.72,0
0.049363,-0.007288,0.034465,-0.0012311,0.00997,9.9625e-06,0,0,0.063686,-0.029123,0,5.1805e-05,0,0,0,0.034465,-0.0012311,0.00997,0.015991,0.014401,0.03162,9.6361e-07,0.99,0.72,0
0.05,-0.0072883,0.034463,-0.0012319,0.0099692,-6.2698e-06,0,0,0.063683,-0.029123,0,-3.2603e-05,0,0,0,0.034463,-0.0012319,0.0099692,-0.010064,0.0144,0.031619,9.6347e-07,1,0.72,0
0,0,0.030388,0.013024,0.013024,-0.0031721,0,0,0.045148,-1.6263e-19,0,-0.016495,0,0,0,0.03095,0.012462,0.013024,-10.035,0.018812,0.018213,3.0931e-07,0,0.73,0
0.00045148,-0.00016495,0.030348,0.012532,0.012864,-0.003159,0,0,0.045459,-0.00086382,0,-0.016427,0,0,0,0.030892,0.011988,0.012864,-9.7625,0.018581,0.018481,3.2175e-07,0.01,0.73,0
0.00090918,-0.0003288,0.030514,0.012114,0.012788,-0.0031193,0,0,0.046087,-0.0017539,0,-0.01622,0,0,0,0.031029,0.0116,0.012788,-9.3646,0.018472,0.018863,3.4009e-07,0.02,0.73,0
0.0013732,-0.00049068,0.030681,0.011685,0.01271,-0.0030566,0,0,0.046725,-0.0026648,0,-0.015894,0,0,0,0.031161,0.011205,0.01271,-8.9193,0.018359,0.019247,3.5868e-07,0.03,0.73,0
0.0018437,-0.00064981,0.030847,0.011247,0.012628,-0.0029721,0,0,0.047369,-0.0035908,0,-0.015455,0,0,0,0.031288,0.010806,0.012628,-8.4357,0.018241,0.019634,3.7747e-07,0.04,0.73,0
0.0023206,-0.00080546,0.031011,0.010803,0.012544,-0.002867,0,0,0.048013,-0.0045268,0,-0.014908,0,0,0,0.03141,0.010404,0.012544,-7.9207,0.018119,0.020022,3.9637e-07,0.05,0.73,0
0.002804,-0.00095698,0.031172,0.010355,0.012458,-0.0027422,0,0,0.048655,-0.0054677,0,-0.014259,0,0,0,0.031527,0.0099998,0.012458,-7.3799,0.017995,0.020409,4.1534e-07,0.06,0.73,0
0.0032937,-0.0011038,0.031328,0.0099048,0.01237,-0.0025986,0,0,0.049291,-0.0064088,0,-0.013513,0,0,0,0.031638,0.0095941,0.01237,-6.8182,0.017867,0.020796,4.3429e-07,0.07,0.73,0
0.0037898,-0.0012453,0.031478,0.0094546,0.01228,-0.0024372,0,0,0.049916,-0.0073457,0,-0.012673,0,0,0,0.031745,0.0091881,0.01228,-6.2398,0.017738,0.021181,4.5317e-07,0.08,0.73,0
0.004292,-0.001381,0.031623,0.0090061,0.012189,-0.0022591,0,0,0.050529,-0.0082747,0,-0.011747,0,0,0,0.031846,0.0087827,0.012189,-5.6487,0.017606,0.021563,4.7194e-07,0.09,0.73,0
0.0048004,-0.0015106,0.031761,0.0085611,0.012096,-0.0020657,0,0,0.051127,-0.0091923,0,-0.010742,0,0,0,0.031943,0.0083785,0.012096,-5.0488,0.017473,0.021943,4.9055e-07,0.1,0.73,0
0.0053146,-0.0016337,0.031891,0.0081209,0.012004,-0.0018587,0,0,0.051708,-0.010095,0,-0.0096655,0,0,0,0.032036,0.0079764,0.012004,-4.4443,0.017339,0.02232,5.0899e-07,0.11,0.73,0
0.0058345,-0.0017502,0.032015,0.0076872,0.011911,-0.0016401,0,0,0.052271,-0.010981,0,-0.0085285,0,0,0,0.032125,0.0075771,0.011911,-3.8396,0.017204,0.022693,5.2722e-07,0.12,0.73,0
0.00636,-0.00186,0.032131,0.0072616,0.011818,-0.0014121,0,0,0.052814,-0.011846,0,-0.0073431,0,0,0,0.032211,0.0071816,0.011818,-3.2395,0.01707,0.023063,5.4523e-07,0.13,0.73,0
0.0068908,-0.0019632,0.032239,0.0068458,0.011726,-0.0011776,0,0,0.053336,-0.012688,0,-0.0061233,0,0,0,0.032294,0.0067913,0.011726,-2.6494,0.016937,0.023429,5.6299e-07,0.14,0.73,0
0.0074267,-0.0020601,0.032341,0.0064419,0.011635,-0.00093952,0,0,0.053837,-0.013502,0,-0.0048855,0,0,0,0.032375,0.0064079,0.011635,-2.0748,0.016806,0.023789,5.8046e-07,0.15,0.73,0
0.0079675,-0.0021511,0.032437,0.0060527,0.011547,-0.00070153,0,0,0.054314,-0.014285,0,-0.0036479,0,0,0,0.032455,0.006034,0.011547,-1.522,0.016679,0.024142,5.9756e-07,0.16,0.73,0
0.008513,-0.0022369,0.032526,0.0056811,0.011462,-0.00046757,0,0,0.054766,-0.015031,0,-0.0024314,0,0,0,0.032534,0.005673,0.011462,-0.99755,0.016556,0.024485,6.1421e-07,0.17,0.73,0
0.0090628,-0.0023185,0.03261,0.005331,0.011382,-0.00024217,0,0,0.055193,-0.015734,0,-0.0012593,0,0,0,0.032613,0.0053288,0.011382,-0.50859,0.016441,0.024817,6.3032e-07,0.18,0.73,0
0.0096168,-0.0023969,0.032691,0.0050067,0.011309,-3.0522e-05,0,0,0.055593,-0.016387,0,-0.00015871,0,0,0,0.032691,0.0050067,0.011309,-0.063168,0.016336,0.025133,6.4578e-07,0.19,0.73,0
0.010175,-0.0024737,0.032771,0.0047135,0.011245,0.0001613,0,0,0.055967,-0.016983,0,0.00083876,0,0,0,0.032772,0.0047126,0.011245,0.32937,0.016243,0.02543,6.6046e-07,0.2,0.73,0
0.010736,-0.0025508,0.032853,0.0044576,0.011193,0.00032611,0,0,0.056315,-0.017512,0,0.0016958,0,0,0,0.032856,0.0044538,0.011193,0.65791,0.016168,0.025704,6.7429e-07,0.21,0.73,0
0.011301,-0.0026303,0.03294,0.0042465,0.011156,0.00045542,0,0,0.056638,-0.017964,0,0.0023682,0,0,0,0.032947,0.0042393,0.011156,0.9091,0.016114,0.02595,6.8717e-07,0.22,0.73,0
0.011869,-0.002715,0.033037,0.0040899,0.011138,0.00053921,0,0,0.056938,-0.018326,0,0.0028039,0,0,0,0.033047,0.0040799,0.011138,1.0668,0.016088,0.026163,6.9901e-07,0.23,0.73,0
0.01244,-0.0028081,0.03315,0.004001,0.011145,0.00056585,0,0,0.057212,-0.018575,0,0.0029424,0,0,0,0.033161,0.00399,0.011145,1.1117,0.016099,0.026333,7.0958e-07,0.24,0.73,0
0.013013,-0.0029135,0.03328,0.0040007,0.011184,0.0005212,0,0,0.05745,-0.018677,0,0.0027102,0,0,0,0.03329,0.0039915,0.011184,1.0195,0.016155,0.026446,7.1832e-07,0.25,0.73,0
0.013589,-0.0030363,0.03344,0.004136,0.011273,0.00039121,0,0,0.057635,-0.018556,0,0.0020343,0,0,0,0.033446,0.0041308,0.011273,0.76471,0.016283,0.026476,7.2452e-07,0.26,0.73,0
0.014166,-0.0031834,0.033672,0.004503,0.011452,-1.4591e-05,0,0,0.05777,-0.018069,0,-7.5872e-05,0,0,0,0.033672,0.0045029,0.011452,-0.02866,0.016542,0.026389,7.2781e-07,0.27,0.73,0
0.014744,-0.003386,0.037893,0.0031141,0.012302,0.0010414,0,0,0.046281,-0.0162,0,0.0033098,0,0,0,0.037927,0.0030796,0.012302,1.5765,0.01777,0.031277,1.2821e-06,0.28,0.73,0
0.015149,-0.0035229,0.030297,0.00063024,0.0092783,-0.0011175,0,0,0.037452,-0.015167,0,-0.0046822,0,0,0,0.03035,0.00057722,0.0092783,-2.4606,0.013402,0.026517,7.4281e-07,0.29,0.73,0
0.015463,-0.0036022,0.033588,-0.0014055,0.0096548,-7.8088e-06,0,0,0.031113,-0.014378,0,-2.0303e-05,0,0,0,0.033588,-0.0014055,0.0096548,-0.012785,0.013946,0.030981,8.9714e-07,0.3,0.73,0
0.015772,-0.0037032,0.033326,-0.0014207,0.0095716,5.7566e-05,0,0,0.030881,-0.01429,0,0.00014967,0,0,0,0.033326,-0.0014208,0.0095716,0.094923,0.013826,0.030761,8.7694e-07,0.31,0.73,0
0.01608,-0.0038061,0.033313,-0.0016422,0.0095014,0.00019775,0,0,0.030956,-0.014487,0,0.00051415,0,0,0,0.033314,-0.0016433,0.0095014,0.32412,0.013724,0.03093,8.8147e-07,0.32,0.73,0
0.016391,-0.003912,0.033426,-0.0016617,0.0095292,0.00019999,0,0,0.031065,-0.014548,0,0.00051998,0,0,0,0.033427,-0.0016628,0.0095292,0.32656,0.013764,0.031045,8.9075e-07,0.33,0.73,0
0.016702,-0.0040223,0.033494,-0.0015683,0.0095777,0.00015583,0,0,0.031091,-0.01449,0,0.00040515,0,0,0,0.033495,-0.001569,0.0095777,0.25463,0.013834,0.03103,8.9382e-07,0.34,0.73,0
0.017012,-0.0041367,0.033555,-0.001407,0.0096445,0.00012744,0,0,0.031084,-0.014367,0,0.00033135,0,0,0,0.033556,-0.0014075,0.0096445,0.20885,0.013931,0.030954,8.9463e-07,0.35,0.73,0
0.017323,-0.0042545,0.033629,-0.0012321,0.0097191,0.00012232,0,0,0.031083,-0.014237,0,0.00031803,0,0,0,0.03363,-0.0012326,0.0097191,0.20103,0.014039,0.030879,8.9605e-07,0.36,0.73,0
0.017634,-0.0043748,0.03373,-0.0010654,0.0097992,0.00012981,0,0,0.031109,-0.014124,0,0.00033752,0,0,0,0.03373,-0.0010658,0.0097992,0.21376,0.014155,0.030834,8.9972e-07,0.37,0.73,0
0.017945,-0.0044971,0.033856,-0.00091208,0.0098831,0.00013722,0,0,0.031164,-0.014034,0,0.00035676,0,0,0,0.033856,-0.00091262,0.0098831,0.22612,0.014275,0.030823,9.0573e-07,0.38,0.73,0
0.018257,-0.004621,0.034,-0.00077016,0.0099688,0.00013578,0,0,0.03124,-0.013961,0,0.00035303,0,0,0,0.034,-0.00077069,0.0099688,0.22374,0.014399,0.030837,9.1344e-07,0.39,0.73,0
0.01857,-0.0047461,0.034152,-0.00063354,0.010056,0.00012183,0,0,0.031326,-0.013896,0,0.00031675,0,0,0,0.034153,-0.00063396,0.010056,0.20066,0.014525,0.030863,9.22e-07,0.4,0.73,0
0.018884,-0.0048724,0.034306,-0.00049588,0.010143,9.6036e-05,0,0,0.031412,-0.013831,0,0.00024969,0,0,0,0.034306,-0.00049614,0.010143,0.15811,0.014651,0.030889,9.3059e-07,0.41,0.73,0
0.019198,-0.0049997,0.034454,-0.0003526,0.010231,6.2251e-05,0,0,0.031491,-0.013758,0,0.00016185,0,0,0,0.034454,-0.00035271,0.010231,0.10247,0.014777,0.030906,9.3859e-07,0.42,0.73,0
0.019514,-0.0051276,0.034594,-0.00020205,0.010318,2.6021e-05,0,0,0.031559,-0.013676,0,6.7654e-05,0,0,0,0.034594,-0.00020207,0.010318,0.042846,0.014903,0.030909,9.4567e-07,0.43,0.73,0
0.01983,-0.0052559,0.034723,-4.5683e-05,0.010403,-6.7936e-06,0,0,0.031616,-0.013584,0,-1.7664e-05,0,0,0,0.034723,-4.5685e-05,0.010403,-0.011195,0.015027,0.030899,9.5175e-07,0.44,0.73,0
0.020146,-0.0053843,0.034844,0.00011241,0.010487,-3.1154e-05,0,0,0.031664,-0.013487,0,-8.1001e-05,0,0,0,0.034844,0.00011238,0.010487,-0.051395,0.015148,0.03088,9.5701e-07,0.45,0.73,0
0.020463,-0.0055123,0.034957,0.0002665,0.010567,-4.3559e-05,0,0,0.031707,-0.013391,0,-0.00011325,0,0,0,0.034957,0.00026645,0.010567,-0.071943,0.015264,0.030858,9.6177e-07,0.46,0.73,0
0.02078,-0.0056394,0.035067,0.00041035,0.010643,-4.2286e-05,0,0,0.031751,-0.013303,0,-0.00010994,0,0,0,0.035067,0.0004103,0.010643,-0.069909,0.015373,0.030841,9.6646e-07,0.47,0.73,0
0.021098,-0.0057653,0.035174,0.00053818,0.010714,-2.721e-05,0,0,0.031799,-0.013228,0,-7.0747e-05,0,0,0,0.035174,0.00053816,0.010714,-0.045012,0.015475,0.030835,9.7149e-07,0.48,0.73,0
0.021416,-0.0058894,0.035283,0.00064532,0.010779,6.3562e-07,0,0,0.031856,-0.013173,0,1.6526e-06,0,0,0,0.035283,0.00064532,0.010779,0.0010514,0.015569,0.030846,9.7724e-07,0.49,0.73,0
0.021735,-0.0060115,0.035395,0.00072835,0.010837,3.9595e-05,0,0,0.031926,-0.013141,0,0.00010295,0,0,0,0.035395,0.0007283,0.010837,0.06544,0.015654,0.03088,9.84e-07,0.5,0.73,0
0.022055,-0.0061311,0.035512,0.00078492,0.010889,8.781e-05,0,0,0.03201,-0.013135,0,0.00022831,0,0,0,0.035512,0.0007847,0.010889,0.14488,0.015728,0.030938,9.9203e-07,0.51,0.73,0
0.022375,-0.006248,0.035634,0.00081336,0.010934,0.00014342,0,0,0.03211,-0.013157,0,0.0003729,0,0,0,0.035635,0.00081277,0.010934,0.23599,0.015794,0.031025,1.0015e-06,0.52,0.73,0
0.022697,-0.006362,0.035764,0.00081229,0.010973,0.00020446,0,0,0.032229,-0.013209,0,0.00053159,0,0,0,0.035765,0.00081109,0.010973,0.33515,0.01585,0.031143,1.0127e-06,0.53,0.73,0
0.02302,-0.0064728,0.035904,0.00078043,0.011005,0.00026845,0,0,0.032368,-0.013292,0,0.00069797,0,0,0,0.035906,0.00077838,0.011005,0.43788,0.015897,0.031294,1.0259e-06,0.54,0.73,0
0.023344,-0.0065804,0.036054,0.00071743,0.011031,0.00033184,0,0,0.03253,-0.013408,0,0.00086277,0,0,0,0.036057,0.00071431,0.011031,0.53798,0.015934,0.031479,1.0412e-06,0.55,0.73,0
0.02367,-0.0066846,0.036212,0.00062424,0.011051,0.00039005,0,0,0.032709,-0.013554,0,0.0010141,0,0,0,0.036216,0.00061996,0.011051,0.62789,0.015962,0.031695,1.0582e-06,0.56,0.73,0
0.023998,-0.0067854,0.03636,0.00051015,0.011061,0.0004417,0,0,0.032889,-0.013716,0,0.0011484,0,0,0,0.036365,0.00050471,0.011061,0.7058,0.015977,0.03192,1.0752e-06,0.57,0.73,0
0.024328,-0.0068827,0.036484,0.00040903,0.011068,0.00050218,0,0,0.03304,-0.013856,0,0.0013057,0,0,0,0.036491,0.00040204,0.011068,0.79739,0.015987,0.032113,1.0899e-06,0.58,0.73,0
0.024659,-0.0069758,0.036556,0.00033419,0.011067,0.00063902,0,0,0.033136,-0.013953,0,0.0016614,0,0,0,0.036568,0.00032292,0.011067,1.0104,0.015986,0.032244,1.0994e-06,0.59,0.73,0
0.024991,-0.0070624,0.036801,0.00035173,0.011146,0.00093084,0,0,0.033352,-0.014032,0,0.0024202,0,0,0,0.036825,0.00032797,0.011146,1.462,0.016099,0.032469,1.1227e-06,0.6,0.73,0
0.025326,-0.0071415,0.037335,-3.8054e-05,0.011189,0.0011108,0,0,0.03399,-0.014595,0,0.002888,0,0,0,0.037368,-7.1039e-05,0.011189,1.7009,0.016162,0.033271,1.187e-06,0.61,0.73,0
0.025671,-0.0072357,0.033964,0.0016791,0.010693,0.0022816,0,0,0.041516,-0.015841,0,0.0090622,0,0,0,0.034142,0.0015012,0.010693,4.379,0.015445,0.029154,1.0202e-06,0.62,0.73,0
0.026121,-0.0072484,0.042095,0.0031878,0.013585,-6.7337e-05,0,0,0.051601,-0.018408,0,0.00037609,0,0,0,0.042102,0.0031816,0.013585,0.072354,0.019623,0.034904,1.7613e-06,0.63,0.73,0
0.026768,-0.0071631,0.037494,0.0042988,0.012538,0.00093212,0,0,0.064887,-0.021422,0,0.004847,0,0,0,0.03752,0.0042727,0.012538,1.6072,0.01811,0.029982,1.0378e-06,0.64,0.73,0
0.027419,-0.0071297,0.03728,0.0033998,0.012204,0.00038449,0,0,0.065197,-0.02289,0,0.0019993,0,0,0,0.037284,0.0033955,0.012204,0.65012,0.017628,0.030455,1.0521e-06,0.65,0.73,0
0.028072,-0.0071157,0.037095,0.0027407,0.011951,0.0001225,0,0,0.065376,-0.023946,0,0.00063703,0,0,0,0.037096,0.0027402,0.011951,0.20431,0.017262,0.030801,1.0607e-06,0.66,0.73,0
0.028726,-0.0071153,0.036914,0.002214,0.011739,-6.2721e-05,0,0,0.065457,-0.024764,0,-0.00032615,0,0,0,0.036914,0.0022138,0.011739,-0.10356,0.016955,0.031054,1.0643e-06,0.67,0.73,0
0.029381,-0.0071245,0.036739,0.0017711,0.011553,-0.00018493,0,0,0.065484,-0.025433,0,-0.00096164,0,0,0,0.03674,0.0017702,0.011553,-0.303,0.016688,0.031249,1.065e-06,0.68,0.73,0
0.030036,-0.0071406,0.036575,0.0013903,0.01139,-0.00025874,0,0,0.065483,-0.025998,0,-0.0013454,0,0,0,0.036577,0.0013884,0.01139,-0.42131,0.016452,0.031406,1.064e-06,0.69,0.73,0
0.030691,-0.0071614,0.036423,0.0010589,0.011245,-0.00029593,0,0,0.065464,-0.026483,0,-0.0015388,0,0,0,0.036425,0.0010565,0.011245,-0.47941,0.016242,0.031534,1.0621e-06,0.7,0.73,0
0.031345,-0.0071853,0.03628,0.0007688,0.011115,-0.00030626,0,0,0.06543,-0.026899,0,-0.0015926,0,0,0,0.036283,0.00076616,0.011115,-0.49409,0.016054,0.031638,1.0592e-06,0.71,0.73,0
0.032,-0.0072111,0.036145,0.000514,0.010998,-0.00029752,0,0,0.065384,-0.027258,0,-0.0015471,0,0,0,0.036148,0.00051152,0.010998,-0.47837,0.015886,0.031721,1.0558e-06,0.72,0.73,0
0.032653,-0.0072378,0.036018,0.00028995,0.010892,-0.00027577,0,0,0.065326,-0.027566,0,-0.001434,0,0,0,0.03602,0.00028782,0.010892,-0.44221,0.015733,0.031785,1.0517e-06,0.73,0.73,0
0.033306,-0.0072647,0.035896,9.2816e-05,0.010797,-0.00024566,0,0,0.065258,-0.02783,0,-0.0012774,0,0,0,0.035897,9.1131e-05,0.010797,-0.3931,0.015595,0.031834,1.0473e-06,0.74,0.73,0
0.033958,-0.0072912,0.035779,-8.0633e-05,0.01071,-0.0002107,0,0,0.065181,-0.028055,0,-0.0010956,0,0,0,0.035781,-8.187e-05,0.01071,-0.33663,0.015469,0.031868,1.0424e-06,0.75,0.73,0
0.03461,-0.0073171,0.035668,-0.0002332,0.01063,-0.0001735,0,0,0.065098,-0.028246,0,-0.0009022,0,0,0,0.035669,-0.00023404,0.01063,-0.27688,0.015355,0.03189,1.0374e-06,0.76,0.73,0
0.03526,-0.007342,0.035562,-0.00036734,0.010558,-0.00013598,0,0,0.065009,-0.028407,0,-0.00070712,0,0,0,0.035562,-0.00036786,0.010558,-0.21685,0.015251,0.031903,1.0322e-06,0.77,0.73,0
0.03591,-0.0073657,0.03546,-0.00048519,0.010493,-9.953e-05,0,0,0.064917,-0.028542,0,-0.00051756,0,0,0,0.035461,-0.00048547,0.010493,-0.15865,0.015156,0.031906,1.0269e-06,0.78,0.73,0
0.036559,-0.0073881,0.035364,-0.00058862,0.010433,-6.5112e-05,0,0,0.064821,-0.028655,0,-0.00033858,0,0,0,0.035364,-0.00058874,0.010433,-0.10377,0.015069,0.031903,1.0216e-06,0.79,0.73,0
0.037206,-0.007409,0.035272,-0.0006793,0.010378,-3.3396e-05,0,0,0.064725,-0.028749,0,-0.00017366,0,0,0,0.035272,-0.00067933,0.010378,-0.053223,0.01499,0.031894,1.0164e-06,0.8,0.73,0
0.037853,-0.0074286,0.035185,-0.00075868,0.010328,-4.815e-06,0,0,0.064629,-0.028825,0,-2.5038e-05,0,0,0,0.035185,-0.00075868,0.010328,-0.0076753,0.014918,0.031881,1.0112e-06,0.81,0.73,0
0.038499,-0.0074466,0.035103,-0.00082806,0.010282,2.0374e-05,0,0,0.064533,-0.028887,0,0.00010595,0,0,0,0.035103,-0.00082807,0.010282,0.032489,0.014852,0.031863,1.0062e-06,0.82,0.73,0
0.039144,-0.0074633,0.035025,-0.00088857,0.010241,4.2046e-05,0,0,0.064439,-0.028937,0,0.00021864,0,0,0,0.035025,-0.00088862,0.010241,0.067079,0.014793,0.031843,1.0013e-06,0.83,0.73,0
0.039788,-0.0074786,0.034952,-0.00094124,0.010203,6.0174e-05,0,0,0.064348,-0.028976,0,0.0003129,0,0,0,0.034953,-0.00094134,0.010203,0.096053,0.014738,0.031821,9.9658e-07,0.84,0.73,0
0.040431,-0.0074925,0.034884,-0.00098696,0.010169,7.4806e-05,0,0,0.064259,-0.029006,0,0.00038899,0,0,0,0.034884,-0.00098712,0.010169,0.11948,0.014689,0.031797,9.921e-07,0.85,0.73,0
0.041073,-0.0075052,0.034821,-0.0010265,0.010138,8.6047e-05,0,0,0.064174,-0.029028,0,0.00044744,0,0,0,0.034821,-0.0010268,0.010138,0.13753,0.014644,0.031772,9.8784e-07,0.86,0.73,0
0.041714,-0.0075166,0.034762,-0.0010607,0.01011,9.404e-05,0,0,0.064094,-0.029045,0,0.00048901,0,0,0,0.034762,-0.001061,0.01011,0.15041,0.014604,0.031747,9.8382e-07,0.87,0.73,0
0.042355,-0.0075268,0.034707,-0.0010901,0.010085,9.8962e-05,0,0,0.064018,-0.029056,0,0.0005146,0,0,0,0.034708,-0.0010904,0.010085,0.15839,0.014568,0.031723,9.8007e-07,0.88,0.73,0
0.042994,-0.0075359,0.034658,-0.0011153,0.010063,0.00010101,0,0,0.063947,-0.029063,0,0.00052525,0,0,0,0.034658,-0.0011156,0.010063,0.16178,0.014535,0.031699,9.7658e-07,0.89,0.73,0
0.043634,-0.007544,0.034612,-0.0011367,0.010043,0.0001004,0,0,0.063881,-0.029066,0,0.00052206,0,0,0,0.034612,-0.001137,0.010043,0.16091,0.014506,0.031676,9.7336e-07,0.9,0.73,0
0.044272,-0.0075512,0.034571,-0.0011549,0.010025,9.735e-05,0,0,0.06382,-0.029067,0,0.00050622,0,0,0,0.034571,-0.0011552,0.010025,0.15612,0.01448,0.031654,9.7044e-07,0.91,0.73,0
0.04491,-0.0075574,0.034535,-0.0011702,0.010009,9.2102e-05,0,0,0.063766,-0.029067,0,0.00047893,0,0,0,0.034535,-0.0011704,0.010009,0.1478,0.014458,0.031633,9.6781e-07,0.92,0.73,0
0.045547,-0.0075627,0.034502,-0.0011829,0.0099958,8.4892e-05,0,0,0.063717,-0.029065,0,0.00044144,0,0,0,0.034502,-0.0011831,0.0099958,0.1363,0.014438,0.031615,9.6547e-07,0.93,0.73,0
0.046184,-0.0075672,0.034474,-0.0011934,0.0099843,7.5962e-05,0,0,0.063674,-0.029062,0,0.000395,0,0,0,0.034475,-0.0011935,0.0099843,0.12202,0.014422,0.031599,9.6344e-07,0.94,0.73,0
0.046821,-0.007571,0.034451,-0.0012018,0.0099747,6.5556e-05,0,0,0.063638,-0.029059,0,0.00034089,0,0,0,0.034451,-0.001202,0.0099747,0.10535,0.014408,0.031584,9.6171e-07,0.95,0.73,0
0.047457,-0.007574,0.034432,-0.0012085,0.009967,5.3921e-05,0,0,0.063608,-0.029056,0,0.00028039,0,0,0,0.034432,-0.0012086,0.009967,0.086684,0.014397,0.031573,9.603e-07,0.96,0.73,0
0.048093,-0.0075763,0.034417,-0.0012135,0.009961,4.1301e-05,0,0,0.063585,-0.029054,0,0.00021477,0,0,0,0.034417,-0.0012135,0.009961,0.066415,0.014388,0.031563,9.592e-07,0.97,0.73,0
0.048729,-0.0075779,0.034406,-0.001217,0.0099568,2.7944e-05,0,0,0.063569,-0.029052,0,0.00014531,0,0,0,0.034406,-0.001217,0.0099568,0.044945,0.014382,0.031557,9.5841e-07,0.98,0.73,0
0.049364,-0.0075789,0.0344,-0.001219,0.0099543,1.4095e-05,0,0,0.063559,-0.02905,0,7.3294e-05,0,0,0,0.0344,-0.001219,0.0099543,0.022673,0.014378,0.031553,9.5793e-07,0.99,0.73,0
0.05,-0.0075792,0.034398,-0.0012197,0.0099534,-6.2178e-06,0,0,0.063555,-0.02905,0,-3.2332e-05,0,0,0,0.034398,-0.0012197,0.0099534,-0.010002,0.014377,0.031551,9.5777e-07,1,0.73,0
0,0,0.030402,0.013029,0.013029,-0.0033436,0,0,0.045168,5.421e-20,0,-0.017387,0,0,0,0.031023,0.012408,0.013029,-10.527,0.01882,0.018312,3.1417e-07,0,0.74,0
0.00045168,-0.00017387,0.030359,0.012505,0.012859,-0.0033304,0,0,0.045499,-0.00092106,0,-0.017318,0,0,0,0.03096,0.011904,0.012859,-10.229,0.018574,0.018597,3.2739e-07,0.01,0.74,0
0.00090999,-0.00034687,0.030536,0.012063,0.01278,-0.0032922,0,0,0.046167,-0.0018644,0,-0.017119,0,0,0,0.031106,0.011494,0.01278,-9.8086,0.01846,0.019002,3.4693e-07,0.02,0.74,0
0.001375,-0.00051811,0.030715,0.011611,0.012698,-0.0032296,0,0,0.046844,-0.0028258,0,-0.016794,0,0,0,0.031246,0.01108,0.012698,-9.3405,0.018341,0.019408,3.6667e-07,0.03,0.74,0
0.0018469,-0.00068674,0.030893,0.011151,0.012613,-0.003144,0,0,0.047526,-0.0038007,0,-0.016349,0,0,0,0.031381,0.010663,0.012613,-8.8339,0.018219,0.019815,3.8658e-07,0.04,0.74,0
0.0023256,-0.00085198,0.031069,0.010687,0.012527,-0.0030365,0,0,0.048211,-0.0047843,0,-0.01579,0,0,0,0.031512,0.010244,0.012527,-8.2958,0.018094,0.020223,4.0662e-07,0.05,0.74,0
0.0028111,-0.0010131,0.031244,0.010219,0.012439,-0.0029082,0,0,0.048892,-0.0057717,0,-0.015123,0,0,0,0.031638,0.0098239,0.012439,-7.7319,0.017967,0.020632,4.2673e-07,0.06,0.74,0
0.0033034,-0.0011696,0.031414,0.0097499,0.012349,-0.0027601,0,0,0.049569,-0.0067584,0,-0.014353,0,0,0,0.03176,0.0094038,0.012349,-7.1475,0.017838,0.021039,4.4686e-07,0.07,0.74,0
0.0038025,-0.0013206,0.031581,0.009282,0.012259,-0.0025934,0,0,0.050237,-0.0077398,0,-0.013486,0,0,0,0.031878,0.0089844,0.012259,-6.5471,0.017707,0.021445,4.6698e-07,0.08,0.74,0
0.0043082,-0.0014659,0.031743,0.0088173,0.012168,-0.0024094,0,0,0.050894,-0.0087118,0,-0.012529,0,0,0,0.031993,0.0085668,0.012168,-5.9352,0.017576,0.021849,4.8703e-07,0.09,0.74,0
0.0048204,-0.0016048,0.031899,0.0083575,0.012077,-0.0022097,0,0,0.051537,-0.0096705,0,-0.01149,0,0,0,0.032105,0.0081519,0.012077,-5.3161,0.017445,0.022251,5.07e-07,0.1,0.74,0
0.0053389,-0.0017372,0.03205,0.0079046,0.011986,-0.0019961,0,0,0.052165,-0.010613,0,-0.01038,0,0,0,0.032214,0.0077407,0.011986,-4.6943,0.017314,0.022651,5.2686e-07,0.11,0.74,0
0.0058636,-0.0018628,0.032195,0.0074604,0.011897,-0.0017709,0,0,0.052776,-0.011534,0,-0.0092087,0,0,0,0.032321,0.0073342,0.011897,-4.0745,0.017184,0.023047,5.4661e-07,0.12,0.74,0
0.0063944,-0.0019814,0.032335,0.0070268,0.011808,-0.0015365,0,0,0.053368,-0.012432,0,-0.0079898,0,0,0,0.032428,0.0069339,0.011808,-3.4616,0.017057,0.02344,5.6621e-07,0.13,0.74,0
0.006931,-0.0020932,0.032469,0.006606,0.011723,-0.0012957,0,0,0.053942,-0.013303,0,-0.0067378,0,0,0,0.032534,0.0065413,0.011723,-2.8609,0.016933,0.023828,5.8565e-07,0.14,0.74,0
0.0074732,-0.0021983,0.032599,0.0062007,0.01164,-0.0010519,0,0,0.054494,-0.014142,0,-0.0054698,0,0,0,0.032641,0.0061588,0.01164,-2.2782,0.016813,0.024212,6.0489e-07,0.15,0.74,0
0.0080209,-0.0022973,0.032725,0.0058136,0.011562,-0.00080863,0,0,0.055024,-0.014944,0,-0.0042049,0,0,0,0.032749,0.0057893,0.011562,-1.7196,0.0167,0.024587,6.2386e-07,0.16,0.74,0
0.0085737,-0.0023906,0.032847,0.0054485,0.011489,-0.00057013,0,0,0.055531,-0.015704,0,-0.0029647,0,0,0,0.032858,0.0054367,0.011489,-1.1916,0.016595,0.024952,6.4246e-07,0.17,0.74,0
0.0091315,-0.0024792,0.032966,0.0051098,0.011423,-0.00034122,0,0,0.056012,-0.016414,0,-0.0017744,0,0,0,0.03297,0.0051056,0.011423,-0.7017,0.0165,0.025304,6.6059e-07,0.18,0.74,0
0.009694,-0.0025642,0.033084,0.0048027,0.011366,-0.00012753,0,0,0.056467,-0.017065,0,-0.00066318,0,0,0,0.033085,0.0048021,0.011366,-0.25837,0.016418,0.025639,6.7807e-07,0.19,0.74,0
0.010261,-0.002647,0.033202,0.0045335,0.011321,6.4219e-05,0,0,0.056892,-0.017647,0,0.00033394,0,0,0,0.033202,0.0045333,0.011321,0.12834,0.016352,0.02595,6.9475e-07,0.2,0.74,0
0.010832,-0.0027292,0.033323,0.0043099,0.01129,0.00022598,0,0,0.057287,-0.018148,0,0.0011751,0,0,0,0.033325,0.0043081,0.01129,0.44622,0.016308,0.026232,7.1044e-07,0.21,0.74,0
0.011407,-0.0028131,0.033451,0.0041413,0.011278,0.000348,0,0,0.057651,-0.018555,0,0.0018096,0,0,0,0.033455,0.0041372,0.011278,0.68015,0.01629,0.02648,7.2497e-07,0.22,0.74,0
0.011985,-0.0029011,0.033592,0.00404,0.011289,0.00041858,0,0,0.057986,-0.018849,0,0.0021766,0,0,0,0.033598,0.004034,0.011289,0.81133,0.016307,0.026686,7.3827e-07,0.23,0.74,0
0.012566,-0.0029964,0.033758,0.0040235,0.011334,0.0004234,0,0,0.058301,-0.019008,0,0.0022017,0,0,0,0.033764,0.0040175,0.011334,0.81563,0.016372,0.026846,7.5048e-07,0.24,0.74,0
0.013151,-0.0031025,0.033975,0.0041222,0.011429,0.00034425,0,0,0.058619,-0.018998,0,0.0017901,0,0,0,0.033979,0.0041183,0.011429,0.66059,0.016509,0.026959,7.6239e-07,0.25,0.74,0
0.013739,-0.0032239,0.034314,0.0044056,0.011616,0.00014185,0,0,0.059016,-0.018747,0,0.0007376,0,0,0,0.034315,0.004405,0.011616,0.27172,0.016779,0.027036,7.7675e-07,0.26,0.74,0
0.014331,-0.0033676,0.034653,0.0049302,0.011875,-0.00023055,0,0,0.059224,-0.018057,0,-0.0011988,0,0,0,0.034655,0.0049284,0.011875,-0.44437,0.017153,0.026934,7.8297e-07,0.27,0.74,0
0.014923,-0.0035397,0.03416,0.0023899,0.010965,0.00013674,0,0,0.044953,-0.014863,0,-0.0003252,0,0,0,0.034174,0.002376,0.010965,0.12461,0.015838,0.028556,8.1211e-07,0.28,0.74,0
0.01523,-0.0036639,0.034458,-0.00042494,0.01021,-0.00022622,0,0,0.031523,-0.013825,0,-0.00058817,0,0,0,0.034459,-0.00042641,0.01021,-0.37155,0.014748,0.030969,9.4109e-07,0.29,0.74,0
0.015554,-0.0037518,0.034686,-0.0015282,0.0099474,0.00029291,0,0,0.03216,-0.014918,0,0.00076157,0,0,0,0.034688,-0.0015305,0.0099474,0.46339,0.014368,0.03206,9.9032e-07,0.3,0.74,0
0.015873,-0.0038492,0.034265,-0.001509,0.0098268,0.00018438,0,0,0.031769,-0.014736,0,0.0004794,0,0,0,0.034266,-0.0015099,0.0098268,0.2953,0.014194,0.031668,9.5451e-07,0.31,0.74,0
0.016189,-0.0039519,0.033925,-0.0015801,0.0097035,0.00019018,0,0,0.031488,-0.014669,0,0.00049448,0,0,0,0.033926,-0.0015811,0.0097035,0.30689,0.014016,0.031423,9.286e-07,0.32,0.74,0
0.016503,-0.004058,0.033825,-0.0015904,0.0096702,0.00017353,0,0,0.031401,-0.014639,0,0.00045118,0,0,0,0.033825,-0.0015913,0.0096702,0.28074,0.013968,0.031342,9.2072e-07,0.33,0.74,0
0.016817,-0.0041677,0.033818,-0.0015132,0.0096915,0.00012869,0,0,0.031365,-0.014566,0,0.0003346,0,0,0,0.033819,-0.0015137,0.0096915,0.20869,0.013999,0.031273,9.1822e-07,0.34,0.74,0
0.01713,-0.004281,0.03384,-0.0013829,0.009737,8.3254e-05,0,0,0.031333,-0.014456,0,0.00021646,0,0,0,0.03384,-0.0013831,0.009737,0.13543,0.014065,0.031187,9.1662e-07,0.35,0.74,0
0.017444,-0.0043974,0.033881,-0.0012271,0.0097963,5.1477e-05,0,0,0.031311,-0.01433,0,0.00013384,0,0,0,0.033881,-0.0012271,0.0097963,0.084009,0.01415,0.031098,9.1595e-07,0.36,0.74,0
0.017757,-0.0045166,0.033943,-0.0010661,0.0098631,3.216e-05,0,0,0.031304,-0.014208,0,8.3617e-05,0,0,0,0.033943,-0.0010662,0.0098631,0.052633,0.014247,0.031024,9.1673e-07,0.37,0.74,0
0.01807,-0.0046378,0.034025,-0.00090914,0.0099348,1.8593e-05,0,0,0.031317,-0.014097,0,4.8342e-05,0,0,0,0.034025,-0.00090915,0.0099348,0.030495,0.01435,0.03097,9.1914e-07,0.38,0.74,0
0.018383,-0.0047608,0.034123,-0.00075794,0.010009,4.3098e-06,0,0,0.031347,-0.013998,0,1.1205e-05,0,0,0,0.034123,-0.00075794,0.010009,0.0070794,0.014458,0.030936,9.2294e-07,0.39,0.74,0
0.018697,-0.0048852,0.03423,-0.00061078,0.010086,-1.4509e-05,0,0,0.031388,-0.013906,0,-3.7724e-05,0,0,0,0.03423,-0.00061078,0.010086,-0.02386,0.014568,0.030914,9.2761e-07,0.4,0.74,0
0.019011,-0.0050107,0.034342,-0.0004647,0.010163,-3.8648e-05,0,0,0.031433,-0.013817,0,-0.00010048,0,0,0,0.034342,-0.00046475,0.010163,-0.063617,0.01468,0.030896,9.3265e-07,0.41,0.74,0
0.019325,-0.0051371,0.034454,-0.00031737,0.010241,-6.6409e-05,0,0,0.031477,-0.013726,0,-0.00017266,0,0,0,0.034454,-0.0003175,0.010241,-0.10942,0.014793,0.030878,9.376e-07,0.42,0.74,0
0.01964,-0.0052641,0.034563,-0.00016803,0.010318,-9.454e-05,0,0,0.031518,-0.013632,0,-0.0002458,0,0,0,0.034563,-0.00016829,0.010318,-0.15596,0.014904,0.030855,9.4219e-07,0.43,0.74,0
0.019956,-0.0053915,0.034667,-1.7902e-05,0.010395,-0.00011923,0,0,0.031554,-0.013536,0,-0.00031,0,0,0,0.034667,-1.8311e-05,0.010395,-0.19695,0.015015,0.030827,9.4634e-07,0.44,0.74,0
0.020271,-0.0055189,0.034766,0.00013005,0.010469,-0.00013696,0,0,0.031586,-0.01344,0,-0.00035609,0,0,0,0.034766,0.00012951,0.010469,-0.22656,0.015122,0.030798,9.5013e-07,0.45,0.74,0
0.020587,-0.005646,0.034861,0.00027165,0.01054,-0.00014509,0,0,0.031618,-0.013349,0,-0.00037724,0,0,0,0.034862,0.00027104,0.01054,-0.24033,0.015224,0.03077,9.5377e-07,0.46,0.74,0
0.020904,-0.0057722,0.034955,0.00040226,0.010607,-0.00014215,0,0,0.031653,-0.013267,0,-0.00036958,0,0,0,0.034956,0.00040167,0.010607,-0.2357,0.015322,0.030749,9.5756e-07,0.47,0.74,0
0.02122,-0.0058974,0.035049,0.00051739,0.01067,-0.00012777,0,0,0.031693,-0.013199,0,-0.00033221,0,0,0,0.03505,0.00051691,0.01067,-0.21199,0.015412,0.030741,9.618e-07,0.48,0.74,0
0.021538,-0.006021,0.035145,0.00061318,0.010728,-0.00010254,0,0,0.031743,-0.013149,0,-0.0002666,0,0,0,0.035146,0.00061288,0.010728,-0.17013,0.015495,0.030749,9.6677e-07,0.49,0.74,0
0.021855,-0.0061428,0.035245,0.00068659,0.010779,-6.7654e-05,0,0,0.031805,-0.013121,0,-0.0001759,0,0,0,0.035245,0.00068645,0.010779,-0.11217,0.01557,0.030779,9.7274e-07,0.5,0.74,0
0.022174,-0.0062624,0.035349,0.00073534,0.010825,-2.4719e-05,0,0,0.031881,-0.013117,0,-6.4269e-05,0,0,0,0.035349,0.00073532,0.010825,-0.040917,0.015637,0.030833,9.7991e-07,0.51,0.74,0
0.022493,-0.0063795,0.035459,0.00075777,0.010865,2.4396e-05,0,0,0.031973,-0.01314,0,6.3429e-05,0,0,0,0.035459,0.00075775,0.010865,0.040279,0.015694,0.030913,9.8847e-07,0.52,0.74,0
0.022813,-0.006494,0.035577,0.00075268,0.010899,7.7519e-05,0,0,0.032081,-0.01319,0,0.00020155,0,0,0,0.035577,0.00075251,0.010899,0.12754,0.015743,0.031022,9.9858e-07,0.53,0.74,0
0.023135,-0.0066057,0.035702,0.00071946,0.010926,0.0001321,0,0,0.032208,-0.013269,0,0.00034347,0,0,0,0.035702,0.00071896,0.010926,0.21636,0.015783,0.03116,1.0103e-06,0.54,0.74,0
0.023457,-0.0067143,0.035835,0.00065845,0.010948,0.00018546,0,0,0.032353,-0.013376,0,0.00048219,0,0,0,0.035836,0.00065748,0.010948,0.30207,0.015814,0.031328,1.0238e-06,0.55,0.74,0
0.023782,-0.0068199,0.035974,0.00057268,0.010964,0.00023628,0,0,0.032513,-0.013509,0,0.00061433,0,0,0,0.035976,0.0005711,0.010964,0.38238,0.015837,0.031521,1.0387e-06,0.56,0.74,0
0.024108,-0.0069222,0.036121,0.00047095,0.010978,0.00028874,0,0,0.032686,-0.013659,0,0.00075073,0,0,0,0.036123,0.00046861,0.010978,0.46402,0.015856,0.031733,1.055e-06,0.57,0.74,0
0.024435,-0.0070211,0.036289,0.00036243,0.010996,0.00036016,0,0,0.032882,-0.013823,0,0.00093642,0,0,0,0.036293,0.00035882,0.010996,0.5743,0.015882,0.031971,1.0736e-06,0.58,0.74,0
0.024765,-0.0071156,0.036561,0.00025934,0.011046,0.00047354,0,0,0.033169,-0.014023,0,0.0012312,0,0,0,0.036567,0.00025316,0.011046,0.74724,0.015955,0.032299,1.1017e-06,0.59,0.74,0
0.025099,-0.0072054,0.037085,0.00010008,0.011156,0.00060299,0,0,0.033708,-0.014372,0,0.0015678,0,0,0,0.037095,9.0246e-05,0.011156,0.9338,0.016114,0.032899,1.1557e-06,0.6,0.74,0
0.025439,-0.0072926,0.037659,-0.0002755,0.011215,0.00058813,0,0,0.034377,-0.014938,0,0.0015291,0,0,0,0.037668,-0.00028462,0.011215,0.88801,0.0162,0.033708,1.2231e-06,0.61,0.74,0
0.025786,-0.0073811,0.037593,0.00054527,0.011442,0.0012417,0,0,0.033997,-0.014165,0,0.0032284,0,0,0,0.037635,0.0005037,0.011442,1.9175,0.016527,0.033049,1.1925e-06,0.62,0.74,0
0.026119,-0.0074209,0.037249,0.0024822,0.011919,0.00079177,0,0,0.049205,-0.016358,0,0.0041308,0,0,0,0.03729,0.0024418,0.011919,1.4446,0.017217,0.03128,1.0586e-06,0.63,0.74,0
0.02677,-0.0073775,0.037982,0.0048622,0.012853,0.0011302,0,0,0.065335,-0.020777,0,0.005877,0,0,0,0.038021,0.0048237,0.012853,1.9522,0.018566,0.029999,1.059e-06,0.64,0.74,0
0.027426,-0.0073572,0.037629,0.0038018,0.012429,0.0006498,0,0,0.06552,-0.022432,0,0.003379,0,0,0,0.037642,0.0037894,0.012429,1.1001,0.017954,0.030466,1.0681e-06,0.65,0.74,0
0.028081,-0.007354,0.03727,0.0029947,0.012079,0.00033242,0,0,0.065496,-0.02362,0,0.0017286,0,0,0,0.037274,0.0029915,0.012079,0.5556,0.017448,0.030762,1.0669e-06,0.66,0.74,0
0.028736,-0.0073622,0.037033,0.0023776,0.011823,0.00012394,0,0,0.065545,-0.024558,0,0.00064449,0,0,0,0.037033,0.0023772,0.011823,0.20491,0.017078,0.031031,1.0688e-06,0.67,0.74,0
0.029392,-0.0073786,0.03684,0.0018724,0.011614,-1.4569e-05,0,0,0.065589,-0.025328,0,-7.5758e-05,0,0,0,0.03684,0.0018723,0.011614,-0.023872,0.016775,0.031257,1.0702e-06,0.68,0.74,0
0.030048,-0.0074006,0.036669,0.0014467,0.011435,-0.0001003,0,0,0.065609,-0.025969,0,-0.00052156,0,0,0,0.036669,0.0014464,0.011435,-0.16316,0.016517,0.031442,1.0702e-06,0.69,0.74,0
0.030704,-0.0074265,0.036509,0.001083,0.011278,-0.00014668,0,0,0.065602,-0.026506,0,-0.00076276,0,0,0,0.03651,0.0010824,0.011278,-0.23723,0.01629,0.031589,1.0687e-06,0.7,0.74,0
0.03136,-0.0074547,0.036358,0.00076998,0.011139,-0.00016442,0,0,0.065571,-0.026958,0,-0.00085499,0,0,0,0.036359,0.00076922,0.011139,-0.26471,0.016089,0.031704,1.0659e-06,0.71,0.74,0
0.032015,-0.0074842,0.036214,0.00049952,0.011014,-0.00016199,0,0,0.065519,-0.027338,0,-0.00084234,0,0,0,0.036214,0.00049878,0.011014,-0.25987,0.015909,0.03179,1.062e-06,0.72,0.74,0
0.03267,-0.007514,0.036075,0.00026522,0.010902,-0.00014594,0,0,0.065449,-0.027656,0,-0.00075886,0,0,0,0.036076,0.00026463,0.010902,-0.23349,0.015747,0.031853,1.0574e-06,0.73,0.74,0
0.033324,-0.0075435,0.035942,6.1904e-05,0.010801,-0.00012121,0,0,0.065365,-0.027922,0,-0.0006303,0,0,0,0.035942,6.1494e-05,0.010801,-0.19356,0.015602,0.031897,1.0521e-06,0.74,0.74,0
0.033978,-0.0075723,0.035814,-0.00011474,0.01071,-9.1504e-05,0,0,0.06527,-0.028143,0,-0.00047582,0,0,0,0.035814,-0.00011497,0.01071,-0.14592,0.01547,0.031924,1.0464e-06,0.75,0.74,0
0.03463,-0.0076001,0.035691,-0.00026831,0.010627,-5.951e-05,0,0,0.065167,-0.028327,0,-0.00030945,0,0,0,0.035691,-0.00026841,0.010627,-0.094821,0.01535,0.031938,1.0404e-06,0.76,0.74,0
0.035281,-0.0076265,0.035574,-0.00040188,0.010552,-2.7185e-05,0,0,0.065058,-0.028479,0,-0.00014136,0,0,0,0.035574,-0.0004019,0.010552,-0.043295,0.015241,0.03194,1.0342e-06,0.77,0.74,0
0.035931,-0.0076515,0.035463,-0.00051804,0.010483,4.0824e-06,0,0,0.064946,-0.028604,0,2.1228e-05,0,0,0,0.035463,-0.00051804,0.010483,0.0065008,0.015143,0.031934,1.0281e-06,0.78,0.74,0
0.03658,-0.0076749,0.035357,-0.00061901,0.010421,3.3322e-05,0,0,0.064832,-0.028705,0,0.00017327,0,0,0,0.035357,-0.00061904,0.010421,0.053069,0.015053,0.031921,1.0219e-06,0.79,0.74,0
0.037227,-0.0076968,0.035257,-0.00070672,0.010365,5.9878e-05,0,0,0.064718,-0.028786,0,0.00031137,0,0,0,0.035257,-0.00070682,0.010365,0.095396,0.014972,0.031903,1.0158e-06,0.8,0.74,0
0.037874,-0.007717,0.035162,-0.00078281,0.010314,8.3329e-05,0,0,0.064605,-0.028851,0,0.00043331,0,0,0,0.035162,-0.00078301,0.010314,0.13282,0.014898,0.03188,1.0099e-06,0.81,0.74,0
0.03852,-0.0077357,0.035073,-0.00084873,0.010267,0.00010343,0,0,0.064494,-0.028901,0,0.00053782,0,0,0,0.035073,-0.00084903,0.010267,0.16497,0.01483,0.031853,1.0042e-06,0.82,0.74,0
0.039164,-0.0077528,0.034989,-0.00090572,0.010225,0.00012006,0,0,0.064386,-0.02894,0,0.00062429,0,0,0,0.034989,-0.00090613,0.010225,0.19163,0.014769,0.031825,9.9871e-07,0.83,0.74,0
0.039807,-0.0077684,0.03491,-0.0009549,0.010187,0.00013319,0,0,0.064282,-0.028968,0,0.00069262,0,0,0,0.034911,-0.00095539,0.010187,0.21278,0.014714,0.031795,9.9346e-07,0.84,0.74,0
0.04045,-0.0077825,0.034837,-0.00099721,0.010152,0.0001429,0,0,0.064182,-0.028988,0,0.00074306,0,0,0,0.034838,-0.00099778,0.010152,0.22847,0.014664,0.031764,9.8847e-07,0.85,0.74,0
0.041091,-0.0077954,0.034769,-0.0010335,0.010121,0.00014926,0,0,0.064087,-0.029001,0,0.00077617,0,0,0,0.03477,-0.0010341,0.010121,0.23886,0.014619,0.031733,9.8376e-07,0.86,0.74,0
0.041731,-0.0078069,0.034707,-0.0010646,0.010093,0.00015244,0,0,0.063996,-0.029009,0,0.00079271,0,0,0,0.034707,-0.0010652,0.010093,0.24417,0.014578,0.031702,9.7934e-07,0.87,0.74,0
0.042371,-0.0078172,0.034649,-0.001091,0.010067,0.00015261,0,0,0.063912,-0.029012,0,0.00079359,0,0,0,0.034649,-0.0010917,0.010067,0.24465,0.014542,0.031672,9.7523e-07,0.88,0.74,0
0.04301,-0.0078263,0.034596,-0.0011134,0.010045,0.00014997,0,0,0.063833,-0.029011,0,0.00077982,0,0,0,0.034597,-0.0011141,0.010045,0.24061,0.014509,0.031643,9.7142e-07,0.89,0.74,0
0.043648,-0.0078344,0.034548,-0.0011324,0.010025,0.00014471,0,0,0.06376,-0.029008,0,0.0007525,0,0,0,0.034549,-0.001133,0.010025,0.23237,0.01448,0.031615,9.6794e-07,0.9,0.74,0
0.044285,-0.0078415,0.034505,-0.0011483,0.010007,0.00013708,0,0,0.063694,-0.029004,0,0.00071279,0,0,0,0.034505,-0.0011488,0.010007,0.22028,0.014455,0.03159,9.6477e-07,0.91,0.74,0
0.044922,-0.0078477,0.034466,-0.0011615,0.0099914,0.00012729,0,0,0.063634,-0.028998,0,0.00066188,0,0,0,0.034467,-0.001162,0.0099914,0.20469,0.014432,0.031566,9.6193e-07,0.92,0.74,0
0.045558,-0.007853,0.034432,-0.0011724,0.009978,0.00011558,0,0,0.063582,-0.028991,0,0.000601,0,0,0,0.034433,-0.0011728,0.009978,0.18599,0.014413,0.031545,9.5942e-07,0.93,0.74,0
0.046193,-0.0078575,0.034403,-0.0011813,0.0099666,0.00010219,0,0,0.063535,-0.028985,0,0.00053138,0,0,0,0.034404,-0.0011816,0.0099666,0.16453,0.014396,0.031526,9.5724e-07,0.94,0.74,0
0.046828,-0.0078612,0.034379,-0.0011884,0.0099571,8.7359e-05,0,0,0.063496,-0.028978,0,0.00045426,0,0,0,0.034379,-0.0011887,0.0099571,0.14073,0.014382,0.03151,9.5539e-07,0.95,0.74,0
0.047463,-0.0078642,0.034359,-0.001194,0.0099494,7.1327e-05,0,0,0.063464,-0.028973,0,0.0003709,0,0,0,0.034359,-0.0011941,0.0099494,0.11495,0.014371,0.031496,9.5388e-07,0.96,0.74,0
0.048098,-0.0078665,0.034343,-0.0011982,0.0099435,5.4336e-05,0,0,0.063439,-0.028968,0,0.00028255,0,0,0,0.034343,-0.0011983,0.0099435,0.087594,0.014363,0.031485,9.527e-07,0.97,0.74,0
0.048732,-0.0078681,0.034332,-0.001201,0.0099393,3.6624e-05,0,0,0.063421,-0.028965,0,0.00019044,0,0,0,0.034332,-0.0012011,0.0099393,0.059055,0.014357,0.031478,9.5186e-07,0.98,0.74,0
0.049366,-0.007869,0.034325,-0.0012027,0.0099368,1.8432e-05,0,0,0.06341,-0.028963,0,9.5845e-05,0,0,0,0.034325,-0.0012027,0.0099368,0.029725,0.014353,0.031473,9.5135e-07,0.99,0.74,0
0.05,-0.0078693,0.034323,-0.0012033,0.0099359,-6.1073e-06,0,0,0.063407,-0.028962,0,-3.1758e-05,0,0,0,0.034323,-0.0012033,0.0099359,-0.0098497,0.014352,0.031472,9.5118e-07,1,0.74,0
0,0,0.030423,0.013038,0.013038,-0.0035264,0,0,0.045199,1.6263e-19,0,-0.018337,0,0,0,0.031111,0.01235,0.013038,-11.041,0.018833,0.018426,3.1981e-07,0,0.75,0
0.000452,-0.00018337,0.030377,0.01248,0.012857,-0.0035132,0,0,0.045552,-0.00098033,0,-0.018269,0,0,0,0.031042,0.011815,0.012857,-10.718,0.018571,0.018728,3.3382e-07,0.01,0.75,0
0.00091103,-0.00036608,0.030566,0.012012,0.012774,-0.0034765,0,0,0.046261,-0.0019792,0,-0.018078,0,0,0,0.031196,0.011382,0.012774,-10.272,0.018451,0.019156,3.5462e-07,0.02,0.75,0
0.0013772,-0.00054719,0.030756,0.011536,0.012688,-0.0034144,0,0,0.046978,-0.0029936,0,-0.017755,0,0,0,0.031345,0.010948,0.012688,-9.7801,0.018327,0.019585,3.7557e-07,0.03,0.75,0
0.0018506,-0.00072582,0.030946,0.011054,0.0126,-0.0033282,0,0,0.0477,-0.0040196,0,-0.017307,0,0,0,0.031488,0.010512,0.0126,-9.2508,0.0182,0.020014,3.9668e-07,0.04,0.75,0
0.0023312,-0.00090115,0.031136,0.010568,0.012511,-0.0032191,0,0,0.048424,-0.0050529,0,-0.016739,0,0,0,0.031628,0.010075,0.012511,-8.6905,0.018072,0.020444,4.1791e-07,0.05,0.75,0
0.0028191,-0.0010724,0.031323,0.010079,0.012421,-0.0030881,0,0,0.049147,-0.0060887,0,-0.016058,0,0,0,0.031763,0.0096391,0.012421,-8.1052,0.017941,0.020873,4.3922e-07,0.06,0.75,0
0.0033142,-0.0012389,0.031509,0.0095904,0.01233,-0.0029365,0,0,0.049865,-0.0071222,0,-0.01527,0,0,0,0.031895,0.0092038,0.01233,-7.5001,0.017809,0.021301,4.6057e-07,0.07,0.75,0
0.0038164,-0.0014,0.03169,0.0091042,0.012238,-0.0027656,0,0,0.050575,-0.0081487,0,-0.014381,0,0,0,0.032024,0.0087705,0.012238,-6.8802,0.017678,0.021728,4.8193e-07,0.08,0.75,0
0.0043257,-0.0015552,0.031868,0.0086227,0.012147,-0.0025768,0,0,0.051274,-0.0091638,0,-0.013399,0,0,0,0.03215,0.0083405,0.012147,-6.2503,0.017546,0.022153,5.0326e-07,0.09,0.75,0
0.0048419,-0.001704,0.032042,0.008148,0.012057,-0.0023721,0,0,0.051961,-0.010163,0,-0.012335,0,0,0,0.032275,0.0079148,0.012057,-5.6151,0.017416,0.022576,5.2454e-07,0.1,0.75,0
0.0053649,-0.001846,0.032211,0.0076823,0.011968,-0.0021534,0,0,0.052632,-0.011143,0,-0.011198,0,0,0,0.032399,0.0074947,0.011968,-4.9793,0.017287,0.022996,5.4575e-07,0.11,0.75,0
0.0058945,-0.0019809,0.032376,0.0072276,0.011881,-0.0019231,0,0,0.053287,-0.012099,0,-0.01,0,0,0,0.032522,0.0070814,0.011881,-4.3478,0.017161,0.023413,5.669e-07,0.12,0.75,0
0.0064306,-0.0021087,0.032537,0.0067864,0.011797,-0.0016839,0,0,0.053923,-0.013027,0,-0.0087564,0,0,0,0.032646,0.0066767,0.011797,-3.7257,0.01704,0.023826,5.8795e-07,0.13,0.75,0
0.006973,-0.0022293,0.032694,0.006361,0.011716,-0.0014388,0,0,0.05454,-0.013924,0,-0.0074817,0,0,0,0.032772,0.0062826,0.011716,-3.1182,0.016924,0.024234,6.0888e-07,0.14,0.75,0
0.0075214,-0.002343,0.032847,0.0059545,0.01164,-0.001191,0,0,0.055137,-0.014784,0,-0.0061934,0,0,0,0.0329,0.0059018,0.01164,-2.5309,0.016814,0.024635,6.2965e-07,0.15,0.75,0
0.0080757,-0.00245,0.032998,0.0055701,0.01157,-0.00094444,0,0,0.055711,-0.015601,0,-0.0049111,0,0,0,0.03303,0.0055377,0.01157,-1.9698,0.016713,0.025028,6.5018e-07,0.16,0.75,0
0.0086356,-0.002551,0.033146,0.0052122,0.011508,-0.00070323,0,0,0.056261,-0.016368,0,-0.0036568,0,0,0,0.033164,0.0051945,0.011508,-1.4412,0.016622,0.025408,6.7035e-07,0.17,0.75,0
0.0092009,-0.0026467,0.033293,0.0048857,0.011454,-0.00047232,0,0,0.056783,-0.017077,0,-0.0024561,0,0,0,0.033301,0.0048779,0.011454,-0.95228,0.016544,0.025772,6.9e-07,0.18,0.75,0
0.0097713,-0.0027382,0.033439,0.0045968,0.011411,-0.00025748,0,0,0.057273,-0.017716,0,-0.0013389,0,0,0,0.033441,0.0045945,0.011411,-0.51145,0.016482,0.026114,7.0888e-07,0.19,0.75,0
0.010346,-0.0028266,0.033583,0.0043531,0.011381,-6.5693e-05,0,0,0.057726,-0.018272,0,-0.0003416,0,0,0,0.033583,0.004353,0.011381,-0.12877,0.016439,0.026427,7.267e-07,0.2,0.75,0
0.010926,-0.0029137,0.033728,0.0041639,0.011367,9.4468e-05,0,0,0.058136,-0.018729,0,0.00049123,0,0,0,0.033728,0.0041636,0.011367,0.18308,0.01642,0.026701,7.4309e-07,0.21,0.75,0
0.011509,-0.0030014,0.033873,0.0040404,0.011374,0.00021232,0,0,0.058497,-0.019067,0,0.0011041,0,0,0,0.033874,0.0040389,0.011374,0.40775,0.016429,0.026928,7.5761e-07,0.22,0.75,0
0.012096,-0.003092,0.034021,0.0039972,0.011406,0.00027443,0,0,0.0588,-0.019262,0,0.0014271,0,0,0,0.034024,0.0039947,0.011406,0.52365,0.016475,0.027095,7.6976e-07,0.23,0.75,0
0.012685,-0.0031882,0.034174,0.0040533,0.011468,0.00026379,0,0,0.059036,-0.019279,0,0.0013717,0,0,0,0.034176,0.0040509,0.011468,0.50172,0.016565,0.027187,7.7888e-07,0.24,0.75,0
0.013277,-0.0032934,0.034329,0.0042366,0.01157,0.00015791,0,0,0.059174,-0.019066,0,0.00082111,0,0,0,0.03433,0.0042358,0.01157,0.30064,0.016712,0.02718,7.8366e-07,0.25,0.75,0
0.013869,-0.0034112,0.034416,0.0045801,0.011699,-6.7325e-05,0,0,0.059065,-0.018509,0,-0.00035009,0,0,0,0.034416,0.0045799,0.011699,-0.12929,0.016898,0.026991,7.7796e-07,0.26,0.75,0
0.014458,-0.0035446,0.034253,0.0052219,0.011843,-0.00033082,0,0,0.058268,-0.017214,0,-0.0017202,0,0,0,0.034257,0.0052181,0.011843,-0.65278,0.017106,0.026359,7.4408e-07,0.27,0.75,0
0.015034,-0.0036832,0.034306,0.0026598,0.01109,-0.0003585,0,0,0.044587,-0.014612,0,-0.0016179,0,0,0,0.034312,0.0026543,0.01109,-0.69657,0.016019,0.028448,8.2255e-07,0.28,0.75,0
0.01535,-0.0037994,0.03432,-0.00058148,0.010122,0.00027358,0,0,0.031458,-0.013914,0,0.0007113,0,0,0,0.034322,-0.00058363,0.010122,0.44908,0.01462,0.030973,9.3431e-07,0.29,0.75,0
0.015663,-0.0039006,0.034053,-0.0015316,0.0097565,0.00047903,0,0,0.031586,-0.014675,0,0.0012455,0,0,0,0.03406,-0.001538,0.0097565,0.7711,0.014093,0.031507,9.3835e-07,0.3,0.75,0
0.015981,-0.0039979,0.034244,-0.0016015,0.0097929,0.00040089,0,0,0.031787,-0.014813,0,0.0010423,0,0,0,0.034249,-0.001606,0.0097929,0.64067,0.014145,0.03173,9.5559e-07,0.31,0.75,0
0.016299,-0.0040994,0.034174,-0.0015658,0.0097826,0.00028023,0,0,0.03171,-0.014753,0,0.0007286,0,0,0,0.034177,-0.0015681,0.0097826,0.4492,0.01413,0.031635,9.4869e-07,0.32,0.75,0
0.016615,-0.0042047,0.034091,-0.0015262,0.0097694,0.00019786,0,0,0.031618,-0.014684,0,0.00051444,0,0,0,0.034092,-0.0015273,0.0097694,0.31828,0.014111,0.031527,9.4072e-07,0.33,0.75,0
0.016931,-0.0043136,0.034059,-0.0014498,0.0097826,0.00012531,0,0,0.031559,-0.014602,0,0.00032581,0,0,0,0.034059,-0.0014503,0.0097826,0.2022,0.01413,0.031436,9.3604e-07,0.34,0.75,0
0.017247,-0.0044258,0.034059,-0.0013352,0.0098172,6.1644e-05,0,0,0.031515,-0.014498,0,0.00016027,0,0,0,0.034059,-0.0013353,0.0098172,0.099788,0.01418,0.031344,9.331e-07,0.35,0.75,0
0.017562,-0.0045411,0.034079,-0.001196,0.009865,1.0537e-05,0,0,0.031479,-0.014379,0,2.7397e-05,0,0,0,0.034079,-0.001196,0.009865,0.017115,0.01425,0.031249,9.311e-07,0.36,0.75,0
0.017876,-0.004659,0.034116,-0.001045,0.0099212,-2.8273e-05,0,0,0.031453,-0.014256,0,-7.3509e-05,0,0,0,0.034116,-0.001045,0.0099212,-0.046071,0.014331,0.03116,9.3006e-07,0.37,0.75,0
0.018191,-0.004779,0.034167,-0.00089079,0.0099827,-5.8636e-05,0,0,0.031439,-0.014136,0,-0.00015245,0,0,0,0.034167,-0.00089089,0.0099827,-0.095831,0.01442,0.031082,9.3007e-07,0.38,0.75,0
0.018505,-0.0049009,0.03423,-0.00073756,0.010048,-8.5041e-05,0,0,0.031437,-0.014021,0,-0.00022111,0,0,0,0.03423,-0.00073776,0.010048,-0.13934,0.014513,0.031015,9.3106e-07,0.39,0.75,0
0.018819,-0.0050243,0.034302,-0.00058631,0.010115,-0.00011074,0,0,0.031444,-0.013912,0,-0.00028794,0,0,0,0.034303,-0.00058666,0.010115,-0.18187,0.01461,0.030958,9.3281e-07,0.4,0.75,0
0.019134,-0.0051488,0.034381,-0.00043666,0.010183,-0.00013709,0,0,0.031457,-0.013806,0,-0.00035643,0,0,0,0.034381,-0.0004372,0.010183,-0.22559,0.014709,0.030908,9.3502e-07,0.41,0.75,0
0.019448,-0.0052742,0.034462,-0.0002881,0.010252,-0.0001636,0,0,0.031472,-0.013702,0,-0.00042536,0,0,0,0.034462,-0.00028887,0.010252,-0.26974,0.014809,0.030862,9.3743e-07,0.42,0.75,0
0.019763,-0.0054002,0.034543,-0.00014085,0.010321,-0.00018854,0,0,0.031489,-0.0136,0,-0.0004902,0,0,0,0.034544,-0.00014187,0.010321,-0.31145,0.014908,0.030817,9.3986e-07,0.43,0.75,0
0.020078,-0.0055267,0.034623,3.7943e-06,0.010388,-0.00020954,0,0,0.031505,-0.013499,0,-0.0005448,0,0,0,0.034624,2.526e-06,0.010388,-0.34678,0.015005,0.030773,9.4223e-07,0.44,0.75,0
0.020393,-0.0056531,0.034702,0.00014343,0.010454,-0.00022424,0,0,0.031523,-0.013403,0,-0.00058302,0,0,0,0.034703,0.00014197,0.010454,-0.37175,0.0151,0.030732,9.446e-07,0.45,0.75,0
0.020709,-0.0057792,0.03478,0.00027485,0.010517,-0.00023074,0,0,0.031543,-0.013314,0,-0.00059993,0,0,0,0.034782,0.0002733,0.010517,-0.38312,0.015191,0.030697,9.4712e-07,0.46,0.75,0
0.021024,-0.0059047,0.034859,0.00039448,0.010576,-0.00022787,0,0,0.031568,-0.013236,0,-0.00059247,0,0,0,0.034861,0.00039298,0.010576,-0.37881,0.015277,0.030671,9.4996e-07,0.47,0.75,0
0.02134,-0.0060292,0.034939,0.00049882,0.010631,-0.00021526,0,0,0.0316,-0.013172,0,-0.00055968,0,0,0,0.034941,0.00049747,0.010631,-0.35809,0.015357,0.030659,9.5337e-07,0.48,0.75,0
0.021656,-0.0061524,0.035022,0.00058469,0.010682,-0.00019324,0,0,0.031642,-0.013127,0,-0.00050242,0,0,0,0.035023,0.00058361,0.010682,-0.32149,0.01543,0.030664,9.5755e-07,0.49,0.75,0
0.021973,-0.0062739,0.035109,0.00064953,0.010728,-0.00016272,0,0,0.031696,-0.013102,0,-0.00042308,0,0,0,0.03511,0.00064876,0.010728,-0.27055,0.015496,0.030689,9.627e-07,0.5,0.75,0
0.02229,-0.0063934,0.035201,0.00069134,0.010768,-0.00012509,0,0,0.031763,-0.013099,0,-0.00032523,0,0,0,0.035201,0.00069088,0.010768,-0.20768,0.015553,0.030737,9.6897e-07,0.51,0.75,0
0.022608,-0.0065108,0.035298,0.0007087,0.010802,-8.2061e-05,0,0,0.031845,-0.013121,0,-0.00021336,0,0,0,0.035298,0.00070851,0.010802,-0.13593,0.015603,0.030809,9.765e-07,0.52,0.75,0
0.022927,-0.0066258,0.035401,0.00070075,0.01083,-3.5706e-05,0,0,0.031942,-0.013169,0,-9.2835e-05,0,0,0,0.035401,0.00070071,0.01083,-0.058956,0.015644,0.030907,9.8537e-07,0.53,0.75,0
0.023247,-0.0067382,0.03551,0.00066725,0.010853,1.1689e-05,0,0,0.032054,-0.013242,0,3.0391e-05,0,0,0,0.03551,0.00066725,0.010853,0.019221,0.015677,0.03103,9.9561e-07,0.54,0.75,0
0.023568,-0.0068479,0.035625,0.0006089,0.01087,5.8031e-05,0,0,0.032181,-0.01334,0,0.00015088,0,0,0,0.035625,0.00060881,0.01087,0.094956,0.015701,0.031178,1.0072e-06,0.55,0.75,0
0.023891,-0.0069547,0.035746,0.00052772,0.010882,0.00010245,0,0,0.032323,-0.013461,0,0.00026638,0,0,0,0.035746,0.00052742,0.010882,0.16668,0.015719,0.031351,1.0203e-06,0.56,0.75,0
0.024215,-0.0070586,0.03588,0.0004256,0.010892,0.00014679,0,0,0.032485,-0.013606,0,0.00038167,0,0,0,0.035881,0.000425,0.010892,0.23722,0.015732,0.031552,1.0352e-06,0.57,0.75,0
0.02454,-0.0071592,0.036044,0.00030159,0.010904,0.00019358,0,0,0.032683,-0.013783,0,0.00050331,0,0,0,0.036045,0.00030054,0.010904,0.3103,0.01575,0.031798,1.0535e-06,0.58,0.75,0
0.024868,-0.0072562,0.036258,0.00013549,0.010918,0.00023457,0,0,0.032942,-0.014018,0,0.00060988,0,0,0,0.03626,0.00013397,0.010918,0.37204,0.015771,0.032122,1.078e-06,0.59,0.75,0
0.025199,-0.0073499,0.036448,-0.00012037,0.010898,0.0002282,0,0,0.033214,-0.014324,0,0.00059331,0,0,0,0.036449,-0.0001218,0.010898,0.35752,0.015742,0.032494,1.1032e-06,0.6,0.75,0
0.025532,-0.0074403,0.036361,-0.00034386,0.010805,0.00025544,0,0,0.033223,-0.014494,0,0.00066414,0,0,0,0.036363,-0.00034564,0.010805,0.3987,0.015607,0.032597,1.1025e-06,0.61,0.75,0
0.025864,-0.007519,0.036795,0.0002479,0.011113,0.00055779,0,0,0.033386,-0.014124,0,0.0014503,0,0,0,0.036803,0.00023939,0.011113,0.8742,0.016052,0.03252,1.1237e-06,0.62,0.75,0
0.0262,-0.0075756,0.036851,0.0029699,0.011946,0.0012446,0,0,0.04792,-0.015559,0,0.0052062,0,0,0,0.036902,0.002919,0.011946,2.1833,0.017256,0.030545,1.019e-06,0.63,0.75,0
0.026822,-0.0075786,0.036925,0.0052107,0.012641,0.0011813,0,0,0.06314,-0.019318,0,0.0061425,0,0,0,0.036969,0.0051667,0.012641,2.1301,0.018259,0.028802,9.5421e-07,0.64,0.75,0
0.027463,-0.0075783,0.037176,0.0040667,0.012373,0.00084634,0,0,0.064488,-0.021596,0,0.004401,0,0,0,0.037197,0.004045,0.012373,1.4633,0.017872,0.029872,1.0188e-06,0.65,0.75,0
0.028112,-0.0075881,0.03712,0.0032248,0.012103,0.00051902,0,0,0.065043,-0.023084,0,0.0026989,0,0,0,0.037128,0.0032168,0.012103,0.87707,0.017483,0.030456,1.0453e-06,0.66,0.75,0
0.028764,-0.0076065,0.036978,0.0025397,0.011855,0.00029341,0,0,0.065319,-0.02422,0,0.0015257,0,0,0,0.03698,0.0025372,0.011855,0.48811,0.017124,0.030858,1.0581e-06,0.67,0.75,0
0.029418,-0.0076311,0.036829,0.0019771,0.011642,0.00014561,0,0,0.065486,-0.025128,0,0.00075719,0,0,0,0.036829,0.0019764,0.011642,0.23938,0.016816,0.031165,1.0654e-06,0.68,0.75,0
0.030074,-0.00766,0.036679,0.0015072,0.011456,5.439e-05,0,0,0.065581,-0.025867,0,0.00028283,0,0,0,0.036679,0.0015071,0.011456,0.088602,0.016547,0.031403,1.0689e-06,0.69,0.75,0
0.03073,-0.0076915,0.03653,0.0011111,0.011292,4.0931e-06,0,0,0.065618,-0.026471,0,2.1284e-05,0,0,0,0.03653,0.0011111,0.011292,0.0066213,0.016311,0.031584,1.0694e-06,0.7,0.75,0
0.031386,-0.0077244,0.036381,0.00077534,0.011147,-1.7225e-05,0,0,0.06561,-0.026966,0,-8.957e-05,0,0,0,0.036381,0.00077533,0.011147,-0.027718,0.016101,0.031719,1.0677e-06,0.71,0.75,0
0.032042,-0.0077578,0.036235,0.00048941,0.011017,-1.8614e-05,0,0,0.065565,-0.027372,0,-9.6795e-05,0,0,0,0.036235,0.0004894,0.011017,-0.029837,0.015914,0.031816,1.0641e-06,0.72,0.75,0
0.032697,-0.0077909,0.03609,0.00024512,0.010901,-6.8345e-06,0,0,0.065493,-0.027704,0,-3.5539e-05,0,0,0,0.03609,0.00024512,0.010901,-0.010924,0.015745,0.031882,1.0593e-06,0.73,0.75,0
0.033352,-0.0078231,0.03595,3.5874e-05,0.010796,1.3141e-05,0,0,0.065401,-0.027976,0,6.8331e-05,0,0,0,0.03595,3.5869e-05,0.010796,0.020964,0.015594,0.031924,1.0536e-06,0.74,0.75,0
0.034005,-0.0078541,0.035814,-0.00014374,0.010701,3.7694e-05,0,0,0.065293,-0.028196,0,0.00019601,0,0,0,0.035814,-0.00014378,0.010701,0.060062,0.015457,0.031947,1.0473e-06,0.75,0.75,0
0.034658,-0.0078837,0.035683,-0.00029816,0.010615,6.4221e-05,0,0,0.065175,-0.028375,0,0.00033395,0,0,0,0.035683,-0.00029827,0.010615,0.10226,0.015333,0.031954,1.0406e-06,0.76,0.75,0
0.035309,-0.0079116,0.035558,-0.00043104,0.010538,9.0869e-05,0,0,0.065051,-0.02852,0,0.00047252,0,0,0,0.035558,-0.00043127,0.010538,0.14466,0.015222,0.03195,1.0337e-06,0.77,0.75,0
0.035959,-0.0079378,0.035438,-0.00054545,0.010468,0.00011633,0,0,0.064924,-0.028635,0,0.00060492,0,0,0,0.035439,-0.00054582,0.010468,0.18523,0.01512,0.031935,1.0268e-06,0.78,0.75,0
0.036607,-0.0079622,0.035325,-0.00064395,0.010404,0.00013971,0,0,0.064795,-0.028726,0,0.0007265,0,0,0,0.035326,-0.00064449,0.010404,0.22254,0.015029,0.031914,1.02e-06,0.79,0.75,0
0.037255,-0.0079848,0.035218,-0.0007287,0.010347,0.00016041,0,0,0.064666,-0.028796,0,0.00083412,0,0,0,0.035219,-0.00072941,0.010347,0.25566,0.014946,0.031887,1.0133e-06,0.8,0.75,0
0.037901,-0.0080056,0.035118,-0.00080154,0.010295,0.00017804,0,0,0.064539,-0.02885,0,0.00092579,0,0,0,0.035118,-0.00080242,0.010295,0.28398,0.01487,0.031856,1.0067e-06,0.81,0.75,0
0.038545,-0.0080247,0.035023,-0.00086405,0.010248,0.00019238,0,0,0.064415,-0.02889,0,0.0010004,0,0,0,0.035024,-0.00086509,0.010248,0.30714,0.014802,0.031823,1.0005e-06,0.82,0.75,0
0.039189,-0.0080421,0.034934,-0.0009176,0.010205,0.00020334,0,0,0.064296,-0.028918,0,0.0010574,0,0,0,0.034935,-0.00091875,0.010205,0.32495,0.01474,0.031787,9.9447e-07,0.83,0.75,0
0.039831,-0.0080579,0.034851,-0.00096335,0.010166,0.0002109,0,0,0.06418,-0.028937,0,0.0010967,0,0,0,0.034852,-0.00096459,0.010166,0.33739,0.014685,0.03175,9.8876e-07,0.84,0.75,0
0.040473,-0.0080723,0.034774,-0.0010023,0.010131,0.00021513,0,0,0.064071,-0.028948,0,0.0011187,0,0,0,0.034775,-0.0010036,0.010131,0.34452,0.014634,0.031713,9.8336e-07,0.85,0.75,0
0.041113,-0.0080852,0.034703,-0.0010354,0.0101,0.00021614,0,0,0.063966,-0.028952,0,0.0011239,0,0,0,0.034704,-0.0010367,0.0101,0.34649,0.014589,0.031676,9.7828e-07,0.86,0.75,0
0.041752,-0.0080967,0.034637,-0.0010634,0.010072,0.00021405,0,0,0.063868,-0.028952,0,0.0011131,0,0,0,0.034638,-0.0010647,0.010072,0.34352,0.014548,0.03164,9.7354e-07,0.87,0.75,0
0.04239,-0.008107,0.034576,-0.001087,0.010047,0.00020906,0,0,0.063777,-0.028948,0,0.0010871,0,0,0,0.034577,-0.0010883,0.010047,0.33586,0.014512,0.031605,9.6914e-07,0.88,0.75,0
0.043027,-0.0081162,0.034521,-0.0011068,0.010024,0.00020135,0,0,0.063692,-0.028941,0,0.001047,0,0,0,0.034522,-0.0011079,0.010024,0.32379,0.014479,0.031572,9.6508e-07,0.89,0.75,0
0.043664,-0.0081242,0.034471,-0.0011233,0.010004,0.00019112,0,0,0.063614,-0.028932,0,0.00099382,0,0,0,0.034472,-0.0011243,0.010004,0.30763,0.014451,0.031541,9.6137e-07,0.9,0.75,0
0.0443,-0.0081312,0.034426,-0.001137,0.0099868,0.00017859,0,0,0.063543,-0.028922,0,0.00092868,0,0,0,0.034427,-0.0011379,0.0099868,0.28772,0.014425,0.031512,9.5801e-07,0.91,0.75,0
0.044935,-0.0081373,0.034386,-0.0011482,0.0099714,0.00016399,0,0,0.063479,-0.028911,0,0.00085274,0,0,0,0.034387,-0.001149,0.0099714,0.26441,0.014403,0.031485,9.55e-07,0.92,0.75,0
0.045569,-0.0081425,0.034351,-0.0011574,0.0099582,0.00014754,0,0,0.063422,-0.0289,0,0.0007672,0,0,0,0.034352,-0.001158,0.0099582,0.23806,0.014384,0.031461,9.5235e-07,0.93,0.75,0
0.046203,-0.0081469,0.034321,-0.0011647,0.0099469,0.00012947,0,0,0.063373,-0.02889,0,0.00067323,0,0,0,0.034322,-0.0011652,0.0099469,0.20903,0.014368,0.03144,9.5005e-07,0.94,0.75,0
0.046837,-0.0081505,0.034296,-0.0011706,0.0099375,0.00011001,0,0,0.063331,-0.028881,0,0.00057204,0,0,0,0.034296,-0.0011709,0.0099375,0.17772,0.014354,0.031422,9.4811e-07,0.95,0.75,0
0.04747,-0.0081534,0.034275,-0.0011751,0.00993,8.9393e-05,0,0,0.063297,-0.028873,0,0.00046484,0,0,0,0.034275,-0.0011753,0.00993,0.14448,0.014343,0.031407,9.4652e-07,0.96,0.75,0
0.048103,-0.0081557,0.034259,-0.0011784,0.0099242,6.7853e-05,0,0,0.06327,-0.028867,0,0.00035284,0,0,0,0.034259,-0.0011785,0.0099242,0.10971,0.014335,0.031395,9.4528e-07,0.97,0.75,0
0.048735,-0.0081572,0.034248,-0.0011807,0.00992,4.562e-05,0,0,0.063251,-0.028862,0,0.00023723,0,0,0,0.034248,-0.0011808,0.00992,0.073778,0.014329,0.031386,9.4439e-07,0.98,0.75,0
0.049368,-0.0081582,0.034241,-0.0011821,0.0099176,2.2925e-05,0,0,0.06324,-0.028859,0,0.00011921,0,0,0,0.034241,-0.0011821,0.0099176,0.037082,0.014325,0.031381,9.4386e-07,0.99,0.75,0
0.05,-0.0081585,0.034238,-0.0011825,0.0099168,-5.943e-06,0,0,0.063236,-0.028858,0,-3.0904e-05,0,0,0,0.034238,-0.0011825,0.0099168,-0.0096133,0.014324,0.03138,9.4369e-07,1,0.75,0
0,0,0.03045,0.01305,0.01305,-0.0037207,0,0,0.045239,-2.7105e-19,0,-0.019348,0,0,0,0.031212,0.012288,0.01305,-11.578,0.01885,0.018555,3.2622e-07,0,0.76,0
0.00045239,-0.00019348,0.030401,0.012457,0.012857,-0.0037077,0,0,0.045613,-0.0010406,0,-0.01928,0,0,0,0.031137,0.011721,0.012857,-11.227,0.018572,0.018873,3.4105e-07,0.01,0.76,0
0.00091225,-0.00038646,0.030602,0.011963,0.012769,-0.0036724,0,0,0.046364,-0.0020966,0,-0.019097,0,0,0,0.031299,0.011265,0.012769,-10.754,0.018445,0.019326,3.6314e-07,0.02,0.76,0
0.0013797,-0.00057798,0.030804,0.011462,0.01268,-0.0036111,0,0,0.047122,-0.0031658,0,-0.018778,0,0,0,0.031456,0.01081,0.01268,-10.238,0.018315,0.019777,3.8536e-07,0.03,0.76,0
0.0018547,-0.00076713,0.031006,0.010956,0.012589,-0.0035248,0,0,0.047885,-0.0042448,0,-0.018329,0,0,0,0.031608,0.010354,0.012589,-9.6858,0.018183,0.020229,4.0771e-07,0.04,0.76,0
0.0023374,-0.00095304,0.031208,0.010446,0.012496,-0.0034146,0,0,0.04865,-0.0053295,0,-0.017756,0,0,0,0.031755,0.0098994,0.012496,-9.1039,0.01805,0.02068,4.3017e-07,0.05,0.76,0
0.0028277,-0.0011349,0.031409,0.0099361,0.012403,-0.0032816,0,0,0.049414,-0.006415,0,-0.017064,0,0,0,0.031899,0.0094458,0.012403,-8.498,0.017916,0.02113,4.5271e-07,0.06,0.76,0
0.0033256,-0.001312,0.031607,0.0094272,0.01231,-0.0031272,0,0,0.050172,-0.0074963,0,-0.016261,0,0,0,0.03204,0.0089947,0.01231,-7.8736,0.017782,0.021579,4.7528e-07,0.07,0.76,0
0.0038311,-0.0014836,0.031803,0.0089221,0.012218,-0.0029527,0,0,0.050923,-0.0085682,0,-0.015354,0,0,0,0.032178,0.0085472,0.012218,-7.2359,0.017648,0.022026,4.9786e-07,0.08,0.76,0
0.0043441,-0.0016492,0.031996,0.0084235,0.012126,-0.00276,0,0,0.051662,-0.009626,0,-0.014352,0,0,0,0.032315,0.0081046,0.012126,-6.5899,0.017515,0.022471,5.2041e-07,0.09,0.76,0
0.0048644,-0.0018081,0.032185,0.0079337,0.012035,-0.0025511,0,0,0.052388,-0.010665,0,-0.013266,0,0,0,0.03245,0.0076682,0.012035,-5.9406,0.017385,0.022913,5.4292e-07,0.1,0.76,0
0.0053919,-0.0019601,0.03237,0.0074551,0.011947,-0.0023283,0,0,0.053098,-0.01168,0,-0.012107,0,0,0,0.032586,0.0072394,0.011947,-5.2931,0.017257,0.023351,5.6537e-07,0.11,0.76,0
0.0059264,-0.0021047,0.032552,0.0069903,0.011863,-0.002094,0,0,0.053792,-0.012668,0,-0.010889,0,0,0,0.032722,0.0068199,0.011863,-4.6523,0.017135,0.023785,5.8775e-07,0.12,0.76,0
0.0064677,-0.0022419,0.03273,0.0065417,0.011782,-0.0018511,0,0,0.054466,-0.013624,0,-0.0096259,0,0,0,0.03286,0.0064115,0.011782,-4.0233,0.017018,0.024214,6.1004e-07,0.13,0.76,0
0.0070157,-0.0023716,0.032905,0.0061122,0.011705,-0.0016028,0,0,0.05512,-0.014542,0,-0.0083346,0,0,0,0.033001,0.0060167,0.011705,-3.4113,0.016908,0.024637,6.3222e-07,0.14,0.76,0
0.0075701,-0.002494,0.033078,0.005705,0.011635,-0.0013524,0,0,0.055753,-0.015418,0,-0.0070323,0,0,0,0.033145,0.0056383,0.011635,-2.8215,0.016806,0.025052,6.5423e-07,0.15,0.76,0
0.0081307,-0.0026093,0.033249,0.0053239,0.011572,-0.0011035,0,0,0.056361,-0.016245,0,-0.0057383,0,0,0,0.033293,0.0052803,0.011572,-2.2594,0.016715,0.025457,6.7598e-07,0.16,0.76,0
0.0086973,-0.002718,0.033418,0.0049735,0.011517,-0.00086038,0,0,0.056942,-0.017014,0,-0.0044739,0,0,0,0.033444,0.0049475,0.011517,-1.7309,0.016636,0.025846,6.973e-07,0.17,0.76,0
0.0092696,-0.0028208,0.033585,0.0046595,0.011473,-0.00062764,0,0,0.05749,-0.017716,0,-0.0032637,0,0,0,0.033599,0.0046459,0.011473,-1.2425,0.016573,0.026215,7.1797e-07,0.18,0.76,0
0.0098471,-0.0029185,0.03375,0.004389,0.011442,-0.00041079,0,0,0.058001,-0.018337,0,-0.0021361,0,0,0,0.033755,0.0043832,0.011442,-0.80143,0.016527,0.026556,7.3766e-07,0.19,0.76,0
0.01043,-0.0030124,0.03391,0.0041707,0.011424,-0.00021642,0,0,0.058463,-0.018859,0,-0.0011254,0,0,0,0.033912,0.0041692,0.011424,-0.41692,0.016502,0.02686,7.5588e-07,0.2,0.76,0
0.011016,-0.0031038,0.034065,0.0040157,0.011424,-5.2667e-05,0,0,0.058865,-0.019262,0,-0.00027387,0,0,0,0.034065,0.0040156,0.011424,-0.10042,0.016501,0.027115,7.7201e-07,0.21,0.76,0
0.011607,-0.0031944,0.03421,0.0039372,0.011444,7.0244e-05,0,0,0.059191,-0.019518,0,0.00036527,0,0,0,0.03421,0.003937,0.011444,0.13295,0.01653,0.027304,7.8517e-07,0.22,0.76,0
0.0122,-0.0032864,0.034339,0.0039518,0.011487,0.00013968,0,0,0.059415,-0.019592,0,0.00072633,0,0,0,0.03434,0.0039512,0.011487,0.26336,0.016593,0.027409,7.942e-07,0.23,0.76,0
0.012795,-0.003382,0.034443,0.0040801,0.011557,0.00014119,0,0,0.059503,-0.019439,0,0.00073421,0,0,0,0.034443,0.0040795,0.011557,0.26643,0.016693,0.027401,7.9736e-07,0.24,0.76,0
0.01339,-0.0034838,0.034491,0.0043478,0.011652,6.3323e-05,0,0,0.059383,-0.01899,0,0.00032928,0,0,0,0.034491,0.0043477,0.011652,0.12036,0.01683,0.027236,7.9157e-07,0.25,0.76,0
0.013983,-0.0035941,0.034435,0.0048012,0.011771,-7.6077e-05,0,0,0.058926,-0.018121,0,-0.0003956,0,0,0,0.034435,0.004801,0.011771,-0.14709,0.017002,0.026837,7.7152e-07,0.26,0.76,0
0.014569,-0.0037119,0.034323,0.0055519,0.011962,-0.00019416,0,0,0.058137,-0.016667,0,-0.0010096,0,0,0,0.034324,0.0055506,0.011962,-0.38664,0.017279,0.026164,7.3695e-07,0.27,0.76,0
0.015146,-0.003832,0.034188,0.0022602,0.010934,-0.00010331,0,0,0.04465,-0.015036,0,-0.00052277,0,0,0,0.034189,0.0022595,0.010934,-0.20912,0.015794,0.028651,8.2457e-07,0.28,0.76,0
0.015462,-0.0039422,0.034152,-0.001269,0.009865,0.00018223,0,0,0.031573,-0.014474,0,0.00047379,0,0,0,0.034153,-0.0012699,0.009865,0.29475,0.01425,0.031374,9.3904e-07,0.29,0.76,0
0.015777,-0.0040453,0.034123,-0.0013226,0.0098402,0.00042874,0,0,0.031568,-0.014512,0,0.0011147,0,0,0,0.034129,-0.0013278,0.0098402,0.6929,0.014214,0.031399,9.3854e-07,0.3,0.76,0
0.016093,-0.0041455,0.034155,-0.0015005,0.0097965,0.0004271,0,0,0.031667,-0.014686,0,0.0011105,0,0,0,0.034161,-0.0015056,0.0097965,0.68618,0.01415,0.031571,9.4575e-07,0.31,0.76,0
0.01641,-0.0042469,0.034221,-0.0014987,0.0098168,0.00032838,0,0,0.031726,-0.01471,0,0.00085378,0,0,0,0.034224,-0.0015017,0.0098168,0.52666,0.01418,0.031624,9.5089e-07,0.32,0.76,0
0.016728,-0.0043516,0.034225,-0.0014515,0.0098322,0.00022068,0,0,0.031711,-0.014669,0,0.00057376,0,0,0,0.034227,-0.0014529,0.0098322,0.35438,0.014202,0.031587,9.4983e-07,0.33,0.76,0
0.017045,-0.0044597,0.034219,-0.0013768,0.0098528,0.00012879,0,0,0.031677,-0.014599,0,0.00033487,0,0,0,0.03422,-0.0013773,0.0098528,0.2073,0.014232,0.03152,9.473e-07,0.34,0.76,0
0.017361,-0.0045709,0.034221,-0.001274,0.0098842,5.1561e-05,0,0,0.031638,-0.014506,0,0.00013406,0,0,0,0.034222,-0.0012741,0.0098842,0.083228,0.014277,0.031438,9.4472e-07,0.35,0.76,0
0.017677,-0.004685,0.034233,-0.0011482,0.0099253,-1.1974e-05,0,0,0.0316,-0.014396,0,-3.1132e-05,0,0,0,0.034233,-0.0011482,0.0099253,-0.019391,0.014337,0.031347,9.4231e-07,0.36,0.76,0
0.017993,-0.0048017,0.034253,-0.0010077,0.0099735,-6.3523e-05,0,0,0.031563,-0.014276,0,-0.00016516,0,0,0,0.034253,-0.0010078,0.0099735,-0.10322,0.014406,0.031252,9.4022e-07,0.37,0.76,0
0.018309,-0.0049205,0.034282,-0.0008595,0.010027,-0.00010589,0,0,0.031532,-0.014152,0,-0.0002753,0,0,0,0.034282,-0.00085982,0.010027,-0.17264,0.014483,0.031159,9.3863e-07,0.38,0.76,0
0.018624,-0.0050412,0.03432,-0.00070855,0.010083,-0.00014219,0,0,0.031507,-0.01403,0,-0.0003697,0,0,0,0.03432,-0.00070913,0.010083,-0.23258,0.014565,0.031072,9.3762e-07,0.39,0.76,0
0.018939,-0.0051634,0.034365,-0.00055754,0.010142,-0.00017491,0,0,0.03149,-0.01391,0,-0.00045477,0,0,0,0.034366,-0.00055842,0.010142,-0.28696,0.01465,0.030992,9.3716e-07,0.4,0.76,0
0.019254,-0.0052868,0.034416,-0.00040785,0.010202,-0.00020535,0,0,0.031478,-0.013794,0,-0.0005339,0,0,0,0.034417,-0.00040907,0.010202,-0.33784,0.014737,0.030918,9.3717e-07,0.41,0.76,0
0.019568,-0.0054111,0.034471,-0.00026041,0.010263,-0.00023358,0,0,0.03147,-0.013681,0,-0.0006073,0,0,0,0.034473,-0.00026198,0.010263,-0.3853,0.014825,0.03085,9.3751e-07,0.42,0.76,0
0.019883,-0.0055361,0.034529,-0.00011624,0.010324,-0.00025871,0,0,0.031467,-0.013572,0,-0.00067265,0,0,0,0.034531,-0.00011817,0.010324,-0.42782,0.014912,0.030786,9.3811e-07,0.43,0.76,0
0.020198,-0.0056615,0.034588,2.3072e-05,0.010383,-0.00027931,0,0,0.031466,-0.013468,0,-0.00072622,0,0,0,0.03459,2.0816e-05,0.010383,-0.46296,0.014998,0.030728,9.3892e-07,0.44,0.76,0
0.020512,-0.005787,0.034648,0.00015539,0.010441,-0.00029384,0,0,0.031469,-0.013371,0,-0.00076398,0,0,0,0.034651,0.00015288,0.010441,-0.48804,0.015082,0.030676,9.3999e-07,0.45,0.76,0
0.020827,-0.0059122,0.03471,0.00027808,0.010497,-0.00030094,0,0,0.031478,-0.013284,0,-0.00078245,0,0,0,0.034713,0.00027545,0.010497,-0.50072,0.015162,0.030634,9.4143e-07,0.46,0.76,0
0.021142,-0.006037,0.034774,0.00038829,0.010549,-0.00029975,0,0,0.031493,-0.013209,0,-0.00077936,0,0,0,0.034777,0.00038567,0.010549,-0.49941,0.015237,0.030603,9.4336e-07,0.47,0.76,0
0.021457,-0.0061608,0.034841,0.00048319,0.010597,-0.00028993,0,0,0.031517,-0.013149,0,-0.00075381,0,0,0,0.034844,0.00048075,0.010597,-0.48343,0.015307,0.030586,9.4594e-07,0.48,0.76,0
0.021772,-0.0062835,0.034912,0.00056024,0.010642,-0.00027167,0,0,0.031551,-0.013106,0,-0.00070634,0,0,0,0.034914,0.0005581,0.010642,-0.45309,0.015371,0.030587,9.4934e-07,0.49,0.76,0
0.022088,-0.0064048,0.034987,0.00061731,0.010681,-0.00024568,0,0,0.031597,-0.013083,0,-0.00063877,0,0,0,0.034988,0.00061555,0.010681,-0.40954,0.015428,0.030608,9.5369e-07,0.5,0.76,0
0.022404,-0.0065243,0.035066,0.00065275,0.010716,-0.00021306,0,0,0.031656,-0.013082,0,-0.00055397,0,0,0,0.035067,0.00065143,0.010716,-0.35472,0.015478,0.030649,9.5909e-07,0.51,0.76,0
0.022721,-0.0066419,0.03515,0.00066546,0.010745,-0.00017529,0,0,0.031727,-0.013103,0,-0.00045575,0,0,0,0.035151,0.00066457,0.010745,-0.29123,0.01552,0.030713,9.656e-07,0.52,0.76,0
0.023039,-0.0067574,0.035238,0.00065489,0.010768,-0.00013411,0,0,0.031812,-0.013147,0,-0.00034869,0,0,0,0.035239,0.00065437,0.010768,-0.22218,0.015554,0.0308,9.7325e-07,0.53,0.76,0
0.023357,-0.0068705,0.035331,0.00062102,0.010785,-9.15e-05,0,0,0.031909,-0.013214,0,-0.0002379,0,0,0,0.035331,0.00062078,0.010785,-0.15104,0.015579,0.030908,9.82e-07,0.54,0.76,0
0.023677,-0.0069811,0.035426,0.00056435,0.010797,-4.9383e-05,0,0,0.032018,-0.013303,0,-0.0001284,0,0,0,0.035426,0.00056428,0.010797,-0.081161,0.015596,0.031038,9.918e-07,0.55,0.76,0
0.023998,-0.0070891,0.035525,0.00048532,0.010803,-9.4126e-06,0,0,0.032138,-0.013413,0,-2.4473e-05,0,0,0,0.035525,0.00048532,0.010803,-0.015391,0.015604,0.031188,1.0027e-06,0.56,0.76,0
0.02432,-0.0071944,0.035629,0.0003829,0.010804,2.6654e-05,0,0,0.032273,-0.013547,0,6.93e-05,0,0,0,0.035629,0.00038288,0.010804,0.043328,0.015605,0.031362,1.0148e-06,0.57,0.76,0
0.024643,-0.0072967,0.035738,0.00025081,0.010797,5.5297e-05,0,0,0.032424,-0.01371,0,0.00014377,0,0,0,0.035738,0.00025073,0.010797,0.089279,0.015595,0.031565,1.0284e-06,0.58,0.76,0
0.024968,-0.007396,0.035834,7.729e-05,0.010773,6.97e-05,0,0,0.032579,-0.013905,0,0.00018122,0,0,0,0.035834,7.7154e-05,0.010773,0.11169,0.015562,0.031788,1.0422e-06,0.59,0.76,0
0.025295,-0.0074919,0.035866,-0.00012452,0.010722,8.9089e-05,0,0,0.032686,-0.014101,0,0.00023163,0,0,0,0.035866,-0.00012474,0.010722,0.14183,0.015488,0.031978,1.0512e-06,0.6,0.76,0
0.025622,-0.0075824,0.035943,-0.00022025,0.010717,0.00019748,0,0,0.032794,-0.014218,0,0.00051344,0,0,0,0.035944,-0.00022133,0.010717,0.31286,0.01548,0.032125,1.0611e-06,0.61,0.76,0
0.025951,-0.0076636,0.036087,-0.00056935,0.010655,0.00053054,0,0,0.033061,-0.014592,0,0.0013794,0,0,0,0.036095,-0.00057703,0.010655,0.82903,0.015391,0.032543,1.0855e-06,0.62,0.76,0
0.026283,-0.0077321,0.036216,0.0025861,0.011641,0.00085014,0,0,0.04727,-0.015695,0,0.0035583,0,0,0,0.03624,0.0025622,0.011641,1.5062,0.016814,0.030239,9.7491e-07,0.63,0.76,0
0.026896,-0.0077639,0.036478,0.0055988,0.012623,0.000954,0,0,0.062023,-0.018263,0,0.0049608,0,0,0,0.036507,0.0055694,0.012623,1.7679,0.018233,0.028084,9.0022e-07,0.64,0.76,0
0.027524,-0.0077891,0.036678,0.0043643,0.012313,0.00080032,0,0,0.063349,-0.020665,0,0.0041617,0,0,0,0.036697,0.0043445,0.012313,1.4179,0.017785,0.029196,9.6447e-07,0.65,0.76,0
0.028163,-0.0078157,0.036801,0.0034372,0.012072,0.00058192,0,0,0.064297,-0.022449,0,0.003026,0,0,0,0.036811,0.0034271,0.012072,0.99893,0.017437,0.030011,1.0097e-06,0.66,0.76,0
0.028809,-0.0078467,0.036796,0.0026898,0.011846,0.00039674,0,0,0.06487,-0.023805,0,0.0020631,0,0,0,0.0368,0.0026852,0.011846,0.66639,0.01711,0.030582,1.0368e-06,0.67,0.76,0
0.02946,-0.0078811,0.036723,0.0020738,0.011639,0.0002689,0,0,0.065218,-0.024869,0,0.0013983,0,0,0,0.036725,0.0020717,0.011639,0.44462,0.016812,0.030997,1.0528e-06,0.68,0.76,0
0.030114,-0.007918,0.036616,0.0015631,0.011454,0.00018951,0,0,0.065421,-0.025715,0,0.00098546,0,0,0,0.036617,0.0015621,0.011454,0.30976,0.016544,0.031304,1.0614e-06,0.69,0.76,0
0.030769,-0.0079559,0.036489,0.0011374,0.011288,0.00014619,0,0,0.065523,-0.026391,0,0.00076017,0,0,0,0.03649,0.0011368,0.011288,0.23692,0.016305,0.031528,1.065e-06,0.7,0.76,0
0.031424,-0.007994,0.036351,0.00078103,0.01114,0.0001282,0,0,0.06555,-0.026933,0,0.00066662,0,0,0,0.036352,0.00078056,0.01114,0.20649,0.016091,0.031688,1.0649e-06,0.71,0.76,0
0.03208,-0.0080316,0.036208,0.00048136,0.011007,0.00012727,0,0,0.065523,-0.027366,0,0.00066178,0,0,0,0.036208,0.00048091,0.011007,0.2041,0.015899,0.031799,1.0621e-06,0.72,0.76,0
0.032735,-0.0080681,0.036063,0.00022843,0.010887,0.0001373,0,0,0.065456,-0.027713,0,0.00071394,0,0,0,0.036063,0.00022791,0.010887,0.21952,0.015726,0.031872,1.0575e-06,0.73,0.76,0
0.033389,-0.008103,0.035919,1.4236e-05,0.01078,0.00015389,0,0,0.065361,-0.027991,0,0.0008002,0,0,0,0.03592,1.3576e-05,0.01078,0.24556,0.015571,0.031915,1.0516e-06,0.74,0.76,0
0.034042,-0.0081362,0.035778,-0.00016766,0.010683,0.00017388,0,0,0.065247,-0.028212,0,0.00090419,0,0,0,0.035779,-0.0001685,0.010683,0.27715,0.015431,0.031936,1.045e-06,0.75,0.76,0
0.034694,-0.0081676,0.035642,-0.00032245,0.010596,0.00019506,0,0,0.065119,-0.028387,0,0.0010143,0,0,0,0.035643,-0.0003235,0.010596,0.31074,0.015305,0.031939,1.0378e-06,0.76,0.76,0
0.035344,-0.0081969,0.035511,-0.00045436,0.010517,0.00021583,0,0,0.064984,-0.028525,0,0.0011223,0,0,0,0.035512,-0.00045565,0.010517,0.34383,0.015191,0.031928,1.0305e-06,0.77,0.76,0
0.035993,-0.0082242,0.035386,-0.00056686,0.010446,0.00023512,0,0,0.064845,-0.028633,0,0.0012226,0,0,0,0.035388,-0.00056839,0.010446,0.37468,0.015088,0.031908,1.0231e-06,0.78,0.76,0
0.036641,-0.0082494,0.035268,-0.00066281,0.010382,0.00025217,0,0,0.064704,-0.028715,0,0.0013113,0,0,0,0.03527,-0.00066458,0.010382,0.4021,0.014995,0.03188,1.0157e-06,0.79,0.76,0
0.037288,-0.0082727,0.035156,-0.00074461,0.010323,0.00026649,0,0,0.064564,-0.028777,0,0.0013858,0,0,0,0.035158,-0.00074659,0.010323,0.42528,0.014911,0.031847,1.0085e-06,0.8,0.76,0
0.037933,-0.008294,0.03505,-0.00081426,0.010271,0.00027777,0,0,0.064427,-0.028821,0,0.0014444,0,0,0,0.035053,-0.00081641,0.010271,0.44372,0.014836,0.031809,1.0015e-06,0.81,0.76,0
0.038576,-0.0083135,0.034952,-0.00087346,0.010223,0.00028584,0,0,0.064293,-0.028852,0,0.0014864,0,0,0,0.034954,-0.00087574,0.010223,0.45711,0.014767,0.031769,9.9486e-07,0.82,0.76,0
0.039218,-0.0083311,0.034859,-0.00092366,0.010181,0.00029064,0,0,0.064164,-0.028871,0,0.0015113,0,0,0,0.034862,-0.00092602,0.010181,0.46532,0.014705,0.031727,9.8847e-07,0.83,0.76,0
0.039859,-0.0083471,0.034773,-0.0009661,0.010142,0.00029216,0,0,0.064041,-0.028882,0,0.0015192,0,0,0,0.034776,-0.00096849,0.010142,0.46834,0.01465,0.031685,9.8242e-07,0.84,0.76,0
0.040499,-0.0083615,0.034693,-0.0010019,0.010108,0.00029049,0,0,0.063923,-0.028884,0,0.0015106,0,0,0,0.034696,-0.0010042,0.010108,0.46624,0.0146,0.031643,9.7671e-07,0.85,0.76,0
0.041138,-0.0083744,0.03462,-0.0010319,0.010076,0.00028574,0,0,0.063812,-0.028881,0,0.0014858,0,0,0,0.034622,-0.0010342,0.010076,0.45917,0.014555,0.031601,9.7136e-07,0.86,0.76,0
0.041776,-0.0083859,0.034552,-0.001057,0.010048,0.00027803,0,0,0.063708,-0.028874,0,0.0014458,0,0,0,0.034554,-0.0010591,0.010048,0.44733,0.014514,0.031561,9.6637e-07,0.87,0.76,0
0.042412,-0.0083961,0.034489,-0.0010778,0.010023,0.00026756,0,0,0.063611,-0.028863,0,0.0013913,0,0,0,0.034491,-0.0010798,0.010023,0.43098,0.014478,0.031522,9.6176e-07,0.88,0.76,0
0.043048,-0.0084052,0.034433,-0.001095,0.010001,0.00025449,0,0,0.063521,-0.02885,0,0.0013233,0,0,0,0.034434,-0.0010969,0.010001,0.41039,0.014446,0.031485,9.5751e-07,0.89,0.76,0
0.043682,-0.0084131,0.034381,-0.0011092,0.0099816,0.00023903,0,0,0.063439,-0.028836,0,0.0012429,0,0,0,0.034383,-0.0011108,0.0099816,0.38586,0.014418,0.03145,9.5364e-07,0.9,0.76,0
0.044317,-0.00842,0.034335,-0.0011207,0.0099644,0.00022138,0,0,0.063365,-0.028821,0,0.0011512,0,0,0,0.034337,-0.0011221,0.0099644,0.35772,0.014393,0.031419,9.5014e-07,0.91,0.76,0
0.04495,-0.0084259,0.034294,-0.0011301,0.0099493,0.00020176,0,0,0.063298,-0.028806,0,0.0010491,0,0,0,0.034296,-0.0011312,0.0099493,0.32631,0.014371,0.031389,9.4702e-07,0.92,0.76,0
0.045582,-0.008431,0.034259,-0.0011375,0.0099364,0.00018038,0,0,0.063238,-0.028792,0,0.00093797,0,0,0,0.03426,-0.0011385,0.0099364,0.29197,0.014353,0.031363,9.4426e-07,0.93,0.76,0
0.046215,-0.0084353,0.034228,-0.0011435,0.0099254,0.00015746,0,0,0.063187,-0.028779,0,0.00081881,0,0,0,0.034229,-0.0011442,0.0099254,0.25506,0.014337,0.03134,9.4188e-07,0.94,0.76,0
0.046846,-0.0084388,0.034202,-0.0011481,0.0099162,0.00013323,0,0,0.063143,-0.028767,0,0.0006928,0,0,0,0.034203,-0.0011486,0.0099162,0.21594,0.014323,0.031321,9.3987e-07,0.95,0.76,0
0.047477,-0.0084416,0.034181,-0.0011516,0.0099088,0.0001079,0,0,0.063108,-0.028757,0,0.00056108,0,0,0,0.034181,-0.0011519,0.0099088,0.17497,0.014313,0.031304,9.3822e-07,0.96,0.76,0
0.048108,-0.0084438,0.034165,-0.0011541,0.0099031,8.1692e-05,0,0,0.06308,-0.028749,0,0.0004248,0,0,0,0.034165,-0.0011543,0.0099031,0.13252,0.014305,0.031292,9.3694e-07,0.97,0.76,0
0.048739,-0.0084453,0.034153,-0.0011558,0.0098991,5.4826e-05,0,0,0.06306,-0.028743,0,0.0002851,0,0,0,0.034153,-0.0011559,0.0098991,0.088966,0.014299,0.031282,9.3603e-07,0.98,0.76,0
0.04937,-0.0084462,0.034146,-0.0011568,0.0098967,2.7522e-05,0,0,0.063048,-0.028739,0,0.00014312,0,0,0,0.034146,-0.0011569,0.0098967,0.044668,0.014295,0.031277,9.3548e-07,0.99,0.76,0
0.05,-0.0084465,0.034144,-0.0011572,0.009896,-5.7306e-06,0,0,0.063044,-0.028738,0,-2.9799e-05,0,0,0,0.034144,-0.0011572,0.009896,-0.0093012,0.014294,0.031275,9.353e-07,1,0.76,0
0,0,0.030481,0.013063,0.013063,-0.0039266,0,0,0.045285,0,0,-0.020418,0,0,0,0.031325,0.012219,0.013063,-12.135,0.018869,0.018698,3.3345e-07,0,0.77,0
0.00045285,-0.00020418,0.030429,0.012436,0.012859,-0.0039139,0,0,0.04568,-0.0011011,0,-0.020352,0,0,0,0.031243,0.011621,0.012859,-11.756,0.018575,0.019033,3.4907e-07,0.01,0.77,0
0.0009136,-0.00040802,0.030641,0.011915,0.012767,-0.0038801,0,0,0.046474,-0.0022151,0,-0.020177,0,0,0,0.031413,0.011143,0.012767,-11.255,0.018441,0.019509,3.7248e-07,0.02,0.77,0
0.0013823,-0.00061051,0.030855,0.011388,0.012673,-0.0038197,0,0,0.047274,-0.0033404,0,-0.019862,0,0,0,0.031578,0.010666,0.012673,-10.713,0.018305,0.019984,3.96e-07,0.03,0.77,0
0.0018591,-0.00081072,0.03107,0.010857,0.012578,-0.0037335,0,0,0.048078,-0.0044741,0,-0.019414,0,0,0,0.031737,0.01019,0.012578,-10.138,0.018168,0.020458,4.1962e-07,0.04,0.77,0
0.0023439,-0.0010077,0.031284,0.010324,0.012482,-0.0036225,0,0,0.048884,-0.0056116,0,-0.018837,0,0,0,0.031892,0.0097156,0.012482,-9.5343,0.01803,0.020931,4.4334e-07,0.05,0.77,0
0.0028367,-0.0012007,0.031497,0.009791,0.012386,-0.0034879,0,0,0.049687,-0.0067479,0,-0.018137,0,0,0,0.032044,0.0092443,0.012386,-8.9082,0.017891,0.021402,4.671e-07,0.06,0.77,0
0.0033376,-0.0013889,0.031708,0.0092608,0.012291,-0.003331,0,0,0.050485,-0.0078776,0,-0.017321,0,0,0,0.032192,0.0087769,0.012291,-8.2651,0.017753,0.021871,4.9088e-07,0.07,0.77,0
0.0038464,-0.0015714,0.031917,0.0087363,0.012196,-0.0031534,0,0,0.051274,-0.0089949,0,-0.016398,0,0,0,0.032338,0.0083149,0.012196,-7.6103,0.017616,0.022337,5.1463e-07,0.08,0.77,0
0.0043631,-0.0017477,0.032122,0.0082201,0.012103,-0.0029572,0,0,0.05205,-0.010095,0,-0.015377,0,0,0,0.032482,0.0078597,0.012103,-6.9492,0.017482,0.022799,5.3832e-07,0.09,0.77,0
0.0048875,-0.0019173,0.032324,0.0077151,0.012012,-0.0027445,0,0,0.052812,-0.011171,0,-0.014272,0,0,0,0.032627,0.0074128,0.012012,-6.287,0.01735,0.023258,5.6193e-07,0.1,0.77,0
0.0054193,-0.0020796,0.032523,0.0072239,0.011924,-0.002518,0,0,0.053557,-0.01222,0,-0.013093,0,0,0,0.032771,0.0069757,0.011924,-5.629,0.017223,0.023711,5.8544e-07,0.11,0.77,0
0.0059586,-0.0022343,0.032718,0.0067492,0.01184,-0.0022803,0,0,0.054282,-0.013237,0,-0.011857,0,0,0,0.032917,0.0065505,0.01184,-4.9802,0.017102,0.02416,6.0885e-07,0.12,0.77,0
0.006505,-0.0023811,0.03291,0.0062937,0.011761,-0.0020344,0,0,0.054987,-0.014215,0,-0.010579,0,0,0,0.033065,0.0061391,0.011761,-4.3457,0.016988,0.024601,6.3214e-07,0.13,0.77,0
0.0070583,-0.0025201,0.0331,0.0058606,0.011688,-0.0017835,0,0,0.05567,-0.015152,0,-0.0092742,0,0,0,0.033216,0.0057443,0.011688,-3.7302,0.016883,0.025035,6.5527e-07,0.14,0.77,0
0.0076184,-0.0026513,0.033287,0.0054532,0.011622,-0.001531,0,0,0.056329,-0.016039,0,-0.007961,0,0,0,0.033371,0.0053692,0.011622,-3.1388,0.016788,0.025458,6.7819e-07,0.15,0.77,0
0.0081849,-0.0027749,0.033473,0.0050756,0.011565,-0.0012803,0,0,0.056962,-0.016871,0,-0.0066576,0,0,0,0.033531,0.005018,0.011565,-2.5762,0.016704,0.025868,7.0077e-07,0.16,0.77,0
0.0087576,-0.0028913,0.033657,0.0047327,0.011517,-0.0010353,0,0,0.057564,-0.017639,0,-0.0053838,0,0,0,0.033694,0.0046957,0.011517,-2.0474,0.016635,0.02626,7.2283e-07,0.17,0.77,0
0.0093362,-0.0030011,0.033838,0.0044309,0.011481,-0.00080022,0,0,0.058129,-0.018329,0,-0.0041611,0,0,0,0.03386,0.0044091,0.011481,-1.5576,0.016583,0.026628,7.4409e-07,0.18,0.77,0
0.0099202,-0.0031049,0.034015,0.0041776,0.011458,-0.0005796,0,0,0.058648,-0.018928,0,-0.0030139,0,0,0,0.034026,0.0041664,0.011458,-1.1124,0.01655,0.026964,7.6411e-07,0.19,0.77,0
0.010509,-0.0032038,0.034184,0.0039829,0.01145,-0.00037892,0,0,0.059108,-0.019415,0,-0.0019704,0,0,0,0.034189,0.0039782,0.01145,-0.71871,0.016539,0.027254,7.8225e-07,0.2,0.77,0
0.011102,-0.003299,0.034341,0.0038589,0.01146,-0.00020473,0,0,0.059492,-0.019763,0,-0.0010646,0,0,0,0.034343,0.0038575,0.01146,-0.38479,0.016553,0.027484,7.9761e-07,0.21,0.77,0
0.011699,-0.0033917,0.034479,0.0038209,0.01149,-6.4987e-05,0,0,0.059771,-0.019939,0,-0.00033793,0,0,0,0.034479,0.0038208,0.01149,-0.12145,0.016597,0.027634,8.0893e-07,0.22,0.77,0
0.012298,-0.0034838,0.034585,0.0038875,0.011542,3.0979e-05,0,0,0.059912,-0.019901,0,0.00016109,0,0,0,0.034585,0.0038874,0.011542,0.057821,0.016671,0.027676,8.1451e-07,0.23,0.77,0
0.012897,-0.003577,0.034642,0.0040802,0.011617,7.4333e-05,0,0,0.059867,-0.019595,0,0.00038653,0,0,0,0.034642,0.00408,0.011617,0.13935,0.01678,0.027578,8.1209e-07,0.24,0.77,0
0.013495,-0.0036732,0.03463,0.0044236,0.011716,6.436e-05,0,0,0.059576,-0.018961,0,0.00033467,0,0,0,0.03463,0.0044235,0.011716,0.12208,0.016923,0.027301,7.9912e-07,0.25,0.77,0
0.014089,-0.0037736,0.034546,0.004944,0.011847,2.1825e-05,0,0,0.059018,-0.017948,0,0.00011349,0,0,0,0.034546,0.004944,0.011847,0.042242,0.017112,0.026825,7.7449e-07,0.26,0.77,0
0.014675,-0.0038779,0.03441,0.0056048,0.012004,-1.777e-06,0,0,0.058254,-0.016639,0,-9.2407e-06,0,0,0,0.03441,0.0056048,0.012004,-0.0035347,0.01734,0.026198,7.4102e-07,0.27,0.77,0
0.015254,-0.0039839,0.034268,0.0020646,0.0109,5.5195e-05,0,0,0.044838,-0.015314,0,0.000173,0,0,0,0.034268,0.0020644,0.0109,0.092368,0.015744,0.028875,8.3656e-07,0.28,0.77,0
0.015572,-0.0040889,0.034202,-0.0015848,0.0097851,0.00022102,0,0,0.031742,-0.014781,0,0.00057464,0,0,0,0.034203,-0.0015862,0.0097851,0.35384,0.014134,0.031674,9.5133e-07,0.29,0.77,0
0.015889,-0.0041908,0.034173,-0.0014004,0.0098317,0.0003495,0,0,0.031643,-0.014602,0,0.0009087,0,0,0,0.034176,-0.0014039,0.0098317,0.56285,0.014201,0.031503,9.4439e-07,0.3,0.77,0
0.016205,-0.0042916,0.034209,-0.0013897,0.0098459,0.0003706,0,0,0.031672,-0.014606,0,0.00096357,0,0,0,0.034213,-0.0013935,0.0098459,0.59639,0.014222,0.031527,9.4716e-07,0.31,0.77,0
0.016522,-0.0043936,0.034265,-0.0013974,0.0098601,0.00030556,0,0,0.031726,-0.014635,0,0.00079446,0,0,0,0.034267,-0.0014,0.0098601,0.49088,0.014242,0.03158,9.5176e-07,0.32,0.77,0
0.01684,-0.0044981,0.03431,-0.001363,0.0098841,0.00021338,0,0,0.031754,-0.014621,0,0.00055479,0,0,0,0.034311,-0.0013643,0.0098841,0.3427,0.014277,0.031591,9.5447e-07,0.33,0.77,0
0.017157,-0.0046056,0.034333,-0.0012981,0.0099104,0.00012347,0,0,0.031749,-0.014571,0,0.00032103,0,0,0,0.034333,-0.0012985,0.0099104,0.19854,0.014315,0.031557,9.5455e-07,0.34,0.77,0
0.017475,-0.0047159,0.034345,-0.001206,0.0099416,4.4482e-05,0,0,0.031724,-0.014492,0,0.00011565,0,0,0,0.034345,-0.001206,0.0099416,0.071691,0.01436,0.031493,9.5304e-07,0.35,0.77,0
0.017792,-0.004829,0.034353,-0.0010912,0.0099786,-2.3304e-05,0,0,0.031687,-0.014391,0,-6.0591e-05,0,0,0,0.034353,-0.0010912,0.0099786,-0.037671,0.014413,0.031408,9.5067e-07,0.36,0.77,0
0.018108,-0.0049445,0.034363,-0.00096,0.010021,-8.1166e-05,0,0,0.031644,-0.014275,0,-0.00021103,0,0,0,0.034363,-0.00096019,0.010021,-0.13166,0.014474,0.031312,9.4793e-07,0.37,0.77,0
0.018425,-0.0050621,0.034376,-0.00081854,0.010067,-0.00013093,0,0,0.031601,-0.014151,0,-0.00034041,0,0,0,0.034376,-0.00081903,0.010067,-0.21315,0.014541,0.03121,9.4518e-07,0.38,0.77,0
0.01874,-0.0051815,0.034394,-0.00067183,0.010117,-0.00017451,0,0,0.03156,-0.014025,0,-0.00045372,0,0,0,0.034395,-0.0006727,0.010117,-0.28513,0.014613,0.031109,9.4267e-07,0.39,0.77,0
0.019056,-0.0053024,0.034418,-0.0005235,0.010168,-0.00021347,0,0,0.031524,-0.013899,0,-0.00055502,0,0,0,0.034419,-0.0005248,0.010168,-0.35003,0.014687,0.031012,9.4053e-07,0.4,0.77,0
0.019371,-0.0054246,0.034446,-0.00037603,0.010221,-0.00024872,0,0,0.031493,-0.013776,0,-0.00064666,0,0,0,0.034448,-0.00037781,0.010221,-0.4092,0.014764,0.030921,9.388e-07,0.41,0.77,0
0.019686,-0.0055478,0.03448,-0.00023134,0.010275,-0.00028038,0,0,0.031467,-0.013658,0,-0.000729,0,0,0,0.034482,-0.00023361,0.010275,-0.46277,0.014841,0.030835,9.3748e-07,0.42,0.77,0
0.02,-0.0056717,0.034517,-9.1139e-05,0.010328,-0.00030796,0,0,0.031446,-0.013545,0,-0.00080071,0,0,0,0.03452,-9.3879e-05,0.010328,-0.50979,0.014918,0.030757,9.3655e-07,0.43,0.77,0
0.020315,-0.005796,0.034558,4.2754e-05,0.01038,-0.00033055,0,0,0.031431,-0.013439,0,-0.00085942,0,0,0,0.034561,3.9589e-05,0.01038,-0.54864,0.014994,0.030687,9.3602e-07,0.44,0.77,0
0.020629,-0.0059205,0.034602,0.00016826,0.010431,-0.00034707,0,0,0.031422,-0.013342,0,-0.00090239,0,0,0,0.034605,0.00016476,0.010431,-0.57743,0.015067,0.030627,9.3594e-07,0.45,0.77,0
0.020943,-0.0060449,0.034649,0.0002831,0.01048,-0.0003566,0,0,0.03142,-0.013255,0,-0.00092716,0,0,0,0.034653,0.00027939,0.01048,-0.59445,0.015137,0.030577,9.3639e-07,0.46,0.77,0
0.021257,-0.0061689,0.0347,0.00038487,0.010525,-0.00035846,0,0,0.031427,-0.013183,0,-0.000932,0,0,0,0.034703,0.00038112,0.010525,-0.59844,0.015203,0.030541,9.3748e-07,0.47,0.77,0
0.021572,-0.0062922,0.034754,0.00047127,0.010568,-0.00035236,0,0,0.031442,-0.013125,0,-0.00091615,0,0,0,0.034758,0.00046765,0.010568,-0.58881,0.015264,0.03052,9.393e-07,0.48,0.77,0
0.021886,-0.0064145,0.034813,0.0005402,0.010606,-0.0003384,0,0,0.031469,-0.013085,0,-0.00087985,0,0,0,0.034816,0.00053686,0.010606,-0.56566,0.01532,0.030517,9.4198e-07,0.49,0.77,0
0.022201,-0.0065355,0.034876,0.00058993,0.01064,-0.00031706,0,0,0.031507,-0.013065,0,-0.00082437,0,0,0,0.034879,0.000587,0.01064,-0.52978,0.015369,0.030533,9.4559e-07,0.5,0.77,0
0.022516,-0.0066551,0.034944,0.00061917,0.010669,-0.00028916,0,0,0.031558,-0.013065,0,-0.00075181,0,0,0,0.034946,0.00061673,0.010669,-0.48262,0.015411,0.030569,9.502e-07,0.51,0.77,0
0.022832,-0.0067729,0.035016,0.00062708,0.010693,-0.00025579,0,0,0.03162,-0.013086,0,-0.00066505,0,0,0,0.035018,0.00062518,0.010693,-0.42614,0.015445,0.030626,9.5582e-07,0.52,0.77,0
0.023149,-0.0068887,0.035091,0.00061334,0.010711,-0.0002183,0,0,0.031694,-0.013127,0,-0.00056757,0,0,0,0.035093,0.00061196,0.010711,-0.36275,0.015472,0.030703,9.624e-07,0.53,0.77,0
0.023466,-0.0070025,0.035168,0.00057805,0.010724,-0.0001782,0,0,0.031778,-0.01319,0,-0.00046332,0,0,0,0.035169,0.00057713,0.010724,-0.29516,0.01549,0.030799,9.6985e-07,0.54,0.77,0
0.023784,-0.007114,0.035246,0.00052154,0.01073,-0.00013715,0,0,0.03187,-0.013271,0,-0.0003566,0,0,0,0.035246,0.000521,0.01073,-0.2263,0.015499,0.030912,9.7803e-07,0.55,0.77,0
0.024103,-0.007223,0.035321,0.00044378,0.010729,-9.7065e-05,0,0,0.031969,-0.013371,0,-0.00025237,0,0,0,0.035322,0.00044351,0.010729,-0.15946,0.015498,0.031041,9.8675e-07,0.56,0.77,0
0.024424,-0.0073295,0.035392,0.0003433,0.010721,-6.0325e-05,0,0,0.032072,-0.01349,0,-0.00015684,0,0,0,0.035392,0.0003432,0.010721,-0.098616,0.015485,0.031183,9.9579e-07,0.57,0.77,0
0.024745,-0.0074334,0.03545,0.00021621,0.0107,-2.9396e-05,0,0,0.032175,-0.013629,0,-7.6429e-05,0,0,0,0.03545,0.00021619,0.0107,-0.047802,0.015455,0.031336,1.0047e-06,0.58,0.77,0
0.025067,-0.0075343,0.035487,5.864e-05,0.010664,1.4329e-07,0,0,0.03227,-0.013787,0,3.7256e-07,0,0,0,0.035487,5.864e-05,0.010664,0.00023174,0.015403,0.031495,1.0127e-06,0.59,0.77,0
0.02539,-0.0076319,0.035518,-0.00012383,0.010618,5.2263e-05,0,0,0.03237,-0.013965,0,0.00013588,0,0,0,0.035518,-0.0001239,0.010618,0.084014,0.015338,0.031669,1.021e-06,0.6,0.77,0
0.025715,-0.0077247,0.035576,-0.00040407,0.010552,0.00017729,0,0,0.032532,-0.014242,0,0.00046095,0,0,0,0.035577,-0.00040494,0.010552,0.28231,0.015241,0.031945,1.0346e-06,0.61,0.77,0
0.026041,-0.0078109,0.035705,-0.00095036,0.010426,0.00037679,0,0,0.032862,-0.01479,0,0.00097966,0,0,0,0.035709,-0.00095423,0.010426,0.58887,0.01506,0.032503,1.0625e-06,0.62,0.77,0
0.026372,-0.0078895,0.03586,0.0023756,0.011471,0.00057823,0,0,0.04687,-0.015765,0,0.0024073,0,0,0,0.035872,0.0023646,0.011471,1.0287,0.016569,0.030066,9.5163e-07,0.63,0.77,0
0.026978,-0.0079439,0.036116,0.0056548,0.012531,0.00066073,0,0,0.06132,-0.017879,0,0.0034358,0,0,0,0.03613,0.0056404,0.012531,1.242,0.018101,0.027695,8.6752e-07,0.64,0.77,0
0.027598,-0.0079916,0.036341,0.0045653,0.012272,0.00062553,0,0,0.06258,-0.020037,0,0.0032528,0,0,0,0.036353,0.004553,0.012272,1.1273,0.017726,0.02873,9.2796e-07,0.65,0.77,0
0.02823,-0.0080371,0.036501,0.003601,0.012031,0.00052461,0,0,0.063623,-0.021917,0,0.002728,0,0,0,0.036509,0.0035927,0.012031,0.91332,0.017378,0.029613,9.7773e-07,0.66,0.77,0
0.028871,-0.0080826,0.036574,0.0028036,0.011813,0.00042157,0,0,0.064378,-0.023425,0,0.0021922,0,0,0,0.03658,0.0027984,0.011813,0.7151,0.017064,0.030297,1.0135e-06,0.67,0.77,0
0.029517,-0.0081285,0.036566,0.0021455,0.011613,0.00034465,0,0,0.064876,-0.024616,0,0.0017922,0,0,0,0.036569,0.002142,0.011613,0.57363,0.016775,0.030804,1.0366e-06,0.68,0.77,0
0.030168,-0.0081743,0.0365,0.0016026,0.011431,0.00029748,0,0,0.065181,-0.025553,0,0.0015469,0,0,0,0.036503,0.0016001,0.011431,0.48837,0.016511,0.031173,1.0501e-06,0.69,0.77,0
0.030821,-0.0082193,0.036398,0.001154,0.011266,0.00027408,0,0,0.065345,-0.02629,0,0.0014252,0,0,0,0.036401,0.0011519,0.011266,0.44554,0.016273,0.031436,1.0566e-06,0.7,0.77,0
0.031475,-0.0082631,0.036274,0.0007821,0.011117,0.00026749,0,0,0.065408,-0.02687,0,0.001391,0,0,0,0.036276,0.00078009,0.011117,0.43179,0.016058,0.031621,1.0582e-06,0.71,0.77,0
0.032129,-0.0083051,0.036137,0.0004724,0.010983,0.00027195,0,0,0.0654,-0.027327,0,0.0014141,0,0,0,0.036139,0.00047033,0.010983,0.43686,0.015864,0.031746,1.0563e-06,0.72,0.77,0
0.032783,-0.0083451,0.035993,0.00021346,0.010862,0.00028315,0,0,0.065341,-0.027686,0,0.0014724,0,0,0,0.035995,0.00021122,0.010862,0.45338,0.015689,0.031825,1.052e-06,0.73,0.77,0
0.033436,-0.0083829,0.035848,-3.856e-06,0.010753,0.00029799,0,0,0.065247,-0.027969,0,0.0015495,0,0,0,0.035851,-6.3326e-06,0.010753,0.47617,0.015533,0.03187,1.0462e-06,0.74,0.77,0
0.034088,-0.0084184,0.035705,-0.00018679,0.010656,0.00031426,0,0,0.06513,-0.02819,0,0.0016342,0,0,0,0.035708,-0.00018954,0.010656,0.50161,0.015391,0.03189,1.0394e-06,0.75,0.77,0
0.034739,-0.0084514,0.035566,-0.00034115,0.010568,0.0003304,0,0,0.064996,-0.028362,0,0.0017181,0,0,0,0.035569,-0.00034419,0.010568,0.52715,0.015264,0.03189,1.0321e-06,0.76,0.77,0
0.035388,-0.0084821,0.035432,-0.00047159,0.010488,0.00034533,0,0,0.064854,-0.028495,0,0.0017957,0,0,0,0.035436,-0.00047491,0.010488,0.55101,0.01515,0.031876,1.0244e-06,0.77,0.77,0
0.036036,-0.0085104,0.035304,-0.0005819,0.010417,0.00035826,0,0,0.064707,-0.028596,0,0.001863,0,0,0,0.035308,-0.00058548,0.010417,0.57193,0.015046,0.031851,1.0167e-06,0.78,0.77,0
0.036682,-0.0085365,0.035183,-0.00067519,0.010352,0.0003687,0,0,0.064559,-0.028671,0,0.0019172,0,0,0,0.035186,-0.00067898,0.010352,0.58904,0.014953,0.031818,1.009e-06,0.79,0.77,0
0.037327,-0.0085603,0.035068,-0.00075402,0.010294,0.0003763,0,0,0.064411,-0.028725,0,0.0019568,0,0,0,0.035072,-0.00075797,0.010294,0.60179,0.014869,0.031779,1.0015e-06,0.8,0.77,0
0.03797,-0.008582,0.03496,-0.00082052,0.010242,0.00038086,0,0,0.064267,-0.028762,0,0.0019805,0,0,0,0.034964,-0.00082458,0.010242,0.60979,0.014794,0.031737,9.9425e-07,0.81,0.77,0
0.038612,-0.0086017,0.034859,-0.0008765,0.010195,0.00038229,0,0,0.064127,-0.028785,0,0.0019879,0,0,0,0.034863,-0.00088059,0.010195,0.61285,0.014726,0.031692,9.8729e-07,0.82,0.77,0
0.039253,-0.0086195,0.034764,-0.00092348,0.010152,0.00038057,0,0,0.063991,-0.028797,0,0.001979,0,0,0,0.034768,-0.00092754,0.010152,0.6109,0.014664,0.031646,9.8066e-07,0.83,0.77,0
0.039892,-0.0086356,0.034676,-0.00096276,0.010114,0.00037572,0,0,0.063862,-0.0288,0,0.0019538,0,0,0,0.03468,-0.00096672,0.010114,0.60394,0.014609,0.031599,9.7439e-07,0.84,0.77,0
0.04053,-0.00865,0.034595,-0.00099546,0.01008,0.00036784,0,0,0.063739,-0.028796,0,0.0019128,0,0,0,0.034599,-0.00099926,0.01008,0.59209,0.01456,0.031553,9.6848e-07,0.85,0.77,0
0.041167,-0.0086628,0.03452,-0.0010225,0.010049,0.00035704,0,0,0.063624,-0.028787,0,0.0018566,0,0,0,0.034523,-0.0010261,0.010049,0.57549,0.014516,0.031507,9.6296e-07,0.86,0.77,0
0.041802,-0.0086742,0.034451,-0.0010448,0.010022,0.00034346,0,0,0.063516,-0.028773,0,0.001786,0,0,0,0.034454,-0.0010482,0.010022,0.55434,0.014476,0.031463,9.5783e-07,0.87,0.77,0
0.042437,-0.0086843,0.034388,-0.0010631,0.0099974,0.00032727,0,0,0.063415,-0.028757,0,0.0017018,0,0,0,0.034391,-0.0010661,0.0099974,0.52888,0.014441,0.031421,9.5308e-07,0.88,0.77,0
0.043071,-0.0086932,0.03433,-0.0010779,0.0099757,0.00030865,0,0,0.063322,-0.028739,0,0.001605,0,0,0,0.034333,-0.0010806,0.0099757,0.49939,0.014409,0.031382,9.4872e-07,0.89,0.77,0
0.043704,-0.0087009,0.034278,-0.0010899,0.0099566,0.00028778,0,0,0.063237,-0.028721,0,0.0014965,0,0,0,0.034281,-0.0010922,0.0099566,0.46615,0.014382,0.031345,9.4475e-07,0.9,0.77,0
0.044335,-0.0087077,0.034232,-0.0010994,0.0099398,0.00026486,0,0,0.06316,-0.028702,0,0.0013773,0,0,0,0.034234,-0.0011014,0.0099398,0.42948,0.014357,0.03131,9.4117e-07,0.91,0.77,0
0.044967,-0.0087134,0.034191,-0.0011069,0.0099252,0.00024009,0,0,0.06309,-0.028683,0,0.0012484,0,0,0,0.034192,-0.0011086,0.0099252,0.38969,0.014336,0.031279,9.3798e-07,0.92,0.77,0
0.045597,-0.0087184,0.034155,-0.0011128,0.0099126,0.00021367,0,0,0.06303,-0.028666,0,0.0011111,0,0,0,0.034156,-0.0011141,0.0099126,0.34711,0.014318,0.031252,9.3516e-07,0.93,0.77,0
0.046227,-0.0087225,0.034124,-0.0011173,0.0099019,0.00018581,0,0,0.062977,-0.02865,0,0.00096623,0,0,0,0.034125,-0.0011183,0.0099019,0.30209,0.014303,0.031227,9.3273e-07,0.94,0.77,0
0.046857,-0.0087259,0.034098,-0.0011208,0.0098931,0.00015672,0,0,0.062932,-0.028636,0,0.00081497,0,0,0,0.034098,-0.0011215,0.0098931,0.25496,0.01429,0.031206,9.3068e-07,0.95,0.77,0
0.047486,-0.0087286,0.034077,-0.0011233,0.0098859,0.00012661,0,0,0.062895,-0.028624,0,0.00065837,0,0,0,0.034077,-0.0011238,0.0098859,0.20608,0.01428,0.031189,9.2901e-07,0.96,0.77,0
0.048115,-0.0087306,0.03406,-0.0011251,0.0098805,9.5673e-05,0,0,0.062867,-0.028615,0,0.0004975,0,0,0,0.03406,-0.0011254,0.0098805,0.15579,0.014272,0.031175,9.277e-07,0.97,0.77,0
0.048743,-0.0087321,0.034048,-0.0011263,0.0098766,6.4123e-05,0,0,0.062847,-0.028608,0,0.00033344,0,0,0,0.034049,-0.0011264,0.0098766,0.10445,0.014266,0.031166,9.2678e-07,0.98,0.77,0
0.049372,-0.0087329,0.034041,-0.001127,0.0098743,3.2164e-05,0,0,0.062834,-0.028603,0,0.00016725,0,0,0,0.034041,-0.0011271,0.0098743,0.052401,0.014263,0.03116,9.2622e-07,0.99,0.77,0
0.05,-0.0087332,0.034039,-0.0011272,0.0098735,-5.4765e-06,0,0,0.06283,-0.028602,0,-2.8478e-05,0,0,0,0.034039,-0.0011272,0.0098735,-0.0089228,0.014262,0.031158,9.2603e-07,1,0.77,0
0,0,0.030515,0.013078,0.013078,-0.0041442,0,0,0.045336,1.6263e-19,0,-0.02155,0,0,0,0.031449,0.012143,0.013078,-12.712,0.01889,0.018857,3.4151e-07,0,0.78,0
0.00045336,-0.0002155,0.03046,0.012416,0.012863,-0.0041318,0,0,0.045752,-0.0011611,0,-0.021485,0,0,0,0.031361,0.011515,0.012863,-12.303,0.01858,0.019207,3.5791e-07,0.01,0.78,0
0.00091504,-0.00043076,0.030684,0.011868,0.012766,-0.0040994,0,0,0.046588,-0.0023335,0,-0.021317,0,0,0,0.031539,0.011014,0.012766,-11.772,0.018439,0.019707,3.8264e-07,0.02,0.78,0
0.0013851,-0.00064479,0.03091,0.011315,0.012667,-0.00404,0,0,0.04743,-0.0035162,0,-0.021008,0,0,0,0.03171,0.010515,0.012667,-11.205,0.018297,0.020205,4.0748e-07,0.03,0.78,0
0.0018636,-0.00085661,0.031136,0.010758,0.012568,-0.0039541,0,0,0.048275,-0.0047058,0,-0.020561,0,0,0,0.031876,0.010018,0.012568,-10.605,0.018154,0.020701,4.324e-07,0.04,0.78,0
0.0023506,-0.0010653,0.031361,0.0102,0.012469,-0.0038424,0,0,0.049122,-0.0058976,0,-0.019981,0,0,0,0.032037,0.0095241,0.012469,-9.9795,0.01801,0.021195,4.5737e-07,0.05,0.78,0
0.0028461,-0.0012699,0.031586,0.0096436,0.012369,-0.0037062,0,0,0.049965,-0.0070858,0,-0.019272,0,0,0,0.032195,0.0090345,0.012369,-9.3327,0.017866,0.021687,4.8235e-07,0.06,0.78,0
0.0033499,-0.0014696,0.031809,0.0090914,0.01227,-0.0035467,0,0,0.0508,-0.0082643,0,-0.018443,0,0,0,0.032349,0.0085505,0.01227,-8.6706,0.017723,0.022174,5.0728e-07,0.07,0.78,0
0.0038621,-0.0016635,0.032028,0.0085468,0.012172,-0.003366,0,0,0.051625,-0.0094268,0,-0.017503,0,0,0,0.032501,0.0080738,0.012172,-7.9987,0.017583,0.022658,5.3212e-07,0.08,0.78,0
0.0043824,-0.001851,0.032244,0.0080128,0.012077,-0.0031661,0,0,0.052435,-0.010567,0,-0.016464,0,0,0,0.032651,0.007606,0.012077,-7.3226,0.017445,0.023136,5.5682e-07,0.09,0.78,0
0.0049108,-0.0020315,0.032457,0.0074926,0.011985,-0.0029497,0,0,0.053227,-0.01168,0,-0.015338,0,0,0,0.032801,0.0071488,0.011985,-6.6478,0.017312,0.023608,5.8136e-07,0.1,0.78,0
0.005447,-0.0022045,0.032666,0.0069889,0.011896,-0.0027194,0,0,0.054,-0.01276,0,-0.014141,0,0,0,0.032951,0.006704,0.011896,-5.9797,0.017184,0.024074,6.0573e-07,0.11,0.78,0
0.0059908,-0.0023695,0.032871,0.0065047,0.011813,-0.0024783,0,0,0.054751,-0.013801,0,-0.012887,0,0,0,0.033102,0.0062738,0.011813,-5.3234,0.017063,0.024532,6.2992e-07,0.12,0.78,0
0.006542,-0.0025262,0.033073,0.0060429,0.011735,-0.0022295,0,0,0.055479,-0.014799,0,-0.011593,0,0,0,0.033256,0.0058602,0.011735,-4.6837,0.01695,0.024982,6.5391e-07,0.13,0.78,0
0.0071004,-0.0026747,0.033273,0.0056066,0.011664,-0.0019763,0,0,0.056183,-0.015748,0,-0.010277,0,0,0,0.033413,0.0054662,0.011664,-4.0653,0.016848,0.025421,6.7766e-07,0.14,0.78,0
0.0076657,-0.0028148,0.03347,0.0051995,0.011601,-0.0017218,0,0,0.056859,-0.016643,0,-0.0089534,0,0,0,0.033574,0.005095,0.011601,-3.4725,0.016757,0.025848,7.0111e-07,0.15,0.78,0
0.0082376,-0.0029467,0.033665,0.0048255,0.011547,-0.0014694,0,0,0.057507,-0.017476,0,-0.0076411,0,0,0,0.03374,0.0047509,0.011547,-2.9093,0.016679,0.026259,7.2415e-07,0.16,0.78,0
0.0088158,-0.0030708,0.033858,0.00449,0.011504,-0.0012225,0,0,0.05812,-0.018238,0,-0.0063569,0,0,0,0.033909,0.0044392,0.011504,-2.3795,0.016618,0.026649,7.4656e-07,0.17,0.78,0
0.0094,-0.0031873,0.034048,0.0041991,0.011474,-0.00098426,0,0,0.058692,-0.018915,0,-0.0051182,0,0,0,0.034081,0.0041667,0.011474,-1.8866,0.016574,0.027012,7.6803e-07,0.18,0.78,0
0.0099896,-0.0032971,0.034233,0.003961,0.011458,-0.00075825,0,0,0.059214,-0.019492,0,-0.0039429,0,0,0,0.034252,0.003942,0.011458,-1.434,0.016551,0.027338,7.8806e-07,0.19,0.78,0
0.010584,-0.0034007,0.034408,0.003786,0.011458,-0.00054808,0,0,0.059669,-0.019948,0,-0.00285,0,0,0,0.034418,0.0037762,0.011458,-1.0251,0.016551,0.027614,8.0592e-07,0.2,0.78,0
0.011183,-0.0034991,0.034567,0.003687,0.011476,-0.00035774,0,0,0.060036,-0.020252,0,-0.0018603,0,0,0,0.034571,0.0036829,0.011476,-0.66365,0.016577,0.027823,8.2054e-07,0.21,0.78,0
0.011785,-0.0035932,0.0347,0.0036805,0.011514,-0.00019168,0,0,0.060283,-0.020367,0,-0.00099672,0,0,0,0.034701,0.0036793,0.011514,-0.35403,0.016632,0.027941,8.3043e-07,0.22,0.78,0
0.012389,-0.0036844,0.034792,0.0037862,0.011574,-5.4775e-05,0,0,0.060369,-0.020247,0,-0.00028483,0,0,0,0.034792,0.0037861,0.011574,-0.10122,0.016717,0.027939,8.336e-07,0.23,0.78,0
0.012992,-0.0037739,0.034827,0.0040266,0.011656,4.8603e-05,0,0,0.060245,-0.019837,0,0.00025273,0,0,0,0.034827,0.0040265,0.011656,0.090411,0.016837,0.027783,8.2781e-07,0.24,0.78,0
0.013594,-0.003863,0.034793,0.0044208,0.011764,0.00011723,0,0,0.059875,-0.019093,0,0.00060957,0,0,0,0.034793,0.0044203,0.011764,0.22114,0.016993,0.027448,8.1131e-07,0.25,0.78,0
0.01419,-0.003953,0.034692,0.0049646,0.011897,0.00015744,0,0,0.059267,-0.018024,0,0.00081871,0,0,0,0.034693,0.0049638,0.011897,0.30344,0.017184,0.02694,7.8443e-07,0.26,0.78,0
0.014779,-0.0040447,0.034548,0.0056038,0.012046,0.00018063,0,0,0.058507,-0.016749,0,0.00093928,0,0,0,0.03455,0.0056027,0.012046,0.35754,0.017399,0.026324,7.5099e-07,0.27,0.78,0
0.01536,-0.0041383,0.034394,0.0019612,0.010907,0.00021363,0,0,0.045061,-0.015506,0,0.00083964,0,0,0,0.034396,0.0019597,0.010907,0.38471,0.015754,0.029072,8.4914e-07,0.28,0.78,0
0.01568,-0.0042378,0.034317,-0.0017275,0.0097767,0.00027474,0,0,0.031902,-0.014956,0,0.00071432,0,0,0,0.034319,-0.0017296,0.0097767,0.43669,0.014122,0.031892,9.6455e-07,0.29,0.78,0
0.015998,-0.0043373,0.03428,-0.0014398,0.009852,0.00031442,0,0,0.031756,-0.014679,0,0.00081749,0,0,0,0.034283,-0.0014426,0.009852,0.50429,0.014231,0.031628,9.5415e-07,0.3,0.78,0
0.016315,-0.0044376,0.034302,-0.0013403,0.0098885,0.00030237,0,0,0.031737,-0.014597,0,0.00078615,0,0,0,0.034304,-0.0013429,0.0098885,0.48601,0.014283,0.031567,9.5333e-07,0.31,0.78,0
0.016633,-0.0045396,0.034353,-0.0013107,0.0099127,0.0002519,0,0,0.031773,-0.01459,0,0.00065495,0,0,0,0.034355,-0.0013125,0.0099127,0.40466,0.014318,0.031588,9.5671e-07,0.32,0.78,0
0.016951,-0.0046441,0.034402,-0.00128,0.0099367,0.00018212,0,0,0.031805,-0.014582,0,0.0004735,0,0,0,0.034403,-0.0012809,0.0099367,0.29241,0.014353,0.031606,9.5986e-07,0.33,0.78,0
0.017269,-0.0047511,0.034435,-0.0012226,0.0099637,0.00010885,0,0,0.031813,-0.014542,0,0.00028301,0,0,0,0.034435,-0.001223,0.0099637,0.1749,0.014392,0.031587,9.6096e-07,0.34,0.78,0
0.017587,-0.0048607,0.03445,-0.0011381,0.0099935,3.8767e-05,0,0,0.031793,-0.014471,0,0.00010079,0,0,0,0.03445,-0.0011382,0.0099935,0.062413,0.014435,0.031532,9.5989e-07,0.35,0.78,0
0.017905,-0.0049729,0.034454,-0.0010309,0.010027,-2.5932e-05,0,0,0.031755,-0.014375,0,-6.7423e-05,0,0,0,0.034454,-0.001031,0.010027,-0.041871,0.014483,0.031449,9.5733e-07,0.36,0.78,0
0.018222,-0.0050872,0.034453,-0.00090668,0.010064,-8.4877e-05,0,0,0.031706,-0.014262,0,-0.00022068,0,0,0,0.034453,-0.00090688,0.010064,-0.13753,0.014537,0.031349,9.5392e-07,0.37,0.78,0
0.018539,-0.0052036,0.034452,-0.00077097,0.010104,-0.00013836,0,0,0.031652,-0.014138,0,-0.00035974,0,0,0,0.034453,-0.00077151,0.010104,-0.22506,0.014595,0.03124,9.5016e-07,0.38,0.78,0
0.018855,-0.0053217,0.034454,-0.00062875,0.010148,-0.00018697,0,0,0.031598,-0.014009,0,-0.00048611,0,0,0,0.034455,-0.00062975,0.010148,-0.30533,0.014658,0.031128,9.4642e-07,0.39,0.78,0
0.019171,-0.0054414,0.03446,-0.00048404,0.010193,-0.00023125,0,0,0.031547,-0.01388,0,-0.00060124,0,0,0,0.034461,-0.00048557,0.010193,-0.37914,0.014723,0.031019,9.4291e-07,0.4,0.78,0
0.019486,-0.0055623,0.034471,-0.00033997,0.010239,-0.00027149,0,0,0.031501,-0.013753,0,-0.00070587,0,0,0,0.034473,-0.00034209,0.010239,-0.44682,0.01479,0.030914,9.3977e-07,0.41,0.78,0
0.019801,-0.0056843,0.034486,-0.00019903,0.010286,-0.0003076,0,0,0.03146,-0.013631,0,-0.00079975,0,0,0,0.034489,-0.00020176,0.010286,-0.50806,0.014858,0.030815,9.3709e-07,0.42,0.78,0
0.020115,-0.005807,0.034506,-6.3376e-05,0.010333,-0.00033912,0,0,0.031425,-0.013515,0,-0.00088171,0,0,0,0.034509,-6.6702e-05,0.010333,-0.56199,0.014925,0.030726,9.3489e-07,0.43,0.78,0
0.020429,-0.0059303,0.034531,6.4951e-05,0.010379,-0.00036536,0,0,0.031398,-0.013408,0,-0.00094994,0,0,0,0.034535,6.1078e-05,0.010379,-0.60728,0.014991,0.030646,9.3324e-07,0.44,0.78,0
0.020743,-0.0060538,0.03456,0.0001839,0.010423,-0.00038554,0,0,0.031378,-0.013311,0,-0.0010024,0,0,0,0.034564,0.00017957,0.010423,-0.64248,0.015056,0.030578,9.3217e-07,0.45,0.78,0
0.021057,-0.0061773,0.034594,0.00029138,0.010466,-0.00039894,0,0,0.031367,-0.013226,0,-0.0010372,0,0,0,0.034598,0.00028674,0.010466,-0.66623,0.015117,0.030523,9.3177e-07,0.46,0.78,0
0.021371,-0.0063006,0.034632,0.00038531,0.010505,-0.00040501,0,0,0.031365,-0.013156,0,-0.001053,0,0,0,0.034637,0.00038052,0.010505,-0.67747,0.015174,0.030482,9.321e-07,0.47,0.78,0
0.021684,-0.0064233,0.034675,0.00046375,0.010542,-0.00040349,0,0,0.031374,-0.013101,0,-0.0010491,0,0,0,0.03468,0.00045899,0.010542,-0.67562,0.015227,0.030458,9.3325e-07,0.48,0.78,0
0.021998,-0.0065452,0.034723,0.00052495,0.010575,-0.00039437,0,0,0.031394,-0.013064,0,-0.0010254,0,0,0,0.034728,0.0005204,0.010575,-0.6606,0.015274,0.030452,9.3529e-07,0.49,0.78,0
0.022312,-0.0066661,0.034777,0.00056747,0.010603,-0.0003779,0,0,0.031425,-0.013047,0,-0.00098255,0,0,0,0.034781,0.0005633,0.010603,-0.63284,0.015316,0.030465,9.3829e-07,0.5,0.78,0
0.022627,-0.0067856,0.034834,0.00059028,0.010627,-0.0003546,0,0,0.031469,-0.013048,0,-0.00092196,0,0,0,0.034838,0.00058661,0.010627,-0.59322,0.015351,0.030497,9.4225e-07,0.51,0.78,0
0.022941,-0.0069037,0.034896,0.00059276,0.010647,-0.00032514,0,0,0.031524,-0.01307,0,-0.00084537,0,0,0,0.034899,0.00058968,0.010647,-0.54301,0.015379,0.030549,9.4716e-07,0.52,0.78,0
0.023257,-0.0070199,0.034961,0.00057472,0.010661,-0.00029036,0,0,0.03159,-0.013112,0,-0.00075492,0,0,0,0.034963,0.00057227,0.010661,-0.48376,0.015399,0.03062,9.5295e-07,0.53,0.78,0
0.023573,-0.0071343,0.035027,0.00053635,0.010669,-0.00025116,0,0,0.031665,-0.013172,0,-0.00065302,0,0,0,0.035028,0.00053452,0.010669,-0.41721,0.015411,0.030708,9.5947e-07,0.54,0.78,0
0.02389,-0.0072465,0.03509,0.00047793,0.01067,-0.00020858,0,0,0.031746,-0.01325,0,-0.0005423,0,0,0,0.035092,0.00047667,0.01067,-0.34525,0.015413,0.03081,9.665e-07,0.55,0.78,0
0.024208,-0.0073565,0.035149,0.00039949,0.010665,-0.00016374,0,0,0.03183,-0.013345,0,-0.00042572,0,0,0,0.03515,0.00039872,0.010665,-0.26997,0.015404,0.030924,9.7374e-07,0.56,0.78,0
0.024527,-0.0074642,0.035197,0.00030029,0.010649,-0.00011796,0,0,0.031912,-0.013454,0,-0.0003067,0,0,0,0.035198,0.00029989,0.010649,-0.19368,0.015382,0.031045,9.8077e-07,0.57,0.78,0
0.024846,-0.0075693,0.03523,0.0001783,0.010622,-7.1867e-05,0,0,0.031989,-0.013577,0,-0.00018685,0,0,0,0.03523,0.00017815,0.010622,-0.11747,0.015343,0.031171,9.872e-07,0.58,0.78,0
0.025167,-0.0076717,0.035249,2.6979e-05,0.010583,-2.2986e-05,0,0,0.032066,-0.013723,0,-5.9764e-05,0,0,0,0.035249,2.6964e-05,0.010583,-0.037392,0.015286,0.031309,9.9344e-07,0.59,0.78,0
0.025488,-0.0077712,0.035272,-0.00018532,0.010526,3.835e-05,0,0,0.03217,-0.013925,0,9.971e-05,0,0,0,0.035272,-0.00018536,0.010526,0.061969,0.015204,0.031499,1.0018e-06,0.6,0.78,0
0.02581,-0.0078673,0.035332,-0.00053549,0.010439,0.00012125,0,0,0.032361,-0.014267,0,0.00031526,0,0,0,0.035332,-0.0005359,0.010439,0.19369,0.015078,0.031833,1.0173e-06,0.61,0.78,0
0.026135,-0.0079594,0.035454,-0.0011432,0.010293,0.00022493,0,0,0.032709,-0.014868,0,0.00058483,0,0,0,0.035456,-0.0011446,0.010293,0.35213,0.014868,0.032431,1.0457e-06,0.62,0.78,0
0.026464,-0.0080474,0.03561,0.0022448,0.011357,0.00032157,0,0,0.046594,-0.015794,0,0.0013464,0,0,0,0.035614,0.0022413,0.011357,0.57591,0.016404,0.029934,9.3471e-07,0.63,0.78,0
0.027067,-0.0081215,0.035865,0.0056385,0.012451,0.00038534,0,0,0.060877,-0.017713,0,0.0020037,0,0,0,0.03587,0.0056336,0.012451,0.73026,0.017985,0.02747,8.476e-07,0.64,0.78,0
0.027682,-0.0081898,0.036092,0.0046215,0.012214,0.00040753,0,0,0.062083,-0.019741,0,0.0021192,0,0,0,0.036097,0.0046162,0.012214,0.7418,0.017642,0.028453,9.0483e-07,0.65,0.78,0
0.028309,-0.0082541,0.03627,0.0036726,0.011983,0.00040319,0,0,0.063147,-0.021606,0,0.0020966,0,0,0,0.036275,0.0036676,0.011983,0.70853,0.017309,0.029347,9.5535e-07,0.66,0.78,0
0.028945,-0.0083152,0.036372,0.002854,0.011768,0.00039057,0,0,0.063971,-0.023176,0,0.002031,0,0,0,0.036377,0.0028495,0.011768,0.66752,0.016998,0.030077,9.9429e-07,0.67,0.78,0
0.029588,-0.0083735,0.036397,0.0021737,0.011571,0.00038246,0,0,0.064546,-0.024433,0,0.0019888,0,0,0,0.036401,0.0021694,0.011571,0.64021,0.016714,0.030633,1.021e-06,0.68,0.78,0
0.030236,-0.008429,0.036356,0.0016138,0.011391,0.00038224,0,0,0.06491,-0.025421,0,0.0019877,0,0,0,0.036361,0.0016096,0.011391,0.63027,0.016454,0.031039,1.0373e-06,0.69,0.78,0
0.030886,-0.0084817,0.036271,0.0011535,0.011227,0.00038887,0,0,0.065113,-0.026192,0,0.0020221,0,0,0,0.036275,0.0011491,0.011227,0.63436,0.016217,0.031327,1.0457e-06,0.7,0.78,0
0.031538,-0.0085314,0.036156,0.00077388,0.011079,0.00040011,0,0,0.0652,-0.026793,0,0.0020806,0,0,0,0.03616,0.00076936,0.011079,0.64781,0.016003,0.031527,1.0483e-06,0.71,0.78,0
0.03219,-0.0085781,0.036023,0.00045969,0.010945,0.0004139,0,0,0.065204,-0.027262,0,0.0021523,0,0,0,0.036028,0.00045487,0.010945,0.66671,0.015809,0.03166,1.0471e-06,0.72,0.78,0
0.032842,-0.0086218,0.035883,0.00019855,0.010824,0.00042863,0,0,0.065151,-0.027627,0,0.0022289,0,0,0,0.035888,0.00019341,0.010824,0.6881,0.015635,0.031743,1.0432e-06,0.73,0.78,0
0.033493,-0.0086624,0.035739,-1.9284e-05,0.010716,0.00044308,0,0,0.065059,-0.027911,0,0.002304,0,0,0,0.035744,-2.4773e-05,0.010716,0.70982,0.015478,0.03179,1.0375e-06,0.74,0.78,0
0.034143,-0.0087001,0.035596,-0.00020154,0.010618,0.00045636,0,0,0.064941,-0.028131,0,0.0023731,0,0,0,0.035601,-0.00020736,0.010618,0.73029,0.015337,0.031809,1.0307e-06,0.75,0.78,0
0.034792,-0.0087348,0.035456,-0.00035435,0.01053,0.00046782,0,0,0.064806,-0.0283,0,0.0024327,0,0,0,0.035462,-0.00036046,0.01053,0.74834,0.015211,0.031807,1.0233e-06,0.76,0.78,0
0.035439,-0.0087668,0.035321,-0.00048264,0.010451,0.00047698,0,0,0.06466,-0.028429,0,0.0024803,0,0,0,0.035327,-0.000489,0.010451,0.76313,0.015097,0.031791,1.0155e-06,0.77,0.78,0
0.036085,-0.0087961,0.035192,-0.00059039,0.01038,0.00048351,0,0,0.064509,-0.028524,0,0.0025143,0,0,0,0.035198,-0.00059692,0.01038,0.77403,0.014994,0.031763,1.0076e-06,0.78,0.78,0
0.036729,-0.0088229,0.035069,-0.00068082,0.010316,0.0004872,0,0,0.064357,-0.028593,0,0.0025334,0,0,0,0.035076,-0.00068746,0.010316,0.78063,0.014902,0.031726,9.9984e-07,0.79,0.78,0
0.037372,-0.0088472,0.034954,-0.00075663,0.010259,0.00048789,0,0,0.064206,-0.028641,0,0.002537,0,0,0,0.03496,-0.0007633,0.010259,0.78261,0.014819,0.031684,9.9221e-07,0.8,0.78,0
0.038014,-0.0088693,0.034845,-0.00082003,0.010207,0.00048553,0,0,0.064057,-0.028671,0,0.0025248,0,0,0,0.034852,-0.00082664,0.010207,0.77982,0.014744,0.031639,9.8483e-07,0.81,0.78,0
0.038654,-0.0088892,0.034743,-0.0008729,0.010161,0.00048011,0,0,0.063913,-0.028688,0,0.0024966,0,0,0,0.03475,-0.00087937,0.010161,0.77217,0.014677,0.031591,9.7776e-07,0.82,0.78,0
0.039292,-0.0089071,0.034648,-0.0009168,0.010119,0.00047165,0,0,0.063775,-0.028694,0,0.0024526,0,0,0,0.034654,-0.00092305,0.010119,0.75966,0.014617,0.031541,9.7103e-07,0.83,0.78,0
0.039929,-0.0089231,0.03456,-0.00095307,0.010082,0.00046023,0,0,0.063643,-0.028692,0,0.0023932,0,0,0,0.034566,-0.00095904,0.010082,0.74236,0.014563,0.031491,9.6466e-07,0.84,0.78,0
0.040565,-0.0089374,0.034479,-0.00098288,0.010049,0.00044596,0,0,0.063518,-0.028682,0,0.002319,0,0,0,0.034484,-0.00098849,0.010049,0.7204,0.014515,0.031442,9.5868e-07,0.85,0.78,0
0.041199,-0.0089501,0.034403,-0.0010072,0.010019,0.00042895,0,0,0.0634,-0.028668,0,0.0022305,0,0,0,0.034409,-0.0010124,0.010019,0.69393,0.014472,0.031394,9.5309e-07,0.86,0.78,0
0.041833,-0.0089614,0.034334,-0.0010269,0.0099922,0.00040935,0,0,0.063289,-0.02865,0,0.0021286,0,0,0,0.034339,-0.0010317,0.0099922,0.66316,0.014433,0.031348,9.479e-07,0.87,0.78,0
0.042465,-0.0089713,0.034271,-0.0010427,0.0099685,0.00038732,0,0,0.063187,-0.028629,0,0.0020141,0,0,0,0.034275,-0.001047,0.0099685,0.62832,0.014399,0.031304,9.431e-07,0.88,0.78,0
0.043097,-0.00898,0.034214,-0.0010553,0.0099476,0.00036304,0,0,0.063092,-0.028607,0,0.0018878,0,0,0,0.034218,-0.001059,0.0099476,0.58968,0.014369,0.031262,9.3871e-07,0.89,0.78,0
0.043727,-0.0089875,0.034162,-0.0010652,0.0099291,0.00033667,0,0,0.063006,-0.028585,0,0.0017507,0,0,0,0.034165,-0.0010684,0.0099291,0.54751,0.014342,0.031223,9.3471e-07,0.9,0.78,0
0.044357,-0.008994,0.034116,-0.0010728,0.0099129,0.0003084,0,0,0.062928,-0.028563,0,0.0016037,0,0,0,0.034119,-0.0010755,0.0099129,0.50211,0.014319,0.031187,9.3111e-07,0.91,0.78,0
0.044985,-0.0089996,0.034075,-0.0010787,0.0098989,0.00027843,0,0,0.062858,-0.028542,0,0.0014478,0,0,0,0.034077,-0.0010809,0.0098989,0.45377,0.014298,0.031155,9.279e-07,0.92,0.78,0
0.045614,-0.0090043,0.034039,-0.0010831,0.0098869,0.00024694,0,0,0.062796,-0.028522,0,0.0012841,0,0,0,0.034041,-0.0010848,0.0098869,0.40281,0.014281,0.031126,9.2508e-07,0.93,0.78,0
0.046241,-0.0090083,0.034008,-0.0010864,0.0098767,0.00021412,0,0,0.062743,-0.028504,0,0.0011134,0,0,0,0.03401,-0.0010876,0.0098767,0.34955,0.014266,0.0311,9.2264e-07,0.94,0.78,0
0.046869,-0.0090115,0.033983,-0.0010887,0.0098682,0.00018016,0,0,0.062698,-0.028488,0,0.00093684,0,0,0,0.033984,-0.0010896,0.0098682,0.29432,0.014254,0.031079,9.2058e-07,0.95,0.78,0
0.047495,-0.0090141,0.033962,-0.0010904,0.0098614,0.00014526,0,0,0.062661,-0.028475,0,0.00075536,0,0,0,0.033962,-0.001091,0.0098614,0.23744,0.014244,0.031061,9.189e-07,0.96,0.78,0
0.048122,-0.0090161,0.033945,-0.0010915,0.0098562,0.00010961,0,0,0.062632,-0.028464,0,0.00056995,0,0,0,0.033946,-0.0010918,0.0098562,0.17923,0.014237,0.031047,9.176e-07,0.97,0.78,0
0.048748,-0.0090174,0.033934,-0.0010922,0.0098525,7.3384e-05,0,0,0.062612,-0.028456,0,0.00038159,0,0,0,0.033934,-0.0010923,0.0098525,0.12004,0.014231,0.031037,9.1667e-07,0.98,0.78,0
0.049374,-0.0090183,0.033927,-0.0010926,0.0098503,3.6786e-05,0,0,0.062599,-0.028452,0,0.00019129,0,0,0,0.033927,-0.0010926,0.0098503,0.060186,0.014228,0.031031,9.1611e-07,0.99,0.78,0
0.05,-0.0090185,0.033925,-0.0010927,0.0098496,-5.1881e-06,0,0,0.062595,-0.02845,0,-2.6978e-05,0,0,0,0.033925,-0.0010927,0.0098496,-0.0084888,0.014227,0.031029,9.1593e-07,1,0.78,0
0,0,0.030551,0.013093,0.013093,-0.0043732,0,0,0.04539,-1.6263e-19,0,-0.022741,0,0,0,0.031585,0.012059,0.013093,-13.305,0.018913,0.01903,3.5044e-07,0,0.79,0
0.0004539,-0.00022741,0.030494,0.012398,0.012868,-0.0043612,0,0,0.045828,-0.0012201,0,-0.022678,0,0,0,0.03149,0.011402,0.012868,-12.868,0.018586,0.019397,3.676e-07,0.01,0.79,0
0.00091655,-0.00045469,0.030729,0.011823,0.012766,-0.0043303,0,0,0.046706,-0.0024513,0,-0.022517,0,0,0,0.031674,0.010878,0.012766,-12.306,0.018439,0.019919,3.9365e-07,0.02,0.79,0
0.001388,-0.00068083,0.030966,0.011242,0.012663,-0.0042718,0,0,0.047589,-0.0036924,0,-0.022214,0,0,0,0.031852,0.010357,0.012663,-11.71,0.01829,0.02044,4.1981e-07,0.03,0.79,0
0.0018683,-0.00090483,0.031203,0.010659,0.012559,-0.0041861,0,0,0.048476,-0.0049394,0,-0.021767,0,0,0,0.032024,0.0098387,0.012559,-11.086,0.01814,0.020958,4.4604e-07,0.04,0.79,0
0.0023575,-0.0011257,0.03144,0.010075,0.012455,-0.0040735,0,0,0.049362,-0.0061868,0,-0.021182,0,0,0,0.03219,0.0093246,0.012455,-10.437,0.01799,0.021472,4.7226e-07,0.05,0.79,0
0.0028556,-0.0013424,0.031675,0.0094937,0.012351,-0.0039353,0,0,0.050244,-0.0074281,0,-0.020463,0,0,0,0.032352,0.0088162,0.012351,-9.7681,0.01784,0.021983,4.9842e-07,0.06,0.79,0
0.0033624,-0.0015541,0.031907,0.0089186,0.012248,-0.0037729,0,0,0.051115,-0.0086559,0,-0.019619,0,0,0,0.032511,0.0083153,0.012248,-9.0859,0.017691,0.022489,5.2443e-07,0.07,0.79,0
0.0038779,-0.0017599,0.032136,0.0083533,0.012147,-0.0035884,0,0,0.051972,-0.0098632,0,-0.01866,0,0,0,0.032666,0.0078237,0.012147,-8.396,0.017545,0.022988,5.5024e-07,0.08,0.79,0
0.0044019,-0.0019591,0.032361,0.0078013,0.012049,-0.0033843,0,0,0.052812,-0.011043,0,-0.017599,0,0,0,0.032819,0.0073434,0.012049,-7.7042,0.017404,0.023479,5.7579e-07,0.09,0.79,0
0.0049341,-0.0021509,0.032581,0.0072657,0.011954,-0.0031635,0,0,0.05363,-0.01219,0,-0.01645,0,0,0,0.03297,0.0068764,0.011954,-7.0162,0.017267,0.023962,6.0107e-07,0.1,0.79,0
0.0054745,-0.0023348,0.032797,0.0067499,0.011864,-0.002929,0,0,0.054425,-0.013297,0,-0.015231,0,0,0,0.033122,0.0064246,0.011864,-6.3376,0.017137,0.024436,6.2604e-07,0.11,0.79,0
0.0060226,-0.0025103,0.033008,0.0062567,0.011779,-0.0026841,0,0,0.055194,-0.014359,0,-0.013957,0,0,0,0.033275,0.00599,0.011779,-5.6735,0.017015,0.0249,6.507e-07,0.12,0.79,0
0.0065783,-0.0026771,0.033216,0.0057891,0.011701,-0.0024321,0,0,0.055937,-0.015372,0,-0.012647,0,0,0,0.03343,0.0055751,0.011701,-5.0286,0.016902,0.025353,6.7505e-07,0.13,0.79,0
0.0071414,-0.0028351,0.03342,0.0053504,0.011631,-0.0021763,0,0,0.056651,-0.01633,0,-0.011317,0,0,0,0.033588,0.0051827,0.011631,-4.4071,0.016801,0.025793,6.9905e-07,0.14,0.79,0
0.0077114,-0.0029842,0.033622,0.004944,0.01157,-0.0019198,0,0,0.057336,-0.017227,0,-0.009983,0,0,0,0.03375,0.004816,0.01157,-3.8129,0.016712,0.026218,7.2265e-07,0.15,0.79,0
0.0082881,-0.0031244,0.033822,0.0045739,0.011519,-0.0016657,0,0,0.057988,-0.018057,0,-0.0086613,0,0,0,0.033917,0.0044793,0.011519,-3.2489,0.016638,0.026625,7.4573e-07,0.16,0.79,0
0.0088711,-0.0032561,0.03402,0.0042451,0.011479,-0.0014166,0,0,0.058605,-0.018809,0,-0.0073661,0,0,0,0.034087,0.0041778,0.011479,-2.7177,0.016581,0.027009,7.681e-07,0.17,0.79,0
0.0094602,-0.0033794,0.034214,0.0039638,0.011453,-0.001175,0,0,0.059178,-0.019473,0,-0.00611,0,0,0,0.03426,0.0039182,0.011453,-2.221,0.016544,0.027363,7.8946e-07,0.18,0.79,0
0.010055,-0.0034948,0.034403,0.0037379,0.011442,-0.00094299,0,0,0.059699,-0.020032,0,-0.0049035,0,0,0,0.034432,0.0037089,0.011442,-1.7597,0.016528,0.027679,8.0929e-07,0.19,0.79,0
0.010654,-0.0036028,0.034583,0.0035776,0.011448,-0.00072211,0,0,0.060151,-0.020463,0,-0.003755,0,0,0,0.0346,0.0035608,0.011448,-1.3334,0.016536,0.027943,8.2688e-07,0.2,0.79,0
0.011258,-0.003704,0.034747,0.0034958,0.011473,-0.00051337,0,0,0.060512,-0.02074,0,-0.0026695,0,0,0,0.034755,0.0034874,0.011473,-0.94087,0.016572,0.028138,8.4115e-07,0.21,0.79,0
0.011864,-0.0037991,0.034884,0.0035088,0.011518,-0.00031717,0,0,0.060751,-0.020823,0,-0.0016493,0,0,0,0.034887,0.0035056,0.011518,-0.57913,0.016637,0.028241,8.5058e-07,0.22,0.79,0
0.012473,-0.0038887,0.034979,0.0036364,0.011585,-0.00013365,0,0,0.060826,-0.020666,0,-0.00069496,0,0,0,0.03498,0.0036359,0.011585,-0.2443,0.016733,0.028222,8.5317e-07,0.23,0.79,0
0.013081,-0.0039737,0.035016,0.0039015,0.011675,3.6026e-05,0,0,0.060686,-0.020212,0,0.00018733,0,0,0,0.035016,0.0039014,0.011675,0.066339,0.016864,0.028048,8.4659e-07,0.24,0.79,0
0.013687,-0.0040551,0.034981,0.0043241,0.011792,0.00018642,0,0,0.060293,-0.019416,0,0.00096937,0,0,0,0.034983,0.0043229,0.011792,0.34838,0.017032,0.027691,8.2899e-07,0.25,0.79,0
0.014287,-0.0041341,0.034877,0.0049008,0.011933,0.00030325,0,0,0.059653,-0.018284,0,0.0015769,0,0,0,0.03488,0.0048977,0.011933,0.57956,0.017237,0.027157,8.0055e-07,0.26,0.79,0
0.01488,-0.0042129,0.034726,0.0055772,0.012091,0.00036765,0,0,0.058852,-0.016936,0,0.0019118,0,0,0,0.034731,0.0055725,0.012091,0.7225,0.017465,0.026507,7.6507e-07,0.27,0.79,0
0.015464,-0.0042941,0.034562,0.0019408,0.010951,0.00037412,0,0,0.045301,-0.015617,0,0.0015097,0,0,0,0.034566,0.0019363,0.010951,0.67656,0.015818,0.029242,8.6263e-07,0.28,0.79,0
0.015786,-0.004388,0.034474,-0.0017366,0.0098214,0.00034653,0,0,0.032049,-0.015025,0,0.00090097,0,0,0,0.034478,-0.0017399,0.0098214,0.54824,0.014186,0.032042,9.7809e-07,0.29,0.79,0
0.016105,-0.0044844,0.034428,-0.0014165,0.0099033,0.00029563,0,0,0.031882,-0.014716,0,0.00076864,0,0,0,0.03443,-0.001419,0.0099033,0.47251,0.014305,0.03174,9.6573e-07,0.3,0.79,0
0.016423,-0.0045836,0.03444,-0.0012963,0.0099431,0.0002434,0,0,0.031846,-0.014611,0,0.00063283,0,0,0,0.034442,-0.001298,0.0099431,0.39021,0.014362,0.031654,9.6351e-07,0.31,0.79,0
0.016742,-0.0046854,0.034483,-0.0012549,0.0099685,0.00019567,0,0,0.031869,-0.01459,0,0.00050875,0,0,0,0.034484,-0.001256,0.0099685,0.3137,0.014399,0.031657,9.6591e-07,0.32,0.79,0
0.017061,-0.0047897,0.034524,-0.0012183,0.0099917,0.0001484,0,0,0.031892,-0.014573,0,0.00038583,0,0,0,0.034524,-0.0012189,0.0099917,0.23788,0.014432,0.031663,9.6826e-07,0.33,0.79,0
0.017379,-0.0048964,0.034547,-0.0011591,0.010016,9.6245e-05,0,0,0.03189,-0.014528,0,0.00025024,0,0,0,0.034547,-0.0011593,0.010016,0.15444,0.014468,0.031636,9.6856e-07,0.34,0.79,0
0.017698,-0.0050054,0.034552,-0.0010757,0.010043,3.9901e-05,0,0,0.031862,-0.014454,0,0.00010374,0,0,0,0.034552,-0.0010757,0.010043,0.064168,0.014506,0.031572,9.6666e-07,0.35,0.79,0
0.018017,-0.0051165,0.034544,-0.00097143,0.010072,-1.8024e-05,0,0,0.031814,-0.014356,0,-4.6861e-05,0,0,0,0.034544,-0.00097144,0.010072,-0.029077,0.014548,0.031482,9.6318e-07,0.36,0.79,0
0.018335,-0.0052297,0.034531,-0.00085087,0.010104,-7.5223e-05,0,0,0.031755,-0.014241,0,-0.00019558,0,0,0,0.034531,-0.00085103,0.010104,-0.12181,0.014594,0.031373,9.5877e-07,0.37,0.79,0
0.018652,-0.0053448,0.034516,-0.00071896,0.010139,-0.00013034,0,0,0.03169,-0.014115,0,-0.00033889,0,0,0,0.034516,-0.00071944,0.010139,-0.21195,0.014645,0.031254,9.5392e-07,0.38,0.79,0
0.018968,-0.0054617,0.034502,-0.0005804,0.010177,-0.00018264,0,0,0.031623,-0.013984,0,-0.00047487,0,0,0,0.034503,-0.00058135,0.010177,-0.29827,0.0147,0.031132,9.4902e-07,0.39,0.79,0
0.019284,-0.00558,0.034493,-0.00043928,0.010216,-0.00023167,0,0,0.03156,-0.013852,0,-0.00060235,0,0,0,0.034494,-0.00044082,0.010216,-0.37997,0.014757,0.031012,9.4432e-07,0.4,0.79,0
0.0196,-0.0056997,0.034488,-0.00029896,0.010257,-0.00027703,0,0,0.0315,-0.013722,0,-0.00072028,0,0,0,0.03449,-0.00030117,0.010257,-0.45625,0.014815,0.030896,9.4001e-07,0.41,0.79,0
0.019914,-0.0058204,0.034488,-0.00016222,0.010298,-0.00031825,0,0,0.031447,-0.013598,0,-0.00082745,0,0,0,0.034491,-0.00016514,0.010298,-0.52619,0.014874,0.030788,9.362e-07,0.42,0.79,0
0.020229,-0.005942,0.034493,-3.1439e-05,0.010339,-0.00035475,0,0,0.031401,-0.013481,0,-0.00092235,0,0,0,0.034497,-3.5084e-05,0.010339,-0.58865,0.014934,0.03069,9.3296e-07,0.43,0.79,0
0.020542,-0.0060642,0.034504,9.1223e-05,0.010379,-0.00038587,0,0,0.031363,-0.013374,0,-0.0010033,0,0,0,0.034509,8.6897e-05,0.010379,-0.64235,0.014991,0.030603,9.3037e-07,0.44,0.79,0
0.020856,-0.0061868,0.034521,0.00020373,0.010417,-0.00041094,0,0,0.031334,-0.013278,0,-0.0010685,0,0,0,0.034526,0.00019881,0.010417,-0.68598,0.015047,0.030528,9.2847e-07,0.45,0.79,0
0.021169,-0.0063095,0.034543,0.00030414,0.010454,-0.00042935,0,0,0.031315,-0.013195,0,-0.0011163,0,0,0,0.034548,0.00029875,0.010454,-0.71834,0.0151,0.030469,9.2734e-07,0.46,0.79,0
0.021482,-0.006432,0.03457,0.00039058,0.010488,-0.00044062,0,0,0.031307,-0.013127,0,-0.0011456,0,0,0,0.034576,0.0003849,0.010488,-0.73846,0.01515,0.030425,9.2704e-07,0.47,0.79,0
0.021795,-0.0065542,0.034604,0.00046134,0.010519,-0.00044447,0,0,0.031309,-0.013076,0,-0.0011556,0,0,0,0.034609,0.00045556,0.010519,-0.74572,0.015195,0.030398,9.2762e-07,0.48,0.79,0
0.022108,-0.0066758,0.034642,0.00051493,0.010547,-0.00044077,0,0,0.031324,-0.013042,0,-0.001146,0,0,0,0.034648,0.00050924,0.010547,-0.73984,0.015235,0.03039,9.2915e-07,0.49,0.79,0
0.022422,-0.0067965,0.034687,0.00055014,0.010571,-0.0004296,0,0,0.031351,-0.013027,0,-0.001117,0,0,0,0.034692,0.00054473,0.010571,-0.72089,0.015269,0.030401,9.3166e-07,0.5,0.79,0
0.022735,-0.006916,0.034737,0.00056607,0.010591,-0.00041114,0,0,0.03139,-0.013032,0,-0.001069,0,0,0,0.034742,0.00056112,0.010591,-0.68925,0.015298,0.030432,9.3516e-07,0.51,0.79,0
0.02305,-0.0070343,0.034791,0.00056221,0.010606,-0.00038567,0,0,0.03144,-0.013057,0,-0.0010027,0,0,0,0.034795,0.00055787,0.010606,-0.64547,0.01532,0.030482,9.3961e-07,0.52,0.79,0
0.023364,-0.007151,0.034848,0.00053845,0.010616,-0.00035348,0,0,0.031502,-0.013101,0,-0.00091905,0,0,0,0.034852,0.00053481,0.010616,-0.59022,0.015334,0.03055,9.4493e-07,0.53,0.79,0
0.023679,-0.0072659,0.034907,0.00049497,0.01062,-0.00031485,0,0,0.031572,-0.013163,0,-0.0008186,0,0,0,0.03491,0.00049209,0.01062,-0.52417,0.015341,0.030636,9.5098e-07,0.54,0.79,0
0.023996,-0.007379,0.034964,0.00043204,0.010619,-0.00026995,0,0,0.031649,-0.013243,0,-0.00070188,0,0,0,0.034966,0.00042993,0.010619,-0.44787,0.015338,0.030736,9.5755e-07,0.55,0.79,0
0.024313,-0.0074899,0.035017,0.00034967,0.01061,-0.00021882,0,0,0.031729,-0.013338,0,-0.00056893,0,0,0,0.035018,0.00034829,0.01061,-0.36163,0.015326,0.030847,9.6433e-07,0.56,0.79,0
0.02463,-0.0075986,0.03506,0.00024708,0.010592,-0.00016121,0,0,0.031808,-0.013448,0,-0.00041915,0,0,0,0.03506,0.00024633,0.010592,-0.26532,0.0153,0.030966,9.7093e-07,0.57,0.79,0
0.024949,-0.0077049,0.035088,0.00012222,0.010563,-9.7548e-05,0,0,0.031882,-0.013573,0,-0.00025362,0,0,0,0.035088,0.00012195,0.010563,-0.15985,0.015258,0.031089,9.7698e-07,0.58,0.79,0
0.025268,-0.0078088,0.035103,-3.1532e-05,0.010521,-3.142e-05,0,0,0.031956,-0.013719,0,-8.1692e-05,0,0,0,0.035103,-3.156e-05,0.010521,-0.051238,0.015198,0.031226,9.8289e-07,0.59,0.79,0
0.025588,-0.0079104,0.035123,-0.0002453,0.010463,2.5738e-05,0,0,0.032057,-0.013921,0,6.6919e-05,0,0,0,0.035123,-0.00024532,0.010463,0.041695,0.015114,0.031414,9.9091e-07,0.6,0.79,0
0.025909,-0.00801,0.035179,-0.00059466,0.010375,6.1216e-05,0,0,0.032245,-0.014261,0,0.00015916,0,0,0,0.035179,-0.00059477,0.010375,0.098045,0.014986,0.031744,1.0059e-06,0.61,0.79,0
0.026233,-0.0081082,0.035298,-0.0011975,0.01023,6.9997e-05,0,0,0.032588,-0.014856,0,0.00018199,0,0,0,0.035298,-0.0011976,0.01023,0.10989,0.014777,0.032334,1.0335e-06,0.62,0.79,0
0.026561,-0.0082053,0.035451,0.0021931,0.011293,7.8146e-05,0,0,0.046406,-0.015773,0,0.00034264,0,0,0,0.035451,0.0021929,0.011293,0.14302,0.016312,0.029828,9.2313e-07,0.63,0.79,0
0.027161,-0.0082981,0.035703,0.0055904,0.012388,0.00011575,0,0,0.060619,-0.017674,0,0.00060191,0,0,0,0.035703,0.0055899,0.012388,0.22024,0.017894,0.027356,8.3652e-07,0.64,0.79,0
0.027773,-0.0083864,0.035928,0.0045817,0.012153,0.0001829,0,0,0.061816,-0.019685,0,0.00095108,0,0,0,0.035929,0.0045806,0.012153,0.33429,0.017554,0.028332,8.928e-07,0.65,0.79,0
0.028397,-0.0084692,0.036106,0.0036388,0.011924,0.00026235,0,0,0.062875,-0.02154,0,0.0013642,0,0,0,0.036108,0.0036367,0.011924,0.46293,0.017223,0.029223,9.4276e-07,0.66,0.79,0
0.029031,-0.0085461,0.036209,0.0028243,0.01171,0.0003395,0,0,0.063698,-0.023103,0,0.0017654,0,0,0,0.036213,0.0028209,0.01171,0.58258,0.016915,0.029954,9.8149e-07,0.67,0.79,0
0.029671,-0.0086171,0.036236,0.0021468,0.011515,0.00040474,0,0,0.064274,-0.024357,0,0.0021047,0,0,0,0.036241,0.002142,0.011515,0.68016,0.016632,0.030512,1.0082e-06,0.68,0.79,0
0.030316,-0.0086827,0.036198,0.0015892,0.011336,0.00045662,0,0,0.064641,-0.025342,0,0.0023744,0,0,0,0.036204,0.0015832,0.011336,0.75577,0.016374,0.03092,1.0246e-06,0.69,0.79,0
0.030964,-0.0087432,0.036114,0.0011309,0.011174,0.00049709,0,0,0.064846,-0.026111,0,0.0025849,0,0,0,0.036121,0.0011239,0.011174,0.81391,0.01614,0.031211,1.0331e-06,0.7,0.79,0
0.031613,-0.008799,0.036001,0.00075344,0.011026,0.0005287,0,0,0.064935,-0.02671,0,0.0027492,0,0,0,0.036009,0.00074551,0.011026,0.85914,0.015927,0.031412,1.036e-06,0.71,0.79,0
0.032263,-0.0088504,0.035871,0.00044144,0.010894,0.00055344,0,0,0.064941,-0.027176,0,0.0028779,0,0,0,0.03588,0.0004328,0.010894,0.89471,0.015735,0.031545,1.0349e-06,0.72,0.79,0
0.032912,-0.0088977,0.035732,0.00018266,0.010774,0.00057271,0,0,0.06489,-0.027539,0,0.0029781,0,0,0,0.035742,0.00017343,0.010774,0.92272,0.015563,0.031629,1.0311e-06,0.73,0.79,0
0.03356,-0.0089411,0.03559,-3.2653e-05,0.010667,0.00058738,0,0,0.064799,-0.02782,0,0.0030544,0,0,0,0.0356,-4.2335e-05,0.010667,0.94441,0.015408,0.031676,1.0255e-06,0.74,0.79,0
0.034208,-0.008981,0.035448,-0.00021221,0.010571,0.00059803,0,0,0.064682,-0.028036,0,0.0031098,0,0,0,0.035458,-0.00022224,0.010571,0.9605,0.015269,0.031694,1.0188e-06,0.75,0.79,0
0.034854,-0.0090174,0.03531,-0.00036219,0.010484,0.000605,0,0,0.064547,-0.028201,0,0.003146,0,0,0,0.03532,-0.00037245,0.010484,0.97136,0.015144,0.031691,1.0115e-06,0.76,0.79,0
0.035499,-0.0090507,0.035176,-0.00048752,0.010407,0.00060849,0,0,0.064401,-0.028325,0,0.0031642,0,0,0,0.035187,-0.0004979,0.010407,0.97719,0.015032,0.031673,1.0038e-06,0.77,0.79,0
0.036142,-0.0090809,0.035049,-0.00059223,0.010337,0.00060864,0,0,0.064251,-0.028416,0,0.003165,0,0,0,0.035059,-0.00060262,0.010337,0.97807,0.014931,0.031643,9.9596e-07,0.78,0.79,0
0.036784,-0.0091083,0.034927,-0.00067959,0.010274,0.00060555,0,0,0.064098,-0.02848,0,0.0031489,0,0,0,0.034938,-0.00068989,0.010274,0.97403,0.014841,0.031606,9.8821e-07,0.79,0.79,0
0.037424,-0.0091331,0.034813,-0.00075231,0.010218,0.0005993,0,0,0.063946,-0.028523,0,0.0031163,0,0,0,0.034823,-0.00076241,0.010218,0.9651,0.01476,0.031562,9.8063e-07,0.8,0.79,0
0.038063,-0.0091554,0.034706,-0.00081265,0.010168,0.00058995,0,0,0.063798,-0.028549,0,0.0030677,0,0,0,0.034715,-0.00082245,0.010168,0.95132,0.014687,0.031514,9.7329e-07,0.81,0.79,0
0.0387,-0.0091755,0.034605,-0.0008625,0.010123,0.0005776,0,0,0.063654,-0.028562,0,0.0030035,0,0,0,0.034614,-0.0008719,0.010123,0.93276,0.014622,0.031464,9.6626e-07,0.82,0.79,0
0.039336,-0.0091934,0.034511,-0.00090347,0.010082,0.00056235,0,0,0.063515,-0.028563,0,0.0029242,0,0,0,0.03452,-0.00091239,0.010082,0.90949,0.014563,0.031413,9.5957e-07,0.83,0.79,0
0.03997,-0.0092094,0.034424,-0.00093692,0.010046,0.00054429,0,0,0.063383,-0.028556,0,0.0028303,0,0,0,0.034433,-0.00094529,0.010046,0.88164,0.014511,0.031362,9.5325e-07,0.84,0.79,0
0.040603,-0.0092236,0.034344,-0.00096402,0.010014,0.00052357,0,0,0.063257,-0.028543,0,0.0027225,0,0,0,0.034352,-0.00097178,0.010014,0.84937,0.014464,0.031311,9.4731e-07,0.85,0.79,0
0.041235,-0.0092362,0.03427,-0.00098578,0.0099852,0.0005003,0,0,0.06314,-0.028524,0,0.0026016,0,0,0,0.034277,-0.00099288,0.0099852,0.81286,0.014423,0.031261,9.4177e-07,0.86,0.79,0
0.041866,-0.0092472,0.034202,-0.0010031,0.0099596,0.00047465,0,0,0.06303,-0.028503,0,0.0024682,0,0,0,0.034208,-0.0010095,0.0099596,0.77231,0.014386,0.031214,9.3662e-07,0.87,0.79,0
0.042496,-0.0092569,0.03414,-0.0010166,0.0099369,0.00044676,0,0,0.062927,-0.028479,0,0.0023232,0,0,0,0.034145,-0.0010223,0.0099369,0.72795,0.014353,0.031168,9.3187e-07,0.88,0.79,0
0.043125,-0.0092653,0.034084,-0.0010271,0.0099169,0.00041681,0,0,0.062833,-0.028455,0,0.0021674,0,0,0,0.034088,-0.0010321,0.0099169,0.68005,0.014324,0.031126,9.2752e-07,0.89,0.79,0
0.043753,-0.0092726,0.034033,-0.0010351,0.0098993,0.00038495,0,0,0.062747,-0.028429,0,0.0020017,0,0,0,0.034037,-0.0010393,0.0098993,0.62885,0.014299,0.031086,9.2356e-07,0.9,0.79,0
0.04438,-0.0092789,0.033988,-0.001041,0.009884,0.00035136,0,0,0.062669,-0.028405,0,0.0018271,0,0,0,0.033991,-0.0010446,0.009884,0.57464,0.014277,0.031049,9.2e-07,0.91,0.79,0
0.045006,-0.0092843,0.033947,-0.0010454,0.0098707,0.00031621,0,0,0.0626,-0.028382,0,0.0016443,0,0,0,0.03395,-0.0010482,0.0098707,0.5177,0.014258,0.031016,9.1683e-07,0.92,0.79,0
0.045632,-0.0092888,0.033913,-0.0010484,0.0098592,0.00027969,0,0,0.062539,-0.02836,0,0.0014544,0,0,0,0.033915,-0.0010506,0.0098592,0.45833,0.014241,0.030986,9.1404e-07,0.93,0.79,0
0.046257,-0.0092926,0.033883,-0.0010505,0.0098496,0.00024196,0,0,0.062486,-0.02834,0,0.0012582,0,0,0,0.033884,-0.0010522,0.0098496,0.39683,0.014227,0.03096,9.1163e-07,0.94,0.79,0
0.046881,-0.0092956,0.033857,-0.0010519,0.0098417,0.0002032,0,0,0.062441,-0.028323,0,0.0010566,0,0,0,0.033859,-0.0010531,0.0098417,0.33349,0.014216,0.030938,9.0961e-07,0.95,0.79,0
0.047506,-0.0092981,0.033837,-0.0010527,0.0098353,0.00016358,0,0,0.062404,-0.028309,0,0.00085063,0,0,0,0.033838,-0.0010535,0.0098353,0.26863,0.014207,0.03092,9.0795e-07,0.96,0.79,0
0.048129,-0.0092999,0.033821,-0.0010532,0.0098303,0.00012328,0,0,0.062376,-0.028297,0,0.00064107,0,0,0,0.033821,-0.0010536,0.0098303,0.20254,0.014199,0.030906,9.0667e-07,0.97,0.79,0
0.048753,-0.0093012,0.03381,-0.0010535,0.0098269,8.2472e-05,0,0,0.062356,-0.028289,0,0.00042885,0,0,0,0.03381,-0.0010537,0.0098269,0.13554,0.014194,0.030895,9.0575e-07,0.98,0.79,0
0.049377,-0.009302,0.033803,-0.0010536,0.0098248,4.1321e-05,0,0,0.062343,-0.028284,0,0.00021487,0,0,0,0.033803,-0.0010536,0.0098248,0.067921,0.014191,0.030889,9.052e-07,0.99,0.79,0
0.05,-0.0093022,0.033801,-0.0010536,0.0098242,-4.8732e-06,0,0,0.062339,-0.028282,0,-2.5341e-05,0,0,0,0.033801,-0.0010536,0.0098242,-0.0080109,0.01419,0.030887,9.0502e-07,1,0.79,0
0,0,0.03059,0.01311,0.01311,-0.0046134,0,0,0.045448,3.7947e-19,0,-0.02399,0,0,0,0.031733,0.011967,0.01311,-13.914,0.018937,0.01922,3.603e-07,0,0.8,0
0.00045448,-0.0002399,0.03053,0.012382,0.012873,-0.0046019,0,0,0.045906,-0.001278,0,-0.02393,0,0,0,0.03163,0.011282,0.012873,-13.446,0.018595,0.019601,3.7818e-07,0.01,0.8,0
0.00091812,-0.00047979,0.030777,0.011779,0.012767,-0.0045724,0,0,0.046826,-0.0025683,0,-0.023776,0,0,0,0.03182,0.010736,0.012767,-12.852,0.018441,0.020146,4.0556e-07,0.02,0.8,0
0.001391,-0.00071864,0.031024,0.01117,0.012658,-0.0045148,0,0,0.047751,-0.0038689,0,-0.023477,0,0,0,0.032003,0.010192,0.012658,-12.228,0.018284,0.020688,4.3305e-07,0.03,0.8,0
0.0018732,-0.0009554,0.031272,0.010559,0.012549,-0.0044289,0,0,0.04868,-0.0051751,0,-0.02303,0,0,0,0.032179,0.0096517,0.012549,-11.577,0.018127,0.021228,4.6058e-07,0.04,0.8,0
0.0023646,-0.001189,0.031519,0.0099477,0.01244,-0.0043149,0,0,0.049605,-0.0064799,0,-0.022438,0,0,0,0.03235,0.0091166,0.01244,-10.902,0.017969,0.021763,4.8803e-07,0.05,0.8,0
0.0028653,-0.0014184,0.031763,0.0093407,0.012331,-0.004174,0,0,0.050524,-0.0077754,0,-0.021705,0,0,0,0.032515,0.0085889,0.012331,-10.21,0.017812,0.022292,5.1531e-07,0.06,0.8,0
0.0033751,-0.0016427,0.032004,0.0087417,0.012224,-0.0040077,0,0,0.051429,-0.0090532,0,-0.02084,0,0,0,0.032675,0.0080707,0.012224,-9.5061,0.017656,0.022813,5.423e-07,0.07,0.8,0
0.0038938,-0.0018608,0.03224,0.0081551,0.012119,-0.0038184,0,0,0.052316,-0.010305,0,-0.019856,0,0,0,0.032831,0.0075642,0.012119,-8.7964,0.017504,0.023325,5.6894e-07,0.08,0.8,0
0.0044214,-0.0020719,0.03247,0.0075845,0.012016,-0.003609,0,0,0.05318,-0.011523,0,-0.018767,0,0,0,0.032983,0.0070717,0.012016,-8.0874,0.017357,0.023827,5.9515e-07,0.09,0.8,0
0.0049574,-0.0022753,0.032695,0.0070338,0.011919,-0.0033828,0,0,0.054018,-0.0127,0,-0.01759,0,0,0,0.033133,0.0065953,0.011919,-7.385,0.017216,0.024317,6.209e-07,0.1,0.8,0
0.0055017,-0.0024704,0.032913,0.0065061,0.011826,-0.0031431,0,0,0.054828,-0.013832,0,-0.016344,0,0,0,0.033282,0.0061372,0.011826,-6.6948,0.017082,0.024795,6.4617e-07,0.11,0.8,0
0.006054,-0.0026566,0.033127,0.0060045,0.011739,-0.0028935,0,0,0.055607,-0.014911,0,-0.015046,0,0,0,0.033432,0.0056993,0.011739,-6.0221,0.016957,0.02526,6.7097e-07,0.12,0.8,0
0.0066139,-0.0028337,0.033335,0.0055321,0.01166,-0.0026375,0,0,0.056356,-0.015933,0,-0.013715,0,0,0,0.033583,0.0052841,0.01166,-5.3715,0.016843,0.025711,6.9529e-07,0.13,0.8,0
0.0071811,-0.0030013,0.03354,0.0050917,0.01159,-0.0023786,0,0,0.057072,-0.016894,0,-0.012369,0,0,0,0.033738,0.0048942,0.01159,-4.7466,0.01674,0.026147,7.1912e-07,0.14,0.8,0
0.0077553,-0.0031593,0.033742,0.0046866,0.011529,-0.0021198,0,0,0.057755,-0.017789,0,-0.011023,0,0,0,0.033896,0.0045327,0.011529,-4.1508,0.016652,0.026565,7.4244e-07,0.15,0.8,0
0.0083362,-0.0033079,0.033941,0.0043205,0.011479,-0.0018637,0,0,0.058403,-0.018611,0,-0.0096912,0,0,0,0.034058,0.0042037,0.011479,-3.5861,0.01658,0.026963,7.6514e-07,0.16,0.8,0
0.0089234,-0.0034469,0.034138,0.0039981,0.011441,-0.0016126,0,0,0.059013,-0.019351,0,-0.0083857,0,0,0,0.034224,0.003912,0.011441,-3.0539,0.016526,0.027337,7.8708e-07,0.17,0.8,0
0.0095165,-0.0035768,0.034333,0.003725,0.011417,-0.0013681,0,0,0.05958,-0.02,0,-0.0071143,0,0,0,0.034394,0.0036639,0.011417,-2.5543,0.016492,0.02768,8.0798e-07,0.18,0.8,0
0.010115,-0.0036977,0.034523,0.0035084,0.01141,-0.0011309,0,0,0.060096,-0.020543,0,-0.0058809,0,0,0,0.034565,0.0034673,0.01141,-2.0856,0.01648,0.027985,8.2743e-07,0.19,0.8,0
0.010718,-0.00381,0.034707,0.0033579,0.01142,-0.00090069,0,0,0.060548,-0.02096,0,-0.0046836,0,0,0,0.034733,0.003332,0.01142,-1.6443,0.016495,0.02824,8.4479e-07,0.2,0.8,0
0.011326,-0.0039139,0.034878,0.0032851,0.011449,-0.00067566,0,0,0.060916,-0.021226,0,-0.0035134,0,0,0,0.034893,0.0032707,0.011449,-1.2246,0.016538,0.028429,8.5915e-07,0.21,0.8,0
0.011937,-0.0040097,0.035029,0.0033053,0.0115,-0.0004525,0,0,0.061174,-0.021307,0,-0.002353,0,0,0,0.035035,0.0032988,0.0115,-0.81704,0.016612,0.028534,8.6921e-07,0.22,0.8,0
0.012549,-0.0040977,0.035146,0.0034372,0.011575,-0.0002265,0,0,0.061285,-0.021158,0,-0.0011778,0,0,0,0.035148,0.0034356,0.011575,-0.40924,0.016719,0.028527,8.7318e-07,0.23,0.8,0
0.013162,-0.0041781,0.035211,0.0037033,0.011674,6.3205e-06,0,0,0.061195,-0.020724,0,3.2867e-05,0,0,0,0.035211,0.0037033,0.011674,0.011494,0.016863,0.028375,8.6862e-07,0.24,0.8,0
0.013773,-0.0042513,0.035199,0.0041299,0.011799,0.00024086,0,0,0.06084,-0.019939,0,0.0012525,0,0,0,0.035201,0.004128,0.011799,0.44415,0.017042,0.028036,8.5261e-07,0.25,0.8,0
0.014379,-0.0043187,0.035105,0.0047475,0.011956,0.00044855,0,0,0.060188,-0.018741,0,0.0023324,0,0,0,0.035112,0.0047409,0.011956,0.84633,0.01727,0.027483,8.2358e-07,0.26,0.8,0
0.014977,-0.0043834,0.034949,0.0055205,0.012141,0.00056765,0,0,0.059301,-0.017213,0,0.0029518,0,0,0,0.03496,0.0055096,0.012141,1.1046,0.017537,0.026758,7.84e-07,0.27,0.8,0
0.015565,-0.0044506,0.034776,0.0020015,0.011033,0.0005551,0,0,0.045569,-0.015655,0,0.0022657,0,0,0,0.034786,0.0019914,0.011033,1.003,0.015937,0.029394,8.7766e-07,0.28,0.8,0
0.015888,-0.0045383,0.034682,-0.0016094,0.0099219,0.00042267,0,0,0.032189,-0.014991,0,0.0010989,0,0,0,0.034687,-0.0016143,0.0099219,0.66717,0.014332,0.032126,9.9245e-07,0.29,0.8,0
0.016209,-0.0046316,0.034623,-0.001328,0.0099884,0.00027931,0,0,0.032024,-0.014711,0,0.0007262,0,0,0,0.034625,-0.0013302,0.0099884,0.44511,0.014428,0.031842,9.7962e-07,0.3,0.8,0
0.016529,-0.0047298,0.034631,-0.0012578,0.010012,0.00019106,0,0,0.032005,-0.014651,0,0.00049677,0,0,0,0.034632,-0.0012588,0.010012,0.30502,0.014462,0.031791,9.7832e-07,0.31,0.8,0
0.016849,-0.0048315,0.034661,-0.0012313,0.010029,0.00015825,0,0,0.032022,-0.014638,0,0.00041144,0,0,0,0.034662,-0.001232,0.010029,0.25261,0.014486,0.031796,9.8007e-07,0.32,0.8,0
0.017169,-0.0049355,0.034681,-0.0011787,0.010051,0.00013506,0,0,0.032019,-0.014598,0,0.00035116,0,0,0,0.034681,-0.0011792,0.010051,0.2158,0.014518,0.031771,9.803e-07,0.33,0.8,0
0.01749,-0.0050417,0.034675,-0.0011083,0.01007,0.00010162,0,0,0.031987,-0.014532,0,0.00026422,0,0,0,0.034675,-0.0011086,0.01007,0.16271,0.014546,0.031709,9.7787e-07,0.34,0.8,0
0.017809,-0.0051498,0.034655,-0.00102,0.010091,5.6592e-05,0,0,0.031934,-0.014444,0,0.00014714,0,0,0,0.034655,-0.0010201,0.010091,0.090889,0.014575,0.03162,9.7374e-07,0.35,0.8,0
0.018128,-0.00526,0.034628,-0.00091419,0.010114,4.4901e-06,0,0,0.031868,-0.014337,0,1.1674e-05,0,0,0,0.034628,-0.00091419,0.010114,0.0072384,0.014609,0.03151,9.6855e-07,0.36,0.8,0
0.018447,-0.005372,0.034598,-0.00079394,0.010141,-5.1052e-05,0,0,0.031793,-0.014216,0,-0.00013274,0,0,0,0.034598,-0.00079401,0.010141,-0.082649,0.014648,0.031387,9.6273e-07,0.37,0.8,0
0.018764,-0.0054859,0.034568,-0.00066352,0.010171,-0.00010758,0,0,0.031715,-0.014085,0,-0.00027972,0,0,0,0.034568,-0.00066385,0.010171,-0.17496,0.014692,0.031256,9.5663e-07,0.38,0.8,0
0.019081,-0.0056014,0.03454,-0.00052729,0.010204,-0.0001634,0,0,0.031637,-0.01395,0,-0.00042483,0,0,0,0.034541,-0.00052805,0.010204,-0.26696,0.014739,0.031123,9.5058e-07,0.39,0.8,0
0.019397,-0.0057184,0.034516,-0.00038918,0.010238,-0.0002172,0,0,0.031561,-0.013815,0,-0.00056473,0,0,0,0.034517,-0.00039053,0.010238,-0.35652,0.014788,0.030992,9.448e-07,0.4,0.8,0
0.019712,-0.0058367,0.034498,-0.00025249,0.010273,-0.00026799,0,0,0.031491,-0.013684,0,-0.00069678,0,0,0,0.0345,-0.00025456,0.010273,-0.44183,0.01484,0.030867,9.3948e-07,0.41,0.8,0
0.020027,-0.0059562,0.034485,-0.00012003,0.010309,-0.0003149,0,0,0.031428,-0.013558,0,-0.00081875,0,0,0,0.034487,-0.0001229,0.010309,-0.52134,0.014891,0.030751,9.3472e-07,0.42,0.8,0
0.020341,-0.0060766,0.034478,5.7588e-06,0.010345,-0.00035717,0,0,0.031372,-0.013441,0,-0.00092865,0,0,0,0.034481,2.0584e-06,0.010345,-0.59357,0.014943,0.030646,9.3063e-07,0.43,0.8,0
0.020654,-0.0061977,0.034477,0.00012273,0.01038,-0.00039409,0,0,0.031326,-0.013334,0,-0.0010246,0,0,0,0.034481,0.00011821,0.01038,-0.65714,0.014993,0.030554,9.2726e-07,0.44,0.8,0
0.020967,-0.0063194,0.034483,0.00022888,0.010413,-0.00042499,0,0,0.03129,-0.01324,0,-0.001105,0,0,0,0.034488,0.00022361,0.010413,-0.71073,0.015042,0.030475,9.2469e-07,0.45,0.8,0
0.02128,-0.0064412,0.034494,0.00032237,0.010445,-0.00044932,0,0,0.031264,-0.013159,0,-0.0011682,0,0,0,0.0345,0.00031646,0.010445,-0.7532,0.015087,0.030412,9.2296e-07,0.46,0.8,0
0.021592,-0.0065631,0.034513,0.0004015,0.010474,-0.00046662,0,0,0.03125,-0.013095,0,-0.0012132,0,0,0,0.034519,0.00039511,0.010474,-0.78358,0.01513,0.030366,9.2214e-07,0.47,0.8,0
0.021905,-0.0066848,0.034537,0.00046472,0.010501,-0.00047656,0,0,0.031248,-0.013047,0,-0.0012391,0,0,0,0.034544,0.00045806,0.010501,-0.80117,0.015168,0.030338,9.2228e-07,0.48,0.8,0
0.022217,-0.0068061,0.034568,0.00051072,0.010524,-0.00047895,0,0,0.031258,-0.013017,0,-0.0012453,0,0,0,0.034575,0.00050399,0.010524,-0.80554,0.015201,0.030329,9.2341e-07,0.49,0.8,0
0.02253,-0.0069266,0.034606,0.00053839,0.010543,-0.00047369,0,0,0.031281,-0.013006,0,-0.0012316,0,0,0,0.034612,0.00053181,0.010543,-0.79646,0.015229,0.03034,9.2558e-07,0.5,0.8,0
0.022843,-0.0070463,0.034649,0.00054693,0.010559,-0.00046071,0,0,0.031317,-0.013015,0,-0.0011979,0,0,0,0.034655,0.00054071,0.010559,-0.77386,0.015252,0.030371,9.2878e-07,0.51,0.8,0
0.023156,-0.0071648,0.034698,0.00053582,0.01057,-0.00043995,0,0,0.031366,-0.013045,0,-0.0011439,0,0,0,0.034703,0.00053016,0.01057,-0.73771,0.015268,0.030422,9.33e-07,0.52,0.8,0
0.02347,-0.0072819,0.034751,0.00050491,0.010577,-0.00041125,0,0,0.031426,-0.013093,0,-0.0010693,0,0,0,0.034756,0.00049997,0.010577,-0.68792,0.015277,0.030493,9.3818e-07,0.53,0.8,0
0.023785,-0.0073976,0.034807,0.00045433,0.010578,-0.00037434,0,0,0.031497,-0.013161,0,-0.00097329,0,0,0,0.034811,0.00045025,0.010578,-0.62425,0.01528,0.030582,9.4421e-07,0.54,0.8,0
0.0241,-0.0075114,0.034865,0.00038433,0.010575,-0.00032881,0,0,0.031578,-0.013248,0,-0.00085492,0,0,0,0.034868,0.0003812,0.010575,-0.54631,0.015275,0.030688,9.5097e-07,0.55,0.8,0
0.024416,-0.0076233,0.034923,0.00029482,0.010565,-0.00027395,0,0,0.031665,-0.013352,0,-0.00071228,0,0,0,0.034925,0.00029265,0.010565,-0.45325,0.015261,0.030808,9.583e-07,0.56,0.8,0
0.024733,-0.0077331,0.034977,0.00018426,0.010548,-0.00020852,0,0,0.031757,-0.013473,0,-0.00054216,0,0,0,0.034978,0.00018301,0.010548,-0.34338,0.015236,0.030943,9.6599e-07,0.57,0.8,0
0.025052,-0.0078407,0.035021,4.8741e-05,0.010521,-0.0001312,0,0,0.03185,-0.013614,0,-0.00034112,0,0,0,0.035022,4.8249e-05,0.010521,-0.21494,0.015197,0.031089,9.7368e-07,0.58,0.8,0
0.025371,-0.0079461,0.035046,-0.00011567,0.010479,-4.7457e-05,0,0,0.031937,-0.013773,0,-0.00012339,0,0,0,0.035046,-0.00011574,0.010479,-0.07733,0.015137,0.031242,9.8061e-07,0.59,0.8,0
0.02569,-0.0080496,0.035067,-0.00030327,0.010429,1.7613e-05,0,0,0.03203,-0.013952,0,4.5794e-05,0,0,0,0.035067,-0.00030327,0.010429,0.028531,0.015064,0.031411,9.8794e-07,0.6,0.8,0
0.026011,-0.0081525,0.035115,-0.00058232,0.01036,1.1412e-05,0,0,0.032182,-0.014225,0,2.9671e-05,0,0,0,0.035115,-0.00058233,0.01036,0.018317,0.014964,0.031677,1.0001e-06,0.61,0.8,0
0.026334,-0.0082565,0.035234,-0.0011143,0.010236,-7.4573e-05,0,0,0.032497,-0.014755,0,-0.00019389,0,0,0,0.035234,-0.0011144,0.010236,-0.11755,0.014785,0.03221,1.0255e-06,0.62,0.8,0
0.026661,-0.0083628,0.03538,0.0022217,0.01128,-0.00017142,0,0,0.046302,-0.015702,0,-0.00069032,0,0,0,0.035381,0.0022207,0.01128,-0.30438,0.016294,0.029743,9.1653e-07,0.63,0.8,0
0.02726,-0.008475,0.035627,0.0055124,0.012342,-0.00015509,0,0,0.060542,-0.017757,0,-0.00080648,0,0,0,0.035628,0.0055116,0.012342,-0.29507,0.017827,0.027349,8.3378e-07,0.64,0.8,0
0.027872,-0.0085836,0.035848,0.0044479,0.012089,-3.4046e-05,0,0,0.061775,-0.019867,0,-0.00017704,0,0,0,0.035848,0.0044479,0.012089,-0.062123,0.017462,0.028363,8.9141e-07,0.65,0.8,0
0.028495,-0.0086849,0.036008,0.003501,0.011853,0.00013869,0,0,0.062804,-0.021715,0,0.00072118,0,0,0,0.036009,0.0035004,0.011853,0.24444,0.017121,0.029241,9.3967e-07,0.66,0.8,0
0.029128,-0.0087772,0.036086,0.0027148,0.01164,0.00030444,0,0,0.063558,-0.023206,0,0.0015831,0,0,0,0.036088,0.002712,0.01164,0.52264,0.016813,0.029928,9.7497e-07,0.67,0.8,0
0.029767,-0.0088606,0.036083,0.0020648,0.011444,0.00043782,0,0,0.064061,-0.024387,0,0.0022766,0,0,0,0.036089,0.0020592,0.011444,0.73723,0.016531,0.030442,9.9819e-07,0.68,0.8,0
0.030409,-0.0089359,0.036025,0.0015286,0.011266,0.00053661,0,0,0.064373,-0.025317,0,0.0027904,0,0,0,0.036033,0.0015203,0.011266,0.89099,0.016273,0.030818,1.0121e-06,0.69,0.8,0
0.031054,-0.0090039,0.03593,0.0010863,0.011105,0.00060737,0,0,0.064545,-0.026048,0,0.0031583,0,0,0,0.03594,0.0010757,0.011105,0.99834,0.01604,0.031088,1.0191e-06,0.7,0.8,0
0.0317,-0.0090656,0.035812,0.00072057,0.01096,0.00065717,0,0,0.064615,-0.026622,0,0.0034173,0,0,0,0.035824,0.00070827,0.01096,1.0725,0.015831,0.031276,1.0211e-06,0.71,0.8,0
0.032346,-0.0091217,0.03568,0.00041747,0.010829,0.00069163,0,0,0.064612,-0.027071,0,0.0035965,0,0,0,0.035694,0.00040391,0.010829,1.1232,0.015642,0.031403,1.0197e-06,0.72,0.8,0
0.032992,-0.0091725,0.035542,0.00016561,0.010712,0.00071477,0,0,0.064558,-0.027422,0,0.0037168,0,0,0,0.035557,0.00015118,0.010712,1.157,0.015473,0.031483,1.0158e-06,0.73,0.8,0
0.033638,-0.0092188,0.035403,-4.409e-05,0.010608,0.00072935,0,0,0.064467,-0.027694,0,0.0037926,0,0,0,0.035417,-5.9091e-05,0.010608,1.1783,0.015322,0.031527,1.0104e-06,0.74,0.8,0
0.034282,-0.0092608,0.035264,-0.00021892,0.010514,0.00073724,0,0,0.064351,-0.027904,0,0.0038337,0,0,0,0.035279,-0.00023423,0.010514,1.1898,0.015186,0.031544,1.0038e-06,0.75,0.8,0
0.034925,-0.0092989,0.035129,-0.00036473,0.010429,0.0007397,0,0,0.064219,-0.028064,0,0.0038465,0,0,0,0.035145,-0.00038014,0.010429,1.1934,0.015064,0.031541,9.9672e-07,0.76,0.8,0
0.035566,-0.0093333,0.034999,-0.00048629,0.010354,0.00073757,0,0,0.064077,-0.028184,0,0.0038354,0,0,0,0.035014,-0.00050161,0.010354,1.1902,0.014956,0.031523,9.8926e-07,0.77,0.8,0
0.036206,-0.0093644,0.034875,-0.00058748,0.010286,0.00073141,0,0,0.06393,-0.028272,0,0.0038033,0,0,0,0.03489,-0.00060256,0.010286,1.1811,0.014858,0.031493,9.817e-07,0.78,0.8,0
0.036845,-0.0093925,0.034757,-0.00067152,0.010226,0.00072162,0,0,0.063782,-0.028333,0,0.0037524,0,0,0,0.034772,-0.00068621,0.010226,1.1664,0.01477,0.031455,9.7418e-07,0.79,0.8,0
0.037482,-0.0094177,0.034646,-0.00074107,0.010171,0.00070849,0,0,0.063633,-0.028372,0,0.0036842,0,0,0,0.03466,-0.00075525,0.010171,1.1465,0.014692,0.031411,9.6682e-07,0.8,0.8,0
0.038117,-0.0094402,0.034542,-0.00079837,0.010123,0.00069224,0,0,0.063488,-0.028395,0,0.0035996,0,0,0,0.034555,-0.00081193,0.010123,1.1217,0.014622,0.031363,9.5969e-07,0.81,0.8,0
0.038752,-0.0094604,0.034444,-0.00084531,0.01008,0.00067304,0,0,0.063347,-0.028405,0,0.0034998,0,0,0,0.034457,-0.00085814,0.01008,1.0922,0.014559,0.031313,9.5286e-07,0.82,0.8,0
0.039384,-0.0094783,0.034353,-0.00088349,0.010041,0.00065106,0,0,0.063212,-0.028403,0,0.0033855,0,0,0,0.034365,-0.00089552,0.010041,1.0582,0.014504,0.031262,9.4635e-07,0.83,0.8,0
0.040016,-0.0094942,0.034269,-0.00091429,0.010006,0.00062644,0,0,0.063082,-0.028394,0,0.0032575,0,0,0,0.03428,-0.00092544,0.010006,1.0197,0.014454,0.03121,9.4021e-07,0.84,0.8,0
0.040646,-0.0095083,0.034191,-0.00093888,0.0099756,0.00059934,0,0,0.06296,-0.028378,0,0.0031166,0,0,0,0.034201,-0.00094911,0.0099756,0.97713,0.014409,0.031159,9.3443e-07,0.85,0.8,0
0.041275,-0.0095206,0.034119,-0.00095828,0.0099483,0.0005699,0,0,0.062844,-0.028357,0,0.0029635,0,0,0,0.034128,-0.00096754,0.0099483,0.93055,0.01437,0.031109,9.2904e-07,0.86,0.8,0
0.041903,-0.0095314,0.034054,-0.00097336,0.0099241,0.00053827,0,0,0.062737,-0.028333,0,0.002799,0,0,0,0.034062,-0.00098163,0.0099241,0.88021,0.014335,0.031061,9.2403e-07,0.87,0.8,0
0.04253,-0.0095409,0.033994,-0.00098487,0.0099027,0.00050462,0,0,0.062637,-0.028308,0,0.002624,0,0,0,0.034001,-0.00099215,0.0099027,0.82635,0.014304,0.031016,9.1941e-07,0.88,0.8,0
0.043156,-0.009549,0.033939,-0.00099347,0.0098838,0.00046908,0,0,0.062545,-0.028281,0,0.0024392,0,0,0,0.033946,-0.00099977,0.0098838,0.76919,0.014277,0.030973,9.1519e-07,0.89,0.8,0
0.043781,-0.0095561,0.033891,-0.00099972,0.0098673,0.00043184,0,0,0.062461,-0.028254,0,0.0022455,0,0,0,0.033896,-0.0010051,0.0098673,0.709,0.014253,0.030933,9.1134e-07,0.9,0.8,0
0.044405,-0.0095621,0.033847,-0.0010041,0.0098529,0.00039303,0,0,0.062385,-0.028228,0,0.0020438,0,0,0,0.033852,-0.0010085,0.0098529,0.64604,0.014232,0.030896,9.0789e-07,0.91,0.8,0
0.045028,-0.0095672,0.033809,-0.001007,0.0098405,0.00035284,0,0,0.062317,-0.028204,0,0.0018348,0,0,0,0.033812,-0.0010106,0.0098405,0.58058,0.014214,0.030863,9.0481e-07,0.92,0.8,0
0.045651,-0.0095715,0.033775,-0.0010089,0.0098299,0.0003114,0,0,0.062258,-0.028181,0,0.0016193,0,0,0,0.033778,-0.0010117,0.0098299,0.51289,0.014199,0.030833,9.0211e-07,0.93,0.8,0
0.046273,-0.0095751,0.033746,-0.0010099,0.0098209,0.0002689,0,0,0.062206,-0.02816,0,0.0013983,0,0,0,0.033748,-0.001012,0.0098209,0.44324,0.014186,0.030807,8.9978e-07,0.94,0.8,0
0.046895,-0.009578,0.033722,-0.0010104,0.0098135,0.00022547,0,0,0.062162,-0.028142,0,0.0011725,0,0,0,0.033724,-0.0010118,0.0098135,0.37192,0.014175,0.030785,8.9781e-07,0.95,0.8,0
0.047517,-0.0095803,0.033703,-0.0010105,0.0098076,0.00018129,0,0,0.062127,-0.028127,0,0.00094269,0,0,0,0.033703,-0.0010114,0.0098076,0.29921,0.014167,0.030767,8.9621e-07,0.96,0.8,0
0.048138,-0.009582,0.033687,-0.0010104,0.0098031,0.00013649,0,0,0.062099,-0.028115,0,0.00070976,0,0,0,0.033688,-0.001011,0.0098031,0.22538,0.01416,0.030752,8.9497e-07,0.97,0.8,0
0.048759,-0.0095832,0.033676,-0.0010103,0.0097999,9.1247e-05,0,0,0.062079,-0.028106,0,0.00047448,0,0,0,0.033677,-0.0010105,0.0097999,0.15072,0.014155,0.030742,8.9408e-07,0.98,0.8,0
0.049379,-0.0095839,0.03367,-0.0010102,0.009798,4.5699e-05,0,0,0.062067,-0.028101,0,0.00023763,0,0,0,0.03367,-0.0010103,0.009798,0.075499,0.014153,0.030736,8.9355e-07,0.99,0.8,0
0.05,-0.0095842,0.033668,-0.0010101,0.0097973,-4.5405e-06,0,0,0.062064,-0.028099,0,-2.3611e-05,0,0,0,0.033668,-0.0010101,0.0097973,-0.0075019,0.014152,0.030734,8.9337e-07,1,0.8,0
0,0,0.030631,0.013128,0.013128,-0.0048647,0,0,0.04551,5.421e-19,0,-0.025296,0,0,0,0.031893,0.011867,0.013128,-14.534,0.018962,0.019426,3.7117e-07,0,0.81,0
0.0004551,-0.00025297,0.030569,0.012368,0.012881,-0.0048535,0,0,0.045988,-0.0013348,0,-0.025238,0,0,0,0.031782,0.011154,0.012881,-14.036,0.018606,0.019821,3.8973e-07,0.01,0.81,0
0.00091977,-0.00050605,0.030826,0.011736,0.012769,-0.0048255,0,0,0.04695,-0.0026847,0,-0.025093,0,0,0,0.031977,0.010586,0.012769,-13.409,0.018444,0.020387,4.1844e-07,0.02,0.81,0
0.0013941,-0.00075821,0.031085,0.011099,0.012655,-0.0047686,0,0,0.047917,-0.0040467,0,-0.024797,0,0,0,0.032164,0.010019,0.012655,-12.755,0.018279,0.020952,4.4727e-07,0.03,0.81,0
0.0018781,-0.0010083,0.031343,0.010458,0.01254,-0.004682,0,0,0.048887,-0.0054143,0,-0.024346,0,0,0,0.032344,0.0094561,0.01254,-12.075,0.018114,0.021513,4.761e-07,0.04,0.81,0
0.0023718,-0.0012553,0.031599,0.0098178,0.012425,-0.0045657,0,0,0.049852,-0.0067788,0,-0.023742,0,0,0,0.032517,0.0088994,0.012425,-11.373,0.017947,0.022067,5.0475e-07,0.05,0.81,0
0.0028751,-0.0014979,0.031851,0.0091834,0.01231,-0.0044208,0,0,0.050806,-0.0081302,0,-0.022988,0,0,0,0.032683,0.0083517,0.01231,-10.654,0.017782,0.022613,5.3307e-07,0.06,0.81,0
0.0033879,-0.0017352,0.032099,0.0085594,0.012197,-0.0042492,0,0,0.051743,-0.0094587,0,-0.022096,0,0,0,0.032842,0.0078159,0.012197,-9.9256,0.017618,0.023148,5.6092e-07,0.07,0.81,0
0.00391,-0.0019661,0.032339,0.0079506,0.012087,-0.0040535,0,0,0.052656,-0.010754,0,-0.021078,0,0,0,0.032995,0.0072945,0.012087,-9.1938,0.017459,0.023671,5.8819e-07,0.08,0.81,0
0.0044411,-0.0021896,0.032572,0.0073613,0.01198,-0.0038372,0,0,0.05354,-0.012009,0,-0.019953,0,0,0,0.033143,0.0067902,0.01198,-8.4652,0.017305,0.02418,6.1481e-07,0.09,0.81,0
0.0049808,-0.0024049,0.032798,0.0067954,0.011878,-0.0036038,0,0,0.054391,-0.013215,0,-0.01874,0,0,0,0.033288,0.0063052,0.011878,-7.7465,0.017157,0.024673,6.4074e-07,0.1,0.81,0
0.0055289,-0.0026114,0.033016,0.0062564,0.011782,-0.0033574,0,0,0.055208,-0.014365,0,-0.017458,0,0,0,0.03343,0.0058416,0.011782,-7.0433,0.017018,0.02515,6.6597e-07,0.11,0.81,0
0.006085,-0.0028085,0.033226,0.0057473,0.011692,-0.0031018,0,0,0.055989,-0.015456,0,-0.016129,0,0,0,0.033572,0.0054015,0.011692,-6.3608,0.016889,0.025611,6.905e-07,0.12,0.81,0
0.0066487,-0.0029958,0.033431,0.0052709,0.011611,-0.0028408,0,0,0.056733,-0.016483,0,-0.014772,0,0,0,0.033715,0.0049872,0.011611,-5.7035,0.016771,0.026055,7.1437e-07,0.13,0.81,0
0.0072196,-0.003173,0.033631,0.0048298,0.011538,-0.0025779,0,0,0.057441,-0.017442,0,-0.013405,0,0,0,0.03386,0.0046009,0.011538,-5.0747,0.016666,0.026481,7.3759e-07,0.14,0.81,0
0.0077975,-0.00334,0.033827,0.004427,0.011476,-0.0023162,0,0,0.058111,-0.018328,0,-0.012044,0,0,0,0.034008,0.0042456,0.011476,-4.4772,0.016577,0.026887,7.6015e-07,0.15,0.81,0
0.0083819,-0.0034967,0.03402,0.0040655,0.011426,-0.0020582,0,0,0.058745,-0.019136,0,-0.010703,0,0,0,0.034161,0.0039248,0.011426,-3.9123,0.016504,0.02727,7.8201e-07,0.16,0.81,0
0.0089724,-0.0036431,0.034211,0.0037494,0.011388,-0.0018055,0,0,0.05934,-0.019861,0,-0.0093887,0,0,0,0.034318,0.0036428,0.011388,-3.3802,0.01645,0.027629,8.0307e-07,0.17,0.81,0
0.0095687,-0.0037794,0.034401,0.0034836,0.011365,-0.0015591,0,0,0.059893,-0.020493,0,-0.0081075,0,0,0,0.034479,0.0034052,0.011365,-2.8796,0.016417,0.027957,8.2314e-07,0.18,0.81,0
0.01017,-0.0039056,0.034589,0.0032742,0.011359,-0.0013188,0,0,0.060398,-0.02102,0,-0.0068576,0,0,0,0.034644,0.0032188,0.011359,-2.4072,0.016407,0.028249,8.4191e-07,0.19,0.81,0
0.010777,-0.004022,0.034774,0.0031293,0.011371,-0.0010827,0,0,0.060847,-0.021428,0,-0.0056298,0,0,0,0.034811,0.0030923,0.011371,-1.9572,0.016425,0.028496,8.5894e-07,0.2,0.81,0
0.011387,-0.0041285,0.034952,0.0030591,0.011404,-0.00084717,0,0,0.061227,-0.021695,0,-0.0044053,0,0,0,0.034975,0.0030367,0.011404,-1.5205,0.016472,0.028685,8.7358e-07,0.21,0.81,0
0.012001,-0.0042252,0.035121,0.0030768,0.011459,-0.00060627,0,0,0.061521,-0.021795,0,-0.0031526,0,0,0,0.035133,0.0030653,0.011459,-1.0835,0.016553,0.028803,8.8493e-07,0.22,0.81,0
0.012618,-0.0043119,0.035272,0.0031988,0.011541,-0.00035127,0,0,0.061701,-0.021691,0,-0.0018266,0,0,0,0.035276,0.003195,0.011541,-0.62741,0.016671,0.028829,8.9173e-07,0.23,0.81,0
0.013235,-0.0043882,0.035393,0.0034469,0.011652,-7.156e-05,0,0,0.061726,-0.021333,0,-0.00037211,0,0,0,0.035393,0.0034467,0.011652,-0.12834,0.01683,0.028736,8.9203e-07,0.24,0.81,0
0.013852,-0.0044538,0.035449,0.0038489,0.011789,0.0002404,0,0,0.061514,-0.020645,0,0.0012501,0,0,0,0.03545,0.0038471,0.011789,0.43585,0.017029,0.028475,8.8219e-07,0.25,0.81,0
0.014465,-0.0045089,0.035381,0.0044559,0.011951,0.00056056,0,0,0.060918,-0.019488,0,0.0029149,0,0,0,0.035391,0.0044457,0.011951,1.0381,0.017263,0.027959,8.5572e-07,0.26,0.81,0
0.015071,-0.0045572,0.035241,0.0053944,0.01219,0.0007937,0,0,0.059931,-0.01767,0,0.0041272,0,0,0,0.035262,0.0053733,0.01219,1.5222,0.017608,0.02713,8.1141e-07,0.27,0.81,0
0.015664,-0.0046072,0.035054,0.0021454,0.01116,0.00075872,0,0,0.045903,-0.015625,0,0.0031408,0,0,0,0.035073,0.0021263,0.01116,1.3707,0.01612,0.029544,8.9519e-07,0.28,0.81,0
0.015988,-0.0046878,0.034978,-0.0012973,0.010104,0.00050692,0,0,0.032336,-0.014822,0,0.001318,0,0,0,0.034985,-0.0013043,0.010104,0.80046,0.014595,0.032141,1.0094e-06,0.29,0.81,0
0.016311,-0.0047786,0.034897,-0.0011933,0.010111,0.00023455,0,0,0.032222,-0.014696,0,0.00060982,0,0,0,0.034899,-0.0011948,0.010111,0.37233,0.014605,0.031977,9.9907e-07,0.3,0.81,0
0.016633,-0.0048766,0.034881,-0.001285,0.010079,0.00016655,0,0,0.032243,-0.014773,0,0.00043303,0,0,0,0.034882,-0.0012857,0.010079,0.26384,0.014559,0.032035,1.0002e-06,0.31,0.81,0
0.016956,-0.0049782,0.034906,-0.0012253,0.010104,0.00017026,0,0,0.032243,-0.014729,0,0.00044267,0,0,0,0.034907,-0.0012261,0.010104,0.26998,0.014595,0.032009,1.0006e-06,0.32,0.81,0
0.017278,-0.0050817,0.034865,-0.0011465,0.010115,0.00016588,0,0,0.032174,-0.014641,0,0.00043129,0,0,0,0.034866,-0.0011472,0.010115,0.26392,0.014611,0.031909,9.9495e-07,0.33,0.81,0
0.017599,-0.0051871,0.034808,-0.0010638,0.010123,0.00013795,0,0,0.03209,-0.014543,0,0.00035866,0,0,0,0.034808,-0.0010643,0.010123,0.22033,0.014622,0.031791,9.878e-07,0.34,0.81,0
0.01792,-0.0052942,0.034753,-0.00096854,0.010135,9.5832e-05,0,0,0.032003,-0.014435,0,0.00024916,0,0,0,0.034753,-0.00096879,0.010135,0.15371,0.01464,0.031666,9.8056e-07,0.35,0.81,0
0.018239,-0.0054033,0.034702,-0.00085822,0.010153,4.509e-05,0,0,0.031914,-0.014315,0,0.00011723,0,0,0,0.034702,-0.00085828,0.010153,0.07265,0.014666,0.031531,9.7321e-07,0.36,0.81,0
0.018558,-0.005514,0.034653,-0.00073547,0.010175,-1.1136e-05,0,0,0.031822,-0.014184,0,-2.8953e-05,0,0,0,0.034653,-0.00073547,0.010175,-0.018029,0.014698,0.03139,9.6573e-07,0.37,0.81,0
0.018876,-0.0056266,0.034608,-0.00060442,0.010201,-7.0428e-05,0,0,0.031729,-0.014047,0,-0.00018311,0,0,0,0.034608,-0.00060456,0.010201,-0.1146,0.014735,0.031244,9.5828e-07,0.38,0.81,0
0.019193,-0.0057407,0.034566,-0.0004692,0.010229,-0.00013061,0,0,0.031638,-0.013908,0,-0.00033958,0,0,0,0.034567,-0.00046968,0.010229,-0.21358,0.014775,0.031099,9.5109e-07,0.39,0.81,0
0.019508,-0.0058563,0.03453,-0.00033339,0.010259,-0.00018982,0,0,0.031552,-0.01377,0,-0.00049353,0,0,0,0.034531,-0.00033442,0.010259,-0.31194,0.014819,0.030959,9.4432e-07,0.4,0.81,0
0.019824,-0.0059734,0.0345,-0.00020005,0.01029,-0.0002466,0,0,0.031473,-0.013637,0,-0.00064116,0,0,0,0.034501,-0.0002018,0.01029,-0.40715,0.014863,0.030827,9.3813e-07,0.41,0.81,0
0.020138,-0.0060916,0.034476,-7.1802e-05,0.010321,-0.00029979,0,0,0.031401,-0.013511,0,-0.00077946,0,0,0,0.034478,-7.4403e-05,0.010321,-0.49714,0.014908,0.030705,9.3259e-07,0.42,0.81,0
0.020452,-0.0062108,0.034459,4.902e-05,0.010352,-0.00034847,0,0,0.031338,-0.013394,0,-0.00090603,0,0,0,0.034462,4.5492e-05,0.010352,-0.58017,0.014953,0.030594,9.2781e-07,0.43,0.81,0
0.020765,-0.0063309,0.034448,0.00016032,0.010382,-0.00039188,0,0,0.031285,-0.013289,0,-0.0010189,0,0,0,0.034452,0.00015584,0.010382,-0.65472,0.014997,0.030498,9.2383e-07,0.44,0.81,0
0.021077,-0.0064516,0.034444,0.00026019,0.010411,-0.00042934,0,0,0.031243,-0.013197,0,-0.0011163,0,0,0,0.03445,0.00025479,0.010411,-0.71946,0.015039,0.030416,9.2071e-07,0.45,0.81,0
0.021389,-0.0065726,0.034448,0.00034687,0.010438,-0.00046031,0,0,0.031212,-0.013119,0,-0.0011968,0,0,0,0.034454,0.00034066,0.010438,-0.77321,0.015078,0.030352,9.1852e-07,0.46,0.81,0
0.021701,-0.0066939,0.034458,0.0004188,0.010463,-0.00048432,0,0,0.031193,-0.013057,0,-0.0012592,0,0,0,0.034465,0.00041191,0.010463,-0.815,0.015113,0.030304,9.1729e-07,0.47,0.81,0
0.022013,-0.0068151,0.034475,0.00047456,0.010485,-0.00050103,0,0,0.031187,-0.013014,0,-0.0013027,0,0,0,0.034483,0.00046718,0.010485,-0.84407,0.015145,0.030276,9.1708e-07,0.48,0.81,0
0.022325,-0.0069361,0.0345,0.00051294,0.010504,-0.00051019,0,0,0.031195,-0.012988,0,-0.0013265,0,0,0,0.034507,0.00050528,0.010504,-0.85984,0.015172,0.030268,9.1793e-07,0.49,0.81,0
0.022637,-0.0070566,0.034531,0.00053291,0.010519,-0.00051161,0,0,0.031216,-0.012982,0,-0.0013302,0,0,0,0.034539,0.00052521,0.010519,-0.86192,0.015194,0.03028,9.1987e-07,0.5,0.81,0
0.02295,-0.0071763,0.03457,0.00053367,0.010531,-0.00050506,0,0,0.03125,-0.012997,0,-0.0013132,0,0,0,0.034577,0.00052617,0.010531,-0.84996,0.015211,0.030313,9.2292e-07,0.51,0.81,0
0.023262,-0.0072952,0.034615,0.00051462,0.010539,-0.00049027,0,0,0.031299,-0.013031,0,-0.0012747,0,0,0,0.034622,0.00050757,0.010539,-0.82352,0.015223,0.030368,9.2709e-07,0.52,0.81,0
0.023575,-0.0074129,0.034667,0.00047545,0.010543,-0.00046678,0,0,0.031361,-0.013087,0,-0.0012136,0,0,0,0.034673,0.00046908,0.010543,-0.78201,0.015228,0.030444,9.3237e-07,0.53,0.81,0
0.02389,-0.0075292,0.034724,0.00041619,0.010542,-0.00043399,0,0,0.031437,-0.013164,0,-0.0011284,0,0,0,0.03473,0.0004107,0.010542,-0.72464,0.015227,0.030541,9.3872e-07,0.54,0.81,0
0.024204,-0.0076439,0.034787,0.0003372,0.010537,-0.0003913,0,0,0.031524,-0.01326,0,-0.0010174,0,0,0,0.034791,0.00033276,0.010537,-0.65068,0.01522,0.030658,9.461e-07,0.55,0.81,0
0.02452,-0.0077569,0.034855,0.00023874,0.010528,-0.00033827,0,0,0.031625,-0.013376,0,-0.00087951,0,0,0,0.034858,0.00023544,0.010528,-0.55982,0.015207,0.030795,9.5454e-07,0.56,0.81,0
0.024837,-0.007868,0.034931,0.00011964,0.010515,-0.00027435,0,0,0.031741,-0.013514,0,-0.00071332,0,0,0,0.034933,0.00011748,0.010515,-0.45152,0.015189,0.030956,9.6425e-07,0.57,0.81,0
0.025155,-0.0079772,0.035015,-2.6162e-05,0.010497,-0.0001973,0,0,0.031874,-0.01368,0,-0.00051297,0,0,0,0.035016,-2.7273e-05,0.010497,-0.32258,0.015162,0.031145,9.7549e-07,0.58,0.81,0
0.025474,-0.0080843,0.03509,-0.00021003,0.010464,-0.00010172,0,0,0.032014,-0.013876,0,-0.00026446,0,0,0,0.035091,-0.00021032,0.010464,-0.16509,0.015115,0.031357,9.8716e-07,0.59,0.81,0
0.025795,-0.0081894,0.035106,-0.00041924,0.010406,-7.3415e-06,0,0,0.03211,-0.014073,0,-1.9088e-05,0,0,0,0.035106,-0.00041924,0.010406,-0.011841,0.015031,0.031538,9.9457e-07,0.6,0.81,0
0.026116,-0.0082945,0.035165,-0.00052034,0.010393,2.0507e-06,0,0,0.032203,-0.014188,0,5.3317e-06,0,0,0,0.035165,-0.00052034,0.010393,0.0032925,0.015013,0.031672,1.0026e-06,0.61,0.81,0
0.026439,-0.0084033,0.035292,-0.00084784,0.010333,-0.00021304,0,0,0.032446,-0.014535,0,-0.0005539,0,0,0,0.035293,-0.00084909,0.010333,-0.33774,0.014926,0.032049,1.0231e-06,0.62,0.81,0
0.026765,-0.0085194,0.035408,0.0023351,0.011323,-0.00042944,0,0,0.046311,-0.015579,0,-0.0017864,0,0,0,0.035414,0.002329,0.011323,-0.77306,0.016355,0.029688,9.1522e-07,0.63,0.81,0
0.027365,-0.0086533,0.035657,0.0053695,0.012308,-0.00043996,0,0,0.060707,-0.01804,0,-0.0022878,0,0,0,0.035663,0.0053631,0.012308,-0.83205,0.017778,0.027493,8.4215e-07,0.64,0.81,0
0.02798,-0.0087837,0.035852,0.0041763,0.012008,-0.00020929,0,0,0.061992,-0.020363,0,-0.0010883,0,0,0,0.035853,0.0041749,0.012008,-0.37855,0.017345,0.028578,9.0201e-07,0.65,0.81,0
0.028605,-0.0089035,0.035977,0.0032731,0.011775,7.512e-05,0,0,0.062926,-0.022105,0,0.00039063,0,0,0,0.035978,0.0032729,0.011775,0.1316,0.017008,0.029391,9.4544e-07,0.66,0.81,0
0.029238,-0.0090102,0.035981,0.0025425,0.011557,0.0003203,0,0,0.063502,-0.023438,0,0.0016656,0,0,0,0.035984,0.0025394,0.011557,0.54876,0.016694,0.029971,9.7242e-07,0.67,0.81,0
0.029875,-0.0091049,0.03592,0.0019392,0.011358,0.0005039,0,0,0.063861,-0.024488,0,0.0026203,0,0,0,0.035927,0.0019318,0.011358,0.84939,0.016405,0.030399,9.8892e-07,0.68,0.81,0
0.030515,-0.009189,0.035824,0.0014393,0.011179,0.00063512,0,0,0.064078,-0.025323,0,0.0033026,0,0,0,0.035836,0.0014276,0.011179,1.0578,0.016148,0.030717,9.984e-07,0.69,0.81,0
0.031157,-0.0092641,0.035709,0.0010238,0.01102,0.00072641,0,0,0.064192,-0.02599,0,0.0037773,0,0,0,0.035724,0.0010086,0.01102,1.1992,0.015918,0.030949,1.0028e-06,0.7,0.81,0
0.031799,-0.0093314,0.035582,0.00067785,0.010878,0.00078834,0,0,0.064231,-0.02652,0,0.0040994,0,0,0,0.0356,0.00066005,0.010878,1.2932,0.015713,0.031116,1.0035e-06,0.71,0.81,0
0.032441,-0.0093918,0.035448,0.00038923,0.010751,0.00082892,0,0,0.064212,-0.026941,0,0.0043104,0,0,0,0.035468,0.00036964,0.010751,1.3537,0.01553,0.03123,1.0014e-06,0.72,0.81,0
0.033083,-0.0094461,0.035312,0.00014819,0.010638,0.00085388,0,0,0.064152,-0.027274,0,0.0044402,0,0,0,0.035333,0.00012746,0.010638,1.3902,0.015366,0.031303,9.9744e-07,0.73,0.81,0
0.033724,-0.009495,0.035176,-5.3234e-05,0.010537,0.00086728,0,0,0.064062,-0.027534,0,0.0045098,0,0,0,0.035197,-7.4571e-05,0.010537,1.4094,0.01522,0.031344,9.9212e-07,0.74,0.81,0
0.034364,-0.0095391,0.035043,-0.00022152,0.010446,0.0008719,0,0,0.06395,-0.027737,0,0.0045338,0,0,0,0.035064,-0.00024306,0.010446,1.4155,0.015089,0.03136,9.8591e-07,0.75,0.81,0
0.035003,-0.0095787,0.034913,-0.00036198,0.010365,0.00086967,0,0,0.063825,-0.027891,0,0.0045223,0,0,0,0.034935,-0.00038341,0.010365,1.4114,0.014972,0.031357,9.7915e-07,0.76,0.81,0
0.035641,-0.0096144,0.034789,-0.00047902,0.010293,0.00086192,0,0,0.06369,-0.028007,0,0.004482,0,0,0,0.03481,-0.00050007,0.010293,1.3991,0.014868,0.03134,9.721e-07,0.77,0.81,0
0.036277,-0.0096463,0.034671,-0.00057626,0.010228,0.00084957,0,0,0.06355,-0.028092,0,0.0044178,0,0,0,0.034691,-0.00059672,0.010228,1.38,0.014774,0.031312,9.6495e-07,0.78,0.81,0
0.036912,-0.009675,0.034558,-0.00065675,0.010171,0.00083327,0,0,0.063409,-0.028151,0,0.004333,0,0,0,0.034578,-0.00067645,0.010171,1.3547,0.014691,0.031275,9.5784e-07,0.79,0.81,0
0.037545,-0.0097006,0.034453,-0.00072305,0.010119,0.00081347,0,0,0.063268,-0.028189,0,0.00423,0,0,0,0.034472,-0.00074186,0.010119,1.3241,0.014616,0.031233,9.5087e-07,0.8,0.81,0
0.038177,-0.0097233,0.034353,-0.00077734,0.010073,0.00079053,0,0,0.06313,-0.02821,0,0.0041107,0,0,0,0.034371,-0.00079512,0.010073,1.2884,0.01455,0.031186,9.4411e-07,0.81,0.81,0
0.038808,-0.0097436,0.034261,-0.00082147,0.010032,0.00076469,0,0,0.062995,-0.028218,0,0.0039764,0,0,0,0.034277,-0.00083813,0.010032,1.2481,0.01449,0.031137,9.3763e-07,0.82,0.81,0
0.039437,-0.0097615,0.034174,-0.00085701,0.0099952,0.0007362,0,0,0.062866,-0.028216,0,0.0038282,0,0,0,0.03419,-0.00087248,0.0099952,1.2034,0.014438,0.031087,9.3145e-07,0.83,0.81,0
0.040065,-0.0097773,0.034094,-0.00088534,0.0099627,0.00070522,0,0,0.062742,-0.028205,0,0.0036672,0,0,0,0.034108,-0.00089955,0.0099627,1.1545,0.014391,0.031037,9.256e-07,0.84,0.81,0
0.040692,-0.0097912,0.03402,-0.00090761,0.0099338,0.00067195,0,0,0.062625,-0.028188,0,0.0034941,0,0,0,0.034033,-0.00092053,0.0099338,1.1017,0.014349,0.030987,9.2011e-07,0.85,0.81,0
0.041318,-0.0098033,0.033952,-0.00092484,0.0099083,0.00063653,0,0,0.062515,-0.028166,0,0.0033099,0,0,0,0.033964,-0.00093646,0.0099083,1.0452,0.014312,0.030938,9.1497e-07,0.86,0.81,0
0.041942,-0.0098139,0.03389,-0.00093791,0.0098857,0.00059912,0,0,0.062412,-0.028141,0,0.0031154,0,0,0,0.033901,-0.00094822,0.0098857,0.98523,0.014279,0.030891,9.1021e-07,0.87,0.81,0
0.042566,-0.009823,0.033834,-0.00094757,0.0098658,0.00055989,0,0,0.062316,-0.028115,0,0.0029114,0,0,0,0.033843,-0.00095658,0.0098658,0.922,0.014251,0.030846,9.0581e-07,0.88,0.81,0
0.043189,-0.0098309,0.033782,-0.00095447,0.0098484,0.00051898,0,0,0.062228,-0.028087,0,0.0026987,0,0,0,0.03379,-0.00096223,0.0098484,0.85576,0.014225,0.030804,9.0179e-07,0.89,0.81,0
0.043811,-0.0098377,0.033736,-0.00095918,0.0098331,0.00047654,0,0,0.062148,-0.02806,0,0.002478,0,0,0,0.033743,-0.00096572,0.0098331,0.78676,0.014203,0.030765,8.9813e-07,0.9,0.81,0
0.044432,-0.0098435,0.033695,-0.00096218,0.0098199,0.00043272,0,0,0.062076,-0.028033,0,0.0022502,0,0,0,0.033701,-0.00096758,0.0098199,0.71523,0.014184,0.030729,8.9484e-07,0.91,0.81,0
0.045052,-0.0098484,0.033659,-0.00096387,0.0098085,0.00038768,0,0,0.062011,-0.028008,0,0.0020159,0,0,0,0.033663,-0.00096821,0.0098085,0.64145,0.014168,0.030696,8.9192e-07,0.92,0.81,0
0.045672,-0.0098524,0.033627,-0.00096462,0.0097988,0.00034155,0,0,0.061954,-0.027985,0,0.0017761,0,0,0,0.033631,-0.00096799,0.0097988,0.56565,0.014154,0.030667,8.8935e-07,0.93,0.81,0
0.046291,-0.0098558,0.0336,-0.00096472,0.0097906,0.00029448,0,0,0.061905,-0.027964,0,0.0015313,0,0,0,0.033603,-0.00096723,0.0097906,0.48809,0.014142,0.030642,8.8713e-07,0.94,0.81,0
0.04691,-0.0098585,0.033577,-0.00096441,0.0097839,0.00024661,0,0,0.061863,-0.027946,0,0.0012824,0,0,0,0.033579,-0.00096617,0.0097839,0.40903,0.014132,0.03062,8.8526e-07,0.95,0.81,0
0.047529,-0.0098606,0.033559,-0.00096389,0.0097785,0.00019808,0,0,0.061829,-0.02793,0,0.00103,0,0,0,0.03356,-0.00096503,0.0097785,0.32872,0.014124,0.030602,8.8374e-07,0.96,0.81,0
0.048147,-0.0098622,0.033545,-0.00096334,0.0097744,0.00014902,0,0,0.061803,-0.027918,0,0.00077488,0,0,0,0.033545,-0.00096398,0.0097744,0.24741,0.014119,0.030588,8.8256e-07,0.97,0.81,0
0.048765,-0.0098633,0.033535,-0.00096285,0.0097715,9.9562e-05,0,0,0.061784,-0.027909,0,0.00051772,0,0,0,0.033535,-0.00096314,0.0097715,0.16536,0.014114,0.030578,8.8172e-07,0.98,0.81,0
0.049382,-0.009864,0.033529,-0.00096253,0.0097698,4.9846e-05,0,0,0.061773,-0.027904,0,0.0002592,0,0,0,0.033529,-0.0009626,0.0097698,0.082803,0.014112,0.030572,8.8122e-07,0.99,0.81,0
0.05,-0.0098642,0.033527,-0.00096241,0.0097693,-4.1987e-06,0,0,0.061769,-0.027902,0,-2.1833e-05,0,0,0,0.033527,-0.00096242,0.0097693,-0.0069752,0.014111,0.03057,8.8105e-07,1,0.81,0
0,0,0.030677,0.013147,0.013147,-0.0051268,0,0,0.045577,0,0,-0.026659,0,0,0,0.032066,0.011758,0.013147,-15.162,0.01899,0.01965,3.8314e-07,0,0.82,0
0.00045577,-0.00026659,0.030611,0.012355,0.01289,-0.005116,0,0,0.046076,-0.0013908,0,-0.026603,0,0,0,0.031947,0.011019,0.01289,-14.634,0.018619,0.020058,4.0235e-07,0.01,0.82,0
0.00092151,-0.00053348,0.03088,0.011695,0.012772,-0.0050895,0,0,0.047079,-0.0028017,0,-0.026466,0,0,0,0.032146,0.010428,0.012772,-13.975,0.018449,0.020646,4.3241e-07,0.02,0.82,0
0.0013973,-0.00079957,0.031148,0.011026,0.012652,-0.005033,0,0,0.048089,-0.0042276,0,-0.026172,0,0,0,0.032337,0.0098378,0.012652,-13.288,0.018276,0.021232,4.6261e-07,0.03,0.82,0
0.0018833,-0.0010637,0.031416,0.010354,0.012531,-0.0049448,0,0,0.049101,-0.0056596,0,-0.025713,0,0,0,0.032519,0.0092512,0.012531,-12.576,0.0181,0.021814,4.9273e-07,0.04,0.82,0
0.0023794,-0.0013246,0.031681,0.0096837,0.012409,-0.0048249,0,0,0.050105,-0.0070866,0,-0.025089,0,0,0,0.032692,0.0086719,0.012409,-11.843,0.017924,0.022387,5.2253e-07,0.05,0.82,0
0.0028854,-0.001581,0.03194,0.0090202,0.012288,-0.0046743,0,0,0.051095,-0.0084963,0,-0.024306,0,0,0,0.032856,0.0081036,0.012288,-11.095,0.017749,0.022949,5.5179e-07,0.06,0.82,0
0.0034013,-0.0018319,0.032191,0.0083698,0.012168,-0.0044952,0,0,0.05206,-0.0098764,0,-0.023375,0,0,0,0.033011,0.0075497,0.012168,-10.338,0.017576,0.023495,5.8033e-07,0.07,0.82,0
0.0039266,-0.0020759,0.032434,0.0077379,0.012052,-0.004291,0,0,0.052995,-0.011216,0,-0.022313,0,0,0,0.033159,0.0070136,0.012052,-9.5811,0.017408,0.024025,6.0802e-07,0.08,0.82,0
0.0044611,-0.0023121,0.032667,0.0071295,0.011939,-0.0040653,0,0,0.053893,-0.012505,0,-0.02114,0,0,0,0.033299,0.0064979,0.011939,-8.8302,0.017245,0.024537,6.3476e-07,0.09,0.82,0
0.0050045,-0.0025396,0.03289,0.0065487,0.011832,-0.0038227,0,0,0.054751,-0.013735,0,-0.019878,0,0,0,0.033433,0.0060052,0.011832,-8.0927,0.01709,0.025029,6.6051e-07,0.1,0.82,0
0.0055562,-0.0027577,0.033102,0.0059991,0.01173,-0.0035675,0,0,0.055567,-0.014901,0,-0.018551,0,0,0,0.033564,0.0055374,0.01173,-7.3744,0.016944,0.0255,6.8529e-07,0.11,0.82,0
0.0061158,-0.0029658,0.033306,0.0054835,0.011637,-0.0033041,0,0,0.056339,-0.015998,0,-0.017182,0,0,0,0.033693,0.0050965,0.011637,-6.6806,0.016809,0.025952,7.0912e-07,0.12,0.82,0
0.006683,-0.0031633,0.033501,0.0050045,0.011552,-0.0030367,0,0,0.057069,-0.017023,0,-0.015791,0,0,0,0.033821,0.0046845,0.011552,-6.0156,0.016686,0.026382,7.3206e-07,0.13,0.82,0
0.0072572,-0.0033501,0.03369,0.0045641,0.011476,-0.0027688,0,0,0.057757,-0.017972,0,-0.014398,0,0,0,0.033951,0.0043032,0.011476,-5.3825,0.016577,0.026792,7.5417e-07,0.14,0.82,0
0.0078381,-0.0035259,0.033875,0.0041648,0.011412,-0.0025036,0,0,0.058404,-0.018843,0,-0.013019,0,0,0,0.034084,0.0039553,0.011412,-4.7833,0.016484,0.027179,7.7547e-07,0.15,0.82,0
0.0084253,-0.0036906,0.034056,0.003809,0.01136,-0.0022434,0,0,0.059011,-0.019632,0,-0.011666,0,0,0,0.034222,0.0036435,0.01136,-4.2187,0.016408,0.027543,7.9598e-07,0.16,0.82,0
0.0090183,-0.0038442,0.034236,0.0034997,0.011321,-0.0019896,0,0,0.05958,-0.020334,0,-0.010346,0,0,0,0.034364,0.0033715,0.011321,-3.6883,0.016352,0.027881,8.1566e-07,0.17,0.82,0
0.0096168,-0.0039867,0.034415,0.003241,0.011297,-0.0017426,0,0,0.060107,-0.020945,0,-0.0090616,0,0,0,0.034512,0.0031439,0.011297,-3.1896,0.016318,0.02819,8.3441e-07,0.18,0.82,0
0.010221,-0.0041181,0.034595,0.0030377,0.01129,-0.0015016,0,0,0.060593,-0.021455,0,-0.0078086,0,0,0,0.034666,0.0029664,0.01129,-2.7183,0.016307,0.028466,8.5208e-07,0.19,0.82,0
0.010829,-0.0042385,0.034775,0.0028962,0.011301,-0.0012642,0,0,0.061031,-0.021853,0,-0.0065737,0,0,0,0.034825,0.0028461,0.011301,-2.2674,0.016324,0.028701,8.6839e-07,0.2,0.82,0
0.011441,-0.0043478,0.034956,0.0028248,0.011334,-0.0010257,0,0,0.061416,-0.022124,0,-0.0053335,0,0,0,0.034988,0.0027921,0.011334,-1.8265,0.016372,0.028889,8.83e-07,0.21,0.82,0
0.012057,-0.0044456,0.035138,0.0028341,0.011392,-0.00077909,0,0,0.061741,-0.02225,0,-0.0040513,0,0,0,0.035157,0.0028153,0.011392,-1.3808,0.016455,0.02902,8.9546e-07,0.22,0.82,0
0.012676,-0.0045315,0.035321,0.0029384,0.011478,-0.00051424,0,0,0.061993,-0.022203,0,-0.002674,0,0,0,0.03533,0.0029303,0.011478,-0.90955,0.016579,0.029083,9.0521e-07,0.23,0.82,0
0.013297,-0.0046048,0.035506,0.0031576,0.011599,-0.00021692,0,0,0.062157,-0.021947,0,-0.001128,0,0,0,0.035507,0.0031562,0.011599,-0.38419,0.016754,0.029064,9.1146e-07,0.24,0.82,0
0.013919,-0.0046642,0.035684,0.0035226,0.011762,0.00013308,0,0,0.062197,-0.021422,0,0.00069204,0,0,0,0.035684,0.003522,0.011762,0.23709,0.016989,0.028936,9.1256e-07,0.25,0.82,0
0.014541,-0.0047085,0.035777,0.0040692,0.011954,0.0005585,0,0,0.061941,-0.0205,0,0.0029042,0,0,0,0.035787,0.0040594,0.011954,1.0088,0.017267,0.028609,9.0107e-07,0.26,0.82,0
0.015158,-0.0047368,0.035577,0.0049475,0.012157,0.00096787,0,0,0.060892,-0.018746,0,0.0050329,0,0,0,0.035608,0.0049169,0.012157,1.8081,0.017561,0.027787,8.5487e-07,0.27,0.82,0
0.015759,-0.0047631,0.035565,0.0024694,0.01141,0.0010886,0,0,0.046421,-0.015498,0,0.0045291,0,0,0,0.035605,0.0024299,0.01141,1.9556,0.016482,0.029777,9.2819e-07,0.28,0.82,0
0.016086,-0.0048348,0.035548,-0.00056295,0.010495,0.00047503,0,0,0.032568,-0.014376,0,0.0012351,0,0,0,0.035554,-0.00056919,0.010495,0.75355,0.01516,0.032056,1.0375e-06,0.29,0.82,0
0.01641,-0.0049255,0.035183,-0.00136,0.010147,0.00023235,0,0,0.032547,-0.014959,0,0.0006041,0,0,0,0.035184,-0.0013615,0.010147,0.36428,0.014656,0.032364,1.0281e-06,0.3,0.82,0
0.016737,-0.0050253,0.03532,-0.0013114,0.010203,0.0002469,0,0,0.032653,-0.014968,0,0.00064195,0,0,0,0.035322,-0.0013131,0.010203,0.38616,0.014737,0.032447,1.0387e-06,0.31,0.82,0
0.017063,-0.005126,0.035188,-0.0011842,0.010201,0.00027826,0,0,0.032483,-0.014801,0,0.00072348,0,0,0,0.03519,-0.0011863,0.010201,0.43831,0.014735,0.032228,1.0238e-06,0.32,0.82,0
0.017387,-0.0052283,0.035029,-0.0011018,0.010178,0.00025074,0,0,0.032306,-0.014664,0,0.00065192,0,0,0,0.03503,-0.0011035,0.010178,0.3976,0.014702,0.03202,1.0078e-06,0.33,0.82,0
0.017709,-0.0053325,0.034917,-0.0010185,0.01017,0.00020742,0,0,0.032172,-0.014545,0,0.0005393,0,0,0,0.034919,-0.0010197,0.01017,0.3307,0.014689,0.031853,9.9589e-07,0.34,0.82,0
0.01803,-0.0054385,0.034834,-0.00091765,0.010175,0.0001589,0,0,0.032057,-0.01442,0,0.00041314,0,0,0,0.034835,-0.00091836,0.010175,0.25465,0.014697,0.031697,9.8597e-07,0.35,0.82,0
0.01835,-0.0055463,0.034761,-0.00080107,0.010188,0.00010472,0,0,0.031945,-0.014286,0,0.00027227,0,0,0,0.034762,-0.00080138,0.010188,0.16871,0.014716,0.031539,9.7659e-07,0.36,0.82,0
0.018669,-0.0056557,0.034695,-0.00067363,0.010207,4.4594e-05,0,0,0.031836,-0.014144,0,0.00011594,0,0,0,0.034695,-0.00067369,0.010207,0.072239,0.014743,0.031377,9.6747e-07,0.37,0.82,0
0.018987,-0.0057668,0.034635,-0.00054042,0.010228,-1.9724e-05,0,0,0.031729,-0.013999,0,-5.1282e-05,0,0,0,0.034635,-0.00054043,0.010228,-0.032127,0.014774,0.031217,9.5871e-07,0.38,0.82,0
0.019304,-0.0058795,0.034581,-0.0004053,0.010253,-8.5808e-05,0,0,0.031627,-0.013855,0,-0.0002231,0,0,0,0.034581,-0.00040551,0.010253,-0.14052,0.014809,0.031061,9.5047e-07,0.39,0.82,0
0.01962,-0.0059938,0.034534,-0.00027133,0.010279,-0.00015145,0,0,0.031532,-0.013715,0,-0.00039377,0,0,0,0.034535,-0.00027199,0.010279,-0.2493,0.014847,0.030913,9.4284e-07,0.4,0.82,0
0.019934,-0.0061095,0.034494,-0.00014111,0.010306,-0.00021493,0,0,0.031445,-0.013581,0,-0.00055881,0,0,0,0.034495,-0.00014244,0.010306,-0.35553,0.014886,0.030774,9.3593e-07,0.41,0.82,0
0.020248,-0.0062264,0.034461,-1.6968e-05,0.010333,-0.00027496,0,0,0.031366,-0.013455,0,-0.0007149,0,0,0,0.034463,-1.9161e-05,0.010333,-0.4569,0.014926,0.030647,9.2978e-07,0.42,0.82,0
0.020562,-0.0063445,0.034435,9.8942e-05,0.01036,-0.00033058,0,0,0.031298,-0.01334,0,-0.00085951,0,0,0,0.034438,9.5759e-05,0.01036,-0.55156,0.014965,0.030533,9.2445e-07,0.43,0.82,0
0.020874,-0.0064635,0.034417,0.00020464,0.010386,-0.00038099,0,0,0.031239,-0.013236,0,-0.00099058,0,0,0,0.034421,0.00020039,0.010386,-0.63795,0.015003,0.030434,9.1999e-07,0.44,0.82,0
0.021187,-0.0065833,0.034406,0.00029829,0.010411,-0.00042555,0,0,0.031193,-0.013147,0,-0.0011064,0,0,0,0.034411,0.00029299,0.010411,-0.71471,0.015038,0.030351,9.1647e-07,0.45,0.82,0
0.021498,-0.0067036,0.034402,0.00037827,0.010434,-0.00046368,0,0,0.031158,-0.013072,0,-0.0012056,0,0,0,0.034408,0.00037195,0.010434,-0.78066,0.015071,0.030286,9.1392e-07,0.46,0.82,0
0.02181,-0.0068243,0.034405,0.00044308,0.010455,-0.00049496,0,0,0.031136,-0.013015,0,-0.0012869,0,0,0,0.034412,0.00043587,0.010455,-0.83478,0.015101,0.030239,9.1239e-07,0.47,0.82,0
0.022121,-0.0069451,0.034416,0.00049144,0.010472,-0.00051901,0,0,0.031127,-0.012975,0,-0.0013494,0,0,0,0.034424,0.0004835,0.010472,-0.87628,0.015127,0.030211,9.1193e-07,0.48,0.82,0
0.022432,-0.0070658,0.034435,0.00052223,0.010487,-0.00053558,0,0,0.031132,-0.012955,0,-0.0013925,0,0,0,0.034444,0.00051377,0.010487,-0.90455,0.015148,0.030204,9.1258e-07,0.49,0.82,0
0.022744,-0.0071863,0.034462,0.00053447,0.010499,-0.00054446,0,0,0.031152,-0.012954,0,-0.0014156,0,0,0,0.034471,0.00052574,0.010499,-0.91915,0.015165,0.030219,9.1437e-07,0.5,0.82,0
0.023055,-0.0073062,0.034496,0.00052733,0.010507,-0.00054542,0,0,0.031186,-0.012974,0,-0.0014181,0,0,0,0.034505,0.00051858,0.010507,-0.91965,0.015177,0.030255,9.1736e-07,0.51,0.82,0
0.023367,-0.0074254,0.034539,0.00050008,0.010512,-0.00053814,0,0,0.031236,-0.013015,0,-0.0013992,0,0,0,0.034548,0.00049157,0.010512,-0.9055,0.015184,0.030315,9.2159e-07,0.52,0.82,0
0.02368,-0.0075437,0.034591,0.00045215,0.010513,-0.00052204,0,0,0.031301,-0.013079,0,-0.0013573,0,0,0,0.034599,0.00044417,0.010513,-0.87589,0.015185,0.030398,9.271e-07,0.53,0.82,0
0.023993,-0.0076608,0.03465,0.00038331,0.01051,-0.00049636,0,0,0.031382,-0.013165,0,-0.0012905,0,0,0,0.034658,0.00037612,0.01051,-0.8297,0.015181,0.030504,9.3391e-07,0.54,0.82,0
0.024308,-0.0077766,0.034719,0.00029405,0.010504,-0.00046042,0,0,0.03148,-0.013273,0,-0.0011971,0,0,0,0.034725,0.00028789,0.010504,-0.76614,0.015172,0.030634,9.4203e-07,0.55,0.82,0
0.024623,-0.0078908,0.034797,0.00018598,0.010495,-0.00041464,0,0,0.031593,-0.013402,0,-0.0010781,0,0,0,0.034802,0.00018101,0.010495,-0.68627,0.015159,0.030788,9.5154e-07,0.56,0.82,0
0.024939,-0.0080034,0.034891,6.0705e-05,0.010486,-0.00036191,0,0,0.031727,-0.013552,0,-0.00094098,0,0,0,0.034895,5.6945e-05,0.010486,-0.59526,0.015146,0.03097,9.6287e-07,0.57,0.82,0
0.025257,-0.0081143,0.035018,-8.2725e-05,0.010481,-0.00030589,0,0,0.031898,-0.013732,0,-0.00079532,0,0,0,0.03502,-8.5391e-05,0.010481,-0.49927,0.015138,0.031195,9.7756e-07,0.58,0.82,0
0.025577,-0.0082236,0.035198,-0.00026281,0.010481,-0.00024004,0,0,0.032133,-0.013966,0,-0.00062411,0,0,0,0.0352,-0.00026444,0.010481,-0.38783,0.015138,0.031497,9.9797e-07,0.59,0.82,0
0.0259,-0.0083311,0.03536,-0.00052531,0.01045,-0.00012544,0,0,0.032383,-0.014268,0,-0.00032616,0,0,0,0.03536,-0.00052575,0.01045,-0.20029,0.015095,0.03185,1.0195e-06,0.6,0.82,0
0.026225,-0.0084362,0.035257,-0.00075387,0.010351,-3.9661e-05,0,0,0.032378,-0.014436,0,-0.00010312,0,0,0,0.035257,-0.00075391,0.010351,-0.063103,0.014951,0.031941,1.0173e-06,0.61,0.82,0
0.026548,-0.0085472,0.035651,-0.0001703,0.010644,-0.0002229,0,0,0.032509,-0.014059,0,-0.00057955,0,0,0,0.035652,-0.00017168,0.010644,-0.35652,0.015375,0.031825,1.034e-06,0.62,0.82,0
0.026875,-0.0086744,0.035702,0.0026351,0.011501,-0.00079853,0,0,0.046543,-0.015368,0,-0.0033366,0,0,0,0.035723,0.0026137,0.011501,-1.438,0.016613,0.029738,9.3127e-07,0.63,0.82,0
0.027479,-0.0088357,0.035763,0.004916,0.012204,-0.00066258,0,0,0.061253,-0.018948,0,-0.0034454,0,0,0,0.035777,0.0049017,0.012204,-1.23,0.017627,0.027949,8.6857e-07,0.64,0.82,0
0.0281,-0.0089908,0.036006,0.0038116,0.011945,-0.00026255,0,0,0.062558,-0.021148,0,-0.0013653,0,0,0,0.036008,0.0038094,0.011945,-0.46721,0.017254,0.029,9.2815e-07,0.65,0.82,0
0.02873,-0.009127,0.035964,0.0029985,0.011689,0.00012492,0,0,0.063116,-0.022595,0,0.00064957,0,0,0,0.035965,0.002998,0.011689,0.21711,0.016884,0.029594,9.5436e-07,0.66,0.82,0
0.029363,-0.009246,0.035839,0.0023344,0.011452,0.00040907,0,0,0.063407,-0.023706,0,0.0021272,0,0,0,0.035844,0.0023294,0.011452,0.69941,0.016542,0.030012,9.6814e-07,0.67,0.82,0
0.029998,-0.0093504,0.035707,0.0017882,0.011249,0.00061258,0,0,0.063592,-0.024597,0,0.0031854,0,0,0,0.035718,0.0017772,0.011249,1.0343,0.016248,0.030336,9.7667e-07,0.68,0.82,0
0.030634,-0.0094423,0.035574,0.0013328,0.011072,0.00075633,0,0,0.063706,-0.025322,0,0.0039329,0,0,0,0.035591,0.0013161,0.011072,1.2647,0.015993,0.030587,9.8142e-07,0.69,0.82,0
0.031272,-0.0095237,0.03544,0.00095083,0.010917,0.0008556,0,0,0.06376,-0.025913,0,0.0044491,0,0,0,0.035462,0.00092961,0.010917,1.4202,0.01577,0.030779,9.8316e-07,0.7,0.82,0
0.03191,-0.009596,0.035306,0.00062959,0.010781,0.00092196,0,0,0.063766,-0.026393,0,0.0047942,0,0,0,0.035331,0.00060509,0.010781,1.5219,0.015572,0.03092,9.8247e-07,0.71,0.82,0
0.032547,-0.0096605,0.035172,0.00035923,0.01066,0.00096404,0,0,0.063733,-0.026781,0,0.005013,0,0,0,0.035199,0.00033256,0.01066,1.585,0.015397,0.03102,9.7988e-07,0.72,0.82,0
0.033184,-0.009718,0.03504,0.00013177,0.010552,0.00098818,0,0,0.06367,-0.027091,0,0.0051386,0,0,0,0.035068,0.00010382,0.010552,1.6202,0.015241,0.031086,9.7588e-07,0.73,0.82,0
0.033821,-0.0097695,0.03491,-5.9403e-05,0.010455,0.00099896,0,0,0.063583,-0.027338,0,0.0051946,0,0,0,0.034939,-8.7916e-05,0.010455,1.6349,0.015102,0.031125,9.7084e-07,0.74,0.82,0
0.034456,-0.0098155,0.034785,-0.00021978,0.01037,0.00099963,0,0,0.063479,-0.027532,0,0.0051981,0,0,0,0.034813,-0.0002483,0.01037,1.6344,0.014978,0.031141,9.6509e-07,0.75,0.82,0
0.03509,-0.0098567,0.034663,-0.00035397,0.010293,0.00099249,0,0,0.063364,-0.027682,0,0.005161,0,0,0,0.034692,-0.00038207,0.010293,1.6222,0.014868,0.03114,9.5888e-07,0.76,0.82,0
0.035723,-0.0098934,0.034548,-0.00046587,0.010224,0.00097919,0,0,0.06324,-0.027795,0,0.0050918,0,0,0,0.034575,-0.00049323,0.010224,1.6007,0.014769,0.031125,9.5242e-07,0.77,0.82,0
0.036355,-0.0099263,0.034437,-0.00055879,0.010164,0.00096088,0,0,0.063111,-0.027878,0,0.0049965,0,0,0,0.034464,-0.00058515,0.010164,1.5716,0.014681,0.0311,9.4586e-07,0.78,0.82,0
0.036986,-0.0099555,0.034333,-0.00063555,0.010109,0.00093836,0,0,0.062981,-0.027936,0,0.0048794,0,0,0,0.034358,-0.00066071,0.010109,1.536,0.014602,0.031067,9.3933e-07,0.79,0.82,0
0.037615,-0.0099814,0.034234,-0.00069854,0.010061,0.00091223,0,0,0.062851,-0.027974,0,0.0047436,0,0,0,0.034258,-0.00072235,0.010061,1.4949,0.014532,0.031028,9.3291e-07,0.8,0.82,0
0.038243,-0.010004,0.034142,-0.00074985,0.010018,0.00088295,0,0,0.062723,-0.027995,0,0.0045913,0,0,0,0.034164,-0.00077218,0.010018,1.4486,0.01447,0.030984,9.2668e-07,0.81,0.82,0
0.038869,-0.010025,0.034056,-0.00079126,0.0099794,0.00085084,0,0,0.062599,-0.028004,0,0.0044243,0,0,0,0.034077,-0.00081202,0.0099794,1.3978,0.014415,0.030938,9.2069e-07,0.82,0.82,0
0.039495,-0.010043,0.033976,-0.0008243,0.0099454,0.00081617,0,0,0.062479,-0.028001,0,0.0042441,0,0,0,0.033995,-0.00084344,0.0099454,1.3428,0.014366,0.030891,9.1496e-07,0.83,0.82,0
0.040119,-0.010058,0.033901,-0.00085032,0.0099153,0.00077917,0,0,0.062364,-0.027991,0,0.0040517,0,0,0,0.033919,-0.00086778,0.0099153,1.2838,0.014322,0.030843,9.0954e-07,0.84,0.82,0
0.040742,-0.010072,0.033833,-0.00087046,0.0098887,0.00074005,0,0,0.062255,-0.027974,0,0.0038482,0,0,0,0.033849,-0.00088623,0.0098887,1.2211,0.014284,0.030795,9.0444e-07,0.85,0.82,0
0.041364,-0.010084,0.03377,-0.00088572,0.0098653,0.00069896,0,0,0.062152,-0.027953,0,0.0036346,0,0,0,0.033784,-0.00089981,0.0098653,1.155,0.01425,0.030749,8.9967e-07,0.86,0.82,0
0.041985,-0.010094,0.033712,-0.00089698,0.0098446,0.00065609,0,0,0.062056,-0.027928,0,0.0034117,0,0,0,0.033725,-0.00090941,0.0098446,1.0856,0.01422,0.030704,8.9524e-07,0.87,0.82,0
0.042605,-0.010103,0.03366,-0.00090498,0.0098265,0.00061158,0,0,0.061967,-0.027902,0,0.0031802,0,0,0,0.033671,-0.0009158,0.0098265,1.0133,0.014194,0.030661,8.9115e-07,0.88,0.82,0
0.043224,-0.010111,0.033613,-0.00091037,0.0098107,0.00056558,0,0,0.061885,-0.027875,0,0.002941,0,0,0,0.033622,-0.00091964,0.0098107,0.93833,0.014171,0.03062,8.8741e-07,0.89,0.82,0
0.043843,-0.010117,0.03357,-0.00091372,0.0097969,0.00051825,0,0,0.06181,-0.027848,0,0.0026949,0,0,0,0.033578,-0.00092151,0.0097969,0.86083,0.014151,0.030583,8.8401e-07,0.9,0.82,0
0.04446,-0.010123,0.033532,-0.0009155,0.009785,0.00046972,0,0,0.061743,-0.027821,0,0.0024425,0,0,0,0.033539,-0.0009219,0.009785,0.78107,0.014134,0.030548,8.8095e-07,0.91,0.82,0
0.045077,-0.010127,0.033499,-0.00091612,0.0097748,0.00042012,0,0,0.061682,-0.027796,0,0.0021846,0,0,0,0.033504,-0.00092124,0.0097748,0.6993,0.014119,0.030517,8.7823e-07,0.92,0.82,0
0.045694,-0.010131,0.03347,-0.00091592,0.0097661,0.00036959,0,0,0.061629,-0.027773,0,0.0019219,0,0,0,0.033474,-0.0009199,0.0097661,0.61574,0.014107,0.030489,8.7584e-07,0.93,0.82,0
0.04631,-0.010134,0.033445,-0.00091522,0.0097589,0.00031826,0,0,0.061583,-0.027753,0,0.0016549,0,0,0,0.033448,-0.00091816,0.0097589,0.53063,0.014096,0.030465,8.7378e-07,0.94,0.82,0
0.046926,-0.010137,0.033424,-0.00091423,0.0097529,0.00026624,0,0,0.061545,-0.027735,0,0.0013844,0,0,0,0.033426,-0.00091629,0.0097529,0.4442,0.014088,0.030444,8.7205e-07,0.95,0.82,0
0.047541,-0.010139,0.033407,-0.00091317,0.0097482,0.00021366,0,0,0.061513,-0.02772,0,0.001111,0,0,0,0.033408,-0.0009145,0.0097482,0.35667,0.014081,0.030427,8.7063e-07,0.96,0.82,0
0.048156,-0.01014,0.033394,-0.00091219,0.0097446,0.00016063,0,0,0.061489,-0.027708,0,0.00083527,0,0,0,0.033395,-0.00091294,0.0097446,0.26826,0.014075,0.030413,8.6954e-07,0.97,0.82,0
0.048771,-0.010141,0.033385,-0.0009114,0.009742,0.00010727,0,0,0.061471,-0.027699,0,0.0005578,0,0,0,0.033385,-0.00091174,0.009742,0.1792,0.014072,0.030404,8.6876e-07,0.98,0.82,0
0.049385,-0.010142,0.033379,-0.0009109,0.0097405,5.3689e-05,0,0,0.061461,-0.027694,0,0.00027918,0,0,0,0.033379,-0.00091098,0.0097405,0.08971,0.01407,0.030398,8.6829e-07,0.99,0.82,0
0.05,-0.010142,0.033377,-0.00091072,0.00974,-3.8569e-06,0,0,0.061457,-0.027692,0,-2.0056e-05,0,0,0,0.033377,-0.00091072,0.00974,-0.0064449,0.014069,0.030396,8.6813e-07,1,0.82,0
0,0,0.030727,0.013169,0.013169,-0.0053996,0,0,0.045652,-7.5894e-19,0,-0.028078,0,0,0,0.032255,0.011641,0.013169,-15.797,0.019022,0.019894,3.9634e-07,0,0.83,0
0.00045652,-0.00028078,0.03066,0.012345,0.012901,-0.0053891,0,0,0.046171,-0.0014468,0,-0.028023,0,0,0,0.032128,0.010877,0.012901,-15.238,0.018635,0.020314,4.1617e-07,0.01,0.83,0
0.00092343,-0.00056209,0.030938,0.011654,0.012778,-0.0053644,0,0,0.047217,-0.0029209,0,-0.027895,0,0,0,0.03233,0.010263,0.012778,-14.545,0.018457,0.020924,4.4763e-07,0.02,0.83,0
0.0014009,-0.00084276,0.031217,0.010953,0.012651,-0.0053076,0,0,0.048272,-0.0044144,0,-0.0276,0,0,0,0.032523,0.0096474,0.012651,-13.824,0.018274,0.021532,4.7923e-07,0.03,0.83,0
0.0018889,-0.0011215,0.031494,0.010247,0.012523,-0.0052168,0,0,0.049327,-0.0059151,0,-0.027127,0,0,0,0.032706,0.0090357,0.012523,-13.077,0.018088,0.022134,5.1065e-07,0.04,0.83,0
0.0023874,-0.001397,0.031766,0.0095435,0.012393,-0.0050913,0,0,0.050371,-0.0074086,0,-0.026475,0,0,0,0.032877,0.0084326,0.012393,-12.309,0.017901,0.022725,5.4154e-07,0.05,0.83,0
0.0028963,-0.0016679,0.032031,0.0088487,0.012264,-0.0049326,0,0,0.051394,-0.0088793,0,-0.02565,0,0,0,0.033037,0.0078428,0.012264,-11.526,0.017714,0.0233,5.7163e-07,0.06,0.83,0
0.0034153,-0.0019327,0.032285,0.0081702,0.012136,-0.0047434,0,0,0.052386,-0.010312,0,-0.024666,0,0,0,0.033184,0.0072707,0.012136,-10.738,0.017531,0.023856,6.0066e-07,0.07,0.83,0
0.003944,-0.0021904,0.032527,0.0075143,0.012012,-0.0045276,0,0,0.053338,-0.011695,0,-0.023543,0,0,0,0.033321,0.0067199,0.012012,-9.9508,0.017351,0.024389,6.2847e-07,0.08,0.83,0
0.004482,-0.0024396,0.032755,0.0068865,0.011893,-0.0042898,0,0,0.054244,-0.013016,0,-0.022307,0,0,0,0.033448,0.0061937,0.011893,-9.1741,0.017178,0.024899,6.5498e-07,0.09,0.83,0
0.0050289,-0.0026796,0.032971,0.0062913,0.011779,-0.0040351,0,0,0.0551,-0.014267,0,-0.020982,0,0,0,0.033568,0.0056944,0.011779,-8.4149,0.017014,0.025384,6.8015e-07,0.1,0.83,0
0.005584,-0.0029094,0.033174,0.0057321,0.011672,-0.0037687,0,0,0.055905,-0.015443,0,-0.019597,0,0,0,0.033682,0.005224,0.011672,-7.6793,0.016859,0.025844,7.0401e-07,0.11,0.83,0
0.006147,-0.0031285,0.033365,0.0052115,0.011573,-0.0034954,0,0,0.056659,-0.016539,0,-0.018176,0,0,0,0.033792,0.004784,0.011573,-6.9726,0.016716,0.02628,7.2664e-07,0.12,0.83,0
0.0067172,-0.0033362,0.033546,0.0047314,0.011483,-0.0032197,0,0,0.057362,-0.017554,0,-0.016743,0,0,0,0.033901,0.004376,0.011483,-6.2988,0.016587,0.026691,7.4814e-07,0.13,0.83,0
0.0072942,-0.0035324,0.033719,0.0042936,0.011404,-0.0029456,0,0,0.058019,-0.018486,0,-0.015317,0,0,0,0.034011,0.0040016,0.011404,-5.6607,0.016472,0.027078,7.6859e-07,0.14,0.83,0
0.0078776,-0.0037168,0.033886,0.0038995,0.011336,-0.002676,0,0,0.05863,-0.019334,0,-0.013915,0,0,0,0.034123,0.0036625,0.011336,-5.0598,0.016374,0.02744,7.8809e-07,0.15,0.83,0
0.0084668,-0.0038893,0.034049,0.0035508,0.01128,-0.0024132,0,0,0.0592,-0.020096,0,-0.012549,0,0,0,0.034239,0.003361,0.01128,-4.4964,0.016293,0.027778,8.067e-07,0.16,0.83,0
0.0090616,-0.0040498,0.03421,0.0032496,0.011238,-0.0021586,0,0,0.059728,-0.02077,0,-0.011225,0,0,0,0.03436,0.0030998,0.011238,-3.9691,0.016233,0.02809,8.2446e-07,0.17,0.83,0
0.0096614,-0.0041983,0.034372,0.0029987,0.011211,-0.0019123,0,0,0.060219,-0.021353,0,-0.0099437,0,0,0,0.034488,0.0028826,0.011211,-3.4751,0.016194,0.028374,8.4135e-07,0.18,0.83,0
0.010266,-0.0043347,0.034536,0.0028016,0.011201,-0.001673,0,0,0.06067,-0.021839,0,-0.0086996,0,0,0,0.034624,0.0027137,0.011201,-3.0095,0.01618,0.028626,8.5732e-07,0.19,0.83,0
0.010875,-0.0044591,0.034703,0.0026631,0.01121,-0.0014381,0,0,0.061083,-0.022222,0,-0.0074783,0,0,0,0.034768,0.0025987,0.01121,-2.5649,0.016192,0.028844,8.7226e-07,0.2,0.83,0
0.011488,-0.004571,0.034876,0.0025893,0.01124,-0.0012031,0,0,0.061455,-0.022491,0,-0.0062559,0,0,0,0.034921,0.0025445,0.01124,-2.131,0.016235,0.029023,8.8605e-07,0.21,0.83,0
0.012104,-0.0046702,0.035057,0.0025884,0.011294,-0.00096103,0,0,0.061785,-0.022634,0,-0.0049973,0,0,0,0.035085,0.00256,0.011294,-1.6939,0.016313,0.029157,8.9853e-07,0.22,0.83,0
0.012723,-0.004756,0.035251,0.002672,0.011377,-0.0007027,0,0,0.062072,-0.022632,0,-0.0036541,0,0,0,0.035266,0.0026569,0.011377,-1.2351,0.016433,0.029241,9.0957e-07,0.23,0.83,0
0.013345,-0.0048272,0.035465,0.0028583,0.011497,-0.00041566,0,0,0.062318,-0.022461,0,-0.0021614,0,0,0,0.035471,0.002853,0.011497,-0.73021,0.016607,0.029269,9.1923e-07,0.24,0.83,0
0.01397,-0.0048823,0.035725,0.0031801,0.011671,-8.3266e-05,0,0,0.062539,-0.022078,0,-0.00043298,0,0,0,0.035725,0.0031799,0.011671,-0.14659,0.016859,0.029239,9.2819e-07,0.25,0.83,0
0.014596,-0.004919,0.036102,0.0037156,0.011945,0.00033385,0,0,0.062807,-0.021397,0,0.001736,0,0,0,0.036105,0.0037121,0.011945,0.59054,0.017254,0.029162,9.3972e-07,0.26,0.83,0
0.015226,-0.0049321,0.03646,0.0045247,0.012295,0.00088637,0,0,0.062828,-0.020204,0,0.0046091,0,0,0,0.036485,0.0045001,0.012295,1.5886,0.01776,0.028887,9.4074e-07,0.27,0.83,0
0.015853,-0.0049171,0.035819,0.0019864,0.011342,0.00061865,0,0,0.047492,-0.016216,0,0.0033639,0,0,0,0.035849,0.0019562,0.011342,1.1846,0.016382,0.030382,9.5266e-07,0.28,0.83,0
0.016176,-0.0049753,0.036163,-0.00032744,0.010751,0.0010806,0,0,0.033036,-0.014402,0,0.0028096,0,0,0,0.036195,-0.00035942,0.010751,1.6947,0.015529,0.032459,1.0878e-06,0.29,0.83,0
0.016513,-0.0050778,0.036272,-0.0013487,0.010477,0.00050174,0,0,0.033533,-0.015373,0,0.0013045,0,0,0,0.036278,-0.0013554,0.010477,0.76397,0.015133,0.033332,1.1256e-06,0.3,0.83,0
0.016846,-0.005176,0.03577,-0.0011279,0.010393,0.00055868,0,0,0.032991,-0.014977,0,0.0014526,0,0,0,0.035779,-0.0011364,0.010393,0.86726,0.015012,0.032711,1.074e-06,0.31,0.83,0
0.017173,-0.0052742,0.035309,-0.0010827,0.010268,0.00045995,0,0,0.032554,-0.014756,0,0.0011959,0,0,0,0.035315,-0.0010885,0.010268,0.724,0.014831,0.032261,1.0318e-06,0.32,0.83,0
0.017497,-0.005375,0.035096,-0.0010493,0.010214,0.00036345,0,0,0.032347,-0.014642,0,0.00094497,0,0,0,0.0351,-0.001053,0.010214,0.57604,0.014754,0.032041,1.0123e-06,0.33,0.83,0
0.01782,-0.0054779,0.034981,-0.0009722,0.010203,0.00029754,0,0,0.032212,-0.014528,0,0.0007736,0,0,0,0.034984,-0.00097466,0.010203,0.47411,0.014737,0.031875,1.0002e-06,0.34,0.83,0
0.018142,-0.0055826,0.034887,-0.00086506,0.010207,0.00024187,0,0,0.032085,-0.014393,0,0.00062887,0,0,0,0.034889,-0.0008667,0.010207,0.38759,0.014743,0.031704,9.891e-07,0.35,0.83,0
0.018462,-0.005689,0.0348,-0.00073925,0.010218,0.00018174,0,0,0.031956,-0.014245,0,0.00047252,0,0,0,0.034801,-0.00074018,0.010218,0.29298,0.01476,0.031524,9.7816e-07,0.36,0.83,0
0.018781,-0.0057969,0.034719,-0.00060564,0.010234,0.00011458,0,0,0.031831,-0.014092,0,0.00029792,0,0,0,0.03472,-0.00060601,0.010234,0.18585,0.014783,0.031345,9.6759e-07,0.37,0.83,0
0.019098,-0.0059065,0.034647,-0.00046971,0.010253,4.262e-05,0,0,0.031712,-0.01394,0,0.00011081,0,0,0,0.034647,-0.00046976,0.010253,0.069537,0.01481,0.031171,9.577e-07,0.38,0.83,0
0.019415,-0.0060178,0.034583,-0.0003345,0.010275,-3.1142e-05,0,0,0.031601,-0.013792,0,-8.0969e-05,0,0,0,0.034583,-0.00033453,0.010275,-0.051101,0.014841,0.031006,9.4859e-07,0.39,0.83,0
0.019731,-0.0061306,0.034528,-0.00020233,0.010298,-0.00010428,0,0,0.031499,-0.01365,0,-0.00027113,0,0,0,0.034528,-0.00020264,0.010298,-0.17204,0.014874,0.030851,9.4031e-07,0.4,0.83,0
0.020045,-0.006245,0.03448,-7.5207e-05,0.010322,-0.0001751,0,0,0.031406,-0.013516,0,-0.00045526,0,0,0,0.034481,-7.6094e-05,0.010322,-0.29032,0.014909,0.030708,9.3286e-07,0.41,0.83,0
0.020359,-0.0063607,0.03444,4.4869e-05,0.010346,-0.00024241,0,0,0.031323,-0.013391,0,-0.00063025,0,0,0,0.034442,4.316e-05,0.010346,-0.40377,0.014944,0.030578,9.2625e-07,0.42,0.83,0
0.020671,-0.0064776,0.034408,0.00015593,0.010369,-0.0003053,0,0,0.03125,-0.013277,0,-0.00079379,0,0,0,0.034411,0.00015321,0.010369,-0.51065,0.014978,0.030462,9.2053e-07,0.43,0.83,0
0.020984,-0.0065956,0.034383,0.0002561,0.010392,-0.00036306,0,0,0.031189,-0.013176,0,-0.00094396,0,0,0,0.034387,0.00025224,0.010392,-0.60945,0.01501,0.030362,9.1574e-07,0.44,0.83,0
0.021295,-0.0067145,0.034366,0.00034364,0.010413,-0.00041505,0,0,0.031139,-0.01309,0,-0.0010791,0,0,0,0.034371,0.00033858,0.010413,-0.69884,0.015041,0.030279,9.1192e-07,0.45,0.83,0
0.021606,-0.0068341,0.034356,0.00041699,0.010432,-0.00046072,0,0,0.031101,-0.013019,0,-0.0011979,0,0,0,0.034362,0.00041074,0.010432,-0.7776,0.015068,0.030214,9.0911e-07,0.46,0.83,0
0.021917,-0.0069542,0.034354,0.00047479,0.010449,-0.00049963,0,0,0.031077,-0.012966,0,-0.001299,0,0,0,0.034361,0.00046742,0.010449,-0.84471,0.015092,0.030168,9.0737e-07,0.47,0.83,0
0.022228,-0.0070747,0.03436,0.00051585,0.010463,-0.00053143,0,0,0.031066,-0.012931,0,-0.0013817,0,0,0,0.034368,0.00050751,0.010463,-0.89938,0.015113,0.030142,9.0674e-07,0.48,0.83,0
0.022539,-0.0071952,0.034374,0.00053915,0.010474,-0.00055589,0,0,0.03107,-0.012915,0,-0.0014453,0,0,0,0.034383,0.00053002,0.010474,-0.94102,0.015129,0.030137,9.0724e-07,0.49,0.83,0
0.022849,-0.0073157,0.034396,0.00054381,0.010482,-0.00057288,0,0,0.031088,-0.01292,0,-0.0014895,0,0,0,0.034406,0.00053412,0.010482,-0.96925,0.01514,0.030154,9.0893e-07,0.5,0.83,0
0.02316,-0.0074358,0.034427,0.00052899,0.010487,-0.00058231,0,0,0.031122,-0.012945,0,-0.001514,0,0,0,0.034437,0.00051899,0.010487,-0.98385,0.015148,0.030194,9.1188e-07,0.51,0.83,0
0.023472,-0.0075555,0.034467,0.00049383,0.010488,-0.00058399,0,0,0.031173,-0.012993,0,-0.0015184,0,0,0,0.034477,0.00048379,0.010488,-0.9845,0.01515,0.030258,9.1616e-07,0.52,0.83,0
0.023784,-0.0076744,0.034518,0.00043743,0.010487,-0.00057749,0,0,0.031241,-0.013064,0,-0.0015015,0,0,0,0.034528,0.00042764,0.010487,-0.9705,0.015147,0.030348,9.2188e-07,0.53,0.83,0
0.024097,-0.0077925,0.03458,0.0003591,0.010482,-0.00056196,0,0,0.031328,-0.013159,0,-0.0014611,0,0,0,0.034589,0.00034988,0.010482,-0.94055,0.01514,0.030464,9.2913e-07,0.54,0.83,0
0.02441,-0.0079094,0.034653,0.00025889,0.010474,-0.00053627,0,0,0.031433,-0.013279,0,-0.0013943,0,0,0,0.034661,0.00025053,0.010474,-0.89307,0.015128,0.030608,9.3794e-07,0.55,0.83,0
0.024725,-0.008025,0.034736,0.00013922,0.010463,-0.00050048,0,0,0.031556,-0.01342,0,-0.0013012,0,0,0,0.034743,0.00013199,0.010463,-0.82861,0.015113,0.030775,9.4815e-07,0.56,0.83,0
0.025041,-0.0081391,0.034831,8.0503e-06,0.010452,-0.00045969,0,0,0.031693,-0.013577,0,-0.0011952,0,0,0,0.034837,1.9831e-06,0.010452,-0.75618,0.015097,0.030962,9.597e-07,0.57,0.83,0
0.025359,-0.0082518,0.03495,-0.00012591,0.010447,-0.00043143,0,0,0.031854,-0.013745,0,-0.0011217,0,0,0,0.034955,-0.00013121,0.010447,-0.70459,0.01509,0.031174,9.7349e-07,0.58,0.83,0
0.025678,-0.0083636,0.035172,-0.00025037,0.010476,-0.00043928,0,0,0.032104,-0.013945,0,-0.0011421,0,0,0,0.035177,-0.00025582,0.010476,-0.7104,0.015133,0.031471,9.9581e-07,0.59,0.83,0
0.026001,-0.0084748,0.035644,-0.00041964,0.010567,-0.0004604,0,0,0.032599,-0.014283,0,-0.001197,0,0,0,0.03565,-0.00042551,0.010567,-0.7313,0.015264,0.032026,1.0415e-06,0.6,0.83,0
0.02633,-0.0085832,0.036174,-0.00079262,0.010615,-0.00033913,0,0,0.033228,-0.014829,0,-0.00088174,0,0,0,0.036177,-0.00079573,0.010615,-0.52557,0.015332,0.032792,1.0997e-06,0.61,0.83,0
0.026666,-0.0086845,0.036076,-8.6217e-06,0.01082,-0.00085646,0,0,0.032832,-0.014077,0,-0.0022268,0,0,0,0.036096,-2.8938e-05,0.01082,-1.3589,0.015629,0.032106,1.0686e-06,0.62,0.83,0
0.026987,-0.0088267,0.035773,0.0021552,0.011379,-0.00036457,0,0,0.047355,-0.015987,0,-0.0023185,0,0,0,0.035793,0.0021354,0.011379,-0.74647,0.016436,0.03019,9.4242e-07,0.63,0.83,0
0.027613,-0.0090322,0.036438,0.0044912,0.012279,-0.00062225,0,0,0.062814,-0.020248,0,-0.0032357,0,0,0,0.03645,0.0044791,0.012279,-1.1154,0.017736,0.028872,9.3874e-07,0.64,0.83,0
0.028243,-0.0092067,0.036122,0.0034816,0.011881,-8.6065e-05,0,0,0.063026,-0.021839,0,-0.00044754,0,0,0,0.036122,0.0034814,0.011881,-0.15107,0.017162,0.029357,9.4968e-07,0.65,0.83,0
0.028873,-0.0093554,0.03579,0.0027079,0.011549,0.00029167,0,0,0.063026,-0.022988,0,0.0015167,0,0,0,0.035793,0.0027053,0.011549,0.5051,0.016682,0.029671,9.5065e-07,0.66,0.83,0
0.029504,-0.0094843,0.035576,0.0021145,0.011307,0.00055884,0,0,0.063098,-0.0239,0,0.002906,0,0,0,0.035585,0.0021052,0.011307,0.95656,0.016332,0.029958,9.5439e-07,0.67,0.83,0
0.030135,-0.0095968,0.035404,0.0016286,0.01111,0.00075383,0,0,0.063165,-0.024651,0,0.0039199,0,0,0,0.035421,0.0016118,0.01111,1.2779,0.016048,0.030202,9.5749e-07,0.68,0.83,0
0.030767,-0.0096955,0.035253,0.0012207,0.010942,0.00089325,0,0,0.063208,-0.025276,0,0.0046449,0,0,0,0.035276,0.0011972,0.010942,1.5025,0.015805,0.030402,9.5909e-07,0.69,0.83,0
0.031399,-0.0097824,0.035112,0.00087472,0.010796,0.00098998,0,0,0.063222,-0.025796,0,0.0051479,0,0,0,0.035141,0.00084612,0.010796,1.6548,0.015594,0.03056,9.5909e-07,0.7,0.83,0
0.032032,-0.0098592,0.034979,0.00058046,0.010668,0.0010541,0,0,0.063208,-0.026227,0,0.0054815,0,0,0,0.035011,0.00054819,0.010668,1.7536,0.015409,0.030681,9.5761e-07,0.71,0.83,0
0.032664,-0.0099274,0.03485,0.00033024,0.010554,0.0010937,0,0,0.063169,-0.026582,0,0.0056871,0,0,0,0.034885,0.00029562,0.010554,1.8129,0.015245,0.03077,9.5489e-07,0.72,0.83,0
0.033295,-0.0099879,0.034726,0.00011786,0.010453,0.0011146,0,0,0.063109,-0.026872,0,0.0057961,0,0,0,0.034762,8.1997e-05,0.010453,1.8428,0.015099,0.030831,9.5115e-07,0.73,0.83,0
0.033926,-0.010042,0.034606,-6.1888e-05,0.010363,0.0011216,0,0,0.063031,-0.027105,0,0.0058322,0,0,0,0.034642,-9.8135e-05,0.010363,1.851,0.014969,0.030869,9.4664e-07,0.74,0.83,0
0.034556,-0.01009,0.034491,-0.00021347,0.010283,0.0011178,0,0,0.06294,-0.027291,0,0.0058124,0,0,0,0.034527,-0.00024944,0.010283,1.8429,0.014854,0.030888,9.4156e-07,0.75,0.83,0
0.035185,-0.010132,0.034381,-0.00034076,0.010212,0.0011057,0,0,0.062839,-0.027437,0,0.0057495,0,0,0,0.034416,-0.00037593,0.010212,1.8221,0.014751,0.03089,9.361e-07,0.76,0.83,0
0.035812,-0.01017,0.034275,-0.00044711,0.010148,0.001087,0,0,0.06273,-0.027549,0,0.0056525,0,0,0,0.034309,-0.00048111,0.010148,1.7914,0.014659,0.03088,9.3041e-07,0.77,0.83,0
0.036439,-0.010204,0.034175,-0.00053545,0.010092,0.0010631,0,0,0.062617,-0.027631,0,0.0055281,0,0,0,0.034208,-0.00056797,0.010092,1.7526,0.014577,0.030859,9.2462e-07,0.78,0.83,0
0.037065,-0.010234,0.034081,-0.00060832,0.010042,0.0010348,0,0,0.062502,-0.02769,0,0.005381,0,0,0,0.034112,-0.00063917,0.010042,1.7071,0.014505,0.030831,9.1883e-07,0.79,0.83,0
0.037689,-0.01026,0.033992,-0.00066797,0.0099972,0.0010028,0,0,0.062386,-0.027729,0,0.0052147,0,0,0,0.034021,-0.00069696,0.0099972,1.6559,0.01444,0.030796,9.1312e-07,0.8,0.83,0
0.038312,-0.010283,0.033908,-0.00071633,0.0099576,0.0009677,0,0,0.062272,-0.027752,0,0.005032,0,0,0,0.033935,-0.00074335,0.0099576,1.5997,0.014383,0.030758,9.0755e-07,0.81,0.83,0
0.038935,-0.010304,0.03383,-0.0007551,0.0099226,0.00092979,0,0,0.062161,-0.027762,0,0.0048349,0,0,0,0.033855,-0.00078007,0.0099226,1.5388,0.014333,0.030716,9.0217e-07,0.82,0.83,0
0.039556,-0.010322,0.033758,-0.00078576,0.0098917,0.00088943,0,0,0.062053,-0.027761,0,0.004625,0,0,0,0.033781,-0.00080865,0.0098917,1.4739,0.014288,0.030673,8.9703e-07,0.83,0.83,0
0.040176,-0.010337,0.033691,-0.00080962,0.0098644,0.00084687,0,0,0.061949,-0.027752,0,0.0044037,0,0,0,0.033712,-0.00083039,0.0098644,1.4053,0.014249,0.030629,8.9215e-07,0.84,0.83,0
0.040795,-0.010351,0.033629,-0.00082779,0.0098404,0.00080233,0,0,0.061851,-0.027737,0,0.0041721,0,0,0,0.033648,-0.00084647,0.0098404,1.3332,0.014214,0.030585,8.8755e-07,0.85,0.83,0
0.041413,-0.010362,0.033572,-0.00084127,0.0098194,0.00075601,0,0,0.061758,-0.027718,0,0.0039312,0,0,0,0.033589,-0.00085787,0.0098194,1.2579,0.014184,0.030542,8.8324e-07,0.86,0.83,0
0.04203,-0.010372,0.033521,-0.00085091,0.0098009,0.00070807,0,0,0.061671,-0.027695,0,0.003682,0,0,0,0.033535,-0.00086549,0.0098009,1.1797,0.014157,0.0305,8.7923e-07,0.87,0.83,0
0.042646,-0.010381,0.033474,-0.00085744,0.0097849,0.00065869,0,0,0.061591,-0.02767,0,0.0034252,0,0,0,0.033486,-0.00087007,0.0097849,1.0988,0.014134,0.03046,8.7553e-07,0.88,0.83,0
0.043262,-0.010388,0.033431,-0.00086151,0.0097709,0.00060801,0,0,0.061517,-0.027644,0,0.0031617,0,0,0,0.033442,-0.00087229,0.0097709,1.0154,0.014113,0.030423,8.7214e-07,0.89,0.83,0
0.043876,-0.010395,0.033393,-0.00086368,0.0097588,0.00055617,0,0,0.061449,-0.027619,0,0.0028921,0,0,0,0.033402,-0.00087271,0.0097588,0.9299,0.014096,0.030388,8.6907e-07,0.9,0.83,0
0.044491,-0.0104,0.033359,-0.00086441,0.0097484,0.00050331,0,0,0.061388,-0.027593,0,0.0026172,0,0,0,0.033367,-0.00087181,0.0097484,0.84237,0.014081,0.030355,8.663e-07,0.91,0.83,0
0.045104,-0.010404,0.033329,-0.00086411,0.0097396,0.00044954,0,0,0.061333,-0.02757,0,0.0023376,0,0,0,0.033335,-0.00087002,0.0097396,0.75309,0.014068,0.030326,8.6384e-07,0.92,0.83,0
0.045717,-0.010408,0.033303,-0.00086312,0.0097321,0.00039499,0,0,0.061285,-0.027547,0,0.0020539,0,0,0,0.033308,-0.00086768,0.0097321,0.66226,0.014058,0.0303,8.6167e-07,0.93,0.83,0
0.04633,-0.010411,0.033281,-0.00086173,0.0097258,0.00033976,0,0,0.061244,-0.027528,0,0.0017668,0,0,0,0.033285,-0.00086511,0.0097258,0.57008,0.014048,0.030277,8.5981e-07,0.94,0.83,0
0.046942,-0.010413,0.033263,-0.00086018,0.0097207,0.00028397,0,0,0.061209,-0.02751,0,0.0014767,0,0,0,0.033265,-0.00086254,0.0097207,0.47678,0.014041,0.030257,8.5824e-07,0.95,0.83,0
0.047554,-0.010415,0.033248,-0.00085866,0.0097167,0.00022772,0,0,0.06118,-0.027496,0,0.0011842,0,0,0,0.033249,-0.00086018,0.0097167,0.38253,0.014035,0.030242,8.5697e-07,0.96,0.83,0
0.048166,-0.010416,0.033236,-0.00085732,0.0097136,0.00017111,0,0,0.061158,-0.027484,0,0.00088975,0,0,0,0.033237,-0.00085818,0.0097136,0.28754,0.014031,0.030229,8.5598e-07,0.97,0.83,0
0.048777,-0.010417,0.033228,-0.00085629,0.0097114,0.00011422,0,0,0.061143,-0.027476,0,0.00059394,0,0,0,0.033228,-0.00085667,0.0097114,0.192,0.014028,0.03022,8.5527e-07,0.98,0.83,0
0.049389,-0.010418,0.033223,-0.00085563,0.0097102,5.7154e-05,0,0,0.061133,-0.027471,0,0.0002972,0,0,0,0.033223,-0.00085573,0.0097102,0.096093,0.014026,0.030215,8.5485e-07,0.99,0.83,0
0.05,-0.010418,0.033221,-0.00085541,0.0097097,-3.5243e-06,0,0,0.06113,-0.027469,0,-1.8327e-05,0,0,0,0.033221,-0.00085541,0.0097097,-0.0059257,0.014025,0.030213,8.5471e-07,1,0.83,0
0,0,0.030786,0.013194,0.013194,-0.0056833,0,0,0.045739,-5.421e-19,0,-0.029553,0,0,0,0.032462,0.011518,0.013194,-16.434,0.019058,0.020159,4.1094e-07,0,0.84,0
0.00045739,-0.00029553,0.030716,0.012338,0.012916,-0.0056729,0,0,0.04628,-0.0015038,0,-0.029499,0,0,0,0.032326,0.010728,0.012916,-15.844,0.018657,0.020592,4.314e-07,0.01,0.84,0
0.0009256,-0.0005919,0.031005,0.011615,0.012786,-0.0056501,0,0,0.04737,-0.0030448,0,-0.029381,0,0,0,0.032532,0.010089,0.012786,-15.116,0.018469,0.021223,4.6434e-07,0.02,0.84,0
0.0014048,-0.00088786,0.031295,0.010878,0.012652,-0.0055925,0,0,0.048471,-0.0046112,0,-0.029081,0,0,0,0.032726,0.0094468,0.012652,-14.358,0.018275,0.021854,4.974e-07,0.03,0.84,0
0.001895,-0.001182,0.03158,0.010135,0.012515,-0.0054973,0,0,0.049571,-0.0061866,0,-0.028586,0,0,0,0.032907,0.0088082,0.012515,-13.572,0.018077,0.022476,5.3012e-07,0.04,0.84,0
0.0023962,-0.0014728,0.031859,0.0093947,0.012376,-0.0053638,0,0,0.050656,-0.0077517,0,-0.027892,0,0,0,0.033074,0.0081797,0.012376,-12.763,0.017877,0.023084,5.6204e-07,0.05,0.84,0
0.0029081,-0.0017586,0.032127,0.0086659,0.012238,-0.0051939,0,0,0.051712,-0.0092871,0,-0.027009,0,0,0,0.033225,0.0075674,0.012238,-11.941,0.017677,0.023671,5.9278e-07,0.06,0.84,0
0.0034304,-0.0020381,0.032381,0.0079573,0.012101,-0.004991,0,0,0.052726,-0.010775,0,-0.025953,0,0,0,0.033361,0.0069767,0.012101,-11.115,0.01748,0.024232,6.2205e-07,0.07,0.84,0
0.0039627,-0.0023098,0.032619,0.0072764,0.011968,-0.0047599,0,0,0.05369,-0.0122,0,-0.024751,0,0,0,0.033483,0.0064119,0.011968,-10.294,0.017288,0.024765,6.4964e-07,0.08,0.84,0
0.0045042,-0.0025724,0.032839,0.0066292,0.011841,-0.0045062,0,0,0.054597,-0.01355,0,-0.023432,0,0,0,0.033592,0.0058761,0.011841,-9.4879,0.017103,0.025268,6.7549e-07,0.09,0.84,0
0.0050546,-0.002825,0.033043,0.0060203,0.011719,-0.0042362,0,0,0.055442,-0.014817,0,-0.022028,0,0,0,0.033691,0.0053718,0.011719,-8.7038,0.016927,0.02574,6.9958e-07,0.1,0.84,0
0.0056131,-0.0030666,0.033231,0.0054529,0.011605,-0.0039555,0,0,0.056226,-0.015995,0,-0.020569,0,0,0,0.033783,0.0049006,0.011605,-7.9485,0.016763,0.026182,7.2201e-07,0.11,0.84,0
0.0061791,-0.0032966,0.033403,0.0049291,0.0115,-0.0036699,0,0,0.05695,-0.017084,0,-0.019083,0,0,0,0.033869,0.0044637,0.0115,-7.2272,0.016611,0.026595,7.4289e-07,0.12,0.84,0
0.0067521,-0.0035144,0.033564,0.0044502,0.011404,-0.0033841,0,0,0.057615,-0.018081,0,-0.017597,0,0,0,0.033952,0.004062,0.011404,-6.5436,0.016473,0.026979,7.6238e-07,0.13,0.84,0
0.0073314,-0.0037198,0.033715,0.0040171,0.01132,-0.0031022,0,0,0.058228,-0.018986,0,-0.016131,0,0,0,0.034035,0.0036965,0.01132,-5.9001,0.016351,0.027336,7.8061e-07,0.14,0.84,0
0.0079166,-0.0039126,0.033858,0.0036303,0.011247,-0.0028272,0,0,0.058791,-0.019802,0,-0.014702,0,0,0,0.03412,0.0033682,0.011247,-5.2977,0.016245,0.027668,7.9775e-07,0.15,0.84,0
0.0085072,-0.0040925,0.033997,0.0032908,0.011186,-0.0025615,0,0,0.059308,-0.020529,0,-0.01332,0,0,0,0.034209,0.0030786,0.011186,-4.736,0.016158,0.027973,8.139e-07,0.16,0.84,0
0.0091028,-0.0042595,0.034134,0.0029994,0.01114,-0.0023061,0,0,0.059785,-0.021166,0,-0.011992,0,0,0,0.034304,0.0028296,0.01114,-4.2132,0.016091,0.028251,8.2917e-07,0.17,0.84,0
0.0097029,-0.0044137,0.034272,0.0027579,0.011109,-0.002061,0,0,0.060223,-0.021712,0,-0.010717,0,0,0,0.034406,0.0026236,0.011109,-3.7261,0.016046,0.028503,8.436e-07,0.18,0.84,0
0.010307,-0.0045549,0.034411,0.0025683,0.011094,-0.001825,0,0,0.060625,-0.022167,0,-0.0094899,0,0,0,0.034516,0.002464,0.011094,-3.2694,0.016025,0.028726,8.5723e-07,0.19,0.84,0
0.010915,-0.004683,0.034556,0.0024337,0.011097,-0.0015952,0,0,0.060994,-0.022524,0,-0.008295,0,0,0,0.034635,0.0023547,0.011097,-2.836,0.016029,0.028918,8.7004e-07,0.2,0.84,0
0.011527,-0.0047976,0.034708,0.0023583,0.01112,-0.0013672,0,0,0.061329,-0.02278,0,-0.0071097,0,0,0,0.034766,0.0023006,0.01112,-2.4158,0.016062,0.029077,8.82e-07,0.21,0.84,0
0.012142,-0.0048983,0.03487,0.0023477,0.011165,-0.0011347,0,0,0.061631,-0.022926,0,-0.0059006,0,0,0,0.034909,0.0023082,0.011165,-1.9959,0.016127,0.029198,8.9303e-07,0.22,0.84,0
0.01276,-0.0049842,0.035043,0.0024103,0.011236,-0.00088894,0,0,0.061898,-0.022947,0,-0.0046225,0,0,0,0.035067,0.0023861,0.011236,-1.5592,0.01623,0.029277,9.0293e-07,0.23,0.84,0
0.01338,-0.005054,0.035228,0.0025588,0.011336,-0.0006188,0,0,0.062119,-0.022821,0,-0.0032177,0,0,0,0.035239,0.002547,0.011336,-1.0847,0.016374,0.029304,9.1123e-07,0.24,0.84,0
0.014002,-0.0051058,0.03542,0.0028153,0.01147,-0.00030972,0,0,0.062268,-0.022503,0,-0.0016106,0,0,0,0.035423,0.0028124,0.01147,-0.54421,0.016568,0.029258,9.1678e-07,0.25,0.84,0
0.014625,-0.0051364,0.035616,0.0032283,0.011653,5.2423e-05,0,0,0.062303,-0.021905,0,0.0002726,0,0,0,0.035616,0.0032282,0.011653,0.092739,0.016833,0.029105,9.1765e-07,0.26,0.84,0
0.015248,-0.0051408,0.035844,0.003904,0.011924,0.00067988,0,0,0.06219,-0.020853,0,0.0035354,0,0,0,0.035858,0.0038895,0.011924,1.2189,0.017224,0.028804,9.1305e-07,0.27,0.84,0
0.015869,-0.0050874,0.040303,0.0025901,0.012868,-0.00023441,0,0,0.049632,-0.018207,0,-0.00027475,0,0,0,0.04031,0.0025833,0.012868,-0.19261,0.018587,0.033783,1.5715e-06,0.28,0.84,0
0.016303,-0.0051228,0.03244,0.00081155,0.0099755,0.0020346,0,0,0.040054,-0.016111,0,0.0081176,0,0,0,0.032586,0.00066563,0.0099755,4.0096,0.014409,0.028433,9.1392e-07,0.29,0.84,0
0.016637,-0.005233,0.035738,-0.0011697,0.01037,0.00094565,0,0,0.032978,-0.015002,0,0.0024587,0,0,0,0.035762,-0.0011939,0.01037,1.4668,0.014979,0.032743,1.0742e-06,0.3,0.84,0
0.016963,-0.0053248,0.035277,-0.00092225,0.010306,0.00082577,0,0,0.032462,-0.014597,0,0.002147,0,0,0,0.035296,-0.00094108,0.010306,1.3061,0.014887,0.032126,1.026e-06,0.31,0.84,0
0.017286,-0.0054211,0.035097,-0.0010296,0.01022,0.00056953,0,0,0.03234,-0.014625,0,0.0014808,0,0,0,0.035106,-0.0010386,0.01022,0.90296,0.014762,0.032035,1.0124e-06,0.32,0.84,0
0.01761,-0.0055212,0.035077,-0.0010118,0.01022,0.00045165,0,0,0.032315,-0.014601,0,0.0011743,0,0,0,0.035083,-0.0010174,0.01022,0.71691,0.014762,0.031997,1.0098e-06,0.33,0.84,0
0.017932,-0.0056231,0.035008,-0.00093203,0.010223,0.00039634,0,0,0.032221,-0.014501,0,0.0010305,0,0,0,0.035013,-0.0009364,0.010223,0.63174,0.014766,0.03187,1.0015e-06,0.34,0.84,0
0.018254,-0.0057264,0.034915,-0.00080606,0.010233,0.00034118,0,0,0.032087,-0.014351,0,0.00088706,0,0,0,0.034919,-0.00080932,0.010233,0.54717,0.014781,0.031684,9.8999e-07,0.35,0.84,0
0.018574,-0.0058312,0.034815,-0.00066789,0.010244,0.00027329,0,0,0.031942,-0.014186,0,0.00071055,0,0,0,0.034817,-0.00066999,0.010244,0.44125,0.014797,0.031482,9.7753e-07,0.36,0.84,0
0.018893,-0.0059375,0.034722,-0.00052837,0.010258,0.00019557,0,0,0.031803,-0.014023,0,0.00050848,0,0,0,0.034723,-0.00052946,0.010258,0.31786,0.014817,0.031287,9.6573e-07,0.37,0.84,0
0.01921,-0.0060456,0.034641,-0.00039042,0.010275,0.00011336,0,0,0.031676,-0.013865,0,0.00029473,0,0,0,0.034642,-0.00039078,0.010275,0.1854,0.014842,0.031103,9.5503e-07,0.38,0.84,0
0.019526,-0.0061554,0.034571,-0.00025586,0.010295,3.0456e-05,0,0,0.03156,-0.013716,0,7.9187e-05,0,0,0,0.034571,-0.00025589,0.010295,0.050105,0.01487,0.030932,9.4538e-07,0.39,0.84,0
0.019841,-0.0062668,0.034511,-0.00012593,0.010315,-5.0884e-05,0,0,0.031454,-0.013574,0,-0.0001323,0,0,0,0.034511,-0.00012601,0.010315,-0.084172,0.0149,0.030775,9.3671e-07,0.4,0.84,0
0.020155,-0.0063798,0.034458,-2.0968e-06,0.010337,-0.00012934,0,0,0.031358,-0.013441,0,-0.00033629,0,0,0,0.034459,-2.5823e-06,0.010337,-0.21505,0.014931,0.03063,9.2893e-07,0.41,0.84,0
0.020469,-0.0064943,0.034414,0.00011391,0.010358,-0.00020406,0,0,0.031272,-0.013318,0,-0.00053056,0,0,0,0.034415,0.00011269,0.010358,-0.34086,0.014962,0.030499,9.2205e-07,0.42,0.84,0
0.020781,-0.0066101,0.034376,0.0002202,0.010379,-0.00027435,0,0,0.031197,-0.013206,0,-0.00071332,0,0,0,0.034379,0.000218,0.010379,-0.46018,0.014992,0.030382,9.1608e-07,0.43,0.84,0
0.021092,-0.0067271,0.034347,0.00031495,0.010398,-0.00033959,0,0,0.031133,-0.013109,0,-0.00088293,0,0,0,0.03435,0.00031156,0.010398,-0.57165,0.01502,0.030282,9.1107e-07,0.44,0.84,0
0.021403,-0.0068451,0.034325,0.00039649,0.010416,-0.00039916,0,0,0.031081,-0.013026,0,-0.0010378,0,0,0,0.034329,0.00039179,0.010416,-0.67395,0.015046,0.0302,9.0705e-07,0.45,0.84,0
0.021714,-0.006964,0.03431,0.00046333,0.010432,-0.00045253,0,0,0.031041,-0.012959,0,-0.0011766,0,0,0,0.034316,0.00045728,0.010432,-0.76586,0.015069,0.030136,9.0409e-07,0.46,0.84,0
0.022024,-0.0070836,0.034304,0.00051422,0.010445,-0.00049926,0,0,0.031016,-0.01291,0,-0.0012981,0,0,0,0.034311,0.00050685,0.010445,-0.84634,0.015088,0.030092,9.0221e-07,0.47,0.84,0
0.022334,-0.0072037,0.034305,0.00054809,0.010456,-0.00053903,0,0,0.031004,-0.01288,0,-0.0014015,0,0,0,0.034313,0.00053949,0.010456,-0.91458,0.015103,0.030068,9.0145e-07,0.48,0.84,0
0.022644,-0.0073241,0.034314,0.00056407,0.010464,-0.00057163,0,0,0.031006,-0.012869,0,-0.0014862,0,0,0,0.034324,0.00055439,0.010464,-0.97005,0.015114,0.030066,9.0184e-07,0.49,0.84,0
0.022954,-0.0074447,0.034332,0.00056141,0.010468,-0.00059707,0,0,0.031023,-0.012879,0,-0.0015524,0,0,0,0.034343,0.00055086,0.010468,-1.0126,0.015121,0.030085,9.0344e-07,0.5,0.84,0
0.023265,-0.0075651,0.034359,0.00053941,0.01047,-0.00061548,0,0,0.031057,-0.012909,0,-0.0016002,0,0,0,0.03437,0.00052821,0.01047,-1.0423,0.015123,0.030128,9.0631e-07,0.51,0.84,0
0.023576,-0.0076853,0.034396,0.00049717,0.010468,-0.00062709,0,0,0.031107,-0.012962,0,-0.0016305,0,0,0,0.034408,0.00048557,0.010468,-1.0594,0.01512,0.030195,9.1054e-07,0.52,0.84,0
0.023887,-0.007805,0.034445,0.0004335,0.010463,-0.00063191,0,0,0.031175,-0.013039,0,-0.001643,0,0,0,0.034456,0.00042176,0.010463,-1.064,0.015114,0.030289,9.1632e-07,0.53,0.84,0
0.024199,-0.007924,0.034506,0.00034697,0.010456,-0.00062931,0,0,0.031265,-0.013142,0,-0.0016362,0,0,0,0.034518,0.00033538,0.010456,-1.0551,0.015103,0.030413,9.2382e-07,0.54,0.84,0
0.024512,-0.0080422,0.034583,0.00023677,0.010446,-0.00061748,0,0,0.031378,-0.013272,0,-0.0016055,0,0,0,0.034594,0.00022567,0.010446,-1.0296,0.015088,0.030568,9.3321e-07,0.55,0.84,0
0.024827,-0.0081592,0.034671,0.00010321,0.010432,-0.00059342,0,0,0.03151,-0.013428,0,-0.0015429,0,0,0,0.034681,9.3028e-05,0.010432,-0.98322,0.015069,0.030751,9.4419e-07,0.56,0.84,0
0.025143,-0.0082749,0.034755,-4.5513e-05,0.010413,-0.00055685,0,0,0.031645,-0.013596,0,-0.0014478,0,0,0,0.034764,-5.4421e-05,0.010413,-0.91648,0.015041,0.030943,9.5537e-07,0.57,0.84,0
0.02546,-0.0083892,0.034821,-0.00017805,0.010393,-0.00052305,0,0,0.031757,-0.013742,0,-0.0013599,0,0,0,0.034829,-0.00018586,0.010393,-0.85602,0.015012,0.031105,9.6456e-07,0.58,0.84,0
0.025778,-0.0085025,0.034841,-0.00028081,0.010368,-0.0005563,0,0,0.031815,-0.013844,0,-0.0014464,0,0,0,0.03485,-0.00028961,0.010368,-0.90721,0.014976,0.031207,9.6934e-07,0.59,0.84,0
0.026096,-0.0086167,0.035018,-0.00029146,0.010418,-0.00073441,0,0,0.03198,-0.013922,0,-0.0019095,0,0,0,0.035033,-0.00030673,0.010418,-1.191,0.015048,0.031384,9.8518e-07,0.6,0.84,0
0.026417,-0.0087328,0.035469,-0.00067833,0.010437,-0.00079662,0,0,0.032541,-0.01445,0,-0.0020712,0,0,0,0.035486,-0.00069588,0.010437,-1.2619,0.015076,0.032098,1.0353e-06,0.61,0.84,0
0.026747,-0.0088288,0.032195,0.0010219,0.009965,-0.0018355,0,0,0.039648,-0.015716,0,-0.0073365,0,0,0,0.032316,0.00090086,0.009965,-3.6793,0.014394,0.028007,8.8349e-07,0.62,0.84,0
0.027177,-0.0089942,0.040046,0.0027514,0.012839,0.00044813,0,0,0.049238,-0.017856,0,0.0011247,0,0,0,0.040055,0.002742,0.012839,0.54664,0.018545,0.033432,1.5315e-06,0.63,0.84,0
0.027794,-0.0092407,0.035672,0.0038807,0.011866,-0.00044618,0,0,0.061896,-0.020761,0,-0.0023201,0,0,0,0.035678,0.0038744,0.011866,-0.80392,0.017139,0.028656,8.992e-07,0.64,0.84,0
0.028415,-0.0094276,0.035468,0.0030244,0.011548,0.00015726,0,0,0.062193,-0.022161,0,0.00081774,0,0,0,0.035469,0.0030237,0.011548,0.27771,0.01668,0.029134,9.131e-07,0.65,0.84,0
0.029038,-0.0095867,0.035303,0.0023955,0.011309,0.0004784,0,0,0.062382,-0.023176,0,0.0024877,0,0,0,0.03531,0.0023886,0.011309,0.83272,0.016336,0.02949,9.2228e-07,0.66,0.84,0
0.029662,-0.009724,0.035144,0.001893,0.011111,0.00072239,0,0,0.062486,-0.023967,0,0.0037564,0,0,0,0.03516,0.0018773,0.011111,1.244,0.01605,0.02976,9.2736e-07,0.67,0.84,0
0.030287,-0.0098434,0.034993,0.0014715,0.010939,0.00090199,0,0,0.062539,-0.024616,0,0.0046903,0,0,0,0.035017,0.0014472,0.010939,1.5402,0.015801,0.029973,9.2983e-07,0.68,0.84,0
0.030913,-0.0099479,0.034852,0.0011113,0.010789,0.0010309,0,0,0.062564,-0.025162,0,0.0053607,0,0,0,0.034883,0.0010798,0.010789,1.7484,0.015584,0.030145,9.3067e-07,0.69,0.84,0
0.031539,-0.01004,0.034721,0.00080126,0.010657,0.00112,0,0,0.062567,-0.025624,0,0.0058241,0,0,0,0.034758,0.00076432,0.010657,1.8892,0.015393,0.030284,9.3027e-07,0.7,0.84,0
0.032164,-0.010121,0.034598,0.00053414,0.01054,0.0011783,0,0,0.062551,-0.026014,0,0.0061273,0,0,0,0.034638,0.00049342,0.01054,1.9788,0.015224,0.030394,9.2884e-07,0.71,0.84,0
0.03279,-0.010192,0.034481,0.00030442,0.010436,0.0012129,0,0,0.062518,-0.026341,0,0.0063073,0,0,0,0.034524,0.00026142,0.010436,2.03,0.015074,0.030477,9.2652e-07,0.72,0.84,0
0.033415,-0.010256,0.03437,0.0001076,0.010343,0.0012294,0,0,0.06247,-0.026613,0,0.0063928,0,0,0,0.034414,6.3544e-05,0.010343,2.0523,0.01494,0.030537,9.2344e-07,0.73,0.84,0
0.034039,-0.010312,0.034264,-6.0244e-05,0.010261,0.0012318,0,0,0.062408,-0.026836,0,0.0064055,0,0,0,0.034309,-0.0001044,0.010261,2.0527,0.014822,0.030578,9.1974e-07,0.74,0.84,0
0.034663,-0.010361,0.034163,-0.00020261,0.010188,0.0012235,0,0,0.062335,-0.027016,0,0.006362,0,0,0,0.034207,-0.00024611,0.010188,2.0364,0.014716,0.0306,9.1558e-07,0.75,0.84,0
0.035286,-0.010405,0.034066,-0.00032263,0.010123,0.0012066,0,0,0.062253,-0.027159,0,0.0062744,0,0,0,0.034109,-0.00036492,0.010123,2.0071,0.014622,0.030608,9.1106e-07,0.76,0.84,0
0.035908,-0.010444,0.033974,-0.00042316,0.010065,0.001183,0,0,0.062164,-0.02727,0,0.0061518,0,0,0,0.034015,-0.0004638,0.010065,1.9675,0.014539,0.030604,9.0632e-07,0.77,0.84,0
0.036529,-0.010479,0.033887,-0.00050673,0.010014,0.001154,0,0,0.06207,-0.027354,0,0.006001,0,0,0,0.033926,-0.00054541,0.010014,1.9196,0.014465,0.03059,9.0145e-07,0.78,0.84,0
0.037149,-0.010509,0.033805,-0.00057563,0.0099687,0.0011206,0,0,0.061973,-0.027415,0,0.0058271,0,0,0,0.033841,-0.00061211,0.0099687,1.8649,0.014399,0.030568,8.9654e-07,0.79,0.84,0
0.037769,-0.010536,0.033727,-0.00063189,0.0099285,0.0010834,0,0,0.061876,-0.027457,0,0.0056337,0,0,0,0.033761,-0.00066601,0.0099285,1.8043,0.014341,0.030541,8.9167e-07,0.8,0.84,0
0.038387,-0.010559,0.033654,-0.00067731,0.009893,0.001043,0,0,0.061779,-0.027483,0,0.0054238,0,0,0,0.033686,-0.00070897,0.009893,1.7386,0.01429,0.030508,8.869e-07,0.81,0.84,0
0.039004,-0.01058,0.033586,-0.00071351,0.0098618,0.00099995,0,0,0.061683,-0.027496,0,0.0051997,0,0,0,0.033615,-0.00074264,0.0098618,1.6685,0.014245,0.030472,8.8227e-07,0.82,0.84,0
0.039621,-0.010598,0.033523,-0.00074191,0.0098343,0.00095448,0,0,0.06159,-0.027498,0,0.0049633,0,0,0,0.03355,-0.00076848,0.0098343,1.5944,0.014205,0.030435,8.7782e-07,0.83,0.84,0
0.040236,-0.010613,0.033465,-0.00076374,0.0098102,0.00090693,0,0,0.061501,-0.027492,0,0.004716,0,0,0,0.033489,-0.00078775,0.0098102,1.5167,0.01417,0.030396,8.7358e-07,0.84,0.84,0
0.04085,-0.010627,0.033411,-0.00078011,0.0097892,0.00085753,0,0,0.061416,-0.02748,0,0.0044591,0,0,0,0.033432,-0.0008016,0.0097892,1.4358,0.01414,0.030357,8.6957e-07,0.85,0.84,0
0.041464,-0.010638,0.033362,-0.00079197,0.0097709,0.00080649,0,0,0.061336,-0.027463,0,0.0041938,0,0,0,0.033381,-0.000811,0.0097709,1.352,0.014113,0.030319,8.6581e-07,0.86,0.84,0
0.042077,-0.010648,0.033317,-0.00080016,0.0097549,0.00075402,0,0,0.06126,-0.027443,0,0.0039209,0,0,0,0.033333,-0.00081682,0.0097549,1.2655,0.01409,0.030281,8.6231e-07,0.87,0.84,0
0.042689,-0.010657,0.033276,-0.0008054,0.0097411,0.00070027,0,0,0.06119,-0.027421,0,0.0036414,0,0,0,0.03329,-0.00081979,0.0097411,1.1766,0.01407,0.030246,8.5908e-07,0.88,0.84,0
0.043301,-0.010664,0.033239,-0.00080833,0.0097292,0.00064539,0,0,0.061126,-0.027398,0,0.003356,0,0,0,0.033251,-0.00082056,0.0097292,1.0856,0.014053,0.030212,8.5612e-07,0.89,0.84,0
0.043912,-0.01067,0.033206,-0.00080949,0.009719,0.00058952,0,0,0.061067,-0.027374,0,0.0030655,0,0,0,0.033216,-0.0008197,0.009719,0.99258,0.014039,0.03018,8.5343e-07,0.9,0.84,0
0.044522,-0.010675,0.033177,-0.00080933,0.0097103,0.00053279,0,0,0.061013,-0.027351,0,0.0027705,0,0,0,0.033185,-0.00081768,0.0097103,0.89791,0.014026,0.030151,8.5101e-07,0.91,0.84,0
0.045132,-0.010679,0.033151,-0.00080827,0.0097029,0.00047532,0,0,0.060966,-0.027329,0,0.0024716,0,0,0,0.033158,-0.00081492,0.0097029,0.80173,0.014015,0.030124,8.4885e-07,0.92,0.84,0
0.045742,-0.010682,0.033129,-0.00080662,0.0096968,0.0004172,0,0,0.060924,-0.027309,0,0.0021694,0,0,0,0.033134,-0.00081175,0.0096968,0.70424,0.014006,0.0301,8.4696e-07,0.93,0.84,0
0.046351,-0.010685,0.03311,-0.00080467,0.0096916,0.00035855,0,0,0.060888,-0.02729,0,0.0018644,0,0,0,0.033114,-0.00080846,0.0096916,0.60564,0.013999,0.03008,8.4533e-07,0.94,0.84,0
0.04696,-0.010687,0.033094,-0.00080266,0.0096875,0.00029945,0,0,0.060858,-0.027274,0,0.0015571,0,0,0,0.033097,-0.00080531,0.0096875,0.5061,0.013993,0.030062,8.4396e-07,0.95,0.84,0
0.047568,-0.010689,0.033081,-0.00080077,0.0096842,0.00023998,0,0,0.060833,-0.027261,0,0.0012479,0,0,0,0.033083,-0.00080247,0.0096842,0.40578,0.013988,0.030048,8.4285e-07,0.96,0.84,0
0.048176,-0.01069,0.033072,-0.00079916,0.0096817,0.00018023,0,0,0.060814,-0.02725,0,0.00093718,0,0,0,0.033072,-0.00080012,0.0096817,0.30486,0.013985,0.030036,8.4198e-07,0.97,0.84,0
0.048784,-0.010691,0.033065,-0.00079792,0.00968,0.00012027,0,0,0.0608,-0.027243,0,0.00062538,0,0,0,0.033065,-0.00079835,0.00968,0.20349,0.013982,0.030028,8.4137e-07,0.98,0.84,0
0.049392,-0.010691,0.03306,-0.00079715,0.009679,6.0167e-05,0,0,0.060792,-0.027238,0,0.00031287,0,0,0,0.03306,-0.00079726,0.009679,0.10182,0.013981,0.030023,8.41e-07,0.99,0.84,0
0.05,-0.010692,0.033059,-0.00079689,0.0096786,-3.2102e-06,0,0,0.060789,-0.027236,0,-1.6693e-05,0,0,0,0.033059,-0.00079689,0.0096786,-0.0054328,0.01398,0.030022,8.4087e-07,1,0.84,0
0,0,0.030856,0.013224,0.013224,-0.0059781,0,0,0.045844,0,0,-0.031086,0,0,0,0.032692,0.011388,0.013224,-17.07,0.019102,0.020448,4.2718e-07,0,0.85,0
0.00045844,-0.00031086,0.030785,0.012334,0.012936,-0.0059676,0,0,0.046407,-0.0015635,0,-0.031032,0,0,0,0.032547,0.010573,0.012936,-16.449,0.018685,0.020893,4.4826e-07,0.01,0.85,0
0.00092815,-0.00062298,0.031085,0.011576,0.012798,-0.005947,0,0,0.047545,-0.0031771,0,-0.030925,0,0,0,0.032755,0.0099064,0.012798,-15.685,0.018486,0.021548,4.8283e-07,0.02,0.85,0
0.0014093,-0.00093499,0.031384,0.0108,0.012655,-0.0058876,0,0,0.048695,-0.0048241,0,-0.030615,0,0,0,0.032949,0.0092348,0.012655,-14.886,0.01828,0.022203,5.1745e-07,0.03,0.85,0
0.001902,-0.0012453,0.031679,0.010015,0.012508,-0.0057858,0,0,0.049843,-0.0064819,0,-0.030086,0,0,0,0.033127,0.0085667,0.012508,-14.054,0.018067,0.022846,5.5149e-07,0.04,0.85,0
0.0024062,-0.001552,0.031963,0.0092338,0.012359,-0.0056411,0,0,0.05097,-0.0081253,0,-0.029334,0,0,0,0.033286,0.0079108,0.012359,-13.199,0.017852,0.023469,5.8434e-07,0.05,0.85,0
0.0029214,-0.0018536,0.032232,0.0084676,0.01221,-0.0054558,0,0,0.052057,-0.0097299,0,-0.02837,0,0,0,0.033425,0.0072749,0.01221,-12.331,0.017636,0.024065,6.1553e-07,0.06,0.85,0
0.0034474,-0.0021482,0.032483,0.0077268,0.012063,-0.0052347,0,0,0.053092,-0.011274,0,-0.02722,0,0,0,0.033544,0.0066655,0.012063,-11.462,0.017424,0.024628,6.4469e-07,0.07,0.85,0
0.0039833,-0.0024344,0.032713,0.00702,0.01192,-0.0049837,0,0,0.054061,-0.012739,0,-0.025915,0,0,0,0.033645,0.0060872,0.01192,-10.602,0.017218,0.025154,6.7164e-07,0.08,0.85,0
0.0045286,-0.0027106,0.03292,0.0063537,0.011782,-0.0047099,0,0,0.054959,-0.014114,0,-0.024491,0,0,0,0.033731,0.0055434,0.011782,-9.7615,0.017019,0.025644,6.9631e-07,0.09,0.85,0
0.0050825,-0.0029759,0.033107,0.0057323,0.011652,-0.0044205,0,0,0.055783,-0.015391,0,-0.022987,0,0,0,0.033803,0.0050362,0.011652,-8.9494,0.01683,0.026096,7.1877e-07,0.1,0.85,0
0.0056442,-0.0032293,0.033273,0.0051587,0.01153,-0.0041224,0,0,0.056534,-0.016564,0,-0.021437,0,0,0,0.033865,0.0045667,0.01153,-8.1721,0.016654,0.026512,7.3916e-07,0.11,0.85,0
0.0062131,-0.0034701,0.033422,0.0046342,0.011417,-0.0038218,0,0,0.057214,-0.017635,0,-0.019873,0,0,0,0.033921,0.0041354,0.011417,-7.4347,0.016491,0.026895,7.5769e-07,0.12,0.85,0
0.0067885,-0.0036978,0.033557,0.0041591,0.011315,-0.0035237,0,0,0.057829,-0.018604,0,-0.018323,0,0,0,0.033973,0.0037426,0.011315,-6.7406,0.016343,0.027245,7.7456e-07,0.13,0.85,0
0.0073697,-0.0039122,0.033679,0.0037334,0.011224,-0.0032325,0,0,0.058384,-0.019475,0,-0.016809,0,0,0,0.034024,0.0033884,0.011224,-6.0914,0.016212,0.027566,7.9001e-07,0.14,0.85,0
0.0079562,-0.0041129,0.033793,0.0033567,0.011145,-0.0029513,0,0,0.058885,-0.020249,0,-0.015347,0,0,0,0.034076,0.0030732,0.011145,-5.4876,0.016098,0.027859,8.0422e-07,0.15,0.85,0
0.0085474,-0.0042999,0.033901,0.0030288,0.011079,-0.002682,0,0,0.059338,-0.020931,0,-0.013946,0,0,0,0.034133,0.0027975,0.011079,-4.9283,0.016003,0.028124,8.1738e-07,0.16,0.85,0
0.009143,-0.0044731,0.034007,0.0027495,0.011027,-0.0024256,0,0,0.059749,-0.021522,0,-0.012613,0,0,0,0.034194,0.0025624,0.011027,-4.411,0.015928,0.028363,8.2961e-07,0.17,0.85,0
0.0097424,-0.0046325,0.034113,0.0025193,0.01099,-0.002182,0,0,0.060121,-0.022023,0,-0.011346,0,0,0,0.034263,0.0023693,0.01099,-3.9322,0.015874,0.028576,8.4104e-07,0.18,0.85,0
0.010345,-0.0047781,0.034222,0.002339,0.010968,-0.0019497,0,0,0.060459,-0.022436,0,-0.010138,0,0,0,0.034341,0.0022202,0.010968,-3.4864,0.015843,0.028762,8.5172e-07,0.19,0.85,0
0.010952,-0.0049096,0.034335,0.0022102,0.010964,-0.0017258,0,0,0.060766,-0.022759,0,-0.0089741,0,0,0,0.034428,0.0021177,0.010964,-3.0662,0.015836,0.02892,8.617e-07,0.2,0.85,0
0.011561,-0.0050266,0.034456,0.002135,0.010977,-0.0015059,0,0,0.061044,-0.02299,0,-0.0078306,0,0,0,0.034526,0.002065,0.010977,-2.6618,0.015856,0.029049,8.7096e-07,0.21,0.85,0
0.012172,-0.0051287,0.034584,0.0021166,0.01101,-0.0012832,0,0,0.061292,-0.023124,0,-0.0066728,0,0,0,0.034635,0.002066,0.01101,-2.2598,0.015904,0.029145,8.7943e-07,0.22,0.85,0
0.012786,-0.0052149,0.03472,0.0021595,0.011064,-0.0010478,0,0,0.061506,-0.023151,0,-0.0054487,0,0,0,0.034754,0.0021258,0.011064,-1.8413,0.015981,0.029203,8.868e-07,0.23,0.85,0
0.013403,-0.0052836,0.034854,0.0022692,0.011137,-0.00078361,0,0,0.061665,-0.023056,0,-0.0040748,0,0,0,0.034873,0.0022504,0.011137,-1.3768,0.016087,0.029211,8.9209e-07,0.24,0.85,0
0.01402,-0.0053324,0.034953,0.0024509,0.011221,-0.00046216,0,0,0.061702,-0.022802,0,-0.0024032,0,0,0,0.034959,0.0024444,0.011221,-0.8145,0.016208,0.029136,8.9244e-07,0.25,0.85,0
0.014637,-0.0053571,0.034876,0.0026805,0.011267,-1.5509e-05,0,0,0.061384,-0.022325,0,-8.0646e-05,0,0,0,0.034876,0.0026805,0.011267,-0.027599,0.016275,0.028876,8.78e-07,0.26,0.85,0
0.015248,-0.0053491,0.03447,0.0029544,0.011227,0.00070866,0,0,0.060431,-0.02151,0,0.0036851,0,0,0,0.034486,0.0029385,0.011227,1.2875,0.016217,0.028328,8.3931e-07,0.27,0.85,0
0.015845,-0.005293,0.034152,0.0025014,0.010996,0.00079694,0,0,0.060205,-0.022086,0,0.0041441,0,0,0,0.034172,0.0024813,0.010996,1.4415,0.015883,0.028407,8.3051e-07,0.28,0.85,0
0.016452,-0.0052907,0.033897,0.00010247,0.0102,0.0016203,0,0,0.045966,-0.017502,0,0.0071073,0,0,0,0.033993,6.7568e-06,0.0102,2.8803,0.014733,0.030286,8.5704e-07,0.29,0.85,0
0.016765,-0.0053778,0.034008,-0.00087488,0.00994,0.00079214,0,0,0.031289,-0.014059,0,0.0020596,0,0,0,0.034026,-0.00089286,0.00994,1.3002,0.014358,0.030958,9.1879e-07,0.3,0.85,0
0.017077,-0.0054679,0.03443,-0.0010267,0.010021,0.00065196,0,0,0.031731,-0.014362,0,0.0016951,0,0,0,0.034442,-0.0010387,0.010021,1.0531,0.014475,0.031445,9.5653e-07,0.31,0.85,0
0.017399,-0.0055667,0.035029,-0.001012,0.010205,0.00051764,0,0,0.032271,-0.014582,0,0.0013459,0,0,0,0.035036,-0.0010195,0.010205,0.82269,0.014741,0.031958,1.0059e-06,0.32,0.85,0
0.017723,-0.005667,0.0351,-0.0010191,0.010224,0.00052936,0,0,0.032338,-0.014616,0,0.0013763,0,0,0,0.035107,-0.0010268,0.010224,0.83949,0.014768,0.032027,1.0122e-06,0.33,0.85,0
0.018046,-0.005768,0.035041,-0.00088279,0.010248,0.00051472,0,0,0.032232,-0.014469,0,0.0013383,0,0,0,0.035049,-0.00089017,0.010248,0.8207,0.014802,0.031865,1.0033e-06,0.34,0.85,0
0.018367,-0.0058696,0.034919,-0.00072921,0.010257,0.00045768,0,0,0.032061,-0.014282,0,0.00119,0,0,0,0.034925,-0.00073509,0.010257,0.73543,0.014816,0.031631,9.8845e-07,0.35,0.85,0
0.018687,-0.0059727,0.0348,-0.00058248,0.010265,0.00037475,0,0,0.031896,-0.014102,0,0.00097435,0,0,0,0.034804,-0.00058645,0.010265,0.60675,0.014828,0.031404,9.7408e-07,0.36,0.85,0
0.019005,-0.0060774,0.034701,-0.00043923,0.010279,0.0002821,0,0,0.03175,-0.013933,0,0.00073347,0,0,0,0.034704,-0.00044149,0.010279,0.45992,0.014847,0.031199,9.6158e-07,0.37,0.85,0
0.019322,-0.0061839,0.034618,-0.00030157,0.010295,0.00018787,0,0,0.03162,-0.013775,0,0.00048846,0,0,0,0.034619,-0.00030258,0.010295,0.30824,0.01487,0.031012,9.5062e-07,0.38,0.85,0
0.019638,-0.0062921,0.034546,-0.00016912,0.010313,9.5339e-05,0,0,0.031503,-0.013627,0,0.00024788,0,0,0,0.034547,-0.00016938,0.010313,0.15735,0.014897,0.030841,9.4087e-07,0.39,0.85,0
0.019952,-0.0064021,0.034484,-4.2218e-05,0.010332,5.9328e-06,0,0,0.031397,-0.013487,0,1.5425e-05,0,0,0,0.034484,-4.2219e-05,0.010332,0.0098454,0.014925,0.030684,9.3211e-07,0.4,0.85,0
0.020266,-0.0065138,0.034429,7.8116e-05,0.010352,-7.9876e-05,0,0,0.0313,-0.013356,0,-0.00020768,0,0,0,0.03443,7.7931e-05,0.010352,-0.13323,0.014953,0.030539,9.2424e-07,0.41,0.85,0
0.020578,-0.006627,0.034382,0.00019011,0.010372,-0.00016177,0,0,0.031214,-0.013236,0,-0.00042061,0,0,0,0.034383,0.00018934,0.010372,-0.27108,0.014981,0.030409,9.1724e-07,0.42,0.85,0
0.02089,-0.0067417,0.034342,0.00029176,0.01039,-0.00023932,0,0,0.031137,-0.013128,0,-0.00062223,0,0,0,0.034343,0.00029008,0.01039,-0.40268,0.015008,0.030294,9.1115e-07,0.43,0.85,0
0.021201,-0.0068578,0.034308,0.00038123,0.010407,-0.00031194,0,0,0.031072,-0.013033,0,-0.00081106,0,0,0,0.034311,0.00037836,0.010407,-0.52675,0.015032,0.030195,9.0603e-07,0.44,0.85,0
0.021511,-0.006975,0.034283,0.00045689,0.010422,-0.00037905,0,0,0.031019,-0.012955,0,-0.00098554,0,0,0,0.034287,0.00045264,0.010422,-0.64195,0.015054,0.030114,9.0191e-07,0.45,0.85,0
0.021821,-0.0070933,0.034265,0.00051735,0.010435,-0.0004401,0,0,0.030979,-0.012892,0,-0.0011443,0,0,0,0.03427,0.00051161,0.010435,-0.74703,0.015072,0.030052,8.9886e-07,0.46,0.85,0
0.022131,-0.0072124,0.034254,0.00056146,0.010445,-0.00049465,0,0,0.030952,-0.012848,0,-0.0012861,0,0,0,0.034262,0.0005542,0.010445,-0.84093,0.015087,0.03001,8.969e-07,0.47,0.85,0
0.02244,-0.0073323,0.034252,0.00058828,0.010452,-0.00054236,0,0,0.03094,-0.012823,0,-0.0014101,0,0,0,0.03426,0.00057954,0.010452,-0.9228,0.015097,0.029989,8.9606e-07,0.48,0.85,0
0.02275,-0.0074526,0.034257,0.00059707,0.010456,-0.00058308,0,0,0.030941,-0.012817,0,-0.001516,0,0,0,0.034267,0.00058698,0.010456,-0.99212,0.015103,0.029989,8.9637e-07,0.49,0.85,0
0.023059,-0.0075732,0.034271,0.00058736,0.010457,-0.00061687,0,0,0.030957,-0.012831,0,-0.0016039,0,0,0,0.034282,0.00057606,0.010457,-1.0488,0.015105,0.030011,8.9786e-07,0.5,0.85,0
0.023369,-0.007694,0.034293,0.00055873,0.010455,-0.00064416,0,0,0.030988,-0.012866,0,-0.0016748,0,0,0,0.034305,0.00054643,0.010455,-1.0936,0.015102,0.030055,9.0057e-07,0.51,0.85,0
0.023679,-0.0078147,0.034324,0.00051059,0.01045,-0.00066575,0,0,0.031036,-0.012922,0,-0.0017309,0,0,0,0.034337,0.00049748,0.01045,-1.1275,0.015095,0.030123,9.0459e-07,0.52,0.85,0
0.02399,-0.0079352,0.034367,0.00044156,0.010443,-0.0006825,0,0,0.031102,-0.013001,0,-0.0017745,0,0,0,0.034381,0.00042783,0.010443,-1.152,0.015084,0.030217,9.1013e-07,0.53,0.85,0
0.024301,-0.0080553,0.034425,0.00034962,0.010432,-0.00069465,0,0,0.03119,-0.013108,0,-0.0018061,0,0,0,0.034439,0.00033546,0.010432,-1.1674,0.015069,0.030343,9.1749e-07,0.54,0.85,0
0.024613,-0.0081748,0.034501,0.0002321,0.01042,-0.00070088,0,0,0.031305,-0.013244,0,-0.0018223,0,0,0,0.034515,0.00021777,0.01042,-1.1712,0.015051,0.030504,9.2706e-07,0.55,0.85,0
0.024927,-0.0082935,0.0346,8.8915e-05,0.010407,-0.00069548,0,0,0.031451,-0.013413,0,-0.0018082,0,0,0,0.034614,7.4905e-05,0.010407,-1.154,0.015032,0.030706,9.3926e-07,0.56,0.85,0
0.025243,-0.008411,0.034706,-8.5204e-05,0.010386,-0.00066509,0,0,0.031616,-0.013613,0,-0.0017292,0,0,0,0.034719,-9.7914e-05,0.010386,-1.0948,0.015002,0.030937,9.529e-07,0.57,0.85,0
0.025559,-0.0085267,0.034754,-0.00026913,0.010345,-0.00059614,0,0,0.031731,-0.013799,0,-0.00155,0,0,0,0.034764,-0.00027927,0.010345,-0.97488,0.014943,0.031122,9.619e-07,0.58,0.85,0
0.025877,-0.0086405,0.03468,-0.00033983,0.010302,-0.00050584,0,0,0.031691,-0.013834,0,-0.0013152,0,0,0,0.034687,-0.00034714,0.010302,-0.82737,0.014881,0.031108,9.5751e-07,0.59,0.85,0
0.026193,-0.0087532,0.034088,-0.0004622,0.010088,-0.00056561,0,0,0.0312,-0.013715,0,-0.0014706,0,0,0,0.034097,-0.00047146,0.010088,-0.93765,0.014571,0.030683,9.1306e-07,0.6,0.85,0
0.026501,-0.0088722,0.033671,-0.00043912,0.0099695,-0.00064424,0,0,0.030812,-0.013531,0,-0.001675,0,0,0,0.033683,-0.00045128,0.0099695,-1.0817,0.0144,0.030299,8.7982e-07,0.61,0.85,0
0.026809,-0.0089924,0.033553,0.00034099,0.010168,-0.0014337,0,0,0.04538,-0.017034,0,-0.0063437,0,0,0,0.033632,0.00026297,0.010168,-2.6006,0.014688,0.029759,8.2398e-07,0.62,0.85,0
0.027409,-0.0091949,0.033834,0.002643,0.010943,-0.00059787,0,0,0.059516,-0.02158,0,-0.0031089,0,0,0,0.033845,0.0026315,0.010943,-1.0977,0.015807,0.027999,8.0143e-07,0.63,0.85,0
0.028,-0.0094474,0.034149,0.0029411,0.011127,-0.00050262,0,0,0.059856,-0.021283,0,-0.0026136,0,0,0,0.034157,0.002933,0.011127,-0.92247,0.016072,0.028039,8.1475e-07,0.64,0.85,0
0.028606,-0.0096499,0.034582,0.0025062,0.011126,0.000198,0,0,0.060984,-0.022412,0,0.0010296,0,0,0,0.034583,0.002505,0.011126,0.35367,0.016071,0.028753,8.6106e-07,0.65,0.85,0
0.029219,-0.0098189,0.034681,0.0020832,0.011029,0.00060117,0,0,0.061495,-0.02326,0,0.0031261,0,0,0,0.034693,0.0020721,0.011029,1.0561,0.015931,0.029191,8.8374e-07,0.66,0.85,0
0.029836,-0.0099637,0.034607,0.0016799,0.010886,0.00085806,0,0,0.061674,-0.023936,0,0.0044619,0,0,0,0.034629,0.0016576,0.010886,1.4917,0.015724,0.029462,8.9209e-07,0.67,0.85,0
0.030453,-0.010089,0.034495,0.001323,0.010745,0.0010334,0,0,0.061749,-0.024498,0,0.0053736,0,0,0,0.034527,0.0012909,0.010745,1.7826,0.015521,0.029662,8.956e-07,0.68,0.85,0
0.031071,-0.010199,0.03438,0.001009,0.010617,0.0011541,0,0,0.061785,-0.02498,0,0.0060013,0,0,0,0.03442,0.00096917,0.010617,1.9784,0.015335,0.029821,8.9701e-07,0.69,0.85,0
0.031689,-0.010295,0.03427,0.00073354,0.010501,0.0012355,0,0,0.0618,-0.025396,0,0.0064244,0,0,0,0.034316,0.00068809,0.010501,2.1069,0.015168,0.029952,8.9721e-07,0.7,0.85,0
0.032307,-0.010379,0.034167,0.00049257,0.010398,0.0012872,0,0,0.061799,-0.025753,0,0.0066937,0,0,0,0.034216,0.00044344,0.010398,2.186,0.015019,0.030058,8.9654e-07,0.71,0.85,0
0.032925,-0.010454,0.034069,0.00028285,0.010306,0.0013165,0,0,0.061785,-0.026059,0,0.0068456,0,0,0,0.03412,0.00023163,0.010306,2.228,0.014886,0.030142,8.9513e-07,0.72,0.85,0
0.033542,-0.01052,0.033976,0.00010142,0.010223,0.0013282,0,0,0.061758,-0.026317,0,0.0069067,0,0,0,0.034028,4.9418e-05,0.010223,2.2419,0.014767,0.030205,8.9308e-07,0.73,0.85,0
0.03416,-0.010578,0.033888,-5.4493e-05,0.01015,0.0013264,0,0,0.061719,-0.026532,0,0.006897,0,0,0,0.03394,-0.00010624,0.01015,2.2344,0.014661,0.030251,8.9049e-07,0.74,0.85,0
0.034777,-0.01063,0.033804,-0.0001875,0.010085,0.0013138,0,0,0.061669,-0.026708,0,0.0068318,0,0,0,0.033855,-0.00023821,0.010085,2.2102,0.014567,0.030281,8.8745e-07,0.75,0.85,0
0.035393,-0.010675,0.033724,-0.00030011,0.010027,0.0012928,0,0,0.061611,-0.026851,0,0.0067226,0,0,0,0.033773,-0.00034916,0.010027,2.1729,0.014483,0.030297,8.8406e-07,0.76,0.85,0
0.036009,-0.010716,0.033647,-0.00039465,0.0099757,0.001265,0,0,0.061546,-0.026963,0,0.0065781,0,0,0,0.033694,-0.00044159,0.0099757,2.1252,0.014409,0.030301,8.8042e-07,0.77,0.85,0
0.036624,-0.010751,0.033575,-0.00047333,0.0099304,0.0012317,0,0,0.061475,-0.02705,0,0.0064048,0,0,0,0.033619,-0.00051783,0.0099304,2.0691,0.014344,0.030296,8.7661e-07,0.78,0.85,0
0.037239,-0.010782,0.033506,-0.00053816,0.0098903,0.0011938,0,0,0.0614,-0.027114,0,0.0062079,0,0,0,0.033548,-0.00057997,0.0098903,2.0059,0.014286,0.030282,8.7272e-07,0.79,0.85,0
0.037852,-0.010809,0.033441,-0.00059099,0.0098551,0.0011522,0,0,0.061324,-0.02716,0,0.0059913,0,0,0,0.03348,-0.00062995,0.0098551,1.9368,0.014235,0.030262,8.6881e-07,0.8,0.85,0
0.038465,-0.010833,0.033381,-0.00063349,0.0098242,0.0011074,0,0,0.061247,-0.02719,0,0.0057582,0,0,0,0.033417,-0.0006695,0.0098242,1.8627,0.01419,0.030237,8.6494e-07,0.81,0.85,0
0.039077,-0.010854,0.033324,-0.00066717,0.0097971,0.0010598,0,0,0.061171,-0.027207,0,0.0055109,0,0,0,0.033357,-0.00070018,0.0097971,1.7841,0.014151,0.030209,8.6115e-07,0.82,0.85,0
0.039688,-0.010871,0.033272,-0.00069337,0.0097735,0.0010099,0,0,0.061095,-0.027214,0,0.0052516,0,0,0,0.033302,-0.00072337,0.0097735,1.7016,0.014117,0.030178,8.575e-07,0.83,0.85,0
0.040299,-0.010887,0.033223,-0.00071329,0.009753,0.00095804,0,0,0.061023,-0.027212,0,0.0049818,0,0,0,0.03325,-0.00074031,0.009753,1.6158,0.014088,0.030146,8.5399e-07,0.84,0.85,0
0.040909,-0.0109,0.033179,-0.00072798,0.0097352,0.00090443,0,0,0.060953,-0.027204,0,0.004703,0,0,0,0.033203,-0.00075209,0.0097352,1.5269,0.014062,0.030114,8.5067e-07,0.85,0.85,0
0.041518,-0.010912,0.033138,-0.00073837,0.0097199,0.00084931,0,0,0.060887,-0.027192,0,0.0044164,0,0,0,0.033159,-0.00075965,0.0097199,1.4352,0.01404,0.030081,8.4755e-07,0.86,0.85,0
0.042127,-0.010921,0.033101,-0.00074528,0.0097067,0.00079289,0,0,0.060825,-0.027175,0,0.004123,0,0,0,0.03312,-0.00076384,0.0097067,1.3413,0.014021,0.030049,8.4463e-07,0.87,0.85,0
0.042735,-0.010929,0.033067,-0.0007494,0.0096954,0.00073536,0,0,0.060767,-0.027157,0,0.0038239,0,0,0,0.033084,-0.00076538,0.0096954,1.2451,0.014004,0.030018,8.4193e-07,0.88,0.85,0
0.043342,-0.010936,0.033037,-0.00075135,0.0096858,0.00067685,0,0,0.060714,-0.027137,0,0.0035196,0,0,0,0.033051,-0.00076491,0.0096858,1.1471,0.013991,0.029989,8.3946e-07,0.89,0.85,0
0.043949,-0.010942,0.033011,-0.00075166,0.0096777,0.00061752,0,0,0.060666,-0.027116,0,0.0032111,0,0,0,0.033022,-0.00076295,0.0096777,1.0475,0.013979,0.029961,8.3721e-07,0.9,0.85,0
0.044555,-0.010947,0.032987,-0.00075078,0.0096708,0.00055748,0,0,0.060622,-0.027096,0,0.0028989,0,0,0,0.032996,-0.00075999,0.0096708,0.94641,0.013969,0.029936,8.3519e-07,0.91,0.85,0
0.045161,-0.010951,0.032966,-0.00074909,0.0096651,0.00049685,0,0,0.060582,-0.027077,0,0.0025836,0,0,0,0.032973,-0.00075641,0.0096651,0.8441,0.013961,0.029913,8.3339e-07,0.92,0.85,0
0.045767,-0.010954,0.032948,-0.00074692,0.0096603,0.00043571,0,0,0.060548,-0.027059,0,0.0022657,0,0,0,0.032954,-0.00075256,0.0096603,0.74073,0.013954,0.029892,8.3181e-07,0.93,0.85,0
0.046372,-0.010957,0.032933,-0.00074455,0.0096565,0.00037417,0,0,0.060518,-0.027043,0,0.0019457,0,0,0,0.032937,-0.0007487,0.0096565,0.63647,0.013948,0.029874,8.3045e-07,0.94,0.85,0
0.046977,-0.010959,0.03292,-0.00074218,0.0096533,0.00031228,0,0,0.060493,-0.027028,0,0.0016239,0,0,0,0.032923,-0.00074508,0.0096533,0.53147,0.013944,0.029859,8.2931e-07,0.95,0.85,0
0.047582,-0.01096,0.03291,-0.00074001,0.0096509,0.00025013,0,0,0.060473,-0.027016,0,0.0013007,0,0,0,0.032912,-0.00074187,0.0096509,0.42587,0.01394,0.029846,8.2838e-07,0.96,0.85,0
0.048187,-0.010961,0.032902,-0.00073818,0.0096491,0.00018777,0,0,0.060457,-0.027007,0,0.00097641,0,0,0,0.032903,-0.00073923,0.0096491,0.3198,0.013938,0.029837,8.2766e-07,0.97,0.85,0
0.048791,-0.010962,0.032896,-0.0007368,0.0096478,0.00012526,0,0,0.060446,-0.027,0,0.00065136,0,0,0,0.032897,-0.00073727,0.0096478,0.21339,0.013936,0.029829,8.2715e-07,0.98,0.85,0
0.049396,-0.010963,0.032893,-0.00073594,0.0096471,6.2655e-05,0,0,0.060439,-0.026996,0,0.00032581,0,0,0,0.032893,-0.00073606,0.0096471,0.10675,0.013935,0.029825,8.2684e-07,0.99,0.85,0
0.05,-0.010963,0.032892,-0.00073565,0.0096468,-2.9236e-06,0,0,0.060437,-0.026994,0,-1.5203e-05,0,0,0,0.032892,-0.00073565,0.0096468,-0.0049813,0.013934,0.029824,8.2674e-07,1,0.85,0
0,0,0.030944,0.013262,0.013262,-0.0062846,0,0,0.045974,8.6736e-19,0,-0.03268,0,0,0,0.03295,0.011256,0.013262,-17.703,0.019156,0.020764,4.4536e-07,0,0.86,0
0.00045974,-0.0003268,0.03087,0.012336,0.012962,-0.0062739,0,0,0.046562,-0.0016277,0,-0.032624,0,0,0,0.032794,0.010412,0.012962,-17.049,0.018722,0.021223,4.6712e-07,0.01,0.86,0
0.00093123,-0.00065544,0.031182,0.011538,0.012816,-0.0062558,0,0,0.047751,-0.0033227,0,-0.03253,0,0,0,0.033004,0.0097148,0.012816,-16.247,0.018512,0.021905,5.0351e-07,0.02,0.86,0
0.0014148,-0.00098434,0.031492,0.010716,0.012662,-0.0061931,0,0,0.048957,-0.0050609,0,-0.032204,0,0,0,0.033198,0.0090097,0.012662,-15.401,0.01829,0.022584,5.3983e-07,0.03,0.86,0
0.0019104,-0.0013116,0.031794,0.0098835,0.012503,-0.0060817,0,0,0.050157,-0.0068116,0,-0.031625,0,0,0,0.033369,0.0083086,0.012503,-14.518,0.01806,0.023249,5.7521e-07,0.04,0.86,0
0.0024179,-0.0016353,0.032083,0.0090564,0.012342,-0.0059213,0,0,0.051327,-0.0085419,0,-0.030791,0,0,0,0.033516,0.0076229,0.012342,-13.609,0.017827,0.023886,6.0887e-07,0.05,0.86,0
0.0029369,-0.0019532,0.032351,0.0082489,0.01218,-0.0057155,0,0,0.052445,-0.010221,0,-0.029721,0,0,0,0.033638,0.0069622,0.01218,-12.687,0.017593,0.024487,6.4021e-07,0.06,0.86,0
0.0034668,-0.0022636,0.032595,0.0074736,0.01202,-0.0054704,0,0,0.053493,-0.011822,0,-0.028446,0,0,0,0.033734,0.0063341,0.01202,-11.767,0.017363,0.025046,6.6884e-07,0.07,0.86,0
0.0040068,-0.0025646,0.032812,0.0067402,0.011866,-0.005194,0,0,0.05446,-0.013326,0,-0.027009,0,0,0,0.033808,0.0057436,0.011866,-10.862,0.017139,0.02556,6.9458e-07,0.08,0.86,0
0.004556,-0.0028547,0.033001,0.0060555,0.011717,-0.0048951,0,0,0.055339,-0.01472,0,-0.025454,0,0,0,0.033863,0.0051938,0.011717,-9.9837,0.016925,0.026028,7.1745e-07,0.09,0.86,0
0.0051135,-0.0031328,0.033164,0.0054237,0.011576,-0.0045821,0,0,0.056129,-0.015997,0,-0.023827,0,0,0,0.033902,0.0046864,0.011576,-9.1405,0.016722,0.026452,7.3761e-07,0.1,0.86,0
0.0056786,-0.0033979,0.033303,0.0048465,0.011445,-0.004263,0,0,0.056832,-0.017156,0,-0.022168,0,0,0,0.033928,0.0042216,0.011445,-8.3395,0.016532,0.026834,7.553e-07,0.11,0.86,0
0.0062502,-0.0036493,0.033422,0.0043244,0.011324,-0.0039446,0,0,0.057454,-0.018198,0,-0.020512,0,0,0,0.033947,0.0037991,0.011324,-7.5851,0.016357,0.027178,7.7081e-07,0.12,0.86,0
0.0068277,-0.0038865,0.033523,0.0038565,0.011214,-0.0036324,0,0,0.058004,-0.019129,0,-0.018889,0,0,0,0.033961,0.0034182,0.011214,-6.88,0.016198,0.027487,7.8446e-07,0.13,0.86,0
0.0074103,-0.0041093,0.033611,0.0034416,0.011116,-0.0033306,0,0,0.058487,-0.019953,0,-0.017319,0,0,0,0.033974,0.0030782,0.011116,-6.2254,0.016056,0.027764,7.9654e-07,0.14,0.86,0
0.0079974,-0.0043175,0.033689,0.003078,0.01103,-0.0030422,0,0,0.058914,-0.020676,0,-0.015819,0,0,0,0.033989,0.0027786,0.01103,-5.6208,0.015932,0.028011,8.0731e-07,0.15,0.86,0
0.0085885,-0.0045111,0.033761,0.0027644,0.010958,-0.0027688,0,0,0.05929,-0.021303,0,-0.014398,0,0,0,0.034007,0.0025191,0.010958,-5.0645,0.015828,0.028231,8.1698e-07,0.16,0.86,0
0.0091832,-0.00469,0.033831,0.0024997,0.010899,-0.0025112,0,0,0.059622,-0.021839,0,-0.013058,0,0,0,0.034031,0.0022997,0.010899,-4.5536,0.015743,0.028424,8.2573e-07,0.17,0.86,0
0.009781,-0.0048542,0.0339,0.0022831,0.010855,-0.0022689,0,0,0.059917,-0.022287,0,-0.011798,0,0,0,0.034062,0.0021212,0.010855,-4.0837,0.015679,0.028592,8.3369e-07,0.18,0.86,0
0.010382,-0.0050036,0.033971,0.0021143,0.010826,-0.0020401,0,0,0.060178,-0.022649,0,-0.010608,0,0,0,0.034101,0.0019842,0.010826,-3.6493,0.015637,0.028735,8.4096e-07,0.19,0.86,0
0.010984,-0.0051381,0.034046,0.0019932,0.010812,-0.0018219,0,0,0.06041,-0.022929,0,-0.0094738,0,0,0,0.03415,0.00189,0.010812,-3.2427,0.015617,0.028852,8.476e-07,0.2,0.86,0
0.01159,-0.0052574,0.034128,0.0019204,0.010814,-0.0016095,0,0,0.060615,-0.023125,0,-0.0083696,0,0,0,0.034208,0.0018401,0.010814,-2.8538,0.015621,0.028944,8.5365e-07,0.21,0.86,0
0.012197,-0.0053607,0.034217,0.0018963,0.010834,-0.0013959,0,0,0.060797,-0.023238,0,-0.0072585,0,0,0,0.034278,0.0018362,0.010834,-2.4683,0.015649,0.029009,8.5909e-07,0.22,0.86,0
0.012806,-0.0054472,0.034315,0.0019219,0.010871,-0.0011694,0,0,0.060955,-0.023268,0,-0.0060809,0,0,0,0.034358,0.0018797,0.010871,-2.0648,0.015703,0.029045,8.6388e-07,0.23,0.86,0
0.013416,-0.0055151,0.034424,0.0019975,0.010926,-0.00091054,0,0,0.061093,-0.023215,0,-0.0047348,0,0,0,0.034449,0.001972,0.010926,-1.6072,0.015783,0.029054,8.6804e-07,0.24,0.86,0
0.014028,-0.0055618,0.034551,0.002122,0.011002,-0.000582,0,0,0.061228,-0.023088,0,-0.0030264,0,0,0,0.034562,0.0021116,0.011002,-1.0278,0.015892,0.029044,8.7226e-07,0.25,0.86,0
0.014641,-0.0055829,0.03479,0.0023079,0.011129,-0.00010863,0,0,0.061517,-0.022936,0,-0.00056487,0,0,0,0.03479,0.0023075,0.011129,-0.19161,0.016075,0.029093,8.8366e-07,0.26,0.86,0
0.015258,-0.005571,0.035516,0.0025435,0.011418,0.00053213,0,0,0.062655,-0.023073,0,0.0027671,0,0,0,0.035524,0.002535,0.011418,0.92437,0.016492,0.029566,9.3465e-07,0.27,0.86,0
0.015894,-0.0055291,0.035828,0.0020426,0.011361,0.001228,0,0,0.063613,-0.024228,0,0.0063856,0,0,0,0.035872,0.0019981,0.011361,2.0789,0.01641,0.030298,9.8201e-07,0.28,0.86,0
0.01653,-0.0054728,0.034969,-0.00087917,0.010227,0.00066931,0,0,0.048078,-0.019251,0,0.0039473,0,0,0,0.035016,-0.00092586,0.010227,1.2612,0.014772,0.031955,9.5485e-07,0.29,0.86,0
0.016855,-0.0055142,0.035888,-0.00028152,0.010682,0.0012527,0,0,0.032768,-0.014253,0,0.0032571,0,0,0,0.035932,-0.00032486,0.010682,1.9812,0.01543,0.032197,1.0632e-06,0.3,0.86,0
0.017185,-0.005612,0.035867,-0.0005245,0.010603,0.00041529,0,0,0.032843,-0.014465,0,0.0010797,0,0,0,0.035871,-0.00052924,0.010603,0.65374,0.015315,0.032307,1.0642e-06,0.31,0.86,0
0.017512,-0.0057128,0.035381,-0.0011346,0.010274,0.00059648,0,0,0.03264,-0.014831,0,0.0015509,0,0,0,0.035391,-0.0011444,0.010274,0.93558,0.01484,0.032374,1.04e-06,0.32,0.86,0
0.017838,-0.0058135,0.035275,-0.00098566,0.010287,0.00069676,0,0,0.032485,-0.014654,0,0.0018116,0,0,0,0.035289,-0.00099905,0.010287,1.1004,0.014859,0.032166,1.027e-06,0.33,0.86,0
0.018162,-0.0059125,0.035058,-0.00078148,0.010283,0.00067569,0,0,0.032207,-0.014384,0,0.0017568,0,0,0,0.03507,-0.00079421,0.010283,1.0797,0.014853,0.031807,1.0024e-06,0.34,0.86,0
0.018482,-0.006012,0.034869,-0.00063226,0.010271,0.00058487,0,0,0.031977,-0.014174,0,0.0015206,0,0,0,0.034879,-0.00064189,0.010271,0.94358,0.014836,0.031515,9.8189e-07,0.35,0.86,0
0.018801,-0.0061132,0.034749,-0.00048031,0.010281,0.00047571,0,0,0.031809,-0.013989,0,0.0012369,0,0,0,0.034756,-0.00048673,0.010281,0.77349,0.01485,0.031281,9.6717e-07,0.36,0.86,0
0.019119,-0.0062162,0.034655,-0.0003382,0.010295,0.00036646,0,0,0.031668,-0.013823,0,0.00095279,0,0,0,0.034659,-0.00034203,0.010295,0.59992,0.014871,0.031079,9.5507e-07,0.37,0.86,0
0.019435,-0.0063211,0.034578,-0.00020356,0.010312,0.00026051,0,0,0.031545,-0.013671,0,0.00067733,0,0,0,0.03458,-0.00020551,0.010312,0.42911,0.014896,0.030899,9.4462e-07,0.38,0.86,0
0.019749,-0.0064279,0.03451,-7.5261e-05,0.01033,0.00015967,0,0,0.031433,-0.013527,0,0.00041514,0,0,0,0.034511,-7.5998e-05,0.01033,0.26451,0.014922,0.030735,9.3526e-07,0.39,0.86,0
0.020063,-0.0065365,0.034449,4.8019e-05,0.010349,6.3525e-05,0,0,0.03133,-0.013392,0,0.00016517,0,0,0,0.03445,4.7902e-05,0.010349,0.1058,0.014949,0.030581,9.2672e-07,0.4,0.86,0
0.020376,-0.0066469,0.034395,0.00016498,0.010368,-2.8673e-05,0,0,0.031235,-0.013264,0,-7.4551e-05,0,0,0,0.034395,0.00016495,0.010368,-0.047995,0.014976,0.030439,9.1893e-07,0.41,0.86,0
0.020688,-0.006759,0.034347,0.00027323,0.010386,-0.00011718,0,0,0.031149,-0.013147,0,-0.00030466,0,0,0,0.034347,0.00027283,0.010386,-0.19703,0.015002,0.030311,9.1194e-07,0.42,0.86,0
0.020999,-0.0068726,0.034305,0.00037047,0.010403,-0.00020164,0,0,0.031073,-0.013042,0,-0.00052425,0,0,0,0.034306,0.00036928,0.010403,-0.34043,0.015026,0.030197,9.0584e-07,0.43,0.86,0
0.021309,-0.0069877,0.034269,0.00045479,0.010417,-0.00028139,0,0,0.031008,-0.012951,0,-0.00073162,0,0,0,0.034272,0.00045245,0.010417,-0.47675,0.015047,0.0301,9.007e-07,0.44,0.86,0
0.021619,-0.0071042,0.034241,0.00052469,0.01043,-0.00035579,0,0,0.030955,-0.012877,0,-0.00092504,0,0,0,0.034245,0.00052093,0.01043,-0.60451,0.015065,0.030022,8.9657e-07,0.45,0.86,0
0.021929,-0.0072219,0.03422,0.00057892,0.01044,-0.00042427,0,0,0.030915,-0.012819,0,-0.0011031,0,0,0,0.034225,0.00057356,0.01044,-0.72243,0.01508,0.029963,8.9349e-07,0.46,0.86,0
0.022238,-0.0073406,0.034207,0.00061642,0.010447,-0.0004864,0,0,0.030887,-0.01278,0,-0.0012646,0,0,0,0.034214,0.00060938,0.010447,-0.82944,0.01509,0.029924,8.9149e-07,0.47,0.86,0
0.022546,-0.0074602,0.0342,0.00063634,0.010451,-0.00054187,0,0,0.030874,-0.012759,0,-0.0014088,0,0,0,0.034209,0.0006276,0.010451,-0.92468,0.015096,0.029905,8.9061e-07,0.48,0.86,0
0.022855,-0.0075805,0.034202,0.00063806,0.010452,-0.00059044,0,0,0.030875,-0.012758,0,-0.0015352,0,0,0,0.034212,0.00062767,0.010452,-1.0075,0.015097,0.029908,8.9086e-07,0.49,0.86,0
0.023164,-0.0077013,0.034211,0.00062134,0.01045,-0.00063213,0,0,0.03089,-0.012777,0,-0.0016435,0,0,0,0.034223,0.00060945,0.01045,-1.0777,0.015094,0.029932,8.9222e-07,0.5,0.86,0
0.023473,-0.0078224,0.034228,0.00058634,0.010444,-0.00066747,0,0,0.030918,-0.012815,0,-0.0017354,0,0,0,0.034241,0.0005731,0.010444,-1.1362,0.015086,0.029977,8.9471e-07,0.51,0.86,0
0.023782,-0.0079437,0.034252,0.00053328,0.010436,-0.00069782,0,0,0.030961,-0.012873,0,-0.0018143,0,0,0,0.034267,0.00051884,0.010436,-1.1851,0.015074,0.030043,8.9835e-07,0.52,0.86,0
0.024092,-0.008065,0.034286,0.00046131,0.010424,-0.00072527,0,0,0.031021,-0.012952,0,-0.0018857,0,0,0,0.034302,0.00044577,0.010424,-1.2278,0.015057,0.030133,9.033e-07,0.53,0.86,0
0.024403,-0.0081862,0.034333,0.00036706,0.01041,-0.00075182,0,0,0.0311,-0.013056,0,-0.0019547,0,0,0,0.034349,0.00035043,0.01041,-1.2674,0.015037,0.030251,9.0988e-07,0.54,0.86,0
0.024714,-0.008307,0.034398,0.00024742,0.010394,-0.0007776,0,0,0.031206,-0.01319,0,-0.0020218,0,0,0,0.034416,0.00022972,0.010394,-1.3037,0.015013,0.030406,9.1871e-07,0.55,0.86,0
0.025027,-0.0084275,0.034492,9.8161e-05,0.010377,-0.00080144,0,0,0.03135,-0.013363,0,-0.0020838,0,0,0,0.034511,7.9496e-05,0.010377,-1.3341,0.014989,0.03061,9.3077e-07,0.56,0.86,0
0.025341,-0.0085472,0.034657,-6.9977e-05,0.010376,-0.00080808,0,0,0.031565,-0.01358,0,-0.002101,0,0,0,0.034676,-8.877e-05,0.010376,-1.3323,0.014988,0.030891,9.491e-07,0.57,0.86,0
0.025658,-0.0086652,0.034855,-0.00031447,0.010362,-0.00074973,0,0,0.031841,-0.01388,0,-0.0019493,0,0,0,0.034871,-0.00033045,0.010362,-1.2207,0.014968,0.031259,9.7231e-07,0.58,0.86,0
0.025978,-0.0087792,0.034948,-0.00053386,0.010324,-0.00057866,0,0,0.032011,-0.014115,0,-0.0015045,0,0,0,0.034957,-0.0005433,0.010324,-0.93408,0.014913,0.031505,9.8567e-07,0.59,0.86,0
0.026298,-0.008891,0.035426,-2.9283e-05,0.010619,-0.00033142,0,0,0.032249,-0.013843,0,-0.00086169,0,0,0,0.035429,-3.238e-05,0.010619,-0.53551,0.015339,0.031516,1.0106e-06,0.6,0.86,0
0.026623,-0.0090035,0.035433,7.5641e-05,0.010653,-0.0010953,0,0,0.032215,-0.01375,0,-0.0028478,0,0,0,0.035467,4.1744e-05,0.010653,-1.7726,0.015387,0.031491,1.0115e-06,0.61,0.86,0
0.026943,-0.0091695,0.034531,-0.00060896,0.010176,-0.00049286,0,0,0.047336,-0.018695,0,-0.0032142,0,0,0,0.034569,-0.0006474,0.010176,-0.98816,0.014699,0.031333,9.1296e-07,0.62,0.86,0
0.02757,-0.0094258,0.035377,0.0021596,0.011261,-0.0010371,0,0,0.062701,-0.023664,0,-0.0053929,0,0,0,0.035409,0.0021272,0.011261,-1.7866,0.016266,0.029785,9.3924e-07,0.63,0.86,0
0.028196,-0.0096664,0.035076,0.0025452,0.011286,-0.00034906,0,0,0.061854,-0.022727,0,-0.0018151,0,0,0,0.03508,0.0025415,0.011286,-0.61469,0.016303,0.029167,8.9872e-07,0.64,0.86,0
0.028807,-0.0098758,0.034374,0.0021631,0.010961,0.00026892,0,0,0.060873,-0.022874,0,0.0013984,0,0,0,0.034376,0.0021609,0.010961,0.47831,0.015833,0.02884,8.5631e-07,0.65,0.86,0
0.029414,-0.010052,0.034154,0.0018053,0.010788,0.00070091,0,0,0.060753,-0.023355,0,0.0036447,0,0,0,0.034169,0.0017902,0.010788,1.2407,0.015583,0.028949,8.5224e-07,0.66,0.86,0
0.030022,-0.010203,0.034041,0.0014829,0.010657,0.00096663,0,0,0.060798,-0.023853,0,0.0050265,0,0,0,0.03407,0.0014542,0.010657,1.6991,0.015394,0.029126,8.5498e-07,0.67,0.86,0
0.03063,-0.010333,0.033944,0.0011853,0.010539,0.001139,0,0,0.060854,-0.024319,0,0.0059227,0,0,0,0.033984,0.0011457,0.010539,1.9889,0.015223,0.029294,8.5771e-07,0.68,0.86,0
0.031239,-0.010448,0.033855,0.00091502,0.010431,0.0012534,0,0,0.060902,-0.024741,0,0.0065178,0,0,0,0.033902,0.00086739,0.010431,2.176,0.015067,0.029442,8.5971e-07,0.69,0.86,0
0.031848,-0.010548,0.033771,0.00067216,0.010333,0.0013284,0,0,0.060939,-0.025118,0,0.0069078,0,0,0,0.033824,0.00061893,0.010333,2.2946,0.014925,0.02957,8.6094e-07,0.7,0.86,0
0.032458,-0.010636,0.033693,0.00045604,0.010245,0.0013748,0,0,0.060965,-0.02545,0,0.0071487,0,0,0,0.03375,0.00039927,0.010245,2.3645,0.014798,0.029679,8.6147e-07,0.71,0.86,0
0.033067,-0.010713,0.033619,0.00026547,0.010165,0.0013994,0,0,0.060979,-0.025739,0,0.007277,0,0,0,0.033677,0.00020686,0.010165,2.3984,0.014683,0.029768,8.6133e-07,0.72,0.86,0
0.033677,-0.010782,0.033548,9.8968e-05,0.010094,0.0014073,0,0,0.060981,-0.025988,0,0.007318,0,0,0,0.033607,3.9863e-05,0.010094,2.4049,0.01458,0.029839,8.6059e-07,0.73,0.86,0
0.034287,-0.010842,0.033481,-4.5188e-05,0.010031,0.001402,0,0,0.060971,-0.026197,0,0.0072905,0,0,0,0.033539,-0.00010372,0.010031,2.3905,0.014489,0.029893,8.5931e-07,0.74,0.86,0
0.034896,-0.010896,0.033417,-0.00016885,0.0099743,0.0013862,0,0,0.06095,-0.026372,0,0.0072083,0,0,0,0.033474,-0.00022597,0.0099743,2.3595,0.014407,0.029933,8.5757e-07,0.75,0.86,0
0.035506,-0.010942,0.033355,-0.00027395,0.0099243,0.001362,0,0,0.06092,-0.026516,0,0.0070822,0,0,0,0.03341,-0.00032902,0.0099243,2.3154,0.014335,0.029959,8.5546e-07,0.76,0.86,0
0.036115,-0.010984,0.033296,-0.0003624,0.0098801,0.0013309,0,0,0.060882,-0.026631,0,0.0069205,0,0,0,0.033349,-0.00041494,0.0098801,2.2608,0.014271,0.029973,8.5304e-07,0.77,0.86,0
0.036723,-0.01102,0.03324,-0.00043606,0.0098412,0.0012942,0,0,0.060837,-0.026721,0,0.0067296,0,0,0,0.03329,-0.00048572,0.0098412,2.1975,0.014215,0.029977,8.5041e-07,0.78,0.86,0
0.037332,-0.011052,0.033187,-0.00049673,0.0098071,0.0012528,0,0,0.060788,-0.02679,0,0.0065146,0,0,0,0.033234,-0.00054326,0.0098071,2.1271,0.014166,0.029973,8.4763e-07,0.79,0.86,0
0.037939,-0.011079,0.033137,-0.00054607,0.0097773,0.0012076,0,0,0.060736,-0.026841,0,0.0062794,0,0,0,0.03318,-0.00058931,0.0097773,2.0506,0.014123,0.029963,8.4477e-07,0.8,0.86,0
0.038546,-0.011103,0.03309,-0.00058563,0.0097514,0.0011591,0,0,0.060681,-0.026876,0,0.0060274,0,0,0,0.03313,-0.00062548,0.0097514,1.969,0.014085,0.029947,8.419e-07,0.81,0.86,0
0.039153,-0.011124,0.033047,-0.0006168,0.009729,0.0011079,0,0,0.060626,-0.026899,0,0.0057612,0,0,0,0.033083,-0.00065323,0.009729,1.883,0.014053,0.029928,8.3905e-07,0.82,0.86,0
0.039759,-0.011142,0.033006,-0.00064087,0.0097096,0.0010544,0,0,0.060571,-0.026911,0,0.005483,0,0,0,0.033039,-0.00067388,0.0097096,1.7932,0.014025,0.029905,8.3626e-07,0.83,0.86,0
0.040364,-0.011158,0.032969,-0.00065896,0.009693,0.00099898,0,0,0.060518,-0.026915,0,0.0051947,0,0,0,0.032999,-0.00068861,0.009693,1.7001,0.014001,0.029881,8.3357e-07,0.84,0.86,0
0.040969,-0.011171,0.032935,-0.00067208,0.0096788,0.00094188,0,0,0.060466,-0.026912,0,0.0048978,0,0,0,0.032961,-0.00069846,0.0096788,1.6041,0.01398,0.029856,8.3101e-07,0.85,0.86,0
0.041574,-0.011182,0.032904,-0.00068114,0.0096668,0.00088339,0,0,0.060416,-0.026905,0,0.0045936,0,0,0,0.032927,-0.00070436,0.0096668,1.5057,0.013963,0.02983,8.2859e-07,0.86,0.86,0
0.042178,-0.011192,0.032876,-0.0006869,0.0096566,0.00082372,0,0,0.060369,-0.026893,0,0.0042834,0,0,0,0.032896,-0.0007071,0.0096566,1.4051,0.013948,0.029805,8.2633e-07,0.87,0.86,0
0.042781,-0.0112,0.03285,-0.00069005,0.0096481,0.00076307,0,0,0.060326,-0.026879,0,0.003968,0,0,0,0.032868,-0.0007074,0.0096481,1.3026,0.013936,0.02978,8.2423e-07,0.88,0.86,0
0.043384,-0.011206,0.032828,-0.00069118,0.009641,0.0007016,0,0,0.060285,-0.026863,0,0.0036483,0,0,0,0.032842,-0.00070586,0.009641,1.1986,0.013926,0.029756,8.223e-07,0.89,0.86,0
0.043987,-0.011212,0.032808,-0.0006908,0.009635,0.00063944,0,0,0.060249,-0.026847,0,0.0033251,0,0,0,0.03282,-0.000703,0.009635,1.0932,0.013917,0.029734,8.2055e-07,0.9,0.86,0
0.044589,-0.011217,0.03279,-0.00068934,0.0096302,0.00057673,0,0,0.060215,-0.026831,0,0.002999,0,0,0,0.0328,-0.00069927,0.0096302,0.98661,0.01391,0.029713,8.1898e-07,0.91,0.86,0
0.045191,-0.01122,0.032775,-0.00068717,0.0096262,0.00051356,0,0,0.060186,-0.026815,0,0.0026705,0,0,0,0.032782,-0.00069505,0.0096262,0.87908,0.013905,0.029694,8.1758e-07,0.92,0.86,0
0.045793,-0.011223,0.032761,-0.00068461,0.009623,0.00045002,0,0,0.06016,-0.0268,0,0.0023401,0,0,0,0.032767,-0.00069066,0.009623,0.77073,0.0139,0.029677,8.1635e-07,0.93,0.86,0
0.046394,-0.011226,0.03275,-0.00068191,0.0096205,0.00038619,0,0,0.060137,-0.026786,0,0.0020082,0,0,0,0.032755,-0.00068638,0.0096205,0.66173,0.013896,0.029663,8.153e-07,0.94,0.86,0
0.046996,-0.011228,0.032741,-0.0006793,0.0096185,0.00032213,0,0,0.060118,-0.026774,0,0.0016751,0,0,0,0.032744,-0.0006824,0.0096185,0.55219,0.013893,0.02965,8.1441e-07,0.95,0.86,0
0.047597,-0.011229,0.032733,-0.00067694,0.009617,0.00025789,0,0,0.060103,-0.026764,0,0.0013411,0,0,0,0.032736,-0.00067893,0.009617,0.44223,0.013891,0.029639,8.1369e-07,0.96,0.86,0
0.048198,-0.01123,0.032728,-0.00067496,0.0096159,0.00019353,0,0,0.060091,-0.026756,0,0.0010063,0,0,0,0.032729,-0.00067608,0.0096159,0.33194,0.01389,0.029631,8.1313e-07,0.97,0.86,0
0.048798,-0.011231,0.032724,-0.00067348,0.0096151,0.00012907,0,0,0.060083,-0.02675,0,0.00067115,0,0,0,0.032724,-0.00067398,0.0096151,0.22142,0.013888,0.029625,8.1274e-07,0.98,0.86,0
0.049399,-0.011231,0.032721,-0.00067256,0.0096147,6.4548e-05,0,0,0.060078,-0.026747,0,0.00033565,0,0,0,0.032722,-0.00067269,0.0096147,0.11075,0.013888,0.029622,8.125e-07,0.99,0.86,0
0.05,-0.011232,0.032721,-0.00067225,0.0096145,-2.6733e-06,0,0,0.060076,-0.026746,0,-1.3901e-05,0,0,0,0.032721,-0.00067225,0.0096145,-0.0045869,0.013888,0.029621,8.1242e-07,1,0.86,0
0,0,0.031055,0.013309,0.013309,-0.0066041,0,0,0.046139,-2.1684e-19,0,-0.034341,0,0,0,0.033243,0.011121,0.013309,-18.33,0.019225,0.021113,4.659e-07,0,0.87,0
0.00046139,-0.00034341,0.030979,0.012343,0.012997,-0.0065928,0,0,0.046754,-0.0016995,0,-0.034283,0,0,0,0.033076,0.010246,0.012997,-17.64,0.018773,0.021586,4.8841e-07,0.01,0.87,0
0.00093509,-0.00068944,0.031303,0.011499,0.01284,-0.0065773,0,0,0.048002,-0.0034883,0,-0.034202,0,0,0,0.033288,0.0095134,0.01284,-16.797,0.018547,0.022298,5.2694e-07,0.02,0.87,0
0.0014214,-0.0010362,0.031624,0.010623,0.012674,-0.0065094,0,0,0.04927,-0.0053323,0,-0.033849,0,0,0,0.033478,0.0087694,0.012674,-15.898,0.018307,0.023006,5.6515e-07,0.03,0.87,0
0.0019205,-0.0013815,0.031935,0.0097359,0.012501,-0.0063843,0,0,0.050527,-0.0071897,0,-0.033198,0,0,0,0.03364,0.0080308,0.012501,-14.954,0.018057,0.023692,6.0189e-07,0.04,0.87,0
0.002432,-0.0017229,0.032226,0.0088564,0.012325,-0.0062025,0,0,0.051743,-0.0090174,0,-0.032253,0,0,0,0.03377,0.0073122,0.012325,-13.98,0.017802,0.024342,6.3616e-07,0.05,0.87,0
0.0029553,-0.002058,0.03249,0.0080032,0.012148,-0.0059692,0,0,0.052889,-0.010776,0,-0.03104,0,0,0,0.033867,0.0066255,0.012148,-12.996,0.017547,0.024943,6.6724e-07,0.06,0.87,0
0.0034897,-0.0023847,0.032722,0.0071912,0.011974,-0.0056932,0,0,0.053945,-0.012435,0,-0.029605,0,0,0,0.033934,0.0059791,0.011974,-12.018,0.017296,0.025492,6.9475e-07,0.07,0.87,0
0.0040342,-0.0027009,0.03292,0.0064311,0.011805,-0.0053848,0,0,0.054898,-0.013973,0,-0.028001,0,0,0,0.033973,0.0053783,0.011805,-11.063,0.017052,0.025984,7.1859e-07,0.08,0.87,0
0.0045877,-0.003005,0.033084,0.0057298,0.011644,-0.0050549,0,0,0.055744,-0.015377,0,-0.026286,0,0,0,0.033988,0.0048256,0.011644,-10.142,0.016819,0.026422,7.3889e-07,0.09,0.87,0
0.0051491,-0.0032959,0.033216,0.0050904,0.011492,-0.0047138,0,0,0.056483,-0.016644,0,-0.024512,0,0,0,0.033985,0.0043215,0.011492,-9.2654,0.0166,0.026808,7.5597e-07,0.1,0.87,0
0.0057174,-0.0035724,0.033321,0.0045135,0.01135,-0.0043703,0,0,0.057123,-0.017775,0,-0.022725,0,0,0,0.033969,0.0038651,0.01135,-8.4394,0.016395,0.027147,7.7019e-07,0.11,0.87,0
0.0062916,-0.0038341,0.033401,0.0039979,0.01122,-0.0040318,0,0,0.057672,-0.018777,0,-0.020965,0,0,0,0.033944,0.0034551,0.01122,-7.6678,0.016206,0.027443,7.82e-07,0.12,0.87,0
0.0068708,-0.0040804,0.033463,0.0035412,0.011101,-0.0037038,0,0,0.05814,-0.019656,0,-0.01926,0,0,0,0.033915,0.0030896,0.011101,-6.9525,0.016035,0.027702,7.9181e-07,0.13,0.87,0
0.0074544,-0.0043112,0.03351,0.0031408,0.010995,-0.0033905,0,0,0.058539,-0.020422,0,-0.017631,0,0,0,0.033884,0.0027669,0.010995,-6.2934,0.015882,0.027927,7.9998e-07,0.14,0.87,0
0.0080416,-0.0045264,0.033547,0.0027938,0.010902,-0.0030944,0,0,0.058877,-0.021082,0,-0.016091,0,0,0,0.033856,0.0024855,0.010902,-5.6891,0.015748,0.028123,8.0683e-07,0.15,0.87,0
0.0086319,-0.0047259,0.033578,0.0024976,0.010823,-0.0028168,0,0,0.059164,-0.021645,0,-0.014647,0,0,0,0.033832,0.0022444,0.010823,-5.1368,0.015633,0.028291,8.1261e-07,0.16,0.87,0
0.0092249,-0.0049099,0.033606,0.0022501,0.010757,-0.0025578,0,0,0.059408,-0.022118,0,-0.013301,0,0,0,0.033814,0.0020428,0.010757,-4.633,0.015538,0.028433,8.1754e-07,0.17,0.87,0
0.0098201,-0.0050783,0.033634,0.0020494,0.010705,-0.0023166,0,0,0.059615,-0.022504,0,-0.012046,0,0,0,0.033803,0.0018804,0.010705,-4.1726,0.015463,0.028552,8.2174e-07,0.18,0.87,0
0.010417,-0.0052311,0.033663,0.001894,0.010667,-0.002091,0,0,0.05979,-0.02281,0,-0.010873,0,0,0,0.0338,0.001757,0.010667,-3.7496,0.015408,0.028647,8.2533e-07,0.19,0.87,0
0.011016,-0.0053681,0.033697,0.0017827,0.010644,-0.001878,0,0,0.059937,-0.023039,0,-0.0097654,0,0,0,0.033807,0.0016726,0.010644,-3.3561,0.015374,0.028719,8.2838e-07,0.2,0.87,0
0.011616,-0.0054891,0.033736,0.001714,0.010635,-0.0016725,0,0,0.060062,-0.023194,0,-0.0086972,0,0,0,0.033823,0.0016269,0.010635,-2.9818,0.015362,0.02877,8.3098e-07,0.21,0.87,0
0.012217,-0.0055935,0.033783,0.0016863,0.010641,-0.0014677,0,0,0.06017,-0.023282,0,-0.0076318,0,0,0,0.03385,0.0016193,0.010641,-2.6126,0.01537,0.0288,8.3324e-07,0.22,0.87,0
0.012819,-0.0056803,0.033843,0.0016965,0.010662,-0.0012527,0,0,0.06027,-0.02331,0,-0.0065142,0,0,0,0.033891,0.0016478,0.010662,-2.2283,0.0154,0.028814,8.3551e-07,0.23,0.87,0
0.013423,-0.0057479,0.033926,0.001739,0.0107,-0.001012,0,0,0.06039,-0.023298,0,-0.0052622,0,0,0,0.033958,0.0017072,0.0107,-1.799,0.015455,0.028827,8.3874e-07,0.24,0.87,0
0.014027,-0.0057941,0.034071,0.0018036,0.010762,-0.00072355,0,0,0.060602,-0.023292,0,-0.0037624,0,0,0,0.034087,0.0017874,0.010762,-1.2839,0.015546,0.028878,8.4602e-07,0.25,0.87,0
0.014634,-0.0058158,0.03437,0.0018632,0.01087,-0.00038046,0,0,0.061101,-0.023418,0,-0.0019784,0,0,0,0.034375,0.0018587,0.01087,-0.67047,0.015701,0.029077,8.6585e-07,0.26,0.87,0
0.015249,-0.0058106,0.034837,0.0017845,0.010986,-2.7552e-05,0,0,0.062011,-0.023925,0,-0.00014327,0,0,0,0.034837,0.0017845,0.010986,-0.047762,0.015869,0.029546,9.0446e-07,0.27,0.87,0
0.015875,-0.0057776,0.035602,0.0018853,0.011246,0.00054081,0,0,0.063324,-0.024338,0,0.0028122,0,0,0,0.03561,0.0018766,0.011246,0.91871,0.016244,0.030161,9.6428e-07,0.28,0.87,0
0.016516,-0.0056757,0.040673,-0.00028661,0.012116,-5.3734e-05,0,0,0.051582,-0.022102,0,-0.00019571,0,0,0,0.040673,-0.00028668,0.012116,-0.075793,0.017501,0.036381,1.7605e-06,0.29,0.87,0
0.016969,-0.0056629,0.032867,0.00016527,0.0099096,0.0015701,0,0,0.041177,-0.017294,0,0.0061431,0,0,0,0.032947,8.4751e-05,0.0099096,2.9279,0.014314,0.029217,9.4681e-07,0.3,0.87,0
0.017298,-0.0057572,0.036139,-0.00064621,0.010648,0.001178,0,0,0.033138,-0.014682,0,0.0030627,0,0,0,0.036177,-0.0006839,0.010648,1.8323,0.01538,0.032702,1.0962e-06,0.31,0.87,0
0.017632,-0.0058633,0.035837,-0.001142,0.010408,0.0010102,0,0,0.033057,-0.015016,0,0.0026266,0,0,0,0.035865,-0.0011696,0.010408,1.5637,0.015034,0.032815,1.0826e-06,0.32,0.87,0
0.017959,-0.0059601,0.035277,-0.00075671,0.010356,0.0009755,0,0,0.032398,-0.014447,0,0.0025363,0,0,0,0.035304,-0.0007831,0.010356,1.5496,0.014959,0.032006,1.0221e-06,0.33,0.87,0
0.01828,-0.0060556,0.034865,-0.00068213,0.010255,0.0008383,0,0,0.031993,-0.014218,0,0.0021796,0,0,0,0.034885,-0.00070189,0.010255,1.3502,0.014813,0.031568,9.8412e-07,0.34,0.87,0
0.018599,-0.0061531,0.034748,-0.00051785,0.010269,0.0006898,0,0,0.031822,-0.014023,0,0.0017935,0,0,0,0.034761,-0.00053134,0.010269,1.1201,0.014833,0.031322,9.6893e-07,0.35,0.87,0
0.018916,-0.0062525,0.034662,-0.00036728,0.010288,0.00056229,0,0,0.031686,-0.013852,0,0.001462,0,0,0,0.034671,-0.0003763,0.010288,0.91939,0.014861,0.031117,9.5702e-07,0.36,0.87,0
0.019232,-0.0063539,0.034592,-0.00022608,0.01031,0.00043975,0,0,0.031567,-0.013697,0,0.0011433,0,0,0,0.034598,-0.00023163,0.01031,0.72347,0.014892,0.030936,9.4686e-07,0.37,0.87,0
0.019547,-0.0064573,0.034527,-9.9326e-05,0.010328,0.00032607,0,0,0.031458,-0.013556,0,0.00084779,0,0,0,0.03453,-0.0001024,0.010328,0.53949,0.014919,0.030773,9.3758e-07,0.38,0.87,0
0.019862,-0.0065627,0.034467,2.3284e-05,0.010347,0.00022042,0,0,0.031356,-0.013421,0,0.00057309,0,0,0,0.034468,2.1873e-05,0.010347,0.36664,0.014946,0.030618,9.2898e-07,0.39,0.87,0
0.020175,-0.00667,0.03441,0.0001434,0.010366,0.00012011,0,0,0.031258,-0.013289,0,0.00031228,0,0,0,0.034411,0.00014297,0.010366,0.20082,0.014973,0.030471,9.2084e-07,0.4,0.87,0
0.020487,-0.0067791,0.034357,0.00025794,0.010385,2.2898e-05,0,0,0.031165,-0.013165,0,5.9534e-05,0,0,0,0.034357,0.00025792,0.010385,0.038474,0.015,0.030332,9.1321e-07,0.41,0.87,0
0.020798,-0.00689,0.034309,0.00036307,0.010402,-7.164e-05,0,0,0.03108,-0.01305,0,-0.00018626,0,0,0,0.034309,0.00036292,0.010402,-0.12092,0.015025,0.030205,9.0631e-07,0.42,0.87,0
0.021108,-0.0070026,0.034266,0.00045604,0.010417,-0.00016263,0,0,0.031005,-0.012949,0,-0.00042285,0,0,0,0.034267,0.00045525,0.010417,-0.27559,0.015046,0.030094,9.0027e-07,0.43,0.87,0
0.021418,-0.0071168,0.03423,0.00053526,0.01043,-0.00024911,0,0,0.030941,-0.012863,0,-0.00064768,0,0,0,0.034232,0.00053342,0.01043,-0.42356,0.015065,0.030001,8.952e-07,0.44,0.87,0
0.021727,-0.0072325,0.034201,0.00059947,0.01044,-0.00033029,0,0,0.030889,-0.012793,0,-0.00085876,0,0,0,0.034204,0.00059623,0.01044,-0.56313,0.01508,0.029926,8.9112e-07,0.45,0.87,0
0.022036,-0.0073497,0.034177,0.00064762,0.010448,-0.00040569,0,0,0.030849,-0.01274,0,-0.0010548,0,0,0,0.034182,0.00064271,0.010448,-0.6931,0.015091,0.02987,8.8806e-07,0.46,0.87,0
0.022344,-0.007468,0.034161,0.00067876,0.010452,-0.00047495,0,0,0.030822,-0.012705,0,-0.0012349,0,0,0,0.034168,0.00067202,0.010452,-0.81252,0.015097,0.029833,8.8606e-07,0.47,0.87,0
0.022652,-0.0075874,0.034152,0.00069206,0.010453,-0.0005378,0,0,0.030808,-0.012689,0,-0.0013983,0,0,0,0.034161,0.00068342,0.010453,-0.92059,0.015099,0.029818,8.8515e-07,0.48,0.87,0
0.02296,-0.0077078,0.03415,0.0006869,0.010451,-0.00059392,0,0,0.030808,-0.012693,0,-0.0015442,0,0,0,0.03416,0.00067636,0.010451,-1.0165,0.015096,0.029823,8.8535e-07,0.49,0.87,0
0.023268,-0.0078288,0.034155,0.00066294,0.010445,-0.00064302,0,0,0.030822,-0.012717,0,-0.0016718,0,0,0,0.034167,0.00065059,0.010445,-1.0995,0.015088,0.02985,8.8664e-07,0.5,0.87,0
0.023577,-0.0079503,0.034166,0.00062098,0.010436,-0.00068513,0,0,0.030849,-0.01276,0,-0.0017813,0,0,0,0.03418,0.00060699,0.010436,-1.1696,0.015074,0.029896,8.8893e-07,0.51,0.87,0
0.023885,-0.0080722,0.034183,0.00056292,0.010424,-0.00072178,0,0,0.030887,-0.012819,0,-0.0018766,0,0,0,0.034198,0.00054743,0.010424,-1.2293,0.015056,0.029959,8.9211e-07,0.52,0.87,0
0.024194,-0.0081943,0.034205,0.0004899,0.010408,-0.00075651,0,0,0.030936,-0.012894,0,-0.0019669,0,0,0,0.034222,0.00047293,0.010408,-1.2848,0.015034,0.03004,8.9618e-07,0.53,0.87,0
0.024504,-0.0083164,0.034236,0.00039847,0.01039,-0.00079353,0,0,0.030999,-0.012989,0,-0.0020632,0,0,0,0.034255,0.00037988,0.01039,-1.3427,0.015008,0.030143,9.0146e-07,0.54,0.87,0
0.024814,-0.0084386,0.034274,0.00027672,0.010365,-0.00083546,0,0,0.031081,-0.013115,0,-0.0021722,0,0,0,0.034294,0.0002562,0.010365,-1.4069,0.014972,0.030277,9.0821e-07,0.55,0.87,0
0.025126,-0.0085608,0.03433,0.0001281,0.010337,-0.00088049,0,0,0.03119,-0.013272,0,-0.0022893,0,0,0,0.034353,0.00010545,0.010337,-1.4737,0.014932,0.030449,9.1727e-07,0.56,0.87,0
0.025438,-0.0086826,0.03442,-5.3459e-05,0.01031,-0.00094662,0,0,0.031343,-0.013472,0,-0.0024612,0,0,0,0.034446,-7.9433e-05,0.01031,-1.5717,0.014892,0.030679,9.3009e-07,0.57,0.87,0
0.025753,-0.0088043,0.0348,-0.000167,0.01039,-0.0010058,0,0,0.031733,-0.013724,0,-0.0026151,0,0,0,0.034829,-0.00019591,0.01039,-1.6463,0.015008,0.031113,9.6487e-07,0.58,0.87,0
0.026073,-0.0089228,0.035336,-0.00060225,0.01042,-0.00097054,0,0,0.032391,-0.014329,0,-0.0025234,0,0,0,0.035363,-0.00062844,0.01042,-1.5458,0.015052,0.031934,1.0227e-06,0.59,0.87,0
0.0264,-0.0090301,0.035598,-0.0002334,0.010609,-0.0010761,0,0,0.032486,-0.014096,0,-0.0027979,0,0,0,0.035631,-0.00026569,0.010609,-1.7187,0.015325,0.031882,1.035e-06,0.6,0.87,0
0.026722,-0.0091472,0.03236,0.00042187,0.0098346,-0.0014128,0,0,0.040408,-0.016703,0,-0.0055287,0,0,0,0.032427,0.00035508,0.0098346,-2.6992,0.014206,0.028539,8.9442e-07,0.61,0.87,0
0.027168,-0.0093663,0.040069,2.7286e-06,0.012021,0.00022065,0,0,0.050673,-0.021408,0,0.00084751,0,0,0,0.04007,1.4687e-06,0.012021,0.32999,0.017365,0.035616,1.6697e-06,0.62,0.87,0
0.027798,-0.0096682,0.035088,0.0019976,0.011126,-0.00035775,0,0,0.062302,-0.023733,0,-0.0018603,0,0,0,0.035092,0.0019938,0.011126,-0.61935,0.016071,0.029608,9.1802e-07,0.63,0.87,0
0.028414,-0.009902,0.034333,0.0018001,0.01084,0.00019382,0,0,0.061082,-0.023503,0,0.0010079,0,0,0,0.034334,0.0017989,0.01084,0.34133,0.015658,0.029088,8.646e-07,0.64,0.87,0
0.029019,-0.010107,0.033873,0.0017493,0.010687,0.00052756,0,0,0.060284,-0.023237,0,0.0027433,0,0,0,0.033881,0.0017406,0.010687,0.94062,0.015436,0.028732,8.3192e-07,0.65,0.87,0
0.029619,-0.010286,0.033579,0.0015365,0.010535,0.00083228,0,0,0.059915,-0.023395,0,0.0043279,0,0,0,0.033601,0.0015149,0.010535,1.4869,0.015217,0.028661,8.1774e-07,0.66,0.87,0
0.030218,-0.010441,0.033438,0.0012965,0.01042,0.0010609,0,0,0.059846,-0.023722,0,0.0055167,0,0,0,0.033473,0.0012615,0.01042,1.8884,0.015052,0.028748,8.1573e-07,0.67,0.87,0
0.030816,-0.010575,0.033354,0.0010568,0.010323,0.0012183,0,0,0.05988,-0.024093,0,0.0063353,0,0,0,0.0334,0.0010109,0.010323,2.1573,0.014911,0.028881,8.1755e-07,0.68,0.87,0
0.031415,-0.010694,0.03329,0.00082803,0.010235,0.0013246,0,0,0.059942,-0.024459,0,0.0068879,0,0,0,0.033344,0.00077407,0.010235,2.3328,0.014784,0.02902,8.2015e-07,0.69,0.87,0
0.032015,-0.010797,0.033235,0.00061607,0.010155,0.0013942,0,0,0.060007,-0.024802,0,0.0072496,0,0,0,0.033294,0.00055659,0.010155,2.4429,0.014669,0.029149,8.2258e-07,0.7,0.87,0
0.032615,-0.010889,0.033185,0.00042352,0.010082,0.0014365,0,0,0.060066,-0.025113,0,0.00747,0,0,0,0.033248,0.00036064,0.010082,2.5059,0.014564,0.029263,8.245e-07,0.71,0.87,0
0.033216,-0.010969,0.033137,0.00025129,0.010017,0.0014582,0,0,0.060114,-0.02539,0,0.0075828,0,0,0,0.033202,0.00018675,0.010017,2.534,0.014468,0.029361,8.2583e-07,0.72,0.87,0
0.033818,-0.01104,0.033092,9.926e-05,0.0099573,0.0014637,0,0,0.06015,-0.025631,0,0.0076113,0,0,0,0.033157,3.4449e-05,0.0099573,2.5353,0.014383,0.029443,8.2656e-07,0.73,0.87,0
0.034419,-0.011102,0.033048,-3.3333e-05,0.0099043,0.0014563,0,0,0.060173,-0.025838,0,0.0075728,0,0,0,0.033112,-9.7319e-05,0.0099043,2.5158,0.014306,0.029508,8.2672e-07,0.74,0.87,0
0.035021,-0.011158,0.033005,-0.00014767,0.0098573,0.0014385,0,0,0.060185,-0.026013,0,0.0074801,0,0,0,0.033068,-0.00020997,0.0098573,2.4798,0.014238,0.029559,8.2639e-07,0.75,0.87,0
0.035623,-0.011206,0.032964,-0.00024517,0.0098157,0.0014122,0,0,0.060186,-0.026158,0,0.0073433,0,0,0,0.033024,-0.00030511,0.0098157,2.4306,0.014178,0.029597,8.2563e-07,0.76,0.87,0
0.036225,-0.011248,0.032925,-0.00032738,0.0097792,0.0013789,0,0,0.060178,-0.026277,0,0.0071702,0,0,0,0.032982,-0.00038446,0.0097792,2.3705,0.014125,0.029622,8.2452e-07,0.77,0.87,0
0.036827,-0.011285,0.032887,-0.00039589,0.0097473,0.0013398,0,0,0.060163,-0.026372,0,0.0069671,0,0,0,0.032941,-0.00044974,0.0097473,2.3015,0.014079,0.029638,8.2314e-07,0.78,0.87,0
0.037428,-0.011318,0.032851,-0.00045228,0.0097196,0.001296,0,0,0.060141,-0.026447,0,0.0067392,0,0,0,0.032901,-0.00050264,0.0097196,2.2252,0.014039,0.029645,8.2155e-07,0.79,0.87,0
0.038029,-0.011346,0.032817,-0.00049804,0.0096957,0.0012482,0,0,0.060115,-0.026504,0,0.0064904,0,0,0,0.032864,-0.00054474,0.0096957,2.1426,0.014005,0.029646,8.1982e-07,0.8,0.87,0
0.03863,-0.01137,0.032785,-0.0005346,0.0096752,0.001197,0,0,0.060086,-0.026545,0,0.0062244,0,0,0,0.032828,-0.00057754,0.0096752,2.0548,0.013975,0.02964,8.1801e-07,0.81,0.87,0
0.039231,-0.011392,0.032755,-0.00056325,0.0096577,0.0011431,0,0,0.060054,-0.026574,0,0.0059439,0,0,0,0.032795,-0.00060242,0.0096577,1.9626,0.01395,0.029631,8.1616e-07,0.82,0.87,0
0.039831,-0.01141,0.032728,-0.0005852,0.0096429,0.0010868,0,0,0.060022,-0.026593,0,0.0056513,0,0,0,0.032764,-0.00062062,0.0096429,1.8665,0.013929,0.029618,8.1432e-07,0.83,0.87,0
0.040432,-0.011425,0.032703,-0.00060152,0.0096305,0.0010286,0,0,0.059989,-0.026603,0,0.0053488,0,0,0,0.032735,-0.00063326,0.0096305,1.7673,0.013911,0.029602,8.1251e-07,0.84,0.87,0
0.041031,-0.011439,0.032681,-0.00061317,0.0096202,0.00096883,0,0,0.059957,-0.026607,0,0.0050379,0,0,0,0.032709,-0.00064133,0.0096202,1.6654,0.013896,0.029586,8.1077e-07,0.85,0.87,0
0.041631,-0.01145,0.03266,-0.00062099,0.0096118,0.00090774,0,0,0.059926,-0.026605,0,0.0047202,0,0,0,0.032685,-0.00064573,0.0096118,1.5612,0.013884,0.029568,8.0912e-07,0.86,0.87,0
0.04223,-0.011459,0.032642,-0.00062573,0.0096048,0.00084558,0,0,0.059896,-0.0266,0,0.004397,0,0,0,0.032663,-0.00064721,0.0096048,1.4551,0.013874,0.02955,8.0757e-07,0.87,0.87,0
0.042829,-0.011467,0.032626,-0.00062804,0.0095993,0.00078255,0,0,0.059868,-0.026591,0,0.0040693,0,0,0,0.032644,-0.00064645,0.0095993,1.3473,0.013866,0.029532,8.0612e-07,0.88,0.87,0
0.043427,-0.011474,0.032611,-0.00062849,0.0095948,0.00071884,0,0,0.059843,-0.026581,0,0.003738,0,0,0,0.032627,-0.00064403,0.0095948,1.2383,0.013859,0.029515,8.048e-07,0.89,0.87,0
0.044026,-0.011479,0.032599,-0.00062756,0.0095913,0.00065458,0,0,0.059819,-0.026569,0,0.0034038,0,0,0,0.032612,-0.00064045,0.0095913,1.1282,0.013854,0.029499,8.0359e-07,0.9,0.87,0
0.044624,-0.011484,0.032588,-0.00062566,0.0095887,0.0005899,0,0,0.059798,-0.026557,0,0.0030675,0,0,0,0.032598,-0.00063614,0.0095887,1.0172,0.01385,0.029483,8.0251e-07,0.91,0.87,0
0.045221,-0.011487,0.032579,-0.00062315,0.0095866,0.00052489,0,0,0.059779,-0.026545,0,0.0027294,0,0,0,0.032587,-0.00063145,0.0095866,0.90549,0.013847,0.029469,8.0155e-07,0.92,0.87,0
0.045819,-0.01149,0.032571,-0.00062032,0.0095851,0.00045963,0,0,0.059762,-0.026534,0,0.0023901,0,0,0,0.032577,-0.00062669,0.0095851,0.79324,0.013845,0.029457,8.0071e-07,0.93,0.87,0
0.046417,-0.011492,0.032564,-0.00061742,0.009584,0.0003942,0,0,0.059748,-0.026524,0,0.0020499,0,0,0,0.032569,-0.0006221,0.009584,0.68056,0.013843,0.029446,7.9999e-07,0.94,0.87,0
0.047014,-0.011494,0.032559,-0.00061465,0.0095832,0.00032864,0,0,0.059736,-0.026514,0,0.001709,0,0,0,0.032562,-0.00061791,0.0095832,0.56755,0.013842,0.029436,7.9939e-07,0.95,0.87,0
0.047611,-0.011496,0.032554,-0.00061218,0.0095826,0.000263,0,0,0.059726,-0.026506,0,0.0013676,0,0,0,0.032556,-0.00061426,0.0095826,0.45429,0.013842,0.029428,7.989e-07,0.96,0.87,0
0.048209,-0.011496,0.032551,-0.00061012,0.0095823,0.00019729,0,0,0.059719,-0.0265,0,0.0010259,0,0,0,0.032552,-0.0006113,0.0095823,0.34086,0.013841,0.029422,7.9852e-07,0.97,0.87,0
0.048806,-0.011497,0.032549,-0.00060859,0.009582,0.00013154,0,0,0.059713,-0.026496,0,0.00068403,0,0,0,0.032549,-0.00060911,0.009582,0.2273,0.013841,0.029418,7.9825e-07,0.98,0.87,0
0.049403,-0.011498,0.032547,-0.00060764,0.0095819,6.5777e-05,0,0,0.05971,-0.026493,0,0.00034204,0,0,0,0.032548,-0.00060777,0.0095819,0.11367,0.013841,0.029415,7.9809e-07,0.99,0.87,0
0.05,-0.011498,0.032547,-0.00060733,0.0095819,-2.4679e-06,0,0,0.059709,-0.026492,0,-1.2833e-05,0,0,0,0.032547,-0.00060733,0.0095819,-0.0042649,0.013841,0.029414,7.9804e-07,1,0.87,0
0,0,0.031199,0.013371,0.013371,-0.0069383,0,0,0.046352,0,0,-0.036079,0,0,0,0.033581,0.010989,0.013371,-18.948,0.019314,0.0215,4.8937e-07,0,0.88,0
0.00046352,-0.00036079,0.03112,0.012358,0.013043,-0.0069259,0,0,0.046999,-0.0017828,0,-0.036015,0,0,0,0.033399,0.010078,0.013043,-18.219,0.01884,0.021989,5.1277e-07,0.01,0.88,0
0.00093999,-0.00072521,0.031458,0.011458,0.012875,-0.0069131,0,0,0.048315,-0.0036831,0,-0.035948,0,0,0,0.033615,0.0093011,0.012875,-17.329,0.018597,0.022738,5.5386e-07,0.02,0.88,0
0.0014298,-0.001091,0.031791,0.010519,0.012693,-0.0068371,0,0,0.049655,-0.0056529,0,-0.035553,0,0,0,0.033799,0.0085108,0.012693,-16.367,0.018334,0.023478,5.9422e-07,0.03,0.88,0
0.0019331,-0.0014554,0.032109,0.0095659,0.012502,-0.0066924,0,0,0.050977,-0.007635,0,-0.034801,0,0,0,0.033946,0.0077288,0.012502,-15.35,0.018059,0.024186,6.323e-07,0.04,0.88,0
0.0024494,-0.0018156,0.0324,0.008626,0.012308,-0.0064813,0,0,0.052239,-0.0095724,0,-0.033703,0,0,0,0.034052,0.0069739,0.012308,-14.301,0.017778,0.024844,6.6686e-07,0.05,0.88,0
0.0029779,-0.0021688,0.032655,0.0077221,0.012113,-0.0062119,0,0,0.053409,-0.011416,0,-0.032302,0,0,0,0.034117,0.0062602,0.012113,-13.243,0.017497,0.02544,6.9711e-07,0.06,0.88,0
0.0035175,-0.0025123,0.032869,0.0068717,0.011922,-0.0058964,0,0,0.054462,-0.013131,0,-0.030661,0,0,0,0.034144,0.0055969,0.011922,-12.2,0.017221,0.025968,7.2271e-07,0.07,0.88,0
0.0040671,-0.002844,0.03304,0.0060862,0.011738,-0.0055483,0,0,0.055386,-0.014695,0,-0.028851,0,0,0,0.034138,0.0049888,0.011738,-11.188,0.016955,0.026429,7.4373e-07,0.08,0.88,0
0.0046253,-0.0031622,0.03317,0.0053714,0.011562,-0.0051813,0,0,0.056181,-0.016097,0,-0.026943,0,0,0,0.034105,0.004437,0.011562,-10.222,0.016702,0.026824,7.6052e-07,0.09,0.88,0
0.0051907,-0.0034657,0.033263,0.0047289,0.011398,-0.0048074,0,0,0.056851,-0.017339,0,-0.024998,0,0,0,0.034051,0.0039407,0.011398,-9.3107,0.016463,0.027161,7.7359e-07,0.1,0.88,0
0.0057623,-0.0037534,0.033324,0.0041573,0.011244,-0.0044364,0,0,0.057408,-0.018427,0,-0.023069,0,0,0,0.033984,0.0034974,0.011244,-8.46,0.016242,0.027446,7.8352e-07,0.11,0.88,0
0.0063389,-0.0040248,0.03336,0.0036532,0.011104,-0.004076,0,0,0.057865,-0.019371,0,-0.021195,0,0,0,0.033909,0.0031041,0.011104,-7.6726,0.016039,0.027685,7.909e-07,0.12,0.88,0
0.0069196,-0.0042796,0.033375,0.0032126,0.010976,-0.0037315,0,0,0.058236,-0.020185,0,-0.019404,0,0,0,0.033829,0.0027578,0.010976,-6.9488,0.015855,0.027886,7.9626e-07,0.13,0.88,0
0.0075036,-0.0045178,0.033375,0.002831,0.010862,-0.0034066,0,0,0.058535,-0.02088,0,-0.017714,0,0,0,0.033751,0.0024557,0.010862,-6.2872,0.015689,0.028053,8.0004e-07,0.14,0.88,0
0.0080903,-0.0047392,0.033366,0.0025043,0.010761,-0.0031031,0,0,0.058773,-0.021468,0,-0.016136,0,0,0,0.033675,0.0021954,0.010761,-5.6851,0.015544,0.028191,8.0261e-07,0.15,0.88,0
0.0086791,-0.004944,0.033352,0.0022286,0.010674,-0.0028216,0,0,0.058962,-0.021958,0,-0.014672,0,0,0,0.033606,0.0019749,0.010674,-5.1386,0.015418,0.028302,8.0424e-07,0.16,0.88,0
0.0092695,-0.0051323,0.033335,0.0020009,0.010601,-0.0025617,0,0,0.059109,-0.02236,0,-0.013321,0,0,0,0.033543,0.0017928,0.010601,-4.643,0.015312,0.02839,8.0514e-07,0.17,0.88,0
0.0098612,-0.0053043,0.033318,0.0018182,0.010541,-0.0023217,0,0,0.059221,-0.022679,0,-0.012073,0,0,0,0.033488,0.001648,0.010541,-4.1928,0.015226,0.028456,8.0546e-07,0.18,0.88,0
0.010454,-0.0054598,0.033303,0.0016781,0.010495,-0.0020993,0,0,0.059304,-0.022923,0,-0.010917,0,0,0,0.033442,0.0015393,0.010495,-3.7813,0.015159,0.028501,8.053e-07,0.19,0.88,0
0.011047,-0.0055989,0.033293,0.0015781,0.010461,-0.001891,0,0,0.059362,-0.023096,0,-0.0098334,0,0,0,0.033405,0.0014657,0.010461,-3.4003,0.015111,0.028526,8.0474e-07,0.2,0.88,0
0.011641,-0.0057213,0.033288,0.0015153,0.010441,-0.0016921,0,0,0.059402,-0.023207,0,-0.0087989,0,0,0,0.033377,0.0014254,0.010441,-3.0399,0.015081,0.028533,8.0388e-07,0.21,0.88,0
0.012235,-0.0058264,0.033291,0.0014859,0.010433,-0.0014961,0,0,0.05943,-0.023262,0,-0.0077798,0,0,0,0.033361,0.0014157,0.010433,-2.6873,0.01507,0.028526,8.0295e-07,0.22,0.88,0
0.01283,-0.0059134,0.033306,0.0014835,0.010437,-0.0012949,0,0,0.05946,-0.023279,0,-0.0067335,0,0,0,0.033359,0.0014309,0.010437,-2.3263,0.015076,0.028512,8.0236e-07,0.23,0.88,0
0.013425,-0.0059811,0.033344,0.0014972,0.010452,-0.0010788,0,0,0.059518,-0.023283,0,-0.0056096,0,0,0,0.03338,0.0014607,0.010452,-1.9379,0.015098,0.028508,8.0307e-07,0.24,0.88,0
0.01402,-0.0060277,0.033417,0.0015058,0.010477,-0.00084156,0,0,0.059644,-0.023324,0,-0.0043761,0,0,0,0.033439,0.0014836,0.010477,-1.5096,0.015133,0.028542,8.0668e-07,0.25,0.88,0
0.014617,-0.0060513,0.033501,0.0014604,0.010489,-0.00058875,0,0,0.059833,-0.023473,0,-0.0030615,0,0,0,0.033512,0.0014496,0.010489,-1.0523,0.01515,0.028634,8.1312e-07,0.26,0.88,0
0.015217,-0.0060495,0.033466,0.0013216,0.010436,-0.00031528,0,0,0.059878,-0.023698,0,-0.0016395,0,0,0,0.033469,0.0013185,0.010436,-0.5619,0.015075,0.028699,8.1379e-07,0.27,0.88,0
0.015815,-0.0060159,0.033339,0.0012236,0.010369,9.9808e-05,0,0,0.059722,-0.023777,0,0.000519,0,0,0,0.033339,0.0012233,0.010369,0.17806,0.014977,0.028659,8.0694e-07,0.28,0.88,0
0.016411,-0.005933,0.033686,0.0001698,0.010157,0.00017714,0,0,0.061177,-0.025966,0,0.00092112,0,0,0,0.033687,0.00016887,0.010157,0.3028,0.014671,0.029807,8.6316e-07,0.29,0.88,0
0.017039,-0.0058479,0.03741,-0.00064351,0.01103,0.0003489,0,0,0.048155,-0.021099,0,0.0012224,0,0,0,0.037414,-0.00064674,0.01103,0.51379,0.015932,0.033772,1.3418e-06,0.3,0.88,0
0.017447,-0.0059057,0.030295,-0.0003446,0.0089852,0.0018493,0,0,0.03792,-0.016437,0,0.0068493,0,0,0,0.030408,-0.0004575,0.0089852,3.5598,0.012979,0.027394,7.7972e-07,0.31,0.88,0
0.017767,-0.0060131,0.034457,-0.00089576,0.010068,0.0010625,0,0,0.031706,-0.014254,0,0.0027625,0,0,0,0.034489,-0.00092766,0.010068,1.7199,0.014543,0.031398,9.5745e-07,0.32,0.88,0
0.018081,-0.0061024,0.034299,-0.000856,0.010033,0.0010936,0,0,0.031546,-0.014156,0,0.0028433,0,0,0,0.034334,-0.00088999,0.010033,1.78,0.014492,0.031229,9.4363e-07,0.33,0.88,0
0.018398,-0.0061968,0.034573,-0.00058659,0.010196,0.00086754,0,0,0.03169,-0.014017,0,0.0022556,0,0,0,0.034595,-0.00060798,0.010196,1.4126,0.014727,0.031235,9.5727e-07,0.34,0.88,0
0.018715,-0.0062925,0.034592,-0.00041988,0.010252,0.00075473,0,0,0.031643,-0.013873,0,0.0019623,0,0,0,0.034609,-0.00043614,0.010252,1.2343,0.014808,0.03111,9.5359e-07,0.35,0.88,0
0.019031,-0.0063903,0.034578,-0.00023586,0.010303,0.00062369,0,0,0.031558,-0.0137,0,0.0016216,0,0,0,0.034589,-0.00024703,0.010303,1.026,0.014882,0.030941,9.4658e-07,0.36,0.88,0
0.019346,-0.0064901,0.034525,-0.00010774,0.010325,0.00049704,0,0,0.03146,-0.013563,0,0.0012923,0,0,0,0.034532,-0.00011487,0.010325,0.82206,0.014914,0.030785,9.3813e-07,0.37,0.88,0
0.01966,-0.0065922,0.034474,5.799e-06,0.010344,0.00038148,0,0,0.031369,-0.01344,0,0.00099184,0,0,0,0.034479,1.5776e-06,0.010344,0.63401,0.014941,0.030644,9.3041e-07,0.38,0.88,0
0.019974,-0.0066963,0.034423,0.00012239,0.010364,0.00027688,0,0,0.031277,-0.013314,0,0.00071988,0,0,0,0.034425,0.00012016,0.010364,0.46246,0.01497,0.030502,9.2266e-07,0.39,0.88,0
0.020286,-0.0068023,0.034371,0.00024278,0.010384,0.00017578,0,0,0.031183,-0.013184,0,0.00045703,0,0,0,0.034371,0.00024188,0.010384,0.2951,0.014999,0.030357,9.1481e-07,0.4,0.88,0
0.020597,-0.0069102,0.034319,0.00035745,0.010403,7.4096e-05,0,0,0.031091,-0.013059,0,0.00019265,0,0,0,0.034319,0.00035729,0.010403,0.12501,0.015026,0.030218,9.0727e-07,0.41,0.88,0
0.020908,-0.00702,0.034271,0.00045949,0.010419,-2.6477e-05,0,0,0.031008,-0.012948,0,-6.8841e-05,0,0,0,0.034271,0.00045947,0.010419,-0.044868,0.01505,0.030094,9.0045e-07,0.42,0.88,0
0.021218,-0.0071316,0.034229,0.00054796,0.010433,-0.00012375,0,0,0.030935,-0.012851,0,-0.00032176,0,0,0,0.03423,0.00054751,0.010433,-0.21052,0.01507,0.029987,8.9458e-07,0.43,0.88,0
0.021527,-0.007245,0.034193,0.00062194,0.010445,-0.00021628,0,0,0.030873,-0.012769,0,-0.00056234,0,0,0,0.034195,0.00062055,0.010445,-0.36911,0.015087,0.029898,8.8968e-07,0.44,0.88,0
0.021835,-0.00736,0.034163,0.00068047,0.010453,-0.00030343,0,0,0.030823,-0.012704,0,-0.00078892,0,0,0,0.034166,0.00067772,0.010453,-0.51918,0.015099,0.029827,8.8573e-07,0.45,0.88,0
0.022143,-0.0074766,0.034138,0.00072271,0.010458,-0.00038484,0,0,0.030784,-0.012656,0,-0.0010006,0,0,0,0.034143,0.00071828,0.010458,-0.65975,0.015107,0.029774,8.8274e-07,0.46,0.88,0
0.022451,-0.0075947,0.03412,0.00074783,0.01046,-0.00046042,0,0,0.030757,-0.012626,0,-0.0011971,0,0,0,0.034126,0.00074148,0.01046,-0.79029,0.015109,0.029741,8.8073e-07,0.47,0.88,0
0.022758,-0.007714,0.034107,0.00075501,0.010459,-0.00053004,0,0,0.030743,-0.012615,0,-0.0013781,0,0,0,0.034115,0.00074659,0.010459,-0.91025,0.015107,0.029728,8.7977e-07,0.48,0.88,0
0.023065,-0.0078344,0.034101,0.00074354,0.010453,-0.00059352,0,0,0.030742,-0.012623,0,-0.0015431,0,0,0,0.034112,0.00073298,0.010453,-1.019,0.0151,0.029735,8.799e-07,0.49,0.88,0
0.023373,-0.0079556,0.034103,0.00071266,0.010445,-0.0006501,0,0,0.030756,-0.012652,0,-0.0016902,0,0,0,0.034116,0.00070001,0.010445,-1.115,0.015087,0.029765,8.8117e-07,0.5,0.88,0
0.023681,-0.0080776,0.03411,0.00066162,0.010432,-0.00069852,0,0,0.030782,-0.012701,0,-0.0018161,0,0,0,0.034125,0.00064704,0.010432,-1.1958,0.015068,0.029815,8.8343e-07,0.51,0.88,0
0.023989,-0.0082001,0.03412,0.00059554,0.010415,-0.0007382,0,0,0.030817,-0.012765,0,-0.0019193,0,0,0,0.034136,0.00057929,0.010415,-1.2608,0.015043,0.029879,8.8632e-07,0.52,0.88,0
0.024297,-0.0083229,0.034132,0.00052213,0.010396,-0.00077448,0,0,0.030856,-0.012836,0,-0.0020137,0,0,0,0.034149,0.00050429,0.010396,-1.3194,0.015017,0.02995,8.8953e-07,0.53,0.88,0
0.024606,-0.008446,0.034145,0.00043901,0.010375,-0.00081623,0,0,0.030901,-0.012917,0,-0.0021222,0,0,0,0.034165,0.00041925,0.010375,-1.3864,0.014986,0.030032,8.9322e-07,0.54,0.88,0
0.024915,-0.0085693,0.034163,0.00032742,0.010347,-0.00086525,0,0,0.030961,-0.013026,0,-0.0022496,0,0,0,0.034186,0.00030531,0.010347,-1.4639,0.014946,0.030141,8.9818e-07,0.55,0.88,0
0.025225,-0.0086929,0.034147,0.00014505,0.010288,-0.00091694,0,0,0.031018,-0.013185,0,-0.002384,0,0,0,0.034172,0.00012034,0.010288,-1.5436,0.01486,0.030277,9.0243e-07,0.56,0.88,0
0.025535,-0.0088167,0.034102,-3.6464e-05,0.01022,-0.00095079,0,0,0.031047,-0.013333,0,-0.002472,0,0,0,0.034128,-6.2924e-05,0.01022,-1.5941,0.014762,0.030384,9.0416e-07,0.57,0.88,0
0.025846,-0.0089397,0.033805,-0.00033944,0.01004,-0.0010979,0,0,0.030895,-0.013493,0,-0.0028546,0,0,0,0.033841,-0.0003747,0.01004,-1.8398,0.014502,0.030378,8.9009e-07,0.58,0.88,0
0.026153,-0.0090658,0.033929,-0.00043061,0.01005,-0.0010043,0,0,0.031044,-0.013624,0,-0.0026113,0,0,0,0.033959,-0.00045995,0.01005,-1.6729,0.014516,0.030551,9.0173e-07,0.59,0.88,0
0.026467,-0.009173,0.029809,-4.5852e-05,0.008929,-0.0017212,0,0,0.03716,-0.01581,0,-0.0063456,0,0,0,0.029909,-0.00014594,0.008929,-3.3892,0.012897,0.026701,7.3416e-07,0.6,0.88,0
0.026867,-0.0093259,0.036822,-0.00031275,0.010953,-0.00020415,0,0,0.047228,-0.020357,0,-0.00065591,0,0,0,0.036823,-0.000314,0.010953,-0.29341,0.015821,0.032981,1.2674e-06,0.61,0.88,0
0.027483,-0.0096149,0.033162,0.00040959,0.010072,-8.6277e-06,0,0,0.060036,-0.025121,0,-4.4864e-05,0,0,0,0.033162,0.00040959,0.010072,-0.015093,0.014548,0.029149,8.1681e-07,0.62,0.88,0
0.028068,-0.0099004,0.032799,0.0013416,0.010242,7.5245e-05,0,0,0.058648,-0.023142,0,0.00039127,0,0,0,0.0328,0.0013414,0.010242,0.13705,0.014794,0.028086,7.6452e-07,0.63,0.88,0
0.028656,-0.010136,0.032925,0.0013495,0.010282,0.0004817,0,0,0.058872,-0.023226,0,0.0025048,0,0,0,0.032933,0.0013421,0.010282,0.87379,0.014852,0.028204,7.74e-07,0.64,0.88,0
0.029246,-0.010341,0.032952,0.0013744,0.010298,0.00073475,0,0,0.0589,-0.023201,0,0.0038207,0,0,0,0.032969,0.0013573,0.010298,1.3322,0.014875,0.028224,7.7617e-07,0.65,0.88,0
0.029834,-0.01052,0.03286,0.001286,0.010244,0.00095137,0,0,0.058801,-0.02329,0,0.0049471,0,0,0,0.032888,0.0012573,0.010244,1.7243,0.014796,0.028232,7.7323e-07,0.66,0.88,0
0.030422,-0.010677,0.032778,0.0011238,0.010171,0.0011319,0,0,0.05878,-0.023522,0,0.0058859,0,0,0,0.032819,0.0010834,0.010171,2.0453,0.014691,0.028307,7.7311e-07,0.67,0.88,0
0.031009,-0.010815,0.032728,0.00093696,0.0101,0.0012684,0,0,0.058835,-0.023823,0,0.0065959,0,0,0,0.032779,0.00088643,0.0101,2.2812,0.014588,0.028428,7.7572e-07,0.68,0.88,0
0.031598,-0.010937,0.032696,0.00074667,0.010033,0.0013652,0,0,0.058925,-0.024144,0,0.007099,0,0,0,0.032754,0.00068844,0.010033,2.4423,0.014492,0.028564,7.7938e-07,0.69,0.88,0
0.032188,-0.011044,0.032672,0.00056361,0.0099707,0.0014302,0,0,0.059024,-0.024459,0,0.0074369,0,0,0,0.032736,0.00050004,0.0099707,2.5454,0.014402,0.028697,7.8313e-07,0.7,0.88,0
0.032779,-0.011138,0.032652,0.0003934,0.0099135,0.0014703,0,0,0.059119,-0.024752,0,0.0076454,0,0,0,0.032718,0.00032653,0.0099135,2.6042,0.01432,0.02882,7.8652e-07,0.71,0.88,0
0.03337,-0.011221,0.032632,0.0002388,0.0098613,0.0014907,0,0,0.059204,-0.025018,0,0.0077518,0,0,0,0.032701,0.00017034,0.0098613,2.6293,0.014244,0.028929,7.8936e-07,0.72,0.88,0
0.033963,-0.011294,0.032613,0.0001009,0.0098142,0.0014955,0,0,0.059277,-0.025255,0,0.0077765,0,0,0,0.032682,3.2259e-05,0.0098142,2.6281,0.014176,0.029022,7.916e-07,0.73,0.88,0
0.034556,-0.011359,0.032594,-2.0218e-05,0.0097721,0.0014875,0,0,0.059337,-0.02546,0,0.0077349,0,0,0,0.032662,-8.792e-05,0.0097721,2.606,0.014115,0.029101,7.9325e-07,0.74,0.88,0
0.03515,-0.011416,0.032574,-0.00012516,0.0097348,0.001469,0,0,0.059383,-0.025636,0,0.007639,0,0,0,0.03264,-0.00019102,0.0097348,2.5671,0.014061,0.029164,7.9436e-07,0.75,0.88,0
0.035744,-0.011466,0.032555,-0.0002149,0.0097021,0.001442,0,0,0.059418,-0.025784,0,0.0074981,0,0,0,0.032619,-0.00027823,0.0097021,2.5147,0.014014,0.029215,7.9499e-07,0.76,0.88,0
0.036338,-0.011509,0.032536,-0.00029069,0.0096737,0.0014077,0,0,0.059443,-0.025907,0,0.0073199,0,0,0,0.032596,-0.00035094,0.0096737,2.4509,0.013973,0.029253,7.9523e-07,0.77,0.88,0
0.036932,-0.011547,0.032518,-0.00035386,0.0096491,0.0013674,0,0,0.059458,-0.026008,0,0.0071105,0,0,0,0.032574,-0.00041064,0.0096491,2.3779,0.013938,0.029281,7.9513e-07,0.78,0.88,0
0.037527,-0.011581,0.0325,-0.00040579,0.0096282,0.0013221,0,0,0.059466,-0.026088,0,0.0068751,0,0,0,0.032553,-0.00045883,0.0096282,2.2972,0.013907,0.029301,7.9477e-07,0.79,0.88,0
0.038122,-0.011609,0.032483,-0.00044784,0.0096106,0.0012727,0,0,0.059469,-0.026152,0,0.0066181,0,0,0,0.032532,-0.00049696,0.0096106,2.21,0.013882,0.029313,7.9421e-07,0.8,0.88,0
0.038716,-0.011634,0.032467,-0.00048131,0.0095958,0.0012198,0,0,0.059466,-0.026201,0,0.006343,0,0,0,0.032512,-0.00052641,0.0095958,2.1173,0.013861,0.029319,7.9351e-07,0.81,0.88,0
0.039311,-0.011656,0.032453,-0.0005074,0.0095837,0.0011641,0,0,0.05946,-0.026237,0,0.006053,0,0,0,0.032494,-0.00054846,0.0095837,2.0201,0.013843,0.02932,7.9272e-07,0.82,0.88,0
0.039906,-0.011674,0.03244,-0.00052723,0.0095738,0.0011059,0,0,0.059452,-0.026263,0,0.0057508,0,0,0,0.032477,-0.00056429,0.0095738,1.9192,0.013829,0.029318,7.9187e-07,0.83,0.88,0
0.0405,-0.01169,0.032428,-0.00054181,0.009566,0.0010459,0,0,0.059442,-0.02628,0,0.0054386,0,0,0,0.032461,-0.00057496,0.009566,1.8151,0.013817,0.029313,7.9101e-07,0.84,0.88,0
0.041094,-0.011703,0.032418,-0.00055204,0.0095598,0.00098427,0,0,0.059432,-0.026291,0,0.0051182,0,0,0,0.032447,-0.0005814,0.0095598,1.7085,0.013809,0.029305,7.9015e-07,0.85,0.88,0
0.041689,-0.011714,0.032409,-0.00055872,0.0095552,0.00092143,0,0,0.059421,-0.026296,0,0.0047914,0,0,0,0.032435,-0.00058445,0.0095552,1.5997,0.013802,0.029297,7.8931e-07,0.86,0.88,0
0.042283,-0.011724,0.032402,-0.00056255,0.0095517,0.0008576,0,0,0.05941,-0.026297,0,0.0044595,0,0,0,0.032424,-0.00058485,0.0095517,1.4893,0.013797,0.029287,7.8852e-07,0.87,0.88,0
0.042877,-0.011732,0.032395,-0.00056415,0.0095493,0.00079301,0,0,0.059399,-0.026295,0,0.0041237,0,0,0,0.032414,-0.00058322,0.0095493,1.3775,0.013793,0.029277,7.8778e-07,0.88,0.88,0
0.043471,-0.011738,0.03239,-0.00056405,0.0095477,0.00072785,0,0,0.059389,-0.026291,0,0.0037848,0,0,0,0.032406,-0.00058012,0.0095477,1.2647,0.013791,0.029267,7.871e-07,0.89,0.88,0
0.044065,-0.011743,0.032385,-0.0005627,0.0095468,0.00066227,0,0,0.059381,-0.026285,0,0.0034438,0,0,0,0.032399,-0.00057601,0.0095468,1.151,0.01379,0.029258,7.8648e-07,0.9,0.88,0
0.044658,-0.011748,0.032382,-0.0005605,0.0095464,0.00059639,0,0,0.059372,-0.026278,0,0.0031012,0,0,0,0.032393,-0.00057129,0.0095464,1.0368,0.013789,0.029249,7.8593e-07,0.91,0.88,0
0.045252,-0.011751,0.032379,-0.00055776,0.0095464,0.00053031,0,0,0.059365,-0.026271,0,0.0027576,0,0,0,0.032388,-0.0005663,0.0095464,0.92218,0.013789,0.02924,7.8545e-07,0.92,0.88,0
0.045846,-0.011754,0.032377,-0.00055478,0.0095467,0.00046409,0,0,0.059359,-0.026264,0,0.0024133,0,0,0,0.032384,-0.00056132,0.0095467,0.80723,0.01379,0.029232,7.8502e-07,0.93,0.88,0
0.046439,-0.011756,0.032376,-0.00055178,0.0095471,0.00039781,0,0,0.059354,-0.026257,0,0.0020686,0,0,0,0.03238,-0.00055659,0.0095471,0.69209,0.01379,0.029226,7.8466e-07,0.94,0.88,0
0.047033,-0.011758,0.032374,-0.00054895,0.0095476,0.0003315,0,0,0.059349,-0.026251,0,0.0017238,0,0,0,0.032378,-0.00055229,0.0095476,0.57683,0.013791,0.02922,7.8437e-07,0.95,0.88,0
0.047626,-0.011759,0.032373,-0.00054644,0.0095481,0.00026518,0,0,0.059346,-0.026246,0,0.0013789,0,0,0,0.032376,-0.00054857,0.0095481,0.46149,0.013792,0.029215,7.8413e-07,0.96,0.88,0
0.04822,-0.01176,0.032373,-0.00054437,0.0095485,0.00019887,0,0,0.059343,-0.026242,0,0.0010341,0,0,0,0.032374,-0.00054557,0.0095485,0.34613,0.013792,0.029211,7.8394e-07,0.97,0.88,0
0.048813,-0.011761,0.032372,-0.00054283,0.0095489,0.00013257,0,0,0.059341,-0.026239,0,0.00068934,0,0,0,0.032373,-0.00054336,0.0095489,0.23075,0.013793,0.029208,7.8381e-07,0.98,0.88,0
0.049407,-0.011761,0.032372,-0.00054188,0.0095491,6.6279e-05,0,0,0.05934,-0.026237,0,0.00034465,0,0,0,0.032372,-0.00054201,0.0095491,0.11538,0.013793,0.029207,7.8374e-07,0.99,0.88,0
0.05,-0.011761,0.032372,-0.00054156,0.0095492,-2.3154e-06,0,0,0.05934,-0.026236,0,-1.204e-05,0,0,0,0.032372,-0.00054156,0.0095492,-0.0040307,0.013793,0.029206,7.8371e-07,1,0.88,0
0,0,0.031386,0.013451,0.013451,-0.0072898,0,0,0.04663,3.2526e-19,0,-0.037907,0,0,0,0.033975,0.010862,0.013451,-19.554,0.019429,0.021934,5.1656e-07,0,0.89,0
0.0004663,-0.00037907,0.031304,0.012381,0.013106,-0.0072755,0,0,0.047316,-0.001883,0,-0.037833,0,0,0,0.033778,0.0099075,0.013106,-18.78,0.01893,0.022443,5.4105e-07,0.01,0.89,0
0.00094632,-0.0007631,0.031658,0.011414,0.012921,-0.0072653,0,0,0.048714,-0.0039201,0,-0.037779,0,0,0,0.033995,0.0090762,0.012921,-17.835,0.018664,0.023236,5.8531e-07,0.02,0.89,0
0.0014406,-0.0011493,0.032004,0.010396,0.01272,-0.0071766,0,0,0.050139,-0.006043,0,-0.037318,0,0,0,0.034171,0.0082295,0.01272,-16.797,0.018373,0.024013,6.2813e-07,0.03,0.89,0
0.0019491,-0.0015342,0.032328,0.0093645,0.012508,-0.0070042,0,0,0.051533,-0.0081726,0,-0.036422,0,0,0,0.034296,0.0073968,0.012508,-15.692,0.018067,0.024743,6.6746e-07,0.04,0.89,0
0.0024712,-0.0019143,0.032615,0.0083549,0.012291,-0.0067533,0,0,0.052843,-0.010234,0,-0.035117,0,0,0,0.034368,0.0066017,0.012291,-14.553,0.017754,0.025404,7.0179e-07,0.05,0.89,0
0.0030059,-0.0022864,0.032855,0.0073956,0.012075,-0.0064365,0,0,0.054027,-0.012167,0,-0.03347,0,0,0,0.034389,0.0058608,0.012075,-13.411,0.017442,0.025985,7.3033e-07,0.06,0.89,0
0.0035518,-0.0026473,0.033042,0.0065063,0.011864,-0.0060709,0,0,0.055061,-0.013931,0,-0.031569,0,0,0,0.034365,0.0051833,0.011864,-12.294,0.017137,0.026481,7.5293e-07,0.07,0.89,0
0.0041072,-0.0029948,0.033176,0.0056982,0.011662,-0.0056746,0,0,0.055936,-0.015507,0,-0.029508,0,0,0,0.034302,0.0045724,0.011662,-11.221,0.016845,0.026895,7.6995e-07,0.08,0.89,0
0.0046705,-0.003327,0.033261,0.0049751,0.011471,-0.0052641,0,0,0.056655,-0.016889,0,-0.027373,0,0,0,0.034209,0.0040272,0.011471,-10.208,0.016569,0.027234,7.8206e-07,0.09,0.89,0
0.0052403,-0.0036426,0.033304,0.0043359,0.011292,-0.0048533,0,0,0.057232,-0.018086,0,-0.025237,0,0,0,0.034096,0.0035444,0.011292,-9.2623,0.016311,0.027508,7.9007e-07,0.1,0.89,0
0.0058151,-0.003941,0.033312,0.0037762,0.011127,-0.0044526,0,0,0.057683,-0.019111,0,-0.023154,0,0,0,0.033969,0.0031195,0.011127,-8.3892,0.016072,0.027727,7.9482e-07,0.11,0.89,0
0.0063939,-0.0042215,0.033294,0.00329,0.010975,-0.0040697,0,0,0.058028,-0.019981,0,-0.021162,0,0,0,0.033836,0.0027478,0.010975,-7.589,0.015853,0.0279,7.9705e-07,0.12,0.89,0
0.0069757,-0.0044841,0.033255,0.0028711,0.010838,-0.0037092,0,0,0.058285,-0.020714,0,-0.019288,0,0,0,0.033702,0.0024248,0.010838,-6.8602,0.015655,0.028034,7.9741e-07,0.13,0.89,0
0.0075596,-0.0047288,0.033204,0.0025131,0.010715,-0.0033737,0,0,0.058471,-0.021325,0,-0.017543,0,0,0,0.03357,0.0021466,0.010715,-6.1997,0.015477,0.028136,7.9641e-07,0.14,0.89,0
0.0081451,-0.0049557,0.033145,0.0022105,0.010606,-0.0030642,0,0,0.058599,-0.02183,0,-0.015934,0,0,0,0.033445,0.0019099,0.010606,-5.6029,0.015321,0.028211,7.9445e-07,0.15,0.89,0
0.0087316,-0.0051651,0.033081,0.0019585,0.010512,-0.0027802,0,0,0.05868,-0.022239,0,-0.014457,0,0,0,0.033328,0.0017121,0.010512,-5.0648,0.015184,0.028263,7.918e-07,0.16,0.89,0
0.0093187,-0.0053571,0.033017,0.0017528,0.010431,-0.0025205,0,0,0.058724,-0.022564,0,-0.013106,0,0,0,0.033219,0.0015509,0.010431,-4.5796,0.015067,0.028293,7.8866e-07,0.17,0.89,0
0.0099061,-0.0055318,0.032955,0.0015899,0.010363,-0.0022827,0,0,0.058738,-0.022811,0,-0.01187,0,0,0,0.03312,0.0014246,0.010363,-4.1407,0.01497,0.028306,7.8516e-07,0.18,0.89,0
0.010493,-0.0056895,0.032896,0.0014664,0.010309,-0.0020639,0,0,0.058727,-0.02299,0,-0.010732,0,0,0,0.033031,0.0013315,0.010309,-3.7411,0.01489,0.0283,7.8137e-07,0.19,0.89,0
0.011081,-0.00583,0.032841,0.0013791,0.010266,-0.0018605,0,0,0.058695,-0.023106,0,-0.0096744,0,0,0,0.032951,0.0012694,0.010266,-3.3724,0.014829,0.028278,7.7738e-07,0.2,0.89,0
0.011667,-0.0059533,0.032792,0.0013237,0.010235,-0.0016678,0,0,0.05865,-0.023169,0,-0.0086725,0,0,0,0.032881,0.0012356,0.010235,-3.0253,0.014784,0.028242,7.7328e-07,0.21,0.89,0
0.012254,-0.0060587,0.032751,0.001295,0.010214,-0.0014804,0,0,0.058597,-0.023189,0,-0.0076981,0,0,0,0.032821,0.0012255,0.010214,-2.6886,0.014753,0.028197,7.6928e-07,0.22,0.89,0
0.012839,-0.0061458,0.03272,0.0012847,0.010202,-0.001292,0,0,0.058549,-0.023184,0,-0.0067184,0,0,0,0.032773,0.0012317,0.010202,-2.3496,0.014736,0.02815,7.6573e-07,0.23,0.89,0
0.013425,-0.0062136,0.032704,0.0012798,0.010195,-0.0010962,0,0,0.058522,-0.023179,0,-0.0057002,0,0,0,0.032742,0.0012416,0.010195,-1.9955,0.014726,0.028114,7.6321e-07,0.24,0.89,0
0.01401,-0.0062606,0.032698,0.0012593,0.010187,-0.00088703,0,0,0.058529,-0.023213,0,-0.0046126,0,0,0,0.032724,0.0012343,0.010187,-1.6148,0.014715,0.028103,7.6213e-07,0.25,0.89,0
0.014595,-0.0062852,0.03269,0.0012008,0.010167,-0.00065323,0,0,0.05856,-0.023313,0,-0.0033968,0,0,0,0.032704,0.0011872,0.010167,-1.1879,0.014686,0.028123,7.6205e-07,0.26,0.89,0
0.015181,-0.0062846,0.032713,0.0011088,0.010146,-0.0003491,0,0,0.058672,-0.023498,0,-0.0018153,0,0,0,0.032717,0.0011049,0.010146,-0.6328,0.014656,0.0282,7.6523e-07,0.27,0.89,0
0.015769,-0.0062531,0.032938,0.00088808,0.010148,2.3443e-05,0,0,0.059254,-0.024075,0,0.00012191,0,0,0,0.032938,0.00088806,0.010148,0.04191,0.014658,0.028569,7.8715e-07,0.28,0.89,0
0.016366,-0.006195,0.032828,-0.00018161,0.009794,0.00045683,0,0,0.059889,-0.025937,0,0.0023755,0,0,0,0.032835,-0.00018793,0.009794,0.79271,0.014147,0.029334,8.0851e-07,0.29,0.89,0
0.016966,-0.0061108,0.03318,-0.00081982,0.009708,5.3655e-05,0,0,0.061027,-0.027372,0,0.00027901,0,0,0,0.03318,-0.0008199,0.009708,0.090419,0.014023,0.030148,8.5064e-07,0.3,0.89,0
0.017587,-0.006078,0.03242,-0.0021969,0.009067,0.00048559,0,0,0.045864,-0.019524,0,0.0034034,0,0,0,0.032469,-0.002246,0.009067,0.98794,0.013097,0.030779,7.7906e-07,0.31,0.89,0
0.017884,-0.0061484,0.033171,-0.0011603,0.0096032,0.0012052,0,0,0.030638,-0.013992,0,0.0031335,0,0,0,0.033213,-0.0012025,0.0096032,2.008,0.013871,0.030485,8.6281e-07,0.32,0.89,0
0.018199,-0.0062432,0.034402,-0.00064165,0.010128,0.00076611,0,0,0.031556,-0.014001,0,0.0019919,0,0,0,0.034418,-0.00065839,0.010128,1.2518,0.014629,0.031119,9.442e-07,0.33,0.89,0
0.018515,-0.006336,0.034461,-0.00060869,0.010156,0.00087253,0,0,0.031596,-0.013994,0,0.0022686,0,0,0,0.034482,-0.00063038,0.010156,1.4244,0.014669,0.031153,9.4867e-07,0.34,0.89,0
0.018831,-0.0064306,0.034576,-0.00026588,0.010293,0.00079009,0,0,0.031568,-0.013727,0,0.0020542,0,0,0,0.034594,-0.00028378,0.010293,1.2984,0.014868,0.030974,9.4801e-07,0.35,0.89,0
0.019146,-0.0065265,0.034514,-8.9689e-05,0.010327,0.00067236,0,0,0.031443,-0.013542,0,0.0017481,0,0,0,0.034527,-0.00010275,0.010327,1.1127,0.014917,0.030771,9.3739e-07,0.36,0.89,0
0.01946,-0.0066251,0.034474,1.5877e-05,0.010347,0.00053562,0,0,0.031365,-0.01343,0,0.0013926,0,0,0,0.034482,7.5535e-06,0.010347,0.89032,0.014946,0.030642,9.3052e-07,0.37,0.89,0
0.019773,-0.0067261,0.034429,9.7691e-05,0.010358,0.00042722,0,0,0.031292,-0.013338,0,0.0011108,0,0,0,0.034434,9.2375e-05,0.010358,0.71286,0.014961,0.030532,9.2417e-07,0.38,0.89,0
0.020086,-0.0068289,0.034384,0.00021682,0.01038,0.0003344,0,0,0.031205,-0.013213,0,0.00086943,0,0,0,0.034388,0.00021354,0.01038,0.56068,0.014994,0.030394,9.1694e-07,0.39,0.89,0
0.020398,-0.0069336,0.034334,0.00035077,0.010405,0.00023249,0,0,0.031107,-0.013071,0,0.00060448,0,0,0,0.034336,0.00034918,0.010405,0.39195,0.01503,0.03024,9.0883e-07,0.4,0.89,0
0.020708,-0.0070403,0.03428,0.00046496,0.010424,0.00012401,0,0,0.031013,-0.012946,0,0.00032244,0,0,0,0.03428,0.0004645,0.010424,0.21012,0.015056,0.030099,9.0104e-07,0.41,0.89,0
0.021018,-0.0071489,0.034233,0.00056209,0.010439,1.6153e-05,0,0,0.030933,-0.01284,0,4.1997e-05,0,0,0,0.034233,0.00056208,0.010439,0.027486,0.015078,0.029979,8.9445e-07,0.42,0.89,0
0.021327,-0.0072596,0.034194,0.00064517,0.010452,-8.6734e-05,0,0,0.030865,-0.012749,0,-0.00022551,0,0,0,0.034195,0.00064494,0.010452,-0.14812,0.015097,0.029879,8.8895e-07,0.43,0.89,0
0.021635,-0.0073722,0.034161,0.00071382,0.010462,-0.00018426,0,0,0.030808,-0.012673,0,-0.00047907,0,0,0,0.034162,0.00071281,0.010462,-0.31563,0.015112,0.029795,8.8437e-07,0.44,0.89,0
0.021943,-0.0074866,0.034131,0.00076641,0.010469,-0.00027599,0,0,0.03076,-0.012614,0,-0.00071757,0,0,0,0.034133,0.00076413,0.010469,-0.4739,0.015122,0.029729,8.8063e-07,0.45,0.89,0
0.02225,-0.0076028,0.034105,0.00080293,0.010472,-0.000362,0,0,0.030723,-0.01257,0,-0.00094121,0,0,0,0.034109,0.000799,0.010472,-0.62272,0.015127,0.02968,8.7772e-07,0.46,0.89,0
0.022557,-0.0077205,0.034084,0.00082266,0.010472,-0.00044255,0,0,0.030696,-0.012544,0,-0.0011506,0,0,0,0.03409,0.00081677,0.010472,-0.76216,0.015126,0.029649,8.7569e-07,0.47,0.89,0
0.022864,-0.0078397,0.034067,0.00082416,0.010467,-0.00051793,0,0,0.03068,-0.012536,0,-0.0013466,0,0,0,0.034075,0.0008161,0.010467,-0.89238,0.01512,0.029636,8.7457e-07,0.48,0.89,0
0.023171,-0.0079602,0.034057,0.00080765,0.010459,-0.00058815,0,0,0.030677,-0.012547,0,-0.0015292,0,0,0,0.034067,0.00079725,0.010459,-1.0131,0.015108,0.029644,8.745e-07,0.49,0.89,0
0.023478,-0.0080818,0.034055,0.00077203,0.010448,-0.00065352,0,0,0.030689,-0.012579,0,-0.0016991,0,0,0,0.034068,0.0007592,0.010448,-1.1244,0.015092,0.029675,8.7569e-07,0.5,0.89,0
0.023785,-0.0082043,0.034063,0.00071286,0.010433,-0.0007106,0,0,0.030719,-0.012636,0,-0.0018476,0,0,0,0.034078,0.00069773,0.010433,-1.2201,0.01507,0.029733,8.783e-07,0.51,0.89,0
0.024092,-0.0083275,0.034069,0.00062604,0.010408,-0.00075342,0,0,0.030759,-0.012717,0,-0.0019589,0,0,0,0.034086,0.00060907,0.010408,-1.2899,0.015034,0.029811,8.815e-07,0.52,0.89,0
0.0244,-0.008451,0.034071,0.00054412,0.010385,-0.00078078,0,0,0.030793,-0.012793,0,-0.00203,0,0,0,0.03409,0.00052595,0.010385,-1.3333,0.015,0.02988,8.8422e-07,0.53,0.89,0
0.024708,-0.0085748,0.034078,0.00048783,0.01037,-0.00081838,0,0,0.030821,-0.012847,0,-0.0021278,0,0,0,0.034098,0.00046791,0.01037,-1.3948,0.014979,0.029934,8.8655e-07,0.54,0.89,0
0.025016,-0.0086991,0.034083,0.00039553,0.010343,-0.00088049,0,0,0.030861,-0.012932,0,-0.0022893,0,0,0,0.034106,0.00037253,0.010343,-1.4962,0.014941,0.030017,8.8992e-07,0.55,0.89,0
0.025325,-0.0088245,0.034112,0.00022094,0.0103,-0.00092217,0,0,0.030956,-0.013103,0,-0.0023976,0,0,0,0.034137,0.00019586,0.0103,-1.5575,0.014878,0.030185,8.9748e-07,0.56,0.89,0
0.025635,-0.0089493,0.033969,-0.00013374,0.010151,-0.0009303,0,0,0.030964,-0.01337,0,-0.0024188,0,0,0,0.033995,-0.00015909,0.010151,-1.5614,0.014662,0.030342,8.9629e-07,0.57,0.89,0
0.025944,-0.0090741,0.033895,-0.00019262,0.010111,-0.00075374,0,0,0.03092,-0.013394,0,-0.0019597,0,0,0,0.033912,-0.00020928,0.010111,-1.2661,0.014604,0.030309,8.9114e-07,0.58,0.89,0
0.026254,-0.0091953,0.032657,-0.00076348,0.009568,-0.0011179,0,0,0.030016,-0.013431,0,-0.0029067,0,0,0,0.032694,-0.00080083,0.009568,-1.9138,0.01382,0.029701,8.1367e-07,0.59,0.89,0
0.026545,-0.0093387,0.031903,-0.001842,0.0090182,-0.00036406,0,0,0.044951,-0.018824,0,-0.002882,0,0,0,0.031947,-0.0018859,0.0090182,-0.79743,0.013026,0.03002,7.3733e-07,0.6,0.89,0
0.027153,-0.0095793,0.032636,-0.00053791,0.0096295,9.0215e-05,0,0,0.059817,-0.026435,0,0.00046912,0,0,0,0.032636,-0.00053816,0.0096295,0.15581,0.013909,0.029438,8.0286e-07,0.61,0.89,0
0.027741,-0.0098687,0.03227,2.5011e-05,0.0096885,-0.00028203,0,0,0.058712,-0.025125,0,-0.0014666,0,0,0,0.032273,2.2544e-05,0.0096885,-0.50109,0.013994,0.028666,7.6246e-07,0.62,0.89,0
0.028327,-0.010131,0.032375,0.0010133,0.010016,0.00015807,0,0,0.058132,-0.023408,0,0.00082196,0,0,0,0.032376,0.0010125,0.010016,0.28877,0.014468,0.02797,7.4376e-07,0.63,0.89,0
0.028904,-0.010367,0.032142,0.0011458,0.0099863,0.00052383,0,0,0.057604,-0.022985,0,0.0027239,0,0,0,0.032151,0.001137,0.0099863,0.96794,0.014425,0.027671,7.2484e-07,0.64,0.89,0
0.029479,-0.010571,0.032108,0.00114,0.0099745,0.00080882,0,0,0.057548,-0.02297,0,0.0042058,0,0,0,0.032129,0.0011189,0.0099745,1.4951,0.014408,0.027667,7.2386e-07,0.65,0.89,0
0.030055,-0.010752,0.032101,0.0010833,0.0099552,0.0010082,0,0,0.057578,-0.023067,0,0.0052425,0,0,0,0.032133,0.0010506,0.0099552,1.8597,0.01438,0.027725,7.2597e-07,0.66,0.89,0
0.030631,-0.010911,0.032087,0.00097152,0.0099176,0.001164,0,0,0.057641,-0.02326,0,0.0060528,0,0,0,0.032131,0.00092804,0.0099176,2.1394,0.014325,0.02782,7.2905e-07,0.67,0.89,0
0.031208,-0.011052,0.032081,0.00082683,0.0098725,0.0012846,0,0,0.057743,-0.023519,0,0.00668,0,0,0,0.032134,0.00077412,0.0098725,2.3497,0.01426,0.027945,7.3335e-07,0.68,0.89,0
0.031786,-0.011176,0.032085,0.00066989,0.0098264,0.0013737,0,0,0.057872,-0.023807,0,0.0071432,0,0,0,0.032145,0.00060994,0.0098264,2.499,0.014194,0.028085,7.3838e-07,0.69,0.89,0
0.032365,-0.011286,0.032093,0.00051316,0.0097817,0.0014357,0,0,0.058008,-0.024098,0,0.0074654,0,0,0,0.032158,0.00044803,0.0097817,2.5976,0.014129,0.028225,7.4349e-07,0.7,0.89,0
0.032946,-0.011384,0.032102,0.00036396,0.0097398,0.0014751,0,0,0.058142,-0.024377,0,0.0076707,0,0,0,0.03217,0.00029555,0.0097398,2.6554,0.014069,0.028358,7.483e-07,0.71,0.89,0
0.033528,-0.011469,0.032111,0.00022636,0.0097011,0.0014961,0,0,0.058265,-0.024634,0,0.0077796,0,0,0,0.032181,0.00015632,0.0097011,2.6806,0.014013,0.028478,7.5259e-07,0.72,0.89,0
0.034111,-0.011545,0.032118,0.00010239,0.0096662,0.0015017,0,0,0.058375,-0.024866,0,0.0078089,0,0,0,0.032189,3.2111e-05,0.0096662,2.6796,0.013962,0.028584,7.5629e-07,0.73,0.89,0
0.034695,-0.011612,0.032124,-7.2172e-06,0.0096351,0.0014946,0,0,0.058472,-0.02507,0,0.0077721,0,0,0,0.032194,-7.6592e-05,0.0096351,2.6575,0.013917,0.028675,7.5938e-07,0.74,0.89,0
0.03528,-0.01167,0.032129,-0.00010258,0.0096078,0.0014769,0,0,0.058554,-0.025247,0,0.00768,0,0,0,0.032196,-0.00017012,0.0096078,2.6181,0.013878,0.028753,7.619e-07,0.75,0.89,0
0.035867,-0.011721,0.032132,-0.00018433,0.0095842,0.0014503,0,0,0.058624,-0.025398,0,0.0075416,0,0,0,0.032197,-0.00024929,0.0095842,2.5645,0.013844,0.028816,7.6392e-07,0.76,0.89,0
0.036453,-0.011766,0.032134,-0.00025343,0.0095642,0.0014162,0,0,0.058682,-0.025526,0,0.0073643,0,0,0,0.032196,-0.00031524,0.0095642,2.499,0.013815,0.028868,7.6549e-07,0.77,0.89,0
0.03704,-0.011806,0.032136,-0.00031101,0.0095474,0.0013758,0,0,0.058729,-0.025632,0,0.0071543,0,0,0,0.032194,-0.00036924,0.0095474,2.4237,0.013791,0.02891,7.6669e-07,0.78,0.89,0
0.037628,-0.01184,0.032137,-0.00035828,0.0095336,0.0013302,0,0,0.058769,-0.025719,0,0.0069169,0,0,0,0.032191,-0.00041264,0.0095336,2.3401,0.013771,0.028942,7.6757e-07,0.79,0.89,0
0.038215,-0.011869,0.032138,-0.00039645,0.0095225,0.0012802,0,0,0.058801,-0.025789,0,0.0066568,0,0,0,0.032189,-0.00044674,0.0095225,2.2498,0.013755,0.028967,7.6821e-07,0.8,0.89,0
0.038804,-0.011894,0.03214,-0.00042671,0.0095139,0.0012265,0,0,0.058827,-0.025846,0,0.0063778,0,0,0,0.032186,-0.00047284,0.0095139,2.1538,0.013742,0.028986,7.6866e-07,0.81,0.89,0
0.039392,-0.011916,0.032142,-0.00045017,0.0095074,0.0011699,0,0,0.058849,-0.02589,0,0.0060833,0,0,0,0.032183,-0.00049211,0.0095074,2.0531,0.013733,0.028999,7.6895e-07,0.82,0.89,0
0.039981,-0.011935,0.032144,-0.00046786,0.0095027,0.0011108,0,0,0.058866,-0.025924,0,0.0057763,0,0,0,0.032181,-0.00050566,0.0095027,1.9486,0.013726,0.029008,7.6914e-07,0.83,0.89,0
0.040569,-0.011951,0.032146,-0.00048072,0.0094997,0.0010498,0,0,0.058881,-0.025949,0,0.0054592,0,0,0,0.03218,-0.00051446,0.0094997,1.8411,0.013722,0.029014,7.6926e-07,0.84,0.89,0
0.041158,-0.011964,0.032149,-0.00048958,0.0094979,0.00098731,0,0,0.058894,-0.025968,0,0.005134,0,0,0,0.032179,-0.00051942,0.0094979,1.7311,0.013719,0.029017,7.6932e-07,0.85,0.89,0
0.041747,-0.011976,0.032153,-0.00049519,0.0094973,0.0009236,0,0,0.058904,-0.025981,0,0.0048027,0,0,0,0.032179,-0.0005213,0.0094973,1.6191,0.013718,0.029018,7.6934e-07,0.86,0.89,0
0.042336,-0.011985,0.032157,-0.00049821,0.0094975,0.00085898,0,0,0.058914,-0.025989,0,0.0044667,0,0,0,0.032179,-0.00052079,0.0094975,1.5058,0.013719,0.029018,7.6936e-07,0.87,0.89,0
0.042925,-0.011993,0.032161,-0.00049921,0.0094985,0.00079369,0,0,0.058922,-0.025994,0,0.0041272,0,0,0,0.03218,-0.00051848,0.0094985,1.3913,0.01372,0.029017,7.6936e-07,0.88,0.89,0
0.043515,-0.011999,0.032165,-0.00049867,0.0095,0.00072795,0,0,0.05893,-0.025996,0,0.0037853,0,0,0,0.032181,-0.00051488,0.0095,1.276,0.013722,0.029015,7.6937e-07,0.89,0.89,0
0.044104,-0.012005,0.03217,-0.00049702,0.0095018,0.00066189,0,0,0.058937,-0.025997,0,0.0034418,0,0,0,0.032183,-0.00051043,0.0095018,1.1603,0.013725,0.029013,7.6938e-07,0.9,0.89,0
0.044693,-0.012009,0.032174,-0.00049463,0.0095038,0.00059565,0,0,0.058943,-0.025996,0,0.0030974,0,0,0,0.032185,-0.00050549,0.0095038,1.0442,0.013728,0.029011,7.6939e-07,0.91,0.89,0
0.045283,-0.012013,0.032178,-0.00049179,0.009506,0.00052932,0,0,0.058948,-0.025994,0,0.0027525,0,0,0,0.032187,-0.00050037,0.009506,0.92798,0.013731,0.029009,7.6941e-07,0.92,0.89,0
0.045872,-0.012015,0.032183,-0.00048877,0.0095081,0.00046297,0,0,0.058953,-0.025992,0,0.0024075,0,0,0,0.032189,-0.00049533,0.0095081,0.8117,0.013734,0.029007,7.6943e-07,0.93,0.89,0
0.046462,-0.012018,0.032186,-0.00048576,0.0095102,0.00039665,0,0,0.058958,-0.025989,0,0.0020626,0,0,0,0.032191,-0.00049058,0.0095102,0.69546,0.013737,0.029005,7.6946e-07,0.94,0.89,0
0.047052,-0.012019,0.03219,-0.00048296,0.009512,0.00033039,0,0,0.058962,-0.025987,0,0.001718,0,0,0,0.032193,-0.0004863,0.009512,0.5793,0.01374,0.029003,7.6949e-07,0.95,0.89,0
0.047641,-0.01202,0.032192,-0.00048048,0.0095136,0.0002642,0,0,0.058965,-0.025985,0,0.0013738,0,0,0,0.032195,-0.00048262,0.0095136,0.46326,0.013742,0.029001,7.6952e-07,0.96,0.89,0
0.048231,-0.012021,0.032195,-0.00047845,0.0095149,0.00019807,0,0,0.058968,-0.025983,0,0.00103,0,0,0,0.032196,-0.00047965,0.0095149,0.34732,0.013744,0.029,7.6954e-07,0.97,0.89,0
0.048821,-0.012022,0.032196,-0.00047695,0.0095158,0.00013201,0,0,0.05897,-0.025981,0,0.00068645,0,0,0,0.032197,-0.00047748,0.0095158,0.23149,0.013745,0.028999,7.6956e-07,0.98,0.89,0
0.04941,-0.012022,0.032197,-0.00047602,0.0095164,6.5993e-05,0,0,0.058971,-0.02598,0,0.00034316,0,0,0,0.032198,-0.00047615,0.0095164,0.11572,0.013746,0.028999,7.6957e-07,0.99,0.89,0
0.05,-0.012022,0.032198,-0.00047571,0.0095166,-2.2236e-06,0,0,0.058971,-0.02598,0,-1.1563e-05,0,0,0,0.032198,-0.00047571,0.0095166,-0.0038993,0.013746,0.028999,7.6958e-07,1,0.89,0
0,0,0.031632,0.013557,0.013557,-0.0076625,0,0,0.046996,-2.1684e-19,0,-0.039845,0,0,0,0.034443,0.010746,0.013557,-20.146,0.019582,0.022425,5.486e-07,0,0.9,0
0.00046996,-0.00039845,0.031546,0.012417,0.013189,-0.0076451,0,0,0.04773,-0.0020079,0,-0.039755,0,0,0,0.034226,0.0097368,0.013189,-19.317,0.019051,0.022959,5.7448e-07,0.01,0.9,0
0.00095459,-0.00080361,0.031919,0.011362,0.012984,-0.0076364,0,0,0.04923,-0.0042178,0,-0.03971,0,0,0,0.034445,0.0088357,0.012984,-18.305,0.018755,0.023808,6.2273e-07,0.02,0.9,0
0.0014546,-0.0012118,0.032279,0.010246,0.012757,-0.0075282,0,0,0.050757,-0.0065308,0,-0.039147,0,0,0,0.034606,0.0079192,0.012757,-17.173,0.018427,0.024627,6.6836e-07,0.03,0.9,0
0.0019697,-0.0016189,0.032607,0.0091192,0.012518,-0.0073163,0,0,0.052232,-0.0088365,0,-0.038045,0,0,0,0.0347,0.0070267,0.012518,-15.961,0.018081,0.025377,7.0866e-07,0.04,0.9,0
0.0024992,-0.0020203,0.032884,0.0080293,0.012274,-0.007011,0,0,0.053586,-0.011036,0,-0.036457,0,0,0,0.034725,0.006188,0.012274,-14.715,0.017729,0.026033,7.419e-07,0.05,0.9,0
0.0030414,-0.0024121,0.033098,0.0070107,0.012032,-0.0066323,0,0,0.054769,-0.013057,0,-0.034488,0,0,0,0.034687,0.0054213,0.012032,-13.476,0.01738,0.026584,7.6743e-07,0.06,0.9,0
0.0035946,-0.0027909,0.033245,0.0060845,0.011799,-0.0062044,0,0,0.05576,-0.014857,0,-0.032263,0,0,0,0.034595,0.0047344,0.011799,-12.277,0.017043,0.02703,7.8551e-07,0.07,0.9,0
0.0041566,-0.0031541,0.033328,0.0052599,0.011576,-0.0057506,0,0,0.056555,-0.016423,0,-0.029903,0,0,0,0.034461,0.0041274,0.011576,-11.141,0.016722,0.02738,7.9698e-07,0.08,0.9,0
0.0047257,-0.0035,0.033355,0.0045367,0.011367,-0.0052908,0,0,0.057167,-0.01776,0,-0.027512,0,0,0,0.034296,0.0035961,0.011367,-10.081,0.01642,0.027645,8.0301e-07,0.09,0.9,0
0.0053,-0.0038274,0.033335,0.0039096,0.011173,-0.0048403,0,0,0.057621,-0.018886,0,-0.02517,0,0,0,0.034111,0.0031339,0.011173,-9.1052,0.016139,0.027842,8.0478e-07,0.1,0.9,0
0.0058781,-0.0041356,0.03328,0.0033703,0.010995,-0.0044096,0,0,0.05794,-0.019824,0,-0.02293,0,0,0,0.033916,0.0027337,0.010995,-8.2145,0.015882,0.027982,8.0341e-07,0.11,0.9,0
0.0064588,-0.0044244,0.033198,0.0029095,0.010832,-0.0040054,0,0,0.058152,-0.020599,0,-0.020828,0,0,0,0.033719,0.0023888,0.010832,-7.4071,0.015647,0.028077,7.9981e-07,0.12,0.9,0
0.0070411,-0.0046939,0.0331,0.0025185,0.010686,-0.0036309,0,0,0.058277,-0.021234,0,-0.018881,0,0,0,0.033525,0.0020933,0.010686,-6.6791,0.015435,0.028137,7.9473e-07,0.13,0.9,0
0.0076243,-0.0049443,0.032991,0.0021892,0.010554,-0.0032876,0,0,0.058337,-0.021749,0,-0.017095,0,0,0,0.033338,0.0018422,0.010554,-6.0248,0.015245,0.028169,7.887e-07,0.14,0.9,0
0.0082078,-0.0051758,0.032878,0.0019146,0.010438,-0.0029747,0,0,0.058345,-0.02216,0,-0.015468,0,0,0,0.033161,0.0016314,0.010438,-5.4382,0.015077,0.028178,7.8212e-07,0.15,0.9,0
0.0087912,-0.0053888,0.032765,0.001689,0.010336,-0.0026908,0,0,0.058314,-0.022482,0,-0.013992,0,0,0,0.032996,0.0014578,0.010336,-4.9125,0.01493,0.028169,7.7523e-07,0.16,0.9,0
0.0093741,-0.0055836,0.032653,0.0015074,0.010248,-0.0024334,0,0,0.058253,-0.022726,0,-0.012654,0,0,0,0.032842,0.0013185,0.010248,-4.4406,0.014803,0.028142,7.6821e-07,0.17,0.9,0
0.0099563,-0.0057605,0.032546,0.0013657,0.010174,-0.0021995,0,0,0.058168,-0.0229,0,-0.011437,0,0,0,0.0327,0.0012113,0.010174,-4.0152,0.014695,0.028101,7.6112e-07,0.18,0.9,0
0.010537,-0.0059196,0.032444,0.0012598,0.010111,-0.0019856,0,0,0.058065,-0.023013,0,-0.010325,0,0,0,0.03257,0.0011339,0.010111,-3.6287,0.014605,0.028046,7.5403e-07,0.19,0.9,0
0.011118,-0.006061,0.032347,0.001186,0.01006,-0.0017877,0,0,0.057947,-0.023072,0,-0.0092962,0,0,0,0.032449,0.0010837,0.01006,-3.2728,0.014531,0.027979,7.4697e-07,0.2,0.9,0
0.011696,-0.0061846,0.032257,0.0011393,0.010019,-0.0016016,0,0,0.057819,-0.023087,0,-0.0083281,0,0,0,0.032339,0.0010571,0.010019,-2.9385,0.014472,0.027902,7.4002e-07,0.21,0.9,0
0.012274,-0.0062902,0.032175,0.0011137,0.0099865,-0.0014223,0,0,0.057689,-0.023069,0,-0.0073959,0,0,0,0.03224,0.0010487,0.0099865,-2.6163,0.014425,0.027821,7.3334e-07,0.22,0.9,0
0.01285,-0.0063771,0.032102,0.0011002,0.0099606,-0.0012449,0,0,0.057567,-0.023037,0,-0.0064732,0,0,0,0.032151,0.0010503,0.0099606,-2.2958,0.014387,0.027741,7.2722e-07,0.23,0.9,0
0.013425,-0.0064446,0.03204,0.0010862,0.0099379,-0.0010638,0,0,0.057466,-0.023014,0,-0.0055318,0,0,0,0.032077,0.0010497,0.0099379,-1.966,0.014355,0.027675,7.221e-07,0.24,0.9,0
0.013999,-0.0064919,0.031995,0.0010552,0.009915,-0.00087238,0,0,0.057407,-0.023035,0,-0.0045364,0,0,0,0.032019,0.0010306,0.009915,-1.6138,0.014322,0.027639,7.1869e-07,0.25,0.9,0
0.014573,-0.0065175,0.031985,0.00098832,0.0098921,-0.000658,0,0,0.057443,-0.02315,0,-0.0034216,0,0,0,0.031999,0.00097436,0.0098921,-1.2155,0.014289,0.027666,7.1882e-07,0.26,0.9,0
0.015148,-0.0065195,0.032079,0.00084686,0.0098776,-0.00041609,0,0,0.057722,-0.02348,0,-0.0021637,0,0,0,0.032084,0.00084132,0.0098776,-0.76315,0.014268,0.027847,7.2813e-07,0.27,0.9,0
0.015728,-0.0064974,0.032294,0.00047789,0.0098317,-0.00016366,0,0,0.058403,-0.02432,0,-0.00085104,0,0,0,0.032295,0.00047705,0.0098317,-0.29471,0.014201,0.028324,7.5235e-07,0.28,0.9,0
0.016316,-0.0064518,0.032967,5.5875e-05,0.009907,-7.4856e-05,0,0,0.059957,-0.025613,0,-0.00038925,0,0,0,0.032967,5.5705e-05,0.009907,-0.13032,0.01431,0.029258,8.1193e-07,0.29,0.9,0
0.016927,-0.0063954,0.033725,-0.00056655,0.0099476,0.00019644,0,0,0.061822,-0.027337,0,0.0010215,0,0,0,0.033726,-0.00056768,0.0099476,0.32821,0.014369,0.030431,8.8632e-07,0.3,0.9,0
0.017553,-0.0062962,0.038749,-0.0025063,0.010873,-0.00096876,0,0,0.050356,-0.023877,0,-0.0035132,0,0,0,0.038772,-0.0025291,0.010873,-1.3515,0.015705,0.036496,1.6096e-06,0.31,0.9,0
0.017995,-0.0062929,0.031295,-0.0010348,0.009078,0.00084036,0,0,0.039943,-0.018144,0,0.003054,0,0,0,0.031317,-0.0010567,0.009078,1.4996,0.013113,0.028682,8.3978e-07,0.32,0.9,0
0.018309,-0.0063825,0.034618,-0.00073956,0.010164,0.0010732,0,0,0.031791,-0.014174,0,0.0027903,0,0,0,0.034651,-0.0007721,0.010164,1.7369,0.014681,0.031416,9.6653e-07,0.33,0.9,0
0.018631,-0.0064767,0.034889,-0.00038005,0.010353,0.00087781,0,0,0.031898,-0.013953,0,0.0022823,0,0,0,0.034911,-0.00040189,0.010353,1.4248,0.014954,0.031351,9.7771e-07,0.34,0.9,0
0.018947,-0.006567,0.034517,-0.00017256,0.010303,0.00089707,0,0,0.031478,-0.013619,0,0.0023324,0,0,0,0.03454,-0.00019575,0.010303,1.4803,0.014883,0.030857,9.4112e-07,0.35,0.9,0
0.019261,-0.0066611,0.034521,0.00015837,0.010404,0.00070323,0,0,0.031352,-0.013319,0,0.0018284,0,0,0,0.034535,0.00014398,0.010404,1.1719,0.015028,0.030581,9.3086e-07,0.36,0.9,0
0.019574,-0.0067588,0.034426,9.9065e-05,0.010358,0.00054407,0,0,0.031289,-0.013336,0,0.0014146,0,0,0,0.034435,9.0444e-05,0.010358,0.90781,0.014961,0.030534,9.2431e-07,0.37,0.9,0
0.019887,-0.006859,0.034394,0.00013804,0.01036,0.00048376,0,0,0.031245,-0.013288,0,0.0012578,0,0,0,0.034401,0.00013121,0.01036,0.8089,0.014964,0.030471,9.2039e-07,0.38,0.9,0
0.020199,-0.0069606,0.034366,0.00032925,0.010409,0.00040452,0,0,0.031145,-0.013103,0,0.0010517,0,0,0,0.034371,0.00032444,0.010409,0.68081,0.015035,0.030291,9.1237e-07,0.39,0.9,0
0.020509,-0.0070638,0.034294,0.00047694,0.010431,0.00029201,0,0,0.031022,-0.012941,0,0.00075922,0,0,0,0.034297,0.00047441,0.010431,0.49469,0.015067,0.030105,9.0203e-07,0.4,0.9,0
0.020819,-0.0071691,0.034237,0.00058199,0.010446,0.00016729,0,0,0.030929,-0.012823,0,0.00043496,0,0,0,0.034238,0.00058116,0.010446,0.2848,0.015088,0.029968,8.9425e-07,0.41,0.9,0
0.021128,-0.0072768,0.034196,0.00066707,0.010459,5.2849e-05,0,0,0.030858,-0.012729,0,0.00013741,0,0,0,0.034196,0.00066699,0.010459,0.09031,0.015107,0.029863,8.8844e-07,0.42,0.9,0
0.021436,-0.0073866,0.034165,0.00074633,0.010474,-5.3644e-05,0,0,0.030799,-0.012645,0,-0.00013947,0,0,0,0.034165,0.00074624,0.010474,-0.09197,0.015128,0.029772,8.8367e-07,0.43,0.9,0
0.021744,-0.0074984,0.034136,0.00081003,0.010484,-0.00015441,0,0,0.030748,-0.012576,0,-0.00040147,0,0,0,0.034137,0.00080932,0.010484,-0.26546,0.015143,0.029697,8.7956e-07,0.44,0.9,0
0.022051,-0.0076123,0.034107,0.00085495,0.010489,-0.00024902,0,0,0.030704,-0.012524,0,-0.00064745,0,0,0,0.034109,0.00085308,0.010489,-0.42904,0.01515,0.029637,8.7613e-07,0.45,0.9,0
0.022358,-0.0077281,0.034081,0.00088596,0.01049,-0.0003369,0,0,0.030668,-0.012485,0,-0.00087593,0,0,0,0.034084,0.00088254,0.01049,-0.58142,0.015152,0.029592,8.7332e-07,0.46,0.9,0
0.022665,-0.0078456,0.034057,0.00090243,0.010488,-0.00042075,0,0,0.03064,-0.012461,0,-0.001094,0,0,0,0.034063,0.00089709,0.010488,-0.72695,0.015149,0.029561,8.7119e-07,0.47,0.9,0
0.022971,-0.0079647,0.034035,0.00089828,0.01048,-0.0005002,0,0,0.030621,-0.012456,0,-0.0013005,0,0,0,0.034042,0.00089073,0.01048,-0.86463,0.015138,0.029548,8.6981e-07,0.48,0.9,0
0.023277,-0.0080853,0.034015,0.00087556,0.010467,-0.00057527,0,0,0.030612,-0.012469,0,-0.0014957,0,0,0,0.034025,0.00086558,0.010467,-0.9942,0.015119,0.029552,8.6921e-07,0.49,0.9,0
0.023583,-0.0082072,0.034007,0.00084267,0.010455,-0.00064882,0,0,0.030617,-0.012496,0,-0.0016869,0,0,0,0.034019,0.00082998,0.010455,-1.1204,0.015101,0.029576,8.6982e-07,0.5,0.9,0
0.023889,-0.0083303,0.034016,0.00078425,0.01044,-0.000724,0,0,0.030648,-0.012552,0,-0.0018824,0,0,0,0.034031,0.00076849,0.01044,-1.2475,0.01508,0.029635,8.7258e-07,0.51,0.9,0
0.024196,-0.0084544,0.034042,0.00067677,0.010416,-0.00077968,0,0,0.030715,-0.012661,0,-0.0020272,0,0,0,0.034061,0.00065856,0.010416,-1.3379,0.015045,0.029749,8.7808e-07,0.52,0.9,0
0.024504,-0.0085787,0.034028,0.00051835,0.010364,-0.00079643,0,0,0.030763,-0.012799,0,-0.0020707,0,0,0,0.034047,0.00049944,0.010364,-1.3607,0.01497,0.029863,8.8165e-07,0.53,0.9,0
0.024811,-0.0087029,0.034021,0.00049998,0.010356,-0.00078985,0,0,0.030764,-0.012813,0,-0.0020536,0,0,0,0.03404,0.00048138,0.010356,-1.3491,0.014959,0.029871,8.8159e-07,0.54,0.9,0
0.025119,-0.008828,0.034078,0.00056739,0.010394,-0.00087698,0,0,0.03079,-0.012774,0,-0.0022802,0,0,0,0.034101,0.00054445,0.010394,-1.4981,0.015013,0.029876,8.846e-07,0.55,0.9,0
0.025427,-0.008955,0.034041,0.00023821,0.010284,-0.00099707,0,0,0.030884,-0.013059,0,-0.0025924,0,0,0,0.03407,0.00020882,0.010284,-1.6881,0.014854,0.030115,8.9183e-07,0.56,0.9,0
0.025737,-0.009084,0.03438,2.331e-05,0.010321,-0.00090689,0,0,0.031277,-0.013387,0,-0.0023579,0,0,0,0.034404,-6.1159e-07,0.010321,-1.511,0.014908,0.030579,9.2445e-07,0.57,0.9,0
0.026053,-0.0092076,0.034074,-0.00037238,0.01011,-0.0010354,0,0,0.031153,-0.013628,0,-0.0026921,0,0,0,0.034105,-0.00040347,0.01011,-1.7202,0.014604,0.030636,9.1185e-07,0.58,0.9,0
0.02636,-0.0093344,0.030773,-0.00074905,0.0090071,-0.000743,0,0,0.039133,-0.01751,0,-0.0026692,0,0,0,0.03079,-0.00076655,0.0090071,-1.3492,0.01301,0.027981,7.913e-07,0.59,0.9,0
0.026793,-0.0095494,0.038118,-0.0021217,0.010799,0.0010829,0,0,0.049355,-0.023055,0,0.0039684,0,0,0,0.038147,-0.0021509,0.010799,1.5594,0.015598,0.035635,1.521e-06,0.6,0.9,0
0.027407,-0.0098546,0.033163,-0.00032675,0.0098508,-3.2921e-05,0,0,0.060611,-0.026462,0,-0.00017119,0,0,0,0.033163,-0.00032678,0.0098508,-0.056323,0.014229,0.029737,8.366e-07,0.61,0.9,0
0.028005,-0.010117,0.032401,0.00024412,0.0097935,0.00025047,0,0,0.058779,-0.024828,0,0.0013024,0,0,0,0.032403,0.00024217,0.0097935,0.44624,0.014146,0.028607,7.6608e-07,0.62,0.9,0
0.028582,-0.010369,0.031724,0.00060063,0.0096975,0.00035226,0,0,0.05727,-0.023652,0,0.0018318,0,0,0,0.031728,0.00059664,0.0096975,0.64837,0.014008,0.027725,7.1019e-07,0.63,0.9,0
0.029151,-0.010596,0.031498,0.00089434,0.0097178,0.00060295,0,0,0.05663,-0.022941,0,0.0031353,0,0,0,0.03151,0.00088246,0.0097178,1.1282,0.014037,0.027304,6.8833e-07,0.64,0.9,0
0.029715,-0.0108,0.03139,0.00095057,0.0097021,0.00082924,0,0,0.056388,-0.022754,0,0.0043121,0,0,0,0.031412,0.000928,0.0097021,1.5593,0.014014,0.027181,6.8071e-07,0.65,0.9,0
0.030278,-0.010981,0.031379,0.00091974,0.0096896,0.0010125,0,0,0.056392,-0.022802,0,0.0052652,0,0,0,0.031413,0.00088612,0.0096896,1.9019,0.013996,0.027214,6.8178e-07,0.66,0.9,0
0.030843,-0.011142,0.031399,0.00083868,0.0096714,0.0011548,0,0,0.056493,-0.022965,0,0.0060051,0,0,0,0.031443,0.00079511,0.0096714,2.161,0.01397,0.027314,6.8608e-07,0.67,0.9,0
0.031408,-0.011286,0.03143,0.0007256,0.0096468,0.001266,0,0,0.056637,-0.023195,0,0.006583,0,0,0,0.031482,0.00067349,0.0096468,2.357,0.013934,0.027446,6.9177e-07,0.68,0.9,0
0.031975,-0.011413,0.031467,0.00059645,0.0096189,0.0013503,0,0,0.056804,-0.023459,0,0.0070218,0,0,0,0.031526,0.00053749,0.0096189,2.4999,0.013894,0.027592,6.9806e-07,0.69,0.9,0
0.032544,-0.011526,0.031505,0.00046321,0.0095905,0.0014112,0,0,0.056978,-0.023731,0,0.0073383,0,0,0,0.031569,0.00039919,0.0095905,2.5976,0.013853,0.027741,7.0442e-07,0.7,0.9,0
0.033115,-0.011626,0.031543,0.00033366,0.009563,0.0014517,0,0,0.057148,-0.023996,0,0.0075486,0,0,0,0.03161,0.00026628,0.009563,2.6574,0.013813,0.027883,7.1051e-07,0.71,0.9,0
0.033687,-0.011714,0.031579,0.00021251,0.0095375,0.0014745,0,0,0.057308,-0.024245,0,0.0076675,0,0,0,0.031648,0.00014334,0.0095375,2.6855,0.013776,0.028015,7.1611e-07,0.72,0.9,0
0.034261,-0.011792,0.031613,0.00010236,0.0095145,0.0014824,0,0,0.057455,-0.024472,0,0.0077085,0,0,0,0.031682,3.2774e-05,0.0095145,2.6876,0.013743,0.028134,7.2113e-07,0.73,0.9,0
0.034836,-0.01186,0.031643,4.4005e-06,0.0094944,0.0014775,0,0,0.057588,-0.024674,0,0.007683,0,0,0,0.031712,-6.4447e-05,0.0094944,2.6679,0.013714,0.028238,7.2556e-07,0.74,0.9,0
0.035413,-0.011921,0.031672,-8.1122e-05,0.0094772,0.0014617,0,0,0.057706,-0.024851,0,0.0076009,0,0,0,0.031739,-0.00014827,0.0094772,2.6302,0.013689,0.028329,7.2942e-07,0.75,0.9,0
0.035991,-0.011974,0.031698,-0.00015457,0.0094629,0.0014367,0,0,0.05781,-0.025005,0,0.0074707,0,0,0,0.031762,-0.00021923,0.0094629,2.5773,0.013669,0.028406,7.3276e-07,0.76,0.9,0
0.036569,-0.01202,0.031721,-0.00021666,0.0094515,0.0014038,0,0,0.057902,-0.025137,0,0.0072998,0,0,0,0.031783,-0.00027825,0.0094515,2.5119,0.013652,0.028472,7.3563e-07,0.77,0.9,0
0.037149,-0.01206,0.031744,-0.00026836,0.0094427,0.0013643,0,0,0.057983,-0.025249,0,0.0070944,0,0,0,0.031802,-0.0003264,0.0094427,2.436,0.013639,0.028527,7.381e-07,0.78,0.9,0
0.037729,-0.012095,0.031765,-0.00031072,0.0094363,0.0013193,0,0,0.058055,-0.025342,0,0.0068602,0,0,0,0.031819,-0.00036489,0.0094363,2.3513,0.01363,0.028573,7.4022e-07,0.79,0.9,0
0.03831,-0.012125,0.031785,-0.00034483,0.0094321,0.0012696,0,0,0.058118,-0.02542,0,0.006602,0,0,0,0.031835,-0.00039492,0.0094321,2.2593,0.013624,0.028612,7.4207e-07,0.8,0.9,0
0.038891,-0.012151,0.031805,-0.00037175,0.0094298,0.0012162,0,0,0.058174,-0.025484,0,0.0063241,0,0,0,0.03185,-0.00041765,0.0094298,2.1615,0.013621,0.028643,7.4367e-07,0.81,0.9,0
0.039473,-0.012173,0.031823,-0.0003925,0.0094292,0.0011596,0,0,0.058224,-0.025537,0,0.0060301,0,0,0,0.031865,-0.00043419,0.0094292,2.0589,0.01362,0.02867,7.4508e-07,0.82,0.9,0
0.040056,-0.012193,0.031842,-0.00040802,0.00943,0.0011006,0,0,0.05827,-0.025579,0,0.0057231,0,0,0,0.031879,-0.00044553,0.00943,1.9523,0.013621,0.028691,7.4633e-07,0.83,0.9,0
0.040639,-0.012209,0.031859,-0.00041916,0.009432,0.0010396,0,0,0.058311,-0.025613,0,0.005406,0,0,0,0.031893,-0.00045261,0.009432,1.8428,0.013624,0.028709,7.4745e-07,0.84,0.9,0
0.041222,-0.012222,0.031876,-0.00042669,0.0094349,0.0009771,0,0,0.058348,-0.02564,0,0.0050809,0,0,0,0.031906,-0.00045622,0.0094349,1.731,0.013628,0.028724,7.4847e-07,0.85,0.9,0
0.041806,-0.012234,0.031893,-0.00043131,0.0094385,0.00091345,0,0,0.058382,-0.025662,0,0.0047499,0,0,0,0.031919,-0.0004571,0.0094385,1.6174,0.013633,0.028736,7.494e-07,0.86,0.9,0
0.04239,-0.012243,0.031909,-0.0004336,0.0094427,0.00084897,0,0,0.058413,-0.025678,0,0.0044146,0,0,0,0.031931,-0.00045587,0.0094427,1.5026,0.013639,0.028746,7.5025e-07,0.87,0.9,0
0.042974,-0.012251,0.031925,-0.00043409,0.0094471,0.00078391,0,0,0.058441,-0.025691,0,0.0040763,0,0,0,0.031944,-0.00045307,0.0094471,1.3869,0.013646,0.028754,7.5104e-07,0.88,0.9,0
0.043558,-0.012258,0.031939,-0.00043323,0.0094518,0.00071849,0,0,0.058467,-0.025701,0,0.0037361,0,0,0,0.031955,-0.00044917,0.0094518,1.2708,0.013653,0.028762,7.5176e-07,0.89,0.9,0
0.044143,-0.012263,0.031953,-0.0004314,0.0094565,0.00065286,0,0,0.058491,-0.025709,0,0.0033949,0,0,0,0.031966,-0.00044456,0.0094565,1.1544,0.013659,0.028768,7.5243e-07,0.9,0.9,0
0.044728,-0.012268,0.031966,-0.00042893,0.0094611,0.00058716,0,0,0.058513,-0.025714,0,0.0030532,0,0,0,0.031977,-0.00043957,0.0094611,1.038,0.013666,0.028773,7.5304e-07,0.91,0.9,0
0.045313,-0.012271,0.031978,-0.0004261,0.0094655,0.00052148,0,0,0.058532,-0.025718,0,0.0027117,0,0,0,0.031986,-0.00043449,0.0094655,0.92174,0.013672,0.028778,7.5359e-07,0.92,0.9,0
0.045899,-0.012274,0.031989,-0.00042313,0.0094696,0.00045587,0,0,0.058549,-0.025721,0,0.0023705,0,0,0,0.031995,-0.00042954,0.0094696,0.80565,0.013678,0.028781,7.5409e-07,0.93,0.9,0
0.046484,-0.012276,0.031998,-0.00042021,0.0094734,0.00039038,0,0,0.058564,-0.025723,0,0.00203,0,0,0,0.032003,-0.00042491,0.0094734,0.68982,0.013684,0.028785,7.5452e-07,0.94,0.9,0
0.04707,-0.012278,0.032006,-0.00041751,0.0094766,0.00032503,0,0,0.058577,-0.025725,0,0.0016902,0,0,0,0.03201,-0.00042077,0.0094766,0.57429,0.013688,0.028787,7.5489e-07,0.95,0.9,0
0.047656,-0.012279,0.032013,-0.00041514,0.0094794,0.00025982,0,0,0.058588,-0.025726,0,0.0013511,0,0,0,0.032015,-0.00041722,0.0094794,0.45903,0.013692,0.028789,7.552e-07,0.96,0.9,0
0.048242,-0.01228,0.032018,-0.0004132,0.0094816,0.00019474,0,0,0.058596,-0.025726,0,0.0010127,0,0,0,0.03202,-0.00041437,0.0094816,0.34403,0.013696,0.028791,7.5545e-07,0.97,0.9,0
0.048828,-0.01228,0.032022,-0.00041177,0.0094832,0.00012977,0,0,0.058602,-0.025727,0,0.00067478,0,0,0,0.032023,-0.00041228,0.0094832,0.22923,0.013698,0.028792,7.5562e-07,0.98,0.9,0
0.049414,-0.012281,0.032025,-0.00041089,0.0094841,6.4864e-05,0,0,0.058605,-0.025727,0,0.00033729,0,0,0,0.032025,-0.00041102,0.0094841,0.11458,0.013699,0.028793,7.5573e-07,0.99,0.9,0
0.05,-0.012281,0.032025,-0.00041059,0.0094844,-2.1994e-06,0,0,0.058606,-0.025727,0,-1.1437e-05,0,0,0,0.032025,-0.00041059,0.0094844,-0.0038851,0.0137,0.028793,7.5576e-07,1,0.9,0
0,0,0.031959,0.013697,0.013697,-0.008062,0,0,0.047482,1.0842e-18,0,-0.041923,0,0,0,0.035009,0.010647,0.013697,-20.721,0.019784,0.022989,5.8715e-07,0,0.91,0
0.00047482,-0.00041923,0.031868,0.012466,0.0133,-0.0080396,0,0,0.048276,-0.0021693,0,-0.041806,0,0,0,0.034766,0.0095674,0.0133,-19.825,0.019211,0.023555,6.1482e-07,0.01,0.91,0
0.00096552,-0.00084745,0.032262,0.011297,0.013068,-0.0080301,0,0,0.049905,-0.0046038,0,-0.041757,0,0,0,0.034984,0.0085748,0.013068,-18.727,0.018876,0.024474,6.682e-07,0.02,0.91,0
0.0014729,-0.0012799,0.032637,0.010055,0.012807,-0.0078912,0,0,0.051556,-0.0071574,0,-0.041034,0,0,0,0.035121,0.0075704,0.012807,-17.474,0.0185,0.025341,7.1696e-07,0.03,0.91,0
0.0019966,-0.0017109,0.032963,0.008812,0.012533,-0.0076221,0,0,0.05312,-0.0096737,0,-0.039635,0,0,0,0.035168,0.0066077,0.012533,-16.13,0.018103,0.026107,7.576e-07,0.04,0.91,0
0.0025353,-0.0021351,0.033219,0.0076309,0.012255,-0.0072426,0,0,0.054507,-0.012023,0,-0.037662,0,0,0,0.035127,0.0057231,0.012255,-14.757,0.017702,0.026743,7.8828e-07,0.05,0.91,0
0.0030868,-0.0025475,0.033392,0.0065521,0.011983,-0.0067839,0,0,0.055663,-0.014121,0,-0.035276,0,0,0,0.03501,0.0049349,0.011983,-13.408,0.017309,0.027243,8.0883e-07,0.06,0.91,0
0.0036486,-0.0029444,0.033482,0.0055956,0.011723,-0.0062796,0,0,0.056572,-0.015932,0,-0.032654,0,0,0,0.034831,0.0042467,0.011723,-12.123,0.016934,0.027615,8.2027e-07,0.07,0.91,0
0.0042182,-0.0033232,0.033495,0.004765,0.011478,-0.0057595,0,0,0.057245,-0.017454,0,-0.029949,0,0,0,0.034607,0.0036534,0.011478,-10.924,0.01658,0.027877,8.2424e-07,0.08,0.91,0
0.0047935,-0.0036822,0.033446,0.0040538,0.01125,-0.0052464,0,0,0.05771,-0.01871,0,-0.027281,0,0,0,0.034355,0.0031454,0.01125,-9.823,0.01625,0.028049,8.2252e-07,0.09,0.91,0
0.0053724,-0.0040204,0.033349,0.0034505,0.01104,-0.0047559,0,0,0.058004,-0.019733,0,-0.024731,0,0,0,0.034087,0.0027122,0.01104,-8.8238,0.015946,0.028151,8.1678e-07,0.1,0.91,0
0.0059536,-0.0043375,0.033218,0.0029418,0.010848,-0.0042974,0,0,0.058162,-0.020556,0,-0.022346,0,0,0,0.033816,0.0023436,0.010848,-7.924,0.015669,0.028199,8.0838e-07,0.11,0.91,0
0.0065357,-0.0046335,0.033065,0.002515,0.010674,-0.0038755,0,0,0.058217,-0.021214,0,-0.020153,0,0,0,0.033549,0.002031,0.010674,-7.1182,0.015418,0.028208,7.9839e-07,0.12,0.91,0
0.0071179,-0.0049088,0.0329,0.0021586,0.010518,-0.0034916,0,0,0.058195,-0.021734,0,-0.018157,0,0,0,0.033292,0.0017671,0.010518,-6.3991,0.015192,0.028188,7.8758e-07,0.13,0.91,0
0.0076996,-0.0051638,0.032731,0.001863,0.010378,-0.0031449,0,0,0.058117,-0.022139,0,-0.016354,0,0,0,0.033048,0.0015459,0.010378,-5.7586,0.014991,0.028146,7.7645e-07,0.14,0.91,0
0.0082803,-0.0053989,0.032563,0.0016201,0.010255,-0.0028331,0,0,0.058,-0.02245,0,-0.014732,0,0,0,0.03282,0.0013629,0.010255,-5.1886,0.014812,0.028087,7.6535e-07,0.15,0.91,0
0.0088596,-0.0056147,0.032398,0.0014233,0.010146,-0.0025531,0,0,0.057854,-0.02268,0,-0.013276,0,0,0,0.032607,0.0012143,0.010146,-4.6805,0.014656,0.028016,7.5446e-07,0.16,0.91,0
0.0094374,-0.0058116,0.03224,0.0012673,0.010052,-0.0023014,0,0,0.057689,-0.022841,0,-0.011967,0,0,0,0.03241,0.0010972,0.010052,-4.2263,0.01452,0.027934,7.4388e-07,0.17,0.91,0
0.010013,-0.0059898,0.03209,0.0011474,0.0099712,-0.002074,0,0,0.057509,-0.022942,0,-0.010785,0,0,0,0.032228,0.0010091,0.0099712,-3.8177,0.014403,0.027842,7.3362e-07,0.18,0.91,0
0.010587,-0.0061498,0.031948,0.0010596,0.0099022,-0.001867,0,0,0.057318,-0.022991,0,-0.0097086,0,0,0,0.03206,0.0009472,0.0099022,-3.4465,0.014303,0.027741,7.2368e-07,0.19,0.91,0
0.01116,-0.0062915,0.031813,0.00099961,0.0098439,-0.0016763,0,0,0.05712,-0.022995,0,-0.0087166,0,0,0,0.031904,0.00090869,0.0098439,-3.1047,0.014219,0.027633,7.1407e-07,0.2,0.91,0
0.01173,-0.006415,0.031687,0.00096241,0.0097948,-0.0014975,0,0,0.05692,-0.022964,0,-0.0077869,0,0,0,0.03176,0.00088959,0.0097948,-2.7837,0.014148,0.02752,7.0481e-07,0.21,0.91,0
0.012298,-0.0065201,0.031569,0.00094163,0.0097533,-0.0013265,0,0,0.056722,-0.02291,0,-0.0068978,0,0,0,0.031627,0.00088429,0.0097533,-2.4754,0.014088,0.027406,6.9602e-07,0.22,0.91,0
0.012864,-0.0066066,0.031461,0.00092857,0.009717,-0.0011593,0,0,0.056535,-0.02285,0,-0.0060284,0,0,0,0.031505,0.00088462,0.009717,-2.1713,0.014036,0.027298,6.8794e-07,0.23,0.91,0
0.013429,-0.0066739,0.031367,0.00091133,0.0096834,-0.00099205,0,0,0.056377,-0.022807,0,-0.0051587,0,0,0,0.031399,0.00087905,0.0096834,-1.8637,0.013987,0.027208,6.8107e-07,0.24,0.91,0
0.013992,-0.0067213,0.031294,0.00087358,0.0096503,-0.00082136,0,0,0.056274,-0.022819,0,-0.0042711,0,0,0,0.031316,0.00085142,0.0096503,-1.5455,0.013939,0.027156,6.7634e-07,0.25,0.91,0
0.014554,-0.0067482,0.031264,0.00079028,0.0096163,-0.0006483,0,0,0.056284,-0.022948,0,-0.0033712,0,0,0,0.031278,0.00077649,0.0096163,-1.2182,0.01389,0.027182,6.7569e-07,0.26,0.91,0
0.015118,-0.0067542,0.031293,0.00061028,0.009571,-0.00048672,0,0,0.056477,-0.023298,0,-0.002531,0,0,0,0.031301,0.00060257,0.009571,-0.90858,0.013825,0.02734,6.8153e-07,0.27,0.91,0
0.015684,-0.0067395,0.031414,0.00030753,0.0095164,-0.00039285,0,0,0.056933,-0.023943,0,-0.0020428,0,0,0,0.031419,0.00030257,0.0095164,-0.72345,0.013746,0.027684,6.9672e-07,0.28,0.91,0
0.016256,-0.0067073,0.031428,-0.000218,0.0093631,-0.000404,0,0,0.05737,-0.024911,0,-0.0021008,0,0,0,0.031434,-0.00022316,0.0093631,-0.73128,0.013525,0.028117,7.104e-07,0.29,0.91,0
0.016831,-0.0066575,0.031447,-0.00053482,0.0092735,-0.00047548,0,0,0.05765,-0.025502,0,-0.0024725,0,0,0,0.031454,-0.00054189,0.0092735,-0.85159,0.013395,0.02839,7.1924e-07,0.3,0.91,0
0.017409,-0.0065761,0.03228,-0.0013191,0.0092882,-0.00077916,0,0,0.059778,-0.027579,0,-0.0040516,0,0,0,0.032298,-0.0013372,0.0092882,-1.3277,0.013416,0.02978,7.9735e-07,0.31,0.91,0
0.018027,-0.0064928,0.036763,-0.0022505,0.010354,-0.00053573,0,0,0.048059,-0.022776,0,-0.0026697,0,0,0,0.036778,-0.0022662,0.010354,-0.9622,0.014955,0.034511,1.3401e-06,0.32,0.91,0
0.018439,-0.0065267,0.029508,-0.0013383,0.0084508,0.00045537,0,0,0.037676,-0.017477,0,0.0010574,0,0,0,0.029521,-0.0013516,0.0084508,0.62837,0.012207,0.027324,7.2352e-07,0.33,0.91,0
0.018745,-0.006615,0.033763,-0.0011444,0.0097855,0.0011639,0,0,0.03117,-0.014209,0,0.0030261,0,0,0,0.033801,-0.0011831,0.0097855,1.9076,0.014135,0.030992,9.0843e-07,0.34,0.91,0
0.019062,-0.006703,0.034745,0.00037722,0.010537,0.00096574,0,0,0.031471,-0.013207,0,0.0025109,0,0,0,0.034772,0.0003501,0.010537,1.6083,0.01522,0.030627,9.44e-07,0.35,0.91,0
0.019374,-0.0067928,0.034466,0.00042182,0.010466,0.00062569,0,0,0.0312,-0.013058,0,0.0016268,0,0,0,0.034478,0.00041033,0.010466,1.0526,0.015118,0.030317,9.1838e-07,0.36,0.91,0
0.019686,-0.0068918,0.034361,-8.0801e-05,0.010284,0.00059483,0,0,0.0313,-0.013474,0,0.0015466,0,0,0,0.034371,-9.1071e-05,0.010284,0.98912,0.014855,0.030623,9.2443e-07,0.37,0.91,0
0.02,-0.0069918,0.034464,0.00023051,0.010408,0.00058689,0,0,0.031272,-0.013231,0,0.0015259,0,0,0,0.034474,0.00022045,0.010408,0.98189,0.015034,0.030465,9.2365e-07,0.38,0.91,0
0.020312,-0.007091,0.034321,0.00048778,0.010443,0.00050585,0,0,0.031042,-0.012941,0,0.0013152,0,0,0,0.034329,0.00048022,0.010443,0.85638,0.015084,0.030129,9.0443e-07,0.39,0.91,0
0.020621,-0.0071924,0.034236,0.00064418,0.010464,0.00033604,0,0,0.030903,-0.012766,0,0.00087369,0,0,0,0.034239,0.00064082,0.010464,0.57309,0.015115,0.029922,8.9257e-07,0.4,0.91,0
0.02093,-0.0072967,0.034182,0.00069311,0.010463,0.00019209,0,0,0.030835,-0.0127,0,0.00049943,0,0,0,0.034183,0.00069201,0.010463,0.32863,0.015113,0.029831,8.8668e-07,0.41,0.91,0
0.021238,-0.0074035,0.034165,0.00076437,0.010479,7.97e-05,0,0,0.030792,-0.012629,0,0.00020722,0,0,0,0.034165,0.00076418,0.010479,0.13672,0.015136,0.029757,8.8311e-07,0.42,0.91,0
0.021546,-0.0075125,0.034149,0.00085341,0.010501,-2.3761e-05,0,0,0.030743,-0.012542,0,-6.1779e-05,0,0,0,0.034149,0.00085339,0.010501,-0.040889,0.015168,0.029672,8.792e-07,0.43,0.91,0
0.021853,-0.0076237,0.034125,0.00091347,0.010512,-0.00013016,0,0,0.030698,-0.012478,0,-0.00033842,0,0,0,0.034126,0.00091296,0.010512,-0.22455,0.015183,0.029604,8.7562e-07,0.44,0.91,0
0.02216,-0.0077371,0.034096,0.00093916,0.010511,-0.00022432,0,0,0.030661,-0.012443,0,-0.00058323,0,0,0,0.034098,0.00093764,0.010511,-0.3876,0.015182,0.02956,8.7269e-07,0.45,0.91,0
0.022466,-0.0078525,0.034069,0.00096497,0.01051,-0.00030819,0,0,0.030627,-0.012409,0,-0.00080128,0,0,0,0.034072,0.0009621,0.01051,-0.53334,0.015181,0.029518,8.6999e-07,0.46,0.91,0
0.022772,-0.0079698,0.034045,0.00099014,0.010511,-0.00039211,0,0,0.030595,-0.012376,0,-0.0010195,0,0,0,0.034049,0.00098549,0.010511,-0.67954,0.015182,0.029479,8.6754e-07,0.47,0.91,0
0.023078,-0.0080888,0.034016,0.00097934,0.010498,-0.0004781,0,0,0.030572,-0.012375,0,-0.0012431,0,0,0,0.034022,0.00097243,0.010498,-0.82896,0.015164,0.029465,8.6586e-07,0.48,0.91,0
0.023384,-0.0082096,0.03398,0.00093737,0.010475,-0.00055152,0,0,0.030556,-0.012399,0,-0.001434,0,0,0,0.033989,0.00092817,0.010475,-0.95598,0.015131,0.029471,8.646e-07,0.49,0.91,0
0.023689,-0.0083317,0.033948,0.00090958,0.010457,-0.0006249,0,0,0.030538,-0.012412,0,-0.0016247,0,0,0,0.033959,0.00089776,0.010457,-1.0832,0.015105,0.029469,8.6321e-07,0.5,0.91,0
0.023994,-0.0084554,0.033953,0.0008987,0.010455,-0.00072139,0,0,0.030547,-0.012424,0,-0.0018756,0,0,0,0.033969,0.00088296,0.010455,-1.2496,0.015102,0.029489,8.6436e-07,0.51,0.91,0
0.0243,-0.0085807,0.033993,0.00077537,0.01043,-0.0008361,0,0,0.030631,-0.012552,0,-0.0021739,0,0,0,0.034014,0.00075433,0.01043,-1.4409,0.015066,0.029631,8.7161e-07,0.52,0.91,0
0.024607,-0.0087069,0.034091,0.0005466,0.010391,-0.00085737,0,0,0.030809,-0.012798,0,-0.0022292,0,0,0,0.034112,0.0005247,0.010391,-1.4632,0.015009,0.029901,8.8603e-07,0.53,0.91,0
0.024916,-0.008831,0.033952,0.00025753,0.010263,-0.00080257,0,0,0.030795,-0.013007,0,-0.0020867,0,0,0,0.033971,0.00023843,0.010263,-1.3637,0.014824,0.030003,8.8319e-07,0.54,0.91,0
0.025223,-0.0089546,0.034019,0.00075666,0.010433,-0.00076733,0,0,0.030662,-0.012579,0,-0.0019951,0,0,0,0.034036,0.00073897,0.010433,-1.3209,0.015069,0.029663,8.7382e-07,0.55,0.91,0
0.025529,-0.0090857,0.034262,0.00071029,0.010492,-0.0010325,0,0,0.030901,-0.012716,0,-0.0026844,0,0,0,0.034293,0.00067855,0.010492,-1.7609,0.015154,0.02994,8.9574e-07,0.56,0.91,0
0.025841,-0.009217,0.03326,-0.00080454,0.0097367,-0.001163,0,0,0.030581,-0.013704,0,-0.0030239,0,0,0,0.0333,-0.0008442,0.0097367,-1.9531,0.014064,0.030274,8.6044e-07,0.57,0.91,0
0.026141,-0.0093467,0.02904,-0.0010664,0.0083921,-0.00039898,0,0,0.036945,-0.016892,0,-0.00083479,0,0,0,0.029053,-0.001079,0.0083921,-0.52867,0.012122,0.026688,6.8409e-07,0.58,0.91,0
0.026545,-0.0095275,0.036188,-0.0018854,0.010291,0.00062674,0,0,0.047129,-0.022005,0,0.0030222,0,0,0,0.036208,-0.0019047,0.010291,1.1277,0.014865,0.033712,1.2685e-06,0.59,0.91,0
0.027151,-0.0098196,0.03176,-0.0010368,0.0092169,0.00090789,0,0,0.058612,-0.02666,0,0.0047211,0,0,0,0.031785,-0.0010619,0.0092169,1.5845,0.013313,0.029102,7.5419e-07,0.6,0.91,0
0.027717,-0.010108,0.030916,-0.00032437,0.0091776,0.00063659,0,0,0.056521,-0.024705,0,0.0033103,0,0,0,0.030929,-0.00033733,0.0091776,1.1669,0.013257,0.02776,6.7945e-07,0.61,0.91,0
0.028281,-0.010365,0.030891,-4.5464e-05,0.0092536,0.00058845,0,0,0.056257,-0.024178,0,0.0030599,0,0,0,0.030902,-5.6653e-05,0.0092536,1.0893,0.013366,0.027512,6.7121e-07,0.62,0.91,0
0.028843,-0.010604,0.030859,0.00042416,0.0093851,0.00059158,0,0,0.055833,-0.023298,0,0.0030762,0,0,0,0.030871,0.00041266,0.0093851,1.1131,0.013556,0.02711,6.5818e-07,0.63,0.91,0
0.029398,-0.010825,0.030724,0.00066419,0.0094164,0.00068827,0,0,0.055399,-0.022756,0,0.003579,0,0,0,0.03074,0.00064844,0.0094164,1.311,0.013602,0.026805,6.4417e-07,0.64,0.91,0
0.029951,-0.011026,0.030676,0.00077276,0.0094347,0.00083864,0,0,0.055228,-0.022521,0,0.0043609,0,0,0,0.0307,0.00074926,0.0094347,1.6052,0.013628,0.02669,6.3923e-07,0.65,0.91,0
0.030502,-0.011208,0.030683,0.00077449,0.0094373,0.00098519,0,0,0.055239,-0.022523,0,0.005123,0,0,0,0.030715,0.00074208,0.0094373,1.8846,0.013632,0.026709,6.404e-07,0.66,0.91,0
0.031055,-0.011371,0.030727,0.00071911,0.0094338,0.0011121,0,0,0.055362,-0.022658,0,0.0057827,0,0,0,0.030768,0.00067796,0.0094338,2.1195,0.013627,0.026807,6.4525e-07,0.67,0.91,0
0.03161,-0.011516,0.030786,0.0006307,0.009425,0.0012158,0,0,0.055539,-0.022865,0,0.0063223,0,0,0,0.030835,0.00058176,0.009425,2.3051,0.013614,0.026943,6.5183e-07,0.68,0.91,0
0.032166,-0.011646,0.030851,0.0005248,0.0094127,0.0012976,0,0,0.055739,-0.023109,0,0.0067474,0,0,0,0.030906,0.00046938,0.0094127,2.4456,0.013596,0.027096,6.5909e-07,0.69,0.91,0
0.032724,-0.011761,0.030917,0.00041247,0.0093987,0.0013588,0,0,0.055947,-0.023364,0,0.0070658,0,0,0,0.030977,0.00035206,0.0093987,2.5455,0.013576,0.027252,6.6647e-07,0.7,0.91,0
0.033285,-0.011864,0.030981,0.00030129,0.0093847,0.0014013,0,0,0.05615,-0.023617,0,0.007287,0,0,0,0.031045,0.00023741,0.0093847,2.6098,0.013556,0.027404,6.7362e-07,0.71,0.91,0
0.033848,-0.011954,0.031043,0.00019609,0.0093716,0.0014272,0,0,0.056345,-0.023856,0,0.0074213,0,0,0,0.031109,0.0001302,0.0093716,2.6434,0.013537,0.027546,6.8034e-07,0.72,0.91,0
0.034412,-0.012035,0.031101,9.9727e-05,0.0093602,0.0014382,0,0,0.056526,-0.024077,0,0.0074788,0,0,0,0.031168,3.3147e-05,0.0093602,2.6505,0.01352,0.027676,6.8653e-07,0.73,0.91,0
0.034978,-0.012105,0.031156,1.362e-05,0.0093508,0.0014364,0,0,0.056693,-0.024277,0,0.0074693,0,0,0,0.031222,-5.2493e-05,0.0093508,2.6353,0.013507,0.027793,6.9216e-07,0.74,0.91,0
0.035546,-0.012167,0.031207,-6.175e-05,0.0093437,0.0014234,0,0,0.056845,-0.024454,0,0.0074018,0,0,0,0.031272,-0.00012641,0.0093437,2.601,0.013496,0.027896,6.9724e-07,0.75,0.91,0
0.036115,-0.012222,0.031256,-0.00012654,0.0093388,0.0014008,0,0,0.056984,-0.02461,0,0.0072843,0,0,0,0.031318,-0.00018894,0.0093388,2.5508,0.013489,0.027987,7.0182e-07,0.76,0.91,0
0.036685,-0.012269,0.031302,-0.0001813,0.0093361,0.00137,0,0,0.057111,-0.024745,0,0.0071241,0,0,0,0.031361,-0.00024081,0.0093361,2.487,0.013485,0.028067,7.0593e-07,0.77,0.91,0
0.037257,-0.012311,0.031345,-0.00022683,0.0093355,0.0013323,0,0,0.057225,-0.024862,0,0.0069279,0,0,0,0.031401,-0.00028295,0.0093355,2.4121,0.013485,0.028136,7.0963e-07,0.78,0.91,0
0.03783,-0.012346,0.031387,-0.00026405,0.0093368,0.0012887,0,0,0.05733,-0.024962,0,0.0067015,0,0,0,0.031439,-0.00031643,0.0093368,2.3278,0.013487,0.028197,7.1298e-07,0.79,0.91,0
0.038404,-0.012377,0.031426,-0.00029391,0.0093398,0.0012404,0,0,0.057425,-0.025048,0,0.0064499,0,0,0,0.031475,-0.00034233,0.0093398,2.2359,0.013491,0.028249,7.1601e-07,0.8,0.91,0
0.038978,-0.012404,0.031464,-0.00031736,0.0093441,0.001188,0,0,0.057513,-0.02512,0,0.0061777,0,0,0,0.031509,-0.00036171,0.0093441,2.1378,0.013497,0.028295,7.1878e-07,0.81,0.91,0
0.039554,-0.012427,0.031501,-0.00033533,0.0093497,0.0011325,0,0,0.057593,-0.025181,0,0.005889,0,0,0,0.031541,-0.00037556,0.0093497,2.0347,0.013505,0.028335,7.2131e-07,0.82,0.91,0
0.04013,-0.012446,0.031536,-0.00034864,0.0093562,0.0010744,0,0,0.057667,-0.025233,0,0.005587,0,0,0,0.031572,-0.00038481,0.0093562,1.9278,0.013515,0.02837,7.2365e-07,0.83,0.91,0
0.040707,-0.012463,0.031569,-0.00035808,0.0093634,0.0010144,0,0,0.057736,-0.025276,0,0.0052749,0,0,0,0.031602,-0.00039028,0.0093634,1.8179,0.013525,0.0284,7.258e-07,0.84,0.91,0
0.041285,-0.012477,0.031601,-0.00036434,0.0093711,0.00095287,0,0,0.057799,-0.025312,0,0.0049549,0,0,0,0.03163,-0.00039272,0.0093711,1.7059,0.013536,0.028427,7.278e-07,0.85,0.91,0
0.041863,-0.012489,0.031632,-0.00036802,0.0093792,0.00089025,0,0,0.057857,-0.025343,0,0.0046293,0,0,0,0.031657,-0.00039277,0.0093792,1.5923,0.013548,0.028451,7.2966e-07,0.86,0.91,0
0.042442,-0.012499,0.031661,-0.00036967,0.0093874,0.00082688,0,0,0.057911,-0.025368,0,0.0042998,0,0,0,0.031682,-0.000391,0.0093874,1.4778,0.01356,0.028473,7.3138e-07,0.87,0.91,0
0.043021,-0.012507,0.031688,-0.00036975,0.0093956,0.00076302,0,0,0.057961,-0.02539,0,0.0039677,0,0,0,0.031707,-0.0003879,0.0093956,1.3627,0.013571,0.028492,7.3297e-07,0.88,0.91,0
0.043601,-0.012514,0.031714,-0.00036867,0.0094036,0.00069889,0,0,0.058007,-0.025408,0,0.0036342,0,0,0,0.031729,-0.00038388,0.0094036,1.2473,0.013583,0.028509,7.3444e-07,0.89,0.91,0
0.044182,-0.012519,0.031738,-0.00036676,0.0094113,0.00063466,0,0,0.058049,-0.025423,0,0.0033002,0,0,0,0.03175,-0.0003793,0.0094113,1.1321,0.013594,0.028524,7.3579e-07,0.9,0.91,0
0.044762,-0.012523,0.03176,-0.00036432,0.0094186,0.00057044,0,0,0.058087,-0.025436,0,0.0029663,0,0,0,0.03177,-0.00037444,0.0094186,1.017,0.013605,0.028537,7.3703e-07,0.91,0.91,0
0.045343,-0.012527,0.03178,-0.00036158,0.0094254,0.00050634,0,0,0.058121,-0.025446,0,0.002633,0,0,0,0.031788,-0.00036956,0.0094254,0.90233,0.013614,0.028549,7.3813e-07,0.92,0.91,0
0.045925,-0.01253,0.031797,-0.00035876,0.0094316,0.00044242,0,0,0.058151,-0.025455,0,0.0023006,0,0,0,0.031803,-0.00036485,0.0094316,0.7881,0.013623,0.028559,7.3912e-07,0.93,0.91,0
0.046506,-0.012532,0.031813,-0.00035602,0.009437,0.00037869,0,0,0.058177,-0.025462,0,0.0019692,0,0,0,0.031817,-0.00036048,0.009437,0.67436,0.013631,0.028568,7.3998e-07,0.94,0.91,0
0.047088,-0.012534,0.031826,-0.00035349,0.0094418,0.00031517,0,0,0.058199,-0.025468,0,0.0016389,0,0,0,0.031829,-0.00035657,0.0094418,0.56109,0.013638,0.028576,7.4072e-07,0.95,0.91,0
0.04767,-0.012535,0.031837,-0.00035128,0.0094457,0.00025186,0,0,0.058217,-0.025472,0,0.0013097,0,0,0,0.031839,-0.00035325,0.0094457,0.44828,0.013644,0.028582,7.4132e-07,0.96,0.91,0
0.048253,-0.012536,0.031846,-0.00034948,0.0094488,0.00018872,0,0,0.058232,-0.025476,0,0.00098136,0,0,0,0.031847,-0.00035059,0.0094488,0.33585,0.013648,0.028586,7.4179e-07,0.97,0.91,0
0.048835,-0.012537,0.031852,-0.00034816,0.0094511,0.00012573,0,0,0.058242,-0.025478,0,0.0006538,0,0,0,0.031852,-0.00034865,0.0094511,0.22372,0.013652,0.02859,7.4213e-07,0.98,0.91,0
0.049418,-0.012537,0.031856,-0.00034734,0.0094524,6.284e-05,0,0,0.058248,-0.025479,0,0.00032677,0,0,0,0.031856,-0.00034746,0.0094524,0.11181,0.013654,0.028592,7.4234e-07,0.99,0.91,0
0.05,-0.012537,0.031857,-0.00034707,0.0094529,-2.2492e-06,0,0,0.05825,-0.02548,0,-1.1696e-05,0,0,0,0.031857,-0.00034707,0.0094529,-0.0040018,0.013654,0.028592,7.4241e-07,1,0.91,0
0,0,0.032395,0.013884,0.013884,-0.0084968,0,0,0.04813,6.5052e-19,0,-0.044184,0,0,0,0.035704,0.010575,0.013884,-21.276,0.020054,0.023649,6.3469e-07,0,0.92,0
0.0004813,-0.00044184,0.032297,0.012531,0.013448,-0.0084657,0,0,0.049006,-0.0023854,0,-0.044021,0,0,0,0.035427,0.0094006,0.013448,-20.292,0.019425,0.024257,6.6476e-07,0.01,0.92,0
0.00098012,-0.00089568,0.032717,0.011208,0.013177,-0.0084502,0,0,0.050802,-0.0051209,0,-0.043941,0,0,0,0.035639,0.008285,0.013177,-19.079,0.019034,0.025266,7.2479e-07,0.02,0.92,0
0.0014973,-0.001355,0.033104,0.0098008,0.012871,-0.0082624,0,0,0.052605,-0.0079836,0,-0.042964,0,0,0,0.035736,0.0071687,0.012871,-17.671,0.018592,0.026186,7.7682e-07,0.03,0.92,0
0.0020322,-0.0018123,0.03342,0.008417,0.012551,-0.0079099,0,0,0.054259,-0.010749,0,-0.041132,0,0,0,0.035712,0.0061248,0.012551,-16.161,0.018129,0.026955,8.164e-07,0.04,0.92,0
0.0025825,-0.0022608,0.033637,0.0071362,0.012232,-0.0074291,0,0,0.055654,-0.013249,0,-0.038631,0,0,0,0.035578,0.0051957,0.012232,-14.639,0.017669,0.027547,8.4202e-07,0.05,0.92,0
0.0031453,-0.0026945,0.033746,0.0060027,0.011925,-0.0068681,0,0,0.056736,-0.015397,0,-0.035714,0,0,0,0.035353,0.0043955,0.011925,-13.171,0.017224,0.027964,8.5462e-07,0.06,0.92,0
0.0037172,-0.0031095,0.033752,0.0050296,0.011634,-0.0062731,0,0,0.057505,-0.017172,0,-0.03262,0,0,0,0.035062,0.0037192,0.011634,-11.798,0.016805,0.02823,8.5654e-07,0.07,0.92,0
0.0042954,-0.0035032,0.033671,0.00421,0.011364,-0.00568,0,0,0.057997,-0.018601,0,-0.029536,0,0,0,0.034728,0.0031528,0.011364,-10.543,0.016415,0.028375,8.5054e-07,0.08,0.92,0
0.0048772,-0.0038742,0.033525,0.0035274,0.011116,-0.0051132,0,0,0.058264,-0.019729,0,-0.026588,0,0,0,0.034372,0.0026798,0.011116,-9.4123,0.016056,0.028429,8.3923e-07,0.09,0.92,0
0.0054607,-0.004222,0.033333,0.0029624,0.010889,-0.0045864,0,0,0.058356,-0.020608,0,-0.023849,0,0,0,0.034011,0.0022849,0.010889,-8.4028,0.015728,0.028418,8.2471e-07,0.1,0.92,0
0.0060443,-0.0045467,0.033115,0.0024962,0.010683,-0.0041061,0,0,0.058322,-0.021286,0,-0.021352,0,0,0,0.033656,0.0019551,0.010683,-7.507,0.015431,0.028362,8.0854e-07,0.11,0.92,0
0.0066271,-0.0048487,0.032882,0.0021125,0.010498,-0.0036737,0,0,0.058198,-0.021803,0,-0.019103,0,0,0,0.033315,0.0016799,0.010498,-6.715,0.015164,0.028276,7.9181e-07,0.12,0.92,0
0.0072083,-0.0051286,0.032647,0.0017975,0.010333,-0.0032875,0,0,0.058015,-0.022193,0,-0.017095,0,0,0,0.032993,0.001451,0.010333,-6.0159,0.014926,0.028171,7.7522e-07,0.13,0.92,0
0.0077874,-0.005387,0.032414,0.0015402,0.010186,-0.0029442,0,0,0.057793,-0.02248,0,-0.01531,0,0,0,0.032692,0.0012619,0.010186,-5.399,0.014714,0.028054,7.5916e-07,0.14,0.92,0
0.0083641,-0.0056248,0.03219,0.0013319,0.010057,-0.0026394,0,0,0.057547,-0.022684,0,-0.013725,0,0,0,0.032414,0.0011077,0.010057,-4.8537,0.014526,0.027929,7.4386e-07,0.15,0.92,0
0.0089383,-0.0058424,0.031977,0.0011656,0.0099427,-0.0023686,0,0,0.057288,-0.02282,0,-0.012316,0,0,0,0.032158,0.00098457,0.0099427,-4.3703,0.014362,0.027799,7.294e-07,0.16,0.92,0
0.0095099,-0.0060404,0.031775,0.0010359,0.0098433,-0.0021269,0,0,0.057023,-0.022899,0,-0.01106,0,0,0,0.031922,0.00088938,0.0098433,-3.9394,0.014218,0.027664,7.1575e-07,0.17,0.92,0
0.010079,-0.0062193,0.031586,0.00093804,0.0097571,-0.0019098,0,0,0.056754,-0.02293,0,-0.0099307,0,0,0,0.031704,0.00081949,0.0097571,-3.552,0.014094,0.027526,7.0288e-07,0.18,0.92,0
0.010645,-0.0063794,0.031408,0.00086801,0.0096828,-0.0017126,0,0,0.056485,-0.022918,0,-0.0089056,0,0,0,0.031504,0.00077228,0.0096828,-3.1997,0.013986,0.027386,6.9069e-07,0.19,0.92,0
0.011208,-0.0065209,0.031241,0.00082159,0.0096188,-0.0015312,0,0,0.056218,-0.022873,0,-0.007962,0,0,0,0.031318,0.00074471,0.0096188,-2.8743,0.013894,0.027243,6.7913e-07,0.2,0.92,0
0.011769,-0.0066439,0.031085,0.00079395,0.0095636,-0.0013614,0,0,0.055955,-0.022801,0,-0.0070791,0,0,0,0.031146,0.00073289,0.0095636,-2.5682,0.013814,0.027099,6.6818e-07,0.21,0.92,0
0.012328,-0.0067484,0.030939,0.00077899,0.0095153,-0.0011997,0,0,0.055701,-0.022714,0,-0.0062382,0,0,0,0.030986,0.00073134,0.0095153,-2.2742,0.013744,0.026959,6.5791e-07,0.22,0.92,0
0.012883,-0.0068341,0.030804,0.00076857,0.0094716,-0.0010431,0,0,0.055463,-0.022628,0,-0.0054243,0,0,0,0.03084,0.00073239,0.0094716,-1.9867,0.013681,0.026828,6.4851e-07,0.23,0.92,0
0.013437,-0.0069008,0.030682,0.00075159,0.0094301,-0.00089016,0,0,0.055255,-0.022564,0,-0.0046288,0,0,0,0.030709,0.00072514,0.0094301,-1.702,0.013621,0.026717,6.4037e-07,0.24,0.92,0
0.013988,-0.0069483,0.030581,0.00071242,0.0093879,-0.00074195,0,0,0.055101,-0.022556,0,-0.0038581,0,0,0,0.030599,0.000694,0.0093879,-1.4221,0.01356,0.026644,6.3421e-07,0.25,0.92,0
0.014539,-0.0069765,0.030505,0.00062768,0.0093397,-0.00060576,0,0,0.055029,-0.022651,0,-0.0031499,0,0,0,0.030517,0.0006154,0.0093397,-1.161,0.013491,0.026634,6.3093e-07,0.26,0.92,0
0.015089,-0.0069854,0.030458,0.0004733,0.0092795,-0.00050131,0,0,0.055065,-0.022896,0,-0.0026068,0,0,0,0.030467,0.00046492,0.0092795,-0.95755,0.013404,0.026709,6.3133e-07,0.27,0.92,0
0.01564,-0.0069763,0.030408,0.00021999,0.0091883,-0.00045319,0,0,0.05517,-0.023318,0,-0.0023566,0,0,0,0.030414,0.00021319,0.0091883,-0.8599,0.013272,0.026863,6.3384e-07,0.28,0.92,0
0.016192,-0.00695,0.030362,-6.7711e-05,0.0090883,-0.00046587,0,0,0.055312,-0.023806,0,-0.0024225,0,0,0,0.030369,-7.4842e-05,0.0090883,-0.87691,0.013128,0.027053,6.3752e-07,0.29,0.92,0
0.016746,-0.0069054,0.030458,-0.0003868,0.0090213,-0.00053438,0,0,0.055735,-0.024461,0,-0.0027788,0,0,0,0.030467,-0.00039605,0.0090213,-0.99225,0.013031,0.027396,6.5083e-07,0.3,0.92,0
0.017307,-0.0068477,0.030224,-0.0013787,0.0086536,-0.00066382,0,0,0.056083,-0.026084,0,-0.0034519,0,0,0,0.030238,-0.0013926,0.0086536,-1.2028,0.0125,0.027994,6.5714e-07,0.31,0.92,0
0.017868,-0.0067763,0.031072,-0.0018936,0.0087536,-0.0013615,0,0,0.058028,-0.027683,0,-0.00708,0,0,0,0.031128,-0.0019497,0.0087536,-2.361,0.012644,0.029235,7.2767e-07,0.32,0.92,0
0.018468,-0.0067167,0.035856,-0.0018239,0.010209,-0.0010937,0,0,0.046669,-0.021785,0,-0.0049187,0,0,0,0.035902,-0.0018702,0.010209,-1.8938,0.014747,0.033412,1.2356e-06,0.33,0.92,0
0.018868,-0.0067609,0.028865,-0.001627,0.0081712,-0.00014957,0,0,0.036907,-0.017463,0,-0.0016744,0,0,0,0.028892,-0.0016547,0.0081712,-0.73139,0.011803,0.027009,6.9208e-07,0.34,0.92,0
0.019175,-0.0068312,0.033525,-0.00050944,0.0099048,0.00035273,0,0,0.030707,-0.013539,0,0.0009171,0,0,0,0.033529,-0.0005131,0.0099048,0.59372,0.014307,0.030212,8.695e-07,0.35,0.92,0
0.019482,-0.0069223,0.034667,0.00025602,0.010477,0.0011136,0,0,0.031447,-0.013287,0,0.0028954,0,0,0,0.034702,0.00022002,0.010477,1.8517,0.015133,0.030669,9.4221e-07,0.36,0.92,0
0.019804,-0.0070282,0.034909,0.00015949,0.010521,0.00071831,0,0,0.031705,-0.013469,0,0.0018676,0,0,0,0.034924,0.00014465,0.010521,1.1837,0.015196,0.030925,9.6265e-07,0.37,0.92,0
0.020116,-0.0071236,0.034294,0.00028796,0.010375,0.00081728,0,0,0.031096,-0.013113,0,0.0021249,0,0,0,0.034314,0.00026833,0.010375,1.3759,0.014986,0.030285,9.0945e-07,0.38,0.92,0
0.020425,-0.0072194,0.034216,0.00081242,0.010508,0.0005734,0,0,0.030819,-0.012605,0,0.0014908,0,0,0,0.034225,0.00080258,0.010508,0.98315,0.015179,0.029781,8.867e-07,0.39,0.92,0
0.020733,-0.0073191,0.034123,0.00083045,0.010486,0.00032193,0,0,0.030728,-0.012552,0,0.00083702,0,0,0,0.034126,0.00082734,0.010486,0.55397,0.015147,0.029673,8.782e-07,0.4,0.92,0
0.02104,-0.0074231,0.034126,0.00074098,0.01046,0.00017599,0,0,0.030766,-0.012635,0,0.00045756,0,0,0,0.034127,0.00074005,0.01046,0.30202,0.015109,0.029743,8.8084e-07,0.41,0.92,0
0.021348,-0.0075293,0.034154,0.00083787,0.010498,0.00011349,0,0,0.030754,-0.012558,0,0.00029506,0,0,0,0.034155,0.00083748,0.010498,0.19516,0.015163,0.02969,8.8013e-07,0.42,0.92,0
0.021655,-0.0076374,0.034158,0.00099644,0.010547,3.5353e-06,0,0,0.030696,-0.012415,0,9.1919e-06,0,0,0,0.034158,0.00099644,0.010547,0.0061082,0.015234,0.029567,8.7567e-07,0.43,0.92,0
0.021962,-0.007748,0.03413,0.0010317,0.010549,-0.00011997,0,0,0.030656,-0.012372,0,-0.00031192,0,0,0,0.034131,0.0010313,0.010549,-0.20767,0.015237,0.029515,8.7247e-07,0.44,0.92,0
0.022268,-0.0078612,0.034102,0.00099747,0.01053,-0.00021105,0,0,0.030644,-0.012392,0,-0.00054873,0,0,0,0.034103,0.00099613,0.01053,-0.36526,0.01521,0.029518,8.7138e-07,0.45,0.92,0
0.022575,-0.0079762,0.034074,0.0010187,0.010528,-0.00026674,0,0,0.03061,-0.012362,0,-0.00069354,0,0,0,0.034077,0.0010166,0.010528,-0.46231,0.015207,0.029479,8.6872e-07,0.46,0.92,0
0.022881,-0.0080931,0.034048,0.0010938,0.010543,-0.00034846,0,0,0.030557,-0.012283,0,-0.00090599,0,0,0,0.034052,0.0010901,0.010543,-0.60575,0.015228,0.029398,8.6461e-07,0.47,0.92,0
0.023186,-0.0082122,0.034022,0.0010971,0.010536,-0.00045258,0,0,0.030533,-0.01227,0,-0.0011767,0,0,0,0.034029,0.0010908,0.010536,-0.78737,0.015218,0.029377,8.6279e-07,0.48,0.92,0
0.023491,-0.0083333,0.033966,0.00097687,0.010483,-0.0005337,0,0,0.030528,-0.012358,0,-0.0013876,0,0,0,0.033975,0.00096824,0.010483,-0.92661,0.015142,0.029426,8.6229e-07,0.49,0.92,0
0.023796,-0.0084554,0.033888,0.00091656,0.010441,-0.00055977,0,0,0.030481,-0.012382,0,-0.0014554,0,0,0,0.033897,0.00090706,0.010441,-0.97236,0.015082,0.029406,8.5817e-07,0.5,0.92,0
0.024101,-0.0085788,0.033838,0.0010355,0.010462,-0.00066134,0,0,0.030389,-0.012254,0,-0.0017195,0,0,0,0.033851,0.0010222,0.010462,-1.1545,0.015112,0.029274,8.5123e-07,0.51,0.92,0
0.024404,-0.0087055,0.033884,0.0010402,0.010477,-0.0008595,0,0,0.030429,-0.012268,0,-0.0022347,0,0,0,0.033906,0.0010177,0.010477,-1.498,0.015134,0.029326,8.5559e-07,0.52,0.92,0
0.024709,-0.0088347,0.033919,0.0005422,0.010338,-0.0010436,0,0,0.030655,-0.012735,0,-0.0027134,0,0,0,0.033952,0.0005096,0.010338,-1.7892,0.014933,0.029771,8.7395e-07,0.53,0.92,0
0.025017,-0.008963,0.034487,0.00043282,0.010476,-0.0008872,0,0,0.031214,-0.013056,0,-0.0023067,0,0,0,0.03451,0.00040972,0.010476,-1.4914,0.015132,0.030346,9.2096e-07,0.54,0.92,0
0.025334,-0.0090796,0.034215,0.00053062,0.010424,-0.0012144,0,0,0.030929,-0.012861,0,-0.0031575,0,0,0,0.034259,0.00048689,0.010424,-2.0621,0.015057,0.030062,8.9869e-07,0.55,0.92,0
0.025636,-0.0092093,0.033055,-0.0002415,0.009844,-0.00040091,0,0,0.030174,-0.013111,0,-0.0010424,0,0,0,0.03306,-0.00024633,0.009844,-0.68975,0.014219,0.029581,8.2675e-07,0.56,0.92,0
0.025937,-0.0093581,0.028434,-0.0013764,0.0081174,0.00016337,0,0,0.036233,-0.016925,0,0.0017318,0,0,0,0.028463,-0.0014053,0.0081174,0.77742,0.011725,0.026427,6.5713e-07,0.57,0.92,0
0.02633,-0.0095305,0.035318,-0.0015003,0.010145,0.0011401,0,0,0.045806,-0.021087,0,0.0051028,0,0,0,0.035368,-0.0015509,0.010145,2.0131,0.014654,0.032681,1.1724e-06,0.58,0.92,0
0.026918,-0.0098015,0.030587,-0.0016192,0.0086904,0.0014513,0,0,0.056932,-0.026805,0,0.007547,0,0,0,0.030652,-0.0016845,0.0086904,2.575,0.012553,0.028598,6.901e-07,0.59,0.92,0
0.027469,-0.010083,0.029735,-0.0011458,0.0085767,0.00080149,0,0,0.055011,-0.025278,0,0.0041677,0,0,0,0.029756,-0.0011666,0.0085767,1.4857,0.012389,0.027383,6.222e-07,0.6,0.92,0
0.028019,-0.010349,0.029957,-0.00019793,0.0089276,0.00070695,0,0,0.054676,-0.023726,0,0.0036761,0,0,0,0.029973,-0.00021449,0.0089276,1.3423,0.012896,0.026812,6.1595e-07,0.61,0.92,0
0.028562,-0.010601,0.02985,8.1232e-05,0.0089795,0.00066231,0,0,0.054264,-0.023135,0,0.003444,0,0,0,0.029865,6.6504e-05,0.0089795,1.2739,0.01297,0.026492,6.0325e-07,0.62,0.92,0
0.029104,-0.010835,0.029883,0.00032669,0.0090628,0.00066541,0,0,0.054132,-0.022714,0,0.0034601,0,0,0,0.029898,0.00031171,0.0090628,1.2891,0.013091,0.026325,5.9983e-07,0.63,0.92,0
0.029645,-0.011051,0.029917,0.00052947,0.009134,0.00071898,0,0,0.054036,-0.022372,0,0.0037387,0,0,0,0.029935,0.00051189,0.009134,1.4006,0.013194,0.026198,5.9759e-07,0.64,0.92,0
0.030185,-0.01125,0.029944,0.00062607,0.0091711,0.00081642,0,0,0.05401,-0.022217,0,0.0042454,0,0,0,0.029967,0.00060336,0.0091711,1.5939,0.013247,0.026154,5.9746e-07,0.65,0.92,0
0.030725,-0.011432,0.029996,0.00064472,0.0091924,0.00093125,0,0,0.054091,-0.022224,0,0.0048425,0,0,0,0.030026,0.0006152,0.0091924,1.8154,0.013278,0.026197,6.0075e-07,0.66,0.92,0
0.031267,-0.011595,0.030068,0.00060849,0.0092031,0.0010418,0,0,0.05425,-0.022346,0,0.0054176,0,0,0,0.030105,0.00057169,0.0092031,2.0229,0.013293,0.026302,6.0655e-07,0.67,0.92,0
0.03181,-0.011743,0.030153,0.00053987,0.0092078,0.0011389,0,0,0.054457,-0.022537,0,0.0059222,0,0,0,0.030196,0.00049613,0.0092078,2.1992,0.0133,0.026444,6.1386e-07,0.68,0.92,0
0.032356,-0.011875,0.030242,0.00045364,0.0092086,0.0012189,0,0,0.054686,-0.022763,0,0.0063381,0,0,0,0.030292,0.00040385,0.0092086,2.3392,0.013301,0.026602,6.2184e-07,0.69,0.92,0
0.032904,-0.011993,0.030332,0.00036006,0.0092075,0.0012812,0,0,0.054923,-0.023003,0,0.0066622,0,0,0,0.030386,0.00030539,0.0092075,2.4433,0.0133,0.026764,6.2998e-07,0.7,0.92,0
0.033454,-0.012098,0.03042,0.00026613,0.0092057,0.0013264,0,0,0.055156,-0.023243,0,0.0068972,0,0,0,0.030478,0.0002079,0.0092057,2.5138,0.013297,0.026923,6.3795e-07,0.71,0.92,0
0.034007,-0.012191,0.030505,0.00017646,0.0092043,0.0013556,0,0,0.055381,-0.023473,0,0.007049,0,0,0,0.030565,0.00011599,0.0092043,2.5542,0.013295,0.027074,6.4558e-07,0.72,0.92,0
0.034562,-0.012273,0.030586,9.3847e-05,0.009204,0.0013702,0,0,0.055594,-0.023686,0,0.0071253,0,0,0,0.030648,3.2395e-05,0.009204,2.5678,0.013295,0.027214,6.5275e-07,0.73,0.92,0
0.035119,-0.012346,0.030664,1.9783e-05,0.0092052,0.001372,0,0,0.055793,-0.023882,0,0.0071342,0,0,0,0.030725,-4.1517e-05,0.0092052,2.5583,0.013296,0.027342,6.5943e-07,0.74,0.92,0
0.035678,-0.01241,0.030738,-4.5144e-05,0.009208,0.0013623,0,0,0.055979,-0.024058,0,0.0070837,0,0,0,0.030799,-0.00010531,0.009208,2.5289,0.0133,0.027459,6.6562e-07,0.75,0.92,0
0.036238,-0.012466,0.03081,-0.00010096,0.0092125,0.0013427,0,0,0.056152,-0.024215,0,0.0069819,0,0,0,0.030868,-0.00015918,0.0092125,2.4825,0.013307,0.027563,6.7134e-07,0.76,0.92,0
0.036801,-0.012515,0.030877,-0.0001481,0.0092188,0.0013146,0,0,0.056312,-0.024354,0,0.0068358,0,0,0,0.030933,-0.0002037,0.0092188,2.4219,0.013316,0.027657,6.7662e-07,0.77,0.92,0
0.037365,-0.012557,0.030942,-0.00018721,0.0092265,0.0012793,0,0,0.056461,-0.024476,0,0.0066523,0,0,0,0.030995,-0.00023969,0.0092265,2.3493,0.013327,0.02774,6.8152e-07,0.78,0.92,0
0.03793,-0.012594,0.031005,-0.00021908,0.0092357,0.001238,0,0,0.056599,-0.024582,0,0.0064375,0,0,0,0.031054,-0.00026809,0.0092357,2.267,0.01334,0.027815,6.8605e-07,0.79,0.92,0
0.038497,-0.012626,0.031064,-0.00024455,0.009246,0.0011917,0,0,0.056728,-0.024675,0,0.0061967,0,0,0,0.03111,-0.00028984,0.009246,2.1766,0.013355,0.027883,6.9026e-07,0.8,0.92,0
0.039064,-0.012653,0.031122,-0.00026445,0.0092572,0.0011413,0,0,0.056848,-0.024756,0,0.0059349,0,0,0,0.031163,-0.0003059,0.0092572,2.0798,0.013371,0.027943,6.9419e-07,0.81,0.92,0
0.039633,-0.012677,0.031177,-0.00027959,0.0092691,0.0010877,0,0,0.05696,-0.024827,0,0.0056561,0,0,0,0.031214,-0.00031715,0.0092691,1.9781,0.013389,0.027997,6.9785e-07,0.82,0.92,0
0.040204,-0.012697,0.031229,-0.0002907,0.0092815,0.0010316,0,0,0.057064,-0.024888,0,0.0053641,0,0,0,0.031263,-0.00032442,0.0092815,1.8724,0.013407,0.028046,7.0128e-07,0.83,0.92,0
0.040775,-0.012714,0.031279,-0.00029846,0.0092943,0.00097345,0,0,0.057161,-0.024941,0,0.0050619,0,0,0,0.031309,-0.00032844,0.0092943,1.764,0.013425,0.028091,7.0449e-07,0.84,0.92,0
0.041347,-0.012729,0.031327,-0.00030349,0.0093071,0.00091389,0,0,0.057252,-0.024987,0,0.0047523,0,0,0,0.031353,-0.00032987,0.0093071,1.6536,0.013444,0.028131,7.0749e-07,0.85,0.92,0
0.04192,-0.012741,0.031372,-0.00030632,0.0093197,0.00085332,0,0,0.057336,-0.025028,0,0.0044373,0,0,0,0.031395,-0.00032929,0.0093197,1.5419,0.013462,0.028168,7.103e-07,0.86,0.92,0
0.042493,-0.012751,0.031415,-0.00030741,0.0093322,0.00079208,0,0,0.057415,-0.025063,0,0.0041188,0,0,0,0.031434,-0.00032718,0.0093322,1.4294,0.01348,0.028201,7.1291e-07,0.87,0.92,0
0.043068,-0.012759,0.031455,-0.00030718,0.0093442,0.00073043,0,0,0.057487,-0.025094,0,0.0037982,0,0,0,0.031471,-0.00032397,0.0093442,1.3167,0.013497,0.028231,7.1534e-07,0.88,0.92,0
0.043643,-0.012766,0.031492,-0.00030597,0.0093557,0.00066861,0,0,0.057553,-0.02512,0,0.0034768,0,0,0,0.031506,-0.00032003,0.0093557,1.2041,0.013514,0.028259,7.1758e-07,0.89,0.92,0
0.044219,-0.012772,0.031526,-0.00030408,0.0093665,0.00060678,0,0,0.057614,-0.025144,0,0.0031553,0,0,0,0.031537,-0.00031565,0.0093665,1.0917,0.013529,0.028283,7.1964e-07,0.9,0.92,0
0.044796,-0.012776,0.031557,-0.00030176,0.0093766,0.00054507,0,0,0.057669,-0.025164,0,0.0028343,0,0,0,0.031566,-0.00031108,0.0093766,0.97988,0.013544,0.028306,7.2151e-07,0.91,0.92,0
0.045373,-0.01278,0.031585,-0.00029922,0.0093858,0.00048355,0,0,0.057719,-0.025181,0,0.0025145,0,0,0,0.031593,-0.00030655,0.0093858,0.86867,0.013557,0.028325,7.232e-07,0.92,0.92,0
0.04595,-0.012783,0.03161,-0.00029662,0.0093941,0.00042229,0,0,0.057762,-0.025196,0,0.0021959,0,0,0,0.031616,-0.00030221,0.0093941,0.75813,0.013569,0.028342,7.2469e-07,0.93,0.92,0
0.046528,-0.012785,0.031632,-0.00029412,0.0094014,0.0003613,0,0,0.0578,-0.025208,0,0.0018787,0,0,0,0.031636,-0.00029821,0.0094014,0.64828,0.01358,0.028358,7.2599e-07,0.94,0.92,0
0.047106,-0.012787,0.031651,-0.00029183,0.0094077,0.00030058,0,0,0.057832,-0.025219,0,0.001563,0,0,0,0.031654,-0.00029466,0.0094077,0.53909,0.013589,0.02837,7.271e-07,0.95,0.92,0
0.047684,-0.012788,0.031666,-0.00028984,0.0094129,0.00024012,0,0,0.057859,-0.025227,0,0.0012486,0,0,0,0.031668,-0.00029165,0.0094129,0.43049,0.013596,0.02838,7.2801e-07,0.96,0.92,0
0.048263,-0.012789,0.031678,-0.00028823,0.009417,0.00017988,0,0,0.057879,-0.025233,0,0.00093538,0,0,0,0.031679,-0.00028924,0.009417,0.3224,0.013602,0.028388,7.2872e-07,0.97,0.92,0
0.048842,-0.01279,0.031687,-0.00028703,0.0094199,0.00011982,0,0,0.057894,-0.025238,0,0.00062306,0,0,0,0.031687,-0.00028748,0.0094199,0.21471,0.013607,0.028394,7.2923e-07,0.98,0.92,0
0.049421,-0.01279,0.031692,-0.0002863,0.0094217,5.9878e-05,0,0,0.057903,-0.025241,0,0.00031137,0,0,0,0.031692,-0.00028642,0.0094217,0.10728,0.013609,0.028397,7.2953e-07,0.99,0.92,0
0.05,-0.01279,0.031694,-0.00028606,0.0094223,-2.3787e-06,0,0,0.057905,-0.025242,0,-1.2369e-05,0,0,0,0.031694,-0.00028606,0.0094223,-0.0042618,0.01361,0.028399,7.2964e-07,1,0.92,0
0,0,0.032986,0.014137,0.014137,-0.0089795,0,0,0.049007,-6.5052e-19,0,-0.046693,0,0,0,0.036578,0.010544,0.014137,-21.808,0.02042,0.024437,6.952e-07,0,0.93,0
0.00049007,-0.00046693,0.032874,0.012613,0.013646,-0.0089332,0,0,0.049993,-0.0026863,0,-0.046452,0,0,0,0.03625,0.0092369,0.013646,-20.703,0.019711,0.025101,7.2849e-07,0.01,0.93,0
0.00099986,-0.00094987,0.033323,0.011074,0.013319,-0.0089005,0,0,0.052011,-0.0058382,0,-0.046283,0,0,0,0.036446,0.0079513,0.013319,-19.331,0.019239,0.026226,7.9716e-07,0.02,0.93,0
0.0015303,-0.0014395,0.033718,0.0094493,0.01295,-0.0086329,0,0,0.053996,-0.0091021,0,-0.044891,0,0,0,0.036475,0.0066917,0.01295,-17.715,0.018706,0.0272,8.5195e-07,0.03,0.93,0
0.0020798,-0.0019259,0.034005,0.007897,0.012571,-0.0081571,0,0,0.055729,-0.012151,0,-0.042417,0,0,0,0.036344,0.0055579,0.012571,-16,0.018157,0.027947,8.8761e-07,0.04,0.93,0
0.0026449,-0.0024,0.034153,0.0065163,0.012201,-0.0075386,0,0,0.057076,-0.01478,0,-0.0392,0,0,0,0.036076,0.0045937,0.012201,-14.307,0.017623,0.028452,9.0395e-07,0.05,0.93,0
0.0032213,-0.0028554,0.03416,0.0053455,0.011852,-0.0068505,0,0,0.058002,-0.016916,0,-0.035623,0,0,0,0.035706,0.0037998,0.011852,-12.715,0.017119,0.028739,9.0417e-07,0.06,0.93,0
0.0038049,-0.0032879,0.034045,0.0043805,0.011528,-0.0061531,0,0,0.058546,-0.018583,0,-0.031996,0,0,0,0.035271,0.0031549,0.011528,-11.265,0.016651,0.028856,8.9273e-07,0.07,0.93,0
0.0043922,-0.0036953,0.033839,0.0035968,0.011231,-0.0054862,0,0,0.058781,-0.019848,0,-0.028528,0,0,0,0.034803,0.0026323,0.011231,-9.9709,0.016222,0.028849,8.7391e-07,0.08,0.93,0
0.0049805,-0.0040768,0.033571,0.0029641,0.01096,-0.0048717,0,0,0.058787,-0.020791,0,-0.025333,0,0,0,0.034327,0.0022074,0.01096,-8.8292,0.015832,0.028761,8.5113e-07,0.09,0.93,0
0.005568,-0.0044325,0.033268,0.0024542,0.010717,-0.0043184,0,0,0.058634,-0.021483,0,-0.022456,0,0,0,0.033862,0.0018604,0.010717,-7.8288,0.01548,0.02862,8.2679e-07,0.1,0.93,0
0.0061532,-0.0047632,0.032951,0.002043,0.010498,-0.0038275,0,0,0.058377,-0.021984,0,-0.019903,0,0,0,0.033418,0.0015761,0.010498,-6.9552,0.015164,0.02845,8.0242e-07,0.11,0.93,0
0.0067355,-0.0050696,0.032633,0.001711,0.010303,-0.0033955,0,0,0.058058,-0.02234,0,-0.017657,0,0,0,0.033002,0.0013426,0.010303,-6.1932,0.014883,0.028265,7.7896e-07,0.12,0.93,0
0.0073144,-0.0053527,0.032324,0.0014432,0.01013,-0.0030171,0,0,0.057705,-0.022586,0,-0.015689,0,0,0,0.032616,0.0011512,0.01013,-5.5282,0.014633,0.028074,7.5686e-07,0.13,0.93,0
0.0078896,-0.0056134,0.03203,0.0012278,0.0099773,-0.002686,0,0,0.057336,-0.022749,0,-0.013967,0,0,0,0.032262,0.00099536,0.0099773,-4.9466,0.014412,0.027883,7.3633e-07,0.14,0.93,0
0.0084611,-0.0058526,0.031753,0.001056,0.0098426,-0.0023959,0,0,0.056966,-0.022845,0,-0.012458,0,0,0,0.031938,0.00087016,0.0098426,-4.4361,0.014217,0.027694,7.174e-07,0.15,0.93,0
0.0090289,-0.0060711,0.031494,0.00092099,0.0097244,-0.0021405,0,0,0.0566,-0.022889,0,-0.011131,0,0,0,0.031643,0.00077185,0.0097244,-3.9856,0.014046,0.02751,6.9997e-07,0.16,0.93,0
0.0095931,-0.0062696,0.031253,0.0008174,0.0096211,-0.0019142,0,0,0.056243,-0.02289,0,-0.0099541,0,0,0,0.031373,0.00069747,0.0096211,-3.5848,0.013897,0.027329,6.8391e-07,0.17,0.93,0
0.010154,-0.0064484,0.03103,0.00074094,0.0095312,-0.0017117,0,0,0.055896,-0.022855,0,-0.0089009,0,0,0,0.031126,0.00064451,0.0095312,-3.2243,0.013767,0.027152,6.6908e-07,0.18,0.93,0
0.010711,-0.0066081,0.030823,0.00068777,0.0094532,-0.001528,0,0,0.055561,-0.02279,0,-0.0079456,0,0,0,0.0309,0.00061049,0.0094532,-2.8953,0.013655,0.026978,6.553e-07,0.19,0.93,0
0.011265,-0.0067489,0.03063,0.00065407,0.0093853,-0.0013588,0,0,0.055237,-0.022701,0,-0.0070656,0,0,0,0.030692,0.0005926,0.0093853,-2.59,0.013557,0.026807,6.4247e-07,0.2,0.93,0
0.011816,-0.006871,0.030451,0.00063545,0.009326,-0.0012002,0,0,0.054925,-0.022595,0,-0.006241,0,0,0,0.030499,0.00058722,0.009326,-2.3014,0.013471,0.02664,6.305e-07,0.21,0.93,0
0.012363,-0.0069744,0.030284,0.00062651,0.0092732,-0.0010493,0,0,0.054628,-0.022481,0,-0.0054562,0,0,0,0.030321,0.00058943,0.0092732,-2.0237,0.013395,0.02648,6.1939e-07,0.22,0.93,0
0.012908,-0.0070591,0.030129,0.00062007,0.0092248,-0.00090414,0,0,0.054351,-0.022372,0,-0.0047016,0,0,0,0.030157,0.00059239,0.0092248,-1.7533,0.013325,0.026332,6.0923e-07,0.23,0.93,0
0.013451,-0.0071251,0.029987,0.00060656,0.0091781,-0.00076488,0,0,0.054103,-0.022286,0,-0.0039774,0,0,0,0.030007,0.00058666,0.0091781,-1.4903,0.013257,0.026203,6.0026e-07,0.24,0.93,0
0.01399,-0.0071724,0.029859,0.00057312,0.0091296,-0.00063468,0,0,0.053896,-0.022247,0,-0.0033003,0,0,0,0.029873,0.00055937,0.0091296,-1.2409,0.013187,0.026106,5.9279e-07,0.25,0.93,0
0.014528,-0.0072012,0.029745,0.00050471,0.0090749,-0.00052174,0,0,0.053742,-0.022282,0,-0.002713,0,0,0,0.029754,0.00049541,0.0090749,-1.0219,0.013108,0.026051,5.8713e-07,0.26,0.93,0
0.015065,-0.0072121,0.029638,0.0003854,0.0090069,-0.00043861,0,0,0.05364,-0.022416,0,-0.0022808,0,0,0,0.029644,0.00037883,0.0090069,-0.85884,0.01301,0.026046,5.8318e-07,0.27,0.93,0
0.015601,-0.0072058,0.029534,0.00021403,0.0089244,-0.00039696,0,0,0.053585,-0.022647,0,-0.0020642,0,0,0,0.029539,0.00020866,0.0089244,-0.77553,0.012891,0.026089,5.8066e-07,0.28,0.93,0
0.016137,-0.0071834,0.029451,-1.2843e-05,0.0088314,-0.00040488,0,0,0.053611,-0.022995,0,-0.0021054,0,0,0,0.029457,-1.8405e-05,0.0088314,-0.78713,0.012757,0.026196,5.8061e-07,0.29,0.93,0
0.016674,-0.0071468,0.029338,-0.00040346,0.0086802,-0.0004749,0,0,0.053709,-0.023618,0,-0.0024695,0,0,0,0.029345,-0.00041104,0.0086802,-0.91458,0.012538,0.026411,5.8216e-07,0.3,0.93,0
0.017211,-0.0070978,0.029317,-0.0008708,0.0085339,-0.00072398,0,0,0.054037,-0.024452,0,-0.0037647,0,0,0,0.029334,-0.00088816,0.0085339,-1.373,0.012327,0.026785,5.9107e-07,0.31,0.93,0
0.017754,-0.0070465,0.028937,-0.0017204,0.0081651,-0.0010635,0,0,0.054008,-0.025702,0,-0.0055302,0,0,0,0.028974,-0.0017572,0.0081651,-1.9844,0.011794,0.027165,5.8579e-07,0.32,0.93,0
0.018291,-0.0069902,0.029581,-0.0019051,0.0083028,-0.0019581,0,0,0.055324,-0.026541,0,-0.010182,0,0,0,0.029702,-0.0020264,0.0083028,-3.545,0.011993,0.02803,6.3524e-07,0.33,0.93,0
0.018861,-0.0069499,0.033946,-0.0021714,0.0095322,-0.0016823,0,0,0.044405,-0.020978,0,-0.0071938,0,0,0,0.034044,-0.0022702,0.0095322,-2.9544,0.013769,0.032086,1.0637e-06,0.34,0.93,0
0.019242,-0.0069737,0.031536,-0.00033352,0.0093607,-0.00084052,0,0,0.038437,-0.018077,0,-0.0050221,0,0,0,0.031641,-0.00043832,0.0093607,-2.3087,0.013521,0.02851,9.6439e-07,0.35,0.93,0
0.019629,-0.0070586,0.028526,-9.0184e-05,0.0085308,0.00028184,0,0,0.035678,-0.015205,0,0.00027814,0,0,0,0.02854,-0.00010461,0.0085308,0.24676,0.012322,0.025452,6.3207e-07,0.36,0.93,0
0.019925,-0.0071612,0.032995,-0.00053936,0.0097366,0.001022,0,0,0.030236,-0.013359,0,0.0026572,0,0,0,0.033026,-0.00057048,0.0097366,1.744,0.014064,0.029811,8.3261e-07,0.37,0.93,0
0.020234,-0.0072541,0.033856,0.00053491,0.010317,0.00078588,0,0,0.0306,-0.012717,0,0.0020433,0,0,0,0.033874,0.00051638,0.010317,1.3503,0.014903,0.029696,8.6773e-07,0.38,0.93,0
0.020537,-0.0073431,0.033939,0.0012887,0.010568,0.00050373,0,0,0.030382,-0.012063,0,0.0013097,0,0,0,0.033946,0.0012809,0.010568,0.88368,0.015265,0.029153,8.508e-07,0.39,0.93,0
0.020842,-0.0074435,0.034022,0.00089398,0.010475,0.00014489,0,0,0.030611,-0.012455,0,0.0003767,0,0,0,0.034022,0.00089335,0.010475,0.25058,0.01513,0.029528,8.6817e-07,0.4,0.93,0
0.021149,-0.0075494,0.034116,0.0005783,0.010408,0.00020051,0,0,0.03082,-0.012779,0,0.00052132,0,0,0,0.034117,0.0005771,0.010408,0.34254,0.015034,0.029864,8.8485e-07,0.41,0.93,0
0.021458,-0.0076547,0.034233,0.00099814,0.010569,0.00017742,0,0,0.030763,-0.012442,0,0.00046131,0,0,0,0.034234,0.00099719,0.010569,0.30587,0.015267,0.029634,8.8151e-07,0.42,0.93,0
0.021764,-0.0077608,0.034161,0.0012171,0.010614,2.6197e-05,0,0,0.030612,-0.012215,0,6.8113e-05,0,0,0,0.034161,0.0012171,0.010614,0.045562,0.015331,0.029395,8.6925e-07,0.43,0.93,0
0.02207,-0.0078711,0.034148,0.0011666,0.010594,-0.00016198,0,0,0.03062,-0.012256,0,-0.00042114,0,0,0,0.034149,0.0011658,0.010594,-0.28138,0.015303,0.029425,8.6985e-07,0.44,0.93,0
0.022377,-0.0079849,0.034144,0.00098384,0.010538,-0.00021248,0,0,0.030687,-0.012421,0,-0.00055245,0,0,0,0.034145,0.00098248,0.010538,-0.36712,0.015222,0.029566,8.7505e-07,0.45,0.93,0
0.022684,-0.0080997,0.034116,0.0010023,0.010535,-0.00020866,0,0,0.030654,-0.012393,0,-0.00054251,0,0,0,0.034117,0.0010009,0.010535,-0.36102,0.015218,0.029527,8.7232e-07,0.46,0.93,0
0.02299,-0.0082154,0.034064,0.0012164,0.010584,-0.00025176,0,0,0.030524,-0.012178,0,-0.00065458,0,0,0,0.034066,0.0012145,0.010584,-0.43911,0.015288,0.029312,8.6198e-07,0.47,0.93,0
0.023295,-0.0083343,0.034022,0.0012934,0.010595,-0.00042208,0,0,0.030456,-0.012092,0,-0.0010974,0,0,0,0.034028,0.001288,0.010595,-0.73874,0.015303,0.02922,8.5681e-07,0.48,0.93,0
0.023599,-0.0084568,0.034039,0.0011018,0.010542,-0.00054487,0,0,0.030545,-0.012272,0,-0.0014167,0,0,0,0.034048,0.0010928,0.010542,-0.9475,0.015227,0.029392,8.642e-07,0.49,0.93,0
0.023905,-0.0085794,0.033872,0.00071725,0.010377,-0.0005332,0,0,0.030544,-0.012557,0,-0.0013863,0,0,0,0.03388,0.00070867,0.010377,-0.92112,0.014989,0.029549,8.6266e-07,0.5,0.93,0
0.02421,-0.0087005,0.033733,0.0010588,0.010438,-0.00044025,0,0,0.030284,-0.012193,0,-0.0011447,0,0,0,0.033739,0.0010529,0.010438,-0.7718,0.015077,0.02915,8.4182e-07,0.51,0.93,0
0.024511,-0.0088261,0.033606,0.0014568,0.010519,-0.00074943,0,0,0.030013,-0.01178,0,-0.0019485,0,0,0,0.033623,0.0014394,0.010519,-1.3347,0.015194,0.02874,8.2166e-07,0.52,0.93,0
0.02481,-0.0089617,0.033483,0.00072593,0.010263,-0.00097269,0,0,0.030187,-0.012398,0,-0.002529,0,0,0,0.033512,0.00069707,0.010263,-1.6993,0.014824,0.029231,8.3494e-07,0.53,0.93,0
0.025115,-0.0090921,0.032602,-0.00031049,0.0096876,-0.0011512,0,0,0.029789,-0.012998,0,-0.0029932,0,0,0,0.032643,-0.0003507,0.0096876,-2.0008,0.013993,0.029294,7.9859e-07,0.54,0.93,0
0.025406,-0.0092118,0.028152,9.1507e-05,0.008473,-0.00034714,0,0,0.035111,-0.014788,0,-0.00049812,0,0,0,0.028168,7.4929e-05,0.008473,-0.3795,0.012239,0.024978,6.0398e-07,0.55,0.93,0
0.025787,-0.0093479,0.031086,-0.0001328,0.0092861,0.00080803,0,0,0.037787,-0.01756,0,0.0048748,0,0,0,0.031189,-0.00023553,0.0092861,2.2872,0.013413,0.027945,9.1706e-07,0.56,0.93,0
0.026162,-0.0095414,0.033449,-0.0018854,0.0094691,0.0016876,0,0,0.043617,-0.020356,0,0.00722,0,0,0,0.033551,-0.0019871,0.0094691,3.0288,0.013678,0.031419,1.0117e-06,0.57,0.93,0
0.026721,-0.0097955,0.029134,-0.0016644,0.0082409,0.0020055,0,0,0.054322,-0.025754,0,0.010428,0,0,0,0.029264,-0.0017945,0.0082409,3.71,0.011903,0.027453,6.0392e-07,0.58,0.93,0
0.027248,-0.010064,0.028487,-0.0015005,0.0080961,0.0011649,0,0,0.053017,-0.024951,0,0.0060575,0,0,0,0.028532,-0.0015457,0.0080961,2.2213,0.011694,0.026602,5.562e-07,0.59,0.93,0
0.027781,-0.010325,0.028857,-0.00067892,0.0084533,0.0008695,0,0,0.053048,-0.023744,0,0.0045214,0,0,0,0.028882,-0.0007045,0.0084533,1.6848,0.01221,0.026235,5.6088e-07,0.6,0.93,0
0.028309,-0.010583,0.028869,-0.00024285,0.0085879,0.00065582,0,0,0.052731,-0.02296,0,0.0034102,0,0,0,0.028884,-0.00025762,0.0085879,1.2898,0.012405,0.025878,5.5222e-07,0.61,0.93,0
0.028836,-0.010828,0.028974,0.00011546,0.0087269,0.00061192,0,0,0.052643,-0.02239,0,0.003182,0,0,0,0.028987,0.00010249,0.0087269,1.2142,0.012606,0.025682,5.5081e-07,0.62,0.93,0
0.029362,-0.011058,0.029047,0.00030785,0.0088065,0.00062139,0,0,0.052626,-0.022097,0,0.0032312,0,0,0,0.029061,0.00029442,0.0088065,1.2381,0.01272,0.025595,5.5102e-07,0.63,0.93,0
0.029888,-0.011273,0.029138,0.00044017,0.0088736,0.00067106,0,0,0.052689,-0.021927,0,0.0034895,0,0,0,0.029154,0.00042449,0.0088736,1.3388,0.012817,0.025574,5.5362e-07,0.64,0.93,0
0.030416,-0.011471,0.02923,0.00051438,0.0089232,0.0007511,0,0,0.052797,-0.021863,0,0.0039057,0,0,0,0.029249,0.00049475,0.0089232,1.4973,0.012889,0.025603,5.5758e-07,0.65,0.93,0
0.030944,-0.011652,0.029323,0.0005311,0.0089562,0.00084802,0,0,0.052954,-0.021905,0,0.0044097,0,0,0,0.029348,0.00050615,0.0089562,1.6856,0.012937,0.025681,5.6304e-07,0.66,0.93,0
0.031475,-0.011817,0.029424,0.0005055,0.0089789,0.00094743,0,0,0.053158,-0.022031,0,0.0049267,0,0,0,0.029455,0.00047449,0.0089789,1.8744,0.01297,0.025802,5.6996e-07,0.67,0.93,0
0.032008,-0.011967,0.029531,0.00045188,0.008995,0.0010392,0,0,0.053395,-0.022212,0,0.0054037,0,0,0,0.029568,0.00041479,0.008995,2.044,0.012993,0.02595,5.7791e-07,0.68,0.93,0
0.032543,-0.012101,0.029642,0.00038237,0.0090072,0.0011179,0,0,0.053649,-0.022424,0,0.0058131,0,0,0,0.029684,0.00033972,0.0090072,2.1849,0.01301,0.026113,5.864e-07,0.69,0.93,0
0.033081,-0.012221,0.029752,0.00030572,0.0090173,0.0011814,0,0,0.05391,-0.02265,0,0.0061432,0,0,0,0.029799,0.0002584,0.0090173,2.2938,0.013025,0.02628,5.9507e-07,0.7,0.93,0
0.033621,-0.012328,0.029861,0.00022807,0.0090267,0.0012291,0,0,0.054169,-0.022876,0,0.0063912,0,0,0,0.029912,0.00017718,0.0090267,2.371,0.013038,0.026445,6.0365e-07,0.71,0.93,0
0.034164,-0.012424,0.029967,0.0001535,0.0090362,0.0012615,0,0,0.054421,-0.023095,0,0.0065597,0,0,0,0.03002,0.00010022,0.0090362,2.4186,0.013052,0.026603,6.1198e-07,0.72,0.93,0
0.034709,-0.012508,0.030071,8.456e-05,0.0090465,0.0012796,0,0,0.054663,-0.023301,0,0.0066541,0,0,0,0.030125,3.0052e-05,0.0090465,2.4391,0.013067,0.026752,6.1997e-07,0.73,0.93,0
0.035257,-0.012583,0.030171,2.2645e-05,0.009058,0.0012848,0,0,0.054893,-0.023492,0,0.0066811,0,0,0,0.030225,-3.2011e-05,0.009058,2.4359,0.013084,0.02689,6.2755e-07,0.74,0.93,0
0.035807,-0.012648,0.030267,-3.1651e-05,0.0090707,0.0012785,0,0,0.055111,-0.023666,0,0.0066483,0,0,0,0.030321,-8.5505e-05,0.0090707,2.412,0.013102,0.027018,6.3474e-07,0.75,0.93,0
0.036359,-0.012706,0.030361,-7.8294e-05,0.0090847,0.0012622,0,0,0.055317,-0.023824,0,0.0065633,0,0,0,0.030413,-0.00013054,0.0090847,2.3704,0.013122,0.027136,6.4151e-07,0.76,0.93,0
0.036914,-0.012756,0.030451,-0.00011761,0.0090999,0.0012372,0,0,0.055512,-0.023966,0,0.0064332,0,0,0,0.030501,-0.0001676,0.0090999,2.3138,0.013144,0.027244,6.4791e-07,0.77,0.93,0
0.03747,-0.0128,0.030537,-0.00015014,0.0091162,0.0012048,0,0,0.055695,-0.024092,0,0.0062651,0,0,0,0.030585,-0.00019737,0.0091162,2.2449,0.013168,0.027342,6.5394e-07,0.78,0.93,0
0.038027,-0.012838,0.030621,-0.00017656,0.0091334,0.0011664,0,0,0.055868,-0.024206,0,0.0060652,0,0,0,0.030665,-0.00022067,0.0091334,2.1658,0.013193,0.027432,6.5964e-07,0.79,0.93,0
0.038587,-0.012871,0.030702,-0.00019757,0.0091512,0.0011229,0,0,0.056031,-0.024307,0,0.005839,0,0,0,0.030742,-0.00023833,0.0091512,2.0785,0.013218,0.027515,6.6502e-07,0.8,0.93,0
0.039148,-0.012899,0.030779,-0.0002139,0.0091696,0.0010753,0,0,0.056185,-0.024397,0,0.0055917,0,0,0,0.030816,-0.00025116,0.0091696,1.9847,0.013245,0.027591,6.701e-07,0.81,0.93,0
0.039711,-0.012923,0.030853,-0.00022621,0.0091881,0.0010245,0,0,0.056329,-0.024477,0,0.0053275,0,0,0,0.030887,-0.00025995,0.0091881,1.886,0.013272,0.027661,6.749e-07,0.82,0.93,0
0.040275,-0.012944,0.030924,-0.00023516,0.0092066,0.00097123,0,0,0.056465,-0.024549,0,0.0050504,0,0,0,0.030954,-0.0002654,0.0092066,1.7836,0.013298,0.027725,6.7944e-07,0.83,0.93,0
0.04084,-0.012962,0.030991,-0.00024131,0.009225,0.00091605,0,0,0.056592,-0.024612,0,0.0047634,0,0,0,0.031018,-0.00026816,0.009225,1.6785,0.013325,0.027784,6.8371e-07,0.84,0.93,0
0.041407,-0.012977,0.031055,-0.00024519,0.009243,0.0008595,0,0,0.056712,-0.024669,0,0.0044694,0,0,0,0.031079,-0.00026877,0.009243,1.5717,0.013351,0.027838,6.8773e-07,0.85,0.93,0
0.041974,-0.012989,0.031116,-0.00024725,0.0092605,0.00080203,0,0,0.056823,-0.02472,0,0.0041705,0,0,0,0.031136,-0.00026774,0.0092605,1.4639,0.013376,0.027889,6.9151e-07,0.86,0.93,0
0.042543,-0.013,0.031172,-0.00024788,0.0092774,0.00074397,0,0,0.056927,-0.024766,0,0.0038686,0,0,0,0.03119,-0.00026548,0.0092774,1.3556,0.013401,0.027935,6.9503e-07,0.87,0.93,0
0.043113,-0.013009,0.031225,-0.00024743,0.0092934,0.00068561,0,0,0.057023,-0.024806,0,0.0035652,0,0,0,0.03124,-0.00026236,0.0092934,1.2474,0.013424,0.027977,6.9831e-07,0.88,0.93,0
0.043684,-0.013016,0.031274,-0.00024619,0.0093084,0.00062717,0,0,0.057111,-0.024842,0,0.0032613,0,0,0,0.031287,-0.00025866,0.0093084,1.1394,0.013446,0.028015,7.0135e-07,0.89,0.93,0
0.044255,-0.013022,0.031319,-0.00024441,0.0093225,0.00056881,0,0,0.057192,-0.024874,0,0.0029578,0,0,0,0.03133,-0.00025466,0.0093225,1.0321,0.013466,0.02805,7.0413e-07,0.9,0.93,0
0.044827,-0.013027,0.03136,-0.00024229,0.0093354,0.00051065,0,0,0.057265,-0.024902,0,0.0026554,0,0,0,0.031369,-0.00025054,0.0093354,0.92549,0.013484,0.028081,7.0666e-07,0.91,0.93,0
0.0454,-0.013031,0.031397,-0.00024001,0.0093472,0.00045277,0,0,0.05733,-0.024927,0,0.0023544,0,0,0,0.031404,-0.00024649,0.0093472,0.81975,0.013501,0.028109,7.0893e-07,0.92,0.93,0
0.045974,-0.013034,0.03143,-0.00023772,0.0093577,0.0003952,0,0,0.057388,-0.024948,0,0.0020551,0,0,0,0.031435,-0.00024265,0.0093577,0.71488,0.013517,0.028134,7.1095e-07,0.93,0.93,0
0.046548,-0.013036,0.031458,-0.00023552,0.0093669,0.00033797,0,0,0.057438,-0.024966,0,0.0017574,0,0,0,0.031462,-0.00023913,0.0093669,0.61088,0.01353,0.028155,7.127e-07,0.94,0.93,0
0.047123,-0.013038,0.031483,-0.00023352,0.0093747,0.00028106,0,0,0.05748,-0.024981,0,0.0014615,0,0,0,0.031485,-0.00023601,0.0093747,0.50769,0.013541,0.028173,7.1419e-07,0.95,0.93,0
0.047698,-0.01304,0.031502,-0.00023179,0.0093812,0.00022445,0,0,0.057515,-0.024994,0,0.0011672,0,0,0,0.031504,-0.00023338,0.0093812,0.40522,0.013551,0.028188,7.1541e-07,0.96,0.93,0
0.048273,-0.013041,0.031518,-0.00023039,0.0093862,0.0001681,0,0,0.057542,-0.025003,0,0.00087413,0,0,0,0.031519,-0.00023128,0.0093862,0.30336,0.013558,0.028199,7.1637e-07,0.97,0.93,0
0.048849,-0.013041,0.031529,-0.00022936,0.0093899,0.00011195,0,0,0.057562,-0.02501,0,0.00058215,0,0,0,0.031529,-0.00022975,0.0093899,0.20197,0.013563,0.028207,7.1705e-07,0.98,0.93,0
0.049424,-0.013042,0.031536,-0.00022873,0.0093921,5.594e-05,0,0,0.057573,-0.025014,0,0.00029089,0,0,0,0.031536,-0.00022882,0.0093921,0.1009,0.013566,0.028212,7.1746e-07,0.99,0.93,0
0.05,-0.013042,0.031538,-0.00022851,0.0093928,-2.5926e-06,0,0,0.057577,-0.025015,0,-1.3482e-05,0,0,0,0.031538,-0.00022851,0.0093928,-0.0046762,0.013567,0.028214,7.1759e-07,1,0.93,0
0,0,0.033797,0.014484,0.014484,-0.00953,0,0,0.050213,6.5052e-19,0,-0.049556,0,0,0,0.037708,0.010574,0.014484,-22.311,0.020922,0.025406,7.7534e-07,0,0.94,0
0.00050213,-0.00049556,0.033663,0.01271,0.013912,-0.0094559,0,0,0.051354,-0.003126,0,-0.049171,0,0,0,0.0373,0.0090734,0.013912,-21.034,0.020095,0.026145,8.1293e-07,0.01,0.94,0
0.0010271,-0.0010125,0.034142,0.010855,0.013499,-0.0093819,0,0,0.053671,-0.006874,0,-0.048786,0,0,0,0.037451,0.0075458,0.013499,-19.43,0.019499,0.027418,8.9266e-07,0.02,0.94,0
0.0015755,-0.001537,0.034527,0.0089421,0.013041,-0.0089808,0,0,0.055864,-0.010656,0,-0.0467,0,0,0,0.037365,0.0061044,0.013041,-17.535,0.018837,0.028434,9.4801e-07,0.03,0.94,0
0.0021444,-0.0020554,0.034748,0.0072005,0.012585,-0.0083212,0,0,0.057625,-0.013999,0,-0.04327,0,0,0,0.037067,0.0048821,0.012585,-15.569,0.018178,0.029108,9.7394e-07,0.04,0.94,0
0.0027281,-0.0025563,0.034776,0.0057398,0.012155,-0.0075194,0,0,0.058815,-0.016679,0,-0.039101,0,0,0,0.036608,0.0039081,0.012155,-13.691,0.017557,0.029455,9.7395e-07,0.05,0.94,0
0.0033207,-0.0030328,0.034626,0.0045697,0.011759,-0.0066817,0,0,0.059455,-0.018691,0,-0.034745,0,0,0,0.036044,0.0031513,0.011759,-11.985,0.016985,0.029545,9.5538e-07,0.06,0.94,0
0.0039171,-0.0034812,0.034341,0.0036521,0.011398,-0.0058794,0,0,0.059651,-0.020139,0,-0.030573,0,0,0,0.035428,0.0025642,0.011398,-10.483,0.016463,0.029458,9.2584e-07,0.07,0.94,0
0.0045137,-0.0039002,0.033969,0.0029367,0.011072,-0.005149,0,0,0.059534,-0.021151,0,-0.026775,0,0,0,0.034801,0.0021047,0.011072,-9.1791,0.015993,0.029262,8.9124e-07,0.08,0.94,0
0.0051078,-0.00429,0.033554,0.0023784,0.01078,-0.0045031,0,0,0.059213,-0.021844,0,-0.023416,0,0,0,0.034191,0.001741,0.01078,-8.0565,0.015571,0.029007,8.5546e-07,0.09,0.94,0
0.005698,-0.0046517,0.033125,0.0019407,0.01052,-0.0039412,0,0,0.058774,-0.022306,0,-0.020494,0,0,0,0.033616,0.0014504,0.01052,-7.0926,0.015195,0.028725,8.2078e-07,0.1,0.94,0
0.0062833,-0.0049864,0.032703,0.0015959,0.01029,-0.0034565,0,0,0.058274,-0.022604,0,-0.017974,0,0,0,0.033082,0.0012164,0.01029,-6.2647,0.014863,0.028436,7.8835e-07,0.11,0.94,0
0.0068634,-0.0052955,0.032298,0.0013228,0.010086,-0.00304,0,0,0.05775,-0.022785,0,-0.015808,0,0,0,0.032593,0.0010273,0.010086,-5.5525,0.014569,0.028152,7.5865e-07,0.12,0.94,0
0.0074383,-0.0055803,0.031918,0.0011062,0.0099072,-0.0026821,0,0,0.057227,-0.022883,0,-0.013947,0,0,0,0.032149,0.00087449,0.0099072,-4.938,0.01431,0.027879,7.3175e-07,0.13,0.94,0
0.008008,-0.005842,0.031565,0.00093468,0.0097498,-0.0023738,0,0,0.056719,-0.022919,0,-0.012344,0,0,0,0.031748,0.0007518,0.0097498,-4.4054,0.014083,0.027619,7.0753e-07,0.14,0.94,0
0.0085727,-0.0060817,0.031239,0.00079983,0.0096118,-0.002107,0,0,0.056232,-0.022911,0,-0.010957,0,0,0,0.031385,0.00065467,0.0096118,-3.9409,0.013884,0.027373,6.8576e-07,0.15,0.94,0
0.0091326,-0.0063002,0.030941,0.00069546,0.009491,-0.0018744,0,0,0.055771,-0.022868,0,-0.0097467,0,0,0,0.031057,0.00057975,0.009491,-3.5327,0.013709,0.027142,6.6616e-07,0.16,0.94,0
0.0096881,-0.0064982,0.030668,0.00061685,0.0093855,-0.0016694,0,0,0.055335,-0.022799,0,-0.0086807,0,0,0,0.030761,0.0005244,0.0093855,-3.1698,0.013557,0.026923,6.4847e-07,0.17,0.94,0
0.010239,-0.0066764,0.030418,0.00056022,0.0092935,-0.0014863,0,0,0.054924,-0.022707,0,-0.0077286,0,0,0,0.030492,0.00048642,0.0092935,-2.8427,0.013424,0.026714,6.3241e-07,0.18,0.94,0
0.010787,-0.0068352,0.030189,0.00052227,0.0092134,-0.00132,0,0,0.054537,-0.022597,0,-0.0068642,0,0,0,0.030248,0.00046365,0.0092134,-2.5427,0.013308,0.026515,6.1776e-07,0.19,0.94,0
0.01133,-0.006975,0.029979,0.00049975,0.0091435,-0.0011664,0,0,0.054171,-0.022474,0,-0.006065,0,0,0,0.030024,0.00045368,0.0091435,-2.2622,0.013207,0.026325,6.0433e-07,0.2,0.94,0
0.01187,-0.0070958,0.029784,0.00048901,0.009082,-0.0010217,0,0,0.053826,-0.022342,0,-0.0053127,0,0,0,0.02982,0.00045342,0.009082,-1.995,0.013118,0.026143,5.9199e-07,0.21,0.94,0
0.012407,-0.007198,0.029605,0.00048553,0.009027,-0.00088344,0,0,0.053502,-0.022208,0,-0.0045939,0,0,0,0.029631,0.00045876,0.009027,-1.7362,0.013039,0.025971,5.8066e-07,0.22,0.94,0
0.01294,-0.0072815,0.029438,0.00048353,0.0089765,-0.00075051,0,0,0.053201,-0.022082,0,-0.0039026,0,0,0,0.029458,0.00046409,0.0089765,-1.4838,0.012966,0.025812,5.7034e-07,0.23,0.94,0
0.013471,-0.0073465,0.029284,0.00047547,0.0089279,-0.00062363,0,0,0.052926,-0.021976,0,-0.0032428,0,0,0,0.029298,0.00046198,0.0089279,-1.2395,0.012896,0.025672,5.6108e-07,0.24,0.94,0
0.013999,-0.0073933,0.029141,0.0004522,0.0088778,-0.00050625,0,0,0.052683,-0.021907,0,-0.0026325,0,0,0,0.029149,0.00044327,0.0088778,-1.0107,0.012824,0.025555,5.5296e-07,0.25,0.94,0
0.014524,-0.0074221,0.029005,0.00040339,0.0088224,-0.0004048,0,0,0.052474,-0.021889,0,-0.0021049,0,0,0,0.02901,0.00039767,0.0088224,-0.81069,0.012743,0.025468,5.46e-07,0.26,0.94,0
0.015048,-0.0074338,0.028872,0.00032031,0.0087578,-0.00032782,0,0,0.052298,-0.021938,0,-0.0017047,0,0,0,0.028876,0.00031655,0.0087578,-0.65773,0.01265,0.025413,5.401e-07,0.27,0.94,0
0.01557,-0.0074292,0.028743,0.00019417,0.008681,-0.00028501,0,0,0.05216,-0.022066,0,-0.0014821,0,0,0,0.028745,0.00019133,0.008681,-0.57194,0.012539,0.025397,5.3533e-07,0.28,0.94,0
0.016091,-0.0074099,0.028605,3.2465e-07,0.0085814,-0.00028838,0,0,0.05206,-0.022311,0,-0.0014996,0,0,0,0.028607,-2.5824e-06,0.0085814,-0.57756,0.012395,0.025429,5.3153e-07,0.29,0.94,0
0.016611,-0.0073778,0.028465,-0.00027122,0.008458,-0.00037033,0,0,0.052017,-0.022696,0,-0.0019257,0,0,0,0.028469,-0.000276,0.008458,-0.73822,0.012217,0.025525,5.2922e-07,0.3,0.94,0
0.017132,-0.0073368,0.028234,-0.00068765,0.0082638,-0.00054961,0,0,0.051922,-0.023274,0,-0.002858,0,0,0,0.028244,-0.00069809,0.0082638,-1.0883,0.011937,0.025663,5.247e-07,0.31,0.94,0
0.01765,-0.0072904,0.028004,-0.001063,0.0080822,-0.00091734,0,0,0.051796,-0.023777,0,-0.0047702,0,0,0,0.028032,-0.0010919,0.0080822,-1.8059,0.011674,0.025791,5.2012e-07,0.32,0.94,0
0.018167,-0.0072475,0.02716,-0.0018112,0.0076046,-0.0012864,0,0,0.050844,-0.024481,0,-0.0066892,0,0,0,0.027217,-0.0018682,0.0076046,-2.5374,0.010984,0.025694,4.8891e-07,0.33,0.94,0
0.018667,-0.0072012,0.027007,-0.002074,0.00748,-0.0022798,0,0,0.050771,-0.024841,0,-0.011855,0,0,0,0.027185,-0.0022517,0.00748,-4.4553,0.010804,0.025976,4.9297e-07,0.34,0.94,0
0.019183,-0.0071927,0.027941,-0.00078695,0.0081462,-0.0018864,0,0,0.051466,-0.023226,0,-0.0098094,0,0,0,0.028064,-0.00091029,0.0081462,-3.7409,0.011767,0.025674,5.1864e-07,0.35,0.94,0
0.019696,-0.0072185,0.031972,-0.00060603,0.0094098,-0.0013675,0,0,0.040852,-0.018045,0,-0.0065982,0,0,0,0.032081,-0.0007147,0.0094098,-2.8897,0.013592,0.029086,8.6698e-07,0.36,0.94,0
0.020052,-0.0072954,0.026413,-0.00092578,0.0076462,-0.00075733,0,0,0.033302,-0.015146,0,-0.0040442,0,0,0,0.026477,-0.00098963,0.0076462,-2.2163,0.011045,0.024327,5.2997e-07,0.37,0.94,0
0.020339,-0.007378,0.032305,-0.00011854,0.009656,-0.00034889,0,0,0.029444,-0.012707,0,-0.00090712,0,0,0,0.032309,-0.00012229,0.009656,-0.61643,0.013947,0.028814,7.6872e-07,0.38,0.94,0
0.020641,-0.0074607,0.033704,0.00076047,0.010339,-1.3064e-05,0,0,0.030374,-0.012453,0,-3.3967e-05,0,0,0,0.033704,0.00076047,0.010339,-0.022721,0.014934,0.029351,8.4764e-07,0.39,0.94,0
0.020946,-0.0075682,0.034389,0.00068104,0.010521,0.00054906,0,0,0.031028,-0.012792,0,0.0014276,0,0,0,0.034397,0.0006721,0.010521,0.93296,0.015197,0.030037,9.0417e-07,0.4,0.94,0
0.021262,-0.0076787,0.034592,0.00096325,0.010667,0.00027363,0,0,0.031103,-0.012615,0,0.00071144,0,0,0,0.034595,0.00096103,0.010667,0.46615,0.015407,0.029983,9.1114e-07,0.41,0.94,0
0.021569,-0.0077782,0.034097,0.0011869,0.010585,0.00019661,0,0,0.030566,-0.012218,0,0.0005112,0,0,0,0.034098,0.0011858,0.010585,0.34228,0.01529,0.029364,8.6533e-07,0.42,0.94,0
0.021873,-0.0078817,0.034035,0.001333,0.01061,-2.0912e-05,0,0,0.030452,-0.012061,0,-5.4371e-05,0,0,0,0.034035,0.001333,0.01061,-0.036639,0.015326,0.029191,8.5597e-07,0.43,0.94,0
0.022177,-0.0079931,0.034312,0.0014944,0.010742,-0.00021783,0,0,0.030641,-0.012022,0,-0.00056635,0,0,0,0.034313,0.001493,0.010742,-0.38028,0.015516,0.029312,8.7257e-07,0.44,0.94,0
0.022486,-0.0081096,0.03422,0.00077213,0.010498,-0.00031996,0,0,0.030839,-0.012643,0,-0.0008319,0,0,0,0.034223,0.00076907,0.010498,-0.54803,0.015163,0.029805,8.8749e-07,0.45,0.94,0
0.022794,-0.0082241,0.034192,0.00079505,0.010496,-4.0659e-05,0,0,0.030805,-0.012612,0,-0.00010571,0,0,0,0.034193,0.000795,0.010496,-0.069754,0.015161,0.029757,8.8434e-07,0.46,0.94,0
0.023102,-0.0083366,0.034223,0.0015348,0.010727,-0.00014072,0,0,0.030544,-0.01195,0,-0.00036587,0,0,0,0.034224,0.0015343,0.010727,-0.24665,0.015495,0.029199,8.6434e-07,0.47,0.94,0
0.023405,-0.008454,0.03389,0.0013854,0.010583,-0.00032142,0,0,0.0303,-0.011956,0,-0.00083568,0,0,0,0.033893,0.0013823,0.010583,-0.56648,0.015286,0.029026,8.4369e-07,0.48,0.94,0
0.023708,-0.0085787,0.033901,0.0012586,0.010548,-0.00051107,0,0,0.030359,-0.012076,0,-0.0013288,0,0,0,0.033909,0.0012506,0.010548,-0.89677,0.015236,0.029144,8.4886e-07,0.49,0.94,0
0.024012,-0.0087066,0.034334,0.0010565,0.010617,-0.00055412,0,0,0.030832,-0.012429,0,-0.0014407,0,0,0,0.034343,0.0010473,0.010617,-0.95372,0.015336,0.029691,8.8856e-07,0.5,0.94,0
0.024325,-0.0088227,0.034086,0.00081719,0.010471,-0.00079202,0,0,0.0307,-0.01255,0,-0.0020593,0,0,0,0.034105,0.00079834,0.010471,-1.363,0.015125,0.029677,8.7741e-07,0.51,0.94,0
0.024626,-0.0089411,0.03336,0.00088021,0.010272,-0.00019372,0,0,0.030014,-0.012209,0,-0.00050368,0,0,0,0.033361,0.00087905,0.010272,-0.34172,0.014837,0.028952,8.1843e-07,0.52,0.94,0
0.024925,-0.0090827,0.031948,3.2217e-05,0.0095941,0.00018452,0,0,0.02906,-0.012431,0,0.00047974,0,0,0,0.031949,3.115e-05,0.0095941,0.33123,0.013858,0.028372,7.3956e-07,0.53,0.94,0
0.025208,-0.009223,0.026085,-0.00076669,0.0075954,0.00065964,0,0,0.032804,-0.014777,0,0.0036982,0,0,0,0.026145,-0.00082663,0.0075954,2.0507,0.010971,0.0239,5.0799e-07,0.54,0.94,0
0.025558,-0.0093675,0.031544,-0.00041862,0.0093377,0.0012857,0,0,0.040202,-0.017582,0,0.006303,0,0,0,0.031648,-0.0005227,0.0093377,2.8002,0.013488,0.028548,8.2807e-07,0.55,0.94,0
0.026063,-0.0095605,0.027535,-0.00061963,0.0080745,0.0018578,0,0,0.050596,-0.022605,0,0.0096605,0,0,0,0.027657,-0.00074169,0.0080745,3.759,0.011663,0.025176,4.9366e-07,0.56,0.94,0
0.02657,-0.0097855,0.026609,-0.0018716,0.0074212,0.0022846,0,0,0.049888,-0.024161,0,0.01188,0,0,0,0.026791,-0.0020538,0.0074212,4.5573,0.010719,0.025465,4.6947e-07,0.57,0.94,0
0.027061,-0.010046,0.026752,-0.001621,0.0075394,0.0013498,0,0,0.049954,-0.023817,0,0.0070189,0,0,0,0.026817,-0.0016851,0.0075394,2.7175,0.01089,0.02519,4.6532e-07,0.58,0.94,0
0.027569,-0.010301,0.027581,-0.00089053,0.008007,0.0010264,0,0,0.050891,-0.023134,0,0.0053375,0,0,0,0.027618,-0.00092749,0.008007,2.0621,0.011566,0.025291,4.9482e-07,0.59,0.94,0
0.028078,-0.010557,0.027805,-0.00053442,0.0081811,0.00070059,0,0,0.051022,-0.022661,0,0.0036431,0,0,0,0.027822,-0.00055173,0.0081811,1.4153,0.011817,0.02517,4.9909e-07,0.6,0.94,0
0.02859,-0.010808,0.028032,-0.00014076,0.0083673,0.00055585,0,0,0.051128,-0.022121,0,0.0028904,0,0,0,0.028043,-0.00015173,0.0083673,1.1299,0.012086,0.025046,5.0352e-07,0.61,0.94,0
0.029101,-0.011049,0.028169,0.00010645,0.0084825,0.00050093,0,0,0.051184,-0.021778,0,0.0026048,0,0,0,0.028178,9.7514e-05,0.0084825,1.0223,0.012253,0.024967,5.0599e-07,0.62,0.94,0
0.029613,-0.011277,0.028303,0.00027391,0.0085731,0.00051668,0,0,0.051298,-0.021578,0,0.0026867,0,0,0,0.028312,0.00026439,0.0085731,1.0557,0.012383,0.024954,5.1e-07,0.63,0.94,0
0.030127,-0.01149,0.028427,0.00037049,0.0086393,0.00057002,0,0,0.051448,-0.021499,0,0.0029641,0,0,0,0.028439,0.00035891,0.0086393,1.1634,0.012479,0.024991,5.1497e-07,0.64,0.94,0
0.030642,-0.011688,0.02855,0.00041978,0.008691,0.00064771,0,0,0.051634,-0.021505,0,0.0033681,0,0,0,0.028565,0.00040488,0.008691,1.3183,0.012554,0.025066,5.2097e-07,0.65,0.94,0
0.03116,-0.01187,0.028673,0.00042983,0.0087307,0.00073852,0,0,0.051849,-0.021582,0,0.0038403,0,0,0,0.028692,0.00041053,0.0087307,1.4969,0.012611,0.025174,5.2785e-07,0.66,0.94,0
0.031679,-0.012036,0.028796,0.00040878,0.0087615,0.0008322,0,0,0.05209,-0.021717,0,0.0043275,0,0,0,0.02882,0.00038441,0.0087615,1.6778,0.012655,0.025309,5.3556e-07,0.67,0.94,0
0.032202,-0.012187,0.028922,0.00036636,0.0087865,0.00092055,0,0,0.052352,-0.021892,0,0.0047869,0,0,0,0.028952,0.00033672,0.0087865,1.8445,0.012692,0.025464,5.4394e-07,0.68,0.94,0
0.032726,-0.012323,0.029049,0.00031113,0.0088082,0.00099819,0,0,0.052627,-0.022092,0,0.0051906,0,0,0,0.029084,0.0002765,0.0088082,1.9869,0.012723,0.02563,5.5274e-07,0.69,0.94,0
0.033254,-0.012446,0.029177,0.00024991,0.0088282,0.0010623,0,0,0.052908,-0.022304,0,0.0055237,0,0,0,0.029216,0.00021096,0.0088282,2.1002,0.012752,0.0258,5.6173e-07,0.7,0.94,0
0.033785,-0.012555,0.029305,0.00018765,0.0088478,0.0011116,0,0,0.053188,-0.022516,0,0.0057805,0,0,0,0.029347,0.00014527,0.0088478,2.1832,0.01278,0.025968,5.7073e-07,0.71,0.94,0
0.034318,-0.012653,0.029431,0.00012771,0.0088676,0.0011464,0,0,0.053465,-0.022724,0,0.0059614,0,0,0,0.029476,8.2924e-05,0.0088676,2.237,0.012809,0.026132,5.7959e-07,0.72,0.94,0
0.034854,-0.012739,0.029555,7.2221e-05,0.0088881,0.0011673,0,0,0.053734,-0.022921,0,0.0060701,0,0,0,0.029601,2.6074e-05,0.0088881,2.2638,0.012838,0.026289,5.8824e-07,0.73,0.94,0
0.035393,-0.012816,0.029676,2.2386e-05,0.0089096,0.0011755,0,0,0.053994,-0.023107,0,0.0061127,0,0,0,0.029723,-2.4139e-05,0.0089096,2.2665,0.01287,0.026438,5.9662e-07,0.74,0.94,0
0.035934,-0.012883,0.029795,-2.1277e-05,0.0089322,0.0011723,0,0,0.054244,-0.023279,0,0.006096,0,0,0,0.029841,-6.7298e-05,0.0089322,2.2481,0.012902,0.026577,6.0471e-07,0.75,0.94,0
0.036477,-0.012942,0.029911,-5.8719e-05,0.0089557,0.0011591,0,0,0.054484,-0.023438,0,0.0060274,0,0,0,0.029956,-0.00010348,0.0089557,2.2116,0.012936,0.026708,6.1248e-07,0.76,0.94,0
0.037023,-0.012994,0.030024,-9.0197e-05,0.00898,0.0011374,0,0,0.054713,-0.023583,0,0.0059142,0,0,0,0.030066,-0.00013309,0.00898,2.1599,0.012971,0.02683,6.1993e-07,0.77,0.94,0
0.037572,-0.013039,0.030133,-0.00011616,0.009005,0.0011083,0,0,0.054933,-0.023715,0,0.0057633,0,0,0,0.030173,-0.00015671,0.009005,2.0956,0.013007,0.026944,6.2708e-07,0.78,0.94,0
0.038122,-0.013078,0.030239,-0.00013715,0.0090305,0.0010732,0,0,0.055141,-0.023836,0,0.0055809,0,0,0,0.030277,-0.00017502,0.0090305,2.021,0.013044,0.02705,6.3392e-07,0.79,0.94,0
0.038674,-0.013112,0.030341,-0.00015375,0.0090561,0.0010332,0,0,0.05534,-0.023946,0,0.0053729,0,0,0,0.030376,-0.00018872,0.0090561,1.9384,0.013081,0.027149,6.4046e-07,0.8,0.94,0
0.039229,-0.013141,0.030439,-0.00016657,0.0090817,0.00098927,0,0,0.055529,-0.024045,0,0.0051442,0,0,0,0.030471,-0.00019851,0.0090817,1.8494,0.013118,0.027242,6.467e-07,0.81,0.94,0
0.039785,-0.013167,0.030533,-0.00017615,0.009107,0.00094218,0,0,0.055707,-0.024136,0,0.0048994,0,0,0,0.030562,-0.00020503,0.009107,1.7557,0.013155,0.027328,6.5264e-07,0.82,0.94,0
0.040343,-0.013188,0.030623,-0.00018303,0.0091319,0.00089272,0,0,0.055876,-0.024219,0,0.0046421,0,0,0,0.030648,-0.00020888,0.0091319,1.6585,0.013191,0.027408,6.5829e-07,0.83,0.94,0
0.040903,-0.013206,0.030708,-0.00018767,0.0091561,0.0008415,0,0,0.056035,-0.024294,0,0.0043758,0,0,0,0.030731,-0.00021057,0.0091561,1.559,0.013225,0.027483,6.6365e-07,0.84,0.94,0
0.041464,-0.013222,0.030789,-0.0001905,0.0091795,0.00078904,0,0,0.056184,-0.024362,0,0.004103,0,0,0,0.030809,-0.00021059,0.0091795,1.458,0.013259,0.027552,6.687e-07,0.85,0.94,0
0.042026,-0.013235,0.030865,-0.0001919,0.009202,0.00073576,0,0,0.056324,-0.024424,0,0.003826,0,0,0,0.030883,-0.00020932,0.009202,1.3564,0.013292,0.027616,6.7346e-07,0.86,0.94,0
0.04259,-0.013246,0.030936,-0.00019217,0.0092233,0.00068202,0,0,0.056454,-0.02448,0,0.0035465,0,0,0,0.030951,-0.0002071,0.0092233,1.2545,0.013322,0.027676,6.7791e-07,0.87,0.94,0
0.043155,-0.013255,0.031003,-0.0001916,0.0092434,0.00062807,0,0,0.056575,-0.024531,0,0.003266,0,0,0,0.031016,-0.00020424,0.0092434,1.153,0.013352,0.027731,6.8206e-07,0.88,0.94,0
0.043722,-0.013263,0.031064,-0.00019041,0.0092622,0.00057414,0,0,0.056686,-0.024577,0,0.0029855,0,0,0,0.031075,-0.00020096,0.0092622,1.052,0.013379,0.027781,6.859e-07,0.89,0.94,0
0.044289,-0.013269,0.031121,-0.00018882,0.0092795,0.00052037,0,0,0.056787,-0.024618,0,0.0027059,0,0,0,0.031129,-0.00019747,0.0092795,0.95192,0.013404,0.027826,6.8942e-07,0.9,0.94,0
0.044857,-0.013274,0.031172,-0.00018698,0.0092954,0.00046687,0,0,0.056878,-0.024654,0,0.0024277,0,0,0,0.031179,-0.00019393,0.0092954,0.85277,0.013427,0.027867,6.9261e-07,0.91,0.94,0
0.045427,-0.013279,0.031218,-0.00018504,0.0093098,0.00041371,0,0,0.05696,-0.024687,0,0.0021513,0,0,0,0.031223,-0.00019049,0.0093098,0.75466,0.013447,0.027904,6.9549e-07,0.92,0.94,0
0.045997,-0.013282,0.031258,-0.00018309,0.0093225,0.00036092,0,0,0.057033,-0.024715,0,0.0018768,0,0,0,0.031262,-0.00018724,0.0093225,0.65759,0.013466,0.027936,6.9803e-07,0.93,0.94,0
0.046567,-0.013285,0.031293,-0.00018125,0.0093337,0.00030851,0,0,0.057095,-0.024739,0,0.0016042,0,0,0,0.031296,-0.00018427,0.0093337,0.56153,0.013482,0.027964,7.0024e-07,0.94,0.94,0
0.047138,-0.013287,0.031323,-0.00017958,0.0093431,0.00025646,0,0,0.057148,-0.024759,0,0.0013336,0,0,0,0.031325,-0.00018167,0.0093431,0.46639,0.013496,0.027988,7.0212e-07,0.95,0.94,0
0.04771,-0.013288,0.031348,-0.00017814,0.0093509,0.00020474,0,0,0.057192,-0.024775,0,0.0010646,0,0,0,0.031349,-0.00017947,0.0093509,0.37207,0.013507,0.028007,7.0366e-07,0.96,0.94,0
0.048282,-0.013289,0.031367,-0.00017697,0.0093569,0.00015329,0,0,0.057226,-0.024788,0,0.00079713,0,0,0,0.031367,-0.00017772,0.0093569,0.27843,0.013516,0.028022,7.0486e-07,0.97,0.94,0
0.048855,-0.01329,0.03138,-0.00017612,0.0093613,0.00010207,0,0,0.05725,-0.024797,0,0.00053077,0,0,0,0.031381,-0.00017645,0.0093613,0.18532,0.013522,0.028033,7.0572e-07,0.98,0.94,0
0.049427,-0.013291,0.031389,-0.0001756,0.0093639,5.0997e-05,0,0,0.057264,-0.024803,0,0.00026518,0,0,0,0.031389,-0.00017568,0.0093639,0.092571,0.013526,0.028039,7.0624e-07,0.99,0.94,0
0.05,-0.013291,0.031391,-0.00017542,0.0093648,-2.8946e-06,0,0,0.057269,-0.024805,0,-1.5052e-05,0,0,0,0.031391,-0.00017542,0.0093648,-0.005254,0.013527,0.028041,7.0641e-07,1,0.94,0
0,0,0.03494,0.014974,0.014974,-0.010182,0,0,0.051911,-2.1684e-19,0,-0.052945,0,0,0,0.039216,0.010698,0.014974,-22.783,0.021629,0.026639,8.8715e-07,0,0.95,0
0.00051911,-0.00052945,0.034764,0.012806,0.014271,-0.010052,0,0,0.053281,-0.0038084,0,-0.052272,0,0,0,0.03867,0.0088992,0.014271,-21.239,0.020614,0.027482,9.3023e-07,0.01,0.95,0
0.0010656,-0.0010873,0.03526,0.010473,0.01372,-0.0098849,0,0,0.056005,-0.0084426,0,-0.051402,0,0,0,0.038719,0.0070134,0.01372,-19.288,0.019817,0.028941,1.0232e-06,0.02,0.95,0
0.0016392,-0.0016527,0.035597,0.0081839,0.013134,-0.0092535,0,0,0.058403,-0.012871,0,-0.048118,0,0,0,0.038428,0.0053527,0.013134,-17.012,0.018972,0.029952,1.0725e-06,0.03,0.95,0
0.0022337,-0.0022059,0.035682,0.0062641,0.012584,-0.0083227,0,0,0.060055,-0.016431,0,-0.043278,0,0,0,0.037873,0.0040728,0.012584,-14.751,0.018177,0.030451,1.0773e-06,0.04,0.95,0
0.0028403,-0.0027336,0.0355,0.0047844,0.012085,-0.0072894,0,0,0.060878,-0.018982,0,-0.037905,0,0,0,0.037142,0.0031423,0.012085,-12.695,0.017457,0.030527,1.0494e-06,0.05,0.95,0
0.0034512,-0.0032292,0.035109,0.0036829,0.011637,-0.0062952,0,0,0.061025,-0.020682,0,-0.032735,0,0,0,0.036323,0.0024688,0.011637,-10.917,0.01681,0.030327,1.0035e-06,0.06,0.95,0
0.0040608,-0.0036907,0.034589,0.0028651,0.011236,-0.0054064,0,0,0.060716,-0.021765,0,-0.028113,0,0,0,0.035485,0.001969,0.011236,-9.4107,0.01623,0.029976,9.5077e-07,0.07,0.95,0
0.0046656,-0.0041183,0.034013,0.0022546,0.01088,-0.0046409,0,0,0.060145,-0.022427,0,-0.024133,0,0,0,0.034677,0.0015903,0.01088,-8.1459,0.015716,0.029558,8.9803e-07,0.08,0.95,0
0.0052637,-0.0045136,0.03343,0.0017943,0.010567,-0.0039934,0,0,0.059443,-0.02281,0,-0.020766,0,0,0,0.033926,0.001298,0.010567,-7.0845,0.015264,0.029122,8.4873e-07,0.09,0.95,0
0.0058544,-0.0048787,0.032867,0.0014432,0.010293,-0.0034497,0,0,0.058692,-0.02301,0,-0.017938,0,0,0,0.033241,0.001069,0.010293,-6.1917,0.014868,0.028695,8.0418e-07,0.1,0.95,0
0.0064376,-0.0052153,0.032339,0.0011727,0.010054,-0.0029939,0,0,0.057943,-0.02309,0,-0.015569,0,0,0,0.032624,0.00088772,0.010054,-5.4378,0.014522,0.02829,7.6465e-07,0.11,0.95,0
0.0070133,-0.0055253,0.031852,0.0009625,0.0098445,-0.0026112,0,0,0.057221,-0.023093,0,-0.013578,0,0,0,0.032072,0.00074332,0.0098445,-4.798,0.01422,0.027914,7.2985e-07,0.12,0.95,0
0.007582,-0.0058103,0.031408,0.00079835,0.009662,-0.0022885,0,0,0.056541,-0.023046,0,-0.0119,0,0,0,0.031579,0.0006282,0.009662,-4.2521,0.013956,0.027567,6.9932e-07,0.13,0.95,0
0.0081441,-0.0060718,0.031005,0.00067021,0.0095027,-0.0020146,0,0,0.055907,-0.022964,0,-0.010476,0,0,0,0.031139,0.000537,0.0095027,-3.783,0.013726,0.027248,6.7252e-07,0.14,0.95,0
0.0087001,-0.0063109,0.030641,0.00057089,0.0093636,-0.0017803,0,0,0.055322,-0.022861,0,-0.0092576,0,0,0,0.030746,0.00046586,0.0093636,-3.3765,0.013525,0.026956,6.4893e-07,0.15,0.95,0
0.0092505,-0.0065285,0.030312,0.00049521,0.0092422,-0.0015776,0,0,0.054782,-0.022742,0,-0.0082035,0,0,0,0.030395,0.00041197,0.0092422,-3.0203,0.01335,0.026687,6.281e-07,0.16,0.95,0
0.0097958,-0.0067255,0.030015,0.00043929,0.0091363,-0.0013997,0,0,0.054285,-0.022612,0,-0.0072787,0,0,0,0.030081,0.00037319,0.0091363,-2.7036,0.013197,0.026439,6.096e-07,0.17,0.95,0
0.010336,-0.0069026,0.029747,0.00040013,0.009044,-0.001241,0,0,0.053827,-0.022474,0,-0.006453,0,0,0,0.029799,0.00034774,0.009044,-2.4171,0.013064,0.026208,5.9309e-07,0.18,0.95,0
0.010872,-0.0070601,0.029503,0.00037512,0.0089636,-0.0010963,0,0,0.053404,-0.02233,0,-0.0057009,0,0,0,0.029545,0.00033391,0.0089636,-2.1524,0.012947,0.025993,5.7826e-07,0.19,0.95,0
0.011404,-0.0071984,0.029283,0.00036173,0.0088933,-0.00096173,0,0,0.053012,-0.022182,0,-0.005001,0,0,0,0.029315,0.00032978,0.0088933,-1.9025,0.012846,0.025792,5.6489e-07,0.2,0.95,0
0.011933,-0.0073179,0.029081,0.00035713,0.0088316,-0.00083392,0,0,0.05265,-0.022034,0,-0.0043364,0,0,0,0.029106,0.00033294,0.0088316,-1.6615,0.012757,0.025604,5.5279e-07,0.21,0.95,0
0.012457,-0.0074186,0.028898,0.00035791,0.0087767,-0.0007107,0,0,0.052315,-0.021889,0,-0.0036956,0,0,0,0.028916,0.00034022,0.0087767,-1.4256,0.012677,0.025429,5.4183e-07,0.22,0.95,0
0.012979,-0.0075008,0.02873,0.00035971,0.0087268,-0.00059121,0,0,0.052007,-0.021754,0,-0.0030743,0,0,0,0.028742,0.0003474,0.0087268,-1.1933,0.012605,0.025269,5.3193e-07,0.23,0.95,0
0.013497,-0.0075647,0.028574,0.00035717,0.0086794,-0.00047631,0,0,0.051726,-0.021638,0,-0.0024768,0,0,0,0.028582,0.00034913,0.0086794,-0.96682,0.012537,0.025126,5.2304e-07,0.24,0.95,0
0.014013,-0.0076106,0.028429,0.00034386,0.0086318,-0.00036894,0,0,0.051472,-0.021549,0,-0.0019185,0,0,0,0.028434,0.00033902,0.0086318,-0.7525,0.012468,0.025002,5.151e-07,0.25,0.95,0
0.014527,-0.007639,0.02829,0.00031283,0.008581,-0.00027414,0,0,0.051245,-0.021497,0,-0.0014255,0,0,0,0.028293,0.00031014,0.008581,-0.56134,0.012395,0.0249,5.0804e-07,0.26,0.95,0
0.015038,-0.0076508,0.028155,0.00025647,0.0085235,-0.00019895,0,0,0.051042,-0.021494,0,-0.0010345,0,0,0,0.028157,0.00025505,0.0085235,-0.40856,0.012312,0.024823,5.0177e-07,0.27,0.95,0
0.015548,-0.0076472,0.028017,0.0001642,0.0084545,-0.0001526,0,0,0.050864,-0.021555,0,-0.00079354,0,0,0,0.028018,0.00016337,0.0084545,-0.3139,0.012212,0.024773,4.9617e-07,0.28,0.95,0
0.016056,-0.0076296,0.027873,2.5242e-05,0.0083693,-0.00014952,0,0,0.050708,-0.021695,0,-0.00077751,0,0,0,0.027873,2.4439e-05,0.0083693,-0.30763,0.012089,0.024755,4.9114e-07,0.29,0.95,0
0.016562,-0.0076007,0.027699,-0.00018022,0.0082557,-0.00020618,0,0,0.050553,-0.021933,0,-0.0010721,0,0,0,0.027701,-0.00018175,0.0082557,-0.42368,0.011925,0.024766,4.859e-07,0.3,0.95,0
0.017067,-0.0075633,0.027498,-0.00043115,0.00812,-0.00035088,0,0,0.050382,-0.022233,0,-0.0018246,0,0,0,0.027502,-0.00043556,0.00812,-0.71968,0.011729,0.024793,4.8012e-07,0.31,0.95,0
0.017569,-0.007522,0.027191,-0.00076697,0.0079273,-0.00056961,0,0,0.050086,-0.022605,0,-0.002962,0,0,0,0.027203,-0.00077857,0.0079273,-1.1667,0.011451,0.024802,4.7059e-07,0.32,0.95,0
0.018068,-0.0074798,0.027033,-0.00097674,0.0078168,-0.00092313,0,0,0.049961,-0.022863,0,-0.0048002,0,0,0,0.027063,-0.0010071,0.0078168,-1.8856,0.011291,0.024862,4.6723e-07,0.33,0.95,0
0.018569,-0.0074467,0.026639,-0.0016159,0.007507,-0.0013801,0,0,0.049744,-0.02372,0,-0.0071767,0,0,0,0.026707,-0.0016832,0.007507,-2.7898,0.010843,0.02509,4.5969e-07,0.34,0.95,0
0.019063,-0.0074383,0.026104,-0.0016326,0.0073415,-0.0020836,0,0,0.048783,-0.023333,0,-0.010835,0,0,0,0.02626,-0.0017882,0.0073415,-4.2721,0.010604,0.024779,4.3894e-07,0.35,0.95,0
0.019544,-0.00744,0.02673,-0.00064219,0.0078263,-0.002764,0,0,0.049149,-0.022018,0,-0.014373,0,0,0,0.027006,-0.00091851,0.0078263,-5.7089,0.011305,0.02474,4.6287e-07,0.36,0.95,0
0.020046,-0.0074555,0.030242,-0.00099698,0.0087734,-0.0025929,0,0,0.039064,-0.017399,0,-0.010542,0,0,0,0.030481,-0.0012367,0.0087734,-5.0643,0.012673,0.028087,7.417e-07,0.37,0.95,0
0.020381,-0.0075082,0.028076,8.7663e-05,0.008449,-0.0019412,0,0,0.03402,-0.015227,0,-0.0087943,0,0,0,0.028295,-0.00013182,0.008449,-4.8516,0.012204,0.025271,6.7682e-07,0.38,0.95,0
0.020727,-0.0075921,0.029515,0.00087914,0.0091182,-0.001207,0,0,0.035354,-0.014848,0,-0.0057697,0,0,0,0.029619,0.00077552,0.0091182,-3.1652,0.013171,0.025717,7.5673e-07,0.39,0.95,0
0.021088,-0.0076993,0.027294,0.00066266,0.0083871,-0.00030055,0,0,0.033624,-0.013444,0,-0.0020415,0,0,0,0.027321,0.00063621,0.0083871,-1.1361,0.012115,0.023778,5.4291e-07,0.4,0.95,0
0.021374,-0.0078017,0.032285,0.00058732,0.0098618,-0.00035726,0,0,0.029151,-0.012057,0,-0.00092886,0,0,0,0.032289,0.0005833,0.0098618,-0.64565,0.014245,0.028234,7.4916e-07,0.41,0.95,0
0.021671,-0.007899,0.033654,0.00098319,0.010391,-0.00030276,0,0,0.030242,-0.012231,0,-0.00078717,0,0,0,0.033657,0.00098039,0.010391,-0.53089,0.01501,0.029134,8.3772e-07,0.42,0.95,0
0.021978,-0.008002,0.034327,0.0011725,0.01065,-0.00022774,0,0,0.03078,-0.01232,0,-0.00059212,0,0,0,0.034328,0.0011709,0.01065,-0.39354,0.015383,0.02958,8.8364e-07,0.43,0.95,0
0.022287,-0.0081116,0.034233,0.0012974,0.010659,-0.00020949,0,0,0.030646,-0.01217,0,-0.00054467,0,0,0,0.034234,0.001296,0.010659,-0.36441,0.015396,0.029397,8.7247e-07,0.44,0.95,0
0.022591,-0.0082378,0.034614,0.0010038,0.010685,0.00017127,0,0,0.031107,-0.012586,0,0.0004453,0,0,0,0.034615,0.0010029,0.010685,0.29195,0.015434,0.029968,9.1146e-07,0.45,0.95,0
0.022909,-0.008352,0.034589,0.0010473,0.010691,-0.00046985,0,0,0.031068,-0.012537,0,-0.0012216,0,0,0,0.034596,0.0010407,0.010691,-0.80239,0.015442,0.029921,9.0874e-07,0.46,0.95,0
0.023213,-0.0084544,0.034129,0.0013172,0.010634,-8.7025e-05,0,0,0.030544,-0.012112,0,-0.00022626,0,0,0,0.034129,0.001317,0.010634,-0.15196,0.01536,0.029287,8.6373e-07,0.47,0.95,0
0.02352,-0.0085734,0.034172,0.0012082,0.010614,-5.5946e-05,0,0,0.030625,-0.012228,0,-0.00014546,0,0,0,0.034172,0.0012081,0.010614,-0.097243,0.015331,0.029412,8.7034e-07,0.48,0.95,0
0.023825,-0.0086983,0.033448,0.0010352,0.010345,3.9249e-05,0,0,0.030034,-0.012103,0,0.00010205,0,0,0,0.033448,0.0010351,0.010345,0.069378,0.014943,0.028906,8.2047e-07,0.49,0.95,0
0.024121,-0.0088279,0.032051,0.00066153,0.0098138,0.0001189,0,0,0.028909,-0.011898,0,0.00030913,0,0,0,0.032052,0.00066108,0.0098138,0.21702,0.014176,0.027961,7.3061e-07,0.5,0.95,0
0.024403,-0.0089515,0.027063,0.0007584,0.0083463,0.00012359,0,0,0.033278,-0.013207,0,0.0014103,0,0,0,0.027086,0.0007347,0.0083463,0.76429,0.012056,0.023492,5.2754e-07,0.51,0.95,0
0.024761,-0.0090702,0.029192,0.00095704,0.0090447,0.0010391,0,0,0.034922,-0.01457,0,0.0051341,0,0,0,0.029281,0.00086827,0.0090447,2.854,0.013065,0.025343,7.2885e-07,0.52,0.95,0
0.025102,-0.0092103,0.027699,0.00017788,0.0083631,0.0018028,0,0,0.033516,-0.014901,0,0.0082547,0,0,0,0.027899,-2.2466e-05,0.0083631,4.6332,0.01208,0.024831,6.4668e-07,0.53,0.95,0
0.025431,-0.0093792,0.029809,-0.00085582,0.0086861,0.0024707,0,0,0.038434,-0.016997,0,0.0101,0,0,0,0.030034,-0.0010801,0.0086861,4.9347,0.012547,0.027562,7.0672e-07,0.54,0.95,0
0.025925,-0.0095836,0.026336,-0.00052773,0.0077424,0.0026938,0,0,0.048343,-0.021502,0,0.014008,0,0,0,0.026603,-0.00079519,0.0077424,5.6703,0.011184,0.024283,4.407e-07,0.55,0.95,0
0.026398,-0.0098,0.025719,-0.0014903,0.0072686,0.0020575,0,0,0.047971,-0.022773,0,0.010699,0,0,0,0.025874,-0.001645,0.0072686,4.3,0.010499,0.02432,4.1822e-07,0.56,0.95,0
0.026884,-0.010025,0.026245,-0.0014643,0.0074341,0.0014038,0,0,0.048908,-0.023136,0,0.0072999,0,0,0,0.026316,-0.0015352,0.0074341,2.8929,0.010738,0.024624,4.38e-07,0.57,0.95,0
0.027376,-0.010272,0.026631,-0.00083813,0.0077379,0.00099343,0,0,0.049123,-0.022298,0,0.0051658,0,0,0,0.026667,-0.00087401,0.0077379,2.0685,0.011177,0.024403,4.4512e-07,0.58,0.95,0
0.027867,-0.010526,0.026791,-0.0006372,0.0078462,0.00068267,0,0,0.049257,-0.022057,0,0.0035499,0,0,0,0.026808,-0.00065418,0.0078462,1.4249,0.011333,0.024351,4.4852e-07,0.59,0.95,0
0.028362,-0.010778,0.027098,-0.00031509,0.008035,0.00050188,0,0,0.049565,-0.02171,0,0.0026098,0,0,0,0.027108,-0.00032427,0.008035,1.0485,0.011606,0.024353,4.5792e-07,0.6,0.95,0
0.028858,-0.011026,0.027304,-7.9772e-05,0.0081671,0.00039007,0,0,0.049755,-0.021442,0,0.0020283,0,0,0,0.027309,-8.5327e-05,0.0081671,0.81594,0.011797,0.024341,4.6389e-07,0.61,0.95,0
0.029357,-0.011263,0.027482,0.00010835,0.0082771,0.00036017,0,0,0.049932,-0.021239,0,0.0018729,0,0,0,0.027487,0.00010361,0.0082771,0.7537,0.011956,0.024348,4.6951e-07,0.62,0.95,0
0.029857,-0.01149,0.027632,0.00022832,0.0083581,0.00038331,0,0,0.050112,-0.021138,0,0.0019932,0,0,0,0.027637,0.00022296,0.0083581,0.8012,0.012073,0.024387,4.7505e-07,0.63,0.95,0
0.030359,-0.011703,0.027774,0.0002994,0.008422,0.00044226,0,0,0.050315,-0.021119,0,0.0022998,0,0,0,0.027781,0.00029228,0.008422,0.92197,0.012165,0.024459,4.8119e-07,0.64,0.95,0
0.030863,-0.011901,0.027911,0.00033169,0.0084728,0.00052161,0,0,0.050539,-0.021167,0,0.0027124,0,0,0,0.027921,0.00032183,0.0084728,1.0831,0.012238,0.02456,4.8794e-07,0.65,0.95,0
0.03137,-0.012084,0.028047,0.00033518,0.0085146,0.00061089,0,0,0.050784,-0.021266,0,0.0031766,0,0,0,0.02806,0.00032172,0.0085146,1.2623,0.012299,0.024684,4.9532e-07,0.66,0.95,0
0.031879,-0.012252,0.028183,0.00031698,0.0085501,0.00070162,0,0,0.051046,-0.021406,0,0.0036485,0,0,0,0.028201,0.00029932,0.0085501,1.4414,0.01235,0.024827,5.0329e-07,0.67,0.95,0
0.032391,-0.012405,0.028322,0.00028358,0.0085816,0.00078719,0,0,0.051325,-0.021575,0,0.0040934,0,0,0,0.028344,0.0002615,0.0085816,1.6069,0.012396,0.024984,5.1177e-07,0.68,0.95,0
0.032905,-0.012543,0.028463,0.00024093,0.0086111,0.00086297,0,0,0.051615,-0.021763,0,0.0044874,0,0,0,0.028489,0.00021457,0.0086111,1.7498,0.012438,0.02515,5.2065e-07,0.69,0.95,0
0.033423,-0.012667,0.028606,0.00019389,0.0086399,0.00092622,0,0,0.051911,-0.02196,0,0.0048163,0,0,0,0.028636,0.00016373,0.0086399,1.8652,0.01248,0.025322,5.2978e-07,0.7,0.95,0
0.033944,-0.012779,0.02875,0.00014612,0.0086688,0.00097574,0,0,0.052211,-0.022159,0,0.0050738,0,0,0,0.028783,0.00011287,0.0086688,1.9514,0.012522,0.025493,5.3905e-07,0.71,0.95,0
0.034467,-0.012878,0.028895,0.00010017,0.0086984,0.0010114,0,0,0.05251,-0.022355,0,0.0052593,0,0,0,0.02893,6.4687e-05,0.0086984,2.0092,0.012564,0.025662,5.4834e-07,0.72,0.95,0
0.034994,-0.012967,0.029039,5.7682e-05,0.0087289,0.0010338,0,0,0.052805,-0.022545,0,0.0053759,0,0,0,0.029076,2.0849e-05,0.0087289,2.0404,0.012608,0.025826,5.5756e-07,0.73,0.95,0
0.035523,-0.013045,0.029182,1.9581e-05,0.0087604,0.001044,0,0,0.053095,-0.022726,0,0.005429,0,0,0,0.029219,-1.7749e-05,0.0087604,2.0478,0.012654,0.025985,5.6667e-07,0.74,0.95,0
0.036056,-0.013114,0.029323,-1.3729e-05,0.0087928,0.0010433,0,0,0.053379,-0.022897,0,0.0054252,0,0,0,0.02936,-5.0786e-05,0.0087928,2.0342,0.012701,0.026136,5.756e-07,0.75,0.95,0
0.036591,-0.013175,0.029462,-4.2215e-05,0.0088259,0.001033,0,0,0.053653,-0.023057,0,0.0053715,0,0,0,0.029498,-7.8337e-05,0.0088259,2.0027,0.012748,0.026281,5.8433e-07,0.76,0.95,0
0.037129,-0.013228,0.029598,-6.608e-05,0.0088595,0.0010144,0,0,0.05392,-0.023207,0,0.0052751,0,0,0,0.029632,-0.00010073,0.0088595,1.9563,0.012797,0.026418,5.9283e-07,0.77,0.95,0
0.037669,-0.013274,0.02973,-8.5681e-05,0.0088934,0.00098896,0,0,0.054176,-0.023346,0,0.0051426,0,0,0,0.029763,-0.00011845,0.0088934,1.8976,0.012846,0.026549,6.0108e-07,0.78,0.95,0
0.038212,-0.013315,0.029859,-0.00010145,0.0089273,0.00095774,0,0,0.054423,-0.023475,0,0.0049803,0,0,0,0.02989,-0.00013203,0.0089273,1.8291,0.012895,0.026672,6.0906e-07,0.79,0.95,0
0.038758,-0.01335,0.029984,-0.00011385,0.0089609,0.00092187,0,0,0.054659,-0.023594,0,0.0047938,0,0,0,0.030012,-0.00014206,0.0089609,1.7528,0.012944,0.026789,6.1676e-07,0.8,0.95,0
0.039305,-0.01338,0.030103,-0.00012335,0.008994,0.00088231,0,0,0.054885,-0.023705,0,0.004588,0,0,0,0.030129,-0.00014908,0.008994,1.6705,0.012991,0.026899,6.2416e-07,0.81,0.95,0
0.039855,-0.013406,0.030218,-0.00013038,0.0090264,0.00083987,0,0,0.055099,-0.023808,0,0.0043673,0,0,0,0.030242,-0.0001536,0.0090264,1.584,0.013038,0.027002,6.3126e-07,0.82,0.95,0
0.040407,-0.013429,0.030328,-0.00013536,0.0090578,0.00079528,0,0,0.055302,-0.023902,0,0.0041354,0,0,0,0.030349,-0.0001561,0.0090578,1.4944,0.013083,0.027099,6.3804e-07,0.83,0.95,0
0.040961,-0.013448,0.030432,-0.00013865,0.009088,0.00074911,0,0,0.055495,-0.023989,0,0.0038954,0,0,0,0.03045,-0.00015699,0.009088,1.4029,0.013127,0.02719,6.4448e-07,0.84,0.95,0
0.041517,-0.013464,0.030531,-0.00014057,0.009117,0.00070188,0,0,0.055675,-0.02407,0,0.0036498,0,0,0,0.030547,-0.00015663,0.009117,1.3102,0.013169,0.027276,6.5059e-07,0.85,0.95,0
0.042075,-0.013478,0.030623,-0.00014142,0.0091445,0.00065398,0,0,0.055844,-0.024143,0,0.0034007,0,0,0,0.030637,-0.00015532,0.0091445,1.2172,0.013209,0.027355,6.5634e-07,0.86,0.95,0
0.042634,-0.013489,0.03071,-0.00014144,0.0091705,0.00060574,0,0,0.056002,-0.024211,0,0.0031498,0,0,0,0.030722,-0.00015333,0.0091705,1.1244,0.013246,0.027429,6.6174e-07,0.87,0.95,0
0.043195,-0.013499,0.03079,-0.00014084,0.0091948,0.0005574,0,0,0.056148,-0.024273,0,0.0028985,0,0,0,0.0308,-0.00015088,0.0091948,1.0321,0.013281,0.027496,6.6676e-07,0.88,0.95,0
0.043757,-0.013507,0.030864,-0.0001398,0.0092173,0.00050915,0,0,0.056282,-0.024328,0,0.0026476,0,0,0,0.030873,-0.00014816,0.0092173,0.94058,0.013314,0.027559,6.7141e-07,0.89,0.95,0
0.044321,-0.013514,0.030932,-0.00013846,0.0092381,0.00046114,0,0,0.056404,-0.024379,0,0.0023979,0,0,0,0.030939,-0.0001453,0.0092381,0.85012,0.013344,0.027615,6.7567e-07,0.9,0.95,0
0.044885,-0.01352,0.030994,-0.00013696,0.009257,0.00041346,0,0,0.056515,-0.024424,0,0.00215,0,0,0,0.030999,-0.00014245,0.009257,0.76079,0.013371,0.027666,6.7954e-07,0.91,0.95,0
0.045451,-0.013524,0.031048,-0.00013539,0.0092739,0.00036615,0,0,0.056614,-0.024464,0,0.001904,0,0,0,0.031053,-0.00013968,0.0092739,0.67263,0.013396,0.027712,6.8302e-07,0.92,0.95,0
0.046018,-0.013528,0.031097,-0.00013384,0.009289,0.00031926,0,0,0.056701,-0.024499,0,0.0016601,0,0,0,0.0311,-0.0001371,0.009289,0.58562,0.013417,0.027752,6.861e-07,0.93,0.95,0
0.046585,-0.013531,0.031139,-0.00013237,0.0093021,0.00027276,0,0,0.056777,-0.02453,0,0.0014184,0,0,0,0.031142,-0.00013475,0.0093021,0.4997,0.013436,0.027787,6.8877e-07,0.94,0.95,0
0.047153,-0.013533,0.031175,-0.00013105,0.0093132,0.00022665,0,0,0.056841,-0.024555,0,0.0011786,0,0,0,0.031177,-0.00013269,0.0093132,0.41478,0.013452,0.027816,6.9104e-07,0.95,0.95,0
0.047722,-0.013535,0.031204,-0.00012992,0.0093223,0.00018088,0,0,0.056893,-0.024576,0,0.00094056,0,0,0,0.031205,-0.00013096,0.0093223,0.33073,0.013466,0.02784,6.929e-07,0.96,0.95,0
0.048291,-0.013536,0.031227,-0.000129,0.0093294,0.00013539,0,0,0.056933,-0.024592,0,0.00070405,0,0,0,0.031227,-0.00012959,0.0093294,0.2474,0.013476,0.027859,6.9435e-07,0.97,0.95,0
0.04886,-0.013537,0.031243,-0.00012834,0.0093344,9.0134e-05,0,0,0.056962,-0.024603,0,0.0004687,0,0,0,0.031243,-0.0001286,0.0093344,0.16462,0.013483,0.027872,6.9538e-07,0.98,0.95,0
0.04943,-0.013538,0.031253,-0.00012793,0.0093375,4.5028e-05,0,0,0.05698,-0.02461,0,0.00023415,0,0,0,0.031253,-0.00012799,0.0093375,0.082213,0.013487,0.02788,6.9601e-07,0.99,0.95,0
0.05,-0.013538,0.031256,-0.00012779,0.0093385,-3.2872e-06,0,0,0.056986,-0.024612,0,-1.7094e-05,0,0,0,0.031256,-0.00012779,0.0093385,-0.0060013,0.013489,0.027883,6.9621e-07,1,0.95,0
0,0,0.036617,0.015693,0.015693,-0.010995,0,0,0.054403,1.7347e-18,0,-0.057173,0,0,0,0.041332,0.010978,0.015693,-23.211,0.022668,0.028293,1.0551e-06,0,0.96,0
0.00054403,-0.00057173,0.036336,0.012844,0.014754,-0.010749,0,0,0.056114,-0.0049663,0,-0.055894,0,0,0,0.040512,0.0086681,0.014754,-21.231,0.021311,0.029279,1.1037e-06,0.01,0.96,0
0.0011223,-0.0011813,0.036809,0.0097551,0.013969,-0.01036,0,0,0.059384,-0.010957,0,-0.053871,0,0,0,0.040321,0.0062438,0.013969,-18.723,0.020178,0.030946,1.2082e-06,0.02,0.96,0
0.0017317,-0.0017944,0.03701,0.0070305,0.013212,-0.0093306,0,0,0.061874,-0.016072,0,-0.048519,0,0,0,0.039676,0.0043638,0.013212,-15.95,0.019084,0.031825,1.2342e-06,0.03,0.96,0
0.0023597,-0.002384,0.036817,0.0050319,0.012555,-0.0080129,0,0,0.063082,-0.019559,0,-0.041667,0,0,0,0.038722,0.0031261,0.012555,-13.379,0.018134,0.031943,1.1954e-06,0.04,0.96,0
0.0029933,-0.002936,0.036278,0.0036705,0.011985,-0.0067291,0,0,0.063163,-0.021617,0,-0.034991,0,0,0,0.037612,0.0023364,0.011985,-11.214,0.017311,0.031577,1.1227e-06,0.05,0.96,0
0.003623,-0.0034465,0.035525,0.0027269,0.011476,-0.0056141,0,0,0.062529,-0.022747,0,-0.029193,0,0,0,0.036459,0.0017925,0.011476,-9.4491,0.016576,0.030982,1.0395e-06,0.06,0.96,0
0.0042439,-0.0039165,0.034704,0.0020649,0.011031,-0.0046931,0,0,0.06155,-0.023311,0,-0.024404,0,0,0,0.035365,0.0014035,0.011031,-8.022,0.015933,0.030317,9.5974e-07,0.07,0.96,0
0.004854,-0.0043487,0.033895,0.001591,0.010646,-0.0039453,0,0,0.060448,-0.023543,0,-0.020516,0,0,0,0.03437,0.0011161,0.010646,-6.8632,0.015377,0.02966,8.8858e-07,0.08,0.96,0
0.0054529,-0.0047462,0.033138,0.0012452,0.010315,-0.0033405,0,0,0.05934,-0.023582,0,-0.01737,0,0,0,0.033484,0.00089906,0.010315,-5.9156,0.014899,0.029045,8.2708e-07,0.09,0.96,0
0.0060408,-0.0051119,0.032448,0.00098815,0.010031,-0.0028498,0,0,0.058285,-0.023511,0,-0.014819,0,0,0,0.032704,0.00073209,0.010031,-5.1344,0.014489,0.028485,7.7458e-07,0.1,0.96,0
0.0066186,-0.0054482,0.031827,0.0007941,0.0097864,-0.0024494,0,0,0.057306,-0.02338,0,-0.012737,0,0,0,0.032019,0.00060196,0.0097864,-4.4853,0.014136,0.02798,7.2992e-07,0.11,0.96,0
0.0071869,-0.0057574,0.031273,0.00064583,0.0095755,-0.0021204,0,0,0.056412,-0.023217,0,-0.011026,0,0,0,0.031419,0.00049973,0.0095755,-3.9417,0.013831,0.027527,6.9187e-07,0.12,0.96,0
0.0077468,-0.0060412,0.030779,0.0005317,0.0093931,-0.0018476,0,0,0.055603,-0.02304,0,-0.0096076,0,0,0,0.030891,0.00041925,0.0093931,-3.4826,0.013568,0.027122,6.5932e-07,0.13,0.96,0
0.008299,-0.0063013,0.030339,0.00044376,0.0092349,-0.0016193,0,0,0.054871,-0.022857,0,-0.0084203,0,0,0,0.030427,0.00035631,0.0092349,-3.0914,0.013339,0.02676,6.3134e-07,0.14,0.96,0
0.0088442,-0.0065389,0.029948,0.0003765,0.0090974,-0.0014259,0,0,0.054212,-0.022674,0,-0.0074146,0,0,0,0.030017,0.0003079,0.0090974,-2.7542,0.013141,0.026434,6.0713e-07,0.15,0.96,0
0.0093832,-0.006755,0.0296,0.00032602,0.0089776,-0.0012597,0,0,0.053617,-0.022494,0,-0.0065503,0,0,0,0.029654,0.00027191,0.0089776,-2.4594,0.012968,0.02614,5.8607e-07,0.16,0.96,0
0.0099166,-0.0069505,0.029288,0.00028949,0.0088734,-0.0011142,0,0,0.053079,-0.022318,0,-0.0057939,0,0,0,0.029331,0.00024674,0.0088734,-2.1971,0.012817,0.025873,5.6763e-07,0.17,0.96,0
0.010445,-0.0071259,0.02901,0.00026472,0.0087825,-0.00098412,0,0,0.052592,-0.022146,0,-0.0051174,0,0,0,0.029044,0.00023107,0.0087825,-1.9585,0.012686,0.025631,5.514e-07,0.18,0.96,0
0.010968,-0.0072818,0.028762,0.00024989,0.0087035,-0.00086491,0,0,0.052151,-0.021979,0,-0.0044975,0,0,0,0.028788,0.00022368,0.0087035,-1.736,0.012572,0.025409,5.3705e-07,0.19,0.96,0
0.011488,-0.0074186,0.028539,0.0002432,0.0086346,-0.00075285,0,0,0.051751,-0.021818,0,-0.0039149,0,0,0,0.028559,0.00022318,0.0086346,-1.523,0.012472,0.025206,5.2431e-07,0.2,0.96,0
0.012003,-0.0075365,0.028339,0.00024268,0.0085745,-0.00064507,0,0,0.051388,-0.021663,0,-0.0033543,0,0,0,0.028354,0.00022787,0.0085745,-1.3145,0.012385,0.02502,5.1298e-07,0.21,0.96,0
0.012516,-0.0076358,0.02816,0.00024596,0.0085218,-0.00053963,0,0,0.051059,-0.021517,0,-0.0028061,0,0,0,0.02817,0.00023553,0.0085218,-1.1071,0.012309,0.02485,5.029e-07,0.22,0.96,0
0.013025,-0.0077166,0.027999,0.00025009,0.0084747,-0.00043579,0,0,0.050763,-0.021384,0,-0.0022661,0,0,0,0.028006,0.00024325,0.0084747,-0.89953,0.012241,0.024698,4.9395e-07,0.23,0.96,0
0.013531,-0.0077793,0.027853,0.00025146,0.0084314,-0.00033423,0,0,0.050496,-0.021268,0,-0.001738,0,0,0,0.027857,0.00024741,0.0084314,-0.69367,0.012179,0.024563,4.8603e-07,0.24,0.96,0
0.014035,-0.0078242,0.02772,0.00024578,0.0083897,-0.00023729,0,0,0.050258,-0.021174,0,-0.0012339,0,0,0,0.027722,0.00024373,0.0083897,-0.49482,0.012119,0.024445,4.7904e-07,0.25,0.96,0
0.014536,-0.0078521,0.027596,0.00022806,0.0083471,-0.00014913,0,0,0.050046,-0.02111,0,-0.00077546,0,0,0,0.027596,0.00022724,0.0083471,-0.31219,0.012057,0.024347,4.7285e-07,0.26,0.96,0
0.015036,-0.0078637,0.027476,0.00019222,0.0083005,-7.5862e-05,0,0,0.049856,-0.021081,0,-0.00039448,0,0,0,0.027476,0.00019201,0.0083005,-0.15931,0.01199,0.024268,4.6734e-07,0.27,0.96,0
0.015533,-0.0078603,0.027356,0.00013122,0.0082461,-2.622e-05,0,0,0.049685,-0.021099,0,-0.00013634,0,0,0,0.027356,0.00013119,0.0082461,-0.055181,0.011911,0.02421,4.6233e-07,0.28,0.96,0
0.016029,-0.0078438,0.027227,3.5948e-05,0.0081788,-1.1423e-05,0,0,0.049524,-0.021171,0,-5.9401e-05,0,0,0,0.027227,3.5943e-05,0.0081788,-0.024071,0.011814,0.024171,4.5752e-07,0.29,0.96,0
0.016524,-0.0078164,0.027081,-9.6738e-05,0.0080953,-4.6543e-05,0,0,0.049363,-0.021299,0,-0.00024202,0,0,0,0.027081,-9.6818e-05,0.0080953,-0.098121,0.011693,0.024148,4.5259e-07,0.3,0.96,0
0.017017,-0.0077815,0.026902,-0.00027431,0.0079883,-0.00014267,0,0,0.049176,-0.021483,0,-0.00074189,0,0,0,0.026903,-0.00027505,0.0079883,-0.30078,0.011539,0.024132,4.4682e-07,0.31,0.96,0
0.017507,-0.0077425,0.026715,-0.00046675,0.0078746,-0.00032159,0,0,0.048986,-0.021688,0,-0.0016723,0,0,0,0.026719,-0.00047055,0.0078746,-0.67773,0.011374,0.024125,4.4107e-07,0.32,0.96,0
0.017996,-0.0077048,0.026449,-0.00075134,0.0077094,-0.00060214,0,0,0.048724,-0.021998,0,-0.0031312,0,0,0,0.026463,-0.00076466,0.0077094,-1.2675,0.011136,0.024133,4.3333e-07,0.33,0.96,0
0.018482,-0.0076756,0.026031,-0.001014,0.007505,-0.0010506,0,0,0.048167,-0.022149,0,-0.0054629,0,0,0,0.026071,-0.0010547,0.007505,-2.2212,0.010841,0.024019,4.1901e-07,0.34,0.96,0
0.01896,-0.0076594,0.025556,-0.00089376,0.0073988,-0.0015795,0,0,0.04721,-0.021561,0,-0.0082132,0,0,0,0.02565,-0.00098774,0.0073988,-3.4053,0.010687,0.023591,3.9831e-07,0.35,0.96,0
0.019426,-0.0076589,0.024376,-0.0010384,0.0070013,-0.0019603,0,0,0.045174,-0.020903,0,-0.010193,0,0,0,0.024526,-0.0011887,0.0070013,-4.3848,0.010113,0.022754,3.5145e-07,0.36,0.96,0
0.019863,-0.0076573,0.023594,-0.00096324,0.0067893,-0.0027201,0,0,0.043693,-0.020157,0,-0.014144,0,0,0,0.023892,-0.0012609,0.0067893,-6.2455,0.0098067,0.022248,3.2615e-07,0.37,0.96,0
0.0203,-0.0076825,0.023332,-0.0002932,0.0069116,-0.0024733,0,0,0.042693,-0.018732,0,-0.012861,0,0,0,0.023588,-0.00054936,0.0069116,-5.9129,0.0099834,0.021405,3.052e-07,0.38,0.96,0
0.020717,-0.0077576,0.023481,0.00059446,0.0072226,-0.0022395,0,0,0.042271,-0.017233,0,-0.011645,0,0,0,0.023698,0.00037737,0.0072226,-5.5366,0.010433,0.020762,2.9687e-07,0.39,0.96,0
0.021145,-0.0078354,0.026901,-6.1384e-05,0.008052,-0.0018238,0,0,0.034123,-0.014291,0,-0.0081001,0,0,0,0.027078,-0.00023816,0.008052,-4.4395,0.011631,0.024261,5.1036e-07,0.4,0.96,0
0.021443,-0.0079199,0.02528,0.00053403,0.0077443,-0.001607,0,0,0.030396,-0.012839,0,-0.0071376,0,0,0,0.025443,0.00037091,0.0077443,-4.5697,0.011186,0.022323,4.8363e-07,0.41,0.96,0
0.021753,-0.0080228,0.026364,0.00085163,0.0081647,-0.0011907,0,0,0.031545,-0.012825,0,-0.0050691,0,0,0,0.026441,0.00077428,0.0081647,-3.2285,0.011793,0.022886,5.3834e-07,0.42,0.96,0
0.022074,-0.0081281,0.027231,0.0010974,0.0084984,-0.0006912,0,0,0.032469,-0.012938,0,-0.003021,0,0,0,0.027259,0.0010695,0.0084984,-1.8916,0.012275,0.023378,5.8507e-07,0.43,0.96,0
0.022402,-0.0082365,0.027843,0.0013702,0.0087639,-0.00031892,0,0,0.03307,-0.012977,0,-0.0016015,0,0,0,0.027853,0.0013603,0.0087639,-0.98538,0.012659,0.023676,6.1772e-07,0.44,0.96,0
0.022735,-0.0083613,0.024949,0.0011856,0.0078405,0.00024619,0,0,0.030559,-0.011372,0,0.00041722,0,0,0,0.024957,0.0011776,0.0078405,0.33306,0.011325,0.021255,3.9583e-07,0.45,0.96,0
0.022986,-0.0084748,0.024951,0.0012272,0.0078534,-0.00047027,0,0,0.030536,-0.011325,0,-0.0012332,0,0,0,0.024965,0.0012129,0.0078534,-0.88861,0.011344,0.021233,3.959e-07,0.46,0.96,0
0.023319,-0.0085789,0.027777,0.0013875,0.0087493,9.0832e-05,0,0,0.032981,-0.012918,0,0.00075435,0,0,0,0.027782,0.0013824,0.0087493,0.46199,0.012638,0.023596,6.1268e-07,0.47,0.96,0
0.023646,-0.0086986,0.027087,0.0011175,0.0084614,0.000473,0,0,0.032285,-0.012835,0,0.0022008,0,0,0,0.027104,0.001101,0.0084614,1.387,0.012222,0.023215,5.7465e-07,0.48,0.96,0
0.023964,-0.0088208,0.026157,0.0008766,0.0081102,0.00097958,0,0,0.031282,-0.012682,0,0.0042722,0,0,0,0.026215,0.00081937,0.0081102,2.7494,0.011715,0.022649,5.2404e-07,0.49,0.96,0
0.024272,-0.0089446,0.025011,0.00056303,0.0076723,0.0014112,0,0,0.030054,-0.012653,0,0.0063946,0,0,0,0.025148,0.00042605,0.0076723,4.1496,0.011082,0.022017,4.6656e-07,0.5,0.96,0
0.024566,-0.0090852,0.026568,-8.7747e-06,0.0079677,0.001631,0,0,0.033666,-0.014054,0,0.007395,0,0,0,0.026722,-0.00016265,0.0079677,4.0944,0.011509,0.023883,4.8975e-07,0.51,0.96,0
0.024988,-0.0092325,0.023167,0.00064148,0.0071426,0.0020974,0,0,0.041664,-0.016903,0,0.010906,0,0,0,0.023361,0.00044785,0.0071426,5.2745,0.010317,0.020407,2.8335e-07,0.52,0.96,0
0.025399,-0.0093807,0.023013,-0.00021881,0.0068384,0.0023542,0,0,0.042055,-0.018349,0,0.012242,0,0,0,0.023249,-0.00045497,0.0068384,5.7285,0.0098776,0.021029,2.9116e-07,0.53,0.96,0
0.025829,-0.0095766,0.023258,-0.0008791,0.0067136,0.0026258,0,0,0.043015,-0.019741,0,0.013654,0,0,0,0.02354,-0.0011615,0.0067136,6.1374,0.0096974,0.021855,3.1098e-07,0.54,0.96,0
0.026259,-0.0097976,0.024018,-0.00094611,0.0069217,0.0019072,0,0,0.044451,-0.020456,0,0.0099175,0,0,0,0.024163,-0.001091,0.0069217,4.3436,0.009998,0.022352,3.3504e-07,0.55,0.96,0
0.026718,-0.010016,0.025176,-0.00079667,0.0073137,0.0015645,0,0,0.046441,-0.021087,0,0.0081353,0,0,0,0.02527,-0.00089057,0.0073137,3.4348,0.010564,0.023174,3.7964e-07,0.56,0.96,0
0.027188,-0.010248,0.025643,-0.00091057,0.0074198,0.0010785,0,0,0.047381,-0.021659,0,0.0056084,0,0,0,0.025687,-0.0009543,0.0074198,2.3221,0.010717,0.023596,3.995e-07,0.57,0.96,0
0.027666,-0.010492,0.026061,-0.00065221,0.0076225,0.00067246,0,0,0.047939,-0.021514,0,0.0034968,0,0,0,0.026077,-0.00066913,0.0076225,1.4411,0.01101,0.023714,4.1336e-07,0.58,0.96,0
0.028147,-0.010742,0.026332,-0.00037575,0.0077868,0.00043033,0,0,0.048217,-0.021223,0,0.0022377,0,0,0,0.026339,-0.00038268,0.0077868,0.92286,0.011248,0.023717,4.2117e-07,0.59,0.96,0
0.02863,-0.010992,0.026529,-0.00019205,0.007901,0.00028591,0,0,0.048432,-0.021042,0,0.0014867,0,0,0,0.026532,-0.0001951,0.007901,0.61296,0.011413,0.023738,4.2731e-07,0.6,0.96,0
0.029115,-0.011237,0.026721,-2.4864e-05,0.0080089,0.00021992,0,0,0.048652,-0.020888,0,0.0011436,0,0,0,0.026723,-2.6672e-05,0.0080089,0.47108,0.011568,0.023773,4.3368e-07,0.61,0.96,0
0.029603,-0.011473,0.026883,9.6334e-05,0.0080937,0.00021011,0,0,0.048851,-0.020793,0,0.0010926,0,0,0,0.026884,9.4686e-05,0.0080937,0.44938,0.011691,0.02382,4.3943e-07,0.62,0.96,0
0.030093,-0.011699,0.027029,0.00017894,0.0081625,0.00024475,0,0,0.049054,-0.020757,0,0.0012727,0,0,0,0.027031,0.00017671,0.0081625,0.52221,0.01179,0.023885,4.4523e-07,0.63,0.96,0
0.030584,-0.011912,0.027167,0.00022584,0.0082178,0.00030813,0,0,0.049268,-0.020779,0,0.0016023,0,0,0,0.027171,0.00022232,0.0082178,0.65518,0.01187,0.023972,4.5132e-07,0.64,0.96,0
0.031078,-0.012111,0.027303,0.00024573,0.0082645,0.00038822,0,0,0.049499,-0.020849,0,0.0020187,0,0,0,0.027308,0.00024016,0.0082645,0.82187,0.011938,0.02408,4.579e-07,0.65,0.96,0
0.031574,-0.012295,0.027439,0.00024525,0.0083054,0.00047532,0,0,0.049749,-0.020956,0,0.0024717,0,0,0,0.027448,0.00023694,0.0083054,1.001,0.011997,0.024207,4.6505e-07,0.66,0.96,0
0.032073,-0.012464,0.02758,0.00023011,0.0083431,0.00056216,0,0,0.050016,-0.021094,0,0.0029232,0,0,0,0.027592,0.00021856,0.0083431,1.177,0.012051,0.02435,4.7277e-07,0.67,0.96,0
0.032574,-0.012619,0.027726,0.00020496,0.0083792,0.00064329,0,0,0.050301,-0.021253,0,0.0033451,0,0,0,0.027741,0.00018993,0.0083792,1.3383,0.012103,0.024505,4.8105e-07,0.68,0.96,0
0.033079,-0.012759,0.027877,0.00017376,0.0084152,0.00071497,0,0,0.0506,-0.021428,0,0.0037178,0,0,0,0.027895,0.00015532,0.0084152,1.4774,0.012155,0.02467,4.8981e-07,0.69,0.96,0
0.033586,-0.012885,0.028033,0.00013976,0.0084517,0.00077493,0,0,0.05091,-0.021611,0,0.0040297,0,0,0,0.028054,0.00011825,0.0084517,1.5902,0.012208,0.024841,4.9896e-07,0.7,0.96,0
0.034097,-0.012998,0.028193,0.00010544,0.0084894,0.00082217,0,0,0.051229,-0.021798,0,0.0042753,0,0,0,0.028217,8.1393e-05,0.0084894,1.6752,0.012263,0.025015,5.0842e-07,0.71,0.96,0
0.034611,-0.0131,0.028356,7.2549e-05,0.0085285,0.0008566,0,0,0.051551,-0.021985,0,0.0044543,0,0,0,0.028382,4.6629e-05,0.0085285,1.7332,0.012319,0.025189,5.1807e-07,0.72,0.96,0
0.035128,-0.01319,0.028521,4.223e-05,0.0085688,0.0008788,0,0,0.051874,-0.022169,0,0.0045698,0,0,0,0.028548,1.5137e-05,0.0085688,1.7658,0.012377,0.025361,5.2785e-07,0.73,0.96,0
0.035648,-0.01327,0.028686,1.5125e-05,0.0086103,0.00088974,0,0,0.052196,-0.022347,0,0.0046267,0,0,0,0.028713,-1.246e-05,0.0086103,1.7758,0.012437,0.025531,5.3766e-07,0.74,0.96,0
0.036172,-0.013341,0.028851,-8.4946e-06,0.0086527,0.00089061,0,0,0.052515,-0.022519,0,0.0046312,0,0,0,0.028878,-3.5953e-05,0.0086527,1.7659,0.012498,0.025696,5.4744e-07,0.75,0.96,0
0.036699,-0.013403,0.029014,-2.8618e-05,0.0086956,0.0008827,0,0,0.052828,-0.022683,0,0.00459,0,0,0,0.029041,-5.5421e-05,0.0086956,1.7393,0.01256,0.025856,5.5713e-07,0.76,0.96,0
0.037228,-0.013458,0.029175,-4.5407e-05,0.0087388,0.00086728,0,0,0.053133,-0.022839,0,0.0045099,0,0,0,0.0292,-7.1126e-05,0.0087388,1.6986,0.012623,0.026011,5.6669e-07,0.77,0.96,0
0.037761,-0.013506,0.029332,-5.9129e-05,0.0087818,0.00084559,0,0,0.05343,-0.022986,0,0.004397,0,0,0,0.029356,-8.3436e-05,0.0087818,1.6466,0.012685,0.026159,5.7605e-07,0.78,0.96,0
0.038297,-0.013548,0.029485,-7.0106e-05,0.0088244,0.00081873,0,0,0.053717,-0.023126,0,0.0042574,0,0,0,0.029507,-9.2769e-05,0.0088244,1.5856,0.012746,0.026301,5.852e-07,0.79,0.96,0
0.038836,-0.013584,0.029633,-7.868e-05,0.0088663,0.00078773,0,0,0.053993,-0.023257,0,0.0040962,0,0,0,0.029654,-9.955e-05,0.0088663,1.5176,0.012807,0.026436,5.9408e-07,0.8,0.96,0
0.039377,-0.013616,0.029776,-8.5191e-05,0.0089071,0.00075347,0,0,0.054258,-0.02338,0,0.0039181,0,0,0,0.029795,-0.00010419,0.0089071,1.4445,0.012866,0.026565,6.0267e-07,0.81,0.96,0
0.039921,-0.013643,0.029912,-8.996e-05,0.0089467,0.00071671,0,0,0.054511,-0.023495,0,0.0037269,0,0,0,0.029929,-0.00010707,0.0089467,1.3677,0.012923,0.026687,6.1094e-07,0.82,0.96,0
0.040467,-0.013666,0.030043,-9.3282e-05,0.0089848,0.00067811,0,0,0.05475,-0.023603,0,0.0035262,0,0,0,0.030058,-0.00010853,0.0089848,1.2884,0.012978,0.026803,6.1886e-07,0.83,0.96,0
0.041016,-0.013686,0.030166,-9.5422e-05,0.0090212,0.0006382,0,0,0.054977,-0.023703,0,0.0033186,0,0,0,0.03018,-0.00010888,0.0090212,1.2076,0.013031,0.026911,6.2642e-07,0.84,0.96,0
0.041567,-0.013703,0.030283,-9.6614e-05,0.0090559,0.00059744,0,0,0.05519,-0.023797,0,0.0031067,0,0,0,0.030295,-0.00010836,0.0090559,1.1262,0.013081,0.027013,6.3358e-07,0.85,0.96,0
0.04212,-0.013718,0.030392,-9.7061e-05,0.0090886,0.00055617,0,0,0.05539,-0.023883,0,0.0028921,0,0,0,0.030402,-0.0001072,0.0090886,1.0447,0.013128,0.027108,6.4034e-07,0.86,0.96,0
0.042674,-0.01373,0.030495,-9.6938e-05,0.0091193,0.00051469,0,0,0.055576,-0.023962,0,0.0026764,0,0,0,0.030503,-0.00010559,0.0091193,0.96362,0.013172,0.027196,6.4668e-07,0.87,0.96,0
0.043231,-0.013741,0.030589,-9.6393e-05,0.0091479,0.00047322,0,0,0.055748,-0.024035,0,0.0024607,0,0,0,0.030596,-0.00010369,0.0091479,0.88331,0.013214,0.027278,6.5258e-07,0.88,0.96,0
0.04379,-0.013749,0.030676,-9.5552e-05,0.0091743,0.00043191,0,0,0.055906,-0.024102,0,0.0022459,0,0,0,0.030683,-0.00010161,0.0091743,0.80399,0.013252,0.027352,6.5804e-07,0.89,0.96,0
0.044349,-0.013757,0.030756,-9.4519e-05,0.0091985,0.00039089,0,0,0.05605,-0.024162,0,0.0020326,0,0,0,0.030761,-9.9471e-05,0.0091985,0.7258,0.013287,0.027421,6.6305e-07,0.9,0.96,0
0.04491,-0.013763,0.030828,-9.338e-05,0.0092204,0.00035022,0,0,0.05618,-0.024216,0,0.0018211,0,0,0,0.030832,-9.7347e-05,0.0092204,0.64883,0.013318,0.027482,6.676e-07,0.91,0.96,0
0.045473,-0.013768,0.030892,-9.2209e-05,0.0092401,0.00030995,0,0,0.056296,-0.024264,0,0.0016117,0,0,0,0.030895,-9.5309e-05,0.0092401,0.57308,0.013347,0.027537,6.7168e-07,0.92,0.96,0
0.046036,-0.013772,0.030949,-9.1062e-05,0.0092574,0.0002701,0,0,0.056398,-0.024306,0,0.0014045,0,0,0,0.030951,-9.3412e-05,0.0092574,0.49851,0.013372,0.027585,6.7529e-07,0.93,0.96,0
0.046601,-0.013775,0.030998,-8.9987e-05,0.0092725,0.00023064,0,0,0.056487,-0.024342,0,0.0011994,0,0,0,0.031,-9.1698e-05,0.0092725,0.42505,0.013394,0.027627,6.7843e-07,0.94,0.96,0
0.047166,-0.013778,0.03104,-8.9021e-05,0.0092852,0.00019157,0,0,0.056562,-0.024373,0,0.00099616,0,0,0,0.031041,-9.02e-05,0.0092852,0.35258,0.013412,0.027662,6.8109e-07,0.95,0.96,0
0.047732,-0.01378,0.031074,-8.8195e-05,0.0092957,0.00015283,0,0,0.056623,-0.024398,0,0.0007947,0,0,0,0.031075,-8.8945e-05,0.0092957,0.28098,0.013427,0.027691,6.8326e-07,0.96,0.96,0
0.048299,-0.013781,0.0311,-8.7531e-05,0.0093038,0.00011436,0,0,0.05667,-0.024417,0,0.00059469,0,0,0,0.031101,-8.795e-05,0.0093038,0.2101,0.013439,0.027713,6.8496e-07,0.97,0.96,0
0.048865,-0.013782,0.031119,-8.7045e-05,0.0093096,7.6119e-05,0,0,0.056704,-0.024431,0,0.00039582,0,0,0,0.031119,-8.723e-05,0.0093096,0.13976,0.013447,0.027729,6.8617e-07,0.98,0.96,0
0.049433,-0.013783,0.03113,-8.6749e-05,0.009313,3.8022e-05,0,0,0.056725,-0.024439,0,0.00019771,0,0,0,0.03113,-8.6795e-05,0.009313,0.069785,0.013452,0.027739,6.869e-07,0.99,0.96,0
0.05,-0.013783,0.031134,-8.6649e-05,0.0093142,-3.7715e-06,0,0,0.056731,-0.024442,0,-1.9612e-05,0,0,0,0.031134,-8.665e-05,0.0093142,-0.0069214,0.013454,0.027742,6.8714e-07,1,0.96,0
0,0,0.039209,0.016804,0.016804,-0.012092,0,0,0.058253,8.6736e-19,0,-0.062878,0,0,0,0.04449,0.011523,0.016804,-23.593,0.024272,0.03067,1.3348e-06,0,0.97,0
0.00058253,-0.00062878,0.038684,0.01264,0.015397,-0.011533,0,0,0.060547,-0.0071696,0,-0.059974,0,0,0,0.043057,0.0082666,0.015397,-20.765,0.02224,0.03183,1.3802e-06,0.01,0.97,0
0.0012109,-0.0013065,0.038986,0.00834,0.014198,-0.010656,0,0,0.064449,-0.01523,0,-0.055412,0,0,0,0.042327,0.0049989,0.014198,-17.408,0.020508,0.033684,1.4805e-06,0.02,0.97,0
0.0018715,-0.0019741,0.038835,0.0052976,0.01324,-0.0089097,0,0,0.066547,-0.020649,0,-0.04633,0,0,0,0.041055,0.0030775,0.01324,-13.992,0.019124,0.034053,1.4358e-06,0.03,0.97,0
0.0025419,-0.0025971,0.038113,0.0035815,0.012508,-0.0071518,0,0,0.066572,-0.02321,0,-0.037189,0,0,0,0.039536,0.0021589,0.012508,-11.25,0.018068,0.033426,1.3164e-06,0.04,0.97,0
0.003203,-0.0031659,0.036947,0.0024923,0.011832,-0.0056974,0,0,0.065299,-0.024283,0,-0.029626,0,0,0,0.037865,0.0015746,0.011832,-9.15,0.01709,0.032403,1.1752e-06,0.05,0.97,0
0.0038479,-0.0036842,0.035713,0.0017907,0.011251,-0.0045784,0,0,0.063601,-0.024597,0,-0.023808,0,0,0,0.03632,0.0011836,0.011251,-7.553,0.016252,0.03134,1.0484e-06,0.06,0.97,0
0.004475,-0.0041569,0.034554,0.0013218,0.010763,-0.0037249,0,0,0.061857,-0.024546,0,-0.019369,0,0,0,0.034966,0.0009094,0.010763,-6.3176,0.015546,0.030354,9.4274e-07,0.07,0.97,0
0.005085,-0.0045891,0.033518,0.00099885,0.010355,-0.0030702,0,0,0.060223,-0.024326,0,-0.015965,0,0,0,0.033805,0.00071152,0.010355,-5.3464,0.014957,0.02948,8.568e-07,0.08,0.97,0
0.0056794,-0.0049853,0.03261,0.00076999,0.010014,-0.0025619,0,0,0.05875,-0.024035,0,-0.013322,0,0,0,0.032815,0.00056517,0.010014,-4.5709,0.014465,0.028716,7.8711e-07,0.09,0.97,0
0.00626,-0.0053489,0.031821,0.00060373,0.0097273,-0.002162,0,0,0.057443,-0.023721,0,-0.011242,0,0,0,0.03197,0.0004547,0.0097273,-3.9431,0.014051,0.028053,7.3028e-07,0.1,0.97,0
0.0068283,-0.0056829,0.031134,0.00048044,0.0094844,-0.0018433,0,0,0.056289,-0.02341,0,-0.0095854,0,0,0,0.031245,0.00036999,0.0094844,-3.429,0.0137,0.027476,6.8352e-07,0.11,0.97,0
0.0073858,-0.0059896,0.030536,0.00038759,0.0092771,-0.0015862,0,0,0.055274,-0.023113,0,-0.0082484,0,0,0,0.03062,0.00030436,0.0092771,-3.0035,0.0134,0.026972,6.4467e-07,0.12,0.97,0
0.0079338,-0.0062711,0.030014,0.000317,0.0090993,-0.0013762,0,0,0.054378,-0.022834,0,-0.0071565,0,0,0,0.030078,0.00025336,0.0090993,-2.6477,0.013143,0.026531,6.1208e-07,0.13,0.97,0
0.0084733,-0.0065289,0.029556,0.00026324,0.0089458,-0.0012025,0,0,0.053587,-0.022575,0,-0.0062528,0,0,0,0.029605,0.00021396,0.0089458,-2.3467,0.012922,0.026143,5.8447e-07,0.14,0.97,0
0.0090055,-0.0067643,0.029154,0.0002226,0.0088129,-0.0010565,0,0,0.052886,-0.022335,0,-0.0054937,0,0,0,0.029192,0.00018407,0.0088129,-2.0886,0.01273,0.0258,5.6089e-07,0.15,0.97,0
0.0095311,-0.0069784,0.028798,0.00019255,0.0086973,-0.00093162,0,0,0.052263,-0.022112,0,-0.0048444,0,0,0,0.028829,0.00016224,0.0086973,-1.8633,0.012563,0.025494,5.4061e-07,0.16,0.97,0
0.010051,-0.0071719,0.028484,0.00017128,0.0085967,-0.00082241,0,0,0.051708,-0.021906,0,-0.0042765,0,0,0,0.028508,0.00014741,0.0085967,-1.6624,0.012417,0.025221,5.2304e-07,0.17,0.97,0
0.010565,-0.0073455,0.028206,0.0001574,0.0085092,-0.00072434,0,0,0.051213,-0.021715,0,-0.0037666,0,0,0,0.028225,0.0001387,0.0085092,-1.4783,0.012291,0.024976,5.0775e-07,0.18,0.97,0
0.011075,-0.0074997,0.02796,0.00014976,0.0084331,-0.00063364,0,0,0.050771,-0.021537,0,-0.003295,0,0,0,0.027975,0.00013533,0.0084331,-1.3045,0.012181,0.024757,4.9441e-07,0.19,0.97,0
0.011581,-0.0076348,0.027743,0.00014727,0.0083672,-0.00054721,0,0,0.050378,-0.021372,0,-0.0028455,0,0,0,0.027754,0.00013643,0.0083672,-1.1355,0.012086,0.02456,4.8275e-07,0.2,0.97,0
0.012083,-0.0077511,0.027552,0.00014872,0.0083103,-0.00046261,0,0,0.050029,-0.02122,0,-0.0024056,0,0,0,0.02756,0.00014091,0.0083103,-0.96688,0.012004,0.024383,4.7259e-07,0.21,0.97,0
0.012581,-0.0078489,0.027385,0.00015264,0.0082613,-0.00037823,0,0,0.049722,-0.021083,0,-0.0019668,0,0,0,0.02739,0.00014739,0.0082613,-0.79558,0.011933,0.024227,4.6378e-07,0.22,0.97,0
0.013077,-0.0079285,0.027239,0.00015725,0.008219,-0.00029335,0,0,0.049453,-0.020961,0,-0.0015254,0,0,0,0.027243,0.00015407,0.008219,-0.62052,0.011872,0.024091,4.5618e-07,0.23,0.97,0
0.01357,-0.00799,0.027113,0.00016032,0.0081821,-0.0002084,0,0,0.049222,-0.020857,0,-0.0010837,0,0,0,0.027115,0.00015871,0.0081821,-0.44297,0.011819,0.023974,4.4971e-07,0.24,0.97,0
0.014061,-0.0080341,0.027004,0.00015917,0.0081491,-0.00012515,0,0,0.049024,-0.020774,0,-0.00065078,0,0,0,0.027005,0.00015858,0.0081491,-0.2671,0.011771,0.023876,4.4424e-07,0.25,0.97,0
0.014551,-0.0080612,0.026909,0.0001505,0.0081178,-4.6928e-05,0,0,0.048857,-0.020715,0,-0.00024403,0,0,0,0.026909,0.00015042,0.0081178,-0.10048,0.011726,0.023797,4.3966e-07,0.26,0.97,0
0.015039,-0.0080725,0.026823,0.00013034,0.0080859,2.108e-05,0,0,0.048716,-0.020685,0,0.00010962,0,0,0,0.026823,0.00013032,0.0080859,0.045249,0.01168,0.023737,4.3579e-07,0.27,0.97,0
0.015525,-0.0080691,0.02674,9.379e-05,0.0080501,7.1603e-05,0,0,0.048594,-0.020687,0,0.00037234,0,0,0,0.02674,9.3597e-05,0.0080501,0.15396,0.011628,0.023692,4.3242e-07,0.28,0.97,0
0.016011,-0.0080531,0.026654,3.6307e-05,0.0080071,9.4933e-05,0,0,0.048482,-0.020724,0,0.00049365,0,0,0,0.026654,3.5968e-05,0.0080071,0.20435,0.011566,0.023662,4.2926e-07,0.29,0.97,0
0.016495,-0.0080267,0.026555,-4.6938e-05,0.0079524,8.0001e-05,0,0,0.048366,-0.020798,0,0.000416,0,0,0,0.026555,-4.7179e-05,0.0079524,0.17231,0.011487,0.02364,4.2591e-07,0.3,0.97,0
0.016978,-0.007993,0.026436,-0.00015435,0.0078846,1.2797e-05,0,0,0.048234,-0.020901,0,6.6543e-05,0,0,0,0.026436,-0.00015436,0.0078846,0.027574,0.011389,0.02362,4.2203e-07,0.31,0.97,0
0.017459,-0.0079558,0.026275,-0.00029487,0.0077939,-0.00012153,0,0,0.04805,-0.021031,0,-0.00063194,0,0,0,0.026275,-0.00029543,0.0077939,-0.26206,0.011258,0.02359,4.1671e-07,0.32,0.97,0
0.017939,-0.0079198,0.026035,-0.00044658,0.0076766,-0.0003446,0,0,0.047732,-0.02112,0,-0.0017919,0,0,0,0.02604,-0.00045107,0.0076766,-0.7454,0.011088,0.023505,4.0814e-07,0.33,0.97,0
0.018414,-0.0078897,0.02569,-0.00053173,0.0075476,-0.00064683,0,0,0.047171,-0.021006,0,-0.0033635,0,0,0,0.025706,-0.00054767,0.0075476,-1.4122,0.010902,0.023287,3.9424e-07,0.34,0.97,0
0.018882,-0.0078695,0.025166,-0.0005358,0.0073892,-0.00095614,0,0,0.046221,-0.020605,0,-0.0049719,0,0,0,0.025202,-0.00057132,0.0073892,-2.1275,0.010673,0.022857,3.72e-07,0.35,0.97,0
0.019339,-0.0078581,0.024702,-0.00035472,0.0073043,-0.0012361,0,0,0.045235,-0.019914,0,-0.0064275,0,0,0,0.024763,-0.00041555,0.0073043,-2.8173,0.010551,0.022343,3.5083e-07,0.36,0.97,0
0.019787,-0.0078586,0.024055,-0.00066046,0.0070183,-0.0014524,0,0,0.044295,-0.019965,0,-0.0075524,0,0,0,0.02414,-0.00074552,0.0070183,-3.3516,0.010138,0.022053,3.2958e-07,0.37,0.97,0
0.020224,-0.0078829,0.023267,-0.00081561,0.0067355,-0.0019263,0,0,0.042982,-0.019633,0,-0.010017,0,0,0,0.02342,-0.00096871,0.0067355,-4.5443,0.009729,0.021594,3.04e-07,0.38,0.97,0
0.020647,-0.0079368,0.022187,-0.00020649,0.0065942,-0.0021479,0,0,0.040542,-0.017682,0,-0.011169,0,0,0,0.022391,-0.00041064,0.0065942,-5.4296,0.009525,0.02023,2.5977e-07,0.39,0.97,0
0.021035,-0.007992,0.021278,0.00018792,0.0064397,-0.0024252,0,0,0.038579,-0.016255,0,-0.012611,0,0,0,0.021553,-8.736e-05,0.0064397,-6.476,0.0093018,0.019227,2.2827e-07,0.4,0.97,0
0.021418,-0.0080585,0.020597,0.00043051,0.0063082,-0.001856,0,0,0.03715,-0.015282,0,-0.0096515,0,0,0,0.020766,0.0002611,0.0063082,-5.215,0.0091118,0.018249,2.0051e-07,0.41,0.97,0
0.021778,-0.0081555,0.01987,0.00062772,0.0061495,-0.0014699,0,0,0.035675,-0.014357,0,-0.0076436,0,0,0,0.019982,0.00051609,0.0061495,-4.3431,0.0088826,0.017349,1.7598e-07,0.42,0.97,0
0.022132,-0.0082608,0.019839,0.00078377,0.0061867,-0.001056,0,0,0.035495,-0.014048,0,-0.0054914,0,0,0,0.019897,0.00072542,0.0061867,-3.1625,0.0089363,0.017108,1.7158e-07,0.43,0.97,0
0.022488,-0.0083711,0.020216,0.0010562,0.0063815,-0.00063915,0,0,0.035968,-0.013846,0,-0.0033236,0,0,0,0.020237,0.0010349,0.0063815,-1.9085,0.0092178,0.017165,1.7732e-07,0.44,0.97,0
0.022851,-0.0084701,0.021969,-9.6426e-06,0.006588,-0.00028513,0,0,0.028037,-0.011712,0,-0.0016193,0,0,0,0.021983,-2.3091e-05,0.006588,-1.0105,0.009516,0.01956,2.6764e-07,0.45,0.97,0
0.02309,-0.0085833,0.021945,-1.721e-07,0.0065834,7.1666e-05,0,0,0.027985,-0.011695,0,0.00084781,0,0,0,0.021955,-1.0209e-05,0.0065834,0.45714,0.0095094,0.019525,2.6712e-07,0.46,0.97,0
0.023451,-0.0087128,0.020117,0.001058,0.0063526,0.00046328,0,0,0.035789,-0.013766,0,0.0024091,0,0,0,0.020129,0.0010468,0.0063526,1.3916,0.009176,0.017059,1.743e-07,0.47,0.97,0
0.023806,-0.0088301,0.019712,0.00079564,0.0061522,0.00088686,0,0,0.035255,-0.013927,0,0.0046117,0,0,0,0.019753,0.00075416,0.0061522,2.6784,0.0088865,0.016957,1.6754e-07,0.48,0.97,0
0.024157,-0.0089519,0.019702,0.00064694,0.0061047,0.0013067,0,0,0.035353,-0.01419,0,0.0067949,0,0,0,0.019791,0.00055775,0.0061047,3.9047,0.0088179,0.017147,1.7051e-07,0.49,0.97,0
0.024513,-0.009081,0.020383,0.00045853,0.0062525,0.0017034,0,0,0.03674,-0.015064,0,0.0088579,0,0,0,0.020528,0.00031395,0.0062525,4.8515,0.0090314,0.017995,1.931e-07,0.5,0.97,0
0.024891,-0.0092394,0.021018,0.00020727,0.0063676,0.002282,0,0,0.038091,-0.016017,0,0.011866,0,0,0,0.021265,-4.0016e-05,0.0063676,6.1848,0.0091977,0.018933,2.1875e-07,0.51,0.97,0
0.025275,-0.0094083,0.021891,-0.00016301,0.0065185,0.0020271,0,0,0.039969,-0.017372,0,0.010541,0,0,0,0.022076,-0.00034779,0.0065185,5.2082,0.0094155,0.0199,2.4829e-07,0.52,0.97,0
0.025691,-0.0095772,0.022934,-0.00076013,0.0066521,0.0018318,0,0,0.042333,-0.019272,0,0.0095251,0,0,0,0.023075,-0.0009009,0.0066521,4.3946,0.0096086,0.021232,2.9011e-07,0.53,0.97,0
0.026121,-0.009774,0.023697,-0.00060637,0.0069271,0.0013888,0,0,0.043601,-0.019587,0,0.0072216,0,0,0,0.023776,-0.00068548,0.0069271,3.2599,0.010006,0.021682,3.1426e-07,0.54,0.97,0
0.026563,-0.0099927,0.024327,-0.00030121,0.0072077,0.0012003,0,0,0.04451,-0.019523,0,0.0062414,0,0,0,0.024385,-0.00035957,0.0072077,2.7835,0.010411,0.021962,3.3431e-07,0.55,0.97,0
0.027012,-0.010222,0.024781,-0.00047474,0.007292,0.0009517,0,0,0.045472,-0.020193,0,0.0049489,0,0,0,0.024817,-0.00051055,0.007292,2.155,0.010533,0.022467,3.5447e-07,0.56,0.97,0
0.027472,-0.010458,0.025301,-0.00046806,0.0074497,0.00067621,0,0,0.046412,-0.020586,0,0.0035163,0,0,0,0.025318,-0.00048579,0.0074497,1.5022,0.010761,0.022892,3.7586e-07,0.57,0.97,0
0.02794,-0.010702,0.02565,-0.00038405,0.0075798,0.00040832,0,0,0.046983,-0.020706,0,0.0021233,0,0,0,0.025656,-0.00039045,0.0075798,0.89833,0.010949,0.023116,3.8955e-07,0.58,0.97,0
0.028412,-0.010951,0.025902,-0.00023661,0.0076997,0.00021769,0,0,0.047326,-0.020634,0,0.001132,0,0,0,0.025904,-0.00023842,0.0076997,0.47714,0.011122,0.023215,3.9845e-07,0.59,0.97,0
0.028886,-0.011199,0.026083,-0.00010172,0.0077944,0.0001128,0,0,0.047551,-0.02053,0,0.00058658,0,0,0,0.026083,-0.0001022,0.0077944,0.24682,0.011259,0.023265,4.0454e-07,0.6,0.97,0
0.029363,-0.011443,0.026226,-5.7084e-07,0.0078678,7.1653e-05,0,0,0.047733,-0.020458,0,0.0003726,0,0,0,0.026227,-7.6659e-07,0.0078678,0.15653,0.011365,0.023311,4.0954e-07,0.61,0.97,0
0.029841,-0.011679,0.026355,7.5729e-05,0.0079292,7.9011e-05,0,0,0.047907,-0.020419,0,0.00041086,0,0,0,0.026355,7.5492e-05,0.0079292,0.17227,0.011453,0.023365,4.1429e-07,0.62,0.97,0
0.030321,-0.011905,0.026473,0.0001256,0.0079796,0.00012046,0,0,0.048083,-0.020421,0,0.00062639,0,0,0,0.026474,0.00012505,0.0079796,0.26194,0.011526,0.023431,4.1906e-07,0.63,0.97,0
0.030803,-0.012118,0.02659,0.00015369,0.0080231,0.00018443,0,0,0.048274,-0.02046,0,0.00095905,0,0,0,0.026591,0.0001524,0.0080231,0.3997,0.011589,0.023513,4.242e-07,0.64,0.97,0
0.031286,-0.012318,0.026711,0.00016433,0.0080624,0.00026064,0,0,0.048485,-0.020535,0,0.0013553,0,0,0,0.026713,0.00016177,0.0080624,0.56247,0.011646,0.023614,4.299e-07,0.65,0.97,0
0.031772,-0.012503,0.026839,0.00016214,0.0081002,0.00034108,0,0,0.04872,-0.020639,0,0.0017736,0,0,0,0.026843,0.00015778,0.0081002,0.73241,0.0117,0.023733,4.3629e-07,0.66,0.97,0
0.032261,-0.012674,0.026976,0.00015088,0.0081381,0.00041971,0,0,0.048979,-0.020767,0,0.0021825,0,0,0,0.026983,0.00014432,0.0081381,0.89617,0.011755,0.023868,4.434e-07,0.67,0.97,0
0.032752,-0.01283,0.027124,0.00013363,0.0081774,0.00049225,0,0,0.049262,-0.020914,0,0.0025597,0,0,0,0.027134,0.00012466,0.0081774,1.0445,0.011812,0.024017,4.5124e-07,0.68,0.97,0
0.033246,-0.012971,0.027283,0.00011287,0.0082188,0.00055583,0,0,0.049568,-0.021076,0,0.0028903,0,0,0,0.027295,0.0001015,0.0082188,1.1715,0.011872,0.024179,4.5977e-07,0.69,0.97,0
0.033743,-0.013099,0.027452,9.0569e-05,0.0082626,0.0006088,0,0,0.049891,-0.021247,0,0.0031658,0,0,0,0.027465,7.7029e-05,0.0082626,1.274,0.011935,0.02435,4.689e-07,0.7,0.97,0
0.034244,-0.013215,0.027628,6.8251e-05,0.0083089,0.00065049,0,0,0.05023,-0.021426,0,0.0033826,0,0,0,0.027643,5.2906e-05,0.0083089,1.3514,0.012002,0.024528,4.7855e-07,0.71,0.97,0
0.034748,-0.013318,0.027811,4.699e-05,0.0083573,0.00068098,0,0,0.050579,-0.021607,0,0.0035411,0,0,0,0.027828,3.0297e-05,0.0083573,1.4042,0.012072,0.024709,4.8861e-07,0.72,0.97,0
0.035256,-0.01341,0.027998,2.748e-05,0.0084076,0.00070084,0,0,0.050935,-0.021788,0,0.0036444,0,0,0,0.028015,9.9304e-06,0.0084076,1.4344,0.012144,0.024893,4.9898e-07,0.73,0.97,0
0.035767,-0.013492,0.028188,1.011e-05,0.0084594,0.00071098,0,0,0.051294,-0.021968,0,0.0036971,0,0,0,0.028206,-7.8181e-06,0.0084594,1.4445,0.012219,0.025076,5.0955e-07,0.74,0.97,0
0.036281,-0.013564,0.028378,-4.9631e-06,0.008512,0.0007125,0,0,0.051652,-0.022144,0,0.003705,0,0,0,0.028396,-2.2837e-05,0.008512,1.4371,0.012295,0.025257,5.2024e-07,0.75,0.97,0
0.0368,-0.013628,0.028568,-1.7749e-05,0.0085651,0.00070653,0,0,0.052008,-0.022315,0,0.003674,0,0,0,0.028585,-3.5201e-05,0.0085651,1.415,0.012372,0.025435,5.3095e-07,0.76,0.97,0
0.037322,-0.013685,0.028755,-2.8365e-05,0.0086181,0.00069423,0,0,0.052357,-0.022481,0,0.00361,0,0,0,0.028772,-4.51e-05,0.0086181,1.3808,0.012448,0.025609,5.4162e-07,0.77,0.97,0
0.037847,-0.013734,0.028939,-3.6996e-05,0.0086706,0.00067666,0,0,0.052698,-0.02264,0,0.0035186,0,0,0,0.028955,-5.2789e-05,0.0086706,1.337,0.012524,0.025778,5.5215e-07,0.78,0.97,0
0.038375,-0.013777,0.029118,-4.3857e-05,0.0087223,0.00065481,0,0,0.053029,-0.022792,0,0.003405,0,0,0,0.029133,-5.8553e-05,0.0087223,1.2857,0.012599,0.02594,5.625e-07,0.79,0.97,0
0.038907,-0.013815,0.029291,-4.9178e-05,0.0087726,0.00062955,0,0,0.053349,-0.022937,0,0.0032736,0,0,0,0.029305,-6.268e-05,0.0087726,1.2286,0.012672,0.026097,5.7261e-07,0.8,0.97,0
0.039442,-0.013848,0.029458,-5.3182e-05,0.0088214,0.00060164,0,0,0.053655,-0.023074,0,0.0031285,0,0,0,0.02947,-6.5442e-05,0.0088214,1.1674,0.012742,0.026246,5.8241e-07,0.81,0.97,0
0.039981,-0.013876,0.029618,-5.6079e-05,0.0088684,0.00057175,0,0,0.053948,-0.023204,0,0.0029731,0,0,0,0.029629,-6.7091e-05,0.0088684,1.1034,0.01281,0.026388,5.9188e-07,0.82,0.97,0
0.040521,-0.013901,0.02977,-5.8061e-05,0.0089134,0.00054041,0,0,0.054226,-0.023326,0,0.0028101,0,0,0,0.029779,-6.7849e-05,0.0089134,1.0376,0.012875,0.026523,6.0096e-07,0.83,0.97,0
0.041065,-0.013922,0.029913,-5.9301e-05,0.0089562,0.00050809,0,0,0.054489,-0.02344,0,0.0026421,0,0,0,0.029922,-6.7911e-05,0.0089562,0.97089,0.012937,0.026649,6.0964e-07,0.84,0.97,0
0.041611,-0.01394,0.030049,-5.9948e-05,0.0089967,0.00047515,0,0,0.054736,-0.023547,0,0.0024708,0,0,0,0.030056,-6.7445e-05,0.0089967,0.90389,0.012995,0.026769,6.1787e-07,0.85,0.97,0
0.04216,-0.013955,0.030176,-6.0134e-05,0.0090347,0.00044189,0,0,0.054967,-0.023647,0,0.0022978,0,0,0,0.030182,-6.659e-05,0.0090347,0.83712,0.01305,0.02688,6.2564e-07,0.86,0.97,0
0.04271,-0.013969,0.030294,-5.9968e-05,0.0090702,0.00040853,0,0,0.055182,-0.023738,0,0.0021244,0,0,0,0.030299,-6.5465e-05,0.0090702,0.77096,0.013101,0.026983,6.3293e-07,0.87,0.97,0
0.043263,-0.01398,0.030403,-5.9545e-05,0.0091031,0.00037527,0,0,0.05538,-0.023823,0,0.0019514,0,0,0,0.030408,-6.4167e-05,0.0091031,0.70568,0.013149,0.027078,6.3971e-07,0.88,0.97,0
0.043818,-0.01399,0.030504,-5.8945e-05,0.0091334,0.00034221,0,0,0.055563,-0.0239,0,0.0017795,0,0,0,0.030507,-6.2776e-05,0.0091334,0.64143,0.013193,0.027166,6.4599e-07,0.89,0.97,0
0.044375,-0.013997,0.030595,-5.8233e-05,0.0091611,0.00030945,0,0,0.055729,-0.02397,0,0.0016091,0,0,0,0.030598,-6.1356e-05,0.0091611,0.57834,0.013233,0.027245,6.5173e-07,0.9,0.97,0
0.044933,-0.014004,0.030678,-5.7462e-05,0.0091861,0.00027705,0,0,0.055878,-0.024033,0,0.0014407,0,0,0,0.03068,-5.996e-05,0.0091861,0.51641,0.013269,0.027317,6.5695e-07,0.91,0.97,0
0.045492,-0.01401,0.030752,-5.6679e-05,0.0092085,0.00024503,0,0,0.056012,-0.024089,0,0.0012741,0,0,0,0.030753,-5.8628e-05,0.0092085,0.45565,0.013301,0.027381,6.6163e-07,0.92,0.97,0
0.046053,-0.014014,0.030816,-5.5918e-05,0.0092282,0.00021339,0,0,0.056129,-0.024139,0,0.0011096,0,0,0,0.030818,-5.7393e-05,0.0092282,0.39601,0.01333,0.027437,6.6577e-07,0.93,0.97,0
0.046615,-0.014018,0.030873,-5.521e-05,0.0092452,0.00018212,0,0,0.056231,-0.024181,0,0.00094705,0,0,0,0.030874,-5.6282e-05,0.0092452,0.33738,0.013354,0.027486,6.6936e-07,0.94,0.97,0
0.047178,-0.014021,0.03092,-5.4576e-05,0.0092596,0.0001512,0,0,0.056317,-0.024217,0,0.00078624,0,0,0,0.030921,-5.5314e-05,0.0092596,0.27968,0.013375,0.027527,6.724e-07,0.95,0.97,0
0.047741,-0.014023,0.030959,-5.4035e-05,0.0092714,0.00012058,0,0,0.056387,-0.024246,0,0.000627,0,0,0,0.030959,-5.4504e-05,0.0092714,0.22276,0.013392,0.027561,6.7489e-07,0.96,0.97,0
0.048305,-0.014025,0.030989,-5.3602e-05,0.0092805,9.0205e-05,0,0,0.056441,-0.024269,0,0.00046907,0,0,0,0.030989,-5.3864e-05,0.0092805,0.16649,0.013405,0.027587,6.7682e-07,0.97,0.97,0
0.04887,-0.014026,0.03101,-5.3285e-05,0.0092871,6.0027e-05,0,0,0.05648,-0.024285,0,0.00031214,0,0,0,0.03101,-5.3401e-05,0.0092871,0.11072,0.013415,0.027605,6.7821e-07,0.98,0.97,0
0.049435,-0.014027,0.031023,-5.3092e-05,0.009291,2.998e-05,0,0,0.056503,-0.024295,0,0.0001559,0,0,0,0.031023,-5.3121e-05,0.009291,0.055275,0.01342,0.027616,6.7904e-07,0.99,0.97,0
0.05,-0.014027,0.031027,-5.3028e-05,0.0092923,-4.3469e-06,0,0,0.056511,-0.024298,0,-2.2604e-05,0,0,0,0.031027,-5.3028e-05,0.0092923,-0.0080134,0.013422,0.02762,6.7932e-07,1,0.97,0
0,0,0.04382,0.01878,0.01878,-0.013752,0,0,0.065104,0,0,-0.071512,0,0,0,0.049898,0.012702,0.01878,-23.843,0.027127,0.03456,1.9009e-06,0,0.98,0
0.00065104,-0.00071512,0.04217,0.011257,0.016028,-0.012418,0,0,0.067968,-0.012404,0,-0.064572,0,0,0,0.04654,0.0068869,0.016028,-19.389,0.023152,0.035965,1.8789e-06,0.01,0.98,0
0.0013594,-0.0014859,0.042004,0.0054065,0.014223,-0.010023,0,0,0.072231,-0.022923,0,-0.05212,0,0,0,0.044569,0.0028413,0.014223,-14.356,0.020545,0.037361,1.8642e-06,0.02,0.98,0
0.0020957,-0.0022074,0.041247,0.0033953,0.013393,-0.0074367,0,0,0.072422,-0.025993,0,-0.038671,0,0,0,0.042656,0.0019866,0.013393,-10.726,0.019345,0.036335,1.67e-06,0.03,0.98,0
0.0028078,-0.0028482,0.039171,0.002151,0.012397,-0.0054526,0,0,0.069614,-0.026639,0,-0.028354,0,0,0,0.039958,0.0013646,0.012397,-8.2067,0.017906,0.034429,1.3935e-06,0.04,0.98,0
0.0034879,-0.0034216,0.037153,0.0014355,0.011577,-0.0041191,0,0,0.066499,-0.026367,0,-0.02142,0,0,0,0.037622,0.00096663,0.011577,-6.4941,0.016722,0.032669,1.1747e-06,0.05,0.98,0
0.0041378,-0.0039384,0.035415,0.00099744,0.010924,-0.0031962,0,0,0.063676,-0.025808,0,-0.01662,0,0,0,0.035709,0.00070314,0.010924,-5.2609,0.015779,0.031178,1.0114e-06,0.06,0.98,0
0.0047615,-0.0044074,0.033971,0.00071865,0.010407,-0.0025412,0,0,0.061266,-0.025189,0,-0.013214,0,0,0,0.034164,0.00052556,0.010407,-4.3451,0.015032,0.029946,8.9004e-07,0.07,0.98,0
0.0053631,-0.0048352,0.032775,0.0005334,0.0099926,-0.0020616,0,0,0.059235,-0.024594,0,-0.010721,0,0,0,0.032907,0.00040211,0.0099926,-3.6439,0.014434,0.028927,7.9818e-07,0.08,0.98,0
0.0059462,-0.0052269,0.03178,0.00040564,0.0096557,-0.0017012,0,0,0.057523,-0.02405,0,-0.0088464,0,0,0,0.031872,0.00031366,0.0096557,-3.0947,0.013947,0.028078,7.2715e-07,0.09,0.98,0
0.0065136,-0.0055863,0.030944,0.0003147,0.0093775,-0.0014244,0,0,0.056072,-0.023563,0,-0.0074066,0,0,0,0.03101,0.00024861,0.0093775,-2.6568,0.013545,0.027364,6.7107e-07,0.1,0.98,0
0.0070676,-0.0059164,0.030235,0.00024832,0.0091449,-0.0012077,0,0,0.054834,-0.023131,0,-0.0062799,0,0,0,0.030283,0.00019976,0.0091449,-2.3026,0.013209,0.026757,6.2597e-07,0.11,0.98,0
0.0076102,-0.0062196,0.029628,0.00019894,0.0089482,-0.0010353,0,0,0.053768,-0.022748,0,-0.0053837,0,0,0,0.029665,0.00016256,0.0089482,-2.0123,0.012925,0.026237,5.8911e-07,0.12,0.98,0
0.008143,-0.0064979,0.029106,0.00016179,0.0087802,-0.00089616,0,0,0.052846,-0.022408,0,-0.00466,0,0,0,0.029133,0.00013407,0.0087802,-1.7717,0.012682,0.025787,5.5855e-07,0.13,0.98,0
0.0086672,-0.0067528,0.028652,0.00013377,0.0086356,-0.00078202,0,0,0.052042,-0.022105,0,-0.0040665,0,0,0,0.028673,0.00011234,0.0086356,-1.5696,0.012474,0.025396,5.3289e-07,0.14,0.98,0
0.0091838,-0.0069856,0.028255,0.00011282,0.0085104,-0.00068673,0,0,0.051337,-0.021834,0,-0.003571,0,0,0,0.028272,9.6072e-05,0.0085104,-1.397,0.012293,0.025052,5.1113e-07,0.15,0.98,0
0.0096939,-0.0071973,0.027908,9.7549e-05,0.0084016,-0.00060545,0,0,0.050716,-0.02159,0,-0.0031483,0,0,0,0.027921,8.4374e-05,0.0084016,-1.2466,0.012136,0.024749,4.9252e-07,0.16,0.98,0
0.010198,-0.0073886,0.027602,8.6978e-05,0.0083067,-0.00053425,0,0,0.050168,-0.021371,0,-0.0027781,0,0,0,0.027612,7.6608e-05,0.0083067,-1.1119,0.011999,0.024481,4.765e-07,0.17,0.98,0
0.010697,-0.0075602,0.027333,8.0377e-05,0.0082241,-0.00046988,0,0,0.049684,-0.021174,0,-0.0024433,0,0,0,0.027341,7.2278e-05,0.0082241,-0.98747,0.011879,0.024244,4.6267e-07,0.18,0.98,0
0.011192,-0.0077126,0.027098,7.7146e-05,0.0081524,-0.00040959,0,0,0.049257,-0.020996,0,-0.0021299,0,0,0,0.027104,7.0939e-05,0.0081524,-0.86827,0.011776,0.024034,4.5072e-07,0.19,0.98,0
0.011682,-0.007846,0.026892,7.6709e-05,0.0080907,-0.00035113,0,0,0.048884,-0.020836,0,-0.0018259,0,0,0,0.026897,7.2112e-05,0.0080907,-0.75008,0.011687,0.023849,4.4045e-07,0.2,0.98,0
0.012169,-0.0079609,0.026715,7.8433e-05,0.0080381,-0.00029268,0,0,0.048561,-0.020695,0,-0.0015219,0,0,0,0.026719,7.5218e-05,0.0080381,-0.62945,0.011611,0.023688,4.3169e-07,0.21,0.98,0
0.012654,-0.0080574,0.026566,8.1559e-05,0.0079942,-0.00023297,0,0,0.048286,-0.020573,0,-0.0012115,0,0,0,0.026568,7.951e-05,0.0079942,-0.50396,0.011547,0.02355,4.2434e-07,0.22,0.98,0
0.013135,-0.0081358,0.026442,8.5143e-05,0.0079582,-0.00017139,0,0,0.048058,-0.02047,0,-0.00089123,0,0,0,0.026443,8.4029e-05,0.0079582,-0.37255,0.011495,0.023436,4.1832e-07,0.23,0.98,0
0.013615,-0.0081964,0.026344,8.8007e-05,0.0079295,-0.00010811,0,0,0.047877,-0.020388,0,-0.00056219,0,0,0,0.026344,8.7562e-05,0.0079295,-0.23592,0.011454,0.023345,4.1356e-07,0.24,0.98,0
0.014093,-0.0082397,0.026268,8.8676e-05,0.0079071,-4.4301e-05,0,0,0.047739,-0.020328,0,-0.00023037,0,0,0,0.026268,8.8601e-05,0.0079071,-0.096956,0.011421,0.023277,4.0999e-07,0.25,0.98,0
0.01457,-0.0082664,0.026214,8.5316e-05,0.0078897,1.7669e-05,0,0,0.047642,-0.020292,0,9.1878e-05,0,0,0,0.026214,8.5304e-05,0.0078897,0.038745,0.011396,0.023231,4.0749e-07,0.26,0.98,0
0.015046,-0.0082773,0.026176,7.5628e-05,0.0078756,7.3952e-05,0,0,0.047582,-0.02028,0,0.00038455,0,0,0,0.026176,7.5419e-05,0.0078756,0.16234,0.011376,0.023206,4.0591e-07,0.27,0.98,0
0.015521,-0.008274,0.02615,5.6984e-05,0.0078622,0.00011895,0,0,0.047549,-0.020294,0,0.00061854,0,0,0,0.026151,5.6442e-05,0.0078622,0.26118,0.011357,0.023198,4.0504e-07,0.28,0.98,0
0.015997,-0.0082582,0.026128,2.6422e-05,0.0078464,0.00014527,0,0,0.047533,-0.020332,0,0.00075543,0,0,0,0.026129,2.5614e-05,0.0078464,0.31888,0.011334,0.023203,4.0454e-07,0.29,0.98,0
0.016472,-0.0082324,0.0261,-1.813e-05,0.0078246,0.00014364,0,0,0.047517,-0.020391,0,0.00074691,0,0,0,0.026101,-1.892e-05,0.0078246,0.31508,0.011302,0.023214,4.0398e-07,0.3,0.98,0
0.016947,-0.0081995,0.026051,-7.9154e-05,0.0077917,0.00010369,0,0,0.047475,-0.020464,0,0.00053918,0,0,0,0.026052,-7.9565e-05,0.0077917,0.22735,0.011255,0.023219,4.0269e-07,0.31,0.98,0
0.017421,-0.0081631,0.025961,-0.0001522,0.0077427,1.4681e-05,0,0,0.047368,-0.020527,0,7.6343e-05,0,0,0,0.025961,-0.00015221,0.0077427,0.032213,0.011184,0.023196,3.9969e-07,0.32,0.98,0
0.017894,-0.0081272,0.025805,-0.00021865,0.0076758,-0.00012623,0,0,0.047135,-0.020525,0,-0.00065639,0,0,0,0.025805,-0.00021926,0.0076758,-0.27791,0.011087,0.023111,3.9362e-07,0.33,0.98,0
0.018364,-0.0080957,0.025555,-0.00025393,0.0075904,-0.00030345,0,0,0.046709,-0.020395,0,-0.0015779,0,0,0,0.025559,-0.00025749,0.0075904,-0.67352,0.010964,0.022923,3.8309e-07,0.34,0.98,0
0.018828,-0.0080715,0.025243,-0.00022547,0.0075054,-0.00048952,0,0,0.046119,-0.0201,0,-0.0025455,0,0,0,0.025253,-0.00023488,0.0075054,-1.1007,0.010841,0.022633,3.6919e-07,0.35,0.98,0
0.019286,-0.0080571,0.024841,-0.00026099,0.0073741,-0.00066412,0,0,0.045414,-0.019851,0,-0.0034534,0,0,0,0.024859,-0.00027855,0.0073741,-1.5144,0.010651,0.022318,3.5287e-07,0.36,0.98,0
0.019737,-0.0080566,0.024315,-0.00038663,0.0071786,-0.00090704,0,0,0.044555,-0.01967,0,-0.0047166,0,0,0,0.024348,-0.00041989,0.0071786,-2.1001,0.010369,0.021978,3.3365e-07,0.37,0.98,0
0.020178,-0.0080751,0.023632,-0.00036213,0.0069809,-0.0011614,0,0,0.043292,-0.019092,0,-0.0060392,0,0,0,0.023688,-0.00041822,0.0069809,-2.7647,0.010084,0.021389,3.0735e-07,0.38,0.98,0
0.020603,-0.0081113,0.023024,6.742e-05,0.0069275,-0.0013076,0,0,0.041852,-0.017836,0,-0.0067996,0,0,0,0.023099,-6.8205e-06,0.0069275,-3.2495,0.010006,0.020536,2.7986e-07,0.39,0.98,0
0.021015,-0.0081605,0.022296,5.2615e-05,0.0067046,-0.0012227,0,0,0.040538,-0.017295,0,-0.0063581,0,0,0,0.022363,-1.4394e-05,0.0067046,-3.1369,0.0096844,0.019888,2.5406e-07,0.4,0.98,0
0.021413,-0.0082255,0.021604,-9.4955e-05,0.0064526,-0.0012438,0,0,0.039392,-0.017024,0,-0.0064677,0,0,0,0.021675,-0.00016602,0.0064526,-3.27,0.0093204,0.019398,2.3304e-07,0.41,0.98,0
0.021802,-0.0083099,0.021144,0.00022465,0.0064107,-0.0011406,0,0,0.038307,-0.016084,0,-0.0059314,0,0,0,0.021206,0.00016264,0.0064107,-3.1118,0.0092599,0.018719,2.147e-07,0.42,0.98,0
0.02218,-0.008409,0.020568,0.00037069,0.0062816,-0.00094241,0,0,0.037145,-0.015369,0,-0.0049005,0,0,0,0.020612,0.00032681,0.0062816,-2.6657,0.0090735,0.01806,1.9536e-07,0.43,0.98,0
0.022545,-0.0085134,0.019899,0.00050194,0.0061202,-0.00060071,0,0,0.035824,-0.014608,0,-0.0031237,0,0,0,0.019917,0.00048335,0.0061202,-1.7721,0.0088403,0.017318,1.7459e-07,0.44,0.98,0
0.022896,-0.0086038,0.019964,0.00050948,0.0061421,-0.00050988,0,0,0.035937,-0.014645,0,-0.0026513,0,0,0,0.019978,0.00049613,0.0061421,-1.5003,0.0088719,0.017361,1.7606e-07,0.45,0.98,0
0.023264,-0.0087172,0.019931,0.00048931,0.006126,0.00038153,0,0,0.035892,-0.014655,0,0.0019839,0,0,0,0.019938,0.00048182,0.006126,1.1238,0.0088487,0.017338,1.7516e-07,0.46,0.98,0
0.023614,-0.0088542,0.019817,0.00050944,0.0060979,0.00047219,0,0,0.035669,-0.01453,0,0.0024554,0,0,0,0.019828,0.0004979,0.0060979,1.4001,0.008808,0.017227,1.7209e-07,0.47,0.98,0
0.023977,-0.0089771,0.020425,0.00037964,0.0062413,0.00081853,0,0,0.036877,-0.01524,0,0.0042564,0,0,0,0.020458,0.00034627,0.0062413,2.3345,0.0090152,0.017907,1.9079e-07,0.48,0.98,0
0.024351,-0.0091046,0.020951,0.00023782,0.0063567,0.0010249,0,0,0.037945,-0.015909,0,0.0053296,0,0,0,0.021002,0.00018723,0.0063567,2.8259,0.0091818,0.018517,2.0826e-07,0.49,0.98,0
0.024736,-0.0092458,0.021364,-7.8482e-05,0.0063856,0.0011381,0,0,0.038944,-0.016807,0,0.0059181,0,0,0,0.021424,-0.00013872,0.0063856,3.0297,0.0092237,0.019153,2.2477e-07,0.5,0.98,0
0.02513,-0.0094055,0.02201,6.4469e-05,0.0066223,0.0011278,0,0,0.040007,-0.01705,0,0.0058646,0,0,0,0.022068,6.6605e-06,0.0066223,2.9343,0.0095655,0.019609,2.4388e-07,0.51,0.98,0
0.025537,-0.0095799,0.022698,8.6097e-05,0.0068354,0.0012239,0,0,0.041244,-0.017548,0,0.006364,0,0,0,0.022765,2.0051e-05,0.0068354,3.089,0.0098733,0.020217,2.6756e-07,0.52,0.98,0
0.025955,-0.0097661,0.023273,-0.00033289,0.0068821,0.001096,0,0,0.042617,-0.018759,0,0.0056993,0,0,0,0.023324,-0.00038367,0.0068821,2.6526,0.0099408,0.021038,2.9304e-07,0.53,0.98,0
0.026389,-0.0099684,0.02393,-0.00035617,0.0070721,0.00086321,0,0,0.04383,-0.019314,0,0.0044887,0,0,0,0.02396,-0.00038681,0.0070721,2.0331,0.010215,0.021606,3.1759e-07,0.54,0.98,0
0.026832,-0.010188,0.024439,-0.00023071,0.0072626,0.00064266,0,0,0.04466,-0.019483,0,0.0033419,0,0,0,0.024456,-0.00024744,0.0072626,1.4912,0.01049,0.021935,3.3562e-07,0.55,0.98,0
0.027282,-0.01042,0.024835,-0.00019343,0.0073924,0.00049082,0,0,0.04535,-0.019723,0,0.0025523,0,0,0,0.024844,-0.00020305,0.0073924,1.1231,0.010678,0.022244,3.5114e-07,0.56,0.98,0
0.027739,-0.01066,0.025149,-0.00021987,0.0074788,0.00032907,0,0,0.045943,-0.020016,0,0.0017112,0,0,0,0.025153,-0.00022414,0.0074788,0.74304,0.010803,0.022536,3.6469e-07,0.57,0.98,0
0.028201,-0.010906,0.02541,-0.00018486,0.0075675,0.00017665,0,0,0.04639,-0.020156,0,0.00091859,0,0,0,0.025411,-0.00018608,0.0075675,0.39543,0.010931,0.022735,3.754e-07,0.58,0.98,0
0.028667,-0.011154,0.025588,-0.00012032,0.0076402,5.9722e-05,0,0,0.046663,-0.020177,0,0.00031055,0,0,0,0.025588,-0.00012046,0.0076402,0.1331,0.011036,0.022839,3.8223e-07,0.59,0.98,0
0.029134,-0.011402,0.025708,-5.0153e-05,0.0076974,-7.1018e-06,0,0,0.046828,-0.020144,0,-3.6929e-05,0,0,0,0.025708,-5.0155e-05,0.0076974,-0.015797,0.011118,0.02289,3.8652e-07,0.6,0.98,0
0.029603,-0.011646,0.025795,7.5333e-06,0.0077409,-2.7174e-05,0,0,0.046942,-0.020107,0,-0.0001413,0,0,0,0.025795,7.5047e-06,0.0077409,-0.060375,0.011181,0.022921,3.8953e-07,0.61,0.98,0
0.030073,-0.011882,0.025868,4.8459e-05,0.007775,-1.153e-05,0,0,0.047042,-0.020089,0,-5.9955e-05,0,0,0,0.025868,4.8454e-05,0.007775,-0.025585,0.011231,0.022954,3.9217e-07,0.62,0.98,0
0.030544,-0.012108,0.025941,7.5067e-05,0.0078047,2.9225e-05,0,0,0.047153,-0.020097,0,0.00015197,0,0,0,0.025941,7.5034e-05,0.0078047,0.064737,0.011274,0.022997,3.9504e-07,0.63,0.98,0
0.031016,-0.012321,0.026021,8.9349e-05,0.007833,8.5501e-05,0,0,0.047288,-0.020133,0,0.00044461,0,0,0,0.026021,8.9067e-05,0.007833,0.18891,0.011314,0.023057,3.9849e-07,0.64,0.98,0
0.03149,-0.012522,0.026114,9.4136e-05,0.0078626,0.00014954,0,0,0.047455,-0.020198,0,0.00077762,0,0,0,0.026115,9.3277e-05,0.0078626,0.32927,0.011357,0.023137,4.0278e-07,0.65,0.98,0
0.031965,-0.012708,0.026226,9.1925e-05,0.0078953,0.00021528,0,0,0.047659,-0.020289,0,0.0011195,0,0,0,0.026227,9.0151e-05,0.0078953,0.47194,0.011404,0.023239,4.0804e-07,0.66,0.98,0
0.032443,-0.01288,0.026356,8.4885e-05,0.0079322,0.00027832,0,0,0.047901,-0.020403,0,0.0014473,0,0,0,0.026359,8.1936e-05,0.0079322,0.60691,0.011458,0.023363,4.1435e-07,0.67,0.98,0
0.032923,-0.013037,0.026505,7.4737e-05,0.0079739,0.00033563,0,0,0.048181,-0.020538,0,0.0017453,0,0,0,0.026509,7.0476e-05,0.0079739,0.72743,0.011518,0.023505,4.2169e-07,0.68,0.98,0
0.033406,-0.01318,0.026672,6.2844e-05,0.0080203,0.00038532,0,0,0.048493,-0.020689,0,0.0020037,0,0,0,0.026677,5.7265e-05,0.0080203,0.82946,0.011585,0.023665,4.3e-07,0.69,0.98,0
0.033893,-0.01331,0.026854,5.0261e-05,0.0080713,0.00042638,0,0,0.048835,-0.020855,0,0.0022172,0,0,0,0.026861,4.348e-05,0.0080713,0.91112,0.011659,0.02384,4.3919e-07,0.7,0.98,0
0.034383,-0.013427,0.02705,3.7784e-05,0.0081262,0.00045851,0,0,0.049201,-0.02103,0,0.0023842,0,0,0,0.027057,3.0004e-05,0.0081262,0.97219,0.011738,0.024025,4.4914e-07,0.71,0.98,0
0.034877,-0.013532,0.027255,2.5976e-05,0.0081844,0.0004819,0,0,0.049584,-0.021212,0,0.0025059,0,0,0,0.027264,1.745e-05,0.0081844,1.0136,0.011822,0.024219,4.5974e-07,0.72,0.98,0
0.035375,-0.013626,0.027468,1.5196e-05,0.0082451,0.00049712,0,0,0.049981,-0.021398,0,0.002585,0,0,0,0.027477,6.1974e-06,0.0082451,1.0371,0.01191,0.024418,4.7084e-07,0.73,0.98,0
0.035877,-0.01371,0.027686,5.6441e-06,0.0083075,0.00050494,0,0,0.050384,-0.021585,0,0.0026257,0,0,0,0.027695,-3.5639e-06,0.0083075,1.0447,0.012,0.024619,4.8231e-07,0.74,0.98,0
0.036382,-0.013784,0.027906,-2.6076e-06,0.0083709,0.00050625,0,0,0.05079,-0.021771,0,0.0026325,0,0,0,0.027915,-1.1788e-05,0.0083709,1.0389,0.012091,0.024821,4.9402e-07,0.75,0.98,0
0.036893,-0.01385,0.028125,-9.5745e-06,0.0084346,0.00050197,0,0,0.051195,-0.021955,0,0.0026102,0,0,0,0.028134,-1.8528e-05,0.0084346,1.0218,0.012183,0.025021,5.0587e-07,0.76,0.98,0
0.037406,-0.013908,0.028342,-1.5331e-05,0.0084979,0.00049299,0,0,0.051594,-0.022134,0,0.0025635,0,0,0,0.02835,-2.3899e-05,0.0084979,0.99569,0.012275,0.025217,5.1774e-07,0.77,0.98,0
0.037924,-0.013959,0.028554,-1.9984e-05,0.0085603,0.00048015,0,0,0.051984,-0.022309,0,0.0024968,0,0,0,0.028562,-2.805e-05,0.0085603,0.96241,0.012365,0.025409,5.2953e-07,0.78,0.98,0
0.038446,-0.014004,0.028761,-2.3661e-05,0.0086213,0.0004642,0,0,0.052364,-0.022477,0,0.0024139,0,0,0,0.028769,-3.1145e-05,0.0086213,0.92367,0.012453,0.025595,5.4115e-07,0.79,0.98,0
0.038972,-0.014043,0.028961,-2.6491e-05,0.0086805,0.00044582,0,0,0.05273,-0.022638,0,0.0023183,0,0,0,0.028968,-3.3346e-05,0.0086805,0.8809,0.012538,0.025774,5.5252e-07,0.8,0.98,0
0.039501,-0.014077,0.029154,-2.86e-05,0.0087375,0.00042557,0,0,0.053082,-0.022792,0,0.002213,0,0,0,0.02916,-3.4805e-05,0.0087375,0.83532,0.012621,0.025946,5.6359e-07,0.81,0.98,0
0.040033,-0.014107,0.029337,-3.0107e-05,0.0087922,0.00040395,0,0,0.053418,-0.022938,0,0.0021005,0,0,0,0.029343,-3.5662e-05,0.0087922,0.7879,0.0127,0.026109,5.7428e-07,0.82,0.98,0
0.040569,-0.014133,0.029512,-3.1118e-05,0.0088442,0.00038135,0,0,0.053736,-0.023076,0,0.001983,0,0,0,0.029517,-3.604e-05,0.0088442,0.73943,0.012775,0.026264,5.8455e-07,0.83,0.98,0
0.041108,-0.014155,0.029677,-3.173e-05,0.0088935,0.00035812,0,0,0.054036,-0.023206,0,0.0018622,0,0,0,0.029681,-3.6047e-05,0.0088935,0.69054,0.012846,0.02641,5.9436e-07,0.84,0.98,0
0.04165,-0.014174,0.029832,-3.2025e-05,0.0089399,0.00033452,0,0,0.054318,-0.023327,0,0.0017395,0,0,0,0.029835,-3.5771e-05,0.0089399,0.64169,0.012913,0.026547,6.0367e-07,0.85,0.98,0
0.042194,-0.014191,0.029976,-3.2074e-05,0.0089833,0.00031076,0,0,0.054582,-0.02344,0,0.0016159,0,0,0,0.02998,-3.5291e-05,0.0089833,0.59325,0.012976,0.026675,6.1245e-07,0.86,0.98,0
0.042742,-0.014205,0.030111,-3.1937e-05,0.0090236,0.000287,0,0,0.054827,-0.023544,0,0.0014924,0,0,0,0.030114,-3.467e-05,0.0090236,0.54546,0.013034,0.026793,6.2068e-07,0.87,0.98,0
0.043291,-0.014217,0.030235,-3.1667e-05,0.009061,0.00026336,0,0,0.055052,-0.023641,0,0.0013695,0,0,0,0.030237,-3.3959e-05,0.009061,0.49851,0.013088,0.026902,6.2834e-07,0.88,0.98,0
0.043842,-0.014228,0.030349,-3.1306e-05,0.0090952,0.00023994,0,0,0.055259,-0.023729,0,0.0012477,0,0,0,0.03035,-3.3201e-05,0.0090952,0.45249,0.013137,0.027003,6.3541e-07,0.89,0.98,0
0.044396,-0.014236,0.030452,-3.0889e-05,0.0091264,0.00021679,0,0,0.055447,-0.023809,0,0.0011273,0,0,0,0.030454,-3.2431e-05,0.0091264,0.40745,0.013182,0.027094,6.4189e-07,0.9,0.98,0
0.044951,-0.014244,0.030545,-3.0445e-05,0.0091544,0.00019394,0,0,0.055616,-0.023881,0,0.0010085,0,0,0,0.030547,-3.1675e-05,0.0091544,0.3634,0.013223,0.027176,6.4776e-07,0.91,0.98,0
0.045508,-0.01425,0.030628,-2.9998e-05,0.0091795,0.0001714,0,0,0.055767,-0.023945,0,0.00089128,0,0,0,0.030629,-3.0956e-05,0.0091795,0.32031,0.013259,0.027249,6.5302e-07,0.92,0.98,0
0.046067,-0.014255,0.030701,-2.9567e-05,0.0092015,0.00014918,0,0,0.055899,-0.024001,0,0.00077571,0,0,0,0.030702,-3.0291e-05,0.0092015,0.27812,0.013291,0.027313,6.5767e-07,0.93,0.98,0
0.046626,-0.014259,0.030764,-2.9168e-05,0.0092206,0.00012725,0,0,0.056014,-0.024049,0,0.00066169,0,0,0,0.030765,-2.9694e-05,0.0092206,0.23676,0.013319,0.027368,6.6171e-07,0.94,0.98,0
0.047187,-0.014262,0.030818,-2.8812e-05,0.0092366,0.00010559,0,0,0.056111,-0.02409,0,0.00054909,0,0,0,0.030818,-2.9174e-05,0.0092366,0.19613,0.013342,0.027415,6.6512e-07,0.95,0.98,0
0.047749,-0.014265,0.030861,-2.851e-05,0.0092497,8.4175e-05,0,0,0.056189,-0.024123,0,0.00043771,0,0,0,0.030861,-2.8739e-05,0.0092497,0.15613,0.013361,0.027453,6.6791e-07,0.96,0.98,0
0.048311,-0.014267,0.030895,-2.8268e-05,0.0092599,6.2954e-05,0,0,0.05625,-0.024149,0,0.00032736,0,0,0,0.030895,-2.8396e-05,0.0092599,0.11664,0.013375,0.027482,6.7008e-07,0.97,0.98,0
0.048874,-0.014268,0.030919,-2.8091e-05,0.0092672,4.1883e-05,0,0,0.056294,-0.024168,0,0.00021779,0,0,0,0.030919,-2.8148e-05,0.0092672,0.077544,0.013386,0.027504,6.7163e-07,0.98,0.98,0
0.049437,-0.014269,0.030933,-2.7984e-05,0.0092715,2.0916e-05,0,0,0.05632,-0.024179,0,0.00010876,0,0,0,0.030933,-2.7998e-05,0.0092715,0.038706,0.013392,0.027516,6.7257e-07,0.99,0.98,0
0.05,-0.014269,0.030938,-2.7948e-05,0.0092729,-5.0108e-06,0,0,0.056328,-0.024182,0,-2.6056e-05,0,0,0,0.030938,-2.7949e-05,0.0092729,-0.0092715,0.013394,0.02752,6.7288e-07,1,0.98,0
0,0,0.052298,0.022413,0.022413,-0.016863,0,0,0.077699,-5.2042e-18,0,-0.087686,0,0,0,0.059886,0.014825,0.022413,-24.228,0.032375,0.041787,3.3348e-06,0,0.99,0
0.00077699,-0.00087686,0.047593,0.0045864,0.015654,-0.010576,0,0,0.083042,-0.028775,0,-0.054996,0,0,0,0.050053,0.0021262,0.015654,-13.095,0.022611,0.042798,2.7118e-06,0.01,0.99,0
0.0016608,-0.001765,0.047801,0.0036279,0.015429,-0.006981,0,0,0.084169,-0.030682,0,-0.036301,0,0,0,0.048878,0.0025509,0.015429,-8.7702,0.022286,0.041418,2.4952e-06,0.02,0.99,0
0.0024604,-0.002494,0.042802,0.0019126,0.013414,-0.0042708,0,0,0.076408,-0.029905,0,-0.022208,0,0,0,0.043243,0.0014712,0.013414,-5.8996,0.019376,0.037265,1.7665e-06,0.03,0.99,0
0.003189,-0.0031298,0.03906,0.0011141,0.012052,-0.0029236,0,0,0.07022,-0.028439,0,-0.015203,0,0,0,0.039284,0.00089018,0.012052,-4.3799,0.017409,0.034207,1.3421e-06,0.04,0.99,0
0.0038648,-0.0036933,0.036347,0.00069388,0.011112,-0.0021139,0,0,0.065611,-0.027088,0,-0.010992,0,0,0,0.036472,0.00056898,0.011112,-3.3813,0.016051,0.031963,1.0827e-06,0.05,0.99,0
0.0045012,-0.0042003,0.03434,0.00046235,0.010441,-0.0016029,0,0,0.062137,-0.025943,0,-0.0083348,0,0,0,0.034415,0.00038669,0.010441,-2.7028,0.015081,0.03028,9.1406e-07,0.06,0.99,0
0.0051075,-0.0046607,0.032801,0.00032406,0.0099374,-0.0012559,0,0,0.059444,-0.024995,0,-0.0065308,0,0,0,0.032849,0.00027557,0.0099374,-2.2113,0.014354,0.028977,7.9737e-07,0.07,0.99,0
0.0056901,-0.005081,0.031586,0.00023611,0.0095466,-0.0010094,0,0,0.057302,-0.024207,0,-0.0052491,0,0,0,0.031618,0.00020364,0.0095466,-1.8423,0.013789,0.027941,7.1259e-07,0.08,0.99,0
0.0062536,-0.0054663,0.030604,0.0001772,0.0092345,-0.00082779,0,0,0.055562,-0.023549,0,-0.0043045,0,0,0,0.030627,0.0001547,0.0092345,-1.5572,0.013339,0.027098,6.4861e-07,0.09,0.99,0
0.0068013,-0.0058201,0.029796,0.00013611,0.0089796,-0.00069022,0,0,0.054122,-0.022993,0,-0.0035891,0,0,0,0.029812,0.00012006,0.0089796,-1.3324,0.01297,0.026402,5.9887e-07,0.1,0.99,0
0.007336,-0.0061455,0.029119,0.00010655,0.0087678,-0.00058373,0,0,0.052914,-0.022519,0,-0.0030354,0,0,0,0.029131,9.4812e-05,0.0087678,-1.1522,0.012665,0.025817,5.5924e-07,0.11,0.99,0
0.0078596,-0.0064446,0.028546,8.481e-05,0.0085892,-0.00049979,0,0,0.051887,-0.022111,0,-0.0025989,0,0,0,0.028555,7.6036e-05,0.0085892,-1.0057,0.012407,0.025319,5.2702e-07,0.12,0.99,0
0.0083738,-0.0067193,0.028054,6.8608e-05,0.0084367,-0.00043252,0,0,0.051005,-0.021757,0,-0.0022491,0,0,0,0.02806,6.1925e-05,0.0084367,-0.88523,0.012186,0.024891,5.0039e-07,0.13,0.99,0
0.0088797,-0.006971,0.027628,5.65e-05,0.0083053,-0.00037766,0,0,0.050239,-0.021447,0,-0.0019638,0,0,0,0.027633,5.1328e-05,0.0083053,-0.78462,0.011997,0.02452,4.7804e-07,0.14,0.99,0
0.0093785,-0.007201,0.027256,4.7549e-05,0.0081911,-0.00033204,0,0,0.049569,-0.021173,0,-0.0017266,0,0,0,0.02726,4.3497e-05,0.0081911,-0.69908,0.011832,0.024195,4.5908e-07,0.15,0.99,0
0.0098711,-0.0074102,0.02693,4.1128e-05,0.0080914,-0.00029317,0,0,0.048981,-0.020931,0,-0.0015245,0,0,0,0.026933,3.7932e-05,0.0080914,-0.6246,0.011688,0.023909,4.4286e-07,0.16,0.99,0
0.010358,-0.0075993,0.026643,3.6808e-05,0.0080041,-0.00025901,0,0,0.048462,-0.020715,0,-0.0013468,0,0,0,0.026646,3.4287e-05,0.0080041,-0.55768,0.011561,0.023656,4.2889e-07,0.17,0.99,0
0.01084,-0.007769,0.026392,3.4273e-05,0.0079278,-0.00022785,0,0,0.048006,-0.020523,0,-0.0011848,0,0,0,0.026394,3.2304e-05,0.0079278,-0.49526,0.011451,0.023433,4.1684e-07,0.18,0.99,0
0.011318,-0.0079196,0.026172,3.3265e-05,0.0078615,-0.00019826,0,0,0.047607,-0.020354,0,-0.001031,0,0,0,0.026173,3.1762e-05,0.0078615,-0.43455,0.011355,0.023238,4.065e-07,0.19,0.99,0
0.011792,-0.0080515,0.025982,3.3538e-05,0.0078048,-0.000169,0,0,0.047262,-0.020205,0,-0.0008788,0,0,0,0.025984,3.2438e-05,0.0078048,-0.37313,0.011274,0.023069,3.9771e-07,0.2,0.99,0
0.012264,-0.008165,0.025823,3.482e-05,0.0077574,-0.00013908,0,0,0.046971,-0.020079,0,-0.00072319,0,0,0,0.025824,3.407e-05,0.0077574,-0.30898,0.011205,0.022926,3.9039e-07,0.21,0.99,0
0.012732,-0.0082604,0.025694,3.678e-05,0.0077192,-0.00010775,0,0,0.046734,-0.019974,0,-0.00056032,0,0,0,0.025694,3.6327e-05,0.0077192,-0.24062,0.01115,0.022809,3.845e-07,0.22,0.99,0
0.013198,-0.0083379,0.025595,3.9001e-05,0.0076903,-7.4629e-05,0,0,0.046553,-0.019893,0,-0.00038807,0,0,0,0.025596,3.8783e-05,0.0076903,-0.16731,0.011108,0.022719,3.8005e-07,0.23,0.99,0
0.013663,-0.0083978,0.025528,4.0949e-05,0.0076708,-3.9715e-05,0,0,0.04643,-0.019838,0,-0.00020652,0,0,0,0.025528,4.0887e-05,0.0076708,-0.089279,0.01108,0.022658,3.7703e-07,0.24,0.99,0
0.014127,-0.0084406,0.025493,4.1943e-05,0.0076605,-3.5571e-06,0,0,0.046365,-0.019808,0,-1.8497e-05,0,0,0,0.025493,4.1942e-05,0.0076605,-0.0080078,0.011065,0.022625,3.7545e-07,0.25,0.99,0
0.01459,-0.0084671,0.025489,4.1103e-05,0.007659,3.2614e-05,0,0,0.046358,-0.019807,0,0.00016959,0,0,0,0.025489,4.1061e-05,0.007659,0.073431,0.011063,0.022622,3.7527e-07,0.26,0.99,0
0.015054,-0.0084781,0.025513,3.7332e-05,0.0076652,6.6698e-05,0,0,0.046405,-0.019832,0,0.00034683,0,0,0,0.025514,3.7157e-05,0.0076652,0.15,0.011072,0.022647,3.7643e-07,0.27,0.99,0
0.015518,-0.008475,0.025562,2.9294e-05,0.0076773,9.5542e-05,0,0,0.046499,-0.019885,0,0.00049682,0,0,0,0.025562,2.8936e-05,0.0076773,0.2144,0.011089,0.022697,3.7871e-07,0.28,0.99,0
0.015984,-0.0084597,0.025626,1.5599e-05,0.0076925,0.00011478,0,0,0.046627,-0.01996,0,0.00059684,0,0,0,0.025626,1.5085e-05,0.0076925,0.25677,0.011111,0.022765,3.818e-07,0.29,0.99,0
0.016451,-0.0084345,0.025694,-5.165e-06,0.0077066,0.00011893,0,0,0.046767,-0.02005,0,0.00061844,0,0,0,0.025694,-5.7154e-06,0.0077066,0.26515,0.011132,0.022842,3.8518e-07,0.3,0.99,0
0.016919,-0.0084022,0.025748,-3.2934e-05,0.0077146,0.00010197,0,0,0.046888,-0.020144,0,0.00053023,0,0,0,0.025749,-3.3337e-05,0.0077146,0.22661,0.011143,0.022913,3.8808e-07,0.31,0.99,0
0.017389,-0.0083663,0.025769,-6.4062e-05,0.0077115,5.9661e-05,0,0,0.04695,-0.020216,0,0.00031024,0,0,0,0.025769,-6.42e-05,0.0077115,0.13232,0.011139,0.022955,3.895e-07,0.32,0.99,0
0.017858,-0.0083303,0.025734,-9.0077e-05,0.0076931,-6.8775e-06,0,0,0.046906,-0.020236,0,-3.5763e-05,0,0,0,0.025734,-9.0079e-05,0.0076931,-0.015259,0.011112,0.022945,3.8831e-07,0.33,0.99,0
0.018327,-0.0082976,0.02563,-9.8956e-05,0.0076592,-8.9743e-05,0,0,0.046723,-0.020171,0,-0.00046666,0,0,0,0.02563,-9.9269e-05,0.0076592,-0.19985,0.011063,0.02286,3.8379e-07,0.34,0.99,0
0.018793,-0.0082715,0.025443,-0.00010556,0.0076012,-0.00017927,0,0,0.046388,-0.020037,0,-0.00093221,0,0,0,0.025444,-0.00010682,0.0076012,-0.40202,0.010979,0.0227,3.7562e-07,0.35,0.99,0
0.019255,-0.0082551,0.025159,-0.000132,0.0075082,-0.00028492,0,0,0.045893,-0.019865,0,-0.0014816,0,0,0,0.025163,-0.00013521,0.0075082,-0.64536,0.010845,0.022473,3.6375e-07,0.36,0.99,0
0.019711,-0.008252,0.024757,-0.00016582,0.0073774,-0.0004097,0,0,0.045187,-0.019613,0,-0.0021305,0,0,0,0.024764,-0.00017256,0.0073774,-0.94153,0.010656,0.022149,3.4731e-07,0.37,0.99,0
0.020158,-0.0082647,0.024276,-0.00010621,0.0072511,-0.00052989,0,0,0.044266,-0.019129,0,-0.0027554,0,0,0,0.024288,-0.00011773,0.0072511,-1.2444,0.010474,0.021682,3.2694e-07,0.38,0.99,0
0.020596,-0.0082935,0.02373,-1.2461e-05,0.0071152,-0.00057887,0,0,0.043198,-0.018532,0,-0.0030101,0,0,0,0.023744,-2.6565e-05,0.0071152,-1.3958,0.010278,0.021125,3.0425e-07,0.39,0.99,0
0.021022,-0.0083379,0.023134,-1.3385e-05,0.0069363,-0.0006002,0,0,0.042115,-0.018069,0,-0.0031211,0,0,0,0.02315,-2.8937e-05,0.0069363,-1.4843,0.010019,0.020599,2.8202e-07,0.4,0.99,0
0.021438,-0.008399,0.022536,-3.8461e-05,0.0067492,-0.0006135,0,0,0.041045,-0.017648,0,-0.0031902,0,0,0,0.022552,-5.5121e-05,0.0067492,-1.5556,0.0097488,0.020089,2.6107e-07,0.41,0.99,0
0.021843,-0.0084772,0.021964,3.6979e-05,0.0066003,-0.00060986,0,0,0.039945,-0.017064,0,-0.0031713,0,0,0,0.021981,2.003e-05,0.0066003,-1.5919,0.0095337,0.019521,2.4086e-07,0.42,0.99,0
0.022237,-0.0085681,0.021442,0.00020738,0.0064948,-0.00048951,0,0,0.038863,-0.016347,0,-0.0025455,0,0,0,0.021453,0.0001961,0.0064948,-1.3199,0.0093814,0.018912,2.2193e-07,0.43,0.99,0
0.02262,-0.0086633,0.021189,0.0004246,0.0064841,-0.00026599,0,0,0.038233,-0.015755,0,-0.0013831,0,0,0,0.021193,0.00042119,0.0064841,-0.73378,0.009366,0.018501,2.1138e-07,0.44,0.99,0
0.023002,-0.008763,0.020881,2.0133e-05,0.0062705,-2.6578e-05,0,0,0.037989,-0.016251,0,-0.0001382,0,0,0,0.020882,2.0099e-05,0.0062705,-0.072996,0.0090573,0.018544,2.0648e-07,0.45,0.99,0
0.02338,-0.0088764,0.020848,1.3893e-05,0.0062585,-3.8948e-05,0,0,0.037932,-0.016236,0,-0.00020253,0,0,0,0.020848,1.382e-05,0.0062585,-0.10711,0.00904,0.018519,2.0555e-07,0.46,0.99,0
0.02376,-0.0090034,0.021094,0.00042299,0.006455,0.00019749,0,0,0.03806,-0.015683,0,0.0010269,0,0,0,0.021095,0.0004211,0.006455,0.54734,0.0093238,0.018414,2.0846e-07,0.47,0.99,0
0.024141,-0.0091349,0.021284,0.00021278,0.0064491,0.00042297,0,0,0.038571,-0.016214,0,0.0021994,0,0,0,0.021293,0.00020429,0.0064491,1.1495,0.0093153,0.018762,2.1687e-07,0.48,0.99,0
0.024532,-0.0092701,0.021745,4.3995e-05,0.0065368,0.00054823,0,0,0.039542,-0.016881,0,0.0028508,0,0,0,0.021759,3.0154e-05,0.0065368,1.4462,0.0094421,0.019316,2.3353e-07,0.49,0.99,0
0.024932,-0.0094172,0.022262,-3.1416e-05,0.0066692,0.000558,0,0,0.040542,-0.017422,0,0.0029016,0,0,0,0.022276,-4.5374e-05,0.0066692,1.4329,0.0096334,0.019836,2.5149e-07,0.5,0.99,0
0.025343,-0.0095804,0.022811,-6.9635e-06,0.0068412,0.00055058,0,0,0.041521,-0.017805,0,0.002863,0,0,0,0.022824,-2.0241e-05,0.0068412,1.3814,0.0098817,0.020303,2.7018e-07,0.51,0.99,0
0.025763,-0.0097593,0.023363,-3.977e-06,0.0070076,0.00053598,0,0,0.042523,-0.01823,0,0.0027871,0,0,0,0.023375,-1.6265e-05,0.0070076,1.3133,0.010122,0.020789,2.9015e-07,0.52,0.99,0
0.026193,-0.0099524,0.023874,-9.4135e-05,0.0071338,0.00049593,0,0,0.043523,-0.018793,0,0.0025788,0,0,0,0.023884,-0.00010439,0.0071338,1.1849,0.010304,0.021312,3.1073e-07,0.53,0.99,0
0.026633,-0.01016,0.024328,-0.00015181,0.0072528,0.00038712,0,0,0.044395,-0.019252,0,0.002013,0,0,0,0.024334,-0.00015793,0.0072528,0.90577,0.010476,0.021755,3.2937e-07,0.54,0.99,0
0.027081,-0.010382,0.024714,-0.00011776,0.0073788,0.00027458,0,0,0.045071,-0.019491,0,0.0014278,0,0,0,0.024717,-0.0001208,0.0073788,0.63346,0.010658,0.022065,3.4458e-07,0.55,0.99,0
0.027534,-0.010616,0.024993,-9.0805e-05,0.0074706,0.00018164,0,0,0.045558,-0.01966,0,0.00094452,0,0,0,0.024994,-9.212e-05,0.0074706,0.41486,0.010791,0.022289,3.5586e-07,0.56,0.99,0
0.027992,-0.010858,0.025187,-8.3579e-05,0.0075312,0.00010526,0,0,0.045906,-0.019798,0,0.00054737,0,0,0,0.025188,-8.4017e-05,0.0075312,0.23865,0.010878,0.022455,3.6406e-07,0.57,0.99,0
0.028453,-0.011105,0.025311,-7.4631e-05,0.0075709,3.5844e-05,0,0,0.046124,-0.019878,0,0.00018639,0,0,0,0.025311,-7.4682e-05,0.0075709,0.0809,0.010936,0.022557,3.6927e-07,0.58,0.99,0
0.028915,-0.011354,0.025378,-4.9346e-05,0.0075985,-1.7553e-05,0,0,0.046226,-0.019884,0,-9.1275e-05,0,0,0,0.025378,-4.9358e-05,0.0075985,-0.039552,0.010976,0.022596,3.718e-07,0.59,0.99,0
0.029377,-0.011602,0.0254,-1.9441e-05,0.0076142,-4.7552e-05,0,0,0.046243,-0.019848,0,-0.00024727,0,0,0,0.0254,-1.953e-05,0.0076142,-0.10718,0.010998,0.022592,3.7232e-07,0.6,0.99,0
0.02984,-0.011845,0.025399,6.8569e-06,0.0076218,-5.3374e-05,0,0,0.046221,-0.019799,0,-0.00027755,0,0,0,0.025399,6.7448e-06,0.0076218,-0.12043,0.011009,0.02257,3.7187e-07,0.61,0.99,0
0.030302,-0.012081,0.025395,2.6016e-05,0.0076261,-3.942e-05,0,0,0.046198,-0.01976,0,-0.00020498,0,0,0,0.025395,2.5955e-05,0.0076261,-0.089031,0.011015,0.02255,3.7136e-07,0.62,0.99,0
0.030763,-0.012307,0.025401,3.7983e-05,0.0076318,-1.1842e-05,0,0,0.046201,-0.019744,0,-6.158e-05,0,0,0,0.025401,3.7978e-05,0.0076318,-0.026752,0.011024,0.022547,3.7147e-07,0.63,0.99,0
0.031226,-0.012521,0.025431,4.413e-05,0.0076424,2.3759e-05,0,0,0.046249,-0.019755,0,0.00012355,0,0,0,0.025431,4.4107e-05,0.0076424,0.053624,0.011039,0.022568,3.7265e-07,0.64,0.99,0
0.031689,-0.012722,0.025488,4.5786e-05,0.0076603,6.2846e-05,0,0,0.046353,-0.019798,0,0.0003268,0,0,0,0.025489,4.5631e-05,0.0076603,0.14153,0.011065,0.022618,3.7519e-07,0.65,0.99,0
0.032153,-0.012909,0.025578,4.4227e-05,0.0076866,0.00010205,0,0,0.046517,-0.01987,0,0.00053063,0,0,0,0.025578,4.3819e-05,0.0076866,0.22898,0.011103,0.0227,3.792e-07,0.66,0.99,0
0.032619,-0.013082,0.025699,4.0491e-05,0.0077219,0.00013898,0,0,0.046741,-0.019972,0,0.00072269,0,0,0,0.0257,3.9738e-05,0.0077219,0.31033,0.011154,0.022811,3.847e-07,0.67,0.99,0
0.033087,-0.01324,0.02585,3.5405e-05,0.0077658,0.0001721,0,0,0.04702,-0.020099,0,0.0008949,0,0,0,0.025852,3.4257e-05,0.0077658,0.38194,0.011217,0.02295,3.9165e-07,0.68,0.99,0
0.033559,-0.013385,0.026029,2.9602e-05,0.0078175,0.00020048,0,0,0.047349,-0.020249,0,0.0010425,0,0,0,0.02603,2.8056e-05,0.0078175,0.44178,0.011292,0.023114,3.9993e-07,0.69,0.99,0
0.034035,-0.013517,0.02623,2.3562e-05,0.0078761,0.00022372,0,0,0.04772,-0.020417,0,0.0011633,0,0,0,0.026232,2.1652e-05,0.0078761,0.48907,0.011377,0.023298,4.0941e-07,0.7,0.99,0
0.034514,-0.013635,0.02645,1.7639e-05,0.0079403,0.00024174,0,0,0.048125,-0.020599,0,0.001257,0,0,0,0.026452,1.5428e-05,0.0079403,0.52394,0.011469,0.023499,4.1992e-07,0.71,0.99,0
0.034997,-0.013742,0.026684,1.2079e-05,0.0080089,0.00025475,0,0,0.048556,-0.020792,0,0.0013247,0,0,0,0.026687,9.6464e-06,0.0080089,0.54717,0.011568,0.023712,4.3129e-07,0.72,0.99,0
0.035485,-0.013838,0.026929,7.0381e-06,0.0080807,0.00026314,0,0,0.049005,-0.020992,0,0.0013683,0,0,0,0.026931,4.4664e-06,0.0080807,0.55994,0.011672,0.023933,4.4335e-07,0.73,0.99,0
0.035977,-0.013924,0.027179,2.5973e-06,0.0081546,0.00026738,0,0,0.049465,-0.021195,0,0.0013904,0,0,0,0.027182,-3.306e-08,0.0081546,0.56363,0.011779,0.02416,4.5593e-07,0.74,0.99,0
0.036474,-0.014,0.027433,-1.2171e-06,0.0082294,0.00026801,0,0,0.049929,-0.0214,0,0.0013937,0,0,0,0.027435,-3.8352e-06,0.0082294,0.55968,0.011887,0.024388,4.6886e-07,0.75,0.99,0
0.036976,-0.014067,0.027686,-4.419e-06,0.0083044,0.00026558,0,0,0.050391,-0.021603,0,0.001381,0,0,0,0.027688,-6.966e-06,0.0083044,0.54947,0.011995,0.024615,4.82e-07,0.76,0.99,0
0.037482,-0.014127,0.027935,-7.0483e-06,0.0083785,0.0002606,0,0,0.050848,-0.021802,0,0.0013551,0,0,0,0.027938,-9.4785e-06,0.0083785,0.53429,0.012102,0.024839,4.9521e-07,0.77,0.99,0
0.037993,-0.01418,0.02818,-9.1599e-06,0.0084513,0.00025354,0,0,0.051295,-0.021997,0,0.0013184,0,0,0,0.028182,-1.144e-05,0.0084513,0.51528,0.012207,0.025058,5.0836e-07,0.78,0.99,0
0.038508,-0.014227,0.028418,-1.0815e-05,0.0085221,0.00024483,0,0,0.051729,-0.022186,0,0.0012731,0,0,0,0.02842,-1.2924e-05,0.0085221,0.49339,0.01231,0.02527,5.2134e-07,0.79,0.99,0
0.039027,-0.014268,0.028647,-1.2078e-05,0.0085904,0.00023484,0,0,0.052147,-0.022367,0,0.0012212,0,0,0,0.028649,-1.4002e-05,0.0085904,0.46947,0.012408,0.025475,5.3406e-07,0.8,0.99,0
0.039551,-0.014304,0.028866,-1.3008e-05,0.008656,0.0002239,0,0,0.052547,-0.022539,0,0.0011643,0,0,0,0.028868,-1.4744e-05,0.008656,0.44417,0.012503,0.02567,5.4643e-07,0.81,0.99,0
0.040078,-0.014335,0.029075,-1.3662e-05,0.0087185,0.00021225,0,0,0.052928,-0.022704,0,0.0011037,0,0,0,0.029077,-1.5211e-05,0.0087185,0.41804,0.012593,0.025856,5.5839e-07,0.82,0.99,0
0.040609,-0.014362,0.029273,-1.4091e-05,0.0087778,0.00020013,0,0,0.053289,-0.022859,0,0.0010407,0,0,0,0.029275,-1.5458e-05,0.0087778,0.3915,0.012679,0.026032,5.6987e-07,0.83,0.99,0
0.041144,-0.014386,0.02946,-1.4338e-05,0.0088337,0.00018772,0,0,0.053628,-0.023005,0,0.00097613,0,0,0,0.029461,-1.5533e-05,0.0088337,0.36489,0.01276,0.026198,5.8082e-07,0.84,0.99,0
0.041682,-0.014407,0.029635,-1.4443e-05,0.008886,0.00017515,0,0,0.053946,-0.023141,0,0.00091076,0,0,0,0.029636,-1.5477e-05,0.008886,0.33845,0.012835,0.026353,5.912e-07,0.85,0.99,0
0.042223,-0.014424,0.029797,-1.4438e-05,0.0089349,0.00016253,0,0,0.054242,-0.023268,0,0.00084515,0,0,0,0.029798,-1.5324e-05,0.0089349,0.31235,0.012906,0.026498,6.0098e-07,0.86,0.99,0
0.042767,-0.01444,0.029948,-1.4351e-05,0.0089802,0.00014995,0,0,0.054517,-0.023386,0,0.00077974,0,0,0,0.029949,-1.5102e-05,0.0089802,0.28673,0.012971,0.026631,6.1014e-07,0.87,0.99,0
0.043313,-0.014453,0.030087,-1.4206e-05,0.0090219,0.00013747,0,0,0.05477,-0.023494,0,0.00071485,0,0,0,0.030088,-1.4834e-05,0.0090219,0.26166,0.013032,0.026754,6.1865e-07,0.88,0.99,0
0.043862,-0.014464,0.030214,-1.4023e-05,0.00906,0.00012513,0,0,0.055001,-0.023592,0,0.0006507,0,0,0,0.030215,-1.4541e-05,0.00906,0.23718,0.013087,0.026867,6.2651e-07,0.89,0.99,0
0.044413,-0.014474,0.030329,-1.3816e-05,0.0090947,0.00011297,0,0,0.05521,-0.023682,0,0.00058743,0,0,0,0.03033,-1.4236e-05,0.0090947,0.21331,0.013137,0.026969,6.3369e-07,0.9,0.99,0
0.044966,-0.014482,0.030433,-1.3599e-05,0.0091258,0.00010099,0,0,0.055399,-0.023763,0,0.00052512,0,0,0,0.030433,-1.3934e-05,0.0091258,0.19004,0.013182,0.027061,6.402e-07,0.91,0.99,0
0.045521,-0.014488,0.030525,-1.3384e-05,0.0091536,8.9192e-05,0,0,0.055566,-0.023834,0,0.0004638,0,0,0,0.030526,-1.3644e-05,0.0091536,0.16734,0.013222,0.027143,6.4602e-07,0.92,0.99,0
0.046078,-0.014494,0.030606,-1.3177e-05,0.0091779,7.7582e-05,0,0,0.055714,-0.023897,0,0.00040343,0,0,0,0.030606,-1.3374e-05,0.0091779,0.14517,0.013257,0.027214,6.5116e-07,0.93,0.99,0
0.046635,-0.014499,0.030676,-1.2987e-05,0.0091989,6.6146e-05,0,0,0.055841,-0.023951,0,0.00034396,0,0,0,0.030676,-1.313e-05,0.0091989,0.12349,0.013287,0.027276,6.5562e-07,0.94,0.99,0
0.047194,-0.014502,0.030735,-1.2818e-05,0.0092166,5.4865e-05,0,0,0.055947,-0.023997,0,0.0002853,0,0,0,0.030735,-1.2916e-05,0.0092166,0.10224,0.013313,0.027328,6.5939e-07,0.95,0.99,0
0.047754,-0.014505,0.030783,-1.2675e-05,0.009231,4.3722e-05,0,0,0.056034,-0.024034,0,0.00022735,0,0,0,0.030783,-1.2737e-05,0.009231,0.081345,0.013334,0.02737,6.6247e-07,0.96,0.99,0
0.048315,-0.014508,0.03082,-1.2561e-05,0.0092422,3.269e-05,0,0,0.056102,-0.024062,0,0.00016999,0,0,0,0.03082,-1.2596e-05,0.0092422,0.060748,0.01335,0.027403,6.6486e-07,0.97,0.99,0
0.048876,-0.014509,0.030846,-1.2478e-05,0.0092502,2.1745e-05,0,0,0.05615,-0.024083,0,0.00011307,0,0,0,0.030846,-1.2493e-05,0.0092502,0.040373,0.013361,0.027427,6.6657e-07,0.98,0.99,0
0.049438,-0.01451,0.030862,-1.2427e-05,0.0092549,1.0858e-05,0,0,0.056179,-0.024095,0,5.6459e-05,0,0,0,0.030862,-1.2431e-05,0.0092549,0.020149,0.013368,0.027441,6.676e-07,0.99,0.99,0
0.05,-0.01451,0.030867,-1.241e-05,0.0092565,-5.7587e-06,0,0,0.056189,-0.024099,0,-2.9945e-05,0,0,0,0.030867,-1.2411e-05,0.0092565,-0.010685,0.013371,0.027446,6.6794e-07,1,0.99,0
0,0,0.088583,0.037964,0.037964,-0.02482,0,0,0.13161,-6.9389e-18,0,-0.12906,0,0,0,0.098722,0.027825,0.037964,-22.22,0.054837,0.06641,1.3868e-05,0,1,0
0.0013161,-0.0012906,0.063801,0.0046089,0.020523,-0.0098209,0,0,0.11252,-0.041377,0,-0.051069,0,0,0,0.065388,0.003022,0.020523,-9.1787,0.029644,0.055717,6.0182e-06,0.01,1,0
0.0022505,-0.0020995,0.047569,0.0020024,0.014871,-0.0032276,0,0,0.085014,-0.03346,0,-0.016783,0,0,0,0.047797,0.0017749,0.014871,-4.0315,0.021481,0.041071,2.3765e-06,0.02,1,0
0.0030164,-0.0028055,0.039898,-1.873e-05,0.011964,-0.0019754,0,0,0.07263,-0.031155,0,-0.010272,0,0,0,0.039996,-0.00011625,0.011964,-2.8263,0.017281,0.035642,1.4569e-06,0.03,1,0
0.0037031,-0.003417,0.036216,-0.00025611,0.010788,-0.0012477,0,0,0.066112,-0.028714,0,-0.0064882,0,0,0,0.036258,-0.00029874,0.010788,-1.9571,0.015583,0.032466,1.0916e-06,0.04,1,0
0.0043386,-0.0039634,0.033784,-0.0003624,0.010027,-0.00089082,0,0,0.06177,-0.027011,0,-0.0046322,0,0,0,0.033808,-0.00038563,0.010027,-1.4934,0.014483,0.030357,8.8779e-07,0.05,1,0
0.0049385,-0.0044573,0.032062,-0.00037601,0.0095057,-0.00066749,0,0,0.058646,-0.025693,0,-0.0034709,0,0,0,0.032075,-0.00038974,0.0095057,-1.1783,0.01373,0.028821,7.5879e-07,0.06,1,0
0.0055115,-0.0049073,0.030755,-0.00037047,0.0091154,-0.00052043,0,0,0.056264,-0.024663,0,-0.0027062,0,0,0,0.030764,-0.00037917,0.0091154,-0.95764,0.013167,0.027647,6.6958e-07,0.07,1,0
0.0060637,-0.0053194,0.029729,-0.00035676,0.0088116,-0.00041691,0,0,0.054384,-0.023838,0,-0.0021679,0,0,0,0.029734,-0.00036254,0.0088116,-0.79377,0.012728,0.026718,6.045e-07,0.08,1,0
0.0065992,-0.0056979,0.0289,-0.00034127,0.0085675,-0.00034124,0,0,0.052864,-0.023163,0,-0.0017744,0,0,0,0.028904,-0.00034525,0.0085675,-0.66851,0.012375,0.025966,5.5509e-07,0.09,1,0
0.007121,-0.0060462,0.028216,-0.00032604,0.008367,-0.00028423,0,0,0.051608,-0.022602,0,-0.001478,0,0,0,0.028219,-0.00032887,0.008367,-0.57049,0.012086,0.025345,5.1642e-07,0.1,1,0
0.0076314,-0.0063668,0.027643,-0.00031198,0.0081992,-0.0002403,0,0,0.050553,-0.022129,0,-0.0012496,0,0,0,0.027645,-0.00031405,0.0081992,-0.49248,0.011843,0.024822,4.8538e-07,0.11,1,0
0.0081321,-0.0066618,0.027154,-0.00029943,0.0080564,-0.00020581,0,0,0.049654,-0.021725,0,-0.0010702,0,0,0,0.027156,-0.00030097,0.0080564,-0.4295,0.011637,0.024377,4.5994e-07,0.12,1,0
0.0086244,-0.006933,0.026732,-0.00028843,0.0079332,-0.00017827,0,0,0.048878,-0.021376,0,-0.00092699,0,0,0,0.026734,-0.00028961,0.0079332,-0.37798,0.011459,0.023993,4.3872e-07,0.13,1,0
0.0091096,-0.0071817,0.026364,-0.00027894,0.0078256,-0.00015587,0,0,0.048201,-0.021072,0,-0.00081055,0,0,0,0.026365,-0.00027985,0.0078256,-0.33519,0.011304,0.023658,4.2073e-07,0.14,1,0
0.0095885,-0.0074091,0.02604,-0.00027083,0.0077307,-0.00013729,0,0,0.047604,-0.020804,0,-0.00071389,0,0,0,0.026041,-0.00027154,0.0077307,-0.29895,0.011167,0.023363,4.0531e-07,0.15,1,0
0.010062,-0.0076159,0.025752,-0.00026391,0.0076465,-0.00012144,0,0,0.047075,-0.020567,0,-0.0006315,0,0,0,0.025753,-0.00026448,0.0076465,-0.26744,0.011045,0.023101,3.9195e-07,0.16,1,0
0.01053,-0.0078029,0.025497,-0.00025799,0.0075716,-0.00010747,0,0,0.046605,-0.020357,0,-0.00055886,0,0,0,0.025497,-0.00025844,0.0075716,-0.23909,0.010937,0.022869,3.8034e-07,0.17,1,0
0.010994,-0.0079707,0.02527,-0.00025279,0.0075052,-9.4644e-05,0,0,0.046189,-0.020171,0,-0.00049215,0,0,0,0.025271,-0.00025314,0.0075052,-0.21246,0.010841,0.022663,3.7024e-07,0.18,1,0
0.011454,-0.0081196,0.025071,-0.00024802,0.007447,-8.232e-05,0,0,0.045823,-0.020007,0,-0.00042806,0,0,0,0.025072,-0.00024829,0.007447,-0.18628,0.010757,0.022483,3.6152e-07,0.19,1,0
0.01191,-0.0082501,0.024901,-0.00024333,0.0073972,-6.9953e-05,0,0,0.045509,-0.019865,0,-0.00036376,0,0,0,0.024901,-0.00024352,0.0073972,-0.1594,0.010685,0.022327,3.5414e-07,0.2,1,0
0.012364,-0.0083625,0.02476,-0.0002383,0.0073564,-5.7092e-05,0,0,0.045248,-0.019746,0,-0.00029688,0,0,0,0.02476,-0.00023843,0.0073564,-0.13085,0.010626,0.022198,3.481e-07,0.21,1,0
0.012815,-0.0084569,0.024651,-0.00023248,0.0073256,-4.3391e-05,0,0,0.045046,-0.019651,0,-0.00022563,0,0,0,0.024651,-0.00023255,0.0073256,-0.099909,0.010581,0.022096,3.4347e-07,0.22,1,0
0.013265,-0.0085337,0.024578,-0.00022534,0.0073058,-2.8646e-05,0,0,0.044908,-0.019581,0,-0.00014896,0,0,0,0.024578,-0.00022538,0.0073058,-0.066171,0.010553,0.022026,3.4034e-07,0.23,1,0
0.013713,-0.0085932,0.024545,-0.00021634,0.0072986,-1.2833e-05,0,0,0.04484,-0.019539,0,-6.673e-05,0,0,0,0.024545,-0.00021635,0.0072986,-0.029694,0.010542,0.021989,3.3883e-07,0.24,1,0
0.014162,-0.0086359,0.024555,-0.0002049,0.0073051,3.8352e-06,0,0,0.04485,-0.019526,0,1.9943e-05,0,0,0,0.024555,-0.0002049,0.0073051,0.0088747,0.010552,0.021989,3.3909e-07,0.25,1,0
0.01461,-0.0086625,0.024612,-0.00019048,0.0073264,2.083e-05,0,0,0.044942,-0.019544,0,0.00010832,0,0,0,0.024612,-0.0001905,0.0073264,0.04812,0.010583,0.022028,3.4123e-07,0.26,1,0
0.01506,-0.008674,0.024716,-0.0001727,0.007363,3.722e-05,0,0,0.045118,-0.019593,0,0.00019354,0,0,0,0.024716,-0.00017275,0.007363,0.085682,0.010636,0.022106,3.4531e-07,0.27,1,0
0.015513,-0.0086717,0.024866,-0.0001514,0.0074144,5.1546e-05,0,0,0.045374,-0.019671,0,0.00026804,0,0,0,0.024866,-0.0001515,0.0074144,0.11805,0.01071,0.022223,3.5131e-07,0.28,1,0
0.015968,-0.0086574,0.025055,-0.00012697,0.0074784,6.1766e-05,0,0,0.045699,-0.019774,0,0.00032118,0,0,0,0.025055,-0.00012712,0.0074784,0.14053,0.010802,0.022371,3.5899e-07,0.29,1,0
0.016427,-0.0086334,0.025269,-0.00010031,0.0075507,6.5217e-05,0,0,0.046068,-0.019893,0,0.00033913,0,0,0,0.025269,-0.00010048,0.0075507,0.14729,0.010906,0.02254,3.6785e-07,0.3,1,0
0.016889,-0.0086024,0.025487,-7.2423e-05,0.0076245,5.9165e-05,0,0,0.046443,-0.020012,0,0.00030766,0,0,0,0.025487,-7.256e-05,0.0076245,0.13263,0.011013,0.022712,3.7701e-07,0.31,1,0
0.017356,-0.0085674,0.025682,-4.3281e-05,0.0076916,4.1942e-05,0,0,0.046775,-0.020111,0,0.0002181,0,0,0,0.025682,-4.3349e-05,0.0076916,0.093414,0.01111,0.022861,3.8523e-07,0.32,1,0
0.017825,-0.0085319,0.025828,-9.0865e-06,0.0077456,1.4305e-05,0,0,0.047014,-0.020162,0,7.4386e-05,0,0,0,0.025828,-9.0945e-06,0.0077456,0.031723,0.011188,0.022964,3.9127e-07,0.33,1,0
0.018296,-0.0084991,0.025904,2.9624e-05,0.00778,-1.9572e-05,0,0,0.047122,-0.020151,0,-0.00010177,0,0,0,0.025904,2.9609e-05,0.00778,-0.04334,0.011238,0.023,3.9409e-07,0.34,1,0
0.018767,-0.0084722,0.025892,6.7359e-05,0.0077879,-5.9417e-05,0,0,0.047072,-0.020073,0,-0.00030897,0,0,0,0.025892,6.7222e-05,0.0077879,-0.13182,0.011249,0.02296,3.9297e-07,0.35,1,0
0.019237,-0.0084544,0.025765,9.0257e-05,0.0077566,-0.00010611,0,0,0.046822,-0.019932,0,-0.00055179,0,0,0,0.025766,8.9818e-05,0.0077566,-0.2368,0.011204,0.022829,3.8684e-07,0.36,1,0
0.019704,-0.0084488,0.025507,0.00011686,0.007687,-0.00016367,0,0,0.046331,-0.019682,0,-0.00085108,0,0,0,0.025507,0.0001158,0.007687,-0.36933,0.011103,0.022579,3.7491e-07,0.37,1,0
0.020164,-0.0084577,0.025119,0.00015944,0.0075834,-0.00020937,0,0,0.045592,-0.019302,0,-0.0010887,0,0,0,0.02512,0.00015768,0.0075834,-0.48059,0.010954,0.022202,3.5742e-07,0.38,1,0
0.020616,-0.0084819,0.02464,0.00020853,0.0074544,-0.00023896,0,0,0.044681,-0.018839,0,-0.0012426,0,0,0,0.024642,0.00020619,0.0074544,-0.56035,0.010767,0.021738,3.3661e-07,0.39,1,0
0.021058,-0.0085219,0.024082,0.00021103,0.007288,-0.00024879,0,0,0.043665,-0.0184,0,-0.0012937,0,0,0,0.024085,0.00020844,0.007288,-0.59706,0.010527,0.021241,3.1419e-07,0.4,1,0
0.021489,-0.0085784,0.023448,0.00018716,0.0070905,-0.00026968,0,0,0.042529,-0.017949,0,-0.0014023,0,0,0,0.023451,0.00018403,0.0070905,-0.66415,0.010242,0.020697,2.9029e-07,0.41,1,0
0.021908,-0.0086512,0.022771,0.00019792,0.0068908,-0.0002648,0,0,0.041289,-0.017401,0,-0.001377,0,0,0,0.022774,0.00019481,0.0068908,-0.672,0.0099533,0.020087,2.6568e-07,0.42,1,0
0.022315,-0.008736,0.022229,0.00030262,0.0067593,-0.00021402,0,0,0.04022,-0.016788,0,-0.0011129,0,0,0,0.022231,0.00030053,0.0067593,-0.5592,0.0097635,0.019519,2.4574e-07,0.43,1,0
0.022713,-0.0088285,0.021876,0.00029556,0.0066515,-8.205e-05,0,0,0.039584,-0.016525,0,-0.00042666,0,0,0,0.021876,0.00029525,0.0066515,-0.21784,0.0096077,0.019209,2.3419e-07,0.44,1,0
0.023106,-0.0089288,0.02173,0.00020259,0.0065798,-4.1832e-05,0,0,0.039391,-0.016581,0,-0.00021752,0,0,0,0.02173,0.00020251,0.0065798,-0.11134,0.0095041,0.019152,2.3058e-07,0.45,1,0
0.0235,-0.009042,0.021694,0.00019995,0.0065681,1.3046e-05,0,0,0.039327,-0.016557,0,6.7838e-05,0,0,0,0.021694,0.00019994,0.0065681,0.034776,0.0094873,0.019122,2.2946e-07,0.46,1,0
0.023893,-0.0091679,0.021767,0.00029103,0.0066173,5.2198e-05,0,0,0.039388,-0.016448,0,0.00027143,0,0,0,0.021767,0.0002909,0.0066173,0.13926,0.0095583,0.019115,2.3072e-07,0.47,1,0
0.024288,-0.0093014,0.022045,0.00029819,0.0067028,0.00018433,0,0,0.039889,-0.016652,0,0.00095854,0,0,0,0.022046,0.00029663,0.0067028,0.48563,0.0096819,0.019358,2.3969e-07,0.48,1,0
0.024691,-0.0094422,0.022515,0.00019197,0.006812,0.00023749,0,0,0.040827,-0.017212,0,0.001235,0,0,0,0.022517,0.00018945,0.006812,0.60947,0.0098396,0.019863,2.5682e-07,0.49,1,0
0.025105,-0.0095943,0.023125,0.0001783,0.006991,0.00024514,0,0,0.041949,-0.017713,0,0.0012747,0,0,0,0.023128,0.00017568,0.006991,0.61199,0.010098,0.020416,2.7853e-07,0.5,1,0
0.02553,-0.0097616,0.023701,0.00019984,0.0071703,0.00022707,0,0,0.04298,-0.018123,0,0.0011807,0,0,0,0.023703,0.00019765,0.0071703,0.55351,0.010357,0.02091,2.996e-07,0.51,1,0
0.025964,-0.0099445,0.024208,0.00019637,0.0073213,0.00022017,0,0,0.043905,-0.018525,0,0.0011449,0,0,0,0.02421,0.00019435,0.0073213,0.52531,0.010575,0.021363,3.1933e-07,0.52,1,0
0.026408,-0.010142,0.024645,0.00014722,0.0074377,0.00019457,0,0,0.044739,-0.018955,0,0.0010118,0,0,0,0.024647,0.00014567,0.0074377,0.45503,0.010743,0.02179,3.3771e-07,0.53,1,0
0.026859,-0.010353,0.025002,0.00010445,0.007532,0.00015379,0,0,0.045422,-0.019312,0,0.00079973,0,0,0,0.025003,0.0001035,0.007532,0.3539,0.01088,0.022141,3.5326e-07,0.54,1,0
0.027316,-0.010578,0.025243,7.7763e-05,0.0075964,0.00010179,0,0,0.045882,-0.019548,0,0.00052933,0,0,0,0.025244,7.7351e-05,0.0075964,0.23175,0.010972,0.022375,3.6398e-07,0.55,1,0
0.027777,-0.010813,0.025368,5.5415e-05,0.0076271,6.0829e-05,0,0,0.046127,-0.019686,0,0.00031631,0,0,0,0.025368,5.5268e-05,0.0076271,0.13769,0.011017,0.022504,3.6975e-07,0.56,1,0
0.028239,-0.011056,0.025392,1.9172e-05,0.0076235,2.6925e-05,0,0,0.046199,-0.019771,0,0.00014001,0,0,0,0.025392,1.9143e-05,0.0076235,0.0608,0.011012,0.022554,3.7137e-07,0.57,1,0
0.028701,-0.011303,0.025345,-1.7396e-05,0.0075983,-9.1334e-07,0,0,0.046142,-0.019801,0,-4.7494e-06,0,0,0,0.025345,-1.7396e-05,0.0075983,-0.0020633,0.010975,0.022541,3.6987e-07,0.58,1,0
0.029161,-0.011552,0.025243,-4.885e-05,0.0075584,-2.261e-05,0,0,0.045981,-0.019779,0,-0.00011757,0,0,0,0.025243,-4.887e-05,0.0075584,-0.051219,0.010918,0.022476,3.6593e-07,0.59,1,0
0.02962,-0.011799,0.025108,-7.4594e-05,0.0075101,-3.4241e-05,0,0,0.045755,-0.01972,0,-0.00017805,0,0,0,0.025108,-7.464e-05,0.0075101,-0.077906,0.010848,0.022376,3.6047e-07,0.6,1,0
0.030077,-0.012042,0.024964,-9.8322e-05,0.0074596,-3.5206e-05,0,0,0.045511,-0.019651,0,-0.00018307,0,0,0,0.024964,-9.8371e-05,0.0074596,-0.080487,0.010775,0.022267,3.5465e-07,0.61,1,0
0.03053,-0.012277,0.024836,-0.00012004,0.0074148,-2.7251e-05,0,0,0.045295,-0.019591,0,-0.0001417,0,0,0,0.024836,-0.00012007,0.0074148,-0.062564,0.01071,0.022171,3.4956e-07,0.62,1,0
0.030982,-0.012502,0.024745,-0.00013877,0.0073818,-1.3155e-05,0,0,0.045144,-0.019554,0,-6.8407e-05,0,0,0,0.024745,-0.00013878,0.0073818,-0.03029,0.010663,0.022105,3.4601e-07,0.63,1,0
0.031433,-0.012717,0.024702,-0.00015365,0.0073646,4.3723e-06,0,0,0.045078,-0.019547,0,2.2736e-05,0,0,0,0.024702,-0.00015365,0.0073646,0.010079,0.010638,0.022079,3.4446e-07,0.64,1,0
0.031884,-0.012918,0.024714,-0.00016429,0.0073649,2.3223e-05,0,0,0.045108,-0.019576,0,0.00012076,0,0,0,0.024714,-0.00016431,0.0073649,0.053483,0.010638,0.022098,3.451e-07,0.65,1,0
0.032336,-0.013105,0.024779,-0.00017084,0.0073826,4.1847e-05,0,0,0.045232,-0.019639,0,0.0002176,0,0,0,0.024779,-0.00017091,0.0073826,0.096097,0.010664,0.022161,3.4794e-07,0.66,1,0
0.032789,-0.013279,0.024896,-0.0001737,0.0074166,5.9198e-05,0,0,0.045446,-0.019735,0,0.00030783,0,0,0,0.024896,-0.00017384,0.0074166,0.13529,0.010713,0.022267,3.529e-07,0.67,1,0
0.033245,-0.013439,0.025057,-0.00017338,0.0074652,7.4611e-05,0,0,0.04574,-0.01986,0,0.00038798,0,0,0,0.025058,-0.0001736,0.0074652,0.16943,0.010783,0.02241,3.598e-07,0.68,1,0
0.033703,-0.013585,0.025258,-0.00017044,0.0075263,8.7718e-05,0,0,0.046103,-0.020012,0,0.00045613,0,0,0,0.025258,-0.00017075,0.0075263,0.19764,0.010871,0.022587,3.6845e-07,0.69,1,0
0.034167,-0.013718,0.025491,-0.00016542,0.0075976,9.8368e-05,0,0,0.046522,-0.020184,0,0.00051151,0,0,0,0.025491,-0.0001658,0.0075976,0.21967,0.010974,0.02279,3.7863e-07,0.7,1,0
0.034634,-0.013839,0.025749,-0.00015881,0.007677,0.00010657,0,0,0.046986,-0.020373,0,0.00055417,0,0,0,0.025749,-0.00015925,0.007677,0.23568,0.011089,0.023014,3.9011e-07,0.71,1,0
0.035106,-0.013948,0.026025,-0.00015105,0.0077622,0.00011245,0,0,0.047483,-0.020574,0,0.00058474,0,0,0,0.026026,-0.00015153,0.0077622,0.24613,0.011212,0.023253,4.0265e-07,0.72,1,0
0.035584,-0.014046,0.026314,-0.00014253,0.0078514,0.0001162,0,0,0.048002,-0.020784,0,0.00060424,0,0,0,0.026314,-0.00014304,0.0078514,0.25165,0.011341,0.023503,4.1604e-07,0.73,1,0
0.036066,-0.014134,0.02661,-0.00013356,0.0079428,0.00011806,0,0,0.048534,-0.020998,0,0.00061393,0,0,0,0.02661,-0.00013408,0.0079428,0.25294,0.011473,0.023759,4.3005e-07,0.74,1,0
0.036554,-0.014212,0.026908,-0.00012441,0.008035,0.00011829,0,0,0.049069,-0.021215,0,0.00061511,0,0,0,0.026908,-0.00012492,0.008035,0.25072,0.011606,0.024016,4.4448e-07,0.75,1,0
0.037048,-0.014282,0.027204,-0.00011528,0.0081268,0.00011714,0,0,0.049602,-0.021429,0,0.00060912,0,0,0,0.027205,-0.00011579,0.0081268,0.24566,0.011739,0.024273,4.5916e-07,0.76,1,0
0.037546,-0.014344,0.027496,-0.00010635,0.008217,0.00011485,0,0,0.050126,-0.021641,0,0.00059721,0,0,0,0.027497,-0.00010683,0.008217,0.23839,0.011869,0.024525,4.7391e-07,0.77,1,0
0.03805,-0.014399,0.027781,-9.7728e-05,0.0083049,0.00011164,0,0,0.050637,-0.021847,0,0.00058052,0,0,0,0.027781,-9.8175e-05,0.0083049,0.22943,0.011996,0.024771,4.8858e-07,0.78,1,0
0.038559,-0.014447,0.028056,-8.9504e-05,0.0083899,0.0001077,0,0,0.051131,-0.022046,0,0.00056006,0,0,0,0.028056,-8.9916e-05,0.0083899,0.21925,0.012119,0.025009,5.0306e-07,0.79,1,0
0.039073,-0.01449,0.02832,-8.1736e-05,0.0084714,0.00010321,0,0,0.051606,-0.022238,0,0.00053671,0,0,0,0.02832,-8.2111e-05,0.0084714,0.20821,0.012237,0.025237,5.1722e-07,0.8,1,0
0.039591,-0.014528,0.028571,-7.4459e-05,0.0085491,9.8309e-05,0,0,0.052058,-0.022421,0,0.00051121,0,0,0,0.028572,-7.4796e-05,0.0085491,0.19663,0.012349,0.025455,5.3098e-07,0.81,1,0
0.040114,-0.014561,0.02881,-6.769e-05,0.0086227,9.3112e-05,0,0,0.052487,-0.022595,0,0.00048418,0,0,0,0.02881,-6.799e-05,0.0086227,0.18474,0.012455,0.025662,5.4424e-07,0.82,1,0
0.040641,-0.01459,0.029035,-6.1432e-05,0.0086921,8.7717e-05,0,0,0.052892,-0.022759,0,0.00045613,0,0,0,0.029035,-6.1697e-05,0.0086921,0.17273,0.012555,0.025857,5.5696e-07,0.83,1,0
0.041172,-0.014615,0.029247,-5.5681e-05,0.0087572,8.2206e-05,0,0,0.053272,-0.022914,0,0.00042747,0,0,0,0.029247,-5.5911e-05,0.0087572,0.16074,0.012649,0.02604,5.6907e-07,0.84,1,0
0.041706,-0.014637,0.029444,-5.0421e-05,0.0088179,7.6639e-05,0,0,0.053627,-0.023058,0,0.00039852,0,0,0,0.029444,-5.062e-05,0.0088179,0.14888,0.012737,0.026211,5.8053e-07,0.85,1,0
0.042244,-0.014656,0.029627,-4.5636e-05,0.0088743,7.1064e-05,0,0,0.053956,-0.023192,0,0.00036953,0,0,0,0.029627,-4.5806e-05,0.0088743,0.13722,0.012818,0.02637,5.9132e-07,0.86,1,0
0.042785,-0.014673,0.029796,-4.1304e-05,0.0089263,6.5518e-05,0,0,0.05426,-0.023316,0,0.00034069,0,0,0,0.029796,-4.1448e-05,0.0089263,0.12581,0.012894,0.026516,6.0139e-07,0.87,1,0
0.04333,-0.014687,0.029951,-3.7403e-05,0.008974,6.0026e-05,0,0,0.05454,-0.02343,0,0.00031214,0,0,0,0.029951,-3.7523e-05,0.008974,0.11469,0.012963,0.026651,6.1075e-07,0.88,1,0
0.043876,-0.014699,0.030092,-3.391e-05,0.0090175,5.4606e-05,0,0,0.054794,-0.023534,0,0.00028395,0,0,0,0.030092,-3.401e-05,0.0090175,0.10385,0.013025,0.026774,6.1936e-07,0.89,1,0
0.044425,-0.01471,0.03022,-3.0804e-05,0.0090569,4.927e-05,0,0,0.055025,-0.023628,0,0.00025621,0,0,0,0.030221,-3.0884e-05,0.0090569,0.093317,0.013082,0.026885,6.2723e-07,0.9,1,0
0.044977,-0.014719,0.030335,-2.8061e-05,0.0090922,4.4022e-05,0,0,0.055232,-0.023713,0,0.00022892,0,0,0,0.030335,-2.8125e-05,0.0090922,0.08307,0.013133,0.026985,6.3435e-07,0.91,1,0
0.04553,-0.014726,0.030437,-2.5663e-05,0.0091235,3.8864e-05,0,0,0.055416,-0.023788,0,0.00020209,0,0,0,0.030437,-2.5713e-05,0.0091235,0.073096,0.013178,0.027074,6.4071e-07,0.92,1,0
0.046085,-0.014733,0.030527,-2.3591e-05,0.0091509,3.3792e-05,0,0,0.055577,-0.023854,0,0.00017572,0,0,0,0.030527,-2.3628e-05,0.0091509,0.063375,0.013218,0.027152,6.4632e-07,0.93,1,0
0.046642,-0.014738,0.030604,-2.1829e-05,0.0091745,2.8801e-05,0,0,0.055716,-0.023911,0,0.00014977,0,0,0,0.030604,-2.1856e-05,0.0091745,0.053882,0.013252,0.027219,6.5118e-07,0.94,1,0
0.047199,-0.014742,0.030668,-2.0363e-05,0.0091944,2.3883e-05,0,0,0.055832,-0.023958,0,0.00012419,0,0,0,0.030668,-2.0381e-05,0.0091944,0.044589,0.013281,0.027275,6.5528e-07,0.95,1,0
0.047758,-0.014745,0.030721,-1.9179e-05,0.0092106,1.9027e-05,0,0,0.055927,-0.023997,0,9.8942e-05,0,0,0,0.030721,-1.9191e-05,0.0092106,0.035464,0.013304,0.027321,6.5864e-07,0.96,1,0
0.048318,-0.014748,0.030762,-1.8269e-05,0.0092231,1.4224e-05,0,0,0.056001,-0.024028,0,7.3964e-05,0,0,0,0.030762,-1.8276e-05,0.0092231,0.026477,0.013322,0.027356,6.6124e-07,0.97,1,0
0.048878,-0.01475,0.030791,-1.7625e-05,0.009232,9.4601e-06,0,0,0.056053,-0.024049,0,4.9193e-05,0,0,0,0.030791,-1.7628e-05,0.009232,0.017593,0.013335,0.027382,6.631e-07,0.98,1,0
0.049439,-0.014751,0.030808,-1.724e-05,0.0092373,4.7233e-06,0,0,0.056085,-0.024062,0,2.4561e-05,0,0,0,0.030808,-1.7241e-05,0.0092373,0.0087793,0.013343,0.027397,6.6422e-07,0.99,1,0
0.05,-0.014751,0.030814,-1.7113e-05,0.0092391,-6.583e-06,0,0,0.056095,-0.024066,0,-3.4232e-05,0,0,0,0.030814,-1.7114e-05,0.0092391,-0.012234,0.013345,0.027402,6.6459e-07,1,1,0
